 "x_c",  "y_c",  "u_c",  "v_c",  "exx",  "eyy",  "exy",  "e1",  "e2",  "gamma",  "e_vonmises",  "sigma",  "x",  "y",  "u",  "v"
-700,715,0,0,0,0,0,0,0,0,0,-1,524,309,0,0
-693,715,0,0,0,0,0,0,0,0,0,-1,531,309,0,0
-686,715,0,0,0,0,0,0,0,0,0,-1,538,309,0,0
-679,715,0,0,0,0,0,0,0,0,0,-1,545,309,0,0
-672,715,0,0,0,0,0,0,0,0,0,-1,552,309,0,0
-665,715,0,0,0,0,0,0,0,0,0,-1,559,309,0,0
-658,715,0,0,0,0,0,0,0,0,0,-1,566,309,0,0
-651,715,0,0,0,0,0,0,0,0,0,-1,573,309,0,0
-644,715,0,0,0,0,0,0,0,0,0,-1,580,309,0,0
-637,715,0,0,0,0,0,0,0,0,0,-1,587,309,0,0
-630,715,0,0,0,0,0,0,0,0,0,-1,594,309,0,0
-623,715,0,0,0,0,0,0,0,0,0,-1,601,309,0,0
-616,715,0,0,0,0,0,0,0,0,0,-1,608,309,0,0
-609,715,0,0,0,0,0,0,0,0,0,-1,615,309,0,0
-602,715,0,0,0,0,0,0,0,0,0,-1,622,309,0,0
-595,715,0,0,0,0,0,0,0,0,0,-1,629,309,0,0
-588,715,0,0,0,0,0,0,0,0,0,-1,636,309,0,0
-581,715,0,0,0,0,0,0,0,0,0,-1,643,309,0,0
-574,715,0,0,0,0,0,0,0,0,0,-1,650,309,0,0
-567,715,0,0,0,0,0,0,0,0,0,-1,657,309,0,0
-560,715,0,0,0,0,0,0,0,0,0,-1,664,309,0,0
-553,715,0,0,0,0,0,0,0,0,0,-1,671,309,0,0
-546,715,0,0,0,0,0,0,0,0,0,-1,678,309,0,0
-539,715,0,0,0,0,0,0,0,0,0,-1,685,309,0,0
-532,715,0,0,0,0,0,0,0,0,0,-1,692,309,0,0
-525,715,0,0,0,0,0,0,0,0,0,-1,699,309,0,0
-518,715,0,0,0,0,0,0,0,0,0,-1,706,309,0,0
-511,715,0,0,0,0,0,0,0,0,0,-1,713,309,0,0
-504,715,0,0,0,0,0,0,0,0,0,-1,720,309,0,0
-497,715,0,0,0,0,0,0,0,0,0,-1,727,309,0,0
-490,715,0,0,0,0,0,0,0,0,0,-1,734,309,0,0
-483,715,0,0,0,0,0,0,0,0,0,-1,741,309,0,0
-476,715,0,0,0,0,0,0,0,0,0,-1,748,309,0,0
-469,715,0,0,0,0,0,0,0,0,0,-1,755,309,0,0
-462,715,0,0,0,0,0,0,0,0,0,-1,762,309,0,0
-455,715,0,0,0,0,0,0,0,0,0,-1,769,309,0,0
-448,715,0,0,0,0,0,0,0,0,0,-1,776,309,0,0
-441,715,0,0,0,0,0,0,0,0,0,-1,783,309,0,0
-434,715,0,0,0,0,0,0,0,0,0,-1,790,309,0,0
-427,715,0,0,0,0,0,0,0,0,0,-1,797,309,0,0
-420,715,0,0,0,0,0,0,0,0,0,-1,804,309,0,0
-413,715,0,0,0,0,0,0,0,0,0,-1,811,309,0,0
-406,715,0,0,0,0,0,0,0,0,0,-1,818,309,0,0
-399,715,0,0,0,0,0,0,0,0,0,-1,825,309,0,0
-392,715,0,0,0,0,0,0,0,0,0,-1,832,309,0,0
-385,715,0,0,0,0,0,0,0,0,0,-1,839,309,0,0
-378,715,0,0,0,0,0,0,0,0,0,-1,846,309,0,0
-371,715,0,0,0,0,0,0,0,0,0,-1,853,309,0,0
-364,715,0,0,0,0,0,0,0,0,0,-1,860,309,0,0
-357,715,0,0,0,0,0,0,0,0,0,-1,867,309,0,0
-350,715,0,0,0,0,0,0,0,0,0,-1,874,309,0,0
-343,715,0,0,0,0,0,0,0,0,0,-1,881,309,0,0
-336,715,0,0,0,0,0,0,0,0,0,-1,888,309,0,0
-329,715,0,0,0,0,0,0,0,0,0,-1,895,309,0,0
-322,715,0,0,0,0,0,0,0,0,0,-1,902,309,0,0
-315,715,0,0,0,0,0,0,0,0,0,-1,909,309,0,0
-308,715,0,0,0,0,0,0,0,0,0,-1,916,309,0,0
-301,715,0,0,0,0,0,0,0,0,0,-1,923,309,0,0
-294,715,0,0,0,0,0,0,0,0,0,-1,930,309,0,0
-287,715,0,0,0,0,0,0,0,0,0,-1,937,309,0,0
-280,715,0,0,0,0,0,0,0,0,0,-1,944,309,0,0
-273,715,0,0,0,0,0,0,0,0,0,-1,951,309,0,0
-266,715,0,0,0,0,0,0,0,0,0,-1,958,309,0,0
-259,715,0,0,0,0,0,0,0,0,0,-1,965,309,0,0
-252,715,0,0,0,0,0,0,0,0,0,-1,972,309,0,0
-245,715,0,0,0,0,0,0,0,0,0,-1,979,309,0,0
-238,715,0,0,0,0,0,0,0,0,0,-1,986,309,0,0
-231,715,0,0,0,0,0,0,0,0,0,-1,993,309,0,0
-224,715,0,0,0,0,0,0,0,0,0,-1,1000,309,0,0
-217,715,0,0,0,0,0,0,0,0,0,-1,1007,309,0,0
-210,715,0,0,0,0,0,0,0,0,0,-1,1014,309,0,0
-203,715,0,0,0,0,0,0,0,0,0,-1,1021,309,0,0
-196,715,0,0,0,0,0,0,0,0,0,-1,1028,309,0,0
-189,715,0,0,0,0,0,0,0,0,0,-1,1035,309,0,0
-182,715,0,0,0,0,0,0,0,0,0,-1,1042,309,0,0
-175,715,0,0,0,0,0,0,0,0,0,-1,1049,309,0,0
-168,715,0,0,0,0,0,0,0,0,0,-1,1056,309,0,0
-161,715,0,0,0,0,0,0,0,0,0,-1,1063,309,0,0
-154,715,0,0,0,0,0,0,0,0,0,-1,1070,309,0,0
-147,715,0,0,0,0,0,0,0,0,0,-1,1077,309,0,0
-140,715,0,0,0,0,0,0,0,0,0,-1,1084,309,0,0
-133,715,0,0,0,0,0,0,0,0,0,-1,1091,309,0,0
-126,715,0,0,0,0,0,0,0,0,0,-1,1098,309,0,0
-119,715,0,0,0,0,0,0,0,0,0,-1,1105,309,0,0
-112,715,0,0,0,0,0,0,0,0,0,-1,1112,309,0,0
-105,715,0,0,0,0,0,0,0,0,0,-1,1119,309,0,0
-98,715,0,0,0,0,0,0,0,0,0,-1,1126,309,0,0
-91,715,0,0,0,0,0,0,0,0,0,-1,1133,309,0,0
-84,715,0,0,0,0,0,0,0,0,0,-1,1140,309,0,0
-77,715,0,0,0,0,0,0,0,0,0,-1,1147,309,0,0
-70,715,0,0,0,0,0,0,0,0,0,-1,1154,309,0,0
-63,715,0,0,0,0,0,0,0,0,0,-1,1161,309,0,0
-56,715,0,0,0,0,0,0,0,0,0,-1,1168,309,0,0
-49,715,0,0,0,0,0,0,0,0,0,-1,1175,309,0,0
-42,715,0,0,0,0,0,0,0,0,0,-1,1182,309,0,0
-35,715,0,0,0,0,0,0,0,0,0,-1,1189,309,0,0
-28,715,0,0,0,0,0,0,0,0,0,-1,1196,309,0,0
-21,715,0,0,0,0,0,0,0,0,0,-1,1203,309,0,0
-14,715,0,0,0,0,0,0,0,0,0,-1,1210,309,0,0
-7,715,0,0,0,0,0,0,0,0,0,-1,1217,309,0,0
0,715,0,0,0,0,0,0,0,0,0,-1,1224,309,0,0
7,715,0,0,0,0,0,0,0,0,0,-1,1231,309,0,0
14,715,0,0,0,0,0,0,0,0,0,-1,1238,309,0,0
21,715,0,0,0,0,0,0,0,0,0,-1,1245,309,0,0
28,715,0,0,0,0,0,0,0,0,0,-1,1252,309,0,0
35,715,0,0,0,0,0,0,0,0,0,-1,1259,309,0,0
42,715,0,0,0,0,0,0,0,0,0,-1,1266,309,0,0
49,715,0,0,0,0,0,0,0,0,0,-1,1273,309,0,0
56,715,0,0,0,0,0,0,0,0,0,-1,1280,309,0,0
63,715,7.50354,-53.4849,0,0,0,0,0,0,0,-1,1287,309,7.50351,53.4849
70,715,6.74292,-51.2088,0,0,0,0,0,0,0,-1,1294,309,6.74293,51.2088
77,715,0,0,0,0,0,0,0,0,0,-1,1301,309,0,0
84,715,0,0,0,0,0,0,0,0,0,-1,1308,309,0,0
91,715,0,0,0,0,0,0,0,0,0,-1,1315,309,0,0
98,715,0,0,0,0,0,0,0,0,0,-1,1322,309,0,0
105,715,0,0,0,0,0,0,0,0,0,-1,1329,309,0,0
112,715,0,0,0,0,0,0,0,0,0,-1,1336,309,0,0
119,715,0,0,0,0,0,0,0,0,0,-1,1343,309,0,0
126,715,0,0,0,0,0,0,0,0,0,-1,1350,309,0,0
133,715,0,0,0,0,0,0,0,0,0,-1,1357,309,0,0
140,715,0,0,0,0,0,0,0,0,0,-1,1364,309,0,0
147,715,0,0,0,0,0,0,0,0,0,-1,1371,309,0,0
154,715,0,0,0,0,0,0,0,0,0,-1,1378,309,0,0
161,715,0,0,0,0,0,0,0,0,0,-1,1385,309,0,0
168,715,0,0,0,0,0,0,0,0,0,-1,1392,309,0,0
175,715,0,0,0,0,0,0,0,0,0,-1,1399,309,0,0
182,715,0,0,0,0,0,0,0,0,0,-1,1406,309,0,0
189,715,0,0,0,0,0,0,0,0,0,-1,1413,309,0,0
196,715,0,0,0,0,0,0,0,0,0,-1,1420,309,0,0
203,715,0,0,0,0,0,0,0,0,0,-1,1427,309,0,0
210,715,0,0,0,0,0,0,0,0,0,-1,1434,309,0,0
217,715,0,0,0,0,0,0,0,0,0,-1,1441,309,0,0
224,715,0,0,0,0,0,0,0,0,0,-1,1448,309,0,0
231,715,0,0,0,0,0,0,0,0,0,-1,1455,309,0,0
238,715,0,0,0,0,0,0,0,0,0,-1,1462,309,0,0
245,715,0,0,0,0,0,0,0,0,0,-1,1469,309,0,0
252,715,0,0,0,0,0,0,0,0,0,-1,1476,309,0,0
259,715,0,0,0,0,0,0,0,0,0,-1,1483,309,0,0
266,715,0,0,0,0,0,0,0,0,0,-1,1490,309,0,0
273,715,0,0,0,0,0,0,0,0,0,-1,1497,309,0,0
280,715,0,0,0,0,0,0,0,0,0,-1,1504,309,0,0
287,715,0,0,0,0,0,0,0,0,0,-1,1511,309,0,0
294,715,0,0,0,0,0,0,0,0,0,-1,1518,309,0,0
301,715,0,0,0,0,0,0,0,0,0,-1,1525,309,0,0
308,715,0,0,0,0,0,0,0,0,0,-1,1532,309,0,0
315,715,0,0,0,0,0,0,0,0,0,-1,1539,309,0,0
322,715,0,0,0,0,0,0,0,0,0,-1,1546,309,0,0
329,715,0,0,0,0,0,0,0,0,0,-1,1553,309,0,0
336,715,0,0,0,0,0,0,0,0,0,-1,1560,309,0,0
343,715,0,0,0,0,0,0,0,0,0,-1,1567,309,0,0
350,715,0,0,0,0,0,0,0,0,0,-1,1574,309,0,0
357,715,0,0,0,0,0,0,0,0,0,-1,1581,309,0,0
364,715,0,0,0,0,0,0,0,0,0,-1,1588,309,0,0
371,715,0,0,0,0,0,0,0,0,0,-1,1595,309,0,0
378,715,0,0,0,0,0,0,0,0,0,-1,1602,309,0,0
385,715,0,0,0,0,0,0,0,0,0,-1,1609,309,0,0
392,715,0,0,0,0,0,0,0,0,0,-1,1616,309,0,0
399,715,0,0,0,0,0,0,0,0,0,-1,1623,309,0,0
406,715,0,0,0,0,0,0,0,0,0,-1,1630,309,0,0
413,715,0,0,0,0,0,0,0,0,0,-1,1637,309,0,0
420,715,0,0,0,0,0,0,0,0,0,-1,1644,309,0,0
427,715,0,0,0,0,0,0,0,0,0,-1,1651,309,0,0
434,715,0,0,0,0,0,0,0,0,0,-1,1658,309,0,0
441,715,0,0,0,0,0,0,0,0,0,-1,1665,309,0,0
448,715,0,0,0,0,0,0,0,0,0,-1,1672,309,0,0
455,715,0,0,0,0,0,0,0,0,0,-1,1679,309,0,0
462,715,0,0,0,0,0,0,0,0,0,-1,1686,309,0,0
469,715,0,0,0,0,0,0,0,0,0,-1,1693,309,0,0
476,715,0,0,0,0,0,0,0,0,0,-1,1700,309,0,0
483,715,0,0,0,0,0,0,0,0,0,-1,1707,309,0,0
490,715,0,0,0,0,0,0,0,0,0,-1,1714,309,0,0
497,715,0,0,0,0,0,0,0,0,0,-1,1721,309,0,0
504,715,0,0,0,0,0,0,0,0,0,-1,1728,309,0,0
511,715,0,0,0,0,0,0,0,0,0,-1,1735,309,0,0
518,715,0,0,0,0,0,0,0,0,0,-1,1742,309,0,0
525,715,0,0,0,0,0,0,0,0,0,-1,1749,309,0,0
532,715,0,0,0,0,0,0,0,0,0,-1,1756,309,0,0
539,715,0,0,0,0,0,0,0,0,0,-1,1763,309,0,0
546,715,0,0,0,0,0,0,0,0,0,-1,1770,309,0,0
553,715,0,0,0,0,0,0,0,0,0,-1,1777,309,0,0
560,715,0,0,0,0,0,0,0,0,0,-1,1784,309,0,0
567,715,0,0,0,0,0,0,0,0,0,-1,1791,309,0,0
574,715,0,0,0,0,0,0,0,0,0,-1,1798,309,0,0
581,715,0,0,0,0,0,0,0,0,0,-1,1805,309,0,0
588,715,0,0,0,0,0,0,0,0,0,-1,1812,309,0,0
595,715,0,0,0,0,0,0,0,0,0,-1,1819,309,0,0
602,715,0,0,0,0,0,0,0,0,0,-1,1826,309,0,0
609,715,0,0,0,0,0,0,0,0,0,-1,1833,309,0,0
616,715,0,0,0,0,0,0,0,0,0,-1,1840,309,0,0
623,715,0,0,0,0,0,0,0,0,0,-1,1847,309,0,0
630,715,0,0,0,0,0,0,0,0,0,-1,1854,309,0,0
637,715,0,0,0,0,0,0,0,0,0,-1,1861,309,0,0
644,715,0,0,0,0,0,0,0,0,0,-1,1868,309,0,0
651,715,0,0,0,0,0,0,0,0,0,-1,1875,309,0,0
658,715,0,0,0,0,0,0,0,0,0,-1,1882,309,0,0
665,715,0,0,0,0,0,0,0,0,0,-1,1889,309,0,0
672,715,0,0,0,0,0,0,0,0,0,-1,1896,309,0,0
679,715,0,0,0,0,0,0,0,0,0,-1,1903,309,0,0
686,715,0,0,0,0,0,0,0,0,0,-1,1910,309,0,0
693,715,0,0,0,0,0,0,0,0,0,-1,1917,309,0,0
700,715,0,0,0,0,0,0,0,0,0,-1,1924,309,0,0
707,715,0,0,0,0,0,0,0,0,0,-1,1931,309,0,0
714,715,0,0,0,0,0,0,0,0,0,-1,1938,309,0,0
721,715,0,0,0,0,0,0,0,0,0,-1,1945,309,0,0
728,715,0,0,0,0,0,0,0,0,0,-1,1952,309,0,0
735,715,0,0,0,0,0,0,0,0,0,-1,1959,309,0,0
742,715,0,0,0,0,0,0,0,0,0,-1,1966,309,0,0
749,715,0,0,0,0,0,0,0,0,0,-1,1973,309,0,0
756,715,0,0,0,0,0,0,0,0,0,-1,1980,309,0,0
763,715,0,0,0,0,0,0,0,0,0,-1,1987,309,0,0
770,715,0,0,0,0,0,0,0,0,0,-1,1994,309,0,0
777,715,0,0,0,0,0,0,0,0,0,-1,2001,309,0,0
784,715,0,0,0,0,0,0,0,0,0,-1,2008,309,0,0
791,715,0,0,0,0,0,0,0,0,0,-1,2015,309,0,0
798,715,0,0,0,0,0,0,0,0,0,-1,2022,309,0,0
805,715,0,0,0,0,0,0,0,0,0,-1,2029,309,0,0
812,715,0,0,0,0,0,0,0,0,0,-1,2036,309,0,0
-700,708,0,0,0,0,0,0,0,0,0,-1,524,316,0,0
-693,708,0,0,0,0,0,0,0,0,0,-1,531,316,0,0
-686,708,0,0,0,0,0,0,0,0,0,-1,538,316,0,0
-679,708,0,0,0,0,0,0,0,0,0,-1,545,316,0,0
-672,708,0,0,0,0,0,0,0,0,0,-1,552,316,0,0
-665,708,0,0,0,0,0,0,0,0,0,-1,559,316,0,0
-658,708,0,0,0,0,0,0,0,0,0,-1,566,316,0,0
-651,708,0,0,0,0,0,0,0,0,0,-1,573,316,0,0
-644,708,0,0,0,0,0,0,0,0,0,-1,580,316,0,0
-637,708,0,0,0,0,0,0,0,0,0,-1,587,316,0,0
-630,708,0,0,0,0,0,0,0,0,0,-1,594,316,0,0
-623,708,0,0,0,0,0,0,0,0,0,-1,601,316,0,0
-616,708,0,0,0,0,0,0,0,0,0,-1,608,316,0,0
-609,708,0,0,0,0,0,0,0,0,0,-1,615,316,0,0
-602,708,0,0,0,0,0,0,0,0,0,-1,622,316,0,0
-595,708,0,0,0,0,0,0,0,0,0,-1,629,316,0,0
-588,708,0,0,0,0,0,0,0,0,0,-1,636,316,0,0
-581,708,0,0,0,0,0,0,0,0,0,-1,643,316,0,0
-574,708,0,0,0,0,0,0,0,0,0,-1,650,316,0,0
-567,708,0,0,0,0,0,0,0,0,0,-1,657,316,0,0
-560,708,0,0,0,0,0,0,0,0,0,-1,664,316,0,0
-553,708,0,0,0,0,0,0,0,0,0,-1,671,316,0,0
-546,708,0,0,0,0,0,0,0,0,0,-1,678,316,0,0
-539,708,0,0,0,0,0,0,0,0,0,-1,685,316,0,0
-532,708,0,0,0,0,0,0,0,0,0,-1,692,316,0,0
-525,708,0,0,0,0,0,0,0,0,0,-1,699,316,0,0
-518,708,0,0,0,0,0,0,0,0,0,-1,706,316,0,0
-511,708,0,0,0,0,0,0,0,0,0,-1,713,316,0,0
-504,708,0,0,0,0,0,0,0,0,0,-1,720,316,0,0
-497,708,0,0,0,0,0,0,0,0,0,-1,727,316,0,0
-490,708,0,0,0,0,0,0,0,0,0,-1,734,316,0,0
-483,708,0,0,0,0,0,0,0,0,0,-1,741,316,0,0
-476,708,0,0,0,0,0,0,0,0,0,-1,748,316,0,0
-469,708,0,0,0,0,0,0,0,0,0,-1,755,316,0,0
-462,708,0,0,0,0,0,0,0,0,0,-1,762,316,0,0
-455,708,0,0,0,0,0,0,0,0,0,-1,769,316,0,0
-448,708,0,0,0,0,0,0,0,0,0,-1,776,316,0,0
-441,708,0,0,0,0,0,0,0,0,0,-1,783,316,0,0
-434,708,0,0,0,0,0,0,0,0,0,-1,790,316,0,0
-427,708,0,0,0,0,0,0,0,0,0,-1,797,316,0,0
-420,708,0,0,0,0,0,0,0,0,0,-1,804,316,0,0
-413,708,0,0,0,0,0,0,0,0,0,-1,811,316,0,0
-406,708,0,0,0,0,0,0,0,0,0,-1,818,316,0,0
-399,708,0,0,0,0,0,0,0,0,0,-1,825,316,0,0
-392,708,0,0,0,0,0,0,0,0,0,-1,832,316,0,0
-385,708,0,0,0,0,0,0,0,0,0,-1,839,316,0,0
-378,708,0,0,0,0,0,0,0,0,0,-1,846,316,0,0
-371,708,0,0,0,0,0,0,0,0,0,-1,853,316,0,0
-364,708,0,0,0,0,0,0,0,0,0,-1,860,316,0,0
-357,708,0,0,0,0,0,0,0,0,0,-1,867,316,0,0
-350,708,0,0,0,0,0,0,0,0,0,-1,874,316,0,0
-343,708,0,0,0,0,0,0,0,0,0,-1,881,316,0,0
-336,708,0,0,0,0,0,0,0,0,0,-1,888,316,0,0
-329,708,0,0,0,0,0,0,0,0,0,-1,895,316,0,0
-322,708,0,0,0,0,0,0,0,0,0,-1,902,316,0,0
-315,708,0,0,0,0,0,0,0,0,0,-1,909,316,0,0
-308,708,0,0,0,0,0,0,0,0,0,-1,916,316,0,0
-301,708,0,0,0,0,0,0,0,0,0,-1,923,316,0,0
-294,708,0,0,0,0,0,0,0,0,0,-1,930,316,0,0
-287,708,0,0,0,0,0,0,0,0,0,-1,937,316,0,0
-280,708,0,0,0,0,0,0,0,0,0,-1,944,316,0,0
-273,708,0,0,0,0,0,0,0,0,0,-1,951,316,0,0
-266,708,0,0,0,0,0,0,0,0,0,-1,958,316,0,0
-259,708,0,0,0,0,0,0,0,0,0,-1,965,316,0,0
-252,708,0,0,0,0,0,0,0,0,0,-1,972,316,0,0
-245,708,0,0,0,0,0,0,0,0,0,-1,979,316,0,0
-238,708,0,0,0,0,0,0,0,0,0,-1,986,316,0,0
-231,708,0,0,0,0,0,0,0,0,0,-1,993,316,0,0
-224,708,0,0,0,0,0,0,0,0,0,-1,1000,316,0,0
-217,708,0,0,0,0,0,0,0,0,0,-1,1007,316,0,0
-210,708,0,0,0,0,0,0,0,0,0,-1,1014,316,0,0
-203,708,0,0,0,0,0,0,0,0,0,-1,1021,316,0,0
-196,708,0,0,0,0,0,0,0,0,0,-1,1028,316,0,0
-189,708,0,0,0,0,0,0,0,0,0,-1,1035,316,0,0
-182,708,0,0,0,0,0,0,0,0,0,-1,1042,316,0,0
-175,708,0,0,0,0,0,0,0,0,0,-1,1049,316,0,0
-168,708,0,0,0,0,0,0,0,0,0,-1,1056,316,0,0
-161,708,0,0,0,0,0,0,0,0,0,-1,1063,316,0,0
-154,708,0,0,0,0,0,0,0,0,0,-1,1070,316,0,0
-147,708,0,0,0,0,0,0,0,0,0,-1,1077,316,0,0
-140,708,0,0,0,0,0,0,0,0,0,-1,1084,316,0,0
-133,708,0,0,0,0,0,0,0,0,0,-1,1091,316,0,0
-126,708,0,0,0,0,0,0,0,0,0,-1,1098,316,0,0
-119,708,0,0,0,0,0,0,0,0,0,-1,1105,316,0,0
-112,708,0,0,0,0,0,0,0,0,0,-1,1112,316,0,0
-105,708,0,0,0,0,0,0,0,0,0,-1,1119,316,0,0
-98,708,0,0,0,0,0,0,0,0,0,-1,1126,316,0,0
-91,708,0,0,0,0,0,0,0,0,0,-1,1133,316,0,0
-84,708,0,0,0,0,0,0,0,0,0,-1,1140,316,0,0
-77,708,0,0,0,0,0,0,0,0,0,-1,1147,316,0,0
-70,708,0,0,0,0,0,0,0,0,0,-1,1154,316,0,0
-63,708,0,0,0,0,0,0,0,0,0,-1,1161,316,0,0
-56,708,0,0,0,0,0,0,0,0,0,-1,1168,316,0,0
-49,708,0,0,0,0,0,0,0,0,0,-1,1175,316,0,0
-42,708,0,0,0,0,0,0,0,0,0,-1,1182,316,0,0
-35,708,-2.71204,-6.31558,0,0,0,0,0,0,0,-1,1189,316,-2.712,6.3156
-28,708,-2.92371,-5.53253,0,0,0,0,0,0,0,-1,1196,316,-2.92375,5.53254
-21,708,-0.417969,-24.5911,0,0,0,0,0,0,0,-1,1203,316,-0.418022,24.5911
-14,708,8.6875,-56.1578,0,0,0,0,0,0,0,-1,1210,316,8.68752,56.1578
-7,708,8.55286,-55.2036,0,0,0,0,0,0,0,-1,1217,316,8.55282,55.2035
0,708,5.10803,-54.3994,0,0,0,0,0,0,0,-1,1224,316,5.10808,54.3994
7,708,7.05725,-62.1366,0,0,0,0,0,0,0,-1,1231,316,7.05729,62.1366
14,708,7.06177,-61.505,0.010238,0.0581588,0.0487111,0.0884835,-0.0200866,1.01397,0.0667004,0.049489,1238,316,7.06176,61.505
21,708,7.09534,-60.9388,0.00761087,0.0554561,0.0539711,0.0905688,-0.0275018,0.994011,0.071336,0.0447283,1245,316,7.0953,60.9389
28,708,7.16138,-59.9767,0.0025363,0.0562036,0.0598234,0.0949358,-0.0361959,0.996221,0.0781998,0.0476265,1252,316,7.16139,59.9767
35,708,7.224,-58.6505,0,0,0,0,0,0,0,-1,1259,316,7.22396,58.6505
42,708,7.00293,-57.638,-0.0117151,0.0725327,0.0713075,0.113229,-0.0524114,1.05219,0.0977576,0.0456382,1266,316,7.00293,57.638
49,708,7.00476,-56.8085,-0.0212111,0.0881182,0.0765418,0.127511,-0.0606043,1.09549,0.110875,0.0460767,1273,316,7.00473,56.8085
56,708,6.77405,-55.4203,0,0,0,0,0,0,0,-1,1280,316,6.77409,55.4202
63,708,7.09375,-54.0564,-0.041673,0.124933,0.0857631,0.161191,-0.0779303,1.17082,0.140819,0.0401931,1287,316,7.09378,54.0564
70,708,6.73914,-52.2077,-0.0518433,0.143084,0.0898293,0.178167,-0.0869257,1.19847,0.156044,0.0399002,1294,316,6.73912,52.2077
77,708,5.62512,-51.0759,-0.062103,0.164516,0.0928238,0.197683,-0.0952698,1.22763,0.172547,0.0412044,1301,316,5.62518,51.0759
84,708,4.54858,-50.1695,-0.0715727,0.185445,0.094516,0.21646,-0.102587,1.25372,0.188072,0.0446847,1308,316,4.54852,50.1695
91,708,4.22876,-49.2267,-0.0794231,0.202368,0.0935476,0.230596,-0.107651,1.27774,0.199541,0.0493399,1315,316,4.22874,49.2268
98,708,3.73657,-48.4303,0,0,0,0,0,0,0,-1,1322,316,3.73663,48.4303
105,708,3.28186,-48.9785,-0.0934624,0.230576,0.0884273,0.253137,-0.116023,1.321,0.21798,0.0489602,1329,316,3.28192,48.9784
112,708,2.81665,-47.9216,-0.0969876,0.236933,0.0829139,0.256388,-0.116442,1.34033,0.22025,0.0452703,1336,316,2.81663,47.9216
119,708,2.0802,-47.0399,0,0,0,0,0,0,0,-1,1343,316,2.08022,47.0399
126,708,-0.709717,-46.58,0,0,0,0,0,0,0,-1,1350,316,-0.709737,46.58
133,708,-1.47803,-46.6425,0,0,0,0,0,0,0,-1,1357,316,-1.47806,46.6425
140,708,-1.95435,-46.988,0,0,0,0,0,0,0,-1,1364,316,-1.95431,46.988
147,708,-2.41565,-46.6527,0,0,0,0,0,0,0,-1,1371,316,-2.4156,46.6527
154,708,0,0,0,0,0,0,0,0,0,-1,1378,316,0,0
161,708,0,0,0,0,0,0,0,0,0,-1,1385,316,0,0
168,708,0,0,0,0,0,0,0,0,0,-1,1392,316,0,0
175,708,0,0,0,0,0,0,0,0,0,-1,1399,316,0,0
182,708,0,0,0,0,0,0,0,0,0,-1,1406,316,0,0
189,708,0,0,0,0,0,0,0,0,0,-1,1413,316,0,0
196,708,0,0,0,0,0,0,0,0,0,-1,1420,316,0,0
203,708,0,0,0,0,0,0,0,0,0,-1,1427,316,0,0
210,708,0,0,0,0,0,0,0,0,0,-1,1434,316,0,0
217,708,0,0,0,0,0,0,0,0,0,-1,1441,316,0,0
224,708,0,0,0,0,0,0,0,0,0,-1,1448,316,0,0
231,708,0,0,0,0,0,0,0,0,0,-1,1455,316,0,0
238,708,0,0,0,0,0,0,0,0,0,-1,1462,316,0,0
245,708,0,0,0,0,0,0,0,0,0,-1,1469,316,0,0
252,708,0,0,0,0,0,0,0,0,0,-1,1476,316,0,0
259,708,0,0,0,0,0,0,0,0,0,-1,1483,316,0,0
266,708,0,0,0,0,0,0,0,0,0,-1,1490,316,0,0
273,708,0,0,0,0,0,0,0,0,0,-1,1497,316,0,0
280,708,0,0,0,0,0,0,0,0,0,-1,1504,316,0,0
287,708,0,0,0,0,0,0,0,0,0,-1,1511,316,0,0
294,708,0,0,0,0,0,0,0,0,0,-1,1518,316,0,0
301,708,0,0,0,0,0,0,0,0,0,-1,1525,316,0,0
308,708,0,0,0,0,0,0,0,0,0,-1,1532,316,0,0
315,708,0,0,0,0,0,0,0,0,0,-1,1539,316,0,0
322,708,0,0,0,0,0,0,0,0,0,-1,1546,316,0,0
329,708,0,0,0,0,0,0,0,0,0,-1,1553,316,0,0
336,708,0,0,0,0,0,0,0,0,0,-1,1560,316,0,0
343,708,0,0,0,0,0,0,0,0,0,-1,1567,316,0,0
350,708,0,0,0,0,0,0,0,0,0,-1,1574,316,0,0
357,708,0,0,0,0,0,0,0,0,0,-1,1581,316,0,0
364,708,0,0,0,0,0,0,0,0,0,-1,1588,316,0,0
371,708,0,0,0,0,0,0,0,0,0,-1,1595,316,0,0
378,708,0,0,0,0,0,0,0,0,0,-1,1602,316,0,0
385,708,0,0,0,0,0,0,0,0,0,-1,1609,316,0,0
392,708,0,0,0,0,0,0,0,0,0,-1,1616,316,0,0
399,708,0,0,0,0,0,0,0,0,0,-1,1623,316,0,0
406,708,0,0,0,0,0,0,0,0,0,-1,1630,316,0,0
413,708,0,0,0,0,0,0,0,0,0,-1,1637,316,0,0
420,708,0,0,0,0,0,0,0,0,0,-1,1644,316,0,0
427,708,0,0,0,0,0,0,0,0,0,-1,1651,316,0,0
434,708,0,0,0,0,0,0,0,0,0,-1,1658,316,0,0
441,708,0,0,0,0,0,0,0,0,0,-1,1665,316,0,0
448,708,0,0,0,0,0,0,0,0,0,-1,1672,316,0,0
455,708,0,0,0,0,0,0,0,0,0,-1,1679,316,0,0
462,708,0,0,0,0,0,0,0,0,0,-1,1686,316,0,0
469,708,0,0,0,0,0,0,0,0,0,-1,1693,316,0,0
476,708,0,0,0,0,0,0,0,0,0,-1,1700,316,0,0
483,708,0,0,0,0,0,0,0,0,0,-1,1707,316,0,0
490,708,0,0,0,0,0,0,0,0,0,-1,1714,316,0,0
497,708,0,0,0,0,0,0,0,0,0,-1,1721,316,0,0
504,708,0,0,0,0,0,0,0,0,0,-1,1728,316,0,0
511,708,0,0,0,0,0,0,0,0,0,-1,1735,316,0,0
518,708,0,0,0,0,0,0,0,0,0,-1,1742,316,0,0
525,708,0,0,0,0,0,0,0,0,0,-1,1749,316,0,0
532,708,0,0,0,0,0,0,0,0,0,-1,1756,316,0,0
539,708,0,0,0,0,0,0,0,0,0,-1,1763,316,0,0
546,708,0,0,0,0,0,0,0,0,0,-1,1770,316,0,0
553,708,0,0,0,0,0,0,0,0,0,-1,1777,316,0,0
560,708,0,0,0,0,0,0,0,0,0,-1,1784,316,0,0
567,708,0,0,0,0,0,0,0,0,0,-1,1791,316,0,0
574,708,0,0,0,0,0,0,0,0,0,-1,1798,316,0,0
581,708,0,0,0,0,0,0,0,0,0,-1,1805,316,0,0
588,708,0,0,0,0,0,0,0,0,0,-1,1812,316,0,0
595,708,0,0,0,0,0,0,0,0,0,-1,1819,316,0,0
602,708,0,0,0,0,0,0,0,0,0,-1,1826,316,0,0
609,708,0,0,0,0,0,0,0,0,0,-1,1833,316,0,0
616,708,0,0,0,0,0,0,0,0,0,-1,1840,316,0,0
623,708,0,0,0,0,0,0,0,0,0,-1,1847,316,0,0
630,708,0,0,0,0,0,0,0,0,0,-1,1854,316,0,0
637,708,0,0,0,0,0,0,0,0,0,-1,1861,316,0,0
644,708,0,0,0,0,0,0,0,0,0,-1,1868,316,0,0
651,708,0,0,0,0,0,0,0,0,0,-1,1875,316,0,0
658,708,0,0,0,0,0,0,0,0,0,-1,1882,316,0,0
665,708,0,0,0,0,0,0,0,0,0,-1,1889,316,0,0
672,708,0,0,0,0,0,0,0,0,0,-1,1896,316,0,0
679,708,0,0,0,0,0,0,0,0,0,-1,1903,316,0,0
686,708,0,0,0,0,0,0,0,0,0,-1,1910,316,0,0
693,708,0,0,0,0,0,0,0,0,0,-1,1917,316,0,0
700,708,0,0,0,0,0,0,0,0,0,-1,1924,316,0,0
707,708,0,0,0,0,0,0,0,0,0,-1,1931,316,0,0
714,708,0,0,0,0,0,0,0,0,0,-1,1938,316,0,0
721,708,0,0,0,0,0,0,0,0,0,-1,1945,316,0,0
728,708,0,0,0,0,0,0,0,0,0,-1,1952,316,0,0
735,708,0,0,0,0,0,0,0,0,0,-1,1959,316,0,0
742,708,0,0,0,0,0,0,0,0,0,-1,1966,316,0,0
749,708,0,0,0,0,0,0,0,0,0,-1,1973,316,0,0
756,708,0,0,0,0,0,0,0,0,0,-1,1980,316,0,0
763,708,0,0,0,0,0,0,0,0,0,-1,1987,316,0,0
770,708,0,0,0,0,0,0,0,0,0,-1,1994,316,0,0
777,708,0,0,0,0,0,0,0,0,0,-1,2001,316,0,0
784,708,0,0,0,0,0,0,0,0,0,-1,2008,316,0,0
791,708,0,0,0,0,0,0,0,0,0,-1,2015,316,0,0
798,708,0,0,0,0,0,0,0,0,0,-1,2022,316,0,0
805,708,0,0,0,0,0,0,0,0,0,-1,2029,316,0,0
812,708,0,0,0,0,0,0,0,0,0,-1,2036,316,0,0
-700,701,0,0,0,0,0,0,0,0,0,-1,524,323,0,0
-693,701,0,0,0,0,0,0,0,0,0,-1,531,323,0,0
-686,701,0,0,0,0,0,0,0,0,0,-1,538,323,0,0
-679,701,0,0,0,0,0,0,0,0,0,-1,545,323,0,0
-672,701,0,0,0,0,0,0,0,0,0,-1,552,323,0,0
-665,701,0,0,0,0,0,0,0,0,0,-1,559,323,0,0
-658,701,0,0,0,0,0,0,0,0,0,-1,566,323,0,0
-651,701,0,0,0,0,0,0,0,0,0,-1,573,323,0,0
-644,701,0,0,0,0,0,0,0,0,0,-1,580,323,0,0
-637,701,0,0,0,0,0,0,0,0,0,-1,587,323,0,0
-630,701,0,0,0,0,0,0,0,0,0,-1,594,323,0,0
-623,701,0,0,0,0,0,0,0,0,0,-1,601,323,0,0
-616,701,0,0,0,0,0,0,0,0,0,-1,608,323,0,0
-609,701,0,0,0,0,0,0,0,0,0,-1,615,323,0,0
-602,701,0,0,0,0,0,0,0,0,0,-1,622,323,0,0
-595,701,0,0,0,0,0,0,0,0,0,-1,629,323,0,0
-588,701,0,0,0,0,0,0,0,0,0,-1,636,323,0,0
-581,701,0,0,0,0,0,0,0,0,0,-1,643,323,0,0
-574,701,0,0,0,0,0,0,0,0,0,-1,650,323,0,0
-567,701,0,0,0,0,0,0,0,0,0,-1,657,323,0,0
-560,701,0,0,0,0,0,0,0,0,0,-1,664,323,0,0
-553,701,0,0,0,0,0,0,0,0,0,-1,671,323,0,0
-546,701,0,0,0,0,0,0,0,0,0,-1,678,323,0,0
-539,701,0,0,0,0,0,0,0,0,0,-1,685,323,0,0
-532,701,0,0,0,0,0,0,0,0,0,-1,692,323,0,0
-525,701,0,0,0,0,0,0,0,0,0,-1,699,323,0,0
-518,701,0,0,0,0,0,0,0,0,0,-1,706,323,0,0
-511,701,0,0,0,0,0,0,0,0,0,-1,713,323,0,0
-504,701,0,0,0,0,0,0,0,0,0,-1,720,323,0,0
-497,701,0,0,0,0,0,0,0,0,0,-1,727,323,0,0
-490,701,0,0,0,0,0,0,0,0,0,-1,734,323,0,0
-483,701,0,0,0,0,0,0,0,0,0,-1,741,323,0,0
-476,701,0,0,0,0,0,0,0,0,0,-1,748,323,0,0
-469,701,0,0,0,0,0,0,0,0,0,-1,755,323,0,0
-462,701,0,0,0,0,0,0,0,0,0,-1,762,323,0,0
-455,701,0,0,0,0,0,0,0,0,0,-1,769,323,0,0
-448,701,0,0,0,0,0,0,0,0,0,-1,776,323,0,0
-441,701,0,0,0,0,0,0,0,0,0,-1,783,323,0,0
-434,701,0,0,0,0,0,0,0,0,0,-1,790,323,0,0
-427,701,0,0,0,0,0,0,0,0,0,-1,797,323,0,0
-420,701,0,0,0,0,0,0,0,0,0,-1,804,323,0,0
-413,701,0,0,0,0,0,0,0,0,0,-1,811,323,0,0
-406,701,0,0,0,0,0,0,0,0,0,-1,818,323,0,0
-399,701,0,0,0,0,0,0,0,0,0,-1,825,323,0,0
-392,701,0,0,0,0,0,0,0,0,0,-1,832,323,0,0
-385,701,0,0,0,0,0,0,0,0,0,-1,839,323,0,0
-378,701,0,0,0,0,0,0,0,0,0,-1,846,323,0,0
-371,701,0,0,0,0,0,0,0,0,0,-1,853,323,0,0
-364,701,0,0,0,0,0,0,0,0,0,-1,860,323,0,0
-357,701,0,0,0,0,0,0,0,0,0,-1,867,323,0,0
-350,701,0,0,0,0,0,0,0,0,0,-1,874,323,0,0
-343,701,0,0,0,0,0,0,0,0,0,-1,881,323,0,0
-336,701,0,0,0,0,0,0,0,0,0,-1,888,323,0,0
-329,701,0,0,0,0,0,0,0,0,0,-1,895,323,0,0
-322,701,0,0,0,0,0,0,0,0,0,-1,902,323,0,0
-315,701,0,0,0,0,0,0,0,0,0,-1,909,323,0,0
-308,701,0,0,0,0,0,0,0,0,0,-1,916,323,0,0
-301,701,0,0,0,0,0,0,0,0,0,-1,923,323,0,0
-294,701,0,0,0,0,0,0,0,0,0,-1,930,323,0,0
-287,701,0,0,0,0,0,0,0,0,0,-1,937,323,0,0
-280,701,0,0,0,0,0,0,0,0,0,-1,944,323,0,0
-273,701,0,0,0,0,0,0,0,0,0,-1,951,323,0,0
-266,701,0,0,0,0,0,0,0,0,0,-1,958,323,0,0
-259,701,0,0,0,0,0,0,0,0,0,-1,965,323,0,0
-252,701,0,0,0,0,0,0,0,0,0,-1,972,323,0,0
-245,701,0,0,0,0,0,0,0,0,0,-1,979,323,0,0
-238,701,0,0,0,0,0,0,0,0,0,-1,986,323,0,0
-231,701,0,0,0,0,0,0,0,0,0,-1,993,323,0,0
-224,701,0,0,0,0,0,0,0,0,0,-1,1000,323,0,0
-217,701,0,0,0,0,0,0,0,0,0,-1,1007,323,0,0
-210,701,0,0,0,0,0,0,0,0,0,-1,1014,323,0,0
-203,701,0,0,0,0,0,0,0,0,0,-1,1021,323,0,0
-196,701,0,0,0,0,0,0,0,0,0,-1,1028,323,0,0
-189,701,0,0,0,0,0,0,0,0,0,-1,1035,323,0,0
-182,701,0,0,0,0,0,0,0,0,0,-1,1042,323,0,0
-175,701,0,0,0,0,0,0,0,0,0,-1,1049,323,0,0
-168,701,0,0,0,0,0,0,0,0,0,-1,1056,323,0,0
-161,701,0,0,0,0,0,0,0,0,0,-1,1063,323,0,0
-154,701,0,0,0,0,0,0,0,0,0,-1,1070,323,0,0
-147,701,0,0,0,0,0,0,0,0,0,-1,1077,323,0,0
-140,701,0,0,0,0,0,0,0,0,0,-1,1084,323,0,0
-133,701,0,0,0,0,0,0,0,0,0,-1,1091,323,0,0
-126,701,0,0,0,0,0,0,0,0,0,-1,1098,323,0,0
-119,701,0,0,0,0,0,0,0,0,0,-1,1105,323,0,0
-112,701,0,0,0,0,0,0,0,0,0,-1,1112,323,0,0
-105,701,0,0,0,0,0,0,0,0,0,-1,1119,323,0,0
-98,701,0,0,0,0,0,0,0,0,0,-1,1126,323,0,0
-91,701,0,0,0,0,0,0,0,0,0,-1,1133,323,0,0
-84,701,0,0,0,0,0,0,0,0,0,-1,1140,323,0,0
-77,701,0,0,0,0,0,0,0,0,0,-1,1147,323,0,0
-70,701,-12.7566,-30.413,0,0,0,0,0,0,0,-1,1154,323,-12.7566,30.413
-63,701,-18.3169,-21.2322,0,0,0,0,0,0,0,-1,1161,323,-18.3169,21.2322
-56,701,-0.420166,-0.101776,0,0,0,0,0,0,0,-1,1168,323,-0.420119,0.101777
-49,701,-1.09021,-0.155762,0,0,0,0,0,0,0,-1,1175,323,-1.09024,0.155768
-42,701,-0.210327,-0.299133,0,0,0,0,0,0,0,-1,1182,323,-0.210379,0.29914
-35,701,-2.9635,-7.98676,0,0,0,0,0,0,0,-1,1189,323,-2.9635,7.98676
-28,701,-6.64417,-5.4917,0,0,0,0,0,0,0,-1,1196,323,-6.64411,5.4917
-21,701,8.37988,-52.0291,0,0,0,0,0,0,0,-1,1203,323,8.37988,52.0291
-14,701,7.95874,-58.2187,0,0,0,0,0,0,0,-1,1210,323,7.95874,58.2187
-7,701,7.80847,-57.2257,0,0,0,0,0,0,0,-1,1217,323,7.80849,57.2257
0,701,7.51514,-64.9315,0,0,0,0,0,0,0,-1,1224,323,7.51514,64.9315
7,701,7.42017,-63.7438,0,0,0,0,0,0,0,-1,1231,323,7.42013,63.7438
14,701,7.42358,-62.4539,0.0052607,0.054277,0.0405616,0.0771596,-0.017622,1.05716,0.0582098,0.0479795,1238,323,7.4236,62.4539
21,701,7.57239,-61.2154,0.00313819,0.0533845,0.0448724,0.0796881,-0.0231653,1.0406,0.0622997,0.046026,1245,323,7.57235,61.2154
28,701,7.54321,-59.9855,-0.000771333,0.0544312,0.0493424,0.0833676,-0.0297077,1.04041,0.06769,0.0478183,1252,323,7.54327,59.9855
35,701,7.37939,-58.9178,-0.00563697,0.0591914,0.0536409,0.0894512,-0.0358968,1.05718,0.0745389,0.0471757,1259,323,7.37941,58.9178
42,701,7.17175,-57.9062,-0.0116269,0.0689333,0.0577987,0.0991031,-0.0417966,1.08972,0.0835611,0.0472422,1266,323,7.17172,57.9062
49,701,6.92188,-56.9037,-0.0196708,0.0826866,0.0619069,0.111831,-0.0488148,1.1308,0.0950975,0.0485697,1273,323,6.92183,56.9037
56,701,6.76465,-55.8676,0,0,0,0,0,0,0,-1,1280,323,6.76466,55.8676
63,701,6.66614,-54.7108,-0.0382654,0.116043,0.0698297,0.142951,-0.0651735,1.20299,0.122926,0.0453589,1287,323,6.66615,54.7108
70,701,6.46411,-53.4245,-0.0476658,0.133137,0.0733418,0.159146,-0.073675,1.23,0.137406,0.0439562,1294,323,6.46411,53.4245
77,701,5.65356,-52.1815,-0.0573203,0.15274,0.0759029,0.177296,-0.0818764,1.2579,0.152976,0.0462509,1301,323,5.65356,52.1815
84,701,4.91736,-51.1873,-0.0665756,0.17196,0.077429,0.194889,-0.0895051,1.28289,0.167911,0.0473435,1308,323,4.91739,51.1874
91,701,4.12061,-50.5567,-0.074388,0.187572,0.076861,0.208458,-0.0952744,1.30546,0.179373,0.0466164,1315,323,4.12064,50.5567
98,701,3.37073,-49.6769,0,0,0,0,0,0,0,-1,1322,323,3.37069,49.6769
105,701,2.96777,-49.9234,-0.0876001,0.213599,0.0736199,0.230631,-0.104631,1.34345,0.198068,0.0465564,1329,323,2.96776,49.9234
112,701,2.42163,-49.0116,-0.0909256,0.219788,0.0696354,0.234681,-0.105818,1.36011,0.201225,0.0449703,1336,323,2.42165,49.0116
119,701,1.82288,-48.324,-0.0941102,0.225889,0.0638803,0.23817,-0.106391,1.38087,0.203724,0.0459357,1343,323,1.82284,48.324
126,701,1.02319,-47.5588,0,0,0,0,0,0,0,-1,1350,323,1.02324,47.5588
133,701,-0.630249,-48.6915,0,0,0,0,0,0,0,-1,1357,323,-0.630251,48.6915
140,701,-1.52734,-48.1778,-0.0956348,0.231132,0.0428589,0.23666,-0.101163,1.44253,0.200203,0.0475639,1364,323,-1.52732,48.1778
147,701,-2.28003,-47.8584,-0.0958816,0.231576,0.0327197,0.234813,-0.0991189,1.47218,0.198031,0.0462661,1371,323,-2.28,47.8584
154,701,-3.02625,-47.5536,0,0,0,0,0,0,0,-1,1378,323,-3.02628,47.5537
161,701,-0.704102,-37.5125,0,0,0,0,0,0,0,-1,1385,323,-0.704147,37.5126
168,701,30.7272,1.76184,0,0,0,0,0,0,0,-1,1392,323,30.7272,-1.76184
175,701,31.5035,2.25711,0,0,0,0,0,0,0,-1,1399,323,31.5036,-2.25712
182,701,8.80652,5.42807,0,0,0,0,0,0,0,-1,1406,323,8.8065,-5.42808
189,701,8.58081,4.24493,0,0,0,0,0,0,0,-1,1413,323,8.58082,-4.24494
196,701,0,0,0,0,0,0,0,0,0,-1,1420,323,0,0
203,701,0,0,0,0,0,0,0,0,0,-1,1427,323,0,0
210,701,0,0,0,0,0,0,0,0,0,-1,1434,323,0,0
217,701,0,0,0,0,0,0,0,0,0,-1,1441,323,0,0
224,701,0,0,0,0,0,0,0,0,0,-1,1448,323,0,0
231,701,0,0,0,0,0,0,0,0,0,-1,1455,323,0,0
238,701,0,0,0,0,0,0,0,0,0,-1,1462,323,0,0
245,701,0,0,0,0,0,0,0,0,0,-1,1469,323,0,0
252,701,0,0,0,0,0,0,0,0,0,-1,1476,323,0,0
259,701,0,0,0,0,0,0,0,0,0,-1,1483,323,0,0
266,701,0,0,0,0,0,0,0,0,0,-1,1490,323,0,0
273,701,0,0,0,0,0,0,0,0,0,-1,1497,323,0,0
280,701,0,0,0,0,0,0,0,0,0,-1,1504,323,0,0
287,701,0,0,0,0,0,0,0,0,0,-1,1511,323,0,0
294,701,0,0,0,0,0,0,0,0,0,-1,1518,323,0,0
301,701,0,0,0,0,0,0,0,0,0,-1,1525,323,0,0
308,701,0,0,0,0,0,0,0,0,0,-1,1532,323,0,0
315,701,0,0,0,0,0,0,0,0,0,-1,1539,323,0,0
322,701,0,0,0,0,0,0,0,0,0,-1,1546,323,0,0
329,701,0,0,0,0,0,0,0,0,0,-1,1553,323,0,0
336,701,0,0,0,0,0,0,0,0,0,-1,1560,323,0,0
343,701,0,0,0,0,0,0,0,0,0,-1,1567,323,0,0
350,701,0,0,0,0,0,0,0,0,0,-1,1574,323,0,0
357,701,0,0,0,0,0,0,0,0,0,-1,1581,323,0,0
364,701,0,0,0,0,0,0,0,0,0,-1,1588,323,0,0
371,701,0,0,0,0,0,0,0,0,0,-1,1595,323,0,0
378,701,0,0,0,0,0,0,0,0,0,-1,1602,323,0,0
385,701,0,0,0,0,0,0,0,0,0,-1,1609,323,0,0
392,701,0,0,0,0,0,0,0,0,0,-1,1616,323,0,0
399,701,0,0,0,0,0,0,0,0,0,-1,1623,323,0,0
406,701,0,0,0,0,0,0,0,0,0,-1,1630,323,0,0
413,701,0,0,0,0,0,0,0,0,0,-1,1637,323,0,0
420,701,0,0,0,0,0,0,0,0,0,-1,1644,323,0,0
427,701,0,0,0,0,0,0,0,0,0,-1,1651,323,0,0
434,701,0,0,0,0,0,0,0,0,0,-1,1658,323,0,0
441,701,0,0,0,0,0,0,0,0,0,-1,1665,323,0,0
448,701,0,0,0,0,0,0,0,0,0,-1,1672,323,0,0
455,701,0,0,0,0,0,0,0,0,0,-1,1679,323,0,0
462,701,0,0,0,0,0,0,0,0,0,-1,1686,323,0,0
469,701,0,0,0,0,0,0,0,0,0,-1,1693,323,0,0
476,701,0,0,0,0,0,0,0,0,0,-1,1700,323,0,0
483,701,0,0,0,0,0,0,0,0,0,-1,1707,323,0,0
490,701,0,0,0,0,0,0,0,0,0,-1,1714,323,0,0
497,701,0,0,0,0,0,0,0,0,0,-1,1721,323,0,0
504,701,0,0,0,0,0,0,0,0,0,-1,1728,323,0,0
511,701,0,0,0,0,0,0,0,0,0,-1,1735,323,0,0
518,701,0,0,0,0,0,0,0,0,0,-1,1742,323,0,0
525,701,0,0,0,0,0,0,0,0,0,-1,1749,323,0,0
532,701,0,0,0,0,0,0,0,0,0,-1,1756,323,0,0
539,701,0,0,0,0,0,0,0,0,0,-1,1763,323,0,0
546,701,0,0,0,0,0,0,0,0,0,-1,1770,323,0,0
553,701,0,0,0,0,0,0,0,0,0,-1,1777,323,0,0
560,701,0,0,0,0,0,0,0,0,0,-1,1784,323,0,0
567,701,0,0,0,0,0,0,0,0,0,-1,1791,323,0,0
574,701,0,0,0,0,0,0,0,0,0,-1,1798,323,0,0
581,701,0,0,0,0,0,0,0,0,0,-1,1805,323,0,0
588,701,0,0,0,0,0,0,0,0,0,-1,1812,323,0,0
595,701,0,0,0,0,0,0,0,0,0,-1,1819,323,0,0
602,701,0,0,0,0,0,0,0,0,0,-1,1826,323,0,0
609,701,0,0,0,0,0,0,0,0,0,-1,1833,323,0,0
616,701,0,0,0,0,0,0,0,0,0,-1,1840,323,0,0
623,701,0,0,0,0,0,0,0,0,0,-1,1847,323,0,0
630,701,0,0,0,0,0,0,0,0,0,-1,1854,323,0,0
637,701,0,0,0,0,0,0,0,0,0,-1,1861,323,0,0
644,701,0,0,0,0,0,0,0,0,0,-1,1868,323,0,0
651,701,0,0,0,0,0,0,0,0,0,-1,1875,323,0,0
658,701,0,0,0,0,0,0,0,0,0,-1,1882,323,0,0
665,701,0,0,0,0,0,0,0,0,0,-1,1889,323,0,0
672,701,0,0,0,0,0,0,0,0,0,-1,1896,323,0,0
679,701,0,0,0,0,0,0,0,0,0,-1,1903,323,0,0
686,701,0,0,0,0,0,0,0,0,0,-1,1910,323,0,0
693,701,0,0,0,0,0,0,0,0,0,-1,1917,323,0,0
700,701,0,0,0,0,0,0,0,0,0,-1,1924,323,0,0
707,701,0,0,0,0,0,0,0,0,0,-1,1931,323,0,0
714,701,0,0,0,0,0,0,0,0,0,-1,1938,323,0,0
721,701,0,0,0,0,0,0,0,0,0,-1,1945,323,0,0
728,701,0,0,0,0,0,0,0,0,0,-1,1952,323,0,0
735,701,0,0,0,0,0,0,0,0,0,-1,1959,323,0,0
742,701,0,0,0,0,0,0,0,0,0,-1,1966,323,0,0
749,701,0,0,0,0,0,0,0,0,0,-1,1973,323,0,0
756,701,0,0,0,0,0,0,0,0,0,-1,1980,323,0,0
763,701,0,0,0,0,0,0,0,0,0,-1,1987,323,0,0
770,701,0,0,0,0,0,0,0,0,0,-1,1994,323,0,0
777,701,0,0,0,0,0,0,0,0,0,-1,2001,323,0,0
784,701,0,0,0,0,0,0,0,0,0,-1,2008,323,0,0
791,701,0,0,0,0,0,0,0,0,0,-1,2015,323,0,0
798,701,0,0,0,0,0,0,0,0,0,-1,2022,323,0,0
805,701,0,0,0,0,0,0,0,0,0,-1,2029,323,0,0
812,701,0,0,0,0,0,0,0,0,0,-1,2036,323,0,0
-700,694,0,0,0,0,0,0,0,0,0,-1,524,330,0,0
-693,694,0,0,0,0,0,0,0,0,0,-1,531,330,0,0
-686,694,0,0,0,0,0,0,0,0,0,-1,538,330,0,0
-679,694,0,0,0,0,0,0,0,0,0,-1,545,330,0,0
-672,694,0,0,0,0,0,0,0,0,0,-1,552,330,0,0
-665,694,0,0,0,0,0,0,0,0,0,-1,559,330,0,0
-658,694,0,0,0,0,0,0,0,0,0,-1,566,330,0,0
-651,694,0,0,0,0,0,0,0,0,0,-1,573,330,0,0
-644,694,0,0,0,0,0,0,0,0,0,-1,580,330,0,0
-637,694,0,0,0,0,0,0,0,0,0,-1,587,330,0,0
-630,694,0,0,0,0,0,0,0,0,0,-1,594,330,0,0
-623,694,0,0,0,0,0,0,0,0,0,-1,601,330,0,0
-616,694,0,0,0,0,0,0,0,0,0,-1,608,330,0,0
-609,694,0,0,0,0,0,0,0,0,0,-1,615,330,0,0
-602,694,0,0,0,0,0,0,0,0,0,-1,622,330,0,0
-595,694,0,0,0,0,0,0,0,0,0,-1,629,330,0,0
-588,694,0,0,0,0,0,0,0,0,0,-1,636,330,0,0
-581,694,0,0,0,0,0,0,0,0,0,-1,643,330,0,0
-574,694,0,0,0,0,0,0,0,0,0,-1,650,330,0,0
-567,694,0,0,0,0,0,0,0,0,0,-1,657,330,0,0
-560,694,0,0,0,0,0,0,0,0,0,-1,664,330,0,0
-553,694,0,0,0,0,0,0,0,0,0,-1,671,330,0,0
-546,694,0,0,0,0,0,0,0,0,0,-1,678,330,0,0
-539,694,0,0,0,0,0,0,0,0,0,-1,685,330,0,0
-532,694,0,0,0,0,0,0,0,0,0,-1,692,330,0,0
-525,694,0,0,0,0,0,0,0,0,0,-1,699,330,0,0
-518,694,0,0,0,0,0,0,0,0,0,-1,706,330,0,0
-511,694,0,0,0,0,0,0,0,0,0,-1,713,330,0,0
-504,694,0,0,0,0,0,0,0,0,0,-1,720,330,0,0
-497,694,0,0,0,0,0,0,0,0,0,-1,727,330,0,0
-490,694,0,0,0,0,0,0,0,0,0,-1,734,330,0,0
-483,694,0,0,0,0,0,0,0,0,0,-1,741,330,0,0
-476,694,0,0,0,0,0,0,0,0,0,-1,748,330,0,0
-469,694,0,0,0,0,0,0,0,0,0,-1,755,330,0,0
-462,694,0,0,0,0,0,0,0,0,0,-1,762,330,0,0
-455,694,0,0,0,0,0,0,0,0,0,-1,769,330,0,0
-448,694,0,0,0,0,0,0,0,0,0,-1,776,330,0,0
-441,694,0,0,0,0,0,0,0,0,0,-1,783,330,0,0
-434,694,0,0,0,0,0,0,0,0,0,-1,790,330,0,0
-427,694,0,0,0,0,0,0,0,0,0,-1,797,330,0,0
-420,694,0,0,0,0,0,0,0,0,0,-1,804,330,0,0
-413,694,0,0,0,0,0,0,0,0,0,-1,811,330,0,0
-406,694,0,0,0,0,0,0,0,0,0,-1,818,330,0,0
-399,694,0,0,0,0,0,0,0,0,0,-1,825,330,0,0
-392,694,0,0,0,0,0,0,0,0,0,-1,832,330,0,0
-385,694,0,0,0,0,0,0,0,0,0,-1,839,330,0,0
-378,694,0,0,0,0,0,0,0,0,0,-1,846,330,0,0
-371,694,0,0,0,0,0,0,0,0,0,-1,853,330,0,0
-364,694,0,0,0,0,0,0,0,0,0,-1,860,330,0,0
-357,694,0,0,0,0,0,0,0,0,0,-1,867,330,0,0
-350,694,0,0,0,0,0,0,0,0,0,-1,874,330,0,0
-343,694,0,0,0,0,0,0,0,0,0,-1,881,330,0,0
-336,694,0,0,0,0,0,0,0,0,0,-1,888,330,0,0
-329,694,0,0,0,0,0,0,0,0,0,-1,895,330,0,0
-322,694,0,0,0,0,0,0,0,0,0,-1,902,330,0,0
-315,694,0,0,0,0,0,0,0,0,0,-1,909,330,0,0
-308,694,0,0,0,0,0,0,0,0,0,-1,916,330,0,0
-301,694,0,0,0,0,0,0,0,0,0,-1,923,330,0,0
-294,694,0,0,0,0,0,0,0,0,0,-1,930,330,0,0
-287,694,0,0,0,0,0,0,0,0,0,-1,937,330,0,0
-280,694,0,0,0,0,0,0,0,0,0,-1,944,330,0,0
-273,694,0,0,0,0,0,0,0,0,0,-1,951,330,0,0
-266,694,0,0,0,0,0,0,0,0,0,-1,958,330,0,0
-259,694,0,0,0,0,0,0,0,0,0,-1,965,330,0,0
-252,694,0,0,0,0,0,0,0,0,0,-1,972,330,0,0
-245,694,0,0,0,0,0,0,0,0,0,-1,979,330,0,0
-238,694,0,0,0,0,0,0,0,0,0,-1,986,330,0,0
-231,694,0,0,0,0,0,0,0,0,0,-1,993,330,0,0
-224,694,0,0,0,0,0,0,0,0,0,-1,1000,330,0,0
-217,694,0,0,0,0,0,0,0,0,0,-1,1007,330,0,0
-210,694,0,0,0,0,0,0,0,0,0,-1,1014,330,0,0
-203,694,0,0,0,0,0,0,0,0,0,-1,1021,330,0,0
-196,694,0,0,0,0,0,0,0,0,0,-1,1028,330,0,0
-189,694,0,0,0,0,0,0,0,0,0,-1,1035,330,0,0
-182,694,0,0,0,0,0,0,0,0,0,-1,1042,330,0,0
-175,694,0,0,0,0,0,0,0,0,0,-1,1049,330,0,0
-168,694,0,0,0,0,0,0,0,0,0,-1,1056,330,0,0
-161,694,0,0,0,0,0,0,0,0,0,-1,1063,330,0,0
-154,694,0,0,0,0,0,0,0,0,0,-1,1070,330,0,0
-147,694,0,0,0,0,0,0,0,0,0,-1,1077,330,0,0
-140,694,0,0,0,0,0,0,0,0,0,-1,1084,330,0,0
-133,694,0,0,0,0,0,0,0,0,0,-1,1091,330,0,0
-126,694,0,0,0,0,0,0,0,0,0,-1,1098,330,0,0
-119,694,0,0,0,0,0,0,0,0,0,-1,1105,330,0,0
-112,694,0,0,0,0,0,0,0,0,0,-1,1112,330,0,0
-105,694,2.5188,-19.3963,0,0,0,0,0,0,0,-1,1119,330,2.51882,19.3963
-98,694,1.34875,-10.1051,0,0,0,0,0,0,0,-1,1126,330,1.34874,10.1051
-91,694,6.62366,-46.8039,0,0,0,0,0,0,0,-1,1133,330,6.62363,46.8039
-84,694,0.0577393,-40.8823,0,0,0,0,0,0,0,-1,1140,330,0.0577026,40.8823
-77,694,-5.51379,-31.2714,0,0,0,0,0,0,0,-1,1147,330,-5.51383,31.2714
-70,694,-11.9945,-25.5143,0,0,0,0,0,0,0,-1,1154,330,-11.9945,25.5143
-63,694,-18.4752,-19.7572,0,0,0,0,0,0,0,-1,1161,330,-18.4752,19.7572
-56,694,-6.50623,-0.649139,0,0,0,0,0,0,0,-1,1168,330,-6.5062,0.649126
-49,694,-1.11426,0.0341797,0,0,0,0,0,0,0,-1,1175,330,-1.11424,-0.0341846
-42,694,-0.346313,-0.709595,0,0,0,0,0,0,0,-1,1182,330,-0.346298,0.709581
-35,694,-0.459106,-1.24713,0,0,0,0,0,0,0,-1,1189,330,-0.459142,1.24714
-28,694,-6.48413,-3.95972,0,0,0,0,0,0,0,-1,1196,330,-6.48414,3.9597
-21,694,8.66003,-52.0122,0,0,0,0,0,0,0,-1,1203,330,8.65997,52.0122
-14,694,9.16174,-52.4641,0,0,0,0,0,0,0,-1,1210,330,9.16173,52.4641
-7,694,6.84741,-59.0652,0,0,0,0,0,0,0,-1,1217,330,6.84739,59.0652
0,694,4.25195,-54.0079,0,0,0,0,0,0,0,-1,1224,330,4.2519,54.0079
7,694,8.40137,-64.047,0,0,0,0,0,0,0,-1,1231,330,8.40137,64.047
14,694,8.32837,-62.8596,0,0,0,0,0,0,0,-1,1238,330,8.32838,62.8596
21,694,8.18567,-61.6903,0,0,0,0,0,0,0,-1,1245,330,8.18567,61.6903
28,694,7.87048,-60.1158,0,0,0,0,0,0,0,-1,1252,330,7.87048,60.1158
35,694,7.53857,-59.059,-0.00674994,0.0554978,0.0429468,0.0774128,-0.0286649,1.09896,0.063363,0.046312,1259,330,7.53862,59.059
42,694,7.40491,-58.1015,-0.0115187,0.0638966,0.0460556,0.085712,-0.0333341,1.12843,0.0709141,0.0481441,1266,330,7.40489,58.1015
49,694,7.48755,-57.0354,-0.0182163,0.0756769,0.0493261,0.0968261,-0.0393656,1.16574,0.0809295,0.0486917,1273,330,7.48759,57.0354
56,694,6.31641,-54.0456,0,0,0,0,0,0,0,-1,1280,330,6.31638,54.0456
63,694,6.77185,-55.1667,-0.0344326,0.104531,0.0560993,0.124351,-0.0542528,1.23118,0.105731,0.0452768,1287,330,6.77187,55.1667
70,694,6.44763,-54.3634,-0.0427496,0.119755,0.05915,0.139005,-0.0619994,1.25617,0.118855,0.0443258,1294,330,6.44766,54.3634
77,694,6.10754,-53.5562,0,0,0,0,0,0,0,-1,1301,330,6.1076,53.5562
84,694,4.5802,-52.773,-0.0598141,0.153527,0.0627906,0.170636,-0.0769226,1.30478,0.146302,0.0446696,1308,330,4.58019,52.773
91,694,4.37256,-52.3363,-0.0669909,0.167124,0.0625372,0.182782,-0.0826487,1.32546,0.156839,0.0453317,1315,330,4.37262,52.3363
98,694,3.41589,-51.5148,-0.0732879,0.179046,0.0616497,0.193303,-0.0875446,1.34354,0.165935,0.0442167,1322,330,3.41594,51.5148
105,694,2.59851,-50.9244,-0.0784971,0.189578,0.060628,0.202652,-0.0915712,1.35841,0.173859,0.0431292,1329,330,2.59848,50.9244
112,694,1.94226,-50.4341,-0.0812806,0.194941,0.0578143,0.206553,-0.0928932,1.37257,0.176988,0.0418943,1336,330,1.94229,50.4341
119,694,1.22766,-49.8689,-0.0837575,0.200196,0.0535393,0.209956,-0.0935168,1.39049,0.179457,0.044774,1343,330,1.22768,49.8689
126,694,0.484375,-49.2547,0,0,0,0,0,0,0,-1,1350,330,0.48435,49.2547
133,694,-0.542969,-49.9078,-0.0837573,0.203392,0.0434879,0.209834,-0.0901989,1.42374,0.177755,0.0482983,1357,330,-0.542937,49.9078
140,694,-1.34119,-49.44,-0.0827785,0.203381,0.0379597,0.208331,-0.0877283,1.44113,0.175594,0.0467371,1364,330,-1.34116,49.44
147,694,-2.13904,-49.3902,-0.0817942,0.202751,0.0313151,0.206157,-0.0851998,1.46247,0.172979,0.0481156,1371,330,-2.13909,49.3902
154,694,-2.88672,-49.1509,0,0,0,0,0,0,0,-1,1378,330,-2.88667,49.1509
161,694,0.0187988,-38.6779,0,0,0,0,0,0,0,-1,1385,330,0.0187579,38.6779
168,694,30.451,0.196686,0,0,0,0,0,0,0,-1,1392,330,30.4511,-0.196674
175,694,31.0701,0.869873,0,0,0,0,0,0,0,-1,1399,330,31.07,-0.869874
182,694,8.29028,5.75238,0,0,0,0,0,0,0,-1,1406,330,8.29034,-5.75237
189,694,7.9801,4.46118,0,0,0,0,0,0,0,-1,1413,330,7.9801,-4.46118
196,694,7.39331,3.32632,0,0,0,0,0,0,0,-1,1420,330,7.39329,-3.32633
203,694,7.04492,2.20529,0,0,0,0,0,0,0,-1,1427,330,7.04496,-2.20529
210,694,6.44714,0.646912,0,0,0,0,0,0,0,-1,1434,330,6.44717,-0.646903
217,694,7.12061,-0.644958,0,0,0,0,0,0,0,-1,1441,330,7.12059,0.644961
224,694,6.74011,-1.70544,0,0,0,0,0,0,0,-1,1448,330,6.74013,1.70546
231,694,0,0,0,0,0,0,0,0,0,-1,1455,330,0,0
238,694,0,0,0,0,0,0,0,0,0,-1,1462,330,0,0
245,694,0,0,0,0,0,0,0,0,0,-1,1469,330,0,0
252,694,0,0,0,0,0,0,0,0,0,-1,1476,330,0,0
259,694,0,0,0,0,0,0,0,0,0,-1,1483,330,0,0
266,694,0,0,0,0,0,0,0,0,0,-1,1490,330,0,0
273,694,0,0,0,0,0,0,0,0,0,-1,1497,330,0,0
280,694,0,0,0,0,0,0,0,0,0,-1,1504,330,0,0
287,694,0,0,0,0,0,0,0,0,0,-1,1511,330,0,0
294,694,0,0,0,0,0,0,0,0,0,-1,1518,330,0,0
301,694,0,0,0,0,0,0,0,0,0,-1,1525,330,0,0
308,694,0,0,0,0,0,0,0,0,0,-1,1532,330,0,0
315,694,0,0,0,0,0,0,0,0,0,-1,1539,330,0,0
322,694,0,0,0,0,0,0,0,0,0,-1,1546,330,0,0
329,694,0,0,0,0,0,0,0,0,0,-1,1553,330,0,0
336,694,0,0,0,0,0,0,0,0,0,-1,1560,330,0,0
343,694,0,0,0,0,0,0,0,0,0,-1,1567,330,0,0
350,694,0,0,0,0,0,0,0,0,0,-1,1574,330,0,0
357,694,0,0,0,0,0,0,0,0,0,-1,1581,330,0,0
364,694,0,0,0,0,0,0,0,0,0,-1,1588,330,0,0
371,694,0,0,0,0,0,0,0,0,0,-1,1595,330,0,0
378,694,0,0,0,0,0,0,0,0,0,-1,1602,330,0,0
385,694,0,0,0,0,0,0,0,0,0,-1,1609,330,0,0
392,694,0,0,0,0,0,0,0,0,0,-1,1616,330,0,0
399,694,0,0,0,0,0,0,0,0,0,-1,1623,330,0,0
406,694,0,0,0,0,0,0,0,0,0,-1,1630,330,0,0
413,694,0,0,0,0,0,0,0,0,0,-1,1637,330,0,0
420,694,0,0,0,0,0,0,0,0,0,-1,1644,330,0,0
427,694,0,0,0,0,0,0,0,0,0,-1,1651,330,0,0
434,694,0,0,0,0,0,0,0,0,0,-1,1658,330,0,0
441,694,0,0,0,0,0,0,0,0,0,-1,1665,330,0,0
448,694,0,0,0,0,0,0,0,0,0,-1,1672,330,0,0
455,694,0,0,0,0,0,0,0,0,0,-1,1679,330,0,0
462,694,0,0,0,0,0,0,0,0,0,-1,1686,330,0,0
469,694,0,0,0,0,0,0,0,0,0,-1,1693,330,0,0
476,694,0,0,0,0,0,0,0,0,0,-1,1700,330,0,0
483,694,0,0,0,0,0,0,0,0,0,-1,1707,330,0,0
490,694,0,0,0,0,0,0,0,0,0,-1,1714,330,0,0
497,694,0,0,0,0,0,0,0,0,0,-1,1721,330,0,0
504,694,0,0,0,0,0,0,0,0,0,-1,1728,330,0,0
511,694,0,0,0,0,0,0,0,0,0,-1,1735,330,0,0
518,694,0,0,0,0,0,0,0,0,0,-1,1742,330,0,0
525,694,0,0,0,0,0,0,0,0,0,-1,1749,330,0,0
532,694,0,0,0,0,0,0,0,0,0,-1,1756,330,0,0
539,694,0,0,0,0,0,0,0,0,0,-1,1763,330,0,0
546,694,0,0,0,0,0,0,0,0,0,-1,1770,330,0,0
553,694,0,0,0,0,0,0,0,0,0,-1,1777,330,0,0
560,694,0,0,0,0,0,0,0,0,0,-1,1784,330,0,0
567,694,0,0,0,0,0,0,0,0,0,-1,1791,330,0,0
574,694,0,0,0,0,0,0,0,0,0,-1,1798,330,0,0
581,694,0,0,0,0,0,0,0,0,0,-1,1805,330,0,0
588,694,0,0,0,0,0,0,0,0,0,-1,1812,330,0,0
595,694,0,0,0,0,0,0,0,0,0,-1,1819,330,0,0
602,694,0,0,0,0,0,0,0,0,0,-1,1826,330,0,0
609,694,0,0,0,0,0,0,0,0,0,-1,1833,330,0,0
616,694,0,0,0,0,0,0,0,0,0,-1,1840,330,0,0
623,694,0,0,0,0,0,0,0,0,0,-1,1847,330,0,0
630,694,0,0,0,0,0,0,0,0,0,-1,1854,330,0,0
637,694,0,0,0,0,0,0,0,0,0,-1,1861,330,0,0
644,694,0,0,0,0,0,0,0,0,0,-1,1868,330,0,0
651,694,0,0,0,0,0,0,0,0,0,-1,1875,330,0,0
658,694,0,0,0,0,0,0,0,0,0,-1,1882,330,0,0
665,694,0,0,0,0,0,0,0,0,0,-1,1889,330,0,0
672,694,0,0,0,0,0,0,0,0,0,-1,1896,330,0,0
679,694,0,0,0,0,0,0,0,0,0,-1,1903,330,0,0
686,694,0,0,0,0,0,0,0,0,0,-1,1910,330,0,0
693,694,0,0,0,0,0,0,0,0,0,-1,1917,330,0,0
700,694,0,0,0,0,0,0,0,0,0,-1,1924,330,0,0
707,694,0,0,0,0,0,0,0,0,0,-1,1931,330,0,0
714,694,0,0,0,0,0,0,0,0,0,-1,1938,330,0,0
721,694,0,0,0,0,0,0,0,0,0,-1,1945,330,0,0
728,694,0,0,0,0,0,0,0,0,0,-1,1952,330,0,0
735,694,0,0,0,0,0,0,0,0,0,-1,1959,330,0,0
742,694,0,0,0,0,0,0,0,0,0,-1,1966,330,0,0
749,694,0,0,0,0,0,0,0,0,0,-1,1973,330,0,0
756,694,0,0,0,0,0,0,0,0,0,-1,1980,330,0,0
763,694,0,0,0,0,0,0,0,0,0,-1,1987,330,0,0
770,694,0,0,0,0,0,0,0,0,0,-1,1994,330,0,0
777,694,0,0,0,0,0,0,0,0,0,-1,2001,330,0,0
784,694,0,0,0,0,0,0,0,0,0,-1,2008,330,0,0
791,694,0,0,0,0,0,0,0,0,0,-1,2015,330,0,0
798,694,0,0,0,0,0,0,0,0,0,-1,2022,330,0,0
805,694,0,0,0,0,0,0,0,0,0,-1,2029,330,0,0
812,694,0,0,0,0,0,0,0,0,0,-1,2036,330,0,0
-700,687,0,0,0,0,0,0,0,0,0,-1,524,337,0,0
-693,687,0,0,0,0,0,0,0,0,0,-1,531,337,0,0
-686,687,0,0,0,0,0,0,0,0,0,-1,538,337,0,0
-679,687,0,0,0,0,0,0,0,0,0,-1,545,337,0,0
-672,687,0,0,0,0,0,0,0,0,0,-1,552,337,0,0
-665,687,0,0,0,0,0,0,0,0,0,-1,559,337,0,0
-658,687,0,0,0,0,0,0,0,0,0,-1,566,337,0,0
-651,687,0,0,0,0,0,0,0,0,0,-1,573,337,0,0
-644,687,0,0,0,0,0,0,0,0,0,-1,580,337,0,0
-637,687,0,0,0,0,0,0,0,0,0,-1,587,337,0,0
-630,687,0,0,0,0,0,0,0,0,0,-1,594,337,0,0
-623,687,0,0,0,0,0,0,0,0,0,-1,601,337,0,0
-616,687,0,0,0,0,0,0,0,0,0,-1,608,337,0,0
-609,687,0,0,0,0,0,0,0,0,0,-1,615,337,0,0
-602,687,0,0,0,0,0,0,0,0,0,-1,622,337,0,0
-595,687,0,0,0,0,0,0,0,0,0,-1,629,337,0,0
-588,687,0,0,0,0,0,0,0,0,0,-1,636,337,0,0
-581,687,0,0,0,0,0,0,0,0,0,-1,643,337,0,0
-574,687,0,0,0,0,0,0,0,0,0,-1,650,337,0,0
-567,687,0,0,0,0,0,0,0,0,0,-1,657,337,0,0
-560,687,0,0,0,0,0,0,0,0,0,-1,664,337,0,0
-553,687,0,0,0,0,0,0,0,0,0,-1,671,337,0,0
-546,687,0,0,0,0,0,0,0,0,0,-1,678,337,0,0
-539,687,0,0,0,0,0,0,0,0,0,-1,685,337,0,0
-532,687,0,0,0,0,0,0,0,0,0,-1,692,337,0,0
-525,687,0,0,0,0,0,0,0,0,0,-1,699,337,0,0
-518,687,0,0,0,0,0,0,0,0,0,-1,706,337,0,0
-511,687,0,0,0,0,0,0,0,0,0,-1,713,337,0,0
-504,687,0,0,0,0,0,0,0,0,0,-1,720,337,0,0
-497,687,0,0,0,0,0,0,0,0,0,-1,727,337,0,0
-490,687,0,0,0,0,0,0,0,0,0,-1,734,337,0,0
-483,687,0,0,0,0,0,0,0,0,0,-1,741,337,0,0
-476,687,0,0,0,0,0,0,0,0,0,-1,748,337,0,0
-469,687,0,0,0,0,0,0,0,0,0,-1,755,337,0,0
-462,687,0,0,0,0,0,0,0,0,0,-1,762,337,0,0
-455,687,0,0,0,0,0,0,0,0,0,-1,769,337,0,0
-448,687,0,0,0,0,0,0,0,0,0,-1,776,337,0,0
-441,687,0,0,0,0,0,0,0,0,0,-1,783,337,0,0
-434,687,0,0,0,0,0,0,0,0,0,-1,790,337,0,0
-427,687,0,0,0,0,0,0,0,0,0,-1,797,337,0,0
-420,687,0,0,0,0,0,0,0,0,0,-1,804,337,0,0
-413,687,0,0,0,0,0,0,0,0,0,-1,811,337,0,0
-406,687,0,0,0,0,0,0,0,0,0,-1,818,337,0,0
-399,687,0,0,0,0,0,0,0,0,0,-1,825,337,0,0
-392,687,0,0,0,0,0,0,0,0,0,-1,832,337,0,0
-385,687,0,0,0,0,0,0,0,0,0,-1,839,337,0,0
-378,687,0,0,0,0,0,0,0,0,0,-1,846,337,0,0
-371,687,0,0,0,0,0,0,0,0,0,-1,853,337,0,0
-364,687,0,0,0,0,0,0,0,0,0,-1,860,337,0,0
-357,687,0,0,0,0,0,0,0,0,0,-1,867,337,0,0
-350,687,0,0,0,0,0,0,0,0,0,-1,874,337,0,0
-343,687,0,0,0,0,0,0,0,0,0,-1,881,337,0,0
-336,687,0,0,0,0,0,0,0,0,0,-1,888,337,0,0
-329,687,0,0,0,0,0,0,0,0,0,-1,895,337,0,0
-322,687,0,0,0,0,0,0,0,0,0,-1,902,337,0,0
-315,687,0,0,0,0,0,0,0,0,0,-1,909,337,0,0
-308,687,0,0,0,0,0,0,0,0,0,-1,916,337,0,0
-301,687,0,0,0,0,0,0,0,0,0,-1,923,337,0,0
-294,687,0,0,0,0,0,0,0,0,0,-1,930,337,0,0
-287,687,0,0,0,0,0,0,0,0,0,-1,937,337,0,0
-280,687,0,0,0,0,0,0,0,0,0,-1,944,337,0,0
-273,687,0,0,0,0,0,0,0,0,0,-1,951,337,0,0
-266,687,0,0,0,0,0,0,0,0,0,-1,958,337,0,0
-259,687,0,0,0,0,0,0,0,0,0,-1,965,337,0,0
-252,687,0,0,0,0,0,0,0,0,0,-1,972,337,0,0
-245,687,0,0,0,0,0,0,0,0,0,-1,979,337,0,0
-238,687,0,0,0,0,0,0,0,0,0,-1,986,337,0,0
-231,687,0,0,0,0,0,0,0,0,0,-1,993,337,0,0
-224,687,0,0,0,0,0,0,0,0,0,-1,1000,337,0,0
-217,687,0,0,0,0,0,0,0,0,0,-1,1007,337,0,0
-210,687,0,0,0,0,0,0,0,0,0,-1,1014,337,0,0
-203,687,0,0,0,0,0,0,0,0,0,-1,1021,337,0,0
-196,687,0,0,0,0,0,0,0,0,0,-1,1028,337,0,0
-189,687,0,0,0,0,0,0,0,0,0,-1,1035,337,0,0
-182,687,0,0,0,0,0,0,0,0,0,-1,1042,337,0,0
-175,687,0,0,0,0,0,0,0,0,0,-1,1049,337,0,0
-168,687,0,0,0,0,0,0,0,0,0,-1,1056,337,0,0
-161,687,0,0,0,0,0,0,0,0,0,-1,1063,337,0,0
-154,687,0,0,0,0,0,0,0,0,0,-1,1070,337,0,0
-147,687,0,0,0,0,0,0,0,0,0,-1,1077,337,0,0
-140,687,0,0,0,0,0,0,0,0,0,-1,1084,337,0,0
-133,687,7.93958,-37.548,0,0,0,0,0,0,0,-1,1091,337,7.93957,37.548
-126,687,0.688477,-38.7298,0,0,0,0,0,0,0,-1,1098,337,0.688509,38.7298
-119,687,7.70825,-33.9236,0,0,0,0,0,0,0,-1,1105,337,7.70826,33.9236
-112,687,7.99866,-32.2983,0,0,0,0,0,0,0,-1,1112,337,7.99866,32.2983
-105,687,1.3208,-29.8313,0,0,0,0,0,0,0,-1,1119,337,1.3208,29.8313
-98,687,13.7111,-47.5645,0,0,0,0,0,0,0,-1,1126,337,13.711,47.5645
-91,687,7.22083,-41.1667,0,0,0,0,0,0,0,-1,1133,337,7.22079,41.1666
-84,687,0.745117,-35.0345,0,0,0,0,0,0,0,-1,1140,337,0.745155,35.0345
-77,687,-5.74353,-28.9553,0,0,0,0,0,0,0,-1,1147,337,-5.74357,28.9553
-70,687,-11.6842,-19.8473,0,0,0,0,0,0,0,-1,1154,337,-11.6842,19.8473
-63,687,-17.6757,-14.8966,0,0,0,0,0,0,0,-1,1161,337,-17.6756,14.8966
-56,687,-18.104,7.81931,0,0,0,0,0,0,0,-1,1168,337,-18.104,-7.81931
-49,687,-15.6449,-9.94391,0,0,0,0,0,0,0,-1,1175,337,-15.6449,9.94392
-42,687,-4.2019,-0.405609,0,0,0,0,0,0,0,-1,1182,337,-4.20192,0.405614
-35,687,-4.42273,-0.688171,0,0,0,0,0,0,0,-1,1189,337,-4.42276,0.688178
-28,687,-1.14038,-1.39072,0,0,0,0,0,0,0,-1,1196,337,-1.14035,1.3907
-21,687,8.53467,-51.6056,0,0,0,0,0,0,0,-1,1203,337,8.53467,51.6056
-14,687,8.85449,-52.109,0,0,0,0,0,0,0,-1,1210,337,8.85452,52.109
-7,687,9.19897,-52.6506,0,0,0,0,0,0,0,-1,1217,337,9.19903,52.6506
0,687,5.35376,-54.4172,0,0,0,0,0,0,0,-1,1224,337,5.35377,54.4172
7,687,5.94727,-54.8125,0,0,0,0,0,0,0,-1,1231,337,5.94724,54.8125
14,687,9.25647,-63.2303,0,0,0,0,0,0,0,-1,1238,337,9.2565,63.2303
21,687,8.60864,-53.5412,0,0,0,0,0,0,0,-1,1245,337,8.60863,53.5412
28,687,6.11548,-53.8051,0,0,0,0,0,0,0,-1,1252,337,6.1155,53.8051
35,687,7.69531,-59.2262,0,0,0,0,0,0,0,-1,1259,337,7.69532,59.2262
42,687,6.37256,-54.8176,0,0,0,0,0,0,0,-1,1266,337,6.37257,54.8176
49,687,6.3927,-54.6749,0,0,0,0,0,0,0,-1,1273,337,6.39272,54.6749
56,687,6.53271,-54.5721,0,0,0,0,0,0,0,-1,1280,337,6.53276,54.5721
63,687,6.65393,-54.5086,0,0,0,0,0,0,0,-1,1287,337,6.65389,54.5086
70,687,6.56909,-54.7568,0,0,0,0,0,0,0,-1,1294,337,6.56904,54.7568
77,687,6.28394,-54.3008,0,0,0,0,0,0,0,-1,1301,337,6.28397,54.3008
84,687,4.40881,-53.8951,-0.0522908,0.133208,0.0501896,0.145916,-0.0649997,1.32279,0.124724,0.0454031,1308,337,4.40879,53.8951
91,687,4.63831,-53.8897,-0.0586005,0.144645,0.0501923,0.156364,-0.0703199,1.34142,0.133982,0.0464246,1315,337,4.63829,53.8897
98,687,3.56531,-53.1377,-0.0639541,0.15458,0.0497404,0.165369,-0.0747428,1.3572,0.141882,0.0454658,1322,337,3.56536,53.1377
105,687,2.18835,-52.0287,-0.068214,0.163348,0.0492506,0.173388,-0.0782537,1.3697,0.148706,0.0419754,1329,337,2.1883,52.0287
112,687,1.40784,-51.8733,-0.070425,0.16779,0.0473271,0.176848,-0.0794833,1.38169,0.15151,0.0421332,1336,337,1.40782,51.8733
119,687,0.978271,-51.4023,-0.0722499,0.172088,0.0441913,0.179834,-0.0799968,1.39726,0.153661,0.0449127,1343,337,0.978264,51.4023
126,687,0.290894,-51.2949,-0.0722915,0.173672,0.0404966,0.180168,-0.0787875,1.41174,0.153279,0.0486789,1350,337,0.290944,51.2949
133,687,-0.4375,-51.1385,-0.0710912,0.174084,0.0366579,0.179448,-0.0764549,1.42551,0.151682,0.0465829,1357,337,-0.437454,51.1385
140,687,-1.11023,-50.7796,-0.0698175,0.173635,0.0327614,0.177967,-0.0741492,1.43934,0.149616,0.0478903,1364,337,-1.1102,50.7796
147,687,-1.83142,-50.4613,-0.0681719,0.172328,0.0283986,0.175635,-0.0714797,1.45484,0.146836,0.0491499,1371,337,-1.83148,50.4613
154,687,5.29272,-50.2722,0,0,0,0,0,0,0,-1,1378,337,5.29275,50.2722
161,687,29.3895,-1.90628,0,0,0,0,0,0,0,-1,1385,337,29.3895,1.90628
168,687,29.8564,-1.19434,0,0,0,0,0,0,0,-1,1392,337,29.8564,1.19434
175,687,30.3419,-0.453583,0,0,0,0,0,0,0,-1,1399,337,30.3419,0.45357
182,687,6.67249,0.289917,0,0,0,0,0,0,0,-1,1406,337,6.67247,-0.289916
189,687,7.76062,4.53635,0,0,0,0,0,0,0,-1,1413,337,7.76064,-4.53636
196,687,6.99048,3.2966,0,0,0,0,0,0,0,-1,1420,337,6.99046,-3.2966
203,687,6.36499,2.1445,0,0,0,0,0,0,0,-1,1427,337,6.36499,-2.14451
210,687,6.68066,0.674652,0,0,0,0,0,0,0,-1,1434,337,6.68062,-0.674655
217,687,5.99683,-0.630493,0,0,0,0,0,0,0,-1,1441,337,5.99684,0.630497
224,687,5.52917,0.524902,0,0,0,0,0,0,0,-1,1448,337,5.5292,-0.524915
231,687,5.85583,-1.73651,0,0,0,0,0,0,0,-1,1455,337,5.85577,1.73651
238,687,5.96582,-2.96774,0,0,0,0,0,0,0,-1,1462,337,5.96577,2.96773
245,687,1.28259,2.32211,0,0,0,0,0,0,0,-1,1469,337,1.28258,-2.32211
252,687,1.97278,3.88422,0,0,0,0,0,0,0,-1,1476,337,1.97281,-3.88421
259,687,0,0,0,0,0,0,0,0,0,-1,1483,337,0,0
266,687,0,0,0,0,0,0,0,0,0,-1,1490,337,0,0
273,687,0,0,0,0,0,0,0,0,0,-1,1497,337,0,0
280,687,0,0,0,0,0,0,0,0,0,-1,1504,337,0,0
287,687,0,0,0,0,0,0,0,0,0,-1,1511,337,0,0
294,687,0,0,0,0,0,0,0,0,0,-1,1518,337,0,0
301,687,0,0,0,0,0,0,0,0,0,-1,1525,337,0,0
308,687,0,0,0,0,0,0,0,0,0,-1,1532,337,0,0
315,687,0,0,0,0,0,0,0,0,0,-1,1539,337,0,0
322,687,0,0,0,0,0,0,0,0,0,-1,1546,337,0,0
329,687,0,0,0,0,0,0,0,0,0,-1,1553,337,0,0
336,687,0,0,0,0,0,0,0,0,0,-1,1560,337,0,0
343,687,0,0,0,0,0,0,0,0,0,-1,1567,337,0,0
350,687,0,0,0,0,0,0,0,0,0,-1,1574,337,0,0
357,687,0,0,0,0,0,0,0,0,0,-1,1581,337,0,0
364,687,0,0,0,0,0,0,0,0,0,-1,1588,337,0,0
371,687,0,0,0,0,0,0,0,0,0,-1,1595,337,0,0
378,687,0,0,0,0,0,0,0,0,0,-1,1602,337,0,0
385,687,0,0,0,0,0,0,0,0,0,-1,1609,337,0,0
392,687,0,0,0,0,0,0,0,0,0,-1,1616,337,0,0
399,687,0,0,0,0,0,0,0,0,0,-1,1623,337,0,0
406,687,0,0,0,0,0,0,0,0,0,-1,1630,337,0,0
413,687,0,0,0,0,0,0,0,0,0,-1,1637,337,0,0
420,687,0,0,0,0,0,0,0,0,0,-1,1644,337,0,0
427,687,0,0,0,0,0,0,0,0,0,-1,1651,337,0,0
434,687,0,0,0,0,0,0,0,0,0,-1,1658,337,0,0
441,687,0,0,0,0,0,0,0,0,0,-1,1665,337,0,0
448,687,0,0,0,0,0,0,0,0,0,-1,1672,337,0,0
455,687,0,0,0,0,0,0,0,0,0,-1,1679,337,0,0
462,687,0,0,0,0,0,0,0,0,0,-1,1686,337,0,0
469,687,0,0,0,0,0,0,0,0,0,-1,1693,337,0,0
476,687,0,0,0,0,0,0,0,0,0,-1,1700,337,0,0
483,687,0,0,0,0,0,0,0,0,0,-1,1707,337,0,0
490,687,0,0,0,0,0,0,0,0,0,-1,1714,337,0,0
497,687,0,0,0,0,0,0,0,0,0,-1,1721,337,0,0
504,687,0,0,0,0,0,0,0,0,0,-1,1728,337,0,0
511,687,0,0,0,0,0,0,0,0,0,-1,1735,337,0,0
518,687,0,0,0,0,0,0,0,0,0,-1,1742,337,0,0
525,687,0,0,0,0,0,0,0,0,0,-1,1749,337,0,0
532,687,0,0,0,0,0,0,0,0,0,-1,1756,337,0,0
539,687,0,0,0,0,0,0,0,0,0,-1,1763,337,0,0
546,687,0,0,0,0,0,0,0,0,0,-1,1770,337,0,0
553,687,0,0,0,0,0,0,0,0,0,-1,1777,337,0,0
560,687,0,0,0,0,0,0,0,0,0,-1,1784,337,0,0
567,687,0,0,0,0,0,0,0,0,0,-1,1791,337,0,0
574,687,0,0,0,0,0,0,0,0,0,-1,1798,337,0,0
581,687,0,0,0,0,0,0,0,0,0,-1,1805,337,0,0
588,687,0,0,0,0,0,0,0,0,0,-1,1812,337,0,0
595,687,0,0,0,0,0,0,0,0,0,-1,1819,337,0,0
602,687,0,0,0,0,0,0,0,0,0,-1,1826,337,0,0
609,687,0,0,0,0,0,0,0,0,0,-1,1833,337,0,0
616,687,0,0,0,0,0,0,0,0,0,-1,1840,337,0,0
623,687,0,0,0,0,0,0,0,0,0,-1,1847,337,0,0
630,687,0,0,0,0,0,0,0,0,0,-1,1854,337,0,0
637,687,0,0,0,0,0,0,0,0,0,-1,1861,337,0,0
644,687,0,0,0,0,0,0,0,0,0,-1,1868,337,0,0
651,687,0,0,0,0,0,0,0,0,0,-1,1875,337,0,0
658,687,0,0,0,0,0,0,0,0,0,-1,1882,337,0,0
665,687,0,0,0,0,0,0,0,0,0,-1,1889,337,0,0
672,687,0,0,0,0,0,0,0,0,0,-1,1896,337,0,0
679,687,0,0,0,0,0,0,0,0,0,-1,1903,337,0,0
686,687,0,0,0,0,0,0,0,0,0,-1,1910,337,0,0
693,687,0,0,0,0,0,0,0,0,0,-1,1917,337,0,0
700,687,0,0,0,0,0,0,0,0,0,-1,1924,337,0,0
707,687,0,0,0,0,0,0,0,0,0,-1,1931,337,0,0
714,687,0,0,0,0,0,0,0,0,0,-1,1938,337,0,0
721,687,0,0,0,0,0,0,0,0,0,-1,1945,337,0,0
728,687,0,0,0,0,0,0,0,0,0,-1,1952,337,0,0
735,687,0,0,0,0,0,0,0,0,0,-1,1959,337,0,0
742,687,0,0,0,0,0,0,0,0,0,-1,1966,337,0,0
749,687,0,0,0,0,0,0,0,0,0,-1,1973,337,0,0
756,687,0,0,0,0,0,0,0,0,0,-1,1980,337,0,0
763,687,0,0,0,0,0,0,0,0,0,-1,1987,337,0,0
770,687,0,0,0,0,0,0,0,0,0,-1,1994,337,0,0
777,687,0,0,0,0,0,0,0,0,0,-1,2001,337,0,0
784,687,0,0,0,0,0,0,0,0,0,-1,2008,337,0,0
791,687,0,0,0,0,0,0,0,0,0,-1,2015,337,0,0
798,687,0,0,0,0,0,0,0,0,0,-1,2022,337,0,0
805,687,0,0,0,0,0,0,0,0,0,-1,2029,337,0,0
812,687,0,0,0,0,0,0,0,0,0,-1,2036,337,0,0
-700,680,0,0,0,0,0,0,0,0,0,-1,524,344,0,0
-693,680,0,0,0,0,0,0,0,0,0,-1,531,344,0,0
-686,680,0,0,0,0,0,0,0,0,0,-1,538,344,0,0
-679,680,0,0,0,0,0,0,0,0,0,-1,545,344,0,0
-672,680,0,0,0,0,0,0,0,0,0,-1,552,344,0,0
-665,680,0,0,0,0,0,0,0,0,0,-1,559,344,0,0
-658,680,0,0,0,0,0,0,0,0,0,-1,566,344,0,0
-651,680,0,0,0,0,0,0,0,0,0,-1,573,344,0,0
-644,680,0,0,0,0,0,0,0,0,0,-1,580,344,0,0
-637,680,0,0,0,0,0,0,0,0,0,-1,587,344,0,0
-630,680,0,0,0,0,0,0,0,0,0,-1,594,344,0,0
-623,680,0,0,0,0,0,0,0,0,0,-1,601,344,0,0
-616,680,0,0,0,0,0,0,0,0,0,-1,608,344,0,0
-609,680,0,0,0,0,0,0,0,0,0,-1,615,344,0,0
-602,680,0,0,0,0,0,0,0,0,0,-1,622,344,0,0
-595,680,0,0,0,0,0,0,0,0,0,-1,629,344,0,0
-588,680,0,0,0,0,0,0,0,0,0,-1,636,344,0,0
-581,680,0,0,0,0,0,0,0,0,0,-1,643,344,0,0
-574,680,0,0,0,0,0,0,0,0,0,-1,650,344,0,0
-567,680,0,0,0,0,0,0,0,0,0,-1,657,344,0,0
-560,680,0,0,0,0,0,0,0,0,0,-1,664,344,0,0
-553,680,0,0,0,0,0,0,0,0,0,-1,671,344,0,0
-546,680,0,0,0,0,0,0,0,0,0,-1,678,344,0,0
-539,680,0,0,0,0,0,0,0,0,0,-1,685,344,0,0
-532,680,0,0,0,0,0,0,0,0,0,-1,692,344,0,0
-525,680,0,0,0,0,0,0,0,0,0,-1,699,344,0,0
-518,680,0,0,0,0,0,0,0,0,0,-1,706,344,0,0
-511,680,0,0,0,0,0,0,0,0,0,-1,713,344,0,0
-504,680,0,0,0,0,0,0,0,0,0,-1,720,344,0,0
-497,680,0,0,0,0,0,0,0,0,0,-1,727,344,0,0
-490,680,0,0,0,0,0,0,0,0,0,-1,734,344,0,0
-483,680,0,0,0,0,0,0,0,0,0,-1,741,344,0,0
-476,680,0,0,0,0,0,0,0,0,0,-1,748,344,0,0
-469,680,0,0,0,0,0,0,0,0,0,-1,755,344,0,0
-462,680,0,0,0,0,0,0,0,0,0,-1,762,344,0,0
-455,680,0,0,0,0,0,0,0,0,0,-1,769,344,0,0
-448,680,0,0,0,0,0,0,0,0,0,-1,776,344,0,0
-441,680,0,0,0,0,0,0,0,0,0,-1,783,344,0,0
-434,680,0,0,0,0,0,0,0,0,0,-1,790,344,0,0
-427,680,0,0,0,0,0,0,0,0,0,-1,797,344,0,0
-420,680,0,0,0,0,0,0,0,0,0,-1,804,344,0,0
-413,680,0,0,0,0,0,0,0,0,0,-1,811,344,0,0
-406,680,0,0,0,0,0,0,0,0,0,-1,818,344,0,0
-399,680,0,0,0,0,0,0,0,0,0,-1,825,344,0,0
-392,680,0,0,0,0,0,0,0,0,0,-1,832,344,0,0
-385,680,0,0,0,0,0,0,0,0,0,-1,839,344,0,0
-378,680,0,0,0,0,0,0,0,0,0,-1,846,344,0,0
-371,680,0,0,0,0,0,0,0,0,0,-1,853,344,0,0
-364,680,0,0,0,0,0,0,0,0,0,-1,860,344,0,0
-357,680,0,0,0,0,0,0,0,0,0,-1,867,344,0,0
-350,680,0,0,0,0,0,0,0,0,0,-1,874,344,0,0
-343,680,0,0,0,0,0,0,0,0,0,-1,881,344,0,0
-336,680,0,0,0,0,0,0,0,0,0,-1,888,344,0,0
-329,680,0,0,0,0,0,0,0,0,0,-1,895,344,0,0
-322,680,0,0,0,0,0,0,0,0,0,-1,902,344,0,0
-315,680,0,0,0,0,0,0,0,0,0,-1,909,344,0,0
-308,680,0,0,0,0,0,0,0,0,0,-1,916,344,0,0
-301,680,0,0,0,0,0,0,0,0,0,-1,923,344,0,0
-294,680,0,0,0,0,0,0,0,0,0,-1,930,344,0,0
-287,680,0,0,0,0,0,0,0,0,0,-1,937,344,0,0
-280,680,0,0,0,0,0,0,0,0,0,-1,944,344,0,0
-273,680,0,0,0,0,0,0,0,0,0,-1,951,344,0,0
-266,680,0,0,0,0,0,0,0,0,0,-1,958,344,0,0
-259,680,0,0,0,0,0,0,0,0,0,-1,965,344,0,0
-252,680,0,0,0,0,0,0,0,0,0,-1,972,344,0,0
-245,680,0,0,0,0,0,0,0,0,0,-1,979,344,0,0
-238,680,0,0,0,0,0,0,0,0,0,-1,986,344,0,0
-231,680,0,0,0,0,0,0,0,0,0,-1,993,344,0,0
-224,680,0,0,0,0,0,0,0,0,0,-1,1000,344,0,0
-217,680,0,0,0,0,0,0,0,0,0,-1,1007,344,0,0
-210,680,0,0,0,0,0,0,0,0,0,-1,1014,344,0,0
-203,680,0,0,0,0,0,0,0,0,0,-1,1021,344,0,0
-196,680,0,0,0,0,0,0,0,0,0,-1,1028,344,0,0
-189,680,0,0,0,0,0,0,0,0,0,-1,1035,344,0,0
-182,680,0,0,0,0,0,0,0,0,0,-1,1042,344,0,0
-175,680,0,0,0,0,0,0,0,0,0,-1,1049,344,0,0
-168,680,0,0,0,0,0,0,0,0,0,-1,1056,344,0,0
-161,680,0,0,0,0,0,0,0,0,0,-1,1063,344,0,0
-154,680,2.25244,-29.1442,0,0,0,0,0,0,0,-1,1070,344,2.25241,29.1442
-147,680,9.29614,-33.0369,0,0,0,0,0,0,0,-1,1077,344,9.29612,33.0369
-140,680,6.98022,-36.6899,0,0,0,0,0,0,0,-1,1084,344,6.98023,36.6899
-133,680,1.85693,-39.7233,0,0,0,0,0,0,0,-1,1091,344,1.85699,39.7233
-126,680,2.30017,-38.3751,0,0,0,0,0,0,0,-1,1098,344,2.30011,38.3751
-119,680,2.74329,-37.0269,0,0,0,0,0,0,0,-1,1105,344,2.74323,37.0269
-112,680,7.7467,-32.4407,0,0,0,0,0,0,0,-1,1112,344,7.74668,32.4407
-105,680,20.6371,-48.461,0,0,0,0,0,0,0,-1,1119,344,20.6371,48.461
-98,680,14.2684,-41.9997,0,0,0,0,0,0,0,-1,1126,344,14.2685,41.9997
-91,680,7.89648,-35.5147,0,0,0,0,0,0,0,-1,1133,344,7.8965,35.5147
-84,680,1.47168,-29.471,0,0,0,0,0,0,0,-1,1140,344,1.47163,29.471
-77,680,-4.95337,-23.3355,0,0,0,0,0,0,0,-1,1147,344,-4.9534,23.3356
-70,680,-11.5099,-17.4337,0,0,0,0,0,0,0,-1,1154,344,-11.5098,17.4338
-63,680,-17.2391,-1.43134,0,0,0,0,0,0,0,-1,1161,344,-17.2392,1.43133
-56,680,-6.96912,-8.83356,0,0,0,0,0,0,0,-1,1168,344,-6.96907,8.83354
-49,680,-6.7677,-2.24063,0,0,0,0,0,0,0,-1,1175,344,-6.76772,2.24063
-42,680,-1.02368,0.618805,0,0,0,0,0,0,0,-1,1182,344,-1.0237,-0.618797
-35,680,-0.947876,-0.942719,0,0,0,0,0,0,0,-1,1189,344,-0.947842,0.942731
-28,680,-1.46118,-1.10574,0,0,0,0,0,0,0,-1,1196,344,-1.4612,1.10575
-21,680,8.44629,-51.5429,0,0,0,0,0,0,0,-1,1203,344,8.44634,51.5429
-14,680,7.56763,-53.7419,0,0,0,0,0,0,0,-1,1210,344,7.56765,53.7419
-7,680,7.25208,-54.1653,0,0,0,0,0,0,0,-1,1217,344,7.25205,54.1653
0,680,9.11975,-53.3632,0,0,0,0,0,0,0,-1,1224,344,9.11976,53.3632
7,680,8.05603,-53.0425,0,0,0,0,0,0,0,-1,1231,344,8.056,53.0425
14,680,7.75977,-54.1207,0,0,0,0,0,0,0,-1,1238,344,7.75976,54.1207
21,680,7.96228,-54.2684,0,0,0,0,0,0,0,-1,1245,344,7.96224,54.2684
28,680,8.00366,-54.7696,0,0,0,0,0,0,0,-1,1252,344,8.00372,54.7696
35,680,6.58447,-55.079,0,0,0,0,0,0,0,-1,1259,344,6.58449,55.079
42,680,6.5271,-55.1971,-0.0103547,0.0510344,0.0268123,0.0610959,-0.0204161,1.2118,0.0489756,0.047705,1266,344,6.52712,55.1971
49,680,6.53296,-55.1359,-0.0147854,0.0590636,0.0290123,0.0690979,-0.0248197,1.23781,0.0561962,0.0443922,1273,344,6.53301,55.1359
56,680,6.54346,-55.0828,-0.0203553,0.0681569,0.0315168,0.0782323,-0.0304307,1.26138,0.0647285,0.0421422,1280,344,6.54345,55.0828
63,680,6.65259,-54.9809,-0.0260452,0.0785618,0.0340041,0.0886437,-0.0361271,1.28256,0.0741329,0.0400169,1287,344,6.65254,54.9809
70,680,6.52954,-54.8407,0,0,0,0,0,0,0,-1,1294,344,6.52949,54.8407
77,680,6.14172,-54.6563,0,0,0,0,0,0,0,-1,1301,344,6.14174,54.6563
84,680,5.74719,-54.4486,0,0,0,0,0,0,0,-1,1308,344,5.74716,54.4486
91,680,5.08215,-55.2339,-0.0498349,0.121866,0.0395636,0.130543,-0.0585127,1.35488,0.111761,0.0465497,1315,344,5.08216,55.2339
98,680,3.80444,-55.1359,-0.0542549,0.129955,0.0394454,0.138046,-0.0623461,1.36848,0.118416,0.0460911,1322,344,3.80444,55.1359
105,680,1.64539,-53.3065,-0.0576191,0.137066,0.0393254,0.14471,-0.0652625,1.37883,0.124086,0.0418792,1329,344,1.64535,53.3066
112,680,0.842896,-52.7845,-0.0593123,0.140656,0.0380733,0.14766,-0.0663161,1.38888,0.126479,0.0426579,1336,344,0.842883,52.7846
119,680,0.717041,-52.5661,-0.06059,0.144028,0.0358164,0.150116,-0.0666782,1.40242,0.128219,0.0426311,1343,344,0.717101,52.5661
126,680,0.565918,-52.599,-0.0602214,0.145046,0.0330535,0.150238,-0.0654126,1.41501,0.127676,0.0441879,1350,344,0.565977,52.599
133,680,-0.338013,-52.3639,-0.0587859,0.145006,0.0302397,0.149398,-0.0631784,1.42655,0.126051,0.0431409,1357,344,-0.338013,52.3639
140,680,-1.00403,-51.9211,-0.0573919,0.144179,0.0274848,0.14786,-0.0610723,1.43768,0.124047,0.0456896,1364,344,-1.00405,51.9211
147,680,4.49194,-53.1364,0,0,0,0,0,0,0,-1,1371,344,4.49195,53.1364
154,680,5.33643,-51.5035,0,0,0,0,0,0,0,-1,1378,344,5.3364,51.5035
161,680,5.56555,-51.1379,0,0,0,0,0,0,0,-1,1385,344,5.56556,51.1379
168,680,29.4142,-2.51651,0,0,0,0,0,0,0,-1,1392,344,29.4142,2.51652
175,680,6.66541,0.942078,0,0,0,0,0,0,0,-1,1399,344,6.66538,-0.942088
182,680,6.52917,0.532379,0,0,0,0,0,0,0,-1,1406,344,6.52922,-0.532385
189,680,7.55884,4.77695,0,0,0,0,0,0,0,-1,1413,344,7.55886,-4.77694
196,680,6.55627,3.35254,0,0,0,0,0,0,0,-1,1420,344,6.55622,-3.35255
203,680,5.7334,1.90753,0,0,0,0,0,0,0,-1,1427,344,5.73341,-1.90754
210,680,5.27515,0.493622,0,0,0,0,0,0,0,-1,1434,344,5.27514,-0.493632
217,680,6.56384,-0.374176,0,0,0,0,0,0,0,-1,1441,344,6.56379,0.374176
224,680,3.9491,-0.640228,0,0,0,0,0,0,0,-1,1448,344,3.94908,0.64024
231,680,4.24866,-1.96881,0,0,0,0,0,0,0,-1,1455,344,4.2486,1.96882
238,680,4.29333,-3.23984,0,0,0,0,0,0,0,-1,1462,344,4.29332,3.23984
245,680,2.44397,0.985382,0,0,0,0,0,0,0,-1,1469,344,2.44402,-0.985394
252,680,3.07349,2.18951,0,0,0,0,0,0,0,-1,1476,344,3.0735,-2.18952
259,680,2.82971,1.30682,0,0,0,0,0,0,0,-1,1483,344,2.82972,-1.30684
266,680,2.67554,1.44067,0,0,0,0,0,0,0,-1,1490,344,2.67551,-1.44066
273,680,2.46411,1.54666,0,0,0,0,0,0,0,-1,1497,344,2.46407,-1.54666
280,680,0,0,0,0,0,0,0,0,0,-1,1504,344,0,0
287,680,0,0,0,0,0,0,0,0,0,-1,1511,344,0,0
294,680,0,0,0,0,0,0,0,0,0,-1,1518,344,0,0
301,680,0,0,0,0,0,0,0,0,0,-1,1525,344,0,0
308,680,0,0,0,0,0,0,0,0,0,-1,1532,344,0,0
315,680,0,0,0,0,0,0,0,0,0,-1,1539,344,0,0
322,680,0,0,0,0,0,0,0,0,0,-1,1546,344,0,0
329,680,0,0,0,0,0,0,0,0,0,-1,1553,344,0,0
336,680,0,0,0,0,0,0,0,0,0,-1,1560,344,0,0
343,680,0,0,0,0,0,0,0,0,0,-1,1567,344,0,0
350,680,0,0,0,0,0,0,0,0,0,-1,1574,344,0,0
357,680,0,0,0,0,0,0,0,0,0,-1,1581,344,0,0
364,680,0,0,0,0,0,0,0,0,0,-1,1588,344,0,0
371,680,0,0,0,0,0,0,0,0,0,-1,1595,344,0,0
378,680,0,0,0,0,0,0,0,0,0,-1,1602,344,0,0
385,680,0,0,0,0,0,0,0,0,0,-1,1609,344,0,0
392,680,0,0,0,0,0,0,0,0,0,-1,1616,344,0,0
399,680,0,0,0,0,0,0,0,0,0,-1,1623,344,0,0
406,680,0,0,0,0,0,0,0,0,0,-1,1630,344,0,0
413,680,0,0,0,0,0,0,0,0,0,-1,1637,344,0,0
420,680,0,0,0,0,0,0,0,0,0,-1,1644,344,0,0
427,680,0,0,0,0,0,0,0,0,0,-1,1651,344,0,0
434,680,0,0,0,0,0,0,0,0,0,-1,1658,344,0,0
441,680,0,0,0,0,0,0,0,0,0,-1,1665,344,0,0
448,680,0,0,0,0,0,0,0,0,0,-1,1672,344,0,0
455,680,0,0,0,0,0,0,0,0,0,-1,1679,344,0,0
462,680,0,0,0,0,0,0,0,0,0,-1,1686,344,0,0
469,680,0,0,0,0,0,0,0,0,0,-1,1693,344,0,0
476,680,0,0,0,0,0,0,0,0,0,-1,1700,344,0,0
483,680,0,0,0,0,0,0,0,0,0,-1,1707,344,0,0
490,680,0,0,0,0,0,0,0,0,0,-1,1714,344,0,0
497,680,0,0,0,0,0,0,0,0,0,-1,1721,344,0,0
504,680,0,0,0,0,0,0,0,0,0,-1,1728,344,0,0
511,680,0,0,0,0,0,0,0,0,0,-1,1735,344,0,0
518,680,0,0,0,0,0,0,0,0,0,-1,1742,344,0,0
525,680,0,0,0,0,0,0,0,0,0,-1,1749,344,0,0
532,680,0,0,0,0,0,0,0,0,0,-1,1756,344,0,0
539,680,0,0,0,0,0,0,0,0,0,-1,1763,344,0,0
546,680,0,0,0,0,0,0,0,0,0,-1,1770,344,0,0
553,680,0,0,0,0,0,0,0,0,0,-1,1777,344,0,0
560,680,0,0,0,0,0,0,0,0,0,-1,1784,344,0,0
567,680,0,0,0,0,0,0,0,0,0,-1,1791,344,0,0
574,680,0,0,0,0,0,0,0,0,0,-1,1798,344,0,0
581,680,0,0,0,0,0,0,0,0,0,-1,1805,344,0,0
588,680,0,0,0,0,0,0,0,0,0,-1,1812,344,0,0
595,680,0,0,0,0,0,0,0,0,0,-1,1819,344,0,0
602,680,0,0,0,0,0,0,0,0,0,-1,1826,344,0,0
609,680,0,0,0,0,0,0,0,0,0,-1,1833,344,0,0
616,680,0,0,0,0,0,0,0,0,0,-1,1840,344,0,0
623,680,0,0,0,0,0,0,0,0,0,-1,1847,344,0,0
630,680,0,0,0,0,0,0,0,0,0,-1,1854,344,0,0
637,680,0,0,0,0,0,0,0,0,0,-1,1861,344,0,0
644,680,0,0,0,0,0,0,0,0,0,-1,1868,344,0,0
651,680,0,0,0,0,0,0,0,0,0,-1,1875,344,0,0
658,680,0,0,0,0,0,0,0,0,0,-1,1882,344,0,0
665,680,0,0,0,0,0,0,0,0,0,-1,1889,344,0,0
672,680,0,0,0,0,0,0,0,0,0,-1,1896,344,0,0
679,680,0,0,0,0,0,0,0,0,0,-1,1903,344,0,0
686,680,0,0,0,0,0,0,0,0,0,-1,1910,344,0,0
693,680,0,0,0,0,0,0,0,0,0,-1,1917,344,0,0
700,680,0,0,0,0,0,0,0,0,0,-1,1924,344,0,0
707,680,0,0,0,0,0,0,0,0,0,-1,1931,344,0,0
714,680,0,0,0,0,0,0,0,0,0,-1,1938,344,0,0
721,680,0,0,0,0,0,0,0,0,0,-1,1945,344,0,0
728,680,0,0,0,0,0,0,0,0,0,-1,1952,344,0,0
735,680,0,0,0,0,0,0,0,0,0,-1,1959,344,0,0
742,680,0,0,0,0,0,0,0,0,0,-1,1966,344,0,0
749,680,0,0,0,0,0,0,0,0,0,-1,1973,344,0,0
756,680,0,0,0,0,0,0,0,0,0,-1,1980,344,0,0
763,680,0,0,0,0,0,0,0,0,0,-1,1987,344,0,0
770,680,0,0,0,0,0,0,0,0,0,-1,1994,344,0,0
777,680,0,0,0,0,0,0,0,0,0,-1,2001,344,0,0
784,680,0,0,0,0,0,0,0,0,0,-1,2008,344,0,0
791,680,0,0,0,0,0,0,0,0,0,-1,2015,344,0,0
798,680,0,0,0,0,0,0,0,0,0,-1,2022,344,0,0
805,680,0,0,0,0,0,0,0,0,0,-1,2029,344,0,0
812,680,0,0,0,0,0,0,0,0,0,-1,2036,344,0,0
-700,673,0,0,0,0,0,0,0,0,0,-1,524,351,0,0
-693,673,0,0,0,0,0,0,0,0,0,-1,531,351,0,0
-686,673,0,0,0,0,0,0,0,0,0,-1,538,351,0,0
-679,673,0,0,0,0,0,0,0,0,0,-1,545,351,0,0
-672,673,0,0,0,0,0,0,0,0,0,-1,552,351,0,0
-665,673,0,0,0,0,0,0,0,0,0,-1,559,351,0,0
-658,673,0,0,0,0,0,0,0,0,0,-1,566,351,0,0
-651,673,0,0,0,0,0,0,0,0,0,-1,573,351,0,0
-644,673,0,0,0,0,0,0,0,0,0,-1,580,351,0,0
-637,673,0,0,0,0,0,0,0,0,0,-1,587,351,0,0
-630,673,0,0,0,0,0,0,0,0,0,-1,594,351,0,0
-623,673,0,0,0,0,0,0,0,0,0,-1,601,351,0,0
-616,673,0,0,0,0,0,0,0,0,0,-1,608,351,0,0
-609,673,0,0,0,0,0,0,0,0,0,-1,615,351,0,0
-602,673,0,0,0,0,0,0,0,0,0,-1,622,351,0,0
-595,673,0,0,0,0,0,0,0,0,0,-1,629,351,0,0
-588,673,0,0,0,0,0,0,0,0,0,-1,636,351,0,0
-581,673,0,0,0,0,0,0,0,0,0,-1,643,351,0,0
-574,673,0,0,0,0,0,0,0,0,0,-1,650,351,0,0
-567,673,0,0,0,0,0,0,0,0,0,-1,657,351,0,0
-560,673,0,0,0,0,0,0,0,0,0,-1,664,351,0,0
-553,673,0,0,0,0,0,0,0,0,0,-1,671,351,0,0
-546,673,0,0,0,0,0,0,0,0,0,-1,678,351,0,0
-539,673,0,0,0,0,0,0,0,0,0,-1,685,351,0,0
-532,673,0,0,0,0,0,0,0,0,0,-1,692,351,0,0
-525,673,0,0,0,0,0,0,0,0,0,-1,699,351,0,0
-518,673,0,0,0,0,0,0,0,0,0,-1,706,351,0,0
-511,673,0,0,0,0,0,0,0,0,0,-1,713,351,0,0
-504,673,0,0,0,0,0,0,0,0,0,-1,720,351,0,0
-497,673,0,0,0,0,0,0,0,0,0,-1,727,351,0,0
-490,673,0,0,0,0,0,0,0,0,0,-1,734,351,0,0
-483,673,0,0,0,0,0,0,0,0,0,-1,741,351,0,0
-476,673,0,0,0,0,0,0,0,0,0,-1,748,351,0,0
-469,673,0,0,0,0,0,0,0,0,0,-1,755,351,0,0
-462,673,0,0,0,0,0,0,0,0,0,-1,762,351,0,0
-455,673,0,0,0,0,0,0,0,0,0,-1,769,351,0,0
-448,673,0,0,0,0,0,0,0,0,0,-1,776,351,0,0
-441,673,0,0,0,0,0,0,0,0,0,-1,783,351,0,0
-434,673,0,0,0,0,0,0,0,0,0,-1,790,351,0,0
-427,673,0,0,0,0,0,0,0,0,0,-1,797,351,0,0
-420,673,0,0,0,0,0,0,0,0,0,-1,804,351,0,0
-413,673,0,0,0,0,0,0,0,0,0,-1,811,351,0,0
-406,673,0,0,0,0,0,0,0,0,0,-1,818,351,0,0
-399,673,0,0,0,0,0,0,0,0,0,-1,825,351,0,0
-392,673,0,0,0,0,0,0,0,0,0,-1,832,351,0,0
-385,673,0,0,0,0,0,0,0,0,0,-1,839,351,0,0
-378,673,0,0,0,0,0,0,0,0,0,-1,846,351,0,0
-371,673,0,0,0,0,0,0,0,0,0,-1,853,351,0,0
-364,673,0,0,0,0,0,0,0,0,0,-1,860,351,0,0
-357,673,0,0,0,0,0,0,0,0,0,-1,867,351,0,0
-350,673,0,0,0,0,0,0,0,0,0,-1,874,351,0,0
-343,673,0,0,0,0,0,0,0,0,0,-1,881,351,0,0
-336,673,0,0,0,0,0,0,0,0,0,-1,888,351,0,0
-329,673,0,0,0,0,0,0,0,0,0,-1,895,351,0,0
-322,673,0,0,0,0,0,0,0,0,0,-1,902,351,0,0
-315,673,0,0,0,0,0,0,0,0,0,-1,909,351,0,0
-308,673,0,0,0,0,0,0,0,0,0,-1,916,351,0,0
-301,673,0,0,0,0,0,0,0,0,0,-1,923,351,0,0
-294,673,0,0,0,0,0,0,0,0,0,-1,930,351,0,0
-287,673,0,0,0,0,0,0,0,0,0,-1,937,351,0,0
-280,673,0,0,0,0,0,0,0,0,0,-1,944,351,0,0
-273,673,0,0,0,0,0,0,0,0,0,-1,951,351,0,0
-266,673,0,0,0,0,0,0,0,0,0,-1,958,351,0,0
-259,673,0,0,0,0,0,0,0,0,0,-1,965,351,0,0
-252,673,0,0,0,0,0,0,0,0,0,-1,972,351,0,0
-245,673,0,0,0,0,0,0,0,0,0,-1,979,351,0,0
-238,673,0,0,0,0,0,0,0,0,0,-1,986,351,0,0
-231,673,0,0,0,0,0,0,0,0,0,-1,993,351,0,0
-224,673,0,0,0,0,0,0,0,0,0,-1,1000,351,0,0
-217,673,0,0,0,0,0,0,0,0,0,-1,1007,351,0,0
-210,673,0,0,0,0,0,0,0,0,0,-1,1014,351,0,0
-203,673,0,0,0,0,0,0,0,0,0,-1,1021,351,0,0
-196,673,0,0,0,0,0,0,0,0,0,-1,1028,351,0,0
-189,673,0,0,0,0,0,0,0,0,0,-1,1035,351,0,0
-182,673,0,0,0,0,0,0,0,0,0,-1,1042,351,0,0
-175,673,7.10449,-31.8279,0,0,0,0,0,0,0,-1,1049,351,7.10448,31.8279
-168,673,7.33081,-32.7122,0,0,0,0,0,0,0,-1,1056,351,7.33085,32.7122
-161,673,7.8938,-33.5352,0,0,0,0,0,0,0,-1,1063,351,7.89385,33.5352
-154,673,8.80566,-35.3518,0,0,0,0,0,0,0,-1,1070,351,8.80563,35.3518
-147,673,2.89221,-37.7351,0,0,0,0,0,0,0,-1,1077,351,2.89224,37.7351
-140,673,3.35046,-37.7151,0,0,0,0,0,0,0,-1,1084,351,3.35046,37.715
-133,673,3.35339,-39.0288,0,0,0,0,0,0,0,-1,1091,351,3.35342,39.0288
-126,673,3.7533,-38.0453,0,0,0,0,0,0,0,-1,1098,351,3.7533,38.0453
-119,673,4.1532,-37.0618,0,0,0,0,0,0,0,-1,1105,351,4.15318,37.0618
-112,673,7.27234,-32.5801,0,0,0,0,0,0,0,-1,1112,351,7.27231,32.5801
-105,673,21.1144,-43.3143,0,0,0,0,0,0,0,-1,1119,351,21.1143,43.3143
-98,673,14.8014,-36.7519,0,0,0,0,0,0,0,-1,1126,351,14.8014,36.7519
-91,673,8.54944,-29.9639,0,0,0,0,0,0,0,-1,1133,351,8.54949,29.9639
-84,673,2.17102,-24.3204,0,0,0,0,0,0,0,-1,1140,351,2.17107,24.3204
-77,673,-4.25378,-18.8346,0,0,0,0,0,0,0,-1,1147,351,-4.25381,18.8346
-70,673,-10.7933,-13.6681,0,0,0,0,0,0,0,-1,1154,351,-10.7934,13.6681
-63,673,-17.3896,-8.24469,0,0,0,0,0,0,0,-1,1161,351,-17.3896,8.2447
-56,673,-18.0282,2.79053,0,0,0,0,0,0,0,-1,1168,351,-18.0283,-2.79052
-49,673,-0.926758,-0.115448,0,0,0,0,0,0,0,-1,1175,351,-0.926732,0.115444
-42,673,-1.15015,0.289917,0,0,0,0,0,0,0,-1,1182,351,-1.15017,-0.289932
-35,673,-0.919556,-1.00711,0,0,0,0,0,0,0,-1,1189,351,-0.919514,1.00711
-28,673,5.28918,-39.2331,0,0,0,0,0,0,0,-1,1196,351,5.28924,39.2331
-21,673,7.52393,-53.7859,0,0,0,0,0,0,0,-1,1203,351,7.52387,53.7859
-14,673,7.45239,-54.1502,-0.00888268,0.0390735,0.00273667,0.0392291,-0.00903834,1.51398,0.0296287,0.0483102,1210,351,7.45236,54.1502
-7,673,7.26477,-54.5174,-0.00776644,0.0379985,0.0053098,0.0386065,-0.00837442,1.45679,0.0289359,0.0464186,1217,351,7.26483,54.5174
0,673,7.23218,-54.863,0,0,0,0,0,0,0,-1,1224,351,7.23219,54.863
7,673,7.24512,-54.8077,0,0,0,0,0,0,0,-1,1231,351,7.24506,54.8077
14,673,7.43042,-54.7104,-0.00528232,0.0354572,0.0116031,0.0385301,-0.00835524,1.3119,0.0288776,0.0487908,1238,351,7.43038,54.7104
21,673,7.25696,-55.0215,-0.00550155,0.0360214,0.0139813,0.0402903,-0.00977038,1.27446,0.0306407,0.0332882,1245,351,7.25701,55.0215
28,673,7.25305,-55.3504,0,0,0,0,0,0,0,-1,1252,351,7.25307,55.3504
35,673,7.026,-55.2428,0,0,0,0,0,0,0,-1,1259,351,7.02603,55.2428
42,673,6.73157,-55.3405,-0.00922296,0.0437008,0.0192437,0.0499582,-0.0154804,1.25641,0.0394903,0.0408058,1266,351,6.73162,55.3405
49,673,6.65784,-55.4806,-0.0126981,0.0500631,0.0210809,0.0564866,-0.0191216,1.27503,0.0453945,0.0256888,1273,351,6.65778,55.4806
56,673,6.64734,-55.4875,-0.0171107,0.0571558,0.0231945,0.0638046,-0.0237595,1.29163,0.0522877,0.0187184,1280,351,6.64734,55.4875
63,673,6.70667,-55.2755,-0.0216434,0.0653325,0.0253345,0.0721739,-0.0284847,1.30705,0.0599122,0.0236782,1287,351,6.70671,55.2755
70,673,6.42871,-55.1174,0,0,0,0,0,0,0,-1,1294,351,6.42871,55.1174
77,673,5.99951,-55.0117,0,0,0,0,0,0,0,-1,1301,351,5.99952,55.0117
84,673,6.40527,-55.269,0,0,0,0,0,0,0,-1,1308,351,6.40531,55.269
91,673,6.43518,-55.5919,0,0,0,0,0,0,0,-1,1315,351,6.43519,55.5919
98,673,6.07507,-55.5008,0,0,0,0,0,0,0,-1,1322,351,6.07504,55.5008
105,673,5.76355,-55.282,0,0,0,0,0,0,0,-1,1329,351,5.76354,55.282
112,673,0.483032,-54.0094,0,0,0,0,0,0,0,-1,1336,351,0.48309,54.0094
119,673,0.517944,-53.872,0,0,0,0,0,0,0,-1,1343,351,0.517953,53.872
126,673,0.69043,-53.907,0,0,0,0,0,0,0,-1,1350,351,0.690422,53.907
133,673,-0.25708,-53.6283,0,0,0,0,0,0,0,-1,1357,351,-0.257116,53.6283
140,673,5.01538,-54.1717,0,0,0,0,0,0,0,-1,1364,351,5.0154,54.1717
147,673,4.96875,-53.7291,-0.0436928,0.114221,0.0204282,0.116821,-0.0462926,1.44421,0.0970639,0.046567,1371,351,4.96874,53.7291
154,673,5.27136,-52.7363,-0.0412551,0.111634,0.0184285,0.113824,-0.043445,1.45252,0.093781,0.0427539,1378,351,5.27138,52.7363
161,673,5.23242,-52.8902,0,0,0,0,0,0,0,-1,1385,351,5.23246,52.8902
168,673,6.87061,1.83954,0,0,0,0,0,0,0,-1,1392,351,6.87063,-1.83953
175,673,6.6228,1.1459,0,0,0,0,0,0,0,-1,1399,351,6.62276,-1.14591
182,673,6.37244,0.796112,0,0,0,0,0,0,0,-1,1406,351,6.3724,-0.796102
189,673,6.12097,0.265472,0,0,0,0,0,0,0,-1,1413,351,6.121,-0.265482
196,673,6.02173,3.12717,0,0,0,0,0,0,0,-1,1420,351,6.02176,-3.12717
203,673,5.04456,1.6351,0,0,0,0,0,0,0,-1,1427,351,5.04455,-1.63509
210,673,4.79224,0.447479,0,0,0,0,0,0,0,-1,1434,351,4.79229,-0.447469
217,673,2.01648,0.972687,0,0,0,0,0,0,0,-1,1441,351,2.01644,-0.972691
224,673,2.3689,-1.80539,0,0,0,0,0,0,0,-1,1448,351,2.36896,1.80539
231,673,2.65857,-2.18497,0,0,0,0,0,0,0,-1,1455,351,2.65852,2.18496
238,673,3.77844,-2.06088,0,0,0,0,0,0,0,-1,1462,351,3.77839,2.06088
245,673,3.5376,-0.190399,0,0,0,0,0,0,0,-1,1469,351,3.53759,0.1904
252,673,3.80518,0.55603,0,0,0,0,0,0,0,-1,1476,351,3.80519,-0.556022
259,673,3.88562,1.29617,0,0,0,0,0,0,0,-1,1483,351,3.88562,-1.29618
266,673,4.22424,2.04834,0,0,0,0,0,0,0,-1,1490,351,4.22429,-2.04834
273,673,6.07886,0.385895,0,0,0,0,0,0,0,-1,1497,351,6.0789,-0.385906
280,673,6.97534,-0.0820007,0,0,0,0,0,0,0,-1,1504,351,6.97536,0.0820122
287,673,7.66968,-0.348541,0,0,0,0,0,0,0,-1,1511,351,7.66969,0.348534
294,673,8.20996,0.28537,0,0,0,0,0,0,0,-1,1518,351,8.20993,-0.28536
301,673,0,0,0,0,0,0,0,0,0,-1,1525,351,0,0
308,673,0,0,0,0,0,0,0,0,0,-1,1532,351,0,0
315,673,0,0,0,0,0,0,0,0,0,-1,1539,351,0,0
322,673,0,0,0,0,0,0,0,0,0,-1,1546,351,0,0
329,673,0,0,0,0,0,0,0,0,0,-1,1553,351,0,0
336,673,0,0,0,0,0,0,0,0,0,-1,1560,351,0,0
343,673,0,0,0,0,0,0,0,0,0,-1,1567,351,0,0
350,673,0,0,0,0,0,0,0,0,0,-1,1574,351,0,0
357,673,0,0,0,0,0,0,0,0,0,-1,1581,351,0,0
364,673,0,0,0,0,0,0,0,0,0,-1,1588,351,0,0
371,673,0,0,0,0,0,0,0,0,0,-1,1595,351,0,0
378,673,0,0,0,0,0,0,0,0,0,-1,1602,351,0,0
385,673,0,0,0,0,0,0,0,0,0,-1,1609,351,0,0
392,673,0,0,0,0,0,0,0,0,0,-1,1616,351,0,0
399,673,0,0,0,0,0,0,0,0,0,-1,1623,351,0,0
406,673,0,0,0,0,0,0,0,0,0,-1,1630,351,0,0
413,673,0,0,0,0,0,0,0,0,0,-1,1637,351,0,0
420,673,0,0,0,0,0,0,0,0,0,-1,1644,351,0,0
427,673,0,0,0,0,0,0,0,0,0,-1,1651,351,0,0
434,673,0,0,0,0,0,0,0,0,0,-1,1658,351,0,0
441,673,0,0,0,0,0,0,0,0,0,-1,1665,351,0,0
448,673,0,0,0,0,0,0,0,0,0,-1,1672,351,0,0
455,673,0,0,0,0,0,0,0,0,0,-1,1679,351,0,0
462,673,0,0,0,0,0,0,0,0,0,-1,1686,351,0,0
469,673,0,0,0,0,0,0,0,0,0,-1,1693,351,0,0
476,673,0,0,0,0,0,0,0,0,0,-1,1700,351,0,0
483,673,0,0,0,0,0,0,0,0,0,-1,1707,351,0,0
490,673,0,0,0,0,0,0,0,0,0,-1,1714,351,0,0
497,673,0,0,0,0,0,0,0,0,0,-1,1721,351,0,0
504,673,0,0,0,0,0,0,0,0,0,-1,1728,351,0,0
511,673,0,0,0,0,0,0,0,0,0,-1,1735,351,0,0
518,673,0,0,0,0,0,0,0,0,0,-1,1742,351,0,0
525,673,0,0,0,0,0,0,0,0,0,-1,1749,351,0,0
532,673,0,0,0,0,0,0,0,0,0,-1,1756,351,0,0
539,673,0,0,0,0,0,0,0,0,0,-1,1763,351,0,0
546,673,0,0,0,0,0,0,0,0,0,-1,1770,351,0,0
553,673,0,0,0,0,0,0,0,0,0,-1,1777,351,0,0
560,673,0,0,0,0,0,0,0,0,0,-1,1784,351,0,0
567,673,0,0,0,0,0,0,0,0,0,-1,1791,351,0,0
574,673,0,0,0,0,0,0,0,0,0,-1,1798,351,0,0
581,673,0,0,0,0,0,0,0,0,0,-1,1805,351,0,0
588,673,0,0,0,0,0,0,0,0,0,-1,1812,351,0,0
595,673,0,0,0,0,0,0,0,0,0,-1,1819,351,0,0
602,673,0,0,0,0,0,0,0,0,0,-1,1826,351,0,0
609,673,0,0,0,0,0,0,0,0,0,-1,1833,351,0,0
616,673,0,0,0,0,0,0,0,0,0,-1,1840,351,0,0
623,673,0,0,0,0,0,0,0,0,0,-1,1847,351,0,0
630,673,0,0,0,0,0,0,0,0,0,-1,1854,351,0,0
637,673,0,0,0,0,0,0,0,0,0,-1,1861,351,0,0
644,673,0,0,0,0,0,0,0,0,0,-1,1868,351,0,0
651,673,0,0,0,0,0,0,0,0,0,-1,1875,351,0,0
658,673,0,0,0,0,0,0,0,0,0,-1,1882,351,0,0
665,673,0,0,0,0,0,0,0,0,0,-1,1889,351,0,0
672,673,0,0,0,0,0,0,0,0,0,-1,1896,351,0,0
679,673,0,0,0,0,0,0,0,0,0,-1,1903,351,0,0
686,673,0,0,0,0,0,0,0,0,0,-1,1910,351,0,0
693,673,0,0,0,0,0,0,0,0,0,-1,1917,351,0,0
700,673,0,0,0,0,0,0,0,0,0,-1,1924,351,0,0
707,673,0,0,0,0,0,0,0,0,0,-1,1931,351,0,0
714,673,0,0,0,0,0,0,0,0,0,-1,1938,351,0,0
721,673,0,0,0,0,0,0,0,0,0,-1,1945,351,0,0
728,673,0,0,0,0,0,0,0,0,0,-1,1952,351,0,0
735,673,0,0,0,0,0,0,0,0,0,-1,1959,351,0,0
742,673,0,0,0,0,0,0,0,0,0,-1,1966,351,0,0
749,673,0,0,0,0,0,0,0,0,0,-1,1973,351,0,0
756,673,0,0,0,0,0,0,0,0,0,-1,1980,351,0,0
763,673,0,0,0,0,0,0,0,0,0,-1,1987,351,0,0
770,673,0,0,0,0,0,0,0,0,0,-1,1994,351,0,0
777,673,0,0,0,0,0,0,0,0,0,-1,2001,351,0,0
784,673,0,0,0,0,0,0,0,0,0,-1,2008,351,0,0
791,673,0,0,0,0,0,0,0,0,0,-1,2015,351,0,0
798,673,0,0,0,0,0,0,0,0,0,-1,2022,351,0,0
805,673,0,0,0,0,0,0,0,0,0,-1,2029,351,0,0
812,673,0,0,0,0,0,0,0,0,0,-1,2036,351,0,0
-700,666,0,0,0,0,0,0,0,0,0,-1,524,358,0,0
-693,666,0,0,0,0,0,0,0,0,0,-1,531,358,0,0
-686,666,0,0,0,0,0,0,0,0,0,-1,538,358,0,0
-679,666,0,0,0,0,0,0,0,0,0,-1,545,358,0,0
-672,666,0,0,0,0,0,0,0,0,0,-1,552,358,0,0
-665,666,0,0,0,0,0,0,0,0,0,-1,559,358,0,0
-658,666,0,0,0,0,0,0,0,0,0,-1,566,358,0,0
-651,666,0,0,0,0,0,0,0,0,0,-1,573,358,0,0
-644,666,0,0,0,0,0,0,0,0,0,-1,580,358,0,0
-637,666,0,0,0,0,0,0,0,0,0,-1,587,358,0,0
-630,666,0,0,0,0,0,0,0,0,0,-1,594,358,0,0
-623,666,0,0,0,0,0,0,0,0,0,-1,601,358,0,0
-616,666,0,0,0,0,0,0,0,0,0,-1,608,358,0,0
-609,666,0,0,0,0,0,0,0,0,0,-1,615,358,0,0
-602,666,0,0,0,0,0,0,0,0,0,-1,622,358,0,0
-595,666,0,0,0,0,0,0,0,0,0,-1,629,358,0,0
-588,666,0,0,0,0,0,0,0,0,0,-1,636,358,0,0
-581,666,0,0,0,0,0,0,0,0,0,-1,643,358,0,0
-574,666,0,0,0,0,0,0,0,0,0,-1,650,358,0,0
-567,666,0,0,0,0,0,0,0,0,0,-1,657,358,0,0
-560,666,0,0,0,0,0,0,0,0,0,-1,664,358,0,0
-553,666,0,0,0,0,0,0,0,0,0,-1,671,358,0,0
-546,666,0,0,0,0,0,0,0,0,0,-1,678,358,0,0
-539,666,0,0,0,0,0,0,0,0,0,-1,685,358,0,0
-532,666,0,0,0,0,0,0,0,0,0,-1,692,358,0,0
-525,666,0,0,0,0,0,0,0,0,0,-1,699,358,0,0
-518,666,0,0,0,0,0,0,0,0,0,-1,706,358,0,0
-511,666,0,0,0,0,0,0,0,0,0,-1,713,358,0,0
-504,666,0,0,0,0,0,0,0,0,0,-1,720,358,0,0
-497,666,0,0,0,0,0,0,0,0,0,-1,727,358,0,0
-490,666,0,0,0,0,0,0,0,0,0,-1,734,358,0,0
-483,666,0,0,0,0,0,0,0,0,0,-1,741,358,0,0
-476,666,0,0,0,0,0,0,0,0,0,-1,748,358,0,0
-469,666,0,0,0,0,0,0,0,0,0,-1,755,358,0,0
-462,666,0,0,0,0,0,0,0,0,0,-1,762,358,0,0
-455,666,0,0,0,0,0,0,0,0,0,-1,769,358,0,0
-448,666,0,0,0,0,0,0,0,0,0,-1,776,358,0,0
-441,666,0,0,0,0,0,0,0,0,0,-1,783,358,0,0
-434,666,0,0,0,0,0,0,0,0,0,-1,790,358,0,0
-427,666,0,0,0,0,0,0,0,0,0,-1,797,358,0,0
-420,666,0,0,0,0,0,0,0,0,0,-1,804,358,0,0
-413,666,0,0,0,0,0,0,0,0,0,-1,811,358,0,0
-406,666,0,0,0,0,0,0,0,0,0,-1,818,358,0,0
-399,666,0,0,0,0,0,0,0,0,0,-1,825,358,0,0
-392,666,0,0,0,0,0,0,0,0,0,-1,832,358,0,0
-385,666,0,0,0,0,0,0,0,0,0,-1,839,358,0,0
-378,666,0,0,0,0,0,0,0,0,0,-1,846,358,0,0
-371,666,0,0,0,0,0,0,0,0,0,-1,853,358,0,0
-364,666,0,0,0,0,0,0,0,0,0,-1,860,358,0,0
-357,666,0,0,0,0,0,0,0,0,0,-1,867,358,0,0
-350,666,0,0,0,0,0,0,0,0,0,-1,874,358,0,0
-343,666,0,0,0,0,0,0,0,0,0,-1,881,358,0,0
-336,666,0,0,0,0,0,0,0,0,0,-1,888,358,0,0
-329,666,0,0,0,0,0,0,0,0,0,-1,895,358,0,0
-322,666,0,0,0,0,0,0,0,0,0,-1,902,358,0,0
-315,666,0,0,0,0,0,0,0,0,0,-1,909,358,0,0
-308,666,0,0,0,0,0,0,0,0,0,-1,916,358,0,0
-301,666,0,0,0,0,0,0,0,0,0,-1,923,358,0,0
-294,666,0,0,0,0,0,0,0,0,0,-1,930,358,0,0
-287,666,0,0,0,0,0,0,0,0,0,-1,937,358,0,0
-280,666,0,0,0,0,0,0,0,0,0,-1,944,358,0,0
-273,666,0,0,0,0,0,0,0,0,0,-1,951,358,0,0
-266,666,0,0,0,0,0,0,0,0,0,-1,958,358,0,0
-259,666,0,0,0,0,0,0,0,0,0,-1,965,358,0,0
-252,666,0,0,0,0,0,0,0,0,0,-1,972,358,0,0
-245,666,0,0,0,0,0,0,0,0,0,-1,979,358,0,0
-238,666,0,0,0,0,0,0,0,0,0,-1,986,358,0,0
-231,666,0,0,0,0,0,0,0,0,0,-1,993,358,0,0
-224,666,0,0,0,0,0,0,0,0,0,-1,1000,358,0,0
-217,666,0,0,0,0,0,0,0,0,0,-1,1007,358,0,0
-210,666,0,0,0,0,0,0,0,0,0,-1,1014,358,0,0
-203,666,0,0,0,0,0,0,0,0,0,-1,1021,358,0,0
-196,666,4.03418,-28.8724,0,0,0,0,0,0,0,-1,1028,358,4.03422,28.8724
-189,666,5.00366,-29.597,0,0,0,0,0,0,0,-1,1035,358,5.00363,29.597
-182,666,6.83252,-30.9843,0,0,0,0,0,0,0,-1,1042,358,6.83247,30.9844
-175,666,7.01611,-31.8763,0,0,0,0,0,0,0,-1,1049,358,7.01617,31.8762
-168,666,7.21545,-32.7414,0,0,0,0,0,0,0,-1,1056,358,7.2154,32.7414
-161,666,7.69116,-33.6269,0,0,0,0,0,0,0,-1,1063,358,7.69121,33.6269
-154,666,3.79041,-37.9204,0,0,0,0,0,0,0,-1,1070,358,3.79034,37.9204
-147,666,4.17908,-37.7466,0,0,0,0,0,0,0,-1,1077,358,4.17912,37.7466
-140,666,4.54309,-37.735,0,0,0,0,0,0,0,-1,1084,358,4.54304,37.735
-133,666,4.65723,-39.0643,0,0,0,0,0,0,0,-1,1091,358,4.65727,39.0643
-126,666,5.02368,-38.0699,0,0,0,0,0,0,0,-1,1098,358,5.02363,38.0698
-119,666,5.39001,-37.0754,0,0,0,0,0,0,0,-1,1105,358,5.38999,37.0754
-112,666,6.77014,-32.8165,0,0,0,0,0,0,0,-1,1112,358,6.77013,32.8165
-105,666,6.30908,-29.0855,0,0,0,0,0,0,0,-1,1119,358,6.30905,29.0855
-98,666,15.4427,-31.5168,0,0,0,0,0,0,0,-1,1126,358,15.4428,31.5168
-91,666,9.5127,-25.1347,0,0,0,0,0,0,0,-1,1133,358,9.51269,25.1347
-84,666,2.91589,-19.4071,0,0,0,0,0,0,0,-1,1140,358,2.91592,19.4071
-77,666,-3.48083,-14.0782,0,0,0,0,0,0,0,-1,1147,358,-3.48081,14.0782
-70,666,-9.99438,-8.90146,0,0,0,0,0,0,0,-1,1154,358,-9.99433,8.90146
-63,666,-11.7778,-0.975189,0,0,0,0,0,0,0,-1,1161,358,-11.7778,0.97519
-56,666,0.424683,-2.04132,0,0,0,0,0,0,0,-1,1168,358,0.424665,2.04132
-49,666,0.754395,-2.23169,0,0,0,0,0,0,0,-1,1175,358,0.754383,2.23169
-42,666,1.34473,-3.53897,0,0,0,0,0,0,0,-1,1182,358,1.34476,3.53896
-35,666,7.41687,-54.1909,0,0,0,0,0,0,0,-1,1189,358,7.41683,54.1909
-28,666,7.58508,-54.2856,0,0,0,0,0,0,0,-1,1196,358,7.58506,54.2856
-21,666,7.52026,-54.2967,-0.00997646,0.0307474,-0.00158475,0.030809,-0.010038,-1.53196,0.0245784,0.0421804,1203,358,7.5203,54.2967
-14,666,7.30823,-54.5474,-0.00912027,0.0310516,0.000335422,0.0310544,-0.00912307,1.56245,0.0243212,0.0376684,1210,358,7.30818,54.5474
-7,666,7.26074,-54.82,-0.0081466,0.0307568,0.00218392,0.030879,-0.00826881,1.51489,0.0238255,0.0228751,1217,358,7.26069,54.82
0,666,7.25647,-55.0771,-0.00710912,0.0301021,0.00389424,0.0305052,-0.00751229,1.46763,0.0232491,0.0159596,1224,358,7.25645,55.0771
7,666,7.16882,-55.1789,-0.00623153,0.0299188,0.00507533,0.0306179,-0.00693057,1.43393,0.0230717,0.022641,1231,358,7.16883,55.1789
14,666,7.09961,-55.2314,-0.00564433,0.029863,0.0070154,0.0311988,-0.00698015,1.38264,0.0234745,0.0220074,1238,358,7.09966,55.2314
21,666,6.99719,-55.4972,-0.00558761,0.0303763,0.00889162,0.0324546,-0.00766585,1.34119,0.0245932,0.0162058,1245,358,6.99725,55.4972
28,666,6.94031,-55.67,-0.0058692,0.0309119,0.0104297,0.0336635,-0.0086208,1.31285,0.0258005,0.0228571,1252,358,6.94037,55.67
35,666,6.90723,-55.6467,-0.00619714,0.0326702,0.0118378,0.0359918,-0.00951871,1.29724,0.0277177,0.0215182,1259,358,6.90722,55.6467
42,666,6.78918,-55.7492,-0.00774997,0.03615,0.0130943,0.039759,-0.011359,1.30186,0.0309941,0.0175058,1266,358,6.78923,55.7492
49,666,6.69153,-55.8299,-0.0103762,0.0409984,0.0146082,0.0448617,-0.0142395,1.31225,0.0356161,0.0172444,1273,358,6.69148,55.8299
56,666,6.65918,-55.8563,-0.0137392,0.04633,0.0163528,0.0504932,-0.0179025,1.3215,0.0409553,0.0178326,1280,358,6.65915,55.8563
63,666,6.60352,-55.9282,-0.0172124,0.0525113,0.0181472,0.0569517,-0.0216528,1.33082,0.0468828,0.0202229,1287,358,6.60355,55.9282
70,666,6.53809,-55.9086,-0.0209328,0.0591335,0.0198721,0.0637943,-0.0255936,1.34042,0.0531559,0.0198484,1294,358,6.53815,55.9086
77,666,6.44946,-55.7894,-0.0248885,0.0661738,0.0212184,0.0708752,-0.0295898,1.35275,0.0596137,0.0223983,1301,358,6.44951,55.7894
84,666,6.45703,-55.8091,-0.0289682,0.0731878,0.0222837,0.077837,-0.0336174,1.36511,0.0660149,0.0305177,1308,358,6.45704,55.8091
91,666,6.3634,-55.8143,-0.032531,0.0790142,0.0227291,0.0834678,-0.0369846,1.3773,0.0712484,0.0276814,1315,358,6.36341,55.8143
98,666,6.151,-55.7007,-0.0353175,0.0840296,0.0230105,0.0883124,-0.0396003,1.38678,0.0756144,0.0249655,1322,358,6.15102,55.7007
105,666,5.99622,-55.5261,-0.0372195,0.0883942,0.0232745,0.0925679,-0.0413933,1.39335,0.0792013,0.0290825,1329,358,5.9962,55.5261
112,666,5.94946,-55.3632,0,0,0,0,0,0,0,-1,1336,358,5.94946,55.3632
119,666,5.92261,-55.1722,0,0,0,0,0,0,0,-1,1343,358,5.92262,55.1722
126,666,5.8645,-54.9864,0,0,0,0,0,0,0,-1,1350,358,5.86447,54.9864
133,666,5.7251,-54.8477,0,0,0,0,0,0,0,-1,1357,358,5.72508,54.8477
140,666,5.55164,-54.5758,-0.0352336,0.0908765,0.0175693,0.0932785,-0.0376355,1.43493,0.0778257,0.0430422,1364,358,5.55164,54.5758
147,666,5.40454,-54.256,-0.0332116,0.0886537,0.0162733,0.0907893,-0.0353473,1.44031,0.0751333,0.0306918,1371,358,5.4046,54.256
154,666,5.38513,-53.769,-0.030815,0.0858093,0.0147868,0.0876549,-0.0326606,1.44662,0.0718423,0.027079,1378,358,5.38514,53.769
161,666,5.4021,-53.4443,-0.0289278,0.0839523,0.0130501,0.0854414,-0.0304169,1.45718,0.0693599,0.0332365,1385,358,5.40215,53.4443
168,666,5.36853,-53.0905,0,0,0,0,0,0,0,-1,1392,358,5.36851,53.0905
175,666,5.39783,-53.2679,0,0,0,0,0,0,0,-1,1399,358,5.39777,53.2679
182,666,2.60876,-5.17068,0,0,0,0,0,0,0,-1,1406,358,2.6088,5.17068
189,666,2.46973,-5.49979,0,0,0,0,0,0,0,-1,1413,358,2.46975,5.49979
196,666,2.32458,-5.23651,0,0,0,0,0,0,0,-1,1420,358,2.32461,5.23653
203,666,2.28064,-3.88004,0,0,0,0,0,0,0,-1,1427,358,2.28059,3.88003
210,666,3.02576,-5.83548,0,0,0,0,0,0,0,-1,1434,358,3.02581,5.83547
217,666,2.30444,-5.36011,0,0,0,0,0,0,0,-1,1441,358,2.30447,5.3601
224,666,1.82324,-6.03101,0,0,0,0,0,0,0,-1,1448,358,1.82322,6.031
231,666,2.29797,-10.1093,0,0,0,0,0,0,0,-1,1455,358,2.29801,10.1093
238,666,2.52429,-6.10568,0,0,0,0,0,0,0,-1,1462,358,2.52423,6.10567
245,666,4.53345,-1.38205,0,0,0,0,0,0,0,-1,1469,358,4.53349,1.38204
252,666,4.77405,-0.246979,0,0,0,0,0,0,0,-1,1476,358,4.77405,0.246993
259,666,4.83655,1.14087,0,0,0,0,0,0,0,-1,1483,358,4.83652,-1.14087
266,666,6.14148,0.749512,0,0,0,0,0,0,0,-1,1490,358,6.14144,-0.749519
273,666,3.17737,-33.7881,0,0,0,0,0,0,0,-1,1497,358,3.17735,33.7881
280,666,3.37268,-35.2123,0,0,0,0,0,0,0,-1,1504,358,3.37266,35.2123
287,666,-7.06934,-20.3464,0,0,0,0,0,0,0,-1,1511,358,-7.06933,20.3464
294,666,-2.11157,-23.2753,0,0,0,0,0,0,0,-1,1518,358,-2.11162,23.2753
301,666,-4.77222,-21.6957,0,0,0,0,0,0,0,-1,1525,358,-4.77218,21.6957
308,666,-7.45471,-24.766,0,0,0,0,0,0,0,-1,1532,358,-7.45475,24.766
315,666,1.76294,-0.284027,0,0,0,0,0,0,0,-1,1539,358,1.76291,0.284016
322,666,0,0,0,0,0,0,0,0,0,-1,1546,358,0,0
329,666,0,0,0,0,0,0,0,0,0,-1,1553,358,0,0
336,666,0,0,0,0,0,0,0,0,0,-1,1560,358,0,0
343,666,0,0,0,0,0,0,0,0,0,-1,1567,358,0,0
350,666,0,0,0,0,0,0,0,0,0,-1,1574,358,0,0
357,666,0,0,0,0,0,0,0,0,0,-1,1581,358,0,0
364,666,0,0,0,0,0,0,0,0,0,-1,1588,358,0,0
371,666,0,0,0,0,0,0,0,0,0,-1,1595,358,0,0
378,666,0,0,0,0,0,0,0,0,0,-1,1602,358,0,0
385,666,0,0,0,0,0,0,0,0,0,-1,1609,358,0,0
392,666,0,0,0,0,0,0,0,0,0,-1,1616,358,0,0
399,666,0,0,0,0,0,0,0,0,0,-1,1623,358,0,0
406,666,0,0,0,0,0,0,0,0,0,-1,1630,358,0,0
413,666,0,0,0,0,0,0,0,0,0,-1,1637,358,0,0
420,666,0,0,0,0,0,0,0,0,0,-1,1644,358,0,0
427,666,0,0,0,0,0,0,0,0,0,-1,1651,358,0,0
434,666,0,0,0,0,0,0,0,0,0,-1,1658,358,0,0
441,666,0,0,0,0,0,0,0,0,0,-1,1665,358,0,0
448,666,0,0,0,0,0,0,0,0,0,-1,1672,358,0,0
455,666,0,0,0,0,0,0,0,0,0,-1,1679,358,0,0
462,666,0,0,0,0,0,0,0,0,0,-1,1686,358,0,0
469,666,0,0,0,0,0,0,0,0,0,-1,1693,358,0,0
476,666,0,0,0,0,0,0,0,0,0,-1,1700,358,0,0
483,666,0,0,0,0,0,0,0,0,0,-1,1707,358,0,0
490,666,0,0,0,0,0,0,0,0,0,-1,1714,358,0,0
497,666,0,0,0,0,0,0,0,0,0,-1,1721,358,0,0
504,666,0,0,0,0,0,0,0,0,0,-1,1728,358,0,0
511,666,0,0,0,0,0,0,0,0,0,-1,1735,358,0,0
518,666,0,0,0,0,0,0,0,0,0,-1,1742,358,0,0
525,666,0,0,0,0,0,0,0,0,0,-1,1749,358,0,0
532,666,0,0,0,0,0,0,0,0,0,-1,1756,358,0,0
539,666,0,0,0,0,0,0,0,0,0,-1,1763,358,0,0
546,666,0,0,0,0,0,0,0,0,0,-1,1770,358,0,0
553,666,0,0,0,0,0,0,0,0,0,-1,1777,358,0,0
560,666,0,0,0,0,0,0,0,0,0,-1,1784,358,0,0
567,666,0,0,0,0,0,0,0,0,0,-1,1791,358,0,0
574,666,0,0,0,0,0,0,0,0,0,-1,1798,358,0,0
581,666,0,0,0,0,0,0,0,0,0,-1,1805,358,0,0
588,666,0,0,0,0,0,0,0,0,0,-1,1812,358,0,0
595,666,0,0,0,0,0,0,0,0,0,-1,1819,358,0,0
602,666,0,0,0,0,0,0,0,0,0,-1,1826,358,0,0
609,666,0,0,0,0,0,0,0,0,0,-1,1833,358,0,0
616,666,0,0,0,0,0,0,0,0,0,-1,1840,358,0,0
623,666,0,0,0,0,0,0,0,0,0,-1,1847,358,0,0
630,666,0,0,0,0,0,0,0,0,0,-1,1854,358,0,0
637,666,0,0,0,0,0,0,0,0,0,-1,1861,358,0,0
644,666,0,0,0,0,0,0,0,0,0,-1,1868,358,0,0
651,666,0,0,0,0,0,0,0,0,0,-1,1875,358,0,0
658,666,0,0,0,0,0,0,0,0,0,-1,1882,358,0,0
665,666,0,0,0,0,0,0,0,0,0,-1,1889,358,0,0
672,666,0,0,0,0,0,0,0,0,0,-1,1896,358,0,0
679,666,0,0,0,0,0,0,0,0,0,-1,1903,358,0,0
686,666,0,0,0,0,0,0,0,0,0,-1,1910,358,0,0
693,666,0,0,0,0,0,0,0,0,0,-1,1917,358,0,0
700,666,0,0,0,0,0,0,0,0,0,-1,1924,358,0,0
707,666,0,0,0,0,0,0,0,0,0,-1,1931,358,0,0
714,666,0,0,0,0,0,0,0,0,0,-1,1938,358,0,0
721,666,0,0,0,0,0,0,0,0,0,-1,1945,358,0,0
728,666,0,0,0,0,0,0,0,0,0,-1,1952,358,0,0
735,666,0,0,0,0,0,0,0,0,0,-1,1959,358,0,0
742,666,0,0,0,0,0,0,0,0,0,-1,1966,358,0,0
749,666,0,0,0,0,0,0,0,0,0,-1,1973,358,0,0
756,666,0,0,0,0,0,0,0,0,0,-1,1980,358,0,0
763,666,0,0,0,0,0,0,0,0,0,-1,1987,358,0,0
770,666,0,0,0,0,0,0,0,0,0,-1,1994,358,0,0
777,666,0,0,0,0,0,0,0,0,0,-1,2001,358,0,0
784,666,0,0,0,0,0,0,0,0,0,-1,2008,358,0,0
791,666,0,0,0,0,0,0,0,0,0,-1,2015,358,0,0
798,666,0,0,0,0,0,0,0,0,0,-1,2022,358,0,0
805,666,0,0,0,0,0,0,0,0,0,-1,2029,358,0,0
812,666,0,0,0,0,0,0,0,0,0,-1,2036,358,0,0
-700,659,0,0,0,0,0,0,0,0,0,-1,524,365,0,0
-693,659,0,0,0,0,0,0,0,0,0,-1,531,365,0,0
-686,659,0,0,0,0,0,0,0,0,0,-1,538,365,0,0
-679,659,0,0,0,0,0,0,0,0,0,-1,545,365,0,0
-672,659,0,0,0,0,0,0,0,0,0,-1,552,365,0,0
-665,659,0,0,0,0,0,0,0,0,0,-1,559,365,0,0
-658,659,0,0,0,0,0,0,0,0,0,-1,566,365,0,0
-651,659,0,0,0,0,0,0,0,0,0,-1,573,365,0,0
-644,659,0,0,0,0,0,0,0,0,0,-1,580,365,0,0
-637,659,0,0,0,0,0,0,0,0,0,-1,587,365,0,0
-630,659,0,0,0,0,0,0,0,0,0,-1,594,365,0,0
-623,659,0,0,0,0,0,0,0,0,0,-1,601,365,0,0
-616,659,0,0,0,0,0,0,0,0,0,-1,608,365,0,0
-609,659,0,0,0,0,0,0,0,0,0,-1,615,365,0,0
-602,659,0,0,0,0,0,0,0,0,0,-1,622,365,0,0
-595,659,0,0,0,0,0,0,0,0,0,-1,629,365,0,0
-588,659,0,0,0,0,0,0,0,0,0,-1,636,365,0,0
-581,659,0,0,0,0,0,0,0,0,0,-1,643,365,0,0
-574,659,0,0,0,0,0,0,0,0,0,-1,650,365,0,0
-567,659,0,0,0,0,0,0,0,0,0,-1,657,365,0,0
-560,659,0,0,0,0,0,0,0,0,0,-1,664,365,0,0
-553,659,0,0,0,0,0,0,0,0,0,-1,671,365,0,0
-546,659,0,0,0,0,0,0,0,0,0,-1,678,365,0,0
-539,659,0,0,0,0,0,0,0,0,0,-1,685,365,0,0
-532,659,0,0,0,0,0,0,0,0,0,-1,692,365,0,0
-525,659,0,0,0,0,0,0,0,0,0,-1,699,365,0,0
-518,659,0,0,0,0,0,0,0,0,0,-1,706,365,0,0
-511,659,0,0,0,0,0,0,0,0,0,-1,713,365,0,0
-504,659,0,0,0,0,0,0,0,0,0,-1,720,365,0,0
-497,659,0,0,0,0,0,0,0,0,0,-1,727,365,0,0
-490,659,0,0,0,0,0,0,0,0,0,-1,734,365,0,0
-483,659,0,0,0,0,0,0,0,0,0,-1,741,365,0,0
-476,659,0,0,0,0,0,0,0,0,0,-1,748,365,0,0
-469,659,0,0,0,0,0,0,0,0,0,-1,755,365,0,0
-462,659,0,0,0,0,0,0,0,0,0,-1,762,365,0,0
-455,659,0,0,0,0,0,0,0,0,0,-1,769,365,0,0
-448,659,0,0,0,0,0,0,0,0,0,-1,776,365,0,0
-441,659,0,0,0,0,0,0,0,0,0,-1,783,365,0,0
-434,659,0,0,0,0,0,0,0,0,0,-1,790,365,0,0
-427,659,0,0,0,0,0,0,0,0,0,-1,797,365,0,0
-420,659,0,0,0,0,0,0,0,0,0,-1,804,365,0,0
-413,659,0,0,0,0,0,0,0,0,0,-1,811,365,0,0
-406,659,0,0,0,0,0,0,0,0,0,-1,818,365,0,0
-399,659,0,0,0,0,0,0,0,0,0,-1,825,365,0,0
-392,659,0,0,0,0,0,0,0,0,0,-1,832,365,0,0
-385,659,0,0,0,0,0,0,0,0,0,-1,839,365,0,0
-378,659,0,0,0,0,0,0,0,0,0,-1,846,365,0,0
-371,659,0,0,0,0,0,0,0,0,0,-1,853,365,0,0
-364,659,0,0,0,0,0,0,0,0,0,-1,860,365,0,0
-357,659,0,0,0,0,0,0,0,0,0,-1,867,365,0,0
-350,659,0,0,0,0,0,0,0,0,0,-1,874,365,0,0
-343,659,0,0,0,0,0,0,0,0,0,-1,881,365,0,0
-336,659,0,0,0,0,0,0,0,0,0,-1,888,365,0,0
-329,659,0,0,0,0,0,0,0,0,0,-1,895,365,0,0
-322,659,0,0,0,0,0,0,0,0,0,-1,902,365,0,0
-315,659,0,0,0,0,0,0,0,0,0,-1,909,365,0,0
-308,659,0,0,0,0,0,0,0,0,0,-1,916,365,0,0
-301,659,0,0,0,0,0,0,0,0,0,-1,923,365,0,0
-294,659,0,0,0,0,0,0,0,0,0,-1,930,365,0,0
-287,659,0,0,0,0,0,0,0,0,0,-1,937,365,0,0
-280,659,0,0,0,0,0,0,0,0,0,-1,944,365,0,0
-273,659,0,0,0,0,0,0,0,0,0,-1,951,365,0,0
-266,659,0,0,0,0,0,0,0,0,0,-1,958,365,0,0
-259,659,0,0,0,0,0,0,0,0,0,-1,965,365,0,0
-252,659,0,0,0,0,0,0,0,0,0,-1,972,365,0,0
-245,659,0,0,0,0,0,0,0,0,0,-1,979,365,0,0
-238,659,0,0,0,0,0,0,0,0,0,-1,986,365,0,0
-231,659,0,0,0,0,0,0,0,0,0,-1,993,365,0,0
-224,659,0,0,0,0,0,0,0,0,0,-1,1000,365,0,0
-217,659,10.1305,-25.2622,0,0,0,0,0,0,0,-1,1007,365,10.1305,25.2622
-210,659,9.65643,-25.515,0,0,0,0,0,0,0,-1,1014,365,9.65642,25.515
-203,659,8.58911,-25.7432,0,0,0,0,0,0,0,-1,1021,365,8.58916,25.7432
-196,659,2.68323,-27.8121,0,0,0,0,0,0,0,-1,1028,365,2.6832,27.8121
-189,659,6.88049,-28.9412,0,0,0,0,0,0,0,-1,1035,365,6.88045,28.9412
-182,659,6.94189,-30.6316,0,0,0,0,0,0,0,-1,1042,365,6.94189,30.6316
-175,659,6.948,-32.0092,0,0,0,0,0,0,0,-1,1049,365,6.94798,32.0093
-168,659,7.1416,-32.7405,0,0,0,0,0,0,0,-1,1056,365,7.14157,32.7405
-161,659,7.57361,-33.7099,0,0,0,0,0,0,0,-1,1063,365,7.57355,33.7099
-154,659,7.71448,-34.8995,0,0,0,0,0,0,0,-1,1070,365,7.7145,34.8995
-147,659,5.46606,-37.758,0,0,0,0,0,0,0,-1,1077,365,5.46601,37.758
-140,659,5.7356,-37.755,0,0,0,0,0,0,0,-1,1084,365,5.73562,37.755
-133,659,5.91455,-37.9017,0,0,0,0,0,0,0,-1,1091,365,5.9146,37.9017
-126,659,6.31226,-37.9904,0,0,0,0,0,0,0,-1,1098,365,6.3122,37.9904
-119,659,6.26941,-35.0837,0,0,0,0,0,0,0,-1,1105,365,6.26943,35.0837
-112,659,6.24353,-35.0562,0,0,0,0,0,0,0,-1,1112,365,6.24349,35.0562
-105,659,5.38696,-30.5854,0,0,0,0,0,0,0,-1,1119,365,5.387,30.5854
-98,659,4.68042,-26.2438,0,0,0,0,0,0,0,-1,1126,365,4.68041,26.2438
-91,659,4.20776,-20.8654,0,0,0,0,0,0,0,-1,1133,365,4.20777,20.8654
-84,659,2.8584,-17.8303,0,0,0,0,0,0,0,-1,1140,365,2.85836,17.8303
-77,659,2.80139,-15.3457,0,0,0,0,0,0,0,-1,1147,365,2.80139,15.3457
-70,659,2.9353,-12.7028,0,0,0,0,0,0,0,-1,1154,365,2.93533,12.7028
-63,659,2.11267,-9.7796,0,0,0,0,0,0,0,-1,1161,365,2.11266,9.7796
-56,659,2.11182,-9.91541,0,0,0,0,0,0,0,-1,1168,365,2.11178,9.91541
-49,659,7.51233,-53.5271,0,0,0,0,0,0,0,-1,1175,365,7.51229,53.5271
-42,659,7.23938,-54.0763,0,0,0,0,0,0,0,-1,1182,365,7.23943,54.0763
-35,659,7.39331,-54.1298,-0.0104789,0.0208053,-0.00362874,0.0212207,-0.0108943,-1.45682,0.0188584,0.0422335,1189,365,7.39326,54.1298
-28,659,7.39111,-54.3239,-0.00967286,0.0225887,-0.00290736,0.0228486,-0.00993277,-1.48164,0.0194098,0.0161163,1196,365,7.39105,54.3239
-21,659,7.31995,-54.6029,-0.00879377,0.0233886,-0.00210611,0.0235258,-0.00893101,-1.50572,0.0193602,0.0153032,1203,365,7.31999,54.603
-14,659,7.21631,-54.8792,-0.00815815,0.0239648,-0.000862627,0.0239879,-0.0081813,-1.54397,0.0193058,0.0132743,1210,365,7.21625,54.8792
-7,659,7.14856,-55.0892,-0.00737226,0.0241029,0.000358231,0.024107,-0.00737634,1.55942,0.0190132,0.0122388,1217,365,7.14855,55.0892
0,659,7.11768,-55.2816,-0.00649185,0.0239217,0.00154943,0.0240004,-0.00657058,1.52003,0.0185818,0.00999719,1224,365,7.11771,55.2816
7,659,7.07446,-55.4413,-0.00571887,0.0240137,0.00240165,0.0242064,-0.00591161,1.49071,0.018427,0.0100418,1231,365,7.0745,55.4413
14,659,6.99756,-55.527,-0.00512556,0.0241199,0.00379922,0.0246054,-0.00561105,1.4437,0.0185589,0.0129196,1238,365,6.99754,55.527
21,659,6.92029,-55.6647,-0.00491417,0.024505,0.00518324,0.0253915,-0.00580067,1.4014,0.0191562,0.0130884,1245,365,6.92028,55.6647
28,659,6.84534,-55.8011,-0.00490649,0.0248541,0.00631917,0.0261403,-0.00619268,1.37,0.0198163,0.0121535,1252,365,6.84539,55.8012
35,659,6.79858,-55.8907,-0.00492705,0.0260344,0.00739859,0.0277115,-0.00660417,1.34788,0.0210244,0.0130586,1259,365,6.79864,55.8907
42,659,6.75635,-55.9684,-0.00596354,0.0284896,0.0083835,0.0304213,-0.0078952,1.34434,0.0233616,0.0142067,1266,365,6.75629,55.9684
49,659,6.68677,-56.0286,-0.00785648,0.0320111,0.00958451,0.0341956,-0.010041,1.3467,0.0267791,0.0158525,1273,365,6.68679,56.0286
56,659,6.60889,-56.061,-0.0103027,0.035859,0.0109628,0.0383302,-0.0127739,1.34908,0.0307102,0.02009,1280,365,6.60892,56.061
63,659,6.59375,-56.101,-0.0128502,0.0403437,0.0123957,0.0430904,-0.0155969,1.35273,0.0351006,0.0181433,1287,365,6.59377,56.1011
70,659,6.48938,-56.1041,-0.015624,0.0452237,0.0137939,0.0482047,-0.018605,1.35796,0.0398145,0.0180286,1294,365,6.48941,56.1041
77,659,6.39404,-56.0703,-0.0185983,0.0504342,0.0149081,0.0535161,-0.0216802,1.36694,0.0446928,0.0189709,1301,365,6.39407,56.0703
84,659,6.354,-56.039,-0.0217111,0.05567,0.015818,0.0587786,-0.0248196,1.37675,0.0495751,0.0145304,1308,365,6.35402,56.039
91,659,6.29163,-55.9784,-0.02448,0.0600593,0.0162781,0.0630853,-0.0275061,1.387,0.0536307,0.0125235,1315,365,6.29168,55.9784
98,659,6.22791,-55.8631,-0.0266066,0.0638608,0.0166352,0.0668227,-0.0295685,1.39459,0.0570202,0.00892888,1322,365,6.22792,55.8631
105,659,6.17004,-55.6976,-0.0279703,0.0671428,0.0169606,0.0700767,-0.0309042,1.39951,0.0597457,0.010423,1329,365,6.1701,55.6976
112,659,6.11743,-55.5337,-0.0286072,0.0688592,0.0167747,0.0716654,-0.0314135,1.40504,0.0610064,0.0162018,1336,365,6.1174,55.5337
119,659,6.04382,-55.3662,-0.0288644,0.0701283,0.0160801,0.0726748,-0.0314109,1.41374,0.0616479,0.0187448,1343,365,6.0438,55.3662
126,659,5.96948,-55.1496,-0.0281745,0.0701443,0.0150928,0.072409,-0.0304392,1.42186,0.0610052,0.0183158,1350,365,5.96945,55.1496
133,659,5.86731,-54.9475,-0.0270155,0.0695412,0.0141364,0.0715683,-0.0290426,1.42837,0.0597923,0.0187016,1357,365,5.86731,54.9475
140,659,5.79517,-54.7792,-0.0258486,0.0682708,0.0132164,0.0700915,-0.0276693,1.4339,0.0581866,0.0131961,1364,365,5.79515,54.7792
147,659,5.75586,-54.549,-0.0240646,0.066208,0.0123648,0.067871,-0.0257276,1.4371,0.0558352,0.011202,1371,365,5.75581,54.549
154,659,5.6709,-54.2399,-0.0219613,0.0635605,0.0112949,0.0650271,-0.0234279,1.44167,0.0529185,0.012995,1378,365,5.67087,54.2399
161,659,5.60999,-53.9295,-0.0201848,0.0615758,0.0100005,0.0627813,-0.0213902,1.45084,0.050517,0.0135103,1385,365,5.60997,53.9295
168,659,5.5708,-53.5816,-0.0188584,0.0585876,0.0088649,0.0595893,-0.0198601,1.45827,0.0477436,0.0187741,1392,365,5.57082,53.5816
175,659,5.53003,-53.276,-0.0176051,0.054469,0.00813206,0.0553752,-0.0185112,1.45983,0.0443929,0.0418979,1399,365,5.53001,53.276
182,659,5.36658,-53.0537,0,0,0,0,0,0,0,-1,1406,365,5.36659,53.0537
189,659,5.37817,-52.4265,0,0,0,0,0,0,0,-1,1413,365,5.37822,52.4265
196,659,2.41248,-13.4371,0,0,0,0,0,0,0,-1,1420,365,2.41243,13.4371
203,659,2.38623,-12.2163,0,0,0,0,0,0,0,-1,1427,365,2.38617,12.2163
210,659,2.20789,-13.9792,0,0,0,0,0,0,0,-1,1434,365,2.20794,13.9792
217,659,2.24121,-13.487,0,0,0,0,0,0,0,-1,1441,365,2.24116,13.487
224,659,2.3479,-15.2926,0,0,0,0,0,0,0,-1,1448,365,2.34793,15.2926
231,659,2.47974,-17.8629,0,0,0,0,0,0,0,-1,1455,365,2.47976,17.8628
238,659,3.57886,-21.1258,0,0,0,0,0,0,0,-1,1462,365,3.57889,21.1258
245,659,3.29883,-25.0283,0,0,0,0,0,0,0,-1,1469,365,3.29889,25.0283
252,659,2.81909,-24.1604,0,0,0,0,0,0,0,-1,1476,365,2.81905,24.1604
259,659,2.33069,-3.36703,0,0,0,0,0,0,0,-1,1483,365,2.33073,3.36702
266,659,3.40918,-35.2544,0,0,0,0,0,0,0,-1,1490,365,3.40913,35.2544
273,659,4.45557,-42.3683,0,0,0,0,0,0,0,-1,1497,365,4.45554,42.3683
280,659,4.87903,-41.4995,0,0,0,0,0,0,0,-1,1504,365,4.87898,41.4995
287,659,1.09851,-23.7787,0,0,0,0,0,0,0,-1,1511,365,1.09847,23.7787
294,659,-0.146973,-23.1876,0,0,0,0,0,0,0,-1,1518,365,-0.146929,23.1876
301,659,-1.39233,-22.5964,0,0,0,0,0,0,0,-1,1525,365,-1.39232,22.5964
308,659,-4.59692,-21.4031,0,0,0,0,0,0,0,-1,1532,365,-4.59689,21.4031
315,659,-6.78564,-21.0916,0,0,0,0,0,0,0,-1,1539,365,-6.78563,21.0916
322,659,-8.245,-20.894,0,0,0,0,0,0,0,-1,1546,365,-8.245,20.894
329,659,-7.67749,-23.0449,0,0,0,0,0,0,0,-1,1553,365,-7.67745,23.0449
336,659,-7.71436,-22.4188,0,0,0,0,0,0,0,-1,1560,365,-7.71432,22.4188
343,659,0,0,0,0,0,0,0,0,0,-1,1567,365,0,0
350,659,0,0,0,0,0,0,0,0,0,-1,1574,365,0,0
357,659,0,0,0,0,0,0,0,0,0,-1,1581,365,0,0
364,659,0,0,0,0,0,0,0,0,0,-1,1588,365,0,0
371,659,0,0,0,0,0,0,0,0,0,-1,1595,365,0,0
378,659,0,0,0,0,0,0,0,0,0,-1,1602,365,0,0
385,659,0,0,0,0,0,0,0,0,0,-1,1609,365,0,0
392,659,0,0,0,0,0,0,0,0,0,-1,1616,365,0,0
399,659,0,0,0,0,0,0,0,0,0,-1,1623,365,0,0
406,659,0,0,0,0,0,0,0,0,0,-1,1630,365,0,0
413,659,0,0,0,0,0,0,0,0,0,-1,1637,365,0,0
420,659,0,0,0,0,0,0,0,0,0,-1,1644,365,0,0
427,659,0,0,0,0,0,0,0,0,0,-1,1651,365,0,0
434,659,0,0,0,0,0,0,0,0,0,-1,1658,365,0,0
441,659,0,0,0,0,0,0,0,0,0,-1,1665,365,0,0
448,659,0,0,0,0,0,0,0,0,0,-1,1672,365,0,0
455,659,0,0,0,0,0,0,0,0,0,-1,1679,365,0,0
462,659,0,0,0,0,0,0,0,0,0,-1,1686,365,0,0
469,659,0,0,0,0,0,0,0,0,0,-1,1693,365,0,0
476,659,0,0,0,0,0,0,0,0,0,-1,1700,365,0,0
483,659,0,0,0,0,0,0,0,0,0,-1,1707,365,0,0
490,659,0,0,0,0,0,0,0,0,0,-1,1714,365,0,0
497,659,0,0,0,0,0,0,0,0,0,-1,1721,365,0,0
504,659,0,0,0,0,0,0,0,0,0,-1,1728,365,0,0
511,659,0,0,0,0,0,0,0,0,0,-1,1735,365,0,0
518,659,0,0,0,0,0,0,0,0,0,-1,1742,365,0,0
525,659,0,0,0,0,0,0,0,0,0,-1,1749,365,0,0
532,659,0,0,0,0,0,0,0,0,0,-1,1756,365,0,0
539,659,0,0,0,0,0,0,0,0,0,-1,1763,365,0,0
546,659,0,0,0,0,0,0,0,0,0,-1,1770,365,0,0
553,659,0,0,0,0,0,0,0,0,0,-1,1777,365,0,0
560,659,0,0,0,0,0,0,0,0,0,-1,1784,365,0,0
567,659,0,0,0,0,0,0,0,0,0,-1,1791,365,0,0
574,659,0,0,0,0,0,0,0,0,0,-1,1798,365,0,0
581,659,0,0,0,0,0,0,0,0,0,-1,1805,365,0,0
588,659,0,0,0,0,0,0,0,0,0,-1,1812,365,0,0
595,659,0,0,0,0,0,0,0,0,0,-1,1819,365,0,0
602,659,0,0,0,0,0,0,0,0,0,-1,1826,365,0,0
609,659,0,0,0,0,0,0,0,0,0,-1,1833,365,0,0
616,659,0,0,0,0,0,0,0,0,0,-1,1840,365,0,0
623,659,0,0,0,0,0,0,0,0,0,-1,1847,365,0,0
630,659,0,0,0,0,0,0,0,0,0,-1,1854,365,0,0
637,659,0,0,0,0,0,0,0,0,0,-1,1861,365,0,0
644,659,0,0,0,0,0,0,0,0,0,-1,1868,365,0,0
651,659,0,0,0,0,0,0,0,0,0,-1,1875,365,0,0
658,659,0,0,0,0,0,0,0,0,0,-1,1882,365,0,0
665,659,0,0,0,0,0,0,0,0,0,-1,1889,365,0,0
672,659,0,0,0,0,0,0,0,0,0,-1,1896,365,0,0
679,659,0,0,0,0,0,0,0,0,0,-1,1903,365,0,0
686,659,0,0,0,0,0,0,0,0,0,-1,1910,365,0,0
693,659,0,0,0,0,0,0,0,0,0,-1,1917,365,0,0
700,659,0,0,0,0,0,0,0,0,0,-1,1924,365,0,0
707,659,0,0,0,0,0,0,0,0,0,-1,1931,365,0,0
714,659,0,0,0,0,0,0,0,0,0,-1,1938,365,0,0
721,659,0,0,0,0,0,0,0,0,0,-1,1945,365,0,0
728,659,0,0,0,0,0,0,0,0,0,-1,1952,365,0,0
735,659,0,0,0,0,0,0,0,0,0,-1,1959,365,0,0
742,659,0,0,0,0,0,0,0,0,0,-1,1966,365,0,0
749,659,0,0,0,0,0,0,0,0,0,-1,1973,365,0,0
756,659,0,0,0,0,0,0,0,0,0,-1,1980,365,0,0
763,659,0,0,0,0,0,0,0,0,0,-1,1987,365,0,0
770,659,0,0,0,0,0,0,0,0,0,-1,1994,365,0,0
777,659,0,0,0,0,0,0,0,0,0,-1,2001,365,0,0
784,659,0,0,0,0,0,0,0,0,0,-1,2008,365,0,0
791,659,0,0,0,0,0,0,0,0,0,-1,2015,365,0,0
798,659,0,0,0,0,0,0,0,0,0,-1,2022,365,0,0
805,659,0,0,0,0,0,0,0,0,0,-1,2029,365,0,0
812,659,0,0,0,0,0,0,0,0,0,-1,2036,365,0,0
-700,652,0,0,0,0,0,0,0,0,0,-1,524,372,0,0
-693,652,0,0,0,0,0,0,0,0,0,-1,531,372,0,0
-686,652,0,0,0,0,0,0,0,0,0,-1,538,372,0,0
-679,652,0,0,0,0,0,0,0,0,0,-1,545,372,0,0
-672,652,0,0,0,0,0,0,0,0,0,-1,552,372,0,0
-665,652,0,0,0,0,0,0,0,0,0,-1,559,372,0,0
-658,652,0,0,0,0,0,0,0,0,0,-1,566,372,0,0
-651,652,0,0,0,0,0,0,0,0,0,-1,573,372,0,0
-644,652,0,0,0,0,0,0,0,0,0,-1,580,372,0,0
-637,652,0,0,0,0,0,0,0,0,0,-1,587,372,0,0
-630,652,0,0,0,0,0,0,0,0,0,-1,594,372,0,0
-623,652,0,0,0,0,0,0,0,0,0,-1,601,372,0,0
-616,652,0,0,0,0,0,0,0,0,0,-1,608,372,0,0
-609,652,0,0,0,0,0,0,0,0,0,-1,615,372,0,0
-602,652,0,0,0,0,0,0,0,0,0,-1,622,372,0,0
-595,652,0,0,0,0,0,0,0,0,0,-1,629,372,0,0
-588,652,0,0,0,0,0,0,0,0,0,-1,636,372,0,0
-581,652,0,0,0,0,0,0,0,0,0,-1,643,372,0,0
-574,652,0,0,0,0,0,0,0,0,0,-1,650,372,0,0
-567,652,0,0,0,0,0,0,0,0,0,-1,657,372,0,0
-560,652,0,0,0,0,0,0,0,0,0,-1,664,372,0,0
-553,652,0,0,0,0,0,0,0,0,0,-1,671,372,0,0
-546,652,0,0,0,0,0,0,0,0,0,-1,678,372,0,0
-539,652,0,0,0,0,0,0,0,0,0,-1,685,372,0,0
-532,652,0,0,0,0,0,0,0,0,0,-1,692,372,0,0
-525,652,0,0,0,0,0,0,0,0,0,-1,699,372,0,0
-518,652,0,0,0,0,0,0,0,0,0,-1,706,372,0,0
-511,652,0,0,0,0,0,0,0,0,0,-1,713,372,0,0
-504,652,0,0,0,0,0,0,0,0,0,-1,720,372,0,0
-497,652,0,0,0,0,0,0,0,0,0,-1,727,372,0,0
-490,652,0,0,0,0,0,0,0,0,0,-1,734,372,0,0
-483,652,0,0,0,0,0,0,0,0,0,-1,741,372,0,0
-476,652,0,0,0,0,0,0,0,0,0,-1,748,372,0,0
-469,652,0,0,0,0,0,0,0,0,0,-1,755,372,0,0
-462,652,0,0,0,0,0,0,0,0,0,-1,762,372,0,0
-455,652,0,0,0,0,0,0,0,0,0,-1,769,372,0,0
-448,652,0,0,0,0,0,0,0,0,0,-1,776,372,0,0
-441,652,0,0,0,0,0,0,0,0,0,-1,783,372,0,0
-434,652,0,0,0,0,0,0,0,0,0,-1,790,372,0,0
-427,652,0,0,0,0,0,0,0,0,0,-1,797,372,0,0
-420,652,0,0,0,0,0,0,0,0,0,-1,804,372,0,0
-413,652,0,0,0,0,0,0,0,0,0,-1,811,372,0,0
-406,652,0,0,0,0,0,0,0,0,0,-1,818,372,0,0
-399,652,0,0,0,0,0,0,0,0,0,-1,825,372,0,0
-392,652,0,0,0,0,0,0,0,0,0,-1,832,372,0,0
-385,652,0,0,0,0,0,0,0,0,0,-1,839,372,0,0
-378,652,0,0,0,0,0,0,0,0,0,-1,846,372,0,0
-371,652,0,0,0,0,0,0,0,0,0,-1,853,372,0,0
-364,652,0,0,0,0,0,0,0,0,0,-1,860,372,0,0
-357,652,0,0,0,0,0,0,0,0,0,-1,867,372,0,0
-350,652,0,0,0,0,0,0,0,0,0,-1,874,372,0,0
-343,652,0,0,0,0,0,0,0,0,0,-1,881,372,0,0
-336,652,0,0,0,0,0,0,0,0,0,-1,888,372,0,0
-329,652,0,0,0,0,0,0,0,0,0,-1,895,372,0,0
-322,652,0,0,0,0,0,0,0,0,0,-1,902,372,0,0
-315,652,0,0,0,0,0,0,0,0,0,-1,909,372,0,0
-308,652,0,0,0,0,0,0,0,0,0,-1,916,372,0,0
-301,652,0,0,0,0,0,0,0,0,0,-1,923,372,0,0
-294,652,0,0,0,0,0,0,0,0,0,-1,930,372,0,0
-287,652,0,0,0,0,0,0,0,0,0,-1,937,372,0,0
-280,652,0,0,0,0,0,0,0,0,0,-1,944,372,0,0
-273,652,0,0,0,0,0,0,0,0,0,-1,951,372,0,0
-266,652,0,0,0,0,0,0,0,0,0,-1,958,372,0,0
-259,652,0,0,0,0,0,0,0,0,0,-1,965,372,0,0
-252,652,0,0,0,0,0,0,0,0,0,-1,972,372,0,0
-245,652,0,0,0,0,0,0,0,0,0,-1,979,372,0,0
-238,652,0,0,0,0,0,0,0,0,0,-1,986,372,0,0
-231,652,8.79358,-27.1656,0,0,0,0,0,0,0,-1,993,372,8.79357,27.1656
-224,652,8.84552,-27.675,0,0,0,0,0,0,0,-1,1000,372,8.84555,27.675
-217,652,9.03113,-27.7474,0,0,0,0,0,0,0,-1,1007,372,9.0311,27.7474
-210,652,9.72803,-30.4624,0,0,0,0,0,0,0,-1,1014,372,9.72805,30.4624
-203,652,7.2677,-26.0732,0,0,0,0,0,0,0,-1,1021,372,7.26775,26.0732
-196,652,5.90686,-26.957,0,0,0,0,0,0,0,-1,1028,372,5.9068,26.957
-189,652,6.21326,-28.3035,0,0,0,0,0,0,0,-1,1035,372,6.21331,28.3035
-182,652,6.45068,-29.9377,0,0,0,0,0,0,0,-1,1042,372,6.45074,29.9377
-175,652,6.72559,-31.6948,0,0,0,0,0,0,0,-1,1049,372,6.72563,31.6948
-168,652,7.08533,-32.8669,0,0,0,0,0,0,0,-1,1056,372,7.08532,32.8669
-161,652,7.85291,-37.3545,0,0,0,0,0,0,0,-1,1063,372,7.85294,37.3545
-154,652,7.54639,-37.9586,0,0,0,0,0,0,0,-1,1070,372,7.54642,37.9586
-147,652,7.85571,-42.3712,0,0,0,0,0,0,0,-1,1077,372,7.8557,42.3712
-140,652,5.6842,-33.9781,0,0,0,0,0,0,0,-1,1084,372,5.68421,33.9781
-133,652,6.3009,-35.2887,0,0,0,0,0,0,0,-1,1091,372,6.30093,35.2887
-126,652,5.86841,-37.0981,0,0,0,0,0,0,0,-1,1098,372,5.86845,37.0981
-119,652,8.03931,-48.7953,0,0,0,0,0,0,0,-1,1105,372,8.03927,48.7954
-112,652,7.81982,-48.4793,0,0,0,0,0,0,0,-1,1112,372,7.81981,48.4793
-105,652,6.63855,-39.9965,0,0,0,0,0,0,0,-1,1119,372,6.63852,39.9965
-98,652,5.84302,-35.2455,0,0,0,0,0,0,0,-1,1126,372,5.84307,35.2455
-91,652,5.66296,-32.9003,0,0,0,0,0,0,0,-1,1133,372,5.66297,32.9003
-84,652,5.46057,-34.9186,0,0,0,0,0,0,0,-1,1140,372,5.46057,34.9186
-77,652,7.59094,-51.902,0,0,0,0,0,0,0,-1,1147,372,7.59097,51.902
-70,652,7.48376,-52.4028,0,0,0,0,0,0,0,-1,1154,372,7.48378,52.4028
-63,652,7.43115,-52.7773,0,0,0,0,0,0,0,-1,1161,372,7.4312,52.7773
-56,652,7.33862,-53.1767,0,0,0,0,0,0,0,-1,1168,372,7.33861,53.1767
-49,652,7.30908,-53.5498,-0.00879439,0.0122235,-0.00321227,0.0127035,-0.00927437,-1.42247,0.0127403,0.0377101,1175,372,7.30903,53.5498
-42,652,7.25745,-53.826,-0.00847696,0.0131884,-0.00321259,0.0136548,-0.00894329,-1.42665,0.0131412,0.0133206,1182,372,7.25748,53.8261
-35,652,7.20544,-54.1009,-0.00809039,0.014831,-0.002876,0.0151864,-0.00844574,-1.44786,0.0138278,0.0106216,1189,372,7.20546,54.1009
-28,652,7.14063,-54.3811,-0.00764092,0.0161748,-0.00256112,0.0164471,-0.00791322,-1.46487,0.0143492,0.00853053,1196,372,7.14058,54.3811
-21,652,7.07312,-54.6641,-0.00712273,0.016977,-0.00222785,0.0171812,-0.00732695,-1.47939,0.0145261,0.00937347,1203,372,7.07309,54.6641
-14,652,7.02136,-54.8982,-0.00669194,0.0175006,-0.00149378,0.0175925,-0.00678382,-1.50936,0.0145275,0.0119022,1210,372,7.02139,54.8982
-7,652,6.97192,-55.1364,-0.00615882,0.0177931,-0.000817817,0.017821,-0.00618671,-1.53671,0.0143931,0.0138144,1217,372,6.97195,55.1364
0,652,6.92297,-55.3316,-0.00551319,0.0178853,-0.00014129,0.0178862,-0.00551405,-1.56476,0.0141255,0.0131975,1224,372,6.92295,55.3316
7,652,6.89966,-55.4574,-0.00491054,0.0181068,0.000389757,0.0181134,-0.00491714,1.55387,0.0140054,0.014285,1231,372,6.89965,55.4574
14,652,6.87939,-55.6205,-0.00439819,0.0182594,0.001182,0.0183209,-0.00445968,1.51882,0.0139403,0.0130002,1238,372,6.87942,55.6205
21,652,6.79944,-55.7644,-0.00409222,0.0184361,0.00198095,0.018609,-0.00426508,1.48375,0.0140452,0.0126244,1245,372,6.7995,55.7644
28,652,6.75269,-55.8894,-0.00381724,0.018532,0.00262517,0.0188362,-0.00412146,1.45543,0.0141331,0.0117352,1252,372,6.75262,55.8894
35,652,6.70203,-55.9847,-0.00354705,0.0191751,0.00328745,0.0196411,-0.00401312,1.42996,0.0146166,0.0115969,1259,372,6.70204,55.9847
42,652,6.64795,-56.0512,-0.00412113,0.020716,0.00388717,0.0213101,-0.00471529,1.41912,0.0160116,0.0121334,1266,372,6.6479,56.0512
49,652,6.66064,-56.1007,-0.00537377,0.0231452,0.00472132,0.0239065,-0.00613506,1.41093,0.0183282,0.0152247,1273,372,6.66059,56.1007
56,652,6.64636,-56.1162,-0.00701928,0.0257418,0.00567856,0.0266981,-0.00797565,1.40395,0.0209691,0.0175808,1280,372,6.64632,56.1162
63,652,6.57971,-56.1601,-0.0087481,0.0287952,0.00669432,0.0299531,-0.00990604,1.39952,0.0239633,0.0209216,1287,372,6.57972,56.1601
70,652,6.49402,-56.1544,-0.0106606,0.0322162,0.00774201,0.0335713,-0.0120157,1.39752,0.0272828,0.0179728,1294,372,6.49405,56.1544
77,652,6.42456,-56.1186,-0.0127363,0.0358382,0.00859329,0.0373136,-0.0142118,1.40076,0.0307287,0.0173736,1301,372,6.42454,56.1186
84,652,6.41028,-56.1005,-0.0149558,0.0394943,0.00934892,0.0410547,-0.0165162,1.40541,0.0342303,0.0153467,1308,372,6.41026,56.1005
91,652,6.36792,-56.0786,-0.0170364,0.0426622,0.00982591,0.0442379,-0.0186121,1.41179,0.0372783,0.0185115,1315,372,6.36786,56.0786
98,652,6.34741,-55.9579,-0.0185804,0.0453858,0.0102709,0.0469945,-0.0201891,1.41543,0.0398043,0.0143363,1322,372,6.34746,55.9578
105,652,6.2937,-55.7925,-0.0195047,0.0477619,0.0107106,0.0494262,-0.021169,1.41665,0.0418323,0.0117026,1329,372,6.29373,55.7925
112,652,6.23865,-55.6393,-0.0199617,0.049141,0.0107665,0.0507796,-0.0216003,1.41976,0.0429056,0.0104404,1336,372,6.23861,55.6394
119,652,6.18909,-55.4589,-0.0200781,0.0500704,0.0105148,0.0516126,-0.0216203,1.42517,0.0434469,0.0118144,1343,372,6.18912,55.4589
126,652,6.12024,-55.2532,-0.0195039,0.0501291,0.0100128,0.0515403,-0.020915,1.43078,0.0430597,0.0143885,1350,372,6.12018,55.2532
133,652,6.05652,-55.0379,-0.0186472,0.0497121,0.00950975,0.0510104,-0.0199455,1.43511,0.0422548,0.0146526,1357,372,6.05651,55.0379
140,652,6.02844,-54.8477,-0.0177298,0.0487152,0.00900639,0.0499144,-0.0189289,1.43843,0.0410667,0.0107205,1364,372,6.02848,54.8477
147,652,6.00732,-54.6074,-0.0163046,0.0471167,0.00858552,0.0482584,-0.0174463,1.43859,0.0393004,0.00995498,1371,372,6.0073,54.6074
154,652,5.96057,-54.3238,-0.0146996,0.0450199,0.00792798,0.0460544,-0.0157342,1.44104,0.0370777,0.0107136,1378,372,5.96059,54.3238
161,652,5.88025,-54.0157,-0.0133344,0.0433474,0.00717333,0.0442411,-0.0142281,1.44685,0.0352085,0.0123144,1385,372,5.88025,54.0157
168,652,5.82971,-53.6771,-0.0123725,0.0409351,0.00658534,0.0417365,-0.013174,1.44969,0.0331014,0.0129365,1392,372,5.82967,53.6771
175,652,5.78638,-53.3391,-0.0115404,0.0377728,0.00618413,0.0385365,-0.0123041,1.44793,0.0306276,0.0126874,1399,372,5.78634,53.339
182,652,5.69189,-53.0402,-0.0106725,0.0347955,0.00635975,0.0356683,-0.0115454,1.43441,0.0284201,0.0185654,1406,372,5.69191,53.0401
189,652,5.68628,-52.6659,-0.00911313,0.0309292,0.00612742,0.0318459,-0.0100298,1.4223,0.0252469,0.0312031,1413,372,5.68624,52.6659
196,652,5.64563,-52.215,0,0,0,0,0,0,0,-1,1420,372,5.64562,52.215
203,652,5.53601,-51.8246,0,0,0,0,0,0,0,-1,1427,372,5.53596,51.8245
210,652,5.58105,-51.2393,0,0,0,0,0,0,0,-1,1434,372,5.58105,51.2393
217,652,5.42456,-50.9186,0,0,0,0,0,0,0,-1,1441,372,5.42459,50.9186
224,652,3.63794,-31.2791,0,0,0,0,0,0,0,-1,1448,372,3.63799,31.2791
231,652,3.83936,-30.4812,0,0,0,0,0,0,0,-1,1455,372,3.8393,30.4812
238,652,4.42358,-36.4103,0,0,0,0,0,0,0,-1,1462,372,4.4236,36.4103
245,652,4.53296,-41.8512,0,0,0,0,0,0,0,-1,1469,372,4.5329,41.8512
252,652,5.00793,-47.7065,0,0,0,0,0,0,0,-1,1476,372,5.00791,47.7064
259,652,3.44922,-31.2655,0,0,0,0,0,0,0,-1,1483,372,3.44921,31.2655
266,652,4.73962,-46.5786,0,0,0,0,0,0,0,-1,1490,372,4.73964,46.5786
273,652,4.86938,-46.3873,0,0,0,0,0,0,0,-1,1497,372,4.86944,46.3873
280,652,4.05066,-24.6993,0,0,0,0,0,0,0,-1,1504,372,4.05066,24.6993
287,652,3.0979,-23.6951,0,0,0,0,0,0,0,-1,1511,372,3.09796,23.6951
294,652,1.79321,-23.0648,0,0,0,0,0,0,0,-1,1518,372,1.79317,23.0648
301,652,0.488403,-22.4346,0,0,0,0,0,0,0,-1,1525,372,0.488378,22.4346
308,652,-2.57666,-21.5525,0,0,0,0,0,0,0,-1,1532,372,-2.5766,21.5525
315,652,-4.21008,-21.5407,0,0,0,0,0,0,0,-1,1539,372,-4.21006,21.5407
322,652,-5.69116,-21.7166,0,0,0,0,0,0,0,-1,1546,372,-5.6911,21.7166
329,652,-7.12329,-21.7065,0,0,0,0,0,0,0,-1,1553,372,-7.12334,21.7065
336,652,-3.56519,-22.3688,0,0,0,0,0,0,0,-1,1560,372,-3.56517,22.3688
343,652,-3.58069,-21.9185,0,0,0,0,0,0,0,-1,1567,372,-3.58069,21.9185
350,652,5.28394,-25.6715,0,0,0,0,0,0,0,-1,1574,372,5.28393,25.6715
357,652,0,0,0,0,0,0,0,0,0,-1,1581,372,0,0
364,652,0,0,0,0,0,0,0,0,0,-1,1588,372,0,0
371,652,0,0,0,0,0,0,0,0,0,-1,1595,372,0,0
378,652,0,0,0,0,0,0,0,0,0,-1,1602,372,0,0
385,652,0,0,0,0,0,0,0,0,0,-1,1609,372,0,0
392,652,0,0,0,0,0,0,0,0,0,-1,1616,372,0,0
399,652,0,0,0,0,0,0,0,0,0,-1,1623,372,0,0
406,652,0,0,0,0,0,0,0,0,0,-1,1630,372,0,0
413,652,0,0,0,0,0,0,0,0,0,-1,1637,372,0,0
420,652,0,0,0,0,0,0,0,0,0,-1,1644,372,0,0
427,652,0,0,0,0,0,0,0,0,0,-1,1651,372,0,0
434,652,0,0,0,0,0,0,0,0,0,-1,1658,372,0,0
441,652,0,0,0,0,0,0,0,0,0,-1,1665,372,0,0
448,652,0,0,0,0,0,0,0,0,0,-1,1672,372,0,0
455,652,0,0,0,0,0,0,0,0,0,-1,1679,372,0,0
462,652,0,0,0,0,0,0,0,0,0,-1,1686,372,0,0
469,652,0,0,0,0,0,0,0,0,0,-1,1693,372,0,0
476,652,0,0,0,0,0,0,0,0,0,-1,1700,372,0,0
483,652,0,0,0,0,0,0,0,0,0,-1,1707,372,0,0
490,652,0,0,0,0,0,0,0,0,0,-1,1714,372,0,0
497,652,0,0,0,0,0,0,0,0,0,-1,1721,372,0,0
504,652,0,0,0,0,0,0,0,0,0,-1,1728,372,0,0
511,652,0,0,0,0,0,0,0,0,0,-1,1735,372,0,0
518,652,0,0,0,0,0,0,0,0,0,-1,1742,372,0,0
525,652,0,0,0,0,0,0,0,0,0,-1,1749,372,0,0
532,652,0,0,0,0,0,0,0,0,0,-1,1756,372,0,0
539,652,0,0,0,0,0,0,0,0,0,-1,1763,372,0,0
546,652,0,0,0,0,0,0,0,0,0,-1,1770,372,0,0
553,652,0,0,0,0,0,0,0,0,0,-1,1777,372,0,0
560,652,0,0,0,0,0,0,0,0,0,-1,1784,372,0,0
567,652,0,0,0,0,0,0,0,0,0,-1,1791,372,0,0
574,652,0,0,0,0,0,0,0,0,0,-1,1798,372,0,0
581,652,0,0,0,0,0,0,0,0,0,-1,1805,372,0,0
588,652,0,0,0,0,0,0,0,0,0,-1,1812,372,0,0
595,652,0,0,0,0,0,0,0,0,0,-1,1819,372,0,0
602,652,0,0,0,0,0,0,0,0,0,-1,1826,372,0,0
609,652,0,0,0,0,0,0,0,0,0,-1,1833,372,0,0
616,652,0,0,0,0,0,0,0,0,0,-1,1840,372,0,0
623,652,0,0,0,0,0,0,0,0,0,-1,1847,372,0,0
630,652,0,0,0,0,0,0,0,0,0,-1,1854,372,0,0
637,652,0,0,0,0,0,0,0,0,0,-1,1861,372,0,0
644,652,0,0,0,0,0,0,0,0,0,-1,1868,372,0,0
651,652,0,0,0,0,0,0,0,0,0,-1,1875,372,0,0
658,652,0,0,0,0,0,0,0,0,0,-1,1882,372,0,0
665,652,0,0,0,0,0,0,0,0,0,-1,1889,372,0,0
672,652,0,0,0,0,0,0,0,0,0,-1,1896,372,0,0
679,652,0,0,0,0,0,0,0,0,0,-1,1903,372,0,0
686,652,0,0,0,0,0,0,0,0,0,-1,1910,372,0,0
693,652,0,0,0,0,0,0,0,0,0,-1,1917,372,0,0
700,652,0,0,0,0,0,0,0,0,0,-1,1924,372,0,0
707,652,0,0,0,0,0,0,0,0,0,-1,1931,372,0,0
714,652,0,0,0,0,0,0,0,0,0,-1,1938,372,0,0
721,652,0,0,0,0,0,0,0,0,0,-1,1945,372,0,0
728,652,0,0,0,0,0,0,0,0,0,-1,1952,372,0,0
735,652,0,0,0,0,0,0,0,0,0,-1,1959,372,0,0
742,652,0,0,0,0,0,0,0,0,0,-1,1966,372,0,0
749,652,0,0,0,0,0,0,0,0,0,-1,1973,372,0,0
756,652,0,0,0,0,0,0,0,0,0,-1,1980,372,0,0
763,652,0,0,0,0,0,0,0,0,0,-1,1987,372,0,0
770,652,0,0,0,0,0,0,0,0,0,-1,1994,372,0,0
777,652,0,0,0,0,0,0,0,0,0,-1,2001,372,0,0
784,652,0,0,0,0,0,0,0,0,0,-1,2008,372,0,0
791,652,0,0,0,0,0,0,0,0,0,-1,2015,372,0,0
798,652,0,0,0,0,0,0,0,0,0,-1,2022,372,0,0
805,652,0,0,0,0,0,0,0,0,0,-1,2029,372,0,0
812,652,0,0,0,0,0,0,0,0,0,-1,2036,372,0,0
-700,645,0,0,0,0,0,0,0,0,0,-1,524,379,0,0
-693,645,0,0,0,0,0,0,0,0,0,-1,531,379,0,0
-686,645,0,0,0,0,0,0,0,0,0,-1,538,379,0,0
-679,645,0,0,0,0,0,0,0,0,0,-1,545,379,0,0
-672,645,0,0,0,0,0,0,0,0,0,-1,552,379,0,0
-665,645,0,0,0,0,0,0,0,0,0,-1,559,379,0,0
-658,645,0,0,0,0,0,0,0,0,0,-1,566,379,0,0
-651,645,0,0,0,0,0,0,0,0,0,-1,573,379,0,0
-644,645,0,0,0,0,0,0,0,0,0,-1,580,379,0,0
-637,645,0,0,0,0,0,0,0,0,0,-1,587,379,0,0
-630,645,0,0,0,0,0,0,0,0,0,-1,594,379,0,0
-623,645,0,0,0,0,0,0,0,0,0,-1,601,379,0,0
-616,645,0,0,0,0,0,0,0,0,0,-1,608,379,0,0
-609,645,0,0,0,0,0,0,0,0,0,-1,615,379,0,0
-602,645,0,0,0,0,0,0,0,0,0,-1,622,379,0,0
-595,645,0,0,0,0,0,0,0,0,0,-1,629,379,0,0
-588,645,0,0,0,0,0,0,0,0,0,-1,636,379,0,0
-581,645,0,0,0,0,0,0,0,0,0,-1,643,379,0,0
-574,645,0,0,0,0,0,0,0,0,0,-1,650,379,0,0
-567,645,0,0,0,0,0,0,0,0,0,-1,657,379,0,0
-560,645,0,0,0,0,0,0,0,0,0,-1,664,379,0,0
-553,645,0,0,0,0,0,0,0,0,0,-1,671,379,0,0
-546,645,0,0,0,0,0,0,0,0,0,-1,678,379,0,0
-539,645,0,0,0,0,0,0,0,0,0,-1,685,379,0,0
-532,645,0,0,0,0,0,0,0,0,0,-1,692,379,0,0
-525,645,0,0,0,0,0,0,0,0,0,-1,699,379,0,0
-518,645,0,0,0,0,0,0,0,0,0,-1,706,379,0,0
-511,645,0,0,0,0,0,0,0,0,0,-1,713,379,0,0
-504,645,0,0,0,0,0,0,0,0,0,-1,720,379,0,0
-497,645,0,0,0,0,0,0,0,0,0,-1,727,379,0,0
-490,645,0,0,0,0,0,0,0,0,0,-1,734,379,0,0
-483,645,0,0,0,0,0,0,0,0,0,-1,741,379,0,0
-476,645,0,0,0,0,0,0,0,0,0,-1,748,379,0,0
-469,645,0,0,0,0,0,0,0,0,0,-1,755,379,0,0
-462,645,0,0,0,0,0,0,0,0,0,-1,762,379,0,0
-455,645,0,0,0,0,0,0,0,0,0,-1,769,379,0,0
-448,645,0,0,0,0,0,0,0,0,0,-1,776,379,0,0
-441,645,0,0,0,0,0,0,0,0,0,-1,783,379,0,0
-434,645,0,0,0,0,0,0,0,0,0,-1,790,379,0,0
-427,645,0,0,0,0,0,0,0,0,0,-1,797,379,0,0
-420,645,0,0,0,0,0,0,0,0,0,-1,804,379,0,0
-413,645,0,0,0,0,0,0,0,0,0,-1,811,379,0,0
-406,645,0,0,0,0,0,0,0,0,0,-1,818,379,0,0
-399,645,0,0,0,0,0,0,0,0,0,-1,825,379,0,0
-392,645,0,0,0,0,0,0,0,0,0,-1,832,379,0,0
-385,645,0,0,0,0,0,0,0,0,0,-1,839,379,0,0
-378,645,0,0,0,0,0,0,0,0,0,-1,846,379,0,0
-371,645,0,0,0,0,0,0,0,0,0,-1,853,379,0,0
-364,645,0,0,0,0,0,0,0,0,0,-1,860,379,0,0
-357,645,0,0,0,0,0,0,0,0,0,-1,867,379,0,0
-350,645,0,0,0,0,0,0,0,0,0,-1,874,379,0,0
-343,645,0,0,0,0,0,0,0,0,0,-1,881,379,0,0
-336,645,0,0,0,0,0,0,0,0,0,-1,888,379,0,0
-329,645,0,0,0,0,0,0,0,0,0,-1,895,379,0,0
-322,645,0,0,0,0,0,0,0,0,0,-1,902,379,0,0
-315,645,0,0,0,0,0,0,0,0,0,-1,909,379,0,0
-308,645,0,0,0,0,0,0,0,0,0,-1,916,379,0,0
-301,645,0,0,0,0,0,0,0,0,0,-1,923,379,0,0
-294,645,0,0,0,0,0,0,0,0,0,-1,930,379,0,0
-287,645,0,0,0,0,0,0,0,0,0,-1,937,379,0,0
-280,645,0,0,0,0,0,0,0,0,0,-1,944,379,0,0
-273,645,0,0,0,0,0,0,0,0,0,-1,951,379,0,0
-266,645,0,0,0,0,0,0,0,0,0,-1,958,379,0,0
-259,645,0,0,0,0,0,0,0,0,0,-1,965,379,0,0
-252,645,2.95691,-26.9133,0,0,0,0,0,0,0,-1,972,379,2.9569,26.9133
-245,645,2.73169,-27.0215,0,0,0,0,0,0,0,-1,979,379,2.73172,27.0215
-238,645,2.6665,-26.9464,0,0,0,0,0,0,0,-1,986,379,2.66649,26.9464
-231,645,7.26807,-29.1054,0,0,0,0,0,0,0,-1,993,379,7.26806,29.1054
-224,645,7.69073,-29.5737,0,0,0,0,0,0,0,-1,1000,379,7.69071,29.5737
-217,645,8.65485,-33.4136,0,0,0,0,0,0,0,-1,1007,379,8.65487,33.4136
-210,645,9.21594,-32.5157,0,0,0,0,0,0,0,-1,1014,379,9.21591,32.5156
-203,645,9.77698,-31.6176,0,0,0,0,0,0,0,-1,1021,379,9.77696,31.6177
-196,645,10.2664,-29.7741,0,0,0,0,0,0,0,-1,1028,379,10.2664,29.7741
-189,645,5.88062,-28.2191,0,0,0,0,0,0,0,-1,1035,379,5.88062,28.2191
-182,645,6.34167,-29.2525,0,0,0,0,0,0,0,-1,1042,379,6.3417,29.2525
-175,645,6.36462,-35.5586,0,0,0,0,0,0,0,-1,1049,379,6.3646,35.5586
-168,645,7.19116,-39.5785,0,0,0,0,0,0,0,-1,1056,379,7.19115,39.5785
-161,645,7.22083,-37.6093,0,0,0,0,0,0,0,-1,1063,379,7.22085,37.6094
-154,645,7.42102,-41.6806,0,0,0,0,0,0,0,-1,1070,379,7.42105,41.6806
-147,645,8.05505,-46.3846,0,0,0,0,0,0,0,-1,1077,379,8.05511,46.3846
-140,645,7.68237,-47.3382,0,0,0,0,0,0,0,-1,1084,379,7.68234,47.3382
-133,645,7.68469,-48.2005,0,0,0,0,0,0,0,-1,1091,379,7.68472,48.2005
-126,645,7.64819,-48.8239,0,0,0,0,0,0,0,-1,1098,379,7.64824,48.8239
-119,645,7.51941,-49.1312,0,0,0,0,0,0,0,-1,1105,379,7.51943,49.1312
-112,645,7.47131,-49.744,0,0,0,0,0,0,0,-1,1112,379,7.47134,49.744
-105,645,7.4231,-50.2964,0,0,0,0,0,0,0,-1,1119,379,7.42315,50.2964
-98,645,7.34167,-50.7908,0,0,0,0,0,0,0,-1,1126,379,7.34172,50.7908
-91,645,7.23889,-51.2668,0,0,0,0,0,0,0,-1,1133,379,7.23883,51.2668
-84,645,7.17969,-51.6981,0,0,0,0,0,0,0,-1,1140,379,7.17964,51.6981
-77,645,7.25061,-52.1107,-0.00676664,0.0044962,-0.0019619,0.00482816,-0.0070986,-1.40318,0.00692738,0.0436891,1147,379,7.25064,52.1107
-70,645,7.13855,-52.4917,-0.00679868,0.00529179,-0.00188474,0.00557879,-0.00708567,-1.41969,0.00732906,0.0157114,1154,379,7.13856,52.4917
-63,645,7.08691,-52.8249,-0.00672999,0.00680002,-0.00207281,0.00711046,-0.00704042,-1.42214,0.00817005,0.012391,1161,379,7.08693,52.8249
-56,645,7.04602,-53.1485,-0.00647829,0.00798284,-0.00235986,0.00835819,-0.00685365,-1.41306,0.00879687,0.0140761,1168,379,7.04605,53.1485
-49,645,7.03015,-53.5109,-0.00606015,0.00860902,-0.00233261,0.00897101,-0.00642213,-1.41684,0.00892775,0.0114073,1175,379,7.0301,53.5109
-42,645,6.9801,-53.8362,-0.00570154,0.00915024,-0.00225417,0.00948484,-0.00603614,-1.42344,0.00903447,0.0106511,1182,379,6.98016,53.8363
-35,645,6.92432,-54.1651,-0.00547838,0.00999661,-0.00213062,0.0102846,-0.00576637,-1.43644,0.00938861,0.0106539,1189,379,6.92429,54.1651
-28,645,6.86035,-54.4822,-0.00520358,0.0107736,-0.00206203,0.0110355,-0.00546541,-1.44449,0.00970603,0.00905663,1196,379,6.86035,54.4822
-21,645,6.81116,-54.7253,-0.00485627,0.0112667,-0.0020133,0.0115143,-0.00510387,-1.44843,0.00982956,0.011027,1203,379,6.81119,54.7253
-14,645,6.79517,-54.9539,-0.00456529,0.0116404,-0.00174594,0.0118264,-0.00475126,-1.46468,0.00985739,0.0108072,1210,379,6.79514,54.9539
-7,645,6.79712,-55.2003,-0.00415905,0.0118568,-0.00152356,0.0120004,-0.00430269,-1.47679,0.00975608,0.0142354,1217,379,6.79708,55.2003
0,645,6.76575,-55.3798,-0.00367198,0.0119951,-0.00128525,0.0120998,-0.00377672,-1.48949,0.00957698,0.0269736,1224,379,6.76571,55.3798
7,645,6.70105,-55.5187,-0.00322828,0.0121927,-0.00105444,0.0122645,-0.00330004,-1.50284,0.00946999,0.0181348,1231,379,6.70104,55.5187
14,645,6.69116,-55.6564,-0.00281877,0.0123238,-0.000687592,0.012355,-0.00284993,-1.52551,0.00933283,0.0179054,1238,379,6.69111,55.6564
21,645,6.64307,-55.821,-0.00249689,0.0123674,-0.000312013,0.012374,-0.00250344,-1.54982,0.00919807,0.0126876,1245,379,6.64308,55.821
28,645,6.64307,-55.9342,-0.00212516,0.012301,-2.08079e-05,0.0123011,-0.00212519,-1.56935,0.00899321,0.0109971,1252,379,6.64302,55.9342
35,645,6.61877,-56.0296,-0.00172799,0.0124993,0.000333233,0.0125071,-0.00173579,1.54739,0.00897281,0.0104016,1259,379,6.61875,56.0296
42,645,6.5863,-56.1379,-0.00191065,0.0132411,0.000704476,0.0132737,-0.00194333,1.52443,0.00956299,0.00987289,1266,379,6.58631,56.1379
49,645,6.61755,-56.1938,-0.00260796,0.0146708,0.00128977,0.0147665,-0.0027037,1.4967,0.0108584,0.0142674,1273,379,6.6175,56.1938
56,645,6.61707,-56.1954,-0.00353747,0.0161447,0.00193252,0.0163326,-0.00372543,1.47384,0.0123194,0.0145315,1280,379,6.61705,56.1954
63,645,6.57202,-56.2175,-0.00452244,0.017867,0.00260443,0.018166,-0.0048214,1.45651,0.0139974,0.0132862,1287,379,6.57201,56.2175
70,645,6.52197,-56.1829,-0.00562799,0.0198233,0.00330965,0.0202467,-0.00605133,1.44358,0.0159034,0.0169963,1294,379,6.52203,56.1829
77,645,6.52234,-56.1596,-0.00687684,0.0220204,0.0039238,0.0225437,-0.00740015,1.43821,0.01801,0.0194767,1301,379,6.52235,56.1596
84,645,6.50562,-56.1226,-0.00827431,0.0242507,0.00447025,0.0248539,-0.00887752,1.43667,0.0201899,0.0145674,1308,379,6.50567,56.1226
91,645,6.46558,-56.088,-0.00965158,0.026173,0.00486968,0.0268231,-0.0103017,1.43807,0.0221302,0.0168395,1315,379,6.46563,56.088
98,645,6.43933,-55.9798,-0.0106667,0.027881,0.00529264,0.0285945,-0.0113801,1.4368,0.023782,0.0150271,1322,379,6.43935,55.9798
105,645,6.40344,-55.8332,-0.0112208,0.0294493,0.00571894,0.0302382,-0.0120097,1.43372,0.0251372,0.0113808,1329,379,6.4034,55.8332
112,645,6.36963,-55.6871,-0.0115047,0.0304825,0.00587214,0.0312883,-0.0123105,1.43443,0.0259545,0.00970017,1336,379,6.36962,55.6871
119,645,6.3606,-55.5124,-0.0115385,0.031142,0.00587474,0.0319359,-0.0123323,1.43648,0.0263804,0.00987411,1343,379,6.36065,55.5124
126,645,6.31592,-55.3097,-0.0111425,0.0313094,0.00571668,0.0320658,-0.0118988,1.43926,0.0262581,0.0135636,1350,379,6.31593,55.3097
133,645,6.29163,-55.109,-0.01061,0.0311826,0.00556488,0.0319109,-0.0113383,1.44066,0.0258945,0.0147073,1357,379,6.29164,55.109
140,645,6.28198,-54.8837,-0.0100195,0.0306331,0.00539898,0.0313379,-0.0107243,1.44099,0.025238,0.0136128,1364,379,6.28204,54.8837
147,645,6.23608,-54.6455,-0.00908504,0.02967,0.00527734,0.0303758,-0.00979081,1.43785,0.024184,0.0142074,1371,379,6.23613,54.6455
154,645,6.21802,-54.3761,-0.00802055,0.0283095,0.00496272,0.0289752,-0.00868626,1.43745,0.0227713,0.0134399,1378,379,6.21803,54.3761
161,645,6.17993,-54.062,-0.00716938,0.0273203,0.00462713,0.0279303,-0.00777937,1.43972,0.0216836,0.0164199,1385,379,6.17999,54.062
168,645,6.1366,-53.7518,-0.00667791,0.025902,0.00441123,0.0264887,-0.00726462,1.43857,0.020514,0.0187887,1392,379,6.13655,53.7518
175,645,6.12622,-53.4262,-0.00635001,0.0241137,0.0043417,0.0247204,-0.00695671,1.43196,0.0192234,0.0156625,1399,379,6.12616,53.4262
182,645,6.05688,-53.0772,-0.00601078,0.022375,0.00451837,0.0230768,-0.00671265,1.41669,0.0180432,0.0115465,1406,379,6.05684,53.0772
189,645,6.0166,-52.6782,-0.00527236,0.0201231,0.00444128,0.0208774,-0.00602667,1.40256,0.0163028,0.0123473,1413,379,6.01655,52.6782
196,645,5.93896,-52.3246,-0.00436194,0.0176763,0.0044001,0.0185223,-0.00520798,1.38084,0.0144016,0.0123307,1420,379,5.93893,52.3246
203,645,5.85339,-51.8933,-0.00424953,0.0156075,0.00444061,0.0165553,-0.00519733,1.36051,0.0131172,0.0127483,1427,379,5.85334,51.8933
210,645,5.85352,-51.3297,-0.00514789,0.013454,0.00393124,0.0142507,-0.00594458,1.37085,0.011984,0.0227363,1434,379,5.85358,51.3297
217,645,5.81848,-50.999,-0.00508512,0.0144995,0.00376181,0.0151973,-0.00578283,1.38741,0.0125128,0.049827,1441,379,5.81847,50.999
224,645,5.59106,-50.8141,0,0,0,0,0,0,0,-1,1448,379,5.59101,50.8141
231,645,5.63147,-50.021,0,0,0,0,0,0,0,-1,1455,379,5.63143,50.021
238,645,5.54419,-49.5294,0,0,0,0,0,0,0,-1,1462,379,5.54422,49.5294
245,645,5.56213,-48.8984,0,0,0,0,0,0,0,-1,1469,379,5.56209,48.8985
252,645,5.56042,-48.3358,0,0,0,0,0,0,0,-1,1476,379,5.56043,48.3358
259,645,5.42139,-47.8961,0,0,0,0,0,0,0,-1,1483,379,5.42142,47.8961
266,645,5.25623,-47.0858,-0.00181742,0.028941,0.0063613,0.0302047,-0.00308111,1.3747,0.0212381,0.0424321,1490,379,5.2562,47.0858
273,645,5.31653,-46.6857,-0.00164738,0.0305229,0.00734724,0.0321214,-0.00324596,1.35656,0.0225742,0.034262,1497,379,5.31657,46.6857
280,645,5.45618,-46.2129,0,0,0,0,0,0,0,-1,1504,379,5.45613,46.2129
287,645,5.25439,-22.6157,0,0,0,0,0,0,0,-1,1511,379,5.25445,22.6157
294,645,3.76428,-22.9539,0,0,0,0,0,0,0,-1,1518,379,3.7643,22.9539
301,645,1.35217,-22.1208,0,0,0,0,0,0,0,-1,1525,379,1.3522,22.1208
308,645,-0.529297,-21.7611,0,0,0,0,0,0,0,-1,1532,379,-0.529316,21.7611
315,645,5.27979,-43.8958,0,0,0,0,0,0,0,-1,1539,379,5.27985,43.8959
322,645,5.00745,-42.9199,0,0,0,0,0,0,0,-1,1546,379,5.00744,42.9199
329,645,-4.45581,-22.707,0,0,0,0,0,0,0,-1,1553,379,-4.45579,22.707
336,645,-5.83154,-22.8404,0,0,0,0,0,0,0,-1,1560,379,-5.83149,22.8404
343,645,4.03186,-38.0623,0,0,0,0,0,0,0,-1,1567,379,4.03187,38.0623
350,645,4.76404,-22.1987,0,0,0,0,0,0,0,-1,1574,379,4.76399,22.1987
357,645,4.61316,-21.967,0,0,0,0,0,0,0,-1,1581,379,4.61316,21.967
364,645,-0.0794678,-3.22021,0,0,0,0,0,0,0,-1,1588,379,-0.0794987,3.22021
371,645,0,0,0,0,0,0,0,0,0,-1,1595,379,0,0
378,645,0,0,0,0,0,0,0,0,0,-1,1602,379,0,0
385,645,0,0,0,0,0,0,0,0,0,-1,1609,379,0,0
392,645,0,0,0,0,0,0,0,0,0,-1,1616,379,0,0
399,645,0,0,0,0,0,0,0,0,0,-1,1623,379,0,0
406,645,0,0,0,0,0,0,0,0,0,-1,1630,379,0,0
413,645,0,0,0,0,0,0,0,0,0,-1,1637,379,0,0
420,645,0,0,0,0,0,0,0,0,0,-1,1644,379,0,0
427,645,0,0,0,0,0,0,0,0,0,-1,1651,379,0,0
434,645,0,0,0,0,0,0,0,0,0,-1,1658,379,0,0
441,645,0,0,0,0,0,0,0,0,0,-1,1665,379,0,0
448,645,0,0,0,0,0,0,0,0,0,-1,1672,379,0,0
455,645,0,0,0,0,0,0,0,0,0,-1,1679,379,0,0
462,645,0,0,0,0,0,0,0,0,0,-1,1686,379,0,0
469,645,0,0,0,0,0,0,0,0,0,-1,1693,379,0,0
476,645,0,0,0,0,0,0,0,0,0,-1,1700,379,0,0
483,645,0,0,0,0,0,0,0,0,0,-1,1707,379,0,0
490,645,0,0,0,0,0,0,0,0,0,-1,1714,379,0,0
497,645,0,0,0,0,0,0,0,0,0,-1,1721,379,0,0
504,645,0,0,0,0,0,0,0,0,0,-1,1728,379,0,0
511,645,0,0,0,0,0,0,0,0,0,-1,1735,379,0,0
518,645,0,0,0,0,0,0,0,0,0,-1,1742,379,0,0
525,645,0,0,0,0,0,0,0,0,0,-1,1749,379,0,0
532,645,0,0,0,0,0,0,0,0,0,-1,1756,379,0,0
539,645,0,0,0,0,0,0,0,0,0,-1,1763,379,0,0
546,645,0,0,0,0,0,0,0,0,0,-1,1770,379,0,0
553,645,0,0,0,0,0,0,0,0,0,-1,1777,379,0,0
560,645,0,0,0,0,0,0,0,0,0,-1,1784,379,0,0
567,645,0,0,0,0,0,0,0,0,0,-1,1791,379,0,0
574,645,0,0,0,0,0,0,0,0,0,-1,1798,379,0,0
581,645,0,0,0,0,0,0,0,0,0,-1,1805,379,0,0
588,645,0,0,0,0,0,0,0,0,0,-1,1812,379,0,0
595,645,0,0,0,0,0,0,0,0,0,-1,1819,379,0,0
602,645,0,0,0,0,0,0,0,0,0,-1,1826,379,0,0
609,645,0,0,0,0,0,0,0,0,0,-1,1833,379,0,0
616,645,0,0,0,0,0,0,0,0,0,-1,1840,379,0,0
623,645,0,0,0,0,0,0,0,0,0,-1,1847,379,0,0
630,645,0,0,0,0,0,0,0,0,0,-1,1854,379,0,0
637,645,0,0,0,0,0,0,0,0,0,-1,1861,379,0,0
644,645,0,0,0,0,0,0,0,0,0,-1,1868,379,0,0
651,645,0,0,0,0,0,0,0,0,0,-1,1875,379,0,0
658,645,0,0,0,0,0,0,0,0,0,-1,1882,379,0,0
665,645,0,0,0,0,0,0,0,0,0,-1,1889,379,0,0
672,645,0,0,0,0,0,0,0,0,0,-1,1896,379,0,0
679,645,0,0,0,0,0,0,0,0,0,-1,1903,379,0,0
686,645,0,0,0,0,0,0,0,0,0,-1,1910,379,0,0
693,645,0,0,0,0,0,0,0,0,0,-1,1917,379,0,0
700,645,0,0,0,0,0,0,0,0,0,-1,1924,379,0,0
707,645,0,0,0,0,0,0,0,0,0,-1,1931,379,0,0
714,645,0,0,0,0,0,0,0,0,0,-1,1938,379,0,0
721,645,0,0,0,0,0,0,0,0,0,-1,1945,379,0,0
728,645,0,0,0,0,0,0,0,0,0,-1,1952,379,0,0
735,645,0,0,0,0,0,0,0,0,0,-1,1959,379,0,0
742,645,0,0,0,0,0,0,0,0,0,-1,1966,379,0,0
749,645,0,0,0,0,0,0,0,0,0,-1,1973,379,0,0
756,645,0,0,0,0,0,0,0,0,0,-1,1980,379,0,0
763,645,0,0,0,0,0,0,0,0,0,-1,1987,379,0,0
770,645,0,0,0,0,0,0,0,0,0,-1,1994,379,0,0
777,645,0,0,0,0,0,0,0,0,0,-1,2001,379,0,0
784,645,0,0,0,0,0,0,0,0,0,-1,2008,379,0,0
791,645,0,0,0,0,0,0,0,0,0,-1,2015,379,0,0
798,645,0,0,0,0,0,0,0,0,0,-1,2022,379,0,0
805,645,0,0,0,0,0,0,0,0,0,-1,2029,379,0,0
812,645,0,0,0,0,0,0,0,0,0,-1,2036,379,0,0
-700,638,0,0,0,0,0,0,0,0,0,-1,524,386,0,0
-693,638,0,0,0,0,0,0,0,0,0,-1,531,386,0,0
-686,638,0,0,0,0,0,0,0,0,0,-1,538,386,0,0
-679,638,0,0,0,0,0,0,0,0,0,-1,545,386,0,0
-672,638,0,0,0,0,0,0,0,0,0,-1,552,386,0,0
-665,638,0,0,0,0,0,0,0,0,0,-1,559,386,0,0
-658,638,0,0,0,0,0,0,0,0,0,-1,566,386,0,0
-651,638,0,0,0,0,0,0,0,0,0,-1,573,386,0,0
-644,638,0,0,0,0,0,0,0,0,0,-1,580,386,0,0
-637,638,0,0,0,0,0,0,0,0,0,-1,587,386,0,0
-630,638,0,0,0,0,0,0,0,0,0,-1,594,386,0,0
-623,638,0,0,0,0,0,0,0,0,0,-1,601,386,0,0
-616,638,0,0,0,0,0,0,0,0,0,-1,608,386,0,0
-609,638,0,0,0,0,0,0,0,0,0,-1,615,386,0,0
-602,638,0,0,0,0,0,0,0,0,0,-1,622,386,0,0
-595,638,0,0,0,0,0,0,0,0,0,-1,629,386,0,0
-588,638,0,0,0,0,0,0,0,0,0,-1,636,386,0,0
-581,638,0,0,0,0,0,0,0,0,0,-1,643,386,0,0
-574,638,0,0,0,0,0,0,0,0,0,-1,650,386,0,0
-567,638,0,0,0,0,0,0,0,0,0,-1,657,386,0,0
-560,638,0,0,0,0,0,0,0,0,0,-1,664,386,0,0
-553,638,0,0,0,0,0,0,0,0,0,-1,671,386,0,0
-546,638,0,0,0,0,0,0,0,0,0,-1,678,386,0,0
-539,638,0,0,0,0,0,0,0,0,0,-1,685,386,0,0
-532,638,0,0,0,0,0,0,0,0,0,-1,692,386,0,0
-525,638,0,0,0,0,0,0,0,0,0,-1,699,386,0,0
-518,638,0,0,0,0,0,0,0,0,0,-1,706,386,0,0
-511,638,0,0,0,0,0,0,0,0,0,-1,713,386,0,0
-504,638,0,0,0,0,0,0,0,0,0,-1,720,386,0,0
-497,638,0,0,0,0,0,0,0,0,0,-1,727,386,0,0
-490,638,0,0,0,0,0,0,0,0,0,-1,734,386,0,0
-483,638,0,0,0,0,0,0,0,0,0,-1,741,386,0,0
-476,638,0,0,0,0,0,0,0,0,0,-1,748,386,0,0
-469,638,0,0,0,0,0,0,0,0,0,-1,755,386,0,0
-462,638,0,0,0,0,0,0,0,0,0,-1,762,386,0,0
-455,638,0,0,0,0,0,0,0,0,0,-1,769,386,0,0
-448,638,0,0,0,0,0,0,0,0,0,-1,776,386,0,0
-441,638,0,0,0,0,0,0,0,0,0,-1,783,386,0,0
-434,638,0,0,0,0,0,0,0,0,0,-1,790,386,0,0
-427,638,0,0,0,0,0,0,0,0,0,-1,797,386,0,0
-420,638,0,0,0,0,0,0,0,0,0,-1,804,386,0,0
-413,638,0,0,0,0,0,0,0,0,0,-1,811,386,0,0
-406,638,0,0,0,0,0,0,0,0,0,-1,818,386,0,0
-399,638,0,0,0,0,0,0,0,0,0,-1,825,386,0,0
-392,638,0,0,0,0,0,0,0,0,0,-1,832,386,0,0
-385,638,0,0,0,0,0,0,0,0,0,-1,839,386,0,0
-378,638,0,0,0,0,0,0,0,0,0,-1,846,386,0,0
-371,638,0,0,0,0,0,0,0,0,0,-1,853,386,0,0
-364,638,0,0,0,0,0,0,0,0,0,-1,860,386,0,0
-357,638,0,0,0,0,0,0,0,0,0,-1,867,386,0,0
-350,638,0,0,0,0,0,0,0,0,0,-1,874,386,0,0
-343,638,0,0,0,0,0,0,0,0,0,-1,881,386,0,0
-336,638,0,0,0,0,0,0,0,0,0,-1,888,386,0,0
-329,638,0,0,0,0,0,0,0,0,0,-1,895,386,0,0
-322,638,0,0,0,0,0,0,0,0,0,-1,902,386,0,0
-315,638,0,0,0,0,0,0,0,0,0,-1,909,386,0,0
-308,638,0,0,0,0,0,0,0,0,0,-1,916,386,0,0
-301,638,0,0,0,0,0,0,0,0,0,-1,923,386,0,0
-294,638,0,0,0,0,0,0,0,0,0,-1,930,386,0,0
-287,638,0,0,0,0,0,0,0,0,0,-1,937,386,0,0
-280,638,0,0,0,0,0,0,0,0,0,-1,944,386,0,0
-273,638,0,0,0,0,0,0,0,0,0,-1,951,386,0,0
-266,638,10.1613,-36.3326,0,0,0,0,0,0,0,-1,958,386,10.1612,36.3326
-259,638,9.95282,-34.6103,0,0,0,0,0,0,0,-1,965,386,9.9528,34.6103
-252,638,9.95746,-33.6964,0,0,0,0,0,0,0,-1,972,386,9.95744,33.6965
-245,638,9.84143,-32.9009,0,0,0,0,0,0,0,-1,979,386,9.84145,32.9009
-238,638,2.93518,-26.3649,0,0,0,0,0,0,0,-1,986,386,2.93516,26.3649
-231,638,2.36829,-26.0088,0,0,0,0,0,0,0,-1,993,386,2.3683,26.0088
-224,638,6.3465,-30.9124,0,0,0,0,0,0,0,-1,1000,386,6.34648,30.9124
-217,638,7.41205,-32.7263,0,0,0,0,0,0,0,-1,1007,386,7.41204,32.7262
-210,638,8.7038,-34.5688,0,0,0,0,0,0,0,-1,1014,386,8.70378,34.5689
-203,638,4.32593,-27.5803,0,0,0,0,0,0,0,-1,1021,386,4.32594,27.5803
-196,638,6.0614,-28.4651,0,0,0,0,0,0,0,-1,1028,386,6.06143,28.4651
-189,638,11.4561,-30.1556,0,0,0,0,0,0,0,-1,1035,386,11.456,30.1556
-182,638,6.45471,-33.4271,0,0,0,0,0,0,0,-1,1042,386,6.45473,33.427
-175,638,7.52478,-44.7128,0,0,0,0,0,0,0,-1,1049,386,7.52476,44.7128
-168,638,7.45569,-45.7416,0,0,0,0,0,0,0,-1,1056,386,7.45568,45.7416
-161,638,7.48596,-46.3673,0,0,0,0,0,0,0,-1,1063,386,7.48596,46.3673
-154,638,7.36633,-46.8639,0,0,0,0,0,0,0,-1,1070,386,7.36629,46.8639
-147,638,7.33777,-47.3777,0,0,0,0,0,0,0,-1,1077,386,7.33774,47.3777
-140,638,7.29309,-47.5528,-0.00444953,0.0154529,-0.00855075,0.018622,-0.00761861,-1.21587,0.0155877,0.0420974,1084,386,7.29306,47.5528
-133,638,7.20032,-48.3639,-0.00459347,0.0134861,-0.00740137,0.0161295,-0.00723693,-1.22776,0.0138125,0.0356412,1091,386,7.20036,48.3639
-126,638,7.16003,-48.8559,-0.00487614,0.0112952,-0.00610845,0.0133432,-0.00692414,-1.2473,0.0118953,0.0235675,1098,386,7.16006,48.8559
-119,638,7.09741,-49.3955,-0.00504742,0.00928786,-0.00497946,0.0108478,-0.00660732,-1.26721,0.0101763,0.0206408,1105,386,7.09747,49.3955
-112,638,7.07874,-49.9031,-0.0050784,0.0078929,-0.00410801,0.00908445,-0.00626995,-1.28849,0.00891437,0.0181987,1112,386,7.07876,49.9031
-105,638,7.04797,-50.3708,-0.00501315,0.00679925,-0.00348627,0.00775143,-0.00596533,-1.30418,0.00794172,0.0172961,1119,386,7.04798,50.3708
-98,638,6.96558,-50.8379,-0.00492245,0.0057652,-0.00291725,0.00650962,-0.00566688,-1.32095,0.00703572,0.016675,1126,386,6.96557,50.8379
-91,638,6.87744,-51.2795,-0.00480494,0.00493602,-0.00242582,0.0055067,-0.00537562,-1.33975,0.00628306,0.0136804,1133,386,6.87745,51.2795
-84,638,6.82385,-51.6991,-0.0045743,0.00362121,-0.00190117,0.00404076,-0.00499385,-1.3536,0.0052258,0.0151696,1140,386,6.82382,51.6991
-77,638,6.78455,-52.1064,-0.0043704,0.00349432,-0.00162442,0.00381663,-0.00469271,-1.37493,0.00492154,0.0127439,1147,386,6.78459,52.1064
-70,638,6.76306,-52.4943,-0.00429345,0.00386448,-0.00151369,0.00413629,-0.00456526,-1.39312,0.00502587,0.0129665,1154,386,6.76301,52.4943
-63,638,6.73828,-52.8727,-0.00419349,0.00489376,-0.00160607,0.00516927,-0.00446899,-1.40091,0.00556955,0.0128818,1161,386,6.73833,52.8726
-56,638,6.73242,-53.2138,-0.00392576,0.00558203,-0.00169792,0.00587615,-0.00421988,-1.39928,0.00585503,0.0150712,1168,386,6.7324,53.2138
-49,638,6.7074,-53.5496,-0.00347921,0.00568229,-0.00158706,0.00594943,-0.00374635,-1.40404,0.00564582,0.0124112,1175,386,6.70739,53.5496
-42,638,6.67395,-53.8726,-0.00301443,0.00571653,-0.00137281,0.0059273,-0.0032252,-1.41846,0.00536041,0.0117244,1182,386,6.67399,53.8726
-35,638,6.64307,-54.1864,-0.00265949,0.00584586,-0.00125092,0.00602602,-0.00283965,-1.42776,0.00522764,0.0112646,1189,386,6.64305,54.1864
-28,638,6.60742,-54.4825,-0.00230325,0.00582031,-0.0012054,0.0059954,-0.00247834,-1.42655,0.00503082,0.0107123,1196,386,6.60737,54.4825
-21,638,6.56873,-54.7263,-0.00192329,0.00564843,-0.00121347,0.00583815,-0.00211301,-1.41571,0.00475557,0.012631,1203,386,6.56871,54.7263
-14,638,6.55908,-54.9879,-0.00161086,0.00549351,-0.00117477,0.00568273,-0.00180008,-1.4111,0.00450989,0.0133195,1210,386,6.55905,54.9879
-7,638,6.58813,-55.2755,-0.0012188,0.00528959,-0.00122178,0.00551139,-0.0014406,-1.39122,0.0042369,0.019711,1217,386,6.5881,55.2755
0,638,6.63879,-55.3975,-0.000810225,0.00516724,-0.00127801,0.00542902,-0.00107201,-1.36876,0.00402456,0.0366451,1224,386,6.6388,55.3975
7,638,6.55872,-55.55,-0.000494907,0.00511095,-0.00126888,0.00538478,-0.000768742,-1.35825,0.00387163,0.0271845,1231,386,6.55874,55.55
14,638,6.50403,-55.6967,-0.000182405,0.00507927,-0.00119044,0.00533607,-0.000439204,-1.35833,0.00371245,0.014892,1238,386,6.50405,55.6967
21,638,6.52832,-55.847,9.79734e-05,0.00503948,-0.00108821,0.00526851,-0.000131057,-1.36336,0.00355683,0.0132738,1245,386,6.52837,55.847
28,638,6.54102,-55.9669,0.000411069,0.0049967,-0.000986901,0.00520008,0.000207692,-1.36757,0.0033996,0.0104317,1252,386,6.54098,55.9669
35,638,6.53357,-56.0535,0.000722617,0.00505856,-0.000837412,0.00521467,0.000566506,-1.38649,0.00330384,0.0119231,1259,386,6.53359,56.0535
42,638,6.55994,-56.1447,0.000676327,0.0055074,-0.000647041,0.00559256,0.000591167,-1.43994,0.00354777,0.0107538,1266,386,6.55994,56.1447
49,638,6.58643,-56.2097,0.000351369,0.00634842,-0.00029755,0.00636315,0.000336642,-1.52134,0.00413445,0.00991767,1273,386,6.58647,56.2097
56,638,6.55115,-56.231,-7.62252e-05,0.00715968,9.40695e-05,0.0071609,-7.74479e-05,1.5578,0.00479996,0.0134094,1280,386,6.55117,56.231
63,638,6.51965,-56.2417,-0.000428484,0.00817327,0.000452558,0.00819702,-0.000452228,1.51838,0.00562149,0.0144253,1287,386,6.51971,56.2417
70,638,6.53967,-56.2188,-0.000878405,0.00929126,0.00069463,0.00933849,-0.000925633,1.50291,0.00655602,0.0193387,1294,386,6.5397,56.2188
77,638,6.55908,-56.177,-0.00139371,0.010785,0.000871224,0.010847,-0.00145572,1.49974,0.00776221,0.0197836,1301,386,6.55908,56.177
84,638,6.56531,-56.1392,-0.00197793,0.0122834,0.00092518,0.0123431,-0.0020377,1.50628,0.00898535,0.0144128,1308,386,6.56526,56.1392
91,638,6.56091,-56.0656,-0.00264535,0.0135328,0.000981177,0.0135921,-0.00270464,1.51044,0.0100846,0.0156286,1315,386,6.56087,56.0656
98,638,6.55103,-55.9602,-0.0031357,0.0146181,0.00114358,0.0146914,-0.00320906,1.50674,0.0110208,0.0137163,1322,386,6.55106,55.9602
105,638,6.51575,-55.8525,-0.00335419,0.0156914,0.00134587,0.015786,-0.00344883,1.5006,0.0118422,0.0107649,1329,386,6.51577,55.8525
112,638,6.51807,-55.7156,-0.00344793,0.016579,0.0013874,0.0166746,-0.00354358,1.50196,0.0124666,0.0103345,1336,386,6.51801,55.7156
119,638,6.54248,-55.5485,-0.00344747,0.0171062,0.0014494,0.0172079,-0.00354918,1.50074,0.0128198,0.0124204,1343,386,6.54245,55.5485
126,638,6.52515,-55.3441,-0.00325016,0.0173423,0.00148001,0.0174481,-0.00335599,1.49941,0.0128971,0.0172309,1350,386,6.52515,55.3441
133,638,6.5177,-55.1332,-0.00305634,0.0173334,0.00159701,0.0174577,-0.00318066,1.4931,0.0128308,0.0179665,1357,386,6.51773,55.1332
140,638,6.52039,-54.9095,-0.00285429,0.0169879,0.00178935,0.017148,-0.00301436,1.48158,0.012558,0.0180595,1364,386,6.52039,54.9095
147,638,6.50122,-54.6658,-0.00252893,0.0163326,0.00204657,0.0165521,-0.00274844,1.46395,0.0120557,0.0194443,1371,386,6.50121,54.6658
154,638,6.47168,-54.4106,-0.00219866,0.0154717,0.00220203,0.0157419,-0.00246893,1.44867,0.011407,0.0173258,1378,386,6.47163,54.4106
161,638,6.46521,-54.1163,-0.00203285,0.0149376,0.00234333,0.0152552,-0.00235048,1.43607,0.0110374,0.019727,1385,386,6.4652,54.1163
168,638,6.45581,-53.7782,-0.00212193,0.0143108,0.00253062,0.0146917,-0.00250281,1.42141,0.0107265,0.0254441,1392,386,6.45583,53.7782
175,638,6.4574,-53.4434,-0.00230982,0.013626,0.00274509,0.0140856,-0.00276944,1.4049,0.0104367,0.0209966,1399,386,6.4574,53.4434
182,638,6.38977,-53.1126,-0.0024402,0.0130061,0.00295231,0.0135512,-0.00298526,1.38823,0.0101762,0.0138218,1406,386,6.3898,53.1126
189,638,6.35791,-52.7174,-0.00241796,0.0123863,0.00297865,0.0129631,-0.00299479,1.37951,0.00979416,0.0124398,1413,386,6.35788,52.7174
196,638,6.31409,-52.3194,-0.00230707,0.0116649,0.00306383,0.0123073,-0.00294939,1.36414,0.00934444,0.0149118,1420,386,6.31403,52.3194
203,638,6.24841,-51.936,-0.00269923,0.0112272,0.00315813,0.0119099,-0.00338194,1.3579,0.0092751,0.0204059,1427,386,6.24839,51.936
210,638,6.22021,-51.5432,-0.00338163,0.0102467,0.00300964,0.0108818,-0.00401668,1.36284,0.00890081,0.0173354,1434,386,6.22024,51.5432
217,638,6.19788,-51.1019,-0.00342905,0.0112529,0.0029961,0.0118408,-0.00401692,1.37705,0.00951963,0.0132048,1441,386,6.19792,51.1019
224,638,6.15173,-50.5965,-0.00317129,0.0127968,0.00309154,0.0133744,-0.00374894,1.38608,0.0103938,0.01141,1448,386,6.15175,50.5965
231,638,6.05554,-50.092,-0.00285285,0.0141927,0.00337721,0.0148374,-0.00349758,1.38216,0.0112404,0.0124935,1455,386,6.05553,50.092
238,638,6.00061,-49.6295,-0.00265435,0.0158033,0.00366658,0.016505,-0.00335603,1.38171,0.0122759,0.015202,1462,386,6.00056,49.6295
245,638,6.01526,-49.0824,-0.00251851,0.0176006,0.00397188,0.0183563,-0.00327425,1.38277,0.0134624,0.0219309,1469,386,6.0153,49.0824
252,638,6.05481,-48.5131,-0.00197688,0.019497,0.00443592,0.0203773,-0.00285714,1.3749,0.0146305,0.0338138,1476,386,6.05479,48.5131
259,638,5.94238,-48.1159,-0.00134607,0.0219193,0.00510691,0.0229909,-0.00241771,1.36396,0.0161934,0.0283187,1483,386,5.94234,48.1159
266,638,5.78772,-47.5288,-0.00179343,0.0222351,0.00572964,0.0235314,-0.00308974,1.3483,0.0168124,0.0145461,1490,386,5.78775,47.5288
273,638,5.74988,-46.9834,-0.0017771,0.0235039,0.00655982,0.0251047,-0.00337786,1.33145,0.0179685,0.0129487,1497,386,5.74986,46.9834
280,638,5.80957,-46.3554,-0.00183324,0.0244486,0.0074346,0.0264059,-0.00379057,1.31336,0.0189939,0.0274946,1504,386,5.80962,46.3554
287,638,5.72449,-45.5768,0,0,0,0,0,0,0,-1,1511,386,5.72454,45.5768
294,638,5.60474,-44.9311,0,0,0,0,0,0,0,-1,1518,386,5.60474,44.9311
301,638,5.40466,-44.2651,0,0,0,0,0,0,0,-1,1525,386,5.40467,44.2651
308,638,5.96069,-43.0816,0,0,0,0,0,0,0,-1,1532,386,5.96064,43.0816
315,638,5.948,-43.5884,-0.00498564,0.0258249,0.0135061,0.0309071,-0.0100678,1.21089,0.0246556,0.0416613,1539,386,5.94794,43.5884
322,638,5.48438,-43.0117,0,0,0,0,0,0,0,-1,1546,386,5.48435,43.0117
329,638,5.04639,-42.773,0,0,0,0,0,0,0,-1,1553,386,5.04645,42.773
336,638,5.15234,-38.1966,0,0,0,0,0,0,0,-1,1560,386,5.15238,38.1966
343,638,4.8208,-37.2159,0,0,0,0,0,0,0,-1,1567,386,4.82078,37.2159
350,638,4.35254,-37.1565,0,0,0,0,0,0,0,-1,1574,386,4.35259,37.1565
357,638,0.387329,-3.01077,0,0,0,0,0,0,0,-1,1581,386,0.387332,3.01077
364,638,3.78149,-6.45215,0,0,0,0,0,0,0,-1,1588,386,3.78155,6.45216
371,638,4.18604,-6.71164,0,0,0,0,0,0,0,-1,1595,386,4.18598,6.71164
378,638,4.59045,-6.97113,0,0,0,0,0,0,0,-1,1602,386,4.5904,6.97112
385,638,0,0,0,0,0,0,0,0,0,-1,1609,386,0,0
392,638,0,0,0,0,0,0,0,0,0,-1,1616,386,0,0
399,638,0,0,0,0,0,0,0,0,0,-1,1623,386,0,0
406,638,0,0,0,0,0,0,0,0,0,-1,1630,386,0,0
413,638,0,0,0,0,0,0,0,0,0,-1,1637,386,0,0
420,638,0,0,0,0,0,0,0,0,0,-1,1644,386,0,0
427,638,0,0,0,0,0,0,0,0,0,-1,1651,386,0,0
434,638,0,0,0,0,0,0,0,0,0,-1,1658,386,0,0
441,638,0,0,0,0,0,0,0,0,0,-1,1665,386,0,0
448,638,0,0,0,0,0,0,0,0,0,-1,1672,386,0,0
455,638,0,0,0,0,0,0,0,0,0,-1,1679,386,0,0
462,638,0,0,0,0,0,0,0,0,0,-1,1686,386,0,0
469,638,0,0,0,0,0,0,0,0,0,-1,1693,386,0,0
476,638,0,0,0,0,0,0,0,0,0,-1,1700,386,0,0
483,638,0,0,0,0,0,0,0,0,0,-1,1707,386,0,0
490,638,0,0,0,0,0,0,0,0,0,-1,1714,386,0,0
497,638,0,0,0,0,0,0,0,0,0,-1,1721,386,0,0
504,638,0,0,0,0,0,0,0,0,0,-1,1728,386,0,0
511,638,0,0,0,0,0,0,0,0,0,-1,1735,386,0,0
518,638,0,0,0,0,0,0,0,0,0,-1,1742,386,0,0
525,638,0,0,0,0,0,0,0,0,0,-1,1749,386,0,0
532,638,0,0,0,0,0,0,0,0,0,-1,1756,386,0,0
539,638,0,0,0,0,0,0,0,0,0,-1,1763,386,0,0
546,638,0,0,0,0,0,0,0,0,0,-1,1770,386,0,0
553,638,0,0,0,0,0,0,0,0,0,-1,1777,386,0,0
560,638,0,0,0,0,0,0,0,0,0,-1,1784,386,0,0
567,638,0,0,0,0,0,0,0,0,0,-1,1791,386,0,0
574,638,0,0,0,0,0,0,0,0,0,-1,1798,386,0,0
581,638,0,0,0,0,0,0,0,0,0,-1,1805,386,0,0
588,638,0,0,0,0,0,0,0,0,0,-1,1812,386,0,0
595,638,0,0,0,0,0,0,0,0,0,-1,1819,386,0,0
602,638,0,0,0,0,0,0,0,0,0,-1,1826,386,0,0
609,638,0,0,0,0,0,0,0,0,0,-1,1833,386,0,0
616,638,0,0,0,0,0,0,0,0,0,-1,1840,386,0,0
623,638,0,0,0,0,0,0,0,0,0,-1,1847,386,0,0
630,638,0,0,0,0,0,0,0,0,0,-1,1854,386,0,0
637,638,0,0,0,0,0,0,0,0,0,-1,1861,386,0,0
644,638,0,0,0,0,0,0,0,0,0,-1,1868,386,0,0
651,638,0,0,0,0,0,0,0,0,0,-1,1875,386,0,0
658,638,0,0,0,0,0,0,0,0,0,-1,1882,386,0,0
665,638,0,0,0,0,0,0,0,0,0,-1,1889,386,0,0
672,638,0,0,0,0,0,0,0,0,0,-1,1896,386,0,0
679,638,0,0,0,0,0,0,0,0,0,-1,1903,386,0,0
686,638,0,0,0,0,0,0,0,0,0,-1,1910,386,0,0
693,638,0,0,0,0,0,0,0,0,0,-1,1917,386,0,0
700,638,0,0,0,0,0,0,0,0,0,-1,1924,386,0,0
707,638,0,0,0,0,0,0,0,0,0,-1,1931,386,0,0
714,638,0,0,0,0,0,0,0,0,0,-1,1938,386,0,0
721,638,0,0,0,0,0,0,0,0,0,-1,1945,386,0,0
728,638,0,0,0,0,0,0,0,0,0,-1,1952,386,0,0
735,638,0,0,0,0,0,0,0,0,0,-1,1959,386,0,0
742,638,0,0,0,0,0,0,0,0,0,-1,1966,386,0,0
749,638,0,0,0,0,0,0,0,0,0,-1,1973,386,0,0
756,638,0,0,0,0,0,0,0,0,0,-1,1980,386,0,0
763,638,0,0,0,0,0,0,0,0,0,-1,1987,386,0,0
770,638,0,0,0,0,0,0,0,0,0,-1,1994,386,0,0
777,638,0,0,0,0,0,0,0,0,0,-1,2001,386,0,0
784,638,0,0,0,0,0,0,0,0,0,-1,2008,386,0,0
791,638,0,0,0,0,0,0,0,0,0,-1,2015,386,0,0
798,638,0,0,0,0,0,0,0,0,0,-1,2022,386,0,0
805,638,0,0,0,0,0,0,0,0,0,-1,2029,386,0,0
812,638,0,0,0,0,0,0,0,0,0,-1,2036,386,0,0
-700,631,0,0,0,0,0,0,0,0,0,-1,524,393,0,0
-693,631,0,0,0,0,0,0,0,0,0,-1,531,393,0,0
-686,631,0,0,0,0,0,0,0,0,0,-1,538,393,0,0
-679,631,0,0,0,0,0,0,0,0,0,-1,545,393,0,0
-672,631,0,0,0,0,0,0,0,0,0,-1,552,393,0,0
-665,631,0,0,0,0,0,0,0,0,0,-1,559,393,0,0
-658,631,0,0,0,0,0,0,0,0,0,-1,566,393,0,0
-651,631,0,0,0,0,0,0,0,0,0,-1,573,393,0,0
-644,631,0,0,0,0,0,0,0,0,0,-1,580,393,0,0
-637,631,0,0,0,0,0,0,0,0,0,-1,587,393,0,0
-630,631,0,0,0,0,0,0,0,0,0,-1,594,393,0,0
-623,631,0,0,0,0,0,0,0,0,0,-1,601,393,0,0
-616,631,0,0,0,0,0,0,0,0,0,-1,608,393,0,0
-609,631,0,0,0,0,0,0,0,0,0,-1,615,393,0,0
-602,631,0,0,0,0,0,0,0,0,0,-1,622,393,0,0
-595,631,0,0,0,0,0,0,0,0,0,-1,629,393,0,0
-588,631,0,0,0,0,0,0,0,0,0,-1,636,393,0,0
-581,631,0,0,0,0,0,0,0,0,0,-1,643,393,0,0
-574,631,0,0,0,0,0,0,0,0,0,-1,650,393,0,0
-567,631,0,0,0,0,0,0,0,0,0,-1,657,393,0,0
-560,631,0,0,0,0,0,0,0,0,0,-1,664,393,0,0
-553,631,0,0,0,0,0,0,0,0,0,-1,671,393,0,0
-546,631,0,0,0,0,0,0,0,0,0,-1,678,393,0,0
-539,631,0,0,0,0,0,0,0,0,0,-1,685,393,0,0
-532,631,0,0,0,0,0,0,0,0,0,-1,692,393,0,0
-525,631,0,0,0,0,0,0,0,0,0,-1,699,393,0,0
-518,631,0,0,0,0,0,0,0,0,0,-1,706,393,0,0
-511,631,0,0,0,0,0,0,0,0,0,-1,713,393,0,0
-504,631,0,0,0,0,0,0,0,0,0,-1,720,393,0,0
-497,631,0,0,0,0,0,0,0,0,0,-1,727,393,0,0
-490,631,0,0,0,0,0,0,0,0,0,-1,734,393,0,0
-483,631,0,0,0,0,0,0,0,0,0,-1,741,393,0,0
-476,631,0,0,0,0,0,0,0,0,0,-1,748,393,0,0
-469,631,0,0,0,0,0,0,0,0,0,-1,755,393,0,0
-462,631,0,0,0,0,0,0,0,0,0,-1,762,393,0,0
-455,631,0,0,0,0,0,0,0,0,0,-1,769,393,0,0
-448,631,0,0,0,0,0,0,0,0,0,-1,776,393,0,0
-441,631,0,0,0,0,0,0,0,0,0,-1,783,393,0,0
-434,631,0,0,0,0,0,0,0,0,0,-1,790,393,0,0
-427,631,0,0,0,0,0,0,0,0,0,-1,797,393,0,0
-420,631,0,0,0,0,0,0,0,0,0,-1,804,393,0,0
-413,631,0,0,0,0,0,0,0,0,0,-1,811,393,0,0
-406,631,0,0,0,0,0,0,0,0,0,-1,818,393,0,0
-399,631,0,0,0,0,0,0,0,0,0,-1,825,393,0,0
-392,631,0,0,0,0,0,0,0,0,0,-1,832,393,0,0
-385,631,0,0,0,0,0,0,0,0,0,-1,839,393,0,0
-378,631,0,0,0,0,0,0,0,0,0,-1,846,393,0,0
-371,631,0,0,0,0,0,0,0,0,0,-1,853,393,0,0
-364,631,0,0,0,0,0,0,0,0,0,-1,860,393,0,0
-357,631,0,0,0,0,0,0,0,0,0,-1,867,393,0,0
-350,631,0,0,0,0,0,0,0,0,0,-1,874,393,0,0
-343,631,0,0,0,0,0,0,0,0,0,-1,881,393,0,0
-336,631,0,0,0,0,0,0,0,0,0,-1,888,393,0,0
-329,631,0,0,0,0,0,0,0,0,0,-1,895,393,0,0
-322,631,0,0,0,0,0,0,0,0,0,-1,902,393,0,0
-315,631,0,0,0,0,0,0,0,0,0,-1,909,393,0,0
-308,631,0,0,0,0,0,0,0,0,0,-1,916,393,0,0
-301,631,0,0,0,0,0,0,0,0,0,-1,923,393,0,0
-294,631,0,0,0,0,0,0,0,0,0,-1,930,393,0,0
-287,631,0,0,0,0,0,0,0,0,0,-1,937,393,0,0
-280,631,7.71283,-34.969,0,0,0,0,0,0,0,-1,944,393,7.71282,34.969
-273,631,8.04437,-34.934,0,0,0,0,0,0,0,-1,951,393,8.04436,34.9339
-266,631,8.40277,-34.7584,0,0,0,0,0,0,0,-1,958,393,8.40275,34.7584
-259,631,8.56659,-34.037,0,0,0,0,0,0,0,-1,965,393,8.56662,34.037
-252,631,8.44446,-33.2643,0,0,0,0,0,0,0,-1,972,393,8.44445,33.2644
-245,631,8.34705,-32.527,0,0,0,0,0,0,0,-1,979,393,8.34704,32.527
-238,631,8.41888,-31.8855,0,0,0,0,0,0,0,-1,986,393,8.41887,31.8855
-231,631,2.14966,-25.2306,0,0,0,0,0,0,0,-1,993,393,2.14968,25.2306
-224,631,6.83575,-19.7909,0,0,0,0,0,0,0,-1,1000,393,6.83575,19.7909
-217,631,5.05188,-18.3867,0,0,0,0,0,0,0,-1,1007,393,5.0519,18.3866
-210,631,3.37842,-26.3769,0,0,0,0,0,0,0,-1,1014,393,3.37839,26.3769
-203,631,5.05298,-26.4169,0,0,0,0,0,0,0,-1,1021,393,5.05302,26.4169
-196,631,7.17383,-42.5592,0,0,0,0,0,0,0,-1,1028,393,7.17381,42.5592
-189,631,6.57983,-42.4494,0,0,0,0,0,0,0,-1,1035,393,6.57983,42.4494
-182,631,7.00684,-43.9388,0,0,0,0,0,0,0,-1,1042,393,7.0068,43.9388
-175,631,7.02795,-44.7166,-0.00274801,0.0213639,-0.0126199,0.026761,-0.00814507,-1.16667,0.0210867,0.0499889,1049,393,7.02799,44.7166
-168,631,6.98657,-45.5608,-0.00291016,0.0192176,-0.0113358,0.0239939,-0.00768645,-1.17203,0.0190813,0.0344358,1056,393,6.98659,45.5608
-161,631,6.94788,-46.2275,-0.0029706,0.0172989,-0.0101041,0.0214752,-0.00714692,-1.17885,0.0172013,0.0194459,1063,393,6.94793,46.2276
-154,631,6.87476,-46.8411,-0.0031103,0.0155284,-0.00895778,0.0191355,-0.00671735,-1.18799,0.0154895,0.0177547,1070,393,6.8748,46.8411
-147,631,6.83228,-47.3707,-0.00324738,0.0138115,-0.00781893,0.016853,-0.00628889,-1.19981,0.0138173,0.015753,1077,393,6.83224,47.3707
-140,631,6.78052,-47.9101,-0.00324285,0.0121606,-0.00677394,0.0147157,-0.00579797,-1.2101,0.0122109,0.0120394,1084,393,6.78057,47.9101
-133,631,6.70313,-48.436,-0.0032262,0.010593,-0.00585636,0.012741,-0.00537416,-1.21926,0.0107432,0.00939598,1091,393,6.70312,48.436
-126,631,6.67798,-48.946,-0.00331352,0.00886238,-0.00484422,0.0105545,-0.00500564,-1.23474,0.00917208,0.0132685,1098,393,6.67799,48.946
-119,631,6.6532,-49.4345,-0.00330354,0.00729454,-0.00394547,0.00860205,-0.00461105,-1.25079,0.00774372,0.0161706,1105,393,6.65325,49.4345
-112,631,6.6438,-49.9208,-0.00319459,0.00618838,-0.00324546,0.00720155,-0.00420776,-1.2682,0.00666233,0.0150833,1112,393,6.64383,49.9208
-105,631,6.62756,-50.3956,-0.00302997,0.00529654,-0.00275587,0.00612603,-0.00385946,-1.27843,0.00581442,0.0201099,1119,393,6.62754,50.3956
-98,631,6.54382,-50.8505,-0.00284556,0.00445997,-0.00231535,0.00513196,-0.00351755,-1.28832,0.00502271,0.0173954,1126,393,6.54386,50.8505
-91,631,6.49561,-51.291,-0.0026329,0.00377472,-0.00191568,0.00430377,-0.00316195,-1.30134,0.00432711,0.0190245,1133,393,6.49563,51.291
-84,631,6.47424,-51.7247,-0.00233388,0.002762,-0.00148447,0.00316291,-0.00273478,-1.30703,0.00340802,0.0175439,1140,393,6.47418,51.7247
-77,631,6.42102,-52.1247,-0.00205519,0.00250785,-0.00123355,0.00281997,-0.00236731,-1.32297,0.00299868,0.0121754,1147,393,6.42098,52.1247
-70,631,6.41895,-52.506,-0.0018409,0.00250768,-0.00108713,0.00276431,-0.00209754,-1.33897,0.00281577,0.014544,1154,393,6.41899,52.506
-63,631,6.41895,-52.8921,-0.00156682,0.00272314,-0.00102016,0.00295338,-0.00179706,-1.34883,0.00276962,0.0145751,1161,393,6.41889,52.8921
-56,631,6.3739,-53.2732,-0.00109455,0.00247831,-0.000933623,0.00270756,-0.0013238,-1.33001,0.00237277,0.0150075,1168,393,6.37394,53.2732
-49,631,6.36011,-53.585,-0.000500399,0.00191955,-0.000751573,0.00213397,-0.000714818,-1.29288,0.00171143,0.011514,1175,393,6.36008,53.585
-42,631,6.36743,-53.8677,0.000125451,0.00119593,-0.000624724,0.00148334,-0.000161965,-1.1396,0.00104707,0.0099292,1182,393,6.36748,53.8677
-35,631,6.36475,-54.155,0.00072089,0.000565387,-0.000521464,0.00117037,0.00011591,-0.711392,0.000744621,0.0114739,1189,393,6.36477,54.155
-28,631,6.354,-54.4389,0.00125444,-0.000255509,-0.000503636,0.00140701,-0.000408078,-0.294147,0.00109957,0.013894,1196,393,6.35403,54.4389
-21,631,6.32056,-54.7122,0.00180255,-0.000952723,-0.000618014,0.00193483,-0.001085,-0.210846,0.00176636,0.0126488,1203,393,6.32059,54.7122
-14,631,6.31274,-54.9854,0.00230088,-0.00165011,-0.000779926,0.00244927,-0.0017985,-0.188008,0.00246202,0.0157148,1210,393,6.31273,54.9854
-7,631,6.37158,-55.2961,0.00287269,-0.00209138,-0.00111811,0.00311291,-0.0023316,-0.211626,0.00315416,0.0242513,1217,393,6.37161,55.2962
0,631,6.3418,-55.4874,0.00342121,-0.00222347,-0.00150604,0.00379789,-0.00260015,-0.245088,0.00371542,0.0269528,1224,393,6.34185,55.4874
7,631,6.33228,-55.584,0.00374347,-0.00229943,-0.00176769,0.00422257,-0.00277853,-0.264676,0.00407065,0.0210953,1231,393,6.33233,55.584
14,631,6.37756,-55.7307,0.00412873,-0.00214793,-0.0020714,0.00475069,-0.00276989,-0.291698,0.00439193,0.0124683,1238,393,6.37761,55.7307
21,631,6.41846,-55.8723,0.00449389,-0.00191741,-0.00233666,0.00525513,-0.00267864,-0.314937,0.00466038,0.0162299,1245,393,6.4184,55.8724
28,631,6.42297,-55.9854,0.0048311,-0.00153667,-0.00258097,0.00574581,-0.00245139,-0.340596,0.00485839,0.0174795,1252,393,6.42292,55.9854
35,631,6.47083,-56.0377,0.00509221,-0.00117083,-0.0027033,0.00609763,-0.00217625,-0.35607,0.00495253,0.0155275,1259,393,6.47081,56.0377
42,631,6.51135,-56.1136,0.00505943,-0.000408721,-0.00279198,0.00623308,-0.00158237,-0.397938,0.00477113,0.0136029,1266,393,6.51139,56.1136
49,631,6.52698,-56.2025,0.00498022,0.000571649,-0.00276548,0.00631242,-0.000760553,-0.448922,0.00448335,0.0119973,1273,393,6.527,56.2024
56,631,6.54199,-56.2741,0.00486248,0.0012731,-0.00260837,0.00623394,-9.83593e-05,-0.484068,0.00418913,0.0135722,1280,393,6.54197,56.2741
63,631,6.54126,-56.3011,0.00490999,0.00226501,-0.00253389,0.00644575,0.000729253,-0.544884,0.00407589,0.0164426,1287,393,6.54122,56.3011
70,631,6.55518,-56.2475,0.00486301,0.0032512,-0.00265523,0.00683195,0.00128226,-0.638058,0.00419308,0.0173314,1294,393,6.55516,56.2475
77,631,6.5802,-56.1942,0.00486832,0.00470352,-0.00288035,0.00766744,0.00190439,-0.771098,0.00460987,0.0168555,1301,393,6.58017,56.1942
84,631,6.61108,-56.1552,0.00480167,0.00596518,-0.00324944,0.00868453,0.00208232,-0.873976,0.00523548,0.0140881,1308,393,6.61105,56.1552
91,631,6.62561,-56.0679,0.00456414,0.00698583,-0.0034753,0.00945518,0.00209479,-0.953029,0.00573418,0.0171304,1315,393,6.62565,56.0679
98,631,6.65027,-55.9691,0.0044094,0.00778812,-0.00356318,0.0100421,0.00215539,-1.00676,0.00610447,0.0148098,1322,393,6.65025,55.9691
105,631,6.63647,-55.8567,0.00440705,0.00846043,-0.00358071,0.0105482,0.00231926,-1.04292,0.00640069,0.0122097,1329,393,6.63652,55.8567
112,631,6.66846,-55.7304,0.00447598,0.00907301,-0.00367243,0.0111069,0.00244207,-1.06502,0.00673971,0.0125687,1336,393,6.6685,55.7304
119,631,6.68823,-55.5862,0.00440518,0.00924657,-0.00352957,0.0111058,0.00254597,-1.08598,0.00671799,0.0131305,1343,393,6.68821,55.5862
126,631,6.68933,-55.3635,0.00434791,0.00930393,-0.00334183,0.0109862,0.00266559,-1.10442,0.00661709,0.0180592,1350,393,6.68938,55.3635
133,631,6.72668,-55.1443,0.00416825,0.00910825,-0.00296751,0.0104992,0.00277729,-1.13248,0.0062818,0.0203627,1357,393,6.72672,55.1444
140,631,6.7323,-54.9434,0.00387785,0.00874884,-0.00245892,0.00977426,0.00285243,-1.1757,0.00580391,0.0224771,1364,393,6.73234,54.9434
147,631,6.69812,-54.6709,0.00349395,0.0081222,-0.00181974,0.00875199,0.00286416,-1.23761,0.0051525,0.0244654,1371,393,6.69816,54.6709
154,631,6.71826,-54.3889,0.00297331,0.00741244,-0.00115532,0.00769512,0.00269063,-1.33083,0.00450923,0.0218056,1378,393,6.71826,54.389
161,631,6.75,-54.1045,0.00240668,0.00704982,-0.000519873,0.00710732,0.00234918,-1.46065,0.00418124,0.0235156,1385,393,6.74996,54.1045
168,631,6.7572,-53.7763,0.00165722,0.00669247,0.000164087,0.00669781,0.00165187,1.53825,0.00402908,0.0283421,1392,393,6.75723,53.7763
175,631,6.75061,-53.4797,0.000937262,0.00647105,0.000766398,0.00657523,0.000833081,1.43569,0.00413387,0.022278,1399,393,6.75055,53.4797
182,631,6.71277,-53.1435,0.000317864,0.00644279,0.00122177,0.00667751,8.31455e-05,1.381,0.00442422,0.0122864,1406,393,6.71279,53.1435
189,631,6.68909,-52.7498,-0.000129602,0.00663541,0.00152118,0.00696172,-0.000455916,1.35949,0.00480034,0.0115528,1413,393,6.68906,52.7498
196,631,6.66211,-52.3515,-0.000411586,0.00695034,0.00174468,0.00734288,-0.000804121,1.34949,0.00518412,0.0126227,1420,393,6.66214,52.3515
203,631,6.6875,-51.9565,-0.000957351,0.00730022,0.0019575,0.00774076,-0.00139788,1.34944,0.00568405,0.0144311,1427,393,6.68756,51.9565
210,631,6.66516,-51.553,-0.00156758,0.00715255,0.00205385,0.00761208,-0.00202711,1.35068,0.00586831,0.0165833,1434,393,6.66516,51.553
217,631,6.63208,-51.155,-0.00175498,0.00809093,0.00217582,0.00855033,-0.00221438,1.36272,0.00656405,0.0178421,1441,393,6.63206,51.155
224,631,6.58264,-50.6757,-0.00173279,0.0093,0.0023505,0.00977989,-0.00221268,1.3694,0.00736907,0.0138747,1448,393,6.58263,50.6757
231,631,6.51111,-50.1839,-0.00166233,0.0103897,0.00267143,0.0109553,-0.00222793,1.36215,0.00814832,0.0116533,1455,393,6.51109,50.1839
238,631,6.47412,-49.684,-0.00165066,0.0116153,0.00298495,0.012256,-0.00229136,1.35936,0.00903183,0.0183092,1462,393,6.47408,49.684
245,631,6.45715,-49.1852,-0.00167111,0.0129765,0.00330304,0.0136869,-0.00238149,1.35895,0.0100133,0.0198789,1469,393,6.45718,49.1852
252,631,6.41626,-48.6875,-0.00139998,0.0144711,0.00373021,0.0153041,-0.00223297,1.35109,0.0110227,0.0189416,1476,393,6.41629,48.6875
259,631,6.36621,-48.1589,-0.00106557,0.0164025,0.00434456,0.0174234,-0.00208646,1.34,0.0123698,0.0133035,1483,393,6.36617,48.1589
266,631,6.33948,-47.6165,-0.00148007,0.0167902,0.00490619,0.0180243,-0.00271419,1.32437,0.0130156,0.0121825,1490,393,6.33943,47.6164
273,631,6.30579,-47.0524,-0.0015632,0.0178688,0.00560264,0.0193684,-0.00306282,1.30926,0.014045,0.0158034,1497,393,6.30583,47.0524
280,631,6.25928,-46.4321,-0.00164701,0.0187481,0.0063434,0.0205601,-0.00345898,1.29256,0.0149933,0.0157275,1504,393,6.25928,46.4321
287,631,6.1886,-45.8085,-0.00179806,0.0196844,0.00729684,0.0219285,-0.00404212,1.27244,0.016136,0.0176269,1511,393,6.18856,45.8085
294,631,6.08911,-45.1221,-0.00221291,0.0202776,0.00820743,0.0229542,-0.00488949,1.25555,0.0171663,0.0239991,1518,393,6.08917,45.1221
301,631,5.99304,-44.3859,-0.00271197,0.0206109,0.00911498,0.0237505,-0.00585162,1.23908,0.0181023,0.0376459,1525,393,5.99309,44.3859
308,631,6.32239,-43.4873,-0.00313518,0.0208902,0.0101203,0.024585,-0.00682998,1.22074,0.0190786,0.0427411,1532,393,6.32241,43.4873
315,631,6.30493,-43.3072,-0.00358842,0.0213316,0.0112323,0.025647,-0.00790385,1.20398,0.0202534,0.0445101,1539,393,6.30496,43.3072
322,631,6.02588,-42.7521,0,0,0,0,0,0,0,-1,1546,393,6.02591,42.7521
329,631,5.70972,-38.2651,0,0,0,0,0,0,0,-1,1553,393,5.70967,38.2651
336,631,5.38281,-39.6306,0,0,0,0,0,0,0,-1,1560,393,5.38277,39.6306
343,631,6.21558,-38.7278,0,0,0,0,0,0,0,-1,1567,393,6.21558,38.7278
350,631,5.18359,-35.9677,0,0,0,0,0,0,0,-1,1574,393,5.18355,35.9677
357,631,2.6449,-9.60303,0,0,0,0,0,0,0,-1,1581,393,2.64491,9.60304
364,631,3.39136,-5.7594,0,0,0,0,0,0,0,-1,1588,393,3.39137,5.75939
371,631,3.72839,-6.0574,0,0,0,0,0,0,0,-1,1595,393,3.72845,6.05742
378,631,4.06555,-6.35544,0,0,0,0,0,0,0,-1,1602,393,4.06553,6.35544
385,631,3.90442,-3.58298,0,0,0,0,0,0,0,-1,1609,393,3.90437,3.58299
392,631,0.352295,-2.21301,0,0,0,0,0,0,0,-1,1616,393,0.352345,2.213
399,631,0,0,0,0,0,0,0,0,0,-1,1623,393,0,0
406,631,0,0,0,0,0,0,0,0,0,-1,1630,393,0,0
413,631,0,0,0,0,0,0,0,0,0,-1,1637,393,0,0
420,631,0,0,0,0,0,0,0,0,0,-1,1644,393,0,0
427,631,0,0,0,0,0,0,0,0,0,-1,1651,393,0,0
434,631,0,0,0,0,0,0,0,0,0,-1,1658,393,0,0
441,631,0,0,0,0,0,0,0,0,0,-1,1665,393,0,0
448,631,0,0,0,0,0,0,0,0,0,-1,1672,393,0,0
455,631,0,0,0,0,0,0,0,0,0,-1,1679,393,0,0
462,631,0,0,0,0,0,0,0,0,0,-1,1686,393,0,0
469,631,0,0,0,0,0,0,0,0,0,-1,1693,393,0,0
476,631,0,0,0,0,0,0,0,0,0,-1,1700,393,0,0
483,631,0,0,0,0,0,0,0,0,0,-1,1707,393,0,0
490,631,0,0,0,0,0,0,0,0,0,-1,1714,393,0,0
497,631,0,0,0,0,0,0,0,0,0,-1,1721,393,0,0
504,631,0,0,0,0,0,0,0,0,0,-1,1728,393,0,0
511,631,0,0,0,0,0,0,0,0,0,-1,1735,393,0,0
518,631,0,0,0,0,0,0,0,0,0,-1,1742,393,0,0
525,631,0,0,0,0,0,0,0,0,0,-1,1749,393,0,0
532,631,0,0,0,0,0,0,0,0,0,-1,1756,393,0,0
539,631,0,0,0,0,0,0,0,0,0,-1,1763,393,0,0
546,631,0,0,0,0,0,0,0,0,0,-1,1770,393,0,0
553,631,0,0,0,0,0,0,0,0,0,-1,1777,393,0,0
560,631,0,0,0,0,0,0,0,0,0,-1,1784,393,0,0
567,631,0,0,0,0,0,0,0,0,0,-1,1791,393,0,0
574,631,0,0,0,0,0,0,0,0,0,-1,1798,393,0,0
581,631,0,0,0,0,0,0,0,0,0,-1,1805,393,0,0
588,631,0,0,0,0,0,0,0,0,0,-1,1812,393,0,0
595,631,0,0,0,0,0,0,0,0,0,-1,1819,393,0,0
602,631,0,0,0,0,0,0,0,0,0,-1,1826,393,0,0
609,631,0,0,0,0,0,0,0,0,0,-1,1833,393,0,0
616,631,0,0,0,0,0,0,0,0,0,-1,1840,393,0,0
623,631,0,0,0,0,0,0,0,0,0,-1,1847,393,0,0
630,631,0,0,0,0,0,0,0,0,0,-1,1854,393,0,0
637,631,0,0,0,0,0,0,0,0,0,-1,1861,393,0,0
644,631,0,0,0,0,0,0,0,0,0,-1,1868,393,0,0
651,631,0,0,0,0,0,0,0,0,0,-1,1875,393,0,0
658,631,0,0,0,0,0,0,0,0,0,-1,1882,393,0,0
665,631,0,0,0,0,0,0,0,0,0,-1,1889,393,0,0
672,631,0,0,0,0,0,0,0,0,0,-1,1896,393,0,0
679,631,0,0,0,0,0,0,0,0,0,-1,1903,393,0,0
686,631,0,0,0,0,0,0,0,0,0,-1,1910,393,0,0
693,631,0,0,0,0,0,0,0,0,0,-1,1917,393,0,0
700,631,0,0,0,0,0,0,0,0,0,-1,1924,393,0,0
707,631,0,0,0,0,0,0,0,0,0,-1,1931,393,0,0
714,631,0,0,0,0,0,0,0,0,0,-1,1938,393,0,0
721,631,0,0,0,0,0,0,0,0,0,-1,1945,393,0,0
728,631,0,0,0,0,0,0,0,0,0,-1,1952,393,0,0
735,631,0,0,0,0,0,0,0,0,0,-1,1959,393,0,0
742,631,0,0,0,0,0,0,0,0,0,-1,1966,393,0,0
749,631,0,0,0,0,0,0,0,0,0,-1,1973,393,0,0
756,631,0,0,0,0,0,0,0,0,0,-1,1980,393,0,0
763,631,0,0,0,0,0,0,0,0,0,-1,1987,393,0,0
770,631,0,0,0,0,0,0,0,0,0,-1,1994,393,0,0
777,631,0,0,0,0,0,0,0,0,0,-1,2001,393,0,0
784,631,0,0,0,0,0,0,0,0,0,-1,2008,393,0,0
791,631,0,0,0,0,0,0,0,0,0,-1,2015,393,0,0
798,631,0,0,0,0,0,0,0,0,0,-1,2022,393,0,0
805,631,0,0,0,0,0,0,0,0,0,-1,2029,393,0,0
812,631,0,0,0,0,0,0,0,0,0,-1,2036,393,0,0
-700,624,0,0,0,0,0,0,0,0,0,-1,524,400,0,0
-693,624,0,0,0,0,0,0,0,0,0,-1,531,400,0,0
-686,624,0,0,0,0,0,0,0,0,0,-1,538,400,0,0
-679,624,0,0,0,0,0,0,0,0,0,-1,545,400,0,0
-672,624,0,0,0,0,0,0,0,0,0,-1,552,400,0,0
-665,624,0,0,0,0,0,0,0,0,0,-1,559,400,0,0
-658,624,0,0,0,0,0,0,0,0,0,-1,566,400,0,0
-651,624,0,0,0,0,0,0,0,0,0,-1,573,400,0,0
-644,624,0,0,0,0,0,0,0,0,0,-1,580,400,0,0
-637,624,0,0,0,0,0,0,0,0,0,-1,587,400,0,0
-630,624,0,0,0,0,0,0,0,0,0,-1,594,400,0,0
-623,624,0,0,0,0,0,0,0,0,0,-1,601,400,0,0
-616,624,0,0,0,0,0,0,0,0,0,-1,608,400,0,0
-609,624,0,0,0,0,0,0,0,0,0,-1,615,400,0,0
-602,624,0,0,0,0,0,0,0,0,0,-1,622,400,0,0
-595,624,0,0,0,0,0,0,0,0,0,-1,629,400,0,0
-588,624,0,0,0,0,0,0,0,0,0,-1,636,400,0,0
-581,624,0,0,0,0,0,0,0,0,0,-1,643,400,0,0
-574,624,0,0,0,0,0,0,0,0,0,-1,650,400,0,0
-567,624,0,0,0,0,0,0,0,0,0,-1,657,400,0,0
-560,624,0,0,0,0,0,0,0,0,0,-1,664,400,0,0
-553,624,0,0,0,0,0,0,0,0,0,-1,671,400,0,0
-546,624,0,0,0,0,0,0,0,0,0,-1,678,400,0,0
-539,624,0,0,0,0,0,0,0,0,0,-1,685,400,0,0
-532,624,0,0,0,0,0,0,0,0,0,-1,692,400,0,0
-525,624,0,0,0,0,0,0,0,0,0,-1,699,400,0,0
-518,624,0,0,0,0,0,0,0,0,0,-1,706,400,0,0
-511,624,0,0,0,0,0,0,0,0,0,-1,713,400,0,0
-504,624,0,0,0,0,0,0,0,0,0,-1,720,400,0,0
-497,624,0,0,0,0,0,0,0,0,0,-1,727,400,0,0
-490,624,0,0,0,0,0,0,0,0,0,-1,734,400,0,0
-483,624,0,0,0,0,0,0,0,0,0,-1,741,400,0,0
-476,624,0,0,0,0,0,0,0,0,0,-1,748,400,0,0
-469,624,0,0,0,0,0,0,0,0,0,-1,755,400,0,0
-462,624,0,0,0,0,0,0,0,0,0,-1,762,400,0,0
-455,624,0,0,0,0,0,0,0,0,0,-1,769,400,0,0
-448,624,0,0,0,0,0,0,0,0,0,-1,776,400,0,0
-441,624,0,0,0,0,0,0,0,0,0,-1,783,400,0,0
-434,624,0,0,0,0,0,0,0,0,0,-1,790,400,0,0
-427,624,0,0,0,0,0,0,0,0,0,-1,797,400,0,0
-420,624,0,0,0,0,0,0,0,0,0,-1,804,400,0,0
-413,624,0,0,0,0,0,0,0,0,0,-1,811,400,0,0
-406,624,0,0,0,0,0,0,0,0,0,-1,818,400,0,0
-399,624,0,0,0,0,0,0,0,0,0,-1,825,400,0,0
-392,624,0,0,0,0,0,0,0,0,0,-1,832,400,0,0
-385,624,0,0,0,0,0,0,0,0,0,-1,839,400,0,0
-378,624,0,0,0,0,0,0,0,0,0,-1,846,400,0,0
-371,624,0,0,0,0,0,0,0,0,0,-1,853,400,0,0
-364,624,0,0,0,0,0,0,0,0,0,-1,860,400,0,0
-357,624,0,0,0,0,0,0,0,0,0,-1,867,400,0,0
-350,624,0,0,0,0,0,0,0,0,0,-1,874,400,0,0
-343,624,0,0,0,0,0,0,0,0,0,-1,881,400,0,0
-336,624,0,0,0,0,0,0,0,0,0,-1,888,400,0,0
-329,624,0,0,0,0,0,0,0,0,0,-1,895,400,0,0
-322,624,0,0,0,0,0,0,0,0,0,-1,902,400,0,0
-315,624,0,0,0,0,0,0,0,0,0,-1,909,400,0,0
-308,624,0,0,0,0,0,0,0,0,0,-1,916,400,0,0
-301,624,0,0,0,0,0,0,0,0,0,-1,923,400,0,0
-294,624,5.08527,-28.5311,0,0,0,0,0,0,0,-1,930,400,5.08525,28.5311
-287,624,6.70825,-33.8,0,0,0,0,0,0,0,-1,937,400,6.70827,33.8
-280,624,6.92474,-33.8738,0,0,0,0,0,0,0,-1,944,400,6.92477,33.8739
-273,624,8.617,-37.3463,0,0,0,0,0,0,0,-1,951,400,8.61697,37.3463
-266,624,7.71747,-37.0599,0,0,0,0,0,0,0,-1,958,400,7.7175,37.0599
-259,624,7.33569,-33.1199,0,0,0,0,0,0,0,-1,965,400,7.33567,33.1199
-252,624,7.5528,-32.8158,0,0,0,0,0,0,0,-1,972,400,7.5528,32.8158
-245,624,6.8396,-32.02,0,0,0,0,0,0,0,-1,979,400,6.83963,32.02
-238,624,6.99402,-31.5278,0,0,0,0,0,0,0,-1,986,400,6.99404,31.5278
-231,624,3.86121,-29.6032,0,0,0,0,0,0,0,-1,993,400,3.86122,29.6032
-224,624,4.59351,-27.4048,0,0,0,0,0,0,0,-1,1000,400,4.59353,27.4048
-217,624,5.90167,-32.048,0,0,0,0,0,0,0,-1,1007,400,5.90167,32.048
-210,624,6.83972,-41.72,0,0,0,0,0,0,0,-1,1014,400,6.83973,41.72
-203,624,6.77271,-42.2832,0,0,0,0,0,0,0,-1,1021,400,6.77272,42.2832
-196,624,6.61377,-42.942,0,0,0,0,0,0,0,-1,1028,400,6.61375,42.942
-189,624,6.45483,-43.6007,0,0,0,0,0,0,0,-1,1035,400,6.45477,43.6007
-182,624,6.47949,-44.2098,-0.0021688,0.0181467,-0.0106273,0.02269,-0.00671207,-1.1668,0.0177912,0.0461472,1042,400,6.47951,44.2098
-175,624,6.49158,-44.9355,-0.00217579,0.0166718,-0.00973307,0.0207958,-0.0062997,-1.17003,0.0163728,0.0276712,1049,400,6.49154,44.9355
-168,624,6.50415,-45.6692,-0.00221881,0.0148771,-0.00874202,0.0185558,-0.00589748,-1.17249,0.0147352,0.0198388,1056,400,6.50417,45.6692
-161,624,6.42859,-46.2917,-0.0021995,0.0133154,-0.00777919,0.016544,-0.00542813,-1.1774,0.0132157,0.0127032,1063,400,6.42864,46.2916
-154,624,6.39563,-46.8427,-0.00223311,0.0118373,-0.00685102,0.014622,-0.00501781,-1.18473,0.0117823,0.0117459,1070,400,6.39565,46.8426
-147,624,6.36169,-47.3908,-0.00224109,0.0104014,-0.00593743,0.0127526,-0.00459229,-1.19375,0.0103769,0.0124378,1077,400,6.36171,47.3908
-140,624,6.29858,-47.9319,-0.00213114,0.00898285,-0.00508726,0.0109598,-0.0041081,-1.20015,0.00899426,0.0107737,1084,400,6.29864,47.9319
-133,624,6.22461,-48.452,-0.00200947,0.00764423,-0.00433357,0.00930416,-0.0036694,-1.205,0.00772219,0.0120899,1091,400,6.22459,48.452
-126,624,6.19897,-48.9312,-0.00195116,0.00622897,-0.0035305,0.00754197,-0.00326415,-1.21475,0.0063998,0.0137756,1098,400,6.19901,48.9311
-119,624,6.17334,-49.4298,-0.00179681,0.00499033,-0.0028166,0.00600693,-0.0028134,-1.22442,0.00520249,0.0156,1105,400,6.17329,49.4298
-112,624,6.16345,-49.8989,-0.00156608,0.00411977,-0.00226205,0.0049099,-0.00235621,-1.23475,0.00428058,0.0173595,1112,400,6.1635,49.8989
-105,624,6.17358,-50.3784,-0.00129955,0.00342308,-0.00188735,0.00408466,-0.00196113,-1.23365,0.00356159,0.0140697,1119,400,6.17361,50.3783
-98,624,6.09229,-50.8293,-0.00100427,0.00278777,-0.00156243,0.00334859,-0.00156509,-1.22618,0.00289854,0.0147856,1126,400,6.09227,50.8292
-91,624,6.08887,-51.2887,-0.000667889,0.00229198,-0.00126338,0.0027579,-0.00113381,-1.21748,0.00231117,0.0208729,1133,400,6.08888,51.2887
-84,624,6.12585,-51.7431,-0.000238139,0.00163119,-0.000939536,0.00202179,-0.000628739,-1.1768,0.00159919,0.0193832,1140,400,6.1259,51.7431
-77,624,6.08887,-52.1191,0.000182628,0.00135093,-0.000735653,0.00170615,-0.000172592,-1.12095,0.00119911,0.0141051,1147,400,6.08881,52.1191
-70,624,6.09631,-52.4723,0.000578544,0.00116357,-0.000595469,0.00153449,0.00020762,-1.0137,0.00096129,0.0162197,1154,400,6.09627,52.4723
-63,624,6.11304,-52.879,0.00133619,0.000191966,-0.000309169,0.00141439,0.000113772,-0.247721,0.000907381,0.0177575,1161,400,6.11301,52.879
-56,624,6.04126,-53.2541,0.00226053,-0.00133916,-7.79561e-05,0.00226221,-0.00134084,-0.0216428,0.00210278,0.0146948,1168,400,6.04124,53.2541
-49,624,6.03992,-53.5938,0.00291846,-0.00251668,-2.85075e-05,0.00291861,-0.00251683,-0.00524484,0.00314101,0.0117378,1175,400,6.03995,53.5938
-42,624,6.05237,-53.87,0.0035021,-0.00399605,-0.000332633,0.00351682,-0.00401078,-0.0442461,0.00434918,0.0103724,1182,400,6.05232,53.87
-35,624,6.06226,-54.1497,0.00415549,-0.00525954,-0.000460327,0.00417795,-0.00528199,-0.0487379,0.00547408,0.0150979,1189,400,6.06231,54.1497
-28,624,6.07959,-54.4663,0.00464754,-0.00670946,-0.000707536,0.00469145,-0.00675337,-0.0619801,0.00664332,0.0196396,1196,400,6.07954,54.4663
-21,624,6.09241,-54.7119,0.00517955,-0.0074813,-0.00132588,0.00531691,-0.00761866,-0.103231,0.00750767,0.0145071,1203,400,6.09237,54.7119
-14,624,6.12341,-54.965,0.00571864,-0.00823907,-0.00204424,0.00601188,-0.00853231,-0.142474,0.00843902,0.0160412,1210,400,6.1234,54.965
-7,624,6.14185,-55.1821,0.0064434,-0.00845548,-0.00300417,0.00702635,-0.00903842,-0.191663,0.00929921,0.0206492,1217,400,6.14188,55.1821
0,624,6.17664,-55.3955,0.00724226,-0.00810336,-0.00401994,0.00823155,-0.00909265,-0.2413,0.0100062,0.0218865,1224,400,6.17669,55.3955
7,624,6.14453,-55.5576,0.00781438,-0.0076561,-0.00483925,0.00920341,-0.00904513,-0.279519,0.0105359,0.0163766,1231,400,6.14452,55.5576
14,624,6.25635,-55.755,0.00856588,-0.00682093,-0.00571551,0.0104566,-0.00871166,-0.319474,0.0110821,0.0137656,1238,400,6.25632,55.755
21,624,6.28113,-55.8755,0.00932856,-0.00592757,-0.00648119,0.0117102,-0.00830916,-0.352145,0.0116136,0.0155875,1245,400,6.2811,55.8756
28,624,6.29712,-55.9868,0.0100495,-0.00475931,-0.00719212,0.0129675,-0.0076773,-0.385428,0.012049,0.0147891,1252,400,6.29707,55.9867
35,624,6.33289,-56.0357,0.0106731,-0.00377555,-0.00762556,0.013953,-0.00705552,-0.406206,0.0123453,0.0173295,1259,400,6.33294,56.0357
42,624,6.37402,-56.1124,0.0110243,-0.00241245,-0.00802072,0.0147686,-0.00615679,-0.436765,0.0124177,0.0190198,1266,400,6.37407,56.1124
49,624,6.44678,-56.1693,0.0113591,-0.00106839,-0.00821996,0.0154497,-0.00515893,-0.461754,0.012383,0.0199634,1273,400,6.44682,56.1693
56,624,6.50574,-56.2455,0.0116789,-0.000327563,-0.00809999,0.0157578,-0.00440643,-0.466495,0.0122413,0.0200829,1280,400,6.50573,56.2455
63,624,6.56787,-56.2783,0.0120504,0.00072782,-0.00799506,0.0161856,-0.00340738,-0.477329,0.0120873,0.01694,1287,400,6.56786,56.2783
70,624,6.57117,-56.2809,0.0120958,0.00159335,-0.00816976,0.0165565,-0.00286728,-0.499762,0.0121071,0.0156572,1294,400,6.57111,56.2809
77,624,6.61133,-56.234,0.0122221,0.00303541,-0.00847053,0.0172645,-0.00200705,-0.536953,0.0122337,0.0160488,1301,400,6.61134,56.234
84,624,6.66028,-56.1735,0.0122579,0.00403948,-0.00884014,0.0178972,-0.00159984,-0.567838,0.0124989,0.0142371,1308,400,6.66032,56.1735
91,624,6.69531,-56.0721,0.012034,0.00485428,-0.00903282,0.0181641,-0.0012759,-0.596257,0.0125563,0.0142813,1315,400,6.6953,56.0721
98,624,6.72351,-55.9726,0.0117947,0.00556493,-0.00910838,0.0183061,-0.000946466,-0.620642,0.0125315,0.014113,1322,400,6.72356,55.9726
105,624,6.77649,-55.8975,0.0116562,0.00589143,-0.00908842,0.0183084,-0.000760727,-0.63184,0.0124669,0.0153742,1329,400,6.77645,55.8975
112,624,6.81421,-55.7826,0.0116361,0.006149,-0.00913756,0.0184331,-0.000648003,-0.639556,0.0125103,0.0156651,1336,400,6.81415,55.7826
119,624,6.8363,-55.6345,0.0113336,0.00595749,-0.00883677,0.0178821,-0.000591014,-0.637749,0.0121232,0.0165347,1343,400,6.83631,55.6345
126,624,6.8689,-55.4066,0.0109554,0.00578828,-0.00845786,0.0172155,-0.000471788,-0.637167,0.0116375,0.0196847,1350,400,6.86886,55.4066
133,624,6.92957,-55.1516,0.0103716,0.0052902,-0.0077809,0.0160161,-0.000354289,-0.627589,0.0107975,0.0204139,1357,400,6.92951,55.1516
140,624,6.93335,-54.9375,0.00956331,0.00479182,-0.00699533,0.0145685,-0.000213408,-0.621059,0.00978427,0.0207525,1364,400,6.93334,54.9375
147,624,6.89441,-54.6675,0.00854647,0.00403618,-0.00601082,0.0127113,-0.000128619,-0.605934,0.00851738,0.0246939,1371,400,6.89447,54.6675
154,624,7.03149,-54.4229,0.00734837,0.003216,-0.00490484,0.0106045,-4.00865e-05,-0.586051,0.00708304,0.0258617,1378,400,7.03154,54.4229
161,624,7.07153,-54.1339,0.00623097,0.00274963,-0.0038259,0.00869356,0.000287037,-0.571908,0.00570244,0.023498,1385,400,7.07159,54.1339
168,624,7.04834,-53.8047,0.00491516,0.00224347,-0.00260816,0.00650966,0.000648966,-0.548727,0.00414044,0.0232606,1392,400,7.04831,53.8047
175,624,7.07898,-53.5095,0.0037428,0.00194415,-0.001532,0.00461994,0.00106701,-0.519986,0.00279307,0.0184951,1399,400,7.07899,53.5095
182,624,7.06824,-53.1574,0.00273749,0.00183291,-0.000634675,0.00306454,0.00150586,-0.475824,0.0017694,0.0116754,1406,400,7.06828,53.1574
189,624,7.03772,-52.7807,0.00192366,0.00211682,0.000137606,0.00218836,0.00185212,1.09138,0.00136074,0.0109674,1413,400,7.03771,52.7807
196,624,7.02979,-52.3809,0.00146293,0.00301511,0.000477634,0.00315031,0.00132773,1.29495,0.0018263,0.0123502,1420,400,7.02981,52.3808
203,624,7.07117,-51.9525,0.000921853,0.00368612,0.000792963,0.00389744,0.000710536,1.31036,0.00239681,0.0154307,1427,400,7.07118,51.9524
210,624,7.06702,-51.5335,0.000285292,0.00414528,0.00106727,0.00442072,9.85223e-06,1.31823,0.00294387,0.0192788,1434,400,7.06706,51.5335
217,624,7.03394,-51.1141,-5.68736e-05,0.00503553,0.00131503,0.00535506,-0.000376406,1.33243,0.0037019,0.0221639,1441,400,7.03393,51.1141
224,624,7.03809,-50.675,-0.00025389,0.00603474,0.0015656,0.00640295,-0.000622097,1.33981,0.00449039,0.0169831,1448,400,7.03802,50.6751
231,624,7.00464,-50.1967,-0.00040085,0.00694459,0.00192527,0.00741862,-0.00087488,1.32938,0.00526168,0.0127016,1455,400,7.00459,50.1967
238,624,6.96826,-49.7341,-0.000526938,0.00793527,0.00226049,0.00850126,-0.00109292,1.32546,0.00606473,0.0188647,1462,400,6.96823,49.7341
245,624,6.95398,-49.2661,-0.000655305,0.00903609,0.00257572,0.00967812,-0.00129733,1.32651,0.00692515,0.0193983,1469,400,6.95393,49.2661
252,624,6.89368,-48.716,-0.00059674,0.0102727,0.00295338,0.0110234,-0.00134738,1.32191,0.00783674,0.0140128,1476,400,6.89364,48.716
259,624,6.84766,-48.1851,-0.000495346,0.0118343,0.00349195,0.0127546,-0.00141563,1.31311,0.00901209,0.00984161,1483,400,6.84769,48.1851
266,624,6.8479,-47.6222,-0.000869286,0.0123258,0.00398876,0.0134379,-0.00198133,1.29891,0.0096868,0.0136682,1490,400,6.84795,47.6222
273,624,6.82434,-47.0624,-0.00102107,0.0132963,0.00457313,0.0146324,-0.0023571,1.28656,0.0106281,0.017502,1497,400,6.82437,47.0624
280,624,6.76538,-46.5087,-0.00113736,0.0141451,0.00520298,0.0157483,-0.00274055,1.2719,0.0115216,0.0165836,1504,400,6.76541,46.5087
287,624,6.70361,-45.9529,-0.00126456,0.0150769,0.00600042,0.0170435,-0.00323118,1.25408,0.0125785,0.0125304,1511,400,6.70363,45.9529
294,624,6.64001,-45.3563,-0.00158769,0.0157433,0.00674424,0.0180585,-0.00390288,1.24012,0.0135289,0.0105844,1518,400,6.64007,45.3563
301,624,6.59827,-44.6899,-0.00194606,0.016235,0.00748039,0.0189171,-0.00462813,1.22653,0.0144041,0.0134383,1525,400,6.59829,44.6899
308,624,6.6084,-44.0035,-0.00220028,0.0167308,0.00829138,0.0198487,-0.0053182,1.21111,0.0153161,0.0204314,1532,400,6.60844,44.0035
315,624,6.56982,-43.3909,-0.0024712,0.0173493,0.00916536,0.0209378,-0.00605973,1.19761,0.016357,0.0239584,1539,400,6.5698,43.3909
322,624,6.49072,-42.7814,-0.00289314,0.0176455,0.0101247,0.0217972,-0.00704492,1.18164,0.0173629,0.0421096,1546,400,6.49069,42.7814
329,624,6.44788,-42.136,0,0,0,0,0,0,0,-1,1553,400,6.44794,42.1361
336,624,6.31409,-40.901,0,0,0,0,0,0,0,-1,1560,400,6.31403,40.901
343,624,6.53369,-39.5615,0,0,0,0,0,0,0,-1,1567,400,6.53364,39.5615
350,624,1.99194,-7.29742,0,0,0,0,0,0,0,-1,1574,400,1.99198,7.29741
357,624,2.64075,-3.13092,0,0,0,0,0,0,0,-1,1581,400,2.64076,3.13091
364,624,3.16565,-4.9458,0,0,0,0,0,0,0,-1,1588,400,3.16564,4.94579
371,624,3.37561,-5.23529,0,0,0,0,0,0,0,-1,1595,400,3.37563,5.23529
378,624,1.50439,-5.22165,0,0,0,0,0,0,0,-1,1602,400,1.50438,5.22164
385,624,1.2301,-10.5866,0,0,0,0,0,0,0,-1,1609,400,1.2301,10.5866
392,624,4.26819,-5.14236,0,0,0,0,0,0,0,-1,1616,400,4.26818,5.14236
399,624,2.22168,-9.19293,0,0,0,0,0,0,0,-1,1623,400,2.22173,9.19294
406,624,2.68213,-9.91171,0,0,0,0,0,0,0,-1,1630,400,2.68213,9.91171
413,624,0,0,0,0,0,0,0,0,0,-1,1637,400,0,0
420,624,0,0,0,0,0,0,0,0,0,-1,1644,400,0,0
427,624,0,0,0,0,0,0,0,0,0,-1,1651,400,0,0
434,624,0,0,0,0,0,0,0,0,0,-1,1658,400,0,0
441,624,0,0,0,0,0,0,0,0,0,-1,1665,400,0,0
448,624,0,0,0,0,0,0,0,0,0,-1,1672,400,0,0
455,624,0,0,0,0,0,0,0,0,0,-1,1679,400,0,0
462,624,0,0,0,0,0,0,0,0,0,-1,1686,400,0,0
469,624,0,0,0,0,0,0,0,0,0,-1,1693,400,0,0
476,624,0,0,0,0,0,0,0,0,0,-1,1700,400,0,0
483,624,0,0,0,0,0,0,0,0,0,-1,1707,400,0,0
490,624,0,0,0,0,0,0,0,0,0,-1,1714,400,0,0
497,624,0,0,0,0,0,0,0,0,0,-1,1721,400,0,0
504,624,0,0,0,0,0,0,0,0,0,-1,1728,400,0,0
511,624,0,0,0,0,0,0,0,0,0,-1,1735,400,0,0
518,624,0,0,0,0,0,0,0,0,0,-1,1742,400,0,0
525,624,0,0,0,0,0,0,0,0,0,-1,1749,400,0,0
532,624,0,0,0,0,0,0,0,0,0,-1,1756,400,0,0
539,624,0,0,0,0,0,0,0,0,0,-1,1763,400,0,0
546,624,0,0,0,0,0,0,0,0,0,-1,1770,400,0,0
553,624,0,0,0,0,0,0,0,0,0,-1,1777,400,0,0
560,624,0,0,0,0,0,0,0,0,0,-1,1784,400,0,0
567,624,0,0,0,0,0,0,0,0,0,-1,1791,400,0,0
574,624,0,0,0,0,0,0,0,0,0,-1,1798,400,0,0
581,624,0,0,0,0,0,0,0,0,0,-1,1805,400,0,0
588,624,0,0,0,0,0,0,0,0,0,-1,1812,400,0,0
595,624,0,0,0,0,0,0,0,0,0,-1,1819,400,0,0
602,624,0,0,0,0,0,0,0,0,0,-1,1826,400,0,0
609,624,0,0,0,0,0,0,0,0,0,-1,1833,400,0,0
616,624,0,0,0,0,0,0,0,0,0,-1,1840,400,0,0
623,624,0,0,0,0,0,0,0,0,0,-1,1847,400,0,0
630,624,0,0,0,0,0,0,0,0,0,-1,1854,400,0,0
637,624,0,0,0,0,0,0,0,0,0,-1,1861,400,0,0
644,624,0,0,0,0,0,0,0,0,0,-1,1868,400,0,0
651,624,0,0,0,0,0,0,0,0,0,-1,1875,400,0,0
658,624,0,0,0,0,0,0,0,0,0,-1,1882,400,0,0
665,624,0,0,0,0,0,0,0,0,0,-1,1889,400,0,0
672,624,0,0,0,0,0,0,0,0,0,-1,1896,400,0,0
679,624,0,0,0,0,0,0,0,0,0,-1,1903,400,0,0
686,624,0,0,0,0,0,0,0,0,0,-1,1910,400,0,0
693,624,0,0,0,0,0,0,0,0,0,-1,1917,400,0,0
700,624,0,0,0,0,0,0,0,0,0,-1,1924,400,0,0
707,624,0,0,0,0,0,0,0,0,0,-1,1931,400,0,0
714,624,0,0,0,0,0,0,0,0,0,-1,1938,400,0,0
721,624,0,0,0,0,0,0,0,0,0,-1,1945,400,0,0
728,624,0,0,0,0,0,0,0,0,0,-1,1952,400,0,0
735,624,0,0,0,0,0,0,0,0,0,-1,1959,400,0,0
742,624,0,0,0,0,0,0,0,0,0,-1,1966,400,0,0
749,624,0,0,0,0,0,0,0,0,0,-1,1973,400,0,0
756,624,0,0,0,0,0,0,0,0,0,-1,1980,400,0,0
763,624,0,0,0,0,0,0,0,0,0,-1,1987,400,0,0
770,624,0,0,0,0,0,0,0,0,0,-1,1994,400,0,0
777,624,0,0,0,0,0,0,0,0,0,-1,2001,400,0,0
784,624,0,0,0,0,0,0,0,0,0,-1,2008,400,0,0
791,624,0,0,0,0,0,0,0,0,0,-1,2015,400,0,0
798,624,0,0,0,0,0,0,0,0,0,-1,2022,400,0,0
805,624,0,0,0,0,0,0,0,0,0,-1,2029,400,0,0
812,624,0,0,0,0,0,0,0,0,0,-1,2036,400,0,0
-700,617,0,0,0,0,0,0,0,0,0,-1,524,407,0,0
-693,617,0,0,0,0,0,0,0,0,0,-1,531,407,0,0
-686,617,0,0,0,0,0,0,0,0,0,-1,538,407,0,0
-679,617,0,0,0,0,0,0,0,0,0,-1,545,407,0,0
-672,617,0,0,0,0,0,0,0,0,0,-1,552,407,0,0
-665,617,0,0,0,0,0,0,0,0,0,-1,559,407,0,0
-658,617,0,0,0,0,0,0,0,0,0,-1,566,407,0,0
-651,617,0,0,0,0,0,0,0,0,0,-1,573,407,0,0
-644,617,0,0,0,0,0,0,0,0,0,-1,580,407,0,0
-637,617,0,0,0,0,0,0,0,0,0,-1,587,407,0,0
-630,617,0,0,0,0,0,0,0,0,0,-1,594,407,0,0
-623,617,0,0,0,0,0,0,0,0,0,-1,601,407,0,0
-616,617,0,0,0,0,0,0,0,0,0,-1,608,407,0,0
-609,617,0,0,0,0,0,0,0,0,0,-1,615,407,0,0
-602,617,0,0,0,0,0,0,0,0,0,-1,622,407,0,0
-595,617,0,0,0,0,0,0,0,0,0,-1,629,407,0,0
-588,617,0,0,0,0,0,0,0,0,0,-1,636,407,0,0
-581,617,0,0,0,0,0,0,0,0,0,-1,643,407,0,0
-574,617,0,0,0,0,0,0,0,0,0,-1,650,407,0,0
-567,617,0,0,0,0,0,0,0,0,0,-1,657,407,0,0
-560,617,0,0,0,0,0,0,0,0,0,-1,664,407,0,0
-553,617,0,0,0,0,0,0,0,0,0,-1,671,407,0,0
-546,617,0,0,0,0,0,0,0,0,0,-1,678,407,0,0
-539,617,0,0,0,0,0,0,0,0,0,-1,685,407,0,0
-532,617,0,0,0,0,0,0,0,0,0,-1,692,407,0,0
-525,617,0,0,0,0,0,0,0,0,0,-1,699,407,0,0
-518,617,0,0,0,0,0,0,0,0,0,-1,706,407,0,0
-511,617,0,0,0,0,0,0,0,0,0,-1,713,407,0,0
-504,617,0,0,0,0,0,0,0,0,0,-1,720,407,0,0
-497,617,0,0,0,0,0,0,0,0,0,-1,727,407,0,0
-490,617,0,0,0,0,0,0,0,0,0,-1,734,407,0,0
-483,617,0,0,0,0,0,0,0,0,0,-1,741,407,0,0
-476,617,0,0,0,0,0,0,0,0,0,-1,748,407,0,0
-469,617,0,0,0,0,0,0,0,0,0,-1,755,407,0,0
-462,617,0,0,0,0,0,0,0,0,0,-1,762,407,0,0
-455,617,0,0,0,0,0,0,0,0,0,-1,769,407,0,0
-448,617,0,0,0,0,0,0,0,0,0,-1,776,407,0,0
-441,617,0,0,0,0,0,0,0,0,0,-1,783,407,0,0
-434,617,0,0,0,0,0,0,0,0,0,-1,790,407,0,0
-427,617,0,0,0,0,0,0,0,0,0,-1,797,407,0,0
-420,617,0,0,0,0,0,0,0,0,0,-1,804,407,0,0
-413,617,0,0,0,0,0,0,0,0,0,-1,811,407,0,0
-406,617,0,0,0,0,0,0,0,0,0,-1,818,407,0,0
-399,617,0,0,0,0,0,0,0,0,0,-1,825,407,0,0
-392,617,0,0,0,0,0,0,0,0,0,-1,832,407,0,0
-385,617,0,0,0,0,0,0,0,0,0,-1,839,407,0,0
-378,617,0,0,0,0,0,0,0,0,0,-1,846,407,0,0
-371,617,0,0,0,0,0,0,0,0,0,-1,853,407,0,0
-364,617,0,0,0,0,0,0,0,0,0,-1,860,407,0,0
-357,617,0,0,0,0,0,0,0,0,0,-1,867,407,0,0
-350,617,0,0,0,0,0,0,0,0,0,-1,874,407,0,0
-343,617,0,0,0,0,0,0,0,0,0,-1,881,407,0,0
-336,617,0,0,0,0,0,0,0,0,0,-1,888,407,0,0
-329,617,0,0,0,0,0,0,0,0,0,-1,895,407,0,0
-322,617,0,0,0,0,0,0,0,0,0,-1,902,407,0,0
-315,617,0,0,0,0,0,0,0,0,0,-1,909,407,0,0
-308,617,0,0,0,0,0,0,0,0,0,-1,916,407,0,0
-301,617,6.81897,-24.525,0,0,0,0,0,0,0,-1,923,407,6.81899,24.525
-294,617,6.19263,-26.917,0,0,0,0,0,0,0,-1,930,407,6.19261,26.917
-287,617,7.00409,-31.9773,0,0,0,0,0,0,0,-1,937,407,7.00406,31.9773
-280,617,9.1106,-36.5021,0,0,0,0,0,0,0,-1,944,407,9.11059,36.5021
-273,617,8.35004,-36.2751,0,0,0,0,0,0,0,-1,951,407,8.35003,36.2751
-266,617,7.61749,-36.1671,0,0,0,0,0,0,0,-1,958,407,7.61746,36.1671
-259,617,6.83643,-36.3605,0,0,0,0,0,0,0,-1,965,407,6.83643,36.3605
-252,617,6.02264,-36.5001,0,0,0,0,0,0,0,-1,972,407,6.02265,36.5001
-245,617,6.72626,-34.4465,0,0,0,0,0,0,0,-1,979,407,6.72627,34.4465
-238,617,5.6474,-34.6842,0,0,0,0,0,0,0,-1,986,407,5.64741,34.6842
-231,617,6.06177,-38.5319,0,0,0,0,0,0,0,-1,993,407,6.06177,38.5319
-224,617,6.24799,-40.1337,0,0,0,0,0,0,0,-1,1000,407,6.24796,40.1337
-217,617,6.2998,-41.1729,0,0,0,0,0,0,0,-1,1007,407,6.29981,41.1729
-210,617,6.25024,-41.9395,-0.00354764,0.0210021,-0.00964213,0.0243363,-0.00688184,-1.23787,0.0189396,0.0376725,1014,407,6.25025,41.9395
-203,617,6.19751,-42.6549,-0.00292526,0.0186943,-0.00920901,0.0220851,-0.00631609,-1.21799,0.0172193,0.0251731,1021,407,6.19756,42.6549
-196,617,6.06543,-43.2617,-0.00244468,0.0166149,-0.00874784,0.0200212,-0.00585095,-1.19947,0.0156663,0.0227316,1028,407,6.06545,43.2617
-189,617,6.02649,-43.8484,-0.00192338,0.0153201,-0.00860211,0.0188774,-0.00548075,-1.17867,0.0147552,0.0189355,1035,407,6.02646,43.8484
-182,617,6.02014,-44.4969,-0.00166608,0.0137757,-0.00800761,0.0171784,-0.00506877,-1.16898,0.0134637,0.0197685,1042,407,6.02015,44.4969
-175,617,6.00024,-45.0855,-0.00154115,0.0124711,-0.00730585,0.0155873,-0.00465733,-1.16763,0.0122429,0.0169287,1049,407,6.00028,45.0855
-168,617,5.95154,-45.7167,-0.00149076,0.0108447,-0.00649367,0.0136329,-0.00427896,-1.16523,0.0108012,0.0130313,1056,407,5.95156,45.7167
-161,617,5.89709,-46.331,-0.00141177,0.00945158,-0.00569873,0.0118926,-0.00385275,-1.1661,0.00947735,0.0124438,1063,407,5.89704,46.331
-154,617,5.86694,-46.8679,-0.00136259,0.00809958,-0.00490501,0.0101833,-0.00344637,-1.16907,0.00818328,0.0128649,1070,407,5.86691,46.8679
-147,617,5.82849,-47.3969,-0.00127162,0.00679315,-0.00413051,0.00853322,-0.00301169,-1.17209,0.0069149,0.0176363,1077,407,5.82845,47.3969
-140,617,5.77881,-47.9789,-0.00109017,0.00548338,-0.00339983,0.00692542,-0.00253221,-1.16964,0.00565333,0.0132155,1084,407,5.77875,47.9789
-133,617,5.73303,-48.4737,-0.000896331,0.00426912,-0.00274892,0.00545827,-0.00208548,-1.16252,0.00449815,0.0151092,1091,407,5.73297,48.4737
-126,617,5.71643,-48.9259,-0.000728794,0.00308085,-0.00209466,0.00400728,-0.00165522,-1.15438,0.00336194,0.0151023,1098,407,5.71647,48.9259
-119,617,5.67834,-49.4307,-0.000459979,0.00210367,-0.00152445,0.00281358,-0.00116989,-1.13498,0.00236422,0.0152663,1105,407,5.6784,49.4307
-112,617,5.6814,-49.9009,-0.000128709,0.00144966,-0.0010889,0.00200529,-0.000684336,-1.09897,0.00161407,0.0166482,1112,407,5.68143,49.9009
-105,617,5.67554,-50.3557,0.000220558,0.000966579,-0.000811184,0.0014864,-0.000299268,-1.0009,0.00110429,0.0176392,1119,407,5.67554,50.3558
-98,617,5.63989,-50.8302,0.000614996,0.000548148,-0.000581271,0.0011638,-6.5862e-07,-0.756679,0.000776088,0.0142934,1126,407,5.63994,50.8302
-91,617,5.65674,-51.2755,0.00109099,0.00030607,-0.000395522,0.00125572,0.000141338,-0.394642,0.000794237,0.0194442,1133,407,5.65669,51.2756
-84,617,5.7063,-51.7297,0.00168985,9.41274e-05,-0.000202627,0.00171517,6.87997e-05,-0.124352,0.00112122,0.0186896,1140,407,5.70626,51.7297
-77,617,5.70544,-52.0995,0.00230822,-7.47802e-05,-8.17929e-05,0.00231103,-7.75844e-05,-0.0342697,0.00156719,0.0146579,1147,407,5.70541,52.0995
-70,617,5.73071,-52.4901,0.00296937,-0.000164906,-4.76767e-05,0.00297009,-0.000165632,-0.0152067,0.00203752,0.0173218,1154,407,5.73077,52.4901
-63,617,5.77222,-52.887,0.00424303,-0.0021065,0.000295001,0.00425671,-0.00212017,0.0463273,0.00374994,0.0204382,1161,407,5.77226,52.887
-56,617,5.71594,-53.2255,0.00554178,-0.00440649,0.000190429,0.00554542,-0.00441013,0.0191326,0.00576028,0.0155379,1168,407,5.71599,53.2255
-49,617,5.72314,-53.565,0.00593522,-0.00567341,-0.000418762,0.0059503,-0.00568849,-0.0360109,0.00672023,0.012162,1175,407,5.7231,53.565
-42,617,5.75793,-53.8834,0.00611166,-0.00747614,-0.00166485,0.00631267,-0.00767715,-0.120158,0.00808982,0.0114011,1182,407,5.75787,53.8834
-35,617,5.80322,-54.1759,0.00660253,-0.0088746,-0.00228095,0.00693169,-0.00920376,-0.143317,0.00934654,0.0153687,1189,407,5.80325,54.1759
-28,617,5.80835,-54.4489,0.00689933,-0.0103513,-0.00316234,0.00746077,-0.0109127,-0.175709,0.0106702,0.0187412,1196,407,5.8084,54.4489
-21,617,5.86377,-54.6861,0.00726199,-0.010672,-0.00458686,0.00836705,-0.0117771,-0.236413,0.0116856,0.0145826,1203,407,5.86372,54.6861
-14,617,5.90247,-54.9157,0.00775587,-0.0111755,-0.00605585,0.00952729,-0.0129469,-0.284575,0.0130255,0.0162861,1210,407,5.90246,54.9157
-7,617,5.90393,-55.0944,0.00873839,-0.0110361,-0.00771422,0.0113918,-0.0136894,-0.331282,0.0145009,0.0194312,1217,407,5.90396,55.0943
0,617,5.96582,-55.2723,0.00998419,-0.0102147,-0.00937654,0.0136658,-0.0138963,-0.374149,0.0159132,0.0180432,1224,407,5.96577,55.2723
7,617,6.05444,-55.5685,0.0110794,-0.00930646,-0.010773,0.0157173,-0.0139443,-0.406529,0.0171353,0.0134736,1231,407,6.05446,55.5685
14,617,6.13416,-55.7721,0.0125212,-0.00795387,-0.0121874,0.0182004,-0.013633,-0.436065,0.0184419,0.015811,1238,407,6.13419,55.7721
21,617,6.1853,-55.8752,0.0139449,-0.00667573,-0.0133475,0.0205005,-0.0132313,-0.45654,0.0196252,0.0149362,1245,407,6.18528,55.8752
28,617,6.21716,-56.0138,0.0153363,-0.00507177,-0.0143627,0.0227507,-0.0124862,-0.476544,0.0206297,0.0132465,1252,407,6.21717,56.0138
35,617,6.18896,-56.1165,0.0166456,-0.00369444,-0.0150217,0.0246162,-0.011665,-0.487828,0.0213872,0.0156533,1259,407,6.18901,56.1165
42,617,6.3114,-56.1381,0.0176838,-0.00191805,-0.015679,0.0263731,-0.0106074,-0.506063,0.0219879,0.0225051,1266,407,6.31134,56.1381
49,617,6.40991,-56.1779,0.0186389,-0.00023551,-0.0159449,0.02773,-0.00932665,-0.51819,0.0222568,0.0221625,1273,407,6.40988,56.178
56,617,6.43628,-56.2269,0.0195519,0.000949862,-0.0158287,0.02861,-0.00810818,-0.519769,0.0222735,0.0158982,1280,407,6.43622,56.2269
63,617,6.4978,-56.2657,0.0203596,0.00238846,-0.0156054,0.0293815,-0.0066334,-0.52418,0.0221327,0.0122912,1287,407,6.49784,56.2658
70,617,6.56372,-56.2894,0.0204934,0.00348329,-0.015715,0.0298572,-0.00588055,-0.537365,0.022127,0.0181662,1294,407,6.56372,56.2894
77,617,6.6875,-56.2397,0.0207106,0.00530705,-0.0159756,0.030744,-0.00472634,-0.560787,0.0222395,0.0162149,1301,407,6.68752,56.2397
84,617,6.73657,-56.1668,0.0208117,0.00647925,-0.0162633,0.0314176,-0.00412672,-0.577878,0.0224475,0.0130506,1308,407,6.73652,56.1668
91,617,6.7738,-56.0802,0.0205144,0.00759006,-0.0163477,0.0316309,-0.00352639,-0.597176,0.0223556,0.0114948,1315,407,6.77382,56.0802
98,617,6.82739,-55.9867,0.0199792,0.00857652,-0.0163588,0.0316018,-0.00304599,-0.617721,0.0221531,0.0122693,1322,407,6.82737,55.9867
105,617,6.92285,-55.8902,0.0194876,0.00886589,-0.0162109,0.0312354,-0.00288187,-0.627102,0.0218477,0.0142771,1329,407,6.92289,55.8902
112,617,7.00537,-55.7511,0.0191905,0.00898491,-0.0161386,0.0310138,-0.00283843,-0.63228,0.021684,0.0174033,1336,407,7.00533,55.7511
119,617,7.04175,-55.5697,0.0185326,0.00847141,-0.0156038,0.0298967,-0.00289264,-0.62946,0.020962,0.0202072,1343,407,7.0417,55.5697
126,617,7.09827,-55.3762,0.0179148,0.00796492,-0.0150355,0.028777,-0.00289732,-0.625628,0.0202198,0.0229352,1350,407,7.09829,55.3762
133,617,7.12927,-55.1362,0.0170166,0.00683906,-0.0140122,0.0268355,-0.00297978,-0.61122,0.0189618,0.0209163,1357,407,7.12931,55.1362
140,617,7.19324,-54.9164,0.015712,0.00569001,-0.0128201,0.0244656,-0.00306364,-0.599093,0.0174216,0.0178399,1364,407,7.19326,54.9165
147,617,7.21265,-54.6546,0.0141424,0.00417626,-0.0113125,0.0215207,-0.00320204,-0.577938,0.015525,0.0207758,1371,407,7.21263,54.6546
154,617,7.29968,-54.4438,0.0123217,0.00258293,-0.00961495,0.01823,-0.00332535,-0.551005,0.0134,0.0242821,1378,407,7.29968,54.4438
161,617,7.34521,-54.2015,0.0105818,0.00129028,-0.00786113,0.0150673,-0.00319524,-0.518518,0.0112621,0.0238546,1385,407,7.34521,54.2015
168,617,7.38464,-53.8929,0.00862063,0.000119621,-0.00591654,0.0116552,-0.00291494,-0.47391,0.0089023,0.0214421,1392,407,7.38463,53.8929
175,617,7.4043,-53.5376,0.00687715,-0.000802614,-0.0041619,0.00869997,-0.00262543,-0.41281,0.00684506,0.0185144,1399,407,7.40426,53.5376
182,617,7.43237,-53.1615,0.00538877,-0.00160675,-0.00259102,0.0062439,-0.00246188,-0.318782,0.00518197,0.0122273,1406,407,7.43239,53.1615
189,617,7.43152,-52.8009,0.00414633,-0.00180516,-0.00114554,0.00435921,-0.00201804,-0.183737,0.0037637,0.0120003,1413,407,7.4315,52.8009
196,617,7.4165,-52.4135,0.00353659,-0.000559049,-0.000736421,0.00366498,-0.000687438,-0.172606,0.00270177,0.0169039,1420,407,7.41647,52.4135
203,617,7.41626,-52.0013,0.00290327,0.000303483,-0.000357112,0.00295143,0.000255322,-0.134055,0.00188827,0.0172414,1427,407,7.4163,52.0013
210,617,7.44434,-51.5566,0.00215632,0.0011974,4.4981e-05,0.00215842,0.0011953,0.0467713,0.00124857,0.0159191,1434,407,7.44433,51.5566
217,617,7.47156,-51.1154,0.00164518,0.00207306,0.000409434,0.00232108,0.00139716,1.02615,0.00134933,0.0199667,1441,407,7.47151,51.1154
224,617,7.48804,-50.6958,0.00123871,0.00296797,0.000729247,0.00323444,0.000972239,1.22047,0.00191627,0.0192912,1448,407,7.48806,50.6958
231,617,7.46265,-50.2108,0.000900451,0.00380227,0.00114627,0.00420043,0.000502288,1.23648,0.00264878,0.0150937,1455,407,7.46269,50.2108
238,617,7.45398,-49.7431,0.000666387,0.00463835,0.00149192,0.0051363,0.000168432,1.24865,0.00336946,0.0166198,1462,407,7.45401,49.7431
245,617,7.46765,-49.2779,0.000455214,0.00556992,0.00178578,0.00613171,-0.000106579,1.26601,0.00412379,0.0138357,1469,407,7.46768,49.2779
252,617,7.4259,-48.7253,0.000335018,0.00661809,0.00210375,0.00725743,-0.000304319,1.27576,0.00494285,0.0145983,1476,407,7.42596,48.7253
259,617,7.36633,-48.176,0.000239353,0.00787251,0.00255266,0.00864749,-0.000535619,1.27605,0.00595157,0.0123684,1483,407,7.36631,48.176
266,617,7.33386,-47.6201,-0.000107744,0.00845856,0.00297965,0.00939304,-0.00104223,1.26689,0.00663677,0.0142598,1490,407,7.33389,47.6201
273,617,7.32922,-47.0513,-0.00032114,0.00936552,0.00346119,0.0104751,-0.00143077,1.26056,0.00750595,0.0150558,1497,407,7.32925,47.0513
280,617,7.28308,-46.5087,-0.000483432,0.0102047,0.00399055,0.0115302,-0.00180897,1.25009,0.00835533,0.0139747,1504,407,7.2831,46.5087
287,617,7.24756,-45.9468,-0.000622899,0.0111285,0.00464972,0.0127457,-0.00224011,1.23608,0.00933389,0.0130016,1511,407,7.24752,45.9468
294,617,7.21082,-45.3475,-0.000909342,0.0118606,0.00525833,0.0137471,-0.00279588,1.22633,0.0102249,0.0105318,1518,407,7.21084,45.3475
301,617,7.16687,-44.742,-0.00120698,0.0124796,0.00585982,0.0146456,-0.00337303,1.21673,0.0110609,0.00858958,1525,407,7.1669,44.742
308,617,7.11255,-44.1317,-0.00139575,0.0131362,0.00652155,0.0156336,-0.00389324,1.20507,0.0119338,0.00932111,1532,407,7.11256,44.1317
315,617,7.05066,-43.5263,-0.0015958,0.0138758,0.00721668,0.0167193,-0.00443938,1.19545,0.0128835,0.0109729,1539,407,7.05061,43.5263
322,617,7.00146,-42.8753,-0.00191012,0.0144469,0.00795396,0.0176769,-0.0051401,1.18506,0.0138203,0.0163846,1546,407,7.00149,42.8753
329,617,6.9718,-42.1782,-0.00215256,0.0151422,0.00868171,0.0187484,-0.00575872,1.17711,0.0147969,0.0227879,1553,407,6.97175,42.1782
336,617,7.00964,-41.3227,-0.00208841,0.0164696,0.00960962,0.0205489,-0.00616772,1.16935,0.0161526,0.0451129,1560,407,7.00968,41.3227
343,617,7.00171,-40.736,0,0,0,0,0,0,0,-1,1567,407,7.00167,40.736
350,617,6.69165,-40.1693,0,0,0,0,0,0,0,-1,1574,407,6.69171,40.1693
357,617,6.7218,-39.1327,0,0,0,0,0,0,0,-1,1581,407,6.72177,39.1327
364,617,2.30127,-7.60257,0,0,0,0,0,0,0,-1,1588,407,2.30125,7.60258
371,617,2.60266,-6.20667,0,0,0,0,0,0,0,-1,1595,407,2.60261,6.20668
378,617,1.56921,-10.3601,0,0,0,0,0,0,0,-1,1602,407,1.56918,10.3601
385,617,1.74146,-10.3561,0,0,0,0,0,0,0,-1,1609,407,1.7414,10.3561
392,617,1.96936,-5.10449,0,0,0,0,0,0,0,-1,1616,407,1.96931,5.10451
399,617,2.48889,-5.81256,0,0,0,0,0,0,0,-1,1623,407,2.48888,5.81255
406,617,3.01465,-6.51642,0,0,0,0,0,0,0,-1,1630,407,3.01461,6.51643
413,617,3.6427,-7.2074,0,0,0,0,0,0,0,-1,1637,407,3.64274,7.20739
420,617,3.42737,-4.47391,0,0,0,0,0,0,0,-1,1644,407,3.42737,4.47391
427,617,0,0,0,0,0,0,0,0,0,-1,1651,407,0,0
434,617,0,0,0,0,0,0,0,0,0,-1,1658,407,0,0
441,617,0,0,0,0,0,0,0,0,0,-1,1665,407,0,0
448,617,0,0,0,0,0,0,0,0,0,-1,1672,407,0,0
455,617,0,0,0,0,0,0,0,0,0,-1,1679,407,0,0
462,617,0,0,0,0,0,0,0,0,0,-1,1686,407,0,0
469,617,0,0,0,0,0,0,0,0,0,-1,1693,407,0,0
476,617,0,0,0,0,0,0,0,0,0,-1,1700,407,0,0
483,617,0,0,0,0,0,0,0,0,0,-1,1707,407,0,0
490,617,0,0,0,0,0,0,0,0,0,-1,1714,407,0,0
497,617,0,0,0,0,0,0,0,0,0,-1,1721,407,0,0
504,617,0,0,0,0,0,0,0,0,0,-1,1728,407,0,0
511,617,0,0,0,0,0,0,0,0,0,-1,1735,407,0,0
518,617,0,0,0,0,0,0,0,0,0,-1,1742,407,0,0
525,617,0,0,0,0,0,0,0,0,0,-1,1749,407,0,0
532,617,0,0,0,0,0,0,0,0,0,-1,1756,407,0,0
539,617,0,0,0,0,0,0,0,0,0,-1,1763,407,0,0
546,617,0,0,0,0,0,0,0,0,0,-1,1770,407,0,0
553,617,0,0,0,0,0,0,0,0,0,-1,1777,407,0,0
560,617,0,0,0,0,0,0,0,0,0,-1,1784,407,0,0
567,617,0,0,0,0,0,0,0,0,0,-1,1791,407,0,0
574,617,0,0,0,0,0,0,0,0,0,-1,1798,407,0,0
581,617,0,0,0,0,0,0,0,0,0,-1,1805,407,0,0
588,617,0,0,0,0,0,0,0,0,0,-1,1812,407,0,0
595,617,0,0,0,0,0,0,0,0,0,-1,1819,407,0,0
602,617,0,0,0,0,0,0,0,0,0,-1,1826,407,0,0
609,617,0,0,0,0,0,0,0,0,0,-1,1833,407,0,0
616,617,0,0,0,0,0,0,0,0,0,-1,1840,407,0,0
623,617,0,0,0,0,0,0,0,0,0,-1,1847,407,0,0
630,617,0,0,0,0,0,0,0,0,0,-1,1854,407,0,0
637,617,0,0,0,0,0,0,0,0,0,-1,1861,407,0,0
644,617,0,0,0,0,0,0,0,0,0,-1,1868,407,0,0
651,617,0,0,0,0,0,0,0,0,0,-1,1875,407,0,0
658,617,0,0,0,0,0,0,0,0,0,-1,1882,407,0,0
665,617,0,0,0,0,0,0,0,0,0,-1,1889,407,0,0
672,617,0,0,0,0,0,0,0,0,0,-1,1896,407,0,0
679,617,0,0,0,0,0,0,0,0,0,-1,1903,407,0,0
686,617,0,0,0,0,0,0,0,0,0,-1,1910,407,0,0
693,617,0,0,0,0,0,0,0,0,0,-1,1917,407,0,0
700,617,0,0,0,0,0,0,0,0,0,-1,1924,407,0,0
707,617,0,0,0,0,0,0,0,0,0,-1,1931,407,0,0
714,617,0,0,0,0,0,0,0,0,0,-1,1938,407,0,0
721,617,0,0,0,0,0,0,0,0,0,-1,1945,407,0,0
728,617,0,0,0,0,0,0,0,0,0,-1,1952,407,0,0
735,617,0,0,0,0,0,0,0,0,0,-1,1959,407,0,0
742,617,0,0,0,0,0,0,0,0,0,-1,1966,407,0,0
749,617,0,0,0,0,0,0,0,0,0,-1,1973,407,0,0
756,617,0,0,0,0,0,0,0,0,0,-1,1980,407,0,0
763,617,0,0,0,0,0,0,0,0,0,-1,1987,407,0,0
770,617,0,0,0,0,0,0,0,0,0,-1,1994,407,0,0
777,617,0,0,0,0,0,0,0,0,0,-1,2001,407,0,0
784,617,0,0,0,0,0,0,0,0,0,-1,2008,407,0,0
791,617,0,0,0,0,0,0,0,0,0,-1,2015,407,0,0
798,617,0,0,0,0,0,0,0,0,0,-1,2022,407,0,0
805,617,0,0,0,0,0,0,0,0,0,-1,2029,407,0,0
812,617,0,0,0,0,0,0,0,0,0,-1,2036,407,0,0
-700,610,0,0,0,0,0,0,0,0,0,-1,524,414,0,0
-693,610,0,0,0,0,0,0,0,0,0,-1,531,414,0,0
-686,610,0,0,0,0,0,0,0,0,0,-1,538,414,0,0
-679,610,0,0,0,0,0,0,0,0,0,-1,545,414,0,0
-672,610,0,0,0,0,0,0,0,0,0,-1,552,414,0,0
-665,610,0,0,0,0,0,0,0,0,0,-1,559,414,0,0
-658,610,0,0,0,0,0,0,0,0,0,-1,566,414,0,0
-651,610,0,0,0,0,0,0,0,0,0,-1,573,414,0,0
-644,610,0,0,0,0,0,0,0,0,0,-1,580,414,0,0
-637,610,0,0,0,0,0,0,0,0,0,-1,587,414,0,0
-630,610,0,0,0,0,0,0,0,0,0,-1,594,414,0,0
-623,610,0,0,0,0,0,0,0,0,0,-1,601,414,0,0
-616,610,0,0,0,0,0,0,0,0,0,-1,608,414,0,0
-609,610,0,0,0,0,0,0,0,0,0,-1,615,414,0,0
-602,610,0,0,0,0,0,0,0,0,0,-1,622,414,0,0
-595,610,0,0,0,0,0,0,0,0,0,-1,629,414,0,0
-588,610,0,0,0,0,0,0,0,0,0,-1,636,414,0,0
-581,610,0,0,0,0,0,0,0,0,0,-1,643,414,0,0
-574,610,0,0,0,0,0,0,0,0,0,-1,650,414,0,0
-567,610,0,0,0,0,0,0,0,0,0,-1,657,414,0,0
-560,610,0,0,0,0,0,0,0,0,0,-1,664,414,0,0
-553,610,0,0,0,0,0,0,0,0,0,-1,671,414,0,0
-546,610,0,0,0,0,0,0,0,0,0,-1,678,414,0,0
-539,610,0,0,0,0,0,0,0,0,0,-1,685,414,0,0
-532,610,0,0,0,0,0,0,0,0,0,-1,692,414,0,0
-525,610,0,0,0,0,0,0,0,0,0,-1,699,414,0,0
-518,610,0,0,0,0,0,0,0,0,0,-1,706,414,0,0
-511,610,0,0,0,0,0,0,0,0,0,-1,713,414,0,0
-504,610,0,0,0,0,0,0,0,0,0,-1,720,414,0,0
-497,610,0,0,0,0,0,0,0,0,0,-1,727,414,0,0
-490,610,0,0,0,0,0,0,0,0,0,-1,734,414,0,0
-483,610,0,0,0,0,0,0,0,0,0,-1,741,414,0,0
-476,610,0,0,0,0,0,0,0,0,0,-1,748,414,0,0
-469,610,0,0,0,0,0,0,0,0,0,-1,755,414,0,0
-462,610,0,0,0,0,0,0,0,0,0,-1,762,414,0,0
-455,610,0,0,0,0,0,0,0,0,0,-1,769,414,0,0
-448,610,0,0,0,0,0,0,0,0,0,-1,776,414,0,0
-441,610,0,0,0,0,0,0,0,0,0,-1,783,414,0,0
-434,610,0,0,0,0,0,0,0,0,0,-1,790,414,0,0
-427,610,0,0,0,0,0,0,0,0,0,-1,797,414,0,0
-420,610,0,0,0,0,0,0,0,0,0,-1,804,414,0,0
-413,610,0,0,0,0,0,0,0,0,0,-1,811,414,0,0
-406,610,0,0,0,0,0,0,0,0,0,-1,818,414,0,0
-399,610,0,0,0,0,0,0,0,0,0,-1,825,414,0,0
-392,610,0,0,0,0,0,0,0,0,0,-1,832,414,0,0
-385,610,0,0,0,0,0,0,0,0,0,-1,839,414,0,0
-378,610,0,0,0,0,0,0,0,0,0,-1,846,414,0,0
-371,610,0,0,0,0,0,0,0,0,0,-1,853,414,0,0
-364,610,0,0,0,0,0,0,0,0,0,-1,860,414,0,0
-357,610,0,0,0,0,0,0,0,0,0,-1,867,414,0,0
-350,610,0,0,0,0,0,0,0,0,0,-1,874,414,0,0
-343,610,0,0,0,0,0,0,0,0,0,-1,881,414,0,0
-336,610,0,0,0,0,0,0,0,0,0,-1,888,414,0,0
-329,610,0,0,0,0,0,0,0,0,0,-1,895,414,0,0
-322,610,0,0,0,0,0,0,0,0,0,-1,902,414,0,0
-315,610,7.68475,-21.5402,0,0,0,0,0,0,0,-1,909,414,7.68475,21.5402
-308,610,3.97211,-23.4133,0,0,0,0,0,0,0,-1,916,414,3.9721,23.4133
-301,610,7.38513,-22.4166,0,0,0,0,0,0,0,-1,923,414,7.38516,22.4166
-294,610,6.77832,-24.1945,0,0,0,0,0,0,0,-1,930,414,6.77829,24.1946
-287,610,3.39276,-28.5804,0,0,0,0,0,0,0,-1,937,414,3.39276,28.5803
-280,610,8.8728,-35.4336,0,0,0,0,0,0,0,-1,944,414,8.87283,35.4336
-273,610,8.14722,-35.5264,0,0,0,0,0,0,0,-1,951,414,8.14723,35.5264
-266,610,7.38361,-35.6366,0,0,0,0,0,0,0,-1,958,414,7.38359,35.6366
-259,610,6.47375,-35.762,0,0,0,0,0,0,0,-1,965,414,6.47373,35.762
-252,610,5.65308,-35.8931,0,0,0,0,0,0,0,-1,972,414,5.65305,35.8931
-245,610,6.73578,-38.6688,0,0,0,0,0,0,0,-1,979,414,6.73577,38.6688
-238,610,5.87726,-39.2005,0,0,0,0,0,0,0,-1,986,414,5.87726,39.2005
-231,610,5.75598,-39.6461,0,0,0,0,0,0,0,-1,993,414,5.75596,39.6461
-224,610,5.70837,-40.4491,-0.00434799,0.0201725,-0.00779634,0.0224414,-0.0066169,-1.2876,0.0175865,0.0342467,1000,414,5.70836,40.4491
-217,610,5.68646,-41.3075,-0.00345005,0.0181563,-0.00770581,0.0206229,-0.0059167,-1.261,0.0160877,0.0227736,1007,414,5.68647,41.3075
-210,610,5.64038,-42.049,-0.00273517,0.0162631,-0.00741591,0.018815,-0.00528716,-1.23937,0.0146278,0.0155803,1014,414,5.6404,42.049
-203,610,5.63049,-42.7148,-0.00216821,0.0143733,-0.0070079,0.016943,-0.00473794,-1.21933,0.013162,0.0177424,1021,414,5.63044,42.7148
-196,610,5.57202,-43.3319,-0.00172064,0.0125944,-0.00657936,0.0151589,-0.00428516,-1.19913,0.0117967,0.0161977,1028,414,5.57199,43.3319
-189,610,5.50586,-43.9451,-0.00122794,0.0112882,-0.0064073,0.0139865,-0.00392627,-1.17221,0.010872,0.0130101,1035,414,5.5058,43.9451
-182,610,5.46631,-44.5271,-0.000945168,0.00981271,-0.00586373,0.0123909,-0.00352339,-1.15655,0.00965188,0.0145119,1042,414,5.46626,44.5271
-175,610,5.44214,-45.1025,-0.000774036,0.0084573,-0.00521216,0.0108037,-0.00312048,-1.14779,0.00843725,0.0154606,1049,414,5.44218,45.1025
-168,610,5.38477,-45.7132,-0.000683963,0.00687242,-0.00448123,0.00895564,-0.00276719,-1.13564,0.00707555,0.0138445,1056,414,5.3848,45.7132
-161,610,5.35999,-46.3436,-0.000587878,0.00552749,-0.00376755,0.00732201,-0.0023824,-1.12628,0.00583977,0.0125986,1063,414,5.35998,46.3436
-154,610,5.34863,-46.8687,-0.000497467,0.00420385,-0.00303875,0.00569501,-0.00198863,-1.1146,0.00460498,0.0150526,1070,414,5.34861,46.8688
-147,610,5.32935,-47.3708,-0.00034773,0.00294658,-0.00233938,0.00416051,-0.00156166,-1.09213,0.00341539,0.0169442,1077,414,5.32935,47.3708
-140,610,5.28906,-47.9311,-0.000130305,0.00168974,-0.00167813,0.00268872,-0.00112928,-1.03385,0.00226478,0.0134357,1084,414,5.28909,47.9311
-133,610,5.25696,-48.4384,0.000104588,0.000558823,-0.00108938,0.00144451,-0.000781101,-0.888168,0.00130385,0.0147854,1091,414,5.257,48.4383
-126,610,5.23413,-48.9158,0.000358223,-0.000431729,-0.000546568,0.000637593,-0.000711099,-0.472516,0.000779053,0.0141229,1098,414,5.23408,48.9158
-119,610,5.22839,-49.4082,0.000732729,-0.00117923,-9.88704e-05,0.000737828,-0.00118433,-0.0515283,0.00111969,0.0121019,1105,414,5.22841,49.4082
-112,610,5.22803,-49.873,0.00115328,-0.00161926,0.000227169,0.00117177,-0.00163775,0.0812135,0.0016295,0.0200025,1112,414,5.22798,49.873
-105,610,5.20972,-50.3356,0.00157693,-0.00186947,0.000411181,0.00162531,-0.00191785,0.117117,0.00204797,0.0197614,1119,414,5.20976,50.3356
-98,610,5.22009,-50.7959,0.00206786,-0.00205473,0.000551376,0.00214033,-0.0021272,0.130685,0.00246386,0.0146365,1126,414,5.22003,50.7959
-91,610,5.22961,-51.2575,0.00269514,-0.00200442,0.000610872,0.00277325,-0.00208253,0.12717,0.00281292,0.0159279,1133,414,5.22962,51.2575
-84,610,5.26917,-51.6855,0.00348593,-0.00173072,0.000663865,0.00356909,-0.00181388,0.124613,0.00316245,0.0153964,1140,414,5.26922,51.6855
-77,610,5.28088,-52.1235,0.00433796,-0.0017053,0.000683522,0.00441431,-0.00178164,0.111233,0.0036833,0.0125712,1147,414,5.28089,52.1235
-70,610,5.31641,-52.5377,0.00530062,-0.00145479,0.000551717,0.00534538,-0.00149956,0.0809555,0.00415465,0.0159514,1154,414,5.31638,52.5377
-63,610,5.34436,-52.8881,0.00759635,-0.00364703,0.000501435,0.00761867,-0.00366935,0.0444805,0.00664877,0.0161644,1161,414,5.34439,52.8881
-56,610,5.3833,-53.1908,0.00970203,-0.00566891,-0.000736422,0.00973724,-0.00570412,-0.0477642,0.00901586,0.0144618,1168,414,5.38325,53.1908
-49,610,5.39355,-53.5126,0.00992818,-0.00660151,-0.00231969,0.0102475,-0.00692087,-0.136815,0.00997403,0.0135541,1175,414,5.39353,53.5126
-42,610,5.42004,-53.8416,0.00940591,-0.00818798,-0.00479524,0.010628,-0.00941004,-0.249538,0.0115761,0.015575,1182,414,5.42006,53.8416
-35,610,5.48547,-54.1596,0.00948167,-0.00941144,-0.00597369,0.011212,-0.0111418,-0.28194,0.012906,0.0162721,1189,414,5.48545,54.1596
-28,610,5.53369,-54.4306,0.00944105,-0.010624,-0.00751433,0.0119431,-0.0131261,-0.321429,0.0144791,0.0140653,1196,414,5.53367,54.4306
-21,610,5.59485,-54.6637,0.00957859,-0.0105061,-0.00963107,0.0134505,-0.014378,-0.382248,0.0160698,0.0122206,1203,414,5.5949,54.6637
-14,610,5.64233,-54.8901,0.00986611,-0.0109437,-0.0116826,0.0151056,-0.0161832,-0.421591,0.0180681,0.0137258,1210,414,5.64234,54.8901
-7,610,5.71484,-55.066,0.0107961,-0.010739,-0.013842,0.0175654,-0.0175083,-0.454842,0.0202498,0.0159398,1217,414,5.71478,55.066
0,610,5.77783,-55.2848,0.0121476,-0.00990804,-0.0158726,0.0204473,-0.0182078,-0.481795,0.02233,0.0139808,1224,414,5.77786,55.2848
7,610,5.86914,-55.5426,0.0134579,-0.0089798,-0.0176153,0.0231236,-0.0186455,-0.50185,0.0241615,0.0159023,1231,414,5.8691,55.5426
14,610,6.06311,-55.6629,0.0153024,-0.00759891,-0.0193342,0.0263224,-0.0186189,-0.518048,0.0260736,0.0226585,1238,414,6.06314,55.6629
21,610,6.11755,-55.7502,0.0172031,-0.006312,-0.0207542,0.0292988,-0.0184077,-0.527682,0.0277816,0.0230146,1245,414,6.11759,55.7502
28,610,6.05627,-55.9044,0.019177,-0.00459057,-0.0219992,0.032297,-0.0177106,-0.537758,0.0292784,0.0195235,1252,414,6.05626,55.9044
35,610,6.18713,-56.0228,0.021183,-0.00303364,-0.0228841,0.0349647,-0.0168153,-0.542064,0.0305012,0.0216147,1259,414,6.18715,56.0228
42,610,6.3009,-56.0792,0.0230257,-0.00095422,-0.023864,0.0377425,-0.015671,-0.552604,0.0317038,0.0199179,1266,414,6.30085,56.0792
49,610,6.37891,-56.1962,0.0247942,0.00101361,-0.0242695,0.0399297,-0.0141218,-0.55762,0.0323706,0.0196214,1273,414,6.37895,56.1962
56,610,6.46643,-56.2025,0.0265588,0.00272208,-0.0242611,0.041671,-0.0123901,-0.557085,0.0327026,0.018509,1280,414,6.46643,56.2024
63,610,6.43323,-56.1597,0.0283099,0.00467466,-0.024148,0.0433769,-0.0103923,-0.557839,0.0329332,0.0280816,1287,414,6.43319,56.1597
70,610,6.60693,-56.1685,0.0291052,0.00627374,-0.0243895,0.0446183,-0.00923944,-0.566513,0.033256,0.0398647,1294,414,6.6069,56.1685
77,610,6.79712,-56.0403,0.0298371,0.00869663,-0.0247726,0.0462003,-0.00766657,-0.583747,0.0336481,0.0424663,1301,414,6.79717,56.0403
84,610,6.80298,-56.0789,0.0303116,0.0103039,-0.0251456,0.0473702,-0.00675475,-0.596078,0.0340558,0.0386652,1308,414,6.80293,56.0789
91,610,6.87769,-56.1366,0.0302876,0.0120284,-0.0252394,0.0479979,-0.00568184,-0.61186,0.0340509,0.0312315,1315,414,6.87771,56.1366
98,610,7.02039,-56.0416,0.0298156,0.0135834,-0.0252699,0.0482408,-0.00484173,-0.630013,0.0338899,0.0276363,1322,414,7.02043,56.0416
105,610,7.10791,-55.876,0.0291153,0.0141373,-0.0251186,0.0478375,-0.0045849,-0.640521,0.0335246,0.0230722,1329,414,7.10793,55.876
112,610,7.16968,-55.6862,0.0285941,0.0143269,-0.02499,0.0474487,-0.00452771,-0.646366,0.0332446,0.0151385,1336,414,7.16973,55.6862
119,610,7.23767,-55.5228,0.0276146,0.0137007,-0.0242764,0.0459113,-0.00459593,-0.645852,0.0322488,0.020493,1343,414,7.23763,55.5228
126,610,7.34155,-55.3235,0.0267525,0.0130262,-0.023513,0.0443835,-0.00460486,-0.643399,0.0312373,0.0295099,1350,414,7.3415,55.3235
133,610,7.3877,-55.1196,0.0255129,0.0113289,-0.0220967,0.0416278,-0.00478604,-0.630115,0.029477,0.0242455,1357,414,7.38769,55.1196
140,610,7.47241,-54.9228,0.0235841,0.00952231,-0.0203994,0.0381303,-0.00502388,-0.619443,0.0272496,0.0193216,1364,414,7.47235,54.9228
147,610,7.48254,-54.6271,0.0211789,0.00712418,-0.0181879,0.0336499,-0.00534675,-0.601045,0.0244115,0.0194008,1371,414,7.48249,54.6271
154,610,7.52881,-54.3561,0.0186068,0.0046582,-0.0157595,0.0288663,-0.00560131,-0.57708,0.0213575,0.0245286,1378,414,7.52879,54.3562
161,610,7.60693,-54.095,0.016114,0.00236836,-0.0131554,0.0240836,-0.0056013,-0.544681,0.0182123,0.0282061,1385,414,7.60694,54.095
168,610,7.6709,-53.8119,0.0132487,0.000189068,-0.01022,0.0188469,-0.00540907,-0.501123,0.0147031,0.0266755,1392,414,7.67084,53.8119
175,610,7.73926,-53.4855,0.010677,-0.0017884,-0.00749607,0.0141931,-0.00530441,-0.438581,0.0116403,0.021927,1399,414,7.73925,53.4855
182,610,7.78333,-53.1332,0.00846839,-0.00385194,-0.00489594,0.010177,-0.00556056,-0.335773,0.00921549,0.0155198,1406,414,7.78338,53.1332
189,610,7.79675,-52.7659,0.00658249,-0.00511268,-0.00240558,0.00705797,-0.00558816,-0.195139,0.00731766,0.0149009,1413,414,7.79672,52.7659
196,610,7.83044,-52.3995,0.00578769,-0.00361706,-0.00191781,0.00616374,-0.0039931,-0.193623,0.00590852,0.0154576,1420,414,7.83041,52.3995
203,610,7.83862,-51.9864,0.00498539,-0.00274786,-0.00148589,0.00526107,-0.00302353,-0.183444,0.00484092,0.0152298,1427,414,7.83858,51.9864
210,610,7.8429,-51.5933,0.00403522,-0.0016638,-0.00100902,0.0042086,-0.00183717,-0.170163,0.00357891,0.0109595,1434,414,7.84288,51.5933
217,610,7.9093,-51.1307,0.00333659,-0.000793189,-0.000539283,0.00340585,-0.000862449,-0.127731,0.00260606,0.0159317,1441,414,7.90929,51.1307
224,610,7.94275,-50.6801,0.00273313,9.38688e-05,-0.000152824,0.00274195,8.50492e-05,-0.0576473,0.00180029,0.0191122,1448,414,7.94272,50.6801
231,610,7.94458,-50.2205,0.00223135,0.000930114,0.000341816,0.00231567,0.000845788,0.24187,0.00135304,0.016903,1455,414,7.94458,50.2205
238,610,7.91895,-49.7213,0.00192187,0.00166779,0.000701393,0.00250764,0.00108203,0.695809,0.00145231,0.0128282,1462,414,7.91891,49.7213
245,610,7.94897,-49.2166,0.00165661,0.00245437,0.000998525,0.00313073,0.000980238,0.975423,0.00184914,0.0138064,1469,414,7.94896,49.2167
252,610,7.95251,-48.7032,0.00140191,0.00330871,0.00127648,0.00394854,0.000762083,1.10615,0.00241869,0.0157861,1476,414,7.95253,48.7032
259,610,7.91223,-48.1532,0.00115616,0.00425594,0.00163908,0.00496188,0.000450229,1.16412,0.00316852,0.0134318,1483,414,7.91229,48.1532
266,610,7.86267,-47.5981,0.000829416,0.00487973,0.00200301,0.00570296,6.18352e-06,1.18085,0.00379991,0.0128822,1490,414,7.86267,47.5981
273,610,7.84998,-47.0561,0.000564809,0.00571371,0.00240099,0.00665957,-0.000381044,1.19552,0.00457202,0.0102982,1497,414,7.84993,47.0561
280,610,7.81909,-46.4869,0.000356425,0.00652737,0.00284967,0.00764199,-0.000758193,1.19795,0.00536528,0.00966774,1504,414,7.81912,46.4869
287,610,7.77063,-45.907,0.000188188,0.00741687,0.00339561,0.00876172,-0.00115666,1.19369,0.00626241,0.0128157,1511,414,7.77064,45.907
294,610,7.76453,-45.316,-9.50691e-05,0.00819927,0.00390477,0.00974826,-0.00164406,1.19314,0.0071105,0.0112994,1518,414,7.76456,45.316
301,610,7.76465,-44.7653,-0.000386991,0.00892462,0.00441064,0.0106821,-0.00214447,1.19161,0.00793343,0.0109945,1525,414,7.76463,44.7653
308,610,7.72485,-44.1611,-0.000582065,0.00971427,0.00496723,0.0117199,-0.00258771,1.18704,0.00880355,0.0129578,1532,414,7.72481,44.1611
315,610,7.65027,-43.5433,-0.00079157,0.0105649,0.00554218,0.0128213,-0.00304795,1.18416,0.00972406,0.0137333,1539,414,7.65029,43.5433
322,610,7.5896,-42.9029,-0.0010953,0.0113514,0.00614955,0.0138772,-0.00362107,1.18108,0.0106654,0.0132934,1546,414,7.58961,42.9029
329,610,7.54858,-42.2332,-0.00133847,0.0121595,0.00676666,0.0149675,-0.0041465,1.17744,0.01161,0.0121912,1553,414,7.54853,42.2332
336,610,7.51343,-41.5906,-0.00133432,0.0134174,0.00757576,0.0166149,-0.00453179,1.17141,0.0128563,0.0148545,1560,414,7.51341,41.5906
343,610,7.44189,-40.9238,-0.0012415,0.0147883,0.00838049,0.0183695,-0.00482278,1.16695,0.014131,0.0228834,1567,414,7.44193,40.9238
350,610,7.3833,-40.1992,-0.000998918,0.016672,0.00946489,0.0207845,-0.00511142,1.16091,0.0158375,0.0319207,1574,414,7.38331,40.1992
357,610,7.39148,-39.3612,-0.000858005,0.0184823,0.0106421,0.0231916,-0.00556724,1.15419,0.0176126,0.0473528,1581,414,7.39147,39.3612
364,610,7.49097,-38.4274,0,0,0,0,0,0,0,-1,1588,414,7.49103,38.4274
371,610,7.3324,-37.7221,0,0,0,0,0,0,0,-1,1595,414,7.33242,37.7221
378,610,3.5752,-12.1958,0,0,0,0,0,0,0,-1,1602,414,3.57517,12.1958
385,610,2.57104,-10.3878,0,0,0,0,0,0,0,-1,1609,414,2.57109,10.3878
392,610,1.99744,-1.83582,0,0,0,0,0,0,0,-1,1616,414,1.99741,1.8358
399,610,2.77136,-2.60333,0,0,0,0,0,0,0,-1,1623,414,2.77133,2.60332
406,610,3.54529,-3.37085,0,0,0,0,0,0,0,-1,1630,414,3.54525,3.37084
413,610,3.01929,-3.20306,0,0,0,0,0,0,0,-1,1637,414,3.01929,3.20306
420,610,4.78149,-3.64041,0,0,0,0,0,0,0,-1,1644,414,4.78152,3.64042
427,610,8.85168,-23.3853,0,0,0,0,0,0,0,-1,1651,414,8.85174,23.3853
434,610,8.73706,-22.6227,0,0,0,0,0,0,0,-1,1658,414,8.73703,22.6227
441,610,0,0,0,0,0,0,0,0,0,-1,1665,414,0,0
448,610,0,0,0,0,0,0,0,0,0,-1,1672,414,0,0
455,610,0,0,0,0,0,0,0,0,0,-1,1679,414,0,0
462,610,0,0,0,0,0,0,0,0,0,-1,1686,414,0,0
469,610,0,0,0,0,0,0,0,0,0,-1,1693,414,0,0
476,610,0,0,0,0,0,0,0,0,0,-1,1700,414,0,0
483,610,0,0,0,0,0,0,0,0,0,-1,1707,414,0,0
490,610,0,0,0,0,0,0,0,0,0,-1,1714,414,0,0
497,610,0,0,0,0,0,0,0,0,0,-1,1721,414,0,0
504,610,0,0,0,0,0,0,0,0,0,-1,1728,414,0,0
511,610,0,0,0,0,0,0,0,0,0,-1,1735,414,0,0
518,610,0,0,0,0,0,0,0,0,0,-1,1742,414,0,0
525,610,0,0,0,0,0,0,0,0,0,-1,1749,414,0,0
532,610,0,0,0,0,0,0,0,0,0,-1,1756,414,0,0
539,610,0,0,0,0,0,0,0,0,0,-1,1763,414,0,0
546,610,0,0,0,0,0,0,0,0,0,-1,1770,414,0,0
553,610,0,0,0,0,0,0,0,0,0,-1,1777,414,0,0
560,610,0,0,0,0,0,0,0,0,0,-1,1784,414,0,0
567,610,0,0,0,0,0,0,0,0,0,-1,1791,414,0,0
574,610,0,0,0,0,0,0,0,0,0,-1,1798,414,0,0
581,610,0,0,0,0,0,0,0,0,0,-1,1805,414,0,0
588,610,0,0,0,0,0,0,0,0,0,-1,1812,414,0,0
595,610,0,0,0,0,0,0,0,0,0,-1,1819,414,0,0
602,610,0,0,0,0,0,0,0,0,0,-1,1826,414,0,0
609,610,0,0,0,0,0,0,0,0,0,-1,1833,414,0,0
616,610,0,0,0,0,0,0,0,0,0,-1,1840,414,0,0
623,610,0,0,0,0,0,0,0,0,0,-1,1847,414,0,0
630,610,0,0,0,0,0,0,0,0,0,-1,1854,414,0,0
637,610,0,0,0,0,0,0,0,0,0,-1,1861,414,0,0
644,610,0,0,0,0,0,0,0,0,0,-1,1868,414,0,0
651,610,0,0,0,0,0,0,0,0,0,-1,1875,414,0,0
658,610,0,0,0,0,0,0,0,0,0,-1,1882,414,0,0
665,610,0,0,0,0,0,0,0,0,0,-1,1889,414,0,0
672,610,0,0,0,0,0,0,0,0,0,-1,1896,414,0,0
679,610,0,0,0,0,0,0,0,0,0,-1,1903,414,0,0
686,610,0,0,0,0,0,0,0,0,0,-1,1910,414,0,0
693,610,0,0,0,0,0,0,0,0,0,-1,1917,414,0,0
700,610,0,0,0,0,0,0,0,0,0,-1,1924,414,0,0
707,610,0,0,0,0,0,0,0,0,0,-1,1931,414,0,0
714,610,0,0,0,0,0,0,0,0,0,-1,1938,414,0,0
721,610,0,0,0,0,0,0,0,0,0,-1,1945,414,0,0
728,610,0,0,0,0,0,0,0,0,0,-1,1952,414,0,0
735,610,0,0,0,0,0,0,0,0,0,-1,1959,414,0,0
742,610,0,0,0,0,0,0,0,0,0,-1,1966,414,0,0
749,610,0,0,0,0,0,0,0,0,0,-1,1973,414,0,0
756,610,0,0,0,0,0,0,0,0,0,-1,1980,414,0,0
763,610,0,0,0,0,0,0,0,0,0,-1,1987,414,0,0
770,610,0,0,0,0,0,0,0,0,0,-1,1994,414,0,0
777,610,0,0,0,0,0,0,0,0,0,-1,2001,414,0,0
784,610,0,0,0,0,0,0,0,0,0,-1,2008,414,0,0
791,610,0,0,0,0,0,0,0,0,0,-1,2015,414,0,0
798,610,0,0,0,0,0,0,0,0,0,-1,2022,414,0,0
805,610,0,0,0,0,0,0,0,0,0,-1,2029,414,0,0
812,610,0,0,0,0,0,0,0,0,0,-1,2036,414,0,0
-700,603,0,0,0,0,0,0,0,0,0,-1,524,421,0,0
-693,603,0,0,0,0,0,0,0,0,0,-1,531,421,0,0
-686,603,0,0,0,0,0,0,0,0,0,-1,538,421,0,0
-679,603,0,0,0,0,0,0,0,0,0,-1,545,421,0,0
-672,603,0,0,0,0,0,0,0,0,0,-1,552,421,0,0
-665,603,0,0,0,0,0,0,0,0,0,-1,559,421,0,0
-658,603,0,0,0,0,0,0,0,0,0,-1,566,421,0,0
-651,603,0,0,0,0,0,0,0,0,0,-1,573,421,0,0
-644,603,0,0,0,0,0,0,0,0,0,-1,580,421,0,0
-637,603,0,0,0,0,0,0,0,0,0,-1,587,421,0,0
-630,603,0,0,0,0,0,0,0,0,0,-1,594,421,0,0
-623,603,0,0,0,0,0,0,0,0,0,-1,601,421,0,0
-616,603,0,0,0,0,0,0,0,0,0,-1,608,421,0,0
-609,603,0,0,0,0,0,0,0,0,0,-1,615,421,0,0
-602,603,0,0,0,0,0,0,0,0,0,-1,622,421,0,0
-595,603,0,0,0,0,0,0,0,0,0,-1,629,421,0,0
-588,603,0,0,0,0,0,0,0,0,0,-1,636,421,0,0
-581,603,0,0,0,0,0,0,0,0,0,-1,643,421,0,0
-574,603,0,0,0,0,0,0,0,0,0,-1,650,421,0,0
-567,603,0,0,0,0,0,0,0,0,0,-1,657,421,0,0
-560,603,0,0,0,0,0,0,0,0,0,-1,664,421,0,0
-553,603,0,0,0,0,0,0,0,0,0,-1,671,421,0,0
-546,603,0,0,0,0,0,0,0,0,0,-1,678,421,0,0
-539,603,0,0,0,0,0,0,0,0,0,-1,685,421,0,0
-532,603,0,0,0,0,0,0,0,0,0,-1,692,421,0,0
-525,603,0,0,0,0,0,0,0,0,0,-1,699,421,0,0
-518,603,0,0,0,0,0,0,0,0,0,-1,706,421,0,0
-511,603,0,0,0,0,0,0,0,0,0,-1,713,421,0,0
-504,603,0,0,0,0,0,0,0,0,0,-1,720,421,0,0
-497,603,0,0,0,0,0,0,0,0,0,-1,727,421,0,0
-490,603,0,0,0,0,0,0,0,0,0,-1,734,421,0,0
-483,603,0,0,0,0,0,0,0,0,0,-1,741,421,0,0
-476,603,0,0,0,0,0,0,0,0,0,-1,748,421,0,0
-469,603,0,0,0,0,0,0,0,0,0,-1,755,421,0,0
-462,603,0,0,0,0,0,0,0,0,0,-1,762,421,0,0
-455,603,0,0,0,0,0,0,0,0,0,-1,769,421,0,0
-448,603,0,0,0,0,0,0,0,0,0,-1,776,421,0,0
-441,603,0,0,0,0,0,0,0,0,0,-1,783,421,0,0
-434,603,0,0,0,0,0,0,0,0,0,-1,790,421,0,0
-427,603,0,0,0,0,0,0,0,0,0,-1,797,421,0,0
-420,603,0,0,0,0,0,0,0,0,0,-1,804,421,0,0
-413,603,0,0,0,0,0,0,0,0,0,-1,811,421,0,0
-406,603,0,0,0,0,0,0,0,0,0,-1,818,421,0,0
-399,603,0,0,0,0,0,0,0,0,0,-1,825,421,0,0
-392,603,0,0,0,0,0,0,0,0,0,-1,832,421,0,0
-385,603,0,0,0,0,0,0,0,0,0,-1,839,421,0,0
-378,603,0,0,0,0,0,0,0,0,0,-1,846,421,0,0
-371,603,0,0,0,0,0,0,0,0,0,-1,853,421,0,0
-364,603,0,0,0,0,0,0,0,0,0,-1,860,421,0,0
-357,603,0,0,0,0,0,0,0,0,0,-1,867,421,0,0
-350,603,0,0,0,0,0,0,0,0,0,-1,874,421,0,0
-343,603,0,0,0,0,0,0,0,0,0,-1,881,421,0,0
-336,603,0,0,0,0,0,0,0,0,0,-1,888,421,0,0
-329,603,4.09686,-17.9702,0,0,0,0,0,0,0,-1,895,421,4.09687,17.9702
-322,603,8.83179,-28.7376,0,0,0,0,0,0,0,-1,902,421,8.83179,28.7376
-315,603,5.99744,-20.4501,0,0,0,0,0,0,0,-1,909,421,5.99745,20.4501
-308,603,5.92249,-20.778,0,0,0,0,0,0,0,-1,916,421,5.92248,20.778
-301,603,2.72424,-20.9059,0,0,0,0,0,0,0,-1,923,421,2.72424,20.9059
-294,603,2.41553,-20.6767,0,0,0,0,0,0,0,-1,930,421,2.41554,20.6767
-287,603,1.91766,-21.2242,0,0,0,0,0,0,0,-1,937,421,1.91767,21.2242
-280,603,2.36121,-27.3314,0,0,0,0,0,0,0,-1,944,421,2.36119,27.3314
-273,603,7.96613,-34.8225,0,0,0,0,0,0,0,-1,951,421,7.96613,34.8225
-266,603,7.18787,-34.9736,0,0,0,0,0,0,0,-1,958,421,7.18788,34.9736
-259,603,5.7326,-35.9501,0,0,0,0,0,0,0,-1,965,421,5.73263,35.9501
-252,603,5.32233,-37.8341,0,0,0,0,0,0,0,-1,972,421,5.32234,37.8341
-245,603,5.60498,-38.6307,-0.00539444,0.0200108,-0.00688156,0.021755,-0.00713871,-1.32256,0.0173787,0.0378563,979,421,5.60498,38.6307
-238,603,5.29236,-39.2809,-0.00481088,0.0183446,-0.00654831,0.0200681,-0.00653444,-1.31343,0.0160078,0.0268612,986,421,5.29238,39.2809
-231,603,5.17847,-40.022,-0.00398685,0.0170257,-0.00636461,0.0188032,-0.00576431,-1.29846,0.014835,0.0156736,993,421,5.17847,40.022
-224,603,5.1142,-40.7429,-0.00319764,0.0156723,-0.00624785,0.0175534,-0.00507877,-1.27834,0.0137124,0.0156555,1000,421,5.11418,40.7429
-217,603,5.09015,-41.3858,-0.00248841,0.0139301,-0.0060307,0.0159072,-0.00446548,-1.254,0.0123651,0.0147852,1007,421,5.09013,41.3858
-210,603,5.06091,-42.0398,-0.00188037,0.0122021,-0.00566115,0.0141957,-0.00387393,-1.23221,0.0109852,0.0122439,1014,421,5.06091,42.0398
-203,603,5.04626,-42.7309,-0.00137157,0.0104714,-0.00520348,0.0124328,-0.00333299,-1.21032,0.00959448,0.0180574,1021,421,5.04626,42.7309
-196,603,5.0238,-43.3911,-0.000968354,0.00878845,-0.00472527,0.0107017,-0.00288163,-1.18607,0.00826423,0.0201794,1028,421,5.02375,43.3911
-189,603,4.98315,-43.9559,-0.000528813,0.00737457,-0.00444851,0.0093731,-0.00252734,-1.14856,0.00723975,0.0163641,1035,421,4.9832,43.9559
-182,603,4.90649,-44.5167,-0.000244601,0.00586057,-0.00387895,0.00774403,-0.00212806,-1.11877,0.0059992,0.0120668,1042,421,4.9065,44.5167
-175,603,4.86255,-45.0822,-4.59909e-05,0.0043726,-0.0032074,0.00605796,-0.00173135,-1.08699,0.00472276,0.0125643,1049,421,4.86255,45.0822
-168,603,4.81763,-45.6714,7.60511e-05,0.00277928,-0.00250766,0.00427639,-0.00142106,-1.03257,0.00342435,0.0156545,1056,421,4.81769,45.6714
-161,603,4.79907,-46.2769,0.00018926,0.00143784,-0.00183665,0.0027534,-0.0011263,-0.949225,0.00230468,0.0152798,1063,421,4.79912,46.2769
-154,603,4.79504,-46.8302,0.000318459,0.000110409,-0.00114751,0.00136665,-0.000937782,-0.740195,0.00133812,0.0141069,1070,421,4.795,46.8302
-147,603,4.79419,-47.3393,0.000518516,-0.00112263,-0.00050089,0.000659312,-0.00126343,-0.274021,0.00112821,0.0151951,1077,421,4.7942,47.3393
-140,603,4.8136,-47.8856,0.00075521,-0.00235128,0.00010291,0.000758615,-0.00235468,0.0330791,0.00187455,0.0135526,1084,421,4.81354,47.8856
-133,603,4.77039,-48.3969,0.00101435,-0.0034369,0.000648536,0.00110691,-0.00352946,0.141772,0.00279596,0.0133621,1091,421,4.77035,48.3969
-126,603,4.75525,-48.8839,0.00134369,-0.0042549,0.00109328,0.00154961,-0.00446082,0.186169,0.00360325,0.0119591,1098,421,4.75523,48.8839
-119,603,4.77515,-49.3757,0.00180239,-0.00484056,0.00145084,0.00210543,-0.0051436,0.205914,0.00430602,0.0121291,1105,421,4.77512,49.3757
-112,603,4.78479,-49.8747,0.00229343,-0.00510948,0.00168983,0.00266092,-0.00547697,0.214136,0.00479126,0.0170528,1112,421,4.78474,49.8747
-105,603,4.77405,-50.3361,0.00277446,-0.00515222,0.00179754,0.00316305,-0.0055408,0.212898,0.00508729,0.0169489,1119,421,4.77409,50.3361
-98,603,4.78174,-50.7695,0.0033453,-0.00513226,0.0018707,0.00373975,-0.0055267,0.20781,0.00538304,0.0155315,1126,421,4.78176,50.7695
-91,603,4.80359,-51.2113,0.00412296,-0.00479281,0.00180701,0.00447527,-0.00514512,0.192555,0.00555882,0.0118401,1133,421,4.80355,51.2113
-84,603,4.84375,-51.6676,0.00511477,-0.00402539,0.00172244,0.00542858,-0.00433921,0.180216,0.00565111,0.0126563,1140,421,4.84379,51.6676
-77,603,4.89758,-52.1437,0.00623578,-0.00372135,0.00162687,0.00649485,-0.00398042,0.157918,0.0061057,0.0193147,1147,421,4.89761,52.1437
-70,603,4.83997,-52.5015,0,0,0,0,0,0,0,-1,1154,421,4.84001,52.5015
-63,603,4.86267,-52.7788,0,0,0,0,0,0,0,-1,1161,421,4.86262,52.7788
-56,603,4.98743,-53.1165,0,0,0,0,0,0,0,-1,1168,421,4.98744,53.1166
-49,603,5.05493,-53.4633,0,0,0,0,0,0,0,-1,1175,421,5.0549,53.4633
-42,603,5.11194,-53.8601,0,0,0,0,0,0,0,-1,1182,421,5.11197,53.8601
-35,603,5.10657,-54.0324,0.00847836,-0.00735184,-0.01071,0.0138806,-0.0127541,-0.467173,0.0153822,0.0440277,1189,421,5.10651,54.0324
-28,603,5.2251,-54.2613,0.00787314,-0.00815456,-0.012758,0.0149254,-0.0152068,-0.50497,0.0173971,0.0293086,1196,421,5.22507,54.2613
-21,603,5.33252,-54.5262,0.00779746,-0.00773608,-0.0152858,0.0171765,-0.0171151,-0.550343,0.0197982,0.024461,1203,421,5.33258,54.5262
-14,603,5.40881,-54.748,0.00803494,-0.00821973,-0.0176028,0.0192961,-0.0194809,-0.569125,0.022388,0.0245338,1210,421,5.40877,54.748
-7,603,5.48828,-54.9575,0.00914534,-0.00819415,-0.0199815,0.0222569,-0.0213057,-0.580711,0.0251529,0.0286929,1217,421,5.48824,54.9575
0,603,5.55408,-55.2645,0.0109221,-0.00753273,-0.0222529,0.0257849,-0.0223955,-0.588857,0.0278399,0.037495,1224,421,5.55408,55.2645
7,603,5.60437,-55.4971,0,0,0,0,0,0,0,-1,1231,421,5.60443,55.4971
14,603,5.87085,-55.2636,0,0,0,0,0,0,0,-1,1238,421,5.87086,55.2636
21,603,5.91528,-55.1805,0.0185081,-0.00409577,-0.0281198,0.0375122,-0.0230999,-0.594318,0.0353226,0.0446446,1245,421,5.91533,55.1805
28,603,5.93054,-55.3917,0.0215989,-0.00225287,-0.029743,0.0417179,-0.0223719,-0.59473,0.03756,0.0463015,1252,421,5.93048,55.3917
35,603,6.05664,-55.5002,0,0,0,0,0,0,0,-1,1259,421,6.05659,55.5002
42,603,6.23145,-55.7224,0.0278711,0.00191476,-0.0324716,0.049862,-0.0200762,-0.595284,0.0415815,0.0479705,1266,421,6.23149,55.7223
49,603,6.42029,-55.989,0.031053,0.00409597,-0.0332292,0.0534333,-0.0182843,-0.592726,0.0430319,0.0255631,1273,421,6.4203,55.9891
56,603,6.36426,-55.8351,0.033965,0.00662321,-0.0335261,0.0565003,-0.0159121,-0.591805,0.043942,0.049828,1280,421,6.36424,55.8351
63,603,6.31982,-55.6747,0,0,0,0,0,0,0,-1,1287,421,6.31984,55.6747
70,603,6.56689,-55.9771,0,0,0,0,0,0,0,-1,1294,421,6.56693,55.9771
77,603,6.9071,-55.7894,0,0,0,0,0,0,0,-1,1301,421,6.90712,55.7894
84,603,6.85437,-56.0238,0,0,0,0,0,0,0,-1,1308,421,6.85433,56.0238
91,603,6.96851,-56.233,0,0,0,0,0,0,0,-1,1315,421,6.96847,56.233
98,603,7.24207,-56.246,0,0,0,0,0,0,0,-1,1322,421,7.24209,56.246
105,603,7.30652,-55.9612,0,0,0,0,0,0,0,-1,1329,421,7.30648,55.9612
112,603,7.49719,-55.42,0.0402186,0.0246937,-0.0360082,0.0692916,-0.00437929,-0.679236,0.0477212,0.047853,1336,421,7.49721,55.42
119,603,7.67627,-55.267,0.0391022,0.0242618,-0.0353145,0.0677676,-0.0044037,-0.681846,0.0467156,0.048369,1343,421,7.67626,55.267
126,603,7.62939,-55.2044,0,0,0,0,0,0,0,-1,1350,421,7.62944,55.2044
133,603,7.72998,-54.7237,0.0366571,0.021333,-0.0329048,0.0627801,-0.00479008,-0.671009,0.043538,0.0486417,1357,421,7.73004,54.7237
140,603,7.87097,-54.4997,0.0340359,0.0186539,-0.0307649,0.0580566,-0.00536681,-0.662913,0.0406117,0.0381839,1364,421,7.87096,54.4997
147,603,7.81323,-54.5336,0,0,0,0,0,0,0,-1,1371,421,7.81328,54.5336
154,603,7.76978,-54.2461,0.0271837,0.0113621,-0.0246533,0.0451644,-0.00661859,-0.630146,0.0325409,0.0360664,1378,421,7.7698,54.2461
161,603,7.98083,-53.9873,0.0233984,0.00692057,-0.0208743,0.0376009,-0.00728191,-0.597437,0.0278141,0.0351599,1385,421,7.98084,53.9873
168,603,8.03149,-53.6728,0.0189546,0.00246473,-0.0163635,0.029033,-0.00761368,-0.552033,0.0223301,0.0375306,1392,421,8.03145,53.6728
175,603,8.27344,-53.3919,0.0152005,-0.00120496,-0.0122166,0.0217127,-0.00771718,-0.489747,0.0176202,0.0422408,1399,421,8.2735,53.3919
182,603,8.32532,-53.0677,0.0119298,-0.00530955,-0.00800087,0.0150708,-0.00845052,-0.374092,0.0137582,0.047195,1406,421,8.32531,53.0677
189,603,8.28699,-52.6621,0.00909131,-0.00841499,-0.00382702,0.00989136,-0.00921505,-0.206086,0.0110334,0.0395565,1413,421,8.28694,52.6621
196,603,8.21484,-52.2367,0.00807135,-0.00662351,-0.00320203,0.00873877,-0.00729092,-0.205492,0.00926732,0.0284126,1420,421,8.21485,52.2367
203,603,8.2627,-51.9,0.00707437,-0.0057464,-0.00267311,0.00760938,-0.00628142,-0.197536,0.00803206,0.0164394,1427,421,8.2627,51.9
210,603,8.29932,-51.6219,0.00590347,-0.00446422,-0.00208995,0.00630891,-0.00486967,-0.191616,0.00647176,0.0134362,1434,421,8.29932,51.622
217,603,8.30969,-51.1255,0.00500568,-0.003563,-0.00153175,0.00527127,-0.00382858,-0.17168,0.00527576,0.0137105,1441,421,8.30975,51.1255
224,603,8.38989,-50.6516,0.00421524,-0.00259315,-0.00108507,0.00438398,-0.0027619,-0.154282,0.00416096,0.0170877,1448,421,8.38993,50.6516
231,603,8.41858,-50.2017,0.00358166,-0.00168514,-0.000484356,0.00362584,-0.00172932,-0.0909474,0.00315577,0.0163998,1455,421,8.41862,50.2017
238,603,8.42468,-49.7147,0.00322792,-0.00101196,-0.000108043,0.00323067,-0.00101471,-0.0254606,0.00255995,0.0125051,1462,421,8.42466,49.7147
245,603,8.43042,-49.2106,0.00292974,-0.000345099,0.000200263,0.00294195,-0.0003573,0.0608498,0.0020906,0.012901,1469,421,8.43038,49.2106
252,603,8.44568,-48.6893,0.00256723,0.000323869,0.000449949,0.00265411,0.000236987,0.190744,0.00169594,0.0116944,1476,421,8.4457,48.6893
259,603,8.4292,-48.1548,0.00220338,0.000938245,0.000711713,0.00252301,0.000618617,0.422104,0.0015184,0.0110492,1483,421,8.42919,48.1548
266,603,8.39709,-47.5959,0.00188365,0.00152627,0.00100162,0.00272239,0.000687529,0.697128,0.00163468,0.0120648,1490,421,8.39709,47.5959
273,603,8.40015,-47.0439,0.0015686,0.0022516,0.00131591,0.0032696,0.000550603,0.912355,0.00202135,0.0111975,1497,421,8.40016,47.0438
280,603,8.39429,-46.4894,0.00130883,0.00299209,0.0016878,0.00403647,0.000264452,1.01668,0.0026073,0.0125647,1504,421,8.39428,46.4894
287,603,8.36108,-45.8882,0.00110001,0.00379565,0.00212648,0.00496548,-6.98108e-05,1.06786,0.00333383,0.011991,1511,421,8.36106,45.8882
294,603,8.32813,-45.3029,0.000806249,0.00458563,0.00255661,0.00587512,-0.000483239,1.10366,0.00408736,0.0105338,1518,421,8.32818,45.303
301,603,8.32776,-44.7316,0.000502847,0.00537029,0.00299637,0.00679678,-0.000923642,1.12647,0.00486836,0.012592,1525,421,8.32773,44.7316
308,603,8.29175,-44.1288,0.000283541,0.0062424,0.00348479,0.00784781,-0.00132187,1.13909,0.00572361,0.0170294,1532,421,8.29173,44.1289
315,603,8.2356,-43.5203,5.11793e-05,0.00716991,0.00399221,0.00895908,-0.00173799,1.14947,0.00662844,0.0151436,1539,421,8.23555,43.5203
322,603,8.19788,-42.8939,-0.000256948,0.00811079,0.00454688,0.0101058,-0.00225198,1.15732,0.00759992,0.0156883,1546,421,8.1979,42.8939
329,603,8.16394,-42.2231,-0.000518517,0.00903087,0.00512976,0.0112642,-0.00275183,1.16018,0.00857519,0.0110588,1553,421,8.16394,42.2231
336,603,8.1322,-41.5923,-0.000582743,0.0102834,0.0058853,0.01286,-0.00315935,1.15813,0.00979775,0.00859127,1560,421,8.13221,41.5922
343,603,8.10657,-40.9366,-0.000596696,0.0116408,0.00663662,0.0145489,-0.00350479,1.15781,0.0110543,0.0109019,1567,421,8.10651,40.9366
350,603,8.06873,-40.2597,-0.00050152,0.0133915,0.00761037,0.016749,-0.00385897,1.15531,0.0126501,0.0138709,1574,421,8.06872,40.2597
357,603,8.02722,-39.531,-0.000460632,0.0150289,0.00865041,0.018895,-0.00432668,1.15051,0.0142594,0.0181783,1581,421,8.02725,39.531
364,603,7.99426,-38.7588,-0.000293073,0.0166212,0.00962469,0.0209764,-0.00464835,1.14586,0.0157639,0.026476,1588,421,7.9942,38.7588
371,603,7.90247,-38.009,0.000532715,0.0198431,0.0109412,0.0247801,-0.00440429,1.14692,0.018167,0.0354166,1595,421,7.90242,38.009
378,603,7.8678,-37.4912,0,0,0,0,0,0,0,-1,1602,421,7.8678,37.4912
385,603,7.9502,-36.5465,0,0,0,0,0,0,0,-1,1609,421,7.95026,36.5465
392,603,4.90527,-19.605,0,0,0,0,0,0,0,-1,1616,421,4.90526,19.605
399,603,2.94299,0.638214,0,0,0,0,0,0,0,-1,1623,421,2.94293,-0.638215
406,603,3.01917,-2.37219,0,0,0,0,0,0,0,-1,1630,421,3.01915,2.37219
413,603,2.38928,-2.41275,0,0,0,0,0,0,0,-1,1637,421,2.38926,2.41274
420,603,8.22217,-23.7068,0,0,0,0,0,0,0,-1,1644,421,8.22215,23.7068
427,603,8.20386,-23.1278,0,0,0,0,0,0,0,-1,1651,421,8.2039,23.1278
434,603,8.01489,-22.5655,0,0,0,0,0,0,0,-1,1658,421,8.01493,22.5655
441,603,8.00122,-22.3072,0,0,0,0,0,0,0,-1,1665,421,8.00116,22.3071
448,603,1.14355,-4.59842,0,0,0,0,0,0,0,-1,1672,421,1.14355,4.59841
455,603,0,0,0,0,0,0,0,0,0,-1,1679,421,0,0
462,603,0,0,0,0,0,0,0,0,0,-1,1686,421,0,0
469,603,0,0,0,0,0,0,0,0,0,-1,1693,421,0,0
476,603,0,0,0,0,0,0,0,0,0,-1,1700,421,0,0
483,603,0,0,0,0,0,0,0,0,0,-1,1707,421,0,0
490,603,0,0,0,0,0,0,0,0,0,-1,1714,421,0,0
497,603,0,0,0,0,0,0,0,0,0,-1,1721,421,0,0
504,603,0,0,0,0,0,0,0,0,0,-1,1728,421,0,0
511,603,0,0,0,0,0,0,0,0,0,-1,1735,421,0,0
518,603,0,0,0,0,0,0,0,0,0,-1,1742,421,0,0
525,603,0,0,0,0,0,0,0,0,0,-1,1749,421,0,0
532,603,0,0,0,0,0,0,0,0,0,-1,1756,421,0,0
539,603,0,0,0,0,0,0,0,0,0,-1,1763,421,0,0
546,603,0,0,0,0,0,0,0,0,0,-1,1770,421,0,0
553,603,0,0,0,0,0,0,0,0,0,-1,1777,421,0,0
560,603,0,0,0,0,0,0,0,0,0,-1,1784,421,0,0
567,603,0,0,0,0,0,0,0,0,0,-1,1791,421,0,0
574,603,0,0,0,0,0,0,0,0,0,-1,1798,421,0,0
581,603,0,0,0,0,0,0,0,0,0,-1,1805,421,0,0
588,603,0,0,0,0,0,0,0,0,0,-1,1812,421,0,0
595,603,0,0,0,0,0,0,0,0,0,-1,1819,421,0,0
602,603,0,0,0,0,0,0,0,0,0,-1,1826,421,0,0
609,603,0,0,0,0,0,0,0,0,0,-1,1833,421,0,0
616,603,0,0,0,0,0,0,0,0,0,-1,1840,421,0,0
623,603,0,0,0,0,0,0,0,0,0,-1,1847,421,0,0
630,603,0,0,0,0,0,0,0,0,0,-1,1854,421,0,0
637,603,0,0,0,0,0,0,0,0,0,-1,1861,421,0,0
644,603,0,0,0,0,0,0,0,0,0,-1,1868,421,0,0
651,603,0,0,0,0,0,0,0,0,0,-1,1875,421,0,0
658,603,0,0,0,0,0,0,0,0,0,-1,1882,421,0,0
665,603,0,0,0,0,0,0,0,0,0,-1,1889,421,0,0
672,603,0,0,0,0,0,0,0,0,0,-1,1896,421,0,0
679,603,0,0,0,0,0,0,0,0,0,-1,1903,421,0,0
686,603,0,0,0,0,0,0,0,0,0,-1,1910,421,0,0
693,603,0,0,0,0,0,0,0,0,0,-1,1917,421,0,0
700,603,0,0,0,0,0,0,0,0,0,-1,1924,421,0,0
707,603,0,0,0,0,0,0,0,0,0,-1,1931,421,0,0
714,603,0,0,0,0,0,0,0,0,0,-1,1938,421,0,0
721,603,0,0,0,0,0,0,0,0,0,-1,1945,421,0,0
728,603,0,0,0,0,0,0,0,0,0,-1,1952,421,0,0
735,603,0,0,0,0,0,0,0,0,0,-1,1959,421,0,0
742,603,0,0,0,0,0,0,0,0,0,-1,1966,421,0,0
749,603,0,0,0,0,0,0,0,0,0,-1,1973,421,0,0
756,603,0,0,0,0,0,0,0,0,0,-1,1980,421,0,0
763,603,0,0,0,0,0,0,0,0,0,-1,1987,421,0,0
770,603,0,0,0,0,0,0,0,0,0,-1,1994,421,0,0
777,603,0,0,0,0,0,0,0,0,0,-1,2001,421,0,0
784,603,0,0,0,0,0,0,0,0,0,-1,2008,421,0,0
791,603,0,0,0,0,0,0,0,0,0,-1,2015,421,0,0
798,603,0,0,0,0,0,0,0,0,0,-1,2022,421,0,0
805,603,0,0,0,0,0,0,0,0,0,-1,2029,421,0,0
812,603,0,0,0,0,0,0,0,0,0,-1,2036,421,0,0
-700,596,0,0,0,0,0,0,0,0,0,-1,524,428,0,0
-693,596,0,0,0,0,0,0,0,0,0,-1,531,428,0,0
-686,596,0,0,0,0,0,0,0,0,0,-1,538,428,0,0
-679,596,0,0,0,0,0,0,0,0,0,-1,545,428,0,0
-672,596,0,0,0,0,0,0,0,0,0,-1,552,428,0,0
-665,596,0,0,0,0,0,0,0,0,0,-1,559,428,0,0
-658,596,0,0,0,0,0,0,0,0,0,-1,566,428,0,0
-651,596,0,0,0,0,0,0,0,0,0,-1,573,428,0,0
-644,596,0,0,0,0,0,0,0,0,0,-1,580,428,0,0
-637,596,0,0,0,0,0,0,0,0,0,-1,587,428,0,0
-630,596,0,0,0,0,0,0,0,0,0,-1,594,428,0,0
-623,596,0,0,0,0,0,0,0,0,0,-1,601,428,0,0
-616,596,0,0,0,0,0,0,0,0,0,-1,608,428,0,0
-609,596,0,0,0,0,0,0,0,0,0,-1,615,428,0,0
-602,596,0,0,0,0,0,0,0,0,0,-1,622,428,0,0
-595,596,0,0,0,0,0,0,0,0,0,-1,629,428,0,0
-588,596,0,0,0,0,0,0,0,0,0,-1,636,428,0,0
-581,596,0,0,0,0,0,0,0,0,0,-1,643,428,0,0
-574,596,0,0,0,0,0,0,0,0,0,-1,650,428,0,0
-567,596,0,0,0,0,0,0,0,0,0,-1,657,428,0,0
-560,596,0,0,0,0,0,0,0,0,0,-1,664,428,0,0
-553,596,0,0,0,0,0,0,0,0,0,-1,671,428,0,0
-546,596,0,0,0,0,0,0,0,0,0,-1,678,428,0,0
-539,596,0,0,0,0,0,0,0,0,0,-1,685,428,0,0
-532,596,0,0,0,0,0,0,0,0,0,-1,692,428,0,0
-525,596,0,0,0,0,0,0,0,0,0,-1,699,428,0,0
-518,596,0,0,0,0,0,0,0,0,0,-1,706,428,0,0
-511,596,0,0,0,0,0,0,0,0,0,-1,713,428,0,0
-504,596,0,0,0,0,0,0,0,0,0,-1,720,428,0,0
-497,596,0,0,0,0,0,0,0,0,0,-1,727,428,0,0
-490,596,0,0,0,0,0,0,0,0,0,-1,734,428,0,0
-483,596,0,0,0,0,0,0,0,0,0,-1,741,428,0,0
-476,596,0,0,0,0,0,0,0,0,0,-1,748,428,0,0
-469,596,0,0,0,0,0,0,0,0,0,-1,755,428,0,0
-462,596,0,0,0,0,0,0,0,0,0,-1,762,428,0,0
-455,596,0,0,0,0,0,0,0,0,0,-1,769,428,0,0
-448,596,0,0,0,0,0,0,0,0,0,-1,776,428,0,0
-441,596,0,0,0,0,0,0,0,0,0,-1,783,428,0,0
-434,596,0,0,0,0,0,0,0,0,0,-1,790,428,0,0
-427,596,0,0,0,0,0,0,0,0,0,-1,797,428,0,0
-420,596,0,0,0,0,0,0,0,0,0,-1,804,428,0,0
-413,596,0,0,0,0,0,0,0,0,0,-1,811,428,0,0
-406,596,0,0,0,0,0,0,0,0,0,-1,818,428,0,0
-399,596,0,0,0,0,0,0,0,0,0,-1,825,428,0,0
-392,596,0,0,0,0,0,0,0,0,0,-1,832,428,0,0
-385,596,0,0,0,0,0,0,0,0,0,-1,839,428,0,0
-378,596,0,0,0,0,0,0,0,0,0,-1,846,428,0,0
-371,596,0,0,0,0,0,0,0,0,0,-1,853,428,0,0
-364,596,0,0,0,0,0,0,0,0,0,-1,860,428,0,0
-357,596,0,0,0,0,0,0,0,0,0,-1,867,428,0,0
-350,596,0,0,0,0,0,0,0,0,0,-1,874,428,0,0
-343,596,0,0,0,0,0,0,0,0,0,-1,881,428,0,0
-336,596,6.81445,-30.5258,0,0,0,0,0,0,0,-1,888,428,6.81446,30.5258
-329,596,6.84772,-28.9253,0,0,0,0,0,0,0,-1,895,428,6.84773,28.9253
-322,596,6.97449,-27.9047,0,0,0,0,0,0,0,-1,902,428,6.97451,27.9047
-315,596,7.10132,-26.8841,0,0,0,0,0,0,0,-1,909,428,7.10129,26.8841
-308,596,0.254761,-20.841,0,0,0,0,0,0,0,-1,916,428,0.254731,20.841
-301,596,3.43213,-26.756,0,0,0,0,0,0,0,-1,923,428,3.43214,26.756
-294,596,4.1767,-27.6454,0,0,0,0,0,0,0,-1,930,428,4.17667,27.6454
-287,596,4.36041,-27.6119,0,0,0,0,0,0,0,-1,937,428,4.3604,27.6119
-280,596,4.95514,-35.39,0,0,0,0,0,0,0,-1,944,428,4.95512,35.39
-273,596,4.91742,-35.8982,0,0,0,0,0,0,0,-1,951,428,4.91744,35.8982
-266,596,4.68658,-36.5034,0,0,0,0,0,0,0,-1,958,428,4.68658,36.5034
-259,596,4.75836,-37.1294,0,0,0,0,0,0,0,-1,965,428,4.75839,37.1294
-252,596,4.65088,-37.9758,-0.00417328,0.0167133,-0.00605611,0.0183422,-0.00580222,-1.30804,0.014553,0.0247044,972,428,4.65088,37.9758
-245,596,4.64087,-38.7596,-0.0036225,0.0154767,-0.00576983,0.0170845,-0.00523021,-1.29905,0.0134757,0.0159921,979,428,4.64088,38.7596
-238,596,4.61316,-39.4492,-0.00314605,0.0140587,-0.00536299,0.0155935,-0.00468085,-1.29206,0.0122576,0.0134389,986,428,4.61314,39.4492
-231,596,4.52582,-40.1445,-0.00254088,0.0127713,-0.00502365,0.0142723,-0.0040419,-1.28045,0.01111,0.0132181,993,428,4.52584,40.1445
-224,596,4.48267,-40.8178,-0.00198647,0.0114367,-0.0047235,0.0129323,-0.00348201,-1.26417,0.00998661,0.01363,1000,428,4.48266,40.8178
-217,596,4.47137,-41.4392,-0.00147803,0.00973616,-0.00434799,0.0112245,-0.00296632,-1.241,0.00864311,0.014989,1007,428,4.47136,41.4392
-210,596,4.47064,-42.0615,-0.0010279,0.00799549,-0.003859,0.00942073,-0.00245314,-1.21701,0.00723812,0.0135668,1014,428,4.47063,42.0615
-203,596,4.43481,-42.6962,-0.000639853,0.00628532,-0.00332407,0.00762262,-0.00197715,-1.1883,0.00585319,0.01687,1021,428,4.4348,42.6962
-196,596,4.4176,-43.3268,-0.000337864,0.0046182,-0.00277945,0.00586387,-0.00158354,-1.14946,0.00453031,0.0165587,1028,428,4.41765,43.3268
-189,596,4.36829,-43.9149,2.7135e-07,0.00310811,-0.00239691,0.00441074,-0.00130235,-1.07299,0.00345736,0.0133834,1035,428,4.36827,43.9149
-182,596,4.31677,-44.4908,0.000254666,0.00156787,-0.0018079,0.00283471,-0.00101218,-0.959583,0.00230259,0.0125807,1042,428,4.31678,44.4909
-175,596,4.29358,-45.0826,0.00046873,-3.60486e-05,-0.00112198,0.00136636,-0.00093368,-0.674765,0.00133574,0.0151885,1049,428,4.29358,45.0826
-168,596,4.28174,-45.6766,0.00063232,-0.00161396,-0.000463943,0.00072437,-0.00170601,-0.195865,0.00144083,0.0183608,1056,428,4.28179,45.6766
-161,596,4.27197,-46.2464,0.000786333,-0.0029341,0.000155472,0.000792819,-0.00294059,0.0416918,0.00227127,0.0174492,1063,428,4.27199,46.2464
-154,596,4.23572,-46.7802,0.000977615,-0.00425289,0.000797436,0.00109649,-0.00437176,0.147981,0.00334054,0.0148185,1070,428,4.23575,46.7802
-147,596,4.28577,-47.3077,0.00126917,-0.00545462,0.00139636,0.00154762,-0.00573308,0.196834,0.004429,0.015209,1077,428,4.2858,47.3077
-140,596,4.29431,-47.8398,0.00157995,-0.00666263,0.00193606,0.00201205,-0.00709473,0.219586,0.00552403,0.0163424,1084,428,4.29429,47.8398
-133,596,4.25256,-48.3795,0.00183705,-0.00777503,0.00247641,0.00243755,-0.00837552,0.237894,0.00654919,0.0163518,1091,428,4.25253,48.3794
-126,596,4.2616,-48.8555,0.00221603,-0.00849705,0.002865,0.00293409,-0.00921511,0.245572,0.00732014,0.01246,1098,428,4.26161,48.8555
-119,596,4.2887,-49.3771,0.0027378,-0.00900077,0.00316908,0.00353872,-0.00980168,0.247545,0.00798,0.0154068,1105,428,4.28872,49.3771
-112,596,4.24951,-49.8641,0.00327911,-0.00915051,0.00334624,0.00412272,-0.00999412,0.246959,0.00838205,0.0168862,1112,428,4.24946,49.8641
-105,596,4.25146,-50.3451,0.00379951,-0.0090193,0.00339668,0.00464392,-0.00986372,0.243661,0.0085548,0.0233895,1119,428,4.25147,50.3451
-98,596,4.34387,-50.807,0.00443209,-0.0088277,0.00342673,0.0052653,-0.00966092,0.238522,0.00874133,0.0307547,1126,428,4.34383,50.807
-91,596,4.29602,-51.3478,0,0,0,0,0,0,0,-1,1133,428,4.296,51.3478
-84,596,4.41272,-51.6518,0,0,0,0,0,0,0,-1,1140,428,4.41272,51.6518
-77,596,4.53674,-52.2108,0,0,0,0,0,0,0,-1,1147,428,4.53675,52.2108
-70,596,3.50696,-32.137,0,0,0,0,0,0,0,-1,1154,428,3.50696,32.137
-63,596,1.95569,-12.2758,0,0,0,0,0,0,0,-1,1161,428,1.95563,12.2759
-56,596,1.60107,-10.5827,0,0,0,0,0,0,0,-1,1168,428,1.60108,10.5827
-49,596,1.59473,-10.0393,0,0,0,0,0,0,0,-1,1175,428,1.59472,10.0393
-42,596,1.99585,-6.6246,0,0,0,0,0,0,0,-1,1182,428,1.99586,6.62459
-35,596,4.57458,-53.6722,0,0,0,0,0,0,0,-1,1189,428,4.57464,53.6722
-28,596,4.97144,-54.0332,0,0,0,0,0,0,0,-1,1196,428,4.97147,54.0332
-21,596,5.08728,-54.3409,0,0,0,0,0,0,0,-1,1203,428,5.08725,54.3409
-14,596,5.16321,-54.5292,0,0,0,0,0,0,0,-1,1210,428,5.16326,54.5292
-7,596,5.2384,-54.735,0,0,0,0,0,0,0,-1,1217,428,5.23836,54.735
0,596,5.31982,-55.238,0,0,0,0,0,0,0,-1,1224,428,5.31978,55.238
7,596,3.60681,-56.5837,0,0,0,0,0,0,0,-1,1231,428,3.6068,56.5838
14,596,3.36206,-57.4313,0,0,0,0,0,0,0,-1,1238,428,3.36202,57.4313
21,596,5.68811,-54.3076,0,0,0,0,0,0,0,-1,1245,428,5.68806,54.3076
28,596,5.74634,-54.7135,0,0,0,0,0,0,0,-1,1252,428,5.74629,54.7135
35,596,5.59558,-55.0697,0,0,0,0,0,0,0,-1,1259,428,5.59563,55.0697
42,596,6.11682,-55.394,0,0,0,0,0,0,0,-1,1266,428,6.11682,55.394
49,596,6.51453,-55.839,0,0,0,0,0,0,0,-1,1273,428,6.51452,55.839
56,596,6.29517,-55.5504,0,0,0,0,0,0,0,-1,1280,428,6.2952,55.5505
63,596,7.41187,-55.6285,0,0,0,0,0,0,0,-1,1287,428,7.41189,55.6285
70,596,7.84741,-55.2838,0,0,0,0,0,0,0,-1,1294,428,7.84742,55.2838
77,596,4.94067,-52.7663,0,0,0,0,0,0,0,-1,1301,428,4.9407,52.7663
84,596,5.14111,-53.6153,0,0,0,0,0,0,0,-1,1308,428,5.14117,53.6153
91,596,4.97693,-54.2518,0,0,0,0,0,0,0,-1,1315,428,4.97699,54.2518
98,596,11.311,-57.6836,0,0,0,0,0,0,0,-1,1322,428,11.311,57.6836
105,596,1.48572,-57.6328,0,0,0,0,0,0,0,-1,1329,428,1.48576,57.6327
112,596,7.83704,-55.1184,0,0,0,0,0,0,0,-1,1336,428,7.83702,55.1184
119,596,8.16968,-54.8165,0,0,0,0,0,0,0,-1,1343,428,8.16969,54.8165
126,596,13.5332,-57.2174,0,0,0,0,0,0,0,-1,1350,428,13.5333,57.2174
133,596,8.14075,-54.1743,0,0,0,0,0,0,0,-1,1357,428,8.14075,54.1743
140,596,8.31934,-53.8161,0,0,0,0,0,0,0,-1,1364,428,8.3193,53.8161
147,596,8.22729,-52.8945,0,0,0,0,0,0,0,-1,1371,428,8.22731,52.8945
154,596,7.86841,-53.9795,0,0,0,0,0,0,0,-1,1378,428,7.86836,53.9795
161,596,8.5426,-53.7915,0,0,0,0,0,0,0,-1,1385,428,8.54258,53.7915
168,596,8.54663,-53.3045,0,0,0,0,0,0,0,-1,1392,428,8.54662,53.3045
175,596,8.75549,-53.0458,0,0,0,0,0,0,0,-1,1399,428,8.7555,53.0458
182,596,8.85815,-52.9386,0,0,0,0,0,0,0,-1,1406,428,8.85818,52.9386
189,596,8.75977,-52.4862,0,0,0,0,0,0,0,-1,1413,428,8.75977,52.4862
196,596,8.64868,-51.9116,0,0,0,0,0,0,0,-1,1420,428,8.64868,51.9116
203,596,8.63416,-51.8384,0,0,0,0,0,0,0,-1,1427,428,8.6342,51.8384
210,596,8.7063,-51.6577,0,0,0,0,0,0,0,-1,1434,428,8.70633,51.6577
217,596,8.73401,-51.1274,0,0,0,0,0,0,0,-1,1441,428,8.73404,51.1274
224,596,8.83606,-50.6428,0,0,0,0,0,0,0,-1,1448,428,8.83612,50.6428
231,596,8.92468,-50.2099,0.00494743,-0.00407355,-0.00133337,0.00514038,-0.0042665,-0.143715,0.00543887,0.0280451,1455,428,8.92467,50.2099
238,596,8.92737,-49.6808,0.00457828,-0.00344266,-0.000932876,0.00468534,-0.00354973,-0.114273,0.00476957,0.017925,1462,428,8.92733,49.6808
245,596,8.94434,-49.1793,0.00426617,-0.00290001,-0.000589834,0.00431439,-0.00294823,-0.0815765,0.00421773,0.0143211,1469,428,8.94436,49.1793
252,596,8.94641,-48.6583,0.00382638,-0.00243319,-0.000349615,0.00384585,-0.00245266,-0.0556222,0.00366598,0.0106971,1476,428,8.94642,48.6583
259,596,8.93604,-48.1321,0.00337634,-0.00215303,-0.000179515,0.00338216,-0.00215885,-0.0324203,0.00322499,0.00898423,1483,428,8.93602,48.1321
266,596,8.92102,-47.5879,0.00305239,-0.00165287,4.22369e-05,0.00305277,-0.00165325,0.00897556,0.00275678,0.0104935,1490,428,8.92097,47.5879
273,596,8.94971,-47.0415,0.00268752,-0.00105635,0.000282868,0.00270877,-0.0010776,0.0749876,0.00225267,0.0130672,1497,428,8.94974,47.0415
280,596,8.95789,-46.5022,0.00240343,-0.000436474,0.000573091,0.00251472,-0.000547762,0.191803,0.00188577,0.0139946,1504,428,8.95784,46.5022
287,596,8.94287,-45.9138,0.00215546,0.000245941,0.000880501,0.00249949,-9.80863e-05,0.372478,0.00169997,0.0125715,1511,428,8.94285,45.9139
294,596,8.90564,-45.3163,0.00182897,0.00102443,0.00121444,0.00270604,0.000147365,0.625465,0.00175696,0.00999812,1518,428,8.90561,45.3163
301,596,8.89282,-44.7298,0.0014873,0.00184832,0.00157407,0.0032522,8.34236e-05,0.842488,0.00214087,0.0114307,1525,428,8.89282,44.7298
308,596,8.87378,-44.1125,0.00121315,0.00276943,0.00197797,0.00411681,-0.000134236,0.972803,0.00279036,0.0168476,1532,428,8.87375,44.1125
315,596,8.81665,-43.475,0.000924673,0.00374777,0.00240961,0.00512883,-0.000456393,1.05035,0.00358106,0.0167297,1539,428,8.81665,43.475
322,596,8.81873,-42.8315,0.000572444,0.00479241,0.0029178,0.0062832,-0.000918347,1.09844,0.00452608,0.0147158,1546,428,8.8187,42.8314
329,596,8.79272,-42.1939,0.000247039,0.00580832,0.00347423,0.00747765,-0.00142229,1.12288,0.00552061,0.0105318,1553,428,8.79278,42.1939
336,596,8.74512,-41.5829,7.67613e-05,0.007074,0.00418378,0.00902922,-0.00187846,1.13362,0.00673354,0.00891801,1560,428,8.7451,41.5829
343,596,8.72156,-40.9373,-5.5807e-05,0.00845119,0.00491292,0.0106961,-0.0023007,1.14219,0.00800854,0.0118926,1567,428,8.72161,40.9373
350,596,8.70154,-40.2634,-9.58452e-05,0.0101321,0.00582066,0.0127662,-0.00272996,1.14583,0.00955171,0.0124601,1574,428,8.70157,40.2634
357,596,8.64441,-39.596,-0.00014923,0.0116851,0.00678219,0.0147685,-0.00323268,1.14409,0.0110815,0.0108522,1581,428,8.64446,39.596
364,596,8.58936,-38.887,-9.2503e-05,0.0131762,0.00769212,0.0166998,-0.00361607,1.14125,0.0125139,0.0117545,1588,428,8.5894,38.887
371,596,8.552,-38.206,0.000313283,0.01555,0.00877021,0.0195487,-0.00368542,1.14301,0.0144188,0.0130695,1595,428,8.55206,38.206
378,596,8.47778,-37.491,0.000405635,0.0175657,0.00979595,0.0220079,-0.00403653,1.14506,0.0161861,0.0175861,1602,428,8.47775,37.491
385,596,8.54016,-36.5383,0.000517775,0.0202144,0.0106225,0.0248515,-0.00411933,1.1592,0.0180977,0.0391358,1609,428,8.54014,36.5383
392,596,8.60291,-35.808,0,0,0,0,0,0,0,-1,1616,428,8.60289,35.808
399,596,8.35107,-34.6254,0,0,0,0,0,0,0,-1,1623,428,8.35109,34.6254
406,596,3.60034,-10.1525,0,0,0,0,0,0,0,-1,1630,428,3.60028,10.1525
413,596,3.39124,-2.63528,0,0,0,0,0,0,0,-1,1637,428,3.39122,2.6353
420,596,2.6344,-3.06308,0,0,0,0,0,0,0,-1,1644,428,2.63439,3.06308
427,596,7.61975,-22.7222,0,0,0,0,0,0,0,-1,1651,428,7.61974,22.7222
434,596,5.09753,-22.5213,0,0,0,0,0,0,0,-1,1658,428,5.09755,22.5213
441,596,7.19043,-22.087,0,0,0,0,0,0,0,-1,1665,428,7.19046,22.087
448,596,1.0769,0.0083313,0,0,0,0,0,0,0,-1,1672,428,1.07684,-0.00832231
455,596,2.00769,-1.43329,0,0,0,0,0,0,0,-1,1679,428,2.00765,1.4333
462,596,0,0,0,0,0,0,0,0,0,-1,1686,428,0,0
469,596,0,0,0,0,0,0,0,0,0,-1,1693,428,0,0
476,596,0,0,0,0,0,0,0,0,0,-1,1700,428,0,0
483,596,0,0,0,0,0,0,0,0,0,-1,1707,428,0,0
490,596,0,0,0,0,0,0,0,0,0,-1,1714,428,0,0
497,596,0,0,0,0,0,0,0,0,0,-1,1721,428,0,0
504,596,0,0,0,0,0,0,0,0,0,-1,1728,428,0,0
511,596,0,0,0,0,0,0,0,0,0,-1,1735,428,0,0
518,596,0,0,0,0,0,0,0,0,0,-1,1742,428,0,0
525,596,0,0,0,0,0,0,0,0,0,-1,1749,428,0,0
532,596,0,0,0,0,0,0,0,0,0,-1,1756,428,0,0
539,596,0,0,0,0,0,0,0,0,0,-1,1763,428,0,0
546,596,0,0,0,0,0,0,0,0,0,-1,1770,428,0,0
553,596,0,0,0,0,0,0,0,0,0,-1,1777,428,0,0
560,596,0,0,0,0,0,0,0,0,0,-1,1784,428,0,0
567,596,0,0,0,0,0,0,0,0,0,-1,1791,428,0,0
574,596,0,0,0,0,0,0,0,0,0,-1,1798,428,0,0
581,596,0,0,0,0,0,0,0,0,0,-1,1805,428,0,0
588,596,0,0,0,0,0,0,0,0,0,-1,1812,428,0,0
595,596,0,0,0,0,0,0,0,0,0,-1,1819,428,0,0
602,596,0,0,0,0,0,0,0,0,0,-1,1826,428,0,0
609,596,0,0,0,0,0,0,0,0,0,-1,1833,428,0,0
616,596,0,0,0,0,0,0,0,0,0,-1,1840,428,0,0
623,596,0,0,0,0,0,0,0,0,0,-1,1847,428,0,0
630,596,0,0,0,0,0,0,0,0,0,-1,1854,428,0,0
637,596,0,0,0,0,0,0,0,0,0,-1,1861,428,0,0
644,596,0,0,0,0,0,0,0,0,0,-1,1868,428,0,0
651,596,0,0,0,0,0,0,0,0,0,-1,1875,428,0,0
658,596,0,0,0,0,0,0,0,0,0,-1,1882,428,0,0
665,596,0,0,0,0,0,0,0,0,0,-1,1889,428,0,0
672,596,0,0,0,0,0,0,0,0,0,-1,1896,428,0,0
679,596,0,0,0,0,0,0,0,0,0,-1,1903,428,0,0
686,596,0,0,0,0,0,0,0,0,0,-1,1910,428,0,0
693,596,0,0,0,0,0,0,0,0,0,-1,1917,428,0,0
700,596,0,0,0,0,0,0,0,0,0,-1,1924,428,0,0
707,596,0,0,0,0,0,0,0,0,0,-1,1931,428,0,0
714,596,0,0,0,0,0,0,0,0,0,-1,1938,428,0,0
721,596,0,0,0,0,0,0,0,0,0,-1,1945,428,0,0
728,596,0,0,0,0,0,0,0,0,0,-1,1952,428,0,0
735,596,0,0,0,0,0,0,0,0,0,-1,1959,428,0,0
742,596,0,0,0,0,0,0,0,0,0,-1,1966,428,0,0
749,596,0,0,0,0,0,0,0,0,0,-1,1973,428,0,0
756,596,0,0,0,0,0,0,0,0,0,-1,1980,428,0,0
763,596,0,0,0,0,0,0,0,0,0,-1,1987,428,0,0
770,596,0,0,0,0,0,0,0,0,0,-1,1994,428,0,0
777,596,0,0,0,0,0,0,0,0,0,-1,2001,428,0,0
784,596,0,0,0,0,0,0,0,0,0,-1,2008,428,0,0
791,596,0,0,0,0,0,0,0,0,0,-1,2015,428,0,0
798,596,0,0,0,0,0,0,0,0,0,-1,2022,428,0,0
805,596,0,0,0,0,0,0,0,0,0,-1,2029,428,0,0
812,596,0,0,0,0,0,0,0,0,0,-1,2036,428,0,0
-700,589,0,0,0,0,0,0,0,0,0,-1,524,435,0,0
-693,589,0,0,0,0,0,0,0,0,0,-1,531,435,0,0
-686,589,0,0,0,0,0,0,0,0,0,-1,538,435,0,0
-679,589,0,0,0,0,0,0,0,0,0,-1,545,435,0,0
-672,589,0,0,0,0,0,0,0,0,0,-1,552,435,0,0
-665,589,0,0,0,0,0,0,0,0,0,-1,559,435,0,0
-658,589,0,0,0,0,0,0,0,0,0,-1,566,435,0,0
-651,589,0,0,0,0,0,0,0,0,0,-1,573,435,0,0
-644,589,0,0,0,0,0,0,0,0,0,-1,580,435,0,0
-637,589,0,0,0,0,0,0,0,0,0,-1,587,435,0,0
-630,589,0,0,0,0,0,0,0,0,0,-1,594,435,0,0
-623,589,0,0,0,0,0,0,0,0,0,-1,601,435,0,0
-616,589,0,0,0,0,0,0,0,0,0,-1,608,435,0,0
-609,589,0,0,0,0,0,0,0,0,0,-1,615,435,0,0
-602,589,0,0,0,0,0,0,0,0,0,-1,622,435,0,0
-595,589,0,0,0,0,0,0,0,0,0,-1,629,435,0,0
-588,589,0,0,0,0,0,0,0,0,0,-1,636,435,0,0
-581,589,0,0,0,0,0,0,0,0,0,-1,643,435,0,0
-574,589,0,0,0,0,0,0,0,0,0,-1,650,435,0,0
-567,589,0,0,0,0,0,0,0,0,0,-1,657,435,0,0
-560,589,0,0,0,0,0,0,0,0,0,-1,664,435,0,0
-553,589,0,0,0,0,0,0,0,0,0,-1,671,435,0,0
-546,589,0,0,0,0,0,0,0,0,0,-1,678,435,0,0
-539,589,0,0,0,0,0,0,0,0,0,-1,685,435,0,0
-532,589,0,0,0,0,0,0,0,0,0,-1,692,435,0,0
-525,589,0,0,0,0,0,0,0,0,0,-1,699,435,0,0
-518,589,0,0,0,0,0,0,0,0,0,-1,706,435,0,0
-511,589,0,0,0,0,0,0,0,0,0,-1,713,435,0,0
-504,589,0,0,0,0,0,0,0,0,0,-1,720,435,0,0
-497,589,0,0,0,0,0,0,0,0,0,-1,727,435,0,0
-490,589,0,0,0,0,0,0,0,0,0,-1,734,435,0,0
-483,589,0,0,0,0,0,0,0,0,0,-1,741,435,0,0
-476,589,0,0,0,0,0,0,0,0,0,-1,748,435,0,0
-469,589,0,0,0,0,0,0,0,0,0,-1,755,435,0,0
-462,589,0,0,0,0,0,0,0,0,0,-1,762,435,0,0
-455,589,0,0,0,0,0,0,0,0,0,-1,769,435,0,0
-448,589,0,0,0,0,0,0,0,0,0,-1,776,435,0,0
-441,589,0,0,0,0,0,0,0,0,0,-1,783,435,0,0
-434,589,0,0,0,0,0,0,0,0,0,-1,790,435,0,0
-427,589,0,0,0,0,0,0,0,0,0,-1,797,435,0,0
-420,589,0,0,0,0,0,0,0,0,0,-1,804,435,0,0
-413,589,0,0,0,0,0,0,0,0,0,-1,811,435,0,0
-406,589,0,0,0,0,0,0,0,0,0,-1,818,435,0,0
-399,589,0,0,0,0,0,0,0,0,0,-1,825,435,0,0
-392,589,0,0,0,0,0,0,0,0,0,-1,832,435,0,0
-385,589,0,0,0,0,0,0,0,0,0,-1,839,435,0,0
-378,589,0,0,0,0,0,0,0,0,0,-1,846,435,0,0
-371,589,0,0,0,0,0,0,0,0,0,-1,853,435,0,0
-364,589,0,0,0,0,0,0,0,0,0,-1,860,435,0,0
-357,589,0,0,0,0,0,0,0,0,0,-1,867,435,0,0
-350,589,-0.799927,-20.664,0,0,0,0,0,0,0,-1,874,435,-0.799952,20.664
-343,589,5.15289,-30.4847,0,0,0,0,0,0,0,-1,881,435,5.15291,30.4847
-336,589,5.07684,-29.2368,0,0,0,0,0,0,0,-1,888,435,5.07687,29.2368
-329,589,4.9624,-28.1366,0,0,0,0,0,0,0,-1,895,435,4.96242,28.1366
-322,589,5.10156,-27.065,0,0,0,0,0,0,0,-1,902,435,5.10155,27.065
-315,589,4.22705,-27.9655,0,0,0,0,0,0,0,-1,909,435,4.22705,27.9655
-308,589,4.46698,-29.037,0,0,0,0,0,0,0,-1,916,435,4.46696,29.037
-301,589,4.37323,-33.2719,0,0,0,0,0,0,0,-1,923,435,4.37322,33.272
-294,589,4.1037,-31.2976,0,0,0,0,0,0,0,-1,930,435,4.10371,31.2976
-287,589,4.17535,-34.4604,0,0,0,0,0,0,0,-1,937,435,4.17537,34.4604
-280,589,4.24213,-35.1814,-0.00337969,0.0166435,-0.0065646,0.0186038,-0.00533998,-1.28061,0.0145137,0.0441756,944,435,4.24215,35.1814
-273,589,4.22601,-35.8357,-0.00344721,0.0160357,-0.00634354,0.0179191,-0.00533058,-1.28219,0.0140638,0.0281003,951,435,4.22598,35.8357
-266,589,4.13928,-36.5913,-0.00350734,0.0147634,-0.00589806,0.016502,-0.00524589,-1.28415,0.0131047,0.027506,958,435,4.1393,36.5913
-259,589,4.07263,-37.3517,-0.00337032,0.0135207,-0.00543529,0.0151186,-0.00496816,-1.28488,0.0120806,0.0228746,965,435,4.07264,37.3517
-252,589,4.05383,-38.1292,-0.00301945,0.0125338,-0.00488136,0.0139389,-0.00442452,-1.29053,0.0110663,0.0118786,972,435,4.05382,38.1292
-245,589,4.03076,-38.8299,-0.0025874,0.0112968,-0.00446768,0.0126102,-0.00390077,-1.28488,0.0099649,0.0106683,979,435,4.03074,38.8299
-238,589,3.96576,-39.5076,-0.00217818,0.00989337,-0.00397518,0.0110848,-0.00336962,-1.2796,0.00873254,0.0138552,986,435,3.96576,39.5076
-231,589,3.92389,-40.1437,-0.00170417,0.00848158,-0.00349346,0.0095646,-0.00278719,-1.27018,0.00748059,0.0138849,993,435,3.92389,40.1437
-224,589,3.86426,-40.7921,-0.00128091,0.00704312,-0.00303973,0.00803497,-0.00227276,-1.25539,0.00625345,0.014117,1000,435,3.86426,40.7921
-217,589,3.84888,-41.4359,-0.000869775,0.0052904,-0.00253333,0.00619838,-0.00177776,-1.22664,0.00483504,0.0158568,1007,435,3.84888,41.4359
-210,589,3.85785,-42.0691,-0.000476499,0.00349159,-0.00195027,0.00428963,-0.00127454,-1.18239,0.00336602,0.0159499,1014,435,3.85785,42.0691
-203,589,3.81262,-42.6936,-0.000114737,0.00178019,-0.00136501,0.00249433,-0.00082888,-1.08878,0.00199736,0.011915,1021,435,3.81266,42.6936
-196,589,3.77539,-43.2876,0.000164048,0.000132002,-0.000778102,0.000926292,-0.000630242,-0.775104,0.000904067,0.0138853,1028,435,3.77543,43.2876
-189,589,3.77539,-43.8706,0.000464032,-0.00142993,-0.000313044,0.000514432,-0.00148033,-0.159631,0.00119584,0.0180662,1035,435,3.77536,43.8706
-182,589,3.73718,-44.4601,0.000730769,-0.00296477,0.000283029,0.000752319,-0.00298632,0.075996,0.00228335,0.0144848,1042,435,3.73721,44.46
-175,589,3.7384,-45.0659,0.000977832,-0.00466729,0.000983224,0.00114418,-0.00483364,0.1676,0.00366386,0.0188002,1049,435,3.73835,45.0659
-168,589,3.74536,-45.6918,0.00118895,-0.00622215,0.00159497,0.00151763,-0.00655083,0.20323,0.00495125,0.0159296,1056,435,3.74539,45.6918
-161,589,3.73328,-46.2312,0.0013719,-0.00754077,0.0021799,0.0018765,-0.00804537,0.227472,0.00608628,0.0142009,1063,435,3.73324,46.2312
-154,589,3.71582,-46.7562,0.0015949,-0.00887851,0.00279181,0.00229261,-0.00957622,0.244897,0.00726986,0.0143601,1070,435,3.71583,46.7562
-147,589,3.7345,-47.2848,0.0019636,-0.0101067,0.00336879,0.00284016,-0.0109833,0.254557,0.00842992,0.0145547,1077,435,3.73447,47.2848
-140,589,3.75269,-47.8024,0.00232512,-0.0113599,0.003873,0.00334518,-0.0123799,0.25753,0.00956536,0.0155012,1084,435,3.75274,47.8024
-133,589,3.73279,-48.3392,0.00255567,-0.0125727,0.00444312,0.00376406,-0.0137811,0.265547,0.0106658,0.0152569,1091,435,3.73276,48.3392
-126,589,3.74756,-48.8477,0.0029659,-0.0132683,0.00480798,0.00428299,-0.0145854,0.267379,0.0114222,0.0127848,1098,435,3.74761,48.8477
-119,589,3.7395,-49.3496,0.00353041,-0.0137817,0.00509959,0.0049209,-0.0151722,0.266196,0.0120936,0.0206482,1105,435,3.73952,49.3496
-112,589,3.70349,-49.9192,0.00409659,-0.0138794,0.00524643,0.00551576,-0.0152986,0.264179,0.0124518,0.0391413,1112,435,3.70344,49.9192
-105,589,3.72449,-50.3718,0,0,0,0,0,0,0,-1,1119,435,3.72447,50.3718
-98,589,3.83386,-51.0291,0,0,0,0,0,0,0,-1,1126,435,3.83383,51.029
-91,589,3.39563,-37.8231,0,0,0,0,0,0,0,-1,1133,435,3.39565,37.8231
-84,589,2.76538,-22.6013,0,0,0,0,0,0,0,-1,1140,435,2.76539,22.6014
-77,589,2.18152,-14.8023,0,0,0,0,0,0,0,-1,1147,435,2.18155,14.8023
-70,589,1.48267,-9.90961,0,0,0,0,0,0,0,-1,1154,435,1.48264,9.9096
-63,589,0.880127,-5.50586,0,0,0,0,0,0,0,-1,1161,435,0.880186,5.50587
-56,589,-2.78052,-7.28082,0,0,0,0,0,0,0,-1,1168,435,-2.78053,7.28082
-49,589,-0.525757,-2.76703,0,0,0,0,0,0,0,-1,1175,435,-0.525771,2.76702
-42,589,-2.7738,-2.87921,0,0,0,0,0,0,0,-1,1182,435,-2.77383,2.87922
-35,589,-2.55225,-3.27551,0,0,0,0,0,0,0,-1,1189,435,-2.55223,3.27552
-28,589,-0.0632324,-3.42938,0,0,0,0,0,0,0,-1,1196,435,-0.063241,3.42938
-21,589,5.14331,-52.5247,0,0,0,0,0,0,0,-1,1203,435,5.14333,52.5247
-14,589,5.58789,-52.2671,0.00491923,0.00172615,-0.032355,0.0357171,-0.0290717,-0.760746,0.0374713,0.0478639,1210,435,5.58784,52.2671
-7,589,5.99951,-52.0088,0.00625851,0.000512801,-0.0351332,0.0386361,-0.0318648,-0.744604,0.0407662,0.0478231,1217,435,5.99953,52.0088
0,589,4.76929,-54.9588,0,0,0,0,0,0,0,-1,1224,435,4.76923,54.9588
7,589,4.56494,-55.7982,0.0124038,0.000783267,-0.0409962,0.0479994,-0.0348124,-0.715004,0.048013,0.049067,1231,435,4.56498,55.7982
14,589,4.35718,-56.6681,0,0,0,0,0,0,0,-1,1238,435,4.35714,56.6681
21,589,4.55969,-51.5446,0,0,0,0,0,0,0,-1,1245,435,4.55966,51.5446
28,589,4.94165,-52.3009,0,0,0,0,0,0,0,-1,1252,435,4.94169,52.3009
35,589,6.0426,-55.3624,0.0346281,0.00846669,-0.0515727,0.074753,-0.0316583,-0.661199,0.0630936,0.0459964,1259,435,6.04266,55.3624
42,589,6.21692,-55.3939,0.0407034,0.0117555,-0.0540401,0.0821744,-0.0297154,-0.654551,0.0669244,0.0488416,1266,435,6.21687,55.3939
49,589,6.71558,-55.7646,0.0470593,0.0148018,-0.0556047,0.0888271,-0.026966,-0.644241,0.0699611,0.0456413,1273,435,6.71556,55.7646
56,589,7.27539,-56.0589,0,0,0,0,0,0,0,-1,1280,435,7.27539,56.0589
63,589,7.62976,-56.2769,0,0,0,0,0,0,0,-1,1287,435,7.62977,56.2769
70,589,8.00574,-56.5,0,0,0,0,0,0,0,-1,1294,435,8.00577,56.5
77,589,8.73511,-57.5319,0,0,0,0,0,0,0,-1,1301,435,8.73505,57.5319
84,589,5.31824,-53.529,0,0,0,0,0,0,0,-1,1308,435,5.31821,53.529
91,589,11.2917,-57.5715,0,0,0,0,0,0,0,-1,1315,435,11.2918,57.5715
98,589,12.0627,-57.9932,0,0,0,0,0,0,0,-1,1322,435,12.0627,57.9932
105,589,12.5833,-57.8998,0,0,0,0,0,0,0,-1,1329,435,12.5833,57.8998
112,589,13.3116,-58.1493,0.0682663,0.052599,-0.0605648,0.121502,-0.000636678,-0.721084,0.0812144,0.0467052,1336,435,13.3117,58.1493
119,589,14.0271,-58.5,0.0674057,0.0535889,-0.0603943,0.121285,-0.000290845,-0.728452,0.0809541,0.0484006,1343,435,14.0271,58.5
126,589,14.431,-58.5955,0.0667899,0.0539665,-0.0602841,0.121002,-0.00024588,-0.732418,0.0807503,0.0498039,1350,435,14.431,58.5955
133,589,14.8182,-58.8049,0.0653316,0.0520034,-0.0591198,0.118162,-0.000826769,-0.729274,0.0790515,0.0499065,1357,435,14.8182,58.8049
140,589,15.3118,-59.0608,0,0,0,0,0,0,0,-1,1364,435,15.3118,59.0608
147,589,16.1951,-59.1362,0,0,0,0,0,0,0,-1,1371,435,16.1951,59.1362
154,589,16.9497,-58.9717,0,0,0,0,0,0,0,-1,1378,435,16.9497,58.9717
161,589,-2.87488,-52.599,0,0,0,0,0,0,0,-1,1385,435,-2.87491,52.599
168,589,20.0441,-47.9614,0,0,0,0,0,0,0,-1,1392,435,20.044,47.9613
175,589,8.66992,-7.65527,0,0,0,0,0,0,0,-1,1399,435,8.66994,7.65528
182,589,3.8136,-2.45389,0,0,0,0,0,0,0,-1,1406,435,3.81363,2.4539
189,589,3.69983,-3.68149,0,0,0,0,0,0,0,-1,1413,435,3.69987,3.68147
196,589,3.31055,-5.31677,0,0,0,0,0,0,0,-1,1420,435,3.31059,5.31678
203,589,2.72559,-8.84338,0,0,0,0,0,0,0,-1,1427,435,2.72558,8.84338
210,589,3.62378,-14.4032,0,0,0,0,0,0,0,-1,1434,435,3.62378,14.4032
217,589,4.65601,-22.3745,0,0,0,0,0,0,0,-1,1441,435,4.65607,22.3745
224,589,6.79028,-33.9412,0,0,0,0,0,0,0,-1,1448,435,6.79028,33.9412
231,589,9.4292,-50.2733,0,0,0,0,0,0,0,-1,1455,435,9.42916,50.2733
238,589,9.42542,-49.6661,0,0,0,0,0,0,0,-1,1462,435,9.42541,49.6661
245,589,9.52026,-49.0679,0,0,0,0,0,0,0,-1,1469,435,9.52026,49.0679
252,589,9.46191,-48.5862,0.00533545,-0.00465948,-0.00121455,0.00548092,-0.00480495,-0.119205,0.00594283,0.0224853,1476,435,9.46194,48.5862
259,589,9.46033,-48.1037,0.00478223,-0.00487803,-0.00110816,0.00490772,-0.00500352,-0.112762,0.00572234,0.0105702,1483,435,9.46035,48.1037
266,589,9.46851,-47.5569,0.00439979,-0.00463365,-0.000924609,0.00449346,-0.00472732,-0.100959,0.00532419,0.0105265,1490,435,9.46853,47.5569
273,589,9.49805,-47.0472,0.00394658,-0.00428101,-0.000731803,0.00401116,-0.00434559,-0.0880243,0.00482606,0.0129854,1497,435,9.49801,47.0472
280,589,9.49939,-46.4944,0.00360432,-0.00386694,-0.000499766,0.0036376,-0.00390023,-0.066497,0.00435285,0.0141978,1504,435,9.49937,46.4943
287,589,9.49561,-45.914,0.00328948,-0.00335851,-0.000304733,0.00330342,-0.00337245,-0.0457106,0.00385438,0.0127378,1511,435,9.49566,45.914
294,589,9.49036,-45.3072,0.00290989,-0.00261913,-5.68869e-05,0.00291047,-0.00261971,-0.0102874,0.00319432,0.0107628,1518,435,9.4904,45.3072
301,589,9.48059,-44.7143,0.00251389,-0.0017683,0.000222693,0.00252544,-0.00177985,0.0518181,0.00249805,0.0112949,1525,435,9.48059,44.7143
308,589,9.46021,-44.1039,0.0021531,-0.000803176,0.000529243,0.00224499,-0.000895066,0.171913,0.00186792,0.0114328,1532,435,9.46019,44.1039
315,589,9.44702,-43.4741,0.00178636,0.000240099,0.000876719,0.00218215,-0.000155687,0.424051,0.00150934,0.0112093,1539,435,9.44699,43.4741
322,589,9.46497,-42.8258,0.00138305,0.00141316,0.00132658,0.00272477,7.14412e-05,0.791071,0.00179317,0.0122319,1546,435,9.46501,42.8258
329,589,9.42456,-42.1903,0.000991368,0.00256187,0.00184006,0.00377723,-0.000223992,0.987075,0.00259604,0.0102715,1553,435,9.42462,42.1903
336,589,9.38782,-41.5747,0.000712669,0.00387669,0.00248184,0.00523786,-0.000648496,1.06914,0.00372693,0.00945164,1560,435,9.38787,41.5747
343,589,9.36365,-40.9377,0.000478959,0.00531499,0.00317677,0.0068893,-0.00109536,1.1107,0.00499816,0.0107746,1567,435,9.36363,40.9378
350,589,9.31714,-40.2782,0.000336494,0.00697893,0.00401046,0.00886485,-0.00154943,1.13123,0.00648834,0.0156801,1574,435,9.31714,40.2782
357,589,9.30103,-39.5801,0.000214393,0.00851776,0.00490355,0.0107911,-0.00205897,1.13668,0.00796957,0.0144375,1581,435,9.30105,39.5801
364,589,9.27576,-38.892,0.000195664,0.00997365,0.00577078,0.012648,-0.00247869,1.13683,0.00936818,0.0120087,1588,435,9.27575,38.892
371,589,9.2373,-38.2083,0.000377713,0.0118771,0.00670412,0.0149594,-0.00270459,1.13985,0.010986,0.011803,1595,435,9.23732,38.2083
378,589,9.1687,-37.4911,0.000371606,0.0135349,0.00755569,0.0169735,-0.00306706,1.1437,0.0124645,0.0134063,1602,435,9.16868,37.4911
385,589,9.11292,-36.7365,0.000398381,0.0156536,0.00821404,0.0192354,-0.00318341,1.1596,0.0140059,0.0232184,1609,435,9.11296,36.7365
392,589,9.08069,-35.8422,0.000580987,0.0173199,0.00882795,0.0211152,-0.00321428,1.16477,0.0152615,0.0316101,1616,435,9.08065,35.8422
399,589,9.08521,-34.9802,0.000945808,0.0195228,0.00990858,0.0238158,-0.00334716,1.16195,0.0171024,0.0394741,1623,435,9.08522,34.9802
406,589,8.94434,-34.4016,0,0,0,0,0,0,0,-1,1630,435,8.94435,34.4016
413,589,5.61377,-19.0606,0,0,0,0,0,0,0,-1,1637,435,5.61372,19.0606
420,589,2.79724,-5.79956,0,0,0,0,0,0,0,-1,1644,435,2.7973,5.79955
427,589,8.31006,-32.4458,0,0,0,0,0,0,0,-1,1651,435,8.31008,32.4458
434,589,8.26428,-30.9612,0,0,0,0,0,0,0,-1,1658,435,8.26422,30.9612
441,589,7.85901,-29.8665,0,0,0,0,0,0,0,-1,1665,435,7.85898,29.8666
448,589,0.453735,-3.2868,0,0,0,0,0,0,0,-1,1672,435,0.453701,3.28681
455,589,0.664307,-3.46848,0,0,0,0,0,0,0,-1,1679,435,0.66425,3.46846
462,589,3.46716,-4.41891,0,0,0,0,0,0,0,-1,1686,435,3.4672,4.41891
469,589,0.0238037,-3.81497,0,0,0,0,0,0,0,-1,1693,435,0.0237965,3.81498
476,589,0,0,0,0,0,0,0,0,0,-1,1700,435,0,0
483,589,0,0,0,0,0,0,0,0,0,-1,1707,435,0,0
490,589,0,0,0,0,0,0,0,0,0,-1,1714,435,0,0
497,589,0,0,0,0,0,0,0,0,0,-1,1721,435,0,0
504,589,0,0,0,0,0,0,0,0,0,-1,1728,435,0,0
511,589,0,0,0,0,0,0,0,0,0,-1,1735,435,0,0
518,589,0,0,0,0,0,0,0,0,0,-1,1742,435,0,0
525,589,0,0,0,0,0,0,0,0,0,-1,1749,435,0,0
532,589,0,0,0,0,0,0,0,0,0,-1,1756,435,0,0
539,589,0,0,0,0,0,0,0,0,0,-1,1763,435,0,0
546,589,0,0,0,0,0,0,0,0,0,-1,1770,435,0,0
553,589,0,0,0,0,0,0,0,0,0,-1,1777,435,0,0
560,589,0,0,0,0,0,0,0,0,0,-1,1784,435,0,0
567,589,0,0,0,0,0,0,0,0,0,-1,1791,435,0,0
574,589,0,0,0,0,0,0,0,0,0,-1,1798,435,0,0
581,589,0,0,0,0,0,0,0,0,0,-1,1805,435,0,0
588,589,0,0,0,0,0,0,0,0,0,-1,1812,435,0,0
595,589,0,0,0,0,0,0,0,0,0,-1,1819,435,0,0
602,589,0,0,0,0,0,0,0,0,0,-1,1826,435,0,0
609,589,0,0,0,0,0,0,0,0,0,-1,1833,435,0,0
616,589,0,0,0,0,0,0,0,0,0,-1,1840,435,0,0
623,589,0,0,0,0,0,0,0,0,0,-1,1847,435,0,0
630,589,0,0,0,0,0,0,0,0,0,-1,1854,435,0,0
637,589,0,0,0,0,0,0,0,0,0,-1,1861,435,0,0
644,589,0,0,0,0,0,0,0,0,0,-1,1868,435,0,0
651,589,0,0,0,0,0,0,0,0,0,-1,1875,435,0,0
658,589,0,0,0,0,0,0,0,0,0,-1,1882,435,0,0
665,589,0,0,0,0,0,0,0,0,0,-1,1889,435,0,0
672,589,0,0,0,0,0,0,0,0,0,-1,1896,435,0,0
679,589,0,0,0,0,0,0,0,0,0,-1,1903,435,0,0
686,589,0,0,0,0,0,0,0,0,0,-1,1910,435,0,0
693,589,0,0,0,0,0,0,0,0,0,-1,1917,435,0,0
700,589,0,0,0,0,0,0,0,0,0,-1,1924,435,0,0
707,589,0,0,0,0,0,0,0,0,0,-1,1931,435,0,0
714,589,0,0,0,0,0,0,0,0,0,-1,1938,435,0,0
721,589,0,0,0,0,0,0,0,0,0,-1,1945,435,0,0
728,589,0,0,0,0,0,0,0,0,0,-1,1952,435,0,0
735,589,0,0,0,0,0,0,0,0,0,-1,1959,435,0,0
742,589,0,0,0,0,0,0,0,0,0,-1,1966,435,0,0
749,589,0,0,0,0,0,0,0,0,0,-1,1973,435,0,0
756,589,0,0,0,0,0,0,0,0,0,-1,1980,435,0,0
763,589,0,0,0,0,0,0,0,0,0,-1,1987,435,0,0
770,589,0,0,0,0,0,0,0,0,0,-1,1994,435,0,0
777,589,0,0,0,0,0,0,0,0,0,-1,2001,435,0,0
784,589,0,0,0,0,0,0,0,0,0,-1,2008,435,0,0
791,589,0,0,0,0,0,0,0,0,0,-1,2015,435,0,0
798,589,0,0,0,0,0,0,0,0,0,-1,2022,435,0,0
805,589,0,0,0,0,0,0,0,0,0,-1,2029,435,0,0
812,589,0,0,0,0,0,0,0,0,0,-1,2036,435,0,0
-700,582,0,0,0,0,0,0,0,0,0,-1,524,442,0,0
-693,582,0,0,0,0,0,0,0,0,0,-1,531,442,0,0
-686,582,0,0,0,0,0,0,0,0,0,-1,538,442,0,0
-679,582,0,0,0,0,0,0,0,0,0,-1,545,442,0,0
-672,582,0,0,0,0,0,0,0,0,0,-1,552,442,0,0
-665,582,0,0,0,0,0,0,0,0,0,-1,559,442,0,0
-658,582,0,0,0,0,0,0,0,0,0,-1,566,442,0,0
-651,582,0,0,0,0,0,0,0,0,0,-1,573,442,0,0
-644,582,0,0,0,0,0,0,0,0,0,-1,580,442,0,0
-637,582,0,0,0,0,0,0,0,0,0,-1,587,442,0,0
-630,582,0,0,0,0,0,0,0,0,0,-1,594,442,0,0
-623,582,0,0,0,0,0,0,0,0,0,-1,601,442,0,0
-616,582,0,0,0,0,0,0,0,0,0,-1,608,442,0,0
-609,582,0,0,0,0,0,0,0,0,0,-1,615,442,0,0
-602,582,0,0,0,0,0,0,0,0,0,-1,622,442,0,0
-595,582,0,0,0,0,0,0,0,0,0,-1,629,442,0,0
-588,582,0,0,0,0,0,0,0,0,0,-1,636,442,0,0
-581,582,0,0,0,0,0,0,0,0,0,-1,643,442,0,0
-574,582,0,0,0,0,0,0,0,0,0,-1,650,442,0,0
-567,582,0,0,0,0,0,0,0,0,0,-1,657,442,0,0
-560,582,0,0,0,0,0,0,0,0,0,-1,664,442,0,0
-553,582,0,0,0,0,0,0,0,0,0,-1,671,442,0,0
-546,582,0,0,0,0,0,0,0,0,0,-1,678,442,0,0
-539,582,0,0,0,0,0,0,0,0,0,-1,685,442,0,0
-532,582,0,0,0,0,0,0,0,0,0,-1,692,442,0,0
-525,582,0,0,0,0,0,0,0,0,0,-1,699,442,0,0
-518,582,0,0,0,0,0,0,0,0,0,-1,706,442,0,0
-511,582,0,0,0,0,0,0,0,0,0,-1,713,442,0,0
-504,582,0,0,0,0,0,0,0,0,0,-1,720,442,0,0
-497,582,0,0,0,0,0,0,0,0,0,-1,727,442,0,0
-490,582,0,0,0,0,0,0,0,0,0,-1,734,442,0,0
-483,582,0,0,0,0,0,0,0,0,0,-1,741,442,0,0
-476,582,0,0,0,0,0,0,0,0,0,-1,748,442,0,0
-469,582,0,0,0,0,0,0,0,0,0,-1,755,442,0,0
-462,582,0,0,0,0,0,0,0,0,0,-1,762,442,0,0
-455,582,0,0,0,0,0,0,0,0,0,-1,769,442,0,0
-448,582,0,0,0,0,0,0,0,0,0,-1,776,442,0,0
-441,582,0,0,0,0,0,0,0,0,0,-1,783,442,0,0
-434,582,0,0,0,0,0,0,0,0,0,-1,790,442,0,0
-427,582,0,0,0,0,0,0,0,0,0,-1,797,442,0,0
-420,582,0,0,0,0,0,0,0,0,0,-1,804,442,0,0
-413,582,0,0,0,0,0,0,0,0,0,-1,811,442,0,0
-406,582,0,0,0,0,0,0,0,0,0,-1,818,442,0,0
-399,582,0,0,0,0,0,0,0,0,0,-1,825,442,0,0
-392,582,0,0,0,0,0,0,0,0,0,-1,832,442,0,0
-385,582,0,0,0,0,0,0,0,0,0,-1,839,442,0,0
-378,582,0,0,0,0,0,0,0,0,0,-1,846,442,0,0
-371,582,0,0,0,0,0,0,0,0,0,-1,853,442,0,0
-364,582,0,0,0,0,0,0,0,0,0,-1,860,442,0,0
-357,582,-1.4903,-21.5295,0,0,0,0,0,0,0,-1,867,442,-1.49031,21.5295
-350,582,-0.880859,-19.7966,0,0,0,0,0,0,0,-1,874,442,-0.880885,19.7966
-343,582,0.939941,-19.1705,0,0,0,0,0,0,0,-1,881,442,0.939935,19.1705
-336,582,3.33929,-27.9479,0,0,0,0,0,0,0,-1,888,442,3.33928,27.9479
-329,582,3.63544,-26.4736,0,0,0,0,0,0,0,-1,895,442,3.63546,26.4736
-322,582,3.67145,-27.1796,0,0,0,0,0,0,0,-1,902,442,3.67143,27.1796
-315,582,3.90686,-27.6446,0,0,0,0,0,0,0,-1,909,442,3.90689,27.6446
-308,582,3.41528,-32.2083,0,0,0,0,0,0,0,-1,916,442,3.41526,32.2083
-301,582,3.75391,-33.0708,0,0,0,0,0,0,0,-1,923,442,3.7539,33.0708
-294,582,3.65839,-33.5717,0,0,0,0,0,0,0,-1,930,442,3.65841,33.5717
-287,582,3.65759,-34.3883,-0.00248077,0.0140006,-0.00573765,0.0158013,-0.00428148,-1.26669,0.0122141,0.0417944,937,442,3.65759,34.3883
-280,582,3.59045,-35.146,-0.00245896,0.0131016,-0.00544395,0.014817,-0.00417443,-1.26553,0.0115243,0.0189065,944,442,3.59045,35.146
-273,582,3.58167,-35.9486,-0.00251631,0.0125582,-0.00525828,0.0142112,-0.00416926,-1.26623,0.0111273,0.0126154,951,442,3.58166,35.9486
-266,582,3.51929,-36.7024,-0.00256031,0.0113881,-0.00488577,0.0129292,-0.0041014,-1.26525,0.0102635,0.0118711,958,442,3.51927,36.7024
-259,582,3.46564,-37.417,-0.00237208,0.0100788,-0.00438567,0.0114685,-0.00376177,-1.26393,0.00916078,0.00970205,965,442,3.46562,37.417
-252,582,3.42261,-38.1197,-0.00206752,0.00894631,-0.00375643,0.0101055,-0.00322671,-1.27148,0.0080316,0.00830655,972,442,3.4226,38.1197
-245,582,3.39856,-38.7809,-0.00170992,0.00751173,-0.00317932,0.00850159,-0.00269979,-1.26896,0.0067501,0.0122099,979,442,3.39853,38.7809
-238,582,3.35199,-39.4197,-0.00132419,0.00591597,-0.00255471,0.00672664,-0.00213486,-1.26352,0.00534024,0.0163123,986,442,3.35197,39.4197
-231,582,3.30798,-40.0638,-0.000925783,0.00420482,-0.00189512,0.00482892,-0.00154988,-1.25266,0.00384158,0.0124178,993,442,3.30796,40.0638
-224,582,3.26697,-40.7378,-0.000585636,0.00249629,-0.00125996,0.00294582,-0.00103517,-1.22809,0.00238503,0.0106983,1000,442,3.26696,40.7378
-217,582,3.24091,-41.3982,-0.000245462,0.000536009,-0.00059212,0.000854696,-0.000564149,-1.07705,0.000824876,0.0127907,1007,442,3.24088,41.3982
-210,582,3.2431,-42.0256,9.52435e-05,-0.00143999,0.000113843,0.000103639,-0.00144838,0.0736169,0.00100192,0.0136421,1014,442,3.24308,42.0256
-203,582,3.21851,-42.6572,0.000421642,-0.00324106,0.000771307,0.00057744,-0.00339686,0.19931,0.00247957,0.0113215,1021,442,3.21845,42.6572
-196,582,3.15076,-43.279,0.000661933,-0.00492375,0.00141167,0.000998433,-0.00526025,0.234003,0.00388267,0.0171094,1028,442,3.15074,43.279
-189,582,3.15784,-43.8694,0.000905094,-0.00655533,0.0019585,0.00138798,-0.00703821,0.241739,0.00521672,0.0237631,1035,442,3.15789,43.8695
-182,582,3.17078,-44.4664,0.0011627,-0.0080639,0.00255339,0.00182219,-0.00872339,0.252757,0.00650858,0.0165117,1042,442,3.17079,44.4664
-175,582,3.15369,-45.0288,0.00142966,-0.00979617,0.00325845,0.00230692,-0.0106734,0.262989,0.00799629,0.0157753,1049,442,3.15364,45.0288
-168,582,3.15015,-45.6208,0.00163101,-0.0112631,0.00380835,0.00267182,-0.0123039,0.266782,0.0092231,0.01289,1056,442,3.15013,45.6208
-161,582,3.15918,-46.186,0.00179534,-0.012536,0.0043192,0.0029964,-0.0137371,0.271224,0.0103031,0.0133627,1063,442,3.15912,46.186
-154,582,3.1637,-46.7326,0.00207331,-0.0139163,0.00490776,0.0034595,-0.0153025,0.275277,0.0115292,0.0133484,1070,442,3.16366,46.7326
-147,582,3.18262,-47.273,0.00253102,-0.015183,0.00546821,0.00408304,-0.016735,0.276553,0.0127377,0.0134965,1077,442,3.18258,47.273
-140,582,3.16626,-47.7559,0.00296103,-0.0165062,0.00592987,0.00462508,-0.0181703,0.273584,0.0139139,0.0150965,1084,442,3.16622,47.7559
-133,582,3.20703,-48.2801,0.00312719,-0.0179072,0.00656101,0.00500588,-0.0197859,0.278881,0.0151377,0.018761,1091,442,3.20697,48.2801
-126,582,3.23425,-48.6996,0.00352163,-0.0186874,0.00694103,0.00551246,-0.0206783,0.279323,0.0159439,0.0180917,1098,442,3.23421,48.6996
-119,582,3.19214,-49.129,0.00406934,-0.0193906,0.00727889,0.00614424,-0.0214655,0.277693,0.0167386,0.03248,1105,442,3.19212,49.129
-112,582,3.13647,-49.7094,0,0,0,0,0,0,0,-1,1112,442,3.13642,49.7094
-105,582,2.87219,-43.073,0,0,0,0,0,0,0,-1,1119,442,2.87217,43.073
-98,582,2.61938,-32.8673,0,0,0,0,0,0,0,-1,1126,442,2.61944,32.8673
-91,582,2.16492,-24.1119,0,0,0,0,0,0,0,-1,1133,442,2.16496,24.1119
-84,582,2.10278,-16.7533,0,0,0,0,0,0,0,-1,1140,442,2.10279,16.7533
-77,582,2.30212,-11.4907,0,0,0,0,0,0,0,-1,1147,442,2.30207,11.4907
-70,582,1.49255,-6.36548,0,0,0,0,0,0,0,-1,1154,442,1.49251,6.36549
-63,582,-4.62915,-4.0347,0,0,0,0,0,0,0,-1,1161,442,-4.6292,4.03471
-56,582,-5.81714,-5.24149,0,0,0,0,0,0,0,-1,1168,442,-5.81718,5.24149
-49,582,-3.88672,-10.1064,0,0,0,0,0,0,0,-1,1175,442,-3.88678,10.1064
-42,582,-0.948975,1.13968,0,0,0,0,0,0,0,-1,1182,442,-0.949003,-1.13969
-35,582,-2.58435,-3.86911,0,0,0,0,0,0,0,-1,1189,442,-2.58437,3.86912
-28,582,-0.825317,-3.45941,0,0,0,0,0,0,0,-1,1196,442,-0.825377,3.45942
-21,582,4.37268,-50.8958,0,0,0,0,0,0,0,-1,1203,442,4.37267,50.8958
-14,582,5.31812,-51.0388,0.000793207,0.0119046,-0.0404829,0.0472112,-0.0345134,-0.85359,0.0473732,0.0457323,1210,442,5.31817,51.0388
-7,582,6.10583,-50.8625,0.0020047,0.00920823,-0.0434049,0.0491605,-0.0379476,-0.826794,0.0504306,0.0471994,1217,442,6.10578,50.8625
0,582,5.82312,-54.1743,0,0,0,0,0,0,0,-1,1224,442,5.82317,54.1743
7,582,5.53796,-54.9386,0,0,0,0,0,0,0,-1,1231,442,5.53791,54.9386
14,582,4.57849,-51.2543,0,0,0,0,0,0,0,-1,1238,442,4.57855,51.2543
21,582,4.93384,-52.1641,0,0,0,0,0,0,0,-1,1245,442,4.9338,52.1641
28,582,5.28613,-52.9631,0.0303464,0.0125463,-0.060143,0.0822443,-0.0393516,-0.711941,0.0716446,0.0440056,1252,442,5.28617,52.9631
35,582,5.97363,-53.4271,0.0387722,0.0155232,-0.0632163,0.0914239,-0.0371284,-0.694472,0.0763945,0.046599,1259,442,5.97358,53.4271
42,582,6.41187,-55.3655,0.0469969,0.01914,-0.0662996,0.100815,-0.0346784,-0.681862,0.0812744,0.0474299,1266,442,6.41186,55.3655
49,582,6.90466,-55.7755,0.0555736,0.0225875,-0.0684156,0.109456,-0.031295,-0.66712,0.0853371,0.0442449,1273,442,6.90467,55.7755
56,582,7.67041,-56.3419,0,0,0,0,0,0,0,-1,1280,442,7.67035,56.3419
63,582,8.54114,-57.3182,0.0695448,0.03415,-0.0702662,0.124308,-0.0206132,-0.662033,0.0905287,0.0435343,1287,442,8.54114,57.3182
70,582,9.19995,-57.7986,0.0743689,0.0395502,-0.0714169,0.130468,-0.0165487,-0.665845,0.0929869,0.0449384,1294,442,9.19993,57.7986
77,582,9.3501,-57.8636,0.0781632,0.0455753,-0.0721181,0.135805,-0.0120666,-0.674296,0.0948152,0.046539,1301,442,9.35007,57.8637
84,582,9.6178,-58.5218,0,0,0,0,0,0,0,-1,1308,442,9.61781,58.5218
91,582,12.0717,-57.7717,0,0,0,0,0,0,0,-1,1315,442,12.0716,57.7717
98,582,12.7448,-58.2149,0.0847545,0.0624458,-0.0731936,0.147639,-0.000438578,-0.709782,0.0985724,0.0468613,1322,442,12.7448,58.2149
105,582,13.4502,-58.319,0,0,0,0,0,0,0,-1,1329,442,13.4502,58.319
112,582,14.1348,-58.5991,0.0835398,0.0691,-0.0733683,0.150043,0.00259721,-0.736353,0.099174,0.0468017,1336,442,14.1347,58.5991
119,582,14.8411,-58.9697,0.0829697,0.0711502,-0.0735552,0.150852,0.00326773,-0.745312,0.0994968,0.0473392,1343,442,14.8411,58.9697
126,582,15.5094,-59.2543,0.0826548,0.0724147,-0.0739112,0.151623,0.00344647,-0.750817,0.0999531,0.0466899,1350,442,15.5094,59.2543
133,582,16.1261,-59.5387,0.081321,0.0712823,-0.0732348,0.149708,0.00289506,-0.751183,0.0988546,0.0467029,1357,442,16.1261,59.5387
140,582,16.6993,-59.8588,0,0,0,0,0,0,0,-1,1364,442,16.6993,59.8588
147,582,17.3021,-59.9629,0,0,0,0,0,0,0,-1,1371,442,17.3021,59.9629
154,582,18.0316,-59.7754,0,0,0,0,0,0,0,-1,1378,442,18.0316,59.7754
161,582,18.7214,-59.6721,0,0,0,0,0,0,0,-1,1385,442,18.7214,59.6721
168,582,0.081665,-40.4535,0,0,0,0,0,0,0,-1,1392,442,0.0816215,40.4535
175,582,6.50549,-2.00424,0,0,0,0,0,0,0,-1,1399,442,6.50546,2.00425
182,582,5.18958,-2.18652,0,0,0,0,0,0,0,-1,1406,442,5.1896,2.18652
189,582,6.19751,-0.880951,0,0,0,0,0,0,0,-1,1413,442,6.19754,0.88096
196,582,4.87354,-2.22327,0,0,0,0,0,0,0,-1,1420,442,4.87348,2.22325
203,582,3.11401,-4.48257,0,0,0,0,0,0,0,-1,1427,442,3.11404,4.48259
210,582,2.93115,-11.0731,0,0,0,0,0,0,0,-1,1434,442,2.93113,11.0731
217,582,4.94092,-16.5476,0,0,0,0,0,0,0,-1,1441,442,4.94087,16.5476
224,582,5.21008,-20.9908,0,0,0,0,0,0,0,-1,1448,442,5.21006,20.9908
231,582,5.70032,-25.622,0,0,0,0,0,0,0,-1,1455,442,5.70026,25.6221
238,582,6.44189,-30.7028,0,0,0,0,0,0,0,-1,1462,442,6.44195,30.7028
245,582,10.0378,-45.1569,0,0,0,0,0,0,0,-1,1469,442,10.0379,45.1568
252,582,10.0304,-48.6265,0,0,0,0,0,0,0,-1,1476,442,10.0304,48.6264
259,582,9.99561,-48.1041,0.00634567,-0.00756636,-0.00184689,0.00658668,-0.00780737,-0.129761,0.00832037,0.0236563,1483,442,9.99566,48.1041
266,582,10.0365,-47.5212,0.00579765,-0.00776316,-0.00176339,0.00602321,-0.00798871,-0.127218,0.00811627,0.0130668,1490,442,10.0365,47.5213
273,582,10.0663,-47.0085,0.00526492,-0.00766652,-0.00166641,0.00547621,-0.00787782,-0.12612,0.0077514,0.0118963,1497,442,10.0663,47.0085
280,582,10.0739,-46.4637,0.00488965,-0.00746731,-0.00153598,0.00507771,-0.00765537,-0.121831,0.00740149,0.0124359,1504,442,10.0739,46.4637
287,582,10.0895,-45.8829,0.00451912,-0.00711493,-0.00149414,0.00470795,-0.00730375,-0.125711,0.00698873,0.0126291,1511,442,10.0895,45.8829
294,582,10.0863,-45.2767,0.0040924,-0.00638087,-0.00135842,0.00426572,-0.0065542,-0.126906,0.00629328,0.0100357,1518,442,10.0863,45.2767
301,582,10.077,-44.6892,0.00365089,-0.00546253,-0.00117302,0.00379945,-0.0056111,-0.125978,0.00546664,0.0108337,1525,442,10.0771,44.6892
308,582,10.0773,-44.0854,0.00321299,-0.00441081,-0.000969302,0.0033343,-0.00453211,-0.124503,0.00455919,0.0140274,1532,442,10.0773,44.0854
315,582,10.0741,-43.4682,0.00277087,-0.00326093,-0.000704251,0.002852,-0.00334206,-0.114701,0.00357987,0.0141773,1539,442,10.0741,43.4682
322,582,10.0653,-42.8056,0.00230692,-0.00195088,-0.000294584,0.00232721,-0.00197117,-0.0687502,0.0024845,0.0109061,1546,442,10.0654,42.8056
329,582,10.0367,-42.1879,0.0018399,-0.000637356,0.000189785,0.00185436,-0.000651812,0.0760196,0.00150144,0.0102541,1553,442,10.0368,42.1879
336,582,10.0306,-41.575,0.00144611,0.000776807,0.0007712,0.00195214,0.00027078,0.580691,0.00122121,0.0105736,1560,442,10.0306,41.5749
343,582,10.012,-40.9063,0.00109708,0.00232204,0.00144428,0.00327834,0.000140774,0.98594,0.00214018,0.0124155,1567,442,10.0119,40.9063
350,582,9.98279,-40.2333,0.000832703,0.00400161,0.00222222,0.0051464,-0.000312088,1.0951,0.00353955,0.0148382,1574,442,9.98276,40.2333
357,582,9.9541,-39.5456,0.000606303,0.00555254,0.0030783,0.00702812,-0.000869283,1.1238,0.00500043,0.0137158,1581,442,9.95409,39.5456
364,582,9.91187,-38.8733,0.000477751,0.00698916,0.0039453,0.00884863,-0.00138172,1.13036,0.00640949,0.0109482,1588,442,9.91189,38.8733
371,582,9.89368,-38.1942,0.000444331,0.00855656,0.00482303,0.0108023,-0.00180144,1.13502,0.00787105,0.0156233,1595,442,9.89364,38.1942
378,582,9.85352,-37.4914,0.000367613,0.00999529,0.00560082,0.0125667,-0.00220382,1.14039,0.00920083,0.0171143,1602,442,9.8535,37.4914
385,582,9.77026,-36.7661,0.000332238,0.0117708,0.00620359,0.0144892,-0.00238617,1.1578,0.0105453,0.0127653,1609,442,9.77027,36.7661
392,582,9.71838,-36.0513,0.000464172,0.0131363,0.00678677,0.016085,-0.00248447,1.16093,0.0116402,0.0115983,1616,442,9.71835,36.0513
399,582,9.66919,-35.3641,0.000748424,0.014837,0.00771102,0.0182369,-0.00265151,1.15552,0.0131313,0.0193347,1623,442,9.66914,35.3641
406,582,9.62305,-34.5308,0.000730644,0.0165546,0.00836168,0.0201542,-0.00286898,1.16428,0.0144875,0.035872,1630,442,9.62305,34.5308
413,582,9.57959,-33.6675,0,0,0,0,0,0,0,-1,1637,442,9.57961,33.6675
420,582,9.3396,-33.1202,0,0,0,0,0,0,0,-1,1644,442,9.33957,33.1202
427,582,9.28064,-32.3016,-4.36251e-05,0.0195687,0.00905604,0.0231107,-0.0035856,1.19797,0.0167309,0.0470385,1651,442,9.28059,32.3016
434,582,9.17078,-31.2859,-0.000580512,0.0204532,0.00902932,0.0237975,-0.00392486,1.21608,0.0173222,0.0460402,1658,442,9.17078,31.2859
441,582,9.09119,-30.6391,0,0,0,0,0,0,0,-1,1665,442,9.09122,30.6391
448,582,10.4233,-30.1199,0,0,0,0,0,0,0,-1,1672,442,10.4234,30.1199
455,582,6.4585,-19.4734,0,0,0,0,0,0,0,-1,1679,442,6.45854,19.4734
462,582,5.35022,-19.2616,0,0,0,0,0,0,0,-1,1686,442,5.35025,19.2616
469,582,6.28601,-21.5695,0,0,0,0,0,0,0,-1,1693,442,6.28597,21.5695
476,582,1.93579,-8.53891,0,0,0,0,0,0,0,-1,1700,442,1.93579,8.53892
483,582,0,0,0,0,0,0,0,0,0,-1,1707,442,0,0
490,582,0,0,0,0,0,0,0,0,0,-1,1714,442,0,0
497,582,0,0,0,0,0,0,0,0,0,-1,1721,442,0,0
504,582,0,0,0,0,0,0,0,0,0,-1,1728,442,0,0
511,582,0,0,0,0,0,0,0,0,0,-1,1735,442,0,0
518,582,0,0,0,0,0,0,0,0,0,-1,1742,442,0,0
525,582,0,0,0,0,0,0,0,0,0,-1,1749,442,0,0
532,582,0,0,0,0,0,0,0,0,0,-1,1756,442,0,0
539,582,0,0,0,0,0,0,0,0,0,-1,1763,442,0,0
546,582,0,0,0,0,0,0,0,0,0,-1,1770,442,0,0
553,582,0,0,0,0,0,0,0,0,0,-1,1777,442,0,0
560,582,0,0,0,0,0,0,0,0,0,-1,1784,442,0,0
567,582,0,0,0,0,0,0,0,0,0,-1,1791,442,0,0
574,582,0,0,0,0,0,0,0,0,0,-1,1798,442,0,0
581,582,0,0,0,0,0,0,0,0,0,-1,1805,442,0,0
588,582,0,0,0,0,0,0,0,0,0,-1,1812,442,0,0
595,582,0,0,0,0,0,0,0,0,0,-1,1819,442,0,0
602,582,0,0,0,0,0,0,0,0,0,-1,1826,442,0,0
609,582,0,0,0,0,0,0,0,0,0,-1,1833,442,0,0
616,582,0,0,0,0,0,0,0,0,0,-1,1840,442,0,0
623,582,0,0,0,0,0,0,0,0,0,-1,1847,442,0,0
630,582,0,0,0,0,0,0,0,0,0,-1,1854,442,0,0
637,582,0,0,0,0,0,0,0,0,0,-1,1861,442,0,0
644,582,0,0,0,0,0,0,0,0,0,-1,1868,442,0,0
651,582,0,0,0,0,0,0,0,0,0,-1,1875,442,0,0
658,582,0,0,0,0,0,0,0,0,0,-1,1882,442,0,0
665,582,0,0,0,0,0,0,0,0,0,-1,1889,442,0,0
672,582,0,0,0,0,0,0,0,0,0,-1,1896,442,0,0
679,582,0,0,0,0,0,0,0,0,0,-1,1903,442,0,0
686,582,0,0,0,0,0,0,0,0,0,-1,1910,442,0,0
693,582,0,0,0,0,0,0,0,0,0,-1,1917,442,0,0
700,582,0,0,0,0,0,0,0,0,0,-1,1924,442,0,0
707,582,0,0,0,0,0,0,0,0,0,-1,1931,442,0,0
714,582,0,0,0,0,0,0,0,0,0,-1,1938,442,0,0
721,582,0,0,0,0,0,0,0,0,0,-1,1945,442,0,0
728,582,0,0,0,0,0,0,0,0,0,-1,1952,442,0,0
735,582,0,0,0,0,0,0,0,0,0,-1,1959,442,0,0
742,582,0,0,0,0,0,0,0,0,0,-1,1966,442,0,0
749,582,0,0,0,0,0,0,0,0,0,-1,1973,442,0,0
756,582,0,0,0,0,0,0,0,0,0,-1,1980,442,0,0
763,582,0,0,0,0,0,0,0,0,0,-1,1987,442,0,0
770,582,0,0,0,0,0,0,0,0,0,-1,1994,442,0,0
777,582,0,0,0,0,0,0,0,0,0,-1,2001,442,0,0
784,582,0,0,0,0,0,0,0,0,0,-1,2008,442,0,0
791,582,0,0,0,0,0,0,0,0,0,-1,2015,442,0,0
798,582,0,0,0,0,0,0,0,0,0,-1,2022,442,0,0
805,582,0,0,0,0,0,0,0,0,0,-1,2029,442,0,0
812,582,0,0,0,0,0,0,0,0,0,-1,2036,442,0,0
-700,575,0,0,0,0,0,0,0,0,0,-1,524,449,0,0
-693,575,0,0,0,0,0,0,0,0,0,-1,531,449,0,0
-686,575,0,0,0,0,0,0,0,0,0,-1,538,449,0,0
-679,575,0,0,0,0,0,0,0,0,0,-1,545,449,0,0
-672,575,0,0,0,0,0,0,0,0,0,-1,552,449,0,0
-665,575,0,0,0,0,0,0,0,0,0,-1,559,449,0,0
-658,575,0,0,0,0,0,0,0,0,0,-1,566,449,0,0
-651,575,0,0,0,0,0,0,0,0,0,-1,573,449,0,0
-644,575,0,0,0,0,0,0,0,0,0,-1,580,449,0,0
-637,575,0,0,0,0,0,0,0,0,0,-1,587,449,0,0
-630,575,0,0,0,0,0,0,0,0,0,-1,594,449,0,0
-623,575,0,0,0,0,0,0,0,0,0,-1,601,449,0,0
-616,575,0,0,0,0,0,0,0,0,0,-1,608,449,0,0
-609,575,0,0,0,0,0,0,0,0,0,-1,615,449,0,0
-602,575,0,0,0,0,0,0,0,0,0,-1,622,449,0,0
-595,575,0,0,0,0,0,0,0,0,0,-1,629,449,0,0
-588,575,0,0,0,0,0,0,0,0,0,-1,636,449,0,0
-581,575,0,0,0,0,0,0,0,0,0,-1,643,449,0,0
-574,575,0,0,0,0,0,0,0,0,0,-1,650,449,0,0
-567,575,0,0,0,0,0,0,0,0,0,-1,657,449,0,0
-560,575,0,0,0,0,0,0,0,0,0,-1,664,449,0,0
-553,575,0,0,0,0,0,0,0,0,0,-1,671,449,0,0
-546,575,0,0,0,0,0,0,0,0,0,-1,678,449,0,0
-539,575,0,0,0,0,0,0,0,0,0,-1,685,449,0,0
-532,575,0,0,0,0,0,0,0,0,0,-1,692,449,0,0
-525,575,0,0,0,0,0,0,0,0,0,-1,699,449,0,0
-518,575,0,0,0,0,0,0,0,0,0,-1,706,449,0,0
-511,575,0,0,0,0,0,0,0,0,0,-1,713,449,0,0
-504,575,0,0,0,0,0,0,0,0,0,-1,720,449,0,0
-497,575,0,0,0,0,0,0,0,0,0,-1,727,449,0,0
-490,575,0,0,0,0,0,0,0,0,0,-1,734,449,0,0
-483,575,0,0,0,0,0,0,0,0,0,-1,741,449,0,0
-476,575,0,0,0,0,0,0,0,0,0,-1,748,449,0,0
-469,575,0,0,0,0,0,0,0,0,0,-1,755,449,0,0
-462,575,0,0,0,0,0,0,0,0,0,-1,762,449,0,0
-455,575,0,0,0,0,0,0,0,0,0,-1,769,449,0,0
-448,575,0,0,0,0,0,0,0,0,0,-1,776,449,0,0
-441,575,0,0,0,0,0,0,0,0,0,-1,783,449,0,0
-434,575,0,0,0,0,0,0,0,0,0,-1,790,449,0,0
-427,575,0,0,0,0,0,0,0,0,0,-1,797,449,0,0
-420,575,0,0,0,0,0,0,0,0,0,-1,804,449,0,0
-413,575,0,0,0,0,0,0,0,0,0,-1,811,449,0,0
-406,575,0,0,0,0,0,0,0,0,0,-1,818,449,0,0
-399,575,0,0,0,0,0,0,0,0,0,-1,825,449,0,0
-392,575,0,0,0,0,0,0,0,0,0,-1,832,449,0,0
-385,575,0,0,0,0,0,0,0,0,0,-1,839,449,0,0
-378,575,0,0,0,0,0,0,0,0,0,-1,846,449,0,0
-371,575,0.56897,-3.52304,0,0,0,0,0,0,0,-1,853,449,0.568955,3.52306
-364,575,1.49805,-4.67191,0,0,0,0,0,0,0,-1,860,449,1.49803,4.6719
-357,575,3.15521,-8.29892,0,0,0,0,0,0,0,-1,867,449,3.15521,8.29891
-350,575,-0.825928,-18.5347,0,0,0,0,0,0,0,-1,874,449,-0.825948,18.5347
-343,575,0.465393,-16.3569,0,0,0,0,0,0,0,-1,881,449,0.465397,16.3569
-336,575,3.1994,-17.5725,0,0,0,0,0,0,0,-1,888,449,3.19941,17.5725
-329,575,2.81946,-29.1576,0,0,0,0,0,0,0,-1,895,449,2.81945,29.1576
-322,575,4.28943,-27.9487,0,0,0,0,0,0,0,-1,902,449,4.28944,27.9487
-315,575,4.23724,-30.0034,0,0,0,0,0,0,0,-1,909,449,4.23723,30.0034
-308,575,3.06958,-32.2565,0,0,0,0,0,0,0,-1,916,449,3.06958,32.2565
-301,575,3.15851,-32.9525,-0.00182707,0.0135112,-0.00532768,0.0151801,-0.00349603,-1.26722,0.0114645,0.0399541,923,449,3.15851,32.9525
-294,575,3.09424,-33.726,-0.0019269,0.011978,-0.00488515,0.0135227,-0.00347158,-1.26454,0.0103679,0.0281196,930,449,3.09426,33.726
-287,575,2.99866,-34.5005,-0.00196995,0.0108341,-0.00453603,0.0122782,-0.00341404,-1.26258,0.00952955,0.0187627,937,449,2.99868,34.5005
-280,575,2.9649,-35.2399,-0.00173922,0.0101283,-0.00427004,0.011505,-0.00311591,-1.25891,0.00889252,0.0141611,944,449,2.96489,35.2399
-273,575,2.93115,-35.9784,-0.0016396,0.00954731,-0.00407938,0.0108769,-0.00296915,-1.25573,0.00841737,0.0123423,951,449,2.93115,35.9784
-266,575,2.88025,-36.7189,-0.00156344,0.00832569,-0.00374372,0.00958307,-0.00282082,-1.24677,0.00750776,0.0131239,958,449,2.88026,36.7189
-259,575,2.81915,-37.4188,-0.0013768,0.00678131,-0.00317315,0.00787019,-0.00246568,-1.24023,0.00623342,0.0129027,965,449,2.81914,37.4188
-252,575,2.74188,-38.1042,-0.00115662,0.00531907,-0.00244411,0.00613799,-0.00197553,-1.2475,0.00488551,0.0115408,972,449,2.74189,38.1042
-245,575,2.69867,-38.7535,-0.000939401,0.00349837,-0.00168143,0.00406349,-0.00150452,-1.24657,0.00332593,0.0156342,979,449,2.69869,38.7535
-238,575,2.70197,-39.3691,-0.000671117,0.00151254,-0.000882284,0.00182446,-0.000983039,-1.23097,0.001645,0.0151913,986,449,2.70197,39.3691
-231,575,2.677,-40.0172,-0.00043645,-0.000664736,-4.73755e-06,-0.000436352,-0.000664835,-0.0207408,0.000390046,0.0122465,993,449,2.67698,40.0171
-224,575,2.63074,-40.6997,-0.000268738,-0.00280751,0.000862686,-3.33879e-06,-0.00307291,0.298454,0.0020475,0.0126587,1000,449,2.63074,40.6997
-217,575,2.61499,-41.3634,-8.65878e-05,-0.00511576,0.00174935,0.000462052,-0.0056644,0.30391,0.00393932,0.0108859,1007,449,2.615,41.3634
-210,575,2.63721,-41.9894,0.000134735,-0.00736473,0.00262474,0.000962093,-0.00819208,0.305357,0.00580871,0.00961784,1014,449,2.63723,41.9894
-203,575,2.62341,-42.6124,0.000389,-0.00930668,0.00338627,0.00145457,-0.0103722,0.304863,0.00744719,0.013228,1021,449,2.62342,42.6124
-196,575,2.5675,-43.2404,0.000592476,-0.0110122,0.00407958,0.0018831,-0.0123028,0.3064,0.00889624,0.0181393,1028,449,2.56755,43.2404
-189,575,2.54407,-43.8437,0.000808922,-0.0126506,0.0046777,0.00227493,-0.0141166,0.303707,0.0102539,0.0187526,1035,449,2.54404,43.8437
-182,575,2.54956,-44.4333,0.00109828,-0.0140848,0.00523823,0.0027301,-0.0157166,0.301995,0.0114963,0.0145179,1042,449,2.54958,44.4333
-175,575,2.55798,-44.9858,0.0014815,-0.0157326,0.00593249,0.00332795,-0.0175791,0.30174,0.0129718,0.0125738,1049,449,2.55802,44.9858
-168,575,2.53027,-45.55,0.00177378,-0.0170116,0.00635791,0.00372329,-0.0189611,0.297527,0.0140473,0.0114938,1056,449,2.53032,45.5501
-161,575,2.56091,-46.1297,0.00200567,-0.0181328,0.00662447,0.00398936,-0.0201165,0.290952,0.0149196,0.0155912,1063,449,2.5609,46.1297
-154,575,2.60376,-46.6857,0.00231724,-0.0196487,0.00721241,0.0044737,-0.0218052,0.290532,0.0162348,0.016967,1070,449,2.60379,46.6857
-147,575,2.60828,-47.1631,0.00289011,-0.0210487,0.00779014,0.00520192,-0.0233605,0.288482,0.0175663,0.0161318,1077,449,2.60829,47.1631
-140,575,2.57666,-47.5561,0.00343331,-0.0225706,0.00823102,0.00581968,-0.024957,0.282187,0.0188793,0.0238685,1084,449,2.57663,47.5561
-133,575,2.58154,-47.9276,0.00348428,-0.0244054,0.00903001,0.00615268,-0.0270738,0.287327,0.0204115,0.0354327,1091,449,2.58154,47.9276
-126,575,2.61646,-48.2321,0.00382872,-0.0255252,0.00954611,0.00666009,-0.0283566,0.288333,0.0214715,0.0432114,1098,449,2.61647,48.2321
-119,575,2.65735,-48.5387,0,0,0,0,0,0,0,-1,1105,449,2.65738,48.5387
-112,575,2.70337,-43.3701,0,0,0,0,0,0,0,-1,1112,449,2.70333,43.3701
-105,575,2.18347,-36.5414,0,0,0,0,0,0,0,-1,1119,449,2.18351,36.5414
-98,575,1.521,-25.6961,0,0,0,0,0,0,0,-1,1126,449,1.52105,25.6961
-91,575,1.60803,-16.4247,0,0,0,0,0,0,0,-1,1133,449,1.60802,16.4247
-84,575,1.16553,-11.9056,0,0,0,0,0,0,0,-1,1140,449,1.16558,11.9056
-77,575,0.205078,-11.2584,0,0,0,0,0,0,0,-1,1147,449,0.205117,11.2584
-70,575,-4.2467,-1.78738,0,0,0,0,0,0,0,-1,1154,449,-4.24674,1.78739
-63,575,-4.52209,-3.48798,0,0,0,0,0,0,0,-1,1161,449,-4.5221,3.48796
-56,575,-5.5968,-5.4928,0,0,0,0,0,0,0,-1,1168,449,-5.59683,5.49281
-49,575,-5.96863,-7.17612,0,0,0,0,0,0,0,-1,1175,449,-5.96868,7.1761
-42,575,-0.830322,0.773499,0,0,0,0,0,0,0,-1,1182,449,-0.83038,-0.77351
-35,575,-0.62085,0.205139,0,0,0,0,0,0,0,-1,1189,449,-0.620855,-0.205126
-28,575,0.49292,-3.87988,0,0,0,0,0,0,0,-1,1196,449,0.492941,3.87989
-21,575,8.40552,-60.8761,0,0,0,0,0,0,0,-1,1203,449,8.40553,60.8761
-14,575,7.16113,-52.7081,0,0,0,0,0,0,0,-1,1210,449,7.16107,52.7081
-7,575,7.33069,-52.5194,0,0,0,0,0,0,0,-1,1217,449,7.33075,52.5194
0,575,6.92542,-53.4204,-0.00142896,0.0185438,-0.0554432,0.0648928,-0.047778,-0.874502,0.0653002,0.0452599,1224,449,6.92548,53.4204
7,575,6.52307,-54.1726,0.00432144,0.017349,-0.0594498,0.0706408,-0.0489703,-0.839965,0.0694343,0.0461896,1231,449,6.52311,54.1726
14,575,6.25647,-54.6843,0,0,0,0,0,0,0,-1,1238,449,6.25649,54.6843
21,575,6.05688,-53.9195,0,0,0,0,0,0,0,-1,1245,449,6.05692,53.9195
28,575,5.65686,-53.6056,0.0308903,0.0213013,-0.0715481,0.0978043,-0.0456128,-0.751943,0.0846098,0.0425356,1252,449,5.65682,53.6056
35,575,5.88428,-54.2452,0.041865,0.0246017,-0.0755207,0.109246,-0.042779,-0.728497,0.0905247,0.0455547,1259,449,5.88429,54.2452
42,575,6.52747,-55.0636,0.052772,0.0283933,-0.0792822,0.120796,-0.0396311,-0.709122,0.0964934,0.0457879,1266,449,6.52747,55.0636
49,575,7.45886,-55.9649,0.0641199,0.0321951,-0.0820818,0.131777,-0.035462,-0.689362,0.101753,0.0445727,1273,449,7.4588,55.9649
56,575,8.43066,-56.8637,0.0729301,0.0393758,-0.0829355,0.140768,-0.0284625,-0.685599,0.104632,0.04425,1280,449,8.43071,56.8637
63,575,9.32275,-57.5748,0.0809607,0.0457447,-0.0839487,0.149128,-0.0224227,-0.682023,0.107674,0.0451722,1287,449,9.32276,57.5748
70,575,9.8623,-57.8214,0.0871795,0.0522732,-0.0851404,0.156637,-0.0171845,-0.684302,0.110599,0.0474585,1294,449,9.86228,57.8214
77,575,10.1692,-58.3693,0.0920226,0.0591209,-0.0855772,0.162716,-0.0115723,-0.69044,0.112533,0.0493223,1301,449,10.1692,58.3693
84,575,10.6306,-59.2917,0,0,0,0,0,0,0,-1,1308,449,10.6306,59.2917
91,575,11.1078,-60.1428,0,0,0,0,0,0,0,-1,1315,449,11.1078,60.1428
98,575,13.4636,-58.4743,0,0,0,0,0,0,0,-1,1322,449,13.4637,58.4743
105,575,14.0166,-58.6305,0,0,0,0,0,0,0,-1,1329,449,14.0166,58.6305
112,575,14.8856,-59.028,0,0,0,0,0,0,0,-1,1336,449,14.8856,59.028
119,575,15.5638,-59.3629,0,0,0,0,0,0,0,-1,1343,449,15.5639,59.3629
126,575,16.4548,-59.7314,0,0,0,0,0,0,0,-1,1350,449,16.4548,59.7314
133,575,17.124,-60.0872,0,0,0,0,0,0,0,-1,1357,449,17.124,60.0872
140,575,17.7119,-60.4727,0,0,0,0,0,0,0,-1,1364,449,17.7119,60.4727
147,575,18.4091,-60.7896,0,0,0,0,0,0,0,-1,1371,449,18.4091,60.7896
154,575,19.1135,-60.5791,0,0,0,0,0,0,0,-1,1378,449,19.1135,60.5791
161,575,-3.56165,-55.0763,0,0,0,0,0,0,0,-1,1385,449,-3.56168,55.0763
168,575,7.5509,-35.3165,0,0,0,0,0,0,0,-1,1392,449,7.5509,35.3165
175,575,4.32617,1.93634,0,0,0,0,0,0,0,-1,1399,449,4.32612,-1.93634
182,575,6.3147,-2.88345,0,0,0,0,0,0,0,-1,1406,449,6.31466,2.88346
189,575,6.10449,-1.30817,0,0,0,0,0,0,0,-1,1413,449,6.10455,1.30817
196,575,5.79895,0.818359,0,0,0,0,0,0,0,-1,1420,449,5.79895,-0.81837
203,575,3.29724,-1.46378,0,0,0,0,0,0,0,-1,1427,449,3.29722,1.46377
210,575,2.32739,-7.74503,0,0,0,0,0,0,0,-1,1434,449,2.32741,7.74502
217,575,3.33618,-11.5521,0,0,0,0,0,0,0,-1,1441,449,3.3362,11.5521
224,575,5.51709,-16.3903,0,0,0,0,0,0,0,-1,1448,449,5.51713,16.3903
231,575,5.48572,-20.4595,0,0,0,0,0,0,0,-1,1455,449,5.48571,20.4595
238,575,5.33484,-22.3575,0,0,0,0,0,0,0,-1,1462,449,5.33478,22.3575
245,575,5.59741,-23.513,0,0,0,0,0,0,0,-1,1469,449,5.5974,23.513
252,575,10.5602,-44.9309,0,0,0,0,0,0,0,-1,1476,449,10.5602,44.9309
259,575,10.566,-48.1578,0,0,0,0,0,0,0,-1,1483,449,10.566,48.1578
266,575,10.6704,-47.4445,0.00769447,-0.0106135,-0.00233541,0.00798768,-0.0109067,-0.124899,0.010952,0.0346655,1490,449,10.6704,47.4445
273,575,10.6791,-46.9468,0.00704482,-0.0108728,-0.00239904,0.00736048,-0.0111884,-0.130824,0.010785,0.0214715,1497,449,10.6791,46.9468
280,575,10.71,-46.348,0.00660384,-0.0110239,-0.00243782,0.00693477,-0.0113548,-0.134922,0.0106618,0.0162394,1504,449,10.7099,46.348
287,575,10.6731,-45.8323,0.00609918,-0.0109387,-0.00262517,0.00649449,-0.011334,-0.149461,0.0104189,0.0146047,1511,449,10.6731,45.8323
294,575,10.687,-45.282,0.00552032,-0.010294,-0.00265408,0.00595387,-0.0107276,-0.161919,0.00976159,0.012004,1518,449,10.687,45.282
301,575,10.7157,-44.6875,0.00492645,-0.00937847,-0.00259907,0.00538403,-0.00983606,-0.174273,0.00891175,0.0111972,1525,449,10.7157,44.6875
308,575,10.7239,-44.0651,0.00430776,-0.00829904,-0.00252197,0.00479356,-0.00878484,-0.190295,0.00795158,0.0115885,1532,449,10.7239,44.0651
315,575,10.7053,-43.4337,0.00371017,-0.00706347,-0.00234144,0.00419703,-0.00755034,-0.205013,0.00687384,0.0118896,1539,449,10.7053,43.4337
322,575,10.6897,-42.8,0.00312583,-0.0056299,-0.0019653,0.00354673,-0.00605079,-0.210976,0.00560364,0.0105698,1546,449,10.6897,42.8
329,575,10.6736,-42.1829,0.00253659,-0.00412726,-0.00150048,0.00285886,-0.00444954,-0.211565,0.00425269,0.0111137,1553,449,10.6736,42.1829
336,575,10.6589,-41.5552,0.00199816,-0.00256422,-0.000967601,0.00219489,-0.00276094,-0.200582,0.00286747,0.0130132,1560,449,10.659,41.5552
343,575,10.6587,-40.8726,0.00151315,-0.000830417,-0.000294225,0.00154952,-0.000866791,-0.123003,0.0014135,0.0130438,1567,449,10.6586,40.8726
350,575,10.6351,-40.1859,0.00113038,0.000950847,0.000456406,0.00150577,0.000575465,0.688295,0.000877363,0.0119501,1574,449,10.6351,40.1859
357,575,10.5985,-39.5122,0.000825783,0.0026081,0.00130752,0.00329927,0.000134614,1.08452,0.00215604,0.0111661,1581,449,10.5985,39.5122
364,575,10.545,-38.8613,0.000623802,0.00413041,0.00220474,0.005194,-0.000439796,1.12132,0.00361819,0.0110569,1588,449,10.545,38.8613
371,575,10.5703,-38.1889,0.000521185,0.00556214,0.00305113,0.00699921,-0.00091589,1.13062,0.00499948,0.0201831,1595,449,10.5703,38.1889
378,575,10.5305,-37.4788,0.00040922,0.00687236,0.00379963,0.0086288,-0.00134722,1.13779,0.00625019,0.0188864,1602,449,10.5305,37.4788
385,575,10.438,-36.7601,0.000340159,0.00840957,0.00439329,0.0103397,-0.00159002,1.15684,0.00747972,0.0125529,1609,449,10.4379,36.7601
392,575,10.3936,-36.078,0.000460844,0.00956314,0.00498253,0.0117602,-0.00173623,1.15549,0.00847836,0.0109033,1616,449,10.3935,36.078
399,575,10.3337,-35.4016,0.000720618,0.0109014,0.00580311,0.0135303,-0.00190834,1.14543,0.00971897,0.0109703,1623,449,10.3337,35.4016
406,575,10.2946,-34.6497,0.000719351,0.0122371,0.00636696,0.0150632,-0.00210681,1.15304,0.0108131,0.0122885,1630,449,10.2946,34.6497
413,575,10.2515,-33.8822,0.00057736,0.0133672,0.00666153,0.0162065,-0.00226195,1.16789,0.0116318,0.0150295,1637,449,10.2515,33.8822
420,575,10.2029,-33.1146,0.000364387,0.014281,0.00699199,0.0171871,-0.00254168,1.17689,0.0123925,0.015281,1644,449,10.2029,33.1146
427,575,10.1478,-32.3102,-2.06052e-05,0.0144425,0.00703092,0.017297,-0.00287514,1.18513,0.0125996,0.0182872,1651,449,10.1478,32.3102
434,575,10.0649,-31.6029,-0.000454575,0.0150259,0.00708313,0.0177776,-0.00320634,1.20025,0.0130525,0.0281661,1658,449,10.0649,31.6029
441,575,10.1743,-30.9709,0,0,0,0,0,0,0,-1,1665,449,10.1743,30.9708
448,575,10.8113,-29.8551,0,0,0,0,0,0,0,-1,1672,449,10.8113,29.8551
455,575,10.9138,-28.7771,0,0,0,0,0,0,0,-1,1679,449,10.9138,28.7771
462,575,7.12781,-21.7179,0,0,0,0,0,0,0,-1,1686,449,7.12778,21.7178
469,575,8.80627,-23.9187,0,0,0,0,0,0,0,-1,1693,449,8.80622,23.9187
476,575,9.43701,-26.9697,0,0,0,0,0,0,0,-1,1700,449,9.43705,26.9697
483,575,8.9624,-26.4681,0,0,0,0,0,0,0,-1,1707,449,8.96243,26.4681
490,575,7.42871,-25.5027,0,0,0,0,0,0,0,-1,1714,449,7.42869,25.5027
497,575,0,0,0,0,0,0,0,0,0,-1,1721,449,0,0
504,575,0,0,0,0,0,0,0,0,0,-1,1728,449,0,0
511,575,0,0,0,0,0,0,0,0,0,-1,1735,449,0,0
518,575,0,0,0,0,0,0,0,0,0,-1,1742,449,0,0
525,575,0,0,0,0,0,0,0,0,0,-1,1749,449,0,0
532,575,0,0,0,0,0,0,0,0,0,-1,1756,449,0,0
539,575,0,0,0,0,0,0,0,0,0,-1,1763,449,0,0
546,575,0,0,0,0,0,0,0,0,0,-1,1770,449,0,0
553,575,0,0,0,0,0,0,0,0,0,-1,1777,449,0,0
560,575,0,0,0,0,0,0,0,0,0,-1,1784,449,0,0
567,575,0,0,0,0,0,0,0,0,0,-1,1791,449,0,0
574,575,0,0,0,0,0,0,0,0,0,-1,1798,449,0,0
581,575,0,0,0,0,0,0,0,0,0,-1,1805,449,0,0
588,575,0,0,0,0,0,0,0,0,0,-1,1812,449,0,0
595,575,0,0,0,0,0,0,0,0,0,-1,1819,449,0,0
602,575,0,0,0,0,0,0,0,0,0,-1,1826,449,0,0
609,575,0,0,0,0,0,0,0,0,0,-1,1833,449,0,0
616,575,0,0,0,0,0,0,0,0,0,-1,1840,449,0,0
623,575,0,0,0,0,0,0,0,0,0,-1,1847,449,0,0
630,575,0,0,0,0,0,0,0,0,0,-1,1854,449,0,0
637,575,0,0,0,0,0,0,0,0,0,-1,1861,449,0,0
644,575,0,0,0,0,0,0,0,0,0,-1,1868,449,0,0
651,575,0,0,0,0,0,0,0,0,0,-1,1875,449,0,0
658,575,0,0,0,0,0,0,0,0,0,-1,1882,449,0,0
665,575,0,0,0,0,0,0,0,0,0,-1,1889,449,0,0
672,575,0,0,0,0,0,0,0,0,0,-1,1896,449,0,0
679,575,0,0,0,0,0,0,0,0,0,-1,1903,449,0,0
686,575,0,0,0,0,0,0,0,0,0,-1,1910,449,0,0
693,575,0,0,0,0,0,0,0,0,0,-1,1917,449,0,0
700,575,0,0,0,0,0,0,0,0,0,-1,1924,449,0,0
707,575,0,0,0,0,0,0,0,0,0,-1,1931,449,0,0
714,575,0,0,0,0,0,0,0,0,0,-1,1938,449,0,0
721,575,0,0,0,0,0,0,0,0,0,-1,1945,449,0,0
728,575,0,0,0,0,0,0,0,0,0,-1,1952,449,0,0
735,575,0,0,0,0,0,0,0,0,0,-1,1959,449,0,0
742,575,0,0,0,0,0,0,0,0,0,-1,1966,449,0,0
749,575,0,0,0,0,0,0,0,0,0,-1,1973,449,0,0
756,575,0,0,0,0,0,0,0,0,0,-1,1980,449,0,0
763,575,0,0,0,0,0,0,0,0,0,-1,1987,449,0,0
770,575,0,0,0,0,0,0,0,0,0,-1,1994,449,0,0
777,575,0,0,0,0,0,0,0,0,0,-1,2001,449,0,0
784,575,0,0,0,0,0,0,0,0,0,-1,2008,449,0,0
791,575,0,0,0,0,0,0,0,0,0,-1,2015,449,0,0
798,575,0,0,0,0,0,0,0,0,0,-1,2022,449,0,0
805,575,0,0,0,0,0,0,0,0,0,-1,2029,449,0,0
812,575,0,0,0,0,0,0,0,0,0,-1,2036,449,0,0
-700,568,0,0,0,0,0,0,0,0,0,-1,524,456,0,0
-693,568,0,0,0,0,0,0,0,0,0,-1,531,456,0,0
-686,568,0,0,0,0,0,0,0,0,0,-1,538,456,0,0
-679,568,0,0,0,0,0,0,0,0,0,-1,545,456,0,0
-672,568,0,0,0,0,0,0,0,0,0,-1,552,456,0,0
-665,568,0,0,0,0,0,0,0,0,0,-1,559,456,0,0
-658,568,0,0,0,0,0,0,0,0,0,-1,566,456,0,0
-651,568,0,0,0,0,0,0,0,0,0,-1,573,456,0,0
-644,568,0,0,0,0,0,0,0,0,0,-1,580,456,0,0
-637,568,0,0,0,0,0,0,0,0,0,-1,587,456,0,0
-630,568,0,0,0,0,0,0,0,0,0,-1,594,456,0,0
-623,568,0,0,0,0,0,0,0,0,0,-1,601,456,0,0
-616,568,0,0,0,0,0,0,0,0,0,-1,608,456,0,0
-609,568,0,0,0,0,0,0,0,0,0,-1,615,456,0,0
-602,568,0,0,0,0,0,0,0,0,0,-1,622,456,0,0
-595,568,0,0,0,0,0,0,0,0,0,-1,629,456,0,0
-588,568,0,0,0,0,0,0,0,0,0,-1,636,456,0,0
-581,568,0,0,0,0,0,0,0,0,0,-1,643,456,0,0
-574,568,0,0,0,0,0,0,0,0,0,-1,650,456,0,0
-567,568,0,0,0,0,0,0,0,0,0,-1,657,456,0,0
-560,568,0,0,0,0,0,0,0,0,0,-1,664,456,0,0
-553,568,0,0,0,0,0,0,0,0,0,-1,671,456,0,0
-546,568,0,0,0,0,0,0,0,0,0,-1,678,456,0,0
-539,568,0,0,0,0,0,0,0,0,0,-1,685,456,0,0
-532,568,0,0,0,0,0,0,0,0,0,-1,692,456,0,0
-525,568,0,0,0,0,0,0,0,0,0,-1,699,456,0,0
-518,568,0,0,0,0,0,0,0,0,0,-1,706,456,0,0
-511,568,0,0,0,0,0,0,0,0,0,-1,713,456,0,0
-504,568,0,0,0,0,0,0,0,0,0,-1,720,456,0,0
-497,568,0,0,0,0,0,0,0,0,0,-1,727,456,0,0
-490,568,0,0,0,0,0,0,0,0,0,-1,734,456,0,0
-483,568,0,0,0,0,0,0,0,0,0,-1,741,456,0,0
-476,568,0,0,0,0,0,0,0,0,0,-1,748,456,0,0
-469,568,0,0,0,0,0,0,0,0,0,-1,755,456,0,0
-462,568,0,0,0,0,0,0,0,0,0,-1,762,456,0,0
-455,568,0,0,0,0,0,0,0,0,0,-1,769,456,0,0
-448,568,0,0,0,0,0,0,0,0,0,-1,776,456,0,0
-441,568,0,0,0,0,0,0,0,0,0,-1,783,456,0,0
-434,568,0,0,0,0,0,0,0,0,0,-1,790,456,0,0
-427,568,0,0,0,0,0,0,0,0,0,-1,797,456,0,0
-420,568,0,0,0,0,0,0,0,0,0,-1,804,456,0,0
-413,568,0,0,0,0,0,0,0,0,0,-1,811,456,0,0
-406,568,0,0,0,0,0,0,0,0,0,-1,818,456,0,0
-399,568,0,0,0,0,0,0,0,0,0,-1,825,456,0,0
-392,568,0,0,0,0,0,0,0,0,0,-1,832,456,0,0
-385,568,0,0,0,0,0,0,0,0,0,-1,839,456,0,0
-378,568,0.321777,-7.29929,0,0,0,0,0,0,0,-1,846,456,0.321806,7.29927
-371,568,1.09595,-7.46707,0,0,0,0,0,0,0,-1,853,456,1.09597,7.46707
-364,568,2.70746,-23.4782,0,0,0,0,0,0,0,-1,860,456,2.70746,23.4782
-357,568,2.14166,-7.67645,0,0,0,0,0,0,0,-1,867,456,2.14167,7.67646
-350,568,2.7467,-11.2507,0,0,0,0,0,0,0,-1,874,456,2.7467,11.2507
-343,568,2.16516,-11.3762,0,0,0,0,0,0,0,-1,881,456,2.16514,11.3762
-336,568,1.14984,-29.3232,0,0,0,0,0,0,0,-1,888,456,1.14984,29.3231
-329,568,2.43945,-30.2378,0,0,0,0,0,0,0,-1,895,456,2.43944,30.2378
-322,568,2.51593,-30.2915,0,0,0,0,0,0,0,-1,902,456,2.51595,30.2915
-315,568,2.48737,-31.1997,0,0,0,0,0,0,0,-1,909,456,2.48734,31.1997
-308,568,2.46936,-32.2663,-0.00145547,0.0128022,-0.00448007,0.014093,-0.00274633,-1.29026,0.010432,0.0418334,916,456,2.46934,32.2663
-301,568,2.44244,-33.071,-0.00150176,0.0108115,-0.00426457,0.0121443,-0.0028345,-1.2679,0.00918792,0.0229167,923,456,2.44244,33.0711
-294,568,2.36566,-33.7844,-0.00145872,0.0093469,-0.00383676,0.0105706,-0.00268245,-1.26205,0.00809085,0.0149841,930,456,2.36569,33.7844
-287,568,2.32538,-34.5475,-0.00138218,0.00824864,-0.00347273,0.00937023,-0.00250378,-1.2584,0.00722745,0.0119699,937,456,2.32535,34.5475
-280,568,2.30396,-35.2908,-0.00115493,0.00742098,-0.00318983,0.00847732,-0.00221128,-1.251,0.00651496,0.0118887,944,456,2.30393,35.2908
-273,568,2.26447,-35.9969,-0.0010428,0.00657089,-0.00291293,0.0075575,-0.00202941,-1.24422,0.00583368,0.0136504,951,456,2.26447,35.9969
-266,568,2.20367,-36.6913,-0.000938943,0.00507451,-0.00243937,0.0059396,-0.00180403,-1.23,0.00467849,0.0129808,958,456,2.20367,36.6913
-259,568,2.15137,-37.3807,-0.000751081,0.00324567,-0.00177093,0.00391745,-0.00142286,-1.20823,0.00319339,0.013448,965,456,2.15135,37.3807
-252,568,2.08264,-38.0547,-0.000587186,0.00140317,-0.000927958,0.00176868,-0.000952701,-1.19557,0.00159456,0.0135175,972,456,2.08264,38.0547
-245,568,2.03656,-38.6786,-0.000468891,-0.000833953,2.27442e-05,-0.000467479,-0.000835364,0.0619828,0.000483439,0.0158562,979,456,2.03656,38.6785
-238,568,2.04156,-39.3316,-0.000261358,-0.00322372,0.000994951,4.17887e-05,-0.00352687,0.295749,0.0023653,0.0147826,986,456,2.04158,39.3316
-231,568,2.02063,-39.9977,-0.000124411,-0.00587549,0.0020867,0.000552944,-0.00655284,0.313875,0.00456405,0.0130265,993,456,2.02063,39.9978
-224,568,1.97504,-40.6704,-6.54176e-05,-0.00845926,0.00316755,0.000995752,-0.00952043,0.323261,0.00670357,0.0141961,1000,456,1.97505,40.6704
-217,568,1.97467,-41.3149,8.43294e-06,-0.0111218,0.0042514,0.00144652,-0.0125599,0.32618,0.00889474,0.0121404,1007,456,1.97465,41.3149
-210,568,1.97113,-41.9451,0.000136445,-0.0136663,0.00528573,0.00192805,-0.0154579,0.326798,0.0110044,0.0117885,1014,456,1.97112,41.9451
-203,568,1.96399,-42.5623,0.000321112,-0.0157984,0.00615014,0.0023996,-0.0178768,0.325907,0.012793,0.0108615,1021,456,1.96398,42.5622
-196,568,1.97217,-43.1577,0.0004714,-0.0175931,0.00690716,0.00280974,-0.0199314,0.326428,0.0143164,0.0155828,1028,456,1.97215,43.1577
-189,568,1.95581,-43.7582,0.000639651,-0.0192965,0.00757214,0.00318955,-0.0218464,0.32482,0.0157356,0.0159065,1035,456,1.95582,43.7582
-182,568,1.96887,-44.3978,0.000930761,-0.0207196,0.00812484,0.00364063,-0.0234295,0.321926,0.0169639,0.0143146,1042,456,1.96887,44.3978
-175,568,1.9751,-44.9411,0.00138508,-0.022357,0.00885093,0.00432149,-0.0252934,0.320336,0.0184721,0.0155681,1049,456,1.97515,44.9411
-168,568,1.96472,-45.397,0.00170297,-0.0235224,0.00919409,0.00469833,-0.0265177,0.314949,0.0194348,0.0218119,1056,456,1.9647,45.397
-161,568,1.94165,-45.9329,0.00193179,-0.0245766,0.0092437,0.00483679,-0.0274816,0.304495,0.020128,0.0314162,1063,456,1.94165,45.9329
-154,568,2.13904,-46.633,0.00224656,-0.0263591,0.00989289,0.00533454,-0.0294471,0.302558,0.02163,0.0368097,1070,456,2.13898,46.633
-147,568,2.15918,-47.0106,0.00297706,-0.0279904,0.0105409,0.00622449,-0.0312379,0.298852,0.0231803,0.0401871,1077,456,2.1592,47.0106
-140,568,2.07544,-47.2374,0.00372329,-0.0298435,0.0109717,0.00699135,-0.0331115,0.289494,0.0247364,0.0432071,1084,456,2.07541,47.2374
-133,568,2.19592,-47.6967,0.00358504,-0.032428,0.0120688,0.00725549,-0.0360985,0.295238,0.0268134,0.047176,1091,456,2.19594,47.6967
-126,568,2.13916,-47.6945,0.00378689,-0.0343012,0.0128944,0.00774156,-0.0382559,0.297589,0.0284379,0.0485707,1098,456,2.13916,47.6945
-119,568,2.13367,-47.968,0,0,0,0,0,0,0,-1,1105,456,2.13368,47.968
-112,568,1.98242,-35.0942,0,0,0,0,0,0,0,-1,1112,456,1.98247,35.0942
-105,568,2.02454,-25.038,0,0,0,0,0,0,0,-1,1119,456,2.02459,25.038
-98,568,1.58618,-14.7874,0,0,0,0,0,0,0,-1,1126,456,1.58617,14.7874
-91,568,1.11621,-11.1853,0,0,0,0,0,0,0,-1,1133,456,1.11626,11.1853
-84,568,0.461792,-9.7959,0,0,0,0,0,0,0,-1,1140,456,0.461793,9.7959
-77,568,-1.13806,-8.57822,0,0,0,0,0,0,0,-1,1147,456,-1.13807,8.57821
-70,568,-4.09766,-1.42911,0,0,0,0,0,0,0,-1,1154,456,-4.09767,1.4291
-63,568,-5.92273,-3.70752,0,0,0,0,0,0,0,-1,1161,456,-5.92272,3.70751
-56,568,-5.24158,-6.01385,0,0,0,0,0,0,0,-1,1168,456,-5.24161,6.01386
-49,568,-5.24365,-8.33557,0,0,0,0,0,0,0,-1,1175,456,-5.24371,8.33557
-42,568,-0.664795,0.521973,0,0,0,0,0,0,0,-1,1182,456,-0.664829,-0.521984
-35,568,-0.153076,-1.67731,0,0,0,0,0,0,0,-1,1189,456,-0.153068,1.67731
-28,568,1.25439,-4.48798,0,0,0,0,0,0,0,-1,1196,456,1.2544,4.48797
-21,568,8.62573,-53.4056,0,0,0,0,0,0,0,-1,1203,456,8.62579,53.4056
-14,568,8.37488,-53.3652,-0.0153106,0.0476426,-0.0566933,0.0810112,-0.0486792,-1.03882,0.0756485,0.0435038,1210,456,8.37489,53.3652
-7,568,8.14771,-53.2921,-0.0152001,0.0390638,-0.0599468,0.0777328,-0.0538692,-0.997905,0.0763957,0.0459422,1217,456,8.14776,53.2921
0,568,7.91638,-53.4292,-0.0113715,0.0332979,-0.0640405,0.0787867,-0.0568603,-0.953182,0.0786561,0.0486026,1224,456,7.91641,53.4292
7,568,7.62817,-53.7111,-0.00422135,0.0304773,-0.068603,0.0838907,-0.0576348,-0.909249,0.0821772,0.0435509,1231,456,7.62819,53.7111
14,568,6.60535,-53.1447,0,0,0,0,0,0,0,-1,1238,456,6.60541,53.1447
21,568,6.78918,-53.7906,0.0166362,0.0302345,-0.0780774,0.101808,-0.0549376,-0.82883,0.0918359,0.045337,1245,456,6.78913,53.7906
28,568,7.01331,-54.4387,0.0290684,0.0327128,-0.0830063,0.113917,-0.0521357,-0.796373,0.0980575,0.0448561,1252,456,7.01334,54.4387
35,568,6.45422,-55.3365,0.0429797,0.036232,-0.0880427,0.127713,-0.0485015,-0.766247,0.105108,0.0436856,1259,456,6.4542,55.3365
42,568,7.1936,-55.6511,0.0571793,0.0399877,-0.0925241,0.141506,-0.0443391,-0.739079,0.11208,0.0458742,1266,456,7.19358,55.6511
49,568,8.21887,-56.4753,0.0719486,0.0440931,-0.0961793,0.155203,-0.0391617,-0.713493,0.118696,0.0490191,1273,456,8.21893,56.4753
56,568,9.16235,-57.341,0.0821516,0.0524878,-0.0967397,0.16519,-0.0305504,-0.709332,0.121596,0.0475316,1280,456,9.16232,57.341
63,568,10.0393,-58.0388,0.0915866,0.0593183,-0.0976414,0.174418,-0.023513,-0.703519,0.124856,0.0485018,1287,456,10.0393,58.0388
70,568,10.7908,-58.6627,0,0,0,0,0,0,0,-1,1294,456,10.7908,58.6627
77,568,10.868,-58.8246,0,0,0,0,0,0,0,-1,1301,456,10.868,58.8246
84,568,11.2443,-59.9113,0,0,0,0,0,0,0,-1,1308,456,11.2442,59.9113
91,568,13.0842,-59.0398,0,0,0,0,0,0,0,-1,1315,456,13.0843,59.0398
98,568,14.095,-59.3682,0,0,0,0,0,0,0,-1,1322,456,14.095,59.3682
105,568,14.9706,-59.1691,0.11599,0.102142,-0.0960557,0.205371,0.0127613,-0.74942,0.132865,0.0448485,1329,456,14.9705,59.1691
112,568,15.6805,-59.4785,0,0,0,0,0,0,0,-1,1336,456,15.6805,59.4785
119,568,16.3983,-59.7946,0,0,0,0,0,0,0,-1,1343,456,16.3983,59.7945
126,568,0.885254,-61.2679,0,0,0,0,0,0,0,-1,1350,456,0.885287,61.2679
133,568,-0.0571289,-60.2099,0,0,0,0,0,0,0,-1,1357,456,-0.0571831,60.2099
140,568,-0.577637,-59.8282,0,0,0,0,0,0,0,-1,1364,456,-0.577588,59.8283
147,568,0.279907,-62.2797,0,0,0,0,0,0,0,-1,1371,456,0.279876,62.2797
154,568,0.181885,-62.3383,0,0,0,0,0,0,0,-1,1378,456,0.181921,62.3383
161,568,0.213745,-62.6646,0,0,0,0,0,0,0,-1,1385,456,0.213731,62.6646
168,568,-1.74231,-39.2641,0,0,0,0,0,0,0,-1,1392,456,-1.74226,39.2641
175,568,10.5151,0.747498,0,0,0,0,0,0,0,-1,1399,456,10.5152,-0.747501
182,568,6.35095,-3.63361,0,0,0,0,0,0,0,-1,1406,456,6.35093,3.63359
189,568,6.17493,-1.70911,0,0,0,0,0,0,0,-1,1413,456,6.17497,1.70911
196,568,6.04724,0.200836,0,0,0,0,0,0,0,-1,1420,456,6.04724,-0.200835
203,568,5.9281,2.08649,0,0,0,0,0,0,0,-1,1427,456,5.92812,-2.08648
210,568,1.46216,-2.50446,0,0,0,0,0,0,0,-1,1434,456,1.46219,2.50446
217,568,2.62366,-7.86703,0,0,0,0,0,0,0,-1,1441,456,2.62365,7.86704
224,568,3.43494,-12.1555,0,0,0,0,0,0,0,-1,1448,456,3.43492,12.1555
231,568,4.38245,-9.3205,0,0,0,0,0,0,0,-1,1455,456,4.38244,9.32048
238,568,5.88879,-20.7448,0,0,0,0,0,0,0,-1,1462,456,5.88876,20.7449
245,568,3.34387,-10.6774,0,0,0,0,0,0,0,-1,1469,456,3.34389,10.6774
252,568,3.56946,-9.28928,0,0,0,0,0,0,0,-1,1476,456,3.56948,9.28928
259,568,3.38843,-8.73068,0,0,0,0,0,0,0,-1,1483,456,3.38842,8.73068
266,568,11.3234,-47.3643,0,0,0,0,0,0,0,-1,1490,456,11.3234,47.3643
273,568,11.2588,-46.909,0,0,0,0,0,0,0,-1,1497,456,11.2588,46.909
280,568,11.2269,-46.3238,0.00840695,-0.0151568,-0.00320481,0.00883505,-0.0155849,-0.132793,0.0142773,0.0388872,1504,456,11.2269,46.3238
287,568,11.3119,-45.6153,0.00779136,-0.0152577,-0.00368935,0.00836749,-0.0158339,-0.154911,0.0141926,0.0275981,1511,456,11.3119,45.6153
294,568,11.3281,-45.1272,0.00706958,-0.0145968,-0.00393793,0.00776311,-0.0152904,-0.174328,0.0135444,0.0241769,1518,456,11.3281,45.1272
301,568,11.3297,-44.5828,0.00633839,-0.01358,-0.00405911,0.00713382,-0.0143754,-0.19351,0.0126508,0.0204033,1525,456,11.3297,44.5828
308,568,11.3506,-43.9911,0.00553355,-0.0123849,-0.00415061,0.00644829,-0.0132997,-0.21692,0.011628,0.0150987,1532,456,11.3505,43.9911
315,568,11.3385,-43.4108,0.0047733,-0.0109769,-0.00407388,0.00576464,-0.0119682,-0.238701,0.0104448,0.00949597,1539,456,11.3385,43.4108
322,568,11.3167,-42.7837,0.00406213,-0.00934782,-0.00373811,0.00503376,-0.0103194,-0.254297,0.00903758,0.0108149,1546,456,11.3167,42.7837
329,568,11.3022,-42.1361,0.00334155,-0.00759475,-0.00329157,0.00425581,-0.00850901,-0.270927,0.0075049,0.0115099,1553,456,11.3023,42.1361
336,568,11.2987,-41.4947,0.00264545,-0.00584235,-0.00279544,0.0034834,-0.0066803,-0.291232,0.00596399,0.0127876,1560,456,11.2987,41.4947
343,568,11.3167,-40.8333,0.00201501,-0.00389725,-0.00210263,0.00268652,-0.00456876,-0.309128,0.00423556,0.0135144,1567,456,11.3166,40.8333
350,568,11.2877,-40.1816,0.00150539,-0.00199888,-0.00135697,0.00196941,-0.0024629,-0.329489,0.00256428,0.011529,1574,456,11.2878,40.1816
357,568,11.2506,-39.5118,0.0011034,-0.000205777,-0.000477923,0.0012593,-0.000361681,-0.315326,0.000982541,0.00997548,1581,456,11.2506,39.5118
364,568,11.246,-38.858,0.000804609,0.00143109,0.000482556,0.00169316,0.000542542,1.07328,0.00099834,0.0122963,1588,456,11.246,38.858
371,568,11.2114,-38.1378,0.000638173,0.00286581,0.00136816,0.0035162,-1.222e-05,1.12704,0.00234822,0.022273,1595,456,11.2114,38.1379
378,568,11.1552,-37.4135,0.000486159,0.00415005,0.00213341,0.00513013,-0.000493919,1.14016,0.00359605,0.0198583,1602,456,11.1551,37.4135
385,568,11.1101,-36.7413,0.000359407,0.00556869,0.00276791,0.00676477,-0.000836672,1.16291,0.00481304,0.0108077,1609,456,11.1101,36.7413
392,568,11.0566,-36.0839,0.000436802,0.00662051,0.0034046,0.00812767,-0.00107035,1.15405,0.0058082,0.012414,1616,456,11.0567,36.0839
399,568,10.9833,-35.4524,0.000642692,0.00773593,0.00416595,0.00966047,-0.00128185,1.13803,0.00690736,0.0193351,1623,456,10.9832,35.4524
406,568,11.0013,-34.6657,0.000627209,0.00883485,0.00469695,0.0109682,-0.00150618,1.14445,0.00786245,0.0166067,1630,456,11.0013,34.6657
413,568,10.9735,-33.8759,0.000487726,0.0097834,0.00502311,0.0119791,-0.00170798,1.1587,0.00861203,0.0135415,1637,456,10.9735,33.8759
420,568,10.944,-33.1146,0.000262729,0.0105034,0.00536306,0.0127979,-0.00203181,1.16652,0.00928362,0.0120457,1644,456,10.9439,33.1146
427,568,10.876,-32.3657,-9.64109e-05,0.0106241,0.00545372,0.0129108,-0.00238307,1.17378,0.0095017,0.0139475,1651,456,10.8759,32.3657
434,568,10.8625,-31.5782,-0.000444737,0.0110422,0.00559202,0.0133148,-0.00271739,1.18478,0.00990735,0.0207057,1658,456,10.8625,31.5782
441,568,10.9023,-30.8654,-0.00111945,0.0109804,0.00545756,0.0130783,-0.00321732,1.20381,0.00996593,0.0280169,1665,456,10.9024,30.8654
448,568,11.0881,-29.9028,-0.00207254,0.0105515,0.00521354,0.0124262,-0.00394725,1.22561,0.00986668,0.0443505,1672,456,11.0882,29.9028
455,568,11.1293,-28.8775,0,0,0,0,0,0,0,-1,1679,456,11.1293,28.8775
462,568,10.2955,-28.2264,0,0,0,0,0,0,0,-1,1686,456,10.2955,28.2264
469,568,10.2695,-27.7827,0,0,0,0,0,0,0,-1,1693,456,10.2695,27.7827
476,568,10.1486,-27.2916,0,0,0,0,0,0,0,-1,1700,456,10.1485,27.2916
483,568,9.50525,-26.0135,0,0,0,0,0,0,0,-1,1707,456,9.50521,26.0135
490,568,9.21021,-25.4427,0,0,0,0,0,0,0,-1,1714,456,9.21025,25.4427
497,568,9.19275,-22.8114,0,0,0,0,0,0,0,-1,1721,456,9.19273,22.8114
504,568,0,0,0,0,0,0,0,0,0,-1,1728,456,0,0
511,568,0,0,0,0,0,0,0,0,0,-1,1735,456,0,0
518,568,0,0,0,0,0,0,0,0,0,-1,1742,456,0,0
525,568,0,0,0,0,0,0,0,0,0,-1,1749,456,0,0
532,568,0,0,0,0,0,0,0,0,0,-1,1756,456,0,0
539,568,0,0,0,0,0,0,0,0,0,-1,1763,456,0,0
546,568,0,0,0,0,0,0,0,0,0,-1,1770,456,0,0
553,568,0,0,0,0,0,0,0,0,0,-1,1777,456,0,0
560,568,0,0,0,0,0,0,0,0,0,-1,1784,456,0,0
567,568,0,0,0,0,0,0,0,0,0,-1,1791,456,0,0
574,568,0,0,0,0,0,0,0,0,0,-1,1798,456,0,0
581,568,0,0,0,0,0,0,0,0,0,-1,1805,456,0,0
588,568,0,0,0,0,0,0,0,0,0,-1,1812,456,0,0
595,568,0,0,0,0,0,0,0,0,0,-1,1819,456,0,0
602,568,0,0,0,0,0,0,0,0,0,-1,1826,456,0,0
609,568,0,0,0,0,0,0,0,0,0,-1,1833,456,0,0
616,568,0,0,0,0,0,0,0,0,0,-1,1840,456,0,0
623,568,0,0,0,0,0,0,0,0,0,-1,1847,456,0,0
630,568,0,0,0,0,0,0,0,0,0,-1,1854,456,0,0
637,568,0,0,0,0,0,0,0,0,0,-1,1861,456,0,0
644,568,0,0,0,0,0,0,0,0,0,-1,1868,456,0,0
651,568,0,0,0,0,0,0,0,0,0,-1,1875,456,0,0
658,568,0,0,0,0,0,0,0,0,0,-1,1882,456,0,0
665,568,0,0,0,0,0,0,0,0,0,-1,1889,456,0,0
672,568,0,0,0,0,0,0,0,0,0,-1,1896,456,0,0
679,568,0,0,0,0,0,0,0,0,0,-1,1903,456,0,0
686,568,0,0,0,0,0,0,0,0,0,-1,1910,456,0,0
693,568,0,0,0,0,0,0,0,0,0,-1,1917,456,0,0
700,568,0,0,0,0,0,0,0,0,0,-1,1924,456,0,0
707,568,0,0,0,0,0,0,0,0,0,-1,1931,456,0,0
714,568,0,0,0,0,0,0,0,0,0,-1,1938,456,0,0
721,568,0,0,0,0,0,0,0,0,0,-1,1945,456,0,0
728,568,0,0,0,0,0,0,0,0,0,-1,1952,456,0,0
735,568,0,0,0,0,0,0,0,0,0,-1,1959,456,0,0
742,568,0,0,0,0,0,0,0,0,0,-1,1966,456,0,0
749,568,0,0,0,0,0,0,0,0,0,-1,1973,456,0,0
756,568,0,0,0,0,0,0,0,0,0,-1,1980,456,0,0
763,568,0,0,0,0,0,0,0,0,0,-1,1987,456,0,0
770,568,0,0,0,0,0,0,0,0,0,-1,1994,456,0,0
777,568,0,0,0,0,0,0,0,0,0,-1,2001,456,0,0
784,568,0,0,0,0,0,0,0,0,0,-1,2008,456,0,0
791,568,0,0,0,0,0,0,0,0,0,-1,2015,456,0,0
798,568,0,0,0,0,0,0,0,0,0,-1,2022,456,0,0
805,568,0,0,0,0,0,0,0,0,0,-1,2029,456,0,0
812,568,0,0,0,0,0,0,0,0,0,-1,2036,456,0,0
-700,561,0,0,0,0,0,0,0,0,0,-1,524,463,0,0
-693,561,0,0,0,0,0,0,0,0,0,-1,531,463,0,0
-686,561,0,0,0,0,0,0,0,0,0,-1,538,463,0,0
-679,561,0,0,0,0,0,0,0,0,0,-1,545,463,0,0
-672,561,0,0,0,0,0,0,0,0,0,-1,552,463,0,0
-665,561,0,0,0,0,0,0,0,0,0,-1,559,463,0,0
-658,561,0,0,0,0,0,0,0,0,0,-1,566,463,0,0
-651,561,0,0,0,0,0,0,0,0,0,-1,573,463,0,0
-644,561,0,0,0,0,0,0,0,0,0,-1,580,463,0,0
-637,561,0,0,0,0,0,0,0,0,0,-1,587,463,0,0
-630,561,0,0,0,0,0,0,0,0,0,-1,594,463,0,0
-623,561,0,0,0,0,0,0,0,0,0,-1,601,463,0,0
-616,561,0,0,0,0,0,0,0,0,0,-1,608,463,0,0
-609,561,0,0,0,0,0,0,0,0,0,-1,615,463,0,0
-602,561,0,0,0,0,0,0,0,0,0,-1,622,463,0,0
-595,561,0,0,0,0,0,0,0,0,0,-1,629,463,0,0
-588,561,0,0,0,0,0,0,0,0,0,-1,636,463,0,0
-581,561,0,0,0,0,0,0,0,0,0,-1,643,463,0,0
-574,561,0,0,0,0,0,0,0,0,0,-1,650,463,0,0
-567,561,0,0,0,0,0,0,0,0,0,-1,657,463,0,0
-560,561,0,0,0,0,0,0,0,0,0,-1,664,463,0,0
-553,561,0,0,0,0,0,0,0,0,0,-1,671,463,0,0
-546,561,0,0,0,0,0,0,0,0,0,-1,678,463,0,0
-539,561,0,0,0,0,0,0,0,0,0,-1,685,463,0,0
-532,561,0,0,0,0,0,0,0,0,0,-1,692,463,0,0
-525,561,0,0,0,0,0,0,0,0,0,-1,699,463,0,0
-518,561,0,0,0,0,0,0,0,0,0,-1,706,463,0,0
-511,561,0,0,0,0,0,0,0,0,0,-1,713,463,0,0
-504,561,0,0,0,0,0,0,0,0,0,-1,720,463,0,0
-497,561,0,0,0,0,0,0,0,0,0,-1,727,463,0,0
-490,561,0,0,0,0,0,0,0,0,0,-1,734,463,0,0
-483,561,0,0,0,0,0,0,0,0,0,-1,741,463,0,0
-476,561,0,0,0,0,0,0,0,0,0,-1,748,463,0,0
-469,561,0,0,0,0,0,0,0,0,0,-1,755,463,0,0
-462,561,0,0,0,0,0,0,0,0,0,-1,762,463,0,0
-455,561,0,0,0,0,0,0,0,0,0,-1,769,463,0,0
-448,561,0,0,0,0,0,0,0,0,0,-1,776,463,0,0
-441,561,0,0,0,0,0,0,0,0,0,-1,783,463,0,0
-434,561,0,0,0,0,0,0,0,0,0,-1,790,463,0,0
-427,561,0,0,0,0,0,0,0,0,0,-1,797,463,0,0
-420,561,0,0,0,0,0,0,0,0,0,-1,804,463,0,0
-413,561,0,0,0,0,0,0,0,0,0,-1,811,463,0,0
-406,561,0,0,0,0,0,0,0,0,0,-1,818,463,0,0
-399,561,0,0,0,0,0,0,0,0,0,-1,825,463,0,0
-392,561,4.92407,-2.54578,0,0,0,0,0,0,0,-1,832,463,4.92408,2.54576
-385,561,5.55634,-1.02338,0,0,0,0,0,0,0,-1,839,463,5.55634,1.02338
-378,561,0.160522,-4.51785,0,0,0,0,0,0,0,-1,846,463,0.160542,4.51785
-371,561,2.81842,-22.7026,0,0,0,0,0,0,0,-1,853,463,2.81845,22.7026
-364,561,2.27527,-22.385,0,0,0,0,0,0,0,-1,860,463,2.27524,22.385
-357,561,2.16742,-23.5582,0,0,0,0,0,0,0,-1,867,463,2.1674,23.5582
-350,561,1.33124,-11.9406,0,0,0,0,0,0,0,-1,874,463,1.33127,11.9406
-343,561,1.13214,-14.1837,0,0,0,0,0,0,0,-1,881,463,1.13217,14.1837
-336,561,2.10248,-29.3101,0,0,0,0,0,0,0,-1,888,463,2.1025,29.3101
-329,561,1.81219,-30.2156,0.00160906,0.0193845,-0.00655566,0.0215407,-0.000547145,-1.25303,0.0145463,0.047738,895,463,1.81221,30.2156
-322,561,1.81793,-30.66,0.000475183,0.0157547,-0.00534058,0.0174363,-0.00120641,-1.26575,0.0120465,0.0433438,902,463,1.81792,30.66
-315,561,1.94049,-31.2673,-0.000241461,0.0129099,-0.00446249,0.0142811,-0.00161269,-1.27267,0.0101013,0.0304264,909,463,1.94048,31.2673
-308,561,1.81769,-32.1494,-0.00101487,0.0103747,-0.00373724,0.0114915,-0.00213166,-1.28042,0.00846152,0.0254792,916,463,1.81768,32.1494
-301,561,1.73145,-33.079,-0.00111575,0.0084744,-0.00336632,0.00953806,-0.00217942,-1.26475,0.00719605,0.0154439,923,463,1.73146,33.079
-294,561,1.67029,-33.8264,-0.00100747,0.00708432,-0.00290163,0.00801725,-0.0019404,-1.25972,0.00609547,0.0124087,930,463,1.67027,33.8263
-287,561,1.63983,-34.5456,-0.000869603,0.00601773,-0.00248977,0.00682351,-0.00167538,-1.2578,0.00519826,0.0112884,937,463,1.63983,34.5456
-280,561,1.59052,-35.2485,-0.000697668,0.00499643,-0.0021507,0.00571746,-0.0014187,-1.24732,0.00436213,0.0133879,944,463,1.59053,35.2485
-273,561,1.53259,-35.9186,-0.000599776,0.00380642,-0.0017509,0.00441744,-0.0012108,-1.23503,0.00342075,0.0163271,951,463,1.5326,35.9186
-266,561,1.50024,-36.6044,-0.000483614,0.00193534,-0.00107863,0.00234644,-0.000894715,-1.20666,0.00193284,0.0106372,958,463,1.50022,36.6044
-259,561,1.47931,-37.3176,-0.000302744,-0.000268327,-0.000276277,-8.72251e-06,-0.000562348,-0.816501,0.000372025,0.0111013,965,463,1.47931,37.3176
-252,561,1.43262,-37.98,-0.000199282,-0.00261034,0.00071415,-3.62971e-06,-0.002806,0.267404,0.00186946,0.0157731,972,463,1.43262,37.98
-245,561,1.38287,-38.6269,-0.000190686,-0.00539389,0.0018899,0.000423308,-0.00600788,0.314125,0.00415356,0.0174961,979,463,1.38287,38.6269
-238,561,1.38678,-39.3077,-5.39119e-05,-0.00832856,0.00307797,0.000965443,-0.00934791,0.319809,0.00657742,0.0147494,986,463,1.38679,39.3078
-231,561,1.35901,-39.9954,-4.95672e-06,-0.011562,0.00441048,0.00148589,-0.0130528,0.325966,0.00923709,0.0129624,993,463,1.359,39.9954
-224,561,1.33075,-40.6423,-5.92024e-05,-0.0146962,0.00574174,0.00192435,-0.0166797,0.332625,0.0118136,0.0123832,1000,463,1.33074,40.6423
-217,561,1.32788,-41.2722,-0.000106415,-0.0178367,0.00706726,0.00236585,-0.020309,0.336514,0.0143929,0.0125217,1007,463,1.32786,41.2722
-210,561,1.31757,-41.9126,-9.95837e-05,-0.0208048,0.00831357,0.00282531,-0.0237297,0.338297,0.0168407,0.0126405,1014,463,1.31757,41.9126
-203,561,1.32367,-42.5184,-2.66853e-05,-0.0232718,0.00934429,0.00326382,-0.0265623,0.338581,0.0188904,0.0137348,1021,463,1.32369,42.5184
-196,561,1.25647,-43.0655,1.77866e-05,-0.0252997,0.0102293,0.00363423,-0.0289162,0.339824,0.020596,0.0173394,1028,463,1.25651,43.0655
-189,561,1.36755,-43.6484,7.92798e-05,-0.0272159,0.011028,0.00397804,-0.0311147,0.339817,0.0221883,0.0246655,1035,463,1.36756,43.6484
-182,561,1.46204,-44.2015,0.000308294,-0.0287598,0.0116419,0.0043961,-0.0328476,0.337679,0.0235012,0.0283698,1042,463,1.46204,44.2015
-175,561,1.31824,-44.738,0.000803921,-0.030457,0.0124952,0.00518448,-0.0348375,0.337191,0.0251321,0.0434058,1049,463,1.31828,44.738
-168,561,1.18152,-45.2794,0,0,0,0,0,0,0,-1,1056,463,1.18146,45.2794
-161,561,1.31177,-45.764,0,0,0,0,0,0,0,-1,1063,463,1.31176,45.764
-154,561,1.80945,-46.6576,0,0,0,0,0,0,0,-1,1070,463,1.80942,46.6576
-147,561,1.71521,-46.8847,0,0,0,0,0,0,0,-1,1077,463,1.71523,46.8847
-140,561,1.58289,-46.8999,0,0,0,0,0,0,0,-1,1084,463,1.58288,46.8999
-133,561,1.94263,-47.3621,0,0,0,0,0,0,0,-1,1091,463,1.94266,47.3621
-126,561,1.67249,-47.0102,0,0,0,0,0,0,0,-1,1098,463,1.67254,47.0102
-119,561,-0.336304,-35.422,0,0,0,0,0,0,0,-1,1105,463,-0.336245,35.422
-112,561,1.24365,-29.1982,0,0,0,0,0,0,0,-1,1112,463,1.2437,29.1981
-105,561,0.530518,-13.5379,0,0,0,0,0,0,0,-1,1119,463,0.530477,13.5379
-98,561,1.5387,-7.54352,0,0,0,0,0,0,0,-1,1126,463,1.53871,7.54351
-91,561,1.29553,-6.57968,0,0,0,0,0,0,0,-1,1133,463,1.29549,6.5797
-84,561,1.23364,-5.84555,0,0,0,0,0,0,0,-1,1140,463,1.23363,5.84556
-77,561,-2.36023,1.00204,0,0,0,0,0,0,0,-1,1147,463,-2.3602,-1.00205
-70,561,-3.90015,-1.41541,0,0,0,0,0,0,0,-1,1154,463,-3.90009,1.4154
-63,561,-6.95691,-4.02756,0,0,0,0,0,0,0,-1,1161,463,-6.95696,4.02756
-56,561,-5.37988,-6.66855,0,0,0,0,0,0,0,-1,1168,463,-5.37988,6.66854
-49,561,-5.7439,-9.11029,0,0,0,0,0,0,0,-1,1175,463,-5.74387,9.1103
-42,561,-1.72644,-5.63065,0,0,0,0,0,0,0,-1,1182,463,-1.72648,5.63064
-35,561,-1.65674,-4.87994,0,0,0,0,0,0,0,-1,1189,463,-1.6567,4.87993
-28,561,-1.91418,-3.86896,0,0,0,0,0,0,0,-1,1196,463,-1.91414,3.86895
-21,561,8.79956,-54.3949,0,0,0,0,0,0,0,-1,1203,463,8.79959,54.3949
-14,561,9.28015,-54.1827,-0.0300721,0.0778951,-0.0641628,0.107763,-0.0599401,-1.13512,0.098127,0.0452934,1210,463,9.28021,54.1827
-7,561,9.80054,-54.1752,-0.0309517,0.063806,-0.0675181,0.0989101,-0.0660559,-1.09134,0.0958707,0.0489184,1217,463,9.8005,54.1753
0,561,9.20007,-53.6479,0,0,0,0,0,0,0,-1,1224,463,9.2001,53.648
7,561,8.62903,-53.6761,-0.0178902,0.0487986,-0.0768576,0.0992333,-0.0683248,-0.990068,0.0972868,0.0421292,1231,463,8.62909,53.6762
14,561,8.0304,-53.6539,-0.00627294,0.0463758,-0.0820901,0.106259,-0.0661562,-0.940557,0.100438,0.0389449,1238,463,8.03039,53.6539
21,561,7.51172,-53.8572,0.00756753,0.0459325,-0.0875795,0.116406,-0.0629057,-0.89321,0.10505,0.0414319,1245,463,7.51171,53.8572
28,561,7.71545,-54.5167,0.0228509,0.0479305,-0.0934339,0.129662,-0.058881,-0.852105,0.111383,0.0441995,1252,463,7.71543,54.5166
35,561,7.88025,-55.0085,0.0399168,0.0514669,-0.0996237,0.145483,-0.0540991,-0.81435,0.119187,0.0423621,1259,463,7.88029,55.0085
42,561,8.01086,-55.7122,0.0580538,0.0547958,-0.10473,0.161167,-0.0483176,-0.777622,0.126661,0.0465911,1266,463,8.01083,55.7121
49,561,8.76672,-56.9475,0,0,0,0,0,0,0,-1,1273,463,8.76673,56.9475
56,561,9.8468,-57.8021,0,0,0,0,0,0,0,-1,1280,463,9.8468,57.8021
63,561,10.708,-58.6839,0,0,0,0,0,0,0,-1,1287,463,10.708,58.6839
70,561,11.754,-57.9838,0,0,0,0,0,0,0,-1,1294,463,11.754,57.9839
77,561,12.4996,-58.155,0,0,0,0,0,0,0,-1,1301,463,12.4996,58.155
84,561,13.3501,-58.9607,0,0,0,0,0,0,0,-1,1308,463,13.3501,58.9607
91,561,14.0801,-59.4022,0.13246,0.108105,-0.107308,0.228279,0.0122856,-0.7289,0.148261,0.0437348,1315,463,14.0801,59.4021
98,561,15.0609,-59.61,0,0,0,0,0,0,0,-1,1322,463,15.0609,59.61
105,561,15.965,-59.765,0,0,0,0,0,0,0,-1,1329,463,15.9649,59.765
112,561,16.7286,-60.0586,0,0,0,0,0,0,0,-1,1336,463,16.7287,60.0586
119,561,1.8833,-63.0037,0,0,0,0,0,0,0,-1,1343,463,1.88327,63.0037
126,561,1.07666,-62.5044,0,0,0,0,0,0,0,-1,1350,463,1.07668,62.5044
133,561,0.147705,-62.157,0,0,0,0,0,0,0,-1,1357,463,0.147658,62.157
140,561,9.43323,-47.7127,0,0,0,0,0,0,0,-1,1364,463,9.43327,47.7127
147,561,0.448608,-64.1841,0,0,0,0,0,0,0,-1,1371,463,0.448669,64.1841
154,561,0.384888,-64.6013,0,0,0,0,0,0,0,-1,1378,463,0.384838,64.6013
161,561,0.444336,-64.5979,0,0,0,0,0,0,0,-1,1385,463,0.444369,64.5979
168,561,0.776733,-64.5416,0,0,0,0,0,0,0,-1,1392,463,0.776774,64.5416
175,561,10.4185,0.276398,0,0,0,0,0,0,0,-1,1399,463,10.4185,-0.276394
182,561,6.45703,-4.02127,0,0,0,0,0,0,0,-1,1406,463,6.45704,4.02127
189,561,6.50854,-2.08685,0,0,0,0,0,0,0,-1,1413,463,6.50851,2.08686
196,561,6.44775,-0.27182,0,0,0,0,0,0,0,-1,1420,463,6.44773,0.271814
203,561,6.18591,1.1301,0,0,0,0,0,0,0,-1,1427,463,6.18592,-1.13009
210,561,5.68713,2.68427,0,0,0,0,0,0,0,-1,1434,463,5.6871,-2.68425
217,561,3.61743,-7.33582,0,0,0,0,0,0,0,-1,1441,463,3.61738,7.33581
224,561,4.27466,-8.59171,0,0,0,0,0,0,0,-1,1448,463,4.27466,8.59171
231,561,4.93188,-9.8476,0,0,0,0,0,0,0,-1,1455,463,4.93193,9.84761
238,561,2.18018,-5.18359,0,0,0,0,0,0,0,-1,1462,463,2.18023,5.18359
245,561,3.07568,-3.50238,0,0,0,0,0,0,0,-1,1469,463,3.0757,3.50238
252,561,3.47412,-3.71109,0,0,0,0,0,0,0,-1,1476,463,3.47413,3.71109
259,561,3.42212,-3.2334,0,0,0,0,0,0,0,-1,1483,463,3.42214,3.2334
266,561,4.44373,-5.90027,0,0,0,0,0,0,0,-1,1490,463,4.44372,5.90026
273,561,2.59485,-3.65268,0,0,0,0,0,0,0,-1,1497,463,2.5948,3.65268
280,561,11.684,-46.398,0,0,0,0,0,0,0,-1,1504,463,11.684,46.398
287,561,11.34,-45.5624,0,0,0,0,0,0,0,-1,1511,463,11.34,45.5624
294,561,11.7183,-44.8736,0.00891936,-0.020018,-0.00534964,0.00987668,-0.0209753,-0.177075,0.0181925,0.0489383,1518,463,11.7182,44.8736
301,561,11.7607,-44.2595,0.00801185,-0.0186252,-0.00566865,0.00916802,-0.0197814,-0.201198,0.0170842,0.0393573,1525,463,11.7607,44.2595
308,561,11.9518,-43.8207,0.00695247,-0.0170751,-0.00593998,0.00834071,-0.0184633,-0.229591,0.0158389,0.0308736,1532,463,11.9518,43.8207
315,561,11.9935,-43.3192,0.00596915,-0.015286,-0.00595234,0.00752253,-0.0168393,-0.255277,0.0144041,0.0183788,1539,463,11.9935,43.3192
322,561,11.9523,-42.7379,0.00508464,-0.0132911,-0.00563678,0.00667593,-0.0148824,-0.275145,0.0127437,0.0163616,1546,463,11.9522,42.7379
329,561,11.9602,-42.1035,0.00419638,-0.0111566,-0.00518523,0.00578354,-0.0127437,-0.297036,0.0109454,0.0127978,1553,463,11.9602,42.1035
336,561,11.9673,-41.4518,0.00331338,-0.00912807,-0.00469455,0.004886,-0.0107007,-0.323239,0.00920535,0.012529,1560,463,11.9673,41.4518
343,561,11.9622,-40.825,0.00250428,-0.00690435,-0.00395635,0.00394677,-0.00834685,-0.349624,0.00724768,0.0123425,1567,463,11.9622,40.825
350,561,11.9329,-40.1587,0.00185024,-0.00484722,-0.00318679,0.00312424,-0.00612122,-0.380312,0.00543055,0.0111502,1574,463,11.9328,40.1586
357,561,11.9169,-39.4829,0.00134238,-0.00289137,-0.0022538,0.00231755,-0.00386655,-0.408358,0.00360753,0.0107692,1581,463,11.9169,39.4829
364,561,11.9169,-38.8293,0.00094592,-0.0011132,-0.00121179,0.00150647,-0.00167374,-0.433263,0.00183694,0.0099105,1588,463,11.9169,38.8293
371,561,11.8748,-38.1315,0.000728676,0.000407921,-0.00025552,0.000869979,0.000266618,-0.505146,0.000514672,0.0158034,1595,463,11.8747,38.1315
378,561,11.817,-37.4287,0.000555733,0.00175787,0.000571849,0.00198644,0.000327167,1.19055,0.00122983,0.012454,1602,463,11.817,37.4287
385,561,11.7916,-36.7168,0.000376777,0.00315892,0.00129302,0.00366705,-0.000131354,1.19636,0.00248964,0.0118719,1609,463,11.7916,36.7168
392,561,11.7544,-36.0176,0.000425029,0.00421217,0.00201558,0.00508413,-0.000446934,1.1625,0.0035478,0.0161114,1616,463,11.7544,36.0177
399,561,11.75,-35.3307,0.000593155,0.00520966,0.00273994,0.00648404,-0.000681231,1.13544,0.00456674,0.0217747,1623,463,11.7501,35.3308
406,561,11.7493,-34.6092,0.000584697,0.00617824,0.00326317,0.00767916,-0.000916228,1.13969,0.00545058,0.0197388,1630,463,11.7492,34.6092
413,561,11.7023,-33.8572,0.000474008,0.00704765,0.00363828,0.00866392,-0.00114226,1.15274,0.00619192,0.0180248,1637,463,11.7023,33.8572
420,561,11.652,-33.1061,0.000270643,0.00767905,0.00399648,0.00942397,-0.00147428,1.15913,0.00682734,0.0143573,1644,463,11.652,33.1061
427,561,11.5994,-32.344,-3.40916e-05,0.00783716,0.00415016,0.00962106,-0.00181799,1.16483,0.00709807,0.0112219,1651,463,11.5994,32.344
434,561,11.5569,-31.5791,-0.000297315,0.00817686,0.00436062,0.0100199,-0.00214035,1.17091,0.00749595,0.0132951,1658,463,11.5568,31.5791
441,561,11.5721,-30.8377,-0.000793992,0.00821719,0.00440905,0.0100156,-0.00259237,1.18351,0.00768826,0.015762,1665,463,11.5721,30.8377
448,561,11.5195,-30.0297,-0.00149928,0.00795759,0.00434887,0.00965339,-0.00319508,1.19899,0.00772412,0.0238883,1672,463,11.5195,30.0297
455,561,11.3912,-29.1776,-0.0023951,0.00720544,0.00408437,0.00870792,-0.00389758,1.2183,0.00745233,0.0457862,1679,463,11.3913,29.1775
462,561,11.1699,-28.4906,-0.00333908,0.00632517,0.00367647,0.00756477,-0.00457869,1.2456,0.00708133,0.0438351,1686,463,11.1699,28.4906
469,561,11.1246,-27.8466,-0.00437171,0.00506149,0.00302473,0.00594805,-0.00525826,1.28568,0.00647405,0.0298989,1693,463,11.1246,27.8466
476,561,10.7826,-27.1952,-0.00557574,0.00316643,0.00208828,0.00363965,-0.00604896,1.34795,0.00565108,0.0438655,1700,463,10.7826,27.1952
483,561,10.3369,-26.5207,0,0,0,0,0,0,0,-1,1707,463,10.3369,26.5207
490,561,10.2549,-20.4551,0,0,0,0,0,0,0,-1,1714,463,10.2548,20.4551
497,561,11.7618,-20.3894,0,0,0,0,0,0,0,-1,1721,463,11.7618,20.3894
504,561,12.9351,-20.1285,0,0,0,0,0,0,0,-1,1728,463,12.935,20.1285
511,561,0,0,0,0,0,0,0,0,0,-1,1735,463,0,0
518,561,0,0,0,0,0,0,0,0,0,-1,1742,463,0,0
525,561,0,0,0,0,0,0,0,0,0,-1,1749,463,0,0
532,561,0,0,0,0,0,0,0,0,0,-1,1756,463,0,0
539,561,0,0,0,0,0,0,0,0,0,-1,1763,463,0,0
546,561,0,0,0,0,0,0,0,0,0,-1,1770,463,0,0
553,561,0,0,0,0,0,0,0,0,0,-1,1777,463,0,0
560,561,0,0,0,0,0,0,0,0,0,-1,1784,463,0,0
567,561,0,0,0,0,0,0,0,0,0,-1,1791,463,0,0
574,561,0,0,0,0,0,0,0,0,0,-1,1798,463,0,0
581,561,0,0,0,0,0,0,0,0,0,-1,1805,463,0,0
588,561,0,0,0,0,0,0,0,0,0,-1,1812,463,0,0
595,561,0,0,0,0,0,0,0,0,0,-1,1819,463,0,0
602,561,0,0,0,0,0,0,0,0,0,-1,1826,463,0,0
609,561,0,0,0,0,0,0,0,0,0,-1,1833,463,0,0
616,561,0,0,0,0,0,0,0,0,0,-1,1840,463,0,0
623,561,0,0,0,0,0,0,0,0,0,-1,1847,463,0,0
630,561,0,0,0,0,0,0,0,0,0,-1,1854,463,0,0
637,561,0,0,0,0,0,0,0,0,0,-1,1861,463,0,0
644,561,0,0,0,0,0,0,0,0,0,-1,1868,463,0,0
651,561,0,0,0,0,0,0,0,0,0,-1,1875,463,0,0
658,561,0,0,0,0,0,0,0,0,0,-1,1882,463,0,0
665,561,0,0,0,0,0,0,0,0,0,-1,1889,463,0,0
672,561,0,0,0,0,0,0,0,0,0,-1,1896,463,0,0
679,561,0,0,0,0,0,0,0,0,0,-1,1903,463,0,0
686,561,0,0,0,0,0,0,0,0,0,-1,1910,463,0,0
693,561,0,0,0,0,0,0,0,0,0,-1,1917,463,0,0
700,561,0,0,0,0,0,0,0,0,0,-1,1924,463,0,0
707,561,0,0,0,0,0,0,0,0,0,-1,1931,463,0,0
714,561,0,0,0,0,0,0,0,0,0,-1,1938,463,0,0
721,561,0,0,0,0,0,0,0,0,0,-1,1945,463,0,0
728,561,0,0,0,0,0,0,0,0,0,-1,1952,463,0,0
735,561,0,0,0,0,0,0,0,0,0,-1,1959,463,0,0
742,561,0,0,0,0,0,0,0,0,0,-1,1966,463,0,0
749,561,0,0,0,0,0,0,0,0,0,-1,1973,463,0,0
756,561,0,0,0,0,0,0,0,0,0,-1,1980,463,0,0
763,561,0,0,0,0,0,0,0,0,0,-1,1987,463,0,0
770,561,0,0,0,0,0,0,0,0,0,-1,1994,463,0,0
777,561,0,0,0,0,0,0,0,0,0,-1,2001,463,0,0
784,561,0,0,0,0,0,0,0,0,0,-1,2008,463,0,0
791,561,0,0,0,0,0,0,0,0,0,-1,2015,463,0,0
798,561,0,0,0,0,0,0,0,0,0,-1,2022,463,0,0
805,561,0,0,0,0,0,0,0,0,0,-1,2029,463,0,0
812,561,0,0,0,0,0,0,0,0,0,-1,2036,463,0,0
-700,554,0,0,0,0,0,0,0,0,0,-1,524,470,0,0
-693,554,0,0,0,0,0,0,0,0,0,-1,531,470,0,0
-686,554,0,0,0,0,0,0,0,0,0,-1,538,470,0,0
-679,554,0,0,0,0,0,0,0,0,0,-1,545,470,0,0
-672,554,0,0,0,0,0,0,0,0,0,-1,552,470,0,0
-665,554,0,0,0,0,0,0,0,0,0,-1,559,470,0,0
-658,554,0,0,0,0,0,0,0,0,0,-1,566,470,0,0
-651,554,0,0,0,0,0,0,0,0,0,-1,573,470,0,0
-644,554,0,0,0,0,0,0,0,0,0,-1,580,470,0,0
-637,554,0,0,0,0,0,0,0,0,0,-1,587,470,0,0
-630,554,0,0,0,0,0,0,0,0,0,-1,594,470,0,0
-623,554,0,0,0,0,0,0,0,0,0,-1,601,470,0,0
-616,554,0,0,0,0,0,0,0,0,0,-1,608,470,0,0
-609,554,0,0,0,0,0,0,0,0,0,-1,615,470,0,0
-602,554,0,0,0,0,0,0,0,0,0,-1,622,470,0,0
-595,554,0,0,0,0,0,0,0,0,0,-1,629,470,0,0
-588,554,0,0,0,0,0,0,0,0,0,-1,636,470,0,0
-581,554,0,0,0,0,0,0,0,0,0,-1,643,470,0,0
-574,554,0,0,0,0,0,0,0,0,0,-1,650,470,0,0
-567,554,0,0,0,0,0,0,0,0,0,-1,657,470,0,0
-560,554,0,0,0,0,0,0,0,0,0,-1,664,470,0,0
-553,554,0,0,0,0,0,0,0,0,0,-1,671,470,0,0
-546,554,0,0,0,0,0,0,0,0,0,-1,678,470,0,0
-539,554,0,0,0,0,0,0,0,0,0,-1,685,470,0,0
-532,554,0,0,0,0,0,0,0,0,0,-1,692,470,0,0
-525,554,0,0,0,0,0,0,0,0,0,-1,699,470,0,0
-518,554,0,0,0,0,0,0,0,0,0,-1,706,470,0,0
-511,554,0,0,0,0,0,0,0,0,0,-1,713,470,0,0
-504,554,0,0,0,0,0,0,0,0,0,-1,720,470,0,0
-497,554,0,0,0,0,0,0,0,0,0,-1,727,470,0,0
-490,554,0,0,0,0,0,0,0,0,0,-1,734,470,0,0
-483,554,0,0,0,0,0,0,0,0,0,-1,741,470,0,0
-476,554,0,0,0,0,0,0,0,0,0,-1,748,470,0,0
-469,554,0,0,0,0,0,0,0,0,0,-1,755,470,0,0
-462,554,0,0,0,0,0,0,0,0,0,-1,762,470,0,0
-455,554,0,0,0,0,0,0,0,0,0,-1,769,470,0,0
-448,554,0,0,0,0,0,0,0,0,0,-1,776,470,0,0
-441,554,0,0,0,0,0,0,0,0,0,-1,783,470,0,0
-434,554,0,0,0,0,0,0,0,0,0,-1,790,470,0,0
-427,554,0,0,0,0,0,0,0,0,0,-1,797,470,0,0
-420,554,0,0,0,0,0,0,0,0,0,-1,804,470,0,0
-413,554,0,0,0,0,0,0,0,0,0,-1,811,470,0,0
-406,554,0,0,0,0,0,0,0,0,0,-1,818,470,0,0
-399,554,-1.32275,-3.95142,0,0,0,0,0,0,0,-1,825,470,-1.32275,3.95141
-392,554,-1.35632,-3.7406,0,0,0,0,0,0,0,-1,832,470,-1.35632,3.7406
-385,554,-0.849243,-4.14447,0,0,0,0,0,0,0,-1,839,470,-0.849262,4.14446
-378,554,1.64551,-21.6152,0,0,0,0,0,0,0,-1,846,470,1.64549,21.6152
-371,554,1.48529,-21.109,0,0,0,0,0,0,0,-1,853,470,1.48529,21.109
-364,554,1.50122,-22.904,0,0,0,0,0,0,0,-1,860,470,1.50122,22.904
-357,554,1.60132,-24.6599,0,0,0,0,0,0,0,-1,867,470,1.60132,24.6599
-350,554,1.17157,-18.1341,0,0,0,0,0,0,0,-1,874,470,1.17156,18.1341
-343,554,1.46014,-28.7594,0,0,0,0,0,0,0,-1,881,470,1.46012,28.7594
-336,554,1.34741,-29.3334,0.00316173,0.0209744,-0.00782732,0.0239251,0.000211004,-1.21029,0.0158802,0.0397686,888,470,1.34741,29.3334
-329,554,1.1958,-30.0776,0.00168379,0.0166466,-0.00613571,0.0188409,-0.000510463,-1.22735,0.0127342,0.0208716,895,470,1.19583,30.0776
-322,554,1.11261,-30.8417,0.000609315,0.0132023,-0.00476426,0.0148016,-0.000990015,-1.24692,0.0102138,0.0151931,902,470,1.11263,30.8417
-315,554,1.09802,-31.5739,-4.41952e-05,0.0105163,-0.00375143,0.0117133,-0.00124115,-1.26194,0.00825375,0.0149867,909,470,1.09802,31.5739
-308,554,1.05847,-32.3175,-0.000737024,0.00816429,-0.00293568,0.00904528,-0.00161802,-1.27925,0.00663561,0.0143507,916,470,1.05847,32.3175
-301,554,1.02185,-33.0814,-0.000830257,0.00638947,-0.00248583,0.00716258,-0.00160337,-1.26927,0.0053896,0.0139221,923,470,1.02187,33.0814
-294,554,0.97821,-33.8018,-0.000652774,0.00509575,-0.00200651,0.00572684,-0.00128386,-1.26607,0.00431006,0.012991,930,470,0.978231,33.8018
-287,554,0.933044,-34.5177,-0.000449132,0.00406273,-0.00156616,0.00455308,-0.000939485,-1.26737,0.00339219,0.0134679,937,470,0.933019,34.5177
-280,554,0.874084,-35.2169,-0.00034321,0.00278555,-0.00116903,0.0031741,-0.000731754,-1.24992,0.0023975,0.0125664,944,470,0.874058,35.2169
-273,554,0.81781,-35.8958,-0.000269217,0.00115734,-0.000616841,0.00138707,-0.000498943,-1.21429,0.00112842,0.0154659,951,470,0.817784,35.8958
-266,554,0.795471,-36.5915,-0.000151351,-0.00120617,0.000324267,-5.96395e-05,-0.00129788,0.275627,0.000846072,0.012564,958,470,0.795469,36.5915
-259,554,0.780029,-37.2506,7.70417e-06,-0.0038726,0.00130051,0.000403259,-0.00426815,0.295262,0.00298894,0.0125207,965,470,0.780008,37.2507
-252,554,0.725403,-37.9057,2.2953e-05,-0.00684455,0.00248378,0.000827102,-0.0076487,0.31311,0.00539601,0.0155478,972,470,0.725423,37.9057
-245,554,0.679504,-38.5848,-0.000112748,-0.0103284,0.00393934,0.00122988,-0.011671,0.328478,0.00822135,0.0163994,979,470,0.679477,38.5848
-238,554,0.711365,-39.2958,-8.33794e-05,-0.0139604,0.0054005,0.00177063,-0.0158144,0.330696,0.01118,0.0125208,986,470,0.711359,39.2959
-231,554,0.704407,-39.9719,-0.000152403,-0.0179289,0.00703502,0.0022948,-0.0203761,0.334767,0.01441,0.0111459,993,470,0.7044,39.9719
-224,554,0.699646,-40.6025,-0.000345386,-0.0218012,0.0086896,0.0027324,-0.024879,0.340405,0.0175677,0.0112278,1000,470,0.699638,40.6025
-217,554,0.699524,-41.2343,-0.000543106,-0.0256071,0.0103359,0.00316933,-0.0293196,0.344828,0.0206839,0.0114156,1007,470,0.69954,41.2343
-210,554,0.679199,-41.8463,-0.000696515,-0.0291872,0.0118778,0.00360572,-0.0334895,0.347508,0.0236202,0.0155276,1014,470,0.679221,41.8462
-203,554,0.642822,-42.3781,-0.000785076,-0.0321879,0.0131652,0.00400393,-0.0369769,0.348882,0.0260885,0.0242924,1021,470,0.642841,42.3781
-196,554,0.641357,-42.8866,-0.000899569,-0.034639,0.0142597,0.0043198,-0.0398584,0.350876,0.028123,0.0323977,1028,470,0.641402,42.8866
-189,554,0.716675,-43.3389,-0.000999346,-0.0369708,0.0152754,0.00461206,-0.0425822,0.352046,0.0300437,0.0392959,1035,470,0.716672,43.3389
-182,554,0.645386,-43.6485,-0.000890543,-0.0388435,0.016036,0.00497773,-0.0447118,0.350806,0.031598,0.0492827,1042,470,0.645334,43.6485
-175,554,0.473511,-43.938,0,0,0,0,0,0,0,-1,1049,470,0.473564,43.9381
-168,554,1.05835,-43.1619,0,0,0,0,0,0,0,-1,1056,470,1.05829,43.1618
-161,554,1.09583,-42.015,0,0,0,0,0,0,0,-1,1063,470,1.09577,42.015
-154,554,1.03186,-42.7216,0,0,0,0,0,0,0,-1,1070,470,1.03187,42.7216
-147,554,1.4552,-41.5187,0,0,0,0,0,0,0,-1,1077,470,1.45525,41.5187
-140,554,0.428101,-38.9893,0,0,0,0,0,0,0,-1,1084,470,0.428152,38.9893
-133,554,2.67163,-32.8187,0,0,0,0,0,0,0,-1,1091,470,2.67161,32.8187
-126,554,0.851929,-33.5393,0,0,0,0,0,0,0,-1,1098,470,0.851942,33.5393
-119,554,-1.03479,-32.1628,0,0,0,0,0,0,0,-1,1105,470,-1.03476,32.1628
-112,554,1.03162,-24.5784,0,0,0,0,0,0,0,-1,1112,470,1.03156,24.5784
-105,554,0.608765,-21.0475,0,0,0,0,0,0,0,-1,1119,470,0.608728,21.0475
-98,554,1.51929,-7.3624,0,0,0,0,0,0,0,-1,1126,470,1.51928,7.36241
-91,554,1.41089,-6.5864,0,0,0,0,0,0,0,-1,1133,470,1.41093,6.58638
-84,554,1.62305,-5.87186,0,0,0,0,0,0,0,-1,1140,470,1.62299,5.87186
-77,554,-2.56958,1.33258,0,0,0,0,0,0,0,-1,1147,470,-2.56959,-1.33257
-70,554,-3.68164,-1.18332,0,0,0,0,0,0,0,-1,1154,470,-3.68158,1.18331
-63,554,-4.86853,-3.88708,0,0,0,0,0,0,0,-1,1161,470,-4.86853,3.88708
-56,554,-5.69958,-6.45422,0,0,0,0,0,0,0,-1,1168,470,-5.69955,6.45422
-49,554,-6.23645,-8.8569,0,0,0,0,0,0,0,-1,1175,470,-6.23643,8.85689
-42,554,-6.62524,-11.5382,0,0,0,0,0,0,0,-1,1182,470,-6.62522,11.5382
-35,554,-2.40173,-4.59482,0,0,0,0,0,0,0,-1,1189,470,-2.40169,4.59481
-28,554,-0.760132,-1.65555,0,0,0,0,0,0,0,-1,1196,470,-0.760095,1.65556
-21,554,7.92444,-43.2634,0,0,0,0,0,0,0,-1,1203,470,7.92438,43.2634
-14,554,11.3202,-54.7592,0,0,0,0,0,0,0,-1,1210,470,11.3202,54.7592
-7,554,11.343,-55.1116,-0.0570239,0.101016,-0.0722827,0.129089,-0.0850972,-1.20035,0.124527,0.0482933,1217,470,11.3431,55.1116
0,554,9.87366,-55.2858,0,0,0,0,0,0,0,-1,1224,470,9.87368,55.2858
7,554,9.45886,-54.399,-0.0415815,0.0753878,-0.0812908,0.117046,-0.08324,-1.09723,0.116183,0.0463922,1231,470,9.45889,54.399
14,554,8.3645,-53.3818,-0.0280333,0.0697589,-0.0865012,0.120227,-0.0785016,-1.04264,0.115576,0.044094,1238,470,8.36452,53.3818
21,554,8.15417,-54.0751,-0.0115717,0.0672672,-0.0923431,0.128253,-0.0725571,-0.987129,0.117415,0.0451572,1245,470,8.15419,54.0751
28,554,8.3855,-54.648,0.00641956,0.0676277,-0.0987722,0.140428,-0.0663812,-0.93563,0.121926,0.0438622,1252,470,8.38552,54.648
35,554,8.53967,-55.1358,0.0260489,0.0702329,-0.105774,0.156198,-0.0599159,-0.888348,0.128835,0.0393742,1259,470,8.53965,55.1358
42,554,8.57483,-55.7668,0,0,0,0,0,0,0,-1,1266,470,8.57479,55.7668
49,554,9.67444,-58.3471,0,0,0,0,0,0,0,-1,1273,470,9.67444,58.3471
56,554,10.7385,-58.3132,0,0,0,0,0,0,0,-1,1280,470,10.7385,58.3131
63,554,11.7227,-58.5576,0,0,0,0,0,0,0,-1,1287,470,11.7226,58.5575
70,554,12.5446,-58.532,0,0,0,0,0,0,0,-1,1294,470,12.5446,58.532
77,554,13.41,-58.7946,0,0,0,0,0,0,0,-1,1301,470,13.41,58.7946
84,554,14.267,-59.318,0,0,0,0,0,0,0,-1,1308,470,14.2669,59.318
91,554,15.0771,-59.791,0,0,0,0,0,0,0,-1,1315,470,15.0771,59.791
98,554,15.9641,-60.1745,0,0,0,0,0,0,0,-1,1322,470,15.9641,60.1745
105,554,16.9467,-60.4404,0.146197,0.140721,-0.104573,0.248068,0.0388498,-0.772308,0.15407,0.0464463,1329,470,16.9466,60.4404
112,554,17.8252,-60.3249,0.146487,0.14865,-0.104414,0.251988,0.0431496,-0.790578,0.155616,0.0463566,1336,470,17.8252,60.3249
119,554,18.7361,-60.2118,0,0,0,0,0,0,0,-1,1343,470,18.7361,60.2118
126,554,1.47607,-65.2447,0,0,0,0,0,0,0,-1,1350,470,1.47611,65.2447
133,554,1.01062,-65.067,0,0,0,0,0,0,0,-1,1357,470,1.01063,65.0669
140,554,0.422852,-64.5742,0,0,0,0,0,0,0,-1,1364,470,0.422815,64.5742
147,554,0.500488,-66.3041,0,0,0,0,0,0,0,-1,1371,470,0.50048,66.3041
154,554,0.37207,-66.6273,0,0,0,0,0,0,0,-1,1378,470,0.372039,66.6273
161,554,0.463989,-66.6671,0,0,0,0,0,0,0,-1,1385,470,0.464018,66.6671
168,554,0.401001,-66.7852,0,0,0,0,0,0,0,-1,1392,470,0.401023,66.7852
175,554,10.663,0.286957,0,0,0,0,0,0,0,-1,1399,470,10.663,-0.286966
182,554,6.71106,-4.50217,0,0,0,0,0,0,0,-1,1406,470,6.71107,4.50215
189,554,6.90479,-2.50348,0,0,0,0,0,0,0,-1,1413,470,6.90477,2.50348
196,554,6.96216,-0.740906,0,0,0,0,0,0,0,-1,1420,470,6.96214,0.740912
203,554,6.43518,0.414154,0,0,0,0,0,0,0,-1,1427,470,6.43523,-0.414141
210,554,6.21167,1.96707,0,0,0,0,0,0,0,-1,1434,470,6.21165,-1.96706
217,554,5.64551,3.4989,0,0,0,0,0,0,0,-1,1441,470,5.64555,-3.49891
224,554,4.85144,-8.85172,0,0,0,0,0,0,0,-1,1448,470,4.85146,8.85173
231,554,3.25073,-5.29642,0,0,0,0,0,0,0,-1,1455,470,3.25078,5.29642
238,554,4.28625,-3.25253,0,0,0,0,0,0,0,-1,1462,470,4.28622,3.25252
245,554,4.0752,-2.90033,0,0,0,0,0,0,0,-1,1469,470,4.07515,2.90032
252,554,3.52112,-0.934998,0,0,0,0,0,0,0,-1,1476,470,3.52113,0.934996
259,554,3.96448,-2.16425,0,0,0,0,0,0,0,-1,1483,470,3.96446,2.16424
266,554,3.0592,-2.71716,0,0,0,0,0,0,0,-1,1490,470,3.05923,2.71718
273,554,2.58521,-3.06876,0,0,0,0,0,0,0,-1,1497,470,2.58524,3.06874
280,554,2.83301,-0.991699,0,0,0,0,0,0,0,-1,1504,470,2.83303,0.991704
287,554,3.54126,-4.12277,0,0,0,0,0,0,0,-1,1511,470,3.54123,4.12277
294,554,12.1763,-44.4637,0,0,0,0,0,0,0,-1,1518,470,12.1762,44.4637
301,554,12.3635,-43.6404,0,0,0,0,0,0,0,-1,1525,470,12.3635,43.6404
308,554,12.6285,-43.4913,0.00848263,-0.0229806,-0.00829207,0.0105342,-0.0250322,-0.242544,0.0210953,0.0477918,1532,470,12.6286,43.4913
315,554,12.6831,-43.0718,0.00721947,-0.0205065,-0.0083338,0.00953161,-0.0228186,-0.270634,0.0191954,0.0460472,1539,470,12.683,43.0718
322,554,12.6658,-42.5267,0.00613089,-0.0178685,-0.0079603,0.00853115,-0.0202688,-0.29286,0.0170818,0.0364036,1546,470,12.6657,42.5267
329,554,12.6735,-41.9599,0.00505579,-0.0151118,-0.00741738,0.00749,-0.017546,-0.317103,0.0148381,0.0214814,1553,470,12.6734,41.9599
336,554,12.6284,-41.3853,0.00397269,-0.0126219,-0.00683318,0.00642424,-0.0150734,-0.344467,0.0127421,0.0134314,1560,470,12.6284,41.3853
343,554,12.6324,-40.7822,0.00295983,-0.00995683,-0.00595997,0.00528963,-0.0122866,-0.372644,0.0104122,0.0116292,1567,470,12.6324,40.7822
350,554,12.6263,-40.108,0.00215512,-0.007633,-0.00508125,0.0043159,-0.00979379,-0.402081,0.00834837,0.0108369,1574,470,12.6263,40.108
357,554,12.624,-39.4235,0.00155855,-0.005429,-0.00402199,0.00339233,-0.00726278,-0.427782,0.00628557,0.0121078,1581,470,12.624,39.4235
364,554,12.6019,-38.7882,0.00107592,-0.00343393,-0.00285075,0.00245575,-0.00481376,-0.450785,0.00427002,0.00932628,1588,470,12.6019,38.7882
371,554,12.566,-38.1063,0.000815936,-0.00176778,-0.0017882,0.0017301,-0.00268195,-0.472585,0.00256698,0.00871486,1595,470,12.566,38.1063
378,554,12.5293,-37.3888,0.00062441,-0.000260947,-0.000848774,0.00113901,-0.000775547,-0.545029,0.00111199,0.0113586,1602,470,12.5293,37.3888
385,554,12.5076,-36.6803,0.00038511,0.00119633,2.34633e-06,0.00119634,0.000385103,1.5679,0.000705159,0.0110454,1609,470,12.5076,36.6803
392,554,12.4973,-35.959,0.000394176,0.00229806,0.000824581,0.00260554,8.6703e-05,1.21388,0.00170886,0.0140078,1616,470,12.4973,35.959
399,554,12.4713,-35.2369,0.000528779,0.00324139,0.00152814,0.00392831,-0.000158141,1.14835,0.00267315,0.0187281,1623,470,12.4714,35.2369
406,554,12.4314,-34.5186,0.000538101,0.00413909,0.00206069,0.00507506,-0.000397869,1.14445,0.00352349,0.0174752,1630,470,12.4314,34.5186
413,554,12.4053,-33.8066,0.000473761,0.00498939,0.00249716,0.0060981,-0.000634954,1.15295,0.00429274,0.0162001,1637,470,12.4053,33.8066
420,554,12.3724,-33.0854,0.000305866,0.00558144,0.00287103,0.00684246,-0.000955158,1.15694,0.00491109,0.0165867,1644,470,12.3724,33.0854
427,554,12.3239,-32.3216,6.20307e-05,0.00580362,0.0030811,0.00714408,-0.00127843,1.16044,0.00524109,0.0117729,1651,470,12.3239,32.3216
434,554,12.2528,-31.5858,-0.000124879,0.00610167,0.00333887,0.00755354,-0.00157675,1.16062,0.00563529,0.0110267,1658,470,12.2528,31.5858
441,554,12.2373,-30.8588,-0.00047132,0.00622717,0.00350667,0.00772707,-0.00197121,1.16662,0.00591889,0.0126835,1665,470,12.2373,30.8588
448,554,12.2109,-30.0453,-0.000964039,0.00608906,0.003574,0.00758347,-0.00245845,1.17476,0.00604416,0.017598,1672,470,12.2109,30.0453
455,554,12.1293,-29.2944,-0.00157737,0.00564859,0.00349985,0.00706578,-0.00299455,1.18605,0.00596477,0.0195911,1679,470,12.1293,29.2944
462,554,12.0276,-28.5591,-0.00215567,0.00511699,0.00332944,0.00641098,-0.00344966,1.20011,0.00577799,0.0226048,1686,470,12.0276,28.559
469,554,11.8785,-27.804,-0.00270729,0.00440639,0.00302616,0.00551954,-0.00382044,1.21832,0.0054221,0.0265108,1693,470,11.8785,27.8041
476,554,11.8866,-26.7401,-0.00338743,0.00340021,0.00261365,0.00428998,-0.0042772,1.24267,0.00494627,0.0457732,1700,470,11.8865,26.7401
483,554,11.9045,-25.6502,0,0,0,0,0,0,0,-1,1707,470,11.9045,25.6502
490,554,12.5504,-17.9805,0,0,0,0,0,0,0,-1,1714,470,12.5505,17.9805
497,554,14.3204,-17.9055,0,0,0,0,0,0,0,-1,1721,470,14.3204,17.9055
504,554,2.13257,-3.81628,0,0,0,0,0,0,0,-1,1728,470,2.1326,3.8163
511,554,1.31396,-4.02713,0,0,0,0,0,0,0,-1,1735,470,1.31398,4.02712
518,554,5.04236,-5.9472,0,0,0,0,0,0,0,-1,1742,470,5.04231,5.94721
525,554,0,0,0,0,0,0,0,0,0,-1,1749,470,0,0
532,554,0,0,0,0,0,0,0,0,0,-1,1756,470,0,0
539,554,0,0,0,0,0,0,0,0,0,-1,1763,470,0,0
546,554,0,0,0,0,0,0,0,0,0,-1,1770,470,0,0
553,554,0,0,0,0,0,0,0,0,0,-1,1777,470,0,0
560,554,0,0,0,0,0,0,0,0,0,-1,1784,470,0,0
567,554,0,0,0,0,0,0,0,0,0,-1,1791,470,0,0
574,554,0,0,0,0,0,0,0,0,0,-1,1798,470,0,0
581,554,0,0,0,0,0,0,0,0,0,-1,1805,470,0,0
588,554,0,0,0,0,0,0,0,0,0,-1,1812,470,0,0
595,554,0,0,0,0,0,0,0,0,0,-1,1819,470,0,0
602,554,0,0,0,0,0,0,0,0,0,-1,1826,470,0,0
609,554,0,0,0,0,0,0,0,0,0,-1,1833,470,0,0
616,554,0,0,0,0,0,0,0,0,0,-1,1840,470,0,0
623,554,0,0,0,0,0,0,0,0,0,-1,1847,470,0,0
630,554,0,0,0,0,0,0,0,0,0,-1,1854,470,0,0
637,554,0,0,0,0,0,0,0,0,0,-1,1861,470,0,0
644,554,0,0,0,0,0,0,0,0,0,-1,1868,470,0,0
651,554,0,0,0,0,0,0,0,0,0,-1,1875,470,0,0
658,554,0,0,0,0,0,0,0,0,0,-1,1882,470,0,0
665,554,0,0,0,0,0,0,0,0,0,-1,1889,470,0,0
672,554,0,0,0,0,0,0,0,0,0,-1,1896,470,0,0
679,554,0,0,0,0,0,0,0,0,0,-1,1903,470,0,0
686,554,0,0,0,0,0,0,0,0,0,-1,1910,470,0,0
693,554,0,0,0,0,0,0,0,0,0,-1,1917,470,0,0
700,554,0,0,0,0,0,0,0,0,0,-1,1924,470,0,0
707,554,0,0,0,0,0,0,0,0,0,-1,1931,470,0,0
714,554,0,0,0,0,0,0,0,0,0,-1,1938,470,0,0
721,554,0,0,0,0,0,0,0,0,0,-1,1945,470,0,0
728,554,0,0,0,0,0,0,0,0,0,-1,1952,470,0,0
735,554,0,0,0,0,0,0,0,0,0,-1,1959,470,0,0
742,554,0,0,0,0,0,0,0,0,0,-1,1966,470,0,0
749,554,0,0,0,0,0,0,0,0,0,-1,1973,470,0,0
756,554,0,0,0,0,0,0,0,0,0,-1,1980,470,0,0
763,554,0,0,0,0,0,0,0,0,0,-1,1987,470,0,0
770,554,0,0,0,0,0,0,0,0,0,-1,1994,470,0,0
777,554,0,0,0,0,0,0,0,0,0,-1,2001,470,0,0
784,554,0,0,0,0,0,0,0,0,0,-1,2008,470,0,0
791,554,0,0,0,0,0,0,0,0,0,-1,2015,470,0,0
798,554,0,0,0,0,0,0,0,0,0,-1,2022,470,0,0
805,554,0,0,0,0,0,0,0,0,0,-1,2029,470,0,0
812,554,0,0,0,0,0,0,0,0,0,-1,2036,470,0,0
-700,547,0,0,0,0,0,0,0,0,0,-1,524,477,0,0
-693,547,0,0,0,0,0,0,0,0,0,-1,531,477,0,0
-686,547,0,0,0,0,0,0,0,0,0,-1,538,477,0,0
-679,547,0,0,0,0,0,0,0,0,0,-1,545,477,0,0
-672,547,0,0,0,0,0,0,0,0,0,-1,552,477,0,0
-665,547,0,0,0,0,0,0,0,0,0,-1,559,477,0,0
-658,547,0,0,0,0,0,0,0,0,0,-1,566,477,0,0
-651,547,0,0,0,0,0,0,0,0,0,-1,573,477,0,0
-644,547,0,0,0,0,0,0,0,0,0,-1,580,477,0,0
-637,547,0,0,0,0,0,0,0,0,0,-1,587,477,0,0
-630,547,0,0,0,0,0,0,0,0,0,-1,594,477,0,0
-623,547,0,0,0,0,0,0,0,0,0,-1,601,477,0,0
-616,547,0,0,0,0,0,0,0,0,0,-1,608,477,0,0
-609,547,0,0,0,0,0,0,0,0,0,-1,615,477,0,0
-602,547,0,0,0,0,0,0,0,0,0,-1,622,477,0,0
-595,547,0,0,0,0,0,0,0,0,0,-1,629,477,0,0
-588,547,0,0,0,0,0,0,0,0,0,-1,636,477,0,0
-581,547,0,0,0,0,0,0,0,0,0,-1,643,477,0,0
-574,547,0,0,0,0,0,0,0,0,0,-1,650,477,0,0
-567,547,0,0,0,0,0,0,0,0,0,-1,657,477,0,0
-560,547,0,0,0,0,0,0,0,0,0,-1,664,477,0,0
-553,547,0,0,0,0,0,0,0,0,0,-1,671,477,0,0
-546,547,0,0,0,0,0,0,0,0,0,-1,678,477,0,0
-539,547,0,0,0,0,0,0,0,0,0,-1,685,477,0,0
-532,547,0,0,0,0,0,0,0,0,0,-1,692,477,0,0
-525,547,0,0,0,0,0,0,0,0,0,-1,699,477,0,0
-518,547,0,0,0,0,0,0,0,0,0,-1,706,477,0,0
-511,547,0,0,0,0,0,0,0,0,0,-1,713,477,0,0
-504,547,0,0,0,0,0,0,0,0,0,-1,720,477,0,0
-497,547,0,0,0,0,0,0,0,0,0,-1,727,477,0,0
-490,547,0,0,0,0,0,0,0,0,0,-1,734,477,0,0
-483,547,0,0,0,0,0,0,0,0,0,-1,741,477,0,0
-476,547,0,0,0,0,0,0,0,0,0,-1,748,477,0,0
-469,547,0,0,0,0,0,0,0,0,0,-1,755,477,0,0
-462,547,0,0,0,0,0,0,0,0,0,-1,762,477,0,0
-455,547,0,0,0,0,0,0,0,0,0,-1,769,477,0,0
-448,547,0,0,0,0,0,0,0,0,0,-1,776,477,0,0
-441,547,0,0,0,0,0,0,0,0,0,-1,783,477,0,0
-434,547,0,0,0,0,0,0,0,0,0,-1,790,477,0,0
-427,547,0,0,0,0,0,0,0,0,0,-1,797,477,0,0
-420,547,0,0,0,0,0,0,0,0,0,-1,804,477,0,0
-413,547,0,0,0,0,0,0,0,0,0,-1,811,477,0,0
-406,547,0.144592,-11.0292,0,0,0,0,0,0,0,-1,818,477,0.144583,11.0292
-399,547,0.775513,-10.0294,0,0,0,0,0,0,0,-1,825,477,0.775482,10.0295
-392,547,-1.52271,-4.41675,0,0,0,0,0,0,0,-1,832,477,-1.52273,4.41674
-385,547,-1.73743,-4.6431,0,0,0,0,0,0,0,-1,839,477,-1.73743,4.64308
-378,547,0.82959,-20.0904,0,0,0,0,0,0,0,-1,846,477,0.829592,20.0904
-371,547,0.796692,-21.7667,0,0,0,0,0,0,0,-1,853,477,0.796712,21.7667
-364,547,0.680237,-25.1518,0,0,0,0,0,0,0,-1,860,477,0.680249,25.1518
-357,547,0.883789,-26.0268,0,0,0,0,0,0,0,-1,867,477,0.883771,26.0268
-350,547,0.807373,-27.4346,0,0,0,0,0,0,0,-1,874,477,0.807403,27.4346
-343,547,0.642944,-28.3446,0.00476218,0.0226159,-0.00934862,0.0266152,0.000762891,-1.16656,0.0174947,0.046558,881,477,0.64297,28.3446
-336,547,0.566467,-29.2852,0.00289036,0.017839,-0.00721021,0.0207499,-2.05366e-05,-1.18709,0.0138401,0.0194883,888,477,0.566446,29.2852
-329,547,0.468628,-30.0539,0.00160051,0.0139772,-0.00552761,0.0160865,-0.000508741,-1.20627,0.0108978,0.0111493,895,477,0.468628,30.0539
-322,547,0.424011,-30.8034,0.000640704,0.010773,-0.00410995,0.0122305,-0.000816756,-1.23001,0.0084391,0.0118329,902,477,0.424002,30.8034
-315,547,0.36792,-31.5865,8.95945e-05,0.00828703,-0.00304552,0.00929465,-0.000918023,-1.25128,0.00652401,0.0110702,909,477,0.367908,31.5865
-308,547,0.340149,-32.3253,-0.000468405,0.00615338,-0.00220261,0.00681911,-0.00113413,-1.27728,0.00496746,0.0123064,916,477,0.340124,32.3253
-301,547,0.307922,-33.0551,-0.000512225,0.00454389,-0.00171427,0.0050703,-0.00103864,-1.27286,0.00377436,0.0117021,923,477,0.307904,33.0552
-294,547,0.251709,-33.7589,-0.000246407,0.003359,-0.00124031,0.00374447,-0.000631877,-1.26947,0.00273141,0.010754,930,477,0.251696,33.7589
-287,547,0.205505,-34.4654,2.72027e-05,0.00234891,-0.000776374,0.0025846,-0.000208489,-1.27606,0.0017966,0.0130065,937,477,0.205506,34.4654
-280,547,0.182495,-35.1774,3.85401e-05,0.000741564,-0.000307669,0.000857193,-7.70892e-05,-1.2113,0.000598815,0.0147625,944,477,0.182505,35.1773
-273,547,0.150879,-35.8668,6.16402e-05,-0.00139136,0.00041696,0.00017279,-0.00150251,0.260515,0.00106396,0.0142621,951,477,0.150849,35.8668
-266,547,0.109253,-36.5601,0.000148055,-0.00435085,0.00169628,0.000715943,-0.00491873,0.323056,0.00354201,0.0134557,958,477,0.109283,36.5601
-259,547,0.0716553,-37.2195,0.000239759,-0.00755813,0.0028997,0.00119983,-0.0085182,0.319733,0.00611808,0.0119023,965,477,0.0716788,37.2195
-252,547,0.0709839,-37.895,9.75423e-05,-0.0112994,0.0043471,0.00156634,-0.0127682,0.325838,0.00907942,0.0118618,972,477,0.0709821,37.895
-245,547,0.0563354,-38.5722,-0.000271386,-0.0156767,0.00617607,0.00189889,-0.017847,0.337922,0.0125788,0.0131884,979,477,0.0563323,38.5722
-238,547,0.050293,-39.2548,-0.000423746,-0.0202218,0.00800493,0.00240789,-0.0230534,0.34,0.0162312,0.00959895,986,477,0.0502699,39.2547
-231,547,0.0360718,-39.9169,-0.00068071,-0.0251736,0.0100568,0.00291946,-0.0287738,0.343768,0.020226,0.00882835,993,477,0.0360415,39.9169
-224,547,0.0155029,-40.5334,-0.00109705,-0.0300856,0.0121866,0.00334533,-0.034528,0.34956,0.0242109,0.0113318,1000,477,0.0154873,40.5334
-217,547,0.00958252,-41.1126,-0.0015424,-0.0348642,0.0143259,0.00376976,-0.0401764,0.355092,0.0281252,0.0170486,1007,477,0.00958388,41.1126
-210,547,0.0284424,-41.5505,-0.00197086,-0.039374,0.0163554,0.00417203,-0.0455169,0.359286,0.0318265,0.0289032,1014,477,0.0284393,41.5504
-203,547,0.0485229,-41.8213,-0.00234694,-0.0432282,0.018102,0.00451632,-0.0500914,0.362398,0.034997,0.0434184,1021,477,0.0485372,41.8213
-196,547,-0.434082,-42.2053,-0.00274554,-0.0463961,0.0195905,0.00475716,-0.0538988,0.365745,0.0376186,0.049425,1028,477,-0.434044,42.2053
-189,547,-0.0328369,-42.8066,0,0,0,0,0,0,0,-1,1035,477,-0.0327952,42.8066
-182,547,-0.217773,-42.9356,0,0,0,0,0,0,0,-1,1042,477,-0.217759,42.9356
-175,547,0.628174,-42.0869,0,0,0,0,0,0,0,-1,1049,477,0.628202,42.0869
-168,547,0.761719,-32.9387,0,0,0,0,0,0,0,-1,1056,477,0.761738,32.9387
-161,547,0.0430908,-34.6016,0,0,0,0,0,0,0,-1,1063,477,0.0431231,34.6016
-154,547,-0.284424,-31.1176,0,0,0,0,0,0,0,-1,1070,477,-0.284395,31.1176
-147,547,3.69434,-26.413,0,0,0,0,0,0,0,-1,1077,477,3.69437,26.413
-140,547,1.55676,-22.5229,0,0,0,0,0,0,0,-1,1084,477,1.5568,22.5229
-133,547,2.31665,-17.9421,0,0,0,0,0,0,0,-1,1091,477,2.31667,17.9421
-126,547,-1.15271,-30.6984,0,0,0,0,0,0,0,-1,1098,477,-1.15267,30.6984
-119,547,0.967651,-24.9351,0,0,0,0,0,0,0,-1,1105,477,0.967657,24.9351
-112,547,1.15674,-22.2276,0,0,0,0,0,0,0,-1,1112,477,1.15677,22.2276
-105,547,0.966797,-20.5777,0,0,0,0,0,0,0,-1,1119,477,0.966804,20.5777
-98,547,0.70166,-18.9755,0,0,0,0,0,0,0,-1,1126,477,0.701713,18.9755
-91,547,1.37805,-7.12024,0,0,0,0,0,0,0,-1,1133,477,1.37804,7.12025
-84,547,1.94202,-6.66241,0,0,0,0,0,0,0,-1,1140,477,1.94201,6.66241
-77,547,-2.28357,1.8588,0,0,0,0,0,0,0,-1,1147,477,-2.28356,-1.85879
-70,547,-3.70178,-0.874908,0,0,0,0,0,0,0,-1,1154,477,-3.70182,0.874918
-63,547,-5.12012,-3.60861,0,0,0,0,0,0,0,-1,1161,477,-5.12009,3.60862
-56,547,-6.01917,-6.2399,0,0,0,0,0,0,0,-1,1168,477,-6.01921,6.23991
-49,547,-6.729,-8.60349,0,0,0,0,0,0,0,-1,1175,477,-6.72899,8.60348
-42,547,-2.41736,-5.53012,0,0,0,0,0,0,0,-1,1182,477,-2.41734,5.53011
-35,547,-2.96838,-4.45734,0,0,0,0,0,0,0,-1,1189,477,-2.96839,4.45734
-28,547,-0.869141,-1.29901,0,0,0,0,0,0,0,-1,1196,477,-0.869135,1.29901
-21,547,-7.68262,-30.8089,0,0,0,0,0,0,0,-1,1203,477,-7.68256,30.8089
-14,547,12.377,-55.4496,0,0,0,0,0,0,0,-1,1210,477,12.377,55.4496
-7,547,12.7236,-55.8813,0,0,0,0,0,0,0,-1,1217,477,12.7236,55.8814
0,547,13.0702,-56.3131,0,0,0,0,0,0,0,-1,1224,477,13.0702,56.3131
7,547,10.2916,-54.942,0,0,0,0,0,0,0,-1,1231,477,10.2917,54.942
14,547,0,0,0,0,0,0,0,0,0,-1,1238,477,0,0
21,547,0,0,0,0,0,0,0,0,0,-1,1245,477,0,0
28,547,0,0,0,0,0,0,0,0,0,-1,1252,477,0,0
35,547,0,0,0,0,0,0,0,0,0,-1,1259,477,0,0
42,547,0,0,0,0,0,0,0,0,0,-1,1266,477,0,0
49,547,0,0,0,0,0,0,0,0,0,-1,1273,477,0,0
56,547,0,0,0,0,0,0,0,0,0,-1,1280,477,0,0
63,547,0,0,0,0,0,0,0,0,0,-1,1287,477,0,0
70,547,0,0,0,0,0,0,0,0,0,-1,1294,477,0,0
77,547,0,0,0,0,0,0,0,0,0,-1,1301,477,0,0
84,547,0,0,0,0,0,0,0,0,0,-1,1308,477,0,0
91,547,0,0,0,0,0,0,0,0,0,-1,1315,477,0,0
98,547,0,0,0,0,0,0,0,0,0,-1,1322,477,0,0
105,547,18.2178,-61.3587,0.158346,0.150087,-0.100873,0.255174,0.053259,-0.76494,0.155435,0.0450741,1329,477,18.2178,61.3587
112,547,19.2758,-61.1718,0.159271,0.159605,-0.102296,0.261734,0.057142,-0.786212,0.158904,0.0468957,1336,477,19.2757,61.1718
119,547,20.2065,-61.0475,0,0,0,0,0,0,0,-1,1343,477,20.2065,61.0476
126,547,1.60474,-67.746,0,0,0,0,0,0,0,-1,1350,477,1.60479,67.746
133,547,1.0481,-67.5058,0,0,0,0,0,0,0,-1,1357,477,1.04808,67.5058
140,547,0.718384,-67.9027,0,0,0,0,0,0,0,-1,1364,477,0.718336,67.9027
147,547,0.589355,-68.2769,0,0,0,0,0,0,0,-1,1371,477,0.589362,68.2769
154,547,0.457031,-68.6393,0,0,0,0,0,0,0,-1,1378,477,0.457001,68.6393
161,547,0.661377,-68.607,0,0,0,0,0,0,0,-1,1385,477,0.661411,68.607
168,547,0.68689,-68.7853,0,0,0,0,0,0,0,-1,1392,477,0.68688,68.7854
175,547,3.35034,-0.26532,0,0,0,0,0,0,0,-1,1399,477,3.3503,0.265306
182,547,4.26038,3.72672,0,0,0,0,0,0,0,-1,1406,477,4.26039,-3.7267
189,547,3.40454,1.28671,0,0,0,0,0,0,0,-1,1413,477,3.40457,-1.28673
196,547,3.53931,1.87793,0,0,0,0,0,0,0,-1,1420,477,3.53928,-1.87794
203,547,6.49414,-0.425842,0,0,0,0,0,0,0,-1,1427,477,6.4941,0.425844
210,547,4.82092,0.53595,0,0,0,0,0,0,0,-1,1434,477,4.82096,-0.535942
217,547,4.68579,0.480072,0,0,0,0,0,0,0,-1,1441,477,4.68577,-0.480069
224,547,4.55615,0.739807,0,0,0,0,0,0,0,-1,1448,477,4.55613,-0.73981
231,547,5.90869,-3.57721,0,0,0,0,0,0,0,-1,1455,477,5.90871,3.57722
238,547,5.50049,-3.15356,0,0,0,0,0,0,0,-1,1462,477,5.50045,3.15356
245,547,5.13708,-2.65213,0,0,0,0,0,0,0,-1,1469,477,5.13708,2.65212
252,547,3.73511,-0.645233,0,0,0,0,0,0,0,-1,1476,477,3.73515,0.645237
259,547,5.86816,-3.20816,0,0,0,0,0,0,0,-1,1483,477,5.86815,3.20816
266,547,5.40222,-2.45731,0,0,0,0,0,0,0,-1,1490,477,5.40221,2.45732
273,547,3.05737,0.495789,0,0,0,0,0,0,0,-1,1497,477,3.05742,-0.49578
280,547,2.0885,1.47797,0,0,0,0,0,0,0,-1,1504,477,2.08848,-1.47795
287,547,2.31177,-2.21716,0,0,0,0,0,0,0,-1,1511,477,2.31174,2.21717
294,547,2.4823,-3.03659,0,0,0,0,0,0,0,-1,1518,477,2.48229,3.0366
301,547,4.72119,-3.93454,0,0,0,0,0,0,0,-1,1525,477,4.72119,3.93453
308,547,13.3884,-43.1741,0,0,0,0,0,0,0,-1,1532,477,13.3885,43.1741
315,547,13.359,-42.7528,0,0,0,0,0,0,0,-1,1539,477,13.359,42.7528
322,547,13.3749,-42.2777,0,0,0,0,0,0,0,-1,1546,477,13.3749,42.2777
329,547,13.3175,-41.6365,0.00588573,-0.0197357,-0.0101624,0.00942705,-0.023277,-0.335313,0.0194379,0.0461131,1553,477,13.3175,41.6365
336,547,13.5394,-41.1749,0.00455282,-0.0165119,-0.00936007,0.00811093,-0.02007,-0.363267,0.0167515,0.0358548,1560,477,13.5394,41.175
343,547,13.4313,-40.7191,0.00327347,-0.0131499,-0.00823661,0.0066925,-0.0165689,-0.393457,0.0138276,0.0306532,1567,477,13.4312,40.7191
350,547,13.3387,-40.0851,0.00229377,-0.010389,-0.00713386,0.00549729,-0.0135925,-0.42207,0.011347,0.0222725,1574,477,13.3387,40.0851
357,547,13.3162,-39.4027,0.00163444,-0.00779953,-0.00584911,0.00443158,-0.0105967,-0.446069,0.00891661,0.0152822,1581,477,13.3162,39.4027
364,547,13.2936,-38.7551,0.00109092,-0.0054789,-0.0044835,0.0033641,-0.00775209,-0.46924,0.0065825,0.0108006,1588,477,13.2936,38.7551
371,547,13.2928,-38.058,0.000819544,-0.00358838,-0.00326157,0.00255199,-0.00532082,-0.488271,0.00463812,0.0101956,1595,477,13.2928,38.0581
378,547,13.28,-37.3494,0.000643331,-0.00188676,-0.00217438,0.00189389,-0.00313732,-0.521935,0.00293419,0.0119943,1602,477,13.2801,37.3494
385,547,13.2362,-36.6592,0.000397812,-0.000341537,-0.00114575,0.00123205,-0.00117577,-0.629346,0.00139028,0.0121707,1609,477,13.2362,36.6592
392,547,13.2106,-35.9473,0.000410456,0.000800587,-0.000204618,0.000888221,0.000322822,-1.16615,0.00051915,0.0120927,1616,477,13.2105,35.9473
399,547,13.1655,-35.2289,0.000539718,0.00171162,0.000493181,0.00189155,0.000359793,1.22098,0.00115986,0.0138688,1623,477,13.1656,35.2289
406,547,13.1367,-34.5116,0.0005838,0.00255691,0.00104825,0.00300984,0.000130868,1.16294,0.00196439,0.0138209,1630,477,13.1367,34.5116
413,547,13.1318,-33.7927,0.0005758,0.00340404,0.00155299,0.00409028,-0.000110438,1.15471,0.0027644,0.0141337,1637,477,13.1318,33.7927
420,547,13.116,-33.084,0.000448122,0.00399363,0.00195755,0.00486184,-0.000420082,1.15335,0.00338994,0.0165838,1644,477,13.116,33.084
427,547,13.0713,-32.3199,0.00024859,0.00430479,0.00223113,0.00529184,-0.00073846,1.15428,0.00379805,0.016248,1651,477,13.0713,32.32
434,547,12.9751,-31.5963,0.000105078,0.00459346,0.00253085,0.00573181,-0.00103327,1.14812,0.00420813,0.0109773,1658,477,12.9752,31.5963
441,547,12.9318,-30.8755,-0.000145331,0.00480137,0.00278634,0.00605376,-0.00139772,1.14838,0.0045735,0.0115968,1665,477,12.9317,30.8755
448,547,12.8921,-30.0973,-0.000493869,0.00477073,0.00295277,0.00609417,-0.00181731,1.14944,0.004785,0.0116953,1672,477,12.8921,30.0972
455,547,12.8698,-29.3251,-0.000925402,0.00457269,0.00301474,0.00590359,-0.0022563,1.15506,0.00486545,0.0115034,1679,477,12.8698,29.3251
462,547,12.8044,-28.563,-0.00127688,0.00432111,0.00301421,0.00563549,-0.00259127,1.15959,0.0048569,0.0125309,1686,477,12.8044,28.563
469,547,12.6755,-27.7856,-0.00154851,0.00400926,0.00295562,0.00528721,-0.00282646,1.16269,0.0047557,0.0212792,1693,477,12.6755,27.7856
476,547,12.6423,-26.8259,-0.00196346,0.00358841,0.00286486,0.00480162,-0.00317666,1.17022,0.004638,0.0383294,1700,477,12.6423,26.8259
483,547,12.6514,-26.1532,0,0,0,0,0,0,0,-1,1707,477,12.6514,26.1532
490,547,3.65271,-3.71707,0,0,0,0,0,0,0,-1,1714,477,3.65277,3.71708
497,547,2.55481,-3.81421,0,0,0,0,0,0,0,-1,1721,477,2.55476,3.8142
504,547,4.01953,-2.22714,0,0,0,0,0,0,0,-1,1728,477,4.0195,2.22713
511,547,5.2146,-6.9552,0,0,0,0,0,0,0,-1,1735,477,5.21464,6.95521
518,547,5.24243,-6.56122,0,0,0,0,0,0,0,-1,1742,477,5.24241,6.56121
525,547,5.89368,-5.49866,0,0,0,0,0,0,0,-1,1749,477,5.89372,5.49866
532,547,0,0,0,0,0,0,0,0,0,-1,1756,477,0,0
539,547,0,0,0,0,0,0,0,0,0,-1,1763,477,0,0
546,547,0,0,0,0,0,0,0,0,0,-1,1770,477,0,0
553,547,0,0,0,0,0,0,0,0,0,-1,1777,477,0,0
560,547,0,0,0,0,0,0,0,0,0,-1,1784,477,0,0
567,547,0,0,0,0,0,0,0,0,0,-1,1791,477,0,0
574,547,0,0,0,0,0,0,0,0,0,-1,1798,477,0,0
581,547,0,0,0,0,0,0,0,0,0,-1,1805,477,0,0
588,547,0,0,0,0,0,0,0,0,0,-1,1812,477,0,0
595,547,0,0,0,0,0,0,0,0,0,-1,1819,477,0,0
602,547,0,0,0,0,0,0,0,0,0,-1,1826,477,0,0
609,547,0,0,0,0,0,0,0,0,0,-1,1833,477,0,0
616,547,0,0,0,0,0,0,0,0,0,-1,1840,477,0,0
623,547,0,0,0,0,0,0,0,0,0,-1,1847,477,0,0
630,547,0,0,0,0,0,0,0,0,0,-1,1854,477,0,0
637,547,0,0,0,0,0,0,0,0,0,-1,1861,477,0,0
644,547,0,0,0,0,0,0,0,0,0,-1,1868,477,0,0
651,547,0,0,0,0,0,0,0,0,0,-1,1875,477,0,0
658,547,0,0,0,0,0,0,0,0,0,-1,1882,477,0,0
665,547,0,0,0,0,0,0,0,0,0,-1,1889,477,0,0
672,547,0,0,0,0,0,0,0,0,0,-1,1896,477,0,0
679,547,0,0,0,0,0,0,0,0,0,-1,1903,477,0,0
686,547,0,0,0,0,0,0,0,0,0,-1,1910,477,0,0
693,547,0,0,0,0,0,0,0,0,0,-1,1917,477,0,0
700,547,0,0,0,0,0,0,0,0,0,-1,1924,477,0,0
707,547,0,0,0,0,0,0,0,0,0,-1,1931,477,0,0
714,547,0,0,0,0,0,0,0,0,0,-1,1938,477,0,0
721,547,0,0,0,0,0,0,0,0,0,-1,1945,477,0,0
728,547,0,0,0,0,0,0,0,0,0,-1,1952,477,0,0
735,547,0,0,0,0,0,0,0,0,0,-1,1959,477,0,0
742,547,0,0,0,0,0,0,0,0,0,-1,1966,477,0,0
749,547,0,0,0,0,0,0,0,0,0,-1,1973,477,0,0
756,547,0,0,0,0,0,0,0,0,0,-1,1980,477,0,0
763,547,0,0,0,0,0,0,0,0,0,-1,1987,477,0,0
770,547,0,0,0,0,0,0,0,0,0,-1,1994,477,0,0
777,547,0,0,0,0,0,0,0,0,0,-1,2001,477,0,0
784,547,0,0,0,0,0,0,0,0,0,-1,2008,477,0,0
791,547,0,0,0,0,0,0,0,0,0,-1,2015,477,0,0
798,547,0,0,0,0,0,0,0,0,0,-1,2022,477,0,0
805,547,0,0,0,0,0,0,0,0,0,-1,2029,477,0,0
812,547,0,0,0,0,0,0,0,0,0,-1,2036,477,0,0
-700,540,0,0,0,0,0,0,0,0,0,-1,524,484,0,0
-693,540,0,0,0,0,0,0,0,0,0,-1,531,484,0,0
-686,540,0,0,0,0,0,0,0,0,0,-1,538,484,0,0
-679,540,0,0,0,0,0,0,0,0,0,-1,545,484,0,0
-672,540,0,0,0,0,0,0,0,0,0,-1,552,484,0,0
-665,540,0,0,0,0,0,0,0,0,0,-1,559,484,0,0
-658,540,0,0,0,0,0,0,0,0,0,-1,566,484,0,0
-651,540,0,0,0,0,0,0,0,0,0,-1,573,484,0,0
-644,540,0,0,0,0,0,0,0,0,0,-1,580,484,0,0
-637,540,0,0,0,0,0,0,0,0,0,-1,587,484,0,0
-630,540,0,0,0,0,0,0,0,0,0,-1,594,484,0,0
-623,540,0,0,0,0,0,0,0,0,0,-1,601,484,0,0
-616,540,0,0,0,0,0,0,0,0,0,-1,608,484,0,0
-609,540,0,0,0,0,0,0,0,0,0,-1,615,484,0,0
-602,540,0,0,0,0,0,0,0,0,0,-1,622,484,0,0
-595,540,0,0,0,0,0,0,0,0,0,-1,629,484,0,0
-588,540,0,0,0,0,0,0,0,0,0,-1,636,484,0,0
-581,540,0,0,0,0,0,0,0,0,0,-1,643,484,0,0
-574,540,0,0,0,0,0,0,0,0,0,-1,650,484,0,0
-567,540,0,0,0,0,0,0,0,0,0,-1,657,484,0,0
-560,540,0,0,0,0,0,0,0,0,0,-1,664,484,0,0
-553,540,0,0,0,0,0,0,0,0,0,-1,671,484,0,0
-546,540,0,0,0,0,0,0,0,0,0,-1,678,484,0,0
-539,540,0,0,0,0,0,0,0,0,0,-1,685,484,0,0
-532,540,0,0,0,0,0,0,0,0,0,-1,692,484,0,0
-525,540,0,0,0,0,0,0,0,0,0,-1,699,484,0,0
-518,540,0,0,0,0,0,0,0,0,0,-1,706,484,0,0
-511,540,0,0,0,0,0,0,0,0,0,-1,713,484,0,0
-504,540,0,0,0,0,0,0,0,0,0,-1,720,484,0,0
-497,540,0,0,0,0,0,0,0,0,0,-1,727,484,0,0
-490,540,0,0,0,0,0,0,0,0,0,-1,734,484,0,0
-483,540,0,0,0,0,0,0,0,0,0,-1,741,484,0,0
-476,540,0,0,0,0,0,0,0,0,0,-1,748,484,0,0
-469,540,0,0,0,0,0,0,0,0,0,-1,755,484,0,0
-462,540,0,0,0,0,0,0,0,0,0,-1,762,484,0,0
-455,540,0,0,0,0,0,0,0,0,0,-1,769,484,0,0
-448,540,0,0,0,0,0,0,0,0,0,-1,776,484,0,0
-441,540,0,0,0,0,0,0,0,0,0,-1,783,484,0,0
-434,540,0,0,0,0,0,0,0,0,0,-1,790,484,0,0
-427,540,0,0,0,0,0,0,0,0,0,-1,797,484,0,0
-420,540,0.227051,-10.0402,0,0,0,0,0,0,0,-1,804,484,0.227063,10.0402
-413,540,-0.0393677,-10.3862,0,0,0,0,0,0,0,-1,811,484,-0.0393683,10.3862
-406,540,-0.518372,-11.5288,0,0,0,0,0,0,0,-1,818,484,-0.518402,11.5288
-399,540,0.0863037,-11.3801,0,0,0,0,0,0,0,-1,825,484,0.0863201,11.3801
-392,540,-0.517395,-10.6735,0,0,0,0,0,0,0,-1,832,484,-0.517377,10.6735
-385,540,-2.29407,-5.03418,0,0,0,0,0,0,0,-1,839,484,-2.29408,5.03418
-378,540,0.213501,-20.7802,0,0,0,0,0,0,0,-1,846,484,0.213473,20.7801
-371,540,-0.5047,-24.321,0,0,0,0,0,0,0,-1,853,484,-0.50469,24.3209
-364,540,-0.195251,-25.3651,0.0130879,0.0383606,-0.0179976,0.0477149,0.00373353,-1.09147,0.0306414,0.0490654,860,484,-0.195273,25.365
-357,540,0.083252,-26.3508,0.00947351,0.0307579,-0.0142754,0.0379213,0.00231002,-1.1057,0.0245471,0.0479323,867,484,0.0832692,26.3508
-350,540,-0.0360718,-27.3391,0.00647648,0.0243282,-0.0110559,0.0296116,0.00119307,-1.125,0.0193556,0.03636,874,484,-0.0360646,27.339
-343,540,-0.132751,-28.421,0.00429836,0.0190935,-0.00849633,0.0229615,0.000430428,-1.14359,0.0151662,0.0198071,881,484,-0.132759,28.421
-336,540,-0.230103,-29.3503,0.00271713,0.0148739,-0.00647804,0.0176788,-8.77064e-05,-1.16219,0.0118152,0.0137088,888,484,-0.230114,29.3503
-329,540,-0.290649,-30.0633,0.00158393,0.0114318,-0.00485109,0.0134201,-0.000404305,-1.18182,0.00908448,0.0105543,895,484,-0.290648,30.0633
-322,540,-0.331848,-30.7902,0.000714908,0.00847441,-0.00343225,0.0097747,-0.00058538,-1.20866,0.0067201,0.0145449,902,484,-0.331862,30.7901
-315,540,-0.37323,-31.5364,0.000236858,0.00619271,-0.00235074,0.00700873,-0.00057916,-1.23668,0.00487702,0.0136811,909,484,-0.373203,31.5364
-308,540,-0.385315,-32.261,-0.000195213,0.00428705,-0.00150777,0.00474704,-0.000655202,-1.27469,0.00340417,0.0129522,916,484,-0.3853,32.261
-301,540,-0.433167,-32.9774,-0.00020273,0.00285025,-0.000986015,0.00314101,-0.00049349,-1.28404,0.00227641,0.012849,923,484,-0.433184,32.9774
-294,540,-0.453857,-33.7054,7.38287e-05,0.00179301,-0.000488709,0.00192222,-5.53845e-05,-1.31231,0.00130033,0.0121447,930,484,-0.453864,33.7054
-287,540,-0.474548,-34.4203,0.000358164,0.000817456,1.247e-05,0.000817795,0.000357826,1.54367,0.00047338,0.00929542,937,484,-0.474569,34.4203
-280,540,-0.513611,-35.1238,0.000220308,-0.0011687,0.000569933,0.000424224,-0.00137262,0.343598,0.0010845,0.0108773,944,484,-0.513629,35.1238
-273,540,-0.527649,-35.8271,0.00015522,-0.00388447,0.00149454,0.000648027,-0.00437727,0.318512,0.00315644,0.0132332,951,484,-0.527631,35.8271
-266,540,-0.552979,-36.5247,0.0001844,-0.00755564,0.00318687,0.00132768,-0.00869892,0.344446,0.00628873,0.0140506,958,484,-0.552974,36.5247
-259,540,-0.598877,-37.2123,0.000188475,-0.0113996,0.00466764,0.00183472,-0.0130458,0.339072,0.00936885,0.0133589,965,484,-0.59888,37.2123
-252,540,-0.598267,-37.8668,-0.000133845,-0.01608,0.00644354,0.00214438,-0.0183582,0.339849,0.0130126,0.0126584,972,484,-0.59825,37.8668
-245,540,-0.596619,-38.5225,-0.000769755,-0.0215996,0.00873323,0.00240723,-0.0247766,0.348899,0.0173758,0.0132156,979,484,-0.596639,38.5225
-238,540,-0.643677,-39.1631,-0.00115174,-0.0273863,0.0110478,0.00288083,-0.0314189,0.349984,0.0219692,0.0110055,986,484,-0.643658,39.1632
-231,540,-0.673218,-39.7982,-0.00163157,-0.0336924,0.0136546,0.00339563,-0.0387196,0.352767,0.0270162,0.014118,993,484,-0.673247,39.7982
-224,540,-0.723755,-40.3792,-0.00231392,-0.040073,0.0164372,0.00383887,-0.0462258,0.358176,0.0321732,0.0202473,1000,484,-0.723728,40.3791
-217,540,-0.706787,-40.7513,-0.00304768,-0.0462375,0.0192599,0.00429326,-0.0535785,0.364153,0.0372327,0.0319759,1007,484,-0.706811,40.7513
-210,540,-0.534363,-41.1307,-0.00380967,-0.0520982,0.0219925,0.00470516,-0.060613,0.369397,0.0420649,0.0451084,1014,484,-0.534343,41.1307
-203,540,-0.574646,-41.5038,0,0,0,0,0,0,0,-1,1021,484,-0.574641,41.5038
-196,540,-1.70923,-41.6791,0,0,0,0,0,0,0,-1,1028,484,-1.70929,41.6791
-189,540,-0.646729,-41.3155,0,0,0,0,0,0,0,-1,1035,484,-0.646762,41.3155
-182,540,0.109375,-15.2948,0,0,0,0,0,0,0,-1,1042,484,0.109331,15.2948
-175,540,1.73413,-10.728,0,0,0,0,0,0,0,-1,1049,484,1.73414,10.728
-168,540,1.18164,-7.65347,0,0,0,0,0,0,0,-1,1056,484,1.18163,7.65347
-161,540,-0.405884,-9.86481,0,0,0,0,0,0,0,-1,1063,484,-0.405886,9.8648
-154,540,1.96863,-22.0727,0,0,0,0,0,0,0,-1,1070,484,1.96859,22.0727
-147,540,1.32764,-21.9952,0,0,0,0,0,0,0,-1,1077,484,1.32762,21.9952
-140,540,1.40735,-15.6289,0,0,0,0,0,0,0,-1,1084,484,1.4073,15.6289
-133,540,2.28345,-17.6413,0,0,0,0,0,0,0,-1,1091,484,2.2835,17.6413
-126,540,1.25293,-23.9108,0,0,0,0,0,0,0,-1,1098,484,1.25288,23.9108
-119,540,1.55969,-23.0125,0,0,0,0,0,0,0,-1,1105,484,1.55968,23.0125
-112,540,1.4801,-21.6515,0,0,0,0,0,0,0,-1,1112,484,1.4801,21.6515
-105,540,1.30078,-19.8938,0,0,0,0,0,0,0,-1,1119,484,1.30077,19.8938
-98,540,1.08105,-18.1304,0,0,0,0,0,0,0,-1,1126,484,1.08101,18.1304
-91,540,1.56519,-7.48666,0,0,0,0,0,0,0,-1,1133,484,1.56514,7.48667
-84,540,-0.945923,4.43073,0,0,0,0,0,0,0,-1,1140,484,-0.945891,-4.43074
-77,540,-2.28894,2.14368,0,0,0,0,0,0,0,-1,1147,484,-2.28894,-2.14368
-70,540,-3.75244,-0.452576,0,0,0,0,0,0,0,-1,1154,484,-3.75244,0.452576
-63,540,-5.26257,-3.04767,0,0,0,0,0,0,0,-1,1161,484,-5.26262,3.04766
-56,540,-5.19055,-6.12595,0,0,0,0,0,0,0,-1,1168,484,-5.19057,6.12595
-49,540,-5.63867,-8.52298,0,0,0,0,0,0,0,-1,1175,484,-5.63871,8.52298
-42,540,0,0,0,0,0,0,0,0,0,-1,1182,484,0,0
-35,540,0,0,0,0,0,0,0,0,0,-1,1189,484,0,0
-28,540,0,0,0,0,0,0,0,0,0,-1,1196,484,0,0
-21,540,0,0,0,0,0,0,0,0,0,-1,1203,484,0,0
-14,540,0,0,0,0,0,0,0,0,0,-1,1210,484,0,0
-7,540,0,0,0,0,0,0,0,0,0,-1,1217,484,0,0
0,540,0,0,0,0,0,0,0,0,0,-1,1224,484,0,0
7,540,0,0,0,0,0,0,0,0,0,-1,1231,484,0,0
14,540,0,0,0,0,0,0,0,0,0,-1,1238,484,0,0
21,540,0,0,0,0,0,0,0,0,0,-1,1245,484,0,0
28,540,0,0,0,0,0,0,0,0,0,-1,1252,484,0,0
35,540,0,0,0,0,0,0,0,0,0,-1,1259,484,0,0
42,540,0,0,0,0,0,0,0,0,0,-1,1266,484,0,0
49,540,0,0,0,0,0,0,0,0,0,-1,1273,484,0,0
56,540,0,0,0,0,0,0,0,0,0,-1,1280,484,0,0
63,540,0,0,0,0,0,0,0,0,0,-1,1287,484,0,0
70,540,0,0,0,0,0,0,0,0,0,-1,1294,484,0,0
77,540,0,0,0,0,0,0,0,0,0,-1,1301,484,0,0
84,540,0,0,0,0,0,0,0,0,0,-1,1308,484,0,0
91,540,0,0,0,0,0,0,0,0,0,-1,1315,484,0,0
98,540,0,0,0,0,0,0,0,0,0,-1,1322,484,0,0
105,540,0,0,0,0,0,0,0,0,0,-1,1329,484,0,0
112,540,0,0,0,0,0,0,0,0,0,-1,1336,484,0,0
119,540,0,0,0,0,0,0,0,0,0,-1,1343,484,0,0
126,540,0,0,0,0,0,0,0,0,0,-1,1350,484,0,0
133,540,0,0,0,0,0,0,0,0,0,-1,1357,484,0,0
140,540,0,0,0,0,0,0,0,0,0,-1,1364,484,0,0
147,540,0,0,0,0,0,0,0,0,0,-1,1371,484,0,0
154,540,0,0,0,0,0,0,0,0,0,-1,1378,484,0,0
161,540,0,0,0,0,0,0,0,0,0,-1,1385,484,0,0
168,540,3.05078,-0.0010376,0,0,0,0,0,0,0,-1,1392,484,3.05084,0.00102554
175,540,3.37708,0.617035,0,0,0,0,0,0,0,-1,1399,484,3.37707,-0.617046
182,540,3.32678,1.23267,0,0,0,0,0,0,0,-1,1406,484,3.32678,-1.23266
189,540,3.5813,2.15619,0,0,0,0,0,0,0,-1,1413,484,3.58129,-2.1562
196,540,1.84448,-0.801483,0,0,0,0,0,0,0,-1,1420,484,1.84446,0.80148
203,540,4.14648,0.702087,0,0,0,0,0,0,0,-1,1427,484,4.14645,-0.702089
210,540,4.50671,-0.56076,0,0,0,0,0,0,0,-1,1434,484,4.50667,0.560771
217,540,5.00452,-0.278717,0,0,0,0,0,0,0,-1,1441,484,5.00452,0.278709
224,540,6.44458,-2.83527,0,0,0,0,0,0,0,-1,1448,484,6.44457,2.83525
231,540,6.9231,-3.10504,0,0,0,0,0,0,0,-1,1455,484,6.92307,3.10505
238,540,6.4823,-2.58365,0,0,0,0,0,0,0,-1,1462,484,6.48225,2.58363
245,540,6.02087,-1.97916,0,0,0,0,0,0,0,-1,1469,484,6.02088,1.97915
252,540,6.50647,-3.56006,0,0,0,0,0,0,0,-1,1476,484,6.50649,3.56006
259,540,6.01941,-2.798,0,0,0,0,0,0,0,-1,1483,484,6.01941,2.79801
266,540,5.5332,-2.02853,0,0,0,0,0,0,0,-1,1490,484,5.53323,2.02855
273,540,5.06787,-1.28137,0,0,0,0,0,0,0,-1,1497,484,5.06786,1.28136
280,540,1.62903,-2.14609,0,0,0,0,0,0,0,-1,1504,484,1.62906,2.1461
287,540,1.97156,-2.45053,0,0,0,0,0,0,0,-1,1511,484,1.97159,2.45053
294,540,2.44165,-2.6185,0,0,0,0,0,0,0,-1,1518,484,2.44167,2.6185
301,540,4.36169,-2.54272,0,0,0,0,0,0,0,-1,1525,484,4.36165,2.54272
308,540,4.2019,-4.30469,0,0,0,0,0,0,0,-1,1532,484,4.20193,4.3047
315,540,4.45923,-5.32101,0,0,0,0,0,0,0,-1,1539,484,4.45923,5.32103
322,540,4.71655,-6.33737,0,0,0,0,0,0,0,-1,1546,484,4.71653,6.33736
329,540,14.0031,-41.4947,0,0,0,0,0,0,0,-1,1553,484,14.0031,41.4947
336,540,14.5397,-41.0627,0,0,0,0,0,0,0,-1,1560,484,14.5397,41.0627
343,540,14.2391,-40.7141,0,0,0,0,0,0,0,-1,1567,484,14.2391,40.7141
350,540,13.9924,-40.0828,0,0,0,0,0,0,0,-1,1574,484,13.9925,40.0828
357,540,14.0602,-39.1956,0.00170221,-0.0101103,-0.00772943,0.00552365,-0.0139317,-0.459159,0.0115769,0.0394527,1581,484,14.0601,39.1956
364,540,13.9344,-38.649,0.00110694,-0.00728985,-0.0060744,0.00429264,-0.0104755,-0.483013,0.00877196,0.0250712,1588,484,13.9344,38.649
371,540,13.932,-38.0062,0.000826996,-0.00503859,-0.00462371,0.0033696,-0.00758119,-0.502771,0.00647643,0.0180863,1595,484,13.9319,38.0062
378,540,13.9456,-37.3141,0.000661712,-0.00303671,-0.00333661,0.00262728,-0.00500228,-0.53236,0.0044755,0.0140696,1602,484,13.9455,37.3141
385,540,13.9197,-36.6294,0.000390408,-0.00137205,-0.00211135,0.00179705,-0.00277869,-0.5877,0.00266199,0.0146287,1609,484,13.9197,36.6294
392,540,13.8772,-35.9273,0.00038438,-0.000253739,-0.0011006,0.00121123,-0.00108059,-0.644317,0.0013239,0.01315,1616,484,13.8772,35.9273
399,540,13.8442,-35.2289,0.000498317,0.000609909,-0.00044282,0.00100043,0.000107791,-0.848069,0.000634088,0.0170725,1623,484,13.8442,35.2289
406,540,13.8468,-34.5033,0.000585448,0.00137693,0.000119587,0.00139461,0.000567774,1.42407,0.000809794,0.0184527,1630,484,13.8468,34.5033
413,540,13.8279,-33.7607,0.000651646,0.00219355,0.000678165,0.00244938,0.000395819,1.21007,0.00151828,0.0153504,1637,484,13.8278,33.7607
420,540,13.8325,-33.007,0.000584783,0.00275966,0.00110487,0.00322247,0.000121977,1.17412,0.00210883,0.0151158,1644,484,13.8325,33.007
427,540,13.7626,-32.2968,0.00044667,0.00311767,0.00143825,0.00374486,-0.000180516,1.15958,0.00255887,0.01586,1651,484,13.7626,32.2968
434,540,13.7183,-31.5831,0.000354864,0.00339383,0.00178436,0.00421802,-0.000469318,1.1381,0.00298079,0.0176389,1658,484,13.7182,31.5831
441,540,13.7019,-30.811,0.00020429,0.00366731,0.00212566,0.00467743,-0.000805833,1.12718,0.0034187,0.021296,1665,484,13.7019,30.811
448,540,13.6456,-30.0714,-1.33884e-05,0.00371384,0.00238407,0.00487626,-0.0011758,1.11714,0.00370549,0.0119207,1672,484,13.6457,30.0714
455,540,13.6108,-29.2996,-0.000295595,0.00369354,0.00256421,0.00494759,-0.00154964,1.11594,0.00391844,0.0101311,1679,484,13.6109,29.2996
462,540,13.5386,-28.5278,-0.000483727,0.00365568,0.0027063,0.004993,-0.00182104,1.11184,0.00407369,0.0113612,1686,484,13.5386,28.5278
469,540,13.4686,-27.7493,-0.000568357,0.00363441,0.00284002,0.00506595,-0.00199989,1.10391,0.00420554,0.0152967,1693,484,13.4686,27.7493
476,540,13.4294,-27.01,-0.000798387,0.00360695,0.00297934,0.00510944,-0.00230088,1.10371,0.00437958,0.0226032,1700,484,13.4294,27.01
483,540,13.4586,-26.1522,-0.000942797,0.0036384,0.00313459,0.00523013,-0.00253453,1.10093,0.00457209,0.0391723,1707,484,13.4586,26.1522
490,540,13.6288,-25.2096,0,0,0,0,0,0,0,-1,1714,484,13.6288,25.2096
497,540,10.3452,-16.9359,0,0,0,0,0,0,0,-1,1721,484,10.3453,16.9359
504,540,12.519,-18.0764,0,0,0,0,0,0,0,-1,1728,484,12.519,18.0765
511,540,5.82471,-6.83521,0,0,0,0,0,0,0,-1,1735,484,5.82465,6.83522
518,540,9.98181,-12.4608,0,0,0,0,0,0,0,-1,1742,484,9.98187,12.4608
525,540,12.4843,-16.3481,0,0,0,0,0,0,0,-1,1749,484,12.4842,16.3481
532,540,2.84265,-1.07925,0,0,0,0,0,0,0,-1,1756,484,2.84269,1.07927
539,540,0,0,0,0,0,0,0,0,0,-1,1763,484,0,0
546,540,0,0,0,0,0,0,0,0,0,-1,1770,484,0,0
553,540,0,0,0,0,0,0,0,0,0,-1,1777,484,0,0
560,540,0,0,0,0,0,0,0,0,0,-1,1784,484,0,0
567,540,0,0,0,0,0,0,0,0,0,-1,1791,484,0,0
574,540,0,0,0,0,0,0,0,0,0,-1,1798,484,0,0
581,540,0,0,0,0,0,0,0,0,0,-1,1805,484,0,0
588,540,0,0,0,0,0,0,0,0,0,-1,1812,484,0,0
595,540,0,0,0,0,0,0,0,0,0,-1,1819,484,0,0
602,540,0,0,0,0,0,0,0,0,0,-1,1826,484,0,0
609,540,0,0,0,0,0,0,0,0,0,-1,1833,484,0,0
616,540,0,0,0,0,0,0,0,0,0,-1,1840,484,0,0
623,540,0,0,0,0,0,0,0,0,0,-1,1847,484,0,0
630,540,0,0,0,0,0,0,0,0,0,-1,1854,484,0,0
637,540,0,0,0,0,0,0,0,0,0,-1,1861,484,0,0
644,540,0,0,0,0,0,0,0,0,0,-1,1868,484,0,0
651,540,0,0,0,0,0,0,0,0,0,-1,1875,484,0,0
658,540,0,0,0,0,0,0,0,0,0,-1,1882,484,0,0
665,540,0,0,0,0,0,0,0,0,0,-1,1889,484,0,0
672,540,0,0,0,0,0,0,0,0,0,-1,1896,484,0,0
679,540,0,0,0,0,0,0,0,0,0,-1,1903,484,0,0
686,540,0,0,0,0,0,0,0,0,0,-1,1910,484,0,0
693,540,0,0,0,0,0,0,0,0,0,-1,1917,484,0,0
700,540,0,0,0,0,0,0,0,0,0,-1,1924,484,0,0
707,540,0,0,0,0,0,0,0,0,0,-1,1931,484,0,0
714,540,0,0,0,0,0,0,0,0,0,-1,1938,484,0,0
721,540,0,0,0,0,0,0,0,0,0,-1,1945,484,0,0
728,540,0,0,0,0,0,0,0,0,0,-1,1952,484,0,0
735,540,0,0,0,0,0,0,0,0,0,-1,1959,484,0,0
742,540,0,0,0,0,0,0,0,0,0,-1,1966,484,0,0
749,540,0,0,0,0,0,0,0,0,0,-1,1973,484,0,0
756,540,0,0,0,0,0,0,0,0,0,-1,1980,484,0,0
763,540,0,0,0,0,0,0,0,0,0,-1,1987,484,0,0
770,540,0,0,0,0,0,0,0,0,0,-1,1994,484,0,0
777,540,0,0,0,0,0,0,0,0,0,-1,2001,484,0,0
784,540,0,0,0,0,0,0,0,0,0,-1,2008,484,0,0
791,540,0,0,0,0,0,0,0,0,0,-1,2015,484,0,0
798,540,0,0,0,0,0,0,0,0,0,-1,2022,484,0,0
805,540,0,0,0,0,0,0,0,0,0,-1,2029,484,0,0
812,540,0,0,0,0,0,0,0,0,0,-1,2036,484,0,0
-700,533,0,0,0,0,0,0,0,0,0,-1,524,491,0,0
-693,533,0,0,0,0,0,0,0,0,0,-1,531,491,0,0
-686,533,0,0,0,0,0,0,0,0,0,-1,538,491,0,0
-679,533,0,0,0,0,0,0,0,0,0,-1,545,491,0,0
-672,533,0,0,0,0,0,0,0,0,0,-1,552,491,0,0
-665,533,0,0,0,0,0,0,0,0,0,-1,559,491,0,0
-658,533,0,0,0,0,0,0,0,0,0,-1,566,491,0,0
-651,533,0,0,0,0,0,0,0,0,0,-1,573,491,0,0
-644,533,0,0,0,0,0,0,0,0,0,-1,580,491,0,0
-637,533,0,0,0,0,0,0,0,0,0,-1,587,491,0,0
-630,533,0,0,0,0,0,0,0,0,0,-1,594,491,0,0
-623,533,0,0,0,0,0,0,0,0,0,-1,601,491,0,0
-616,533,0,0,0,0,0,0,0,0,0,-1,608,491,0,0
-609,533,0,0,0,0,0,0,0,0,0,-1,615,491,0,0
-602,533,0,0,0,0,0,0,0,0,0,-1,622,491,0,0
-595,533,0,0,0,0,0,0,0,0,0,-1,629,491,0,0
-588,533,0,0,0,0,0,0,0,0,0,-1,636,491,0,0
-581,533,0,0,0,0,0,0,0,0,0,-1,643,491,0,0
-574,533,0,0,0,0,0,0,0,0,0,-1,650,491,0,0
-567,533,0,0,0,0,0,0,0,0,0,-1,657,491,0,0
-560,533,0,0,0,0,0,0,0,0,0,-1,664,491,0,0
-553,533,0,0,0,0,0,0,0,0,0,-1,671,491,0,0
-546,533,0,0,0,0,0,0,0,0,0,-1,678,491,0,0
-539,533,0,0,0,0,0,0,0,0,0,-1,685,491,0,0
-532,533,0,0,0,0,0,0,0,0,0,-1,692,491,0,0
-525,533,0,0,0,0,0,0,0,0,0,-1,699,491,0,0
-518,533,0,0,0,0,0,0,0,0,0,-1,706,491,0,0
-511,533,0,0,0,0,0,0,0,0,0,-1,713,491,0,0
-504,533,0,0,0,0,0,0,0,0,0,-1,720,491,0,0
-497,533,0,0,0,0,0,0,0,0,0,-1,727,491,0,0
-490,533,0,0,0,0,0,0,0,0,0,-1,734,491,0,0
-483,533,0,0,0,0,0,0,0,0,0,-1,741,491,0,0
-476,533,0,0,0,0,0,0,0,0,0,-1,748,491,0,0
-469,533,0,0,0,0,0,0,0,0,0,-1,755,491,0,0
-462,533,0,0,0,0,0,0,0,0,0,-1,762,491,0,0
-455,533,0,0,0,0,0,0,0,0,0,-1,769,491,0,0
-448,533,0,0,0,0,0,0,0,0,0,-1,776,491,0,0
-441,533,0,0,0,0,0,0,0,0,0,-1,783,491,0,0
-434,533,0,0,0,0,0,0,0,0,0,-1,790,491,0,0
-427,533,0.559814,-4.40222,0,0,0,0,0,0,0,-1,797,491,0.559816,4.40222
-420,533,-1.11127,-10.9054,0,0,0,0,0,0,0,-1,804,491,-1.11124,10.9054
-413,533,-0.704773,-11.0942,0,0,0,0,0,0,0,-1,811,491,-0.704742,11.0942
-406,533,-0.670898,-12.0899,0,0,0,0,0,0,0,-1,818,491,-0.670908,12.0899
-399,533,-0.455017,-12.4423,0,0,0,0,0,0,0,-1,825,491,-0.455032,12.4423
-392,533,-1.89661,-10.3905,0,0,0,0,0,0,0,-1,832,491,-1.89661,10.3905
-385,533,0.797729,-17.0485,0,0,0,0,0,0,0,-1,839,491,0.797746,17.0485
-378,533,-1.89435,-19.6771,0,0,0,0,0,0,0,-1,846,491,-1.89433,19.6771
-371,533,-1.18115,-24.7584,0,0,0,0,0,0,0,-1,853,491,-1.18115,24.7584
-364,533,-0.980042,-25.7525,0.0103641,0.0311069,-0.0154258,0.0393237,0.00214729,-1.08136,0.0255302,0.047379,860,491,-0.980023,25.7525
-357,533,-0.792053,-26.8199,0.00773521,0.0251534,-0.0123521,0.031558,0.00133062,-1.09246,0.0206095,0.0276789,867,491,-0.79204,26.8199
-350,533,-0.792175,-27.7001,0.00545862,0.0199346,-0.00961462,0.0247311,0.000662102,-1.10805,0.0162712,0.0147686,874,491,-0.792195,27.7002
-343,533,-0.862732,-28.5356,0.00374092,0.0155307,-0.00736889,0.0190725,0.000199166,-1.12276,0.0126491,0.012661,881,491,-0.862762,28.5357
-336,533,-0.948181,-29.3174,0.00243944,0.0118858,-0.00553128,0.0144361,-0.000110857,-1.13878,0.00966124,0.0164895,888,491,-0.948189,29.3174
-329,533,-1.00653,-30.0409,0.00147966,0.00889485,-0.00402445,0.0106592,-0.000284717,-1.15762,0.00720293,0.0142851,895,491,-1.00656,30.0409
-322,533,-1.04785,-30.7496,0.000731477,0.00623779,-0.00267293,0.00732187,-0.000352609,-1.18549,0.00500293,0.0122833,902,491,-1.04785,30.7496
-315,533,-1.0918,-31.4686,0.000349368,0.00420148,-0.00163028,0.00479882,-0.000247968,-1.21959,0.00328499,0.0136453,909,491,-1.09179,31.4686
-308,533,-1.10437,-32.2103,7.27153e-05,0.00255958,-0.000830918,0.00281165,-0.000179362,-1.27625,0.00193699,0.0126769,916,491,-1.1044,32.2104
-301,533,-1.1557,-32.9334,0.000124508,0.00133871,-0.00030867,0.00141267,5.05443e-05,-1.33561,0.000925394,0.0144857,923,491,-1.15568,32.9334
-294,533,-1.17206,-33.6505,0.00040995,0.000435244,0.000202274,0.000625266,0.000219927,0.81662,0.00036625,0.0137173,930,491,-1.17203,33.6505
-287,533,-1.16772,-34.3743,0.000691868,-0.000493619,0.000734158,0.0010427,-0.00084445,0.445786,0.00109155,0.0104358,937,491,-1.16774,34.3743
-280,533,-1.18671,-35.1097,0.000368763,-0.00291391,0.00138349,0.000874062,-0.0034192,0.350181,0.00261988,0.00959982,944,491,-1.18671,35.1097
-273,533,-1.21967,-35.7935,0.000172336,-0.00633061,0.00253013,0.00104077,-0.00719904,0.330637,0.00518125,0.0123931,951,491,-1.21965,35.7934
-266,533,-1.23981,-36.4822,9.04578e-05,-0.0109108,0.00472977,0.00184431,-0.0126647,0.355094,0.00912027,0.012355,958,491,-1.23983,36.4823
-259,533,-1.25183,-37.1828,-5.61789e-05,-0.0155977,0.00656226,0.00234399,-0.0179979,0.35064,0.0128514,0.0136873,965,491,-1.25183,37.1828
-252,533,-1.26447,-37.8484,-0.000656855,-0.0215645,0.00878274,0.00254285,-0.0247642,0.349373,0.0174191,0.0195189,972,491,-1.26445,37.8485
-245,533,-1.34222,-38.4752,-0.00170071,-0.0287203,0.0117107,0.00266842,-0.0330895,0.357093,0.0230008,0.0288773,979,491,-1.3422,38.4752
-238,533,-1.28162,-38.9544,-0.00243978,-0.0362868,0.0146972,0.00305127,-0.0417778,0.357554,0.0289227,0.0303655,986,491,-1.28162,38.9544
-231,533,-1.38928,-39.3279,-0.0032579,-0.0445257,0.0180672,0.00353411,-0.0513178,0.359586,0.0354486,0.0356176,993,491,-1.38928,39.3279
-224,533,-1.54797,-39.8932,-0.00432603,-0.052874,0.0217091,0.0039655,-0.0611656,0.364839,0.0421611,0.0414034,1000,491,-1.54798,39.8933
-217,533,-0.965088,-40.5635,-0.00544682,-0.0608832,0.0254258,0.0044484,-0.0707784,0.371144,0.0487362,0.0437272,1007,491,-0.965107,40.5635
-210,533,-1.01654,-40.876,-0.0066384,-0.068512,0.0290919,0.00489154,-0.080042,0.377337,0.0550643,0.0487638,1014,491,-1.01657,40.8761
-203,533,-1.07062,-41.2424,0,0,0,0,0,0,0,-1,1021,491,-1.0706,41.2423
-196,533,0.688354,-19.5743,0,0,0,0,0,0,0,-1,1028,491,0.688406,19.5743
-189,533,-0.169189,-15.0303,0,0,0,0,0,0,0,-1,1035,491,-0.169241,15.0303
-182,533,1.26123,-11.4969,0,0,0,0,0,0,0,-1,1042,491,1.26128,11.4969
-175,533,0.937744,-7.36966,0,0,0,0,0,0,0,-1,1049,491,0.937769,7.36965
-168,533,2.64807,-2.7543,0,0,0,0,0,0,0,-1,1056,491,2.64812,2.7543
-161,533,1.91833,-1.76553,0,0,0,0,0,0,0,-1,1063,491,1.91836,1.76554
-154,533,0.376709,-11.0633,0,0,0,0,0,0,0,-1,1070,491,0.376715,11.0632
-147,533,0.383789,-12.1586,0,0,0,0,0,0,0,-1,1077,491,0.383829,12.1586
-140,533,1.14001,-15.4608,0,0,0,0,0,0,0,-1,1084,491,1.14005,15.4608
-133,533,0.189941,-16.0795,0,0,0,0,0,0,0,-1,1091,491,0.18994,16.0795
-126,533,2.89612,-2.59003,0,0,0,0,0,0,0,-1,1098,491,2.89608,2.59003
-119,533,1.78284,-22.5394,0,0,0,0,0,0,0,-1,1105,491,1.78279,22.5394
-112,533,1.83862,-21.2401,0,0,0,0,0,0,0,-1,1112,491,1.83859,21.24
-105,533,1.67554,-19.4018,0,0,0,0,0,0,0,-1,1119,491,1.6755,19.4018
-98,533,-1.39392,-5.16367,0,0,0,0,0,0,0,-1,1126,491,-1.39394,5.16367
-91,533,0.367432,4.49753,0,0,0,0,0,0,0,-1,1133,491,0.367468,-4.49754
-84,533,-0.88623,3.03604,0,0,0,0,0,0,0,-1,1140,491,-0.886288,-3.03605
-77,533,0,0,0,0,0,0,0,0,0,-1,1147,491,0,0
-70,533,0,0,0,0,0,0,0,0,0,-1,1154,491,0,0
-63,533,0,0,0,0,0,0,0,0,0,-1,1161,491,0,0
-56,533,0,0,0,0,0,0,0,0,0,-1,1168,491,0,0
-49,533,0,0,0,0,0,0,0,0,0,-1,1175,491,0,0
-42,533,0,0,0,0,0,0,0,0,0,-1,1182,491,0,0
-35,533,0,0,0,0,0,0,0,0,0,-1,1189,491,0,0
-28,533,0,0,0,0,0,0,0,0,0,-1,1196,491,0,0
-21,533,0,0,0,0,0,0,0,0,0,-1,1203,491,0,0
-14,533,0,0,0,0,0,0,0,0,0,-1,1210,491,0,0
-7,533,0,0,0,0,0,0,0,0,0,-1,1217,491,0,0
0,533,0,0,0,0,0,0,0,0,0,-1,1224,491,0,0
7,533,0,0,0,0,0,0,0,0,0,-1,1231,491,0,0
14,533,0,0,0,0,0,0,0,0,0,-1,1238,491,0,0
21,533,0,0,0,0,0,0,0,0,0,-1,1245,491,0,0
28,533,0,0,0,0,0,0,0,0,0,-1,1252,491,0,0
35,533,0,0,0,0,0,0,0,0,0,-1,1259,491,0,0
42,533,0,0,0,0,0,0,0,0,0,-1,1266,491,0,0
49,533,0,0,0,0,0,0,0,0,0,-1,1273,491,0,0
56,533,0,0,0,0,0,0,0,0,0,-1,1280,491,0,0
63,533,0,0,0,0,0,0,0,0,0,-1,1287,491,0,0
70,533,0,0,0,0,0,0,0,0,0,-1,1294,491,0,0
77,533,0,0,0,0,0,0,0,0,0,-1,1301,491,0,0
84,533,0,0,0,0,0,0,0,0,0,-1,1308,491,0,0
91,533,0,0,0,0,0,0,0,0,0,-1,1315,491,0,0
98,533,0,0,0,0,0,0,0,0,0,-1,1322,491,0,0
105,533,0,0,0,0,0,0,0,0,0,-1,1329,491,0,0
112,533,0,0,0,0,0,0,0,0,0,-1,1336,491,0,0
119,533,0,0,0,0,0,0,0,0,0,-1,1343,491,0,0
126,533,0,0,0,0,0,0,0,0,0,-1,1350,491,0,0
133,533,0,0,0,0,0,0,0,0,0,-1,1357,491,0,0
140,533,0,0,0,0,0,0,0,0,0,-1,1364,491,0,0
147,533,0,0,0,0,0,0,0,0,0,-1,1371,491,0,0
154,533,0,0,0,0,0,0,0,0,0,-1,1378,491,0,0
161,533,0,0,0,0,0,0,0,0,0,-1,1385,491,0,0
168,533,0,0,0,0,0,0,0,0,0,-1,1392,491,0,0
175,533,0,0,0,0,0,0,0,0,0,-1,1399,491,0,0
182,533,0,0,0,0,0,0,0,0,0,-1,1406,491,0,0
189,533,0,0,0,0,0,0,0,0,0,-1,1413,491,0,0
196,533,0,0,0,0,0,0,0,0,0,-1,1420,491,0,0
203,533,3.7887,1.16193,0,0,0,0,0,0,0,-1,1427,491,3.78872,-1.16193
210,533,5.09558,-0.216034,0,0,0,0,0,0,0,-1,1434,491,5.09559,0.216028
217,533,6.91614,-2.46814,0,0,0,0,0,0,0,-1,1441,491,6.91618,2.46814
224,533,7.23621,-2.1857,0,0,0,0,0,0,0,-1,1448,491,7.23621,2.1857
231,533,7.23474,-1.92282,0,0,0,0,0,0,0,-1,1455,491,7.2347,1.92282
238,533,7.23535,-1.67258,0,0,0,0,0,0,0,-1,1462,491,7.23539,1.67258
245,533,6.86682,-1.2301,0,0,0,0,0,0,0,-1,1469,491,6.86686,1.23011
252,533,6.63354,-3.07825,0,0,0,0,0,0,0,-1,1476,491,6.6335,3.07824
259,533,6.16431,-2.35037,0,0,0,0,0,0,0,-1,1483,491,6.1643,2.35037
266,533,5.68884,-1.6214,0,0,0,0,0,0,0,-1,1490,491,5.68885,1.6214
273,533,5.21399,-0.864227,0,0,0,0,0,0,0,-1,1497,491,5.21403,0.864227
280,533,1.41089,-1.97946,0,0,0,0,0,0,0,-1,1504,491,1.41087,1.97946
287,533,1.6814,-2.44443,0,0,0,0,0,0,0,-1,1511,491,1.6814,2.44444
294,533,2.2384,-2.57626,0,0,0,0,0,0,0,-1,1518,491,2.23839,2.57625
301,533,3.39941,-4.0817,0,0,0,0,0,0,0,-1,1525,491,3.3994,4.08171
308,533,4.13733,-4.14752,0,0,0,0,0,0,0,-1,1532,491,4.13727,4.14752
315,533,4.80762,-5.29349,0,0,0,0,0,0,0,-1,1539,491,4.80762,5.29347
322,533,5.47803,-6.43942,0,0,0,0,0,0,0,-1,1546,491,5.47798,6.43943
329,533,3.88477,-3.86301,0,0,0,0,0,0,0,-1,1553,491,3.88475,3.86299
336,533,6.70923,-13.2003,0,0,0,0,0,0,0,-1,1560,491,6.70926,13.2004
343,533,7.06677,-17.1133,0,0,0,0,0,0,0,-1,1567,491,7.06673,17.1133
350,533,10.0876,-23.7254,0,0,0,0,0,0,0,-1,1574,491,10.0877,23.7254
357,533,14.714,-39.063,0,0,0,0,0,0,0,-1,1581,491,14.714,39.063
364,533,14.504,-38.6557,0,0,0,0,0,0,0,-1,1588,491,14.5041,38.6557
371,533,14.5599,-37.982,0,0,0,0,0,0,0,-1,1595,491,14.5599,37.982
378,533,14.6171,-37.2535,0,0,0,0,0,0,0,-1,1602,491,14.6171,37.2536
385,533,14.6384,-36.5431,0.000356952,-0.00155347,-0.00277387,0.00233547,-0.00353199,-0.619577,0.00341098,0.0317784,1609,491,14.6384,36.5431
392,533,14.6084,-35.8862,0.000371727,-0.000571016,-0.00172157,0.00168529,-0.00188458,-0.651772,0.00206214,0.0153316,1616,491,14.6084,35.8862
399,533,14.5903,-35.2085,0.000497037,0.000124236,-0.00114311,0.00146884,-0.000847569,-0.704577,0.00135332,0.0140349,1623,491,14.5903,35.2085
406,533,14.5802,-34.4751,0.000647092,0.000702365,-0.000606678,0.00128204,6.74209e-05,-0.808159,0.000833127,0.0163099,1630,491,14.5802,34.4751
413,533,14.5454,-33.7058,0.000802123,0.00140333,-2.31596e-05,0.00140422,0.000801232,-1.53235,0.000813415,0.0142984,1637,491,14.5454,33.7058
420,533,14.5111,-32.9789,0.000794895,0.00187992,0.000402508,0.00201293,0.000661884,1.25164,0.00118465,0.0147387,1644,491,14.5111,32.9789
427,533,14.4883,-32.2379,0.000700955,0.00221928,0.000770826,0.00254201,0.00037822,1.17429,0.00158373,0.0160094,1651,491,14.4882,32.2378
434,533,14.4535,-31.5243,0.00063262,0.00245694,0.00113138,0.00299807,9.14916e-05,1.12467,0.00196892,0.0140914,1658,491,14.4535,31.5243
441,533,14.4351,-30.7662,0.000539644,0.00274139,0.00150827,0.00350781,-0.000226779,1.10065,0.00241768,0.0159984,1665,491,14.4351,30.7662
448,533,14.3961,-30.0256,0.000421003,0.00283356,0.00183174,0.00382054,-0.000565977,1.07658,0.00275513,0.0169137,1672,491,14.3961,30.0256
455,533,14.3378,-29.2615,0.00024012,0.00293667,0.0020868,0.00407286,-0.00089607,1.07221,0.00305801,0.0160458,1679,491,14.3378,29.2616
462,533,14.2699,-28.4487,0.000143183,0.00301759,0.00230421,0.00429607,-0.0011353,1.06424,0.00330807,0.0153176,1686,491,14.27,28.4487
469,533,14.2323,-27.7131,0.000151781,0.00315245,0.00253841,0.00460077,-0.00129654,1.05231,0.00357853,0.0103429,1693,491,14.2323,27.713
476,533,14.2195,-26.9172,5.31457e-06,0.00332689,0.00279413,0.00491655,-0.00158434,1.05354,0.00391419,0.0125264,1700,491,14.2195,26.9172
483,533,14.2375,-26.1014,-3.60572e-05,0.0035734,0.00310142,0.00535696,-0.00181962,1.0489,0.00430791,0.0234954,1707,491,14.2375,26.1014
490,533,14.3296,-25.1304,0,0,0,0,0,0,0,-1,1714,491,14.3296,25.1304
497,533,14.2451,-23.0113,0,0,0,0,0,0,0,-1,1721,491,14.2452,23.0113
504,533,14.6896,-22.6455,0,0,0,0,0,0,0,-1,1728,491,14.6895,22.6455
511,533,13.6221,-19.2798,0,0,0,0,0,0,0,-1,1735,491,13.6221,19.2798
518,533,14.1954,-19.4995,0,0,0,0,0,0,0,-1,1742,491,14.1955,19.4995
525,533,13.7935,-19.6901,0,0,0,0,0,0,0,-1,1749,491,13.7934,19.6901
532,533,15.4377,-17.9016,0,0,0,0,0,0,0,-1,1756,491,15.4377,17.9015
539,533,12.8733,-18.2556,0,0,0,0,0,0,0,-1,1763,491,12.8733,18.2556
546,533,3.59607,1.65799,0,0,0,0,0,0,0,-1,1770,491,3.59605,-1.658
553,533,0,0,0,0,0,0,0,0,0,-1,1777,491,0,0
560,533,0,0,0,0,0,0,0,0,0,-1,1784,491,0,0
567,533,0,0,0,0,0,0,0,0,0,-1,1791,491,0,0
574,533,0,0,0,0,0,0,0,0,0,-1,1798,491,0,0
581,533,0,0,0,0,0,0,0,0,0,-1,1805,491,0,0
588,533,0,0,0,0,0,0,0,0,0,-1,1812,491,0,0
595,533,0,0,0,0,0,0,0,0,0,-1,1819,491,0,0
602,533,0,0,0,0,0,0,0,0,0,-1,1826,491,0,0
609,533,0,0,0,0,0,0,0,0,0,-1,1833,491,0,0
616,533,0,0,0,0,0,0,0,0,0,-1,1840,491,0,0
623,533,0,0,0,0,0,0,0,0,0,-1,1847,491,0,0
630,533,0,0,0,0,0,0,0,0,0,-1,1854,491,0,0
637,533,0,0,0,0,0,0,0,0,0,-1,1861,491,0,0
644,533,0,0,0,0,0,0,0,0,0,-1,1868,491,0,0
651,533,0,0,0,0,0,0,0,0,0,-1,1875,491,0,0
658,533,0,0,0,0,0,0,0,0,0,-1,1882,491,0,0
665,533,0,0,0,0,0,0,0,0,0,-1,1889,491,0,0
672,533,0,0,0,0,0,0,0,0,0,-1,1896,491,0,0
679,533,0,0,0,0,0,0,0,0,0,-1,1903,491,0,0
686,533,0,0,0,0,0,0,0,0,0,-1,1910,491,0,0
693,533,0,0,0,0,0,0,0,0,0,-1,1917,491,0,0
700,533,0,0,0,0,0,0,0,0,0,-1,1924,491,0,0
707,533,0,0,0,0,0,0,0,0,0,-1,1931,491,0,0
714,533,0,0,0,0,0,0,0,0,0,-1,1938,491,0,0
721,533,0,0,0,0,0,0,0,0,0,-1,1945,491,0,0
728,533,0,0,0,0,0,0,0,0,0,-1,1952,491,0,0
735,533,0,0,0,0,0,0,0,0,0,-1,1959,491,0,0
742,533,0,0,0,0,0,0,0,0,0,-1,1966,491,0,0
749,533,0,0,0,0,0,0,0,0,0,-1,1973,491,0,0
756,533,0,0,0,0,0,0,0,0,0,-1,1980,491,0,0
763,533,0,0,0,0,0,0,0,0,0,-1,1987,491,0,0
770,533,0,0,0,0,0,0,0,0,0,-1,1994,491,0,0
777,533,0,0,0,0,0,0,0,0,0,-1,2001,491,0,0
784,533,0,0,0,0,0,0,0,0,0,-1,2008,491,0,0
791,533,0,0,0,0,0,0,0,0,0,-1,2015,491,0,0
798,533,0,0,0,0,0,0,0,0,0,-1,2022,491,0,0
805,533,0,0,0,0,0,0,0,0,0,-1,2029,491,0,0
812,533,0,0,0,0,0,0,0,0,0,-1,2036,491,0,0
-700,526,0,0,0,0,0,0,0,0,0,-1,524,498,0,0
-693,526,0,0,0,0,0,0,0,0,0,-1,531,498,0,0
-686,526,0,0,0,0,0,0,0,0,0,-1,538,498,0,0
-679,526,0,0,0,0,0,0,0,0,0,-1,545,498,0,0
-672,526,0,0,0,0,0,0,0,0,0,-1,552,498,0,0
-665,526,0,0,0,0,0,0,0,0,0,-1,559,498,0,0
-658,526,0,0,0,0,0,0,0,0,0,-1,566,498,0,0
-651,526,0,0,0,0,0,0,0,0,0,-1,573,498,0,0
-644,526,0,0,0,0,0,0,0,0,0,-1,580,498,0,0
-637,526,0,0,0,0,0,0,0,0,0,-1,587,498,0,0
-630,526,0,0,0,0,0,0,0,0,0,-1,594,498,0,0
-623,526,0,0,0,0,0,0,0,0,0,-1,601,498,0,0
-616,526,0,0,0,0,0,0,0,0,0,-1,608,498,0,0
-609,526,0,0,0,0,0,0,0,0,0,-1,615,498,0,0
-602,526,0,0,0,0,0,0,0,0,0,-1,622,498,0,0
-595,526,0,0,0,0,0,0,0,0,0,-1,629,498,0,0
-588,526,0,0,0,0,0,0,0,0,0,-1,636,498,0,0
-581,526,0,0,0,0,0,0,0,0,0,-1,643,498,0,0
-574,526,0,0,0,0,0,0,0,0,0,-1,650,498,0,0
-567,526,0,0,0,0,0,0,0,0,0,-1,657,498,0,0
-560,526,0,0,0,0,0,0,0,0,0,-1,664,498,0,0
-553,526,0,0,0,0,0,0,0,0,0,-1,671,498,0,0
-546,526,0,0,0,0,0,0,0,0,0,-1,678,498,0,0
-539,526,0,0,0,0,0,0,0,0,0,-1,685,498,0,0
-532,526,0,0,0,0,0,0,0,0,0,-1,692,498,0,0
-525,526,0,0,0,0,0,0,0,0,0,-1,699,498,0,0
-518,526,0,0,0,0,0,0,0,0,0,-1,706,498,0,0
-511,526,0,0,0,0,0,0,0,0,0,-1,713,498,0,0
-504,526,0,0,0,0,0,0,0,0,0,-1,720,498,0,0
-497,526,0,0,0,0,0,0,0,0,0,-1,727,498,0,0
-490,526,0,0,0,0,0,0,0,0,0,-1,734,498,0,0
-483,526,0,0,0,0,0,0,0,0,0,-1,741,498,0,0
-476,526,0,0,0,0,0,0,0,0,0,-1,748,498,0,0
-469,526,0,0,0,0,0,0,0,0,0,-1,755,498,0,0
-462,526,0,0,0,0,0,0,0,0,0,-1,762,498,0,0
-455,526,0,0,0,0,0,0,0,0,0,-1,769,498,0,0
-448,526,0,0,0,0,0,0,0,0,0,-1,776,498,0,0
-441,526,0,0,0,0,0,0,0,0,0,-1,783,498,0,0
-434,526,-0.153564,-5.96649,0,0,0,0,0,0,0,-1,790,498,-0.153589,5.9665
-427,526,1.23206,-4.59808,0,0,0,0,0,0,0,-1,797,498,1.23208,4.59809
-420,526,-1.76373,-11.6241,0,0,0,0,0,0,0,-1,804,498,-1.76373,11.6241
-413,526,-1.38965,-11.7916,0,0,0,0,0,0,0,-1,811,498,-1.38963,11.7916
-406,526,-1.35187,-12.5182,0,0,0,0,0,0,0,-1,818,498,-1.35185,12.5181
-399,526,-1.32715,-13.2116,0,0,0,0,0,0,0,-1,825,498,-1.32713,13.2116
-392,526,0.197571,-15.303,0,0,0,0,0,0,0,-1,832,498,0.197598,15.303
-385,526,-2.69397,-19.6176,0,0,0,0,0,0,0,-1,839,498,-2.69399,19.6176
-378,526,-1.90259,-23.5026,0,0,0,0,0,0,0,-1,846,498,-1.90257,23.5025
-371,526,-1.52655,-24.7992,0.00993087,0.0294372,-0.0156159,0.0380955,0.00127261,-1.06454,0.0249836,0.0441396,853,498,-1.52655,24.7992
-364,526,-1.57001,-25.9913,0.00797561,0.0245441,-0.0127943,0.031502,0.00101768,-1.0727,0.0206705,0.022841,860,498,-1.57,25.9913
-357,526,-1.51215,-26.9107,0.00611703,0.0199055,-0.0102903,0.0253976,0.000624925,-1.08054,0.0167273,0.014313,867,498,-1.51217,26.9107
-350,526,-1.52783,-27.6909,0.00446572,0.015741,-0.0080282,0.0199133,0.000293413,-1.09151,0.0131788,0.0126554,874,498,-1.52786,27.6909
-343,526,-1.60797,-28.4785,0.00316962,0.0120977,-0.0061089,0.0151998,6.75311e-05,-1.10093,0.0101108,0.0162141,881,498,-1.60799,28.4785
-336,526,-1.6709,-29.2358,0.00214578,0.00900204,-0.00448073,0.0112156,-6.78138e-05,-1.11194,0.00749979,0.0159151,888,498,-1.67088,29.2358
-329,526,-1.71692,-29.9858,0.00137707,0.00643752,-0.00312074,0.00792488,-0.000110296,-1.12604,0.0053204,0.0149126,895,498,-1.71691,29.9858
-322,526,-1.74548,-30.7064,0.000772107,0.00411275,-0.0018782,0.00495591,-7.10576e-05,-1.14884,0.00332788,0.0110678,902,498,-1.74551,30.7064
-315,526,-1.79199,-31.4501,0.00049538,0.00234749,-0.000915473,0.00272361,0.000119256,-1.18097,0.00177732,0.0102772,909,498,-1.79197,31.4501
-308,526,-1.81726,-32.2193,0.000388553,0.000990393,-0.000196702,0.00104898,0.000329967,-1.28132,0.000619357,0.00944414,916,498,-1.81725,32.2193
-301,526,-1.87537,-32.9162,0.000507854,1.43281e-05,0.000302562,0.000651521,-0.000129339,0.443314,0.000483265,0.0114834,923,498,-1.87539,32.9162
-294,526,-1.89337,-33.6056,0.000779114,-0.000713938,0.000804664,0.00113021,-0.00106504,0.41143,0.00126762,0.0114478,930,498,-1.89334,33.6056
-287,526,-1.91479,-34.3312,0.00102303,-0.00158676,0.00135055,0.00159609,-0.00215983,0.401295,0.00217661,0.0112424,937,498,-1.91482,34.3312
-280,526,-1.9447,-35.0467,0.000452928,-0.00451662,0.00208957,0.00121475,-0.00527845,0.349608,0.00398607,0.013468,944,498,-1.9447,35.0467
-273,526,-1.94678,-35.7501,6.48466e-05,-0.00879247,0.00347002,0.00126238,-0.00999,0.332311,0.00711821,0.0107587,951,498,-1.94676,35.7501
-266,526,-1.95959,-36.4449,-0.000198444,-0.0145549,0.00629746,0.00217241,-0.0169258,0.360065,0.0120733,0.0165105,958,498,-1.95957,36.445
-259,526,-1.91168,-37.129,-0.000584849,-0.020375,0.00859425,0.00262632,-0.0235862,0.357579,0.0166687,0.0438665,965,498,-1.91167,37.129
-252,526,-1.80389,-37.8887,0,0,0,0,0,0,0,-1,972,498,-1.80386,37.8887
-245,526,-2.01251,-38.4872,0,0,0,0,0,0,0,-1,979,498,-2.01251,38.4873
-238,526,-1.92841,-38.7736,0,0,0,0,0,0,0,-1,986,498,-1.92839,38.7736
-231,526,-2.08844,-38.3696,-0.00585082,-0.0584163,0.0235212,0.00313723,-0.0674043,0.365003,0.0460176,0.0449255,993,498,-2.08843,38.3696
-224,526,-2.4873,-38.942,-0.00745432,-0.0693299,0.0283144,0.00354657,-0.0803308,0.370576,0.0547743,0.0465083,1000,498,-2.48729,38.942
-217,526,-2.78357,-39.2925,-0.00908905,-0.0796562,0.0332048,0.00407825,-0.0928235,0.377527,0.0632856,0.0493626,1007,498,-2.78358,39.2925
-210,526,-1.54639,-40.6514,0,0,0,0,0,0,0,-1,1014,498,-1.54637,40.6514
-203,526,-0.659302,-18.8818,0,0,0,0,0,0,0,-1,1021,498,-0.659273,18.8818
-196,526,-0.328247,-12.179,0,0,0,0,0,0,0,-1,1028,498,-0.328238,12.179
-189,526,0.401245,-5.96826,0,0,0,0,0,0,0,-1,1035,498,0.401197,5.96826
-182,526,1.7323,-2.99405,0,0,0,0,0,0,0,-1,1042,498,1.73226,2.99404
-175,526,2.27637,-2.07983,0,0,0,0,0,0,0,-1,1049,498,2.27639,2.07984
-168,526,2.12036,-1.66049,0,0,0,0,0,0,0,-1,1056,498,2.12035,1.66048
-161,526,2.09082,-1.20572,0,0,0,0,0,0,0,-1,1063,498,2.09086,1.2057
-154,526,-1.3446,-5.37799,0,0,0,0,0,0,0,-1,1070,498,-1.34457,5.37799
-147,526,-0.472656,-6.64996,0,0,0,0,0,0,0,-1,1077,498,-0.472659,6.64997
-140,526,0.422852,-8.03339,0,0,0,0,0,0,0,-1,1084,498,0.422844,8.0334
-133,526,1.09583,-9.2215,0,0,0,0,0,0,0,-1,1091,498,1.09581,9.2215
-126,526,3.42529,-2.36053,0,0,0,0,0,0,0,-1,1098,498,3.42523,2.36052
-119,526,2.7771,-0.764099,0,0,0,0,0,0,0,-1,1105,498,2.7771,0.764107
-112,526,2.57715,-1.1893,0,0,0,0,0,0,0,-1,1112,498,2.57718,1.1893
-105,526,0,0,0,0,0,0,0,0,0,-1,1119,498,0,0
-98,526,0,0,0,0,0,0,0,0,0,-1,1126,498,0,0
-91,526,0,0,0,0,0,0,0,0,0,-1,1133,498,0,0
-84,526,0,0,0,0,0,0,0,0,0,-1,1140,498,0,0
-77,526,0,0,0,0,0,0,0,0,0,-1,1147,498,0,0
-70,526,0,0,0,0,0,0,0,0,0,-1,1154,498,0,0
-63,526,0,0,0,0,0,0,0,0,0,-1,1161,498,0,0
-56,526,0,0,0,0,0,0,0,0,0,-1,1168,498,0,0
-49,526,0,0,0,0,0,0,0,0,0,-1,1175,498,0,0
-42,526,0,0,0,0,0,0,0,0,0,-1,1182,498,0,0
-35,526,0,0,0,0,0,0,0,0,0,-1,1189,498,0,0
-28,526,0,0,0,0,0,0,0,0,0,-1,1196,498,0,0
-21,526,0,0,0,0,0,0,0,0,0,-1,1203,498,0,0
-14,526,0,0,0,0,0,0,0,0,0,-1,1210,498,0,0
-7,526,0,0,0,0,0,0,0,0,0,-1,1217,498,0,0
0,526,0,0,0,0,0,0,0,0,0,-1,1224,498,0,0
7,526,0,0,0,0,0,0,0,0,0,-1,1231,498,0,0
14,526,0,0,0,0,0,0,0,0,0,-1,1238,498,0,0
21,526,0,0,0,0,0,0,0,0,0,-1,1245,498,0,0
28,526,0,0,0,0,0,0,0,0,0,-1,1252,498,0,0
35,526,0,0,0,0,0,0,0,0,0,-1,1259,498,0,0
42,526,0,0,0,0,0,0,0,0,0,-1,1266,498,0,0
49,526,0,0,0,0,0,0,0,0,0,-1,1273,498,0,0
56,526,0,0,0,0,0,0,0,0,0,-1,1280,498,0,0
63,526,0,0,0,0,0,0,0,0,0,-1,1287,498,0,0
70,526,0,0,0,0,0,0,0,0,0,-1,1294,498,0,0
77,526,0,0,0,0,0,0,0,0,0,-1,1301,498,0,0
84,526,0,0,0,0,0,0,0,0,0,-1,1308,498,0,0
91,526,0,0,0,0,0,0,0,0,0,-1,1315,498,0,0
98,526,0,0,0,0,0,0,0,0,0,-1,1322,498,0,0
105,526,0,0,0,0,0,0,0,0,0,-1,1329,498,0,0
112,526,0,0,0,0,0,0,0,0,0,-1,1336,498,0,0
119,526,0,0,0,0,0,0,0,0,0,-1,1343,498,0,0
126,526,0,0,0,0,0,0,0,0,0,-1,1350,498,0,0
133,526,0,0,0,0,0,0,0,0,0,-1,1357,498,0,0
140,526,0,0,0,0,0,0,0,0,0,-1,1364,498,0,0
147,526,0,0,0,0,0,0,0,0,0,-1,1371,498,0,0
154,526,0,0,0,0,0,0,0,0,0,-1,1378,498,0,0
161,526,0,0,0,0,0,0,0,0,0,-1,1385,498,0,0
168,526,0,0,0,0,0,0,0,0,0,-1,1392,498,0,0
175,526,0,0,0,0,0,0,0,0,0,-1,1399,498,0,0
182,526,0,0,0,0,0,0,0,0,0,-1,1406,498,0,0
189,526,0,0,0,0,0,0,0,0,0,-1,1413,498,0,0
196,526,0,0,0,0,0,0,0,0,0,-1,1420,498,0,0
203,526,0,0,0,0,0,0,0,0,0,-1,1427,498,0,0
210,526,0,0,0,0,0,0,0,0,0,-1,1434,498,0,0
217,526,0,0,0,0,0,0,0,0,0,-1,1441,498,0,0
224,526,0,0,0,0,0,0,0,0,0,-1,1448,498,0,0
231,526,7.93237,-1.30618,0,0,0,0,0,0,0,-1,1455,498,7.93238,1.30618
238,526,7.97717,-1.08197,0,0,0,0,0,0,0,-1,1462,498,7.97723,1.08196
245,526,7.2793,-0.792938,0,0,0,0,0,0,0,-1,1469,498,7.27931,0.792926
252,526,6.73523,-2.23608,0,0,0,0,0,0,0,-1,1476,498,6.73525,2.23608
259,526,6.22949,-1.84967,0,0,0,0,0,0,0,-1,1483,498,6.22953,1.84968
266,526,5.72375,-1.46329,0,0,0,0,0,0,0,-1,1490,498,5.72381,1.46328
273,526,4.33984,0.49173,0,0,0,0,0,0,0,-1,1497,498,4.33979,-0.491727
280,526,1.4585,-1.59897,0,0,0,0,0,0,0,-1,1504,498,1.45846,1.59895
287,526,1.46411,-2.40134,0,0,0,0,0,0,0,-1,1511,498,1.46406,2.40133
294,526,5.57471,-4.59085,0,0,0,0,0,0,0,-1,1518,498,5.57466,4.59084
301,526,4.42786,-3.99677,0,0,0,0,0,0,0,-1,1525,498,4.42788,3.99676
308,526,5.79529,-4.19366,0,0,0,0,0,0,0,-1,1532,498,5.79528,4.19368
315,526,5.09851,-5.20068,0,0,0,0,0,0,0,-1,1539,498,5.09851,5.20068
322,526,5.50708,-4.72348,0,0,0,0,0,0,0,-1,1546,498,5.50713,4.72347
329,526,3.88672,-4.345,0,0,0,0,0,0,0,-1,1553,498,3.88674,4.34501
336,526,4.97876,-2.23828,0,0,0,0,0,0,0,-1,1560,498,4.97877,2.23828
343,526,3.31665,-2.69696,0,0,0,0,0,0,0,-1,1567,498,3.31667,2.69696
350,526,6.06287,-6.12015,0,0,0,0,0,0,0,-1,1574,498,6.06286,6.12014
357,526,12.9944,-29.1665,0,0,0,0,0,0,0,-1,1581,498,12.9943,29.1665
364,526,13.2582,-29.5416,0,0,0,0,0,0,0,-1,1588,498,13.2581,29.5416
371,526,12.4481,-29.0131,0,0,0,0,0,0,0,-1,1595,498,12.4481,29.0131
378,526,14.6885,-35.61,0,0,0,0,0,0,0,-1,1602,498,14.6884,35.61
385,526,15.3342,-36.7095,0,0,0,0,0,0,0,-1,1609,498,15.3342,36.7095
392,526,15.4846,-35.8948,0.000189991,-0.000145193,-0.00215473,0.00218364,-0.00213884,-0.746587,0.00249563,0.0443754,1616,498,15.4846,35.8948
399,526,15.3124,-35.1581,0.000406649,0.000326226,-0.00164948,0.00201641,-0.00128353,-0.773211,0.00192082,0.0220293,1623,498,15.3124,35.1582
406,526,15.3113,-34.3902,0.000692088,0.000641629,-0.00113366,0.0018008,-0.000467081,-0.774273,0.00138278,0.0134383,1630,498,15.3113,34.3902
413,526,15.2695,-33.6617,0.000984488,0.00114011,-0.000537157,0.00160506,0.000519537,-0.857328,0.000945694,0.0135901,1637,498,15.2695,33.6617
420,526,15.2341,-32.9606,0.00105854,0.0014296,-0.000135289,0.00147369,0.00101445,-1.25577,0.000870732,0.0145504,1644,498,15.2341,32.9606
427,526,15.2244,-32.2157,0.00100986,0.00164825,0.000233115,0.00172432,0.000933803,1.2554,0.00099668,0.0150563,1651,498,15.2244,32.2157
434,526,15.1833,-31.4596,0.00095052,0.00177066,0.0005699,0.00206269,0.00065849,1.09726,0.00121656,0.0129017,1658,498,15.1833,31.4596
441,526,15.1371,-30.7148,0.000888209,0.00197892,0.000936101,0.00251694,0.000350192,1.04916,0.00157427,0.0116987,1665,498,15.137,30.7148
448,526,15.123,-29.9893,0.000832384,0.00204954,0.00128567,0.00286339,1.85334e-05,1.00645,0.00190278,0.0111868,1672,498,15.1231,29.9893
455,526,15.0591,-29.2468,0.000705904,0.00220059,0.00157393,0.00319559,-0.000289098,1.00705,0.00223301,0.0138455,1679,498,15.0591,29.2468
462,526,15.0393,-28.4578,0.00064883,0.0023651,0.00183956,0.00353684,-0.000522908,1.00364,0.00255013,0.0106515,1686,498,15.0394,28.4578
469,526,15.0089,-27.701,0.000689598,0.00259697,0.0021379,0.00398425,-0.000697682,0.995195,0.00291667,0.00849858,1693,498,15.0089,27.701
476,526,14.9705,-26.9128,0.00056512,0.00288891,0.00246132,0.0044488,-0.000994767,1.00592,0.0033471,0.0104356,1700,498,14.9705,26.9129
483,526,14.953,-26.079,0.000547876,0.00324214,0.00285366,0.00505066,-0.00126065,1.00593,0.00385662,0.0143823,1707,498,14.953,26.0791
490,526,15.0032,-25.1682,0.000479167,0.00357802,0.00334231,0.00571258,-0.00165539,1.00244,0.0044637,0.0357409,1714,498,15.0032,25.1682
497,526,15.0858,-24.3644,0,0,0,0,0,0,0,-1,1721,498,15.0859,24.3644
504,526,15.1409,-23.7302,0,0,0,0,0,0,0,-1,1728,498,15.1408,23.7302
511,526,15.1296,-22.8503,0,0,0,0,0,0,0,-1,1735,498,15.1296,22.8503
518,526,14.7889,-20.4046,0,0,0,0,0,0,0,-1,1742,498,14.7889,20.4046
525,526,14.7009,-19.7487,0,0,0,0,0,0,0,-1,1749,498,14.7009,19.7486
532,526,15.7457,-17.9624,0,0,0,0,0,0,0,-1,1756,498,15.7458,17.9624
539,526,16.1064,-16.42,0,0,0,0,0,0,0,-1,1763,498,16.1065,16.42
546,526,12.4675,-17.1617,0,0,0,0,0,0,0,-1,1770,498,12.4675,17.1617
553,526,3.40796,1.37137,0,0,0,0,0,0,0,-1,1777,498,3.40792,-1.37138
560,526,0,0,0,0,0,0,0,0,0,-1,1784,498,0,0
567,526,0,0,0,0,0,0,0,0,0,-1,1791,498,0,0
574,526,0,0,0,0,0,0,0,0,0,-1,1798,498,0,0
581,526,0,0,0,0,0,0,0,0,0,-1,1805,498,0,0
588,526,0,0,0,0,0,0,0,0,0,-1,1812,498,0,0
595,526,0,0,0,0,0,0,0,0,0,-1,1819,498,0,0
602,526,0,0,0,0,0,0,0,0,0,-1,1826,498,0,0
609,526,0,0,0,0,0,0,0,0,0,-1,1833,498,0,0
616,526,0,0,0,0,0,0,0,0,0,-1,1840,498,0,0
623,526,0,0,0,0,0,0,0,0,0,-1,1847,498,0,0
630,526,0,0,0,0,0,0,0,0,0,-1,1854,498,0,0
637,526,0,0,0,0,0,0,0,0,0,-1,1861,498,0,0
644,526,0,0,0,0,0,0,0,0,0,-1,1868,498,0,0
651,526,0,0,0,0,0,0,0,0,0,-1,1875,498,0,0
658,526,0,0,0,0,0,0,0,0,0,-1,1882,498,0,0
665,526,0,0,0,0,0,0,0,0,0,-1,1889,498,0,0
672,526,0,0,0,0,0,0,0,0,0,-1,1896,498,0,0
679,526,0,0,0,0,0,0,0,0,0,-1,1903,498,0,0
686,526,0,0,0,0,0,0,0,0,0,-1,1910,498,0,0
693,526,0,0,0,0,0,0,0,0,0,-1,1917,498,0,0
700,526,0,0,0,0,0,0,0,0,0,-1,1924,498,0,0
707,526,0,0,0,0,0,0,0,0,0,-1,1931,498,0,0
714,526,0,0,0,0,0,0,0,0,0,-1,1938,498,0,0
721,526,0,0,0,0,0,0,0,0,0,-1,1945,498,0,0
728,526,0,0,0,0,0,0,0,0,0,-1,1952,498,0,0
735,526,0,0,0,0,0,0,0,0,0,-1,1959,498,0,0
742,526,0,0,0,0,0,0,0,0,0,-1,1966,498,0,0
749,526,0,0,0,0,0,0,0,0,0,-1,1973,498,0,0
756,526,0,0,0,0,0,0,0,0,0,-1,1980,498,0,0
763,526,0,0,0,0,0,0,0,0,0,-1,1987,498,0,0
770,526,0,0,0,0,0,0,0,0,0,-1,1994,498,0,0
777,526,0,0,0,0,0,0,0,0,0,-1,2001,498,0,0
784,526,0,0,0,0,0,0,0,0,0,-1,2008,498,0,0
791,526,0,0,0,0,0,0,0,0,0,-1,2015,498,0,0
798,526,0,0,0,0,0,0,0,0,0,-1,2022,498,0,0
805,526,0,0,0,0,0,0,0,0,0,-1,2029,498,0,0
812,526,0,0,0,0,0,0,0,0,0,-1,2036,498,0,0
-700,519,0,0,0,0,0,0,0,0,0,-1,524,505,0,0
-693,519,0,0,0,0,0,0,0,0,0,-1,531,505,0,0
-686,519,0,0,0,0,0,0,0,0,0,-1,538,505,0,0
-679,519,0,0,0,0,0,0,0,0,0,-1,545,505,0,0
-672,519,0,0,0,0,0,0,0,0,0,-1,552,505,0,0
-665,519,0,0,0,0,0,0,0,0,0,-1,559,505,0,0
-658,519,0,0,0,0,0,0,0,0,0,-1,566,505,0,0
-651,519,0,0,0,0,0,0,0,0,0,-1,573,505,0,0
-644,519,0,0,0,0,0,0,0,0,0,-1,580,505,0,0
-637,519,0,0,0,0,0,0,0,0,0,-1,587,505,0,0
-630,519,0,0,0,0,0,0,0,0,0,-1,594,505,0,0
-623,519,0,0,0,0,0,0,0,0,0,-1,601,505,0,0
-616,519,0,0,0,0,0,0,0,0,0,-1,608,505,0,0
-609,519,0,0,0,0,0,0,0,0,0,-1,615,505,0,0
-602,519,0,0,0,0,0,0,0,0,0,-1,622,505,0,0
-595,519,0,0,0,0,0,0,0,0,0,-1,629,505,0,0
-588,519,0,0,0,0,0,0,0,0,0,-1,636,505,0,0
-581,519,0,0,0,0,0,0,0,0,0,-1,643,505,0,0
-574,519,0,0,0,0,0,0,0,0,0,-1,650,505,0,0
-567,519,0,0,0,0,0,0,0,0,0,-1,657,505,0,0
-560,519,0,0,0,0,0,0,0,0,0,-1,664,505,0,0
-553,519,0,0,0,0,0,0,0,0,0,-1,671,505,0,0
-546,519,0,0,0,0,0,0,0,0,0,-1,678,505,0,0
-539,519,0,0,0,0,0,0,0,0,0,-1,685,505,0,0
-532,519,0,0,0,0,0,0,0,0,0,-1,692,505,0,0
-525,519,0,0,0,0,0,0,0,0,0,-1,699,505,0,0
-518,519,0,0,0,0,0,0,0,0,0,-1,706,505,0,0
-511,519,0,0,0,0,0,0,0,0,0,-1,713,505,0,0
-504,519,0,0,0,0,0,0,0,0,0,-1,720,505,0,0
-497,519,0,0,0,0,0,0,0,0,0,-1,727,505,0,0
-490,519,0,0,0,0,0,0,0,0,0,-1,734,505,0,0
-483,519,0,0,0,0,0,0,0,0,0,-1,741,505,0,0
-476,519,0,0,0,0,0,0,0,0,0,-1,748,505,0,0
-469,519,0,0,0,0,0,0,0,0,0,-1,755,505,0,0
-462,519,0,0,0,0,0,0,0,0,0,-1,762,505,0,0
-455,519,0,0,0,0,0,0,0,0,0,-1,769,505,0,0
-448,519,0,0,0,0,0,0,0,0,0,-1,776,505,0,0
-441,519,1.34839,-5.29346,0,0,0,0,0,0,0,-1,783,505,1.3484,5.29347
-434,519,0.949585,-5.77313,0,0,0,0,0,0,0,-1,790,505,0.949598,5.77315
-427,519,-0.0523682,-9.31567,0,0,0,0,0,0,0,-1,797,505,-0.0523854,9.31568
-420,519,-2.38867,-12.1938,0,0,0,0,0,0,0,-1,804,505,-2.38867,12.1938
-413,519,-2.2298,-12.4998,0,0,0,0,0,0,0,-1,811,505,-2.22979,12.4998
-406,519,-1.44373,-12.3475,0,0,0,0,0,0,0,-1,818,505,-1.44376,12.3475
-399,519,-1.60516,-15.0849,0,0,0,0,0,0,0,-1,825,505,-1.60518,15.0849
-392,519,-1.8584,-22.2639,0,0,0,0,0,0,0,-1,832,505,-1.85839,22.2639
-385,519,-2.15265,-23.6061,0,0,0,0,0,0,0,-1,839,505,-2.15268,23.6061
-378,519,-2.43195,-23.9841,0.00865801,0.0268916,-0.0148192,0.0351738,0.000375817,-1.06116,0.0233249,0.0384936,846,505,-2.43192,23.9841
-371,519,-2.2323,-25.1049,0.00744433,0.0228363,-0.0126071,0.0299108,0.000369809,-1.05943,0.0198184,0.0201044,853,505,-2.23231,25.1049
-364,519,-2.24164,-26.0802,0.00610038,0.0189322,-0.0103547,0.0246976,0.000334975,-1.06276,0.0163546,0.0121216,860,505,-2.24164,26.0802
-357,519,-2.23956,-26.9125,0.00478098,0.0152582,-0.00830016,0.0198347,0.00020452,-1.0669,0.0131555,0.0117249,867,505,-2.23954,26.9126
-350,519,-2.27435,-27.6631,0.00359944,0.011914,-0.00643557,0.0154183,9.51635e-05,-1.07217,0.0102473,0.014206,874,505,-2.27433,27.6631
-343,519,-2.36743,-28.3851,0.00263472,0.0088917,-0.00480349,0.0114957,3.07662e-05,-1.07404,0.00765354,0.0182888,881,505,-2.36743,28.3851
-336,519,-2.44525,-29.1422,0.00183918,0.00626899,-0.00337632,0.00809206,1.61002e-05,-1.07569,0.00538935,0.0175286,888,505,-2.44528,29.1421
-329,519,-2.43707,-29.9288,0.00124304,0.00407722,-0.00217077,0.0052525,6.776e-05,-1.07457,0.0034793,0.0138967,895,505,-2.43707,29.9288
-322,519,-2.45593,-30.6802,0.000786314,0.00208879,-0.00106788,0.00268834,0.000186763,-1.05921,0.00173333,0.0112246,902,505,-2.45593,30.6803
-315,519,-2.49359,-31.4297,0.000618223,0.000606215,-0.000217484,0.000829786,0.000394652,-0.771599,0.000479267,0.00950291,909,505,-2.49362,31.4297
-308,519,-2.53522,-32.1926,0.00068952,-0.000446638,0.000390492,0.000810787,-0.000567905,0.301107,0.000800095,0.00856733,916,505,-2.53523,32.1926
-301,519,-2.59326,-32.9049,0.000885591,-0.00114482,0.000851357,0.00119532,-0.00145455,0.348921,0.00153234,0.0136225,923,505,-2.59324,32.9049
-294,519,-2.60492,-33.5799,0.00112736,-0.00166525,0.00133744,0.00166455,-0.00220244,0.381934,0.00223979,0.016683,930,505,-2.60489,33.5799
-287,519,-2.6676,-34.2762,0.00130365,-0.00244509,0.00188128,0.00208493,-0.00322637,0.393618,0.00308999,0.0119584,937,505,-2.66759,34.2762
-280,519,-2.70923,-35.0039,0.000417276,-0.00595313,0.00270942,0.00141376,-0.00694961,0.352429,0.00516918,0.0227472,944,505,-2.70923,35.0039
-273,519,-2.70813,-35.7381,0,0,0,0,0,0,0,-1,951,505,-2.70811,35.7381
-266,519,-2.69739,-36.5153,0,0,0,0,0,0,0,-1,958,505,-2.69737,36.5153
-259,519,-2.52734,-37.3109,0,0,0,0,0,0,0,-1,965,505,-2.52733,37.3108
-252,519,-1.84009,-26.8372,0,0,0,0,0,0,0,-1,972,505,-1.8401,26.8372
-245,519,-1.23254,-23.2696,0,0,0,0,0,0,0,-1,979,505,-1.23256,23.2696
-238,519,-2.41553,-36.6689,0,0,0,0,0,0,0,-1,986,505,-2.41555,36.6689
-231,519,-2.65894,-37.4721,0,0,0,0,0,0,0,-1,993,505,-2.65894,37.4721
-224,519,-2.99048,-37.9957,0,0,0,0,0,0,0,-1,1000,505,-2.9905,37.9957
-217,519,-2.87396,-38.149,0,0,0,0,0,0,0,-1,1007,505,-2.87394,38.149
-210,519,-0.883362,-34.799,0,0,0,0,0,0,0,-1,1014,505,-0.883379,34.799
-203,519,-0.513611,-5.39017,0,0,0,0,0,0,0,-1,1021,505,-0.513585,5.39017
-196,519,-0.374023,-5.41635,0,0,0,0,0,0,0,-1,1028,505,-0.374047,5.41635
-189,519,-0.234497,-5.44254,0,0,0,0,0,0,0,-1,1035,505,-0.234508,5.44253
-182,519,2.76697,-1.19659,0,0,0,0,0,0,0,-1,1042,505,2.76696,1.19661
-175,519,2.31323,-0.960938,0,0,0,0,0,0,0,-1,1049,505,2.31319,0.960941
-168,519,2.01074,-0.721405,0,0,0,0,0,0,0,-1,1056,505,2.01072,0.721407
-161,519,2.32056,-0.522339,0,0,0,0,0,0,0,-1,1063,505,2.32057,0.522328
-154,519,2.55566,0.116669,0,0,0,0,0,0,0,-1,1070,505,2.55563,-0.116661
-147,519,-0.55127,-6.14001,0,0,0,0,0,0,0,-1,1077,505,-0.551252,6.14001
-140,519,0.240601,-7.53503,0,0,0,0,0,0,0,-1,1084,505,0.240653,7.53501
-133,519,2.70911,-4.4516,0,0,0,0,0,0,0,-1,1091,505,2.70915,4.45161
-126,519,0,0,0,0,0,0,0,0,0,-1,1098,505,0,0
-119,519,0,0,0,0,0,0,0,0,0,-1,1105,505,0,0
-112,519,0,0,0,0,0,0,0,0,0,-1,1112,505,0,0
-105,519,0,0,0,0,0,0,0,0,0,-1,1119,505,0,0
-98,519,0,0,0,0,0,0,0,0,0,-1,1126,505,0,0
-91,519,0,0,0,0,0,0,0,0,0,-1,1133,505,0,0
-84,519,0,0,0,0,0,0,0,0,0,-1,1140,505,0,0
-77,519,0,0,0,0,0,0,0,0,0,-1,1147,505,0,0
-70,519,0,0,0,0,0,0,0,0,0,-1,1154,505,0,0
-63,519,0,0,0,0,0,0,0,0,0,-1,1161,505,0,0
-56,519,0,0,0,0,0,0,0,0,0,-1,1168,505,0,0
-49,519,0,0,0,0,0,0,0,0,0,-1,1175,505,0,0
-42,519,0,0,0,0,0,0,0,0,0,-1,1182,505,0,0
-35,519,0,0,0,0,0,0,0,0,0,-1,1189,505,0,0
-28,519,0,0,0,0,0,0,0,0,0,-1,1196,505,0,0
-21,519,0,0,0,0,0,0,0,0,0,-1,1203,505,0,0
-14,519,0,0,0,0,0,0,0,0,0,-1,1210,505,0,0
-7,519,0,0,0,0,0,0,0,0,0,-1,1217,505,0,0
0,519,0,0,0,0,0,0,0,0,0,-1,1224,505,0,0
7,519,0,0,0,0,0,0,0,0,0,-1,1231,505,0,0
14,519,0,0,0,0,0,0,0,0,0,-1,1238,505,0,0
21,519,0,0,0,0,0,0,0,0,0,-1,1245,505,0,0
28,519,0,0,0,0,0,0,0,0,0,-1,1252,505,0,0
35,519,0,0,0,0,0,0,0,0,0,-1,1259,505,0,0
42,519,0,0,0,0,0,0,0,0,0,-1,1266,505,0,0
49,519,0,0,0,0,0,0,0,0,0,-1,1273,505,0,0
56,519,0,0,0,0,0,0,0,0,0,-1,1280,505,0,0
63,519,0,0,0,0,0,0,0,0,0,-1,1287,505,0,0
70,519,0,0,0,0,0,0,0,0,0,-1,1294,505,0,0
77,519,0,0,0,0,0,0,0,0,0,-1,1301,505,0,0
84,519,0,0,0,0,0,0,0,0,0,-1,1308,505,0,0
91,519,0,0,0,0,0,0,0,0,0,-1,1315,505,0,0
98,519,0,0,0,0,0,0,0,0,0,-1,1322,505,0,0
105,519,0,0,0,0,0,0,0,0,0,-1,1329,505,0,0
112,519,0,0,0,0,0,0,0,0,0,-1,1336,505,0,0
119,519,0,0,0,0,0,0,0,0,0,-1,1343,505,0,0
126,519,0,0,0,0,0,0,0,0,0,-1,1350,505,0,0
133,519,0,0,0,0,0,0,0,0,0,-1,1357,505,0,0
140,519,0,0,0,0,0,0,0,0,0,-1,1364,505,0,0
147,519,0,0,0,0,0,0,0,0,0,-1,1371,505,0,0
154,519,0,0,0,0,0,0,0,0,0,-1,1378,505,0,0
161,519,0,0,0,0,0,0,0,0,0,-1,1385,505,0,0
168,519,0,0,0,0,0,0,0,0,0,-1,1392,505,0,0
175,519,0,0,0,0,0,0,0,0,0,-1,1399,505,0,0
182,519,0,0,0,0,0,0,0,0,0,-1,1406,505,0,0
189,519,0,0,0,0,0,0,0,0,0,-1,1413,505,0,0
196,519,0,0,0,0,0,0,0,0,0,-1,1420,505,0,0
203,519,0,0,0,0,0,0,0,0,0,-1,1427,505,0,0
210,519,0,0,0,0,0,0,0,0,0,-1,1434,505,0,0
217,519,0,0,0,0,0,0,0,0,0,-1,1441,505,0,0
224,519,0,0,0,0,0,0,0,0,0,-1,1448,505,0,0
231,519,0,0,0,0,0,0,0,0,0,-1,1455,505,0,0
238,519,0,0,0,0,0,0,0,0,0,-1,1462,505,0,0
245,519,0,0,0,0,0,0,0,0,0,-1,1469,505,0,0
252,519,5.26208,0.0938416,0,0,0,0,0,0,0,-1,1476,505,5.26207,-0.0938493
259,519,6.14246,-1.36441,0,0,0,0,0,0,0,-1,1483,505,6.14241,1.36441
266,519,5.31909,-0.400787,0,0,0,0,0,0,0,-1,1490,505,5.31912,0.400773
273,519,4.02393,0.325531,0,0,0,0,0,0,0,-1,1497,505,4.0239,-0.325522
280,519,4.68848,0.53006,0,0,0,0,0,0,0,-1,1504,505,4.68842,-0.530073
287,519,7.9519,-3.80801,0,0,0,0,0,0,0,-1,1511,505,7.95193,3.808
294,519,6.92273,-3.38889,0,0,0,0,0,0,0,-1,1518,505,6.92268,3.38888
301,519,5.35669,-2.92661,0,0,0,0,0,0,0,-1,1525,505,5.35675,2.9266
308,519,7.37549,-5.64529,0,0,0,0,0,0,0,-1,1532,505,7.3755,5.64529
315,519,6.30029,-4.53754,0,0,0,0,0,0,0,-1,1539,505,6.30024,4.53753
322,519,5.84302,-5.45117,0,0,0,0,0,0,0,-1,1546,505,5.84303,5.45116
329,519,4.92407,0.62384,0,0,0,0,0,0,0,-1,1553,505,4.92403,-0.623832
336,519,3.10095,-0.329285,0,0,0,0,0,0,0,-1,1560,505,3.1009,0.329283
343,519,2.49146,-2.31119,0,0,0,0,0,0,0,-1,1567,505,2.49145,2.31119
350,519,3.47729,-2.22516,0,0,0,0,0,0,0,-1,1574,505,3.47726,2.22515
357,519,13.271,-29.6344,0,0,0,0,0,0,0,-1,1581,505,13.271,29.6344
364,519,12.8292,-28.3627,0,0,0,0,0,0,0,-1,1588,505,12.8292,28.3627
371,519,12.3875,-27.0911,0,0,0,0,0,0,0,-1,1595,505,12.3874,27.091
378,519,6.36597,-10.0967,0,0,0,0,0,0,0,-1,1602,505,6.36597,10.0967
385,519,6.24756,-9.72186,0,0,0,0,0,0,0,-1,1609,505,6.24752,9.72183
392,519,16.0774,-36.1788,0,0,0,0,0,0,0,-1,1616,505,16.0774,36.1787
399,519,15.9664,-35.1521,0,0,0,0,0,0,0,-1,1623,505,15.9665,35.1521
406,519,16.0306,-34.397,0.000706683,0.000860405,-0.00173292,0.00251817,-0.000951078,-0.80756,0.00206996,0.0335625,1630,505,16.0306,34.397
413,519,16.0757,-33.6876,0.00117553,0.00116368,-0.00107121,0.00224083,9.83785e-05,-0.782632,0.0014622,0.0163394,1637,505,16.0757,33.6876
420,519,15.9967,-32.9274,0.00134287,0.00126774,-0.000645331,0.00195173,0.000658881,-0.756323,0.00114647,0.0171576,1644,505,15.9968,32.9274
427,519,15.983,-32.2062,0.00133141,0.00134102,-0.000248053,0.00158431,0.00108812,-0.795091,0.000935742,0.0153622,1651,505,15.983,32.2062
434,519,15.9313,-31.4512,0.00125475,0.00134256,7.8041e-05,0.0013882,0.00120911,1.04163,0.00087192,0.0141549,1658,505,15.9313,31.4513
441,519,15.871,-30.6731,0.00119617,0.00146009,0.000429934,0.00177786,0.000878398,0.934302,0.00102647,0.0133559,1665,505,15.871,30.6731
448,519,15.8556,-29.9464,0.00117688,0.0014909,0.000796856,0.00214607,0.000521712,0.882672,0.0012924,0.00991641,1672,505,15.8556,29.9464
455,519,15.8052,-29.215,0.00107346,0.00165194,0.00109459,0.00249486,0.000230539,0.914569,0.00159197,0.0108523,1679,505,15.8051,29.2151
462,519,15.7983,-28.4531,0.00101582,0.00185561,0.00137887,0.00287711,-5.67629e-06,0.933198,0.00191997,0.0105744,1686,505,15.7983,28.4532
469,519,15.7897,-27.6714,0.00105386,0.00212868,0.00171141,0.00338508,-0.000202534,0.93753,0.00232717,0.0115218,1693,505,15.7896,27.6715
476,519,15.7614,-26.8798,0.000934182,0.002469,0.00206969,0.00390897,-0.000505788,0.962933,0.0027899,0.0137066,1700,505,15.7614,26.8797
483,519,15.7091,-26.0847,0.000913106,0.00284796,0.00248805,0.00455005,-0.000788981,0.970818,0.00332769,0.0141365,1707,505,15.7091,26.0846
490,519,15.6667,-25.2552,0.000826199,0.00326477,0.00297563,0.00526123,-0.00117026,0.979843,0.00395571,0.0123261,1714,505,15.6668,25.2552
497,519,15.6265,-24.5591,0.000625796,0.00355116,0.00329918,0.00569737,-0.00152041,0.994052,0.00439363,0.0301784,1721,505,15.6265,24.5591
504,519,15.6123,-23.6216,0,0,0,0,0,0,0,-1,1728,505,15.6123,23.6216
511,519,15.5542,-22.826,0,0,0,0,0,0,0,-1,1735,505,15.5543,22.826
518,519,15.5471,-21.8598,0,0,0,0,0,0,0,-1,1742,505,15.5471,21.8598
525,519,15.5179,-20.0994,0,0,0,0,0,0,0,-1,1749,505,15.518,20.0994
532,519,15.825,-19.0025,0,0,0,0,0,0,0,-1,1756,505,15.8249,19.0025
539,519,16.5902,-16.8075,0,0,0,0,0,0,0,-1,1763,505,16.5903,16.8075
546,519,12.4001,-16.5616,0,0,0,0,0,0,0,-1,1770,505,12.4002,16.5616
553,519,4.14136,0.0667419,0,0,0,0,0,0,0,-1,1777,505,4.14141,-0.0667503
560,519,3.77856,0.279724,0,0,0,0,0,0,0,-1,1784,505,3.77861,-0.279731
567,519,0,0,0,0,0,0,0,0,0,-1,1791,505,0,0
574,519,0,0,0,0,0,0,0,0,0,-1,1798,505,0,0
581,519,0,0,0,0,0,0,0,0,0,-1,1805,505,0,0
588,519,0,0,0,0,0,0,0,0,0,-1,1812,505,0,0
595,519,0,0,0,0,0,0,0,0,0,-1,1819,505,0,0
602,519,0,0,0,0,0,0,0,0,0,-1,1826,505,0,0
609,519,0,0,0,0,0,0,0,0,0,-1,1833,505,0,0
616,519,0,0,0,0,0,0,0,0,0,-1,1840,505,0,0
623,519,0,0,0,0,0,0,0,0,0,-1,1847,505,0,0
630,519,0,0,0,0,0,0,0,0,0,-1,1854,505,0,0
637,519,0,0,0,0,0,0,0,0,0,-1,1861,505,0,0
644,519,0,0,0,0,0,0,0,0,0,-1,1868,505,0,0
651,519,0,0,0,0,0,0,0,0,0,-1,1875,505,0,0
658,519,0,0,0,0,0,0,0,0,0,-1,1882,505,0,0
665,519,0,0,0,0,0,0,0,0,0,-1,1889,505,0,0
672,519,0,0,0,0,0,0,0,0,0,-1,1896,505,0,0
679,519,0,0,0,0,0,0,0,0,0,-1,1903,505,0,0
686,519,0,0,0,0,0,0,0,0,0,-1,1910,505,0,0
693,519,0,0,0,0,0,0,0,0,0,-1,1917,505,0,0
700,519,0,0,0,0,0,0,0,0,0,-1,1924,505,0,0
707,519,0,0,0,0,0,0,0,0,0,-1,1931,505,0,0
714,519,0,0,0,0,0,0,0,0,0,-1,1938,505,0,0
721,519,0,0,0,0,0,0,0,0,0,-1,1945,505,0,0
728,519,0,0,0,0,0,0,0,0,0,-1,1952,505,0,0
735,519,0,0,0,0,0,0,0,0,0,-1,1959,505,0,0
742,519,0,0,0,0,0,0,0,0,0,-1,1966,505,0,0
749,519,0,0,0,0,0,0,0,0,0,-1,1973,505,0,0
756,519,0,0,0,0,0,0,0,0,0,-1,1980,505,0,0
763,519,0,0,0,0,0,0,0,0,0,-1,1987,505,0,0
770,519,0,0,0,0,0,0,0,0,0,-1,1994,505,0,0
777,519,0,0,0,0,0,0,0,0,0,-1,2001,505,0,0
784,519,0,0,0,0,0,0,0,0,0,-1,2008,505,0,0
791,519,0,0,0,0,0,0,0,0,0,-1,2015,505,0,0
798,519,0,0,0,0,0,0,0,0,0,-1,2022,505,0,0
805,519,0,0,0,0,0,0,0,0,0,-1,2029,505,0,0
812,519,0,0,0,0,0,0,0,0,0,-1,2036,505,0,0
-700,512,0,0,0,0,0,0,0,0,0,-1,524,512,0,0
-693,512,0,0,0,0,0,0,0,0,0,-1,531,512,0,0
-686,512,0,0,0,0,0,0,0,0,0,-1,538,512,0,0
-679,512,0,0,0,0,0,0,0,0,0,-1,545,512,0,0
-672,512,0,0,0,0,0,0,0,0,0,-1,552,512,0,0
-665,512,0,0,0,0,0,0,0,0,0,-1,559,512,0,0
-658,512,0,0,0,0,0,0,0,0,0,-1,566,512,0,0
-651,512,0,0,0,0,0,0,0,0,0,-1,573,512,0,0
-644,512,0,0,0,0,0,0,0,0,0,-1,580,512,0,0
-637,512,0,0,0,0,0,0,0,0,0,-1,587,512,0,0
-630,512,0,0,0,0,0,0,0,0,0,-1,594,512,0,0
-623,512,0,0,0,0,0,0,0,0,0,-1,601,512,0,0
-616,512,0,0,0,0,0,0,0,0,0,-1,608,512,0,0
-609,512,0,0,0,0,0,0,0,0,0,-1,615,512,0,0
-602,512,0,0,0,0,0,0,0,0,0,-1,622,512,0,0
-595,512,0,0,0,0,0,0,0,0,0,-1,629,512,0,0
-588,512,0,0,0,0,0,0,0,0,0,-1,636,512,0,0
-581,512,0,0,0,0,0,0,0,0,0,-1,643,512,0,0
-574,512,0,0,0,0,0,0,0,0,0,-1,650,512,0,0
-567,512,0,0,0,0,0,0,0,0,0,-1,657,512,0,0
-560,512,0,0,0,0,0,0,0,0,0,-1,664,512,0,0
-553,512,0,0,0,0,0,0,0,0,0,-1,671,512,0,0
-546,512,0,0,0,0,0,0,0,0,0,-1,678,512,0,0
-539,512,0,0,0,0,0,0,0,0,0,-1,685,512,0,0
-532,512,0,0,0,0,0,0,0,0,0,-1,692,512,0,0
-525,512,0,0,0,0,0,0,0,0,0,-1,699,512,0,0
-518,512,0,0,0,0,0,0,0,0,0,-1,706,512,0,0
-511,512,0,0,0,0,0,0,0,0,0,-1,713,512,0,0
-504,512,0,0,0,0,0,0,0,0,0,-1,720,512,0,0
-497,512,0,0,0,0,0,0,0,0,0,-1,727,512,0,0
-490,512,0,0,0,0,0,0,0,0,0,-1,734,512,0,0
-483,512,0,0,0,0,0,0,0,0,0,-1,741,512,0,0
-476,512,0,0,0,0,0,0,0,0,0,-1,748,512,0,0
-469,512,0,0,0,0,0,0,0,0,0,-1,755,512,0,0
-462,512,0,0,0,0,0,0,0,0,0,-1,762,512,0,0
-455,512,0,0,0,0,0,0,0,0,0,-1,769,512,0,0
-448,512,1.96283,-4.15674,0,0,0,0,0,0,0,-1,776,512,1.96285,4.15677
-441,512,1.78198,-4.88824,0,0,0,0,0,0,0,-1,783,512,1.78201,4.88826
-434,512,0.0726929,-9.85822,0,0,0,0,0,0,0,-1,790,512,0.0727008,9.85819
-427,512,-0.384583,-9.94824,0,0,0,0,0,0,0,-1,797,512,-0.384552,9.94823
-420,512,-2.93219,-12.4855,0,0,0,0,0,0,0,-1,804,512,-2.93219,12.4855
-413,512,-2.22711,-11.4485,0,0,0,0,0,0,0,-1,811,512,-2.22712,11.4485
-406,512,-2.38037,-13.5743,0,0,0,0,0,0,0,-1,818,512,-2.38034,13.5743
-399,512,-3.0528,-21.3155,0,0,0,0,0,0,0,-1,825,512,-3.05277,21.3155
-392,512,-2.84955,-22.9155,0,0,0,0,0,0,0,-1,832,512,-2.84953,22.9155
-385,512,-2.8996,-23.655,0.00668143,0.0237402,-0.0132787,0.0309928,-0.000571243,-1.07088,0.0208549,0.0230731,839,512,-2.89963,23.655
-378,512,-2.93011,-24.4296,0.00606167,0.0203466,-0.0115266,0.0267642,-0.000355981,-1.06277,0.0179627,0.0176917,846,512,-2.93013,24.4295
-371,512,-2.94171,-25.2571,0.00535547,0.0171666,-0.00983681,0.0227344,-0.000212348,-1.05574,0.0152275,0.0140126,853,512,-2.94174,25.2571
-364,512,-2.97296,-26.1382,0.00450419,0.014038,-0.00805984,0.0186351,-9.28938e-05,-1.05245,0.0124545,0.0108269,860,512,-2.97295,26.1382
-357,512,-2.99524,-26.8999,0.00364165,0.0111473,-0.00639668,0.0148108,-2.17939e-05,-1.05068,0.00988112,0.0113211,867,512,-2.99523,26.8999
-350,512,-3.03729,-27.6294,0.00286477,0.00848023,-0.00488978,0.0113111,3.3943e-05,-1.04602,0.00752942,0.0121658,874,512,-3.03732,27.6294
-343,512,-3.12524,-28.3588,0.00218894,0.00599043,-0.00352564,0.00809505,8.43187e-05,-1.03262,0.00536882,0.0151011,881,512,-3.12527,28.3587
-336,512,-3.18311,-29.1489,0.00159493,0.00378279,-0.00229294,0.00522938,0.000148345,-1.00797,0.00343787,0.0162179,888,512,-3.18308,29.1489
-329,512,-3.17694,-29.908,0.00115955,0.00192308,-0.00124286,0.00284149,0.000241141,-0.934407,0.00181928,0.0172013,895,512,-3.17697,29.908
-322,512,-3.20642,-30.642,0.000858525,0.000265207,-0.000303226,0.000986074,0.000137658,-0.398172,0.00061664,0.0137486,902,512,-3.2064,30.642
-315,512,-3.23413,-31.4048,0.000802756,-0.000949713,0.000407568,0.000892906,-0.00103986,0.217684,0.00111696,0.0112611,909,512,-3.23416,31.4048
-308,512,-3.2912,-32.144,0.00105957,-0.00172744,0.000877807,0.001313,-0.00198087,0.281067,0.00191471,0.0114875,916,512,-3.29117,32.144
-301,512,-3.34772,-32.8637,0.00133953,-0.00218341,0.00129372,0.00176357,-0.00260745,0.316739,0.00253924,0.0165507,923,512,-3.34771,32.8637
-294,512,-3.33826,-33.5451,0.00151751,-0.0025593,0.00178733,0.00219013,-0.00323192,0.359933,0.00314962,0.0164961,930,512,-3.33828,33.5451
-287,512,-3.48242,-34.1334,0.00160623,-0.00331656,0.00233349,0.00253654,-0.00424686,0.379364,0.00395768,0.0329162,937,512,-3.48243,34.1333
-280,512,-3.42664,-34.9794,0,0,0,0,0,0,0,-1,944,512,-3.42666,34.9794
-273,512,-2.90118,-34.7153,0,0,0,0,0,0,0,-1,951,512,-2.90121,34.7153
-266,512,-2.33594,-25.9839,0,0,0,0,0,0,0,-1,958,512,-2.33592,25.9839
-259,512,-0.525452,-14.0815,0,0,0,0,0,0,0,-1,965,512,-0.525475,14.0815
-252,512,1.45941,-3.43475,0,0,0,0,0,0,0,-1,972,512,1.45938,3.43475
-245,512,-1.6731,-22.8959,0,0,0,0,0,0,0,-1,979,512,-1.67312,22.8959
-238,512,0.227051,-8.92969,0,0,0,0,0,0,0,-1,986,512,0.227073,8.92968
-231,512,-3.05359,-36.4794,0,0,0,0,0,0,0,-1,993,512,-3.05359,36.4794
-224,512,-1.29974,-33.6304,0,0,0,0,0,0,0,-1,1000,512,-1.29974,33.6304
-217,512,-0.963196,-34.1697,0,0,0,0,0,0,0,-1,1007,512,-0.963226,34.1697
-210,512,-3.76642,-1.94702,0,0,0,0,0,0,0,-1,1014,512,-3.76641,1.94702
-203,512,-2.48328,-5.19061,0,0,0,0,0,0,0,-1,1021,512,-2.48328,5.19059
-196,512,-1.14929,-4.63202,0,0,0,0,0,0,0,-1,1028,512,-1.14934,4.632
-189,512,0.197998,4.55505,0,0,0,0,0,0,0,-1,1035,512,0.197996,-4.55506
-182,512,2.73938,0.0778503,0,0,0,0,0,0,0,-1,1042,512,2.73944,-0.077852
-175,512,2.29565,0.209808,0,0,0,0,0,0,0,-1,1049,512,2.29565,-0.209813
-168,512,2.09399,-0.302856,0,0,0,0,0,0,0,-1,1056,512,2.09403,0.302826
-161,512,2.76636,0.0921021,0,0,0,0,0,0,0,-1,1063,512,2.76633,-0.0921104
-154,512,3.41382,0.466187,0,0,0,0,0,0,0,-1,1070,512,3.41382,-0.466178
-147,512,0,0,0,0,0,0,0,0,0,-1,1077,512,0,0
-140,512,0,0,0,0,0,0,0,0,0,-1,1084,512,0,0
-133,512,0,0,0,0,0,0,0,0,0,-1,1091,512,0,0
-126,512,0,0,0,0,0,0,0,0,0,-1,1098,512,0,0
-119,512,0,0,0,0,0,0,0,0,0,-1,1105,512,0,0
-112,512,0,0,0,0,0,0,0,0,0,-1,1112,512,0,0
-105,512,0,0,0,0,0,0,0,0,0,-1,1119,512,0,0
-98,512,0,0,0,0,0,0,0,0,0,-1,1126,512,0,0
-91,512,0,0,0,0,0,0,0,0,0,-1,1133,512,0,0
-84,512,0,0,0,0,0,0,0,0,0,-1,1140,512,0,0
-77,512,0,0,0,0,0,0,0,0,0,-1,1147,512,0,0
-70,512,0,0,0,0,0,0,0,0,0,-1,1154,512,0,0
-63,512,0,0,0,0,0,0,0,0,0,-1,1161,512,0,0
-56,512,0,0,0,0,0,0,0,0,0,-1,1168,512,0,0
-49,512,0,0,0,0,0,0,0,0,0,-1,1175,512,0,0
-42,512,0,0,0,0,0,0,0,0,0,-1,1182,512,0,0
-35,512,0,0,0,0,0,0,0,0,0,-1,1189,512,0,0
-28,512,0,0,0,0,0,0,0,0,0,-1,1196,512,0,0
-21,512,0,0,0,0,0,0,0,0,0,-1,1203,512,0,0
-14,512,0,0,0,0,0,0,0,0,0,-1,1210,512,0,0
-7,512,0,0,0,0,0,0,0,0,0,-1,1217,512,0,0
0,512,0,0,0,0,0,0,0,0,0,-1,1224,512,0,0
7,512,0,0,0,0,0,0,0,0,0,-1,1231,512,0,0
14,512,0,0,0,0,0,0,0,0,0,-1,1238,512,0,0
21,512,0,0,0,0,0,0,0,0,0,-1,1245,512,0,0
28,512,0,0,0,0,0,0,0,0,0,-1,1252,512,0,0
35,512,0,0,0,0,0,0,0,0,0,-1,1259,512,0,0
42,512,0,0,0,0,0,0,0,0,0,-1,1266,512,0,0
49,512,0,0,0,0,0,0,0,0,0,-1,1273,512,0,0
56,512,0,0,0,0,0,0,0,0,0,-1,1280,512,0,0
63,512,0,0,0,0,0,0,0,0,0,-1,1287,512,0,0
70,512,0,0,0,0,0,0,0,0,0,-1,1294,512,0,0
77,512,0,0,0,0,0,0,0,0,0,-1,1301,512,0,0
84,512,0,0,0,0,0,0,0,0,0,-1,1308,512,0,0
91,512,0,0,0,0,0,0,0,0,0,-1,1315,512,0,0
98,512,0,0,0,0,0,0,0,0,0,-1,1322,512,0,0
105,512,0,0,0,0,0,0,0,0,0,-1,1329,512,0,0
112,512,0,0,0,0,0,0,0,0,0,-1,1336,512,0,0
119,512,0,0,0,0,0,0,0,0,0,-1,1343,512,0,0
126,512,0,0,0,0,0,0,0,0,0,-1,1350,512,0,0
133,512,0,0,0,0,0,0,0,0,0,-1,1357,512,0,0
140,512,0,0,0,0,0,0,0,0,0,-1,1364,512,0,0
147,512,0,0,0,0,0,0,0,0,0,-1,1371,512,0,0
154,512,0,0,0,0,0,0,0,0,0,-1,1378,512,0,0
161,512,0,0,0,0,0,0,0,0,0,-1,1385,512,0,0
168,512,0,0,0,0,0,0,0,0,0,-1,1392,512,0,0
175,512,0,0,0,0,0,0,0,0,0,-1,1399,512,0,0
182,512,0,0,0,0,0,0,0,0,0,-1,1406,512,0,0
189,512,0,0,0,0,0,0,0,0,0,-1,1413,512,0,0
196,512,0,0,0,0,0,0,0,0,0,-1,1420,512,0,0
203,512,0,0,0,0,0,0,0,0,0,-1,1427,512,0,0
210,512,0,0,0,0,0,0,0,0,0,-1,1434,512,0,0
217,512,0,0,0,0,0,0,0,0,0,-1,1441,512,0,0
224,512,0,0,0,0,0,0,0,0,0,-1,1448,512,0,0
231,512,0,0,0,0,0,0,0,0,0,-1,1455,512,0,0
238,512,0,0,0,0,0,0,0,0,0,-1,1462,512,0,0
245,512,0,0,0,0,0,0,0,0,0,-1,1469,512,0,0
252,512,0,0,0,0,0,0,0,0,0,-1,1476,512,0,0
259,512,0,0,0,0,0,0,0,0,0,-1,1483,512,0,0
266,512,0,0,0,0,0,0,0,0,0,-1,1490,512,0,0
273,512,4.00745,0.618622,0,0,0,0,0,0,0,-1,1497,512,4.00747,-0.618611
280,512,4.49609,0.649841,0,0,0,0,0,0,0,-1,1504,512,4.49612,-0.649834
287,512,4.77234,0.458069,0,0,0,0,0,0,0,-1,1511,512,4.77233,-0.458083
294,512,8.54956,-2.36273,0,0,0,0,0,0,0,-1,1518,512,8.54952,2.36274
301,512,6.302,-1.69092,0,0,0,0,0,0,0,-1,1525,512,6.30196,1.69093
308,512,8.2439,-6.22754,0,0,0,0,0,0,0,-1,1532,512,8.24394,6.22757
315,512,7.53687,-6.04211,0,0,0,0,0,0,0,-1,1539,512,7.53691,6.04211
322,512,6.82983,-5.85663,0,0,0,0,0,0,0,-1,1546,512,6.82988,5.85666
329,512,4.38147,-0.329651,0,0,0,0,0,0,0,-1,1553,512,4.38144,0.329662
336,512,4.41467,-0.741455,0,0,0,0,0,0,0,-1,1560,512,4.41467,0.741442
343,512,4.44727,-1.21667,0,0,0,0,0,0,0,-1,1567,512,4.44732,1.21666
350,512,4.55469,-1.65082,0,0,0,0,0,0,0,-1,1574,512,4.5547,1.65083
357,512,5.79993,-2.67456,0,0,0,0,0,0,0,-1,1581,512,5.79991,2.67454
364,512,13.118,-28.5485,0,0,0,0,0,0,0,-1,1588,512,13.1181,28.5485
371,512,5.28467,-7.69269,0,0,0,0,0,0,0,-1,1595,512,5.28464,7.69269
378,512,6.29407,-9.88055,0,0,0,0,0,0,0,-1,1602,512,6.29412,9.88057
385,512,6.45569,-9.32233,0,0,0,0,0,0,0,-1,1609,512,6.45565,9.3223
392,512,6.35522,-8.98425,0,0,0,0,0,0,0,-1,1616,512,6.35526,8.98422
399,512,16.9089,-33.7311,0,0,0,0,0,0,0,-1,1623,512,16.9089,33.7311
406,512,16.8358,-34.497,0,0,0,0,0,0,0,-1,1630,512,16.8358,34.497
413,512,16.8882,-33.7506,0,0,0,0,0,0,0,-1,1637,512,16.8882,33.7506
420,512,16.7903,-32.9591,0.00207385,0.00117316,-0.00089621,0.0026265,0.00062051,-0.552575,0.00158518,0.0275544,1644,512,16.7903,32.9591
427,512,16.755,-32.1776,0.00194458,0.00111085,-0.000551756,0.00221925,0.000836189,-0.461884,0.00129418,0.0165544,1651,512,16.755,32.1776
434,512,16.6976,-31.4258,0.00171834,0.00100311,-0.000318937,0.0018399,0.000881551,-0.364148,0.00106257,0.0129281,1658,512,16.6977,31.4259
441,512,16.6354,-30.651,0.00153806,0.00104707,-4.69495e-05,0.00154251,0.00104262,-0.0944797,0.000908759,0.0143934,1665,512,16.6354,30.651
448,512,16.6033,-29.9282,0.00145412,0.001047,0.000288118,0.00160333,0.000897785,0.477852,0.000927901,0.00962671,1672,512,16.6032,29.9281
455,512,16.5586,-29.1708,0.00129945,0.00120591,0.000556096,0.00181074,0.000694619,0.743446,0.00105483,0.00939813,1679,512,16.5586,29.1708
462,512,16.536,-28.3915,0.00118098,0.00142212,0.000831772,0.00214201,0.000461084,0.857375,0.00130182,0.0105735,1686,512,16.536,28.3916
469,512,16.5175,-27.6146,0.00117125,0.00170433,0.00117409,0.00264176,0.000233823,0.897014,0.00168864,0.0121267,1693,512,16.5174,27.6146
476,512,16.4791,-26.829,0.00104617,0.00204836,0.00154318,0.00316977,-7.52351e-05,0.942384,0.0021387,0.0144932,1700,512,16.4792,26.829
483,512,16.4496,-26.028,0.00101796,0.0024011,0.00196511,0.00379278,-0.000373719,0.954592,0.00266185,0.0138597,1707,512,16.4496,26.028
490,512,16.4368,-25.261,0.000916092,0.00281118,0.00242441,0.00446664,-0.000739366,0.971688,0.00325235,0.011415,1714,512,16.4368,25.261
497,512,16.3799,-24.4625,0.00074375,0.0031288,0.00277787,0.0049593,-0.00108675,0.988149,0.00372172,0.0124142,1721,512,16.3799,24.4625
504,512,16.3104,-23.6414,0.000517092,0.00351299,0.00313512,0.00548964,-0.00145956,1.00826,0.00423104,0.0148309,1728,512,16.3104,23.6414
511,512,16.2443,-22.8066,0.000155848,0.00392184,0.003562,0.00606793,-0.00199024,1.02854,0.00484688,0.0216197,1735,512,16.2442,22.8066
518,512,16.3008,-21.993,-0.000362181,0.00450926,0.00397784,0.00673787,-0.00259079,1.06011,0.00556048,0.0281273,1742,512,16.3008,21.993
525,512,16.2754,-20.8183,0,0,0,0,0,0,0,-1,1749,512,16.2753,20.8183
532,512,16.6807,-19.0635,0,0,0,0,0,0,0,-1,1756,512,16.6807,19.0635
539,512,12.6367,-16.4022,0,0,0,0,0,0,0,-1,1763,512,12.6367,16.4021
546,512,2.77551,-0.66449,0,0,0,0,0,0,0,-1,1770,512,2.77548,0.664503
553,512,3.927,-0.448853,0,0,0,0,0,0,0,-1,1777,512,3.92704,0.448843
560,512,3.55762,-0.201233,0,0,0,0,0,0,0,-1,1784,512,3.55768,0.201259
567,512,3.09045,0.191193,0,0,0,0,0,0,0,-1,1791,512,3.09045,-0.191203
574,512,0,0,0,0,0,0,0,0,0,-1,1798,512,0,0
581,512,0,0,0,0,0,0,0,0,0,-1,1805,512,0,0
588,512,0,0,0,0,0,0,0,0,0,-1,1812,512,0,0
595,512,0,0,0,0,0,0,0,0,0,-1,1819,512,0,0
602,512,0,0,0,0,0,0,0,0,0,-1,1826,512,0,0
609,512,0,0,0,0,0,0,0,0,0,-1,1833,512,0,0
616,512,0,0,0,0,0,0,0,0,0,-1,1840,512,0,0
623,512,0,0,0,0,0,0,0,0,0,-1,1847,512,0,0
630,512,0,0,0,0,0,0,0,0,0,-1,1854,512,0,0
637,512,0,0,0,0,0,0,0,0,0,-1,1861,512,0,0
644,512,0,0,0,0,0,0,0,0,0,-1,1868,512,0,0
651,512,0,0,0,0,0,0,0,0,0,-1,1875,512,0,0
658,512,0,0,0,0,0,0,0,0,0,-1,1882,512,0,0
665,512,0,0,0,0,0,0,0,0,0,-1,1889,512,0,0
672,512,0,0,0,0,0,0,0,0,0,-1,1896,512,0,0
679,512,0,0,0,0,0,0,0,0,0,-1,1903,512,0,0
686,512,0,0,0,0,0,0,0,0,0,-1,1910,512,0,0
693,512,0,0,0,0,0,0,0,0,0,-1,1917,512,0,0
700,512,0,0,0,0,0,0,0,0,0,-1,1924,512,0,0
707,512,0,0,0,0,0,0,0,0,0,-1,1931,512,0,0
714,512,0,0,0,0,0,0,0,0,0,-1,1938,512,0,0
721,512,0,0,0,0,0,0,0,0,0,-1,1945,512,0,0
728,512,0,0,0,0,0,0,0,0,0,-1,1952,512,0,0
735,512,0,0,0,0,0,0,0,0,0,-1,1959,512,0,0
742,512,0,0,0,0,0,0,0,0,0,-1,1966,512,0,0
749,512,0,0,0,0,0,0,0,0,0,-1,1973,512,0,0
756,512,0,0,0,0,0,0,0,0,0,-1,1980,512,0,0
763,512,0,0,0,0,0,0,0,0,0,-1,1987,512,0,0
770,512,0,0,0,0,0,0,0,0,0,-1,1994,512,0,0
777,512,0,0,0,0,0,0,0,0,0,-1,2001,512,0,0
784,512,0,0,0,0,0,0,0,0,0,-1,2008,512,0,0
791,512,0,0,0,0,0,0,0,0,0,-1,2015,512,0,0
798,512,0,0,0,0,0,0,0,0,0,-1,2022,512,0,0
805,512,0,0,0,0,0,0,0,0,0,-1,2029,512,0,0
812,512,0,0,0,0,0,0,0,0,0,-1,2036,512,0,0
-700,505,0,0,0,0,0,0,0,0,0,-1,524,519,0,0
-693,505,0,0,0,0,0,0,0,0,0,-1,531,519,0,0
-686,505,0,0,0,0,0,0,0,0,0,-1,538,519,0,0
-679,505,0,0,0,0,0,0,0,0,0,-1,545,519,0,0
-672,505,0,0,0,0,0,0,0,0,0,-1,552,519,0,0
-665,505,0,0,0,0,0,0,0,0,0,-1,559,519,0,0
-658,505,0,0,0,0,0,0,0,0,0,-1,566,519,0,0
-651,505,0,0,0,0,0,0,0,0,0,-1,573,519,0,0
-644,505,0,0,0,0,0,0,0,0,0,-1,580,519,0,0
-637,505,0,0,0,0,0,0,0,0,0,-1,587,519,0,0
-630,505,0,0,0,0,0,0,0,0,0,-1,594,519,0,0
-623,505,0,0,0,0,0,0,0,0,0,-1,601,519,0,0
-616,505,0,0,0,0,0,0,0,0,0,-1,608,519,0,0
-609,505,0,0,0,0,0,0,0,0,0,-1,615,519,0,0
-602,505,0,0,0,0,0,0,0,0,0,-1,622,519,0,0
-595,505,0,0,0,0,0,0,0,0,0,-1,629,519,0,0
-588,505,0,0,0,0,0,0,0,0,0,-1,636,519,0,0
-581,505,0,0,0,0,0,0,0,0,0,-1,643,519,0,0
-574,505,0,0,0,0,0,0,0,0,0,-1,650,519,0,0
-567,505,0,0,0,0,0,0,0,0,0,-1,657,519,0,0
-560,505,0,0,0,0,0,0,0,0,0,-1,664,519,0,0
-553,505,0,0,0,0,0,0,0,0,0,-1,671,519,0,0
-546,505,0,0,0,0,0,0,0,0,0,-1,678,519,0,0
-539,505,0,0,0,0,0,0,0,0,0,-1,685,519,0,0
-532,505,0,0,0,0,0,0,0,0,0,-1,692,519,0,0
-525,505,0,0,0,0,0,0,0,0,0,-1,699,519,0,0
-518,505,0,0,0,0,0,0,0,0,0,-1,706,519,0,0
-511,505,0,0,0,0,0,0,0,0,0,-1,713,519,0,0
-504,505,0,0,0,0,0,0,0,0,0,-1,720,519,0,0
-497,505,0,0,0,0,0,0,0,0,0,-1,727,519,0,0
-490,505,0,0,0,0,0,0,0,0,0,-1,734,519,0,0
-483,505,0,0,0,0,0,0,0,0,0,-1,741,519,0,0
-476,505,0,0,0,0,0,0,0,0,0,-1,748,519,0,0
-469,505,0,0,0,0,0,0,0,0,0,-1,755,519,0,0
-462,505,0,0,0,0,0,0,0,0,0,-1,762,519,0,0
-455,505,2.72137,-3.26379,0,0,0,0,0,0,0,-1,769,519,2.72135,3.26377
-448,505,2.51111,-3.94989,0,0,0,0,0,0,0,-1,776,519,2.51112,3.94986
-441,505,2.80212,-6.8902,0,0,0,0,0,0,0,-1,783,519,2.80209,6.89019
-434,505,-0.155212,-10.6374,0,0,0,0,0,0,0,-1,790,519,-0.155194,10.6374
-427,505,-0.474426,-10.4702,0,0,0,0,0,0,0,-1,797,519,-0.474433,10.4702
-420,505,-0.922546,-10.1928,0,0,0,0,0,0,0,-1,804,519,-0.92257,10.1928
-413,505,-3.33948,-13.6183,0,0,0,0,0,0,0,-1,811,519,-3.33949,13.6184
-406,505,-3.2439,-18.3408,0,0,0,0,0,0,0,-1,818,519,-3.24389,18.3408
-399,505,-3.49341,-21.7271,0,0,0,0,0,0,0,-1,825,519,-3.49339,21.7271
-392,505,-3.55487,-22.8018,0.00472969,0.0206796,-0.0115612,0.0267496,-0.00134038,-1.08732,0.0182962,0.0269455,832,519,-3.55488,22.8018
-385,505,-3.62933,-23.6644,0.00450725,0.0178129,-0.0101704,0.0233131,-0.000992986,-1.07504,0.0158834,0.0111564,839,519,-3.62931,23.6644
-378,505,-3.6734,-24.4723,0.00423361,0.0151557,-0.00883659,0.0200825,-0.000693253,-1.06217,0.0136253,0.0118114,846,519,-3.67343,24.4723
-371,505,-3.68439,-25.2991,0.00382889,0.0125495,-0.00752558,0.0168867,-0.000508303,-1.04797,0.011431,0.0137478,853,519,-3.68438,25.2991
-364,505,-3.72791,-26.1111,0.00329264,0.00992698,-0.00609997,0.0135534,-0.000333762,-1.03443,0.00914887,0.014713,860,519,-3.72792,26.1111
-357,505,-3.75092,-26.8873,0.00274839,0.00755724,-0.00473046,0.0104593,-0.00015364,-1.02053,0.00702462,0.012615,867,519,-3.75091,26.8873
-350,505,-3.81982,-27.6268,0.00226989,0.00537955,-0.00350107,0.00765551,-6.07129e-06,-0.994367,0.0051057,0.0120144,874,519,-3.81982,27.6268
-343,505,-3.87164,-28.3698,0.00181321,0.00329979,-0.00234792,0.00501926,9.37385e-05,-0.938694,0.00331537,0.0113421,881,519,-3.87166,28.3697
-336,505,-3.91284,-29.1317,0.00138556,0.00142422,-0.00126589,0.00267092,0.000138851,-0.793033,0.00173618,0.0148698,888,519,-3.91282,29.1317
-329,505,-3.92456,-29.8568,0.00110509,-0.000150623,-0.000330813,0.00118691,-0.000232444,-0.242465,0.000879057,0.0195534,895,519,-3.92453,29.8567
-322,505,-3.95941,-30.6111,0.000981165,-0.00146261,0.000470001,0.00106844,-0.00154989,0.183603,0.00152019,0.0224001,902,519,-3.95943,30.6112
-315,505,-4.00378,-31.3658,0.00106301,-0.00236581,0.00106258,0.0013656,-0.0026684,0.277424,0.00236917,0.0164056,909,519,-4.0038,31.3658
-308,505,-4.04218,-32.0734,0.00153955,-0.0027892,0.00140769,0.00195706,-0.00320671,0.288325,0.00301026,0.0126359,916,519,-4.04217,32.0734
-301,505,-4.06641,-32.8079,0.00194772,-0.00288957,0.00180993,0.00254995,-0.0034918,0.321214,0.0035023,0.0186605,923,519,-4.0664,32.8079
-294,505,-4.06952,-33.4999,0,0,0,0,0,0,0,-1,930,519,-4.06955,33.4999
-287,505,-4.19556,-34.2606,0,0,0,0,0,0,0,-1,937,519,-4.19554,34.2606
-280,505,-2.79846,-27.7252,0,0,0,0,0,0,0,-1,944,519,-2.79845,27.7252
-273,505,-0.0680542,-9.44867,0,0,0,0,0,0,0,-1,951,519,-0.0680462,9.44866
-266,505,-0.036377,-9.07922,0,0,0,0,0,0,0,-1,958,519,-0.0364055,9.0792
-259,505,0.10321,-6.69824,0,0,0,0,0,0,0,-1,965,519,0.103235,6.69826
-252,505,6.82312,-15.6972,0,0,0,0,0,0,0,-1,972,519,6.82314,15.6972
-245,505,4.26727,-12.9861,0,0,0,0,0,0,0,-1,979,519,4.2673,12.9861
-238,505,1.67432,-11.2307,0,0,0,0,0,0,0,-1,986,519,1.67429,11.2307
-231,505,-0.958435,-8.3075,0,0,0,0,0,0,0,-1,993,519,-0.958421,8.30751
-224,505,-1.46399,-33.4399,0,0,0,0,0,0,0,-1,1000,519,-1.46397,33.4399
-217,505,-6.34302,-1.65533,0,0,0,0,0,0,0,-1,1007,519,-6.34299,1.65535
-210,505,-3.06128,-0.396301,0,0,0,0,0,0,0,-1,1014,519,-3.06129,0.396294
-203,505,-4.26465,2.03607,0,0,0,0,0,0,0,-1,1021,519,-4.26462,-2.03606
-196,505,-5.47595,4.27295,0,0,0,0,0,0,0,-1,1028,519,-5.47597,-4.27292
-189,505,1.51526,5.56207,0,0,0,0,0,0,0,-1,1035,519,1.51523,-5.56209
-182,505,2.97815,7.5097,0,0,0,0,0,0,0,-1,1042,519,2.97812,-7.5097
-175,505,-2.38416,-2.17548,0,0,0,0,0,0,0,-1,1049,519,-2.38411,2.1755
-168,505,0,0,0,0,0,0,0,0,0,-1,1056,519,0,0
-161,505,0,0,0,0,0,0,0,0,0,-1,1063,519,0,0
-154,505,0,0,0,0,0,0,0,0,0,-1,1070,519,0,0
-147,505,0,0,0,0,0,0,0,0,0,-1,1077,519,0,0
-140,505,0,0,0,0,0,0,0,0,0,-1,1084,519,0,0
-133,505,0,0,0,0,0,0,0,0,0,-1,1091,519,0,0
-126,505,0,0,0,0,0,0,0,0,0,-1,1098,519,0,0
-119,505,0,0,0,0,0,0,0,0,0,-1,1105,519,0,0
-112,505,0,0,0,0,0,0,0,0,0,-1,1112,519,0,0
-105,505,0,0,0,0,0,0,0,0,0,-1,1119,519,0,0
-98,505,0,0,0,0,0,0,0,0,0,-1,1126,519,0,0
-91,505,0,0,0,0,0,0,0,0,0,-1,1133,519,0,0
-84,505,0,0,0,0,0,0,0,0,0,-1,1140,519,0,0
-77,505,0,0,0,0,0,0,0,0,0,-1,1147,519,0,0
-70,505,0,0,0,0,0,0,0,0,0,-1,1154,519,0,0
-63,505,0,0,0,0,0,0,0,0,0,-1,1161,519,0,0
-56,505,0,0,0,0,0,0,0,0,0,-1,1168,519,0,0
-49,505,0,0,0,0,0,0,0,0,0,-1,1175,519,0,0
-42,505,0,0,0,0,0,0,0,0,0,-1,1182,519,0,0
-35,505,0,0,0,0,0,0,0,0,0,-1,1189,519,0,0
-28,505,0,0,0,0,0,0,0,0,0,-1,1196,519,0,0
-21,505,0,0,0,0,0,0,0,0,0,-1,1203,519,0,0
-14,505,0,0,0,0,0,0,0,0,0,-1,1210,519,0,0
-7,505,0,0,0,0,0,0,0,0,0,-1,1217,519,0,0
0,505,0,0,0,0,0,0,0,0,0,-1,1224,519,0,0
7,505,0,0,0,0,0,0,0,0,0,-1,1231,519,0,0
14,505,0,0,0,0,0,0,0,0,0,-1,1238,519,0,0
21,505,0,0,0,0,0,0,0,0,0,-1,1245,519,0,0
28,505,0,0,0,0,0,0,0,0,0,-1,1252,519,0,0
35,505,0,0,0,0,0,0,0,0,0,-1,1259,519,0,0
42,505,0,0,0,0,0,0,0,0,0,-1,1266,519,0,0
49,505,0,0,0,0,0,0,0,0,0,-1,1273,519,0,0
56,505,0,0,0,0,0,0,0,0,0,-1,1280,519,0,0
63,505,0,0,0,0,0,0,0,0,0,-1,1287,519,0,0
70,505,0,0,0,0,0,0,0,0,0,-1,1294,519,0,0
77,505,0,0,0,0,0,0,0,0,0,-1,1301,519,0,0
84,505,0,0,0,0,0,0,0,0,0,-1,1308,519,0,0
91,505,0,0,0,0,0,0,0,0,0,-1,1315,519,0,0
98,505,0,0,0,0,0,0,0,0,0,-1,1322,519,0,0
105,505,0,0,0,0,0,0,0,0,0,-1,1329,519,0,0
112,505,0,0,0,0,0,0,0,0,0,-1,1336,519,0,0
119,505,0,0,0,0,0,0,0,0,0,-1,1343,519,0,0
126,505,0,0,0,0,0,0,0,0,0,-1,1350,519,0,0
133,505,0,0,0,0,0,0,0,0,0,-1,1357,519,0,0
140,505,0,0,0,0,0,0,0,0,0,-1,1364,519,0,0
147,505,0,0,0,0,0,0,0,0,0,-1,1371,519,0,0
154,505,0,0,0,0,0,0,0,0,0,-1,1378,519,0,0
161,505,0,0,0,0,0,0,0,0,0,-1,1385,519,0,0
168,505,0,0,0,0,0,0,0,0,0,-1,1392,519,0,0
175,505,0,0,0,0,0,0,0,0,0,-1,1399,519,0,0
182,505,0,0,0,0,0,0,0,0,0,-1,1406,519,0,0
189,505,0,0,0,0,0,0,0,0,0,-1,1413,519,0,0
196,505,0,0,0,0,0,0,0,0,0,-1,1420,519,0,0
203,505,0,0,0,0,0,0,0,0,0,-1,1427,519,0,0
210,505,0,0,0,0,0,0,0,0,0,-1,1434,519,0,0
217,505,0,0,0,0,0,0,0,0,0,-1,1441,519,0,0
224,505,0,0,0,0,0,0,0,0,0,-1,1448,519,0,0
231,505,0,0,0,0,0,0,0,0,0,-1,1455,519,0,0
238,505,0,0,0,0,0,0,0,0,0,-1,1462,519,0,0
245,505,0,0,0,0,0,0,0,0,0,-1,1469,519,0,0
252,505,0,0,0,0,0,0,0,0,0,-1,1476,519,0,0
259,505,0,0,0,0,0,0,0,0,0,-1,1483,519,0,0
266,505,0,0,0,0,0,0,0,0,0,-1,1490,519,0,0
273,505,0,0,0,0,0,0,0,0,0,-1,1497,519,0,0
280,505,0,0,0,0,0,0,0,0,0,-1,1504,519,0,0
287,505,4.39478,0.499512,0,0,0,0,0,0,0,-1,1511,519,4.39476,-0.499506
294,505,4.88867,0.0822754,0,0,0,0,0,0,0,-1,1518,519,4.88871,-0.0822748
301,505,4.82153,-0.0704346,0,0,0,0,0,0,0,-1,1525,519,4.82156,0.0704312
308,505,4.67761,-0.29187,0,0,0,0,0,0,0,-1,1532,519,4.67762,0.291845
315,505,8.44055,-6.54352,0,0,0,0,0,0,0,-1,1539,519,8.44059,6.54349
322,505,4.78955,-0.594116,0,0,0,0,0,0,0,-1,1546,519,4.78957,0.594096
329,505,5.16321,0.434631,0,0,0,0,0,0,0,-1,1553,519,5.16316,-0.434614
336,505,4.94495,-0.920471,0,0,0,0,0,0,0,-1,1560,519,4.945,0.920495
343,505,5.01855,-1.4823,0,0,0,0,0,0,0,-1,1567,519,5.01851,1.48227
350,505,5.33154,-1.77838,0,0,0,0,0,0,0,-1,1574,519,5.33152,1.77838
357,505,5.56567,-1.9425,0,0,0,0,0,0,0,-1,1581,519,5.56562,1.94248
364,505,5.85205,-2.6579,0,0,0,0,0,0,0,-1,1588,519,5.85211,2.65788
371,505,5.88477,-7.00922,0,0,0,0,0,0,0,-1,1595,519,5.88473,7.00924
378,505,5.44104,-7.10162,0,0,0,0,0,0,0,-1,1602,519,5.44099,7.10162
385,505,6.64661,-8.65015,0,0,0,0,0,0,0,-1,1609,519,6.64662,8.65014
392,505,6.34558,-8.3429,0,0,0,0,0,0,0,-1,1616,519,6.34554,8.34288
399,505,7.45898,-9.70386,0,0,0,0,0,0,0,-1,1623,519,7.45899,9.70388
406,505,7.08679,-9.4928,0,0,0,0,0,0,0,-1,1630,519,7.08678,9.49278
413,505,8.4032,-14.0308,0,0,0,0,0,0,0,-1,1637,519,8.4032,14.0308
420,505,17.5275,-33.1156,0,0,0,0,0,0,0,-1,1644,519,17.5275,33.1156
427,505,17.5255,-32.2863,0.0021096,0.000821651,-0.00101114,0.00266442,0.00026683,-0.50185,0.00169436,0.0309269,1651,519,17.5256,32.2863
434,505,17.4542,-31.4032,0.00181761,0.000607029,-0.000866881,0.00226961,0.00015503,-0.480627,0.00146413,0.0136635,1658,519,17.4542,31.4032
441,505,17.4332,-30.6063,0.00161968,0.000561187,-0.000654665,0.00193227,0.000248596,-0.445471,0.00121383,0.0121088,1665,519,17.4332,30.6063
448,505,17.3833,-29.873,0.00158843,0.000548042,-0.00030892,0.00167324,0.000463229,-0.267945,0.000997604,0.0114362,1672,519,17.3832,29.873
455,505,17.3347,-29.1135,0.00150665,0.000724362,-1.23711e-05,0.00150684,0.000724167,-0.0158088,0.000870195,0.0117049,1679,519,17.3347,29.1135
462,505,17.293,-28.3391,0.00143186,0.00097622,0.000315913,0.00159353,0.00081455,0.473008,0.000920102,0.0118749,1686,519,17.2929,28.3391
469,505,17.2745,-27.5762,0.00146249,0.00129817,0.000726369,0.00211133,0.000649327,0.729083,0.00124871,0.011336,1693,519,17.2745,27.5762
476,505,17.2274,-26.8016,0.00141746,0.00168061,0.00116108,0.00271755,0.000380527,0.841818,0.00169912,0.011416,1700,519,17.2274,26.8016
483,505,17.2145,-26.0099,0.00143569,0.00204989,0.0016362,0.00340756,7.80229e-05,0.878165,0.00224615,0.0127351,1707,519,17.2144,26.0099
490,505,17.1992,-25.2418,0.00133589,0.00250536,0.00211348,0.0041135,-0.000272254,0.920357,0.00283744,0.012113,1714,519,17.1992,25.2418
497,505,17.1306,-24.4555,0.00115345,0.00290322,0.00252307,0.00469878,-0.000642109,0.952288,0.00336703,0.0127797,1721,519,17.1306,24.4555
504,505,17.0743,-23.6275,0.000907543,0.00325621,0.00292319,0.00523213,-0.00106837,0.976397,0.00389338,0.01355,1728,519,17.0743,23.6275
511,505,17.0297,-22.814,0.000465557,0.0036586,0.00332118,0.00574707,-0.00162291,1.00945,0.00447162,0.0149855,1735,519,17.0297,22.8141
518,505,17.11,-22.0468,-0.000175635,0.00418076,0.00362211,0.00622918,-0.00222405,1.05611,0.00505978,0.0318464,1742,519,17.11,22.0468
525,505,16.9104,-21.1691,-0.00102748,0.00475057,0.00387556,0.00669543,-0.00297233,1.10569,0.00571799,0.0419232,1749,519,16.9104,21.1691
532,505,17.0607,-19.9504,0,0,0,0,0,0,0,-1,1756,519,17.0606,19.9504
539,505,13.9879,-13.9018,0,0,0,0,0,0,0,-1,1763,519,13.988,13.9018
546,505,7.94946,-6.64539,0,0,0,0,0,0,0,-1,1770,519,7.94947,6.64539
553,505,2.82837,0.162659,0,0,0,0,0,0,0,-1,1777,519,2.82841,-0.162672
560,505,3.66223,-0.479797,0,0,0,0,0,0,0,-1,1784,519,3.66219,0.47982
567,505,4.65271,-0.950256,0,0,0,0,0,0,0,-1,1791,519,4.65274,0.95028
574,505,5.54443,-1.19977,0,0,0,0,0,0,0,-1,1798,519,5.54443,1.19974
581,505,0,0,0,0,0,0,0,0,0,-1,1805,519,0,0
588,505,0,0,0,0,0,0,0,0,0,-1,1812,519,0,0
595,505,0,0,0,0,0,0,0,0,0,-1,1819,519,0,0
602,505,0,0,0,0,0,0,0,0,0,-1,1826,519,0,0
609,505,0,0,0,0,0,0,0,0,0,-1,1833,519,0,0
616,505,0,0,0,0,0,0,0,0,0,-1,1840,519,0,0
623,505,0,0,0,0,0,0,0,0,0,-1,1847,519,0,0
630,505,0,0,0,0,0,0,0,0,0,-1,1854,519,0,0
637,505,0,0,0,0,0,0,0,0,0,-1,1861,519,0,0
644,505,0,0,0,0,0,0,0,0,0,-1,1868,519,0,0
651,505,0,0,0,0,0,0,0,0,0,-1,1875,519,0,0
658,505,0,0,0,0,0,0,0,0,0,-1,1882,519,0,0
665,505,0,0,0,0,0,0,0,0,0,-1,1889,519,0,0
672,505,0,0,0,0,0,0,0,0,0,-1,1896,519,0,0
679,505,0,0,0,0,0,0,0,0,0,-1,1903,519,0,0
686,505,0,0,0,0,0,0,0,0,0,-1,1910,519,0,0
693,505,0,0,0,0,0,0,0,0,0,-1,1917,519,0,0
700,505,0,0,0,0,0,0,0,0,0,-1,1924,519,0,0
707,505,0,0,0,0,0,0,0,0,0,-1,1931,519,0,0
714,505,0,0,0,0,0,0,0,0,0,-1,1938,519,0,0
721,505,0,0,0,0,0,0,0,0,0,-1,1945,519,0,0
728,505,0,0,0,0,0,0,0,0,0,-1,1952,519,0,0
735,505,0,0,0,0,0,0,0,0,0,-1,1959,519,0,0
742,505,0,0,0,0,0,0,0,0,0,-1,1966,519,0,0
749,505,0,0,0,0,0,0,0,0,0,-1,1973,519,0,0
756,505,0,0,0,0,0,0,0,0,0,-1,1980,519,0,0
763,505,0,0,0,0,0,0,0,0,0,-1,1987,519,0,0
770,505,0,0,0,0,0,0,0,0,0,-1,1994,519,0,0
777,505,0,0,0,0,0,0,0,0,0,-1,2001,519,0,0
784,505,0,0,0,0,0,0,0,0,0,-1,2008,519,0,0
791,505,0,0,0,0,0,0,0,0,0,-1,2015,519,0,0
798,505,0,0,0,0,0,0,0,0,0,-1,2022,519,0,0
805,505,0,0,0,0,0,0,0,0,0,-1,2029,519,0,0
812,505,0,0,0,0,0,0,0,0,0,-1,2036,519,0,0
-700,498,0,0,0,0,0,0,0,0,0,-1,524,526,0,0
-693,498,0,0,0,0,0,0,0,0,0,-1,531,526,0,0
-686,498,0,0,0,0,0,0,0,0,0,-1,538,526,0,0
-679,498,0,0,0,0,0,0,0,0,0,-1,545,526,0,0
-672,498,0,0,0,0,0,0,0,0,0,-1,552,526,0,0
-665,498,0,0,0,0,0,0,0,0,0,-1,559,526,0,0
-658,498,0,0,0,0,0,0,0,0,0,-1,566,526,0,0
-651,498,0,0,0,0,0,0,0,0,0,-1,573,526,0,0
-644,498,0,0,0,0,0,0,0,0,0,-1,580,526,0,0
-637,498,0,0,0,0,0,0,0,0,0,-1,587,526,0,0
-630,498,0,0,0,0,0,0,0,0,0,-1,594,526,0,0
-623,498,0,0,0,0,0,0,0,0,0,-1,601,526,0,0
-616,498,0,0,0,0,0,0,0,0,0,-1,608,526,0,0
-609,498,0,0,0,0,0,0,0,0,0,-1,615,526,0,0
-602,498,0,0,0,0,0,0,0,0,0,-1,622,526,0,0
-595,498,0,0,0,0,0,0,0,0,0,-1,629,526,0,0
-588,498,0,0,0,0,0,0,0,0,0,-1,636,526,0,0
-581,498,0,0,0,0,0,0,0,0,0,-1,643,526,0,0
-574,498,0,0,0,0,0,0,0,0,0,-1,650,526,0,0
-567,498,0,0,0,0,0,0,0,0,0,-1,657,526,0,0
-560,498,0,0,0,0,0,0,0,0,0,-1,664,526,0,0
-553,498,0,0,0,0,0,0,0,0,0,-1,671,526,0,0
-546,498,0,0,0,0,0,0,0,0,0,-1,678,526,0,0
-539,498,0,0,0,0,0,0,0,0,0,-1,685,526,0,0
-532,498,0,0,0,0,0,0,0,0,0,-1,692,526,0,0
-525,498,0,0,0,0,0,0,0,0,0,-1,699,526,0,0
-518,498,0,0,0,0,0,0,0,0,0,-1,706,526,0,0
-511,498,0,0,0,0,0,0,0,0,0,-1,713,526,0,0
-504,498,0,0,0,0,0,0,0,0,0,-1,720,526,0,0
-497,498,0,0,0,0,0,0,0,0,0,-1,727,526,0,0
-490,498,0,0,0,0,0,0,0,0,0,-1,734,526,0,0
-483,498,0,0,0,0,0,0,0,0,0,-1,741,526,0,0
-476,498,0,0,0,0,0,0,0,0,0,-1,748,526,0,0
-469,498,0,0,0,0,0,0,0,0,0,-1,755,526,0,0
-462,498,6.81024,1.15515,0,0,0,0,0,0,0,-1,762,526,6.81026,-1.15514
-455,498,3.25757,-3.0592,0,0,0,0,0,0,0,-1,769,526,3.25754,3.05921
-448,498,3.05939,-3.74298,0,0,0,0,0,0,0,-1,776,526,3.05939,3.74296
-441,498,2.77191,-6.08209,0,0,0,0,0,0,0,-1,783,526,2.77189,6.08207
-434,498,2.10681,-6.95929,0,0,0,0,0,0,0,-1,790,526,2.10682,6.9593
-427,498,-0.368042,-10.7726,0,0,0,0,0,0,0,-1,797,526,-0.36807,10.7726
-420,498,-1.05035,-10.5142,0,0,0,0,0,0,0,-1,804,526,-1.05034,10.5142
-413,498,-4.52112,-18.8354,0,0,0,0,0,0,0,-1,811,526,-4.52111,18.8354
-406,498,-4.18475,-20.9882,0,0,0,0,0,0,0,-1,818,526,-4.18475,20.9881
-399,498,-4.23865,-21.9477,0.002844,0.0177711,-0.00961734,0.0224812,-0.00186611,-1.11538,0.0156466,0.0307643,825,526,-4.23865,21.9477
-392,498,-4.34125,-22.8422,0.00295544,0.0153563,-0.00864547,0.019795,-0.00148318,-1.09648,0.0137178,0.0162512,832,526,-4.34126,22.8422
-385,498,-4.39032,-23.6525,0.00301128,0.0130647,-0.00760062,0.0171505,-0.00107448,-1.07756,0.0118081,0.0106731,839,526,-4.39034,23.6525
-378,498,-4.41107,-24.4582,0.00297567,0.0109023,-0.00653711,0.0145837,-0.000705736,-1.05791,0.00996603,0.0117671,846,526,-4.4111,24.4582
-371,498,-4.43481,-25.2554,0.00278857,0.00873048,-0.00548068,0.0119937,-0.000474604,-1.03377,0.00815857,0.016429,853,526,-4.43479,25.2554
-364,498,-4.48358,-26.05,0.00248437,0.00651046,-0.00431091,0.00925518,-0.00026035,-1.00383,0.00625871,0.0155188,860,526,-4.48359,26.05
-357,498,-4.5022,-26.824,0.00217636,0.00453298,-0.00317782,0.00674391,-3.45714e-05,-0.962936,0.00450751,0.0118942,867,526,-4.50218,26.824
-350,498,-4.5661,-27.5729,0.00192116,0.00272855,-0.00217994,0.00454186,0.000107848,-0.876954,0.0029926,0.0121362,874,526,-4.56613,27.5729
-343,498,-4.6217,-28.3727,0.00162084,0.000976861,-0.0012132,0.00255406,4.36453e-05,-0.655686,0.00168834,0.0151206,881,526,-4.62169,28.3728
-336,498,-4.64374,-29.1401,0.00130328,-0.000639124,-0.000274038,0.0013412,-0.000677045,-0.137507,0.00118608,0.0189113,888,526,-4.64372,29.1402
-329,498,-4.646,-29.8078,0.00112592,-0.00200022,0.000543984,0.00121788,-0.00209218,0.167456,0.00193315,0.0239274,895,526,-4.64599,29.8078
-322,498,-4.69086,-30.5627,0.00113639,-0.00300519,0.00118003,0.001449,-0.00331781,0.258976,0.00282174,0.0262873,902,526,-4.69083,30.5627
-315,498,-4.76349,-31.309,0.00130481,-0.00363416,0.001622,0.00178985,-0.0041192,0.290576,0.00349883,0.019874,909,526,-4.76351,31.309
-308,498,-4.77521,-32.0322,0.00196629,-0.00374004,0.00179967,0.00248646,-0.00426021,0.281367,0.00393981,0.0210106,916,526,-4.77521,32.0323
-301,498,-4.69989,-32.8109,0.00247707,-0.00350524,0.00218098,0.00318777,-0.00421594,0.315009,0.00428825,0.0417915,923,526,-4.69988,32.8109
-294,498,-4.61902,-33.5894,0,0,0,0,0,0,0,-1,930,526,-4.61902,33.5894
-287,498,-0.91394,-13.4327,0,0,0,0,0,0,0,-1,937,526,-0.913935,13.4327
-280,498,-0.341614,-8.66608,0,0,0,0,0,0,0,-1,944,526,-0.341589,8.66606
-273,498,-0.988892,-8.62921,0,0,0,0,0,0,0,-1,951,526,-0.988906,8.62922
-266,498,0.362488,-6.33545,0,0,0,0,0,0,0,-1,958,526,0.362478,6.33547
-259,498,10.9454,-17.3615,0,0,0,0,0,0,0,-1,965,526,10.9454,17.3614
-252,498,8.56586,-14.6886,0,0,0,0,0,0,0,-1,972,526,8.56584,14.6886
-245,498,5.97382,-11.928,0,0,0,0,0,0,0,-1,979,526,5.97381,11.928
-238,498,2.24841,-13.8145,0,0,0,0,0,0,0,-1,986,526,2.24838,13.8145
-231,498,0.665894,-10.4898,0,0,0,0,0,0,0,-1,993,526,0.665863,10.4898
-224,498,-2.11243,-4.76312,0,0,0,0,0,0,0,-1,1000,526,-2.11245,4.76314
-217,498,-3.82239,-1.42841,0,0,0,0,0,0,0,-1,1007,526,-3.82241,1.42843
-210,498,-1.80591,-0.358215,0,0,0,0,0,0,0,-1,1014,526,-1.8059,0.3582
-203,498,-3.17316,1.06641,0,0,0,0,0,0,0,-1,1021,526,-3.17313,-1.0664
-196,498,-0.103271,5.40527,0,0,0,0,0,0,0,-1,1028,526,-0.103285,-5.40528
-189,498,3.00256,6.47137,0,0,0,0,0,0,0,-1,1035,526,3.00256,-6.47139
-182,498,0,0,0,0,0,0,0,0,0,-1,1042,526,0,0
-175,498,0,0,0,0,0,0,0,0,0,-1,1049,526,0,0
-168,498,0,0,0,0,0,0,0,0,0,-1,1056,526,0,0
-161,498,0,0,0,0,0,0,0,0,0,-1,1063,526,0,0
-154,498,0,0,0,0,0,0,0,0,0,-1,1070,526,0,0
-147,498,0,0,0,0,0,0,0,0,0,-1,1077,526,0,0
-140,498,0,0,0,0,0,0,0,0,0,-1,1084,526,0,0
-133,498,0,0,0,0,0,0,0,0,0,-1,1091,526,0,0
-126,498,0,0,0,0,0,0,0,0,0,-1,1098,526,0,0
-119,498,0,0,0,0,0,0,0,0,0,-1,1105,526,0,0
-112,498,0,0,0,0,0,0,0,0,0,-1,1112,526,0,0
-105,498,0,0,0,0,0,0,0,0,0,-1,1119,526,0,0
-98,498,0,0,0,0,0,0,0,0,0,-1,1126,526,0,0
-91,498,0,0,0,0,0,0,0,0,0,-1,1133,526,0,0
-84,498,0,0,0,0,0,0,0,0,0,-1,1140,526,0,0
-77,498,0,0,0,0,0,0,0,0,0,-1,1147,526,0,0
-70,498,0,0,0,0,0,0,0,0,0,-1,1154,526,0,0
-63,498,0,0,0,0,0,0,0,0,0,-1,1161,526,0,0
-56,498,0,0,0,0,0,0,0,0,0,-1,1168,526,0,0
-49,498,0,0,0,0,0,0,0,0,0,-1,1175,526,0,0
-42,498,0,0,0,0,0,0,0,0,0,-1,1182,526,0,0
-35,498,0,0,0,0,0,0,0,0,0,-1,1189,526,0,0
-28,498,0,0,0,0,0,0,0,0,0,-1,1196,526,0,0
-21,498,0,0,0,0,0,0,0,0,0,-1,1203,526,0,0
-14,498,0,0,0,0,0,0,0,0,0,-1,1210,526,0,0
-7,498,0,0,0,0,0,0,0,0,0,-1,1217,526,0,0
0,498,0,0,0,0,0,0,0,0,0,-1,1224,526,0,0
7,498,0,0,0,0,0,0,0,0,0,-1,1231,526,0,0
14,498,0,0,0,0,0,0,0,0,0,-1,1238,526,0,0
21,498,0,0,0,0,0,0,0,0,0,-1,1245,526,0,0
28,498,0,0,0,0,0,0,0,0,0,-1,1252,526,0,0
35,498,0,0,0,0,0,0,0,0,0,-1,1259,526,0,0
42,498,0,0,0,0,0,0,0,0,0,-1,1266,526,0,0
49,498,0,0,0,0,0,0,0,0,0,-1,1273,526,0,0
56,498,0,0,0,0,0,0,0,0,0,-1,1280,526,0,0
63,498,0,0,0,0,0,0,0,0,0,-1,1287,526,0,0
70,498,0,0,0,0,0,0,0,0,0,-1,1294,526,0,0
77,498,0,0,0,0,0,0,0,0,0,-1,1301,526,0,0
84,498,0,0,0,0,0,0,0,0,0,-1,1308,526,0,0
91,498,0,0,0,0,0,0,0,0,0,-1,1315,526,0,0
98,498,0,0,0,0,0,0,0,0,0,-1,1322,526,0,0
105,498,0,0,0,0,0,0,0,0,0,-1,1329,526,0,0
112,498,0,0,0,0,0,0,0,0,0,-1,1336,526,0,0
119,498,0,0,0,0,0,0,0,0,0,-1,1343,526,0,0
126,498,0,0,0,0,0,0,0,0,0,-1,1350,526,0,0
133,498,0,0,0,0,0,0,0,0,0,-1,1357,526,0,0
140,498,0,0,0,0,0,0,0,0,0,-1,1364,526,0,0
147,498,0,0,0,0,0,0,0,0,0,-1,1371,526,0,0
154,498,0,0,0,0,0,0,0,0,0,-1,1378,526,0,0
161,498,0,0,0,0,0,0,0,0,0,-1,1385,526,0,0
168,498,0,0,0,0,0,0,0,0,0,-1,1392,526,0,0
175,498,0,0,0,0,0,0,0,0,0,-1,1399,526,0,0
182,498,0,0,0,0,0,0,0,0,0,-1,1406,526,0,0
189,498,0,0,0,0,0,0,0,0,0,-1,1413,526,0,0
196,498,0,0,0,0,0,0,0,0,0,-1,1420,526,0,0
203,498,0,0,0,0,0,0,0,0,0,-1,1427,526,0,0
210,498,0,0,0,0,0,0,0,0,0,-1,1434,526,0,0
217,498,0,0,0,0,0,0,0,0,0,-1,1441,526,0,0
224,498,0,0,0,0,0,0,0,0,0,-1,1448,526,0,0
231,498,0,0,0,0,0,0,0,0,0,-1,1455,526,0,0
238,498,0,0,0,0,0,0,0,0,0,-1,1462,526,0,0
245,498,0,0,0,0,0,0,0,0,0,-1,1469,526,0,0
252,498,0,0,0,0,0,0,0,0,0,-1,1476,526,0,0
259,498,0,0,0,0,0,0,0,0,0,-1,1483,526,0,0
266,498,0,0,0,0,0,0,0,0,0,-1,1490,526,0,0
273,498,0,0,0,0,0,0,0,0,0,-1,1497,526,0,0
280,498,0,0,0,0,0,0,0,0,0,-1,1504,526,0,0
287,498,0,0,0,0,0,0,0,0,0,-1,1511,526,0,0
294,498,0,0,0,0,0,0,0,0,0,-1,1518,526,0,0
301,498,0,0,0,0,0,0,0,0,0,-1,1525,526,0,0
308,498,4.77942,-0.293884,0,0,0,0,0,0,0,-1,1532,526,4.77939,0.293899
315,498,4.56091,-0.564148,0,0,0,0,0,0,0,-1,1539,526,4.56097,0.564142
322,498,4.52344,-0.447266,0,0,0,0,0,0,0,-1,1546,526,4.52341,0.447295
329,498,4.63232,-0.156982,0,0,0,0,0,0,0,-1,1553,526,4.63238,0.156991
336,498,5.22644,0.0925903,0,0,0,0,0,0,0,-1,1560,526,5.22648,-0.0926188
343,498,6.22607,-1.67615,0,0,0,0,0,0,0,-1,1567,526,6.22605,1.67617
350,498,6.19373,-1.59906,0,0,0,0,0,0,0,-1,1574,526,6.19367,1.59906
357,498,6.21472,-1.58929,0,0,0,0,0,0,0,-1,1581,526,6.21476,1.58927
364,498,5.73547,-1.2019,0,0,0,0,0,0,0,-1,1588,526,5.73547,1.20192
371,498,3.27087,-4.55334,0,0,0,0,0,0,0,-1,1595,526,3.27089,4.55332
378,498,8.42944,-4.70624,0,0,0,0,0,0,0,-1,1602,526,8.42942,4.70624
385,498,4.7793,-5.15314,0,0,0,0,0,0,0,-1,1609,526,4.77935,5.15311
392,498,9.12439,-8.57953,0,0,0,0,0,0,0,-1,1616,526,9.12443,8.57955
399,498,7.98938,-9.46021,0,0,0,0,0,0,0,-1,1623,526,7.98936,9.4602
406,498,7.58081,-9.26819,0,0,0,0,0,0,0,-1,1630,526,7.58085,9.26817
413,498,7.17236,-9.07611,0,0,0,0,0,0,0,-1,1637,526,7.17234,9.07614
420,498,11.4314,-16.1147,0,0,0,0,0,0,0,-1,1644,526,11.4313,16.1147
427,498,17.9712,-32.0891,0,0,0,0,0,0,0,-1,1651,526,17.9712,32.0891
434,498,18.0923,-31.3705,0.00209618,0.000227227,-0.00132522,0.00278326,-0.000459852,-0.478311,0.00202626,0.0370897,1658,526,18.0923,31.3705
441,498,18.1787,-30.6053,0.0017873,9.7665e-05,-0.00119553,0.00240638,-0.000521417,-0.477811,0.00180336,0.0127137,1665,526,18.1787,30.6053
448,498,18.1687,-29.8177,0.00171873,8.85899e-05,-0.000865813,0.00209277,-0.000285445,-0.407788,0.00149941,0.0111643,1672,526,18.1688,29.8177
455,498,18.1167,-29.058,0.00160768,0.000274767,-0.000588422,0.00183027,5.2176e-05,-0.361647,0.00120316,0.015027,1679,526,18.1167,29.058
462,498,18.092,-28.3109,0.00146766,0.000527754,-0.000258795,0.0015342,0.000461208,-0.251684,0.000908944,0.0160383,1686,526,18.092,28.3109
469,498,18.0522,-27.5549,0.00143225,0.000833278,0.000150748,0.00146805,0.000797478,0.233166,0.000848632,0.0135706,1693,526,18.0522,27.5549
476,498,18.0277,-26.7767,0.0013875,0.00119395,0.000581964,0.00188068,0.000700769,0.703008,0.00109749,0.0107381,1700,526,18.0277,26.7767
483,498,17.9821,-25.9927,0.00136693,0.00152653,0.00104072,0.00249051,0.00040295,0.823663,0.00154365,0.00911101,1707,526,17.982,25.9927
490,498,17.9313,-25.2384,0.00121186,0.0019759,0.00148317,0.00312546,6.22984e-05,0.911444,0.00206319,0.0109596,1714,526,17.9313,25.2384
497,498,17.8889,-24.4282,0.00100212,0.00241572,0.00191556,0.00375072,-0.000332873,0.962138,0.0026185,0.0131556,1721,526,17.8889,24.4282
504,498,17.8624,-23.6003,0.00076268,0.00270571,0.00231947,0.00424891,-0.000780515,0.983725,0.00312543,0.01559,1728,526,17.8625,23.6003
511,498,17.8182,-22.7949,0.000334037,0.00306088,0.00269756,0.00472,-0.00132508,1.01939,0.003669,0.0169276,1735,526,17.8183,22.7949
518,498,17.8685,-21.9801,-0.000290476,0.00350053,0.00296924,0.00512772,-0.00191766,1.06948,0.00420603,0.0207077,1742,526,17.8685,21.9801
525,498,17.6892,-21.1947,-0.00101525,0.00396065,0.00322465,0.00554557,-0.00260017,1.11397,0.00480433,0.0342019,1749,526,17.6893,21.1947
532,498,17.6379,-20.3403,0,0,0,0,0,0,0,-1,1756,526,17.638,20.3403
539,498,17.2063,-19.0018,0,0,0,0,0,0,0,-1,1763,526,17.2063,19.0018
546,498,10.2014,-8.47589,0,0,0,0,0,0,0,-1,1770,526,10.2014,8.47589
553,498,5.93958,-1.71448,0,0,0,0,0,0,0,-1,1777,526,5.93956,1.71447
560,498,3.69385,-0.615112,0,0,0,0,0,0,0,-1,1784,526,3.69381,0.615118
567,498,5.12695,-0.581604,0,0,0,0,0,0,0,-1,1791,526,5.12699,0.58159
574,498,3.88,0.0286255,0,0,0,0,0,0,0,-1,1798,526,3.87999,-0.0286535
581,498,10.8722,2.58551,0,0,0,0,0,0,0,-1,1805,526,10.8723,-2.58551
588,498,0,0,0,0,0,0,0,0,0,-1,1812,526,0,0
595,498,0,0,0,0,0,0,0,0,0,-1,1819,526,0,0
602,498,0,0,0,0,0,0,0,0,0,-1,1826,526,0,0
609,498,0,0,0,0,0,0,0,0,0,-1,1833,526,0,0
616,498,0,0,0,0,0,0,0,0,0,-1,1840,526,0,0
623,498,0,0,0,0,0,0,0,0,0,-1,1847,526,0,0
630,498,0,0,0,0,0,0,0,0,0,-1,1854,526,0,0
637,498,0,0,0,0,0,0,0,0,0,-1,1861,526,0,0
644,498,0,0,0,0,0,0,0,0,0,-1,1868,526,0,0
651,498,0,0,0,0,0,0,0,0,0,-1,1875,526,0,0
658,498,0,0,0,0,0,0,0,0,0,-1,1882,526,0,0
665,498,0,0,0,0,0,0,0,0,0,-1,1889,526,0,0
672,498,0,0,0,0,0,0,0,0,0,-1,1896,526,0,0
679,498,0,0,0,0,0,0,0,0,0,-1,1903,526,0,0
686,498,0,0,0,0,0,0,0,0,0,-1,1910,526,0,0
693,498,0,0,0,0,0,0,0,0,0,-1,1917,526,0,0
700,498,0,0,0,0,0,0,0,0,0,-1,1924,526,0,0
707,498,0,0,0,0,0,0,0,0,0,-1,1931,526,0,0
714,498,0,0,0,0,0,0,0,0,0,-1,1938,526,0,0
721,498,0,0,0,0,0,0,0,0,0,-1,1945,526,0,0
728,498,0,0,0,0,0,0,0,0,0,-1,1952,526,0,0
735,498,0,0,0,0,0,0,0,0,0,-1,1959,526,0,0
742,498,0,0,0,0,0,0,0,0,0,-1,1966,526,0,0
749,498,0,0,0,0,0,0,0,0,0,-1,1973,526,0,0
756,498,0,0,0,0,0,0,0,0,0,-1,1980,526,0,0
763,498,0,0,0,0,0,0,0,0,0,-1,1987,526,0,0
770,498,0,0,0,0,0,0,0,0,0,-1,1994,526,0,0
777,498,0,0,0,0,0,0,0,0,0,-1,2001,526,0,0
784,498,0,0,0,0,0,0,0,0,0,-1,2008,526,0,0
791,498,0,0,0,0,0,0,0,0,0,-1,2015,526,0,0
798,498,0,0,0,0,0,0,0,0,0,-1,2022,526,0,0
805,498,0,0,0,0,0,0,0,0,0,-1,2029,526,0,0
812,498,0,0,0,0,0,0,0,0,0,-1,2036,526,0,0
-700,491,0,0,0,0,0,0,0,0,0,-1,524,533,0,0
-693,491,0,0,0,0,0,0,0,0,0,-1,531,533,0,0
-686,491,0,0,0,0,0,0,0,0,0,-1,538,533,0,0
-679,491,0,0,0,0,0,0,0,0,0,-1,545,533,0,0
-672,491,0,0,0,0,0,0,0,0,0,-1,552,533,0,0
-665,491,0,0,0,0,0,0,0,0,0,-1,559,533,0,0
-658,491,0,0,0,0,0,0,0,0,0,-1,566,533,0,0
-651,491,0,0,0,0,0,0,0,0,0,-1,573,533,0,0
-644,491,0,0,0,0,0,0,0,0,0,-1,580,533,0,0
-637,491,0,0,0,0,0,0,0,0,0,-1,587,533,0,0
-630,491,0,0,0,0,0,0,0,0,0,-1,594,533,0,0
-623,491,0,0,0,0,0,0,0,0,0,-1,601,533,0,0
-616,491,0,0,0,0,0,0,0,0,0,-1,608,533,0,0
-609,491,0,0,0,0,0,0,0,0,0,-1,615,533,0,0
-602,491,0,0,0,0,0,0,0,0,0,-1,622,533,0,0
-595,491,0,0,0,0,0,0,0,0,0,-1,629,533,0,0
-588,491,0,0,0,0,0,0,0,0,0,-1,636,533,0,0
-581,491,0,0,0,0,0,0,0,0,0,-1,643,533,0,0
-574,491,0,0,0,0,0,0,0,0,0,-1,650,533,0,0
-567,491,0,0,0,0,0,0,0,0,0,-1,657,533,0,0
-560,491,0,0,0,0,0,0,0,0,0,-1,664,533,0,0
-553,491,0,0,0,0,0,0,0,0,0,-1,671,533,0,0
-546,491,0,0,0,0,0,0,0,0,0,-1,678,533,0,0
-539,491,0,0,0,0,0,0,0,0,0,-1,685,533,0,0
-532,491,0,0,0,0,0,0,0,0,0,-1,692,533,0,0
-525,491,0,0,0,0,0,0,0,0,0,-1,699,533,0,0
-518,491,0,0,0,0,0,0,0,0,0,-1,706,533,0,0
-511,491,0,0,0,0,0,0,0,0,0,-1,713,533,0,0
-504,491,0,0,0,0,0,0,0,0,0,-1,720,533,0,0
-497,491,0,0,0,0,0,0,0,0,0,-1,727,533,0,0
-490,491,0,0,0,0,0,0,0,0,0,-1,734,533,0,0
-483,491,0,0,0,0,0,0,0,0,0,-1,741,533,0,0
-476,491,0,0,0,0,0,0,0,0,0,-1,748,533,0,0
-469,491,-5.85913,4.55011,0,0,0,0,0,0,0,-1,755,533,-5.8591,-4.55009
-462,491,-9.93713,4.90381,0,0,0,0,0,0,0,-1,762,533,-9.93716,-4.9038
-455,491,1.9494,-0.27887,0,0,0,0,0,0,0,-1,769,533,1.94941,0.27885
-448,491,2.68909,-1.8999,0,0,0,0,0,0,0,-1,776,533,2.6891,1.89988
-441,491,3.46069,-3.51855,0,0,0,0,0,0,0,-1,783,533,3.46071,3.51854
-434,491,2.67145,-7.44061,0,0,0,0,0,0,0,-1,790,533,2.67146,7.44061
-427,491,2.27136,-8.34546,0,0,0,0,0,0,0,-1,797,533,2.27136,8.34546
-420,491,-5.20007,-18.6488,0,0,0,0,0,0,0,-1,804,533,-5.20008,18.6488
-413,491,-4.93866,-20.1562,0,0,0,0,0,0,0,-1,811,533,-4.93868,20.1562
-406,491,-4.94318,-21.1877,0.00146575,0.0154726,-0.0079046,0.01903,-0.00209162,-1.14791,0.0134383,0.0292615,818,533,-4.9432,21.1877
-399,491,-5.00415,-22.0864,0.00167039,0.0132093,-0.00711051,0.0165966,-0.0017169,-1.12622,0.0116788,0.0132255,825,533,-5.00416,22.0864
-392,491,-5.10907,-22.9053,0.00186467,0.0111612,-0.00632087,0.0143589,-0.00133307,-1.10244,0.0100465,0.0113625,832,533,-5.10905,22.9052
-385,491,-5.15332,-23.6629,0.00204625,0.00925764,-0.00548956,0.0122198,-0.000915877,-1.07598,0.00846833,0.0100667,839,533,-5.15331,23.6629
-378,491,-5.15851,-24.4292,0.0021338,0.0074368,-0.00461454,0.0101074,-0.000536776,-1.04616,0.00692411,0.0150323,846,533,-5.15853,24.4292
-371,491,-5.19641,-25.1983,0.00208186,0.00559102,-0.00374032,0.00796785,-0.000294969,-1.00471,0.0054129,0.0155791,853,533,-5.19643,25.1983
-364,491,-5.24786,-25.9842,0.00193446,0.00369603,-0.00276476,0.00571691,-8.6423e-05,-0.939604,0.00384041,0.0137982,860,533,-5.24786,25.9842
-357,491,-5.26483,-26.7416,0.0017965,0.00202862,-0.00182512,0.00374136,8.37551e-05,-0.817151,0.0024668,0.0127637,867,533,-5.26483,26.7416
-350,491,-5.31464,-27.4824,0.00170916,0.000514108,-0.00102428,0.00229745,-7.41908e-05,-0.52135,0.00155696,0.0158796,874,533,-5.31465,27.4824
-343,491,-5.35413,-28.2765,0.0015317,-0.000968741,-0.000227299,0.00155219,-0.000989235,-0.0899215,0.00147925,0.0259623,881,533,-5.35411,28.2765
-336,491,-5.37732,-29.0782,0.00130784,-0.00238213,0.000572912,0.00139474,-0.00246903,0.150542,0.00225931,0.0257418,888,533,-5.37729,29.0782
-329,491,-5.40594,-29.7676,0.00123104,-0.00359167,0.00127619,0.00154792,-0.00390855,0.243383,0.00324708,0.0258039,895,533,-5.40595,29.7676
-322,491,-5.48163,-30.4677,0.00139936,-0.00434301,0.00173156,0.00188109,-0.00482474,0.271342,0.00399402,0.023381,902,533,-5.48165,30.4677
-315,491,-5.52795,-31.1761,0.00169635,-0.00476155,0.00198317,0.00225674,-0.00532194,0.275392,0.00449326,0.0218264,909,533,-5.52797,31.1761
-308,491,-5.49762,-32.111,0,0,0,0,0,0,0,-1,916,533,-5.49763,32.111
-301,491,-5.46429,-33.2278,0,0,0,0,0,0,0,-1,923,533,-5.46427,33.2279
-294,491,-0.777283,-8.60913,0,0,0,0,0,0,0,-1,930,533,-0.777288,8.6091
-287,491,-0.26123,-8.69055,0,0,0,0,0,0,0,-1,937,533,-0.261204,8.69053
-280,491,0.2948,-5.99219,0,0,0,0,0,0,0,-1,944,533,0.294811,5.99221
-273,491,0.369995,-5.33691,0,0,0,0,0,0,0,-1,951,533,0.369985,5.33693
-266,491,1.1167,-5.0321,0,0,0,0,0,0,0,-1,958,533,1.11668,5.0321
-259,491,12.0862,-16.9615,0,0,0,0,0,0,0,-1,965,533,12.0862,16.9615
-252,491,9.72443,-13.8417,0,0,0,0,0,0,0,-1,972,533,9.72444,13.8418
-245,491,5.27258,-14.3619,0,0,0,0,0,0,0,-1,979,533,5.27255,14.3619
-238,491,3.65381,-11.1472,0,0,0,0,0,0,0,-1,986,533,3.6538,11.1472
-231,491,2.17719,-7.86835,0,0,0,0,0,0,0,-1,993,533,2.17719,7.86832
-224,491,0.554626,-4.61725,0,0,0,0,0,0,0,-1,1000,533,0.554608,4.61727
-217,491,-2.92743,-1.0766,0,0,0,0,0,0,0,-1,1007,533,-2.92743,1.07659
-210,491,-0.92395,0.374512,0,0,0,0,0,0,0,-1,1014,533,-0.923959,-0.374531
-203,491,0.417419,4.77161,0,0,0,0,0,0,0,-1,1021,533,0.417446,-4.77162
-196,491,0,0,0,0,0,0,0,0,0,-1,1028,533,0,0
-189,491,0,0,0,0,0,0,0,0,0,-1,1035,533,0,0
-182,491,0,0,0,0,0,0,0,0,0,-1,1042,533,0,0
-175,491,0,0,0,0,0,0,0,0,0,-1,1049,533,0,0
-168,491,0,0,0,0,0,0,0,0,0,-1,1056,533,0,0
-161,491,0,0,0,0,0,0,0,0,0,-1,1063,533,0,0
-154,491,0,0,0,0,0,0,0,0,0,-1,1070,533,0,0
-147,491,0,0,0,0,0,0,0,0,0,-1,1077,533,0,0
-140,491,0,0,0,0,0,0,0,0,0,-1,1084,533,0,0
-133,491,0,0,0,0,0,0,0,0,0,-1,1091,533,0,0
-126,491,0,0,0,0,0,0,0,0,0,-1,1098,533,0,0
-119,491,0,0,0,0,0,0,0,0,0,-1,1105,533,0,0
-112,491,0,0,0,0,0,0,0,0,0,-1,1112,533,0,0
-105,491,0,0,0,0,0,0,0,0,0,-1,1119,533,0,0
-98,491,0,0,0,0,0,0,0,0,0,-1,1126,533,0,0
-91,491,0,0,0,0,0,0,0,0,0,-1,1133,533,0,0
-84,491,0,0,0,0,0,0,0,0,0,-1,1140,533,0,0
-77,491,0,0,0,0,0,0,0,0,0,-1,1147,533,0,0
-70,491,0,0,0,0,0,0,0,0,0,-1,1154,533,0,0
-63,491,0,0,0,0,0,0,0,0,0,-1,1161,533,0,0
-56,491,0,0,0,0,0,0,0,0,0,-1,1168,533,0,0
-49,491,0,0,0,0,0,0,0,0,0,-1,1175,533,0,0
-42,491,0,0,0,0,0,0,0,0,0,-1,1182,533,0,0
-35,491,0,0,0,0,0,0,0,0,0,-1,1189,533,0,0
-28,491,0,0,0,0,0,0,0,0,0,-1,1196,533,0,0
-21,491,0,0,0,0,0,0,0,0,0,-1,1203,533,0,0
-14,491,0,0,0,0,0,0,0,0,0,-1,1210,533,0,0
-7,491,0,0,0,0,0,0,0,0,0,-1,1217,533,0,0
0,491,0,0,0,0,0,0,0,0,0,-1,1224,533,0,0
7,491,0,0,0,0,0,0,0,0,0,-1,1231,533,0,0
14,491,0,0,0,0,0,0,0,0,0,-1,1238,533,0,0
21,491,0,0,0,0,0,0,0,0,0,-1,1245,533,0,0
28,491,0,0,0,0,0,0,0,0,0,-1,1252,533,0,0
35,491,0,0,0,0,0,0,0,0,0,-1,1259,533,0,0
42,491,0,0,0,0,0,0,0,0,0,-1,1266,533,0,0
49,491,0,0,0,0,0,0,0,0,0,-1,1273,533,0,0
56,491,0,0,0,0,0,0,0,0,0,-1,1280,533,0,0
63,491,0,0,0,0,0,0,0,0,0,-1,1287,533,0,0
70,491,0,0,0,0,0,0,0,0,0,-1,1294,533,0,0
77,491,0,0,0,0,0,0,0,0,0,-1,1301,533,0,0
84,491,0,0,0,0,0,0,0,0,0,-1,1308,533,0,0
91,491,0,0,0,0,0,0,0,0,0,-1,1315,533,0,0
98,491,0,0,0,0,0,0,0,0,0,-1,1322,533,0,0
105,491,0,0,0,0,0,0,0,0,0,-1,1329,533,0,0
112,491,0,0,0,0,0,0,0,0,0,-1,1336,533,0,0
119,491,0,0,0,0,0,0,0,0,0,-1,1343,533,0,0
126,491,0,0,0,0,0,0,0,0,0,-1,1350,533,0,0
133,491,0,0,0,0,0,0,0,0,0,-1,1357,533,0,0
140,491,0,0,0,0,0,0,0,0,0,-1,1364,533,0,0
147,491,0,0,0,0,0,0,0,0,0,-1,1371,533,0,0
154,491,0,0,0,0,0,0,0,0,0,-1,1378,533,0,0
161,491,0,0,0,0,0,0,0,0,0,-1,1385,533,0,0
168,491,0,0,0,0,0,0,0,0,0,-1,1392,533,0,0
175,491,0,0,0,0,0,0,0,0,0,-1,1399,533,0,0
182,491,0,0,0,0,0,0,0,0,0,-1,1406,533,0,0
189,491,0,0,0,0,0,0,0,0,0,-1,1413,533,0,0
196,491,0,0,0,0,0,0,0,0,0,-1,1420,533,0,0
203,491,0,0,0,0,0,0,0,0,0,-1,1427,533,0,0
210,491,0,0,0,0,0,0,0,0,0,-1,1434,533,0,0
217,491,0,0,0,0,0,0,0,0,0,-1,1441,533,0,0
224,491,0,0,0,0,0,0,0,0,0,-1,1448,533,0,0
231,491,0,0,0,0,0,0,0,0,0,-1,1455,533,0,0
238,491,0,0,0,0,0,0,0,0,0,-1,1462,533,0,0
245,491,0,0,0,0,0,0,0,0,0,-1,1469,533,0,0
252,491,0,0,0,0,0,0,0,0,0,-1,1476,533,0,0
259,491,0,0,0,0,0,0,0,0,0,-1,1483,533,0,0
266,491,0,0,0,0,0,0,0,0,0,-1,1490,533,0,0
273,491,0,0,0,0,0,0,0,0,0,-1,1497,533,0,0
280,491,0,0,0,0,0,0,0,0,0,-1,1504,533,0,0
287,491,0,0,0,0,0,0,0,0,0,-1,1511,533,0,0
294,491,0,0,0,0,0,0,0,0,0,-1,1518,533,0,0
301,491,0,0,0,0,0,0,0,0,0,-1,1525,533,0,0
308,491,0,0,0,0,0,0,0,0,0,-1,1532,533,0,0
315,491,0,0,0,0,0,0,0,0,0,-1,1539,533,0,0
322,491,4.26331,-0.734314,0,0,0,0,0,0,0,-1,1546,533,4.26326,0.734324
329,491,4.25354,-0.783752,0,0,0,0,0,0,0,-1,1553,533,4.25359,0.783734
336,491,4.81604,-0.722107,0,0,0,0,0,0,0,-1,1560,533,4.81605,0.722115
343,491,6.14478,-1.44281,0,0,0,0,0,0,0,-1,1567,533,6.14474,1.44281
350,491,6.36353,-1.30792,0,0,0,0,0,0,0,-1,1574,533,6.36352,1.3079
357,491,6.69482,-1.06018,0,0,0,0,0,0,0,-1,1581,533,6.69489,1.06018
364,491,8.01086,-1.69604,0,0,0,0,0,0,0,-1,1588,533,8.01087,1.69607
371,491,8.2135,-0.539307,0,0,0,0,0,0,0,-1,1595,533,8.21348,0.53929
378,491,13.3589,2.17267,0,0,0,0,0,0,0,-1,1602,533,13.3589,-2.17264
385,491,8.08228,-4.95471,0,0,0,0,0,0,0,-1,1609,533,8.08227,4.95474
392,491,2.88721,-4.30988,0,0,0,0,0,0,0,-1,1616,533,2.88716,4.30986
399,491,8.95862,-8.55518,0,0,0,0,0,0,0,-1,1623,533,8.95864,8.55516
406,491,8.16541,-9.00806,0,0,0,0,0,0,0,-1,1630,533,8.16535,9.00807
413,491,5.31848,-3.7124,0,0,0,0,0,0,0,-1,1637,533,5.31849,3.7124
420,491,4.86389,-3.95892,0,0,0,0,0,0,0,-1,1644,533,4.86387,3.95893
427,491,11.5096,-15.2742,0,0,0,0,0,0,0,-1,1651,533,11.5096,15.2742
434,491,18.8049,-31.3236,0,0,0,0,0,0,0,-1,1658,533,18.8049,31.3236
441,491,18.9353,-30.3184,0.001867,-0.000282092,-0.00173467,0.00283298,-0.00124807,-0.508099,0.00241469,0.0331296,1665,533,18.9354,30.3184
448,491,18.91,-29.8033,0.00174988,-0.00021296,-0.00140023,0.00247838,-0.000941464,-0.479734,0.00203983,0.0215668,1672,533,18.91,29.8033
455,491,18.865,-29.0173,0.00162627,1.51575e-05,-0.00112352,0.00220319,-0.000561758,-0.474379,0.0016875,0.01535,1679,533,18.865,29.0173
462,491,18.8756,-28.2582,0.00143231,0.000262876,-0.000777281,0.00182025,-0.000125062,-0.462924,0.00125726,0.015416,1686,533,18.8756,28.2583
469,491,18.8209,-27.5033,0.00133841,0.00052003,-0.000367353,0.00147911,0.000379325,-0.365787,0.000887092,0.0144514,1693,533,18.8209,27.5033
476,491,18.8093,-26.7356,0.00133379,0.000811372,6.08427e-05,0.00134078,0.00080438,0.114423,0.000779238,0.0110596,1700,533,18.8094,26.7356
483,491,18.7666,-25.9603,0.00130529,0.00106831,0.000497943,0.00169865,0.000674957,0.668591,0.000987582,0.0129101,1707,533,18.7666,25.9603
490,491,18.7233,-25.2045,0.001133,0.00146514,0.000905407,0.00221958,0.000378561,0.876101,0.00137107,0.0111682,1714,533,18.7233,25.2045
497,491,18.6796,-24.4085,0.00093413,0.00190638,0.00136304,0.00286738,-2.68738e-05,0.956691,0.00192061,0.012369,1721,533,18.6796,24.4085
504,491,18.6602,-23.5609,0.0007321,0.00210809,0.00177076,0.00331981,-0.000479618,0.970689,0.00238918,0.0143595,1728,533,18.6601,23.5609
511,491,18.6072,-22.7626,0.000357952,0.00239325,0.0021455,0.00375021,-0.00099901,1.00684,0.00289126,0.0139508,1735,533,18.6072,22.7626
518,491,18.5562,-21.9858,-0.0001959,0.00275061,0.00242186,0.00411212,-0.00155741,1.05865,0.00338226,0.0114045,1742,533,18.5562,21.9858
525,491,18.5226,-21.1783,-0.000780588,0.00314112,0.00269499,0.00451312,-0.00215259,1.0999,0.00392806,0.0114989,1749,533,18.5226,21.1783
532,491,18.4879,-20.3411,0,0,0,0,0,0,0,-1,1756,533,18.4879,20.3411
539,491,18.4906,-19.4533,0,0,0,0,0,0,0,-1,1763,533,18.4907,19.4533
546,491,17.9496,-18.2208,0,0,0,0,0,0,0,-1,1770,533,17.9496,18.2208
553,491,10.5021,-7.77869,0,0,0,0,0,0,0,-1,1777,533,10.502,7.77871
560,491,6.28455,-1.43585,0,0,0,0,0,0,0,-1,1784,533,6.28458,1.43586
567,491,5.67651,-1.3562,0,0,0,0,0,0,0,-1,1791,533,5.67649,1.3562
574,491,8.0719,1.58325,0,0,0,0,0,0,0,-1,1798,533,8.07195,-1.58326
581,491,9.44812,1.60931,0,0,0,0,0,0,0,-1,1805,533,9.44808,-1.60933
588,491,11.0497,1.54962,0,0,0,0,0,0,0,-1,1812,533,11.0496,-1.54963
595,491,0,0,0,0,0,0,0,0,0,-1,1819,533,0,0
602,491,0,0,0,0,0,0,0,0,0,-1,1826,533,0,0
609,491,0,0,0,0,0,0,0,0,0,-1,1833,533,0,0
616,491,0,0,0,0,0,0,0,0,0,-1,1840,533,0,0
623,491,0,0,0,0,0,0,0,0,0,-1,1847,533,0,0
630,491,0,0,0,0,0,0,0,0,0,-1,1854,533,0,0
637,491,0,0,0,0,0,0,0,0,0,-1,1861,533,0,0
644,491,0,0,0,0,0,0,0,0,0,-1,1868,533,0,0
651,491,0,0,0,0,0,0,0,0,0,-1,1875,533,0,0
658,491,0,0,0,0,0,0,0,0,0,-1,1882,533,0,0
665,491,0,0,0,0,0,0,0,0,0,-1,1889,533,0,0
672,491,0,0,0,0,0,0,0,0,0,-1,1896,533,0,0
679,491,0,0,0,0,0,0,0,0,0,-1,1903,533,0,0
686,491,0,0,0,0,0,0,0,0,0,-1,1910,533,0,0
693,491,0,0,0,0,0,0,0,0,0,-1,1917,533,0,0
700,491,0,0,0,0,0,0,0,0,0,-1,1924,533,0,0
707,491,0,0,0,0,0,0,0,0,0,-1,1931,533,0,0
714,491,0,0,0,0,0,0,0,0,0,-1,1938,533,0,0
721,491,0,0,0,0,0,0,0,0,0,-1,1945,533,0,0
728,491,0,0,0,0,0,0,0,0,0,-1,1952,533,0,0
735,491,0,0,0,0,0,0,0,0,0,-1,1959,533,0,0
742,491,0,0,0,0,0,0,0,0,0,-1,1966,533,0,0
749,491,0,0,0,0,0,0,0,0,0,-1,1973,533,0,0
756,491,0,0,0,0,0,0,0,0,0,-1,1980,533,0,0
763,491,0,0,0,0,0,0,0,0,0,-1,1987,533,0,0
770,491,0,0,0,0,0,0,0,0,0,-1,1994,533,0,0
777,491,0,0,0,0,0,0,0,0,0,-1,2001,533,0,0
784,491,0,0,0,0,0,0,0,0,0,-1,2008,533,0,0
791,491,0,0,0,0,0,0,0,0,0,-1,2015,533,0,0
798,491,0,0,0,0,0,0,0,0,0,-1,2022,533,0,0
805,491,0,0,0,0,0,0,0,0,0,-1,2029,533,0,0
812,491,0,0,0,0,0,0,0,0,0,-1,2036,533,0,0
-700,484,0,0,0,0,0,0,0,0,0,-1,524,540,0,0
-693,484,0,0,0,0,0,0,0,0,0,-1,531,540,0,0
-686,484,0,0,0,0,0,0,0,0,0,-1,538,540,0,0
-679,484,0,0,0,0,0,0,0,0,0,-1,545,540,0,0
-672,484,0,0,0,0,0,0,0,0,0,-1,552,540,0,0
-665,484,0,0,0,0,0,0,0,0,0,-1,559,540,0,0
-658,484,0,0,0,0,0,0,0,0,0,-1,566,540,0,0
-651,484,0,0,0,0,0,0,0,0,0,-1,573,540,0,0
-644,484,0,0,0,0,0,0,0,0,0,-1,580,540,0,0
-637,484,0,0,0,0,0,0,0,0,0,-1,587,540,0,0
-630,484,0,0,0,0,0,0,0,0,0,-1,594,540,0,0
-623,484,0,0,0,0,0,0,0,0,0,-1,601,540,0,0
-616,484,0,0,0,0,0,0,0,0,0,-1,608,540,0,0
-609,484,0,0,0,0,0,0,0,0,0,-1,615,540,0,0
-602,484,0,0,0,0,0,0,0,0,0,-1,622,540,0,0
-595,484,0,0,0,0,0,0,0,0,0,-1,629,540,0,0
-588,484,0,0,0,0,0,0,0,0,0,-1,636,540,0,0
-581,484,0,0,0,0,0,0,0,0,0,-1,643,540,0,0
-574,484,0,0,0,0,0,0,0,0,0,-1,650,540,0,0
-567,484,0,0,0,0,0,0,0,0,0,-1,657,540,0,0
-560,484,0,0,0,0,0,0,0,0,0,-1,664,540,0,0
-553,484,0,0,0,0,0,0,0,0,0,-1,671,540,0,0
-546,484,0,0,0,0,0,0,0,0,0,-1,678,540,0,0
-539,484,0,0,0,0,0,0,0,0,0,-1,685,540,0,0
-532,484,0,0,0,0,0,0,0,0,0,-1,692,540,0,0
-525,484,0,0,0,0,0,0,0,0,0,-1,699,540,0,0
-518,484,0,0,0,0,0,0,0,0,0,-1,706,540,0,0
-511,484,0,0,0,0,0,0,0,0,0,-1,713,540,0,0
-504,484,0,0,0,0,0,0,0,0,0,-1,720,540,0,0
-497,484,0,0,0,0,0,0,0,0,0,-1,727,540,0,0
-490,484,0,0,0,0,0,0,0,0,0,-1,734,540,0,0
-483,484,0,0,0,0,0,0,0,0,0,-1,741,540,0,0
-476,484,-8.46552,1.44702,0,0,0,0,0,0,0,-1,748,540,-8.46554,-1.44702
-469,484,-7.82343,1.70355,0,0,0,0,0,0,0,-1,755,540,-7.82345,-1.70355
-462,484,-8.36987,3.08612,0,0,0,0,0,0,0,-1,762,540,-8.36988,-3.0861
-455,484,-6.77197,2.07092,0,0,0,0,0,0,0,-1,769,540,-6.77197,-2.07094
-448,484,3.54895,-1.40106,0,0,0,0,0,0,0,-1,776,540,3.54897,1.40106
-441,484,4.28906,-3.05884,0,0,0,0,0,0,0,-1,783,540,4.28905,3.05883
-434,484,-2.17548,-5.07245,0,0,0,0,0,0,0,-1,790,540,-2.17546,5.07243
-427,484,-5.71057,-18.1433,0,0,0,0,0,0,0,-1,797,540,-5.71056,18.1433
-420,484,-5.55347,-19.2421,0,0,0,0,0,0,0,-1,804,540,-5.55345,19.242
-413,484,-5.58911,-20.2457,0.000371978,0.01336,-0.00628334,0.0159022,-0.00217018,-1.18634,0.011394,0.0336449,811,540,-5.5891,20.2457
-406,484,-5.69513,-21.1991,0.00067014,0.0113607,-0.0057912,0.0138964,-0.00186557,-1.15809,0.00994465,0.0195584,818,540,-5.69514,21.1991
-399,484,-5.82104,-22.0485,0.000864926,0.00936406,-0.00511309,0.011763,-0.00153401,-1.13211,0.00840015,0.017056,825,540,-5.82104,22.0485
-392,484,-5.86914,-22.8319,0.00107742,0.00756665,-0.00444374,0.00982426,-0.00118018,-1.10074,0.00697625,0.0188069,832,540,-5.86913,22.8319
-385,484,-5.92072,-23.6393,0.00133111,0.00593785,-0.00375979,0.00804373,-0.000774772,-1.06023,0.00563852,0.0132555,839,540,-5.92072,23.6393
-378,484,-5.9458,-24.3978,0.00150945,0.00438685,-0.00301904,0.00629247,-0.000396163,-1.00775,0.00433307,0.0151661,846,540,-5.94579,24.3978
-371,484,-5.98151,-25.1463,0.00158367,0.00284329,-0.00228077,0.00457961,-0.000152655,-0.92011,0.00310521,0.0171861,853,540,-5.98149,25.1463
-364,484,-6.0293,-25.9018,0.00160003,0.00131002,-0.00147291,0.00293506,-2.50025e-05,-0.736332,0.00196509,0.0125318,860,540,-6.0293,25.9018
-357,484,-6.06482,-26.6622,0.00165209,1.85692e-05,-0.000718293,0.00192301,-0.000252348,-0.36067,0.00137387,0.0135838,867,540,-6.0648,26.6622
-350,484,-6.11383,-27.4239,0.00175957,-0.00111018,-0.00011707,0.00176434,-0.00111495,-0.0407043,0.00167639,0.0152624,874,540,-6.11384,27.4239
-343,484,-6.11938,-28.2073,0.00174901,-0.00217919,0.000487752,0.00180867,-0.00223885,0.121705,0.00234123,0.0212362,881,540,-6.11936,28.2073
-336,484,-6.12573,-28.9742,0.00167066,-0.00323392,0.00110899,0.00190976,-0.00347302,0.212353,0.00315113,0.0249742,888,540,-6.12575,28.9742
-329,484,-6.16467,-29.6964,0.00175826,-0.00412985,0.00164581,0.00218707,-0.00455866,0.254874,0.00397406,0.035766,895,540,-6.16465,29.6964
-322,484,-6.16699,-30.3878,0,0,0,0,0,0,0,-1,902,540,-6.16701,30.3878
-315,484,-6.08923,-31.163,0,0,0,0,0,0,0,-1,909,540,-6.08925,31.163
-308,484,-1.32623,-8.9317,0,0,0,0,0,0,0,-1,916,540,-1.32626,8.93173
-301,484,-1.33453,-6.52667,0,0,0,0,0,0,0,-1,923,540,-1.33454,6.5267
-294,484,-1.61224,-8.17059,0,0,0,0,0,0,0,-1,930,540,-1.61227,8.17058
-287,484,-0.715759,-5.62103,0,0,0,0,0,0,0,-1,937,540,-0.715772,5.62105
-280,484,2.66742,-1.6795,0,0,0,0,0,0,0,-1,944,540,2.6674,1.67949
-273,484,2.53125,-2.22296,0,0,0,0,0,0,0,-1,951,540,2.53128,2.22295
-266,484,2.6778,-2.72058,0,0,0,0,0,0,0,-1,958,540,2.6778,2.72061
-259,484,2.41718,-2.59894,0,0,0,0,0,0,0,-1,965,540,2.41717,2.59892
-252,484,10.6069,-11.696,0,0,0,0,0,0,0,-1,972,540,10.6069,11.696
-245,484,6.34106,-11.6107,0,0,0,0,0,0,0,-1,979,540,6.34104,11.6107
-238,484,4.89319,-8.54059,0,0,0,0,0,0,0,-1,986,540,4.89321,8.5406
-231,484,3.47675,-5.22064,0,0,0,0,0,0,0,-1,993,540,3.47676,5.22067
-224,484,1.71344,-2.03473,0,0,0,0,0,0,0,-1,1000,540,1.71342,2.03472
-217,484,-0.745056,1.17358,0,0,0,0,0,0,0,-1,1007,540,-0.745043,-1.17359
-210,484,0,0,0,0,0,0,0,0,0,-1,1014,540,0,0
-203,484,0,0,0,0,0,0,0,0,0,-1,1021,540,0,0
-196,484,0,0,0,0,0,0,0,0,0,-1,1028,540,0,0
-189,484,0,0,0,0,0,0,0,0,0,-1,1035,540,0,0
-182,484,0,0,0,0,0,0,0,0,0,-1,1042,540,0,0
-175,484,0,0,0,0,0,0,0,0,0,-1,1049,540,0,0
-168,484,0,0,0,0,0,0,0,0,0,-1,1056,540,0,0
-161,484,0,0,0,0,0,0,0,0,0,-1,1063,540,0,0
-154,484,0,0,0,0,0,0,0,0,0,-1,1070,540,0,0
-147,484,0,0,0,0,0,0,0,0,0,-1,1077,540,0,0
-140,484,0,0,0,0,0,0,0,0,0,-1,1084,540,0,0
-133,484,0,0,0,0,0,0,0,0,0,-1,1091,540,0,0
-126,484,0,0,0,0,0,0,0,0,0,-1,1098,540,0,0
-119,484,0,0,0,0,0,0,0,0,0,-1,1105,540,0,0
-112,484,0,0,0,0,0,0,0,0,0,-1,1112,540,0,0
-105,484,0,0,0,0,0,0,0,0,0,-1,1119,540,0,0
-98,484,0,0,0,0,0,0,0,0,0,-1,1126,540,0,0
-91,484,0,0,0,0,0,0,0,0,0,-1,1133,540,0,0
-84,484,0,0,0,0,0,0,0,0,0,-1,1140,540,0,0
-77,484,0,0,0,0,0,0,0,0,0,-1,1147,540,0,0
-70,484,0,0,0,0,0,0,0,0,0,-1,1154,540,0,0
-63,484,0,0,0,0,0,0,0,0,0,-1,1161,540,0,0
-56,484,0,0,0,0,0,0,0,0,0,-1,1168,540,0,0
-49,484,0,0,0,0,0,0,0,0,0,-1,1175,540,0,0
-42,484,0,0,0,0,0,0,0,0,0,-1,1182,540,0,0
-35,484,0,0,0,0,0,0,0,0,0,-1,1189,540,0,0
-28,484,0,0,0,0,0,0,0,0,0,-1,1196,540,0,0
-21,484,0,0,0,0,0,0,0,0,0,-1,1203,540,0,0
-14,484,0,0,0,0,0,0,0,0,0,-1,1210,540,0,0
-7,484,0,0,0,0,0,0,0,0,0,-1,1217,540,0,0
0,484,0,0,0,0,0,0,0,0,0,-1,1224,540,0,0
7,484,0,0,0,0,0,0,0,0,0,-1,1231,540,0,0
14,484,0,0,0,0,0,0,0,0,0,-1,1238,540,0,0
21,484,0,0,0,0,0,0,0,0,0,-1,1245,540,0,0
28,484,0,0,0,0,0,0,0,0,0,-1,1252,540,0,0
35,484,0,0,0,0,0,0,0,0,0,-1,1259,540,0,0
42,484,0,0,0,0,0,0,0,0,0,-1,1266,540,0,0
49,484,0,0,0,0,0,0,0,0,0,-1,1273,540,0,0
56,484,0,0,0,0,0,0,0,0,0,-1,1280,540,0,0
63,484,0,0,0,0,0,0,0,0,0,-1,1287,540,0,0
70,484,0,0,0,0,0,0,0,0,0,-1,1294,540,0,0
77,484,0,0,0,0,0,0,0,0,0,-1,1301,540,0,0
84,484,0,0,0,0,0,0,0,0,0,-1,1308,540,0,0
91,484,0,0,0,0,0,0,0,0,0,-1,1315,540,0,0
98,484,0,0,0,0,0,0,0,0,0,-1,1322,540,0,0
105,484,0,0,0,0,0,0,0,0,0,-1,1329,540,0,0
112,484,0,0,0,0,0,0,0,0,0,-1,1336,540,0,0
119,484,0,0,0,0,0,0,0,0,0,-1,1343,540,0,0
126,484,0,0,0,0,0,0,0,0,0,-1,1350,540,0,0
133,484,0,0,0,0,0,0,0,0,0,-1,1357,540,0,0
140,484,0,0,0,0,0,0,0,0,0,-1,1364,540,0,0
147,484,0,0,0,0,0,0,0,0,0,-1,1371,540,0,0
154,484,0,0,0,0,0,0,0,0,0,-1,1378,540,0,0
161,484,0,0,0,0,0,0,0,0,0,-1,1385,540,0,0
168,484,0,0,0,0,0,0,0,0,0,-1,1392,540,0,0
175,484,0,0,0,0,0,0,0,0,0,-1,1399,540,0,0
182,484,0,0,0,0,0,0,0,0,0,-1,1406,540,0,0
189,484,0,0,0,0,0,0,0,0,0,-1,1413,540,0,0
196,484,0,0,0,0,0,0,0,0,0,-1,1420,540,0,0
203,484,0,0,0,0,0,0,0,0,0,-1,1427,540,0,0
210,484,0,0,0,0,0,0,0,0,0,-1,1434,540,0,0
217,484,0,0,0,0,0,0,0,0,0,-1,1441,540,0,0
224,484,0,0,0,0,0,0,0,0,0,-1,1448,540,0,0
231,484,0,0,0,0,0,0,0,0,0,-1,1455,540,0,0
238,484,0,0,0,0,0,0,0,0,0,-1,1462,540,0,0
245,484,0,0,0,0,0,0,0,0,0,-1,1469,540,0,0
252,484,0,0,0,0,0,0,0,0,0,-1,1476,540,0,0
259,484,0,0,0,0,0,0,0,0,0,-1,1483,540,0,0
266,484,0,0,0,0,0,0,0,0,0,-1,1490,540,0,0
273,484,0,0,0,0,0,0,0,0,0,-1,1497,540,0,0
280,484,0,0,0,0,0,0,0,0,0,-1,1504,540,0,0
287,484,0,0,0,0,0,0,0,0,0,-1,1511,540,0,0
294,484,0,0,0,0,0,0,0,0,0,-1,1518,540,0,0
301,484,0,0,0,0,0,0,0,0,0,-1,1525,540,0,0
308,484,0,0,0,0,0,0,0,0,0,-1,1532,540,0,0
315,484,0,0,0,0,0,0,0,0,0,-1,1539,540,0,0
322,484,0,0,0,0,0,0,0,0,0,-1,1546,540,0,0
329,484,0,0,0,0,0,0,0,0,0,-1,1553,540,0,0
336,484,4.38708,-1.64136,0,0,0,0,0,0,0,-1,1560,540,4.38704,1.64138
343,484,7.57996,-1.05457,0,0,0,0,0,0,0,-1,1567,540,7.57995,1.05454
350,484,8.10425,-1.18878,0,0,0,0,0,0,0,-1,1574,540,8.1043,1.18877
357,484,7.74902,-3.80286,0,0,0,0,0,0,0,-1,1581,540,7.74901,3.80287
364,484,6.31262,-3.87213,0,0,0,0,0,0,0,-1,1588,540,6.31263,3.87215
371,484,7.21008,0.973511,0,0,0,0,0,0,0,-1,1595,540,7.21014,-0.973541
378,484,11.0563,1.5014,0,0,0,0,0,0,0,-1,1602,540,11.0563,-1.5014
385,484,14.3469,2.5545,0,0,0,0,0,0,0,-1,1609,540,14.3469,-2.55453
392,484,7.39453,-4.95026,0,0,0,0,0,0,0,-1,1616,540,7.39448,4.95023
399,484,7.14417,-2.5639,0,0,0,0,0,0,0,-1,1623,540,7.14417,2.56391
406,484,7.88953,-2.47321,0,0,0,0,0,0,0,-1,1630,540,7.88954,2.47323
413,484,4.4895,-1.08673,0,0,0,0,0,0,0,-1,1637,540,4.48952,1.08674
420,484,4.50012,-2.11255,0,0,0,0,0,0,0,-1,1644,540,4.50012,2.11256
427,484,5.28601,-3.54053,0,0,0,0,0,0,0,-1,1651,540,5.28599,3.54051
434,484,11.1488,-13.5359,0,0,0,0,0,0,0,-1,1658,540,11.1489,13.5359
441,484,19.6298,-29.9465,0,0,0,0,0,0,0,-1,1665,540,19.6297,29.9465
448,484,19.6274,-29.851,0,0,0,0,0,0,0,-1,1672,540,19.6274,29.851
455,484,19.6355,-29.0244,0,0,0,0,0,0,0,-1,1679,540,19.6355,29.0244
462,484,19.6493,-28.2408,0.00143433,-1.57965e-05,-0.00134267,0.0022352,-0.000816665,-0.537825,0.00182434,0.0295808,1686,540,19.6493,28.2408
469,484,19.6245,-27.4764,0.0012591,0.000287066,-0.000863468,0.00176393,-0.000217771,-0.529065,0.00125486,0.0182034,1693,540,19.6245,27.4764
476,484,19.5819,-26.6479,0.00131008,0.000578538,-0.000379544,0.00147142,0.000417203,-0.401937,0.00087566,0.0161103,1700,540,19.5819,26.6479
483,484,19.5444,-25.8881,0.00128128,0.000808716,6.73063e-05,0.00129068,0.000799316,0.138752,0.000752213,0.0135571,1707,540,19.5444,25.8881
490,484,19.5199,-25.1631,0.00110566,0.00117798,0.00046628,0.0016095,0.000674137,0.824097,0.000933315,0.0136297,1714,540,19.5199,25.1632
497,484,19.4866,-24.361,0.000923276,0.00162993,0.000964298,0.00230359,0.000249611,0.961006,0.00145966,0.0142889,1721,540,19.4865,24.361
504,484,19.4364,-23.5312,0.000747181,0.00174772,0.0013681,0.00270414,-0.000209244,0.96068,0.0018764,0.0174351,1728,540,19.4364,23.5312
511,484,19.4176,-22.7255,0.000426169,0.00194824,0.00172513,0.00307274,-0.000698333,0.993131,0.00231663,0.0203117,1735,540,19.4176,22.7255
518,484,19.3638,-21.9583,-4.41065e-05,0.00220381,0.00198874,0.00336422,-0.00120452,1.0426,0.00273424,0.0167492,1742,540,19.3637,21.9582
525,484,19.3051,-21.1606,-0.000507688,0.00250201,0.00223617,0.00369253,-0.00169821,1.08157,0.00318255,0.0147645,1749,540,19.305,21.1607
532,484,19.287,-20.3109,-0.000985643,0.00296071,0.00248328,0.0041593,-0.00218423,1.12111,0.00372114,0.0173174,1756,540,19.287,20.3109
539,484,19.1858,-19.4313,-0.00155011,0.00348141,0.00260555,0.00458752,-0.00265622,1.16933,0.00423143,0.0405042,1763,540,19.1858,19.4313
546,484,19.1213,-18.5422,0,0,0,0,0,0,0,-1,1770,540,19.1213,18.5422
553,484,12.4246,-8.96423,0,0,0,0,0,0,0,-1,1777,540,12.4246,8.96422
560,484,10.0549,-5.47931,0,0,0,0,0,0,0,-1,1784,540,10.055,5.47928
567,484,7.78223,-1.38312,0,0,0,0,0,0,0,-1,1791,540,7.78224,1.38311
574,484,5.74463,1.50922,0,0,0,0,0,0,0,-1,1798,540,5.74463,-1.50924
581,484,10.34,2.9491,0,0,0,0,0,0,0,-1,1805,540,10.34,-2.94912
588,484,10.6669,2.88568,0,0,0,0,0,0,0,-1,1812,540,10.6669,-2.88567
595,484,10.7233,1.04767,0,0,0,0,0,0,0,-1,1819,540,10.7233,-1.04766
602,484,0,0,0,0,0,0,0,0,0,-1,1826,540,0,0
609,484,0,0,0,0,0,0,0,0,0,-1,1833,540,0,0
616,484,0,0,0,0,0,0,0,0,0,-1,1840,540,0,0
623,484,0,0,0,0,0,0,0,0,0,-1,1847,540,0,0
630,484,0,0,0,0,0,0,0,0,0,-1,1854,540,0,0
637,484,0,0,0,0,0,0,0,0,0,-1,1861,540,0,0
644,484,0,0,0,0,0,0,0,0,0,-1,1868,540,0,0
651,484,0,0,0,0,0,0,0,0,0,-1,1875,540,0,0
658,484,0,0,0,0,0,0,0,0,0,-1,1882,540,0,0
665,484,0,0,0,0,0,0,0,0,0,-1,1889,540,0,0
672,484,0,0,0,0,0,0,0,0,0,-1,1896,540,0,0
679,484,0,0,0,0,0,0,0,0,0,-1,1903,540,0,0
686,484,0,0,0,0,0,0,0,0,0,-1,1910,540,0,0
693,484,0,0,0,0,0,0,0,0,0,-1,1917,540,0,0
700,484,0,0,0,0,0,0,0,0,0,-1,1924,540,0,0
707,484,0,0,0,0,0,0,0,0,0,-1,1931,540,0,0
714,484,0,0,0,0,0,0,0,0,0,-1,1938,540,0,0
721,484,0,0,0,0,0,0,0,0,0,-1,1945,540,0,0
728,484,0,0,0,0,0,0,0,0,0,-1,1952,540,0,0
735,484,0,0,0,0,0,0,0,0,0,-1,1959,540,0,0
742,484,0,0,0,0,0,0,0,0,0,-1,1966,540,0,0
749,484,0,0,0,0,0,0,0,0,0,-1,1973,540,0,0
756,484,0,0,0,0,0,0,0,0,0,-1,1980,540,0,0
763,484,0,0,0,0,0,0,0,0,0,-1,1987,540,0,0
770,484,0,0,0,0,0,0,0,0,0,-1,1994,540,0,0
777,484,0,0,0,0,0,0,0,0,0,-1,2001,540,0,0
784,484,0,0,0,0,0,0,0,0,0,-1,2008,540,0,0
791,484,0,0,0,0,0,0,0,0,0,-1,2015,540,0,0
798,484,0,0,0,0,0,0,0,0,0,-1,2022,540,0,0
805,484,0,0,0,0,0,0,0,0,0,-1,2029,540,0,0
812,484,0,0,0,0,0,0,0,0,0,-1,2036,540,0,0
-700,477,0,0,0,0,0,0,0,0,0,-1,524,547,0,0
-693,477,0,0,0,0,0,0,0,0,0,-1,531,547,0,0
-686,477,0,0,0,0,0,0,0,0,0,-1,538,547,0,0
-679,477,0,0,0,0,0,0,0,0,0,-1,545,547,0,0
-672,477,0,0,0,0,0,0,0,0,0,-1,552,547,0,0
-665,477,0,0,0,0,0,0,0,0,0,-1,559,547,0,0
-658,477,0,0,0,0,0,0,0,0,0,-1,566,547,0,0
-651,477,0,0,0,0,0,0,0,0,0,-1,573,547,0,0
-644,477,0,0,0,0,0,0,0,0,0,-1,580,547,0,0
-637,477,0,0,0,0,0,0,0,0,0,-1,587,547,0,0
-630,477,0,0,0,0,0,0,0,0,0,-1,594,547,0,0
-623,477,0,0,0,0,0,0,0,0,0,-1,601,547,0,0
-616,477,0,0,0,0,0,0,0,0,0,-1,608,547,0,0
-609,477,0,0,0,0,0,0,0,0,0,-1,615,547,0,0
-602,477,0,0,0,0,0,0,0,0,0,-1,622,547,0,0
-595,477,0,0,0,0,0,0,0,0,0,-1,629,547,0,0
-588,477,0,0,0,0,0,0,0,0,0,-1,636,547,0,0
-581,477,0,0,0,0,0,0,0,0,0,-1,643,547,0,0
-574,477,0,0,0,0,0,0,0,0,0,-1,650,547,0,0
-567,477,0,0,0,0,0,0,0,0,0,-1,657,547,0,0
-560,477,0,0,0,0,0,0,0,0,0,-1,664,547,0,0
-553,477,0,0,0,0,0,0,0,0,0,-1,671,547,0,0
-546,477,0,0,0,0,0,0,0,0,0,-1,678,547,0,0
-539,477,0,0,0,0,0,0,0,0,0,-1,685,547,0,0
-532,477,0,0,0,0,0,0,0,0,0,-1,692,547,0,0
-525,477,0,0,0,0,0,0,0,0,0,-1,699,547,0,0
-518,477,0,0,0,0,0,0,0,0,0,-1,706,547,0,0
-511,477,0,0,0,0,0,0,0,0,0,-1,713,547,0,0
-504,477,0,0,0,0,0,0,0,0,0,-1,720,547,0,0
-497,477,0,0,0,0,0,0,0,0,0,-1,727,547,0,0
-490,477,0,0,0,0,0,0,0,0,0,-1,734,547,0,0
-483,477,-7.73151,-0.224182,0,0,0,0,0,0,0,-1,741,547,-7.73152,0.224176
-476,477,-6.25806,-0.310547,0,0,0,0,0,0,0,-1,748,547,-6.25804,0.310549
-469,477,-7.26617,0.525085,0,0,0,0,0,0,0,-1,755,547,-7.2662,-0.525111
-462,477,-6.65143,1.06042,0,0,0,0,0,0,0,-1,762,547,-6.65143,-1.06043
-455,477,-5.31757,0.429016,0,0,0,0,0,0,0,-1,769,547,-5.31756,-0.42902
-448,477,-4.0697,0.273376,0,0,0,0,0,0,0,-1,776,547,-4.06971,-0.273363
-441,477,-2.47504,-4.76971,0,0,0,0,0,0,0,-1,783,547,-2.47505,4.76973
-434,477,-6.15491,-18.0602,0,0,0,0,0,0,0,-1,790,547,-6.1549,18.0602
-427,477,-6.40253,-18.5056,-4.97273e-05,0.0139017,-0.00524232,0.015652,-0.00179997,-1.24856,0.0110835,0.0452788,797,547,-6.40253,18.5056
-420,477,-6.44757,-19.1561,3.85409e-05,0.0119565,-0.00496679,0.013755,-0.00175995,-1.22338,0.00980943,0.0362562,804,547,-6.4476,19.1561
-413,477,-6.42474,-20.2767,0.000136411,0.00991943,-0.00451483,0.0116845,-0.0016287,-1.19811,0.00838549,0.0209702,811,547,-6.42474,20.2767
-406,477,-6.54132,-21.1902,0.000349179,0.00824584,-0.00407721,0.00997316,-0.00137814,-1.17007,0.00715254,0.0115406,818,547,-6.54131,21.1903
-399,477,-6.58801,-21.9774,0.000536152,0.00656493,-0.00351738,0.00818288,-0.00108179,-1.13967,0.00584929,0.0196829,825,547,-6.58803,21.9774
-392,477,-6.63251,-22.7817,0.000763811,0.00502831,-0.00297031,0.00655246,-0.000760339,-1.0967,0.00464255,0.0186973,832,547,-6.63249,22.7817
-385,477,-6.66547,-23.5743,0.00106288,0.0036544,-0.00242212,0.00510557,-0.0003883,-1.03101,0.00354025,0.0150195,839,547,-6.66549,23.5743
-378,477,-6.68726,-24.3427,0.00130598,0.00233604,-0.0018085,0.00370141,-5.9392e-05,-0.924117,0.00248764,0.0139053,846,547,-6.68728,24.3426
-371,477,-6.73737,-25.094,0.00148753,0.00105247,-0.00119823,0.00248781,5.2184e-05,-0.695606,0.00164142,0.0140995,853,547,-6.73739,25.094
-364,477,-6.78143,-25.8453,0.00164976,-0.000168347,-0.000557584,0.00180714,-0.000325726,-0.275095,0.00132673,0.0138328,860,547,-6.78143,25.8453
-357,477,-6.84814,-26.6143,0.00187204,-0.00117588,1.34787e-05,0.0018721,-0.00117594,0.00442215,0.00177502,0.0116079,867,547,-6.84816,26.6143
-350,477,-6.88562,-27.3918,0.00215809,-0.00203719,0.000425301,0.00220077,-0.00207987,0.10002,0.00247176,0.0105628,874,547,-6.88564,27.3918
-343,477,-6.8313,-28.2019,0.00231425,-0.00282178,0.000856419,0.00245329,-0.00296082,0.160948,0.00313041,0.0188785,881,547,-6.83133,28.2019
-336,477,-6.79889,-28.9739,0.00240105,-0.00364746,0.00131636,0.00267511,-0.00392153,0.205267,0.00383117,0.043727,888,547,-6.79889,28.9739
-329,477,-6.87543,-29.7269,0,0,0,0,0,0,0,-1,895,547,-6.8754,29.7269
-322,477,-5.91638,-27.4468,0,0,0,0,0,0,0,-1,902,547,-5.91639,27.4468
-315,477,-1.67358,-9.15253,0,0,0,0,0,0,0,-1,909,547,-1.67356,9.15253
-308,477,-1.30127,-6.55188,0,0,0,0,0,0,0,-1,916,547,-1.30128,6.55185
-301,477,-1.21185,-6.28351,0,0,0,0,0,0,0,-1,923,547,-1.21184,6.28352
-294,477,-0.352905,3.27142,0,0,0,0,0,0,0,-1,930,547,-0.35292,-3.27144
-287,477,3.54364,2.15399,0,0,0,0,0,0,0,-1,937,547,3.54362,-2.15396
-280,477,1.97308,-0.954163,0,0,0,0,0,0,0,-1,944,547,1.9731,0.954178
-273,477,2.11621,-3.76709,0,0,0,0,0,0,0,-1,951,547,2.11619,3.76706
-266,477,2.04669,-3.42389,0,0,0,0,0,0,0,-1,958,547,2.04671,3.42391
-259,477,-1.33478,-3.41205,0,0,0,0,0,0,0,-1,965,547,-1.3348,3.41206
-252,477,0.597168,-5.32922,0,0,0,0,0,0,0,-1,972,547,0.597144,5.32924
-245,477,8.2309,-8.48492,0,0,0,0,0,0,0,-1,979,547,8.23091,8.48494
-238,477,6.60938,-5.64063,0,0,0,0,0,0,0,-1,986,547,6.60938,5.64063
-231,477,4.71716,-2.52484,0,0,0,0,0,0,0,-1,993,547,4.71716,2.52483
-224,477,0,0,0,0,0,0,0,0,0,-1,1000,547,0,0
-217,477,0,0,0,0,0,0,0,0,0,-1,1007,547,0,0
-210,477,0,0,0,0,0,0,0,0,0,-1,1014,547,0,0
-203,477,0,0,0,0,0,0,0,0,0,-1,1021,547,0,0
-196,477,0,0,0,0,0,0,0,0,0,-1,1028,547,0,0
-189,477,0,0,0,0,0,0,0,0,0,-1,1035,547,0,0
-182,477,0,0,0,0,0,0,0,0,0,-1,1042,547,0,0
-175,477,0,0,0,0,0,0,0,0,0,-1,1049,547,0,0
-168,477,0,0,0,0,0,0,0,0,0,-1,1056,547,0,0
-161,477,0,0,0,0,0,0,0,0,0,-1,1063,547,0,0
-154,477,0,0,0,0,0,0,0,0,0,-1,1070,547,0,0
-147,477,0,0,0,0,0,0,0,0,0,-1,1077,547,0,0
-140,477,0,0,0,0,0,0,0,0,0,-1,1084,547,0,0
-133,477,0,0,0,0,0,0,0,0,0,-1,1091,547,0,0
-126,477,0,0,0,0,0,0,0,0,0,-1,1098,547,0,0
-119,477,0,0,0,0,0,0,0,0,0,-1,1105,547,0,0
-112,477,0,0,0,0,0,0,0,0,0,-1,1112,547,0,0
-105,477,0,0,0,0,0,0,0,0,0,-1,1119,547,0,0
-98,477,0,0,0,0,0,0,0,0,0,-1,1126,547,0,0
-91,477,0,0,0,0,0,0,0,0,0,-1,1133,547,0,0
-84,477,0,0,0,0,0,0,0,0,0,-1,1140,547,0,0
-77,477,0,0,0,0,0,0,0,0,0,-1,1147,547,0,0
-70,477,0,0,0,0,0,0,0,0,0,-1,1154,547,0,0
-63,477,0,0,0,0,0,0,0,0,0,-1,1161,547,0,0
-56,477,0,0,0,0,0,0,0,0,0,-1,1168,547,0,0
-49,477,0,0,0,0,0,0,0,0,0,-1,1175,547,0,0
-42,477,0,0,0,0,0,0,0,0,0,-1,1182,547,0,0
-35,477,0,0,0,0,0,0,0,0,0,-1,1189,547,0,0
-28,477,0,0,0,0,0,0,0,0,0,-1,1196,547,0,0
-21,477,0,0,0,0,0,0,0,0,0,-1,1203,547,0,0
-14,477,0,0,0,0,0,0,0,0,0,-1,1210,547,0,0
-7,477,0,0,0,0,0,0,0,0,0,-1,1217,547,0,0
0,477,0,0,0,0,0,0,0,0,0,-1,1224,547,0,0
7,477,0,0,0,0,0,0,0,0,0,-1,1231,547,0,0
14,477,0,0,0,0,0,0,0,0,0,-1,1238,547,0,0
21,477,0,0,0,0,0,0,0,0,0,-1,1245,547,0,0
28,477,0,0,0,0,0,0,0,0,0,-1,1252,547,0,0
35,477,0,0,0,0,0,0,0,0,0,-1,1259,547,0,0
42,477,0,0,0,0,0,0,0,0,0,-1,1266,547,0,0
49,477,0,0,0,0,0,0,0,0,0,-1,1273,547,0,0
56,477,0,0,0,0,0,0,0,0,0,-1,1280,547,0,0
63,477,0,0,0,0,0,0,0,0,0,-1,1287,547,0,0
70,477,0,0,0,0,0,0,0,0,0,-1,1294,547,0,0
77,477,0,0,0,0,0,0,0,0,0,-1,1301,547,0,0
84,477,0,0,0,0,0,0,0,0,0,-1,1308,547,0,0
91,477,0,0,0,0,0,0,0,0,0,-1,1315,547,0,0
98,477,0,0,0,0,0,0,0,0,0,-1,1322,547,0,0
105,477,0,0,0,0,0,0,0,0,0,-1,1329,547,0,0
112,477,0,0,0,0,0,0,0,0,0,-1,1336,547,0,0
119,477,0,0,0,0,0,0,0,0,0,-1,1343,547,0,0
126,477,0,0,0,0,0,0,0,0,0,-1,1350,547,0,0
133,477,0,0,0,0,0,0,0,0,0,-1,1357,547,0,0
140,477,0,0,0,0,0,0,0,0,0,-1,1364,547,0,0
147,477,0,0,0,0,0,0,0,0,0,-1,1371,547,0,0
154,477,0,0,0,0,0,0,0,0,0,-1,1378,547,0,0
161,477,0,0,0,0,0,0,0,0,0,-1,1385,547,0,0
168,477,0,0,0,0,0,0,0,0,0,-1,1392,547,0,0
175,477,0,0,0,0,0,0,0,0,0,-1,1399,547,0,0
182,477,0,0,0,0,0,0,0,0,0,-1,1406,547,0,0
189,477,0,0,0,0,0,0,0,0,0,-1,1413,547,0,0
196,477,0,0,0,0,0,0,0,0,0,-1,1420,547,0,0
203,477,0,0,0,0,0,0,0,0,0,-1,1427,547,0,0
210,477,0,0,0,0,0,0,0,0,0,-1,1434,547,0,0
217,477,0,0,0,0,0,0,0,0,0,-1,1441,547,0,0
224,477,0,0,0,0,0,0,0,0,0,-1,1448,547,0,0
231,477,0,0,0,0,0,0,0,0,0,-1,1455,547,0,0
238,477,0,0,0,0,0,0,0,0,0,-1,1462,547,0,0
245,477,0,0,0,0,0,0,0,0,0,-1,1469,547,0,0
252,477,0,0,0,0,0,0,0,0,0,-1,1476,547,0,0
259,477,0,0,0,0,0,0,0,0,0,-1,1483,547,0,0
266,477,0,0,0,0,0,0,0,0,0,-1,1490,547,0,0
273,477,0,0,0,0,0,0,0,0,0,-1,1497,547,0,0
280,477,0,0,0,0,0,0,0,0,0,-1,1504,547,0,0
287,477,0,0,0,0,0,0,0,0,0,-1,1511,547,0,0
294,477,0,0,0,0,0,0,0,0,0,-1,1518,547,0,0
301,477,0,0,0,0,0,0,0,0,0,-1,1525,547,0,0
308,477,0,0,0,0,0,0,0,0,0,-1,1532,547,0,0
315,477,0,0,0,0,0,0,0,0,0,-1,1539,547,0,0
322,477,0,0,0,0,0,0,0,0,0,-1,1546,547,0,0
329,477,0,0,0,0,0,0,0,0,0,-1,1553,547,0,0
336,477,0,0,0,0,0,0,0,0,0,-1,1560,547,0,0
343,477,0,0,0,0,0,0,0,0,0,-1,1567,547,0,0
350,477,1.7699,-3.32275,0,0,0,0,0,0,0,-1,1574,547,1.7699,3.32272
357,477,3.073,-4.83313,0,0,0,0,0,0,0,-1,1581,547,3.07303,4.83316
364,477,4.30127,-4.22864,0,0,0,0,0,0,0,-1,1588,547,4.30125,4.22865
371,477,4.57703,0.283264,0,0,0,0,0,0,0,-1,1595,547,4.57706,-0.283262
378,477,8.57947,1.05969,0,0,0,0,0,0,0,-1,1602,547,8.5795,-1.05972
385,477,12.3726,2.02356,0,0,0,0,0,0,0,-1,1609,547,12.3725,-2.02355
392,477,16.4678,2.76843,0,0,0,0,0,0,0,-1,1616,547,16.4678,-2.76845
399,477,8.00037,-2.29523,0,0,0,0,0,0,0,-1,1623,547,8.00031,2.2952
406,477,4.82495,2.7475,0,0,0,0,0,0,0,-1,1630,547,4.825,-2.74752
413,477,4.88171,-0.336426,0,0,0,0,0,0,0,-1,1637,547,4.88169,0.336398
420,477,3.34875,0.102722,0,0,0,0,0,0,0,-1,1644,547,3.34871,-0.1027
427,477,1.66772,-0.373108,0,0,0,0,0,0,0,-1,1651,547,1.66768,0.373104
434,477,3.76978,-2.30798,0,0,0,0,0,0,0,-1,1658,547,3.76974,2.30801
441,477,4.05444,-2.80402,0,0,0,0,0,0,0,-1,1665,547,4.05444,2.804
448,477,10.4247,-11.7421,0,0,0,0,0,0,0,-1,1672,547,10.4247,11.7421
455,477,13.3054,-16.8109,0,0,0,0,0,0,0,-1,1679,547,13.3054,16.8109
462,477,20.3876,-28.392,0,0,0,0,0,0,0,-1,1686,547,20.3876,28.392
469,477,20.4078,-27.4534,0,0,0,0,0,0,0,-1,1693,547,20.4078,27.4534
476,477,20.3588,-26.6525,0.00141816,0.000432296,-0.000687323,0.00177104,7.94182e-05,-0.474317,0.00115513,0.0267873,1700,547,20.3587,26.6525
483,477,20.3344,-25.8488,0.00142935,0.000676822,-0.000214673,0.00148628,0.000619889,-0.259238,0.000862028,0.0136174,1707,547,20.3344,25.8488
490,477,20.2877,-25.1136,0.0012776,0.0010364,0.000178171,0.00137215,0.000941851,0.487874,0.000810356,0.0137032,1714,547,20.2877,25.1136
497,477,20.2704,-24.2962,0.00111669,0.00150997,0.000721601,0.00206124,0.000565414,0.91842,0.00122981,0.0139908,1721,547,20.2703,24.2962
504,477,20.2275,-23.4879,0.000945282,0.00155984,0.00111386,0.00240803,9.70925e-05,0.919985,0.00157399,0.018817,1728,547,20.2275,23.4879
511,477,20.2087,-22.7108,0.000654553,0.0016736,0.00143828,0.00268994,-0.000361791,0.95563,0.00192526,0.0232675,1735,547,20.2087,22.7108
518,477,20.1609,-21.94,0.000234811,0.0018331,0.0016707,0.00288594,-0.000818034,1.00848,0.00224684,0.0203536,1742,547,20.1609,21.94
525,477,20.0935,-21.1083,-0.000174569,0.00204551,0.00186713,0.00310764,-0.00123671,1.05359,0.00258458,0.0178883,1749,547,20.0935,21.1082
532,477,19.9998,-20.2624,-0.000583326,0.00240828,0.002057,0.00345584,-0.00163088,1.09976,0.00299916,0.0202551,1756,547,19.9998,20.2624
539,477,19.9689,-19.3657,-0.00103532,0.00281515,0.00216,0.00378337,-0.00200355,1.14939,0.00339335,0.0184861,1763,547,19.9689,19.3656
546,477,19.8545,-18.6268,-0.0015113,0.00354133,0.00225724,0.00440285,-0.00237281,1.20619,0.00397003,0.0433726,1770,547,19.8545,18.6268
553,477,19.9253,-17.701,0,0,0,0,0,0,0,-1,1777,547,19.9253,17.701
560,477,19.4597,-16.1135,0,0,0,0,0,0,0,-1,1784,547,19.4597,16.1135
567,477,13.9529,-8.70972,0,0,0,0,0,0,0,-1,1791,547,13.9529,8.7097
574,477,6.82593,-0.916992,0,0,0,0,0,0,0,-1,1798,547,6.82598,0.916977
581,477,9.29321,-0.557007,0,0,0,0,0,0,0,-1,1805,547,9.29324,0.55703
588,477,9.75195,0.422729,0,0,0,0,0,0,0,-1,1812,547,9.75198,-0.42273
595,477,9.89172,1.21326,0,0,0,0,0,0,0,-1,1819,547,9.89174,-1.21328
602,477,6.5271,-0.964417,0,0,0,0,0,0,0,-1,1826,547,6.52706,0.964427
609,477,0,0,0,0,0,0,0,0,0,-1,1833,547,0,0
616,477,0,0,0,0,0,0,0,0,0,-1,1840,547,0,0
623,477,0,0,0,0,0,0,0,0,0,-1,1847,547,0,0
630,477,0,0,0,0,0,0,0,0,0,-1,1854,547,0,0
637,477,0,0,0,0,0,0,0,0,0,-1,1861,547,0,0
644,477,0,0,0,0,0,0,0,0,0,-1,1868,547,0,0
651,477,0,0,0,0,0,0,0,0,0,-1,1875,547,0,0
658,477,0,0,0,0,0,0,0,0,0,-1,1882,547,0,0
665,477,0,0,0,0,0,0,0,0,0,-1,1889,547,0,0
672,477,0,0,0,0,0,0,0,0,0,-1,1896,547,0,0
679,477,0,0,0,0,0,0,0,0,0,-1,1903,547,0,0
686,477,0,0,0,0,0,0,0,0,0,-1,1910,547,0,0
693,477,0,0,0,0,0,0,0,0,0,-1,1917,547,0,0
700,477,0,0,0,0,0,0,0,0,0,-1,1924,547,0,0
707,477,0,0,0,0,0,0,0,0,0,-1,1931,547,0,0
714,477,0,0,0,0,0,0,0,0,0,-1,1938,547,0,0
721,477,0,0,0,0,0,0,0,0,0,-1,1945,547,0,0
728,477,0,0,0,0,0,0,0,0,0,-1,1952,547,0,0
735,477,0,0,0,0,0,0,0,0,0,-1,1959,547,0,0
742,477,0,0,0,0,0,0,0,0,0,-1,1966,547,0,0
749,477,0,0,0,0,0,0,0,0,0,-1,1973,547,0,0
756,477,0,0,0,0,0,0,0,0,0,-1,1980,547,0,0
763,477,0,0,0,0,0,0,0,0,0,-1,1987,547,0,0
770,477,0,0,0,0,0,0,0,0,0,-1,1994,547,0,0
777,477,0,0,0,0,0,0,0,0,0,-1,2001,547,0,0
784,477,0,0,0,0,0,0,0,0,0,-1,2008,547,0,0
791,477,0,0,0,0,0,0,0,0,0,-1,2015,547,0,0
798,477,0,0,0,0,0,0,0,0,0,-1,2022,547,0,0
805,477,0,0,0,0,0,0,0,0,0,-1,2029,547,0,0
812,477,0,0,0,0,0,0,0,0,0,-1,2036,547,0,0
-700,470,0,0,0,0,0,0,0,0,0,-1,524,554,0,0
-693,470,0,0,0,0,0,0,0,0,0,-1,531,554,0,0
-686,470,0,0,0,0,0,0,0,0,0,-1,538,554,0,0
-679,470,0,0,0,0,0,0,0,0,0,-1,545,554,0,0
-672,470,0,0,0,0,0,0,0,0,0,-1,552,554,0,0
-665,470,0,0,0,0,0,0,0,0,0,-1,559,554,0,0
-658,470,0,0,0,0,0,0,0,0,0,-1,566,554,0,0
-651,470,0,0,0,0,0,0,0,0,0,-1,573,554,0,0
-644,470,0,0,0,0,0,0,0,0,0,-1,580,554,0,0
-637,470,0,0,0,0,0,0,0,0,0,-1,587,554,0,0
-630,470,0,0,0,0,0,0,0,0,0,-1,594,554,0,0
-623,470,0,0,0,0,0,0,0,0,0,-1,601,554,0,0
-616,470,0,0,0,0,0,0,0,0,0,-1,608,554,0,0
-609,470,0,0,0,0,0,0,0,0,0,-1,615,554,0,0
-602,470,0,0,0,0,0,0,0,0,0,-1,622,554,0,0
-595,470,0,0,0,0,0,0,0,0,0,-1,629,554,0,0
-588,470,0,0,0,0,0,0,0,0,0,-1,636,554,0,0
-581,470,0,0,0,0,0,0,0,0,0,-1,643,554,0,0
-574,470,0,0,0,0,0,0,0,0,0,-1,650,554,0,0
-567,470,0,0,0,0,0,0,0,0,0,-1,657,554,0,0
-560,470,0,0,0,0,0,0,0,0,0,-1,664,554,0,0
-553,470,0,0,0,0,0,0,0,0,0,-1,671,554,0,0
-546,470,0,0,0,0,0,0,0,0,0,-1,678,554,0,0
-539,470,0,0,0,0,0,0,0,0,0,-1,685,554,0,0
-532,470,0,0,0,0,0,0,0,0,0,-1,692,554,0,0
-525,470,0,0,0,0,0,0,0,0,0,-1,699,554,0,0
-518,470,0,0,0,0,0,0,0,0,0,-1,706,554,0,0
-511,470,0,0,0,0,0,0,0,0,0,-1,713,554,0,0
-504,470,0,0,0,0,0,0,0,0,0,-1,720,554,0,0
-497,470,0,0,0,0,0,0,0,0,0,-1,727,554,0,0
-490,470,-9.13263,-1.03125,0,0,0,0,0,0,0,-1,734,554,-9.1326,1.03127
-483,470,-7.68677,-1.03955,0,0,0,0,0,0,0,-1,741,554,-7.68678,1.03958
-476,470,-6.17969,-1.03394,0,0,0,0,0,0,0,-1,748,554,-6.17971,1.03395
-469,470,-6.23016,-0.651855,0,0,0,0,0,0,0,-1,755,554,-6.23014,0.651829
-462,470,-4.87915,-1.03705,0,0,0,0,0,0,0,-1,762,554,-4.87914,1.03702
-455,470,-4.14777,-1.37079,0,0,0,0,0,0,0,-1,769,554,-4.14779,1.37078
-448,470,-2.9314,-5.74518,0,0,0,0,0,0,0,-1,776,554,-2.93137,5.74518
-441,470,-6.40857,-15.7271,0,0,0,0,0,0,0,-1,783,554,-6.40856,15.7271
-434,470,-7.16254,-17.7833,0,0,0,0,0,0,0,-1,790,554,-7.16251,17.7833
-427,470,-7.2254,-18.6148,-0.000272154,0.0103705,-0.00385377,0.0116194,-0.00152106,-1.2574,0.00829991,0.025408,797,554,-7.2254,18.6148
-420,470,-7.20526,-19.4766,-4.25644e-05,0.00884582,-0.00358374,0.0101107,-0.00130749,-1.23148,0.00721592,0.0174164,804,554,-7.20525,19.4766
-413,470,-7.25293,-20.3323,8.43273e-05,0.00716142,-0.00311225,0.00833535,-0.0010896,-1.2101,0.00595343,0.0149882,811,554,-7.25294,20.3323
-406,470,-7.31854,-21.1539,0.000309299,0.00582782,-0.00272793,0.00694865,-0.000811537,-1.18095,0.00492528,0.013198,818,554,-7.31853,21.1539
-399,470,-7.3399,-21.9608,0.000555634,0.00447659,-0.00228173,0.00552439,-0.000492169,-1.14031,0.00385747,0.01648,825,554,-7.3399,21.9608
-392,470,-7.36407,-22.7329,0.000837532,0.00321165,-0.00184636,0.00421961,-0.000170436,-1.07109,0.00287157,0.0155872,832,554,-7.3641,22.7329
-385,470,-7.43121,-23.5182,0.0011931,0.00208587,-0.00142462,0.0031324,0.000146566,-0.937222,0.00204117,0.0118059,839,554,-7.43119,23.5182
-378,470,-7.46741,-24.3176,0.00149898,0.00099265,-0.000944875,0.00222402,0.000267613,-0.654504,0.00140202,0.0163039,846,554,-7.46738,24.3176
-371,470,-7.51947,-25.0804,0.00177709,-3.99191e-05,-0.000477741,0.00189505,-0.000157873,-0.242058,0.00131914,0.014068,853,554,-7.51944,25.0804
-364,470,-7.56232,-25.8194,0.00206472,-0.000961733,-3.75188e-05,0.00206518,-0.000962198,-0.0123944,0.00178611,0.0140088,860,554,-7.56231,25.8194
-357,470,-7.62408,-26.58,0.00242113,-0.00175269,0.000302871,0.00244299,-0.00177455,0.0720613,0.00244517,0.0144661,867,554,-7.6241,26.58
-350,470,-7.65344,-27.3824,0.00282637,-0.00247273,0.000483331,0.00287009,-0.00251645,0.0902181,0.00311216,0.0129227,874,554,-7.65342,27.3824
-343,470,-7.6347,-28.244,0,0,0,0,0,0,0,-1,881,554,-7.63469,28.244
-336,470,-7.36633,-29.0025,0,0,0,0,0,0,0,-1,888,554,-7.36632,29.0025
-329,470,-2.78516,-12.3594,0,0,0,0,0,0,0,-1,895,554,-2.78517,12.3594
-322,470,-2.30829,-11.4527,0,0,0,0,0,0,0,-1,902,554,-2.30827,11.4527
-315,470,-1.04797,-8.29529,0,0,0,0,0,0,0,-1,909,554,-1.04797,8.29526
-308,470,-1.39368,-6.68152,0,0,0,0,0,0,0,-1,916,554,-1.39369,6.68149
-301,470,-0.0340576,3.34888,0,0,0,0,0,0,0,-1,923,554,-0.0340496,-3.3489
-294,470,-1.18378,3.22266,0,0,0,0,0,0,0,-1,930,554,-1.18376,-3.22268
-287,470,-2.15454,3.2204,0,0,0,0,0,0,0,-1,937,554,-2.15452,-3.22037
-280,470,-3.00537,3.099,0,0,0,0,0,0,0,-1,944,554,-3.00536,-3.09898
-273,470,-12.3932,3.65009,0,0,0,0,0,0,0,-1,951,554,-12.3932,-3.65011
-266,470,-11.5706,1.16028,0,0,0,0,0,0,0,-1,958,554,-11.5706,-1.16031
-259,470,-7.50415,-2.77167,0,0,0,0,0,0,0,-1,965,554,-7.50413,2.7717
-252,470,-0.371155,-5.87823,0,0,0,0,0,0,0,-1,972,554,-0.37114,5.87821
-245,470,1.33221,-6.81122,0,0,0,0,0,0,0,-1,979,554,1.33223,6.8112
-238,470,0,0,0,0,0,0,0,0,0,-1,986,554,0,0
-231,470,0,0,0,0,0,0,0,0,0,-1,993,554,0,0
-224,470,0,0,0,0,0,0,0,0,0,-1,1000,554,0,0
-217,470,0,0,0,0,0,0,0,0,0,-1,1007,554,0,0
-210,470,0,0,0,0,0,0,0,0,0,-1,1014,554,0,0
-203,470,0,0,0,0,0,0,0,0,0,-1,1021,554,0,0
-196,470,0,0,0,0,0,0,0,0,0,-1,1028,554,0,0
-189,470,0,0,0,0,0,0,0,0,0,-1,1035,554,0,0
-182,470,0,0,0,0,0,0,0,0,0,-1,1042,554,0,0
-175,470,0,0,0,0,0,0,0,0,0,-1,1049,554,0,0
-168,470,0,0,0,0,0,0,0,0,0,-1,1056,554,0,0
-161,470,0,0,0,0,0,0,0,0,0,-1,1063,554,0,0
-154,470,0,0,0,0,0,0,0,0,0,-1,1070,554,0,0
-147,470,0,0,0,0,0,0,0,0,0,-1,1077,554,0,0
-140,470,0,0,0,0,0,0,0,0,0,-1,1084,554,0,0
-133,470,0,0,0,0,0,0,0,0,0,-1,1091,554,0,0
-126,470,0,0,0,0,0,0,0,0,0,-1,1098,554,0,0
-119,470,0,0,0,0,0,0,0,0,0,-1,1105,554,0,0
-112,470,0,0,0,0,0,0,0,0,0,-1,1112,554,0,0
-105,470,0,0,0,0,0,0,0,0,0,-1,1119,554,0,0
-98,470,0,0,0,0,0,0,0,0,0,-1,1126,554,0,0
-91,470,0,0,0,0,0,0,0,0,0,-1,1133,554,0,0
-84,470,0,0,0,0,0,0,0,0,0,-1,1140,554,0,0
-77,470,0,0,0,0,0,0,0,0,0,-1,1147,554,0,0
-70,470,0,0,0,0,0,0,0,0,0,-1,1154,554,0,0
-63,470,0,0,0,0,0,0,0,0,0,-1,1161,554,0,0
-56,470,0,0,0,0,0,0,0,0,0,-1,1168,554,0,0
-49,470,0,0,0,0,0,0,0,0,0,-1,1175,554,0,0
-42,470,0,0,0,0,0,0,0,0,0,-1,1182,554,0,0
-35,470,0,0,0,0,0,0,0,0,0,-1,1189,554,0,0
-28,470,0,0,0,0,0,0,0,0,0,-1,1196,554,0,0
-21,470,0,0,0,0,0,0,0,0,0,-1,1203,554,0,0
-14,470,0,0,0,0,0,0,0,0,0,-1,1210,554,0,0
-7,470,0,0,0,0,0,0,0,0,0,-1,1217,554,0,0
0,470,0,0,0,0,0,0,0,0,0,-1,1224,554,0,0
7,470,0,0,0,0,0,0,0,0,0,-1,1231,554,0,0
14,470,0,0,0,0,0,0,0,0,0,-1,1238,554,0,0
21,470,0,0,0,0,0,0,0,0,0,-1,1245,554,0,0
28,470,0,0,0,0,0,0,0,0,0,-1,1252,554,0,0
35,470,0,0,0,0,0,0,0,0,0,-1,1259,554,0,0
42,470,0,0,0,0,0,0,0,0,0,-1,1266,554,0,0
49,470,0,0,0,0,0,0,0,0,0,-1,1273,554,0,0
56,470,0,0,0,0,0,0,0,0,0,-1,1280,554,0,0
63,470,0,0,0,0,0,0,0,0,0,-1,1287,554,0,0
70,470,0,0,0,0,0,0,0,0,0,-1,1294,554,0,0
77,470,0,0,0,0,0,0,0,0,0,-1,1301,554,0,0
84,470,0,0,0,0,0,0,0,0,0,-1,1308,554,0,0
91,470,0,0,0,0,0,0,0,0,0,-1,1315,554,0,0
98,470,0,0,0,0,0,0,0,0,0,-1,1322,554,0,0
105,470,0,0,0,0,0,0,0,0,0,-1,1329,554,0,0
112,470,0,0,0,0,0,0,0,0,0,-1,1336,554,0,0
119,470,0,0,0,0,0,0,0,0,0,-1,1343,554,0,0
126,470,0,0,0,0,0,0,0,0,0,-1,1350,554,0,0
133,470,0,0,0,0,0,0,0,0,0,-1,1357,554,0,0
140,470,0,0,0,0,0,0,0,0,0,-1,1364,554,0,0
147,470,0,0,0,0,0,0,0,0,0,-1,1371,554,0,0
154,470,0,0,0,0,0,0,0,0,0,-1,1378,554,0,0
161,470,0,0,0,0,0,0,0,0,0,-1,1385,554,0,0
168,470,0,0,0,0,0,0,0,0,0,-1,1392,554,0,0
175,470,0,0,0,0,0,0,0,0,0,-1,1399,554,0,0
182,470,0,0,0,0,0,0,0,0,0,-1,1406,554,0,0
189,470,0,0,0,0,0,0,0,0,0,-1,1413,554,0,0
196,470,0,0,0,0,0,0,0,0,0,-1,1420,554,0,0
203,470,0,0,0,0,0,0,0,0,0,-1,1427,554,0,0
210,470,0,0,0,0,0,0,0,0,0,-1,1434,554,0,0
217,470,0,0,0,0,0,0,0,0,0,-1,1441,554,0,0
224,470,0,0,0,0,0,0,0,0,0,-1,1448,554,0,0
231,470,0,0,0,0,0,0,0,0,0,-1,1455,554,0,0
238,470,0,0,0,0,0,0,0,0,0,-1,1462,554,0,0
245,470,0,0,0,0,0,0,0,0,0,-1,1469,554,0,0
252,470,0,0,0,0,0,0,0,0,0,-1,1476,554,0,0
259,470,0,0,0,0,0,0,0,0,0,-1,1483,554,0,0
266,470,0,0,0,0,0,0,0,0,0,-1,1490,554,0,0
273,470,0,0,0,0,0,0,0,0,0,-1,1497,554,0,0
280,470,0,0,0,0,0,0,0,0,0,-1,1504,554,0,0
287,470,0,0,0,0,0,0,0,0,0,-1,1511,554,0,0
294,470,0,0,0,0,0,0,0,0,0,-1,1518,554,0,0
301,470,0,0,0,0,0,0,0,0,0,-1,1525,554,0,0
308,470,0,0,0,0,0,0,0,0,0,-1,1532,554,0,0
315,470,0,0,0,0,0,0,0,0,0,-1,1539,554,0,0
322,470,0,0,0,0,0,0,0,0,0,-1,1546,554,0,0
329,470,0,0,0,0,0,0,0,0,0,-1,1553,554,0,0
336,470,0,0,0,0,0,0,0,0,0,-1,1560,554,0,0
343,470,0,0,0,0,0,0,0,0,0,-1,1567,554,0,0
350,470,0,0,0,0,0,0,0,0,0,-1,1574,554,0,0
357,470,0,0,0,0,0,0,0,0,0,-1,1581,554,0,0
364,470,1.33423,0.293335,0,0,0,0,0,0,0,-1,1588,554,1.33422,-0.293348
371,470,2.22498,-0.0305176,0,0,0,0,0,0,0,-1,1595,554,2.22494,0.0305046
378,470,6.27051,0.710083,0,0,0,0,0,0,0,-1,1602,554,6.27054,-0.710093
385,470,10.3657,1.47296,0,0,0,0,0,0,0,-1,1609,554,10.3657,-1.47299
392,470,15.3881,3.01935,0,0,0,0,0,0,0,-1,1616,554,15.388,-3.01937
399,470,18.4479,2.93793,0,0,0,0,0,0,0,-1,1623,554,18.4479,-2.93792
406,470,15.1896,1.36676,0,0,0,0,0,0,0,-1,1630,554,15.1896,-1.36679
413,470,6.55383,1.99207,0,0,0,0,0,0,0,-1,1637,554,6.5538,-1.99208
420,470,4.47095,0.845703,0,0,0,0,0,0,0,-1,1644,554,4.47098,-0.845718
427,470,3.51038,1.19684,0,0,0,0,0,0,0,-1,1651,554,3.51039,-1.19684
434,470,3.31775,-1.37427,0,0,0,0,0,0,0,-1,1658,554,3.31781,1.37426
441,470,2.55457,-2.05902,0,0,0,0,0,0,0,-1,1665,554,2.55461,2.05904
448,470,3.27258,-2.64032,0,0,0,0,0,0,0,-1,1672,554,3.27257,2.64029
455,470,10.3658,-9.82233,0,0,0,0,0,0,0,-1,1679,554,10.3659,9.82233
462,470,11.0651,-11.9958,0,0,0,0,0,0,0,-1,1686,554,11.0651,11.9958
469,470,15.4242,-19.0521,0,0,0,0,0,0,0,-1,1693,554,15.4242,19.0521
476,470,21.0996,-26.7038,0,0,0,0,0,0,0,-1,1700,554,21.0996,26.7038
483,470,21.1437,-25.8188,0.00180187,0.000821637,-0.000247043,0.00186061,0.000762896,-0.233441,0.00108001,0.0197556,1707,554,21.1437,25.8188
490,470,21.0763,-25.0553,0.00167926,0.00111,8.44119e-05,0.00169151,0.00109775,0.144153,0.000990937,0.0133942,1714,554,21.0763,25.0553
497,470,21.0514,-24.2558,0.00151372,0.00155594,0.000635799,0.00217098,0.00089868,0.801996,0.00125959,0.0138239,1721,554,21.0513,24.2558
504,470,21.0365,-23.4811,0.00130772,0.00151832,0.000981105,0.00239976,0.000426281,0.838856,0.00147838,0.0197988,1728,554,21.0365,23.4812
511,470,20.99,-22.691,0.00102674,0.0015268,0.00124809,0.00254966,3.87826e-06,0.884254,0.00169848,0.0271002,1735,554,20.99,22.691
518,470,20.9368,-21.8903,0.00064542,0.00158679,0.00144741,0.00263812,-0.000405911,0.942601,0.0019085,0.0266689,1742,554,20.9368,21.8902
525,470,20.9014,-21.0595,0.000259844,0.00172111,0.00160006,0.00274946,-0.000768504,0.999575,0.00213574,0.0168152,1749,554,20.9014,21.0595
532,470,20.8176,-20.1733,-0.000123658,0.00200879,0.00174351,0.00298625,-0.00110112,1.05983,0.00244207,0.0149719,1756,554,20.8177,20.1733
539,470,20.7479,-19.3476,-0.000515962,0.00234385,0.00182897,0.00323553,-0.00140765,1.11717,0.00274911,0.0181057,1763,554,20.7479,19.3476
546,470,20.7174,-18.5651,-0.000899507,0.00297398,0.00190912,0.00375675,-0.00168227,1.18169,0.00321545,0.0167304,1770,554,20.7174,18.565
553,470,20.759,-17.7554,-0.00120753,0.00379328,0.00204959,0.00452596,-0.00194021,1.22748,0.00383145,0.0268575,1777,554,20.759,17.7554
560,470,20.8391,-16.7137,0,0,0,0,0,0,0,-1,1784,554,20.8391,16.7137
567,470,20.6868,-15.7222,0,0,0,0,0,0,0,-1,1791,554,20.6867,15.7222
574,470,14.2793,-8.07147,0,0,0,0,0,0,0,-1,1798,554,14.2793,8.07147
581,470,8.24646,-4.06317,0,0,0,0,0,0,0,-1,1805,554,8.24648,4.06318
588,470,11.1803,1.74927,0,0,0,0,0,0,0,-1,1812,554,11.1803,-1.74926
595,470,4.72192,3.44116,0,0,0,0,0,0,0,-1,1819,554,4.72191,-3.44116
602,470,14.4307,2.76141,0,0,0,0,0,0,0,-1,1826,554,14.4306,-2.76139
609,470,20.9181,4.41058,0,0,0,0,0,0,0,-1,1833,554,20.9181,-4.4106
616,470,0,0,0,0,0,0,0,0,0,-1,1840,554,0,0
623,470,0,0,0,0,0,0,0,0,0,-1,1847,554,0,0
630,470,0,0,0,0,0,0,0,0,0,-1,1854,554,0,0
637,470,0,0,0,0,0,0,0,0,0,-1,1861,554,0,0
644,470,0,0,0,0,0,0,0,0,0,-1,1868,554,0,0
651,470,0,0,0,0,0,0,0,0,0,-1,1875,554,0,0
658,470,0,0,0,0,0,0,0,0,0,-1,1882,554,0,0
665,470,0,0,0,0,0,0,0,0,0,-1,1889,554,0,0
672,470,0,0,0,0,0,0,0,0,0,-1,1896,554,0,0
679,470,0,0,0,0,0,0,0,0,0,-1,1903,554,0,0
686,470,0,0,0,0,0,0,0,0,0,-1,1910,554,0,0
693,470,0,0,0,0,0,0,0,0,0,-1,1917,554,0,0
700,470,0,0,0,0,0,0,0,0,0,-1,1924,554,0,0
707,470,0,0,0,0,0,0,0,0,0,-1,1931,554,0,0
714,470,0,0,0,0,0,0,0,0,0,-1,1938,554,0,0
721,470,0,0,0,0,0,0,0,0,0,-1,1945,554,0,0
728,470,0,0,0,0,0,0,0,0,0,-1,1952,554,0,0
735,470,0,0,0,0,0,0,0,0,0,-1,1959,554,0,0
742,470,0,0,0,0,0,0,0,0,0,-1,1966,554,0,0
749,470,0,0,0,0,0,0,0,0,0,-1,1973,554,0,0
756,470,0,0,0,0,0,0,0,0,0,-1,1980,554,0,0
763,470,0,0,0,0,0,0,0,0,0,-1,1987,554,0,0
770,470,0,0,0,0,0,0,0,0,0,-1,1994,554,0,0
777,470,0,0,0,0,0,0,0,0,0,-1,2001,554,0,0
784,470,0,0,0,0,0,0,0,0,0,-1,2008,554,0,0
791,470,0,0,0,0,0,0,0,0,0,-1,2015,554,0,0
798,470,0,0,0,0,0,0,0,0,0,-1,2022,554,0,0
805,470,0,0,0,0,0,0,0,0,0,-1,2029,554,0,0
812,470,0,0,0,0,0,0,0,0,0,-1,2036,554,0,0
-700,463,0,0,0,0,0,0,0,0,0,-1,524,561,0,0
-693,463,0,0,0,0,0,0,0,0,0,-1,531,561,0,0
-686,463,0,0,0,0,0,0,0,0,0,-1,538,561,0,0
-679,463,0,0,0,0,0,0,0,0,0,-1,545,561,0,0
-672,463,0,0,0,0,0,0,0,0,0,-1,552,561,0,0
-665,463,0,0,0,0,0,0,0,0,0,-1,559,561,0,0
-658,463,0,0,0,0,0,0,0,0,0,-1,566,561,0,0
-651,463,0,0,0,0,0,0,0,0,0,-1,573,561,0,0
-644,463,0,0,0,0,0,0,0,0,0,-1,580,561,0,0
-637,463,0,0,0,0,0,0,0,0,0,-1,587,561,0,0
-630,463,0,0,0,0,0,0,0,0,0,-1,594,561,0,0
-623,463,0,0,0,0,0,0,0,0,0,-1,601,561,0,0
-616,463,0,0,0,0,0,0,0,0,0,-1,608,561,0,0
-609,463,0,0,0,0,0,0,0,0,0,-1,615,561,0,0
-602,463,0,0,0,0,0,0,0,0,0,-1,622,561,0,0
-595,463,0,0,0,0,0,0,0,0,0,-1,629,561,0,0
-588,463,0,0,0,0,0,0,0,0,0,-1,636,561,0,0
-581,463,0,0,0,0,0,0,0,0,0,-1,643,561,0,0
-574,463,0,0,0,0,0,0,0,0,0,-1,650,561,0,0
-567,463,0,0,0,0,0,0,0,0,0,-1,657,561,0,0
-560,463,0,0,0,0,0,0,0,0,0,-1,664,561,0,0
-553,463,0,0,0,0,0,0,0,0,0,-1,671,561,0,0
-546,463,0,0,0,0,0,0,0,0,0,-1,678,561,0,0
-539,463,0,0,0,0,0,0,0,0,0,-1,685,561,0,0
-532,463,0,0,0,0,0,0,0,0,0,-1,692,561,0,0
-525,463,0,0,0,0,0,0,0,0,0,-1,699,561,0,0
-518,463,0,0,0,0,0,0,0,0,0,-1,706,561,0,0
-511,463,0,0,0,0,0,0,0,0,0,-1,713,561,0,0
-504,463,0,0,0,0,0,0,0,0,0,-1,720,561,0,0
-497,463,-9.81451,-1.67126,0,0,0,0,0,0,0,-1,727,561,-9.81452,1.67127
-490,463,-8.57043,-1.58942,0,0,0,0,0,0,0,-1,734,561,-8.57045,1.58944
-483,463,-7.29224,-1.7226,0,0,0,0,0,0,0,-1,741,561,-7.29226,1.72261
-476,463,-5.77704,-1.7312,0,0,0,0,0,0,0,-1,748,561,-5.77703,1.73121
-469,463,-5.14545,-2.138,0,0,0,0,0,0,0,-1,755,561,-5.14546,2.13799
-462,463,-3.13672,-3.07977,0,0,0,0,0,0,0,-1,762,561,-3.13672,3.07974
-455,463,-2.91406,-5.61798,0,0,0,0,0,0,0,-1,769,561,-2.91406,5.61801
-448,463,-4.00177,-8.54681,0,0,0,0,0,0,0,-1,776,561,-4.00175,8.54683
-441,463,-8.04681,-16.7819,0,0,0,0,0,0,0,-1,783,561,-8.0468,16.7819
-434,463,-7.93939,-17.8414,-0.000484958,0.00884047,-0.0031467,0.00980294,-0.00144742,-1.27397,0.00706735,0.0342434,790,561,-7.93941,17.8414
-427,463,-7.97968,-18.6707,-0.000282338,0.00754338,-0.00277261,0.00842612,-0.00116508,-1.26256,0.00604333,0.0114009,797,561,-7.9797,18.6707
-420,463,-7.99677,-19.4814,-2.55132e-05,0.0063606,-0.00252651,0.00723926,-0.000904174,-1.2361,0.00515407,0.0105029,804,561,-7.99677,19.4814
-413,463,-8.04102,-20.2905,0.000110026,0.00496865,-0.00207391,0.0057335,-0.000654824,-1.21748,0.00405826,0.0111461,811,561,-8.04103,20.2905
-406,463,-8.11603,-21.0931,0.000348014,0.00392739,-0.00175513,0.00464439,-0.000368981,-1.18297,0.00322629,0.0116593,818,561,-8.11602,21.0931
-399,463,-8.14868,-21.8953,0.000649629,0.00286437,-0.00142224,0.00355951,-4.55108e-05,-1.11618,0.00238832,0.0124515,825,561,-8.14867,21.8953
-392,463,-8.18384,-22.6776,0.000995138,0.00185519,-0.00110009,0.00260632,0.000244013,-0.971717,0.00166219,0.0125127,832,561,-8.18381,22.6776
-385,463,-8.22479,-23.4842,0.00143519,0.000974729,-0.000807058,0.00204421,0.000365703,-0.646454,0.00125874,0.0130192,839,561,-8.22478,23.4842
-378,463,-8.2785,-24.2766,0.00186069,0.000131351,-0.00047641,0.00198325,8.79262e-06,-0.251795,0.00131925,0.0133081,846,561,-8.2785,24.2766
-371,463,-8.328,-25.0654,0.00232266,-0.000590153,-0.000176991,0.00233338,-0.000600868,-0.0604664,0.00178981,0.0125088,853,561,-8.32803,25.0654
-364,463,-8.34277,-25.7871,0.00284926,-0.00111087,2.56159e-05,0.00284942,-0.00111104,0.00646809,0.00235885,0.0147934,860,561,-8.34275,25.7871
-357,463,-8.4032,-26.5144,0.0034565,-0.00158713,9.60418e-05,0.00345832,-0.00158896,0.019033,0.00297993,0.021214,867,561,-8.4032,26.5144
-350,463,-8.34851,-27.3751,0.00409658,-0.00212168,2.20002e-05,0.00409665,-0.00212176,0.00353793,0.00365006,0.0456596,874,561,-8.34849,27.3751
-343,463,-8.03912,-28.2466,0,0,0,0,0,0,0,-1,881,561,-8.0391,28.2466
-336,463,-2.94928,-12.2127,0,0,0,0,0,0,0,-1,888,561,-2.94925,12.2127
-329,463,-2.64307,-12.7037,0,0,0,0,0,0,0,-1,895,561,-2.64307,12.7038
-322,463,-1.82898,-9.11957,0,0,0,0,0,0,0,-1,902,561,-1.829,9.11957
-315,463,-0.944763,-5.96234,0,0,0,0,0,0,0,-1,909,561,-0.94479,5.96237
-308,463,-1.1535,-3.17889,0,0,0,0,0,0,0,-1,916,561,-1.15352,3.17889
-301,463,-1.50366,-3.15338,0,0,0,0,0,0,0,-1,923,561,-1.50364,3.15341
-294,463,-2.35889,-3.93463,0,0,0,0,0,0,0,-1,930,561,-2.35886,3.93465
-287,463,-2.80322,2.73999,0,0,0,0,0,0,0,-1,937,561,-2.80322,-2.74
-280,463,-12.864,5.25146,0,0,0,0,0,0,0,-1,944,561,-12.864,-5.25149
-273,463,-12.4598,3.39178,0,0,0,0,0,0,0,-1,951,561,-12.4598,-3.3918
-266,463,-8.78101,-3.7356,0,0,0,0,0,0,0,-1,958,561,-8.78098,3.73562
-259,463,-6.23285,-5.68842,0,0,0,0,0,0,0,-1,965,561,-6.23288,5.68843
-252,463,0,0,0,0,0,0,0,0,0,-1,972,561,0,0
-245,463,0,0,0,0,0,0,0,0,0,-1,979,561,0,0
-238,463,0,0,0,0,0,0,0,0,0,-1,986,561,0,0
-231,463,0,0,0,0,0,0,0,0,0,-1,993,561,0,0
-224,463,0,0,0,0,0,0,0,0,0,-1,1000,561,0,0
-217,463,0,0,0,0,0,0,0,0,0,-1,1007,561,0,0
-210,463,0,0,0,0,0,0,0,0,0,-1,1014,561,0,0
-203,463,0,0,0,0,0,0,0,0,0,-1,1021,561,0,0
-196,463,0,0,0,0,0,0,0,0,0,-1,1028,561,0,0
-189,463,0,0,0,0,0,0,0,0,0,-1,1035,561,0,0
-182,463,0,0,0,0,0,0,0,0,0,-1,1042,561,0,0
-175,463,0,0,0,0,0,0,0,0,0,-1,1049,561,0,0
-168,463,0,0,0,0,0,0,0,0,0,-1,1056,561,0,0
-161,463,0,0,0,0,0,0,0,0,0,-1,1063,561,0,0
-154,463,0,0,0,0,0,0,0,0,0,-1,1070,561,0,0
-147,463,0,0,0,0,0,0,0,0,0,-1,1077,561,0,0
-140,463,0,0,0,0,0,0,0,0,0,-1,1084,561,0,0
-133,463,0,0,0,0,0,0,0,0,0,-1,1091,561,0,0
-126,463,0,0,0,0,0,0,0,0,0,-1,1098,561,0,0
-119,463,0,0,0,0,0,0,0,0,0,-1,1105,561,0,0
-112,463,0,0,0,0,0,0,0,0,0,-1,1112,561,0,0
-105,463,0,0,0,0,0,0,0,0,0,-1,1119,561,0,0
-98,463,0,0,0,0,0,0,0,0,0,-1,1126,561,0,0
-91,463,0,0,0,0,0,0,0,0,0,-1,1133,561,0,0
-84,463,0,0,0,0,0,0,0,0,0,-1,1140,561,0,0
-77,463,0,0,0,0,0,0,0,0,0,-1,1147,561,0,0
-70,463,0,0,0,0,0,0,0,0,0,-1,1154,561,0,0
-63,463,0,0,0,0,0,0,0,0,0,-1,1161,561,0,0
-56,463,0,0,0,0,0,0,0,0,0,-1,1168,561,0,0
-49,463,0,0,0,0,0,0,0,0,0,-1,1175,561,0,0
-42,463,0,0,0,0,0,0,0,0,0,-1,1182,561,0,0
-35,463,0,0,0,0,0,0,0,0,0,-1,1189,561,0,0
-28,463,0,0,0,0,0,0,0,0,0,-1,1196,561,0,0
-21,463,0,0,0,0,0,0,0,0,0,-1,1203,561,0,0
-14,463,0,0,0,0,0,0,0,0,0,-1,1210,561,0,0
-7,463,0,0,0,0,0,0,0,0,0,-1,1217,561,0,0
0,463,0,0,0,0,0,0,0,0,0,-1,1224,561,0,0
7,463,0,0,0,0,0,0,0,0,0,-1,1231,561,0,0
14,463,0,0,0,0,0,0,0,0,0,-1,1238,561,0,0
21,463,0,0,0,0,0,0,0,0,0,-1,1245,561,0,0
28,463,0,0,0,0,0,0,0,0,0,-1,1252,561,0,0
35,463,0,0,0,0,0,0,0,0,0,-1,1259,561,0,0
42,463,0,0,0,0,0,0,0,0,0,-1,1266,561,0,0
49,463,0,0,0,0,0,0,0,0,0,-1,1273,561,0,0
56,463,0,0,0,0,0,0,0,0,0,-1,1280,561,0,0
63,463,0,0,0,0,0,0,0,0,0,-1,1287,561,0,0
70,463,0,0,0,0,0,0,0,0,0,-1,1294,561,0,0
77,463,0,0,0,0,0,0,0,0,0,-1,1301,561,0,0
84,463,0,0,0,0,0,0,0,0,0,-1,1308,561,0,0
91,463,0,0,0,0,0,0,0,0,0,-1,1315,561,0,0
98,463,0,0,0,0,0,0,0,0,0,-1,1322,561,0,0
105,463,0,0,0,0,0,0,0,0,0,-1,1329,561,0,0
112,463,0,0,0,0,0,0,0,0,0,-1,1336,561,0,0
119,463,0,0,0,0,0,0,0,0,0,-1,1343,561,0,0
126,463,0,0,0,0,0,0,0,0,0,-1,1350,561,0,0
133,463,0,0,0,0,0,0,0,0,0,-1,1357,561,0,0
140,463,0,0,0,0,0,0,0,0,0,-1,1364,561,0,0
147,463,0,0,0,0,0,0,0,0,0,-1,1371,561,0,0
154,463,0,0,0,0,0,0,0,0,0,-1,1378,561,0,0
161,463,0,0,0,0,0,0,0,0,0,-1,1385,561,0,0
168,463,0,0,0,0,0,0,0,0,0,-1,1392,561,0,0
175,463,0,0,0,0,0,0,0,0,0,-1,1399,561,0,0
182,463,0,0,0,0,0,0,0,0,0,-1,1406,561,0,0
189,463,0,0,0,0,0,0,0,0,0,-1,1413,561,0,0
196,463,0,0,0,0,0,0,0,0,0,-1,1420,561,0,0
203,463,0,0,0,0,0,0,0,0,0,-1,1427,561,0,0
210,463,0,0,0,0,0,0,0,0,0,-1,1434,561,0,0
217,463,0,0,0,0,0,0,0,0,0,-1,1441,561,0,0
224,463,0,0,0,0,0,0,0,0,0,-1,1448,561,0,0
231,463,0,0,0,0,0,0,0,0,0,-1,1455,561,0,0
238,463,0,0,0,0,0,0,0,0,0,-1,1462,561,0,0
245,463,0,0,0,0,0,0,0,0,0,-1,1469,561,0,0
252,463,0,0,0,0,0,0,0,0,0,-1,1476,561,0,0
259,463,0,0,0,0,0,0,0,0,0,-1,1483,561,0,0
266,463,0,0,0,0,0,0,0,0,0,-1,1490,561,0,0
273,463,0,0,0,0,0,0,0,0,0,-1,1497,561,0,0
280,463,0,0,0,0,0,0,0,0,0,-1,1504,561,0,0
287,463,0,0,0,0,0,0,0,0,0,-1,1511,561,0,0
294,463,0,0,0,0,0,0,0,0,0,-1,1518,561,0,0
301,463,0,0,0,0,0,0,0,0,0,-1,1525,561,0,0
308,463,0,0,0,0,0,0,0,0,0,-1,1532,561,0,0
315,463,0,0,0,0,0,0,0,0,0,-1,1539,561,0,0
322,463,0,0,0,0,0,0,0,0,0,-1,1546,561,0,0
329,463,0,0,0,0,0,0,0,0,0,-1,1553,561,0,0
336,463,0,0,0,0,0,0,0,0,0,-1,1560,561,0,0
343,463,0,0,0,0,0,0,0,0,0,-1,1567,561,0,0
350,463,0,0,0,0,0,0,0,0,0,-1,1574,561,0,0
357,463,0,0,0,0,0,0,0,0,0,-1,1581,561,0,0
364,463,0,0,0,0,0,0,0,0,0,-1,1588,561,0,0
371,463,1.75842,0.152588,0,0,0,0,0,0,0,-1,1595,561,1.75844,-0.152558
378,463,4.58813,-0.0444336,0,0,0,0,0,0,0,-1,1602,561,4.58809,0.0444505
385,463,8.88574,1.65057,0,0,0,0,0,0,0,-1,1609,561,8.88575,-1.65055
392,463,14.0912,2.50513,0,0,0,0,0,0,0,-1,1616,561,14.0912,-2.5051
399,463,21.4769,2.7002,0,0,0,0,0,0,0,-1,1623,561,21.477,-2.70017
406,463,26.2987,4.32318,0,0,0,0,0,0,0,-1,1630,561,26.2987,-4.3232
413,463,26.5011,2.65222,0,0,0,0,0,0,0,-1,1637,561,26.5011,-2.65224
420,463,8.849,2.26611,0,0,0,0,0,0,0,-1,1644,561,8.84899,-2.26613
427,463,5.12207,1.69183,0,0,0,0,0,0,0,-1,1651,561,5.12206,-1.69184
434,463,4.59814,1.81995,0,0,0,0,0,0,0,-1,1658,561,4.59812,-1.81994
441,463,1.76392,-5.99225,0,0,0,0,0,0,0,-1,1665,561,1.7639,5.99225
448,463,2.49939,-4.30536,0,0,0,0,0,0,0,-1,1672,561,2.49941,4.30536
455,463,4.40295,-3.02557,0,0,0,0,0,0,0,-1,1679,561,4.40299,3.02558
462,463,5.38293,-4.06445,0,0,0,0,0,0,0,-1,1686,561,5.38289,4.06444
469,463,5.94373,-4.50647,0,0,0,0,0,0,0,-1,1693,561,5.94368,4.50646
476,463,15.2559,-17.3189,0,0,0,0,0,0,0,-1,1700,561,15.2558,17.3189
483,463,21.906,-25.998,0,0,0,0,0,0,0,-1,1707,561,21.906,25.998
490,463,21.9286,-25.1066,0.0020768,0.00130179,4.60301e-05,0.00207953,0.00129907,0.0591158,0.001213,0.0315067,1714,561,21.9285,25.1065
497,463,21.8391,-24.2223,0.00195852,0.0017486,0.000659689,0.00252155,0.00118557,0.706507,0.00145668,0.0156123,1721,561,21.8391,24.2223
504,463,21.8201,-23.446,0.00173491,0.00165317,0.00097983,0.00267472,0.000713357,0.764554,0.0015993,0.0173732,1728,561,21.8201,23.446
511,463,21.7924,-22.6235,0.00148019,0.00155555,0.00119714,0.0027156,0.000320138,0.801132,0.00171369,0.0244239,1735,561,21.7923,22.6235
518,463,21.743,-21.8016,0.0011512,0.0015084,0.00137534,0.00271668,-5.70863e-05,0.849968,0.00183045,0.0251235,1742,561,21.7431,21.8016
525,463,21.6876,-20.999,0.000789777,0.00156452,0.00148525,0.00271209,-0.000357786,0.912963,0.00193836,0.0201533,1749,561,21.6876,20.999
532,463,21.6964,-20.1509,0.0004296,0.00177507,0.00157803,0.00281778,-0.000613109,0.986889,0.00211275,0.0186564,1756,561,21.6964,20.1509
539,463,21.609,-19.3043,7.92545e-05,0.00203738,0.00163757,0.00296625,-0.000849614,1.05483,0.00231331,0.0205511,1763,561,21.6091,19.3043
546,463,21.5531,-18.5656,-0.000254431,0.00255639,0.00168714,0.00334679,-0.00104484,1.13267,0.00264907,0.0159179,1770,561,21.5531,18.5656
553,463,21.5499,-17.7275,-0.000535702,0.00322671,0.0017719,0.0039298,-0.00123879,1.19305,0.00311598,0.0121036,1777,561,21.5499,17.7276
560,463,21.5381,-16.7412,-0.00070542,0.00409709,0.00194085,0.00478338,-0.00139171,1.23092,0.00374015,0.0249862,1784,561,21.5381,16.7412
567,463,21.3541,-15.9218,-0.000858172,0.00514201,0.0022272,0.00587836,-0.00159452,1.25149,0.00454463,0.0379639,1791,561,21.3542,15.9218
574,463,21.4766,-15.0989,0,0,0,0,0,0,0,-1,1798,561,21.4766,15.0989
581,463,9.4939,-3.88245,0,0,0,0,0,0,0,-1,1805,561,9.49392,3.88245
588,463,1.97424,2.16016,0,0,0,0,0,0,0,-1,1812,561,1.97422,-2.16013
595,463,9.98657,2.99854,0,0,0,0,0,0,0,-1,1819,561,9.98662,-2.99856
602,463,17.2202,4.91302,0,0,0,0,0,0,0,-1,1826,561,17.2202,-4.91305
609,463,17.96,4.03131,0,0,0,0,0,0,0,-1,1833,561,17.96,-4.03132
616,463,20.8352,3.15131,0,0,0,0,0,0,0,-1,1840,561,20.8352,-3.1513
623,463,0,0,0,0,0,0,0,0,0,-1,1847,561,0,0
630,463,0,0,0,0,0,0,0,0,0,-1,1854,561,0,0
637,463,0,0,0,0,0,0,0,0,0,-1,1861,561,0,0
644,463,0,0,0,0,0,0,0,0,0,-1,1868,561,0,0
651,463,0,0,0,0,0,0,0,0,0,-1,1875,561,0,0
658,463,0,0,0,0,0,0,0,0,0,-1,1882,561,0,0
665,463,0,0,0,0,0,0,0,0,0,-1,1889,561,0,0
672,463,0,0,0,0,0,0,0,0,0,-1,1896,561,0,0
679,463,0,0,0,0,0,0,0,0,0,-1,1903,561,0,0
686,463,0,0,0,0,0,0,0,0,0,-1,1910,561,0,0
693,463,0,0,0,0,0,0,0,0,0,-1,1917,561,0,0
700,463,0,0,0,0,0,0,0,0,0,-1,1924,561,0,0
707,463,0,0,0,0,0,0,0,0,0,-1,1931,561,0,0
714,463,0,0,0,0,0,0,0,0,0,-1,1938,561,0,0
721,463,0,0,0,0,0,0,0,0,0,-1,1945,561,0,0
728,463,0,0,0,0,0,0,0,0,0,-1,1952,561,0,0
735,463,0,0,0,0,0,0,0,0,0,-1,1959,561,0,0
742,463,0,0,0,0,0,0,0,0,0,-1,1966,561,0,0
749,463,0,0,0,0,0,0,0,0,0,-1,1973,561,0,0
756,463,0,0,0,0,0,0,0,0,0,-1,1980,561,0,0
763,463,0,0,0,0,0,0,0,0,0,-1,1987,561,0,0
770,463,0,0,0,0,0,0,0,0,0,-1,1994,561,0,0
777,463,0,0,0,0,0,0,0,0,0,-1,2001,561,0,0
784,463,0,0,0,0,0,0,0,0,0,-1,2008,561,0,0
791,463,0,0,0,0,0,0,0,0,0,-1,2015,561,0,0
798,463,0,0,0,0,0,0,0,0,0,-1,2022,561,0,0
805,463,0,0,0,0,0,0,0,0,0,-1,2029,561,0,0
812,463,0,0,0,0,0,0,0,0,0,-1,2036,561,0,0
-700,456,0,0,0,0,0,0,0,0,0,-1,524,568,0,0
-693,456,0,0,0,0,0,0,0,0,0,-1,531,568,0,0
-686,456,0,0,0,0,0,0,0,0,0,-1,538,568,0,0
-679,456,0,0,0,0,0,0,0,0,0,-1,545,568,0,0
-672,456,0,0,0,0,0,0,0,0,0,-1,552,568,0,0
-665,456,0,0,0,0,0,0,0,0,0,-1,559,568,0,0
-658,456,0,0,0,0,0,0,0,0,0,-1,566,568,0,0
-651,456,0,0,0,0,0,0,0,0,0,-1,573,568,0,0
-644,456,0,0,0,0,0,0,0,0,0,-1,580,568,0,0
-637,456,0,0,0,0,0,0,0,0,0,-1,587,568,0,0
-630,456,0,0,0,0,0,0,0,0,0,-1,594,568,0,0
-623,456,0,0,0,0,0,0,0,0,0,-1,601,568,0,0
-616,456,0,0,0,0,0,0,0,0,0,-1,608,568,0,0
-609,456,0,0,0,0,0,0,0,0,0,-1,615,568,0,0
-602,456,0,0,0,0,0,0,0,0,0,-1,622,568,0,0
-595,456,0,0,0,0,0,0,0,0,0,-1,629,568,0,0
-588,456,0,0,0,0,0,0,0,0,0,-1,636,568,0,0
-581,456,0,0,0,0,0,0,0,0,0,-1,643,568,0,0
-574,456,0,0,0,0,0,0,0,0,0,-1,650,568,0,0
-567,456,0,0,0,0,0,0,0,0,0,-1,657,568,0,0
-560,456,0,0,0,0,0,0,0,0,0,-1,664,568,0,0
-553,456,0,0,0,0,0,0,0,0,0,-1,671,568,0,0
-546,456,0,0,0,0,0,0,0,0,0,-1,678,568,0,0
-539,456,0,0,0,0,0,0,0,0,0,-1,685,568,0,0
-532,456,0,0,0,0,0,0,0,0,0,-1,692,568,0,0
-525,456,0,0,0,0,0,0,0,0,0,-1,699,568,0,0
-518,456,0,0,0,0,0,0,0,0,0,-1,706,568,0,0
-511,456,0,0,0,0,0,0,0,0,0,-1,713,568,0,0
-504,456,-10.3994,-2.34839,0,0,0,0,0,0,0,-1,720,568,-10.3994,2.3484
-497,456,-9.21375,-2.38068,0,0,0,0,0,0,0,-1,727,568,-9.21372,2.38069
-490,456,-8.09058,-2.31824,0,0,0,0,0,0,0,-1,734,568,-8.09057,2.31821
-483,456,-6.66119,-2.24329,0,0,0,0,0,0,0,-1,741,568,-6.66121,2.24331
-476,456,-5.1499,-2.21185,0,0,0,0,0,0,0,-1,748,568,-5.14992,2.21184
-469,456,-2.81238,-3.51501,0,0,0,0,0,0,0,-1,755,568,-2.81237,3.51501
-462,456,-4.2431,-5.27478,0,0,0,0,0,0,0,-1,762,568,-4.24312,5.27476
-455,456,-5.98364,-8.72119,0,0,0,0,0,0,0,-1,769,568,-5.98364,8.72122
-448,456,-7.57098,-14.4126,0,0,0,0,0,0,0,-1,776,568,-7.571,14.4126
-441,456,-8.82642,-16.9005,0,0,0,0,0,0,0,-1,783,568,-8.82641,16.9005
-434,456,-8.7453,-17.8265,-0.000404181,0.00656441,-0.0024729,0.00735276,-0.00119254,-1.26218,0.00534389,0.0202764,790,568,-8.74528,17.8265
-427,456,-8.76923,-18.6444,-0.00012568,0.00550671,-0.0021148,0.00621235,-0.000831321,-1.24874,0.00444466,0.00960553,797,568,-8.7692,18.6444
-420,456,-8.80798,-19.4428,0.000202486,0.00458326,-0.00189491,0.00528916,-0.000503414,-1.2142,0.00370533,0.00931954,804,568,-8.80796,19.4428
-413,456,-8.85577,-20.2386,0.000386331,0.00343064,-0.00147376,0.00402719,-0.000210219,-1.18617,0.00275754,0.00978067,811,568,-8.8558,20.2386
-406,456,-8.93402,-21.024,0.00066508,0.00261867,-0.00121245,0.00319885,8.49011e-05,-1.12448,0.00210484,0.0105017,818,568,-8.93401,21.024
-399,456,-8.97589,-21.8198,0.00102445,0.00179072,-0.000972316,0.00245266,0.000362504,-0.973079,0.00152867,0.0125253,825,568,-8.97592,21.8198
-392,456,-8.97382,-22.61,0.00142048,0.000988883,-0.00073475,0.00197047,0.000438898,-0.642562,0.00119453,0.0121504,832,568,-8.9738,22.61
-385,456,-8.99988,-23.3987,0.00191013,0.000296218,-0.000523457,0.00206504,0.000141308,-0.287724,0.00133209,0.0112572,839,568,-8.9999,23.3987
-378,456,-9.06122,-24.2052,0.00240927,-0.00034765,-0.000286211,0.00243867,-0.00037705,-0.102361,0.00176494,0.011659,846,568,-9.0612,24.2052
-371,456,-9.10242,-24.9861,0.00299649,-0.000789975,-8.56748e-05,0.00299842,-0.000791912,-0.0226112,0.00230865,0.0128309,853,568,-9.10241,24.9861
-364,456,-9.11804,-25.7028,0.00369397,-0.000909436,-4.72526e-05,0.00369446,-0.000909921,-0.0102633,0.00281572,0.0255531,860,568,-9.11802,25.7027
-357,456,-9.08429,-26.5214,0,0,0,0,0,0,0,-1,867,568,-9.08429,26.5214
-350,456,-8.95996,-27.5927,0,0,0,0,0,0,0,-1,874,568,-8.95997,27.5926
-343,456,-3.39081,-12.0217,0,0,0,0,0,0,0,-1,881,568,-3.39078,12.0217
-336,456,-3.04517,-12.4623,0,0,0,0,0,0,0,-1,888,568,-3.04519,12.4624
-329,456,-1.06183,-10.7184,0,0,0,0,0,0,0,-1,895,568,-1.06184,10.7184
-322,456,-0.662537,-7.66632,0,0,0,0,0,0,0,-1,902,568,-0.662564,7.66633
-315,456,-0.675476,-3.38397,0,0,0,0,0,0,0,-1,909,568,-0.675473,3.38399
-308,456,-1.1618,-3.15314,0,0,0,0,0,0,0,-1,916,568,-1.16178,3.15314
-301,456,-1.83551,-3.26447,0,0,0,0,0,0,0,-1,923,568,-1.8355,3.26449
-294,456,-2.93414,-3.35449,0,0,0,0,0,0,0,-1,930,568,-2.93413,3.35451
-287,456,-3.7569,-3.53101,0,0,0,0,0,0,0,-1,937,568,-3.75692,3.53101
-280,456,-13.072,4.52856,0,0,0,0,0,0,0,-1,944,568,-13.072,-4.52855
-273,456,-8.26538,-6.66748,0,0,0,0,0,0,0,-1,951,568,-8.26536,6.66745
-266,456,-5.71527,-9.36884,0,0,0,0,0,0,0,-1,958,568,-5.71529,9.36885
-259,456,0,0,0,0,0,0,0,0,0,-1,965,568,0,0
-252,456,0,0,0,0,0,0,0,0,0,-1,972,568,0,0
-245,456,0,0,0,0,0,0,0,0,0,-1,979,568,0,0
-238,456,0,0,0,0,0,0,0,0,0,-1,986,568,0,0
-231,456,0,0,0,0,0,0,0,0,0,-1,993,568,0,0
-224,456,0,0,0,0,0,0,0,0,0,-1,1000,568,0,0
-217,456,0,0,0,0,0,0,0,0,0,-1,1007,568,0,0
-210,456,0,0,0,0,0,0,0,0,0,-1,1014,568,0,0
-203,456,0,0,0,0,0,0,0,0,0,-1,1021,568,0,0
-196,456,0,0,0,0,0,0,0,0,0,-1,1028,568,0,0
-189,456,0,0,0,0,0,0,0,0,0,-1,1035,568,0,0
-182,456,0,0,0,0,0,0,0,0,0,-1,1042,568,0,0
-175,456,0,0,0,0,0,0,0,0,0,-1,1049,568,0,0
-168,456,0,0,0,0,0,0,0,0,0,-1,1056,568,0,0
-161,456,0,0,0,0,0,0,0,0,0,-1,1063,568,0,0
-154,456,0,0,0,0,0,0,0,0,0,-1,1070,568,0,0
-147,456,0,0,0,0,0,0,0,0,0,-1,1077,568,0,0
-140,456,0,0,0,0,0,0,0,0,0,-1,1084,568,0,0
-133,456,0,0,0,0,0,0,0,0,0,-1,1091,568,0,0
-126,456,0,0,0,0,0,0,0,0,0,-1,1098,568,0,0
-119,456,0,0,0,0,0,0,0,0,0,-1,1105,568,0,0
-112,456,0,0,0,0,0,0,0,0,0,-1,1112,568,0,0
-105,456,0,0,0,0,0,0,0,0,0,-1,1119,568,0,0
-98,456,0,0,0,0,0,0,0,0,0,-1,1126,568,0,0
-91,456,0,0,0,0,0,0,0,0,0,-1,1133,568,0,0
-84,456,0,0,0,0,0,0,0,0,0,-1,1140,568,0,0
-77,456,0,0,0,0,0,0,0,0,0,-1,1147,568,0,0
-70,456,0,0,0,0,0,0,0,0,0,-1,1154,568,0,0
-63,456,0,0,0,0,0,0,0,0,0,-1,1161,568,0,0
-56,456,0,0,0,0,0,0,0,0,0,-1,1168,568,0,0
-49,456,0,0,0,0,0,0,0,0,0,-1,1175,568,0,0
-42,456,0,0,0,0,0,0,0,0,0,-1,1182,568,0,0
-35,456,0,0,0,0,0,0,0,0,0,-1,1189,568,0,0
-28,456,0,0,0,0,0,0,0,0,0,-1,1196,568,0,0
-21,456,0,0,0,0,0,0,0,0,0,-1,1203,568,0,0
-14,456,0,0,0,0,0,0,0,0,0,-1,1210,568,0,0
-7,456,0,0,0,0,0,0,0,0,0,-1,1217,568,0,0
0,456,0,0,0,0,0,0,0,0,0,-1,1224,568,0,0
7,456,0,0,0,0,0,0,0,0,0,-1,1231,568,0,0
14,456,0,0,0,0,0,0,0,0,0,-1,1238,568,0,0
21,456,0,0,0,0,0,0,0,0,0,-1,1245,568,0,0
28,456,0,0,0,0,0,0,0,0,0,-1,1252,568,0,0
35,456,0,0,0,0,0,0,0,0,0,-1,1259,568,0,0
42,456,0,0,0,0,0,0,0,0,0,-1,1266,568,0,0
49,456,0,0,0,0,0,0,0,0,0,-1,1273,568,0,0
56,456,0,0,0,0,0,0,0,0,0,-1,1280,568,0,0
63,456,0,0,0,0,0,0,0,0,0,-1,1287,568,0,0
70,456,0,0,0,0,0,0,0,0,0,-1,1294,568,0,0
77,456,0,0,0,0,0,0,0,0,0,-1,1301,568,0,0
84,456,0,0,0,0,0,0,0,0,0,-1,1308,568,0,0
91,456,0,0,0,0,0,0,0,0,0,-1,1315,568,0,0
98,456,0,0,0,0,0,0,0,0,0,-1,1322,568,0,0
105,456,0,0,0,0,0,0,0,0,0,-1,1329,568,0,0
112,456,0,0,0,0,0,0,0,0,0,-1,1336,568,0,0
119,456,0,0,0,0,0,0,0,0,0,-1,1343,568,0,0
126,456,0,0,0,0,0,0,0,0,0,-1,1350,568,0,0
133,456,0,0,0,0,0,0,0,0,0,-1,1357,568,0,0
140,456,0,0,0,0,0,0,0,0,0,-1,1364,568,0,0
147,456,0,0,0,0,0,0,0,0,0,-1,1371,568,0,0
154,456,0,0,0,0,0,0,0,0,0,-1,1378,568,0,0
161,456,0,0,0,0,0,0,0,0,0,-1,1385,568,0,0
168,456,0,0,0,0,0,0,0,0,0,-1,1392,568,0,0
175,456,0,0,0,0,0,0,0,0,0,-1,1399,568,0,0
182,456,0,0,0,0,0,0,0,0,0,-1,1406,568,0,0
189,456,0,0,0,0,0,0,0,0,0,-1,1413,568,0,0
196,456,0,0,0,0,0,0,0,0,0,-1,1420,568,0,0
203,456,0,0,0,0,0,0,0,0,0,-1,1427,568,0,0
210,456,0,0,0,0,0,0,0,0,0,-1,1434,568,0,0
217,456,0,0,0,0,0,0,0,0,0,-1,1441,568,0,0
224,456,0,0,0,0,0,0,0,0,0,-1,1448,568,0,0
231,456,0,0,0,0,0,0,0,0,0,-1,1455,568,0,0
238,456,0,0,0,0,0,0,0,0,0,-1,1462,568,0,0
245,456,0,0,0,0,0,0,0,0,0,-1,1469,568,0,0
252,456,0,0,0,0,0,0,0,0,0,-1,1476,568,0,0
259,456,0,0,0,0,0,0,0,0,0,-1,1483,568,0,0
266,456,0,0,0,0,0,0,0,0,0,-1,1490,568,0,0
273,456,0,0,0,0,0,0,0,0,0,-1,1497,568,0,0
280,456,0,0,0,0,0,0,0,0,0,-1,1504,568,0,0
287,456,0,0,0,0,0,0,0,0,0,-1,1511,568,0,0
294,456,0,0,0,0,0,0,0,0,0,-1,1518,568,0,0
301,456,0,0,0,0,0,0,0,0,0,-1,1525,568,0,0
308,456,0,0,0,0,0,0,0,0,0,-1,1532,568,0,0
315,456,0,0,0,0,0,0,0,0,0,-1,1539,568,0,0
322,456,0,0,0,0,0,0,0,0,0,-1,1546,568,0,0
329,456,0,0,0,0,0,0,0,0,0,-1,1553,568,0,0
336,456,0,0,0,0,0,0,0,0,0,-1,1560,568,0,0
343,456,0,0,0,0,0,0,0,0,0,-1,1567,568,0,0
350,456,0,0,0,0,0,0,0,0,0,-1,1574,568,0,0
357,456,0,0,0,0,0,0,0,0,0,-1,1581,568,0,0
364,456,0,0,0,0,0,0,0,0,0,-1,1588,568,0,0
371,456,0,0,0,0,0,0,0,0,0,-1,1595,568,0,0
378,456,0,0,0,0,0,0,0,0,0,-1,1602,568,0,0
385,456,5.66284,0.660645,0,0,0,0,0,0,0,-1,1609,568,5.66285,-0.660615
392,456,17.5027,4.32971,0,0,0,0,0,0,0,-1,1616,568,17.5026,-4.32971
399,456,24.1917,5.99652,0,0,0,0,0,0,0,-1,1623,568,24.1916,-5.99651
406,456,24.446,4.53003,0,0,0,0,0,0,0,-1,1630,568,24.446,-4.53005
413,456,24.9418,2.90521,0,0,0,0,0,0,0,-1,1637,568,24.9418,-2.90524
420,456,25.3048,1.04712,0,0,0,0,0,0,0,-1,1644,568,25.3048,-1.04713
427,456,6.21375,2.02905,0,0,0,0,0,0,0,-1,1651,568,6.21372,-2.02904
434,456,3.0719,-4.86285,0,0,0,0,0,0,0,-1,1658,568,3.07184,4.86287
441,456,2.90344,-4.70459,0,0,0,0,0,0,0,-1,1665,568,2.90346,4.7046
448,456,3.06995,-4.93689,0,0,0,0,0,0,0,-1,1672,568,3.06991,4.93687
455,456,3.46582,-3.43701,0,0,0,0,0,0,0,-1,1679,568,3.46585,3.43698
462,456,4.68445,-4.45831,0,0,0,0,0,0,0,-1,1686,568,4.68439,4.45833
469,456,4.93201,-2.289,0,0,0,0,0,0,0,-1,1693,568,4.93197,2.28903
476,456,4.8363,-2.79364,0,0,0,0,0,0,0,-1,1700,568,4.83636,2.79363
483,456,12.8522,-13.692,0,0,0,0,0,0,0,-1,1707,568,12.8522,13.6919
490,456,22.6107,-25.3858,0,0,0,0,0,0,0,-1,1714,568,22.6107,25.3858
497,456,22.6069,-24.1969,0,0,0,0,0,0,0,-1,1721,568,22.607,24.1969
504,456,22.5657,-23.4102,0.00237942,0.00208305,0.00114687,0.00338764,0.00107484,0.721149,0.00199891,0.0162778,1728,568,22.5656,23.4101
511,456,22.5863,-22.6072,0.00207522,0.00178519,0.00128013,0.00321852,0.000641883,0.728997,0.00196695,0.0150198,1735,568,22.5863,22.6073
518,456,22.567,-21.7789,0.00173602,0.00155801,0.00141789,0.0030677,0.000226332,0.754052,0.00197402,0.0179067,1742,568,22.567,21.7789
525,456,22.4958,-20.944,0.00133651,0.00148907,0.00146629,0.00288106,-5.54901e-05,0.811386,0.00193947,0.0183178,1749,568,22.4958,20.944
532,456,22.5099,-20.0777,0.000944496,0.00158489,0.00149309,0.00279173,-0.00026234,0.891025,0.00195448,0.0187205,1756,568,22.5099,20.0777
539,456,22.4418,-19.207,0.00059344,0.00175026,0.00150866,0.00278759,-0.000443893,0.968452,0.00202266,0.0247571,1763,568,22.4417,19.207
546,456,22.3469,-18.4543,0.000277176,0.00213536,0.00151117,0.0029802,-0.000567667,1.06102,0.00220056,0.0277695,1770,568,22.3469,18.4544
553,456,22.2933,-17.6195,-7.78568e-06,0.00267343,0.00154582,0.00337899,-0.000713338,1.14261,0.00252426,0.0153722,1777,568,22.2933,17.6195
560,456,22.2722,-16.8187,-0.000190204,0.00337952,0.00167067,0.00403942,-0.000850103,1.19462,0.00301651,0.0114356,1784,568,22.2722,16.8187
567,456,22.246,-15.9682,-0.000254521,0.00427906,0.00195497,0.00500563,-0.000981096,1.21496,0.00370764,0.0214702,1791,568,22.246,15.9682
574,456,22.2351,-15.1398,0,0,0,0,0,0,0,-1,1798,568,22.2351,15.1399
581,456,16.2228,-9.08563,0,0,0,0,0,0,0,-1,1805,568,16.2228,9.08562
588,456,5.23901,-0.0901489,0,0,0,0,0,0,0,-1,1812,568,5.23906,0.0901656
595,456,6.90063,3.14886,0,0,0,0,0,0,0,-1,1819,568,6.90066,-3.14887
602,456,16.894,4.10938,0,0,0,0,0,0,0,-1,1826,568,16.8941,-4.1094
609,456,14.9966,3.5708,0,0,0,0,0,0,0,-1,1833,568,14.9966,-3.57083
616,456,17.7407,2.6579,0,0,0,0,0,0,0,-1,1840,568,17.7408,-2.6579
623,456,20.6838,1.7121,0,0,0,0,0,0,0,-1,1847,568,20.6838,-1.71208
630,456,0,0,0,0,0,0,0,0,0,-1,1854,568,0,0
637,456,0,0,0,0,0,0,0,0,0,-1,1861,568,0,0
644,456,0,0,0,0,0,0,0,0,0,-1,1868,568,0,0
651,456,0,0,0,0,0,0,0,0,0,-1,1875,568,0,0
658,456,0,0,0,0,0,0,0,0,0,-1,1882,568,0,0
665,456,0,0,0,0,0,0,0,0,0,-1,1889,568,0,0
672,456,0,0,0,0,0,0,0,0,0,-1,1896,568,0,0
679,456,0,0,0,0,0,0,0,0,0,-1,1903,568,0,0
686,456,0,0,0,0,0,0,0,0,0,-1,1910,568,0,0
693,456,0,0,0,0,0,0,0,0,0,-1,1917,568,0,0
700,456,0,0,0,0,0,0,0,0,0,-1,1924,568,0,0
707,456,0,0,0,0,0,0,0,0,0,-1,1931,568,0,0
714,456,0,0,0,0,0,0,0,0,0,-1,1938,568,0,0
721,456,0,0,0,0,0,0,0,0,0,-1,1945,568,0,0
728,456,0,0,0,0,0,0,0,0,0,-1,1952,568,0,0
735,456,0,0,0,0,0,0,0,0,0,-1,1959,568,0,0
742,456,0,0,0,0,0,0,0,0,0,-1,1966,568,0,0
749,456,0,0,0,0,0,0,0,0,0,-1,1973,568,0,0
756,456,0,0,0,0,0,0,0,0,0,-1,1980,568,0,0
763,456,0,0,0,0,0,0,0,0,0,-1,1987,568,0,0
770,456,0,0,0,0,0,0,0,0,0,-1,1994,568,0,0
777,456,0,0,0,0,0,0,0,0,0,-1,2001,568,0,0
784,456,0,0,0,0,0,0,0,0,0,-1,2008,568,0,0
791,456,0,0,0,0,0,0,0,0,0,-1,2015,568,0,0
798,456,0,0,0,0,0,0,0,0,0,-1,2022,568,0,0
805,456,0,0,0,0,0,0,0,0,0,-1,2029,568,0,0
812,456,0,0,0,0,0,0,0,0,0,-1,2036,568,0,0
-700,449,0,0,0,0,0,0,0,0,0,-1,524,575,0,0
-693,449,0,0,0,0,0,0,0,0,0,-1,531,575,0,0
-686,449,0,0,0,0,0,0,0,0,0,-1,538,575,0,0
-679,449,0,0,0,0,0,0,0,0,0,-1,545,575,0,0
-672,449,0,0,0,0,0,0,0,0,0,-1,552,575,0,0
-665,449,0,0,0,0,0,0,0,0,0,-1,559,575,0,0
-658,449,0,0,0,0,0,0,0,0,0,-1,566,575,0,0
-651,449,0,0,0,0,0,0,0,0,0,-1,573,575,0,0
-644,449,0,0,0,0,0,0,0,0,0,-1,580,575,0,0
-637,449,0,0,0,0,0,0,0,0,0,-1,587,575,0,0
-630,449,0,0,0,0,0,0,0,0,0,-1,594,575,0,0
-623,449,0,0,0,0,0,0,0,0,0,-1,601,575,0,0
-616,449,0,0,0,0,0,0,0,0,0,-1,608,575,0,0
-609,449,0,0,0,0,0,0,0,0,0,-1,615,575,0,0
-602,449,0,0,0,0,0,0,0,0,0,-1,622,575,0,0
-595,449,0,0,0,0,0,0,0,0,0,-1,629,575,0,0
-588,449,0,0,0,0,0,0,0,0,0,-1,636,575,0,0
-581,449,0,0,0,0,0,0,0,0,0,-1,643,575,0,0
-574,449,0,0,0,0,0,0,0,0,0,-1,650,575,0,0
-567,449,0,0,0,0,0,0,0,0,0,-1,657,575,0,0
-560,449,0,0,0,0,0,0,0,0,0,-1,664,575,0,0
-553,449,0,0,0,0,0,0,0,0,0,-1,671,575,0,0
-546,449,0,0,0,0,0,0,0,0,0,-1,678,575,0,0
-539,449,0,0,0,0,0,0,0,0,0,-1,685,575,0,0
-532,449,0,0,0,0,0,0,0,0,0,-1,692,575,0,0
-525,449,0,0,0,0,0,0,0,0,0,-1,699,575,0,0
-518,449,0,0,0,0,0,0,0,0,0,-1,706,575,0,0
-511,449,-0.941345,-4.4519,0,0,0,0,0,0,0,-1,713,575,-0.941356,4.45191
-504,449,-14.1078,0.318237,0,0,0,0,0,0,0,-1,720,575,-14.1078,-0.318231
-497,449,-8.61292,-3.09009,0,0,0,0,0,0,0,-1,727,575,-8.61291,3.09011
-490,449,-7.50995,-2.96252,0,0,0,0,0,0,0,-1,734,575,-7.50995,2.96251
-483,449,-5.77789,-2.50061,0,0,0,0,0,0,0,-1,741,575,-5.77792,2.50059
-476,449,-4.1723,-2.07739,0,0,0,0,0,0,0,-1,748,575,-4.17228,2.0774
-469,449,-5.0976,-5.78448,0,0,0,0,0,0,0,-1,755,575,-5.09758,5.78451
-462,449,-6.54181,-9.54535,0,0,0,0,0,0,0,-1,762,575,-6.54178,9.54536
-455,449,-8.67291,-13.2226,0,0,0,0,0,0,0,-1,769,575,-8.67289,13.2226
-448,449,-9.36066,-15.9821,0,0,0,0,0,0,0,-1,776,575,-9.36065,15.9821
-441,449,-9.4256,-17.0375,-0.000624171,0.00572184,-0.0023445,0.00649404,-0.00139637,-1.25262,0.00486212,0.0238431,783,575,-9.4256,17.0375
-434,449,-9.55859,-17.7994,-0.000270819,0.00476702,-0.0019203,0.00541551,-0.000919309,-1.24512,0.00395258,0.0142435,790,575,-9.55856,17.7994
-427,449,-9.5882,-18.5911,8.11398e-05,0.00395355,-0.00160911,0.00453491,-0.000500218,-1.2241,0.00320306,0.0133601,797,575,-9.58821,18.5911
-420,449,-9.6178,-19.395,0.000486406,0.00326588,-0.00143946,0.003877,-0.000124711,-1.16931,0.00262722,0.0125756,804,575,-9.61781,19.395
-413,449,-9.6546,-20.1956,0.000741513,0.00236049,-0.00108355,0.00290353,0.000198468,-1.10621,0.00187304,0.0115877,811,575,-9.65461,20.1955
-406,449,-9.72113,-20.9969,0.00107756,0.00176365,-0.000891436,0.00237577,0.000465442,-0.969076,0.00145375,0.0116174,818,575,-9.72112,20.9969
-399,449,-9.76355,-21.7784,0.00150017,0.00115512,-0.000748017,0.0020953,0.000559988,-0.672059,0.00125265,0.0106192,825,575,-9.76354,21.7784
-392,449,-9.76868,-22.5601,0.00195128,0.000544721,-0.000601882,0.00217367,0.000322331,-0.353932,0.00135452,0.0113867,832,575,-9.76868,22.5601
-385,449,-9.80566,-23.3547,0.00248653,1.13088e-07,-0.000475352,0.0025743,-8.76655e-05,-0.182604,0.00174616,0.0115402,839,575,-9.80564,23.3547
-378,449,-9.8562,-24.1365,0.0030653,-0.000484033,-0.000339283,0.00309744,-0.000516174,-0.0944509,0.00225678,0.01007,846,575,-9.85621,24.1366
-371,449,-9.85101,-24.9237,0.0037931,-0.000691854,-0.00024363,0.00380629,-0.00070505,-0.0541093,0.00280227,0.0200378,853,575,-9.85104,24.9237
-364,449,-9.75702,-25.744,0,0,0,0,0,0,0,-1,860,575,-9.757,25.7439
-357,449,-5.88049,-15.8704,0,0,0,0,0,0,0,-1,867,575,-5.88051,15.8704
-350,449,-2.8764,-9.90204,0,0,0,0,0,0,0,-1,874,575,-2.87638,9.90203
-343,449,-2.98492,-9.2254,0,0,0,0,0,0,0,-1,881,575,-2.98491,9.22541
-336,449,-1.29523,-9.54626,0,0,0,0,0,0,0,-1,888,575,-1.29525,9.54626
-329,449,-0.733398,-7.78937,0,0,0,0,0,0,0,-1,895,575,-0.733398,7.78937
-322,449,-0.628845,-3.16669,0,0,0,0,0,0,0,-1,902,575,-0.628861,3.16667
-315,449,-0.540344,-3.21918,0,0,0,0,0,0,0,-1,909,575,-0.540336,3.21917
-308,449,-1.04413,-2.99341,0,0,0,0,0,0,0,-1,916,575,-1.04415,2.99338
-301,449,-1.58691,-2.80725,0,0,0,0,0,0,0,-1,923,575,-1.58692,2.80728
-294,449,-3.71118,-2.76086,0,0,0,0,0,0,0,-1,930,575,-3.71119,2.76087
-287,449,-4.4082,-2.69525,0,0,0,0,0,0,0,-1,937,575,-4.40822,2.69526
-280,449,0.723999,-14.2697,0,0,0,0,0,0,0,-1,944,575,0.723977,14.2696
-273,449,0,0,0,0,0,0,0,0,0,-1,951,575,0,0
-266,449,0,0,0,0,0,0,0,0,0,-1,958,575,0,0
-259,449,0,0,0,0,0,0,0,0,0,-1,965,575,0,0
-252,449,0,0,0,0,0,0,0,0,0,-1,972,575,0,0
-245,449,0,0,0,0,0,0,0,0,0,-1,979,575,0,0
-238,449,0,0,0,0,0,0,0,0,0,-1,986,575,0,0
-231,449,0,0,0,0,0,0,0,0,0,-1,993,575,0,0
-224,449,0,0,0,0,0,0,0,0,0,-1,1000,575,0,0
-217,449,0,0,0,0,0,0,0,0,0,-1,1007,575,0,0
-210,449,0,0,0,0,0,0,0,0,0,-1,1014,575,0,0
-203,449,0,0,0,0,0,0,0,0,0,-1,1021,575,0,0
-196,449,0,0,0,0,0,0,0,0,0,-1,1028,575,0,0
-189,449,0,0,0,0,0,0,0,0,0,-1,1035,575,0,0
-182,449,0,0,0,0,0,0,0,0,0,-1,1042,575,0,0
-175,449,0,0,0,0,0,0,0,0,0,-1,1049,575,0,0
-168,449,0,0,0,0,0,0,0,0,0,-1,1056,575,0,0
-161,449,0,0,0,0,0,0,0,0,0,-1,1063,575,0,0
-154,449,0,0,0,0,0,0,0,0,0,-1,1070,575,0,0
-147,449,0,0,0,0,0,0,0,0,0,-1,1077,575,0,0
-140,449,0,0,0,0,0,0,0,0,0,-1,1084,575,0,0
-133,449,0,0,0,0,0,0,0,0,0,-1,1091,575,0,0
-126,449,0,0,0,0,0,0,0,0,0,-1,1098,575,0,0
-119,449,0,0,0,0,0,0,0,0,0,-1,1105,575,0,0
-112,449,0,0,0,0,0,0,0,0,0,-1,1112,575,0,0
-105,449,0,0,0,0,0,0,0,0,0,-1,1119,575,0,0
-98,449,0,0,0,0,0,0,0,0,0,-1,1126,575,0,0
-91,449,0,0,0,0,0,0,0,0,0,-1,1133,575,0,0
-84,449,0,0,0,0,0,0,0,0,0,-1,1140,575,0,0
-77,449,0,0,0,0,0,0,0,0,0,-1,1147,575,0,0
-70,449,0,0,0,0,0,0,0,0,0,-1,1154,575,0,0
-63,449,0,0,0,0,0,0,0,0,0,-1,1161,575,0,0
-56,449,0,0,0,0,0,0,0,0,0,-1,1168,575,0,0
-49,449,0,0,0,0,0,0,0,0,0,-1,1175,575,0,0
-42,449,0,0,0,0,0,0,0,0,0,-1,1182,575,0,0
-35,449,0,0,0,0,0,0,0,0,0,-1,1189,575,0,0
-28,449,0,0,0,0,0,0,0,0,0,-1,1196,575,0,0
-21,449,0,0,0,0,0,0,0,0,0,-1,1203,575,0,0
-14,449,0,0,0,0,0,0,0,0,0,-1,1210,575,0,0
-7,449,0,0,0,0,0,0,0,0,0,-1,1217,575,0,0
0,449,0,0,0,0,0,0,0,0,0,-1,1224,575,0,0
7,449,0,0,0,0,0,0,0,0,0,-1,1231,575,0,0
14,449,0,0,0,0,0,0,0,0,0,-1,1238,575,0,0
21,449,0,0,0,0,0,0,0,0,0,-1,1245,575,0,0
28,449,0,0,0,0,0,0,0,0,0,-1,1252,575,0,0
35,449,0,0,0,0,0,0,0,0,0,-1,1259,575,0,0
42,449,0,0,0,0,0,0,0,0,0,-1,1266,575,0,0
49,449,0,0,0,0,0,0,0,0,0,-1,1273,575,0,0
56,449,0,0,0,0,0,0,0,0,0,-1,1280,575,0,0
63,449,0,0,0,0,0,0,0,0,0,-1,1287,575,0,0
70,449,0,0,0,0,0,0,0,0,0,-1,1294,575,0,0
77,449,0,0,0,0,0,0,0,0,0,-1,1301,575,0,0
84,449,0,0,0,0,0,0,0,0,0,-1,1308,575,0,0
91,449,0,0,0,0,0,0,0,0,0,-1,1315,575,0,0
98,449,0,0,0,0,0,0,0,0,0,-1,1322,575,0,0
105,449,0,0,0,0,0,0,0,0,0,-1,1329,575,0,0
112,449,0,0,0,0,0,0,0,0,0,-1,1336,575,0,0
119,449,0,0,0,0,0,0,0,0,0,-1,1343,575,0,0
126,449,0,0,0,0,0,0,0,0,0,-1,1350,575,0,0
133,449,0,0,0,0,0,0,0,0,0,-1,1357,575,0,0
140,449,0,0,0,0,0,0,0,0,0,-1,1364,575,0,0
147,449,0,0,0,0,0,0,0,0,0,-1,1371,575,0,0
154,449,0,0,0,0,0,0,0,0,0,-1,1378,575,0,0
161,449,0,0,0,0,0,0,0,0,0,-1,1385,575,0,0
168,449,0,0,0,0,0,0,0,0,0,-1,1392,575,0,0
175,449,0,0,0,0,0,0,0,0,0,-1,1399,575,0,0
182,449,0,0,0,0,0,0,0,0,0,-1,1406,575,0,0
189,449,0,0,0,0,0,0,0,0,0,-1,1413,575,0,0
196,449,0,0,0,0,0,0,0,0,0,-1,1420,575,0,0
203,449,0,0,0,0,0,0,0,0,0,-1,1427,575,0,0
210,449,0,0,0,0,0,0,0,0,0,-1,1434,575,0,0
217,449,0,0,0,0,0,0,0,0,0,-1,1441,575,0,0
224,449,0,0,0,0,0,0,0,0,0,-1,1448,575,0,0
231,449,0,0,0,0,0,0,0,0,0,-1,1455,575,0,0
238,449,0,0,0,0,0,0,0,0,0,-1,1462,575,0,0
245,449,0,0,0,0,0,0,0,0,0,-1,1469,575,0,0
252,449,0,0,0,0,0,0,0,0,0,-1,1476,575,0,0
259,449,0,0,0,0,0,0,0,0,0,-1,1483,575,0,0
266,449,0,0,0,0,0,0,0,0,0,-1,1490,575,0,0
273,449,0,0,0,0,0,0,0,0,0,-1,1497,575,0,0
280,449,0,0,0,0,0,0,0,0,0,-1,1504,575,0,0
287,449,0,0,0,0,0,0,0,0,0,-1,1511,575,0,0
294,449,0,0,0,0,0,0,0,0,0,-1,1518,575,0,0
301,449,0,0,0,0,0,0,0,0,0,-1,1525,575,0,0
308,449,0,0,0,0,0,0,0,0,0,-1,1532,575,0,0
315,449,0,0,0,0,0,0,0,0,0,-1,1539,575,0,0
322,449,0,0,0,0,0,0,0,0,0,-1,1546,575,0,0
329,449,0,0,0,0,0,0,0,0,0,-1,1553,575,0,0
336,449,0,0,0,0,0,0,0,0,0,-1,1560,575,0,0
343,449,0,0,0,0,0,0,0,0,0,-1,1567,575,0,0
350,449,0,0,0,0,0,0,0,0,0,-1,1574,575,0,0
357,449,0,0,0,0,0,0,0,0,0,-1,1581,575,0,0
364,449,0,0,0,0,0,0,0,0,0,-1,1588,575,0,0
371,449,0,0,0,0,0,0,0,0,0,-1,1595,575,0,0
378,449,0,0,0,0,0,0,0,0,0,-1,1602,575,0,0
385,449,0,0,0,0,0,0,0,0,0,-1,1609,575,0,0
392,449,7.95471,3.66217,0,0,0,0,0,0,0,-1,1616,575,7.95471,-3.66218
399,449,19.9791,5.565,0,0,0,0,0,0,0,-1,1623,575,19.9791,-5.56499
406,449,24.9847,4.55969,0,0,0,0,0,0,0,-1,1630,575,24.9848,-4.55968
413,449,30.4159,3.15027,0,0,0,0,0,0,0,-1,1637,575,30.4159,-3.15028
420,449,23.9675,1.29718,0,0,0,0,0,0,0,-1,1644,575,23.9675,-1.29721
427,449,24.4276,-0.596558,0,0,0,0,0,0,0,-1,1651,575,24.4277,0.596569
434,449,25.61,-2.96594,0,0,0,0,0,0,0,-1,1658,575,25.61,2.96595
441,449,3.89856,-6.06458,0,0,0,0,0,0,0,-1,1665,575,3.89855,6.06459
448,449,4.03198,-5.18207,0,0,0,0,0,0,0,-1,1672,575,4.03197,5.18207
455,449,4.21948,-4.09467,0,0,0,0,0,0,0,-1,1679,575,4.21952,4.09465
462,449,4.23181,-2.96924,0,0,0,0,0,0,0,-1,1686,575,4.23185,2.96926
469,449,4.51672,-2.95135,0,0,0,0,0,0,0,-1,1693,575,4.51672,2.95135
476,449,4.71838,-1.86688,0,0,0,0,0,0,0,-1,1700,575,4.71842,1.86689
483,449,4.87878,-1.73126,0,0,0,0,0,0,0,-1,1707,575,4.87875,1.73128
490,449,5.73279,-2.74573,0,0,0,0,0,0,0,-1,1714,575,5.73282,2.74575
497,449,17.2095,-16.4381,0,0,0,0,0,0,0,-1,1721,575,17.2094,16.4381
504,449,23.2964,-23.4297,0,0,0,0,0,0,0,-1,1728,575,23.2964,23.4298
511,449,23.3768,-22.5515,0.00274453,0.00221786,0.00161655,0.00411906,0.000843334,0.704658,0.00251255,0.0163162,1735,575,23.3769,22.5515
518,449,23.3644,-21.7268,0.00245738,0.00177058,0.00167215,0.00382103,0.000406928,0.684125,0.00242313,0.015027,1742,575,23.3644,21.7268
525,449,23.2988,-20.907,0.00205228,0.00155956,0.0016169,0.00344148,0.000170364,0.709796,0.00223969,0.0148911,1749,575,23.2988,20.907
532,449,23.2429,-20.0812,0.00164125,0.00152115,0.00153921,0.00312158,4.08179e-05,0.765901,0.00206758,0.0128117,1756,575,23.2429,20.0812
539,449,23.1876,-19.2595,0.00127994,0.00158441,0.00147902,0.00291901,-5.46563e-05,0.836683,0.00196448,0.017209,1763,575,23.1876,19.2595
546,449,23.1373,-18.4015,0.000947828,0.00182348,0.00140477,0.00285707,-8.57676e-05,0.936462,0.00193394,0.0307596,1770,575,23.1373,18.4015
553,449,23.0712,-17.5925,0.000611856,0.00222226,0.0013605,0.00299798,-0.000163867,1.0526,0.00205546,0.0208237,1777,575,23.0712,17.5925
560,449,23.0852,-16.7971,0.000341474,0.00275765,0.0014023,0.00340049,-0.000301362,1.14097,0.00237383,0.0150613,1784,575,23.0852,16.7971
567,449,23.0411,-15.9706,0.000205573,0.00349056,0.00160969,0.00414783,-0.000451694,1.18314,0.00292742,0.0108291,1791,575,23.0411,15.9707
574,449,23.0178,-15.1042,3.40615e-05,0.00437513,0.00186297,0.00506499,-0.0006558,1.21615,0.00361514,0.0258053,1798,575,23.0178,15.1042
581,449,23.0042,-14.1314,0,0,0,0,0,0,0,-1,1805,575,23.0041,14.1314
588,449,12.3274,-4.5672,0,0,0,0,0,0,0,-1,1812,575,12.3274,4.5672
595,449,15.9352,-5.65479,0,0,0,0,0,0,0,-1,1819,575,15.9352,5.65478
602,449,9.46167,4.17444,0,0,0,0,0,0,0,-1,1826,575,9.46164,-4.17442
609,449,12.2028,3.18652,0,0,0,0,0,0,0,-1,1833,575,12.2027,-3.18655
616,449,14.9438,2.19867,0,0,0,0,0,0,0,-1,1840,575,14.9438,-2.19867
623,449,9.83789,-0.0820313,0,0,0,0,0,0,0,-1,1847,575,9.83794,0.0820443
630,449,8.90686,4.99329,0,0,0,0,0,0,0,-1,1854,575,8.90685,-4.99327
637,449,0,0,0,0,0,0,0,0,0,-1,1861,575,0,0
644,449,0,0,0,0,0,0,0,0,0,-1,1868,575,0,0
651,449,0,0,0,0,0,0,0,0,0,-1,1875,575,0,0
658,449,0,0,0,0,0,0,0,0,0,-1,1882,575,0,0
665,449,0,0,0,0,0,0,0,0,0,-1,1889,575,0,0
672,449,0,0,0,0,0,0,0,0,0,-1,1896,575,0,0
679,449,0,0,0,0,0,0,0,0,0,-1,1903,575,0,0
686,449,0,0,0,0,0,0,0,0,0,-1,1910,575,0,0
693,449,0,0,0,0,0,0,0,0,0,-1,1917,575,0,0
700,449,0,0,0,0,0,0,0,0,0,-1,1924,575,0,0
707,449,0,0,0,0,0,0,0,0,0,-1,1931,575,0,0
714,449,0,0,0,0,0,0,0,0,0,-1,1938,575,0,0
721,449,0,0,0,0,0,0,0,0,0,-1,1945,575,0,0
728,449,0,0,0,0,0,0,0,0,0,-1,1952,575,0,0
735,449,0,0,0,0,0,0,0,0,0,-1,1959,575,0,0
742,449,0,0,0,0,0,0,0,0,0,-1,1966,575,0,0
749,449,0,0,0,0,0,0,0,0,0,-1,1973,575,0,0
756,449,0,0,0,0,0,0,0,0,0,-1,1980,575,0,0
763,449,0,0,0,0,0,0,0,0,0,-1,1987,575,0,0
770,449,0,0,0,0,0,0,0,0,0,-1,1994,575,0,0
777,449,0,0,0,0,0,0,0,0,0,-1,2001,575,0,0
784,449,0,0,0,0,0,0,0,0,0,-1,2008,575,0,0
791,449,0,0,0,0,0,0,0,0,0,-1,2015,575,0,0
798,449,0,0,0,0,0,0,0,0,0,-1,2022,575,0,0
805,449,0,0,0,0,0,0,0,0,0,-1,2029,575,0,0
812,449,0,0,0,0,0,0,0,0,0,-1,2036,575,0,0
-700,442,0,0,0,0,0,0,0,0,0,-1,524,582,0,0
-693,442,0,0,0,0,0,0,0,0,0,-1,531,582,0,0
-686,442,0,0,0,0,0,0,0,0,0,-1,538,582,0,0
-679,442,0,0,0,0,0,0,0,0,0,-1,545,582,0,0
-672,442,0,0,0,0,0,0,0,0,0,-1,552,582,0,0
-665,442,0,0,0,0,0,0,0,0,0,-1,559,582,0,0
-658,442,0,0,0,0,0,0,0,0,0,-1,566,582,0,0
-651,442,0,0,0,0,0,0,0,0,0,-1,573,582,0,0
-644,442,0,0,0,0,0,0,0,0,0,-1,580,582,0,0
-637,442,0,0,0,0,0,0,0,0,0,-1,587,582,0,0
-630,442,0,0,0,0,0,0,0,0,0,-1,594,582,0,0
-623,442,0,0,0,0,0,0,0,0,0,-1,601,582,0,0
-616,442,0,0,0,0,0,0,0,0,0,-1,608,582,0,0
-609,442,0,0,0,0,0,0,0,0,0,-1,615,582,0,0
-602,442,0,0,0,0,0,0,0,0,0,-1,622,582,0,0
-595,442,0,0,0,0,0,0,0,0,0,-1,629,582,0,0
-588,442,0,0,0,0,0,0,0,0,0,-1,636,582,0,0
-581,442,0,0,0,0,0,0,0,0,0,-1,643,582,0,0
-574,442,0,0,0,0,0,0,0,0,0,-1,650,582,0,0
-567,442,0,0,0,0,0,0,0,0,0,-1,657,582,0,0
-560,442,0,0,0,0,0,0,0,0,0,-1,664,582,0,0
-553,442,0,0,0,0,0,0,0,0,0,-1,671,582,0,0
-546,442,0,0,0,0,0,0,0,0,0,-1,678,582,0,0
-539,442,0,0,0,0,0,0,0,0,0,-1,685,582,0,0
-532,442,0,0,0,0,0,0,0,0,0,-1,692,582,0,0
-525,442,0,0,0,0,0,0,0,0,0,-1,699,582,0,0
-518,442,-0.493774,-5.72943,0,0,0,0,0,0,0,-1,706,582,-0.493791,5.72946
-511,442,-1.33008,-6.18512,0,0,0,0,0,0,0,-1,713,582,-1.33006,6.18511
-504,442,-3.20807,-6.34082,0,0,0,0,0,0,0,-1,720,582,-3.2081,6.34083
-497,442,-13.6886,-0.250122,0,0,0,0,0,0,0,-1,727,582,-13.6886,0.250143
-490,442,-9.09039,-3.64862,0,0,0,0,0,0,0,-1,734,582,-9.09037,3.64861
-483,442,-7.36499,-1.01892,0,0,0,0,0,0,0,-1,741,582,-7.365,1.01895
-476,442,-4.84784,-4.44141,0,0,0,0,0,0,0,-1,748,582,-4.84787,4.44138
-469,442,-10.2872,-12.7517,0,0,0,0,0,0,0,-1,755,582,-10.2872,12.7517
-462,442,-10.0086,-14.2003,0,0,0,0,0,0,0,-1,762,582,-10.0086,14.2003
-455,442,-10.1869,-15.1576,0,0,0,0,0,0,0,-1,769,582,-10.1869,15.1576
-448,442,-10.2007,-16.079,-0.000872757,0.00517954,-0.00235176,0.00598593,-0.00167915,-1.24047,0.00465246,0.021365,776,582,-10.2007,16.079
-441,442,-10.2919,-16.9278,-0.000451321,0.00416317,-0.00184003,0.00480704,-0.00109519,-1.23419,0.00362533,0.0154291,783,582,-10.292,16.9278
-434,442,-10.3418,-17.7446,-4.68601e-05,0.00338087,-0.00147895,0.00393077,-0.000596758,-1.21482,0.0028404,0.0140342,790,582,-10.3418,17.7446
-427,442,-10.3954,-18.5436,0.000365629,0.00276348,-0.00123544,0.00328611,-0.000156999,-1.1706,0.0022449,0.0138427,797,582,-10.3954,18.5437
-420,442,-10.42,-19.3613,0.00083313,0.00227757,-0.00113144,0.00289765,0.000213058,-1.06946,0.00186481,0.0141739,804,582,-10.4201,19.3613
-413,442,-10.449,-20.1598,0.00116166,0.00163244,-0.000875735,0.00230387,0.000490234,-0.916689,0.00140138,0.0121351,811,582,-10.449,20.1598
-406,442,-10.511,-20.9499,0.00155286,0.0012511,-0.00077231,0.00218889,0.000615072,-0.688931,0.00130354,0.0103032,818,582,-10.5111,20.9499
-399,442,-10.5612,-21.734,0.00203184,0.000878092,-0.000740861,0.00239393,0.000515998,-0.454605,0.00145478,0.00894704,825,582,-10.5612,21.734
-392,442,-10.5929,-22.5056,0.00254098,0.000501133,-0.000705164,0.00276102,0.000281097,-0.302462,0.0017545,0.011743,832,582,-10.5929,22.5056
-385,442,-10.6343,-23.2895,0.00311949,0.000141364,-0.000687977,0.00327074,-9.88366e-06,-0.216402,0.00218379,0.0140326,839,582,-10.6343,23.2895
-378,442,-10.6387,-24.1128,0.0037875,-0.000135813,-0.00069182,0.00390591,-0.000254232,-0.169526,0.00269269,0.0183759,846,582,-10.6386,24.1128
-371,442,-10.5944,-25.0083,0,0,0,0,0,0,0,-1,853,582,-10.5943,25.0083
-364,442,-6.89764,-17.5333,0,0,0,0,0,0,0,-1,860,582,-6.89765,17.5333
-357,442,-4.9115,-11.2649,0,0,0,0,0,0,0,-1,867,582,-4.91147,11.2649
-350,442,-1.75372,-6.27618,0,0,0,0,0,0,0,-1,874,582,-1.75371,6.27618
-343,442,-1.4599,-4.63605,0,0,0,0,0,0,0,-1,881,582,-1.4599,4.63607
-336,442,-1.4054,-2.64313,0,0,0,0,0,0,0,-1,888,582,-1.40539,2.64315
-329,442,-0.952576,-2.76923,0,0,0,0,0,0,0,-1,895,582,-0.952571,2.7692
-322,442,-0.972534,-2.63208,0,0,0,0,0,0,0,-1,902,582,-0.972512,2.6321
-315,442,-0.445557,-2.89764,0,0,0,0,0,0,0,-1,909,582,-0.445582,2.89765
-308,442,-0.654175,-3.07831,0,0,0,0,0,0,0,-1,916,582,-0.654145,3.07832
-301,442,-1.37427,-2.41455,0,0,0,0,0,0,0,-1,923,582,-1.37425,2.41453
-294,442,-2.99963,-2.07855,0,0,0,0,0,0,0,-1,930,582,-2.99964,2.07857
-287,442,3.91034,-10.1913,0,0,0,0,0,0,0,-1,937,582,3.91034,10.1913
-280,442,0,0,0,0,0,0,0,0,0,-1,944,582,0,0
-273,442,0,0,0,0,0,0,0,0,0,-1,951,582,0,0
-266,442,0,0,0,0,0,0,0,0,0,-1,958,582,0,0
-259,442,0,0,0,0,0,0,0,0,0,-1,965,582,0,0
-252,442,0,0,0,0,0,0,0,0,0,-1,972,582,0,0
-245,442,0,0,0,0,0,0,0,0,0,-1,979,582,0,0
-238,442,0,0,0,0,0,0,0,0,0,-1,986,582,0,0
-231,442,0,0,0,0,0,0,0,0,0,-1,993,582,0,0
-224,442,0,0,0,0,0,0,0,0,0,-1,1000,582,0,0
-217,442,0,0,0,0,0,0,0,0,0,-1,1007,582,0,0
-210,442,0,0,0,0,0,0,0,0,0,-1,1014,582,0,0
-203,442,0,0,0,0,0,0,0,0,0,-1,1021,582,0,0
-196,442,0,0,0,0,0,0,0,0,0,-1,1028,582,0,0
-189,442,0,0,0,0,0,0,0,0,0,-1,1035,582,0,0
-182,442,0,0,0,0,0,0,0,0,0,-1,1042,582,0,0
-175,442,0,0,0,0,0,0,0,0,0,-1,1049,582,0,0
-168,442,0,0,0,0,0,0,0,0,0,-1,1056,582,0,0
-161,442,0,0,0,0,0,0,0,0,0,-1,1063,582,0,0
-154,442,0,0,0,0,0,0,0,0,0,-1,1070,582,0,0
-147,442,0,0,0,0,0,0,0,0,0,-1,1077,582,0,0
-140,442,0,0,0,0,0,0,0,0,0,-1,1084,582,0,0
-133,442,0,0,0,0,0,0,0,0,0,-1,1091,582,0,0
-126,442,0,0,0,0,0,0,0,0,0,-1,1098,582,0,0
-119,442,0,0,0,0,0,0,0,0,0,-1,1105,582,0,0
-112,442,0,0,0,0,0,0,0,0,0,-1,1112,582,0,0
-105,442,0,0,0,0,0,0,0,0,0,-1,1119,582,0,0
-98,442,0,0,0,0,0,0,0,0,0,-1,1126,582,0,0
-91,442,0,0,0,0,0,0,0,0,0,-1,1133,582,0,0
-84,442,0,0,0,0,0,0,0,0,0,-1,1140,582,0,0
-77,442,0,0,0,0,0,0,0,0,0,-1,1147,582,0,0
-70,442,0,0,0,0,0,0,0,0,0,-1,1154,582,0,0
-63,442,0,0,0,0,0,0,0,0,0,-1,1161,582,0,0
-56,442,0,0,0,0,0,0,0,0,0,-1,1168,582,0,0
-49,442,0,0,0,0,0,0,0,0,0,-1,1175,582,0,0
-42,442,0,0,0,0,0,0,0,0,0,-1,1182,582,0,0
-35,442,0,0,0,0,0,0,0,0,0,-1,1189,582,0,0
-28,442,0,0,0,0,0,0,0,0,0,-1,1196,582,0,0
-21,442,0,0,0,0,0,0,0,0,0,-1,1203,582,0,0
-14,442,0,0,0,0,0,0,0,0,0,-1,1210,582,0,0
-7,442,0,0,0,0,0,0,0,0,0,-1,1217,582,0,0
0,442,0,0,0,0,0,0,0,0,0,-1,1224,582,0,0
7,442,0,0,0,0,0,0,0,0,0,-1,1231,582,0,0
14,442,0,0,0,0,0,0,0,0,0,-1,1238,582,0,0
21,442,0,0,0,0,0,0,0,0,0,-1,1245,582,0,0
28,442,0,0,0,0,0,0,0,0,0,-1,1252,582,0,0
35,442,0,0,0,0,0,0,0,0,0,-1,1259,582,0,0
42,442,0,0,0,0,0,0,0,0,0,-1,1266,582,0,0
49,442,0,0,0,0,0,0,0,0,0,-1,1273,582,0,0
56,442,0,0,0,0,0,0,0,0,0,-1,1280,582,0,0
63,442,0,0,0,0,0,0,0,0,0,-1,1287,582,0,0
70,442,0,0,0,0,0,0,0,0,0,-1,1294,582,0,0
77,442,0,0,0,0,0,0,0,0,0,-1,1301,582,0,0
84,442,0,0,0,0,0,0,0,0,0,-1,1308,582,0,0
91,442,0,0,0,0,0,0,0,0,0,-1,1315,582,0,0
98,442,0,0,0,0,0,0,0,0,0,-1,1322,582,0,0
105,442,0,0,0,0,0,0,0,0,0,-1,1329,582,0,0
112,442,0,0,0,0,0,0,0,0,0,-1,1336,582,0,0
119,442,0,0,0,0,0,0,0,0,0,-1,1343,582,0,0
126,442,0,0,0,0,0,0,0,0,0,-1,1350,582,0,0
133,442,0,0,0,0,0,0,0,0,0,-1,1357,582,0,0
140,442,0,0,0,0,0,0,0,0,0,-1,1364,582,0,0
147,442,0,0,0,0,0,0,0,0,0,-1,1371,582,0,0
154,442,0,0,0,0,0,0,0,0,0,-1,1378,582,0,0
161,442,0,0,0,0,0,0,0,0,0,-1,1385,582,0,0
168,442,0,0,0,0,0,0,0,0,0,-1,1392,582,0,0
175,442,0,0,0,0,0,0,0,0,0,-1,1399,582,0,0
182,442,0,0,0,0,0,0,0,0,0,-1,1406,582,0,0
189,442,0,0,0,0,0,0,0,0,0,-1,1413,582,0,0
196,442,0,0,0,0,0,0,0,0,0,-1,1420,582,0,0
203,442,0,0,0,0,0,0,0,0,0,-1,1427,582,0,0
210,442,0,0,0,0,0,0,0,0,0,-1,1434,582,0,0
217,442,0,0,0,0,0,0,0,0,0,-1,1441,582,0,0
224,442,0,0,0,0,0,0,0,0,0,-1,1448,582,0,0
231,442,0,0,0,0,0,0,0,0,0,-1,1455,582,0,0
238,442,0,0,0,0,0,0,0,0,0,-1,1462,582,0,0
245,442,0,0,0,0,0,0,0,0,0,-1,1469,582,0,0
252,442,0,0,0,0,0,0,0,0,0,-1,1476,582,0,0
259,442,0,0,0,0,0,0,0,0,0,-1,1483,582,0,0
266,442,0,0,0,0,0,0,0,0,0,-1,1490,582,0,0
273,442,0,0,0,0,0,0,0,0,0,-1,1497,582,0,0
280,442,0,0,0,0,0,0,0,0,0,-1,1504,582,0,0
287,442,0,0,0,0,0,0,0,0,0,-1,1511,582,0,0
294,442,0,0,0,0,0,0,0,0,0,-1,1518,582,0,0
301,442,0,0,0,0,0,0,0,0,0,-1,1525,582,0,0
308,442,0,0,0,0,0,0,0,0,0,-1,1532,582,0,0
315,442,0,0,0,0,0,0,0,0,0,-1,1539,582,0,0
322,442,0,0,0,0,0,0,0,0,0,-1,1546,582,0,0
329,442,0,0,0,0,0,0,0,0,0,-1,1553,582,0,0
336,442,0,0,0,0,0,0,0,0,0,-1,1560,582,0,0
343,442,0,0,0,0,0,0,0,0,0,-1,1567,582,0,0
350,442,0,0,0,0,0,0,0,0,0,-1,1574,582,0,0
357,442,0,0,0,0,0,0,0,0,0,-1,1581,582,0,0
364,442,0,0,0,0,0,0,0,0,0,-1,1588,582,0,0
371,442,0,0,0,0,0,0,0,0,0,-1,1595,582,0,0
378,442,0,0,0,0,0,0,0,0,0,-1,1602,582,0,0
385,442,0,0,0,0,0,0,0,0,0,-1,1609,582,0,0
392,442,0,0,0,0,0,0,0,0,0,-1,1616,582,0,0
399,442,0,0,0,0,0,0,0,0,0,-1,1623,582,0,0
406,442,17.6321,4.08295,0,0,0,0,0,0,0,-1,1630,582,17.6321,-4.08293
413,442,25.4768,2.74445,0,0,0,0,0,0,0,-1,1637,582,25.4768,-2.74444
420,442,22.7478,1.55011,0,0,0,0,0,0,0,-1,1644,582,22.7478,-1.55009
427,442,23.2969,-0.456787,0,0,0,0,0,0,0,-1,1651,582,23.2968,0.456769
434,442,23.9512,-2.49365,0,0,0,0,0,0,0,-1,1658,582,23.9512,2.49366
441,442,24.8251,-4.43958,0,0,0,0,0,0,0,-1,1665,582,24.8251,4.43956
448,442,4.7749,-5.88562,0,0,0,0,0,0,0,-1,1672,582,4.7749,5.8856
455,442,4.87024,-4.60687,0,0,0,0,0,0,0,-1,1679,582,4.87019,4.60686
462,442,5.02307,-3.72821,0,0,0,0,0,0,0,-1,1686,582,5.02311,3.7282
469,442,5.12976,-2.98834,0,0,0,0,0,0,0,-1,1693,582,5.12971,2.98834
476,442,5.4624,1.76947,0,0,0,0,0,0,0,-1,1700,582,5.46234,-1.76944
483,442,5.98486,1.87042,0,0,0,0,0,0,0,-1,1707,582,5.98492,-1.87045
490,442,5.04407,-2.35834,0,0,0,0,0,0,0,-1,1714,582,5.04411,2.35837
497,442,6.20984,-3.07831,0,0,0,0,0,0,0,-1,1721,582,6.2098,3.07833
504,442,20.9276,-19.7709,0,0,0,0,0,0,0,-1,1728,582,20.9276,19.771
511,442,24.1678,-22.4968,0,0,0,0,0,0,0,-1,1735,582,24.1678,22.4968
518,442,24.1724,-21.6378,0.0032355,0.00210214,0.00207761,0.00482233,0.000515309,0.652258,0.00305762,0.0157025,1742,582,24.1724,21.6378
525,442,24.0997,-20.8447,0.00279671,0.0017437,0.00191139,0.00425278,0.000287626,0.651003,0.00274434,0.0116296,1749,582,24.0997,20.8448
532,442,24.0536,-20.0419,0.00233754,0.00156297,0.00172207,0.00371533,0.000185176,0.674792,0.00241753,0.0126239,1756,582,24.0535,20.0419
539,442,24.0233,-19.2271,0.00194261,0.00153859,0.00158115,0.00333461,0.000146595,0.721861,0.00217585,0.0151777,1763,582,24.0234,19.2271
546,442,24.0051,-18.3754,0.00157962,0.00163789,0.00142866,0.00303771,0.000179798,0.795595,0.00196795,0.0207788,1770,582,24.0051,18.3754
553,442,23.9243,-17.5638,0.00119463,0.00189721,0.00130874,0.00290098,0.000190854,0.916517,0.00187361,0.0209886,1777,582,23.9243,17.5638
560,442,23.9025,-16.7322,0.000851578,0.00227127,0.00126836,0.00301491,0.000107937,1.04051,0.00197494,0.0153796,1784,582,23.9025,16.7322
567,442,23.8568,-15.9439,0.000657763,0.00283625,0.001401,0.00352162,-2.76054e-05,1.11583,0.002357,0.0108634,1791,582,23.8568,15.9439
574,442,23.8281,-15.1317,0.000482163,0.00353651,0.00160867,0.00422746,-0.000208785,1.16511,0.00289041,0.0130913,1798,582,23.8282,15.1317
581,442,23.8335,-14.1932,0.00044748,0.00447257,0.00205153,0.0053339,-0.000413843,1.1733,0.0037016,0.0284235,1805,582,23.8334,14.1932
588,442,23.8929,-13.2209,0,0,0,0,0,0,0,-1,1812,582,23.8929,13.2209
595,442,16.27,-6.47083,0,0,0,0,0,0,0,-1,1819,582,16.27,6.47082
602,442,16.2213,-4.49225,0,0,0,0,0,0,0,-1,1826,582,16.2213,4.49223
609,442,12.761,2.97223,0,0,0,0,0,0,0,-1,1833,582,12.761,-2.97221
616,442,9.78345,-0.103394,0,0,0,0,0,0,0,-1,1840,582,9.78341,0.103424
623,442,9.23828,0.326721,0,0,0,0,0,0,0,-1,1847,582,9.23829,-0.326727
630,442,7.74304,2.3924,0,0,0,0,0,0,0,-1,1854,582,7.7431,-2.39238
637,442,5.87805,1.84027,0,0,0,0,0,0,0,-1,1861,582,5.87807,-1.84025
644,442,0,0,0,0,0,0,0,0,0,-1,1868,582,0,0
651,442,0,0,0,0,0,0,0,0,0,-1,1875,582,0,0
658,442,0,0,0,0,0,0,0,0,0,-1,1882,582,0,0
665,442,0,0,0,0,0,0,0,0,0,-1,1889,582,0,0
672,442,0,0,0,0,0,0,0,0,0,-1,1896,582,0,0
679,442,0,0,0,0,0,0,0,0,0,-1,1903,582,0,0
686,442,0,0,0,0,0,0,0,0,0,-1,1910,582,0,0
693,442,0,0,0,0,0,0,0,0,0,-1,1917,582,0,0
700,442,0,0,0,0,0,0,0,0,0,-1,1924,582,0,0
707,442,0,0,0,0,0,0,0,0,0,-1,1931,582,0,0
714,442,0,0,0,0,0,0,0,0,0,-1,1938,582,0,0
721,442,0,0,0,0,0,0,0,0,0,-1,1945,582,0,0
728,442,0,0,0,0,0,0,0,0,0,-1,1952,582,0,0
735,442,0,0,0,0,0,0,0,0,0,-1,1959,582,0,0
742,442,0,0,0,0,0,0,0,0,0,-1,1966,582,0,0
749,442,0,0,0,0,0,0,0,0,0,-1,1973,582,0,0
756,442,0,0,0,0,0,0,0,0,0,-1,1980,582,0,0
763,442,0,0,0,0,0,0,0,0,0,-1,1987,582,0,0
770,442,0,0,0,0,0,0,0,0,0,-1,1994,582,0,0
777,442,0,0,0,0,0,0,0,0,0,-1,2001,582,0,0
784,442,0,0,0,0,0,0,0,0,0,-1,2008,582,0,0
791,442,0,0,0,0,0,0,0,0,0,-1,2015,582,0,0
798,442,0,0,0,0,0,0,0,0,0,-1,2022,582,0,0
805,442,0,0,0,0,0,0,0,0,0,-1,2029,582,0,0
812,442,0,0,0,0,0,0,0,0,0,-1,2036,582,0,0
-700,435,0,0,0,0,0,0,0,0,0,-1,524,589,0,0
-693,435,0,0,0,0,0,0,0,0,0,-1,531,589,0,0
-686,435,0,0,0,0,0,0,0,0,0,-1,538,589,0,0
-679,435,0,0,0,0,0,0,0,0,0,-1,545,589,0,0
-672,435,0,0,0,0,0,0,0,0,0,-1,552,589,0,0
-665,435,0,0,0,0,0,0,0,0,0,-1,559,589,0,0
-658,435,0,0,0,0,0,0,0,0,0,-1,566,589,0,0
-651,435,0,0,0,0,0,0,0,0,0,-1,573,589,0,0
-644,435,0,0,0,0,0,0,0,0,0,-1,580,589,0,0
-637,435,0,0,0,0,0,0,0,0,0,-1,587,589,0,0
-630,435,0,0,0,0,0,0,0,0,0,-1,594,589,0,0
-623,435,0,0,0,0,0,0,0,0,0,-1,601,589,0,0
-616,435,0,0,0,0,0,0,0,0,0,-1,608,589,0,0
-609,435,0,0,0,0,0,0,0,0,0,-1,615,589,0,0
-602,435,0,0,0,0,0,0,0,0,0,-1,622,589,0,0
-595,435,0,0,0,0,0,0,0,0,0,-1,629,589,0,0
-588,435,0,0,0,0,0,0,0,0,0,-1,636,589,0,0
-581,435,0,0,0,0,0,0,0,0,0,-1,643,589,0,0
-574,435,0,0,0,0,0,0,0,0,0,-1,650,589,0,0
-567,435,0,0,0,0,0,0,0,0,0,-1,657,589,0,0
-560,435,0,0,0,0,0,0,0,0,0,-1,664,589,0,0
-553,435,0,0,0,0,0,0,0,0,0,-1,671,589,0,0
-546,435,0,0,0,0,0,0,0,0,0,-1,678,589,0,0
-539,435,0,0,0,0,0,0,0,0,0,-1,685,589,0,0
-532,435,0,0,0,0,0,0,0,0,0,-1,692,589,0,0
-525,435,-10.0776,10.0547,0,0,0,0,0,0,0,-1,699,589,-10.0776,-10.0547
-518,435,-1.83093,-5.82367,0,0,0,0,0,0,0,-1,706,589,-1.83093,5.8237
-511,435,-2.45154,-5.33118,0,0,0,0,0,0,0,-1,713,589,-2.45151,5.33115
-504,435,-3.07208,-4.83862,0,0,0,0,0,0,0,-1,720,589,-3.0721,4.8386
-497,435,-6.31012,-5.84698,0,0,0,0,0,0,0,-1,727,589,-6.31012,5.84697
-490,435,-5.81903,-0.458679,0,0,0,0,0,0,0,-1,734,589,-5.81902,0.458684
-483,435,-6.96503,-3.01624,0,0,0,0,0,0,0,-1,741,589,-6.96505,3.01623
-476,435,-11.2763,-12.1393,0,0,0,0,0,0,0,-1,748,589,-11.2763,12.1393
-469,435,-10.9495,-13.1674,-0.00181207,0.00817351,-0.00405859,0.00961501,-0.00325357,-1.22952,0.00772636,0.0472615,755,589,-10.9495,13.1673
-462,435,-10.8271,-14.3885,-0.00136423,0.00658422,-0.00324567,0.00774116,-0.00252117,-1.22838,0.00617517,0.0307525,762,589,-10.8272,14.3885
-455,435,-11.04,-15.2019,-0.00102717,0.00502534,-0.00246146,0.00589999,-0.00190181,-1.22938,0.00469739,0.0265092,769,589,-11.04,15.2019
-448,435,-11.0326,-16.0743,-0.000649828,0.00387225,-0.00185015,0.00453275,-0.00131032,-1.2279,0.00354038,0.0152222,776,589,-11.0326,16.0743
-441,435,-11.0738,-16.8826,-0.000203377,0.00305366,-0.00144296,0.00360096,-0.000750678,-1.20827,0.00268606,0.0122601,783,589,-11.0738,16.8826
-434,435,-11.1229,-17.6694,0.000237806,0.00242377,-0.00116397,0.00292749,-0.00026591,-1.16237,0.00204606,0.0126804,790,589,-11.123,17.6694
-427,435,-11.1781,-18.511,0.000706126,0.00197777,-0.00100984,0.00253528,0.000148616,-1.06636,0.00164289,0.0111527,797,589,-11.1781,18.511
-420,435,-11.1995,-19.3094,0.00122669,0.00166698,-0.000986212,0.00245732,0.00043635,-0.89521,0.00151387,0.0114584,804,589,-11.1994,19.3094
-413,435,-11.2432,-20.1099,0.00163877,0.00129286,-0.000869806,0.00235265,0.000578979,-0.687255,0.00141548,0.0119116,811,589,-11.2432,20.1099
-406,435,-11.304,-20.8866,0.00209238,0.00110857,-0.000879979,0.00260861,0.000592344,-0.530537,0.0015791,0.0114408,818,589,-11.304,20.8866
-399,435,-11.3625,-21.6879,0.00262987,0.000957097,-0.000983545,0.00308457,0.000502397,-0.433041,0.00191105,0.00926093,825,589,-11.3625,21.6878
-392,435,-11.4137,-22.4747,0.00321544,0.000818413,-0.00108013,0.00363034,0.000403511,-0.366745,0.00229756,0.0110368,832,589,-11.4137,22.4747
-385,435,-11.4207,-23.2469,0.00385176,0.00064209,-0.00118252,0.00424038,0.000253476,-0.317514,0.00274633,0.0228479,839,589,-11.4207,23.2469
-378,435,-11.3382,-24.047,0,0,0,0,0,0,0,-1,846,589,-11.3382,24.047
-371,435,-10.247,-21.7153,0,0,0,0,0,0,0,-1,853,589,-10.247,21.7153
-364,435,-5.62848,-11.5937,0,0,0,0,0,0,0,-1,860,589,-5.62847,11.5937
-357,435,-5.57343,-10.9666,0,0,0,0,0,0,0,-1,867,589,-5.57342,10.9666
-350,435,-0.86676,-3.69836,0,0,0,0,0,0,0,-1,874,589,-0.866784,3.69834
-343,435,-1.60706,-2.36835,0,0,0,0,0,0,0,-1,881,589,-1.60706,2.36838
-336,435,-2.07263,-1.94012,0,0,0,0,0,0,0,-1,888,589,-2.07265,1.94014
-329,435,-2.55963,-1.5517,0,0,0,0,0,0,0,-1,895,589,-2.5596,1.55168
-322,435,-3.08545,-1.55255,0,0,0,0,0,0,0,-1,902,589,-3.08544,1.55254
-315,435,-0.404297,-2.63763,0,0,0,0,0,0,0,-1,909,589,-0.404276,2.63761
-308,435,-1.70056,-1.90369,0,0,0,0,0,0,0,-1,916,589,-1.70056,1.90367
-301,435,-1.19391,-2.41632,0,0,0,0,0,0,0,-1,923,589,-1.1939,2.41635
-294,435,3.78278,-10.3275,0,0,0,0,0,0,0,-1,930,589,3.78281,10.3275
-287,435,0,0,0,0,0,0,0,0,0,-1,937,589,0,0
-280,435,0,0,0,0,0,0,0,0,0,-1,944,589,0,0
-273,435,0,0,0,0,0,0,0,0,0,-1,951,589,0,0
-266,435,0,0,0,0,0,0,0,0,0,-1,958,589,0,0
-259,435,0,0,0,0,0,0,0,0,0,-1,965,589,0,0
-252,435,0,0,0,0,0,0,0,0,0,-1,972,589,0,0
-245,435,0,0,0,0,0,0,0,0,0,-1,979,589,0,0
-238,435,0,0,0,0,0,0,0,0,0,-1,986,589,0,0
-231,435,0,0,0,0,0,0,0,0,0,-1,993,589,0,0
-224,435,0,0,0,0,0,0,0,0,0,-1,1000,589,0,0
-217,435,0,0,0,0,0,0,0,0,0,-1,1007,589,0,0
-210,435,0,0,0,0,0,0,0,0,0,-1,1014,589,0,0
-203,435,0,0,0,0,0,0,0,0,0,-1,1021,589,0,0
-196,435,0,0,0,0,0,0,0,0,0,-1,1028,589,0,0
-189,435,0,0,0,0,0,0,0,0,0,-1,1035,589,0,0
-182,435,0,0,0,0,0,0,0,0,0,-1,1042,589,0,0
-175,435,0,0,0,0,0,0,0,0,0,-1,1049,589,0,0
-168,435,0,0,0,0,0,0,0,0,0,-1,1056,589,0,0
-161,435,0,0,0,0,0,0,0,0,0,-1,1063,589,0,0
-154,435,0,0,0,0,0,0,0,0,0,-1,1070,589,0,0
-147,435,0,0,0,0,0,0,0,0,0,-1,1077,589,0,0
-140,435,0,0,0,0,0,0,0,0,0,-1,1084,589,0,0
-133,435,0,0,0,0,0,0,0,0,0,-1,1091,589,0,0
-126,435,0,0,0,0,0,0,0,0,0,-1,1098,589,0,0
-119,435,0,0,0,0,0,0,0,0,0,-1,1105,589,0,0
-112,435,0,0,0,0,0,0,0,0,0,-1,1112,589,0,0
-105,435,0,0,0,0,0,0,0,0,0,-1,1119,589,0,0
-98,435,0,0,0,0,0,0,0,0,0,-1,1126,589,0,0
-91,435,0,0,0,0,0,0,0,0,0,-1,1133,589,0,0
-84,435,0,0,0,0,0,0,0,0,0,-1,1140,589,0,0
-77,435,0,0,0,0,0,0,0,0,0,-1,1147,589,0,0
-70,435,0,0,0,0,0,0,0,0,0,-1,1154,589,0,0
-63,435,0,0,0,0,0,0,0,0,0,-1,1161,589,0,0
-56,435,0,0,0,0,0,0,0,0,0,-1,1168,589,0,0
-49,435,0,0,0,0,0,0,0,0,0,-1,1175,589,0,0
-42,435,0,0,0,0,0,0,0,0,0,-1,1182,589,0,0
-35,435,0,0,0,0,0,0,0,0,0,-1,1189,589,0,0
-28,435,0,0,0,0,0,0,0,0,0,-1,1196,589,0,0
-21,435,0,0,0,0,0,0,0,0,0,-1,1203,589,0,0
-14,435,0,0,0,0,0,0,0,0,0,-1,1210,589,0,0
-7,435,0,0,0,0,0,0,0,0,0,-1,1217,589,0,0
0,435,0,0,0,0,0,0,0,0,0,-1,1224,589,0,0
7,435,0,0,0,0,0,0,0,0,0,-1,1231,589,0,0
14,435,0,0,0,0,0,0,0,0,0,-1,1238,589,0,0
21,435,0,0,0,0,0,0,0,0,0,-1,1245,589,0,0
28,435,0,0,0,0,0,0,0,0,0,-1,1252,589,0,0
35,435,0,0,0,0,0,0,0,0,0,-1,1259,589,0,0
42,435,0,0,0,0,0,0,0,0,0,-1,1266,589,0,0
49,435,0,0,0,0,0,0,0,0,0,-1,1273,589,0,0
56,435,0,0,0,0,0,0,0,0,0,-1,1280,589,0,0
63,435,0,0,0,0,0,0,0,0,0,-1,1287,589,0,0
70,435,0,0,0,0,0,0,0,0,0,-1,1294,589,0,0
77,435,0,0,0,0,0,0,0,0,0,-1,1301,589,0,0
84,435,0,0,0,0,0,0,0,0,0,-1,1308,589,0,0
91,435,0,0,0,0,0,0,0,0,0,-1,1315,589,0,0
98,435,0,0,0,0,0,0,0,0,0,-1,1322,589,0,0
105,435,0,0,0,0,0,0,0,0,0,-1,1329,589,0,0
112,435,0,0,0,0,0,0,0,0,0,-1,1336,589,0,0
119,435,0,0,0,0,0,0,0,0,0,-1,1343,589,0,0
126,435,0,0,0,0,0,0,0,0,0,-1,1350,589,0,0
133,435,0,0,0,0,0,0,0,0,0,-1,1357,589,0,0
140,435,0,0,0,0,0,0,0,0,0,-1,1364,589,0,0
147,435,0,0,0,0,0,0,0,0,0,-1,1371,589,0,0
154,435,0,0,0,0,0,0,0,0,0,-1,1378,589,0,0
161,435,0,0,0,0,0,0,0,0,0,-1,1385,589,0,0
168,435,0,0,0,0,0,0,0,0,0,-1,1392,589,0,0
175,435,0,0,0,0,0,0,0,0,0,-1,1399,589,0,0
182,435,0,0,0,0,0,0,0,0,0,-1,1406,589,0,0
189,435,0,0,0,0,0,0,0,0,0,-1,1413,589,0,0
196,435,0,0,0,0,0,0,0,0,0,-1,1420,589,0,0
203,435,0,0,0,0,0,0,0,0,0,-1,1427,589,0,0
210,435,0,0,0,0,0,0,0,0,0,-1,1434,589,0,0
217,435,0,0,0,0,0,0,0,0,0,-1,1441,589,0,0
224,435,0,0,0,0,0,0,0,0,0,-1,1448,589,0,0
231,435,0,0,0,0,0,0,0,0,0,-1,1455,589,0,0
238,435,0,0,0,0,0,0,0,0,0,-1,1462,589,0,0
245,435,0,0,0,0,0,0,0,0,0,-1,1469,589,0,0
252,435,0,0,0,0,0,0,0,0,0,-1,1476,589,0,0
259,435,0,0,0,0,0,0,0,0,0,-1,1483,589,0,0
266,435,0,0,0,0,0,0,0,0,0,-1,1490,589,0,0
273,435,0,0,0,0,0,0,0,0,0,-1,1497,589,0,0
280,435,0,0,0,0,0,0,0,0,0,-1,1504,589,0,0
287,435,0,0,0,0,0,0,0,0,0,-1,1511,589,0,0
294,435,0,0,0,0,0,0,0,0,0,-1,1518,589,0,0
301,435,0,0,0,0,0,0,0,0,0,-1,1525,589,0,0
308,435,0,0,0,0,0,0,0,0,0,-1,1532,589,0,0
315,435,0,0,0,0,0,0,0,0,0,-1,1539,589,0,0
322,435,0,0,0,0,0,0,0,0,0,-1,1546,589,0,0
329,435,0,0,0,0,0,0,0,0,0,-1,1553,589,0,0
336,435,0,0,0,0,0,0,0,0,0,-1,1560,589,0,0
343,435,0,0,0,0,0,0,0,0,0,-1,1567,589,0,0
350,435,0,0,0,0,0,0,0,0,0,-1,1574,589,0,0
357,435,0,0,0,0,0,0,0,0,0,-1,1581,589,0,0
364,435,0,0,0,0,0,0,0,0,0,-1,1588,589,0,0
371,435,0,0,0,0,0,0,0,0,0,-1,1595,589,0,0
378,435,0,0,0,0,0,0,0,0,0,-1,1602,589,0,0
385,435,0,0,0,0,0,0,0,0,0,-1,1609,589,0,0
392,435,0,0,0,0,0,0,0,0,0,-1,1616,589,0,0
399,435,0,0,0,0,0,0,0,0,0,-1,1623,589,0,0
406,435,0,0,0,0,0,0,0,0,0,-1,1630,589,0,0
413,435,20.4565,3.49835,0,0,0,0,0,0,0,-1,1637,589,20.4565,-3.49836
420,435,21.4015,1.49609,0,0,0,0,0,0,0,-1,1644,589,21.4015,-1.49609
427,435,22.0464,-0.373962,0,0,0,0,0,0,0,-1,1651,589,22.0464,0.373972
434,435,22.1863,-1.54407,0,0,0,0,0,0,0,-1,1658,589,22.1862,1.54405
441,435,22.3992,-2.38287,0,0,0,0,0,0,0,-1,1665,589,22.3992,2.38289
448,435,7.4585,-0.00292969,0,0,0,0,0,0,0,-1,1672,589,7.45848,0.00294131
455,435,5.49915,-5.047,0,0,0,0,0,0,0,-1,1679,589,5.49914,5.04703
462,435,5.60669,-4.71466,0,0,0,0,0,0,0,-1,1686,589,5.60675,4.71469
469,435,5.87708,1.22351,0,0,0,0,0,0,0,-1,1693,589,5.87703,-1.22351
476,435,6.14136,1.37714,0,0,0,0,0,0,0,-1,1700,589,6.14138,-1.37712
483,435,6.49243,1.36169,0,0,0,0,0,0,0,-1,1707,589,6.49242,-1.36171
490,435,4.38391,-1.36218,0,0,0,0,0,0,0,-1,1714,589,4.38389,1.3622
497,435,7.23499,-3.64551,0,0,0,0,0,0,0,-1,1721,589,7.23495,3.64551
504,435,7.31189,-3.75909,0,0,0,0,0,0,0,-1,1728,589,7.31184,3.75911
511,435,24.8229,-22.5865,0,0,0,0,0,0,0,-1,1735,589,24.8229,22.5865
518,435,24.9949,-21.6444,0.00424346,0.00255032,0.00265868,0.0061871,0.000606684,0.631265,0.00393811,0.0367208,1742,589,24.9949,21.6444
525,435,24.9106,-20.8071,0.00367666,0.00200334,0.00234862,0.00533319,0.000346811,0.614289,0.00344568,0.0140247,1749,589,24.9107,20.8071
532,435,24.8855,-19.9874,0.00310113,0.00165042,0.0020152,0.00451754,0.00023401,0.612647,0.0029368,0.0163352,1756,589,24.8855,19.9874
539,435,24.864,-19.1523,0.00261481,0.00154109,0.00177223,0.00392971,0.000226188,0.638327,0.00254776,0.0177472,1763,589,24.864,19.1523
546,435,24.8248,-18.3438,0.00217102,0.00149926,0.00152863,0.00340023,0.000270044,0.677253,0.00218238,0.0176288,1770,589,24.8249,18.3438
553,435,24.7715,-17.5434,0.00171043,0.00163028,0.00132893,0.00299989,0.000340819,0.770325,0.00189656,0.012226,1777,589,24.7715,17.5434
560,435,24.7159,-16.7305,0.00129055,0.00186917,0.00121406,0.00282792,0.000331809,0.902366,0.00178498,0.00959621,1784,589,24.7159,16.7305
567,435,24.6853,-15.9008,0.00102896,0.00230292,0.00128306,0.00309842,0.000233459,1.0158,0.00199236,0.00896632,1791,589,24.6853,15.9007
574,435,24.6405,-15.0931,0.000854975,0.00286989,0.00144895,0.00362721,9.76624e-05,1.08918,0.00238625,0.010048,1798,589,24.6405,15.0931
581,435,24.5833,-14.2795,0.00084903,0.00362688,0.00182534,0.00453163,-5.57243e-05,1.11062,0.00303983,0.0177292,1805,589,24.5833,14.2795
588,435,24.5427,-13.4919,0.00119407,0.00461899,0.00246708,0.0059097,-9.66375e-05,1.08878,0.0039724,0.0463332,1812,589,24.5428,13.492
595,435,24.595,-12.3728,0,0,0,0,0,0,0,-1,1819,589,24.5949,12.3728
602,435,16.8671,-6.39026,0,0,0,0,0,0,0,-1,1826,589,16.867,6.39024
609,435,15.2611,-3.42242,0,0,0,0,0,0,0,-1,1833,589,15.2611,3.42242
616,435,5.05151,-2.75269,0,0,0,0,0,0,0,-1,1840,589,5.05157,2.7527
623,435,11.7588,3.9704,0,0,0,0,0,0,0,-1,1847,589,11.7587,-3.97043
630,435,4.72742,-0.87561,0,0,0,0,0,0,0,-1,1854,589,4.7274,0.875636
637,435,5.05286,1.48792,0,0,0,0,0,0,0,-1,1861,589,5.05291,-1.48792
644,435,0,0,0,0,0,0,0,0,0,-1,1868,589,0,0
651,435,0,0,0,0,0,0,0,0,0,-1,1875,589,0,0
658,435,0,0,0,0,0,0,0,0,0,-1,1882,589,0,0
665,435,0,0,0,0,0,0,0,0,0,-1,1889,589,0,0
672,435,0,0,0,0,0,0,0,0,0,-1,1896,589,0,0
679,435,0,0,0,0,0,0,0,0,0,-1,1903,589,0,0
686,435,0,0,0,0,0,0,0,0,0,-1,1910,589,0,0
693,435,0,0,0,0,0,0,0,0,0,-1,1917,589,0,0
700,435,0,0,0,0,0,0,0,0,0,-1,1924,589,0,0
707,435,0,0,0,0,0,0,0,0,0,-1,1931,589,0,0
714,435,0,0,0,0,0,0,0,0,0,-1,1938,589,0,0
721,435,0,0,0,0,0,0,0,0,0,-1,1945,589,0,0
728,435,0,0,0,0,0,0,0,0,0,-1,1952,589,0,0
735,435,0,0,0,0,0,0,0,0,0,-1,1959,589,0,0
742,435,0,0,0,0,0,0,0,0,0,-1,1966,589,0,0
749,435,0,0,0,0,0,0,0,0,0,-1,1973,589,0,0
756,435,0,0,0,0,0,0,0,0,0,-1,1980,589,0,0
763,435,0,0,0,0,0,0,0,0,0,-1,1987,589,0,0
770,435,0,0,0,0,0,0,0,0,0,-1,1994,589,0,0
777,435,0,0,0,0,0,0,0,0,0,-1,2001,589,0,0
784,435,0,0,0,0,0,0,0,0,0,-1,2008,589,0,0
791,435,0,0,0,0,0,0,0,0,0,-1,2015,589,0,0
798,435,0,0,0,0,0,0,0,0,0,-1,2022,589,0,0
805,435,0,0,0,0,0,0,0,0,0,-1,2029,589,0,0
812,435,0,0,0,0,0,0,0,0,0,-1,2036,589,0,0
-700,428,0,0,0,0,0,0,0,0,0,-1,524,596,0,0
-693,428,0,0,0,0,0,0,0,0,0,-1,531,596,0,0
-686,428,0,0,0,0,0,0,0,0,0,-1,538,596,0,0
-679,428,0,0,0,0,0,0,0,0,0,-1,545,596,0,0
-672,428,0,0,0,0,0,0,0,0,0,-1,552,596,0,0
-665,428,0,0,0,0,0,0,0,0,0,-1,559,596,0,0
-658,428,0,0,0,0,0,0,0,0,0,-1,566,596,0,0
-651,428,0,0,0,0,0,0,0,0,0,-1,573,596,0,0
-644,428,0,0,0,0,0,0,0,0,0,-1,580,596,0,0
-637,428,0,0,0,0,0,0,0,0,0,-1,587,596,0,0
-630,428,0,0,0,0,0,0,0,0,0,-1,594,596,0,0
-623,428,0,0,0,0,0,0,0,0,0,-1,601,596,0,0
-616,428,0,0,0,0,0,0,0,0,0,-1,608,596,0,0
-609,428,0,0,0,0,0,0,0,0,0,-1,615,596,0,0
-602,428,0,0,0,0,0,0,0,0,0,-1,622,596,0,0
-595,428,0,0,0,0,0,0,0,0,0,-1,629,596,0,0
-588,428,0,0,0,0,0,0,0,0,0,-1,636,596,0,0
-581,428,0,0,0,0,0,0,0,0,0,-1,643,596,0,0
-574,428,0,0,0,0,0,0,0,0,0,-1,650,596,0,0
-567,428,0,0,0,0,0,0,0,0,0,-1,657,596,0,0
-560,428,0,0,0,0,0,0,0,0,0,-1,664,596,0,0
-553,428,0,0,0,0,0,0,0,0,0,-1,671,596,0,0
-546,428,0,0,0,0,0,0,0,0,0,-1,678,596,0,0
-539,428,0,0,0,0,0,0,0,0,0,-1,685,596,0,0
-532,428,0,0,0,0,0,0,0,0,0,-1,692,596,0,0
-525,428,-9.59918,7.58618,0,0,0,0,0,0,0,-1,699,596,-9.59918,-7.5862
-518,428,-2.92285,-4.81854,0,0,0,0,0,0,0,-1,706,596,-2.92285,4.81856
-511,428,-3.68811,-4.79474,0,0,0,0,0,0,0,-1,713,596,-3.68811,4.79474
-504,428,-4.45337,-4.77094,0,0,0,0,0,0,0,-1,720,596,-4.45337,4.77092
-497,428,-2.98108,-3.77502,0,0,0,0,0,0,0,-1,727,596,-2.98106,3.77505
-490,428,-6.39044,-2.80481,0,0,0,0,0,0,0,-1,734,596,-6.39047,2.80483
-483,428,-10.8474,-9.11322,0,0,0,0,0,0,0,-1,741,596,-10.8473,9.11321
-476,428,-11.6096,-12.6518,0,0,0,0,0,0,0,-1,748,596,-11.6096,12.6518
-469,428,-11.5614,-13.4843,-0.00160424,0.00635692,-0.00308462,0.00741221,-0.00265953,-1.24117,0.00602686,0.0336606,755,596,-11.5614,13.4842
-462,428,-11.7222,-14.2255,-0.00117185,0.00502142,-0.00246987,0.00588577,-0.0020362,-1.23416,0.00475034,0.0352605,762,596,-11.7222,14.2255
-455,428,-11.8229,-15.1375,-0.000790667,0.00375778,-0.00188461,0.00443717,-0.00147006,-1.2248,0.00355105,0.0176996,769,596,-11.8229,15.1375
-448,428,-11.8573,-15.9843,-0.000343322,0.00285182,-0.00145383,0.0034143,-0.000905808,-1.20163,0.00263064,0.0134001,776,596,-11.8573,15.9843
-441,428,-11.8841,-16.8162,0.000134592,0.00220896,-0.00115214,0.00272199,-0.00037844,-1.15187,0.00195307,0.0144826,783,596,-11.8841,16.8162
-434,428,-11.9103,-17.682,0.000612798,0.00173188,-0.000958305,0.00228204,6.26389e-05,-1.04964,0.00150091,0.0102907,790,596,-11.9103,17.682
-427,428,-11.9631,-18.5078,0.00113154,0.00145509,-0.000901268,0.00220899,0.000377642,-0.874202,0.00136431,0.0116068,797,596,-11.9631,18.5077
-420,428,-11.9883,-19.2624,0.00168919,0.00131304,-0.000963073,0.00248238,0.000519849,-0.688969,0.00151173,0.0121408,804,596,-11.9883,19.2624
-413,428,-12.0294,-20.0364,0.00218612,0.00124112,-0.00102232,0.00283985,0.000587395,-0.568928,0.00173098,0.0151398,811,596,-12.0294,20.0365
-406,428,-12.0881,-20.8297,0.00270036,0.00125535,-0.00117953,0.00336108,0.000594631,-0.510604,0.00207116,0.0175925,818,596,-12.0881,20.8297
-399,428,-12.1173,-21.652,0.00327992,0.00132476,-0.00146112,0.00406033,0.000544355,-0.490569,0.00254491,0.0162521,825,596,-12.1173,21.6521
-392,428,-12.1445,-22.4902,0.00392936,0.00141893,-0.00173948,0.00481922,0.000529067,-0.472859,0.00305178,0.0341239,832,596,-12.1446,22.4902
-385,428,-12.2538,-23.4108,0,0,0,0,0,0,0,-1,839,596,-12.2538,23.4108
-378,428,-10.8172,-20.952,0,0,0,0,0,0,0,-1,846,596,-10.8172,20.952
-371,428,-5.96155,-11.0703,0,0,0,0,0,0,0,-1,853,596,-5.96154,11.0702
-364,428,-6.33643,-10.7223,0,0,0,0,0,0,0,-1,860,596,-6.33645,10.7223
-357,428,-3.20996,-4.70966,0,0,0,0,0,0,0,-1,867,596,-3.20997,4.70965
-350,428,-1.62793,-3.94055,0,0,0,0,0,0,0,-1,874,596,-1.62794,3.94055
-343,428,-0.0567017,-4.80994,0,0,0,0,0,0,0,-1,881,596,-0.0567096,4.80996
-336,428,-3.29175,-1.39569,0,0,0,0,0,0,0,-1,888,596,-3.29172,1.39568
-329,428,-3.71564,-0.791321,0,0,0,0,0,0,0,-1,895,596,-3.71564,0.791299
-322,428,-5.52863,-3.59827,0,0,0,0,0,0,0,-1,902,596,-5.52865,3.59829
-315,428,-4.57172,-1.22052,0,0,0,0,0,0,0,-1,909,596,-4.57171,1.22052
-308,428,-5.60742,-3.40961,0,0,0,0,0,0,0,-1,916,596,-5.60744,3.40959
-301,428,0,0,0,0,0,0,0,0,0,-1,923,596,0,0
-294,428,0,0,0,0,0,0,0,0,0,-1,930,596,0,0
-287,428,0,0,0,0,0,0,0,0,0,-1,937,596,0,0
-280,428,0,0,0,0,0,0,0,0,0,-1,944,596,0,0
-273,428,0,0,0,0,0,0,0,0,0,-1,951,596,0,0
-266,428,0,0,0,0,0,0,0,0,0,-1,958,596,0,0
-259,428,0,0,0,0,0,0,0,0,0,-1,965,596,0,0
-252,428,0,0,0,0,0,0,0,0,0,-1,972,596,0,0
-245,428,0,0,0,0,0,0,0,0,0,-1,979,596,0,0
-238,428,0,0,0,0,0,0,0,0,0,-1,986,596,0,0
-231,428,0,0,0,0,0,0,0,0,0,-1,993,596,0,0
-224,428,0,0,0,0,0,0,0,0,0,-1,1000,596,0,0
-217,428,0,0,0,0,0,0,0,0,0,-1,1007,596,0,0
-210,428,0,0,0,0,0,0,0,0,0,-1,1014,596,0,0
-203,428,0,0,0,0,0,0,0,0,0,-1,1021,596,0,0
-196,428,0,0,0,0,0,0,0,0,0,-1,1028,596,0,0
-189,428,0,0,0,0,0,0,0,0,0,-1,1035,596,0,0
-182,428,0,0,0,0,0,0,0,0,0,-1,1042,596,0,0
-175,428,0,0,0,0,0,0,0,0,0,-1,1049,596,0,0
-168,428,0,0,0,0,0,0,0,0,0,-1,1056,596,0,0
-161,428,0,0,0,0,0,0,0,0,0,-1,1063,596,0,0
-154,428,0,0,0,0,0,0,0,0,0,-1,1070,596,0,0
-147,428,0,0,0,0,0,0,0,0,0,-1,1077,596,0,0
-140,428,0,0,0,0,0,0,0,0,0,-1,1084,596,0,0
-133,428,0,0,0,0,0,0,0,0,0,-1,1091,596,0,0
-126,428,0,0,0,0,0,0,0,0,0,-1,1098,596,0,0
-119,428,0,0,0,0,0,0,0,0,0,-1,1105,596,0,0
-112,428,0,0,0,0,0,0,0,0,0,-1,1112,596,0,0
-105,428,0,0,0,0,0,0,0,0,0,-1,1119,596,0,0
-98,428,0,0,0,0,0,0,0,0,0,-1,1126,596,0,0
-91,428,0,0,0,0,0,0,0,0,0,-1,1133,596,0,0
-84,428,0,0,0,0,0,0,0,0,0,-1,1140,596,0,0
-77,428,0,0,0,0,0,0,0,0,0,-1,1147,596,0,0
-70,428,0,0,0,0,0,0,0,0,0,-1,1154,596,0,0
-63,428,0,0,0,0,0,0,0,0,0,-1,1161,596,0,0
-56,428,0,0,0,0,0,0,0,0,0,-1,1168,596,0,0
-49,428,0,0,0,0,0,0,0,0,0,-1,1175,596,0,0
-42,428,0,0,0,0,0,0,0,0,0,-1,1182,596,0,0
-35,428,0,0,0,0,0,0,0,0,0,-1,1189,596,0,0
-28,428,0,0,0,0,0,0,0,0,0,-1,1196,596,0,0
-21,428,0,0,0,0,0,0,0,0,0,-1,1203,596,0,0
-14,428,0,0,0,0,0,0,0,0,0,-1,1210,596,0,0
-7,428,0,0,0,0,0,0,0,0,0,-1,1217,596,0,0
0,428,0,0,0,0,0,0,0,0,0,-1,1224,596,0,0
7,428,0,0,0,0,0,0,0,0,0,-1,1231,596,0,0
14,428,0,0,0,0,0,0,0,0,0,-1,1238,596,0,0
21,428,0,0,0,0,0,0,0,0,0,-1,1245,596,0,0
28,428,0,0,0,0,0,0,0,0,0,-1,1252,596,0,0
35,428,0,0,0,0,0,0,0,0,0,-1,1259,596,0,0
42,428,0,0,0,0,0,0,0,0,0,-1,1266,596,0,0
49,428,0,0,0,0,0,0,0,0,0,-1,1273,596,0,0
56,428,0,0,0,0,0,0,0,0,0,-1,1280,596,0,0
63,428,0,0,0,0,0,0,0,0,0,-1,1287,596,0,0
70,428,0,0,0,0,0,0,0,0,0,-1,1294,596,0,0
77,428,0,0,0,0,0,0,0,0,0,-1,1301,596,0,0
84,428,0,0,0,0,0,0,0,0,0,-1,1308,596,0,0
91,428,0,0,0,0,0,0,0,0,0,-1,1315,596,0,0
98,428,0,0,0,0,0,0,0,0,0,-1,1322,596,0,0
105,428,0,0,0,0,0,0,0,0,0,-1,1329,596,0,0
112,428,0,0,0,0,0,0,0,0,0,-1,1336,596,0,0
119,428,0,0,0,0,0,0,0,0,0,-1,1343,596,0,0
126,428,0,0,0,0,0,0,0,0,0,-1,1350,596,0,0
133,428,0,0,0,0,0,0,0,0,0,-1,1357,596,0,0
140,428,0,0,0,0,0,0,0,0,0,-1,1364,596,0,0
147,428,0,0,0,0,0,0,0,0,0,-1,1371,596,0,0
154,428,0,0,0,0,0,0,0,0,0,-1,1378,596,0,0
161,428,0,0,0,0,0,0,0,0,0,-1,1385,596,0,0
168,428,0,0,0,0,0,0,0,0,0,-1,1392,596,0,0
175,428,0,0,0,0,0,0,0,0,0,-1,1399,596,0,0
182,428,0,0,0,0,0,0,0,0,0,-1,1406,596,0,0
189,428,0,0,0,0,0,0,0,0,0,-1,1413,596,0,0
196,428,0,0,0,0,0,0,0,0,0,-1,1420,596,0,0
203,428,0,0,0,0,0,0,0,0,0,-1,1427,596,0,0
210,428,0,0,0,0,0,0,0,0,0,-1,1434,596,0,0
217,428,0,0,0,0,0,0,0,0,0,-1,1441,596,0,0
224,428,0,0,0,0,0,0,0,0,0,-1,1448,596,0,0
231,428,0,0,0,0,0,0,0,0,0,-1,1455,596,0,0
238,428,0,0,0,0,0,0,0,0,0,-1,1462,596,0,0
245,428,0,0,0,0,0,0,0,0,0,-1,1469,596,0,0
252,428,0,0,0,0,0,0,0,0,0,-1,1476,596,0,0
259,428,0,0,0,0,0,0,0,0,0,-1,1483,596,0,0
266,428,0,0,0,0,0,0,0,0,0,-1,1490,596,0,0
273,428,0,0,0,0,0,0,0,0,0,-1,1497,596,0,0
280,428,0,0,0,0,0,0,0,0,0,-1,1504,596,0,0
287,428,0,0,0,0,0,0,0,0,0,-1,1511,596,0,0
294,428,0,0,0,0,0,0,0,0,0,-1,1518,596,0,0
301,428,0,0,0,0,0,0,0,0,0,-1,1525,596,0,0
308,428,0,0,0,0,0,0,0,0,0,-1,1532,596,0,0
315,428,0,0,0,0,0,0,0,0,0,-1,1539,596,0,0
322,428,0,0,0,0,0,0,0,0,0,-1,1546,596,0,0
329,428,0,0,0,0,0,0,0,0,0,-1,1553,596,0,0
336,428,0,0,0,0,0,0,0,0,0,-1,1560,596,0,0
343,428,0,0,0,0,0,0,0,0,0,-1,1567,596,0,0
350,428,0,0,0,0,0,0,0,0,0,-1,1574,596,0,0
357,428,0,0,0,0,0,0,0,0,0,-1,1581,596,0,0
364,428,0,0,0,0,0,0,0,0,0,-1,1588,596,0,0
371,428,0,0,0,0,0,0,0,0,0,-1,1595,596,0,0
378,428,0,0,0,0,0,0,0,0,0,-1,1602,596,0,0
385,428,0,0,0,0,0,0,0,0,0,-1,1609,596,0,0
392,428,0,0,0,0,0,0,0,0,0,-1,1616,596,0,0
399,428,0,0,0,0,0,0,0,0,0,-1,1623,596,0,0
406,428,0,0,0,0,0,0,0,0,0,-1,1630,596,0,0
413,428,0,0,0,0,0,0,0,0,0,-1,1637,596,0,0
420,428,19.8469,1.3399,0,0,0,0,0,0,0,-1,1644,596,19.8469,-1.33992
427,428,20.7299,-0.225281,0,0,0,0,0,0,0,-1,1651,596,20.7299,0.225262
434,428,19.8915,-0.583069,0,0,0,0,0,0,0,-1,1658,596,19.8915,0.583075
441,428,8.17993,0.607483,0,0,0,0,0,0,0,-1,1665,596,8.17997,-0.607513
448,428,7.84338,-0.385986,0,0,0,0,0,0,0,-1,1672,596,7.84336,0.385978
455,428,6.64038,2.1123,0,0,0,0,0,0,0,-1,1679,596,6.64037,-2.11229
462,428,4.84106,4.12341,0,0,0,0,0,0,0,-1,1686,596,4.84107,-4.12339
469,428,7.83789,3.10083,0,0,0,0,0,0,0,-1,1693,596,7.83785,-3.10086
476,428,7.61255,1.73956,0,0,0,0,0,0,0,-1,1700,596,7.61252,-1.73958
483,428,7.22766,1.05121,0,0,0,0,0,0,0,-1,1707,596,7.2277,-1.05121
490,428,5.4071,-3.2793,0,0,0,0,0,0,0,-1,1714,596,5.40707,3.27929
497,428,7.84106,-3.65491,0,0,0,0,0,0,0,-1,1721,596,7.84107,3.65491
504,428,6.92139,-2.83356,0,0,0,0,0,0,0,-1,1728,596,6.92137,2.83353
511,428,7.88501,-3.78723,0,0,0,0,0,0,0,-1,1735,596,7.88502,3.78722
518,428,25.7589,-21.7115,0,0,0,0,0,0,0,-1,1742,596,25.7589,21.7116
525,428,25.6595,-20.8528,0.00469817,0.00229018,0.00304884,0.00677214,0.000216218,0.597346,0.00444444,0.038634,1749,596,25.6596,20.8528
532,428,25.6844,-19.9105,0.00397953,0.00176123,0.00247469,0.00558226,0.000158499,0.574721,0.00366981,0.0211341,1756,596,25.6844,19.9105
539,428,25.6987,-19.0709,0.00337526,0.00158766,0.00206494,0.00473155,0.000231382,0.58115,0.00308013,0.0219862,1763,596,25.6987,19.0709
546,428,25.65,-18.3154,0.00282151,0.00141383,0.00168828,0.00394679,0.000288555,0.587904,0.00254048,0.0164001,1770,596,25.6501,18.3154
553,428,25.5837,-17.5118,0.00226475,0.00143455,0.00138253,0.00329315,0.000406145,0.639556,0.00207335,0.0110946,1777,596,25.5837,17.5118
560,428,25.5449,-16.6712,0.00174972,0.00155704,0.0011822,0.00283949,0.000467259,0.744742,0.00175806,0.0118761,1784,596,25.545,16.6712
567,428,25.5145,-15.8437,0.00139841,0.00187339,0.0011851,0.00284456,0.000427246,0.884287,0.00177122,0.0112471,1791,596,25.5145,15.8437
574,428,25.4725,-15.0493,0.00118115,0.00232096,0.00131357,0.00318293,0.000319185,0.990074,0.00202396,0.0132683,1798,596,25.4725,15.0493
581,428,25.4111,-14.2156,0.0011244,0.00292336,0.0016474,0.00390084,0.000146914,1.03528,0.002553,0.0123458,1805,596,25.4111,14.2156
588,428,25.3673,-13.3512,0.00135853,0.00379502,0.00225893,0.00514327,1.02893e-05,1.0327,0.00342542,0.0186336,1812,596,25.3673,13.3512
595,428,25.2816,-12.4668,0.00181041,0.00482553,0.00303148,0.00670362,-6.7679e-05,1.01614,0.00449181,0.0309771,1819,596,25.2816,12.4668
602,428,25.3843,-11.5189,0,0,0,0,0,0,0,-1,1826,596,25.3843,11.5189
609,428,17.2073,-4.82446,0,0,0,0,0,0,0,-1,1833,596,17.2073,4.82447
616,428,15.7817,-3.09558,0,0,0,0,0,0,0,-1,1840,596,15.7817,3.09556
623,428,9.53577,1.12518,0,0,0,0,0,0,0,-1,1847,596,9.5358,-1.1252
630,428,7.07996,6.88562,0,0,0,0,0,0,0,-1,1854,596,7.0799,-6.88565
637,428,3.95435,1.90857,0,0,0,0,0,0,0,-1,1861,596,3.95439,-1.90858
644,428,5.75476,0.888977,0,0,0,0,0,0,0,-1,1868,596,5.75472,-0.888955
651,428,0,0,0,0,0,0,0,0,0,-1,1875,596,0,0
658,428,0,0,0,0,0,0,0,0,0,-1,1882,596,0,0
665,428,0,0,0,0,0,0,0,0,0,-1,1889,596,0,0
672,428,0,0,0,0,0,0,0,0,0,-1,1896,596,0,0
679,428,0,0,0,0,0,0,0,0,0,-1,1903,596,0,0
686,428,0,0,0,0,0,0,0,0,0,-1,1910,596,0,0
693,428,0,0,0,0,0,0,0,0,0,-1,1917,596,0,0
700,428,0,0,0,0,0,0,0,0,0,-1,1924,596,0,0
707,428,0,0,0,0,0,0,0,0,0,-1,1931,596,0,0
714,428,0,0,0,0,0,0,0,0,0,-1,1938,596,0,0
721,428,0,0,0,0,0,0,0,0,0,-1,1945,596,0,0
728,428,0,0,0,0,0,0,0,0,0,-1,1952,596,0,0
735,428,0,0,0,0,0,0,0,0,0,-1,1959,596,0,0
742,428,0,0,0,0,0,0,0,0,0,-1,1966,596,0,0
749,428,0,0,0,0,0,0,0,0,0,-1,1973,596,0,0
756,428,0,0,0,0,0,0,0,0,0,-1,1980,596,0,0
763,428,0,0,0,0,0,0,0,0,0,-1,1987,596,0,0
770,428,0,0,0,0,0,0,0,0,0,-1,1994,596,0,0
777,428,0,0,0,0,0,0,0,0,0,-1,2001,596,0,0
784,428,0,0,0,0,0,0,0,0,0,-1,2008,596,0,0
791,428,0,0,0,0,0,0,0,0,0,-1,2015,596,0,0
798,428,0,0,0,0,0,0,0,0,0,-1,2022,596,0,0
805,428,0,0,0,0,0,0,0,0,0,-1,2029,596,0,0
812,428,0,0,0,0,0,0,0,0,0,-1,2036,596,0,0
-700,421,0,0,0,0,0,0,0,0,0,-1,524,603,0,0
-693,421,0,0,0,0,0,0,0,0,0,-1,531,603,0,0
-686,421,0,0,0,0,0,0,0,0,0,-1,538,603,0,0
-679,421,0,0,0,0,0,0,0,0,0,-1,545,603,0,0
-672,421,0,0,0,0,0,0,0,0,0,-1,552,603,0,0
-665,421,0,0,0,0,0,0,0,0,0,-1,559,603,0,0
-658,421,0,0,0,0,0,0,0,0,0,-1,566,603,0,0
-651,421,0,0,0,0,0,0,0,0,0,-1,573,603,0,0
-644,421,0,0,0,0,0,0,0,0,0,-1,580,603,0,0
-637,421,0,0,0,0,0,0,0,0,0,-1,587,603,0,0
-630,421,0,0,0,0,0,0,0,0,0,-1,594,603,0,0
-623,421,0,0,0,0,0,0,0,0,0,-1,601,603,0,0
-616,421,0,0,0,0,0,0,0,0,0,-1,608,603,0,0
-609,421,0,0,0,0,0,0,0,0,0,-1,615,603,0,0
-602,421,0,0,0,0,0,0,0,0,0,-1,622,603,0,0
-595,421,0,0,0,0,0,0,0,0,0,-1,629,603,0,0
-588,421,0,0,0,0,0,0,0,0,0,-1,636,603,0,0
-581,421,0,0,0,0,0,0,0,0,0,-1,643,603,0,0
-574,421,0,0,0,0,0,0,0,0,0,-1,650,603,0,0
-567,421,0,0,0,0,0,0,0,0,0,-1,657,603,0,0
-560,421,0,0,0,0,0,0,0,0,0,-1,664,603,0,0
-553,421,0,0,0,0,0,0,0,0,0,-1,671,603,0,0
-546,421,0,0,0,0,0,0,0,0,0,-1,678,603,0,0
-539,421,0,0,0,0,0,0,0,0,0,-1,685,603,0,0
-532,421,-8.97382,6.95636,0,0,0,0,0,0,0,-1,692,603,-8.97384,-6.95634
-525,421,-2.11481,-8.04272,0,0,0,0,0,0,0,-1,699,603,-2.11483,8.0427
-518,421,-3.05908,-5.07233,0,0,0,0,0,0,0,-1,706,603,-3.0591,5.07235
-511,421,-4.63525,-4.08447,0,0,0,0,0,0,0,-1,713,603,-4.63524,4.08449
-504,421,-5.17029,-4.94458,0,0,0,0,0,0,0,-1,720,603,-5.17029,4.9446
-497,421,-6.63141,-2.32501,0,0,0,0,0,0,0,-1,727,603,-6.6314,2.32498
-490,421,-6.7616,-4.14783,0,0,0,0,0,0,0,-1,734,603,-6.76159,4.1478
-483,421,-12.1853,-12.0099,0,0,0,0,0,0,0,-1,741,603,-12.1853,12.01
-476,421,-12.3464,-12.7562,-0.0014488,0.00601333,-0.00281941,0.00695879,-0.00239426,-1.24724,0.00561025,0.0395066,748,603,-12.3465,12.7562
-469,421,-12.548,-13.4078,-0.00125151,0.00474061,-0.00235681,0.00555649,-0.00206739,-1.23753,0.00455271,0.0322522,755,603,-12.548,13.4079
-462,421,-12.5684,-14.306,-0.000889787,0.00360277,-0.00188979,0.00429198,-0.00157899,-1.22109,0.00350817,0.0217333,762,603,-12.5684,14.306
-455,421,-12.6042,-15.1345,-0.000509074,0.0025901,-0.00147469,0.00317965,-0.00109863,-1.19048,0.00256562,0.0215276,769,603,-12.6042,15.1345
-448,421,-12.675,-15.9255,-3.7534e-05,0.00187752,-0.00117665,0.00243702,-0.000597029,-1.12694,0.00185598,0.0216375,776,603,-12.675,15.9255
-441,421,-12.7197,-16.7762,0.000456599,0.0013951,-0.000960358,0.00199472,-0.00014302,-1.01265,0.00137996,0.0158595,783,603,-12.7197,16.7763
-434,421,-12.7633,-17.6406,0.000976829,0.00109282,-0.000845239,0.00188205,0.000187597,-0.819651,0.00119708,0.0109178,790,603,-12.7633,17.6406
-427,421,-12.7761,-18.4401,0.00156011,0.00103428,-0.000880621,0.00221622,0.000378162,-0.640333,0.00136895,0.0101717,797,603,-12.7761,18.4401
-420,421,-12.7951,-19.2037,0.00217309,0.00113708,-0.00102172,0.00280062,0.000509551,-0.550784,0.00172254,0.0114208,804,603,-12.7951,19.2037
-413,421,-12.8481,-19.9821,0.00280597,0.00152385,-0.00129209,0.00360729,0.000722531,-0.55512,0.00220386,0.0145489,811,603,-12.8482,19.9821
-406,421,-12.9194,-20.8102,0.0034543,0.00191171,-0.00164429,0.00449921,0.000866802,-0.566097,0.00275635,0.0215484,818,603,-12.9194,20.8102
-399,421,-12.8473,-21.7401,0.00415139,0.00240813,-0.00216951,0.00561782,0.000941704,-0.594386,0.00347412,0.0422444,825,603,-12.8473,21.7401
-392,421,-12.7463,-22.5616,0,0,0,0,0,0,0,-1,832,603,-12.7463,22.5616
-385,421,-11.5825,-18.8583,0,0,0,0,0,0,0,-1,839,603,-11.5825,18.8583
-378,421,-4.94733,-8.87909,0,0,0,0,0,0,0,-1,846,603,-4.94731,8.87906
-371,421,-5.65082,-7.01849,0,0,0,0,0,0,0,-1,853,603,-5.65082,7.0185
-364,421,-5.94189,-7.09875,0,0,0,0,0,0,0,-1,860,603,-5.94192,7.09878
-357,421,-7.62531,-8.26337,0,0,0,0,0,0,0,-1,867,603,-7.62532,8.26337
-350,421,-5.38019,-3.75024,0,0,0,0,0,0,0,-1,874,603,-5.38017,3.75026
-343,421,-6.22797,-2.57123,0,0,0,0,0,0,0,-1,881,603,-6.22798,2.57121
-336,421,-6.22882,-2.59369,0,0,0,0,0,0,0,-1,888,603,-6.22883,2.5937
-329,421,-4.50134,-1.49469,0,0,0,0,0,0,0,-1,895,603,-4.50137,1.49468
-322,421,-7.55817,1.13263,0,0,0,0,0,0,0,-1,902,603,-7.55818,-1.13263
-315,421,-4.16144,-1.96649,0,0,0,0,0,0,0,-1,909,603,-4.16146,1.9665
-308,421,0,0,0,0,0,0,0,0,0,-1,916,603,0,0
-301,421,0,0,0,0,0,0,0,0,0,-1,923,603,0,0
-294,421,0,0,0,0,0,0,0,0,0,-1,930,603,0,0
-287,421,0,0,0,0,0,0,0,0,0,-1,937,603,0,0
-280,421,0,0,0,0,0,0,0,0,0,-1,944,603,0,0
-273,421,0,0,0,0,0,0,0,0,0,-1,951,603,0,0
-266,421,0,0,0,0,0,0,0,0,0,-1,958,603,0,0
-259,421,0,0,0,0,0,0,0,0,0,-1,965,603,0,0
-252,421,0,0,0,0,0,0,0,0,0,-1,972,603,0,0
-245,421,0,0,0,0,0,0,0,0,0,-1,979,603,0,0
-238,421,0,0,0,0,0,0,0,0,0,-1,986,603,0,0
-231,421,0,0,0,0,0,0,0,0,0,-1,993,603,0,0
-224,421,0,0,0,0,0,0,0,0,0,-1,1000,603,0,0
-217,421,0,0,0,0,0,0,0,0,0,-1,1007,603,0,0
-210,421,0,0,0,0,0,0,0,0,0,-1,1014,603,0,0
-203,421,0,0,0,0,0,0,0,0,0,-1,1021,603,0,0
-196,421,0,0,0,0,0,0,0,0,0,-1,1028,603,0,0
-189,421,0,0,0,0,0,0,0,0,0,-1,1035,603,0,0
-182,421,0,0,0,0,0,0,0,0,0,-1,1042,603,0,0
-175,421,0,0,0,0,0,0,0,0,0,-1,1049,603,0,0
-168,421,0,0,0,0,0,0,0,0,0,-1,1056,603,0,0
-161,421,0,0,0,0,0,0,0,0,0,-1,1063,603,0,0
-154,421,0,0,0,0,0,0,0,0,0,-1,1070,603,0,0
-147,421,0,0,0,0,0,0,0,0,0,-1,1077,603,0,0
-140,421,0,0,0,0,0,0,0,0,0,-1,1084,603,0,0
-133,421,0,0,0,0,0,0,0,0,0,-1,1091,603,0,0
-126,421,0,0,0,0,0,0,0,0,0,-1,1098,603,0,0
-119,421,0,0,0,0,0,0,0,0,0,-1,1105,603,0,0
-112,421,0,0,0,0,0,0,0,0,0,-1,1112,603,0,0
-105,421,0,0,0,0,0,0,0,0,0,-1,1119,603,0,0
-98,421,0,0,0,0,0,0,0,0,0,-1,1126,603,0,0
-91,421,0,0,0,0,0,0,0,0,0,-1,1133,603,0,0
-84,421,0,0,0,0,0,0,0,0,0,-1,1140,603,0,0
-77,421,0,0,0,0,0,0,0,0,0,-1,1147,603,0,0
-70,421,0,0,0,0,0,0,0,0,0,-1,1154,603,0,0
-63,421,0,0,0,0,0,0,0,0,0,-1,1161,603,0,0
-56,421,0,0,0,0,0,0,0,0,0,-1,1168,603,0,0
-49,421,0,0,0,0,0,0,0,0,0,-1,1175,603,0,0
-42,421,0,0,0,0,0,0,0,0,0,-1,1182,603,0,0
-35,421,0,0,0,0,0,0,0,0,0,-1,1189,603,0,0
-28,421,0,0,0,0,0,0,0,0,0,-1,1196,603,0,0
-21,421,0,0,0,0,0,0,0,0,0,-1,1203,603,0,0
-14,421,0,0,0,0,0,0,0,0,0,-1,1210,603,0,0
-7,421,0,0,0,0,0,0,0,0,0,-1,1217,603,0,0
0,421,0,0,0,0,0,0,0,0,0,-1,1224,603,0,0
7,421,0,0,0,0,0,0,0,0,0,-1,1231,603,0,0
14,421,0,0,0,0,0,0,0,0,0,-1,1238,603,0,0
21,421,0,0,0,0,0,0,0,0,0,-1,1245,603,0,0
28,421,0,0,0,0,0,0,0,0,0,-1,1252,603,0,0
35,421,0,0,0,0,0,0,0,0,0,-1,1259,603,0,0
42,421,0,0,0,0,0,0,0,0,0,-1,1266,603,0,0
49,421,0,0,0,0,0,0,0,0,0,-1,1273,603,0,0
56,421,0,0,0,0,0,0,0,0,0,-1,1280,603,0,0
63,421,0,0,0,0,0,0,0,0,0,-1,1287,603,0,0
70,421,0,0,0,0,0,0,0,0,0,-1,1294,603,0,0
77,421,0,0,0,0,0,0,0,0,0,-1,1301,603,0,0
84,421,0,0,0,0,0,0,0,0,0,-1,1308,603,0,0
91,421,0,0,0,0,0,0,0,0,0,-1,1315,603,0,0
98,421,0,0,0,0,0,0,0,0,0,-1,1322,603,0,0
105,421,0,0,0,0,0,0,0,0,0,-1,1329,603,0,0
112,421,0,0,0,0,0,0,0,0,0,-1,1336,603,0,0
119,421,0,0,0,0,0,0,0,0,0,-1,1343,603,0,0
126,421,0,0,0,0,0,0,0,0,0,-1,1350,603,0,0
133,421,0,0,0,0,0,0,0,0,0,-1,1357,603,0,0
140,421,0,0,0,0,0,0,0,0,0,-1,1364,603,0,0
147,421,0,0,0,0,0,0,0,0,0,-1,1371,603,0,0
154,421,0,0,0,0,0,0,0,0,0,-1,1378,603,0,0
161,421,0,0,0,0,0,0,0,0,0,-1,1385,603,0,0
168,421,0,0,0,0,0,0,0,0,0,-1,1392,603,0,0
175,421,0,0,0,0,0,0,0,0,0,-1,1399,603,0,0
182,421,0,0,0,0,0,0,0,0,0,-1,1406,603,0,0
189,421,0,0,0,0,0,0,0,0,0,-1,1413,603,0,0
196,421,0,0,0,0,0,0,0,0,0,-1,1420,603,0,0
203,421,0,0,0,0,0,0,0,0,0,-1,1427,603,0,0
210,421,0,0,0,0,0,0,0,0,0,-1,1434,603,0,0
217,421,0,0,0,0,0,0,0,0,0,-1,1441,603,0,0
224,421,0,0,0,0,0,0,0,0,0,-1,1448,603,0,0
231,421,0,0,0,0,0,0,0,0,0,-1,1455,603,0,0
238,421,0,0,0,0,0,0,0,0,0,-1,1462,603,0,0
245,421,0,0,0,0,0,0,0,0,0,-1,1469,603,0,0
252,421,0,0,0,0,0,0,0,0,0,-1,1476,603,0,0
259,421,0,0,0,0,0,0,0,0,0,-1,1483,603,0,0
266,421,0,0,0,0,0,0,0,0,0,-1,1490,603,0,0
273,421,0,0,0,0,0,0,0,0,0,-1,1497,603,0,0
280,421,0,0,0,0,0,0,0,0,0,-1,1504,603,0,0
287,421,0,0,0,0,0,0,0,0,0,-1,1511,603,0,0
294,421,0,0,0,0,0,0,0,0,0,-1,1518,603,0,0
301,421,0,0,0,0,0,0,0,0,0,-1,1525,603,0,0
308,421,0,0,0,0,0,0,0,0,0,-1,1532,603,0,0
315,421,0,0,0,0,0,0,0,0,0,-1,1539,603,0,0
322,421,0,0,0,0,0,0,0,0,0,-1,1546,603,0,0
329,421,0,0,0,0,0,0,0,0,0,-1,1553,603,0,0
336,421,0,0,0,0,0,0,0,0,0,-1,1560,603,0,0
343,421,0,0,0,0,0,0,0,0,0,-1,1567,603,0,0
350,421,0,0,0,0,0,0,0,0,0,-1,1574,603,0,0
357,421,0,0,0,0,0,0,0,0,0,-1,1581,603,0,0
364,421,0,0,0,0,0,0,0,0,0,-1,1588,603,0,0
371,421,0,0,0,0,0,0,0,0,0,-1,1595,603,0,0
378,421,0,0,0,0,0,0,0,0,0,-1,1602,603,0,0
385,421,0,0,0,0,0,0,0,0,0,-1,1609,603,0,0
392,421,0,0,0,0,0,0,0,0,0,-1,1616,603,0,0
399,421,0,0,0,0,0,0,0,0,0,-1,1623,603,0,0
406,421,0,0,0,0,0,0,0,0,0,-1,1630,603,0,0
413,421,0,0,0,0,0,0,0,0,0,-1,1637,603,0,0
420,421,0,0,0,0,0,0,0,0,0,-1,1644,603,0,0
427,421,0,0,0,0,0,0,0,0,0,-1,1651,603,0,0
434,421,3.68176,-0.0327759,0,0,0,0,0,0,0,-1,1658,603,3.6818,0.0328037
441,421,8.06689,0.527832,0,0,0,0,0,0,0,-1,1665,603,8.06693,-0.527851
448,421,6.93921,0.802246,0,0,0,0,0,0,0,-1,1672,603,6.93923,-0.802251
455,421,7.29456,2.14825,0,0,0,0,0,0,0,-1,1679,603,7.29461,-2.14827
462,421,7.86902,3.53174,0,0,0,0,0,0,0,-1,1686,603,7.869,-3.53173
469,421,8.06604,2.81213,0,0,0,0,0,0,0,-1,1693,603,8.06606,-2.81212
476,421,8.26306,2.09253,0,0,0,0,0,0,0,-1,1700,603,8.26312,-2.09251
483,421,8.05322,0.798096,0,0,0,0,0,0,0,-1,1707,603,8.05323,-0.7981
490,421,7.51233,0.213074,0,0,0,0,0,0,0,-1,1714,603,7.51235,-0.213043
497,421,7.49634,-2.86688,0,0,0,0,0,0,0,-1,1721,603,7.4963,2.86688
504,421,6.90491,-2.18671,0,0,0,0,0,0,0,-1,1728,603,6.90491,2.18669
511,421,6.31348,-1.50653,0,0,0,0,0,0,0,-1,1735,603,6.31353,1.5065
518,421,6.27588,-2.49878,0,0,0,0,0,0,0,-1,1742,603,6.2759,2.4988
525,421,26.3486,-20.9189,0,0,0,0,0,0,0,-1,1749,603,26.3486,20.919
532,421,26.4175,-19.9377,0.00487257,0.00187752,0.0029336,0.00666876,8.13296e-05,0.549402,0.00441898,0.0440386,1756,603,26.4174,19.9377
539,421,26.5111,-19.0304,0.00412084,0.00167983,0.00235796,0.00555545,0.000245229,0.54658,0.00362466,0.0244555,1763,603,26.5111,19.0304
546,421,26.4651,-18.2717,0.00343338,0.00137901,0.00185502,0.00452662,0.000285772,0.532547,0.00292714,0.0137349,1770,603,26.4651,18.2717
553,421,26.4019,-17.4407,0.00277566,0.00130354,0.00145676,0.00367176,0.000407442,0.551471,0.00232396,0.0125128,1777,603,26.4019,17.4407
560,421,26.3492,-16.6033,0.00216384,0.00131778,0.00118512,0.00299917,0.000482451,0.613972,0.00185961,0.0145933,1784,603,26.3493,16.6033
567,421,26.3268,-15.809,0.00172182,0.00151377,0.00112731,0.0027499,0.000485696,0.739388,0.00169473,0.0171611,1791,603,26.3268,15.809
574,421,26.2997,-14.9921,0.00146345,0.00185238,0.00122972,0.00290292,0.000412911,0.863819,0.00181338,0.0210381,1798,603,26.2997,14.992
581,421,26.2401,-14.1367,0.00136605,0.00232183,0.00152447,0.00344156,0.000246322,0.937287,0.00221683,0.0230533,1805,603,26.2402,14.1367
588,421,26.1956,-13.3505,0.00152224,0.0030763,0.0020829,0.00452238,7.61549e-05,0.963929,0.00298986,0.0152779,1812,603,26.1955,13.3505
595,421,26.2042,-12.5161,0.00193272,0.00400871,0.00284732,0.00600134,-5.99052e-05,0.960187,0.00402101,0.0217273,1819,603,26.2043,12.516
602,421,26.1945,-11.62,0,0,0,0,0,0,0,-1,1826,603,26.1945,11.62
609,421,22.8762,-8.37524,0,0,0,0,0,0,0,-1,1833,603,22.8762,8.37525
616,421,17.7633,-4.72491,0,0,0,0,0,0,0,-1,1840,603,17.7633,4.7249
623,421,6.19885,0.376648,0,0,0,0,0,0,0,-1,1847,603,6.19881,-0.376624
630,421,6.54993,0.778748,0,0,0,0,0,0,0,-1,1854,603,6.54991,-0.778744
637,421,3.74512,1.65405,0,0,0,0,0,0,0,-1,1861,603,3.74517,-1.65407
644,421,3.58081,0.354675,0,0,0,0,0,0,0,-1,1868,603,3.58082,-0.354704
651,421,3.28687,3.66351,0,0,0,0,0,0,0,-1,1875,603,3.28688,-3.66353
658,421,0,0,0,0,0,0,0,0,0,-1,1882,603,0,0
665,421,0,0,0,0,0,0,0,0,0,-1,1889,603,0,0
672,421,0,0,0,0,0,0,0,0,0,-1,1896,603,0,0
679,421,0,0,0,0,0,0,0,0,0,-1,1903,603,0,0
686,421,0,0,0,0,0,0,0,0,0,-1,1910,603,0,0
693,421,0,0,0,0,0,0,0,0,0,-1,1917,603,0,0
700,421,0,0,0,0,0,0,0,0,0,-1,1924,603,0,0
707,421,0,0,0,0,0,0,0,0,0,-1,1931,603,0,0
714,421,0,0,0,0,0,0,0,0,0,-1,1938,603,0,0
721,421,0,0,0,0,0,0,0,0,0,-1,1945,603,0,0
728,421,0,0,0,0,0,0,0,0,0,-1,1952,603,0,0
735,421,0,0,0,0,0,0,0,0,0,-1,1959,603,0,0
742,421,0,0,0,0,0,0,0,0,0,-1,1966,603,0,0
749,421,0,0,0,0,0,0,0,0,0,-1,1973,603,0,0
756,421,0,0,0,0,0,0,0,0,0,-1,1980,603,0,0
763,421,0,0,0,0,0,0,0,0,0,-1,1987,603,0,0
770,421,0,0,0,0,0,0,0,0,0,-1,1994,603,0,0
777,421,0,0,0,0,0,0,0,0,0,-1,2001,603,0,0
784,421,0,0,0,0,0,0,0,0,0,-1,2008,603,0,0
791,421,0,0,0,0,0,0,0,0,0,-1,2015,603,0,0
798,421,0,0,0,0,0,0,0,0,0,-1,2022,603,0,0
805,421,0,0,0,0,0,0,0,0,0,-1,2029,603,0,0
812,421,0,0,0,0,0,0,0,0,0,-1,2036,603,0,0
-700,414,0,0,0,0,0,0,0,0,0,-1,524,610,0,0
-693,414,0,0,0,0,0,0,0,0,0,-1,531,610,0,0
-686,414,0,0,0,0,0,0,0,0,0,-1,538,610,0,0
-679,414,0,0,0,0,0,0,0,0,0,-1,545,610,0,0
-672,414,0,0,0,0,0,0,0,0,0,-1,552,610,0,0
-665,414,0,0,0,0,0,0,0,0,0,-1,559,610,0,0
-658,414,0,0,0,0,0,0,0,0,0,-1,566,610,0,0
-651,414,0,0,0,0,0,0,0,0,0,-1,573,610,0,0
-644,414,0,0,0,0,0,0,0,0,0,-1,580,610,0,0
-637,414,0,0,0,0,0,0,0,0,0,-1,587,610,0,0
-630,414,0,0,0,0,0,0,0,0,0,-1,594,610,0,0
-623,414,0,0,0,0,0,0,0,0,0,-1,601,610,0,0
-616,414,0,0,0,0,0,0,0,0,0,-1,608,610,0,0
-609,414,0,0,0,0,0,0,0,0,0,-1,615,610,0,0
-602,414,0,0,0,0,0,0,0,0,0,-1,622,610,0,0
-595,414,0,0,0,0,0,0,0,0,0,-1,629,610,0,0
-588,414,0,0,0,0,0,0,0,0,0,-1,636,610,0,0
-581,414,0,0,0,0,0,0,0,0,0,-1,643,610,0,0
-574,414,0,0,0,0,0,0,0,0,0,-1,650,610,0,0
-567,414,0,0,0,0,0,0,0,0,0,-1,657,610,0,0
-560,414,0,0,0,0,0,0,0,0,0,-1,664,610,0,0
-553,414,0,0,0,0,0,0,0,0,0,-1,671,610,0,0
-546,414,0,0,0,0,0,0,0,0,0,-1,678,610,0,0
-539,414,-7.50146,5.65619,0,0,0,0,0,0,0,-1,685,610,-7.50149,-5.65617
-532,414,-8.15204,4.01605,0,0,0,0,0,0,0,-1,692,610,-8.15206,-4.01606
-525,414,-3.47137,-3.27924,0,0,0,0,0,0,0,-1,699,610,-3.47136,3.27922
-518,414,-4.12909,-4.36908,0,0,0,0,0,0,0,-1,706,610,-4.12909,4.36909
-511,414,-3.92542,-4.97021,0,0,0,0,0,0,0,-1,713,610,-3.92542,4.97023
-504,414,-9.35394,-5.49896,0,0,0,0,0,0,0,-1,720,610,-9.35394,5.49898
-497,414,-9.67627,-6.54761,0,0,0,0,0,0,0,-1,727,610,-9.6763,6.5476
-490,414,-10.9006,-8.3277,0,0,0,0,0,0,0,-1,734,610,-10.9006,8.3277
-483,414,-13.1476,-11.8715,0,0,0,0,0,0,0,-1,741,610,-13.1476,11.8715
-476,414,-13.3063,-12.6688,-0.000905,0.00457947,-0.00216343,0.00533012,-0.00165565,-1.23682,0.00421512,0.0234596,748,610,-13.3063,12.6688
-469,414,-13.3883,-13.4478,-0.000803618,0.0035155,-0.00178368,0.00415687,-0.00144499,-1.22561,0.00335819,0.0142992,755,610,-13.3883,13.4478
-462,414,-13.4081,-14.2808,-0.000528964,0.0025605,-0.00141631,0.00311151,-0.00107997,-1.19977,0.00251292,0.0225368,762,610,-13.4082,14.2808
-455,414,-13.4672,-15.1074,-0.000184779,0.00177107,-0.00112208,0.00228157,-0.000695278,-1.14383,0.00179818,0.0255056,769,610,-13.4672,15.1074
-448,414,-13.4932,-15.8948,0.000292724,0.00122997,-0.000935755,0.00180789,-0.000285193,-1.01754,0.00131071,0.0255827,776,610,-13.4931,15.8948
-441,414,-13.5121,-16.744,0.000806468,0.00089085,-0.000812055,0.00166181,3.55092e-05,-0.811353,0.00109623,0.018029,783,610,-13.5121,16.744
-434,414,-13.5917,-17.5728,0.00138471,0.000741893,-0.000794944,0.00192076,0.000205841,-0.593287,0.00121771,0.0100894,790,610,-13.5918,17.5728
-427,414,-13.6044,-18.3677,0.00204962,0.000865114,-0.000943014,0.00257094,0.000343798,-0.505006,0.00161163,0.0107904,797,610,-13.6044,18.3677
-420,414,-13.6233,-19.1551,0.00273386,0.00116798,-0.00117459,0.00336254,0.000539304,-0.491432,0.0020853,0.0104742,804,610,-13.6233,19.1551
-413,414,-13.6899,-19.975,0.00355064,0.00200857,-0.00170085,0.00464706,0.00091215,-0.572591,0.00284319,0.0110566,811,610,-13.6899,19.975
-406,414,-13.6991,-20.9146,0.00439979,0.0027662,-0.0023038,0.00602731,0.00113868,-0.615041,0.00369756,0.0352435,818,610,-13.6991,20.9146
-399,414,-13.584,-21.8184,0,0,0,0,0,0,0,-1,825,610,-13.584,21.8184
-392,414,-9.43781,-14.5624,0,0,0,0,0,0,0,-1,832,610,-9.43779,14.5624
-385,414,-8.14691,-13.0653,0,0,0,0,0,0,0,-1,839,610,-8.14692,13.0653
-378,414,-8.04907,-11.3331,0,0,0,0,0,0,0,-1,846,610,-8.04905,11.3331
-371,414,-5.20886,-8.05151,0,0,0,0,0,0,0,-1,853,610,-5.20887,8.05153
-364,414,-6.76282,-6.58759,0,0,0,0,0,0,0,-1,860,610,-6.7628,6.58756
-357,414,-9.08685,-8.86188,0,0,0,0,0,0,0,-1,867,610,-9.08688,8.86187
-350,414,-6.4502,-2.41821,0,0,0,0,0,0,0,-1,874,610,-6.45021,2.41822
-343,414,-6.80249,-2.32117,0,0,0,0,0,0,0,-1,881,610,-6.80252,2.32116
-336,414,-7.11017,-2.52026,0,0,0,0,0,0,0,-1,888,610,-7.11016,2.52026
-329,414,-7.59747,-2.70313,0,0,0,0,0,0,0,-1,895,610,-7.59747,2.70315
-322,414,-4.42236,-1.29163,0,0,0,0,0,0,0,-1,902,610,-4.42238,1.2916
-315,414,0,0,0,0,0,0,0,0,0,-1,909,610,0,0
-308,414,0,0,0,0,0,0,0,0,0,-1,916,610,0,0
-301,414,0,0,0,0,0,0,0,0,0,-1,923,610,0,0
-294,414,0,0,0,0,0,0,0,0,0,-1,930,610,0,0
-287,414,0,0,0,0,0,0,0,0,0,-1,937,610,0,0
-280,414,0,0,0,0,0,0,0,0,0,-1,944,610,0,0
-273,414,0,0,0,0,0,0,0,0,0,-1,951,610,0,0
-266,414,0,0,0,0,0,0,0,0,0,-1,958,610,0,0
-259,414,0,0,0,0,0,0,0,0,0,-1,965,610,0,0
-252,414,0,0,0,0,0,0,0,0,0,-1,972,610,0,0
-245,414,0,0,0,0,0,0,0,0,0,-1,979,610,0,0
-238,414,0,0,0,0,0,0,0,0,0,-1,986,610,0,0
-231,414,0,0,0,0,0,0,0,0,0,-1,993,610,0,0
-224,414,0,0,0,0,0,0,0,0,0,-1,1000,610,0,0
-217,414,0,0,0,0,0,0,0,0,0,-1,1007,610,0,0
-210,414,0,0,0,0,0,0,0,0,0,-1,1014,610,0,0
-203,414,0,0,0,0,0,0,0,0,0,-1,1021,610,0,0
-196,414,0,0,0,0,0,0,0,0,0,-1,1028,610,0,0
-189,414,0,0,0,0,0,0,0,0,0,-1,1035,610,0,0
-182,414,0,0,0,0,0,0,0,0,0,-1,1042,610,0,0
-175,414,0,0,0,0,0,0,0,0,0,-1,1049,610,0,0
-168,414,0,0,0,0,0,0,0,0,0,-1,1056,610,0,0
-161,414,0,0,0,0,0,0,0,0,0,-1,1063,610,0,0
-154,414,0,0,0,0,0,0,0,0,0,-1,1070,610,0,0
-147,414,0,0,0,0,0,0,0,0,0,-1,1077,610,0,0
-140,414,0,0,0,0,0,0,0,0,0,-1,1084,610,0,0
-133,414,0,0,0,0,0,0,0,0,0,-1,1091,610,0,0
-126,414,0,0,0,0,0,0,0,0,0,-1,1098,610,0,0
-119,414,0,0,0,0,0,0,0,0,0,-1,1105,610,0,0
-112,414,0,0,0,0,0,0,0,0,0,-1,1112,610,0,0
-105,414,0,0,0,0,0,0,0,0,0,-1,1119,610,0,0
-98,414,0,0,0,0,0,0,0,0,0,-1,1126,610,0,0
-91,414,0,0,0,0,0,0,0,0,0,-1,1133,610,0,0
-84,414,0,0,0,0,0,0,0,0,0,-1,1140,610,0,0
-77,414,0,0,0,0,0,0,0,0,0,-1,1147,610,0,0
-70,414,0,0,0,0,0,0,0,0,0,-1,1154,610,0,0
-63,414,0,0,0,0,0,0,0,0,0,-1,1161,610,0,0
-56,414,0,0,0,0,0,0,0,0,0,-1,1168,610,0,0
-49,414,0,0,0,0,0,0,0,0,0,-1,1175,610,0,0
-42,414,0,0,0,0,0,0,0,0,0,-1,1182,610,0,0
-35,414,0,0,0,0,0,0,0,0,0,-1,1189,610,0,0
-28,414,0,0,0,0,0,0,0,0,0,-1,1196,610,0,0
-21,414,0,0,0,0,0,0,0,0,0,-1,1203,610,0,0
-14,414,0,0,0,0,0,0,0,0,0,-1,1210,610,0,0
-7,414,0,0,0,0,0,0,0,0,0,-1,1217,610,0,0
0,414,0,0,0,0,0,0,0,0,0,-1,1224,610,0,0
7,414,0,0,0,0,0,0,0,0,0,-1,1231,610,0,0
14,414,0,0,0,0,0,0,0,0,0,-1,1238,610,0,0
21,414,0,0,0,0,0,0,0,0,0,-1,1245,610,0,0
28,414,0,0,0,0,0,0,0,0,0,-1,1252,610,0,0
35,414,0,0,0,0,0,0,0,0,0,-1,1259,610,0,0
42,414,0,0,0,0,0,0,0,0,0,-1,1266,610,0,0
49,414,0,0,0,0,0,0,0,0,0,-1,1273,610,0,0
56,414,0,0,0,0,0,0,0,0,0,-1,1280,610,0,0
63,414,0,0,0,0,0,0,0,0,0,-1,1287,610,0,0
70,414,0,0,0,0,0,0,0,0,0,-1,1294,610,0,0
77,414,0,0,0,0,0,0,0,0,0,-1,1301,610,0,0
84,414,0,0,0,0,0,0,0,0,0,-1,1308,610,0,0
91,414,0,0,0,0,0,0,0,0,0,-1,1315,610,0,0
98,414,0,0,0,0,0,0,0,0,0,-1,1322,610,0,0
105,414,0,0,0,0,0,0,0,0,0,-1,1329,610,0,0
112,414,0,0,0,0,0,0,0,0,0,-1,1336,610,0,0
119,414,0,0,0,0,0,0,0,0,0,-1,1343,610,0,0
126,414,0,0,0,0,0,0,0,0,0,-1,1350,610,0,0
133,414,0,0,0,0,0,0,0,0,0,-1,1357,610,0,0
140,414,0,0,0,0,0,0,0,0,0,-1,1364,610,0,0
147,414,0,0,0,0,0,0,0,0,0,-1,1371,610,0,0
154,414,0,0,0,0,0,0,0,0,0,-1,1378,610,0,0
161,414,0,0,0,0,0,0,0,0,0,-1,1385,610,0,0
168,414,0,0,0,0,0,0,0,0,0,-1,1392,610,0,0
175,414,0,0,0,0,0,0,0,0,0,-1,1399,610,0,0
182,414,0,0,0,0,0,0,0,0,0,-1,1406,610,0,0
189,414,0,0,0,0,0,0,0,0,0,-1,1413,610,0,0
196,414,0,0,0,0,0,0,0,0,0,-1,1420,610,0,0
203,414,0,0,0,0,0,0,0,0,0,-1,1427,610,0,0
210,414,0,0,0,0,0,0,0,0,0,-1,1434,610,0,0
217,414,0,0,0,0,0,0,0,0,0,-1,1441,610,0,0
224,414,0,0,0,0,0,0,0,0,0,-1,1448,610,0,0
231,414,0,0,0,0,0,0,0,0,0,-1,1455,610,0,0
238,414,0,0,0,0,0,0,0,0,0,-1,1462,610,0,0
245,414,0,0,0,0,0,0,0,0,0,-1,1469,610,0,0
252,414,0,0,0,0,0,0,0,0,0,-1,1476,610,0,0
259,414,0,0,0,0,0,0,0,0,0,-1,1483,610,0,0
266,414,0,0,0,0,0,0,0,0,0,-1,1490,610,0,0
273,414,0,0,0,0,0,0,0,0,0,-1,1497,610,0,0
280,414,0,0,0,0,0,0,0,0,0,-1,1504,610,0,0
287,414,0,0,0,0,0,0,0,0,0,-1,1511,610,0,0
294,414,0,0,0,0,0,0,0,0,0,-1,1518,610,0,0
301,414,0,0,0,0,0,0,0,0,0,-1,1525,610,0,0
308,414,0,0,0,0,0,0,0,0,0,-1,1532,610,0,0
315,414,0,0,0,0,0,0,0,0,0,-1,1539,610,0,0
322,414,0,0,0,0,0,0,0,0,0,-1,1546,610,0,0
329,414,0,0,0,0,0,0,0,0,0,-1,1553,610,0,0
336,414,0,0,0,0,0,0,0,0,0,-1,1560,610,0,0
343,414,0,0,0,0,0,0,0,0,0,-1,1567,610,0,0
350,414,0,0,0,0,0,0,0,0,0,-1,1574,610,0,0
357,414,0,0,0,0,0,0,0,0,0,-1,1581,610,0,0
364,414,0,0,0,0,0,0,0,0,0,-1,1588,610,0,0
371,414,0,0,0,0,0,0,0,0,0,-1,1595,610,0,0
378,414,0,0,0,0,0,0,0,0,0,-1,1602,610,0,0
385,414,0,0,0,0,0,0,0,0,0,-1,1609,610,0,0
392,414,0,0,0,0,0,0,0,0,0,-1,1616,610,0,0
399,414,0,0,0,0,0,0,0,0,0,-1,1623,610,0,0
406,414,0,0,0,0,0,0,0,0,0,-1,1630,610,0,0
413,414,0,0,0,0,0,0,0,0,0,-1,1637,610,0,0
420,414,0,0,0,0,0,0,0,0,0,-1,1644,610,0,0
427,414,0,0,0,0,0,0,0,0,0,-1,1651,610,0,0
434,414,0,0,0,0,0,0,0,0,0,-1,1658,610,0,0
441,414,7.84375,0.584412,0,0,0,0,0,0,0,-1,1665,610,7.84379,-0.584394
448,414,7.40808,1.25446,0,0,0,0,0,0,0,-1,1672,610,7.40807,-1.25446
455,414,6.3512,1.73846,0,0,0,0,0,0,0,-1,1679,610,6.3512,-1.73847
462,414,8.18103,3.22113,0,0,0,0,0,0,0,-1,1686,610,8.18108,-3.22112
469,414,8.38513,2.49579,0,0,0,0,0,0,0,-1,1693,610,8.38516,-2.49576
476,414,8.64099,1.71161,0,0,0,0,0,0,0,-1,1700,610,8.64097,-1.71164
483,414,8.62744,0.687622,0,0,0,0,0,0,0,-1,1707,610,8.62749,-0.687615
490,414,8.38831,-0.0302734,0,0,0,0,0,0,0,-1,1714,610,8.38835,0.0302913
497,414,4.71094,-0.110046,0,0,0,0,0,0,0,-1,1721,610,4.71089,0.110024
504,414,7.19568,-1.43835,0,0,0,0,0,0,0,-1,1728,610,7.19563,1.43836
511,414,5.94153,-1.28772,0,0,0,0,0,0,0,-1,1735,610,5.94151,1.28769
518,414,4.53381,-0.0996704,0,0,0,0,0,0,0,-1,1742,610,4.53378,0.0996819
525,414,6.18811,-1.64056,0,0,0,0,0,0,0,-1,1749,610,6.18814,1.64055
532,414,27.2122,-20.1408,0,0,0,0,0,0,0,-1,1756,610,27.2122,20.1408
539,414,27.3182,-19.055,0,0,0,0,0,0,0,-1,1763,610,27.3183,19.055
546,414,27.2634,-18.2372,0.00418885,0.0014929,0.00216056,0.00538746,0.000294298,0.506494,0.00349767,0.0181613,1770,610,27.2634,18.2372
553,414,27.2421,-17.3818,0.0033377,0.00130012,0.00165741,0.0042644,0.000373413,0.509824,0.002727,0.0145495,1777,610,27.2421,17.3818
560,414,27.2115,-16.5654,0.00256759,0.00118465,0.00129658,0.00334556,0.000406674,0.540432,0.00210793,0.0161135,1784,610,27.2115,16.5654
567,414,27.1665,-15.7418,0.00198429,0.00123425,0.00113995,0.00280932,0.000409217,0.626484,0.00175248,0.0253671,1791,610,27.1665,15.7418
574,414,27.1234,-14.9309,0.00164428,0.00145772,0.0011741,0.00272881,0.0003732,0.745758,0.00170845,0.0244141,1798,610,27.1234,14.9309
581,414,27.0709,-14.1135,0.00147474,0.0018113,0.00138387,0.00303709,0.000248955,0.8459,0.00194705,0.0220911,1805,610,27.0709,14.1135
588,414,27.032,-13.3245,0.00153551,0.00245784,0.00182987,0.00388376,0.000109587,0.908839,0.00255343,0.0199002,1812,610,27.032,13.3245
595,414,26.9713,-12.4248,0.00189055,0.00329938,0.00249557,0.00518804,1.88383e-06,0.922952,0.00345807,0.0203855,1819,610,26.9713,12.4248
602,414,26.9248,-11.5695,0.00251786,0.00445822,0.00341333,0.00703657,-6.04938e-05,0.923863,0.00471134,0.0277666,1826,610,26.9248,11.5695
609,414,26.8927,-10.6816,0,0,0,0,0,0,0,-1,1833,610,26.8927,10.6816
616,414,27.1721,-9.58276,0,0,0,0,0,0,0,-1,1840,610,27.1721,9.58274
623,414,9.6969,0.0378418,0,0,0,0,0,0,0,-1,1847,610,9.69685,-0.0378644
630,414,5.47144,0.499329,0,0,0,0,0,0,0,-1,1854,610,5.47142,-0.499303
637,414,8.36707,4.16278,0,0,0,0,0,0,0,-1,1861,610,8.36709,-4.16278
644,414,5.87073,1.51422,0,0,0,0,0,0,0,-1,1868,610,5.87076,-1.51424
651,414,3.6377,0.820557,0,0,0,0,0,0,0,-1,1875,610,3.6377,-0.820543
658,414,2.29761,3.87323,0,0,0,0,0,0,0,-1,1882,610,2.29758,-3.87325
665,414,0,0,0,0,0,0,0,0,0,-1,1889,610,0,0
672,414,0,0,0,0,0,0,0,0,0,-1,1896,610,0,0
679,414,0,0,0,0,0,0,0,0,0,-1,1903,610,0,0
686,414,0,0,0,0,0,0,0,0,0,-1,1910,610,0,0
693,414,0,0,0,0,0,0,0,0,0,-1,1917,610,0,0
700,414,0,0,0,0,0,0,0,0,0,-1,1924,610,0,0
707,414,0,0,0,0,0,0,0,0,0,-1,1931,610,0,0
714,414,0,0,0,0,0,0,0,0,0,-1,1938,610,0,0
721,414,0,0,0,0,0,0,0,0,0,-1,1945,610,0,0
728,414,0,0,0,0,0,0,0,0,0,-1,1952,610,0,0
735,414,0,0,0,0,0,0,0,0,0,-1,1959,610,0,0
742,414,0,0,0,0,0,0,0,0,0,-1,1966,610,0,0
749,414,0,0,0,0,0,0,0,0,0,-1,1973,610,0,0
756,414,0,0,0,0,0,0,0,0,0,-1,1980,610,0,0
763,414,0,0,0,0,0,0,0,0,0,-1,1987,610,0,0
770,414,0,0,0,0,0,0,0,0,0,-1,1994,610,0,0
777,414,0,0,0,0,0,0,0,0,0,-1,2001,610,0,0
784,414,0,0,0,0,0,0,0,0,0,-1,2008,610,0,0
791,414,0,0,0,0,0,0,0,0,0,-1,2015,610,0,0
798,414,0,0,0,0,0,0,0,0,0,-1,2022,610,0,0
805,414,0,0,0,0,0,0,0,0,0,-1,2029,610,0,0
812,414,0,0,0,0,0,0,0,0,0,-1,2036,610,0,0
-700,407,0,0,0,0,0,0,0,0,0,-1,524,617,0,0
-693,407,0,0,0,0,0,0,0,0,0,-1,531,617,0,0
-686,407,0,0,0,0,0,0,0,0,0,-1,538,617,0,0
-679,407,0,0,0,0,0,0,0,0,0,-1,545,617,0,0
-672,407,0,0,0,0,0,0,0,0,0,-1,552,617,0,0
-665,407,0,0,0,0,0,0,0,0,0,-1,559,617,0,0
-658,407,0,0,0,0,0,0,0,0,0,-1,566,617,0,0
-651,407,0,0,0,0,0,0,0,0,0,-1,573,617,0,0
-644,407,0,0,0,0,0,0,0,0,0,-1,580,617,0,0
-637,407,0,0,0,0,0,0,0,0,0,-1,587,617,0,0
-630,407,0,0,0,0,0,0,0,0,0,-1,594,617,0,0
-623,407,0,0,0,0,0,0,0,0,0,-1,601,617,0,0
-616,407,0,0,0,0,0,0,0,0,0,-1,608,617,0,0
-609,407,0,0,0,0,0,0,0,0,0,-1,615,617,0,0
-602,407,0,0,0,0,0,0,0,0,0,-1,622,617,0,0
-595,407,0,0,0,0,0,0,0,0,0,-1,629,617,0,0
-588,407,0,0,0,0,0,0,0,0,0,-1,636,617,0,0
-581,407,0,0,0,0,0,0,0,0,0,-1,643,617,0,0
-574,407,0,0,0,0,0,0,0,0,0,-1,650,617,0,0
-567,407,0,0,0,0,0,0,0,0,0,-1,657,617,0,0
-560,407,0,0,0,0,0,0,0,0,0,-1,664,617,0,0
-553,407,0,0,0,0,0,0,0,0,0,-1,671,617,0,0
-546,407,-8.54517,-0.658142,0,0,0,0,0,0,0,-1,678,617,-8.54515,0.658112
-539,407,-6.09442,-1.01154,0,0,0,0,0,0,0,-1,685,617,-6.09441,1.01155
-532,407,-7.75665,1.62152,0,0,0,0,0,0,0,-1,692,617,-7.75667,-1.62154
-525,407,-3.78247,-2.67639,0,0,0,0,0,0,0,-1,699,617,-3.78246,2.67638
-518,407,-5.013,-5.87323,0,0,0,0,0,0,0,-1,706,617,-5.013,5.87324
-511,407,-9.42743,-4.94189,0,0,0,0,0,0,0,-1,713,617,-9.42745,4.94191
-504,407,-10.8291,-8.05927,0,0,0,0,0,0,0,-1,720,617,-10.8291,8.05927
-497,407,-9.84467,-6.81641,0,0,0,0,0,0,0,-1,727,617,-9.84468,6.8164
-490,407,-14.3223,-10.9575,0,0,0,0,0,0,0,-1,734,617,-14.3223,10.9574
-483,407,-14.0411,-11.7125,0,0,0,0,0,0,0,-1,741,617,-14.0411,11.7125
-476,407,-14.0964,-12.5585,-0.00038722,0.00332874,-0.00166283,0.00396417,-0.00102265,-1.20578,0.00304152,0.0157788,748,617,-14.0964,12.5585
-469,407,-14.1547,-13.3806,-0.000352944,0.00247908,-0.00134579,0.00301658,-0.000890449,-1.19081,0.00236444,0.0128787,755,617,-14.1546,13.3806
-462,407,-14.222,-14.2318,-0.000147359,0.00170431,-0.00105629,0.00218308,-0.000626128,-1.14524,0.0017029,0.019406,762,617,-14.222,14.2318
-455,407,-14.2786,-15.0768,0.00016895,0.00111985,-0.000859577,0.00162671,-0.000337906,-1.03802,0.0012129,0.021023,769,617,-14.2785,15.0768
-448,407,-14.2813,-15.8795,0.00065018,0.000741173,-0.000768068,0.00146509,-7.3738e-05,-0.814981,0.00100221,0.0191337,776,617,-14.2812,15.8795
-441,407,-14.3315,-16.6754,0.0011856,0.000535851,-0.000731763,0.00166137,6.0089e-05,-0.576487,0.0010881,0.0148906,783,617,-14.3315,16.6753
-434,407,-14.4085,-17.4782,0.00182706,0.000529613,-0.000814523,0.00221963,0.000137044,-0.449113,0.00143625,0.0110738,790,617,-14.4085,17.4782
-427,407,-14.4279,-18.2914,0.00257128,0.000802608,-0.00106982,0.00307495,0.000298937,-0.440016,0.00195794,0.0120948,797,617,-14.4279,18.2915
-420,407,-14.434,-19.0919,0.00331428,0.00125871,-0.00137764,0.00400528,0.000567698,-0.464916,0.00250251,0.0117697,804,617,-14.434,19.0919
-413,407,-14.4689,-19.9001,0.00432485,0.00253274,-0.00217049,0.00577698,0.00108061,-0.589637,0.00354642,0.0169441,811,617,-14.4689,19.9001
-406,407,-14.3705,-20.7952,0,0,0,0,0,0,0,-1,818,617,-14.3705,20.7952
-399,407,-14.4215,-20.0852,0,0,0,0,0,0,0,-1,825,617,-14.4215,20.0852
-392,407,-8.33612,-12.195,0,0,0,0,0,0,0,-1,832,617,-8.33611,12.195
-385,407,-7.65765,-10.7744,0,0,0,0,0,0,0,-1,839,617,-7.65767,10.7744
-378,407,-6.08655,-7.42291,0,0,0,0,0,0,0,-1,846,617,-6.08652,7.42292
-371,407,-7.4007,-5.79449,0,0,0,0,0,0,0,-1,853,617,-7.40072,5.79447
-364,407,-10.0638,-6.6228,0,0,0,0,0,0,0,-1,860,617,-10.0639,6.62279
-357,407,-6.64447,-1.83337,0,0,0,0,0,0,0,-1,867,617,-6.64446,1.8334
-350,407,-7.03351,-1.77551,0,0,0,0,0,0,0,-1,874,617,-7.03349,1.77551
-343,407,-7.40967,-1.95026,0,0,0,0,0,0,0,-1,881,617,-7.40969,1.95026
-336,407,-8.10229,-2.40662,0,0,0,0,0,0,0,-1,888,617,-8.10229,2.40664
-329,407,-8.81232,-2.76331,0,0,0,0,0,0,0,-1,895,617,-8.81235,2.76331
-322,407,0,0,0,0,0,0,0,0,0,-1,902,617,0,0
-315,407,0,0,0,0,0,0,0,0,0,-1,909,617,0,0
-308,407,0,0,0,0,0,0,0,0,0,-1,916,617,0,0
-301,407,0,0,0,0,0,0,0,0,0,-1,923,617,0,0
-294,407,0,0,0,0,0,0,0,0,0,-1,930,617,0,0
-287,407,0,0,0,0,0,0,0,0,0,-1,937,617,0,0
-280,407,0,0,0,0,0,0,0,0,0,-1,944,617,0,0
-273,407,0,0,0,0,0,0,0,0,0,-1,951,617,0,0
-266,407,0,0,0,0,0,0,0,0,0,-1,958,617,0,0
-259,407,0,0,0,0,0,0,0,0,0,-1,965,617,0,0
-252,407,0,0,0,0,0,0,0,0,0,-1,972,617,0,0
-245,407,0,0,0,0,0,0,0,0,0,-1,979,617,0,0
-238,407,0,0,0,0,0,0,0,0,0,-1,986,617,0,0
-231,407,0,0,0,0,0,0,0,0,0,-1,993,617,0,0
-224,407,0,0,0,0,0,0,0,0,0,-1,1000,617,0,0
-217,407,0,0,0,0,0,0,0,0,0,-1,1007,617,0,0
-210,407,0,0,0,0,0,0,0,0,0,-1,1014,617,0,0
-203,407,0,0,0,0,0,0,0,0,0,-1,1021,617,0,0
-196,407,0,0,0,0,0,0,0,0,0,-1,1028,617,0,0
-189,407,0,0,0,0,0,0,0,0,0,-1,1035,617,0,0
-182,407,0,0,0,0,0,0,0,0,0,-1,1042,617,0,0
-175,407,0,0,0,0,0,0,0,0,0,-1,1049,617,0,0
-168,407,0,0,0,0,0,0,0,0,0,-1,1056,617,0,0
-161,407,0,0,0,0,0,0,0,0,0,-1,1063,617,0,0
-154,407,0,0,0,0,0,0,0,0,0,-1,1070,617,0,0
-147,407,0,0,0,0,0,0,0,0,0,-1,1077,617,0,0
-140,407,0,0,0,0,0,0,0,0,0,-1,1084,617,0,0
-133,407,0,0,0,0,0,0,0,0,0,-1,1091,617,0,0
-126,407,0,0,0,0,0,0,0,0,0,-1,1098,617,0,0
-119,407,0,0,0,0,0,0,0,0,0,-1,1105,617,0,0
-112,407,0,0,0,0,0,0,0,0,0,-1,1112,617,0,0
-105,407,0,0,0,0,0,0,0,0,0,-1,1119,617,0,0
-98,407,0,0,0,0,0,0,0,0,0,-1,1126,617,0,0
-91,407,0,0,0,0,0,0,0,0,0,-1,1133,617,0,0
-84,407,0,0,0,0,0,0,0,0,0,-1,1140,617,0,0
-77,407,0,0,0,0,0,0,0,0,0,-1,1147,617,0,0
-70,407,0,0,0,0,0,0,0,0,0,-1,1154,617,0,0
-63,407,0,0,0,0,0,0,0,0,0,-1,1161,617,0,0
-56,407,0,0,0,0,0,0,0,0,0,-1,1168,617,0,0
-49,407,0,0,0,0,0,0,0,0,0,-1,1175,617,0,0
-42,407,0,0,0,0,0,0,0,0,0,-1,1182,617,0,0
-35,407,0,0,0,0,0,0,0,0,0,-1,1189,617,0,0
-28,407,0,0,0,0,0,0,0,0,0,-1,1196,617,0,0
-21,407,0,0,0,0,0,0,0,0,0,-1,1203,617,0,0
-14,407,0,0,0,0,0,0,0,0,0,-1,1210,617,0,0
-7,407,0,0,0,0,0,0,0,0,0,-1,1217,617,0,0
0,407,0,0,0,0,0,0,0,0,0,-1,1224,617,0,0
7,407,0,0,0,0,0,0,0,0,0,-1,1231,617,0,0
14,407,0,0,0,0,0,0,0,0,0,-1,1238,617,0,0
21,407,0,0,0,0,0,0,0,0,0,-1,1245,617,0,0
28,407,0,0,0,0,0,0,0,0,0,-1,1252,617,0,0
35,407,0,0,0,0,0,0,0,0,0,-1,1259,617,0,0
42,407,0,0,0,0,0,0,0,0,0,-1,1266,617,0,0
49,407,0,0,0,0,0,0,0,0,0,-1,1273,617,0,0
56,407,0,0,0,0,0,0,0,0,0,-1,1280,617,0,0
63,407,0,0,0,0,0,0,0,0,0,-1,1287,617,0,0
70,407,0,0,0,0,0,0,0,0,0,-1,1294,617,0,0
77,407,0,0,0,0,0,0,0,0,0,-1,1301,617,0,0
84,407,0,0,0,0,0,0,0,0,0,-1,1308,617,0,0
91,407,0,0,0,0,0,0,0,0,0,-1,1315,617,0,0
98,407,0,0,0,0,0,0,0,0,0,-1,1322,617,0,0
105,407,0,0,0,0,0,0,0,0,0,-1,1329,617,0,0
112,407,0,0,0,0,0,0,0,0,0,-1,1336,617,0,0
119,407,0,0,0,0,0,0,0,0,0,-1,1343,617,0,0
126,407,0,0,0,0,0,0,0,0,0,-1,1350,617,0,0
133,407,0,0,0,0,0,0,0,0,0,-1,1357,617,0,0
140,407,0,0,0,0,0,0,0,0,0,-1,1364,617,0,0
147,407,0,0,0,0,0,0,0,0,0,-1,1371,617,0,0
154,407,0,0,0,0,0,0,0,0,0,-1,1378,617,0,0
161,407,0,0,0,0,0,0,0,0,0,-1,1385,617,0,0
168,407,0,0,0,0,0,0,0,0,0,-1,1392,617,0,0
175,407,0,0,0,0,0,0,0,0,0,-1,1399,617,0,0
182,407,0,0,0,0,0,0,0,0,0,-1,1406,617,0,0
189,407,0,0,0,0,0,0,0,0,0,-1,1413,617,0,0
196,407,0,0,0,0,0,0,0,0,0,-1,1420,617,0,0
203,407,0,0,0,0,0,0,0,0,0,-1,1427,617,0,0
210,407,0,0,0,0,0,0,0,0,0,-1,1434,617,0,0
217,407,0,0,0,0,0,0,0,0,0,-1,1441,617,0,0
224,407,0,0,0,0,0,0,0,0,0,-1,1448,617,0,0
231,407,0,0,0,0,0,0,0,0,0,-1,1455,617,0,0
238,407,0,0,0,0,0,0,0,0,0,-1,1462,617,0,0
245,407,0,0,0,0,0,0,0,0,0,-1,1469,617,0,0
252,407,0,0,0,0,0,0,0,0,0,-1,1476,617,0,0
259,407,0,0,0,0,0,0,0,0,0,-1,1483,617,0,0
266,407,0,0,0,0,0,0,0,0,0,-1,1490,617,0,0
273,407,0,0,0,0,0,0,0,0,0,-1,1497,617,0,0
280,407,0,0,0,0,0,0,0,0,0,-1,1504,617,0,0
287,407,0,0,0,0,0,0,0,0,0,-1,1511,617,0,0
294,407,0,0,0,0,0,0,0,0,0,-1,1518,617,0,0
301,407,0,0,0,0,0,0,0,0,0,-1,1525,617,0,0
308,407,0,0,0,0,0,0,0,0,0,-1,1532,617,0,0
315,407,0,0,0,0,0,0,0,0,0,-1,1539,617,0,0
322,407,0,0,0,0,0,0,0,0,0,-1,1546,617,0,0
329,407,0,0,0,0,0,0,0,0,0,-1,1553,617,0,0
336,407,0,0,0,0,0,0,0,0,0,-1,1560,617,0,0
343,407,0,0,0,0,0,0,0,0,0,-1,1567,617,0,0
350,407,0,0,0,0,0,0,0,0,0,-1,1574,617,0,0
357,407,0,0,0,0,0,0,0,0,0,-1,1581,617,0,0
364,407,0,0,0,0,0,0,0,0,0,-1,1588,617,0,0
371,407,0,0,0,0,0,0,0,0,0,-1,1595,617,0,0
378,407,0,0,0,0,0,0,0,0,0,-1,1602,617,0,0
385,407,0,0,0,0,0,0,0,0,0,-1,1609,617,0,0
392,407,0,0,0,0,0,0,0,0,0,-1,1616,617,0,0
399,407,0,0,0,0,0,0,0,0,0,-1,1623,617,0,0
406,407,0,0,0,0,0,0,0,0,0,-1,1630,617,0,0
413,407,0,0,0,0,0,0,0,0,0,-1,1637,617,0,0
420,407,0,0,0,0,0,0,0,0,0,-1,1644,617,0,0
427,407,0,0,0,0,0,0,0,0,0,-1,1651,617,0,0
434,407,0,0,0,0,0,0,0,0,0,-1,1658,617,0,0
441,407,0,0,0,0,0,0,0,0,0,-1,1665,617,0,0
448,407,7.02893,2.13843,0,0,0,0,0,0,0,-1,1672,617,7.02899,-2.13844
455,407,7.55237,2.29242,0,0,0,0,0,0,0,-1,1679,617,7.55236,-2.29244
462,407,8.2926,2.46173,0,0,0,0,0,0,0,-1,1686,617,8.29261,-2.46174
469,407,8.71509,2.22681,0,0,0,0,0,0,0,-1,1693,617,8.71511,-2.22681
476,407,8.89917,1.47766,0,0,0,0,0,0,0,-1,1700,617,8.89914,-1.47768
483,407,9.02612,0.682983,0,0,0,0,0,0,0,-1,1707,617,9.02608,-0.683004
490,407,9.12659,0.000671387,0,0,0,0,0,0,0,-1,1714,617,9.12653,-0.000675931
497,407,7.76819,0.855835,0,0,0,0,0,0,0,-1,1721,617,7.7682,-0.855865
504,407,4.69336,0.160706,0,0,0,0,0,0,0,-1,1728,617,4.69337,-0.1607
511,407,4.07104,-0.00140381,0,0,0,0,0,0,0,-1,1735,617,4.07109,0.00141425
518,407,6.09534,1.9411,0,0,0,0,0,0,0,-1,1742,617,6.09532,-1.94113
525,407,5.72534,-1.35986,0,0,0,0,0,0,0,-1,1749,617,5.72529,1.35988
532,407,18.5767,-10.6388,0,0,0,0,0,0,0,-1,1756,617,18.5766,10.6388
539,407,28.076,-19.0708,0,0,0,0,0,0,0,-1,1763,617,28.0761,19.0708
546,407,28.0653,-18.1997,0.00481789,0.00182326,0.00259392,0.00631563,0.000325514,0.52364,0.00410622,0.0296698,1770,617,28.0653,18.1997
553,407,28.0504,-17.3582,0.00380921,0.00146455,0.00192288,0.00488895,0.000384808,0.511648,0.0031389,0.0183928,1777,617,28.0504,17.3582
560,407,28.0396,-16.5287,0.00293582,0.00117601,0.00142162,0.0037278,0.000384021,0.508281,0.0023676,0.0190526,1784,617,28.0395,16.5287
567,407,27.9709,-15.705,0.00225173,0.00104006,0.00111915,0.00291851,0.000373286,0.537316,0.00183395,0.03259,1791,617,27.9709,15.7049
574,407,27.9594,-14.8809,0.00185987,0.00113419,0.00106415,0.00262134,0.00037272,0.621094,0.00163752,0.0276574,1798,617,27.9593,14.8809
581,407,27.88,-14.0492,0.00164338,0.00138046,0.00119182,0.00271097,0.00031287,0.730469,0.00171258,0.019134,1805,617,27.88,14.0492
588,407,27.7986,-13.239,0.0016356,0.00192778,0.00154801,0.00333658,0.000226798,0.832446,0.00215277,0.0140301,1812,617,27.7986,13.239
595,407,27.8186,-12.4141,0.00193188,0.00268104,0.00213689,0.00447593,0.000136991,0.872162,0.00293936,0.0269439,1819,617,27.8186,12.4141
602,407,27.7753,-11.4791,0.00249527,0.00370886,0.0029424,0.00610638,9.77442e-05,0.887084,0.00403874,0.0218586,1826,617,27.7752,11.4791
609,407,27.6648,-10.6364,0.00341124,0.00509672,0.00404568,0.00838651,0.000121458,0.888083,0.00555096,0.0202522,1833,617,27.6648,10.6364
616,407,27.7118,-9.66241,0.00465947,0.00687465,0.00539543,0.011275,0.000259119,0.886634,0.0074318,0.037078,1840,617,27.7118,9.66243
623,407,28.0052,-8.53204,0,0,0,0,0,0,0,-1,1847,617,28.0052,8.53207
630,407,7.06177,0.814575,0,0,0,0,0,0,0,-1,1854,617,7.06178,-0.814579
637,407,11.1063,0.391846,0,0,0,0,0,0,0,-1,1861,617,11.1063,-0.391862
644,407,5.09766,2.27747,0,0,0,0,0,0,0,-1,1868,617,5.09764,-2.27746
651,407,7.37524,0.0513916,0,0,0,0,0,0,0,-1,1875,617,7.3752,-0.0513923
658,407,3.76685,0.594177,0,0,0,0,0,0,0,-1,1882,617,3.76683,-0.594184
665,407,5.76123,0.375061,0,0,0,0,0,0,0,-1,1889,617,5.76118,-0.37509
672,407,0,0,0,0,0,0,0,0,0,-1,1896,617,0,0
679,407,0,0,0,0,0,0,0,0,0,-1,1903,617,0,0
686,407,0,0,0,0,0,0,0,0,0,-1,1910,617,0,0
693,407,0,0,0,0,0,0,0,0,0,-1,1917,617,0,0
700,407,0,0,0,0,0,0,0,0,0,-1,1924,617,0,0
707,407,0,0,0,0,0,0,0,0,0,-1,1931,617,0,0
714,407,0,0,0,0,0,0,0,0,0,-1,1938,617,0,0
721,407,0,0,0,0,0,0,0,0,0,-1,1945,617,0,0
728,407,0,0,0,0,0,0,0,0,0,-1,1952,617,0,0
735,407,0,0,0,0,0,0,0,0,0,-1,1959,617,0,0
742,407,0,0,0,0,0,0,0,0,0,-1,1966,617,0,0
749,407,0,0,0,0,0,0,0,0,0,-1,1973,617,0,0
756,407,0,0,0,0,0,0,0,0,0,-1,1980,617,0,0
763,407,0,0,0,0,0,0,0,0,0,-1,1987,617,0,0
770,407,0,0,0,0,0,0,0,0,0,-1,1994,617,0,0
777,407,0,0,0,0,0,0,0,0,0,-1,2001,617,0,0
784,407,0,0,0,0,0,0,0,0,0,-1,2008,617,0,0
791,407,0,0,0,0,0,0,0,0,0,-1,2015,617,0,0
798,407,0,0,0,0,0,0,0,0,0,-1,2022,617,0,0
805,407,0,0,0,0,0,0,0,0,0,-1,2029,617,0,0
812,407,0,0,0,0,0,0,0,0,0,-1,2036,617,0,0
-700,400,0,0,0,0,0,0,0,0,0,-1,524,624,0,0
-693,400,0,0,0,0,0,0,0,0,0,-1,531,624,0,0
-686,400,0,0,0,0,0,0,0,0,0,-1,538,624,0,0
-679,400,0,0,0,0,0,0,0,0,0,-1,545,624,0,0
-672,400,0,0,0,0,0,0,0,0,0,-1,552,624,0,0
-665,400,0,0,0,0,0,0,0,0,0,-1,559,624,0,0
-658,400,0,0,0,0,0,0,0,0,0,-1,566,624,0,0
-651,400,0,0,0,0,0,0,0,0,0,-1,573,624,0,0
-644,400,0,0,0,0,0,0,0,0,0,-1,580,624,0,0
-637,400,0,0,0,0,0,0,0,0,0,-1,587,624,0,0
-630,400,0,0,0,0,0,0,0,0,0,-1,594,624,0,0
-623,400,0,0,0,0,0,0,0,0,0,-1,601,624,0,0
-616,400,0,0,0,0,0,0,0,0,0,-1,608,624,0,0
-609,400,0,0,0,0,0,0,0,0,0,-1,615,624,0,0
-602,400,0,0,0,0,0,0,0,0,0,-1,622,624,0,0
-595,400,0,0,0,0,0,0,0,0,0,-1,629,624,0,0
-588,400,0,0,0,0,0,0,0,0,0,-1,636,624,0,0
-581,400,0,0,0,0,0,0,0,0,0,-1,643,624,0,0
-574,400,0,0,0,0,0,0,0,0,0,-1,650,624,0,0
-567,400,0,0,0,0,0,0,0,0,0,-1,657,624,0,0
-560,400,0,0,0,0,0,0,0,0,0,-1,664,624,0,0
-553,400,0,0,0,0,0,0,0,0,0,-1,671,624,0,0
-546,400,-8.41174,-1.4599,0,0,0,0,0,0,0,-1,678,624,-8.41173,1.45989
-539,400,-5.69104,-1.7337,0,0,0,0,0,0,0,-1,685,624,-5.69103,1.7337
-532,400,-3.03632,-2.03912,0,0,0,0,0,0,0,-1,692,624,-3.03632,2.03909
-525,400,-6.20813,-7.04071,0,0,0,0,0,0,0,-1,699,624,-6.20814,7.04071
-518,400,-5.26544,-1.58661,0,0,0,0,0,0,0,-1,706,624,-5.26544,1.58658
-511,400,-10.6307,-6.7121,0,0,0,0,0,0,0,-1,713,624,-10.6307,6.71209
-504,400,-10.2663,-6.55109,0,0,0,0,0,0,0,-1,720,624,-10.2663,6.55106
-497,400,-15.0588,-9.81726,0,0,0,0,0,0,0,-1,727,624,-15.0588,9.81728
-490,400,-14.8366,-10.7687,0.000720136,0.00365015,-0.00181193,0.00451523,-0.000144948,-1.12536,0.00305962,0.0427729,734,624,-14.8366,10.7687
-483,400,-14.8625,-11.6885,0.000284031,0.00291561,-0.00151316,0.00360506,-0.000405414,-1.14327,0.00254928,0.0181393,741,624,-14.8625,11.6886
-476,400,-14.9014,-12.4943,4.39775e-05,0.00225087,-0.00124816,0.0028134,-0.000518559,-1.14737,0.00207022,0.0148794,748,624,-14.9014,12.4944
-469,400,-14.9398,-13.3423,4.55502e-05,0.00160354,-0.0010095,0.00209966,-0.00045057,-1.11401,0.00157164,0.0153445,755,624,-14.9398,13.3424
-462,400,-14.9899,-14.2078,0.000203444,0.000993639,-0.000802295,0.00149284,-0.000295762,-1.0142,0.00110707,0.0192624,762,624,-14.9899,14.2078
-455,400,-15.0423,-15.0323,0.000509828,0.00058848,-0.000697638,0.0012479,-0.000149591,-0.813553,0.000886016,0.0200695,769,624,-15.0423,15.0323
-448,400,-15.0987,-15.8528,0.00100236,0.000345513,-0.000689571,0.00143772,-8.98518e-05,-0.563157,0.000989791,0.0159389,776,624,-15.0987,15.8528
-441,400,-15.1614,-16.6168,0.0015719,0.000255487,-0.000736993,0.00190182,-7.44333e-05,-0.420904,0.00129341,0.0153822,783,624,-15.1614,16.6168
-434,400,-15.2162,-17.4033,0.00229084,0.00038154,-0.000918844,0.0026612,1.11886e-05,-0.383144,0.00177041,0.0123196,790,624,-15.2162,17.4033
-427,400,-15.2518,-18.2007,0.00312247,0.000782256,-0.00126758,0.00367745,0.000227276,-0.412683,0.00237949,0.0109941,797,624,-15.2518,18.2007
-420,400,-15.2262,-19.0504,0.00392573,0.00136677,-0.00162717,0.00471621,0.000576286,-0.452226,0.00297074,0.0209012,804,624,-15.2262,19.0504
-413,400,-15.1896,-19.8116,0,0,0,0,0,0,0,-1,811,624,-15.1896,19.8116
-406,400,-14.392,-18.9125,0,0,0,0,0,0,0,-1,818,624,-14.392,18.9125
-399,400,-11.0176,-13.2944,0,0,0,0,0,0,0,-1,825,624,-11.0176,13.2944
-392,400,-4.92285,-6.63354,0,0,0,0,0,0,0,-1,832,624,-4.92285,6.63354
-385,400,-3.68738,-5.04205,0,0,0,0,0,0,0,-1,839,624,-3.68736,5.04207
-378,400,-6.84064,-1.28662,0,0,0,0,0,0,0,-1,846,624,-6.84062,1.28662
-371,400,-6.98865,-1.2572,0,0,0,0,0,0,0,-1,853,624,-6.98865,1.25721
-364,400,-6.97247,-1.24133,0,0,0,0,0,0,0,-1,860,624,-6.97249,1.24135
-357,400,-7.18329,-1.23218,0,0,0,0,0,0,0,-1,867,624,-7.18327,1.2322
-350,400,-7.40186,-1.19409,0,0,0,0,0,0,0,-1,874,624,-7.40187,1.19407
-343,400,-8.09357,-1.51147,0,0,0,0,0,0,0,-1,881,624,-8.09355,1.51148
-336,400,0,0,0,0,0,0,0,0,0,-1,888,624,0,0
-329,400,0,0,0,0,0,0,0,0,0,-1,895,624,0,0
-322,400,0,0,0,0,0,0,0,0,0,-1,902,624,0,0
-315,400,0,0,0,0,0,0,0,0,0,-1,909,624,0,0
-308,400,0,0,0,0,0,0,0,0,0,-1,916,624,0,0
-301,400,0,0,0,0,0,0,0,0,0,-1,923,624,0,0
-294,400,0,0,0,0,0,0,0,0,0,-1,930,624,0,0
-287,400,0,0,0,0,0,0,0,0,0,-1,937,624,0,0
-280,400,0,0,0,0,0,0,0,0,0,-1,944,624,0,0
-273,400,0,0,0,0,0,0,0,0,0,-1,951,624,0,0
-266,400,0,0,0,0,0,0,0,0,0,-1,958,624,0,0
-259,400,0,0,0,0,0,0,0,0,0,-1,965,624,0,0
-252,400,0,0,0,0,0,0,0,0,0,-1,972,624,0,0
-245,400,0,0,0,0,0,0,0,0,0,-1,979,624,0,0
-238,400,0,0,0,0,0,0,0,0,0,-1,986,624,0,0
-231,400,0,0,0,0,0,0,0,0,0,-1,993,624,0,0
-224,400,0,0,0,0,0,0,0,0,0,-1,1000,624,0,0
-217,400,0,0,0,0,0,0,0,0,0,-1,1007,624,0,0
-210,400,0,0,0,0,0,0,0,0,0,-1,1014,624,0,0
-203,400,0,0,0,0,0,0,0,0,0,-1,1021,624,0,0
-196,400,0,0,0,0,0,0,0,0,0,-1,1028,624,0,0
-189,400,0,0,0,0,0,0,0,0,0,-1,1035,624,0,0
-182,400,0,0,0,0,0,0,0,0,0,-1,1042,624,0,0
-175,400,0,0,0,0,0,0,0,0,0,-1,1049,624,0,0
-168,400,0,0,0,0,0,0,0,0,0,-1,1056,624,0,0
-161,400,0,0,0,0,0,0,0,0,0,-1,1063,624,0,0
-154,400,0,0,0,0,0,0,0,0,0,-1,1070,624,0,0
-147,400,0,0,0,0,0,0,0,0,0,-1,1077,624,0,0
-140,400,0,0,0,0,0,0,0,0,0,-1,1084,624,0,0
-133,400,0,0,0,0,0,0,0,0,0,-1,1091,624,0,0
-126,400,0,0,0,0,0,0,0,0,0,-1,1098,624,0,0
-119,400,0,0,0,0,0,0,0,0,0,-1,1105,624,0,0
-112,400,0,0,0,0,0,0,0,0,0,-1,1112,624,0,0
-105,400,0,0,0,0,0,0,0,0,0,-1,1119,624,0,0
-98,400,0,0,0,0,0,0,0,0,0,-1,1126,624,0,0
-91,400,0,0,0,0,0,0,0,0,0,-1,1133,624,0,0
-84,400,0,0,0,0,0,0,0,0,0,-1,1140,624,0,0
-77,400,0,0,0,0,0,0,0,0,0,-1,1147,624,0,0
-70,400,0,0,0,0,0,0,0,0,0,-1,1154,624,0,0
-63,400,0,0,0,0,0,0,0,0,0,-1,1161,624,0,0
-56,400,0,0,0,0,0,0,0,0,0,-1,1168,624,0,0
-49,400,0,0,0,0,0,0,0,0,0,-1,1175,624,0,0
-42,400,0,0,0,0,0,0,0,0,0,-1,1182,624,0,0
-35,400,0,0,0,0,0,0,0,0,0,-1,1189,624,0,0
-28,400,0,0,0,0,0,0,0,0,0,-1,1196,624,0,0
-21,400,0,0,0,0,0,0,0,0,0,-1,1203,624,0,0
-14,400,0,0,0,0,0,0,0,0,0,-1,1210,624,0,0
-7,400,0,0,0,0,0,0,0,0,0,-1,1217,624,0,0
0,400,0,0,0,0,0,0,0,0,0,-1,1224,624,0,0
7,400,0,0,0,0,0,0,0,0,0,-1,1231,624,0,0
14,400,0,0,0,0,0,0,0,0,0,-1,1238,624,0,0
21,400,0,0,0,0,0,0,0,0,0,-1,1245,624,0,0
28,400,0,0,0,0,0,0,0,0,0,-1,1252,624,0,0
35,400,0,0,0,0,0,0,0,0,0,-1,1259,624,0,0
42,400,0,0,0,0,0,0,0,0,0,-1,1266,624,0,0
49,400,0,0,0,0,0,0,0,0,0,-1,1273,624,0,0
56,400,0,0,0,0,0,0,0,0,0,-1,1280,624,0,0
63,400,0,0,0,0,0,0,0,0,0,-1,1287,624,0,0
70,400,0,0,0,0,0,0,0,0,0,-1,1294,624,0,0
77,400,0,0,0,0,0,0,0,0,0,-1,1301,624,0,0
84,400,0,0,0,0,0,0,0,0,0,-1,1308,624,0,0
91,400,0,0,0,0,0,0,0,0,0,-1,1315,624,0,0
98,400,0,0,0,0,0,0,0,0,0,-1,1322,624,0,0
105,400,0,0,0,0,0,0,0,0,0,-1,1329,624,0,0
112,400,0,0,0,0,0,0,0,0,0,-1,1336,624,0,0
119,400,0,0,0,0,0,0,0,0,0,-1,1343,624,0,0
126,400,0,0,0,0,0,0,0,0,0,-1,1350,624,0,0
133,400,0,0,0,0,0,0,0,0,0,-1,1357,624,0,0
140,400,0,0,0,0,0,0,0,0,0,-1,1364,624,0,0
147,400,0,0,0,0,0,0,0,0,0,-1,1371,624,0,0
154,400,0,0,0,0,0,0,0,0,0,-1,1378,624,0,0
161,400,0,0,0,0,0,0,0,0,0,-1,1385,624,0,0
168,400,0,0,0,0,0,0,0,0,0,-1,1392,624,0,0
175,400,0,0,0,0,0,0,0,0,0,-1,1399,624,0,0
182,400,0,0,0,0,0,0,0,0,0,-1,1406,624,0,0
189,400,0,0,0,0,0,0,0,0,0,-1,1413,624,0,0
196,400,0,0,0,0,0,0,0,0,0,-1,1420,624,0,0
203,400,0,0,0,0,0,0,0,0,0,-1,1427,624,0,0
210,400,0,0,0,0,0,0,0,0,0,-1,1434,624,0,0
217,400,0,0,0,0,0,0,0,0,0,-1,1441,624,0,0
224,400,0,0,0,0,0,0,0,0,0,-1,1448,624,0,0
231,400,0,0,0,0,0,0,0,0,0,-1,1455,624,0,0
238,400,0,0,0,0,0,0,0,0,0,-1,1462,624,0,0
245,400,0,0,0,0,0,0,0,0,0,-1,1469,624,0,0
252,400,0,0,0,0,0,0,0,0,0,-1,1476,624,0,0
259,400,0,0,0,0,0,0,0,0,0,-1,1483,624,0,0
266,400,0,0,0,0,0,0,0,0,0,-1,1490,624,0,0
273,400,0,0,0,0,0,0,0,0,0,-1,1497,624,0,0
280,400,0,0,0,0,0,0,0,0,0,-1,1504,624,0,0
287,400,0,0,0,0,0,0,0,0,0,-1,1511,624,0,0
294,400,0,0,0,0,0,0,0,0,0,-1,1518,624,0,0
301,400,0,0,0,0,0,0,0,0,0,-1,1525,624,0,0
308,400,0,0,0,0,0,0,0,0,0,-1,1532,624,0,0
315,400,0,0,0,0,0,0,0,0,0,-1,1539,624,0,0
322,400,0,0,0,0,0,0,0,0,0,-1,1546,624,0,0
329,400,0,0,0,0,0,0,0,0,0,-1,1553,624,0,0
336,400,0,0,0,0,0,0,0,0,0,-1,1560,624,0,0
343,400,0,0,0,0,0,0,0,0,0,-1,1567,624,0,0
350,400,0,0,0,0,0,0,0,0,0,-1,1574,624,0,0
357,400,0,0,0,0,0,0,0,0,0,-1,1581,624,0,0
364,400,0,0,0,0,0,0,0,0,0,-1,1588,624,0,0
371,400,0,0,0,0,0,0,0,0,0,-1,1595,624,0,0
378,400,0,0,0,0,0,0,0,0,0,-1,1602,624,0,0
385,400,0,0,0,0,0,0,0,0,0,-1,1609,624,0,0
392,400,0,0,0,0,0,0,0,0,0,-1,1616,624,0,0
399,400,0,0,0,0,0,0,0,0,0,-1,1623,624,0,0
406,400,0,0,0,0,0,0,0,0,0,-1,1630,624,0,0
413,400,0,0,0,0,0,0,0,0,0,-1,1637,624,0,0
420,400,0,0,0,0,0,0,0,0,0,-1,1644,624,0,0
427,400,0,0,0,0,0,0,0,0,0,-1,1651,624,0,0
434,400,0,0,0,0,0,0,0,0,0,-1,1658,624,0,0
441,400,0,0,0,0,0,0,0,0,0,-1,1665,624,0,0
448,400,0,0,0,0,0,0,0,0,0,-1,1672,624,0,0
455,400,8.91309,2.75885,0,0,0,0,0,0,0,-1,1679,624,8.91312,-2.75885
462,400,8.90356,2.37878,0,0,0,0,0,0,0,-1,1686,624,8.90353,-2.37878
469,400,9.14429,1.76849,0,0,0,0,0,0,0,-1,1693,624,9.14432,-1.76847
476,400,9.23254,1.25995,0,0,0,0,0,0,0,-1,1700,624,9.23252,-1.25994
483,400,9.59766,0.562439,0,0,0,0,0,0,0,-1,1707,624,9.59771,-0.56242
490,400,9.92578,-0.213745,0,0,0,0,0,0,0,-1,1714,624,9.92579,0.21376
497,400,9.19141,0.175232,0,0,0,0,0,0,0,-1,1721,624,9.19138,-0.175209
504,400,9.23438,0.00823975,0,0,0,0,0,0,0,-1,1728,624,9.23436,-0.00823766
511,400,6.16687,3.3501,0,0,0,0,0,0,0,-1,1735,624,6.16682,-3.35007
518,400,6.55237,1.74994,0,0,0,0,0,0,0,-1,1742,624,6.55236,-1.74993
525,400,6.99731,1.08783,0,0,0,0,0,0,0,-1,1749,624,6.99736,-1.08785
532,400,6.96582,-1.74982,0,0,0,0,0,0,0,-1,1756,624,6.96585,1.74983
539,400,21.2305,-10.5841,0,0,0,0,0,0,0,-1,1763,624,21.2304,10.5841
546,400,28.6306,-18.4025,0,0,0,0,0,0,0,-1,1770,624,28.6306,18.4025
553,400,28.774,-17.3659,0.0043469,0.0017244,0.00212234,0.00553038,0.000540919,0.508684,0.00352049,0.0452992,1777,624,28.774,17.3659
560,400,28.8322,-16.4773,0.00331342,0.00128461,0.00147745,0.00409119,0.000506843,0.484564,0.00257519,0.0180783,1784,624,28.8322,16.4773
567,400,28.8241,-15.6409,0.00245981,0.000970168,0.00101881,0.00297702,0.000452957,0.46976,0.00185225,0.0200794,1791,624,28.8242,15.6409
574,400,28.796,-14.8179,0.00195187,0.000948161,0.000881408,0.00246429,0.000435749,0.526598,0.00151859,0.0224501,1798,624,28.796,14.8179
581,400,28.6926,-14.0083,0.00163915,0.0011099,0.000943923,0.00235484,0.00039421,0.648735,0.00145638,0.0228117,1805,624,28.6926,14.0083
588,400,28.5944,-13.1178,0.00154945,0.00155929,0.00123802,0.0027924,0.000316345,0.787386,0.00176562,0.0187809,1812,624,28.5943,13.1178
595,400,28.5946,-12.3033,0.00178931,0.00221444,0.00177414,0.0037887,0.000215043,0.845021,0.00245726,0.0174167,1819,624,28.5947,12.3034
602,400,28.5989,-11.4828,0.00228666,0.00309664,0.00250398,0.00522817,0.000155128,0.865574,0.0034349,0.0165761,1826,624,28.5989,11.4829
609,400,28.4785,-10.6285,0.00304543,0.00423399,0.00346273,0.00715306,0.000126356,0.870381,0.00472715,0.0153547,1833,624,28.4785,10.6285
616,400,28.4227,-9.76544,0.00409713,0.00569244,0.00464405,0.00960684,0.000182735,0.870447,0.00634452,0.0195005,1840,624,28.4227,9.76547
623,400,28.4318,-8.87457,0,0,0,0,0,0,0,-1,1847,624,28.4318,8.87459
630,400,11.9432,0.09021,0,0,0,0,0,0,0,-1,1854,624,11.9432,-0.0902007
637,400,6.92896,1.01917,0,0,0,0,0,0,0,-1,1861,624,6.92899,-1.01918
644,400,8.65381,1.4599,0,0,0,0,0,0,0,-1,1868,624,8.65379,-1.45991
651,400,7.90601,0.424072,0,0,0,0,0,0,0,-1,1875,624,7.90598,-0.424097
658,400,8.69031,1.0484,0,0,0,0,0,0,0,-1,1882,624,8.6903,-1.0484
665,400,5.98438,0.522522,0,0,0,0,0,0,0,-1,1889,624,5.98442,-0.522552
672,400,0,0,0,0,0,0,0,0,0,-1,1896,624,0,0
679,400,0,0,0,0,0,0,0,0,0,-1,1903,624,0,0
686,400,0,0,0,0,0,0,0,0,0,-1,1910,624,0,0
693,400,0,0,0,0,0,0,0,0,0,-1,1917,624,0,0
700,400,0,0,0,0,0,0,0,0,0,-1,1924,624,0,0
707,400,0,0,0,0,0,0,0,0,0,-1,1931,624,0,0
714,400,0,0,0,0,0,0,0,0,0,-1,1938,624,0,0
721,400,0,0,0,0,0,0,0,0,0,-1,1945,624,0,0
728,400,0,0,0,0,0,0,0,0,0,-1,1952,624,0,0
735,400,0,0,0,0,0,0,0,0,0,-1,1959,624,0,0
742,400,0,0,0,0,0,0,0,0,0,-1,1966,624,0,0
749,400,0,0,0,0,0,0,0,0,0,-1,1973,624,0,0
756,400,0,0,0,0,0,0,0,0,0,-1,1980,624,0,0
763,400,0,0,0,0,0,0,0,0,0,-1,1987,624,0,0
770,400,0,0,0,0,0,0,0,0,0,-1,1994,624,0,0
777,400,0,0,0,0,0,0,0,0,0,-1,2001,624,0,0
784,400,0,0,0,0,0,0,0,0,0,-1,2008,624,0,0
791,400,0,0,0,0,0,0,0,0,0,-1,2015,624,0,0
798,400,0,0,0,0,0,0,0,0,0,-1,2022,624,0,0
805,400,0,0,0,0,0,0,0,0,0,-1,2029,624,0,0
812,400,0,0,0,0,0,0,0,0,0,-1,2036,624,0,0
-700,393,0,0,0,0,0,0,0,0,0,-1,524,631,0,0
-693,393,0,0,0,0,0,0,0,0,0,-1,531,631,0,0
-686,393,0,0,0,0,0,0,0,0,0,-1,538,631,0,0
-679,393,0,0,0,0,0,0,0,0,0,-1,545,631,0,0
-672,393,0,0,0,0,0,0,0,0,0,-1,552,631,0,0
-665,393,0,0,0,0,0,0,0,0,0,-1,559,631,0,0
-658,393,0,0,0,0,0,0,0,0,0,-1,566,631,0,0
-651,393,0,0,0,0,0,0,0,0,0,-1,573,631,0,0
-644,393,0,0,0,0,0,0,0,0,0,-1,580,631,0,0
-637,393,0,0,0,0,0,0,0,0,0,-1,587,631,0,0
-630,393,0,0,0,0,0,0,0,0,0,-1,594,631,0,0
-623,393,0,0,0,0,0,0,0,0,0,-1,601,631,0,0
-616,393,0,0,0,0,0,0,0,0,0,-1,608,631,0,0
-609,393,0,0,0,0,0,0,0,0,0,-1,615,631,0,0
-602,393,0,0,0,0,0,0,0,0,0,-1,622,631,0,0
-595,393,0,0,0,0,0,0,0,0,0,-1,629,631,0,0
-588,393,0,0,0,0,0,0,0,0,0,-1,636,631,0,0
-581,393,0,0,0,0,0,0,0,0,0,-1,643,631,0,0
-574,393,0,0,0,0,0,0,0,0,0,-1,650,631,0,0
-567,393,0,0,0,0,0,0,0,0,0,-1,657,631,0,0
-560,393,0,0,0,0,0,0,0,0,0,-1,664,631,0,0
-553,393,-2.35107,3.92633,0,0,0,0,0,0,0,-1,671,631,-2.35108,-3.92634
-546,393,-1.78778,2.4856,0,0,0,0,0,0,0,-1,678,631,-1.78778,-2.48557
-539,393,-5.2113,-2.20245,0,0,0,0,0,0,0,-1,685,631,-5.21128,2.20247
-532,393,-2.83643,-2.01624,0,0,0,0,0,0,0,-1,692,631,-2.83642,2.01626
-525,393,-5.9505,-0.952698,0,0,0,0,0,0,0,-1,699,631,-5.95053,0.95268
-518,393,-5.80219,-1.57739,0,0,0,0,0,0,0,-1,706,631,-5.80219,1.57738
-511,393,-6.15527,-2.09906,0,0,0,0,0,0,0,-1,713,631,-6.15526,2.09903
-504,393,-13.6063,-6.95947,0,0,0,0,0,0,0,-1,720,631,-13.6063,6.95946
-497,393,-15.7364,-9.84442,0,0,0,0,0,0,0,-1,727,631,-15.7364,9.84442
-490,393,-15.6488,-10.7776,0.00107551,0.00244889,-0.00134473,0.00327212,0.000252288,-1.02146,0.00210237,0.0247038,734,631,-15.6488,10.7776
-483,393,-15.6706,-11.6545,0.000664969,0.00194471,-0.00113803,0.00261042,-7.38655e-07,-1.0415,0.00174053,0.0198329,741,631,-15.6706,11.6545
-476,393,-15.7215,-12.4495,0.000440544,0.00146187,-0.000950863,0.00203052,-0.000128105,-1.03182,0.00139834,0.0173369,748,631,-15.7215,12.4494
-469,393,-15.7648,-13.2775,0.000428184,0.000973428,-0.000782324,0.00152927,-0.000127658,-0.953057,0.00106462,0.0135229,755,631,-15.7648,13.2775
-462,393,-15.8093,-14.147,0.000552368,0.000489574,-0.000644532,0.00116627,-0.000124325,-0.761061,0.000822093,0.0150767,762,631,-15.8093,14.1471
-455,393,-15.8678,-14.9848,0.000843651,0.000209434,-0.000606823,0.00121123,-0.000158141,-0.544627,0.00086503,0.0146478,769,631,-15.8678,14.9848
-448,393,-15.9306,-15.8118,0.00132755,5.17055e-05,-0.000654062,0.00160327,-0.000224014,-0.398945,0.00115081,0.0149488,776,631,-15.9306,15.8118
-441,393,-15.9874,-16.591,0.00191607,3.80952e-05,-0.000771282,0.00219223,-0.000238061,-0.343826,0.00154696,0.0141769,783,631,-15.9874,16.591
-434,393,-16.0231,-17.3475,0.00269432,0.000267116,-0.0010449,0.00308217,-0.00012073,-0.355419,0.00209618,0.0132285,790,631,-16.023,17.3474
-427,393,-16.022,-18.1893,0.00357797,0.000751105,-0.00147395,0.00420668,0.000122399,-0.403177,0.00276456,0.0234699,797,631,-16.022,18.1893
-420,393,-15.9462,-19.0661,0,0,0,0,0,0,0,-1,804,631,-15.9462,19.0661
-413,393,-15.0913,-18.3777,0,0,0,0,0,0,0,-1,811,631,-15.0913,18.3777
-406,393,-11.826,-12.7987,0,0,0,0,0,0,0,-1,818,631,-11.8261,12.7987
-399,393,-5.07343,-5.92365,0,0,0,0,0,0,0,-1,825,631,-5.07344,5.92364
-392,393,-2.08063,-3.02386,0,0,0,0,0,0,0,-1,832,631,-2.08063,3.02384
-385,393,-3.16931,-0.624756,0,0,0,0,0,0,0,-1,839,631,-3.16928,0.624764
-378,393,-7.33081,-0.872314,0,0,0,0,0,0,0,-1,846,631,-7.33081,0.872325
-371,393,-7.47858,-0.811096,0,0,0,0,0,0,0,-1,853,631,-7.47859,0.811075
-364,393,-7.64917,-0.662415,0,0,0,0,0,0,0,-1,860,631,-7.64917,0.662406
-357,393,-8.09686,-0.726013,0,0,0,0,0,0,0,-1,867,631,-8.09689,0.726029
-350,393,-8.38788,-0.511841,0,0,0,0,0,0,0,-1,874,631,-8.38785,0.511811
-343,393,0,0,0,0,0,0,0,0,0,-1,881,631,0,0
-336,393,0,0,0,0,0,0,0,0,0,-1,888,631,0,0
-329,393,0,0,0,0,0,0,0,0,0,-1,895,631,0,0
-322,393,0,0,0,0,0,0,0,0,0,-1,902,631,0,0
-315,393,0,0,0,0,0,0,0,0,0,-1,909,631,0,0
-308,393,0,0,0,0,0,0,0,0,0,-1,916,631,0,0
-301,393,0,0,0,0,0,0,0,0,0,-1,923,631,0,0
-294,393,0,0,0,0,0,0,0,0,0,-1,930,631,0,0
-287,393,0,0,0,0,0,0,0,0,0,-1,937,631,0,0
-280,393,0,0,0,0,0,0,0,0,0,-1,944,631,0,0
-273,393,0,0,0,0,0,0,0,0,0,-1,951,631,0,0
-266,393,0,0,0,0,0,0,0,0,0,-1,958,631,0,0
-259,393,0,0,0,0,0,0,0,0,0,-1,965,631,0,0
-252,393,0,0,0,0,0,0,0,0,0,-1,972,631,0,0
-245,393,0,0,0,0,0,0,0,0,0,-1,979,631,0,0
-238,393,0,0,0,0,0,0,0,0,0,-1,986,631,0,0
-231,393,0,0,0,0,0,0,0,0,0,-1,993,631,0,0
-224,393,0,0,0,0,0,0,0,0,0,-1,1000,631,0,0
-217,393,0,0,0,0,0,0,0,0,0,-1,1007,631,0,0
-210,393,0,0,0,0,0,0,0,0,0,-1,1014,631,0,0
-203,393,0,0,0,0,0,0,0,0,0,-1,1021,631,0,0
-196,393,0,0,0,0,0,0,0,0,0,-1,1028,631,0,0
-189,393,0,0,0,0,0,0,0,0,0,-1,1035,631,0,0
-182,393,0,0,0,0,0,0,0,0,0,-1,1042,631,0,0
-175,393,0,0,0,0,0,0,0,0,0,-1,1049,631,0,0
-168,393,0,0,0,0,0,0,0,0,0,-1,1056,631,0,0
-161,393,0,0,0,0,0,0,0,0,0,-1,1063,631,0,0
-154,393,0,0,0,0,0,0,0,0,0,-1,1070,631,0,0
-147,393,0,0,0,0,0,0,0,0,0,-1,1077,631,0,0
-140,393,0,0,0,0,0,0,0,0,0,-1,1084,631,0,0
-133,393,0,0,0,0,0,0,0,0,0,-1,1091,631,0,0
-126,393,0,0,0,0,0,0,0,0,0,-1,1098,631,0,0
-119,393,0,0,0,0,0,0,0,0,0,-1,1105,631,0,0
-112,393,0,0,0,0,0,0,0,0,0,-1,1112,631,0,0
-105,393,0,0,0,0,0,0,0,0,0,-1,1119,631,0,0
-98,393,0,0,0,0,0,0,0,0,0,-1,1126,631,0,0
-91,393,0,0,0,0,0,0,0,0,0,-1,1133,631,0,0
-84,393,0,0,0,0,0,0,0,0,0,-1,1140,631,0,0
-77,393,0,0,0,0,0,0,0,0,0,-1,1147,631,0,0
-70,393,0,0,0,0,0,0,0,0,0,-1,1154,631,0,0
-63,393,0,0,0,0,0,0,0,0,0,-1,1161,631,0,0
-56,393,0,0,0,0,0,0,0,0,0,-1,1168,631,0,0
-49,393,0,0,0,0,0,0,0,0,0,-1,1175,631,0,0
-42,393,0,0,0,0,0,0,0,0,0,-1,1182,631,0,0
-35,393,0,0,0,0,0,0,0,0,0,-1,1189,631,0,0
-28,393,0,0,0,0,0,0,0,0,0,-1,1196,631,0,0
-21,393,0,0,0,0,0,0,0,0,0,-1,1203,631,0,0
-14,393,0,0,0,0,0,0,0,0,0,-1,1210,631,0,0
-7,393,0,0,0,0,0,0,0,0,0,-1,1217,631,0,0
0,393,0,0,0,0,0,0,0,0,0,-1,1224,631,0,0
7,393,0,0,0,0,0,0,0,0,0,-1,1231,631,0,0
14,393,0,0,0,0,0,0,0,0,0,-1,1238,631,0,0
21,393,0,0,0,0,0,0,0,0,0,-1,1245,631,0,0
28,393,0,0,0,0,0,0,0,0,0,-1,1252,631,0,0
35,393,0,0,0,0,0,0,0,0,0,-1,1259,631,0,0
42,393,0,0,0,0,0,0,0,0,0,-1,1266,631,0,0
49,393,0,0,0,0,0,0,0,0,0,-1,1273,631,0,0
56,393,0,0,0,0,0,0,0,0,0,-1,1280,631,0,0
63,393,0,0,0,0,0,0,0,0,0,-1,1287,631,0,0
70,393,0,0,0,0,0,0,0,0,0,-1,1294,631,0,0
77,393,0,0,0,0,0,0,0,0,0,-1,1301,631,0,0
84,393,0,0,0,0,0,0,0,0,0,-1,1308,631,0,0
91,393,0,0,0,0,0,0,0,0,0,-1,1315,631,0,0
98,393,0,0,0,0,0,0,0,0,0,-1,1322,631,0,0
105,393,0,0,0,0,0,0,0,0,0,-1,1329,631,0,0
112,393,0,0,0,0,0,0,0,0,0,-1,1336,631,0,0
119,393,0,0,0,0,0,0,0,0,0,-1,1343,631,0,0
126,393,0,0,0,0,0,0,0,0,0,-1,1350,631,0,0
133,393,0,0,0,0,0,0,0,0,0,-1,1357,631,0,0
140,393,0,0,0,0,0,0,0,0,0,-1,1364,631,0,0
147,393,0,0,0,0,0,0,0,0,0,-1,1371,631,0,0
154,393,0,0,0,0,0,0,0,0,0,-1,1378,631,0,0
161,393,0,0,0,0,0,0,0,0,0,-1,1385,631,0,0
168,393,0,0,0,0,0,0,0,0,0,-1,1392,631,0,0
175,393,0,0,0,0,0,0,0,0,0,-1,1399,631,0,0
182,393,0,0,0,0,0,0,0,0,0,-1,1406,631,0,0
189,393,0,0,0,0,0,0,0,0,0,-1,1413,631,0,0
196,393,0,0,0,0,0,0,0,0,0,-1,1420,631,0,0
203,393,0,0,0,0,0,0,0,0,0,-1,1427,631,0,0
210,393,0,0,0,0,0,0,0,0,0,-1,1434,631,0,0
217,393,0,0,0,0,0,0,0,0,0,-1,1441,631,0,0
224,393,0,0,0,0,0,0,0,0,0,-1,1448,631,0,0
231,393,0,0,0,0,0,0,0,0,0,-1,1455,631,0,0
238,393,0,0,0,0,0,0,0,0,0,-1,1462,631,0,0
245,393,0,0,0,0,0,0,0,0,0,-1,1469,631,0,0
252,393,0,0,0,0,0,0,0,0,0,-1,1476,631,0,0
259,393,0,0,0,0,0,0,0,0,0,-1,1483,631,0,0
266,393,0,0,0,0,0,0,0,0,0,-1,1490,631,0,0
273,393,0,0,0,0,0,0,0,0,0,-1,1497,631,0,0
280,393,0,0,0,0,0,0,0,0,0,-1,1504,631,0,0
287,393,0,0,0,0,0,0,0,0,0,-1,1511,631,0,0
294,393,0,0,0,0,0,0,0,0,0,-1,1518,631,0,0
301,393,0,0,0,0,0,0,0,0,0,-1,1525,631,0,0
308,393,0,0,0,0,0,0,0,0,0,-1,1532,631,0,0
315,393,0,0,0,0,0,0,0,0,0,-1,1539,631,0,0
322,393,0,0,0,0,0,0,0,0,0,-1,1546,631,0,0
329,393,0,0,0,0,0,0,0,0,0,-1,1553,631,0,0
336,393,0,0,0,0,0,0,0,0,0,-1,1560,631,0,0
343,393,0,0,0,0,0,0,0,0,0,-1,1567,631,0,0
350,393,0,0,0,0,0,0,0,0,0,-1,1574,631,0,0
357,393,0,0,0,0,0,0,0,0,0,-1,1581,631,0,0
364,393,0,0,0,0,0,0,0,0,0,-1,1588,631,0,0
371,393,0,0,0,0,0,0,0,0,0,-1,1595,631,0,0
378,393,0,0,0,0,0,0,0,0,0,-1,1602,631,0,0
385,393,0,0,0,0,0,0,0,0,0,-1,1609,631,0,0
392,393,0,0,0,0,0,0,0,0,0,-1,1616,631,0,0
399,393,0,0,0,0,0,0,0,0,0,-1,1623,631,0,0
406,393,0,0,0,0,0,0,0,0,0,-1,1630,631,0,0
413,393,0,0,0,0,0,0,0,0,0,-1,1637,631,0,0
420,393,0,0,0,0,0,0,0,0,0,-1,1644,631,0,0
427,393,0,0,0,0,0,0,0,0,0,-1,1651,631,0,0
434,393,0,0,0,0,0,0,0,0,0,-1,1658,631,0,0
441,393,0,0,0,0,0,0,0,0,0,-1,1665,631,0,0
448,393,0,0,0,0,0,0,0,0,0,-1,1672,631,0,0
455,393,0,0,0,0,0,0,0,0,0,-1,1679,631,0,0
462,393,8.51099,1.89502,0,0,0,0,0,0,0,-1,1686,631,8.51103,-1.89504
469,393,9.39465,1.51703,0,0,0,0,0,0,0,-1,1693,631,9.39465,-1.51703
476,393,9.95569,1.185,0,0,0,0,0,0,0,-1,1700,631,9.95575,-1.18497
483,393,10.5267,0.887329,0,0,0,0,0,0,0,-1,1707,631,10.5267,-0.887321
490,393,10.9303,0.761414,0,0,0,0,0,0,0,-1,1714,631,10.9303,-0.761386
497,393,8.32153,1.88104,0,0,0,0,0,0,0,-1,1721,631,8.32148,-1.88103
504,393,9.46985,1.78711,0,0,0,0,0,0,0,-1,1728,631,9.46986,-1.78713
511,393,9.66565,-0.375977,0,0,0,0,0,0,0,-1,1735,631,9.66571,0.375949
518,393,7.01599,1.62482,0,0,0,0,0,0,0,-1,1742,631,7.01597,-1.62483
525,393,7.88245,-1.13422,0,0,0,0,0,0,0,-1,1749,631,7.88246,1.13423
532,393,7.06335,-1.18103,0,0,0,0,0,0,0,-1,1756,631,7.06332,1.18101
539,393,9.91626,-2.46301,0,0,0,0,0,0,0,-1,1763,631,9.91625,2.46302
546,393,16.4094,-8.04651,0,0,0,0,0,0,0,-1,1770,631,16.4094,8.04649
553,393,29.3391,-17.5282,0,0,0,0,0,0,0,-1,1777,631,29.3391,17.5282
560,393,29.6266,-16.4835,0.00369068,0.00150993,0.00150465,0.0044585,0.000742109,0.471853,0.00275844,0.0448886,1784,631,29.6266,16.4835
567,393,29.6119,-15.6118,0.00261649,0.000965314,0.00087151,0.00299137,0.000590434,0.406226,0.00182947,0.0169244,1791,631,29.612,15.6118
574,393,29.6294,-14.7956,0.00196078,0.00080059,0.000647907,0.00225033,0.000511033,0.420282,0.00136221,0.0168004,1798,631,29.6295,14.7956
581,393,29.5225,-13.9287,0.00153405,0.000882741,0.000646254,0.00193207,0.000484728,0.552011,0.00116071,0.0190714,1805,631,29.5225,13.9287
588,393,29.4458,-13.0268,0.00137768,0.00122938,0.000879908,0.00218655,0.0004205,0.743363,0.00133972,0.0210786,1812,631,29.4458,13.0268
595,393,29.443,-12.2523,0.00157923,0.0017855,0.00135517,0.00304146,0.00032327,0.823376,0.00192893,0.017228,1819,631,29.443,12.2522
602,393,29.4197,-11.436,0.00202643,0.00253366,0.00200356,0.00429959,0.000260499,0.848354,0.00278363,0.0186975,1826,631,29.4196,11.436
609,393,29.3446,-10.6077,0.00265682,0.00347413,0.00281875,0.0059137,0.000217261,0.857385,0.00387208,0.0171933,1833,631,29.3446,10.6077
616,393,29.2717,-9.76355,0.00347561,0.00467848,0.00377624,0.00790088,0.000253213,0.86437,0.00518491,0.0165059,1840,631,29.2717,9.76353
623,393,29.2684,-8.78186,0.00444859,0.00601643,0.0048525,0.0101479,0.0003171,0.865481,0.00666209,0.0357194,1847,631,29.2684,8.78187
630,393,29.5555,-7.90155,0,0,0,0,0,0,0,-1,1854,631,29.5555,7.90156
637,393,11.4626,0.608887,0,0,0,0,0,0,0,-1,1861,631,11.4627,-0.608904
644,393,8.97583,1.30585,0,0,0,0,0,0,0,-1,1868,631,8.97586,-1.30584
651,393,11.348,0.53302,0,0,0,0,0,0,0,-1,1875,631,11.348,-0.53305
658,393,9.21338,1.50836,0,0,0,0,0,0,0,-1,1882,631,9.21338,-1.50834
665,393,6.1001,2.32129,0,0,0,0,0,0,0,-1,1889,631,6.10012,-2.3213
672,393,7.14575,2.43225,0,0,0,0,0,0,0,-1,1896,631,7.14572,-2.43222
679,393,0,0,0,0,0,0,0,0,0,-1,1903,631,0,0
686,393,0,0,0,0,0,0,0,0,0,-1,1910,631,0,0
693,393,0,0,0,0,0,0,0,0,0,-1,1917,631,0,0
700,393,0,0,0,0,0,0,0,0,0,-1,1924,631,0,0
707,393,0,0,0,0,0,0,0,0,0,-1,1931,631,0,0
714,393,0,0,0,0,0,0,0,0,0,-1,1938,631,0,0
721,393,0,0,0,0,0,0,0,0,0,-1,1945,631,0,0
728,393,0,0,0,0,0,0,0,0,0,-1,1952,631,0,0
735,393,0,0,0,0,0,0,0,0,0,-1,1959,631,0,0
742,393,0,0,0,0,0,0,0,0,0,-1,1966,631,0,0
749,393,0,0,0,0,0,0,0,0,0,-1,1973,631,0,0
756,393,0,0,0,0,0,0,0,0,0,-1,1980,631,0,0
763,393,0,0,0,0,0,0,0,0,0,-1,1987,631,0,0
770,393,0,0,0,0,0,0,0,0,0,-1,1994,631,0,0
777,393,0,0,0,0,0,0,0,0,0,-1,2001,631,0,0
784,393,0,0,0,0,0,0,0,0,0,-1,2008,631,0,0
791,393,0,0,0,0,0,0,0,0,0,-1,2015,631,0,0
798,393,0,0,0,0,0,0,0,0,0,-1,2022,631,0,0
805,393,0,0,0,0,0,0,0,0,0,-1,2029,631,0,0
812,393,0,0,0,0,0,0,0,0,0,-1,2036,631,0,0
-700,386,0,0,0,0,0,0,0,0,0,-1,524,638,0,0
-693,386,0,0,0,0,0,0,0,0,0,-1,531,638,0,0
-686,386,0,0,0,0,0,0,0,0,0,-1,538,638,0,0
-679,386,0,0,0,0,0,0,0,0,0,-1,545,638,0,0
-672,386,0,0,0,0,0,0,0,0,0,-1,552,638,0,0
-665,386,0,0,0,0,0,0,0,0,0,-1,559,638,0,0
-658,386,0,0,0,0,0,0,0,0,0,-1,566,638,0,0
-651,386,0,0,0,0,0,0,0,0,0,-1,573,638,0,0
-644,386,0,0,0,0,0,0,0,0,0,-1,580,638,0,0
-637,386,0,0,0,0,0,0,0,0,0,-1,587,638,0,0
-630,386,0,0,0,0,0,0,0,0,0,-1,594,638,0,0
-623,386,0,0,0,0,0,0,0,0,0,-1,601,638,0,0
-616,386,0,0,0,0,0,0,0,0,0,-1,608,638,0,0
-609,386,0,0,0,0,0,0,0,0,0,-1,615,638,0,0
-602,386,0,0,0,0,0,0,0,0,0,-1,622,638,0,0
-595,386,0,0,0,0,0,0,0,0,0,-1,629,638,0,0
-588,386,0,0,0,0,0,0,0,0,0,-1,636,638,0,0
-581,386,0,0,0,0,0,0,0,0,0,-1,643,638,0,0
-574,386,0,0,0,0,0,0,0,0,0,-1,650,638,0,0
-567,386,0,0,0,0,0,0,0,0,0,-1,657,638,0,0
-560,386,-3.97229,-5.13898,0,0,0,0,0,0,0,-1,664,638,-3.97232,5.13897
-553,386,-4.94244,-5.54309,0,0,0,0,0,0,0,-1,671,638,-4.94242,5.5431
-546,386,-1.78668,1.72827,0,0,0,0,0,0,0,-1,678,638,-1.78668,-1.72829
-539,386,-0.879456,-2.90009,0,0,0,0,0,0,0,-1,685,638,-0.879442,2.90008
-532,386,-5.4884,1.73328,0,0,0,0,0,0,0,-1,692,638,-5.4884,-1.73325
-525,386,-6.64148,-1.50604,0,0,0,0,0,0,0,-1,699,638,-6.64149,1.50603
-518,386,-11.1217,-4.10382,0,0,0,0,0,0,0,-1,706,638,-11.1217,4.1038
-511,386,-13.0612,-5.05151,0,0,0,0,0,0,0,-1,713,638,-13.0612,5.05149
-504,386,-16.546,-8.6582,0,0,0,0,0,0,0,-1,720,638,-16.546,8.65819
-497,386,-16.4928,-9.92462,0.00185428,0.00187286,-0.00119904,0.00306265,0.000664492,-0.789273,0.00186026,0.0251065,727,638,-16.4928,9.92463
-490,386,-16.4561,-10.8332,0.00134368,0.00156895,-0.00101832,0.00248085,0.000431783,-0.84048,0.00153041,0.0133756,734,638,-16.4561,10.8332
-483,386,-16.4881,-11.6936,0.000951467,0.00121391,-0.000853274,0.00194599,0.000219385,-0.861694,0.00123074,0.0171312,741,638,-16.4881,11.6936
-476,386,-16.5493,-12.4964,0.000736929,0.000854904,-0.000710655,0.00150902,8.28181e-05,-0.826805,0.000979572,0.0161207,748,638,-16.5493,12.4964
-469,386,-16.6013,-13.2548,0.000706376,0.000479936,-0.000585614,0.00118961,-3.30253e-06,-0.689909,0.000794179,0.0120329,755,638,-16.6013,13.2548
-462,386,-16.6435,-14.0896,0.000803452,0.000101756,-0.000504318,0.00106696,-0.00016175,-0.481485,0.000770899,0.0111969,762,638,-16.6435,14.0896
-455,386,-16.6827,-14.9245,0.00108637,-8.41651e-05,-0.000524727,0.00128716,-0.000284948,-0.365455,0.000967181,0.0128575,769,638,-16.6827,14.9245
-448,386,-16.7296,-15.7294,0.00156819,-0.00017399,-0.000629717,0.00177197,-0.000377768,-0.312967,0.00132531,0.0130022,776,638,-16.7295,15.7294
-441,386,-16.784,-16.5234,0.00220145,-0.000106295,-0.000850944,0.00248129,-0.000386133,-0.317716,0.00179679,0.014377,783,638,-16.784,16.5234
-434,386,-16.8004,-17.3757,0.00307529,0.000252401,-0.00126634,0.0035601,-0.000232411,-0.365631,0.00245454,0.0326099,790,638,-16.8003,17.3757
-427,386,-16.7548,-18.2286,0,0,0,0,0,0,0,-1,797,638,-16.7548,18.2286
-420,386,-14.5338,-16.0451,0,0,0,0,0,0,0,-1,804,638,-14.5338,16.0451
-413,386,-5.45691,-5.35785,0,0,0,0,0,0,0,-1,811,638,-5.45691,5.35783
-406,386,-4.51135,-4.10999,0,0,0,0,0,0,0,-1,818,638,-4.51135,4.10996
-399,386,-3.57117,-3.42126,0,0,0,0,0,0,0,-1,825,638,-3.57116,3.42129
-392,386,-4.00977,0.403625,0,0,0,0,0,0,0,-1,832,638,-4.0098,-0.403616
-385,386,-3.2406,-0.118469,0,0,0,0,0,0,0,-1,839,638,-3.24058,0.118485
-378,386,-2.55243,-1.22748,0,0,0,0,0,0,0,-1,846,638,-2.55243,1.22748
-371,386,-7.95807,-0.330261,0,0,0,0,0,0,0,-1,853,638,-7.95806,0.330284
-364,386,-8.90637,-0.665955,0,0,0,0,0,0,0,-1,860,638,-8.90635,0.665951
-357,386,-9.10364,-0.388733,0,0,0,0,0,0,0,-1,867,638,-9.10364,0.388744
-350,386,0,0,0,0,0,0,0,0,0,-1,874,638,0,0
-343,386,0,0,0,0,0,0,0,0,0,-1,881,638,0,0
-336,386,0,0,0,0,0,0,0,0,0,-1,888,638,0,0
-329,386,0,0,0,0,0,0,0,0,0,-1,895,638,0,0
-322,386,0,0,0,0,0,0,0,0,0,-1,902,638,0,0
-315,386,0,0,0,0,0,0,0,0,0,-1,909,638,0,0
-308,386,0,0,0,0,0,0,0,0,0,-1,916,638,0,0
-301,386,0,0,0,0,0,0,0,0,0,-1,923,638,0,0
-294,386,0,0,0,0,0,0,0,0,0,-1,930,638,0,0
-287,386,0,0,0,0,0,0,0,0,0,-1,937,638,0,0
-280,386,0,0,0,0,0,0,0,0,0,-1,944,638,0,0
-273,386,0,0,0,0,0,0,0,0,0,-1,951,638,0,0
-266,386,0,0,0,0,0,0,0,0,0,-1,958,638,0,0
-259,386,0,0,0,0,0,0,0,0,0,-1,965,638,0,0
-252,386,0,0,0,0,0,0,0,0,0,-1,972,638,0,0
-245,386,0,0,0,0,0,0,0,0,0,-1,979,638,0,0
-238,386,0,0,0,0,0,0,0,0,0,-1,986,638,0,0
-231,386,0,0,0,0,0,0,0,0,0,-1,993,638,0,0
-224,386,0,0,0,0,0,0,0,0,0,-1,1000,638,0,0
-217,386,0,0,0,0,0,0,0,0,0,-1,1007,638,0,0
-210,386,0,0,0,0,0,0,0,0,0,-1,1014,638,0,0
-203,386,0,0,0,0,0,0,0,0,0,-1,1021,638,0,0
-196,386,0,0,0,0,0,0,0,0,0,-1,1028,638,0,0
-189,386,0,0,0,0,0,0,0,0,0,-1,1035,638,0,0
-182,386,0,0,0,0,0,0,0,0,0,-1,1042,638,0,0
-175,386,0,0,0,0,0,0,0,0,0,-1,1049,638,0,0
-168,386,0,0,0,0,0,0,0,0,0,-1,1056,638,0,0
-161,386,0,0,0,0,0,0,0,0,0,-1,1063,638,0,0
-154,386,0,0,0,0,0,0,0,0,0,-1,1070,638,0,0
-147,386,0,0,0,0,0,0,0,0,0,-1,1077,638,0,0
-140,386,0,0,0,0,0,0,0,0,0,-1,1084,638,0,0
-133,386,0,0,0,0,0,0,0,0,0,-1,1091,638,0,0
-126,386,0,0,0,0,0,0,0,0,0,-1,1098,638,0,0
-119,386,0,0,0,0,0,0,0,0,0,-1,1105,638,0,0
-112,386,0,0,0,0,0,0,0,0,0,-1,1112,638,0,0
-105,386,0,0,0,0,0,0,0,0,0,-1,1119,638,0,0
-98,386,0,0,0,0,0,0,0,0,0,-1,1126,638,0,0
-91,386,0,0,0,0,0,0,0,0,0,-1,1133,638,0,0
-84,386,0,0,0,0,0,0,0,0,0,-1,1140,638,0,0
-77,386,0,0,0,0,0,0,0,0,0,-1,1147,638,0,0
-70,386,0,0,0,0,0,0,0,0,0,-1,1154,638,0,0
-63,386,0,0,0,0,0,0,0,0,0,-1,1161,638,0,0
-56,386,0,0,0,0,0,0,0,0,0,-1,1168,638,0,0
-49,386,0,0,0,0,0,0,0,0,0,-1,1175,638,0,0
-42,386,0,0,0,0,0,0,0,0,0,-1,1182,638,0,0
-35,386,0,0,0,0,0,0,0,0,0,-1,1189,638,0,0
-28,386,0,0,0,0,0,0,0,0,0,-1,1196,638,0,0
-21,386,0,0,0,0,0,0,0,0,0,-1,1203,638,0,0
-14,386,0,0,0,0,0,0,0,0,0,-1,1210,638,0,0
-7,386,0,0,0,0,0,0,0,0,0,-1,1217,638,0,0
0,386,0,0,0,0,0,0,0,0,0,-1,1224,638,0,0
7,386,0,0,0,0,0,0,0,0,0,-1,1231,638,0,0
14,386,0,0,0,0,0,0,0,0,0,-1,1238,638,0,0
21,386,0,0,0,0,0,0,0,0,0,-1,1245,638,0,0
28,386,0,0,0,0,0,0,0,0,0,-1,1252,638,0,0
35,386,0,0,0,0,0,0,0,0,0,-1,1259,638,0,0
42,386,0,0,0,0,0,0,0,0,0,-1,1266,638,0,0
49,386,0,0,0,0,0,0,0,0,0,-1,1273,638,0,0
56,386,0,0,0,0,0,0,0,0,0,-1,1280,638,0,0
63,386,0,0,0,0,0,0,0,0,0,-1,1287,638,0,0
70,386,0,0,0,0,0,0,0,0,0,-1,1294,638,0,0
77,386,0,0,0,0,0,0,0,0,0,-1,1301,638,0,0
84,386,0,0,0,0,0,0,0,0,0,-1,1308,638,0,0
91,386,0,0,0,0,0,0,0,0,0,-1,1315,638,0,0
98,386,0,0,0,0,0,0,0,0,0,-1,1322,638,0,0
105,386,0,0,0,0,0,0,0,0,0,-1,1329,638,0,0
112,386,0,0,0,0,0,0,0,0,0,-1,1336,638,0,0
119,386,0,0,0,0,0,0,0,0,0,-1,1343,638,0,0
126,386,0,0,0,0,0,0,0,0,0,-1,1350,638,0,0
133,386,0,0,0,0,0,0,0,0,0,-1,1357,638,0,0
140,386,0,0,0,0,0,0,0,0,0,-1,1364,638,0,0
147,386,0,0,0,0,0,0,0,0,0,-1,1371,638,0,0
154,386,0,0,0,0,0,0,0,0,0,-1,1378,638,0,0
161,386,0,0,0,0,0,0,0,0,0,-1,1385,638,0,0
168,386,0,0,0,0,0,0,0,0,0,-1,1392,638,0,0
175,386,0,0,0,0,0,0,0,0,0,-1,1399,638,0,0
182,386,0,0,0,0,0,0,0,0,0,-1,1406,638,0,0
189,386,0,0,0,0,0,0,0,0,0,-1,1413,638,0,0
196,386,0,0,0,0,0,0,0,0,0,-1,1420,638,0,0
203,386,0,0,0,0,0,0,0,0,0,-1,1427,638,0,0
210,386,0,0,0,0,0,0,0,0,0,-1,1434,638,0,0
217,386,0,0,0,0,0,0,0,0,0,-1,1441,638,0,0
224,386,0,0,0,0,0,0,0,0,0,-1,1448,638,0,0
231,386,0,0,0,0,0,0,0,0,0,-1,1455,638,0,0
238,386,0,0,0,0,0,0,0,0,0,-1,1462,638,0,0
245,386,0,0,0,0,0,0,0,0,0,-1,1469,638,0,0
252,386,0,0,0,0,0,0,0,0,0,-1,1476,638,0,0
259,386,0,0,0,0,0,0,0,0,0,-1,1483,638,0,0
266,386,0,0,0,0,0,0,0,0,0,-1,1490,638,0,0
273,386,0,0,0,0,0,0,0,0,0,-1,1497,638,0,0
280,386,0,0,0,0,0,0,0,0,0,-1,1504,638,0,0
287,386,0,0,0,0,0,0,0,0,0,-1,1511,638,0,0
294,386,0,0,0,0,0,0,0,0,0,-1,1518,638,0,0
301,386,0,0,0,0,0,0,0,0,0,-1,1525,638,0,0
308,386,0,0,0,0,0,0,0,0,0,-1,1532,638,0,0
315,386,0,0,0,0,0,0,0,0,0,-1,1539,638,0,0
322,386,0,0,0,0,0,0,0,0,0,-1,1546,638,0,0
329,386,0,0,0,0,0,0,0,0,0,-1,1553,638,0,0
336,386,0,0,0,0,0,0,0,0,0,-1,1560,638,0,0
343,386,0,0,0,0,0,0,0,0,0,-1,1567,638,0,0
350,386,0,0,0,0,0,0,0,0,0,-1,1574,638,0,0
357,386,0,0,0,0,0,0,0,0,0,-1,1581,638,0,0
364,386,0,0,0,0,0,0,0,0,0,-1,1588,638,0,0
371,386,0,0,0,0,0,0,0,0,0,-1,1595,638,0,0
378,386,0,0,0,0,0,0,0,0,0,-1,1602,638,0,0
385,386,0,0,0,0,0,0,0,0,0,-1,1609,638,0,0
392,386,0,0,0,0,0,0,0,0,0,-1,1616,638,0,0
399,386,0,0,0,0,0,0,0,0,0,-1,1623,638,0,0
406,386,0,0,0,0,0,0,0,0,0,-1,1630,638,0,0
413,386,0,0,0,0,0,0,0,0,0,-1,1637,638,0,0
420,386,0,0,0,0,0,0,0,0,0,-1,1644,638,0,0
427,386,0,0,0,0,0,0,0,0,0,-1,1651,638,0,0
434,386,0,0,0,0,0,0,0,0,0,-1,1658,638,0,0
441,386,0,0,0,0,0,0,0,0,0,-1,1665,638,0,0
448,386,0,0,0,0,0,0,0,0,0,-1,1672,638,0,0
455,386,0,0,0,0,0,0,0,0,0,-1,1679,638,0,0
462,386,0,0,0,0,0,0,0,0,0,-1,1686,638,0,0
469,386,9.84692,1.55804,0,0,0,0,0,0,0,-1,1693,638,9.84691,-1.55807
476,386,10.6145,0.986511,0,0,0,0,0,0,0,-1,1700,638,10.6145,-0.986529
483,386,11.4113,0.732971,0,0,0,0,0,0,0,-1,1707,638,11.4112,-0.732958
490,386,7.79785,1.79572,0,0,0,0,0,0,0,-1,1714,638,7.79788,-1.7957
497,386,8.96362,1.77081,0,0,0,0,0,0,0,-1,1721,638,8.96357,-1.77081
504,386,10.0555,1.69427,0,0,0,0,0,0,0,-1,1728,638,10.0555,-1.69426
511,386,11.2172,1.534,0,0,0,0,0,0,0,-1,1735,638,11.2172,-1.53398
518,386,7.41553,1.75238,0,0,0,0,0,0,0,-1,1742,638,7.41547,-1.75238
525,386,8.82422,-1.1449,0,0,0,0,0,0,0,-1,1749,638,8.82426,1.14492
532,386,10.6432,0.617371,0,0,0,0,0,0,0,-1,1756,638,10.6432,-0.617359
539,386,9.62061,-0.393616,0,0,0,0,0,0,0,-1,1763,638,9.62059,0.393634
546,386,10.7963,-2.854,0,0,0,0,0,0,0,-1,1770,638,10.7962,2.854
553,386,16.9939,-7.27942,0,0,0,0,0,0,0,-1,1777,638,16.9939,7.27944
560,386,30.3646,-16.5994,0,0,0,0,0,0,0,-1,1784,638,30.3647,16.5994
567,386,30.3911,-15.5928,0,0,0,0,0,0,0,-1,1791,638,30.3911,15.5927
574,386,30.4202,-14.7197,0.00192442,0.000722681,0.000409759,0.00205084,0.000596263,0.299253,0.00121813,0.0154562,1798,638,30.4202,14.7197
581,386,30.354,-13.9069,0.00136575,0.000698334,0.000322578,0.00149618,0.000567911,0.38422,0.000872129,0.0162986,1805,638,30.354,13.9068
588,386,30.3231,-13.0526,0.00114697,0.000909198,0.000482101,0.00152463,0.00053154,0.664511,0.000893587,0.0146307,1812,638,30.3231,13.0526
595,386,30.2698,-12.2321,0.00130312,0.00134989,0.000885322,0.00221213,0.000440873,0.798601,0.00135198,0.0155628,1819,638,30.2697,12.2321
602,386,30.2162,-11.4119,0.00169294,0.00196668,0.00144478,0.00328106,0.000378567,0.832624,0.00207274,0.0171353,1826,638,30.2162,11.4119
609,386,30.2014,-10.5943,0.00222092,0.00274236,0.00212744,0.004625,0.000338283,0.846371,0.00297698,0.0159503,1833,638,30.2014,10.5943
616,386,30.1584,-9.73846,0.0028949,0.00373992,0.0029048,0.00625277,0.000382041,0.857618,0.00404718,0.0127994,1840,638,30.1584,9.73849
623,386,30.0892,-8.86957,0.00368927,0.00486069,0.00378822,0.00810821,0.000441745,0.862097,0.00526441,0.0115056,1847,638,30.0893,8.86955
630,386,30.17,-7.99377,0.00447826,0.00600725,0.00462385,0.00992937,0.000556131,0.867326,0.00644221,0.0391302,1854,638,30.1701,7.99376
637,386,30.3258,-7.08954,0,0,0,0,0,0,0,-1,1861,638,30.3258,7.08957
644,386,11.6521,0.723328,0,0,0,0,0,0,0,-1,1868,638,11.6521,-0.723355
651,386,9.3866,1.31097,0,0,0,0,0,0,0,-1,1875,638,9.3866,-1.31095
658,386,12.0731,-0.00415039,0,0,0,0,0,0,0,-1,1882,638,12.0731,0.00412803
665,386,6.33167,1.78601,0,0,0,0,0,0,0,-1,1889,638,6.33171,-1.78601
672,386,7.23352,2.14435,0,0,0,0,0,0,0,-1,1896,638,7.23353,-2.14433
679,386,8.07764,2.57104,0,0,0,0,0,0,0,-1,1903,638,8.07758,-2.57103
686,386,0,0,0,0,0,0,0,0,0,-1,1910,638,0,0
693,386,0,0,0,0,0,0,0,0,0,-1,1917,638,0,0
700,386,0,0,0,0,0,0,0,0,0,-1,1924,638,0,0
707,386,0,0,0,0,0,0,0,0,0,-1,1931,638,0,0
714,386,0,0,0,0,0,0,0,0,0,-1,1938,638,0,0
721,386,0,0,0,0,0,0,0,0,0,-1,1945,638,0,0
728,386,0,0,0,0,0,0,0,0,0,-1,1952,638,0,0
735,386,0,0,0,0,0,0,0,0,0,-1,1959,638,0,0
742,386,0,0,0,0,0,0,0,0,0,-1,1966,638,0,0
749,386,0,0,0,0,0,0,0,0,0,-1,1973,638,0,0
756,386,0,0,0,0,0,0,0,0,0,-1,1980,638,0,0
763,386,0,0,0,0,0,0,0,0,0,-1,1987,638,0,0
770,386,0,0,0,0,0,0,0,0,0,-1,1994,638,0,0
777,386,0,0,0,0,0,0,0,0,0,-1,2001,638,0,0
784,386,0,0,0,0,0,0,0,0,0,-1,2008,638,0,0
791,386,0,0,0,0,0,0,0,0,0,-1,2015,638,0,0
798,386,0,0,0,0,0,0,0,0,0,-1,2022,638,0,0
805,386,0,0,0,0,0,0,0,0,0,-1,2029,638,0,0
812,386,0,0,0,0,0,0,0,0,0,-1,2036,638,0,0
-700,379,0,0,0,0,0,0,0,0,0,-1,524,645,0,0
-693,379,0,0,0,0,0,0,0,0,0,-1,531,645,0,0
-686,379,0,0,0,0,0,0,0,0,0,-1,538,645,0,0
-679,379,0,0,0,0,0,0,0,0,0,-1,545,645,0,0
-672,379,0,0,0,0,0,0,0,0,0,-1,552,645,0,0
-665,379,0,0,0,0,0,0,0,0,0,-1,559,645,0,0
-658,379,0,0,0,0,0,0,0,0,0,-1,566,645,0,0
-651,379,0,0,0,0,0,0,0,0,0,-1,573,645,0,0
-644,379,0,0,0,0,0,0,0,0,0,-1,580,645,0,0
-637,379,0,0,0,0,0,0,0,0,0,-1,587,645,0,0
-630,379,0,0,0,0,0,0,0,0,0,-1,594,645,0,0
-623,379,0,0,0,0,0,0,0,0,0,-1,601,645,0,0
-616,379,0,0,0,0,0,0,0,0,0,-1,608,645,0,0
-609,379,0,0,0,0,0,0,0,0,0,-1,615,645,0,0
-602,379,0,0,0,0,0,0,0,0,0,-1,622,645,0,0
-595,379,0,0,0,0,0,0,0,0,0,-1,629,645,0,0
-588,379,0,0,0,0,0,0,0,0,0,-1,636,645,0,0
-581,379,0,0,0,0,0,0,0,0,0,-1,643,645,0,0
-574,379,0,0,0,0,0,0,0,0,0,-1,650,645,0,0
-567,379,-8.78058,0.59668,0,0,0,0,0,0,0,-1,657,645,-8.7806,-0.596692
-560,379,-9.53485,-0.211304,0,0,0,0,0,0,0,-1,664,645,-9.53487,0.211282
-553,379,-5.17108,-4.53119,0,0,0,0,0,0,0,-1,671,645,-5.17106,4.53117
-546,379,-6.23053,-4.92102,0,0,0,0,0,0,0,-1,678,645,-6.23054,4.92105
-539,379,-0.71698,-2.19427,0,0,0,0,0,0,0,-1,685,645,-0.716959,2.19427
-532,379,-7.69611,0.217224,0,0,0,0,0,0,0,-1,692,645,-7.69614,-0.217204
-525,379,-7.09833,-1.13043,0,0,0,0,0,0,0,-1,699,645,-7.0983,1.13041
-518,379,-13.126,-5.33893,0,0,0,0,0,0,0,-1,706,645,-13.126,5.33895
-511,379,-17.1713,-8.19995,0,0,0,0,0,0,0,-1,713,645,-17.1713,8.19997
-504,379,-17.1598,-9.12695,0.00242872,0.00107205,-0.000859381,0.00284522,0.000655542,-0.451298,0.00172045,0.0341165,720,645,-17.1598,9.12694
-497,379,-17.2536,-9.91199,0.00182253,0.00097229,-0.000694087,0.00221134,0.000583478,-0.510624,0.00132333,0.0155628,727,645,-17.2536,9.912
-490,379,-17.2767,-10.7744,0.00135032,0.000753423,-0.000531378,0.00166133,0.000442418,-0.529526,0.000993476,0.0113983,734,645,-17.2767,10.7744
-483,379,-17.3143,-11.6252,0.0010078,0.000518225,-0.000422213,0.00125105,0.00027497,-0.522693,0.000759162,0.0132417,741,645,-17.3142,11.6252
-476,379,-17.3474,-12.4171,0.00083939,0.000281653,-0.000356577,0.0010132,0.000107846,-0.453542,0.00064254,0.0134615,748,645,-17.3474,12.4171
-469,379,-17.3998,-13.2009,0.000851109,4.02455e-05,-0.000345488,0.000978347,-8.6992e-05,-0.35287,0.000683077,0.0126257,755,645,-17.3999,13.2009
-462,379,-17.4557,-14.0372,0.000997875,-0.000194113,-0.000404518,0.00112219,-0.000318427,-0.298153,0.000873827,0.00978637,762,645,-17.4557,14.0372
-455,379,-17.5132,-14.8484,0.00135393,-0.000258981,-0.000570751,0.00153547,-0.000440516,-0.307946,0.0011978,0.010053,769,645,-17.5132,14.8484
-448,379,-17.5407,-15.6344,0.00192076,-0.000243071,-0.000832716,0.00220411,-0.000526424,-0.327986,0.00167272,0.0120351,776,645,-17.5407,15.6344
-441,379,-17.5699,-16.5099,0.00270956,-3.97782e-05,-0.00128901,0.00321938,-0.000549591,-0.376626,0.00235096,0.0223403,783,645,-17.57,16.5099
-434,379,-17.5441,-17.5573,0,0,0,0,0,0,0,-1,790,645,-17.5441,17.5573
-427,379,-4.16113,-4.13452,0,0,0,0,0,0,0,-1,797,645,-4.16116,4.1345
-420,379,-4.63953,-3.46869,0,0,0,0,0,0,0,-1,804,645,-4.63953,3.46872
-413,379,-4.62543,-3.7912,0,0,0,0,0,0,0,-1,811,645,-4.62541,3.79123
-406,379,-4.64063,-4.38489,0,0,0,0,0,0,0,-1,818,645,-4.64065,4.3849
-399,379,-2.93536,-1.40118,0,0,0,0,0,0,0,-1,825,645,-2.93534,1.40119
-392,379,-4.16711,-0.466003,0,0,0,0,0,0,0,-1,832,645,-4.16714,0.465992
-385,379,-3.51862,0.441101,0,0,0,0,0,0,0,-1,839,645,-3.51859,-0.441072
-378,379,-5.3504,0.212219,0,0,0,0,0,0,0,-1,846,645,-5.35038,-0.212241
-371,379,-4.32092,-0.186707,0,0,0,0,0,0,0,-1,853,645,-4.3209,0.186707
-364,379,-3.40887,-0.549805,0,0,0,0,0,0,0,-1,860,645,-3.4089,0.549802
-357,379,0,0,0,0,0,0,0,0,0,-1,867,645,0,0
-350,379,0,0,0,0,0,0,0,0,0,-1,874,645,0,0
-343,379,0,0,0,0,0,0,0,0,0,-1,881,645,0,0
-336,379,0,0,0,0,0,0,0,0,0,-1,888,645,0,0
-329,379,0,0,0,0,0,0,0,0,0,-1,895,645,0,0
-322,379,0,0,0,0,0,0,0,0,0,-1,902,645,0,0
-315,379,0,0,0,0,0,0,0,0,0,-1,909,645,0,0
-308,379,0,0,0,0,0,0,0,0,0,-1,916,645,0,0
-301,379,0,0,0,0,0,0,0,0,0,-1,923,645,0,0
-294,379,0,0,0,0,0,0,0,0,0,-1,930,645,0,0
-287,379,0,0,0,0,0,0,0,0,0,-1,937,645,0,0
-280,379,0,0,0,0,0,0,0,0,0,-1,944,645,0,0
-273,379,0,0,0,0,0,0,0,0,0,-1,951,645,0,0
-266,379,0,0,0,0,0,0,0,0,0,-1,958,645,0,0
-259,379,0,0,0,0,0,0,0,0,0,-1,965,645,0,0
-252,379,0,0,0,0,0,0,0,0,0,-1,972,645,0,0
-245,379,0,0,0,0,0,0,0,0,0,-1,979,645,0,0
-238,379,0,0,0,0,0,0,0,0,0,-1,986,645,0,0
-231,379,0,0,0,0,0,0,0,0,0,-1,993,645,0,0
-224,379,0,0,0,0,0,0,0,0,0,-1,1000,645,0,0
-217,379,0,0,0,0,0,0,0,0,0,-1,1007,645,0,0
-210,379,0,0,0,0,0,0,0,0,0,-1,1014,645,0,0
-203,379,0,0,0,0,0,0,0,0,0,-1,1021,645,0,0
-196,379,0,0,0,0,0,0,0,0,0,-1,1028,645,0,0
-189,379,0,0,0,0,0,0,0,0,0,-1,1035,645,0,0
-182,379,0,0,0,0,0,0,0,0,0,-1,1042,645,0,0
-175,379,0,0,0,0,0,0,0,0,0,-1,1049,645,0,0
-168,379,0,0,0,0,0,0,0,0,0,-1,1056,645,0,0
-161,379,0,0,0,0,0,0,0,0,0,-1,1063,645,0,0
-154,379,0,0,0,0,0,0,0,0,0,-1,1070,645,0,0
-147,379,0,0,0,0,0,0,0,0,0,-1,1077,645,0,0
-140,379,0,0,0,0,0,0,0,0,0,-1,1084,645,0,0
-133,379,0,0,0,0,0,0,0,0,0,-1,1091,645,0,0
-126,379,0,0,0,0,0,0,0,0,0,-1,1098,645,0,0
-119,379,0,0,0,0,0,0,0,0,0,-1,1105,645,0,0
-112,379,0,0,0,0,0,0,0,0,0,-1,1112,645,0,0
-105,379,0,0,0,0,0,0,0,0,0,-1,1119,645,0,0
-98,379,0,0,0,0,0,0,0,0,0,-1,1126,645,0,0
-91,379,0,0,0,0,0,0,0,0,0,-1,1133,645,0,0
-84,379,0,0,0,0,0,0,0,0,0,-1,1140,645,0,0
-77,379,0,0,0,0,0,0,0,0,0,-1,1147,645,0,0
-70,379,0,0,0,0,0,0,0,0,0,-1,1154,645,0,0
-63,379,0,0,0,0,0,0,0,0,0,-1,1161,645,0,0
-56,379,0,0,0,0,0,0,0,0,0,-1,1168,645,0,0
-49,379,0,0,0,0,0,0,0,0,0,-1,1175,645,0,0
-42,379,0,0,0,0,0,0,0,0,0,-1,1182,645,0,0
-35,379,0,0,0,0,0,0,0,0,0,-1,1189,645,0,0
-28,379,0,0,0,0,0,0,0,0,0,-1,1196,645,0,0
-21,379,0,0,0,0,0,0,0,0,0,-1,1203,645,0,0
-14,379,0,0,0,0,0,0,0,0,0,-1,1210,645,0,0
-7,379,0,0,0,0,0,0,0,0,0,-1,1217,645,0,0
0,379,0,0,0,0,0,0,0,0,0,-1,1224,645,0,0
7,379,0,0,0,0,0,0,0,0,0,-1,1231,645,0,0
14,379,0,0,0,0,0,0,0,0,0,-1,1238,645,0,0
21,379,0,0,0,0,0,0,0,0,0,-1,1245,645,0,0
28,379,0,0,0,0,0,0,0,0,0,-1,1252,645,0,0
35,379,0,0,0,0,0,0,0,0,0,-1,1259,645,0,0
42,379,0,0,0,0,0,0,0,0,0,-1,1266,645,0,0
49,379,0,0,0,0,0,0,0,0,0,-1,1273,645,0,0
56,379,0,0,0,0,0,0,0,0,0,-1,1280,645,0,0
63,379,0,0,0,0,0,0,0,0,0,-1,1287,645,0,0
70,379,0,0,0,0,0,0,0,0,0,-1,1294,645,0,0
77,379,0,0,0,0,0,0,0,0,0,-1,1301,645,0,0
84,379,0,0,0,0,0,0,0,0,0,-1,1308,645,0,0
91,379,0,0,0,0,0,0,0,0,0,-1,1315,645,0,0
98,379,0,0,0,0,0,0,0,0,0,-1,1322,645,0,0
105,379,0,0,0,0,0,0,0,0,0,-1,1329,645,0,0
112,379,0,0,0,0,0,0,0,0,0,-1,1336,645,0,0
119,379,0,0,0,0,0,0,0,0,0,-1,1343,645,0,0
126,379,0,0,0,0,0,0,0,0,0,-1,1350,645,0,0
133,379,0,0,0,0,0,0,0,0,0,-1,1357,645,0,0
140,379,0,0,0,0,0,0,0,0,0,-1,1364,645,0,0
147,379,0,0,0,0,0,0,0,0,0,-1,1371,645,0,0
154,379,0,0,0,0,0,0,0,0,0,-1,1378,645,0,0
161,379,0,0,0,0,0,0,0,0,0,-1,1385,645,0,0
168,379,0,0,0,0,0,0,0,0,0,-1,1392,645,0,0
175,379,0,0,0,0,0,0,0,0,0,-1,1399,645,0,0
182,379,0,0,0,0,0,0,0,0,0,-1,1406,645,0,0
189,379,0,0,0,0,0,0,0,0,0,-1,1413,645,0,0
196,379,0,0,0,0,0,0,0,0,0,-1,1420,645,0,0
203,379,0,0,0,0,0,0,0,0,0,-1,1427,645,0,0
210,379,0,0,0,0,0,0,0,0,0,-1,1434,645,0,0
217,379,0,0,0,0,0,0,0,0,0,-1,1441,645,0,0
224,379,0,0,0,0,0,0,0,0,0,-1,1448,645,0,0
231,379,0,0,0,0,0,0,0,0,0,-1,1455,645,0,0
238,379,0,0,0,0,0,0,0,0,0,-1,1462,645,0,0
245,379,0,0,0,0,0,0,0,0,0,-1,1469,645,0,0
252,379,0,0,0,0,0,0,0,0,0,-1,1476,645,0,0
259,379,0,0,0,0,0,0,0,0,0,-1,1483,645,0,0
266,379,0,0,0,0,0,0,0,0,0,-1,1490,645,0,0
273,379,0,0,0,0,0,0,0,0,0,-1,1497,645,0,0
280,379,0,0,0,0,0,0,0,0,0,-1,1504,645,0,0
287,379,0,0,0,0,0,0,0,0,0,-1,1511,645,0,0
294,379,0,0,0,0,0,0,0,0,0,-1,1518,645,0,0
301,379,0,0,0,0,0,0,0,0,0,-1,1525,645,0,0
308,379,0,0,0,0,0,0,0,0,0,-1,1532,645,0,0
315,379,0,0,0,0,0,0,0,0,0,-1,1539,645,0,0
322,379,0,0,0,0,0,0,0,0,0,-1,1546,645,0,0
329,379,0,0,0,0,0,0,0,0,0,-1,1553,645,0,0
336,379,0,0,0,0,0,0,0,0,0,-1,1560,645,0,0
343,379,0,0,0,0,0,0,0,0,0,-1,1567,645,0,0
350,379,0,0,0,0,0,0,0,0,0,-1,1574,645,0,0
357,379,0,0,0,0,0,0,0,0,0,-1,1581,645,0,0
364,379,0,0,0,0,0,0,0,0,0,-1,1588,645,0,0
371,379,0,0,0,0,0,0,0,0,0,-1,1595,645,0,0
378,379,0,0,0,0,0,0,0,0,0,-1,1602,645,0,0
385,379,0,0,0,0,0,0,0,0,0,-1,1609,645,0,0
392,379,0,0,0,0,0,0,0,0,0,-1,1616,645,0,0
399,379,0,0,0,0,0,0,0,0,0,-1,1623,645,0,0
406,379,0,0,0,0,0,0,0,0,0,-1,1630,645,0,0
413,379,0,0,0,0,0,0,0,0,0,-1,1637,645,0,0
420,379,0,0,0,0,0,0,0,0,0,-1,1644,645,0,0
427,379,0,0,0,0,0,0,0,0,0,-1,1651,645,0,0
434,379,0,0,0,0,0,0,0,0,0,-1,1658,645,0,0
441,379,0,0,0,0,0,0,0,0,0,-1,1665,645,0,0
448,379,0,0,0,0,0,0,0,0,0,-1,1672,645,0,0
455,379,0,0,0,0,0,0,0,0,0,-1,1679,645,0,0
462,379,0,0,0,0,0,0,0,0,0,-1,1686,645,0,0
469,379,0,0,0,0,0,0,0,0,0,-1,1693,645,0,0
476,379,11.1787,0.830383,0,0,0,0,0,0,0,-1,1700,645,11.1787,-0.830365
483,379,7.4231,1.54321,0,0,0,0,0,0,0,-1,1707,645,7.42314,-1.54324
490,379,8.52881,1.56677,0,0,0,0,0,0,0,-1,1714,645,8.52878,-1.56677
497,379,9.63599,1.49573,0,0,0,0,0,0,0,-1,1721,645,9.63604,-1.4957
504,379,10.0833,1.35229,0,0,0,0,0,0,0,-1,1728,645,10.0832,-1.35227
511,379,8.14343,1.59912,0,0,0,0,0,0,0,-1,1735,645,8.14347,-1.59912
518,379,12.7955,-0.324097,0,0,0,0,0,0,0,-1,1742,645,12.7955,0.324101
525,379,6.03711,1.10352,0,0,0,0,0,0,0,-1,1749,645,6.03711,-1.10351
532,379,8.70947,0.887817,0,0,0,0,0,0,0,-1,1756,645,8.70953,-0.887808
539,379,9.87097,0.111389,0,0,0,0,0,0,0,-1,1763,645,9.87095,-0.111395
546,379,8.42383,-0.730652,0,0,0,0,0,0,0,-1,1770,645,8.42378,0.730638
553,379,19.2905,-7.67834,0,0,0,0,0,0,0,-1,1777,645,19.2905,7.67837
560,379,22.5734,-10.4749,0,0,0,0,0,0,0,-1,1784,645,22.5734,10.4749
567,379,31.2375,-15.5334,0,0,0,0,0,0,0,-1,1791,645,31.2375,15.5334
574,379,31.2303,-14.6512,0.00184272,0.000512042,7.21195e-05,0.00184662,0.000508145,0.0539868,0.00110148,0.0180144,1798,645,31.2303,14.6512
581,379,31.2158,-13.8452,0.00120415,0.000471158,-2.14737e-05,0.00120478,0.000470529,-0.0292625,0.000701112,0.0160433,1805,645,31.2158,13.8452
588,379,31.1791,-12.9992,0.000966013,0.000593486,0.00012445,0.00100376,0.000555737,0.294511,0.000580634,0.0173773,1812,645,31.179,12.9992
595,379,31.1145,-12.1847,0.00108882,0.000971621,0.000492199,0.0015259,0.000534547,0.726148,0.000894039,0.015146,1819,645,31.1145,12.1847
602,379,31.0585,-11.382,0.00142377,0.0014995,0.000980273,0.00244264,0.000480632,0.804701,0.00149421,0.0167664,1826,645,31.0585,11.382
609,379,31.0093,-10.5767,0.00184617,0.00214515,0.0015476,0.00355046,0.000440861,0.833547,0.00223456,0.0181305,1833,645,31.0093,10.5767
616,379,30.9518,-9.72473,0.00236875,0.0029654,0.00216801,0.00485551,0.000478637,0.853769,0.00308985,0.0142686,1840,645,30.9517,9.72472
623,379,30.9285,-8.82025,0.00299449,0.00386707,0.00287647,0.00634016,0.000521408,0.860662,0.00406413,0.0127259,1847,645,30.9284,8.82025
630,379,30.8894,-7.98004,0.00355787,0.00479292,0.00352387,0.00775296,0.000597832,0.872138,0.00498133,0.0144055,1854,645,30.8894,7.98006
637,379,30.8728,-7.03015,0.00392844,0.0058568,0.00414207,0.00914542,0.000639814,0.89975,0.00589526,0.0473839,1861,645,30.8729,7.03018
644,379,31.1012,-5.92603,0,0,0,0,0,0,0,-1,1868,645,31.1012,5.92602
651,379,12.9515,0.220825,0,0,0,0,0,0,0,-1,1875,645,12.9515,-0.220814
658,379,13.7498,0.37439,0,0,0,0,0,0,0,-1,1882,645,13.7498,-0.374371
665,379,11.9719,0.353333,0,0,0,0,0,0,0,-1,1889,645,11.9719,-0.353321
672,379,7.57605,2.15326,0,0,0,0,0,0,0,-1,1896,645,7.57599,-2.15326
679,379,8.55078,2.50409,0,0,0,0,0,0,0,-1,1903,645,8.55073,-2.50406
686,379,0,0,0,0,0,0,0,0,0,-1,1910,645,0,0
693,379,0,0,0,0,0,0,0,0,0,-1,1917,645,0,0
700,379,0,0,0,0,0,0,0,0,0,-1,1924,645,0,0
707,379,0,0,0,0,0,0,0,0,0,-1,1931,645,0,0
714,379,0,0,0,0,0,0,0,0,0,-1,1938,645,0,0
721,379,0,0,0,0,0,0,0,0,0,-1,1945,645,0,0
728,379,0,0,0,0,0,0,0,0,0,-1,1952,645,0,0
735,379,0,0,0,0,0,0,0,0,0,-1,1959,645,0,0
742,379,0,0,0,0,0,0,0,0,0,-1,1966,645,0,0
749,379,0,0,0,0,0,0,0,0,0,-1,1973,645,0,0
756,379,0,0,0,0,0,0,0,0,0,-1,1980,645,0,0
763,379,0,0,0,0,0,0,0,0,0,-1,1987,645,0,0
770,379,0,0,0,0,0,0,0,0,0,-1,1994,645,0,0
777,379,0,0,0,0,0,0,0,0,0,-1,2001,645,0,0
784,379,0,0,0,0,0,0,0,0,0,-1,2008,645,0,0
791,379,0,0,0,0,0,0,0,0,0,-1,2015,645,0,0
798,379,0,0,0,0,0,0,0,0,0,-1,2022,645,0,0
805,379,0,0,0,0,0,0,0,0,0,-1,2029,645,0,0
812,379,0,0,0,0,0,0,0,0,0,-1,2036,645,0,0
-700,372,0,0,0,0,0,0,0,0,0,-1,524,652,0,0
-693,372,0,0,0,0,0,0,0,0,0,-1,531,652,0,0
-686,372,0,0,0,0,0,0,0,0,0,-1,538,652,0,0
-679,372,0,0,0,0,0,0,0,0,0,-1,545,652,0,0
-672,372,0,0,0,0,0,0,0,0,0,-1,552,652,0,0
-665,372,0,0,0,0,0,0,0,0,0,-1,559,652,0,0
-658,372,0,0,0,0,0,0,0,0,0,-1,566,652,0,0
-651,372,0,0,0,0,0,0,0,0,0,-1,573,652,0,0
-644,372,0,0,0,0,0,0,0,0,0,-1,580,652,0,0
-637,372,0,0,0,0,0,0,0,0,0,-1,587,652,0,0
-630,372,0,0,0,0,0,0,0,0,0,-1,594,652,0,0
-623,372,0,0,0,0,0,0,0,0,0,-1,601,652,0,0
-616,372,0,0,0,0,0,0,0,0,0,-1,608,652,0,0
-609,372,0,0,0,0,0,0,0,0,0,-1,615,652,0,0
-602,372,0,0,0,0,0,0,0,0,0,-1,622,652,0,0
-595,372,0,0,0,0,0,0,0,0,0,-1,629,652,0,0
-588,372,0,0,0,0,0,0,0,0,0,-1,636,652,0,0
-581,372,0,0,0,0,0,0,0,0,0,-1,643,652,0,0
-574,372,0,0,0,0,0,0,0,0,0,-1,650,652,0,0
-567,372,-7.93744,0.73407,0,0,0,0,0,0,0,-1,657,652,-7.93741,-0.734076
-560,372,-8.78552,-0.158203,0,0,0,0,0,0,0,-1,664,652,-8.78552,0.158216
-553,372,-7.95551,1.61694,0,0,0,0,0,0,0,-1,671,652,-7.95552,-1.61697
-546,372,-4.2403,-3.75372,0,0,0,0,0,0,0,-1,678,652,-4.24028,3.75369
-539,372,-7.92285,-0.0650024,0,0,0,0,0,0,0,-1,685,652,-7.92287,0.0649772
-532,372,-8.59589,-0.419556,0,0,0,0,0,0,0,-1,692,652,-8.59591,0.419539
-525,372,-8.03674,-1.36804,0,0,0,0,0,0,0,-1,699,652,-8.03676,1.36806
-518,372,-17.9706,-7.31488,0,0,0,0,0,0,0,-1,706,652,-17.9706,7.31489
-511,372,-17.9648,-8.27448,0.00307257,0.000623246,-0.000819341,0.00332138,0.000374437,-0.29482,0.00210059,0.0399184,713,652,-17.9648,8.27447
-504,372,-18.0286,-9.03925,0.00251917,0.000611004,-0.000693361,0.0027445,0.00038567,-0.314221,0.00171562,0.0188707,720,652,-18.0286,9.03927
-497,372,-18.032,-9.90881,0.002016,0.000467626,-0.000555846,0.00219487,0.000288749,-0.311344,0.00137713,0.0126813,727,652,-18.032,9.90879
-490,372,-18.0789,-10.7064,0.00159567,0.000291126,-0.000447414,0.00173437,0.000152426,-0.30061,0.00110894,0.0130957,734,652,-18.0789,10.7064
-483,372,-18.124,-11.5173,0.00128037,9.60675e-05,-0.000345073,0.00137358,2.85899e-06,-0.263817,0.00091477,0.0126481,741,652,-18.1239,11.5173
-476,372,-18.1702,-12.3256,0.00110326,-6.57285e-05,-0.000283751,0.00116849,-0.000130963,-0.225975,0.000826119,0.0135289,748,652,-18.1702,12.3256
-469,372,-18.2321,-13.1263,0.00106973,-0.000210762,-0.000296162,0.00113491,-0.000275943,-0.216631,0.000863412,0.0112847,755,652,-18.232,13.1263
-462,372,-18.279,-13.9511,0.00116071,-0.000327539,-0.000391237,0.00125729,-0.000424121,-0.242024,0.00100971,0.0105917,762,652,-18.279,13.9511
-455,372,-18.3371,-14.7646,0.00146792,-0.00030454,-0.000586154,0.00164423,-0.000480845,-0.292174,0.00128674,0.0111808,769,652,-18.3371,14.7646
-448,372,-18.3584,-15.588,0.00197781,-0.000207462,-0.000882907,0.00228994,-0.000519596,-0.339816,0.0017261,0.0150263,776,652,-18.3584,15.5879
-441,372,-18.224,-16.6231,0,0,0,0,0,0,0,-1,783,652,-18.224,16.6231
-434,372,-9.86865,-9.68494,0,0,0,0,0,0,0,-1,790,652,-9.86863,9.68492
-427,372,-4.54248,-3.56268,0,0,0,0,0,0,0,-1,797,652,-4.54247,3.56266
-420,372,-4.66168,-2.93597,0,0,0,0,0,0,0,-1,804,652,-4.66166,2.93599
-413,372,-4.74762,-3.29541,0,0,0,0,0,0,0,-1,811,652,-4.74763,3.29542
-406,372,-0.885437,-0.583923,0,0,0,0,0,0,0,-1,818,652,-0.885437,0.5839
-399,372,-3.97357,-0.825012,0,0,0,0,0,0,0,-1,825,652,-3.97359,0.825037
-392,372,-7.64337,0.173035,0,0,0,0,0,0,0,-1,832,652,-7.64337,-0.173019
-385,372,-6.48871,-0.0271606,0,0,0,0,0,0,0,-1,839,652,-6.48874,0.0271353
-378,372,-5.33044,-0.242432,0,0,0,0,0,0,0,-1,846,652,-5.33042,0.242457
-371,372,-4.40802,-0.495667,0,0,0,0,0,0,0,-1,853,652,-4.40802,0.495661
-364,372,0,0,0,0,0,0,0,0,0,-1,860,652,0,0
-357,372,0,0,0,0,0,0,0,0,0,-1,867,652,0,0
-350,372,0,0,0,0,0,0,0,0,0,-1,874,652,0,0
-343,372,0,0,0,0,0,0,0,0,0,-1,881,652,0,0
-336,372,0,0,0,0,0,0,0,0,0,-1,888,652,0,0
-329,372,0,0,0,0,0,0,0,0,0,-1,895,652,0,0
-322,372,0,0,0,0,0,0,0,0,0,-1,902,652,0,0
-315,372,0,0,0,0,0,0,0,0,0,-1,909,652,0,0
-308,372,0,0,0,0,0,0,0,0,0,-1,916,652,0,0
-301,372,0,0,0,0,0,0,0,0,0,-1,923,652,0,0
-294,372,0,0,0,0,0,0,0,0,0,-1,930,652,0,0
-287,372,0,0,0,0,0,0,0,0,0,-1,937,652,0,0
-280,372,0,0,0,0,0,0,0,0,0,-1,944,652,0,0
-273,372,0,0,0,0,0,0,0,0,0,-1,951,652,0,0
-266,372,0,0,0,0,0,0,0,0,0,-1,958,652,0,0
-259,372,0,0,0,0,0,0,0,0,0,-1,965,652,0,0
-252,372,0,0,0,0,0,0,0,0,0,-1,972,652,0,0
-245,372,0,0,0,0,0,0,0,0,0,-1,979,652,0,0
-238,372,0,0,0,0,0,0,0,0,0,-1,986,652,0,0
-231,372,0,0,0,0,0,0,0,0,0,-1,993,652,0,0
-224,372,0,0,0,0,0,0,0,0,0,-1,1000,652,0,0
-217,372,0,0,0,0,0,0,0,0,0,-1,1007,652,0,0
-210,372,0,0,0,0,0,0,0,0,0,-1,1014,652,0,0
-203,372,0,0,0,0,0,0,0,0,0,-1,1021,652,0,0
-196,372,0,0,0,0,0,0,0,0,0,-1,1028,652,0,0
-189,372,0,0,0,0,0,0,0,0,0,-1,1035,652,0,0
-182,372,0,0,0,0,0,0,0,0,0,-1,1042,652,0,0
-175,372,0,0,0,0,0,0,0,0,0,-1,1049,652,0,0
-168,372,0,0,0,0,0,0,0,0,0,-1,1056,652,0,0
-161,372,0,0,0,0,0,0,0,0,0,-1,1063,652,0,0
-154,372,0,0,0,0,0,0,0,0,0,-1,1070,652,0,0
-147,372,0,0,0,0,0,0,0,0,0,-1,1077,652,0,0
-140,372,0,0,0,0,0,0,0,0,0,-1,1084,652,0,0
-133,372,0,0,0,0,0,0,0,0,0,-1,1091,652,0,0
-126,372,0,0,0,0,0,0,0,0,0,-1,1098,652,0,0
-119,372,0,0,0,0,0,0,0,0,0,-1,1105,652,0,0
-112,372,0,0,0,0,0,0,0,0,0,-1,1112,652,0,0
-105,372,0,0,0,0,0,0,0,0,0,-1,1119,652,0,0
-98,372,0,0,0,0,0,0,0,0,0,-1,1126,652,0,0
-91,372,0,0,0,0,0,0,0,0,0,-1,1133,652,0,0
-84,372,0,0,0,0,0,0,0,0,0,-1,1140,652,0,0
-77,372,0,0,0,0,0,0,0,0,0,-1,1147,652,0,0
-70,372,0,0,0,0,0,0,0,0,0,-1,1154,652,0,0
-63,372,0,0,0,0,0,0,0,0,0,-1,1161,652,0,0
-56,372,0,0,0,0,0,0,0,0,0,-1,1168,652,0,0
-49,372,0,0,0,0,0,0,0,0,0,-1,1175,652,0,0
-42,372,0,0,0,0,0,0,0,0,0,-1,1182,652,0,0
-35,372,0,0,0,0,0,0,0,0,0,-1,1189,652,0,0
-28,372,0,0,0,0,0,0,0,0,0,-1,1196,652,0,0
-21,372,0,0,0,0,0,0,0,0,0,-1,1203,652,0,0
-14,372,0,0,0,0,0,0,0,0,0,-1,1210,652,0,0
-7,372,0,0,0,0,0,0,0,0,0,-1,1217,652,0,0
0,372,0,0,0,0,0,0,0,0,0,-1,1224,652,0,0
7,372,0,0,0,0,0,0,0,0,0,-1,1231,652,0,0
14,372,0,0,0,0,0,0,0,0,0,-1,1238,652,0,0
21,372,0,0,0,0,0,0,0,0,0,-1,1245,652,0,0
28,372,0,0,0,0,0,0,0,0,0,-1,1252,652,0,0
35,372,0,0,0,0,0,0,0,0,0,-1,1259,652,0,0
42,372,0,0,0,0,0,0,0,0,0,-1,1266,652,0,0
49,372,0,0,0,0,0,0,0,0,0,-1,1273,652,0,0
56,372,0,0,0,0,0,0,0,0,0,-1,1280,652,0,0
63,372,0,0,0,0,0,0,0,0,0,-1,1287,652,0,0
70,372,0,0,0,0,0,0,0,0,0,-1,1294,652,0,0
77,372,0,0,0,0,0,0,0,0,0,-1,1301,652,0,0
84,372,0,0,0,0,0,0,0,0,0,-1,1308,652,0,0
91,372,0,0,0,0,0,0,0,0,0,-1,1315,652,0,0
98,372,0,0,0,0,0,0,0,0,0,-1,1322,652,0,0
105,372,0,0,0,0,0,0,0,0,0,-1,1329,652,0,0
112,372,0,0,0,0,0,0,0,0,0,-1,1336,652,0,0
119,372,0,0,0,0,0,0,0,0,0,-1,1343,652,0,0
126,372,0,0,0,0,0,0,0,0,0,-1,1350,652,0,0
133,372,0,0,0,0,0,0,0,0,0,-1,1357,652,0,0
140,372,0,0,0,0,0,0,0,0,0,-1,1364,652,0,0
147,372,0,0,0,0,0,0,0,0,0,-1,1371,652,0,0
154,372,0,0,0,0,0,0,0,0,0,-1,1378,652,0,0
161,372,0,0,0,0,0,0,0,0,0,-1,1385,652,0,0
168,372,0,0,0,0,0,0,0,0,0,-1,1392,652,0,0
175,372,0,0,0,0,0,0,0,0,0,-1,1399,652,0,0
182,372,0,0,0,0,0,0,0,0,0,-1,1406,652,0,0
189,372,0,0,0,0,0,0,0,0,0,-1,1413,652,0,0
196,372,0,0,0,0,0,0,0,0,0,-1,1420,652,0,0
203,372,0,0,0,0,0,0,0,0,0,-1,1427,652,0,0
210,372,0,0,0,0,0,0,0,0,0,-1,1434,652,0,0
217,372,0,0,0,0,0,0,0,0,0,-1,1441,652,0,0
224,372,0,0,0,0,0,0,0,0,0,-1,1448,652,0,0
231,372,0,0,0,0,0,0,0,0,0,-1,1455,652,0,0
238,372,0,0,0,0,0,0,0,0,0,-1,1462,652,0,0
245,372,0,0,0,0,0,0,0,0,0,-1,1469,652,0,0
252,372,0,0,0,0,0,0,0,0,0,-1,1476,652,0,0
259,372,0,0,0,0,0,0,0,0,0,-1,1483,652,0,0
266,372,0,0,0,0,0,0,0,0,0,-1,1490,652,0,0
273,372,0,0,0,0,0,0,0,0,0,-1,1497,652,0,0
280,372,0,0,0,0,0,0,0,0,0,-1,1504,652,0,0
287,372,0,0,0,0,0,0,0,0,0,-1,1511,652,0,0
294,372,0,0,0,0,0,0,0,0,0,-1,1518,652,0,0
301,372,0,0,0,0,0,0,0,0,0,-1,1525,652,0,0
308,372,0,0,0,0,0,0,0,0,0,-1,1532,652,0,0
315,372,0,0,0,0,0,0,0,0,0,-1,1539,652,0,0
322,372,0,0,0,0,0,0,0,0,0,-1,1546,652,0,0
329,372,0,0,0,0,0,0,0,0,0,-1,1553,652,0,0
336,372,0,0,0,0,0,0,0,0,0,-1,1560,652,0,0
343,372,0,0,0,0,0,0,0,0,0,-1,1567,652,0,0
350,372,0,0,0,0,0,0,0,0,0,-1,1574,652,0,0
357,372,0,0,0,0,0,0,0,0,0,-1,1581,652,0,0
364,372,0,0,0,0,0,0,0,0,0,-1,1588,652,0,0
371,372,0,0,0,0,0,0,0,0,0,-1,1595,652,0,0
378,372,0,0,0,0,0,0,0,0,0,-1,1602,652,0,0
385,372,0,0,0,0,0,0,0,0,0,-1,1609,652,0,0
392,372,0,0,0,0,0,0,0,0,0,-1,1616,652,0,0
399,372,0,0,0,0,0,0,0,0,0,-1,1623,652,0,0
406,372,0,0,0,0,0,0,0,0,0,-1,1630,652,0,0
413,372,0,0,0,0,0,0,0,0,0,-1,1637,652,0,0
420,372,0,0,0,0,0,0,0,0,0,-1,1644,652,0,0
427,372,0,0,0,0,0,0,0,0,0,-1,1651,652,0,0
434,372,0,0,0,0,0,0,0,0,0,-1,1658,652,0,0
441,372,0,0,0,0,0,0,0,0,0,-1,1665,652,0,0
448,372,0,0,0,0,0,0,0,0,0,-1,1672,652,0,0
455,372,0,0,0,0,0,0,0,0,0,-1,1679,652,0,0
462,372,0,0,0,0,0,0,0,0,0,-1,1686,652,0,0
469,372,0,0,0,0,0,0,0,0,0,-1,1693,652,0,0
476,372,0,0,0,0,0,0,0,0,0,-1,1700,652,0,0
483,372,8.74182,1.53125,0,0,0,0,0,0,0,-1,1707,652,8.74186,-1.53126
490,372,9.78455,1.67096,0,0,0,0,0,0,0,-1,1714,652,9.7846,-1.67093
497,372,9.97644,1.46069,0,0,0,0,0,0,0,-1,1721,652,9.97647,-1.46071
504,372,10.1216,1.28375,0,0,0,0,0,0,0,-1,1728,652,10.1216,-1.28376
511,372,11.7367,-0.0272217,0,0,0,0,0,0,0,-1,1735,652,11.7367,0.0272326
518,372,12.0657,-0.0995483,0,0,0,0,0,0,0,-1,1742,652,12.0657,0.0995285
525,372,12.3947,-0.171814,0,0,0,0,0,0,0,-1,1749,652,12.3946,0.171824
532,372,9.36597,1.72034,0,0,0,0,0,0,0,-1,1756,652,9.36597,-1.72036
539,372,7.82886,-0.0865479,0,0,0,0,0,0,0,-1,1763,652,7.82882,0.0865771
546,372,10.953,-0.187195,0,0,0,0,0,0,0,-1,1770,652,10.953,0.187181
553,372,14.1201,-4.83234,0,0,0,0,0,0,0,-1,1777,652,14.1201,4.83235
560,372,20.1057,-8.06934,0,0,0,0,0,0,0,-1,1784,652,20.1058,8.06936
567,372,32.1525,-15.5815,0,0,0,0,0,0,0,-1,1791,652,32.1525,15.5815
574,372,32.1127,-14.5438,0.00184911,0.00026713,-0.000307465,0.00190677,0.000209474,-0.185367,0.00120743,0.0448087,1798,652,32.1126,14.5438
581,372,32.0707,-13.8081,0.00120599,0.000230932,-0.000351059,0.00131924,0.000117689,-0.312037,0.000843004,0.0220548,1805,652,32.0707,13.8081
588,372,32.005,-12.9783,0.0009803,0.000248502,-0.000192452,0.00102783,0.000200977,-0.242104,0.00062902,0.0160063,1812,652,32.005,12.9783
595,372,31.9369,-12.1662,0.00106559,0.000560547,0.000142358,0.00110295,0.000523184,0.25667,0.000637067,0.0142016,1819,652,31.9369,12.1662
602,372,31.9166,-11.3557,0.0013289,0.000995551,0.000561323,0.00174777,0.000576681,0.641078,0.00102835,0.0166778,1826,652,31.9167,11.3557
609,372,31.8094,-10.5309,0.00163018,0.00152347,0.00103292,0.00261113,0.000542527,0.759594,0.00159105,0.0179989,1833,652,31.8095,10.5309
616,372,31.7489,-9.66693,0.00197424,0.00219181,0.00152788,0.00361477,0.000551281,0.820938,0.00224872,0.0170548,1840,652,31.749,9.66695
623,372,31.7477,-8.77832,0.00238579,0.00292615,0.00209665,0.00476995,0.000541987,0.849476,0.00301559,0.013544,1847,652,31.7476,8.77831
630,372,31.7217,-7.92535,0.00268903,0.00369274,0.00260822,0.00584695,0.000534819,0.880442,0.00373249,0.0179715,1854,652,31.7217,7.92534
637,372,31.7073,-7.10364,0.00281876,0.00452976,0.00307242,0.00686356,0.000484955,0.921181,0.00442292,0.030847,1861,652,31.7073,7.10363
644,372,31.8779,-6.23529,0,0,0,0,0,0,0,-1,1868,652,31.8779,6.2353
651,372,21.3998,-0.888,0,0,0,0,0,0,0,-1,1875,652,21.3998,0.887992
658,372,14.157,0.280273,0,0,0,0,0,0,0,-1,1882,652,14.157,-0.280264
665,372,15.2286,0.463867,0,0,0,0,0,0,0,-1,1889,652,15.2287,-0.463854
672,372,9.34106,1.48444,0,0,0,0,0,0,0,-1,1896,652,9.34109,-1.48444
679,372,10.7308,2.32391,0,0,0,0,0,0,0,-1,1903,652,10.7309,-2.3239
686,372,11.6295,2.52997,0,0,0,0,0,0,0,-1,1910,652,11.6296,-2.52996
693,372,0,0,0,0,0,0,0,0,0,-1,1917,652,0,0
700,372,0,0,0,0,0,0,0,0,0,-1,1924,652,0,0
707,372,0,0,0,0,0,0,0,0,0,-1,1931,652,0,0
714,372,0,0,0,0,0,0,0,0,0,-1,1938,652,0,0
721,372,0,0,0,0,0,0,0,0,0,-1,1945,652,0,0
728,372,0,0,0,0,0,0,0,0,0,-1,1952,652,0,0
735,372,0,0,0,0,0,0,0,0,0,-1,1959,652,0,0
742,372,0,0,0,0,0,0,0,0,0,-1,1966,652,0,0
749,372,0,0,0,0,0,0,0,0,0,-1,1973,652,0,0
756,372,0,0,0,0,0,0,0,0,0,-1,1980,652,0,0
763,372,0,0,0,0,0,0,0,0,0,-1,1987,652,0,0
770,372,0,0,0,0,0,0,0,0,0,-1,1994,652,0,0
777,372,0,0,0,0,0,0,0,0,0,-1,2001,652,0,0
784,372,0,0,0,0,0,0,0,0,0,-1,2008,652,0,0
791,372,0,0,0,0,0,0,0,0,0,-1,2015,652,0,0
798,372,0,0,0,0,0,0,0,0,0,-1,2022,652,0,0
805,372,0,0,0,0,0,0,0,0,0,-1,2029,652,0,0
812,372,0,0,0,0,0,0,0,0,0,-1,2036,652,0,0
-700,365,0,0,0,0,0,0,0,0,0,-1,524,659,0,0
-693,365,0,0,0,0,0,0,0,0,0,-1,531,659,0,0
-686,365,0,0,0,0,0,0,0,0,0,-1,538,659,0,0
-679,365,0,0,0,0,0,0,0,0,0,-1,545,659,0,0
-672,365,0,0,0,0,0,0,0,0,0,-1,552,659,0,0
-665,365,0,0,0,0,0,0,0,0,0,-1,559,659,0,0
-658,365,0,0,0,0,0,0,0,0,0,-1,566,659,0,0
-651,365,0,0,0,0,0,0,0,0,0,-1,573,659,0,0
-644,365,0,0,0,0,0,0,0,0,0,-1,580,659,0,0
-637,365,0,0,0,0,0,0,0,0,0,-1,587,659,0,0
-630,365,0,0,0,0,0,0,0,0,0,-1,594,659,0,0
-623,365,0,0,0,0,0,0,0,0,0,-1,601,659,0,0
-616,365,0,0,0,0,0,0,0,0,0,-1,608,659,0,0
-609,365,0,0,0,0,0,0,0,0,0,-1,615,659,0,0
-602,365,0,0,0,0,0,0,0,0,0,-1,622,659,0,0
-595,365,0,0,0,0,0,0,0,0,0,-1,629,659,0,0
-588,365,0,0,0,0,0,0,0,0,0,-1,636,659,0,0
-581,365,0,0,0,0,0,0,0,0,0,-1,643,659,0,0
-574,365,-7.69281,1.59015,0,0,0,0,0,0,0,-1,650,659,-7.69282,-1.59018
-567,365,-8.2583,1.72638,0,0,0,0,0,0,0,-1,657,659,-8.25827,-1.72637
-560,365,-7.17767,0.275757,0,0,0,0,0,0,0,-1,664,659,-7.17768,-0.27577
-553,365,-10.0349,-0.169617,0,0,0,0,0,0,0,-1,671,659,-10.0349,0.169593
-546,365,-10.6303,-1.51642,0,0,0,0,0,0,0,-1,678,659,-10.6303,1.5164
-539,365,-8.38599,1.52936,0,0,0,0,0,0,0,-1,685,659,-8.38598,-1.52935
-532,365,-8.52863,0.166504,0,0,0,0,0,0,0,-1,692,659,-8.52863,-0.166501
-525,365,-9.28229,-2.62726,0,0,0,0,0,0,0,-1,699,659,-9.28227,2.62724
-518,365,-18.8102,-7.23987,0,0,0,0,0,0,0,-1,706,659,-18.8103,7.23987
-511,365,-18.8349,-8.16394,0.00332218,0.000474223,-0.00078848,0.00352591,0.000270499,-0.252846,0.00226583,0.0375899,713,659,-18.8349,8.16393
-504,365,-18.8235,-9.00006,0.00272291,0.000360427,-0.000675524,0.00290243,0.00018091,-0.259741,0.00187756,0.0127575,720,659,-18.8235,9.00009
-497,365,-18.8491,-9.85626,0.00221231,0.000188069,-0.000545013,0.00234972,5.06556e-05,-0.246981,0.00154987,0.0135825,727,659,-18.8491,9.85624
-490,365,-18.9021,-10.676,0.0017631,3.83536e-05,-0.000452378,0.00187455,-7.30973e-05,-0.241556,0.00127476,0.0147289,734,659,-18.9021,10.676
-483,365,-18.9608,-11.4729,0.00144226,-0.000120352,-0.000346516,0.00151565,-0.000193747,-0.208721,0.00108082,0.0133244,741,659,-18.9608,11.4729
-476,365,-18.9632,-12.2938,0.00124113,-0.000217438,-0.000277117,0.00129201,-0.000268313,-0.181567,0.000963313,0.0182045,748,659,-18.9632,12.2937
-469,365,-19.0241,-13.1054,0.00115519,-0.000277258,-0.000283313,0.00120919,-0.000331256,-0.188339,0.000936284,0.0184601,755,659,-19.0241,13.1054
-462,365,-19.0939,-13.8682,0.00119359,-0.000284567,-0.000371783,0.00128183,-0.00037281,-0.233037,0.00100221,0.0160626,762,659,-19.094,13.8682
-455,365,-19.1375,-14.6816,0.00143938,-0.000209832,-0.000522754,0.00159112,-0.00036157,-0.282503,0.00119957,0.0189843,769,659,-19.1375,14.6816
-448,365,-19.1689,-15.6373,0,0,0,0,0,0,0,-1,776,659,-19.1689,15.6373
-441,365,-16.9571,-15.1896,0,0,0,0,0,0,0,-1,783,659,-16.9571,15.1896
-434,365,-5.45056,-3.98041,0,0,0,0,0,0,0,-1,790,659,-5.45055,3.98042
-427,365,-5.05377,-4.74689,0,0,0,0,0,0,0,-1,797,659,-5.05376,4.7469
-420,365,-4.58813,-3.16376,0,0,0,0,0,0,0,-1,804,659,-4.58816,3.16374
-413,365,0.141357,0.672729,0,0,0,0,0,0,0,-1,811,659,0.141365,-0.672714
-406,365,-1.75067,-0.934448,0,0,0,0,0,0,0,-1,818,659,-1.7507,0.934424
-399,365,-4.10242,-1.25439,0,0,0,0,0,0,0,-1,825,659,-4.10244,1.25438
-392,365,-7.46545,-0.779724,0,0,0,0,0,0,0,-1,832,659,-7.46543,0.779744
-385,365,-6.27875,-0.887573,0,0,0,0,0,0,0,-1,839,659,-6.27874,0.887545
-378,365,-5.34503,-0.263306,0,0,0,0,0,0,0,-1,846,659,-5.34504,0.263275
-371,365,0,0,0,0,0,0,0,0,0,-1,853,659,0,0
-364,365,0,0,0,0,0,0,0,0,0,-1,860,659,0,0
-357,365,0,0,0,0,0,0,0,0,0,-1,867,659,0,0
-350,365,0,0,0,0,0,0,0,0,0,-1,874,659,0,0
-343,365,0,0,0,0,0,0,0,0,0,-1,881,659,0,0
-336,365,0,0,0,0,0,0,0,0,0,-1,888,659,0,0
-329,365,0,0,0,0,0,0,0,0,0,-1,895,659,0,0
-322,365,0,0,0,0,0,0,0,0,0,-1,902,659,0,0
-315,365,0,0,0,0,0,0,0,0,0,-1,909,659,0,0
-308,365,0,0,0,0,0,0,0,0,0,-1,916,659,0,0
-301,365,0,0,0,0,0,0,0,0,0,-1,923,659,0,0
-294,365,0,0,0,0,0,0,0,0,0,-1,930,659,0,0
-287,365,0,0,0,0,0,0,0,0,0,-1,937,659,0,0
-280,365,0,0,0,0,0,0,0,0,0,-1,944,659,0,0
-273,365,0,0,0,0,0,0,0,0,0,-1,951,659,0,0
-266,365,0,0,0,0,0,0,0,0,0,-1,958,659,0,0
-259,365,0,0,0,0,0,0,0,0,0,-1,965,659,0,0
-252,365,0,0,0,0,0,0,0,0,0,-1,972,659,0,0
-245,365,0,0,0,0,0,0,0,0,0,-1,979,659,0,0
-238,365,0,0,0,0,0,0,0,0,0,-1,986,659,0,0
-231,365,0,0,0,0,0,0,0,0,0,-1,993,659,0,0
-224,365,0,0,0,0,0,0,0,0,0,-1,1000,659,0,0
-217,365,0,0,0,0,0,0,0,0,0,-1,1007,659,0,0
-210,365,0,0,0,0,0,0,0,0,0,-1,1014,659,0,0
-203,365,0,0,0,0,0,0,0,0,0,-1,1021,659,0,0
-196,365,0,0,0,0,0,0,0,0,0,-1,1028,659,0,0
-189,365,0,0,0,0,0,0,0,0,0,-1,1035,659,0,0
-182,365,0,0,0,0,0,0,0,0,0,-1,1042,659,0,0
-175,365,0,0,0,0,0,0,0,0,0,-1,1049,659,0,0
-168,365,0,0,0,0,0,0,0,0,0,-1,1056,659,0,0
-161,365,0,0,0,0,0,0,0,0,0,-1,1063,659,0,0
-154,365,0,0,0,0,0,0,0,0,0,-1,1070,659,0,0
-147,365,0,0,0,0,0,0,0,0,0,-1,1077,659,0,0
-140,365,0,0,0,0,0,0,0,0,0,-1,1084,659,0,0
-133,365,0,0,0,0,0,0,0,0,0,-1,1091,659,0,0
-126,365,0,0,0,0,0,0,0,0,0,-1,1098,659,0,0
-119,365,0,0,0,0,0,0,0,0,0,-1,1105,659,0,0
-112,365,0,0,0,0,0,0,0,0,0,-1,1112,659,0,0
-105,365,0,0,0,0,0,0,0,0,0,-1,1119,659,0,0
-98,365,0,0,0,0,0,0,0,0,0,-1,1126,659,0,0
-91,365,0,0,0,0,0,0,0,0,0,-1,1133,659,0,0
-84,365,0,0,0,0,0,0,0,0,0,-1,1140,659,0,0
-77,365,0,0,0,0,0,0,0,0,0,-1,1147,659,0,0
-70,365,0,0,0,0,0,0,0,0,0,-1,1154,659,0,0
-63,365,0,0,0,0,0,0,0,0,0,-1,1161,659,0,0
-56,365,0,0,0,0,0,0,0,0,0,-1,1168,659,0,0
-49,365,0,0,0,0,0,0,0,0,0,-1,1175,659,0,0
-42,365,0,0,0,0,0,0,0,0,0,-1,1182,659,0,0
-35,365,0,0,0,0,0,0,0,0,0,-1,1189,659,0,0
-28,365,0,0,0,0,0,0,0,0,0,-1,1196,659,0,0
-21,365,0,0,0,0,0,0,0,0,0,-1,1203,659,0,0
-14,365,0,0,0,0,0,0,0,0,0,-1,1210,659,0,0
-7,365,0,0,0,0,0,0,0,0,0,-1,1217,659,0,0
0,365,0,0,0,0,0,0,0,0,0,-1,1224,659,0,0
7,365,0,0,0,0,0,0,0,0,0,-1,1231,659,0,0
14,365,0,0,0,0,0,0,0,0,0,-1,1238,659,0,0
21,365,0,0,0,0,0,0,0,0,0,-1,1245,659,0,0
28,365,0,0,0,0,0,0,0,0,0,-1,1252,659,0,0
35,365,0,0,0,0,0,0,0,0,0,-1,1259,659,0,0
42,365,0,0,0,0,0,0,0,0,0,-1,1266,659,0,0
49,365,0,0,0,0,0,0,0,0,0,-1,1273,659,0,0
56,365,0,0,0,0,0,0,0,0,0,-1,1280,659,0,0
63,365,0,0,0,0,0,0,0,0,0,-1,1287,659,0,0
70,365,0,0,0,0,0,0,0,0,0,-1,1294,659,0,0
77,365,0,0,0,0,0,0,0,0,0,-1,1301,659,0,0
84,365,0,0,0,0,0,0,0,0,0,-1,1308,659,0,0
91,365,0,0,0,0,0,0,0,0,0,-1,1315,659,0,0
98,365,0,0,0,0,0,0,0,0,0,-1,1322,659,0,0
105,365,0,0,0,0,0,0,0,0,0,-1,1329,659,0,0
112,365,0,0,0,0,0,0,0,0,0,-1,1336,659,0,0
119,365,0,0,0,0,0,0,0,0,0,-1,1343,659,0,0
126,365,0,0,0,0,0,0,0,0,0,-1,1350,659,0,0
133,365,0,0,0,0,0,0,0,0,0,-1,1357,659,0,0
140,365,0,0,0,0,0,0,0,0,0,-1,1364,659,0,0
147,365,0,0,0,0,0,0,0,0,0,-1,1371,659,0,0
154,365,0,0,0,0,0,0,0,0,0,-1,1378,659,0,0
161,365,0,0,0,0,0,0,0,0,0,-1,1385,659,0,0
168,365,0,0,0,0,0,0,0,0,0,-1,1392,659,0,0
175,365,0,0,0,0,0,0,0,0,0,-1,1399,659,0,0
182,365,0,0,0,0,0,0,0,0,0,-1,1406,659,0,0
189,365,0,0,0,0,0,0,0,0,0,-1,1413,659,0,0
196,365,0,0,0,0,0,0,0,0,0,-1,1420,659,0,0
203,365,0,0,0,0,0,0,0,0,0,-1,1427,659,0,0
210,365,0,0,0,0,0,0,0,0,0,-1,1434,659,0,0
217,365,0,0,0,0,0,0,0,0,0,-1,1441,659,0,0
224,365,0,0,0,0,0,0,0,0,0,-1,1448,659,0,0
231,365,0,0,0,0,0,0,0,0,0,-1,1455,659,0,0
238,365,0,0,0,0,0,0,0,0,0,-1,1462,659,0,0
245,365,0,0,0,0,0,0,0,0,0,-1,1469,659,0,0
252,365,0,0,0,0,0,0,0,0,0,-1,1476,659,0,0
259,365,0,0,0,0,0,0,0,0,0,-1,1483,659,0,0
266,365,0,0,0,0,0,0,0,0,0,-1,1490,659,0,0
273,365,0,0,0,0,0,0,0,0,0,-1,1497,659,0,0
280,365,0,0,0,0,0,0,0,0,0,-1,1504,659,0,0
287,365,0,0,0,0,0,0,0,0,0,-1,1511,659,0,0
294,365,0,0,0,0,0,0,0,0,0,-1,1518,659,0,0
301,365,0,0,0,0,0,0,0,0,0,-1,1525,659,0,0
308,365,0,0,0,0,0,0,0,0,0,-1,1532,659,0,0
315,365,0,0,0,0,0,0,0,0,0,-1,1539,659,0,0
322,365,0,0,0,0,0,0,0,0,0,-1,1546,659,0,0
329,365,0,0,0,0,0,0,0,0,0,-1,1553,659,0,0
336,365,0,0,0,0,0,0,0,0,0,-1,1560,659,0,0
343,365,0,0,0,0,0,0,0,0,0,-1,1567,659,0,0
350,365,0,0,0,0,0,0,0,0,0,-1,1574,659,0,0
357,365,0,0,0,0,0,0,0,0,0,-1,1581,659,0,0
364,365,0,0,0,0,0,0,0,0,0,-1,1588,659,0,0
371,365,0,0,0,0,0,0,0,0,0,-1,1595,659,0,0
378,365,0,0,0,0,0,0,0,0,0,-1,1602,659,0,0
385,365,0,0,0,0,0,0,0,0,0,-1,1609,659,0,0
392,365,0,0,0,0,0,0,0,0,0,-1,1616,659,0,0
399,365,0,0,0,0,0,0,0,0,0,-1,1623,659,0,0
406,365,0,0,0,0,0,0,0,0,0,-1,1630,659,0,0
413,365,0,0,0,0,0,0,0,0,0,-1,1637,659,0,0
420,365,0,0,0,0,0,0,0,0,0,-1,1644,659,0,0
427,365,0,0,0,0,0,0,0,0,0,-1,1651,659,0,0
434,365,0,0,0,0,0,0,0,0,0,-1,1658,659,0,0
441,365,0,0,0,0,0,0,0,0,0,-1,1665,659,0,0
448,365,0,0,0,0,0,0,0,0,0,-1,1672,659,0,0
455,365,0,0,0,0,0,0,0,0,0,-1,1679,659,0,0
462,365,0,0,0,0,0,0,0,0,0,-1,1686,659,0,0
469,365,0,0,0,0,0,0,0,0,0,-1,1693,659,0,0
476,365,0,0,0,0,0,0,0,0,0,-1,1700,659,0,0
483,365,0,0,0,0,0,0,0,0,0,-1,1707,659,0,0
490,365,8.39551,0.471252,0,0,0,0,0,0,0,-1,1714,659,8.39551,-0.471241
497,365,9.89233,1.35394,0,0,0,0,0,0,0,-1,1721,659,9.89237,-1.35396
504,365,10.1414,1.18005,0,0,0,0,0,0,0,-1,1728,659,10.1413,-1.18004
511,365,10.5151,0.993896,0,0,0,0,0,0,0,-1,1735,659,10.5152,-0.993894
518,365,11.2029,0.398132,0,0,0,0,0,0,0,-1,1742,659,11.2029,-0.398136
525,365,15.5748,3.85303,0,0,0,0,0,0,0,-1,1749,659,15.5748,-3.85303
532,365,11.2446,1.00629,0,0,0,0,0,0,0,-1,1756,659,11.2446,-1.00631
539,365,12.6301,1.03204,0,0,0,0,0,0,0,-1,1763,659,12.6302,-1.03204
546,365,11.647,0.84198,0,0,0,0,0,0,0,-1,1770,659,11.6469,-0.841955
553,365,12.028,-0.558899,0,0,0,0,0,0,0,-1,1777,659,12.028,0.558873
560,365,14.5372,-4.55548,0,0,0,0,0,0,0,-1,1784,659,14.5373,4.55547
567,365,20.5676,-7.53888,0,0,0,0,0,0,0,-1,1791,659,20.5676,7.53887
574,365,33.2117,-14.444,0,0,0,0,0,0,0,-1,1798,659,33.2116,14.444
581,365,32.9153,-13.6975,0,0,0,0,0,0,0,-1,1805,659,32.9152,13.6975
588,365,32.7931,-13.0185,0.000919495,-3.38265e-05,-0.000483272,0.00112163,-0.000235957,-0.396143,0.000837556,0.0249269,1812,659,32.793,13.0185
595,365,32.7539,-12.1193,0.000966336,0.000229398,-0.000153961,0.000997209,0.000198526,-0.197896,0.000609505,0.0149669,1819,659,32.7539,12.1193
602,365,32.7019,-11.2592,0.00117522,0.000573937,0.00021235,0.00124265,0.000506505,0.307478,0.000721518,0.0170357,1826,659,32.7019,11.2592
609,365,32.6041,-10.4113,0.00141037,0.000994682,0.000617204,0.00185379,0.000551267,0.622985,0.00109919,0.0180012,1833,659,32.6041,10.4113
616,365,32.598,-9.56628,0.00164958,0.00152326,0.00102415,0.00261251,0.000560327,0.7546,0.0015882,0.0191515,1840,659,32.598,9.56626
623,365,32.6188,-8.7207,0.00193324,0.00211038,0.00148308,0.00350754,0.00053609,0.815223,0.00218173,0.0128776,1847,659,32.6188,8.72073
630,365,32.5797,-7.88751,0.00209731,0.00273794,0.00189799,0.00434245,0.000492796,0.868993,0.00274548,0.0165709,1854,659,32.5797,7.88754
637,365,32.5087,-7.07928,0.00211014,0.00339571,0.00224775,0.00509077,0.000415072,0.924665,0.0032643,0.0232151,1861,659,32.5087,7.07926
644,365,32.5027,-6.25909,0.00192995,0.00420829,0.00260173,0.00590932,0.000228924,0.99175,0.0038655,0.0284582,1868,659,32.5027,6.25906
651,365,32.6949,-5.24371,0,0,0,0,0,0,0,-1,1875,659,32.695,5.24369
658,365,24.745,-2.13275,0,0,0,0,0,0,0,-1,1882,659,24.745,2.13277
665,365,14.0961,0.769043,0,0,0,0,0,0,0,-1,1889,659,14.0961,-0.769063
672,365,10.0579,2.15088,0,0,0,0,0,0,0,-1,1896,659,10.0579,-2.15088
679,365,10.9718,2.19208,0,0,0,0,0,0,0,-1,1903,659,10.9718,-2.19211
686,365,12.2134,2.17108,0,0,0,0,0,0,0,-1,1910,659,12.2134,-2.17109
693,365,13.7141,1.98279,0,0,0,0,0,0,0,-1,1917,659,13.7141,-1.98278
700,365,0,0,0,0,0,0,0,0,0,-1,1924,659,0,0
707,365,0,0,0,0,0,0,0,0,0,-1,1931,659,0,0
714,365,0,0,0,0,0,0,0,0,0,-1,1938,659,0,0
721,365,0,0,0,0,0,0,0,0,0,-1,1945,659,0,0
728,365,0,0,0,0,0,0,0,0,0,-1,1952,659,0,0
735,365,0,0,0,0,0,0,0,0,0,-1,1959,659,0,0
742,365,0,0,0,0,0,0,0,0,0,-1,1966,659,0,0
749,365,0,0,0,0,0,0,0,0,0,-1,1973,659,0,0
756,365,0,0,0,0,0,0,0,0,0,-1,1980,659,0,0
763,365,0,0,0,0,0,0,0,0,0,-1,1987,659,0,0
770,365,0,0,0,0,0,0,0,0,0,-1,1994,659,0,0
777,365,0,0,0,0,0,0,0,0,0,-1,2001,659,0,0
784,365,0,0,0,0,0,0,0,0,0,-1,2008,659,0,0
791,365,0,0,0,0,0,0,0,0,0,-1,2015,659,0,0
798,365,0,0,0,0,0,0,0,0,0,-1,2022,659,0,0
805,365,0,0,0,0,0,0,0,0,0,-1,2029,659,0,0
812,365,0,0,0,0,0,0,0,0,0,-1,2036,659,0,0
-700,358,0,0,0,0,0,0,0,0,0,-1,524,666,0,0
-693,358,0,0,0,0,0,0,0,0,0,-1,531,666,0,0
-686,358,0,0,0,0,0,0,0,0,0,-1,538,666,0,0
-679,358,0,0,0,0,0,0,0,0,0,-1,545,666,0,0
-672,358,0,0,0,0,0,0,0,0,0,-1,552,666,0,0
-665,358,0,0,0,0,0,0,0,0,0,-1,559,666,0,0
-658,358,0,0,0,0,0,0,0,0,0,-1,566,666,0,0
-651,358,0,0,0,0,0,0,0,0,0,-1,573,666,0,0
-644,358,0,0,0,0,0,0,0,0,0,-1,580,666,0,0
-637,358,0,0,0,0,0,0,0,0,0,-1,587,666,0,0
-630,358,0,0,0,0,0,0,0,0,0,-1,594,666,0,0
-623,358,0,0,0,0,0,0,0,0,0,-1,601,666,0,0
-616,358,0,0,0,0,0,0,0,0,0,-1,608,666,0,0
-609,358,0,0,0,0,0,0,0,0,0,-1,615,666,0,0
-602,358,0,0,0,0,0,0,0,0,0,-1,622,666,0,0
-595,358,0,0,0,0,0,0,0,0,0,-1,629,666,0,0
-588,358,0,0,0,0,0,0,0,0,0,-1,636,666,0,0
-581,358,-8.31616,1.61993,0,0,0,0,0,0,0,-1,643,666,-8.31614,-1.61993
-574,358,-8.22406,1.75385,0,0,0,0,0,0,0,-1,650,666,-8.22408,-1.75383
-567,358,-8.14215,1.91577,0,0,0,0,0,0,0,-1,657,666,-8.14214,-1.91579
-560,358,-10.6086,2.18872,0,0,0,0,0,0,0,-1,664,666,-10.6086,-2.18873
-553,358,-13.4767,1.09552,0,0,0,0,0,0,0,-1,671,666,-13.4767,-1.09551
-546,358,-13.3743,-0.185059,0,0,0,0,0,0,0,-1,678,666,-13.3743,0.185037
-539,358,-9.43884,-2.04785,0,0,0,0,0,0,0,-1,685,666,-9.43884,2.04785
-532,358,-12.4141,-2.36572,0,0,0,0,0,0,0,-1,692,666,-12.4141,2.3657
-525,358,-12.731,-3.88031,0,0,0,0,0,0,0,-1,699,666,-12.731,3.88029
-518,358,-19.5865,-7.2204,0,0,0,0,0,0,0,-1,706,666,-19.5865,7.22042
-511,358,-19.6274,-8.12,0.00336472,0.000402569,-0.000693018,0.00351884,0.000248451,-0.218826,0.00226761,0.0172184,713,666,-19.6275,8.11998
-504,358,-19.6438,-8.94202,0.00271647,0.000215053,-0.000548823,0.00283159,9.99372e-05,-0.206754,0.00185531,0.0121485,720,666,-19.6438,8.94201
-497,358,-19.6805,-9.79572,0.002198,2.20825e-05,-0.000404468,0.00227075,-5.06692e-05,-0.177967,0.00153101,0.0117634,727,666,-19.6805,9.79572
-490,358,-19.7333,-10.6136,0.00174312,-0.000110376,-0.000314879,0.00179516,-0.000162408,-0.163765,0.00125442,0.0113908,734,666,-19.7333,10.6136
-483,358,-19.7922,-11.4083,0.00144997,-0.000224467,-0.000228589,0.00148061,-0.000255113,-0.133269,0.00108218,0.0107409,741,666,-19.7922,11.4082
-476,358,-19.7793,-12.2004,0.00127326,-0.000258138,-0.000193664,0.00129738,-0.00028225,-0.123864,0.000972748,0.0150053,748,666,-19.7793,12.2005
-469,358,-19.8503,-13.0034,0.00120113,-0.000237578,-0.000245775,0.00124196,-0.000278405,-0.164613,0.000934698,0.0196091,755,666,-19.8503,13.0034
-462,358,-19.9336,-13.8234,0.00125738,-0.000129791,-0.000378625,0.001354,-0.000226406,-0.249843,0.000986829,0.02001,762,666,-19.9336,13.8234
-455,358,-19.9626,-14.6522,0,0,0,0,0,0,0,-1,769,666,-19.9626,14.6522
-448,358,-17.7847,-14.434,0,0,0,0,0,0,0,-1,776,666,-17.7847,14.434
-441,358,-5.56293,-3.98041,0,0,0,0,0,0,0,-1,783,666,-5.56291,3.98043
-434,358,-5.21558,-4.43127,0,0,0,0,0,0,0,-1,790,666,-5.21559,4.43125
-427,358,-3.56189,-3.15729,0,0,0,0,0,0,0,-1,797,666,-3.56192,3.15729
-420,358,0.200195,1.08234,0,0,0,0,0,0,0,-1,804,666,0.200174,-1.08231
-413,358,0.0325317,0.161072,0,0,0,0,0,0,0,-1,811,666,0.0325501,-0.161098
-406,358,-3.85846,0.753113,0,0,0,0,0,0,0,-1,818,666,-3.85846,-0.753129
-399,358,-1.31213,0.190735,0,0,0,0,0,0,0,-1,825,666,-1.31215,-0.190763
-392,358,-3.73914,-0.832214,0,0,0,0,0,0,0,-1,832,666,-3.73915,0.832202
-385,358,-5.95178,-1.69141,0,0,0,0,0,0,0,-1,839,666,-5.9518,1.69143
-378,358,0,0,0,0,0,0,0,0,0,-1,846,666,0,0
-371,358,0,0,0,0,0,0,0,0,0,-1,853,666,0,0
-364,358,0,0,0,0,0,0,0,0,0,-1,860,666,0,0
-357,358,0,0,0,0,0,0,0,0,0,-1,867,666,0,0
-350,358,0,0,0,0,0,0,0,0,0,-1,874,666,0,0
-343,358,0,0,0,0,0,0,0,0,0,-1,881,666,0,0
-336,358,0,0,0,0,0,0,0,0,0,-1,888,666,0,0
-329,358,0,0,0,0,0,0,0,0,0,-1,895,666,0,0
-322,358,0,0,0,0,0,0,0,0,0,-1,902,666,0,0
-315,358,0,0,0,0,0,0,0,0,0,-1,909,666,0,0
-308,358,0,0,0,0,0,0,0,0,0,-1,916,666,0,0
-301,358,0,0,0,0,0,0,0,0,0,-1,923,666,0,0
-294,358,0,0,0,0,0,0,0,0,0,-1,930,666,0,0
-287,358,0,0,0,0,0,0,0,0,0,-1,937,666,0,0
-280,358,0,0,0,0,0,0,0,0,0,-1,944,666,0,0
-273,358,0,0,0,0,0,0,0,0,0,-1,951,666,0,0
-266,358,0,0,0,0,0,0,0,0,0,-1,958,666,0,0
-259,358,0,0,0,0,0,0,0,0,0,-1,965,666,0,0
-252,358,0,0,0,0,0,0,0,0,0,-1,972,666,0,0
-245,358,0,0,0,0,0,0,0,0,0,-1,979,666,0,0
-238,358,0,0,0,0,0,0,0,0,0,-1,986,666,0,0
-231,358,0,0,0,0,0,0,0,0,0,-1,993,666,0,0
-224,358,0,0,0,0,0,0,0,0,0,-1,1000,666,0,0
-217,358,0,0,0,0,0,0,0,0,0,-1,1007,666,0,0
-210,358,0,0,0,0,0,0,0,0,0,-1,1014,666,0,0
-203,358,0,0,0,0,0,0,0,0,0,-1,1021,666,0,0
-196,358,0,0,0,0,0,0,0,0,0,-1,1028,666,0,0
-189,358,0,0,0,0,0,0,0,0,0,-1,1035,666,0,0
-182,358,0,0,0,0,0,0,0,0,0,-1,1042,666,0,0
-175,358,0,0,0,0,0,0,0,0,0,-1,1049,666,0,0
-168,358,0,0,0,0,0,0,0,0,0,-1,1056,666,0,0
-161,358,0,0,0,0,0,0,0,0,0,-1,1063,666,0,0
-154,358,0,0,0,0,0,0,0,0,0,-1,1070,666,0,0
-147,358,0,0,0,0,0,0,0,0,0,-1,1077,666,0,0
-140,358,0,0,0,0,0,0,0,0,0,-1,1084,666,0,0
-133,358,0,0,0,0,0,0,0,0,0,-1,1091,666,0,0
-126,358,0,0,0,0,0,0,0,0,0,-1,1098,666,0,0
-119,358,0,0,0,0,0,0,0,0,0,-1,1105,666,0,0
-112,358,0,0,0,0,0,0,0,0,0,-1,1112,666,0,0
-105,358,0,0,0,0,0,0,0,0,0,-1,1119,666,0,0
-98,358,0,0,0,0,0,0,0,0,0,-1,1126,666,0,0
-91,358,0,0,0,0,0,0,0,0,0,-1,1133,666,0,0
-84,358,0,0,0,0,0,0,0,0,0,-1,1140,666,0,0
-77,358,0,0,0,0,0,0,0,0,0,-1,1147,666,0,0
-70,358,0,0,0,0,0,0,0,0,0,-1,1154,666,0,0
-63,358,0,0,0,0,0,0,0,0,0,-1,1161,666,0,0
-56,358,0,0,0,0,0,0,0,0,0,-1,1168,666,0,0
-49,358,0,0,0,0,0,0,0,0,0,-1,1175,666,0,0
-42,358,0,0,0,0,0,0,0,0,0,-1,1182,666,0,0
-35,358,0,0,0,0,0,0,0,0,0,-1,1189,666,0,0
-28,358,0,0,0,0,0,0,0,0,0,-1,1196,666,0,0
-21,358,0,0,0,0,0,0,0,0,0,-1,1203,666,0,0
-14,358,0,0,0,0,0,0,0,0,0,-1,1210,666,0,0
-7,358,0,0,0,0,0,0,0,0,0,-1,1217,666,0,0
0,358,0,0,0,0,0,0,0,0,0,-1,1224,666,0,0
7,358,0,0,0,0,0,0,0,0,0,-1,1231,666,0,0
14,358,0,0,0,0,0,0,0,0,0,-1,1238,666,0,0
21,358,0,0,0,0,0,0,0,0,0,-1,1245,666,0,0
28,358,0,0,0,0,0,0,0,0,0,-1,1252,666,0,0
35,358,0,0,0,0,0,0,0,0,0,-1,1259,666,0,0
42,358,0,0,0,0,0,0,0,0,0,-1,1266,666,0,0
49,358,0,0,0,0,0,0,0,0,0,-1,1273,666,0,0
56,358,0,0,0,0,0,0,0,0,0,-1,1280,666,0,0
63,358,0,0,0,0,0,0,0,0,0,-1,1287,666,0,0
70,358,0,0,0,0,0,0,0,0,0,-1,1294,666,0,0
77,358,0,0,0,0,0,0,0,0,0,-1,1301,666,0,0
84,358,0,0,0,0,0,0,0,0,0,-1,1308,666,0,0
91,358,0,0,0,0,0,0,0,0,0,-1,1315,666,0,0
98,358,0,0,0,0,0,0,0,0,0,-1,1322,666,0,0
105,358,0,0,0,0,0,0,0,0,0,-1,1329,666,0,0
112,358,0,0,0,0,0,0,0,0,0,-1,1336,666,0,0
119,358,0,0,0,0,0,0,0,0,0,-1,1343,666,0,0
126,358,0,0,0,0,0,0,0,0,0,-1,1350,666,0,0
133,358,0,0,0,0,0,0,0,0,0,-1,1357,666,0,0
140,358,0,0,0,0,0,0,0,0,0,-1,1364,666,0,0
147,358,0,0,0,0,0,0,0,0,0,-1,1371,666,0,0
154,358,0,0,0,0,0,0,0,0,0,-1,1378,666,0,0
161,358,0,0,0,0,0,0,0,0,0,-1,1385,666,0,0
168,358,0,0,0,0,0,0,0,0,0,-1,1392,666,0,0
175,358,0,0,0,0,0,0,0,0,0,-1,1399,666,0,0
182,358,0,0,0,0,0,0,0,0,0,-1,1406,666,0,0
189,358,0,0,0,0,0,0,0,0,0,-1,1413,666,0,0
196,358,0,0,0,0,0,0,0,0,0,-1,1420,666,0,0
203,358,0,0,0,0,0,0,0,0,0,-1,1427,666,0,0
210,358,0,0,0,0,0,0,0,0,0,-1,1434,666,0,0
217,358,0,0,0,0,0,0,0,0,0,-1,1441,666,0,0
224,358,0,0,0,0,0,0,0,0,0,-1,1448,666,0,0
231,358,0,0,0,0,0,0,0,0,0,-1,1455,666,0,0
238,358,0,0,0,0,0,0,0,0,0,-1,1462,666,0,0
245,358,0,0,0,0,0,0,0,0,0,-1,1469,666,0,0
252,358,0,0,0,0,0,0,0,0,0,-1,1476,666,0,0
259,358,0,0,0,0,0,0,0,0,0,-1,1483,666,0,0
266,358,0,0,0,0,0,0,0,0,0,-1,1490,666,0,0
273,358,0,0,0,0,0,0,0,0,0,-1,1497,666,0,0
280,358,0,0,0,0,0,0,0,0,0,-1,1504,666,0,0
287,358,0,0,0,0,0,0,0,0,0,-1,1511,666,0,0
294,358,0,0,0,0,0,0,0,0,0,-1,1518,666,0,0
301,358,0,0,0,0,0,0,0,0,0,-1,1525,666,0,0
308,358,0,0,0,0,0,0,0,0,0,-1,1532,666,0,0
315,358,0,0,0,0,0,0,0,0,0,-1,1539,666,0,0
322,358,0,0,0,0,0,0,0,0,0,-1,1546,666,0,0
329,358,0,0,0,0,0,0,0,0,0,-1,1553,666,0,0
336,358,0,0,0,0,0,0,0,0,0,-1,1560,666,0,0
343,358,0,0,0,0,0,0,0,0,0,-1,1567,666,0,0
350,358,0,0,0,0,0,0,0,0,0,-1,1574,666,0,0
357,358,0,0,0,0,0,0,0,0,0,-1,1581,666,0,0
364,358,0,0,0,0,0,0,0,0,0,-1,1588,666,0,0
371,358,0,0,0,0,0,0,0,0,0,-1,1595,666,0,0
378,358,0,0,0,0,0,0,0,0,0,-1,1602,666,0,0
385,358,0,0,0,0,0,0,0,0,0,-1,1609,666,0,0
392,358,0,0,0,0,0,0,0,0,0,-1,1616,666,0,0
399,358,0,0,0,0,0,0,0,0,0,-1,1623,666,0,0
406,358,0,0,0,0,0,0,0,0,0,-1,1630,666,0,0
413,358,0,0,0,0,0,0,0,0,0,-1,1637,666,0,0
420,358,0,0,0,0,0,0,0,0,0,-1,1644,666,0,0
427,358,0,0,0,0,0,0,0,0,0,-1,1651,666,0,0
434,358,0,0,0,0,0,0,0,0,0,-1,1658,666,0,0
441,358,0,0,0,0,0,0,0,0,0,-1,1665,666,0,0
448,358,0,0,0,0,0,0,0,0,0,-1,1672,666,0,0
455,358,0,0,0,0,0,0,0,0,0,-1,1679,666,0,0
462,358,0,0,0,0,0,0,0,0,0,-1,1686,666,0,0
469,358,0,0,0,0,0,0,0,0,0,-1,1693,666,0,0
476,358,0,0,0,0,0,0,0,0,0,-1,1700,666,0,0
483,358,0,0,0,0,0,0,0,0,0,-1,1707,666,0,0
490,358,0,0,0,0,0,0,0,0,0,-1,1714,666,0,0
497,358,8.57239,1.1322,0,0,0,0,0,0,0,-1,1721,666,8.57234,-1.13219
504,358,10.5972,0.832947,0,0,0,0,0,0,0,-1,1728,666,10.5972,-0.832968
511,358,10.6873,0.868469,0,0,0,0,0,0,0,-1,1735,666,10.6872,-0.868484
518,358,16.5884,2.34894,0,0,0,0,0,0,0,-1,1742,666,16.5884,-2.34894
525,358,15.7626,3.65344,0,0,0,0,0,0,0,-1,1749,666,15.7626,-3.65342
532,358,14.9368,4.95789,0,0,0,0,0,0,0,-1,1756,666,14.9367,-4.9579
539,358,15.1597,3.42694,0,0,0,0,0,0,0,-1,1763,666,15.1597,-3.42692
546,358,12.3792,1.53558,0,0,0,0,0,0,0,-1,1770,666,12.3792,-1.5356
553,358,11.6584,1.26172,0,0,0,0,0,0,0,-1,1777,666,11.6585,-1.26175
560,358,10.8234,1.43042,0,0,0,0,0,0,0,-1,1784,666,10.8233,-1.43041
567,358,10.1333,-0.955139,0,0,0,0,0,0,0,-1,1791,666,10.1333,0.955132
574,358,14.7886,-2.69293,0,0,0,0,0,0,0,-1,1798,666,14.7885,2.6929
581,358,20.1738,-6.76135,0,0,0,0,0,0,0,-1,1805,666,20.1738,6.76137
588,358,33.5494,-13.0674,0,0,0,0,0,0,0,-1,1812,666,33.5494,13.0674
595,358,33.5684,-12.0678,0.000874113,-6.99322e-05,-0.000318394,0.000971458,-0.000167278,-0.296714,0.000709997,0.0187572,1819,666,33.5684,12.0678
602,358,33.5109,-11.159,0.00108277,0.000225176,-1.71571e-05,0.00108311,0.000224833,-0.0199956,0.000660018,0.0148405,1826,666,33.5108,11.159
609,358,33.4446,-10.3213,0.00130888,0.000577915,0.000322841,0.00143105,0.000455747,0.361762,0.000844174,0.0181475,1833,666,33.4446,10.3213
616,358,33.4235,-9.50916,0.00148499,0.00099755,0.000660188,0.00194501,0.00053753,0.608576,0.00115979,0.0175122,1840,666,33.4235,9.50914
623,358,33.4565,-8.68829,0.0016689,0.00146867,0.00102693,0.00260059,0.000536984,0.736809,0.00158534,0.0156516,1847,666,33.4566,8.68831
630,358,33.4408,-7.85321,0.00174714,0.00200401,0.00137914,0.00326068,0.000490469,0.831828,0.00203014,0.0177465,1854,666,33.4408,7.8532
637,358,33.3452,-7.03937,0.00170118,0.00254148,0.0016608,0.00383444,0.000408209,0.909289,0.00243167,0.02423,1861,666,33.3452,7.03936
644,358,33.307,-6.22943,0.00150982,0.00318346,0.00193067,0.00445087,0.000242416,0.989895,0.00288983,0.0207948,1868,666,33.3069,6.22945
651,358,33.3398,-5.3385,0,0,0,0,0,0,0,-1,1875,666,33.3398,5.33847
658,358,33.1084,-4.21619,0,0,0,0,0,0,0,-1,1882,666,33.1084,4.21622
665,358,28.0272,-2.07764,0,0,0,0,0,0,0,-1,1889,666,28.0272,2.07764
672,358,12.4299,1.47272,0,0,0,0,0,0,0,-1,1896,666,12.4299,-1.4727
679,358,12.1294,2.19702,0,0,0,0,0,0,0,-1,1903,666,12.1294,-2.19703
686,358,11.9557,2.2002,0,0,0,0,0,0,0,-1,1910,666,11.9557,-2.20021
693,358,13.188,2.52203,0,0,0,0,0,0,0,-1,1917,666,13.188,-2.52202
700,358,0,0,0,0,0,0,0,0,0,-1,1924,666,0,0
707,358,0,0,0,0,0,0,0,0,0,-1,1931,666,0,0
714,358,0,0,0,0,0,0,0,0,0,-1,1938,666,0,0
721,358,0,0,0,0,0,0,0,0,0,-1,1945,666,0,0
728,358,0,0,0,0,0,0,0,0,0,-1,1952,666,0,0
735,358,0,0,0,0,0,0,0,0,0,-1,1959,666,0,0
742,358,0,0,0,0,0,0,0,0,0,-1,1966,666,0,0
749,358,0,0,0,0,0,0,0,0,0,-1,1973,666,0,0
756,358,0,0,0,0,0,0,0,0,0,-1,1980,666,0,0
763,358,0,0,0,0,0,0,0,0,0,-1,1987,666,0,0
770,358,0,0,0,0,0,0,0,0,0,-1,1994,666,0,0
777,358,0,0,0,0,0,0,0,0,0,-1,2001,666,0,0
784,358,0,0,0,0,0,0,0,0,0,-1,2008,666,0,0
791,358,0,0,0,0,0,0,0,0,0,-1,2015,666,0,0
798,358,0,0,0,0,0,0,0,0,0,-1,2022,666,0,0
805,358,0,0,0,0,0,0,0,0,0,-1,2029,666,0,0
812,358,0,0,0,0,0,0,0,0,0,-1,2036,666,0,0
-700,351,0,0,0,0,0,0,0,0,0,-1,524,673,0,0
-693,351,0,0,0,0,0,0,0,0,0,-1,531,673,0,0
-686,351,0,0,0,0,0,0,0,0,0,-1,538,673,0,0
-679,351,0,0,0,0,0,0,0,0,0,-1,545,673,0,0
-672,351,0,0,0,0,0,0,0,0,0,-1,552,673,0,0
-665,351,0,0,0,0,0,0,0,0,0,-1,559,673,0,0
-658,351,0,0,0,0,0,0,0,0,0,-1,566,673,0,0
-651,351,0,0,0,0,0,0,0,0,0,-1,573,673,0,0
-644,351,0,0,0,0,0,0,0,0,0,-1,580,673,0,0
-637,351,0,0,0,0,0,0,0,0,0,-1,587,673,0,0
-630,351,0,0,0,0,0,0,0,0,0,-1,594,673,0,0
-623,351,0,0,0,0,0,0,0,0,0,-1,601,673,0,0
-616,351,0,0,0,0,0,0,0,0,0,-1,608,673,0,0
-609,351,0,0,0,0,0,0,0,0,0,-1,615,673,0,0
-602,351,0,0,0,0,0,0,0,0,0,-1,622,673,0,0
-595,351,0,0,0,0,0,0,0,0,0,-1,629,673,0,0
-588,351,0,0,0,0,0,0,0,0,0,-1,636,673,0,0
-581,351,-9.0647,1.71906,0,0,0,0,0,0,0,-1,643,673,-9.06472,-1.71908
-574,351,-8.23584,2.64764,0,0,0,0,0,0,0,-1,650,673,-8.23584,-2.64764
-567,351,-10.8027,4.56836,0,0,0,0,0,0,0,-1,657,673,-10.8027,-4.56839
-560,351,-14.2001,2.17084,0,0,0,0,0,0,0,-1,664,673,-14.2002,-2.17086
-553,351,-13.4979,0.779541,0,0,0,0,0,0,0,-1,671,673,-13.4978,-0.779519
-546,351,-14.0065,0.73645,0,0,0,0,0,0,0,-1,678,673,-14.0065,-0.736473
-539,351,-12.8123,-1.46393,0,0,0,0,0,0,0,-1,685,673,-12.8123,1.46395
-532,351,-16.0198,-4.03937,0,0,0,0,0,0,0,-1,692,673,-16.0198,4.03936
-525,351,-20.4722,-6.38361,0,0,0,0,0,0,0,-1,699,673,-20.4722,6.38359
-518,351,-20.4315,-7.19312,0.0041388,0.000864464,-0.000866919,0.00435416,0.000649102,-0.243493,0.00271242,0.0231585,706,673,-20.4315,7.19312
-511,351,-20.4249,-8.05798,0.00328044,0.000418302,-0.000598247,0.00340046,0.000298288,-0.197981,0.00217437,0.0122716,713,673,-20.4249,8.05796
-504,351,-20.4651,-8.86798,0.00260762,0.00012449,-0.000395576,0.00266912,6.29952e-05,-0.154221,0.00175879,0.0111224,720,673,-20.4651,8.86797
-497,351,-20.5188,-9.70294,0.00208734,-0.000133964,-0.000211206,0.00210724,-0.000153868,-0.09396,0.00145882,0.0107542,727,673,-20.5188,9.70297
-490,351,-20.5697,-10.5373,0.00165133,-0.000265594,-0.000123892,0.00165931,-0.000273568,-0.0642741,0.00120777,0.010484,734,673,-20.5697,10.5373
-483,351,-20.6069,-11.3424,0.00139251,-0.000339516,-6.8459e-05,0.00139521,-0.000342218,-0.0394434,0.00106274,0.0131187,741,673,-20.6069,11.3424
-476,351,-20.6544,-12.1334,0.00123916,-0.000313945,-9.84154e-05,0.00124537,-0.000320156,-0.063031,0.000955023,0.0124262,748,673,-20.6544,12.1334
-469,351,-20.6806,-12.9374,0.00118293,-0.000208432,-0.000241563,0.00122368,-0.000249178,-0.167103,0.000910286,0.013689,755,673,-20.6806,12.9374
-462,351,-20.7167,-13.8275,0.0012718,4.82463e-05,-0.00048899,0.00144321,-0.000123164,-0.337155,0.00100571,0.0362578,762,673,-20.7167,13.8275
-455,351,-20.6931,-14.7328,0,0,0,0,0,0,0,-1,769,673,-20.6931,14.7328
-448,351,-6.61456,-4.38654,0,0,0,0,0,0,0,-1,776,673,-6.61456,4.38654
-441,351,-4.31567,-2.3009,0,0,0,0,0,0,0,-1,783,673,-4.31565,2.30089
-434,351,-3.81708,-2.28003,0,0,0,0,0,0,0,-1,790,673,-3.81706,2.28006
-427,351,-2.05157,-2.7785,0,0,0,0,0,0,0,-1,797,673,-2.05157,2.77848
-420,351,-1.06989,-2.43665,0,0,0,0,0,0,0,-1,804,673,-1.06991,2.43663
-413,351,-0.392334,-2.06671,0,0,0,0,0,0,0,-1,811,673,-0.392363,2.06672
-406,351,-1.86316,-2.58105,0,0,0,0,0,0,0,-1,818,673,-1.86313,2.58106
-399,351,1.00952,-1.53455,0,0,0,0,0,0,0,-1,825,673,1.00954,1.53457
-392,351,-1.02197,0.877136,0,0,0,0,0,0,0,-1,832,673,-1.02195,-0.877143
-385,351,-1.47205,1.04437,0,0,0,0,0,0,0,-1,839,673,-1.47207,-1.04435
-378,351,0,0,0,0,0,0,0,0,0,-1,846,673,0,0
-371,351,0,0,0,0,0,0,0,0,0,-1,853,673,0,0
-364,351,0,0,0,0,0,0,0,0,0,-1,860,673,0,0
-357,351,0,0,0,0,0,0,0,0,0,-1,867,673,0,0
-350,351,0,0,0,0,0,0,0,0,0,-1,874,673,0,0
-343,351,0,0,0,0,0,0,0,0,0,-1,881,673,0,0
-336,351,0,0,0,0,0,0,0,0,0,-1,888,673,0,0
-329,351,0,0,0,0,0,0,0,0,0,-1,895,673,0,0
-322,351,0,0,0,0,0,0,0,0,0,-1,902,673,0,0
-315,351,0,0,0,0,0,0,0,0,0,-1,909,673,0,0
-308,351,0,0,0,0,0,0,0,0,0,-1,916,673,0,0
-301,351,0,0,0,0,0,0,0,0,0,-1,923,673,0,0
-294,351,0,0,0,0,0,0,0,0,0,-1,930,673,0,0
-287,351,0,0,0,0,0,0,0,0,0,-1,937,673,0,0
-280,351,0,0,0,0,0,0,0,0,0,-1,944,673,0,0
-273,351,0,0,0,0,0,0,0,0,0,-1,951,673,0,0
-266,351,0,0,0,0,0,0,0,0,0,-1,958,673,0,0
-259,351,0,0,0,0,0,0,0,0,0,-1,965,673,0,0
-252,351,0,0,0,0,0,0,0,0,0,-1,972,673,0,0
-245,351,0,0,0,0,0,0,0,0,0,-1,979,673,0,0
-238,351,0,0,0,0,0,0,0,0,0,-1,986,673,0,0
-231,351,0,0,0,0,0,0,0,0,0,-1,993,673,0,0
-224,351,0,0,0,0,0,0,0,0,0,-1,1000,673,0,0
-217,351,0,0,0,0,0,0,0,0,0,-1,1007,673,0,0
-210,351,0,0,0,0,0,0,0,0,0,-1,1014,673,0,0
-203,351,0,0,0,0,0,0,0,0,0,-1,1021,673,0,0
-196,351,0,0,0,0,0,0,0,0,0,-1,1028,673,0,0
-189,351,0,0,0,0,0,0,0,0,0,-1,1035,673,0,0
-182,351,0,0,0,0,0,0,0,0,0,-1,1042,673,0,0
-175,351,0,0,0,0,0,0,0,0,0,-1,1049,673,0,0
-168,351,0,0,0,0,0,0,0,0,0,-1,1056,673,0,0
-161,351,0,0,0,0,0,0,0,0,0,-1,1063,673,0,0
-154,351,0,0,0,0,0,0,0,0,0,-1,1070,673,0,0
-147,351,0,0,0,0,0,0,0,0,0,-1,1077,673,0,0
-140,351,0,0,0,0,0,0,0,0,0,-1,1084,673,0,0
-133,351,0,0,0,0,0,0,0,0,0,-1,1091,673,0,0
-126,351,0,0,0,0,0,0,0,0,0,-1,1098,673,0,0
-119,351,0,0,0,0,0,0,0,0,0,-1,1105,673,0,0
-112,351,0,0,0,0,0,0,0,0,0,-1,1112,673,0,0
-105,351,0,0,0,0,0,0,0,0,0,-1,1119,673,0,0
-98,351,0,0,0,0,0,0,0,0,0,-1,1126,673,0,0
-91,351,0,0,0,0,0,0,0,0,0,-1,1133,673,0,0
-84,351,0,0,0,0,0,0,0,0,0,-1,1140,673,0,0
-77,351,0,0,0,0,0,0,0,0,0,-1,1147,673,0,0
-70,351,0,0,0,0,0,0,0,0,0,-1,1154,673,0,0
-63,351,0,0,0,0,0,0,0,0,0,-1,1161,673,0,0
-56,351,0,0,0,0,0,0,0,0,0,-1,1168,673,0,0
-49,351,0,0,0,0,0,0,0,0,0,-1,1175,673,0,0
-42,351,0,0,0,0,0,0,0,0,0,-1,1182,673,0,0
-35,351,0,0,0,0,0,0,0,0,0,-1,1189,673,0,0
-28,351,0,0,0,0,0,0,0,0,0,-1,1196,673,0,0
-21,351,0,0,0,0,0,0,0,0,0,-1,1203,673,0,0
-14,351,0,0,0,0,0,0,0,0,0,-1,1210,673,0,0
-7,351,0,0,0,0,0,0,0,0,0,-1,1217,673,0,0
0,351,0,0,0,0,0,0,0,0,0,-1,1224,673,0,0
7,351,0,0,0,0,0,0,0,0,0,-1,1231,673,0,0
14,351,0,0,0,0,0,0,0,0,0,-1,1238,673,0,0
21,351,0,0,0,0,0,0,0,0,0,-1,1245,673,0,0
28,351,0,0,0,0,0,0,0,0,0,-1,1252,673,0,0
35,351,0,0,0,0,0,0,0,0,0,-1,1259,673,0,0
42,351,0,0,0,0,0,0,0,0,0,-1,1266,673,0,0
49,351,0,0,0,0,0,0,0,0,0,-1,1273,673,0,0
56,351,0,0,0,0,0,0,0,0,0,-1,1280,673,0,0
63,351,0,0,0,0,0,0,0,0,0,-1,1287,673,0,0
70,351,0,0,0,0,0,0,0,0,0,-1,1294,673,0,0
77,351,0,0,0,0,0,0,0,0,0,-1,1301,673,0,0
84,351,0,0,0,0,0,0,0,0,0,-1,1308,673,0,0
91,351,0,0,0,0,0,0,0,0,0,-1,1315,673,0,0
98,351,0,0,0,0,0,0,0,0,0,-1,1322,673,0,0
105,351,0,0,0,0,0,0,0,0,0,-1,1329,673,0,0
112,351,0,0,0,0,0,0,0,0,0,-1,1336,673,0,0
119,351,0,0,0,0,0,0,0,0,0,-1,1343,673,0,0
126,351,0,0,0,0,0,0,0,0,0,-1,1350,673,0,0
133,351,0,0,0,0,0,0,0,0,0,-1,1357,673,0,0
140,351,0,0,0,0,0,0,0,0,0,-1,1364,673,0,0
147,351,0,0,0,0,0,0,0,0,0,-1,1371,673,0,0
154,351,0,0,0,0,0,0,0,0,0,-1,1378,673,0,0
161,351,0,0,0,0,0,0,0,0,0,-1,1385,673,0,0
168,351,0,0,0,0,0,0,0,0,0,-1,1392,673,0,0
175,351,0,0,0,0,0,0,0,0,0,-1,1399,673,0,0
182,351,0,0,0,0,0,0,0,0,0,-1,1406,673,0,0
189,351,0,0,0,0,0,0,0,0,0,-1,1413,673,0,0
196,351,0,0,0,0,0,0,0,0,0,-1,1420,673,0,0
203,351,0,0,0,0,0,0,0,0,0,-1,1427,673,0,0
210,351,0,0,0,0,0,0,0,0,0,-1,1434,673,0,0
217,351,0,0,0,0,0,0,0,0,0,-1,1441,673,0,0
224,351,0,0,0,0,0,0,0,0,0,-1,1448,673,0,0
231,351,0,0,0,0,0,0,0,0,0,-1,1455,673,0,0
238,351,0,0,0,0,0,0,0,0,0,-1,1462,673,0,0
245,351,0,0,0,0,0,0,0,0,0,-1,1469,673,0,0
252,351,0,0,0,0,0,0,0,0,0,-1,1476,673,0,0
259,351,0,0,0,0,0,0,0,0,0,-1,1483,673,0,0
266,351,0,0,0,0,0,0,0,0,0,-1,1490,673,0,0
273,351,0,0,0,0,0,0,0,0,0,-1,1497,673,0,0
280,351,0,0,0,0,0,0,0,0,0,-1,1504,673,0,0
287,351,0,0,0,0,0,0,0,0,0,-1,1511,673,0,0
294,351,0,0,0,0,0,0,0,0,0,-1,1518,673,0,0
301,351,0,0,0,0,0,0,0,0,0,-1,1525,673,0,0
308,351,0,0,0,0,0,0,0,0,0,-1,1532,673,0,0
315,351,0,0,0,0,0,0,0,0,0,-1,1539,673,0,0
322,351,0,0,0,0,0,0,0,0,0,-1,1546,673,0,0
329,351,0,0,0,0,0,0,0,0,0,-1,1553,673,0,0
336,351,0,0,0,0,0,0,0,0,0,-1,1560,673,0,0
343,351,0,0,0,0,0,0,0,0,0,-1,1567,673,0,0
350,351,0,0,0,0,0,0,0,0,0,-1,1574,673,0,0
357,351,0,0,0,0,0,0,0,0,0,-1,1581,673,0,0
364,351,0,0,0,0,0,0,0,0,0,-1,1588,673,0,0
371,351,0,0,0,0,0,0,0,0,0,-1,1595,673,0,0
378,351,0,0,0,0,0,0,0,0,0,-1,1602,673,0,0
385,351,0,0,0,0,0,0,0,0,0,-1,1609,673,0,0
392,351,0,0,0,0,0,0,0,0,0,-1,1616,673,0,0
399,351,0,0,0,0,0,0,0,0,0,-1,1623,673,0,0
406,351,0,0,0,0,0,0,0,0,0,-1,1630,673,0,0
413,351,0,0,0,0,0,0,0,0,0,-1,1637,673,0,0
420,351,0,0,0,0,0,0,0,0,0,-1,1644,673,0,0
427,351,0,0,0,0,0,0,0,0,0,-1,1651,673,0,0
434,351,0,0,0,0,0,0,0,0,0,-1,1658,673,0,0
441,351,0,0,0,0,0,0,0,0,0,-1,1665,673,0,0
448,351,0,0,0,0,0,0,0,0,0,-1,1672,673,0,0
455,351,0,0,0,0,0,0,0,0,0,-1,1679,673,0,0
462,351,0,0,0,0,0,0,0,0,0,-1,1686,673,0,0
469,351,0,0,0,0,0,0,0,0,0,-1,1693,673,0,0
476,351,0,0,0,0,0,0,0,0,0,-1,1700,673,0,0
483,351,0,0,0,0,0,0,0,0,0,-1,1707,673,0,0
490,351,0,0,0,0,0,0,0,0,0,-1,1714,673,0,0
497,351,0,0,0,0,0,0,0,0,0,-1,1721,673,0,0
504,351,10.8842,1.61615,0,0,0,0,0,0,0,-1,1728,673,10.8842,-1.61618
511,351,15.4548,0.0236816,0,0,0,0,0,0,0,-1,1735,673,15.4549,-0.0236664
518,351,16.7448,2.49268,0,0,0,0,0,0,0,-1,1742,673,16.7448,-2.49269
525,351,16.0701,3.43225,0,0,0,0,0,0,0,-1,1749,673,16.07,-3.43227
532,351,32.3822,3.03021,0,0,0,0,0,0,0,-1,1756,673,32.3822,-3.03019
539,351,15.3387,3.54486,0,0,0,0,0,0,0,-1,1763,673,15.3387,-3.54485
546,351,13.9387,4.59357,0,0,0,0,0,0,0,-1,1770,673,13.9388,-4.59359
553,351,12.0682,2.02832,0,0,0,0,0,0,0,-1,1777,673,12.0683,-2.02831
560,351,12.0173,0.55304,0,0,0,0,0,0,0,-1,1784,673,12.0174,-0.553028
567,351,10.7827,0.130188,0,0,0,0,0,0,0,-1,1791,673,10.7827,-0.130183
574,351,13.405,-1.09204,0,0,0,0,0,0,0,-1,1798,673,13.405,1.09207
581,351,15.2351,-3.06049,0,0,0,0,0,0,0,-1,1805,673,15.2351,3.06046
588,351,29.9419,-10.5057,0,0,0,0,0,0,0,-1,1812,673,29.9419,10.5057
595,351,34.4305,-12.0406,0,0,0,0,0,0,0,-1,1819,673,34.4306,12.0406
602,351,34.4169,-11.1293,0.00112532,2.44786e-05,-9.92501e-05,0.00113419,1.5602e-05,-0.0892002,0.000750982,0.0206903,1826,673,34.4168,11.1293
609,351,34.3593,-10.3147,0.00132582,0.000270311,0.000141021,0.00134433,0.000251795,0.130555,0.000825196,0.019785,1833,673,34.3593,10.3147
616,351,34.295,-9.49829,0.00141892,0.000553969,0.000398508,0.00157453,0.00039836,0.372272,0.000945307,0.0164571,1840,673,34.295,9.49828
623,351,34.3042,-8.66504,0.00148471,0.000909483,0.000663712,0.00192044,0.000473746,0.580942,0.00115523,0.0164341,1847,673,34.3042,8.66501
630,351,34.2621,-7.82056,0.00147979,0.0013536,0.000949871,0.00236866,0.00046473,0.752236,0.00144925,0.0253354,1854,673,34.2621,7.82053
637,351,34.1642,-6.99713,0.00139268,0.00181412,0.00118615,0.00280813,0.000398674,0.873308,0.00175436,0.0278849,1861,673,34.1642,6.99714
644,351,34.1345,-6.16156,0.00121374,0.00235013,0.00141098,0.00330303,0.00026084,0.976812,0.00212043,0.0208589,1868,673,34.1345,6.16155
651,351,34.1511,-5.22632,0.000969645,0.00295994,0.00164018,0.00388325,4.63297e-05,1.05808,0.00257353,0.0182328,1875,673,34.1511,5.22632
658,351,34.027,-4.35468,0.000614445,0.00369874,0.0017678,0.00450252,-0.000189327,1.14406,0.00306674,0.0434137,1882,673,34.027,4.35467
665,351,33.6306,-3.42651,0,0,0,0,0,0,0,-1,1889,673,33.6306,3.42653
672,351,33.4275,-2.7207,0,0,0,0,0,0,0,-1,1896,673,33.4275,2.7207
679,351,14.1252,1.85681,0,0,0,0,0,0,0,-1,1903,673,14.1253,-1.85682
686,351,13.0294,2.1189,0,0,0,0,0,0,0,-1,1910,673,13.0294,-2.11892
693,351,13.5187,2.34595,0,0,0,0,0,0,0,-1,1917,673,13.5187,-2.34596
700,351,14.5629,-2.40173,0,0,0,0,0,0,0,-1,1924,673,14.5629,2.40172
707,351,0,0,0,0,0,0,0,0,0,-1,1931,673,0,0
714,351,0,0,0,0,0,0,0,0,0,-1,1938,673,0,0
721,351,0,0,0,0,0,0,0,0,0,-1,1945,673,0,0
728,351,0,0,0,0,0,0,0,0,0,-1,1952,673,0,0
735,351,0,0,0,0,0,0,0,0,0,-1,1959,673,0,0
742,351,0,0,0,0,0,0,0,0,0,-1,1966,673,0,0
749,351,0,0,0,0,0,0,0,0,0,-1,1973,673,0,0
756,351,0,0,0,0,0,0,0,0,0,-1,1980,673,0,0
763,351,0,0,0,0,0,0,0,0,0,-1,1987,673,0,0
770,351,0,0,0,0,0,0,0,0,0,-1,1994,673,0,0
777,351,0,0,0,0,0,0,0,0,0,-1,2001,673,0,0
784,351,0,0,0,0,0,0,0,0,0,-1,2008,673,0,0
791,351,0,0,0,0,0,0,0,0,0,-1,2015,673,0,0
798,351,0,0,0,0,0,0,0,0,0,-1,2022,673,0,0
805,351,0,0,0,0,0,0,0,0,0,-1,2029,673,0,0
812,351,0,0,0,0,0,0,0,0,0,-1,2036,673,0,0
-700,344,0,0,0,0,0,0,0,0,0,-1,524,680,0,0
-693,344,0,0,0,0,0,0,0,0,0,-1,531,680,0,0
-686,344,0,0,0,0,0,0,0,0,0,-1,538,680,0,0
-679,344,0,0,0,0,0,0,0,0,0,-1,545,680,0,0
-672,344,0,0,0,0,0,0,0,0,0,-1,552,680,0,0
-665,344,0,0,0,0,0,0,0,0,0,-1,559,680,0,0
-658,344,0,0,0,0,0,0,0,0,0,-1,566,680,0,0
-651,344,0,0,0,0,0,0,0,0,0,-1,573,680,0,0
-644,344,0,0,0,0,0,0,0,0,0,-1,580,680,0,0
-637,344,0,0,0,0,0,0,0,0,0,-1,587,680,0,0
-630,344,0,0,0,0,0,0,0,0,0,-1,594,680,0,0
-623,344,0,0,0,0,0,0,0,0,0,-1,601,680,0,0
-616,344,0,0,0,0,0,0,0,0,0,-1,608,680,0,0
-609,344,0,0,0,0,0,0,0,0,0,-1,615,680,0,0
-602,344,0,0,0,0,0,0,0,0,0,-1,622,680,0,0
-595,344,0,0,0,0,0,0,0,0,0,-1,629,680,0,0
-588,344,-9.27826,1.47302,0,0,0,0,0,0,0,-1,636,680,-9.27829,-1.473
-581,344,-10.0098,1.71753,0,0,0,0,0,0,0,-1,643,680,-10.0098,-1.7175
-574,344,-10.2208,3.04871,0,0,0,0,0,0,0,-1,650,680,-10.2208,-3.04869
-567,344,-14.3779,2.29016,0,0,0,0,0,0,0,-1,657,680,-14.3779,-2.29014
-560,344,-14.1238,1.8374,0,0,0,0,0,0,0,-1,664,680,-14.1238,-1.83743
-553,344,-14.7884,2.00116,0,0,0,0,0,0,0,-1,671,680,-14.7884,-2.00115
-546,344,-17.4192,0.157654,0,0,0,0,0,0,0,-1,678,680,-17.4192,-0.157635
-539,344,-17.2671,-2.75714,0,0,0,0,0,0,0,-1,685,680,-17.2671,2.75712
-532,344,-18.4417,-4.38605,0,0,0,0,0,0,0,-1,692,680,-18.4417,4.38603
-525,344,-21.2434,-6.42328,0,0,0,0,0,0,0,-1,699,680,-21.2434,6.42327
-518,344,-21.2582,-7.19104,0.00395738,0.000914054,-0.000742056,0.00412868,0.000742759,-0.226864,0.00254131,0.0210597,706,680,-21.2582,7.19103
-511,344,-21.2744,-7.99268,0.00306877,0.000356453,-0.00043851,0.0031379,0.000287319,-0.156368,0.00200304,0.0170717,713,680,-21.2744,7.99267
-504,344,-21.3184,-8.8208,0.00237395,-6.40479e-05,-0.000193883,0.00238927,-7.93705e-05,-0.0788651,0.00161995,0.0171645,720,680,-21.3184,8.82081
-497,344,-21.3519,-9.66522,0.00185757,-0.000388384,1.15723e-05,0.00185763,-0.000388444,0.0051523,0.00138617,0.015587,727,680,-21.3519,9.66523
-490,344,-21.381,-10.4992,0.00145272,-0.000544516,9.87484e-05,0.00145759,-0.000549386,0.0492822,0.00119763,0.0144077,734,680,-21.381,10.4992
-483,344,-21.3965,-11.3151,0.0012312,-0.000585742,0.000121523,0.0012393,-0.000593834,0.0664883,0.00108001,0.0154859,741,680,-21.3966,11.3151
-476,344,-21.4389,-12.1127,0.00110862,-0.000504001,6.63883e-06,0.00110864,-0.000504028,0.00411672,0.000952639,0.0159095,748,680,-21.4389,12.1127
-469,344,-21.4671,-12.9655,0.00107042,-0.000290742,-0.000254704,0.00111652,-0.000336842,-0.179054,0.000878427,0.0215736,755,680,-21.4671,12.9655
-462,344,-21.4279,-13.8713,0,0,0,0,0,0,0,-1,762,680,-21.4279,13.8713
-455,344,-12.1653,-7.99176,0,0,0,0,0,0,0,-1,769,680,-12.1653,7.99174
-448,344,-5.67657,-2.72864,0,0,0,0,0,0,0,-1,776,680,-5.6766,2.72863
-441,344,-5.09229,-2.34167,0,0,0,0,0,0,0,-1,783,680,-5.09229,2.34168
-434,344,-4.28778,-2.08807,0,0,0,0,0,0,0,-1,790,680,-4.28778,2.08809
-427,344,-3.06506,-1.45404,0,0,0,0,0,0,0,-1,797,680,-3.06505,1.45402
-420,344,-1.96582,-1.57574,0,0,0,0,0,0,0,-1,804,680,-1.96579,1.57574
-413,344,-0.817993,-1.4751,0,0,0,0,0,0,0,-1,811,680,-0.818017,1.47511
-406,344,-0.00714111,-1.25189,0,0,0,0,0,0,0,-1,818,680,-0.00714956,1.25191
-399,344,0.240051,-1.75769,0,0,0,0,0,0,0,-1,825,680,0.240079,1.75767
-392,344,1.11353,-2.05615,0,0,0,0,0,0,0,-1,832,680,1.11351,2.05616
-385,344,0,0,0,0,0,0,0,0,0,-1,839,680,0,0
-378,344,0,0,0,0,0,0,0,0,0,-1,846,680,0,0
-371,344,0,0,0,0,0,0,0,0,0,-1,853,680,0,0
-364,344,0,0,0,0,0,0,0,0,0,-1,860,680,0,0
-357,344,0,0,0,0,0,0,0,0,0,-1,867,680,0,0
-350,344,0,0,0,0,0,0,0,0,0,-1,874,680,0,0
-343,344,0,0,0,0,0,0,0,0,0,-1,881,680,0,0
-336,344,0,0,0,0,0,0,0,0,0,-1,888,680,0,0
-329,344,0,0,0,0,0,0,0,0,0,-1,895,680,0,0
-322,344,0,0,0,0,0,0,0,0,0,-1,902,680,0,0
-315,344,0,0,0,0,0,0,0,0,0,-1,909,680,0,0
-308,344,0,0,0,0,0,0,0,0,0,-1,916,680,0,0
-301,344,0,0,0,0,0,0,0,0,0,-1,923,680,0,0
-294,344,0,0,0,0,0,0,0,0,0,-1,930,680,0,0
-287,344,0,0,0,0,0,0,0,0,0,-1,937,680,0,0
-280,344,0,0,0,0,0,0,0,0,0,-1,944,680,0,0
-273,344,0,0,0,0,0,0,0,0,0,-1,951,680,0,0
-266,344,0,0,0,0,0,0,0,0,0,-1,958,680,0,0
-259,344,0,0,0,0,0,0,0,0,0,-1,965,680,0,0
-252,344,0,0,0,0,0,0,0,0,0,-1,972,680,0,0
-245,344,0,0,0,0,0,0,0,0,0,-1,979,680,0,0
-238,344,0,0,0,0,0,0,0,0,0,-1,986,680,0,0
-231,344,0,0,0,0,0,0,0,0,0,-1,993,680,0,0
-224,344,0,0,0,0,0,0,0,0,0,-1,1000,680,0,0
-217,344,0,0,0,0,0,0,0,0,0,-1,1007,680,0,0
-210,344,0,0,0,0,0,0,0,0,0,-1,1014,680,0,0
-203,344,0,0,0,0,0,0,0,0,0,-1,1021,680,0,0
-196,344,0,0,0,0,0,0,0,0,0,-1,1028,680,0,0
-189,344,0,0,0,0,0,0,0,0,0,-1,1035,680,0,0
-182,344,0,0,0,0,0,0,0,0,0,-1,1042,680,0,0
-175,344,0,0,0,0,0,0,0,0,0,-1,1049,680,0,0
-168,344,0,0,0,0,0,0,0,0,0,-1,1056,680,0,0
-161,344,0,0,0,0,0,0,0,0,0,-1,1063,680,0,0
-154,344,0,0,0,0,0,0,0,0,0,-1,1070,680,0,0
-147,344,0,0,0,0,0,0,0,0,0,-1,1077,680,0,0
-140,344,0,0,0,0,0,0,0,0,0,-1,1084,680,0,0
-133,344,0,0,0,0,0,0,0,0,0,-1,1091,680,0,0
-126,344,0,0,0,0,0,0,0,0,0,-1,1098,680,0,0
-119,344,0,0,0,0,0,0,0,0,0,-1,1105,680,0,0
-112,344,0,0,0,0,0,0,0,0,0,-1,1112,680,0,0
-105,344,0,0,0,0,0,0,0,0,0,-1,1119,680,0,0
-98,344,0,0,0,0,0,0,0,0,0,-1,1126,680,0,0
-91,344,0,0,0,0,0,0,0,0,0,-1,1133,680,0,0
-84,344,0,0,0,0,0,0,0,0,0,-1,1140,680,0,0
-77,344,0,0,0,0,0,0,0,0,0,-1,1147,680,0,0
-70,344,0,0,0,0,0,0,0,0,0,-1,1154,680,0,0
-63,344,0,0,0,0,0,0,0,0,0,-1,1161,680,0,0
-56,344,0,0,0,0,0,0,0,0,0,-1,1168,680,0,0
-49,344,0,0,0,0,0,0,0,0,0,-1,1175,680,0,0
-42,344,0,0,0,0,0,0,0,0,0,-1,1182,680,0,0
-35,344,0,0,0,0,0,0,0,0,0,-1,1189,680,0,0
-28,344,0,0,0,0,0,0,0,0,0,-1,1196,680,0,0
-21,344,0,0,0,0,0,0,0,0,0,-1,1203,680,0,0
-14,344,0,0,0,0,0,0,0,0,0,-1,1210,680,0,0
-7,344,0,0,0,0,0,0,0,0,0,-1,1217,680,0,0
0,344,0,0,0,0,0,0,0,0,0,-1,1224,680,0,0
7,344,0,0,0,0,0,0,0,0,0,-1,1231,680,0,0
14,344,0,0,0,0,0,0,0,0,0,-1,1238,680,0,0
21,344,0,0,0,0,0,0,0,0,0,-1,1245,680,0,0
28,344,0,0,0,0,0,0,0,0,0,-1,1252,680,0,0
35,344,0,0,0,0,0,0,0,0,0,-1,1259,680,0,0
42,344,0,0,0,0,0,0,0,0,0,-1,1266,680,0,0
49,344,0,0,0,0,0,0,0,0,0,-1,1273,680,0,0
56,344,0,0,0,0,0,0,0,0,0,-1,1280,680,0,0
63,344,0,0,0,0,0,0,0,0,0,-1,1287,680,0,0
70,344,0,0,0,0,0,0,0,0,0,-1,1294,680,0,0
77,344,0,0,0,0,0,0,0,0,0,-1,1301,680,0,0
84,344,0,0,0,0,0,0,0,0,0,-1,1308,680,0,0
91,344,0,0,0,0,0,0,0,0,0,-1,1315,680,0,0
98,344,0,0,0,0,0,0,0,0,0,-1,1322,680,0,0
105,344,0,0,0,0,0,0,0,0,0,-1,1329,680,0,0
112,344,0,0,0,0,0,0,0,0,0,-1,1336,680,0,0
119,344,0,0,0,0,0,0,0,0,0,-1,1343,680,0,0
126,344,0,0,0,0,0,0,0,0,0,-1,1350,680,0,0
133,344,0,0,0,0,0,0,0,0,0,-1,1357,680,0,0
140,344,0,0,0,0,0,0,0,0,0,-1,1364,680,0,0
147,344,0,0,0,0,0,0,0,0,0,-1,1371,680,0,0
154,344,0,0,0,0,0,0,0,0,0,-1,1378,680,0,0
161,344,0,0,0,0,0,0,0,0,0,-1,1385,680,0,0
168,344,0,0,0,0,0,0,0,0,0,-1,1392,680,0,0
175,344,0,0,0,0,0,0,0,0,0,-1,1399,680,0,0
182,344,0,0,0,0,0,0,0,0,0,-1,1406,680,0,0
189,344,0,0,0,0,0,0,0,0,0,-1,1413,680,0,0
196,344,0,0,0,0,0,0,0,0,0,-1,1420,680,0,0
203,344,0,0,0,0,0,0,0,0,0,-1,1427,680,0,0
210,344,0,0,0,0,0,0,0,0,0,-1,1434,680,0,0
217,344,0,0,0,0,0,0,0,0,0,-1,1441,680,0,0
224,344,0,0,0,0,0,0,0,0,0,-1,1448,680,0,0
231,344,0,0,0,0,0,0,0,0,0,-1,1455,680,0,0
238,344,0,0,0,0,0,0,0,0,0,-1,1462,680,0,0
245,344,0,0,0,0,0,0,0,0,0,-1,1469,680,0,0
252,344,0,0,0,0,0,0,0,0,0,-1,1476,680,0,0
259,344,0,0,0,0,0,0,0,0,0,-1,1483,680,0,0
266,344,0,0,0,0,0,0,0,0,0,-1,1490,680,0,0
273,344,0,0,0,0,0,0,0,0,0,-1,1497,680,0,0
280,344,0,0,0,0,0,0,0,0,0,-1,1504,680,0,0
287,344,0,0,0,0,0,0,0,0,0,-1,1511,680,0,0
294,344,0,0,0,0,0,0,0,0,0,-1,1518,680,0,0
301,344,0,0,0,0,0,0,0,0,0,-1,1525,680,0,0
308,344,0,0,0,0,0,0,0,0,0,-1,1532,680,0,0
315,344,0,0,0,0,0,0,0,0,0,-1,1539,680,0,0
322,344,0,0,0,0,0,0,0,0,0,-1,1546,680,0,0
329,344,0,0,0,0,0,0,0,0,0,-1,1553,680,0,0
336,344,0,0,0,0,0,0,0,0,0,-1,1560,680,0,0
343,344,0,0,0,0,0,0,0,0,0,-1,1567,680,0,0
350,344,0,0,0,0,0,0,0,0,0,-1,1574,680,0,0
357,344,0,0,0,0,0,0,0,0,0,-1,1581,680,0,0
364,344,0,0,0,0,0,0,0,0,0,-1,1588,680,0,0
371,344,0,0,0,0,0,0,0,0,0,-1,1595,680,0,0
378,344,0,0,0,0,0,0,0,0,0,-1,1602,680,0,0
385,344,0,0,0,0,0,0,0,0,0,-1,1609,680,0,0
392,344,0,0,0,0,0,0,0,0,0,-1,1616,680,0,0
399,344,0,0,0,0,0,0,0,0,0,-1,1623,680,0,0
406,344,0,0,0,0,0,0,0,0,0,-1,1630,680,0,0
413,344,0,0,0,0,0,0,0,0,0,-1,1637,680,0,0
420,344,0,0,0,0,0,0,0,0,0,-1,1644,680,0,0
427,344,0,0,0,0,0,0,0,0,0,-1,1651,680,0,0
434,344,0,0,0,0,0,0,0,0,0,-1,1658,680,0,0
441,344,0,0,0,0,0,0,0,0,0,-1,1665,680,0,0
448,344,0,0,0,0,0,0,0,0,0,-1,1672,680,0,0
455,344,0,0,0,0,0,0,0,0,0,-1,1679,680,0,0
462,344,0,0,0,0,0,0,0,0,0,-1,1686,680,0,0
469,344,0,0,0,0,0,0,0,0,0,-1,1693,680,0,0
476,344,0,0,0,0,0,0,0,0,0,-1,1700,680,0,0
483,344,0,0,0,0,0,0,0,0,0,-1,1707,680,0,0
490,344,0,0,0,0,0,0,0,0,0,-1,1714,680,0,0
497,344,0,0,0,0,0,0,0,0,0,-1,1721,680,0,0
504,344,0,0,0,0,0,0,0,0,0,-1,1728,680,0,0
511,344,15.4819,0.452637,0,0,0,0,0,0,0,-1,1735,680,15.4819,-0.452656
518,344,17.1357,2.31207,0,0,0,0,0,0,0,-1,1742,680,17.1358,-2.31207
525,344,31.5201,2.6217,0,0,0,0,0,0,0,-1,1749,680,31.5201,-2.62168
532,344,31.9766,2.61047,0,0,0,0,0,0,0,-1,1756,680,31.9765,-2.6105
539,344,32.4379,2.65314,0,0,0,0,0,0,0,-1,1763,680,32.4378,-2.65316
546,344,14.6722,4.30243,0,0,0,0,0,0,0,-1,1770,680,14.6722,-4.30241
553,344,14.8136,4.35681,0,0,0,0,0,0,0,-1,1777,680,14.8136,-4.35679
560,344,11.9363,2.14185,0,0,0,0,0,0,0,-1,1784,680,11.9362,-2.14182
567,344,11.397,0.925842,0,0,0,0,0,0,0,-1,1791,680,11.397,-0.92583
574,344,10.0004,0.504639,0,0,0,0,0,0,0,-1,1798,680,10.0004,-0.504645
581,344,13.6709,-0.969604,0,0,0,0,0,0,0,-1,1805,680,13.6709,0.969629
588,344,16.1447,-3.15948,0,0,0,0,0,0,0,-1,1812,680,16.1447,3.15946
595,344,35.3004,-12.0262,0,0,0,0,0,0,0,-1,1819,680,35.3004,12.0263
602,344,35.3044,-11.1227,0.00123192,-5.17978e-05,-6.95437e-05,0.00123568,-5.55541e-05,-0.0539632,0.000842913,0.035915,1826,680,35.3045,11.1227
609,344,35.226,-10.2773,0.00150255,8.92628e-05,0.000137606,0.00151583,7.59893e-05,0.0961626,0.000986197,0.0172621,1833,680,35.2259,10.2773
616,344,35.1493,-9.43823,0.00154916,0.000245383,0.000359657,0.00164179,0.00015275,0.25208,0.00104733,0.0231761,1840,680,35.1493,9.43824
623,344,35.1528,-8.62231,0.00150355,0.000502942,0.000542264,0.00174105,0.000265442,0.412811,0.00108312,0.0198285,1847,680,35.1528,8.62231
630,344,35.0824,-7.80579,0.00142654,0.000861713,0.000765033,0.00195962,0.000328631,0.608582,0.00121182,0.0259178,1854,680,35.0824,7.80576
637,344,34.9978,-6.97034,0.00130611,0.00125672,0.000953211,0.00223495,0.000327887,0.772447,0.00139359,0.0241766,1861,680,34.9979,6.97037
644,344,35.0103,-6.10577,0.0011408,0.00171621,0.00113131,0.00259582,0.00026119,0.909915,0.00165039,0.0166211,1868,680,35.0103,6.10577
651,344,34.9707,-5.216,0.00096908,0.00228417,0.00132645,0.00310711,0.000146142,1.01551,0.00202445,0.0121623,1875,680,34.9706,5.21599
658,344,34.8882,-4.26471,0.000778752,0.00298525,0.00148071,0.00372852,3.54772e-05,1.10557,0.00247394,0.0269467,1882,680,34.8882,4.26471
665,344,34.6898,-3.46777,0.000861895,0.00373604,0.00174033,0.00455594,4.19936e-05,1.13052,0.00302339,0.0433897,1889,680,34.6899,3.4678
672,344,34.7133,-2.71973,0,0,0,0,0,0,0,-1,1896,680,34.7132,2.71974
679,344,35.1926,-2.13776,0,0,0,0,0,0,0,-1,1903,680,35.1927,2.13778
686,344,15.024,1.82709,0,0,0,0,0,0,0,-1,1910,680,15.024,-1.82706
693,344,12.4362,-1.42346,0,0,0,0,0,0,0,-1,1917,680,12.4361,1.42348
700,344,17.5396,2.61206,0,0,0,0,0,0,0,-1,1924,680,17.5396,-2.61204
707,344,18.5829,3.29352,0,0,0,0,0,0,0,-1,1931,680,18.5828,-3.2935
714,344,0,0,0,0,0,0,0,0,0,-1,1938,680,0,0
721,344,0,0,0,0,0,0,0,0,0,-1,1945,680,0,0
728,344,0,0,0,0,0,0,0,0,0,-1,1952,680,0,0
735,344,0,0,0,0,0,0,0,0,0,-1,1959,680,0,0
742,344,0,0,0,0,0,0,0,0,0,-1,1966,680,0,0
749,344,0,0,0,0,0,0,0,0,0,-1,1973,680,0,0
756,344,0,0,0,0,0,0,0,0,0,-1,1980,680,0,0
763,344,0,0,0,0,0,0,0,0,0,-1,1987,680,0,0
770,344,0,0,0,0,0,0,0,0,0,-1,1994,680,0,0
777,344,0,0,0,0,0,0,0,0,0,-1,2001,680,0,0
784,344,0,0,0,0,0,0,0,0,0,-1,2008,680,0,0
791,344,0,0,0,0,0,0,0,0,0,-1,2015,680,0,0
798,344,0,0,0,0,0,0,0,0,0,-1,2022,680,0,0
805,344,0,0,0,0,0,0,0,0,0,-1,2029,680,0,0
812,344,0,0,0,0,0,0,0,0,0,-1,2036,680,0,0
-700,337,0,0,0,0,0,0,0,0,0,-1,524,687,0,0
-693,337,0,0,0,0,0,0,0,0,0,-1,531,687,0,0
-686,337,0,0,0,0,0,0,0,0,0,-1,538,687,0,0
-679,337,0,0,0,0,0,0,0,0,0,-1,545,687,0,0
-672,337,0,0,0,0,0,0,0,0,0,-1,552,687,0,0
-665,337,0,0,0,0,0,0,0,0,0,-1,559,687,0,0
-658,337,0,0,0,0,0,0,0,0,0,-1,566,687,0,0
-651,337,0,0,0,0,0,0,0,0,0,-1,573,687,0,0
-644,337,0,0,0,0,0,0,0,0,0,-1,580,687,0,0
-637,337,0,0,0,0,0,0,0,0,0,-1,587,687,0,0
-630,337,0,0,0,0,0,0,0,0,0,-1,594,687,0,0
-623,337,0,0,0,0,0,0,0,0,0,-1,601,687,0,0
-616,337,0,0,0,0,0,0,0,0,0,-1,608,687,0,0
-609,337,0,0,0,0,0,0,0,0,0,-1,615,687,0,0
-602,337,0,0,0,0,0,0,0,0,0,-1,622,687,0,0
-595,337,0,0,0,0,0,0,0,0,0,-1,629,687,0,0
-588,337,-10.8413,1.27863,0,0,0,0,0,0,0,-1,636,687,-10.8413,-1.27861
-581,337,-11.2157,1.31567,0,0,0,0,0,0,0,-1,643,687,-11.2157,-1.3157
-574,337,-6.03339,2.0321,0,0,0,0,0,0,0,-1,650,687,-6.03337,-2.03213
-567,337,-13.8102,1.56787,0,0,0,0,0,0,0,-1,657,687,-13.8102,-1.56789
-560,337,-15.5435,2.34247,0,0,0,0,0,0,0,-1,664,687,-15.5435,-2.34247
-553,337,-18.0128,1.12927,0,0,0,0,0,0,0,-1,671,687,-18.0128,-1.12926
-546,337,-18.0244,-2.03845,0,0,0,0,0,0,0,-1,678,687,-18.0244,2.03846
-539,337,-19.2426,-3.53815,0,0,0,0,0,0,0,-1,685,687,-19.2426,3.53813
-532,337,-22.0562,-5.46173,0,0,0,0,0,0,0,-1,692,687,-22.0562,5.46174
-525,337,-22.0657,-6.32104,0.00449328,0.00149708,-0.00101166,0.00480287,0.00118748,-0.296977,0.00288863,0.0203637,699,687,-22.0657,6.32102
-518,337,-22.0752,-7.1958,0.00349813,0.00073535,-0.000632184,0.00363591,0.000597564,-0.214596,0.00225135,0.023426,706,687,-22.0752,7.19581
-511,337,-22.1036,-7.99664,0.00273074,0.000131152,-0.000283884,0.00276138,0.000100512,-0.107515,0.00180835,0.0237805,713,687,-22.1035,7.99665
-504,337,-22.1676,-8.8208,0.00206683,-0.000362981,3.78326e-05,0.00206742,-0.00036357,0.0155652,0.00151409,0.0242436,720,687,-22.1676,8.82078
-497,337,-22.1893,-9.64154,0.001564,-0.000734146,0.000304937,0.00160377,-0.00077392,0.129699,0.00140035,0.0181457,727,687,-22.1893,9.64153
-490,337,-22.1982,-10.4591,0.00121349,-0.000927501,0.000458081,0.00130738,-0.00102139,0.202169,0.0013479,0.0158114,734,687,-22.1983,10.4591
-483,337,-22.228,-11.2781,0.00103171,-0.000944645,0.000511459,0.00115623,-0.00106916,0.238805,0.00128516,0.0165141,741,687,-22.228,11.2781
-476,337,-22.2635,-12.1265,0.000929139,-0.000823415,0.000357691,0.000999332,-0.000893607,0.193775,0.00109346,0.0186743,748,687,-22.2635,12.1265
-469,337,-22.2478,-13.0037,0,0,0,0,0,0,0,-1,755,687,-22.2478,13.0037
-462,337,-14.186,-8.89264,0,0,0,0,0,0,0,-1,762,687,-14.186,8.89266
-455,337,-6.00574,-3.12933,0,0,0,0,0,0,0,-1,769,687,-6.00576,3.12934
-448,337,-5.30627,-2.07202,0,0,0,0,0,0,0,-1,776,687,-5.30628,2.07205
-441,337,-4.24762,-1.49597,0,0,0,0,0,0,0,-1,783,687,-4.24762,1.49598
-434,337,-6.86908,1.37531,0,0,0,0,0,0,0,-1,790,687,-6.86908,-1.3753
-427,337,-9.92004,2.487,0,0,0,0,0,0,0,-1,797,687,-9.92002,-2.48701
-420,337,-2.95996,-1.76697,0,0,0,0,0,0,0,-1,804,687,-2.95998,1.76696
-413,337,-1.29169,-1.99487,0,0,0,0,0,0,0,-1,811,687,-1.29171,1.9949
-406,337,-1.02356,-1.89563,0,0,0,0,0,0,0,-1,818,687,-1.02357,1.89564
-399,337,-0.472839,-2.21338,0,0,0,0,0,0,0,-1,825,687,-0.472837,2.2134
-392,337,0,0,0,0,0,0,0,0,0,-1,832,687,0,0
-385,337,0,0,0,0,0,0,0,0,0,-1,839,687,0,0
-378,337,0,0,0,0,0,0,0,0,0,-1,846,687,0,0
-371,337,0,0,0,0,0,0,0,0,0,-1,853,687,0,0
-364,337,0,0,0,0,0,0,0,0,0,-1,860,687,0,0
-357,337,0,0,0,0,0,0,0,0,0,-1,867,687,0,0
-350,337,0,0,0,0,0,0,0,0,0,-1,874,687,0,0
-343,337,0,0,0,0,0,0,0,0,0,-1,881,687,0,0
-336,337,0,0,0,0,0,0,0,0,0,-1,888,687,0,0
-329,337,0,0,0,0,0,0,0,0,0,-1,895,687,0,0
-322,337,0,0,0,0,0,0,0,0,0,-1,902,687,0,0
-315,337,0,0,0,0,0,0,0,0,0,-1,909,687,0,0
-308,337,0,0,0,0,0,0,0,0,0,-1,916,687,0,0
-301,337,0,0,0,0,0,0,0,0,0,-1,923,687,0,0
-294,337,0,0,0,0,0,0,0,0,0,-1,930,687,0,0
-287,337,0,0,0,0,0,0,0,0,0,-1,937,687,0,0
-280,337,0,0,0,0,0,0,0,0,0,-1,944,687,0,0
-273,337,0,0,0,0,0,0,0,0,0,-1,951,687,0,0
-266,337,0,0,0,0,0,0,0,0,0,-1,958,687,0,0
-259,337,0,0,0,0,0,0,0,0,0,-1,965,687,0,0
-252,337,0,0,0,0,0,0,0,0,0,-1,972,687,0,0
-245,337,0,0,0,0,0,0,0,0,0,-1,979,687,0,0
-238,337,0,0,0,0,0,0,0,0,0,-1,986,687,0,0
-231,337,0,0,0,0,0,0,0,0,0,-1,993,687,0,0
-224,337,0,0,0,0,0,0,0,0,0,-1,1000,687,0,0
-217,337,0,0,0,0,0,0,0,0,0,-1,1007,687,0,0
-210,337,0,0,0,0,0,0,0,0,0,-1,1014,687,0,0
-203,337,0,0,0,0,0,0,0,0,0,-1,1021,687,0,0
-196,337,0,0,0,0,0,0,0,0,0,-1,1028,687,0,0
-189,337,0,0,0,0,0,0,0,0,0,-1,1035,687,0,0
-182,337,0,0,0,0,0,0,0,0,0,-1,1042,687,0,0
-175,337,0,0,0,0,0,0,0,0,0,-1,1049,687,0,0
-168,337,0,0,0,0,0,0,0,0,0,-1,1056,687,0,0
-161,337,0,0,0,0,0,0,0,0,0,-1,1063,687,0,0
-154,337,0,0,0,0,0,0,0,0,0,-1,1070,687,0,0
-147,337,0,0,0,0,0,0,0,0,0,-1,1077,687,0,0
-140,337,0,0,0,0,0,0,0,0,0,-1,1084,687,0,0
-133,337,0,0,0,0,0,0,0,0,0,-1,1091,687,0,0
-126,337,0,0,0,0,0,0,0,0,0,-1,1098,687,0,0
-119,337,0,0,0,0,0,0,0,0,0,-1,1105,687,0,0
-112,337,0,0,0,0,0,0,0,0,0,-1,1112,687,0,0
-105,337,0,0,0,0,0,0,0,0,0,-1,1119,687,0,0
-98,337,0,0,0,0,0,0,0,0,0,-1,1126,687,0,0
-91,337,0,0,0,0,0,0,0,0,0,-1,1133,687,0,0
-84,337,0,0,0,0,0,0,0,0,0,-1,1140,687,0,0
-77,337,0,0,0,0,0,0,0,0,0,-1,1147,687,0,0
-70,337,0,0,0,0,0,0,0,0,0,-1,1154,687,0,0
-63,337,0,0,0,0,0,0,0,0,0,-1,1161,687,0,0
-56,337,0,0,0,0,0,0,0,0,0,-1,1168,687,0,0
-49,337,0,0,0,0,0,0,0,0,0,-1,1175,687,0,0
-42,337,0,0,0,0,0,0,0,0,0,-1,1182,687,0,0
-35,337,0,0,0,0,0,0,0,0,0,-1,1189,687,0,0
-28,337,0,0,0,0,0,0,0,0,0,-1,1196,687,0,0
-21,337,0,0,0,0,0,0,0,0,0,-1,1203,687,0,0
-14,337,0,0,0,0,0,0,0,0,0,-1,1210,687,0,0
-7,337,0,0,0,0,0,0,0,0,0,-1,1217,687,0,0
0,337,0,0,0,0,0,0,0,0,0,-1,1224,687,0,0
7,337,0,0,0,0,0,0,0,0,0,-1,1231,687,0,0
14,337,0,0,0,0,0,0,0,0,0,-1,1238,687,0,0
21,337,0,0,0,0,0,0,0,0,0,-1,1245,687,0,0
28,337,0,0,0,0,0,0,0,0,0,-1,1252,687,0,0
35,337,0,0,0,0,0,0,0,0,0,-1,1259,687,0,0
42,337,0,0,0,0,0,0,0,0,0,-1,1266,687,0,0
49,337,0,0,0,0,0,0,0,0,0,-1,1273,687,0,0
56,337,0,0,0,0,0,0,0,0,0,-1,1280,687,0,0
63,337,0,0,0,0,0,0,0,0,0,-1,1287,687,0,0
70,337,0,0,0,0,0,0,0,0,0,-1,1294,687,0,0
77,337,0,0,0,0,0,0,0,0,0,-1,1301,687,0,0
84,337,0,0,0,0,0,0,0,0,0,-1,1308,687,0,0
91,337,0,0,0,0,0,0,0,0,0,-1,1315,687,0,0
98,337,0,0,0,0,0,0,0,0,0,-1,1322,687,0,0
105,337,0,0,0,0,0,0,0,0,0,-1,1329,687,0,0
112,337,0,0,0,0,0,0,0,0,0,-1,1336,687,0,0
119,337,0,0,0,0,0,0,0,0,0,-1,1343,687,0,0
126,337,0,0,0,0,0,0,0,0,0,-1,1350,687,0,0
133,337,0,0,0,0,0,0,0,0,0,-1,1357,687,0,0
140,337,0,0,0,0,0,0,0,0,0,-1,1364,687,0,0
147,337,0,0,0,0,0,0,0,0,0,-1,1371,687,0,0
154,337,0,0,0,0,0,0,0,0,0,-1,1378,687,0,0
161,337,0,0,0,0,0,0,0,0,0,-1,1385,687,0,0
168,337,0,0,0,0,0,0,0,0,0,-1,1392,687,0,0
175,337,0,0,0,0,0,0,0,0,0,-1,1399,687,0,0
182,337,0,0,0,0,0,0,0,0,0,-1,1406,687,0,0
189,337,0,0,0,0,0,0,0,0,0,-1,1413,687,0,0
196,337,0,0,0,0,0,0,0,0,0,-1,1420,687,0,0
203,337,0,0,0,0,0,0,0,0,0,-1,1427,687,0,0
210,337,0,0,0,0,0,0,0,0,0,-1,1434,687,0,0
217,337,0,0,0,0,0,0,0,0,0,-1,1441,687,0,0
224,337,0,0,0,0,0,0,0,0,0,-1,1448,687,0,0
231,337,0,0,0,0,0,0,0,0,0,-1,1455,687,0,0
238,337,0,0,0,0,0,0,0,0,0,-1,1462,687,0,0
245,337,0,0,0,0,0,0,0,0,0,-1,1469,687,0,0
252,337,0,0,0,0,0,0,0,0,0,-1,1476,687,0,0
259,337,0,0,0,0,0,0,0,0,0,-1,1483,687,0,0
266,337,0,0,0,0,0,0,0,0,0,-1,1490,687,0,0
273,337,0,0,0,0,0,0,0,0,0,-1,1497,687,0,0
280,337,0,0,0,0,0,0,0,0,0,-1,1504,687,0,0
287,337,0,0,0,0,0,0,0,0,0,-1,1511,687,0,0
294,337,0,0,0,0,0,0,0,0,0,-1,1518,687,0,0
301,337,0,0,0,0,0,0,0,0,0,-1,1525,687,0,0
308,337,0,0,0,0,0,0,0,0,0,-1,1532,687,0,0
315,337,0,0,0,0,0,0,0,0,0,-1,1539,687,0,0
322,337,0,0,0,0,0,0,0,0,0,-1,1546,687,0,0
329,337,0,0,0,0,0,0,0,0,0,-1,1553,687,0,0
336,337,0,0,0,0,0,0,0,0,0,-1,1560,687,0,0
343,337,0,0,0,0,0,0,0,0,0,-1,1567,687,0,0
350,337,0,0,0,0,0,0,0,0,0,-1,1574,687,0,0
357,337,0,0,0,0,0,0,0,0,0,-1,1581,687,0,0
364,337,0,0,0,0,0,0,0,0,0,-1,1588,687,0,0
371,337,0,0,0,0,0,0,0,0,0,-1,1595,687,0,0
378,337,0,0,0,0,0,0,0,0,0,-1,1602,687,0,0
385,337,0,0,0,0,0,0,0,0,0,-1,1609,687,0,0
392,337,0,0,0,0,0,0,0,0,0,-1,1616,687,0,0
399,337,0,0,0,0,0,0,0,0,0,-1,1623,687,0,0
406,337,0,0,0,0,0,0,0,0,0,-1,1630,687,0,0
413,337,0,0,0,0,0,0,0,0,0,-1,1637,687,0,0
420,337,0,0,0,0,0,0,0,0,0,-1,1644,687,0,0
427,337,0,0,0,0,0,0,0,0,0,-1,1651,687,0,0
434,337,0,0,0,0,0,0,0,0,0,-1,1658,687,0,0
441,337,0,0,0,0,0,0,0,0,0,-1,1665,687,0,0
448,337,0,0,0,0,0,0,0,0,0,-1,1672,687,0,0
455,337,0,0,0,0,0,0,0,0,0,-1,1679,687,0,0
462,337,0,0,0,0,0,0,0,0,0,-1,1686,687,0,0
469,337,0,0,0,0,0,0,0,0,0,-1,1693,687,0,0
476,337,0,0,0,0,0,0,0,0,0,-1,1700,687,0,0
483,337,0,0,0,0,0,0,0,0,0,-1,1707,687,0,0
490,337,0,0,0,0,0,0,0,0,0,-1,1714,687,0,0
497,337,0,0,0,0,0,0,0,0,0,-1,1721,687,0,0
504,337,0,0,0,0,0,0,0,0,0,-1,1728,687,0,0
511,337,0,0,0,0,0,0,0,0,0,-1,1735,687,0,0
518,337,18.0369,1.64581,0,0,0,0,0,0,0,-1,1742,687,18.0368,-1.64581
525,337,31.0717,2.13745,0,0,0,0,0,0,0,-1,1749,687,31.0717,-2.13747
532,337,31.5126,2.13904,0,0,0,0,0,0,0,-1,1756,687,31.5125,-2.13905
539,337,31.9684,2.15594,0,0,0,0,0,0,0,-1,1763,687,31.9684,-2.15596
546,337,32.3584,1.43719,0,0,0,0,0,0,0,-1,1770,687,32.3585,-1.43722
553,337,32.1809,1.36395,0,0,0,0,0,0,0,-1,1777,687,32.181,-1.36396
560,337,18.4053,3.62793,0,0,0,0,0,0,0,-1,1784,687,18.4052,-3.6279
567,337,11.9288,1.38776,0,0,0,0,0,0,0,-1,1791,687,11.9288,-1.38777
574,337,10.704,1.19476,0,0,0,0,0,0,0,-1,1798,687,10.704,-1.19478
581,337,8.50427,0.561768,0,0,0,0,0,0,0,-1,1805,687,8.5043,-0.561754
588,337,8.5885,-0.0536499,0,0,0,0,0,0,0,-1,1812,687,8.58844,0.0536788
595,337,35.7676,-11.9251,0,0,0,0,0,0,0,-1,1819,687,35.7676,11.9251
602,337,36.1439,-11.0715,0,0,0,0,0,0,0,-1,1826,687,36.1439,11.0715
609,337,36.0676,-10.1968,0.00181535,-0.000137909,0.000193738,0.00183438,-0.00015694,0.0979158,0.00127845,0.0233045,1833,687,36.0676,10.1968
616,337,36.0031,-9.37042,0.0017634,-8.92343e-05,0.000395008,0.0018441,-0.00016994,0.20154,0.00128979,0.0176826,1840,687,36.003,9.37041
623,337,35.9618,-8.5625,0.00157871,0.000100153,0.000499247,0.0017315,-5.26342e-05,0.296984,0.00117227,0.0152409,1847,687,35.9618,8.56249
630,337,35.9049,-7.74097,0.00142168,0.00039704,0.000659872,0.00174476,7.39536e-05,0.455309,0.00113933,0.0202037,1854,687,35.9049,7.74096
637,337,35.8844,-6.89044,0.00126287,0.000759042,0.000808321,0.00185762,0.00016429,0.634342,0.00118745,0.018467,1861,687,35.8844,6.89042
644,337,35.8563,-6.0177,0.001117,0.00120956,0.000967871,0.00213226,0.000194304,0.809287,0.00136137,0.0123183,1868,687,35.8563,6.01767
651,337,35.7679,-5.16565,0.00100941,0.00178286,0.0011582,0.00261719,0.000175075,0.94653,0.00168946,0.011242,1875,687,35.768,5.16564
658,337,35.7255,-4.31335,0.000955724,0.00249376,0.00136528,0.0032917,0.00015778,1.04188,0.00214381,0.0131906,1882,687,35.7254,4.31333
665,337,35.6953,-3.47748,0.00118294,0.00330914,0.00169317,0.00424529,0.00024679,1.06573,0.00275162,0.0169807,1889,687,35.6953,3.47747
672,337,35.7417,-2.62927,0,0,0,0,0,0,0,-1,1896,687,35.7418,2.62929
679,337,35.97,-1.78473,0,0,0,0,0,0,0,-1,1903,687,35.9699,1.78473
686,337,18.5614,1.68597,0,0,0,0,0,0,0,-1,1910,687,18.5614,-1.68598
693,337,16.5415,2.21411,0,0,0,0,0,0,0,-1,1917,687,16.5415,-2.2141
700,337,17.2661,2.44379,0,0,0,0,0,0,0,-1,1924,687,17.2661,-2.44378
707,337,17.3544,5.61853,0,0,0,0,0,0,0,-1,1931,687,17.3543,-5.61851
714,337,0,0,0,0,0,0,0,0,0,-1,1938,687,0,0
721,337,0,0,0,0,0,0,0,0,0,-1,1945,687,0,0
728,337,0,0,0,0,0,0,0,0,0,-1,1952,687,0,0
735,337,0,0,0,0,0,0,0,0,0,-1,1959,687,0,0
742,337,0,0,0,0,0,0,0,0,0,-1,1966,687,0,0
749,337,0,0,0,0,0,0,0,0,0,-1,1973,687,0,0
756,337,0,0,0,0,0,0,0,0,0,-1,1980,687,0,0
763,337,0,0,0,0,0,0,0,0,0,-1,1987,687,0,0
770,337,0,0,0,0,0,0,0,0,0,-1,1994,687,0,0
777,337,0,0,0,0,0,0,0,0,0,-1,2001,687,0,0
784,337,0,0,0,0,0,0,0,0,0,-1,2008,687,0,0
791,337,0,0,0,0,0,0,0,0,0,-1,2015,687,0,0
798,337,0,0,0,0,0,0,0,0,0,-1,2022,687,0,0
805,337,0,0,0,0,0,0,0,0,0,-1,2029,687,0,0
812,337,0,0,0,0,0,0,0,0,0,-1,2036,687,0,0
-700,330,0,0,0,0,0,0,0,0,0,-1,524,694,0,0
-693,330,0,0,0,0,0,0,0,0,0,-1,531,694,0,0
-686,330,0,0,0,0,0,0,0,0,0,-1,538,694,0,0
-679,330,0,0,0,0,0,0,0,0,0,-1,545,694,0,0
-672,330,0,0,0,0,0,0,0,0,0,-1,552,694,0,0
-665,330,0,0,0,0,0,0,0,0,0,-1,559,694,0,0
-658,330,0,0,0,0,0,0,0,0,0,-1,566,694,0,0
-651,330,0,0,0,0,0,0,0,0,0,-1,573,694,0,0
-644,330,0,0,0,0,0,0,0,0,0,-1,580,694,0,0
-637,330,0,0,0,0,0,0,0,0,0,-1,587,694,0,0
-630,330,0,0,0,0,0,0,0,0,0,-1,594,694,0,0
-623,330,0,0,0,0,0,0,0,0,0,-1,601,694,0,0
-616,330,0,0,0,0,0,0,0,0,0,-1,608,694,0,0
-609,330,0,0,0,0,0,0,0,0,0,-1,615,694,0,0
-602,330,0,0,0,0,0,0,0,0,0,-1,622,694,0,0
-595,330,-4.67883,1.65515,0,0,0,0,0,0,0,-1,629,694,-4.67881,-1.65515
-588,330,-8.5047,2.67346,0,0,0,0,0,0,0,-1,636,694,-8.50469,-2.67348
-581,330,-12.4227,0.947083,0,0,0,0,0,0,0,-1,643,694,-12.4227,-0.947109
-574,330,-9.02118,1.87952,0,0,0,0,0,0,0,-1,650,694,-9.02115,-1.87953
-567,330,-8.35577,0.909973,0,0,0,0,0,0,0,-1,657,694,-8.35575,-0.909945
-560,330,-13.1036,-0.584656,0,0,0,0,0,0,0,-1,664,694,-13.1035,0.584658
-553,330,-17.5484,-1.21545,0,0,0,0,0,0,0,-1,671,694,-17.5484,1.21547
-546,330,-22.517,-3.5448,0,0,0,0,0,0,0,-1,678,694,-22.517,3.54479
-539,330,-22.88,-4.5022,0,0,0,0,0,0,0,-1,685,694,-22.88,4.50217
-532,330,-22.8596,-5.42328,0.00499097,0.00199589,-0.00105925,0.00532773,0.00165914,-0.307812,0.00314805,0.024214,692,694,-22.8596,5.42327
-525,330,-22.8459,-6.31787,0.0039279,0.00115645,-0.000736992,0.0041117,0.000972655,-0.244399,0.00248129,0.0113329,699,694,-22.8459,6.31786
-518,330,-22.8627,-7.11517,0.00299589,0.000449204,-0.00036989,0.00304853,0.000396568,-0.141353,0.00191391,0.0150288,706,694,-22.8627,7.11519
-511,330,-22.9196,-7.93011,0.00226595,-0.000137088,-2.66047e-05,0.00226624,-0.000137383,-0.0110694,0.00155864,0.0200332,713,694,-22.9196,7.9301
-504,330,-22.983,-8.76978,0.00160647,-0.000633296,0.000320177,0.00165134,-0.000678167,0.139237,0.00138351,0.0195762,720,694,-22.9829,8.76976
-497,330,-23.0214,-9.57391,0.00111122,-0.000998968,0.000604412,0.00127208,-0.00115983,0.260109,0.00140456,0.014935,727,694,-23.0214,9.5739
-490,330,-23.0269,-10.3915,0.000834994,-0.00121094,0.00080674,0.00111483,-0.00149077,0.333884,0.00150955,0.01477,734,694,-23.0269,10.3915
-483,330,-23.0381,-11.2313,0.000712042,-0.00119269,0.000891743,0.00106436,-0.00154501,0.376269,0.00151502,0.0158774,741,694,-23.0381,11.2314
-476,330,-23.076,-12.1272,0,0,0,0,0,0,0,-1,748,694,-23.076,12.1272
-469,330,-16.1478,-9.23303,0,0,0,0,0,0,0,-1,755,694,-16.1478,9.23301
-462,330,-7.26733,-3.84833,0,0,0,0,0,0,0,-1,762,694,-7.26731,3.84832
-455,330,-5.04254,-1.79303,0,0,0,0,0,0,0,-1,769,694,-5.04252,1.79305
-448,330,-4.89886,-1.66156,0,0,0,0,0,0,0,-1,776,694,-4.89886,1.66157
-441,330,-5.30676,-2.34045,0,0,0,0,0,0,0,-1,783,694,-5.30679,2.34048
-434,330,-7.20428,1.00024,0,0,0,0,0,0,0,-1,790,694,-7.20431,-1.00027
-427,330,-16.0428,2.89258,0,0,0,0,0,0,0,-1,797,694,-16.0428,-2.89259
-420,330,-29.0331,0.271606,0,0,0,0,0,0,0,-1,804,694,-29.0331,-0.27158
-413,330,-29.0896,0.56366,0,0,0,0,0,0,0,-1,811,694,-29.0896,-0.563671
-406,330,-1.65375,-1.74371,0,0,0,0,0,0,0,-1,818,694,-1.65375,1.74371
-399,330,0,0,0,0,0,0,0,0,0,-1,825,694,0,0
-392,330,0,0,0,0,0,0,0,0,0,-1,832,694,0,0
-385,330,0,0,0,0,0,0,0,0,0,-1,839,694,0,0
-378,330,0,0,0,0,0,0,0,0,0,-1,846,694,0,0
-371,330,0,0,0,0,0,0,0,0,0,-1,853,694,0,0
-364,330,0,0,0,0,0,0,0,0,0,-1,860,694,0,0
-357,330,0,0,0,0,0,0,0,0,0,-1,867,694,0,0
-350,330,0,0,0,0,0,0,0,0,0,-1,874,694,0,0
-343,330,0,0,0,0,0,0,0,0,0,-1,881,694,0,0
-336,330,0,0,0,0,0,0,0,0,0,-1,888,694,0,0
-329,330,0,0,0,0,0,0,0,0,0,-1,895,694,0,0
-322,330,0,0,0,0,0,0,0,0,0,-1,902,694,0,0
-315,330,0,0,0,0,0,0,0,0,0,-1,909,694,0,0
-308,330,0,0,0,0,0,0,0,0,0,-1,916,694,0,0
-301,330,0,0,0,0,0,0,0,0,0,-1,923,694,0,0
-294,330,0,0,0,0,0,0,0,0,0,-1,930,694,0,0
-287,330,0,0,0,0,0,0,0,0,0,-1,937,694,0,0
-280,330,0,0,0,0,0,0,0,0,0,-1,944,694,0,0
-273,330,0,0,0,0,0,0,0,0,0,-1,951,694,0,0
-266,330,0,0,0,0,0,0,0,0,0,-1,958,694,0,0
-259,330,0,0,0,0,0,0,0,0,0,-1,965,694,0,0
-252,330,0,0,0,0,0,0,0,0,0,-1,972,694,0,0
-245,330,0,0,0,0,0,0,0,0,0,-1,979,694,0,0
-238,330,0,0,0,0,0,0,0,0,0,-1,986,694,0,0
-231,330,0,0,0,0,0,0,0,0,0,-1,993,694,0,0
-224,330,0,0,0,0,0,0,0,0,0,-1,1000,694,0,0
-217,330,0,0,0,0,0,0,0,0,0,-1,1007,694,0,0
-210,330,0,0,0,0,0,0,0,0,0,-1,1014,694,0,0
-203,330,0,0,0,0,0,0,0,0,0,-1,1021,694,0,0
-196,330,0,0,0,0,0,0,0,0,0,-1,1028,694,0,0
-189,330,0,0,0,0,0,0,0,0,0,-1,1035,694,0,0
-182,330,0,0,0,0,0,0,0,0,0,-1,1042,694,0,0
-175,330,0,0,0,0,0,0,0,0,0,-1,1049,694,0,0
-168,330,0,0,0,0,0,0,0,0,0,-1,1056,694,0,0
-161,330,0,0,0,0,0,0,0,0,0,-1,1063,694,0,0
-154,330,0,0,0,0,0,0,0,0,0,-1,1070,694,0,0
-147,330,0,0,0,0,0,0,0,0,0,-1,1077,694,0,0
-140,330,0,0,0,0,0,0,0,0,0,-1,1084,694,0,0
-133,330,0,0,0,0,0,0,0,0,0,-1,1091,694,0,0
-126,330,0,0,0,0,0,0,0,0,0,-1,1098,694,0,0
-119,330,0,0,0,0,0,0,0,0,0,-1,1105,694,0,0
-112,330,0,0,0,0,0,0,0,0,0,-1,1112,694,0,0
-105,330,0,0,0,0,0,0,0,0,0,-1,1119,694,0,0
-98,330,0,0,0,0,0,0,0,0,0,-1,1126,694,0,0
-91,330,0,0,0,0,0,0,0,0,0,-1,1133,694,0,0
-84,330,0,0,0,0,0,0,0,0,0,-1,1140,694,0,0
-77,330,0,0,0,0,0,0,0,0,0,-1,1147,694,0,0
-70,330,0,0,0,0,0,0,0,0,0,-1,1154,694,0,0
-63,330,0,0,0,0,0,0,0,0,0,-1,1161,694,0,0
-56,330,0,0,0,0,0,0,0,0,0,-1,1168,694,0,0
-49,330,0,0,0,0,0,0,0,0,0,-1,1175,694,0,0
-42,330,0,0,0,0,0,0,0,0,0,-1,1182,694,0,0
-35,330,0,0,0,0,0,0,0,0,0,-1,1189,694,0,0
-28,330,0,0,0,0,0,0,0,0,0,-1,1196,694,0,0
-21,330,0,0,0,0,0,0,0,0,0,-1,1203,694,0,0
-14,330,0,0,0,0,0,0,0,0,0,-1,1210,694,0,0
-7,330,0,0,0,0,0,0,0,0,0,-1,1217,694,0,0
0,330,0,0,0,0,0,0,0,0,0,-1,1224,694,0,0
7,330,0,0,0,0,0,0,0,0,0,-1,1231,694,0,0
14,330,0,0,0,0,0,0,0,0,0,-1,1238,694,0,0
21,330,0,0,0,0,0,0,0,0,0,-1,1245,694,0,0
28,330,0,0,0,0,0,0,0,0,0,-1,1252,694,0,0
35,330,0,0,0,0,0,0,0,0,0,-1,1259,694,0,0
42,330,0,0,0,0,0,0,0,0,0,-1,1266,694,0,0
49,330,0,0,0,0,0,0,0,0,0,-1,1273,694,0,0
56,330,0,0,0,0,0,0,0,0,0,-1,1280,694,0,0
63,330,0,0,0,0,0,0,0,0,0,-1,1287,694,0,0
70,330,0,0,0,0,0,0,0,0,0,-1,1294,694,0,0
77,330,0,0,0,0,0,0,0,0,0,-1,1301,694,0,0
84,330,0,0,0,0,0,0,0,0,0,-1,1308,694,0,0
91,330,0,0,0,0,0,0,0,0,0,-1,1315,694,0,0
98,330,0,0,0,0,0,0,0,0,0,-1,1322,694,0,0
105,330,0,0,0,0,0,0,0,0,0,-1,1329,694,0,0
112,330,0,0,0,0,0,0,0,0,0,-1,1336,694,0,0
119,330,0,0,0,0,0,0,0,0,0,-1,1343,694,0,0
126,330,0,0,0,0,0,0,0,0,0,-1,1350,694,0,0
133,330,0,0,0,0,0,0,0,0,0,-1,1357,694,0,0
140,330,0,0,0,0,0,0,0,0,0,-1,1364,694,0,0
147,330,0,0,0,0,0,0,0,0,0,-1,1371,694,0,0
154,330,0,0,0,0,0,0,0,0,0,-1,1378,694,0,0
161,330,0,0,0,0,0,0,0,0,0,-1,1385,694,0,0
168,330,0,0,0,0,0,0,0,0,0,-1,1392,694,0,0
175,330,0,0,0,0,0,0,0,0,0,-1,1399,694,0,0
182,330,0,0,0,0,0,0,0,0,0,-1,1406,694,0,0
189,330,0,0,0,0,0,0,0,0,0,-1,1413,694,0,0
196,330,0,0,0,0,0,0,0,0,0,-1,1420,694,0,0
203,330,0,0,0,0,0,0,0,0,0,-1,1427,694,0,0
210,330,0,0,0,0,0,0,0,0,0,-1,1434,694,0,0
217,330,0,0,0,0,0,0,0,0,0,-1,1441,694,0,0
224,330,0,0,0,0,0,0,0,0,0,-1,1448,694,0,0
231,330,0,0,0,0,0,0,0,0,0,-1,1455,694,0,0
238,330,0,0,0,0,0,0,0,0,0,-1,1462,694,0,0
245,330,0,0,0,0,0,0,0,0,0,-1,1469,694,0,0
252,330,0,0,0,0,0,0,0,0,0,-1,1476,694,0,0
259,330,0,0,0,0,0,0,0,0,0,-1,1483,694,0,0
266,330,0,0,0,0,0,0,0,0,0,-1,1490,694,0,0
273,330,0,0,0,0,0,0,0,0,0,-1,1497,694,0,0
280,330,0,0,0,0,0,0,0,0,0,-1,1504,694,0,0
287,330,0,0,0,0,0,0,0,0,0,-1,1511,694,0,0
294,330,0,0,0,0,0,0,0,0,0,-1,1518,694,0,0
301,330,0,0,0,0,0,0,0,0,0,-1,1525,694,0,0
308,330,0,0,0,0,0,0,0,0,0,-1,1532,694,0,0
315,330,0,0,0,0,0,0,0,0,0,-1,1539,694,0,0
322,330,0,0,0,0,0,0,0,0,0,-1,1546,694,0,0
329,330,0,0,0,0,0,0,0,0,0,-1,1553,694,0,0
336,330,0,0,0,0,0,0,0,0,0,-1,1560,694,0,0
343,330,0,0,0,0,0,0,0,0,0,-1,1567,694,0,0
350,330,0,0,0,0,0,0,0,0,0,-1,1574,694,0,0
357,330,0,0,0,0,0,0,0,0,0,-1,1581,694,0,0
364,330,0,0,0,0,0,0,0,0,0,-1,1588,694,0,0
371,330,0,0,0,0,0,0,0,0,0,-1,1595,694,0,0
378,330,0,0,0,0,0,0,0,0,0,-1,1602,694,0,0
385,330,0,0,0,0,0,0,0,0,0,-1,1609,694,0,0
392,330,0,0,0,0,0,0,0,0,0,-1,1616,694,0,0
399,330,0,0,0,0,0,0,0,0,0,-1,1623,694,0,0
406,330,0,0,0,0,0,0,0,0,0,-1,1630,694,0,0
413,330,0,0,0,0,0,0,0,0,0,-1,1637,694,0,0
420,330,0,0,0,0,0,0,0,0,0,-1,1644,694,0,0
427,330,0,0,0,0,0,0,0,0,0,-1,1651,694,0,0
434,330,0,0,0,0,0,0,0,0,0,-1,1658,694,0,0
441,330,0,0,0,0,0,0,0,0,0,-1,1665,694,0,0
448,330,0,0,0,0,0,0,0,0,0,-1,1672,694,0,0
455,330,0,0,0,0,0,0,0,0,0,-1,1679,694,0,0
462,330,0,0,0,0,0,0,0,0,0,-1,1686,694,0,0
469,330,0,0,0,0,0,0,0,0,0,-1,1693,694,0,0
476,330,0,0,0,0,0,0,0,0,0,-1,1700,694,0,0
483,330,0,0,0,0,0,0,0,0,0,-1,1707,694,0,0
490,330,0,0,0,0,0,0,0,0,0,-1,1714,694,0,0
497,330,0,0,0,0,0,0,0,0,0,-1,1721,694,0,0
504,330,0,0,0,0,0,0,0,0,0,-1,1728,694,0,0
511,330,0,0,0,0,0,0,0,0,0,-1,1735,694,0,0
518,330,0,0,0,0,0,0,0,0,0,-1,1742,694,0,0
525,330,30.6694,0.69519,0,0,0,0,0,0,0,-1,1749,694,30.6694,-0.695206
532,330,30.9469,1.32501,0,0,0,0,0,0,0,-1,1756,694,30.9469,-1.32501
539,330,31.5155,1.62506,0,0,0,0,0,0,0,-1,1763,694,31.5155,-1.62507
546,330,31.4187,1.85651,0,0,0,0,0,0,0,-1,1770,694,31.4187,-1.85651
553,330,31.8452,1.81476,0,0,0,0,0,0,0,-1,1777,694,31.8452,-1.81475
560,330,32.2401,2.43225,0,0,0,0,0,0,0,-1,1784,694,32.2401,-2.43227
567,330,18.0321,3.98578,0,0,0,0,0,0,0,-1,1791,694,18.0321,-3.98576
574,330,12.0454,2.1662,0,0,0,0,0,0,0,-1,1798,694,12.0455,-2.16618
581,330,11.4215,4.50836,0,0,0,0,0,0,0,-1,1805,694,11.4215,-4.50837
588,330,6.45667,-0.0630493,0,0,0,0,0,0,0,-1,1812,694,6.45661,0.0630695
595,330,8.23193,-0.258484,0,0,0,0,0,0,0,-1,1819,694,8.23188,0.258459
602,330,36.7371,-11.15,0,0,0,0,0,0,0,-1,1826,694,36.7371,11.15
609,330,36.8302,-10.1923,0.00237596,-0.000220983,0.000412359,0.00243986,-0.000284888,0.15375,0.00172938,0.0284262,1833,694,36.8302,10.1923
616,330,36.8402,-9.33344,0.00213394,-0.000276072,0.000556801,0.00225636,-0.000398494,0.216424,0.00165316,0.0119745,1840,694,36.8403,9.33344
623,330,36.7954,-8.50568,0.00175447,-0.000136384,0.000565509,0.00191069,-0.000292607,0.26953,0.0013817,0.0130643,1847,694,36.7954,8.50566
630,330,36.7701,-7.65393,0.00148978,0.000102168,0.000654593,0.00174984,-0.000157892,0.378162,0.00122259,0.0145871,1854,694,36.7701,7.65391
637,330,36.7615,-6.80634,0.00127115,0.000431266,0.00075117,0.00171179,-9.37842e-06,0.530517,0.00114433,0.0146075,1861,694,36.7614,6.80634
644,330,36.6577,-5.9574,0.00110713,0.000860966,0.000878356,0.00187099,9.71105e-05,0.715788,0.00121625,0.00969374,1868,694,36.6577,5.95738
651,330,36.595,-5.10974,0.00101067,0.0014036,0.00104651,0.00227192,0.000142341,0.878185,0.00146947,0.0129342,1875,694,36.5949,5.10974
658,330,36.5471,-4.27771,0.00101062,0.00207417,0.00126251,0.00291233,0.000172456,0.984723,0.0018867,0.0130296,1882,694,36.5471,4.2777
665,330,36.4972,-3.43542,0.00125841,0.00286082,0.00159328,0.003843,0.000276229,1.01837,0.00247507,0.0117228,1889,694,36.4972,3.43544
672,330,36.5652,-2.57379,0.0017186,0.00391439,0.00191885,0.00502723,0.000605762,1.04525,0.00316892,0.0356137,1896,694,36.5652,2.5738
679,330,36.7485,-1.65112,0,0,0,0,0,0,0,-1,1903,694,36.7485,1.6511
686,330,30.6691,0.582825,0,0,0,0,0,0,0,-1,1910,694,30.6691,-0.582798
693,330,17.3999,2.5976,0,0,0,0,0,0,0,-1,1917,694,17.4,-2.59759
700,330,17.1072,4.13,0,0,0,0,0,0,0,-1,1924,694,17.1071,-4.13002
707,330,16.663,4.88672,0,0,0,0,0,0,0,-1,1931,694,16.6629,-4.88673
714,330,16.5454,5.80896,0,0,0,0,0,0,0,-1,1938,694,16.5454,-5.80899
721,330,0,0,0,0,0,0,0,0,0,-1,1945,694,0,0
728,330,0,0,0,0,0,0,0,0,0,-1,1952,694,0,0
735,330,0,0,0,0,0,0,0,0,0,-1,1959,694,0,0
742,330,0,0,0,0,0,0,0,0,0,-1,1966,694,0,0
749,330,0,0,0,0,0,0,0,0,0,-1,1973,694,0,0
756,330,0,0,0,0,0,0,0,0,0,-1,1980,694,0,0
763,330,0,0,0,0,0,0,0,0,0,-1,1987,694,0,0
770,330,0,0,0,0,0,0,0,0,0,-1,1994,694,0,0
777,330,0,0,0,0,0,0,0,0,0,-1,2001,694,0,0
784,330,0,0,0,0,0,0,0,0,0,-1,2008,694,0,0
791,330,0,0,0,0,0,0,0,0,0,-1,2015,694,0,0
798,330,0,0,0,0,0,0,0,0,0,-1,2022,694,0,0
805,330,0,0,0,0,0,0,0,0,0,-1,2029,694,0,0
812,330,0,0,0,0,0,0,0,0,0,-1,2036,694,0,0
-700,323,0,0,0,0,0,0,0,0,0,-1,524,701,0,0
-693,323,0,0,0,0,0,0,0,0,0,-1,531,701,0,0
-686,323,0,0,0,0,0,0,0,0,0,-1,538,701,0,0
-679,323,0,0,0,0,0,0,0,0,0,-1,545,701,0,0
-672,323,0,0,0,0,0,0,0,0,0,-1,552,701,0,0
-665,323,0,0,0,0,0,0,0,0,0,-1,559,701,0,0
-658,323,0,0,0,0,0,0,0,0,0,-1,566,701,0,0
-651,323,0,0,0,0,0,0,0,0,0,-1,573,701,0,0
-644,323,0,0,0,0,0,0,0,0,0,-1,580,701,0,0
-637,323,0,0,0,0,0,0,0,0,0,-1,587,701,0,0
-630,323,0,0,0,0,0,0,0,0,0,-1,594,701,0,0
-623,323,0,0,0,0,0,0,0,0,0,-1,601,701,0,0
-616,323,0,0,0,0,0,0,0,0,0,-1,608,701,0,0
-609,323,0,0,0,0,0,0,0,0,0,-1,615,701,0,0
-602,323,-4.15833,2.12256,0,0,0,0,0,0,0,-1,622,701,-4.1583,-2.12257
-595,323,-4.052,1.79156,0,0,0,0,0,0,0,-1,629,701,-4.05198,-1.79158
-588,323,-4.07019,1.94543,0,0,0,0,0,0,0,-1,636,701,-4.07019,-1.94542
-581,323,-6.63727,0.562805,0,0,0,0,0,0,0,-1,643,701,-6.63728,-0.56279
-574,323,-6.15887,0.426697,0,0,0,0,0,0,0,-1,650,701,-6.15887,-0.426727
-567,323,-10.0015,0.0371094,0,0,0,0,0,0,0,-1,657,701,-10.0015,-0.037126
-560,323,-16.3503,-1.16956,0,0,0,0,0,0,0,-1,664,701,-16.3503,1.16957
-553,323,-23.5726,-3.12262,0,0,0,0,0,0,0,-1,671,701,-23.5727,3.1226
-546,323,-23.5233,-3.77997,0.00652036,0.00354048,-0.00110582,0.00688589,0.00317495,-0.319243,0.00397958,0.0373626,678,701,-23.5233,3.77994
-539,323,-23.512,-4.48315,0.0054304,0.00263572,-0.000990947,0.0057461,0.00232001,-0.308426,0.00333794,0.0285377,685,701,-23.512,4.48313
-532,323,-23.6021,-5.39032,0.00437259,0.00179075,-0.000796685,0.00459863,0.0015647,-0.276465,0.00269981,0.012323,692,701,-23.6021,5.39031
-525,323,-23.6694,-6.27014,0.00340376,0.000956366,-0.00050066,0.00350222,0.000857907,-0.194179,0.00210786,0.00840239,699,701,-23.6694,6.27016
-518,323,-23.6919,-7.04425,0.0025001,0.000210392,-0.000158235,0.00251098,0.000199509,-0.0686723,0.0016116,0.0102574,706,701,-23.6919,7.04427
-511,323,-23.7527,-7.84918,0.00174836,-0.000448746,0.000177274,0.00176257,-0.000462958,0.0799957,0.00135597,0.0138669,713,701,-23.7527,7.84918
-504,323,-23.8152,-8.68298,0.00102677,-0.00104093,0.000542828,0.00116062,-0.00117477,0.241745,0.00134835,0.0157472,720,701,-23.8152,8.68298
-497,323,-23.8454,-9.48718,0.000452135,-0.00150091,0.000853449,0.000772521,-0.0018213,0.359122,0.0015378,0.0128795,727,701,-23.8454,9.48716
-490,323,-23.8935,-10.3089,0.000159407,-0.00186629,0.001151,0.000679745,-0.00238663,0.424578,0.00185955,0.0135457,734,701,-23.8935,10.3089
-483,323,-23.8973,-11.1167,-1.72729e-06,-0.00190854,0.00131794,0.000671501,-0.00258177,0.472266,0.00198327,0.0329762,741,701,-23.8974,11.1167
-476,323,-23.8577,-11.9638,0,0,0,0,0,0,0,-1,748,701,-23.8577,11.9638
-469,323,-8.33301,-3.64001,0,0,0,0,0,0,0,-1,755,701,-8.33298,3.64
-462,323,-5.29431,-1.45697,0,0,0,0,0,0,0,-1,762,701,-5.29431,1.45699
-455,323,-5.0658,-1.36639,0,0,0,0,0,0,0,-1,769,701,-5.06578,1.3664
-448,323,-4.91608,-1.59601,0,0,0,0,0,0,0,-1,776,701,-4.91606,1.59604
-441,323,-14.4006,0.535217,0,0,0,0,0,0,0,-1,783,701,-14.4006,-0.535203
-434,323,-15.3158,2.479,0,0,0,0,0,0,0,-1,790,701,-15.3158,-2.47898
-427,323,-28.3923,1.16797,0,0,0,0,0,0,0,-1,797,701,-28.3923,-1.16796
-420,323,-28.7292,1.09302,0,0,0,0,0,0,0,-1,804,701,-28.7292,-1.09304
-413,323,-28.7955,1.22418,0,0,0,0,0,0,0,-1,811,701,-28.7956,-1.22419
-406,323,0,0,0,0,0,0,0,0,0,-1,818,701,0,0
-399,323,0,0,0,0,0,0,0,0,0,-1,825,701,0,0
-392,323,0,0,0,0,0,0,0,0,0,-1,832,701,0,0
-385,323,0,0,0,0,0,0,0,0,0,-1,839,701,0,0
-378,323,0,0,0,0,0,0,0,0,0,-1,846,701,0,0
-371,323,0,0,0,0,0,0,0,0,0,-1,853,701,0,0
-364,323,0,0,0,0,0,0,0,0,0,-1,860,701,0,0
-357,323,0,0,0,0,0,0,0,0,0,-1,867,701,0,0
-350,323,0,0,0,0,0,0,0,0,0,-1,874,701,0,0
-343,323,0,0,0,0,0,0,0,0,0,-1,881,701,0,0
-336,323,0,0,0,0,0,0,0,0,0,-1,888,701,0,0
-329,323,0,0,0,0,0,0,0,0,0,-1,895,701,0,0
-322,323,0,0,0,0,0,0,0,0,0,-1,902,701,0,0
-315,323,0,0,0,0,0,0,0,0,0,-1,909,701,0,0
-308,323,0,0,0,0,0,0,0,0,0,-1,916,701,0,0
-301,323,0,0,0,0,0,0,0,0,0,-1,923,701,0,0
-294,323,0,0,0,0,0,0,0,0,0,-1,930,701,0,0
-287,323,0,0,0,0,0,0,0,0,0,-1,937,701,0,0
-280,323,0,0,0,0,0,0,0,0,0,-1,944,701,0,0
-273,323,0,0,0,0,0,0,0,0,0,-1,951,701,0,0
-266,323,0,0,0,0,0,0,0,0,0,-1,958,701,0,0
-259,323,0,0,0,0,0,0,0,0,0,-1,965,701,0,0
-252,323,0,0,0,0,0,0,0,0,0,-1,972,701,0,0
-245,323,0,0,0,0,0,0,0,0,0,-1,979,701,0,0
-238,323,0,0,0,0,0,0,0,0,0,-1,986,701,0,0
-231,323,0,0,0,0,0,0,0,0,0,-1,993,701,0,0
-224,323,0,0,0,0,0,0,0,0,0,-1,1000,701,0,0
-217,323,0,0,0,0,0,0,0,0,0,-1,1007,701,0,0
-210,323,0,0,0,0,0,0,0,0,0,-1,1014,701,0,0
-203,323,0,0,0,0,0,0,0,0,0,-1,1021,701,0,0
-196,323,0,0,0,0,0,0,0,0,0,-1,1028,701,0,0
-189,323,0,0,0,0,0,0,0,0,0,-1,1035,701,0,0
-182,323,0,0,0,0,0,0,0,0,0,-1,1042,701,0,0
-175,323,0,0,0,0,0,0,0,0,0,-1,1049,701,0,0
-168,323,0,0,0,0,0,0,0,0,0,-1,1056,701,0,0
-161,323,0,0,0,0,0,0,0,0,0,-1,1063,701,0,0
-154,323,0,0,0,0,0,0,0,0,0,-1,1070,701,0,0
-147,323,0,0,0,0,0,0,0,0,0,-1,1077,701,0,0
-140,323,0,0,0,0,0,0,0,0,0,-1,1084,701,0,0
-133,323,0,0,0,0,0,0,0,0,0,-1,1091,701,0,0
-126,323,0,0,0,0,0,0,0,0,0,-1,1098,701,0,0
-119,323,0,0,0,0,0,0,0,0,0,-1,1105,701,0,0
-112,323,0,0,0,0,0,0,0,0,0,-1,1112,701,0,0
-105,323,0,0,0,0,0,0,0,0,0,-1,1119,701,0,0
-98,323,0,0,0,0,0,0,0,0,0,-1,1126,701,0,0
-91,323,0,0,0,0,0,0,0,0,0,-1,1133,701,0,0
-84,323,0,0,0,0,0,0,0,0,0,-1,1140,701,0,0
-77,323,0,0,0,0,0,0,0,0,0,-1,1147,701,0,0
-70,323,0,0,0,0,0,0,0,0,0,-1,1154,701,0,0
-63,323,0,0,0,0,0,0,0,0,0,-1,1161,701,0,0
-56,323,0,0,0,0,0,0,0,0,0,-1,1168,701,0,0
-49,323,0,0,0,0,0,0,0,0,0,-1,1175,701,0,0
-42,323,0,0,0,0,0,0,0,0,0,-1,1182,701,0,0
-35,323,0,0,0,0,0,0,0,0,0,-1,1189,701,0,0
-28,323,0,0,0,0,0,0,0,0,0,-1,1196,701,0,0
-21,323,0,0,0,0,0,0,0,0,0,-1,1203,701,0,0
-14,323,0,0,0,0,0,0,0,0,0,-1,1210,701,0,0
-7,323,0,0,0,0,0,0,0,0,0,-1,1217,701,0,0
0,323,0,0,0,0,0,0,0,0,0,-1,1224,701,0,0
7,323,0,0,0,0,0,0,0,0,0,-1,1231,701,0,0
14,323,0,0,0,0,0,0,0,0,0,-1,1238,701,0,0
21,323,0,0,0,0,0,0,0,0,0,-1,1245,701,0,0
28,323,0,0,0,0,0,0,0,0,0,-1,1252,701,0,0
35,323,0,0,0,0,0,0,0,0,0,-1,1259,701,0,0
42,323,0,0,0,0,0,0,0,0,0,-1,1266,701,0,0
49,323,0,0,0,0,0,0,0,0,0,-1,1273,701,0,0
56,323,0,0,0,0,0,0,0,0,0,-1,1280,701,0,0
63,323,0,0,0,0,0,0,0,0,0,-1,1287,701,0,0
70,323,0,0,0,0,0,0,0,0,0,-1,1294,701,0,0
77,323,0,0,0,0,0,0,0,0,0,-1,1301,701,0,0
84,323,0,0,0,0,0,0,0,0,0,-1,1308,701,0,0
91,323,0,0,0,0,0,0,0,0,0,-1,1315,701,0,0
98,323,0,0,0,0,0,0,0,0,0,-1,1322,701,0,0
105,323,0,0,0,0,0,0,0,0,0,-1,1329,701,0,0
112,323,0,0,0,0,0,0,0,0,0,-1,1336,701,0,0
119,323,0,0,0,0,0,0,0,0,0,-1,1343,701,0,0
126,323,0,0,0,0,0,0,0,0,0,-1,1350,701,0,0
133,323,0,0,0,0,0,0,0,0,0,-1,1357,701,0,0
140,323,0,0,0,0,0,0,0,0,0,-1,1364,701,0,0
147,323,0,0,0,0,0,0,0,0,0,-1,1371,701,0,0
154,323,0,0,0,0,0,0,0,0,0,-1,1378,701,0,0
161,323,0,0,0,0,0,0,0,0,0,-1,1385,701,0,0
168,323,0,0,0,0,0,0,0,0,0,-1,1392,701,0,0
175,323,0,0,0,0,0,0,0,0,0,-1,1399,701,0,0
182,323,0,0,0,0,0,0,0,0,0,-1,1406,701,0,0
189,323,0,0,0,0,0,0,0,0,0,-1,1413,701,0,0
196,323,0,0,0,0,0,0,0,0,0,-1,1420,701,0,0
203,323,0,0,0,0,0,0,0,0,0,-1,1427,701,0,0
210,323,0,0,0,0,0,0,0,0,0,-1,1434,701,0,0
217,323,0,0,0,0,0,0,0,0,0,-1,1441,701,0,0
224,323,0,0,0,0,0,0,0,0,0,-1,1448,701,0,0
231,323,0,0,0,0,0,0,0,0,0,-1,1455,701,0,0
238,323,0,0,0,0,0,0,0,0,0,-1,1462,701,0,0
245,323,0,0,0,0,0,0,0,0,0,-1,1469,701,0,0
252,323,0,0,0,0,0,0,0,0,0,-1,1476,701,0,0
259,323,0,0,0,0,0,0,0,0,0,-1,1483,701,0,0
266,323,0,0,0,0,0,0,0,0,0,-1,1490,701,0,0
273,323,0,0,0,0,0,0,0,0,0,-1,1497,701,0,0
280,323,0,0,0,0,0,0,0,0,0,-1,1504,701,0,0
287,323,0,0,0,0,0,0,0,0,0,-1,1511,701,0,0
294,323,0,0,0,0,0,0,0,0,0,-1,1518,701,0,0
301,323,0,0,0,0,0,0,0,0,0,-1,1525,701,0,0
308,323,0,0,0,0,0,0,0,0,0,-1,1532,701,0,0
315,323,0,0,0,0,0,0,0,0,0,-1,1539,701,0,0
322,323,0,0,0,0,0,0,0,0,0,-1,1546,701,0,0
329,323,0,0,0,0,0,0,0,0,0,-1,1553,701,0,0
336,323,0,0,0,0,0,0,0,0,0,-1,1560,701,0,0
343,323,0,0,0,0,0,0,0,0,0,-1,1567,701,0,0
350,323,0,0,0,0,0,0,0,0,0,-1,1574,701,0,0
357,323,0,0,0,0,0,0,0,0,0,-1,1581,701,0,0
364,323,0,0,0,0,0,0,0,0,0,-1,1588,701,0,0
371,323,0,0,0,0,0,0,0,0,0,-1,1595,701,0,0
378,323,0,0,0,0,0,0,0,0,0,-1,1602,701,0,0
385,323,0,0,0,0,0,0,0,0,0,-1,1609,701,0,0
392,323,0,0,0,0,0,0,0,0,0,-1,1616,701,0,0
399,323,0,0,0,0,0,0,0,0,0,-1,1623,701,0,0
406,323,0,0,0,0,0,0,0,0,0,-1,1630,701,0,0
413,323,0,0,0,0,0,0,0,0,0,-1,1637,701,0,0
420,323,0,0,0,0,0,0,0,0,0,-1,1644,701,0,0
427,323,0,0,0,0,0,0,0,0,0,-1,1651,701,0,0
434,323,0,0,0,0,0,0,0,0,0,-1,1658,701,0,0
441,323,0,0,0,0,0,0,0,0,0,-1,1665,701,0,0
448,323,0,0,0,0,0,0,0,0,0,-1,1672,701,0,0
455,323,0,0,0,0,0,0,0,0,0,-1,1679,701,0,0
462,323,0,0,0,0,0,0,0,0,0,-1,1686,701,0,0
469,323,0,0,0,0,0,0,0,0,0,-1,1693,701,0,0
476,323,0,0,0,0,0,0,0,0,0,-1,1700,701,0,0
483,323,0,0,0,0,0,0,0,0,0,-1,1707,701,0,0
490,323,0,0,0,0,0,0,0,0,0,-1,1714,701,0,0
497,323,0,0,0,0,0,0,0,0,0,-1,1721,701,0,0
504,323,0,0,0,0,0,0,0,0,0,-1,1728,701,0,0
511,323,0,0,0,0,0,0,0,0,0,-1,1735,701,0,0
518,323,0,0,0,0,0,0,0,0,0,-1,1742,701,0,0
525,323,0,0,0,0,0,0,0,0,0,-1,1749,701,0,0
532,323,33.6193,1.69446,0,0,0,0,0,0,0,-1,1756,701,33.6193,-1.69444
539,323,32.2698,2.44037,0,0,0,0,0,0,0,-1,1763,701,32.2697,-2.44036
546,323,31.1644,3.9444,0,0,0,0,0,0,0,-1,1770,701,31.1644,-3.94438
553,323,30.2488,5.8775,0,0,0,0,0,0,0,-1,1777,701,30.2487,-5.87752
560,323,40.6711,1.25153,0,0,0,0,0,0,0,-1,1784,701,40.6711,-1.25154
567,323,42.1637,2.01208,0,0,0,0,0,0,0,-1,1791,701,42.1637,-2.01207
574,323,12.514,5.89685,0,0,0,0,0,0,0,-1,1798,701,12.5141,-5.89683
581,323,11.821,5.3476,0,0,0,0,0,0,0,-1,1805,701,11.821,-5.34762
588,323,11.7933,7.00818,0,0,0,0,0,0,0,-1,1812,701,11.7933,-7.00819
595,323,6.67847,0.06604,0,0,0,0,0,0,0,-1,1819,701,6.67841,-0.0660418
602,323,37.3052,-10.9804,0,0,0,0,0,0,0,-1,1826,701,37.3052,10.9804
609,323,37.5552,-10.0974,0.00304775,-3.47674e-05,0.0008706,0.00327664,-0.000263656,0.257091,0.00227741,0.0403289,1833,701,37.5551,10.0974
616,323,37.6686,-9.26361,0.00264196,-0.00021884,0.000912032,0.00290798,-0.000484862,0.283807,0.00211885,0.013571,1840,701,37.6686,9.2636
623,323,37.6354,-8.43927,0.00208691,-0.00015151,0.000789197,0.00233718,-0.000401775,0.307082,0.00170787,0.0127617,1847,701,37.6354,8.43928
630,323,37.6093,-7.57672,0.00173847,-1.81362e-06,0.000772729,0.00203206,-0.000295397,0.363086,0.00146314,0.0143405,1854,701,37.6093,7.57675
637,323,37.5723,-6.74176,0.00145934,0.0002629,0.000790068,0.00185212,-0.000129876,0.46136,0.00128023,0.0120548,1861,701,37.5722,6.74174
644,323,37.4995,-5.9259,0.00125863,0.000637149,0.000855776,0.00185834,3.74454e-05,0.611244,0.0012266,0.00922218,1868,701,37.4996,5.92589
651,323,37.4675,-5.07446,0.00113096,0.00112122,0.000969088,0.00209519,0.000156988,0.782885,0.00134751,0.0128202,1875,701,37.4675,5.07448
658,323,37.3735,-4.22522,0.0010852,0.00173922,0.00112761,0.00258628,0.000238144,0.926528,0.00165054,0.0205288,1882,701,37.3736,4.22521
665,323,37.2957,-3.39514,0.00123135,0.00247763,0.00138889,0.00337677,0.000332216,0.996267,0.00214902,0.0166204,1889,701,37.2956,3.39511
672,323,37.3239,-2.49658,0.00151701,0.00344349,0.00167966,0.0044165,0.000543994,1.04574,0.0027808,0.0202414,1896,701,37.3239,2.4966
679,323,37.3969,-1.48865,0,0,0,0,0,0,0,-1,1903,701,37.3969,1.48862
686,323,30.4916,0.378235,0,0,0,0,0,0,0,-1,1910,701,30.4916,-0.37825
693,323,23.8806,1.08844,0,0,0,0,0,0,0,-1,1917,701,23.8806,-1.08845
700,323,10.7705,0.828613,0,0,0,0,0,0,0,-1,1924,701,10.7705,-0.828591
707,323,16.9005,4.79193,0,0,0,0,0,0,0,-1,1931,701,16.9005,-4.7919
714,323,16.2346,6.25958,0,0,0,0,0,0,0,-1,1938,701,16.2346,-6.25956
721,323,0,0,0,0,0,0,0,0,0,-1,1945,701,0,0
728,323,0,0,0,0,0,0,0,0,0,-1,1952,701,0,0
735,323,0,0,0,0,0,0,0,0,0,-1,1959,701,0,0
742,323,0,0,0,0,0,0,0,0,0,-1,1966,701,0,0
749,323,0,0,0,0,0,0,0,0,0,-1,1973,701,0,0
756,323,0,0,0,0,0,0,0,0,0,-1,1980,701,0,0
763,323,0,0,0,0,0,0,0,0,0,-1,1987,701,0,0
770,323,0,0,0,0,0,0,0,0,0,-1,1994,701,0,0
777,323,0,0,0,0,0,0,0,0,0,-1,2001,701,0,0
784,323,0,0,0,0,0,0,0,0,0,-1,2008,701,0,0
791,323,0,0,0,0,0,0,0,0,0,-1,2015,701,0,0
798,323,0,0,0,0,0,0,0,0,0,-1,2022,701,0,0
805,323,0,0,0,0,0,0,0,0,0,-1,2029,701,0,0
812,323,0,0,0,0,0,0,0,0,0,-1,2036,701,0,0
-700,316,0,0,0,0,0,0,0,0,0,-1,524,708,0,0
-693,316,0,0,0,0,0,0,0,0,0,-1,531,708,0,0
-686,316,0,0,0,0,0,0,0,0,0,-1,538,708,0,0
-679,316,0,0,0,0,0,0,0,0,0,-1,545,708,0,0
-672,316,0,0,0,0,0,0,0,0,0,-1,552,708,0,0
-665,316,0,0,0,0,0,0,0,0,0,-1,559,708,0,0
-658,316,0,0,0,0,0,0,0,0,0,-1,566,708,0,0
-651,316,0,0,0,0,0,0,0,0,0,-1,573,708,0,0
-644,316,0,0,0,0,0,0,0,0,0,-1,580,708,0,0
-637,316,0,0,0,0,0,0,0,0,0,-1,587,708,0,0
-630,316,0,0,0,0,0,0,0,0,0,-1,594,708,0,0
-623,316,0,0,0,0,0,0,0,0,0,-1,601,708,0,0
-616,316,0,0,0,0,0,0,0,0,0,-1,608,708,0,0
-609,316,0,0,0,0,0,0,0,0,0,-1,615,708,0,0
-602,316,-0.451782,-0.0494995,0,0,0,0,0,0,0,-1,622,708,-0.451768,0.0495022
-595,316,-3.3761,2.17188,0,0,0,0,0,0,0,-1,629,708,-3.37609,-2.17189
-588,316,-5.00177,2.60675,0,0,0,0,0,0,0,-1,636,708,-5.00175,-2.60676
-581,316,-3.94653,0.393433,0,0,0,0,0,0,0,-1,643,708,-3.94655,-0.39342
-574,316,-9.67395,1.06067,0,0,0,0,0,0,0,-1,650,708,-9.67396,-1.06065
-567,316,-10.1962,0.448425,0,0,0,0,0,0,0,-1,657,708,-10.1962,-0.448411
-560,316,-18.9941,-1.75067,0,0,0,0,0,0,0,-1,664,708,-18.9941,1.75068
-553,316,-24.5698,-2.86841,0,0,0,0,0,0,0,-1,671,708,-24.5697,2.86839
-546,316,-24.4803,-3.6369,0.00532206,0.00375238,-0.00118167,0.00595578,0.00311866,-0.492259,0.00343985,0.0455342,678,708,-24.4803,3.63689
-539,316,-24.3566,-4.52002,0.00449824,0.00267673,-0.000979427,0.00492493,0.00225004,-0.410856,0.00284693,0.0137757,685,708,-24.3566,4.52004
-532,316,-24.4252,-5.35419,0.00360634,0.00166856,-0.000695179,0.00382994,0.00144496,-0.311187,0.00223331,0.0108635,692,708,-24.4252,5.35416
-525,316,-24.4622,-6.18188,0.0026943,0.000658799,-0.000312594,0.00274123,0.000611875,-0.148998,0.00166152,0.00973115,699,708,-24.4622,6.1819
-518,316,-24.4799,-6.99744,0.00178218,-0.000243355,0.000117799,0.00178901,-0.000250183,0.0578969,0.00128422,0.00981977,706,708,-24.4799,6.99742
-511,316,-24.5432,-7.81799,0.000949467,-0.00109624,0.000564281,0.00109479,-0.00124157,0.252063,0.00134979,0.0116161,713,708,-24.5431,7.81797
-504,316,-24.6279,-8.64532,9.98792e-05,-0.00191707,0.00106574,0.000558654,-0.00237584,0.4065,0.00179926,0.0154791,720,708,-24.628,8.64532
-497,316,-24.6534,-9.42303,-0.000625717,-0.00261572,0.00151895,0.000195108,-0.00343654,0.495436,0.00235875,0.0136308,727,708,-24.6534,9.42301
-490,316,-24.6769,-10.2524,-0.00100266,-0.0032942,0.00202389,0.000177281,-0.00447414,0.527829,0.00304357,0.0186387,734,708,-24.677,10.2524
-483,316,-24.6996,-11.1619,0,0,0,0,0,0,0,-1,741,708,-24.6997,11.1618
-476,316,-8.90894,-3.31207,0,0,0,0,0,0,0,-1,748,708,-8.90896,3.31206
-469,316,-6.24194,-1.42725,0,0,0,0,0,0,0,-1,755,708,-6.24192,1.42725
-462,316,-5.74237,-1.40039,0,0,0,0,0,0,0,-1,762,708,-5.74238,1.40039
-455,316,-5.44745,-1.21899,0,0,0,0,0,0,0,-1,769,708,-5.44746,1.21898
-448,316,-14.8945,0.655396,0,0,0,0,0,0,0,-1,776,708,-14.8946,-0.655396
-441,316,-14.9626,0.576111,0,0,0,0,0,0,0,-1,783,708,-14.9626,-0.576115
-434,316,-27.7723,1.15576,0,0,0,0,0,0,0,-1,790,708,-27.7723,-1.15579
-427,316,-28.0504,1.31427,0,0,0,0,0,0,0,-1,797,708,-28.0504,-1.31427
-420,316,-28.198,1.62891,0,0,0,0,0,0,0,-1,804,708,-28.198,-1.62889
-413,316,0,0,0,0,0,0,0,0,0,-1,811,708,0,0
-406,316,0,0,0,0,0,0,0,0,0,-1,818,708,0,0
-399,316,0,0,0,0,0,0,0,0,0,-1,825,708,0,0
-392,316,0,0,0,0,0,0,0,0,0,-1,832,708,0,0
-385,316,0,0,0,0,0,0,0,0,0,-1,839,708,0,0
-378,316,0,0,0,0,0,0,0,0,0,-1,846,708,0,0
-371,316,0,0,0,0,0,0,0,0,0,-1,853,708,0,0
-364,316,0,0,0,0,0,0,0,0,0,-1,860,708,0,0
-357,316,0,0,0,0,0,0,0,0,0,-1,867,708,0,0
-350,316,0,0,0,0,0,0,0,0,0,-1,874,708,0,0
-343,316,0,0,0,0,0,0,0,0,0,-1,881,708,0,0
-336,316,0,0,0,0,0,0,0,0,0,-1,888,708,0,0
-329,316,0,0,0,0,0,0,0,0,0,-1,895,708,0,0
-322,316,0,0,0,0,0,0,0,0,0,-1,902,708,0,0
-315,316,0,0,0,0,0,0,0,0,0,-1,909,708,0,0
-308,316,0,0,0,0,0,0,0,0,0,-1,916,708,0,0
-301,316,0,0,0,0,0,0,0,0,0,-1,923,708,0,0
-294,316,0,0,0,0,0,0,0,0,0,-1,930,708,0,0
-287,316,0,0,0,0,0,0,0,0,0,-1,937,708,0,0
-280,316,0,0,0,0,0,0,0,0,0,-1,944,708,0,0
-273,316,0,0,0,0,0,0,0,0,0,-1,951,708,0,0
-266,316,0,0,0,0,0,0,0,0,0,-1,958,708,0,0
-259,316,0,0,0,0,0,0,0,0,0,-1,965,708,0,0
-252,316,0,0,0,0,0,0,0,0,0,-1,972,708,0,0
-245,316,0,0,0,0,0,0,0,0,0,-1,979,708,0,0
-238,316,0,0,0,0,0,0,0,0,0,-1,986,708,0,0
-231,316,0,0,0,0,0,0,0,0,0,-1,993,708,0,0
-224,316,0,0,0,0,0,0,0,0,0,-1,1000,708,0,0
-217,316,0,0,0,0,0,0,0,0,0,-1,1007,708,0,0
-210,316,0,0,0,0,0,0,0,0,0,-1,1014,708,0,0
-203,316,0,0,0,0,0,0,0,0,0,-1,1021,708,0,0
-196,316,0,0,0,0,0,0,0,0,0,-1,1028,708,0,0
-189,316,0,0,0,0,0,0,0,0,0,-1,1035,708,0,0
-182,316,0,0,0,0,0,0,0,0,0,-1,1042,708,0,0
-175,316,0,0,0,0,0,0,0,0,0,-1,1049,708,0,0
-168,316,0,0,0,0,0,0,0,0,0,-1,1056,708,0,0
-161,316,0,0,0,0,0,0,0,0,0,-1,1063,708,0,0
-154,316,0,0,0,0,0,0,0,0,0,-1,1070,708,0,0
-147,316,0,0,0,0,0,0,0,0,0,-1,1077,708,0,0
-140,316,0,0,0,0,0,0,0,0,0,-1,1084,708,0,0
-133,316,0,0,0,0,0,0,0,0,0,-1,1091,708,0,0
-126,316,0,0,0,0,0,0,0,0,0,-1,1098,708,0,0
-119,316,0,0,0,0,0,0,0,0,0,-1,1105,708,0,0
-112,316,0,0,0,0,0,0,0,0,0,-1,1112,708,0,0
-105,316,0,0,0,0,0,0,0,0,0,-1,1119,708,0,0
-98,316,0,0,0,0,0,0,0,0,0,-1,1126,708,0,0
-91,316,0,0,0,0,0,0,0,0,0,-1,1133,708,0,0
-84,316,0,0,0,0,0,0,0,0,0,-1,1140,708,0,0
-77,316,0,0,0,0,0,0,0,0,0,-1,1147,708,0,0
-70,316,0,0,0,0,0,0,0,0,0,-1,1154,708,0,0
-63,316,0,0,0,0,0,0,0,0,0,-1,1161,708,0,0
-56,316,0,0,0,0,0,0,0,0,0,-1,1168,708,0,0
-49,316,0,0,0,0,0,0,0,0,0,-1,1175,708,0,0
-42,316,0,0,0,0,0,0,0,0,0,-1,1182,708,0,0
-35,316,0,0,0,0,0,0,0,0,0,-1,1189,708,0,0
-28,316,0,0,0,0,0,0,0,0,0,-1,1196,708,0,0
-21,316,0,0,0,0,0,0,0,0,0,-1,1203,708,0,0
-14,316,0,0,0,0,0,0,0,0,0,-1,1210,708,0,0
-7,316,0,0,0,0,0,0,0,0,0,-1,1217,708,0,0
0,316,0,0,0,0,0,0,0,0,0,-1,1224,708,0,0
7,316,0,0,0,0,0,0,0,0,0,-1,1231,708,0,0
14,316,0,0,0,0,0,0,0,0,0,-1,1238,708,0,0
21,316,0,0,0,0,0,0,0,0,0,-1,1245,708,0,0
28,316,0,0,0,0,0,0,0,0,0,-1,1252,708,0,0
35,316,0,0,0,0,0,0,0,0,0,-1,1259,708,0,0
42,316,0,0,0,0,0,0,0,0,0,-1,1266,708,0,0
49,316,0,0,0,0,0,0,0,0,0,-1,1273,708,0,0
56,316,0,0,0,0,0,0,0,0,0,-1,1280,708,0,0
63,316,0,0,0,0,0,0,0,0,0,-1,1287,708,0,0
70,316,0,0,0,0,0,0,0,0,0,-1,1294,708,0,0
77,316,0,0,0,0,0,0,0,0,0,-1,1301,708,0,0
84,316,0,0,0,0,0,0,0,0,0,-1,1308,708,0,0
91,316,0,0,0,0,0,0,0,0,0,-1,1315,708,0,0
98,316,0,0,0,0,0,0,0,0,0,-1,1322,708,0,0
105,316,0,0,0,0,0,0,0,0,0,-1,1329,708,0,0
112,316,0,0,0,0,0,0,0,0,0,-1,1336,708,0,0
119,316,0,0,0,0,0,0,0,0,0,-1,1343,708,0,0
126,316,0,0,0,0,0,0,0,0,0,-1,1350,708,0,0
133,316,0,0,0,0,0,0,0,0,0,-1,1357,708,0,0
140,316,0,0,0,0,0,0,0,0,0,-1,1364,708,0,0
147,316,0,0,0,0,0,0,0,0,0,-1,1371,708,0,0
154,316,0,0,0,0,0,0,0,0,0,-1,1378,708,0,0
161,316,0,0,0,0,0,0,0,0,0,-1,1385,708,0,0
168,316,0,0,0,0,0,0,0,0,0,-1,1392,708,0,0
175,316,0,0,0,0,0,0,0,0,0,-1,1399,708,0,0
182,316,0,0,0,0,0,0,0,0,0,-1,1406,708,0,0
189,316,0,0,0,0,0,0,0,0,0,-1,1413,708,0,0
196,316,0,0,0,0,0,0,0,0,0,-1,1420,708,0,0
203,316,0,0,0,0,0,0,0,0,0,-1,1427,708,0,0
210,316,0,0,0,0,0,0,0,0,0,-1,1434,708,0,0
217,316,0,0,0,0,0,0,0,0,0,-1,1441,708,0,0
224,316,0,0,0,0,0,0,0,0,0,-1,1448,708,0,0
231,316,0,0,0,0,0,0,0,0,0,-1,1455,708,0,0
238,316,0,0,0,0,0,0,0,0,0,-1,1462,708,0,0
245,316,0,0,0,0,0,0,0,0,0,-1,1469,708,0,0
252,316,0,0,0,0,0,0,0,0,0,-1,1476,708,0,0
259,316,0,0,0,0,0,0,0,0,0,-1,1483,708,0,0
266,316,0,0,0,0,0,0,0,0,0,-1,1490,708,0,0
273,316,0,0,0,0,0,0,0,0,0,-1,1497,708,0,0
280,316,0,0,0,0,0,0,0,0,0,-1,1504,708,0,0
287,316,0,0,0,0,0,0,0,0,0,-1,1511,708,0,0
294,316,0,0,0,0,0,0,0,0,0,-1,1518,708,0,0
301,316,0,0,0,0,0,0,0,0,0,-1,1525,708,0,0
308,316,0,0,0,0,0,0,0,0,0,-1,1532,708,0,0
315,316,0,0,0,0,0,0,0,0,0,-1,1539,708,0,0
322,316,0,0,0,0,0,0,0,0,0,-1,1546,708,0,0
329,316,0,0,0,0,0,0,0,0,0,-1,1553,708,0,0
336,316,0,0,0,0,0,0,0,0,0,-1,1560,708,0,0
343,316,0,0,0,0,0,0,0,0,0,-1,1567,708,0,0
350,316,0,0,0,0,0,0,0,0,0,-1,1574,708,0,0
357,316,0,0,0,0,0,0,0,0,0,-1,1581,708,0,0
364,316,0,0,0,0,0,0,0,0,0,-1,1588,708,0,0
371,316,0,0,0,0,0,0,0,0,0,-1,1595,708,0,0
378,316,0,0,0,0,0,0,0,0,0,-1,1602,708,0,0
385,316,0,0,0,0,0,0,0,0,0,-1,1609,708,0,0
392,316,0,0,0,0,0,0,0,0,0,-1,1616,708,0,0
399,316,0,0,0,0,0,0,0,0,0,-1,1623,708,0,0
406,316,0,0,0,0,0,0,0,0,0,-1,1630,708,0,0
413,316,0,0,0,0,0,0,0,0,0,-1,1637,708,0,0
420,316,0,0,0,0,0,0,0,0,0,-1,1644,708,0,0
427,316,0,0,0,0,0,0,0,0,0,-1,1651,708,0,0
434,316,0,0,0,0,0,0,0,0,0,-1,1658,708,0,0
441,316,0,0,0,0,0,0,0,0,0,-1,1665,708,0,0
448,316,0,0,0,0,0,0,0,0,0,-1,1672,708,0,0
455,316,0,0,0,0,0,0,0,0,0,-1,1679,708,0,0
462,316,0,0,0,0,0,0,0,0,0,-1,1686,708,0,0
469,316,0,0,0,0,0,0,0,0,0,-1,1693,708,0,0
476,316,0,0,0,0,0,0,0,0,0,-1,1700,708,0,0
483,316,0,0,0,0,0,0,0,0,0,-1,1707,708,0,0
490,316,0,0,0,0,0,0,0,0,0,-1,1714,708,0,0
497,316,0,0,0,0,0,0,0,0,0,-1,1721,708,0,0
504,316,0,0,0,0,0,0,0,0,0,-1,1728,708,0,0
511,316,0,0,0,0,0,0,0,0,0,-1,1735,708,0,0
518,316,0,0,0,0,0,0,0,0,0,-1,1742,708,0,0
525,316,0,0,0,0,0,0,0,0,0,-1,1749,708,0,0
532,316,33.8604,0.531128,0,0,0,0,0,0,0,-1,1756,708,33.8604,-0.531151
539,316,44.4543,2.73468,0,0,0,0,0,0,0,-1,1763,708,44.4543,-2.7347
546,316,44.713,3.35498,0,0,0,0,0,0,0,-1,1770,708,44.7131,-3.35501
553,316,39.9031,6.57275,0,0,0,0,0,0,0,-1,1777,708,39.9031,-6.57274
560,316,39.1196,1.10046,0,0,0,0,0,0,0,-1,1784,708,39.1197,-1.10048
567,316,47.3683,6.04919,0,0,0,0,0,0,0,-1,1791,708,47.3683,-6.04918
574,316,45.9872,6.7655,0,0,0,0,0,0,0,-1,1798,708,45.9871,-6.76552
581,316,24.6815,7.77496,0,0,0,0,0,0,0,-1,1805,708,24.6815,-7.77499
588,316,19.7659,2.90198,0,0,0,0,0,0,0,-1,1812,708,19.7659,-2.902
595,316,12.5363,1.50702,0,0,0,0,0,0,0,-1,1819,708,12.5363,-1.50701
602,316,7.79919,0.0422363,0,0,0,0,0,0,0,-1,1826,708,7.79923,-0.0422066
609,316,38.3225,-10.012,0,0,0,0,0,0,0,-1,1833,708,38.3225,10.012
616,316,38.5006,-9.21552,0.00319842,-0.000141719,0.00126882,0.00362574,-0.000569035,0.324852,0.00262746,0.0150062,1840,708,38.5006,9.21554
623,316,38.4617,-8.38647,0.00244296,-0.00011565,0.00103508,0.00280926,-0.000481949,0.340131,0.00205244,0.0115614,1847,708,38.4617,8.38645
630,316,38.4215,-7.57776,0.00200728,-3.62281e-05,0.000928015,0.00236581,-0.000394762,0.36868,0.00172393,0.0133047,1854,708,38.4216,7.57776
637,316,38.3688,-6.71405,0.00167121,0.000184748,0.000891601,0.00208873,-0.000232772,0.437952,0.00147621,0.0126809,1861,708,38.3687,6.71407
644,316,38.3353,-5.86011,0.00143872,0.000527058,0.000917641,0.00200751,-4.17305e-05,0.554879,0.00135247,0.0126129,1868,708,38.3354,5.86009
651,316,38.2986,-5.01746,0.00129021,0.000975371,0.000995387,0.00214055,0.000125032,0.706974,0.00138723,0.0173912,1875,708,38.2985,5.01744
658,316,38.231,-4.16107,0.00123403,0.00156112,0.00111708,0.00252656,0.000268592,0.858083,0.00160236,0.0352262,1882,708,38.2309,4.16108
665,316,38.1157,-3.34235,0.00136035,0.00229369,0.00135452,0.00325968,0.000394366,0.951294,0.00205432,0.024327,1889,708,38.1157,3.34233
672,316,38.1218,-2.50256,0.00160898,0.00322372,0.00165096,0.00425415,0.000578546,1.01282,0.00266427,0.0132023,1896,708,38.1219,2.50259
679,316,38.1499,-1.60565,0,0,0,0,0,0,0,-1,1903,708,38.1499,1.60562
686,316,34.0828,0.223206,0,0,0,0,0,0,0,-1,1910,708,34.0828,-0.223183
693,316,26.4315,1.80652,0,0,0,0,0,0,0,-1,1917,708,26.4315,-1.80651
700,316,12.8749,2.89136,0,0,0,0,0,0,0,-1,1924,708,12.8748,-2.89137
707,316,15.7089,5.41486,0,0,0,0,0,0,0,-1,1931,708,15.7088,-5.41487
714,316,16.1727,5.52045,0,0,0,0,0,0,0,-1,1938,708,16.1728,-5.52042
721,316,16.7094,6.53351,0,0,0,0,0,0,0,-1,1945,708,16.7094,-6.5335
728,316,0,0,0,0,0,0,0,0,0,-1,1952,708,0,0
735,316,0,0,0,0,0,0,0,0,0,-1,1959,708,0,0
742,316,0,0,0,0,0,0,0,0,0,-1,1966,708,0,0
749,316,0,0,0,0,0,0,0,0,0,-1,1973,708,0,0
756,316,0,0,0,0,0,0,0,0,0,-1,1980,708,0,0
763,316,0,0,0,0,0,0,0,0,0,-1,1987,708,0,0
770,316,0,0,0,0,0,0,0,0,0,-1,1994,708,0,0
777,316,0,0,0,0,0,0,0,0,0,-1,2001,708,0,0
784,316,0,0,0,0,0,0,0,0,0,-1,2008,708,0,0
791,316,0,0,0,0,0,0,0,0,0,-1,2015,708,0,0
798,316,0,0,0,0,0,0,0,0,0,-1,2022,708,0,0
805,316,0,0,0,0,0,0,0,0,0,-1,2029,708,0,0
812,316,0,0,0,0,0,0,0,0,0,-1,2036,708,0,0
-700,309,0,0,0,0,0,0,0,0,0,-1,524,715,0,0
-693,309,0,0,0,0,0,0,0,0,0,-1,531,715,0,0
-686,309,0,0,0,0,0,0,0,0,0,-1,538,715,0,0
-679,309,0,0,0,0,0,0,0,0,0,-1,545,715,0,0
-672,309,0,0,0,0,0,0,0,0,0,-1,552,715,0,0
-665,309,0,0,0,0,0,0,0,0,0,-1,559,715,0,0
-658,309,0,0,0,0,0,0,0,0,0,-1,566,715,0,0
-651,309,0,0,0,0,0,0,0,0,0,-1,573,715,0,0
-644,309,0,0,0,0,0,0,0,0,0,-1,580,715,0,0
-637,309,0,0,0,0,0,0,0,0,0,-1,587,715,0,0
-630,309,0,0,0,0,0,0,0,0,0,-1,594,715,0,0
-623,309,0,0,0,0,0,0,0,0,0,-1,601,715,0,0
-616,309,0,0,0,0,0,0,0,0,0,-1,608,715,0,0
-609,309,-5.95392,-3.93689,0,0,0,0,0,0,0,-1,615,715,-5.95392,3.93686
-602,309,-4.99786,-3.31287,0,0,0,0,0,0,0,-1,622,715,-4.99786,3.31284
-595,309,-6.80847,2.4046,0,0,0,0,0,0,0,-1,629,715,-6.80845,-2.40458
-588,309,-6.08795,2.19324,0,0,0,0,0,0,0,-1,636,715,-6.08793,-2.19325
-581,309,-5.97552,1.3277,0,0,0,0,0,0,0,-1,643,715,-5.97552,-1.32769
-574,309,-8.73602,0.208435,0,0,0,0,0,0,0,-1,650,715,-8.73604,-0.208437
-567,309,-10.3909,0.85968,0,0,0,0,0,0,0,-1,657,715,-10.3909,-0.859696
-560,309,-18.6088,-1.73389,0,0,0,0,0,0,0,-1,664,715,-18.6088,1.73389
-553,309,-25.2642,-2.66272,0,0,0,0,0,0,0,-1,671,715,-25.2642,2.66272
-546,309,-25.2869,-3.61829,0.00427605,0.00356122,-0.00100271,0.00498314,0.00285413,-0.614194,0.00288715,0.0345929,678,715,-25.2869,3.61827
-539,309,-25.1857,-4.49603,0.00352259,0.0023693,-0.000729585,0.0038759,0.00201599,-0.450977,0.00223836,0.0140299,685,715,-25.1856,4.49602
-532,309,-25.2186,-5.29956,0.0026555,0.00123043,-0.000364576,0.00274335,0.00114258,-0.236466,0.00159122,0.0115278,692,715,-25.2186,5.29957
-525,309,-25.2621,-6.14465,0.00177176,0.000158148,5.83083e-05,0.00177386,0.000156044,0.0360726,0.00113414,0.0154309,699,715,-25.2621,6.14464
-518,309,-25.2927,-6.96185,0.000876138,-0.000801904,0.000536277,0.00103288,-0.000958649,0.284362,0.00115008,0.0158971,706,715,-25.2927,6.96184
-511,309,-25.3443,-7.76141,-4.00118e-07,-0.00175175,0.00105534,0.000495256,-0.0022474,0.439087,0.00168775,0.0129898,713,715,-25.3443,7.76139
-504,309,-25.4229,-8.57458,-0.000920007,-0.0027035,0.0016479,6.19543e-05,-0.00368546,0.53739,0.00247789,0.0107308,720,715,-25.4229,8.57458
-497,309,-25.4546,-9.36774,-0.00172234,-0.00354818,0.00219456,-0.000258387,-0.00501213,0.588289,0.00325871,0.01497,727,715,-25.4546,9.36771
-490,309,-25.3792,-10.2576,0,0,0,0,0,0,0,-1,734,715,-25.3792,10.2576
-483,309,-17.7261,-7.75836,0,0,0,0,0,0,0,-1,741,715,-17.7261,7.75839
-476,309,-5.29486,-1.2262,0,0,0,0,0,0,0,-1,748,715,-5.29484,1.22622
-469,309,-4.22717,-0.592896,0,0,0,0,0,0,0,-1,755,715,-4.2272,0.592905
-462,309,-10.428,2.46948,0,0,0,0,0,0,0,-1,762,715,-10.428,-2.46947
-455,309,-15.8216,0.00915527,0,0,0,0,0,0,0,-1,769,715,-15.8216,-0.00913359
-448,309,-37.3543,-1.02441,0,0,0,0,0,0,0,-1,776,715,-37.3543,1.02444
-441,309,-19.8181,1.4425,0,0,0,0,0,0,0,-1,783,715,-19.8181,-1.44249
-434,309,-46.7953,1.72064,0,0,0,0,0,0,0,-1,790,715,-46.7953,-1.72067
-427,309,-27.8553,1.40332,0,0,0,0,0,0,0,-1,797,715,-27.8553,-1.40334
-420,309,-27.3148,1.90747,0,0,0,0,0,0,0,-1,804,715,-27.3148,-1.90745
-413,309,0,0,0,0,0,0,0,0,0,-1,811,715,0,0
-406,309,0,0,0,0,0,0,0,0,0,-1,818,715,0,0
-399,309,0,0,0,0,0,0,0,0,0,-1,825,715,0,0
-392,309,0,0,0,0,0,0,0,0,0,-1,832,715,0,0
-385,309,0,0,0,0,0,0,0,0,0,-1,839,715,0,0
-378,309,0,0,0,0,0,0,0,0,0,-1,846,715,0,0
-371,309,0,0,0,0,0,0,0,0,0,-1,853,715,0,0
-364,309,0,0,0,0,0,0,0,0,0,-1,860,715,0,0
-357,309,0,0,0,0,0,0,0,0,0,-1,867,715,0,0
-350,309,0,0,0,0,0,0,0,0,0,-1,874,715,0,0
-343,309,0,0,0,0,0,0,0,0,0,-1,881,715,0,0
-336,309,0,0,0,0,0,0,0,0,0,-1,888,715,0,0
-329,309,0,0,0,0,0,0,0,0,0,-1,895,715,0,0
-322,309,0,0,0,0,0,0,0,0,0,-1,902,715,0,0
-315,309,0,0,0,0,0,0,0,0,0,-1,909,715,0,0
-308,309,0,0,0,0,0,0,0,0,0,-1,916,715,0,0
-301,309,0,0,0,0,0,0,0,0,0,-1,923,715,0,0
-294,309,0,0,0,0,0,0,0,0,0,-1,930,715,0,0
-287,309,0,0,0,0,0,0,0,0,0,-1,937,715,0,0
-280,309,0,0,0,0,0,0,0,0,0,-1,944,715,0,0
-273,309,0,0,0,0,0,0,0,0,0,-1,951,715,0,0
-266,309,0,0,0,0,0,0,0,0,0,-1,958,715,0,0
-259,309,0,0,0,0,0,0,0,0,0,-1,965,715,0,0
-252,309,0,0,0,0,0,0,0,0,0,-1,972,715,0,0
-245,309,0,0,0,0,0,0,0,0,0,-1,979,715,0,0
-238,309,0,0,0,0,0,0,0,0,0,-1,986,715,0,0
-231,309,0,0,0,0,0,0,0,0,0,-1,993,715,0,0
-224,309,0,0,0,0,0,0,0,0,0,-1,1000,715,0,0
-217,309,0,0,0,0,0,0,0,0,0,-1,1007,715,0,0
-210,309,0,0,0,0,0,0,0,0,0,-1,1014,715,0,0
-203,309,0,0,0,0,0,0,0,0,0,-1,1021,715,0,0
-196,309,0,0,0,0,0,0,0,0,0,-1,1028,715,0,0
-189,309,0,0,0,0,0,0,0,0,0,-1,1035,715,0,0
-182,309,0,0,0,0,0,0,0,0,0,-1,1042,715,0,0
-175,309,0,0,0,0,0,0,0,0,0,-1,1049,715,0,0
-168,309,0,0,0,0,0,0,0,0,0,-1,1056,715,0,0
-161,309,0,0,0,0,0,0,0,0,0,-1,1063,715,0,0
-154,309,0,0,0,0,0,0,0,0,0,-1,1070,715,0,0
-147,309,0,0,0,0,0,0,0,0,0,-1,1077,715,0,0
-140,309,0,0,0,0,0,0,0,0,0,-1,1084,715,0,0
-133,309,0,0,0,0,0,0,0,0,0,-1,1091,715,0,0
-126,309,0,0,0,0,0,0,0,0,0,-1,1098,715,0,0
-119,309,0,0,0,0,0,0,0,0,0,-1,1105,715,0,0
-112,309,0,0,0,0,0,0,0,0,0,-1,1112,715,0,0
-105,309,0,0,0,0,0,0,0,0,0,-1,1119,715,0,0
-98,309,0,0,0,0,0,0,0,0,0,-1,1126,715,0,0
-91,309,0,0,0,0,0,0,0,0,0,-1,1133,715,0,0
-84,309,0,0,0,0,0,0,0,0,0,-1,1140,715,0,0
-77,309,0,0,0,0,0,0,0,0,0,-1,1147,715,0,0
-70,309,0,0,0,0,0,0,0,0,0,-1,1154,715,0,0
-63,309,0,0,0,0,0,0,0,0,0,-1,1161,715,0,0
-56,309,0,0,0,0,0,0,0,0,0,-1,1168,715,0,0
-49,309,0,0,0,0,0,0,0,0,0,-1,1175,715,0,0
-42,309,0,0,0,0,0,0,0,0,0,-1,1182,715,0,0
-35,309,0,0,0,0,0,0,0,0,0,-1,1189,715,0,0
-28,309,0,0,0,0,0,0,0,0,0,-1,1196,715,0,0
-21,309,0,0,0,0,0,0,0,0,0,-1,1203,715,0,0
-14,309,0,0,0,0,0,0,0,0,0,-1,1210,715,0,0
-7,309,0,0,0,0,0,0,0,0,0,-1,1217,715,0,0
0,309,0,0,0,0,0,0,0,0,0,-1,1224,715,0,0
7,309,0,0,0,0,0,0,0,0,0,-1,1231,715,0,0
14,309,0,0,0,0,0,0,0,0,0,-1,1238,715,0,0
21,309,0,0,0,0,0,0,0,0,0,-1,1245,715,0,0
28,309,0,0,0,0,0,0,0,0,0,-1,1252,715,0,0
35,309,0,0,0,0,0,0,0,0,0,-1,1259,715,0,0
42,309,0,0,0,0,0,0,0,0,0,-1,1266,715,0,0
49,309,0,0,0,0,0,0,0,0,0,-1,1273,715,0,0
56,309,0,0,0,0,0,0,0,0,0,-1,1280,715,0,0
63,309,0,0,0,0,0,0,0,0,0,-1,1287,715,0,0
70,309,0,0,0,0,0,0,0,0,0,-1,1294,715,0,0
77,309,0,0,0,0,0,0,0,0,0,-1,1301,715,0,0
84,309,0,0,0,0,0,0,0,0,0,-1,1308,715,0,0
91,309,0,0,0,0,0,0,0,0,0,-1,1315,715,0,0
98,309,0,0,0,0,0,0,0,0,0,-1,1322,715,0,0
105,309,0,0,0,0,0,0,0,0,0,-1,1329,715,0,0
112,309,0,0,0,0,0,0,0,0,0,-1,1336,715,0,0
119,309,0,0,0,0,0,0,0,0,0,-1,1343,715,0,0
126,309,0,0,0,0,0,0,0,0,0,-1,1350,715,0,0
133,309,0,0,0,0,0,0,0,0,0,-1,1357,715,0,0
140,309,0,0,0,0,0,0,0,0,0,-1,1364,715,0,0
147,309,0,0,0,0,0,0,0,0,0,-1,1371,715,0,0
154,309,0,0,0,0,0,0,0,0,0,-1,1378,715,0,0
161,309,0,0,0,0,0,0,0,0,0,-1,1385,715,0,0
168,309,0,0,0,0,0,0,0,0,0,-1,1392,715,0,0
175,309,0,0,0,0,0,0,0,0,0,-1,1399,715,0,0
182,309,0,0,0,0,0,0,0,0,0,-1,1406,715,0,0
189,309,0,0,0,0,0,0,0,0,0,-1,1413,715,0,0
196,309,0,0,0,0,0,0,0,0,0,-1,1420,715,0,0
203,309,0,0,0,0,0,0,0,0,0,-1,1427,715,0,0
210,309,0,0,0,0,0,0,0,0,0,-1,1434,715,0,0
217,309,0,0,0,0,0,0,0,0,0,-1,1441,715,0,0
224,309,0,0,0,0,0,0,0,0,0,-1,1448,715,0,0
231,309,0,0,0,0,0,0,0,0,0,-1,1455,715,0,0
238,309,0,0,0,0,0,0,0,0,0,-1,1462,715,0,0
245,309,0,0,0,0,0,0,0,0,0,-1,1469,715,0,0
252,309,0,0,0,0,0,0,0,0,0,-1,1476,715,0,0
259,309,0,0,0,0,0,0,0,0,0,-1,1483,715,0,0
266,309,0,0,0,0,0,0,0,0,0,-1,1490,715,0,0
273,309,0,0,0,0,0,0,0,0,0,-1,1497,715,0,0
280,309,0,0,0,0,0,0,0,0,0,-1,1504,715,0,0
287,309,0,0,0,0,0,0,0,0,0,-1,1511,715,0,0
294,309,0,0,0,0,0,0,0,0,0,-1,1518,715,0,0
301,309,0,0,0,0,0,0,0,0,0,-1,1525,715,0,0
308,309,0,0,0,0,0,0,0,0,0,-1,1532,715,0,0
315,309,0,0,0,0,0,0,0,0,0,-1,1539,715,0,0
322,309,0,0,0,0,0,0,0,0,0,-1,1546,715,0,0
329,309,0,0,0,0,0,0,0,0,0,-1,1553,715,0,0
336,309,0,0,0,0,0,0,0,0,0,-1,1560,715,0,0
343,309,0,0,0,0,0,0,0,0,0,-1,1567,715,0,0
350,309,0,0,0,0,0,0,0,0,0,-1,1574,715,0,0
357,309,0,0,0,0,0,0,0,0,0,-1,1581,715,0,0
364,309,0,0,0,0,0,0,0,0,0,-1,1588,715,0,0
371,309,0,0,0,0,0,0,0,0,0,-1,1595,715,0,0
378,309,0,0,0,0,0,0,0,0,0,-1,1602,715,0,0
385,309,0,0,0,0,0,0,0,0,0,-1,1609,715,0,0
392,309,0,0,0,0,0,0,0,0,0,-1,1616,715,0,0
399,309,0,0,0,0,0,0,0,0,0,-1,1623,715,0,0
406,309,0,0,0,0,0,0,0,0,0,-1,1630,715,0,0
413,309,0,0,0,0,0,0,0,0,0,-1,1637,715,0,0
420,309,0,0,0,0,0,0,0,0,0,-1,1644,715,0,0
427,309,0,0,0,0,0,0,0,0,0,-1,1651,715,0,0
434,309,0,0,0,0,0,0,0,0,0,-1,1658,715,0,0
441,309,0,0,0,0,0,0,0,0,0,-1,1665,715,0,0
448,309,0,0,0,0,0,0,0,0,0,-1,1672,715,0,0
455,309,0,0,0,0,0,0,0,0,0,-1,1679,715,0,0
462,309,0,0,0,0,0,0,0,0,0,-1,1686,715,0,0
469,309,0,0,0,0,0,0,0,0,0,-1,1693,715,0,0
476,309,0,0,0,0,0,0,0,0,0,-1,1700,715,0,0
483,309,0,0,0,0,0,0,0,0,0,-1,1707,715,0,0
490,309,0,0,0,0,0,0,0,0,0,-1,1714,715,0,0
497,309,0,0,0,0,0,0,0,0,0,-1,1721,715,0,0
504,309,0,0,0,0,0,0,0,0,0,-1,1728,715,0,0
511,309,0,0,0,0,0,0,0,0,0,-1,1735,715,0,0
518,309,0,0,0,0,0,0,0,0,0,-1,1742,715,0,0
525,309,0,0,0,0,0,0,0,0,0,-1,1749,715,0,0
532,309,0,0,0,0,0,0,0,0,0,-1,1756,715,0,0
539,309,44.2073,2.66235,0,0,0,0,0,0,0,-1,1763,715,44.2073,-2.66238
546,309,44.4976,3.25531,0,0,0,0,0,0,0,-1,1770,715,44.4976,-3.25533
553,309,47.9611,4.06433,0,0,0,0,0,0,0,-1,1777,715,47.9611,-4.06434
560,309,47.9784,4.64801,0,0,0,0,0,0,0,-1,1784,715,47.9784,-4.64799
567,309,47.0073,5.43121,0,0,0,0,0,0,0,-1,1791,715,47.0073,-5.43121
574,309,45.8746,6.53271,0,0,0,0,0,0,0,-1,1798,715,45.8747,-6.53269
581,309,45.0629,7.73468,0,0,0,0,0,0,0,-1,1805,715,45.0629,-7.73471
588,309,26.2064,7.76422,0,0,0,0,0,0,0,-1,1812,715,26.2064,-7.7642
595,309,19.585,3.71558,0,0,0,0,0,0,0,-1,1819,715,19.5849,-3.71555
602,309,11.0811,3.47772,0,0,0,0,0,0,0,-1,1826,715,11.0811,-3.47772
609,309,39.4435,-10.0448,0,0,0,0,0,0,0,-1,1833,715,39.4435,10.0448
616,309,39.365,-9.17969,0.0035663,-5.12897e-05,0.00148758,0.00409943,-0.000584423,0.34413,0.00294714,0.0265008,1840,715,39.365,9.1797
623,309,39.2953,-8.32776,0.00264882,-6.92916e-05,0.00122616,0.0031202,-0.000540677,0.36702,0.00228181,0.0116195,1847,715,39.2952,8.32779
630,309,39.2365,-7.50464,0.00215211,-6.2793e-05,0.00107986,0.00259144,-0.000502126,0.386392,0.00191705,0.01124,1854,715,39.2365,7.50464
637,309,39.1763,-6.65356,0.00177079,0.0001005,0.00100475,0.00224216,-0.000370871,0.438659,0.0016325,0.0143508,1861,715,39.1763,6.65355
644,309,39.1213,-5.80023,0.00151636,0.000409317,0.000993266,0.00209992,-0.000174249,0.531194,0.0014615,0.0154899,1868,715,39.1214,5.80021
651,309,39.0878,-4.96301,0.00135807,0.000824343,0.00103348,0.00215858,2.38293e-05,0.65905,0.00143118,0.0149632,1875,715,39.0878,4.963
658,309,39.0514,-4.1131,0.00130079,0.00138103,0.00111593,0.00245756,0.000224253,0.803366,0.00156897,0.0223306,1882,715,39.0514,4.11307
665,309,39.0289,-3.26727,0.00141494,0.0021026,0.0013148,0.00311778,0.000399757,0.913288,0.00195891,0.0193731,1889,715,39.0289,3.2673
672,309,38.9839,-2.45056,0.00165123,0.00299677,0.00158856,0.00404915,0.00059885,0.985702,0.00252362,0.0155339,1896,715,38.9839,2.45056
679,309,38.9548,-1.52594,0.00203057,0.00417597,0.00201012,0.00538171,0.000824835,1.0305,0.00334691,0.0284946,1903,715,38.9549,1.52596
686,309,38.9716,-0.520203,0,0,0,0,0,0,0,-1,1910,715,38.9715,0.520207
693,309,32.7026,1.51727,0,0,0,0,0,0,0,-1,1917,715,32.7026,-1.51727
700,309,23.0179,3.08337,0,0,0,0,0,0,0,-1,1924,715,23.018,-3.08336
707,309,15.6318,4.58655,0,0,0,0,0,0,0,-1,1931,715,15.6318,-4.58657
714,309,16.7573,6.68286,0,0,0,0,0,0,0,-1,1938,715,16.7574,-6.68284
721,309,16.8337,5.4458,0,0,0,0,0,0,0,-1,1945,715,16.8338,-5.44582
728,309,0,0,0,0,0,0,0,0,0,-1,1952,715,0,0
735,309,0,0,0,0,0,0,0,0,0,-1,1959,715,0,0
742,309,0,0,0,0,0,0,0,0,0,-1,1966,715,0,0
749,309,0,0,0,0,0,0,0,0,0,-1,1973,715,0,0
756,309,0,0,0,0,0,0,0,0,0,-1,1980,715,0,0
763,309,0,0,0,0,0,0,0,0,0,-1,1987,715,0,0
770,309,0,0,0,0,0,0,0,0,0,-1,1994,715,0,0
777,309,0,0,0,0,0,0,0,0,0,-1,2001,715,0,0
784,309,0,0,0,0,0,0,0,0,0,-1,2008,715,0,0
791,309,0,0,0,0,0,0,0,0,0,-1,2015,715,0,0
798,309,0,0,0,0,0,0,0,0,0,-1,2022,715,0,0
805,309,0,0,0,0,0,0,0,0,0,-1,2029,715,0,0
812,309,0,0,0,0,0,0,0,0,0,-1,2036,715,0,0
-700,302,0,0,0,0,0,0,0,0,0,-1,524,722,0,0
-693,302,0,0,0,0,0,0,0,0,0,-1,531,722,0,0
-686,302,0,0,0,0,0,0,0,0,0,-1,538,722,0,0
-679,302,0,0,0,0,0,0,0,0,0,-1,545,722,0,0
-672,302,0,0,0,0,0,0,0,0,0,-1,552,722,0,0
-665,302,0,0,0,0,0,0,0,0,0,-1,559,722,0,0
-658,302,0,0,0,0,0,0,0,0,0,-1,566,722,0,0
-651,302,0,0,0,0,0,0,0,0,0,-1,573,722,0,0
-644,302,0,0,0,0,0,0,0,0,0,-1,580,722,0,0
-637,302,0,0,0,0,0,0,0,0,0,-1,587,722,0,0
-630,302,0,0,0,0,0,0,0,0,0,-1,594,722,0,0
-623,302,0,0,0,0,0,0,0,0,0,-1,601,722,0,0
-616,302,0,0,0,0,0,0,0,0,0,-1,608,722,0,0
-609,302,-7.79266,-3.71649,0,0,0,0,0,0,0,-1,615,722,-7.79267,3.7165
-602,302,0.92865,-1.99158,0,0,0,0,0,0,0,-1,622,722,0.928637,1.99157
-595,302,-7.89941,2.13641,0,0,0,0,0,0,0,-1,629,722,-7.89939,-2.13639
-588,302,-7.10895,1.79163,0,0,0,0,0,0,0,-1,636,722,-7.10896,-1.79163
-581,302,-9.17566,1.09448,0,0,0,0,0,0,0,-1,643,722,-9.17569,-1.09445
-574,302,-11.5183,-0.344543,0,0,0,0,0,0,0,-1,650,722,-11.5183,0.344557
-567,302,-12.1534,-0.672241,0,0,0,0,0,0,0,-1,657,722,-12.1535,0.672246
-560,302,-26.0859,-1.86902,0,0,0,0,0,0,0,-1,664,722,-26.0859,1.86901
-553,302,-25.9736,-2.7251,0.00377194,0.00395294,-0.000580753,0.0044502,0.00327468,-0.862692,0.0026629,0.0363121,671,722,-25.9736,2.7251
-546,302,-25.978,-3.62201,0.0032331,0.00291444,-0.00055717,0.00365327,0.00249426,-0.646133,0.00215567,0.018614,678,722,-25.978,3.622
-539,302,-26.0312,-4.41687,0.00254227,0.00189004,-0.000362942,0.00270409,0.00172822,-0.419399,0.00158122,0.0144157,685,722,-26.0312,4.41689
-532,302,-26.0786,-5.2182,0.00169385,0.000747332,-4.34955e-06,0.00169387,0.000747312,-0.00459518,0.00098021,0.0137203,692,722,-26.0786,5.21819
-525,302,-26.0754,-6.11084,0.000802972,-0.000321399,0.000416304,0.00094033,-0.000458758,0.3187,0.00082356,0.0199289,699,722,-26.0754,6.11085
-518,302,-26.1066,-6.91296,-0.000119667,-0.00130782,0.000913983,0.000376343,-0.00180383,0.497214,0.00134566,0.0225998,706,722,-26.1066,6.91296
-511,302,-26.1752,-7.69098,-0.00109651,-0.00234117,0.00148925,-0.000104789,-0.00333289,0.587484,0.00218783,0.0118043,713,722,-26.1751,7.69101
-504,302,-26.2396,-8.51544,-0.00213897,-0.00343117,0.00215398,-0.000536275,-0.00503387,0.639691,0.0031922,0.0100312,720,722,-26.2396,8.51541
-497,302,-26.3234,-9.30774,-0.00307396,-0.0044575,0.00279347,-0.000887873,-0.00664358,0.664021,0.00416476,0.0155204,727,722,-26.3234,9.30773
-490,302,-26.4046,-10.101,0,0,0,0,0,0,0,-1,734,722,-26.4046,10.101
-483,302,-9.53412,-3.1673,0,0,0,0,0,0,0,-1,741,722,-9.53411,3.1673
-476,302,-4.29749,-0.203491,0,0,0,0,0,0,0,-1,748,722,-4.29751,0.203464
-469,302,-12.369,1.42859,0,0,0,0,0,0,0,-1,755,722,-12.3689,-1.42857
-462,302,-17.4766,0.310791,0,0,0,0,0,0,0,-1,762,722,-17.4766,-0.310788
-455,302,-36.7368,-2.97418,0,0,0,0,0,0,0,-1,769,722,-36.7368,2.97416
-448,302,-42.1174,-1.44232,0,0,0,0,0,0,0,-1,776,722,-42.1174,1.44229
-441,302,-46.7637,0.580078,0,0,0,0,0,0,0,-1,783,722,-46.7636,-0.58007
-434,302,-46.574,1.30511,0,0,0,0,0,0,0,-1,790,722,-46.574,-1.30509
-427,302,-46.7514,1.51532,0,0,0,0,0,0,0,-1,797,722,-46.7514,-1.51532
-420,302,0,0,0,0,0,0,0,0,0,-1,804,722,0,0
-413,302,0,0,0,0,0,0,0,0,0,-1,811,722,0,0
-406,302,0,0,0,0,0,0,0,0,0,-1,818,722,0,0
-399,302,0,0,0,0,0,0,0,0,0,-1,825,722,0,0
-392,302,0,0,0,0,0,0,0,0,0,-1,832,722,0,0
-385,302,0,0,0,0,0,0,0,0,0,-1,839,722,0,0
-378,302,0,0,0,0,0,0,0,0,0,-1,846,722,0,0
-371,302,0,0,0,0,0,0,0,0,0,-1,853,722,0,0
-364,302,0,0,0,0,0,0,0,0,0,-1,860,722,0,0
-357,302,0,0,0,0,0,0,0,0,0,-1,867,722,0,0
-350,302,0,0,0,0,0,0,0,0,0,-1,874,722,0,0
-343,302,0,0,0,0,0,0,0,0,0,-1,881,722,0,0
-336,302,0,0,0,0,0,0,0,0,0,-1,888,722,0,0
-329,302,0,0,0,0,0,0,0,0,0,-1,895,722,0,0
-322,302,0,0,0,0,0,0,0,0,0,-1,902,722,0,0
-315,302,0,0,0,0,0,0,0,0,0,-1,909,722,0,0
-308,302,0,0,0,0,0,0,0,0,0,-1,916,722,0,0
-301,302,0,0,0,0,0,0,0,0,0,-1,923,722,0,0
-294,302,0,0,0,0,0,0,0,0,0,-1,930,722,0,0
-287,302,0,0,0,0,0,0,0,0,0,-1,937,722,0,0
-280,302,0,0,0,0,0,0,0,0,0,-1,944,722,0,0
-273,302,0,0,0,0,0,0,0,0,0,-1,951,722,0,0
-266,302,0,0,0,0,0,0,0,0,0,-1,958,722,0,0
-259,302,0,0,0,0,0,0,0,0,0,-1,965,722,0,0
-252,302,0,0,0,0,0,0,0,0,0,-1,972,722,0,0
-245,302,0,0,0,0,0,0,0,0,0,-1,979,722,0,0
-238,302,0,0,0,0,0,0,0,0,0,-1,986,722,0,0
-231,302,0,0,0,0,0,0,0,0,0,-1,993,722,0,0
-224,302,0,0,0,0,0,0,0,0,0,-1,1000,722,0,0
-217,302,0,0,0,0,0,0,0,0,0,-1,1007,722,0,0
-210,302,0,0,0,0,0,0,0,0,0,-1,1014,722,0,0
-203,302,0,0,0,0,0,0,0,0,0,-1,1021,722,0,0
-196,302,0,0,0,0,0,0,0,0,0,-1,1028,722,0,0
-189,302,0,0,0,0,0,0,0,0,0,-1,1035,722,0,0
-182,302,0,0,0,0,0,0,0,0,0,-1,1042,722,0,0
-175,302,0,0,0,0,0,0,0,0,0,-1,1049,722,0,0
-168,302,0,0,0,0,0,0,0,0,0,-1,1056,722,0,0
-161,302,0,0,0,0,0,0,0,0,0,-1,1063,722,0,0
-154,302,0,0,0,0,0,0,0,0,0,-1,1070,722,0,0
-147,302,0,0,0,0,0,0,0,0,0,-1,1077,722,0,0
-140,302,0,0,0,0,0,0,0,0,0,-1,1084,722,0,0
-133,302,0,0,0,0,0,0,0,0,0,-1,1091,722,0,0
-126,302,0,0,0,0,0,0,0,0,0,-1,1098,722,0,0
-119,302,0,0,0,0,0,0,0,0,0,-1,1105,722,0,0
-112,302,0,0,0,0,0,0,0,0,0,-1,1112,722,0,0
-105,302,0,0,0,0,0,0,0,0,0,-1,1119,722,0,0
-98,302,0,0,0,0,0,0,0,0,0,-1,1126,722,0,0
-91,302,0,0,0,0,0,0,0,0,0,-1,1133,722,0,0
-84,302,0,0,0,0,0,0,0,0,0,-1,1140,722,0,0
-77,302,0,0,0,0,0,0,0,0,0,-1,1147,722,0,0
-70,302,0,0,0,0,0,0,0,0,0,-1,1154,722,0,0
-63,302,0,0,0,0,0,0,0,0,0,-1,1161,722,0,0
-56,302,0,0,0,0,0,0,0,0,0,-1,1168,722,0,0
-49,302,0,0,0,0,0,0,0,0,0,-1,1175,722,0,0
-42,302,0,0,0,0,0,0,0,0,0,-1,1182,722,0,0
-35,302,0,0,0,0,0,0,0,0,0,-1,1189,722,0,0
-28,302,0,0,0,0,0,0,0,0,0,-1,1196,722,0,0
-21,302,0,0,0,0,0,0,0,0,0,-1,1203,722,0,0
-14,302,0,0,0,0,0,0,0,0,0,-1,1210,722,0,0
-7,302,0,0,0,0,0,0,0,0,0,-1,1217,722,0,0
0,302,0,0,0,0,0,0,0,0,0,-1,1224,722,0,0
7,302,0,0,0,0,0,0,0,0,0,-1,1231,722,0,0
14,302,0,0,0,0,0,0,0,0,0,-1,1238,722,0,0
21,302,0,0,0,0,0,0,0,0,0,-1,1245,722,0,0
28,302,0,0,0,0,0,0,0,0,0,-1,1252,722,0,0
35,302,0,0,0,0,0,0,0,0,0,-1,1259,722,0,0
42,302,0,0,0,0,0,0,0,0,0,-1,1266,722,0,0
49,302,0,0,0,0,0,0,0,0,0,-1,1273,722,0,0
56,302,0,0,0,0,0,0,0,0,0,-1,1280,722,0,0
63,302,0,0,0,0,0,0,0,0,0,-1,1287,722,0,0
70,302,0,0,0,0,0,0,0,0,0,-1,1294,722,0,0
77,302,0,0,0,0,0,0,0,0,0,-1,1301,722,0,0
84,302,0,0,0,0,0,0,0,0,0,-1,1308,722,0,0
91,302,0,0,0,0,0,0,0,0,0,-1,1315,722,0,0
98,302,0,0,0,0,0,0,0,0,0,-1,1322,722,0,0
105,302,0,0,0,0,0,0,0,0,0,-1,1329,722,0,0
112,302,0,0,0,0,0,0,0,0,0,-1,1336,722,0,0
119,302,0,0,0,0,0,0,0,0,0,-1,1343,722,0,0
126,302,0,0,0,0,0,0,0,0,0,-1,1350,722,0,0
133,302,0,0,0,0,0,0,0,0,0,-1,1357,722,0,0
140,302,0,0,0,0,0,0,0,0,0,-1,1364,722,0,0
147,302,0,0,0,0,0,0,0,0,0,-1,1371,722,0,0
154,302,0,0,0,0,0,0,0,0,0,-1,1378,722,0,0
161,302,0,0,0,0,0,0,0,0,0,-1,1385,722,0,0
168,302,0,0,0,0,0,0,0,0,0,-1,1392,722,0,0
175,302,0,0,0,0,0,0,0,0,0,-1,1399,722,0,0
182,302,0,0,0,0,0,0,0,0,0,-1,1406,722,0,0
189,302,0,0,0,0,0,0,0,0,0,-1,1413,722,0,0
196,302,0,0,0,0,0,0,0,0,0,-1,1420,722,0,0
203,302,0,0,0,0,0,0,0,0,0,-1,1427,722,0,0
210,302,0,0,0,0,0,0,0,0,0,-1,1434,722,0,0
217,302,0,0,0,0,0,0,0,0,0,-1,1441,722,0,0
224,302,0,0,0,0,0,0,0,0,0,-1,1448,722,0,0
231,302,0,0,0,0,0,0,0,0,0,-1,1455,722,0,0
238,302,0,0,0,0,0,0,0,0,0,-1,1462,722,0,0
245,302,0,0,0,0,0,0,0,0,0,-1,1469,722,0,0
252,302,0,0,0,0,0,0,0,0,0,-1,1476,722,0,0
259,302,0,0,0,0,0,0,0,0,0,-1,1483,722,0,0
266,302,0,0,0,0,0,0,0,0,0,-1,1490,722,0,0
273,302,0,0,0,0,0,0,0,0,0,-1,1497,722,0,0
280,302,0,0,0,0,0,0,0,0,0,-1,1504,722,0,0
287,302,0,0,0,0,0,0,0,0,0,-1,1511,722,0,0
294,302,0,0,0,0,0,0,0,0,0,-1,1518,722,0,0
301,302,0,0,0,0,0,0,0,0,0,-1,1525,722,0,0
308,302,0,0,0,0,0,0,0,0,0,-1,1532,722,0,0
315,302,0,0,0,0,0,0,0,0,0,-1,1539,722,0,0
322,302,0,0,0,0,0,0,0,0,0,-1,1546,722,0,0
329,302,0,0,0,0,0,0,0,0,0,-1,1553,722,0,0
336,302,0,0,0,0,0,0,0,0,0,-1,1560,722,0,0
343,302,0,0,0,0,0,0,0,0,0,-1,1567,722,0,0
350,302,0,0,0,0,0,0,0,0,0,-1,1574,722,0,0
357,302,0,0,0,0,0,0,0,0,0,-1,1581,722,0,0
364,302,0,0,0,0,0,0,0,0,0,-1,1588,722,0,0
371,302,0,0,0,0,0,0,0,0,0,-1,1595,722,0,0
378,302,0,0,0,0,0,0,0,0,0,-1,1602,722,0,0
385,302,0,0,0,0,0,0,0,0,0,-1,1609,722,0,0
392,302,0,0,0,0,0,0,0,0,0,-1,1616,722,0,0
399,302,0,0,0,0,0,0,0,0,0,-1,1623,722,0,0
406,302,0,0,0,0,0,0,0,0,0,-1,1630,722,0,0
413,302,0,0,0,0,0,0,0,0,0,-1,1637,722,0,0
420,302,0,0,0,0,0,0,0,0,0,-1,1644,722,0,0
427,302,0,0,0,0,0,0,0,0,0,-1,1651,722,0,0
434,302,0,0,0,0,0,0,0,0,0,-1,1658,722,0,0
441,302,0,0,0,0,0,0,0,0,0,-1,1665,722,0,0
448,302,0,0,0,0,0,0,0,0,0,-1,1672,722,0,0
455,302,0,0,0,0,0,0,0,0,0,-1,1679,722,0,0
462,302,0,0,0,0,0,0,0,0,0,-1,1686,722,0,0
469,302,0,0,0,0,0,0,0,0,0,-1,1693,722,0,0
476,302,0,0,0,0,0,0,0,0,0,-1,1700,722,0,0
483,302,0,0,0,0,0,0,0,0,0,-1,1707,722,0,0
490,302,0,0,0,0,0,0,0,0,0,-1,1714,722,0,0
497,302,0,0,0,0,0,0,0,0,0,-1,1721,722,0,0
504,302,0,0,0,0,0,0,0,0,0,-1,1728,722,0,0
511,302,0,0,0,0,0,0,0,0,0,-1,1735,722,0,0
518,302,0,0,0,0,0,0,0,0,0,-1,1742,722,0,0
525,302,0,0,0,0,0,0,0,0,0,-1,1749,722,0,0
532,302,0,0,0,0,0,0,0,0,0,-1,1756,722,0,0
539,302,0,0,0,0,0,0,0,0,0,-1,1763,722,0,0
546,302,48.9873,1.50562,0,0,0,0,0,0,0,-1,1770,722,48.9873,-1.50562
553,302,56.7844,3.46533,0,0,0,0,0,0,0,-1,1777,722,56.7844,-3.4653
560,302,56.7115,3.84808,0,0,0,0,0,0,0,-1,1784,722,56.7116,-3.84806
567,302,55.9475,4.24542,0,0,0,0,0,0,0,-1,1791,722,55.9475,-4.24542
574,302,45.9537,6.00867,0,0,0,0,0,0,0,-1,1798,722,45.9537,-6.00864
581,302,45.137,7.38043,0,0,0,0,0,0,0,-1,1805,722,45.1369,-7.38044
588,302,26.9731,7.19983,0,0,0,0,0,0,0,-1,1812,722,26.9732,-7.19981
595,302,27.3826,8.13104,0,0,0,0,0,0,0,-1,1819,722,27.3825,-8.13102
602,302,14.7349,5.21246,0,0,0,0,0,0,0,-1,1826,722,14.7349,-5.21247
609,302,31.1039,-6.34253,0,0,0,0,0,0,0,-1,1833,722,31.1039,6.34254
616,302,40.2325,-9.13538,0,0,0,0,0,0,0,-1,1840,722,40.2326,9.1354
623,302,40.1331,-8.27618,0.00293413,6.89623e-05,0.00198888,0.00395265,-0.000949559,0.473288,0.0030021,0.0150289,1847,722,40.1331,8.2762
630,302,40.066,-7.43579,0.00228801,-6.98403e-05,0.00150835,0.0030235,-0.000805329,0.453688,0.00233095,0.0118584,1854,722,40.066,7.4358
637,302,39.9817,-6.59857,0.00178304,-1.08372e-06,0.00119304,0.00238065,-0.000598692,0.464377,0.00181979,0.0158874,1861,722,39.9817,6.59857
644,302,39.9531,-5.75989,0.00148019,0.000210447,0.00100911,0.00203753,-0.000346887,0.504611,0.00148753,0.0169609,1868,722,39.9531,5.75991
651,302,39.9288,-4.91541,0.00133146,0.000612979,0.00100578,0.00204023,-9.57875e-05,0.613871,0.00139318,0.0150082,1875,722,39.9289,4.91541
658,302,39.8915,-4.08966,0.0012902,0.00115996,0.00104859,0.00227568,0.000174468,0.754386,0.00146244,0.0161371,1882,722,39.8914,4.08968
665,302,39.8643,-3.24414,0.00140954,0.00187152,0.00121176,0.00287411,0.000406943,0.879579,0.00179586,0.0164478,1889,722,39.8642,3.24417
672,302,39.8181,-2.4223,0.00164685,0.00272169,0.00146691,0.00374653,0.000622014,0.960985,0.00231833,0.0126298,1896,722,39.8182,2.42228
679,302,39.7467,-1.57538,0.00202497,0.00381017,0.00184886,0.00497062,0.000864516,1.01029,0.00306647,0.0102201,1903,722,39.7467,1.57538
686,302,39.7323,-0.685852,0.00256118,0.00501652,0.0023852,0.00647146,0.00110624,1.02307,0.00399692,0.0252085,1910,722,39.7323,0.68584
693,302,39.6678,0.210266,0,0,0,0,0,0,0,-1,1917,722,39.6678,-0.210268
700,302,25.4069,1.97308,0,0,0,0,0,0,0,-1,1924,722,25.4068,-1.97311
707,302,16.7321,4.76685,0,0,0,0,0,0,0,-1,1931,722,16.7321,-4.76687
714,302,17.2,5.77594,0,0,0,0,0,0,0,-1,1938,722,17.2,-5.77595
721,302,17.7914,6.60394,0,0,0,0,0,0,0,-1,1945,722,17.7914,-6.60395
728,302,17.2798,4.81702,0,0,0,0,0,0,0,-1,1952,722,17.2798,-4.81703
735,302,0,0,0,0,0,0,0,0,0,-1,1959,722,0,0
742,302,0,0,0,0,0,0,0,0,0,-1,1966,722,0,0
749,302,0,0,0,0,0,0,0,0,0,-1,1973,722,0,0
756,302,0,0,0,0,0,0,0,0,0,-1,1980,722,0,0
763,302,0,0,0,0,0,0,0,0,0,-1,1987,722,0,0
770,302,0,0,0,0,0,0,0,0,0,-1,1994,722,0,0
777,302,0,0,0,0,0,0,0,0,0,-1,2001,722,0,0
784,302,0,0,0,0,0,0,0,0,0,-1,2008,722,0,0
791,302,0,0,0,0,0,0,0,0,0,-1,2015,722,0,0
798,302,0,0,0,0,0,0,0,0,0,-1,2022,722,0,0
805,302,0,0,0,0,0,0,0,0,0,-1,2029,722,0,0
812,302,0,0,0,0,0,0,0,0,0,-1,2036,722,0,0
-700,295,0,0,0,0,0,0,0,0,0,-1,524,729,0,0
-693,295,0,0,0,0,0,0,0,0,0,-1,531,729,0,0
-686,295,0,0,0,0,0,0,0,0,0,-1,538,729,0,0
-679,295,0,0,0,0,0,0,0,0,0,-1,545,729,0,0
-672,295,0,0,0,0,0,0,0,0,0,-1,552,729,0,0
-665,295,0,0,0,0,0,0,0,0,0,-1,559,729,0,0
-658,295,0,0,0,0,0,0,0,0,0,-1,566,729,0,0
-651,295,0,0,0,0,0,0,0,0,0,-1,573,729,0,0
-644,295,0,0,0,0,0,0,0,0,0,-1,580,729,0,0
-637,295,0,0,0,0,0,0,0,0,0,-1,587,729,0,0
-630,295,0,0,0,0,0,0,0,0,0,-1,594,729,0,0
-623,295,0,0,0,0,0,0,0,0,0,-1,601,729,0,0
-616,295,-13.4911,1.31738,0,0,0,0,0,0,0,-1,608,729,-13.4911,-1.3174
-609,295,-10.2864,0.832031,0,0,0,0,0,0,0,-1,615,729,-10.2863,-0.832034
-602,295,-8.19006,3.01587,0,0,0,0,0,0,0,-1,622,729,-8.19005,-3.01588
-595,295,-0.615479,-1.95447,0,0,0,0,0,0,0,-1,629,729,-0.615481,1.95445
-588,295,-7.98999,1.56903,0,0,0,0,0,0,0,-1,636,729,-7.98997,-1.56905
-581,295,-12.0404,0.150574,0,0,0,0,0,0,0,-1,643,729,-12.0404,-0.150604
-574,295,-12.1605,-0.0739746,0,0,0,0,0,0,0,-1,650,729,-12.1605,0.0739856
-567,295,-26.2834,-1.11926,0,0,0,0,0,0,0,-1,657,729,-26.2835,1.11924
-560,295,-26.7064,-1.97241,0.00301998,0.00414454,-0.000158026,0.00416632,0.0029982,-1.43381,0.00248157,0.0373097,664,729,-26.7064,1.97242
-553,295,-26.6923,-2.82562,0.00283691,0.00327208,-0.000321233,0.00344249,0.00266651,-1.08308,0.00208503,0.0204487,671,729,-26.6923,2.8256
-546,295,-26.8095,-3.59857,0.00227871,0.00228008,-0.000233848,0.00251324,0.00204555,-0.786865,0.0015434,0.021646,678,729,-26.8095,3.59859
-539,295,-26.8819,-4.35675,0.00158637,0.00136173,-3.76183e-05,0.0015925,0.0013556,-0.161588,0.000992173,0.0194654,685,729,-26.8819,4.35673
-532,295,-26.9406,-5.1662,0.000751345,0.000182827,0.000356528,0.000923063,1.11087e-05,0.448853,0.000611706,0.0160094,692,729,-26.9406,5.16622
-525,295,-26.9669,-6.01855,-0.000140779,-0.000956746,0.00081146,0.000359487,-0.00145701,0.552465,0.00111073,0.0150923,699,729,-26.9668,6.01855
-518,295,-26.9572,-6.83594,-0.00110441,-0.00205137,0.0013653,-0.000132826,-0.00302296,0.618489,0.00197252,0.0119092,706,729,-26.9572,6.83593
-511,295,-27.0009,-7.63586,-0.00222344,-0.0032523,0.00204902,-0.000625264,-0.00485048,0.662408,0.00304669,0.0108618,713,729,-27.0009,7.63589
-504,295,-27.0655,-8.43054,-0.00344308,-0.00457998,0.00284254,-0.00111271,-0.00691035,0.68671,0.00428443,0.0120936,720,729,-27.0655,8.43057
-497,295,-27.1797,-9.15485,-0.00460117,-0.00591777,0.00365953,-0.0015412,-0.00897773,0.696406,0.0055433,0.0234732,727,729,-27.1797,9.15487
-490,295,-27.2966,-9.86005,0,0,0,0,0,0,0,-1,734,729,-27.2966,9.86007
-483,295,-6.84503,-0.454651,0,0,0,0,0,0,0,-1,741,729,-6.84505,0.454639
-476,295,-13.1738,-0.836243,0,0,0,0,0,0,0,-1,748,729,-13.1738,0.836223
-469,295,-26.5608,-0.466187,0,0,0,0,0,0,0,-1,755,729,-26.5608,0.466162
-462,295,-29.7701,-0.792664,0,0,0,0,0,0,0,-1,762,729,-29.7701,0.792642
-455,295,-45.11,-2.79272,0,0,0,0,0,0,0,-1,769,729,-45.11,2.79272
-448,295,-48.0288,1.41229,0,0,0,0,0,0,0,-1,776,729,-48.0288,-1.41227
-441,295,-47.1089,1.03058,0,0,0,0,0,0,0,-1,783,729,-47.109,-1.0306
-434,295,-46.2319,1.10614,0,0,0,0,0,0,0,-1,790,729,-46.2319,-1.10612
-427,295,0,0,0,0,0,0,0,0,0,-1,797,729,0,0
-420,295,0,0,0,0,0,0,0,0,0,-1,804,729,0,0
-413,295,0,0,0,0,0,0,0,0,0,-1,811,729,0,0
-406,295,0,0,0,0,0,0,0,0,0,-1,818,729,0,0
-399,295,0,0,0,0,0,0,0,0,0,-1,825,729,0,0
-392,295,0,0,0,0,0,0,0,0,0,-1,832,729,0,0
-385,295,0,0,0,0,0,0,0,0,0,-1,839,729,0,0
-378,295,0,0,0,0,0,0,0,0,0,-1,846,729,0,0
-371,295,0,0,0,0,0,0,0,0,0,-1,853,729,0,0
-364,295,0,0,0,0,0,0,0,0,0,-1,860,729,0,0
-357,295,0,0,0,0,0,0,0,0,0,-1,867,729,0,0
-350,295,0,0,0,0,0,0,0,0,0,-1,874,729,0,0
-343,295,0,0,0,0,0,0,0,0,0,-1,881,729,0,0
-336,295,0,0,0,0,0,0,0,0,0,-1,888,729,0,0
-329,295,0,0,0,0,0,0,0,0,0,-1,895,729,0,0
-322,295,0,0,0,0,0,0,0,0,0,-1,902,729,0,0
-315,295,0,0,0,0,0,0,0,0,0,-1,909,729,0,0
-308,295,0,0,0,0,0,0,0,0,0,-1,916,729,0,0
-301,295,0,0,0,0,0,0,0,0,0,-1,923,729,0,0
-294,295,0,0,0,0,0,0,0,0,0,-1,930,729,0,0
-287,295,0,0,0,0,0,0,0,0,0,-1,937,729,0,0
-280,295,0,0,0,0,0,0,0,0,0,-1,944,729,0,0
-273,295,0,0,0,0,0,0,0,0,0,-1,951,729,0,0
-266,295,0,0,0,0,0,0,0,0,0,-1,958,729,0,0
-259,295,0,0,0,0,0,0,0,0,0,-1,965,729,0,0
-252,295,0,0,0,0,0,0,0,0,0,-1,972,729,0,0
-245,295,0,0,0,0,0,0,0,0,0,-1,979,729,0,0
-238,295,0,0,0,0,0,0,0,0,0,-1,986,729,0,0
-231,295,0,0,0,0,0,0,0,0,0,-1,993,729,0,0
-224,295,0,0,0,0,0,0,0,0,0,-1,1000,729,0,0
-217,295,0,0,0,0,0,0,0,0,0,-1,1007,729,0,0
-210,295,0,0,0,0,0,0,0,0,0,-1,1014,729,0,0
-203,295,0,0,0,0,0,0,0,0,0,-1,1021,729,0,0
-196,295,0,0,0,0,0,0,0,0,0,-1,1028,729,0,0
-189,295,0,0,0,0,0,0,0,0,0,-1,1035,729,0,0
-182,295,0,0,0,0,0,0,0,0,0,-1,1042,729,0,0
-175,295,0,0,0,0,0,0,0,0,0,-1,1049,729,0,0
-168,295,0,0,0,0,0,0,0,0,0,-1,1056,729,0,0
-161,295,0,0,0,0,0,0,0,0,0,-1,1063,729,0,0
-154,295,0,0,0,0,0,0,0,0,0,-1,1070,729,0,0
-147,295,0,0,0,0,0,0,0,0,0,-1,1077,729,0,0
-140,295,0,0,0,0,0,0,0,0,0,-1,1084,729,0,0
-133,295,0,0,0,0,0,0,0,0,0,-1,1091,729,0,0
-126,295,0,0,0,0,0,0,0,0,0,-1,1098,729,0,0
-119,295,0,0,0,0,0,0,0,0,0,-1,1105,729,0,0
-112,295,0,0,0,0,0,0,0,0,0,-1,1112,729,0,0
-105,295,0,0,0,0,0,0,0,0,0,-1,1119,729,0,0
-98,295,0,0,0,0,0,0,0,0,0,-1,1126,729,0,0
-91,295,0,0,0,0,0,0,0,0,0,-1,1133,729,0,0
-84,295,0,0,0,0,0,0,0,0,0,-1,1140,729,0,0
-77,295,0,0,0,0,0,0,0,0,0,-1,1147,729,0,0
-70,295,0,0,0,0,0,0,0,0,0,-1,1154,729,0,0
-63,295,0,0,0,0,0,0,0,0,0,-1,1161,729,0,0
-56,295,0,0,0,0,0,0,0,0,0,-1,1168,729,0,0
-49,295,0,0,0,0,0,0,0,0,0,-1,1175,729,0,0
-42,295,0,0,0,0,0,0,0,0,0,-1,1182,729,0,0
-35,295,0,0,0,0,0,0,0,0,0,-1,1189,729,0,0
-28,295,0,0,0,0,0,0,0,0,0,-1,1196,729,0,0
-21,295,0,0,0,0,0,0,0,0,0,-1,1203,729,0,0
-14,295,0,0,0,0,0,0,0,0,0,-1,1210,729,0,0
-7,295,0,0,0,0,0,0,0,0,0,-1,1217,729,0,0
0,295,0,0,0,0,0,0,0,0,0,-1,1224,729,0,0
7,295,0,0,0,0,0,0,0,0,0,-1,1231,729,0,0
14,295,0,0,0,0,0,0,0,0,0,-1,1238,729,0,0
21,295,0,0,0,0,0,0,0,0,0,-1,1245,729,0,0
28,295,0,0,0,0,0,0,0,0,0,-1,1252,729,0,0
35,295,0,0,0,0,0,0,0,0,0,-1,1259,729,0,0
42,295,0,0,0,0,0,0,0,0,0,-1,1266,729,0,0
49,295,0,0,0,0,0,0,0,0,0,-1,1273,729,0,0
56,295,0,0,0,0,0,0,0,0,0,-1,1280,729,0,0
63,295,0,0,0,0,0,0,0,0,0,-1,1287,729,0,0
70,295,0,0,0,0,0,0,0,0,0,-1,1294,729,0,0
77,295,0,0,0,0,0,0,0,0,0,-1,1301,729,0,0
84,295,0,0,0,0,0,0,0,0,0,-1,1308,729,0,0
91,295,0,0,0,0,0,0,0,0,0,-1,1315,729,0,0
98,295,0,0,0,0,0,0,0,0,0,-1,1322,729,0,0
105,295,0,0,0,0,0,0,0,0,0,-1,1329,729,0,0
112,295,0,0,0,0,0,0,0,0,0,-1,1336,729,0,0
119,295,0,0,0,0,0,0,0,0,0,-1,1343,729,0,0
126,295,0,0,0,0,0,0,0,0,0,-1,1350,729,0,0
133,295,0,0,0,0,0,0,0,0,0,-1,1357,729,0,0
140,295,0,0,0,0,0,0,0,0,0,-1,1364,729,0,0
147,295,0,0,0,0,0,0,0,0,0,-1,1371,729,0,0
154,295,0,0,0,0,0,0,0,0,0,-1,1378,729,0,0
161,295,0,0,0,0,0,0,0,0,0,-1,1385,729,0,0
168,295,0,0,0,0,0,0,0,0,0,-1,1392,729,0,0
175,295,0,0,0,0,0,0,0,0,0,-1,1399,729,0,0
182,295,0,0,0,0,0,0,0,0,0,-1,1406,729,0,0
189,295,0,0,0,0,0,0,0,0,0,-1,1413,729,0,0
196,295,0,0,0,0,0,0,0,0,0,-1,1420,729,0,0
203,295,0,0,0,0,0,0,0,0,0,-1,1427,729,0,0
210,295,0,0,0,0,0,0,0,0,0,-1,1434,729,0,0
217,295,0,0,0,0,0,0,0,0,0,-1,1441,729,0,0
224,295,0,0,0,0,0,0,0,0,0,-1,1448,729,0,0
231,295,0,0,0,0,0,0,0,0,0,-1,1455,729,0,0
238,295,0,0,0,0,0,0,0,0,0,-1,1462,729,0,0
245,295,0,0,0,0,0,0,0,0,0,-1,1469,729,0,0
252,295,0,0,0,0,0,0,0,0,0,-1,1476,729,0,0
259,295,0,0,0,0,0,0,0,0,0,-1,1483,729,0,0
266,295,0,0,0,0,0,0,0,0,0,-1,1490,729,0,0
273,295,0,0,0,0,0,0,0,0,0,-1,1497,729,0,0
280,295,0,0,0,0,0,0,0,0,0,-1,1504,729,0,0
287,295,0,0,0,0,0,0,0,0,0,-1,1511,729,0,0
294,295,0,0,0,0,0,0,0,0,0,-1,1518,729,0,0
301,295,0,0,0,0,0,0,0,0,0,-1,1525,729,0,0
308,295,0,0,0,0,0,0,0,0,0,-1,1532,729,0,0
315,295,0,0,0,0,0,0,0,0,0,-1,1539,729,0,0
322,295,0,0,0,0,0,0,0,0,0,-1,1546,729,0,0
329,295,0,0,0,0,0,0,0,0,0,-1,1553,729,0,0
336,295,0,0,0,0,0,0,0,0,0,-1,1560,729,0,0
343,295,0,0,0,0,0,0,0,0,0,-1,1567,729,0,0
350,295,0,0,0,0,0,0,0,0,0,-1,1574,729,0,0
357,295,0,0,0,0,0,0,0,0,0,-1,1581,729,0,0
364,295,0,0,0,0,0,0,0,0,0,-1,1588,729,0,0
371,295,0,0,0,0,0,0,0,0,0,-1,1595,729,0,0
378,295,0,0,0,0,0,0,0,0,0,-1,1602,729,0,0
385,295,0,0,0,0,0,0,0,0,0,-1,1609,729,0,0
392,295,0,0,0,0,0,0,0,0,0,-1,1616,729,0,0
399,295,0,0,0,0,0,0,0,0,0,-1,1623,729,0,0
406,295,0,0,0,0,0,0,0,0,0,-1,1630,729,0,0
413,295,0,0,0,0,0,0,0,0,0,-1,1637,729,0,0
420,295,0,0,0,0,0,0,0,0,0,-1,1644,729,0,0
427,295,0,0,0,0,0,0,0,0,0,-1,1651,729,0,0
434,295,0,0,0,0,0,0,0,0,0,-1,1658,729,0,0
441,295,0,0,0,0,0,0,0,0,0,-1,1665,729,0,0
448,295,0,0,0,0,0,0,0,0,0,-1,1672,729,0,0
455,295,0,0,0,0,0,0,0,0,0,-1,1679,729,0,0
462,295,0,0,0,0,0,0,0,0,0,-1,1686,729,0,0
469,295,0,0,0,0,0,0,0,0,0,-1,1693,729,0,0
476,295,0,0,0,0,0,0,0,0,0,-1,1700,729,0,0
483,295,0,0,0,0,0,0,0,0,0,-1,1707,729,0,0
490,295,0,0,0,0,0,0,0,0,0,-1,1714,729,0,0
497,295,0,0,0,0,0,0,0,0,0,-1,1721,729,0,0
504,295,0,0,0,0,0,0,0,0,0,-1,1728,729,0,0
511,295,0,0,0,0,0,0,0,0,0,-1,1735,729,0,0
518,295,0,0,0,0,0,0,0,0,0,-1,1742,729,0,0
525,295,0,0,0,0,0,0,0,0,0,-1,1749,729,0,0
532,295,0,0,0,0,0,0,0,0,0,-1,1756,729,0,0
539,295,0,0,0,0,0,0,0,0,0,-1,1763,729,0,0
546,295,57.4674,2.36884,0,0,0,0,0,0,0,-1,1770,729,57.4674,-2.36883
553,295,57.1969,2.73846,0,0,0,0,0,0,0,-1,1777,729,57.197,-2.73843
560,295,57.0291,3.27454,0,0,0,0,0,0,0,-1,1784,729,57.029,-3.27454
567,295,56.6243,3.88239,0,0,0,0,0,0,0,-1,1791,729,56.6242,-3.8824
574,295,56.5275,4.755,0,0,0,0,0,0,0,-1,1798,729,56.5274,-4.75501
581,295,37.8191,2.19592,0,0,0,0,0,0,0,-1,1805,729,37.8191,-2.19594
588,295,39.0542,2.45679,0,0,0,0,0,0,0,-1,1812,729,39.0542,-2.45676
595,295,27.2102,6.99121,0,0,0,0,0,0,0,-1,1819,729,27.2103,-6.99121
602,295,26.9065,7.82141,0,0,0,0,0,0,0,-1,1826,729,26.9064,-7.8214
609,295,11.7737,2.19989,0,0,0,0,0,0,0,-1,1833,729,11.7736,-2.19988
616,295,40.9568,-9.15338,0,0,0,0,0,0,0,-1,1840,729,40.9568,9.15337
623,295,40.9403,-8.27838,0.00366816,-0.000324095,0.00351237,0.00571199,-0.00236792,0.527001,0.00479627,0.0413939,1847,729,40.9403,8.27837
630,295,40.9128,-7.38684,0.00283457,-0.0002997,0.00246149,0.00418546,-0.00165059,0.501928,0.00347377,0.0140213,1854,729,40.9128,7.38681
637,295,40.8345,-6.53632,0.00221605,-0.000135014,0.00170192,0.00310895,-0.00102791,0.483166,0.00248711,0.0154596,1861,729,40.8344,6.53634
644,295,40.7993,-5.7027,0.00171342,2.00606e-05,0.00114806,0.00229324,-0.000559759,0.467675,0.00174559,0.0145076,1868,729,40.7993,5.70273
651,295,40.7584,-4.86273,0.00142471,0.000377739,0.000966057,0.00199999,-0.00019755,0.537106,0.00140382,0.0139827,1875,729,40.7585,4.86274
658,295,40.7058,-4.05328,0.00134763,0.000889811,0.000943905,0.00208998,0.000147454,0.666439,0.00134686,0.0136861,1882,729,40.7058,4.0533
665,295,40.6686,-3.24622,0.00140868,0.00156932,0.00105172,0.00254379,0.000434213,0.823511,0.00157125,0.0130222,1889,729,40.6686,3.2462
672,295,40.6251,-2.4115,0.00157254,0.00236799,0.00127784,0.00330857,0.000631954,0.936269,0.00202815,0.0148467,1896,729,40.6251,2.41148
679,295,40.5677,-1.56311,0.00185353,0.00337392,0.0016147,0.00439842,0.000829021,1.0054,0.00269872,0.0114868,1903,729,40.5678,1.56312
686,295,40.5685,-0.72522,0.00225609,0.00451816,0.00210208,0.00577417,0.00100008,1.03221,0.00356318,0.0127572,1910,729,40.5685,0.725234
693,295,40.5869,0.109619,0,0,0,0,0,0,0,-1,1917,729,40.5869,-0.109638
700,295,31.3757,2.06982,0,0,0,0,0,0,0,-1,1924,729,31.3758,-2.0698
707,295,22.2661,3.05206,0,0,0,0,0,0,0,-1,1931,729,22.2662,-3.05207
714,295,17.4906,4.63068,0,0,0,0,0,0,0,-1,1938,729,17.4906,-4.63066
721,295,18.3792,5.32281,0,0,0,0,0,0,0,-1,1945,729,18.3791,-5.32283
728,295,17.379,3.74866,0,0,0,0,0,0,0,-1,1952,729,17.379,-3.74863
735,295,0,0,0,0,0,0,0,0,0,-1,1959,729,0,0
742,295,0,0,0,0,0,0,0,0,0,-1,1966,729,0,0
749,295,0,0,0,0,0,0,0,0,0,-1,1973,729,0,0
756,295,0,0,0,0,0,0,0,0,0,-1,1980,729,0,0
763,295,0,0,0,0,0,0,0,0,0,-1,1987,729,0,0
770,295,0,0,0,0,0,0,0,0,0,-1,1994,729,0,0
777,295,0,0,0,0,0,0,0,0,0,-1,2001,729,0,0
784,295,0,0,0,0,0,0,0,0,0,-1,2008,729,0,0
791,295,0,0,0,0,0,0,0,0,0,-1,2015,729,0,0
798,295,0,0,0,0,0,0,0,0,0,-1,2022,729,0,0
805,295,0,0,0,0,0,0,0,0,0,-1,2029,729,0,0
812,295,0,0,0,0,0,0,0,0,0,-1,2036,729,0,0
-700,288,0,0,0,0,0,0,0,0,0,-1,524,736,0,0
-693,288,0,0,0,0,0,0,0,0,0,-1,531,736,0,0
-686,288,0,0,0,0,0,0,0,0,0,-1,538,736,0,0
-679,288,0,0,0,0,0,0,0,0,0,-1,545,736,0,0
-672,288,0,0,0,0,0,0,0,0,0,-1,552,736,0,0
-665,288,0,0,0,0,0,0,0,0,0,-1,559,736,0,0
-658,288,0,0,0,0,0,0,0,0,0,-1,566,736,0,0
-651,288,0,0,0,0,0,0,0,0,0,-1,573,736,0,0
-644,288,0,0,0,0,0,0,0,0,0,-1,580,736,0,0
-637,288,0,0,0,0,0,0,0,0,0,-1,587,736,0,0
-630,288,0,0,0,0,0,0,0,0,0,-1,594,736,0,0
-623,288,0,0,0,0,0,0,0,0,0,-1,601,736,0,0
-616,288,-11.7584,2.4425,0,0,0,0,0,0,0,-1,608,736,-11.7584,-2.44251
-609,288,-10.3007,2.32178,0,0,0,0,0,0,0,-1,615,736,-10.3007,-2.32178
-602,288,-10.1458,-1.85559,0,0,0,0,0,0,0,-1,622,736,-10.1458,1.85556
-595,288,-7.63208,1.81769,0,0,0,0,0,0,0,-1,629,736,-7.63205,-1.81766
-588,288,-8.19269,1.50598,0,0,0,0,0,0,0,-1,636,736,-8.19268,-1.50601
-581,288,-13.1915,0.659241,0,0,0,0,0,0,0,-1,643,736,-13.1915,-0.659228
-574,288,-27.0489,-0.21582,0,0,0,0,0,0,0,-1,650,736,-27.0489,0.21582
-567,288,-27.2503,-1.10101,0.00267147,0.00493283,-0.000275819,0.00496598,0.00263831,-1.45116,0.00286898,0.0397651,657,736,-27.2503,1.10101
-560,288,-27.5381,-2.00946,0.00227897,0.00374285,-0.000304842,0.00380379,0.00221803,-1.37348,0.00220621,0.0183426,664,736,-27.5381,2.00946
-553,288,-27.5285,-2.76599,0.00196143,0.0028033,-0.000233685,0.00286382,0.00190092,-1.3174,0.00168273,0.0194007,671,736,-27.5285,2.76598
-546,288,-27.5944,-3.55359,0.00138292,0.00170284,3.15855e-05,0.00170592,0.00137983,1.47332,0.00104567,0.0207537,678,736,-27.5944,3.55357
-539,288,-27.6696,-4.33545,0.000692596,0.000714647,0.000351806,0.0010556,0.000351643,0.801063,0.000620663,0.0186022,685,736,-27.6695,4.33544
-532,288,-27.6806,-5.13751,-0.000129482,-0.000549072,0.000859728,0.000545679,-0.00122423,0.665725,0.00104659,0.0153452,692,736,-27.6806,5.13752
-525,288,-27.7378,-5.97058,-0.000987079,-0.0016553,0.0013572,7.65299e-05,-0.00271891,0.66471,0.00183864,0.0129146,699,736,-27.7378,5.97061
-518,288,-27.8033,-6.80157,-0.00185033,-0.00255197,0.0018602,-0.000308163,-0.00409414,0.692197,0.00263272,0.0122271,706,736,-27.8033,6.80158
-511,288,-27.8441,-7.58881,-0.0028705,-0.00336572,0.00241062,-0.000694805,-0.00554142,0.734219,0.00348583,0.0104448,713,736,-27.8441,7.58878
-504,288,-27.8961,-8.37225,-0.00384236,-0.00395621,0.00288998,-0.00100874,-0.00678983,0.77555,0.00423058,0.0124761,720,736,-27.8961,8.37225
-497,288,-27.9333,-8.95947,-0.00451557,-0.00400207,0.00313895,-0.00110939,-0.00740825,0.826205,0.00461371,0.0356834,727,736,-27.9333,8.95949
-490,288,-27.847,-9.47687,0,0,0,0,0,0,0,-1,734,736,-27.847,9.47689
-483,288,-17.3287,0.564758,0,0,0,0,0,0,0,-1,741,736,-17.3287,-0.56477
-476,288,-26.136,0.452148,0,0,0,0,0,0,0,-1,748,736,-26.136,-0.452177
-469,288,-27.7904,0.649841,0,0,0,0,0,0,0,-1,755,736,-27.7904,-0.649854
-462,288,-44.999,-2.65112,0,0,0,0,0,0,0,-1,762,736,-44.999,2.65111
-455,288,-49.1631,1.86432,0,0,0,0,0,0,0,-1,769,736,-49.1632,-1.8643
-448,288,-48.5654,1.58948,0,0,0,0,0,0,0,-1,776,736,-48.5654,-1.58949
-441,288,-47.7353,1.50165,0,0,0,0,0,0,0,-1,783,736,-47.7353,-1.50164
-434,288,-46.7119,1.66388,0,0,0,0,0,0,0,-1,790,736,-46.7119,-1.66385
-427,288,0,0,0,0,0,0,0,0,0,-1,797,736,0,0
-420,288,0,0,0,0,0,0,0,0,0,-1,804,736,0,0
-413,288,0,0,0,0,0,0,0,0,0,-1,811,736,0,0
-406,288,0,0,0,0,0,0,0,0,0,-1,818,736,0,0
-399,288,0,0,0,0,0,0,0,0,0,-1,825,736,0,0
-392,288,0,0,0,0,0,0,0,0,0,-1,832,736,0,0
-385,288,0,0,0,0,0,0,0,0,0,-1,839,736,0,0
-378,288,0,0,0,0,0,0,0,0,0,-1,846,736,0,0
-371,288,0,0,0,0,0,0,0,0,0,-1,853,736,0,0
-364,288,0,0,0,0,0,0,0,0,0,-1,860,736,0,0
-357,288,0,0,0,0,0,0,0,0,0,-1,867,736,0,0
-350,288,0,0,0,0,0,0,0,0,0,-1,874,736,0,0
-343,288,0,0,0,0,0,0,0,0,0,-1,881,736,0,0
-336,288,0,0,0,0,0,0,0,0,0,-1,888,736,0,0
-329,288,0,0,0,0,0,0,0,0,0,-1,895,736,0,0
-322,288,0,0,0,0,0,0,0,0,0,-1,902,736,0,0
-315,288,0,0,0,0,0,0,0,0,0,-1,909,736,0,0
-308,288,0,0,0,0,0,0,0,0,0,-1,916,736,0,0
-301,288,0,0,0,0,0,0,0,0,0,-1,923,736,0,0
-294,288,0,0,0,0,0,0,0,0,0,-1,930,736,0,0
-287,288,0,0,0,0,0,0,0,0,0,-1,937,736,0,0
-280,288,0,0,0,0,0,0,0,0,0,-1,944,736,0,0
-273,288,0,0,0,0,0,0,0,0,0,-1,951,736,0,0
-266,288,0,0,0,0,0,0,0,0,0,-1,958,736,0,0
-259,288,0,0,0,0,0,0,0,0,0,-1,965,736,0,0
-252,288,0,0,0,0,0,0,0,0,0,-1,972,736,0,0
-245,288,0,0,0,0,0,0,0,0,0,-1,979,736,0,0
-238,288,0,0,0,0,0,0,0,0,0,-1,986,736,0,0
-231,288,0,0,0,0,0,0,0,0,0,-1,993,736,0,0
-224,288,0,0,0,0,0,0,0,0,0,-1,1000,736,0,0
-217,288,0,0,0,0,0,0,0,0,0,-1,1007,736,0,0
-210,288,0,0,0,0,0,0,0,0,0,-1,1014,736,0,0
-203,288,0,0,0,0,0,0,0,0,0,-1,1021,736,0,0
-196,288,0,0,0,0,0,0,0,0,0,-1,1028,736,0,0
-189,288,0,0,0,0,0,0,0,0,0,-1,1035,736,0,0
-182,288,0,0,0,0,0,0,0,0,0,-1,1042,736,0,0
-175,288,0,0,0,0,0,0,0,0,0,-1,1049,736,0,0
-168,288,0,0,0,0,0,0,0,0,0,-1,1056,736,0,0
-161,288,0,0,0,0,0,0,0,0,0,-1,1063,736,0,0
-154,288,0,0,0,0,0,0,0,0,0,-1,1070,736,0,0
-147,288,0,0,0,0,0,0,0,0,0,-1,1077,736,0,0
-140,288,0,0,0,0,0,0,0,0,0,-1,1084,736,0,0
-133,288,0,0,0,0,0,0,0,0,0,-1,1091,736,0,0
-126,288,0,0,0,0,0,0,0,0,0,-1,1098,736,0,0
-119,288,0,0,0,0,0,0,0,0,0,-1,1105,736,0,0
-112,288,0,0,0,0,0,0,0,0,0,-1,1112,736,0,0
-105,288,0,0,0,0,0,0,0,0,0,-1,1119,736,0,0
-98,288,0,0,0,0,0,0,0,0,0,-1,1126,736,0,0
-91,288,0,0,0,0,0,0,0,0,0,-1,1133,736,0,0
-84,288,0,0,0,0,0,0,0,0,0,-1,1140,736,0,0
-77,288,0,0,0,0,0,0,0,0,0,-1,1147,736,0,0
-70,288,0,0,0,0,0,0,0,0,0,-1,1154,736,0,0
-63,288,0,0,0,0,0,0,0,0,0,-1,1161,736,0,0
-56,288,0,0,0,0,0,0,0,0,0,-1,1168,736,0,0
-49,288,0,0,0,0,0,0,0,0,0,-1,1175,736,0,0
-42,288,0,0,0,0,0,0,0,0,0,-1,1182,736,0,0
-35,288,0,0,0,0,0,0,0,0,0,-1,1189,736,0,0
-28,288,0,0,0,0,0,0,0,0,0,-1,1196,736,0,0
-21,288,0,0,0,0,0,0,0,0,0,-1,1203,736,0,0
-14,288,0,0,0,0,0,0,0,0,0,-1,1210,736,0,0
-7,288,0,0,0,0,0,0,0,0,0,-1,1217,736,0,0
0,288,0,0,0,0,0,0,0,0,0,-1,1224,736,0,0
7,288,0,0,0,0,0,0,0,0,0,-1,1231,736,0,0
14,288,0,0,0,0,0,0,0,0,0,-1,1238,736,0,0
21,288,0,0,0,0,0,0,0,0,0,-1,1245,736,0,0
28,288,0,0,0,0,0,0,0,0,0,-1,1252,736,0,0
35,288,0,0,0,0,0,0,0,0,0,-1,1259,736,0,0
42,288,0,0,0,0,0,0,0,0,0,-1,1266,736,0,0
49,288,0,0,0,0,0,0,0,0,0,-1,1273,736,0,0
56,288,0,0,0,0,0,0,0,0,0,-1,1280,736,0,0
63,288,0,0,0,0,0,0,0,0,0,-1,1287,736,0,0
70,288,0,0,0,0,0,0,0,0,0,-1,1294,736,0,0
77,288,0,0,0,0,0,0,0,0,0,-1,1301,736,0,0
84,288,0,0,0,0,0,0,0,0,0,-1,1308,736,0,0
91,288,0,0,0,0,0,0,0,0,0,-1,1315,736,0,0
98,288,0,0,0,0,0,0,0,0,0,-1,1322,736,0,0
105,288,0,0,0,0,0,0,0,0,0,-1,1329,736,0,0
112,288,0,0,0,0,0,0,0,0,0,-1,1336,736,0,0
119,288,0,0,0,0,0,0,0,0,0,-1,1343,736,0,0
126,288,0,0,0,0,0,0,0,0,0,-1,1350,736,0,0
133,288,0,0,0,0,0,0,0,0,0,-1,1357,736,0,0
140,288,0,0,0,0,0,0,0,0,0,-1,1364,736,0,0
147,288,0,0,0,0,0,0,0,0,0,-1,1371,736,0,0
154,288,0,0,0,0,0,0,0,0,0,-1,1378,736,0,0
161,288,0,0,0,0,0,0,0,0,0,-1,1385,736,0,0
168,288,0,0,0,0,0,0,0,0,0,-1,1392,736,0,0
175,288,0,0,0,0,0,0,0,0,0,-1,1399,736,0,0
182,288,0,0,0,0,0,0,0,0,0,-1,1406,736,0,0
189,288,0,0,0,0,0,0,0,0,0,-1,1413,736,0,0
196,288,0,0,0,0,0,0,0,0,0,-1,1420,736,0,0
203,288,0,0,0,0,0,0,0,0,0,-1,1427,736,0,0
210,288,0,0,0,0,0,0,0,0,0,-1,1434,736,0,0
217,288,0,0,0,0,0,0,0,0,0,-1,1441,736,0,0
224,288,0,0,0,0,0,0,0,0,0,-1,1448,736,0,0
231,288,0,0,0,0,0,0,0,0,0,-1,1455,736,0,0
238,288,0,0,0,0,0,0,0,0,0,-1,1462,736,0,0
245,288,0,0,0,0,0,0,0,0,0,-1,1469,736,0,0
252,288,0,0,0,0,0,0,0,0,0,-1,1476,736,0,0
259,288,0,0,0,0,0,0,0,0,0,-1,1483,736,0,0
266,288,0,0,0,0,0,0,0,0,0,-1,1490,736,0,0
273,288,0,0,0,0,0,0,0,0,0,-1,1497,736,0,0
280,288,0,0,0,0,0,0,0,0,0,-1,1504,736,0,0
287,288,0,0,0,0,0,0,0,0,0,-1,1511,736,0,0
294,288,0,0,0,0,0,0,0,0,0,-1,1518,736,0,0
301,288,0,0,0,0,0,0,0,0,0,-1,1525,736,0,0
308,288,0,0,0,0,0,0,0,0,0,-1,1532,736,0,0
315,288,0,0,0,0,0,0,0,0,0,-1,1539,736,0,0
322,288,0,0,0,0,0,0,0,0,0,-1,1546,736,0,0
329,288,0,0,0,0,0,0,0,0,0,-1,1553,736,0,0
336,288,0,0,0,0,0,0,0,0,0,-1,1560,736,0,0
343,288,0,0,0,0,0,0,0,0,0,-1,1567,736,0,0
350,288,0,0,0,0,0,0,0,0,0,-1,1574,736,0,0
357,288,0,0,0,0,0,0,0,0,0,-1,1581,736,0,0
364,288,0,0,0,0,0,0,0,0,0,-1,1588,736,0,0
371,288,0,0,0,0,0,0,0,0,0,-1,1595,736,0,0
378,288,0,0,0,0,0,0,0,0,0,-1,1602,736,0,0
385,288,0,0,0,0,0,0,0,0,0,-1,1609,736,0,0
392,288,0,0,0,0,0,0,0,0,0,-1,1616,736,0,0
399,288,0,0,0,0,0,0,0,0,0,-1,1623,736,0,0
406,288,0,0,0,0,0,0,0,0,0,-1,1630,736,0,0
413,288,0,0,0,0,0,0,0,0,0,-1,1637,736,0,0
420,288,0,0,0,0,0,0,0,0,0,-1,1644,736,0,0
427,288,0,0,0,0,0,0,0,0,0,-1,1651,736,0,0
434,288,0,0,0,0,0,0,0,0,0,-1,1658,736,0,0
441,288,0,0,0,0,0,0,0,0,0,-1,1665,736,0,0
448,288,0,0,0,0,0,0,0,0,0,-1,1672,736,0,0
455,288,0,0,0,0,0,0,0,0,0,-1,1679,736,0,0
462,288,0,0,0,0,0,0,0,0,0,-1,1686,736,0,0
469,288,0,0,0,0,0,0,0,0,0,-1,1693,736,0,0
476,288,0,0,0,0,0,0,0,0,0,-1,1700,736,0,0
483,288,0,0,0,0,0,0,0,0,0,-1,1707,736,0,0
490,288,0,0,0,0,0,0,0,0,0,-1,1714,736,0,0
497,288,0,0,0,0,0,0,0,0,0,-1,1721,736,0,0
504,288,0,0,0,0,0,0,0,0,0,-1,1728,736,0,0
511,288,0,0,0,0,0,0,0,0,0,-1,1735,736,0,0
518,288,0,0,0,0,0,0,0,0,0,-1,1742,736,0,0
525,288,0,0,0,0,0,0,0,0,0,-1,1749,736,0,0
532,288,0,0,0,0,0,0,0,0,0,-1,1756,736,0,0
539,288,0,0,0,0,0,0,0,0,0,-1,1763,736,0,0
546,288,0,0,0,0,0,0,0,0,0,-1,1770,736,0,0
553,288,57.4934,2.28064,0,0,0,0,0,0,0,-1,1777,736,57.4934,-2.28064
560,288,57.3807,3.02881,0,0,0,0,0,0,0,-1,1784,736,57.3808,-3.0288
567,288,57.2081,3.74274,0,0,0,0,0,0,0,-1,1791,736,57.2081,-3.74273
574,288,56.9817,4.36981,0,0,0,0,0,0,0,-1,1798,736,56.9816,-4.36984
581,288,53.4904,5.33215,0,0,0,0,0,0,0,-1,1805,736,53.4904,-5.33218
588,288,54.9313,3.29852,0,0,0,0,0,0,0,-1,1812,736,54.9313,-3.29849
595,288,47.035,3.35156,0,0,0,0,0,0,0,-1,1819,736,47.035,-3.35157
602,288,26.7634,7.61279,0,0,0,0,0,0,0,-1,1826,736,26.7635,-7.61279
609,288,17.5223,4.86414,0,0,0,0,0,0,0,-1,1833,736,17.5223,-4.86412
616,288,13.4886,0.801331,0,0,0,0,0,0,0,-1,1840,736,13.4886,-0.80132
623,288,41.6927,-8.12445,0,0,0,0,0,0,0,-1,1847,736,41.6927,8.12446
630,288,41.7031,-7.29395,0.00311982,-3.3436e-05,0.0033572,0.00525218,-0.00216579,0.565871,0.0044046,0.0317604,1854,736,41.7032,7.29393
637,288,41.6857,-6.47015,0.00263451,0.000161129,0.00225601,0.00397056,-0.00117492,0.534677,0.00311347,0.0121207,1861,736,41.6856,6.47014
644,288,41.6371,-5.64624,0.00197511,4.61301e-05,0.0013585,0.00267668,-0.000655447,0.476707,0.00203837,0.0109724,1868,736,41.6371,5.64624
651,288,41.5983,-4.82159,0.00151682,0.000161155,0.000961733,0.00201558,-0.000337612,0.478428,0.00146925,0.0125557,1875,736,41.5983,4.8216
658,288,41.5522,-3.97845,0.00140627,0.000507252,0.000857548,0.00192498,-1.14584e-05,0.543997,0.00128715,0.0177213,1882,736,41.5522,3.97844
665,288,41.5038,-3.18243,0.00143801,0.00113376,0.000925112,0.00222342,0.000348349,0.703909,0.00138089,0.0184246,1889,736,41.5038,3.18244
672,288,41.4614,-2.35754,0.00155766,0.00188383,0.00111728,0.00284987,0.000591628,0.85787,0.00173663,0.0174972,1896,736,41.4615,2.35754
679,288,41.4167,-1.50586,0.00177364,0.00282203,0.00140404,0.00379654,0.000799129,0.964059,0.00231117,0.0147579,1903,736,41.4167,1.50586
686,288,41.375,-0.707581,0.00208137,0.0039261,0.00182605,0.00504952,0.000957953,1.01926,0.00309681,0.0116253,1910,736,41.375,0.707584
693,288,41.3705,0.213379,0.00262077,0.00539029,0.00248911,0.00685391,0.00115715,1.03924,0.00423656,0.0269261,1917,736,41.3704,-0.213402
700,288,41.4639,0.975403,0,0,0,0,0,0,0,-1,1924,736,41.4638,-0.975423
707,288,30.9496,3.07977,0,0,0,0,0,0,0,-1,1931,736,30.9496,-3.07975
714,288,23.0149,3.82544,0,0,0,0,0,0,0,-1,1938,736,23.0149,-3.82541
721,288,18.0732,3.69385,0,0,0,0,0,0,0,-1,1945,736,18.0732,-3.69387
728,288,19.3208,3.91455,0,0,0,0,0,0,0,-1,1952,736,19.3209,-3.91455
735,288,18.7712,3.51312,0,0,0,0,0,0,0,-1,1959,736,18.7713,-3.51309
742,288,0,0,0,0,0,0,0,0,0,-1,1966,736,0,0
749,288,0,0,0,0,0,0,0,0,0,-1,1973,736,0,0
756,288,0,0,0,0,0,0,0,0,0,-1,1980,736,0,0
763,288,0,0,0,0,0,0,0,0,0,-1,1987,736,0,0
770,288,0,0,0,0,0,0,0,0,0,-1,1994,736,0,0
777,288,0,0,0,0,0,0,0,0,0,-1,2001,736,0,0
784,288,0,0,0,0,0,0,0,0,0,-1,2008,736,0,0
791,288,0,0,0,0,0,0,0,0,0,-1,2015,736,0,0
798,288,0,0,0,0,0,0,0,0,0,-1,2022,736,0,0
805,288,0,0,0,0,0,0,0,0,0,-1,2029,736,0,0
812,288,0,0,0,0,0,0,0,0,0,-1,2036,736,0,0
-700,281,0,0,0,0,0,0,0,0,0,-1,524,743,0,0
-693,281,0,0,0,0,0,0,0,0,0,-1,531,743,0,0
-686,281,0,0,0,0,0,0,0,0,0,-1,538,743,0,0
-679,281,0,0,0,0,0,0,0,0,0,-1,545,743,0,0
-672,281,0,0,0,0,0,0,0,0,0,-1,552,743,0,0
-665,281,0,0,0,0,0,0,0,0,0,-1,559,743,0,0
-658,281,0,0,0,0,0,0,0,0,0,-1,566,743,0,0
-651,281,0,0,0,0,0,0,0,0,0,-1,573,743,0,0
-644,281,0,0,0,0,0,0,0,0,0,-1,580,743,0,0
-637,281,0,0,0,0,0,0,0,0,0,-1,587,743,0,0
-630,281,0,0,0,0,0,0,0,0,0,-1,594,743,0,0
-623,281,-19.1697,5.67017,0,0,0,0,0,0,0,-1,601,743,-19.1697,-5.67019
-616,281,-11.5906,2.6853,0,0,0,0,0,0,0,-1,608,743,-11.5906,-2.68529
-609,281,-16.1972,4.14838,0,0,0,0,0,0,0,-1,615,743,-16.1972,-4.14837
-602,281,-21.9772,6.77417,0,0,0,0,0,0,0,-1,622,743,-21.9771,-6.77415
-595,281,-10.4797,-1.07404,0,0,0,0,0,0,0,-1,629,743,-10.4798,1.07402
-588,281,-13.277,1.49817,0,0,0,0,0,0,0,-1,636,743,-13.2771,-1.49817
-581,281,-28.2399,0.38678,0,0,0,0,0,0,0,-1,643,743,-28.2399,-0.386774
-574,281,-28.0972,-0.328125,0,0,0,0,0,0,0,-1,650,743,-28.0972,0.32815
-567,281,-28.2772,-1.05237,0.00236256,0.00448847,-0.0005076,0.00460345,0.00224758,-1.34804,0.00265805,0.0223533,657,743,-28.2772,1.05237
-560,281,-28.3773,-1.88342,0.00180615,0.00331144,-0.000319543,0.00337647,0.00174113,-1.37005,0.00194972,0.00910876,664,743,-28.3773,1.88341
-553,281,-28.3826,-2.6983,0.00132272,0.00228582,-5.23676e-05,0.00228866,0.00131989,-1.51664,0.00132653,0.0147496,671,743,-28.3826,2.6983
-546,281,-28.4141,-3.47632,0.000674749,0.00110363,0.000353121,0.00130232,0.000476056,1.05827,0.000760903,0.0169583,678,743,-28.4141,3.47632
-539,281,-28.4643,-4.29431,-7.20616e-05,3.15829e-05,0.000796735,0.000778179,-0.000818658,0.817874,0.000922033,0.0154369,685,743,-28.4643,4.29433
-532,281,-28.4872,-5.06342,-0.000914279,-0.00117575,0.00133404,0.000295414,-0.00238545,0.736554,0.00169736,0.0157733,692,743,-28.4872,5.06344
-525,281,-28.5645,-5.91962,-0.00171862,-0.00204745,0.00176417,-0.000111219,-0.00365485,0.738934,0.00240036,0.0175776,699,743,-28.5645,5.91962
-518,281,-28.6202,-6.76727,-0.00238213,-0.00250087,0.00211386,-0.000326806,-0.00455619,0.771358,0.0029346,0.0127217,706,743,-28.6202,6.76726
-511,281,-28.6691,-7.57306,-0.00316761,-0.00270123,0.00242873,-0.000494515,-0.00537432,0.833258,0.00342994,0.0121535,713,743,-28.6691,7.57307
-504,281,-28.7629,-8.38922,-0.00370166,-0.00235484,0.00252286,-0.000417057,-0.00563944,0.915819,0.00362861,0.0162876,720,743,-28.763,8.38923
-497,281,-28.8541,-9.19843,0,0,0,0,0,0,0,-1,727,743,-28.8541,9.19842
-490,281,-27.6985,-9.63165,0,0,0,0,0,0,0,-1,734,743,-27.6986,9.63165
-483,281,-22.1078,-2.34973,0,0,0,0,0,0,0,-1,741,743,-22.1078,2.3497
-476,281,-28.0016,2.17786,0,0,0,0,0,0,0,-1,748,743,-28.0016,-2.17786
-469,281,-34.6448,0.171692,0,0,0,0,0,0,0,-1,755,743,-34.6448,-0.171685
-462,281,-46.6214,0.0193481,0,0,0,0,0,0,0,-1,762,743,-46.6214,-0.0193665
-455,281,-51.8757,-0.0905151,0,0,0,0,0,0,0,-1,769,743,-51.8756,0.0904882
-448,281,-49.0774,1.43488,0,0,0,0,0,0,0,-1,776,743,-49.0774,-1.43486
-441,281,-48.6077,1.65411,0,0,0,0,0,0,0,-1,783,743,-48.6077,-1.65409
-434,281,0,0,0,0,0,0,0,0,0,-1,790,743,0,0
-427,281,0,0,0,0,0,0,0,0,0,-1,797,743,0,0
-420,281,0,0,0,0,0,0,0,0,0,-1,804,743,0,0
-413,281,0,0,0,0,0,0,0,0,0,-1,811,743,0,0
-406,281,0,0,0,0,0,0,0,0,0,-1,818,743,0,0
-399,281,0,0,0,0,0,0,0,0,0,-1,825,743,0,0
-392,281,0,0,0,0,0,0,0,0,0,-1,832,743,0,0
-385,281,0,0,0,0,0,0,0,0,0,-1,839,743,0,0
-378,281,0,0,0,0,0,0,0,0,0,-1,846,743,0,0
-371,281,0,0,0,0,0,0,0,0,0,-1,853,743,0,0
-364,281,0,0,0,0,0,0,0,0,0,-1,860,743,0,0
-357,281,0,0,0,0,0,0,0,0,0,-1,867,743,0,0
-350,281,0,0,0,0,0,0,0,0,0,-1,874,743,0,0
-343,281,0,0,0,0,0,0,0,0,0,-1,881,743,0,0
-336,281,0,0,0,0,0,0,0,0,0,-1,888,743,0,0
-329,281,0,0,0,0,0,0,0,0,0,-1,895,743,0,0
-322,281,0,0,0,0,0,0,0,0,0,-1,902,743,0,0
-315,281,0,0,0,0,0,0,0,0,0,-1,909,743,0,0
-308,281,0,0,0,0,0,0,0,0,0,-1,916,743,0,0
-301,281,0,0,0,0,0,0,0,0,0,-1,923,743,0,0
-294,281,0,0,0,0,0,0,0,0,0,-1,930,743,0,0
-287,281,0,0,0,0,0,0,0,0,0,-1,937,743,0,0
-280,281,0,0,0,0,0,0,0,0,0,-1,944,743,0,0
-273,281,0,0,0,0,0,0,0,0,0,-1,951,743,0,0
-266,281,0,0,0,0,0,0,0,0,0,-1,958,743,0,0
-259,281,0,0,0,0,0,0,0,0,0,-1,965,743,0,0
-252,281,0,0,0,0,0,0,0,0,0,-1,972,743,0,0
-245,281,0,0,0,0,0,0,0,0,0,-1,979,743,0,0
-238,281,0,0,0,0,0,0,0,0,0,-1,986,743,0,0
-231,281,0,0,0,0,0,0,0,0,0,-1,993,743,0,0
-224,281,0,0,0,0,0,0,0,0,0,-1,1000,743,0,0
-217,281,0,0,0,0,0,0,0,0,0,-1,1007,743,0,0
-210,281,0,0,0,0,0,0,0,0,0,-1,1014,743,0,0
-203,281,0,0,0,0,0,0,0,0,0,-1,1021,743,0,0
-196,281,0,0,0,0,0,0,0,0,0,-1,1028,743,0,0
-189,281,0,0,0,0,0,0,0,0,0,-1,1035,743,0,0
-182,281,0,0,0,0,0,0,0,0,0,-1,1042,743,0,0
-175,281,0,0,0,0,0,0,0,0,0,-1,1049,743,0,0
-168,281,0,0,0,0,0,0,0,0,0,-1,1056,743,0,0
-161,281,0,0,0,0,0,0,0,0,0,-1,1063,743,0,0
-154,281,0,0,0,0,0,0,0,0,0,-1,1070,743,0,0
-147,281,0,0,0,0,0,0,0,0,0,-1,1077,743,0,0
-140,281,0,0,0,0,0,0,0,0,0,-1,1084,743,0,0
-133,281,0,0,0,0,0,0,0,0,0,-1,1091,743,0,0
-126,281,0,0,0,0,0,0,0,0,0,-1,1098,743,0,0
-119,281,0,0,0,0,0,0,0,0,0,-1,1105,743,0,0
-112,281,0,0,0,0,0,0,0,0,0,-1,1112,743,0,0
-105,281,0,0,0,0,0,0,0,0,0,-1,1119,743,0,0
-98,281,0,0,0,0,0,0,0,0,0,-1,1126,743,0,0
-91,281,0,0,0,0,0,0,0,0,0,-1,1133,743,0,0
-84,281,0,0,0,0,0,0,0,0,0,-1,1140,743,0,0
-77,281,0,0,0,0,0,0,0,0,0,-1,1147,743,0,0
-70,281,0,0,0,0,0,0,0,0,0,-1,1154,743,0,0
-63,281,0,0,0,0,0,0,0,0,0,-1,1161,743,0,0
-56,281,0,0,0,0,0,0,0,0,0,-1,1168,743,0,0
-49,281,0,0,0,0,0,0,0,0,0,-1,1175,743,0,0
-42,281,0,0,0,0,0,0,0,0,0,-1,1182,743,0,0
-35,281,0,0,0,0,0,0,0,0,0,-1,1189,743,0,0
-28,281,0,0,0,0,0,0,0,0,0,-1,1196,743,0,0
-21,281,0,0,0,0,0,0,0,0,0,-1,1203,743,0,0
-14,281,0,0,0,0,0,0,0,0,0,-1,1210,743,0,0
-7,281,0,0,0,0,0,0,0,0,0,-1,1217,743,0,0
0,281,0,0,0,0,0,0,0,0,0,-1,1224,743,0,0
7,281,0,0,0,0,0,0,0,0,0,-1,1231,743,0,0
14,281,0,0,0,0,0,0,0,0,0,-1,1238,743,0,0
21,281,0,0,0,0,0,0,0,0,0,-1,1245,743,0,0
28,281,0,0,0,0,0,0,0,0,0,-1,1252,743,0,0
35,281,0,0,0,0,0,0,0,0,0,-1,1259,743,0,0
42,281,0,0,0,0,0,0,0,0,0,-1,1266,743,0,0
49,281,0,0,0,0,0,0,0,0,0,-1,1273,743,0,0
56,281,0,0,0,0,0,0,0,0,0,-1,1280,743,0,0
63,281,0,0,0,0,0,0,0,0,0,-1,1287,743,0,0
70,281,0,0,0,0,0,0,0,0,0,-1,1294,743,0,0
77,281,0,0,0,0,0,0,0,0,0,-1,1301,743,0,0
84,281,0,0,0,0,0,0,0,0,0,-1,1308,743,0,0
91,281,0,0,0,0,0,0,0,0,0,-1,1315,743,0,0
98,281,0,0,0,0,0,0,0,0,0,-1,1322,743,0,0
105,281,0,0,0,0,0,0,0,0,0,-1,1329,743,0,0
112,281,0,0,0,0,0,0,0,0,0,-1,1336,743,0,0
119,281,0,0,0,0,0,0,0,0,0,-1,1343,743,0,0
126,281,0,0,0,0,0,0,0,0,0,-1,1350,743,0,0
133,281,0,0,0,0,0,0,0,0,0,-1,1357,743,0,0
140,281,0,0,0,0,0,0,0,0,0,-1,1364,743,0,0
147,281,0,0,0,0,0,0,0,0,0,-1,1371,743,0,0
154,281,0,0,0,0,0,0,0,0,0,-1,1378,743,0,0
161,281,0,0,0,0,0,0,0,0,0,-1,1385,743,0,0
168,281,0,0,0,0,0,0,0,0,0,-1,1392,743,0,0
175,281,0,0,0,0,0,0,0,0,0,-1,1399,743,0,0
182,281,0,0,0,0,0,0,0,0,0,-1,1406,743,0,0
189,281,0,0,0,0,0,0,0,0,0,-1,1413,743,0,0
196,281,0,0,0,0,0,0,0,0,0,-1,1420,743,0,0
203,281,0,0,0,0,0,0,0,0,0,-1,1427,743,0,0
210,281,0,0,0,0,0,0,0,0,0,-1,1434,743,0,0
217,281,0,0,0,0,0,0,0,0,0,-1,1441,743,0,0
224,281,0,0,0,0,0,0,0,0,0,-1,1448,743,0,0
231,281,0,0,0,0,0,0,0,0,0,-1,1455,743,0,0
238,281,0,0,0,0,0,0,0,0,0,-1,1462,743,0,0
245,281,0,0,0,0,0,0,0,0,0,-1,1469,743,0,0
252,281,0,0,0,0,0,0,0,0,0,-1,1476,743,0,0
259,281,0,0,0,0,0,0,0,0,0,-1,1483,743,0,0
266,281,0,0,0,0,0,0,0,0,0,-1,1490,743,0,0
273,281,0,0,0,0,0,0,0,0,0,-1,1497,743,0,0
280,281,0,0,0,0,0,0,0,0,0,-1,1504,743,0,0
287,281,0,0,0,0,0,0,0,0,0,-1,1511,743,0,0
294,281,0,0,0,0,0,0,0,0,0,-1,1518,743,0,0
301,281,0,0,0,0,0,0,0,0,0,-1,1525,743,0,0
308,281,0,0,0,0,0,0,0,0,0,-1,1532,743,0,0
315,281,0,0,0,0,0,0,0,0,0,-1,1539,743,0,0
322,281,0,0,0,0,0,0,0,0,0,-1,1546,743,0,0
329,281,0,0,0,0,0,0,0,0,0,-1,1553,743,0,0
336,281,0,0,0,0,0,0,0,0,0,-1,1560,743,0,0
343,281,0,0,0,0,0,0,0,0,0,-1,1567,743,0,0
350,281,0,0,0,0,0,0,0,0,0,-1,1574,743,0,0
357,281,0,0,0,0,0,0,0,0,0,-1,1581,743,0,0
364,281,0,0,0,0,0,0,0,0,0,-1,1588,743,0,0
371,281,0,0,0,0,0,0,0,0,0,-1,1595,743,0,0
378,281,0,0,0,0,0,0,0,0,0,-1,1602,743,0,0
385,281,0,0,0,0,0,0,0,0,0,-1,1609,743,0,0
392,281,0,0,0,0,0,0,0,0,0,-1,1616,743,0,0
399,281,0,0,0,0,0,0,0,0,0,-1,1623,743,0,0
406,281,0,0,0,0,0,0,0,0,0,-1,1630,743,0,0
413,281,0,0,0,0,0,0,0,0,0,-1,1637,743,0,0
420,281,0,0,0,0,0,0,0,0,0,-1,1644,743,0,0
427,281,0,0,0,0,0,0,0,0,0,-1,1651,743,0,0
434,281,0,0,0,0,0,0,0,0,0,-1,1658,743,0,0
441,281,0,0,0,0,0,0,0,0,0,-1,1665,743,0,0
448,281,0,0,0,0,0,0,0,0,0,-1,1672,743,0,0
455,281,0,0,0,0,0,0,0,0,0,-1,1679,743,0,0
462,281,0,0,0,0,0,0,0,0,0,-1,1686,743,0,0
469,281,0,0,0,0,0,0,0,0,0,-1,1693,743,0,0
476,281,0,0,0,0,0,0,0,0,0,-1,1700,743,0,0
483,281,0,0,0,0,0,0,0,0,0,-1,1707,743,0,0
490,281,0,0,0,0,0,0,0,0,0,-1,1714,743,0,0
497,281,0,0,0,0,0,0,0,0,0,-1,1721,743,0,0
504,281,0,0,0,0,0,0,0,0,0,-1,1728,743,0,0
511,281,0,0,0,0,0,0,0,0,0,-1,1735,743,0,0
518,281,0,0,0,0,0,0,0,0,0,-1,1742,743,0,0
525,281,0,0,0,0,0,0,0,0,0,-1,1749,743,0,0
532,281,0,0,0,0,0,0,0,0,0,-1,1756,743,0,0
539,281,0,0,0,0,0,0,0,0,0,-1,1763,743,0,0
546,281,0,0,0,0,0,0,0,0,0,-1,1770,743,0,0
553,281,0,0,0,0,0,0,0,0,0,-1,1777,743,0,0
560,281,57.8354,3.06482,0,0,0,0,0,0,0,-1,1784,743,57.8354,-3.06479
567,281,57.6156,3.64508,0,0,0,0,0,0,0,-1,1791,743,57.6156,-3.64511
574,281,57.3431,4.17767,0,0,0,0,0,0,0,-1,1798,743,57.3431,-4.17769
581,281,57.0648,4.53906,0,0,0,0,0,0,0,-1,1805,743,57.0648,-4.53908
588,281,53.5422,6.00092,0,0,0,0,0,0,0,-1,1812,743,53.5422,-6.00092
595,281,54.8569,3.32269,0,0,0,0,0,0,0,-1,1819,743,54.857,-3.32269
602,281,45.9985,3.98254,0,0,0,0,0,0,0,-1,1826,743,45.9985,-3.98254
609,281,32.7925,1.28723,0,0,0,0,0,0,0,-1,1833,743,32.7925,-1.28722
616,281,21.3191,-0.253906,0,0,0,0,0,0,0,-1,1840,743,21.3191,0.253931
623,281,31.8741,-4.74182,0,0,0,0,0,0,0,-1,1847,743,31.8741,4.74184
630,281,42.462,-7.16986,0,0,0,0,0,0,0,-1,1854,743,42.462,7.16989
637,281,42.4382,-6.42096,0.00305961,0.000516453,0.00262984,0.00470916,-0.00113309,0.560209,0.00357746,0.0212254,1861,743,42.4383,6.42097
644,281,42.4449,-5.59442,0.00222164,0.000118692,0.00158873,0.00307533,-0.000734998,0.493073,0.00233412,0.0110456,1868,743,42.445,5.59443
651,281,42.4376,-4.76898,0.00152562,-1.836e-06,0.000973208,0.00199899,-0.000475206,0.45271,0.0015161,0.0125561,1875,743,42.4376,4.76896
658,281,42.4158,-3.93915,0.00134312,0.00013175,0.000758311,0.00170794,-0.000233076,0.448416,0.00122374,0.0217961,1882,743,42.4158,3.93916
665,281,42.3542,-3.12415,0.00130713,0.000704717,0.000769136,0.00183194,0.000179913,0.598768,0.00116596,0.0229764,1889,743,42.3543,3.12414
672,281,42.2961,-2.28717,0.00135885,0.00140172,0.000904367,0.0022849,0.000475661,0.797247,0.00139207,0.0152529,1896,743,42.2961,2.28716
679,281,42.229,-1.46655,0.00149935,0.00225887,0.00112359,0.00306515,0.000693073,0.948366,0.00185605,0.0231587,1903,743,42.229,1.46657
686,281,42.156,-0.679077,0.00172428,0.00328252,0.00146406,0.00416187,0.000844932,1.02992,0.00254021,0.0182475,1910,743,42.156,0.67905
693,281,42.1305,0.150085,0.00212928,0.00456637,0.00199193,0.00568291,0.00101273,1.0599,0.00350021,0.013632,1917,743,42.1304,-0.150102
700,281,42.0725,1.0307,0.00276245,0.0060682,0.00269423,0.00757616,0.00125449,1.06054,0.00468889,0.0423239,1924,743,42.0725,-1.03072
707,281,42.1522,1.89349,0,0,0,0,0,0,0,-1,1931,743,42.1522,-1.8935
714,281,25.0125,2.5105,0,0,0,0,0,0,0,-1,1938,743,25.0124,-2.51053
721,281,16.9656,3.22174,0,0,0,0,0,0,0,-1,1945,743,16.9656,-3.22172
728,281,19.0251,3.63934,0,0,0,0,0,0,0,-1,1952,743,19.0252,-3.63932
735,281,19.0869,2.50311,0,0,0,0,0,0,0,-1,1959,743,19.0869,-2.5031
742,281,0,0,0,0,0,0,0,0,0,-1,1966,743,0,0
749,281,0,0,0,0,0,0,0,0,0,-1,1973,743,0,0
756,281,0,0,0,0,0,0,0,0,0,-1,1980,743,0,0
763,281,0,0,0,0,0,0,0,0,0,-1,1987,743,0,0
770,281,0,0,0,0,0,0,0,0,0,-1,1994,743,0,0
777,281,0,0,0,0,0,0,0,0,0,-1,2001,743,0,0
784,281,0,0,0,0,0,0,0,0,0,-1,2008,743,0,0
791,281,0,0,0,0,0,0,0,0,0,-1,2015,743,0,0
798,281,0,0,0,0,0,0,0,0,0,-1,2022,743,0,0
805,281,0,0,0,0,0,0,0,0,0,-1,2029,743,0,0
812,281,0,0,0,0,0,0,0,0,0,-1,2036,743,0,0
-700,274,0,0,0,0,0,0,0,0,0,-1,524,750,0,0
-693,274,0,0,0,0,0,0,0,0,0,-1,531,750,0,0
-686,274,0,0,0,0,0,0,0,0,0,-1,538,750,0,0
-679,274,0,0,0,0,0,0,0,0,0,-1,545,750,0,0
-672,274,0,0,0,0,0,0,0,0,0,-1,552,750,0,0
-665,274,0,0,0,0,0,0,0,0,0,-1,559,750,0,0
-658,274,0,0,0,0,0,0,0,0,0,-1,566,750,0,0
-651,274,0,0,0,0,0,0,0,0,0,-1,573,750,0,0
-644,274,0,0,0,0,0,0,0,0,0,-1,580,750,0,0
-637,274,0,0,0,0,0,0,0,0,0,-1,587,750,0,0
-630,274,0,0,0,0,0,0,0,0,0,-1,594,750,0,0
-623,274,-19.6909,5.12701,0,0,0,0,0,0,0,-1,601,750,-19.6908,-5.12703
-616,274,-17.9133,3.9024,0,0,0,0,0,0,0,-1,608,750,-17.9133,-3.90239
-609,274,-26.0861,5.57306,0,0,0,0,0,0,0,-1,615,750,-26.0861,-5.57307
-602,274,-25.7372,3.73846,0,0,0,0,0,0,0,-1,622,750,-25.7372,-3.73849
-595,274,-25.258,2.53473,0,0,0,0,0,0,0,-1,629,750,-25.258,-2.53474
-588,274,-24.9805,2.2334,0,0,0,0,0,0,0,-1,636,750,-24.9805,-2.23341
-581,274,-28.9188,1.07776,0,0,0,0,0,0,0,-1,643,750,-28.9188,-1.07775
-574,274,-29.0643,-0.174866,0,0,0,0,0,0,0,-1,650,750,-29.0643,0.174887
-567,274,-29.1042,-1.0448,0.00215595,0.00396609,-0.000502933,0.00409644,0.0020256,-1.3172,0.00236513,0.0280324,657,750,-29.1042,1.04477
-560,274,-29.1523,-1.82941,0.00144612,0.00283964,-0.000190728,0.00286527,0.00142049,-1.4372,0.00165428,0.0143796,664,750,-29.1523,1.82941
-553,274,-29.1976,-2.64746,0.000796625,0.00175118,0.000206054,0.00179376,0.000754045,1.36702,0.00104,0.00949503,671,750,-29.1976,2.64744
-546,274,-29.2552,-3.45673,6.77236e-05,0.000511847,0.000712747,0.00103632,-0.000456753,0.936411,0.000883411,0.011902,678,750,-29.2552,3.45672
-539,274,-29.303,-4.26727,-0.000747316,-0.000629129,0.00123911,0.000552296,-0.00192874,0.809225,0.00150411,0.013021,685,750,-29.303,4.26729
-532,274,-29.3375,-5.04608,-0.0015861,-0.00162906,0.00170983,0.000102387,-0.00331754,0.779118,0.0022466,0.0143749,692,750,-29.3376,5.0461
-525,274,-29.3926,-5.83099,-0.00226695,-0.00206278,0.00195272,-0.000209478,-0.00412025,0.811513,0.00267974,0.0149406,699,750,-29.3926,5.83101
-518,274,-29.4294,-6.67969,-0.00265194,-0.00188563,0.00204853,-0.000184735,-0.00435284,0.877849,0.00284232,0.0132821,706,750,-29.4294,6.67966
-511,274,-29.4679,-7.52997,-0.00312907,-0.00135542,0.00201152,-4.39074e-05,-0.00444058,0.993017,0.00294586,0.0167797,713,750,-29.4679,7.52996
-504,274,-29.6472,-8.44763,-0.00325345,-0.000120037,0.00167249,0.000604935,-0.00397842,1.16177,0.00287522,0.0307241,720,750,-29.6472,8.44761
-497,274,-29.9202,-9.42773,0,0,0,0,0,0,0,-1,727,750,-29.9202,9.42775
-490,274,-13.6545,-3.58826,0,0,0,0,0,0,0,-1,734,750,-13.6546,3.58825
-483,274,-27.8608,1.30981,0,0,0,0,0,0,0,-1,741,750,-27.8608,-1.30979
-476,274,-33.7561,-0.508606,0,0,0,0,0,0,0,-1,748,750,-33.7561,0.508636
-469,274,-41.1387,0.907715,0,0,0,0,0,0,0,-1,755,750,-41.1387,-0.907744
-462,274,-51.2474,-0.0733032,0,0,0,0,0,0,0,-1,762,750,-51.2474,0.073328
-455,274,-51.5438,0.327881,0,0,0,0,0,0,0,-1,769,750,-51.5438,-0.327898
-448,274,-51.5203,0.900635,0,0,0,0,0,0,0,-1,776,750,-51.5203,-0.900635
-441,274,0,0,0,0,0,0,0,0,0,-1,783,750,0,0
-434,274,0,0,0,0,0,0,0,0,0,-1,790,750,0,0
-427,274,0,0,0,0,0,0,0,0,0,-1,797,750,0,0
-420,274,0,0,0,0,0,0,0,0,0,-1,804,750,0,0
-413,274,0,0,0,0,0,0,0,0,0,-1,811,750,0,0
-406,274,0,0,0,0,0,0,0,0,0,-1,818,750,0,0
-399,274,0,0,0,0,0,0,0,0,0,-1,825,750,0,0
-392,274,0,0,0,0,0,0,0,0,0,-1,832,750,0,0
-385,274,0,0,0,0,0,0,0,0,0,-1,839,750,0,0
-378,274,0,0,0,0,0,0,0,0,0,-1,846,750,0,0
-371,274,0,0,0,0,0,0,0,0,0,-1,853,750,0,0
-364,274,0,0,0,0,0,0,0,0,0,-1,860,750,0,0
-357,274,0,0,0,0,0,0,0,0,0,-1,867,750,0,0
-350,274,0,0,0,0,0,0,0,0,0,-1,874,750,0,0
-343,274,0,0,0,0,0,0,0,0,0,-1,881,750,0,0
-336,274,0,0,0,0,0,0,0,0,0,-1,888,750,0,0
-329,274,0,0,0,0,0,0,0,0,0,-1,895,750,0,0
-322,274,0,0,0,0,0,0,0,0,0,-1,902,750,0,0
-315,274,0,0,0,0,0,0,0,0,0,-1,909,750,0,0
-308,274,0,0,0,0,0,0,0,0,0,-1,916,750,0,0
-301,274,0,0,0,0,0,0,0,0,0,-1,923,750,0,0
-294,274,0,0,0,0,0,0,0,0,0,-1,930,750,0,0
-287,274,0,0,0,0,0,0,0,0,0,-1,937,750,0,0
-280,274,0,0,0,0,0,0,0,0,0,-1,944,750,0,0
-273,274,0,0,0,0,0,0,0,0,0,-1,951,750,0,0
-266,274,0,0,0,0,0,0,0,0,0,-1,958,750,0,0
-259,274,0,0,0,0,0,0,0,0,0,-1,965,750,0,0
-252,274,0,0,0,0,0,0,0,0,0,-1,972,750,0,0
-245,274,0,0,0,0,0,0,0,0,0,-1,979,750,0,0
-238,274,0,0,0,0,0,0,0,0,0,-1,986,750,0,0
-231,274,0,0,0,0,0,0,0,0,0,-1,993,750,0,0
-224,274,0,0,0,0,0,0,0,0,0,-1,1000,750,0,0
-217,274,0,0,0,0,0,0,0,0,0,-1,1007,750,0,0
-210,274,0,0,0,0,0,0,0,0,0,-1,1014,750,0,0
-203,274,0,0,0,0,0,0,0,0,0,-1,1021,750,0,0
-196,274,0,0,0,0,0,0,0,0,0,-1,1028,750,0,0
-189,274,0,0,0,0,0,0,0,0,0,-1,1035,750,0,0
-182,274,0,0,0,0,0,0,0,0,0,-1,1042,750,0,0
-175,274,0,0,0,0,0,0,0,0,0,-1,1049,750,0,0
-168,274,0,0,0,0,0,0,0,0,0,-1,1056,750,0,0
-161,274,0,0,0,0,0,0,0,0,0,-1,1063,750,0,0
-154,274,0,0,0,0,0,0,0,0,0,-1,1070,750,0,0
-147,274,0,0,0,0,0,0,0,0,0,-1,1077,750,0,0
-140,274,0,0,0,0,0,0,0,0,0,-1,1084,750,0,0
-133,274,0,0,0,0,0,0,0,0,0,-1,1091,750,0,0
-126,274,0,0,0,0,0,0,0,0,0,-1,1098,750,0,0
-119,274,0,0,0,0,0,0,0,0,0,-1,1105,750,0,0
-112,274,0,0,0,0,0,0,0,0,0,-1,1112,750,0,0
-105,274,0,0,0,0,0,0,0,0,0,-1,1119,750,0,0
-98,274,0,0,0,0,0,0,0,0,0,-1,1126,750,0,0
-91,274,0,0,0,0,0,0,0,0,0,-1,1133,750,0,0
-84,274,0,0,0,0,0,0,0,0,0,-1,1140,750,0,0
-77,274,0,0,0,0,0,0,0,0,0,-1,1147,750,0,0
-70,274,0,0,0,0,0,0,0,0,0,-1,1154,750,0,0
-63,274,0,0,0,0,0,0,0,0,0,-1,1161,750,0,0
-56,274,0,0,0,0,0,0,0,0,0,-1,1168,750,0,0
-49,274,0,0,0,0,0,0,0,0,0,-1,1175,750,0,0
-42,274,0,0,0,0,0,0,0,0,0,-1,1182,750,0,0
-35,274,0,0,0,0,0,0,0,0,0,-1,1189,750,0,0
-28,274,0,0,0,0,0,0,0,0,0,-1,1196,750,0,0
-21,274,0,0,0,0,0,0,0,0,0,-1,1203,750,0,0
-14,274,0,0,0,0,0,0,0,0,0,-1,1210,750,0,0
-7,274,0,0,0,0,0,0,0,0,0,-1,1217,750,0,0
0,274,0,0,0,0,0,0,0,0,0,-1,1224,750,0,0
7,274,0,0,0,0,0,0,0,0,0,-1,1231,750,0,0
14,274,0,0,0,0,0,0,0,0,0,-1,1238,750,0,0
21,274,0,0,0,0,0,0,0,0,0,-1,1245,750,0,0
28,274,0,0,0,0,0,0,0,0,0,-1,1252,750,0,0
35,274,0,0,0,0,0,0,0,0,0,-1,1259,750,0,0
42,274,0,0,0,0,0,0,0,0,0,-1,1266,750,0,0
49,274,0,0,0,0,0,0,0,0,0,-1,1273,750,0,0
56,274,0,0,0,0,0,0,0,0,0,-1,1280,750,0,0
63,274,0,0,0,0,0,0,0,0,0,-1,1287,750,0,0
70,274,0,0,0,0,0,0,0,0,0,-1,1294,750,0,0
77,274,0,0,0,0,0,0,0,0,0,-1,1301,750,0,0
84,274,0,0,0,0,0,0,0,0,0,-1,1308,750,0,0
91,274,0,0,0,0,0,0,0,0,0,-1,1315,750,0,0
98,274,0,0,0,0,0,0,0,0,0,-1,1322,750,0,0
105,274,0,0,0,0,0,0,0,0,0,-1,1329,750,0,0
112,274,0,0,0,0,0,0,0,0,0,-1,1336,750,0,0
119,274,0,0,0,0,0,0,0,0,0,-1,1343,750,0,0
126,274,0,0,0,0,0,0,0,0,0,-1,1350,750,0,0
133,274,0,0,0,0,0,0,0,0,0,-1,1357,750,0,0
140,274,0,0,0,0,0,0,0,0,0,-1,1364,750,0,0
147,274,0,0,0,0,0,0,0,0,0,-1,1371,750,0,0
154,274,0,0,0,0,0,0,0,0,0,-1,1378,750,0,0
161,274,0,0,0,0,0,0,0,0,0,-1,1385,750,0,0
168,274,0,0,0,0,0,0,0,0,0,-1,1392,750,0,0
175,274,0,0,0,0,0,0,0,0,0,-1,1399,750,0,0
182,274,0,0,0,0,0,0,0,0,0,-1,1406,750,0,0
189,274,0,0,0,0,0,0,0,0,0,-1,1413,750,0,0
196,274,0,0,0,0,0,0,0,0,0,-1,1420,750,0,0
203,274,0,0,0,0,0,0,0,0,0,-1,1427,750,0,0
210,274,0,0,0,0,0,0,0,0,0,-1,1434,750,0,0
217,274,0,0,0,0,0,0,0,0,0,-1,1441,750,0,0
224,274,0,0,0,0,0,0,0,0,0,-1,1448,750,0,0
231,274,0,0,0,0,0,0,0,0,0,-1,1455,750,0,0
238,274,0,0,0,0,0,0,0,0,0,-1,1462,750,0,0
245,274,0,0,0,0,0,0,0,0,0,-1,1469,750,0,0
252,274,0,0,0,0,0,0,0,0,0,-1,1476,750,0,0
259,274,0,0,0,0,0,0,0,0,0,-1,1483,750,0,0
266,274,0,0,0,0,0,0,0,0,0,-1,1490,750,0,0
273,274,0,0,0,0,0,0,0,0,0,-1,1497,750,0,0
280,274,0,0,0,0,0,0,0,0,0,-1,1504,750,0,0
287,274,0,0,0,0,0,0,0,0,0,-1,1511,750,0,0
294,274,0,0,0,0,0,0,0,0,0,-1,1518,750,0,0
301,274,0,0,0,0,0,0,0,0,0,-1,1525,750,0,0
308,274,0,0,0,0,0,0,0,0,0,-1,1532,750,0,0
315,274,0,0,0,0,0,0,0,0,0,-1,1539,750,0,0
322,274,0,0,0,0,0,0,0,0,0,-1,1546,750,0,0
329,274,0,0,0,0,0,0,0,0,0,-1,1553,750,0,0
336,274,0,0,0,0,0,0,0,0,0,-1,1560,750,0,0
343,274,0,0,0,0,0,0,0,0,0,-1,1567,750,0,0
350,274,0,0,0,0,0,0,0,0,0,-1,1574,750,0,0
357,274,0,0,0,0,0,0,0,0,0,-1,1581,750,0,0
364,274,0,0,0,0,0,0,0,0,0,-1,1588,750,0,0
371,274,0,0,0,0,0,0,0,0,0,-1,1595,750,0,0
378,274,0,0,0,0,0,0,0,0,0,-1,1602,750,0,0
385,274,0,0,0,0,0,0,0,0,0,-1,1609,750,0,0
392,274,0,0,0,0,0,0,0,0,0,-1,1616,750,0,0
399,274,0,0,0,0,0,0,0,0,0,-1,1623,750,0,0
406,274,0,0,0,0,0,0,0,0,0,-1,1630,750,0,0
413,274,0,0,0,0,0,0,0,0,0,-1,1637,750,0,0
420,274,0,0,0,0,0,0,0,0,0,-1,1644,750,0,0
427,274,0,0,0,0,0,0,0,0,0,-1,1651,750,0,0
434,274,0,0,0,0,0,0,0,0,0,-1,1658,750,0,0
441,274,0,0,0,0,0,0,0,0,0,-1,1665,750,0,0
448,274,0,0,0,0,0,0,0,0,0,-1,1672,750,0,0
455,274,0,0,0,0,0,0,0,0,0,-1,1679,750,0,0
462,274,0,0,0,0,0,0,0,0,0,-1,1686,750,0,0
469,274,0,0,0,0,0,0,0,0,0,-1,1693,750,0,0
476,274,0,0,0,0,0,0,0,0,0,-1,1700,750,0,0
483,274,0,0,0,0,0,0,0,0,0,-1,1707,750,0,0
490,274,0,0,0,0,0,0,0,0,0,-1,1714,750,0,0
497,274,0,0,0,0,0,0,0,0,0,-1,1721,750,0,0
504,274,0,0,0,0,0,0,0,0,0,-1,1728,750,0,0
511,274,0,0,0,0,0,0,0,0,0,-1,1735,750,0,0
518,274,0,0,0,0,0,0,0,0,0,-1,1742,750,0,0
525,274,0,0,0,0,0,0,0,0,0,-1,1749,750,0,0
532,274,0,0,0,0,0,0,0,0,0,-1,1756,750,0,0
539,274,0,0,0,0,0,0,0,0,0,-1,1763,750,0,0
546,274,0,0,0,0,0,0,0,0,0,-1,1770,750,0,0
553,274,0,0,0,0,0,0,0,0,0,-1,1777,750,0,0
560,274,57.9182,3.24518,0,0,0,0,0,0,0,-1,1784,750,57.9182,-3.24516
567,274,57.8315,3.4137,0,0,0,0,0,0,0,-1,1791,750,57.8315,-3.41368
574,274,58.2571,3.11115,0,0,0,0,0,0,0,-1,1798,750,58.2571,-3.11114
581,274,54.4941,4.68127,0,0,0,0,0,0,0,-1,1805,750,54.4941,-4.68125
588,274,53.9908,5.6676,0,0,0,0,0,0,0,-1,1812,750,53.9908,-5.66763
595,274,66.2316,2.66986,0,0,0,0,0,0,0,-1,1819,750,66.2315,-2.66988
602,274,55.6321,2.56519,0,0,0,0,0,0,0,-1,1826,750,55.6321,-2.56521
609,274,44.6676,3.10461,0,0,0,0,0,0,0,-1,1833,750,44.6676,-3.1046
616,274,32.7869,1.78436,0,0,0,0,0,0,0,-1,1840,750,32.7868,-1.78437
623,274,24.8231,-1.80353,0,0,0,0,0,0,0,-1,1847,750,24.8232,1.80351
630,274,43.3484,-7.37079,0,0,0,0,0,0,0,-1,1854,750,43.3484,7.37078
637,274,43.2073,-6.49335,0.00286891,0.000739259,0.00285803,0.00485404,-0.00124587,0.607078,0.00372149,0.0288548,1861,750,43.2072,6.49337
644,274,43.2405,-5.56793,0.0021673,0.000285088,0.00183627,0.00328958,-0.000837191,0.548595,0.00251893,0.0148117,1868,750,43.2405,5.56792
651,274,43.2404,-4.72638,0.00141544,3.39735e-05,0.00103178,0.00196635,-0.000516941,0.490433,0.00151294,0.0141506,1875,750,43.2404,4.7264
658,274,43.2174,-3.8996,0.00124537,-0.000103452,0.000669999,0.00152161,-0.000379687,0.391058,0.00116184,0.0168586,1882,750,43.2174,3.8996
665,274,43.1813,-3.05719,0.00119465,0.000331606,0.000584382,0.00148957,3.66896e-05,0.467372,0.000981045,0.0174828,1889,750,43.1813,3.0572
672,274,43.1229,-2.2478,0.00119285,0.000928837,0.000639993,0.00171431,0.000407379,0.683693,0.00103418,0.0155444,1896,750,43.1229,2.24781
679,274,43.0574,-1.42035,0.00125733,0.00170245,0.000797468,0.00230784,0.000651952,0.921477,0.00137381,0.0175564,1903,750,43.0573,1.42035
686,274,43.0107,-0.603516,0.00140393,0.00266217,0.00107722,0.00328052,0.000785575,1.04969,0.00197786,0.0192576,1910,750,43.0107,0.603531
693,274,42.9465,0.213501,0.0016893,0.003789,0.00150843,0.00457696,0.00090134,1.08941,0.00279965,0.0138167,1917,750,42.9465,-0.213527
700,274,42.915,1.09137,0.00217003,0.00509377,0.00210479,0.00619456,0.00106924,1.08893,0.00382346,0.0192284,1924,750,42.915,-1.09136
707,274,42.7671,1.91925,0.00254536,0.00625868,0.00273435,0.00770714,0.0010969,1.08365,0.0048143,0.0411976,1931,750,42.7671,-1.91926
714,274,42.5823,2.81427,0,0,0,0,0,0,0,-1,1938,750,42.5822,-2.8143
721,274,25.6215,3.91144,0,0,0,0,0,0,0,-1,1945,750,25.6214,-3.91141
728,274,19.2209,3.95154,0,0,0,0,0,0,0,-1,1952,750,19.221,-3.95151
735,274,20.6608,4.10931,0,0,0,0,0,0,0,-1,1959,750,20.6607,-4.10932
742,274,11.7815,-0.740234,0,0,0,0,0,0,0,-1,1966,750,11.7815,0.740253
749,274,0,0,0,0,0,0,0,0,0,-1,1973,750,0,0
756,274,0,0,0,0,0,0,0,0,0,-1,1980,750,0,0
763,274,0,0,0,0,0,0,0,0,0,-1,1987,750,0,0
770,274,0,0,0,0,0,0,0,0,0,-1,1994,750,0,0
777,274,0,0,0,0,0,0,0,0,0,-1,2001,750,0,0
784,274,0,0,0,0,0,0,0,0,0,-1,2008,750,0,0
791,274,0,0,0,0,0,0,0,0,0,-1,2015,750,0,0
798,274,0,0,0,0,0,0,0,0,0,-1,2022,750,0,0
805,274,0,0,0,0,0,0,0,0,0,-1,2029,750,0,0
812,274,0,0,0,0,0,0,0,0,0,-1,2036,750,0,0
-700,267,0,0,0,0,0,0,0,0,0,-1,524,757,0,0
-693,267,0,0,0,0,0,0,0,0,0,-1,531,757,0,0
-686,267,0,0,0,0,0,0,0,0,0,-1,538,757,0,0
-679,267,0,0,0,0,0,0,0,0,0,-1,545,757,0,0
-672,267,0,0,0,0,0,0,0,0,0,-1,552,757,0,0
-665,267,0,0,0,0,0,0,0,0,0,-1,559,757,0,0
-658,267,0,0,0,0,0,0,0,0,0,-1,566,757,0,0
-651,267,0,0,0,0,0,0,0,0,0,-1,573,757,0,0
-644,267,0,0,0,0,0,0,0,0,0,-1,580,757,0,0
-637,267,0,0,0,0,0,0,0,0,0,-1,587,757,0,0
-630,267,-21.3979,5.17529,0,0,0,0,0,0,0,-1,594,757,-21.3979,-5.17529
-623,267,-20.043,4.43115,0,0,0,0,0,0,0,-1,601,757,-20.043,-4.43116
-616,267,-27.1628,5.9325,0,0,0,0,0,0,0,-1,608,757,-27.1629,-5.93249
-609,267,-26.9868,4.99658,0,0,0,0,0,0,0,-1,615,757,-26.9868,-4.99656
-602,267,-26.6637,3.74072,0,0,0,0,0,0,0,-1,622,757,-26.6637,-3.74075
-595,267,-29.6408,3.87256,0,0,0,0,0,0,0,-1,629,757,-29.6408,-3.87258
-588,267,-29.8895,1.76434,0,0,0,0,0,0,0,-1,636,757,-29.8895,-1.76436
-581,267,-29.721,0.857727,0.00403238,0.00494109,-0.00102521,0.00560811,0.00336536,-0.993982,0.0032594,0.0444021,643,757,-29.721,-0.857749
-574,267,-29.775,-0.158447,0.00277284,0.00453178,-0.000883128,0.00489866,0.00240597,-1.17706,0.00282839,0.0258363,650,757,-29.775,0.158455
-567,267,-29.899,-0.963745,0.00188822,0.0033918,-0.000500516,0.00354318,0.00173684,-1.27711,0.00204579,0.0297303,657,757,-29.899,0.96375
-560,267,-29.9467,-1.74225,0.00113164,0.00234482,-0.00012366,0.0023573,0.00111917,-1.47024,0.00136156,0.0228411,664,757,-29.9467,1.74223
-553,267,-30.0062,-2.58917,0.000384903,0.0012156,0.000365422,0.00135347,0.000247036,1.21003,0.00083228,0.0173118,671,757,-30.0062,2.58915
-546,267,-30.0626,-3.40845,-0.000378703,-6.25934e-05,0.000962003,0.000754252,-0.00119555,0.86682,0.00113529,0.0119262,678,757,-30.0626,3.40847
-539,267,-30.0854,-4.23291,-0.0012448,-0.00123202,0.00154303,0.000304636,-0.00278146,0.78747,0.00196374,0.0124652,685,757,-30.0854,4.23288
-532,267,-30.0992,-5.02802,-0.00205146,-0.00188639,0.00186953,-9.75759e-05,-0.00384027,0.807458,0.00252828,0.0132632,692,757,-30.0993,5.02803
-525,267,-30.1945,-5.78656,-0.00255569,-0.00181258,0.00184415,-0.000302923,-0.00406534,0.884805,0.00261511,0.0123325,699,757,-30.1945,5.78656
-518,267,-30.2416,-6.58582,-0.0026921,-0.00109039,0.00166592,-4.28266e-05,-0.00373966,1.00945,0.00247895,0.0145632,706,757,-30.2417,6.58579
-511,267,-30.235,-7.45001,-0.0029183,-2.62625e-05,0.00127661,0.000456629,-0.00340119,1.20917,0.00243399,0.0290772,713,757,-30.235,7.45001
-504,267,-30.4971,-7.98163,-0.00279455,0.00170774,0.000576014,0.00178026,-0.00286708,1.44555,0.00270749,0.0486828,720,757,-30.4971,7.98165
-497,267,-30.9155,-8.56714,0,0,0,0,0,0,0,-1,727,757,-30.9155,8.56714
-490,267,-23.4949,-0.494995,0,0,0,0,0,0,0,-1,734,757,-23.4949,0.494981
-483,267,-33.2785,-0.448425,0,0,0,0,0,0,0,-1,741,757,-33.2785,0.448407
-476,267,-40.2954,0.52002,0,0,0,0,0,0,0,-1,748,757,-40.2954,-0.520037
-469,267,-51.0917,0.171997,0,0,0,0,0,0,0,-1,755,757,-51.0917,-0.172013
-462,267,-51.194,0.192627,0,0,0,0,0,0,0,-1,762,757,-51.194,-0.192607
-455,267,-51.1126,0.523621,0,0,0,0,0,0,0,-1,769,757,-51.1126,-0.523615
-448,267,-51.1763,1.00745,0,0,0,0,0,0,0,-1,776,757,-51.1763,-1.00745
-441,267,0,0,0,0,0,0,0,0,0,-1,783,757,0,0
-434,267,0,0,0,0,0,0,0,0,0,-1,790,757,0,0
-427,267,0,0,0,0,0,0,0,0,0,-1,797,757,0,0
-420,267,0,0,0,0,0,0,0,0,0,-1,804,757,0,0
-413,267,0,0,0,0,0,0,0,0,0,-1,811,757,0,0
-406,267,0,0,0,0,0,0,0,0,0,-1,818,757,0,0
-399,267,0,0,0,0,0,0,0,0,0,-1,825,757,0,0
-392,267,0,0,0,0,0,0,0,0,0,-1,832,757,0,0
-385,267,0,0,0,0,0,0,0,0,0,-1,839,757,0,0
-378,267,0,0,0,0,0,0,0,0,0,-1,846,757,0,0
-371,267,0,0,0,0,0,0,0,0,0,-1,853,757,0,0
-364,267,0,0,0,0,0,0,0,0,0,-1,860,757,0,0
-357,267,0,0,0,0,0,0,0,0,0,-1,867,757,0,0
-350,267,0,0,0,0,0,0,0,0,0,-1,874,757,0,0
-343,267,0,0,0,0,0,0,0,0,0,-1,881,757,0,0
-336,267,0,0,0,0,0,0,0,0,0,-1,888,757,0,0
-329,267,0,0,0,0,0,0,0,0,0,-1,895,757,0,0
-322,267,0,0,0,0,0,0,0,0,0,-1,902,757,0,0
-315,267,0,0,0,0,0,0,0,0,0,-1,909,757,0,0
-308,267,0,0,0,0,0,0,0,0,0,-1,916,757,0,0
-301,267,0,0,0,0,0,0,0,0,0,-1,923,757,0,0
-294,267,0,0,0,0,0,0,0,0,0,-1,930,757,0,0
-287,267,0,0,0,0,0,0,0,0,0,-1,937,757,0,0
-280,267,0,0,0,0,0,0,0,0,0,-1,944,757,0,0
-273,267,0,0,0,0,0,0,0,0,0,-1,951,757,0,0
-266,267,0,0,0,0,0,0,0,0,0,-1,958,757,0,0
-259,267,0,0,0,0,0,0,0,0,0,-1,965,757,0,0
-252,267,0,0,0,0,0,0,0,0,0,-1,972,757,0,0
-245,267,0,0,0,0,0,0,0,0,0,-1,979,757,0,0
-238,267,0,0,0,0,0,0,0,0,0,-1,986,757,0,0
-231,267,0,0,0,0,0,0,0,0,0,-1,993,757,0,0
-224,267,0,0,0,0,0,0,0,0,0,-1,1000,757,0,0
-217,267,0,0,0,0,0,0,0,0,0,-1,1007,757,0,0
-210,267,0,0,0,0,0,0,0,0,0,-1,1014,757,0,0
-203,267,0,0,0,0,0,0,0,0,0,-1,1021,757,0,0
-196,267,0,0,0,0,0,0,0,0,0,-1,1028,757,0,0
-189,267,0,0,0,0,0,0,0,0,0,-1,1035,757,0,0
-182,267,0,0,0,0,0,0,0,0,0,-1,1042,757,0,0
-175,267,0,0,0,0,0,0,0,0,0,-1,1049,757,0,0
-168,267,0,0,0,0,0,0,0,0,0,-1,1056,757,0,0
-161,267,0,0,0,0,0,0,0,0,0,-1,1063,757,0,0
-154,267,0,0,0,0,0,0,0,0,0,-1,1070,757,0,0
-147,267,0,0,0,0,0,0,0,0,0,-1,1077,757,0,0
-140,267,0,0,0,0,0,0,0,0,0,-1,1084,757,0,0
-133,267,0,0,0,0,0,0,0,0,0,-1,1091,757,0,0
-126,267,0,0,0,0,0,0,0,0,0,-1,1098,757,0,0
-119,267,0,0,0,0,0,0,0,0,0,-1,1105,757,0,0
-112,267,0,0,0,0,0,0,0,0,0,-1,1112,757,0,0
-105,267,0,0,0,0,0,0,0,0,0,-1,1119,757,0,0
-98,267,0,0,0,0,0,0,0,0,0,-1,1126,757,0,0
-91,267,0,0,0,0,0,0,0,0,0,-1,1133,757,0,0
-84,267,0,0,0,0,0,0,0,0,0,-1,1140,757,0,0
-77,267,0,0,0,0,0,0,0,0,0,-1,1147,757,0,0
-70,267,0,0,0,0,0,0,0,0,0,-1,1154,757,0,0
-63,267,0,0,0,0,0,0,0,0,0,-1,1161,757,0,0
-56,267,0,0,0,0,0,0,0,0,0,-1,1168,757,0,0
-49,267,0,0,0,0,0,0,0,0,0,-1,1175,757,0,0
-42,267,0,0,0,0,0,0,0,0,0,-1,1182,757,0,0
-35,267,0,0,0,0,0,0,0,0,0,-1,1189,757,0,0
-28,267,0,0,0,0,0,0,0,0,0,-1,1196,757,0,0
-21,267,0,0,0,0,0,0,0,0,0,-1,1203,757,0,0
-14,267,0,0,0,0,0,0,0,0,0,-1,1210,757,0,0
-7,267,0,0,0,0,0,0,0,0,0,-1,1217,757,0,0
0,267,0,0,0,0,0,0,0,0,0,-1,1224,757,0,0
7,267,0,0,0,0,0,0,0,0,0,-1,1231,757,0,0
14,267,0,0,0,0,0,0,0,0,0,-1,1238,757,0,0
21,267,0,0,0,0,0,0,0,0,0,-1,1245,757,0,0
28,267,0,0,0,0,0,0,0,0,0,-1,1252,757,0,0
35,267,0,0,0,0,0,0,0,0,0,-1,1259,757,0,0
42,267,0,0,0,0,0,0,0,0,0,-1,1266,757,0,0
49,267,0,0,0,0,0,0,0,0,0,-1,1273,757,0,0
56,267,0,0,0,0,0,0,0,0,0,-1,1280,757,0,0
63,267,0,0,0,0,0,0,0,0,0,-1,1287,757,0,0
70,267,0,0,0,0,0,0,0,0,0,-1,1294,757,0,0
77,267,0,0,0,0,0,0,0,0,0,-1,1301,757,0,0
84,267,0,0,0,0,0,0,0,0,0,-1,1308,757,0,0
91,267,0,0,0,0,0,0,0,0,0,-1,1315,757,0,0
98,267,0,0,0,0,0,0,0,0,0,-1,1322,757,0,0
105,267,0,0,0,0,0,0,0,0,0,-1,1329,757,0,0
112,267,0,0,0,0,0,0,0,0,0,-1,1336,757,0,0
119,267,0,0,0,0,0,0,0,0,0,-1,1343,757,0,0
126,267,0,0,0,0,0,0,0,0,0,-1,1350,757,0,0
133,267,0,0,0,0,0,0,0,0,0,-1,1357,757,0,0
140,267,0,0,0,0,0,0,0,0,0,-1,1364,757,0,0
147,267,0,0,0,0,0,0,0,0,0,-1,1371,757,0,0
154,267,0,0,0,0,0,0,0,0,0,-1,1378,757,0,0
161,267,0,0,0,0,0,0,0,0,0,-1,1385,757,0,0
168,267,0,0,0,0,0,0,0,0,0,-1,1392,757,0,0
175,267,0,0,0,0,0,0,0,0,0,-1,1399,757,0,0
182,267,0,0,0,0,0,0,0,0,0,-1,1406,757,0,0
189,267,0,0,0,0,0,0,0,0,0,-1,1413,757,0,0
196,267,0,0,0,0,0,0,0,0,0,-1,1420,757,0,0
203,267,0,0,0,0,0,0,0,0,0,-1,1427,757,0,0
210,267,0,0,0,0,0,0,0,0,0,-1,1434,757,0,0
217,267,0,0,0,0,0,0,0,0,0,-1,1441,757,0,0
224,267,0,0,0,0,0,0,0,0,0,-1,1448,757,0,0
231,267,0,0,0,0,0,0,0,0,0,-1,1455,757,0,0
238,267,0,0,0,0,0,0,0,0,0,-1,1462,757,0,0
245,267,0,0,0,0,0,0,0,0,0,-1,1469,757,0,0
252,267,0,0,0,0,0,0,0,0,0,-1,1476,757,0,0
259,267,0,0,0,0,0,0,0,0,0,-1,1483,757,0,0
266,267,0,0,0,0,0,0,0,0,0,-1,1490,757,0,0
273,267,0,0,0,0,0,0,0,0,0,-1,1497,757,0,0
280,267,0,0,0,0,0,0,0,0,0,-1,1504,757,0,0
287,267,0,0,0,0,0,0,0,0,0,-1,1511,757,0,0
294,267,0,0,0,0,0,0,0,0,0,-1,1518,757,0,0
301,267,0,0,0,0,0,0,0,0,0,-1,1525,757,0,0
308,267,0,0,0,0,0,0,0,0,0,-1,1532,757,0,0
315,267,0,0,0,0,0,0,0,0,0,-1,1539,757,0,0
322,267,0,0,0,0,0,0,0,0,0,-1,1546,757,0,0
329,267,0,0,0,0,0,0,0,0,0,-1,1553,757,0,0
336,267,0,0,0,0,0,0,0,0,0,-1,1560,757,0,0
343,267,0,0,0,0,0,0,0,0,0,-1,1567,757,0,0
350,267,0,0,0,0,0,0,0,0,0,-1,1574,757,0,0
357,267,0,0,0,0,0,0,0,0,0,-1,1581,757,0,0
364,267,0,0,0,0,0,0,0,0,0,-1,1588,757,0,0
371,267,0,0,0,0,0,0,0,0,0,-1,1595,757,0,0
378,267,0,0,0,0,0,0,0,0,0,-1,1602,757,0,0
385,267,0,0,0,0,0,0,0,0,0,-1,1609,757,0,0
392,267,0,0,0,0,0,0,0,0,0,-1,1616,757,0,0
399,267,0,0,0,0,0,0,0,0,0,-1,1623,757,0,0
406,267,0,0,0,0,0,0,0,0,0,-1,1630,757,0,0
413,267,0,0,0,0,0,0,0,0,0,-1,1637,757,0,0
420,267,0,0,0,0,0,0,0,0,0,-1,1644,757,0,0
427,267,0,0,0,0,0,0,0,0,0,-1,1651,757,0,0
434,267,0,0,0,0,0,0,0,0,0,-1,1658,757,0,0
441,267,0,0,0,0,0,0,0,0,0,-1,1665,757,0,0
448,267,0,0,0,0,0,0,0,0,0,-1,1672,757,0,0
455,267,0,0,0,0,0,0,0,0,0,-1,1679,757,0,0
462,267,0,0,0,0,0,0,0,0,0,-1,1686,757,0,0
469,267,0,0,0,0,0,0,0,0,0,-1,1693,757,0,0
476,267,0,0,0,0,0,0,0,0,0,-1,1700,757,0,0
483,267,0,0,0,0,0,0,0,0,0,-1,1707,757,0,0
490,267,0,0,0,0,0,0,0,0,0,-1,1714,757,0,0
497,267,0,0,0,0,0,0,0,0,0,-1,1721,757,0,0
504,267,0,0,0,0,0,0,0,0,0,-1,1728,757,0,0
511,267,0,0,0,0,0,0,0,0,0,-1,1735,757,0,0
518,267,0,0,0,0,0,0,0,0,0,-1,1742,757,0,0
525,267,0,0,0,0,0,0,0,0,0,-1,1749,757,0,0
532,267,0,0,0,0,0,0,0,0,0,-1,1756,757,0,0
539,267,0,0,0,0,0,0,0,0,0,-1,1763,757,0,0
546,267,0,0,0,0,0,0,0,0,0,-1,1770,757,0,0
553,267,0,0,0,0,0,0,0,0,0,-1,1777,757,0,0
560,267,0,0,0,0,0,0,0,0,0,-1,1784,757,0,0
567,267,58.0104,3.24304,0,0,0,0,0,0,0,-1,1791,757,58.0104,-3.24306
574,267,64.5414,2.91858,0,0,0,0,0,0,0,-1,1798,757,64.5414,-2.91855
581,267,58.374,2.95636,0,0,0,0,0,0,0,-1,1805,757,58.3741,-2.95639
588,267,65.9681,2.6438,0,0,0,0,0,0,0,-1,1812,757,65.9682,-2.64382
595,267,66.191,2.60791,0,0,0,0,0,0,0,-1,1819,757,66.191,-2.60792
602,267,66.4139,2.57202,0,0,0,0,0,0,0,-1,1826,757,66.4139,-2.57203
609,267,54.5498,3.24054,0,0,0,0,0,0,0,-1,1833,757,54.5498,-3.24052
616,267,44.2543,3.28918,0,0,0,0,0,0,0,-1,1840,757,44.2542,-3.28918
623,267,24.1475,-1.1391,0,0,0,0,0,0,0,-1,1847,757,24.1475,1.13913
630,267,40.7198,-5.42108,0,0,0,0,0,0,0,-1,1854,757,40.7198,5.4211
637,267,44.0834,-6.41412,0,0,0,0,0,0,0,-1,1861,757,44.0834,6.4141
644,267,44.0681,-5.56335,0.00229084,0.000497783,0.00185716,0.00345655,-0.000667925,0.560525,0.00255626,0.0201729,1868,757,44.0681,5.56335
651,267,44.0516,-4.67279,0.00144946,0.000142072,0.00100488,0.00199456,-0.000403027,0.497029,0.00148242,0.0156703,1875,757,44.0516,4.67278
658,267,44.0273,-3.8418,0.00123165,-0.000253399,0.000530772,0.00140185,-0.000423597,0.310302,0.00110321,0.01597,1882,757,44.0273,3.84177
665,267,43.9899,-3.01379,0.00115379,1.40097e-06,0.00035182,0.0012527,-9.75179e-05,0.274087,0.000869467,0.0170102,1889,757,43.9899,3.01378
672,267,43.9701,-2.2168,0.00108816,0.000445837,0.000332281,0.00122912,0.000304879,0.401206,0.000739055,0.0147589,1896,757,43.9701,2.2168
679,267,43.9337,-1.39758,0.00108241,0.00108987,0.00043664,0.0015228,0.000649484,0.789667,0.000882346,0.0136437,1903,757,43.9337,1.39759
686,267,43.8645,-0.555969,0.0011997,0.00199093,0.000678135,0.00238041,0.00081022,1.04945,0.00139748,0.0172031,1910,757,43.8645,0.555969
693,267,43.7762,0.226624,0.00144186,0.00299631,0.00105421,0.00352883,0.000909345,1.10305,0.00211562,0.017121,1917,757,43.7762,-0.226599
700,267,43.73,1.0658,0.00186085,0.00415202,0.00158922,0.00496551,0.00104736,1.09769,0.00302233,0.0169161,1924,757,43.73,-1.06582
707,267,43.7218,1.89569,0.00222947,0.00519857,0.00217953,0.00635111,0.00107693,1.08437,0.00392466,0.0216875,1931,757,43.7219,-1.89567
714,267,43.8031,2.80402,0.00268066,0.00642202,0.00297889,0.0080689,0.00103378,1.06577,0.00506993,0.048301,1938,757,43.8031,-2.80402
721,267,44.0142,3.7757,0,0,0,0,0,0,0,-1,1945,757,44.0141,-3.77571
728,267,26.7886,3.90027,0,0,0,0,0,0,0,-1,1952,757,26.7886,-3.90028
735,267,24.6713,2.82483,0,0,0,0,0,0,0,-1,1959,757,24.6713,-2.82483
742,267,18.1177,3.56561,0,0,0,0,0,0,0,-1,1966,757,18.1176,-3.56564
749,267,0,0,0,0,0,0,0,0,0,-1,1973,757,0,0
756,267,0,0,0,0,0,0,0,0,0,-1,1980,757,0,0
763,267,0,0,0,0,0,0,0,0,0,-1,1987,757,0,0
770,267,0,0,0,0,0,0,0,0,0,-1,1994,757,0,0
777,267,0,0,0,0,0,0,0,0,0,-1,2001,757,0,0
784,267,0,0,0,0,0,0,0,0,0,-1,2008,757,0,0
791,267,0,0,0,0,0,0,0,0,0,-1,2015,757,0,0
798,267,0,0,0,0,0,0,0,0,0,-1,2022,757,0,0
805,267,0,0,0,0,0,0,0,0,0,-1,2029,757,0,0
812,267,0,0,0,0,0,0,0,0,0,-1,2036,757,0,0
-700,260,0,0,0,0,0,0,0,0,0,-1,524,764,0,0
-693,260,0,0,0,0,0,0,0,0,0,-1,531,764,0,0
-686,260,0,0,0,0,0,0,0,0,0,-1,538,764,0,0
-679,260,0,0,0,0,0,0,0,0,0,-1,545,764,0,0
-672,260,0,0,0,0,0,0,0,0,0,-1,552,764,0,0
-665,260,0,0,0,0,0,0,0,0,0,-1,559,764,0,0
-658,260,0,0,0,0,0,0,0,0,0,-1,566,764,0,0
-651,260,0,0,0,0,0,0,0,0,0,-1,573,764,0,0
-644,260,0,0,0,0,0,0,0,0,0,-1,580,764,0,0
-637,260,0,0,0,0,0,0,0,0,0,-1,587,764,0,0
-630,260,-21.8905,4.49341,0,0,0,0,0,0,0,-1,594,764,-21.8905,-4.49342
-623,260,-20.3127,3.53546,0,0,0,0,0,0,0,-1,601,764,-20.3127,-3.53544
-616,260,-23.4346,3.65009,0,0,0,0,0,0,0,-1,608,764,-23.4345,-3.65008
-609,260,-27.8874,4.42004,0,0,0,0,0,0,0,-1,615,764,-27.8874,-4.42005
-602,260,-31.7818,4.59277,0,0,0,0,0,0,0,-1,622,764,-31.7818,-4.59277
-595,260,-31.0447,2.51587,0,0,0,0,0,0,0,-1,629,764,-31.0447,-2.51587
-588,260,-30.8557,1.57166,0.00542367,0.00405521,-0.000647448,0.00568144,0.00379744,-0.378892,0.00334161,0.044946,636,764,-30.8557,-1.57167
-581,260,-30.6893,0.664429,0.00370289,0.00394915,-0.000881635,0.00471621,0.00293583,-0.854781,0.00275001,0.030366,643,764,-30.6893,-0.664433
-574,260,-30.6822,-0.131897,0.00247277,0.00367449,-0.000741095,0.0040277,0.00211956,-1.12604,0.00232646,0.0209065,650,764,-30.6822,0.131882
-567,260,-30.7269,-0.909363,0.00156802,0.00272026,-0.000359476,0.00282321,0.00146507,-1.29187,0.00163037,0.0199865,657,764,-30.7269,0.909363
-560,260,-30.765,-1.70685,0.0007799,0.00174542,7.07249e-05,0.00175057,0.000774747,1.49806,0.00101291,0.0215905,664,764,-30.765,1.70684
-553,260,-30.8197,-2.53156,-3.35963e-05,0.000609926,0.000621103,0.000987664,-0.000411334,1.02439,0.000830244,0.0173581,671,764,-30.8197,2.53158
-546,260,-30.8791,-3.362,-0.000801976,-0.000688492,0.00127407,0.000530098,-0.00202057,0.807651,0.00155417,0.0117455,678,764,-30.8791,3.36201
-539,260,-30.8782,-4.1626,-0.00165544,-0.00177903,0.00183607,0.000119876,-0.00355435,0.768577,0.00241052,0.0142295,685,764,-30.8782,4.16258
-532,260,-30.8857,-4.91644,-0.00232414,-0.00191112,0.00191034,-0.000196161,-0.0040391,0.839239,0.00262978,0.0193752,692,764,-30.8857,4.91642
-525,260,-30.9828,-5.73608,-0.00256584,-0.00136262,0.00160655,-0.000248732,-0.00367973,0.964552,0.00237459,0.016824,699,764,-30.9828,5.73608
-518,260,-31.1456,-6.5199,-0.00246186,-0.000239192,0.00123125,0.000308103,-0.00300915,1.15252,0.00211629,0.0255495,706,764,-31.1456,6.51987
-511,260,-31.2126,-7.31689,-0.002468,0.00108564,0.000643513,0.00119858,-0.00258094,1.39706,0.00223023,0.0462684,713,764,-31.2126,7.31689
-504,260,-31.4354,-8.07745,0,0,0,0,0,0,0,-1,720,764,-31.4354,8.07743
-497,260,-16.6542,-3.67334,0,0,0,0,0,0,0,-1,727,764,-16.6542,3.67331
-490,260,-29.4557,0.921387,0,0,0,0,0,0,0,-1,734,764,-29.4557,-0.921369
-483,260,-40.8972,1.04193,0,0,0,0,0,0,0,-1,741,764,-40.8972,-1.04193
-476,260,-50.0951,1.50824,0,0,0,0,0,0,0,-1,748,764,-50.0951,-1.50822
-469,260,-50.2935,0.936829,0,0,0,0,0,0,0,-1,755,764,-50.2935,-0.936857
-462,260,-51.2118,0.435242,0,0,0,0,0,0,0,-1,762,764,-51.2118,-0.435234
-455,260,-51.2557,0.441772,0,0,0,0,0,0,0,-1,769,764,-51.2557,-0.441749
-448,260,0,0,0,0,0,0,0,0,0,-1,776,764,0,0
-441,260,0,0,0,0,0,0,0,0,0,-1,783,764,0,0
-434,260,0,0,0,0,0,0,0,0,0,-1,790,764,0,0
-427,260,0,0,0,0,0,0,0,0,0,-1,797,764,0,0
-420,260,0,0,0,0,0,0,0,0,0,-1,804,764,0,0
-413,260,0,0,0,0,0,0,0,0,0,-1,811,764,0,0
-406,260,0,0,0,0,0,0,0,0,0,-1,818,764,0,0
-399,260,0,0,0,0,0,0,0,0,0,-1,825,764,0,0
-392,260,0,0,0,0,0,0,0,0,0,-1,832,764,0,0
-385,260,0,0,0,0,0,0,0,0,0,-1,839,764,0,0
-378,260,0,0,0,0,0,0,0,0,0,-1,846,764,0,0
-371,260,0,0,0,0,0,0,0,0,0,-1,853,764,0,0
-364,260,0,0,0,0,0,0,0,0,0,-1,860,764,0,0
-357,260,0,0,0,0,0,0,0,0,0,-1,867,764,0,0
-350,260,0,0,0,0,0,0,0,0,0,-1,874,764,0,0
-343,260,0,0,0,0,0,0,0,0,0,-1,881,764,0,0
-336,260,0,0,0,0,0,0,0,0,0,-1,888,764,0,0
-329,260,0,0,0,0,0,0,0,0,0,-1,895,764,0,0
-322,260,0,0,0,0,0,0,0,0,0,-1,902,764,0,0
-315,260,0,0,0,0,0,0,0,0,0,-1,909,764,0,0
-308,260,0,0,0,0,0,0,0,0,0,-1,916,764,0,0
-301,260,0,0,0,0,0,0,0,0,0,-1,923,764,0,0
-294,260,0,0,0,0,0,0,0,0,0,-1,930,764,0,0
-287,260,0,0,0,0,0,0,0,0,0,-1,937,764,0,0
-280,260,0,0,0,0,0,0,0,0,0,-1,944,764,0,0
-273,260,0,0,0,0,0,0,0,0,0,-1,951,764,0,0
-266,260,0,0,0,0,0,0,0,0,0,-1,958,764,0,0
-259,260,0,0,0,0,0,0,0,0,0,-1,965,764,0,0
-252,260,0,0,0,0,0,0,0,0,0,-1,972,764,0,0
-245,260,0,0,0,0,0,0,0,0,0,-1,979,764,0,0
-238,260,0,0,0,0,0,0,0,0,0,-1,986,764,0,0
-231,260,0,0,0,0,0,0,0,0,0,-1,993,764,0,0
-224,260,0,0,0,0,0,0,0,0,0,-1,1000,764,0,0
-217,260,0,0,0,0,0,0,0,0,0,-1,1007,764,0,0
-210,260,0,0,0,0,0,0,0,0,0,-1,1014,764,0,0
-203,260,0,0,0,0,0,0,0,0,0,-1,1021,764,0,0
-196,260,0,0,0,0,0,0,0,0,0,-1,1028,764,0,0
-189,260,0,0,0,0,0,0,0,0,0,-1,1035,764,0,0
-182,260,0,0,0,0,0,0,0,0,0,-1,1042,764,0,0
-175,260,0,0,0,0,0,0,0,0,0,-1,1049,764,0,0
-168,260,0,0,0,0,0,0,0,0,0,-1,1056,764,0,0
-161,260,0,0,0,0,0,0,0,0,0,-1,1063,764,0,0
-154,260,0,0,0,0,0,0,0,0,0,-1,1070,764,0,0
-147,260,0,0,0,0,0,0,0,0,0,-1,1077,764,0,0
-140,260,0,0,0,0,0,0,0,0,0,-1,1084,764,0,0
-133,260,0,0,0,0,0,0,0,0,0,-1,1091,764,0,0
-126,260,0,0,0,0,0,0,0,0,0,-1,1098,764,0,0
-119,260,0,0,0,0,0,0,0,0,0,-1,1105,764,0,0
-112,260,0,0,0,0,0,0,0,0,0,-1,1112,764,0,0
-105,260,0,0,0,0,0,0,0,0,0,-1,1119,764,0,0
-98,260,0,0,0,0,0,0,0,0,0,-1,1126,764,0,0
-91,260,0,0,0,0,0,0,0,0,0,-1,1133,764,0,0
-84,260,0,0,0,0,0,0,0,0,0,-1,1140,764,0,0
-77,260,0,0,0,0,0,0,0,0,0,-1,1147,764,0,0
-70,260,0,0,0,0,0,0,0,0,0,-1,1154,764,0,0
-63,260,0,0,0,0,0,0,0,0,0,-1,1161,764,0,0
-56,260,0,0,0,0,0,0,0,0,0,-1,1168,764,0,0
-49,260,0,0,0,0,0,0,0,0,0,-1,1175,764,0,0
-42,260,0,0,0,0,0,0,0,0,0,-1,1182,764,0,0
-35,260,0,0,0,0,0,0,0,0,0,-1,1189,764,0,0
-28,260,0,0,0,0,0,0,0,0,0,-1,1196,764,0,0
-21,260,0,0,0,0,0,0,0,0,0,-1,1203,764,0,0
-14,260,0,0,0,0,0,0,0,0,0,-1,1210,764,0,0
-7,260,0,0,0,0,0,0,0,0,0,-1,1217,764,0,0
0,260,0,0,0,0,0,0,0,0,0,-1,1224,764,0,0
7,260,0,0,0,0,0,0,0,0,0,-1,1231,764,0,0
14,260,0,0,0,0,0,0,0,0,0,-1,1238,764,0,0
21,260,0,0,0,0,0,0,0,0,0,-1,1245,764,0,0
28,260,0,0,0,0,0,0,0,0,0,-1,1252,764,0,0
35,260,0,0,0,0,0,0,0,0,0,-1,1259,764,0,0
42,260,0,0,0,0,0,0,0,0,0,-1,1266,764,0,0
49,260,0,0,0,0,0,0,0,0,0,-1,1273,764,0,0
56,260,0,0,0,0,0,0,0,0,0,-1,1280,764,0,0
63,260,0,0,0,0,0,0,0,0,0,-1,1287,764,0,0
70,260,0,0,0,0,0,0,0,0,0,-1,1294,764,0,0
77,260,0,0,0,0,0,0,0,0,0,-1,1301,764,0,0
84,260,0,0,0,0,0,0,0,0,0,-1,1308,764,0,0
91,260,0,0,0,0,0,0,0,0,0,-1,1315,764,0,0
98,260,0,0,0,0,0,0,0,0,0,-1,1322,764,0,0
105,260,0,0,0,0,0,0,0,0,0,-1,1329,764,0,0
112,260,0,0,0,0,0,0,0,0,0,-1,1336,764,0,0
119,260,0,0,0,0,0,0,0,0,0,-1,1343,764,0,0
126,260,0,0,0,0,0,0,0,0,0,-1,1350,764,0,0
133,260,0,0,0,0,0,0,0,0,0,-1,1357,764,0,0
140,260,0,0,0,0,0,0,0,0,0,-1,1364,764,0,0
147,260,0,0,0,0,0,0,0,0,0,-1,1371,764,0,0
154,260,0,0,0,0,0,0,0,0,0,-1,1378,764,0,0
161,260,0,0,0,0,0,0,0,0,0,-1,1385,764,0,0
168,260,0,0,0,0,0,0,0,0,0,-1,1392,764,0,0
175,260,0,0,0,0,0,0,0,0,0,-1,1399,764,0,0
182,260,0,0,0,0,0,0,0,0,0,-1,1406,764,0,0
189,260,0,0,0,0,0,0,0,0,0,-1,1413,764,0,0
196,260,0,0,0,0,0,0,0,0,0,-1,1420,764,0,0
203,260,0,0,0,0,0,0,0,0,0,-1,1427,764,0,0
210,260,0,0,0,0,0,0,0,0,0,-1,1434,764,0,0
217,260,0,0,0,0,0,0,0,0,0,-1,1441,764,0,0
224,260,0,0,0,0,0,0,0,0,0,-1,1448,764,0,0
231,260,0,0,0,0,0,0,0,0,0,-1,1455,764,0,0
238,260,0,0,0,0,0,0,0,0,0,-1,1462,764,0,0
245,260,0,0,0,0,0,0,0,0,0,-1,1469,764,0,0
252,260,0,0,0,0,0,0,0,0,0,-1,1476,764,0,0
259,260,0,0,0,0,0,0,0,0,0,-1,1483,764,0,0
266,260,0,0,0,0,0,0,0,0,0,-1,1490,764,0,0
273,260,0,0,0,0,0,0,0,0,0,-1,1497,764,0,0
280,260,0,0,0,0,0,0,0,0,0,-1,1504,764,0,0
287,260,0,0,0,0,0,0,0,0,0,-1,1511,764,0,0
294,260,0,0,0,0,0,0,0,0,0,-1,1518,764,0,0
301,260,0,0,0,0,0,0,0,0,0,-1,1525,764,0,0
308,260,0,0,0,0,0,0,0,0,0,-1,1532,764,0,0
315,260,0,0,0,0,0,0,0,0,0,-1,1539,764,0,0
322,260,0,0,0,0,0,0,0,0,0,-1,1546,764,0,0
329,260,0,0,0,0,0,0,0,0,0,-1,1553,764,0,0
336,260,0,0,0,0,0,0,0,0,0,-1,1560,764,0,0
343,260,0,0,0,0,0,0,0,0,0,-1,1567,764,0,0
350,260,0,0,0,0,0,0,0,0,0,-1,1574,764,0,0
357,260,0,0,0,0,0,0,0,0,0,-1,1581,764,0,0
364,260,0,0,0,0,0,0,0,0,0,-1,1588,764,0,0
371,260,0,0,0,0,0,0,0,0,0,-1,1595,764,0,0
378,260,0,0,0,0,0,0,0,0,0,-1,1602,764,0,0
385,260,0,0,0,0,0,0,0,0,0,-1,1609,764,0,0
392,260,0,0,0,0,0,0,0,0,0,-1,1616,764,0,0
399,260,0,0,0,0,0,0,0,0,0,-1,1623,764,0,0
406,260,0,0,0,0,0,0,0,0,0,-1,1630,764,0,0
413,260,0,0,0,0,0,0,0,0,0,-1,1637,764,0,0
420,260,0,0,0,0,0,0,0,0,0,-1,1644,764,0,0
427,260,0,0,0,0,0,0,0,0,0,-1,1651,764,0,0
434,260,0,0,0,0,0,0,0,0,0,-1,1658,764,0,0
441,260,0,0,0,0,0,0,0,0,0,-1,1665,764,0,0
448,260,0,0,0,0,0,0,0,0,0,-1,1672,764,0,0
455,260,0,0,0,0,0,0,0,0,0,-1,1679,764,0,0
462,260,0,0,0,0,0,0,0,0,0,-1,1686,764,0,0
469,260,0,0,0,0,0,0,0,0,0,-1,1693,764,0,0
476,260,0,0,0,0,0,0,0,0,0,-1,1700,764,0,0
483,260,0,0,0,0,0,0,0,0,0,-1,1707,764,0,0
490,260,0,0,0,0,0,0,0,0,0,-1,1714,764,0,0
497,260,0,0,0,0,0,0,0,0,0,-1,1721,764,0,0
504,260,0,0,0,0,0,0,0,0,0,-1,1728,764,0,0
511,260,0,0,0,0,0,0,0,0,0,-1,1735,764,0,0
518,260,0,0,0,0,0,0,0,0,0,-1,1742,764,0,0
525,260,0,0,0,0,0,0,0,0,0,-1,1749,764,0,0
532,260,0,0,0,0,0,0,0,0,0,-1,1756,764,0,0
539,260,0,0,0,0,0,0,0,0,0,-1,1763,764,0,0
546,260,0,0,0,0,0,0,0,0,0,-1,1770,764,0,0
553,260,0,0,0,0,0,0,0,0,0,-1,1777,764,0,0
560,260,0,0,0,0,0,0,0,0,0,-1,1784,764,0,0
567,260,0,0,0,0,0,0,0,0,0,-1,1791,764,0,0
574,260,67.4937,2.27057,0,0,0,0,0,0,0,-1,1798,764,67.4936,-2.27055
581,260,67.6271,2.38525,0,0,0,0,0,0,0,-1,1805,764,67.6271,-2.38524
588,260,67.7836,2.5332,0,0,0,0,0,0,0,-1,1812,764,67.7836,-2.53322
595,260,66.1678,2.56989,0,0,0,0,0,0,0,-1,1819,764,66.1678,-2.56989
602,260,65.9274,2.69824,0,0,0,0,0,0,0,-1,1826,764,65.9274,-2.69825
609,260,65.4674,3.08105,0,0,0,0,0,0,0,-1,1833,764,65.4673,-3.08107
616,260,46.0709,2.74542,0,0,0,0,0,0,0,-1,1840,764,46.0709,-2.74545
623,260,32.2268,3.25836,0,0,0,0,0,0,0,-1,1847,764,32.2268,-3.25833
630,260,24.3739,-0.536316,0,0,0,0,0,0,0,-1,1854,764,24.3739,0.536343
637,260,42.7155,-5.35486,0,0,0,0,0,0,0,-1,1861,764,42.7154,5.35488
644,260,45.0903,-5.50769,0,0,0,0,0,0,0,-1,1868,764,45.0903,5.5077
651,260,44.9712,-4.59381,0.00147533,0.000261184,0.000954522,0.00199947,-0.00026296,0.502164,0.00142872,0.0226691,1875,764,44.9712,4.59381
658,260,44.8279,-3.77063,0.00131049,-0.000293228,0.000406449,0.00140761,-0.000390357,0.23457,0.00109204,0.0177645,1882,764,44.8278,3.77064
665,260,44.7789,-2.96301,0.00122885,-0.000196763,0.000168986,0.00124861,-0.00021652,0.116387,0.000913177,0.0178293,1889,764,44.7789,2.96304
672,260,44.7767,-2.15411,0.00110065,6.59578e-05,9.65138e-05,0.00110957,5.70321e-05,0.0922181,0.000721455,0.0145779,1896,764,44.7767,2.15411
679,260,44.7198,-1.33868,0.00101958,0.000529923,0.000150089,0.00106193,0.00048758,0.274973,0.000613786,0.0130448,1903,764,44.7199,1.3387
686,260,44.6425,-0.505005,0.00109359,0.00134847,0.000361498,0.00160433,0.000837728,0.954861,0.000926566,0.0211131,1910,764,44.6424,0.505016
693,260,44.5594,0.254272,0.00129678,0.00225397,0.000699681,0.00262308,0.000927665,1.08536,0.00153591,0.0214801,1917,764,44.5595,-0.254289
700,260,44.5117,1.07275,0.00165981,0.00328872,0.00118898,0.00391545,0.00103308,1.08569,0.00234313,0.0165109,1924,764,44.5117,-1.07273
707,260,44.5284,1.90234,0.00202238,0.00425455,0.00175618,0.00521928,0.00105764,1.06846,0.00318604,0.0174487,1931,764,44.5284,-1.90234
714,260,44.5347,2.74066,0.00245557,0.00534033,0.00251042,0.00679323,0.00100266,1.04615,0.00423436,0.0352411,1938,764,44.5346,-2.74065
721,260,44.5063,3.56555,0,0,0,0,0,0,0,-1,1945,764,44.5063,-3.56558
728,260,33.4344,5.75409,0,0,0,0,0,0,0,-1,1952,764,33.4345,-5.75408
735,260,26.9788,4.85681,0,0,0,0,0,0,0,-1,1959,764,26.9787,-4.85678
742,260,32.1443,1.73688,0,0,0,0,0,0,0,-1,1966,764,32.1442,-1.73688
749,260,33.6013,2.94733,0,0,0,0,0,0,0,-1,1973,764,33.6013,-2.9473
756,260,0,0,0,0,0,0,0,0,0,-1,1980,764,0,0
763,260,0,0,0,0,0,0,0,0,0,-1,1987,764,0,0
770,260,0,0,0,0,0,0,0,0,0,-1,1994,764,0,0
777,260,0,0,0,0,0,0,0,0,0,-1,2001,764,0,0
784,260,0,0,0,0,0,0,0,0,0,-1,2008,764,0,0
791,260,0,0,0,0,0,0,0,0,0,-1,2015,764,0,0
798,260,0,0,0,0,0,0,0,0,0,-1,2022,764,0,0
805,260,0,0,0,0,0,0,0,0,0,-1,2029,764,0,0
812,260,0,0,0,0,0,0,0,0,0,-1,2036,764,0,0
-700,253,0,0,0,0,0,0,0,0,0,-1,524,771,0,0
-693,253,0,0,0,0,0,0,0,0,0,-1,531,771,0,0
-686,253,0,0,0,0,0,0,0,0,0,-1,538,771,0,0
-679,253,0,0,0,0,0,0,0,0,0,-1,545,771,0,0
-672,253,0,0,0,0,0,0,0,0,0,-1,552,771,0,0
-665,253,0,0,0,0,0,0,0,0,0,-1,559,771,0,0
-658,253,0,0,0,0,0,0,0,0,0,-1,566,771,0,0
-651,253,0,0,0,0,0,0,0,0,0,-1,573,771,0,0
-644,253,0,0,0,0,0,0,0,0,0,-1,580,771,0,0
-637,253,-24.7979,-0.491394,0,0,0,0,0,0,0,-1,587,771,-24.7978,0.491371
-630,253,-25.156,0.540405,0,0,0,0,0,0,0,-1,594,771,-25.156,-0.540421
-623,253,-20.808,2.84314,0,0,0,0,0,0,0,-1,601,771,-20.8081,-2.84312
-616,253,-25.0877,2.96875,0,0,0,0,0,0,0,-1,608,771,-25.0877,-2.96876
-609,253,-24.28,2.08228,0,0,0,0,0,0,0,-1,615,771,-24.2801,-2.08227
-602,253,-31.593,2.33899,0,0,0,0,0,0,0,-1,622,771,-31.593,-2.33901
-595,253,-31.5155,1.80945,0.0059419,0.00265224,-0.000545936,0.00603014,0.00256401,-0.160235,0.00349446,0.0462156,629,771,-31.5155,-1.80944
-588,253,-31.5438,1.33722,0.00446564,0.00325626,-0.000749773,0.00482418,0.00289773,-0.446054,0.002804,0.0364797,636,771,-31.5437,-1.33725
-581,253,-31.4614,0.648315,0.00314967,0.0032641,-0.000905752,0.00411444,0.00229933,-0.816941,0.00238095,0.0263165,643,771,-31.4614,-0.648333
-574,253,-31.4757,-0.124939,0.00213861,0.00299228,-0.000721218,0.00340351,0.00172739,-1.05259,0.00196509,0.022469,650,771,-31.4757,0.124962
-567,253,-31.5521,-0.957581,0.00134085,0.0021433,-0.000324899,0.00225835,0.0012258,-1.23046,0.00130545,0.0182632,657,771,-31.5521,0.957572
-560,253,-31.5524,-1.69299,0.000617748,0.00119122,0.000157566,0.00123166,0.000577307,1.31956,0.000711563,0.014498,664,771,-31.5524,1.69297
-553,253,-31.5984,-2.48303,-0.000162097,9.55901e-05,0.000763365,0.000740909,-0.000807416,0.869002,0.000894201,0.0129787,671,771,-31.5984,2.483
-546,253,-31.6771,-3.28491,-0.000857462,-0.00107535,0.00142535,0.000463102,-0.00239591,0.747256,0.00177193,0.0114833,678,771,-31.6771,3.28494
-539,253,-31.7417,-4.10303,-0.00161227,-0.00187187,0.00186758,0.000130014,-0.00361415,0.750703,0.00245392,0.014069,685,771,-31.7417,4.10302
-532,253,-31.7417,-4.89917,-0.00209444,-0.00138486,0.00165085,-5.11021e-05,-0.0034282,0.891245,0.00226862,0.019542,692,771,-31.7417,4.89914
-525,253,-31.7828,-5.71411,-0.00214635,-0.000415995,0.00114204,0.000151584,-0.00271393,1.10956,0.00186187,0.0231202,699,771,-31.7828,5.71413
-518,253,-31.9783,-6.58557,-0.00191407,0.000961213,0.000674112,0.00111141,-0.00206427,1.35157,0.00186079,0.0419394,706,771,-31.9783,6.58558
-511,253,-32.3389,-7.33728,0,0,0,0,0,0,0,-1,713,771,-32.3389,7.33731
-504,253,-19.317,-4.1723,0,0,0,0,0,0,0,-1,720,771,-19.317,4.1723
-497,253,-21.7737,-1.76837,0,0,0,0,0,0,0,-1,727,771,-21.7738,1.7684
-490,253,-29.7674,0.438354,0,0,0,0,0,0,0,-1,734,771,-29.7674,-0.438339
-483,253,-45.4489,1.59302,0,0,0,0,0,0,0,-1,741,771,-45.4489,-1.59303
-476,253,-50.4172,1.43842,0,0,0,0,0,0,0,-1,748,771,-50.4172,-1.43843
-469,253,-52.0919,1.52789,0,0,0,0,0,0,0,-1,755,771,-52.0919,-1.52791
-462,253,-51.2089,0.674683,0,0,0,0,0,0,0,-1,762,771,-51.2089,-0.674659
-455,253,-51.2889,0.6922,0,0,0,0,0,0,0,-1,769,771,-51.2889,-0.692183
-448,253,0,0,0,0,0,0,0,0,0,-1,776,771,0,0
-441,253,0,0,0,0,0,0,0,0,0,-1,783,771,0,0
-434,253,0,0,0,0,0,0,0,0,0,-1,790,771,0,0
-427,253,0,0,0,0,0,0,0,0,0,-1,797,771,0,0
-420,253,0,0,0,0,0,0,0,0,0,-1,804,771,0,0
-413,253,0,0,0,0,0,0,0,0,0,-1,811,771,0,0
-406,253,0,0,0,0,0,0,0,0,0,-1,818,771,0,0
-399,253,0,0,0,0,0,0,0,0,0,-1,825,771,0,0
-392,253,0,0,0,0,0,0,0,0,0,-1,832,771,0,0
-385,253,0,0,0,0,0,0,0,0,0,-1,839,771,0,0
-378,253,0,0,0,0,0,0,0,0,0,-1,846,771,0,0
-371,253,0,0,0,0,0,0,0,0,0,-1,853,771,0,0
-364,253,0,0,0,0,0,0,0,0,0,-1,860,771,0,0
-357,253,0,0,0,0,0,0,0,0,0,-1,867,771,0,0
-350,253,0,0,0,0,0,0,0,0,0,-1,874,771,0,0
-343,253,0,0,0,0,0,0,0,0,0,-1,881,771,0,0
-336,253,0,0,0,0,0,0,0,0,0,-1,888,771,0,0
-329,253,0,0,0,0,0,0,0,0,0,-1,895,771,0,0
-322,253,0,0,0,0,0,0,0,0,0,-1,902,771,0,0
-315,253,0,0,0,0,0,0,0,0,0,-1,909,771,0,0
-308,253,0,0,0,0,0,0,0,0,0,-1,916,771,0,0
-301,253,0,0,0,0,0,0,0,0,0,-1,923,771,0,0
-294,253,0,0,0,0,0,0,0,0,0,-1,930,771,0,0
-287,253,0,0,0,0,0,0,0,0,0,-1,937,771,0,0
-280,253,0,0,0,0,0,0,0,0,0,-1,944,771,0,0
-273,253,0,0,0,0,0,0,0,0,0,-1,951,771,0,0
-266,253,0,0,0,0,0,0,0,0,0,-1,958,771,0,0
-259,253,0,0,0,0,0,0,0,0,0,-1,965,771,0,0
-252,253,0,0,0,0,0,0,0,0,0,-1,972,771,0,0
-245,253,0,0,0,0,0,0,0,0,0,-1,979,771,0,0
-238,253,0,0,0,0,0,0,0,0,0,-1,986,771,0,0
-231,253,0,0,0,0,0,0,0,0,0,-1,993,771,0,0
-224,253,0,0,0,0,0,0,0,0,0,-1,1000,771,0,0
-217,253,0,0,0,0,0,0,0,0,0,-1,1007,771,0,0
-210,253,0,0,0,0,0,0,0,0,0,-1,1014,771,0,0
-203,253,0,0,0,0,0,0,0,0,0,-1,1021,771,0,0
-196,253,0,0,0,0,0,0,0,0,0,-1,1028,771,0,0
-189,253,0,0,0,0,0,0,0,0,0,-1,1035,771,0,0
-182,253,0,0,0,0,0,0,0,0,0,-1,1042,771,0,0
-175,253,0,0,0,0,0,0,0,0,0,-1,1049,771,0,0
-168,253,0,0,0,0,0,0,0,0,0,-1,1056,771,0,0
-161,253,0,0,0,0,0,0,0,0,0,-1,1063,771,0,0
-154,253,0,0,0,0,0,0,0,0,0,-1,1070,771,0,0
-147,253,0,0,0,0,0,0,0,0,0,-1,1077,771,0,0
-140,253,0,0,0,0,0,0,0,0,0,-1,1084,771,0,0
-133,253,0,0,0,0,0,0,0,0,0,-1,1091,771,0,0
-126,253,0,0,0,0,0,0,0,0,0,-1,1098,771,0,0
-119,253,0,0,0,0,0,0,0,0,0,-1,1105,771,0,0
-112,253,0,0,0,0,0,0,0,0,0,-1,1112,771,0,0
-105,253,0,0,0,0,0,0,0,0,0,-1,1119,771,0,0
-98,253,0,0,0,0,0,0,0,0,0,-1,1126,771,0,0
-91,253,0,0,0,0,0,0,0,0,0,-1,1133,771,0,0
-84,253,0,0,0,0,0,0,0,0,0,-1,1140,771,0,0
-77,253,0,0,0,0,0,0,0,0,0,-1,1147,771,0,0
-70,253,0,0,0,0,0,0,0,0,0,-1,1154,771,0,0
-63,253,0,0,0,0,0,0,0,0,0,-1,1161,771,0,0
-56,253,0,0,0,0,0,0,0,0,0,-1,1168,771,0,0
-49,253,0,0,0,0,0,0,0,0,0,-1,1175,771,0,0
-42,253,0,0,0,0,0,0,0,0,0,-1,1182,771,0,0
-35,253,0,0,0,0,0,0,0,0,0,-1,1189,771,0,0
-28,253,0,0,0,0,0,0,0,0,0,-1,1196,771,0,0
-21,253,0,0,0,0,0,0,0,0,0,-1,1203,771,0,0
-14,253,0,0,0,0,0,0,0,0,0,-1,1210,771,0,0
-7,253,0,0,0,0,0,0,0,0,0,-1,1217,771,0,0
0,253,0,0,0,0,0,0,0,0,0,-1,1224,771,0,0
7,253,0,0,0,0,0,0,0,0,0,-1,1231,771,0,0
14,253,0,0,0,0,0,0,0,0,0,-1,1238,771,0,0
21,253,0,0,0,0,0,0,0,0,0,-1,1245,771,0,0
28,253,0,0,0,0,0,0,0,0,0,-1,1252,771,0,0
35,253,0,0,0,0,0,0,0,0,0,-1,1259,771,0,0
42,253,0,0,0,0,0,0,0,0,0,-1,1266,771,0,0
49,253,0,0,0,0,0,0,0,0,0,-1,1273,771,0,0
56,253,0,0,0,0,0,0,0,0,0,-1,1280,771,0,0
63,253,0,0,0,0,0,0,0,0,0,-1,1287,771,0,0
70,253,0,0,0,0,0,0,0,0,0,-1,1294,771,0,0
77,253,0,0,0,0,0,0,0,0,0,-1,1301,771,0,0
84,253,0,0,0,0,0,0,0,0,0,-1,1308,771,0,0
91,253,0,0,0,0,0,0,0,0,0,-1,1315,771,0,0
98,253,0,0,0,0,0,0,0,0,0,-1,1322,771,0,0
105,253,0,0,0,0,0,0,0,0,0,-1,1329,771,0,0
112,253,0,0,0,0,0,0,0,0,0,-1,1336,771,0,0
119,253,0,0,0,0,0,0,0,0,0,-1,1343,771,0,0
126,253,0,0,0,0,0,0,0,0,0,-1,1350,771,0,0
133,253,0,0,0,0,0,0,0,0,0,-1,1357,771,0,0
140,253,0,0,0,0,0,0,0,0,0,-1,1364,771,0,0
147,253,0,0,0,0,0,0,0,0,0,-1,1371,771,0,0
154,253,0,0,0,0,0,0,0,0,0,-1,1378,771,0,0
161,253,0,0,0,0,0,0,0,0,0,-1,1385,771,0,0
168,253,0,0,0,0,0,0,0,0,0,-1,1392,771,0,0
175,253,0,0,0,0,0,0,0,0,0,-1,1399,771,0,0
182,253,0,0,0,0,0,0,0,0,0,-1,1406,771,0,0
189,253,0,0,0,0,0,0,0,0,0,-1,1413,771,0,0
196,253,0,0,0,0,0,0,0,0,0,-1,1420,771,0,0
203,253,0,0,0,0,0,0,0,0,0,-1,1427,771,0,0
210,253,0,0,0,0,0,0,0,0,0,-1,1434,771,0,0
217,253,0,0,0,0,0,0,0,0,0,-1,1441,771,0,0
224,253,0,0,0,0,0,0,0,0,0,-1,1448,771,0,0
231,253,0,0,0,0,0,0,0,0,0,-1,1455,771,0,0
238,253,0,0,0,0,0,0,0,0,0,-1,1462,771,0,0
245,253,0,0,0,0,0,0,0,0,0,-1,1469,771,0,0
252,253,0,0,0,0,0,0,0,0,0,-1,1476,771,0,0
259,253,0,0,0,0,0,0,0,0,0,-1,1483,771,0,0
266,253,0,0,0,0,0,0,0,0,0,-1,1490,771,0,0
273,253,0,0,0,0,0,0,0,0,0,-1,1497,771,0,0
280,253,0,0,0,0,0,0,0,0,0,-1,1504,771,0,0
287,253,0,0,0,0,0,0,0,0,0,-1,1511,771,0,0
294,253,0,0,0,0,0,0,0,0,0,-1,1518,771,0,0
301,253,0,0,0,0,0,0,0,0,0,-1,1525,771,0,0
308,253,0,0,0,0,0,0,0,0,0,-1,1532,771,0,0
315,253,0,0,0,0,0,0,0,0,0,-1,1539,771,0,0
322,253,0,0,0,0,0,0,0,0,0,-1,1546,771,0,0
329,253,0,0,0,0,0,0,0,0,0,-1,1553,771,0,0
336,253,0,0,0,0,0,0,0,0,0,-1,1560,771,0,0
343,253,0,0,0,0,0,0,0,0,0,-1,1567,771,0,0
350,253,0,0,0,0,0,0,0,0,0,-1,1574,771,0,0
357,253,0,0,0,0,0,0,0,0,0,-1,1581,771,0,0
364,253,0,0,0,0,0,0,0,0,0,-1,1588,771,0,0
371,253,0,0,0,0,0,0,0,0,0,-1,1595,771,0,0
378,253,0,0,0,0,0,0,0,0,0,-1,1602,771,0,0
385,253,0,0,0,0,0,0,0,0,0,-1,1609,771,0,0
392,253,0,0,0,0,0,0,0,0,0,-1,1616,771,0,0
399,253,0,0,0,0,0,0,0,0,0,-1,1623,771,0,0
406,253,0,0,0,0,0,0,0,0,0,-1,1630,771,0,0
413,253,0,0,0,0,0,0,0,0,0,-1,1637,771,0,0
420,253,0,0,0,0,0,0,0,0,0,-1,1644,771,0,0
427,253,0,0,0,0,0,0,0,0,0,-1,1651,771,0,0
434,253,0,0,0,0,0,0,0,0,0,-1,1658,771,0,0
441,253,0,0,0,0,0,0,0,0,0,-1,1665,771,0,0
448,253,0,0,0,0,0,0,0,0,0,-1,1672,771,0,0
455,253,0,0,0,0,0,0,0,0,0,-1,1679,771,0,0
462,253,0,0,0,0,0,0,0,0,0,-1,1686,771,0,0
469,253,0,0,0,0,0,0,0,0,0,-1,1693,771,0,0
476,253,0,0,0,0,0,0,0,0,0,-1,1700,771,0,0
483,253,0,0,0,0,0,0,0,0,0,-1,1707,771,0,0
490,253,0,0,0,0,0,0,0,0,0,-1,1714,771,0,0
497,253,0,0,0,0,0,0,0,0,0,-1,1721,771,0,0
504,253,0,0,0,0,0,0,0,0,0,-1,1728,771,0,0
511,253,0,0,0,0,0,0,0,0,0,-1,1735,771,0,0
518,253,0,0,0,0,0,0,0,0,0,-1,1742,771,0,0
525,253,0,0,0,0,0,0,0,0,0,-1,1749,771,0,0
532,253,0,0,0,0,0,0,0,0,0,-1,1756,771,0,0
539,253,0,0,0,0,0,0,0,0,0,-1,1763,771,0,0
546,253,0,0,0,0,0,0,0,0,0,-1,1770,771,0,0
553,253,0,0,0,0,0,0,0,0,0,-1,1777,771,0,0
560,253,0,0,0,0,0,0,0,0,0,-1,1784,771,0,0
567,253,0,0,0,0,0,0,0,0,0,-1,1791,771,0,0
574,253,67.4363,2.04645,0,0,0,0,0,0,0,-1,1798,771,67.4363,-2.04645
581,253,67.5121,2.17029,0.00534367,-0.00700987,0.0157888,0.0161209,-0.0177871,0.598944,0.0195847,0.0420864,1805,771,67.5121,-2.17027
588,253,67.6145,2.34015,0.00569374,-0.00447037,0.0137472,0.0152682,-0.0140448,0.608349,0.0169288,0.0499747,1812,771,67.6145,-2.34017
595,253,68.0721,2.31274,0,0,0,0,0,0,0,-1,1819,771,68.0722,-2.31277
602,253,66.4502,2.6098,0,0,0,0,0,0,0,-1,1826,771,66.4502,-2.60979
609,253,65.2542,3.18195,0,0,0,0,0,0,0,-1,1833,771,65.2541,-3.18193
616,253,58.416,2.69031,0,0,0,0,0,0,0,-1,1840,771,58.4161,-2.69031
623,253,48.8328,3.01001,0,0,0,0,0,0,0,-1,1847,771,48.8328,-3.01002
630,253,33.561,2.96838,0,0,0,0,0,0,0,-1,1854,771,33.561,-2.96836
637,253,22.3192,-0.604004,0,0,0,0,0,0,0,-1,1861,771,22.3192,0.603986
644,253,46.1388,-5.06433,0,0,0,0,0,0,0,-1,1868,771,46.1388,5.06433
651,253,45.7849,-4.39813,0.00121961,0.000641491,0.000826471,0.00180611,5.49872e-05,0.617172,0.00118617,0.0463662,1875,771,45.7849,4.39814
658,253,45.6035,-3.71442,0.00110575,5.72782e-05,0.000273072,0.00117261,-9.57912e-06,0.240111,0.000784953,0.0240442,1882,771,45.6035,3.7144
665,253,45.5063,-2.94385,0.00106673,-5.92956e-05,4.02637e-05,0.00106817,-6.07335e-05,0.0356966,0.000733196,0.023125,1889,771,45.5063,2.94383
672,253,45.5372,-2.12061,0.000917477,-7.90278e-05,-5.75386e-05,0.000920788,-8.2339e-05,-0.0574858,0.000643065,0.017033,1896,771,45.5372,2.12061
679,253,45.5387,-1.27991,0.000785223,8.58927e-05,-5.81522e-05,0.000790026,8.10901e-05,-0.0823999,0.000501842,0.0140226,1903,771,45.5387,1.27993
686,253,45.4519,-0.462036,0.00084275,0.000733922,8.62116e-05,0.000890284,0.000686389,0.503888,0.00053858,0.0240064,1910,771,45.4519,0.462017
693,253,45.3751,0.321228,0.00110318,0.0015181,0.000335138,0.0017048,0.000916486,1.06255,0.000985191,0.0232703,1917,771,45.3752,-0.321257
700,253,45.3561,1.10065,0.00161057,0.00235889,0.000662551,0.00274563,0.00122383,1.04244,0.0015883,0.0165749,1924,771,45.356,-1.10062
707,253,45.3326,1.94379,0.0021858,0.00314987,0.00104323,0.00381705,0.00151863,1.00182,0.00221905,0.0162179,1931,771,45.3326,-1.94377
714,253,45.3124,2.77484,0.00294324,0.00389545,0.00146182,0.00495674,0.00188195,0.942828,0.00288927,0.0250623,1938,771,45.3124,-2.77481
721,253,45.2744,3.60132,0.00454465,0.00458333,0.00194201,0.0065061,0.00262188,0.790377,0.0037798,0.043624,1945,771,45.2745,-3.60133
728,253,45.2609,4.44684,0,0,0,0,0,0,0,-1,1952,771,45.2608,-4.44682
735,253,34.5735,6.15118,0,0,0,0,0,0,0,-1,1959,771,34.5734,-6.1512
742,253,31.0571,5.7337,0,0,0,0,0,0,0,-1,1966,771,31.0571,-5.73373
749,253,33.7754,3.21533,0,0,0,0,0,0,0,-1,1973,771,33.7754,-3.21533
756,253,0,0,0,0,0,0,0,0,0,-1,1980,771,0,0
763,253,0,0,0,0,0,0,0,0,0,-1,1987,771,0,0
770,253,0,0,0,0,0,0,0,0,0,-1,1994,771,0,0
777,253,0,0,0,0,0,0,0,0,0,-1,2001,771,0,0
784,253,0,0,0,0,0,0,0,0,0,-1,2008,771,0,0
791,253,0,0,0,0,0,0,0,0,0,-1,2015,771,0,0
798,253,0,0,0,0,0,0,0,0,0,-1,2022,771,0,0
805,253,0,0,0,0,0,0,0,0,0,-1,2029,771,0,0
812,253,0,0,0,0,0,0,0,0,0,-1,2036,771,0,0
-700,246,0,0,0,0,0,0,0,0,0,-1,524,778,0,0
-693,246,0,0,0,0,0,0,0,0,0,-1,531,778,0,0
-686,246,0,0,0,0,0,0,0,0,0,-1,538,778,0,0
-679,246,0,0,0,0,0,0,0,0,0,-1,545,778,0,0
-672,246,0,0,0,0,0,0,0,0,0,-1,552,778,0,0
-665,246,0,0,0,0,0,0,0,0,0,-1,559,778,0,0
-658,246,0,0,0,0,0,0,0,0,0,-1,566,778,0,0
-651,246,0,0,0,0,0,0,0,0,0,-1,573,778,0,0
-644,246,0,0,0,0,0,0,0,0,0,-1,580,778,0,0
-637,246,-24.1234,0.130432,0,0,0,0,0,0,0,-1,587,778,-24.1234,-0.130438
-630,246,-24.0781,1.38916,0,0,0,0,0,0,0,-1,594,778,-24.0781,-1.38913
-623,246,-23.9183,2.49573,0,0,0,0,0,0,0,-1,601,778,-23.9183,-2.49575
-616,246,-26.8182,2.0705,0,0,0,0,0,0,0,-1,608,778,-26.8182,-2.07052
-609,246,-26.0615,1.16388,0,0,0,0,0,0,0,-1,615,778,-26.0615,-1.16388
-602,246,-32.4085,2.88586,0,0,0,0,0,0,0,-1,622,778,-32.4085,-2.88584
-595,246,-32.3008,2.19287,0.00455642,0.00222928,-0.000770159,0.00478821,0.00199749,-0.292346,0.00277709,0.0438869,629,778,-32.3008,-2.19289
-588,246,-32.1838,1.48102,0.00361963,0.00277946,-0.000917627,0.00420875,0.00219033,-0.57074,0.0024306,0.028093,636,778,-32.1838,-1.48101
-581,246,-32.2643,0.758362,0.00269066,0.00280125,-0.000983345,0.00373086,0.00176106,-0.813485,0.00215513,0.0174519,643,778,-32.2643,-0.758383
-574,246,-32.248,-0.112122,0.00191389,0.00247361,-0.000738863,0.00298384,0.00140366,-0.966436,0.00172373,0.019815,650,778,-32.248,0.112111
-567,246,-32.3121,-0.907776,0.00124139,0.00169085,-0.000320856,0.00185785,0.00107439,-1.0909,0.001077,0.0249702,657,778,-32.3122,0.907772
-560,246,-32.3828,-1.66528,0.000612764,0.000769451,0.000192258,0.000898715,0.0004835,0.978873,0.000519372,0.0193586,664,778,-32.3828,1.66529
-553,246,-32.4004,-2.4079,-5.79449e-05,-0.000177041,0.000813955,0.000698637,-0.000933623,0.748884,0.000945636,0.0135385,671,778,-32.4004,2.40788
-546,246,-32.4656,-3.1994,-0.000590696,-0.00105621,0.00142744,0.000622839,-0.00226974,0.704581,0.00175795,0.0114993,678,778,-32.4656,3.1994
-539,246,-32.5107,-4.04382,-0.00117582,-0.00144057,0.00169032,0.000387293,-0.00300369,0.746321,0.00214325,0.0123126,685,778,-32.5107,4.0438
-532,246,-32.5337,-4.91101,-0.00147228,-0.000562813,0.00128296,0.000343615,-0.00237871,0.955711,0.00171188,0.0242376,692,778,-32.5337,4.911
-525,246,-32.6003,-5.69952,-0.00139547,0.000523663,0.000712295,0.000759141,-0.00163095,1.25152,0.00141019,0.0474799,699,778,-32.6003,5.69953
-518,246,-32.5404,-6.36243,0,0,0,0,0,0,0,-1,706,778,-32.5404,6.3624
-511,246,-28.5886,-5.38635,0,0,0,0,0,0,0,-1,713,778,-28.5886,5.38633
-504,246,-20.0047,-2.88214,0,0,0,0,0,0,0,-1,720,778,-20.0047,2.88216
-497,246,-29.4669,1.82684,0,0,0,0,0,0,0,-1,727,778,-29.4669,-1.82687
-490,246,-40.4299,1.04309,0,0,0,0,0,0,0,-1,734,778,-40.4299,-1.04308
-483,246,-52.4078,1.37457,0,0,0,0,0,0,0,-1,741,778,-52.4078,-1.37459
-476,246,-52.4136,1.16992,0,0,0,0,0,0,0,-1,748,778,-52.4136,-1.16992
-469,246,-52.227,1.12994,0,0,0,0,0,0,0,-1,755,778,-52.227,-1.12997
-462,246,-52.1281,1.03058,0,0,0,0,0,0,0,-1,762,778,-52.1281,-1.03057
-455,246,0,0,0,0,0,0,0,0,0,-1,769,778,0,0
-448,246,0,0,0,0,0,0,0,0,0,-1,776,778,0,0
-441,246,0,0,0,0,0,0,0,0,0,-1,783,778,0,0
-434,246,0,0,0,0,0,0,0,0,0,-1,790,778,0,0
-427,246,0,0,0,0,0,0,0,0,0,-1,797,778,0,0
-420,246,0,0,0,0,0,0,0,0,0,-1,804,778,0,0
-413,246,0,0,0,0,0,0,0,0,0,-1,811,778,0,0
-406,246,0,0,0,0,0,0,0,0,0,-1,818,778,0,0
-399,246,0,0,0,0,0,0,0,0,0,-1,825,778,0,0
-392,246,0,0,0,0,0,0,0,0,0,-1,832,778,0,0
-385,246,0,0,0,0,0,0,0,0,0,-1,839,778,0,0
-378,246,0,0,0,0,0,0,0,0,0,-1,846,778,0,0
-371,246,0,0,0,0,0,0,0,0,0,-1,853,778,0,0
-364,246,0,0,0,0,0,0,0,0,0,-1,860,778,0,0
-357,246,0,0,0,0,0,0,0,0,0,-1,867,778,0,0
-350,246,0,0,0,0,0,0,0,0,0,-1,874,778,0,0
-343,246,0,0,0,0,0,0,0,0,0,-1,881,778,0,0
-336,246,0,0,0,0,0,0,0,0,0,-1,888,778,0,0
-329,246,0,0,0,0,0,0,0,0,0,-1,895,778,0,0
-322,246,0,0,0,0,0,0,0,0,0,-1,902,778,0,0
-315,246,0,0,0,0,0,0,0,0,0,-1,909,778,0,0
-308,246,0,0,0,0,0,0,0,0,0,-1,916,778,0,0
-301,246,0,0,0,0,0,0,0,0,0,-1,923,778,0,0
-294,246,0,0,0,0,0,0,0,0,0,-1,930,778,0,0
-287,246,0,0,0,0,0,0,0,0,0,-1,937,778,0,0
-280,246,0,0,0,0,0,0,0,0,0,-1,944,778,0,0
-273,246,0,0,0,0,0,0,0,0,0,-1,951,778,0,0
-266,246,0,0,0,0,0,0,0,0,0,-1,958,778,0,0
-259,246,0,0,0,0,0,0,0,0,0,-1,965,778,0,0
-252,246,0,0,0,0,0,0,0,0,0,-1,972,778,0,0
-245,246,0,0,0,0,0,0,0,0,0,-1,979,778,0,0
-238,246,0,0,0,0,0,0,0,0,0,-1,986,778,0,0
-231,246,0,0,0,0,0,0,0,0,0,-1,993,778,0,0
-224,246,0,0,0,0,0,0,0,0,0,-1,1000,778,0,0
-217,246,0,0,0,0,0,0,0,0,0,-1,1007,778,0,0
-210,246,0,0,0,0,0,0,0,0,0,-1,1014,778,0,0
-203,246,0,0,0,0,0,0,0,0,0,-1,1021,778,0,0
-196,246,0,0,0,0,0,0,0,0,0,-1,1028,778,0,0
-189,246,0,0,0,0,0,0,0,0,0,-1,1035,778,0,0
-182,246,0,0,0,0,0,0,0,0,0,-1,1042,778,0,0
-175,246,0,0,0,0,0,0,0,0,0,-1,1049,778,0,0
-168,246,0,0,0,0,0,0,0,0,0,-1,1056,778,0,0
-161,246,0,0,0,0,0,0,0,0,0,-1,1063,778,0,0
-154,246,0,0,0,0,0,0,0,0,0,-1,1070,778,0,0
-147,246,0,0,0,0,0,0,0,0,0,-1,1077,778,0,0
-140,246,0,0,0,0,0,0,0,0,0,-1,1084,778,0,0
-133,246,0,0,0,0,0,0,0,0,0,-1,1091,778,0,0
-126,246,0,0,0,0,0,0,0,0,0,-1,1098,778,0,0
-119,246,0,0,0,0,0,0,0,0,0,-1,1105,778,0,0
-112,246,0,0,0,0,0,0,0,0,0,-1,1112,778,0,0
-105,246,0,0,0,0,0,0,0,0,0,-1,1119,778,0,0
-98,246,0,0,0,0,0,0,0,0,0,-1,1126,778,0,0
-91,246,0,0,0,0,0,0,0,0,0,-1,1133,778,0,0
-84,246,0,0,0,0,0,0,0,0,0,-1,1140,778,0,0
-77,246,0,0,0,0,0,0,0,0,0,-1,1147,778,0,0
-70,246,0,0,0,0,0,0,0,0,0,-1,1154,778,0,0
-63,246,0,0,0,0,0,0,0,0,0,-1,1161,778,0,0
-56,246,0,0,0,0,0,0,0,0,0,-1,1168,778,0,0
-49,246,0,0,0,0,0,0,0,0,0,-1,1175,778,0,0
-42,246,0,0,0,0,0,0,0,0,0,-1,1182,778,0,0
-35,246,0,0,0,0,0,0,0,0,0,-1,1189,778,0,0
-28,246,0,0,0,0,0,0,0,0,0,-1,1196,778,0,0
-21,246,0,0,0,0,0,0,0,0,0,-1,1203,778,0,0
-14,246,0,0,0,0,0,0,0,0,0,-1,1210,778,0,0
-7,246,0,0,0,0,0,0,0,0,0,-1,1217,778,0,0
0,246,0,0,0,0,0,0,0,0,0,-1,1224,778,0,0
7,246,0,0,0,0,0,0,0,0,0,-1,1231,778,0,0
14,246,0,0,0,0,0,0,0,0,0,-1,1238,778,0,0
21,246,0,0,0,0,0,0,0,0,0,-1,1245,778,0,0
28,246,0,0,0,0,0,0,0,0,0,-1,1252,778,0,0
35,246,0,0,0,0,0,0,0,0,0,-1,1259,778,0,0
42,246,0,0,0,0,0,0,0,0,0,-1,1266,778,0,0
49,246,0,0,0,0,0,0,0,0,0,-1,1273,778,0,0
56,246,0,0,0,0,0,0,0,0,0,-1,1280,778,0,0
63,246,0,0,0,0,0,0,0,0,0,-1,1287,778,0,0
70,246,0,0,0,0,0,0,0,0,0,-1,1294,778,0,0
77,246,0,0,0,0,0,0,0,0,0,-1,1301,778,0,0
84,246,0,0,0,0,0,0,0,0,0,-1,1308,778,0,0
91,246,0,0,0,0,0,0,0,0,0,-1,1315,778,0,0
98,246,0,0,0,0,0,0,0,0,0,-1,1322,778,0,0
105,246,0,0,0,0,0,0,0,0,0,-1,1329,778,0,0
112,246,0,0,0,0,0,0,0,0,0,-1,1336,778,0,0
119,246,0,0,0,0,0,0,0,0,0,-1,1343,778,0,0
126,246,0,0,0,0,0,0,0,0,0,-1,1350,778,0,0
133,246,0,0,0,0,0,0,0,0,0,-1,1357,778,0,0
140,246,0,0,0,0,0,0,0,0,0,-1,1364,778,0,0
147,246,0,0,0,0,0,0,0,0,0,-1,1371,778,0,0
154,246,0,0,0,0,0,0,0,0,0,-1,1378,778,0,0
161,246,0,0,0,0,0,0,0,0,0,-1,1385,778,0,0
168,246,0,0,0,0,0,0,0,0,0,-1,1392,778,0,0
175,246,0,0,0,0,0,0,0,0,0,-1,1399,778,0,0
182,246,0,0,0,0,0,0,0,0,0,-1,1406,778,0,0
189,246,0,0,0,0,0,0,0,0,0,-1,1413,778,0,0
196,246,0,0,0,0,0,0,0,0,0,-1,1420,778,0,0
203,246,0,0,0,0,0,0,0,0,0,-1,1427,778,0,0
210,246,0,0,0,0,0,0,0,0,0,-1,1434,778,0,0
217,246,0,0,0,0,0,0,0,0,0,-1,1441,778,0,0
224,246,0,0,0,0,0,0,0,0,0,-1,1448,778,0,0
231,246,0,0,0,0,0,0,0,0,0,-1,1455,778,0,0
238,246,0,0,0,0,0,0,0,0,0,-1,1462,778,0,0
245,246,0,0,0,0,0,0,0,0,0,-1,1469,778,0,0
252,246,0,0,0,0,0,0,0,0,0,-1,1476,778,0,0
259,246,0,0,0,0,0,0,0,0,0,-1,1483,778,0,0
266,246,0,0,0,0,0,0,0,0,0,-1,1490,778,0,0
273,246,0,0,0,0,0,0,0,0,0,-1,1497,778,0,0
280,246,0,0,0,0,0,0,0,0,0,-1,1504,778,0,0
287,246,0,0,0,0,0,0,0,0,0,-1,1511,778,0,0
294,246,0,0,0,0,0,0,0,0,0,-1,1518,778,0,0
301,246,0,0,0,0,0,0,0,0,0,-1,1525,778,0,0
308,246,0,0,0,0,0,0,0,0,0,-1,1532,778,0,0
315,246,0,0,0,0,0,0,0,0,0,-1,1539,778,0,0
322,246,0,0,0,0,0,0,0,0,0,-1,1546,778,0,0
329,246,0,0,0,0,0,0,0,0,0,-1,1553,778,0,0
336,246,0,0,0,0,0,0,0,0,0,-1,1560,778,0,0
343,246,0,0,0,0,0,0,0,0,0,-1,1567,778,0,0
350,246,0,0,0,0,0,0,0,0,0,-1,1574,778,0,0
357,246,0,0,0,0,0,0,0,0,0,-1,1581,778,0,0
364,246,0,0,0,0,0,0,0,0,0,-1,1588,778,0,0
371,246,0,0,0,0,0,0,0,0,0,-1,1595,778,0,0
378,246,0,0,0,0,0,0,0,0,0,-1,1602,778,0,0
385,246,0,0,0,0,0,0,0,0,0,-1,1609,778,0,0
392,246,0,0,0,0,0,0,0,0,0,-1,1616,778,0,0
399,246,0,0,0,0,0,0,0,0,0,-1,1623,778,0,0
406,246,0,0,0,0,0,0,0,0,0,-1,1630,778,0,0
413,246,0,0,0,0,0,0,0,0,0,-1,1637,778,0,0
420,246,0,0,0,0,0,0,0,0,0,-1,1644,778,0,0
427,246,0,0,0,0,0,0,0,0,0,-1,1651,778,0,0
434,246,0,0,0,0,0,0,0,0,0,-1,1658,778,0,0
441,246,0,0,0,0,0,0,0,0,0,-1,1665,778,0,0
448,246,0,0,0,0,0,0,0,0,0,-1,1672,778,0,0
455,246,0,0,0,0,0,0,0,0,0,-1,1679,778,0,0
462,246,0,0,0,0,0,0,0,0,0,-1,1686,778,0,0
469,246,0,0,0,0,0,0,0,0,0,-1,1693,778,0,0
476,246,0,0,0,0,0,0,0,0,0,-1,1700,778,0,0
483,246,0,0,0,0,0,0,0,0,0,-1,1707,778,0,0
490,246,0,0,0,0,0,0,0,0,0,-1,1714,778,0,0
497,246,0,0,0,0,0,0,0,0,0,-1,1721,778,0,0
504,246,0,0,0,0,0,0,0,0,0,-1,1728,778,0,0
511,246,0,0,0,0,0,0,0,0,0,-1,1735,778,0,0
518,246,0,0,0,0,0,0,0,0,0,-1,1742,778,0,0
525,246,0,0,0,0,0,0,0,0,0,-1,1749,778,0,0
532,246,0,0,0,0,0,0,0,0,0,-1,1756,778,0,0
539,246,0,0,0,0,0,0,0,0,0,-1,1763,778,0,0
546,246,0,0,0,0,0,0,0,0,0,-1,1770,778,0,0
553,246,0,0,0,0,0,0,0,0,0,-1,1777,778,0,0
560,246,0,0,0,0,0,0,0,0,0,-1,1784,778,0,0
567,246,0,0,0,0,0,0,0,0,0,-1,1791,778,0,0
574,246,0,0,0,0,0,0,0,0,0,-1,1798,778,0,0
581,246,67.491,2.20514,0.003299,-0.00670652,0.0131841,0.0123976,-0.0158051,0.604064,0.0163224,0.0382438,1805,778,67.491,-2.20511
588,246,67.3716,2.25372,0.00497862,-0.00376953,0.0122658,0.0136269,-0.0124178,0.614123,0.0150423,0.0443074,1812,778,67.3716,-2.2537
595,246,67.637,2.35577,0.00527379,-0.00183804,0.010569,0.012869,-0.00943326,0.623122,0.0129271,0.048211,1819,778,67.637,-2.35576
602,246,67.4907,2.77032,0,0,0,0,0,0,0,-1,1826,778,67.4908,-2.77033
609,246,65.04,3.03278,0,0,0,0,0,0,0,-1,1833,778,65.04,-3.03277
616,246,60.4568,3.98492,0,0,0,0,0,0,0,-1,1840,778,60.4568,-3.98491
623,246,55.8947,3.95953,0,0,0,0,0,0,0,-1,1847,778,55.8947,-3.95952
630,246,49.5938,1.99902,0,0,0,0,0,0,0,-1,1854,778,49.5937,-1.999
637,246,29.5785,0.837585,0,0,0,0,0,0,0,-1,1861,778,29.5785,-0.837606
644,246,28.1232,-1.43188,0,0,0,0,0,0,0,-1,1868,778,28.1232,1.43188
651,246,46.5533,-4.22906,0,0,0,0,0,0,0,-1,1875,778,46.5533,4.22907
658,246,46.3466,-3.66101,0,0,0,0,0,0,0,-1,1882,778,46.3465,3.661
665,246,46.33,-2.9397,0.000812808,0.000413649,5.90909e-05,0.000821372,0.000405085,0.143927,0.000474234,0.0292459,1889,778,46.33,2.93972
672,246,46.3871,-2.05817,0.000721349,0.000156062,-6.07156e-05,0.000727796,0.000149614,-0.105799,0.000443813,0.0214308,1896,778,46.3871,2.05814
679,246,46.3556,-1.24713,0.000563381,-4.21304e-05,-0.000136919,0.000592902,-7.16516e-05,-0.212359,0.000421188,0.0220255,1903,778,46.3556,1.24714
686,246,46.3093,-0.433899,0.000592084,0.000306757,-0.000108964,0.000628936,0.000269905,-0.326132,0.00036433,0.0225931,1910,778,46.3094,0.433872
693,246,46.2675,0.366272,0.000911607,0.000911072,1.89658e-05,0.000930308,0.000892372,0.778343,0.000607955,0.0179917,1917,778,46.2674,-0.366282
700,246,46.2323,1.1474,0.00148376,0.0015499,0.000217508,0.00173683,0.00129682,0.860841,0.00104264,0.0143665,1924,778,46.2323,-1.1474
707,246,46.1528,1.99182,0.00214682,0.00218071,0.000468983,0.00263306,0.00169448,0.803455,0.00154094,0.0141648,1931,778,46.1528,-1.9918
714,246,46.1025,2.85535,0.00302159,0.00262898,0.000657432,0.0035114,0.00213917,0.640315,0.00204336,0.0150583,1938,778,46.1026,-2.85535
721,246,46.0406,3.62891,0.00466129,0.00281868,0.000747784,0.00492657,0.0025534,0.340904,0.00284499,0.0202422,1945,778,46.0407,-3.62893
728,246,45.9934,4.69684,0,0,0,0,0,0,0,-1,1952,778,45.9934,-4.69684
735,246,46.0375,5.87427,0,0,0,0,0,0,0,-1,1959,778,46.0375,-5.87427
742,246,31.7356,6.70013,0,0,0,0,0,0,0,-1,1966,778,31.7356,-6.70011
749,246,32.3883,7.69324,0,0,0,0,0,0,0,-1,1973,778,32.3883,-7.69322
756,246,33.6919,3.45264,0,0,0,0,0,0,0,-1,1980,778,33.6919,-3.45262
763,246,0,0,0,0,0,0,0,0,0,-1,1987,778,0,0
770,246,0,0,0,0,0,0,0,0,0,-1,1994,778,0,0
777,246,0,0,0,0,0,0,0,0,0,-1,2001,778,0,0
784,246,0,0,0,0,0,0,0,0,0,-1,2008,778,0,0
791,246,0,0,0,0,0,0,0,0,0,-1,2015,778,0,0
798,246,0,0,0,0,0,0,0,0,0,-1,2022,778,0,0
805,246,0,0,0,0,0,0,0,0,0,-1,2029,778,0,0
812,246,0,0,0,0,0,0,0,0,0,-1,2036,778,0,0
-700,239,0,0,0,0,0,0,0,0,0,-1,524,785,0,0
-693,239,0,0,0,0,0,0,0,0,0,-1,531,785,0,0
-686,239,0,0,0,0,0,0,0,0,0,-1,538,785,0,0
-679,239,0,0,0,0,0,0,0,0,0,-1,545,785,0,0
-672,239,0,0,0,0,0,0,0,0,0,-1,552,785,0,0
-665,239,0,0,0,0,0,0,0,0,0,-1,559,785,0,0
-658,239,0,0,0,0,0,0,0,0,0,-1,566,785,0,0
-651,239,0,0,0,0,0,0,0,0,0,-1,573,785,0,0
-644,239,0,0,0,0,0,0,0,0,0,-1,580,785,0,0
-637,239,-23.2709,0.465088,0,0,0,0,0,0,0,-1,587,785,-23.271,-0.465116
-630,239,-23.4006,0.956299,0,0,0,0,0,0,0,-1,594,785,-23.4005,-0.956285
-623,239,-30.6328,2.52185,0,0,0,0,0,0,0,-1,601,785,-30.6328,-2.52183
-616,239,-29.1425,1.42139,0,0,0,0,0,0,0,-1,608,785,-29.1425,-1.42139
-609,239,-27.8569,0.322937,0,0,0,0,0,0,0,-1,615,785,-27.857,-0.322963
-602,239,-31.8599,4.31,0,0,0,0,0,0,0,-1,622,785,-31.8599,-4.31
-595,239,-33.0282,2.31927,0,0,0,0,0,0,0,-1,629,785,-33.0282,-2.31928
-588,239,-32.9238,1.68506,0.00272504,0.00246993,-0.000971706,0.00357753,0.00161744,-0.720137,0.00206864,0.0191738,636,785,-32.9238,-1.68504
-581,239,-33.0533,0.790161,0.00225462,0.00251208,-0.00105007,0.00344128,0.00132542,-0.84639,0.00200422,0.0116601,643,785,-33.0533,-0.790179
-574,239,-33.0551,-0.0539551,0.00179783,0.00213898,-0.000817997,0.002804,0.00113281,-0.888188,0.0016288,0.0140667,650,785,-33.0551,0.0539573
-567,239,-33.1255,-0.85498,0.00132715,0.00141983,-0.00042756,0.00180356,0.00094343,-0.839378,0.00104165,0.0190385,657,785,-33.1255,0.854985
-560,239,-33.1876,-1.61383,0.000853905,0.000557935,5.70973e-05,0.000864538,0.000547302,0.184117,0.000504998,0.0186254,664,785,-33.1876,1.61384
-553,239,-33.217,-2.38715,0.000344734,-0.00015477,0.000661842,0.000802379,-0.000612415,0.60498,0.000819282,0.0145727,671,785,-33.217,2.38713
-546,239,-33.2493,-3.1637,-2.81208e-05,-0.000597796,0.0012209,0.000940732,-0.00156665,0.670798,0.00146259,0.0155227,678,785,-33.2493,3.16367
-539,239,-33.4312,-3.95374,-0.000499346,-0.000516648,0.00131248,0.000804516,-0.00182051,0.782103,0.00155294,0.023684,685,785,-33.4312,3.95371
-532,239,-33.5616,-4.73517,-0.000730579,0.000568205,0.000824622,0.000968438,-0.00113081,1.11894,0.00121321,0.0307745,692,785,-33.5616,4.7352
-525,239,-33.4883,-5.24622,-0.000629095,0.00163474,0.000281683,0.00166926,-0.000663618,1.44885,0.00138798,0.0444354,699,785,-33.4883,5.24623
-518,239,-33.7134,-5.63263,0,0,0,0,0,0,0,-1,706,785,-33.7134,5.63262
-511,239,-20.9849,-2.09235,0,0,0,0,0,0,0,-1,713,785,-20.9848,2.09234
-504,239,-25.5015,2.00421,0,0,0,0,0,0,0,-1,720,785,-25.5015,-2.00422
-497,239,-40.2453,1.4447,0,0,0,0,0,0,0,-1,727,785,-40.2453,-1.4447
-490,239,-52.3627,1.26135,0,0,0,0,0,0,0,-1,734,785,-52.3627,-1.26137
-483,239,-52.3853,1.07025,0.00313398,0.0155129,-0.00579022,0.017799,0.000847821,-1.19475,0.0115938,0.0480848,741,785,-52.3853,-1.07028
-476,239,-52.4051,0.883606,0.00586464,0.0202974,-0.0070479,0.0231681,0.00299395,-1.184,0.0145505,0.0411034,748,785,-52.4051,-0.883605
-469,239,-52.2625,0.797363,0.00994589,0.0242279,-0.00778128,0.0276483,0.00652554,-1.15666,0.0166879,0.041358,755,785,-52.2625,-0.797388
-462,239,-52.2109,0.718811,0,0,0,0,0,0,0,-1,762,785,-52.2109,-0.718809
-455,239,0,0,0,0,0,0,0,0,0,-1,769,785,0,0
-448,239,0,0,0,0,0,0,0,0,0,-1,776,785,0,0
-441,239,0,0,0,0,0,0,0,0,0,-1,783,785,0,0
-434,239,0,0,0,0,0,0,0,0,0,-1,790,785,0,0
-427,239,0,0,0,0,0,0,0,0,0,-1,797,785,0,0
-420,239,0,0,0,0,0,0,0,0,0,-1,804,785,0,0
-413,239,0,0,0,0,0,0,0,0,0,-1,811,785,0,0
-406,239,0,0,0,0,0,0,0,0,0,-1,818,785,0,0
-399,239,0,0,0,0,0,0,0,0,0,-1,825,785,0,0
-392,239,0,0,0,0,0,0,0,0,0,-1,832,785,0,0
-385,239,0,0,0,0,0,0,0,0,0,-1,839,785,0,0
-378,239,0,0,0,0,0,0,0,0,0,-1,846,785,0,0
-371,239,0,0,0,0,0,0,0,0,0,-1,853,785,0,0
-364,239,0,0,0,0,0,0,0,0,0,-1,860,785,0,0
-357,239,0,0,0,0,0,0,0,0,0,-1,867,785,0,0
-350,239,0,0,0,0,0,0,0,0,0,-1,874,785,0,0
-343,239,0,0,0,0,0,0,0,0,0,-1,881,785,0,0
-336,239,0,0,0,0,0,0,0,0,0,-1,888,785,0,0
-329,239,0,0,0,0,0,0,0,0,0,-1,895,785,0,0
-322,239,0,0,0,0,0,0,0,0,0,-1,902,785,0,0
-315,239,0,0,0,0,0,0,0,0,0,-1,909,785,0,0
-308,239,0,0,0,0,0,0,0,0,0,-1,916,785,0,0
-301,239,0,0,0,0,0,0,0,0,0,-1,923,785,0,0
-294,239,0,0,0,0,0,0,0,0,0,-1,930,785,0,0
-287,239,0,0,0,0,0,0,0,0,0,-1,937,785,0,0
-280,239,0,0,0,0,0,0,0,0,0,-1,944,785,0,0
-273,239,0,0,0,0,0,0,0,0,0,-1,951,785,0,0
-266,239,0,0,0,0,0,0,0,0,0,-1,958,785,0,0
-259,239,0,0,0,0,0,0,0,0,0,-1,965,785,0,0
-252,239,0,0,0,0,0,0,0,0,0,-1,972,785,0,0
-245,239,0,0,0,0,0,0,0,0,0,-1,979,785,0,0
-238,239,0,0,0,0,0,0,0,0,0,-1,986,785,0,0
-231,239,0,0,0,0,0,0,0,0,0,-1,993,785,0,0
-224,239,0,0,0,0,0,0,0,0,0,-1,1000,785,0,0
-217,239,0,0,0,0,0,0,0,0,0,-1,1007,785,0,0
-210,239,0,0,0,0,0,0,0,0,0,-1,1014,785,0,0
-203,239,0,0,0,0,0,0,0,0,0,-1,1021,785,0,0
-196,239,0,0,0,0,0,0,0,0,0,-1,1028,785,0,0
-189,239,0,0,0,0,0,0,0,0,0,-1,1035,785,0,0
-182,239,0,0,0,0,0,0,0,0,0,-1,1042,785,0,0
-175,239,0,0,0,0,0,0,0,0,0,-1,1049,785,0,0
-168,239,0,0,0,0,0,0,0,0,0,-1,1056,785,0,0
-161,239,0,0,0,0,0,0,0,0,0,-1,1063,785,0,0
-154,239,0,0,0,0,0,0,0,0,0,-1,1070,785,0,0
-147,239,0,0,0,0,0,0,0,0,0,-1,1077,785,0,0
-140,239,0,0,0,0,0,0,0,0,0,-1,1084,785,0,0
-133,239,0,0,0,0,0,0,0,0,0,-1,1091,785,0,0
-126,239,0,0,0,0,0,0,0,0,0,-1,1098,785,0,0
-119,239,0,0,0,0,0,0,0,0,0,-1,1105,785,0,0
-112,239,0,0,0,0,0,0,0,0,0,-1,1112,785,0,0
-105,239,0,0,0,0,0,0,0,0,0,-1,1119,785,0,0
-98,239,0,0,0,0,0,0,0,0,0,-1,1126,785,0,0
-91,239,0,0,0,0,0,0,0,0,0,-1,1133,785,0,0
-84,239,0,0,0,0,0,0,0,0,0,-1,1140,785,0,0
-77,239,0,0,0,0,0,0,0,0,0,-1,1147,785,0,0
-70,239,0,0,0,0,0,0,0,0,0,-1,1154,785,0,0
-63,239,0,0,0,0,0,0,0,0,0,-1,1161,785,0,0
-56,239,0,0,0,0,0,0,0,0,0,-1,1168,785,0,0
-49,239,0,0,0,0,0,0,0,0,0,-1,1175,785,0,0
-42,239,0,0,0,0,0,0,0,0,0,-1,1182,785,0,0
-35,239,0,0,0,0,0,0,0,0,0,-1,1189,785,0,0
-28,239,0,0,0,0,0,0,0,0,0,-1,1196,785,0,0
-21,239,0,0,0,0,0,0,0,0,0,-1,1203,785,0,0
-14,239,0,0,0,0,0,0,0,0,0,-1,1210,785,0,0
-7,239,0,0,0,0,0,0,0,0,0,-1,1217,785,0,0
0,239,0,0,0,0,0,0,0,0,0,-1,1224,785,0,0
7,239,0,0,0,0,0,0,0,0,0,-1,1231,785,0,0
14,239,0,0,0,0,0,0,0,0,0,-1,1238,785,0,0
21,239,0,0,0,0,0,0,0,0,0,-1,1245,785,0,0
28,239,0,0,0,0,0,0,0,0,0,-1,1252,785,0,0
35,239,0,0,0,0,0,0,0,0,0,-1,1259,785,0,0
42,239,0,0,0,0,0,0,0,0,0,-1,1266,785,0,0
49,239,0,0,0,0,0,0,0,0,0,-1,1273,785,0,0
56,239,0,0,0,0,0,0,0,0,0,-1,1280,785,0,0
63,239,0,0,0,0,0,0,0,0,0,-1,1287,785,0,0
70,239,0,0,0,0,0,0,0,0,0,-1,1294,785,0,0
77,239,0,0,0,0,0,0,0,0,0,-1,1301,785,0,0
84,239,0,0,0,0,0,0,0,0,0,-1,1308,785,0,0
91,239,0,0,0,0,0,0,0,0,0,-1,1315,785,0,0
98,239,0,0,0,0,0,0,0,0,0,-1,1322,785,0,0
105,239,0,0,0,0,0,0,0,0,0,-1,1329,785,0,0
112,239,0,0,0,0,0,0,0,0,0,-1,1336,785,0,0
119,239,0,0,0,0,0,0,0,0,0,-1,1343,785,0,0
126,239,0,0,0,0,0,0,0,0,0,-1,1350,785,0,0
133,239,0,0,0,0,0,0,0,0,0,-1,1357,785,0,0
140,239,0,0,0,0,0,0,0,0,0,-1,1364,785,0,0
147,239,0,0,0,0,0,0,0,0,0,-1,1371,785,0,0
154,239,0,0,0,0,0,0,0,0,0,-1,1378,785,0,0
161,239,0,0,0,0,0,0,0,0,0,-1,1385,785,0,0
168,239,0,0,0,0,0,0,0,0,0,-1,1392,785,0,0
175,239,0,0,0,0,0,0,0,0,0,-1,1399,785,0,0
182,239,0,0,0,0,0,0,0,0,0,-1,1406,785,0,0
189,239,0,0,0,0,0,0,0,0,0,-1,1413,785,0,0
196,239,0,0,0,0,0,0,0,0,0,-1,1420,785,0,0
203,239,0,0,0,0,0,0,0,0,0,-1,1427,785,0,0
210,239,0,0,0,0,0,0,0,0,0,-1,1434,785,0,0
217,239,0,0,0,0,0,0,0,0,0,-1,1441,785,0,0
224,239,0,0,0,0,0,0,0,0,0,-1,1448,785,0,0
231,239,0,0,0,0,0,0,0,0,0,-1,1455,785,0,0
238,239,0,0,0,0,0,0,0,0,0,-1,1462,785,0,0
245,239,0,0,0,0,0,0,0,0,0,-1,1469,785,0,0
252,239,0,0,0,0,0,0,0,0,0,-1,1476,785,0,0
259,239,0,0,0,0,0,0,0,0,0,-1,1483,785,0,0
266,239,0,0,0,0,0,0,0,0,0,-1,1490,785,0,0
273,239,0,0,0,0,0,0,0,0,0,-1,1497,785,0,0
280,239,0,0,0,0,0,0,0,0,0,-1,1504,785,0,0
287,239,0,0,0,0,0,0,0,0,0,-1,1511,785,0,0
294,239,0,0,0,0,0,0,0,0,0,-1,1518,785,0,0
301,239,0,0,0,0,0,0,0,0,0,-1,1525,785,0,0
308,239,0,0,0,0,0,0,0,0,0,-1,1532,785,0,0
315,239,0,0,0,0,0,0,0,0,0,-1,1539,785,0,0
322,239,0,0,0,0,0,0,0,0,0,-1,1546,785,0,0
329,239,0,0,0,0,0,0,0,0,0,-1,1553,785,0,0
336,239,0,0,0,0,0,0,0,0,0,-1,1560,785,0,0
343,239,0,0,0,0,0,0,0,0,0,-1,1567,785,0,0
350,239,0,0,0,0,0,0,0,0,0,-1,1574,785,0,0
357,239,0,0,0,0,0,0,0,0,0,-1,1581,785,0,0
364,239,0,0,0,0,0,0,0,0,0,-1,1588,785,0,0
371,239,0,0,0,0,0,0,0,0,0,-1,1595,785,0,0
378,239,0,0,0,0,0,0,0,0,0,-1,1602,785,0,0
385,239,0,0,0,0,0,0,0,0,0,-1,1609,785,0,0
392,239,0,0,0,0,0,0,0,0,0,-1,1616,785,0,0
399,239,0,0,0,0,0,0,0,0,0,-1,1623,785,0,0
406,239,0,0,0,0,0,0,0,0,0,-1,1630,785,0,0
413,239,0,0,0,0,0,0,0,0,0,-1,1637,785,0,0
420,239,0,0,0,0,0,0,0,0,0,-1,1644,785,0,0
427,239,0,0,0,0,0,0,0,0,0,-1,1651,785,0,0
434,239,0,0,0,0,0,0,0,0,0,-1,1658,785,0,0
441,239,0,0,0,0,0,0,0,0,0,-1,1665,785,0,0
448,239,0,0,0,0,0,0,0,0,0,-1,1672,785,0,0
455,239,0,0,0,0,0,0,0,0,0,-1,1679,785,0,0
462,239,0,0,0,0,0,0,0,0,0,-1,1686,785,0,0
469,239,0,0,0,0,0,0,0,0,0,-1,1693,785,0,0
476,239,0,0,0,0,0,0,0,0,0,-1,1700,785,0,0
483,239,0,0,0,0,0,0,0,0,0,-1,1707,785,0,0
490,239,0,0,0,0,0,0,0,0,0,-1,1714,785,0,0
497,239,0,0,0,0,0,0,0,0,0,-1,1721,785,0,0
504,239,0,0,0,0,0,0,0,0,0,-1,1728,785,0,0
511,239,0,0,0,0,0,0,0,0,0,-1,1735,785,0,0
518,239,0,0,0,0,0,0,0,0,0,-1,1742,785,0,0
525,239,0,0,0,0,0,0,0,0,0,-1,1749,785,0,0
532,239,0,0,0,0,0,0,0,0,0,-1,1756,785,0,0
539,239,0,0,0,0,0,0,0,0,0,-1,1763,785,0,0
546,239,0,0,0,0,0,0,0,0,0,-1,1770,785,0,0
553,239,0,0,0,0,0,0,0,0,0,-1,1777,785,0,0
560,239,0,0,0,0,0,0,0,0,0,-1,1784,785,0,0
567,239,0,0,0,0,0,0,0,0,0,-1,1791,785,0,0
574,239,0,0,0,0,0,0,0,0,0,-1,1798,785,0,0
581,239,67.3408,2.44495,0.000401711,-0.00736141,0.00972446,0.00699066,-0.0139504,0.595509,0.0123109,0.0377227,1805,785,67.3408,-2.44496
588,239,67.1586,2.53326,0.00341723,-0.00373175,0.0100412,0.0105012,-0.0108157,0.614401,0.0123077,0.0405124,1812,785,67.1586,-2.53329
595,239,67.314,2.37933,0.00446133,-0.00139372,0.00914284,0.0111339,-0.00806629,0.630457,0.0111323,0.0366086,1819,785,67.314,-2.37933
602,239,67.3831,2.53125,0.00419099,-0.000359994,0.00765455,0.00990111,-0.00607012,0.640922,0.009309,0.0461157,1826,785,67.383,-2.53123
609,239,67.2799,2.84772,0,0,0,0,0,0,0,-1,1833,785,67.2799,-2.84771
616,239,55.8469,3.72443,0,0,0,0,0,0,0,-1,1840,785,55.8469,-3.72445
623,239,65.0618,2.66516,0,0,0,0,0,0,0,-1,1847,785,65.0617,-2.66519
630,239,54.5767,3.64667,0,0,0,0,0,0,0,-1,1854,785,54.5766,-3.64667
637,239,39.5542,2.54114,0,0,0,0,0,0,0,-1,1861,785,39.5543,-2.54114
644,239,18.3466,0.735413,0,0,0,0,0,0,0,-1,1868,785,18.3465,-0.735414
651,239,34.2471,-2.15778,0,0,0,0,0,0,0,-1,1875,785,34.2471,2.1578
658,239,47.1163,-3.80304,0,0,0,0,0,0,0,-1,1882,785,47.1164,3.80306
665,239,47.2013,-2.85651,0.000444221,0.000870874,9.97993e-05,0.000893064,0.000422031,1.35201,0.00051587,0.0382364,1889,785,47.2013,2.85651
672,239,47.2279,-1.98535,0.000394142,0.000539053,8.95138e-06,0.000539604,0.000393591,1.50934,0.000322285,0.0228367,1896,785,47.228,1.98537
679,239,47.1752,-1.11951,0.000208933,9.28613e-05,-9.37901e-05,0.000261191,4.06033e-05,-0.50834,0.000162295,0.0232954,1903,785,47.1752,1.11948
686,239,47.1342,-0.27356,0.000195806,0.000178903,-0.000194176,0.000381715,-7.00568e-06,-0.763651,0.000256844,0.0235638,1910,785,47.1341,0.273574
693,239,47.0908,0.437744,0.000606549,0.000592084,-0.000211509,0.000810949,0.000387684,-0.768308,0.000468352,0.0163212,1917,785,47.0908,-0.437729
700,239,47.0322,1.2243,0.00123412,0.000996536,-0.000152595,0.00130871,0.000921946,-0.454653,0.00077636,0.0119745,1924,785,47.0322,-1.22433
707,239,46.9774,2.04364,0.00195496,0.00144528,-1.25257e-05,0.00195527,0.00144497,-0.024556,0.00117108,0.011626,1931,785,46.9775,-2.04366
714,239,46.9404,2.84973,0.00287598,0.00159697,-2.03225e-05,0.0028763,0.00159665,-0.0158839,0.00166399,0.0114152,1938,785,46.9404,-2.84975
721,239,46.8647,3.64941,0.00440261,0.00135261,-0.000239369,0.00442128,0.00133393,-0.0778464,0.00261869,0.0226511,1945,785,46.8647,-3.64941
728,239,46.7345,4.45496,0,0,0,0,0,0,0,-1,1952,785,46.7345,-4.45493
735,239,46.488,5.57007,0,0,0,0,0,0,0,-1,1959,785,46.488,-5.57009
742,239,32.4141,7.6665,0,0,0,0,0,0,0,-1,1966,785,32.4141,-7.6665
749,239,32.1489,3.4411,0,0,0,0,0,0,0,-1,1973,785,32.149,-3.44109
756,239,32.9064,3.6687,0,0,0,0,0,0,0,-1,1980,785,32.9063,-3.66873
763,239,0,0,0,0,0,0,0,0,0,-1,1987,785,0,0
770,239,0,0,0,0,0,0,0,0,0,-1,1994,785,0,0
777,239,0,0,0,0,0,0,0,0,0,-1,2001,785,0,0
784,239,0,0,0,0,0,0,0,0,0,-1,2008,785,0,0
791,239,0,0,0,0,0,0,0,0,0,-1,2015,785,0,0
798,239,0,0,0,0,0,0,0,0,0,-1,2022,785,0,0
805,239,0,0,0,0,0,0,0,0,0,-1,2029,785,0,0
812,239,0,0,0,0,0,0,0,0,0,-1,2036,785,0,0
-700,232,0,0,0,0,0,0,0,0,0,-1,524,792,0,0
-693,232,0,0,0,0,0,0,0,0,0,-1,531,792,0,0
-686,232,0,0,0,0,0,0,0,0,0,-1,538,792,0,0
-679,232,0,0,0,0,0,0,0,0,0,-1,545,792,0,0
-672,232,0,0,0,0,0,0,0,0,0,-1,552,792,0,0
-665,232,0,0,0,0,0,0,0,0,0,-1,559,792,0,0
-658,232,0,0,0,0,0,0,0,0,0,-1,566,792,0,0
-651,232,0,0,0,0,0,0,0,0,0,-1,573,792,0,0
-644,232,-41.2348,4.28168,0,0,0,0,0,0,0,-1,580,792,-41.2348,-4.28166
-637,232,-42.1427,3.51453,0,0,0,0,0,0,0,-1,587,792,-42.1427,-3.51452
-630,232,-32.2345,1.80212,0,0,0,0,0,0,0,-1,594,792,-32.2345,-1.80211
-623,232,-31.5665,1.05115,0,0,0,0,0,0,0,-1,601,792,-31.5664,-1.05112
-616,232,-30.6812,0.432861,0,0,0,0,0,0,0,-1,608,792,-30.6812,-0.432881
-609,232,-29.7142,-0.478943,0,0,0,0,0,0,0,-1,615,792,-29.7142,0.478965
-602,232,-33.7404,4.46558,0,0,0,0,0,0,0,-1,622,792,-33.7404,-4.46557
-595,232,-33.7216,3.05493,0.000716635,0.00192734,-0.000131486,0.00194145,0.00070252,-1.46385,0.00113507,0.0380868,629,792,-33.7216,-3.05494
-588,232,-33.8015,1.67291,0.00136855,0.00234894,-0.000663776,0.0026839,0.00103359,-1.10344,0.00156313,0.0139969,636,792,-33.8015,-1.67292
-581,232,-33.834,0.801697,0.00160748,0.00235647,-0.000901529,0.00295819,0.00100576,-0.982254,0.00173682,0.00962106,643,792,-33.8341,-0.801726
-574,232,-33.8542,0.0180054,0.0016031,0.00189797,-0.000759941,0.00252464,0.000976423,-0.881212,0.00147001,0.0102116,650,792,-33.8542,-0.0179806
-567,232,-33.9254,-0.772644,0.00145247,0.00119001,-0.000502366,0.00184046,0.000802017,-0.657641,0.00106551,0.0120321,657,792,-33.9254,0.772615
-560,232,-33.9984,-1.56592,0.00114272,0.000416267,-0.000152515,0.00117344,0.000385547,-0.198767,0.000690633,0.0157924,664,792,-33.9984,1.5659
-553,232,-34.0472,-2.36444,0.000716794,0.000169,0.000343281,0.000882057,3.73696e-06,0.448675,0.000586796,0.0155919,671,792,-34.0472,2.36443
-546,232,-34.0677,-3.09918,0.000466599,0.000402891,0.000768531,0.00120394,-0.000334446,0.764686,0.000934278,0.0271714,678,792,-34.0677,3.09918
-539,232,-34.9343,-3.52771,0,0,0,0,0,0,0,-1,685,792,-34.9343,3.5277
-532,232,-34.6899,-4.49237,0,0,0,0,0,0,0,-1,692,792,-34.6899,4.49238
-525,232,-34.3499,-4.58179,0,0,0,0,0,0,0,-1,699,792,-34.3498,4.58179
-518,232,-20.8098,-3.08154,0,0,0,0,0,0,0,-1,706,792,-20.8098,3.08155
-511,232,-21.6708,-0.962708,0,0,0,0,0,0,0,-1,713,792,-21.6708,0.962731
-504,232,-34.2155,0.346985,0,0,0,0,0,0,0,-1,720,792,-34.2155,-0.346955
-497,232,-50.5577,1.7912,0,0,0,0,0,0,0,-1,727,792,-50.5577,-1.79121
-490,232,-52.1885,0.924866,0,0,0,0,0,0,0,-1,734,792,-52.1885,-0.924842
-483,232,-52.3603,0.76239,0.00362135,0.0151969,-0.00602232,0.0177618,0.00105648,-1.16817,0.0115052,0.0426739,741,792,-52.3603,-0.762374
-476,232,-52.3386,0.564087,0.00604148,0.018855,-0.0073597,0.0222059,0.00269059,-1.14354,0.0139936,0.0340537,748,792,-52.3386,-0.564061
-469,232,-52.21,0.634033,0.00975286,0.0212538,-0.00793424,0.0253023,0.00570436,-1.09898,0.0153248,0.0329576,755,792,-52.21,-0.634042
-462,232,0,0,0,0,0,0,0,0,0,-1,762,792,0,0
-455,232,0,0,0,0,0,0,0,0,0,-1,769,792,0,0
-448,232,0,0,0,0,0,0,0,0,0,-1,776,792,0,0
-441,232,0,0,0,0,0,0,0,0,0,-1,783,792,0,0
-434,232,0,0,0,0,0,0,0,0,0,-1,790,792,0,0
-427,232,0,0,0,0,0,0,0,0,0,-1,797,792,0,0
-420,232,0,0,0,0,0,0,0,0,0,-1,804,792,0,0
-413,232,0,0,0,0,0,0,0,0,0,-1,811,792,0,0
-406,232,0,0,0,0,0,0,0,0,0,-1,818,792,0,0
-399,232,0,0,0,0,0,0,0,0,0,-1,825,792,0,0
-392,232,0,0,0,0,0,0,0,0,0,-1,832,792,0,0
-385,232,0,0,0,0,0,0,0,0,0,-1,839,792,0,0
-378,232,0,0,0,0,0,0,0,0,0,-1,846,792,0,0
-371,232,0,0,0,0,0,0,0,0,0,-1,853,792,0,0
-364,232,0,0,0,0,0,0,0,0,0,-1,860,792,0,0
-357,232,0,0,0,0,0,0,0,0,0,-1,867,792,0,0
-350,232,0,0,0,0,0,0,0,0,0,-1,874,792,0,0
-343,232,0,0,0,0,0,0,0,0,0,-1,881,792,0,0
-336,232,0,0,0,0,0,0,0,0,0,-1,888,792,0,0
-329,232,0,0,0,0,0,0,0,0,0,-1,895,792,0,0
-322,232,0,0,0,0,0,0,0,0,0,-1,902,792,0,0
-315,232,0,0,0,0,0,0,0,0,0,-1,909,792,0,0
-308,232,0,0,0,0,0,0,0,0,0,-1,916,792,0,0
-301,232,0,0,0,0,0,0,0,0,0,-1,923,792,0,0
-294,232,0,0,0,0,0,0,0,0,0,-1,930,792,0,0
-287,232,0,0,0,0,0,0,0,0,0,-1,937,792,0,0
-280,232,0,0,0,0,0,0,0,0,0,-1,944,792,0,0
-273,232,0,0,0,0,0,0,0,0,0,-1,951,792,0,0
-266,232,0,0,0,0,0,0,0,0,0,-1,958,792,0,0
-259,232,0,0,0,0,0,0,0,0,0,-1,965,792,0,0
-252,232,0,0,0,0,0,0,0,0,0,-1,972,792,0,0
-245,232,0,0,0,0,0,0,0,0,0,-1,979,792,0,0
-238,232,0,0,0,0,0,0,0,0,0,-1,986,792,0,0
-231,232,0,0,0,0,0,0,0,0,0,-1,993,792,0,0
-224,232,0,0,0,0,0,0,0,0,0,-1,1000,792,0,0
-217,232,0,0,0,0,0,0,0,0,0,-1,1007,792,0,0
-210,232,0,0,0,0,0,0,0,0,0,-1,1014,792,0,0
-203,232,0,0,0,0,0,0,0,0,0,-1,1021,792,0,0
-196,232,0,0,0,0,0,0,0,0,0,-1,1028,792,0,0
-189,232,0,0,0,0,0,0,0,0,0,-1,1035,792,0,0
-182,232,0,0,0,0,0,0,0,0,0,-1,1042,792,0,0
-175,232,0,0,0,0,0,0,0,0,0,-1,1049,792,0,0
-168,232,0,0,0,0,0,0,0,0,0,-1,1056,792,0,0
-161,232,0,0,0,0,0,0,0,0,0,-1,1063,792,0,0
-154,232,0,0,0,0,0,0,0,0,0,-1,1070,792,0,0
-147,232,0,0,0,0,0,0,0,0,0,-1,1077,792,0,0
-140,232,0,0,0,0,0,0,0,0,0,-1,1084,792,0,0
-133,232,0,0,0,0,0,0,0,0,0,-1,1091,792,0,0
-126,232,0,0,0,0,0,0,0,0,0,-1,1098,792,0,0
-119,232,0,0,0,0,0,0,0,0,0,-1,1105,792,0,0
-112,232,0,0,0,0,0,0,0,0,0,-1,1112,792,0,0
-105,232,0,0,0,0,0,0,0,0,0,-1,1119,792,0,0
-98,232,0,0,0,0,0,0,0,0,0,-1,1126,792,0,0
-91,232,0,0,0,0,0,0,0,0,0,-1,1133,792,0,0
-84,232,0,0,0,0,0,0,0,0,0,-1,1140,792,0,0
-77,232,0,0,0,0,0,0,0,0,0,-1,1147,792,0,0
-70,232,0,0,0,0,0,0,0,0,0,-1,1154,792,0,0
-63,232,0,0,0,0,0,0,0,0,0,-1,1161,792,0,0
-56,232,0,0,0,0,0,0,0,0,0,-1,1168,792,0,0
-49,232,0,0,0,0,0,0,0,0,0,-1,1175,792,0,0
-42,232,0,0,0,0,0,0,0,0,0,-1,1182,792,0,0
-35,232,0,0,0,0,0,0,0,0,0,-1,1189,792,0,0
-28,232,0,0,0,0,0,0,0,0,0,-1,1196,792,0,0
-21,232,0,0,0,0,0,0,0,0,0,-1,1203,792,0,0
-14,232,0,0,0,0,0,0,0,0,0,-1,1210,792,0,0
-7,232,0,0,0,0,0,0,0,0,0,-1,1217,792,0,0
0,232,0,0,0,0,0,0,0,0,0,-1,1224,792,0,0
7,232,0,0,0,0,0,0,0,0,0,-1,1231,792,0,0
14,232,0,0,0,0,0,0,0,0,0,-1,1238,792,0,0
21,232,0,0,0,0,0,0,0,0,0,-1,1245,792,0,0
28,232,0,0,0,0,0,0,0,0,0,-1,1252,792,0,0
35,232,0,0,0,0,0,0,0,0,0,-1,1259,792,0,0
42,232,0,0,0,0,0,0,0,0,0,-1,1266,792,0,0
49,232,0,0,0,0,0,0,0,0,0,-1,1273,792,0,0
56,232,0,0,0,0,0,0,0,0,0,-1,1280,792,0,0
63,232,0,0,0,0,0,0,0,0,0,-1,1287,792,0,0
70,232,0,0,0,0,0,0,0,0,0,-1,1294,792,0,0
77,232,0,0,0,0,0,0,0,0,0,-1,1301,792,0,0
84,232,0,0,0,0,0,0,0,0,0,-1,1308,792,0,0
91,232,0,0,0,0,0,0,0,0,0,-1,1315,792,0,0
98,232,0,0,0,0,0,0,0,0,0,-1,1322,792,0,0
105,232,0,0,0,0,0,0,0,0,0,-1,1329,792,0,0
112,232,0,0,0,0,0,0,0,0,0,-1,1336,792,0,0
119,232,0,0,0,0,0,0,0,0,0,-1,1343,792,0,0
126,232,0,0,0,0,0,0,0,0,0,-1,1350,792,0,0
133,232,0,0,0,0,0,0,0,0,0,-1,1357,792,0,0
140,232,0,0,0,0,0,0,0,0,0,-1,1364,792,0,0
147,232,0,0,0,0,0,0,0,0,0,-1,1371,792,0,0
154,232,0,0,0,0,0,0,0,0,0,-1,1378,792,0,0
161,232,0,0,0,0,0,0,0,0,0,-1,1385,792,0,0
168,232,0,0,0,0,0,0,0,0,0,-1,1392,792,0,0
175,232,0,0,0,0,0,0,0,0,0,-1,1399,792,0,0
182,232,0,0,0,0,0,0,0,0,0,-1,1406,792,0,0
189,232,0,0,0,0,0,0,0,0,0,-1,1413,792,0,0
196,232,0,0,0,0,0,0,0,0,0,-1,1420,792,0,0
203,232,0,0,0,0,0,0,0,0,0,-1,1427,792,0,0
210,232,0,0,0,0,0,0,0,0,0,-1,1434,792,0,0
217,232,0,0,0,0,0,0,0,0,0,-1,1441,792,0,0
224,232,0,0,0,0,0,0,0,0,0,-1,1448,792,0,0
231,232,0,0,0,0,0,0,0,0,0,-1,1455,792,0,0
238,232,0,0,0,0,0,0,0,0,0,-1,1462,792,0,0
245,232,0,0,0,0,0,0,0,0,0,-1,1469,792,0,0
252,232,0,0,0,0,0,0,0,0,0,-1,1476,792,0,0
259,232,0,0,0,0,0,0,0,0,0,-1,1483,792,0,0
266,232,0,0,0,0,0,0,0,0,0,-1,1490,792,0,0
273,232,0,0,0,0,0,0,0,0,0,-1,1497,792,0,0
280,232,0,0,0,0,0,0,0,0,0,-1,1504,792,0,0
287,232,0,0,0,0,0,0,0,0,0,-1,1511,792,0,0
294,232,0,0,0,0,0,0,0,0,0,-1,1518,792,0,0
301,232,0,0,0,0,0,0,0,0,0,-1,1525,792,0,0
308,232,0,0,0,0,0,0,0,0,0,-1,1532,792,0,0
315,232,0,0,0,0,0,0,0,0,0,-1,1539,792,0,0
322,232,0,0,0,0,0,0,0,0,0,-1,1546,792,0,0
329,232,0,0,0,0,0,0,0,0,0,-1,1553,792,0,0
336,232,0,0,0,0,0,0,0,0,0,-1,1560,792,0,0
343,232,0,0,0,0,0,0,0,0,0,-1,1567,792,0,0
350,232,0,0,0,0,0,0,0,0,0,-1,1574,792,0,0
357,232,0,0,0,0,0,0,0,0,0,-1,1581,792,0,0
364,232,0,0,0,0,0,0,0,0,0,-1,1588,792,0,0
371,232,0,0,0,0,0,0,0,0,0,-1,1595,792,0,0
378,232,0,0,0,0,0,0,0,0,0,-1,1602,792,0,0
385,232,0,0,0,0,0,0,0,0,0,-1,1609,792,0,0
392,232,0,0,0,0,0,0,0,0,0,-1,1616,792,0,0
399,232,0,0,0,0,0,0,0,0,0,-1,1623,792,0,0
406,232,0,0,0,0,0,0,0,0,0,-1,1630,792,0,0
413,232,0,0,0,0,0,0,0,0,0,-1,1637,792,0,0
420,232,0,0,0,0,0,0,0,0,0,-1,1644,792,0,0
427,232,0,0,0,0,0,0,0,0,0,-1,1651,792,0,0
434,232,0,0,0,0,0,0,0,0,0,-1,1658,792,0,0
441,232,0,0,0,0,0,0,0,0,0,-1,1665,792,0,0
448,232,0,0,0,0,0,0,0,0,0,-1,1672,792,0,0
455,232,0,0,0,0,0,0,0,0,0,-1,1679,792,0,0
462,232,0,0,0,0,0,0,0,0,0,-1,1686,792,0,0
469,232,0,0,0,0,0,0,0,0,0,-1,1693,792,0,0
476,232,0,0,0,0,0,0,0,0,0,-1,1700,792,0,0
483,232,0,0,0,0,0,0,0,0,0,-1,1707,792,0,0
490,232,0,0,0,0,0,0,0,0,0,-1,1714,792,0,0
497,232,0,0,0,0,0,0,0,0,0,-1,1721,792,0,0
504,232,0,0,0,0,0,0,0,0,0,-1,1728,792,0,0
511,232,0,0,0,0,0,0,0,0,0,-1,1735,792,0,0
518,232,0,0,0,0,0,0,0,0,0,-1,1742,792,0,0
525,232,0,0,0,0,0,0,0,0,0,-1,1749,792,0,0
532,232,0,0,0,0,0,0,0,0,0,-1,1756,792,0,0
539,232,0,0,0,0,0,0,0,0,0,-1,1763,792,0,0
546,232,0,0,0,0,0,0,0,0,0,-1,1770,792,0,0
553,232,0,0,0,0,0,0,0,0,0,-1,1777,792,0,0
560,232,0,0,0,0,0,0,0,0,0,-1,1784,792,0,0
567,232,0,0,0,0,0,0,0,0,0,-1,1791,792,0,0
574,232,0,0,0,0,0,0,0,0,0,-1,1798,792,0,0
581,232,0,0,0,0,0,0,0,0,0,-1,1805,792,0,0
588,232,67.2351,2.37225,0.00156459,-0.00401295,0.00730844,0.00659826,-0.00904662,0.603134,0.00906937,0.0400338,1812,792,67.2351,-2.37225
595,232,67.3042,2.21307,0.00321774,-0.00132288,0.00726004,0.00855417,-0.00665931,0.633859,0.00880618,0.0370276,1819,792,67.3042,-2.21309
602,232,67.3257,2.31573,0.00339508,0.000117265,0.00643851,0.0084,-0.00488765,0.660771,0.00776045,0.0375799,1826,792,67.3257,-2.31572
609,232,67.2633,2.56909,0,0,0,0,0,0,0,-1,1833,792,67.2633,-2.56908
616,232,67.2484,2.56042,0,0,0,0,0,0,0,-1,1840,792,67.2484,-2.56043
623,232,66.9559,2.94055,0,0,0,0,0,0,0,-1,1847,792,66.9559,-2.94057
630,232,64.9034,2.97992,0,0,0,0,0,0,0,-1,1854,792,64.9035,-2.9799
637,232,47.0471,4.04309,0,0,0,0,0,0,0,-1,1861,792,47.0471,-4.04309
644,232,30.7756,4.24139,0,0,0,0,0,0,0,-1,1868,792,30.7757,-4.24141
651,232,31.6797,-0.564087,0,0,0,0,0,0,0,-1,1875,792,31.6797,0.564059
658,232,46.7423,-3.10736,0,0,0,0,0,0,0,-1,1882,792,46.7423,3.10735
665,232,47.8628,-2.74872,0,0,0,0,0,0,0,-1,1889,792,47.8628,2.7487
672,232,47.9487,-1.90417,0,0,0,0,0,0,0,-1,1896,792,47.9487,1.90418
679,232,47.964,-1.07324,-0.000170942,0.000238143,-7.61526e-05,0.000251859,-0.000184658,-1.39259,0.000253017,0.0215594,1903,792,47.964,1.07325
686,232,47.9471,-0.223694,-0.000279311,0.000130496,-0.000321596,0.000306918,-0.000455733,-1.06904,0.000443102,0.0199685,1910,792,47.9472,0.223678
693,232,47.8843,0.487427,0.000218515,0.000328893,-0.00047495,0.000751849,-0.000204441,-0.843238,0.000581486,0.0120949,1917,792,47.8843,-0.48744
700,232,47.838,1.26733,0.000937724,0.000530217,-0.000499099,0.00127306,0.000194883,-0.591602,0.00079178,0.0142772,1924,792,47.838,-1.26732
707,232,47.7872,2.07568,0.00178442,0.000872711,-0.000393152,0.00193054,0.000726593,-0.355838,0.0011259,0.0138299,1931,792,47.7872,-2.07569
714,232,47.7605,2.87903,0.00285409,0.000890292,-0.000468348,0.00296007,0.000784315,-0.222532,0.00177082,0.0144203,1938,792,47.7605,-2.87904
721,232,47.7006,3.64105,0.00442211,0.000479032,-0.000787801,0.00457369,0.000327461,-0.190075,0.00294604,0.0216667,1945,792,47.7005,-3.64106
728,232,47.5809,4.44537,0,0,0,0,0,0,0,-1,1952,792,47.5809,-4.4454
735,232,46.4131,5.47162,0,0,0,0,0,0,0,-1,1959,792,46.4131,-5.47164
742,232,25.6461,6.00684,0,0,0,0,0,0,0,-1,1966,792,25.6461,-6.00684
749,232,31.2874,3.74713,0,0,0,0,0,0,0,-1,1973,792,31.2874,-3.74713
756,232,32.1207,3.896,0,0,0,0,0,0,0,-1,1980,792,32.1207,-3.89597
763,232,32.7255,4.05878,0,0,0,0,0,0,0,-1,1987,792,32.7255,-4.05881
770,232,0,0,0,0,0,0,0,0,0,-1,1994,792,0,0
777,232,0,0,0,0,0,0,0,0,0,-1,2001,792,0,0
784,232,0,0,0,0,0,0,0,0,0,-1,2008,792,0,0
791,232,0,0,0,0,0,0,0,0,0,-1,2015,792,0,0
798,232,0,0,0,0,0,0,0,0,0,-1,2022,792,0,0
805,232,0,0,0,0,0,0,0,0,0,-1,2029,792,0,0
812,232,0,0,0,0,0,0,0,0,0,-1,2036,792,0,0
-700,225,0,0,0,0,0,0,0,0,0,-1,524,799,0,0
-693,225,0,0,0,0,0,0,0,0,0,-1,531,799,0,0
-686,225,0,0,0,0,0,0,0,0,0,-1,538,799,0,0
-679,225,0,0,0,0,0,0,0,0,0,-1,545,799,0,0
-672,225,0,0,0,0,0,0,0,0,0,-1,552,799,0,0
-665,225,0,0,0,0,0,0,0,0,0,-1,559,799,0,0
-658,225,0,0,0,0,0,0,0,0,0,-1,566,799,0,0
-651,225,0,0,0,0,0,0,0,0,0,-1,573,799,0,0
-644,225,-40.8898,4.14661,0,0,0,0,0,0,0,-1,580,799,-40.8898,-4.14661
-637,225,-41.61,3.36749,0,0,0,0,0,0,0,-1,587,799,-41.61,-3.36751
-630,225,-30.244,4.82196,0,0,0,0,0,0,0,-1,594,799,-30.244,-4.82193
-623,225,-32.8276,-0.00836182,0,0,0,0,0,0,0,-1,601,799,-32.8276,0.00837668
-616,225,-32.0569,-0.549255,0,0,0,0,0,0,0,-1,608,799,-32.0569,0.549265
-609,225,-33.9337,4.40039,0,0,0,0,0,0,0,-1,615,799,-33.9337,-4.40041
-602,225,-34.5376,3.84119,0,0,0,0,0,0,0,-1,622,799,-34.5376,-3.84118
-595,225,-34.5801,2.70026,-0.000612745,0.00310899,-0.000752587,0.00325541,-0.000759168,-1.37864,0.00246265,0.0336883,629,799,-34.5801,-2.70025
-588,225,-34.6036,1.61609,0.000467429,0.00269687,-0.000669253,0.00288234,0.000281957,-1.30045,0.00183481,0.0138599,636,799,-34.6036,-1.61611
-581,225,-34.6271,0.83606,0.00110892,0.00223298,-0.000678402,0.00255192,0.000789983,-1.13133,0.00150855,0.0121061,643,799,-34.6271,-0.836042
-574,225,-34.6625,0.0542603,0.00144198,0.00169461,-0.000605549,0.00218687,0.000949708,-0.888221,0.00126622,0.0100217,650,799,-34.6625,-0.0542888
-567,225,-34.7196,-0.745667,0.00146072,0.00100362,-0.00056378,0.00184052,0.000623826,-0.592825,0.00108084,0.0124868,657,799,-34.7196,0.745646
-560,225,-34.7656,-1.51575,0.00111711,0.000463986,-0.000548296,0.00142873,0.000152371,-0.51681,0.000905977,0.0138504,664,799,-34.7656,1.51575
-553,225,-34.8243,-2.30493,0.000579338,0.000902764,-0.000408449,0.00118035,0.000301754,-0.97389,0.000708081,0.012931,671,799,-34.8243,2.30492
-546,225,-35.0499,-2.99695,0,0,0,0,0,0,0,-1,678,799,-35.0499,2.99697
-539,225,-35.2387,-3.93713,0,0,0,0,0,0,0,-1,685,799,-35.2387,3.93712
-532,225,-36.087,-4.32544,0,0,0,0,0,0,0,-1,692,799,-36.0871,4.32544
-525,225,-29.1705,-3.88239,0,0,0,0,0,0,0,-1,699,799,-29.1705,3.88237
-518,225,-21.963,0.171326,0,0,0,0,0,0,0,-1,706,799,-21.9629,-0.171319
-511,225,-33.0002,0.660217,0,0,0,0,0,0,0,-1,713,799,-33.0002,-0.660239
-504,225,-50.4542,0.524109,0,0,0,0,0,0,0,-1,720,799,-50.4542,-0.524105
-497,225,-52.3298,0.963806,0,0,0,0,0,0,0,-1,727,799,-52.3298,-0.963812
-490,225,-52.3096,0.75647,0.00251242,0.0118607,-0.00426691,0.0135154,0.000857724,-1.20085,0.00873838,0.0418199,734,799,-52.3096,-0.756483
-483,225,-52.3494,0.587646,0.00434462,0.0145244,-0.00559409,0.0169976,0.00187139,-1.15452,0.0107623,0.0337567,741,799,-52.3494,-0.587633
-476,225,-52.3038,0.404175,0.00700613,0.0171562,-0.00652426,0.0203468,0.00381545,-1.11595,0.0124886,0.0304785,748,799,-52.3038,-0.404189
-469,225,-52.2375,0.483948,0.0111186,0.0176201,-0.00625857,0.0214218,0.00731689,-1.02493,0.0125732,0.0340983,755,799,-52.2375,-0.483922
-462,225,0,0,0,0,0,0,0,0,0,-1,762,799,0,0
-455,225,0,0,0,0,0,0,0,0,0,-1,769,799,0,0
-448,225,0,0,0,0,0,0,0,0,0,-1,776,799,0,0
-441,225,0,0,0,0,0,0,0,0,0,-1,783,799,0,0
-434,225,0,0,0,0,0,0,0,0,0,-1,790,799,0,0
-427,225,0,0,0,0,0,0,0,0,0,-1,797,799,0,0
-420,225,0,0,0,0,0,0,0,0,0,-1,804,799,0,0
-413,225,0,0,0,0,0,0,0,0,0,-1,811,799,0,0
-406,225,0,0,0,0,0,0,0,0,0,-1,818,799,0,0
-399,225,0,0,0,0,0,0,0,0,0,-1,825,799,0,0
-392,225,0,0,0,0,0,0,0,0,0,-1,832,799,0,0
-385,225,0,0,0,0,0,0,0,0,0,-1,839,799,0,0
-378,225,0,0,0,0,0,0,0,0,0,-1,846,799,0,0
-371,225,0,0,0,0,0,0,0,0,0,-1,853,799,0,0
-364,225,0,0,0,0,0,0,0,0,0,-1,860,799,0,0
-357,225,0,0,0,0,0,0,0,0,0,-1,867,799,0,0
-350,225,0,0,0,0,0,0,0,0,0,-1,874,799,0,0
-343,225,0,0,0,0,0,0,0,0,0,-1,881,799,0,0
-336,225,0,0,0,0,0,0,0,0,0,-1,888,799,0,0
-329,225,0,0,0,0,0,0,0,0,0,-1,895,799,0,0
-322,225,0,0,0,0,0,0,0,0,0,-1,902,799,0,0
-315,225,0,0,0,0,0,0,0,0,0,-1,909,799,0,0
-308,225,0,0,0,0,0,0,0,0,0,-1,916,799,0,0
-301,225,0,0,0,0,0,0,0,0,0,-1,923,799,0,0
-294,225,0,0,0,0,0,0,0,0,0,-1,930,799,0,0
-287,225,0,0,0,0,0,0,0,0,0,-1,937,799,0,0
-280,225,0,0,0,0,0,0,0,0,0,-1,944,799,0,0
-273,225,0,0,0,0,0,0,0,0,0,-1,951,799,0,0
-266,225,0,0,0,0,0,0,0,0,0,-1,958,799,0,0
-259,225,0,0,0,0,0,0,0,0,0,-1,965,799,0,0
-252,225,0,0,0,0,0,0,0,0,0,-1,972,799,0,0
-245,225,0,0,0,0,0,0,0,0,0,-1,979,799,0,0
-238,225,0,0,0,0,0,0,0,0,0,-1,986,799,0,0
-231,225,0,0,0,0,0,0,0,0,0,-1,993,799,0,0
-224,225,0,0,0,0,0,0,0,0,0,-1,1000,799,0,0
-217,225,0,0,0,0,0,0,0,0,0,-1,1007,799,0,0
-210,225,0,0,0,0,0,0,0,0,0,-1,1014,799,0,0
-203,225,0,0,0,0,0,0,0,0,0,-1,1021,799,0,0
-196,225,0,0,0,0,0,0,0,0,0,-1,1028,799,0,0
-189,225,0,0,0,0,0,0,0,0,0,-1,1035,799,0,0
-182,225,0,0,0,0,0,0,0,0,0,-1,1042,799,0,0
-175,225,0,0,0,0,0,0,0,0,0,-1,1049,799,0,0
-168,225,0,0,0,0,0,0,0,0,0,-1,1056,799,0,0
-161,225,0,0,0,0,0,0,0,0,0,-1,1063,799,0,0
-154,225,0,0,0,0,0,0,0,0,0,-1,1070,799,0,0
-147,225,0,0,0,0,0,0,0,0,0,-1,1077,799,0,0
-140,225,0,0,0,0,0,0,0,0,0,-1,1084,799,0,0
-133,225,0,0,0,0,0,0,0,0,0,-1,1091,799,0,0
-126,225,0,0,0,0,0,0,0,0,0,-1,1098,799,0,0
-119,225,0,0,0,0,0,0,0,0,0,-1,1105,799,0,0
-112,225,0,0,0,0,0,0,0,0,0,-1,1112,799,0,0
-105,225,0,0,0,0,0,0,0,0,0,-1,1119,799,0,0
-98,225,0,0,0,0,0,0,0,0,0,-1,1126,799,0,0
-91,225,0,0,0,0,0,0,0,0,0,-1,1133,799,0,0
-84,225,0,0,0,0,0,0,0,0,0,-1,1140,799,0,0
-77,225,0,0,0,0,0,0,0,0,0,-1,1147,799,0,0
-70,225,0,0,0,0,0,0,0,0,0,-1,1154,799,0,0
-63,225,0,0,0,0,0,0,0,0,0,-1,1161,799,0,0
-56,225,0,0,0,0,0,0,0,0,0,-1,1168,799,0,0
-49,225,0,0,0,0,0,0,0,0,0,-1,1175,799,0,0
-42,225,0,0,0,0,0,0,0,0,0,-1,1182,799,0,0
-35,225,0,0,0,0,0,0,0,0,0,-1,1189,799,0,0
-28,225,0,0,0,0,0,0,0,0,0,-1,1196,799,0,0
-21,225,0,0,0,0,0,0,0,0,0,-1,1203,799,0,0
-14,225,0,0,0,0,0,0,0,0,0,-1,1210,799,0,0
-7,225,0,0,0,0,0,0,0,0,0,-1,1217,799,0,0
0,225,0,0,0,0,0,0,0,0,0,-1,1224,799,0,0
7,225,0,0,0,0,0,0,0,0,0,-1,1231,799,0,0
14,225,0,0,0,0,0,0,0,0,0,-1,1238,799,0,0
21,225,0,0,0,0,0,0,0,0,0,-1,1245,799,0,0
28,225,0,0,0,0,0,0,0,0,0,-1,1252,799,0,0
35,225,0,0,0,0,0,0,0,0,0,-1,1259,799,0,0
42,225,0,0,0,0,0,0,0,0,0,-1,1266,799,0,0
49,225,0,0,0,0,0,0,0,0,0,-1,1273,799,0,0
56,225,0,0,0,0,0,0,0,0,0,-1,1280,799,0,0
63,225,0,0,0,0,0,0,0,0,0,-1,1287,799,0,0
70,225,0,0,0,0,0,0,0,0,0,-1,1294,799,0,0
77,225,0,0,0,0,0,0,0,0,0,-1,1301,799,0,0
84,225,0,0,0,0,0,0,0,0,0,-1,1308,799,0,0
91,225,0,0,0,0,0,0,0,0,0,-1,1315,799,0,0
98,225,0,0,0,0,0,0,0,0,0,-1,1322,799,0,0
105,225,0,0,0,0,0,0,0,0,0,-1,1329,799,0,0
112,225,0,0,0,0,0,0,0,0,0,-1,1336,799,0,0
119,225,0,0,0,0,0,0,0,0,0,-1,1343,799,0,0
126,225,0,0,0,0,0,0,0,0,0,-1,1350,799,0,0
133,225,0,0,0,0,0,0,0,0,0,-1,1357,799,0,0
140,225,0,0,0,0,0,0,0,0,0,-1,1364,799,0,0
147,225,0,0,0,0,0,0,0,0,0,-1,1371,799,0,0
154,225,0,0,0,0,0,0,0,0,0,-1,1378,799,0,0
161,225,0,0,0,0,0,0,0,0,0,-1,1385,799,0,0
168,225,0,0,0,0,0,0,0,0,0,-1,1392,799,0,0
175,225,0,0,0,0,0,0,0,0,0,-1,1399,799,0,0
182,225,0,0,0,0,0,0,0,0,0,-1,1406,799,0,0
189,225,0,0,0,0,0,0,0,0,0,-1,1413,799,0,0
196,225,0,0,0,0,0,0,0,0,0,-1,1420,799,0,0
203,225,0,0,0,0,0,0,0,0,0,-1,1427,799,0,0
210,225,0,0,0,0,0,0,0,0,0,-1,1434,799,0,0
217,225,0,0,0,0,0,0,0,0,0,-1,1441,799,0,0
224,225,0,0,0,0,0,0,0,0,0,-1,1448,799,0,0
231,225,0,0,0,0,0,0,0,0,0,-1,1455,799,0,0
238,225,0,0,0,0,0,0,0,0,0,-1,1462,799,0,0
245,225,0,0,0,0,0,0,0,0,0,-1,1469,799,0,0
252,225,0,0,0,0,0,0,0,0,0,-1,1476,799,0,0
259,225,0,0,0,0,0,0,0,0,0,-1,1483,799,0,0
266,225,0,0,0,0,0,0,0,0,0,-1,1490,799,0,0
273,225,0,0,0,0,0,0,0,0,0,-1,1497,799,0,0
280,225,0,0,0,0,0,0,0,0,0,-1,1504,799,0,0
287,225,0,0,0,0,0,0,0,0,0,-1,1511,799,0,0
294,225,0,0,0,0,0,0,0,0,0,-1,1518,799,0,0
301,225,0,0,0,0,0,0,0,0,0,-1,1525,799,0,0
308,225,0,0,0,0,0,0,0,0,0,-1,1532,799,0,0
315,225,0,0,0,0,0,0,0,0,0,-1,1539,799,0,0
322,225,0,0,0,0,0,0,0,0,0,-1,1546,799,0,0
329,225,0,0,0,0,0,0,0,0,0,-1,1553,799,0,0
336,225,0,0,0,0,0,0,0,0,0,-1,1560,799,0,0
343,225,0,0,0,0,0,0,0,0,0,-1,1567,799,0,0
350,225,0,0,0,0,0,0,0,0,0,-1,1574,799,0,0
357,225,0,0,0,0,0,0,0,0,0,-1,1581,799,0,0
364,225,0,0,0,0,0,0,0,0,0,-1,1588,799,0,0
371,225,0,0,0,0,0,0,0,0,0,-1,1595,799,0,0
378,225,0,0,0,0,0,0,0,0,0,-1,1602,799,0,0
385,225,0,0,0,0,0,0,0,0,0,-1,1609,799,0,0
392,225,0,0,0,0,0,0,0,0,0,-1,1616,799,0,0
399,225,0,0,0,0,0,0,0,0,0,-1,1623,799,0,0
406,225,0,0,0,0,0,0,0,0,0,-1,1630,799,0,0
413,225,0,0,0,0,0,0,0,0,0,-1,1637,799,0,0
420,225,0,0,0,0,0,0,0,0,0,-1,1644,799,0,0
427,225,0,0,0,0,0,0,0,0,0,-1,1651,799,0,0
434,225,0,0,0,0,0,0,0,0,0,-1,1658,799,0,0
441,225,0,0,0,0,0,0,0,0,0,-1,1665,799,0,0
448,225,0,0,0,0,0,0,0,0,0,-1,1672,799,0,0
455,225,0,0,0,0,0,0,0,0,0,-1,1679,799,0,0
462,225,0,0,0,0,0,0,0,0,0,-1,1686,799,0,0
469,225,0,0,0,0,0,0,0,0,0,-1,1693,799,0,0
476,225,0,0,0,0,0,0,0,0,0,-1,1700,799,0,0
483,225,0,0,0,0,0,0,0,0,0,-1,1707,799,0,0
490,225,0,0,0,0,0,0,0,0,0,-1,1714,799,0,0
497,225,0,0,0,0,0,0,0,0,0,-1,1721,799,0,0
504,225,0,0,0,0,0,0,0,0,0,-1,1728,799,0,0
511,225,0,0,0,0,0,0,0,0,0,-1,1735,799,0,0
518,225,0,0,0,0,0,0,0,0,0,-1,1742,799,0,0
525,225,0,0,0,0,0,0,0,0,0,-1,1749,799,0,0
532,225,0,0,0,0,0,0,0,0,0,-1,1756,799,0,0
539,225,0,0,0,0,0,0,0,0,0,-1,1763,799,0,0
546,225,0,0,0,0,0,0,0,0,0,-1,1770,799,0,0
553,225,0,0,0,0,0,0,0,0,0,-1,1777,799,0,0
560,225,0,0,0,0,0,0,0,0,0,-1,1784,799,0,0
567,225,0,0,0,0,0,0,0,0,0,-1,1791,799,0,0
574,225,0,0,0,0,0,0,0,0,0,-1,1798,799,0,0
581,225,0,0,0,0,0,0,0,0,0,-1,1805,799,0,0
588,225,67.3372,2.3418,0.000382257,-0.00342854,0.00507496,0.00389772,-0.006944,0.605815,0.0063413,0.0367106,1812,799,67.3372,-2.34179
595,225,67.3015,2.37787,0.00201087,-0.00121834,0.00518386,0.00582576,-0.00503323,0.634426,0.006275,0.0334042,1819,799,67.3015,-2.37786
602,225,67.3367,2.3988,0.00252982,0.00043612,0.00501684,0.00660787,-0.00364193,0.682541,0.00599974,0.0330049,1826,799,67.3367,-2.39882
609,225,67.2836,2.44995,0.00224563,0.00134114,0.00434584,0.00616269,-0.00257592,0.733553,0.00518497,0.0343514,1833,799,67.2836,-2.44996
616,225,67.2222,2.5083,0.00204624,0.00183299,0.0035436,0.00548482,-0.00160559,0.770358,0.00429302,0.0411928,1840,799,67.2222,-2.50829
623,225,67.2223,2.62634,0.00183225,0.00205762,0.00277933,0.00472655,-0.000836677,0.805659,0.00346378,0.0428973,1847,799,67.2223,-2.62633
630,225,67.4937,2.49139,0,0,0,0,0,0,0,-1,1854,799,67.4937,-2.49137
637,225,55.6359,2.8064,0,0,0,0,0,0,0,-1,1861,799,55.6359,-2.80637
644,225,42.0298,2.46411,0,0,0,0,0,0,0,-1,1868,799,42.0298,-2.4641
651,225,27.9657,0.579529,0,0,0,0,0,0,0,-1,1875,799,27.9657,-0.579541
658,225,47.9047,-1.92926,0,0,0,0,0,0,0,-1,1882,799,47.9047,1.92927
665,225,47.541,-2.27985,0,0,0,0,0,0,0,-1,1889,799,47.5411,2.27983
672,225,48.8259,-2.05377,0,0,0,0,0,0,0,-1,1896,799,48.8259,2.05378
679,225,48.7262,-1.02386,-0.00052917,0.000137641,-0.000147384,0.000168765,-0.000560293,-1.36268,0.00044069,0.0382871,1903,799,48.7262,1.02384
686,225,48.7102,-0.268372,-0.000761287,-6.73261e-05,-0.000496458,0.000191388,-0.00102,-1.0904,0.00075196,0.0130032,1910,799,48.7101,0.268401
693,225,48.6733,0.511963,-0.000215027,5.32598e-06,-0.000752572,0.000655743,-0.000865444,-0.858082,0.000881035,0.0111319,1917,799,48.6734,-0.511966
700,225,48.6259,1.31036,0.000604258,0.00012728,-0.000824487,0.00122406,-0.000492518,-0.644612,0.00102062,0.0126518,1924,799,48.6258,-1.31037
707,225,48.576,2.12073,0.0016088,0.00044601,-0.000719351,0.00195233,0.000102481,-0.445531,0.00126877,0.0125761,1931,799,48.576,-2.12075
714,225,48.5593,2.94421,0.00290745,0.000453708,-0.000803921,0.00314738,0.00021378,-0.290032,0.00203075,0.0136689,1938,799,48.5593,-2.94422
721,225,48.5533,3.73883,0.00464094,3.70932e-05,-0.00114051,0.00490799,-0.000229956,-0.230005,0.00335127,0.0169418,1945,799,48.5533,-3.73884
728,225,48.5553,4.54535,0,0,0,0,0,0,0,-1,1952,799,48.5553,-4.54532
735,225,47.0127,5.93109,0,0,0,0,0,0,0,-1,1959,799,47.0128,-5.93107
742,225,29.0922,3.2132,0,0,0,0,0,0,0,-1,1966,799,29.0921,-3.21322
749,225,29.9529,4.45538,0,0,0,0,0,0,0,-1,1973,799,29.9529,-4.45537
756,225,31.8855,3.83466,0,0,0,0,0,0,0,-1,1980,799,31.8855,-3.83463
763,225,29.4901,5.14417,0,0,0,0,0,0,0,-1,1987,799,29.4902,-5.14415
770,225,0,0,0,0,0,0,0,0,0,-1,1994,799,0,0
777,225,0,0,0,0,0,0,0,0,0,-1,2001,799,0,0
784,225,0,0,0,0,0,0,0,0,0,-1,2008,799,0,0
791,225,0,0,0,0,0,0,0,0,0,-1,2015,799,0,0
798,225,0,0,0,0,0,0,0,0,0,-1,2022,799,0,0
805,225,0,0,0,0,0,0,0,0,0,-1,2029,799,0,0
812,225,0,0,0,0,0,0,0,0,0,-1,2036,799,0,0
-700,218,0,0,0,0,0,0,0,0,0,-1,524,806,0,0
-693,218,0,0,0,0,0,0,0,0,0,-1,531,806,0,0
-686,218,0,0,0,0,0,0,0,0,0,-1,538,806,0,0
-679,218,0,0,0,0,0,0,0,0,0,-1,545,806,0,0
-672,218,0,0,0,0,0,0,0,0,0,-1,552,806,0,0
-665,218,0,0,0,0,0,0,0,0,0,-1,559,806,0,0
-658,218,0,0,0,0,0,0,0,0,0,-1,566,806,0,0
-651,218,-40.3778,5.1792,0,0,0,0,0,0,0,-1,573,806,-40.3778,-5.1792
-644,218,-40.7704,4.19714,0,0,0,0,0,0,0,-1,580,806,-40.7704,-4.19714
-637,218,-41.541,3.36328,0,0,0,0,0,0,0,-1,587,806,-41.541,-3.36326
-630,218,-42.1423,2.85565,0,0,0,0,0,0,0,-1,594,806,-42.1423,-2.85567
-623,218,-42.7292,2.59015,0,0,0,0,0,0,0,-1,601,806,-42.7292,-2.59015
-616,218,-20.0258,1.87585,0,0,0,0,0,0,0,-1,608,806,-20.0258,-1.87585
-609,218,-35.0036,3.98956,0,0,0,0,0,0,0,-1,615,806,-35.0036,-3.98954
-602,218,-35.2144,3.19861,-0.00223276,0.00577685,-0.00332711,0.00697859,-0.0034345,-1.22418,0.00612697,0.0441195,622,806,-35.2143,-3.1986
-595,218,-35.4077,2.46405,-0.000971652,0.00421765,-0.00189321,0.00483493,-0.00158893,-1.25562,0.00386342,0.0193498,629,806,-35.4077,-2.46404
-588,218,-35.4116,1.65192,-5.22547e-07,0.00306443,-0.000804871,0.00326294,-0.000199029,-1.32899,0.00224458,0.0122319,636,806,-35.4116,-1.65195
-581,218,-35.4391,0.887512,0.000811313,0.00216063,-0.000391622,0.00226605,0.000705887,-1.30783,0.00133894,0.0121802,643,806,-35.4391,-0.887521
-574,218,-35.4742,0.114929,0.00144151,0.0015918,-0.00035525,0.00187977,0.00115354,-0.889628,0.00109459,0.0111778,650,806,-35.4742,-0.114927
-567,218,-35.4767,-0.716736,0.00156632,0.000962584,-0.000557852,0.00189875,0.000630164,-0.537395,0.00111671,0.0175014,657,806,-35.4767,0.716743
-560,218,-35.5095,-1.48462,0.00113824,0.000618079,-0.00101275,0.00192377,-0.000167457,-0.659712,0.00134182,0.0175133,664,806,-35.5095,1.48465
-553,218,-35.4719,-2.42346,0.000642625,0.00155914,-0.00118762,0.00237385,-0.000172079,-0.969529,0.00164293,0.0195618,671,806,-35.4719,2.42345
-546,218,-35.7328,-3.315,0,0,0,0,0,0,0,-1,678,806,-35.7329,3.31501
-539,218,-35.8608,-3.94836,0,0,0,0,0,0,0,-1,685,806,-35.8609,3.94833
-532,218,-35.7491,-4.4635,0,0,0,0,0,0,0,-1,692,806,-35.7491,4.4635
-525,218,-29.3521,-3.64417,0,0,0,0,0,0,0,-1,699,806,-29.3521,3.64414
-518,218,-23.61,2.54181,0,0,0,0,0,0,0,-1,706,806,-23.61,-2.54183
-511,218,-41.0953,1.06879,0,0,0,0,0,0,0,-1,713,806,-41.0953,-1.06876
-504,218,-51.0542,0.806458,0,0,0,0,0,0,0,-1,720,806,-51.0542,-0.806438
-497,218,-52.1528,0.831787,0,0,0,0,0,0,0,-1,727,806,-52.1528,-0.831799
-490,218,-52.2606,0.655701,0.0028496,0.0122142,-0.00434512,0.0139197,0.00114409,-1.19676,0.0089229,0.0372185,734,806,-52.2606,-0.655695
-483,218,-52.3137,0.437561,0.004825,0.0142962,-0.00532861,0.0166895,0.00243179,-1.14867,0.0104108,0.0329267,741,806,-52.3136,-0.437549
-476,218,-52.2667,0.29248,0.00770016,0.0156345,-0.00566517,0.0185835,0.00475122,-1.09085,0.011148,0.035371,748,806,-52.2667,-0.292457
-469,218,0,0,0,0,0,0,0,0,0,-1,755,806,0,0
-462,218,0,0,0,0,0,0,0,0,0,-1,762,806,0,0
-455,218,0,0,0,0,0,0,0,0,0,-1,769,806,0,0
-448,218,0,0,0,0,0,0,0,0,0,-1,776,806,0,0
-441,218,0,0,0,0,0,0,0,0,0,-1,783,806,0,0
-434,218,0,0,0,0,0,0,0,0,0,-1,790,806,0,0
-427,218,0,0,0,0,0,0,0,0,0,-1,797,806,0,0
-420,218,0,0,0,0,0,0,0,0,0,-1,804,806,0,0
-413,218,0,0,0,0,0,0,0,0,0,-1,811,806,0,0
-406,218,0,0,0,0,0,0,0,0,0,-1,818,806,0,0
-399,218,0,0,0,0,0,0,0,0,0,-1,825,806,0,0
-392,218,0,0,0,0,0,0,0,0,0,-1,832,806,0,0
-385,218,0,0,0,0,0,0,0,0,0,-1,839,806,0,0
-378,218,0,0,0,0,0,0,0,0,0,-1,846,806,0,0
-371,218,0,0,0,0,0,0,0,0,0,-1,853,806,0,0
-364,218,0,0,0,0,0,0,0,0,0,-1,860,806,0,0
-357,218,0,0,0,0,0,0,0,0,0,-1,867,806,0,0
-350,218,0,0,0,0,0,0,0,0,0,-1,874,806,0,0
-343,218,0,0,0,0,0,0,0,0,0,-1,881,806,0,0
-336,218,0,0,0,0,0,0,0,0,0,-1,888,806,0,0
-329,218,0,0,0,0,0,0,0,0,0,-1,895,806,0,0
-322,218,0,0,0,0,0,0,0,0,0,-1,902,806,0,0
-315,218,0,0,0,0,0,0,0,0,0,-1,909,806,0,0
-308,218,0,0,0,0,0,0,0,0,0,-1,916,806,0,0
-301,218,0,0,0,0,0,0,0,0,0,-1,923,806,0,0
-294,218,0,0,0,0,0,0,0,0,0,-1,930,806,0,0
-287,218,0,0,0,0,0,0,0,0,0,-1,937,806,0,0
-280,218,0,0,0,0,0,0,0,0,0,-1,944,806,0,0
-273,218,0,0,0,0,0,0,0,0,0,-1,951,806,0,0
-266,218,0,0,0,0,0,0,0,0,0,-1,958,806,0,0
-259,218,0,0,0,0,0,0,0,0,0,-1,965,806,0,0
-252,218,0,0,0,0,0,0,0,0,0,-1,972,806,0,0
-245,218,0,0,0,0,0,0,0,0,0,-1,979,806,0,0
-238,218,0,0,0,0,0,0,0,0,0,-1,986,806,0,0
-231,218,0,0,0,0,0,0,0,0,0,-1,993,806,0,0
-224,218,0,0,0,0,0,0,0,0,0,-1,1000,806,0,0
-217,218,0,0,0,0,0,0,0,0,0,-1,1007,806,0,0
-210,218,0,0,0,0,0,0,0,0,0,-1,1014,806,0,0
-203,218,0,0,0,0,0,0,0,0,0,-1,1021,806,0,0
-196,218,0,0,0,0,0,0,0,0,0,-1,1028,806,0,0
-189,218,0,0,0,0,0,0,0,0,0,-1,1035,806,0,0
-182,218,0,0,0,0,0,0,0,0,0,-1,1042,806,0,0
-175,218,0,0,0,0,0,0,0,0,0,-1,1049,806,0,0
-168,218,0,0,0,0,0,0,0,0,0,-1,1056,806,0,0
-161,218,0,0,0,0,0,0,0,0,0,-1,1063,806,0,0
-154,218,0,0,0,0,0,0,0,0,0,-1,1070,806,0,0
-147,218,0,0,0,0,0,0,0,0,0,-1,1077,806,0,0
-140,218,0,0,0,0,0,0,0,0,0,-1,1084,806,0,0
-133,218,0,0,0,0,0,0,0,0,0,-1,1091,806,0,0
-126,218,0,0,0,0,0,0,0,0,0,-1,1098,806,0,0
-119,218,0,0,0,0,0,0,0,0,0,-1,1105,806,0,0
-112,218,0,0,0,0,0,0,0,0,0,-1,1112,806,0,0
-105,218,0,0,0,0,0,0,0,0,0,-1,1119,806,0,0
-98,218,0,0,0,0,0,0,0,0,0,-1,1126,806,0,0
-91,218,0,0,0,0,0,0,0,0,0,-1,1133,806,0,0
-84,218,0,0,0,0,0,0,0,0,0,-1,1140,806,0,0
-77,218,0,0,0,0,0,0,0,0,0,-1,1147,806,0,0
-70,218,0,0,0,0,0,0,0,0,0,-1,1154,806,0,0
-63,218,0,0,0,0,0,0,0,0,0,-1,1161,806,0,0
-56,218,0,0,0,0,0,0,0,0,0,-1,1168,806,0,0
-49,218,0,0,0,0,0,0,0,0,0,-1,1175,806,0,0
-42,218,0,0,0,0,0,0,0,0,0,-1,1182,806,0,0
-35,218,0,0,0,0,0,0,0,0,0,-1,1189,806,0,0
-28,218,0,0,0,0,0,0,0,0,0,-1,1196,806,0,0
-21,218,0,0,0,0,0,0,0,0,0,-1,1203,806,0,0
-14,218,0,0,0,0,0,0,0,0,0,-1,1210,806,0,0
-7,218,0,0,0,0,0,0,0,0,0,-1,1217,806,0,0
0,218,0,0,0,0,0,0,0,0,0,-1,1224,806,0,0
7,218,0,0,0,0,0,0,0,0,0,-1,1231,806,0,0
14,218,0,0,0,0,0,0,0,0,0,-1,1238,806,0,0
21,218,0,0,0,0,0,0,0,0,0,-1,1245,806,0,0
28,218,0,0,0,0,0,0,0,0,0,-1,1252,806,0,0
35,218,0,0,0,0,0,0,0,0,0,-1,1259,806,0,0
42,218,0,0,0,0,0,0,0,0,0,-1,1266,806,0,0
49,218,0,0,0,0,0,0,0,0,0,-1,1273,806,0,0
56,218,0,0,0,0,0,0,0,0,0,-1,1280,806,0,0
63,218,0,0,0,0,0,0,0,0,0,-1,1287,806,0,0
70,218,0,0,0,0,0,0,0,0,0,-1,1294,806,0,0
77,218,0,0,0,0,0,0,0,0,0,-1,1301,806,0,0
84,218,0,0,0,0,0,0,0,0,0,-1,1308,806,0,0
91,218,0,0,0,0,0,0,0,0,0,-1,1315,806,0,0
98,218,0,0,0,0,0,0,0,0,0,-1,1322,806,0,0
105,218,0,0,0,0,0,0,0,0,0,-1,1329,806,0,0
112,218,0,0,0,0,0,0,0,0,0,-1,1336,806,0,0
119,218,0,0,0,0,0,0,0,0,0,-1,1343,806,0,0
126,218,0,0,0,0,0,0,0,0,0,-1,1350,806,0,0
133,218,0,0,0,0,0,0,0,0,0,-1,1357,806,0,0
140,218,0,0,0,0,0,0,0,0,0,-1,1364,806,0,0
147,218,0,0,0,0,0,0,0,0,0,-1,1371,806,0,0
154,218,0,0,0,0,0,0,0,0,0,-1,1378,806,0,0
161,218,0,0,0,0,0,0,0,0,0,-1,1385,806,0,0
168,218,0,0,0,0,0,0,0,0,0,-1,1392,806,0,0
175,218,0,0,0,0,0,0,0,0,0,-1,1399,806,0,0
182,218,0,0,0,0,0,0,0,0,0,-1,1406,806,0,0
189,218,0,0,0,0,0,0,0,0,0,-1,1413,806,0,0
196,218,0,0,0,0,0,0,0,0,0,-1,1420,806,0,0
203,218,0,0,0,0,0,0,0,0,0,-1,1427,806,0,0
210,218,0,0,0,0,0,0,0,0,0,-1,1434,806,0,0
217,218,0,0,0,0,0,0,0,0,0,-1,1441,806,0,0
224,218,0,0,0,0,0,0,0,0,0,-1,1448,806,0,0
231,218,0,0,0,0,0,0,0,0,0,-1,1455,806,0,0
238,218,0,0,0,0,0,0,0,0,0,-1,1462,806,0,0
245,218,0,0,0,0,0,0,0,0,0,-1,1469,806,0,0
252,218,0,0,0,0,0,0,0,0,0,-1,1476,806,0,0
259,218,0,0,0,0,0,0,0,0,0,-1,1483,806,0,0
266,218,0,0,0,0,0,0,0,0,0,-1,1490,806,0,0
273,218,0,0,0,0,0,0,0,0,0,-1,1497,806,0,0
280,218,0,0,0,0,0,0,0,0,0,-1,1504,806,0,0
287,218,0,0,0,0,0,0,0,0,0,-1,1511,806,0,0
294,218,0,0,0,0,0,0,0,0,0,-1,1518,806,0,0
301,218,0,0,0,0,0,0,0,0,0,-1,1525,806,0,0
308,218,0,0,0,0,0,0,0,0,0,-1,1532,806,0,0
315,218,0,0,0,0,0,0,0,0,0,-1,1539,806,0,0
322,218,0,0,0,0,0,0,0,0,0,-1,1546,806,0,0
329,218,0,0,0,0,0,0,0,0,0,-1,1553,806,0,0
336,218,0,0,0,0,0,0,0,0,0,-1,1560,806,0,0
343,218,0,0,0,0,0,0,0,0,0,-1,1567,806,0,0
350,218,0,0,0,0,0,0,0,0,0,-1,1574,806,0,0
357,218,0,0,0,0,0,0,0,0,0,-1,1581,806,0,0
364,218,0,0,0,0,0,0,0,0,0,-1,1588,806,0,0
371,218,0,0,0,0,0,0,0,0,0,-1,1595,806,0,0
378,218,0,0,0,0,0,0,0,0,0,-1,1602,806,0,0
385,218,0,0,0,0,0,0,0,0,0,-1,1609,806,0,0
392,218,0,0,0,0,0,0,0,0,0,-1,1616,806,0,0
399,218,0,0,0,0,0,0,0,0,0,-1,1623,806,0,0
406,218,0,0,0,0,0,0,0,0,0,-1,1630,806,0,0
413,218,0,0,0,0,0,0,0,0,0,-1,1637,806,0,0
420,218,0,0,0,0,0,0,0,0,0,-1,1644,806,0,0
427,218,0,0,0,0,0,0,0,0,0,-1,1651,806,0,0
434,218,0,0,0,0,0,0,0,0,0,-1,1658,806,0,0
441,218,0,0,0,0,0,0,0,0,0,-1,1665,806,0,0
448,218,0,0,0,0,0,0,0,0,0,-1,1672,806,0,0
455,218,0,0,0,0,0,0,0,0,0,-1,1679,806,0,0
462,218,0,0,0,0,0,0,0,0,0,-1,1686,806,0,0
469,218,0,0,0,0,0,0,0,0,0,-1,1693,806,0,0
476,218,0,0,0,0,0,0,0,0,0,-1,1700,806,0,0
483,218,0,0,0,0,0,0,0,0,0,-1,1707,806,0,0
490,218,0,0,0,0,0,0,0,0,0,-1,1714,806,0,0
497,218,0,0,0,0,0,0,0,0,0,-1,1721,806,0,0
504,218,0,0,0,0,0,0,0,0,0,-1,1728,806,0,0
511,218,0,0,0,0,0,0,0,0,0,-1,1735,806,0,0
518,218,0,0,0,0,0,0,0,0,0,-1,1742,806,0,0
525,218,0,0,0,0,0,0,0,0,0,-1,1749,806,0,0
532,218,0,0,0,0,0,0,0,0,0,-1,1756,806,0,0
539,218,0,0,0,0,0,0,0,0,0,-1,1763,806,0,0
546,218,0,0,0,0,0,0,0,0,0,-1,1770,806,0,0
553,218,0,0,0,0,0,0,0,0,0,-1,1777,806,0,0
560,218,0,0,0,0,0,0,0,0,0,-1,1784,806,0,0
567,218,0,0,0,0,0,0,0,0,0,-1,1791,806,0,0
574,218,0,0,0,0,0,0,0,0,0,-1,1798,806,0,0
581,218,0,0,0,0,0,0,0,0,0,-1,1805,806,0,0
588,218,0,0,0,0,0,0,0,0,0,-1,1812,806,0,0
595,218,67.2755,2.4884,0.00159981,-0.00101599,0.00356755,0.00409164,-0.00350783,0.609701,0.00439187,0.0352139,1819,806,67.2755,-2.4884
602,218,67.3289,2.49786,0.00200374,0.000637625,0.0036636,0.00504742,-0.00240605,0.693234,0.00439241,0.0329347,1826,806,67.3288,-2.49787
609,218,67.2921,2.49567,0.0017193,0.00156408,0.00333783,0.00498042,-0.00169704,0.773774,0.00400758,0.0300747,1833,806,67.2921,-2.49569
616,218,67.2159,2.49841,0.00147458,0.00206305,0.00283632,0.00462036,-0.00108273,0.837083,0.00349747,0.032715,1840,806,67.2159,-2.49841
623,218,67.2865,2.44885,0.00130166,0.00222668,0.00231185,0.00412183,-0.000593489,0.884126,0.00296558,0.0376121,1847,806,67.2865,-2.44887
630,218,67.4211,2.46002,0.000954585,0.00200814,0.00170934,0.00327003,-0.000307311,0.934868,0.00228935,0.0422926,1854,806,67.4212,-2.46004
637,218,67.5367,2.49011,0,0,0,0,0,0,0,-1,1861,806,67.5367,-2.49012
644,218,52.4042,2.47949,0,0,0,0,0,0,0,-1,1868,806,52.4041,-2.47949
651,218,41.7338,1.99164,0,0,0,0,0,0,0,-1,1875,806,41.7338,-1.99162
658,218,28.41,0.514954,0,0,0,0,0,0,0,-1,1882,806,28.41,-0.514983
665,218,50.2797,-2.52893,0,0,0,0,0,0,0,-1,1889,806,50.2797,2.52891
672,218,49.9269,-1.55981,0,0,0,0,0,0,0,-1,1896,806,49.9269,1.55983
679,218,49.651,-0.936218,-0.000859532,2.7364e-05,-0.000261844,9.88997e-05,-0.000931068,-1.3041,0.000656168,0.0454319,1903,806,49.6509,0.9362
686,218,49.4935,-0.225342,-0.00115787,-0.000227391,-0.000658223,0.000113413,-0.00149867,-1.09304,0.00103899,0.0202456,1910,806,49.4936,0.22535
693,218,49.5001,0.559082,-0.000630137,-0.000235419,-0.000990089,0.000576789,-0.00144235,-0.883776,0.00120092,0.0121319,1917,806,49.5001,-0.559063
700,218,49.4313,1.34814,0.000150109,-0.000192878,-0.00109375,0.00108573,-0.0011285,-0.707634,0.00127846,0.00973185,1924,806,49.4313,-1.34811
707,218,49.3873,2.15668,0.00120128,5.27168e-05,-0.000971947,0.00175593,-0.00050193,-0.518563,0.00136895,0.00809146,1931,806,49.3873,-2.1567
714,218,49.3693,2.98071,0.00265778,9.04714e-06,-0.00103462,0.00301401,-0.000347179,-0.331593,0.0021345,0.0108729,1938,806,49.3692,-2.98074
721,218,49.354,3.76575,0.00448613,-0.000448369,-0.00135941,0.00483585,-0.000798088,-0.251798,0.00352022,0.0145961,1945,806,49.354,-3.76576
728,218,49.3068,4.60205,0.00681065,-0.00146303,-0.00202828,0.00728113,-0.00193351,-0.227927,0.00561076,0.0301252,1952,806,49.3068,-4.60203
735,218,49.406,5.52942,0,0,0,0,0,0,0,-1,1959,806,49.406,-5.52945
742,218,47.8733,6.84155,0,0,0,0,0,0,0,-1,1966,806,47.8733,-6.84158
749,218,42.0249,6.64703,0,0,0,0,0,0,0,-1,1973,806,42.0249,-6.64703
756,218,49.9119,5.87274,0,0,0,0,0,0,0,-1,1980,806,49.9118,-5.87277
763,218,41.823,6.53076,0,0,0,0,0,0,0,-1,1987,806,41.8229,-6.53077
770,218,0,0,0,0,0,0,0,0,0,-1,1994,806,0,0
777,218,0,0,0,0,0,0,0,0,0,-1,2001,806,0,0
784,218,0,0,0,0,0,0,0,0,0,-1,2008,806,0,0
791,218,0,0,0,0,0,0,0,0,0,-1,2015,806,0,0
798,218,0,0,0,0,0,0,0,0,0,-1,2022,806,0,0
805,218,0,0,0,0,0,0,0,0,0,-1,2029,806,0,0
812,218,0,0,0,0,0,0,0,0,0,-1,2036,806,0,0
-700,211,0,0,0,0,0,0,0,0,0,-1,524,813,0,0
-693,211,0,0,0,0,0,0,0,0,0,-1,531,813,0,0
-686,211,0,0,0,0,0,0,0,0,0,-1,538,813,0,0
-679,211,0,0,0,0,0,0,0,0,0,-1,545,813,0,0
-672,211,0,0,0,0,0,0,0,0,0,-1,552,813,0,0
-665,211,0,0,0,0,0,0,0,0,0,-1,559,813,0,0
-658,211,0,0,0,0,0,0,0,0,0,-1,566,813,0,0
-651,211,-40.2495,5.20386,0,0,0,0,0,0,0,-1,573,813,-40.2494,-5.20384
-644,211,-40.6288,4.32092,0,0,0,0,0,0,0,-1,580,813,-40.6288,-4.3209
-637,211,-41.3664,3.51849,0,0,0,0,0,0,0,-1,587,813,-41.3664,-3.51847
-630,211,-41.9262,2.94977,0,0,0,0,0,0,0,-1,594,813,-41.9262,-2.94975
-623,211,-42.5012,2.62903,0,0,0,0,0,0,0,-1,601,813,-42.5011,-2.629
-616,211,-36.228,4.13818,0,0,0,0,0,0,0,-1,608,813,-36.228,-4.13818
-609,211,-36.0845,3.6756,-0.00398648,0.0100801,-0.00751093,0.0133367,-0.00724305,-1.16168,0.0120541,0.0424691,615,813,-36.0845,-3.67561
-602,211,-36.0284,3.23798,-0.00273422,0.00647954,-0.00386945,0.00788897,-0.00414366,-1.22149,0.00705833,0.0229944,622,813,-36.0284,-3.23795
-595,211,-36.1585,2.47449,-0.00147368,0.0044132,-0.00199477,0.00502546,-0.00208593,-1.27299,0.00422106,0.0116051,629,813,-36.1585,-2.4745
-588,211,-36.2117,1.6861,-0.000425093,0.00293383,-0.000594418,0.00303591,-0.000527183,-1.40071,0.00222063,0.0118498,636,813,-36.2117,-1.68611
-581,211,-36.2404,0.920166,0.000577133,0.00190348,-9.51961e-05,0.00191028,0.000570336,-1.49951,0.00113234,0.012535,643,813,-36.2403,-0.920144
-574,211,-36.2672,0.140503,0.0014194,0.00135717,-0.000119208,0.00151149,0.00126509,-0.657735,0.000936395,0.0140363,650,813,-36.2672,-0.140499
-567,211,-36.2966,-0.659363,0.00149601,0.000850474,-0.000627708,0.00187908,0.000467413,-0.547925,0.00112962,0.0203663,657,813,-36.2966,0.659363
-560,211,-36.326,-1.49097,0.00100536,0.000721412,-0.00168295,0.00255231,-0.00082554,-0.743317,0.00203337,0.0329308,664,813,-36.3261,1.49099
-553,211,-36.3997,-2.44263,0,0,0,0,0,0,0,-1,671,813,-36.3996,2.44262
-546,211,-36.4158,-3.63306,0,0,0,0,0,0,0,-1,678,813,-36.4158,3.63305
-539,211,-36.5942,-3.80627,0,0,0,0,0,0,0,-1,685,813,-36.5943,3.8063
-532,211,-36.4897,-4.54852,0,0,0,0,0,0,0,-1,692,813,-36.4897,4.54854
-525,211,-14.3009,2.3233,0,0,0,0,0,0,0,-1,699,813,-14.3009,-2.3233
-518,211,-34.952,1.93011,0,0,0,0,0,0,0,-1,706,813,-34.952,-1.9301
-511,211,-50.538,0.592041,0,0,0,0,0,0,0,-1,713,813,-50.538,-0.59206
-504,211,-52.249,0.781067,0,0,0,0,0,0,0,-1,720,813,-52.249,-0.781088
-497,211,-52.2429,0.625061,0.0018788,0.0106114,-0.00460385,0.0125902,-9.99779e-05,-1.16486,0.00842697,0.047764,727,813,-52.2429,-0.625087
-490,211,-52.2861,0.511841,0.00341292,0.0124152,-0.00516917,0.0147683,0.00105981,-1.14361,0.00951195,0.0354319,734,813,-52.2861,-0.511865
-483,211,-52.3118,0.444824,0.00550982,0.0134326,-0.00550179,0.0162508,0.00269167,-1.09742,0.0100574,0.0327602,741,813,-52.3118,-0.44483
-476,211,-52.2446,0.510803,0.00868455,0.0123181,-0.00450195,0.015356,0.00564661,-0.977181,0.00896864,0.0354613,748,813,-52.2446,-0.510808
-469,211,0,0,0,0,0,0,0,0,0,-1,755,813,0,0
-462,211,0,0,0,0,0,0,0,0,0,-1,762,813,0,0
-455,211,0,0,0,0,0,0,0,0,0,-1,769,813,0,0
-448,211,0,0,0,0,0,0,0,0,0,-1,776,813,0,0
-441,211,0,0,0,0,0,0,0,0,0,-1,783,813,0,0
-434,211,0,0,0,0,0,0,0,0,0,-1,790,813,0,0
-427,211,0,0,0,0,0,0,0,0,0,-1,797,813,0,0
-420,211,0,0,0,0,0,0,0,0,0,-1,804,813,0,0
-413,211,0,0,0,0,0,0,0,0,0,-1,811,813,0,0
-406,211,0,0,0,0,0,0,0,0,0,-1,818,813,0,0
-399,211,0,0,0,0,0,0,0,0,0,-1,825,813,0,0
-392,211,0,0,0,0,0,0,0,0,0,-1,832,813,0,0
-385,211,0,0,0,0,0,0,0,0,0,-1,839,813,0,0
-378,211,0,0,0,0,0,0,0,0,0,-1,846,813,0,0
-371,211,0,0,0,0,0,0,0,0,0,-1,853,813,0,0
-364,211,0,0,0,0,0,0,0,0,0,-1,860,813,0,0
-357,211,0,0,0,0,0,0,0,0,0,-1,867,813,0,0
-350,211,0,0,0,0,0,0,0,0,0,-1,874,813,0,0
-343,211,0,0,0,0,0,0,0,0,0,-1,881,813,0,0
-336,211,0,0,0,0,0,0,0,0,0,-1,888,813,0,0
-329,211,0,0,0,0,0,0,0,0,0,-1,895,813,0,0
-322,211,0,0,0,0,0,0,0,0,0,-1,902,813,0,0
-315,211,0,0,0,0,0,0,0,0,0,-1,909,813,0,0
-308,211,0,0,0,0,0,0,0,0,0,-1,916,813,0,0
-301,211,0,0,0,0,0,0,0,0,0,-1,923,813,0,0
-294,211,0,0,0,0,0,0,0,0,0,-1,930,813,0,0
-287,211,0,0,0,0,0,0,0,0,0,-1,937,813,0,0
-280,211,0,0,0,0,0,0,0,0,0,-1,944,813,0,0
-273,211,0,0,0,0,0,0,0,0,0,-1,951,813,0,0
-266,211,0,0,0,0,0,0,0,0,0,-1,958,813,0,0
-259,211,0,0,0,0,0,0,0,0,0,-1,965,813,0,0
-252,211,0,0,0,0,0,0,0,0,0,-1,972,813,0,0
-245,211,0,0,0,0,0,0,0,0,0,-1,979,813,0,0
-238,211,0,0,0,0,0,0,0,0,0,-1,986,813,0,0
-231,211,0,0,0,0,0,0,0,0,0,-1,993,813,0,0
-224,211,0,0,0,0,0,0,0,0,0,-1,1000,813,0,0
-217,211,0,0,0,0,0,0,0,0,0,-1,1007,813,0,0
-210,211,0,0,0,0,0,0,0,0,0,-1,1014,813,0,0
-203,211,0,0,0,0,0,0,0,0,0,-1,1021,813,0,0
-196,211,0,0,0,0,0,0,0,0,0,-1,1028,813,0,0
-189,211,0,0,0,0,0,0,0,0,0,-1,1035,813,0,0
-182,211,0,0,0,0,0,0,0,0,0,-1,1042,813,0,0
-175,211,0,0,0,0,0,0,0,0,0,-1,1049,813,0,0
-168,211,0,0,0,0,0,0,0,0,0,-1,1056,813,0,0
-161,211,0,0,0,0,0,0,0,0,0,-1,1063,813,0,0
-154,211,0,0,0,0,0,0,0,0,0,-1,1070,813,0,0
-147,211,0,0,0,0,0,0,0,0,0,-1,1077,813,0,0
-140,211,0,0,0,0,0,0,0,0,0,-1,1084,813,0,0
-133,211,0,0,0,0,0,0,0,0,0,-1,1091,813,0,0
-126,211,0,0,0,0,0,0,0,0,0,-1,1098,813,0,0
-119,211,0,0,0,0,0,0,0,0,0,-1,1105,813,0,0
-112,211,0,0,0,0,0,0,0,0,0,-1,1112,813,0,0
-105,211,0,0,0,0,0,0,0,0,0,-1,1119,813,0,0
-98,211,0,0,0,0,0,0,0,0,0,-1,1126,813,0,0
-91,211,0,0,0,0,0,0,0,0,0,-1,1133,813,0,0
-84,211,0,0,0,0,0,0,0,0,0,-1,1140,813,0,0
-77,211,0,0,0,0,0,0,0,0,0,-1,1147,813,0,0
-70,211,0,0,0,0,0,0,0,0,0,-1,1154,813,0,0
-63,211,0,0,0,0,0,0,0,0,0,-1,1161,813,0,0
-56,211,0,0,0,0,0,0,0,0,0,-1,1168,813,0,0
-49,211,0,0,0,0,0,0,0,0,0,-1,1175,813,0,0
-42,211,0,0,0,0,0,0,0,0,0,-1,1182,813,0,0
-35,211,0,0,0,0,0,0,0,0,0,-1,1189,813,0,0
-28,211,0,0,0,0,0,0,0,0,0,-1,1196,813,0,0
-21,211,0,0,0,0,0,0,0,0,0,-1,1203,813,0,0
-14,211,0,0,0,0,0,0,0,0,0,-1,1210,813,0,0
-7,211,0,0,0,0,0,0,0,0,0,-1,1217,813,0,0
0,211,0,0,0,0,0,0,0,0,0,-1,1224,813,0,0
7,211,0,0,0,0,0,0,0,0,0,-1,1231,813,0,0
14,211,0,0,0,0,0,0,0,0,0,-1,1238,813,0,0
21,211,0,0,0,0,0,0,0,0,0,-1,1245,813,0,0
28,211,0,0,0,0,0,0,0,0,0,-1,1252,813,0,0
35,211,0,0,0,0,0,0,0,0,0,-1,1259,813,0,0
42,211,0,0,0,0,0,0,0,0,0,-1,1266,813,0,0
49,211,0,0,0,0,0,0,0,0,0,-1,1273,813,0,0
56,211,0,0,0,0,0,0,0,0,0,-1,1280,813,0,0
63,211,0,0,0,0,0,0,0,0,0,-1,1287,813,0,0
70,211,0,0,0,0,0,0,0,0,0,-1,1294,813,0,0
77,211,0,0,0,0,0,0,0,0,0,-1,1301,813,0,0
84,211,0,0,0,0,0,0,0,0,0,-1,1308,813,0,0
91,211,0,0,0,0,0,0,0,0,0,-1,1315,813,0,0
98,211,0,0,0,0,0,0,0,0,0,-1,1322,813,0,0
105,211,0,0,0,0,0,0,0,0,0,-1,1329,813,0,0
112,211,0,0,0,0,0,0,0,0,0,-1,1336,813,0,0
119,211,0,0,0,0,0,0,0,0,0,-1,1343,813,0,0
126,211,0,0,0,0,0,0,0,0,0,-1,1350,813,0,0
133,211,0,0,0,0,0,0,0,0,0,-1,1357,813,0,0
140,211,0,0,0,0,0,0,0,0,0,-1,1364,813,0,0
147,211,0,0,0,0,0,0,0,0,0,-1,1371,813,0,0
154,211,0,0,0,0,0,0,0,0,0,-1,1378,813,0,0
161,211,0,0,0,0,0,0,0,0,0,-1,1385,813,0,0
168,211,0,0,0,0,0,0,0,0,0,-1,1392,813,0,0
175,211,0,0,0,0,0,0,0,0,0,-1,1399,813,0,0
182,211,0,0,0,0,0,0,0,0,0,-1,1406,813,0,0
189,211,0,0,0,0,0,0,0,0,0,-1,1413,813,0,0
196,211,0,0,0,0,0,0,0,0,0,-1,1420,813,0,0
203,211,0,0,0,0,0,0,0,0,0,-1,1427,813,0,0
210,211,0,0,0,0,0,0,0,0,0,-1,1434,813,0,0
217,211,0,0,0,0,0,0,0,0,0,-1,1441,813,0,0
224,211,0,0,0,0,0,0,0,0,0,-1,1448,813,0,0
231,211,0,0,0,0,0,0,0,0,0,-1,1455,813,0,0
238,211,0,0,0,0,0,0,0,0,0,-1,1462,813,0,0
245,211,0,0,0,0,0,0,0,0,0,-1,1469,813,0,0
252,211,0,0,0,0,0,0,0,0,0,-1,1476,813,0,0
259,211,0,0,0,0,0,0,0,0,0,-1,1483,813,0,0
266,211,0,0,0,0,0,0,0,0,0,-1,1490,813,0,0
273,211,0,0,0,0,0,0,0,0,0,-1,1497,813,0,0
280,211,0,0,0,0,0,0,0,0,0,-1,1504,813,0,0
287,211,0,0,0,0,0,0,0,0,0,-1,1511,813,0,0
294,211,0,0,0,0,0,0,0,0,0,-1,1518,813,0,0
301,211,0,0,0,0,0,0,0,0,0,-1,1525,813,0,0
308,211,0,0,0,0,0,0,0,0,0,-1,1532,813,0,0
315,211,0,0,0,0,0,0,0,0,0,-1,1539,813,0,0
322,211,0,0,0,0,0,0,0,0,0,-1,1546,813,0,0
329,211,0,0,0,0,0,0,0,0,0,-1,1553,813,0,0
336,211,0,0,0,0,0,0,0,0,0,-1,1560,813,0,0
343,211,0,0,0,0,0,0,0,0,0,-1,1567,813,0,0
350,211,0,0,0,0,0,0,0,0,0,-1,1574,813,0,0
357,211,0,0,0,0,0,0,0,0,0,-1,1581,813,0,0
364,211,0,0,0,0,0,0,0,0,0,-1,1588,813,0,0
371,211,0,0,0,0,0,0,0,0,0,-1,1595,813,0,0
378,211,0,0,0,0,0,0,0,0,0,-1,1602,813,0,0
385,211,0,0,0,0,0,0,0,0,0,-1,1609,813,0,0
392,211,0,0,0,0,0,0,0,0,0,-1,1616,813,0,0
399,211,0,0,0,0,0,0,0,0,0,-1,1623,813,0,0
406,211,0,0,0,0,0,0,0,0,0,-1,1630,813,0,0
413,211,0,0,0,0,0,0,0,0,0,-1,1637,813,0,0
420,211,0,0,0,0,0,0,0,0,0,-1,1644,813,0,0
427,211,0,0,0,0,0,0,0,0,0,-1,1651,813,0,0
434,211,0,0,0,0,0,0,0,0,0,-1,1658,813,0,0
441,211,0,0,0,0,0,0,0,0,0,-1,1665,813,0,0
448,211,0,0,0,0,0,0,0,0,0,-1,1672,813,0,0
455,211,0,0,0,0,0,0,0,0,0,-1,1679,813,0,0
462,211,0,0,0,0,0,0,0,0,0,-1,1686,813,0,0
469,211,0,0,0,0,0,0,0,0,0,-1,1693,813,0,0
476,211,0,0,0,0,0,0,0,0,0,-1,1700,813,0,0
483,211,0,0,0,0,0,0,0,0,0,-1,1707,813,0,0
490,211,0,0,0,0,0,0,0,0,0,-1,1714,813,0,0
497,211,0,0,0,0,0,0,0,0,0,-1,1721,813,0,0
504,211,0,0,0,0,0,0,0,0,0,-1,1728,813,0,0
511,211,0,0,0,0,0,0,0,0,0,-1,1735,813,0,0
518,211,0,0,0,0,0,0,0,0,0,-1,1742,813,0,0
525,211,0,0,0,0,0,0,0,0,0,-1,1749,813,0,0
532,211,0,0,0,0,0,0,0,0,0,-1,1756,813,0,0
539,211,0,0,0,0,0,0,0,0,0,-1,1763,813,0,0
546,211,0,0,0,0,0,0,0,0,0,-1,1770,813,0,0
553,211,0,0,0,0,0,0,0,0,0,-1,1777,813,0,0
560,211,0,0,0,0,0,0,0,0,0,-1,1784,813,0,0
567,211,0,0,0,0,0,0,0,0,0,-1,1791,813,0,0
574,211,0,0,0,0,0,0,0,0,0,-1,1798,813,0,0
581,211,0,0,0,0,0,0,0,0,0,-1,1805,813,0,0
588,211,0,0,0,0,0,0,0,0,0,-1,1812,813,0,0
595,211,67.3719,2.32941,0.00218919,-0.000684883,0.00278076,0.00388228,-0.00237798,0.546908,0.00364898,0.0374879,1819,813,67.372,-2.32938
602,211,67.2969,2.45465,0.00215066,0.000748201,0.00272961,0.00426767,-0.00136881,0.659669,0.00339466,0.0361239,1826,813,67.2969,-2.45463
609,211,67.2091,2.56549,0.00168291,0.00171026,0.00252943,0.00422605,-0.000832884,0.788101,0.00313213,0.0365432,1833,813,67.2091,-2.56552
616,211,67.2349,2.50385,0.00120756,0.00235726,0.00227727,0.00413111,-0.000566288,0.90903,0.00296094,0.0327297,1840,813,67.2349,-2.50384
623,211,67.2791,2.46204,0.000934528,0.0026403,0.00200824,0.00396925,-0.000394429,0.986203,0.00278696,0.033096,1847,813,67.279,-2.46201
630,211,67.3224,2.44739,0.000609626,0.00242288,0.00154556,0.0033081,-0.0002756,1.05065,0.00230277,0.035724,1854,813,67.3224,-2.44737
637,211,67.2465,2.55365,0,0,0,0,0,0,0,-1,1861,813,67.2465,-2.55366
644,211,66.401,2.3595,0,0,0,0,0,0,0,-1,1868,813,66.401,-2.35952
651,211,48.5043,2.95557,0,0,0,0,0,0,0,-1,1875,813,48.5043,-2.95558
658,211,27.7909,1.52234,0,0,0,0,0,0,0,-1,1882,813,27.7909,-1.52234
665,211,42.2053,-0.745605,0,0,0,0,0,0,0,-1,1889,813,42.2054,0.745605
672,211,51.347,-1.75293,0,0,0,0,0,0,0,-1,1896,813,51.3471,1.75294
679,211,50.9115,-0.875305,0,0,0,0,0,0,0,-1,1903,813,50.9116,0.875289
686,211,50.3262,-0.200562,-0.00163629,-7.25418e-05,-0.000833809,0.000288635,-0.00199746,-1.16203,0.00143754,0.0234568,1910,813,50.3262,0.200551
693,211,50.2894,0.575562,-0.00121345,-0.000249486,-0.00125473,0.000612652,-0.00207559,-0.968775,0.00162686,0.0137532,1917,813,50.2894,-0.575589
700,211,50.2141,1.35114,-0.000574991,-0.000364376,-0.00141665,0.000950876,-0.00189024,-0.822498,0.00166994,0.0144454,1924,813,50.2141,-1.35111
707,211,50.243,2.20801,0.000402434,-0.000276861,-0.00130852,0.00141467,-0.0012891,-0.658418,0.00156158,0.0213607,1931,813,50.243,-2.20804
714,211,50.2089,3.02002,0.00192202,-0.000381676,-0.00135534,0.00254885,-0.00100851,-0.433192,0.00211705,0.0232062,1938,813,50.2089,-3.02005
721,211,50.1766,3.78802,0.00378724,-0.000866638,-0.00166054,0.00431898,-0.00139838,-0.309903,0.00344148,0.0187826,1945,813,50.1766,-3.78801
728,211,50.1342,4.56372,0.00609306,-0.00186776,-0.00229575,0.00670766,-0.00248236,-0.261579,0.00548961,0.0196465,1952,813,50.1341,-4.56373
735,211,50.1763,5.41107,0.00890485,-0.00360085,-0.00343072,0.00978418,-0.00448018,-0.250909,0.00842317,0.0364156,1959,813,50.1763,-5.41105
742,211,50.361,6.23724,0,0,0,0,0,0,0,-1,1966,813,50.361,-6.23727
749,211,50.3163,6.00775,0,0,0,0,0,0,0,-1,1973,813,50.3163,-6.00775
756,211,50.761,6.05762,0,0,0,0,0,0,0,-1,1980,813,50.761,-6.05763
763,211,51.0736,6.20807,0,0,0,0,0,0,0,-1,1987,813,51.0736,-6.20805
770,211,46.2148,12.9099,0,0,0,0,0,0,0,-1,1994,813,46.2148,-12.9099
777,211,0,0,0,0,0,0,0,0,0,-1,2001,813,0,0
784,211,0,0,0,0,0,0,0,0,0,-1,2008,813,0,0
791,211,0,0,0,0,0,0,0,0,0,-1,2015,813,0,0
798,211,0,0,0,0,0,0,0,0,0,-1,2022,813,0,0
805,211,0,0,0,0,0,0,0,0,0,-1,2029,813,0,0
812,211,0,0,0,0,0,0,0,0,0,-1,2036,813,0,0
-700,204,0,0,0,0,0,0,0,0,0,-1,524,820,0,0
-693,204,0,0,0,0,0,0,0,0,0,-1,531,820,0,0
-686,204,0,0,0,0,0,0,0,0,0,-1,538,820,0,0
-679,204,0,0,0,0,0,0,0,0,0,-1,545,820,0,0
-672,204,0,0,0,0,0,0,0,0,0,-1,552,820,0,0
-665,204,0,0,0,0,0,0,0,0,0,-1,559,820,0,0
-658,204,0,0,0,0,0,0,0,0,0,-1,566,820,0,0
-651,204,-40.064,5.25806,0,0,0,0,0,0,0,-1,573,820,-40.064,-5.25806
-644,204,-40.4117,4.54321,0,0,0,0,0,0,0,-1,580,820,-40.4117,-4.54323
-637,204,-40.8671,3.93817,0,0,0,0,0,0,0,-1,587,820,-40.8671,-3.93819
-630,204,-41.7101,3.04382,0,0,0,0,0,0,0,-1,594,820,-41.7101,-3.04383
-623,204,-41.8597,2.11951,0,0,0,0,0,0,0,-1,601,820,-41.8597,-2.11951
-616,204,-36.8367,4.80255,0,0,0,0,0,0,0,-1,608,820,-36.8367,-4.80254
-609,204,-36.7886,4.04578,-0.00452073,0.0109702,-0.00924292,0.0152839,-0.00883444,-1.13414,0.0140897,0.0367615,615,820,-36.7886,-4.04575
-602,204,-36.861,3.28113,-0.0033494,0.00691647,-0.00429457,0.0084761,-0.00490902,-1.22244,0.00781884,0.017849,622,820,-36.861,-3.2811
-595,204,-36.9526,2.50385,-0.00213147,0.00437209,-0.00196099,0.00491762,-0.002677,-1.29947,0.00444791,0.0169677,629,820,-36.9526,-2.50388
-588,204,-36.9955,1.72656,-0.00103101,0.0025794,-0.000253094,0.00259706,-0.00104867,-1.50115,0.00216722,0.0142294,636,820,-36.9955,-1.72654
-581,204,-37.0236,0.938538,0.000160654,0.00147199,0.000295811,0.00153563,9.70138e-05,1.35889,0.000992999,0.0133172,643,820,-37.0236,-0.938547
-574,204,-37.0423,0.169312,0.00122586,0.000954328,0.0002153,0.00134463,0.000835563,0.504092,0.000783913,0.0144101,650,820,-37.0423,-0.169291
-567,204,-37.0525,-0.594604,0.0013265,0.000594183,-0.00067727,0.00173025,0.000190426,-0.537585,0.00109556,0.0146798,657,820,-37.0525,0.594579
-560,204,-36.9355,-1.44604,0.000895558,0.000710402,-0.00227328,0.00307815,-0.00147219,-0.765047,0.00268112,0.0305913,664,820,-36.9355,1.44603
-553,204,-37.1852,-2.2262,0,0,0,0,0,0,0,-1,671,820,-37.1853,2.22619
-546,204,-32.433,-2.2323,0,0,0,0,0,0,0,-1,678,820,-32.433,2.23228
-539,204,-37.2905,-3.65271,0,0,0,0,0,0,0,-1,685,820,-37.2905,3.65269
-532,204,-30.0565,-3.29065,0,0,0,0,0,0,0,-1,692,820,-30.0565,3.29063
-525,204,-25.7137,1.52496,0,0,0,0,0,0,0,-1,699,820,-25.7137,-1.52496
-518,204,-43.4591,0.383972,0,0,0,0,0,0,0,-1,706,820,-43.4591,-0.383942
-511,204,-52.5264,0.446777,0,0,0,0,0,0,0,-1,713,820,-52.5265,-0.446765
-504,204,-52.2814,0.583801,0.00110973,0.00901737,-0.00553919,0.0118691,-0.00174198,-1.09536,0.00855272,0.0459824,720,820,-52.2814,-0.583782
-497,204,-52.2575,0.540955,0.00224035,0.010452,-0.00563968,0.0133221,-0.000629772,-1.10004,0.0090986,0.040611,727,820,-52.2575,-0.540974
-490,204,-52.2466,0.438293,0.00404735,0.0116319,-0.00585553,0.0148159,0.000863338,-1.07276,0.00960245,0.0356891,734,820,-52.2466,-0.438307
-483,204,-52.2175,0.438782,0.00662913,0.0111908,-0.00549201,0.0148568,0.00296316,-0.982211,0.00907941,0.0390022,741,820,-52.2175,-0.438754
-476,204,0,0,0,0,0,0,0,0,0,-1,748,820,0,0
-469,204,0,0,0,0,0,0,0,0,0,-1,755,820,0,0
-462,204,0,0,0,0,0,0,0,0,0,-1,762,820,0,0
-455,204,0,0,0,0,0,0,0,0,0,-1,769,820,0,0
-448,204,0,0,0,0,0,0,0,0,0,-1,776,820,0,0
-441,204,0,0,0,0,0,0,0,0,0,-1,783,820,0,0
-434,204,0,0,0,0,0,0,0,0,0,-1,790,820,0,0
-427,204,0,0,0,0,0,0,0,0,0,-1,797,820,0,0
-420,204,0,0,0,0,0,0,0,0,0,-1,804,820,0,0
-413,204,0,0,0,0,0,0,0,0,0,-1,811,820,0,0
-406,204,0,0,0,0,0,0,0,0,0,-1,818,820,0,0
-399,204,0,0,0,0,0,0,0,0,0,-1,825,820,0,0
-392,204,0,0,0,0,0,0,0,0,0,-1,832,820,0,0
-385,204,0,0,0,0,0,0,0,0,0,-1,839,820,0,0
-378,204,0,0,0,0,0,0,0,0,0,-1,846,820,0,0
-371,204,0,0,0,0,0,0,0,0,0,-1,853,820,0,0
-364,204,0,0,0,0,0,0,0,0,0,-1,860,820,0,0
-357,204,0,0,0,0,0,0,0,0,0,-1,867,820,0,0
-350,204,0,0,0,0,0,0,0,0,0,-1,874,820,0,0
-343,204,0,0,0,0,0,0,0,0,0,-1,881,820,0,0
-336,204,0,0,0,0,0,0,0,0,0,-1,888,820,0,0
-329,204,0,0,0,0,0,0,0,0,0,-1,895,820,0,0
-322,204,0,0,0,0,0,0,0,0,0,-1,902,820,0,0
-315,204,0,0,0,0,0,0,0,0,0,-1,909,820,0,0
-308,204,0,0,0,0,0,0,0,0,0,-1,916,820,0,0
-301,204,0,0,0,0,0,0,0,0,0,-1,923,820,0,0
-294,204,0,0,0,0,0,0,0,0,0,-1,930,820,0,0
-287,204,0,0,0,0,0,0,0,0,0,-1,937,820,0,0
-280,204,0,0,0,0,0,0,0,0,0,-1,944,820,0,0
-273,204,0,0,0,0,0,0,0,0,0,-1,951,820,0,0
-266,204,0,0,0,0,0,0,0,0,0,-1,958,820,0,0
-259,204,0,0,0,0,0,0,0,0,0,-1,965,820,0,0
-252,204,0,0,0,0,0,0,0,0,0,-1,972,820,0,0
-245,204,0,0,0,0,0,0,0,0,0,-1,979,820,0,0
-238,204,0,0,0,0,0,0,0,0,0,-1,986,820,0,0
-231,204,0,0,0,0,0,0,0,0,0,-1,993,820,0,0
-224,204,0,0,0,0,0,0,0,0,0,-1,1000,820,0,0
-217,204,0,0,0,0,0,0,0,0,0,-1,1007,820,0,0
-210,204,0,0,0,0,0,0,0,0,0,-1,1014,820,0,0
-203,204,0,0,0,0,0,0,0,0,0,-1,1021,820,0,0
-196,204,0,0,0,0,0,0,0,0,0,-1,1028,820,0,0
-189,204,0,0,0,0,0,0,0,0,0,-1,1035,820,0,0
-182,204,0,0,0,0,0,0,0,0,0,-1,1042,820,0,0
-175,204,0,0,0,0,0,0,0,0,0,-1,1049,820,0,0
-168,204,0,0,0,0,0,0,0,0,0,-1,1056,820,0,0
-161,204,0,0,0,0,0,0,0,0,0,-1,1063,820,0,0
-154,204,0,0,0,0,0,0,0,0,0,-1,1070,820,0,0
-147,204,0,0,0,0,0,0,0,0,0,-1,1077,820,0,0
-140,204,0,0,0,0,0,0,0,0,0,-1,1084,820,0,0
-133,204,0,0,0,0,0,0,0,0,0,-1,1091,820,0,0
-126,204,0,0,0,0,0,0,0,0,0,-1,1098,820,0,0
-119,204,0,0,0,0,0,0,0,0,0,-1,1105,820,0,0
-112,204,0,0,0,0,0,0,0,0,0,-1,1112,820,0,0
-105,204,0,0,0,0,0,0,0,0,0,-1,1119,820,0,0
-98,204,0,0,0,0,0,0,0,0,0,-1,1126,820,0,0
-91,204,0,0,0,0,0,0,0,0,0,-1,1133,820,0,0
-84,204,0,0,0,0,0,0,0,0,0,-1,1140,820,0,0
-77,204,0,0,0,0,0,0,0,0,0,-1,1147,820,0,0
-70,204,0,0,0,0,0,0,0,0,0,-1,1154,820,0,0
-63,204,0,0,0,0,0,0,0,0,0,-1,1161,820,0,0
-56,204,0,0,0,0,0,0,0,0,0,-1,1168,820,0,0
-49,204,0,0,0,0,0,0,0,0,0,-1,1175,820,0,0
-42,204,0,0,0,0,0,0,0,0,0,-1,1182,820,0,0
-35,204,0,0,0,0,0,0,0,0,0,-1,1189,820,0,0
-28,204,0,0,0,0,0,0,0,0,0,-1,1196,820,0,0
-21,204,0,0,0,0,0,0,0,0,0,-1,1203,820,0,0
-14,204,0,0,0,0,0,0,0,0,0,-1,1210,820,0,0
-7,204,0,0,0,0,0,0,0,0,0,-1,1217,820,0,0
0,204,0,0,0,0,0,0,0,0,0,-1,1224,820,0,0
7,204,0,0,0,0,0,0,0,0,0,-1,1231,820,0,0
14,204,0,0,0,0,0,0,0,0,0,-1,1238,820,0,0
21,204,0,0,0,0,0,0,0,0,0,-1,1245,820,0,0
28,204,0,0,0,0,0,0,0,0,0,-1,1252,820,0,0
35,204,0,0,0,0,0,0,0,0,0,-1,1259,820,0,0
42,204,0,0,0,0,0,0,0,0,0,-1,1266,820,0,0
49,204,0,0,0,0,0,0,0,0,0,-1,1273,820,0,0
56,204,0,0,0,0,0,0,0,0,0,-1,1280,820,0,0
63,204,0,0,0,0,0,0,0,0,0,-1,1287,820,0,0
70,204,0,0,0,0,0,0,0,0,0,-1,1294,820,0,0
77,204,0,0,0,0,0,0,0,0,0,-1,1301,820,0,0
84,204,0,0,0,0,0,0,0,0,0,-1,1308,820,0,0
91,204,0,0,0,0,0,0,0,0,0,-1,1315,820,0,0
98,204,0,0,0,0,0,0,0,0,0,-1,1322,820,0,0
105,204,0,0,0,0,0,0,0,0,0,-1,1329,820,0,0
112,204,0,0,0,0,0,0,0,0,0,-1,1336,820,0,0
119,204,0,0,0,0,0,0,0,0,0,-1,1343,820,0,0
126,204,0,0,0,0,0,0,0,0,0,-1,1350,820,0,0
133,204,0,0,0,0,0,0,0,0,0,-1,1357,820,0,0
140,204,0,0,0,0,0,0,0,0,0,-1,1364,820,0,0
147,204,0,0,0,0,0,0,0,0,0,-1,1371,820,0,0
154,204,0,0,0,0,0,0,0,0,0,-1,1378,820,0,0
161,204,0,0,0,0,0,0,0,0,0,-1,1385,820,0,0
168,204,0,0,0,0,0,0,0,0,0,-1,1392,820,0,0
175,204,0,0,0,0,0,0,0,0,0,-1,1399,820,0,0
182,204,0,0,0,0,0,0,0,0,0,-1,1406,820,0,0
189,204,0,0,0,0,0,0,0,0,0,-1,1413,820,0,0
196,204,0,0,0,0,0,0,0,0,0,-1,1420,820,0,0
203,204,0,0,0,0,0,0,0,0,0,-1,1427,820,0,0
210,204,0,0,0,0,0,0,0,0,0,-1,1434,820,0,0
217,204,0,0,0,0,0,0,0,0,0,-1,1441,820,0,0
224,204,0,0,0,0,0,0,0,0,0,-1,1448,820,0,0
231,204,0,0,0,0,0,0,0,0,0,-1,1455,820,0,0
238,204,0,0,0,0,0,0,0,0,0,-1,1462,820,0,0
245,204,0,0,0,0,0,0,0,0,0,-1,1469,820,0,0
252,204,0,0,0,0,0,0,0,0,0,-1,1476,820,0,0
259,204,0,0,0,0,0,0,0,0,0,-1,1483,820,0,0
266,204,0,0,0,0,0,0,0,0,0,-1,1490,820,0,0
273,204,0,0,0,0,0,0,0,0,0,-1,1497,820,0,0
280,204,0,0,0,0,0,0,0,0,0,-1,1504,820,0,0
287,204,0,0,0,0,0,0,0,0,0,-1,1511,820,0,0
294,204,0,0,0,0,0,0,0,0,0,-1,1518,820,0,0
301,204,0,0,0,0,0,0,0,0,0,-1,1525,820,0,0
308,204,0,0,0,0,0,0,0,0,0,-1,1532,820,0,0
315,204,0,0,0,0,0,0,0,0,0,-1,1539,820,0,0
322,204,0,0,0,0,0,0,0,0,0,-1,1546,820,0,0
329,204,0,0,0,0,0,0,0,0,0,-1,1553,820,0,0
336,204,0,0,0,0,0,0,0,0,0,-1,1560,820,0,0
343,204,0,0,0,0,0,0,0,0,0,-1,1567,820,0,0
350,204,0,0,0,0,0,0,0,0,0,-1,1574,820,0,0
357,204,0,0,0,0,0,0,0,0,0,-1,1581,820,0,0
364,204,0,0,0,0,0,0,0,0,0,-1,1588,820,0,0
371,204,0,0,0,0,0,0,0,0,0,-1,1595,820,0,0
378,204,0,0,0,0,0,0,0,0,0,-1,1602,820,0,0
385,204,0,0,0,0,0,0,0,0,0,-1,1609,820,0,0
392,204,0,0,0,0,0,0,0,0,0,-1,1616,820,0,0
399,204,0,0,0,0,0,0,0,0,0,-1,1623,820,0,0
406,204,0,0,0,0,0,0,0,0,0,-1,1630,820,0,0
413,204,0,0,0,0,0,0,0,0,0,-1,1637,820,0,0
420,204,0,0,0,0,0,0,0,0,0,-1,1644,820,0,0
427,204,0,0,0,0,0,0,0,0,0,-1,1651,820,0,0
434,204,0,0,0,0,0,0,0,0,0,-1,1658,820,0,0
441,204,0,0,0,0,0,0,0,0,0,-1,1665,820,0,0
448,204,0,0,0,0,0,0,0,0,0,-1,1672,820,0,0
455,204,0,0,0,0,0,0,0,0,0,-1,1679,820,0,0
462,204,0,0,0,0,0,0,0,0,0,-1,1686,820,0,0
469,204,0,0,0,0,0,0,0,0,0,-1,1693,820,0,0
476,204,0,0,0,0,0,0,0,0,0,-1,1700,820,0,0
483,204,0,0,0,0,0,0,0,0,0,-1,1707,820,0,0
490,204,0,0,0,0,0,0,0,0,0,-1,1714,820,0,0
497,204,0,0,0,0,0,0,0,0,0,-1,1721,820,0,0
504,204,0,0,0,0,0,0,0,0,0,-1,1728,820,0,0
511,204,0,0,0,0,0,0,0,0,0,-1,1735,820,0,0
518,204,0,0,0,0,0,0,0,0,0,-1,1742,820,0,0
525,204,0,0,0,0,0,0,0,0,0,-1,1749,820,0,0
532,204,0,0,0,0,0,0,0,0,0,-1,1756,820,0,0
539,204,0,0,0,0,0,0,0,0,0,-1,1763,820,0,0
546,204,0,0,0,0,0,0,0,0,0,-1,1770,820,0,0
553,204,0,0,0,0,0,0,0,0,0,-1,1777,820,0,0
560,204,0,0,0,0,0,0,0,0,0,-1,1784,820,0,0
567,204,0,0,0,0,0,0,0,0,0,-1,1791,820,0,0
574,204,0,0,0,0,0,0,0,0,0,-1,1798,820,0,0
581,204,0,0,0,0,0,0,0,0,0,-1,1805,820,0,0
588,204,0,0,0,0,0,0,0,0,0,-1,1812,820,0,0
595,204,0,0,0,0,0,0,0,0,0,-1,1819,820,0,0
602,204,67.3478,2.46075,0.00266487,0.000823005,0.00222926,0.00415593,-0.000668054,0.589519,0.00301805,0.0376381,1826,820,67.3478,-2.46077
609,204,67.2878,2.54767,0.00200371,0.0016793,0.00198347,0.00383159,-0.000148589,0.7446,0.00260534,0.0401397,1833,820,67.2879,-2.54765
616,204,67.2965,2.51428,0.00128989,0.00244511,0.00184456,0.00380038,-6.53879e-05,0.937133,0.00255566,0.0388811,1840,820,67.2966,-2.51426
623,204,67.2765,2.48212,0.000843614,0.00294354,0.00177126,0.00395265,-0.000165495,1.05294,0.00269196,0.0286023,1847,820,67.2765,-2.48212
630,204,67.3007,2.38861,0.000491579,0.00287395,0.001483,0.00358492,-0.000219397,1.12375,0.00246634,0.0263967,1854,820,67.3007,-2.38862
637,204,67.2681,2.46216,0.000113346,0.00259367,0.000925706,0.00290106,-0.00019405,1.25019,0.00200186,0.0362407,1861,820,67.268,-2.46217
644,204,67.1617,2.6817,0,0,0,0,0,0,0,-1,1868,820,67.1618,-2.68173
651,204,53.7611,2.32251,0,0,0,0,0,0,0,-1,1875,820,53.7611,-2.32249
658,204,34.9631,1.64844,0,0,0,0,0,0,0,-1,1882,820,34.9631,-1.64842
665,204,21.8292,1.51099,0,0,0,0,0,0,0,-1,1889,820,21.8292,-1.51099
672,204,51.3258,-1.56146,0,0,0,0,0,0,0,-1,1896,820,51.3258,1.56145
679,204,51.2739,-0.898682,0,0,0,0,0,0,0,-1,1903,820,51.2739,0.898707
686,204,51.1941,-0.176514,-0.00188387,9.962e-05,-0.00085672,0.00041842,-0.00220267,-1.21456,0.00162597,0.0234806,1910,820,51.1941,0.176506
693,204,50.946,0.602722,-0.00156085,-0.000195907,-0.0013815,0.000662504,-0.00241926,-1.01482,0.00187314,0.0236652,1917,820,50.946,-0.602704
700,204,50.9974,1.42236,-0.00110749,-0.00046103,-0.00165372,0.000900747,-0.00246927,-0.88191,0.0020147,0.01913,1924,820,50.9974,-1.42237
707,204,50.9744,2.24249,-0.000335237,-0.000512092,-0.00159111,0.0011699,-0.00201723,-0.757639,0.00186164,0.0173228,1931,820,50.9744,-2.24248
714,204,50.96,3.06183,0.00115852,-0.000600556,-0.00161767,0.0021203,-0.00156233,-0.536398,0.00213429,0.0258188,1938,820,50.9599,-3.06186
721,204,50.9441,3.81958,0.00303155,-0.00101462,-0.00185042,0.00375017,-0.00173324,-0.370426,0.00323645,0.0238588,1945,820,50.9441,-3.81959
728,204,50.8727,4.58588,0.00528265,-0.00191321,-0.00238317,0.00600034,-0.00263091,-0.292512,0.00510826,0.0147177,1952,820,50.8726,-4.58587
735,204,50.7717,5.39252,0.00795082,-0.00344742,-0.00333698,0.00885589,-0.0043525,-0.264854,0.00777221,0.0176088,1959,820,50.7718,-5.39254
742,204,50.7861,6.01349,0.0112664,-0.00598174,-0.00501274,0.0126174,-0.00733275,-0.263259,0.0116521,0.0342607,1966,820,50.7862,-6.01349
749,204,51.1345,6.1684,0.0155201,-0.0101043,-0.00735391,0.0174806,-0.0120648,-0.260533,0.0171533,0.0477694,1973,820,51.1345,-6.16841
756,204,51.5773,6.27771,0,0,0,0,0,0,0,-1,1980,820,51.5773,-6.2777
763,204,51.9205,6.41833,0,0,0,0,0,0,0,-1,1987,820,51.9205,-6.41832
770,204,48.7385,8.70465,0,0,0,0,0,0,0,-1,1994,820,48.7385,-8.70465
777,204,0,0,0,0,0,0,0,0,0,-1,2001,820,0,0
784,204,0,0,0,0,0,0,0,0,0,-1,2008,820,0,0
791,204,0,0,0,0,0,0,0,0,0,-1,2015,820,0,0
798,204,0,0,0,0,0,0,0,0,0,-1,2022,820,0,0
805,204,0,0,0,0,0,0,0,0,0,-1,2029,820,0,0
812,204,0,0,0,0,0,0,0,0,0,-1,2036,820,0,0
-700,197,0,0,0,0,0,0,0,0,0,-1,524,827,0,0
-693,197,0,0,0,0,0,0,0,0,0,-1,531,827,0,0
-686,197,0,0,0,0,0,0,0,0,0,-1,538,827,0,0
-679,197,0,0,0,0,0,0,0,0,0,-1,545,827,0,0
-672,197,0,0,0,0,0,0,0,0,0,-1,552,827,0,0
-665,197,0,0,0,0,0,0,0,0,0,-1,559,827,0,0
-658,197,-39.9774,5.66638,0,0,0,0,0,0,0,-1,566,827,-39.9774,-5.66637
-651,197,-39.9665,5.23578,0,0,0,0,0,0,0,-1,573,827,-39.9665,-5.23575
-644,197,-38.9225,4.75665,0,0,0,0,0,0,0,-1,580,827,-38.9225,-4.75665
-637,197,-35.9322,6.14551,0,0,0,0,0,0,0,-1,587,827,-35.9322,-6.14552
-630,197,-40.4908,2.45648,0,0,0,0,0,0,0,-1,594,827,-40.4908,-2.45649
-623,197,-36.2278,5.46283,0,0,0,0,0,0,0,-1,601,827,-36.2278,-5.46285
-616,197,-37.6052,5.01965,0,0,0,0,0,0,0,-1,608,827,-37.6052,-5.01964
-609,197,-37.58,4.12537,-0.00466214,0.0122614,-0.0108736,0.0175778,-0.00997853,-1.11605,0.01611,0.0361148,615,827,-37.58,-4.12539
-602,197,-37.6454,3.27716,-0.00365057,0.00775682,-0.00482744,0.0095255,-0.00541925,-1.2196,0.00873624,0.0195355,622,827,-37.6454,-3.27713
-595,197,-37.7343,2.56512,-0.00246029,0.00470148,-0.00200047,0.00522238,-0.00298119,-1.31606,0.00479489,0.019871,629,827,-37.7343,-2.5651
-588,197,-37.7608,1.78583,-0.00131241,0.00251692,2.28337e-05,0.00251706,-0.00131255,1.56483,0.00224718,0.0208159,636,827,-37.7608,-1.78581
-581,197,-37.8136,0.971558,-6.46762e-06,0.00123456,0.000621002,0.00149193,-0.000263838,1.1779,0.00109323,0.0118581,643,827,-37.8136,-0.971567
-574,197,-37.8323,0.199402,0.00114798,0.000584448,0.000521819,0.00145924,0.000273181,0.537845,0.000895764,0.0126835,650,827,-37.8323,-0.199407
-567,197,-37.754,-0.53363,0.00124906,0.000204631,-0.000691537,0.00159341,-0.000139717,-0.462003,0.00111178,0.0177561,657,827,-37.754,0.533644
-560,197,-37.6373,-1.25293,0,0,0,0,0,0,0,-1,664,827,-37.6373,1.25291
-553,197,-33.1771,-1.4881,0,0,0,0,0,0,0,-1,671,827,-33.1771,1.4881
-546,197,-33.0991,-2.06989,0,0,0,0,0,0,0,-1,678,827,-33.0991,2.06991
-539,197,-32.8993,-2.61737,0,0,0,0,0,0,0,-1,685,827,-32.8993,2.61737
-532,197,-16.0519,0.0410156,0,0,0,0,0,0,0,-1,692,827,-16.0519,-0.0410415
-525,197,-35.3785,2.11829,0,0,0,0,0,0,0,-1,699,827,-35.3785,-2.11826
-518,197,-52.4089,0.557068,0,0,0,0,0,0,0,-1,706,827,-52.4089,-0.557077
-511,197,-52.4127,0.358459,0.00120107,0.00684571,-0.00642706,0.0110428,-0.00299605,-0.992287,0.00853764,0.0445099,713,827,-52.4126,-0.358471
-504,197,-52.362,0.297424,0.00145919,0.00837622,-0.00632176,0.0121237,-0.00228826,-1.0357,0.00894332,0.0391376,720,827,-52.362,-0.297401
-497,197,-52.2488,0.452026,0.00288785,0.00958563,-0.00639315,0.0134539,-0.000980428,-1.02666,0.00931329,0.0394971,727,827,-52.2488,-0.452023
-490,197,-52.2427,0.514282,0.00536626,0.00973823,-0.0062769,0.0141989,0.000905591,-0.95296,0.00917897,0.0370446,734,827,-52.2427,-0.5143
-483,197,-52.2316,0.614197,0.00878376,0.00746275,-0.00517123,0.0133365,0.00291002,-0.721878,0.00809721,0.0381413,741,827,-52.2316,-0.614225
-476,197,0,0,0,0,0,0,0,0,0,-1,748,827,0,0
-469,197,0,0,0,0,0,0,0,0,0,-1,755,827,0,0
-462,197,0,0,0,0,0,0,0,0,0,-1,762,827,0,0
-455,197,0,0,0,0,0,0,0,0,0,-1,769,827,0,0
-448,197,0,0,0,0,0,0,0,0,0,-1,776,827,0,0
-441,197,0,0,0,0,0,0,0,0,0,-1,783,827,0,0
-434,197,0,0,0,0,0,0,0,0,0,-1,790,827,0,0
-427,197,0,0,0,0,0,0,0,0,0,-1,797,827,0,0
-420,197,0,0,0,0,0,0,0,0,0,-1,804,827,0,0
-413,197,0,0,0,0,0,0,0,0,0,-1,811,827,0,0
-406,197,0,0,0,0,0,0,0,0,0,-1,818,827,0,0
-399,197,0,0,0,0,0,0,0,0,0,-1,825,827,0,0
-392,197,0,0,0,0,0,0,0,0,0,-1,832,827,0,0
-385,197,0,0,0,0,0,0,0,0,0,-1,839,827,0,0
-378,197,0,0,0,0,0,0,0,0,0,-1,846,827,0,0
-371,197,0,0,0,0,0,0,0,0,0,-1,853,827,0,0
-364,197,0,0,0,0,0,0,0,0,0,-1,860,827,0,0
-357,197,0,0,0,0,0,0,0,0,0,-1,867,827,0,0
-350,197,0,0,0,0,0,0,0,0,0,-1,874,827,0,0
-343,197,0,0,0,0,0,0,0,0,0,-1,881,827,0,0
-336,197,0,0,0,0,0,0,0,0,0,-1,888,827,0,0
-329,197,0,0,0,0,0,0,0,0,0,-1,895,827,0,0
-322,197,0,0,0,0,0,0,0,0,0,-1,902,827,0,0
-315,197,0,0,0,0,0,0,0,0,0,-1,909,827,0,0
-308,197,0,0,0,0,0,0,0,0,0,-1,916,827,0,0
-301,197,0,0,0,0,0,0,0,0,0,-1,923,827,0,0
-294,197,0,0,0,0,0,0,0,0,0,-1,930,827,0,0
-287,197,0,0,0,0,0,0,0,0,0,-1,937,827,0,0
-280,197,0,0,0,0,0,0,0,0,0,-1,944,827,0,0
-273,197,0,0,0,0,0,0,0,0,0,-1,951,827,0,0
-266,197,0,0,0,0,0,0,0,0,0,-1,958,827,0,0
-259,197,0,0,0,0,0,0,0,0,0,-1,965,827,0,0
-252,197,0,0,0,0,0,0,0,0,0,-1,972,827,0,0
-245,197,0,0,0,0,0,0,0,0,0,-1,979,827,0,0
-238,197,0,0,0,0,0,0,0,0,0,-1,986,827,0,0
-231,197,0,0,0,0,0,0,0,0,0,-1,993,827,0,0
-224,197,0,0,0,0,0,0,0,0,0,-1,1000,827,0,0
-217,197,0,0,0,0,0,0,0,0,0,-1,1007,827,0,0
-210,197,0,0,0,0,0,0,0,0,0,-1,1014,827,0,0
-203,197,0,0,0,0,0,0,0,0,0,-1,1021,827,0,0
-196,197,0,0,0,0,0,0,0,0,0,-1,1028,827,0,0
-189,197,0,0,0,0,0,0,0,0,0,-1,1035,827,0,0
-182,197,0,0,0,0,0,0,0,0,0,-1,1042,827,0,0
-175,197,0,0,0,0,0,0,0,0,0,-1,1049,827,0,0
-168,197,0,0,0,0,0,0,0,0,0,-1,1056,827,0,0
-161,197,0,0,0,0,0,0,0,0,0,-1,1063,827,0,0
-154,197,0,0,0,0,0,0,0,0,0,-1,1070,827,0,0
-147,197,0,0,0,0,0,0,0,0,0,-1,1077,827,0,0
-140,197,0,0,0,0,0,0,0,0,0,-1,1084,827,0,0
-133,197,0,0,0,0,0,0,0,0,0,-1,1091,827,0,0
-126,197,0,0,0,0,0,0,0,0,0,-1,1098,827,0,0
-119,197,0,0,0,0,0,0,0,0,0,-1,1105,827,0,0
-112,197,0,0,0,0,0,0,0,0,0,-1,1112,827,0,0
-105,197,0,0,0,0,0,0,0,0,0,-1,1119,827,0,0
-98,197,0,0,0,0,0,0,0,0,0,-1,1126,827,0,0
-91,197,0,0,0,0,0,0,0,0,0,-1,1133,827,0,0
-84,197,0,0,0,0,0,0,0,0,0,-1,1140,827,0,0
-77,197,0,0,0,0,0,0,0,0,0,-1,1147,827,0,0
-70,197,0,0,0,0,0,0,0,0,0,-1,1154,827,0,0
-63,197,0,0,0,0,0,0,0,0,0,-1,1161,827,0,0
-56,197,0,0,0,0,0,0,0,0,0,-1,1168,827,0,0
-49,197,0,0,0,0,0,0,0,0,0,-1,1175,827,0,0
-42,197,0,0,0,0,0,0,0,0,0,-1,1182,827,0,0
-35,197,0,0,0,0,0,0,0,0,0,-1,1189,827,0,0
-28,197,0,0,0,0,0,0,0,0,0,-1,1196,827,0,0
-21,197,0,0,0,0,0,0,0,0,0,-1,1203,827,0,0
-14,197,0,0,0,0,0,0,0,0,0,-1,1210,827,0,0
-7,197,0,0,0,0,0,0,0,0,0,-1,1217,827,0,0
0,197,0,0,0,0,0,0,0,0,0,-1,1224,827,0,0
7,197,0,0,0,0,0,0,0,0,0,-1,1231,827,0,0
14,197,0,0,0,0,0,0,0,0,0,-1,1238,827,0,0
21,197,0,0,0,0,0,0,0,0,0,-1,1245,827,0,0
28,197,0,0,0,0,0,0,0,0,0,-1,1252,827,0,0
35,197,0,0,0,0,0,0,0,0,0,-1,1259,827,0,0
42,197,0,0,0,0,0,0,0,0,0,-1,1266,827,0,0
49,197,0,0,0,0,0,0,0,0,0,-1,1273,827,0,0
56,197,0,0,0,0,0,0,0,0,0,-1,1280,827,0,0
63,197,0,0,0,0,0,0,0,0,0,-1,1287,827,0,0
70,197,0,0,0,0,0,0,0,0,0,-1,1294,827,0,0
77,197,0,0,0,0,0,0,0,0,0,-1,1301,827,0,0
84,197,0,0,0,0,0,0,0,0,0,-1,1308,827,0,0
91,197,0,0,0,0,0,0,0,0,0,-1,1315,827,0,0
98,197,0,0,0,0,0,0,0,0,0,-1,1322,827,0,0
105,197,0,0,0,0,0,0,0,0,0,-1,1329,827,0,0
112,197,0,0,0,0,0,0,0,0,0,-1,1336,827,0,0
119,197,0,0,0,0,0,0,0,0,0,-1,1343,827,0,0
126,197,0,0,0,0,0,0,0,0,0,-1,1350,827,0,0
133,197,0,0,0,0,0,0,0,0,0,-1,1357,827,0,0
140,197,0,0,0,0,0,0,0,0,0,-1,1364,827,0,0
147,197,0,0,0,0,0,0,0,0,0,-1,1371,827,0,0
154,197,0,0,0,0,0,0,0,0,0,-1,1378,827,0,0
161,197,0,0,0,0,0,0,0,0,0,-1,1385,827,0,0
168,197,0,0,0,0,0,0,0,0,0,-1,1392,827,0,0
175,197,0,0,0,0,0,0,0,0,0,-1,1399,827,0,0
182,197,0,0,0,0,0,0,0,0,0,-1,1406,827,0,0
189,197,0,0,0,0,0,0,0,0,0,-1,1413,827,0,0
196,197,0,0,0,0,0,0,0,0,0,-1,1420,827,0,0
203,197,0,0,0,0,0,0,0,0,0,-1,1427,827,0,0
210,197,0,0,0,0,0,0,0,0,0,-1,1434,827,0,0
217,197,0,0,0,0,0,0,0,0,0,-1,1441,827,0,0
224,197,0,0,0,0,0,0,0,0,0,-1,1448,827,0,0
231,197,0,0,0,0,0,0,0,0,0,-1,1455,827,0,0
238,197,0,0,0,0,0,0,0,0,0,-1,1462,827,0,0
245,197,0,0,0,0,0,0,0,0,0,-1,1469,827,0,0
252,197,0,0,0,0,0,0,0,0,0,-1,1476,827,0,0
259,197,0,0,0,0,0,0,0,0,0,-1,1483,827,0,0
266,197,0,0,0,0,0,0,0,0,0,-1,1490,827,0,0
273,197,0,0,0,0,0,0,0,0,0,-1,1497,827,0,0
280,197,0,0,0,0,0,0,0,0,0,-1,1504,827,0,0
287,197,0,0,0,0,0,0,0,0,0,-1,1511,827,0,0
294,197,0,0,0,0,0,0,0,0,0,-1,1518,827,0,0
301,197,0,0,0,0,0,0,0,0,0,-1,1525,827,0,0
308,197,0,0,0,0,0,0,0,0,0,-1,1532,827,0,0
315,197,0,0,0,0,0,0,0,0,0,-1,1539,827,0,0
322,197,0,0,0,0,0,0,0,0,0,-1,1546,827,0,0
329,197,0,0,0,0,0,0,0,0,0,-1,1553,827,0,0
336,197,0,0,0,0,0,0,0,0,0,-1,1560,827,0,0
343,197,0,0,0,0,0,0,0,0,0,-1,1567,827,0,0
350,197,0,0,0,0,0,0,0,0,0,-1,1574,827,0,0
357,197,0,0,0,0,0,0,0,0,0,-1,1581,827,0,0
364,197,0,0,0,0,0,0,0,0,0,-1,1588,827,0,0
371,197,0,0,0,0,0,0,0,0,0,-1,1595,827,0,0
378,197,0,0,0,0,0,0,0,0,0,-1,1602,827,0,0
385,197,0,0,0,0,0,0,0,0,0,-1,1609,827,0,0
392,197,0,0,0,0,0,0,0,0,0,-1,1616,827,0,0
399,197,0,0,0,0,0,0,0,0,0,-1,1623,827,0,0
406,197,0,0,0,0,0,0,0,0,0,-1,1630,827,0,0
413,197,0,0,0,0,0,0,0,0,0,-1,1637,827,0,0
420,197,0,0,0,0,0,0,0,0,0,-1,1644,827,0,0
427,197,0,0,0,0,0,0,0,0,0,-1,1651,827,0,0
434,197,0,0,0,0,0,0,0,0,0,-1,1658,827,0,0
441,197,0,0,0,0,0,0,0,0,0,-1,1665,827,0,0
448,197,0,0,0,0,0,0,0,0,0,-1,1672,827,0,0
455,197,0,0,0,0,0,0,0,0,0,-1,1679,827,0,0
462,197,0,0,0,0,0,0,0,0,0,-1,1686,827,0,0
469,197,0,0,0,0,0,0,0,0,0,-1,1693,827,0,0
476,197,0,0,0,0,0,0,0,0,0,-1,1700,827,0,0
483,197,0,0,0,0,0,0,0,0,0,-1,1707,827,0,0
490,197,0,0,0,0,0,0,0,0,0,-1,1714,827,0,0
497,197,0,0,0,0,0,0,0,0,0,-1,1721,827,0,0
504,197,0,0,0,0,0,0,0,0,0,-1,1728,827,0,0
511,197,0,0,0,0,0,0,0,0,0,-1,1735,827,0,0
518,197,0,0,0,0,0,0,0,0,0,-1,1742,827,0,0
525,197,0,0,0,0,0,0,0,0,0,-1,1749,827,0,0
532,197,0,0,0,0,0,0,0,0,0,-1,1756,827,0,0
539,197,0,0,0,0,0,0,0,0,0,-1,1763,827,0,0
546,197,0,0,0,0,0,0,0,0,0,-1,1770,827,0,0
553,197,0,0,0,0,0,0,0,0,0,-1,1777,827,0,0
560,197,0,0,0,0,0,0,0,0,0,-1,1784,827,0,0
567,197,0,0,0,0,0,0,0,0,0,-1,1791,827,0,0
574,197,0,0,0,0,0,0,0,0,0,-1,1798,827,0,0
581,197,0,0,0,0,0,0,0,0,0,-1,1805,827,0,0
588,197,0,0,0,0,0,0,0,0,0,-1,1812,827,0,0
595,197,0,0,0,0,0,0,0,0,0,-1,1819,827,0,0
602,197,67.2687,2.57672,0.00330864,0.00126035,0.00181072,0.00436479,0.000204213,0.528027,0.00284423,0.0412667,1826,827,67.2686,-2.57671
609,197,67.3402,2.52094,0.00242077,0.00179424,0.00150505,0.00364481,0.000570199,0.682793,0.00226387,0.0427862,1833,827,67.3402,-2.52093
616,197,67.3605,2.45746,0.00151541,0.00242487,0.00141911,0.00346033,0.000479947,0.940445,0.00216471,0.0402275,1840,827,67.3605,-2.45748
623,197,67.2242,2.43823,0.000895745,0.00295369,0.0015007,0.00374431,0.000105132,1.08592,0.00246191,0.034661,1847,827,67.2242,-2.43821
630,197,67.358,2.22968,0.000482497,0.00305552,0.00142876,0.00369163,-0.000153613,1.15193,0.00251386,0.0296475,1854,827,67.358,-2.22968
637,197,67.3015,2.36749,0.000104882,0.00276398,0.000960855,0.00307484,-0.000205978,1.2579,0.00212189,0.0283656,1861,827,67.3015,-2.36749
644,197,67.1932,2.59546,-0.000344417,0.00233383,0.000740115,0.00252475,-0.000535334,1.31834,0.00188709,0.0385846,1868,827,67.1933,-2.59543
651,197,67.0483,2.84613,0,0,0,0,0,0,0,-1,1875,827,67.0483,-2.84612
658,197,40.4694,3.05927,0,0,0,0,0,0,0,-1,1882,827,40.4694,-3.05926
665,197,14.0618,1.80304,0,0,0,0,0,0,0,-1,1889,827,14.0617,-1.80303
672,197,51.644,-1.96857,0,0,0,0,0,0,0,-1,1896,827,51.644,1.96857
679,197,51.8685,-1.06549,0,0,0,0,0,0,0,-1,1903,827,51.8685,1.06547
686,197,51.9858,-0.00402832,0,0,0,0,0,0,0,-1,1910,827,51.9858,0.00403702
693,197,51.785,0.706665,0,0,0,0,0,0,0,-1,1917,827,51.785,-0.706694
700,197,51.7787,1.50806,-0.00161866,-0.000670266,-0.00172359,0.00064317,-0.0029321,-0.919638,0.00220068,0.0296908,1924,827,51.7786,-1.50804
707,197,51.7686,2.29956,-0.00121174,-0.000751137,-0.0017109,0.000744897,-0.00270777,-0.852299,0.00209803,0.0108344,1931,827,51.7685,-2.29954
714,197,51.7312,3.06708,0.000196918,-0.000745297,-0.00175407,0.00154205,-0.00209043,-0.654205,0.00210516,0.0138728,1938,827,51.7312,-3.0671
721,197,51.7124,3.84601,0.00214101,-0.00100211,-0.00194455,0.00306966,-0.00193077,-0.445541,0.00291185,0.0138423,1945,827,51.7124,-3.84601
728,197,51.655,4.62134,0.00452415,-0.00172711,-0.00239588,0.00533676,-0.00253973,-0.326997,0.00464209,0.01164,1952,827,51.6551,-4.62132
735,197,51.5719,5.41467,0.00729033,-0.00299322,-0.00320547,0.00820767,-0.00391056,-0.27873,0.00714158,0.0121382,1959,827,51.5719,-5.41469
742,197,51.4977,6.19781,0.0106556,-0.00507274,-0.00460494,0.0119046,-0.00632179,-0.264867,0.0106863,0.0220478,1966,827,51.4977,-6.19782
749,197,51.6803,6.4776,0.0149455,-0.00847917,-0.00657084,0.0166628,-0.0101965,-0.255632,0.0156563,0.0438234,1973,827,51.6803,-6.47759
756,197,52.4135,6.49261,0,0,0,0,0,0,0,-1,1980,827,52.4134,-6.49259
763,197,49.2415,8.67694,0,0,0,0,0,0,0,-1,1987,827,49.2414,-8.67696
770,197,49.3531,10.3912,0,0,0,0,0,0,0,-1,1994,827,49.3531,-10.3912
777,197,0,0,0,0,0,0,0,0,0,-1,2001,827,0,0
784,197,0,0,0,0,0,0,0,0,0,-1,2008,827,0,0
791,197,0,0,0,0,0,0,0,0,0,-1,2015,827,0,0
798,197,0,0,0,0,0,0,0,0,0,-1,2022,827,0,0
805,197,0,0,0,0,0,0,0,0,0,-1,2029,827,0,0
812,197,0,0,0,0,0,0,0,0,0,-1,2036,827,0,0
-700,190,0,0,0,0,0,0,0,0,0,-1,524,834,0,0
-693,190,0,0,0,0,0,0,0,0,0,-1,531,834,0,0
-686,190,0,0,0,0,0,0,0,0,0,-1,538,834,0,0
-679,190,0,0,0,0,0,0,0,0,0,-1,545,834,0,0
-672,190,0,0,0,0,0,0,0,0,0,-1,552,834,0,0
-665,190,0,0,0,0,0,0,0,0,0,-1,559,834,0,0
-658,190,-41.9736,5.50092,0,0,0,0,0,0,0,-1,566,834,-41.9736,-5.50089
-651,190,-40.1895,4.99677,0,0,0,0,0,0,0,-1,573,834,-40.1894,-4.99677
-644,190,-35.4149,8.88776,0,0,0,0,0,0,0,-1,580,834,-35.4149,-8.88774
-637,190,-40.3998,10.5266,0,0,0,0,0,0,0,-1,587,834,-40.3998,-10.5266
-630,190,-37.4564,6.46094,0,0,0,0,0,0,0,-1,594,834,-37.4564,-6.46093
-623,190,-37.3509,5.56097,0,0,0,0,0,0,0,-1,601,834,-37.3509,-5.56095
-616,190,-38.4243,4.81366,0,0,0,0,0,0,0,-1,608,834,-38.4243,-4.81365
-609,190,-38.3816,4.07703,-0.00483954,0.0130311,-0.0113404,0.0185334,-0.0103418,-1.11906,0.0168932,0.0276318,615,834,-38.3816,-4.07704
-602,190,-38.4536,3.32642,-0.00408804,0.00820098,-0.00473513,0.00981381,-0.00570087,-1.24251,0.00906172,0.0180709,622,834,-38.4536,-3.32639
-595,190,-38.5209,2.56384,-0.00310122,0.00471298,-0.00152192,0.00499893,-0.00338717,-1.38507,0.00487143,0.0210207,629,834,-38.5209,-2.56384
-588,190,-38.5543,1.79407,-0.00206713,0.00221448,0.000626312,0.00230422,-0.00215686,1.42849,0.00257607,0.0207758,636,834,-38.5543,-1.79407
-581,190,-38.5724,1.00885,-0.000800482,0.000930619,0.00106632,0.00143847,-0.00130833,1.12632,0.00158646,0.0148743,643,834,-38.5725,-1.00884
-574,190,-38.5792,0.246704,0.000333421,0.000321212,0.000851139,0.00117848,-0.000523844,0.781812,0.00100677,0.0134068,650,834,-38.5792,-0.246698
-567,190,-38.4475,-0.620361,0.000478095,4.83733e-05,-0.000605498,0.000905724,-0.000379255,-0.614904,0.000762356,0.0301362,657,834,-38.4475,0.620332
-560,190,-38.2364,-1.52618,0,0,0,0,0,0,0,-1,664,834,-38.2364,1.52617
-553,190,-33.9625,-1.6355,0,0,0,0,0,0,0,-1,671,834,-33.9625,1.63552
-546,190,-33.7621,-2.04889,0,0,0,0,0,0,0,-1,678,834,-33.7621,2.04886
-539,190,-16.4624,-0.542542,0,0,0,0,0,0,0,-1,685,834,-16.4624,0.542527
-532,190,-21.6292,2.06122,0,0,0,0,0,0,0,-1,692,834,-21.6292,-2.06123
-525,190,-38.9377,1.03369,0,0,0,0,0,0,0,-1,699,834,-38.9377,-1.0337
-518,190,-52.3185,0.464966,0,0,0,0,0,0,0,-1,706,834,-52.3185,-0.464994
-511,190,-52.2979,0.280334,0.00113978,0.00639292,-0.00721806,0.0114474,-0.00391475,-0.959895,0.00921793,0.040852,713,834,-52.2979,-0.280338
-504,190,-52.3187,0.327148,0.00167947,0.00767108,-0.00709172,0.0123738,-0.00302325,-0.985247,0.00942007,0.0409368,720,834,-52.3186,-0.327178
-497,190,-52.2593,0.426331,0.00405457,0.007687,-0.00686731,0.0129742,-0.00123263,-0.914675,0.00908825,0.0416901,727,834,-52.2593,-0.426359
-490,190,-52.225,0.488342,0.00785338,0.0055831,-0.00590342,0.0127298,0.000706681,-0.690415,0.00826106,0.0378714,734,834,-52.225,-0.488335
-483,190,0,0,0,0,0,0,0,0,0,-1,741,834,0,0
-476,190,0,0,0,0,0,0,0,0,0,-1,748,834,0,0
-469,190,0,0,0,0,0,0,0,0,0,-1,755,834,0,0
-462,190,0,0,0,0,0,0,0,0,0,-1,762,834,0,0
-455,190,0,0,0,0,0,0,0,0,0,-1,769,834,0,0
-448,190,0,0,0,0,0,0,0,0,0,-1,776,834,0,0
-441,190,0,0,0,0,0,0,0,0,0,-1,783,834,0,0
-434,190,0,0,0,0,0,0,0,0,0,-1,790,834,0,0
-427,190,0,0,0,0,0,0,0,0,0,-1,797,834,0,0
-420,190,0,0,0,0,0,0,0,0,0,-1,804,834,0,0
-413,190,0,0,0,0,0,0,0,0,0,-1,811,834,0,0
-406,190,0,0,0,0,0,0,0,0,0,-1,818,834,0,0
-399,190,0,0,0,0,0,0,0,0,0,-1,825,834,0,0
-392,190,0,0,0,0,0,0,0,0,0,-1,832,834,0,0
-385,190,0,0,0,0,0,0,0,0,0,-1,839,834,0,0
-378,190,0,0,0,0,0,0,0,0,0,-1,846,834,0,0
-371,190,0,0,0,0,0,0,0,0,0,-1,853,834,0,0
-364,190,0,0,0,0,0,0,0,0,0,-1,860,834,0,0
-357,190,0,0,0,0,0,0,0,0,0,-1,867,834,0,0
-350,190,0,0,0,0,0,0,0,0,0,-1,874,834,0,0
-343,190,0,0,0,0,0,0,0,0,0,-1,881,834,0,0
-336,190,0,0,0,0,0,0,0,0,0,-1,888,834,0,0
-329,190,0,0,0,0,0,0,0,0,0,-1,895,834,0,0
-322,190,0,0,0,0,0,0,0,0,0,-1,902,834,0,0
-315,190,0,0,0,0,0,0,0,0,0,-1,909,834,0,0
-308,190,0,0,0,0,0,0,0,0,0,-1,916,834,0,0
-301,190,0,0,0,0,0,0,0,0,0,-1,923,834,0,0
-294,190,0,0,0,0,0,0,0,0,0,-1,930,834,0,0
-287,190,0,0,0,0,0,0,0,0,0,-1,937,834,0,0
-280,190,0,0,0,0,0,0,0,0,0,-1,944,834,0,0
-273,190,0,0,0,0,0,0,0,0,0,-1,951,834,0,0
-266,190,0,0,0,0,0,0,0,0,0,-1,958,834,0,0
-259,190,0,0,0,0,0,0,0,0,0,-1,965,834,0,0
-252,190,0,0,0,0,0,0,0,0,0,-1,972,834,0,0
-245,190,0,0,0,0,0,0,0,0,0,-1,979,834,0,0
-238,190,0,0,0,0,0,0,0,0,0,-1,986,834,0,0
-231,190,0,0,0,0,0,0,0,0,0,-1,993,834,0,0
-224,190,0,0,0,0,0,0,0,0,0,-1,1000,834,0,0
-217,190,0,0,0,0,0,0,0,0,0,-1,1007,834,0,0
-210,190,0,0,0,0,0,0,0,0,0,-1,1014,834,0,0
-203,190,0,0,0,0,0,0,0,0,0,-1,1021,834,0,0
-196,190,0,0,0,0,0,0,0,0,0,-1,1028,834,0,0
-189,190,0,0,0,0,0,0,0,0,0,-1,1035,834,0,0
-182,190,0,0,0,0,0,0,0,0,0,-1,1042,834,0,0
-175,190,0,0,0,0,0,0,0,0,0,-1,1049,834,0,0
-168,190,0,0,0,0,0,0,0,0,0,-1,1056,834,0,0
-161,190,0,0,0,0,0,0,0,0,0,-1,1063,834,0,0
-154,190,0,0,0,0,0,0,0,0,0,-1,1070,834,0,0
-147,190,0,0,0,0,0,0,0,0,0,-1,1077,834,0,0
-140,190,0,0,0,0,0,0,0,0,0,-1,1084,834,0,0
-133,190,0,0,0,0,0,0,0,0,0,-1,1091,834,0,0
-126,190,0,0,0,0,0,0,0,0,0,-1,1098,834,0,0
-119,190,0,0,0,0,0,0,0,0,0,-1,1105,834,0,0
-112,190,0,0,0,0,0,0,0,0,0,-1,1112,834,0,0
-105,190,0,0,0,0,0,0,0,0,0,-1,1119,834,0,0
-98,190,0,0,0,0,0,0,0,0,0,-1,1126,834,0,0
-91,190,0,0,0,0,0,0,0,0,0,-1,1133,834,0,0
-84,190,0,0,0,0,0,0,0,0,0,-1,1140,834,0,0
-77,190,0,0,0,0,0,0,0,0,0,-1,1147,834,0,0
-70,190,0,0,0,0,0,0,0,0,0,-1,1154,834,0,0
-63,190,0,0,0,0,0,0,0,0,0,-1,1161,834,0,0
-56,190,0,0,0,0,0,0,0,0,0,-1,1168,834,0,0
-49,190,0,0,0,0,0,0,0,0,0,-1,1175,834,0,0
-42,190,0,0,0,0,0,0,0,0,0,-1,1182,834,0,0
-35,190,0,0,0,0,0,0,0,0,0,-1,1189,834,0,0
-28,190,0,0,0,0,0,0,0,0,0,-1,1196,834,0,0
-21,190,0,0,0,0,0,0,0,0,0,-1,1203,834,0,0
-14,190,0,0,0,0,0,0,0,0,0,-1,1210,834,0,0
-7,190,0,0,0,0,0,0,0,0,0,-1,1217,834,0,0
0,190,0,0,0,0,0,0,0,0,0,-1,1224,834,0,0
7,190,0,0,0,0,0,0,0,0,0,-1,1231,834,0,0
14,190,0,0,0,0,0,0,0,0,0,-1,1238,834,0,0
21,190,0,0,0,0,0,0,0,0,0,-1,1245,834,0,0
28,190,0,0,0,0,0,0,0,0,0,-1,1252,834,0,0
35,190,0,0,0,0,0,0,0,0,0,-1,1259,834,0,0
42,190,0,0,0,0,0,0,0,0,0,-1,1266,834,0,0
49,190,0,0,0,0,0,0,0,0,0,-1,1273,834,0,0
56,190,0,0,0,0,0,0,0,0,0,-1,1280,834,0,0
63,190,0,0,0,0,0,0,0,0,0,-1,1287,834,0,0
70,190,0,0,0,0,0,0,0,0,0,-1,1294,834,0,0
77,190,0,0,0,0,0,0,0,0,0,-1,1301,834,0,0
84,190,0,0,0,0,0,0,0,0,0,-1,1308,834,0,0
91,190,0,0,0,0,0,0,0,0,0,-1,1315,834,0,0
98,190,0,0,0,0,0,0,0,0,0,-1,1322,834,0,0
105,190,0,0,0,0,0,0,0,0,0,-1,1329,834,0,0
112,190,0,0,0,0,0,0,0,0,0,-1,1336,834,0,0
119,190,0,0,0,0,0,0,0,0,0,-1,1343,834,0,0
126,190,0,0,0,0,0,0,0,0,0,-1,1350,834,0,0
133,190,0,0,0,0,0,0,0,0,0,-1,1357,834,0,0
140,190,0,0,0,0,0,0,0,0,0,-1,1364,834,0,0
147,190,0,0,0,0,0,0,0,0,0,-1,1371,834,0,0
154,190,0,0,0,0,0,0,0,0,0,-1,1378,834,0,0
161,190,0,0,0,0,0,0,0,0,0,-1,1385,834,0,0
168,190,0,0,0,0,0,0,0,0,0,-1,1392,834,0,0
175,190,0,0,0,0,0,0,0,0,0,-1,1399,834,0,0
182,190,0,0,0,0,0,0,0,0,0,-1,1406,834,0,0
189,190,0,0,0,0,0,0,0,0,0,-1,1413,834,0,0
196,190,0,0,0,0,0,0,0,0,0,-1,1420,834,0,0
203,190,0,0,0,0,0,0,0,0,0,-1,1427,834,0,0
210,190,0,0,0,0,0,0,0,0,0,-1,1434,834,0,0
217,190,0,0,0,0,0,0,0,0,0,-1,1441,834,0,0
224,190,0,0,0,0,0,0,0,0,0,-1,1448,834,0,0
231,190,0,0,0,0,0,0,0,0,0,-1,1455,834,0,0
238,190,0,0,0,0,0,0,0,0,0,-1,1462,834,0,0
245,190,0,0,0,0,0,0,0,0,0,-1,1469,834,0,0
252,190,0,0,0,0,0,0,0,0,0,-1,1476,834,0,0
259,190,0,0,0,0,0,0,0,0,0,-1,1483,834,0,0
266,190,0,0,0,0,0,0,0,0,0,-1,1490,834,0,0
273,190,0,0,0,0,0,0,0,0,0,-1,1497,834,0,0
280,190,0,0,0,0,0,0,0,0,0,-1,1504,834,0,0
287,190,0,0,0,0,0,0,0,0,0,-1,1511,834,0,0
294,190,0,0,0,0,0,0,0,0,0,-1,1518,834,0,0
301,190,0,0,0,0,0,0,0,0,0,-1,1525,834,0,0
308,190,0,0,0,0,0,0,0,0,0,-1,1532,834,0,0
315,190,0,0,0,0,0,0,0,0,0,-1,1539,834,0,0
322,190,0,0,0,0,0,0,0,0,0,-1,1546,834,0,0
329,190,0,0,0,0,0,0,0,0,0,-1,1553,834,0,0
336,190,0,0,0,0,0,0,0,0,0,-1,1560,834,0,0
343,190,0,0,0,0,0,0,0,0,0,-1,1567,834,0,0
350,190,0,0,0,0,0,0,0,0,0,-1,1574,834,0,0
357,190,0,0,0,0,0,0,0,0,0,-1,1581,834,0,0
364,190,0,0,0,0,0,0,0,0,0,-1,1588,834,0,0
371,190,0,0,0,0,0,0,0,0,0,-1,1595,834,0,0
378,190,0,0,0,0,0,0,0,0,0,-1,1602,834,0,0
385,190,0,0,0,0,0,0,0,0,0,-1,1609,834,0,0
392,190,0,0,0,0,0,0,0,0,0,-1,1616,834,0,0
399,190,0,0,0,0,0,0,0,0,0,-1,1623,834,0,0
406,190,0,0,0,0,0,0,0,0,0,-1,1630,834,0,0
413,190,0,0,0,0,0,0,0,0,0,-1,1637,834,0,0
420,190,0,0,0,0,0,0,0,0,0,-1,1644,834,0,0
427,190,0,0,0,0,0,0,0,0,0,-1,1651,834,0,0
434,190,0,0,0,0,0,0,0,0,0,-1,1658,834,0,0
441,190,0,0,0,0,0,0,0,0,0,-1,1665,834,0,0
448,190,0,0,0,0,0,0,0,0,0,-1,1672,834,0,0
455,190,0,0,0,0,0,0,0,0,0,-1,1679,834,0,0
462,190,0,0,0,0,0,0,0,0,0,-1,1686,834,0,0
469,190,0,0,0,0,0,0,0,0,0,-1,1693,834,0,0
476,190,0,0,0,0,0,0,0,0,0,-1,1700,834,0,0
483,190,0,0,0,0,0,0,0,0,0,-1,1707,834,0,0
490,190,0,0,0,0,0,0,0,0,0,-1,1714,834,0,0
497,190,0,0,0,0,0,0,0,0,0,-1,1721,834,0,0
504,190,0,0,0,0,0,0,0,0,0,-1,1728,834,0,0
511,190,0,0,0,0,0,0,0,0,0,-1,1735,834,0,0
518,190,0,0,0,0,0,0,0,0,0,-1,1742,834,0,0
525,190,0,0,0,0,0,0,0,0,0,-1,1749,834,0,0
532,190,0,0,0,0,0,0,0,0,0,-1,1756,834,0,0
539,190,0,0,0,0,0,0,0,0,0,-1,1763,834,0,0
546,190,0,0,0,0,0,0,0,0,0,-1,1770,834,0,0
553,190,0,0,0,0,0,0,0,0,0,-1,1777,834,0,0
560,190,0,0,0,0,0,0,0,0,0,-1,1784,834,0,0
567,190,0,0,0,0,0,0,0,0,0,-1,1791,834,0,0
574,190,0,0,0,0,0,0,0,0,0,-1,1798,834,0,0
581,190,0,0,0,0,0,0,0,0,0,-1,1805,834,0,0
588,190,0,0,0,0,0,0,0,0,0,-1,1812,834,0,0
595,190,0,0,0,0,0,0,0,0,0,-1,1819,834,0,0
602,190,67.13,2.54425,0.00418093,0.00200227,0.00174388,0.00514775,0.00103546,0.506221,0.00314404,0.0452284,1826,834,67.13,-2.54425
609,190,67.3542,2.75848,0.00300225,0.00208428,0.00135236,0.00397138,0.00111514,0.621799,0.00236519,0.0442017,1833,834,67.3543,-2.75847
616,190,67.39,2.51923,0.00188453,0.00234741,0.00116829,0.00330696,0.000924973,0.883183,0.00197008,0.0391896,1840,834,67.39,-2.5192
623,190,67.2207,2.43561,0.000941378,0.00265028,0.00120208,0.00327064,0.000321013,1.09437,0.00208169,0.0363678,1847,834,67.2207,-2.4356
630,190,67.3771,2.14221,0.000222409,0.00283635,0.00122897,0.00332341,-0.00026465,1.19347,0.00230889,0.0406145,1854,834,67.377,-2.14219
637,190,67.3284,2.28625,-0.000296553,0.0026284,0.000886357,0.00287603,-0.000544183,1.29836,0.00212214,0.0347064,1861,834,67.3283,-2.28624
644,190,67.2168,2.50391,-0.000793453,0.00218937,0.0007047,0.00234748,-0.000951559,1.35009,0.00196071,0.0274343,1868,834,67.2168,-2.50388
651,190,67.1862,2.6601,0,0,0,0,0,0,0,-1,1875,834,67.1862,-2.66007
658,190,54.0599,3.0943,0,0,0,0,0,0,0,-1,1882,834,54.0599,-3.09428
665,190,25.9916,3.05157,0,0,0,0,0,0,0,-1,1889,834,25.9916,-3.05156
672,190,27.2662,1.70862,0,0,0,0,0,0,0,-1,1896,834,27.2662,-1.70861
679,190,52.7953,-0.669983,0,0,0,0,0,0,0,-1,1903,834,52.7953,0.670011
686,190,52.7795,0.0783081,-0.00235872,8.43473e-05,-0.000956809,0.000414467,-0.00268884,-1.23856,0.00194549,0.0292362,1910,834,52.7795,-0.0783199
693,190,52.7843,0.859802,-0.00217687,-0.000173841,-0.00149565,0.000624643,-0.00297536,-1.08042,0.00222126,0.03353,1917,834,52.7842,-0.859789
700,190,52.535,1.54919,-0.00209212,-0.00050824,-0.00181241,0.000677692,-0.00327806,-0.991375,0.00244281,0.0222464,1924,834,52.535,-1.54918
707,190,52.5388,2.34222,-0.00193639,-0.000578386,-0.00182299,0.000687943,-0.00320272,-0.963673,0.00239759,0.0147626,1931,834,52.5388,-2.34223
714,190,52.5352,3.10382,-0.000691515,-0.000557396,-0.00186805,0.0012448,-0.00249371,-0.80334,0.00219821,0.013985,1938,834,52.5352,-3.10382
721,190,52.5082,3.8717,0.00117076,-0.000739062,-0.00199412,0.00242681,-0.00199511,-0.5621,0.00255705,0.0124276,1945,834,52.5082,-3.87173
728,190,52.4469,4.64642,0.00346566,-0.00132079,-0.00230551,0.00439553,-0.00225065,-0.383367,0.00390321,0.0140204,1952,834,52.4469,-4.6464
735,190,52.4021,5.39807,0.00611546,-0.00233425,-0.00291306,0.0070224,-0.00324119,-0.301824,0.00605825,0.0135212,1959,834,52.4021,-5.39806
742,190,52.291,6.23578,0.00922056,-0.00399658,-0.00396953,0.0103211,-0.00509712,-0.270454,0.00907043,0.0180574,1966,834,52.291,-6.23581
749,190,52.2211,6.9032,0.0130699,-0.00673699,-0.00546052,0.0144755,-0.00814263,-0.25195,0.0132281,0.0416092,1973,834,52.2211,-6.90322
756,190,52.1481,7.02026,0,0,0,0,0,0,0,-1,1980,834,52.1481,-7.02026
763,190,51.9856,7.39325,0,0,0,0,0,0,0,-1,1987,834,51.9856,-7.39324
770,190,50.9589,9.46765,0,0,0,0,0,0,0,-1,1994,834,50.9588,-9.46768
777,190,51.4365,10.3331,0,0,0,0,0,0,0,-1,2001,834,51.4366,-10.3331
784,190,0,0,0,0,0,0,0,0,0,-1,2008,834,0,0
791,190,0,0,0,0,0,0,0,0,0,-1,2015,834,0,0
798,190,0,0,0,0,0,0,0,0,0,-1,2022,834,0,0
805,190,0,0,0,0,0,0,0,0,0,-1,2029,834,0,0
812,190,0,0,0,0,0,0,0,0,0,-1,2036,834,0,0
-700,183,0,0,0,0,0,0,0,0,0,-1,524,841,0,0
-693,183,0,0,0,0,0,0,0,0,0,-1,531,841,0,0
-686,183,0,0,0,0,0,0,0,0,0,-1,538,841,0,0
-679,183,0,0,0,0,0,0,0,0,0,-1,545,841,0,0
-672,183,0,0,0,0,0,0,0,0,0,-1,552,841,0,0
-665,183,0,0,0,0,0,0,0,0,0,-1,559,841,0,0
-658,183,-56.7401,1.32843,0,0,0,0,0,0,0,-1,566,841,-56.7401,-1.32844
-651,183,-36.1273,9.60504,0,0,0,0,0,0,0,-1,573,841,-36.1273,-9.60503
-644,183,-39.8417,11.3328,0,0,0,0,0,0,0,-1,580,841,-39.8417,-11.3328
-637,183,-39.9888,9.35724,0,0,0,0,0,0,0,-1,587,841,-39.9888,-9.35724
-630,183,-37.8087,6.4281,0,0,0,0,0,0,0,-1,594,841,-37.8087,-6.42811
-623,183,-38.199,5.63068,-0.00572917,0.0250539,-0.0360021,0.0488166,-0.0294918,-0.987399,0.045668,0.0479746,601,841,-38.199,-5.6307
-616,183,-38.7463,4.88885,-0.00580845,0.0179977,-0.0224272,0.0314848,-0.0192955,-1.02937,0.0295983,0.040278,608,841,-38.7463,-4.88887
-609,183,-39.1908,4.14539,-0.00500224,0.0127244,-0.0113423,0.0182558,-0.0105336,-1.11706,0.0168197,0.0186245,615,841,-39.1908,-4.14541
-602,183,-39.228,3.35516,-0.00439229,0.0077491,-0.00409562,0.00900148,-0.00564467,-1.27404,0.00852967,0.0120353,622,841,-39.228,-3.35517
-595,183,-39.2739,2.56024,-0.00353024,0.00404459,-0.000613645,0.00409398,-0.00357963,-1.49048,0.00443368,0.0128117,629,841,-39.2739,-2.56024
-588,183,-39.2805,1.79657,-0.00257094,0.00155816,0.0014209,0.00199987,-0.00301265,1.2694,0.0029136,0.0159864,636,841,-39.2804,-1.79656
-581,183,-39.3578,1.05713,-0.00140418,0.000627293,0.00154263,0.00145856,-0.00223545,1.07654,0.0021484,0.0164933,643,841,-39.3578,-1.05716
-574,183,-39.3585,0.32782,-0.00039936,0.000336919,0.00111961,0.00114736,-0.0012098,0.944235,0.00136107,0.0199178,650,841,-39.3585,-0.327837
-567,183,-39.1633,-0.680237,0,0,0,0,0,0,0,-1,657,841,-39.1633,0.680257
-560,183,-34.0303,-1.05511,0,0,0,0,0,0,0,-1,664,841,-34.0303,1.05511
-553,183,-32.2224,-1.71942,0,0,0,0,0,0,0,-1,671,841,-32.2224,1.71944
-546,183,-27.8053,-1.91199,0,0,0,0,0,0,0,-1,678,841,-27.8053,1.91201
-539,183,-16.8032,-0.417297,0,0,0,0,0,0,0,-1,685,841,-16.8032,0.41732
-532,183,-29.9686,0.953613,0,0,0,0,0,0,0,-1,692,841,-29.9686,-0.953627
-525,183,-52.2424,0.681946,0,0,0,0,0,0,0,-1,699,841,-52.2424,-0.681935
-518,183,-52.1927,0.512939,0.0014356,0.00539426,-0.00815856,0.0118102,-0.0049803,-0.904403,0.00995772,0.0486233,706,841,-52.1927,-0.512923
-511,183,-52.1531,0.322388,0.000864558,0.00642774,-0.0082818,0.0123826,-0.00509029,-0.947413,0.0103767,0.0418126,713,841,-52.1531,-0.322411
-504,183,-52.363,0.22583,0.00214976,0.00643721,-0.00765244,0.0122405,-0.00365356,-0.921966,0.0096125,0.0431373,720,841,-52.363,-0.225844
-497,183,-52.3773,0.111145,0.00610958,0.00365659,-0.00612679,0.0111314,-0.00136526,-0.686611,0.00791539,0.0445306,727,841,-52.3773,-0.111156
-490,183,-52.121,0.276306,0.0112894,-0.00112508,-0.00359283,0.0122542,-0.00208988,-0.262347,0.00894785,0.0396275,734,841,-52.121,-0.276283
-483,183,0,0,0,0,0,0,0,0,0,-1,741,841,0,0
-476,183,0,0,0,0,0,0,0,0,0,-1,748,841,0,0
-469,183,0,0,0,0,0,0,0,0,0,-1,755,841,0,0
-462,183,0,0,0,0,0,0,0,0,0,-1,762,841,0,0
-455,183,0,0,0,0,0,0,0,0,0,-1,769,841,0,0
-448,183,0,0,0,0,0,0,0,0,0,-1,776,841,0,0
-441,183,0,0,0,0,0,0,0,0,0,-1,783,841,0,0
-434,183,0,0,0,0,0,0,0,0,0,-1,790,841,0,0
-427,183,0,0,0,0,0,0,0,0,0,-1,797,841,0,0
-420,183,0,0,0,0,0,0,0,0,0,-1,804,841,0,0
-413,183,0,0,0,0,0,0,0,0,0,-1,811,841,0,0
-406,183,0,0,0,0,0,0,0,0,0,-1,818,841,0,0
-399,183,0,0,0,0,0,0,0,0,0,-1,825,841,0,0
-392,183,0,0,0,0,0,0,0,0,0,-1,832,841,0,0
-385,183,0,0,0,0,0,0,0,0,0,-1,839,841,0,0
-378,183,0,0,0,0,0,0,0,0,0,-1,846,841,0,0
-371,183,0,0,0,0,0,0,0,0,0,-1,853,841,0,0
-364,183,0,0,0,0,0,0,0,0,0,-1,860,841,0,0
-357,183,0,0,0,0,0,0,0,0,0,-1,867,841,0,0
-350,183,0,0,0,0,0,0,0,0,0,-1,874,841,0,0
-343,183,0,0,0,0,0,0,0,0,0,-1,881,841,0,0
-336,183,0,0,0,0,0,0,0,0,0,-1,888,841,0,0
-329,183,0,0,0,0,0,0,0,0,0,-1,895,841,0,0
-322,183,0,0,0,0,0,0,0,0,0,-1,902,841,0,0
-315,183,0,0,0,0,0,0,0,0,0,-1,909,841,0,0
-308,183,0,0,0,0,0,0,0,0,0,-1,916,841,0,0
-301,183,0,0,0,0,0,0,0,0,0,-1,923,841,0,0
-294,183,0,0,0,0,0,0,0,0,0,-1,930,841,0,0
-287,183,0,0,0,0,0,0,0,0,0,-1,937,841,0,0
-280,183,0,0,0,0,0,0,0,0,0,-1,944,841,0,0
-273,183,0,0,0,0,0,0,0,0,0,-1,951,841,0,0
-266,183,0,0,0,0,0,0,0,0,0,-1,958,841,0,0
-259,183,0,0,0,0,0,0,0,0,0,-1,965,841,0,0
-252,183,0,0,0,0,0,0,0,0,0,-1,972,841,0,0
-245,183,0,0,0,0,0,0,0,0,0,-1,979,841,0,0
-238,183,0,0,0,0,0,0,0,0,0,-1,986,841,0,0
-231,183,0,0,0,0,0,0,0,0,0,-1,993,841,0,0
-224,183,0,0,0,0,0,0,0,0,0,-1,1000,841,0,0
-217,183,0,0,0,0,0,0,0,0,0,-1,1007,841,0,0
-210,183,0,0,0,0,0,0,0,0,0,-1,1014,841,0,0
-203,183,0,0,0,0,0,0,0,0,0,-1,1021,841,0,0
-196,183,0,0,0,0,0,0,0,0,0,-1,1028,841,0,0
-189,183,0,0,0,0,0,0,0,0,0,-1,1035,841,0,0
-182,183,0,0,0,0,0,0,0,0,0,-1,1042,841,0,0
-175,183,0,0,0,0,0,0,0,0,0,-1,1049,841,0,0
-168,183,0,0,0,0,0,0,0,0,0,-1,1056,841,0,0
-161,183,0,0,0,0,0,0,0,0,0,-1,1063,841,0,0
-154,183,0,0,0,0,0,0,0,0,0,-1,1070,841,0,0
-147,183,0,0,0,0,0,0,0,0,0,-1,1077,841,0,0
-140,183,0,0,0,0,0,0,0,0,0,-1,1084,841,0,0
-133,183,0,0,0,0,0,0,0,0,0,-1,1091,841,0,0
-126,183,0,0,0,0,0,0,0,0,0,-1,1098,841,0,0
-119,183,0,0,0,0,0,0,0,0,0,-1,1105,841,0,0
-112,183,0,0,0,0,0,0,0,0,0,-1,1112,841,0,0
-105,183,0,0,0,0,0,0,0,0,0,-1,1119,841,0,0
-98,183,0,0,0,0,0,0,0,0,0,-1,1126,841,0,0
-91,183,0,0,0,0,0,0,0,0,0,-1,1133,841,0,0
-84,183,0,0,0,0,0,0,0,0,0,-1,1140,841,0,0
-77,183,0,0,0,0,0,0,0,0,0,-1,1147,841,0,0
-70,183,0,0,0,0,0,0,0,0,0,-1,1154,841,0,0
-63,183,0,0,0,0,0,0,0,0,0,-1,1161,841,0,0
-56,183,0,0,0,0,0,0,0,0,0,-1,1168,841,0,0
-49,183,0,0,0,0,0,0,0,0,0,-1,1175,841,0,0
-42,183,0,0,0,0,0,0,0,0,0,-1,1182,841,0,0
-35,183,0,0,0,0,0,0,0,0,0,-1,1189,841,0,0
-28,183,0,0,0,0,0,0,0,0,0,-1,1196,841,0,0
-21,183,0,0,0,0,0,0,0,0,0,-1,1203,841,0,0
-14,183,0,0,0,0,0,0,0,0,0,-1,1210,841,0,0
-7,183,0,0,0,0,0,0,0,0,0,-1,1217,841,0,0
0,183,0,0,0,0,0,0,0,0,0,-1,1224,841,0,0
7,183,0,0,0,0,0,0,0,0,0,-1,1231,841,0,0
14,183,0,0,0,0,0,0,0,0,0,-1,1238,841,0,0
21,183,0,0,0,0,0,0,0,0,0,-1,1245,841,0,0
28,183,0,0,0,0,0,0,0,0,0,-1,1252,841,0,0
35,183,0,0,0,0,0,0,0,0,0,-1,1259,841,0,0
42,183,0,0,0,0,0,0,0,0,0,-1,1266,841,0,0
49,183,0,0,0,0,0,0,0,0,0,-1,1273,841,0,0
56,183,0,0,0,0,0,0,0,0,0,-1,1280,841,0,0
63,183,0,0,0,0,0,0,0,0,0,-1,1287,841,0,0
70,183,0,0,0,0,0,0,0,0,0,-1,1294,841,0,0
77,183,0,0,0,0,0,0,0,0,0,-1,1301,841,0,0
84,183,0,0,0,0,0,0,0,0,0,-1,1308,841,0,0
91,183,0,0,0,0,0,0,0,0,0,-1,1315,841,0,0
98,183,0,0,0,0,0,0,0,0,0,-1,1322,841,0,0
105,183,0,0,0,0,0,0,0,0,0,-1,1329,841,0,0
112,183,0,0,0,0,0,0,0,0,0,-1,1336,841,0,0
119,183,0,0,0,0,0,0,0,0,0,-1,1343,841,0,0
126,183,0,0,0,0,0,0,0,0,0,-1,1350,841,0,0
133,183,0,0,0,0,0,0,0,0,0,-1,1357,841,0,0
140,183,0,0,0,0,0,0,0,0,0,-1,1364,841,0,0
147,183,0,0,0,0,0,0,0,0,0,-1,1371,841,0,0
154,183,0,0,0,0,0,0,0,0,0,-1,1378,841,0,0
161,183,0,0,0,0,0,0,0,0,0,-1,1385,841,0,0
168,183,0,0,0,0,0,0,0,0,0,-1,1392,841,0,0
175,183,0,0,0,0,0,0,0,0,0,-1,1399,841,0,0
182,183,0,0,0,0,0,0,0,0,0,-1,1406,841,0,0
189,183,0,0,0,0,0,0,0,0,0,-1,1413,841,0,0
196,183,0,0,0,0,0,0,0,0,0,-1,1420,841,0,0
203,183,0,0,0,0,0,0,0,0,0,-1,1427,841,0,0
210,183,0,0,0,0,0,0,0,0,0,-1,1434,841,0,0
217,183,0,0,0,0,0,0,0,0,0,-1,1441,841,0,0
224,183,0,0,0,0,0,0,0,0,0,-1,1448,841,0,0
231,183,0,0,0,0,0,0,0,0,0,-1,1455,841,0,0
238,183,0,0,0,0,0,0,0,0,0,-1,1462,841,0,0
245,183,0,0,0,0,0,0,0,0,0,-1,1469,841,0,0
252,183,0,0,0,0,0,0,0,0,0,-1,1476,841,0,0
259,183,0,0,0,0,0,0,0,0,0,-1,1483,841,0,0
266,183,0,0,0,0,0,0,0,0,0,-1,1490,841,0,0
273,183,0,0,0,0,0,0,0,0,0,-1,1497,841,0,0
280,183,0,0,0,0,0,0,0,0,0,-1,1504,841,0,0
287,183,0,0,0,0,0,0,0,0,0,-1,1511,841,0,0
294,183,0,0,0,0,0,0,0,0,0,-1,1518,841,0,0
301,183,0,0,0,0,0,0,0,0,0,-1,1525,841,0,0
308,183,0,0,0,0,0,0,0,0,0,-1,1532,841,0,0
315,183,0,0,0,0,0,0,0,0,0,-1,1539,841,0,0
322,183,0,0,0,0,0,0,0,0,0,-1,1546,841,0,0
329,183,0,0,0,0,0,0,0,0,0,-1,1553,841,0,0
336,183,0,0,0,0,0,0,0,0,0,-1,1560,841,0,0
343,183,0,0,0,0,0,0,0,0,0,-1,1567,841,0,0
350,183,0,0,0,0,0,0,0,0,0,-1,1574,841,0,0
357,183,0,0,0,0,0,0,0,0,0,-1,1581,841,0,0
364,183,0,0,0,0,0,0,0,0,0,-1,1588,841,0,0
371,183,0,0,0,0,0,0,0,0,0,-1,1595,841,0,0
378,183,0,0,0,0,0,0,0,0,0,-1,1602,841,0,0
385,183,0,0,0,0,0,0,0,0,0,-1,1609,841,0,0
392,183,0,0,0,0,0,0,0,0,0,-1,1616,841,0,0
399,183,0,0,0,0,0,0,0,0,0,-1,1623,841,0,0
406,183,0,0,0,0,0,0,0,0,0,-1,1630,841,0,0
413,183,0,0,0,0,0,0,0,0,0,-1,1637,841,0,0
420,183,0,0,0,0,0,0,0,0,0,-1,1644,841,0,0
427,183,0,0,0,0,0,0,0,0,0,-1,1651,841,0,0
434,183,0,0,0,0,0,0,0,0,0,-1,1658,841,0,0
441,183,0,0,0,0,0,0,0,0,0,-1,1665,841,0,0
448,183,0,0,0,0,0,0,0,0,0,-1,1672,841,0,0
455,183,0,0,0,0,0,0,0,0,0,-1,1679,841,0,0
462,183,0,0,0,0,0,0,0,0,0,-1,1686,841,0,0
469,183,0,0,0,0,0,0,0,0,0,-1,1693,841,0,0
476,183,0,0,0,0,0,0,0,0,0,-1,1700,841,0,0
483,183,0,0,0,0,0,0,0,0,0,-1,1707,841,0,0
490,183,0,0,0,0,0,0,0,0,0,-1,1714,841,0,0
497,183,0,0,0,0,0,0,0,0,0,-1,1721,841,0,0
504,183,0,0,0,0,0,0,0,0,0,-1,1728,841,0,0
511,183,0,0,0,0,0,0,0,0,0,-1,1735,841,0,0
518,183,0,0,0,0,0,0,0,0,0,-1,1742,841,0,0
525,183,0,0,0,0,0,0,0,0,0,-1,1749,841,0,0
532,183,0,0,0,0,0,0,0,0,0,-1,1756,841,0,0
539,183,0,0,0,0,0,0,0,0,0,-1,1763,841,0,0
546,183,0,0,0,0,0,0,0,0,0,-1,1770,841,0,0
553,183,0,0,0,0,0,0,0,0,0,-1,1777,841,0,0
560,183,0,0,0,0,0,0,0,0,0,-1,1784,841,0,0
567,183,0,0,0,0,0,0,0,0,0,-1,1791,841,0,0
574,183,0,0,0,0,0,0,0,0,0,-1,1798,841,0,0
581,183,0,0,0,0,0,0,0,0,0,-1,1805,841,0,0
588,183,0,0,0,0,0,0,0,0,0,-1,1812,841,0,0
595,183,0,0,0,0,0,0,0,0,0,-1,1819,841,0,0
602,183,0,0,0,0,0,0,0,0,0,-1,1826,841,0,0
609,183,67.2896,2.57104,0.00341315,0.00167628,0.00180879,0.00455118,0.000538246,0.56159,0.00287157,0.0419119,1833,841,67.2896,-2.57106
616,183,67.2653,2.42133,0.00223874,0.00161953,0.00144892,0.00341076,0.000447512,0.680141,0.00214032,0.0379699,1840,841,67.2653,-2.42133
623,183,67.2063,2.29279,0.00117759,0.00178264,0.00129802,0.00281293,0.000147308,0.899887,0.00182816,0.0407105,1847,841,67.2063,-2.29277
630,183,67.3116,2.26392,0.000298367,0.00212639,0.00120501,0.00272481,-0.000300056,1.10986,0.00192437,0.0416196,1854,841,67.3117,-2.2639
637,183,67.2887,2.36884,-0.000375869,0.00214753,0.000890298,0.00243002,-0.000658357,1.26355,0.00187833,0.0365153,1861,841,67.2887,-2.36881
644,183,67.1748,2.4408,-0.000954474,0.00180957,0.000687905,0.00197131,-0.00111621,1.33987,0.00180523,0.029689,1868,841,67.1748,-2.44079
651,183,67.2499,2.45367,-0.0012711,0.00128474,0.000308187,0.00132138,-0.00130774,1.45247,0.00151793,0.0292375,1875,841,67.2499,-2.45369
658,183,67.4203,2.43353,0,0,0,0,0,0,0,-1,1882,841,67.4202,-2.43351
665,183,38.4337,2.66992,0,0,0,0,0,0,0,-1,1889,841,38.4337,-2.6699
672,183,29.168,1.54572,0,0,0,0,0,0,0,-1,1896,841,29.168,-1.54574
679,183,53.6888,-0.50647,0,0,0,0,0,0,0,-1,1903,841,53.6888,0.506487
686,183,53.6255,0.162598,-0.00249811,5.26488e-05,-0.00111152,0.000469037,-0.0029145,-1.21237,0.00211674,0.0376989,1910,841,53.6255,-0.162607
693,183,53.5466,0.808228,-0.00233176,-5.11417e-05,-0.00162258,0.000791743,-0.00317464,-1.09169,0.00242384,0.0349907,1917,841,53.5467,-0.808216
700,183,53.3685,1.58337,-0.00228547,-0.000279593,-0.00192351,0.000886746,-0.00345181,-1.02571,0.00264677,0.0396626,1924,841,53.3685,-1.5834
707,183,53.3118,2.38953,-0.0023252,-0.000284981,-0.00194038,0.000887098,-0.00349728,-1.02741,0.00267668,0.0137535,1931,841,53.3117,-2.3895
714,183,53.342,3.14807,-0.0013314,-0.000223512,-0.00196429,0.00126345,-0.00281836,-0.922833,0.00241296,0.0183381,1938,841,53.3421,-3.14806
721,183,53.2968,3.90918,0.000287936,-0.000322702,-0.00200052,0.00200631,-0.00204107,-0.709673,0.00233678,0.0170317,1945,841,53.2968,-3.90919
728,183,53.2269,4.68683,0.002335,-0.00072978,-0.0021385,0.00343347,-0.00182825,-0.474517,0.00308462,0.0144389,1952,841,53.2269,-4.6868
735,183,53.1929,5.42523,0.00474804,-0.00146122,-0.00251794,0.00564075,-0.00235393,-0.340715,0.00474398,0.0136825,1959,841,53.1929,-5.4252
742,183,53.1592,6.19916,0.00748601,-0.00265669,-0.00323971,0.00843249,-0.00360317,-0.28424,0.00713282,0.0139656,1966,841,53.1592,-6.19918
749,183,53.1764,7.26318,0.0107678,-0.00465534,-0.00428502,0.0118784,-0.00576589,-0.25359,0.0103887,0.036163,1973,841,53.1764,-7.26319
756,183,53.2035,8.37048,0,0,0,0,0,0,0,-1,1980,841,53.2035,-8.3705
763,183,52.9728,9.02515,0,0,0,0,0,0,0,-1,1987,841,52.9728,-9.02518
770,183,51.5659,9.50665,0,0,0,0,0,0,0,-1,1994,841,51.5659,-9.50663
777,183,42.1948,7.22906,0,0,0,0,0,0,0,-1,2001,841,42.1948,-7.22905
784,183,0,0,0,0,0,0,0,0,0,-1,2008,841,0,0
791,183,0,0,0,0,0,0,0,0,0,-1,2015,841,0,0
798,183,0,0,0,0,0,0,0,0,0,-1,2022,841,0,0
805,183,0,0,0,0,0,0,0,0,0,-1,2029,841,0,0
812,183,0,0,0,0,0,0,0,0,0,-1,2036,841,0,0
-700,176,0,0,0,0,0,0,0,0,0,-1,524,848,0,0
-693,176,0,0,0,0,0,0,0,0,0,-1,531,848,0,0
-686,176,0,0,0,0,0,0,0,0,0,-1,538,848,0,0
-679,176,0,0,0,0,0,0,0,0,0,-1,545,848,0,0
-672,176,0,0,0,0,0,0,0,0,0,-1,552,848,0,0
-665,176,-59.6962,8.75854,0,0,0,0,0,0,0,-1,559,848,-59.6962,-8.75853
-658,176,-59.6349,7.95142,0,0,0,0,0,0,0,-1,566,848,-59.6349,-7.95144
-651,176,-39.6041,10.5899,0,0,0,0,0,0,0,-1,573,848,-39.6041,-10.5899
-644,176,-39.5197,9.17731,-0.00849003,0.0441433,-0.0897577,0.111363,-0.0757095,-0.928,0.108658,0.0474772,580,848,-39.5197,-9.17728
-637,176,-39.6747,7.92194,-0.00777298,0.0372942,-0.0702408,0.0885273,-0.0590061,-0.940615,0.085745,0.0455883,587,848,-39.6747,-7.92191
-630,176,-39.6646,6.63788,0,0,0,0,0,0,0,-1,594,848,-39.6646,-6.63788
-623,176,-39.7049,5.76074,-0.00670356,0.0236459,-0.0359734,0.0475142,-0.0305719,-0.98499,0.0454354,0.0433518,601,848,-39.7049,-5.76074
-616,176,-39.8765,4.95734,-0.00647566,0.0169244,-0.0222392,0.0303534,-0.0199048,-1.02755,0.0292249,0.0283034,608,848,-39.8765,-4.95732
-609,176,-39.9793,4.16345,-0.00541991,0.011809,-0.0107731,0.0169883,-0.0105992,-1.12266,0.0160694,0.0124425,615,848,-39.9793,-4.16342
-602,176,-40.0024,3.37616,-0.00478961,0.00682781,-0.00300888,0.00756085,-0.00552265,-1.33183,0.00758425,0.0126503,622,848,-40.0024,-3.37617
-595,176,-40.0323,2.58765,-0.00406323,0.0030789,0.000609794,0.00313059,-0.00411492,1.48623,0.00419605,0.0126065,629,848,-40.0323,-2.58767
-588,176,-40.0477,1.85071,-0.00320688,0.000802669,0.00234656,0.00188423,-0.00428844,1.1389,0.00365279,0.0158304,636,848,-40.0478,-1.85068
-581,176,-40.1377,1.16193,-0.00219731,0.00024356,0.00218767,0.00152819,-0.00348195,1.03983,0.00296501,0.014263,643,848,-40.1377,-1.1619
-574,176,-40.2456,0.457947,-0.00132026,9.86254e-05,0.0016834,0.00121597,-0.00243761,0.984821,0.00214834,0.0290067,650,848,-40.2456,-0.457971
-567,176,-40.2587,-0.366455,0,0,0,0,0,0,0,-1,657,848,-40.2587,0.366438
-560,176,-31.6935,-0.0994873,0,0,0,0,0,0,0,-1,664,848,-31.6936,0.0994584
-553,176,-29.4605,-1.50214,0,0,0,0,0,0,0,-1,671,848,-29.4605,1.50211
-546,176,-16.657,-0.403198,0,0,0,0,0,0,0,-1,678,848,-16.657,0.403182
-539,176,-22.7061,1.48657,0,0,0,0,0,0,0,-1,685,848,-22.7061,-1.48657
-532,176,-38.8326,1.29749,0,0,0,0,0,0,0,-1,692,848,-38.8326,-1.29747
-525,176,-52.2017,0.629211,0,0,0,0,0,0,0,-1,699,848,-52.2017,-0.629206
-518,176,-52.1017,0.571411,0.00105046,0.00446279,-0.00836924,0.011298,-0.00578475,-0.885951,0.0100325,0.0461448,706,848,-52.1017,-0.571437
-511,176,-52.3841,0.0889893,0.000871237,0.00494562,-0.00837429,0.0115269,-0.00571009,-0.904714,0.0101389,0.0428671,713,848,-52.3841,-0.0890019
-504,176,-52.5662,-0.316956,0.003136,0.00378774,-0.00736823,0.0108373,-0.00391356,-0.807497,0.00882359,0.0456142,720,848,-52.5662,0.316979
-497,176,-52.4724,-0.22467,0,0,0,0,0,0,0,-1,727,848,-52.4724,0.224662
-490,176,-52.056,0.0650635,0,0,0,0,0,0,0,-1,734,848,-52.056,-0.0650876
-483,176,0,0,0,0,0,0,0,0,0,-1,741,848,0,0
-476,176,0,0,0,0,0,0,0,0,0,-1,748,848,0,0
-469,176,0,0,0,0,0,0,0,0,0,-1,755,848,0,0
-462,176,0,0,0,0,0,0,0,0,0,-1,762,848,0,0
-455,176,0,0,0,0,0,0,0,0,0,-1,769,848,0,0
-448,176,0,0,0,0,0,0,0,0,0,-1,776,848,0,0
-441,176,0,0,0,0,0,0,0,0,0,-1,783,848,0,0
-434,176,0,0,0,0,0,0,0,0,0,-1,790,848,0,0
-427,176,0,0,0,0,0,0,0,0,0,-1,797,848,0,0
-420,176,0,0,0,0,0,0,0,0,0,-1,804,848,0,0
-413,176,0,0,0,0,0,0,0,0,0,-1,811,848,0,0
-406,176,0,0,0,0,0,0,0,0,0,-1,818,848,0,0
-399,176,0,0,0,0,0,0,0,0,0,-1,825,848,0,0
-392,176,0,0,0,0,0,0,0,0,0,-1,832,848,0,0
-385,176,0,0,0,0,0,0,0,0,0,-1,839,848,0,0
-378,176,0,0,0,0,0,0,0,0,0,-1,846,848,0,0
-371,176,0,0,0,0,0,0,0,0,0,-1,853,848,0,0
-364,176,0,0,0,0,0,0,0,0,0,-1,860,848,0,0
-357,176,0,0,0,0,0,0,0,0,0,-1,867,848,0,0
-350,176,0,0,0,0,0,0,0,0,0,-1,874,848,0,0
-343,176,0,0,0,0,0,0,0,0,0,-1,881,848,0,0
-336,176,0,0,0,0,0,0,0,0,0,-1,888,848,0,0
-329,176,0,0,0,0,0,0,0,0,0,-1,895,848,0,0
-322,176,0,0,0,0,0,0,0,0,0,-1,902,848,0,0
-315,176,0,0,0,0,0,0,0,0,0,-1,909,848,0,0
-308,176,0,0,0,0,0,0,0,0,0,-1,916,848,0,0
-301,176,0,0,0,0,0,0,0,0,0,-1,923,848,0,0
-294,176,0,0,0,0,0,0,0,0,0,-1,930,848,0,0
-287,176,0,0,0,0,0,0,0,0,0,-1,937,848,0,0
-280,176,0,0,0,0,0,0,0,0,0,-1,944,848,0,0
-273,176,0,0,0,0,0,0,0,0,0,-1,951,848,0,0
-266,176,0,0,0,0,0,0,0,0,0,-1,958,848,0,0
-259,176,0,0,0,0,0,0,0,0,0,-1,965,848,0,0
-252,176,0,0,0,0,0,0,0,0,0,-1,972,848,0,0
-245,176,0,0,0,0,0,0,0,0,0,-1,979,848,0,0
-238,176,0,0,0,0,0,0,0,0,0,-1,986,848,0,0
-231,176,0,0,0,0,0,0,0,0,0,-1,993,848,0,0
-224,176,0,0,0,0,0,0,0,0,0,-1,1000,848,0,0
-217,176,0,0,0,0,0,0,0,0,0,-1,1007,848,0,0
-210,176,0,0,0,0,0,0,0,0,0,-1,1014,848,0,0
-203,176,0,0,0,0,0,0,0,0,0,-1,1021,848,0,0
-196,176,0,0,0,0,0,0,0,0,0,-1,1028,848,0,0
-189,176,0,0,0,0,0,0,0,0,0,-1,1035,848,0,0
-182,176,0,0,0,0,0,0,0,0,0,-1,1042,848,0,0
-175,176,0,0,0,0,0,0,0,0,0,-1,1049,848,0,0
-168,176,0,0,0,0,0,0,0,0,0,-1,1056,848,0,0
-161,176,0,0,0,0,0,0,0,0,0,-1,1063,848,0,0
-154,176,0,0,0,0,0,0,0,0,0,-1,1070,848,0,0
-147,176,0,0,0,0,0,0,0,0,0,-1,1077,848,0,0
-140,176,0,0,0,0,0,0,0,0,0,-1,1084,848,0,0
-133,176,0,0,0,0,0,0,0,0,0,-1,1091,848,0,0
-126,176,0,0,0,0,0,0,0,0,0,-1,1098,848,0,0
-119,176,0,0,0,0,0,0,0,0,0,-1,1105,848,0,0
-112,176,0,0,0,0,0,0,0,0,0,-1,1112,848,0,0
-105,176,0,0,0,0,0,0,0,0,0,-1,1119,848,0,0
-98,176,0,0,0,0,0,0,0,0,0,-1,1126,848,0,0
-91,176,0,0,0,0,0,0,0,0,0,-1,1133,848,0,0
-84,176,0,0,0,0,0,0,0,0,0,-1,1140,848,0,0
-77,176,0,0,0,0,0,0,0,0,0,-1,1147,848,0,0
-70,176,0,0,0,0,0,0,0,0,0,-1,1154,848,0,0
-63,176,0,0,0,0,0,0,0,0,0,-1,1161,848,0,0
-56,176,0,0,0,0,0,0,0,0,0,-1,1168,848,0,0
-49,176,0,0,0,0,0,0,0,0,0,-1,1175,848,0,0
-42,176,0,0,0,0,0,0,0,0,0,-1,1182,848,0,0
-35,176,0,0,0,0,0,0,0,0,0,-1,1189,848,0,0
-28,176,0,0,0,0,0,0,0,0,0,-1,1196,848,0,0
-21,176,0,0,0,0,0,0,0,0,0,-1,1203,848,0,0
-14,176,0,0,0,0,0,0,0,0,0,-1,1210,848,0,0
-7,176,0,0,0,0,0,0,0,0,0,-1,1217,848,0,0
0,176,0,0,0,0,0,0,0,0,0,-1,1224,848,0,0
7,176,0,0,0,0,0,0,0,0,0,-1,1231,848,0,0
14,176,0,0,0,0,0,0,0,0,0,-1,1238,848,0,0
21,176,0,0,0,0,0,0,0,0,0,-1,1245,848,0,0
28,176,0,0,0,0,0,0,0,0,0,-1,1252,848,0,0
35,176,0,0,0,0,0,0,0,0,0,-1,1259,848,0,0
42,176,0,0,0,0,0,0,0,0,0,-1,1266,848,0,0
49,176,0,0,0,0,0,0,0,0,0,-1,1273,848,0,0
56,176,0,0,0,0,0,0,0,0,0,-1,1280,848,0,0
63,176,0,0,0,0,0,0,0,0,0,-1,1287,848,0,0
70,176,0,0,0,0,0,0,0,0,0,-1,1294,848,0,0
77,176,0,0,0,0,0,0,0,0,0,-1,1301,848,0,0
84,176,0,0,0,0,0,0,0,0,0,-1,1308,848,0,0
91,176,0,0,0,0,0,0,0,0,0,-1,1315,848,0,0
98,176,0,0,0,0,0,0,0,0,0,-1,1322,848,0,0
105,176,0,0,0,0,0,0,0,0,0,-1,1329,848,0,0
112,176,0,0,0,0,0,0,0,0,0,-1,1336,848,0,0
119,176,0,0,0,0,0,0,0,0,0,-1,1343,848,0,0
126,176,0,0,0,0,0,0,0,0,0,-1,1350,848,0,0
133,176,0,0,0,0,0,0,0,0,0,-1,1357,848,0,0
140,176,0,0,0,0,0,0,0,0,0,-1,1364,848,0,0
147,176,0,0,0,0,0,0,0,0,0,-1,1371,848,0,0
154,176,0,0,0,0,0,0,0,0,0,-1,1378,848,0,0
161,176,0,0,0,0,0,0,0,0,0,-1,1385,848,0,0
168,176,0,0,0,0,0,0,0,0,0,-1,1392,848,0,0
175,176,0,0,0,0,0,0,0,0,0,-1,1399,848,0,0
182,176,0,0,0,0,0,0,0,0,0,-1,1406,848,0,0
189,176,0,0,0,0,0,0,0,0,0,-1,1413,848,0,0
196,176,0,0,0,0,0,0,0,0,0,-1,1420,848,0,0
203,176,0,0,0,0,0,0,0,0,0,-1,1427,848,0,0
210,176,0,0,0,0,0,0,0,0,0,-1,1434,848,0,0
217,176,0,0,0,0,0,0,0,0,0,-1,1441,848,0,0
224,176,0,0,0,0,0,0,0,0,0,-1,1448,848,0,0
231,176,0,0,0,0,0,0,0,0,0,-1,1455,848,0,0
238,176,0,0,0,0,0,0,0,0,0,-1,1462,848,0,0
245,176,0,0,0,0,0,0,0,0,0,-1,1469,848,0,0
252,176,0,0,0,0,0,0,0,0,0,-1,1476,848,0,0
259,176,0,0,0,0,0,0,0,0,0,-1,1483,848,0,0
266,176,0,0,0,0,0,0,0,0,0,-1,1490,848,0,0
273,176,0,0,0,0,0,0,0,0,0,-1,1497,848,0,0
280,176,0,0,0,0,0,0,0,0,0,-1,1504,848,0,0
287,176,0,0,0,0,0,0,0,0,0,-1,1511,848,0,0
294,176,0,0,0,0,0,0,0,0,0,-1,1518,848,0,0
301,176,0,0,0,0,0,0,0,0,0,-1,1525,848,0,0
308,176,0,0,0,0,0,0,0,0,0,-1,1532,848,0,0
315,176,0,0,0,0,0,0,0,0,0,-1,1539,848,0,0
322,176,0,0,0,0,0,0,0,0,0,-1,1546,848,0,0
329,176,0,0,0,0,0,0,0,0,0,-1,1553,848,0,0
336,176,0,0,0,0,0,0,0,0,0,-1,1560,848,0,0
343,176,0,0,0,0,0,0,0,0,0,-1,1567,848,0,0
350,176,0,0,0,0,0,0,0,0,0,-1,1574,848,0,0
357,176,0,0,0,0,0,0,0,0,0,-1,1581,848,0,0
364,176,0,0,0,0,0,0,0,0,0,-1,1588,848,0,0
371,176,0,0,0,0,0,0,0,0,0,-1,1595,848,0,0
378,176,0,0,0,0,0,0,0,0,0,-1,1602,848,0,0
385,176,0,0,0,0,0,0,0,0,0,-1,1609,848,0,0
392,176,0,0,0,0,0,0,0,0,0,-1,1616,848,0,0
399,176,0,0,0,0,0,0,0,0,0,-1,1623,848,0,0
406,176,0,0,0,0,0,0,0,0,0,-1,1630,848,0,0
413,176,0,0,0,0,0,0,0,0,0,-1,1637,848,0,0
420,176,0,0,0,0,0,0,0,0,0,-1,1644,848,0,0
427,176,0,0,0,0,0,0,0,0,0,-1,1651,848,0,0
434,176,0,0,0,0,0,0,0,0,0,-1,1658,848,0,0
441,176,0,0,0,0,0,0,0,0,0,-1,1665,848,0,0
448,176,0,0,0,0,0,0,0,0,0,-1,1672,848,0,0
455,176,0,0,0,0,0,0,0,0,0,-1,1679,848,0,0
462,176,0,0,0,0,0,0,0,0,0,-1,1686,848,0,0
469,176,0,0,0,0,0,0,0,0,0,-1,1693,848,0,0
476,176,0,0,0,0,0,0,0,0,0,-1,1700,848,0,0
483,176,0,0,0,0,0,0,0,0,0,-1,1707,848,0,0
490,176,0,0,0,0,0,0,0,0,0,-1,1714,848,0,0
497,176,0,0,0,0,0,0,0,0,0,-1,1721,848,0,0
504,176,0,0,0,0,0,0,0,0,0,-1,1728,848,0,0
511,176,0,0,0,0,0,0,0,0,0,-1,1735,848,0,0
518,176,0,0,0,0,0,0,0,0,0,-1,1742,848,0,0
525,176,0,0,0,0,0,0,0,0,0,-1,1749,848,0,0
532,176,0,0,0,0,0,0,0,0,0,-1,1756,848,0,0
539,176,0,0,0,0,0,0,0,0,0,-1,1763,848,0,0
546,176,0,0,0,0,0,0,0,0,0,-1,1770,848,0,0
553,176,0,0,0,0,0,0,0,0,0,-1,1777,848,0,0
560,176,0,0,0,0,0,0,0,0,0,-1,1784,848,0,0
567,176,0,0,0,0,0,0,0,0,0,-1,1791,848,0,0
574,176,0,0,0,0,0,0,0,0,0,-1,1798,848,0,0
581,176,0,0,0,0,0,0,0,0,0,-1,1805,848,0,0
588,176,0,0,0,0,0,0,0,0,0,-1,1812,848,0,0
595,176,0,0,0,0,0,0,0,0,0,-1,1819,848,0,0
602,176,0,0,0,0,0,0,0,0,0,-1,1826,848,0,0
609,176,67.2184,2.33411,0.00381735,0.00170776,0.00269094,0.00565284,-0.00012773,0.598612,0.00381185,0.0382796,1833,848,67.2184,-2.33413
616,176,67.1936,2.18146,0.00262684,0.00140711,0.00205976,0.00416513,-0.000131179,0.641467,0.0028215,0.0381586,1840,848,67.1937,-2.18143
623,176,67.2861,2.20001,0.00152474,0.00130071,0.00166544,0.00308193,-0.00025648,0.75182,0.00214523,0.0447806,1847,848,67.2861,-2.2
630,176,67.1931,2.53949,0.000634937,0.00146124,0.00136263,0.00247198,-0.000375799,0.932594,0.00178648,0.0430539,1854,848,67.1931,-2.53951
637,176,67.2277,2.42822,-9.65608e-05,0.00154114,0.000958863,0.00198322,-0.000538636,1.1388,0.00153355,0.0337367,1861,848,67.2277,-2.42821
644,176,67.1636,2.33954,-0.000724008,0.00129096,0.000654554,0.00148492,-0.000917967,1.28272,0.00140012,0.0335653,1868,848,67.1636,-2.33952
651,176,67.2439,2.31079,-0.00113285,0.000842275,0.000211108,0.000864586,-0.00115516,1.4655,0.00117012,0.034605,1875,848,67.2439,-2.31076
658,176,67.3512,2.33673,0,0,0,0,0,0,0,-1,1882,848,67.3512,-2.33675
665,176,54.3333,2.34277,0,0,0,0,0,0,0,-1,1889,848,54.3333,-2.34279
672,176,16.9304,2.80719,0,0,0,0,0,0,0,-1,1896,848,16.9305,-2.80719
679,176,50.9341,0.315979,0,0,0,0,0,0,0,-1,1903,848,50.9341,-0.315984
686,176,54.5518,0.285767,0,0,0,0,0,0,0,-1,1910,848,54.5518,-0.285737
693,176,54.3625,1.0094,-0.00231129,-0.000241866,-0.00177637,0.000779178,-0.00333233,-1.04912,0.00252173,0.0329349,1917,848,54.3626,-1.00942
700,176,54.2032,1.84497,-0.00231553,-0.000347728,-0.00204434,0.000937154,-0.00360042,-1.00968,0.0027661,0.0392838,1924,848,54.2032,-1.84496
707,176,54.2061,2.54065,-0.00251698,-0.000320047,-0.00204384,0.000901814,-0.00373884,-1.03198,0.00284128,0.0251977,1931,848,54.206,-2.54063
714,176,54.0973,3.18793,-0.00180079,-0.00018333,-0.00204687,0.00120878,-0.0031929,-0.973538,0.00262596,0.014267,1938,848,54.0973,-3.18793
721,176,54.0806,3.93146,-0.000527309,-0.000100923,-0.0020198,0.00171691,-0.00234514,-0.837979,0.00235455,0.014592,1945,848,54.0806,-3.93144
728,176,54.0039,4.72247,0.00118491,-0.000231521,-0.00201988,0.00261714,-0.00166375,-0.616783,0.00249192,0.0171724,1952,848,54.0038,-4.72248
735,176,53.9637,5.46863,0.00333976,-0.000573573,-0.0022025,0.0043292,-0.00156302,-0.422218,0.00352462,0.0152205,1959,848,53.9638,-5.46864
742,176,53.9293,6.21606,0.00574791,-0.00120557,-0.00265042,0.00664295,-0.0021006,-0.325672,0.00527027,0.0238581,1966,848,53.9293,-6.21606
749,176,54.1888,7.16699,0.00855018,-0.00237363,-0.00333981,0.00949037,-0.00331381,-0.274406,0.00767384,0.0365402,1973,848,54.1888,-7.16699
756,176,54.5249,8.17529,0,0,0,0,0,0,0,-1,1980,848,54.5249,-8.17528
763,176,44.4343,7.70581,0,0,0,0,0,0,0,-1,1987,848,44.4343,-7.70578
770,176,36.4186,4.25641,0,0,0,0,0,0,0,-1,1994,848,36.4186,-4.25639
777,176,43.8328,7.50177,0,0,0,0,0,0,0,-1,2001,848,43.8328,-7.50178
784,176,0,0,0,0,0,0,0,0,0,-1,2008,848,0,0
791,176,0,0,0,0,0,0,0,0,0,-1,2015,848,0,0
798,176,0,0,0,0,0,0,0,0,0,-1,2022,848,0,0
805,176,0,0,0,0,0,0,0,0,0,-1,2029,848,0,0
812,176,0,0,0,0,0,0,0,0,0,-1,2036,848,0,0
-700,169,0,0,0,0,0,0,0,0,0,-1,524,855,0,0
-693,169,0,0,0,0,0,0,0,0,0,-1,531,855,0,0
-686,169,0,0,0,0,0,0,0,0,0,-1,538,855,0,0
-679,169,0,0,0,0,0,0,0,0,0,-1,545,855,0,0
-672,169,0,0,0,0,0,0,0,0,0,-1,552,855,0,0
-665,169,-58.6102,8.61603,-0.00685201,0.0583729,-0.151587,0.180816,-0.129295,-0.891353,0.179864,0.0490619,559,855,-58.6102,-8.61603
-658,169,-58.8608,8.22839,0,0,0,0,0,0,0,-1,566,855,-58.8608,-8.2284
-651,169,-39.9871,10.8389,0,0,0,0,0,0,0,-1,573,855,-39.987,-10.8389
-644,169,-39.6297,8.79877,-0.00852773,0.0406608,-0.0879294,0.107371,-0.0752377,-0.921766,0.105972,0.0466584,580,855,-39.6297,-8.79876
-637,169,-39.4991,6.92847,-0.0079321,0.0344537,-0.0689165,0.0853622,-0.0588406,-0.934567,0.0837236,0.046708,587,855,-39.4991,-6.92848
-630,169,-40.66,6.66901,0,0,0,0,0,0,0,-1,594,855,-40.66,-6.66903
-623,169,-40.686,5.78638,-0.00726097,0.0220036,-0.0354213,0.0456959,-0.0309533,-0.981269,0.0445254,0.040876,601,855,-40.686,-5.7864
-616,169,-40.7085,4.90601,-0.00685968,0.0156221,-0.02155,0.0286868,-0.0199243,-1.02579,0.0282172,0.0235534,608,855,-40.7085,-4.90601
-609,169,-40.757,4.16595,-0.00569811,0.01067,-0.00989265,0.015325,-0.0103532,-1.13098,0.0149177,0.014479,615,855,-40.757,-4.16596
-602,169,-40.7853,3.40863,-0.00511215,0.00578245,-0.00176351,0.0060608,-0.0053905,-1.41425,0.00661518,0.0137103,622,855,-40.7854,-3.40864
-595,169,-40.8001,2.62238,-0.00451911,0.00210163,0.00183555,0.00257647,-0.00499395,1.31766,0.00444444,0.0127495,629,855,-40.8001,-2.62239
-588,169,-40.8179,1.91522,-0.00377234,0.000136294,0.0031168,0.00186081,-0.00549686,1.06543,0.00441747,0.011634,636,855,-40.8179,-1.91523
-581,169,-40.8993,1.21985,-0.00293201,-0.000151803,0.00270042,0.00149531,-0.00457912,1.0231,0.00365462,0.0231711,643,855,-40.8993,-1.21983
-574,169,-41.258,0.467773,-0.00217516,-0.000246668,0.00211915,0.0011173,-0.00353912,0.998906,0.00280697,0.0407543,650,855,-41.258,-0.467749
-567,169,-41.0482,-0.268433,0,0,0,0,0,0,0,-1,657,855,-41.0482,0.26845
-560,169,-41.0572,-0.914246,0,0,0,0,0,0,0,-1,664,855,-41.0572,0.914216
-553,169,-32.1944,-0.787964,0,0,0,0,0,0,0,-1,671,855,-32.1944,0.787959
-546,169,-19.0852,-1.05609,0,0,0,0,0,0,0,-1,678,855,-19.0852,1.05612
-539,169,-33.2307,1.10706,0,0,0,0,0,0,0,-1,685,855,-33.2307,-1.10708
-532,169,-52.2746,0.547119,0,0,0,0,0,0,0,-1,692,855,-52.2746,-0.547096
-525,169,-52.1556,0.52002,0.00117886,0.00228643,-0.00682621,0.00858129,-0.005116,-0.825873,0.00799204,0.0470453,699,855,-52.1556,-0.520017
-518,169,-52.0623,0.516968,0.000941248,0.00306437,-0.00821236,0.0102835,-0.00627788,-0.849674,0.00965449,0.0435388,706,855,-52.0623,-0.51699
-511,169,-52.3068,-0.0441895,0.00142472,0.00293394,-0.008084,0.0102985,-0.00593981,-0.831936,0.00948709,0.0428036,713,855,-52.3067,0.0441716
-504,169,-52.3845,-0.461243,0.00429901,0.00117182,-0.00700265,0.00991051,-0.00443968,-0.675557,0.00848341,0.0452631,720,855,-52.3845,0.461256
-497,169,-52.2012,0.311523,0,0,0,0,0,0,0,-1,727,855,-52.2012,-0.31151
-490,169,0,0,0,0,0,0,0,0,0,-1,734,855,0,0
-483,169,0,0,0,0,0,0,0,0,0,-1,741,855,0,0
-476,169,0,0,0,0,0,0,0,0,0,-1,748,855,0,0
-469,169,0,0,0,0,0,0,0,0,0,-1,755,855,0,0
-462,169,0,0,0,0,0,0,0,0,0,-1,762,855,0,0
-455,169,0,0,0,0,0,0,0,0,0,-1,769,855,0,0
-448,169,0,0,0,0,0,0,0,0,0,-1,776,855,0,0
-441,169,0,0,0,0,0,0,0,0,0,-1,783,855,0,0
-434,169,0,0,0,0,0,0,0,0,0,-1,790,855,0,0
-427,169,0,0,0,0,0,0,0,0,0,-1,797,855,0,0
-420,169,0,0,0,0,0,0,0,0,0,-1,804,855,0,0
-413,169,0,0,0,0,0,0,0,0,0,-1,811,855,0,0
-406,169,0,0,0,0,0,0,0,0,0,-1,818,855,0,0
-399,169,0,0,0,0,0,0,0,0,0,-1,825,855,0,0
-392,169,0,0,0,0,0,0,0,0,0,-1,832,855,0,0
-385,169,0,0,0,0,0,0,0,0,0,-1,839,855,0,0
-378,169,0,0,0,0,0,0,0,0,0,-1,846,855,0,0
-371,169,0,0,0,0,0,0,0,0,0,-1,853,855,0,0
-364,169,0,0,0,0,0,0,0,0,0,-1,860,855,0,0
-357,169,0,0,0,0,0,0,0,0,0,-1,867,855,0,0
-350,169,0,0,0,0,0,0,0,0,0,-1,874,855,0,0
-343,169,0,0,0,0,0,0,0,0,0,-1,881,855,0,0
-336,169,0,0,0,0,0,0,0,0,0,-1,888,855,0,0
-329,169,0,0,0,0,0,0,0,0,0,-1,895,855,0,0
-322,169,0,0,0,0,0,0,0,0,0,-1,902,855,0,0
-315,169,0,0,0,0,0,0,0,0,0,-1,909,855,0,0
-308,169,0,0,0,0,0,0,0,0,0,-1,916,855,0,0
-301,169,0,0,0,0,0,0,0,0,0,-1,923,855,0,0
-294,169,0,0,0,0,0,0,0,0,0,-1,930,855,0,0
-287,169,0,0,0,0,0,0,0,0,0,-1,937,855,0,0
-280,169,0,0,0,0,0,0,0,0,0,-1,944,855,0,0
-273,169,0,0,0,0,0,0,0,0,0,-1,951,855,0,0
-266,169,0,0,0,0,0,0,0,0,0,-1,958,855,0,0
-259,169,0,0,0,0,0,0,0,0,0,-1,965,855,0,0
-252,169,0,0,0,0,0,0,0,0,0,-1,972,855,0,0
-245,169,0,0,0,0,0,0,0,0,0,-1,979,855,0,0
-238,169,0,0,0,0,0,0,0,0,0,-1,986,855,0,0
-231,169,0,0,0,0,0,0,0,0,0,-1,993,855,0,0
-224,169,0,0,0,0,0,0,0,0,0,-1,1000,855,0,0
-217,169,0,0,0,0,0,0,0,0,0,-1,1007,855,0,0
-210,169,0,0,0,0,0,0,0,0,0,-1,1014,855,0,0
-203,169,0,0,0,0,0,0,0,0,0,-1,1021,855,0,0
-196,169,0,0,0,0,0,0,0,0,0,-1,1028,855,0,0
-189,169,0,0,0,0,0,0,0,0,0,-1,1035,855,0,0
-182,169,0,0,0,0,0,0,0,0,0,-1,1042,855,0,0
-175,169,0,0,0,0,0,0,0,0,0,-1,1049,855,0,0
-168,169,0,0,0,0,0,0,0,0,0,-1,1056,855,0,0
-161,169,0,0,0,0,0,0,0,0,0,-1,1063,855,0,0
-154,169,0,0,0,0,0,0,0,0,0,-1,1070,855,0,0
-147,169,0,0,0,0,0,0,0,0,0,-1,1077,855,0,0
-140,169,0,0,0,0,0,0,0,0,0,-1,1084,855,0,0
-133,169,0,0,0,0,0,0,0,0,0,-1,1091,855,0,0
-126,169,0,0,0,0,0,0,0,0,0,-1,1098,855,0,0
-119,169,0,0,0,0,0,0,0,0,0,-1,1105,855,0,0
-112,169,0,0,0,0,0,0,0,0,0,-1,1112,855,0,0
-105,169,0,0,0,0,0,0,0,0,0,-1,1119,855,0,0
-98,169,0,0,0,0,0,0,0,0,0,-1,1126,855,0,0
-91,169,0,0,0,0,0,0,0,0,0,-1,1133,855,0,0
-84,169,0,0,0,0,0,0,0,0,0,-1,1140,855,0,0
-77,169,0,0,0,0,0,0,0,0,0,-1,1147,855,0,0
-70,169,0,0,0,0,0,0,0,0,0,-1,1154,855,0,0
-63,169,0,0,0,0,0,0,0,0,0,-1,1161,855,0,0
-56,169,0,0,0,0,0,0,0,0,0,-1,1168,855,0,0
-49,169,0,0,0,0,0,0,0,0,0,-1,1175,855,0,0
-42,169,0,0,0,0,0,0,0,0,0,-1,1182,855,0,0
-35,169,0,0,0,0,0,0,0,0,0,-1,1189,855,0,0
-28,169,0,0,0,0,0,0,0,0,0,-1,1196,855,0,0
-21,169,0,0,0,0,0,0,0,0,0,-1,1203,855,0,0
-14,169,0,0,0,0,0,0,0,0,0,-1,1210,855,0,0
-7,169,0,0,0,0,0,0,0,0,0,-1,1217,855,0,0
0,169,0,0,0,0,0,0,0,0,0,-1,1224,855,0,0
7,169,0,0,0,0,0,0,0,0,0,-1,1231,855,0,0
14,169,0,0,0,0,0,0,0,0,0,-1,1238,855,0,0
21,169,0,0,0,0,0,0,0,0,0,-1,1245,855,0,0
28,169,0,0,0,0,0,0,0,0,0,-1,1252,855,0,0
35,169,0,0,0,0,0,0,0,0,0,-1,1259,855,0,0
42,169,0,0,0,0,0,0,0,0,0,-1,1266,855,0,0
49,169,0,0,0,0,0,0,0,0,0,-1,1273,855,0,0
56,169,0,0,0,0,0,0,0,0,0,-1,1280,855,0,0
63,169,0,0,0,0,0,0,0,0,0,-1,1287,855,0,0
70,169,0,0,0,0,0,0,0,0,0,-1,1294,855,0,0
77,169,0,0,0,0,0,0,0,0,0,-1,1301,855,0,0
84,169,0,0,0,0,0,0,0,0,0,-1,1308,855,0,0
91,169,0,0,0,0,0,0,0,0,0,-1,1315,855,0,0
98,169,0,0,0,0,0,0,0,0,0,-1,1322,855,0,0
105,169,0,0,0,0,0,0,0,0,0,-1,1329,855,0,0
112,169,0,0,0,0,0,0,0,0,0,-1,1336,855,0,0
119,169,0,0,0,0,0,0,0,0,0,-1,1343,855,0,0
126,169,0,0,0,0,0,0,0,0,0,-1,1350,855,0,0
133,169,0,0,0,0,0,0,0,0,0,-1,1357,855,0,0
140,169,0,0,0,0,0,0,0,0,0,-1,1364,855,0,0
147,169,0,0,0,0,0,0,0,0,0,-1,1371,855,0,0
154,169,0,0,0,0,0,0,0,0,0,-1,1378,855,0,0
161,169,0,0,0,0,0,0,0,0,0,-1,1385,855,0,0
168,169,0,0,0,0,0,0,0,0,0,-1,1392,855,0,0
175,169,0,0,0,0,0,0,0,0,0,-1,1399,855,0,0
182,169,0,0,0,0,0,0,0,0,0,-1,1406,855,0,0
189,169,0,0,0,0,0,0,0,0,0,-1,1413,855,0,0
196,169,0,0,0,0,0,0,0,0,0,-1,1420,855,0,0
203,169,0,0,0,0,0,0,0,0,0,-1,1427,855,0,0
210,169,0,0,0,0,0,0,0,0,0,-1,1434,855,0,0
217,169,0,0,0,0,0,0,0,0,0,-1,1441,855,0,0
224,169,0,0,0,0,0,0,0,0,0,-1,1448,855,0,0
231,169,0,0,0,0,0,0,0,0,0,-1,1455,855,0,0
238,169,0,0,0,0,0,0,0,0,0,-1,1462,855,0,0
245,169,0,0,0,0,0,0,0,0,0,-1,1469,855,0,0
252,169,0,0,0,0,0,0,0,0,0,-1,1476,855,0,0
259,169,0,0,0,0,0,0,0,0,0,-1,1483,855,0,0
266,169,0,0,0,0,0,0,0,0,0,-1,1490,855,0,0
273,169,0,0,0,0,0,0,0,0,0,-1,1497,855,0,0
280,169,0,0,0,0,0,0,0,0,0,-1,1504,855,0,0
287,169,0,0,0,0,0,0,0,0,0,-1,1511,855,0,0
294,169,0,0,0,0,0,0,0,0,0,-1,1518,855,0,0
301,169,0,0,0,0,0,0,0,0,0,-1,1525,855,0,0
308,169,0,0,0,0,0,0,0,0,0,-1,1532,855,0,0
315,169,0,0,0,0,0,0,0,0,0,-1,1539,855,0,0
322,169,0,0,0,0,0,0,0,0,0,-1,1546,855,0,0
329,169,0,0,0,0,0,0,0,0,0,-1,1553,855,0,0
336,169,0,0,0,0,0,0,0,0,0,-1,1560,855,0,0
343,169,0,0,0,0,0,0,0,0,0,-1,1567,855,0,0
350,169,0,0,0,0,0,0,0,0,0,-1,1574,855,0,0
357,169,0,0,0,0,0,0,0,0,0,-1,1581,855,0,0
364,169,0,0,0,0,0,0,0,0,0,-1,1588,855,0,0
371,169,0,0,0,0,0,0,0,0,0,-1,1595,855,0,0
378,169,0,0,0,0,0,0,0,0,0,-1,1602,855,0,0
385,169,0,0,0,0,0,0,0,0,0,-1,1609,855,0,0
392,169,0,0,0,0,0,0,0,0,0,-1,1616,855,0,0
399,169,0,0,0,0,0,0,0,0,0,-1,1623,855,0,0
406,169,0,0,0,0,0,0,0,0,0,-1,1630,855,0,0
413,169,0,0,0,0,0,0,0,0,0,-1,1637,855,0,0
420,169,0,0,0,0,0,0,0,0,0,-1,1644,855,0,0
427,169,0,0,0,0,0,0,0,0,0,-1,1651,855,0,0
434,169,0,0,0,0,0,0,0,0,0,-1,1658,855,0,0
441,169,0,0,0,0,0,0,0,0,0,-1,1665,855,0,0
448,169,0,0,0,0,0,0,0,0,0,-1,1672,855,0,0
455,169,0,0,0,0,0,0,0,0,0,-1,1679,855,0,0
462,169,0,0,0,0,0,0,0,0,0,-1,1686,855,0,0
469,169,0,0,0,0,0,0,0,0,0,-1,1693,855,0,0
476,169,0,0,0,0,0,0,0,0,0,-1,1700,855,0,0
483,169,0,0,0,0,0,0,0,0,0,-1,1707,855,0,0
490,169,0,0,0,0,0,0,0,0,0,-1,1714,855,0,0
497,169,0,0,0,0,0,0,0,0,0,-1,1721,855,0,0
504,169,0,0,0,0,0,0,0,0,0,-1,1728,855,0,0
511,169,0,0,0,0,0,0,0,0,0,-1,1735,855,0,0
518,169,0,0,0,0,0,0,0,0,0,-1,1742,855,0,0
525,169,0,0,0,0,0,0,0,0,0,-1,1749,855,0,0
532,169,0,0,0,0,0,0,0,0,0,-1,1756,855,0,0
539,169,0,0,0,0,0,0,0,0,0,-1,1763,855,0,0
546,169,0,0,0,0,0,0,0,0,0,-1,1770,855,0,0
553,169,0,0,0,0,0,0,0,0,0,-1,1777,855,0,0
560,169,0,0,0,0,0,0,0,0,0,-1,1784,855,0,0
567,169,0,0,0,0,0,0,0,0,0,-1,1791,855,0,0
574,169,0,0,0,0,0,0,0,0,0,-1,1798,855,0,0
581,169,0,0,0,0,0,0,0,0,0,-1,1805,855,0,0
588,169,0,0,0,0,0,0,0,0,0,-1,1812,855,0,0
595,169,0,0,0,0,0,0,0,0,0,-1,1819,855,0,0
602,169,0,0,0,0,0,0,0,0,0,-1,1826,855,0,0
609,169,0,0,0,0,0,0,0,0,0,-1,1833,855,0,0
616,169,67.3032,2.237,0.00342182,0.00217676,0.00222257,0.00510739,0.00049118,0.648849,0.00325358,0.0418657,1840,855,67.3033,-2.23697
623,169,67.4418,2.36646,0.00214183,0.00165044,0.00169545,0.0036093,0.000182969,0.713442,0.00234759,0.0457067,1847,855,67.4417,-2.36645
630,169,67.3608,2.50159,0.00115475,0.00139652,0.00129616,0.00257742,-2.61579e-05,0.831895,0.00172707,0.0429122,1854,855,67.3609,-2.5016
637,169,67.1947,2.50067,0.00030019,0.00130582,0.000884204,0.00182018,-0.000214167,1.04393,0.00129078,0.0356656,1861,855,67.1947,-2.50067
644,169,67.2025,2.45728,-0.000420491,0.00104058,0.000527134,0.0012109,-0.000590818,1.25827,0.00106056,0.0351843,1868,855,67.2025,-2.4573
651,169,67.2285,2.51404,-0.000939989,0.000651845,4.58582e-05,0.000653165,-0.000941309,1.54202,0.000925567,0.0363227,1875,855,67.2286,-2.51403
658,169,67.2797,2.46442,-0.00145002,0.000269424,-0.00059186,0.000453455,-0.00163405,-1.26934,0.00126784,0.0398634,1882,855,67.2797,-2.46439
665,169,67.4237,2.33044,0,0,0,0,0,0,0,-1,1889,855,67.4237,-2.33047
672,169,31.2465,2.96387,0,0,0,0,0,0,0,-1,1896,855,31.2464,-2.9639
679,169,38.4297,1.08197,0,0,0,0,0,0,0,-1,1903,855,38.4296,-1.08194
686,169,55.123,0.286682,0,0,0,0,0,0,0,-1,1910,855,55.123,-0.286688
693,169,55.2346,1.12115,-0.00246334,-0.000270173,-0.00189145,0.000819579,-0.00355309,-1.0481,0.00268396,0.036835,1917,855,55.2346,-1.12114
700,169,55.2269,1.95062,-0.00248493,-0.000308633,-0.00210215,0.000970305,-0.00376387,-1.02423,0.00288754,0.0311854,1924,855,55.227,-1.95063
707,169,55.1084,2.64514,-0.00274379,-0.000325937,-0.00209658,0.000885289,-0.00395502,-1.04692,0.002976,0.0326985,1931,855,55.1084,-2.64517
714,169,54.8402,3.18768,-0.00222705,-0.000198073,-0.00210938,0.00112809,-0.00355322,-1.00954,0.00282106,0.0192967,1938,855,54.8402,-3.18767
721,169,54.843,3.99323,-0.00129897,8.24329e-06,-0.00206021,0.00151604,-0.00280677,-0.939003,0.00253259,0.0192342,1945,855,54.843,-3.99322
728,169,54.7866,4.77734,3.97431e-05,0.000119906,-0.00197781,0.00205804,-0.00189839,-0.79553,0.00228486,0.0155905,1952,855,54.7866,-4.77736
735,169,54.7213,5.51611,0.00191382,0.000117299,-0.00201722,0.00322373,-0.00119262,-0.575931,0.00263814,0.020397,1959,855,54.7213,-5.51608
742,169,54.7073,6.27985,0.00403219,-3.86571e-05,-0.00224126,0.00502434,-0.00103081,-0.416745,0.00374081,0.019148,1966,855,54.7073,-6.27985
749,169,54.687,6.9599,0.00642169,-0.000537798,-0.00263901,0.00730921,-0.00142532,-0.324425,0.00541085,0.0304379,1973,855,54.6871,-6.9599
756,169,54.9164,7.59894,0,0,0,0,0,0,0,-1,1980,855,54.9163,-7.59891
763,169,45.1978,7.5675,0,0,0,0,0,0,0,-1,1987,855,45.1977,-7.56751
770,169,37.2059,3.97021,0,0,0,0,0,0,0,-1,1994,855,37.2059,-3.97022
777,169,41.7505,8.7085,0,0,0,0,0,0,0,-1,2001,855,41.7505,-8.70852
784,169,40.7385,9.24359,0,0,0,0,0,0,0,-1,2008,855,40.7384,-9.24361
791,169,0,0,0,0,0,0,0,0,0,-1,2015,855,0,0
798,169,0,0,0,0,0,0,0,0,0,-1,2022,855,0,0
805,169,0,0,0,0,0,0,0,0,0,-1,2029,855,0,0
812,169,0,0,0,0,0,0,0,0,0,-1,2036,855,0,0
-700,162,0,0,0,0,0,0,0,0,0,-1,524,862,0,0
-693,162,0,0,0,0,0,0,0,0,0,-1,531,862,0,0
-686,162,0,0,0,0,0,0,0,0,0,-1,538,862,0,0
-679,162,0,0,0,0,0,0,0,0,0,-1,545,862,0,0
-672,162,0,0,0,0,0,0,0,0,0,-1,552,862,0,0
-665,162,-57.7595,8.64764,0,0,0,0,0,0,0,-1,559,862,-57.7595,-8.64767
-658,162,-58.4732,7.87744,0,0,0,0,0,0,0,-1,566,862,-58.4732,-7.87747
-651,162,-41.5439,7.20221,0,0,0,0,0,0,0,-1,573,862,-41.5439,-7.2022
-644,162,-39.2751,8.14331,0,0,0,0,0,0,0,-1,580,862,-39.2751,-8.14332
-637,162,-39.3552,5.96118,0,0,0,0,0,0,0,-1,587,862,-39.3552,-5.96121
-630,162,-41.3329,6.59985,0,0,0,0,0,0,0,-1,594,862,-41.3329,-6.59983
-623,162,-41.3766,5.76703,-0.00752701,0.0201018,-0.0339464,0.042937,-0.0303622,-0.978639,0.0425264,0.0354185,601,862,-41.3766,-5.76706
-616,162,-41.4432,4.93042,-0.00695348,0.0141125,-0.0201068,0.0262782,-0.0191191,-1.02667,0.0263186,0.021085,608,862,-41.4432,-4.93044
-609,162,-41.5247,4.14801,-0.00571665,0.00937612,-0.00846055,0.0131668,-0.00950731,-1.14957,0.0131476,0.0145134,615,862,-41.5247,-4.14801
-602,162,-41.5705,3.41577,-0.00521293,0.00469134,-0.000346569,0.00470345,-0.00522504,-1.53586,0.00573486,0.0123974,622,862,-41.5705,-3.41579
-595,162,-41.5817,2.68085,-0.00479788,0.00139675,0.00295853,0.00258269,-0.00598382,1.18955,0.00507415,0.0122081,629,862,-41.5817,-2.68085
-588,162,-41.5892,1.95642,-0.00420177,-2.90073e-05,0.00369273,0.00212598,-0.00635676,1.04254,0.00509651,0.0151695,636,862,-41.5892,-1.95642
-581,162,-41.8756,1.23132,-0.00354586,-4.62001e-05,0.00315955,0.00181571,-0.00540776,1.03828,0.00433895,0.0405551,643,862,-41.8756,-1.23134
-574,162,-42.4544,0.111023,0,0,0,0,0,0,0,-1,650,862,-42.4544,-0.111011
-567,162,-42.3109,-0.407898,0,0,0,0,0,0,0,-1,657,862,-42.3109,0.407893
-560,162,-36.5075,-0.831665,0,0,0,0,0,0,0,-1,664,862,-36.5075,0.831657
-553,162,-35.9823,-1.60956,0,0,0,0,0,0,0,-1,671,862,-35.9823,1.60954
-546,162,-22.8181,-1.51154,0,0,0,0,0,0,0,-1,678,862,-22.8181,1.51155
-539,162,-51.0244,0.613708,0,0,0,0,0,0,0,-1,685,862,-51.0243,-0.613689
-532,162,-52.1503,0.556274,0,0,0,0,0,0,0,-1,692,862,-52.1503,-0.556284
-525,162,-52.1386,0.532837,0.000852777,0.00134673,-0.00623057,0.00733521,-0.00513571,-0.805207,0.00723732,0.0402403,699,862,-52.1386,-0.532862
-518,162,-52.157,0.535583,0.000876429,0.00167098,-0.00756152,0.00884566,-0.00629825,-0.811644,0.00878448,0.0410461,706,862,-52.1571,-0.53557
-511,162,-52.2056,0.335144,0.00205153,0.000797963,-0.00733222,0.00878371,-0.00593422,-0.74276,0.00855032,0.0445686,713,862,-52.2057,-0.335157
-504,162,-51.9966,-0.354004,0.00504248,-0.00137892,-0.00629046,0.00889425,-0.00523069,-0.549429,0.00824597,0.0469385,720,862,-51.9966,0.353974
-497,162,-52.072,-0.646301,0,0,0,0,0,0,0,-1,727,862,-52.072,0.646316
-490,162,0,0,0,0,0,0,0,0,0,-1,734,862,0,0
-483,162,0,0,0,0,0,0,0,0,0,-1,741,862,0,0
-476,162,0,0,0,0,0,0,0,0,0,-1,748,862,0,0
-469,162,0,0,0,0,0,0,0,0,0,-1,755,862,0,0
-462,162,0,0,0,0,0,0,0,0,0,-1,762,862,0,0
-455,162,0,0,0,0,0,0,0,0,0,-1,769,862,0,0
-448,162,0,0,0,0,0,0,0,0,0,-1,776,862,0,0
-441,162,0,0,0,0,0,0,0,0,0,-1,783,862,0,0
-434,162,0,0,0,0,0,0,0,0,0,-1,790,862,0,0
-427,162,0,0,0,0,0,0,0,0,0,-1,797,862,0,0
-420,162,0,0,0,0,0,0,0,0,0,-1,804,862,0,0
-413,162,0,0,0,0,0,0,0,0,0,-1,811,862,0,0
-406,162,0,0,0,0,0,0,0,0,0,-1,818,862,0,0
-399,162,0,0,0,0,0,0,0,0,0,-1,825,862,0,0
-392,162,0,0,0,0,0,0,0,0,0,-1,832,862,0,0
-385,162,0,0,0,0,0,0,0,0,0,-1,839,862,0,0
-378,162,0,0,0,0,0,0,0,0,0,-1,846,862,0,0
-371,162,0,0,0,0,0,0,0,0,0,-1,853,862,0,0
-364,162,0,0,0,0,0,0,0,0,0,-1,860,862,0,0
-357,162,0,0,0,0,0,0,0,0,0,-1,867,862,0,0
-350,162,0,0,0,0,0,0,0,0,0,-1,874,862,0,0
-343,162,0,0,0,0,0,0,0,0,0,-1,881,862,0,0
-336,162,0,0,0,0,0,0,0,0,0,-1,888,862,0,0
-329,162,0,0,0,0,0,0,0,0,0,-1,895,862,0,0
-322,162,0,0,0,0,0,0,0,0,0,-1,902,862,0,0
-315,162,0,0,0,0,0,0,0,0,0,-1,909,862,0,0
-308,162,0,0,0,0,0,0,0,0,0,-1,916,862,0,0
-301,162,0,0,0,0,0,0,0,0,0,-1,923,862,0,0
-294,162,0,0,0,0,0,0,0,0,0,-1,930,862,0,0
-287,162,0,0,0,0,0,0,0,0,0,-1,937,862,0,0
-280,162,0,0,0,0,0,0,0,0,0,-1,944,862,0,0
-273,162,0,0,0,0,0,0,0,0,0,-1,951,862,0,0
-266,162,0,0,0,0,0,0,0,0,0,-1,958,862,0,0
-259,162,0,0,0,0,0,0,0,0,0,-1,965,862,0,0
-252,162,0,0,0,0,0,0,0,0,0,-1,972,862,0,0
-245,162,0,0,0,0,0,0,0,0,0,-1,979,862,0,0
-238,162,0,0,0,0,0,0,0,0,0,-1,986,862,0,0
-231,162,0,0,0,0,0,0,0,0,0,-1,993,862,0,0
-224,162,0,0,0,0,0,0,0,0,0,-1,1000,862,0,0
-217,162,0,0,0,0,0,0,0,0,0,-1,1007,862,0,0
-210,162,0,0,0,0,0,0,0,0,0,-1,1014,862,0,0
-203,162,0,0,0,0,0,0,0,0,0,-1,1021,862,0,0
-196,162,0,0,0,0,0,0,0,0,0,-1,1028,862,0,0
-189,162,0,0,0,0,0,0,0,0,0,-1,1035,862,0,0
-182,162,0,0,0,0,0,0,0,0,0,-1,1042,862,0,0
-175,162,0,0,0,0,0,0,0,0,0,-1,1049,862,0,0
-168,162,0,0,0,0,0,0,0,0,0,-1,1056,862,0,0
-161,162,0,0,0,0,0,0,0,0,0,-1,1063,862,0,0
-154,162,0,0,0,0,0,0,0,0,0,-1,1070,862,0,0
-147,162,0,0,0,0,0,0,0,0,0,-1,1077,862,0,0
-140,162,0,0,0,0,0,0,0,0,0,-1,1084,862,0,0
-133,162,0,0,0,0,0,0,0,0,0,-1,1091,862,0,0
-126,162,0,0,0,0,0,0,0,0,0,-1,1098,862,0,0
-119,162,0,0,0,0,0,0,0,0,0,-1,1105,862,0,0
-112,162,0,0,0,0,0,0,0,0,0,-1,1112,862,0,0
-105,162,0,0,0,0,0,0,0,0,0,-1,1119,862,0,0
-98,162,0,0,0,0,0,0,0,0,0,-1,1126,862,0,0
-91,162,0,0,0,0,0,0,0,0,0,-1,1133,862,0,0
-84,162,0,0,0,0,0,0,0,0,0,-1,1140,862,0,0
-77,162,0,0,0,0,0,0,0,0,0,-1,1147,862,0,0
-70,162,0,0,0,0,0,0,0,0,0,-1,1154,862,0,0
-63,162,0,0,0,0,0,0,0,0,0,-1,1161,862,0,0
-56,162,0,0,0,0,0,0,0,0,0,-1,1168,862,0,0
-49,162,0,0,0,0,0,0,0,0,0,-1,1175,862,0,0
-42,162,0,0,0,0,0,0,0,0,0,-1,1182,862,0,0
-35,162,0,0,0,0,0,0,0,0,0,-1,1189,862,0,0
-28,162,0,0,0,0,0,0,0,0,0,-1,1196,862,0,0
-21,162,0,0,0,0,0,0,0,0,0,-1,1203,862,0,0
-14,162,0,0,0,0,0,0,0,0,0,-1,1210,862,0,0
-7,162,0,0,0,0,0,0,0,0,0,-1,1217,862,0,0
0,162,0,0,0,0,0,0,0,0,0,-1,1224,862,0,0
7,162,0,0,0,0,0,0,0,0,0,-1,1231,862,0,0
14,162,0,0,0,0,0,0,0,0,0,-1,1238,862,0,0
21,162,0,0,0,0,0,0,0,0,0,-1,1245,862,0,0
28,162,0,0,0,0,0,0,0,0,0,-1,1252,862,0,0
35,162,0,0,0,0,0,0,0,0,0,-1,1259,862,0,0
42,162,0,0,0,0,0,0,0,0,0,-1,1266,862,0,0
49,162,0,0,0,0,0,0,0,0,0,-1,1273,862,0,0
56,162,0,0,0,0,0,0,0,0,0,-1,1280,862,0,0
63,162,0,0,0,0,0,0,0,0,0,-1,1287,862,0,0
70,162,0,0,0,0,0,0,0,0,0,-1,1294,862,0,0
77,162,0,0,0,0,0,0,0,0,0,-1,1301,862,0,0
84,162,0,0,0,0,0,0,0,0,0,-1,1308,862,0,0
91,162,0,0,0,0,0,0,0,0,0,-1,1315,862,0,0
98,162,0,0,0,0,0,0,0,0,0,-1,1322,862,0,0
105,162,0,0,0,0,0,0,0,0,0,-1,1329,862,0,0
112,162,0,0,0,0,0,0,0,0,0,-1,1336,862,0,0
119,162,0,0,0,0,0,0,0,0,0,-1,1343,862,0,0
126,162,0,0,0,0,0,0,0,0,0,-1,1350,862,0,0
133,162,0,0,0,0,0,0,0,0,0,-1,1357,862,0,0
140,162,0,0,0,0,0,0,0,0,0,-1,1364,862,0,0
147,162,0,0,0,0,0,0,0,0,0,-1,1371,862,0,0
154,162,0,0,0,0,0,0,0,0,0,-1,1378,862,0,0
161,162,0,0,0,0,0,0,0,0,0,-1,1385,862,0,0
168,162,0,0,0,0,0,0,0,0,0,-1,1392,862,0,0
175,162,0,0,0,0,0,0,0,0,0,-1,1399,862,0,0
182,162,0,0,0,0,0,0,0,0,0,-1,1406,862,0,0
189,162,0,0,0,0,0,0,0,0,0,-1,1413,862,0,0
196,162,0,0,0,0,0,0,0,0,0,-1,1420,862,0,0
203,162,0,0,0,0,0,0,0,0,0,-1,1427,862,0,0
210,162,0,0,0,0,0,0,0,0,0,-1,1434,862,0,0
217,162,0,0,0,0,0,0,0,0,0,-1,1441,862,0,0
224,162,0,0,0,0,0,0,0,0,0,-1,1448,862,0,0
231,162,0,0,0,0,0,0,0,0,0,-1,1455,862,0,0
238,162,0,0,0,0,0,0,0,0,0,-1,1462,862,0,0
245,162,0,0,0,0,0,0,0,0,0,-1,1469,862,0,0
252,162,0,0,0,0,0,0,0,0,0,-1,1476,862,0,0
259,162,0,0,0,0,0,0,0,0,0,-1,1483,862,0,0
266,162,0,0,0,0,0,0,0,0,0,-1,1490,862,0,0
273,162,0,0,0,0,0,0,0,0,0,-1,1497,862,0,0
280,162,0,0,0,0,0,0,0,0,0,-1,1504,862,0,0
287,162,0,0,0,0,0,0,0,0,0,-1,1511,862,0,0
294,162,0,0,0,0,0,0,0,0,0,-1,1518,862,0,0
301,162,0,0,0,0,0,0,0,0,0,-1,1525,862,0,0
308,162,0,0,0,0,0,0,0,0,0,-1,1532,862,0,0
315,162,0,0,0,0,0,0,0,0,0,-1,1539,862,0,0
322,162,0,0,0,0,0,0,0,0,0,-1,1546,862,0,0
329,162,0,0,0,0,0,0,0,0,0,-1,1553,862,0,0
336,162,0,0,0,0,0,0,0,0,0,-1,1560,862,0,0
343,162,0,0,0,0,0,0,0,0,0,-1,1567,862,0,0
350,162,0,0,0,0,0,0,0,0,0,-1,1574,862,0,0
357,162,0,0,0,0,0,0,0,0,0,-1,1581,862,0,0
364,162,0,0,0,0,0,0,0,0,0,-1,1588,862,0,0
371,162,0,0,0,0,0,0,0,0,0,-1,1595,862,0,0
378,162,0,0,0,0,0,0,0,0,0,-1,1602,862,0,0
385,162,0,0,0,0,0,0,0,0,0,-1,1609,862,0,0
392,162,0,0,0,0,0,0,0,0,0,-1,1616,862,0,0
399,162,0,0,0,0,0,0,0,0,0,-1,1623,862,0,0
406,162,0,0,0,0,0,0,0,0,0,-1,1630,862,0,0
413,162,0,0,0,0,0,0,0,0,0,-1,1637,862,0,0
420,162,0,0,0,0,0,0,0,0,0,-1,1644,862,0,0
427,162,0,0,0,0,0,0,0,0,0,-1,1651,862,0,0
434,162,0,0,0,0,0,0,0,0,0,-1,1658,862,0,0
441,162,0,0,0,0,0,0,0,0,0,-1,1665,862,0,0
448,162,0,0,0,0,0,0,0,0,0,-1,1672,862,0,0
455,162,0,0,0,0,0,0,0,0,0,-1,1679,862,0,0
462,162,0,0,0,0,0,0,0,0,0,-1,1686,862,0,0
469,162,0,0,0,0,0,0,0,0,0,-1,1693,862,0,0
476,162,0,0,0,0,0,0,0,0,0,-1,1700,862,0,0
483,162,0,0,0,0,0,0,0,0,0,-1,1707,862,0,0
490,162,0,0,0,0,0,0,0,0,0,-1,1714,862,0,0
497,162,0,0,0,0,0,0,0,0,0,-1,1721,862,0,0
504,162,0,0,0,0,0,0,0,0,0,-1,1728,862,0,0
511,162,0,0,0,0,0,0,0,0,0,-1,1735,862,0,0
518,162,0,0,0,0,0,0,0,0,0,-1,1742,862,0,0
525,162,0,0,0,0,0,0,0,0,0,-1,1749,862,0,0
532,162,0,0,0,0,0,0,0,0,0,-1,1756,862,0,0
539,162,0,0,0,0,0,0,0,0,0,-1,1763,862,0,0
546,162,0,0,0,0,0,0,0,0,0,-1,1770,862,0,0
553,162,0,0,0,0,0,0,0,0,0,-1,1777,862,0,0
560,162,0,0,0,0,0,0,0,0,0,-1,1784,862,0,0
567,162,0,0,0,0,0,0,0,0,0,-1,1791,862,0,0
574,162,0,0,0,0,0,0,0,0,0,-1,1798,862,0,0
581,162,0,0,0,0,0,0,0,0,0,-1,1805,862,0,0
588,162,0,0,0,0,0,0,0,0,0,-1,1812,862,0,0
595,162,0,0,0,0,0,0,0,0,0,-1,1819,862,0,0
602,162,0,0,0,0,0,0,0,0,0,-1,1826,862,0,0
609,162,0,0,0,0,0,0,0,0,0,-1,1833,862,0,0
616,162,67.1882,2.33466,0.00394666,0.00195755,0.00300592,0.00611828,-0.000214072,0.625635,0.00415205,0.0452243,1840,862,67.1882,-2.33468
623,162,67.3402,2.43988,0.00249243,0.00127099,0.00226599,0.00422856,-0.000465134,0.653768,0.00298618,0.0438242,1847,862,67.3402,-2.43987
630,162,67.358,2.48859,0.00143112,0.000869236,0.00163541,0.00280954,-0.000509184,0.700335,0.0020638,0.0399498,1854,862,67.358,-2.48861
637,162,67.2815,2.50592,0.000541568,0.000805138,0.00108425,0.00176559,-0.000418881,0.845874,0.00133871,0.0388486,1861,862,67.2815,-2.50595
644,162,67.2903,2.45361,-0.000189053,0.000639477,0.000611717,0.000964004,-0.00051358,1.08303,0.000866195,0.0360065,1868,862,67.2903,-2.45359
651,162,67.2675,2.46619,-0.000745182,0.000367898,7.73917e-05,0.000373253,-0.000750537,1.50171,0.000660897,0.0344555,1875,862,67.2675,-2.46616
658,162,67.261,2.48224,-0.00132255,5.06234e-05,-0.000592642,0.000271024,-0.00154295,-1.21475,0.00112986,0.0344683,1882,862,67.2609,-2.48225
665,162,67.3268,2.37689,0,0,0,0,0,0,0,-1,1889,862,67.3268,-2.3769
672,162,56.9712,3.04034,0,0,0,0,0,0,0,-1,1896,862,56.9711,-3.04034
679,162,26.5077,2.54785,0,0,0,0,0,0,0,-1,1903,862,26.5077,-2.54787
686,162,55.5651,0.197815,0,0,0,0,0,0,0,-1,1910,862,55.5651,-0.197786
693,162,56.0295,1.24377,-0.00243774,-0.00026617,-0.00185197,0.000794837,-0.00349875,-1.05054,0.00263767,0.0421139,1917,862,56.0296,-1.24378
700,162,56.0024,1.92578,-0.00246377,-0.000141106,-0.00203457,0.00104025,-0.00364512,-1.04473,0.00284103,0.0406312,1924,862,56.0024,-1.92577
707,162,55.8346,2.61731,-0.00273254,-0.000141233,-0.0020365,0.000976837,-0.00385061,-1.06871,0.00294715,0.028745,1931,862,55.8345,-2.61729
714,162,55.6105,3.20154,-0.00238033,-2.70176e-05,-0.00207527,0.00118196,-0.00358931,-1.0433,0.00286919,0.0325097,1938,862,55.6104,-3.20152
721,162,55.418,4.11493,-0.00180488,0.000215284,-0.00204561,0.00148661,-0.0030762,-1.01473,0.0026871,0.0317499,1945,862,55.4179,-4.11495
728,162,55.4506,4.84192,-0.000902825,0.000464074,-0.00192938,0.00182747,-0.00226622,-0.955619,0.00236802,0.0261339,1952,862,55.4506,-4.84193
735,162,55.4877,5.56329,0.000616023,0.000677412,-0.00187423,0.0025212,-0.00122777,-0.793586,0.00220699,0.012089,1959,862,55.4876,-5.56327
742,162,55.4316,6.28589,0.002428,0.000873534,-0.00191257,0.00371523,-0.000413703,-0.592401,0.00262561,0.0136774,1966,862,55.4316,-6.28589
749,162,55.3257,7.00983,0.00442032,0.000852931,-0.00206251,0.00536344,-9.01858e-05,-0.428881,0.00360606,0.0208485,1973,862,55.3257,-7.0098
756,162,55.2361,7.672,0.0065621,0.000752409,-0.0024208,0.00743857,-0.000124068,-0.347379,0.00500092,0.0480289,1980,862,55.2361,-7.67201
763,162,55.1887,8.3728,0,0,0,0,0,0,0,-1,1987,862,55.1888,-8.37281
770,162,54.8257,9.36987,0,0,0,0,0,0,0,-1,1994,862,54.8256,-9.36988
777,162,54.9807,10.2266,0,0,0,0,0,0,0,-1,2001,862,54.9806,-10.2265
784,162,55.02,11.0949,0,0,0,0,0,0,0,-1,2008,862,55.0201,-11.0949
791,162,0,0,0,0,0,0,0,0,0,-1,2015,862,0,0
798,162,0,0,0,0,0,0,0,0,0,-1,2022,862,0,0
805,162,0,0,0,0,0,0,0,0,0,-1,2029,862,0,0
812,162,0,0,0,0,0,0,0,0,0,-1,2036,862,0,0
-700,155,0,0,0,0,0,0,0,0,0,-1,524,869,0,0
-693,155,0,0,0,0,0,0,0,0,0,-1,531,869,0,0
-686,155,0,0,0,0,0,0,0,0,0,-1,538,869,0,0
-679,155,0,0,0,0,0,0,0,0,0,-1,545,869,0,0
-672,155,0,0,0,0,0,0,0,0,0,-1,552,869,0,0
-665,155,-56.8211,8.61475,-0.0099286,0.0468323,-0.141561,0.16283,-0.125926,-0.884328,0.167166,0.0468814,559,869,-56.8211,-8.61473
-658,155,-57.1645,7.54614,-0.0104862,0.0429467,-0.12137,0.140505,-0.108045,-0.893733,0.143908,0.0468605,566,869,-57.1645,-7.54616
-651,155,-57.4277,6.45557,0,0,0,0,0,0,0,-1,573,869,-57.4277,-6.45559
-644,155,-42.3315,4.09247,0,0,0,0,0,0,0,-1,580,869,-42.3315,-4.09245
-637,155,-41.8405,7.75427,0,0,0,0,0,0,0,-1,587,869,-41.8405,-7.75428
-630,155,-41.9663,6.57214,0,0,0,0,0,0,0,-1,594,869,-41.9663,-6.57213
-623,155,-42.0565,5.79163,-0.00844151,0.0182778,-0.0318209,0.0394297,-0.0295934,-0.984144,0.0399852,0.0292667,601,869,-42.0564,-5.79162
-616,155,-42.171,4.96149,-0.00763088,0.0127192,-0.0181872,0.0233842,-0.0182959,-1.04044,0.0241237,0.0164029,608,869,-42.171,-4.96148
-609,155,-42.2726,4.15039,-0.00625404,0.00820237,-0.00672517,0.0108471,-0.00889878,-1.19612,0.0114188,0.0149722,615,869,-42.2726,-4.15037
-602,155,-42.3296,3.45044,-0.00570809,0.00380082,0.00099979,0.0039048,-0.00581207,1.46716,0.00564595,0.0134752,622,869,-42.3296,-3.45044
-595,155,-42.3588,2.73804,-0.00534525,0.00110918,0.00365457,0.0027575,-0.00699356,1.14709,0.00580415,0.0129812,629,869,-42.3587,-2.73801
-588,155,-42.3475,2.05725,-0.00483152,0.000311065,0.00375337,0.00228943,-0.00680988,1.08571,0.00546531,0.021603,636,869,-42.3476,-2.05728
-581,155,-42.6584,1.53503,-0.00423734,0.000533995,0.00319377,0.00213475,-0.0058381,1.10618,0.00476578,0.043698,643,869,-42.6584,-1.53505
-574,155,-42.9202,1.14911,0,0,0,0,0,0,0,-1,650,869,-42.9202,-1.14909
-567,155,-38.0134,0.582214,0,0,0,0,0,0,0,-1,657,869,-38.0134,-0.582192
-560,155,-37.1416,-0.708008,0,0,0,0,0,0,0,-1,664,869,-37.1416,0.70801
-553,155,-36.7729,-1.71521,0,0,0,0,0,0,0,-1,671,869,-36.7729,1.71523
-546,155,-22.7988,0.873657,0,0,0,0,0,0,0,-1,678,869,-22.7988,-0.873645
-539,155,-52.246,0.357727,0,0,0,0,0,0,0,-1,685,869,-52.246,-0.357742
-532,155,-52.1813,0.47821,-0.000756743,0.000174567,-0.00394368,0.00367999,-0.00426216,-0.844164,0.00458951,0.0354314,692,869,-52.1813,-0.478221
-525,155,-52.1478,0.541443,0.000539799,0.000987135,-0.00564914,0.00641704,-0.0048901,-0.805184,0.00654799,0.036481,699,869,-52.1478,-0.541454
-518,155,-52.1271,0.45105,0.000941972,0.000697736,-0.00670449,0.00752546,-0.00588575,-0.776292,0.00776223,0.0431413,706,869,-52.1271,-0.451059
-511,155,-51.9703,0.218445,0.0025848,-0.000585272,-0.00630614,0.00750205,-0.00550252,-0.662274,0.00753772,0.0441485,713,869,-51.9703,-0.218459
-504,155,-51.8664,0.0873413,0.0052927,-0.00256483,-0.00535758,0.00800764,-0.00527977,-0.469031,0.00772519,0.0438773,720,869,-51.8664,-0.0873619
-497,155,0,0,0,0,0,0,0,0,0,-1,727,869,0,0
-490,155,0,0,0,0,0,0,0,0,0,-1,734,869,0,0
-483,155,0,0,0,0,0,0,0,0,0,-1,741,869,0,0
-476,155,0,0,0,0,0,0,0,0,0,-1,748,869,0,0
-469,155,0,0,0,0,0,0,0,0,0,-1,755,869,0,0
-462,155,0,0,0,0,0,0,0,0,0,-1,762,869,0,0
-455,155,0,0,0,0,0,0,0,0,0,-1,769,869,0,0
-448,155,0,0,0,0,0,0,0,0,0,-1,776,869,0,0
-441,155,0,0,0,0,0,0,0,0,0,-1,783,869,0,0
-434,155,0,0,0,0,0,0,0,0,0,-1,790,869,0,0
-427,155,0,0,0,0,0,0,0,0,0,-1,797,869,0,0
-420,155,0,0,0,0,0,0,0,0,0,-1,804,869,0,0
-413,155,0,0,0,0,0,0,0,0,0,-1,811,869,0,0
-406,155,0,0,0,0,0,0,0,0,0,-1,818,869,0,0
-399,155,0,0,0,0,0,0,0,0,0,-1,825,869,0,0
-392,155,0,0,0,0,0,0,0,0,0,-1,832,869,0,0
-385,155,0,0,0,0,0,0,0,0,0,-1,839,869,0,0
-378,155,0,0,0,0,0,0,0,0,0,-1,846,869,0,0
-371,155,0,0,0,0,0,0,0,0,0,-1,853,869,0,0
-364,155,0,0,0,0,0,0,0,0,0,-1,860,869,0,0
-357,155,0,0,0,0,0,0,0,0,0,-1,867,869,0,0
-350,155,0,0,0,0,0,0,0,0,0,-1,874,869,0,0
-343,155,0,0,0,0,0,0,0,0,0,-1,881,869,0,0
-336,155,0,0,0,0,0,0,0,0,0,-1,888,869,0,0
-329,155,0,0,0,0,0,0,0,0,0,-1,895,869,0,0
-322,155,0,0,0,0,0,0,0,0,0,-1,902,869,0,0
-315,155,0,0,0,0,0,0,0,0,0,-1,909,869,0,0
-308,155,0,0,0,0,0,0,0,0,0,-1,916,869,0,0
-301,155,0,0,0,0,0,0,0,0,0,-1,923,869,0,0
-294,155,0,0,0,0,0,0,0,0,0,-1,930,869,0,0
-287,155,0,0,0,0,0,0,0,0,0,-1,937,869,0,0
-280,155,0,0,0,0,0,0,0,0,0,-1,944,869,0,0
-273,155,0,0,0,0,0,0,0,0,0,-1,951,869,0,0
-266,155,0,0,0,0,0,0,0,0,0,-1,958,869,0,0
-259,155,0,0,0,0,0,0,0,0,0,-1,965,869,0,0
-252,155,0,0,0,0,0,0,0,0,0,-1,972,869,0,0
-245,155,0,0,0,0,0,0,0,0,0,-1,979,869,0,0
-238,155,0,0,0,0,0,0,0,0,0,-1,986,869,0,0
-231,155,0,0,0,0,0,0,0,0,0,-1,993,869,0,0
-224,155,0,0,0,0,0,0,0,0,0,-1,1000,869,0,0
-217,155,0,0,0,0,0,0,0,0,0,-1,1007,869,0,0
-210,155,0,0,0,0,0,0,0,0,0,-1,1014,869,0,0
-203,155,0,0,0,0,0,0,0,0,0,-1,1021,869,0,0
-196,155,0,0,0,0,0,0,0,0,0,-1,1028,869,0,0
-189,155,0,0,0,0,0,0,0,0,0,-1,1035,869,0,0
-182,155,0,0,0,0,0,0,0,0,0,-1,1042,869,0,0
-175,155,0,0,0,0,0,0,0,0,0,-1,1049,869,0,0
-168,155,0,0,0,0,0,0,0,0,0,-1,1056,869,0,0
-161,155,0,0,0,0,0,0,0,0,0,-1,1063,869,0,0
-154,155,0,0,0,0,0,0,0,0,0,-1,1070,869,0,0
-147,155,0,0,0,0,0,0,0,0,0,-1,1077,869,0,0
-140,155,0,0,0,0,0,0,0,0,0,-1,1084,869,0,0
-133,155,0,0,0,0,0,0,0,0,0,-1,1091,869,0,0
-126,155,0,0,0,0,0,0,0,0,0,-1,1098,869,0,0
-119,155,0,0,0,0,0,0,0,0,0,-1,1105,869,0,0
-112,155,0,0,0,0,0,0,0,0,0,-1,1112,869,0,0
-105,155,0,0,0,0,0,0,0,0,0,-1,1119,869,0,0
-98,155,0,0,0,0,0,0,0,0,0,-1,1126,869,0,0
-91,155,0,0,0,0,0,0,0,0,0,-1,1133,869,0,0
-84,155,0,0,0,0,0,0,0,0,0,-1,1140,869,0,0
-77,155,0,0,0,0,0,0,0,0,0,-1,1147,869,0,0
-70,155,0,0,0,0,0,0,0,0,0,-1,1154,869,0,0
-63,155,0,0,0,0,0,0,0,0,0,-1,1161,869,0,0
-56,155,0,0,0,0,0,0,0,0,0,-1,1168,869,0,0
-49,155,0,0,0,0,0,0,0,0,0,-1,1175,869,0,0
-42,155,0,0,0,0,0,0,0,0,0,-1,1182,869,0,0
-35,155,0,0,0,0,0,0,0,0,0,-1,1189,869,0,0
-28,155,0,0,0,0,0,0,0,0,0,-1,1196,869,0,0
-21,155,0,0,0,0,0,0,0,0,0,-1,1203,869,0,0
-14,155,0,0,0,0,0,0,0,0,0,-1,1210,869,0,0
-7,155,0,0,0,0,0,0,0,0,0,-1,1217,869,0,0
0,155,0,0,0,0,0,0,0,0,0,-1,1224,869,0,0
7,155,0,0,0,0,0,0,0,0,0,-1,1231,869,0,0
14,155,0,0,0,0,0,0,0,0,0,-1,1238,869,0,0
21,155,0,0,0,0,0,0,0,0,0,-1,1245,869,0,0
28,155,0,0,0,0,0,0,0,0,0,-1,1252,869,0,0
35,155,0,0,0,0,0,0,0,0,0,-1,1259,869,0,0
42,155,0,0,0,0,0,0,0,0,0,-1,1266,869,0,0
49,155,0,0,0,0,0,0,0,0,0,-1,1273,869,0,0
56,155,0,0,0,0,0,0,0,0,0,-1,1280,869,0,0
63,155,0,0,0,0,0,0,0,0,0,-1,1287,869,0,0
70,155,0,0,0,0,0,0,0,0,0,-1,1294,869,0,0
77,155,0,0,0,0,0,0,0,0,0,-1,1301,869,0,0
84,155,0,0,0,0,0,0,0,0,0,-1,1308,869,0,0
91,155,0,0,0,0,0,0,0,0,0,-1,1315,869,0,0
98,155,0,0,0,0,0,0,0,0,0,-1,1322,869,0,0
105,155,0,0,0,0,0,0,0,0,0,-1,1329,869,0,0
112,155,0,0,0,0,0,0,0,0,0,-1,1336,869,0,0
119,155,0,0,0,0,0,0,0,0,0,-1,1343,869,0,0
126,155,0,0,0,0,0,0,0,0,0,-1,1350,869,0,0
133,155,0,0,0,0,0,0,0,0,0,-1,1357,869,0,0
140,155,0,0,0,0,0,0,0,0,0,-1,1364,869,0,0
147,155,0,0,0,0,0,0,0,0,0,-1,1371,869,0,0
154,155,0,0,0,0,0,0,0,0,0,-1,1378,869,0,0
161,155,0,0,0,0,0,0,0,0,0,-1,1385,869,0,0
168,155,0,0,0,0,0,0,0,0,0,-1,1392,869,0,0
175,155,0,0,0,0,0,0,0,0,0,-1,1399,869,0,0
182,155,0,0,0,0,0,0,0,0,0,-1,1406,869,0,0
189,155,0,0,0,0,0,0,0,0,0,-1,1413,869,0,0
196,155,0,0,0,0,0,0,0,0,0,-1,1420,869,0,0
203,155,0,0,0,0,0,0,0,0,0,-1,1427,869,0,0
210,155,0,0,0,0,0,0,0,0,0,-1,1434,869,0,0
217,155,0,0,0,0,0,0,0,0,0,-1,1441,869,0,0
224,155,0,0,0,0,0,0,0,0,0,-1,1448,869,0,0
231,155,0,0,0,0,0,0,0,0,0,-1,1455,869,0,0
238,155,0,0,0,0,0,0,0,0,0,-1,1462,869,0,0
245,155,0,0,0,0,0,0,0,0,0,-1,1469,869,0,0
252,155,0,0,0,0,0,0,0,0,0,-1,1476,869,0,0
259,155,0,0,0,0,0,0,0,0,0,-1,1483,869,0,0
266,155,0,0,0,0,0,0,0,0,0,-1,1490,869,0,0
273,155,0,0,0,0,0,0,0,0,0,-1,1497,869,0,0
280,155,0,0,0,0,0,0,0,0,0,-1,1504,869,0,0
287,155,0,0,0,0,0,0,0,0,0,-1,1511,869,0,0
294,155,0,0,0,0,0,0,0,0,0,-1,1518,869,0,0
301,155,0,0,0,0,0,0,0,0,0,-1,1525,869,0,0
308,155,0,0,0,0,0,0,0,0,0,-1,1532,869,0,0
315,155,0,0,0,0,0,0,0,0,0,-1,1539,869,0,0
322,155,0,0,0,0,0,0,0,0,0,-1,1546,869,0,0
329,155,0,0,0,0,0,0,0,0,0,-1,1553,869,0,0
336,155,0,0,0,0,0,0,0,0,0,-1,1560,869,0,0
343,155,0,0,0,0,0,0,0,0,0,-1,1567,869,0,0
350,155,0,0,0,0,0,0,0,0,0,-1,1574,869,0,0
357,155,0,0,0,0,0,0,0,0,0,-1,1581,869,0,0
364,155,0,0,0,0,0,0,0,0,0,-1,1588,869,0,0
371,155,0,0,0,0,0,0,0,0,0,-1,1595,869,0,0
378,155,0,0,0,0,0,0,0,0,0,-1,1602,869,0,0
385,155,0,0,0,0,0,0,0,0,0,-1,1609,869,0,0
392,155,0,0,0,0,0,0,0,0,0,-1,1616,869,0,0
399,155,0,0,0,0,0,0,0,0,0,-1,1623,869,0,0
406,155,0,0,0,0,0,0,0,0,0,-1,1630,869,0,0
413,155,0,0,0,0,0,0,0,0,0,-1,1637,869,0,0
420,155,0,0,0,0,0,0,0,0,0,-1,1644,869,0,0
427,155,0,0,0,0,0,0,0,0,0,-1,1651,869,0,0
434,155,0,0,0,0,0,0,0,0,0,-1,1658,869,0,0
441,155,0,0,0,0,0,0,0,0,0,-1,1665,869,0,0
448,155,0,0,0,0,0,0,0,0,0,-1,1672,869,0,0
455,155,0,0,0,0,0,0,0,0,0,-1,1679,869,0,0
462,155,0,0,0,0,0,0,0,0,0,-1,1686,869,0,0
469,155,0,0,0,0,0,0,0,0,0,-1,1693,869,0,0
476,155,0,0,0,0,0,0,0,0,0,-1,1700,869,0,0
483,155,0,0,0,0,0,0,0,0,0,-1,1707,869,0,0
490,155,0,0,0,0,0,0,0,0,0,-1,1714,869,0,0
497,155,0,0,0,0,0,0,0,0,0,-1,1721,869,0,0
504,155,0,0,0,0,0,0,0,0,0,-1,1728,869,0,0
511,155,0,0,0,0,0,0,0,0,0,-1,1735,869,0,0
518,155,0,0,0,0,0,0,0,0,0,-1,1742,869,0,0
525,155,0,0,0,0,0,0,0,0,0,-1,1749,869,0,0
532,155,0,0,0,0,0,0,0,0,0,-1,1756,869,0,0
539,155,0,0,0,0,0,0,0,0,0,-1,1763,869,0,0
546,155,0,0,0,0,0,0,0,0,0,-1,1770,869,0,0
553,155,0,0,0,0,0,0,0,0,0,-1,1777,869,0,0
560,155,0,0,0,0,0,0,0,0,0,-1,1784,869,0,0
567,155,0,0,0,0,0,0,0,0,0,-1,1791,869,0,0
574,155,0,0,0,0,0,0,0,0,0,-1,1798,869,0,0
581,155,0,0,0,0,0,0,0,0,0,-1,1805,869,0,0
588,155,0,0,0,0,0,0,0,0,0,-1,1812,869,0,0
595,155,0,0,0,0,0,0,0,0,0,-1,1819,869,0,0
602,155,0,0,0,0,0,0,0,0,0,-1,1826,869,0,0
609,155,0,0,0,0,0,0,0,0,0,-1,1833,869,0,0
616,155,67.1814,2.40723,0.00447814,0.000963502,0.00415429,0.00723151,-0.00178987,0.585305,0.0055153,0.0456558,1840,869,67.1814,-2.40723
623,155,67.1747,2.45526,0.0028557,0.000268781,0.00315846,0.00497529,-0.00185081,0.591054,0.00407635,0.0431409,1847,869,67.1747,-2.45523
630,155,67.3048,2.44867,0.00176351,-0.00014497,0.00225387,0.00325682,-0.00163829,0.585151,0.00287723,0.0418702,1854,869,67.3047,-2.44866
637,155,67.3647,2.46497,0.000851895,-7.45429e-05,0.00146638,0.00192648,-0.00114913,0.632412,0.00179451,0.0406579,1861,869,67.3647,-2.46497
644,155,67.2666,2.42328,8.14678e-05,-4.44108e-05,0.000797481,0.00081849,-0.000781433,0.746018,0.000923798,0.0360877,1868,869,67.2666,-2.42327
651,155,67.28,2.25446,-0.000557627,-0.000117522,0.000160021,-6.54906e-05,-0.000609658,1.25642,0.000386463,0.0338497,1875,869,67.28,-2.25447
658,155,67.2972,2.28271,-0.00123496,-0.000306964,-0.000555054,-4.75126e-05,-0.00149441,-1.13354,0.00098082,0.0289051,1882,869,67.2972,-2.28271
665,155,67.2483,2.40387,-0.00184416,-0.000345826,-0.000755202,-3.1235e-05,-0.00215875,-1.17609,0.00142887,0.0357596,1889,869,67.2482,-2.40389
672,155,67.1774,2.5451,0,0,0,0,0,0,0,-1,1896,869,67.1773,-2.54508
679,155,35.1565,2.78528,0,0,0,0,0,0,0,-1,1903,869,35.1565,-2.7853
686,155,43.6101,1.63361,0,0,0,0,0,0,0,-1,1910,869,43.6101,-1.63362
693,155,56.9395,1.40906,0,0,0,0,0,0,0,-1,1917,869,56.9395,-1.40908
700,155,56.6565,1.86646,0,0,0,0,0,0,0,-1,1924,869,56.6565,-1.86643
707,155,56.7024,2.76593,0,0,0,0,0,0,0,-1,1931,869,56.7024,-2.76593
714,155,56.4307,3.21808,0,0,0,0,0,0,0,-1,1938,869,56.4306,-3.21807
721,155,56.2891,4.09473,-0.00208869,0.000469357,-0.00202998,0.00158965,-0.00320898,-1.06652,0.00282259,0.0427044,1945,869,56.2891,-4.0947
728,155,56.2434,4.8858,-0.00158023,0.000843344,-0.00194253,0.00192106,-0.00265795,-1.06427,0.00265508,0.0207964,1952,869,56.2435,-4.88581
735,155,56.2632,5.58539,-0.000460494,0.00125841,-0.00186877,0.00245589,-0.00165797,-1.00093,0.00238998,0.016918,1959,869,56.2632,-5.58542
742,155,56.2257,6.31293,0.000967154,0.00180916,-0.00179833,0.00323511,-0.000458793,-0.900381,0.00232481,0.0173614,1966,869,56.2258,-6.3129
749,155,56.1074,7.01648,0.00252403,0.00223946,-0.00176607,0.00415354,0.000609949,-0.745202,0.00258976,0.0174273,1973,869,56.1074,-7.01647
756,155,56.0063,7.80426,0.00414586,0.00270745,-0.0018476,0.0054093,0.00144401,-0.59979,0.00323416,0.0305216,1980,869,56.0063,-7.80426
763,155,56.0138,8.55853,0,0,0,0,0,0,0,-1,1987,869,56.0138,-8.55855
770,155,56.5098,8.77008,0,0,0,0,0,0,0,-1,1994,869,56.5097,-8.7701
777,155,54.6055,10.1432,0,0,0,0,0,0,0,-1,2001,869,54.6055,-10.1433
784,155,54.8704,11.0088,0,0,0,0,0,0,0,-1,2008,869,54.8704,-11.0088
791,155,0,0,0,0,0,0,0,0,0,-1,2015,869,0,0
798,155,0,0,0,0,0,0,0,0,0,-1,2022,869,0,0
805,155,0,0,0,0,0,0,0,0,0,-1,2029,869,0,0
812,155,0,0,0,0,0,0,0,0,0,-1,2036,869,0,0
-700,148,0,0,0,0,0,0,0,0,0,-1,524,876,0,0
-693,148,0,0,0,0,0,0,0,0,0,-1,531,876,0,0
-686,148,0,0,0,0,0,0,0,0,0,-1,538,876,0,0
-679,148,0,0,0,0,0,0,0,0,0,-1,545,876,0,0
-672,148,-55.6941,9.28955,-0.00921439,0.0431825,-0.151771,0.171,-0.137032,-0.870865,0.178202,0.048549,552,876,-55.6941,-9.28956
-665,148,-55.671,8.48444,-0.010828,0.0413435,-0.133969,0.151743,-0.121227,-0.881552,0.157927,0.049699,559,876,-55.671,-8.48442
-658,148,-55.7403,7.53662,-0.0115597,0.0380779,-0.114604,0.130519,-0.104001,-0.892032,0.135689,0.0496196,566,876,-55.7403,-7.5366
-651,148,-55.8405,6.60297,0,0,0,0,0,0,0,-1,573,876,-55.8405,-6.60294
-644,148,-43.5342,2.31769,0,0,0,0,0,0,0,-1,580,876,-43.5342,-2.31771
-637,148,-46.8488,-3.24152,0,0,0,0,0,0,0,-1,587,876,-46.8488,3.24153
-630,148,-42.3738,6.78467,0,0,0,0,0,0,0,-1,594,876,-42.3738,-6.78467
-623,148,-42.6744,5.85156,-0.00901638,0.0161656,-0.0282873,0.0345376,-0.0273884,-0.994788,0.0358323,0.0302504,601,876,-42.6744,-5.85155
-616,148,-42.8855,4.9657,-0.00795554,0.0111268,-0.0153286,0.0196411,-0.0164698,-1.06378,0.0208754,0.0153513,608,876,-42.8855,-4.9657
-609,148,-43.0038,4.17841,-0.00646617,0.00693321,-0.00454966,0.00833199,-0.00786496,-1.27252,0.00935261,0.0137347,615,876,-43.0038,-4.17839
-602,148,-43.0726,3.46667,-0.00589787,0.00304641,0.00208337,0.00350787,-0.00635934,1.35282,0.00577559,0.0150207,622,876,-43.0726,-3.46667
-595,148,-43.092,2.77008,-0.00562275,0.00107001,0.00373362,0.00273742,-0.00729016,1.15078,0.00598503,0.0129857,629,876,-43.092,-2.77007
-588,148,-43.116,1.98926,-0.00525903,0.000673884,0.00334679,0.00217966,-0.00676481,1.14801,0.00538552,0.0302385,636,876,-43.116,-1.98927
-581,148,-43.1212,1.84149,0,0,0,0,0,0,0,-1,643,876,-43.1211,-1.84152
-574,148,-42.5058,1.22711,0,0,0,0,0,0,0,-1,650,876,-42.5058,-1.22714
-567,148,-35.6293,0.615784,0,0,0,0,0,0,0,-1,657,876,-35.6293,-0.615792
-560,148,-37.7973,-0.588135,0,0,0,0,0,0,0,-1,664,876,-37.7973,0.588143
-553,148,-18.3896,-0.00280762,0,0,0,0,0,0,0,-1,671,876,-18.3897,0.00278524
-546,148,-52.2715,0.442688,0,0,0,0,0,0,0,-1,678,876,-52.2715,-0.442671
-539,148,-52.1024,0.419128,-0.00256581,0.000215573,-0.00189427,0.00117483,-0.00352507,-1.10204,0.00282432,0.0492445,685,876,-52.1024,-0.419151
-532,148,-52.1235,0.518066,-0.00134856,9.31191e-05,-0.00345581,0.00290246,-0.00415791,-0.888218,0.00409773,0.034073,692,876,-52.1235,-0.518085
-525,148,-52.1162,0.554626,0.000134922,0.000539404,-0.00501494,0.00535618,-0.00468185,-0.805551,0.00579981,0.0368595,699,876,-52.1162,-0.554615
-518,148,-52.0362,0.402954,0.00107464,-0.000294475,-0.00542862,0.0058617,-0.00508153,-0.722678,0.00632342,0.0444094,706,876,-52.0362,-0.402945
-511,148,-51.905,0.254761,0.00307228,-0.00170878,-0.00459764,0.00586373,-0.00450024,-0.545659,0.00600088,0.0431731,713,876,-51.905,-0.254789
-504,148,-51.8334,0.321655,0.0054635,-0.00346181,-0.0034452,0.00663863,-0.00463694,-0.328719,0.00654406,0.0438641,720,876,-51.8334,-0.321653
-497,148,0,0,0,0,0,0,0,0,0,-1,727,876,0,0
-490,148,0,0,0,0,0,0,0,0,0,-1,734,876,0,0
-483,148,0,0,0,0,0,0,0,0,0,-1,741,876,0,0
-476,148,0,0,0,0,0,0,0,0,0,-1,748,876,0,0
-469,148,0,0,0,0,0,0,0,0,0,-1,755,876,0,0
-462,148,0,0,0,0,0,0,0,0,0,-1,762,876,0,0
-455,148,0,0,0,0,0,0,0,0,0,-1,769,876,0,0
-448,148,0,0,0,0,0,0,0,0,0,-1,776,876,0,0
-441,148,0,0,0,0,0,0,0,0,0,-1,783,876,0,0
-434,148,0,0,0,0,0,0,0,0,0,-1,790,876,0,0
-427,148,0,0,0,0,0,0,0,0,0,-1,797,876,0,0
-420,148,0,0,0,0,0,0,0,0,0,-1,804,876,0,0
-413,148,0,0,0,0,0,0,0,0,0,-1,811,876,0,0
-406,148,0,0,0,0,0,0,0,0,0,-1,818,876,0,0
-399,148,0,0,0,0,0,0,0,0,0,-1,825,876,0,0
-392,148,0,0,0,0,0,0,0,0,0,-1,832,876,0,0
-385,148,0,0,0,0,0,0,0,0,0,-1,839,876,0,0
-378,148,0,0,0,0,0,0,0,0,0,-1,846,876,0,0
-371,148,0,0,0,0,0,0,0,0,0,-1,853,876,0,0
-364,148,0,0,0,0,0,0,0,0,0,-1,860,876,0,0
-357,148,0,0,0,0,0,0,0,0,0,-1,867,876,0,0
-350,148,0,0,0,0,0,0,0,0,0,-1,874,876,0,0
-343,148,0,0,0,0,0,0,0,0,0,-1,881,876,0,0
-336,148,0,0,0,0,0,0,0,0,0,-1,888,876,0,0
-329,148,0,0,0,0,0,0,0,0,0,-1,895,876,0,0
-322,148,0,0,0,0,0,0,0,0,0,-1,902,876,0,0
-315,148,0,0,0,0,0,0,0,0,0,-1,909,876,0,0
-308,148,0,0,0,0,0,0,0,0,0,-1,916,876,0,0
-301,148,0,0,0,0,0,0,0,0,0,-1,923,876,0,0
-294,148,0,0,0,0,0,0,0,0,0,-1,930,876,0,0
-287,148,0,0,0,0,0,0,0,0,0,-1,937,876,0,0
-280,148,0,0,0,0,0,0,0,0,0,-1,944,876,0,0
-273,148,0,0,0,0,0,0,0,0,0,-1,951,876,0,0
-266,148,0,0,0,0,0,0,0,0,0,-1,958,876,0,0
-259,148,0,0,0,0,0,0,0,0,0,-1,965,876,0,0
-252,148,0,0,0,0,0,0,0,0,0,-1,972,876,0,0
-245,148,0,0,0,0,0,0,0,0,0,-1,979,876,0,0
-238,148,0,0,0,0,0,0,0,0,0,-1,986,876,0,0
-231,148,0,0,0,0,0,0,0,0,0,-1,993,876,0,0
-224,148,0,0,0,0,0,0,0,0,0,-1,1000,876,0,0
-217,148,0,0,0,0,0,0,0,0,0,-1,1007,876,0,0
-210,148,0,0,0,0,0,0,0,0,0,-1,1014,876,0,0
-203,148,0,0,0,0,0,0,0,0,0,-1,1021,876,0,0
-196,148,0,0,0,0,0,0,0,0,0,-1,1028,876,0,0
-189,148,0,0,0,0,0,0,0,0,0,-1,1035,876,0,0
-182,148,0,0,0,0,0,0,0,0,0,-1,1042,876,0,0
-175,148,0,0,0,0,0,0,0,0,0,-1,1049,876,0,0
-168,148,0,0,0,0,0,0,0,0,0,-1,1056,876,0,0
-161,148,0,0,0,0,0,0,0,0,0,-1,1063,876,0,0
-154,148,0,0,0,0,0,0,0,0,0,-1,1070,876,0,0
-147,148,0,0,0,0,0,0,0,0,0,-1,1077,876,0,0
-140,148,0,0,0,0,0,0,0,0,0,-1,1084,876,0,0
-133,148,0,0,0,0,0,0,0,0,0,-1,1091,876,0,0
-126,148,0,0,0,0,0,0,0,0,0,-1,1098,876,0,0
-119,148,0,0,0,0,0,0,0,0,0,-1,1105,876,0,0
-112,148,0,0,0,0,0,0,0,0,0,-1,1112,876,0,0
-105,148,0,0,0,0,0,0,0,0,0,-1,1119,876,0,0
-98,148,0,0,0,0,0,0,0,0,0,-1,1126,876,0,0
-91,148,0,0,0,0,0,0,0,0,0,-1,1133,876,0,0
-84,148,0,0,0,0,0,0,0,0,0,-1,1140,876,0,0
-77,148,0,0,0,0,0,0,0,0,0,-1,1147,876,0,0
-70,148,0,0,0,0,0,0,0,0,0,-1,1154,876,0,0
-63,148,0,0,0,0,0,0,0,0,0,-1,1161,876,0,0
-56,148,0,0,0,0,0,0,0,0,0,-1,1168,876,0,0
-49,148,0,0,0,0,0,0,0,0,0,-1,1175,876,0,0
-42,148,0,0,0,0,0,0,0,0,0,-1,1182,876,0,0
-35,148,0,0,0,0,0,0,0,0,0,-1,1189,876,0,0
-28,148,0,0,0,0,0,0,0,0,0,-1,1196,876,0,0
-21,148,0,0,0,0,0,0,0,0,0,-1,1203,876,0,0
-14,148,0,0,0,0,0,0,0,0,0,-1,1210,876,0,0
-7,148,0,0,0,0,0,0,0,0,0,-1,1217,876,0,0
0,148,0,0,0,0,0,0,0,0,0,-1,1224,876,0,0
7,148,0,0,0,0,0,0,0,0,0,-1,1231,876,0,0
14,148,0,0,0,0,0,0,0,0,0,-1,1238,876,0,0
21,148,0,0,0,0,0,0,0,0,0,-1,1245,876,0,0
28,148,0,0,0,0,0,0,0,0,0,-1,1252,876,0,0
35,148,0,0,0,0,0,0,0,0,0,-1,1259,876,0,0
42,148,0,0,0,0,0,0,0,0,0,-1,1266,876,0,0
49,148,0,0,0,0,0,0,0,0,0,-1,1273,876,0,0
56,148,0,0,0,0,0,0,0,0,0,-1,1280,876,0,0
63,148,0,0,0,0,0,0,0,0,0,-1,1287,876,0,0
70,148,0,0,0,0,0,0,0,0,0,-1,1294,876,0,0
77,148,0,0,0,0,0,0,0,0,0,-1,1301,876,0,0
84,148,0,0,0,0,0,0,0,0,0,-1,1308,876,0,0
91,148,0,0,0,0,0,0,0,0,0,-1,1315,876,0,0
98,148,0,0,0,0,0,0,0,0,0,-1,1322,876,0,0
105,148,0,0,0,0,0,0,0,0,0,-1,1329,876,0,0
112,148,0,0,0,0,0,0,0,0,0,-1,1336,876,0,0
119,148,0,0,0,0,0,0,0,0,0,-1,1343,876,0,0
126,148,0,0,0,0,0,0,0,0,0,-1,1350,876,0,0
133,148,0,0,0,0,0,0,0,0,0,-1,1357,876,0,0
140,148,0,0,0,0,0,0,0,0,0,-1,1364,876,0,0
147,148,0,0,0,0,0,0,0,0,0,-1,1371,876,0,0
154,148,0,0,0,0,0,0,0,0,0,-1,1378,876,0,0
161,148,0,0,0,0,0,0,0,0,0,-1,1385,876,0,0
168,148,0,0,0,0,0,0,0,0,0,-1,1392,876,0,0
175,148,0,0,0,0,0,0,0,0,0,-1,1399,876,0,0
182,148,0,0,0,0,0,0,0,0,0,-1,1406,876,0,0
189,148,0,0,0,0,0,0,0,0,0,-1,1413,876,0,0
196,148,0,0,0,0,0,0,0,0,0,-1,1420,876,0,0
203,148,0,0,0,0,0,0,0,0,0,-1,1427,876,0,0
210,148,0,0,0,0,0,0,0,0,0,-1,1434,876,0,0
217,148,0,0,0,0,0,0,0,0,0,-1,1441,876,0,0
224,148,0,0,0,0,0,0,0,0,0,-1,1448,876,0,0
231,148,0,0,0,0,0,0,0,0,0,-1,1455,876,0,0
238,148,0,0,0,0,0,0,0,0,0,-1,1462,876,0,0
245,148,0,0,0,0,0,0,0,0,0,-1,1469,876,0,0
252,148,0,0,0,0,0,0,0,0,0,-1,1476,876,0,0
259,148,0,0,0,0,0,0,0,0,0,-1,1483,876,0,0
266,148,0,0,0,0,0,0,0,0,0,-1,1490,876,0,0
273,148,0,0,0,0,0,0,0,0,0,-1,1497,876,0,0
280,148,0,0,0,0,0,0,0,0,0,-1,1504,876,0,0
287,148,0,0,0,0,0,0,0,0,0,-1,1511,876,0,0
294,148,0,0,0,0,0,0,0,0,0,-1,1518,876,0,0
301,148,0,0,0,0,0,0,0,0,0,-1,1525,876,0,0
308,148,0,0,0,0,0,0,0,0,0,-1,1532,876,0,0
315,148,0,0,0,0,0,0,0,0,0,-1,1539,876,0,0
322,148,0,0,0,0,0,0,0,0,0,-1,1546,876,0,0
329,148,0,0,0,0,0,0,0,0,0,-1,1553,876,0,0
336,148,0,0,0,0,0,0,0,0,0,-1,1560,876,0,0
343,148,0,0,0,0,0,0,0,0,0,-1,1567,876,0,0
350,148,0,0,0,0,0,0,0,0,0,-1,1574,876,0,0
357,148,0,0,0,0,0,0,0,0,0,-1,1581,876,0,0
364,148,0,0,0,0,0,0,0,0,0,-1,1588,876,0,0
371,148,0,0,0,0,0,0,0,0,0,-1,1595,876,0,0
378,148,0,0,0,0,0,0,0,0,0,-1,1602,876,0,0
385,148,0,0,0,0,0,0,0,0,0,-1,1609,876,0,0
392,148,0,0,0,0,0,0,0,0,0,-1,1616,876,0,0
399,148,0,0,0,0,0,0,0,0,0,-1,1623,876,0,0
406,148,0,0,0,0,0,0,0,0,0,-1,1630,876,0,0
413,148,0,0,0,0,0,0,0,0,0,-1,1637,876,0,0
420,148,0,0,0,0,0,0,0,0,0,-1,1644,876,0,0
427,148,0,0,0,0,0,0,0,0,0,-1,1651,876,0,0
434,148,0,0,0,0,0,0,0,0,0,-1,1658,876,0,0
441,148,0,0,0,0,0,0,0,0,0,-1,1665,876,0,0
448,148,0,0,0,0,0,0,0,0,0,-1,1672,876,0,0
455,148,0,0,0,0,0,0,0,0,0,-1,1679,876,0,0
462,148,0,0,0,0,0,0,0,0,0,-1,1686,876,0,0
469,148,0,0,0,0,0,0,0,0,0,-1,1693,876,0,0
476,148,0,0,0,0,0,0,0,0,0,-1,1700,876,0,0
483,148,0,0,0,0,0,0,0,0,0,-1,1707,876,0,0
490,148,0,0,0,0,0,0,0,0,0,-1,1714,876,0,0
497,148,0,0,0,0,0,0,0,0,0,-1,1721,876,0,0
504,148,0,0,0,0,0,0,0,0,0,-1,1728,876,0,0
511,148,0,0,0,0,0,0,0,0,0,-1,1735,876,0,0
518,148,0,0,0,0,0,0,0,0,0,-1,1742,876,0,0
525,148,0,0,0,0,0,0,0,0,0,-1,1749,876,0,0
532,148,0,0,0,0,0,0,0,0,0,-1,1756,876,0,0
539,148,0,0,0,0,0,0,0,0,0,-1,1763,876,0,0
546,148,0,0,0,0,0,0,0,0,0,-1,1770,876,0,0
553,148,0,0,0,0,0,0,0,0,0,-1,1777,876,0,0
560,148,0,0,0,0,0,0,0,0,0,-1,1784,876,0,0
567,148,0,0,0,0,0,0,0,0,0,-1,1791,876,0,0
574,148,0,0,0,0,0,0,0,0,0,-1,1798,876,0,0
581,148,0,0,0,0,0,0,0,0,0,-1,1805,876,0,0
588,148,0,0,0,0,0,0,0,0,0,-1,1812,876,0,0
595,148,0,0,0,0,0,0,0,0,0,-1,1819,876,0,0
602,148,0,0,0,0,0,0,0,0,0,-1,1826,876,0,0
609,148,0,0,0,0,0,0,0,0,0,-1,1833,876,0,0
616,148,0,0,0,0,0,0,0,0,0,-1,1840,876,0,0
623,148,67.1799,2.37079,0.00305174,-0.000242368,0.00392582,0.00566202,-0.00285265,0.586778,0.00500434,0.0420154,1847,876,67.18,-2.37078
630,148,67.2074,2.41583,0.00199332,-0.000870739,0.00278429,0.00369227,-0.00256968,0.547878,0.00363465,0.0428081,1854,876,67.2074,-2.4158
637,148,67.2073,2.50012,0.00111219,-0.000860223,0.00180906,0.00218639,-0.00193443,0.535842,0.00238064,0.0384043,1861,876,67.2073,-2.5001
644,148,67.1046,2.44623,0.000387067,-0.000748623,0.000980864,0.000952599,-0.00131415,0.523009,0.00131425,0.0353622,1868,876,67.1047,-2.44621
651,148,67.1913,2.19043,-0.000246618,-0.000665902,0.000244154,-0.000134451,-0.000778068,0.430652,0.000480211,0.0365673,1875,876,67.1913,-2.19045
658,148,67.2662,2.29541,-0.000942305,-0.000691235,-0.000517035,-0.000284713,-0.00134883,-0.904493,0.000820939,0.032819,1882,876,67.2662,-2.29542
665,148,67.1768,2.49249,-0.00157308,-0.000629822,-0.000745247,-0.000219506,-0.0019834,-1.06751,0.00125551,0.0257937,1889,876,67.1768,-2.49247
672,148,67.2804,2.36237,-0.00182728,-0.000708292,-0.00100213,-0.000120047,-0.00241553,-1.04,0.00157186,0.0448233,1896,876,67.2804,-2.36239
679,148,67.3535,2.1579,0,0,0,0,0,0,0,-1,1903,876,67.3535,-2.1579
686,148,21.6195,2.40845,0,0,0,0,0,0,0,-1,1910,876,21.6196,-2.40846
693,148,48.1387,1.97351,0,0,0,0,0,0,0,-1,1917,876,48.1387,-1.97351
700,148,57.5231,2.4939,0,0,0,0,0,0,0,-1,1924,876,57.5231,-2.49389
707,148,57.5309,3.01099,0,0,0,0,0,0,0,-1,1931,876,57.5308,-3.01101
714,148,57.4025,3.56934,-0.00225377,0.000298681,-0.00188502,0.00129887,-0.00325396,-1.08297,0.00270816,0.0404706,1938,876,57.4024,-3.56936
721,148,57.0464,4.2417,-0.0020858,0.000656168,-0.00192038,0.00164473,-0.00307436,-1.0954,0.00276593,0.0322746,1945,876,57.0464,-4.2417
728,148,57.0435,4.9079,-0.0018608,0.00119238,-0.00181358,0.00203635,-0.00270476,-1.13524,0.00274634,0.0230888,1952,876,57.0435,-4.90791
735,148,57.0399,5.6319,-0.000954482,0.00187114,-0.00165713,0.00263597,-0.00171931,-1.13839,0.00253302,0.0211779,1959,876,57.0399,-5.6319
742,148,56.9713,6.3584,0.000365579,0.00287705,-0.00137316,0.00348208,-0.000239452,-1.15578,0.00240518,0.0211001,1966,876,56.9714,-6.35838
749,148,56.8428,7.04266,0.00206023,0.00385355,-0.000992263,0.00429427,0.00161951,-1.15281,0.00250413,0.0217606,1973,876,56.8428,-7.04269
756,148,56.7561,7.79932,0.00416922,0.00490307,-0.000584373,0.00522616,0.00384613,-1.06574,0.0031273,0.0268798,1980,876,56.7561,-7.79932
763,148,56.8566,8.57117,0.00673423,0.00594805,-0.000168157,0.00676868,0.0059136,-0.202114,0.00425616,0.045512,1987,876,56.8566,-8.57115
770,148,57.5002,9.16864,0,0,0,0,0,0,0,-1,1994,876,57.5002,-9.16863
777,148,58.1101,10.0601,0,0,0,0,0,0,0,-1,2001,876,58.1102,-10.0601
784,148,54.7207,10.9227,0,0,0,0,0,0,0,-1,2008,876,54.7207,-10.9227
791,148,57.4717,12.5975,0,0,0,0,0,0,0,-1,2015,876,57.4717,-12.5974
798,148,0,0,0,0,0,0,0,0,0,-1,2022,876,0,0
805,148,0,0,0,0,0,0,0,0,0,-1,2029,876,0,0
812,148,0,0,0,0,0,0,0,0,0,-1,2036,876,0,0
-700,141,0,0,0,0,0,0,0,0,0,-1,524,883,0,0
-693,141,0,0,0,0,0,0,0,0,0,-1,531,883,0,0
-686,141,0,0,0,0,0,0,0,0,0,-1,538,883,0,0
-679,141,0,0,0,0,0,0,0,0,0,-1,545,883,0,0
-672,141,-54.4049,8.79138,0,0,0,0,0,0,0,-1,552,883,-54.4049,-8.79136
-665,141,-54.7208,7.90594,0,0,0,0,0,0,0,-1,559,883,-54.7208,-7.90595
-658,141,-54.9219,7.26563,0,0,0,0,0,0,0,-1,566,883,-54.9219,-7.26564
-651,141,-55.123,6.62531,0,0,0,0,0,0,0,-1,573,883,-55.123,-6.62532
-644,141,-45.9885,-1.76727,0,0,0,0,0,0,0,-1,580,883,-45.9885,1.76725
-637,141,-46.5847,-1.9599,0,0,0,0,0,0,0,-1,587,883,-46.5847,1.95991
-630,141,-43.0695,6.74579,0,0,0,0,0,0,0,-1,594,883,-43.0695,-6.74578
-623,141,-43.3531,5.77814,-0.00989,0.0139521,-0.0232111,0.0281245,-0.0240624,-1.02263,0.0301605,0.0355905,601,883,-43.3531,-5.77815
-616,141,-43.6289,4.92273,-0.00853588,0.00954956,-0.0118333,0.0153997,-0.014386,-1.11165,0.0172001,0.0143867,608,883,-43.6289,-4.92271
-609,141,-43.7413,4.21533,-0.0069675,0.00581794,-0.00239139,0.00625059,-0.00740015,-1.39181,0.00789057,0.0144491,615,883,-43.7413,-4.2153
-602,141,-43.7935,3.51678,-0.00645939,0.00259335,0.00273061,0.00335321,-0.00721926,1.29939,0.00623857,0.0154614,622,883,-43.7934,-3.51678
-595,141,-43.7637,2.7793,-0.00629251,0.00123126,0.00343167,0.00256134,-0.00762259,1.20103,0.00611695,0.0188134,629,883,-43.7637,-2.7793
-588,141,-44.2,2.02478,-0.00602696,0.000954902,0.00286376,0.00197925,-0.0070513,1.22728,0.00548106,0.0368873,636,883,-44.2,-2.02477
-581,141,-44.5596,1.2442,0,0,0,0,0,0,0,-1,643,883,-44.5596,-1.24422
-574,141,-42.7302,0.864685,0,0,0,0,0,0,0,-1,650,883,-42.7301,-0.864692
-567,141,-30.5335,0.480103,0,0,0,0,0,0,0,-1,657,883,-30.5335,-0.480081
-560,141,-30.5542,0.23175,0,0,0,0,0,0,0,-1,664,883,-30.5542,-0.231742
-553,141,-32.0876,1.39459,0,0,0,0,0,0,0,-1,671,883,-32.0876,-1.3946
-546,141,-51.9606,0.617554,0,0,0,0,0,0,0,-1,678,883,-51.9607,-0.617562
-539,141,-52.0494,0.572388,-0.00335727,0.000158678,-0.00175173,0.000882445,-0.00408104,-1.17899,0.00305759,0.0313841,685,883,-52.0495,-0.572404
-532,141,-52.0934,0.552368,-0.00181202,-2.09703e-05,-0.00318338,0.00239045,-0.00422344,-0.922511,0.0038671,0.0300827,692,883,-52.0935,-0.552371
-525,141,-52.1291,0.576721,-9.24585e-05,5.11353e-05,-0.0043034,0.00428333,-0.00432466,-0.793739,0.00496985,0.0391733,699,883,-52.1291,-0.576752
-518,141,-52.1609,0.582458,0.00106786,-0.00120144,-0.00402502,0.0041151,-0.00424868,-0.648014,0.00482904,0.0431636,706,883,-52.161,-0.582458
-511,141,-52.056,0.57605,0.00282402,-0.00277198,-0.00308649,0.00419198,-0.00413994,-0.417192,0.00481047,0.0381051,713,883,-52.056,-0.57603
-504,141,-51.9954,0.466858,0.00482191,-0.00458861,-0.00205713,0.00525194,-0.00501864,-0.206079,0.00593023,0.0416164,720,883,-51.9954,-0.466851
-497,141,0,0,0,0,0,0,0,0,0,-1,727,883,0,0
-490,141,0,0,0,0,0,0,0,0,0,-1,734,883,0,0
-483,141,0,0,0,0,0,0,0,0,0,-1,741,883,0,0
-476,141,0,0,0,0,0,0,0,0,0,-1,748,883,0,0
-469,141,0,0,0,0,0,0,0,0,0,-1,755,883,0,0
-462,141,0,0,0,0,0,0,0,0,0,-1,762,883,0,0
-455,141,0,0,0,0,0,0,0,0,0,-1,769,883,0,0
-448,141,0,0,0,0,0,0,0,0,0,-1,776,883,0,0
-441,141,0,0,0,0,0,0,0,0,0,-1,783,883,0,0
-434,141,0,0,0,0,0,0,0,0,0,-1,790,883,0,0
-427,141,0,0,0,0,0,0,0,0,0,-1,797,883,0,0
-420,141,0,0,0,0,0,0,0,0,0,-1,804,883,0,0
-413,141,0,0,0,0,0,0,0,0,0,-1,811,883,0,0
-406,141,0,0,0,0,0,0,0,0,0,-1,818,883,0,0
-399,141,0,0,0,0,0,0,0,0,0,-1,825,883,0,0
-392,141,0,0,0,0,0,0,0,0,0,-1,832,883,0,0
-385,141,0,0,0,0,0,0,0,0,0,-1,839,883,0,0
-378,141,0,0,0,0,0,0,0,0,0,-1,846,883,0,0
-371,141,0,0,0,0,0,0,0,0,0,-1,853,883,0,0
-364,141,0,0,0,0,0,0,0,0,0,-1,860,883,0,0
-357,141,0,0,0,0,0,0,0,0,0,-1,867,883,0,0
-350,141,0,0,0,0,0,0,0,0,0,-1,874,883,0,0
-343,141,0,0,0,0,0,0,0,0,0,-1,881,883,0,0
-336,141,0,0,0,0,0,0,0,0,0,-1,888,883,0,0
-329,141,0,0,0,0,0,0,0,0,0,-1,895,883,0,0
-322,141,0,0,0,0,0,0,0,0,0,-1,902,883,0,0
-315,141,0,0,0,0,0,0,0,0,0,-1,909,883,0,0
-308,141,0,0,0,0,0,0,0,0,0,-1,916,883,0,0
-301,141,0,0,0,0,0,0,0,0,0,-1,923,883,0,0
-294,141,0,0,0,0,0,0,0,0,0,-1,930,883,0,0
-287,141,0,0,0,0,0,0,0,0,0,-1,937,883,0,0
-280,141,0,0,0,0,0,0,0,0,0,-1,944,883,0,0
-273,141,0,0,0,0,0,0,0,0,0,-1,951,883,0,0
-266,141,0,0,0,0,0,0,0,0,0,-1,958,883,0,0
-259,141,0,0,0,0,0,0,0,0,0,-1,965,883,0,0
-252,141,0,0,0,0,0,0,0,0,0,-1,972,883,0,0
-245,141,0,0,0,0,0,0,0,0,0,-1,979,883,0,0
-238,141,0,0,0,0,0,0,0,0,0,-1,986,883,0,0
-231,141,0,0,0,0,0,0,0,0,0,-1,993,883,0,0
-224,141,0,0,0,0,0,0,0,0,0,-1,1000,883,0,0
-217,141,0,0,0,0,0,0,0,0,0,-1,1007,883,0,0
-210,141,0,0,0,0,0,0,0,0,0,-1,1014,883,0,0
-203,141,0,0,0,0,0,0,0,0,0,-1,1021,883,0,0
-196,141,0,0,0,0,0,0,0,0,0,-1,1028,883,0,0
-189,141,0,0,0,0,0,0,0,0,0,-1,1035,883,0,0
-182,141,0,0,0,0,0,0,0,0,0,-1,1042,883,0,0
-175,141,0,0,0,0,0,0,0,0,0,-1,1049,883,0,0
-168,141,0,0,0,0,0,0,0,0,0,-1,1056,883,0,0
-161,141,0,0,0,0,0,0,0,0,0,-1,1063,883,0,0
-154,141,0,0,0,0,0,0,0,0,0,-1,1070,883,0,0
-147,141,0,0,0,0,0,0,0,0,0,-1,1077,883,0,0
-140,141,0,0,0,0,0,0,0,0,0,-1,1084,883,0,0
-133,141,0,0,0,0,0,0,0,0,0,-1,1091,883,0,0
-126,141,0,0,0,0,0,0,0,0,0,-1,1098,883,0,0
-119,141,0,0,0,0,0,0,0,0,0,-1,1105,883,0,0
-112,141,0,0,0,0,0,0,0,0,0,-1,1112,883,0,0
-105,141,0,0,0,0,0,0,0,0,0,-1,1119,883,0,0
-98,141,0,0,0,0,0,0,0,0,0,-1,1126,883,0,0
-91,141,0,0,0,0,0,0,0,0,0,-1,1133,883,0,0
-84,141,0,0,0,0,0,0,0,0,0,-1,1140,883,0,0
-77,141,0,0,0,0,0,0,0,0,0,-1,1147,883,0,0
-70,141,0,0,0,0,0,0,0,0,0,-1,1154,883,0,0
-63,141,0,0,0,0,0,0,0,0,0,-1,1161,883,0,0
-56,141,0,0,0,0,0,0,0,0,0,-1,1168,883,0,0
-49,141,0,0,0,0,0,0,0,0,0,-1,1175,883,0,0
-42,141,0,0,0,0,0,0,0,0,0,-1,1182,883,0,0
-35,141,0,0,0,0,0,0,0,0,0,-1,1189,883,0,0
-28,141,0,0,0,0,0,0,0,0,0,-1,1196,883,0,0
-21,141,0,0,0,0,0,0,0,0,0,-1,1203,883,0,0
-14,141,0,0,0,0,0,0,0,0,0,-1,1210,883,0,0
-7,141,0,0,0,0,0,0,0,0,0,-1,1217,883,0,0
0,141,0,0,0,0,0,0,0,0,0,-1,1224,883,0,0
7,141,0,0,0,0,0,0,0,0,0,-1,1231,883,0,0
14,141,0,0,0,0,0,0,0,0,0,-1,1238,883,0,0
21,141,0,0,0,0,0,0,0,0,0,-1,1245,883,0,0
28,141,0,0,0,0,0,0,0,0,0,-1,1252,883,0,0
35,141,0,0,0,0,0,0,0,0,0,-1,1259,883,0,0
42,141,0,0,0,0,0,0,0,0,0,-1,1266,883,0,0
49,141,0,0,0,0,0,0,0,0,0,-1,1273,883,0,0
56,141,0,0,0,0,0,0,0,0,0,-1,1280,883,0,0
63,141,0,0,0,0,0,0,0,0,0,-1,1287,883,0,0
70,141,0,0,0,0,0,0,0,0,0,-1,1294,883,0,0
77,141,0,0,0,0,0,0,0,0,0,-1,1301,883,0,0
84,141,0,0,0,0,0,0,0,0,0,-1,1308,883,0,0
91,141,0,0,0,0,0,0,0,0,0,-1,1315,883,0,0
98,141,0,0,0,0,0,0,0,0,0,-1,1322,883,0,0
105,141,0,0,0,0,0,0,0,0,0,-1,1329,883,0,0
112,141,0,0,0,0,0,0,0,0,0,-1,1336,883,0,0
119,141,0,0,0,0,0,0,0,0,0,-1,1343,883,0,0
126,141,0,0,0,0,0,0,0,0,0,-1,1350,883,0,0
133,141,0,0,0,0,0,0,0,0,0,-1,1357,883,0,0
140,141,0,0,0,0,0,0,0,0,0,-1,1364,883,0,0
147,141,0,0,0,0,0,0,0,0,0,-1,1371,883,0,0
154,141,0,0,0,0,0,0,0,0,0,-1,1378,883,0,0
161,141,0,0,0,0,0,0,0,0,0,-1,1385,883,0,0
168,141,0,0,0,0,0,0,0,0,0,-1,1392,883,0,0
175,141,0,0,0,0,0,0,0,0,0,-1,1399,883,0,0
182,141,0,0,0,0,0,0,0,0,0,-1,1406,883,0,0
189,141,0,0,0,0,0,0,0,0,0,-1,1413,883,0,0
196,141,0,0,0,0,0,0,0,0,0,-1,1420,883,0,0
203,141,0,0,0,0,0,0,0,0,0,-1,1427,883,0,0
210,141,0,0,0,0,0,0,0,0,0,-1,1434,883,0,0
217,141,0,0,0,0,0,0,0,0,0,-1,1441,883,0,0
224,141,0,0,0,0,0,0,0,0,0,-1,1448,883,0,0
231,141,0,0,0,0,0,0,0,0,0,-1,1455,883,0,0
238,141,0,0,0,0,0,0,0,0,0,-1,1462,883,0,0
245,141,0,0,0,0,0,0,0,0,0,-1,1469,883,0,0
252,141,0,0,0,0,0,0,0,0,0,-1,1476,883,0,0
259,141,0,0,0,0,0,0,0,0,0,-1,1483,883,0,0
266,141,0,0,0,0,0,0,0,0,0,-1,1490,883,0,0
273,141,0,0,0,0,0,0,0,0,0,-1,1497,883,0,0
280,141,0,0,0,0,0,0,0,0,0,-1,1504,883,0,0
287,141,0,0,0,0,0,0,0,0,0,-1,1511,883,0,0
294,141,0,0,0,0,0,0,0,0,0,-1,1518,883,0,0
301,141,0,0,0,0,0,0,0,0,0,-1,1525,883,0,0
308,141,0,0,0,0,0,0,0,0,0,-1,1532,883,0,0
315,141,0,0,0,0,0,0,0,0,0,-1,1539,883,0,0
322,141,0,0,0,0,0,0,0,0,0,-1,1546,883,0,0
329,141,0,0,0,0,0,0,0,0,0,-1,1553,883,0,0
336,141,0,0,0,0,0,0,0,0,0,-1,1560,883,0,0
343,141,0,0,0,0,0,0,0,0,0,-1,1567,883,0,0
350,141,0,0,0,0,0,0,0,0,0,-1,1574,883,0,0
357,141,0,0,0,0,0,0,0,0,0,-1,1581,883,0,0
364,141,0,0,0,0,0,0,0,0,0,-1,1588,883,0,0
371,141,0,0,0,0,0,0,0,0,0,-1,1595,883,0,0
378,141,0,0,0,0,0,0,0,0,0,-1,1602,883,0,0
385,141,0,0,0,0,0,0,0,0,0,-1,1609,883,0,0
392,141,0,0,0,0,0,0,0,0,0,-1,1616,883,0,0
399,141,0,0,0,0,0,0,0,0,0,-1,1623,883,0,0
406,141,0,0,0,0,0,0,0,0,0,-1,1630,883,0,0
413,141,0,0,0,0,0,0,0,0,0,-1,1637,883,0,0
420,141,0,0,0,0,0,0,0,0,0,-1,1644,883,0,0
427,141,0,0,0,0,0,0,0,0,0,-1,1651,883,0,0
434,141,0,0,0,0,0,0,0,0,0,-1,1658,883,0,0
441,141,0,0,0,0,0,0,0,0,0,-1,1665,883,0,0
448,141,0,0,0,0,0,0,0,0,0,-1,1672,883,0,0
455,141,0,0,0,0,0,0,0,0,0,-1,1679,883,0,0
462,141,0,0,0,0,0,0,0,0,0,-1,1686,883,0,0
469,141,0,0,0,0,0,0,0,0,0,-1,1693,883,0,0
476,141,0,0,0,0,0,0,0,0,0,-1,1700,883,0,0
483,141,0,0,0,0,0,0,0,0,0,-1,1707,883,0,0
490,141,0,0,0,0,0,0,0,0,0,-1,1714,883,0,0
497,141,0,0,0,0,0,0,0,0,0,-1,1721,883,0,0
504,141,0,0,0,0,0,0,0,0,0,-1,1728,883,0,0
511,141,0,0,0,0,0,0,0,0,0,-1,1735,883,0,0
518,141,0,0,0,0,0,0,0,0,0,-1,1742,883,0,0
525,141,0,0,0,0,0,0,0,0,0,-1,1749,883,0,0
532,141,0,0,0,0,0,0,0,0,0,-1,1756,883,0,0
539,141,0,0,0,0,0,0,0,0,0,-1,1763,883,0,0
546,141,0,0,0,0,0,0,0,0,0,-1,1770,883,0,0
553,141,0,0,0,0,0,0,0,0,0,-1,1777,883,0,0
560,141,0,0,0,0,0,0,0,0,0,-1,1784,883,0,0
567,141,0,0,0,0,0,0,0,0,0,-1,1791,883,0,0
574,141,0,0,0,0,0,0,0,0,0,-1,1798,883,0,0
581,141,0,0,0,0,0,0,0,0,0,-1,1805,883,0,0
588,141,0,0,0,0,0,0,0,0,0,-1,1812,883,0,0
595,141,0,0,0,0,0,0,0,0,0,-1,1819,883,0,0
602,141,0,0,0,0,0,0,0,0,0,-1,1826,883,0,0
609,141,0,0,0,0,0,0,0,0,0,-1,1833,883,0,0
616,141,0,0,0,0,0,0,0,0,0,-1,1840,883,0,0
623,141,67.3016,2.17114,0.00306508,0.000120048,0.00473407,0.00655036,-0.00336524,0.634618,0.00582239,0.044321,1847,883,67.3017,-2.17116
630,141,67.2285,2.27332,0.00210111,-0.000841541,0.00329951,0.00424248,-0.00298291,0.575669,0.00419265,0.0460735,1854,883,67.2285,-2.27335
637,141,67.283,2.36993,0.00129804,-0.00104363,0.00211298,0.00254289,-0.00228848,0.5324,0.00279068,0.0431711,1861,883,67.283,-2.36993
644,141,67.2576,2.35736,0.000615808,-0.00105321,0.00114973,0.00120197,-0.00163937,0.471473,0.00164691,0.0387741,1868,883,67.2576,-2.35736
651,141,67.3464,2.41199,-1.48862e-06,-0.000991117,0.000345116,0.000106977,-0.00109958,0.304512,0.000771191,0.0374209,1875,883,67.3465,-2.41199
658,141,67.3765,2.41656,-0.000685415,-0.000943106,-0.000414822,-0.000379889,-0.00124863,-0.63482,0.000739085,0.034656,1882,883,67.3765,-2.41659
665,141,67.1455,2.46149,-0.00130524,-0.000831684,-0.000655474,-0.000371531,-0.00176539,-0.958719,0.00107471,0.0297634,1889,883,67.1455,-2.4615
672,141,67.1967,2.43207,-0.00158859,-0.000895555,-0.00092849,-0.000251029,-0.00223312,-0.963997,0.00141253,0.0249866,1896,883,67.1967,-2.43207
679,141,67.1218,2.49164,-0.00166611,-0.000898699,-0.00116986,-5.12208e-05,-0.00251358,-0.943865,0.00165891,0.0433107,1903,883,67.1218,-2.49164
686,141,67.011,2.6073,0,0,0,0,0,0,0,-1,1910,883,67.0109,-2.60731
693,141,51.7202,1.76593,0,0,0,0,0,0,0,-1,1917,883,51.7202,-1.76595
700,141,57.9685,2.30371,0,0,0,0,0,0,0,-1,1924,883,57.9684,-2.3037
707,141,58.1542,2.95966,0,0,0,0,0,0,0,-1,1931,883,58.1542,-2.95965
714,141,57.7635,3.58997,-0.0022093,0.000208902,-0.00174483,0.00112262,-0.00312301,-1.08839,0.00254029,0.0390448,1938,883,57.7635,-3.58994
721,141,57.7146,4.20599,-0.00217236,0.000588699,-0.00181793,0.00149087,-0.00307454,-1.11014,0.00268818,0.0219646,1945,883,57.7146,-4.20597
728,141,57.826,4.87421,-0.00211203,0.00121386,-0.00173611,0.00195496,-0.00285313,-1.16734,0.00279205,0.018432,1952,883,57.8261,-4.87418
735,141,57.78,5.67633,-0.00119422,0.00207354,-0.00155726,0.00269678,-0.00181747,-1.1901,0.00262273,0.0206485,1959,883,57.78,-5.67631
742,141,57.6803,6.38196,0.000316533,0.00347538,-0.0011182,0.00383114,-3.92296e-05,-1.26277,0.00256727,0.02061,1966,883,57.6802,-6.38197
749,141,57.6427,7.03387,0.00251786,0.00496145,-0.000393092,0.00502313,0.00245618,-1.41516,0.00290034,0.0161509,1973,883,57.6427,-7.0339
756,141,57.5979,7.80701,0.00552238,0.0065048,0.000519857,0.00672881,0.00529837,1.16393,0.00409324,0.0233711,1980,883,57.5979,-7.80702
763,141,57.5825,8.60632,0.00951327,0.00801734,0.00164749,0.0105746,0.00695597,0.57231,0.00620579,0.046391,1987,883,57.5825,-8.60631
770,141,57.5256,9.39636,0,0,0,0,0,0,0,-1,1994,883,57.5257,-9.39636
777,141,56.8301,10.0721,0,0,0,0,0,0,0,-1,2001,883,56.8302,-10.0722
784,141,57.8308,11.1509,0,0,0,0,0,0,0,-1,2008,883,57.8308,-11.151
791,141,59.0291,12.3168,0,0,0,0,0,0,0,-1,2015,883,59.029,-12.3168
798,141,0,0,0,0,0,0,0,0,0,-1,2022,883,0,0
805,141,0,0,0,0,0,0,0,0,0,-1,2029,883,0,0
812,141,0,0,0,0,0,0,0,0,0,-1,2036,883,0,0
-700,134,0,0,0,0,0,0,0,0,0,-1,524,890,0,0
-693,134,0,0,0,0,0,0,0,0,0,-1,531,890,0,0
-686,134,0,0,0,0,0,0,0,0,0,-1,538,890,0,0
-679,134,0,0,0,0,0,0,0,0,0,-1,545,890,0,0
-672,134,-53.4265,8.0694,0,0,0,0,0,0,0,-1,552,890,-53.4265,-8.06938
-665,134,-53.8023,7.69806,-0.0111461,0.0305107,-0.0996659,0.111501,-0.0921367,-0.888407,0.117747,0.0475272,559,890,-53.8023,-7.69804
-658,134,-54.2472,7.22931,-0.0130131,0.0282057,-0.0850286,0.0950869,-0.0798943,-0.904296,0.101152,0.0441889,566,890,-54.2472,-7.22929
-651,134,-53.945,6.49677,0,0,0,0,0,0,0,-1,573,890,-53.945,-6.49675
-644,134,-53.376,5.63928,0,0,0,0,0,0,0,-1,580,890,-53.376,-5.63927
-637,134,-45.0718,-1.43756,0,0,0,0,0,0,0,-1,587,890,-45.0718,1.43758
-630,134,-44.042,6.15076,0,0,0,0,0,0,0,-1,594,890,-44.042,-6.15077
-623,134,-44.1558,5.58624,-0.0104708,0.0120803,-0.0179308,0.0219861,-0.0203766,-1.06608,0.024464,0.0337204,601,890,-44.1558,-5.58626
-616,134,-44.3745,4.92181,-0.00886853,0.00822997,-0.00837816,0.0116508,-0.0122894,-1.18315,0.0138235,0.0130205,608,890,-44.3745,-4.92182
-609,134,-44.5095,4.25049,-0.00711226,0.00491463,-0.000507462,0.004936,-0.00713364,-1.5287,0.00700681,0.0124494,615,890,-44.5095,-4.25047
-602,134,-44.5199,3.5401,-0.00640552,0.00226613,0.00306129,0.00323793,-0.00737732,1.26341,0.00628212,0.0137762,622,890,-44.5199,-3.54009
-595,134,-44.4063,2.88287,-0.00622401,0.00131944,0.00306346,0.0024068,-0.00731137,1.22972,0.00584411,0.0289638,629,890,-44.4063,-2.88285
-588,134,-44.334,2.21179,0,0,0,0,0,0,0,-1,636,890,-44.334,-2.21178
-581,134,-44.0882,1.45886,0,0,0,0,0,0,0,-1,643,890,-44.0882,-1.45887
-574,134,-31.1517,0.757751,0,0,0,0,0,0,0,-1,650,890,-31.1517,-0.757758
-567,134,-30.9003,0.296326,0,0,0,0,0,0,0,-1,657,890,-30.9002,-0.296302
-560,134,-22.9123,0.106567,0,0,0,0,0,0,0,-1,664,890,-22.9123,-0.106594
-553,134,-52.0059,0.55658,0,0,0,0,0,0,0,-1,671,890,-52.0059,-0.556551
-546,134,-51.9819,0.537292,-0.00363669,-5.65126e-05,-0.000711363,7.96525e-05,-0.00377286,-1.38167,0.00254221,0.0368729,678,890,-51.9819,-0.537313
-539,134,-52.0239,0.51239,-0.00371681,0.000218097,-0.00167783,0.000836369,-0.00433508,-1.21774,0.00320543,0.0191246,685,890,-52.024,-0.512421
-532,134,-52.1105,0.540894,-0.00194619,2.65944e-05,-0.00279797,0.00200695,-0.00392655,-0.954865,0.00348496,0.0226835,692,890,-52.1105,-0.540865
-525,134,-52.1753,0.608337,-0.000186754,-0.000380159,-0.00323911,0.0029571,-0.00352401,-0.770475,0.00374664,0.0353757,699,890,-52.1753,-0.608332
-518,134,-52.2991,0.642151,0.000915476,-0.00205187,-0.002368,0.00222621,-0.00336261,-0.505541,0.00324887,0.0415704,706,890,-52.2991,-0.642148
-511,134,-52.3188,0.684021,0.0021762,-0.0039972,-0.00132736,0.0024495,-0.0042705,-0.20306,0.003927,0.0421555,713,890,-52.3188,-0.684018
-504,134,0,0,0,0,0,0,0,0,0,-1,720,890,0,0
-497,134,0,0,0,0,0,0,0,0,0,-1,727,890,0,0
-490,134,0,0,0,0,0,0,0,0,0,-1,734,890,0,0
-483,134,0,0,0,0,0,0,0,0,0,-1,741,890,0,0
-476,134,0,0,0,0,0,0,0,0,0,-1,748,890,0,0
-469,134,0,0,0,0,0,0,0,0,0,-1,755,890,0,0
-462,134,0,0,0,0,0,0,0,0,0,-1,762,890,0,0
-455,134,0,0,0,0,0,0,0,0,0,-1,769,890,0,0
-448,134,0,0,0,0,0,0,0,0,0,-1,776,890,0,0
-441,134,0,0,0,0,0,0,0,0,0,-1,783,890,0,0
-434,134,0,0,0,0,0,0,0,0,0,-1,790,890,0,0
-427,134,0,0,0,0,0,0,0,0,0,-1,797,890,0,0
-420,134,0,0,0,0,0,0,0,0,0,-1,804,890,0,0
-413,134,0,0,0,0,0,0,0,0,0,-1,811,890,0,0
-406,134,0,0,0,0,0,0,0,0,0,-1,818,890,0,0
-399,134,0,0,0,0,0,0,0,0,0,-1,825,890,0,0
-392,134,0,0,0,0,0,0,0,0,0,-1,832,890,0,0
-385,134,0,0,0,0,0,0,0,0,0,-1,839,890,0,0
-378,134,0,0,0,0,0,0,0,0,0,-1,846,890,0,0
-371,134,0,0,0,0,0,0,0,0,0,-1,853,890,0,0
-364,134,0,0,0,0,0,0,0,0,0,-1,860,890,0,0
-357,134,0,0,0,0,0,0,0,0,0,-1,867,890,0,0
-350,134,0,0,0,0,0,0,0,0,0,-1,874,890,0,0
-343,134,0,0,0,0,0,0,0,0,0,-1,881,890,0,0
-336,134,0,0,0,0,0,0,0,0,0,-1,888,890,0,0
-329,134,0,0,0,0,0,0,0,0,0,-1,895,890,0,0
-322,134,0,0,0,0,0,0,0,0,0,-1,902,890,0,0
-315,134,0,0,0,0,0,0,0,0,0,-1,909,890,0,0
-308,134,0,0,0,0,0,0,0,0,0,-1,916,890,0,0
-301,134,0,0,0,0,0,0,0,0,0,-1,923,890,0,0
-294,134,0,0,0,0,0,0,0,0,0,-1,930,890,0,0
-287,134,0,0,0,0,0,0,0,0,0,-1,937,890,0,0
-280,134,0,0,0,0,0,0,0,0,0,-1,944,890,0,0
-273,134,0,0,0,0,0,0,0,0,0,-1,951,890,0,0
-266,134,0,0,0,0,0,0,0,0,0,-1,958,890,0,0
-259,134,0,0,0,0,0,0,0,0,0,-1,965,890,0,0
-252,134,0,0,0,0,0,0,0,0,0,-1,972,890,0,0
-245,134,0,0,0,0,0,0,0,0,0,-1,979,890,0,0
-238,134,0,0,0,0,0,0,0,0,0,-1,986,890,0,0
-231,134,0,0,0,0,0,0,0,0,0,-1,993,890,0,0
-224,134,0,0,0,0,0,0,0,0,0,-1,1000,890,0,0
-217,134,0,0,0,0,0,0,0,0,0,-1,1007,890,0,0
-210,134,0,0,0,0,0,0,0,0,0,-1,1014,890,0,0
-203,134,0,0,0,0,0,0,0,0,0,-1,1021,890,0,0
-196,134,0,0,0,0,0,0,0,0,0,-1,1028,890,0,0
-189,134,0,0,0,0,0,0,0,0,0,-1,1035,890,0,0
-182,134,0,0,0,0,0,0,0,0,0,-1,1042,890,0,0
-175,134,0,0,0,0,0,0,0,0,0,-1,1049,890,0,0
-168,134,0,0,0,0,0,0,0,0,0,-1,1056,890,0,0
-161,134,0,0,0,0,0,0,0,0,0,-1,1063,890,0,0
-154,134,0,0,0,0,0,0,0,0,0,-1,1070,890,0,0
-147,134,0,0,0,0,0,0,0,0,0,-1,1077,890,0,0
-140,134,0,0,0,0,0,0,0,0,0,-1,1084,890,0,0
-133,134,0,0,0,0,0,0,0,0,0,-1,1091,890,0,0
-126,134,0,0,0,0,0,0,0,0,0,-1,1098,890,0,0
-119,134,0,0,0,0,0,0,0,0,0,-1,1105,890,0,0
-112,134,0,0,0,0,0,0,0,0,0,-1,1112,890,0,0
-105,134,0,0,0,0,0,0,0,0,0,-1,1119,890,0,0
-98,134,0,0,0,0,0,0,0,0,0,-1,1126,890,0,0
-91,134,0,0,0,0,0,0,0,0,0,-1,1133,890,0,0
-84,134,0,0,0,0,0,0,0,0,0,-1,1140,890,0,0
-77,134,0,0,0,0,0,0,0,0,0,-1,1147,890,0,0
-70,134,0,0,0,0,0,0,0,0,0,-1,1154,890,0,0
-63,134,0,0,0,0,0,0,0,0,0,-1,1161,890,0,0
-56,134,0,0,0,0,0,0,0,0,0,-1,1168,890,0,0
-49,134,0,0,0,0,0,0,0,0,0,-1,1175,890,0,0
-42,134,0,0,0,0,0,0,0,0,0,-1,1182,890,0,0
-35,134,0,0,0,0,0,0,0,0,0,-1,1189,890,0,0
-28,134,0,0,0,0,0,0,0,0,0,-1,1196,890,0,0
-21,134,0,0,0,0,0,0,0,0,0,-1,1203,890,0,0
-14,134,0,0,0,0,0,0,0,0,0,-1,1210,890,0,0
-7,134,0,0,0,0,0,0,0,0,0,-1,1217,890,0,0
0,134,0,0,0,0,0,0,0,0,0,-1,1224,890,0,0
7,134,0,0,0,0,0,0,0,0,0,-1,1231,890,0,0
14,134,0,0,0,0,0,0,0,0,0,-1,1238,890,0,0
21,134,0,0,0,0,0,0,0,0,0,-1,1245,890,0,0
28,134,0,0,0,0,0,0,0,0,0,-1,1252,890,0,0
35,134,0,0,0,0,0,0,0,0,0,-1,1259,890,0,0
42,134,0,0,0,0,0,0,0,0,0,-1,1266,890,0,0
49,134,0,0,0,0,0,0,0,0,0,-1,1273,890,0,0
56,134,0,0,0,0,0,0,0,0,0,-1,1280,890,0,0
63,134,0,0,0,0,0,0,0,0,0,-1,1287,890,0,0
70,134,0,0,0,0,0,0,0,0,0,-1,1294,890,0,0
77,134,0,0,0,0,0,0,0,0,0,-1,1301,890,0,0
84,134,0,0,0,0,0,0,0,0,0,-1,1308,890,0,0
91,134,0,0,0,0,0,0,0,0,0,-1,1315,890,0,0
98,134,0,0,0,0,0,0,0,0,0,-1,1322,890,0,0
105,134,0,0,0,0,0,0,0,0,0,-1,1329,890,0,0
112,134,0,0,0,0,0,0,0,0,0,-1,1336,890,0,0
119,134,0,0,0,0,0,0,0,0,0,-1,1343,890,0,0
126,134,0,0,0,0,0,0,0,0,0,-1,1350,890,0,0
133,134,0,0,0,0,0,0,0,0,0,-1,1357,890,0,0
140,134,0,0,0,0,0,0,0,0,0,-1,1364,890,0,0
147,134,0,0,0,0,0,0,0,0,0,-1,1371,890,0,0
154,134,0,0,0,0,0,0,0,0,0,-1,1378,890,0,0
161,134,0,0,0,0,0,0,0,0,0,-1,1385,890,0,0
168,134,0,0,0,0,0,0,0,0,0,-1,1392,890,0,0
175,134,0,0,0,0,0,0,0,0,0,-1,1399,890,0,0
182,134,0,0,0,0,0,0,0,0,0,-1,1406,890,0,0
189,134,0,0,0,0,0,0,0,0,0,-1,1413,890,0,0
196,134,0,0,0,0,0,0,0,0,0,-1,1420,890,0,0
203,134,0,0,0,0,0,0,0,0,0,-1,1427,890,0,0
210,134,0,0,0,0,0,0,0,0,0,-1,1434,890,0,0
217,134,0,0,0,0,0,0,0,0,0,-1,1441,890,0,0
224,134,0,0,0,0,0,0,0,0,0,-1,1448,890,0,0
231,134,0,0,0,0,0,0,0,0,0,-1,1455,890,0,0
238,134,0,0,0,0,0,0,0,0,0,-1,1462,890,0,0
245,134,0,0,0,0,0,0,0,0,0,-1,1469,890,0,0
252,134,0,0,0,0,0,0,0,0,0,-1,1476,890,0,0
259,134,0,0,0,0,0,0,0,0,0,-1,1483,890,0,0
266,134,0,0,0,0,0,0,0,0,0,-1,1490,890,0,0
273,134,0,0,0,0,0,0,0,0,0,-1,1497,890,0,0
280,134,0,0,0,0,0,0,0,0,0,-1,1504,890,0,0
287,134,0,0,0,0,0,0,0,0,0,-1,1511,890,0,0
294,134,0,0,0,0,0,0,0,0,0,-1,1518,890,0,0
301,134,0,0,0,0,0,0,0,0,0,-1,1525,890,0,0
308,134,0,0,0,0,0,0,0,0,0,-1,1532,890,0,0
315,134,0,0,0,0,0,0,0,0,0,-1,1539,890,0,0
322,134,0,0,0,0,0,0,0,0,0,-1,1546,890,0,0
329,134,0,0,0,0,0,0,0,0,0,-1,1553,890,0,0
336,134,0,0,0,0,0,0,0,0,0,-1,1560,890,0,0
343,134,0,0,0,0,0,0,0,0,0,-1,1567,890,0,0
350,134,0,0,0,0,0,0,0,0,0,-1,1574,890,0,0
357,134,0,0,0,0,0,0,0,0,0,-1,1581,890,0,0
364,134,0,0,0,0,0,0,0,0,0,-1,1588,890,0,0
371,134,0,0,0,0,0,0,0,0,0,-1,1595,890,0,0
378,134,0,0,0,0,0,0,0,0,0,-1,1602,890,0,0
385,134,0,0,0,0,0,0,0,0,0,-1,1609,890,0,0
392,134,0,0,0,0,0,0,0,0,0,-1,1616,890,0,0
399,134,0,0,0,0,0,0,0,0,0,-1,1623,890,0,0
406,134,0,0,0,0,0,0,0,0,0,-1,1630,890,0,0
413,134,0,0,0,0,0,0,0,0,0,-1,1637,890,0,0
420,134,0,0,0,0,0,0,0,0,0,-1,1644,890,0,0
427,134,0,0,0,0,0,0,0,0,0,-1,1651,890,0,0
434,134,0,0,0,0,0,0,0,0,0,-1,1658,890,0,0
441,134,0,0,0,0,0,0,0,0,0,-1,1665,890,0,0
448,134,0,0,0,0,0,0,0,0,0,-1,1672,890,0,0
455,134,0,0,0,0,0,0,0,0,0,-1,1679,890,0,0
462,134,0,0,0,0,0,0,0,0,0,-1,1686,890,0,0
469,134,0,0,0,0,0,0,0,0,0,-1,1693,890,0,0
476,134,0,0,0,0,0,0,0,0,0,-1,1700,890,0,0
483,134,0,0,0,0,0,0,0,0,0,-1,1707,890,0,0
490,134,0,0,0,0,0,0,0,0,0,-1,1714,890,0,0
497,134,0,0,0,0,0,0,0,0,0,-1,1721,890,0,0
504,134,0,0,0,0,0,0,0,0,0,-1,1728,890,0,0
511,134,0,0,0,0,0,0,0,0,0,-1,1735,890,0,0
518,134,0,0,0,0,0,0,0,0,0,-1,1742,890,0,0
525,134,0,0,0,0,0,0,0,0,0,-1,1749,890,0,0
532,134,0,0,0,0,0,0,0,0,0,-1,1756,890,0,0
539,134,0,0,0,0,0,0,0,0,0,-1,1763,890,0,0
546,134,0,0,0,0,0,0,0,0,0,-1,1770,890,0,0
553,134,0,0,0,0,0,0,0,0,0,-1,1777,890,0,0
560,134,0,0,0,0,0,0,0,0,0,-1,1784,890,0,0
567,134,0,0,0,0,0,0,0,0,0,-1,1791,890,0,0
574,134,0,0,0,0,0,0,0,0,0,-1,1798,890,0,0
581,134,0,0,0,0,0,0,0,0,0,-1,1805,890,0,0
588,134,0,0,0,0,0,0,0,0,0,-1,1812,890,0,0
595,134,0,0,0,0,0,0,0,0,0,-1,1819,890,0,0
602,134,0,0,0,0,0,0,0,0,0,-1,1826,890,0,0
609,134,0,0,0,0,0,0,0,0,0,-1,1833,890,0,0
616,134,0,0,0,0,0,0,0,0,0,-1,1840,890,0,0
623,134,67.3604,2.29797,0.00288991,0.000761556,0.00532099,0.00725209,-0.00360063,0.686702,0.00638294,0.0439412,1847,890,67.3603,-2.29795
630,134,67.0835,2.55847,0.00205523,-0.000374212,0.00370642,0.00474091,-0.00305989,0.627047,0.00453852,0.0457488,1854,890,67.0835,-2.55845
637,134,67.2496,2.56909,0.00135941,-0.000729038,0.00238806,0.00292157,-0.0022912,0.579291,0.00301692,0.0406133,1861,890,67.2496,-2.56911
644,134,67.4073,2.53992,0.000724119,-0.000888647,0.00135533,0.00149482,-0.00165934,0.517042,0.00182188,0.0377258,1868,890,67.4074,-2.5399
651,134,67.3955,2.5694,0.000164632,-0.000927836,0.000533553,0.000381975,-0.00114518,0.386828,0.000917671,0.0417889,1875,890,67.3955,-2.5694
658,134,67.2957,2.47321,-0.000439762,-0.000903027,-0.000183281,-0.000376021,-0.000966768,-0.334693,0.000562734,0.0398183,1882,890,67.2957,-2.47319
665,134,67.1661,2.25891,-0.000994049,-0.000801736,-0.000420302,-0.000466732,-0.00132905,-0.897853,0.000778577,0.0351058,1889,890,67.1661,-2.25892
672,134,67.2393,2.31403,-0.00130185,-0.000883254,-0.000669109,-0.000391472,-0.00179363,-0.936977,0.00108898,0.0250613,1896,890,67.2393,-2.314
679,134,67.2188,2.32928,-0.00142446,-0.000922309,-0.000885855,-0.000252638,-0.00209414,-0.923491,0.00131996,0.0255305,1903,890,67.2187,-2.3293
686,134,67.1855,2.38574,0,0,0,0,0,0,0,-1,1910,890,67.1856,-2.38571
693,134,34.5778,2.48096,0,0,0,0,0,0,0,-1,1917,890,34.5777,-2.48099
700,134,58.2894,1.77966,0,0,0,0,0,0,0,-1,1924,890,58.2895,-1.77966
707,134,58.3068,2.47101,0,0,0,0,0,0,0,-1,1931,890,58.3068,-2.471
714,134,58.4156,3.35388,-0.00209371,0.000163207,-0.00148929,0.000903276,-0.00283378,-1.10961,0.00225151,0.0285906,1938,890,58.4157,-3.35391
721,134,58.5474,4.09302,-0.00217362,0.000550106,-0.00159816,0.00128795,-0.00291147,-1.13827,0.0024842,0.026531,1945,890,58.5474,-4.093
728,134,58.5946,4.8244,-0.00231009,0.00121005,-0.00158151,0.00181621,-0.00291624,-1.20479,0.00275678,0.0228575,1952,890,58.5946,-4.82439
735,134,58.5092,5.65753,-0.00154098,0.00214835,-0.00149246,0.00267649,-0.00206912,-1.23067,0.00274735,0.0290405,1959,890,58.5091,-5.65751
742,134,58.4116,6.39685,-3.51441e-05,0.00380071,-0.00106449,0.00407632,-0.00031075,-1.31745,0.00282683,0.019236,1966,890,58.4116,-6.39684
749,134,58.4213,7.05383,0.0023327,0.00568046,-0.000164483,0.00568852,0.00232464,-1.52182,0.00330249,0.0138427,1973,890,58.4213,-7.05385
756,134,58.3727,7.74408,0.00567904,0.00767193,0.00108518,0.00814874,0.00520222,1.1568,0.00476438,0.0194617,1980,890,58.3727,-7.74406
763,134,58.2649,8.45972,0.010101,0.00958597,0.00265124,0.0125072,0.00717977,0.736985,0.00724739,0.0420394,1987,890,58.2648,-8.45971
770,134,58.1367,9.17255,0,0,0,0,0,0,0,-1,1994,890,58.1366,-9.17252
777,134,56.5676,10.374,0,0,0,0,0,0,0,-1,2001,890,56.5676,-10.374
784,134,59.4336,10.8775,0,0,0,0,0,0,0,-1,2008,890,59.4337,-10.8775
791,134,61.1787,12.2078,0,0,0,0,0,0,0,-1,2015,890,61.1787,-12.2078
798,134,0,0,0,0,0,0,0,0,0,-1,2022,890,0,0
805,134,0,0,0,0,0,0,0,0,0,-1,2029,890,0,0
812,134,0,0,0,0,0,0,0,0,0,-1,2036,890,0,0
-700,127,0,0,0,0,0,0,0,0,0,-1,524,897,0,0
-693,127,0,0,0,0,0,0,0,0,0,-1,531,897,0,0
-686,127,0,0,0,0,0,0,0,0,0,-1,538,897,0,0
-679,127,-48.4407,6.71661,0,0,0,0,0,0,0,-1,545,897,-48.4407,-6.71659
-672,127,-47.4901,6.44965,0,0,0,0,0,0,0,-1,552,897,-47.4901,-6.44965
-665,127,-52.7946,7.53705,-0.00758433,0.0426576,-0.075783,0.0973747,-0.0623015,-0.945442,0.0929275,0.0484752,559,897,-52.7946,-7.53705
-658,127,-53.2768,7.06543,-0.0106043,0.0356784,-0.0655138,0.0820179,-0.0569438,-0.955172,0.0806637,0.0454208,566,897,-53.2768,-7.06545
-651,127,-53.0848,6.30023,0,0,0,0,0,0,0,-1,573,897,-53.0848,-6.3002
-644,127,-52.7229,5.97797,0,0,0,0,0,0,0,-1,580,897,-52.7229,-5.978
-637,127,-44.8021,-0.573792,0,0,0,0,0,0,0,-1,587,897,-44.8021,0.573798
-630,127,-45.0053,6.05322,0,0,0,0,0,0,0,-1,594,897,-45.0053,-6.05325
-623,127,-45.0681,5.50739,-0.0101658,0.0106038,-0.0133424,0.0171265,-0.0166885,-1.11609,0.0195236,0.0209382,601,897,-45.0681,-5.50738
-616,127,-45.1448,4.89624,-0.00852135,0.00724083,-0.00570836,0.00909097,-0.0103715,-1.25737,0.0112448,0.0112019,608,897,-45.1448,-4.89623
-609,127,-45.2308,4.22754,-0.00665284,0.00434089,0.000554108,0.00436875,-0.0066807,1.52056,0.00642578,0.0149668,615,897,-45.2308,-4.22755
-602,127,-45.2249,3.56165,-0.00579503,0.0022092,0.00294475,0.00317584,-0.00676167,1.25362,0.00586061,0.01724,622,897,-45.2248,-3.56164
-595,127,-45.1653,2.97168,-0.00560204,0.00149782,0.00258688,0.00234038,-0.00644459,1.25593,0.00525327,0.0333419,629,897,-45.1653,-2.97169
-588,127,-45.1311,2.71832,0,0,0,0,0,0,0,-1,636,897,-45.1311,-2.71833
-581,127,-42.0992,1.35736,0,0,0,0,0,0,0,-1,643,897,-42.0993,-1.35736
-574,127,-25.2603,0.511169,0,0,0,0,0,0,0,-1,650,897,-25.2603,-0.51117
-567,127,-24.5417,-0.0447388,0,0,0,0,0,0,0,-1,657,897,-24.5417,0.0447226
-560,127,-18.9678,1.21667,0,0,0,0,0,0,0,-1,664,897,-18.9677,-1.2167
-553,127,-52.0831,0.521057,0,0,0,0,0,0,0,-1,671,897,-52.0831,-0.521076
-546,127,-52.0624,0.498047,-0.00345791,0.000190021,-0.000679857,0.000312605,-0.0035805,-1.3924,0.00249773,0.0230625,678,897,-52.0624,-0.498072
-539,127,-52.0393,0.477234,-0.00347086,0.000473672,-0.00158916,0.00103424,-0.00403143,-1.23168,0.0030906,0.0198149,685,897,-52.0393,-0.477264
-532,127,-52.0525,0.477112,-0.00166882,0.000187601,-0.00218202,0.00163063,-0.00311185,-0.986498,0.00278223,0.015565,692,897,-52.0525,-0.477111
-525,127,-52.0825,0.488464,-0.00022214,-0.000759276,-0.00183434,0.00136319,-0.00234461,-0.712709,0.00216555,0.0324108,699,897,-52.0825,-0.488485
-518,127,-52.1204,0.405396,0.000520062,-0.00271617,-0.000589305,0.000624032,-0.00282014,-0.174631,0.00211896,0.042765,706,897,-52.1204,-0.405402
-511,127,-52.3611,0.657715,0.0012982,-0.00499191,0.000517995,0.00134057,-0.00503428,0.081618,0.003881,0.0429816,713,897,-52.3611,-0.657712
-504,127,0,0,0,0,0,0,0,0,0,-1,720,897,0,0
-497,127,0,0,0,0,0,0,0,0,0,-1,727,897,0,0
-490,127,0,0,0,0,0,0,0,0,0,-1,734,897,0,0
-483,127,0,0,0,0,0,0,0,0,0,-1,741,897,0,0
-476,127,0,0,0,0,0,0,0,0,0,-1,748,897,0,0
-469,127,0,0,0,0,0,0,0,0,0,-1,755,897,0,0
-462,127,0,0,0,0,0,0,0,0,0,-1,762,897,0,0
-455,127,0,0,0,0,0,0,0,0,0,-1,769,897,0,0
-448,127,0,0,0,0,0,0,0,0,0,-1,776,897,0,0
-441,127,0,0,0,0,0,0,0,0,0,-1,783,897,0,0
-434,127,0,0,0,0,0,0,0,0,0,-1,790,897,0,0
-427,127,0,0,0,0,0,0,0,0,0,-1,797,897,0,0
-420,127,0,0,0,0,0,0,0,0,0,-1,804,897,0,0
-413,127,0,0,0,0,0,0,0,0,0,-1,811,897,0,0
-406,127,0,0,0,0,0,0,0,0,0,-1,818,897,0,0
-399,127,0,0,0,0,0,0,0,0,0,-1,825,897,0,0
-392,127,0,0,0,0,0,0,0,0,0,-1,832,897,0,0
-385,127,0,0,0,0,0,0,0,0,0,-1,839,897,0,0
-378,127,0,0,0,0,0,0,0,0,0,-1,846,897,0,0
-371,127,0,0,0,0,0,0,0,0,0,-1,853,897,0,0
-364,127,0,0,0,0,0,0,0,0,0,-1,860,897,0,0
-357,127,0,0,0,0,0,0,0,0,0,-1,867,897,0,0
-350,127,0,0,0,0,0,0,0,0,0,-1,874,897,0,0
-343,127,0,0,0,0,0,0,0,0,0,-1,881,897,0,0
-336,127,0,0,0,0,0,0,0,0,0,-1,888,897,0,0
-329,127,0,0,0,0,0,0,0,0,0,-1,895,897,0,0
-322,127,0,0,0,0,0,0,0,0,0,-1,902,897,0,0
-315,127,0,0,0,0,0,0,0,0,0,-1,909,897,0,0
-308,127,0,0,0,0,0,0,0,0,0,-1,916,897,0,0
-301,127,0,0,0,0,0,0,0,0,0,-1,923,897,0,0
-294,127,0,0,0,0,0,0,0,0,0,-1,930,897,0,0
-287,127,0,0,0,0,0,0,0,0,0,-1,937,897,0,0
-280,127,0,0,0,0,0,0,0,0,0,-1,944,897,0,0
-273,127,0,0,0,0,0,0,0,0,0,-1,951,897,0,0
-266,127,0,0,0,0,0,0,0,0,0,-1,958,897,0,0
-259,127,0,0,0,0,0,0,0,0,0,-1,965,897,0,0
-252,127,0,0,0,0,0,0,0,0,0,-1,972,897,0,0
-245,127,0,0,0,0,0,0,0,0,0,-1,979,897,0,0
-238,127,0,0,0,0,0,0,0,0,0,-1,986,897,0,0
-231,127,0,0,0,0,0,0,0,0,0,-1,993,897,0,0
-224,127,0,0,0,0,0,0,0,0,0,-1,1000,897,0,0
-217,127,0,0,0,0,0,0,0,0,0,-1,1007,897,0,0
-210,127,0,0,0,0,0,0,0,0,0,-1,1014,897,0,0
-203,127,0,0,0,0,0,0,0,0,0,-1,1021,897,0,0
-196,127,0,0,0,0,0,0,0,0,0,-1,1028,897,0,0
-189,127,0,0,0,0,0,0,0,0,0,-1,1035,897,0,0
-182,127,0,0,0,0,0,0,0,0,0,-1,1042,897,0,0
-175,127,0,0,0,0,0,0,0,0,0,-1,1049,897,0,0
-168,127,0,0,0,0,0,0,0,0,0,-1,1056,897,0,0
-161,127,0,0,0,0,0,0,0,0,0,-1,1063,897,0,0
-154,127,0,0,0,0,0,0,0,0,0,-1,1070,897,0,0
-147,127,0,0,0,0,0,0,0,0,0,-1,1077,897,0,0
-140,127,0,0,0,0,0,0,0,0,0,-1,1084,897,0,0
-133,127,0,0,0,0,0,0,0,0,0,-1,1091,897,0,0
-126,127,0,0,0,0,0,0,0,0,0,-1,1098,897,0,0
-119,127,0,0,0,0,0,0,0,0,0,-1,1105,897,0,0
-112,127,0,0,0,0,0,0,0,0,0,-1,1112,897,0,0
-105,127,0,0,0,0,0,0,0,0,0,-1,1119,897,0,0
-98,127,0,0,0,0,0,0,0,0,0,-1,1126,897,0,0
-91,127,0,0,0,0,0,0,0,0,0,-1,1133,897,0,0
-84,127,0,0,0,0,0,0,0,0,0,-1,1140,897,0,0
-77,127,0,0,0,0,0,0,0,0,0,-1,1147,897,0,0
-70,127,0,0,0,0,0,0,0,0,0,-1,1154,897,0,0
-63,127,0,0,0,0,0,0,0,0,0,-1,1161,897,0,0
-56,127,0,0,0,0,0,0,0,0,0,-1,1168,897,0,0
-49,127,0,0,0,0,0,0,0,0,0,-1,1175,897,0,0
-42,127,0,0,0,0,0,0,0,0,0,-1,1182,897,0,0
-35,127,0,0,0,0,0,0,0,0,0,-1,1189,897,0,0
-28,127,0,0,0,0,0,0,0,0,0,-1,1196,897,0,0
-21,127,0,0,0,0,0,0,0,0,0,-1,1203,897,0,0
-14,127,0,0,0,0,0,0,0,0,0,-1,1210,897,0,0
-7,127,0,0,0,0,0,0,0,0,0,-1,1217,897,0,0
0,127,0,0,0,0,0,0,0,0,0,-1,1224,897,0,0
7,127,0,0,0,0,0,0,0,0,0,-1,1231,897,0,0
14,127,0,0,0,0,0,0,0,0,0,-1,1238,897,0,0
21,127,0,0,0,0,0,0,0,0,0,-1,1245,897,0,0
28,127,0,0,0,0,0,0,0,0,0,-1,1252,897,0,0
35,127,0,0,0,0,0,0,0,0,0,-1,1259,897,0,0
42,127,0,0,0,0,0,0,0,0,0,-1,1266,897,0,0
49,127,0,0,0,0,0,0,0,0,0,-1,1273,897,0,0
56,127,0,0,0,0,0,0,0,0,0,-1,1280,897,0,0
63,127,0,0,0,0,0,0,0,0,0,-1,1287,897,0,0
70,127,0,0,0,0,0,0,0,0,0,-1,1294,897,0,0
77,127,0,0,0,0,0,0,0,0,0,-1,1301,897,0,0
84,127,0,0,0,0,0,0,0,0,0,-1,1308,897,0,0
91,127,0,0,0,0,0,0,0,0,0,-1,1315,897,0,0
98,127,0,0,0,0,0,0,0,0,0,-1,1322,897,0,0
105,127,0,0,0,0,0,0,0,0,0,-1,1329,897,0,0
112,127,0,0,0,0,0,0,0,0,0,-1,1336,897,0,0
119,127,0,0,0,0,0,0,0,0,0,-1,1343,897,0,0
126,127,0,0,0,0,0,0,0,0,0,-1,1350,897,0,0
133,127,0,0,0,0,0,0,0,0,0,-1,1357,897,0,0
140,127,0,0,0,0,0,0,0,0,0,-1,1364,897,0,0
147,127,0,0,0,0,0,0,0,0,0,-1,1371,897,0,0
154,127,0,0,0,0,0,0,0,0,0,-1,1378,897,0,0
161,127,0,0,0,0,0,0,0,0,0,-1,1385,897,0,0
168,127,0,0,0,0,0,0,0,0,0,-1,1392,897,0,0
175,127,0,0,0,0,0,0,0,0,0,-1,1399,897,0,0
182,127,0,0,0,0,0,0,0,0,0,-1,1406,897,0,0
189,127,0,0,0,0,0,0,0,0,0,-1,1413,897,0,0
196,127,0,0,0,0,0,0,0,0,0,-1,1420,897,0,0
203,127,0,0,0,0,0,0,0,0,0,-1,1427,897,0,0
210,127,0,0,0,0,0,0,0,0,0,-1,1434,897,0,0
217,127,0,0,0,0,0,0,0,0,0,-1,1441,897,0,0
224,127,0,0,0,0,0,0,0,0,0,-1,1448,897,0,0
231,127,0,0,0,0,0,0,0,0,0,-1,1455,897,0,0
238,127,0,0,0,0,0,0,0,0,0,-1,1462,897,0,0
245,127,0,0,0,0,0,0,0,0,0,-1,1469,897,0,0
252,127,0,0,0,0,0,0,0,0,0,-1,1476,897,0,0
259,127,0,0,0,0,0,0,0,0,0,-1,1483,897,0,0
266,127,0,0,0,0,0,0,0,0,0,-1,1490,897,0,0
273,127,0,0,0,0,0,0,0,0,0,-1,1497,897,0,0
280,127,0,0,0,0,0,0,0,0,0,-1,1504,897,0,0
287,127,0,0,0,0,0,0,0,0,0,-1,1511,897,0,0
294,127,0,0,0,0,0,0,0,0,0,-1,1518,897,0,0
301,127,0,0,0,0,0,0,0,0,0,-1,1525,897,0,0
308,127,0,0,0,0,0,0,0,0,0,-1,1532,897,0,0
315,127,0,0,0,0,0,0,0,0,0,-1,1539,897,0,0
322,127,0,0,0,0,0,0,0,0,0,-1,1546,897,0,0
329,127,0,0,0,0,0,0,0,0,0,-1,1553,897,0,0
336,127,0,0,0,0,0,0,0,0,0,-1,1560,897,0,0
343,127,0,0,0,0,0,0,0,0,0,-1,1567,897,0,0
350,127,0,0,0,0,0,0,0,0,0,-1,1574,897,0,0
357,127,0,0,0,0,0,0,0,0,0,-1,1581,897,0,0
364,127,0,0,0,0,0,0,0,0,0,-1,1588,897,0,0
371,127,0,0,0,0,0,0,0,0,0,-1,1595,897,0,0
378,127,0,0,0,0,0,0,0,0,0,-1,1602,897,0,0
385,127,0,0,0,0,0,0,0,0,0,-1,1609,897,0,0
392,127,0,0,0,0,0,0,0,0,0,-1,1616,897,0,0
399,127,0,0,0,0,0,0,0,0,0,-1,1623,897,0,0
406,127,0,0,0,0,0,0,0,0,0,-1,1630,897,0,0
413,127,0,0,0,0,0,0,0,0,0,-1,1637,897,0,0
420,127,0,0,0,0,0,0,0,0,0,-1,1644,897,0,0
427,127,0,0,0,0,0,0,0,0,0,-1,1651,897,0,0
434,127,0,0,0,0,0,0,0,0,0,-1,1658,897,0,0
441,127,0,0,0,0,0,0,0,0,0,-1,1665,897,0,0
448,127,0,0,0,0,0,0,0,0,0,-1,1672,897,0,0
455,127,0,0,0,0,0,0,0,0,0,-1,1679,897,0,0
462,127,0,0,0,0,0,0,0,0,0,-1,1686,897,0,0
469,127,0,0,0,0,0,0,0,0,0,-1,1693,897,0,0
476,127,0,0,0,0,0,0,0,0,0,-1,1700,897,0,0
483,127,0,0,0,0,0,0,0,0,0,-1,1707,897,0,0
490,127,0,0,0,0,0,0,0,0,0,-1,1714,897,0,0
497,127,0,0,0,0,0,0,0,0,0,-1,1721,897,0,0
504,127,0,0,0,0,0,0,0,0,0,-1,1728,897,0,0
511,127,0,0,0,0,0,0,0,0,0,-1,1735,897,0,0
518,127,0,0,0,0,0,0,0,0,0,-1,1742,897,0,0
525,127,0,0,0,0,0,0,0,0,0,-1,1749,897,0,0
532,127,0,0,0,0,0,0,0,0,0,-1,1756,897,0,0
539,127,0,0,0,0,0,0,0,0,0,-1,1763,897,0,0
546,127,0,0,0,0,0,0,0,0,0,-1,1770,897,0,0
553,127,0,0,0,0,0,0,0,0,0,-1,1777,897,0,0
560,127,0,0,0,0,0,0,0,0,0,-1,1784,897,0,0
567,127,0,0,0,0,0,0,0,0,0,-1,1791,897,0,0
574,127,0,0,0,0,0,0,0,0,0,-1,1798,897,0,0
581,127,0,0,0,0,0,0,0,0,0,-1,1805,897,0,0
588,127,0,0,0,0,0,0,0,0,0,-1,1812,897,0,0
595,127,0,0,0,0,0,0,0,0,0,-1,1819,897,0,0
602,127,0,0,0,0,0,0,0,0,0,-1,1826,897,0,0
609,127,0,0,0,0,0,0,0,0,0,-1,1833,897,0,0
616,127,0,0,0,0,0,0,0,0,0,-1,1840,897,0,0
623,127,0,0,0,0,0,0,0,0,0,-1,1847,897,0,0
630,127,67.0781,2.62915,0.00212997,-0.000182798,0.00389904,0.00504049,-0.00309332,0.641239,0.0047407,0.0402989,1854,897,67.0781,-2.62917
637,127,67.0519,2.71924,0.0013953,-0.000511275,0.00248425,0.00310289,-0.00221886,0.602196,0.00308661,0.0387549,1861,897,67.0519,-2.71926
644,127,67.2457,2.7998,0.00075613,-0.000728235,0.00145536,0.00164762,-0.00161973,0.549604,0.00188643,0.0386624,1868,897,67.2457,-2.79982
651,127,67.2997,2.7608,0.000238076,-0.000811974,0.000678581,0.000571027,-0.00114493,0.456146,0.00100901,0.0437179,1875,897,67.2997,-2.76079
658,127,67.1783,2.56415,-0.000267566,-0.00077992,4.64027e-05,-0.000263398,-0.000784089,0.0895962,0.000460747,0.0436196,1882,897,67.1784,-2.56413
665,127,67.1339,2.34991,-0.000713675,-0.00065675,-0.000175468,-0.000507451,-0.000862974,-0.865803,0.000500806,0.0397321,1889,897,67.134,-2.34994
672,127,67.1924,2.22675,-0.00100077,-0.000739925,-0.000388183,-0.000460842,-0.00127986,-0.947467,0.000748509,0.0334371,1896,897,67.1923,-2.22674
679,127,67.2562,2.24689,-0.0011486,-0.000800676,-0.000579113,-0.000369962,-0.00157932,-0.931308,0.000953781,0.0263501,1903,897,67.2562,-2.24689
686,127,67.2489,2.30768,0,0,0,0,0,0,0,-1,1910,897,67.249,-2.30768
693,127,59.2523,2.33673,0,0,0,0,0,0,0,-1,1917,897,59.2524,-2.33674
700,127,58.717,1.80957,0,0,0,0,0,0,0,-1,1924,897,58.717,-1.80956
707,127,58.571,2.04681,0,0,0,0,0,0,0,-1,1931,897,58.571,-2.04682
714,127,59.3835,3.40161,-0.00199461,0.000283396,-0.00133597,0.000899995,-0.00261121,-1.13839,0.00210592,0.0260994,1938,897,59.3836,-3.40159
721,127,59.4515,4.27734,-0.00216761,0.000657108,-0.00147214,0.00128484,-0.00279534,-1.16774,0.0024089,0.0255928,1945,897,59.4516,-4.27733
728,127,59.3268,4.93958,-0.00245397,0.00129559,-0.00151484,0.00183111,-0.00298949,-1.23099,0.00280983,0.0235318,1952,897,59.3268,-4.93955
735,127,59.2391,5.67523,-0.00186154,0.00221448,-0.0015376,0.00272945,-0.00237651,-1.24762,0.00295027,0.0205422,1959,897,59.2391,-5.67523
742,127,59.1768,6.3877,-0.000464929,0.00393865,-0.00120563,0.00424712,-0.000773402,-1.32031,0.00312132,0.0193097,1966,897,59.1768,-6.3877
749,127,59.1384,7.06726,0.00197848,0.00602607,-0.000264462,0.00604327,0.00196128,-1.50583,0.00355998,0.0136998,1973,897,59.1384,-7.06723
756,127,59.0686,7.70331,0.00559505,0.00831739,0.00117868,0.00875679,0.00515565,1.21396,0.00508222,0.0171003,1980,897,59.0686,-7.70332
763,127,58.9772,8.34625,0.0103925,0.0104913,0.00302677,0.0134691,0.00741474,0.793562,0.0077896,0.0276466,1987,897,58.9772,-8.34628
770,127,58.9314,8.98077,0,0,0,0,0,0,0,-1,1994,897,58.9315,-8.9808
777,127,42.703,5.33789,0,0,0,0,0,0,0,-1,2001,897,42.7031,-5.33791
784,127,62.5146,11.5556,0,0,0,0,0,0,0,-1,2008,897,62.5146,-11.5556
791,127,63.4036,12.2262,0,0,0,0,0,0,0,-1,2015,897,63.4036,-12.2262
798,127,0,0,0,0,0,0,0,0,0,-1,2022,897,0,0
805,127,0,0,0,0,0,0,0,0,0,-1,2029,897,0,0
812,127,0,0,0,0,0,0,0,0,0,-1,2036,897,0,0
-700,120,0,0,0,0,0,0,0,0,0,-1,524,904,0,0
-693,120,0,0,0,0,0,0,0,0,0,-1,531,904,0,0
-686,120,0,0,0,0,0,0,0,0,0,-1,538,904,0,0
-679,120,-47.7228,6.57635,0.0386979,0.088986,-0.0385207,0.109843,0.0178412,-1.07455,0.0680653,0.0457032,545,904,-47.7228,-6.57637
-672,120,-47.0586,6.10187,0,0,0,0,0,0,0,-1,552,904,-47.0586,-6.10186
-665,120,-46.2831,5.41382,0,0,0,0,0,0,0,-1,559,904,-46.2831,-5.41384
-658,120,-52.015,7.09094,0.00121958,0.0431907,-0.0401029,0.067467,-0.0230567,-1.02645,0.0543199,0.0482329,566,904,-52.015,-7.09096
-651,120,-52.0843,6.78613,0,0,0,0,0,0,0,-1,573,904,-52.0843,-6.78612
-644,120,-52.0261,6.26129,0,0,0,0,0,0,0,-1,580,904,-52.0261,-6.26126
-637,120,-45.7653,6.59412,0,0,0,0,0,0,0,-1,587,904,-45.7653,-6.5941
-630,120,-45.7197,6.09515,-0.0087023,0.0160996,-0.012764,0.0214949,-0.0140975,-1.17088,0.0206967,0.0375227,594,904,-45.7197,-6.09517
-623,120,-45.8044,5.50446,-0.00959378,0.00952506,-0.00761838,0.0121895,-0.0122582,-1.23436,0.0141149,0.014327,601,904,-45.8044,-5.50448
-616,120,-45.8742,4.86896,-0.0088465,0.00598786,-0.00287789,0.00652661,-0.00938525,-1.38574,0.009236,0.011853,608,904,-45.8742,-4.86898
-609,120,-45.9089,4.23413,-0.00665142,0.00350912,0.00167782,0.00377901,-0.00692131,1.4113,0.006266,0.0147539,615,904,-45.9089,-4.23412
-602,120,-45.9372,3.6073,-0.00551967,0.00180339,0.00302435,0.00289091,-0.00660719,1.22561,0.0056219,0.0176069,622,904,-45.9372,-3.60731
-595,120,-45.8762,3.03247,-0.00524036,0.00126012,0.00240183,0.00205127,-0.00603151,1.25259,0.00485153,0.0344322,629,904,-45.8762,-3.03249
-588,120,-45.8982,2.61176,0,0,0,0,0,0,0,-1,636,904,-45.8982,-2.61178
-581,120,-45.999,1.91138,0,0,0,0,0,0,0,-1,643,904,-45.999,-1.91136
-574,120,-27.5438,0.505066,0,0,0,0,0,0,0,-1,650,904,-27.5438,-0.505085
-567,120,-25.2822,-0.410645,0,0,0,0,0,0,0,-1,657,904,-25.2821,0.410629
-560,120,-27.3358,1.10327,0,0,0,0,0,0,0,-1,664,904,-27.3358,-1.10324
-553,120,-52.045,0.637695,0,0,0,0,0,0,0,-1,671,904,-52.045,-0.63769
-546,120,-52.0714,0.570374,-0.00301583,0.000378795,-0.000609567,0.000484935,-0.00312197,-1.3984,0.00226037,0.0308646,678,904,-52.0713,-0.570377
-539,120,-52.0684,0.48114,-0.0028757,0.000713402,-0.0013113,0.00114145,-0.00330374,-1.25527,0.00266572,0.0244292,685,904,-52.0683,-0.481116
-532,120,-51.9758,0.413696,-0.00113327,0.00050966,-0.00117951,0.00112557,-0.00174918,-1.08957,0.0016727,0.0255608,692,904,-51.9758,-0.413719
-525,120,-51.9904,0.369141,1.33508e-05,-0.000543043,1.69032e-05,1.38638e-05,-0.000543556,0.0303426,0.000367079,0.0355307,699,904,-51.9904,-0.369155
-518,120,-51.963,0.34375,0.000573439,-0.00225806,0.00170231,0.00137178,-0.0030564,0.438522,0.00261755,0.0433425,706,904,-51.963,-0.343753
-511,120,-52.022,0.541626,0.00111893,-0.00427462,0.00318113,0.00259255,-0.00574824,0.433808,0.0049291,0.042124,713,904,-52.022,-0.541636
-504,120,0,0,0,0,0,0,0,0,0,-1,720,904,0,0
-497,120,0,0,0,0,0,0,0,0,0,-1,727,904,0,0
-490,120,0,0,0,0,0,0,0,0,0,-1,734,904,0,0
-483,120,0,0,0,0,0,0,0,0,0,-1,741,904,0,0
-476,120,0,0,0,0,0,0,0,0,0,-1,748,904,0,0
-469,120,0,0,0,0,0,0,0,0,0,-1,755,904,0,0
-462,120,0,0,0,0,0,0,0,0,0,-1,762,904,0,0
-455,120,0,0,0,0,0,0,0,0,0,-1,769,904,0,0
-448,120,0,0,0,0,0,0,0,0,0,-1,776,904,0,0
-441,120,0,0,0,0,0,0,0,0,0,-1,783,904,0,0
-434,120,0,0,0,0,0,0,0,0,0,-1,790,904,0,0
-427,120,0,0,0,0,0,0,0,0,0,-1,797,904,0,0
-420,120,0,0,0,0,0,0,0,0,0,-1,804,904,0,0
-413,120,0,0,0,0,0,0,0,0,0,-1,811,904,0,0
-406,120,0,0,0,0,0,0,0,0,0,-1,818,904,0,0
-399,120,0,0,0,0,0,0,0,0,0,-1,825,904,0,0
-392,120,0,0,0,0,0,0,0,0,0,-1,832,904,0,0
-385,120,0,0,0,0,0,0,0,0,0,-1,839,904,0,0
-378,120,0,0,0,0,0,0,0,0,0,-1,846,904,0,0
-371,120,0,0,0,0,0,0,0,0,0,-1,853,904,0,0
-364,120,0,0,0,0,0,0,0,0,0,-1,860,904,0,0
-357,120,0,0,0,0,0,0,0,0,0,-1,867,904,0,0
-350,120,0,0,0,0,0,0,0,0,0,-1,874,904,0,0
-343,120,0,0,0,0,0,0,0,0,0,-1,881,904,0,0
-336,120,0,0,0,0,0,0,0,0,0,-1,888,904,0,0
-329,120,0,0,0,0,0,0,0,0,0,-1,895,904,0,0
-322,120,0,0,0,0,0,0,0,0,0,-1,902,904,0,0
-315,120,0,0,0,0,0,0,0,0,0,-1,909,904,0,0
-308,120,0,0,0,0,0,0,0,0,0,-1,916,904,0,0
-301,120,0,0,0,0,0,0,0,0,0,-1,923,904,0,0
-294,120,0,0,0,0,0,0,0,0,0,-1,930,904,0,0
-287,120,0,0,0,0,0,0,0,0,0,-1,937,904,0,0
-280,120,0,0,0,0,0,0,0,0,0,-1,944,904,0,0
-273,120,0,0,0,0,0,0,0,0,0,-1,951,904,0,0
-266,120,0,0,0,0,0,0,0,0,0,-1,958,904,0,0
-259,120,0,0,0,0,0,0,0,0,0,-1,965,904,0,0
-252,120,0,0,0,0,0,0,0,0,0,-1,972,904,0,0
-245,120,0,0,0,0,0,0,0,0,0,-1,979,904,0,0
-238,120,0,0,0,0,0,0,0,0,0,-1,986,904,0,0
-231,120,0,0,0,0,0,0,0,0,0,-1,993,904,0,0
-224,120,0,0,0,0,0,0,0,0,0,-1,1000,904,0,0
-217,120,0,0,0,0,0,0,0,0,0,-1,1007,904,0,0
-210,120,0,0,0,0,0,0,0,0,0,-1,1014,904,0,0
-203,120,0,0,0,0,0,0,0,0,0,-1,1021,904,0,0
-196,120,0,0,0,0,0,0,0,0,0,-1,1028,904,0,0
-189,120,0,0,0,0,0,0,0,0,0,-1,1035,904,0,0
-182,120,0,0,0,0,0,0,0,0,0,-1,1042,904,0,0
-175,120,0,0,0,0,0,0,0,0,0,-1,1049,904,0,0
-168,120,0,0,0,0,0,0,0,0,0,-1,1056,904,0,0
-161,120,0,0,0,0,0,0,0,0,0,-1,1063,904,0,0
-154,120,0,0,0,0,0,0,0,0,0,-1,1070,904,0,0
-147,120,0,0,0,0,0,0,0,0,0,-1,1077,904,0,0
-140,120,0,0,0,0,0,0,0,0,0,-1,1084,904,0,0
-133,120,0,0,0,0,0,0,0,0,0,-1,1091,904,0,0
-126,120,0,0,0,0,0,0,0,0,0,-1,1098,904,0,0
-119,120,0,0,0,0,0,0,0,0,0,-1,1105,904,0,0
-112,120,0,0,0,0,0,0,0,0,0,-1,1112,904,0,0
-105,120,0,0,0,0,0,0,0,0,0,-1,1119,904,0,0
-98,120,0,0,0,0,0,0,0,0,0,-1,1126,904,0,0
-91,120,0,0,0,0,0,0,0,0,0,-1,1133,904,0,0
-84,120,0,0,0,0,0,0,0,0,0,-1,1140,904,0,0
-77,120,0,0,0,0,0,0,0,0,0,-1,1147,904,0,0
-70,120,0,0,0,0,0,0,0,0,0,-1,1154,904,0,0
-63,120,0,0,0,0,0,0,0,0,0,-1,1161,904,0,0
-56,120,0,0,0,0,0,0,0,0,0,-1,1168,904,0,0
-49,120,0,0,0,0,0,0,0,0,0,-1,1175,904,0,0
-42,120,0,0,0,0,0,0,0,0,0,-1,1182,904,0,0
-35,120,0,0,0,0,0,0,0,0,0,-1,1189,904,0,0
-28,120,0,0,0,0,0,0,0,0,0,-1,1196,904,0,0
-21,120,0,0,0,0,0,0,0,0,0,-1,1203,904,0,0
-14,120,0,0,0,0,0,0,0,0,0,-1,1210,904,0,0
-7,120,0,0,0,0,0,0,0,0,0,-1,1217,904,0,0
0,120,0,0,0,0,0,0,0,0,0,-1,1224,904,0,0
7,120,0,0,0,0,0,0,0,0,0,-1,1231,904,0,0
14,120,0,0,0,0,0,0,0,0,0,-1,1238,904,0,0
21,120,0,0,0,0,0,0,0,0,0,-1,1245,904,0,0
28,120,0,0,0,0,0,0,0,0,0,-1,1252,904,0,0
35,120,0,0,0,0,0,0,0,0,0,-1,1259,904,0,0
42,120,0,0,0,0,0,0,0,0,0,-1,1266,904,0,0
49,120,0,0,0,0,0,0,0,0,0,-1,1273,904,0,0
56,120,0,0,0,0,0,0,0,0,0,-1,1280,904,0,0
63,120,0,0,0,0,0,0,0,0,0,-1,1287,904,0,0
70,120,0,0,0,0,0,0,0,0,0,-1,1294,904,0,0
77,120,0,0,0,0,0,0,0,0,0,-1,1301,904,0,0
84,120,0,0,0,0,0,0,0,0,0,-1,1308,904,0,0
91,120,0,0,0,0,0,0,0,0,0,-1,1315,904,0,0
98,120,0,0,0,0,0,0,0,0,0,-1,1322,904,0,0
105,120,0,0,0,0,0,0,0,0,0,-1,1329,904,0,0
112,120,0,0,0,0,0,0,0,0,0,-1,1336,904,0,0
119,120,0,0,0,0,0,0,0,0,0,-1,1343,904,0,0
126,120,0,0,0,0,0,0,0,0,0,-1,1350,904,0,0
133,120,0,0,0,0,0,0,0,0,0,-1,1357,904,0,0
140,120,0,0,0,0,0,0,0,0,0,-1,1364,904,0,0
147,120,0,0,0,0,0,0,0,0,0,-1,1371,904,0,0
154,120,0,0,0,0,0,0,0,0,0,-1,1378,904,0,0
161,120,0,0,0,0,0,0,0,0,0,-1,1385,904,0,0
168,120,0,0,0,0,0,0,0,0,0,-1,1392,904,0,0
175,120,0,0,0,0,0,0,0,0,0,-1,1399,904,0,0
182,120,0,0,0,0,0,0,0,0,0,-1,1406,904,0,0
189,120,0,0,0,0,0,0,0,0,0,-1,1413,904,0,0
196,120,0,0,0,0,0,0,0,0,0,-1,1420,904,0,0
203,120,0,0,0,0,0,0,0,0,0,-1,1427,904,0,0
210,120,0,0,0,0,0,0,0,0,0,-1,1434,904,0,0
217,120,0,0,0,0,0,0,0,0,0,-1,1441,904,0,0
224,120,0,0,0,0,0,0,0,0,0,-1,1448,904,0,0
231,120,0,0,0,0,0,0,0,0,0,-1,1455,904,0,0
238,120,0,0,0,0,0,0,0,0,0,-1,1462,904,0,0
245,120,0,0,0,0,0,0,0,0,0,-1,1469,904,0,0
252,120,0,0,0,0,0,0,0,0,0,-1,1476,904,0,0
259,120,0,0,0,0,0,0,0,0,0,-1,1483,904,0,0
266,120,0,0,0,0,0,0,0,0,0,-1,1490,904,0,0
273,120,0,0,0,0,0,0,0,0,0,-1,1497,904,0,0
280,120,0,0,0,0,0,0,0,0,0,-1,1504,904,0,0
287,120,0,0,0,0,0,0,0,0,0,-1,1511,904,0,0
294,120,0,0,0,0,0,0,0,0,0,-1,1518,904,0,0
301,120,0,0,0,0,0,0,0,0,0,-1,1525,904,0,0
308,120,0,0,0,0,0,0,0,0,0,-1,1532,904,0,0
315,120,0,0,0,0,0,0,0,0,0,-1,1539,904,0,0
322,120,0,0,0,0,0,0,0,0,0,-1,1546,904,0,0
329,120,0,0,0,0,0,0,0,0,0,-1,1553,904,0,0
336,120,0,0,0,0,0,0,0,0,0,-1,1560,904,0,0
343,120,0,0,0,0,0,0,0,0,0,-1,1567,904,0,0
350,120,0,0,0,0,0,0,0,0,0,-1,1574,904,0,0
357,120,0,0,0,0,0,0,0,0,0,-1,1581,904,0,0
364,120,0,0,0,0,0,0,0,0,0,-1,1588,904,0,0
371,120,0,0,0,0,0,0,0,0,0,-1,1595,904,0,0
378,120,0,0,0,0,0,0,0,0,0,-1,1602,904,0,0
385,120,0,0,0,0,0,0,0,0,0,-1,1609,904,0,0
392,120,0,0,0,0,0,0,0,0,0,-1,1616,904,0,0
399,120,0,0,0,0,0,0,0,0,0,-1,1623,904,0,0
406,120,0,0,0,0,0,0,0,0,0,-1,1630,904,0,0
413,120,0,0,0,0,0,0,0,0,0,-1,1637,904,0,0
420,120,0,0,0,0,0,0,0,0,0,-1,1644,904,0,0
427,120,0,0,0,0,0,0,0,0,0,-1,1651,904,0,0
434,120,0,0,0,0,0,0,0,0,0,-1,1658,904,0,0
441,120,0,0,0,0,0,0,0,0,0,-1,1665,904,0,0
448,120,0,0,0,0,0,0,0,0,0,-1,1672,904,0,0
455,120,0,0,0,0,0,0,0,0,0,-1,1679,904,0,0
462,120,0,0,0,0,0,0,0,0,0,-1,1686,904,0,0
469,120,0,0,0,0,0,0,0,0,0,-1,1693,904,0,0
476,120,0,0,0,0,0,0,0,0,0,-1,1700,904,0,0
483,120,0,0,0,0,0,0,0,0,0,-1,1707,904,0,0
490,120,0,0,0,0,0,0,0,0,0,-1,1714,904,0,0
497,120,0,0,0,0,0,0,0,0,0,-1,1721,904,0,0
504,120,0,0,0,0,0,0,0,0,0,-1,1728,904,0,0
511,120,0,0,0,0,0,0,0,0,0,-1,1735,904,0,0
518,120,0,0,0,0,0,0,0,0,0,-1,1742,904,0,0
525,120,0,0,0,0,0,0,0,0,0,-1,1749,904,0,0
532,120,0,0,0,0,0,0,0,0,0,-1,1756,904,0,0
539,120,0,0,0,0,0,0,0,0,0,-1,1763,904,0,0
546,120,0,0,0,0,0,0,0,0,0,-1,1770,904,0,0
553,120,0,0,0,0,0,0,0,0,0,-1,1777,904,0,0
560,120,0,0,0,0,0,0,0,0,0,-1,1784,904,0,0
567,120,0,0,0,0,0,0,0,0,0,-1,1791,904,0,0
574,120,0,0,0,0,0,0,0,0,0,-1,1798,904,0,0
581,120,0,0,0,0,0,0,0,0,0,-1,1805,904,0,0
588,120,0,0,0,0,0,0,0,0,0,-1,1812,904,0,0
595,120,0,0,0,0,0,0,0,0,0,-1,1819,904,0,0
602,120,0,0,0,0,0,0,0,0,0,-1,1826,904,0,0
609,120,0,0,0,0,0,0,0,0,0,-1,1833,904,0,0
616,120,0,0,0,0,0,0,0,0,0,-1,1840,904,0,0
623,120,0,0,0,0,0,0,0,0,0,-1,1847,904,0,0
630,120,67.2064,2.26508,0.00194882,8.61281e-05,0.00361505,0.00475057,-0.00271562,0.659325,0.00436365,0.0379377,1854,904,67.2064,-2.26509
637,120,67.387,2.11804,0.00122927,-0.000117778,0.00223778,0.00289269,-0.0017812,0.639221,0.00272378,0.0430444,1861,904,67.3869,-2.11803
644,120,67.5596,2.2428,0,0,0,0,0,0,0,-1,1868,904,67.5596,-2.24277
651,120,67.3245,2.51691,0.000182936,-0.000390345,0.000647666,0.000604557,-0.000811966,0.577067,0.000820747,0.042103,1875,904,67.3244,-2.51689
658,120,67.1949,2.47571,-0.000198603,-0.000335909,0.000153284,-9.93e-05,-0.000435212,0.574852,0.000263357,0.0414262,1882,904,67.1949,-2.47568
665,120,67.0862,2.45856,-0.000501664,-0.00020326,-2.91418e-05,-0.000200441,-0.000504484,-1.47435,0.000293304,0.0379967,1889,904,67.0862,-2.45856
672,120,67.224,2.27032,-0.000793312,-0.000324518,-0.000196394,-0.000253117,-0.000864713,-1.22209,0.000513343,0.0357479,1896,904,67.224,-2.27031
679,120,67.2684,2.22046,-0.000994437,-0.000458148,-0.000338599,-0.000294378,-0.00115821,-1.1203,0.000695111,0.0305448,1903,904,67.2684,-2.22045
686,120,67.2136,2.3028,-0.00133394,-0.00054561,-0.000581402,-0.000237355,-0.0016422,-1.08329,0.00102488,0.0308365,1910,904,67.2136,-2.30281
693,120,67.2484,2.43872,0,0,0,0,0,0,0,-1,1917,904,67.2485,-2.43869
700,120,42.2007,3.00946,0,0,0,0,0,0,0,-1,1924,904,42.2007,-3.00944
707,120,60.0742,3.03601,0,0,0,0,0,0,0,-1,1931,904,60.0743,-3.03599
714,120,60.2418,3.79797,-0.00214569,0.000470408,-0.00125495,0.000975059,-0.00265034,-1.18846,0.00216634,0.0272244,1938,904,60.2419,-3.79799
721,120,60.1509,4.45795,-0.00240484,0.000820232,-0.00139362,0.001339,-0.00292361,-1.21444,0.00251706,0.0231327,1945,904,60.1508,-4.45793
728,120,60.0231,5.12946,-0.00278166,0.00141706,-0.00144373,0.00186557,-0.00323018,-1.26958,0.00297699,0.0158615,1952,904,60.0231,-5.12943
735,120,59.9646,5.72534,-0.00230265,0.00230092,-0.00149981,0.00274643,-0.00274816,-1.28205,0.0031723,0.0136709,1959,904,59.9645,-5.72532
742,120,59.9039,6.42615,-0.000994936,0.00407707,-0.00121103,0.00435139,-0.00126926,-1.34804,0.00340383,0.0143396,1966,904,59.9039,-6.42613
749,120,59.868,7.06659,0.00154744,0.00643735,-0.000207336,0.00644612,0.00153866,-1.5285,0.00388739,0.0113208,1973,904,59.868,-7.06657
756,120,59.7845,7.70642,0.00545598,0.0091975,0.00146163,0.00970079,0.00495269,1.23918,0.00560117,0.0157625,1980,904,59.7845,-7.70643
763,120,59.6536,8.36456,0.0106335,0.0119168,0.0036517,0.0149828,0.00756752,0.872369,0.00865048,0.033951,1987,904,59.6535,-8.36458
770,120,59.5642,9.06055,0,0,0,0,0,0,0,-1,1994,904,59.5643,-9.06056
777,120,59.313,9.57587,0,0,0,0,0,0,0,-1,2001,904,59.3129,-9.57587
784,120,60.7788,13.7254,0,0,0,0,0,0,0,-1,2008,904,60.7789,-13.7254
791,120,65.2546,12.2073,0,0,0,0,0,0,0,-1,2015,904,65.2548,-12.2073
798,120,60.5566,12.1177,0,0,0,0,0,0,0,-1,2022,904,60.5567,-12.1177
805,120,0,0,0,0,0,0,0,0,0,-1,2029,904,0,0
812,120,0,0,0,0,0,0,0,0,0,-1,2036,904,0,0
-700,113,0,0,0,0,0,0,0,0,0,-1,524,911,0,0
-693,113,0,0,0,0,0,0,0,0,0,-1,531,911,0,0
-686,113,0,0,0,0,0,0,0,0,0,-1,538,911,0,0
-679,113,-47.3169,6.43463,0,0,0,0,0,0,0,-1,545,911,-47.3169,-6.43465
-672,113,-46.9104,6.38275,0,0,0,0,0,0,0,-1,552,911,-46.9104,-6.38274
-665,113,-50.2578,7.33032,0,0,0,0,0,0,0,-1,559,911,-50.2579,-7.33033
-658,113,-50.7971,7.33002,0,0,0,0,0,0,0,-1,566,911,-50.7971,-7.33
-651,113,-50.7697,7.15338,0,0,0,0,0,0,0,-1,573,911,-50.7697,-7.15335
-644,113,-46.3535,7.00098,0,0,0,0,0,0,0,-1,580,911,-46.3535,-7.00095
-637,113,-46.4771,6.4552,-0.00822971,0.022038,-0.00869992,0.0243604,-0.0105522,-1.30993,0.0206756,0.046711,587,911,-46.4771,-6.45521
-630,113,-46.4039,6.08289,-0.00898058,0.0166172,-0.00465928,0.0174389,-0.00980228,-1.39623,0.0159324,0.0235913,594,911,-46.4038,-6.08289
-623,113,-46.5222,5.50122,-0.0100995,0.00906106,-0.00222511,0.00931607,-0.0103545,-1.45669,0.0113621,0.0137451,601,911,-46.5222,-5.50124
-616,113,-46.5605,4.87158,-0.00933804,0.00507644,6.67246e-05,0.00507675,-0.00933835,1.56617,0.00844293,0.0123353,608,911,-46.5605,-4.87158
-609,113,-46.5799,4.28876,-0.00678938,0.00277313,0.00289968,0.0035837,-0.00759996,1.29822,0.00659421,0.0124091,615,911,-46.5799,-4.28877
-602,113,-46.6277,3.63483,-0.00540555,0.00124767,0.00343165,0.00270044,-0.00685833,1.17033,0.00569013,0.0207581,622,911,-46.6277,-3.63481
-595,113,-46.6768,3.14966,-0.00503283,0.000804554,0.00255251,0.00176324,-0.00599152,1.21151,0.00469382,0.0283511,629,911,-46.6768,-3.14967
-588,113,-46.6069,2.45874,0,0,0,0,0,0,0,-1,636,911,-46.6068,-2.45871
-581,113,-46.6202,1.80518,0,0,0,0,0,0,0,-1,643,911,-46.6202,-1.8052
-574,113,-46.5879,0.926453,0,0,0,0,0,0,0,-1,650,911,-46.5879,-0.926432
-567,113,-21.8396,0.437378,0,0,0,0,0,0,0,-1,657,911,-21.8396,-0.437351
-560,113,-52.0208,0.666199,0,0,0,0,0,0,0,-1,664,911,-52.0208,-0.666205
-553,113,-52.0378,0.604614,-0.00275111,0.000215778,-8.09235e-05,0.000217984,-0.00275332,-1.54355,0.00191235,0.0461061,671,911,-52.0378,-0.604598
-546,113,-52.0343,0.537781,-0.00278104,0.000501243,-0.00065612,0.00062754,-0.00290734,-1.38063,0.00217776,0.0354752,678,911,-52.0343,-0.537771
-539,113,-52.0259,0.455566,-0.00255857,0.000929998,-0.00107193,0.00123304,-0.00286162,-1.29528,0.00242558,0.0372851,685,911,-52.026,-0.455568
-532,113,-51.9725,0.464111,-0.00104,0.000913408,-0.000281008,0.000953029,-0.00107962,-1.43072,0.00117431,0.0372537,692,911,-51.9725,-0.464119
-525,113,-51.9706,0.532715,-0.000196117,-5.7899e-05,0.00159939,0.00147388,-0.00172789,0.806989,0.00185048,0.0373649,699,911,-51.9706,-0.532733
-518,113,-52.0184,0.609253,0.000225473,-0.00142202,0.00361936,0.00311364,-0.00431019,0.673507,0.00430467,0.0416646,706,911,-52.0184,-0.60924
-511,113,-52.0916,0.65448,0,0,0,0,0,0,0,-1,713,911,-52.0916,-0.654468
-504,113,0,0,0,0,0,0,0,0,0,-1,720,911,0,0
-497,113,0,0,0,0,0,0,0,0,0,-1,727,911,0,0
-490,113,0,0,0,0,0,0,0,0,0,-1,734,911,0,0
-483,113,0,0,0,0,0,0,0,0,0,-1,741,911,0,0
-476,113,0,0,0,0,0,0,0,0,0,-1,748,911,0,0
-469,113,0,0,0,0,0,0,0,0,0,-1,755,911,0,0
-462,113,0,0,0,0,0,0,0,0,0,-1,762,911,0,0
-455,113,0,0,0,0,0,0,0,0,0,-1,769,911,0,0
-448,113,0,0,0,0,0,0,0,0,0,-1,776,911,0,0
-441,113,0,0,0,0,0,0,0,0,0,-1,783,911,0,0
-434,113,0,0,0,0,0,0,0,0,0,-1,790,911,0,0
-427,113,0,0,0,0,0,0,0,0,0,-1,797,911,0,0
-420,113,0,0,0,0,0,0,0,0,0,-1,804,911,0,0
-413,113,0,0,0,0,0,0,0,0,0,-1,811,911,0,0
-406,113,0,0,0,0,0,0,0,0,0,-1,818,911,0,0
-399,113,0,0,0,0,0,0,0,0,0,-1,825,911,0,0
-392,113,0,0,0,0,0,0,0,0,0,-1,832,911,0,0
-385,113,0,0,0,0,0,0,0,0,0,-1,839,911,0,0
-378,113,0,0,0,0,0,0,0,0,0,-1,846,911,0,0
-371,113,0,0,0,0,0,0,0,0,0,-1,853,911,0,0
-364,113,0,0,0,0,0,0,0,0,0,-1,860,911,0,0
-357,113,0,0,0,0,0,0,0,0,0,-1,867,911,0,0
-350,113,0,0,0,0,0,0,0,0,0,-1,874,911,0,0
-343,113,0,0,0,0,0,0,0,0,0,-1,881,911,0,0
-336,113,0,0,0,0,0,0,0,0,0,-1,888,911,0,0
-329,113,0,0,0,0,0,0,0,0,0,-1,895,911,0,0
-322,113,0,0,0,0,0,0,0,0,0,-1,902,911,0,0
-315,113,0,0,0,0,0,0,0,0,0,-1,909,911,0,0
-308,113,0,0,0,0,0,0,0,0,0,-1,916,911,0,0
-301,113,0,0,0,0,0,0,0,0,0,-1,923,911,0,0
-294,113,0,0,0,0,0,0,0,0,0,-1,930,911,0,0
-287,113,0,0,0,0,0,0,0,0,0,-1,937,911,0,0
-280,113,0,0,0,0,0,0,0,0,0,-1,944,911,0,0
-273,113,0,0,0,0,0,0,0,0,0,-1,951,911,0,0
-266,113,0,0,0,0,0,0,0,0,0,-1,958,911,0,0
-259,113,0,0,0,0,0,0,0,0,0,-1,965,911,0,0
-252,113,0,0,0,0,0,0,0,0,0,-1,972,911,0,0
-245,113,0,0,0,0,0,0,0,0,0,-1,979,911,0,0
-238,113,0,0,0,0,0,0,0,0,0,-1,986,911,0,0
-231,113,0,0,0,0,0,0,0,0,0,-1,993,911,0,0
-224,113,0,0,0,0,0,0,0,0,0,-1,1000,911,0,0
-217,113,0,0,0,0,0,0,0,0,0,-1,1007,911,0,0
-210,113,0,0,0,0,0,0,0,0,0,-1,1014,911,0,0
-203,113,0,0,0,0,0,0,0,0,0,-1,1021,911,0,0
-196,113,0,0,0,0,0,0,0,0,0,-1,1028,911,0,0
-189,113,0,0,0,0,0,0,0,0,0,-1,1035,911,0,0
-182,113,0,0,0,0,0,0,0,0,0,-1,1042,911,0,0
-175,113,0,0,0,0,0,0,0,0,0,-1,1049,911,0,0
-168,113,0,0,0,0,0,0,0,0,0,-1,1056,911,0,0
-161,113,0,0,0,0,0,0,0,0,0,-1,1063,911,0,0
-154,113,0,0,0,0,0,0,0,0,0,-1,1070,911,0,0
-147,113,0,0,0,0,0,0,0,0,0,-1,1077,911,0,0
-140,113,0,0,0,0,0,0,0,0,0,-1,1084,911,0,0
-133,113,0,0,0,0,0,0,0,0,0,-1,1091,911,0,0
-126,113,0,0,0,0,0,0,0,0,0,-1,1098,911,0,0
-119,113,0,0,0,0,0,0,0,0,0,-1,1105,911,0,0
-112,113,0,0,0,0,0,0,0,0,0,-1,1112,911,0,0
-105,113,0,0,0,0,0,0,0,0,0,-1,1119,911,0,0
-98,113,0,0,0,0,0,0,0,0,0,-1,1126,911,0,0
-91,113,0,0,0,0,0,0,0,0,0,-1,1133,911,0,0
-84,113,0,0,0,0,0,0,0,0,0,-1,1140,911,0,0
-77,113,0,0,0,0,0,0,0,0,0,-1,1147,911,0,0
-70,113,0,0,0,0,0,0,0,0,0,-1,1154,911,0,0
-63,113,0,0,0,0,0,0,0,0,0,-1,1161,911,0,0
-56,113,0,0,0,0,0,0,0,0,0,-1,1168,911,0,0
-49,113,0,0,0,0,0,0,0,0,0,-1,1175,911,0,0
-42,113,0,0,0,0,0,0,0,0,0,-1,1182,911,0,0
-35,113,0,0,0,0,0,0,0,0,0,-1,1189,911,0,0
-28,113,0,0,0,0,0,0,0,0,0,-1,1196,911,0,0
-21,113,0,0,0,0,0,0,0,0,0,-1,1203,911,0,0
-14,113,0,0,0,0,0,0,0,0,0,-1,1210,911,0,0
-7,113,0,0,0,0,0,0,0,0,0,-1,1217,911,0,0
0,113,0,0,0,0,0,0,0,0,0,-1,1224,911,0,0
7,113,0,0,0,0,0,0,0,0,0,-1,1231,911,0,0
14,113,0,0,0,0,0,0,0,0,0,-1,1238,911,0,0
21,113,0,0,0,0,0,0,0,0,0,-1,1245,911,0,0
28,113,0,0,0,0,0,0,0,0,0,-1,1252,911,0,0
35,113,0,0,0,0,0,0,0,0,0,-1,1259,911,0,0
42,113,0,0,0,0,0,0,0,0,0,-1,1266,911,0,0
49,113,0,0,0,0,0,0,0,0,0,-1,1273,911,0,0
56,113,0,0,0,0,0,0,0,0,0,-1,1280,911,0,0
63,113,0,0,0,0,0,0,0,0,0,-1,1287,911,0,0
70,113,0,0,0,0,0,0,0,0,0,-1,1294,911,0,0
77,113,0,0,0,0,0,0,0,0,0,-1,1301,911,0,0
84,113,0,0,0,0,0,0,0,0,0,-1,1308,911,0,0
91,113,0,0,0,0,0,0,0,0,0,-1,1315,911,0,0
98,113,0,0,0,0,0,0,0,0,0,-1,1322,911,0,0
105,113,0,0,0,0,0,0,0,0,0,-1,1329,911,0,0
112,113,0,0,0,0,0,0,0,0,0,-1,1336,911,0,0
119,113,0,0,0,0,0,0,0,0,0,-1,1343,911,0,0
126,113,0,0,0,0,0,0,0,0,0,-1,1350,911,0,0
133,113,0,0,0,0,0,0,0,0,0,-1,1357,911,0,0
140,113,0,0,0,0,0,0,0,0,0,-1,1364,911,0,0
147,113,0,0,0,0,0,0,0,0,0,-1,1371,911,0,0
154,113,0,0,0,0,0,0,0,0,0,-1,1378,911,0,0
161,113,0,0,0,0,0,0,0,0,0,-1,1385,911,0,0
168,113,0,0,0,0,0,0,0,0,0,-1,1392,911,0,0
175,113,0,0,0,0,0,0,0,0,0,-1,1399,911,0,0
182,113,0,0,0,0,0,0,0,0,0,-1,1406,911,0,0
189,113,0,0,0,0,0,0,0,0,0,-1,1413,911,0,0
196,113,0,0,0,0,0,0,0,0,0,-1,1420,911,0,0
203,113,0,0,0,0,0,0,0,0,0,-1,1427,911,0,0
210,113,0,0,0,0,0,0,0,0,0,-1,1434,911,0,0
217,113,0,0,0,0,0,0,0,0,0,-1,1441,911,0,0
224,113,0,0,0,0,0,0,0,0,0,-1,1448,911,0,0
231,113,0,0,0,0,0,0,0,0,0,-1,1455,911,0,0
238,113,0,0,0,0,0,0,0,0,0,-1,1462,911,0,0
245,113,0,0,0,0,0,0,0,0,0,-1,1469,911,0,0
252,113,0,0,0,0,0,0,0,0,0,-1,1476,911,0,0
259,113,0,0,0,0,0,0,0,0,0,-1,1483,911,0,0
266,113,0,0,0,0,0,0,0,0,0,-1,1490,911,0,0
273,113,0,0,0,0,0,0,0,0,0,-1,1497,911,0,0
280,113,0,0,0,0,0,0,0,0,0,-1,1504,911,0,0
287,113,0,0,0,0,0,0,0,0,0,-1,1511,911,0,0
294,113,0,0,0,0,0,0,0,0,0,-1,1518,911,0,0
301,113,0,0,0,0,0,0,0,0,0,-1,1525,911,0,0
308,113,0,0,0,0,0,0,0,0,0,-1,1532,911,0,0
315,113,0,0,0,0,0,0,0,0,0,-1,1539,911,0,0
322,113,0,0,0,0,0,0,0,0,0,-1,1546,911,0,0
329,113,0,0,0,0,0,0,0,0,0,-1,1553,911,0,0
336,113,0,0,0,0,0,0,0,0,0,-1,1560,911,0,0
343,113,0,0,0,0,0,0,0,0,0,-1,1567,911,0,0
350,113,0,0,0,0,0,0,0,0,0,-1,1574,911,0,0
357,113,0,0,0,0,0,0,0,0,0,-1,1581,911,0,0
364,113,0,0,0,0,0,0,0,0,0,-1,1588,911,0,0
371,113,0,0,0,0,0,0,0,0,0,-1,1595,911,0,0
378,113,0,0,0,0,0,0,0,0,0,-1,1602,911,0,0
385,113,0,0,0,0,0,0,0,0,0,-1,1609,911,0,0
392,113,0,0,0,0,0,0,0,0,0,-1,1616,911,0,0
399,113,0,0,0,0,0,0,0,0,0,-1,1623,911,0,0
406,113,0,0,0,0,0,0,0,0,0,-1,1630,911,0,0
413,113,0,0,0,0,0,0,0,0,0,-1,1637,911,0,0
420,113,0,0,0,0,0,0,0,0,0,-1,1644,911,0,0
427,113,0,0,0,0,0,0,0,0,0,-1,1651,911,0,0
434,113,0,0,0,0,0,0,0,0,0,-1,1658,911,0,0
441,113,0,0,0,0,0,0,0,0,0,-1,1665,911,0,0
448,113,0,0,0,0,0,0,0,0,0,-1,1672,911,0,0
455,113,0,0,0,0,0,0,0,0,0,-1,1679,911,0,0
462,113,0,0,0,0,0,0,0,0,0,-1,1686,911,0,0
469,113,0,0,0,0,0,0,0,0,0,-1,1693,911,0,0
476,113,0,0,0,0,0,0,0,0,0,-1,1700,911,0,0
483,113,0,0,0,0,0,0,0,0,0,-1,1707,911,0,0
490,113,0,0,0,0,0,0,0,0,0,-1,1714,911,0,0
497,113,0,0,0,0,0,0,0,0,0,-1,1721,911,0,0
504,113,0,0,0,0,0,0,0,0,0,-1,1728,911,0,0
511,113,0,0,0,0,0,0,0,0,0,-1,1735,911,0,0
518,113,0,0,0,0,0,0,0,0,0,-1,1742,911,0,0
525,113,0,0,0,0,0,0,0,0,0,-1,1749,911,0,0
532,113,0,0,0,0,0,0,0,0,0,-1,1756,911,0,0
539,113,0,0,0,0,0,0,0,0,0,-1,1763,911,0,0
546,113,0,0,0,0,0,0,0,0,0,-1,1770,911,0,0
553,113,0,0,0,0,0,0,0,0,0,-1,1777,911,0,0
560,113,0,0,0,0,0,0,0,0,0,-1,1784,911,0,0
567,113,0,0,0,0,0,0,0,0,0,-1,1791,911,0,0
574,113,0,0,0,0,0,0,0,0,0,-1,1798,911,0,0
581,113,0,0,0,0,0,0,0,0,0,-1,1805,911,0,0
588,113,0,0,0,0,0,0,0,0,0,-1,1812,911,0,0
595,113,0,0,0,0,0,0,0,0,0,-1,1819,911,0,0
602,113,0,0,0,0,0,0,0,0,0,-1,1826,911,0,0
609,113,0,0,0,0,0,0,0,0,0,-1,1833,911,0,0
616,113,0,0,0,0,0,0,0,0,0,-1,1840,911,0,0
623,113,0,0,0,0,0,0,0,0,0,-1,1847,911,0,0
630,113,67.3359,2.07379,0.0020052,0.000725849,0.00318696,0.00461604,-0.00188499,0.686356,0.0038622,0.0392267,1854,911,67.3359,-2.07379
637,113,67.4664,2.23993,0.00128696,0.000496932,0.00188869,0.00282151,-0.00103761,0.68231,0.00230605,0.0419943,1861,911,67.4665,-2.23991
644,113,67.447,2.32623,0.000702865,0.000276837,0.00107016,0.00158101,-0.000601307,0.687158,0.00130159,0.0408479,1868,911,67.4471,-2.32625
651,113,67.3153,2.32782,0.000254196,0.000177061,0.000518361,0.000735422,-0.000304165,0.748265,0.000617181,0.0423733,1875,911,67.3153,-2.32783
658,113,67.2402,2.29462,-0.000107012,0.000210944,0.000191726,0.00030103,-0.000197098,1.13154,0.000289673,0.0422005,1882,911,67.2403,-2.29461
665,113,67.2476,2.36609,-0.000347492,0.000301005,0.000111838,0.000319751,-0.000366238,1.40473,0.000396359,0.0369965,1889,911,67.2476,-2.36607
672,113,67.2493,2.35516,-0.000666162,0.000125696,4.08128e-05,0.000127794,-0.00066826,1.51944,0.00049365,0.0357171,1896,911,67.2493,-2.35519
679,113,67.246,2.22388,-0.000926518,-0.000116218,-2.64458e-05,-0.000115356,-0.00092738,-1.53821,0.000583614,0.0308965,1903,911,67.246,-2.22386
686,113,67.2611,2.34088,-0.0012827,-0.000285698,-0.00026145,-0.000221297,-0.0013471,-1.32928,0.000834142,0.0263559,1910,911,67.2611,-2.3409
693,113,67.1539,2.44592,0,0,0,0,0,0,0,-1,1917,911,67.1539,-2.44593
700,113,43.897,2.79669,0,0,0,0,0,0,0,-1,1924,911,43.897,-2.79671
707,113,60.6649,3.11176,0,0,0,0,0,0,0,-1,1931,911,60.6649,-3.11176
714,113,60.7249,3.75586,0,0,0,0,0,0,0,-1,1938,911,60.7248,-3.75584
721,113,60.715,4.48163,0,0,0,0,0,0,0,-1,1945,911,60.715,-4.48161
728,113,60.7716,5.11194,-0.00291156,0.00158759,-0.00122049,0.00189735,-0.00322132,-1.32225,0.00298803,0.0255453,1952,911,60.7716,-5.11196
735,113,60.6742,5.78235,-0.00249933,0.00247185,-0.00133376,0.00280709,-0.00283457,-1.32455,0.00325723,0.0211342,1959,911,60.6742,-5.78235
742,113,60.593,6.4024,-0.00133769,0.00429272,-0.00118904,0.00453352,-0.0015785,-1.37098,0.00366367,0.0128656,1966,911,60.593,-6.40238
749,113,60.5919,7.05219,0.00111441,0.00690339,-0.000286896,0.00691757,0.00110022,-1.5214,0.00429224,0.0103763,1973,911,60.5919,-7.05221
756,113,60.5089,7.74353,0.0050128,0.010109,0.00141871,0.0104774,0.00464447,1.31678,0.00606206,0.0166277,1980,911,60.5089,-7.74352
763,113,60.3243,8.57941,0.0101822,0.0133886,0.0038042,0.0159136,0.00765714,0.984821,0.00918989,0.0389793,1987,911,60.3244,-8.57941
770,113,60.2026,9.41925,0,0,0,0,0,0,0,-1,1994,911,60.2025,-9.41928
777,113,58.1719,9.65338,0,0,0,0,0,0,0,-1,2001,911,58.172,-9.6534
784,113,59.4839,11.6239,0,0,0,0,0,0,0,-1,2008,911,59.4839,-11.6239
791,113,63.7207,8.32813,0,0,0,0,0,0,0,-1,2015,911,63.7207,-8.32813
798,113,60.5801,10.2076,0,0,0,0,0,0,0,-1,2022,911,60.58,-10.2077
805,113,0,0,0,0,0,0,0,0,0,-1,2029,911,0,0
812,113,0,0,0,0,0,0,0,0,0,-1,2036,911,0,0
-700,106,0,0,0,0,0,0,0,0,0,-1,524,918,0,0
-693,106,0,0,0,0,0,0,0,0,0,-1,531,918,0,0
-686,106,0,0,0,0,0,0,0,0,0,-1,538,918,0,0
-679,106,-47.396,6.35834,0,0,0,0,0,0,0,-1,545,918,-47.396,-6.35832
-672,106,-47.1388,6.45782,0,0,0,0,0,0,0,-1,552,918,-47.1388,-6.45783
-665,106,-49.2777,7.60559,0,0,0,0,0,0,0,-1,559,918,-49.2777,-7.60556
-658,106,-49.5524,7.59045,0,0,0,0,0,0,0,-1,566,918,-49.5524,-7.59045
-651,106,-49.5441,7.4411,0,0,0,0,0,0,0,-1,573,918,-49.5441,-7.44109
-644,106,-46.1932,7.19037,0,0,0,0,0,0,0,-1,580,918,-46.1932,-7.19037
-637,106,-46.6027,6.64813,-0.00612185,0.0236411,-0.000504679,0.0236497,-0.0061304,-1.55385,0.0181582,0.0371654,587,918,-46.6027,-6.64812
-630,106,-47.0225,6.16656,-0.00751481,0.0176761,0.00109775,0.0177238,-0.00756256,1.52733,0.0149868,0.0181134,594,918,-47.0225,-6.16658
-623,106,-47.2274,5.45972,-0.00921786,0.00930987,0.00120894,0.00938842,-0.00929642,1.50591,0.0107877,0.0193313,601,918,-47.2274,-5.45973
-616,106,-47.296,4.82489,-0.00890147,0.00515273,0.0015889,0.00533013,-0.00907887,1.45961,0.00841236,0.0194485,608,918,-47.296,-4.82491
-609,106,-47.268,4.27808,-0.00643026,0.00295962,0.00317655,0.00393327,-0.00740391,1.27338,0.00664697,0.0139255,615,918,-47.268,-4.27807
-602,106,-47.3042,3.65314,-0.00503868,0.00155938,0.00325629,0.00289576,-0.00637506,1.18136,0.00547672,0.0225632,622,918,-47.3042,-3.65314
-595,106,-47.4651,3.06567,-0.00459483,0.00113182,0.00227917,0.00192818,-0.00539118,1.23465,0.00438066,0.0276207,629,918,-47.4652,-3.06567
-588,106,-47.5787,2.4494,0,0,0,0,0,0,0,-1,636,918,-47.5787,-2.44938
-581,106,-47.2975,1.73248,0,0,0,0,0,0,0,-1,643,918,-47.2975,-1.73251
-574,106,-47.4756,1.06512,0,0,0,0,0,0,0,-1,650,918,-47.4757,-1.06511
-567,106,-41.3706,0.420776,0,0,0,0,0,0,0,-1,657,918,-41.3706,-0.420794
-560,106,-51.9363,0.749451,0,0,0,0,0,0,0,-1,664,918,-51.9363,-0.749454
-553,106,-52.0416,0.583069,-0.00248743,0.000540667,-0.000450011,0.000606129,-0.0025529,-1.42634,0.00193587,0.0342505,671,918,-52.0416,-0.583041
-546,106,-52.1524,0.333862,-0.00249472,0.000904859,-0.000849259,0.00110521,-0.00269507,-1.33912,0.00225718,0.0380826,678,918,-52.1524,-0.333855
-539,106,-52.2125,0.220825,-0.00220164,0.0013176,-0.000894225,0.00153178,-0.00241582,-1.33571,0.00229812,0.0402795,685,918,-52.2124,-0.220841
-532,106,-52.1379,0.151489,-0.000925641,0.00122852,0.000415153,0.00130576,-0.00100288,1.38685,0.00133671,0.0407351,692,918,-52.1379,-0.151497
-525,106,-51.9178,0.59668,-0.000306916,0.000331033,0.00268159,0.00271255,-0.00268843,0.844595,0.00311827,0.0389676,699,918,-51.9178,-0.596707
-518,106,-51.9695,0.699097,2.73277e-05,-0.000658874,0.00497362,0.00466967,-0.00530122,0.750961,0.00576054,0.0392627,706,918,-51.9695,-0.699124
-511,106,0,0,0,0,0,0,0,0,0,-1,713,918,0,0
-504,106,0,0,0,0,0,0,0,0,0,-1,720,918,0,0
-497,106,0,0,0,0,0,0,0,0,0,-1,727,918,0,0
-490,106,0,0,0,0,0,0,0,0,0,-1,734,918,0,0
-483,106,0,0,0,0,0,0,0,0,0,-1,741,918,0,0
-476,106,0,0,0,0,0,0,0,0,0,-1,748,918,0,0
-469,106,0,0,0,0,0,0,0,0,0,-1,755,918,0,0
-462,106,0,0,0,0,0,0,0,0,0,-1,762,918,0,0
-455,106,0,0,0,0,0,0,0,0,0,-1,769,918,0,0
-448,106,0,0,0,0,0,0,0,0,0,-1,776,918,0,0
-441,106,0,0,0,0,0,0,0,0,0,-1,783,918,0,0
-434,106,0,0,0,0,0,0,0,0,0,-1,790,918,0,0
-427,106,0,0,0,0,0,0,0,0,0,-1,797,918,0,0
-420,106,0,0,0,0,0,0,0,0,0,-1,804,918,0,0
-413,106,0,0,0,0,0,0,0,0,0,-1,811,918,0,0
-406,106,0,0,0,0,0,0,0,0,0,-1,818,918,0,0
-399,106,0,0,0,0,0,0,0,0,0,-1,825,918,0,0
-392,106,0,0,0,0,0,0,0,0,0,-1,832,918,0,0
-385,106,0,0,0,0,0,0,0,0,0,-1,839,918,0,0
-378,106,0,0,0,0,0,0,0,0,0,-1,846,918,0,0
-371,106,0,0,0,0,0,0,0,0,0,-1,853,918,0,0
-364,106,0,0,0,0,0,0,0,0,0,-1,860,918,0,0
-357,106,0,0,0,0,0,0,0,0,0,-1,867,918,0,0
-350,106,0,0,0,0,0,0,0,0,0,-1,874,918,0,0
-343,106,0,0,0,0,0,0,0,0,0,-1,881,918,0,0
-336,106,0,0,0,0,0,0,0,0,0,-1,888,918,0,0
-329,106,0,0,0,0,0,0,0,0,0,-1,895,918,0,0
-322,106,0,0,0,0,0,0,0,0,0,-1,902,918,0,0
-315,106,0,0,0,0,0,0,0,0,0,-1,909,918,0,0
-308,106,0,0,0,0,0,0,0,0,0,-1,916,918,0,0
-301,106,0,0,0,0,0,0,0,0,0,-1,923,918,0,0
-294,106,0,0,0,0,0,0,0,0,0,-1,930,918,0,0
-287,106,0,0,0,0,0,0,0,0,0,-1,937,918,0,0
-280,106,0,0,0,0,0,0,0,0,0,-1,944,918,0,0
-273,106,0,0,0,0,0,0,0,0,0,-1,951,918,0,0
-266,106,0,0,0,0,0,0,0,0,0,-1,958,918,0,0
-259,106,0,0,0,0,0,0,0,0,0,-1,965,918,0,0
-252,106,0,0,0,0,0,0,0,0,0,-1,972,918,0,0
-245,106,0,0,0,0,0,0,0,0,0,-1,979,918,0,0
-238,106,0,0,0,0,0,0,0,0,0,-1,986,918,0,0
-231,106,0,0,0,0,0,0,0,0,0,-1,993,918,0,0
-224,106,0,0,0,0,0,0,0,0,0,-1,1000,918,0,0
-217,106,0,0,0,0,0,0,0,0,0,-1,1007,918,0,0
-210,106,0,0,0,0,0,0,0,0,0,-1,1014,918,0,0
-203,106,0,0,0,0,0,0,0,0,0,-1,1021,918,0,0
-196,106,0,0,0,0,0,0,0,0,0,-1,1028,918,0,0
-189,106,0,0,0,0,0,0,0,0,0,-1,1035,918,0,0
-182,106,0,0,0,0,0,0,0,0,0,-1,1042,918,0,0
-175,106,0,0,0,0,0,0,0,0,0,-1,1049,918,0,0
-168,106,0,0,0,0,0,0,0,0,0,-1,1056,918,0,0
-161,106,0,0,0,0,0,0,0,0,0,-1,1063,918,0,0
-154,106,0,0,0,0,0,0,0,0,0,-1,1070,918,0,0
-147,106,0,0,0,0,0,0,0,0,0,-1,1077,918,0,0
-140,106,0,0,0,0,0,0,0,0,0,-1,1084,918,0,0
-133,106,0,0,0,0,0,0,0,0,0,-1,1091,918,0,0
-126,106,0,0,0,0,0,0,0,0,0,-1,1098,918,0,0
-119,106,0,0,0,0,0,0,0,0,0,-1,1105,918,0,0
-112,106,0,0,0,0,0,0,0,0,0,-1,1112,918,0,0
-105,106,0,0,0,0,0,0,0,0,0,-1,1119,918,0,0
-98,106,0,0,0,0,0,0,0,0,0,-1,1126,918,0,0
-91,106,0,0,0,0,0,0,0,0,0,-1,1133,918,0,0
-84,106,0,0,0,0,0,0,0,0,0,-1,1140,918,0,0
-77,106,0,0,0,0,0,0,0,0,0,-1,1147,918,0,0
-70,106,0,0,0,0,0,0,0,0,0,-1,1154,918,0,0
-63,106,0,0,0,0,0,0,0,0,0,-1,1161,918,0,0
-56,106,0,0,0,0,0,0,0,0,0,-1,1168,918,0,0
-49,106,0,0,0,0,0,0,0,0,0,-1,1175,918,0,0
-42,106,0,0,0,0,0,0,0,0,0,-1,1182,918,0,0
-35,106,0,0,0,0,0,0,0,0,0,-1,1189,918,0,0
-28,106,0,0,0,0,0,0,0,0,0,-1,1196,918,0,0
-21,106,0,0,0,0,0,0,0,0,0,-1,1203,918,0,0
-14,106,0,0,0,0,0,0,0,0,0,-1,1210,918,0,0
-7,106,0,0,0,0,0,0,0,0,0,-1,1217,918,0,0
0,106,0,0,0,0,0,0,0,0,0,-1,1224,918,0,0
7,106,0,0,0,0,0,0,0,0,0,-1,1231,918,0,0
14,106,0,0,0,0,0,0,0,0,0,-1,1238,918,0,0
21,106,0,0,0,0,0,0,0,0,0,-1,1245,918,0,0
28,106,0,0,0,0,0,0,0,0,0,-1,1252,918,0,0
35,106,0,0,0,0,0,0,0,0,0,-1,1259,918,0,0
42,106,0,0,0,0,0,0,0,0,0,-1,1266,918,0,0
49,106,0,0,0,0,0,0,0,0,0,-1,1273,918,0,0
56,106,0,0,0,0,0,0,0,0,0,-1,1280,918,0,0
63,106,0,0,0,0,0,0,0,0,0,-1,1287,918,0,0
70,106,0,0,0,0,0,0,0,0,0,-1,1294,918,0,0
77,106,0,0,0,0,0,0,0,0,0,-1,1301,918,0,0
84,106,0,0,0,0,0,0,0,0,0,-1,1308,918,0,0
91,106,0,0,0,0,0,0,0,0,0,-1,1315,918,0,0
98,106,0,0,0,0,0,0,0,0,0,-1,1322,918,0,0
105,106,0,0,0,0,0,0,0,0,0,-1,1329,918,0,0
112,106,0,0,0,0,0,0,0,0,0,-1,1336,918,0,0
119,106,0,0,0,0,0,0,0,0,0,-1,1343,918,0,0
126,106,0,0,0,0,0,0,0,0,0,-1,1350,918,0,0
133,106,0,0,0,0,0,0,0,0,0,-1,1357,918,0,0
140,106,0,0,0,0,0,0,0,0,0,-1,1364,918,0,0
147,106,0,0,0,0,0,0,0,0,0,-1,1371,918,0,0
154,106,0,0,0,0,0,0,0,0,0,-1,1378,918,0,0
161,106,0,0,0,0,0,0,0,0,0,-1,1385,918,0,0
168,106,0,0,0,0,0,0,0,0,0,-1,1392,918,0,0
175,106,0,0,0,0,0,0,0,0,0,-1,1399,918,0,0
182,106,0,0,0,0,0,0,0,0,0,-1,1406,918,0,0
189,106,0,0,0,0,0,0,0,0,0,-1,1413,918,0,0
196,106,0,0,0,0,0,0,0,0,0,-1,1420,918,0,0
203,106,0,0,0,0,0,0,0,0,0,-1,1427,918,0,0
210,106,0,0,0,0,0,0,0,0,0,-1,1434,918,0,0
217,106,0,0,0,0,0,0,0,0,0,-1,1441,918,0,0
224,106,0,0,0,0,0,0,0,0,0,-1,1448,918,0,0
231,106,0,0,0,0,0,0,0,0,0,-1,1455,918,0,0
238,106,0,0,0,0,0,0,0,0,0,-1,1462,918,0,0
245,106,0,0,0,0,0,0,0,0,0,-1,1469,918,0,0
252,106,0,0,0,0,0,0,0,0,0,-1,1476,918,0,0
259,106,0,0,0,0,0,0,0,0,0,-1,1483,918,0,0
266,106,0,0,0,0,0,0,0,0,0,-1,1490,918,0,0
273,106,0,0,0,0,0,0,0,0,0,-1,1497,918,0,0
280,106,0,0,0,0,0,0,0,0,0,-1,1504,918,0,0
287,106,0,0,0,0,0,0,0,0,0,-1,1511,918,0,0
294,106,0,0,0,0,0,0,0,0,0,-1,1518,918,0,0
301,106,0,0,0,0,0,0,0,0,0,-1,1525,918,0,0
308,106,0,0,0,0,0,0,0,0,0,-1,1532,918,0,0
315,106,0,0,0,0,0,0,0,0,0,-1,1539,918,0,0
322,106,0,0,0,0,0,0,0,0,0,-1,1546,918,0,0
329,106,0,0,0,0,0,0,0,0,0,-1,1553,918,0,0
336,106,0,0,0,0,0,0,0,0,0,-1,1560,918,0,0
343,106,0,0,0,0,0,0,0,0,0,-1,1567,918,0,0
350,106,0,0,0,0,0,0,0,0,0,-1,1574,918,0,0
357,106,0,0,0,0,0,0,0,0,0,-1,1581,918,0,0
364,106,0,0,0,0,0,0,0,0,0,-1,1588,918,0,0
371,106,0,0,0,0,0,0,0,0,0,-1,1595,918,0,0
378,106,0,0,0,0,0,0,0,0,0,-1,1602,918,0,0
385,106,0,0,0,0,0,0,0,0,0,-1,1609,918,0,0
392,106,0,0,0,0,0,0,0,0,0,-1,1616,918,0,0
399,106,0,0,0,0,0,0,0,0,0,-1,1623,918,0,0
406,106,0,0,0,0,0,0,0,0,0,-1,1630,918,0,0
413,106,0,0,0,0,0,0,0,0,0,-1,1637,918,0,0
420,106,0,0,0,0,0,0,0,0,0,-1,1644,918,0,0
427,106,0,0,0,0,0,0,0,0,0,-1,1651,918,0,0
434,106,0,0,0,0,0,0,0,0,0,-1,1658,918,0,0
441,106,0,0,0,0,0,0,0,0,0,-1,1665,918,0,0
448,106,0,0,0,0,0,0,0,0,0,-1,1672,918,0,0
455,106,0,0,0,0,0,0,0,0,0,-1,1679,918,0,0
462,106,0,0,0,0,0,0,0,0,0,-1,1686,918,0,0
469,106,0,0,0,0,0,0,0,0,0,-1,1693,918,0,0
476,106,0,0,0,0,0,0,0,0,0,-1,1700,918,0,0
483,106,0,0,0,0,0,0,0,0,0,-1,1707,918,0,0
490,106,0,0,0,0,0,0,0,0,0,-1,1714,918,0,0
497,106,0,0,0,0,0,0,0,0,0,-1,1721,918,0,0
504,106,0,0,0,0,0,0,0,0,0,-1,1728,918,0,0
511,106,0,0,0,0,0,0,0,0,0,-1,1735,918,0,0
518,106,0,0,0,0,0,0,0,0,0,-1,1742,918,0,0
525,106,0,0,0,0,0,0,0,0,0,-1,1749,918,0,0
532,106,0,0,0,0,0,0,0,0,0,-1,1756,918,0,0
539,106,0,0,0,0,0,0,0,0,0,-1,1763,918,0,0
546,106,0,0,0,0,0,0,0,0,0,-1,1770,918,0,0
553,106,0,0,0,0,0,0,0,0,0,-1,1777,918,0,0
560,106,0,0,0,0,0,0,0,0,0,-1,1784,918,0,0
567,106,0,0,0,0,0,0,0,0,0,-1,1791,918,0,0
574,106,0,0,0,0,0,0,0,0,0,-1,1798,918,0,0
581,106,0,0,0,0,0,0,0,0,0,-1,1805,918,0,0
588,106,0,0,0,0,0,0,0,0,0,-1,1812,918,0,0
595,106,0,0,0,0,0,0,0,0,0,-1,1819,918,0,0
602,106,0,0,0,0,0,0,0,0,0,-1,1826,918,0,0
609,106,0,0,0,0,0,0,0,0,0,-1,1833,918,0,0
616,106,0,0,0,0,0,0,0,0,0,-1,1840,918,0,0
623,106,0,0,0,0,0,0,0,0,0,-1,1847,918,0,0
630,106,67.2633,2.2301,0.00176443,0.000896931,0.0023777,0.00374762,-0.00108626,0.695179,0.00292844,0.0408473,1854,918,67.2634,-2.23012
637,106,67.2834,2.53827,0.00110089,0.000663736,0.00131414,0.00221451,-0.000449881,0.702989,0.00164691,0.0418099,1861,918,67.2835,-2.53827
644,106,67.2925,2.55231,0.000577748,0.000469338,0.000706189,0.00123181,-0.000184723,0.747095,0.0008892,0.0378648,1868,918,67.2925,-2.55229
651,106,67.2527,2.43738,0.000189934,0.000420088,0.000353741,0.000676999,-6.69778e-05,0.942656,0.000475235,0.0390363,1875,918,67.2527,-2.43741
658,106,67.2651,2.37604,-0.00010421,0.000516572,0.000258551,0.00061015,-0.000197789,1.22353,0.000486294,0.041304,1882,918,67.2652,-2.37604
665,106,67.2346,2.34241,-0.000256989,0.000655135,0.000355284,0.00077719,-0.000379043,1.23989,0.000680616,0.041177,1889,918,67.2347,-2.34239
672,106,67.2341,2.26727,-0.00057148,0.000491699,0.000432505,0.000645418,-0.000725199,1.2293,0.000791773,0.0408422,1896,918,67.2342,-2.26725
679,106,67.2363,2.22906,-0.00088006,0.000187176,0.000459901,0.000358013,-0.0010509,1.21513,0.000845588,0.036923,1903,918,67.2364,-2.22904
686,106,67.2544,2.38361,-0.00123328,-5.2729e-05,0.000232835,-8.46724e-06,-0.00127754,1.38294,0.000848885,0.0313634,1910,918,67.2544,-2.38363
693,106,67.157,2.45575,-0.00163733,-3.98663e-05,-5.1985e-05,-3.81764e-05,-0.00163902,-1.5383,0.00108018,0.0386878,1917,918,67.157,-2.45574
700,106,67.2057,2.54523,0,0,0,0,0,0,0,-1,1924,918,67.2056,-2.54525
707,106,59.4137,3.22595,0,0,0,0,0,0,0,-1,1931,918,59.4136,-3.22598
714,106,61.1808,3.6792,0,0,0,0,0,0,0,-1,1938,918,61.1807,-3.67921
721,106,61.4608,4.46783,-0.0026608,0.00130921,-0.000897887,0.00150284,-0.00285443,-1.3584,0.0025557,0.0333234,1945,918,61.4609,-4.46781
728,106,61.5366,5.17761,-0.00299875,0.00187463,-0.000912593,0.00203991,-0.00316404,-1.39162,0.00302778,0.0317431,1952,918,61.5366,-5.17763
735,106,61.4304,5.82153,-0.00262273,0.00278386,-0.00109581,0.00299751,-0.00283638,-1.37824,0.00336863,0.0267215,1959,918,61.4305,-5.82155
742,106,61.3195,6.39453,-0.00165461,0.0045992,-0.00110907,0.00479006,-0.00184547,-1.40037,0.00395476,0.0138144,1966,918,61.3195,-6.39451
749,106,61.2742,7.0354,0.000589458,0.00734093,-0.000364177,0.00736052,0.000569871,-1.51706,0.00472851,0.0113508,1973,918,61.2742,-7.0354
756,106,61.2046,7.68298,0.00435109,0.0108582,0.00129555,0.0111067,0.00410264,1.38132,0.00648495,0.014885,1980,918,61.2046,-7.68298
763,106,61.1106,8.49579,0.00941136,0.0145876,0.00379062,0.0165894,0.00740958,1.08493,0.00959603,0.0323231,1987,918,61.1107,-8.49579
770,106,61.0796,9.3255,0,0,0,0,0,0,0,-1,1994,918,61.0795,-9.32548
777,106,62.5112,9.45569,0,0,0,0,0,0,0,-1,2001,918,62.5112,-9.45568
784,106,62.8945,10.0956,0,0,0,0,0,0,0,-1,2008,918,62.8946,-10.0956
791,106,64.1667,8.17358,0,0,0,0,0,0,0,-1,2015,918,64.1668,-8.1736
798,106,64.8042,7.99878,0,0,0,0,0,0,0,-1,2022,918,64.8042,-7.99876
805,106,0,0,0,0,0,0,0,0,0,-1,2029,918,0,0
812,106,0,0,0,0,0,0,0,0,0,-1,2036,918,0,0
-700,99,0,0,0,0,0,0,0,0,0,-1,524,925,0,0
-693,99,0,0,0,0,0,0,0,0,0,-1,531,925,0,0
-686,99,0,0,0,0,0,0,0,0,0,-1,538,925,0,0
-679,99,-47.3555,6.31598,0,0,0,0,0,0,0,-1,545,925,-47.3555,-6.31595
-672,99,-46.8148,6.31805,0,0,0,0,0,0,0,-1,552,925,-46.8149,-6.31803
-665,99,-46.9014,6.5343,0,0,0,0,0,0,0,-1,559,925,-46.9014,-6.5343
-658,99,-46.8874,6.75189,0,0,0,0,0,0,0,-1,566,925,-46.8874,-6.75188
-651,99,-47.4294,7.30115,0,0,0,0,0,0,0,-1,573,925,-47.4294,-7.30114
-644,99,-47.4226,6.94781,0.00054933,0.0342188,0.00934732,0.0366398,-0.0018716,1.31737,0.0250737,0.0477793,580,925,-47.4226,-6.94783
-637,99,-47.3762,6.57935,-0.00377061,0.0255498,0.0078586,0.0275232,-0.00574408,1.32476,0.0205331,0.0317398,587,925,-47.3762,-6.57937
-630,99,-47.6874,6.12506,-0.00592411,0.0190486,0.00695365,0.0208543,-0.00772979,1.31673,0.0170731,0.0186851,594,925,-47.6874,-6.12505
-623,99,-47.9382,5.45966,-0.00826013,0.00979865,0.00458663,0.0108968,-0.00935828,1.3358,0.0117055,0.0137795,601,925,-47.9382,-5.45964
-616,99,-47.954,4.84271,-0.00841533,0.00539401,0.00294514,0.00599589,-0.00901721,1.36921,0.00872613,0.0160928,608,925,-47.954,-4.84272
-609,99,-47.942,4.30731,-0.00602149,0.00335805,0.00319889,0.00434515,-0.00700859,1.27149,0.00661493,0.0127843,615,925,-47.9419,-4.30734
-602,99,-47.9376,3.75006,-0.00460172,0.00205932,0.00274104,0.00304223,-0.00558463,1.22649,0.00505231,0.0183313,622,925,-47.9376,-3.75008
-595,99,-48.0542,3.15863,-0.00403682,0.00157362,0.0017136,0.0020556,-0.0045188,1.29661,0.00388352,0.0249943,629,925,-48.0542,-3.1586
-588,99,-48.0629,2.53381,-0.0037299,0.00114871,0.000991557,0.00134254,-0.00392373,1.37775,0.00315987,0.0278536,636,925,-48.0629,-2.53384
-581,99,-48.1444,1.76117,-0.00318127,0.00110958,0.000413149,0.001149,-0.00322068,1.47567,0.00261564,0.0257036,643,925,-48.1444,-1.76119
-574,99,-48.4756,1.01996,0,0,0,0,0,0,0,-1,650,925,-48.4757,-1.01998
-567,99,-50.5977,0.659485,0,0,0,0,0,0,0,-1,657,925,-50.5977,-0.659461
-560,99,-51.9148,0.791687,0,0,0,0,0,0,0,-1,664,925,-51.9148,-0.791699
-553,99,-52.0047,0.524902,-0.00217639,0.000796799,-0.00109135,0.00115439,-0.00253398,-1.25416,0.00217856,0.0378611,671,925,-52.0047,-0.524885
-546,99,-52.0601,0.199585,-0.00216463,0.00115896,-0.00126731,0.00158706,-0.00259273,-1.24503,0.00243637,0.0395807,678,925,-52.0601,-0.199609
-539,99,-52.172,0.129639,-0.0018121,0.00145907,-0.00090383,0.00169218,-0.00204522,-1.31838,0.002161,0.0374193,685,925,-52.172,-0.129651
-532,99,-52.1584,0.0924683,-0.000695407,0.00117814,0.000795462,0.00147031,-0.000987578,1.2188,0.00142816,0.040776,692,925,-52.1585,-0.0924888
-525,99,-52.1441,-0.0103149,-0.000194026,0.00043411,0.00313538,0.00327111,-0.00303103,0.835316,0.00363942,0.0427036,699,925,-52.1441,0.0102975
-518,99,-51.9943,0.585999,0.000170829,-0.000209401,0.00540681,0.00539086,-0.00542944,0.767824,0.00624712,0.0384251,706,925,-51.9943,-0.586011
-511,99,0,0,0,0,0,0,0,0,0,-1,713,925,0,0
-504,99,0,0,0,0,0,0,0,0,0,-1,720,925,0,0
-497,99,0,0,0,0,0,0,0,0,0,-1,727,925,0,0
-490,99,0,0,0,0,0,0,0,0,0,-1,734,925,0,0
-483,99,0,0,0,0,0,0,0,0,0,-1,741,925,0,0
-476,99,0,0,0,0,0,0,0,0,0,-1,748,925,0,0
-469,99,0,0,0,0,0,0,0,0,0,-1,755,925,0,0
-462,99,0,0,0,0,0,0,0,0,0,-1,762,925,0,0
-455,99,0,0,0,0,0,0,0,0,0,-1,769,925,0,0
-448,99,0,0,0,0,0,0,0,0,0,-1,776,925,0,0
-441,99,0,0,0,0,0,0,0,0,0,-1,783,925,0,0
-434,99,0,0,0,0,0,0,0,0,0,-1,790,925,0,0
-427,99,0,0,0,0,0,0,0,0,0,-1,797,925,0,0
-420,99,0,0,0,0,0,0,0,0,0,-1,804,925,0,0
-413,99,0,0,0,0,0,0,0,0,0,-1,811,925,0,0
-406,99,0,0,0,0,0,0,0,0,0,-1,818,925,0,0
-399,99,0,0,0,0,0,0,0,0,0,-1,825,925,0,0
-392,99,0,0,0,0,0,0,0,0,0,-1,832,925,0,0
-385,99,0,0,0,0,0,0,0,0,0,-1,839,925,0,0
-378,99,0,0,0,0,0,0,0,0,0,-1,846,925,0,0
-371,99,0,0,0,0,0,0,0,0,0,-1,853,925,0,0
-364,99,0,0,0,0,0,0,0,0,0,-1,860,925,0,0
-357,99,0,0,0,0,0,0,0,0,0,-1,867,925,0,0
-350,99,0,0,0,0,0,0,0,0,0,-1,874,925,0,0
-343,99,0,0,0,0,0,0,0,0,0,-1,881,925,0,0
-336,99,0,0,0,0,0,0,0,0,0,-1,888,925,0,0
-329,99,0,0,0,0,0,0,0,0,0,-1,895,925,0,0
-322,99,0,0,0,0,0,0,0,0,0,-1,902,925,0,0
-315,99,0,0,0,0,0,0,0,0,0,-1,909,925,0,0
-308,99,0,0,0,0,0,0,0,0,0,-1,916,925,0,0
-301,99,0,0,0,0,0,0,0,0,0,-1,923,925,0,0
-294,99,0,0,0,0,0,0,0,0,0,-1,930,925,0,0
-287,99,0,0,0,0,0,0,0,0,0,-1,937,925,0,0
-280,99,0,0,0,0,0,0,0,0,0,-1,944,925,0,0
-273,99,0,0,0,0,0,0,0,0,0,-1,951,925,0,0
-266,99,0,0,0,0,0,0,0,0,0,-1,958,925,0,0
-259,99,0,0,0,0,0,0,0,0,0,-1,965,925,0,0
-252,99,0,0,0,0,0,0,0,0,0,-1,972,925,0,0
-245,99,0,0,0,0,0,0,0,0,0,-1,979,925,0,0
-238,99,0,0,0,0,0,0,0,0,0,-1,986,925,0,0
-231,99,0,0,0,0,0,0,0,0,0,-1,993,925,0,0
-224,99,0,0,0,0,0,0,0,0,0,-1,1000,925,0,0
-217,99,0,0,0,0,0,0,0,0,0,-1,1007,925,0,0
-210,99,0,0,0,0,0,0,0,0,0,-1,1014,925,0,0
-203,99,0,0,0,0,0,0,0,0,0,-1,1021,925,0,0
-196,99,0,0,0,0,0,0,0,0,0,-1,1028,925,0,0
-189,99,0,0,0,0,0,0,0,0,0,-1,1035,925,0,0
-182,99,0,0,0,0,0,0,0,0,0,-1,1042,925,0,0
-175,99,0,0,0,0,0,0,0,0,0,-1,1049,925,0,0
-168,99,0,0,0,0,0,0,0,0,0,-1,1056,925,0,0
-161,99,0,0,0,0,0,0,0,0,0,-1,1063,925,0,0
-154,99,0,0,0,0,0,0,0,0,0,-1,1070,925,0,0
-147,99,0,0,0,0,0,0,0,0,0,-1,1077,925,0,0
-140,99,0,0,0,0,0,0,0,0,0,-1,1084,925,0,0
-133,99,0,0,0,0,0,0,0,0,0,-1,1091,925,0,0
-126,99,0,0,0,0,0,0,0,0,0,-1,1098,925,0,0
-119,99,0,0,0,0,0,0,0,0,0,-1,1105,925,0,0
-112,99,0,0,0,0,0,0,0,0,0,-1,1112,925,0,0
-105,99,0,0,0,0,0,0,0,0,0,-1,1119,925,0,0
-98,99,0,0,0,0,0,0,0,0,0,-1,1126,925,0,0
-91,99,0,0,0,0,0,0,0,0,0,-1,1133,925,0,0
-84,99,0,0,0,0,0,0,0,0,0,-1,1140,925,0,0
-77,99,0,0,0,0,0,0,0,0,0,-1,1147,925,0,0
-70,99,0,0,0,0,0,0,0,0,0,-1,1154,925,0,0
-63,99,0,0,0,0,0,0,0,0,0,-1,1161,925,0,0
-56,99,0,0,0,0,0,0,0,0,0,-1,1168,925,0,0
-49,99,0,0,0,0,0,0,0,0,0,-1,1175,925,0,0
-42,99,0,0,0,0,0,0,0,0,0,-1,1182,925,0,0
-35,99,0,0,0,0,0,0,0,0,0,-1,1189,925,0,0
-28,99,0,0,0,0,0,0,0,0,0,-1,1196,925,0,0
-21,99,0,0,0,0,0,0,0,0,0,-1,1203,925,0,0
-14,99,0,0,0,0,0,0,0,0,0,-1,1210,925,0,0
-7,99,0,0,0,0,0,0,0,0,0,-1,1217,925,0,0
0,99,0,0,0,0,0,0,0,0,0,-1,1224,925,0,0
7,99,0,0,0,0,0,0,0,0,0,-1,1231,925,0,0
14,99,0,0,0,0,0,0,0,0,0,-1,1238,925,0,0
21,99,0,0,0,0,0,0,0,0,0,-1,1245,925,0,0
28,99,0,0,0,0,0,0,0,0,0,-1,1252,925,0,0
35,99,0,0,0,0,0,0,0,0,0,-1,1259,925,0,0
42,99,0,0,0,0,0,0,0,0,0,-1,1266,925,0,0
49,99,0,0,0,0,0,0,0,0,0,-1,1273,925,0,0
56,99,0,0,0,0,0,0,0,0,0,-1,1280,925,0,0
63,99,0,0,0,0,0,0,0,0,0,-1,1287,925,0,0
70,99,0,0,0,0,0,0,0,0,0,-1,1294,925,0,0
77,99,0,0,0,0,0,0,0,0,0,-1,1301,925,0,0
84,99,0,0,0,0,0,0,0,0,0,-1,1308,925,0,0
91,99,0,0,0,0,0,0,0,0,0,-1,1315,925,0,0
98,99,0,0,0,0,0,0,0,0,0,-1,1322,925,0,0
105,99,0,0,0,0,0,0,0,0,0,-1,1329,925,0,0
112,99,0,0,0,0,0,0,0,0,0,-1,1336,925,0,0
119,99,0,0,0,0,0,0,0,0,0,-1,1343,925,0,0
126,99,0,0,0,0,0,0,0,0,0,-1,1350,925,0,0
133,99,0,0,0,0,0,0,0,0,0,-1,1357,925,0,0
140,99,0,0,0,0,0,0,0,0,0,-1,1364,925,0,0
147,99,0,0,0,0,0,0,0,0,0,-1,1371,925,0,0
154,99,0,0,0,0,0,0,0,0,0,-1,1378,925,0,0
161,99,0,0,0,0,0,0,0,0,0,-1,1385,925,0,0
168,99,0,0,0,0,0,0,0,0,0,-1,1392,925,0,0
175,99,0,0,0,0,0,0,0,0,0,-1,1399,925,0,0
182,99,0,0,0,0,0,0,0,0,0,-1,1406,925,0,0
189,99,0,0,0,0,0,0,0,0,0,-1,1413,925,0,0
196,99,0,0,0,0,0,0,0,0,0,-1,1420,925,0,0
203,99,0,0,0,0,0,0,0,0,0,-1,1427,925,0,0
210,99,0,0,0,0,0,0,0,0,0,-1,1434,925,0,0
217,99,0,0,0,0,0,0,0,0,0,-1,1441,925,0,0
224,99,0,0,0,0,0,0,0,0,0,-1,1448,925,0,0
231,99,0,0,0,0,0,0,0,0,0,-1,1455,925,0,0
238,99,0,0,0,0,0,0,0,0,0,-1,1462,925,0,0
245,99,0,0,0,0,0,0,0,0,0,-1,1469,925,0,0
252,99,0,0,0,0,0,0,0,0,0,-1,1476,925,0,0
259,99,0,0,0,0,0,0,0,0,0,-1,1483,925,0,0
266,99,0,0,0,0,0,0,0,0,0,-1,1490,925,0,0
273,99,0,0,0,0,0,0,0,0,0,-1,1497,925,0,0
280,99,0,0,0,0,0,0,0,0,0,-1,1504,925,0,0
287,99,0,0,0,0,0,0,0,0,0,-1,1511,925,0,0
294,99,0,0,0,0,0,0,0,0,0,-1,1518,925,0,0
301,99,0,0,0,0,0,0,0,0,0,-1,1525,925,0,0
308,99,0,0,0,0,0,0,0,0,0,-1,1532,925,0,0
315,99,0,0,0,0,0,0,0,0,0,-1,1539,925,0,0
322,99,0,0,0,0,0,0,0,0,0,-1,1546,925,0,0
329,99,0,0,0,0,0,0,0,0,0,-1,1553,925,0,0
336,99,0,0,0,0,0,0,0,0,0,-1,1560,925,0,0
343,99,0,0,0,0,0,0,0,0,0,-1,1567,925,0,0
350,99,0,0,0,0,0,0,0,0,0,-1,1574,925,0,0
357,99,0,0,0,0,0,0,0,0,0,-1,1581,925,0,0
364,99,0,0,0,0,0,0,0,0,0,-1,1588,925,0,0
371,99,0,0,0,0,0,0,0,0,0,-1,1595,925,0,0
378,99,0,0,0,0,0,0,0,0,0,-1,1602,925,0,0
385,99,0,0,0,0,0,0,0,0,0,-1,1609,925,0,0
392,99,0,0,0,0,0,0,0,0,0,-1,1616,925,0,0
399,99,0,0,0,0,0,0,0,0,0,-1,1623,925,0,0
406,99,0,0,0,0,0,0,0,0,0,-1,1630,925,0,0
413,99,0,0,0,0,0,0,0,0,0,-1,1637,925,0,0
420,99,0,0,0,0,0,0,0,0,0,-1,1644,925,0,0
427,99,0,0,0,0,0,0,0,0,0,-1,1651,925,0,0
434,99,0,0,0,0,0,0,0,0,0,-1,1658,925,0,0
441,99,0,0,0,0,0,0,0,0,0,-1,1665,925,0,0
448,99,0,0,0,0,0,0,0,0,0,-1,1672,925,0,0
455,99,0,0,0,0,0,0,0,0,0,-1,1679,925,0,0
462,99,0,0,0,0,0,0,0,0,0,-1,1686,925,0,0
469,99,0,0,0,0,0,0,0,0,0,-1,1693,925,0,0
476,99,0,0,0,0,0,0,0,0,0,-1,1700,925,0,0
483,99,0,0,0,0,0,0,0,0,0,-1,1707,925,0,0
490,99,0,0,0,0,0,0,0,0,0,-1,1714,925,0,0
497,99,0,0,0,0,0,0,0,0,0,-1,1721,925,0,0
504,99,0,0,0,0,0,0,0,0,0,-1,1728,925,0,0
511,99,0,0,0,0,0,0,0,0,0,-1,1735,925,0,0
518,99,0,0,0,0,0,0,0,0,0,-1,1742,925,0,0
525,99,0,0,0,0,0,0,0,0,0,-1,1749,925,0,0
532,99,0,0,0,0,0,0,0,0,0,-1,1756,925,0,0
539,99,0,0,0,0,0,0,0,0,0,-1,1763,925,0,0
546,99,0,0,0,0,0,0,0,0,0,-1,1770,925,0,0
553,99,0,0,0,0,0,0,0,0,0,-1,1777,925,0,0
560,99,0,0,0,0,0,0,0,0,0,-1,1784,925,0,0
567,99,0,0,0,0,0,0,0,0,0,-1,1791,925,0,0
574,99,0,0,0,0,0,0,0,0,0,-1,1798,925,0,0
581,99,0,0,0,0,0,0,0,0,0,-1,1805,925,0,0
588,99,0,0,0,0,0,0,0,0,0,-1,1812,925,0,0
595,99,0,0,0,0,0,0,0,0,0,-1,1819,925,0,0
602,99,0,0,0,0,0,0,0,0,0,-1,1826,925,0,0
609,99,0,0,0,0,0,0,0,0,0,-1,1833,925,0,0
616,99,0,0,0,0,0,0,0,0,0,-1,1840,925,0,0
623,99,0,0,0,0,0,0,0,0,0,-1,1847,925,0,0
630,99,0,0,0,0,0,0,0,0,0,-1,1854,925,0,0
637,99,67.2218,2.66571,0.000718763,0.000887646,0.000516117,0.00132618,0.000280225,0.866485,0.000807096,0.0424348,1861,925,67.2217,-2.66571
644,99,67.2307,2.79517,0.000286429,0.000707859,8.27217e-05,0.000723515,0.000270773,1.38375,0.000422102,0.0374142,1868,925,67.2307,-2.79516
651,99,67.1758,2.54364,1.29688e-05,0.000683378,-0.000107635,0.000700235,-3.88836e-06,-1.41544,0.000468125,0.036455,1875,925,67.1758,-2.54362
658,99,67.1268,2.46735,-0.000184557,0.000841792,-1.45746e-05,0.000841999,-0.000184764,-1.5566,0.000631989,0.0388075,1882,925,67.1269,-2.46735
665,99,67.0883,2.3963,-0.000282238,0.00106116,0.000250967,0.00110652,-0.000327591,1.39201,0.000867738,0.0409677,1889,925,67.0883,-2.3963
672,99,67.1558,2.37988,-0.000622986,0.000983666,0.000511096,0.00113247,-0.00077179,1.28748,0.00110598,0.041904,1896,925,67.1558,-2.37987
679,99,67.2365,2.24768,-0.000980482,0.000684848,0.000684636,0.000930171,-0.00122581,1.22672,0.00124865,0.0392079,1903,925,67.2364,-2.24768
686,99,67.2028,2.41382,-0.00133167,0.000402931,0.000535871,0.000555124,-0.00148386,1.29407,0.00121724,0.0309703,1910,925,67.2028,-2.4138
693,99,67.1996,2.47845,-0.00172875,0.000344207,0.000292871,0.00038479,-0.00176933,1.4331,0.00132655,0.0342939,1917,925,67.1996,-2.47847
700,99,67.2084,2.50818,0,0,0,0,0,0,0,-1,1924,925,67.2084,-2.50818
707,99,47.9915,3.27429,0,0,0,0,0,0,0,-1,1931,925,47.9914,-3.27427
714,99,61.9065,3.63824,0,0,0,0,0,0,0,-1,1938,925,61.9065,-3.63824
721,99,62.1754,4.43701,-0.00300428,0.00169047,-0.000665219,0.0017829,-0.00309671,-1.43272,0.00285108,0.0371157,1945,925,62.1754,-4.43699
728,99,62.1842,5.12152,-0.00325327,0.00231288,-0.000652409,0.00238833,-0.00332872,-1.45567,0.00331559,0.030066,1952,925,62.1842,-5.1215
735,99,62.1067,5.80304,-0.00285321,0.00326266,-0.00085063,0.00337876,-0.00296931,-1.43514,0.00366761,0.0239678,1959,925,62.1066,-5.80301
742,99,62.0137,6.41541,-0.00208886,0.00497677,-0.000987411,0.00511216,-0.00222425,-1.43453,0.00434369,0.0159715,1966,925,62.0137,-6.41541
749,99,61.9293,7.01422,-0.000181214,0.00765055,-0.000440195,0.00767522,-0.000205878,-1.51482,0.0051868,0.014428,1973,925,61.9293,-7.01421
756,99,61.8757,7.5918,0.00322266,0.0112408,0.0010586,0.0113782,0.00308525,1.44172,0.00679472,0.0152367,1980,925,61.8758,-7.59179
763,99,61.9031,8.21539,0.00793803,0.0152415,0.00352927,0.0166682,0.00651128,1.18662,0.00969982,0.0191789,1987,925,61.903,-8.21542
770,99,62.2461,8.83661,0.0140897,0.0192,0.0066371,0.0237568,0.00953294,0.969144,0.0138049,0.0323287,1994,925,62.2461,-8.83662
777,99,62.7771,9.36945,0.0225461,0.0231507,0.0111711,0.0340236,0.0116732,0.798926,0.0199633,0.0432006,2001,925,62.7771,-9.36942
784,99,63.2205,10.0101,0.0354535,0.0267151,0.0177897,0.0494027,0.0127659,0.66498,0.0296118,0.0488755,2008,925,63.2205,-10.0101
791,99,64.0408,10.9297,0,0,0,0,0,0,0,-1,2015,925,64.0407,-10.9298
798,99,65.3274,7.8692,0,0,0,0,0,0,0,-1,2022,925,65.3273,-7.86921
805,99,0,0,0,0,0,0,0,0,0,-1,2029,925,0,0
812,99,0,0,0,0,0,0,0,0,0,-1,2036,925,0,0
-700,92,0,0,0,0,0,0,0,0,0,-1,524,932,0,0
-693,92,0,0,0,0,0,0,0,0,0,-1,531,932,0,0
-686,92,-46.9766,6.16638,0.0742622,0.121719,0.0480602,0.151589,0.0443919,1.0147,0.089989,0.0426371,538,932,-46.9766,-6.16636
-679,92,-47.1328,6.25598,0,0,0,0,0,0,0,-1,545,932,-47.1328,-6.25599
-672,92,-47.1974,6.42609,0.0440231,0.0877281,0.0390534,0.110627,0.0211241,1.04047,0.0678157,0.0462296,552,932,-47.1974,-6.42609
-665,92,-47.2698,6.64459,0.0309618,0.0726236,0.0335026,0.0912433,0.0123421,1.06353,0.0571607,0.048922,559,932,-47.2698,-6.6446
-658,92,-47.3075,6.70715,0,0,0,0,0,0,0,-1,566,932,-47.3075,-6.70718
-651,92,-47.5664,6.99518,0.0106049,0.0467389,0.0228341,0.0577891,-0.000445325,1.12008,0.0386754,0.0471405,573,932,-47.5664,-6.99521
-644,92,-48.1486,7.02655,0.003533,0.0361042,0.0181666,0.0442162,-0.00457905,1.15083,0.0311163,0.0440908,580,932,-48.1485,-7.02657
-637,92,-48.2766,6.52612,-0.00169533,0.0269889,0.0142059,0.0328335,-0.00753991,1.18048,0.0247876,0.0266036,587,932,-48.2766,-6.52614
-630,92,-48.3835,5.98334,-0.00452563,0.020171,0.0113055,0.0245647,-0.00891935,1.20013,0.0200231,0.01476,594,932,-48.3835,-5.98336
-623,92,-48.5392,5.44214,-0.0074514,0.0102508,0.00707117,0.0127286,-0.00992918,1.23376,0.0131147,0.0104295,601,932,-48.5392,-5.44217
-616,92,-48.5656,4.88104,-0.00810559,0.00556019,0.00391948,0.00660453,-0.00914993,1.3104,0.00913533,0.00967031,608,932,-48.5656,-4.88101
-609,92,-48.5969,4.32349,-0.00582253,0.00354005,0.00334663,0.00461327,-0.00689576,1.26047,0.00668816,0.00898035,615,932,-48.5968,-4.32351
-602,92,-48.5757,3.7359,-0.00440737,0.00219881,0.00255134,0.00306942,-0.00527798,1.24195,0.00487528,0.0118073,622,932,-48.5757,-3.73589
-595,92,-48.4838,3.06549,-0.00371638,0.00157746,0.00151643,0.00198107,-0.00412,1.31067,0.00359388,0.0256196,629,932,-48.4838,-3.0655
-588,92,-48.4724,2.54657,-0.00332689,0.000996617,0.000753654,0.00112422,-0.0034545,1.40307,0.00275528,0.0335675,636,932,-48.4724,-2.5466
-581,92,-49.1113,1.95782,-0.00278232,0.000829048,9.60709e-05,0.000831602,-0.00278487,1.54422,0.00218713,0.0436858,643,932,-49.1113,-1.95784
-574,92,-49.8407,1.20575,0,0,0,0,0,0,0,-1,650,932,-49.8407,-1.20577
-567,92,-51.983,0.507629,0,0,0,0,0,0,0,-1,657,932,-51.983,-0.507612
-560,92,-51.9133,0.457214,-0.00198813,0.000470273,-0.00110523,0.000894091,-0.00241194,-1.20462,0.00197466,0.0440047,664,932,-51.9133,-0.457232
-553,92,-52.0369,0.397461,-0.0020159,0.000719143,-0.00143513,0.00133397,-0.00263073,-1.16604,0.00232948,0.0398845,671,932,-52.0368,-0.397465
-546,92,-51.9679,0.201477,-0.00192897,0.00111926,-0.00143714,0.00168997,-0.00249968,-1.19278,0.0024339,0.0397489,678,932,-51.9679,-0.201488
-539,92,-51.9042,0.271973,-0.00147065,0.00140473,-0.00084135,0.00163282,-0.00169874,-1.30606,0.00192361,0.0382027,685,932,-51.9042,-0.271979
-532,92,-52.0388,0.397949,-0.000413291,0.00111328,0.000896042,0.00152706,-0.000827077,1.13818,0.00137905,0.0421314,692,932,-52.0388,-0.397923
-525,92,-51.9434,0.199951,-4.21835e-05,0.000649732,0.0029988,0.00332246,-0.00271491,0.842827,0.00349156,0.0401649,699,932,-51.9434,-0.199965
-518,92,-51.998,0.469666,0.000331391,0.000372354,0.00501017,0.00536208,-0.00465834,0.787442,0.00579005,0.0374478,706,932,-51.998,-0.469687
-511,92,0,0,0,0,0,0,0,0,0,-1,713,932,0,0
-504,92,0,0,0,0,0,0,0,0,0,-1,720,932,0,0
-497,92,0,0,0,0,0,0,0,0,0,-1,727,932,0,0
-490,92,0,0,0,0,0,0,0,0,0,-1,734,932,0,0
-483,92,0,0,0,0,0,0,0,0,0,-1,741,932,0,0
-476,92,0,0,0,0,0,0,0,0,0,-1,748,932,0,0
-469,92,0,0,0,0,0,0,0,0,0,-1,755,932,0,0
-462,92,0,0,0,0,0,0,0,0,0,-1,762,932,0,0
-455,92,0,0,0,0,0,0,0,0,0,-1,769,932,0,0
-448,92,0,0,0,0,0,0,0,0,0,-1,776,932,0,0
-441,92,0,0,0,0,0,0,0,0,0,-1,783,932,0,0
-434,92,0,0,0,0,0,0,0,0,0,-1,790,932,0,0
-427,92,0,0,0,0,0,0,0,0,0,-1,797,932,0,0
-420,92,0,0,0,0,0,0,0,0,0,-1,804,932,0,0
-413,92,0,0,0,0,0,0,0,0,0,-1,811,932,0,0
-406,92,0,0,0,0,0,0,0,0,0,-1,818,932,0,0
-399,92,0,0,0,0,0,0,0,0,0,-1,825,932,0,0
-392,92,0,0,0,0,0,0,0,0,0,-1,832,932,0,0
-385,92,0,0,0,0,0,0,0,0,0,-1,839,932,0,0
-378,92,0,0,0,0,0,0,0,0,0,-1,846,932,0,0
-371,92,0,0,0,0,0,0,0,0,0,-1,853,932,0,0
-364,92,0,0,0,0,0,0,0,0,0,-1,860,932,0,0
-357,92,0,0,0,0,0,0,0,0,0,-1,867,932,0,0
-350,92,0,0,0,0,0,0,0,0,0,-1,874,932,0,0
-343,92,0,0,0,0,0,0,0,0,0,-1,881,932,0,0
-336,92,0,0,0,0,0,0,0,0,0,-1,888,932,0,0
-329,92,0,0,0,0,0,0,0,0,0,-1,895,932,0,0
-322,92,0,0,0,0,0,0,0,0,0,-1,902,932,0,0
-315,92,0,0,0,0,0,0,0,0,0,-1,909,932,0,0
-308,92,0,0,0,0,0,0,0,0,0,-1,916,932,0,0
-301,92,0,0,0,0,0,0,0,0,0,-1,923,932,0,0
-294,92,0,0,0,0,0,0,0,0,0,-1,930,932,0,0
-287,92,0,0,0,0,0,0,0,0,0,-1,937,932,0,0
-280,92,0,0,0,0,0,0,0,0,0,-1,944,932,0,0
-273,92,0,0,0,0,0,0,0,0,0,-1,951,932,0,0
-266,92,0,0,0,0,0,0,0,0,0,-1,958,932,0,0
-259,92,0,0,0,0,0,0,0,0,0,-1,965,932,0,0
-252,92,0,0,0,0,0,0,0,0,0,-1,972,932,0,0
-245,92,0,0,0,0,0,0,0,0,0,-1,979,932,0,0
-238,92,0,0,0,0,0,0,0,0,0,-1,986,932,0,0
-231,92,0,0,0,0,0,0,0,0,0,-1,993,932,0,0
-224,92,0,0,0,0,0,0,0,0,0,-1,1000,932,0,0
-217,92,0,0,0,0,0,0,0,0,0,-1,1007,932,0,0
-210,92,0,0,0,0,0,0,0,0,0,-1,1014,932,0,0
-203,92,0,0,0,0,0,0,0,0,0,-1,1021,932,0,0
-196,92,0,0,0,0,0,0,0,0,0,-1,1028,932,0,0
-189,92,0,0,0,0,0,0,0,0,0,-1,1035,932,0,0
-182,92,0,0,0,0,0,0,0,0,0,-1,1042,932,0,0
-175,92,0,0,0,0,0,0,0,0,0,-1,1049,932,0,0
-168,92,0,0,0,0,0,0,0,0,0,-1,1056,932,0,0
-161,92,0,0,0,0,0,0,0,0,0,-1,1063,932,0,0
-154,92,0,0,0,0,0,0,0,0,0,-1,1070,932,0,0
-147,92,0,0,0,0,0,0,0,0,0,-1,1077,932,0,0
-140,92,0,0,0,0,0,0,0,0,0,-1,1084,932,0,0
-133,92,0,0,0,0,0,0,0,0,0,-1,1091,932,0,0
-126,92,0,0,0,0,0,0,0,0,0,-1,1098,932,0,0
-119,92,0,0,0,0,0,0,0,0,0,-1,1105,932,0,0
-112,92,0,0,0,0,0,0,0,0,0,-1,1112,932,0,0
-105,92,0,0,0,0,0,0,0,0,0,-1,1119,932,0,0
-98,92,0,0,0,0,0,0,0,0,0,-1,1126,932,0,0
-91,92,0,0,0,0,0,0,0,0,0,-1,1133,932,0,0
-84,92,0,0,0,0,0,0,0,0,0,-1,1140,932,0,0
-77,92,0,0,0,0,0,0,0,0,0,-1,1147,932,0,0
-70,92,0,0,0,0,0,0,0,0,0,-1,1154,932,0,0
-63,92,0,0,0,0,0,0,0,0,0,-1,1161,932,0,0
-56,92,0,0,0,0,0,0,0,0,0,-1,1168,932,0,0
-49,92,0,0,0,0,0,0,0,0,0,-1,1175,932,0,0
-42,92,0,0,0,0,0,0,0,0,0,-1,1182,932,0,0
-35,92,0,0,0,0,0,0,0,0,0,-1,1189,932,0,0
-28,92,0,0,0,0,0,0,0,0,0,-1,1196,932,0,0
-21,92,0,0,0,0,0,0,0,0,0,-1,1203,932,0,0
-14,92,0,0,0,0,0,0,0,0,0,-1,1210,932,0,0
-7,92,0,0,0,0,0,0,0,0,0,-1,1217,932,0,0
0,92,0,0,0,0,0,0,0,0,0,-1,1224,932,0,0
7,92,0,0,0,0,0,0,0,0,0,-1,1231,932,0,0
14,92,0,0,0,0,0,0,0,0,0,-1,1238,932,0,0
21,92,0,0,0,0,0,0,0,0,0,-1,1245,932,0,0
28,92,0,0,0,0,0,0,0,0,0,-1,1252,932,0,0
35,92,0,0,0,0,0,0,0,0,0,-1,1259,932,0,0
42,92,0,0,0,0,0,0,0,0,0,-1,1266,932,0,0
49,92,0,0,0,0,0,0,0,0,0,-1,1273,932,0,0
56,92,0,0,0,0,0,0,0,0,0,-1,1280,932,0,0
63,92,0,0,0,0,0,0,0,0,0,-1,1287,932,0,0
70,92,0,0,0,0,0,0,0,0,0,-1,1294,932,0,0
77,92,0,0,0,0,0,0,0,0,0,-1,1301,932,0,0
84,92,0,0,0,0,0,0,0,0,0,-1,1308,932,0,0
91,92,0,0,0,0,0,0,0,0,0,-1,1315,932,0,0
98,92,0,0,0,0,0,0,0,0,0,-1,1322,932,0,0
105,92,0,0,0,0,0,0,0,0,0,-1,1329,932,0,0
112,92,0,0,0,0,0,0,0,0,0,-1,1336,932,0,0
119,92,0,0,0,0,0,0,0,0,0,-1,1343,932,0,0
126,92,0,0,0,0,0,0,0,0,0,-1,1350,932,0,0
133,92,0,0,0,0,0,0,0,0,0,-1,1357,932,0,0
140,92,0,0,0,0,0,0,0,0,0,-1,1364,932,0,0
147,92,0,0,0,0,0,0,0,0,0,-1,1371,932,0,0
154,92,0,0,0,0,0,0,0,0,0,-1,1378,932,0,0
161,92,0,0,0,0,0,0,0,0,0,-1,1385,932,0,0
168,92,0,0,0,0,0,0,0,0,0,-1,1392,932,0,0
175,92,0,0,0,0,0,0,0,0,0,-1,1399,932,0,0
182,92,0,0,0,0,0,0,0,0,0,-1,1406,932,0,0
189,92,0,0,0,0,0,0,0,0,0,-1,1413,932,0,0
196,92,0,0,0,0,0,0,0,0,0,-1,1420,932,0,0
203,92,0,0,0,0,0,0,0,0,0,-1,1427,932,0,0
210,92,0,0,0,0,0,0,0,0,0,-1,1434,932,0,0
217,92,0,0,0,0,0,0,0,0,0,-1,1441,932,0,0
224,92,0,0,0,0,0,0,0,0,0,-1,1448,932,0,0
231,92,0,0,0,0,0,0,0,0,0,-1,1455,932,0,0
238,92,0,0,0,0,0,0,0,0,0,-1,1462,932,0,0
245,92,0,0,0,0,0,0,0,0,0,-1,1469,932,0,0
252,92,0,0,0,0,0,0,0,0,0,-1,1476,932,0,0
259,92,0,0,0,0,0,0,0,0,0,-1,1483,932,0,0
266,92,0,0,0,0,0,0,0,0,0,-1,1490,932,0,0
273,92,0,0,0,0,0,0,0,0,0,-1,1497,932,0,0
280,92,0,0,0,0,0,0,0,0,0,-1,1504,932,0,0
287,92,0,0,0,0,0,0,0,0,0,-1,1511,932,0,0
294,92,0,0,0,0,0,0,0,0,0,-1,1518,932,0,0
301,92,0,0,0,0,0,0,0,0,0,-1,1525,932,0,0
308,92,0,0,0,0,0,0,0,0,0,-1,1532,932,0,0
315,92,0,0,0,0,0,0,0,0,0,-1,1539,932,0,0
322,92,0,0,0,0,0,0,0,0,0,-1,1546,932,0,0
329,92,0,0,0,0,0,0,0,0,0,-1,1553,932,0,0
336,92,0,0,0,0,0,0,0,0,0,-1,1560,932,0,0
343,92,0,0,0,0,0,0,0,0,0,-1,1567,932,0,0
350,92,0,0,0,0,0,0,0,0,0,-1,1574,932,0,0
357,92,0,0,0,0,0,0,0,0,0,-1,1581,932,0,0
364,92,0,0,0,0,0,0,0,0,0,-1,1588,932,0,0
371,92,0,0,0,0,0,0,0,0,0,-1,1595,932,0,0
378,92,0,0,0,0,0,0,0,0,0,-1,1602,932,0,0
385,92,0,0,0,0,0,0,0,0,0,-1,1609,932,0,0
392,92,0,0,0,0,0,0,0,0,0,-1,1616,932,0,0
399,92,0,0,0,0,0,0,0,0,0,-1,1623,932,0,0
406,92,0,0,0,0,0,0,0,0,0,-1,1630,932,0,0
413,92,0,0,0,0,0,0,0,0,0,-1,1637,932,0,0
420,92,0,0,0,0,0,0,0,0,0,-1,1644,932,0,0
427,92,0,0,0,0,0,0,0,0,0,-1,1651,932,0,0
434,92,0,0,0,0,0,0,0,0,0,-1,1658,932,0,0
441,92,0,0,0,0,0,0,0,0,0,-1,1665,932,0,0
448,92,0,0,0,0,0,0,0,0,0,-1,1672,932,0,0
455,92,0,0,0,0,0,0,0,0,0,-1,1679,932,0,0
462,92,0,0,0,0,0,0,0,0,0,-1,1686,932,0,0
469,92,0,0,0,0,0,0,0,0,0,-1,1693,932,0,0
476,92,0,0,0,0,0,0,0,0,0,-1,1700,932,0,0
483,92,0,0,0,0,0,0,0,0,0,-1,1707,932,0,0
490,92,0,0,0,0,0,0,0,0,0,-1,1714,932,0,0
497,92,0,0,0,0,0,0,0,0,0,-1,1721,932,0,0
504,92,0,0,0,0,0,0,0,0,0,-1,1728,932,0,0
511,92,0,0,0,0,0,0,0,0,0,-1,1735,932,0,0
518,92,0,0,0,0,0,0,0,0,0,-1,1742,932,0,0
525,92,0,0,0,0,0,0,0,0,0,-1,1749,932,0,0
532,92,0,0,0,0,0,0,0,0,0,-1,1756,932,0,0
539,92,0,0,0,0,0,0,0,0,0,-1,1763,932,0,0
546,92,0,0,0,0,0,0,0,0,0,-1,1770,932,0,0
553,92,0,0,0,0,0,0,0,0,0,-1,1777,932,0,0
560,92,0,0,0,0,0,0,0,0,0,-1,1784,932,0,0
567,92,0,0,0,0,0,0,0,0,0,-1,1791,932,0,0
574,92,0,0,0,0,0,0,0,0,0,-1,1798,932,0,0
581,92,0,0,0,0,0,0,0,0,0,-1,1805,932,0,0
588,92,0,0,0,0,0,0,0,0,0,-1,1812,932,0,0
595,92,0,0,0,0,0,0,0,0,0,-1,1819,932,0,0
602,92,0,0,0,0,0,0,0,0,0,-1,1826,932,0,0
609,92,0,0,0,0,0,0,0,0,0,-1,1833,932,0,0
616,92,0,0,0,0,0,0,0,0,0,-1,1840,932,0,0
623,92,0,0,0,0,0,0,0,0,0,-1,1847,932,0,0
630,92,0,0,0,0,0,0,0,0,0,-1,1854,932,0,0
637,92,67.1781,2.63239,0.000681761,0.00102796,-0.000319711,0.00121843,0.000491297,-1.03352,0.000707837,0.0456106,1861,932,67.1781,-2.63239
644,92,67.2096,2.59485,0.000262004,0.00091228,-0.00053976,0.00121727,-4.29812e-05,-1.05648,0.00082621,0.039711,1868,932,67.2096,-2.59485
651,92,67.224,2.47827,2.16395e-05,0.000901504,-0.000567458,0.00117959,-0.000256445,-1.11514,0.000884357,0.0397688,1875,932,67.2239,-2.47828
658,92,67.0891,2.55054,-0.000168649,0.00107948,-0.000308066,0.00115138,-0.000240545,-1.34152,0.000859068,0.0436653,1882,932,67.0892,-2.55052
665,92,66.9846,2.52228,-0.000268938,0.00133114,0.000103283,0.00133777,-0.000275577,1.5066,0.000996492,0.0441377,1889,932,66.9846,-2.52226
672,92,67.2179,2.43469,-0.000620904,0.00131617,0.000515651,0.00144488,-0.000749619,1.32618,0.00128802,0.0420793,1896,932,67.2179,-2.4347
679,92,67.2373,2.47772,-0.000995859,0.00102306,0.000823772,0.00131653,-0.00128932,1.22857,0.00150451,0.0386629,1903,932,67.2373,-2.47769
686,92,67.21,2.44244,-0.00131041,0.000707024,0.000759832,0.000961183,-0.00156457,1.248,0.00147205,0.0307289,1910,932,67.2099,-2.44244
693,92,67.2189,2.47375,-0.00166474,0.000585317,0.000564644,0.000719063,-0.00179848,1.33822,0.00149738,0.027822,1917,932,67.2189,-2.47377
700,92,67.2334,2.49536,0,0,0,0,0,0,0,-1,1924,932,67.2334,-2.49536
707,92,32.9893,3.26874,0,0,0,0,0,0,0,-1,1931,932,32.9893,-3.26874
714,92,63.1885,3.97345,0,0,0,0,0,0,0,-1,1938,932,63.1885,-3.97343
721,92,62.9901,4.6712,-0.00317265,0.00187377,-0.000505129,0.00192383,-0.00322272,-1.47201,0.00300274,0.0368775,1945,932,62.9901,-4.67118
728,92,62.7576,5.25281,-0.00337995,0.0025741,-0.000456101,0.00260883,-0.00341469,-1.49478,0.00348804,0.0297644,1952,932,62.7576,-5.25281
735,92,62.7136,5.8501,-0.00302473,0.00365101,-0.000615066,0.0037072,-0.00308093,-1.47968,0.00392468,0.0227768,1959,932,62.7136,-5.85007
742,92,62.7247,6.40125,-0.00253075,0.00570854,-0.000785675,0.00578279,-0.00260501,-1.47657,0.00495719,0.0217515,1966,932,62.7248,-6.40127
749,92,62.6185,6.99329,-0.00110907,0.0088396,-0.000364141,0.00885291,-0.00112238,-1.53426,0.00630943,0.0205501,1973,932,62.6186,-6.99326
756,92,62.5247,7.53674,0.00168132,0.0133611,0.0010067,0.0134472,0.00159519,1.48544,0.00848322,0.0175517,1980,932,62.5247,-7.53673
763,92,62.5447,8.1217,0.00575576,0.0188987,0.00345991,0.0197539,0.00490057,1.32848,0.0118776,0.0191209,1987,932,62.5447,-8.1217
770,92,62.6177,8.69946,0.0110549,0.0249085,0.00655211,0.0275164,0.00844698,1.19199,0.0162764,0.027892,1994,932,62.6176,-8.69946
777,92,62.999,9.29205,0.0181266,0.0319179,0.0109394,0.0379536,0.0120909,1.06662,0.0223882,0.0432051,2001,932,62.9991,-9.29208
784,92,63.6692,10.0003,0.0290904,0.0401626,0.0173555,0.0528435,0.0164094,0.939788,0.0312309,0.0476475,2008,932,63.6693,-10.0003
791,92,64.573,10.8998,0,0,0,0,0,0,0,-1,2015,932,64.5729,-10.8998
798,92,65.3831,11.768,0,0,0,0,0,0,0,-1,2022,932,65.3831,-11.768
805,92,0,0,0,0,0,0,0,0,0,-1,2029,932,0,0
812,92,0,0,0,0,0,0,0,0,0,-1,2036,932,0,0
-700,85,0,0,0,0,0,0,0,0,0,-1,524,939,0,0
-693,85,0,0,0,0,0,0,0,0,0,-1,531,939,0,0
-686,85,-46.3045,6.43958,0,0,0,0,0,0,0,-1,538,939,-46.3046,-6.43957
-679,85,-47.4435,6.3551,0,0,0,0,0,0,0,-1,545,939,-47.4435,-6.35508
-672,85,-47.8939,6.36334,0.0505158,0.0910088,0.0483221,0.123155,0.0183701,0.983783,0.0767163,0.0434175,552,939,-47.8939,-6.36335
-665,85,-47.6738,6.6734,0.0363185,0.0753305,0.0407162,0.100972,0.010677,1.00878,0.0640529,0.0432373,559,939,-47.6738,-6.67339
-658,85,-47.8519,7.33282,0,0,0,0,0,0,0,-1,566,939,-47.852,-7.3328
-651,85,-48.1959,7.07404,0.0139448,0.0485157,0.0267723,0.0630978,-0.00063738,1.07205,0.0422793,0.0427924,573,939,-48.1959,-7.07405
-644,85,-48.6696,6.80182,0.00613435,0.0375134,0.0209402,0.0479898,-0.00434203,1.10691,0.0335344,0.0353069,580,939,-48.6696,-6.8018
-637,85,-48.931,6.39764,0.000323194,0.0281392,0.0161381,0.0355355,-0.00707308,1.14105,0.0263662,0.0226671,587,939,-48.9311,-6.39763
-630,85,-49.0406,5.87738,-0.00303443,0.0211059,0.0124974,0.0264102,-0.00833877,1.1694,0.0209472,0.0142927,594,939,-49.0406,-5.87736
-623,85,-49.1443,5.37018,-0.00640289,0.0109458,0.00767022,0.0138506,-0.00930769,1.20878,0.0134559,0.00974253,601,939,-49.1443,-5.37018
-616,85,-49.1782,4.83557,-0.00752603,0.00590813,0.0040344,0.00702658,-0.00864448,1.30036,0.00906375,0.0099019,608,939,-49.1782,-4.83558
-609,85,-49.2247,4.29303,-0.00540978,0.00385571,0.00313075,0.00481438,-0.00636845,1.27365,0.00647716,0.0124407,615,939,-49.2248,-4.29303
-602,85,-49.2296,3.74506,-0.00395173,0.00244555,0.00217539,0.00311519,-0.00462137,1.27217,0.00449483,0.0167686,622,939,-49.2296,-3.74505
-595,85,-49.1362,3.16821,-0.00309402,0.00170275,0.00115448,0.00196615,-0.00335742,1.34648,0.00310835,0.0221093,629,939,-49.1363,-3.16823
-588,85,-49.0603,2.63647,-0.00258898,0.000937543,0.000387109,0.000979536,-0.00263097,1.46274,0.00215599,0.0264584,636,939,-49.0603,-2.6365
-581,85,-49.014,2.104,0,0,0,0,0,0,0,-1,643,939,-49.0141,-2.10403
-574,85,-49.1549,1.32837,0,0,0,0,0,0,0,-1,650,939,-49.1549,-1.32837
-567,85,-51.9427,0.556091,0,0,0,0,0,0,0,-1,657,939,-51.9427,-0.556099
-560,85,-51.8492,0.4823,-0.00148698,0.000321643,-0.00156026,0.00122071,-0.00238606,-1.04804,0.00211829,0.0380685,664,939,-51.8492,-0.482311
-553,85,-51.8502,0.340454,-0.0015238,0.000636908,-0.0017739,0.00163354,-0.00252044,-1.05891,0.00241645,0.039996,671,939,-51.8502,-0.340482
-546,85,-51.9036,0.190857,-0.00136835,0.00105684,-0.00161036,0.00186009,-0.0021716,-1.10811,0.00233001,0.041079,678,939,-51.9036,-0.190835
-539,85,-51.8777,0.412659,-0.000833829,0.00131943,-0.000826069,0.00159983,-0.00111423,-1.24356,0.0015753,0.0408849,685,939,-51.8777,-0.412688
-532,85,-51.8391,0.597473,0.000223587,0.0010197,0.000867364,0.00157598,-0.000332699,1.00052,0.00117733,0.0408466,692,939,-51.8391,-0.59747
-525,85,-51.8452,0.49884,0.000530449,0.000922074,0.00257114,0.00330485,-0.00185232,0.823404,0.0030166,0.0369649,699,939,-51.8452,-0.498854
-518,85,-51.9442,0.457092,0.000981003,0.00101922,0.00422813,0.00522829,-0.00322807,0.787658,0.0049276,0.0363924,706,939,-51.9442,-0.457079
-511,85,0,0,0,0,0,0,0,0,0,-1,713,939,0,0
-504,85,0,0,0,0,0,0,0,0,0,-1,720,939,0,0
-497,85,0,0,0,0,0,0,0,0,0,-1,727,939,0,0
-490,85,0,0,0,0,0,0,0,0,0,-1,734,939,0,0
-483,85,0,0,0,0,0,0,0,0,0,-1,741,939,0,0
-476,85,0,0,0,0,0,0,0,0,0,-1,748,939,0,0
-469,85,0,0,0,0,0,0,0,0,0,-1,755,939,0,0
-462,85,0,0,0,0,0,0,0,0,0,-1,762,939,0,0
-455,85,0,0,0,0,0,0,0,0,0,-1,769,939,0,0
-448,85,0,0,0,0,0,0,0,0,0,-1,776,939,0,0
-441,85,0,0,0,0,0,0,0,0,0,-1,783,939,0,0
-434,85,0,0,0,0,0,0,0,0,0,-1,790,939,0,0
-427,85,0,0,0,0,0,0,0,0,0,-1,797,939,0,0
-420,85,0,0,0,0,0,0,0,0,0,-1,804,939,0,0
-413,85,0,0,0,0,0,0,0,0,0,-1,811,939,0,0
-406,85,0,0,0,0,0,0,0,0,0,-1,818,939,0,0
-399,85,0,0,0,0,0,0,0,0,0,-1,825,939,0,0
-392,85,0,0,0,0,0,0,0,0,0,-1,832,939,0,0
-385,85,0,0,0,0,0,0,0,0,0,-1,839,939,0,0
-378,85,0,0,0,0,0,0,0,0,0,-1,846,939,0,0
-371,85,0,0,0,0,0,0,0,0,0,-1,853,939,0,0
-364,85,0,0,0,0,0,0,0,0,0,-1,860,939,0,0
-357,85,0,0,0,0,0,0,0,0,0,-1,867,939,0,0
-350,85,0,0,0,0,0,0,0,0,0,-1,874,939,0,0
-343,85,0,0,0,0,0,0,0,0,0,-1,881,939,0,0
-336,85,0,0,0,0,0,0,0,0,0,-1,888,939,0,0
-329,85,0,0,0,0,0,0,0,0,0,-1,895,939,0,0
-322,85,0,0,0,0,0,0,0,0,0,-1,902,939,0,0
-315,85,0,0,0,0,0,0,0,0,0,-1,909,939,0,0
-308,85,0,0,0,0,0,0,0,0,0,-1,916,939,0,0
-301,85,0,0,0,0,0,0,0,0,0,-1,923,939,0,0
-294,85,0,0,0,0,0,0,0,0,0,-1,930,939,0,0
-287,85,0,0,0,0,0,0,0,0,0,-1,937,939,0,0
-280,85,0,0,0,0,0,0,0,0,0,-1,944,939,0,0
-273,85,0,0,0,0,0,0,0,0,0,-1,951,939,0,0
-266,85,0,0,0,0,0,0,0,0,0,-1,958,939,0,0
-259,85,0,0,0,0,0,0,0,0,0,-1,965,939,0,0
-252,85,0,0,0,0,0,0,0,0,0,-1,972,939,0,0
-245,85,0,0,0,0,0,0,0,0,0,-1,979,939,0,0
-238,85,0,0,0,0,0,0,0,0,0,-1,986,939,0,0
-231,85,0,0,0,0,0,0,0,0,0,-1,993,939,0,0
-224,85,0,0,0,0,0,0,0,0,0,-1,1000,939,0,0
-217,85,0,0,0,0,0,0,0,0,0,-1,1007,939,0,0
-210,85,0,0,0,0,0,0,0,0,0,-1,1014,939,0,0
-203,85,0,0,0,0,0,0,0,0,0,-1,1021,939,0,0
-196,85,0,0,0,0,0,0,0,0,0,-1,1028,939,0,0
-189,85,0,0,0,0,0,0,0,0,0,-1,1035,939,0,0
-182,85,0,0,0,0,0,0,0,0,0,-1,1042,939,0,0
-175,85,0,0,0,0,0,0,0,0,0,-1,1049,939,0,0
-168,85,0,0,0,0,0,0,0,0,0,-1,1056,939,0,0
-161,85,0,0,0,0,0,0,0,0,0,-1,1063,939,0,0
-154,85,0,0,0,0,0,0,0,0,0,-1,1070,939,0,0
-147,85,0,0,0,0,0,0,0,0,0,-1,1077,939,0,0
-140,85,0,0,0,0,0,0,0,0,0,-1,1084,939,0,0
-133,85,0,0,0,0,0,0,0,0,0,-1,1091,939,0,0
-126,85,0,0,0,0,0,0,0,0,0,-1,1098,939,0,0
-119,85,0,0,0,0,0,0,0,0,0,-1,1105,939,0,0
-112,85,0,0,0,0,0,0,0,0,0,-1,1112,939,0,0
-105,85,0,0,0,0,0,0,0,0,0,-1,1119,939,0,0
-98,85,0,0,0,0,0,0,0,0,0,-1,1126,939,0,0
-91,85,0,0,0,0,0,0,0,0,0,-1,1133,939,0,0
-84,85,0,0,0,0,0,0,0,0,0,-1,1140,939,0,0
-77,85,0,0,0,0,0,0,0,0,0,-1,1147,939,0,0
-70,85,0,0,0,0,0,0,0,0,0,-1,1154,939,0,0
-63,85,0,0,0,0,0,0,0,0,0,-1,1161,939,0,0
-56,85,0,0,0,0,0,0,0,0,0,-1,1168,939,0,0
-49,85,0,0,0,0,0,0,0,0,0,-1,1175,939,0,0
-42,85,0,0,0,0,0,0,0,0,0,-1,1182,939,0,0
-35,85,0,0,0,0,0,0,0,0,0,-1,1189,939,0,0
-28,85,0,0,0,0,0,0,0,0,0,-1,1196,939,0,0
-21,85,0,0,0,0,0,0,0,0,0,-1,1203,939,0,0
-14,85,0,0,0,0,0,0,0,0,0,-1,1210,939,0,0
-7,85,0,0,0,0,0,0,0,0,0,-1,1217,939,0,0
0,85,0,0,0,0,0,0,0,0,0,-1,1224,939,0,0
7,85,0,0,0,0,0,0,0,0,0,-1,1231,939,0,0
14,85,0,0,0,0,0,0,0,0,0,-1,1238,939,0,0
21,85,0,0,0,0,0,0,0,0,0,-1,1245,939,0,0
28,85,0,0,0,0,0,0,0,0,0,-1,1252,939,0,0
35,85,0,0,0,0,0,0,0,0,0,-1,1259,939,0,0
42,85,0,0,0,0,0,0,0,0,0,-1,1266,939,0,0
49,85,0,0,0,0,0,0,0,0,0,-1,1273,939,0,0
56,85,0,0,0,0,0,0,0,0,0,-1,1280,939,0,0
63,85,0,0,0,0,0,0,0,0,0,-1,1287,939,0,0
70,85,0,0,0,0,0,0,0,0,0,-1,1294,939,0,0
77,85,0,0,0,0,0,0,0,0,0,-1,1301,939,0,0
84,85,0,0,0,0,0,0,0,0,0,-1,1308,939,0,0
91,85,0,0,0,0,0,0,0,0,0,-1,1315,939,0,0
98,85,0,0,0,0,0,0,0,0,0,-1,1322,939,0,0
105,85,0,0,0,0,0,0,0,0,0,-1,1329,939,0,0
112,85,0,0,0,0,0,0,0,0,0,-1,1336,939,0,0
119,85,0,0,0,0,0,0,0,0,0,-1,1343,939,0,0
126,85,0,0,0,0,0,0,0,0,0,-1,1350,939,0,0
133,85,0,0,0,0,0,0,0,0,0,-1,1357,939,0,0
140,85,0,0,0,0,0,0,0,0,0,-1,1364,939,0,0
147,85,0,0,0,0,0,0,0,0,0,-1,1371,939,0,0
154,85,0,0,0,0,0,0,0,0,0,-1,1378,939,0,0
161,85,0,0,0,0,0,0,0,0,0,-1,1385,939,0,0
168,85,0,0,0,0,0,0,0,0,0,-1,1392,939,0,0
175,85,0,0,0,0,0,0,0,0,0,-1,1399,939,0,0
182,85,0,0,0,0,0,0,0,0,0,-1,1406,939,0,0
189,85,0,0,0,0,0,0,0,0,0,-1,1413,939,0,0
196,85,0,0,0,0,0,0,0,0,0,-1,1420,939,0,0
203,85,0,0,0,0,0,0,0,0,0,-1,1427,939,0,0
210,85,0,0,0,0,0,0,0,0,0,-1,1434,939,0,0
217,85,0,0,0,0,0,0,0,0,0,-1,1441,939,0,0
224,85,0,0,0,0,0,0,0,0,0,-1,1448,939,0,0
231,85,0,0,0,0,0,0,0,0,0,-1,1455,939,0,0
238,85,0,0,0,0,0,0,0,0,0,-1,1462,939,0,0
245,85,0,0,0,0,0,0,0,0,0,-1,1469,939,0,0
252,85,0,0,0,0,0,0,0,0,0,-1,1476,939,0,0
259,85,0,0,0,0,0,0,0,0,0,-1,1483,939,0,0
266,85,0,0,0,0,0,0,0,0,0,-1,1490,939,0,0
273,85,0,0,0,0,0,0,0,0,0,-1,1497,939,0,0
280,85,0,0,0,0,0,0,0,0,0,-1,1504,939,0,0
287,85,0,0,0,0,0,0,0,0,0,-1,1511,939,0,0
294,85,0,0,0,0,0,0,0,0,0,-1,1518,939,0,0
301,85,0,0,0,0,0,0,0,0,0,-1,1525,939,0,0
308,85,0,0,0,0,0,0,0,0,0,-1,1532,939,0,0
315,85,0,0,0,0,0,0,0,0,0,-1,1539,939,0,0
322,85,0,0,0,0,0,0,0,0,0,-1,1546,939,0,0
329,85,0,0,0,0,0,0,0,0,0,-1,1553,939,0,0
336,85,0,0,0,0,0,0,0,0,0,-1,1560,939,0,0
343,85,0,0,0,0,0,0,0,0,0,-1,1567,939,0,0
350,85,0,0,0,0,0,0,0,0,0,-1,1574,939,0,0
357,85,0,0,0,0,0,0,0,0,0,-1,1581,939,0,0
364,85,0,0,0,0,0,0,0,0,0,-1,1588,939,0,0
371,85,0,0,0,0,0,0,0,0,0,-1,1595,939,0,0
378,85,0,0,0,0,0,0,0,0,0,-1,1602,939,0,0
385,85,0,0,0,0,0,0,0,0,0,-1,1609,939,0,0
392,85,0,0,0,0,0,0,0,0,0,-1,1616,939,0,0
399,85,0,0,0,0,0,0,0,0,0,-1,1623,939,0,0
406,85,0,0,0,0,0,0,0,0,0,-1,1630,939,0,0
413,85,0,0,0,0,0,0,0,0,0,-1,1637,939,0,0
420,85,0,0,0,0,0,0,0,0,0,-1,1644,939,0,0
427,85,0,0,0,0,0,0,0,0,0,-1,1651,939,0,0
434,85,0,0,0,0,0,0,0,0,0,-1,1658,939,0,0
441,85,0,0,0,0,0,0,0,0,0,-1,1665,939,0,0
448,85,0,0,0,0,0,0,0,0,0,-1,1672,939,0,0
455,85,0,0,0,0,0,0,0,0,0,-1,1679,939,0,0
462,85,0,0,0,0,0,0,0,0,0,-1,1686,939,0,0
469,85,0,0,0,0,0,0,0,0,0,-1,1693,939,0,0
476,85,0,0,0,0,0,0,0,0,0,-1,1700,939,0,0
483,85,0,0,0,0,0,0,0,0,0,-1,1707,939,0,0
490,85,0,0,0,0,0,0,0,0,0,-1,1714,939,0,0
497,85,0,0,0,0,0,0,0,0,0,-1,1721,939,0,0
504,85,0,0,0,0,0,0,0,0,0,-1,1728,939,0,0
511,85,0,0,0,0,0,0,0,0,0,-1,1735,939,0,0
518,85,0,0,0,0,0,0,0,0,0,-1,1742,939,0,0
525,85,0,0,0,0,0,0,0,0,0,-1,1749,939,0,0
532,85,0,0,0,0,0,0,0,0,0,-1,1756,939,0,0
539,85,0,0,0,0,0,0,0,0,0,-1,1763,939,0,0
546,85,0,0,0,0,0,0,0,0,0,-1,1770,939,0,0
553,85,0,0,0,0,0,0,0,0,0,-1,1777,939,0,0
560,85,0,0,0,0,0,0,0,0,0,-1,1784,939,0,0
567,85,0,0,0,0,0,0,0,0,0,-1,1791,939,0,0
574,85,0,0,0,0,0,0,0,0,0,-1,1798,939,0,0
581,85,0,0,0,0,0,0,0,0,0,-1,1805,939,0,0
588,85,0,0,0,0,0,0,0,0,0,-1,1812,939,0,0
595,85,0,0,0,0,0,0,0,0,0,-1,1819,939,0,0
602,85,0,0,0,0,0,0,0,0,0,-1,1826,939,0,0
609,85,0,0,0,0,0,0,0,0,0,-1,1833,939,0,0
616,85,0,0,0,0,0,0,0,0,0,-1,1840,939,0,0
623,85,0,0,0,0,0,0,0,0,0,-1,1847,939,0,0
630,85,0,0,0,0,0,0,0,0,0,-1,1854,939,0,0
637,85,67.1497,2.40869,0.000545049,0.001194,-0.00128962,0.00219933,-0.000460285,-0.908643,0.00164131,0.0483585,1861,939,67.1497,-2.40872
644,85,67.187,2.27368,0.000181405,0.00100322,-0.00118856,0.00184989,-0.000665274,-0.951825,0.00150486,0.041968,1868,939,67.187,-2.27365
651,85,67.2488,2.24481,2.55977e-05,0.000900057,-0.00100259,0.00155661,-0.000630955,-0.991015,0.00130013,0.0417588,1875,939,67.2488,-2.24479
658,85,67.1104,2.45496,-0.000103673,0.00101504,-0.000564296,0.00125024,-0.000338866,-1.1759,0.000966457,0.0435559,1882,939,67.1103,-2.45497
665,85,66.9768,2.54565,-0.000196993,0.0012362,1.56017e-05,0.00123637,-0.000197162,1.55991,0.000897218,0.0439424,1889,939,66.9768,-2.54566
672,85,67.0784,2.54083,-0.000577958,0.00123581,0.000592848,0.0014124,-0.000754544,1.2813,0.00127016,0.0445058,1896,939,67.0783,-2.54081
679,85,67.163,2.45276,-0.000998746,0.000928975,0.00104375,0.00138583,-0.0014556,1.15821,0.00164067,0.0424034,1903,939,67.1629,-2.45276
686,85,67.1586,2.3833,-0.00131161,0.00057568,0.00108263,0.00106819,-0.00180413,1.14386,0.00167638,0.0354859,1910,939,67.1585,-2.38332
693,85,67.1638,2.44446,-0.00165736,0.000397697,0.000953075,0.000771657,-0.00203132,1.19688,0.00167188,0.0310229,1917,939,67.1639,-2.44447
700,85,67.2123,2.53107,-0.00218436,0.000469463,0.000751089,0.000667291,-0.00238218,1.31326,0.00185109,0.044404,1924,939,67.2123,-2.53105
707,85,67.3494,2.54822,0,0,0,0,0,0,0,-1,1931,939,67.3494,-2.54825
714,85,63.9653,4.05029,0,0,0,0,0,0,0,-1,1938,939,63.9654,-4.05027
721,85,63.6444,4.75409,-0.00342951,0.00170926,-0.000237607,0.00172023,-0.00344047,-1.52469,0.00303421,0.0341179,1945,939,63.6444,-4.75408
728,85,63.3469,5.50122,-0.00360207,0.00250819,-0.000190624,0.00251413,-0.00360801,-1.53964,0.00355338,0.034111,1952,939,63.347,-5.50122
735,85,63.3563,5.94037,-0.00325777,0.00379201,-0.000384772,0.00381295,-0.00327871,-1.51643,0.00409824,0.031628,1959,939,63.3563,-5.94039
742,85,63.4098,6.45148,-0.00291565,0.00621354,-0.000729158,0.00627141,-0.00297352,-1.49159,0.00544959,0.0214121,1966,939,63.4098,-6.45149
749,85,63.2936,7.01099,-0.00183282,0.00975012,-0.000638775,0.00978524,-0.00186794,-1.51587,0.00722706,0.015763,1973,939,63.2936,-7.01096
756,85,63.1471,7.51471,0.00048847,0.0150489,0.000220793,0.0150522,0.000485123,1.55564,0.00987707,0.0145604,1980,939,63.1471,-7.51473
763,85,63.124,8.0293,0.00403528,0.021893,0.00209777,0.0221361,0.00379216,1.45542,0.0136698,0.0148401,1987,939,63.124,-8.02927
770,85,63.0386,8.56049,0.00864267,0.0296365,0.0045352,0.0305744,0.00770485,1.36688,0.0183616,0.0207795,1994,939,63.0386,-8.5605
777,85,62.8867,9.17218,0.0145901,0.0390302,0.00788244,0.0413519,0.0122684,1.28436,0.0245236,0.0434354,2001,939,62.8868,-9.17218
784,85,62.8438,9.80823,0,0,0,0,0,0,0,-1,2008,939,62.8438,-9.80824
791,85,65.1052,10.8699,0,0,0,0,0,0,0,-1,2015,939,65.1052,-10.8699
798,85,66.1899,7.75446,0,0,0,0,0,0,0,-1,2022,939,66.1901,-7.75447
805,85,66.9131,7.65668,0,0,0,0,0,0,0,-1,2029,939,66.913,-7.65669
812,85,0,0,0,0,0,0,0,0,0,-1,2036,939,0,0
-700,78,0,0,0,0,0,0,0,0,0,-1,524,946,0,0
-693,78,0,0,0,0,0,0,0,0,0,-1,531,946,0,0
-686,78,-45.6286,6.69879,0,0,0,0,0,0,0,-1,538,946,-45.6286,-6.69879
-679,78,-49.0783,6.08887,0.0723235,0.107633,0.0624983,0.154922,0.0250343,0.923054,0.0960307,0.0460107,545,946,-49.0783,-6.08887
-672,78,-48.6526,6.17944,0.0559799,0.0910325,0.0537963,0.130086,0.016927,0.942871,0.0816682,0.0444159,552,946,-48.6526,-6.17947
-665,78,-48.0988,6.6297,0.0410499,0.0755742,0.0449765,0.106487,0.0101367,0.968631,0.0678655,0.0450229,559,946,-48.0988,-6.62971
-658,78,-48.1061,7.20428,0,0,0,0,0,0,0,-1,566,946,-48.1061,-7.20427
-651,78,-48.8134,7.63361,0,0,0,0,0,0,0,-1,573,946,-48.8134,-7.63362
-644,78,-49.1811,6.6853,0.00862807,0.0381188,0.0226017,0.0503598,-0.00361292,1.07443,0.03484,0.0319906,580,946,-49.1811,-6.68528
-637,78,-49.5072,6.23553,0.00221791,0.0288496,0.0173526,0.0374067,-0.00633916,1.11266,0.0272973,0.0217917,587,946,-49.5072,-6.23555
-630,78,-49.6767,5.78711,-0.00171454,0.0218363,0.0132043,0.0277531,-0.00763128,1.14953,0.0215021,0.0190321,594,946,-49.6767,-5.7871
-623,78,-49.7318,5.30176,-0.00563037,0.0117551,0.0080433,0.0149054,-0.0087807,1.19749,0.0138268,0.014179,601,946,-49.7318,-5.30177
-616,78,-49.7712,4.78339,-0.00732002,0.00647264,0.00405128,0.00757458,-0.00842196,1.30522,0.00923992,0.0127075,608,946,-49.7712,-4.78337
-609,78,-49.7643,4.31378,-0.00548699,0.00440164,0.00283409,0.0051563,-0.00624165,1.31056,0.00659055,0.0131703,615,946,-49.7643,-4.31376
-602,78,-49.7806,3.80743,-0.00403676,0.0029095,0.00167867,0.0032939,-0.00442116,1.34568,0.00447011,0.0179212,622,946,-49.7806,-3.80742
-595,78,-49.7084,3.22852,-0.0030399,0.00201557,0.000686375,0.0021071,-0.00313143,1.43822,0.00304368,0.0177531,629,946,-49.7084,-3.22851
-588,78,-49.6871,2.78595,-0.00241744,0.00105844,-7.44654e-05,0.00106004,-0.00241904,-1.54939,0.00205909,0.0147774,636,946,-49.687,-2.78593
-581,78,-49.6371,2.27783,0,0,0,0,0,0,0,-1,643,946,-49.6372,-2.27782
-574,78,-51.9794,0.449219,0,0,0,0,0,0,0,-1,650,946,-51.9793,-0.449222
-567,78,-51.9443,0.49939,-0.00122173,9.65602e-05,-0.00162665,0.00119254,-0.00231771,-0.977895,0.00206105,0.038524,657,946,-51.9443,-0.4994
-560,78,-51.8991,0.489014,-0.00127461,0.000215471,-0.00195424,0.00156188,-0.00262102,-0.967514,0.00244066,0.0334642,664,946,-51.8991,-0.489037
-553,78,-51.8345,0.32666,-0.00121015,0.000518637,-0.0020367,0.00186678,-0.00255829,-0.986083,0.00256519,0.0388197,671,946,-51.8345,-0.326675
-546,78,-51.8907,0.319397,-0.000900495,0.000902365,-0.00171648,0.00193972,-0.00193785,-1.02719,0.00223871,0.0426531,678,946,-51.8908,-0.319412
-539,78,-51.8849,0.555908,-0.000223057,0.00108819,-0.000785906,0.00145604,-0.000590904,-1.13303,0.00121648,0.0421495,685,946,-51.8849,-0.555922
-532,78,-51.8781,0.783997,0.000905369,0.00070829,0.000833314,0.00164595,-3.22902e-05,0.726546,0.00110822,0.0412474,692,946,-51.8781,-0.783994
-525,78,-51.9045,0.500122,0.00126742,0.000908893,0.00203537,0.00313141,-0.000955096,0.741474,0.00246836,0.0382676,699,946,-51.9046,-0.500138
-518,78,-51.9135,0.462585,0.00191806,0.00116307,0.00330539,0.00486744,-0.0017863,0.728542,0.00397646,0.0388087,706,946,-51.9134,-0.46259
-511,78,0,0,0,0,0,0,0,0,0,-1,713,946,0,0
-504,78,0,0,0,0,0,0,0,0,0,-1,720,946,0,0
-497,78,0,0,0,0,0,0,0,0,0,-1,727,946,0,0
-490,78,0,0,0,0,0,0,0,0,0,-1,734,946,0,0
-483,78,0,0,0,0,0,0,0,0,0,-1,741,946,0,0
-476,78,0,0,0,0,0,0,0,0,0,-1,748,946,0,0
-469,78,0,0,0,0,0,0,0,0,0,-1,755,946,0,0
-462,78,0,0,0,0,0,0,0,0,0,-1,762,946,0,0
-455,78,0,0,0,0,0,0,0,0,0,-1,769,946,0,0
-448,78,0,0,0,0,0,0,0,0,0,-1,776,946,0,0
-441,78,0,0,0,0,0,0,0,0,0,-1,783,946,0,0
-434,78,0,0,0,0,0,0,0,0,0,-1,790,946,0,0
-427,78,0,0,0,0,0,0,0,0,0,-1,797,946,0,0
-420,78,0,0,0,0,0,0,0,0,0,-1,804,946,0,0
-413,78,0,0,0,0,0,0,0,0,0,-1,811,946,0,0
-406,78,0,0,0,0,0,0,0,0,0,-1,818,946,0,0
-399,78,0,0,0,0,0,0,0,0,0,-1,825,946,0,0
-392,78,0,0,0,0,0,0,0,0,0,-1,832,946,0,0
-385,78,0,0,0,0,0,0,0,0,0,-1,839,946,0,0
-378,78,0,0,0,0,0,0,0,0,0,-1,846,946,0,0
-371,78,0,0,0,0,0,0,0,0,0,-1,853,946,0,0
-364,78,0,0,0,0,0,0,0,0,0,-1,860,946,0,0
-357,78,0,0,0,0,0,0,0,0,0,-1,867,946,0,0
-350,78,0,0,0,0,0,0,0,0,0,-1,874,946,0,0
-343,78,0,0,0,0,0,0,0,0,0,-1,881,946,0,0
-336,78,0,0,0,0,0,0,0,0,0,-1,888,946,0,0
-329,78,0,0,0,0,0,0,0,0,0,-1,895,946,0,0
-322,78,0,0,0,0,0,0,0,0,0,-1,902,946,0,0
-315,78,0,0,0,0,0,0,0,0,0,-1,909,946,0,0
-308,78,0,0,0,0,0,0,0,0,0,-1,916,946,0,0
-301,78,0,0,0,0,0,0,0,0,0,-1,923,946,0,0
-294,78,0,0,0,0,0,0,0,0,0,-1,930,946,0,0
-287,78,0,0,0,0,0,0,0,0,0,-1,937,946,0,0
-280,78,0,0,0,0,0,0,0,0,0,-1,944,946,0,0
-273,78,0,0,0,0,0,0,0,0,0,-1,951,946,0,0
-266,78,0,0,0,0,0,0,0,0,0,-1,958,946,0,0
-259,78,0,0,0,0,0,0,0,0,0,-1,965,946,0,0
-252,78,0,0,0,0,0,0,0,0,0,-1,972,946,0,0
-245,78,0,0,0,0,0,0,0,0,0,-1,979,946,0,0
-238,78,0,0,0,0,0,0,0,0,0,-1,986,946,0,0
-231,78,0,0,0,0,0,0,0,0,0,-1,993,946,0,0
-224,78,0,0,0,0,0,0,0,0,0,-1,1000,946,0,0
-217,78,0,0,0,0,0,0,0,0,0,-1,1007,946,0,0
-210,78,0,0,0,0,0,0,0,0,0,-1,1014,946,0,0
-203,78,0,0,0,0,0,0,0,0,0,-1,1021,946,0,0
-196,78,0,0,0,0,0,0,0,0,0,-1,1028,946,0,0
-189,78,0,0,0,0,0,0,0,0,0,-1,1035,946,0,0
-182,78,0,0,0,0,0,0,0,0,0,-1,1042,946,0,0
-175,78,0,0,0,0,0,0,0,0,0,-1,1049,946,0,0
-168,78,0,0,0,0,0,0,0,0,0,-1,1056,946,0,0
-161,78,0,0,0,0,0,0,0,0,0,-1,1063,946,0,0
-154,78,0,0,0,0,0,0,0,0,0,-1,1070,946,0,0
-147,78,0,0,0,0,0,0,0,0,0,-1,1077,946,0,0
-140,78,0,0,0,0,0,0,0,0,0,-1,1084,946,0,0
-133,78,0,0,0,0,0,0,0,0,0,-1,1091,946,0,0
-126,78,0,0,0,0,0,0,0,0,0,-1,1098,946,0,0
-119,78,0,0,0,0,0,0,0,0,0,-1,1105,946,0,0
-112,78,0,0,0,0,0,0,0,0,0,-1,1112,946,0,0
-105,78,0,0,0,0,0,0,0,0,0,-1,1119,946,0,0
-98,78,0,0,0,0,0,0,0,0,0,-1,1126,946,0,0
-91,78,0,0,0,0,0,0,0,0,0,-1,1133,946,0,0
-84,78,0,0,0,0,0,0,0,0,0,-1,1140,946,0,0
-77,78,0,0,0,0,0,0,0,0,0,-1,1147,946,0,0
-70,78,0,0,0,0,0,0,0,0,0,-1,1154,946,0,0
-63,78,0,0,0,0,0,0,0,0,0,-1,1161,946,0,0
-56,78,0,0,0,0,0,0,0,0,0,-1,1168,946,0,0
-49,78,0,0,0,0,0,0,0,0,0,-1,1175,946,0,0
-42,78,0,0,0,0,0,0,0,0,0,-1,1182,946,0,0
-35,78,0,0,0,0,0,0,0,0,0,-1,1189,946,0,0
-28,78,0,0,0,0,0,0,0,0,0,-1,1196,946,0,0
-21,78,0,0,0,0,0,0,0,0,0,-1,1203,946,0,0
-14,78,0,0,0,0,0,0,0,0,0,-1,1210,946,0,0
-7,78,0,0,0,0,0,0,0,0,0,-1,1217,946,0,0
0,78,0,0,0,0,0,0,0,0,0,-1,1224,946,0,0
7,78,0,0,0,0,0,0,0,0,0,-1,1231,946,0,0
14,78,0,0,0,0,0,0,0,0,0,-1,1238,946,0,0
21,78,0,0,0,0,0,0,0,0,0,-1,1245,946,0,0
28,78,0,0,0,0,0,0,0,0,0,-1,1252,946,0,0
35,78,0,0,0,0,0,0,0,0,0,-1,1259,946,0,0
42,78,0,0,0,0,0,0,0,0,0,-1,1266,946,0,0
49,78,0,0,0,0,0,0,0,0,0,-1,1273,946,0,0
56,78,0,0,0,0,0,0,0,0,0,-1,1280,946,0,0
63,78,0,0,0,0,0,0,0,0,0,-1,1287,946,0,0
70,78,0,0,0,0,0,0,0,0,0,-1,1294,946,0,0
77,78,0,0,0,0,0,0,0,0,0,-1,1301,946,0,0
84,78,0,0,0,0,0,0,0,0,0,-1,1308,946,0,0
91,78,0,0,0,0,0,0,0,0,0,-1,1315,946,0,0
98,78,0,0,0,0,0,0,0,0,0,-1,1322,946,0,0
105,78,0,0,0,0,0,0,0,0,0,-1,1329,946,0,0
112,78,0,0,0,0,0,0,0,0,0,-1,1336,946,0,0
119,78,0,0,0,0,0,0,0,0,0,-1,1343,946,0,0
126,78,0,0,0,0,0,0,0,0,0,-1,1350,946,0,0
133,78,0,0,0,0,0,0,0,0,0,-1,1357,946,0,0
140,78,0,0,0,0,0,0,0,0,0,-1,1364,946,0,0
147,78,0,0,0,0,0,0,0,0,0,-1,1371,946,0,0
154,78,0,0,0,0,0,0,0,0,0,-1,1378,946,0,0
161,78,0,0,0,0,0,0,0,0,0,-1,1385,946,0,0
168,78,0,0,0,0,0,0,0,0,0,-1,1392,946,0,0
175,78,0,0,0,0,0,0,0,0,0,-1,1399,946,0,0
182,78,0,0,0,0,0,0,0,0,0,-1,1406,946,0,0
189,78,0,0,0,0,0,0,0,0,0,-1,1413,946,0,0
196,78,0,0,0,0,0,0,0,0,0,-1,1420,946,0,0
203,78,0,0,0,0,0,0,0,0,0,-1,1427,946,0,0
210,78,0,0,0,0,0,0,0,0,0,-1,1434,946,0,0
217,78,0,0,0,0,0,0,0,0,0,-1,1441,946,0,0
224,78,0,0,0,0,0,0,0,0,0,-1,1448,946,0,0
231,78,0,0,0,0,0,0,0,0,0,-1,1455,946,0,0
238,78,0,0,0,0,0,0,0,0,0,-1,1462,946,0,0
245,78,0,0,0,0,0,0,0,0,0,-1,1469,946,0,0
252,78,0,0,0,0,0,0,0,0,0,-1,1476,946,0,0
259,78,0,0,0,0,0,0,0,0,0,-1,1483,946,0,0
266,78,0,0,0,0,0,0,0,0,0,-1,1490,946,0,0
273,78,0,0,0,0,0,0,0,0,0,-1,1497,946,0,0
280,78,0,0,0,0,0,0,0,0,0,-1,1504,946,0,0
287,78,0,0,0,0,0,0,0,0,0,-1,1511,946,0,0
294,78,0,0,0,0,0,0,0,0,0,-1,1518,946,0,0
301,78,0,0,0,0,0,0,0,0,0,-1,1525,946,0,0
308,78,0,0,0,0,0,0,0,0,0,-1,1532,946,0,0
315,78,0,0,0,0,0,0,0,0,0,-1,1539,946,0,0
322,78,0,0,0,0,0,0,0,0,0,-1,1546,946,0,0
329,78,0,0,0,0,0,0,0,0,0,-1,1553,946,0,0
336,78,0,0,0,0,0,0,0,0,0,-1,1560,946,0,0
343,78,0,0,0,0,0,0,0,0,0,-1,1567,946,0,0
350,78,0,0,0,0,0,0,0,0,0,-1,1574,946,0,0
357,78,0,0,0,0,0,0,0,0,0,-1,1581,946,0,0
364,78,0,0,0,0,0,0,0,0,0,-1,1588,946,0,0
371,78,0,0,0,0,0,0,0,0,0,-1,1595,946,0,0
378,78,0,0,0,0,0,0,0,0,0,-1,1602,946,0,0
385,78,0,0,0,0,0,0,0,0,0,-1,1609,946,0,0
392,78,0,0,0,0,0,0,0,0,0,-1,1616,946,0,0
399,78,0,0,0,0,0,0,0,0,0,-1,1623,946,0,0
406,78,0,0,0,0,0,0,0,0,0,-1,1630,946,0,0
413,78,0,0,0,0,0,0,0,0,0,-1,1637,946,0,0
420,78,0,0,0,0,0,0,0,0,0,-1,1644,946,0,0
427,78,0,0,0,0,0,0,0,0,0,-1,1651,946,0,0
434,78,0,0,0,0,0,0,0,0,0,-1,1658,946,0,0
441,78,0,0,0,0,0,0,0,0,0,-1,1665,946,0,0
448,78,0,0,0,0,0,0,0,0,0,-1,1672,946,0,0
455,78,0,0,0,0,0,0,0,0,0,-1,1679,946,0,0
462,78,0,0,0,0,0,0,0,0,0,-1,1686,946,0,0
469,78,0,0,0,0,0,0,0,0,0,-1,1693,946,0,0
476,78,0,0,0,0,0,0,0,0,0,-1,1700,946,0,0
483,78,0,0,0,0,0,0,0,0,0,-1,1707,946,0,0
490,78,0,0,0,0,0,0,0,0,0,-1,1714,946,0,0
497,78,0,0,0,0,0,0,0,0,0,-1,1721,946,0,0
504,78,0,0,0,0,0,0,0,0,0,-1,1728,946,0,0
511,78,0,0,0,0,0,0,0,0,0,-1,1735,946,0,0
518,78,0,0,0,0,0,0,0,0,0,-1,1742,946,0,0
525,78,0,0,0,0,0,0,0,0,0,-1,1749,946,0,0
532,78,0,0,0,0,0,0,0,0,0,-1,1756,946,0,0
539,78,0,0,0,0,0,0,0,0,0,-1,1763,946,0,0
546,78,0,0,0,0,0,0,0,0,0,-1,1770,946,0,0
553,78,0,0,0,0,0,0,0,0,0,-1,1777,946,0,0
560,78,0,0,0,0,0,0,0,0,0,-1,1784,946,0,0
567,78,0,0,0,0,0,0,0,0,0,-1,1791,946,0,0
574,78,0,0,0,0,0,0,0,0,0,-1,1798,946,0,0
581,78,0,0,0,0,0,0,0,0,0,-1,1805,946,0,0
588,78,0,0,0,0,0,0,0,0,0,-1,1812,946,0,0
595,78,0,0,0,0,0,0,0,0,0,-1,1819,946,0,0
602,78,0,0,0,0,0,0,0,0,0,-1,1826,946,0,0
609,78,0,0,0,0,0,0,0,0,0,-1,1833,946,0,0
616,78,0,0,0,0,0,0,0,0,0,-1,1840,946,0,0
623,78,0,0,0,0,0,0,0,0,0,-1,1847,946,0,0
630,78,0,0,0,0,0,0,0,0,0,-1,1854,946,0,0
637,78,67.1549,2.38202,0.000766856,0.00171913,-0.00236474,0.00365519,-0.0011692,-0.884744,0.00290602,0.0453669,1861,946,67.1548,-2.38201
644,78,67.012,2.13208,0.000334118,0.00136206,-0.00193485,0.00285004,-0.00115386,-0.91522,0.00237979,0.0446308,1868,946,67.012,-2.13208
651,78,67.1204,1.87921,0.000180871,0.00111863,-0.00154311,0.00226252,-0.000963019,-0.932893,0.00191198,0.044597,1875,946,67.1204,-1.87919
658,78,67.1616,2.3515,4.29286e-05,0.00113409,-0.000942368,0.00167742,-0.000500396,-1.0478,0.00131715,0.0403072,1882,946,67.1617,-2.3515
665,78,67.1183,2.51031,-0.000105347,0.00131713,-0.000195931,0.00134362,-0.000131841,-1.43639,0.000942772,0.0383805,1889,946,67.1183,-2.51031
672,78,67.136,2.55408,-0.000542904,0.00133992,0.000556793,0.00149225,-0.000695236,1.30374,0.00129059,0.0411215,1896,946,67.136,-2.55406
679,78,67.0558,2.60181,-0.00101801,0.00102357,0.00116301,0.00155023,-0.00154467,1.14558,0.00178684,0.0422367,1903,946,67.0558,-2.60182
686,78,67.0527,2.47046,-0.00133163,0.000640058,0.00132971,0.00130951,-0.00200108,1.10439,0.00192522,0.0384727,1910,946,67.0527,-2.47046
693,78,67.1527,2.31342,-0.00165871,0.000402898,0.00128925,0.00102277,-0.00227858,1.12263,0.00195146,0.0318488,1917,946,67.1527,-2.31342
700,78,67.1619,2.38153,-0.0021982,0.000401237,0.00113626,0.000827889,-0.00262486,1.2116,0.00208149,0.0274902,1924,946,67.1618,-2.38151
707,78,67.2188,2.51379,0,0,0,0,0,0,0,-1,1931,946,67.2188,-2.51378
714,78,64.2737,4.21179,0,0,0,0,0,0,0,-1,1938,946,64.2737,-4.21179
721,78,64.1111,4.80432,-0.00363474,0.00170495,3.70353e-05,0.00170521,-0.003635,1.56386,0.00314956,0.0333795,1945,946,64.111,-4.80431
728,78,64,5.55536,-0.00377659,0.00257991,6.63839e-05,0.0025806,-0.00377728,1.56035,0.00369233,0.0418974,1952,946,64.0001,-5.55537
735,78,64.0454,6.00531,-0.00346387,0.00400462,-0.000162758,0.00400817,-0.00346741,-1.54902,0.00431979,0.0286541,1959,946,64.0454,-6.00534
742,78,64.0326,6.4599,-0.00328815,0.00669016,-0.00061325,0.00672771,-0.0033257,-1.50964,0.00591408,0.0214269,1966,946,64.0327,-6.4599
749,78,63.8748,6.97705,-0.00257653,0.0104283,-0.000736265,0.0104699,-0.00261808,-1.51442,0.00799678,0.0170741,1973,946,63.8748,-6.97704
756,78,63.8135,7.44269,-0.000801613,0.0161532,-0.000235704,0.0161565,-0.00080489,-1.5569,0.011049,0.0157973,1980,946,63.8134,-7.4427
763,78,63.7307,7.90149,0.00208065,0.0238322,0.00122351,0.0239009,0.00201205,1.51478,0.0153074,0.0169025,1987,946,63.7306,-7.90146
770,78,63.6145,8.3714,0.005883,0.032731,0.00325423,0.0331199,0.00549419,1.45188,0.0204955,0.0231789,1994,946,63.6145,-8.37142
777,78,63.5276,9.09473,0.0106714,0.0434715,0.00597452,0.0445259,0.00961704,1.39612,0.0270541,0.0433946,2001,946,63.5276,-9.09471
784,78,63.5032,9.85889,0,0,0,0,0,0,0,-1,2008,946,63.5033,-9.85891
791,78,64.3108,10.3895,0,0,0,0,0,0,0,-1,2015,946,64.3108,-10.3895
798,78,66.3169,7.22491,0,0,0,0,0,0,0,-1,2022,946,66.317,-7.22494
805,78,66.8821,7.14038,0,0,0,0,0,0,0,-1,2029,946,66.882,-7.14035
812,78,0,0,0,0,0,0,0,0,0,-1,2036,946,0,0
-700,71,0,0,0,0,0,0,0,0,0,-1,524,953,0,0
-693,71,0,0,0,0,0,0,0,0,0,-1,531,953,0,0
-686,71,-52.302,2.08679,0.0927546,0.116606,0.0670892,0.172821,0.0365395,0.87336,0.105172,0.0435923,538,953,-52.302,-2.08681
-679,71,-52.5341,1.8363,0.0761194,0.101902,0.0603066,0.15068,0.0273416,0.890694,0.0926933,0.0476179,545,953,-52.5341,-1.8363
-672,71,-49.2097,6.08606,0.0594893,0.0871234,0.0521359,0.127242,0.0193706,0.91493,0.0791652,0.0463782,552,953,-49.2097,-6.08607
-665,71,-48.5717,6.74939,0,0,0,0,0,0,0,-1,559,953,-48.5717,-6.74939
-658,71,-49.001,8.01373,0,0,0,0,0,0,0,-1,566,953,-49.001,-8.01372
-651,71,-49.3,7.35834,0.019305,0.0484636,0.0285914,0.0659783,0.00179035,1.02117,0.0434011,0.0479378,573,953,-49.3,-7.35831
-644,71,-49.6623,6.72052,0.0102708,0.038021,0.0223046,0.050414,-0.00212217,1.06364,0.0343386,0.0374849,580,953,-49.6623,-6.72051
-637,71,-50.0851,6.17151,0.0034098,0.0291242,0.0172322,0.0377671,-0.00523317,1.1059,0.0270915,0.0204621,587,953,-50.0851,-6.17151
-630,71,-50.2216,5.71448,-0.000966607,0.0222831,0.013004,0.0281008,-0.00678427,1.15013,0.0213575,0.0183846,594,953,-50.2216,-5.7145
-623,71,-50.2799,5.25977,-0.00523475,0.0125522,0.00792051,0.0155679,-0.00825045,1.207,0.0139662,0.0160427,601,953,-50.2799,-5.25975
-616,71,-50.3132,4.72552,-0.0072605,0.00714467,0.00386066,0.0081141,-0.00822994,1.32478,0.00943632,0.0154256,608,953,-50.3132,-4.72551
-609,71,-50.2883,4.29938,-0.00564698,0.00503324,0.00247713,0.00557981,-0.00619354,1.35363,0.00680042,0.0167952,615,953,-50.2882,-4.29936
-602,71,-50.277,3.85797,-0.00421863,0.00343774,0.00117931,0.00361528,-0.00439616,1.42138,0.00463272,0.0183386,622,953,-50.277,-3.85798
-595,71,-50.2709,3.40979,-0.00310433,0.00241472,0.000204764,0.00242231,-0.00311192,1.53376,0.00320344,0.0212147,629,953,-50.2709,-3.40979
-588,71,-50.2359,2.99121,-0.00236056,0.00127463,-0.000558783,0.00135859,-0.00244451,-1.42167,0.00222536,0.0263107,636,953,-50.2359,-2.99119
-581,71,-50.0449,2.49231,0,0,0,0,0,0,0,-1,643,953,-50.0449,-2.49229
-574,71,-51.9637,0.423523,0,0,0,0,0,0,0,-1,650,953,-51.9637,-0.423506
-567,71,-51.9601,0.428772,-0.00114119,3.83343e-05,-0.00206343,0.00159463,-0.00269748,-0.924595,0.00250517,0.0227139,657,953,-51.9602,-0.428753
-560,71,-52.0063,0.347412,-0.00110181,0.00010598,-0.00227367,0.00185459,-0.00285042,-0.915203,0.00273664,0.0284022,664,953,-52.0064,-0.347416
-553,71,-52.0035,0.370178,-0.000924239,0.000331852,-0.00220543,0.00199692,-0.0025893,-0.924113,0.00265521,0.0388593,671,953,-52.0035,-0.370178
-546,71,-52.0228,0.52356,-0.000474005,0.000575834,-0.00171049,0.00184014,-0.00173831,-0.934278,0.00206629,0.0420477,678,953,-52.0228,-0.523553
-539,71,-51.9875,0.643066,0.000340041,0.000526803,-0.000612744,0.00105324,-0.000186397,-0.861015,0.000771832,0.0427434,685,953,-51.9875,-0.643053
-532,71,-52.0743,0.349548,0.00163732,-0.000123909,0.000985315,0.00207819,-0.000564781,0.420726,0.00160715,0.0449158,692,953,-52.0743,-0.349544
-525,71,-52.1029,0.28009,0.00222747,0.000222775,0.00169404,0.00319349,-0.000743249,0.518255,0.00241517,0.0422388,699,953,-52.1029,-0.280093
-518,71,0,0,0,0,0,0,0,0,0,-1,706,953,0,0
-511,71,0,0,0,0,0,0,0,0,0,-1,713,953,0,0
-504,71,0,0,0,0,0,0,0,0,0,-1,720,953,0,0
-497,71,0,0,0,0,0,0,0,0,0,-1,727,953,0,0
-490,71,0,0,0,0,0,0,0,0,0,-1,734,953,0,0
-483,71,0,0,0,0,0,0,0,0,0,-1,741,953,0,0
-476,71,0,0,0,0,0,0,0,0,0,-1,748,953,0,0
-469,71,0,0,0,0,0,0,0,0,0,-1,755,953,0,0
-462,71,0,0,0,0,0,0,0,0,0,-1,762,953,0,0
-455,71,0,0,0,0,0,0,0,0,0,-1,769,953,0,0
-448,71,0,0,0,0,0,0,0,0,0,-1,776,953,0,0
-441,71,0,0,0,0,0,0,0,0,0,-1,783,953,0,0
-434,71,0,0,0,0,0,0,0,0,0,-1,790,953,0,0
-427,71,0,0,0,0,0,0,0,0,0,-1,797,953,0,0
-420,71,0,0,0,0,0,0,0,0,0,-1,804,953,0,0
-413,71,0,0,0,0,0,0,0,0,0,-1,811,953,0,0
-406,71,0,0,0,0,0,0,0,0,0,-1,818,953,0,0
-399,71,0,0,0,0,0,0,0,0,0,-1,825,953,0,0
-392,71,0,0,0,0,0,0,0,0,0,-1,832,953,0,0
-385,71,0,0,0,0,0,0,0,0,0,-1,839,953,0,0
-378,71,0,0,0,0,0,0,0,0,0,-1,846,953,0,0
-371,71,0,0,0,0,0,0,0,0,0,-1,853,953,0,0
-364,71,0,0,0,0,0,0,0,0,0,-1,860,953,0,0
-357,71,0,0,0,0,0,0,0,0,0,-1,867,953,0,0
-350,71,0,0,0,0,0,0,0,0,0,-1,874,953,0,0
-343,71,0,0,0,0,0,0,0,0,0,-1,881,953,0,0
-336,71,0,0,0,0,0,0,0,0,0,-1,888,953,0,0
-329,71,0,0,0,0,0,0,0,0,0,-1,895,953,0,0
-322,71,0,0,0,0,0,0,0,0,0,-1,902,953,0,0
-315,71,0,0,0,0,0,0,0,0,0,-1,909,953,0,0
-308,71,0,0,0,0,0,0,0,0,0,-1,916,953,0,0
-301,71,0,0,0,0,0,0,0,0,0,-1,923,953,0,0
-294,71,0,0,0,0,0,0,0,0,0,-1,930,953,0,0
-287,71,0,0,0,0,0,0,0,0,0,-1,937,953,0,0
-280,71,0,0,0,0,0,0,0,0,0,-1,944,953,0,0
-273,71,0,0,0,0,0,0,0,0,0,-1,951,953,0,0
-266,71,0,0,0,0,0,0,0,0,0,-1,958,953,0,0
-259,71,0,0,0,0,0,0,0,0,0,-1,965,953,0,0
-252,71,0,0,0,0,0,0,0,0,0,-1,972,953,0,0
-245,71,0,0,0,0,0,0,0,0,0,-1,979,953,0,0
-238,71,0,0,0,0,0,0,0,0,0,-1,986,953,0,0
-231,71,0,0,0,0,0,0,0,0,0,-1,993,953,0,0
-224,71,0,0,0,0,0,0,0,0,0,-1,1000,953,0,0
-217,71,0,0,0,0,0,0,0,0,0,-1,1007,953,0,0
-210,71,0,0,0,0,0,0,0,0,0,-1,1014,953,0,0
-203,71,0,0,0,0,0,0,0,0,0,-1,1021,953,0,0
-196,71,0,0,0,0,0,0,0,0,0,-1,1028,953,0,0
-189,71,0,0,0,0,0,0,0,0,0,-1,1035,953,0,0
-182,71,0,0,0,0,0,0,0,0,0,-1,1042,953,0,0
-175,71,0,0,0,0,0,0,0,0,0,-1,1049,953,0,0
-168,71,0,0,0,0,0,0,0,0,0,-1,1056,953,0,0
-161,71,0,0,0,0,0,0,0,0,0,-1,1063,953,0,0
-154,71,0,0,0,0,0,0,0,0,0,-1,1070,953,0,0
-147,71,0,0,0,0,0,0,0,0,0,-1,1077,953,0,0
-140,71,0,0,0,0,0,0,0,0,0,-1,1084,953,0,0
-133,71,0,0,0,0,0,0,0,0,0,-1,1091,953,0,0
-126,71,0,0,0,0,0,0,0,0,0,-1,1098,953,0,0
-119,71,0,0,0,0,0,0,0,0,0,-1,1105,953,0,0
-112,71,0,0,0,0,0,0,0,0,0,-1,1112,953,0,0
-105,71,0,0,0,0,0,0,0,0,0,-1,1119,953,0,0
-98,71,0,0,0,0,0,0,0,0,0,-1,1126,953,0,0
-91,71,0,0,0,0,0,0,0,0,0,-1,1133,953,0,0
-84,71,0,0,0,0,0,0,0,0,0,-1,1140,953,0,0
-77,71,0,0,0,0,0,0,0,0,0,-1,1147,953,0,0
-70,71,0,0,0,0,0,0,0,0,0,-1,1154,953,0,0
-63,71,0,0,0,0,0,0,0,0,0,-1,1161,953,0,0
-56,71,0,0,0,0,0,0,0,0,0,-1,1168,953,0,0
-49,71,0,0,0,0,0,0,0,0,0,-1,1175,953,0,0
-42,71,0,0,0,0,0,0,0,0,0,-1,1182,953,0,0
-35,71,0,0,0,0,0,0,0,0,0,-1,1189,953,0,0
-28,71,0,0,0,0,0,0,0,0,0,-1,1196,953,0,0
-21,71,0,0,0,0,0,0,0,0,0,-1,1203,953,0,0
-14,71,0,0,0,0,0,0,0,0,0,-1,1210,953,0,0
-7,71,0,0,0,0,0,0,0,0,0,-1,1217,953,0,0
0,71,0,0,0,0,0,0,0,0,0,-1,1224,953,0,0
7,71,0,0,0,0,0,0,0,0,0,-1,1231,953,0,0
14,71,0,0,0,0,0,0,0,0,0,-1,1238,953,0,0
21,71,0,0,0,0,0,0,0,0,0,-1,1245,953,0,0
28,71,0,0,0,0,0,0,0,0,0,-1,1252,953,0,0
35,71,0,0,0,0,0,0,0,0,0,-1,1259,953,0,0
42,71,0,0,0,0,0,0,0,0,0,-1,1266,953,0,0
49,71,0,0,0,0,0,0,0,0,0,-1,1273,953,0,0
56,71,0,0,0,0,0,0,0,0,0,-1,1280,953,0,0
63,71,0,0,0,0,0,0,0,0,0,-1,1287,953,0,0
70,71,0,0,0,0,0,0,0,0,0,-1,1294,953,0,0
77,71,0,0,0,0,0,0,0,0,0,-1,1301,953,0,0
84,71,0,0,0,0,0,0,0,0,0,-1,1308,953,0,0
91,71,0,0,0,0,0,0,0,0,0,-1,1315,953,0,0
98,71,0,0,0,0,0,0,0,0,0,-1,1322,953,0,0
105,71,0,0,0,0,0,0,0,0,0,-1,1329,953,0,0
112,71,0,0,0,0,0,0,0,0,0,-1,1336,953,0,0
119,71,0,0,0,0,0,0,0,0,0,-1,1343,953,0,0
126,71,0,0,0,0,0,0,0,0,0,-1,1350,953,0,0
133,71,0,0,0,0,0,0,0,0,0,-1,1357,953,0,0
140,71,0,0,0,0,0,0,0,0,0,-1,1364,953,0,0
147,71,0,0,0,0,0,0,0,0,0,-1,1371,953,0,0
154,71,0,0,0,0,0,0,0,0,0,-1,1378,953,0,0
161,71,0,0,0,0,0,0,0,0,0,-1,1385,953,0,0
168,71,0,0,0,0,0,0,0,0,0,-1,1392,953,0,0
175,71,0,0,0,0,0,0,0,0,0,-1,1399,953,0,0
182,71,0,0,0,0,0,0,0,0,0,-1,1406,953,0,0
189,71,0,0,0,0,0,0,0,0,0,-1,1413,953,0,0
196,71,0,0,0,0,0,0,0,0,0,-1,1420,953,0,0
203,71,0,0,0,0,0,0,0,0,0,-1,1427,953,0,0
210,71,0,0,0,0,0,0,0,0,0,-1,1434,953,0,0
217,71,0,0,0,0,0,0,0,0,0,-1,1441,953,0,0
224,71,0,0,0,0,0,0,0,0,0,-1,1448,953,0,0
231,71,0,0,0,0,0,0,0,0,0,-1,1455,953,0,0
238,71,0,0,0,0,0,0,0,0,0,-1,1462,953,0,0
245,71,0,0,0,0,0,0,0,0,0,-1,1469,953,0,0
252,71,0,0,0,0,0,0,0,0,0,-1,1476,953,0,0
259,71,0,0,0,0,0,0,0,0,0,-1,1483,953,0,0
266,71,0,0,0,0,0,0,0,0,0,-1,1490,953,0,0
273,71,0,0,0,0,0,0,0,0,0,-1,1497,953,0,0
280,71,0,0,0,0,0,0,0,0,0,-1,1504,953,0,0
287,71,0,0,0,0,0,0,0,0,0,-1,1511,953,0,0
294,71,0,0,0,0,0,0,0,0,0,-1,1518,953,0,0
301,71,0,0,0,0,0,0,0,0,0,-1,1525,953,0,0
308,71,0,0,0,0,0,0,0,0,0,-1,1532,953,0,0
315,71,0,0,0,0,0,0,0,0,0,-1,1539,953,0,0
322,71,0,0,0,0,0,0,0,0,0,-1,1546,953,0,0
329,71,0,0,0,0,0,0,0,0,0,-1,1553,953,0,0
336,71,0,0,0,0,0,0,0,0,0,-1,1560,953,0,0
343,71,0,0,0,0,0,0,0,0,0,-1,1567,953,0,0
350,71,0,0,0,0,0,0,0,0,0,-1,1574,953,0,0
357,71,0,0,0,0,0,0,0,0,0,-1,1581,953,0,0
364,71,0,0,0,0,0,0,0,0,0,-1,1588,953,0,0
371,71,0,0,0,0,0,0,0,0,0,-1,1595,953,0,0
378,71,0,0,0,0,0,0,0,0,0,-1,1602,953,0,0
385,71,0,0,0,0,0,0,0,0,0,-1,1609,953,0,0
392,71,0,0,0,0,0,0,0,0,0,-1,1616,953,0,0
399,71,0,0,0,0,0,0,0,0,0,-1,1623,953,0,0
406,71,0,0,0,0,0,0,0,0,0,-1,1630,953,0,0
413,71,0,0,0,0,0,0,0,0,0,-1,1637,953,0,0
420,71,0,0,0,0,0,0,0,0,0,-1,1644,953,0,0
427,71,0,0,0,0,0,0,0,0,0,-1,1651,953,0,0
434,71,0,0,0,0,0,0,0,0,0,-1,1658,953,0,0
441,71,0,0,0,0,0,0,0,0,0,-1,1665,953,0,0
448,71,0,0,0,0,0,0,0,0,0,-1,1672,953,0,0
455,71,0,0,0,0,0,0,0,0,0,-1,1679,953,0,0
462,71,0,0,0,0,0,0,0,0,0,-1,1686,953,0,0
469,71,0,0,0,0,0,0,0,0,0,-1,1693,953,0,0
476,71,0,0,0,0,0,0,0,0,0,-1,1700,953,0,0
483,71,0,0,0,0,0,0,0,0,0,-1,1707,953,0,0
490,71,0,0,0,0,0,0,0,0,0,-1,1714,953,0,0
497,71,0,0,0,0,0,0,0,0,0,-1,1721,953,0,0
504,71,0,0,0,0,0,0,0,0,0,-1,1728,953,0,0
511,71,0,0,0,0,0,0,0,0,0,-1,1735,953,0,0
518,71,0,0,0,0,0,0,0,0,0,-1,1742,953,0,0
525,71,0,0,0,0,0,0,0,0,0,-1,1749,953,0,0
532,71,0,0,0,0,0,0,0,0,0,-1,1756,953,0,0
539,71,0,0,0,0,0,0,0,0,0,-1,1763,953,0,0
546,71,0,0,0,0,0,0,0,0,0,-1,1770,953,0,0
553,71,0,0,0,0,0,0,0,0,0,-1,1777,953,0,0
560,71,0,0,0,0,0,0,0,0,0,-1,1784,953,0,0
567,71,0,0,0,0,0,0,0,0,0,-1,1791,953,0,0
574,71,0,0,0,0,0,0,0,0,0,-1,1798,953,0,0
581,71,0,0,0,0,0,0,0,0,0,-1,1805,953,0,0
588,71,0,0,0,0,0,0,0,0,0,-1,1812,953,0,0
595,71,0,0,0,0,0,0,0,0,0,-1,1819,953,0,0
602,71,0,0,0,0,0,0,0,0,0,-1,1826,953,0,0
609,71,0,0,0,0,0,0,0,0,0,-1,1833,953,0,0
616,71,0,0,0,0,0,0,0,0,0,-1,1840,953,0,0
623,71,0,0,0,0,0,0,0,0,0,-1,1847,953,0,0
630,71,0,0,0,0,0,0,0,0,0,-1,1854,953,0,0
637,71,67.2257,2.42029,0.00120382,0.00151591,-0.00324261,0.00460623,-0.0018865,-0.809441,0.00385665,0.0413783,1861,953,67.2257,-2.4203
644,71,66.9761,2.09625,0.000690145,0.00135826,-0.00256357,0.00360945,-0.00156104,-0.850188,0.00306228,0.0452268,1868,953,66.9761,-2.09626
651,71,67.251,2.11975,0.000490988,0.00120135,-0.00202161,0.00289874,-0.0012064,-0.872357,0.00243631,0.0442137,1875,953,67.251,-2.11973
658,71,67.2889,2.29364,0.000278158,0.00123042,-0.00130311,0.00214166,-0.000633076,-0.960554,0.00167906,0.0399437,1882,953,67.2889,-2.29364
665,71,67.2529,2.43518,1.40014e-05,0.00145259,-0.000428444,0.00157053,-0.000103931,-1.30219,0.00108332,0.0370784,1889,953,67.253,-2.4352
672,71,67.2104,2.51196,-0.000492391,0.00157457,0.000463767,0.00167385,-0.000591678,1.35989,0.00135683,0.0373184,1896,953,67.2104,-2.51199
679,71,67.0809,2.45532,-0.000990252,0.00134157,0.00120706,0.00185386,-0.00150254,1.16943,0.00194135,0.0389045,1903,953,67.081,-2.45531
686,71,67.0828,2.38385,-0.00129191,0.000993487,0.00150749,0.00174243,-0.00204085,1.1097,0.00218654,0.038424,1910,953,67.0828,-2.38384
693,71,67.2244,2.19202,-0.00158631,0.000747967,0.00156524,0.00153331,-0.00237165,1.10576,0.00227178,0.0345428,1917,953,67.2243,-2.192
700,71,67.1759,2.28265,-0.00209674,0.000692628,0.0014769,0.00132929,-0.0027334,1.16378,0.00239184,0.0310484,1924,953,67.1759,-2.28266
707,71,67.1418,2.58203,0,0,0,0,0,0,0,-1,1931,953,67.1418,-2.58201
714,71,65.1326,4.3573,0,0,0,0,0,0,0,-1,1938,953,65.1325,-4.35729
721,71,64.7754,4.90253,-0.00368016,0.00203635,0.00032308,0.00205456,-0.00369836,1.51452,0.00336634,0.0399619,1945,953,64.7754,-4.9025
728,71,64.5087,5.56561,-0.00383626,0.00296372,0.000319878,0.00297873,-0.00385127,1.52389,0.00395402,0.0342513,1952,953,64.5087,-5.56563
735,71,64.5277,6.08459,-0.00361202,0.00451065,5.8266e-05,0.00451107,-0.00361244,1.56362,0.00469967,0.0233543,1959,953,64.5277,-6.08461
742,71,64.5519,6.50616,-0.0036346,0.00753766,-0.000459817,0.00755655,-0.00365349,-1.52973,0.00660159,0.0227049,1966,953,64.5518,-6.50617
749,71,64.4963,6.95477,-0.00332658,0.0114708,-0.000733042,0.011507,-0.0033628,-1.52142,0.00900409,0.0214059,1973,953,64.4963,-6.95476
756,71,64.441,7.36591,-0.00215444,0.017588,-0.000528202,0.0176021,-0.00216856,-1.54407,0.0125203,0.0191666,1980,953,64.4411,-7.36593
763,71,64.3513,7.85065,-1.31863e-05,0.0261173,0.000561354,0.0261294,-2.52398e-05,1.54933,0.017428,0.0213736,1987,953,64.3512,-7.85062
770,71,64.0869,8.25958,0.00299791,0.0363718,0.00228147,0.036527,0.00284267,1.50286,0.0234613,0.0251138,1994,953,64.0868,-8.25956
777,71,63.9978,8.94037,0.00681206,0.0486702,0.00455371,0.0491599,0.00632239,1.46368,0.0308823,0.0436343,2001,953,63.9978,-8.94037
784,71,64.1162,9.73486,0.0129116,0.0642921,0.00797122,0.0655004,0.0117033,1.42037,0.0403358,0.0461462,2008,953,64.1163,-9.73489
791,71,64.5188,10.3153,0,0,0,0,0,0,0,-1,2015,953,64.5189,-10.3153
798,71,64.6321,10.6946,0,0,0,0,0,0,0,-1,2022,953,64.6321,-10.6946
805,71,59.978,6.41992,0,0,0,0,0,0,0,-1,2029,953,59.9781,-6.41992
812,71,0,0,0,0,0,0,0,0,0,-1,2036,953,0,0
-700,64,0,0,0,0,0,0,0,0,0,-1,524,960,0,0
-693,64,0,0,0,0,0,0,0,0,0,-1,531,960,0,0
-686,64,-52.5379,2.25641,0.0924804,0.103703,0.0579035,0.156266,0.0399168,0.8337,0.0937487,0.0447429,538,960,-52.5379,-2.25639
-679,64,-52.8076,2.11218,0.0763195,0.0916215,0.052198,0.136726,0.0312148,0.858168,0.0827326,0.0442932,545,960,-52.8076,-2.11219
-672,64,-52.5614,1.78906,0.0600936,0.0793341,0.045376,0.116098,0.0233293,0.889858,0.0709134,0.0495399,552,960,-52.5614,-1.78904
-665,64,-52.5105,1.56799,0.0450644,0.0674981,0.0383795,0.0962663,0.0162962,0.927569,0.0594942,0.0492019,559,960,-52.5105,-1.56802
-658,64,-49.5291,7.68689,0,0,0,0,0,0,0,-1,566,960,-49.5291,-7.68687
-651,64,-50.0324,7.11914,0.0203909,0.0460903,0.025559,0.0618479,0.00463328,1.01832,0.0397775,0.0487139,573,960,-50.0324,-7.11911
-644,64,-50.6398,6.3421,0.0112407,0.0366718,0.0201707,0.0478004,0.000112111,1.06663,0.0318296,0.0382572,580,960,-50.6398,-6.34208
-637,64,-50.6586,5.93774,0.00418914,0.0285101,0.0157644,0.0362593,-0.00356004,1.11392,0.0254427,0.0200029,587,960,-50.6586,-5.93775
-630,64,-50.7214,5.57263,-0.000455189,0.022101,0.011858,0.0271878,-0.00554192,1.16557,0.0202271,0.0151368,594,960,-50.7214,-5.57264
-623,64,-50.7593,5.20612,-0.00494098,0.0131307,0.00722183,0.0156621,-0.00747239,1.23366,0.0136328,0.0148615,601,960,-50.7593,-5.20612
-616,64,-50.7968,4.7439,-0.00723327,0.00779022,0.00338871,0.00851921,-0.00796225,1.3589,0.00951739,0.0183676,608,960,-50.7967,-4.74391
-609,64,-50.7744,4.37531,-0.00577809,0.00562373,0.00204396,0.00597907,-0.00613343,1.39867,0.00699334,0.0184905,615,960,-50.7744,-4.37533
-602,64,-50.7717,3.96753,-0.00436549,0.00393172,0.000675067,0.00398629,-0.00442006,1.49014,0.00485556,0.0182471,622,960,-50.7717,-3.96752
-595,64,-50.7745,3.57037,-0.00319043,0.00280713,-0.000267348,0.00281903,-0.00320232,-1.52634,0.00347877,0.0255475,629,960,-50.7744,-3.5704
-588,64,-50.6393,3.29059,-0.00235758,0.00151151,-0.00101748,0.00176277,-0.00260883,-1.3287,0.00253965,0.0381616,636,960,-50.6393,-3.2906
-581,64,-50.431,2.94244,0,0,0,0,0,0,0,-1,643,960,-50.431,-2.94247
-574,64,-51.9404,0.40802,0,0,0,0,0,0,0,-1,650,960,-51.9405,-0.408013
-567,64,-51.9309,0.420166,-0.00111126,5.88707e-05,-0.00245284,0.00199545,-0.00304784,-0.902473,0.0029328,0.0274963,657,960,-51.9309,-0.420191
-560,64,-52.0088,0.42981,-0.0010101,7.34582e-05,-0.00253471,0.00212365,-0.00306029,-0.890686,0.00300919,0.0349037,664,960,-52.0088,-0.429828
-553,64,-52.045,0.44751,-0.000761533,0.000212687,-0.00231282,0.00208914,-0.00263798,-0.889188,0.00273533,0.0388339,671,960,-52.045,-0.447513
-546,64,-52.0883,0.506287,-0.000249688,0.000295484,-0.00165002,0.00169529,-0.00164949,-0.86726,0.00193117,0.0420522,678,960,-52.0882,-0.506272
-539,64,-52.4075,0.603088,0,0,0,0,0,0,0,-1,685,960,-52.4075,-0.603089
-532,64,-52.4808,0.636536,0,0,0,0,0,0,0,-1,692,960,-52.4808,-0.636535
-525,64,-52.1906,0.432373,0,0,0,0,0,0,0,-1,699,960,-52.1906,-0.432369
-518,64,0,0,0,0,0,0,0,0,0,-1,706,960,0,0
-511,64,0,0,0,0,0,0,0,0,0,-1,713,960,0,0
-504,64,0,0,0,0,0,0,0,0,0,-1,720,960,0,0
-497,64,0,0,0,0,0,0,0,0,0,-1,727,960,0,0
-490,64,0,0,0,0,0,0,0,0,0,-1,734,960,0,0
-483,64,0,0,0,0,0,0,0,0,0,-1,741,960,0,0
-476,64,0,0,0,0,0,0,0,0,0,-1,748,960,0,0
-469,64,0,0,0,0,0,0,0,0,0,-1,755,960,0,0
-462,64,0,0,0,0,0,0,0,0,0,-1,762,960,0,0
-455,64,0,0,0,0,0,0,0,0,0,-1,769,960,0,0
-448,64,0,0,0,0,0,0,0,0,0,-1,776,960,0,0
-441,64,0,0,0,0,0,0,0,0,0,-1,783,960,0,0
-434,64,0,0,0,0,0,0,0,0,0,-1,790,960,0,0
-427,64,0,0,0,0,0,0,0,0,0,-1,797,960,0,0
-420,64,0,0,0,0,0,0,0,0,0,-1,804,960,0,0
-413,64,0,0,0,0,0,0,0,0,0,-1,811,960,0,0
-406,64,0,0,0,0,0,0,0,0,0,-1,818,960,0,0
-399,64,0,0,0,0,0,0,0,0,0,-1,825,960,0,0
-392,64,0,0,0,0,0,0,0,0,0,-1,832,960,0,0
-385,64,0,0,0,0,0,0,0,0,0,-1,839,960,0,0
-378,64,0,0,0,0,0,0,0,0,0,-1,846,960,0,0
-371,64,0,0,0,0,0,0,0,0,0,-1,853,960,0,0
-364,64,0,0,0,0,0,0,0,0,0,-1,860,960,0,0
-357,64,0,0,0,0,0,0,0,0,0,-1,867,960,0,0
-350,64,0,0,0,0,0,0,0,0,0,-1,874,960,0,0
-343,64,0,0,0,0,0,0,0,0,0,-1,881,960,0,0
-336,64,0,0,0,0,0,0,0,0,0,-1,888,960,0,0
-329,64,0,0,0,0,0,0,0,0,0,-1,895,960,0,0
-322,64,0,0,0,0,0,0,0,0,0,-1,902,960,0,0
-315,64,0,0,0,0,0,0,0,0,0,-1,909,960,0,0
-308,64,0,0,0,0,0,0,0,0,0,-1,916,960,0,0
-301,64,0,0,0,0,0,0,0,0,0,-1,923,960,0,0
-294,64,0,0,0,0,0,0,0,0,0,-1,930,960,0,0
-287,64,0,0,0,0,0,0,0,0,0,-1,937,960,0,0
-280,64,0,0,0,0,0,0,0,0,0,-1,944,960,0,0
-273,64,0,0,0,0,0,0,0,0,0,-1,951,960,0,0
-266,64,0,0,0,0,0,0,0,0,0,-1,958,960,0,0
-259,64,0,0,0,0,0,0,0,0,0,-1,965,960,0,0
-252,64,0,0,0,0,0,0,0,0,0,-1,972,960,0,0
-245,64,0,0,0,0,0,0,0,0,0,-1,979,960,0,0
-238,64,0,0,0,0,0,0,0,0,0,-1,986,960,0,0
-231,64,0,0,0,0,0,0,0,0,0,-1,993,960,0,0
-224,64,0,0,0,0,0,0,0,0,0,-1,1000,960,0,0
-217,64,0,0,0,0,0,0,0,0,0,-1,1007,960,0,0
-210,64,0,0,0,0,0,0,0,0,0,-1,1014,960,0,0
-203,64,0,0,0,0,0,0,0,0,0,-1,1021,960,0,0
-196,64,0,0,0,0,0,0,0,0,0,-1,1028,960,0,0
-189,64,0,0,0,0,0,0,0,0,0,-1,1035,960,0,0
-182,64,0,0,0,0,0,0,0,0,0,-1,1042,960,0,0
-175,64,0,0,0,0,0,0,0,0,0,-1,1049,960,0,0
-168,64,0,0,0,0,0,0,0,0,0,-1,1056,960,0,0
-161,64,0,0,0,0,0,0,0,0,0,-1,1063,960,0,0
-154,64,0,0,0,0,0,0,0,0,0,-1,1070,960,0,0
-147,64,0,0,0,0,0,0,0,0,0,-1,1077,960,0,0
-140,64,0,0,0,0,0,0,0,0,0,-1,1084,960,0,0
-133,64,0,0,0,0,0,0,0,0,0,-1,1091,960,0,0
-126,64,0,0,0,0,0,0,0,0,0,-1,1098,960,0,0
-119,64,0,0,0,0,0,0,0,0,0,-1,1105,960,0,0
-112,64,0,0,0,0,0,0,0,0,0,-1,1112,960,0,0
-105,64,0,0,0,0,0,0,0,0,0,-1,1119,960,0,0
-98,64,0,0,0,0,0,0,0,0,0,-1,1126,960,0,0
-91,64,0,0,0,0,0,0,0,0,0,-1,1133,960,0,0
-84,64,0,0,0,0,0,0,0,0,0,-1,1140,960,0,0
-77,64,0,0,0,0,0,0,0,0,0,-1,1147,960,0,0
-70,64,0,0,0,0,0,0,0,0,0,-1,1154,960,0,0
-63,64,0,0,0,0,0,0,0,0,0,-1,1161,960,0,0
-56,64,0,0,0,0,0,0,0,0,0,-1,1168,960,0,0
-49,64,0,0,0,0,0,0,0,0,0,-1,1175,960,0,0
-42,64,0,0,0,0,0,0,0,0,0,-1,1182,960,0,0
-35,64,0,0,0,0,0,0,0,0,0,-1,1189,960,0,0
-28,64,0,0,0,0,0,0,0,0,0,-1,1196,960,0,0
-21,64,0,0,0,0,0,0,0,0,0,-1,1203,960,0,0
-14,64,0,0,0,0,0,0,0,0,0,-1,1210,960,0,0
-7,64,0,0,0,0,0,0,0,0,0,-1,1217,960,0,0
0,64,0,0,0,0,0,0,0,0,0,-1,1224,960,0,0
7,64,0,0,0,0,0,0,0,0,0,-1,1231,960,0,0
14,64,0,0,0,0,0,0,0,0,0,-1,1238,960,0,0
21,64,0,0,0,0,0,0,0,0,0,-1,1245,960,0,0
28,64,0,0,0,0,0,0,0,0,0,-1,1252,960,0,0
35,64,0,0,0,0,0,0,0,0,0,-1,1259,960,0,0
42,64,0,0,0,0,0,0,0,0,0,-1,1266,960,0,0
49,64,0,0,0,0,0,0,0,0,0,-1,1273,960,0,0
56,64,0,0,0,0,0,0,0,0,0,-1,1280,960,0,0
63,64,0,0,0,0,0,0,0,0,0,-1,1287,960,0,0
70,64,0,0,0,0,0,0,0,0,0,-1,1294,960,0,0
77,64,0,0,0,0,0,0,0,0,0,-1,1301,960,0,0
84,64,0,0,0,0,0,0,0,0,0,-1,1308,960,0,0
91,64,0,0,0,0,0,0,0,0,0,-1,1315,960,0,0
98,64,0,0,0,0,0,0,0,0,0,-1,1322,960,0,0
105,64,0,0,0,0,0,0,0,0,0,-1,1329,960,0,0
112,64,0,0,0,0,0,0,0,0,0,-1,1336,960,0,0
119,64,0,0,0,0,0,0,0,0,0,-1,1343,960,0,0
126,64,0,0,0,0,0,0,0,0,0,-1,1350,960,0,0
133,64,0,0,0,0,0,0,0,0,0,-1,1357,960,0,0
140,64,0,0,0,0,0,0,0,0,0,-1,1364,960,0,0
147,64,0,0,0,0,0,0,0,0,0,-1,1371,960,0,0
154,64,0,0,0,0,0,0,0,0,0,-1,1378,960,0,0
161,64,0,0,0,0,0,0,0,0,0,-1,1385,960,0,0
168,64,0,0,0,0,0,0,0,0,0,-1,1392,960,0,0
175,64,0,0,0,0,0,0,0,0,0,-1,1399,960,0,0
182,64,0,0,0,0,0,0,0,0,0,-1,1406,960,0,0
189,64,0,0,0,0,0,0,0,0,0,-1,1413,960,0,0
196,64,0,0,0,0,0,0,0,0,0,-1,1420,960,0,0
203,64,0,0,0,0,0,0,0,0,0,-1,1427,960,0,0
210,64,0,0,0,0,0,0,0,0,0,-1,1434,960,0,0
217,64,0,0,0,0,0,0,0,0,0,-1,1441,960,0,0
224,64,0,0,0,0,0,0,0,0,0,-1,1448,960,0,0
231,64,0,0,0,0,0,0,0,0,0,-1,1455,960,0,0
238,64,0,0,0,0,0,0,0,0,0,-1,1462,960,0,0
245,64,0,0,0,0,0,0,0,0,0,-1,1469,960,0,0
252,64,0,0,0,0,0,0,0,0,0,-1,1476,960,0,0
259,64,0,0,0,0,0,0,0,0,0,-1,1483,960,0,0
266,64,0,0,0,0,0,0,0,0,0,-1,1490,960,0,0
273,64,0,0,0,0,0,0,0,0,0,-1,1497,960,0,0
280,64,0,0,0,0,0,0,0,0,0,-1,1504,960,0,0
287,64,0,0,0,0,0,0,0,0,0,-1,1511,960,0,0
294,64,0,0,0,0,0,0,0,0,0,-1,1518,960,0,0
301,64,0,0,0,0,0,0,0,0,0,-1,1525,960,0,0
308,64,0,0,0,0,0,0,0,0,0,-1,1532,960,0,0
315,64,0,0,0,0,0,0,0,0,0,-1,1539,960,0,0
322,64,0,0,0,0,0,0,0,0,0,-1,1546,960,0,0
329,64,0,0,0,0,0,0,0,0,0,-1,1553,960,0,0
336,64,0,0,0,0,0,0,0,0,0,-1,1560,960,0,0
343,64,0,0,0,0,0,0,0,0,0,-1,1567,960,0,0
350,64,0,0,0,0,0,0,0,0,0,-1,1574,960,0,0
357,64,0,0,0,0,0,0,0,0,0,-1,1581,960,0,0
364,64,0,0,0,0,0,0,0,0,0,-1,1588,960,0,0
371,64,0,0,0,0,0,0,0,0,0,-1,1595,960,0,0
378,64,0,0,0,0,0,0,0,0,0,-1,1602,960,0,0
385,64,0,0,0,0,0,0,0,0,0,-1,1609,960,0,0
392,64,0,0,0,0,0,0,0,0,0,-1,1616,960,0,0
399,64,0,0,0,0,0,0,0,0,0,-1,1623,960,0,0
406,64,0,0,0,0,0,0,0,0,0,-1,1630,960,0,0
413,64,0,0,0,0,0,0,0,0,0,-1,1637,960,0,0
420,64,0,0,0,0,0,0,0,0,0,-1,1644,960,0,0
427,64,0,0,0,0,0,0,0,0,0,-1,1651,960,0,0
434,64,0,0,0,0,0,0,0,0,0,-1,1658,960,0,0
441,64,0,0,0,0,0,0,0,0,0,-1,1665,960,0,0
448,64,0,0,0,0,0,0,0,0,0,-1,1672,960,0,0
455,64,0,0,0,0,0,0,0,0,0,-1,1679,960,0,0
462,64,0,0,0,0,0,0,0,0,0,-1,1686,960,0,0
469,64,0,0,0,0,0,0,0,0,0,-1,1693,960,0,0
476,64,0,0,0,0,0,0,0,0,0,-1,1700,960,0,0
483,64,0,0,0,0,0,0,0,0,0,-1,1707,960,0,0
490,64,0,0,0,0,0,0,0,0,0,-1,1714,960,0,0
497,64,0,0,0,0,0,0,0,0,0,-1,1721,960,0,0
504,64,0,0,0,0,0,0,0,0,0,-1,1728,960,0,0
511,64,0,0,0,0,0,0,0,0,0,-1,1735,960,0,0
518,64,0,0,0,0,0,0,0,0,0,-1,1742,960,0,0
525,64,0,0,0,0,0,0,0,0,0,-1,1749,960,0,0
532,64,0,0,0,0,0,0,0,0,0,-1,1756,960,0,0
539,64,0,0,0,0,0,0,0,0,0,-1,1763,960,0,0
546,64,0,0,0,0,0,0,0,0,0,-1,1770,960,0,0
553,64,0,0,0,0,0,0,0,0,0,-1,1777,960,0,0
560,64,0,0,0,0,0,0,0,0,0,-1,1784,960,0,0
567,64,0,0,0,0,0,0,0,0,0,-1,1791,960,0,0
574,64,0,0,0,0,0,0,0,0,0,-1,1798,960,0,0
581,64,0,0,0,0,0,0,0,0,0,-1,1805,960,0,0
588,64,0,0,0,0,0,0,0,0,0,-1,1812,960,0,0
595,64,0,0,0,0,0,0,0,0,0,-1,1819,960,0,0
602,64,0,0,0,0,0,0,0,0,0,-1,1826,960,0,0
609,64,0,0,0,0,0,0,0,0,0,-1,1833,960,0,0
616,64,0,0,0,0,0,0,0,0,0,-1,1840,960,0,0
623,64,0,0,0,0,0,0,0,0,0,-1,1847,960,0,0
630,64,0,0,0,0,0,0,0,0,0,-1,1854,960,0,0
637,64,0,0,0,0,0,0,0,0,0,-1,1861,960,0,0
644,64,67.1599,2.12726,0.0011654,0.00154905,-0.00269405,0.00405809,-0.00134365,-0.82094,0.0032473,0.0448831,1868,960,67.1599,-2.12724
651,64,67.2615,2.01556,0.000911141,0.00140628,-0.00210683,0.00328003,-0.00096261,-0.843884,0.00256841,0.0427361,1875,960,67.2614,-2.01559
658,64,67.3091,2.15692,0.000621087,0.00136955,-0.00136121,0.00240703,-0.000416393,-0.919547,0.00175998,0.0386465,1882,960,67.3091,-2.1569
665,64,67.2789,2.90564,0,0,0,0,0,0,0,-1,1889,960,67.279,-2.90564
672,64,67.2949,2.55823,-0.000281067,0.00170282,0.000498341,0.00182097,-0.000399211,1.33802,0.00136662,0.0408908,1896,960,67.2949,-2.55824
679,64,67.2323,2.14081,-0.000773666,0.00151078,0.00131464,0.00211009,-0.00137298,1.14307,0.00202591,0.040319,1903,960,67.2323,-2.14081
686,64,67.186,2.07825,-0.00103248,0.00117934,0.00170801,0.00210821,-0.00196135,1.0727,0.00235007,0.037924,1910,960,67.186,-2.07822
693,64,67.2498,2.16089,-0.00127651,0.000902374,0.00183442,0.00194647,-0.0023206,1.05336,0.00246675,0.0342118,1917,960,67.2498,-2.16089
700,64,67.24,2.25507,-0.00174976,0.000803499,0.00178978,0.0017253,-0.00267156,1.09519,0.00255805,0.031227,1924,960,67.24,-2.25508
707,64,67.043,2.83099,-0.00231298,0.000910744,0.0014276,0.00145205,-0.00285429,1.20837,0.00252982,0.0441238,1931,960,67.0429,-2.83099
714,64,66.7928,3.78149,0,0,0,0,0,0,0,-1,1938,960,66.7929,-3.78151
721,64,65.1497,5.03326,0,0,0,0,0,0,0,-1,1945,960,65.1497,-5.03325
728,64,64.9523,5.61597,-0.00368088,0.003177,0.000539261,0.00321914,-0.00372303,1.4928,0.00401158,0.0243314,1952,960,64.9523,-5.61599
735,64,64.9073,6.16809,-0.00359895,0.00484844,0.000219063,0.00485411,-0.00360463,1.54489,0.00490138,0.0315423,1959,960,64.9073,-6.16809
742,64,65.0546,6.50598,-0.00380528,0.00832985,-0.000346873,0.00833976,-0.00381518,-1.54224,0.00717789,0.0271673,1966,960,65.0546,-6.506
749,64,65.0199,6.93396,-0.00386078,0.0125177,-0.000699169,0.0125474,-0.00389057,-1.52821,0.00991949,0.0180447,1973,960,65.0199,-6.93397
756,64,64.9551,7.33429,-0.00324311,0.0190332,-0.000709063,0.0190557,-0.00326566,-1.53901,0.0139206,0.017553,1980,960,64.9551,-7.3343
763,64,64.9141,7.78424,-0.0017803,0.0283763,9.23051e-05,0.0283766,-0.00178058,1.56774,0.0195383,0.0188105,1987,960,64.9142,-7.78425
770,64,64.6321,8.1156,0.000554288,0.0400194,0.00160242,0.0400843,0.000489332,1.53028,0.0265613,0.0191585,1994,960,64.6321,-8.11562
777,64,64.5054,8.74115,0.00365546,0.0538203,0.00362973,0.0540816,0.00339419,1.49894,0.0349779,0.0352318,2001,960,64.5053,-8.74116
784,64,64.2559,9.00098,0.00870783,0.0712446,0.00671015,0.0719565,0.00799594,1.4651,0.0455403,0.0442824,2008,960,64.2559,-9.00097
791,64,63.9207,9.48682,0,0,0,0,0,0,0,-1,2015,960,63.9206,-9.48679
798,64,62.053,9.17188,0,0,0,0,0,0,0,-1,2022,960,62.053,-9.17186
805,64,63.9138,6.69446,0,0,0,0,0,0,0,-1,2029,960,63.9138,-6.69444
812,64,0,0,0,0,0,0,0,0,0,-1,2036,960,0,0
-700,57,0,0,0,0,0,0,0,0,0,-1,524,967,0,0
-693,57,0,0,0,0,0,0,0,0,0,-1,531,967,0,0
-686,57,-53.0245,2.55792,0,0,0,0,0,0,0,-1,538,967,-53.0245,-2.55789
-679,57,-52.8384,2.3866,0.076843,0.0753743,0.0379153,0.114031,0.0381862,0.775716,0.0670219,0.0428907,545,967,-52.8384,-2.38662
-672,57,-52.4347,1.95422,0.0608634,0.0670246,0.0338811,0.0979649,0.0299231,0.830736,0.0579697,0.0468015,552,967,-52.4347,-1.95425
-665,57,-52.3784,1.64307,0.0460322,0.0585359,0.0294182,0.0823592,0.0222089,0.890098,0.0492033,0.0468656,559,967,-52.3784,-1.64307
-658,57,-52.1996,1.39655,0,0,0,0,0,0,0,-1,566,967,-52.1996,-1.39655
-651,57,-50.7747,7.00146,0,0,0,0,0,0,0,-1,573,967,-50.7747,-7.00145
-644,57,-51.2156,6.05627,0.0121012,0.0341599,0.0167107,0.0431529,0.00310825,1.07709,0.0277905,0.0382701,580,967,-51.2156,-6.05628
-637,57,-51.1182,5.7323,0.00480694,0.0271046,0.0133769,0.0333695,-0.00145796,1.1328,0.0227479,0.0222321,587,967,-51.1182,-5.73229
-630,57,-51.1997,5.40552,-0.000110855,0.0213772,0.0101322,0.0254012,-0.00413489,1.19275,0.0184674,0.0140912,594,967,-51.1997,-5.40553
-623,57,-51.2276,5.12634,-0.00483012,0.0135083,0.00630823,0.0154687,-0.00679052,1.26949,0.0131729,0.013312,601,967,-51.2276,-5.12637
-616,57,-51.2264,4.78601,-0.00727847,0.00837863,0.00287918,0.0088913,-0.00779114,1.39458,0.00963859,0.0161723,608,967,-51.2265,-4.78598
-609,57,-51.2346,4.41144,-0.00592541,0.00610047,0.00164658,0.00632184,-0.00614678,1.43715,0.007199,0.0171477,615,967,-51.2346,-4.41145
-602,57,-51.2261,4.01166,-0.00451196,0.00428885,0.000294833,0.00429872,-0.00452183,1.53735,0.00509309,0.012689,622,967,-51.2261,-4.01167
-595,57,-51.1978,3.65118,-0.00329471,0.00305561,-0.000629676,0.00311744,-0.00335654,-1.47291,0.00373861,0.0181495,629,967,-51.1977,-3.6512
-588,57,-51.0382,3.45587,-0.00238023,0.00166438,-0.00138549,0.00209347,-0.00280932,-1.27047,0.00284066,0.0297338,636,967,-51.0382,-3.45588
-581,57,-51.3087,1.99329,-0.00174832,0.000818205,-0.00210169,0.00199743,-0.00292754,-1.05948,0.00286029,0.0467668,643,967,-51.3087,-1.99326
-574,57,-51.8439,0.397278,0,0,0,0,0,0,0,-1,650,967,-51.8439,-0.397279
-567,57,-51.9611,0.433044,-0.00105573,0.000122841,-0.00280242,0.00239726,-0.00333015,-0.889027,0.00332131,0.0345791,657,967,-51.961,-0.433026
-560,57,-51.9958,0.388672,-0.000900667,0.000167965,-0.00280475,0.00248884,-0.00322154,-0.879522,0.00330592,0.0410423,664,967,-51.9958,-0.388651
-553,57,-51.9001,0.403198,-0.000612988,0.000349619,-0.00249191,0.00240628,-0.00266965,-0.880797,0.00293191,0.0403599,671,967,-51.9001,-0.403192
-546,57,-51.8523,0.424866,-0.000107409,0.000490224,-0.0017457,0.00196249,-0.00157968,-0.870163,0.00204905,0.0435286,678,967,-51.8523,-0.424858
-539,57,-52.1141,0.498535,0.000633677,0.000232302,-0.000455118,0.000930391,-6.44112e-05,-0.577744,0.000642808,0.045798,685,967,-52.1141,-0.498534
-532,57,-52.2056,0.554749,0.00186686,-0.000391296,0.000913547,0.00219016,-0.00071459,0.340135,0.0017477,0.0414557,692,967,-52.2056,-0.55475
-525,57,-51.9926,0.572693,0.0025811,0.000806743,0.000517868,0.00272119,0.000666656,0.264183,0.00163778,0.0405519,699,967,-51.9926,-0.572682
-518,57,0,0,0,0,0,0,0,0,0,-1,706,967,0,0
-511,57,0,0,0,0,0,0,0,0,0,-1,713,967,0,0
-504,57,0,0,0,0,0,0,0,0,0,-1,720,967,0,0
-497,57,0,0,0,0,0,0,0,0,0,-1,727,967,0,0
-490,57,0,0,0,0,0,0,0,0,0,-1,734,967,0,0
-483,57,0,0,0,0,0,0,0,0,0,-1,741,967,0,0
-476,57,0,0,0,0,0,0,0,0,0,-1,748,967,0,0
-469,57,0,0,0,0,0,0,0,0,0,-1,755,967,0,0
-462,57,0,0,0,0,0,0,0,0,0,-1,762,967,0,0
-455,57,0,0,0,0,0,0,0,0,0,-1,769,967,0,0
-448,57,0,0,0,0,0,0,0,0,0,-1,776,967,0,0
-441,57,0,0,0,0,0,0,0,0,0,-1,783,967,0,0
-434,57,0,0,0,0,0,0,0,0,0,-1,790,967,0,0
-427,57,0,0,0,0,0,0,0,0,0,-1,797,967,0,0
-420,57,0,0,0,0,0,0,0,0,0,-1,804,967,0,0
-413,57,0,0,0,0,0,0,0,0,0,-1,811,967,0,0
-406,57,0,0,0,0,0,0,0,0,0,-1,818,967,0,0
-399,57,0,0,0,0,0,0,0,0,0,-1,825,967,0,0
-392,57,0,0,0,0,0,0,0,0,0,-1,832,967,0,0
-385,57,0,0,0,0,0,0,0,0,0,-1,839,967,0,0
-378,57,0,0,0,0,0,0,0,0,0,-1,846,967,0,0
-371,57,0,0,0,0,0,0,0,0,0,-1,853,967,0,0
-364,57,0,0,0,0,0,0,0,0,0,-1,860,967,0,0
-357,57,0,0,0,0,0,0,0,0,0,-1,867,967,0,0
-350,57,0,0,0,0,0,0,0,0,0,-1,874,967,0,0
-343,57,0,0,0,0,0,0,0,0,0,-1,881,967,0,0
-336,57,0,0,0,0,0,0,0,0,0,-1,888,967,0,0
-329,57,0,0,0,0,0,0,0,0,0,-1,895,967,0,0
-322,57,0,0,0,0,0,0,0,0,0,-1,902,967,0,0
-315,57,0,0,0,0,0,0,0,0,0,-1,909,967,0,0
-308,57,0,0,0,0,0,0,0,0,0,-1,916,967,0,0
-301,57,0,0,0,0,0,0,0,0,0,-1,923,967,0,0
-294,57,0,0,0,0,0,0,0,0,0,-1,930,967,0,0
-287,57,0,0,0,0,0,0,0,0,0,-1,937,967,0,0
-280,57,0,0,0,0,0,0,0,0,0,-1,944,967,0,0
-273,57,0,0,0,0,0,0,0,0,0,-1,951,967,0,0
-266,57,0,0,0,0,0,0,0,0,0,-1,958,967,0,0
-259,57,0,0,0,0,0,0,0,0,0,-1,965,967,0,0
-252,57,0,0,0,0,0,0,0,0,0,-1,972,967,0,0
-245,57,0,0,0,0,0,0,0,0,0,-1,979,967,0,0
-238,57,0,0,0,0,0,0,0,0,0,-1,986,967,0,0
-231,57,0,0,0,0,0,0,0,0,0,-1,993,967,0,0
-224,57,0,0,0,0,0,0,0,0,0,-1,1000,967,0,0
-217,57,0,0,0,0,0,0,0,0,0,-1,1007,967,0,0
-210,57,0,0,0,0,0,0,0,0,0,-1,1014,967,0,0
-203,57,0,0,0,0,0,0,0,0,0,-1,1021,967,0,0
-196,57,0,0,0,0,0,0,0,0,0,-1,1028,967,0,0
-189,57,0,0,0,0,0,0,0,0,0,-1,1035,967,0,0
-182,57,0,0,0,0,0,0,0,0,0,-1,1042,967,0,0
-175,57,0,0,0,0,0,0,0,0,0,-1,1049,967,0,0
-168,57,0,0,0,0,0,0,0,0,0,-1,1056,967,0,0
-161,57,0,0,0,0,0,0,0,0,0,-1,1063,967,0,0
-154,57,0,0,0,0,0,0,0,0,0,-1,1070,967,0,0
-147,57,0,0,0,0,0,0,0,0,0,-1,1077,967,0,0
-140,57,0,0,0,0,0,0,0,0,0,-1,1084,967,0,0
-133,57,0,0,0,0,0,0,0,0,0,-1,1091,967,0,0
-126,57,0,0,0,0,0,0,0,0,0,-1,1098,967,0,0
-119,57,0,0,0,0,0,0,0,0,0,-1,1105,967,0,0
-112,57,0,0,0,0,0,0,0,0,0,-1,1112,967,0,0
-105,57,0,0,0,0,0,0,0,0,0,-1,1119,967,0,0
-98,57,0,0,0,0,0,0,0,0,0,-1,1126,967,0,0
-91,57,0,0,0,0,0,0,0,0,0,-1,1133,967,0,0
-84,57,0,0,0,0,0,0,0,0,0,-1,1140,967,0,0
-77,57,0,0,0,0,0,0,0,0,0,-1,1147,967,0,0
-70,57,0,0,0,0,0,0,0,0,0,-1,1154,967,0,0
-63,57,0,0,0,0,0,0,0,0,0,-1,1161,967,0,0
-56,57,0,0,0,0,0,0,0,0,0,-1,1168,967,0,0
-49,57,0,0,0,0,0,0,0,0,0,-1,1175,967,0,0
-42,57,0,0,0,0,0,0,0,0,0,-1,1182,967,0,0
-35,57,0,0,0,0,0,0,0,0,0,-1,1189,967,0,0
-28,57,0,0,0,0,0,0,0,0,0,-1,1196,967,0,0
-21,57,0,0,0,0,0,0,0,0,0,-1,1203,967,0,0
-14,57,0,0,0,0,0,0,0,0,0,-1,1210,967,0,0
-7,57,0,0,0,0,0,0,0,0,0,-1,1217,967,0,0
0,57,0,0,0,0,0,0,0,0,0,-1,1224,967,0,0
7,57,0,0,0,0,0,0,0,0,0,-1,1231,967,0,0
14,57,0,0,0,0,0,0,0,0,0,-1,1238,967,0,0
21,57,0,0,0,0,0,0,0,0,0,-1,1245,967,0,0
28,57,0,0,0,0,0,0,0,0,0,-1,1252,967,0,0
35,57,0,0,0,0,0,0,0,0,0,-1,1259,967,0,0
42,57,0,0,0,0,0,0,0,0,0,-1,1266,967,0,0
49,57,0,0,0,0,0,0,0,0,0,-1,1273,967,0,0
56,57,0,0,0,0,0,0,0,0,0,-1,1280,967,0,0
63,57,0,0,0,0,0,0,0,0,0,-1,1287,967,0,0
70,57,0,0,0,0,0,0,0,0,0,-1,1294,967,0,0
77,57,0,0,0,0,0,0,0,0,0,-1,1301,967,0,0
84,57,0,0,0,0,0,0,0,0,0,-1,1308,967,0,0
91,57,0,0,0,0,0,0,0,0,0,-1,1315,967,0,0
98,57,0,0,0,0,0,0,0,0,0,-1,1322,967,0,0
105,57,0,0,0,0,0,0,0,0,0,-1,1329,967,0,0
112,57,0,0,0,0,0,0,0,0,0,-1,1336,967,0,0
119,57,0,0,0,0,0,0,0,0,0,-1,1343,967,0,0
126,57,0,0,0,0,0,0,0,0,0,-1,1350,967,0,0
133,57,0,0,0,0,0,0,0,0,0,-1,1357,967,0,0
140,57,0,0,0,0,0,0,0,0,0,-1,1364,967,0,0
147,57,0,0,0,0,0,0,0,0,0,-1,1371,967,0,0
154,57,0,0,0,0,0,0,0,0,0,-1,1378,967,0,0
161,57,0,0,0,0,0,0,0,0,0,-1,1385,967,0,0
168,57,0,0,0,0,0,0,0,0,0,-1,1392,967,0,0
175,57,0,0,0,0,0,0,0,0,0,-1,1399,967,0,0
182,57,0,0,0,0,0,0,0,0,0,-1,1406,967,0,0
189,57,0,0,0,0,0,0,0,0,0,-1,1413,967,0,0
196,57,0,0,0,0,0,0,0,0,0,-1,1420,967,0,0
203,57,0,0,0,0,0,0,0,0,0,-1,1427,967,0,0
210,57,0,0,0,0,0,0,0,0,0,-1,1434,967,0,0
217,57,0,0,0,0,0,0,0,0,0,-1,1441,967,0,0
224,57,0,0,0,0,0,0,0,0,0,-1,1448,967,0,0
231,57,0,0,0,0,0,0,0,0,0,-1,1455,967,0,0
238,57,0,0,0,0,0,0,0,0,0,-1,1462,967,0,0
245,57,0,0,0,0,0,0,0,0,0,-1,1469,967,0,0
252,57,0,0,0,0,0,0,0,0,0,-1,1476,967,0,0
259,57,0,0,0,0,0,0,0,0,0,-1,1483,967,0,0
266,57,0,0,0,0,0,0,0,0,0,-1,1490,967,0,0
273,57,0,0,0,0,0,0,0,0,0,-1,1497,967,0,0
280,57,0,0,0,0,0,0,0,0,0,-1,1504,967,0,0
287,57,0,0,0,0,0,0,0,0,0,-1,1511,967,0,0
294,57,0,0,0,0,0,0,0,0,0,-1,1518,967,0,0
301,57,0,0,0,0,0,0,0,0,0,-1,1525,967,0,0
308,57,0,0,0,0,0,0,0,0,0,-1,1532,967,0,0
315,57,0,0,0,0,0,0,0,0,0,-1,1539,967,0,0
322,57,0,0,0,0,0,0,0,0,0,-1,1546,967,0,0
329,57,0,0,0,0,0,0,0,0,0,-1,1553,967,0,0
336,57,0,0,0,0,0,0,0,0,0,-1,1560,967,0,0
343,57,0,0,0,0,0,0,0,0,0,-1,1567,967,0,0
350,57,0,0,0,0,0,0,0,0,0,-1,1574,967,0,0
357,57,0,0,0,0,0,0,0,0,0,-1,1581,967,0,0
364,57,0,0,0,0,0,0,0,0,0,-1,1588,967,0,0
371,57,0,0,0,0,0,0,0,0,0,-1,1595,967,0,0
378,57,0,0,0,0,0,0,0,0,0,-1,1602,967,0,0
385,57,0,0,0,0,0,0,0,0,0,-1,1609,967,0,0
392,57,0,0,0,0,0,0,0,0,0,-1,1616,967,0,0
399,57,0,0,0,0,0,0,0,0,0,-1,1623,967,0,0
406,57,0,0,0,0,0,0,0,0,0,-1,1630,967,0,0
413,57,0,0,0,0,0,0,0,0,0,-1,1637,967,0,0
420,57,0,0,0,0,0,0,0,0,0,-1,1644,967,0,0
427,57,0,0,0,0,0,0,0,0,0,-1,1651,967,0,0
434,57,0,0,0,0,0,0,0,0,0,-1,1658,967,0,0
441,57,0,0,0,0,0,0,0,0,0,-1,1665,967,0,0
448,57,0,0,0,0,0,0,0,0,0,-1,1672,967,0,0
455,57,0,0,0,0,0,0,0,0,0,-1,1679,967,0,0
462,57,0,0,0,0,0,0,0,0,0,-1,1686,967,0,0
469,57,0,0,0,0,0,0,0,0,0,-1,1693,967,0,0
476,57,0,0,0,0,0,0,0,0,0,-1,1700,967,0,0
483,57,0,0,0,0,0,0,0,0,0,-1,1707,967,0,0
490,57,0,0,0,0,0,0,0,0,0,-1,1714,967,0,0
497,57,0,0,0,0,0,0,0,0,0,-1,1721,967,0,0
504,57,0,0,0,0,0,0,0,0,0,-1,1728,967,0,0
511,57,0,0,0,0,0,0,0,0,0,-1,1735,967,0,0
518,57,0,0,0,0,0,0,0,0,0,-1,1742,967,0,0
525,57,0,0,0,0,0,0,0,0,0,-1,1749,967,0,0
532,57,0,0,0,0,0,0,0,0,0,-1,1756,967,0,0
539,57,0,0,0,0,0,0,0,0,0,-1,1763,967,0,0
546,57,0,0,0,0,0,0,0,0,0,-1,1770,967,0,0
553,57,0,0,0,0,0,0,0,0,0,-1,1777,967,0,0
560,57,0,0,0,0,0,0,0,0,0,-1,1784,967,0,0
567,57,0,0,0,0,0,0,0,0,0,-1,1791,967,0,0
574,57,0,0,0,0,0,0,0,0,0,-1,1798,967,0,0
581,57,0,0,0,0,0,0,0,0,0,-1,1805,967,0,0
588,57,0,0,0,0,0,0,0,0,0,-1,1812,967,0,0
595,57,0,0,0,0,0,0,0,0,0,-1,1819,967,0,0
602,57,0,0,0,0,0,0,0,0,0,-1,1826,967,0,0
609,57,0,0,0,0,0,0,0,0,0,-1,1833,967,0,0
616,57,0,0,0,0,0,0,0,0,0,-1,1840,967,0,0
623,57,0,0,0,0,0,0,0,0,0,-1,1847,967,0,0
630,57,0,0,0,0,0,0,0,0,0,-1,1854,967,0,0
637,57,0,0,0,0,0,0,0,0,0,-1,1861,967,0,0
644,57,67.1313,2.44653,0.00230816,0.00274378,-0.00308471,0.00561836,-0.000566416,-0.820645,0.00394795,0.0413946,1868,967,67.1313,-2.44652
651,57,67.1914,2.1933,0.0017637,0.00219763,-0.00234941,0.00434007,-0.000378743,-0.831441,0.00302753,0.0373921,1875,967,67.1915,-2.19327
658,57,67.1792,2.43231,0.0012496,0.00179223,-0.00152585,0.00307071,-2.88719e-05,-0.873385,0.00205683,0.0353907,1882,967,67.1792,-2.43233
665,57,67.3018,1.6861,0,0,0,0,0,0,0,-1,1889,967,67.3018,-1.68611
672,57,67.3037,2.02374,4.70399e-05,0.0016853,0.000408808,0.00178165,-4.93067e-05,1.33934,0.00120454,0.0408655,1896,967,67.3037,-2.02377
679,57,67.1802,1.99109,-0.000485713,0.00141207,0.00127065,0.00204904,-0.00112268,1.10612,0.00185705,0.0405589,1903,967,67.1801,-1.9911
686,57,67.1013,2.02338,-0.000741918,0.00102694,0.00175027,0.00210355,-0.00181852,1.01934,0.0022664,0.039794,1910,967,67.1014,-2.02337
693,57,67.2019,2.19189,-0.000962944,0.00068102,0.00195079,0.00197593,-0.00225786,0.984789,0.00244618,0.0322928,1917,967,67.2019,-2.19186
700,57,67.2087,2.29309,-0.00139819,0.000518871,0.00194251,0.00172647,-0.00260579,1.0146,0.00251835,0.0255443,1924,967,67.2087,-2.29309
707,57,67.0957,2.75769,-0.0019574,0.000635537,0.00159672,0.00139585,-0.00271771,1.12639,0.00241549,0.0475004,1931,967,67.0957,-2.7577
714,57,66.9663,3.41266,0,0,0,0,0,0,0,-1,1938,967,66.9664,-3.41264
721,57,65.6907,5.24115,0,0,0,0,0,0,0,-1,1945,967,65.6907,-5.24117
728,57,65.4841,5.7113,-0.0035962,0.00317844,0.000618962,0.00323453,-0.00365229,1.48043,0.00397854,0.025297,1952,967,65.4842,-5.71129
735,57,65.488,6.19031,-0.00368415,0.00503576,0.000217289,0.00504117,-0.00368956,1.5459,0.00506078,0.0317321,1959,967,65.4881,-6.1903
742,57,65.5349,6.48273,-0.00408278,0.00913081,-0.000327024,0.0091389,-0.00409087,-1.54607,0.00782136,0.0235497,1966,967,65.535,-6.48275
749,57,65.4689,6.91455,-0.00453027,0.0135903,-0.000600186,0.0136102,-0.00455013,-1.53772,0.0109111,0.016614,1973,967,65.4688,-6.91457
756,57,65.4132,7.29669,-0.00448072,0.0203874,-0.000656214,0.0204047,-0.00449803,-1.54443,0.0153241,0.0134112,1980,967,65.4132,-7.29667
763,57,65.3201,7.65717,-0.00371778,0.0302598,7.0472e-05,0.0302599,-0.00371793,1.56872,0.0215199,0.0137374,1987,967,65.32,-7.65716
770,57,65.1423,7.97638,-0.00210955,0.0430109,0.00163634,0.0430701,-0.00216881,1.53459,0.029463,0.0125778,1994,967,65.1423,-7.97635
777,57,64.9939,8.32965,0.000224408,0.0579934,0.00381407,0.0582441,-2.63192e-05,1.50515,0.0388382,0.0271812,2001,967,64.994,-8.32965
784,57,64.8223,8.69501,0.0041864,0.0766524,0.00714465,0.0773501,0.0034887,1.47345,0.0504441,0.0434019,2008,967,64.8223,-8.69499
791,57,64.6462,9.12225,0,0,0,0,0,0,0,-1,2015,967,64.6462,-9.12228
798,57,64.3606,11.6633,0,0,0,0,0,0,0,-1,2022,967,64.3605,-11.6633
805,57,62.2478,5.32855,0,0,0,0,0,0,0,-1,2029,967,62.2477,-5.32856
812,57,0,0,0,0,0,0,0,0,0,-1,2036,967,0,0
-700,50,0,0,0,0,0,0,0,0,0,-1,524,974,0,0
-693,50,-53.5522,2.61401,0.0956396,0.0645792,0.0228474,0.107735,0.0524835,0.4869,0.0622078,0.0465089,531,974,-53.5522,-2.61399
-686,50,-53.0751,2.4754,0.0862129,0.0615723,0.0239564,0.100831,0.0469538,0.547895,0.0582608,0.0440016,538,974,-53.0751,-2.47543
-679,50,-52.7918,2.27539,0.0720959,0.0575801,0.0232444,0.0891892,0.0404868,0.634072,0.0515662,0.0441016,545,974,-52.7918,-2.2754
-672,50,-52.1348,2.08325,0,0,0,0,0,0,0,-1,552,974,-52.1348,-2.08328
-665,50,-52.1705,1.68005,0,0,0,0,0,0,0,-1,559,974,-52.1705,-1.68008
-658,50,-51.2318,5.62708,0,0,0,0,0,0,0,-1,566,974,-51.2318,-5.62706
-651,50,-51.3401,5.65277,0.0211689,0.0367618,0.0152216,0.0460674,0.0118632,1.02208,0.0276199,0.0460766,573,974,-51.3401,-5.65275
-644,50,-51.3517,5.77832,0.0121163,0.0307288,0.0128476,0.0372866,0.00555848,1.09884,0.0232277,0.0341858,580,974,-51.3517,-5.77833
-637,50,-51.4958,5.56384,0.00500224,0.0250849,0.0107782,0.0297744,0.000312747,1.16041,0.0197462,0.0202603,587,974,-51.4958,-5.56383
-630,50,-51.6036,5.29883,0.000104249,0.0202189,0.00839166,0.02326,-0.00293689,1.22312,0.0165726,0.011874,594,974,-51.6036,-5.29885
-623,50,-51.6401,5.04803,-0.00467907,0.0134778,0.00540859,0.0149669,-0.00616807,1.30215,0.0125498,0.012784,601,974,-51.6401,-5.04804
-616,50,-51.6402,4.77295,-0.00712409,0.00863562,0.00247723,0.00901583,-0.00750431,1.4185,0.00955121,0.014054,608,974,-51.6402,-4.77296
-609,50,-51.6506,4.3996,-0.00586087,0.00625236,0.00139592,0.00641114,-0.00601965,1.45754,0.00717811,0.0130232,615,974,-51.6506,-4.39962
-602,50,-51.6535,4.03918,-0.00446772,0.00435025,0.000107546,0.00435156,-0.00446903,1.5586,0.00509272,0.0125803,622,974,-51.6535,-4.03917
-595,50,-51.6424,3.72687,-0.00323182,0.00304162,-0.000781743,0.00313757,-0.00332776,-1.44867,0.0037333,0.0150435,629,974,-51.6424,-3.72684
-588,50,-51.6343,3.23999,-0.00225081,0.00158944,-0.0015366,0.00212859,-0.00278995,-1.23335,0.00284827,0.0278507,636,974,-51.6344,-3.23998
-581,50,-51.8594,1.45294,-0.0016093,0.000681214,-0.00225498,0.00206509,-0.00299318,-1.02036,0.00293673,0.0338508,643,974,-51.8594,-1.45291
-574,50,-51.976,-0.181152,0,0,0,0,0,0,0,-1,650,974,-51.976,0.181158
-567,50,-51.9358,0.423523,-0.000903549,-0.000105523,-0.00298164,0.00250368,-0.00351276,-0.851915,0.00348984,0.0357458,657,974,-51.9358,-0.42353
-560,50,-51.8591,0.377136,-0.000702898,-7.73362e-05,-0.00296395,0.00259029,-0.00337053,-0.837968,0.0034513,0.0409451,664,974,-51.8591,-0.377156
-553,50,-51.7631,0.21637,-0.000416525,8.97023e-05,-0.00265661,0.00250523,-0.00283205,-0.832893,0.00308341,0.0423861,671,974,-51.7631,-0.216375
-546,50,-51.7953,0.318359,1.31434e-05,0.000190551,-0.00197058,0.00207442,-0.00187072,-0.80789,0.00227874,0.0414702,678,974,-51.7953,-0.318369
-539,50,-51.9121,0.637573,0.000557551,-0.000131697,-0.000835768,0.00111696,-0.000691105,-0.589847,0.00105349,0.0441928,685,974,-51.9121,-0.637551
-532,50,-51.9747,0.563721,0.00153353,-0.000606227,0.000104902,0.00153866,-0.000611357,0.0488692,0.00127922,0.0432973,692,974,-51.9747,-0.563744
-525,50,-51.8107,0.604675,0.00210077,0.000965857,-0.00102344,0.00270354,0.000363081,-0.532269,0.00169435,0.0414947,699,974,-51.8107,-0.604672
-518,50,0,0,0,0,0,0,0,0,0,-1,706,974,0,0
-511,50,0,0,0,0,0,0,0,0,0,-1,713,974,0,0
-504,50,0,0,0,0,0,0,0,0,0,-1,720,974,0,0
-497,50,0,0,0,0,0,0,0,0,0,-1,727,974,0,0
-490,50,0,0,0,0,0,0,0,0,0,-1,734,974,0,0
-483,50,0,0,0,0,0,0,0,0,0,-1,741,974,0,0
-476,50,0,0,0,0,0,0,0,0,0,-1,748,974,0,0
-469,50,0,0,0,0,0,0,0,0,0,-1,755,974,0,0
-462,50,0,0,0,0,0,0,0,0,0,-1,762,974,0,0
-455,50,0,0,0,0,0,0,0,0,0,-1,769,974,0,0
-448,50,0,0,0,0,0,0,0,0,0,-1,776,974,0,0
-441,50,0,0,0,0,0,0,0,0,0,-1,783,974,0,0
-434,50,0,0,0,0,0,0,0,0,0,-1,790,974,0,0
-427,50,0,0,0,0,0,0,0,0,0,-1,797,974,0,0
-420,50,0,0,0,0,0,0,0,0,0,-1,804,974,0,0
-413,50,0,0,0,0,0,0,0,0,0,-1,811,974,0,0
-406,50,0,0,0,0,0,0,0,0,0,-1,818,974,0,0
-399,50,0,0,0,0,0,0,0,0,0,-1,825,974,0,0
-392,50,0,0,0,0,0,0,0,0,0,-1,832,974,0,0
-385,50,0,0,0,0,0,0,0,0,0,-1,839,974,0,0
-378,50,0,0,0,0,0,0,0,0,0,-1,846,974,0,0
-371,50,0,0,0,0,0,0,0,0,0,-1,853,974,0,0
-364,50,0,0,0,0,0,0,0,0,0,-1,860,974,0,0
-357,50,0,0,0,0,0,0,0,0,0,-1,867,974,0,0
-350,50,0,0,0,0,0,0,0,0,0,-1,874,974,0,0
-343,50,0,0,0,0,0,0,0,0,0,-1,881,974,0,0
-336,50,0,0,0,0,0,0,0,0,0,-1,888,974,0,0
-329,50,0,0,0,0,0,0,0,0,0,-1,895,974,0,0
-322,50,0,0,0,0,0,0,0,0,0,-1,902,974,0,0
-315,50,0,0,0,0,0,0,0,0,0,-1,909,974,0,0
-308,50,0,0,0,0,0,0,0,0,0,-1,916,974,0,0
-301,50,0,0,0,0,0,0,0,0,0,-1,923,974,0,0
-294,50,0,0,0,0,0,0,0,0,0,-1,930,974,0,0
-287,50,0,0,0,0,0,0,0,0,0,-1,937,974,0,0
-280,50,0,0,0,0,0,0,0,0,0,-1,944,974,0,0
-273,50,0,0,0,0,0,0,0,0,0,-1,951,974,0,0
-266,50,0,0,0,0,0,0,0,0,0,-1,958,974,0,0
-259,50,0,0,0,0,0,0,0,0,0,-1,965,974,0,0
-252,50,0,0,0,0,0,0,0,0,0,-1,972,974,0,0
-245,50,0,0,0,0,0,0,0,0,0,-1,979,974,0,0
-238,50,0,0,0,0,0,0,0,0,0,-1,986,974,0,0
-231,50,0,0,0,0,0,0,0,0,0,-1,993,974,0,0
-224,50,0,0,0,0,0,0,0,0,0,-1,1000,974,0,0
-217,50,0,0,0,0,0,0,0,0,0,-1,1007,974,0,0
-210,50,0,0,0,0,0,0,0,0,0,-1,1014,974,0,0
-203,50,0,0,0,0,0,0,0,0,0,-1,1021,974,0,0
-196,50,0,0,0,0,0,0,0,0,0,-1,1028,974,0,0
-189,50,0,0,0,0,0,0,0,0,0,-1,1035,974,0,0
-182,50,0,0,0,0,0,0,0,0,0,-1,1042,974,0,0
-175,50,0,0,0,0,0,0,0,0,0,-1,1049,974,0,0
-168,50,0,0,0,0,0,0,0,0,0,-1,1056,974,0,0
-161,50,0,0,0,0,0,0,0,0,0,-1,1063,974,0,0
-154,50,0,0,0,0,0,0,0,0,0,-1,1070,974,0,0
-147,50,0,0,0,0,0,0,0,0,0,-1,1077,974,0,0
-140,50,0,0,0,0,0,0,0,0,0,-1,1084,974,0,0
-133,50,0,0,0,0,0,0,0,0,0,-1,1091,974,0,0
-126,50,0,0,0,0,0,0,0,0,0,-1,1098,974,0,0
-119,50,0,0,0,0,0,0,0,0,0,-1,1105,974,0,0
-112,50,0,0,0,0,0,0,0,0,0,-1,1112,974,0,0
-105,50,0,0,0,0,0,0,0,0,0,-1,1119,974,0,0
-98,50,0,0,0,0,0,0,0,0,0,-1,1126,974,0,0
-91,50,0,0,0,0,0,0,0,0,0,-1,1133,974,0,0
-84,50,0,0,0,0,0,0,0,0,0,-1,1140,974,0,0
-77,50,0,0,0,0,0,0,0,0,0,-1,1147,974,0,0
-70,50,0,0,0,0,0,0,0,0,0,-1,1154,974,0,0
-63,50,0,0,0,0,0,0,0,0,0,-1,1161,974,0,0
-56,50,0,0,0,0,0,0,0,0,0,-1,1168,974,0,0
-49,50,0,0,0,0,0,0,0,0,0,-1,1175,974,0,0
-42,50,0,0,0,0,0,0,0,0,0,-1,1182,974,0,0
-35,50,0,0,0,0,0,0,0,0,0,-1,1189,974,0,0
-28,50,0,0,0,0,0,0,0,0,0,-1,1196,974,0,0
-21,50,0,0,0,0,0,0,0,0,0,-1,1203,974,0,0
-14,50,0,0,0,0,0,0,0,0,0,-1,1210,974,0,0
-7,50,0,0,0,0,0,0,0,0,0,-1,1217,974,0,0
0,50,0,0,0,0,0,0,0,0,0,-1,1224,974,0,0
7,50,0,0,0,0,0,0,0,0,0,-1,1231,974,0,0
14,50,0,0,0,0,0,0,0,0,0,-1,1238,974,0,0
21,50,0,0,0,0,0,0,0,0,0,-1,1245,974,0,0
28,50,0,0,0,0,0,0,0,0,0,-1,1252,974,0,0
35,50,0,0,0,0,0,0,0,0,0,-1,1259,974,0,0
42,50,0,0,0,0,0,0,0,0,0,-1,1266,974,0,0
49,50,0,0,0,0,0,0,0,0,0,-1,1273,974,0,0
56,50,0,0,0,0,0,0,0,0,0,-1,1280,974,0,0
63,50,0,0,0,0,0,0,0,0,0,-1,1287,974,0,0
70,50,0,0,0,0,0,0,0,0,0,-1,1294,974,0,0
77,50,0,0,0,0,0,0,0,0,0,-1,1301,974,0,0
84,50,0,0,0,0,0,0,0,0,0,-1,1308,974,0,0
91,50,0,0,0,0,0,0,0,0,0,-1,1315,974,0,0
98,50,0,0,0,0,0,0,0,0,0,-1,1322,974,0,0
105,50,0,0,0,0,0,0,0,0,0,-1,1329,974,0,0
112,50,0,0,0,0,0,0,0,0,0,-1,1336,974,0,0
119,50,0,0,0,0,0,0,0,0,0,-1,1343,974,0,0
126,50,0,0,0,0,0,0,0,0,0,-1,1350,974,0,0
133,50,0,0,0,0,0,0,0,0,0,-1,1357,974,0,0
140,50,0,0,0,0,0,0,0,0,0,-1,1364,974,0,0
147,50,0,0,0,0,0,0,0,0,0,-1,1371,974,0,0
154,50,0,0,0,0,0,0,0,0,0,-1,1378,974,0,0
161,50,0,0,0,0,0,0,0,0,0,-1,1385,974,0,0
168,50,0,0,0,0,0,0,0,0,0,-1,1392,974,0,0
175,50,0,0,0,0,0,0,0,0,0,-1,1399,974,0,0
182,50,0,0,0,0,0,0,0,0,0,-1,1406,974,0,0
189,50,0,0,0,0,0,0,0,0,0,-1,1413,974,0,0
196,50,0,0,0,0,0,0,0,0,0,-1,1420,974,0,0
203,50,0,0,0,0,0,0,0,0,0,-1,1427,974,0,0
210,50,0,0,0,0,0,0,0,0,0,-1,1434,974,0,0
217,50,0,0,0,0,0,0,0,0,0,-1,1441,974,0,0
224,50,0,0,0,0,0,0,0,0,0,-1,1448,974,0,0
231,50,0,0,0,0,0,0,0,0,0,-1,1455,974,0,0
238,50,0,0,0,0,0,0,0,0,0,-1,1462,974,0,0
245,50,0,0,0,0,0,0,0,0,0,-1,1469,974,0,0
252,50,0,0,0,0,0,0,0,0,0,-1,1476,974,0,0
259,50,0,0,0,0,0,0,0,0,0,-1,1483,974,0,0
266,50,0,0,0,0,0,0,0,0,0,-1,1490,974,0,0
273,50,0,0,0,0,0,0,0,0,0,-1,1497,974,0,0
280,50,0,0,0,0,0,0,0,0,0,-1,1504,974,0,0
287,50,0,0,0,0,0,0,0,0,0,-1,1511,974,0,0
294,50,0,0,0,0,0,0,0,0,0,-1,1518,974,0,0
301,50,0,0,0,0,0,0,0,0,0,-1,1525,974,0,0
308,50,0,0,0,0,0,0,0,0,0,-1,1532,974,0,0
315,50,0,0,0,0,0,0,0,0,0,-1,1539,974,0,0
322,50,0,0,0,0,0,0,0,0,0,-1,1546,974,0,0
329,50,0,0,0,0,0,0,0,0,0,-1,1553,974,0,0
336,50,0,0,0,0,0,0,0,0,0,-1,1560,974,0,0
343,50,0,0,0,0,0,0,0,0,0,-1,1567,974,0,0
350,50,0,0,0,0,0,0,0,0,0,-1,1574,974,0,0
357,50,0,0,0,0,0,0,0,0,0,-1,1581,974,0,0
364,50,0,0,0,0,0,0,0,0,0,-1,1588,974,0,0
371,50,0,0,0,0,0,0,0,0,0,-1,1595,974,0,0
378,50,0,0,0,0,0,0,0,0,0,-1,1602,974,0,0
385,50,0,0,0,0,0,0,0,0,0,-1,1609,974,0,0
392,50,0,0,0,0,0,0,0,0,0,-1,1616,974,0,0
399,50,0,0,0,0,0,0,0,0,0,-1,1623,974,0,0
406,50,0,0,0,0,0,0,0,0,0,-1,1630,974,0,0
413,50,0,0,0,0,0,0,0,0,0,-1,1637,974,0,0
420,50,0,0,0,0,0,0,0,0,0,-1,1644,974,0,0
427,50,0,0,0,0,0,0,0,0,0,-1,1651,974,0,0
434,50,0,0,0,0,0,0,0,0,0,-1,1658,974,0,0
441,50,0,0,0,0,0,0,0,0,0,-1,1665,974,0,0
448,50,0,0,0,0,0,0,0,0,0,-1,1672,974,0,0
455,50,0,0,0,0,0,0,0,0,0,-1,1679,974,0,0
462,50,0,0,0,0,0,0,0,0,0,-1,1686,974,0,0
469,50,0,0,0,0,0,0,0,0,0,-1,1693,974,0,0
476,50,0,0,0,0,0,0,0,0,0,-1,1700,974,0,0
483,50,0,0,0,0,0,0,0,0,0,-1,1707,974,0,0
490,50,0,0,0,0,0,0,0,0,0,-1,1714,974,0,0
497,50,0,0,0,0,0,0,0,0,0,-1,1721,974,0,0
504,50,0,0,0,0,0,0,0,0,0,-1,1728,974,0,0
511,50,0,0,0,0,0,0,0,0,0,-1,1735,974,0,0
518,50,0,0,0,0,0,0,0,0,0,-1,1742,974,0,0
525,50,0,0,0,0,0,0,0,0,0,-1,1749,974,0,0
532,50,0,0,0,0,0,0,0,0,0,-1,1756,974,0,0
539,50,0,0,0,0,0,0,0,0,0,-1,1763,974,0,0
546,50,0,0,0,0,0,0,0,0,0,-1,1770,974,0,0
553,50,0,0,0,0,0,0,0,0,0,-1,1777,974,0,0
560,50,0,0,0,0,0,0,0,0,0,-1,1784,974,0,0
567,50,0,0,0,0,0,0,0,0,0,-1,1791,974,0,0
574,50,0,0,0,0,0,0,0,0,0,-1,1798,974,0,0
581,50,0,0,0,0,0,0,0,0,0,-1,1805,974,0,0
588,50,0,0,0,0,0,0,0,0,0,-1,1812,974,0,0
595,50,0,0,0,0,0,0,0,0,0,-1,1819,974,0,0
602,50,0,0,0,0,0,0,0,0,0,-1,1826,974,0,0
609,50,0,0,0,0,0,0,0,0,0,-1,1833,974,0,0
616,50,0,0,0,0,0,0,0,0,0,-1,1840,974,0,0
623,50,0,0,0,0,0,0,0,0,0,-1,1847,974,0,0
630,50,0,0,0,0,0,0,0,0,0,-1,1854,974,0,0
637,50,0,0,0,0,0,0,0,0,0,-1,1861,974,0,0
644,50,67.2314,2.55896,0.00336412,0.00410403,-0.00364701,0.00739981,6.83467e-05,-0.835945,0.00491058,0.0375328,1868,974,67.2315,-2.55894
651,50,67.0901,2.38831,0.0024751,0.0030866,-0.00269961,0.00549772,6.39819e-05,-0.841787,0.00364401,0.0326717,1875,974,67.0901,-2.38832
658,50,67.1537,2.33887,0.00174347,0.00226656,-0.00177295,0.00379715,0.000212877,-0.85863,0.00246354,0.0364801,1882,974,67.1537,-2.33888
665,50,67.2426,2.13593,0.00104238,0.00187685,-0.000775688,0.0023404,0.000578831,-1.03215,0.00140757,0.0391673,1889,974,67.2426,-2.13594
672,50,67.2701,2.10229,0.000317075,0.00164041,0.00021421,0.00167422,0.000283264,1.41425,0.00103473,0.038255,1896,974,67.2701,-2.10229
679,50,67.1053,2.02625,-0.000242954,0.0012419,0.00109458,0.00182209,-0.000823137,1.0834,0.0015631,0.0403193,1903,974,67.1054,-2.02625
686,50,67.0353,2.00073,-0.000495513,0.000758639,0.00163661,0.0018842,-0.00162107,0.968349,0.00202566,0.0432057,1910,974,67.0352,-2.00073
693,50,67.1844,2.15796,-0.000691183,0.000333755,0.00188675,0.0017764,-0.00213383,0.918006,0.00226071,0.0392333,1917,974,67.1844,-2.15798
700,50,67.1384,2.29742,-0.00107335,0.000105567,0.00189258,0.00149836,-0.00246615,0.936366,0.00231153,0.0208831,1924,974,67.1384,-2.2974
707,50,67.1406,2.52045,-0.00164067,0.00022182,0.00156915,0.00111525,-0.0025341,1.0532,0.00215939,0.0336413,1931,974,67.1406,-2.52042
714,50,67.0654,2.80829,0,0,0,0,0,0,0,-1,1938,974,67.0655,-2.8083
721,50,65.9321,5.26807,0,0,0,0,0,0,0,-1,1945,974,65.9321,-5.26805
728,50,65.9574,5.69714,-0.0036412,0.00304257,0.000564786,0.00308996,-0.00368859,1.48709,0.00391868,0.0229945,1952,974,65.9574,-5.69712
735,50,65.9934,6.1377,-0.00394545,0.00507423,8.30574e-05,0.00507499,-0.00394621,1.56159,0.00522197,0.0238025,1959,974,65.9934,-6.13772
742,50,65.9788,6.54413,-0.0045374,0.00964079,-0.000426738,0.00965362,-0.00455024,-1.54073,0.00837518,0.0183837,1966,974,65.9788,-6.54415
749,50,65.911,6.86249,-0.00533963,0.0142734,-0.000627648,0.0142935,-0.00535969,-1.53884,0.011731,0.0179246,1973,974,65.911,-6.86246
756,50,65.8534,7.19427,-0.00577841,0.0211656,-0.00074949,0.0211864,-0.00579924,-1.54301,0.0164027,0.0154587,1980,974,65.8534,-7.19429
763,50,65.7551,7.54553,-0.00558236,0.0312579,-0.000185298,0.0312589,-0.0055833,-1.56577,0.0229281,0.0151572,1987,974,65.755,-7.54551
770,50,65.6184,7.85431,-0.00452371,0.0447856,0.00126655,0.0448181,-0.00455622,1.54513,0.0315075,0.013804,1994,974,65.6184,-7.8543
777,50,65.4895,8.21326,-0.00268957,0.0606668,0.00337293,0.0608459,-0.00286863,1.51776,0.0415532,0.0256986,2001,974,65.4895,-8.21325
784,50,65.3025,8.81073,0.000623935,0.0801829,0.00662888,0.0807315,7.53962e-05,1.48823,0.0537959,0.0407888,2008,974,65.3024,-8.81074
791,50,65.1135,9.48151,0,0,0,0,0,0,0,-1,2015,974,65.1136,-9.48152
798,50,65.0454,11.5006,0,0,0,0,0,0,0,-1,2022,974,65.0454,-11.5006
805,50,65.4932,12.8747,0,0,0,0,0,0,0,-1,2029,974,65.4931,-12.8747
812,50,0,0,0,0,0,0,0,0,0,-1,2036,974,0,0
-700,43,0,0,0,0,0,0,0,0,0,-1,524,981,0,0
-693,43,-53.4916,2.41016,0.0833939,0.0425696,0.00819722,0.0849784,0.0409852,0.190936,0.0490725,0.0466791,531,981,-53.4916,-2.41013
-686,43,-53.0494,2.3761,0.0761275,0.0425399,0.0108829,0.0793454,0.039322,0.287494,0.0458107,0.0447363,538,981,-53.0494,-2.3761
-679,43,-52.578,2.29218,0.0640836,0.0416972,0.0119231,0.0692442,0.0365365,0.408482,0.0399985,0.0441576,545,981,-52.578,-2.29216
-672,43,-51.9746,2.17426,0.051728,0.0401279,0.0121991,0.0594357,0.0324203,0.563492,0.0343625,0.0472486,552,981,-51.9746,-2.17426
-665,43,-51.3632,1.97009,0,0,0,0,0,0,0,-1,559,981,-51.3631,-1.97009
-658,43,-51.1563,6.00427,0,0,0,0,0,0,0,-1,566,981,-51.1563,-6.0043
-651,43,-51.4214,5.81726,0.0195201,0.0312941,0.0104145,0.0373703,0.0134439,1.04264,0.0218569,0.0452418,573,981,-51.4214,-5.81727
-644,43,-51.7012,5.63544,0.0111356,0.0269828,0.00923481,0.0312274,0.00689103,1.13996,0.0189437,0.0263829,580,981,-51.7012,-5.63542
-637,43,-51.8824,5.40674,0.00455876,0.0227836,0.00823867,0.0259558,0.00138655,1.20325,0.0168607,0.0197517,587,981,-51.8825,-5.40671
-630,43,-51.9297,5.18854,-8.9015e-05,0.018814,0.00666017,0.0209249,-0.00219989,1.26387,0.0147381,0.0154364,594,981,-51.9297,-5.18854
-623,43,-51.9495,4.96643,-0.00480844,0.0131502,0.00441441,0.0141767,-0.00583488,1.34234,0.0118836,0.0133764,601,981,-51.9495,-4.96643
-616,43,-51.9672,4.67902,-0.00712547,0.00869334,0.00198297,0.00893813,-0.00737025,1.44797,0.00943014,0.0126923,608,981,-51.9672,-4.679
-609,43,-51.9772,4.3736,-0.00592688,0.00617956,0.00110434,0.00627947,-0.00602679,1.48057,0.00710552,0.014974,615,981,-51.9772,-4.3736
-602,43,-51.9608,4.08539,-0.00454805,0.00421728,-4.62783e-05,0.00421753,-0.00454829,-1.56552,0.00506215,0.0180005,622,981,-51.9608,-4.08538
-595,43,-52.0828,3.80707,-0.00330711,0.00287125,-0.000838108,0.00298293,-0.00341878,-1.43833,0.00369888,0.0186094,629,981,-52.0827,-3.80707
-588,43,-52.3223,3.64581,0,0,0,0,0,0,0,-1,636,981,-52.3222,-3.64582
-581,43,-51.9714,1.03033,0,0,0,0,0,0,0,-1,643,981,-51.9714,-1.03031
-574,43,-51.7946,-0.635864,0,0,0,0,0,0,0,-1,650,981,-51.7946,0.635854
-567,43,-51.8349,0.363708,-0.000800532,-0.000423283,-0.00277034,0.00216484,-0.00338866,-0.819389,0.00323216,0.0374709,657,981,-51.8349,-0.363696
-560,43,-51.7267,0.34613,-0.000543104,-0.000407823,-0.00269824,0.00222363,-0.00317455,-0.79793,0.00313272,0.0398223,664,981,-51.7267,-0.346117
-553,43,-51.8151,0.348572,-0.000244765,-0.000265454,-0.00235917,0.00210408,-0.0026143,-0.783206,0.00272947,0.0410102,671,981,-51.8151,-0.348593
-546,43,-51.9105,0.472961,0.000119892,-0.000259467,-0.0016883,0.00162913,-0.00176871,-0.729458,0.00196229,0.0425523,678,981,-51.9104,-0.47297
-539,43,-51.7756,0.573242,0.000444862,-0.000770909,-0.000645875,0.000723926,-0.00104997,-0.407845,0.00102991,0.0445114,685,981,-51.7756,-0.573257
-532,43,-51.7916,0.683105,0.00112697,-0.00135072,-9.19869e-06,0.001127,-0.00135076,-0.00371254,0.00143248,0.0449262,692,981,-51.7916,-0.683084
-525,43,-51.7894,0.585815,0.00149463,0.000156341,-0.0016919,0.0026449,-0.000993929,-0.597088,0.00217176,0.043133,699,981,-51.7894,-0.585837
-518,43,0,0,0,0,0,0,0,0,0,-1,706,981,0,0
-511,43,0,0,0,0,0,0,0,0,0,-1,713,981,0,0
-504,43,0,0,0,0,0,0,0,0,0,-1,720,981,0,0
-497,43,0,0,0,0,0,0,0,0,0,-1,727,981,0,0
-490,43,0,0,0,0,0,0,0,0,0,-1,734,981,0,0
-483,43,0,0,0,0,0,0,0,0,0,-1,741,981,0,0
-476,43,0,0,0,0,0,0,0,0,0,-1,748,981,0,0
-469,43,0,0,0,0,0,0,0,0,0,-1,755,981,0,0
-462,43,0,0,0,0,0,0,0,0,0,-1,762,981,0,0
-455,43,0,0,0,0,0,0,0,0,0,-1,769,981,0,0
-448,43,0,0,0,0,0,0,0,0,0,-1,776,981,0,0
-441,43,0,0,0,0,0,0,0,0,0,-1,783,981,0,0
-434,43,0,0,0,0,0,0,0,0,0,-1,790,981,0,0
-427,43,0,0,0,0,0,0,0,0,0,-1,797,981,0,0
-420,43,0,0,0,0,0,0,0,0,0,-1,804,981,0,0
-413,43,0,0,0,0,0,0,0,0,0,-1,811,981,0,0
-406,43,0,0,0,0,0,0,0,0,0,-1,818,981,0,0
-399,43,0,0,0,0,0,0,0,0,0,-1,825,981,0,0
-392,43,0,0,0,0,0,0,0,0,0,-1,832,981,0,0
-385,43,0,0,0,0,0,0,0,0,0,-1,839,981,0,0
-378,43,0,0,0,0,0,0,0,0,0,-1,846,981,0,0
-371,43,0,0,0,0,0,0,0,0,0,-1,853,981,0,0
-364,43,0,0,0,0,0,0,0,0,0,-1,860,981,0,0
-357,43,0,0,0,0,0,0,0,0,0,-1,867,981,0,0
-350,43,0,0,0,0,0,0,0,0,0,-1,874,981,0,0
-343,43,0,0,0,0,0,0,0,0,0,-1,881,981,0,0
-336,43,0,0,0,0,0,0,0,0,0,-1,888,981,0,0
-329,43,0,0,0,0,0,0,0,0,0,-1,895,981,0,0
-322,43,0,0,0,0,0,0,0,0,0,-1,902,981,0,0
-315,43,0,0,0,0,0,0,0,0,0,-1,909,981,0,0
-308,43,0,0,0,0,0,0,0,0,0,-1,916,981,0,0
-301,43,0,0,0,0,0,0,0,0,0,-1,923,981,0,0
-294,43,0,0,0,0,0,0,0,0,0,-1,930,981,0,0
-287,43,0,0,0,0,0,0,0,0,0,-1,937,981,0,0
-280,43,0,0,0,0,0,0,0,0,0,-1,944,981,0,0
-273,43,0,0,0,0,0,0,0,0,0,-1,951,981,0,0
-266,43,0,0,0,0,0,0,0,0,0,-1,958,981,0,0
-259,43,0,0,0,0,0,0,0,0,0,-1,965,981,0,0
-252,43,0,0,0,0,0,0,0,0,0,-1,972,981,0,0
-245,43,0,0,0,0,0,0,0,0,0,-1,979,981,0,0
-238,43,0,0,0,0,0,0,0,0,0,-1,986,981,0,0
-231,43,0,0,0,0,0,0,0,0,0,-1,993,981,0,0
-224,43,0,0,0,0,0,0,0,0,0,-1,1000,981,0,0
-217,43,0,0,0,0,0,0,0,0,0,-1,1007,981,0,0
-210,43,0,0,0,0,0,0,0,0,0,-1,1014,981,0,0
-203,43,0,0,0,0,0,0,0,0,0,-1,1021,981,0,0
-196,43,0,0,0,0,0,0,0,0,0,-1,1028,981,0,0
-189,43,0,0,0,0,0,0,0,0,0,-1,1035,981,0,0
-182,43,0,0,0,0,0,0,0,0,0,-1,1042,981,0,0
-175,43,0,0,0,0,0,0,0,0,0,-1,1049,981,0,0
-168,43,0,0,0,0,0,0,0,0,0,-1,1056,981,0,0
-161,43,0,0,0,0,0,0,0,0,0,-1,1063,981,0,0
-154,43,0,0,0,0,0,0,0,0,0,-1,1070,981,0,0
-147,43,0,0,0,0,0,0,0,0,0,-1,1077,981,0,0
-140,43,0,0,0,0,0,0,0,0,0,-1,1084,981,0,0
-133,43,0,0,0,0,0,0,0,0,0,-1,1091,981,0,0
-126,43,0,0,0,0,0,0,0,0,0,-1,1098,981,0,0
-119,43,0,0,0,0,0,0,0,0,0,-1,1105,981,0,0
-112,43,0,0,0,0,0,0,0,0,0,-1,1112,981,0,0
-105,43,0,0,0,0,0,0,0,0,0,-1,1119,981,0,0
-98,43,0,0,0,0,0,0,0,0,0,-1,1126,981,0,0
-91,43,0,0,0,0,0,0,0,0,0,-1,1133,981,0,0
-84,43,0,0,0,0,0,0,0,0,0,-1,1140,981,0,0
-77,43,0,0,0,0,0,0,0,0,0,-1,1147,981,0,0
-70,43,0,0,0,0,0,0,0,0,0,-1,1154,981,0,0
-63,43,0,0,0,0,0,0,0,0,0,-1,1161,981,0,0
-56,43,0,0,0,0,0,0,0,0,0,-1,1168,981,0,0
-49,43,0,0,0,0,0,0,0,0,0,-1,1175,981,0,0
-42,43,0,0,0,0,0,0,0,0,0,-1,1182,981,0,0
-35,43,0,0,0,0,0,0,0,0,0,-1,1189,981,0,0
-28,43,0,0,0,0,0,0,0,0,0,-1,1196,981,0,0
-21,43,0,0,0,0,0,0,0,0,0,-1,1203,981,0,0
-14,43,0,0,0,0,0,0,0,0,0,-1,1210,981,0,0
-7,43,0,0,0,0,0,0,0,0,0,-1,1217,981,0,0
0,43,0,0,0,0,0,0,0,0,0,-1,1224,981,0,0
7,43,0,0,0,0,0,0,0,0,0,-1,1231,981,0,0
14,43,0,0,0,0,0,0,0,0,0,-1,1238,981,0,0
21,43,0,0,0,0,0,0,0,0,0,-1,1245,981,0,0
28,43,0,0,0,0,0,0,0,0,0,-1,1252,981,0,0
35,43,0,0,0,0,0,0,0,0,0,-1,1259,981,0,0
42,43,0,0,0,0,0,0,0,0,0,-1,1266,981,0,0
49,43,0,0,0,0,0,0,0,0,0,-1,1273,981,0,0
56,43,0,0,0,0,0,0,0,0,0,-1,1280,981,0,0
63,43,0,0,0,0,0,0,0,0,0,-1,1287,981,0,0
70,43,0,0,0,0,0,0,0,0,0,-1,1294,981,0,0
77,43,0,0,0,0,0,0,0,0,0,-1,1301,981,0,0
84,43,0,0,0,0,0,0,0,0,0,-1,1308,981,0,0
91,43,0,0,0,0,0,0,0,0,0,-1,1315,981,0,0
98,43,0,0,0,0,0,0,0,0,0,-1,1322,981,0,0
105,43,0,0,0,0,0,0,0,0,0,-1,1329,981,0,0
112,43,0,0,0,0,0,0,0,0,0,-1,1336,981,0,0
119,43,0,0,0,0,0,0,0,0,0,-1,1343,981,0,0
126,43,0,0,0,0,0,0,0,0,0,-1,1350,981,0,0
133,43,0,0,0,0,0,0,0,0,0,-1,1357,981,0,0
140,43,0,0,0,0,0,0,0,0,0,-1,1364,981,0,0
147,43,0,0,0,0,0,0,0,0,0,-1,1371,981,0,0
154,43,0,0,0,0,0,0,0,0,0,-1,1378,981,0,0
161,43,0,0,0,0,0,0,0,0,0,-1,1385,981,0,0
168,43,0,0,0,0,0,0,0,0,0,-1,1392,981,0,0
175,43,0,0,0,0,0,0,0,0,0,-1,1399,981,0,0
182,43,0,0,0,0,0,0,0,0,0,-1,1406,981,0,0
189,43,0,0,0,0,0,0,0,0,0,-1,1413,981,0,0
196,43,0,0,0,0,0,0,0,0,0,-1,1420,981,0,0
203,43,0,0,0,0,0,0,0,0,0,-1,1427,981,0,0
210,43,0,0,0,0,0,0,0,0,0,-1,1434,981,0,0
217,43,0,0,0,0,0,0,0,0,0,-1,1441,981,0,0
224,43,0,0,0,0,0,0,0,0,0,-1,1448,981,0,0
231,43,0,0,0,0,0,0,0,0,0,-1,1455,981,0,0
238,43,0,0,0,0,0,0,0,0,0,-1,1462,981,0,0
245,43,0,0,0,0,0,0,0,0,0,-1,1469,981,0,0
252,43,0,0,0,0,0,0,0,0,0,-1,1476,981,0,0
259,43,0,0,0,0,0,0,0,0,0,-1,1483,981,0,0
266,43,0,0,0,0,0,0,0,0,0,-1,1490,981,0,0
273,43,0,0,0,0,0,0,0,0,0,-1,1497,981,0,0
280,43,0,0,0,0,0,0,0,0,0,-1,1504,981,0,0
287,43,0,0,0,0,0,0,0,0,0,-1,1511,981,0,0
294,43,0,0,0,0,0,0,0,0,0,-1,1518,981,0,0
301,43,0,0,0,0,0,0,0,0,0,-1,1525,981,0,0
308,43,0,0,0,0,0,0,0,0,0,-1,1532,981,0,0
315,43,0,0,0,0,0,0,0,0,0,-1,1539,981,0,0
322,43,0,0,0,0,0,0,0,0,0,-1,1546,981,0,0
329,43,0,0,0,0,0,0,0,0,0,-1,1553,981,0,0
336,43,0,0,0,0,0,0,0,0,0,-1,1560,981,0,0
343,43,0,0,0,0,0,0,0,0,0,-1,1567,981,0,0
350,43,0,0,0,0,0,0,0,0,0,-1,1574,981,0,0
357,43,0,0,0,0,0,0,0,0,0,-1,1581,981,0,0
364,43,0,0,0,0,0,0,0,0,0,-1,1588,981,0,0
371,43,0,0,0,0,0,0,0,0,0,-1,1595,981,0,0
378,43,0,0,0,0,0,0,0,0,0,-1,1602,981,0,0
385,43,0,0,0,0,0,0,0,0,0,-1,1609,981,0,0
392,43,0,0,0,0,0,0,0,0,0,-1,1616,981,0,0
399,43,0,0,0,0,0,0,0,0,0,-1,1623,981,0,0
406,43,0,0,0,0,0,0,0,0,0,-1,1630,981,0,0
413,43,0,0,0,0,0,0,0,0,0,-1,1637,981,0,0
420,43,0,0,0,0,0,0,0,0,0,-1,1644,981,0,0
427,43,0,0,0,0,0,0,0,0,0,-1,1651,981,0,0
434,43,0,0,0,0,0,0,0,0,0,-1,1658,981,0,0
441,43,0,0,0,0,0,0,0,0,0,-1,1665,981,0,0
448,43,0,0,0,0,0,0,0,0,0,-1,1672,981,0,0
455,43,0,0,0,0,0,0,0,0,0,-1,1679,981,0,0
462,43,0,0,0,0,0,0,0,0,0,-1,1686,981,0,0
469,43,0,0,0,0,0,0,0,0,0,-1,1693,981,0,0
476,43,0,0,0,0,0,0,0,0,0,-1,1700,981,0,0
483,43,0,0,0,0,0,0,0,0,0,-1,1707,981,0,0
490,43,0,0,0,0,0,0,0,0,0,-1,1714,981,0,0
497,43,0,0,0,0,0,0,0,0,0,-1,1721,981,0,0
504,43,0,0,0,0,0,0,0,0,0,-1,1728,981,0,0
511,43,0,0,0,0,0,0,0,0,0,-1,1735,981,0,0
518,43,0,0,0,0,0,0,0,0,0,-1,1742,981,0,0
525,43,0,0,0,0,0,0,0,0,0,-1,1749,981,0,0
532,43,0,0,0,0,0,0,0,0,0,-1,1756,981,0,0
539,43,0,0,0,0,0,0,0,0,0,-1,1763,981,0,0
546,43,0,0,0,0,0,0,0,0,0,-1,1770,981,0,0
553,43,0,0,0,0,0,0,0,0,0,-1,1777,981,0,0
560,43,0,0,0,0,0,0,0,0,0,-1,1784,981,0,0
567,43,0,0,0,0,0,0,0,0,0,-1,1791,981,0,0
574,43,0,0,0,0,0,0,0,0,0,-1,1798,981,0,0
581,43,0,0,0,0,0,0,0,0,0,-1,1805,981,0,0
588,43,0,0,0,0,0,0,0,0,0,-1,1812,981,0,0
595,43,0,0,0,0,0,0,0,0,0,-1,1819,981,0,0
602,43,0,0,0,0,0,0,0,0,0,-1,1826,981,0,0
609,43,0,0,0,0,0,0,0,0,0,-1,1833,981,0,0
616,43,0,0,0,0,0,0,0,0,0,-1,1840,981,0,0
623,43,0,0,0,0,0,0,0,0,0,-1,1847,981,0,0
630,43,0,0,0,0,0,0,0,0,0,-1,1854,981,0,0
637,43,0,0,0,0,0,0,0,0,0,-1,1861,981,0,0
644,43,67.0387,2.44696,0.00488326,0.00481961,-0.00329652,0.00814811,0.00155476,-0.780572,0.00499514,0.0383576,1868,981,67.0387,-2.44696
651,43,66.9976,2.27386,0.00346569,0.00360971,-0.00236749,0.00590629,0.00116911,-0.800602,0.00361146,0.0380231,1875,981,66.9975,-2.27389
658,43,67.1996,2.27899,0.00239367,0.00258571,-0.00150711,0.00399985,0.000979525,-0.817212,0.00240743,0.0376302,1882,981,67.1996,-2.279
665,43,67.214,2.22772,0.0014635,0.00202349,-0.000612171,0.00241666,0.00107033,-0.999887,0.00139829,0.0377171,1889,981,67.214,-2.22775
672,43,67.3159,2.29584,0.000599858,0.00165648,0.000260351,0.00171714,0.000539191,1.34186,0.001014,0.0378691,1896,981,67.3159,-2.29586
679,43,67.2682,2.27795,-2.42687e-05,0.00118113,0.00105062,0.00178965,-0.00063279,1.04581,0.00145078,0.0409801,1903,981,67.2682,-2.27797
686,43,67.1901,2.07819,-0.000296112,0.000631041,0.00155572,0.00179079,-0.00145586,0.9302,0.00187777,0.0426775,1910,981,67.1901,-2.07821
693,43,67.191,2.15509,-0.000470099,0.000130588,0.00179386,0.00164907,-0.00198858,0.868343,0.00210325,0.038473,1917,981,67.191,-2.15508
700,43,67.1686,2.22479,-0.000790112,-0.000171097,0.00177727,0.00132341,-0.00228462,0.871608,0.00210759,0.0327812,1924,981,67.1685,-2.22477
707,43,67.2184,2.26379,-0.0013741,-4.89661e-05,0.00146128,0.000892943,-0.00231601,0.998243,0.00191245,0.0290937,1931,981,67.2184,-2.26382
714,43,67.1416,2.48254,0,0,0,0,0,0,0,-1,1938,981,67.1416,-2.48252
721,43,66.33,5.33118,0,0,0,0,0,0,0,-1,1945,981,66.3299,-5.33118
728,43,66.3615,5.7597,-0.00386289,0.00303734,0.000418679,0.00306265,-0.0038882,1.51042,0.0040225,0.0200425,1952,981,66.3615,-5.75973
735,43,66.3889,6.17212,-0.00439176,0.00522025,-0.000148779,0.00522255,-0.00439406,-1.55532,0.00555902,0.0159766,1959,981,66.389,-6.17212
742,43,66.3301,6.52869,-0.00517224,0.0101845,-0.000583761,0.0102066,-0.0051944,-1.53286,0.0090474,0.0175816,1966,981,66.33,-6.52869
749,43,66.296,6.8302,-0.00631663,0.0148977,-0.000654502,0.0149179,-0.0063368,-1.53998,0.0126003,0.0189218,1973,981,66.296,-6.83019
756,43,66.272,7.1087,-0.00724582,0.0217578,-0.000786324,0.0217791,-0.00726713,-1.54371,0.0174536,0.0224472,1980,981,66.272,-7.10868
763,43,66.2078,7.39264,-0.00763276,0.0318806,-0.000333466,0.0318834,-0.00763557,-1.56236,0.0242056,0.0260243,1987,981,66.2077,-7.39266
770,43,66.095,7.75787,-0.00719184,0.0459797,0.00102557,0.0459995,-0.00721161,1.55152,0.0333312,0.0215289,1994,981,66.0949,-7.75786
777,43,66.0186,8.08612,-0.00590876,0.0626071,0.00309389,0.0627465,-0.00604818,1.52576,0.0439859,0.0264169,2001,981,66.0186,-8.0861
784,43,65.8564,9.10315,-0.00324858,0.0826988,0.00632483,0.0831617,-0.00371153,1.49773,0.0567188,0.0426367,2008,981,65.8564,-9.10316
791,43,65.7136,10.1372,0.00179377,0.107415,0.0110405,0.108557,0.000652067,1.46775,0.0721551,0.0469302,2015,981,65.7137,-10.1372
798,43,65.9429,11.3901,0,0,0,0,0,0,0,-1,2022,981,65.9428,-11.3901
805,43,66.2249,12.6516,0,0,0,0,0,0,0,-1,2029,981,66.2248,-12.6515
812,43,62.78,6.02966,0,0,0,0,0,0,0,-1,2036,981,62.78,-6.02965
-700,36,0,0,0,0,0,0,0,0,0,-1,524,988,0,0
-693,36,-52.8118,2.38617,0,0,0,0,0,0,0,-1,531,988,-52.8118,-2.38615
-686,36,-52.6144,2.63287,0,0,0,0,0,0,0,-1,538,988,-52.6144,-2.63287
-679,36,-52.2156,2.43878,0.0595708,0.0304034,0.0040147,0.0601133,0.0298609,0.134317,0.0347067,0.0431461,545,988,-52.2156,-2.4388
-672,36,-51.7085,2.30841,0.0484531,0.0310812,0.00551954,0.0500585,0.0294758,0.283041,0.0290529,0.0452841,552,988,-51.7085,-2.30843
-665,36,-51.4971,2.284,0.0377287,0.0307279,0.0063363,0.0414672,0.0269894,0.533042,0.0243016,0.0430317,559,988,-51.4971,-2.284
-658,36,-51.4697,5.80731,0,0,0,0,0,0,0,-1,566,988,-51.4697,-5.80728
-651,36,-51.7331,5.56433,0.0187864,0.0272175,0.00662178,0.0308517,0.0151522,1.06885,0.0178132,0.0450077,573,988,-51.7331,-5.56436
-644,36,-52.0032,5.34766,0.0107758,0.0241144,0.006228,0.0265702,0.00832,1.1952,0.0156934,0.0279408,580,988,-52.0032,-5.34768
-637,36,-52.2253,5.18835,0.00449978,0.0209386,0.00598177,0.0228848,0.00255355,1.25624,0.0144806,0.0223367,587,988,-52.2253,-5.18837
-630,36,-52.2466,5.0675,-3.76127e-05,0.0175779,0.00500467,0.0189005,-0.00136017,1.31244,0.0130773,0.0167951,594,988,-52.2466,-5.06752
-623,36,-52.2703,4.89063,-0.00471002,0.0128545,0.00342602,0.0134991,-0.00535462,1.38482,0.0112186,0.0145994,601,988,-52.2702,-4.89062
-616,36,-52.2668,4.6817,-0.00692969,0.00878382,0.00150197,0.0089261,-0.00707196,1.47635,0.00925714,0.0123121,608,988,-52.2668,-4.68167
-609,36,-52.192,4.48981,-0.00578015,0.00612551,0.000834642,0.00618374,-0.00583838,1.50115,0.00694193,0.0183539,615,988,-52.192,-4.4898
-602,36,-52.2541,4.18274,-0.00442553,0.00409775,-0.0001727,0.00410124,-0.00442903,-1.55055,0.00492617,0.0238002,622,988,-52.2541,-4.18276
-595,36,-52.5027,3.9043,-0.0032414,0.00269798,-0.000867838,0.00282219,-0.00336561,-1.42864,0.00357712,0.027413,629,988,-52.5027,-3.90427
-588,36,-52.3555,2.14417,0,0,0,0,0,0,0,-1,636,988,-52.3556,-2.14418
-581,36,-51.9465,0.827515,0,0,0,0,0,0,0,-1,643,988,-51.9465,-0.82751
-574,36,-51.8488,0.399353,-0.000908778,-0.000293301,-0.00238429,0.00180303,-0.00300511,-0.849578,0.00280475,0.027827,650,988,-51.8488,-0.39937
-567,36,-51.8378,0.325134,-0.000631125,-0.000482771,-0.0025172,0.00196135,-0.00307524,-0.800128,0.00293149,0.0337932,657,988,-51.8378,-0.325136
-560,36,-51.8001,0.407898,-0.000379451,-0.000363578,-0.00239385,0.00202235,-0.00276537,-0.787056,0.00277526,0.0383031,664,988,-51.8001,-0.407897
-553,36,-51.8133,0.504089,-0.000151094,-8.00211e-05,-0.00201893,0.00190369,-0.0021348,-0.794198,0.0023329,0.0436329,671,988,-51.8133,-0.50406
-546,36,-51.8575,0.473083,4.01232e-05,7.95122e-05,-0.0013346,0.00139456,-0.00127493,-0.792776,0.00154175,0.0456611,678,988,-51.8576,-0.473077
-539,36,-51.7025,0.437378,-8.01089e-06,-0.000238621,-0.000321245,0.000217995,-0.000464627,-0.613093,0.000402596,0.0447063,685,988,-51.7024,-0.437385
-532,36,-51.5629,0.419128,0,0,0,0,0,0,0,-1,692,988,-51.5629,-0.41912
-525,36,-51.9514,0.445435,0,0,0,0,0,0,0,-1,699,988,-51.9514,-0.44541
-518,36,0,0,0,0,0,0,0,0,0,-1,706,988,0,0
-511,36,0,0,0,0,0,0,0,0,0,-1,713,988,0,0
-504,36,0,0,0,0,0,0,0,0,0,-1,720,988,0,0
-497,36,0,0,0,0,0,0,0,0,0,-1,727,988,0,0
-490,36,0,0,0,0,0,0,0,0,0,-1,734,988,0,0
-483,36,0,0,0,0,0,0,0,0,0,-1,741,988,0,0
-476,36,0,0,0,0,0,0,0,0,0,-1,748,988,0,0
-469,36,0,0,0,0,0,0,0,0,0,-1,755,988,0,0
-462,36,0,0,0,0,0,0,0,0,0,-1,762,988,0,0
-455,36,0,0,0,0,0,0,0,0,0,-1,769,988,0,0
-448,36,0,0,0,0,0,0,0,0,0,-1,776,988,0,0
-441,36,0,0,0,0,0,0,0,0,0,-1,783,988,0,0
-434,36,0,0,0,0,0,0,0,0,0,-1,790,988,0,0
-427,36,0,0,0,0,0,0,0,0,0,-1,797,988,0,0
-420,36,0,0,0,0,0,0,0,0,0,-1,804,988,0,0
-413,36,0,0,0,0,0,0,0,0,0,-1,811,988,0,0
-406,36,0,0,0,0,0,0,0,0,0,-1,818,988,0,0
-399,36,0,0,0,0,0,0,0,0,0,-1,825,988,0,0
-392,36,0,0,0,0,0,0,0,0,0,-1,832,988,0,0
-385,36,0,0,0,0,0,0,0,0,0,-1,839,988,0,0
-378,36,0,0,0,0,0,0,0,0,0,-1,846,988,0,0
-371,36,0,0,0,0,0,0,0,0,0,-1,853,988,0,0
-364,36,0,0,0,0,0,0,0,0,0,-1,860,988,0,0
-357,36,0,0,0,0,0,0,0,0,0,-1,867,988,0,0
-350,36,0,0,0,0,0,0,0,0,0,-1,874,988,0,0
-343,36,0,0,0,0,0,0,0,0,0,-1,881,988,0,0
-336,36,0,0,0,0,0,0,0,0,0,-1,888,988,0,0
-329,36,0,0,0,0,0,0,0,0,0,-1,895,988,0,0
-322,36,0,0,0,0,0,0,0,0,0,-1,902,988,0,0
-315,36,0,0,0,0,0,0,0,0,0,-1,909,988,0,0
-308,36,0,0,0,0,0,0,0,0,0,-1,916,988,0,0
-301,36,0,0,0,0,0,0,0,0,0,-1,923,988,0,0
-294,36,0,0,0,0,0,0,0,0,0,-1,930,988,0,0
-287,36,0,0,0,0,0,0,0,0,0,-1,937,988,0,0
-280,36,0,0,0,0,0,0,0,0,0,-1,944,988,0,0
-273,36,0,0,0,0,0,0,0,0,0,-1,951,988,0,0
-266,36,0,0,0,0,0,0,0,0,0,-1,958,988,0,0
-259,36,0,0,0,0,0,0,0,0,0,-1,965,988,0,0
-252,36,0,0,0,0,0,0,0,0,0,-1,972,988,0,0
-245,36,0,0,0,0,0,0,0,0,0,-1,979,988,0,0
-238,36,0,0,0,0,0,0,0,0,0,-1,986,988,0,0
-231,36,0,0,0,0,0,0,0,0,0,-1,993,988,0,0
-224,36,0,0,0,0,0,0,0,0,0,-1,1000,988,0,0
-217,36,0,0,0,0,0,0,0,0,0,-1,1007,988,0,0
-210,36,0,0,0,0,0,0,0,0,0,-1,1014,988,0,0
-203,36,0,0,0,0,0,0,0,0,0,-1,1021,988,0,0
-196,36,0,0,0,0,0,0,0,0,0,-1,1028,988,0,0
-189,36,0,0,0,0,0,0,0,0,0,-1,1035,988,0,0
-182,36,0,0,0,0,0,0,0,0,0,-1,1042,988,0,0
-175,36,0,0,0,0,0,0,0,0,0,-1,1049,988,0,0
-168,36,0,0,0,0,0,0,0,0,0,-1,1056,988,0,0
-161,36,0,0,0,0,0,0,0,0,0,-1,1063,988,0,0
-154,36,0,0,0,0,0,0,0,0,0,-1,1070,988,0,0
-147,36,0,0,0,0,0,0,0,0,0,-1,1077,988,0,0
-140,36,0,0,0,0,0,0,0,0,0,-1,1084,988,0,0
-133,36,0,0,0,0,0,0,0,0,0,-1,1091,988,0,0
-126,36,0,0,0,0,0,0,0,0,0,-1,1098,988,0,0
-119,36,0,0,0,0,0,0,0,0,0,-1,1105,988,0,0
-112,36,0,0,0,0,0,0,0,0,0,-1,1112,988,0,0
-105,36,0,0,0,0,0,0,0,0,0,-1,1119,988,0,0
-98,36,0,0,0,0,0,0,0,0,0,-1,1126,988,0,0
-91,36,0,0,0,0,0,0,0,0,0,-1,1133,988,0,0
-84,36,0,0,0,0,0,0,0,0,0,-1,1140,988,0,0
-77,36,0,0,0,0,0,0,0,0,0,-1,1147,988,0,0
-70,36,0,0,0,0,0,0,0,0,0,-1,1154,988,0,0
-63,36,0,0,0,0,0,0,0,0,0,-1,1161,988,0,0
-56,36,0,0,0,0,0,0,0,0,0,-1,1168,988,0,0
-49,36,0,0,0,0,0,0,0,0,0,-1,1175,988,0,0
-42,36,0,0,0,0,0,0,0,0,0,-1,1182,988,0,0
-35,36,0,0,0,0,0,0,0,0,0,-1,1189,988,0,0
-28,36,0,0,0,0,0,0,0,0,0,-1,1196,988,0,0
-21,36,0,0,0,0,0,0,0,0,0,-1,1203,988,0,0
-14,36,0,0,0,0,0,0,0,0,0,-1,1210,988,0,0
-7,36,0,0,0,0,0,0,0,0,0,-1,1217,988,0,0
0,36,0,0,0,0,0,0,0,0,0,-1,1224,988,0,0
7,36,0,0,0,0,0,0,0,0,0,-1,1231,988,0,0
14,36,0,0,0,0,0,0,0,0,0,-1,1238,988,0,0
21,36,0,0,0,0,0,0,0,0,0,-1,1245,988,0,0
28,36,0,0,0,0,0,0,0,0,0,-1,1252,988,0,0
35,36,0,0,0,0,0,0,0,0,0,-1,1259,988,0,0
42,36,0,0,0,0,0,0,0,0,0,-1,1266,988,0,0
49,36,0,0,0,0,0,0,0,0,0,-1,1273,988,0,0
56,36,0,0,0,0,0,0,0,0,0,-1,1280,988,0,0
63,36,0,0,0,0,0,0,0,0,0,-1,1287,988,0,0
70,36,0,0,0,0,0,0,0,0,0,-1,1294,988,0,0
77,36,0,0,0,0,0,0,0,0,0,-1,1301,988,0,0
84,36,0,0,0,0,0,0,0,0,0,-1,1308,988,0,0
91,36,0,0,0,0,0,0,0,0,0,-1,1315,988,0,0
98,36,0,0,0,0,0,0,0,0,0,-1,1322,988,0,0
105,36,0,0,0,0,0,0,0,0,0,-1,1329,988,0,0
112,36,0,0,0,0,0,0,0,0,0,-1,1336,988,0,0
119,36,0,0,0,0,0,0,0,0,0,-1,1343,988,0,0
126,36,0,0,0,0,0,0,0,0,0,-1,1350,988,0,0
133,36,0,0,0,0,0,0,0,0,0,-1,1357,988,0,0
140,36,0,0,0,0,0,0,0,0,0,-1,1364,988,0,0
147,36,0,0,0,0,0,0,0,0,0,-1,1371,988,0,0
154,36,0,0,0,0,0,0,0,0,0,-1,1378,988,0,0
161,36,0,0,0,0,0,0,0,0,0,-1,1385,988,0,0
168,36,0,0,0,0,0,0,0,0,0,-1,1392,988,0,0
175,36,0,0,0,0,0,0,0,0,0,-1,1399,988,0,0
182,36,0,0,0,0,0,0,0,0,0,-1,1406,988,0,0
189,36,0,0,0,0,0,0,0,0,0,-1,1413,988,0,0
196,36,0,0,0,0,0,0,0,0,0,-1,1420,988,0,0
203,36,0,0,0,0,0,0,0,0,0,-1,1427,988,0,0
210,36,0,0,0,0,0,0,0,0,0,-1,1434,988,0,0
217,36,0,0,0,0,0,0,0,0,0,-1,1441,988,0,0
224,36,0,0,0,0,0,0,0,0,0,-1,1448,988,0,0
231,36,0,0,0,0,0,0,0,0,0,-1,1455,988,0,0
238,36,0,0,0,0,0,0,0,0,0,-1,1462,988,0,0
245,36,0,0,0,0,0,0,0,0,0,-1,1469,988,0,0
252,36,0,0,0,0,0,0,0,0,0,-1,1476,988,0,0
259,36,0,0,0,0,0,0,0,0,0,-1,1483,988,0,0
266,36,0,0,0,0,0,0,0,0,0,-1,1490,988,0,0
273,36,0,0,0,0,0,0,0,0,0,-1,1497,988,0,0
280,36,0,0,0,0,0,0,0,0,0,-1,1504,988,0,0
287,36,0,0,0,0,0,0,0,0,0,-1,1511,988,0,0
294,36,0,0,0,0,0,0,0,0,0,-1,1518,988,0,0
301,36,0,0,0,0,0,0,0,0,0,-1,1525,988,0,0
308,36,0,0,0,0,0,0,0,0,0,-1,1532,988,0,0
315,36,0,0,0,0,0,0,0,0,0,-1,1539,988,0,0
322,36,0,0,0,0,0,0,0,0,0,-1,1546,988,0,0
329,36,0,0,0,0,0,0,0,0,0,-1,1553,988,0,0
336,36,0,0,0,0,0,0,0,0,0,-1,1560,988,0,0
343,36,0,0,0,0,0,0,0,0,0,-1,1567,988,0,0
350,36,0,0,0,0,0,0,0,0,0,-1,1574,988,0,0
357,36,0,0,0,0,0,0,0,0,0,-1,1581,988,0,0
364,36,0,0,0,0,0,0,0,0,0,-1,1588,988,0,0
371,36,0,0,0,0,0,0,0,0,0,-1,1595,988,0,0
378,36,0,0,0,0,0,0,0,0,0,-1,1602,988,0,0
385,36,0,0,0,0,0,0,0,0,0,-1,1609,988,0,0
392,36,0,0,0,0,0,0,0,0,0,-1,1616,988,0,0
399,36,0,0,0,0,0,0,0,0,0,-1,1623,988,0,0
406,36,0,0,0,0,0,0,0,0,0,-1,1630,988,0,0
413,36,0,0,0,0,0,0,0,0,0,-1,1637,988,0,0
420,36,0,0,0,0,0,0,0,0,0,-1,1644,988,0,0
427,36,0,0,0,0,0,0,0,0,0,-1,1651,988,0,0
434,36,0,0,0,0,0,0,0,0,0,-1,1658,988,0,0
441,36,0,0,0,0,0,0,0,0,0,-1,1665,988,0,0
448,36,0,0,0,0,0,0,0,0,0,-1,1672,988,0,0
455,36,0,0,0,0,0,0,0,0,0,-1,1679,988,0,0
462,36,0,0,0,0,0,0,0,0,0,-1,1686,988,0,0
469,36,0,0,0,0,0,0,0,0,0,-1,1693,988,0,0
476,36,0,0,0,0,0,0,0,0,0,-1,1700,988,0,0
483,36,0,0,0,0,0,0,0,0,0,-1,1707,988,0,0
490,36,0,0,0,0,0,0,0,0,0,-1,1714,988,0,0
497,36,0,0,0,0,0,0,0,0,0,-1,1721,988,0,0
504,36,0,0,0,0,0,0,0,0,0,-1,1728,988,0,0
511,36,0,0,0,0,0,0,0,0,0,-1,1735,988,0,0
518,36,0,0,0,0,0,0,0,0,0,-1,1742,988,0,0
525,36,0,0,0,0,0,0,0,0,0,-1,1749,988,0,0
532,36,0,0,0,0,0,0,0,0,0,-1,1756,988,0,0
539,36,0,0,0,0,0,0,0,0,0,-1,1763,988,0,0
546,36,0,0,0,0,0,0,0,0,0,-1,1770,988,0,0
553,36,0,0,0,0,0,0,0,0,0,-1,1777,988,0,0
560,36,0,0,0,0,0,0,0,0,0,-1,1784,988,0,0
567,36,0,0,0,0,0,0,0,0,0,-1,1791,988,0,0
574,36,0,0,0,0,0,0,0,0,0,-1,1798,988,0,0
581,36,0,0,0,0,0,0,0,0,0,-1,1805,988,0,0
588,36,0,0,0,0,0,0,0,0,0,-1,1812,988,0,0
595,36,0,0,0,0,0,0,0,0,0,-1,1819,988,0,0
602,36,0,0,0,0,0,0,0,0,0,-1,1826,988,0,0
609,36,0,0,0,0,0,0,0,0,0,-1,1833,988,0,0
616,36,0,0,0,0,0,0,0,0,0,-1,1840,988,0,0
623,36,0,0,0,0,0,0,0,0,0,-1,1847,988,0,0
630,36,0,0,0,0,0,0,0,0,0,-1,1854,988,0,0
637,36,0,0,0,0,0,0,0,0,0,-1,1861,988,0,0
644,36,67.0229,2.32062,0,0,0,0,0,0,0,-1,1868,988,67.0229,-2.32064
651,36,67.1184,2.64624,0,0,0,0,0,0,0,-1,1875,988,67.1184,-2.64621
658,36,67.2173,2.27612,0.00309377,0.00245955,-0.0011375,0.00395754,0.00159578,-0.649463,0.00229911,0.0406836,1882,988,67.2173,-2.2761
665,36,67.2351,2.38385,0.00194953,0.00185799,-0.000360406,0.00226706,0.00154046,-0.722239,0.00133671,0.0384158,1889,988,67.2352,-2.38385
672,36,67.2271,2.51123,0.000957355,0.00147519,0.000380481,0.00167649,0.000756051,1.08416,0.000969474,0.037941,1896,988,67.2271,-2.51126
679,36,67.2537,2.51367,0.00027633,0.00103192,0.00106422,0.00178341,-0.000475161,0.955958,0.00137497,0.0410454,1903,988,67.2536,-2.5137
686,36,67.1344,2.435,-3.0554e-05,0.000503794,0.00150648,0.00176661,-0.00129337,0.873161,0.00177371,0.0410217,1910,988,67.1344,-2.43497
693,36,67.1415,2.49261,-0.000193583,2.10761e-05,0.00171516,0.00163226,-0.00180477,0.816646,0.0019852,0.037904,1917,988,67.1415,-2.49264
700,36,67.214,2.38757,-0.000452813,-0.000287066,0.00168166,0.00131377,-0.00205364,0.810019,0.00195976,0.0344911,1924,988,67.214,-2.38755
707,36,67.2645,2.289,-0.00104441,-0.00011944,0.00138964,0.000882653,-0.0020465,0.946038,0.00173508,0.0281039,1931,988,67.2645,-2.28898
714,36,67.1885,2.36029,0,0,0,0,0,0,0,-1,1938,988,67.1884,-2.3603
721,36,66.6289,5.41632,0,0,0,0,0,0,0,-1,1945,988,66.6289,-5.41631
728,36,66.6171,5.86627,-0.00393852,0.00320801,0.000322438,0.00322253,-0.00395304,1.5258,0.00414997,0.0220936,1952,988,66.6171,-5.86628
735,36,66.6412,6.28308,-0.00463451,0.00544509,-0.000313522,0.00545483,-0.00464426,-1.53973,0.00583697,0.0203208,1959,988,66.6412,-6.28308
742,36,66.6064,6.51227,-0.00550073,0.0105381,-0.000668434,0.0105659,-0.00552854,-1.52922,0.0094426,0.0160451,1966,988,66.6064,-6.51225
749,36,66.5897,6.80389,-0.00685223,0.0151812,-0.000602409,0.0151977,-0.00686868,-1.54348,0.013039,0.0169934,1973,988,66.5897,-6.8039
756,36,66.5544,7.07196,-0.00812434,0.0218359,-0.000712527,0.0218528,-0.00814128,-1.54703,0.0179101,0.0171661,1980,988,66.5545,-7.07198
763,36,66.457,7.2951,-0.00895606,0.0316979,-0.000330914,0.0317006,-0.00895875,-1.56266,0.0246683,0.021054,1987,988,66.457,-7.2951
770,36,66.3662,7.57239,-0.00905481,0.0458723,0.000963609,0.0458892,-0.00907171,1.55326,0.0340223,0.0169895,1994,988,66.3662,-7.57241
777,36,66.3567,7.90027,-0.00829033,0.0627799,0.00305009,0.0629105,-0.008421,1.52798,0.0450107,0.025545,2001,988,66.3567,-7.90025
784,36,66.8069,7.6413,-0.00625473,0.0827712,0.00633113,0.0832192,-0.00670272,1.50015,0.0578433,0.044466,2008,988,66.8068,-7.64133
791,36,66.9578,6.86224,-0.00208081,0.107041,0.0112436,0.108187,-0.00322728,1.46918,0.0732242,0.0423292,2015,988,66.9578,-6.86222
798,36,66.7808,11.3674,0,0,0,0,0,0,0,-1,2022,988,66.7808,-11.3674
805,36,63.2847,5.59259,0,0,0,0,0,0,0,-1,2029,988,63.2847,-5.59261
812,36,63.1665,6.03851,0,0,0,0,0,0,0,-1,2036,988,63.1664,-6.03853
-700,29,0,0,0,0,0,0,0,0,0,-1,524,995,0,0
-693,29,-52.056,2.35529,0,0,0,0,0,0,0,-1,531,995,-52.056,-2.35527
-686,29,-52.3803,2.81769,0,0,0,0,0,0,0,-1,538,995,-52.3803,-2.8177
-679,29,-51.9396,2.57941,0.0480239,0.0189492,-0.0026572,0.0482648,0.0187083,-0.0903943,0.0280993,0.0412643,545,995,-51.9396,-2.57939
-672,29,-51.4622,2.31342,0.0398575,0.0218556,8.69143e-05,0.0398579,0.0218552,0.00482791,0.0230478,0.0401375,552,995,-51.4621,-2.31339
-665,29,-50.891,2.07623,0.031498,0.0233156,0.00186272,0.0319021,0.0229115,0.213627,0.0189942,0.0423173,559,995,-50.891,-2.07625
-658,29,-50.7619,2.18127,0,0,0,0,0,0,0,-1,566,995,-50.7619,-2.18129
-651,29,-51.9573,5.16943,0,0,0,0,0,0,0,-1,573,995,-51.9572,-5.16941
-644,29,-52.1857,4.8504,0.00930289,0.020965,0.00395935,0.0221822,0.00808571,1.27255,0.0129627,0.046661,580,995,-52.1857,-4.85042
-637,29,-52.4655,4.9801,0.00394334,0.0189293,0.00432623,0.0200885,0.0027841,1.30899,0.0125675,0.0276955,587,995,-52.4655,-4.98008
-630,29,-52.4748,4.9278,-7.85183e-05,0.0163337,0.00386751,0.0171994,-0.000944228,1.35058,0.0117936,0.0142381,594,995,-52.4748,-4.92779
-623,29,-52.4653,4.82288,-0.00453512,0.01238,0.00270139,0.0128009,-0.00495606,1.41621,0.0105802,0.0135454,601,995,-52.4653,-4.82287
-616,29,-52.4819,4.64911,-0.00665517,0.00868605,0.00116181,0.00877354,-0.00674266,1.49564,0.00898382,0.0160522,608,995,-52.4819,-4.64909
-609,29,-52.4465,4.57825,-0.00568972,0.00592006,0.000656565,0.00595708,-0.00572673,1.51448,0.00674609,0.0264053,615,995,-52.4465,-4.57822
-602,29,-52.6025,4.3587,-0.00448903,0.00381775,-0.000213982,0.00382326,-0.00449454,-1.54506,0.00480749,0.0278372,622,995,-52.6025,-4.35871
-595,29,-52.8448,4.05518,-0.00342032,0.00238244,-0.000830625,0.002499,-0.00353688,-1.43138,0.00350194,0.0283805,629,995,-52.8448,-4.05515
-588,29,-53.0502,3.78131,0,0,0,0,0,0,0,-1,636,995,-53.0502,-3.78131
-581,29,-51.9,0.969788,0,0,0,0,0,0,0,-1,643,995,-51.8999,-0.969813
-574,29,-51.842,0.438293,-0.00113222,-0.000519182,-0.00215284,0.00134884,-0.00300025,-0.856113,0.00257058,0.0296888,650,995,-51.8421,-0.438271
-567,29,-51.8497,0.380493,-0.000832907,-0.000628553,-0.00225116,0.00152275,-0.00298421,-0.808077,0.0026473,0.0291894,657,995,-51.8496,-0.380473
-560,29,-51.8094,0.27063,-0.000559468,-0.000393586,-0.00213044,0.00165552,-0.00260858,-0.804854,0.00248229,0.0364502,664,995,-51.8095,-0.270656
-553,29,-51.9163,0.440125,-0.000331897,3.98664e-05,-0.00181192,0.00167541,-0.00196744,-0.836514,0.00210545,0.0436202,671,995,-51.9163,-0.440143
-546,29,-51.9307,0.405823,-0.000179536,0.000366729,-0.00124685,0.00137001,-0.00118282,-0.893224,0.0014752,0.0465398,678,995,-51.9307,-0.405795
-539,29,-51.8624,0.371094,-0.000376407,0.000259793,-0.000443706,0.000487644,-0.000604258,-1.09639,0.000631607,0.0467563,685,995,-51.8624,-0.371114
-532,29,-51.8738,0.373901,-0.000273713,0.000399477,-0.000195153,0.000451959,-0.000326195,-1.30808,0.000451219,0.0491537,692,995,-51.8737,-0.373904
-525,29,-51.9159,0.468994,0,0,0,0,0,0,0,-1,699,995,-51.9159,-0.469013
-518,29,0,0,0,0,0,0,0,0,0,-1,706,995,0,0
-511,29,0,0,0,0,0,0,0,0,0,-1,713,995,0,0
-504,29,0,0,0,0,0,0,0,0,0,-1,720,995,0,0
-497,29,0,0,0,0,0,0,0,0,0,-1,727,995,0,0
-490,29,0,0,0,0,0,0,0,0,0,-1,734,995,0,0
-483,29,0,0,0,0,0,0,0,0,0,-1,741,995,0,0
-476,29,0,0,0,0,0,0,0,0,0,-1,748,995,0,0
-469,29,0,0,0,0,0,0,0,0,0,-1,755,995,0,0
-462,29,0,0,0,0,0,0,0,0,0,-1,762,995,0,0
-455,29,0,0,0,0,0,0,0,0,0,-1,769,995,0,0
-448,29,0,0,0,0,0,0,0,0,0,-1,776,995,0,0
-441,29,0,0,0,0,0,0,0,0,0,-1,783,995,0,0
-434,29,0,0,0,0,0,0,0,0,0,-1,790,995,0,0
-427,29,0,0,0,0,0,0,0,0,0,-1,797,995,0,0
-420,29,0,0,0,0,0,0,0,0,0,-1,804,995,0,0
-413,29,0,0,0,0,0,0,0,0,0,-1,811,995,0,0
-406,29,0,0,0,0,0,0,0,0,0,-1,818,995,0,0
-399,29,0,0,0,0,0,0,0,0,0,-1,825,995,0,0
-392,29,0,0,0,0,0,0,0,0,0,-1,832,995,0,0
-385,29,0,0,0,0,0,0,0,0,0,-1,839,995,0,0
-378,29,0,0,0,0,0,0,0,0,0,-1,846,995,0,0
-371,29,0,0,0,0,0,0,0,0,0,-1,853,995,0,0
-364,29,0,0,0,0,0,0,0,0,0,-1,860,995,0,0
-357,29,0,0,0,0,0,0,0,0,0,-1,867,995,0,0
-350,29,0,0,0,0,0,0,0,0,0,-1,874,995,0,0
-343,29,0,0,0,0,0,0,0,0,0,-1,881,995,0,0
-336,29,0,0,0,0,0,0,0,0,0,-1,888,995,0,0
-329,29,0,0,0,0,0,0,0,0,0,-1,895,995,0,0
-322,29,0,0,0,0,0,0,0,0,0,-1,902,995,0,0
-315,29,0,0,0,0,0,0,0,0,0,-1,909,995,0,0
-308,29,0,0,0,0,0,0,0,0,0,-1,916,995,0,0
-301,29,0,0,0,0,0,0,0,0,0,-1,923,995,0,0
-294,29,0,0,0,0,0,0,0,0,0,-1,930,995,0,0
-287,29,0,0,0,0,0,0,0,0,0,-1,937,995,0,0
-280,29,0,0,0,0,0,0,0,0,0,-1,944,995,0,0
-273,29,0,0,0,0,0,0,0,0,0,-1,951,995,0,0
-266,29,0,0,0,0,0,0,0,0,0,-1,958,995,0,0
-259,29,0,0,0,0,0,0,0,0,0,-1,965,995,0,0
-252,29,0,0,0,0,0,0,0,0,0,-1,972,995,0,0
-245,29,0,0,0,0,0,0,0,0,0,-1,979,995,0,0
-238,29,0,0,0,0,0,0,0,0,0,-1,986,995,0,0
-231,29,0,0,0,0,0,0,0,0,0,-1,993,995,0,0
-224,29,0,0,0,0,0,0,0,0,0,-1,1000,995,0,0
-217,29,0,0,0,0,0,0,0,0,0,-1,1007,995,0,0
-210,29,0,0,0,0,0,0,0,0,0,-1,1014,995,0,0
-203,29,0,0,0,0,0,0,0,0,0,-1,1021,995,0,0
-196,29,0,0,0,0,0,0,0,0,0,-1,1028,995,0,0
-189,29,0,0,0,0,0,0,0,0,0,-1,1035,995,0,0
-182,29,0,0,0,0,0,0,0,0,0,-1,1042,995,0,0
-175,29,0,0,0,0,0,0,0,0,0,-1,1049,995,0,0
-168,29,0,0,0,0,0,0,0,0,0,-1,1056,995,0,0
-161,29,0,0,0,0,0,0,0,0,0,-1,1063,995,0,0
-154,29,0,0,0,0,0,0,0,0,0,-1,1070,995,0,0
-147,29,0,0,0,0,0,0,0,0,0,-1,1077,995,0,0
-140,29,0,0,0,0,0,0,0,0,0,-1,1084,995,0,0
-133,29,0,0,0,0,0,0,0,0,0,-1,1091,995,0,0
-126,29,0,0,0,0,0,0,0,0,0,-1,1098,995,0,0
-119,29,0,0,0,0,0,0,0,0,0,-1,1105,995,0,0
-112,29,0,0,0,0,0,0,0,0,0,-1,1112,995,0,0
-105,29,0,0,0,0,0,0,0,0,0,-1,1119,995,0,0
-98,29,0,0,0,0,0,0,0,0,0,-1,1126,995,0,0
-91,29,0,0,0,0,0,0,0,0,0,-1,1133,995,0,0
-84,29,0,0,0,0,0,0,0,0,0,-1,1140,995,0,0
-77,29,0,0,0,0,0,0,0,0,0,-1,1147,995,0,0
-70,29,0,0,0,0,0,0,0,0,0,-1,1154,995,0,0
-63,29,0,0,0,0,0,0,0,0,0,-1,1161,995,0,0
-56,29,0,0,0,0,0,0,0,0,0,-1,1168,995,0,0
-49,29,0,0,0,0,0,0,0,0,0,-1,1175,995,0,0
-42,29,0,0,0,0,0,0,0,0,0,-1,1182,995,0,0
-35,29,0,0,0,0,0,0,0,0,0,-1,1189,995,0,0
-28,29,0,0,0,0,0,0,0,0,0,-1,1196,995,0,0
-21,29,0,0,0,0,0,0,0,0,0,-1,1203,995,0,0
-14,29,0,0,0,0,0,0,0,0,0,-1,1210,995,0,0
-7,29,0,0,0,0,0,0,0,0,0,-1,1217,995,0,0
0,29,0,0,0,0,0,0,0,0,0,-1,1224,995,0,0
7,29,0,0,0,0,0,0,0,0,0,-1,1231,995,0,0
14,29,0,0,0,0,0,0,0,0,0,-1,1238,995,0,0
21,29,0,0,0,0,0,0,0,0,0,-1,1245,995,0,0
28,29,0,0,0,0,0,0,0,0,0,-1,1252,995,0,0
35,29,0,0,0,0,0,0,0,0,0,-1,1259,995,0,0
42,29,0,0,0,0,0,0,0,0,0,-1,1266,995,0,0
49,29,0,0,0,0,0,0,0,0,0,-1,1273,995,0,0
56,29,0,0,0,0,0,0,0,0,0,-1,1280,995,0,0
63,29,0,0,0,0,0,0,0,0,0,-1,1287,995,0,0
70,29,0,0,0,0,0,0,0,0,0,-1,1294,995,0,0
77,29,0,0,0,0,0,0,0,0,0,-1,1301,995,0,0
84,29,0,0,0,0,0,0,0,0,0,-1,1308,995,0,0
91,29,0,0,0,0,0,0,0,0,0,-1,1315,995,0,0
98,29,0,0,0,0,0,0,0,0,0,-1,1322,995,0,0
105,29,0,0,0,0,0,0,0,0,0,-1,1329,995,0,0
112,29,0,0,0,0,0,0,0,0,0,-1,1336,995,0,0
119,29,0,0,0,0,0,0,0,0,0,-1,1343,995,0,0
126,29,0,0,0,0,0,0,0,0,0,-1,1350,995,0,0
133,29,0,0,0,0,0,0,0,0,0,-1,1357,995,0,0
140,29,0,0,0,0,0,0,0,0,0,-1,1364,995,0,0
147,29,0,0,0,0,0,0,0,0,0,-1,1371,995,0,0
154,29,0,0,0,0,0,0,0,0,0,-1,1378,995,0,0
161,29,0,0,0,0,0,0,0,0,0,-1,1385,995,0,0
168,29,0,0,0,0,0,0,0,0,0,-1,1392,995,0,0
175,29,0,0,0,0,0,0,0,0,0,-1,1399,995,0,0
182,29,0,0,0,0,0,0,0,0,0,-1,1406,995,0,0
189,29,0,0,0,0,0,0,0,0,0,-1,1413,995,0,0
196,29,0,0,0,0,0,0,0,0,0,-1,1420,995,0,0
203,29,0,0,0,0,0,0,0,0,0,-1,1427,995,0,0
210,29,0,0,0,0,0,0,0,0,0,-1,1434,995,0,0
217,29,0,0,0,0,0,0,0,0,0,-1,1441,995,0,0
224,29,0,0,0,0,0,0,0,0,0,-1,1448,995,0,0
231,29,0,0,0,0,0,0,0,0,0,-1,1455,995,0,0
238,29,0,0,0,0,0,0,0,0,0,-1,1462,995,0,0
245,29,0,0,0,0,0,0,0,0,0,-1,1469,995,0,0
252,29,0,0,0,0,0,0,0,0,0,-1,1476,995,0,0
259,29,0,0,0,0,0,0,0,0,0,-1,1483,995,0,0
266,29,0,0,0,0,0,0,0,0,0,-1,1490,995,0,0
273,29,0,0,0,0,0,0,0,0,0,-1,1497,995,0,0
280,29,0,0,0,0,0,0,0,0,0,-1,1504,995,0,0
287,29,0,0,0,0,0,0,0,0,0,-1,1511,995,0,0
294,29,0,0,0,0,0,0,0,0,0,-1,1518,995,0,0
301,29,0,0,0,0,0,0,0,0,0,-1,1525,995,0,0
308,29,0,0,0,0,0,0,0,0,0,-1,1532,995,0,0
315,29,0,0,0,0,0,0,0,0,0,-1,1539,995,0,0
322,29,0,0,0,0,0,0,0,0,0,-1,1546,995,0,0
329,29,0,0,0,0,0,0,0,0,0,-1,1553,995,0,0
336,29,0,0,0,0,0,0,0,0,0,-1,1560,995,0,0
343,29,0,0,0,0,0,0,0,0,0,-1,1567,995,0,0
350,29,0,0,0,0,0,0,0,0,0,-1,1574,995,0,0
357,29,0,0,0,0,0,0,0,0,0,-1,1581,995,0,0
364,29,0,0,0,0,0,0,0,0,0,-1,1588,995,0,0
371,29,0,0,0,0,0,0,0,0,0,-1,1595,995,0,0
378,29,0,0,0,0,0,0,0,0,0,-1,1602,995,0,0
385,29,0,0,0,0,0,0,0,0,0,-1,1609,995,0,0
392,29,0,0,0,0,0,0,0,0,0,-1,1616,995,0,0
399,29,0,0,0,0,0,0,0,0,0,-1,1623,995,0,0
406,29,0,0,0,0,0,0,0,0,0,-1,1630,995,0,0
413,29,0,0,0,0,0,0,0,0,0,-1,1637,995,0,0
420,29,0,0,0,0,0,0,0,0,0,-1,1644,995,0,0
427,29,0,0,0,0,0,0,0,0,0,-1,1651,995,0,0
434,29,0,0,0,0,0,0,0,0,0,-1,1658,995,0,0
441,29,0,0,0,0,0,0,0,0,0,-1,1665,995,0,0
448,29,0,0,0,0,0,0,0,0,0,-1,1672,995,0,0
455,29,0,0,0,0,0,0,0,0,0,-1,1679,995,0,0
462,29,0,0,0,0,0,0,0,0,0,-1,1686,995,0,0
469,29,0,0,0,0,0,0,0,0,0,-1,1693,995,0,0
476,29,0,0,0,0,0,0,0,0,0,-1,1700,995,0,0
483,29,0,0,0,0,0,0,0,0,0,-1,1707,995,0,0
490,29,0,0,0,0,0,0,0,0,0,-1,1714,995,0,0
497,29,0,0,0,0,0,0,0,0,0,-1,1721,995,0,0
504,29,0,0,0,0,0,0,0,0,0,-1,1728,995,0,0
511,29,0,0,0,0,0,0,0,0,0,-1,1735,995,0,0
518,29,0,0,0,0,0,0,0,0,0,-1,1742,995,0,0
525,29,0,0,0,0,0,0,0,0,0,-1,1749,995,0,0
532,29,0,0,0,0,0,0,0,0,0,-1,1756,995,0,0
539,29,0,0,0,0,0,0,0,0,0,-1,1763,995,0,0
546,29,0,0,0,0,0,0,0,0,0,-1,1770,995,0,0
553,29,0,0,0,0,0,0,0,0,0,-1,1777,995,0,0
560,29,0,0,0,0,0,0,0,0,0,-1,1784,995,0,0
567,29,0,0,0,0,0,0,0,0,0,-1,1791,995,0,0
574,29,0,0,0,0,0,0,0,0,0,-1,1798,995,0,0
581,29,0,0,0,0,0,0,0,0,0,-1,1805,995,0,0
588,29,0,0,0,0,0,0,0,0,0,-1,1812,995,0,0
595,29,0,0,0,0,0,0,0,0,0,-1,1819,995,0,0
602,29,0,0,0,0,0,0,0,0,0,-1,1826,995,0,0
609,29,0,0,0,0,0,0,0,0,0,-1,1833,995,0,0
616,29,0,0,0,0,0,0,0,0,0,-1,1840,995,0,0
623,29,0,0,0,0,0,0,0,0,0,-1,1847,995,0,0
630,29,0,0,0,0,0,0,0,0,0,-1,1854,995,0,0
637,29,0,0,0,0,0,0,0,0,0,-1,1861,995,0,0
644,29,66.996,2.44232,0.0077439,0.00477706,-0.00256104,0.00922012,0.00330084,-0.522896,0.00539432,0.041038,1868,995,66.996,-2.44232
651,29,66.8867,2.56598,0.00538191,0.00347136,-0.00163934,0.006324,0.00252927,-0.521591,0.00367545,0.0443292,1875,995,66.8867,-2.56598
658,29,67.1501,2.61279,0.00369636,0.00234138,-0.000910217,0.00415355,0.0018842,-0.465471,0.00240149,0.0448634,1882,995,67.1501,-2.61278
665,29,67.3052,2.48364,0.002375,0.00169086,-0.000208725,0.00243365,0.00163221,-0.273938,0.0014321,0.0410926,1889,995,67.3051,-2.48364
672,29,67.203,2.46289,0.00127385,0.00128758,0.000430955,0.00171172,0.000849703,0.793363,0.000988271,0.03883,1896,995,67.203,-2.46286
679,29,67.1353,2.44305,0.000531122,0.000872807,0.00101818,0.00173438,-0.000330446,0.86852,0.00128069,0.0398355,1903,995,67.1353,-2.44304
686,29,67.0026,2.52271,0.00014467,0.000367592,0.00139538,0.00165596,-0.0011437,0.825253,0.00162538,0.0410334,1910,995,67.0025,-2.52273
693,29,67.0039,2.58051,-5.95405e-05,-0.000101981,0.00156547,0.00148485,-0.00164637,0.778621,0.00180861,0.0390629,1917,995,67.004,-2.58051
700,29,67.1512,2.49603,-0.000296733,-0.000420449,0.00152445,0.00116711,-0.00188429,0.765121,0.00177787,0.0334193,1924,995,67.1513,-2.49605
707,29,67.2111,2.36853,-0.000918687,-0.000206422,0.00127667,0.000762855,-0.00188796,0.921418,0.00157573,0.0223814,1931,995,67.211,-2.36853
714,29,67.0927,2.92627,0,0,0,0,0,0,0,-1,1938,995,67.0926,-2.92625
721,29,66.6689,5.73407,0,0,0,0,0,0,0,-1,1945,995,66.6689,-5.73407
728,29,66.8864,6.06702,-0.00414835,0.00332913,0.000244043,0.00333709,-0.00415631,1.53821,0.00433493,0.0366165,1952,995,66.8863,-6.06702
735,29,66.8854,6.35895,-0.00490999,0.00554488,-0.00042174,0.00556187,-0.00492698,-1.53054,0.00605944,0.0181493,1959,995,66.8854,-6.35892
742,29,66.8787,6.53979,-0.00576131,0.0105345,-0.000674504,0.0105624,-0.00578918,-1.5295,0.00957371,0.0141511,1966,995,66.8787,-6.53979
749,29,66.856,6.78442,-0.00715759,0.0149776,-0.000464559,0.0149873,-0.00716734,-1.54982,0.0130539,0.0147092,1973,995,66.8559,-6.78442
756,29,66.8182,7.03033,-0.0083989,0.0213222,-0.000460661,0.0213293,-0.00840604,-1.5553,0.0176999,0.0146555,1980,995,66.8183,-7.03036
763,29,66.7605,7.17194,-0.00907233,0.0306561,1.21539e-05,0.0306561,-0.00907233,1.57049,0.0240391,0.0147477,1987,995,66.7604,-7.17196
770,29,66.6387,7.31586,-0.00891111,0.0443297,0.00142795,0.044368,-0.00894938,1.544,0.0329692,0.0190818,1994,995,66.6388,-7.31586
777,29,66.5154,7.59399,-0.00765827,0.0609247,0.00377026,0.0611314,-0.00786491,1.51604,0.0436129,0.0309271,2001,995,66.5155,-7.59401
784,29,66.7146,7.36652,-0.00496719,0.0800233,0.00735037,0.0806543,-0.00559819,1.48516,0.0557294,0.0447947,2008,995,66.7146,-7.36651
791,29,66.8406,7.07813,1.40466e-05,0.102739,0.0126977,0.104285,-0.00153222,1.44962,0.0700396,0.0414697,2015,995,66.8405,-7.07815
798,29,66.877,6.99109,0.00784964,0.129,0.0202689,0.132301,0.00454851,1.40935,0.0867243,0.0467934,2022,995,66.877,-6.9911
805,29,67.2864,6.90094,0,0,0,0,0,0,0,-1,2029,995,67.2863,-6.90092
812,29,63.3584,5.72266,0,0,0,0,0,0,0,-1,2036,995,63.3585,-5.72267
-700,22,0,0,0,0,0,0,0,0,0,-1,524,1002,0,0
-693,22,-51.0278,3.66632,0,0,0,0,0,0,0,-1,531,1002,-51.0278,-3.66634
-686,22,-51.5271,4.04028,0,0,0,0,0,0,0,-1,538,1002,-51.5271,-4.04031
-679,22,-52.2159,2.50037,0,0,0,0,0,0,0,-1,545,1002,-52.2159,-2.50037
-672,22,-51.3896,2.35889,0,0,0,0,0,0,0,-1,552,1002,-51.3897,-2.35886
-665,22,-50.5634,2.21735,0,0,0,0,0,0,0,-1,559,1002,-50.5634,-2.21734
-658,22,-49.9741,2.0351,0,0,0,0,0,0,0,-1,566,1002,-49.9741,-2.03512
-651,22,-51.6308,4.24969,0,0,0,0,0,0,0,-1,573,1002,-51.6308,-4.24971
-644,22,-52.2618,4.52289,0.00715615,0.0174616,0.00104674,0.0175669,0.0070509,1.47059,0.0102078,0.0444127,580,1002,-52.2618,-4.52287
-637,22,-52.658,4.74463,0.00299291,0.0167477,0.00221568,0.0170958,0.00264481,1.41496,0.0106259,0.0284208,587,1002,-52.658,-4.7446
-630,22,-52.6349,4.77112,-0.00020217,0.0149895,0.00244096,0.0153721,-0.000584742,1.41533,0.0104484,0.0152772,594,1002,-52.6349,-4.77112
-623,22,-52.6505,4.70251,-0.00423029,0.0120932,0.00191053,0.0123139,-0.00445092,1.45582,0.0100277,0.012743,601,1002,-52.6505,-4.70253
-616,22,-52.6466,4.53705,-0.00620263,0.0085528,0.000731937,0.00858902,-0.00623885,1.52135,0.00859664,0.0204035,608,1002,-52.6466,-4.53708
-609,22,-52.7386,4.42279,-0.00543072,0.00559135,0.000408932,0.00560651,-0.00544587,1.53376,0.00638132,0.0350511,615,1002,-52.7387,-4.42282
-602,22,-52.9473,4.36145,-0.0044124,0.00342081,-0.000304084,0.0034326,-0.00442418,-1.53205,0.00454814,0.0338625,622,1002,-52.9473,-4.36145
-595,22,-53.0801,4.13208,-0.00342591,0.00198571,-0.000854982,0.00211758,-0.00355778,-1.41777,0.00331165,0.036715,629,1002,-53.0801,-4.13206
-588,22,-53.054,3.79486,0,0,0,0,0,0,0,-1,636,1002,-53.054,-3.79484
-581,22,-51.8309,0.397095,0,0,0,0,0,0,0,-1,643,1002,-51.8309,-0.397088
-574,22,-51.8389,0.426025,-0.00123159,-0.000889849,-0.00201104,0.000957568,-0.00307901,-0.82778,0.00243544,0.0334919,650,1002,-51.8389,-0.42601
-567,22,-51.8445,0.441895,-0.000953513,-0.000955791,-0.00209614,0.00114149,-0.00305079,-0.785126,0.00250269,0.0314099,657,1002,-51.8446,-0.441872
-560,22,-51.86,0.431152,-0.000701365,-0.000655116,-0.00200763,0.00132952,-0.002686,-0.791157,0.00236205,0.0371047,664,1002,-51.8601,-0.431122
-553,22,-52.0028,0.420532,-0.000520915,-0.000152258,-0.00178786,0.00146075,-0.00213392,-0.836767,0.00208748,0.0412973,671,1002,-52.0028,-0.420513
-546,22,-51.9207,0.332336,-0.000437698,0.000217215,-0.00139397,0.00132168,-0.00154216,-0.900761,0.00165507,0.0432661,678,1002,-51.9207,-0.332345
-539,22,-51.8326,0.0879517,-0.000774598,0.000148439,-0.00083454,0.000640574,-0.00126673,-1.03798,0.00112079,0.045119,685,1002,-51.8327,-0.0879647
-532,22,-51.8828,0.377075,-0.00084437,0.000386024,-0.000769242,0.000755815,-0.00121416,-1.12269,0.00114758,0.0471504,692,1002,-51.8828,-0.377047
-525,22,0,0,0,0,0,0,0,0,0,-1,699,1002,0,0
-518,22,0,0,0,0,0,0,0,0,0,-1,706,1002,0,0
-511,22,0,0,0,0,0,0,0,0,0,-1,713,1002,0,0
-504,22,0,0,0,0,0,0,0,0,0,-1,720,1002,0,0
-497,22,0,0,0,0,0,0,0,0,0,-1,727,1002,0,0
-490,22,0,0,0,0,0,0,0,0,0,-1,734,1002,0,0
-483,22,0,0,0,0,0,0,0,0,0,-1,741,1002,0,0
-476,22,0,0,0,0,0,0,0,0,0,-1,748,1002,0,0
-469,22,0,0,0,0,0,0,0,0,0,-1,755,1002,0,0
-462,22,0,0,0,0,0,0,0,0,0,-1,762,1002,0,0
-455,22,0,0,0,0,0,0,0,0,0,-1,769,1002,0,0
-448,22,0,0,0,0,0,0,0,0,0,-1,776,1002,0,0
-441,22,0,0,0,0,0,0,0,0,0,-1,783,1002,0,0
-434,22,0,0,0,0,0,0,0,0,0,-1,790,1002,0,0
-427,22,0,0,0,0,0,0,0,0,0,-1,797,1002,0,0
-420,22,0,0,0,0,0,0,0,0,0,-1,804,1002,0,0
-413,22,0,0,0,0,0,0,0,0,0,-1,811,1002,0,0
-406,22,0,0,0,0,0,0,0,0,0,-1,818,1002,0,0
-399,22,0,0,0,0,0,0,0,0,0,-1,825,1002,0,0
-392,22,0,0,0,0,0,0,0,0,0,-1,832,1002,0,0
-385,22,0,0,0,0,0,0,0,0,0,-1,839,1002,0,0
-378,22,0,0,0,0,0,0,0,0,0,-1,846,1002,0,0
-371,22,0,0,0,0,0,0,0,0,0,-1,853,1002,0,0
-364,22,0,0,0,0,0,0,0,0,0,-1,860,1002,0,0
-357,22,0,0,0,0,0,0,0,0,0,-1,867,1002,0,0
-350,22,0,0,0,0,0,0,0,0,0,-1,874,1002,0,0
-343,22,0,0,0,0,0,0,0,0,0,-1,881,1002,0,0
-336,22,0,0,0,0,0,0,0,0,0,-1,888,1002,0,0
-329,22,0,0,0,0,0,0,0,0,0,-1,895,1002,0,0
-322,22,0,0,0,0,0,0,0,0,0,-1,902,1002,0,0
-315,22,0,0,0,0,0,0,0,0,0,-1,909,1002,0,0
-308,22,0,0,0,0,0,0,0,0,0,-1,916,1002,0,0
-301,22,0,0,0,0,0,0,0,0,0,-1,923,1002,0,0
-294,22,0,0,0,0,0,0,0,0,0,-1,930,1002,0,0
-287,22,0,0,0,0,0,0,0,0,0,-1,937,1002,0,0
-280,22,0,0,0,0,0,0,0,0,0,-1,944,1002,0,0
-273,22,0,0,0,0,0,0,0,0,0,-1,951,1002,0,0
-266,22,0,0,0,0,0,0,0,0,0,-1,958,1002,0,0
-259,22,0,0,0,0,0,0,0,0,0,-1,965,1002,0,0
-252,22,0,0,0,0,0,0,0,0,0,-1,972,1002,0,0
-245,22,0,0,0,0,0,0,0,0,0,-1,979,1002,0,0
-238,22,0,0,0,0,0,0,0,0,0,-1,986,1002,0,0
-231,22,0,0,0,0,0,0,0,0,0,-1,993,1002,0,0
-224,22,0,0,0,0,0,0,0,0,0,-1,1000,1002,0,0
-217,22,0,0,0,0,0,0,0,0,0,-1,1007,1002,0,0
-210,22,0,0,0,0,0,0,0,0,0,-1,1014,1002,0,0
-203,22,0,0,0,0,0,0,0,0,0,-1,1021,1002,0,0
-196,22,0,0,0,0,0,0,0,0,0,-1,1028,1002,0,0
-189,22,0,0,0,0,0,0,0,0,0,-1,1035,1002,0,0
-182,22,0,0,0,0,0,0,0,0,0,-1,1042,1002,0,0
-175,22,0,0,0,0,0,0,0,0,0,-1,1049,1002,0,0
-168,22,0,0,0,0,0,0,0,0,0,-1,1056,1002,0,0
-161,22,0,0,0,0,0,0,0,0,0,-1,1063,1002,0,0
-154,22,0,0,0,0,0,0,0,0,0,-1,1070,1002,0,0
-147,22,0,0,0,0,0,0,0,0,0,-1,1077,1002,0,0
-140,22,0,0,0,0,0,0,0,0,0,-1,1084,1002,0,0
-133,22,0,0,0,0,0,0,0,0,0,-1,1091,1002,0,0
-126,22,0,0,0,0,0,0,0,0,0,-1,1098,1002,0,0
-119,22,0,0,0,0,0,0,0,0,0,-1,1105,1002,0,0
-112,22,0,0,0,0,0,0,0,0,0,-1,1112,1002,0,0
-105,22,0,0,0,0,0,0,0,0,0,-1,1119,1002,0,0
-98,22,0,0,0,0,0,0,0,0,0,-1,1126,1002,0,0
-91,22,0,0,0,0,0,0,0,0,0,-1,1133,1002,0,0
-84,22,0,0,0,0,0,0,0,0,0,-1,1140,1002,0,0
-77,22,0,0,0,0,0,0,0,0,0,-1,1147,1002,0,0
-70,22,0,0,0,0,0,0,0,0,0,-1,1154,1002,0,0
-63,22,0,0,0,0,0,0,0,0,0,-1,1161,1002,0,0
-56,22,0,0,0,0,0,0,0,0,0,-1,1168,1002,0,0
-49,22,0,0,0,0,0,0,0,0,0,-1,1175,1002,0,0
-42,22,0,0,0,0,0,0,0,0,0,-1,1182,1002,0,0
-35,22,0,0,0,0,0,0,0,0,0,-1,1189,1002,0,0
-28,22,0,0,0,0,0,0,0,0,0,-1,1196,1002,0,0
-21,22,0,0,0,0,0,0,0,0,0,-1,1203,1002,0,0
-14,22,0,0,0,0,0,0,0,0,0,-1,1210,1002,0,0
-7,22,0,0,0,0,0,0,0,0,0,-1,1217,1002,0,0
0,22,0,0,0,0,0,0,0,0,0,-1,1224,1002,0,0
7,22,0,0,0,0,0,0,0,0,0,-1,1231,1002,0,0
14,22,0,0,0,0,0,0,0,0,0,-1,1238,1002,0,0
21,22,0,0,0,0,0,0,0,0,0,-1,1245,1002,0,0
28,22,0,0,0,0,0,0,0,0,0,-1,1252,1002,0,0
35,22,0,0,0,0,0,0,0,0,0,-1,1259,1002,0,0
42,22,0,0,0,0,0,0,0,0,0,-1,1266,1002,0,0
49,22,0,0,0,0,0,0,0,0,0,-1,1273,1002,0,0
56,22,0,0,0,0,0,0,0,0,0,-1,1280,1002,0,0
63,22,0,0,0,0,0,0,0,0,0,-1,1287,1002,0,0
70,22,0,0,0,0,0,0,0,0,0,-1,1294,1002,0,0
77,22,0,0,0,0,0,0,0,0,0,-1,1301,1002,0,0
84,22,0,0,0,0,0,0,0,0,0,-1,1308,1002,0,0
91,22,0,0,0,0,0,0,0,0,0,-1,1315,1002,0,0
98,22,0,0,0,0,0,0,0,0,0,-1,1322,1002,0,0
105,22,0,0,0,0,0,0,0,0,0,-1,1329,1002,0,0
112,22,0,0,0,0,0,0,0,0,0,-1,1336,1002,0,0
119,22,0,0,0,0,0,0,0,0,0,-1,1343,1002,0,0
126,22,0,0,0,0,0,0,0,0,0,-1,1350,1002,0,0
133,22,0,0,0,0,0,0,0,0,0,-1,1357,1002,0,0
140,22,0,0,0,0,0,0,0,0,0,-1,1364,1002,0,0
147,22,0,0,0,0,0,0,0,0,0,-1,1371,1002,0,0
154,22,0,0,0,0,0,0,0,0,0,-1,1378,1002,0,0
161,22,0,0,0,0,0,0,0,0,0,-1,1385,1002,0,0
168,22,0,0,0,0,0,0,0,0,0,-1,1392,1002,0,0
175,22,0,0,0,0,0,0,0,0,0,-1,1399,1002,0,0
182,22,0,0,0,0,0,0,0,0,0,-1,1406,1002,0,0
189,22,0,0,0,0,0,0,0,0,0,-1,1413,1002,0,0
196,22,0,0,0,0,0,0,0,0,0,-1,1420,1002,0,0
203,22,0,0,0,0,0,0,0,0,0,-1,1427,1002,0,0
210,22,0,0,0,0,0,0,0,0,0,-1,1434,1002,0,0
217,22,0,0,0,0,0,0,0,0,0,-1,1441,1002,0,0
224,22,0,0,0,0,0,0,0,0,0,-1,1448,1002,0,0
231,22,0,0,0,0,0,0,0,0,0,-1,1455,1002,0,0
238,22,0,0,0,0,0,0,0,0,0,-1,1462,1002,0,0
245,22,0,0,0,0,0,0,0,0,0,-1,1469,1002,0,0
252,22,0,0,0,0,0,0,0,0,0,-1,1476,1002,0,0
259,22,0,0,0,0,0,0,0,0,0,-1,1483,1002,0,0
266,22,0,0,0,0,0,0,0,0,0,-1,1490,1002,0,0
273,22,0,0,0,0,0,0,0,0,0,-1,1497,1002,0,0
280,22,0,0,0,0,0,0,0,0,0,-1,1504,1002,0,0
287,22,0,0,0,0,0,0,0,0,0,-1,1511,1002,0,0
294,22,0,0,0,0,0,0,0,0,0,-1,1518,1002,0,0
301,22,0,0,0,0,0,0,0,0,0,-1,1525,1002,0,0
308,22,0,0,0,0,0,0,0,0,0,-1,1532,1002,0,0
315,22,0,0,0,0,0,0,0,0,0,-1,1539,1002,0,0
322,22,0,0,0,0,0,0,0,0,0,-1,1546,1002,0,0
329,22,0,0,0,0,0,0,0,0,0,-1,1553,1002,0,0
336,22,0,0,0,0,0,0,0,0,0,-1,1560,1002,0,0
343,22,0,0,0,0,0,0,0,0,0,-1,1567,1002,0,0
350,22,0,0,0,0,0,0,0,0,0,-1,1574,1002,0,0
357,22,0,0,0,0,0,0,0,0,0,-1,1581,1002,0,0
364,22,0,0,0,0,0,0,0,0,0,-1,1588,1002,0,0
371,22,0,0,0,0,0,0,0,0,0,-1,1595,1002,0,0
378,22,0,0,0,0,0,0,0,0,0,-1,1602,1002,0,0
385,22,0,0,0,0,0,0,0,0,0,-1,1609,1002,0,0
392,22,0,0,0,0,0,0,0,0,0,-1,1616,1002,0,0
399,22,0,0,0,0,0,0,0,0,0,-1,1623,1002,0,0
406,22,0,0,0,0,0,0,0,0,0,-1,1630,1002,0,0
413,22,0,0,0,0,0,0,0,0,0,-1,1637,1002,0,0
420,22,0,0,0,0,0,0,0,0,0,-1,1644,1002,0,0
427,22,0,0,0,0,0,0,0,0,0,-1,1651,1002,0,0
434,22,0,0,0,0,0,0,0,0,0,-1,1658,1002,0,0
441,22,0,0,0,0,0,0,0,0,0,-1,1665,1002,0,0
448,22,0,0,0,0,0,0,0,0,0,-1,1672,1002,0,0
455,22,0,0,0,0,0,0,0,0,0,-1,1679,1002,0,0
462,22,0,0,0,0,0,0,0,0,0,-1,1686,1002,0,0
469,22,0,0,0,0,0,0,0,0,0,-1,1693,1002,0,0
476,22,0,0,0,0,0,0,0,0,0,-1,1700,1002,0,0
483,22,0,0,0,0,0,0,0,0,0,-1,1707,1002,0,0
490,22,0,0,0,0,0,0,0,0,0,-1,1714,1002,0,0
497,22,0,0,0,0,0,0,0,0,0,-1,1721,1002,0,0
504,22,0,0,0,0,0,0,0,0,0,-1,1728,1002,0,0
511,22,0,0,0,0,0,0,0,0,0,-1,1735,1002,0,0
518,22,0,0,0,0,0,0,0,0,0,-1,1742,1002,0,0
525,22,0,0,0,0,0,0,0,0,0,-1,1749,1002,0,0
532,22,0,0,0,0,0,0,0,0,0,-1,1756,1002,0,0
539,22,0,0,0,0,0,0,0,0,0,-1,1763,1002,0,0
546,22,0,0,0,0,0,0,0,0,0,-1,1770,1002,0,0
553,22,0,0,0,0,0,0,0,0,0,-1,1777,1002,0,0
560,22,0,0,0,0,0,0,0,0,0,-1,1784,1002,0,0
567,22,0,0,0,0,0,0,0,0,0,-1,1791,1002,0,0
574,22,0,0,0,0,0,0,0,0,0,-1,1798,1002,0,0
581,22,0,0,0,0,0,0,0,0,0,-1,1805,1002,0,0
588,22,0,0,0,0,0,0,0,0,0,-1,1812,1002,0,0
595,22,0,0,0,0,0,0,0,0,0,-1,1819,1002,0,0
602,22,0,0,0,0,0,0,0,0,0,-1,1826,1002,0,0
609,22,0,0,0,0,0,0,0,0,0,-1,1833,1002,0,0
616,22,0,0,0,0,0,0,0,0,0,-1,1840,1002,0,0
623,22,0,0,0,0,0,0,0,0,0,-1,1847,1002,0,0
630,22,0,0,0,0,0,0,0,0,0,-1,1854,1002,0,0
637,22,0,0,0,0,0,0,0,0,0,-1,1861,1002,0,0
644,22,66.927,2.44244,0.00862507,0.005838,-0.00205897,0.00971775,0.00474532,-0.487901,0.00561106,0.0397157,1868,1002,66.927,-2.44244
651,22,66.9655,2.45288,0.00587502,0.00418692,-0.00117122,0.00647464,0.0035873,-0.473172,0.00374541,0.0430877,1875,1002,66.9655,-2.45285
658,22,67.3315,2.56189,0.00398026,0.00279513,-0.000518879,0.00417533,0.00260006,-0.359599,0.00243471,0.0433285,1882,1002,67.3315,-2.56189
665,22,67.3815,2.44159,0.00256515,0.0019405,8.35776e-05,0.00257614,0.00192951,0.130736,0.00154759,0.0393554,1889,1002,67.3814,-2.44161
672,22,67.1693,2.32526,0.00143317,0.00138835,0.000616221,0.00202739,0.000794132,0.767222,0.00117963,0.0392282,1896,1002,67.1693,-2.32526
679,22,67.1356,2.35919,0.000667101,0.000889367,0.00109637,0.00188022,-0.000323751,0.835908,0.00137417,0.0396914,1903,1002,67.1356,-2.35921
686,22,67.0981,2.4837,0.000214268,0.000328261,0.00140191,0.00167433,-0.00113181,0.805715,0.00163019,0.0401739,1910,1002,67.0982,-2.48371
693,22,67.0746,2.45569,-4.02505e-05,-0.000188005,0.00152208,0.00140974,-0.001638,0.761149,0.00176126,0.038801,1917,1002,67.0746,-2.45568
700,22,67.158,2.40619,-0.000276207,-0.000554704,0.00146789,0.00105902,-0.00188994,0.738108,0.00172496,0.0334054,1924,1002,67.158,-2.40618
707,22,67.1599,2.44019,-0.000932378,-0.000331587,0.00125515,0.000658614,-0.00192258,0.902854,0.00154867,0.0295636,1931,1002,67.16,-2.44019
714,22,67.0944,2.59338,-0.00198409,0.000436013,0.000958476,0.000769626,-0.0023177,1.23585,0.00185566,0.047087,1938,1002,67.0944,-2.59337
721,22,66.9949,3.13,0,0,0,0,0,0,0,-1,1945,1002,66.9948,-3.13002
728,22,67.0808,6.30219,0,0,0,0,0,0,0,-1,1952,1002,67.0808,-6.30216
735,22,67.0901,6.45813,-0.00530926,0.00553876,-0.000377844,0.0055519,-0.0053224,-1.53602,0.00627875,0.0186911,1959,1002,67.0901,-6.45815
742,22,67.1041,6.58868,-0.00617994,0.0103258,-0.000545977,0.0103438,-0.00619798,-1.53777,0.0096499,0.0174141,1966,1002,67.1042,-6.58871
749,22,67.0447,6.76709,-0.00763189,0.0145384,-0.000235015,0.0145409,-0.00763438,-1.5602,0.0130082,0.0131319,1973,1002,67.0446,-6.7671
756,22,67.0256,6.91882,-0.00886983,0.0205035,-0.000124696,0.020504,-0.00887036,-1.56655,0.017397,0.0188149,1980,1002,67.0257,-6.91883
763,22,66.9624,7.04834,-0.00945756,0.0292293,0.000449587,0.0292345,-0.00946278,1.55918,0.0232937,0.0224787,1987,1002,66.9624,-7.04837
770,22,66.7458,7.16559,-0.00915497,0.0421022,0.00197316,0.042178,-0.00923082,1.53238,0.0316476,0.021121,1994,1002,66.7457,-7.16559
777,22,66.3955,7.21527,-0.00756833,0.05808,0.00455725,0.0583949,-0.00788318,1.50182,0.0418061,0.0418263,2001,1002,66.3956,-7.21529
784,22,66.4485,6.80151,0,0,0,0,0,0,0,-1,2008,1002,66.4484,-6.80149
791,22,66.4094,6.58136,0.000985096,0.0970374,0.013988,0.099033,-0.0010105,1.42909,0.0663614,0.0479507,2015,1002,66.4095,-6.58134
798,22,66.5415,6.67706,0.00948645,0.120887,0.0217963,0.124999,0.00537366,1.3843,0.0816007,0.0472706,2022,1002,66.5416,-6.67708
805,22,66.7593,6.7561,0,0,0,0,0,0,0,-1,2029,1002,66.7594,-6.75609
812,22,63.5757,5.75903,0,0,0,0,0,0,0,-1,2036,1002,63.5757,-5.75901
-700,15,0,0,0,0,0,0,0,0,0,-1,524,1009,0,0
-693,15,-54.9996,0.203064,0,0,0,0,0,0,0,-1,531,1009,-54.9996,-0.203077
-686,15,-53.5756,2.13513,0,0,0,0,0,0,0,-1,538,1009,-53.5756,-2.13516
-679,15,-52.5575,2.43024,0.0158379,-0.00530691,-0.0243067,0.0317719,-0.0212409,-0.58026,0.0308076,0.0496755,545,1009,-52.5575,-2.43022
-672,15,-51.621,2.48877,0.014591,0.00309929,-0.0179606,0.0277024,-0.0100121,-0.630585,0.0225588,0.0478694,552,1009,-51.621,-2.48875
-665,15,-50.8217,2.44818,0,0,0,0,0,0,0,-1,559,1009,-50.8217,-2.44816
-658,15,-52.4803,2.92859,0,0,0,0,0,0,0,-1,566,1009,-52.4803,-2.92861
-651,15,-51.4943,3.62128,0,0,0,0,0,0,0,-1,573,1009,-51.4943,-3.62128
-644,15,-52.4906,4.36224,0,0,0,0,0,0,0,-1,580,1009,-52.4906,-4.36227
-637,15,-52.6749,4.73108,0.000746047,0.0156573,-0.000697479,0.0156899,0.000713493,-1.52416,0.0102304,0.0315414,587,1009,-52.6748,-4.73107
-630,15,-52.6947,4.67896,-0.00113085,0.0143204,0.000514464,0.0143375,-0.00114796,1.53755,0.00996306,0.0168072,594,1009,-52.6947,-4.67898
-623,15,-52.7615,4.62128,-0.00411077,0.0118203,0.000890504,0.0118699,-0.00416039,1.51513,0.00960528,0.0101892,601,1009,-52.7616,-4.62128
-616,15,-52.7919,4.54749,-0.00543295,0.00856153,0.000384136,0.00857207,-0.00544348,1.54337,0.00815881,0.0169441,608,1009,-52.7919,-4.5475
-609,15,-52.8663,4.51233,-0.00495747,0.00539296,0.000157355,0.00539535,-0.00495986,1.5556,0.00598035,0.0258158,615,1009,-52.8663,-4.51234
-602,15,-52.9456,4.45331,-0.00415213,0.0032059,-0.000443935,0.00323259,-0.00417882,-1.51075,0.00429059,0.0248274,622,1009,-52.9456,-4.45331
-595,15,-53.2766,3.99426,0,0,0,0,0,0,0,-1,629,1009,-53.2765,-3.99427
-588,15,-51.9044,0.439087,0,0,0,0,0,0,0,-1,636,1009,-51.9044,-0.439075
-581,15,-51.8231,0.397339,-0.00166689,-0.000467046,-0.00163128,0.000671132,-0.00280507,-0.961603,0.00212931,0.0403571,643,1009,-51.823,-0.397363
-574,15,-51.7995,0.388611,-0.00119397,-0.000967351,-0.00187996,0.000802711,-0.00296403,-0.815498,0.00229096,0.0331762,650,1009,-51.7995,-0.388641
-567,15,-51.793,0.370483,-0.000951357,-0.00100678,-0.00194902,0.000970143,-0.00292828,-0.778289,0.00234349,0.035137,657,1009,-51.793,-0.370502
-560,15,-51.7873,0.418091,-0.000741735,-0.000680962,-0.00189263,0.00118152,-0.00260422,-0.793425,0.00223655,0.0395918,664,1009,-51.7873,-0.418106
-553,15,-51.8054,0.522705,-0.000638548,-0.000185834,-0.00177496,0.00137715,-0.00220153,-0.84882,0.00208435,0.0399126,671,1009,-51.8053,-0.522707
-546,15,-51.887,0.391602,-0.000658082,0.000106961,-0.00157246,0.00134276,-0.00189388,-0.904712,0.00187768,0.0409852,678,1009,-51.887,-0.391575
-539,15,-51.9944,0.552612,-0.0011453,-6.1682e-05,-0.00129049,0.000796122,-0.0020031,-0.984147,0.00166546,0.0420382,685,1009,-51.9944,-0.552641
-532,15,-51.9453,0.656067,-0.00140308,0.000115978,-0.00139204,0.00094222,-0.00222932,-1.03514,0.00188068,0.0419197,692,1009,-51.9452,-0.656042
-525,15,0,0,0,0,0,0,0,0,0,-1,699,1009,0,0
-518,15,0,0,0,0,0,0,0,0,0,-1,706,1009,0,0
-511,15,0,0,0,0,0,0,0,0,0,-1,713,1009,0,0
-504,15,0,0,0,0,0,0,0,0,0,-1,720,1009,0,0
-497,15,0,0,0,0,0,0,0,0,0,-1,727,1009,0,0
-490,15,0,0,0,0,0,0,0,0,0,-1,734,1009,0,0
-483,15,0,0,0,0,0,0,0,0,0,-1,741,1009,0,0
-476,15,0,0,0,0,0,0,0,0,0,-1,748,1009,0,0
-469,15,0,0,0,0,0,0,0,0,0,-1,755,1009,0,0
-462,15,0,0,0,0,0,0,0,0,0,-1,762,1009,0,0
-455,15,0,0,0,0,0,0,0,0,0,-1,769,1009,0,0
-448,15,0,0,0,0,0,0,0,0,0,-1,776,1009,0,0
-441,15,0,0,0,0,0,0,0,0,0,-1,783,1009,0,0
-434,15,0,0,0,0,0,0,0,0,0,-1,790,1009,0,0
-427,15,0,0,0,0,0,0,0,0,0,-1,797,1009,0,0
-420,15,0,0,0,0,0,0,0,0,0,-1,804,1009,0,0
-413,15,0,0,0,0,0,0,0,0,0,-1,811,1009,0,0
-406,15,0,0,0,0,0,0,0,0,0,-1,818,1009,0,0
-399,15,0,0,0,0,0,0,0,0,0,-1,825,1009,0,0
-392,15,0,0,0,0,0,0,0,0,0,-1,832,1009,0,0
-385,15,0,0,0,0,0,0,0,0,0,-1,839,1009,0,0
-378,15,0,0,0,0,0,0,0,0,0,-1,846,1009,0,0
-371,15,0,0,0,0,0,0,0,0,0,-1,853,1009,0,0
-364,15,0,0,0,0,0,0,0,0,0,-1,860,1009,0,0
-357,15,0,0,0,0,0,0,0,0,0,-1,867,1009,0,0
-350,15,0,0,0,0,0,0,0,0,0,-1,874,1009,0,0
-343,15,0,0,0,0,0,0,0,0,0,-1,881,1009,0,0
-336,15,0,0,0,0,0,0,0,0,0,-1,888,1009,0,0
-329,15,0,0,0,0,0,0,0,0,0,-1,895,1009,0,0
-322,15,0,0,0,0,0,0,0,0,0,-1,902,1009,0,0
-315,15,0,0,0,0,0,0,0,0,0,-1,909,1009,0,0
-308,15,0,0,0,0,0,0,0,0,0,-1,916,1009,0,0
-301,15,0,0,0,0,0,0,0,0,0,-1,923,1009,0,0
-294,15,0,0,0,0,0,0,0,0,0,-1,930,1009,0,0
-287,15,0,0,0,0,0,0,0,0,0,-1,937,1009,0,0
-280,15,0,0,0,0,0,0,0,0,0,-1,944,1009,0,0
-273,15,0,0,0,0,0,0,0,0,0,-1,951,1009,0,0
-266,15,0,0,0,0,0,0,0,0,0,-1,958,1009,0,0
-259,15,0,0,0,0,0,0,0,0,0,-1,965,1009,0,0
-252,15,0,0,0,0,0,0,0,0,0,-1,972,1009,0,0
-245,15,0,0,0,0,0,0,0,0,0,-1,979,1009,0,0
-238,15,0,0,0,0,0,0,0,0,0,-1,986,1009,0,0
-231,15,0,0,0,0,0,0,0,0,0,-1,993,1009,0,0
-224,15,0,0,0,0,0,0,0,0,0,-1,1000,1009,0,0
-217,15,0,0,0,0,0,0,0,0,0,-1,1007,1009,0,0
-210,15,0,0,0,0,0,0,0,0,0,-1,1014,1009,0,0
-203,15,0,0,0,0,0,0,0,0,0,-1,1021,1009,0,0
-196,15,0,0,0,0,0,0,0,0,0,-1,1028,1009,0,0
-189,15,0,0,0,0,0,0,0,0,0,-1,1035,1009,0,0
-182,15,0,0,0,0,0,0,0,0,0,-1,1042,1009,0,0
-175,15,0,0,0,0,0,0,0,0,0,-1,1049,1009,0,0
-168,15,0,0,0,0,0,0,0,0,0,-1,1056,1009,0,0
-161,15,0,0,0,0,0,0,0,0,0,-1,1063,1009,0,0
-154,15,0,0,0,0,0,0,0,0,0,-1,1070,1009,0,0
-147,15,0,0,0,0,0,0,0,0,0,-1,1077,1009,0,0
-140,15,0,0,0,0,0,0,0,0,0,-1,1084,1009,0,0
-133,15,0,0,0,0,0,0,0,0,0,-1,1091,1009,0,0
-126,15,0,0,0,0,0,0,0,0,0,-1,1098,1009,0,0
-119,15,0,0,0,0,0,0,0,0,0,-1,1105,1009,0,0
-112,15,0,0,0,0,0,0,0,0,0,-1,1112,1009,0,0
-105,15,0,0,0,0,0,0,0,0,0,-1,1119,1009,0,0
-98,15,0,0,0,0,0,0,0,0,0,-1,1126,1009,0,0
-91,15,0,0,0,0,0,0,0,0,0,-1,1133,1009,0,0
-84,15,0,0,0,0,0,0,0,0,0,-1,1140,1009,0,0
-77,15,0,0,0,0,0,0,0,0,0,-1,1147,1009,0,0
-70,15,0,0,0,0,0,0,0,0,0,-1,1154,1009,0,0
-63,15,0,0,0,0,0,0,0,0,0,-1,1161,1009,0,0
-56,15,0,0,0,0,0,0,0,0,0,-1,1168,1009,0,0
-49,15,0,0,0,0,0,0,0,0,0,-1,1175,1009,0,0
-42,15,0,0,0,0,0,0,0,0,0,-1,1182,1009,0,0
-35,15,0,0,0,0,0,0,0,0,0,-1,1189,1009,0,0
-28,15,0,0,0,0,0,0,0,0,0,-1,1196,1009,0,0
-21,15,0,0,0,0,0,0,0,0,0,-1,1203,1009,0,0
-14,15,0,0,0,0,0,0,0,0,0,-1,1210,1009,0,0
-7,15,0,0,0,0,0,0,0,0,0,-1,1217,1009,0,0
0,15,0,0,0,0,0,0,0,0,0,-1,1224,1009,0,0
7,15,0,0,0,0,0,0,0,0,0,-1,1231,1009,0,0
14,15,0,0,0,0,0,0,0,0,0,-1,1238,1009,0,0
21,15,0,0,0,0,0,0,0,0,0,-1,1245,1009,0,0
28,15,0,0,0,0,0,0,0,0,0,-1,1252,1009,0,0
35,15,0,0,0,0,0,0,0,0,0,-1,1259,1009,0,0
42,15,0,0,0,0,0,0,0,0,0,-1,1266,1009,0,0
49,15,0,0,0,0,0,0,0,0,0,-1,1273,1009,0,0
56,15,0,0,0,0,0,0,0,0,0,-1,1280,1009,0,0
63,15,0,0,0,0,0,0,0,0,0,-1,1287,1009,0,0
70,15,0,0,0,0,0,0,0,0,0,-1,1294,1009,0,0
77,15,0,0,0,0,0,0,0,0,0,-1,1301,1009,0,0
84,15,0,0,0,0,0,0,0,0,0,-1,1308,1009,0,0
91,15,0,0,0,0,0,0,0,0,0,-1,1315,1009,0,0
98,15,0,0,0,0,0,0,0,0,0,-1,1322,1009,0,0
105,15,0,0,0,0,0,0,0,0,0,-1,1329,1009,0,0
112,15,0,0,0,0,0,0,0,0,0,-1,1336,1009,0,0
119,15,0,0,0,0,0,0,0,0,0,-1,1343,1009,0,0
126,15,0,0,0,0,0,0,0,0,0,-1,1350,1009,0,0
133,15,0,0,0,0,0,0,0,0,0,-1,1357,1009,0,0
140,15,0,0,0,0,0,0,0,0,0,-1,1364,1009,0,0
147,15,0,0,0,0,0,0,0,0,0,-1,1371,1009,0,0
154,15,0,0,0,0,0,0,0,0,0,-1,1378,1009,0,0
161,15,0,0,0,0,0,0,0,0,0,-1,1385,1009,0,0
168,15,0,0,0,0,0,0,0,0,0,-1,1392,1009,0,0
175,15,0,0,0,0,0,0,0,0,0,-1,1399,1009,0,0
182,15,0,0,0,0,0,0,0,0,0,-1,1406,1009,0,0
189,15,0,0,0,0,0,0,0,0,0,-1,1413,1009,0,0
196,15,0,0,0,0,0,0,0,0,0,-1,1420,1009,0,0
203,15,0,0,0,0,0,0,0,0,0,-1,1427,1009,0,0
210,15,0,0,0,0,0,0,0,0,0,-1,1434,1009,0,0
217,15,0,0,0,0,0,0,0,0,0,-1,1441,1009,0,0
224,15,0,0,0,0,0,0,0,0,0,-1,1448,1009,0,0
231,15,0,0,0,0,0,0,0,0,0,-1,1455,1009,0,0
238,15,0,0,0,0,0,0,0,0,0,-1,1462,1009,0,0
245,15,0,0,0,0,0,0,0,0,0,-1,1469,1009,0,0
252,15,0,0,0,0,0,0,0,0,0,-1,1476,1009,0,0
259,15,0,0,0,0,0,0,0,0,0,-1,1483,1009,0,0
266,15,0,0,0,0,0,0,0,0,0,-1,1490,1009,0,0
273,15,0,0,0,0,0,0,0,0,0,-1,1497,1009,0,0
280,15,0,0,0,0,0,0,0,0,0,-1,1504,1009,0,0
287,15,0,0,0,0,0,0,0,0,0,-1,1511,1009,0,0
294,15,0,0,0,0,0,0,0,0,0,-1,1518,1009,0,0
301,15,0,0,0,0,0,0,0,0,0,-1,1525,1009,0,0
308,15,0,0,0,0,0,0,0,0,0,-1,1532,1009,0,0
315,15,0,0,0,0,0,0,0,0,0,-1,1539,1009,0,0
322,15,0,0,0,0,0,0,0,0,0,-1,1546,1009,0,0
329,15,0,0,0,0,0,0,0,0,0,-1,1553,1009,0,0
336,15,0,0,0,0,0,0,0,0,0,-1,1560,1009,0,0
343,15,0,0,0,0,0,0,0,0,0,-1,1567,1009,0,0
350,15,0,0,0,0,0,0,0,0,0,-1,1574,1009,0,0
357,15,0,0,0,0,0,0,0,0,0,-1,1581,1009,0,0
364,15,0,0,0,0,0,0,0,0,0,-1,1588,1009,0,0
371,15,0,0,0,0,0,0,0,0,0,-1,1595,1009,0,0
378,15,0,0,0,0,0,0,0,0,0,-1,1602,1009,0,0
385,15,0,0,0,0,0,0,0,0,0,-1,1609,1009,0,0
392,15,0,0,0,0,0,0,0,0,0,-1,1616,1009,0,0
399,15,0,0,0,0,0,0,0,0,0,-1,1623,1009,0,0
406,15,0,0,0,0,0,0,0,0,0,-1,1630,1009,0,0
413,15,0,0,0,0,0,0,0,0,0,-1,1637,1009,0,0
420,15,0,0,0,0,0,0,0,0,0,-1,1644,1009,0,0
427,15,0,0,0,0,0,0,0,0,0,-1,1651,1009,0,0
434,15,0,0,0,0,0,0,0,0,0,-1,1658,1009,0,0
441,15,0,0,0,0,0,0,0,0,0,-1,1665,1009,0,0
448,15,0,0,0,0,0,0,0,0,0,-1,1672,1009,0,0
455,15,0,0,0,0,0,0,0,0,0,-1,1679,1009,0,0
462,15,0,0,0,0,0,0,0,0,0,-1,1686,1009,0,0
469,15,0,0,0,0,0,0,0,0,0,-1,1693,1009,0,0
476,15,0,0,0,0,0,0,0,0,0,-1,1700,1009,0,0
483,15,0,0,0,0,0,0,0,0,0,-1,1707,1009,0,0
490,15,0,0,0,0,0,0,0,0,0,-1,1714,1009,0,0
497,15,0,0,0,0,0,0,0,0,0,-1,1721,1009,0,0
504,15,0,0,0,0,0,0,0,0,0,-1,1728,1009,0,0
511,15,0,0,0,0,0,0,0,0,0,-1,1735,1009,0,0
518,15,0,0,0,0,0,0,0,0,0,-1,1742,1009,0,0
525,15,0,0,0,0,0,0,0,0,0,-1,1749,1009,0,0
532,15,0,0,0,0,0,0,0,0,0,-1,1756,1009,0,0
539,15,0,0,0,0,0,0,0,0,0,-1,1763,1009,0,0
546,15,0,0,0,0,0,0,0,0,0,-1,1770,1009,0,0
553,15,0,0,0,0,0,0,0,0,0,-1,1777,1009,0,0
560,15,0,0,0,0,0,0,0,0,0,-1,1784,1009,0,0
567,15,0,0,0,0,0,0,0,0,0,-1,1791,1009,0,0
574,15,0,0,0,0,0,0,0,0,0,-1,1798,1009,0,0
581,15,0,0,0,0,0,0,0,0,0,-1,1805,1009,0,0
588,15,0,0,0,0,0,0,0,0,0,-1,1812,1009,0,0
595,15,0,0,0,0,0,0,0,0,0,-1,1819,1009,0,0
602,15,0,0,0,0,0,0,0,0,0,-1,1826,1009,0,0
609,15,0,0,0,0,0,0,0,0,0,-1,1833,1009,0,0
616,15,0,0,0,0,0,0,0,0,0,-1,1840,1009,0,0
623,15,0,0,0,0,0,0,0,0,0,-1,1847,1009,0,0
630,15,0,0,0,0,0,0,0,0,0,-1,1854,1009,0,0
637,15,0,0,0,0,0,0,0,0,0,-1,1861,1009,0,0
644,15,67.0487,2.27954,0.009073,0.00712188,-0.00108489,0.00955645,0.00663843,-0.419206,0.00565507,0.0399041,1868,1009,67.0487,-2.27957
651,15,67.2201,2.23712,0.00604801,0.00504677,-0.000336524,0.0061506,0.00494418,-0.295918,0.00376328,0.0388511,1875,1009,67.2201,-2.2371
658,15,67.2932,2.26086,0.00404412,0.00334495,0.000143408,0.00407239,0.00331668,0.194647,0.00250137,0.0377072,1882,1009,67.2933,-2.26087
665,15,67.2478,2.13641,0.00260308,0.00224748,0.000568323,0.00302077,0.00182979,0.633797,0.00175699,0.0380565,1889,1009,67.2477,-2.13639
672,15,67.0836,2.06323,0.0014994,0.00151371,0.000940061,0.00244665,0.000566471,0.789204,0.00147889,0.0375298,1896,1009,67.0837,-2.06326
679,15,67.1978,2.34235,0.000763384,0.000899026,0.0012654,0.00209843,-0.000436016,0.812171,0.00156467,0.037357,1903,1009,67.1977,-2.34237
686,15,67.1606,2.513,0.000283189,0.000271461,0.00145367,0.00173101,-0.00117636,0.783381,0.00168872,0.0423687,1910,1009,67.1606,-2.513
693,15,67.0958,2.37787,-6.31657e-06,-0.000275512,0.00150055,0.00136566,-0.00164749,0.740668,0.00174218,0.0397754,1917,1009,67.0958,-2.37787
700,15,67.1312,2.3385,-0.000236541,-0.000664039,0.00143153,0.000997112,-0.00189769,0.711288,0.00169806,0.0298425,1924,1009,67.1312,-2.33851
707,15,67.1302,2.39868,-0.000921065,-0.000415161,0.00124151,0.000598907,-0.00193513,0.885895,0.00152933,0.0272994,1931,1009,67.1302,-2.39866
714,15,67.1394,2.50128,-0.00200762,0.000396634,0.000993994,0.000754358,-0.00236534,1.22534,0.0018795,0.0322051,1938,1009,67.1394,-2.50126
721,15,67.046,2.58228,0,0,0,0,0,0,0,-1,1945,1009,67.046,-2.58229
728,15,67.2325,6.39764,0,0,0,0,0,0,0,-1,1952,1009,67.2326,-6.39762
735,15,67.1652,6.57452,-0.00559497,0.0055115,-0.000272786,0.0055182,-0.00560166,-1.54625,0.00642011,0.0218937,1959,1009,67.1651,-6.5745
742,15,67.2032,6.74506,-0.00649146,0.0100781,-0.000379449,0.0100868,-0.00650015,-1.54791,0.00965081,0.0413023,1966,1009,67.2032,-6.74504
749,15,67.1921,6.82928,-0.00799379,0.0140676,1.23424e-05,0.0140676,-0.0079938,1.57024,0.0128971,0.0255705,1973,1009,67.1921,-6.82926
756,15,67.1895,6.76862,-0.00926711,0.0196396,0.000203122,0.019641,-0.00926853,1.56377,0.0170453,0.0181503,1980,1009,67.1895,-6.76861
763,15,67.0928,6.89551,-0.00986344,0.0277266,0.000824074,0.0277447,-0.0098815,1.54889,0.0225247,0.0149334,1987,1009,67.0927,-6.8955
770,15,66.9141,6.94293,-0.00955551,0.039638,0.00236569,0.0397515,-0.00966901,1.52285,0.0302437,0.0206781,1994,1009,66.9141,-6.94295
777,15,66.5203,6.99548,-0.0078208,0.0547635,0.00508101,0.0551734,-0.00823062,1.49031,0.0398104,0.0458587,2001,1009,66.5202,-6.9955
784,15,66.2974,5.37622,0,0,0,0,0,0,0,-1,2008,1009,66.2975,-5.37624
791,15,65.9355,5.69159,0.00120254,0.0909156,0.0147698,0.0932846,-0.00116652,1.41175,0.0625822,0.0475368,2015,1009,65.9356,-5.69158
798,15,66.1487,6.00952,0.0100745,0.112794,0.022714,0.117593,0.00527604,1.3626,0.0766971,0.0486649,2022,1009,66.1487,-6.00954
805,15,66.3081,6.30078,0,0,0,0,0,0,0,-1,2029,1009,66.3081,-6.30078
812,15,66.7568,6.7915,0,0,0,0,0,0,0,-1,2036,1009,66.7569,-6.79153
-700,8,0,0,0,0,0,0,0,0,0,-1,524,1016,0,0
-693,8,-54.2899,0.770935,0,0,0,0,0,0,0,-1,531,1016,-54.2898,-0.770929
-686,8,-53.8223,2.30664,0,0,0,0,0,0,0,-1,538,1016,-53.8223,-2.30667
-679,8,-52.905,2.37494,0.0080694,-0.0106045,-0.0273448,0.0276274,-0.0301625,-0.620878,0.0333757,0.0487715,545,1016,-52.905,-2.37493
-672,8,-52.0211,2.41217,0.00890104,-0.00100591,-0.0203729,0.024914,-0.0170188,-0.666142,0.0243525,0.0457456,552,1016,-52.0211,-2.41215
-665,8,-51.1435,2.42676,0,0,0,0,0,0,0,-1,559,1016,-51.1435,-2.42674
-658,8,-52.3962,3.70197,0,0,0,0,0,0,0,-1,566,1016,-52.3962,-3.70199
-651,8,-52.133,4.21692,0,0,0,0,0,0,0,-1,573,1016,-52.133,-4.21689
-644,8,-52.4649,4.23608,0,0,0,0,0,0,0,-1,580,1016,-52.4649,-4.23606
-637,8,-52.5079,4.41492,0.000720997,0.0150484,-0.00146794,0.0151972,0.000572143,-1.46974,0.00994627,0.0443601,587,1016,-52.5079,-4.41494
-630,8,-52.7238,4.55151,-0.000701583,0.013909,-7.62627e-05,0.0139094,-0.000701981,-1.56558,0.00951554,0.0265316,594,1016,-52.7238,-4.55153
-623,8,-52.7225,4.60577,-0.00347195,0.0113697,0.000343034,0.0113777,-0.00347987,1.5477,0.00897289,0.0167638,601,1016,-52.7226,-4.60576
-616,8,-52.759,4.56561,-0.00481382,0.00840875,-0.000101472,0.00840952,-0.0048146,-1.56312,0.00772842,0.0178675,608,1016,-52.759,-4.56561
-609,8,-52.8469,4.50519,-0.00452581,0.00516606,-0.000279603,0.00517412,-0.00453387,-1.54198,0.00560897,0.0210676,615,1016,-52.8468,-4.50521
-602,8,-52.7703,4.56433,-0.00389355,0.00301038,-0.000749365,0.00309078,-0.00397395,-1.46391,0.00408943,0.0245796,622,1016,-52.7702,-4.56435
-595,8,-52.8156,4.51117,0,0,0,0,0,0,0,-1,629,1016,-52.8156,-4.51117
-588,8,-51.8015,0.385071,0,0,0,0,0,0,0,-1,636,1016,-51.8014,-0.38509
-581,8,-51.7806,0.406433,-0.00159337,-0.000476464,-0.00162584,0.000684161,-0.002754,-0.950828,0.00210151,0.0337572,643,1016,-51.7806,-0.406429
-574,8,-51.7544,0.345215,-0.00115456,-0.000922283,-0.00178257,0.00074793,-0.00282477,-0.817928,0.00217577,0.0355023,650,1016,-51.7544,-0.345198
-567,8,-51.7213,0.280151,-0.000964915,-0.000910495,-0.00179115,0.000853653,-0.00272906,-0.792993,0.00216088,0.0394949,657,1016,-51.7213,-0.280179
-560,8,-51.6931,0.539612,-0.000826607,-0.000537811,-0.00171032,0.0010342,-0.00239861,-0.827512,0.00203345,0.0401246,664,1016,-51.6931,-0.539637
-553,8,-51.6212,0.456116,-0.000834846,-1.34549e-05,-0.0016248,0.00125176,-0.00210006,-0.909188,0.00195572,0.0407774,671,1016,-51.6212,-0.456095
-546,8,-51.6863,0.453125,-0.000996095,0.000268536,-0.00154248,0.00130328,-0.00203083,-0.979919,0.00194017,0.0423649,678,1016,-51.6863,-0.45313
-539,8,-51.7847,0.578064,-0.00166468,6.74553e-05,-0.00148667,0.000921926,-0.00251915,-1.04915,0.00205681,0.0416737,685,1016,-51.7848,-0.578042
-532,8,-51.8628,0.644775,-0.00216326,0.000224221,-0.00172595,0.00112903,-0.00306807,-1.08795,0.00250792,0.0397926,692,1016,-51.8628,-0.644779
-525,8,0,0,0,0,0,0,0,0,0,-1,699,1016,0,0
-518,8,0,0,0,0,0,0,0,0,0,-1,706,1016,0,0
-511,8,0,0,0,0,0,0,0,0,0,-1,713,1016,0,0
-504,8,0,0,0,0,0,0,0,0,0,-1,720,1016,0,0
-497,8,0,0,0,0,0,0,0,0,0,-1,727,1016,0,0
-490,8,0,0,0,0,0,0,0,0,0,-1,734,1016,0,0
-483,8,0,0,0,0,0,0,0,0,0,-1,741,1016,0,0
-476,8,0,0,0,0,0,0,0,0,0,-1,748,1016,0,0
-469,8,0,0,0,0,0,0,0,0,0,-1,755,1016,0,0
-462,8,0,0,0,0,0,0,0,0,0,-1,762,1016,0,0
-455,8,0,0,0,0,0,0,0,0,0,-1,769,1016,0,0
-448,8,0,0,0,0,0,0,0,0,0,-1,776,1016,0,0
-441,8,0,0,0,0,0,0,0,0,0,-1,783,1016,0,0
-434,8,0,0,0,0,0,0,0,0,0,-1,790,1016,0,0
-427,8,0,0,0,0,0,0,0,0,0,-1,797,1016,0,0
-420,8,0,0,0,0,0,0,0,0,0,-1,804,1016,0,0
-413,8,0,0,0,0,0,0,0,0,0,-1,811,1016,0,0
-406,8,0,0,0,0,0,0,0,0,0,-1,818,1016,0,0
-399,8,0,0,0,0,0,0,0,0,0,-1,825,1016,0,0
-392,8,0,0,0,0,0,0,0,0,0,-1,832,1016,0,0
-385,8,0,0,0,0,0,0,0,0,0,-1,839,1016,0,0
-378,8,0,0,0,0,0,0,0,0,0,-1,846,1016,0,0
-371,8,0,0,0,0,0,0,0,0,0,-1,853,1016,0,0
-364,8,0,0,0,0,0,0,0,0,0,-1,860,1016,0,0
-357,8,0,0,0,0,0,0,0,0,0,-1,867,1016,0,0
-350,8,0,0,0,0,0,0,0,0,0,-1,874,1016,0,0
-343,8,0,0,0,0,0,0,0,0,0,-1,881,1016,0,0
-336,8,0,0,0,0,0,0,0,0,0,-1,888,1016,0,0
-329,8,0,0,0,0,0,0,0,0,0,-1,895,1016,0,0
-322,8,0,0,0,0,0,0,0,0,0,-1,902,1016,0,0
-315,8,0,0,0,0,0,0,0,0,0,-1,909,1016,0,0
-308,8,0,0,0,0,0,0,0,0,0,-1,916,1016,0,0
-301,8,0,0,0,0,0,0,0,0,0,-1,923,1016,0,0
-294,8,0,0,0,0,0,0,0,0,0,-1,930,1016,0,0
-287,8,0,0,0,0,0,0,0,0,0,-1,937,1016,0,0
-280,8,0,0,0,0,0,0,0,0,0,-1,944,1016,0,0
-273,8,0,0,0,0,0,0,0,0,0,-1,951,1016,0,0
-266,8,0,0,0,0,0,0,0,0,0,-1,958,1016,0,0
-259,8,0,0,0,0,0,0,0,0,0,-1,965,1016,0,0
-252,8,0,0,0,0,0,0,0,0,0,-1,972,1016,0,0
-245,8,0,0,0,0,0,0,0,0,0,-1,979,1016,0,0
-238,8,0,0,0,0,0,0,0,0,0,-1,986,1016,0,0
-231,8,0,0,0,0,0,0,0,0,0,-1,993,1016,0,0
-224,8,0,0,0,0,0,0,0,0,0,-1,1000,1016,0,0
-217,8,0,0,0,0,0,0,0,0,0,-1,1007,1016,0,0
-210,8,0,0,0,0,0,0,0,0,0,-1,1014,1016,0,0
-203,8,0,0,0,0,0,0,0,0,0,-1,1021,1016,0,0
-196,8,0,0,0,0,0,0,0,0,0,-1,1028,1016,0,0
-189,8,0,0,0,0,0,0,0,0,0,-1,1035,1016,0,0
-182,8,0,0,0,0,0,0,0,0,0,-1,1042,1016,0,0
-175,8,0,0,0,0,0,0,0,0,0,-1,1049,1016,0,0
-168,8,0,0,0,0,0,0,0,0,0,-1,1056,1016,0,0
-161,8,0,0,0,0,0,0,0,0,0,-1,1063,1016,0,0
-154,8,0,0,0,0,0,0,0,0,0,-1,1070,1016,0,0
-147,8,0,0,0,0,0,0,0,0,0,-1,1077,1016,0,0
-140,8,0,0,0,0,0,0,0,0,0,-1,1084,1016,0,0
-133,8,0,0,0,0,0,0,0,0,0,-1,1091,1016,0,0
-126,8,0,0,0,0,0,0,0,0,0,-1,1098,1016,0,0
-119,8,0,0,0,0,0,0,0,0,0,-1,1105,1016,0,0
-112,8,0,0,0,0,0,0,0,0,0,-1,1112,1016,0,0
-105,8,0,0,0,0,0,0,0,0,0,-1,1119,1016,0,0
-98,8,0,0,0,0,0,0,0,0,0,-1,1126,1016,0,0
-91,8,0,0,0,0,0,0,0,0,0,-1,1133,1016,0,0
-84,8,0,0,0,0,0,0,0,0,0,-1,1140,1016,0,0
-77,8,0,0,0,0,0,0,0,0,0,-1,1147,1016,0,0
-70,8,0,0,0,0,0,0,0,0,0,-1,1154,1016,0,0
-63,8,0,0,0,0,0,0,0,0,0,-1,1161,1016,0,0
-56,8,0,0,0,0,0,0,0,0,0,-1,1168,1016,0,0
-49,8,0,0,0,0,0,0,0,0,0,-1,1175,1016,0,0
-42,8,0,0,0,0,0,0,0,0,0,-1,1182,1016,0,0
-35,8,0,0,0,0,0,0,0,0,0,-1,1189,1016,0,0
-28,8,0,0,0,0,0,0,0,0,0,-1,1196,1016,0,0
-21,8,0,0,0,0,0,0,0,0,0,-1,1203,1016,0,0
-14,8,0,0,0,0,0,0,0,0,0,-1,1210,1016,0,0
-7,8,0,0,0,0,0,0,0,0,0,-1,1217,1016,0,0
0,8,0,0,0,0,0,0,0,0,0,-1,1224,1016,0,0
7,8,0,0,0,0,0,0,0,0,0,-1,1231,1016,0,0
14,8,0,0,0,0,0,0,0,0,0,-1,1238,1016,0,0
21,8,0,0,0,0,0,0,0,0,0,-1,1245,1016,0,0
28,8,0,0,0,0,0,0,0,0,0,-1,1252,1016,0,0
35,8,0,0,0,0,0,0,0,0,0,-1,1259,1016,0,0
42,8,0,0,0,0,0,0,0,0,0,-1,1266,1016,0,0
49,8,0,0,0,0,0,0,0,0,0,-1,1273,1016,0,0
56,8,0,0,0,0,0,0,0,0,0,-1,1280,1016,0,0
63,8,0,0,0,0,0,0,0,0,0,-1,1287,1016,0,0
70,8,0,0,0,0,0,0,0,0,0,-1,1294,1016,0,0
77,8,0,0,0,0,0,0,0,0,0,-1,1301,1016,0,0
84,8,0,0,0,0,0,0,0,0,0,-1,1308,1016,0,0
91,8,0,0,0,0,0,0,0,0,0,-1,1315,1016,0,0
98,8,0,0,0,0,0,0,0,0,0,-1,1322,1016,0,0
105,8,0,0,0,0,0,0,0,0,0,-1,1329,1016,0,0
112,8,0,0,0,0,0,0,0,0,0,-1,1336,1016,0,0
119,8,0,0,0,0,0,0,0,0,0,-1,1343,1016,0,0
126,8,0,0,0,0,0,0,0,0,0,-1,1350,1016,0,0
133,8,0,0,0,0,0,0,0,0,0,-1,1357,1016,0,0
140,8,0,0,0,0,0,0,0,0,0,-1,1364,1016,0,0
147,8,0,0,0,0,0,0,0,0,0,-1,1371,1016,0,0
154,8,0,0,0,0,0,0,0,0,0,-1,1378,1016,0,0
161,8,0,0,0,0,0,0,0,0,0,-1,1385,1016,0,0
168,8,0,0,0,0,0,0,0,0,0,-1,1392,1016,0,0
175,8,0,0,0,0,0,0,0,0,0,-1,1399,1016,0,0
182,8,0,0,0,0,0,0,0,0,0,-1,1406,1016,0,0
189,8,0,0,0,0,0,0,0,0,0,-1,1413,1016,0,0
196,8,0,0,0,0,0,0,0,0,0,-1,1420,1016,0,0
203,8,0,0,0,0,0,0,0,0,0,-1,1427,1016,0,0
210,8,0,0,0,0,0,0,0,0,0,-1,1434,1016,0,0
217,8,0,0,0,0,0,0,0,0,0,-1,1441,1016,0,0
224,8,0,0,0,0,0,0,0,0,0,-1,1448,1016,0,0
231,8,0,0,0,0,0,0,0,0,0,-1,1455,1016,0,0
238,8,0,0,0,0,0,0,0,0,0,-1,1462,1016,0,0
245,8,0,0,0,0,0,0,0,0,0,-1,1469,1016,0,0
252,8,0,0,0,0,0,0,0,0,0,-1,1476,1016,0,0
259,8,0,0,0,0,0,0,0,0,0,-1,1483,1016,0,0
266,8,0,0,0,0,0,0,0,0,0,-1,1490,1016,0,0
273,8,0,0,0,0,0,0,0,0,0,-1,1497,1016,0,0
280,8,0,0,0,0,0,0,0,0,0,-1,1504,1016,0,0
287,8,0,0,0,0,0,0,0,0,0,-1,1511,1016,0,0
294,8,0,0,0,0,0,0,0,0,0,-1,1518,1016,0,0
301,8,0,0,0,0,0,0,0,0,0,-1,1525,1016,0,0
308,8,0,0,0,0,0,0,0,0,0,-1,1532,1016,0,0
315,8,0,0,0,0,0,0,0,0,0,-1,1539,1016,0,0
322,8,0,0,0,0,0,0,0,0,0,-1,1546,1016,0,0
329,8,0,0,0,0,0,0,0,0,0,-1,1553,1016,0,0
336,8,0,0,0,0,0,0,0,0,0,-1,1560,1016,0,0
343,8,0,0,0,0,0,0,0,0,0,-1,1567,1016,0,0
350,8,0,0,0,0,0,0,0,0,0,-1,1574,1016,0,0
357,8,0,0,0,0,0,0,0,0,0,-1,1581,1016,0,0
364,8,0,0,0,0,0,0,0,0,0,-1,1588,1016,0,0
371,8,0,0,0,0,0,0,0,0,0,-1,1595,1016,0,0
378,8,0,0,0,0,0,0,0,0,0,-1,1602,1016,0,0
385,8,0,0,0,0,0,0,0,0,0,-1,1609,1016,0,0
392,8,0,0,0,0,0,0,0,0,0,-1,1616,1016,0,0
399,8,0,0,0,0,0,0,0,0,0,-1,1623,1016,0,0
406,8,0,0,0,0,0,0,0,0,0,-1,1630,1016,0,0
413,8,0,0,0,0,0,0,0,0,0,-1,1637,1016,0,0
420,8,0,0,0,0,0,0,0,0,0,-1,1644,1016,0,0
427,8,0,0,0,0,0,0,0,0,0,-1,1651,1016,0,0
434,8,0,0,0,0,0,0,0,0,0,-1,1658,1016,0,0
441,8,0,0,0,0,0,0,0,0,0,-1,1665,1016,0,0
448,8,0,0,0,0,0,0,0,0,0,-1,1672,1016,0,0
455,8,0,0,0,0,0,0,0,0,0,-1,1679,1016,0,0
462,8,0,0,0,0,0,0,0,0,0,-1,1686,1016,0,0
469,8,0,0,0,0,0,0,0,0,0,-1,1693,1016,0,0
476,8,0,0,0,0,0,0,0,0,0,-1,1700,1016,0,0
483,8,0,0,0,0,0,0,0,0,0,-1,1707,1016,0,0
490,8,0,0,0,0,0,0,0,0,0,-1,1714,1016,0,0
497,8,0,0,0,0,0,0,0,0,0,-1,1721,1016,0,0
504,8,0,0,0,0,0,0,0,0,0,-1,1728,1016,0,0
511,8,0,0,0,0,0,0,0,0,0,-1,1735,1016,0,0
518,8,0,0,0,0,0,0,0,0,0,-1,1742,1016,0,0
525,8,0,0,0,0,0,0,0,0,0,-1,1749,1016,0,0
532,8,0,0,0,0,0,0,0,0,0,-1,1756,1016,0,0
539,8,0,0,0,0,0,0,0,0,0,-1,1763,1016,0,0
546,8,0,0,0,0,0,0,0,0,0,-1,1770,1016,0,0
553,8,0,0,0,0,0,0,0,0,0,-1,1777,1016,0,0
560,8,0,0,0,0,0,0,0,0,0,-1,1784,1016,0,0
567,8,0,0,0,0,0,0,0,0,0,-1,1791,1016,0,0
574,8,0,0,0,0,0,0,0,0,0,-1,1798,1016,0,0
581,8,0,0,0,0,0,0,0,0,0,-1,1805,1016,0,0
588,8,0,0,0,0,0,0,0,0,0,-1,1812,1016,0,0
595,8,0,0,0,0,0,0,0,0,0,-1,1819,1016,0,0
602,8,0,0,0,0,0,0,0,0,0,-1,1826,1016,0,0
609,8,0,0,0,0,0,0,0,0,0,-1,1833,1016,0,0
616,8,0,0,0,0,0,0,0,0,0,-1,1840,1016,0,0
623,8,0,0,0,0,0,0,0,0,0,-1,1847,1016,0,0
630,8,0,0,0,0,0,0,0,0,0,-1,1854,1016,0,0
637,8,0,0,0,0,0,0,0,0,0,-1,1861,1016,0,0
644,8,66.962,2.07483,0.0085627,0.00788538,-0.000661778,0.00896744,0.00748064,-0.548898,0.00554948,0.0421069,1868,1016,66.962,-2.07481
651,8,67.1702,2.13348,0.00566152,0.0056036,0.00017219,0.00580717,0.00545795,0.70209,0.00376045,0.0369468,1875,1016,67.1702,-2.13348
658,8,67.2347,2.14087,0.00378117,0.00376225,0.000616225,0.00438801,0.00315542,0.777723,0.00261324,0.0371711,1882,1016,67.2348,-2.14085
665,8,67.1539,1.88928,0.00246587,0.00252185,0.000916355,0.00341064,0.00157708,0.800664,0.00197099,0.0410193,1889,1016,67.1539,-1.88928
672,8,67.1143,2.05994,0.00147713,0.00168047,0.00114794,0.00273124,0.000426364,0.829567,0.00169665,0.039332,1896,1016,67.1143,-2.05991
679,8,67.1536,2.25677,0.000812002,0.000992712,0.00131549,0.00222095,-0.000416234,0.819687,0.00163711,0.0372391,1903,1016,67.1536,-2.25679
686,8,67.0675,2.51172,0.000303122,0.000304334,0.00137288,0.00167661,-0.00106915,0.785619,0.00159815,0.0414705,1910,1016,67.0675,-2.51172
693,8,67.0071,2.42529,-4.20636e-05,-0.000285399,0.00134981,0.00119155,-0.00151901,0.740451,0.00156874,0.0408811,1917,1016,67.0071,-2.42527
700,8,67.1096,2.33228,-0.000300746,-0.000712646,0.00127009,0.000779983,-0.00179337,0.705021,0.00152365,0.030748,1924,1016,67.1096,-2.33226
707,8,67.1488,2.30707,-0.00103944,-0.000458309,0.00112204,0.000410179,-0.00190793,0.912096,0.00142845,0.0238009,1931,1016,67.1488,-2.30709
714,8,67.1472,2.27258,-0.00216743,0.000350933,0.000942813,0.000664785,-0.00248129,1.24945,0.00191465,0.0269506,1938,1016,67.1473,-2.27259
721,8,67.1431,2.26202,0,0,0,0,0,0,0,-1,1945,1016,67.1431,-2.262
728,8,52.1681,5.36774,0,0,0,0,0,0,0,-1,1952,1016,52.168,-5.36773
735,8,67.2061,6.70441,0,0,0,0,0,0,0,-1,1959,1016,67.206,-6.7044
742,8,67.1406,6.89429,0,0,0,0,0,0,0,-1,1966,1016,67.1406,-6.89427
749,8,67.3698,6.89252,0,0,0,0,0,0,0,-1,1973,1016,67.3697,-6.89254
756,8,67.2733,6.64343,-0.0093756,0.0186579,0.000683572,0.0186745,-0.00939226,1.54643,0.0164971,0.0381668,1980,1016,67.2733,-6.64344
763,8,67.1958,6.74573,-0.00980851,0.0261852,0.00143913,0.0262426,-0.00986596,1.5309,0.0215501,0.0166783,1987,1016,67.1958,-6.7457
770,8,67.0574,6.69031,-0.00923267,0.0371088,0.00304689,0.0373082,-0.00943214,1.50542,0.0285406,0.022249,1994,1016,67.0573,-6.69031
777,8,66.6858,6.6842,-0.00704673,0.051277,0.00592566,0.051873,-0.00764268,1.47056,0.0373908,0.0367562,2001,1016,66.6859,-6.68421
784,8,66.2869,6.68787,0,0,0,0,0,0,0,-1,2008,1016,66.2868,-6.68788
791,8,65.709,4.65314,0.00303058,0.0847678,0.0158428,0.0877311,6.72713e-05,1.38589,0.058465,0.0478409,2015,1016,65.7091,-4.65314
798,8,65.2463,5.61188,0.0125363,0.104995,0.0238337,0.110778,0.00675418,1.33279,0.0717064,0.0480107,2022,1016,65.2464,-5.6119
805,8,66.1704,5.84778,0,0,0,0,0,0,0,-1,2029,1016,66.1704,-5.84779
812,8,66.4736,4.72345,0,0,0,0,0,0,0,-1,2036,1016,66.4736,-4.72342
-700,1,0,0,0,0,0,0,0,0,0,-1,524,1023,0,0
-693,1,-53.5846,1.3078,-0.0270496,-0.0496007,-0.0525738,0.0154441,-0.0920944,-0.679763,0.0671391,0.0416799,531,1023,-53.5846,-1.30779
-686,1,-54.204,1.17371,-0.00864724,-0.0267856,-0.0384284,0.0217677,-0.0572005,-0.669518,0.0470973,0.0481336,538,1023,-54.204,-1.17373
-679,1,-53.2274,2.51434,0,0,0,0,0,0,0,-1,545,1023,-53.2274,-2.51437
-672,1,-52.4278,2.47668,0,0,0,0,0,0,0,-1,552,1023,-52.4278,-2.47667
-665,1,-51.6282,2.43896,0,0,0,0,0,0,0,-1,559,1023,-51.6282,-2.43898
-658,1,-52.6931,3.86841,0,0,0,0,0,0,0,-1,566,1023,-52.693,-3.86839
-651,1,-52.3962,4.13458,0,0,0,0,0,0,0,-1,573,1023,-52.3962,-4.13457
-644,1,-52.2765,4.41364,0,0,0,0,0,0,0,-1,580,1023,-52.2765,-4.41366
-637,1,-52.4924,4.3103,6.08424e-05,0.0153969,-0.00182872,0.0156119,-0.000154204,-1.45374,0.0104597,0.0412263,587,1023,-52.4924,-4.3103
-630,1,-52.7976,4.36646,-0.000756861,0.0141081,-0.000355486,0.0141166,-0.000765357,-1.5469,0.00967629,0.0364498,594,1023,-52.7976,-4.36645
-623,1,-52.6582,4.55975,-0.00303436,0.0112487,7.76568e-05,0.0112491,-0.00303479,1.56536,0.00868947,0.0178925,601,1023,-52.6582,-4.55978
-616,1,-52.8123,4.46484,-0.00420006,0.00795902,-0.000390262,0.00797153,-0.00421258,-1.53874,0.00714522,0.02249,608,1023,-52.8123,-4.46482
-609,1,-52.8298,4.5033,-0.00405811,0.00457291,-0.000487264,0.00460033,-0.00408553,-1.51458,0.00501772,0.0247373,615,1023,-52.8298,-4.50331
-602,1,-52.6143,4.64716,-0.00355929,0.00232894,-0.000817391,0.0024403,-0.00367065,-1.43539,0.00355192,0.0167205,622,1023,-52.6143,-4.64713
-595,1,-52.5262,4.72974,0,0,0,0,0,0,0,-1,629,1023,-52.5262,-4.72977
-588,1,-51.7491,0.458923,0,0,0,0,0,0,0,-1,636,1023,-51.7491,-0.458899
-581,1,-51.7877,0.445557,-0.00139884,-0.0011385,-0.00138459,0.000122023,-0.00265937,-0.832267,0.00181496,0.0309719,643,1023,-51.7877,-0.44555
-574,1,-51.7816,0.369263,-0.00103472,-0.00152612,-0.0014434,0.000183742,-0.00274458,-0.701094,0.00189394,0.0359588,650,1023,-51.7816,-0.369282
-567,1,-51.7327,0.469971,-0.000941996,-0.00142328,-0.00139982,0.000237713,-0.00260299,-0.700275,0.00181975,0.0392748,657,1023,-51.7327,-0.469947
-560,1,-51.6671,0.635193,-0.000945973,-0.000922057,-0.00131724,0.000383276,-0.00225131,-0.789937,0.00164359,0.0386249,664,1023,-51.6671,-0.635182
-553,1,-51.5809,0.439758,-0.00113907,-0.000234,-0.00129724,0.000687367,-0.00206044,-0.953222,0.00165115,0.040536,671,1023,-51.5808,-0.43975
-546,1,-51.5886,0.370667,-0.00151531,0.000229765,-0.00137517,0.000985849,-0.00227139,-1.0681,0.00192877,0.0441912,678,1023,-51.5885,-0.370642
-539,1,-51.6153,0.140747,-0.00243099,0.000181609,-0.00158396,0.000928444,-0.00317782,-1.13021,0.0024865,0.0445389,685,1023,-51.6153,-0.140739
-532,1,-51.7041,-0.149414,-0.00318396,0.000402513,-0.00190546,0.00122585,-0.0040073,-1.16293,0.00316042,0.0452213,692,1023,-51.7041,0.149421
-525,1,0,0,0,0,0,0,0,0,0,-1,699,1023,0,0
-518,1,0,0,0,0,0,0,0,0,0,-1,706,1023,0,0
-511,1,0,0,0,0,0,0,0,0,0,-1,713,1023,0,0
-504,1,0,0,0,0,0,0,0,0,0,-1,720,1023,0,0
-497,1,0,0,0,0,0,0,0,0,0,-1,727,1023,0,0
-490,1,0,0,0,0,0,0,0,0,0,-1,734,1023,0,0
-483,1,0,0,0,0,0,0,0,0,0,-1,741,1023,0,0
-476,1,0,0,0,0,0,0,0,0,0,-1,748,1023,0,0
-469,1,0,0,0,0,0,0,0,0,0,-1,755,1023,0,0
-462,1,0,0,0,0,0,0,0,0,0,-1,762,1023,0,0
-455,1,0,0,0,0,0,0,0,0,0,-1,769,1023,0,0
-448,1,0,0,0,0,0,0,0,0,0,-1,776,1023,0,0
-441,1,0,0,0,0,0,0,0,0,0,-1,783,1023,0,0
-434,1,0,0,0,0,0,0,0,0,0,-1,790,1023,0,0
-427,1,0,0,0,0,0,0,0,0,0,-1,797,1023,0,0
-420,1,0,0,0,0,0,0,0,0,0,-1,804,1023,0,0
-413,1,0,0,0,0,0,0,0,0,0,-1,811,1023,0,0
-406,1,0,0,0,0,0,0,0,0,0,-1,818,1023,0,0
-399,1,0,0,0,0,0,0,0,0,0,-1,825,1023,0,0
-392,1,0,0,0,0,0,0,0,0,0,-1,832,1023,0,0
-385,1,0,0,0,0,0,0,0,0,0,-1,839,1023,0,0
-378,1,0,0,0,0,0,0,0,0,0,-1,846,1023,0,0
-371,1,0,0,0,0,0,0,0,0,0,-1,853,1023,0,0
-364,1,0,0,0,0,0,0,0,0,0,-1,860,1023,0,0
-357,1,0,0,0,0,0,0,0,0,0,-1,867,1023,0,0
-350,1,0,0,0,0,0,0,0,0,0,-1,874,1023,0,0
-343,1,0,0,0,0,0,0,0,0,0,-1,881,1023,0,0
-336,1,0,0,0,0,0,0,0,0,0,-1,888,1023,0,0
-329,1,0,0,0,0,0,0,0,0,0,-1,895,1023,0,0
-322,1,0,0,0,0,0,0,0,0,0,-1,902,1023,0,0
-315,1,0,0,0,0,0,0,0,0,0,-1,909,1023,0,0
-308,1,0,0,0,0,0,0,0,0,0,-1,916,1023,0,0
-301,1,0,0,0,0,0,0,0,0,0,-1,923,1023,0,0
-294,1,0,0,0,0,0,0,0,0,0,-1,930,1023,0,0
-287,1,0,0,0,0,0,0,0,0,0,-1,937,1023,0,0
-280,1,0,0,0,0,0,0,0,0,0,-1,944,1023,0,0
-273,1,0,0,0,0,0,0,0,0,0,-1,951,1023,0,0
-266,1,0,0,0,0,0,0,0,0,0,-1,958,1023,0,0
-259,1,0,0,0,0,0,0,0,0,0,-1,965,1023,0,0
-252,1,0,0,0,0,0,0,0,0,0,-1,972,1023,0,0
-245,1,0,0,0,0,0,0,0,0,0,-1,979,1023,0,0
-238,1,0,0,0,0,0,0,0,0,0,-1,986,1023,0,0
-231,1,0,0,0,0,0,0,0,0,0,-1,993,1023,0,0
-224,1,0,0,0,0,0,0,0,0,0,-1,1000,1023,0,0
-217,1,0,0,0,0,0,0,0,0,0,-1,1007,1023,0,0
-210,1,0,0,0,0,0,0,0,0,0,-1,1014,1023,0,0
-203,1,0,0,0,0,0,0,0,0,0,-1,1021,1023,0,0
-196,1,0,0,0,0,0,0,0,0,0,-1,1028,1023,0,0
-189,1,0,0,0,0,0,0,0,0,0,-1,1035,1023,0,0
-182,1,0,0,0,0,0,0,0,0,0,-1,1042,1023,0,0
-175,1,0,0,0,0,0,0,0,0,0,-1,1049,1023,0,0
-168,1,0,0,0,0,0,0,0,0,0,-1,1056,1023,0,0
-161,1,0,0,0,0,0,0,0,0,0,-1,1063,1023,0,0
-154,1,0,0,0,0,0,0,0,0,0,-1,1070,1023,0,0
-147,1,0,0,0,0,0,0,0,0,0,-1,1077,1023,0,0
-140,1,0,0,0,0,0,0,0,0,0,-1,1084,1023,0,0
-133,1,0,0,0,0,0,0,0,0,0,-1,1091,1023,0,0
-126,1,0,0,0,0,0,0,0,0,0,-1,1098,1023,0,0
-119,1,0,0,0,0,0,0,0,0,0,-1,1105,1023,0,0
-112,1,0,0,0,0,0,0,0,0,0,-1,1112,1023,0,0
-105,1,0,0,0,0,0,0,0,0,0,-1,1119,1023,0,0
-98,1,0,0,0,0,0,0,0,0,0,-1,1126,1023,0,0
-91,1,0,0,0,0,0,0,0,0,0,-1,1133,1023,0,0
-84,1,0,0,0,0,0,0,0,0,0,-1,1140,1023,0,0
-77,1,0,0,0,0,0,0,0,0,0,-1,1147,1023,0,0
-70,1,0,0,0,0,0,0,0,0,0,-1,1154,1023,0,0
-63,1,0,0,0,0,0,0,0,0,0,-1,1161,1023,0,0
-56,1,0,0,0,0,0,0,0,0,0,-1,1168,1023,0,0
-49,1,0,0,0,0,0,0,0,0,0,-1,1175,1023,0,0
-42,1,0,0,0,0,0,0,0,0,0,-1,1182,1023,0,0
-35,1,0,0,0,0,0,0,0,0,0,-1,1189,1023,0,0
-28,1,0,0,0,0,0,0,0,0,0,-1,1196,1023,0,0
-21,1,0,0,0,0,0,0,0,0,0,-1,1203,1023,0,0
-14,1,0,0,0,0,0,0,0,0,0,-1,1210,1023,0,0
-7,1,0,0,0,0,0,0,0,0,0,-1,1217,1023,0,0
0,1,0,0,0,0,0,0,0,0,0,-1,1224,1023,0,0
7,1,0,0,0,0,0,0,0,0,0,-1,1231,1023,0,0
14,1,0,0,0,0,0,0,0,0,0,-1,1238,1023,0,0
21,1,0,0,0,0,0,0,0,0,0,-1,1245,1023,0,0
28,1,0,0,0,0,0,0,0,0,0,-1,1252,1023,0,0
35,1,0,0,0,0,0,0,0,0,0,-1,1259,1023,0,0
42,1,0,0,0,0,0,0,0,0,0,-1,1266,1023,0,0
49,1,0,0,0,0,0,0,0,0,0,-1,1273,1023,0,0
56,1,0,0,0,0,0,0,0,0,0,-1,1280,1023,0,0
63,1,0,0,0,0,0,0,0,0,0,-1,1287,1023,0,0
70,1,0,0,0,0,0,0,0,0,0,-1,1294,1023,0,0
77,1,0,0,0,0,0,0,0,0,0,-1,1301,1023,0,0
84,1,0,0,0,0,0,0,0,0,0,-1,1308,1023,0,0
91,1,0,0,0,0,0,0,0,0,0,-1,1315,1023,0,0
98,1,0,0,0,0,0,0,0,0,0,-1,1322,1023,0,0
105,1,0,0,0,0,0,0,0,0,0,-1,1329,1023,0,0
112,1,0,0,0,0,0,0,0,0,0,-1,1336,1023,0,0
119,1,0,0,0,0,0,0,0,0,0,-1,1343,1023,0,0
126,1,0,0,0,0,0,0,0,0,0,-1,1350,1023,0,0
133,1,0,0,0,0,0,0,0,0,0,-1,1357,1023,0,0
140,1,0,0,0,0,0,0,0,0,0,-1,1364,1023,0,0
147,1,0,0,0,0,0,0,0,0,0,-1,1371,1023,0,0
154,1,0,0,0,0,0,0,0,0,0,-1,1378,1023,0,0
161,1,0,0,0,0,0,0,0,0,0,-1,1385,1023,0,0
168,1,0,0,0,0,0,0,0,0,0,-1,1392,1023,0,0
175,1,0,0,0,0,0,0,0,0,0,-1,1399,1023,0,0
182,1,0,0,0,0,0,0,0,0,0,-1,1406,1023,0,0
189,1,0,0,0,0,0,0,0,0,0,-1,1413,1023,0,0
196,1,0,0,0,0,0,0,0,0,0,-1,1420,1023,0,0
203,1,0,0,0,0,0,0,0,0,0,-1,1427,1023,0,0
210,1,0,0,0,0,0,0,0,0,0,-1,1434,1023,0,0
217,1,0,0,0,0,0,0,0,0,0,-1,1441,1023,0,0
224,1,0,0,0,0,0,0,0,0,0,-1,1448,1023,0,0
231,1,0,0,0,0,0,0,0,0,0,-1,1455,1023,0,0
238,1,0,0,0,0,0,0,0,0,0,-1,1462,1023,0,0
245,1,0,0,0,0,0,0,0,0,0,-1,1469,1023,0,0
252,1,0,0,0,0,0,0,0,0,0,-1,1476,1023,0,0
259,1,0,0,0,0,0,0,0,0,0,-1,1483,1023,0,0
266,1,0,0,0,0,0,0,0,0,0,-1,1490,1023,0,0
273,1,0,0,0,0,0,0,0,0,0,-1,1497,1023,0,0
280,1,0,0,0,0,0,0,0,0,0,-1,1504,1023,0,0
287,1,0,0,0,0,0,0,0,0,0,-1,1511,1023,0,0
294,1,0,0,0,0,0,0,0,0,0,-1,1518,1023,0,0
301,1,0,0,0,0,0,0,0,0,0,-1,1525,1023,0,0
308,1,0,0,0,0,0,0,0,0,0,-1,1532,1023,0,0
315,1,0,0,0,0,0,0,0,0,0,-1,1539,1023,0,0
322,1,0,0,0,0,0,0,0,0,0,-1,1546,1023,0,0
329,1,0,0,0,0,0,0,0,0,0,-1,1553,1023,0,0
336,1,0,0,0,0,0,0,0,0,0,-1,1560,1023,0,0
343,1,0,0,0,0,0,0,0,0,0,-1,1567,1023,0,0
350,1,0,0,0,0,0,0,0,0,0,-1,1574,1023,0,0
357,1,0,0,0,0,0,0,0,0,0,-1,1581,1023,0,0
364,1,0,0,0,0,0,0,0,0,0,-1,1588,1023,0,0
371,1,0,0,0,0,0,0,0,0,0,-1,1595,1023,0,0
378,1,0,0,0,0,0,0,0,0,0,-1,1602,1023,0,0
385,1,0,0,0,0,0,0,0,0,0,-1,1609,1023,0,0
392,1,0,0,0,0,0,0,0,0,0,-1,1616,1023,0,0
399,1,0,0,0,0,0,0,0,0,0,-1,1623,1023,0,0
406,1,0,0,0,0,0,0,0,0,0,-1,1630,1023,0,0
413,1,0,0,0,0,0,0,0,0,0,-1,1637,1023,0,0
420,1,0,0,0,0,0,0,0,0,0,-1,1644,1023,0,0
427,1,0,0,0,0,0,0,0,0,0,-1,1651,1023,0,0
434,1,0,0,0,0,0,0,0,0,0,-1,1658,1023,0,0
441,1,0,0,0,0,0,0,0,0,0,-1,1665,1023,0,0
448,1,0,0,0,0,0,0,0,0,0,-1,1672,1023,0,0
455,1,0,0,0,0,0,0,0,0,0,-1,1679,1023,0,0
462,1,0,0,0,0,0,0,0,0,0,-1,1686,1023,0,0
469,1,0,0,0,0,0,0,0,0,0,-1,1693,1023,0,0
476,1,0,0,0,0,0,0,0,0,0,-1,1700,1023,0,0
483,1,0,0,0,0,0,0,0,0,0,-1,1707,1023,0,0
490,1,0,0,0,0,0,0,0,0,0,-1,1714,1023,0,0
497,1,0,0,0,0,0,0,0,0,0,-1,1721,1023,0,0
504,1,0,0,0,0,0,0,0,0,0,-1,1728,1023,0,0
511,1,0,0,0,0,0,0,0,0,0,-1,1735,1023,0,0
518,1,0,0,0,0,0,0,0,0,0,-1,1742,1023,0,0
525,1,0,0,0,0,0,0,0,0,0,-1,1749,1023,0,0
532,1,0,0,0,0,0,0,0,0,0,-1,1756,1023,0,0
539,1,0,0,0,0,0,0,0,0,0,-1,1763,1023,0,0
546,1,0,0,0,0,0,0,0,0,0,-1,1770,1023,0,0
553,1,0,0,0,0,0,0,0,0,0,-1,1777,1023,0,0
560,1,0,0,0,0,0,0,0,0,0,-1,1784,1023,0,0
567,1,0,0,0,0,0,0,0,0,0,-1,1791,1023,0,0
574,1,0,0,0,0,0,0,0,0,0,-1,1798,1023,0,0
581,1,0,0,0,0,0,0,0,0,0,-1,1805,1023,0,0
588,1,0,0,0,0,0,0,0,0,0,-1,1812,1023,0,0
595,1,0,0,0,0,0,0,0,0,0,-1,1819,1023,0,0
602,1,0,0,0,0,0,0,0,0,0,-1,1826,1023,0,0
609,1,0,0,0,0,0,0,0,0,0,-1,1833,1023,0,0
616,1,0,0,0,0,0,0,0,0,0,-1,1840,1023,0,0
623,1,0,0,0,0,0,0,0,0,0,-1,1847,1023,0,0
630,1,0,0,0,0,0,0,0,0,0,-1,1854,1023,0,0
637,1,0,0,0,0,0,0,0,0,0,-1,1861,1023,0,0
644,1,0,0,0,0,0,0,0,0,0,-1,1868,1023,0,0
651,1,67.1855,2.30389,0.00531492,0.00568942,0.000487894,0.00602476,0.00497958,0.968623,0.00371742,0.0375573,1875,1023,67.1855,-2.30389
658,1,67.1747,2.16632,0.00357782,0.00392493,0.000880174,0.00464849,0.00285425,0.88274,0.00270697,0.03908,1882,1023,67.1747,-2.16634
665,1,67.2382,2.20782,0.00238152,0.00269473,0.00107745,0.00362689,0.00144936,0.857568,0.00210801,0.0441281,1889,1023,67.2382,-2.20785
672,1,67.2139,2.29547,0.00149134,0.00186529,0.00120736,0.00290007,0.000456561,0.862218,0.00180059,0.0430293,1896,1023,67.2138,-2.29544
679,1,67.0771,2.37109,0.000877587,0.00118845,0.00126933,0.00231182,-0.000245789,0.84632,0.00162934,0.0383048,1903,1023,67.0772,-2.37111
686,1,66.9934,2.50696,0.000313142,0.000471309,0.00125054,0.00164526,-0.000860813,0.816976,0.00147032,0.039081,1910,1023,66.9934,-2.50694
693,1,67.0796,2.51721,-0.000106976,-0.000158442,0.00119379,0.00106136,-0.00132678,0.774622,0.00138163,0.0386048,1917,1023,67.0796,-2.51724
700,1,67.1553,2.42603,-0.000410146,-0.000645772,0.00112425,0.000602448,-0.00165837,0.733193,0.0013519,0.0317131,1924,1023,67.1553,-2.426
707,1,67.1622,2.2901,-0.00119668,-0.000441026,0.00103614,0.000284023,-0.00192173,0.960232,0.00138557,0.0253054,1931,1023,67.1622,-2.29012
714,1,67.1272,2.19727,-0.00234848,0.000319945,0.000933822,0.000614274,-0.00264281,1.26547,0.00199835,0.0262762,1938,1023,67.1272,-2.19727
721,1,67.1979,2.198,0,0,0,0,0,0,0,-1,1945,1023,67.1979,-2.19801
728,1,52.4639,5.59277,0,0,0,0,0,0,0,-1,1952,1023,52.4639,-5.59276
735,1,53.3617,6.10699,0,0,0,0,0,0,0,-1,1959,1023,53.3617,-6.10698
742,1,52.4393,5.81525,0,0,0,0,0,0,0,-1,1966,1023,52.4393,-5.81527
749,1,67.4546,6.55646,0,0,0,0,0,0,0,-1,1973,1023,67.4546,-6.55648
756,1,67.3516,6.69373,-0.00957106,0.0176331,0.00103856,0.0176727,-0.00961065,1.53269,0.0159797,0.0411844,1980,1023,67.3515,-6.69373
763,1,67.1377,6.62378,-0.00992595,0.0247255,0.00176903,0.0248156,-0.010016,1.51992,0.0207063,0.0177891,1987,1023,67.1376,-6.62381
770,1,67.0793,6.54926,-0.00926549,0.0347968,0.00316923,0.0350236,-0.00949227,1.49936,0.0270736,0.0199545,1994,1023,67.0794,-6.54923
777,1,66.7703,6.39606,-0.00690238,0.0481283,0.00573685,0.04872,-0.00749407,1.46802,0.0352446,0.0270162,2001,1023,66.7702,-6.39605
784,1,66.3025,6.42773,-0.00300085,0.062723,0.00925101,0.0640004,-0.00427816,1.43359,0.0441621,0.0479068,2008,1023,66.3024,-6.42775
791,1,66.6577,6.29657,0,0,0,0,0,0,0,-1,2015,1023,66.6578,-6.29655
798,1,64.606,5.08728,0,0,0,0,0,0,0,-1,2022,1023,64.606,-5.08729
805,1,66.3394,4.29169,0,0,0,0,0,0,0,-1,2029,1023,66.3393,-4.29168
812,1,66.9617,4.29767,0,0,0,0,0,0,0,-1,2036,1023,66.9617,-4.29769
-700,-6,0,0,0,0,0,0,0,0,0,-1,524,1030,0,0
-693,-6,-52.7168,1.72302,-0.0406632,-0.055112,-0.0564216,0.00899464,-0.10477,-0.721723,0.0730296,0.0425116,531,1030,-52.7168,-1.72304
-686,-6,-53.2724,1.60767,-0.0198112,-0.0300827,-0.0414889,0.0168586,-0.0667525,-0.723819,0.0510575,0.046709,538,1030,-53.2724,-1.6077
-679,-6,-52.9655,2.55322,0,0,0,0,0,0,0,-1,545,1030,-52.9654,-2.55325
-672,-6,-52.6192,2.40906,-0.0044088,-0.00224517,-0.0231454,0.0198437,-0.0264976,-0.808751,0.0268469,0.0494531,552,1030,-52.6192,-2.40908
-665,-6,-52.9938,3.08057,-0.00173196,0.00552012,-0.0170154,0.0192916,-0.0155034,-0.890379,0.0201285,0.049835,559,1030,-52.9938,-3.08058
-658,-6,-52.6665,3.47693,0,0,0,0,0,0,0,-1,566,1030,-52.6665,-3.47687
-651,-6,-52.3996,3.82007,0,0,0,0,0,0,0,-1,573,1030,-52.3996,-3.82013
-644,-6,-52.1104,4.5741,0,0,0,0,0,0,0,-1,580,1030,-52.1104,-4.57413
-637,-6,-52.4391,4.41187,5.90674e-05,0.0157163,-0.00216701,0.0160107,-0.000235317,-1.43577,0.0107531,0.046258,587,1030,-52.4391,-4.41191
-630,-6,-52.5986,4.33032,-0.000298713,0.0142507,-0.000542488,0.0142709,-0.000318911,-1.53358,0.00962199,0.0262528,594,1030,-52.5986,-4.33027
-623,-6,-52.5705,4.46887,-0.00217378,0.0111138,-1.18406e-05,0.0111138,-0.00217379,-1.56991,0.00823005,0.0197192,601,1030,-52.5705,-4.46886
-616,-6,-52.6467,4.47327,-0.00322999,0.00749594,-0.000452925,0.00751503,-0.00324908,-1.52867,0.00637527,0.0226858,608,1030,-52.6467,-4.4733
-609,-6,-52.6295,4.61792,-0.0032866,0.00394446,-0.0004876,0.00397719,-0.00331933,-1.50377,0.00421835,0.0230892,615,1030,-52.6295,-4.61794
-602,-6,-52.5034,4.77075,-0.00296691,0.00162304,-0.000722159,0.00173398,-0.00307785,-1.41837,0.00281399,0.0158136,622,1030,-52.5034,-4.7708
-595,-6,-52.5255,4.86267,0,0,0,0,0,0,0,-1,629,1030,-52.5255,-4.86269
-588,-6,-51.8331,0.598022,0,0,0,0,0,0,0,-1,636,1030,-51.8331,-0.597988
-581,-6,-51.8372,0.499268,-0.00115544,-0.0017392,-0.00112776,-0.000282399,-0.00261223,-0.658769,0.0016554,0.0252237,643,1030,-51.8371,-0.499281
-574,-6,-51.8328,0.514404,-0.000894335,-0.00202542,-0.00113077,-0.000195568,-0.00272419,-0.553518,0.00175457,0.0323224,650,1030,-51.8328,-0.514457
-567,-6,-51.8683,0.606323,-0.000929897,-0.00178765,-0.00107615,-0.00020031,-0.00251724,-0.595779,0.00161554,0.0388292,657,1030,-51.8683,-0.606371
-560,-6,-51.7748,0.598022,-0.00110575,-0.00111457,-0.00103067,-7.94801e-05,-0.00214084,-0.783258,0.00140149,0.0391312,664,1030,-51.7748,-0.598076
-553,-6,-51.6807,0.468018,-0.00148743,-0.000236303,-0.00111072,0.000412898,-0.00213663,-1.04186,0.00158014,0.0395771,671,1030,-51.6806,-0.467983
-546,-6,-51.728,0.410278,-0.00203853,0.000432864,-0.00137664,0.00104706,-0.00265272,-1.15115,0.0022021,0.0428583,678,1030,-51.728,-0.410229
-539,-6,-51.7376,0.535034,-0.00307775,0.000540511,-0.00185631,0.00132345,-0.00386069,-1.17166,0.00311026,0.0442096,685,1030,-51.7376,-0.534984
-532,-6,-51.7115,0.468262,-0.00396951,0.000806313,-0.00227392,0.0017158,-0.004879,-1.19032,0.00395081,0.0458806,692,1030,-51.7115,-0.468283
-525,-6,0,0,0,0,0,0,0,0,0,-1,699,1030,0,0
-518,-6,0,0,0,0,0,0,0,0,0,-1,706,1030,0,0
-511,-6,0,0,0,0,0,0,0,0,0,-1,713,1030,0,0
-504,-6,0,0,0,0,0,0,0,0,0,-1,720,1030,0,0
-497,-6,0,0,0,0,0,0,0,0,0,-1,727,1030,0,0
-490,-6,0,0,0,0,0,0,0,0,0,-1,734,1030,0,0
-483,-6,0,0,0,0,0,0,0,0,0,-1,741,1030,0,0
-476,-6,0,0,0,0,0,0,0,0,0,-1,748,1030,0,0
-469,-6,0,0,0,0,0,0,0,0,0,-1,755,1030,0,0
-462,-6,0,0,0,0,0,0,0,0,0,-1,762,1030,0,0
-455,-6,0,0,0,0,0,0,0,0,0,-1,769,1030,0,0
-448,-6,0,0,0,0,0,0,0,0,0,-1,776,1030,0,0
-441,-6,0,0,0,0,0,0,0,0,0,-1,783,1030,0,0
-434,-6,0,0,0,0,0,0,0,0,0,-1,790,1030,0,0
-427,-6,0,0,0,0,0,0,0,0,0,-1,797,1030,0,0
-420,-6,0,0,0,0,0,0,0,0,0,-1,804,1030,0,0
-413,-6,0,0,0,0,0,0,0,0,0,-1,811,1030,0,0
-406,-6,0,0,0,0,0,0,0,0,0,-1,818,1030,0,0
-399,-6,0,0,0,0,0,0,0,0,0,-1,825,1030,0,0
-392,-6,0,0,0,0,0,0,0,0,0,-1,832,1030,0,0
-385,-6,0,0,0,0,0,0,0,0,0,-1,839,1030,0,0
-378,-6,0,0,0,0,0,0,0,0,0,-1,846,1030,0,0
-371,-6,0,0,0,0,0,0,0,0,0,-1,853,1030,0,0
-364,-6,0,0,0,0,0,0,0,0,0,-1,860,1030,0,0
-357,-6,0,0,0,0,0,0,0,0,0,-1,867,1030,0,0
-350,-6,0,0,0,0,0,0,0,0,0,-1,874,1030,0,0
-343,-6,0,0,0,0,0,0,0,0,0,-1,881,1030,0,0
-336,-6,0,0,0,0,0,0,0,0,0,-1,888,1030,0,0
-329,-6,0,0,0,0,0,0,0,0,0,-1,895,1030,0,0
-322,-6,0,0,0,0,0,0,0,0,0,-1,902,1030,0,0
-315,-6,0,0,0,0,0,0,0,0,0,-1,909,1030,0,0
-308,-6,0,0,0,0,0,0,0,0,0,-1,916,1030,0,0
-301,-6,0,0,0,0,0,0,0,0,0,-1,923,1030,0,0
-294,-6,0,0,0,0,0,0,0,0,0,-1,930,1030,0,0
-287,-6,0,0,0,0,0,0,0,0,0,-1,937,1030,0,0
-280,-6,0,0,0,0,0,0,0,0,0,-1,944,1030,0,0
-273,-6,0,0,0,0,0,0,0,0,0,-1,951,1030,0,0
-266,-6,0,0,0,0,0,0,0,0,0,-1,958,1030,0,0
-259,-6,0,0,0,0,0,0,0,0,0,-1,965,1030,0,0
-252,-6,0,0,0,0,0,0,0,0,0,-1,972,1030,0,0
-245,-6,0,0,0,0,0,0,0,0,0,-1,979,1030,0,0
-238,-6,0,0,0,0,0,0,0,0,0,-1,986,1030,0,0
-231,-6,0,0,0,0,0,0,0,0,0,-1,993,1030,0,0
-224,-6,0,0,0,0,0,0,0,0,0,-1,1000,1030,0,0
-217,-6,0,0,0,0,0,0,0,0,0,-1,1007,1030,0,0
-210,-6,0,0,0,0,0,0,0,0,0,-1,1014,1030,0,0
-203,-6,0,0,0,0,0,0,0,0,0,-1,1021,1030,0,0
-196,-6,0,0,0,0,0,0,0,0,0,-1,1028,1030,0,0
-189,-6,0,0,0,0,0,0,0,0,0,-1,1035,1030,0,0
-182,-6,0,0,0,0,0,0,0,0,0,-1,1042,1030,0,0
-175,-6,0,0,0,0,0,0,0,0,0,-1,1049,1030,0,0
-168,-6,0,0,0,0,0,0,0,0,0,-1,1056,1030,0,0
-161,-6,0,0,0,0,0,0,0,0,0,-1,1063,1030,0,0
-154,-6,0,0,0,0,0,0,0,0,0,-1,1070,1030,0,0
-147,-6,0,0,0,0,0,0,0,0,0,-1,1077,1030,0,0
-140,-6,0,0,0,0,0,0,0,0,0,-1,1084,1030,0,0
-133,-6,0,0,0,0,0,0,0,0,0,-1,1091,1030,0,0
-126,-6,0,0,0,0,0,0,0,0,0,-1,1098,1030,0,0
-119,-6,0,0,0,0,0,0,0,0,0,-1,1105,1030,0,0
-112,-6,0,0,0,0,0,0,0,0,0,-1,1112,1030,0,0
-105,-6,0,0,0,0,0,0,0,0,0,-1,1119,1030,0,0
-98,-6,0,0,0,0,0,0,0,0,0,-1,1126,1030,0,0
-91,-6,0,0,0,0,0,0,0,0,0,-1,1133,1030,0,0
-84,-6,0,0,0,0,0,0,0,0,0,-1,1140,1030,0,0
-77,-6,0,0,0,0,0,0,0,0,0,-1,1147,1030,0,0
-70,-6,0,0,0,0,0,0,0,0,0,-1,1154,1030,0,0
-63,-6,0,0,0,0,0,0,0,0,0,-1,1161,1030,0,0
-56,-6,0,0,0,0,0,0,0,0,0,-1,1168,1030,0,0
-49,-6,0,0,0,0,0,0,0,0,0,-1,1175,1030,0,0
-42,-6,0,0,0,0,0,0,0,0,0,-1,1182,1030,0,0
-35,-6,0,0,0,0,0,0,0,0,0,-1,1189,1030,0,0
-28,-6,0,0,0,0,0,0,0,0,0,-1,1196,1030,0,0
-21,-6,0,0,0,0,0,0,0,0,0,-1,1203,1030,0,0
-14,-6,0,0,0,0,0,0,0,0,0,-1,1210,1030,0,0
-7,-6,0,0,0,0,0,0,0,0,0,-1,1217,1030,0,0
0,-6,0,0,0,0,0,0,0,0,0,-1,1224,1030,0,0
7,-6,0,0,0,0,0,0,0,0,0,-1,1231,1030,0,0
14,-6,0,0,0,0,0,0,0,0,0,-1,1238,1030,0,0
21,-6,0,0,0,0,0,0,0,0,0,-1,1245,1030,0,0
28,-6,0,0,0,0,0,0,0,0,0,-1,1252,1030,0,0
35,-6,0,0,0,0,0,0,0,0,0,-1,1259,1030,0,0
42,-6,0,0,0,0,0,0,0,0,0,-1,1266,1030,0,0
49,-6,0,0,0,0,0,0,0,0,0,-1,1273,1030,0,0
56,-6,0,0,0,0,0,0,0,0,0,-1,1280,1030,0,0
63,-6,0,0,0,0,0,0,0,0,0,-1,1287,1030,0,0
70,-6,0,0,0,0,0,0,0,0,0,-1,1294,1030,0,0
77,-6,0,0,0,0,0,0,0,0,0,-1,1301,1030,0,0
84,-6,0,0,0,0,0,0,0,0,0,-1,1308,1030,0,0
91,-6,0,0,0,0,0,0,0,0,0,-1,1315,1030,0,0
98,-6,0,0,0,0,0,0,0,0,0,-1,1322,1030,0,0
105,-6,0,0,0,0,0,0,0,0,0,-1,1329,1030,0,0
112,-6,0,0,0,0,0,0,0,0,0,-1,1336,1030,0,0
119,-6,0,0,0,0,0,0,0,0,0,-1,1343,1030,0,0
126,-6,0,0,0,0,0,0,0,0,0,-1,1350,1030,0,0
133,-6,0,0,0,0,0,0,0,0,0,-1,1357,1030,0,0
140,-6,0,0,0,0,0,0,0,0,0,-1,1364,1030,0,0
147,-6,0,0,0,0,0,0,0,0,0,-1,1371,1030,0,0
154,-6,0,0,0,0,0,0,0,0,0,-1,1378,1030,0,0
161,-6,0,0,0,0,0,0,0,0,0,-1,1385,1030,0,0
168,-6,0,0,0,0,0,0,0,0,0,-1,1392,1030,0,0
175,-6,0,0,0,0,0,0,0,0,0,-1,1399,1030,0,0
182,-6,0,0,0,0,0,0,0,0,0,-1,1406,1030,0,0
189,-6,0,0,0,0,0,0,0,0,0,-1,1413,1030,0,0
196,-6,0,0,0,0,0,0,0,0,0,-1,1420,1030,0,0
203,-6,0,0,0,0,0,0,0,0,0,-1,1427,1030,0,0
210,-6,0,0,0,0,0,0,0,0,0,-1,1434,1030,0,0
217,-6,0,0,0,0,0,0,0,0,0,-1,1441,1030,0,0
224,-6,0,0,0,0,0,0,0,0,0,-1,1448,1030,0,0
231,-6,0,0,0,0,0,0,0,0,0,-1,1455,1030,0,0
238,-6,0,0,0,0,0,0,0,0,0,-1,1462,1030,0,0
245,-6,0,0,0,0,0,0,0,0,0,-1,1469,1030,0,0
252,-6,0,0,0,0,0,0,0,0,0,-1,1476,1030,0,0
259,-6,0,0,0,0,0,0,0,0,0,-1,1483,1030,0,0
266,-6,0,0,0,0,0,0,0,0,0,-1,1490,1030,0,0
273,-6,0,0,0,0,0,0,0,0,0,-1,1497,1030,0,0
280,-6,0,0,0,0,0,0,0,0,0,-1,1504,1030,0,0
287,-6,0,0,0,0,0,0,0,0,0,-1,1511,1030,0,0
294,-6,0,0,0,0,0,0,0,0,0,-1,1518,1030,0,0
301,-6,0,0,0,0,0,0,0,0,0,-1,1525,1030,0,0
308,-6,0,0,0,0,0,0,0,0,0,-1,1532,1030,0,0
315,-6,0,0,0,0,0,0,0,0,0,-1,1539,1030,0,0
322,-6,0,0,0,0,0,0,0,0,0,-1,1546,1030,0,0
329,-6,0,0,0,0,0,0,0,0,0,-1,1553,1030,0,0
336,-6,0,0,0,0,0,0,0,0,0,-1,1560,1030,0,0
343,-6,0,0,0,0,0,0,0,0,0,-1,1567,1030,0,0
350,-6,0,0,0,0,0,0,0,0,0,-1,1574,1030,0,0
357,-6,0,0,0,0,0,0,0,0,0,-1,1581,1030,0,0
364,-6,0,0,0,0,0,0,0,0,0,-1,1588,1030,0,0
371,-6,0,0,0,0,0,0,0,0,0,-1,1595,1030,0,0
378,-6,0,0,0,0,0,0,0,0,0,-1,1602,1030,0,0
385,-6,0,0,0,0,0,0,0,0,0,-1,1609,1030,0,0
392,-6,0,0,0,0,0,0,0,0,0,-1,1616,1030,0,0
399,-6,0,0,0,0,0,0,0,0,0,-1,1623,1030,0,0
406,-6,0,0,0,0,0,0,0,0,0,-1,1630,1030,0,0
413,-6,0,0,0,0,0,0,0,0,0,-1,1637,1030,0,0
420,-6,0,0,0,0,0,0,0,0,0,-1,1644,1030,0,0
427,-6,0,0,0,0,0,0,0,0,0,-1,1651,1030,0,0
434,-6,0,0,0,0,0,0,0,0,0,-1,1658,1030,0,0
441,-6,0,0,0,0,0,0,0,0,0,-1,1665,1030,0,0
448,-6,0,0,0,0,0,0,0,0,0,-1,1672,1030,0,0
455,-6,0,0,0,0,0,0,0,0,0,-1,1679,1030,0,0
462,-6,0,0,0,0,0,0,0,0,0,-1,1686,1030,0,0
469,-6,0,0,0,0,0,0,0,0,0,-1,1693,1030,0,0
476,-6,0,0,0,0,0,0,0,0,0,-1,1700,1030,0,0
483,-6,0,0,0,0,0,0,0,0,0,-1,1707,1030,0,0
490,-6,0,0,0,0,0,0,0,0,0,-1,1714,1030,0,0
497,-6,0,0,0,0,0,0,0,0,0,-1,1721,1030,0,0
504,-6,0,0,0,0,0,0,0,0,0,-1,1728,1030,0,0
511,-6,0,0,0,0,0,0,0,0,0,-1,1735,1030,0,0
518,-6,0,0,0,0,0,0,0,0,0,-1,1742,1030,0,0
525,-6,0,0,0,0,0,0,0,0,0,-1,1749,1030,0,0
532,-6,0,0,0,0,0,0,0,0,0,-1,1756,1030,0,0
539,-6,0,0,0,0,0,0,0,0,0,-1,1763,1030,0,0
546,-6,0,0,0,0,0,0,0,0,0,-1,1770,1030,0,0
553,-6,0,0,0,0,0,0,0,0,0,-1,1777,1030,0,0
560,-6,0,0,0,0,0,0,0,0,0,-1,1784,1030,0,0
567,-6,0,0,0,0,0,0,0,0,0,-1,1791,1030,0,0
574,-6,0,0,0,0,0,0,0,0,0,-1,1798,1030,0,0
581,-6,0,0,0,0,0,0,0,0,0,-1,1805,1030,0,0
588,-6,0,0,0,0,0,0,0,0,0,-1,1812,1030,0,0
595,-6,0,0,0,0,0,0,0,0,0,-1,1819,1030,0,0
602,-6,0,0,0,0,0,0,0,0,0,-1,1826,1030,0,0
609,-6,0,0,0,0,0,0,0,0,0,-1,1833,1030,0,0
616,-6,0,0,0,0,0,0,0,0,0,-1,1840,1030,0,0
623,-6,0,0,0,0,0,0,0,0,0,-1,1847,1030,0,0
630,-6,0,0,0,0,0,0,0,0,0,-1,1854,1030,0,0
637,-6,0,0,0,0,0,0,0,0,0,-1,1861,1030,0,0
644,-6,0,0,0,0,0,0,0,0,0,-1,1868,1030,0,0
651,-6,67.12,2.23059,0.00492911,0.00509534,0.000799934,0.00581647,0.00420799,0.837163,0.00346813,0.0398777,1875,1030,67.1201,-2.23057
658,-6,67.1509,2.23328,0.00331474,0.00368534,0.00117504,0.0046896,0.00231048,0.863602,0.00270764,0.0405078,1882,1030,67.1509,-2.23327
665,-6,67.3278,2.17859,0.00222003,0.0026605,0.00131116,0.00376979,0.00111074,0.868605,0.00223684,0.0436119,1889,1030,67.3278,-2.17854
672,-6,67.4093,2.20105,0.00142028,0.00197889,0.00138096,0.00310851,0.000290668,0.88518,0.00198257,0.0415705,1896,1030,67.4093,-2.20101
679,-6,67.1161,2.39343,0.000861261,0.00141442,0.00137161,0.00253706,-0.000261377,0.884887,0.00178489,0.0391943,1903,1030,67.1161,-2.39338
686,-6,67.0062,2.44324,0.000268039,0.000741355,0.00129281,0.00181899,-0.000809593,0.875924,0.00155446,0.0366275,1910,1030,67.0063,-2.4432
693,-6,67.1006,2.49365,-0.000199666,0.000111626,0.00119913,0.00116517,-0.00125321,0.849937,0.00139656,0.0362769,1917,1030,67.1006,-2.49371
700,-6,67.1721,2.46753,-0.000544823,-0.000412656,0.00113462,0.000657805,-0.00161528,0.814487,0.00135062,0.0317109,1924,1030,67.1721,-2.46754
707,-6,67.1315,2.34656,-0.0013566,-0.000286616,0.00108447,0.000387643,-0.00203086,1.01454,0.00149991,0.0268588,1931,1030,67.1315,-2.34651
714,-6,67.1221,2.2605,-0.00249697,0.000392539,0.00103071,0.000722517,-0.00282695,1.26096,0.00216602,0.0332926,1938,1030,67.122,-2.2605
721,-6,67.1399,2.37561,0,0,0,0,0,0,0,-1,1945,1030,67.1399,-2.37556
728,-6,53.1713,6.25494,0,0,0,0,0,0,0,-1,1952,1030,53.1713,-6.25495
735,-6,67.0972,6.80341,0,0,0,0,0,0,0,-1,1959,1030,67.0972,-6.80338
742,-6,67.2059,7.00769,0,0,0,0,0,0,0,-1,1966,1030,67.2059,-7.00767
749,-6,67.2443,6.46008,0,0,0,0,0,0,0,-1,1973,1030,67.2443,-6.46009
756,-6,67.2449,6.53558,-0.00954803,0.0165826,0.00132102,0.0166492,-0.00961465,1.52041,0.0153437,0.0350562,1980,1030,67.2448,-6.53557
763,-6,67.0464,6.42639,-0.00974883,0.0232997,0.00194497,0.0234138,-0.0098629,1.51221,0.0197361,0.02239,1987,1030,67.0465,-6.42641
770,-6,66.9651,6.34058,-0.00893052,0.0325749,0.00301834,0.0327932,-0.00914887,1.49858,0.0254656,0.0197017,1994,1030,66.9651,-6.34058
777,-6,66.8315,6.27283,-0.00629736,0.0450518,0.00502934,0.0455398,-0.00678532,1.47408,0.032856,0.0208522,2001,1030,66.8314,-6.27285
784,-6,66.7227,6.16241,-0.00220123,0.0587234,0.00772793,0.0596883,-0.00316619,1.44657,0.0408885,0.04726,2008,1030,66.7227,-6.16242
791,-6,66.6313,6.10321,0.00396663,0.0744432,0.0114811,0.0762664,0.00214344,1.41331,0.050145,0.0493425,2015,1030,66.6314,-6.10322
798,-6,66.3955,6.04773,0,0,0,0,0,0,0,-1,2022,1030,66.3955,-6.04771
805,-6,67.0425,4.34753,0,0,0,0,0,0,0,-1,2029,1030,67.0426,-4.34751
812,-6,67.2954,4.19397,0,0,0,0,0,0,0,-1,2036,1030,67.2954,-4.19401
-700,-13,0,0,0,0,0,0,0,0,0,-1,524,1037,0,0
-693,-13,-51.9945,2.25439,0,0,0,0,0,0,0,-1,531,1037,-51.9945,-2.25441
-686,-13,-53.0874,2.76062,0,0,0,0,0,0,0,-1,538,1037,-53.0874,-2.76062
-679,-13,-52.8754,2.63965,-0.0157968,-0.0142758,-0.0330567,0.0180291,-0.0481017,-0.796899,0.0394746,0.0471981,545,1037,-52.8754,-2.6397
-672,-13,-52.6044,2.54297,-0.00890001,-0.00252903,-0.0247945,0.0192838,-0.0307128,-0.849286,0.0291159,0.0494074,552,1037,-52.6044,-2.54294
-665,-13,-52.6406,2.6167,-0.00485507,0.00546075,-0.0183453,0.0193595,-0.0187538,-0.922439,0.0220056,0.0489554,559,1037,-52.6406,-2.61664
-658,-13,-52.1843,3.54224,0,0,0,0,0,0,0,-1,566,1037,-52.1843,-3.54223
-651,-13,-52.1414,3.68872,-0.0013993,0.0133108,-0.0092767,0.0177944,-0.00588291,-1.12058,0.0142351,0.0447197,573,1037,-52.1414,-3.68872
-644,-13,-52.0775,3.97192,-0.000332967,0.0152593,-0.00563731,0.0170839,-0.00215759,-1.25777,0.0121724,0.0373968,580,1037,-52.0775,-3.97191
-637,-13,-52.2017,4.09241,0.000319088,0.0157183,-0.00268975,0.0161746,-0.000137205,-1.40275,0.0108291,0.0286706,587,1037,-52.2018,-4.09239
-630,-13,-52.3667,4.15479,0.000291108,0.014256,-0.000993813,0.0143263,0.000220738,-1.50011,0.00947816,0.0177341,594,1037,-52.3667,-4.15478
-623,-13,-52.4289,4.38599,-0.00119478,0.0110246,-0.000372651,0.011036,-0.00120613,-1.54034,0.00779055,0.0150987,601,1037,-52.4289,-4.38594
-616,-13,-52.4171,4.56689,-0.00211747,0.00723342,-0.000866688,0.00731307,-0.00219712,-1.47915,0.00574944,0.0139358,608,1037,-52.4171,-4.56686
-609,-13,-52.3801,4.75232,-0.00238638,0.00364484,-0.000932629,0.00378577,-0.00252731,-1.42083,0.00366891,0.0191583,615,1037,-52.3801,-4.75228
-602,-13,-52.3661,4.85815,-0.00224312,0.00135059,-0.00115805,0.00169144,-0.00258396,-1.28455,0.00248627,0.0147751,622,1037,-52.3662,-4.85819
-595,-13,-52.3959,4.94714,0,0,0,0,0,0,0,-1,629,1037,-52.396,-4.94711
-588,-13,-51.7659,0.721802,0,0,0,0,0,0,0,-1,636,1037,-51.7659,-0.721766
-581,-13,-51.8171,0.401367,-0.000805909,-0.00175303,-0.00151433,0.000307178,-0.00286611,-0.633856,0.00202093,0.0247697,643,1037,-51.8171,-0.401372
-574,-13,-51.8038,0.504517,-0.000627483,-0.0019429,-0.00147211,0.000327164,-0.00289754,-0.575312,0.00204947,0.0326667,650,1037,-51.8038,-0.504539
-567,-13,-51.9233,0.704834,-0.000766861,-0.00162358,-0.00137765,0.00024749,-0.00263793,-0.634669,0.00184666,0.0379801,657,1037,-51.9233,-0.704888
-560,-13,-51.9097,0.63147,-0.00106223,-0.000888919,-0.00128732,0.000314656,-0.0022658,-0.819004,0.0016256,0.0404716,664,1037,-51.9098,-0.631497
-553,-13,-51.7958,0.552856,-0.0015256,1.35561e-05,-0.00132125,0.000773013,-0.00228506,-1.04911,0.00183611,0.0395839,671,1037,-51.7959,-0.552847
-546,-13,-51.8572,0.493652,-0.00207545,0.000679651,-0.00156315,0.00138563,-0.00278143,-1.14658,0.00245043,0.0389528,678,1037,-51.8573,-0.493598
-539,-13,-51.8956,0.529785,-0.00298221,0.00072302,-0.00208374,0.00165862,-0.00391781,-1.14877,0.00330645,0.0400157,685,1037,-51.8956,-0.529751
-532,-13,-52.0432,0.426758,-0.00374093,0.000925651,-0.00254622,0.00204598,-0.00486126,-1.15629,0.00409683,0.0433544,692,1037,-52.0432,-0.426726
-525,-13,0,0,0,0,0,0,0,0,0,-1,699,1037,0,0
-518,-13,0,0,0,0,0,0,0,0,0,-1,706,1037,0,0
-511,-13,0,0,0,0,0,0,0,0,0,-1,713,1037,0,0
-504,-13,0,0,0,0,0,0,0,0,0,-1,720,1037,0,0
-497,-13,0,0,0,0,0,0,0,0,0,-1,727,1037,0,0
-490,-13,0,0,0,0,0,0,0,0,0,-1,734,1037,0,0
-483,-13,0,0,0,0,0,0,0,0,0,-1,741,1037,0,0
-476,-13,0,0,0,0,0,0,0,0,0,-1,748,1037,0,0
-469,-13,0,0,0,0,0,0,0,0,0,-1,755,1037,0,0
-462,-13,0,0,0,0,0,0,0,0,0,-1,762,1037,0,0
-455,-13,0,0,0,0,0,0,0,0,0,-1,769,1037,0,0
-448,-13,0,0,0,0,0,0,0,0,0,-1,776,1037,0,0
-441,-13,0,0,0,0,0,0,0,0,0,-1,783,1037,0,0
-434,-13,0,0,0,0,0,0,0,0,0,-1,790,1037,0,0
-427,-13,0,0,0,0,0,0,0,0,0,-1,797,1037,0,0
-420,-13,0,0,0,0,0,0,0,0,0,-1,804,1037,0,0
-413,-13,0,0,0,0,0,0,0,0,0,-1,811,1037,0,0
-406,-13,0,0,0,0,0,0,0,0,0,-1,818,1037,0,0
-399,-13,0,0,0,0,0,0,0,0,0,-1,825,1037,0,0
-392,-13,0,0,0,0,0,0,0,0,0,-1,832,1037,0,0
-385,-13,0,0,0,0,0,0,0,0,0,-1,839,1037,0,0
-378,-13,0,0,0,0,0,0,0,0,0,-1,846,1037,0,0
-371,-13,0,0,0,0,0,0,0,0,0,-1,853,1037,0,0
-364,-13,0,0,0,0,0,0,0,0,0,-1,860,1037,0,0
-357,-13,0,0,0,0,0,0,0,0,0,-1,867,1037,0,0
-350,-13,0,0,0,0,0,0,0,0,0,-1,874,1037,0,0
-343,-13,0,0,0,0,0,0,0,0,0,-1,881,1037,0,0
-336,-13,0,0,0,0,0,0,0,0,0,-1,888,1037,0,0
-329,-13,0,0,0,0,0,0,0,0,0,-1,895,1037,0,0
-322,-13,0,0,0,0,0,0,0,0,0,-1,902,1037,0,0
-315,-13,0,0,0,0,0,0,0,0,0,-1,909,1037,0,0
-308,-13,0,0,0,0,0,0,0,0,0,-1,916,1037,0,0
-301,-13,0,0,0,0,0,0,0,0,0,-1,923,1037,0,0
-294,-13,0,0,0,0,0,0,0,0,0,-1,930,1037,0,0
-287,-13,0,0,0,0,0,0,0,0,0,-1,937,1037,0,0
-280,-13,0,0,0,0,0,0,0,0,0,-1,944,1037,0,0
-273,-13,0,0,0,0,0,0,0,0,0,-1,951,1037,0,0
-266,-13,0,0,0,0,0,0,0,0,0,-1,958,1037,0,0
-259,-13,0,0,0,0,0,0,0,0,0,-1,965,1037,0,0
-252,-13,0,0,0,0,0,0,0,0,0,-1,972,1037,0,0
-245,-13,0,0,0,0,0,0,0,0,0,-1,979,1037,0,0
-238,-13,0,0,0,0,0,0,0,0,0,-1,986,1037,0,0
-231,-13,0,0,0,0,0,0,0,0,0,-1,993,1037,0,0
-224,-13,0,0,0,0,0,0,0,0,0,-1,1000,1037,0,0
-217,-13,0,0,0,0,0,0,0,0,0,-1,1007,1037,0,0
-210,-13,0,0,0,0,0,0,0,0,0,-1,1014,1037,0,0
-203,-13,0,0,0,0,0,0,0,0,0,-1,1021,1037,0,0
-196,-13,0,0,0,0,0,0,0,0,0,-1,1028,1037,0,0
-189,-13,0,0,0,0,0,0,0,0,0,-1,1035,1037,0,0
-182,-13,0,0,0,0,0,0,0,0,0,-1,1042,1037,0,0
-175,-13,0,0,0,0,0,0,0,0,0,-1,1049,1037,0,0
-168,-13,0,0,0,0,0,0,0,0,0,-1,1056,1037,0,0
-161,-13,0,0,0,0,0,0,0,0,0,-1,1063,1037,0,0
-154,-13,0,0,0,0,0,0,0,0,0,-1,1070,1037,0,0
-147,-13,0,0,0,0,0,0,0,0,0,-1,1077,1037,0,0
-140,-13,0,0,0,0,0,0,0,0,0,-1,1084,1037,0,0
-133,-13,0,0,0,0,0,0,0,0,0,-1,1091,1037,0,0
-126,-13,0,0,0,0,0,0,0,0,0,-1,1098,1037,0,0
-119,-13,0,0,0,0,0,0,0,0,0,-1,1105,1037,0,0
-112,-13,0,0,0,0,0,0,0,0,0,-1,1112,1037,0,0
-105,-13,0,0,0,0,0,0,0,0,0,-1,1119,1037,0,0
-98,-13,0,0,0,0,0,0,0,0,0,-1,1126,1037,0,0
-91,-13,0,0,0,0,0,0,0,0,0,-1,1133,1037,0,0
-84,-13,0,0,0,0,0,0,0,0,0,-1,1140,1037,0,0
-77,-13,0,0,0,0,0,0,0,0,0,-1,1147,1037,0,0
-70,-13,0,0,0,0,0,0,0,0,0,-1,1154,1037,0,0
-63,-13,0,0,0,0,0,0,0,0,0,-1,1161,1037,0,0
-56,-13,0,0,0,0,0,0,0,0,0,-1,1168,1037,0,0
-49,-13,0,0,0,0,0,0,0,0,0,-1,1175,1037,0,0
-42,-13,0,0,0,0,0,0,0,0,0,-1,1182,1037,0,0
-35,-13,0,0,0,0,0,0,0,0,0,-1,1189,1037,0,0
-28,-13,0,0,0,0,0,0,0,0,0,-1,1196,1037,0,0
-21,-13,0,0,0,0,0,0,0,0,0,-1,1203,1037,0,0
-14,-13,0,0,0,0,0,0,0,0,0,-1,1210,1037,0,0
-7,-13,0,0,0,0,0,0,0,0,0,-1,1217,1037,0,0
0,-13,0,0,0,0,0,0,0,0,0,-1,1224,1037,0,0
7,-13,0,0,0,0,0,0,0,0,0,-1,1231,1037,0,0
14,-13,0,0,0,0,0,0,0,0,0,-1,1238,1037,0,0
21,-13,0,0,0,0,0,0,0,0,0,-1,1245,1037,0,0
28,-13,0,0,0,0,0,0,0,0,0,-1,1252,1037,0,0
35,-13,0,0,0,0,0,0,0,0,0,-1,1259,1037,0,0
42,-13,0,0,0,0,0,0,0,0,0,-1,1266,1037,0,0
49,-13,0,0,0,0,0,0,0,0,0,-1,1273,1037,0,0
56,-13,0,0,0,0,0,0,0,0,0,-1,1280,1037,0,0
63,-13,0,0,0,0,0,0,0,0,0,-1,1287,1037,0,0
70,-13,0,0,0,0,0,0,0,0,0,-1,1294,1037,0,0
77,-13,0,0,0,0,0,0,0,0,0,-1,1301,1037,0,0
84,-13,0,0,0,0,0,0,0,0,0,-1,1308,1037,0,0
91,-13,0,0,0,0,0,0,0,0,0,-1,1315,1037,0,0
98,-13,0,0,0,0,0,0,0,0,0,-1,1322,1037,0,0
105,-13,0,0,0,0,0,0,0,0,0,-1,1329,1037,0,0
112,-13,0,0,0,0,0,0,0,0,0,-1,1336,1037,0,0
119,-13,0,0,0,0,0,0,0,0,0,-1,1343,1037,0,0
126,-13,0,0,0,0,0,0,0,0,0,-1,1350,1037,0,0
133,-13,0,0,0,0,0,0,0,0,0,-1,1357,1037,0,0
140,-13,0,0,0,0,0,0,0,0,0,-1,1364,1037,0,0
147,-13,0,0,0,0,0,0,0,0,0,-1,1371,1037,0,0
154,-13,0,0,0,0,0,0,0,0,0,-1,1378,1037,0,0
161,-13,0,0,0,0,0,0,0,0,0,-1,1385,1037,0,0
168,-13,0,0,0,0,0,0,0,0,0,-1,1392,1037,0,0
175,-13,0,0,0,0,0,0,0,0,0,-1,1399,1037,0,0
182,-13,0,0,0,0,0,0,0,0,0,-1,1406,1037,0,0
189,-13,0,0,0,0,0,0,0,0,0,-1,1413,1037,0,0
196,-13,0,0,0,0,0,0,0,0,0,-1,1420,1037,0,0
203,-13,0,0,0,0,0,0,0,0,0,-1,1427,1037,0,0
210,-13,0,0,0,0,0,0,0,0,0,-1,1434,1037,0,0
217,-13,0,0,0,0,0,0,0,0,0,-1,1441,1037,0,0
224,-13,0,0,0,0,0,0,0,0,0,-1,1448,1037,0,0
231,-13,0,0,0,0,0,0,0,0,0,-1,1455,1037,0,0
238,-13,0,0,0,0,0,0,0,0,0,-1,1462,1037,0,0
245,-13,0,0,0,0,0,0,0,0,0,-1,1469,1037,0,0
252,-13,0,0,0,0,0,0,0,0,0,-1,1476,1037,0,0
259,-13,0,0,0,0,0,0,0,0,0,-1,1483,1037,0,0
266,-13,0,0,0,0,0,0,0,0,0,-1,1490,1037,0,0
273,-13,0,0,0,0,0,0,0,0,0,-1,1497,1037,0,0
280,-13,0,0,0,0,0,0,0,0,0,-1,1504,1037,0,0
287,-13,0,0,0,0,0,0,0,0,0,-1,1511,1037,0,0
294,-13,0,0,0,0,0,0,0,0,0,-1,1518,1037,0,0
301,-13,0,0,0,0,0,0,0,0,0,-1,1525,1037,0,0
308,-13,0,0,0,0,0,0,0,0,0,-1,1532,1037,0,0
315,-13,0,0,0,0,0,0,0,0,0,-1,1539,1037,0,0
322,-13,0,0,0,0,0,0,0,0,0,-1,1546,1037,0,0
329,-13,0,0,0,0,0,0,0,0,0,-1,1553,1037,0,0
336,-13,0,0,0,0,0,0,0,0,0,-1,1560,1037,0,0
343,-13,0,0,0,0,0,0,0,0,0,-1,1567,1037,0,0
350,-13,0,0,0,0,0,0,0,0,0,-1,1574,1037,0,0
357,-13,0,0,0,0,0,0,0,0,0,-1,1581,1037,0,0
364,-13,0,0,0,0,0,0,0,0,0,-1,1588,1037,0,0
371,-13,0,0,0,0,0,0,0,0,0,-1,1595,1037,0,0
378,-13,0,0,0,0,0,0,0,0,0,-1,1602,1037,0,0
385,-13,0,0,0,0,0,0,0,0,0,-1,1609,1037,0,0
392,-13,0,0,0,0,0,0,0,0,0,-1,1616,1037,0,0
399,-13,0,0,0,0,0,0,0,0,0,-1,1623,1037,0,0
406,-13,0,0,0,0,0,0,0,0,0,-1,1630,1037,0,0
413,-13,0,0,0,0,0,0,0,0,0,-1,1637,1037,0,0
420,-13,0,0,0,0,0,0,0,0,0,-1,1644,1037,0,0
427,-13,0,0,0,0,0,0,0,0,0,-1,1651,1037,0,0
434,-13,0,0,0,0,0,0,0,0,0,-1,1658,1037,0,0
441,-13,0,0,0,0,0,0,0,0,0,-1,1665,1037,0,0
448,-13,0,0,0,0,0,0,0,0,0,-1,1672,1037,0,0
455,-13,0,0,0,0,0,0,0,0,0,-1,1679,1037,0,0
462,-13,0,0,0,0,0,0,0,0,0,-1,1686,1037,0,0
469,-13,0,0,0,0,0,0,0,0,0,-1,1693,1037,0,0
476,-13,0,0,0,0,0,0,0,0,0,-1,1700,1037,0,0
483,-13,0,0,0,0,0,0,0,0,0,-1,1707,1037,0,0
490,-13,0,0,0,0,0,0,0,0,0,-1,1714,1037,0,0
497,-13,0,0,0,0,0,0,0,0,0,-1,1721,1037,0,0
504,-13,0,0,0,0,0,0,0,0,0,-1,1728,1037,0,0
511,-13,0,0,0,0,0,0,0,0,0,-1,1735,1037,0,0
518,-13,0,0,0,0,0,0,0,0,0,-1,1742,1037,0,0
525,-13,0,0,0,0,0,0,0,0,0,-1,1749,1037,0,0
532,-13,0,0,0,0,0,0,0,0,0,-1,1756,1037,0,0
539,-13,0,0,0,0,0,0,0,0,0,-1,1763,1037,0,0
546,-13,0,0,0,0,0,0,0,0,0,-1,1770,1037,0,0
553,-13,0,0,0,0,0,0,0,0,0,-1,1777,1037,0,0
560,-13,0,0,0,0,0,0,0,0,0,-1,1784,1037,0,0
567,-13,0,0,0,0,0,0,0,0,0,-1,1791,1037,0,0
574,-13,0,0,0,0,0,0,0,0,0,-1,1798,1037,0,0
581,-13,0,0,0,0,0,0,0,0,0,-1,1805,1037,0,0
588,-13,0,0,0,0,0,0,0,0,0,-1,1812,1037,0,0
595,-13,0,0,0,0,0,0,0,0,0,-1,1819,1037,0,0
602,-13,0,0,0,0,0,0,0,0,0,-1,1826,1037,0,0
609,-13,0,0,0,0,0,0,0,0,0,-1,1833,1037,0,0
616,-13,0,0,0,0,0,0,0,0,0,-1,1840,1037,0,0
623,-13,0,0,0,0,0,0,0,0,0,-1,1847,1037,0,0
630,-13,0,0,0,0,0,0,0,0,0,-1,1854,1037,0,0
637,-13,0,0,0,0,0,0,0,0,0,-1,1861,1037,0,0
644,-13,0,0,0,0,0,0,0,0,0,-1,1868,1037,0,0
651,-13,66.9465,2.39368,0.00413443,0.00457093,0.00110627,0.00548027,0.00322509,0.882789,0.00318051,0.0427328,1875,1037,66.9465,-2.39368
658,-13,66.8785,2.35754,0.00275961,0.00351519,0.0014349,0.0046212,0.0016536,0.914121,0.00270376,0.0446909,1882,1037,66.8786,-2.35757
665,-13,67.1714,2.245,0.00185241,0.00272977,0.0015222,0.00387524,0.000706945,0.925691,0.00238306,0.0428018,1889,1037,67.1713,-2.24497
672,-13,67.3358,2.21533,0.0012073,0.00222652,0.00155397,0.00335231,8.1513e-05,0.943843,0.0022082,0.0364057,1896,1037,67.3358,-2.21528
679,-13,67.1703,2.35156,0.000761164,0.00181908,0.00150622,0.00288652,-0.000306277,0.954262,0.00203414,0.0357762,1903,1037,67.1702,-2.35156
686,-13,67.1189,2.38196,0.00018503,0.00123528,0.00140486,0.00220995,-0.000789635,0.964255,0.00179536,0.0383409,1910,1037,67.1189,-2.38201
693,-13,67.1544,2.42175,-0.000307598,0.000632791,0.00130737,0.00155195,-0.00122676,0.95802,0.00160795,0.0399378,1917,1037,67.1544,-2.42172
700,-13,67.1385,2.35815,-0.000693288,0.000101571,0.00127757,0.0010421,-0.00163382,0.936195,0.00155748,0.0369777,1924,1037,67.1385,-2.35812
707,-13,67.16,2.31714,-0.00151974,0.000140163,0.0012666,0.00082451,-0.00220409,1.07543,0.00180802,0.0309494,1931,1037,67.16,-2.31716
714,-13,67.1276,2.48987,-0.00263807,0.000697105,0.00125024,0.00111373,-0.0030547,1.24913,0.00249209,0.0296463,1938,1037,67.1276,-2.48988
721,-13,66.9496,2.70325,0,0,0,0,0,0,0,-1,1945,1037,66.9496,-2.70325
728,-13,67.249,6.8855,0,0,0,0,0,0,0,-1,1952,1037,67.2491,-6.8855
735,-13,67.0543,6.84387,-0.00642293,0.00478132,0.000616406,0.00481513,-0.00645674,1.516,0.00653078,0.0396589,1959,1037,67.0543,-6.84383
742,-13,66.9766,6.75183,-0.00730575,0.00764121,0.000714228,0.00767526,-0.0073398,1.52316,0.00866967,0.0257826,1966,1037,66.9766,-6.75189
749,-13,67.094,6.61292,-0.00860386,0.0105378,0.00114534,0.010606,-0.00867215,1.51124,0.0111489,0.0342283,1973,1037,67.094,-6.6129
756,-13,67.0796,6.51013,-0.00939229,0.014662,0.00143906,0.0147478,-0.00947808,1.51125,0.0140967,0.021563,1980,1037,67.0796,-6.51019
763,-13,66.9834,6.34204,-0.00938168,0.0206159,0.00186929,0.0207319,-0.00949771,1.5088,0.0178503,0.0305845,1987,1037,66.9835,-6.342
770,-13,66.8711,6.22534,-0.00829641,0.028585,0.00249098,0.0287525,-0.00846389,1.50366,0.0225261,0.0253983,1994,1037,66.8712,-6.22537
777,-13,66.7134,6.0553,-0.00523433,0.0394147,0.00373334,0.0397248,-0.00554434,1.48795,0.0285115,0.0179254,2001,1037,66.7134,-6.05527
784,-13,66.7205,5.88489,-0.000740875,0.0513266,0.00545034,0.051891,-0.00130529,1.46761,0.0350372,0.037924,2008,1037,66.7204,-5.88489
791,-13,66.8232,5.65479,0.00575207,0.0650478,0.00791737,0.0660868,0.00471312,1.44032,0.0425738,0.047873,2015,1037,66.8231,-5.65482
798,-13,66.7749,5.50574,0,0,0,0,0,0,0,-1,2022,1037,66.7749,-5.50575
805,-13,68.1033,5.71851,0,0,0,0,0,0,0,-1,2029,1037,68.1033,-5.71853
812,-13,68.804,5.92188,0,0,0,0,0,0,0,-1,2036,1037,68.8038,-5.92186
-700,-20,-50.7565,3.06091,-0.0863803,-0.0900907,-0.0798409,-0.00837305,-0.168098,-0.773782,0.109381,0.0495427,524,1044,-50.7565,-3.06088
-693,-20,-51.2404,2.83765,-0.0528085,-0.0558587,-0.0610458,0.00673124,-0.115398,-0.772909,0.0792714,0.0455463,531,1044,-51.2404,-2.8376
-686,-20,-51.8378,2.66711,-0.0313771,-0.0308236,-0.0457421,0.0146427,-0.0768433,-0.788423,0.0567431,0.0430379,538,1044,-51.8378,-2.66708
-679,-20,-52.409,2.74585,-0.0190953,-0.0140333,-0.034608,0.0181361,-0.0512647,-0.8219,0.0415625,0.0419773,545,1044,-52.409,-2.74589
-672,-20,-52.6255,2.94543,-0.0114821,-0.00246297,-0.0260277,0.0194429,-0.033388,-0.871177,0.0308541,0.0474424,552,1044,-52.6255,-2.94538
-665,-20,-52.6307,2.85852,-0.00668229,0.00539437,-0.0193039,0.0195823,-0.0208702,-0.936979,0.0233592,0.0467124,559,1044,-52.6307,-2.85856
-658,-20,-52.1871,2.96777,-0.00367582,0.0103978,-0.0139848,0.0190164,-0.0122944,-1.01849,0.0182157,0.0491092,566,1044,-52.1871,-2.96782
-651,-20,-52.006,3.45715,-0.0019325,0.0130515,-0.00986563,0.0179474,-0.00682842,-1.11014,0.0147767,0.0443685,573,1044,-52.006,-3.45718
-644,-20,-51.9063,3.651,-0.000328581,0.0149716,-0.00610551,0.0171094,-0.00246629,-1.23401,0.012311,0.0308215,580,1044,-51.9063,-3.65106
-637,-20,-51.9927,3.75952,0.00063457,0.0153599,-0.00309624,0.0159844,1.00229e-05,-1.37176,0.0106529,0.0225576,587,1044,-51.9927,-3.75948
-630,-20,-52.1207,4.07227,0.000807455,0.01393,-0.00138703,0.014075,0.000662451,-1.46663,0.00917052,0.0179302,594,1044,-52.1207,-4.07224
-623,-20,-52.1891,4.34106,-0.00027623,0.0107274,-0.000693788,0.0107709,-0.000319802,-1.50808,0.00728956,0.0148163,601,1044,-52.1891,-4.3411
-616,-20,-52.1882,4.53503,-0.00104535,0.0069261,-0.00122941,0.0071114,-0.00123065,-1.4212,0.00519992,0.0135094,608,1044,-52.1882,-4.53509
-609,-20,-52.1891,4.73022,-0.00146713,0.0034269,-0.00136324,0.00378101,-0.00182125,-1.31666,0.00329977,0.0149782,615,1044,-52.1891,-4.73026
-602,-20,-52.178,4.91064,-0.00148083,0.00123091,-0.00157979,0.00195689,-0.00220682,-1.14003,0.00240536,0.0154636,622,1044,-52.178,-4.91069
-595,-20,-52.1459,5.01917,-0.00115813,-0.000136275,-0.00190211,0.00132234,-0.00261674,-0.916606,0.0023148,0.0477134,629,1044,-52.1459,-5.01917
-588,-20,-51.7455,0.669312,0,0,0,0,0,0,0,-1,636,1044,-51.7455,-0.669368
-581,-20,-51.7693,0.205566,-0.000385746,-0.00162599,-0.00190354,0.000996134,-0.00300787,-0.627933,0.00240701,0.031821,643,1044,-51.7693,-0.20557
-574,-20,-51.7474,0.53833,-0.000279839,-0.00175905,-0.00182224,0.000947168,-0.00298606,-0.592617,0.00237037,0.0361436,650,1044,-51.7475,-0.538278
-567,-20,-51.8572,0.706909,-0.000496377,-0.00143984,-0.00168998,0.000786476,-0.0027227,-0.649295,0.00212634,0.0409451,657,1044,-51.8572,-0.706928
-560,-20,-51.9298,0.567749,-0.00086968,-0.000767009,-0.00155353,0.000736033,-0.00237272,-0.801914,0.00187592,0.0407001,664,1044,-51.9298,-0.567764
-553,-20,-51.8998,0.546143,-0.00136278,-2.82239e-06,-0.00152938,0.000990933,-0.00235653,-0.994579,0.00198554,0.0376496,671,1044,-51.8999,-0.546116
-546,-20,-51.8839,0.466797,-0.00183997,0.000450991,-0.00171451,0.00136747,-0.00275645,-1.0799,0.00242555,0.0389845,678,1044,-51.8839,-0.466815
-539,-20,-51.9439,0.338745,-0.00249734,0.00018458,-0.0022233,0.00144001,-0.00375277,-1.05676,0.00309558,0.0414947,685,1044,-51.9439,-0.338763
-532,-20,-51.9969,0.270752,-0.00298387,7.56217e-05,-0.00268303,0.00163436,-0.00454261,-1.04449,0.00369569,0.0422459,692,1044,-51.997,-0.270788
-525,-20,0,0,0,0,0,0,0,0,0,-1,699,1044,0,0
-518,-20,0,0,0,0,0,0,0,0,0,-1,706,1044,0,0
-511,-20,0,0,0,0,0,0,0,0,0,-1,713,1044,0,0
-504,-20,0,0,0,0,0,0,0,0,0,-1,720,1044,0,0
-497,-20,0,0,0,0,0,0,0,0,0,-1,727,1044,0,0
-490,-20,0,0,0,0,0,0,0,0,0,-1,734,1044,0,0
-483,-20,0,0,0,0,0,0,0,0,0,-1,741,1044,0,0
-476,-20,0,0,0,0,0,0,0,0,0,-1,748,1044,0,0
-469,-20,0,0,0,0,0,0,0,0,0,-1,755,1044,0,0
-462,-20,0,0,0,0,0,0,0,0,0,-1,762,1044,0,0
-455,-20,0,0,0,0,0,0,0,0,0,-1,769,1044,0,0
-448,-20,0,0,0,0,0,0,0,0,0,-1,776,1044,0,0
-441,-20,0,0,0,0,0,0,0,0,0,-1,783,1044,0,0
-434,-20,0,0,0,0,0,0,0,0,0,-1,790,1044,0,0
-427,-20,0,0,0,0,0,0,0,0,0,-1,797,1044,0,0
-420,-20,0,0,0,0,0,0,0,0,0,-1,804,1044,0,0
-413,-20,0,0,0,0,0,0,0,0,0,-1,811,1044,0,0
-406,-20,0,0,0,0,0,0,0,0,0,-1,818,1044,0,0
-399,-20,0,0,0,0,0,0,0,0,0,-1,825,1044,0,0
-392,-20,0,0,0,0,0,0,0,0,0,-1,832,1044,0,0
-385,-20,0,0,0,0,0,0,0,0,0,-1,839,1044,0,0
-378,-20,0,0,0,0,0,0,0,0,0,-1,846,1044,0,0
-371,-20,0,0,0,0,0,0,0,0,0,-1,853,1044,0,0
-364,-20,0,0,0,0,0,0,0,0,0,-1,860,1044,0,0
-357,-20,0,0,0,0,0,0,0,0,0,-1,867,1044,0,0
-350,-20,0,0,0,0,0,0,0,0,0,-1,874,1044,0,0
-343,-20,0,0,0,0,0,0,0,0,0,-1,881,1044,0,0
-336,-20,0,0,0,0,0,0,0,0,0,-1,888,1044,0,0
-329,-20,0,0,0,0,0,0,0,0,0,-1,895,1044,0,0
-322,-20,0,0,0,0,0,0,0,0,0,-1,902,1044,0,0
-315,-20,0,0,0,0,0,0,0,0,0,-1,909,1044,0,0
-308,-20,0,0,0,0,0,0,0,0,0,-1,916,1044,0,0
-301,-20,0,0,0,0,0,0,0,0,0,-1,923,1044,0,0
-294,-20,0,0,0,0,0,0,0,0,0,-1,930,1044,0,0
-287,-20,0,0,0,0,0,0,0,0,0,-1,937,1044,0,0
-280,-20,0,0,0,0,0,0,0,0,0,-1,944,1044,0,0
-273,-20,0,0,0,0,0,0,0,0,0,-1,951,1044,0,0
-266,-20,0,0,0,0,0,0,0,0,0,-1,958,1044,0,0
-259,-20,0,0,0,0,0,0,0,0,0,-1,965,1044,0,0
-252,-20,0,0,0,0,0,0,0,0,0,-1,972,1044,0,0
-245,-20,0,0,0,0,0,0,0,0,0,-1,979,1044,0,0
-238,-20,0,0,0,0,0,0,0,0,0,-1,986,1044,0,0
-231,-20,0,0,0,0,0,0,0,0,0,-1,993,1044,0,0
-224,-20,0,0,0,0,0,0,0,0,0,-1,1000,1044,0,0
-217,-20,0,0,0,0,0,0,0,0,0,-1,1007,1044,0,0
-210,-20,0,0,0,0,0,0,0,0,0,-1,1014,1044,0,0
-203,-20,0,0,0,0,0,0,0,0,0,-1,1021,1044,0,0
-196,-20,0,0,0,0,0,0,0,0,0,-1,1028,1044,0,0
-189,-20,0,0,0,0,0,0,0,0,0,-1,1035,1044,0,0
-182,-20,0,0,0,0,0,0,0,0,0,-1,1042,1044,0,0
-175,-20,0,0,0,0,0,0,0,0,0,-1,1049,1044,0,0
-168,-20,0,0,0,0,0,0,0,0,0,-1,1056,1044,0,0
-161,-20,0,0,0,0,0,0,0,0,0,-1,1063,1044,0,0
-154,-20,0,0,0,0,0,0,0,0,0,-1,1070,1044,0,0
-147,-20,0,0,0,0,0,0,0,0,0,-1,1077,1044,0,0
-140,-20,0,0,0,0,0,0,0,0,0,-1,1084,1044,0,0
-133,-20,0,0,0,0,0,0,0,0,0,-1,1091,1044,0,0
-126,-20,0,0,0,0,0,0,0,0,0,-1,1098,1044,0,0
-119,-20,0,0,0,0,0,0,0,0,0,-1,1105,1044,0,0
-112,-20,0,0,0,0,0,0,0,0,0,-1,1112,1044,0,0
-105,-20,0,0,0,0,0,0,0,0,0,-1,1119,1044,0,0
-98,-20,0,0,0,0,0,0,0,0,0,-1,1126,1044,0,0
-91,-20,0,0,0,0,0,0,0,0,0,-1,1133,1044,0,0
-84,-20,0,0,0,0,0,0,0,0,0,-1,1140,1044,0,0
-77,-20,0,0,0,0,0,0,0,0,0,-1,1147,1044,0,0
-70,-20,0,0,0,0,0,0,0,0,0,-1,1154,1044,0,0
-63,-20,0,0,0,0,0,0,0,0,0,-1,1161,1044,0,0
-56,-20,0,0,0,0,0,0,0,0,0,-1,1168,1044,0,0
-49,-20,0,0,0,0,0,0,0,0,0,-1,1175,1044,0,0
-42,-20,0,0,0,0,0,0,0,0,0,-1,1182,1044,0,0
-35,-20,0,0,0,0,0,0,0,0,0,-1,1189,1044,0,0
-28,-20,0,0,0,0,0,0,0,0,0,-1,1196,1044,0,0
-21,-20,0,0,0,0,0,0,0,0,0,-1,1203,1044,0,0
-14,-20,0,0,0,0,0,0,0,0,0,-1,1210,1044,0,0
-7,-20,0,0,0,0,0,0,0,0,0,-1,1217,1044,0,0
0,-20,0,0,0,0,0,0,0,0,0,-1,1224,1044,0,0
7,-20,0,0,0,0,0,0,0,0,0,-1,1231,1044,0,0
14,-20,0,0,0,0,0,0,0,0,0,-1,1238,1044,0,0
21,-20,0,0,0,0,0,0,0,0,0,-1,1245,1044,0,0
28,-20,0,0,0,0,0,0,0,0,0,-1,1252,1044,0,0
35,-20,0,0,0,0,0,0,0,0,0,-1,1259,1044,0,0
42,-20,0,0,0,0,0,0,0,0,0,-1,1266,1044,0,0
49,-20,0,0,0,0,0,0,0,0,0,-1,1273,1044,0,0
56,-20,0,0,0,0,0,0,0,0,0,-1,1280,1044,0,0
63,-20,0,0,0,0,0,0,0,0,0,-1,1287,1044,0,0
70,-20,0,0,0,0,0,0,0,0,0,-1,1294,1044,0,0
77,-20,0,0,0,0,0,0,0,0,0,-1,1301,1044,0,0
84,-20,0,0,0,0,0,0,0,0,0,-1,1308,1044,0,0
91,-20,0,0,0,0,0,0,0,0,0,-1,1315,1044,0,0
98,-20,0,0,0,0,0,0,0,0,0,-1,1322,1044,0,0
105,-20,0,0,0,0,0,0,0,0,0,-1,1329,1044,0,0
112,-20,0,0,0,0,0,0,0,0,0,-1,1336,1044,0,0
119,-20,0,0,0,0,0,0,0,0,0,-1,1343,1044,0,0
126,-20,0,0,0,0,0,0,0,0,0,-1,1350,1044,0,0
133,-20,0,0,0,0,0,0,0,0,0,-1,1357,1044,0,0
140,-20,0,0,0,0,0,0,0,0,0,-1,1364,1044,0,0
147,-20,0,0,0,0,0,0,0,0,0,-1,1371,1044,0,0
154,-20,0,0,0,0,0,0,0,0,0,-1,1378,1044,0,0
161,-20,0,0,0,0,0,0,0,0,0,-1,1385,1044,0,0
168,-20,0,0,0,0,0,0,0,0,0,-1,1392,1044,0,0
175,-20,0,0,0,0,0,0,0,0,0,-1,1399,1044,0,0
182,-20,0,0,0,0,0,0,0,0,0,-1,1406,1044,0,0
189,-20,0,0,0,0,0,0,0,0,0,-1,1413,1044,0,0
196,-20,0,0,0,0,0,0,0,0,0,-1,1420,1044,0,0
203,-20,0,0,0,0,0,0,0,0,0,-1,1427,1044,0,0
210,-20,0,0,0,0,0,0,0,0,0,-1,1434,1044,0,0
217,-20,0,0,0,0,0,0,0,0,0,-1,1441,1044,0,0
224,-20,0,0,0,0,0,0,0,0,0,-1,1448,1044,0,0
231,-20,0,0,0,0,0,0,0,0,0,-1,1455,1044,0,0
238,-20,0,0,0,0,0,0,0,0,0,-1,1462,1044,0,0
245,-20,0,0,0,0,0,0,0,0,0,-1,1469,1044,0,0
252,-20,0,0,0,0,0,0,0,0,0,-1,1476,1044,0,0
259,-20,0,0,0,0,0,0,0,0,0,-1,1483,1044,0,0
266,-20,0,0,0,0,0,0,0,0,0,-1,1490,1044,0,0
273,-20,0,0,0,0,0,0,0,0,0,-1,1497,1044,0,0
280,-20,0,0,0,0,0,0,0,0,0,-1,1504,1044,0,0
287,-20,0,0,0,0,0,0,0,0,0,-1,1511,1044,0,0
294,-20,0,0,0,0,0,0,0,0,0,-1,1518,1044,0,0
301,-20,0,0,0,0,0,0,0,0,0,-1,1525,1044,0,0
308,-20,0,0,0,0,0,0,0,0,0,-1,1532,1044,0,0
315,-20,0,0,0,0,0,0,0,0,0,-1,1539,1044,0,0
322,-20,0,0,0,0,0,0,0,0,0,-1,1546,1044,0,0
329,-20,0,0,0,0,0,0,0,0,0,-1,1553,1044,0,0
336,-20,0,0,0,0,0,0,0,0,0,-1,1560,1044,0,0
343,-20,0,0,0,0,0,0,0,0,0,-1,1567,1044,0,0
350,-20,0,0,0,0,0,0,0,0,0,-1,1574,1044,0,0
357,-20,0,0,0,0,0,0,0,0,0,-1,1581,1044,0,0
364,-20,0,0,0,0,0,0,0,0,0,-1,1588,1044,0,0
371,-20,0,0,0,0,0,0,0,0,0,-1,1595,1044,0,0
378,-20,0,0,0,0,0,0,0,0,0,-1,1602,1044,0,0
385,-20,0,0,0,0,0,0,0,0,0,-1,1609,1044,0,0
392,-20,0,0,0,0,0,0,0,0,0,-1,1616,1044,0,0
399,-20,0,0,0,0,0,0,0,0,0,-1,1623,1044,0,0
406,-20,0,0,0,0,0,0,0,0,0,-1,1630,1044,0,0
413,-20,0,0,0,0,0,0,0,0,0,-1,1637,1044,0,0
420,-20,0,0,0,0,0,0,0,0,0,-1,1644,1044,0,0
427,-20,0,0,0,0,0,0,0,0,0,-1,1651,1044,0,0
434,-20,0,0,0,0,0,0,0,0,0,-1,1658,1044,0,0
441,-20,0,0,0,0,0,0,0,0,0,-1,1665,1044,0,0
448,-20,0,0,0,0,0,0,0,0,0,-1,1672,1044,0,0
455,-20,0,0,0,0,0,0,0,0,0,-1,1679,1044,0,0
462,-20,0,0,0,0,0,0,0,0,0,-1,1686,1044,0,0
469,-20,0,0,0,0,0,0,0,0,0,-1,1693,1044,0,0
476,-20,0,0,0,0,0,0,0,0,0,-1,1700,1044,0,0
483,-20,0,0,0,0,0,0,0,0,0,-1,1707,1044,0,0
490,-20,0,0,0,0,0,0,0,0,0,-1,1714,1044,0,0
497,-20,0,0,0,0,0,0,0,0,0,-1,1721,1044,0,0
504,-20,0,0,0,0,0,0,0,0,0,-1,1728,1044,0,0
511,-20,0,0,0,0,0,0,0,0,0,-1,1735,1044,0,0
518,-20,0,0,0,0,0,0,0,0,0,-1,1742,1044,0,0
525,-20,0,0,0,0,0,0,0,0,0,-1,1749,1044,0,0
532,-20,0,0,0,0,0,0,0,0,0,-1,1756,1044,0,0
539,-20,0,0,0,0,0,0,0,0,0,-1,1763,1044,0,0
546,-20,0,0,0,0,0,0,0,0,0,-1,1770,1044,0,0
553,-20,0,0,0,0,0,0,0,0,0,-1,1777,1044,0,0
560,-20,0,0,0,0,0,0,0,0,0,-1,1784,1044,0,0
567,-20,0,0,0,0,0,0,0,0,0,-1,1791,1044,0,0
574,-20,0,0,0,0,0,0,0,0,0,-1,1798,1044,0,0
581,-20,0,0,0,0,0,0,0,0,0,-1,1805,1044,0,0
588,-20,0,0,0,0,0,0,0,0,0,-1,1812,1044,0,0
595,-20,0,0,0,0,0,0,0,0,0,-1,1819,1044,0,0
602,-20,0,0,0,0,0,0,0,0,0,-1,1826,1044,0,0
609,-20,0,0,0,0,0,0,0,0,0,-1,1833,1044,0,0
616,-20,0,0,0,0,0,0,0,0,0,-1,1840,1044,0,0
623,-20,0,0,0,0,0,0,0,0,0,-1,1847,1044,0,0
630,-20,0,0,0,0,0,0,0,0,0,-1,1854,1044,0,0
637,-20,0,0,0,0,0,0,0,0,0,-1,1861,1044,0,0
644,-20,0,0,0,0,0,0,0,0,0,-1,1868,1044,0,0
651,-20,67.0325,2.41956,0.00302018,0.00429924,0.0012106,0.00502885,0.00229057,1.0284,0.00290724,0.0420245,1875,1044,67.0324,-2.41956
658,-20,66.9103,2.38965,0.00200329,0.00344182,0.00145855,0.00434881,0.0010963,1.01447,0.00261163,0.0449873,1882,1044,66.9102,-2.38967
665,-20,67.1725,2.38611,0.00136085,0.00280518,0.00149325,0.00374173,0.000424301,1.01063,0.00236577,0.041134,1889,1044,67.1725,-2.3861
672,-20,67.21,2.29688,0.000915818,0.00242236,0.00149404,0.00334228,-4.10108e-06,1.01889,0.00222956,0.0253594,1896,1044,67.21,-2.29686
679,-20,67.1647,2.26514,0.000615539,0.00214153,0.00142541,0.00299531,-0.000238237,1.03114,0.00208084,0.0275359,1903,1044,67.1647,-2.26518
686,-20,67.2097,2.21973,9.12152e-05,0.00163346,0.00133551,0.00240448,-0.000679806,1.04722,0.00187121,0.0373488,1910,1044,67.2097,-2.21977
693,-20,67.1799,2.29382,-0.000416783,0.00107009,0.00127273,0.00180061,-0.0011473,1.04973,0.00171585,0.0431296,1917,1044,67.1799,-2.29387
700,-20,67.1337,2.34998,-0.000834463,0.000556779,0.00130891,0.00134343,-0.00162111,1.02964,0.00171408,0.0392835,1924,1044,67.1337,-2.34992
707,-20,67.1395,2.31104,-0.00164136,0.000527214,0.00135506,0.0011784,-0.00229254,1.12282,0.00203807,0.0331292,1931,1044,67.1395,-2.31102
714,-20,67.1414,2.47913,-0.00272673,0.000965576,0.0014025,0.00143789,-0.00319904,1.24596,0.00274074,0.0312369,1938,1044,67.1413,-2.47916
721,-20,66.9763,2.49719,0,0,0,0,0,0,0,-1,1945,1044,66.9763,-2.49714
728,-20,67.4604,7.00818,0,0,0,0,0,0,0,-1,1952,1044,67.4605,-7.00817
735,-20,67.0927,6.87915,-0.00649953,0.004531,0.00106583,0.00463304,-0.00660158,1.47535,0.00651941,0.03336,1959,1044,67.0926,-6.87912
742,-20,66.8177,6.64941,-0.00742169,0.00692064,0.001269,0.00703206,-0.00753311,1.48322,0.00841086,0.0316229,1966,1044,66.8177,-6.64937
749,-20,66.9082,6.57214,-0.00863574,0.00945985,0.00167075,0.00961281,-0.0087887,1.4795,0.0106277,0.0323741,1973,1044,66.9081,-6.57215
756,-20,66.9005,6.47266,-0.00929429,0.0131586,0.00197915,0.0133317,-0.00946741,1.48355,0.013226,0.020725,1980,1044,66.9005,-6.47269
763,-20,66.8159,6.29529,-0.0091951,0.0185662,0.00235751,0.018765,-0.00939388,1.48668,0.0165549,0.0312668,1987,1044,66.8159,-6.29532
770,-20,66.7168,6.19226,-0.00809392,0.0256342,0.00276412,0.0258593,-0.00831894,1.48957,0.0205808,0.0260934,1994,1044,66.7169,-6.19229
777,-20,66.5586,5.93188,-0.00504678,0.035329,0.0035163,0.0356329,-0.00535072,1.48457,0.025725,0.0180422,2001,1044,66.5585,-5.93191
784,-20,66.532,5.75708,-0.000721898,0.0460109,0.00457466,0.0464545,-0.0011655,1.47413,0.0313654,0.0221906,2008,1044,66.5321,-5.75708
791,-20,66.6838,5.44373,0.00535381,0.0582843,0.00615054,0.0589896,0.00464851,1.45662,0.0378721,0.0373996,2015,1044,66.6838,-5.44369
798,-20,66.9951,5.07483,0,0,0,0,0,0,0,-1,2022,1044,66.9952,-5.0748
805,-20,67.4714,5.00891,0.0256508,0.0891902,0.0118161,0.0913165,0.0235246,1.39276,0.0547476,0.0442766,2029,1044,67.4713,-5.00895
812,-20,68.1309,4.94446,0.0408138,0.109026,0.0162532,0.112701,0.0371391,1.34844,0.0663162,0.0431672,2036,1044,68.1308,-4.94446
-700,-27,-49.8239,3.66565,-0.0786403,-0.0895912,-0.0800749,-0.00385386,-0.164378,-0.751262,0.108323,0.0483132,524,1051,-49.8238,-3.6656
-693,-27,-50.4447,3.46765,-0.0478323,-0.0557832,-0.061545,0.0098655,-0.113481,-0.753146,0.0791478,0.0447586,531,1051,-50.4447,-3.46765
-686,-27,-51.0996,3.27197,-0.028873,-0.0312233,-0.0465599,0.0165266,-0.0766229,-0.772781,0.0573896,0.0418144,538,1051,-51.0996,-3.27197
-679,-27,-52.9644,2.896,-0.0177706,-0.0145789,-0.0354451,0.0193062,-0.0516558,-0.807894,0.0423652,0.0449367,545,1051,-52.9645,-2.89605
-672,-27,-52.8214,2.85767,-0.0107504,-0.00302708,-0.026752,0.0201405,-0.033918,-0.857078,0.0315468,0.0444668,552,1051,-52.8214,-2.85767
-665,-27,-52.8017,2.76538,-0.00620346,0.00484636,-0.0198704,0.0199457,-0.0213027,-0.920997,0.0238191,0.0459495,559,1051,-52.8017,-2.7654
-658,-27,-52.1937,2.51709,-0.00327276,0.00986028,-0.0144166,0.0191354,-0.0125479,-0.999101,0.0184237,0.0444133,566,1051,-52.1937,-2.51715
-651,-27,-51.8806,3.04443,0,0,0,0,0,0,0,-1,573,1051,-51.8806,-3.04447
-644,-27,-51.7166,3.38953,0.000160571,0.0144148,-0.0063907,0.0168604,-0.00228503,-1.20531,0.0120742,0.0189918,580,1051,-51.7166,-3.38949
-637,-27,-51.7646,3.63513,0.00107869,0.0147212,-0.00337958,0.0155125,0.00028738,-1.3408,0.0102472,0.0160151,587,1051,-51.7646,-3.63517
-630,-27,-51.8871,4.03259,0.00116716,0.0133693,-0.0017103,0.0136045,0.000931973,-1.43414,0.00877551,0.0208923,594,1051,-51.8871,-4.03255
-623,-27,-51.9299,4.32056,0.000344815,0.0102636,-0.000964994,0.0103567,0.000251804,-1.47471,0.00682205,0.0175888,601,1051,-51.9299,-4.32061
-616,-27,-51.9042,4.54395,-0.000245929,0.00647418,-0.00153875,0.00680976,-0.000581511,-1.35607,0.00474557,0.0140169,608,1051,-51.9041,-4.54394
-609,-27,-51.8885,4.77014,-0.000758707,0.00314649,-0.00171453,0.0037924,-0.00140462,-1.21051,0.00310427,0.0138545,615,1051,-51.8886,-4.7702
-602,-27,-51.8372,5.0304,-0.00086119,0.00111354,-0.00191149,0.00227761,-0.00202526,-1.0238,0.00248568,0.0147728,622,1051,-51.8372,-5.03037
-595,-27,-51.8869,5.23254,-0.000601237,-0.000165114,-0.0022515,0.00187886,-0.00264521,-0.833673,0.00262443,0.0228613,629,1051,-51.8869,-5.23258
-588,-27,-52.1403,5.36438,0,0,0,0,0,0,0,-1,636,1051,-52.1403,-5.36433
-581,-27,-51.7487,0.36084,1.2163e-05,-0.00139149,-0.00218858,0.0016087,-0.00298802,-0.63024,0.00269345,0.0255112,643,1051,-51.7487,-0.360818
-574,-27,-51.6758,0.479858,7.07632e-05,-0.00141461,-0.00205812,0.0015161,-0.00285995,-0.612241,0.00256591,0.0365307,650,1051,-51.6758,-0.479799
-567,-27,-51.7448,0.609497,-0.000176309,-0.00104438,-0.00187255,0.00131185,-0.00253253,-0.671515,0.00225654,0.0437705,657,1051,-51.7447,-0.609551
-560,-27,-51.9404,0.480591,-0.000577858,-0.000388724,-0.00167249,0.00119187,-0.00215845,-0.81364,0.00196096,0.0440738,664,1051,-51.9404,-0.480556
-553,-27,-51.9539,0.448242,-0.00104504,0.000269105,-0.00157,0.00131398,-0.00208992,-0.983582,0.00198219,0.0395833,671,1051,-51.9539,-0.448225
-546,-27,-51.8326,0.438965,-0.00139943,0.000509351,-0.00169807,0.00150286,-0.00239294,-1.04142,0.00226872,0.0424684,678,1051,-51.8326,-0.439011
-539,-27,-51.8886,0.401245,-0.00180912,-0.000129473,-0.0022217,0.00140584,-0.00334444,-0.966101,0.00281767,0.0456574,685,1051,-51.8886,-0.401196
-532,-27,-51.8254,0.461548,-0.002035,-0.000578213,-0.00273019,0.00151908,-0.00413229,-0.915757,0.00337709,0.0437246,692,1051,-51.8255,-0.461527
-525,-27,0,0,0,0,0,0,0,0,0,-1,699,1051,0,0
-518,-27,0,0,0,0,0,0,0,0,0,-1,706,1051,0,0
-511,-27,0,0,0,0,0,0,0,0,0,-1,713,1051,0,0
-504,-27,0,0,0,0,0,0,0,0,0,-1,720,1051,0,0
-497,-27,0,0,0,0,0,0,0,0,0,-1,727,1051,0,0
-490,-27,0,0,0,0,0,0,0,0,0,-1,734,1051,0,0
-483,-27,0,0,0,0,0,0,0,0,0,-1,741,1051,0,0
-476,-27,0,0,0,0,0,0,0,0,0,-1,748,1051,0,0
-469,-27,0,0,0,0,0,0,0,0,0,-1,755,1051,0,0
-462,-27,0,0,0,0,0,0,0,0,0,-1,762,1051,0,0
-455,-27,0,0,0,0,0,0,0,0,0,-1,769,1051,0,0
-448,-27,0,0,0,0,0,0,0,0,0,-1,776,1051,0,0
-441,-27,0,0,0,0,0,0,0,0,0,-1,783,1051,0,0
-434,-27,0,0,0,0,0,0,0,0,0,-1,790,1051,0,0
-427,-27,0,0,0,0,0,0,0,0,0,-1,797,1051,0,0
-420,-27,0,0,0,0,0,0,0,0,0,-1,804,1051,0,0
-413,-27,0,0,0,0,0,0,0,0,0,-1,811,1051,0,0
-406,-27,0,0,0,0,0,0,0,0,0,-1,818,1051,0,0
-399,-27,0,0,0,0,0,0,0,0,0,-1,825,1051,0,0
-392,-27,0,0,0,0,0,0,0,0,0,-1,832,1051,0,0
-385,-27,0,0,0,0,0,0,0,0,0,-1,839,1051,0,0
-378,-27,0,0,0,0,0,0,0,0,0,-1,846,1051,0,0
-371,-27,0,0,0,0,0,0,0,0,0,-1,853,1051,0,0
-364,-27,0,0,0,0,0,0,0,0,0,-1,860,1051,0,0
-357,-27,0,0,0,0,0,0,0,0,0,-1,867,1051,0,0
-350,-27,0,0,0,0,0,0,0,0,0,-1,874,1051,0,0
-343,-27,0,0,0,0,0,0,0,0,0,-1,881,1051,0,0
-336,-27,0,0,0,0,0,0,0,0,0,-1,888,1051,0,0
-329,-27,0,0,0,0,0,0,0,0,0,-1,895,1051,0,0
-322,-27,0,0,0,0,0,0,0,0,0,-1,902,1051,0,0
-315,-27,0,0,0,0,0,0,0,0,0,-1,909,1051,0,0
-308,-27,0,0,0,0,0,0,0,0,0,-1,916,1051,0,0
-301,-27,0,0,0,0,0,0,0,0,0,-1,923,1051,0,0
-294,-27,0,0,0,0,0,0,0,0,0,-1,930,1051,0,0
-287,-27,0,0,0,0,0,0,0,0,0,-1,937,1051,0,0
-280,-27,0,0,0,0,0,0,0,0,0,-1,944,1051,0,0
-273,-27,0,0,0,0,0,0,0,0,0,-1,951,1051,0,0
-266,-27,0,0,0,0,0,0,0,0,0,-1,958,1051,0,0
-259,-27,0,0,0,0,0,0,0,0,0,-1,965,1051,0,0
-252,-27,0,0,0,0,0,0,0,0,0,-1,972,1051,0,0
-245,-27,0,0,0,0,0,0,0,0,0,-1,979,1051,0,0
-238,-27,0,0,0,0,0,0,0,0,0,-1,986,1051,0,0
-231,-27,0,0,0,0,0,0,0,0,0,-1,993,1051,0,0
-224,-27,0,0,0,0,0,0,0,0,0,-1,1000,1051,0,0
-217,-27,0,0,0,0,0,0,0,0,0,-1,1007,1051,0,0
-210,-27,0,0,0,0,0,0,0,0,0,-1,1014,1051,0,0
-203,-27,0,0,0,0,0,0,0,0,0,-1,1021,1051,0,0
-196,-27,0,0,0,0,0,0,0,0,0,-1,1028,1051,0,0
-189,-27,0,0,0,0,0,0,0,0,0,-1,1035,1051,0,0
-182,-27,0,0,0,0,0,0,0,0,0,-1,1042,1051,0,0
-175,-27,0,0,0,0,0,0,0,0,0,-1,1049,1051,0,0
-168,-27,0,0,0,0,0,0,0,0,0,-1,1056,1051,0,0
-161,-27,0,0,0,0,0,0,0,0,0,-1,1063,1051,0,0
-154,-27,0,0,0,0,0,0,0,0,0,-1,1070,1051,0,0
-147,-27,0,0,0,0,0,0,0,0,0,-1,1077,1051,0,0
-140,-27,0,0,0,0,0,0,0,0,0,-1,1084,1051,0,0
-133,-27,0,0,0,0,0,0,0,0,0,-1,1091,1051,0,0
-126,-27,0,0,0,0,0,0,0,0,0,-1,1098,1051,0,0
-119,-27,0,0,0,0,0,0,0,0,0,-1,1105,1051,0,0
-112,-27,0,0,0,0,0,0,0,0,0,-1,1112,1051,0,0
-105,-27,0,0,0,0,0,0,0,0,0,-1,1119,1051,0,0
-98,-27,0,0,0,0,0,0,0,0,0,-1,1126,1051,0,0
-91,-27,0,0,0,0,0,0,0,0,0,-1,1133,1051,0,0
-84,-27,0,0,0,0,0,0,0,0,0,-1,1140,1051,0,0
-77,-27,0,0,0,0,0,0,0,0,0,-1,1147,1051,0,0
-70,-27,0,0,0,0,0,0,0,0,0,-1,1154,1051,0,0
-63,-27,0,0,0,0,0,0,0,0,0,-1,1161,1051,0,0
-56,-27,0,0,0,0,0,0,0,0,0,-1,1168,1051,0,0
-49,-27,0,0,0,0,0,0,0,0,0,-1,1175,1051,0,0
-42,-27,0,0,0,0,0,0,0,0,0,-1,1182,1051,0,0
-35,-27,0,0,0,0,0,0,0,0,0,-1,1189,1051,0,0
-28,-27,0,0,0,0,0,0,0,0,0,-1,1196,1051,0,0
-21,-27,0,0,0,0,0,0,0,0,0,-1,1203,1051,0,0
-14,-27,0,0,0,0,0,0,0,0,0,-1,1210,1051,0,0
-7,-27,0,0,0,0,0,0,0,0,0,-1,1217,1051,0,0
0,-27,0,0,0,0,0,0,0,0,0,-1,1224,1051,0,0
7,-27,0,0,0,0,0,0,0,0,0,-1,1231,1051,0,0
14,-27,0,0,0,0,0,0,0,0,0,-1,1238,1051,0,0
21,-27,0,0,0,0,0,0,0,0,0,-1,1245,1051,0,0
28,-27,0,0,0,0,0,0,0,0,0,-1,1252,1051,0,0
35,-27,0,0,0,0,0,0,0,0,0,-1,1259,1051,0,0
42,-27,0,0,0,0,0,0,0,0,0,-1,1266,1051,0,0
49,-27,0,0,0,0,0,0,0,0,0,-1,1273,1051,0,0
56,-27,0,0,0,0,0,0,0,0,0,-1,1280,1051,0,0
63,-27,0,0,0,0,0,0,0,0,0,-1,1287,1051,0,0
70,-27,0,0,0,0,0,0,0,0,0,-1,1294,1051,0,0
77,-27,0,0,0,0,0,0,0,0,0,-1,1301,1051,0,0
84,-27,0,0,0,0,0,0,0,0,0,-1,1308,1051,0,0
91,-27,0,0,0,0,0,0,0,0,0,-1,1315,1051,0,0
98,-27,0,0,0,0,0,0,0,0,0,-1,1322,1051,0,0
105,-27,0,0,0,0,0,0,0,0,0,-1,1329,1051,0,0
112,-27,0,0,0,0,0,0,0,0,0,-1,1336,1051,0,0
119,-27,0,0,0,0,0,0,0,0,0,-1,1343,1051,0,0
126,-27,0,0,0,0,0,0,0,0,0,-1,1350,1051,0,0
133,-27,0,0,0,0,0,0,0,0,0,-1,1357,1051,0,0
140,-27,0,0,0,0,0,0,0,0,0,-1,1364,1051,0,0
147,-27,0,0,0,0,0,0,0,0,0,-1,1371,1051,0,0
154,-27,0,0,0,0,0,0,0,0,0,-1,1378,1051,0,0
161,-27,0,0,0,0,0,0,0,0,0,-1,1385,1051,0,0
168,-27,0,0,0,0,0,0,0,0,0,-1,1392,1051,0,0
175,-27,0,0,0,0,0,0,0,0,0,-1,1399,1051,0,0
182,-27,0,0,0,0,0,0,0,0,0,-1,1406,1051,0,0
189,-27,0,0,0,0,0,0,0,0,0,-1,1413,1051,0,0
196,-27,0,0,0,0,0,0,0,0,0,-1,1420,1051,0,0
203,-27,0,0,0,0,0,0,0,0,0,-1,1427,1051,0,0
210,-27,0,0,0,0,0,0,0,0,0,-1,1434,1051,0,0
217,-27,0,0,0,0,0,0,0,0,0,-1,1441,1051,0,0
224,-27,0,0,0,0,0,0,0,0,0,-1,1448,1051,0,0
231,-27,0,0,0,0,0,0,0,0,0,-1,1455,1051,0,0
238,-27,0,0,0,0,0,0,0,0,0,-1,1462,1051,0,0
245,-27,0,0,0,0,0,0,0,0,0,-1,1469,1051,0,0
252,-27,0,0,0,0,0,0,0,0,0,-1,1476,1051,0,0
259,-27,0,0,0,0,0,0,0,0,0,-1,1483,1051,0,0
266,-27,0,0,0,0,0,0,0,0,0,-1,1490,1051,0,0
273,-27,0,0,0,0,0,0,0,0,0,-1,1497,1051,0,0
280,-27,0,0,0,0,0,0,0,0,0,-1,1504,1051,0,0
287,-27,0,0,0,0,0,0,0,0,0,-1,1511,1051,0,0
294,-27,0,0,0,0,0,0,0,0,0,-1,1518,1051,0,0
301,-27,0,0,0,0,0,0,0,0,0,-1,1525,1051,0,0
308,-27,0,0,0,0,0,0,0,0,0,-1,1532,1051,0,0
315,-27,0,0,0,0,0,0,0,0,0,-1,1539,1051,0,0
322,-27,0,0,0,0,0,0,0,0,0,-1,1546,1051,0,0
329,-27,0,0,0,0,0,0,0,0,0,-1,1553,1051,0,0
336,-27,0,0,0,0,0,0,0,0,0,-1,1560,1051,0,0
343,-27,0,0,0,0,0,0,0,0,0,-1,1567,1051,0,0
350,-27,0,0,0,0,0,0,0,0,0,-1,1574,1051,0,0
357,-27,0,0,0,0,0,0,0,0,0,-1,1581,1051,0,0
364,-27,0,0,0,0,0,0,0,0,0,-1,1588,1051,0,0
371,-27,0,0,0,0,0,0,0,0,0,-1,1595,1051,0,0
378,-27,0,0,0,0,0,0,0,0,0,-1,1602,1051,0,0
385,-27,0,0,0,0,0,0,0,0,0,-1,1609,1051,0,0
392,-27,0,0,0,0,0,0,0,0,0,-1,1616,1051,0,0
399,-27,0,0,0,0,0,0,0,0,0,-1,1623,1051,0,0
406,-27,0,0,0,0,0,0,0,0,0,-1,1630,1051,0,0
413,-27,0,0,0,0,0,0,0,0,0,-1,1637,1051,0,0
420,-27,0,0,0,0,0,0,0,0,0,-1,1644,1051,0,0
427,-27,0,0,0,0,0,0,0,0,0,-1,1651,1051,0,0
434,-27,0,0,0,0,0,0,0,0,0,-1,1658,1051,0,0
441,-27,0,0,0,0,0,0,0,0,0,-1,1665,1051,0,0
448,-27,0,0,0,0,0,0,0,0,0,-1,1672,1051,0,0
455,-27,0,0,0,0,0,0,0,0,0,-1,1679,1051,0,0
462,-27,0,0,0,0,0,0,0,0,0,-1,1686,1051,0,0
469,-27,0,0,0,0,0,0,0,0,0,-1,1693,1051,0,0
476,-27,0,0,0,0,0,0,0,0,0,-1,1700,1051,0,0
483,-27,0,0,0,0,0,0,0,0,0,-1,1707,1051,0,0
490,-27,0,0,0,0,0,0,0,0,0,-1,1714,1051,0,0
497,-27,0,0,0,0,0,0,0,0,0,-1,1721,1051,0,0
504,-27,0,0,0,0,0,0,0,0,0,-1,1728,1051,0,0
511,-27,0,0,0,0,0,0,0,0,0,-1,1735,1051,0,0
518,-27,0,0,0,0,0,0,0,0,0,-1,1742,1051,0,0
525,-27,0,0,0,0,0,0,0,0,0,-1,1749,1051,0,0
532,-27,0,0,0,0,0,0,0,0,0,-1,1756,1051,0,0
539,-27,0,0,0,0,0,0,0,0,0,-1,1763,1051,0,0
546,-27,0,0,0,0,0,0,0,0,0,-1,1770,1051,0,0
553,-27,0,0,0,0,0,0,0,0,0,-1,1777,1051,0,0
560,-27,0,0,0,0,0,0,0,0,0,-1,1784,1051,0,0
567,-27,0,0,0,0,0,0,0,0,0,-1,1791,1051,0,0
574,-27,0,0,0,0,0,0,0,0,0,-1,1798,1051,0,0
581,-27,0,0,0,0,0,0,0,0,0,-1,1805,1051,0,0
588,-27,0,0,0,0,0,0,0,0,0,-1,1812,1051,0,0
595,-27,0,0,0,0,0,0,0,0,0,-1,1819,1051,0,0
602,-27,0,0,0,0,0,0,0,0,0,-1,1826,1051,0,0
609,-27,0,0,0,0,0,0,0,0,0,-1,1833,1051,0,0
616,-27,0,0,0,0,0,0,0,0,0,-1,1840,1051,0,0
623,-27,0,0,0,0,0,0,0,0,0,-1,1847,1051,0,0
630,-27,0,0,0,0,0,0,0,0,0,-1,1854,1051,0,0
637,-27,0,0,0,0,0,0,0,0,0,-1,1861,1051,0,0
644,-27,0,0,0,0,0,0,0,0,0,-1,1868,1051,0,0
651,-27,67.2324,2.3501,0.00192408,0.00345956,0.00166528,0.00452555,0.00085809,1.00139,0.00277557,0.0413183,1875,1051,67.2325,-2.35011
658,-27,67.0809,2.46899,0.00126372,0.00281658,0.00179678,0.00399752,8.2789e-05,0.989341,0.00263785,0.0432954,1882,1051,67.0809,-2.46902
665,-27,67.0288,2.4187,0.000887547,0.00234109,0.00173333,0.00349385,-0.000265212,0.983911,0.00242248,0.038371,1889,1051,67.0288,-2.41871
672,-27,67.0399,2.36279,0.000640163,0.00208756,0.00165269,0.00316807,-0.000440337,0.991768,0.00227308,0.0282146,1896,1051,67.0399,-2.36274
679,-27,67.0601,2.30078,0.000485352,0.00193252,0.00151616,0.00288891,-0.00047104,1.00804,0.00210063,0.0283537,1903,1051,67.06,-2.30076
686,-27,67.1317,2.1167,2.53353e-05,0.00151884,0.00139967,0.0023585,-0.000814329,1.03045,0.00190278,0.0395526,1910,1051,67.1317,-2.11671
693,-27,67.0533,2.24048,-0.000497527,0.00102447,0.00134658,0.00181021,-0.00128326,1.04259,0.00179463,0.042914,1917,1051,67.0533,-2.24043
700,-27,67.0641,2.34546,-0.000943166,0.00056799,0.00142304,0.0014236,-0.00179878,1.02945,0.00186464,0.039241,1924,1051,67.0641,-2.34547
707,-27,67.0991,2.32617,-0.00171243,0.000525246,0.00151053,0.00128617,-0.00247336,1.10416,0.00220634,0.0261984,1931,1051,67.0991,-2.32618
714,-27,67.142,2.38379,-0.00274087,0.000901155,0.00161071,0.00151129,-0.003351,1.2087,0.00287345,0.024811,1938,1051,67.142,-2.38381
721,-27,67.0616,2.52502,0,0,0,0,0,0,0,-1,1945,1051,67.0616,-2.52502
728,-27,67.3549,7.11316,0,0,0,0,0,0,0,-1,1952,1051,67.3549,-7.11318
735,-27,66.8846,6.99976,-0.00637383,0.00412106,0.00150707,0.00433319,-0.00658596,1.43096,0.00634874,0.0330854,1959,1051,66.8846,-6.99975
742,-27,66.6888,6.84045,-0.00724252,0.00628434,0.00169261,0.00649292,-0.0074511,1.44819,0.00805692,0.020841,1966,1051,66.6888,-6.84049
749,-27,66.7147,6.60901,-0.00829995,0.00861792,0.00195989,0.008842,-0.00852403,1.45696,0.0100268,0.0164741,1973,1051,66.7147,-6.60904
756,-27,66.6758,6.39673,-0.00877195,0.0120907,0.00214022,0.012308,-0.00898924,1.46961,0.0123456,0.0159821,1980,1051,66.6757,-6.39677
763,-27,66.6101,6.14807,-0.00855596,0.0171924,0.00227906,0.0173926,-0.00875613,1.48319,0.015369,0.0164212,1987,1051,66.6101,-6.14803
770,-27,66.5305,5.90063,-0.00739935,0.0237895,0.00225426,0.0239516,-0.00756144,1.49902,0.0189966,0.0177633,1994,1051,66.5304,-5.90062
777,-27,66.3979,5.79358,-0.00440275,0.0328204,0.00224131,0.0329549,-0.00453722,1.51087,0.023628,0.0214418,2001,1051,66.398,-5.79361
784,-27,66.3015,5.69849,-0.000311317,0.0427756,0.00237205,0.0429058,-0.000441512,1.51596,0.0287521,0.0300186,2008,1051,66.3014,-5.69844
791,-27,66.1851,5.297,0.005238,0.054164,0.00277426,0.0543208,0.00508119,1.51433,0.0346446,0.0426515,2015,1051,66.1851,-5.29695
798,-27,66.3674,4.92944,0,0,0,0,0,0,0,-1,2022,1051,66.3675,-4.92946
805,-27,67.0354,4.18652,0.0233196,0.0830908,0.00524043,0.0835468,0.0228636,1.484,0.0498559,0.0453003,2029,1051,67.0354,-4.18654
812,-27,67.4282,4.03577,0.036596,0.101572,0.00756733,0.102441,0.0357263,1.45637,0.0600398,0.0445363,2036,1051,67.4281,-4.0358
-700,-34,-48.835,4.40894,-0.0638656,-0.0902094,-0.0778349,0.0019041,-0.155979,-0.701578,0.104626,0.0479232,524,1058,-48.835,-4.4089
-693,-34,-49.646,4.05823,-0.036144,-0.0574521,-0.0601377,0.0142761,-0.107872,-0.697727,0.0771153,0.0467886,531,1058,-49.646,-4.05827
-686,-34,-50.4444,3.62793,-0.020092,-0.0335191,-0.0459494,0.0196317,-0.0732428,-0.712857,0.0565205,0.0453428,538,1058,-50.4444,-3.62794
-679,-34,-50.8817,3.02808,-0.0110263,-0.0169463,-0.0352225,0.0213604,-0.0493329,-0.743478,0.0418663,0.0411245,545,1058,-50.8817,-3.02802
-672,-34,-52.7932,1.64038,-0.00559327,-0.00524131,-0.0267073,0.0212906,-0.0321252,-0.788693,0.0310504,0.0438296,552,1058,-52.7932,-1.64043
-665,-34,-52.3129,1.40784,-0.00226661,0.00287421,-0.0198863,0.0203555,-0.0197479,-0.84967,0.0231546,0.0446826,559,1058,-52.3129,-1.40783
-658,-34,-51.7444,1.96228,-0.000271839,0.00814446,-0.0144559,0.0189923,-0.0111196,-0.927035,0.0175821,0.0428474,566,1058,-51.7444,-1.96228
-651,-34,-51.3762,2.80457,0,0,0,0,0,0,0,-1,573,1058,-51.3761,-2.80453
-644,-34,-51.4981,3.23071,0.00192045,0.0130443,-0.0065204,0.0160527,-0.00108796,-1.13852,0.0110823,0.0148477,580,1058,-51.4981,-3.23066
-637,-34,-51.5197,3.53271,0.00228798,0.0135004,-0.00356778,0.0145394,0.00124899,-1.28742,0.00930458,0.0157382,587,1058,-51.5196,-3.53277
-630,-34,-51.5729,3.9231,0.0019449,0.0123511,-0.00195803,0.0127074,0.00158867,-1.39083,0.00799481,0.0184406,594,1058,-51.5729,-3.92307
-623,-34,-51.5621,4.23462,0.00112433,0.00949908,-0.00117575,0.00966102,0.000962392,-1.43393,0.00614505,0.0151142,601,1058,-51.5622,-4.23457
-616,-34,-51.5313,4.58777,0.000505583,0.00589888,-0.00174812,0.00641593,-1.14623e-05,-1.28322,0.00428111,0.0217748,608,1058,-51.5312,-4.58775
-609,-34,-51.5308,4.87183,-0.00015838,0.00278732,-0.00193749,0.00374823,-0.00111928,-1.11039,0.00294372,0.0209796,615,1058,-51.5308,-4.8718
-602,-34,-51.533,5.10681,-0.000312391,0.000874002,-0.002118,0.00248031,-0.0019187,-0.921937,0.00254666,0.0163564,622,1058,-51.5329,-5.10679
-595,-34,-51.6683,5.3573,-0.000124262,-0.00035825,-0.00247213,0.00223364,-0.00271615,-0.761753,0.00286229,0.0198244,629,1058,-51.6683,-5.35734
-588,-34,-51.78,0.83667,0,0,0,0,0,0,0,-1,636,1058,-51.78,-0.836687
-581,-34,-51.7612,0.481689,0.000352055,-0.00134806,-0.00237116,0.00202092,-0.00301693,-0.613285,0.00292749,0.0268368,643,1058,-51.7612,-0.481721
-574,-34,-51.6888,0.525269,0.000386025,-0.00127432,-0.00219497,0.00190257,-0.00279087,-0.604605,0.00272589,0.0373997,650,1058,-51.6888,-0.525258
-567,-34,-51.6727,0.441162,0.000149115,-0.000832219,-0.00195735,0.00167636,-0.00235946,-0.662589,0.00234118,0.0406256,657,1058,-51.6727,-0.44122
-560,-34,-51.8264,0.379761,-0.000230104,-0.000124831,-0.00169994,0.00152329,-0.00187822,-0.800875,0.00196742,0.0403823,664,1058,-51.8264,-0.379769
-553,-34,-51.8325,0.429932,-0.000608795,0.000582972,-0.00153385,0.00163262,-0.00165844,-0.97067,0.00190012,0.0418004,671,1058,-51.8324,-0.4299
-546,-34,-51.8143,0.493042,-0.000771959,0.000889034,-0.00162476,0.00188325,-0.00176618,-1.02166,0.00210736,0.0442386,678,1058,-51.8143,-0.493086
-539,-34,-51.8455,0.438354,-0.00086488,0.000277194,-0.00220178,0.00198079,-0.00256847,-0.912279,0.00263381,0.0441608,685,1058,-51.8455,-0.438373
-532,-34,-51.784,0.421509,-0.000792407,-0.000116601,-0.00282093,0.00238659,-0.0032956,-0.845006,0.00329458,0.0443136,692,1058,-51.784,-0.421569
-525,-34,0,0,0,0,0,0,0,0,0,-1,699,1058,0,0
-518,-34,0,0,0,0,0,0,0,0,0,-1,706,1058,0,0
-511,-34,0,0,0,0,0,0,0,0,0,-1,713,1058,0,0
-504,-34,0,0,0,0,0,0,0,0,0,-1,720,1058,0,0
-497,-34,0,0,0,0,0,0,0,0,0,-1,727,1058,0,0
-490,-34,0,0,0,0,0,0,0,0,0,-1,734,1058,0,0
-483,-34,0,0,0,0,0,0,0,0,0,-1,741,1058,0,0
-476,-34,0,0,0,0,0,0,0,0,0,-1,748,1058,0,0
-469,-34,0,0,0,0,0,0,0,0,0,-1,755,1058,0,0
-462,-34,0,0,0,0,0,0,0,0,0,-1,762,1058,0,0
-455,-34,0,0,0,0,0,0,0,0,0,-1,769,1058,0,0
-448,-34,0,0,0,0,0,0,0,0,0,-1,776,1058,0,0
-441,-34,0,0,0,0,0,0,0,0,0,-1,783,1058,0,0
-434,-34,0,0,0,0,0,0,0,0,0,-1,790,1058,0,0
-427,-34,0,0,0,0,0,0,0,0,0,-1,797,1058,0,0
-420,-34,0,0,0,0,0,0,0,0,0,-1,804,1058,0,0
-413,-34,0,0,0,0,0,0,0,0,0,-1,811,1058,0,0
-406,-34,0,0,0,0,0,0,0,0,0,-1,818,1058,0,0
-399,-34,0,0,0,0,0,0,0,0,0,-1,825,1058,0,0
-392,-34,0,0,0,0,0,0,0,0,0,-1,832,1058,0,0
-385,-34,0,0,0,0,0,0,0,0,0,-1,839,1058,0,0
-378,-34,0,0,0,0,0,0,0,0,0,-1,846,1058,0,0
-371,-34,0,0,0,0,0,0,0,0,0,-1,853,1058,0,0
-364,-34,0,0,0,0,0,0,0,0,0,-1,860,1058,0,0
-357,-34,0,0,0,0,0,0,0,0,0,-1,867,1058,0,0
-350,-34,0,0,0,0,0,0,0,0,0,-1,874,1058,0,0
-343,-34,0,0,0,0,0,0,0,0,0,-1,881,1058,0,0
-336,-34,0,0,0,0,0,0,0,0,0,-1,888,1058,0,0
-329,-34,0,0,0,0,0,0,0,0,0,-1,895,1058,0,0
-322,-34,0,0,0,0,0,0,0,0,0,-1,902,1058,0,0
-315,-34,0,0,0,0,0,0,0,0,0,-1,909,1058,0,0
-308,-34,0,0,0,0,0,0,0,0,0,-1,916,1058,0,0
-301,-34,0,0,0,0,0,0,0,0,0,-1,923,1058,0,0
-294,-34,0,0,0,0,0,0,0,0,0,-1,930,1058,0,0
-287,-34,0,0,0,0,0,0,0,0,0,-1,937,1058,0,0
-280,-34,0,0,0,0,0,0,0,0,0,-1,944,1058,0,0
-273,-34,0,0,0,0,0,0,0,0,0,-1,951,1058,0,0
-266,-34,0,0,0,0,0,0,0,0,0,-1,958,1058,0,0
-259,-34,0,0,0,0,0,0,0,0,0,-1,965,1058,0,0
-252,-34,0,0,0,0,0,0,0,0,0,-1,972,1058,0,0
-245,-34,0,0,0,0,0,0,0,0,0,-1,979,1058,0,0
-238,-34,0,0,0,0,0,0,0,0,0,-1,986,1058,0,0
-231,-34,0,0,0,0,0,0,0,0,0,-1,993,1058,0,0
-224,-34,0,0,0,0,0,0,0,0,0,-1,1000,1058,0,0
-217,-34,0,0,0,0,0,0,0,0,0,-1,1007,1058,0,0
-210,-34,0,0,0,0,0,0,0,0,0,-1,1014,1058,0,0
-203,-34,0,0,0,0,0,0,0,0,0,-1,1021,1058,0,0
-196,-34,0,0,0,0,0,0,0,0,0,-1,1028,1058,0,0
-189,-34,0,0,0,0,0,0,0,0,0,-1,1035,1058,0,0
-182,-34,0,0,0,0,0,0,0,0,0,-1,1042,1058,0,0
-175,-34,0,0,0,0,0,0,0,0,0,-1,1049,1058,0,0
-168,-34,0,0,0,0,0,0,0,0,0,-1,1056,1058,0,0
-161,-34,0,0,0,0,0,0,0,0,0,-1,1063,1058,0,0
-154,-34,0,0,0,0,0,0,0,0,0,-1,1070,1058,0,0
-147,-34,0,0,0,0,0,0,0,0,0,-1,1077,1058,0,0
-140,-34,0,0,0,0,0,0,0,0,0,-1,1084,1058,0,0
-133,-34,0,0,0,0,0,0,0,0,0,-1,1091,1058,0,0
-126,-34,0,0,0,0,0,0,0,0,0,-1,1098,1058,0,0
-119,-34,0,0,0,0,0,0,0,0,0,-1,1105,1058,0,0
-112,-34,0,0,0,0,0,0,0,0,0,-1,1112,1058,0,0
-105,-34,0,0,0,0,0,0,0,0,0,-1,1119,1058,0,0
-98,-34,0,0,0,0,0,0,0,0,0,-1,1126,1058,0,0
-91,-34,0,0,0,0,0,0,0,0,0,-1,1133,1058,0,0
-84,-34,0,0,0,0,0,0,0,0,0,-1,1140,1058,0,0
-77,-34,0,0,0,0,0,0,0,0,0,-1,1147,1058,0,0
-70,-34,0,0,0,0,0,0,0,0,0,-1,1154,1058,0,0
-63,-34,0,0,0,0,0,0,0,0,0,-1,1161,1058,0,0
-56,-34,0,0,0,0,0,0,0,0,0,-1,1168,1058,0,0
-49,-34,0,0,0,0,0,0,0,0,0,-1,1175,1058,0,0
-42,-34,0,0,0,0,0,0,0,0,0,-1,1182,1058,0,0
-35,-34,0,0,0,0,0,0,0,0,0,-1,1189,1058,0,0
-28,-34,0,0,0,0,0,0,0,0,0,-1,1196,1058,0,0
-21,-34,0,0,0,0,0,0,0,0,0,-1,1203,1058,0,0
-14,-34,0,0,0,0,0,0,0,0,0,-1,1210,1058,0,0
-7,-34,0,0,0,0,0,0,0,0,0,-1,1217,1058,0,0
0,-34,0,0,0,0,0,0,0,0,0,-1,1224,1058,0,0
7,-34,0,0,0,0,0,0,0,0,0,-1,1231,1058,0,0
14,-34,0,0,0,0,0,0,0,0,0,-1,1238,1058,0,0
21,-34,0,0,0,0,0,0,0,0,0,-1,1245,1058,0,0
28,-34,0,0,0,0,0,0,0,0,0,-1,1252,1058,0,0
35,-34,0,0,0,0,0,0,0,0,0,-1,1259,1058,0,0
42,-34,0,0,0,0,0,0,0,0,0,-1,1266,1058,0,0
49,-34,0,0,0,0,0,0,0,0,0,-1,1273,1058,0,0
56,-34,0,0,0,0,0,0,0,0,0,-1,1280,1058,0,0
63,-34,0,0,0,0,0,0,0,0,0,-1,1287,1058,0,0
70,-34,0,0,0,0,0,0,0,0,0,-1,1294,1058,0,0
77,-34,0,0,0,0,0,0,0,0,0,-1,1301,1058,0,0
84,-34,0,0,0,0,0,0,0,0,0,-1,1308,1058,0,0
91,-34,0,0,0,0,0,0,0,0,0,-1,1315,1058,0,0
98,-34,0,0,0,0,0,0,0,0,0,-1,1322,1058,0,0
105,-34,0,0,0,0,0,0,0,0,0,-1,1329,1058,0,0
112,-34,0,0,0,0,0,0,0,0,0,-1,1336,1058,0,0
119,-34,0,0,0,0,0,0,0,0,0,-1,1343,1058,0,0
126,-34,0,0,0,0,0,0,0,0,0,-1,1350,1058,0,0
133,-34,0,0,0,0,0,0,0,0,0,-1,1357,1058,0,0
140,-34,0,0,0,0,0,0,0,0,0,-1,1364,1058,0,0
147,-34,0,0,0,0,0,0,0,0,0,-1,1371,1058,0,0
154,-34,0,0,0,0,0,0,0,0,0,-1,1378,1058,0,0
161,-34,0,0,0,0,0,0,0,0,0,-1,1385,1058,0,0
168,-34,0,0,0,0,0,0,0,0,0,-1,1392,1058,0,0
175,-34,0,0,0,0,0,0,0,0,0,-1,1399,1058,0,0
182,-34,0,0,0,0,0,0,0,0,0,-1,1406,1058,0,0
189,-34,0,0,0,0,0,0,0,0,0,-1,1413,1058,0,0
196,-34,0,0,0,0,0,0,0,0,0,-1,1420,1058,0,0
203,-34,0,0,0,0,0,0,0,0,0,-1,1427,1058,0,0
210,-34,0,0,0,0,0,0,0,0,0,-1,1434,1058,0,0
217,-34,0,0,0,0,0,0,0,0,0,-1,1441,1058,0,0
224,-34,0,0,0,0,0,0,0,0,0,-1,1448,1058,0,0
231,-34,0,0,0,0,0,0,0,0,0,-1,1455,1058,0,0
238,-34,0,0,0,0,0,0,0,0,0,-1,1462,1058,0,0
245,-34,0,0,0,0,0,0,0,0,0,-1,1469,1058,0,0
252,-34,0,0,0,0,0,0,0,0,0,-1,1476,1058,0,0
259,-34,0,0,0,0,0,0,0,0,0,-1,1483,1058,0,0
266,-34,0,0,0,0,0,0,0,0,0,-1,1490,1058,0,0
273,-34,0,0,0,0,0,0,0,0,0,-1,1497,1058,0,0
280,-34,0,0,0,0,0,0,0,0,0,-1,1504,1058,0,0
287,-34,0,0,0,0,0,0,0,0,0,-1,1511,1058,0,0
294,-34,0,0,0,0,0,0,0,0,0,-1,1518,1058,0,0
301,-34,0,0,0,0,0,0,0,0,0,-1,1525,1058,0,0
308,-34,0,0,0,0,0,0,0,0,0,-1,1532,1058,0,0
315,-34,0,0,0,0,0,0,0,0,0,-1,1539,1058,0,0
322,-34,0,0,0,0,0,0,0,0,0,-1,1546,1058,0,0
329,-34,0,0,0,0,0,0,0,0,0,-1,1553,1058,0,0
336,-34,0,0,0,0,0,0,0,0,0,-1,1560,1058,0,0
343,-34,0,0,0,0,0,0,0,0,0,-1,1567,1058,0,0
350,-34,0,0,0,0,0,0,0,0,0,-1,1574,1058,0,0
357,-34,0,0,0,0,0,0,0,0,0,-1,1581,1058,0,0
364,-34,0,0,0,0,0,0,0,0,0,-1,1588,1058,0,0
371,-34,0,0,0,0,0,0,0,0,0,-1,1595,1058,0,0
378,-34,0,0,0,0,0,0,0,0,0,-1,1602,1058,0,0
385,-34,0,0,0,0,0,0,0,0,0,-1,1609,1058,0,0
392,-34,0,0,0,0,0,0,0,0,0,-1,1616,1058,0,0
399,-34,0,0,0,0,0,0,0,0,0,-1,1623,1058,0,0
406,-34,0,0,0,0,0,0,0,0,0,-1,1630,1058,0,0
413,-34,0,0,0,0,0,0,0,0,0,-1,1637,1058,0,0
420,-34,0,0,0,0,0,0,0,0,0,-1,1644,1058,0,0
427,-34,0,0,0,0,0,0,0,0,0,-1,1651,1058,0,0
434,-34,0,0,0,0,0,0,0,0,0,-1,1658,1058,0,0
441,-34,0,0,0,0,0,0,0,0,0,-1,1665,1058,0,0
448,-34,0,0,0,0,0,0,0,0,0,-1,1672,1058,0,0
455,-34,0,0,0,0,0,0,0,0,0,-1,1679,1058,0,0
462,-34,0,0,0,0,0,0,0,0,0,-1,1686,1058,0,0
469,-34,0,0,0,0,0,0,0,0,0,-1,1693,1058,0,0
476,-34,0,0,0,0,0,0,0,0,0,-1,1700,1058,0,0
483,-34,0,0,0,0,0,0,0,0,0,-1,1707,1058,0,0
490,-34,0,0,0,0,0,0,0,0,0,-1,1714,1058,0,0
497,-34,0,0,0,0,0,0,0,0,0,-1,1721,1058,0,0
504,-34,0,0,0,0,0,0,0,0,0,-1,1728,1058,0,0
511,-34,0,0,0,0,0,0,0,0,0,-1,1735,1058,0,0
518,-34,0,0,0,0,0,0,0,0,0,-1,1742,1058,0,0
525,-34,0,0,0,0,0,0,0,0,0,-1,1749,1058,0,0
532,-34,0,0,0,0,0,0,0,0,0,-1,1756,1058,0,0
539,-34,0,0,0,0,0,0,0,0,0,-1,1763,1058,0,0
546,-34,0,0,0,0,0,0,0,0,0,-1,1770,1058,0,0
553,-34,0,0,0,0,0,0,0,0,0,-1,1777,1058,0,0
560,-34,0,0,0,0,0,0,0,0,0,-1,1784,1058,0,0
567,-34,0,0,0,0,0,0,0,0,0,-1,1791,1058,0,0
574,-34,0,0,0,0,0,0,0,0,0,-1,1798,1058,0,0
581,-34,0,0,0,0,0,0,0,0,0,-1,1805,1058,0,0
588,-34,0,0,0,0,0,0,0,0,0,-1,1812,1058,0,0
595,-34,0,0,0,0,0,0,0,0,0,-1,1819,1058,0,0
602,-34,0,0,0,0,0,0,0,0,0,-1,1826,1058,0,0
609,-34,0,0,0,0,0,0,0,0,0,-1,1833,1058,0,0
616,-34,0,0,0,0,0,0,0,0,0,-1,1840,1058,0,0
623,-34,0,0,0,0,0,0,0,0,0,-1,1847,1058,0,0
630,-34,0,0,0,0,0,0,0,0,0,-1,1854,1058,0,0
637,-34,0,0,0,0,0,0,0,0,0,-1,1861,1058,0,0
644,-34,0,0,0,0,0,0,0,0,0,-1,1868,1058,0,0
651,-34,67.2196,2.09863,0.000348164,0.00237299,0.00219281,0.00377582,-0.00105466,1.00167,0.00293268,0.0427857,1875,1058,67.2196,-2.0986
658,-34,67.1102,2.29321,0.000267396,0.00193886,0.00217875,0.00343667,-0.00123041,0.968535,0.0027931,0.0451414,1882,1058,67.1103,-2.29322
665,-34,67.0612,2.32263,0.000304195,0.00164182,0.00199487,0.00307701,-0.00113099,0.947142,0.0025146,0.0411858,1889,1058,67.0611,-2.32264
672,-34,67.0598,2.26062,0.00035062,0.00154705,0.00181105,0.00285612,-0.000958455,0.944913,0.00229139,0.0344326,1896,1058,67.0598,-2.2606
679,-34,67.0476,2.25037,0.000412311,0.00153827,0.001587,0.00265919,-0.000708605,0.955847,0.00205023,0.0362972,1903,1058,67.0476,-2.25041
686,-34,67.0626,2.33997,9.51684e-05,0.00121758,0.00143817,0.00220016,-0.000887412,0.971423,0.00183553,0.0415423,1910,1058,67.0626,-2.34002
693,-34,67.0432,2.41333,-0.000351889,0.000793012,0.00139213,0.00172579,-0.00128467,0.980462,0.0017443,0.0408445,1917,1058,67.0433,-2.41328
700,-34,67.0579,2.35852,-0.000744188,0.000400999,0.00148579,0.00142071,-0.0017639,0.969318,0.00184219,0.0388582,1924,1058,67.0578,-2.35847
707,-34,67.0803,2.29834,-0.00143607,0.000347601,0.00159659,0.00128455,-0.00237302,1.0401,0.00214265,0.0253948,1931,1058,67.0804,-2.29839
714,-34,67.082,2.39453,-0.00237826,0.000677968,0.0017429,0.00146779,-0.00316809,1.14531,0.00273588,0.0203524,1938,1058,67.082,-2.39455
721,-34,67.0405,2.53442,0,0,0,0,0,0,0,-1,1945,1058,67.0405,-2.53438
728,-34,66.609,7.25916,0,0,0,0,0,0,0,-1,1952,1058,66.609,-7.25915
735,-34,66.484,7.07227,-0.00575227,0.00357619,0.00186569,0.00393549,-0.00611157,1.38054,0.00584585,0.0223204,1959,1058,66.484,-7.07228
742,-34,66.4219,6.83008,-0.00655585,0.00545644,0.00202907,0.00578993,-0.00688934,1.4079,0.00732955,0.0179578,1966,1058,66.4219,-6.83013
749,-34,66.423,6.5979,-0.00743659,0.0075421,0.00217018,0.00785019,-0.00774467,1.42977,0.00900377,0.0156415,1973,1058,66.4229,-6.59793
756,-34,66.3964,6.33289,-0.00774686,0.010707,0.00223899,0.0109748,-0.00801463,1.45177,0.0110079,0.0122521,1980,1058,66.3963,-6.3329
763,-34,66.3162,6.05872,-0.00748092,0.0153431,0.00216163,0.015546,-0.00768384,1.4772,0.0136654,0.0130146,1987,1058,66.3161,-6.05871
770,-34,66.1809,5.80066,-0.00634173,0.0212576,0.00176422,0.0213699,-0.00645405,1.50722,0.016816,0.0185418,1994,1058,66.181,-5.80062
777,-34,66.021,5.65771,-0.00355688,0.0292005,0.00110973,0.029238,-0.00359443,1.53697,0.020794,0.0219719,2001,1058,66.0211,-5.65776
784,-34,66.0911,5.44849,0.000186279,0.0379174,0.000443987,0.0379226,0.000181057,1.55903,0.0252216,0.0402123,2008,1058,66.0912,-5.44845
791,-34,65.6138,5.18787,0,0,0,0,0,0,0,-1,2015,1058,65.6138,-5.18793
798,-34,66.2996,3.11743,0,0,0,0,0,0,0,-1,2022,1058,66.2995,-3.11741
805,-34,66.7024,3.70142,0,0,0,0,0,0,0,-1,2029,1058,66.7023,-3.70147
812,-34,67.0967,4.35669,0,0,0,0,0,0,0,-1,2036,1058,67.0966,-4.35665
-700,-41,-48.114,5.18018,0,0,0,0,0,0,0,-1,524,1065,-48.1141,-5.18021
-693,-41,-48.6999,4.45154,0,0,0,0,0,0,0,-1,531,1065,-48.6999,-4.45153
-686,-41,-52.8,-2.39709,0,0,0,0,0,0,0,-1,538,1065,-52.8,2.39713
-679,-41,-52.4861,-1.55029,0,0,0,0,0,0,0,-1,545,1065,-52.4861,1.5503
-672,-41,-52.2426,-0.698242,0,0,0,0,0,0,0,-1,552,1065,-52.2426,0.698272
-665,-41,-51.8953,0.0997314,0,0,0,0,0,0,0,-1,559,1065,-51.8953,-0.0997745
-658,-41,-51.2468,1.56396,0,0,0,0,0,0,0,-1,566,1065,-51.2467,-1.56395
-651,-41,-50.8332,2.54199,0,0,0,0,0,0,0,-1,573,1065,-50.8332,-2.54203
-644,-41,-51.1091,3.13916,0.00334682,0.0108418,-0.00629256,0.0144182,-0.000229633,-1.05397,0.00968961,0.0164908,580,1065,-51.1091,-3.1391
-637,-41,-51.1774,3.45557,0.00311848,0.0116904,-0.00340182,0.0128764,0.00193253,-1.23535,0.0080181,0.0171931,587,1065,-51.1775,-3.45551
-630,-41,-51.1931,3.82422,0.00232545,0.0109173,-0.00186178,0.0113034,0.00193936,-1.36632,0.00697953,0.0164267,594,1065,-51.1931,-3.82425
-623,-41,-51.1965,4.17249,0.00155387,0.00840164,-0.00109777,0.00857331,0.00138219,-1.41566,0.00531506,0.0137632,601,1065,-51.1966,-4.17246
-616,-41,-51.1859,4.59021,0.000975133,0.00512267,-0.00167385,0.00571392,0.000383887,-1.23125,0.00368798,0.0177381,608,1065,-51.1859,-4.59018
-609,-41,-51.1864,4.94824,0.000217853,0.00229149,-0.00190146,0.00342044,-0.000911097,-1.035,0.00263699,0.0240196,615,1065,-51.1864,-4.94823
-602,-41,-51.2203,5.19043,4.92884e-05,0.000490344,-0.00207754,0.00235902,-0.00181939,-0.838274,0.00241911,0.0140441,622,1065,-51.2203,-5.19044
-595,-41,-51.384,5.44104,0.000213139,-0.000735501,-0.00246294,0.00224701,-0.00276937,-0.690271,0.00290144,0.0234837,629,1065,-51.384,-5.44105
-588,-41,-51.7098,0.612671,0,0,0,0,0,0,0,-1,636,1065,-51.7098,-0.612663
-581,-41,-51.7065,0.395996,0.000684001,-0.00163525,-0.00239145,0.00218215,-0.0031334,-0.559649,0.00308527,0.0354972,643,1065,-51.7065,-0.395977
-574,-41,-51.6711,0.17627,0.000729887,-0.00155389,-0.00219659,0.00206367,-0.00288767,-0.545699,0.00287182,0.0380732,650,1065,-51.6711,-0.176299
-567,-41,-51.5531,-0.0515137,0.000554842,-0.00111863,-0.00193585,0.00182705,-0.00239084,-0.581408,0.00244244,0.0417656,657,1065,-51.5531,0.0515165
-560,-41,-51.5842,0.161133,0.000265092,-0.00040601,-0.00165022,0.00161353,-0.00175445,-0.685097,0.00194507,0.0401144,664,1065,-51.5842,-0.161084
-553,-41,-51.7538,0.455688,4.79686e-05,0.000357738,-0.00144549,0.00165662,-0.00125091,-0.83877,0.0016841,0.0415107,671,1065,-51.7538,-0.455733
-546,-41,-51.7915,0.533936,0.000138175,0.000811572,-0.00149183,0.00200422,-0.00105448,-0.896386,0.00179409,0.0428233,678,1065,-51.7915,-0.533954
-539,-41,-51.7877,0.459961,0.000460808,0.000410512,-0.00205463,0.00249045,-0.00161913,-0.779279,0.00239037,0.0426282,685,1065,-51.7877,-0.45994
-532,-41,-51.7904,0.364014,0.000916174,0.000242522,-0.00270279,0.00330304,-0.00214434,-0.723407,0.00316868,0.0426023,692,1065,-51.7904,-0.36397
-525,-41,0,0,0,0,0,0,0,0,0,-1,699,1065,0,0
-518,-41,0,0,0,0,0,0,0,0,0,-1,706,1065,0,0
-511,-41,0,0,0,0,0,0,0,0,0,-1,713,1065,0,0
-504,-41,0,0,0,0,0,0,0,0,0,-1,720,1065,0,0
-497,-41,0,0,0,0,0,0,0,0,0,-1,727,1065,0,0
-490,-41,0,0,0,0,0,0,0,0,0,-1,734,1065,0,0
-483,-41,0,0,0,0,0,0,0,0,0,-1,741,1065,0,0
-476,-41,0,0,0,0,0,0,0,0,0,-1,748,1065,0,0
-469,-41,0,0,0,0,0,0,0,0,0,-1,755,1065,0,0
-462,-41,0,0,0,0,0,0,0,0,0,-1,762,1065,0,0
-455,-41,0,0,0,0,0,0,0,0,0,-1,769,1065,0,0
-448,-41,0,0,0,0,0,0,0,0,0,-1,776,1065,0,0
-441,-41,0,0,0,0,0,0,0,0,0,-1,783,1065,0,0
-434,-41,0,0,0,0,0,0,0,0,0,-1,790,1065,0,0
-427,-41,0,0,0,0,0,0,0,0,0,-1,797,1065,0,0
-420,-41,0,0,0,0,0,0,0,0,0,-1,804,1065,0,0
-413,-41,0,0,0,0,0,0,0,0,0,-1,811,1065,0,0
-406,-41,0,0,0,0,0,0,0,0,0,-1,818,1065,0,0
-399,-41,0,0,0,0,0,0,0,0,0,-1,825,1065,0,0
-392,-41,0,0,0,0,0,0,0,0,0,-1,832,1065,0,0
-385,-41,0,0,0,0,0,0,0,0,0,-1,839,1065,0,0
-378,-41,0,0,0,0,0,0,0,0,0,-1,846,1065,0,0
-371,-41,0,0,0,0,0,0,0,0,0,-1,853,1065,0,0
-364,-41,0,0,0,0,0,0,0,0,0,-1,860,1065,0,0
-357,-41,0,0,0,0,0,0,0,0,0,-1,867,1065,0,0
-350,-41,0,0,0,0,0,0,0,0,0,-1,874,1065,0,0
-343,-41,0,0,0,0,0,0,0,0,0,-1,881,1065,0,0
-336,-41,0,0,0,0,0,0,0,0,0,-1,888,1065,0,0
-329,-41,0,0,0,0,0,0,0,0,0,-1,895,1065,0,0
-322,-41,0,0,0,0,0,0,0,0,0,-1,902,1065,0,0
-315,-41,0,0,0,0,0,0,0,0,0,-1,909,1065,0,0
-308,-41,0,0,0,0,0,0,0,0,0,-1,916,1065,0,0
-301,-41,0,0,0,0,0,0,0,0,0,-1,923,1065,0,0
-294,-41,0,0,0,0,0,0,0,0,0,-1,930,1065,0,0
-287,-41,0,0,0,0,0,0,0,0,0,-1,937,1065,0,0
-280,-41,0,0,0,0,0,0,0,0,0,-1,944,1065,0,0
-273,-41,0,0,0,0,0,0,0,0,0,-1,951,1065,0,0
-266,-41,0,0,0,0,0,0,0,0,0,-1,958,1065,0,0
-259,-41,0,0,0,0,0,0,0,0,0,-1,965,1065,0,0
-252,-41,0,0,0,0,0,0,0,0,0,-1,972,1065,0,0
-245,-41,0,0,0,0,0,0,0,0,0,-1,979,1065,0,0
-238,-41,0,0,0,0,0,0,0,0,0,-1,986,1065,0,0
-231,-41,0,0,0,0,0,0,0,0,0,-1,993,1065,0,0
-224,-41,0,0,0,0,0,0,0,0,0,-1,1000,1065,0,0
-217,-41,0,0,0,0,0,0,0,0,0,-1,1007,1065,0,0
-210,-41,0,0,0,0,0,0,0,0,0,-1,1014,1065,0,0
-203,-41,0,0,0,0,0,0,0,0,0,-1,1021,1065,0,0
-196,-41,0,0,0,0,0,0,0,0,0,-1,1028,1065,0,0
-189,-41,0,0,0,0,0,0,0,0,0,-1,1035,1065,0,0
-182,-41,0,0,0,0,0,0,0,0,0,-1,1042,1065,0,0
-175,-41,0,0,0,0,0,0,0,0,0,-1,1049,1065,0,0
-168,-41,0,0,0,0,0,0,0,0,0,-1,1056,1065,0,0
-161,-41,0,0,0,0,0,0,0,0,0,-1,1063,1065,0,0
-154,-41,0,0,0,0,0,0,0,0,0,-1,1070,1065,0,0
-147,-41,0,0,0,0,0,0,0,0,0,-1,1077,1065,0,0
-140,-41,0,0,0,0,0,0,0,0,0,-1,1084,1065,0,0
-133,-41,0,0,0,0,0,0,0,0,0,-1,1091,1065,0,0
-126,-41,0,0,0,0,0,0,0,0,0,-1,1098,1065,0,0
-119,-41,0,0,0,0,0,0,0,0,0,-1,1105,1065,0,0
-112,-41,0,0,0,0,0,0,0,0,0,-1,1112,1065,0,0
-105,-41,0,0,0,0,0,0,0,0,0,-1,1119,1065,0,0
-98,-41,0,0,0,0,0,0,0,0,0,-1,1126,1065,0,0
-91,-41,0,0,0,0,0,0,0,0,0,-1,1133,1065,0,0
-84,-41,0,0,0,0,0,0,0,0,0,-1,1140,1065,0,0
-77,-41,0,0,0,0,0,0,0,0,0,-1,1147,1065,0,0
-70,-41,0,0,0,0,0,0,0,0,0,-1,1154,1065,0,0
-63,-41,0,0,0,0,0,0,0,0,0,-1,1161,1065,0,0
-56,-41,0,0,0,0,0,0,0,0,0,-1,1168,1065,0,0
-49,-41,0,0,0,0,0,0,0,0,0,-1,1175,1065,0,0
-42,-41,0,0,0,0,0,0,0,0,0,-1,1182,1065,0,0
-35,-41,0,0,0,0,0,0,0,0,0,-1,1189,1065,0,0
-28,-41,0,0,0,0,0,0,0,0,0,-1,1196,1065,0,0
-21,-41,0,0,0,0,0,0,0,0,0,-1,1203,1065,0,0
-14,-41,0,0,0,0,0,0,0,0,0,-1,1210,1065,0,0
-7,-41,0,0,0,0,0,0,0,0,0,-1,1217,1065,0,0
0,-41,0,0,0,0,0,0,0,0,0,-1,1224,1065,0,0
7,-41,0,0,0,0,0,0,0,0,0,-1,1231,1065,0,0
14,-41,0,0,0,0,0,0,0,0,0,-1,1238,1065,0,0
21,-41,0,0,0,0,0,0,0,0,0,-1,1245,1065,0,0
28,-41,0,0,0,0,0,0,0,0,0,-1,1252,1065,0,0
35,-41,0,0,0,0,0,0,0,0,0,-1,1259,1065,0,0
42,-41,0,0,0,0,0,0,0,0,0,-1,1266,1065,0,0
49,-41,0,0,0,0,0,0,0,0,0,-1,1273,1065,0,0
56,-41,0,0,0,0,0,0,0,0,0,-1,1280,1065,0,0
63,-41,0,0,0,0,0,0,0,0,0,-1,1287,1065,0,0
70,-41,0,0,0,0,0,0,0,0,0,-1,1294,1065,0,0
77,-41,0,0,0,0,0,0,0,0,0,-1,1301,1065,0,0
84,-41,0,0,0,0,0,0,0,0,0,-1,1308,1065,0,0
91,-41,0,0,0,0,0,0,0,0,0,-1,1315,1065,0,0
98,-41,0,0,0,0,0,0,0,0,0,-1,1322,1065,0,0
105,-41,0,0,0,0,0,0,0,0,0,-1,1329,1065,0,0
112,-41,0,0,0,0,0,0,0,0,0,-1,1336,1065,0,0
119,-41,0,0,0,0,0,0,0,0,0,-1,1343,1065,0,0
126,-41,0,0,0,0,0,0,0,0,0,-1,1350,1065,0,0
133,-41,0,0,0,0,0,0,0,0,0,-1,1357,1065,0,0
140,-41,0,0,0,0,0,0,0,0,0,-1,1364,1065,0,0
147,-41,0,0,0,0,0,0,0,0,0,-1,1371,1065,0,0
154,-41,0,0,0,0,0,0,0,0,0,-1,1378,1065,0,0
161,-41,0,0,0,0,0,0,0,0,0,-1,1385,1065,0,0
168,-41,0,0,0,0,0,0,0,0,0,-1,1392,1065,0,0
175,-41,0,0,0,0,0,0,0,0,0,-1,1399,1065,0,0
182,-41,0,0,0,0,0,0,0,0,0,-1,1406,1065,0,0
189,-41,0,0,0,0,0,0,0,0,0,-1,1413,1065,0,0
196,-41,0,0,0,0,0,0,0,0,0,-1,1420,1065,0,0
203,-41,0,0,0,0,0,0,0,0,0,-1,1427,1065,0,0
210,-41,0,0,0,0,0,0,0,0,0,-1,1434,1065,0,0
217,-41,0,0,0,0,0,0,0,0,0,-1,1441,1065,0,0
224,-41,0,0,0,0,0,0,0,0,0,-1,1448,1065,0,0
231,-41,0,0,0,0,0,0,0,0,0,-1,1455,1065,0,0
238,-41,0,0,0,0,0,0,0,0,0,-1,1462,1065,0,0
245,-41,0,0,0,0,0,0,0,0,0,-1,1469,1065,0,0
252,-41,0,0,0,0,0,0,0,0,0,-1,1476,1065,0,0
259,-41,0,0,0,0,0,0,0,0,0,-1,1483,1065,0,0
266,-41,0,0,0,0,0,0,0,0,0,-1,1490,1065,0,0
273,-41,0,0,0,0,0,0,0,0,0,-1,1497,1065,0,0
280,-41,0,0,0,0,0,0,0,0,0,-1,1504,1065,0,0
287,-41,0,0,0,0,0,0,0,0,0,-1,1511,1065,0,0
294,-41,0,0,0,0,0,0,0,0,0,-1,1518,1065,0,0
301,-41,0,0,0,0,0,0,0,0,0,-1,1525,1065,0,0
308,-41,0,0,0,0,0,0,0,0,0,-1,1532,1065,0,0
315,-41,0,0,0,0,0,0,0,0,0,-1,1539,1065,0,0
322,-41,0,0,0,0,0,0,0,0,0,-1,1546,1065,0,0
329,-41,0,0,0,0,0,0,0,0,0,-1,1553,1065,0,0
336,-41,0,0,0,0,0,0,0,0,0,-1,1560,1065,0,0
343,-41,0,0,0,0,0,0,0,0,0,-1,1567,1065,0,0
350,-41,0,0,0,0,0,0,0,0,0,-1,1574,1065,0,0
357,-41,0,0,0,0,0,0,0,0,0,-1,1581,1065,0,0
364,-41,0,0,0,0,0,0,0,0,0,-1,1588,1065,0,0
371,-41,0,0,0,0,0,0,0,0,0,-1,1595,1065,0,0
378,-41,0,0,0,0,0,0,0,0,0,-1,1602,1065,0,0
385,-41,0,0,0,0,0,0,0,0,0,-1,1609,1065,0,0
392,-41,0,0,0,0,0,0,0,0,0,-1,1616,1065,0,0
399,-41,0,0,0,0,0,0,0,0,0,-1,1623,1065,0,0
406,-41,0,0,0,0,0,0,0,0,0,-1,1630,1065,0,0
413,-41,0,0,0,0,0,0,0,0,0,-1,1637,1065,0,0
420,-41,0,0,0,0,0,0,0,0,0,-1,1644,1065,0,0
427,-41,0,0,0,0,0,0,0,0,0,-1,1651,1065,0,0
434,-41,0,0,0,0,0,0,0,0,0,-1,1658,1065,0,0
441,-41,0,0,0,0,0,0,0,0,0,-1,1665,1065,0,0
448,-41,0,0,0,0,0,0,0,0,0,-1,1672,1065,0,0
455,-41,0,0,0,0,0,0,0,0,0,-1,1679,1065,0,0
462,-41,0,0,0,0,0,0,0,0,0,-1,1686,1065,0,0
469,-41,0,0,0,0,0,0,0,0,0,-1,1693,1065,0,0
476,-41,0,0,0,0,0,0,0,0,0,-1,1700,1065,0,0
483,-41,0,0,0,0,0,0,0,0,0,-1,1707,1065,0,0
490,-41,0,0,0,0,0,0,0,0,0,-1,1714,1065,0,0
497,-41,0,0,0,0,0,0,0,0,0,-1,1721,1065,0,0
504,-41,0,0,0,0,0,0,0,0,0,-1,1728,1065,0,0
511,-41,0,0,0,0,0,0,0,0,0,-1,1735,1065,0,0
518,-41,0,0,0,0,0,0,0,0,0,-1,1742,1065,0,0
525,-41,0,0,0,0,0,0,0,0,0,-1,1749,1065,0,0
532,-41,0,0,0,0,0,0,0,0,0,-1,1756,1065,0,0
539,-41,0,0,0,0,0,0,0,0,0,-1,1763,1065,0,0
546,-41,0,0,0,0,0,0,0,0,0,-1,1770,1065,0,0
553,-41,0,0,0,0,0,0,0,0,0,-1,1777,1065,0,0
560,-41,0,0,0,0,0,0,0,0,0,-1,1784,1065,0,0
567,-41,0,0,0,0,0,0,0,0,0,-1,1791,1065,0,0
574,-41,0,0,0,0,0,0,0,0,0,-1,1798,1065,0,0
581,-41,0,0,0,0,0,0,0,0,0,-1,1805,1065,0,0
588,-41,0,0,0,0,0,0,0,0,0,-1,1812,1065,0,0
595,-41,0,0,0,0,0,0,0,0,0,-1,1819,1065,0,0
602,-41,0,0,0,0,0,0,0,0,0,-1,1826,1065,0,0
609,-41,0,0,0,0,0,0,0,0,0,-1,1833,1065,0,0
616,-41,0,0,0,0,0,0,0,0,0,-1,1840,1065,0,0
623,-41,0,0,0,0,0,0,0,0,0,-1,1847,1065,0,0
630,-41,0,0,0,0,0,0,0,0,0,-1,1854,1065,0,0
637,-41,0,0,0,0,0,0,0,0,0,-1,1861,1065,0,0
644,-41,0,0,0,0,0,0,0,0,0,-1,1868,1065,0,0
651,-41,67.0507,2.18323,-0.00102189,0.00123119,0.00235478,0.00271503,-0.00250573,1.00851,0.00301501,0.0372285,1875,1065,67.0506,-2.18317
658,-41,67.0555,2.19836,-0.000555517,0.00105845,0.00220394,0.00259851,-0.00209557,0.960895,0.00271531,0.0400427,1882,1065,67.0555,-2.19841
665,-41,67.0579,2.28979,-0.000150731,0.000967871,0.00193198,0.00241988,-0.00160274,0.926294,0.00233838,0.0407716,1889,1065,67.0579,-2.28974
672,-41,67.1014,2.18103,0.000139545,0.00105492,0.00168122,0.00233964,-0.00114518,0.918294,0.00205098,0.0388344,1896,1065,67.1014,-2.18102
679,-41,67.2465,2.09644,0.000346221,0.00121691,0.00140584,0.00225327,-0.000690138,0.935549,0.00177746,0.039977,1903,1065,67.2465,-2.09647
686,-41,67.1223,2.48865,0.000106931,0.00101949,0.00123741,0.00188207,-0.000755645,0.962032,0.00156849,0.0406479,1910,1065,67.1223,-2.48862
693,-41,67.1257,2.60571,-0.000279154,0.00068989,0.00119477,0.00149465,-0.00108391,0.978033,0.00149501,0.0421074,1917,1065,67.1257,-2.6057
700,-41,67.1183,2.49329,-0.000610505,0.000385617,0.00130939,0.00128847,-0.00151336,0.967136,0.00161938,0.0388612,1924,1065,67.1183,-2.49326
707,-41,67.1111,2.31262,-0.00123695,0.000334406,0.00145011,0.001198,-0.00210055,1.03366,0.00192803,0.0278763,1931,1065,67.1111,-2.31261
714,-41,67.1144,2.33142,-0.00210542,0.000619996,0.00165127,0.00139824,-0.00288366,1.13037,0.00252126,0.0262035,1938,1065,67.1143,-2.33145
721,-41,67.1086,2.46423,0,0,0,0,0,0,0,-1,1945,1065,67.1087,-2.46419
728,-41,66.2972,7.31958,0,0,0,0,0,0,0,-1,1952,1065,66.2973,-7.31952
735,-41,66.1582,7.05554,-0.00521662,0.00318214,0.0020383,0.00365068,-0.00568515,1.34485,0.00543254,0.0221506,1959,1065,66.1583,-7.05555
742,-41,66.0828,6.78723,-0.00596018,0.00478781,0.00220291,0.0052218,-0.00639417,1.37628,0.00671786,0.0188681,1966,1065,66.0828,-6.78726
749,-41,66.0684,6.55457,-0.00663327,0.00659018,0.00227028,0.00696909,-0.00701218,1.40542,0.00807211,0.0169316,1973,1065,66.0683,-6.55461
756,-41,66.0707,6.30017,-0.0067747,0.00937896,0.00226894,0.0096916,-0.00708734,1.43387,0.00972614,0.0158113,1980,1065,66.0707,-6.30015
763,-41,65.9639,6.01147,-0.00646031,0.0135169,0.00202838,0.0137208,-0.00666418,1.47062,0.012002,0.0131808,1987,1065,65.9638,-6.01151
770,-41,65.822,5.73169,-0.00529821,0.0187206,0.00135357,0.0187967,-0.00537425,1.51468,0.0146548,0.0138507,1994,1065,65.822,-5.73164
777,-41,65.6624,5.45142,-0.00267528,0.0255379,0.000217529,0.0255395,-0.00267695,1.56309,0.0179852,0.0160057,2001,1065,65.6624,-5.45139
784,-41,65.6521,5.10791,0.000781921,0.0329855,-0.00108801,0.0330222,0.000745203,-1.53706,0.0217707,0.0270913,2008,1065,65.652,-5.10795
791,-41,65.9727,4.93579,0.00533261,0.0413565,-0.00258138,0.0415405,0.00514857,-1.49962,0.026147,0.045213,2015,1065,65.9726,-4.93577
798,-41,66.3127,4.68103,0,0,0,0,0,0,0,-1,2022,1065,66.3127,-4.68103
805,-41,64.6753,3.89478,0,0,0,0,0,0,0,-1,2029,1065,64.6753,-3.89477
812,-41,64.5388,3.50488,0,0,0,0,0,0,0,-1,2036,1065,64.5388,-3.50494
-700,-48,-51.5058,-6.09753,0,0,0,0,0,0,0,-1,524,1072,-51.5058,6.09755
-693,-48,-52.1976,-2.99072,0,0,0,0,0,0,0,-1,531,1072,-52.1976,2.99074
-686,-48,-51.9254,-2.13098,0.000677764,-0.0413729,-0.0419055,0.0265367,-0.0672319,-0.552882,0.0558109,0.046646,538,1072,-51.9254,2.131
-679,-48,-51.608,-1.28796,0.00458735,-0.0254216,-0.0325035,0.0253825,-0.0462167,-0.569158,0.0419171,0.0473279,545,1072,-51.608,1.28801
-672,-48,-51.3872,-0.458496,0,0,0,0,0,0,0,-1,552,1072,-51.3872,0.458456
-665,-48,-51.1732,0.329224,0.00648485,-0.00468445,-0.0185278,0.0202513,-0.0184509,-0.639018,0.0223528,0.045242,559,1072,-51.1732,-0.329245
-658,-48,-50.8083,1.01929,0,0,0,0,0,0,0,-1,566,1072,-50.8084,-1.01925
-651,-48,-50.4642,2.26245,0.0053672,0.00543498,-0.00939394,0.0147951,-0.00399291,-0.787202,0.0114293,0.0407104,573,1072,-50.4642,-2.26239
-644,-48,-50.6382,3.10803,0.00508944,0.00812044,-0.0059779,0.0127719,0.000437928,-0.909541,0.00837247,0.0232325,580,1072,-50.6382,-3.10798
-637,-48,-50.6921,3.36829,0.00412306,0.00939802,-0.00322173,0.0109242,0.0025969,-1.1284,0.00658998,0.0242208,587,1072,-50.6921,-3.36831
-630,-48,-50.7089,3.75403,0.00276383,0.00906743,-0.00178954,0.00954003,0.00229123,-1.3126,0.0057505,0.0282254,594,1072,-50.7089,-3.75398
-623,-48,-50.8418,4.13672,0.00185957,0.00705919,-0.00107321,0.00727199,0.00164677,-1.37505,0.00440295,0.0141166,601,1072,-50.8418,-4.13667
-616,-48,-50.8392,4.51233,0.00122779,0.00424235,-0.00160396,0.00493611,0.000534037,-1.16257,0.00312796,0.0126828,608,1072,-50.8392,-4.5123
-609,-48,-50.7847,4.89099,0.000422887,0.00174066,-0.00181713,0.00301467,-0.000851127,-0.959324,0.00234554,0.0148048,615,1072,-50.7847,-4.89097
-602,-48,-50.7962,5.25793,0.000257177,0.000116048,-0.00194324,0.00213113,-0.00175791,-0.76725,0.00224878,0.0137044,622,1072,-50.7962,-5.25788
-595,-48,-50.8466,5.56396,0.000394044,-0.00101829,-0.00230103,0.00209483,-0.00271908,-0.636514,0.00278709,0.0342282,629,1072,-50.8466,-5.56391
-588,-48,-51.0859,5.81213,0,0,0,0,0,0,0,-1,636,1072,-51.0859,-5.81216
-581,-48,-51.7054,0.326172,0,0,0,0,0,0,0,-1,643,1072,-51.7054,-0.326134
-574,-48,-51.6642,0.414551,0.000907683,-0.00178207,-0.00194392,0.0019266,-0.00280099,-0.482784,0.00274499,0.0404694,650,1072,-51.6642,-0.414521
-567,-48,-51.4603,-0.00939941,0.000803943,-0.00139325,-0.00164466,0.00168318,-0.00227249,-0.490943,0.00229224,0.0417752,657,1072,-51.4602,0.00934629
-560,-48,-51.5234,0.0983887,0.00060896,-0.000737819,-0.00131884,0.00141638,-0.00154524,-0.549356,0.00171043,0.0402849,664,1072,-51.5234,-0.0983934
-553,-48,-51.7051,0.463989,0.000540112,-3.41341e-05,-0.00104599,0.00133767,-0.000831692,-0.651448,0.00126379,0.0418325,671,1072,-51.7051,-0.463957
-546,-48,-51.7646,0.543091,0.000848914,0.00037909,-0.000995668,0.00163701,-0.000409002,-0.66955,0.00125018,0.0420526,678,1072,-51.7647,-0.543047
-539,-48,-51.8278,0.457031,0.00159319,-0.000111017,-0.00147386,0.00244354,-0.000961368,-0.523302,0.00202696,0.0424029,685,1072,-51.8278,-0.457051
-532,-48,-51.8701,0.427856,0.00241718,-0.000368238,-0.0020715,0.00352063,-0.00147168,-0.489445,0.00296212,0.0418386,692,1072,-51.8701,-0.427901
-525,-48,0,0,0,0,0,0,0,0,0,-1,699,1072,0,0
-518,-48,0,0,0,0,0,0,0,0,0,-1,706,1072,0,0
-511,-48,0,0,0,0,0,0,0,0,0,-1,713,1072,0,0
-504,-48,0,0,0,0,0,0,0,0,0,-1,720,1072,0,0
-497,-48,0,0,0,0,0,0,0,0,0,-1,727,1072,0,0
-490,-48,0,0,0,0,0,0,0,0,0,-1,734,1072,0,0
-483,-48,0,0,0,0,0,0,0,0,0,-1,741,1072,0,0
-476,-48,0,0,0,0,0,0,0,0,0,-1,748,1072,0,0
-469,-48,0,0,0,0,0,0,0,0,0,-1,755,1072,0,0
-462,-48,0,0,0,0,0,0,0,0,0,-1,762,1072,0,0
-455,-48,0,0,0,0,0,0,0,0,0,-1,769,1072,0,0
-448,-48,0,0,0,0,0,0,0,0,0,-1,776,1072,0,0
-441,-48,0,0,0,0,0,0,0,0,0,-1,783,1072,0,0
-434,-48,0,0,0,0,0,0,0,0,0,-1,790,1072,0,0
-427,-48,0,0,0,0,0,0,0,0,0,-1,797,1072,0,0
-420,-48,0,0,0,0,0,0,0,0,0,-1,804,1072,0,0
-413,-48,0,0,0,0,0,0,0,0,0,-1,811,1072,0,0
-406,-48,0,0,0,0,0,0,0,0,0,-1,818,1072,0,0
-399,-48,0,0,0,0,0,0,0,0,0,-1,825,1072,0,0
-392,-48,0,0,0,0,0,0,0,0,0,-1,832,1072,0,0
-385,-48,0,0,0,0,0,0,0,0,0,-1,839,1072,0,0
-378,-48,0,0,0,0,0,0,0,0,0,-1,846,1072,0,0
-371,-48,0,0,0,0,0,0,0,0,0,-1,853,1072,0,0
-364,-48,0,0,0,0,0,0,0,0,0,-1,860,1072,0,0
-357,-48,0,0,0,0,0,0,0,0,0,-1,867,1072,0,0
-350,-48,0,0,0,0,0,0,0,0,0,-1,874,1072,0,0
-343,-48,0,0,0,0,0,0,0,0,0,-1,881,1072,0,0
-336,-48,0,0,0,0,0,0,0,0,0,-1,888,1072,0,0
-329,-48,0,0,0,0,0,0,0,0,0,-1,895,1072,0,0
-322,-48,0,0,0,0,0,0,0,0,0,-1,902,1072,0,0
-315,-48,0,0,0,0,0,0,0,0,0,-1,909,1072,0,0
-308,-48,0,0,0,0,0,0,0,0,0,-1,916,1072,0,0
-301,-48,0,0,0,0,0,0,0,0,0,-1,923,1072,0,0
-294,-48,0,0,0,0,0,0,0,0,0,-1,930,1072,0,0
-287,-48,0,0,0,0,0,0,0,0,0,-1,937,1072,0,0
-280,-48,0,0,0,0,0,0,0,0,0,-1,944,1072,0,0
-273,-48,0,0,0,0,0,0,0,0,0,-1,951,1072,0,0
-266,-48,0,0,0,0,0,0,0,0,0,-1,958,1072,0,0
-259,-48,0,0,0,0,0,0,0,0,0,-1,965,1072,0,0
-252,-48,0,0,0,0,0,0,0,0,0,-1,972,1072,0,0
-245,-48,0,0,0,0,0,0,0,0,0,-1,979,1072,0,0
-238,-48,0,0,0,0,0,0,0,0,0,-1,986,1072,0,0
-231,-48,0,0,0,0,0,0,0,0,0,-1,993,1072,0,0
-224,-48,0,0,0,0,0,0,0,0,0,-1,1000,1072,0,0
-217,-48,0,0,0,0,0,0,0,0,0,-1,1007,1072,0,0
-210,-48,0,0,0,0,0,0,0,0,0,-1,1014,1072,0,0
-203,-48,0,0,0,0,0,0,0,0,0,-1,1021,1072,0,0
-196,-48,0,0,0,0,0,0,0,0,0,-1,1028,1072,0,0
-189,-48,0,0,0,0,0,0,0,0,0,-1,1035,1072,0,0
-182,-48,0,0,0,0,0,0,0,0,0,-1,1042,1072,0,0
-175,-48,0,0,0,0,0,0,0,0,0,-1,1049,1072,0,0
-168,-48,0,0,0,0,0,0,0,0,0,-1,1056,1072,0,0
-161,-48,0,0,0,0,0,0,0,0,0,-1,1063,1072,0,0
-154,-48,0,0,0,0,0,0,0,0,0,-1,1070,1072,0,0
-147,-48,0,0,0,0,0,0,0,0,0,-1,1077,1072,0,0
-140,-48,0,0,0,0,0,0,0,0,0,-1,1084,1072,0,0
-133,-48,0,0,0,0,0,0,0,0,0,-1,1091,1072,0,0
-126,-48,0,0,0,0,0,0,0,0,0,-1,1098,1072,0,0
-119,-48,0,0,0,0,0,0,0,0,0,-1,1105,1072,0,0
-112,-48,0,0,0,0,0,0,0,0,0,-1,1112,1072,0,0
-105,-48,0,0,0,0,0,0,0,0,0,-1,1119,1072,0,0
-98,-48,0,0,0,0,0,0,0,0,0,-1,1126,1072,0,0
-91,-48,0,0,0,0,0,0,0,0,0,-1,1133,1072,0,0
-84,-48,0,0,0,0,0,0,0,0,0,-1,1140,1072,0,0
-77,-48,0,0,0,0,0,0,0,0,0,-1,1147,1072,0,0
-70,-48,0,0,0,0,0,0,0,0,0,-1,1154,1072,0,0
-63,-48,0,0,0,0,0,0,0,0,0,-1,1161,1072,0,0
-56,-48,0,0,0,0,0,0,0,0,0,-1,1168,1072,0,0
-49,-48,0,0,0,0,0,0,0,0,0,-1,1175,1072,0,0
-42,-48,0,0,0,0,0,0,0,0,0,-1,1182,1072,0,0
-35,-48,0,0,0,0,0,0,0,0,0,-1,1189,1072,0,0
-28,-48,0,0,0,0,0,0,0,0,0,-1,1196,1072,0,0
-21,-48,0,0,0,0,0,0,0,0,0,-1,1203,1072,0,0
-14,-48,0,0,0,0,0,0,0,0,0,-1,1210,1072,0,0
-7,-48,0,0,0,0,0,0,0,0,0,-1,1217,1072,0,0
0,-48,0,0,0,0,0,0,0,0,0,-1,1224,1072,0,0
7,-48,0,0,0,0,0,0,0,0,0,-1,1231,1072,0,0
14,-48,0,0,0,0,0,0,0,0,0,-1,1238,1072,0,0
21,-48,0,0,0,0,0,0,0,0,0,-1,1245,1072,0,0
28,-48,0,0,0,0,0,0,0,0,0,-1,1252,1072,0,0
35,-48,0,0,0,0,0,0,0,0,0,-1,1259,1072,0,0
42,-48,0,0,0,0,0,0,0,0,0,-1,1266,1072,0,0
49,-48,0,0,0,0,0,0,0,0,0,-1,1273,1072,0,0
56,-48,0,0,0,0,0,0,0,0,0,-1,1280,1072,0,0
63,-48,0,0,0,0,0,0,0,0,0,-1,1287,1072,0,0
70,-48,0,0,0,0,0,0,0,0,0,-1,1294,1072,0,0
77,-48,0,0,0,0,0,0,0,0,0,-1,1301,1072,0,0
84,-48,0,0,0,0,0,0,0,0,0,-1,1308,1072,0,0
91,-48,0,0,0,0,0,0,0,0,0,-1,1315,1072,0,0
98,-48,0,0,0,0,0,0,0,0,0,-1,1322,1072,0,0
105,-48,0,0,0,0,0,0,0,0,0,-1,1329,1072,0,0
112,-48,0,0,0,0,0,0,0,0,0,-1,1336,1072,0,0
119,-48,0,0,0,0,0,0,0,0,0,-1,1343,1072,0,0
126,-48,0,0,0,0,0,0,0,0,0,-1,1350,1072,0,0
133,-48,0,0,0,0,0,0,0,0,0,-1,1357,1072,0,0
140,-48,0,0,0,0,0,0,0,0,0,-1,1364,1072,0,0
147,-48,0,0,0,0,0,0,0,0,0,-1,1371,1072,0,0
154,-48,0,0,0,0,0,0,0,0,0,-1,1378,1072,0,0
161,-48,0,0,0,0,0,0,0,0,0,-1,1385,1072,0,0
168,-48,0,0,0,0,0,0,0,0,0,-1,1392,1072,0,0
175,-48,0,0,0,0,0,0,0,0,0,-1,1399,1072,0,0
182,-48,0,0,0,0,0,0,0,0,0,-1,1406,1072,0,0
189,-48,0,0,0,0,0,0,0,0,0,-1,1413,1072,0,0
196,-48,0,0,0,0,0,0,0,0,0,-1,1420,1072,0,0
203,-48,0,0,0,0,0,0,0,0,0,-1,1427,1072,0,0
210,-48,0,0,0,0,0,0,0,0,0,-1,1434,1072,0,0
217,-48,0,0,0,0,0,0,0,0,0,-1,1441,1072,0,0
224,-48,0,0,0,0,0,0,0,0,0,-1,1448,1072,0,0
231,-48,0,0,0,0,0,0,0,0,0,-1,1455,1072,0,0
238,-48,0,0,0,0,0,0,0,0,0,-1,1462,1072,0,0
245,-48,0,0,0,0,0,0,0,0,0,-1,1469,1072,0,0
252,-48,0,0,0,0,0,0,0,0,0,-1,1476,1072,0,0
259,-48,0,0,0,0,0,0,0,0,0,-1,1483,1072,0,0
266,-48,0,0,0,0,0,0,0,0,0,-1,1490,1072,0,0
273,-48,0,0,0,0,0,0,0,0,0,-1,1497,1072,0,0
280,-48,0,0,0,0,0,0,0,0,0,-1,1504,1072,0,0
287,-48,0,0,0,0,0,0,0,0,0,-1,1511,1072,0,0
294,-48,0,0,0,0,0,0,0,0,0,-1,1518,1072,0,0
301,-48,0,0,0,0,0,0,0,0,0,-1,1525,1072,0,0
308,-48,0,0,0,0,0,0,0,0,0,-1,1532,1072,0,0
315,-48,0,0,0,0,0,0,0,0,0,-1,1539,1072,0,0
322,-48,0,0,0,0,0,0,0,0,0,-1,1546,1072,0,0
329,-48,0,0,0,0,0,0,0,0,0,-1,1553,1072,0,0
336,-48,0,0,0,0,0,0,0,0,0,-1,1560,1072,0,0
343,-48,0,0,0,0,0,0,0,0,0,-1,1567,1072,0,0
350,-48,0,0,0,0,0,0,0,0,0,-1,1574,1072,0,0
357,-48,0,0,0,0,0,0,0,0,0,-1,1581,1072,0,0
364,-48,0,0,0,0,0,0,0,0,0,-1,1588,1072,0,0
371,-48,0,0,0,0,0,0,0,0,0,-1,1595,1072,0,0
378,-48,0,0,0,0,0,0,0,0,0,-1,1602,1072,0,0
385,-48,0,0,0,0,0,0,0,0,0,-1,1609,1072,0,0
392,-48,0,0,0,0,0,0,0,0,0,-1,1616,1072,0,0
399,-48,0,0,0,0,0,0,0,0,0,-1,1623,1072,0,0
406,-48,0,0,0,0,0,0,0,0,0,-1,1630,1072,0,0
413,-48,0,0,0,0,0,0,0,0,0,-1,1637,1072,0,0
420,-48,0,0,0,0,0,0,0,0,0,-1,1644,1072,0,0
427,-48,0,0,0,0,0,0,0,0,0,-1,1651,1072,0,0
434,-48,0,0,0,0,0,0,0,0,0,-1,1658,1072,0,0
441,-48,0,0,0,0,0,0,0,0,0,-1,1665,1072,0,0
448,-48,0,0,0,0,0,0,0,0,0,-1,1672,1072,0,0
455,-48,0,0,0,0,0,0,0,0,0,-1,1679,1072,0,0
462,-48,0,0,0,0,0,0,0,0,0,-1,1686,1072,0,0
469,-48,0,0,0,0,0,0,0,0,0,-1,1693,1072,0,0
476,-48,0,0,0,0,0,0,0,0,0,-1,1700,1072,0,0
483,-48,0,0,0,0,0,0,0,0,0,-1,1707,1072,0,0
490,-48,0,0,0,0,0,0,0,0,0,-1,1714,1072,0,0
497,-48,0,0,0,0,0,0,0,0,0,-1,1721,1072,0,0
504,-48,0,0,0,0,0,0,0,0,0,-1,1728,1072,0,0
511,-48,0,0,0,0,0,0,0,0,0,-1,1735,1072,0,0
518,-48,0,0,0,0,0,0,0,0,0,-1,1742,1072,0,0
525,-48,0,0,0,0,0,0,0,0,0,-1,1749,1072,0,0
532,-48,0,0,0,0,0,0,0,0,0,-1,1756,1072,0,0
539,-48,0,0,0,0,0,0,0,0,0,-1,1763,1072,0,0
546,-48,0,0,0,0,0,0,0,0,0,-1,1770,1072,0,0
553,-48,0,0,0,0,0,0,0,0,0,-1,1777,1072,0,0
560,-48,0,0,0,0,0,0,0,0,0,-1,1784,1072,0,0
567,-48,0,0,0,0,0,0,0,0,0,-1,1791,1072,0,0
574,-48,0,0,0,0,0,0,0,0,0,-1,1798,1072,0,0
581,-48,0,0,0,0,0,0,0,0,0,-1,1805,1072,0,0
588,-48,0,0,0,0,0,0,0,0,0,-1,1812,1072,0,0
595,-48,0,0,0,0,0,0,0,0,0,-1,1819,1072,0,0
602,-48,0,0,0,0,0,0,0,0,0,-1,1826,1072,0,0
609,-48,0,0,0,0,0,0,0,0,0,-1,1833,1072,0,0
616,-48,0,0,0,0,0,0,0,0,0,-1,1840,1072,0,0
623,-48,0,0,0,0,0,0,0,0,0,-1,1847,1072,0,0
630,-48,0,0,0,0,0,0,0,0,0,-1,1854,1072,0,0
637,-48,0,0,0,0,0,0,0,0,0,-1,1861,1072,0,0
644,-48,0,0,0,0,0,0,0,0,0,-1,1868,1072,0,0
651,-48,66.9988,2.17261,-0.00214268,0.000457135,0.00212882,0.00165155,-0.0033371,1.0595,0.00293448,0.0334694,1875,1072,66.9987,-2.17261
658,-48,67.124,2.19067,-0.00124529,0.000514924,0.0019242,0.00175074,-0.00248111,0.999888,0.00245536,0.0363224,1882,1072,67.124,-2.19069
665,-48,67.0769,2.09351,-0.000555286,0.000587576,0.00164212,0.00175485,-0.00172256,0.952837,0.00200771,0.0416048,1889,1072,67.077,-2.09356
672,-48,66.9993,2.06921,-7.27026e-05,0.000804631,0.00138506,0.00181883,-0.0010869,0.938758,0.00169527,0.0400476,1896,1072,66.9992,-2.06918
679,-48,67.0824,2.0979,0.000250245,0.00108617,0.00110823,0.00185264,-0.000516222,0.965722,0.00143838,0.0383556,1903,1072,67.0825,-2.09792
686,-48,67.1274,2.3999,9.92672e-05,0.000978193,0.000940884,0.00157719,-0.000499725,1.00388,0.00125174,0.0384219,1910,1072,67.1274,-2.39993
693,-48,67.0582,2.67041,-0.000207199,0.000708295,0.000910584,0.00126971,-0.000768616,1.0183,0.00118862,0.0409917,1917,1072,67.0582,-2.67036
700,-48,67.054,2.5448,-0.00044347,0.000458062,0.0010376,0.00113858,-0.00112399,0.990315,0.0013063,0.0356124,1924,1072,67.054,-2.54478
707,-48,67.119,2.34094,-0.000966344,0.000402131,0.0011987,0.00109813,-0.00166234,1.04474,0.00160482,0.0261441,1931,1072,67.119,-2.34089
714,-48,67.1377,2.2793,-0.00173667,0.000626883,0.00144464,0.00131154,-0.00242133,1.12822,0.00218669,0.0424094,1938,1072,67.1377,-2.27928
721,-48,67.173,2.28894,0,0,0,0,0,0,0,-1,1945,1072,67.173,-2.28889
728,-48,65.96,7.53821,0,0,0,0,0,0,0,-1,1952,1072,65.96,-7.53817
735,-48,65.83,7.24146,-0.00452426,0.00275511,0.0020437,0.00328963,-0.00505879,1.31498,0.0048559,0.0238688,1959,1072,65.8299,-7.24149
742,-48,65.6809,6.90686,-0.00515828,0.00408802,0.0022108,0.00458943,-0.00565969,1.34777,0.00592808,0.0188454,1966,1072,65.6809,-6.90682
749,-48,65.6879,6.56982,-0.00556784,0.00561498,0.00220238,0.00603309,-0.00598595,1.38318,0.00693921,0.0162528,1973,1072,65.6879,-6.56987
756,-48,65.6724,6.25916,-0.00554431,0.00801807,0.00210403,0.00833698,-0.00586322,1.42037,0.00823986,0.014974,1980,1072,65.6723,-6.25918
763,-48,65.5835,5.95728,-0.00518889,0.0116582,0.00167038,0.0118223,-0.00535291,1.47292,0.0101479,0.014481,1987,1072,65.5834,-5.95731
770,-48,65.5303,5.63074,-0.00397689,0.0162227,0.000702404,0.0162471,-0.00400128,1.53608,0.0123826,0.0150469,1994,1072,65.5302,-5.6307
777,-48,65.3682,5.29028,-0.00150187,0.0220191,-0.000885484,0.0220524,-0.00153516,-1.53322,0.0152391,0.0130611,2001,1072,65.368,-5.29034
784,-48,65.2383,4.93164,0.00171437,0.0282702,-0.00279398,0.028561,0.00142359,-1.4671,0.0185843,0.0232337,2008,1072,65.2382,-4.93165
791,-48,65.1108,4.53687,0.0058628,0.0351826,-0.00510203,0.0360451,0.00500035,-1.40334,0.0225488,0.0397086,2015,1072,65.1108,-4.53685
798,-48,64.8032,3.9364,0.0113284,0.0430803,-0.00789705,0.0449359,0.00947277,-1.34,0.027352,0.0451903,2022,1072,64.8033,-3.93644
805,-48,64.6313,3.41528,0.0184719,0.0523317,-0.0111061,0.0556495,0.0151542,-1.2805,0.0332211,0.0445315,2029,1072,64.6312,-3.41523
812,-48,64.5586,3.05017,0.0269189,0.0632377,-0.0147817,0.0684933,0.0216632,-1.22919,0.0404246,0.0476854,2036,1072,64.5585,-3.05022
-700,-55,-53.4627,-3.01013,0,0,0,0,0,0,0,-1,524,1079,-53.4627,3.0101
-693,-55,-51.4063,-2.73547,0,0,0,0,0,0,0,-1,531,1079,-51.4063,2.73542
-686,-55,-51.0676,-1.85352,0.0140951,-0.0456103,-0.0383001,0.0328024,-0.0643177,-0.454359,0.0570479,0.0477159,538,1079,-51.0676,1.85357
-679,-55,-50.4362,-0.870239,0.0154404,-0.0300341,-0.0296423,0.0300615,-0.0446552,-0.458235,0.0434111,0.0494291,545,1079,-50.4362,0.870201
-672,-55,-50.5318,-0.218628,0,0,0,0,0,0,0,-1,552,1079,-50.5318,0.218639
-665,-55,-50.0447,0.602783,0,0,0,0,0,0,0,-1,559,1079,-50.0447,-0.602805
-658,-55,-50.4277,0.370728,0,0,0,0,0,0,0,-1,566,1079,-50.4277,-0.370774
-651,-55,-50.3024,1.71301,0.00901315,0.00216822,-0.00840966,0.0146701,-0.00348872,-0.592149,0.0111268,0.044768,573,1079,-50.3024,-1.71301
-644,-55,-50.2678,2.99316,0.00759346,0.00523369,-0.00533491,0.0118774,0.000949752,-0.676569,0.00762143,0.0277485,580,1079,-50.2678,-2.9932
-637,-55,-50.3146,3.29114,0.00556359,0.00694538,-0.00287046,0.00920692,0.00330205,-0.903498,0.00538596,0.0219218,587,1079,-50.3146,-3.29119
-630,-55,-50.3376,3.7157,0.00342985,0.0070918,-0.00165169,0.0077267,0.00279495,-1.20381,0.00451752,0.0246008,594,1079,-50.3376,-3.71565
-623,-55,-50.4995,4.1803,0.00218254,0.0056921,-0.00105446,0.00598454,0.0018901,-1.30025,0.00353244,0.0197352,601,1079,-50.4995,-4.1803
-616,-55,-50.5148,4.55566,0.00138607,0.00345458,-0.00153765,0.00427344,0.000567212,-1.08145,0.00267997,0.0185756,608,1079,-50.5148,-4.55566
-609,-55,-50.4465,4.99316,0.000596724,0.00130348,-0.00173557,0.00272128,-0.000821079,-0.885829,0.00214102,0.0205464,615,1079,-50.4465,-4.99318
-602,-55,-50.3734,5.38318,0.000473965,-0.000168841,-0.00182734,0.00200795,-0.00170282,-0.698345,0.00214483,0.0161388,622,1079,-50.3734,-5.38312
-595,-55,-50.2291,5.77441,0.000604632,-0.0012022,-0.00215271,0.00203581,-0.00263338,-0.586726,0.00270311,0.0356425,629,1079,-50.2291,-5.77446
-588,-55,-50.2258,6.22485,0,0,0,0,0,0,0,-1,636,1079,-50.2258,-6.22486
-581,-55,-51.7331,0.803101,0,0,0,0,0,0,0,-1,643,1079,-51.7331,-0.803096
-574,-55,-51.6623,0.709351,0.00109156,-0.00187324,-0.00178957,0.00193297,-0.00271464,-0.439502,0.00269592,0.0379248,650,1079,-51.6623,-0.709296
-567,-55,-51.5927,0.376831,0.00102917,-0.00149434,-0.00150021,0.00172769,-0.00219286,-0.435761,0.00226883,0.038085,657,1079,-51.5927,-0.376877
-560,-55,-51.6799,0.327026,0.000867275,-0.000837847,-0.00118275,0.00147271,-0.00144328,-0.473113,0.00168358,0.0401082,664,1079,-51.6798,-0.327015
-553,-55,-51.656,0.469116,0.000819537,-8.55215e-05,-0.000882932,0.00135915,-0.000625137,-0.548588,0.00117147,0.0410841,671,1079,-51.656,-0.469152
-546,-55,-51.6287,0.55896,0.00118639,0.000484019,-0.000753035,0.0016661,4.30498e-06,-0.567212,0.0011093,0.038302,678,1079,-51.6287,-0.558907
-539,-55,-51.7709,0.3927,0.00220762,0.000245835,-0.00110681,0.00270564,-0.000252182,-0.422819,0.00189342,0.038767,685,1079,-51.7709,-0.392716
-532,-55,-51.8267,0.55542,0.00320317,0.000246975,-0.00163465,0.0039289,-0.000478755,-0.417825,0.00279257,0.0393947,692,1079,-51.8267,-0.555401
-525,-55,0,0,0,0,0,0,0,0,0,-1,699,1079,0,0
-518,-55,0,0,0,0,0,0,0,0,0,-1,706,1079,0,0
-511,-55,0,0,0,0,0,0,0,0,0,-1,713,1079,0,0
-504,-55,0,0,0,0,0,0,0,0,0,-1,720,1079,0,0
-497,-55,0,0,0,0,0,0,0,0,0,-1,727,1079,0,0
-490,-55,0,0,0,0,0,0,0,0,0,-1,734,1079,0,0
-483,-55,0,0,0,0,0,0,0,0,0,-1,741,1079,0,0
-476,-55,0,0,0,0,0,0,0,0,0,-1,748,1079,0,0
-469,-55,0,0,0,0,0,0,0,0,0,-1,755,1079,0,0
-462,-55,0,0,0,0,0,0,0,0,0,-1,762,1079,0,0
-455,-55,0,0,0,0,0,0,0,0,0,-1,769,1079,0,0
-448,-55,0,0,0,0,0,0,0,0,0,-1,776,1079,0,0
-441,-55,0,0,0,0,0,0,0,0,0,-1,783,1079,0,0
-434,-55,0,0,0,0,0,0,0,0,0,-1,790,1079,0,0
-427,-55,0,0,0,0,0,0,0,0,0,-1,797,1079,0,0
-420,-55,0,0,0,0,0,0,0,0,0,-1,804,1079,0,0
-413,-55,0,0,0,0,0,0,0,0,0,-1,811,1079,0,0
-406,-55,0,0,0,0,0,0,0,0,0,-1,818,1079,0,0
-399,-55,0,0,0,0,0,0,0,0,0,-1,825,1079,0,0
-392,-55,0,0,0,0,0,0,0,0,0,-1,832,1079,0,0
-385,-55,0,0,0,0,0,0,0,0,0,-1,839,1079,0,0
-378,-55,0,0,0,0,0,0,0,0,0,-1,846,1079,0,0
-371,-55,0,0,0,0,0,0,0,0,0,-1,853,1079,0,0
-364,-55,0,0,0,0,0,0,0,0,0,-1,860,1079,0,0
-357,-55,0,0,0,0,0,0,0,0,0,-1,867,1079,0,0
-350,-55,0,0,0,0,0,0,0,0,0,-1,874,1079,0,0
-343,-55,0,0,0,0,0,0,0,0,0,-1,881,1079,0,0
-336,-55,0,0,0,0,0,0,0,0,0,-1,888,1079,0,0
-329,-55,0,0,0,0,0,0,0,0,0,-1,895,1079,0,0
-322,-55,0,0,0,0,0,0,0,0,0,-1,902,1079,0,0
-315,-55,0,0,0,0,0,0,0,0,0,-1,909,1079,0,0
-308,-55,0,0,0,0,0,0,0,0,0,-1,916,1079,0,0
-301,-55,0,0,0,0,0,0,0,0,0,-1,923,1079,0,0
-294,-55,0,0,0,0,0,0,0,0,0,-1,930,1079,0,0
-287,-55,0,0,0,0,0,0,0,0,0,-1,937,1079,0,0
-280,-55,0,0,0,0,0,0,0,0,0,-1,944,1079,0,0
-273,-55,0,0,0,0,0,0,0,0,0,-1,951,1079,0,0
-266,-55,0,0,0,0,0,0,0,0,0,-1,958,1079,0,0
-259,-55,0,0,0,0,0,0,0,0,0,-1,965,1079,0,0
-252,-55,0,0,0,0,0,0,0,0,0,-1,972,1079,0,0
-245,-55,0,0,0,0,0,0,0,0,0,-1,979,1079,0,0
-238,-55,0,0,0,0,0,0,0,0,0,-1,986,1079,0,0
-231,-55,0,0,0,0,0,0,0,0,0,-1,993,1079,0,0
-224,-55,0,0,0,0,0,0,0,0,0,-1,1000,1079,0,0
-217,-55,0,0,0,0,0,0,0,0,0,-1,1007,1079,0,0
-210,-55,0,0,0,0,0,0,0,0,0,-1,1014,1079,0,0
-203,-55,0,0,0,0,0,0,0,0,0,-1,1021,1079,0,0
-196,-55,0,0,0,0,0,0,0,0,0,-1,1028,1079,0,0
-189,-55,0,0,0,0,0,0,0,0,0,-1,1035,1079,0,0
-182,-55,0,0,0,0,0,0,0,0,0,-1,1042,1079,0,0
-175,-55,0,0,0,0,0,0,0,0,0,-1,1049,1079,0,0
-168,-55,0,0,0,0,0,0,0,0,0,-1,1056,1079,0,0
-161,-55,0,0,0,0,0,0,0,0,0,-1,1063,1079,0,0
-154,-55,0,0,0,0,0,0,0,0,0,-1,1070,1079,0,0
-147,-55,0,0,0,0,0,0,0,0,0,-1,1077,1079,0,0
-140,-55,0,0,0,0,0,0,0,0,0,-1,1084,1079,0,0
-133,-55,0,0,0,0,0,0,0,0,0,-1,1091,1079,0,0
-126,-55,0,0,0,0,0,0,0,0,0,-1,1098,1079,0,0
-119,-55,0,0,0,0,0,0,0,0,0,-1,1105,1079,0,0
-112,-55,0,0,0,0,0,0,0,0,0,-1,1112,1079,0,0
-105,-55,0,0,0,0,0,0,0,0,0,-1,1119,1079,0,0
-98,-55,0,0,0,0,0,0,0,0,0,-1,1126,1079,0,0
-91,-55,0,0,0,0,0,0,0,0,0,-1,1133,1079,0,0
-84,-55,0,0,0,0,0,0,0,0,0,-1,1140,1079,0,0
-77,-55,0,0,0,0,0,0,0,0,0,-1,1147,1079,0,0
-70,-55,0,0,0,0,0,0,0,0,0,-1,1154,1079,0,0
-63,-55,0,0,0,0,0,0,0,0,0,-1,1161,1079,0,0
-56,-55,0,0,0,0,0,0,0,0,0,-1,1168,1079,0,0
-49,-55,0,0,0,0,0,0,0,0,0,-1,1175,1079,0,0
-42,-55,0,0,0,0,0,0,0,0,0,-1,1182,1079,0,0
-35,-55,0,0,0,0,0,0,0,0,0,-1,1189,1079,0,0
-28,-55,0,0,0,0,0,0,0,0,0,-1,1196,1079,0,0
-21,-55,0,0,0,0,0,0,0,0,0,-1,1203,1079,0,0
-14,-55,0,0,0,0,0,0,0,0,0,-1,1210,1079,0,0
-7,-55,0,0,0,0,0,0,0,0,0,-1,1217,1079,0,0
0,-55,0,0,0,0,0,0,0,0,0,-1,1224,1079,0,0
7,-55,0,0,0,0,0,0,0,0,0,-1,1231,1079,0,0
14,-55,0,0,0,0,0,0,0,0,0,-1,1238,1079,0,0
21,-55,0,0,0,0,0,0,0,0,0,-1,1245,1079,0,0
28,-55,0,0,0,0,0,0,0,0,0,-1,1252,1079,0,0
35,-55,0,0,0,0,0,0,0,0,0,-1,1259,1079,0,0
42,-55,0,0,0,0,0,0,0,0,0,-1,1266,1079,0,0
49,-55,0,0,0,0,0,0,0,0,0,-1,1273,1079,0,0
56,-55,0,0,0,0,0,0,0,0,0,-1,1280,1079,0,0
63,-55,0,0,0,0,0,0,0,0,0,-1,1287,1079,0,0
70,-55,0,0,0,0,0,0,0,0,0,-1,1294,1079,0,0
77,-55,0,0,0,0,0,0,0,0,0,-1,1301,1079,0,0
84,-55,0,0,0,0,0,0,0,0,0,-1,1308,1079,0,0
91,-55,0,0,0,0,0,0,0,0,0,-1,1315,1079,0,0
98,-55,0,0,0,0,0,0,0,0,0,-1,1322,1079,0,0
105,-55,0,0,0,0,0,0,0,0,0,-1,1329,1079,0,0
112,-55,0,0,0,0,0,0,0,0,0,-1,1336,1079,0,0
119,-55,0,0,0,0,0,0,0,0,0,-1,1343,1079,0,0
126,-55,0,0,0,0,0,0,0,0,0,-1,1350,1079,0,0
133,-55,0,0,0,0,0,0,0,0,0,-1,1357,1079,0,0
140,-55,0,0,0,0,0,0,0,0,0,-1,1364,1079,0,0
147,-55,0,0,0,0,0,0,0,0,0,-1,1371,1079,0,0
154,-55,0,0,0,0,0,0,0,0,0,-1,1378,1079,0,0
161,-55,0,0,0,0,0,0,0,0,0,-1,1385,1079,0,0
168,-55,0,0,0,0,0,0,0,0,0,-1,1392,1079,0,0
175,-55,0,0,0,0,0,0,0,0,0,-1,1399,1079,0,0
182,-55,0,0,0,0,0,0,0,0,0,-1,1406,1079,0,0
189,-55,0,0,0,0,0,0,0,0,0,-1,1413,1079,0,0
196,-55,0,0,0,0,0,0,0,0,0,-1,1420,1079,0,0
203,-55,0,0,0,0,0,0,0,0,0,-1,1427,1079,0,0
210,-55,0,0,0,0,0,0,0,0,0,-1,1434,1079,0,0
217,-55,0,0,0,0,0,0,0,0,0,-1,1441,1079,0,0
224,-55,0,0,0,0,0,0,0,0,0,-1,1448,1079,0,0
231,-55,0,0,0,0,0,0,0,0,0,-1,1455,1079,0,0
238,-55,0,0,0,0,0,0,0,0,0,-1,1462,1079,0,0
245,-55,0,0,0,0,0,0,0,0,0,-1,1469,1079,0,0
252,-55,0,0,0,0,0,0,0,0,0,-1,1476,1079,0,0
259,-55,0,0,0,0,0,0,0,0,0,-1,1483,1079,0,0
266,-55,0,0,0,0,0,0,0,0,0,-1,1490,1079,0,0
273,-55,0,0,0,0,0,0,0,0,0,-1,1497,1079,0,0
280,-55,0,0,0,0,0,0,0,0,0,-1,1504,1079,0,0
287,-55,0,0,0,0,0,0,0,0,0,-1,1511,1079,0,0
294,-55,0,0,0,0,0,0,0,0,0,-1,1518,1079,0,0
301,-55,0,0,0,0,0,0,0,0,0,-1,1525,1079,0,0
308,-55,0,0,0,0,0,0,0,0,0,-1,1532,1079,0,0
315,-55,0,0,0,0,0,0,0,0,0,-1,1539,1079,0,0
322,-55,0,0,0,0,0,0,0,0,0,-1,1546,1079,0,0
329,-55,0,0,0,0,0,0,0,0,0,-1,1553,1079,0,0
336,-55,0,0,0,0,0,0,0,0,0,-1,1560,1079,0,0
343,-55,0,0,0,0,0,0,0,0,0,-1,1567,1079,0,0
350,-55,0,0,0,0,0,0,0,0,0,-1,1574,1079,0,0
357,-55,0,0,0,0,0,0,0,0,0,-1,1581,1079,0,0
364,-55,0,0,0,0,0,0,0,0,0,-1,1588,1079,0,0
371,-55,0,0,0,0,0,0,0,0,0,-1,1595,1079,0,0
378,-55,0,0,0,0,0,0,0,0,0,-1,1602,1079,0,0
385,-55,0,0,0,0,0,0,0,0,0,-1,1609,1079,0,0
392,-55,0,0,0,0,0,0,0,0,0,-1,1616,1079,0,0
399,-55,0,0,0,0,0,0,0,0,0,-1,1623,1079,0,0
406,-55,0,0,0,0,0,0,0,0,0,-1,1630,1079,0,0
413,-55,0,0,0,0,0,0,0,0,0,-1,1637,1079,0,0
420,-55,0,0,0,0,0,0,0,0,0,-1,1644,1079,0,0
427,-55,0,0,0,0,0,0,0,0,0,-1,1651,1079,0,0
434,-55,0,0,0,0,0,0,0,0,0,-1,1658,1079,0,0
441,-55,0,0,0,0,0,0,0,0,0,-1,1665,1079,0,0
448,-55,0,0,0,0,0,0,0,0,0,-1,1672,1079,0,0
455,-55,0,0,0,0,0,0,0,0,0,-1,1679,1079,0,0
462,-55,0,0,0,0,0,0,0,0,0,-1,1686,1079,0,0
469,-55,0,0,0,0,0,0,0,0,0,-1,1693,1079,0,0
476,-55,0,0,0,0,0,0,0,0,0,-1,1700,1079,0,0
483,-55,0,0,0,0,0,0,0,0,0,-1,1707,1079,0,0
490,-55,0,0,0,0,0,0,0,0,0,-1,1714,1079,0,0
497,-55,0,0,0,0,0,0,0,0,0,-1,1721,1079,0,0
504,-55,0,0,0,0,0,0,0,0,0,-1,1728,1079,0,0
511,-55,0,0,0,0,0,0,0,0,0,-1,1735,1079,0,0
518,-55,0,0,0,0,0,0,0,0,0,-1,1742,1079,0,0
525,-55,0,0,0,0,0,0,0,0,0,-1,1749,1079,0,0
532,-55,0,0,0,0,0,0,0,0,0,-1,1756,1079,0,0
539,-55,0,0,0,0,0,0,0,0,0,-1,1763,1079,0,0
546,-55,0,0,0,0,0,0,0,0,0,-1,1770,1079,0,0
553,-55,0,0,0,0,0,0,0,0,0,-1,1777,1079,0,0
560,-55,0,0,0,0,0,0,0,0,0,-1,1784,1079,0,0
567,-55,0,0,0,0,0,0,0,0,0,-1,1791,1079,0,0
574,-55,0,0,0,0,0,0,0,0,0,-1,1798,1079,0,0
581,-55,0,0,0,0,0,0,0,0,0,-1,1805,1079,0,0
588,-55,0,0,0,0,0,0,0,0,0,-1,1812,1079,0,0
595,-55,0,0,0,0,0,0,0,0,0,-1,1819,1079,0,0
602,-55,0,0,0,0,0,0,0,0,0,-1,1826,1079,0,0
609,-55,0,0,0,0,0,0,0,0,0,-1,1833,1079,0,0
616,-55,0,0,0,0,0,0,0,0,0,-1,1840,1079,0,0
623,-55,0,0,0,0,0,0,0,0,0,-1,1847,1079,0,0
630,-55,0,0,0,0,0,0,0,0,0,-1,1854,1079,0,0
637,-55,0,0,0,0,0,0,0,0,0,-1,1861,1079,0,0
644,-55,0,0,0,0,0,0,0,0,0,-1,1868,1079,0,0
651,-55,67.0793,2.25562,-0.00214767,-3.21365e-05,0.00208327,0.00124652,-0.00342633,1.02031,0.00279401,0.0349063,1875,1079,67.0794,-2.25566
658,-55,67.2517,2.32751,-0.00122899,7.72122e-05,0.00178739,0.00132708,-0.00247887,0.96056,0.00223065,0.0326915,1882,1079,67.2517,-2.32751
665,-55,67.0638,2.23999,-0.000526249,0.000218121,0.00147794,0.00137002,-0.00167814,0.908747,0.00176285,0.0374077,1889,1079,67.0638,-2.23997
672,-55,66.918,2.23035,-3.416e-05,0.000507348,0.00120086,0.0014676,-0.000994414,0.896277,0.00143017,0.0371744,1896,1079,66.9179,-2.23037
679,-55,66.96,2.15955,0.000268577,0.000874912,0.000915641,0.00153627,-0.000392781,0.945267,0.00117716,0.0350459,1903,1079,66.9599,-2.15951
686,-55,67.1207,2.24744,0.00013157,0.000835433,0.000749454,0.00131147,-0.00034447,1.00491,0.00100893,0.0379243,1910,1079,67.1207,-2.24739
693,-55,67.0809,2.47998,-0.000139245,0.000624262,0.000729075,0.00106548,-0.000580466,1.02658,0.000963943,0.0396665,1917,1079,67.0809,-2.47993
700,-55,67.0706,2.44446,-0.000312335,0.00043629,0.000853327,0.000993792,-0.000869837,0.992086,0.00107676,0.035176,1924,1079,67.0706,-2.44441
707,-55,67.1396,2.33606,-0.000726811,0.000410769,0.00103462,0.00102264,-0.00133869,1.03673,0.00136738,0.0246262,1931,1079,67.1396,-2.33608
714,-55,67.1405,2.28064,-0.00139072,0.000619267,0.00131887,0.00127241,-0.00204387,1.11097,0.00193185,0.0485331,1938,1079,67.1405,-2.2806
721,-55,67.2059,2.25073,0,0,0,0,0,0,0,-1,1945,1079,67.206,-2.25071
728,-55,65.4619,7.72253,0,0,0,0,0,0,0,-1,1952,1079,65.462,-7.72256
735,-55,65.3774,7.34082,-0.00385306,0.00240713,0.0020692,0.00302925,-0.00447518,1.27874,0.00435941,0.0235199,1959,1079,65.3774,-7.34077
742,-55,65.3695,6.97864,-0.00440383,0.00355875,0.00228542,0.00416809,-0.00501316,1.31024,0.00530828,0.0228251,1966,1079,65.3695,-6.9786
749,-55,65.3542,6.62097,-0.00461796,0.00486121,0.00234623,0.00541015,-0.0051669,1.34096,0.0061072,0.0158647,1973,1079,65.3543,-6.62096
756,-55,65.2538,6.26367,-0.00452501,0.00687573,0.00228146,0.00731533,-0.00496462,1.38044,0.007133,0.0140612,1980,1079,65.2537,-6.2637
763,-55,65.1978,5.91406,-0.00422833,0.0100162,0.00183387,0.0102485,-0.00446064,1.44479,0.00870874,0.017268,1987,1079,65.1978,-5.91402
770,-55,65.1448,5.54297,-0.00308255,0.0139877,0.000855231,0.0140305,-0.00312529,1.52086,0.0105508,0.0189129,1994,1079,65.1449,-5.543
777,-55,65.0354,5.19714,-0.00088452,0.0188529,-0.000782285,0.0188838,-0.000915477,-1.53124,0.0129052,0.0147457,2001,1079,65.0353,-5.19718
784,-55,64.8889,4.81555,0.00192974,0.02394,-0.00280419,0.0242916,0.00157809,-1.44605,0.0156949,0.0277787,2008,1079,64.8889,-4.81552
791,-55,64.8057,4.40857,0,0,0,0,0,0,0,-1,2015,1079,64.8057,-4.40855
798,-55,64.6218,3.35632,0.010014,0.0352435,-0.00848212,0.03783,0.00742748,-1.27482,0.0231449,0.0468816,2022,1079,64.6217,-3.35635
805,-55,64.6658,2.8053,0.0158355,0.0418586,-0.0122823,0.0467399,0.0109541,-1.19251,0.0282262,0.0490002,2029,1079,64.6657,-2.80526
812,-55,64.7954,2.37817,0.0224868,0.0493922,-0.0168226,0.0574796,0.0143994,-1.12267,0.0345355,0.0482421,2036,1079,64.7954,-2.37815
-700,-62,-51.8282,-2.80481,0,0,0,0,0,0,0,-1,524,1086,-51.8282,2.80479
-693,-62,-50.6514,-2.27844,0.0250424,-0.069602,-0.0444437,0.0426404,-0.0872,-0.37702,0.0764207,0.0496279,531,1086,-50.6514,2.27848
-686,-62,-50.012,-1.49646,0.0271508,-0.0503175,-0.034655,0.0403907,-0.0635574,-0.364936,0.0605092,0.0481643,538,1086,-50.012,1.49644
-679,-62,-49.0943,-0.309448,0.0257942,-0.0351788,-0.0269342,0.0359878,-0.0453725,-0.361806,0.0470775,0.0445781,545,1086,-49.0943,0.309448
-672,-62,-48.786,0.97937,0.0228876,-0.0231577,-0.0205924,0.0307533,-0.0310233,-0.364867,0.0356668,0.0469119,552,1086,-48.786,-0.979317
-665,-62,-48.9112,0.622681,0,0,0,0,0,0,0,-1,559,1086,-48.9112,-0.622682
-658,-62,-49.197,1.34863,0,0,0,0,0,0,0,-1,566,1086,-49.1971,-1.34857
-651,-62,-49.9518,1.42627,0,0,0,0,0,0,0,-1,573,1086,-49.9518,-1.42632
-644,-62,-49.8532,2.86426,0.00959999,0.00217742,-0.00485619,0.0120007,-0.00022327,-0.459123,0.00807591,0.0178734,580,1086,-49.8532,-2.86429
-637,-62,-49.9119,3.29834,0.00662147,0.00446743,-0.00259757,0.00835646,0.00273245,-0.588873,0.00491994,0.0146878,587,1086,-49.9119,-3.2984
-630,-62,-49.9877,3.71936,0.00381788,0.00522048,-0.00152207,0.00619504,0.00284332,-1.00128,0.00358072,0.015827,594,1086,-49.9877,-3.71938
-623,-62,-50.0679,4.19641,0.00230441,0.00439429,-0.00101705,0.00480752,0.00189117,-1.18486,0.00279658,0.0185388,601,1086,-50.0679,-4.19635
-616,-62,-50.0629,4.66382,0.00143664,0.0026861,-0.00142318,0.00361563,0.000507103,-0.992218,0.00226043,0.0191561,608,1086,-50.0629,-4.66379
-609,-62,-50.0217,5.0907,0.000752173,0.000919805,-0.00159251,0.0024307,-0.000758726,-0.81169,0.00192391,0.0197512,615,1086,-50.0217,-5.09064
-602,-62,-49.9037,5.45178,0.000742937,-0.000393727,-0.00167513,0.00194352,-0.00159431,-0.621853,0.00204588,0.0175411,622,1086,-49.9037,-5.45176
-595,-62,-49.8151,5.89783,0.000905238,-0.00132421,-0.00198675,0.00206863,-0.0024876,-0.529743,0.00263424,0.0406758,629,1086,-49.8151,-5.89788
-588,-62,-49.7657,6.37744,0,0,0,0,0,0,0,-1,636,1086,-49.7657,-6.37745
-581,-62,-51.7104,0.709106,0,0,0,0,0,0,0,-1,643,1086,-51.7105,-0.709067
-574,-62,-51.6651,0.677612,0.00144682,-0.00191783,-0.00176386,0.002202,-0.00267301,-0.404526,0.00281896,0.0344939,650,1086,-51.6651,-0.677658
-567,-62,-51.722,0.632202,0.00143008,-0.00157179,-0.00155446,0.00208997,-0.00223168,-0.401457,0.00249555,0.0377843,657,1086,-51.722,-0.632146
-560,-62,-51.8874,0.503906,0.00130385,-0.000947773,-0.00133902,0.00192744,-0.00157137,-0.435841,0.00202352,0.0395502,664,1086,-51.8874,-0.503875
-553,-62,-51.753,0.328857,0.00124144,-0.000170937,-0.00115507,0.00188909,-0.000818587,-0.511024,0.00160348,0.0360242,671,1086,-51.753,-0.328847
-546,-62,-51.7008,0.325806,0.00163422,0.000534778,-0.00113073,0.00234178,-0.00017278,-0.559139,0.00162185,0.0316549,678,1086,-51.7008,-0.325817
-539,-62,-51.7036,0.321777,0.00298788,0.000580774,-0.00157293,0.0037649,-0.000196244,-0.45883,0.00257784,0.0365908,685,1086,-51.7035,-0.321771
-532,-62,-51.5594,0.322632,0.00426535,0.000833089,-0.00222509,0.00535923,-0.000260787,-0.456913,0.00366285,0.0388241,692,1086,-51.5595,-0.322598
-525,-62,0,0,0,0,0,0,0,0,0,-1,699,1086,0,0
-518,-62,0,0,0,0,0,0,0,0,0,-1,706,1086,0,0
-511,-62,0,0,0,0,0,0,0,0,0,-1,713,1086,0,0
-504,-62,0,0,0,0,0,0,0,0,0,-1,720,1086,0,0
-497,-62,0,0,0,0,0,0,0,0,0,-1,727,1086,0,0
-490,-62,0,0,0,0,0,0,0,0,0,-1,734,1086,0,0
-483,-62,0,0,0,0,0,0,0,0,0,-1,741,1086,0,0
-476,-62,0,0,0,0,0,0,0,0,0,-1,748,1086,0,0
-469,-62,0,0,0,0,0,0,0,0,0,-1,755,1086,0,0
-462,-62,0,0,0,0,0,0,0,0,0,-1,762,1086,0,0
-455,-62,0,0,0,0,0,0,0,0,0,-1,769,1086,0,0
-448,-62,0,0,0,0,0,0,0,0,0,-1,776,1086,0,0
-441,-62,0,0,0,0,0,0,0,0,0,-1,783,1086,0,0
-434,-62,0,0,0,0,0,0,0,0,0,-1,790,1086,0,0
-427,-62,0,0,0,0,0,0,0,0,0,-1,797,1086,0,0
-420,-62,0,0,0,0,0,0,0,0,0,-1,804,1086,0,0
-413,-62,0,0,0,0,0,0,0,0,0,-1,811,1086,0,0
-406,-62,0,0,0,0,0,0,0,0,0,-1,818,1086,0,0
-399,-62,0,0,0,0,0,0,0,0,0,-1,825,1086,0,0
-392,-62,0,0,0,0,0,0,0,0,0,-1,832,1086,0,0
-385,-62,0,0,0,0,0,0,0,0,0,-1,839,1086,0,0
-378,-62,0,0,0,0,0,0,0,0,0,-1,846,1086,0,0
-371,-62,0,0,0,0,0,0,0,0,0,-1,853,1086,0,0
-364,-62,0,0,0,0,0,0,0,0,0,-1,860,1086,0,0
-357,-62,0,0,0,0,0,0,0,0,0,-1,867,1086,0,0
-350,-62,0,0,0,0,0,0,0,0,0,-1,874,1086,0,0
-343,-62,0,0,0,0,0,0,0,0,0,-1,881,1086,0,0
-336,-62,0,0,0,0,0,0,0,0,0,-1,888,1086,0,0
-329,-62,0,0,0,0,0,0,0,0,0,-1,895,1086,0,0
-322,-62,0,0,0,0,0,0,0,0,0,-1,902,1086,0,0
-315,-62,0,0,0,0,0,0,0,0,0,-1,909,1086,0,0
-308,-62,0,0,0,0,0,0,0,0,0,-1,916,1086,0,0
-301,-62,0,0,0,0,0,0,0,0,0,-1,923,1086,0,0
-294,-62,0,0,0,0,0,0,0,0,0,-1,930,1086,0,0
-287,-62,0,0,0,0,0,0,0,0,0,-1,937,1086,0,0
-280,-62,0,0,0,0,0,0,0,0,0,-1,944,1086,0,0
-273,-62,0,0,0,0,0,0,0,0,0,-1,951,1086,0,0
-266,-62,0,0,0,0,0,0,0,0,0,-1,958,1086,0,0
-259,-62,0,0,0,0,0,0,0,0,0,-1,965,1086,0,0
-252,-62,0,0,0,0,0,0,0,0,0,-1,972,1086,0,0
-245,-62,0,0,0,0,0,0,0,0,0,-1,979,1086,0,0
-238,-62,0,0,0,0,0,0,0,0,0,-1,986,1086,0,0
-231,-62,0,0,0,0,0,0,0,0,0,-1,993,1086,0,0
-224,-62,0,0,0,0,0,0,0,0,0,-1,1000,1086,0,0
-217,-62,0,0,0,0,0,0,0,0,0,-1,1007,1086,0,0
-210,-62,0,0,0,0,0,0,0,0,0,-1,1014,1086,0,0
-203,-62,0,0,0,0,0,0,0,0,0,-1,1021,1086,0,0
-196,-62,0,0,0,0,0,0,0,0,0,-1,1028,1086,0,0
-189,-62,0,0,0,0,0,0,0,0,0,-1,1035,1086,0,0
-182,-62,0,0,0,0,0,0,0,0,0,-1,1042,1086,0,0
-175,-62,0,0,0,0,0,0,0,0,0,-1,1049,1086,0,0
-168,-62,0,0,0,0,0,0,0,0,0,-1,1056,1086,0,0
-161,-62,0,0,0,0,0,0,0,0,0,-1,1063,1086,0,0
-154,-62,0,0,0,0,0,0,0,0,0,-1,1070,1086,0,0
-147,-62,0,0,0,0,0,0,0,0,0,-1,1077,1086,0,0
-140,-62,0,0,0,0,0,0,0,0,0,-1,1084,1086,0,0
-133,-62,0,0,0,0,0,0,0,0,0,-1,1091,1086,0,0
-126,-62,0,0,0,0,0,0,0,0,0,-1,1098,1086,0,0
-119,-62,0,0,0,0,0,0,0,0,0,-1,1105,1086,0,0
-112,-62,0,0,0,0,0,0,0,0,0,-1,1112,1086,0,0
-105,-62,0,0,0,0,0,0,0,0,0,-1,1119,1086,0,0
-98,-62,0,0,0,0,0,0,0,0,0,-1,1126,1086,0,0
-91,-62,0,0,0,0,0,0,0,0,0,-1,1133,1086,0,0
-84,-62,0,0,0,0,0,0,0,0,0,-1,1140,1086,0,0
-77,-62,0,0,0,0,0,0,0,0,0,-1,1147,1086,0,0
-70,-62,0,0,0,0,0,0,0,0,0,-1,1154,1086,0,0
-63,-62,0,0,0,0,0,0,0,0,0,-1,1161,1086,0,0
-56,-62,0,0,0,0,0,0,0,0,0,-1,1168,1086,0,0
-49,-62,0,0,0,0,0,0,0,0,0,-1,1175,1086,0,0
-42,-62,0,0,0,0,0,0,0,0,0,-1,1182,1086,0,0
-35,-62,0,0,0,0,0,0,0,0,0,-1,1189,1086,0,0
-28,-62,0,0,0,0,0,0,0,0,0,-1,1196,1086,0,0
-21,-62,0,0,0,0,0,0,0,0,0,-1,1203,1086,0,0
-14,-62,0,0,0,0,0,0,0,0,0,-1,1210,1086,0,0
-7,-62,0,0,0,0,0,0,0,0,0,-1,1217,1086,0,0
0,-62,0,0,0,0,0,0,0,0,0,-1,1224,1086,0,0
7,-62,0,0,0,0,0,0,0,0,0,-1,1231,1086,0,0
14,-62,0,0,0,0,0,0,0,0,0,-1,1238,1086,0,0
21,-62,0,0,0,0,0,0,0,0,0,-1,1245,1086,0,0
28,-62,0,0,0,0,0,0,0,0,0,-1,1252,1086,0,0
35,-62,0,0,0,0,0,0,0,0,0,-1,1259,1086,0,0
42,-62,0,0,0,0,0,0,0,0,0,-1,1266,1086,0,0
49,-62,0,0,0,0,0,0,0,0,0,-1,1273,1086,0,0
56,-62,0,0,0,0,0,0,0,0,0,-1,1280,1086,0,0
63,-62,0,0,0,0,0,0,0,0,0,-1,1287,1086,0,0
70,-62,0,0,0,0,0,0,0,0,0,-1,1294,1086,0,0
77,-62,0,0,0,0,0,0,0,0,0,-1,1301,1086,0,0
84,-62,0,0,0,0,0,0,0,0,0,-1,1308,1086,0,0
91,-62,0,0,0,0,0,0,0,0,0,-1,1315,1086,0,0
98,-62,0,0,0,0,0,0,0,0,0,-1,1322,1086,0,0
105,-62,0,0,0,0,0,0,0,0,0,-1,1329,1086,0,0
112,-62,0,0,0,0,0,0,0,0,0,-1,1336,1086,0,0
119,-62,0,0,0,0,0,0,0,0,0,-1,1343,1086,0,0
126,-62,0,0,0,0,0,0,0,0,0,-1,1350,1086,0,0
133,-62,0,0,0,0,0,0,0,0,0,-1,1357,1086,0,0
140,-62,0,0,0,0,0,0,0,0,0,-1,1364,1086,0,0
147,-62,0,0,0,0,0,0,0,0,0,-1,1371,1086,0,0
154,-62,0,0,0,0,0,0,0,0,0,-1,1378,1086,0,0
161,-62,0,0,0,0,0,0,0,0,0,-1,1385,1086,0,0
168,-62,0,0,0,0,0,0,0,0,0,-1,1392,1086,0,0
175,-62,0,0,0,0,0,0,0,0,0,-1,1399,1086,0,0
182,-62,0,0,0,0,0,0,0,0,0,-1,1406,1086,0,0
189,-62,0,0,0,0,0,0,0,0,0,-1,1413,1086,0,0
196,-62,0,0,0,0,0,0,0,0,0,-1,1420,1086,0,0
203,-62,0,0,0,0,0,0,0,0,0,-1,1427,1086,0,0
210,-62,0,0,0,0,0,0,0,0,0,-1,1434,1086,0,0
217,-62,0,0,0,0,0,0,0,0,0,-1,1441,1086,0,0
224,-62,0,0,0,0,0,0,0,0,0,-1,1448,1086,0,0
231,-62,0,0,0,0,0,0,0,0,0,-1,1455,1086,0,0
238,-62,0,0,0,0,0,0,0,0,0,-1,1462,1086,0,0
245,-62,0,0,0,0,0,0,0,0,0,-1,1469,1086,0,0
252,-62,0,0,0,0,0,0,0,0,0,-1,1476,1086,0,0
259,-62,0,0,0,0,0,0,0,0,0,-1,1483,1086,0,0
266,-62,0,0,0,0,0,0,0,0,0,-1,1490,1086,0,0
273,-62,0,0,0,0,0,0,0,0,0,-1,1497,1086,0,0
280,-62,0,0,0,0,0,0,0,0,0,-1,1504,1086,0,0
287,-62,0,0,0,0,0,0,0,0,0,-1,1511,1086,0,0
294,-62,0,0,0,0,0,0,0,0,0,-1,1518,1086,0,0
301,-62,0,0,0,0,0,0,0,0,0,-1,1525,1086,0,0
308,-62,0,0,0,0,0,0,0,0,0,-1,1532,1086,0,0
315,-62,0,0,0,0,0,0,0,0,0,-1,1539,1086,0,0
322,-62,0,0,0,0,0,0,0,0,0,-1,1546,1086,0,0
329,-62,0,0,0,0,0,0,0,0,0,-1,1553,1086,0,0
336,-62,0,0,0,0,0,0,0,0,0,-1,1560,1086,0,0
343,-62,0,0,0,0,0,0,0,0,0,-1,1567,1086,0,0
350,-62,0,0,0,0,0,0,0,0,0,-1,1574,1086,0,0
357,-62,0,0,0,0,0,0,0,0,0,-1,1581,1086,0,0
364,-62,0,0,0,0,0,0,0,0,0,-1,1588,1086,0,0
371,-62,0,0,0,0,0,0,0,0,0,-1,1595,1086,0,0
378,-62,0,0,0,0,0,0,0,0,0,-1,1602,1086,0,0
385,-62,0,0,0,0,0,0,0,0,0,-1,1609,1086,0,0
392,-62,0,0,0,0,0,0,0,0,0,-1,1616,1086,0,0
399,-62,0,0,0,0,0,0,0,0,0,-1,1623,1086,0,0
406,-62,0,0,0,0,0,0,0,0,0,-1,1630,1086,0,0
413,-62,0,0,0,0,0,0,0,0,0,-1,1637,1086,0,0
420,-62,0,0,0,0,0,0,0,0,0,-1,1644,1086,0,0
427,-62,0,0,0,0,0,0,0,0,0,-1,1651,1086,0,0
434,-62,0,0,0,0,0,0,0,0,0,-1,1658,1086,0,0
441,-62,0,0,0,0,0,0,0,0,0,-1,1665,1086,0,0
448,-62,0,0,0,0,0,0,0,0,0,-1,1672,1086,0,0
455,-62,0,0,0,0,0,0,0,0,0,-1,1679,1086,0,0
462,-62,0,0,0,0,0,0,0,0,0,-1,1686,1086,0,0
469,-62,0,0,0,0,0,0,0,0,0,-1,1693,1086,0,0
476,-62,0,0,0,0,0,0,0,0,0,-1,1700,1086,0,0
483,-62,0,0,0,0,0,0,0,0,0,-1,1707,1086,0,0
490,-62,0,0,0,0,0,0,0,0,0,-1,1714,1086,0,0
497,-62,0,0,0,0,0,0,0,0,0,-1,1721,1086,0,0
504,-62,0,0,0,0,0,0,0,0,0,-1,1728,1086,0,0
511,-62,0,0,0,0,0,0,0,0,0,-1,1735,1086,0,0
518,-62,0,0,0,0,0,0,0,0,0,-1,1742,1086,0,0
525,-62,0,0,0,0,0,0,0,0,0,-1,1749,1086,0,0
532,-62,0,0,0,0,0,0,0,0,0,-1,1756,1086,0,0
539,-62,0,0,0,0,0,0,0,0,0,-1,1763,1086,0,0
546,-62,0,0,0,0,0,0,0,0,0,-1,1770,1086,0,0
553,-62,0,0,0,0,0,0,0,0,0,-1,1777,1086,0,0
560,-62,0,0,0,0,0,0,0,0,0,-1,1784,1086,0,0
567,-62,0,0,0,0,0,0,0,0,0,-1,1791,1086,0,0
574,-62,0,0,0,0,0,0,0,0,0,-1,1798,1086,0,0
581,-62,0,0,0,0,0,0,0,0,0,-1,1805,1086,0,0
588,-62,0,0,0,0,0,0,0,0,0,-1,1812,1086,0,0
595,-62,0,0,0,0,0,0,0,0,0,-1,1819,1086,0,0
602,-62,0,0,0,0,0,0,0,0,0,-1,1826,1086,0,0
609,-62,0,0,0,0,0,0,0,0,0,-1,1833,1086,0,0
616,-62,0,0,0,0,0,0,0,0,0,-1,1840,1086,0,0
623,-62,0,0,0,0,0,0,0,0,0,-1,1847,1086,0,0
630,-62,0,0,0,0,0,0,0,0,0,-1,1854,1086,0,0
637,-62,0,0,0,0,0,0,0,0,0,-1,1861,1086,0,0
644,-62,0,0,0,0,0,0,0,0,0,-1,1868,1086,0,0
651,-62,67.1201,2.02136,-0.00199172,-0.000509094,0.00167,0.000576737,-0.00307755,0.994283,0.00226852,0.0394569,1875,1086,67.1201,-2.02132
658,-62,67.3021,2.16565,-0.00113162,-0.000456188,0.00142423,0.00066982,-0.00225762,0.901808,0.00177109,0.0375694,1882,1086,67.3021,-2.16566
665,-62,67.1189,2.33679,-0.000463083,-0.000323372,0.00117471,0.000783554,-0.00157001,0.815096,0.00138389,0.034777,1889,1086,67.1189,-2.33677
672,-62,66.915,2.36218,1.28308e-05,-1.18125e-05,0.000942146,0.000942736,-0.000941718,0.778859,0.00108799,0.0349825,1896,1086,66.9151,-2.36221
679,-62,66.9381,2.2312,0.000288587,0.000398443,0.000694426,0.00104011,-0.00035308,0.824865,0.000836324,0.035041,1903,1086,66.9382,-2.2312
686,-62,67.1921,2.10547,0.000181667,0.000407366,0.000555802,0.00086166,-0.000272626,0.885556,0.000683681,0.0403471,1910,1086,67.1921,-2.10542
693,-62,67.1775,2.21545,-3.19109e-05,0.000259976,0.000550039,0.000683103,-0.000455039,0.915076,0.00066149,0.0383784,1917,1086,67.1775,-2.21545
700,-62,67.1063,2.29126,-0.000136612,0.000144875,0.000667256,0.00068607,-0.000677806,0.889339,0.000787439,0.031181,1924,1086,67.1063,-2.29125
707,-62,67.1184,2.34851,-0.00044904,0.000177806,0.000858464,0.000778273,-0.00104951,0.960429,0.00105914,0.0220586,1931,1086,67.1184,-2.34852
714,-62,67.1105,2.25012,-0.00101449,0.000411494,0.00116646,0.00106561,-0.0016686,1.05972,0.00159134,0.0387914,1938,1086,67.1105,-2.25009
721,-62,67.0906,2.09766,0,0,0,0,0,0,0,-1,1945,1086,67.0906,-2.09764
728,-62,65.0121,7.87915,0,0,0,0,0,0,0,-1,1952,1086,65.0121,-7.87914
735,-62,64.9761,7.35706,-0.00323837,0.00202822,0.00199181,0.00269668,-0.00390682,1.24701,0.00383381,0.0313527,1959,1086,64.976,-7.35703
742,-62,64.9287,7.03052,-0.00374596,0.00302618,0.00224536,0.00370301,-0.00442279,1.27803,0.00469756,0.0309171,1966,1086,64.9287,-7.03053
749,-62,64.8961,6.64404,-0.00385884,0.00414389,0.00238939,0.004803,-0.00451796,1.30164,0.0053823,0.0229085,1973,1086,64.8961,-6.644
756,-62,64.7994,6.31384,-0.00377532,0.00580768,0.00239342,0.0063722,-0.00433983,1.33917,0.00622159,0.0156399,1980,1086,64.7994,-6.31382
763,-62,64.7568,5.88782,-0.00357082,0.00844593,0.00197558,0.00876238,-0.00388728,1.41196,0.00748189,0.0187045,1987,1086,64.7568,-5.88777
770,-62,64.7263,5.46741,-0.00254573,0.0117566,0.00104798,0.011833,-0.00262211,1.49804,0.00889252,0.0168774,1994,1086,64.7264,-5.46744
777,-62,64.5706,5.05969,-0.000646988,0.0156217,-0.000523265,0.0156385,-0.000663801,-1.53868,0.0106538,0.0169264,2001,1086,64.5707,-5.05969
784,-62,64.47,4.67444,0.00178268,0.0194817,-0.00251279,0.0198315,0.00143284,-1.43246,0.0127702,0.0256221,2008,1086,64.4701,-4.67439
791,-62,64.3462,4.28491,0.0047957,0.0233382,-0.00506469,0.0246314,0.00350253,-1.32081,0.0153869,0.0412516,2015,1086,64.3461,-4.28493
798,-62,64.3745,3.63257,0.00861308,0.0271791,-0.00833921,0.0303747,0.00541744,-1.20485,0.0187073,0.0438984,2022,1086,64.3744,-3.63255
805,-62,65.1055,2.27563,0.0133958,0.0310931,-0.0123981,0.0374764,0.00701248,-1.09533,0.0230058,0.0470654,2029,1086,65.1055,-2.27566
812,-62,64.8887,2.00122,0,0,0,0,0,0,0,-1,2036,1086,64.8886,-2.00118
-700,-69,-49.9759,-2.68152,0,0,0,0,0,0,0,-1,524,1093,-49.9759,2.68151
-693,-69,-49.1137,-2.03162,0,0,0,0,0,0,0,-1,531,1093,-49.1137,2.03165
-686,-69,-48.8196,-1.28125,0,0,0,0,0,0,0,-1,538,1093,-48.8196,1.28122
-679,-69,-47.4663,0.0657959,0.0358931,-0.0386279,-0.0238407,0.0428674,-0.0456023,-0.2846,0.0510862,0.0454712,545,1093,-47.4663,-0.0657728
-672,-69,-47.6665,1.49878,0.0306712,-0.0272121,-0.0183069,0.0359752,-0.032516,-0.282004,0.0395602,0.0487656,552,1093,-47.6665,-1.49882
-665,-69,-47.6306,2.46448,0,0,0,0,0,0,0,-1,559,1093,-47.6306,-2.46444
-658,-69,-47.353,3.69006,0,0,0,0,0,0,0,-1,566,1093,-47.353,-3.69009
-651,-69,-49.3594,2.20654,0.0149972,-0.00501488,-0.00693285,0.0171643,-0.00718197,-0.302961,0.0144448,0.0399945,573,1093,-49.3594,-2.20659
-644,-69,-49.3367,2.80225,0.0113743,-0.00102914,-0.00447622,0.012821,-0.00247581,-0.312594,0.00948095,0.0122196,580,1093,-49.3367,-2.80225
-637,-69,-49.3955,3.27014,0.00751259,0.00184228,-0.00244973,0.00842433,0.000930535,-0.356299,0.00533317,0.012865,587,1093,-49.3955,-3.2702
-630,-69,-49.4385,3.71716,0.00407218,0.00325043,-0.0014934,0.00521019,0.00211242,-0.651155,0.00302599,0.0159087,594,1093,-49.4385,-3.71712
-623,-69,-49.4376,4.17493,0.00221668,0.00299212,-0.00112112,0.00379067,0.00141814,-0.951877,0.00221155,0.0198093,601,1093,-49.4375,-4.17488
-616,-69,-49.4603,4.60974,0.00133009,0.00181624,-0.00147438,0.00306745,7.88788e-05,-0.867096,0.00201919,0.0244901,608,1093,-49.4603,-4.60971
-609,-69,-49.4862,5.03613,0.000772639,0.000426071,-0.00159947,0.00220818,-0.00100947,-0.731439,0.0019002,0.0209605,615,1093,-49.4862,-5.03609
-602,-69,-49.4412,5.49475,0.000892548,-0.000697207,-0.00163701,0.00191746,-0.00172212,-0.559381,0.00210232,0.0209618,622,1093,-49.4412,-5.49473
-595,-69,-49.3158,5.87805,0.00110741,-0.00149942,-0.00187699,0.00208916,-0.00248117,-0.481913,0.00264192,0.0457508,629,1093,-49.3158,-5.87806
-588,-69,-49.3114,6.27283,0,0,0,0,0,0,0,-1,636,1093,-49.3114,-6.27285
-581,-69,-51.7045,0.646729,0,0,0,0,0,0,0,-1,643,1093,-51.7045,-0.646681
-574,-69,-51.6882,0.571533,0.00174852,-0.00205619,-0.00170041,0.00239771,-0.00270537,-0.364702,0.00294805,0.0334241,650,1093,-51.6882,-0.571501
-567,-69,-51.6143,0.757813,0.001794,-0.00177552,-0.00153176,0.00236118,-0.00234271,-0.35463,0.0027158,0.0384826,657,1093,-51.6143,-0.757811
-560,-69,-51.8472,0.604126,0.00172342,-0.00123085,-0.00137561,0.00226476,-0.00177218,-0.374912,0.00233651,0.0398194,664,1093,-51.8471,-0.604162
-553,-69,-51.85,0.514648,0.00163918,-0.000509894,-0.00127698,0.00223357,-0.00110428,-0.435638,0.00196353,0.0388254,671,1093,-51.85,-0.514666
-546,-69,-51.7926,0.345581,0.00202734,0.000187667,-0.0013425,0.00273489,-0.000519887,-0.485047,0.00201899,0.0387416,678,1093,-51.7926,-0.345605
-539,-69,-51.6873,0.327393,0.0035866,0.00033967,-0.00189339,0.00445724,-0.00053097,-0.431,0.00316337,0.0407168,685,1093,-51.6873,-0.327441
-532,-69,-51.4543,0.381836,0.0050442,0.000646965,-0.00269802,0.00632599,-0.000634826,-0.443518,0.00444407,0.0408615,692,1093,-51.4543,-0.381869
-525,-69,0,0,0,0,0,0,0,0,0,-1,699,1093,0,0
-518,-69,0,0,0,0,0,0,0,0,0,-1,706,1093,0,0
-511,-69,0,0,0,0,0,0,0,0,0,-1,713,1093,0,0
-504,-69,0,0,0,0,0,0,0,0,0,-1,720,1093,0,0
-497,-69,0,0,0,0,0,0,0,0,0,-1,727,1093,0,0
-490,-69,0,0,0,0,0,0,0,0,0,-1,734,1093,0,0
-483,-69,0,0,0,0,0,0,0,0,0,-1,741,1093,0,0
-476,-69,0,0,0,0,0,0,0,0,0,-1,748,1093,0,0
-469,-69,0,0,0,0,0,0,0,0,0,-1,755,1093,0,0
-462,-69,0,0,0,0,0,0,0,0,0,-1,762,1093,0,0
-455,-69,0,0,0,0,0,0,0,0,0,-1,769,1093,0,0
-448,-69,0,0,0,0,0,0,0,0,0,-1,776,1093,0,0
-441,-69,0,0,0,0,0,0,0,0,0,-1,783,1093,0,0
-434,-69,0,0,0,0,0,0,0,0,0,-1,790,1093,0,0
-427,-69,0,0,0,0,0,0,0,0,0,-1,797,1093,0,0
-420,-69,0,0,0,0,0,0,0,0,0,-1,804,1093,0,0
-413,-69,0,0,0,0,0,0,0,0,0,-1,811,1093,0,0
-406,-69,0,0,0,0,0,0,0,0,0,-1,818,1093,0,0
-399,-69,0,0,0,0,0,0,0,0,0,-1,825,1093,0,0
-392,-69,0,0,0,0,0,0,0,0,0,-1,832,1093,0,0
-385,-69,0,0,0,0,0,0,0,0,0,-1,839,1093,0,0
-378,-69,0,0,0,0,0,0,0,0,0,-1,846,1093,0,0
-371,-69,0,0,0,0,0,0,0,0,0,-1,853,1093,0,0
-364,-69,0,0,0,0,0,0,0,0,0,-1,860,1093,0,0
-357,-69,0,0,0,0,0,0,0,0,0,-1,867,1093,0,0
-350,-69,0,0,0,0,0,0,0,0,0,-1,874,1093,0,0
-343,-69,0,0,0,0,0,0,0,0,0,-1,881,1093,0,0
-336,-69,0,0,0,0,0,0,0,0,0,-1,888,1093,0,0
-329,-69,0,0,0,0,0,0,0,0,0,-1,895,1093,0,0
-322,-69,0,0,0,0,0,0,0,0,0,-1,902,1093,0,0
-315,-69,0,0,0,0,0,0,0,0,0,-1,909,1093,0,0
-308,-69,0,0,0,0,0,0,0,0,0,-1,916,1093,0,0
-301,-69,0,0,0,0,0,0,0,0,0,-1,923,1093,0,0
-294,-69,0,0,0,0,0,0,0,0,0,-1,930,1093,0,0
-287,-69,0,0,0,0,0,0,0,0,0,-1,937,1093,0,0
-280,-69,0,0,0,0,0,0,0,0,0,-1,944,1093,0,0
-273,-69,0,0,0,0,0,0,0,0,0,-1,951,1093,0,0
-266,-69,0,0,0,0,0,0,0,0,0,-1,958,1093,0,0
-259,-69,0,0,0,0,0,0,0,0,0,-1,965,1093,0,0
-252,-69,0,0,0,0,0,0,0,0,0,-1,972,1093,0,0
-245,-69,0,0,0,0,0,0,0,0,0,-1,979,1093,0,0
-238,-69,0,0,0,0,0,0,0,0,0,-1,986,1093,0,0
-231,-69,0,0,0,0,0,0,0,0,0,-1,993,1093,0,0
-224,-69,0,0,0,0,0,0,0,0,0,-1,1000,1093,0,0
-217,-69,0,0,0,0,0,0,0,0,0,-1,1007,1093,0,0
-210,-69,0,0,0,0,0,0,0,0,0,-1,1014,1093,0,0
-203,-69,0,0,0,0,0,0,0,0,0,-1,1021,1093,0,0
-196,-69,0,0,0,0,0,0,0,0,0,-1,1028,1093,0,0
-189,-69,0,0,0,0,0,0,0,0,0,-1,1035,1093,0,0
-182,-69,0,0,0,0,0,0,0,0,0,-1,1042,1093,0,0
-175,-69,0,0,0,0,0,0,0,0,0,-1,1049,1093,0,0
-168,-69,0,0,0,0,0,0,0,0,0,-1,1056,1093,0,0
-161,-69,0,0,0,0,0,0,0,0,0,-1,1063,1093,0,0
-154,-69,0,0,0,0,0,0,0,0,0,-1,1070,1093,0,0
-147,-69,0,0,0,0,0,0,0,0,0,-1,1077,1093,0,0
-140,-69,0,0,0,0,0,0,0,0,0,-1,1084,1093,0,0
-133,-69,0,0,0,0,0,0,0,0,0,-1,1091,1093,0,0
-126,-69,0,0,0,0,0,0,0,0,0,-1,1098,1093,0,0
-119,-69,0,0,0,0,0,0,0,0,0,-1,1105,1093,0,0
-112,-69,0,0,0,0,0,0,0,0,0,-1,1112,1093,0,0
-105,-69,0,0,0,0,0,0,0,0,0,-1,1119,1093,0,0
-98,-69,0,0,0,0,0,0,0,0,0,-1,1126,1093,0,0
-91,-69,0,0,0,0,0,0,0,0,0,-1,1133,1093,0,0
-84,-69,0,0,0,0,0,0,0,0,0,-1,1140,1093,0,0
-77,-69,0,0,0,0,0,0,0,0,0,-1,1147,1093,0,0
-70,-69,0,0,0,0,0,0,0,0,0,-1,1154,1093,0,0
-63,-69,0,0,0,0,0,0,0,0,0,-1,1161,1093,0,0
-56,-69,0,0,0,0,0,0,0,0,0,-1,1168,1093,0,0
-49,-69,0,0,0,0,0,0,0,0,0,-1,1175,1093,0,0
-42,-69,0,0,0,0,0,0,0,0,0,-1,1182,1093,0,0
-35,-69,0,0,0,0,0,0,0,0,0,-1,1189,1093,0,0
-28,-69,0,0,0,0,0,0,0,0,0,-1,1196,1093,0,0
-21,-69,0,0,0,0,0,0,0,0,0,-1,1203,1093,0,0
-14,-69,0,0,0,0,0,0,0,0,0,-1,1210,1093,0,0
-7,-69,0,0,0,0,0,0,0,0,0,-1,1217,1093,0,0
0,-69,0,0,0,0,0,0,0,0,0,-1,1224,1093,0,0
7,-69,0,0,0,0,0,0,0,0,0,-1,1231,1093,0,0
14,-69,0,0,0,0,0,0,0,0,0,-1,1238,1093,0,0
21,-69,0,0,0,0,0,0,0,0,0,-1,1245,1093,0,0
28,-69,0,0,0,0,0,0,0,0,0,-1,1252,1093,0,0
35,-69,0,0,0,0,0,0,0,0,0,-1,1259,1093,0,0
42,-69,0,0,0,0,0,0,0,0,0,-1,1266,1093,0,0
49,-69,0,0,0,0,0,0,0,0,0,-1,1273,1093,0,0
56,-69,0,0,0,0,0,0,0,0,0,-1,1280,1093,0,0
63,-69,0,0,0,0,0,0,0,0,0,-1,1287,1093,0,0
70,-69,0,0,0,0,0,0,0,0,0,-1,1294,1093,0,0
77,-69,0,0,0,0,0,0,0,0,0,-1,1301,1093,0,0
84,-69,0,0,0,0,0,0,0,0,0,-1,1308,1093,0,0
91,-69,0,0,0,0,0,0,0,0,0,-1,1315,1093,0,0
98,-69,0,0,0,0,0,0,0,0,0,-1,1322,1093,0,0
105,-69,0,0,0,0,0,0,0,0,0,-1,1329,1093,0,0
112,-69,0,0,0,0,0,0,0,0,0,-1,1336,1093,0,0
119,-69,0,0,0,0,0,0,0,0,0,-1,1343,1093,0,0
126,-69,0,0,0,0,0,0,0,0,0,-1,1350,1093,0,0
133,-69,0,0,0,0,0,0,0,0,0,-1,1357,1093,0,0
140,-69,0,0,0,0,0,0,0,0,0,-1,1364,1093,0,0
147,-69,0,0,0,0,0,0,0,0,0,-1,1371,1093,0,0
154,-69,0,0,0,0,0,0,0,0,0,-1,1378,1093,0,0
161,-69,0,0,0,0,0,0,0,0,0,-1,1385,1093,0,0
168,-69,0,0,0,0,0,0,0,0,0,-1,1392,1093,0,0
175,-69,0,0,0,0,0,0,0,0,0,-1,1399,1093,0,0
182,-69,0,0,0,0,0,0,0,0,0,-1,1406,1093,0,0
189,-69,0,0,0,0,0,0,0,0,0,-1,1413,1093,0,0
196,-69,0,0,0,0,0,0,0,0,0,-1,1420,1093,0,0
203,-69,0,0,0,0,0,0,0,0,0,-1,1427,1093,0,0
210,-69,0,0,0,0,0,0,0,0,0,-1,1434,1093,0,0
217,-69,0,0,0,0,0,0,0,0,0,-1,1441,1093,0,0
224,-69,0,0,0,0,0,0,0,0,0,-1,1448,1093,0,0
231,-69,0,0,0,0,0,0,0,0,0,-1,1455,1093,0,0
238,-69,0,0,0,0,0,0,0,0,0,-1,1462,1093,0,0
245,-69,0,0,0,0,0,0,0,0,0,-1,1469,1093,0,0
252,-69,0,0,0,0,0,0,0,0,0,-1,1476,1093,0,0
259,-69,0,0,0,0,0,0,0,0,0,-1,1483,1093,0,0
266,-69,0,0,0,0,0,0,0,0,0,-1,1490,1093,0,0
273,-69,0,0,0,0,0,0,0,0,0,-1,1497,1093,0,0
280,-69,0,0,0,0,0,0,0,0,0,-1,1504,1093,0,0
287,-69,0,0,0,0,0,0,0,0,0,-1,1511,1093,0,0
294,-69,0,0,0,0,0,0,0,0,0,-1,1518,1093,0,0
301,-69,0,0,0,0,0,0,0,0,0,-1,1525,1093,0,0
308,-69,0,0,0,0,0,0,0,0,0,-1,1532,1093,0,0
315,-69,0,0,0,0,0,0,0,0,0,-1,1539,1093,0,0
322,-69,0,0,0,0,0,0,0,0,0,-1,1546,1093,0,0
329,-69,0,0,0,0,0,0,0,0,0,-1,1553,1093,0,0
336,-69,0,0,0,0,0,0,0,0,0,-1,1560,1093,0,0
343,-69,0,0,0,0,0,0,0,0,0,-1,1567,1093,0,0
350,-69,0,0,0,0,0,0,0,0,0,-1,1574,1093,0,0
357,-69,0,0,0,0,0,0,0,0,0,-1,1581,1093,0,0
364,-69,0,0,0,0,0,0,0,0,0,-1,1588,1093,0,0
371,-69,0,0,0,0,0,0,0,0,0,-1,1595,1093,0,0
378,-69,0,0,0,0,0,0,0,0,0,-1,1602,1093,0,0
385,-69,0,0,0,0,0,0,0,0,0,-1,1609,1093,0,0
392,-69,0,0,0,0,0,0,0,0,0,-1,1616,1093,0,0
399,-69,0,0,0,0,0,0,0,0,0,-1,1623,1093,0,0
406,-69,0,0,0,0,0,0,0,0,0,-1,1630,1093,0,0
413,-69,0,0,0,0,0,0,0,0,0,-1,1637,1093,0,0
420,-69,0,0,0,0,0,0,0,0,0,-1,1644,1093,0,0
427,-69,0,0,0,0,0,0,0,0,0,-1,1651,1093,0,0
434,-69,0,0,0,0,0,0,0,0,0,-1,1658,1093,0,0
441,-69,0,0,0,0,0,0,0,0,0,-1,1665,1093,0,0
448,-69,0,0,0,0,0,0,0,0,0,-1,1672,1093,0,0
455,-69,0,0,0,0,0,0,0,0,0,-1,1679,1093,0,0
462,-69,0,0,0,0,0,0,0,0,0,-1,1686,1093,0,0
469,-69,0,0,0,0,0,0,0,0,0,-1,1693,1093,0,0
476,-69,0,0,0,0,0,0,0,0,0,-1,1700,1093,0,0
483,-69,0,0,0,0,0,0,0,0,0,-1,1707,1093,0,0
490,-69,0,0,0,0,0,0,0,0,0,-1,1714,1093,0,0
497,-69,0,0,0,0,0,0,0,0,0,-1,1721,1093,0,0
504,-69,0,0,0,0,0,0,0,0,0,-1,1728,1093,0,0
511,-69,0,0,0,0,0,0,0,0,0,-1,1735,1093,0,0
518,-69,0,0,0,0,0,0,0,0,0,-1,1742,1093,0,0
525,-69,0,0,0,0,0,0,0,0,0,-1,1749,1093,0,0
532,-69,0,0,0,0,0,0,0,0,0,-1,1756,1093,0,0
539,-69,0,0,0,0,0,0,0,0,0,-1,1763,1093,0,0
546,-69,0,0,0,0,0,0,0,0,0,-1,1770,1093,0,0
553,-69,0,0,0,0,0,0,0,0,0,-1,1777,1093,0,0
560,-69,0,0,0,0,0,0,0,0,0,-1,1784,1093,0,0
567,-69,0,0,0,0,0,0,0,0,0,-1,1791,1093,0,0
574,-69,0,0,0,0,0,0,0,0,0,-1,1798,1093,0,0
581,-69,0,0,0,0,0,0,0,0,0,-1,1805,1093,0,0
588,-69,0,0,0,0,0,0,0,0,0,-1,1812,1093,0,0
595,-69,0,0,0,0,0,0,0,0,0,-1,1819,1093,0,0
602,-69,0,0,0,0,0,0,0,0,0,-1,1826,1093,0,0
609,-69,0,0,0,0,0,0,0,0,0,-1,1833,1093,0,0
616,-69,0,0,0,0,0,0,0,0,0,-1,1840,1093,0,0
623,-69,0,0,0,0,0,0,0,0,0,-1,1847,1093,0,0
630,-69,0,0,0,0,0,0,0,0,0,-1,1854,1093,0,0
637,-69,0,0,0,0,0,0,0,0,0,-1,1861,1093,0,0
644,-69,0,0,0,0,0,0,0,0,0,-1,1868,1093,0,0
651,-69,67.1298,1.86816,0,0,0,0,0,0,0,-1,1875,1093,67.1298,-1.86813
658,-69,66.9799,1.16284,0,0,0,0,0,0,0,-1,1882,1093,66.9799,-1.16289
665,-69,67.1597,2.35364,-0.000446354,-0.000653326,0.00111306,0.000568024,-0.0016677,0.739045,0.00134184,0.0393685,1889,1093,67.1596,-2.3537
672,-69,66.8904,2.41467,6.92628e-06,-0.000347438,0.0008613,0.00070908,-0.00104959,0.683956,0.00102169,0.0347359,1896,1093,66.8904,-2.41466
679,-69,66.8417,2.44836,0.000256778,5.61776e-05,0.000586166,0.000751163,-0.000438208,0.700663,0.000694563,0.0370377,1903,1093,66.8417,-2.44832
686,-69,67.1985,2.12708,0.000202953,7.52426e-05,0.000424605,0.000568477,-0.000290281,0.710764,0.000504402,0.0409929,1910,1093,67.1985,-2.12702
693,-69,67.1749,2.08545,5.97291e-05,-4.86738e-05,0.000391818,0.000401077,-0.000390022,0.716668,0.000456756,0.0357668,1917,1093,67.1749,-2.08543
700,-69,67.0798,2.15918,1.70741e-05,-0.000129899,0.000477926,0.00042713,-0.000539955,0.709115,0.000559612,0.027665,1924,1093,67.0799,-2.1592
707,-69,67.0735,2.25989,-0.000218961,-5.01644e-05,0.000659905,0.000530717,-0.000799843,0.849,0.000773419,0.0225062,1931,1093,67.0735,-2.25984
714,-69,67.0645,2.10474,-0.000715365,0.000206458,0.000976634,0.000825479,-0.00133439,1.00587,0.00125848,0.0334294,1938,1093,67.0644,-2.10475
721,-69,66.9906,1.82971,0,0,0,0,0,0,0,-1,1945,1093,66.9906,-1.82977
728,-69,64.1609,8.08032,0,0,0,0,0,0,0,-1,1952,1093,64.1609,-8.0803
735,-69,64.4443,7.5575,-0.00270785,0.00170972,0.00183624,0.00237331,-0.00337143,1.22402,0.00333337,0.0436378,1959,1093,64.4444,-7.55745
742,-69,64.4171,7.15698,-0.00319801,0.00260301,0.00213081,0.00330157,-0.00389657,1.254,0.00416058,0.0326931,1966,1093,64.4171,-7.15703
749,-69,64.2223,6.69141,-0.00326667,0.00358785,0.00237082,0.00432795,-0.00400677,1.26821,0.00481325,0.0334123,1973,1093,64.2223,-6.69135
756,-69,64.3354,6.28589,-0.00322079,0.00497886,0.00247964,0.0056704,-0.00391233,1.29882,0.00556354,0.0171729,1980,1093,64.3354,-6.28589
763,-69,64.3064,5.8573,-0.00308755,0.00717963,0.00215493,0.00761358,-0.00352149,1.37208,0.00657195,0.0192631,1987,1093,64.3064,-5.85733
770,-69,64.2029,5.46863,-0.00216464,0.00985744,0.0013513,0.0100075,-0.00231465,1.46023,0.00756221,0.0216555,1994,1093,64.203,-5.46861
777,-69,64.0686,5.09229,-0.000494241,0.0127533,-5.29821e-05,0.0127535,-0.000494453,-1.5668,0.00867186,0.0267173,2001,1093,64.0685,-5.09232
784,-69,64.0173,4.52344,0.00164014,0.0154053,-0.00187406,0.0156559,0.00138956,-1.43787,0.0100063,0.0331228,2008,1093,64.0174,-4.52346
791,-69,64.0598,3.9137,0.00426861,0.0176903,-0.00427179,0.0189346,0.00302436,-1.28737,0.0117454,0.04359,2015,1093,64.0599,-3.9137
798,-69,64.166,3.4541,0.00755436,0.0194444,-0.00740641,0.0229967,0.00400211,-1.12359,0.0141865,0.0465232,2022,1093,64.166,-3.45414
805,-69,64.022,3.06567,0.0115718,0.0206224,-0.0113628,0.0283279,0.00386636,-0.974899,0.0177375,0.0462306,2029,1093,64.0219,-3.0657
812,-69,63.8054,2.12708,0.0157701,0.0211294,-0.0163023,0.0349708,0.00192872,-0.866857,0.0226983,0.0459857,2036,1093,63.8055,-2.1271
-700,-76,0,0,0,0,0,0,0,0,0,-1,524,1100,0,0
-693,-76,-47.5841,-1.79187,0,0,0,0,0,0,0,-1,531,1100,-47.5841,1.79192
-686,-76,-46.5742,-0.718994,0.0559648,-0.0521788,-0.0263236,0.0620319,-0.0582459,-0.226526,0.0694539,0.0471741,538,1100,-46.5743,0.719009
-679,-76,-46.1302,0.56958,0.0484185,-0.0401401,-0.0206769,0.0530083,-0.0447299,-0.218436,0.0564966,0.0488139,545,1100,-46.1302,-0.569611
-672,-76,-46.5927,1.97888,0,0,0,0,0,0,0,-1,552,1100,-46.5928,-1.97889
-665,-76,-47.2389,1.99292,0,0,0,0,0,0,0,-1,559,1100,-47.2389,-1.99287
-658,-76,-48.6047,1.52783,0,0,0,0,0,0,0,-1,566,1100,-48.6047,-1.52781
-651,-76,-48.6074,2.15942,0.0186632,-0.00792782,-0.00630444,0.0200822,-0.00934681,-0.221389,0.0173636,0.0339791,573,1100,-48.6074,-2.15943
-644,-76,-48.7104,2.75256,0.0135529,-0.00370951,-0.0042223,0.0145303,-0.00468692,-0.227481,0.0115701,0.0129736,580,1100,-48.7104,-2.75255
-637,-76,-48.8629,3.21155,0.00851101,-0.000425396,-0.00245118,0.00913919,-0.00105358,-0.250877,0.00647263,0.0155425,587,1100,-48.8629,-3.21155
-630,-76,-48.8826,3.69604,0.00430406,0.00151536,-0.00158059,0.00501743,0.000801988,-0.42396,0.00311226,0.0155884,594,1100,-48.8826,-3.69608
-623,-76,-48.9136,4.15723,0.00205739,0.00179917,-0.00126267,0.00319753,0.000659022,-0.734448,0.00194951,0.0213455,601,1100,-48.9136,-4.15722
-616,-76,-48.9963,4.64722,0.00117874,0.0010849,-0.00149682,0.00262937,-0.000365733,-0.769729,0.00188668,0.0221984,608,1100,-48.9963,-4.6472
-609,-76,-49.0029,5.10498,0.000764704,2.47688e-05,-0.00151277,0.00195209,-0.00116262,-0.665471,0.00181743,0.0210179,615,1100,-49.003,-5.10494
-602,-76,-48.9263,5.58154,0.00100822,-0.000921897,-0.00146036,0.00179359,-0.00170727,-0.493421,0.00202142,0.0209241,622,1100,-48.9263,-5.58151
-595,-76,-48.9174,6.00134,0.00126452,-0.00157459,-0.00157906,0.0019683,-0.00227837,-0.419271,0.002454,0.0403559,629,1100,-48.9173,-6.0013
-588,-76,-49.0181,6.4563,0,0,0,0,0,0,0,-1,636,1100,-49.0181,-6.45633
-581,-76,-51.6466,0.491943,0,0,0,0,0,0,0,-1,643,1100,-51.6466,-0.491936
-574,-76,-51.6489,0.30603,0.0019648,-0.00208729,-0.00139853,0.00240061,-0.0025231,-0.302084,0.002843,0.0367576,650,1100,-51.6488,-0.30597
-567,-76,-51.6656,0.10498,0.00205889,-0.00184849,-0.00126445,0.00243237,-0.00222197,-0.287206,0.0026881,0.0404226,657,1100,-51.6656,-0.104928
-560,-76,-51.9175,0.297607,0.00201667,-0.00133729,-0.00116012,0.00237885,-0.00169946,-0.302597,0.00236548,0.0403891,664,1100,-51.9175,-0.297559
-553,-76,-51.8433,0.578369,0.00184062,-0.000597889,-0.00114971,0.0022972,-0.00105447,-0.378026,0.00197893,0.0437636,671,1100,-51.8433,-0.578317
-546,-76,-51.6338,0.764038,0.00209472,0.000206005,-0.00131001,0.00276527,-0.000464547,-0.473097,0.00201628,0.0445989,678,1100,-51.6338,-0.763984
-539,-76,-51.7322,1.00745,0,0,0,0,0,0,0,-1,685,1100,-51.7322,-1.0075
-532,-76,-51.6517,0.763184,0,0,0,0,0,0,0,-1,692,1100,-51.6517,-0.763195
-525,-76,0,0,0,0,0,0,0,0,0,-1,699,1100,0,0
-518,-76,0,0,0,0,0,0,0,0,0,-1,706,1100,0,0
-511,-76,0,0,0,0,0,0,0,0,0,-1,713,1100,0,0
-504,-76,0,0,0,0,0,0,0,0,0,-1,720,1100,0,0
-497,-76,0,0,0,0,0,0,0,0,0,-1,727,1100,0,0
-490,-76,0,0,0,0,0,0,0,0,0,-1,734,1100,0,0
-483,-76,0,0,0,0,0,0,0,0,0,-1,741,1100,0,0
-476,-76,0,0,0,0,0,0,0,0,0,-1,748,1100,0,0
-469,-76,0,0,0,0,0,0,0,0,0,-1,755,1100,0,0
-462,-76,0,0,0,0,0,0,0,0,0,-1,762,1100,0,0
-455,-76,0,0,0,0,0,0,0,0,0,-1,769,1100,0,0
-448,-76,0,0,0,0,0,0,0,0,0,-1,776,1100,0,0
-441,-76,0,0,0,0,0,0,0,0,0,-1,783,1100,0,0
-434,-76,0,0,0,0,0,0,0,0,0,-1,790,1100,0,0
-427,-76,0,0,0,0,0,0,0,0,0,-1,797,1100,0,0
-420,-76,0,0,0,0,0,0,0,0,0,-1,804,1100,0,0
-413,-76,0,0,0,0,0,0,0,0,0,-1,811,1100,0,0
-406,-76,0,0,0,0,0,0,0,0,0,-1,818,1100,0,0
-399,-76,0,0,0,0,0,0,0,0,0,-1,825,1100,0,0
-392,-76,0,0,0,0,0,0,0,0,0,-1,832,1100,0,0
-385,-76,0,0,0,0,0,0,0,0,0,-1,839,1100,0,0
-378,-76,0,0,0,0,0,0,0,0,0,-1,846,1100,0,0
-371,-76,0,0,0,0,0,0,0,0,0,-1,853,1100,0,0
-364,-76,0,0,0,0,0,0,0,0,0,-1,860,1100,0,0
-357,-76,0,0,0,0,0,0,0,0,0,-1,867,1100,0,0
-350,-76,0,0,0,0,0,0,0,0,0,-1,874,1100,0,0
-343,-76,0,0,0,0,0,0,0,0,0,-1,881,1100,0,0
-336,-76,0,0,0,0,0,0,0,0,0,-1,888,1100,0,0
-329,-76,0,0,0,0,0,0,0,0,0,-1,895,1100,0,0
-322,-76,0,0,0,0,0,0,0,0,0,-1,902,1100,0,0
-315,-76,0,0,0,0,0,0,0,0,0,-1,909,1100,0,0
-308,-76,0,0,0,0,0,0,0,0,0,-1,916,1100,0,0
-301,-76,0,0,0,0,0,0,0,0,0,-1,923,1100,0,0
-294,-76,0,0,0,0,0,0,0,0,0,-1,930,1100,0,0
-287,-76,0,0,0,0,0,0,0,0,0,-1,937,1100,0,0
-280,-76,0,0,0,0,0,0,0,0,0,-1,944,1100,0,0
-273,-76,0,0,0,0,0,0,0,0,0,-1,951,1100,0,0
-266,-76,0,0,0,0,0,0,0,0,0,-1,958,1100,0,0
-259,-76,0,0,0,0,0,0,0,0,0,-1,965,1100,0,0
-252,-76,0,0,0,0,0,0,0,0,0,-1,972,1100,0,0
-245,-76,0,0,0,0,0,0,0,0,0,-1,979,1100,0,0
-238,-76,0,0,0,0,0,0,0,0,0,-1,986,1100,0,0
-231,-76,0,0,0,0,0,0,0,0,0,-1,993,1100,0,0
-224,-76,0,0,0,0,0,0,0,0,0,-1,1000,1100,0,0
-217,-76,0,0,0,0,0,0,0,0,0,-1,1007,1100,0,0
-210,-76,0,0,0,0,0,0,0,0,0,-1,1014,1100,0,0
-203,-76,0,0,0,0,0,0,0,0,0,-1,1021,1100,0,0
-196,-76,0,0,0,0,0,0,0,0,0,-1,1028,1100,0,0
-189,-76,0,0,0,0,0,0,0,0,0,-1,1035,1100,0,0
-182,-76,0,0,0,0,0,0,0,0,0,-1,1042,1100,0,0
-175,-76,0,0,0,0,0,0,0,0,0,-1,1049,1100,0,0
-168,-76,0,0,0,0,0,0,0,0,0,-1,1056,1100,0,0
-161,-76,0,0,0,0,0,0,0,0,0,-1,1063,1100,0,0
-154,-76,0,0,0,0,0,0,0,0,0,-1,1070,1100,0,0
-147,-76,0,0,0,0,0,0,0,0,0,-1,1077,1100,0,0
-140,-76,0,0,0,0,0,0,0,0,0,-1,1084,1100,0,0
-133,-76,0,0,0,0,0,0,0,0,0,-1,1091,1100,0,0
-126,-76,0,0,0,0,0,0,0,0,0,-1,1098,1100,0,0
-119,-76,0,0,0,0,0,0,0,0,0,-1,1105,1100,0,0
-112,-76,0,0,0,0,0,0,0,0,0,-1,1112,1100,0,0
-105,-76,0,0,0,0,0,0,0,0,0,-1,1119,1100,0,0
-98,-76,0,0,0,0,0,0,0,0,0,-1,1126,1100,0,0
-91,-76,0,0,0,0,0,0,0,0,0,-1,1133,1100,0,0
-84,-76,0,0,0,0,0,0,0,0,0,-1,1140,1100,0,0
-77,-76,0,0,0,0,0,0,0,0,0,-1,1147,1100,0,0
-70,-76,0,0,0,0,0,0,0,0,0,-1,1154,1100,0,0
-63,-76,0,0,0,0,0,0,0,0,0,-1,1161,1100,0,0
-56,-76,0,0,0,0,0,0,0,0,0,-1,1168,1100,0,0
-49,-76,0,0,0,0,0,0,0,0,0,-1,1175,1100,0,0
-42,-76,0,0,0,0,0,0,0,0,0,-1,1182,1100,0,0
-35,-76,0,0,0,0,0,0,0,0,0,-1,1189,1100,0,0
-28,-76,0,0,0,0,0,0,0,0,0,-1,1196,1100,0,0
-21,-76,0,0,0,0,0,0,0,0,0,-1,1203,1100,0,0
-14,-76,0,0,0,0,0,0,0,0,0,-1,1210,1100,0,0
-7,-76,0,0,0,0,0,0,0,0,0,-1,1217,1100,0,0
0,-76,0,0,0,0,0,0,0,0,0,-1,1224,1100,0,0
7,-76,0,0,0,0,0,0,0,0,0,-1,1231,1100,0,0
14,-76,0,0,0,0,0,0,0,0,0,-1,1238,1100,0,0
21,-76,0,0,0,0,0,0,0,0,0,-1,1245,1100,0,0
28,-76,0,0,0,0,0,0,0,0,0,-1,1252,1100,0,0
35,-76,0,0,0,0,0,0,0,0,0,-1,1259,1100,0,0
42,-76,0,0,0,0,0,0,0,0,0,-1,1266,1100,0,0
49,-76,0,0,0,0,0,0,0,0,0,-1,1273,1100,0,0
56,-76,0,0,0,0,0,0,0,0,0,-1,1280,1100,0,0
63,-76,0,0,0,0,0,0,0,0,0,-1,1287,1100,0,0
70,-76,0,0,0,0,0,0,0,0,0,-1,1294,1100,0,0
77,-76,0,0,0,0,0,0,0,0,0,-1,1301,1100,0,0
84,-76,0,0,0,0,0,0,0,0,0,-1,1308,1100,0,0
91,-76,0,0,0,0,0,0,0,0,0,-1,1315,1100,0,0
98,-76,0,0,0,0,0,0,0,0,0,-1,1322,1100,0,0
105,-76,0,0,0,0,0,0,0,0,0,-1,1329,1100,0,0
112,-76,0,0,0,0,0,0,0,0,0,-1,1336,1100,0,0
119,-76,0,0,0,0,0,0,0,0,0,-1,1343,1100,0,0
126,-76,0,0,0,0,0,0,0,0,0,-1,1350,1100,0,0
133,-76,0,0,0,0,0,0,0,0,0,-1,1357,1100,0,0
140,-76,0,0,0,0,0,0,0,0,0,-1,1364,1100,0,0
147,-76,0,0,0,0,0,0,0,0,0,-1,1371,1100,0,0
154,-76,0,0,0,0,0,0,0,0,0,-1,1378,1100,0,0
161,-76,0,0,0,0,0,0,0,0,0,-1,1385,1100,0,0
168,-76,0,0,0,0,0,0,0,0,0,-1,1392,1100,0,0
175,-76,0,0,0,0,0,0,0,0,0,-1,1399,1100,0,0
182,-76,0,0,0,0,0,0,0,0,0,-1,1406,1100,0,0
189,-76,0,0,0,0,0,0,0,0,0,-1,1413,1100,0,0
196,-76,0,0,0,0,0,0,0,0,0,-1,1420,1100,0,0
203,-76,0,0,0,0,0,0,0,0,0,-1,1427,1100,0,0
210,-76,0,0,0,0,0,0,0,0,0,-1,1434,1100,0,0
217,-76,0,0,0,0,0,0,0,0,0,-1,1441,1100,0,0
224,-76,0,0,0,0,0,0,0,0,0,-1,1448,1100,0,0
231,-76,0,0,0,0,0,0,0,0,0,-1,1455,1100,0,0
238,-76,0,0,0,0,0,0,0,0,0,-1,1462,1100,0,0
245,-76,0,0,0,0,0,0,0,0,0,-1,1469,1100,0,0
252,-76,0,0,0,0,0,0,0,0,0,-1,1476,1100,0,0
259,-76,0,0,0,0,0,0,0,0,0,-1,1483,1100,0,0
266,-76,0,0,0,0,0,0,0,0,0,-1,1490,1100,0,0
273,-76,0,0,0,0,0,0,0,0,0,-1,1497,1100,0,0
280,-76,0,0,0,0,0,0,0,0,0,-1,1504,1100,0,0
287,-76,0,0,0,0,0,0,0,0,0,-1,1511,1100,0,0
294,-76,0,0,0,0,0,0,0,0,0,-1,1518,1100,0,0
301,-76,0,0,0,0,0,0,0,0,0,-1,1525,1100,0,0
308,-76,0,0,0,0,0,0,0,0,0,-1,1532,1100,0,0
315,-76,0,0,0,0,0,0,0,0,0,-1,1539,1100,0,0
322,-76,0,0,0,0,0,0,0,0,0,-1,1546,1100,0,0
329,-76,0,0,0,0,0,0,0,0,0,-1,1553,1100,0,0
336,-76,0,0,0,0,0,0,0,0,0,-1,1560,1100,0,0
343,-76,0,0,0,0,0,0,0,0,0,-1,1567,1100,0,0
350,-76,0,0,0,0,0,0,0,0,0,-1,1574,1100,0,0
357,-76,0,0,0,0,0,0,0,0,0,-1,1581,1100,0,0
364,-76,0,0,0,0,0,0,0,0,0,-1,1588,1100,0,0
371,-76,0,0,0,0,0,0,0,0,0,-1,1595,1100,0,0
378,-76,0,0,0,0,0,0,0,0,0,-1,1602,1100,0,0
385,-76,0,0,0,0,0,0,0,0,0,-1,1609,1100,0,0
392,-76,0,0,0,0,0,0,0,0,0,-1,1616,1100,0,0
399,-76,0,0,0,0,0,0,0,0,0,-1,1623,1100,0,0
406,-76,0,0,0,0,0,0,0,0,0,-1,1630,1100,0,0
413,-76,0,0,0,0,0,0,0,0,0,-1,1637,1100,0,0
420,-76,0,0,0,0,0,0,0,0,0,-1,1644,1100,0,0
427,-76,0,0,0,0,0,0,0,0,0,-1,1651,1100,0,0
434,-76,0,0,0,0,0,0,0,0,0,-1,1658,1100,0,0
441,-76,0,0,0,0,0,0,0,0,0,-1,1665,1100,0,0
448,-76,0,0,0,0,0,0,0,0,0,-1,1672,1100,0,0
455,-76,0,0,0,0,0,0,0,0,0,-1,1679,1100,0,0
462,-76,0,0,0,0,0,0,0,0,0,-1,1686,1100,0,0
469,-76,0,0,0,0,0,0,0,0,0,-1,1693,1100,0,0
476,-76,0,0,0,0,0,0,0,0,0,-1,1700,1100,0,0
483,-76,0,0,0,0,0,0,0,0,0,-1,1707,1100,0,0
490,-76,0,0,0,0,0,0,0,0,0,-1,1714,1100,0,0
497,-76,0,0,0,0,0,0,0,0,0,-1,1721,1100,0,0
504,-76,0,0,0,0,0,0,0,0,0,-1,1728,1100,0,0
511,-76,0,0,0,0,0,0,0,0,0,-1,1735,1100,0,0
518,-76,0,0,0,0,0,0,0,0,0,-1,1742,1100,0,0
525,-76,0,0,0,0,0,0,0,0,0,-1,1749,1100,0,0
532,-76,0,0,0,0,0,0,0,0,0,-1,1756,1100,0,0
539,-76,0,0,0,0,0,0,0,0,0,-1,1763,1100,0,0
546,-76,0,0,0,0,0,0,0,0,0,-1,1770,1100,0,0
553,-76,0,0,0,0,0,0,0,0,0,-1,1777,1100,0,0
560,-76,0,0,0,0,0,0,0,0,0,-1,1784,1100,0,0
567,-76,0,0,0,0,0,0,0,0,0,-1,1791,1100,0,0
574,-76,0,0,0,0,0,0,0,0,0,-1,1798,1100,0,0
581,-76,0,0,0,0,0,0,0,0,0,-1,1805,1100,0,0
588,-76,0,0,0,0,0,0,0,0,0,-1,1812,1100,0,0
595,-76,0,0,0,0,0,0,0,0,0,-1,1819,1100,0,0
602,-76,0,0,0,0,0,0,0,0,0,-1,1826,1100,0,0
609,-76,0,0,0,0,0,0,0,0,0,-1,1833,1100,0,0
616,-76,0,0,0,0,0,0,0,0,0,-1,1840,1100,0,0
623,-76,0,0,0,0,0,0,0,0,0,-1,1847,1100,0,0
630,-76,0,0,0,0,0,0,0,0,0,-1,1854,1100,0,0
637,-76,0,0,0,0,0,0,0,0,0,-1,1861,1100,0,0
644,-76,0,0,0,0,0,0,0,0,0,-1,1868,1100,0,0
651,-76,67.1295,2.14319,-0.00150032,-0.00142965,0.00155717,9.25804e-05,-0.00302256,0.796743,0.0020466,0.0447115,1875,1100,67.1295,-2.14318
658,-76,66.9862,2.04883,-0.000844259,-0.00126743,0.00127648,0.00023805,-0.00234974,0.703266,0.00165157,0.0440515,1882,1100,66.9862,-2.04877
665,-76,67.0138,2.14526,-0.000305786,-0.00103966,0.00100022,0.000392683,-0.00173813,0.609593,0.00130942,0.0365222,1889,1100,67.0138,-2.14531
672,-76,66.9812,2.37769,0.000104389,-0.00067821,0.000731198,0.000542407,-0.00111623,0.539713,0.000976529,0.0348255,1896,1100,66.9812,-2.37768
679,-76,67.1207,2.32581,0.000313359,-0.000256171,0.000438829,0.000551721,-0.000494533,0.49759,0.000604356,0.0389807,1903,1100,67.1207,-2.32584
686,-76,67.2754,2.17383,0.000324821,-0.000216011,0.000262768,0.000431462,-0.000322652,0.385528,0.000436896,0.0398164,1910,1100,67.2754,-2.17383
693,-76,67.1743,2.18018,0.000261961,-0.000300253,0.000216869,0.000335894,-0.000374186,0.328555,0.000410164,0.0369558,1917,1100,67.1743,-2.18018
700,-76,67.0625,2.18298,0.000285059,-0.00034117,0.000280294,0.000392189,-0.0004483,0.365073,0.000485617,0.0300796,1924,1100,67.0626,-2.18296
707,-76,67.0614,2.29248,0.0001283,-0.000223142,0.000452829,0.000438307,-0.000533149,0.600316,0.000561761,0.0228842,1931,1100,67.0614,-2.29243
714,-76,67.1272,2.29028,0,0,0,0,0,0,0,-1,1938,1100,67.1272,-2.2903
721,-76,45.1713,3.04919,0,0,0,0,0,0,0,-1,1945,1100,45.1713,-3.04915
728,-76,60.937,8.08447,0,0,0,0,0,0,0,-1,1952,1100,60.937,-8.08446
735,-76,63.7581,7.7876,0,0,0,0,0,0,0,-1,1959,1100,63.7581,-7.78759
742,-76,63.8706,7.21985,-0.00253818,0.00224945,0.00197635,0.00295988,-0.00324861,1.22572,0.00358577,0.0339153,1966,1100,63.8706,-7.21989
749,-76,63.738,6.70947,-0.00260652,0.00313345,0.00231725,0.00395216,-0.00342523,1.23118,0.00426296,0.0314765,1973,1100,63.738,-6.70946
756,-76,63.8462,6.29626,-0.0026673,0.00427044,0.00253361,0.00509718,-0.00349404,1.25538,0.00498885,0.0169162,1980,1100,63.8461,-6.2963
763,-76,63.814,5.82043,-0.00268211,0.00601858,0.00230056,0.00658942,-0.00325295,1.32758,0.0057903,0.0179356,1987,1100,63.8141,-5.82039
770,-76,63.6826,5.43311,-0.00197454,0.00803187,0.0016382,0.00829324,-0.00223591,1.41258,0.00640556,0.0198035,1994,1100,63.6826,-5.43307
777,-76,63.5293,5.10693,-0.00064866,0.00993799,0.000440789,0.00995631,-0.000666981,1.52926,0.00687067,0.0239831,2001,1100,63.5292,-5.10695
784,-76,63.5635,4.47339,0.00109262,0.0113813,-0.00116794,0.0115122,0.000961706,-1.45917,0.00737519,0.0346808,2008,1100,63.5634,-4.47334
791,-76,63.8501,3.72839,0.00330587,0.0120761,-0.00334217,0.0132045,0.00217743,-1.24518,0.00817446,0.0432812,2015,1100,63.8502,-3.72838
798,-76,63.6665,3.46851,0,0,0,0,0,0,0,-1,2022,1100,63.6666,-3.46849
805,-76,63.5352,2.97986,0.0094858,0.0102326,-0.0099378,0.019804,-8.56034e-05,-0.804176,0.0132313,0.0450781,2029,1100,63.535,-2.97989
812,-76,63.1501,2.14307,0.0128616,0.00719962,-0.0145928,0.0248955,-0.00483423,-0.689588,0.0184211,0.0477295,2036,1100,63.1501,-2.14312
-700,-83,0,0,0,0,0,0,0,0,0,-1,524,1107,0,0
-693,-83,-45.828,-1.15137,0.0799929,-0.0655424,-0.0278741,0.0851489,-0.0706984,-0.182907,0.0901074,0.0459718,531,1107,-45.828,1.15131
-686,-83,-45.5951,-0.229492,0.070547,-0.0543901,-0.0218168,0.0742471,-0.0580902,-0.168001,0.0765946,0.0468598,538,1107,-45.5951,0.229497
-679,-83,-44.8306,1.08044,0,0,0,0,0,0,0,-1,545,1107,-44.8306,-1.08042
-672,-83,-49.0224,-0.0987549,0.0491708,-0.0337753,-0.0132512,0.0512363,-0.0358409,-0.154631,0.0505353,0.0465011,552,1107,-49.0224,0.0986939
-665,-83,-48.6783,0.218994,0.0390192,-0.0249605,-0.0100541,0.040562,-0.0265033,-0.152258,0.0390027,0.0474888,559,1107,-48.6783,-0.218944
-658,-83,-48.7159,0.992065,0,0,0,0,0,0,0,-1,566,1107,-48.716,-0.992103
-651,-83,-48.276,1.98535,0.021601,-0.0111257,-0.00526549,0.0224273,-0.011952,-0.155661,0.0201537,0.0350146,573,1107,-48.276,-1.9854
-644,-83,-48.1688,2.63928,0.0151345,-0.00638388,-0.00361684,0.0157262,-0.00697554,-0.162147,0.0134275,0.0194351,580,1107,-48.1688,-2.63926
-637,-83,-48.3074,3.16016,0.00914849,-0.00252599,-0.00217353,0.00954002,-0.00291752,-0.178225,0.00752351,0.0134316,587,1107,-48.3074,-3.16018
-630,-83,-48.3779,3.68579,0.00435981,2.11265e-05,-0.00146306,0.00480707,-0.000426133,-0.296678,0.00335579,0.0174678,594,1107,-48.3779,-3.6858
-623,-83,-48.4191,4.14246,0.00185924,0.000855014,-0.00128802,0.00273957,-2.53059e-05,-0.599542,0.00183487,0.0210621,601,1107,-48.4191,-4.14246
-616,-83,-48.5255,4.63232,0.00105433,0.000557502,-0.00142931,0.00225665,-0.000644817,-0.699357,0.00175921,0.0184568,608,1107,-48.5255,-4.6323
-609,-83,-48.4708,5.09363,0.000785303,-0.00021263,-0.00137201,0.00174626,-0.00117358,-0.610995,0.00169654,0.0224647,615,1107,-48.4708,-5.09366
-602,-83,-48.454,5.6217,0.00112245,-0.00104165,-0.00129047,0.00172449,-0.00164368,-0.436509,0.0019448,0.0206444,622,1107,-48.454,-5.62167
-595,-83,-48.3923,6.13196,0.00138356,-0.0015756,-0.00131384,0.0018827,-0.00207474,-0.363067,0.00228573,0.0299919,629,1107,-48.3923,-6.13199
-588,-83,-48.475,6.51392,0,0,0,0,0,0,0,-1,636,1107,-48.475,-6.5139
-581,-83,-51.6132,0.284912,0,0,0,0,0,0,0,-1,643,1107,-51.6132,-0.28495
-574,-83,-51.6097,0.06604,0.00213306,-0.00215059,-0.00115198,0.0024232,-0.00244073,-0.246733,0.0028082,0.0385436,650,1107,-51.6098,-0.0660426
-567,-83,-51.7587,-0.0101318,0.00227887,-0.00198691,-0.00106113,0.00252825,-0.0022363,-0.230826,0.00275253,0.0419754,657,1107,-51.7587,0.0101781
-560,-83,-52.0583,0.168701,0.00226309,-0.00154513,-0.00100293,0.00251107,-0.00179311,-0.242397,0.00249652,0.044815,664,1107,-52.0583,-0.1687
-553,-83,-51.8245,0.384766,0.00197072,-0.000832647,-0.00106186,0.00232752,-0.00118945,-0.324161,0.00206565,0.0444127,671,1107,-51.8245,-0.384783
-546,-83,-51.4989,0.644775,0.00202847,2.77727e-05,-0.00127602,0.00264951,-0.000593275,-0.452957,0.00199374,0.0418822,678,1107,-51.4989,-0.644824
-539,-83,-51.4517,0.677246,0.00339265,0.000714469,-0.00198664,0.00444937,-0.000342247,-0.48885,0.00308666,0.0435478,685,1107,-51.4517,-0.677212
-532,-83,-51.4963,0.557373,0.00463807,0.00146826,-0.00303008,0.00647272,-0.000366381,-0.544436,0.00444231,0.0473641,692,1107,-51.4964,-0.557426
-525,-83,0,0,0,0,0,0,0,0,0,-1,699,1107,0,0
-518,-83,0,0,0,0,0,0,0,0,0,-1,706,1107,0,0
-511,-83,0,0,0,0,0,0,0,0,0,-1,713,1107,0,0
-504,-83,0,0,0,0,0,0,0,0,0,-1,720,1107,0,0
-497,-83,0,0,0,0,0,0,0,0,0,-1,727,1107,0,0
-490,-83,0,0,0,0,0,0,0,0,0,-1,734,1107,0,0
-483,-83,0,0,0,0,0,0,0,0,0,-1,741,1107,0,0
-476,-83,0,0,0,0,0,0,0,0,0,-1,748,1107,0,0
-469,-83,0,0,0,0,0,0,0,0,0,-1,755,1107,0,0
-462,-83,0,0,0,0,0,0,0,0,0,-1,762,1107,0,0
-455,-83,0,0,0,0,0,0,0,0,0,-1,769,1107,0,0
-448,-83,0,0,0,0,0,0,0,0,0,-1,776,1107,0,0
-441,-83,0,0,0,0,0,0,0,0,0,-1,783,1107,0,0
-434,-83,0,0,0,0,0,0,0,0,0,-1,790,1107,0,0
-427,-83,0,0,0,0,0,0,0,0,0,-1,797,1107,0,0
-420,-83,0,0,0,0,0,0,0,0,0,-1,804,1107,0,0
-413,-83,0,0,0,0,0,0,0,0,0,-1,811,1107,0,0
-406,-83,0,0,0,0,0,0,0,0,0,-1,818,1107,0,0
-399,-83,0,0,0,0,0,0,0,0,0,-1,825,1107,0,0
-392,-83,0,0,0,0,0,0,0,0,0,-1,832,1107,0,0
-385,-83,0,0,0,0,0,0,0,0,0,-1,839,1107,0,0
-378,-83,0,0,0,0,0,0,0,0,0,-1,846,1107,0,0
-371,-83,0,0,0,0,0,0,0,0,0,-1,853,1107,0,0
-364,-83,0,0,0,0,0,0,0,0,0,-1,860,1107,0,0
-357,-83,0,0,0,0,0,0,0,0,0,-1,867,1107,0,0
-350,-83,0,0,0,0,0,0,0,0,0,-1,874,1107,0,0
-343,-83,0,0,0,0,0,0,0,0,0,-1,881,1107,0,0
-336,-83,0,0,0,0,0,0,0,0,0,-1,888,1107,0,0
-329,-83,0,0,0,0,0,0,0,0,0,-1,895,1107,0,0
-322,-83,0,0,0,0,0,0,0,0,0,-1,902,1107,0,0
-315,-83,0,0,0,0,0,0,0,0,0,-1,909,1107,0,0
-308,-83,0,0,0,0,0,0,0,0,0,-1,916,1107,0,0
-301,-83,0,0,0,0,0,0,0,0,0,-1,923,1107,0,0
-294,-83,0,0,0,0,0,0,0,0,0,-1,930,1107,0,0
-287,-83,0,0,0,0,0,0,0,0,0,-1,937,1107,0,0
-280,-83,0,0,0,0,0,0,0,0,0,-1,944,1107,0,0
-273,-83,0,0,0,0,0,0,0,0,0,-1,951,1107,0,0
-266,-83,0,0,0,0,0,0,0,0,0,-1,958,1107,0,0
-259,-83,0,0,0,0,0,0,0,0,0,-1,965,1107,0,0
-252,-83,0,0,0,0,0,0,0,0,0,-1,972,1107,0,0
-245,-83,0,0,0,0,0,0,0,0,0,-1,979,1107,0,0
-238,-83,0,0,0,0,0,0,0,0,0,-1,986,1107,0,0
-231,-83,0,0,0,0,0,0,0,0,0,-1,993,1107,0,0
-224,-83,0,0,0,0,0,0,0,0,0,-1,1000,1107,0,0
-217,-83,0,0,0,0,0,0,0,0,0,-1,1007,1107,0,0
-210,-83,0,0,0,0,0,0,0,0,0,-1,1014,1107,0,0
-203,-83,0,0,0,0,0,0,0,0,0,-1,1021,1107,0,0
-196,-83,0,0,0,0,0,0,0,0,0,-1,1028,1107,0,0
-189,-83,0,0,0,0,0,0,0,0,0,-1,1035,1107,0,0
-182,-83,0,0,0,0,0,0,0,0,0,-1,1042,1107,0,0
-175,-83,0,0,0,0,0,0,0,0,0,-1,1049,1107,0,0
-168,-83,0,0,0,0,0,0,0,0,0,-1,1056,1107,0,0
-161,-83,0,0,0,0,0,0,0,0,0,-1,1063,1107,0,0
-154,-83,0,0,0,0,0,0,0,0,0,-1,1070,1107,0,0
-147,-83,0,0,0,0,0,0,0,0,0,-1,1077,1107,0,0
-140,-83,0,0,0,0,0,0,0,0,0,-1,1084,1107,0,0
-133,-83,0,0,0,0,0,0,0,0,0,-1,1091,1107,0,0
-126,-83,0,0,0,0,0,0,0,0,0,-1,1098,1107,0,0
-119,-83,0,0,0,0,0,0,0,0,0,-1,1105,1107,0,0
-112,-83,0,0,0,0,0,0,0,0,0,-1,1112,1107,0,0
-105,-83,0,0,0,0,0,0,0,0,0,-1,1119,1107,0,0
-98,-83,0,0,0,0,0,0,0,0,0,-1,1126,1107,0,0
-91,-83,0,0,0,0,0,0,0,0,0,-1,1133,1107,0,0
-84,-83,0,0,0,0,0,0,0,0,0,-1,1140,1107,0,0
-77,-83,0,0,0,0,0,0,0,0,0,-1,1147,1107,0,0
-70,-83,0,0,0,0,0,0,0,0,0,-1,1154,1107,0,0
-63,-83,0,0,0,0,0,0,0,0,0,-1,1161,1107,0,0
-56,-83,0,0,0,0,0,0,0,0,0,-1,1168,1107,0,0
-49,-83,0,0,0,0,0,0,0,0,0,-1,1175,1107,0,0
-42,-83,0,0,0,0,0,0,0,0,0,-1,1182,1107,0,0
-35,-83,0,0,0,0,0,0,0,0,0,-1,1189,1107,0,0
-28,-83,0,0,0,0,0,0,0,0,0,-1,1196,1107,0,0
-21,-83,0,0,0,0,0,0,0,0,0,-1,1203,1107,0,0
-14,-83,0,0,0,0,0,0,0,0,0,-1,1210,1107,0,0
-7,-83,0,0,0,0,0,0,0,0,0,-1,1217,1107,0,0
0,-83,0,0,0,0,0,0,0,0,0,-1,1224,1107,0,0
7,-83,0,0,0,0,0,0,0,0,0,-1,1231,1107,0,0
14,-83,0,0,0,0,0,0,0,0,0,-1,1238,1107,0,0
21,-83,0,0,0,0,0,0,0,0,0,-1,1245,1107,0,0
28,-83,0,0,0,0,0,0,0,0,0,-1,1252,1107,0,0
35,-83,0,0,0,0,0,0,0,0,0,-1,1259,1107,0,0
42,-83,0,0,0,0,0,0,0,0,0,-1,1266,1107,0,0
49,-83,0,0,0,0,0,0,0,0,0,-1,1273,1107,0,0
56,-83,0,0,0,0,0,0,0,0,0,-1,1280,1107,0,0
63,-83,0,0,0,0,0,0,0,0,0,-1,1287,1107,0,0
70,-83,0,0,0,0,0,0,0,0,0,-1,1294,1107,0,0
77,-83,0,0,0,0,0,0,0,0,0,-1,1301,1107,0,0
84,-83,0,0,0,0,0,0,0,0,0,-1,1308,1107,0,0
91,-83,0,0,0,0,0,0,0,0,0,-1,1315,1107,0,0
98,-83,0,0,0,0,0,0,0,0,0,-1,1322,1107,0,0
105,-83,0,0,0,0,0,0,0,0,0,-1,1329,1107,0,0
112,-83,0,0,0,0,0,0,0,0,0,-1,1336,1107,0,0
119,-83,0,0,0,0,0,0,0,0,0,-1,1343,1107,0,0
126,-83,0,0,0,0,0,0,0,0,0,-1,1350,1107,0,0
133,-83,0,0,0,0,0,0,0,0,0,-1,1357,1107,0,0
140,-83,0,0,0,0,0,0,0,0,0,-1,1364,1107,0,0
147,-83,0,0,0,0,0,0,0,0,0,-1,1371,1107,0,0
154,-83,0,0,0,0,0,0,0,0,0,-1,1378,1107,0,0
161,-83,0,0,0,0,0,0,0,0,0,-1,1385,1107,0,0
168,-83,0,0,0,0,0,0,0,0,0,-1,1392,1107,0,0
175,-83,0,0,0,0,0,0,0,0,0,-1,1399,1107,0,0
182,-83,0,0,0,0,0,0,0,0,0,-1,1406,1107,0,0
189,-83,0,0,0,0,0,0,0,0,0,-1,1413,1107,0,0
196,-83,0,0,0,0,0,0,0,0,0,-1,1420,1107,0,0
203,-83,0,0,0,0,0,0,0,0,0,-1,1427,1107,0,0
210,-83,0,0,0,0,0,0,0,0,0,-1,1434,1107,0,0
217,-83,0,0,0,0,0,0,0,0,0,-1,1441,1107,0,0
224,-83,0,0,0,0,0,0,0,0,0,-1,1448,1107,0,0
231,-83,0,0,0,0,0,0,0,0,0,-1,1455,1107,0,0
238,-83,0,0,0,0,0,0,0,0,0,-1,1462,1107,0,0
245,-83,0,0,0,0,0,0,0,0,0,-1,1469,1107,0,0
252,-83,0,0,0,0,0,0,0,0,0,-1,1476,1107,0,0
259,-83,0,0,0,0,0,0,0,0,0,-1,1483,1107,0,0
266,-83,0,0,0,0,0,0,0,0,0,-1,1490,1107,0,0
273,-83,0,0,0,0,0,0,0,0,0,-1,1497,1107,0,0
280,-83,0,0,0,0,0,0,0,0,0,-1,1504,1107,0,0
287,-83,0,0,0,0,0,0,0,0,0,-1,1511,1107,0,0
294,-83,0,0,0,0,0,0,0,0,0,-1,1518,1107,0,0
301,-83,0,0,0,0,0,0,0,0,0,-1,1525,1107,0,0
308,-83,0,0,0,0,0,0,0,0,0,-1,1532,1107,0,0
315,-83,0,0,0,0,0,0,0,0,0,-1,1539,1107,0,0
322,-83,0,0,0,0,0,0,0,0,0,-1,1546,1107,0,0
329,-83,0,0,0,0,0,0,0,0,0,-1,1553,1107,0,0
336,-83,0,0,0,0,0,0,0,0,0,-1,1560,1107,0,0
343,-83,0,0,0,0,0,0,0,0,0,-1,1567,1107,0,0
350,-83,0,0,0,0,0,0,0,0,0,-1,1574,1107,0,0
357,-83,0,0,0,0,0,0,0,0,0,-1,1581,1107,0,0
364,-83,0,0,0,0,0,0,0,0,0,-1,1588,1107,0,0
371,-83,0,0,0,0,0,0,0,0,0,-1,1595,1107,0,0
378,-83,0,0,0,0,0,0,0,0,0,-1,1602,1107,0,0
385,-83,0,0,0,0,0,0,0,0,0,-1,1609,1107,0,0
392,-83,0,0,0,0,0,0,0,0,0,-1,1616,1107,0,0
399,-83,0,0,0,0,0,0,0,0,0,-1,1623,1107,0,0
406,-83,0,0,0,0,0,0,0,0,0,-1,1630,1107,0,0
413,-83,0,0,0,0,0,0,0,0,0,-1,1637,1107,0,0
420,-83,0,0,0,0,0,0,0,0,0,-1,1644,1107,0,0
427,-83,0,0,0,0,0,0,0,0,0,-1,1651,1107,0,0
434,-83,0,0,0,0,0,0,0,0,0,-1,1658,1107,0,0
441,-83,0,0,0,0,0,0,0,0,0,-1,1665,1107,0,0
448,-83,0,0,0,0,0,0,0,0,0,-1,1672,1107,0,0
455,-83,0,0,0,0,0,0,0,0,0,-1,1679,1107,0,0
462,-83,0,0,0,0,0,0,0,0,0,-1,1686,1107,0,0
469,-83,0,0,0,0,0,0,0,0,0,-1,1693,1107,0,0
476,-83,0,0,0,0,0,0,0,0,0,-1,1700,1107,0,0
483,-83,0,0,0,0,0,0,0,0,0,-1,1707,1107,0,0
490,-83,0,0,0,0,0,0,0,0,0,-1,1714,1107,0,0
497,-83,0,0,0,0,0,0,0,0,0,-1,1721,1107,0,0
504,-83,0,0,0,0,0,0,0,0,0,-1,1728,1107,0,0
511,-83,0,0,0,0,0,0,0,0,0,-1,1735,1107,0,0
518,-83,0,0,0,0,0,0,0,0,0,-1,1742,1107,0,0
525,-83,0,0,0,0,0,0,0,0,0,-1,1749,1107,0,0
532,-83,0,0,0,0,0,0,0,0,0,-1,1756,1107,0,0
539,-83,0,0,0,0,0,0,0,0,0,-1,1763,1107,0,0
546,-83,0,0,0,0,0,0,0,0,0,-1,1770,1107,0,0
553,-83,0,0,0,0,0,0,0,0,0,-1,1777,1107,0,0
560,-83,0,0,0,0,0,0,0,0,0,-1,1784,1107,0,0
567,-83,0,0,0,0,0,0,0,0,0,-1,1791,1107,0,0
574,-83,0,0,0,0,0,0,0,0,0,-1,1798,1107,0,0
581,-83,0,0,0,0,0,0,0,0,0,-1,1805,1107,0,0
588,-83,0,0,0,0,0,0,0,0,0,-1,1812,1107,0,0
595,-83,0,0,0,0,0,0,0,0,0,-1,1819,1107,0,0
602,-83,0,0,0,0,0,0,0,0,0,-1,1826,1107,0,0
609,-83,0,0,0,0,0,0,0,0,0,-1,1833,1107,0,0
616,-83,0,0,0,0,0,0,0,0,0,-1,1840,1107,0,0
623,-83,0,0,0,0,0,0,0,0,0,-1,1847,1107,0,0
630,-83,0,0,0,0,0,0,0,0,0,-1,1854,1107,0,0
637,-83,0,0,0,0,0,0,0,0,0,-1,1861,1107,0,0
644,-83,67.0884,2.32043,-0.00180205,-0.00233547,0.00114514,-0.00089297,-0.00324455,0.670986,0.00193531,0.038154,1868,1107,67.0883,-2.32045
651,-83,66.9241,2.3999,-0.000977268,-0.00213202,0.000867025,-0.000512964,-0.00259632,0.491654,0.00158776,0.0430873,1875,1107,66.924,-2.39985
658,-83,66.7804,2.31665,-0.000467246,-0.00188084,0.000717176,-0.000167114,-0.00218097,0.396344,0.0014016,0.0426866,1882,1107,66.7804,-2.31666
665,-83,66.8973,2.11658,-5.80466e-05,-0.00156984,0.00054408,0.000117401,-0.00174529,0.311939,0.00120457,0.037619,1889,1107,66.8973,-2.11656
672,-83,66.9728,2.21326,0.000239427,-0.00115649,0.000362722,0.000328052,-0.00124512,0.239637,0.000958332,0.0353608,1896,1107,66.9728,-2.2133
679,-83,67.1404,2.15808,0.000340035,-0.0007223,0.000143685,0.000359126,-0.000741391,0.132093,0.000648035,0.0379834,1903,1107,67.1404,-2.15806
686,-83,67.1995,2.22803,0.000348901,-0.000658175,2.84898e-06,0.000348909,-0.000658183,0.00282894,0.000590513,0.0363927,1910,1107,67.1995,-2.22798
693,-83,67.1461,2.33167,0.0003266,-0.000684881,-2.34468e-05,0.000327143,-0.000685425,-0.0231641,0.00059668,0.0363565,1917,1107,67.1461,-2.33172
700,-83,67.0685,2.34509,0.000406514,-0.000666002,5.02981e-05,0.000408868,-0.000668356,0.0467605,0.000627921,0.0317914,1924,1107,67.0685,-2.3451
707,-83,67.0842,2.29712,0.000317394,-0.000502445,0.000242744,0.000383876,-0.000568927,0.267323,0.000553549,0.023091,1931,1107,67.0842,-2.29718
714,-83,67.0994,2.19324,0,0,0,0,0,0,0,-1,1938,1107,67.0993,-2.1932
721,-83,49.1162,7.36719,0,0,0,0,0,0,0,-1,1945,1107,49.1162,-7.36721
728,-83,62.9707,8.13379,0,0,0,0,0,0,0,-1,1952,1107,62.9708,-8.13382
735,-83,63.0911,7.70764,-0.001549,0.00118987,0.00145395,0.00181776,-0.00217689,1.16313,0.00230942,0.048786,1959,1107,63.091,-7.70762
742,-83,63.25,7.23865,-0.00197424,0.00191718,0.00181175,0.00263008,-0.00268715,1.19592,0.00306996,0.0292193,1966,1107,63.25,-7.23864
749,-83,63.3687,6.76697,-0.00202906,0.0027115,0.00225189,0.00361066,-0.00292822,1.1909,0.00378207,0.0189582,1973,1107,63.3687,-6.76702
756,-83,63.3859,6.28845,-0.0020589,0.00373119,0.00260121,0.00472814,-0.00305584,1.2048,0.00452852,0.0171171,1980,1107,63.3859,-6.28849
763,-83,63.3298,5.78979,-0.0020435,0.00515085,0.00252009,0.00594577,-0.00283843,1.26524,0.00517625,0.0136156,1987,1107,63.3299,-5.78976
770,-83,63.2151,5.38696,-0.00129623,0.00670804,0.00210951,0.00722997,-0.00181816,1.32825,0.00552664,0.0162602,1994,1107,63.215,-5.38696
777,-83,63.0625,4.96875,5.09021e-05,0.00800789,0.00127309,0.00820661,-0.000147825,1.41595,0.00552101,0.0185154,2001,1107,63.0624,-4.96876
784,-83,62.9307,4.49939,0.001863,0.00877835,6.71796e-05,0.008779,0.00186235,1.56108,0.00534123,0.0284278,2008,1107,62.9307,-4.49944
791,-83,62.8977,3.98584,0.00428409,0.00864682,-0.00162892,0.00918791,0.003743,-1.25009,0.00533489,0.0421269,2015,1107,62.8977,-3.98588
798,-83,62.8042,3.57178,0.00743629,0.00736731,-0.00392377,0.0113257,0.00347788,-0.781003,0.00669919,0.0460331,2022,1107,62.8042,-3.57178
805,-83,62.7754,3.1969,0.0113327,0.00470805,-0.00687898,0.0156553,0.000385455,-0.561025,0.0103108,0.0467923,2029,1107,62.7753,-3.19687
812,-83,62.7861,2.51392,0.0153913,0.000332881,-0.0105775,0.0208456,-0.00512144,-0.476093,0.0158819,0.0489376,2036,1107,62.7861,-2.51392
-700,-90,0,0,0,0,0,0,0,0,0,-1,524,1114,0,0
-693,-90,-44.5912,-0.423462,0.0973034,-0.0641812,-0.0217982,0.100194,-0.067072,-0.131843,0.0972002,0.0463287,531,1114,-44.5912,0.423514
-686,-90,-44.3615,0.495117,0.0841506,-0.0550392,-0.0173162,0.0862725,-0.0571612,-0.121931,0.083378,0.0468605,538,1114,-44.3615,-0.49507
-679,-90,-44.1875,1.43433,0,0,0,0,0,0,0,-1,545,1114,-44.1875,-1.43437
-672,-90,-48.648,0.191406,0.0574804,-0.0360599,-0.0107824,0.0587072,-0.0372867,-0.113291,0.0558801,0.046297,552,1114,-48.6481,-0.191463
-665,-90,-48.4064,0.637207,0.0452963,-0.0274266,-0.00830551,0.0462328,-0.0283631,-0.112281,0.0434779,0.0494219,559,1114,-48.4064,-0.637234
-658,-90,-48.0497,1.16943,0.0341893,-0.0196791,-0.00622194,0.0348986,-0.0203884,-0.113512,0.0322843,0.0457435,566,1114,-48.0497,-1.16942
-651,-90,-47.6238,1.76709,0.0245852,-0.0131353,-0.00456288,0.0251293,-0.0136794,-0.118685,0.0227289,0.0369952,573,1114,-47.6238,-1.7671
-644,-90,-47.7001,2.47839,0.0168146,-0.00802321,-0.00330912,0.0172479,-0.00845652,-0.130204,0.015127,0.0196361,580,1114,-47.7001,-2.47844
-637,-90,-47.765,3.11353,0.00992802,-0.00377503,-0.0021553,0.010259,-0.00410604,-0.152386,0.00854351,0.0151073,587,1114,-47.7649,-3.11349
-630,-90,-47.8123,3.65942,0.00462863,-0.00082947,-0.00153753,0.00503194,-0.00123278,-0.256534,0.00383223,0.0125097,594,1114,-47.8123,-3.65937
-623,-90,-47.8438,4.18225,0.00184685,0.000378364,-0.00144234,0.00273108,-0.000505865,-0.549961,0.00201067,0.012457,601,1114,-47.8437,-4.1823
-616,-90,-47.8967,4.7063,0.00104964,0.000224564,-0.00141362,0.00210969,-0.000835485,-0.643426,0.00175264,0.0155691,608,1114,-47.8967,-4.70626
-609,-90,-47.8735,5.21497,0.000867299,-0.000437962,-0.00122945,0.0016066,-0.00117726,-0.541394,0.00161362,0.0238549,615,1114,-47.8735,-5.21493
-602,-90,-48.0043,5.68091,0.00127786,-0.00122465,-0.0011572,0.00173094,-0.00167773,-0.373184,0.00196807,0.0242025,622,1114,-48.0043,-5.68096
-595,-90,-47.8745,6.2854,0.00149717,-0.00168609,-0.0011326,0.00185902,-0.00204794,-0.309234,0.00225656,0.0234672,629,1114,-47.8745,-6.28542
-588,-90,-47.9619,6.72241,0,0,0,0,0,0,0,-1,636,1114,-47.9619,-6.72246
-581,-90,-51.6288,0.369629,0,0,0,0,0,0,0,-1,643,1114,-51.6288,-0.369579
-574,-90,-51.613,0.279907,0.00228236,-0.00231913,-0.000996546,0.00248891,-0.00252568,-0.204373,0.0028952,0.0392102,650,1114,-51.613,-0.279938
-567,-90,-51.6387,0.220581,0.00249464,-0.00224229,-0.000935503,0.00267271,-0.00242035,-0.188087,0.00294168,0.0376651,657,1114,-51.6388,-0.220536
-560,-90,-51.8267,0.438721,0.00252469,-0.00187425,-0.00089877,0.00270124,-0.0020508,-0.193962,0.00275215,0.0421874,664,1114,-51.8267,-0.438759
-553,-90,-51.6398,0.711548,0.00209515,-0.0011564,-0.00100628,0.00238137,-0.00144263,-0.277119,0.00222985,0.0430163,671,1114,-51.6398,-0.711587
-546,-90,-51.5174,0.690063,0.00191829,-0.000162788,-0.00124238,0.00249832,-0.000742816,-0.436792,0.00196063,0.0430517,678,1114,-51.5174,-0.690068
-539,-90,-51.5079,0.574463,0.00304858,0.0008851,-0.00196081,0.00420624,-0.000272563,-0.533332,0.00289929,0.0433928,685,1114,-51.5079,-0.574497
-532,-90,-51.4081,0.401001,0.00415456,0.0019727,-0.00302255,0.00627703,-0.000149774,-0.612209,0.00423549,0.0448266,692,1114,-51.4081,-0.401004
-525,-90,0,0,0,0,0,0,0,0,0,-1,699,1114,0,0
-518,-90,0,0,0,0,0,0,0,0,0,-1,706,1114,0,0
-511,-90,0,0,0,0,0,0,0,0,0,-1,713,1114,0,0
-504,-90,0,0,0,0,0,0,0,0,0,-1,720,1114,0,0
-497,-90,0,0,0,0,0,0,0,0,0,-1,727,1114,0,0
-490,-90,0,0,0,0,0,0,0,0,0,-1,734,1114,0,0
-483,-90,0,0,0,0,0,0,0,0,0,-1,741,1114,0,0
-476,-90,0,0,0,0,0,0,0,0,0,-1,748,1114,0,0
-469,-90,0,0,0,0,0,0,0,0,0,-1,755,1114,0,0
-462,-90,0,0,0,0,0,0,0,0,0,-1,762,1114,0,0
-455,-90,0,0,0,0,0,0,0,0,0,-1,769,1114,0,0
-448,-90,0,0,0,0,0,0,0,0,0,-1,776,1114,0,0
-441,-90,0,0,0,0,0,0,0,0,0,-1,783,1114,0,0
-434,-90,0,0,0,0,0,0,0,0,0,-1,790,1114,0,0
-427,-90,0,0,0,0,0,0,0,0,0,-1,797,1114,0,0
-420,-90,0,0,0,0,0,0,0,0,0,-1,804,1114,0,0
-413,-90,0,0,0,0,0,0,0,0,0,-1,811,1114,0,0
-406,-90,0,0,0,0,0,0,0,0,0,-1,818,1114,0,0
-399,-90,0,0,0,0,0,0,0,0,0,-1,825,1114,0,0
-392,-90,0,0,0,0,0,0,0,0,0,-1,832,1114,0,0
-385,-90,0,0,0,0,0,0,0,0,0,-1,839,1114,0,0
-378,-90,0,0,0,0,0,0,0,0,0,-1,846,1114,0,0
-371,-90,0,0,0,0,0,0,0,0,0,-1,853,1114,0,0
-364,-90,0,0,0,0,0,0,0,0,0,-1,860,1114,0,0
-357,-90,0,0,0,0,0,0,0,0,0,-1,867,1114,0,0
-350,-90,0,0,0,0,0,0,0,0,0,-1,874,1114,0,0
-343,-90,0,0,0,0,0,0,0,0,0,-1,881,1114,0,0
-336,-90,0,0,0,0,0,0,0,0,0,-1,888,1114,0,0
-329,-90,0,0,0,0,0,0,0,0,0,-1,895,1114,0,0
-322,-90,0,0,0,0,0,0,0,0,0,-1,902,1114,0,0
-315,-90,0,0,0,0,0,0,0,0,0,-1,909,1114,0,0
-308,-90,0,0,0,0,0,0,0,0,0,-1,916,1114,0,0
-301,-90,0,0,0,0,0,0,0,0,0,-1,923,1114,0,0
-294,-90,0,0,0,0,0,0,0,0,0,-1,930,1114,0,0
-287,-90,0,0,0,0,0,0,0,0,0,-1,937,1114,0,0
-280,-90,0,0,0,0,0,0,0,0,0,-1,944,1114,0,0
-273,-90,0,0,0,0,0,0,0,0,0,-1,951,1114,0,0
-266,-90,0,0,0,0,0,0,0,0,0,-1,958,1114,0,0
-259,-90,0,0,0,0,0,0,0,0,0,-1,965,1114,0,0
-252,-90,0,0,0,0,0,0,0,0,0,-1,972,1114,0,0
-245,-90,0,0,0,0,0,0,0,0,0,-1,979,1114,0,0
-238,-90,0,0,0,0,0,0,0,0,0,-1,986,1114,0,0
-231,-90,0,0,0,0,0,0,0,0,0,-1,993,1114,0,0
-224,-90,0,0,0,0,0,0,0,0,0,-1,1000,1114,0,0
-217,-90,0,0,0,0,0,0,0,0,0,-1,1007,1114,0,0
-210,-90,0,0,0,0,0,0,0,0,0,-1,1014,1114,0,0
-203,-90,0,0,0,0,0,0,0,0,0,-1,1021,1114,0,0
-196,-90,0,0,0,0,0,0,0,0,0,-1,1028,1114,0,0
-189,-90,0,0,0,0,0,0,0,0,0,-1,1035,1114,0,0
-182,-90,0,0,0,0,0,0,0,0,0,-1,1042,1114,0,0
-175,-90,0,0,0,0,0,0,0,0,0,-1,1049,1114,0,0
-168,-90,0,0,0,0,0,0,0,0,0,-1,1056,1114,0,0
-161,-90,0,0,0,0,0,0,0,0,0,-1,1063,1114,0,0
-154,-90,0,0,0,0,0,0,0,0,0,-1,1070,1114,0,0
-147,-90,0,0,0,0,0,0,0,0,0,-1,1077,1114,0,0
-140,-90,0,0,0,0,0,0,0,0,0,-1,1084,1114,0,0
-133,-90,0,0,0,0,0,0,0,0,0,-1,1091,1114,0,0
-126,-90,0,0,0,0,0,0,0,0,0,-1,1098,1114,0,0
-119,-90,0,0,0,0,0,0,0,0,0,-1,1105,1114,0,0
-112,-90,0,0,0,0,0,0,0,0,0,-1,1112,1114,0,0
-105,-90,0,0,0,0,0,0,0,0,0,-1,1119,1114,0,0
-98,-90,0,0,0,0,0,0,0,0,0,-1,1126,1114,0,0
-91,-90,0,0,0,0,0,0,0,0,0,-1,1133,1114,0,0
-84,-90,0,0,0,0,0,0,0,0,0,-1,1140,1114,0,0
-77,-90,0,0,0,0,0,0,0,0,0,-1,1147,1114,0,0
-70,-90,0,0,0,0,0,0,0,0,0,-1,1154,1114,0,0
-63,-90,0,0,0,0,0,0,0,0,0,-1,1161,1114,0,0
-56,-90,0,0,0,0,0,0,0,0,0,-1,1168,1114,0,0
-49,-90,0,0,0,0,0,0,0,0,0,-1,1175,1114,0,0
-42,-90,0,0,0,0,0,0,0,0,0,-1,1182,1114,0,0
-35,-90,0,0,0,0,0,0,0,0,0,-1,1189,1114,0,0
-28,-90,0,0,0,0,0,0,0,0,0,-1,1196,1114,0,0
-21,-90,0,0,0,0,0,0,0,0,0,-1,1203,1114,0,0
-14,-90,0,0,0,0,0,0,0,0,0,-1,1210,1114,0,0
-7,-90,0,0,0,0,0,0,0,0,0,-1,1217,1114,0,0
0,-90,0,0,0,0,0,0,0,0,0,-1,1224,1114,0,0
7,-90,0,0,0,0,0,0,0,0,0,-1,1231,1114,0,0
14,-90,0,0,0,0,0,0,0,0,0,-1,1238,1114,0,0
21,-90,0,0,0,0,0,0,0,0,0,-1,1245,1114,0,0
28,-90,0,0,0,0,0,0,0,0,0,-1,1252,1114,0,0
35,-90,0,0,0,0,0,0,0,0,0,-1,1259,1114,0,0
42,-90,0,0,0,0,0,0,0,0,0,-1,1266,1114,0,0
49,-90,0,0,0,0,0,0,0,0,0,-1,1273,1114,0,0
56,-90,0,0,0,0,0,0,0,0,0,-1,1280,1114,0,0
63,-90,0,0,0,0,0,0,0,0,0,-1,1287,1114,0,0
70,-90,0,0,0,0,0,0,0,0,0,-1,1294,1114,0,0
77,-90,0,0,0,0,0,0,0,0,0,-1,1301,1114,0,0
84,-90,0,0,0,0,0,0,0,0,0,-1,1308,1114,0,0
91,-90,0,0,0,0,0,0,0,0,0,-1,1315,1114,0,0
98,-90,0,0,0,0,0,0,0,0,0,-1,1322,1114,0,0
105,-90,0,0,0,0,0,0,0,0,0,-1,1329,1114,0,0
112,-90,0,0,0,0,0,0,0,0,0,-1,1336,1114,0,0
119,-90,0,0,0,0,0,0,0,0,0,-1,1343,1114,0,0
126,-90,0,0,0,0,0,0,0,0,0,-1,1350,1114,0,0
133,-90,0,0,0,0,0,0,0,0,0,-1,1357,1114,0,0
140,-90,0,0,0,0,0,0,0,0,0,-1,1364,1114,0,0
147,-90,0,0,0,0,0,0,0,0,0,-1,1371,1114,0,0
154,-90,0,0,0,0,0,0,0,0,0,-1,1378,1114,0,0
161,-90,0,0,0,0,0,0,0,0,0,-1,1385,1114,0,0
168,-90,0,0,0,0,0,0,0,0,0,-1,1392,1114,0,0
175,-90,0,0,0,0,0,0,0,0,0,-1,1399,1114,0,0
182,-90,0,0,0,0,0,0,0,0,0,-1,1406,1114,0,0
189,-90,0,0,0,0,0,0,0,0,0,-1,1413,1114,0,0
196,-90,0,0,0,0,0,0,0,0,0,-1,1420,1114,0,0
203,-90,0,0,0,0,0,0,0,0,0,-1,1427,1114,0,0
210,-90,0,0,0,0,0,0,0,0,0,-1,1434,1114,0,0
217,-90,0,0,0,0,0,0,0,0,0,-1,1441,1114,0,0
224,-90,0,0,0,0,0,0,0,0,0,-1,1448,1114,0,0
231,-90,0,0,0,0,0,0,0,0,0,-1,1455,1114,0,0
238,-90,0,0,0,0,0,0,0,0,0,-1,1462,1114,0,0
245,-90,0,0,0,0,0,0,0,0,0,-1,1469,1114,0,0
252,-90,0,0,0,0,0,0,0,0,0,-1,1476,1114,0,0
259,-90,0,0,0,0,0,0,0,0,0,-1,1483,1114,0,0
266,-90,0,0,0,0,0,0,0,0,0,-1,1490,1114,0,0
273,-90,0,0,0,0,0,0,0,0,0,-1,1497,1114,0,0
280,-90,0,0,0,0,0,0,0,0,0,-1,1504,1114,0,0
287,-90,0,0,0,0,0,0,0,0,0,-1,1511,1114,0,0
294,-90,0,0,0,0,0,0,0,0,0,-1,1518,1114,0,0
301,-90,0,0,0,0,0,0,0,0,0,-1,1525,1114,0,0
308,-90,0,0,0,0,0,0,0,0,0,-1,1532,1114,0,0
315,-90,0,0,0,0,0,0,0,0,0,-1,1539,1114,0,0
322,-90,0,0,0,0,0,0,0,0,0,-1,1546,1114,0,0
329,-90,0,0,0,0,0,0,0,0,0,-1,1553,1114,0,0
336,-90,0,0,0,0,0,0,0,0,0,-1,1560,1114,0,0
343,-90,0,0,0,0,0,0,0,0,0,-1,1567,1114,0,0
350,-90,0,0,0,0,0,0,0,0,0,-1,1574,1114,0,0
357,-90,0,0,0,0,0,0,0,0,0,-1,1581,1114,0,0
364,-90,0,0,0,0,0,0,0,0,0,-1,1588,1114,0,0
371,-90,0,0,0,0,0,0,0,0,0,-1,1595,1114,0,0
378,-90,0,0,0,0,0,0,0,0,0,-1,1602,1114,0,0
385,-90,0,0,0,0,0,0,0,0,0,-1,1609,1114,0,0
392,-90,0,0,0,0,0,0,0,0,0,-1,1616,1114,0,0
399,-90,0,0,0,0,0,0,0,0,0,-1,1623,1114,0,0
406,-90,0,0,0,0,0,0,0,0,0,-1,1630,1114,0,0
413,-90,0,0,0,0,0,0,0,0,0,-1,1637,1114,0,0
420,-90,0,0,0,0,0,0,0,0,0,-1,1644,1114,0,0
427,-90,0,0,0,0,0,0,0,0,0,-1,1651,1114,0,0
434,-90,0,0,0,0,0,0,0,0,0,-1,1658,1114,0,0
441,-90,0,0,0,0,0,0,0,0,0,-1,1665,1114,0,0
448,-90,0,0,0,0,0,0,0,0,0,-1,1672,1114,0,0
455,-90,0,0,0,0,0,0,0,0,0,-1,1679,1114,0,0
462,-90,0,0,0,0,0,0,0,0,0,-1,1686,1114,0,0
469,-90,0,0,0,0,0,0,0,0,0,-1,1693,1114,0,0
476,-90,0,0,0,0,0,0,0,0,0,-1,1700,1114,0,0
483,-90,0,0,0,0,0,0,0,0,0,-1,1707,1114,0,0
490,-90,0,0,0,0,0,0,0,0,0,-1,1714,1114,0,0
497,-90,0,0,0,0,0,0,0,0,0,-1,1721,1114,0,0
504,-90,0,0,0,0,0,0,0,0,0,-1,1728,1114,0,0
511,-90,0,0,0,0,0,0,0,0,0,-1,1735,1114,0,0
518,-90,0,0,0,0,0,0,0,0,0,-1,1742,1114,0,0
525,-90,0,0,0,0,0,0,0,0,0,-1,1749,1114,0,0
532,-90,0,0,0,0,0,0,0,0,0,-1,1756,1114,0,0
539,-90,0,0,0,0,0,0,0,0,0,-1,1763,1114,0,0
546,-90,0,0,0,0,0,0,0,0,0,-1,1770,1114,0,0
553,-90,0,0,0,0,0,0,0,0,0,-1,1777,1114,0,0
560,-90,0,0,0,0,0,0,0,0,0,-1,1784,1114,0,0
567,-90,0,0,0,0,0,0,0,0,0,-1,1791,1114,0,0
574,-90,0,0,0,0,0,0,0,0,0,-1,1798,1114,0,0
581,-90,0,0,0,0,0,0,0,0,0,-1,1805,1114,0,0
588,-90,0,0,0,0,0,0,0,0,0,-1,1812,1114,0,0
595,-90,0,0,0,0,0,0,0,0,0,-1,1819,1114,0,0
602,-90,0,0,0,0,0,0,0,0,0,-1,1826,1114,0,0
609,-90,0,0,0,0,0,0,0,0,0,-1,1833,1114,0,0
616,-90,0,0,0,0,0,0,0,0,0,-1,1840,1114,0,0
623,-90,0,0,0,0,0,0,0,0,0,-1,1847,1114,0,0
630,-90,0,0,0,0,0,0,0,0,0,-1,1854,1114,0,0
637,-90,0,0,0,0,0,0,0,0,0,-1,1861,1114,0,0
644,-90,67.0422,2.24988,-0.00120784,-0.00253672,-0.000276385,-0.00115265,-0.00259191,-0.197097,0.00149949,0.0369598,1868,1114,67.0422,-2.2499
651,-90,66.8552,2.36536,-0.000624113,-0.00238803,-0.000180541,-0.000605824,-0.00240632,-0.100957,0.00144524,0.0395635,1875,1114,66.8552,-2.3654
658,-90,66.8167,2.33984,-0.000236178,-0.00217515,-5.66218e-05,-0.000234526,-0.0021768,-0.0291688,0.00137969,0.0393464,1882,1114,66.8167,-2.33983
665,-90,66.9862,2.15808,6.87828e-05,-0.00186578,-1.68659e-05,6.89299e-05,-0.00186593,-0.0087173,0.00126755,0.040545,1889,1114,66.9862,-2.1581
672,-90,67.0801,2.05493,0.000283413,-0.00145465,-2.28395e-05,0.000283713,-0.00145495,-0.0131378,0.00107707,0.0422909,1896,1114,67.08,-2.05497
679,-90,67.1061,2.24609,0.000322073,-0.00104874,-0.000110646,0.000330946,-0.00105762,-0.080025,0.000837482,0.0389856,1903,1114,67.1061,-2.24604
686,-90,67.153,2.30811,0.000365129,-0.00097729,-0.00020113,0.000394616,-0.00100678,-0.145569,0.000834429,0.0338509,1910,1114,67.1529,-2.30805
693,-90,67.0835,2.31018,0.000398607,-0.000969589,-0.0002255,0.000434815,-0.0010058,-0.159207,0.000853236,0.034802,1917,1114,67.0835,-2.31021
700,-90,67.0432,2.31152,0.00053336,-0.000923294,-0.00014473,0.000547601,-0.000937535,-0.0980801,0.000867239,0.03148,1924,1114,67.0432,-2.31149
707,-90,67.0676,2.16138,0.000511353,-0.000740102,6.35318e-05,0.00051457,-0.000743319,0.050593,0.000730234,0.0225264,1931,1114,67.0676,-2.16142
714,-90,67.0389,1.90454,0,0,0,0,0,0,0,-1,1938,1114,67.039,-1.9046
721,-90,62.698,8.77136,0,0,0,0,0,0,0,-1,1945,1114,62.698,-8.7714
728,-90,62.7668,8.36963,-0.000623027,0.000460373,0.00093922,0.00100291,-0.00116556,1.04697,0.00125314,0.0494244,1952,1114,62.7668,-8.36957
735,-90,62.5028,7.83167,-0.00101712,0.00100218,0.0012127,0.00157052,-0.00158546,1.13254,0.00182211,0.0395477,1959,1114,62.5028,-7.8316
742,-90,62.6592,7.23035,-0.0013966,0.00163342,0.00159336,0.00231705,-0.00208024,1.1655,0.00254,0.0345558,1966,1114,62.6591,-7.2304
749,-90,63.0104,6.59802,-0.00147638,0.0023324,0.00211808,0.00327634,-0.00242031,1.15156,0.00330132,0.0213641,1973,1114,63.0104,-6.59804
756,-90,62.9473,6.19031,-0.00152458,0.0032795,0.00260928,0.00442403,-0.00266911,1.15743,0.00413679,0.0182679,1980,1114,62.9473,-6.19034
763,-90,62.8379,5.74048,-0.00146447,0.00451183,0.00276208,0.00559285,-0.00254549,1.19774,0.00480722,0.0145166,1987,1114,62.8378,-5.74042
770,-90,62.7466,5.27771,-0.000676295,0.0057979,0.00270525,0.00677948,-0.00165787,1.22273,0.0051618,0.0176896,1994,1114,62.7465,-5.2777
777,-90,62.6245,4.87207,0.000718937,0.00675724,0.00233908,0.00755733,-8.11487e-05,1.24122,0.00506549,0.0172802,2001,1114,62.6246,-4.8721
784,-90,62.491,4.53003,0.00264819,0.0071702,0.00166581,0.00771758,0.0021008,1.25331,0.0046073,0.0304399,2008,1114,62.491,-4.52997
791,-90,61.9807,4.10571,0,0,0,0,0,0,0,-1,2015,1114,61.9806,-4.10576
798,-90,61.8279,3.71375,0.00901752,0.00478045,-0.000854689,0.00918343,0.00461454,-0.191732,0.00530208,0.0462969,2022,1114,61.8279,-3.7138
805,-90,62.197,3.52454,0.0136805,0.0015004,-0.00280912,0.0142971,0.00088375,-0.216091,0.00925092,0.0465646,2029,1114,62.1971,-3.52448
812,-90,62.6421,3.24756,0,0,0,0,0,0,0,-1,2036,1114,62.6421,-3.2476
-700,-97,0,0,0,0,0,0,0,0,0,-1,524,1121,0,0
-693,-97,-43.3488,0.280518,0,0,0,0,0,0,0,-1,531,1121,-43.3488,-0.280528
-686,-97,-43.0838,1.22168,0,0,0,0,0,0,0,-1,538,1121,-43.0838,-1.22169
-679,-97,-48.5683,0.348511,0.0754546,-0.04235,-0.0148085,0.0772876,-0.044183,-0.123151,0.0709939,0.0483632,545,1121,-48.5683,-0.348514
-672,-97,-48.2502,0.639282,0.0615092,-0.0336851,-0.0120227,0.0630041,-0.03518,-0.123708,0.0574404,0.045146,552,1121,-48.2502,-0.63927
-665,-97,-47.4842,1.02698,0,0,0,0,0,0,0,-1,559,1121,-47.4842,-1.02695
-658,-97,-47.3542,1.57422,0.036484,-0.0183668,-0.00736703,0.0374563,-0.019339,-0.131213,0.0333423,0.0430789,566,1121,-47.3543,-1.57424
-651,-97,-47.0727,1.96094,0.026153,-0.0121969,-0.00555072,0.0269403,-0.0129841,-0.140888,0.0235151,0.0385148,573,1121,-47.0727,-1.96088
-644,-97,-47.159,2.51184,0.0178125,-0.00735455,-0.00410069,0.0184638,-0.00800586,-0.157513,0.0156748,0.0155865,580,1121,-47.159,-2.51184
-637,-97,-47.2145,3.09119,0.0104536,-0.00335537,-0.00282228,0.0110081,-0.00390992,-0.194018,0.008932,0.0149204,587,1121,-47.2144,-3.09115
-630,-97,-47.2426,3.61841,0.0048672,-0.000619842,-0.00196208,0.0054966,-0.00124925,-0.310417,0.00414407,0.0106305,594,1121,-47.2426,-3.61846
-623,-97,-47.288,4.12207,0.00190262,0.000466006,-0.00166844,0.00300081,-0.000632182,-0.582127,0.00224119,0.0133069,601,1121,-47.288,-4.12207
-616,-97,-47.3721,4.72046,0.00110172,0.000112174,-0.00141486,0.00210582,-0.000891925,-0.617194,0.00177742,0.0213138,608,1121,-47.3722,-4.72051
-609,-97,-47.4771,5.30127,0.000929487,-0.000566522,-0.00110444,0.00151539,-0.00115242,-0.487745,0.00154501,0.0300093,615,1121,-47.4771,-5.30122
-602,-97,-47.5667,5.7417,0.00136236,-0.00128648,-0.00107865,0.00174603,-0.00167016,-0.341739,0.0019725,0.0306384,622,1121,-47.5667,-5.74173
-595,-97,-47.4919,6.31531,0.00145671,-0.00159573,-0.00101166,0.00176156,-0.00190058,-0.292679,0.00211485,0.0252271,629,1121,-47.4919,-6.31535
-588,-97,-47.712,6.82544,0,0,0,0,0,0,0,-1,636,1121,-47.712,-6.8254
-581,-97,-50.2736,2.87415,0,0,0,0,0,0,0,-1,643,1121,-50.2736,-2.87416
-574,-97,-51.6516,0.476196,0,0,0,0,0,0,0,-1,650,1121,-51.6515,-0.476229
-567,-97,-51.6396,0.434814,0.00246628,-0.00196361,-0.00084237,0.00262105,-0.00211839,-0.18171,0.00274144,0.0367658,657,1121,-51.6396,-0.434806
-560,-97,-51.6866,0.692139,0.00258058,-0.00162576,-0.000810721,0.00273143,-0.0017766,-0.183962,0.0026221,0.0409534,664,1121,-51.6866,-0.692092
-553,-97,-51.5507,1.16333,0,0,0,0,0,0,0,-1,671,1121,-51.5507,-1.1633
-546,-97,-51.6061,0.544678,0.00164237,0.000249173,-0.00124098,0.0023689,-0.000477349,-0.529647,0.00176009,0.0457163,678,1121,-51.6061,-0.544636
-539,-97,-51.6481,0.618774,0.00257775,0.00159372,-0.00197048,0.00411671,5.4759e-05,-0.663053,0.00272641,0.0426416,685,1121,-51.6481,-0.618769
-532,-97,-51.713,0.508789,0.00365817,0.00296694,-0.00302328,0.00635553,0.000269581,-0.728487,0.00415008,0.0402876,692,1121,-51.713,-0.508849
-525,-97,0,0,0,0,0,0,0,0,0,-1,699,1121,0,0
-518,-97,0,0,0,0,0,0,0,0,0,-1,706,1121,0,0
-511,-97,0,0,0,0,0,0,0,0,0,-1,713,1121,0,0
-504,-97,0,0,0,0,0,0,0,0,0,-1,720,1121,0,0
-497,-97,0,0,0,0,0,0,0,0,0,-1,727,1121,0,0
-490,-97,0,0,0,0,0,0,0,0,0,-1,734,1121,0,0
-483,-97,0,0,0,0,0,0,0,0,0,-1,741,1121,0,0
-476,-97,0,0,0,0,0,0,0,0,0,-1,748,1121,0,0
-469,-97,0,0,0,0,0,0,0,0,0,-1,755,1121,0,0
-462,-97,0,0,0,0,0,0,0,0,0,-1,762,1121,0,0
-455,-97,0,0,0,0,0,0,0,0,0,-1,769,1121,0,0
-448,-97,0,0,0,0,0,0,0,0,0,-1,776,1121,0,0
-441,-97,0,0,0,0,0,0,0,0,0,-1,783,1121,0,0
-434,-97,0,0,0,0,0,0,0,0,0,-1,790,1121,0,0
-427,-97,0,0,0,0,0,0,0,0,0,-1,797,1121,0,0
-420,-97,0,0,0,0,0,0,0,0,0,-1,804,1121,0,0
-413,-97,0,0,0,0,0,0,0,0,0,-1,811,1121,0,0
-406,-97,0,0,0,0,0,0,0,0,0,-1,818,1121,0,0
-399,-97,0,0,0,0,0,0,0,0,0,-1,825,1121,0,0
-392,-97,0,0,0,0,0,0,0,0,0,-1,832,1121,0,0
-385,-97,0,0,0,0,0,0,0,0,0,-1,839,1121,0,0
-378,-97,0,0,0,0,0,0,0,0,0,-1,846,1121,0,0
-371,-97,0,0,0,0,0,0,0,0,0,-1,853,1121,0,0
-364,-97,0,0,0,0,0,0,0,0,0,-1,860,1121,0,0
-357,-97,0,0,0,0,0,0,0,0,0,-1,867,1121,0,0
-350,-97,0,0,0,0,0,0,0,0,0,-1,874,1121,0,0
-343,-97,0,0,0,0,0,0,0,0,0,-1,881,1121,0,0
-336,-97,0,0,0,0,0,0,0,0,0,-1,888,1121,0,0
-329,-97,0,0,0,0,0,0,0,0,0,-1,895,1121,0,0
-322,-97,0,0,0,0,0,0,0,0,0,-1,902,1121,0,0
-315,-97,0,0,0,0,0,0,0,0,0,-1,909,1121,0,0
-308,-97,0,0,0,0,0,0,0,0,0,-1,916,1121,0,0
-301,-97,0,0,0,0,0,0,0,0,0,-1,923,1121,0,0
-294,-97,0,0,0,0,0,0,0,0,0,-1,930,1121,0,0
-287,-97,0,0,0,0,0,0,0,0,0,-1,937,1121,0,0
-280,-97,0,0,0,0,0,0,0,0,0,-1,944,1121,0,0
-273,-97,0,0,0,0,0,0,0,0,0,-1,951,1121,0,0
-266,-97,0,0,0,0,0,0,0,0,0,-1,958,1121,0,0
-259,-97,0,0,0,0,0,0,0,0,0,-1,965,1121,0,0
-252,-97,0,0,0,0,0,0,0,0,0,-1,972,1121,0,0
-245,-97,0,0,0,0,0,0,0,0,0,-1,979,1121,0,0
-238,-97,0,0,0,0,0,0,0,0,0,-1,986,1121,0,0
-231,-97,0,0,0,0,0,0,0,0,0,-1,993,1121,0,0
-224,-97,0,0,0,0,0,0,0,0,0,-1,1000,1121,0,0
-217,-97,0,0,0,0,0,0,0,0,0,-1,1007,1121,0,0
-210,-97,0,0,0,0,0,0,0,0,0,-1,1014,1121,0,0
-203,-97,0,0,0,0,0,0,0,0,0,-1,1021,1121,0,0
-196,-97,0,0,0,0,0,0,0,0,0,-1,1028,1121,0,0
-189,-97,0,0,0,0,0,0,0,0,0,-1,1035,1121,0,0
-182,-97,0,0,0,0,0,0,0,0,0,-1,1042,1121,0,0
-175,-97,0,0,0,0,0,0,0,0,0,-1,1049,1121,0,0
-168,-97,0,0,0,0,0,0,0,0,0,-1,1056,1121,0,0
-161,-97,0,0,0,0,0,0,0,0,0,-1,1063,1121,0,0
-154,-97,0,0,0,0,0,0,0,0,0,-1,1070,1121,0,0
-147,-97,0,0,0,0,0,0,0,0,0,-1,1077,1121,0,0
-140,-97,0,0,0,0,0,0,0,0,0,-1,1084,1121,0,0
-133,-97,0,0,0,0,0,0,0,0,0,-1,1091,1121,0,0
-126,-97,0,0,0,0,0,0,0,0,0,-1,1098,1121,0,0
-119,-97,0,0,0,0,0,0,0,0,0,-1,1105,1121,0,0
-112,-97,0,0,0,0,0,0,0,0,0,-1,1112,1121,0,0
-105,-97,0,0,0,0,0,0,0,0,0,-1,1119,1121,0,0
-98,-97,0,0,0,0,0,0,0,0,0,-1,1126,1121,0,0
-91,-97,0,0,0,0,0,0,0,0,0,-1,1133,1121,0,0
-84,-97,0,0,0,0,0,0,0,0,0,-1,1140,1121,0,0
-77,-97,0,0,0,0,0,0,0,0,0,-1,1147,1121,0,0
-70,-97,0,0,0,0,0,0,0,0,0,-1,1154,1121,0,0
-63,-97,0,0,0,0,0,0,0,0,0,-1,1161,1121,0,0
-56,-97,0,0,0,0,0,0,0,0,0,-1,1168,1121,0,0
-49,-97,0,0,0,0,0,0,0,0,0,-1,1175,1121,0,0
-42,-97,0,0,0,0,0,0,0,0,0,-1,1182,1121,0,0
-35,-97,0,0,0,0,0,0,0,0,0,-1,1189,1121,0,0
-28,-97,0,0,0,0,0,0,0,0,0,-1,1196,1121,0,0
-21,-97,0,0,0,0,0,0,0,0,0,-1,1203,1121,0,0
-14,-97,0,0,0,0,0,0,0,0,0,-1,1210,1121,0,0
-7,-97,0,0,0,0,0,0,0,0,0,-1,1217,1121,0,0
0,-97,0,0,0,0,0,0,0,0,0,-1,1224,1121,0,0
7,-97,0,0,0,0,0,0,0,0,0,-1,1231,1121,0,0
14,-97,0,0,0,0,0,0,0,0,0,-1,1238,1121,0,0
21,-97,0,0,0,0,0,0,0,0,0,-1,1245,1121,0,0
28,-97,0,0,0,0,0,0,0,0,0,-1,1252,1121,0,0
35,-97,0,0,0,0,0,0,0,0,0,-1,1259,1121,0,0
42,-97,0,0,0,0,0,0,0,0,0,-1,1266,1121,0,0
49,-97,0,0,0,0,0,0,0,0,0,-1,1273,1121,0,0
56,-97,0,0,0,0,0,0,0,0,0,-1,1280,1121,0,0
63,-97,0,0,0,0,0,0,0,0,0,-1,1287,1121,0,0
70,-97,0,0,0,0,0,0,0,0,0,-1,1294,1121,0,0
77,-97,0,0,0,0,0,0,0,0,0,-1,1301,1121,0,0
84,-97,0,0,0,0,0,0,0,0,0,-1,1308,1121,0,0
91,-97,0,0,0,0,0,0,0,0,0,-1,1315,1121,0,0
98,-97,0,0,0,0,0,0,0,0,0,-1,1322,1121,0,0
105,-97,0,0,0,0,0,0,0,0,0,-1,1329,1121,0,0
112,-97,0,0,0,0,0,0,0,0,0,-1,1336,1121,0,0
119,-97,0,0,0,0,0,0,0,0,0,-1,1343,1121,0,0
126,-97,0,0,0,0,0,0,0,0,0,-1,1350,1121,0,0
133,-97,0,0,0,0,0,0,0,0,0,-1,1357,1121,0,0
140,-97,0,0,0,0,0,0,0,0,0,-1,1364,1121,0,0
147,-97,0,0,0,0,0,0,0,0,0,-1,1371,1121,0,0
154,-97,0,0,0,0,0,0,0,0,0,-1,1378,1121,0,0
161,-97,0,0,0,0,0,0,0,0,0,-1,1385,1121,0,0
168,-97,0,0,0,0,0,0,0,0,0,-1,1392,1121,0,0
175,-97,0,0,0,0,0,0,0,0,0,-1,1399,1121,0,0
182,-97,0,0,0,0,0,0,0,0,0,-1,1406,1121,0,0
189,-97,0,0,0,0,0,0,0,0,0,-1,1413,1121,0,0
196,-97,0,0,0,0,0,0,0,0,0,-1,1420,1121,0,0
203,-97,0,0,0,0,0,0,0,0,0,-1,1427,1121,0,0
210,-97,0,0,0,0,0,0,0,0,0,-1,1434,1121,0,0
217,-97,0,0,0,0,0,0,0,0,0,-1,1441,1121,0,0
224,-97,0,0,0,0,0,0,0,0,0,-1,1448,1121,0,0
231,-97,0,0,0,0,0,0,0,0,0,-1,1455,1121,0,0
238,-97,0,0,0,0,0,0,0,0,0,-1,1462,1121,0,0
245,-97,0,0,0,0,0,0,0,0,0,-1,1469,1121,0,0
252,-97,0,0,0,0,0,0,0,0,0,-1,1476,1121,0,0
259,-97,0,0,0,0,0,0,0,0,0,-1,1483,1121,0,0
266,-97,0,0,0,0,0,0,0,0,0,-1,1490,1121,0,0
273,-97,0,0,0,0,0,0,0,0,0,-1,1497,1121,0,0
280,-97,0,0,0,0,0,0,0,0,0,-1,1504,1121,0,0
287,-97,0,0,0,0,0,0,0,0,0,-1,1511,1121,0,0
294,-97,0,0,0,0,0,0,0,0,0,-1,1518,1121,0,0
301,-97,0,0,0,0,0,0,0,0,0,-1,1525,1121,0,0
308,-97,0,0,0,0,0,0,0,0,0,-1,1532,1121,0,0
315,-97,0,0,0,0,0,0,0,0,0,-1,1539,1121,0,0
322,-97,0,0,0,0,0,0,0,0,0,-1,1546,1121,0,0
329,-97,0,0,0,0,0,0,0,0,0,-1,1553,1121,0,0
336,-97,0,0,0,0,0,0,0,0,0,-1,1560,1121,0,0
343,-97,0,0,0,0,0,0,0,0,0,-1,1567,1121,0,0
350,-97,0,0,0,0,0,0,0,0,0,-1,1574,1121,0,0
357,-97,0,0,0,0,0,0,0,0,0,-1,1581,1121,0,0
364,-97,0,0,0,0,0,0,0,0,0,-1,1588,1121,0,0
371,-97,0,0,0,0,0,0,0,0,0,-1,1595,1121,0,0
378,-97,0,0,0,0,0,0,0,0,0,-1,1602,1121,0,0
385,-97,0,0,0,0,0,0,0,0,0,-1,1609,1121,0,0
392,-97,0,0,0,0,0,0,0,0,0,-1,1616,1121,0,0
399,-97,0,0,0,0,0,0,0,0,0,-1,1623,1121,0,0
406,-97,0,0,0,0,0,0,0,0,0,-1,1630,1121,0,0
413,-97,0,0,0,0,0,0,0,0,0,-1,1637,1121,0,0
420,-97,0,0,0,0,0,0,0,0,0,-1,1644,1121,0,0
427,-97,0,0,0,0,0,0,0,0,0,-1,1651,1121,0,0
434,-97,0,0,0,0,0,0,0,0,0,-1,1658,1121,0,0
441,-97,0,0,0,0,0,0,0,0,0,-1,1665,1121,0,0
448,-97,0,0,0,0,0,0,0,0,0,-1,1672,1121,0,0
455,-97,0,0,0,0,0,0,0,0,0,-1,1679,1121,0,0
462,-97,0,0,0,0,0,0,0,0,0,-1,1686,1121,0,0
469,-97,0,0,0,0,0,0,0,0,0,-1,1693,1121,0,0
476,-97,0,0,0,0,0,0,0,0,0,-1,1700,1121,0,0
483,-97,0,0,0,0,0,0,0,0,0,-1,1707,1121,0,0
490,-97,0,0,0,0,0,0,0,0,0,-1,1714,1121,0,0
497,-97,0,0,0,0,0,0,0,0,0,-1,1721,1121,0,0
504,-97,0,0,0,0,0,0,0,0,0,-1,1728,1121,0,0
511,-97,0,0,0,0,0,0,0,0,0,-1,1735,1121,0,0
518,-97,0,0,0,0,0,0,0,0,0,-1,1742,1121,0,0
525,-97,0,0,0,0,0,0,0,0,0,-1,1749,1121,0,0
532,-97,0,0,0,0,0,0,0,0,0,-1,1756,1121,0,0
539,-97,0,0,0,0,0,0,0,0,0,-1,1763,1121,0,0
546,-97,0,0,0,0,0,0,0,0,0,-1,1770,1121,0,0
553,-97,0,0,0,0,0,0,0,0,0,-1,1777,1121,0,0
560,-97,0,0,0,0,0,0,0,0,0,-1,1784,1121,0,0
567,-97,0,0,0,0,0,0,0,0,0,-1,1791,1121,0,0
574,-97,0,0,0,0,0,0,0,0,0,-1,1798,1121,0,0
581,-97,0,0,0,0,0,0,0,0,0,-1,1805,1121,0,0
588,-97,0,0,0,0,0,0,0,0,0,-1,1812,1121,0,0
595,-97,0,0,0,0,0,0,0,0,0,-1,1819,1121,0,0
602,-97,0,0,0,0,0,0,0,0,0,-1,1826,1121,0,0
609,-97,0,0,0,0,0,0,0,0,0,-1,1833,1121,0,0
616,-97,0,0,0,0,0,0,0,0,0,-1,1840,1121,0,0
623,-97,0,0,0,0,0,0,0,0,0,-1,1847,1121,0,0
630,-97,0,0,0,0,0,0,0,0,0,-1,1854,1121,0,0
637,-97,0,0,0,0,0,0,0,0,0,-1,1861,1121,0,0
644,-97,67.1066,2.26855,-0.000466092,-0.00230182,-0.0011465,8.46963e-05,-0.00285261,-0.447851,0.00193059,0.037626,1868,1121,67.1065,-2.2686
651,-97,67.0345,2.37354,-0.000264705,-0.00230644,-0.000810277,1.77774e-05,-0.00258892,-0.335449,0.0017319,0.0371335,1875,1121,67.0346,-2.37356
658,-97,67.0093,2.31799,-7.08514e-05,-0.00219547,-0.000527961,5.31123e-05,-0.00231944,-0.23062,0.0015643,0.0367048,1882,1121,67.0092,-2.31801
665,-97,67.1593,2.19934,0.000102326,-0.00194197,-0.000358484,0.000163367,-0.00200301,-0.168656,0.00139299,0.037555,1889,1121,67.1594,-2.19932
672,-97,67.1768,2.19104,0.000237487,-0.00157615,-0.000255424,0.000272773,-0.00161144,-0.137278,0.00117581,0.0414045,1896,1121,67.1767,-2.19098
679,-97,67.099,2.37598,0.000245297,-0.00123733,-0.000263664,0.00029079,-0.00128282,-0.170859,0.000966832,0.0405286,1903,1121,67.099,-2.37594
686,-97,67.13,2.34534,0.000370984,-0.00114609,-0.000327068,0.000438493,-0.0012136,-0.203548,0.000988207,0.0350947,1910,1121,67.13,-2.34539
693,-97,67.1001,2.24304,0.000469994,-0.00110765,-0.000350977,0.000544552,-0.00118221,-0.209318,0.00101935,0.0331586,1917,1121,67.1001,-2.24303
700,-97,67.0299,2.27759,0.000642662,-0.00104593,-0.000263325,0.000682773,-0.00108604,-0.151163,0.00103003,0.0263933,1924,1121,67.0299,-2.27762
707,-97,67.059,2.19556,0.00068304,-0.000854976,-5.14398e-05,0.000684758,-0.000856694,-0.0333958,0.000891801,0.0235208,1931,1121,67.0589,-2.19552
714,-97,67.0343,2.01501,0,0,0,0,0,0,0,-1,1938,1121,67.0343,-2.01505
721,-97,62.4078,8.6322,0,0,0,0,0,0,0,-1,1945,1121,62.4079,-8.63221
728,-97,62.3263,8.34448,-0.000204736,0.000389584,0.000768296,0.000916186,-0.000731337,0.969926,0.000953191,0.032829,1952,1121,62.3263,-8.34444
735,-97,62.292,7.72546,-0.000464694,0.000880837,0.00105344,0.00145801,-0.00104187,1.06957,0.00144995,0.0300639,1959,1121,62.292,-7.72546
742,-97,62.2744,7.21143,-0.000824284,0.00142123,0.00145202,0.00213394,-0.001537,1.1145,0.00212874,0.0252479,1966,1121,62.2744,-7.21143
749,-97,62.3649,6.67554,-0.000911385,0.00204165,0.00205431,0.00309501,-0.00196475,1.09699,0.00294545,0.0239304,1973,1121,62.3648,-6.67556
756,-97,62.3969,6.16663,-0.000898872,0.00298421,0.00269316,0.00436271,-0.00227738,1.09771,0.00389617,0.0178026,1980,1121,62.3968,-6.1666
763,-97,62.2903,5.74316,-0.000646192,0.00412581,0.00311067,0.00566017,-0.00218055,1.11256,0.00467307,0.0147268,1987,1121,62.2904,-5.74322
770,-97,62.2124,5.30859,0.000457956,0.00534459,0.00345888,0.00713608,-0.00133354,1.0929,0.00525857,0.0132426,1994,1121,62.2123,-5.30861
777,-97,62.1465,4.83411,0.00232329,0.00632284,0.00362357,0.00846183,0.000184303,1.03754,0.0055808,0.0177684,2001,1121,62.1465,-4.83416
784,-97,62.1211,4.36108,0.00496248,0.00691522,0.00357613,0.00964587,0.00223183,0.918662,0.0058308,0.0381022,2008,1121,62.1211,-4.36114
791,-97,62.3511,3.69263,0,0,0,0,0,0,0,-1,2015,1121,62.351,-3.6926
798,-97,61.0742,3.85962,0,0,0,0,0,0,0,-1,2022,1121,61.0742,-3.85965
805,-97,61.5288,3.6748,0,0,0,0,0,0,0,-1,2029,1121,61.5288,-3.67476
812,-97,64.835,2.54016,0,0,0,0,0,0,0,-1,2036,1121,64.8348,-2.5402
-700,-104,0,0,0,0,0,0,0,0,0,-1,524,1128,0,0
-693,-104,-50.4027,-0.817139,0,0,0,0,0,0,0,-1,531,1128,-50.4027,0.817135
-686,-104,-49.1846,0.196045,0,0,0,0,0,0,0,-1,538,1128,-49.1846,-0.196033
-679,-104,-48.2844,0.8302,0.0816621,-0.038261,-0.0168746,0.0839913,-0.0405902,-0.137164,0.0733677,0.0467368,545,1128,-48.2844,-0.830186
-672,-104,-47.7837,1.19751,0.0664988,-0.0305021,-0.0141876,0.0685313,-0.0325346,-0.142292,0.0595713,0.0465571,552,1128,-47.7836,-1.19756
-665,-104,-46.7761,1.26917,0,0,0,0,0,0,0,-1,559,1128,-46.7761,-1.26912
-658,-104,-46.705,1.68359,0.0393993,-0.0166694,-0.00925274,0.0408868,-0.0181568,-0.159396,0.0349207,0.0477179,566,1128,-46.705,-1.68361
-651,-104,-46.5115,2.01501,0.0281366,-0.0110059,-0.00717285,0.0294096,-0.012279,-0.175648,0.024737,0.0481065,573,1128,-46.5115,-2.01498
-644,-104,-46.5593,2.50134,0.019009,-0.00651787,-0.00542281,0.0201132,-0.0076221,-0.200881,0.0165455,0.0184535,580,1128,-46.5593,-2.50129
-637,-104,-46.6206,3.07202,0.0110289,-0.00283636,-0.00391212,0.0120566,-0.00386401,-0.25688,0.00958884,0.012856,587,1128,-46.6206,-3.07206
-630,-104,-46.6502,3.56323,0.00503257,-0.000340273,-0.0027184,0.006168,-0.0014757,-0.395657,0.00468208,0.0178014,594,1128,-46.6502,-3.5632
-623,-104,-46.738,4.12976,0.00180176,0.000651372,-0.00211104,0.00341457,-0.000961431,-0.652392,0.00265552,0.0196949,601,1128,-46.738,-4.12982
-616,-104,-47.0582,4.77881,0.000971241,0.000185714,-0.00160281,0.00222871,-0.00107175,-0.665242,0.00194415,0.0281483,608,1128,-47.0582,-4.77878
-609,-104,-47.2352,5.23926,0.000791735,-0.000484538,-0.00114909,0.00146799,-0.00116079,-0.531931,0.00152118,0.037233,615,1128,-47.2351,-5.23927
-602,-104,-47.0386,5.82495,0.00125535,-0.0011025,-0.00120207,0.00176012,-0.00160728,-0.397559,0.00194484,0.0334712,622,1128,-47.0386,-5.82499
-595,-104,-46.8339,6.44678,0.00122886,-0.0012511,-0.00110679,0.00165097,-0.00167321,-0.364353,0.00191923,0.0249371,629,1128,-46.8339,-6.44683
-588,-104,-46.9008,7.1499,0,0,0,0,0,0,0,-1,636,1128,-46.9007,-7.14988
-581,-104,-23.9373,2.85864,0,0,0,0,0,0,0,-1,643,1128,-23.9373,-2.85861
-574,-104,-51.6064,0.525757,0,0,0,0,0,0,0,-1,650,1128,-51.6064,-0.525807
-567,-104,-51.5616,0.618286,0.0022522,-0.00131221,-0.000984519,0.00250605,-0.00156606,-0.252349,0.00237182,0.0355524,657,1128,-51.5616,-0.618283
-560,-104,-51.5776,0.73877,0.00251174,-0.0010033,-0.000936043,0.00274546,-0.00123702,-0.244691,0.00235362,0.0418256,664,1128,-51.5776,-0.738817
-553,-104,-51.6583,0.389404,0.00192003,-0.000266817,-0.00113989,0.00240614,-0.000752927,-0.403101,0.00190532,0.0465635,671,1128,-51.6582,-0.389409
-546,-104,-51.6348,0.167603,0.0014167,0.000829662,-0.00140531,0.00255881,-0.000312451,-0.682446,0.00181899,0.0467077,678,1128,-51.6348,-0.16758
-539,-104,-51.7357,0.510742,0.00223925,0.00213248,-0.0021115,0.00429804,7.36876e-05,-0.77276,0.00284112,0.039844,685,1128,-51.7357,-0.510704
-532,-104,-51.8835,0.375366,0.00340153,0.0034665,-0.00311185,0.00654603,0.000321996,-0.790617,0.00426075,0.0393652,692,1128,-51.8836,-0.375405
-525,-104,-51.9332,0.39502,0.00459689,0.00475053,-0.00438894,0.00906331,0.000284097,-0.794149,0.00594977,0.0384108,699,1128,-51.9332,-0.395057
-518,-104,0,0,0,0,0,0,0,0,0,-1,706,1128,0,0
-511,-104,0,0,0,0,0,0,0,0,0,-1,713,1128,0,0
-504,-104,0,0,0,0,0,0,0,0,0,-1,720,1128,0,0
-497,-104,0,0,0,0,0,0,0,0,0,-1,727,1128,0,0
-490,-104,0,0,0,0,0,0,0,0,0,-1,734,1128,0,0
-483,-104,0,0,0,0,0,0,0,0,0,-1,741,1128,0,0
-476,-104,0,0,0,0,0,0,0,0,0,-1,748,1128,0,0
-469,-104,0,0,0,0,0,0,0,0,0,-1,755,1128,0,0
-462,-104,0,0,0,0,0,0,0,0,0,-1,762,1128,0,0
-455,-104,0,0,0,0,0,0,0,0,0,-1,769,1128,0,0
-448,-104,0,0,0,0,0,0,0,0,0,-1,776,1128,0,0
-441,-104,0,0,0,0,0,0,0,0,0,-1,783,1128,0,0
-434,-104,0,0,0,0,0,0,0,0,0,-1,790,1128,0,0
-427,-104,0,0,0,0,0,0,0,0,0,-1,797,1128,0,0
-420,-104,0,0,0,0,0,0,0,0,0,-1,804,1128,0,0
-413,-104,0,0,0,0,0,0,0,0,0,-1,811,1128,0,0
-406,-104,0,0,0,0,0,0,0,0,0,-1,818,1128,0,0
-399,-104,0,0,0,0,0,0,0,0,0,-1,825,1128,0,0
-392,-104,0,0,0,0,0,0,0,0,0,-1,832,1128,0,0
-385,-104,0,0,0,0,0,0,0,0,0,-1,839,1128,0,0
-378,-104,0,0,0,0,0,0,0,0,0,-1,846,1128,0,0
-371,-104,0,0,0,0,0,0,0,0,0,-1,853,1128,0,0
-364,-104,0,0,0,0,0,0,0,0,0,-1,860,1128,0,0
-357,-104,0,0,0,0,0,0,0,0,0,-1,867,1128,0,0
-350,-104,0,0,0,0,0,0,0,0,0,-1,874,1128,0,0
-343,-104,0,0,0,0,0,0,0,0,0,-1,881,1128,0,0
-336,-104,0,0,0,0,0,0,0,0,0,-1,888,1128,0,0
-329,-104,0,0,0,0,0,0,0,0,0,-1,895,1128,0,0
-322,-104,0,0,0,0,0,0,0,0,0,-1,902,1128,0,0
-315,-104,0,0,0,0,0,0,0,0,0,-1,909,1128,0,0
-308,-104,0,0,0,0,0,0,0,0,0,-1,916,1128,0,0
-301,-104,0,0,0,0,0,0,0,0,0,-1,923,1128,0,0
-294,-104,0,0,0,0,0,0,0,0,0,-1,930,1128,0,0
-287,-104,0,0,0,0,0,0,0,0,0,-1,937,1128,0,0
-280,-104,0,0,0,0,0,0,0,0,0,-1,944,1128,0,0
-273,-104,0,0,0,0,0,0,0,0,0,-1,951,1128,0,0
-266,-104,0,0,0,0,0,0,0,0,0,-1,958,1128,0,0
-259,-104,0,0,0,0,0,0,0,0,0,-1,965,1128,0,0
-252,-104,0,0,0,0,0,0,0,0,0,-1,972,1128,0,0
-245,-104,0,0,0,0,0,0,0,0,0,-1,979,1128,0,0
-238,-104,0,0,0,0,0,0,0,0,0,-1,986,1128,0,0
-231,-104,0,0,0,0,0,0,0,0,0,-1,993,1128,0,0
-224,-104,0,0,0,0,0,0,0,0,0,-1,1000,1128,0,0
-217,-104,0,0,0,0,0,0,0,0,0,-1,1007,1128,0,0
-210,-104,0,0,0,0,0,0,0,0,0,-1,1014,1128,0,0
-203,-104,0,0,0,0,0,0,0,0,0,-1,1021,1128,0,0
-196,-104,0,0,0,0,0,0,0,0,0,-1,1028,1128,0,0
-189,-104,0,0,0,0,0,0,0,0,0,-1,1035,1128,0,0
-182,-104,0,0,0,0,0,0,0,0,0,-1,1042,1128,0,0
-175,-104,0,0,0,0,0,0,0,0,0,-1,1049,1128,0,0
-168,-104,0,0,0,0,0,0,0,0,0,-1,1056,1128,0,0
-161,-104,0,0,0,0,0,0,0,0,0,-1,1063,1128,0,0
-154,-104,0,0,0,0,0,0,0,0,0,-1,1070,1128,0,0
-147,-104,0,0,0,0,0,0,0,0,0,-1,1077,1128,0,0
-140,-104,0,0,0,0,0,0,0,0,0,-1,1084,1128,0,0
-133,-104,0,0,0,0,0,0,0,0,0,-1,1091,1128,0,0
-126,-104,0,0,0,0,0,0,0,0,0,-1,1098,1128,0,0
-119,-104,0,0,0,0,0,0,0,0,0,-1,1105,1128,0,0
-112,-104,0,0,0,0,0,0,0,0,0,-1,1112,1128,0,0
-105,-104,0,0,0,0,0,0,0,0,0,-1,1119,1128,0,0
-98,-104,0,0,0,0,0,0,0,0,0,-1,1126,1128,0,0
-91,-104,0,0,0,0,0,0,0,0,0,-1,1133,1128,0,0
-84,-104,0,0,0,0,0,0,0,0,0,-1,1140,1128,0,0
-77,-104,0,0,0,0,0,0,0,0,0,-1,1147,1128,0,0
-70,-104,0,0,0,0,0,0,0,0,0,-1,1154,1128,0,0
-63,-104,0,0,0,0,0,0,0,0,0,-1,1161,1128,0,0
-56,-104,0,0,0,0,0,0,0,0,0,-1,1168,1128,0,0
-49,-104,0,0,0,0,0,0,0,0,0,-1,1175,1128,0,0
-42,-104,0,0,0,0,0,0,0,0,0,-1,1182,1128,0,0
-35,-104,0,0,0,0,0,0,0,0,0,-1,1189,1128,0,0
-28,-104,0,0,0,0,0,0,0,0,0,-1,1196,1128,0,0
-21,-104,0,0,0,0,0,0,0,0,0,-1,1203,1128,0,0
-14,-104,0,0,0,0,0,0,0,0,0,-1,1210,1128,0,0
-7,-104,0,0,0,0,0,0,0,0,0,-1,1217,1128,0,0
0,-104,0,0,0,0,0,0,0,0,0,-1,1224,1128,0,0
7,-104,0,0,0,0,0,0,0,0,0,-1,1231,1128,0,0
14,-104,0,0,0,0,0,0,0,0,0,-1,1238,1128,0,0
21,-104,0,0,0,0,0,0,0,0,0,-1,1245,1128,0,0
28,-104,0,0,0,0,0,0,0,0,0,-1,1252,1128,0,0
35,-104,0,0,0,0,0,0,0,0,0,-1,1259,1128,0,0
42,-104,0,0,0,0,0,0,0,0,0,-1,1266,1128,0,0
49,-104,0,0,0,0,0,0,0,0,0,-1,1273,1128,0,0
56,-104,0,0,0,0,0,0,0,0,0,-1,1280,1128,0,0
63,-104,0,0,0,0,0,0,0,0,0,-1,1287,1128,0,0
70,-104,0,0,0,0,0,0,0,0,0,-1,1294,1128,0,0
77,-104,0,0,0,0,0,0,0,0,0,-1,1301,1128,0,0
84,-104,0,0,0,0,0,0,0,0,0,-1,1308,1128,0,0
91,-104,0,0,0,0,0,0,0,0,0,-1,1315,1128,0,0
98,-104,0,0,0,0,0,0,0,0,0,-1,1322,1128,0,0
105,-104,0,0,0,0,0,0,0,0,0,-1,1329,1128,0,0
112,-104,0,0,0,0,0,0,0,0,0,-1,1336,1128,0,0
119,-104,0,0,0,0,0,0,0,0,0,-1,1343,1128,0,0
126,-104,0,0,0,0,0,0,0,0,0,-1,1350,1128,0,0
133,-104,0,0,0,0,0,0,0,0,0,-1,1357,1128,0,0
140,-104,0,0,0,0,0,0,0,0,0,-1,1364,1128,0,0
147,-104,0,0,0,0,0,0,0,0,0,-1,1371,1128,0,0
154,-104,0,0,0,0,0,0,0,0,0,-1,1378,1128,0,0
161,-104,0,0,0,0,0,0,0,0,0,-1,1385,1128,0,0
168,-104,0,0,0,0,0,0,0,0,0,-1,1392,1128,0,0
175,-104,0,0,0,0,0,0,0,0,0,-1,1399,1128,0,0
182,-104,0,0,0,0,0,0,0,0,0,-1,1406,1128,0,0
189,-104,0,0,0,0,0,0,0,0,0,-1,1413,1128,0,0
196,-104,0,0,0,0,0,0,0,0,0,-1,1420,1128,0,0
203,-104,0,0,0,0,0,0,0,0,0,-1,1427,1128,0,0
210,-104,0,0,0,0,0,0,0,0,0,-1,1434,1128,0,0
217,-104,0,0,0,0,0,0,0,0,0,-1,1441,1128,0,0
224,-104,0,0,0,0,0,0,0,0,0,-1,1448,1128,0,0
231,-104,0,0,0,0,0,0,0,0,0,-1,1455,1128,0,0
238,-104,0,0,0,0,0,0,0,0,0,-1,1462,1128,0,0
245,-104,0,0,0,0,0,0,0,0,0,-1,1469,1128,0,0
252,-104,0,0,0,0,0,0,0,0,0,-1,1476,1128,0,0
259,-104,0,0,0,0,0,0,0,0,0,-1,1483,1128,0,0
266,-104,0,0,0,0,0,0,0,0,0,-1,1490,1128,0,0
273,-104,0,0,0,0,0,0,0,0,0,-1,1497,1128,0,0
280,-104,0,0,0,0,0,0,0,0,0,-1,1504,1128,0,0
287,-104,0,0,0,0,0,0,0,0,0,-1,1511,1128,0,0
294,-104,0,0,0,0,0,0,0,0,0,-1,1518,1128,0,0
301,-104,0,0,0,0,0,0,0,0,0,-1,1525,1128,0,0
308,-104,0,0,0,0,0,0,0,0,0,-1,1532,1128,0,0
315,-104,0,0,0,0,0,0,0,0,0,-1,1539,1128,0,0
322,-104,0,0,0,0,0,0,0,0,0,-1,1546,1128,0,0
329,-104,0,0,0,0,0,0,0,0,0,-1,1553,1128,0,0
336,-104,0,0,0,0,0,0,0,0,0,-1,1560,1128,0,0
343,-104,0,0,0,0,0,0,0,0,0,-1,1567,1128,0,0
350,-104,0,0,0,0,0,0,0,0,0,-1,1574,1128,0,0
357,-104,0,0,0,0,0,0,0,0,0,-1,1581,1128,0,0
364,-104,0,0,0,0,0,0,0,0,0,-1,1588,1128,0,0
371,-104,0,0,0,0,0,0,0,0,0,-1,1595,1128,0,0
378,-104,0,0,0,0,0,0,0,0,0,-1,1602,1128,0,0
385,-104,0,0,0,0,0,0,0,0,0,-1,1609,1128,0,0
392,-104,0,0,0,0,0,0,0,0,0,-1,1616,1128,0,0
399,-104,0,0,0,0,0,0,0,0,0,-1,1623,1128,0,0
406,-104,0,0,0,0,0,0,0,0,0,-1,1630,1128,0,0
413,-104,0,0,0,0,0,0,0,0,0,-1,1637,1128,0,0
420,-104,0,0,0,0,0,0,0,0,0,-1,1644,1128,0,0
427,-104,0,0,0,0,0,0,0,0,0,-1,1651,1128,0,0
434,-104,0,0,0,0,0,0,0,0,0,-1,1658,1128,0,0
441,-104,0,0,0,0,0,0,0,0,0,-1,1665,1128,0,0
448,-104,0,0,0,0,0,0,0,0,0,-1,1672,1128,0,0
455,-104,0,0,0,0,0,0,0,0,0,-1,1679,1128,0,0
462,-104,0,0,0,0,0,0,0,0,0,-1,1686,1128,0,0
469,-104,0,0,0,0,0,0,0,0,0,-1,1693,1128,0,0
476,-104,0,0,0,0,0,0,0,0,0,-1,1700,1128,0,0
483,-104,0,0,0,0,0,0,0,0,0,-1,1707,1128,0,0
490,-104,0,0,0,0,0,0,0,0,0,-1,1714,1128,0,0
497,-104,0,0,0,0,0,0,0,0,0,-1,1721,1128,0,0
504,-104,0,0,0,0,0,0,0,0,0,-1,1728,1128,0,0
511,-104,0,0,0,0,0,0,0,0,0,-1,1735,1128,0,0
518,-104,0,0,0,0,0,0,0,0,0,-1,1742,1128,0,0
525,-104,0,0,0,0,0,0,0,0,0,-1,1749,1128,0,0
532,-104,0,0,0,0,0,0,0,0,0,-1,1756,1128,0,0
539,-104,0,0,0,0,0,0,0,0,0,-1,1763,1128,0,0
546,-104,0,0,0,0,0,0,0,0,0,-1,1770,1128,0,0
553,-104,0,0,0,0,0,0,0,0,0,-1,1777,1128,0,0
560,-104,0,0,0,0,0,0,0,0,0,-1,1784,1128,0,0
567,-104,0,0,0,0,0,0,0,0,0,-1,1791,1128,0,0
574,-104,0,0,0,0,0,0,0,0,0,-1,1798,1128,0,0
581,-104,0,0,0,0,0,0,0,0,0,-1,1805,1128,0,0
588,-104,0,0,0,0,0,0,0,0,0,-1,1812,1128,0,0
595,-104,0,0,0,0,0,0,0,0,0,-1,1819,1128,0,0
602,-104,0,0,0,0,0,0,0,0,0,-1,1826,1128,0,0
609,-104,0,0,0,0,0,0,0,0,0,-1,1833,1128,0,0
616,-104,0,0,0,0,0,0,0,0,0,-1,1840,1128,0,0
623,-104,0,0,0,0,0,0,0,0,0,-1,1847,1128,0,0
630,-104,0,0,0,0,0,0,0,0,0,-1,1854,1128,0,0
637,-104,0,0,0,0,0,0,0,0,0,-1,1861,1128,0,0
644,-104,67.0465,2.40833,3.93291e-05,-0.00159957,-0.00154303,0.000967,-0.00252724,-0.541303,0.00208336,0.037616,1868,1128,67.0465,-2.40834
651,-104,67.1711,2.41211,-2.85538e-05,-0.00174546,-0.00116832,0.000562795,-0.00233681,-0.468556,0.00177546,0.0366936,1875,1128,67.1711,-2.41213
658,-104,67.1593,2.3656,2.58566e-05,-0.00177522,-0.000864926,0.000373944,-0.00212331,-0.382615,0.00155524,0.0381127,1882,1128,67.1593,-2.36556
665,-104,67.2222,2.39539,9.76705e-05,-0.00165416,-0.00066547,0.000321791,-0.00187828,-0.324854,0.00137209,0.0391938,1889,1128,67.2222,-2.39543
672,-104,67.2616,2.36182,0.00017433,-0.00142544,-0.000533031,0.000335662,-0.00158677,-0.293903,0.00118568,0.039598,1896,1128,67.2616,-2.36181
679,-104,67.1448,2.33545,0.000175116,-0.00124357,-0.000506215,0.000337221,-0.00140567,-0.309911,0.00106743,0.0387131,1903,1128,67.1448,-2.33544
686,-104,67.0717,2.35779,0.000387462,-0.00121078,-0.000547947,0.000557279,-0.0013806,-0.300527,0.001152,0.0375219,1910,1128,67.0717,-2.3578
693,-104,67.1173,2.29749,0.000540679,-0.00118814,-0.000543038,0.0006971,-0.00134456,-0.280455,0.00119835,0.0355998,1917,1128,67.1173,-2.29747
700,-104,67.0892,2.31384,0.000732599,-0.0011304,-0.000417261,0.000821785,-0.00121958,-0.210572,0.00118602,0.0253412,1924,1128,67.0892,-2.31386
707,-104,67.0706,2.35376,0,0,0,0,0,0,0,-1,1931,1128,67.0706,-2.35378
714,-104,45.5221,2.32166,0,0,0,0,0,0,0,-1,1938,1128,45.5221,-2.3216
721,-104,61.7916,8.84229,0,0,0,0,0,0,0,-1,1945,1128,61.7916,-8.84227
728,-104,61.8879,8.26563,0,0,0,0,0,0,0,-1,1952,1128,61.888,-8.26558
735,-104,62.0667,7.54114,0,0,0,0,0,0,0,-1,1959,1128,62.0666,-7.54115
742,-104,61.8253,7.23511,-0.0001715,0.00120973,0.00143881,0.00211508,-0.00107686,1.00915,0.00187508,0.0241831,1966,1128,61.8253,-7.23508
749,-104,61.7253,6.73083,-0.000194532,0.00180234,0.00212809,0.00315457,-0.00154676,1.00474,0.00276672,0.0228778,1973,1128,61.7254,-6.73079
756,-104,61.7665,6.20056,5.8613e-05,0.0027653,0.00292885,0.00463836,-0.00181445,1.00182,0.00384261,0.0188534,1980,1128,61.7665,-6.20057
763,-104,61.7253,5.73877,0.000843629,0.00379565,0.00366562,0.00627126,-0.00163199,0.976798,0.00481787,0.0187287,1987,1128,61.7254,-5.73874
770,-104,61.6614,5.30054,0.00271495,0.00490253,0.00442666,0.00836853,-0.000751052,0.906518,0.00584548,0.0168748,1994,1128,61.6614,-5.30057
777,-104,61.5229,4.7749,0.00556468,0.0058188,0.00508186,0.0107752,0.000608295,0.797897,0.00698952,0.0259919,2001,1128,61.5229,-4.77486
784,-104,61.5571,4.27942,0.00950005,0.00643874,0.0055861,0.0137614,0.00217738,0.651675,0.0085415,0.0449414,2008,1128,61.5571,-4.27942
791,-104,61.6929,3.76563,0,0,0,0,0,0,0,-1,2015,1128,61.6929,-3.76561
798,-104,57.0208,3.8877,0,0,0,0,0,0,0,-1,2022,1128,57.0208,-3.88774
805,-104,65.0034,2.72607,0,0,0,0,0,0,0,-1,2029,1128,65.0034,-2.72603
812,-104,65.0938,2.49353,0,0,0,0,0,0,0,-1,2036,1128,65.0938,-2.49353
-700,-111,0,0,0,0,0,0,0,0,0,-1,524,1135,0,0
-693,-111,-49.4323,-0.35498,0,0,0,0,0,0,0,-1,531,1135,-49.4323,0.354979
-686,-111,-48.9962,0.435181,0,0,0,0,0,0,0,-1,538,1135,-48.9962,-0.435188
-679,-111,-47.7439,1.24841,0,0,0,0,0,0,0,-1,545,1135,-47.7439,-1.24839
-672,-111,-47.3572,1.70496,0,0,0,0,0,0,0,-1,552,1135,-47.3572,-1.7049
-665,-111,-51.1678,-0.956421,0,0,0,0,0,0,0,-1,559,1135,-51.1678,0.956441
-658,-111,-46.3531,1.67175,0,0,0,0,0,0,0,-1,566,1135,-46.3531,-1.67171
-651,-111,-45.7727,1.86682,0,0,0,0,0,0,0,-1,573,1135,-45.7727,-1.86682
-644,-111,-45.8968,2.49097,0.0213108,-0.00501501,-0.00789873,0.0234988,-0.00720307,-0.270238,0.0185394,0.0297931,580,1135,-45.8968,-2.49097
-637,-111,-46.0243,3.08521,0.0123439,-0.00182005,-0.00582069,0.014429,-0.00390512,-0.343976,0.0111514,0.0125557,587,1135,-46.0243,-3.08517
-630,-111,-46.0569,3.54529,0.00558098,0.000303494,-0.00397305,0.00771173,-0.00182726,-0.492266,0.00584622,0.0258078,594,1135,-46.0569,-3.54532
-623,-111,-46.0994,4.16187,0.00180789,0.00108282,-0.00277073,0.00423969,-0.00134899,-0.720345,0.00336743,0.0217364,601,1135,-46.0994,-4.16192
-616,-111,-46.439,4.73108,0.00078537,0.000474685,-0.00187841,0.00251485,-0.00125479,-0.744143,0.00221656,0.0254495,608,1135,-46.4389,-4.73109
-609,-111,-46.7076,5.24048,0.000528182,-0.000245938,-0.00125013,0.0014498,-0.00116755,-0.63527,0.00151406,0.0352807,615,1135,-46.7076,-5.24043
-602,-111,-46.5908,5.85242,0.000998186,-0.000798181,-0.00138991,0.00175487,-0.00155486,-0.498542,0.00191204,0.0439982,622,1135,-46.5908,-5.85238
-595,-111,-46.2586,6.49573,0.000830596,-0.000892364,-0.00129131,0.00152142,-0.00158319,-0.491235,0.00179256,0.0217505,629,1135,-46.2586,-6.49575
-588,-111,-45.9064,7.26245,0,0,0,0,0,0,0,-1,636,1135,-45.9064,-7.26247
-581,-111,-21.0555,3.14551,0,0,0,0,0,0,0,-1,643,1135,-21.0555,-3.14548
-574,-111,-51.6414,0.525513,0,0,0,0,0,0,0,-1,650,1135,-51.6414,-0.525569
-567,-111,-51.5301,0.667114,0.00203109,-0.00103248,-0.00112187,0.00239798,-0.00139937,-0.31607,0.00221753,0.0384066,657,1135,-51.5301,-0.667167
-560,-111,-51.3779,0.659546,0.00251447,-0.000875172,-0.00103079,0.00280332,-0.00116402,-0.273214,0.00235482,0.040528,664,1135,-51.3779,-0.659561
-553,-111,-51.5475,0.605835,0.00196189,-0.000288913,-0.00123882,0.00251016,-0.00083719,-0.416667,0.00201144,0.0455604,671,1135,-51.5475,-0.605843
-546,-111,-51.5043,0.0805664,0.00138924,0.000585237,-0.00145418,0.00249596,-0.000521481,-0.650543,0.0018623,0.0415688,678,1135,-51.5043,-0.0805147
-539,-111,-51.7827,0.433472,0.00209257,0.00149467,-0.0020873,0.00390222,-0.000314981,-0.71427,0.00271258,0.0388988,685,1135,-51.7827,-0.433425
-532,-111,-51.8474,0.380249,0.00332412,0.00236774,-0.00296593,0.00585016,-0.000158301,-0.705473,0.00395393,0.0421932,692,1135,-51.8474,-0.380197
-525,-111,-51.5866,0.368408,0.00462061,0.00311737,-0.00406573,0.00800361,-0.000265629,-0.693997,0.00542645,0.0401994,699,1135,-51.5866,-0.368366
-518,-111,0,0,0,0,0,0,0,0,0,-1,706,1135,0,0
-511,-111,0,0,0,0,0,0,0,0,0,-1,713,1135,0,0
-504,-111,0,0,0,0,0,0,0,0,0,-1,720,1135,0,0
-497,-111,0,0,0,0,0,0,0,0,0,-1,727,1135,0,0
-490,-111,0,0,0,0,0,0,0,0,0,-1,734,1135,0,0
-483,-111,0,0,0,0,0,0,0,0,0,-1,741,1135,0,0
-476,-111,0,0,0,0,0,0,0,0,0,-1,748,1135,0,0
-469,-111,0,0,0,0,0,0,0,0,0,-1,755,1135,0,0
-462,-111,0,0,0,0,0,0,0,0,0,-1,762,1135,0,0
-455,-111,0,0,0,0,0,0,0,0,0,-1,769,1135,0,0
-448,-111,0,0,0,0,0,0,0,0,0,-1,776,1135,0,0
-441,-111,0,0,0,0,0,0,0,0,0,-1,783,1135,0,0
-434,-111,0,0,0,0,0,0,0,0,0,-1,790,1135,0,0
-427,-111,0,0,0,0,0,0,0,0,0,-1,797,1135,0,0
-420,-111,0,0,0,0,0,0,0,0,0,-1,804,1135,0,0
-413,-111,0,0,0,0,0,0,0,0,0,-1,811,1135,0,0
-406,-111,0,0,0,0,0,0,0,0,0,-1,818,1135,0,0
-399,-111,0,0,0,0,0,0,0,0,0,-1,825,1135,0,0
-392,-111,0,0,0,0,0,0,0,0,0,-1,832,1135,0,0
-385,-111,0,0,0,0,0,0,0,0,0,-1,839,1135,0,0
-378,-111,0,0,0,0,0,0,0,0,0,-1,846,1135,0,0
-371,-111,0,0,0,0,0,0,0,0,0,-1,853,1135,0,0
-364,-111,0,0,0,0,0,0,0,0,0,-1,860,1135,0,0
-357,-111,0,0,0,0,0,0,0,0,0,-1,867,1135,0,0
-350,-111,0,0,0,0,0,0,0,0,0,-1,874,1135,0,0
-343,-111,0,0,0,0,0,0,0,0,0,-1,881,1135,0,0
-336,-111,0,0,0,0,0,0,0,0,0,-1,888,1135,0,0
-329,-111,0,0,0,0,0,0,0,0,0,-1,895,1135,0,0
-322,-111,0,0,0,0,0,0,0,0,0,-1,902,1135,0,0
-315,-111,0,0,0,0,0,0,0,0,0,-1,909,1135,0,0
-308,-111,0,0,0,0,0,0,0,0,0,-1,916,1135,0,0
-301,-111,0,0,0,0,0,0,0,0,0,-1,923,1135,0,0
-294,-111,0,0,0,0,0,0,0,0,0,-1,930,1135,0,0
-287,-111,0,0,0,0,0,0,0,0,0,-1,937,1135,0,0
-280,-111,0,0,0,0,0,0,0,0,0,-1,944,1135,0,0
-273,-111,0,0,0,0,0,0,0,0,0,-1,951,1135,0,0
-266,-111,0,0,0,0,0,0,0,0,0,-1,958,1135,0,0
-259,-111,0,0,0,0,0,0,0,0,0,-1,965,1135,0,0
-252,-111,0,0,0,0,0,0,0,0,0,-1,972,1135,0,0
-245,-111,0,0,0,0,0,0,0,0,0,-1,979,1135,0,0
-238,-111,0,0,0,0,0,0,0,0,0,-1,986,1135,0,0
-231,-111,0,0,0,0,0,0,0,0,0,-1,993,1135,0,0
-224,-111,0,0,0,0,0,0,0,0,0,-1,1000,1135,0,0
-217,-111,0,0,0,0,0,0,0,0,0,-1,1007,1135,0,0
-210,-111,0,0,0,0,0,0,0,0,0,-1,1014,1135,0,0
-203,-111,0,0,0,0,0,0,0,0,0,-1,1021,1135,0,0
-196,-111,0,0,0,0,0,0,0,0,0,-1,1028,1135,0,0
-189,-111,0,0,0,0,0,0,0,0,0,-1,1035,1135,0,0
-182,-111,0,0,0,0,0,0,0,0,0,-1,1042,1135,0,0
-175,-111,0,0,0,0,0,0,0,0,0,-1,1049,1135,0,0
-168,-111,0,0,0,0,0,0,0,0,0,-1,1056,1135,0,0
-161,-111,0,0,0,0,0,0,0,0,0,-1,1063,1135,0,0
-154,-111,0,0,0,0,0,0,0,0,0,-1,1070,1135,0,0
-147,-111,0,0,0,0,0,0,0,0,0,-1,1077,1135,0,0
-140,-111,0,0,0,0,0,0,0,0,0,-1,1084,1135,0,0
-133,-111,0,0,0,0,0,0,0,0,0,-1,1091,1135,0,0
-126,-111,0,0,0,0,0,0,0,0,0,-1,1098,1135,0,0
-119,-111,0,0,0,0,0,0,0,0,0,-1,1105,1135,0,0
-112,-111,0,0,0,0,0,0,0,0,0,-1,1112,1135,0,0
-105,-111,0,0,0,0,0,0,0,0,0,-1,1119,1135,0,0
-98,-111,0,0,0,0,0,0,0,0,0,-1,1126,1135,0,0
-91,-111,0,0,0,0,0,0,0,0,0,-1,1133,1135,0,0
-84,-111,0,0,0,0,0,0,0,0,0,-1,1140,1135,0,0
-77,-111,0,0,0,0,0,0,0,0,0,-1,1147,1135,0,0
-70,-111,0,0,0,0,0,0,0,0,0,-1,1154,1135,0,0
-63,-111,0,0,0,0,0,0,0,0,0,-1,1161,1135,0,0
-56,-111,0,0,0,0,0,0,0,0,0,-1,1168,1135,0,0
-49,-111,0,0,0,0,0,0,0,0,0,-1,1175,1135,0,0
-42,-111,0,0,0,0,0,0,0,0,0,-1,1182,1135,0,0
-35,-111,0,0,0,0,0,0,0,0,0,-1,1189,1135,0,0
-28,-111,0,0,0,0,0,0,0,0,0,-1,1196,1135,0,0
-21,-111,0,0,0,0,0,0,0,0,0,-1,1203,1135,0,0
-14,-111,0,0,0,0,0,0,0,0,0,-1,1210,1135,0,0
-7,-111,0,0,0,0,0,0,0,0,0,-1,1217,1135,0,0
0,-111,0,0,0,0,0,0,0,0,0,-1,1224,1135,0,0
7,-111,0,0,0,0,0,0,0,0,0,-1,1231,1135,0,0
14,-111,0,0,0,0,0,0,0,0,0,-1,1238,1135,0,0
21,-111,0,0,0,0,0,0,0,0,0,-1,1245,1135,0,0
28,-111,0,0,0,0,0,0,0,0,0,-1,1252,1135,0,0
35,-111,0,0,0,0,0,0,0,0,0,-1,1259,1135,0,0
42,-111,0,0,0,0,0,0,0,0,0,-1,1266,1135,0,0
49,-111,0,0,0,0,0,0,0,0,0,-1,1273,1135,0,0
56,-111,0,0,0,0,0,0,0,0,0,-1,1280,1135,0,0
63,-111,0,0,0,0,0,0,0,0,0,-1,1287,1135,0,0
70,-111,0,0,0,0,0,0,0,0,0,-1,1294,1135,0,0
77,-111,0,0,0,0,0,0,0,0,0,-1,1301,1135,0,0
84,-111,0,0,0,0,0,0,0,0,0,-1,1308,1135,0,0
91,-111,0,0,0,0,0,0,0,0,0,-1,1315,1135,0,0
98,-111,0,0,0,0,0,0,0,0,0,-1,1322,1135,0,0
105,-111,0,0,0,0,0,0,0,0,0,-1,1329,1135,0,0
112,-111,0,0,0,0,0,0,0,0,0,-1,1336,1135,0,0
119,-111,0,0,0,0,0,0,0,0,0,-1,1343,1135,0,0
126,-111,0,0,0,0,0,0,0,0,0,-1,1350,1135,0,0
133,-111,0,0,0,0,0,0,0,0,0,-1,1357,1135,0,0
140,-111,0,0,0,0,0,0,0,0,0,-1,1364,1135,0,0
147,-111,0,0,0,0,0,0,0,0,0,-1,1371,1135,0,0
154,-111,0,0,0,0,0,0,0,0,0,-1,1378,1135,0,0
161,-111,0,0,0,0,0,0,0,0,0,-1,1385,1135,0,0
168,-111,0,0,0,0,0,0,0,0,0,-1,1392,1135,0,0
175,-111,0,0,0,0,0,0,0,0,0,-1,1399,1135,0,0
182,-111,0,0,0,0,0,0,0,0,0,-1,1406,1135,0,0
189,-111,0,0,0,0,0,0,0,0,0,-1,1413,1135,0,0
196,-111,0,0,0,0,0,0,0,0,0,-1,1420,1135,0,0
203,-111,0,0,0,0,0,0,0,0,0,-1,1427,1135,0,0
210,-111,0,0,0,0,0,0,0,0,0,-1,1434,1135,0,0
217,-111,0,0,0,0,0,0,0,0,0,-1,1441,1135,0,0
224,-111,0,0,0,0,0,0,0,0,0,-1,1448,1135,0,0
231,-111,0,0,0,0,0,0,0,0,0,-1,1455,1135,0,0
238,-111,0,0,0,0,0,0,0,0,0,-1,1462,1135,0,0
245,-111,0,0,0,0,0,0,0,0,0,-1,1469,1135,0,0
252,-111,0,0,0,0,0,0,0,0,0,-1,1476,1135,0,0
259,-111,0,0,0,0,0,0,0,0,0,-1,1483,1135,0,0
266,-111,0,0,0,0,0,0,0,0,0,-1,1490,1135,0,0
273,-111,0,0,0,0,0,0,0,0,0,-1,1497,1135,0,0
280,-111,0,0,0,0,0,0,0,0,0,-1,1504,1135,0,0
287,-111,0,0,0,0,0,0,0,0,0,-1,1511,1135,0,0
294,-111,0,0,0,0,0,0,0,0,0,-1,1518,1135,0,0
301,-111,0,0,0,0,0,0,0,0,0,-1,1525,1135,0,0
308,-111,0,0,0,0,0,0,0,0,0,-1,1532,1135,0,0
315,-111,0,0,0,0,0,0,0,0,0,-1,1539,1135,0,0
322,-111,0,0,0,0,0,0,0,0,0,-1,1546,1135,0,0
329,-111,0,0,0,0,0,0,0,0,0,-1,1553,1135,0,0
336,-111,0,0,0,0,0,0,0,0,0,-1,1560,1135,0,0
343,-111,0,0,0,0,0,0,0,0,0,-1,1567,1135,0,0
350,-111,0,0,0,0,0,0,0,0,0,-1,1574,1135,0,0
357,-111,0,0,0,0,0,0,0,0,0,-1,1581,1135,0,0
364,-111,0,0,0,0,0,0,0,0,0,-1,1588,1135,0,0
371,-111,0,0,0,0,0,0,0,0,0,-1,1595,1135,0,0
378,-111,0,0,0,0,0,0,0,0,0,-1,1602,1135,0,0
385,-111,0,0,0,0,0,0,0,0,0,-1,1609,1135,0,0
392,-111,0,0,0,0,0,0,0,0,0,-1,1616,1135,0,0
399,-111,0,0,0,0,0,0,0,0,0,-1,1623,1135,0,0
406,-111,0,0,0,0,0,0,0,0,0,-1,1630,1135,0,0
413,-111,0,0,0,0,0,0,0,0,0,-1,1637,1135,0,0
420,-111,0,0,0,0,0,0,0,0,0,-1,1644,1135,0,0
427,-111,0,0,0,0,0,0,0,0,0,-1,1651,1135,0,0
434,-111,0,0,0,0,0,0,0,0,0,-1,1658,1135,0,0
441,-111,0,0,0,0,0,0,0,0,0,-1,1665,1135,0,0
448,-111,0,0,0,0,0,0,0,0,0,-1,1672,1135,0,0
455,-111,0,0,0,0,0,0,0,0,0,-1,1679,1135,0,0
462,-111,0,0,0,0,0,0,0,0,0,-1,1686,1135,0,0
469,-111,0,0,0,0,0,0,0,0,0,-1,1693,1135,0,0
476,-111,0,0,0,0,0,0,0,0,0,-1,1700,1135,0,0
483,-111,0,0,0,0,0,0,0,0,0,-1,1707,1135,0,0
490,-111,0,0,0,0,0,0,0,0,0,-1,1714,1135,0,0
497,-111,0,0,0,0,0,0,0,0,0,-1,1721,1135,0,0
504,-111,0,0,0,0,0,0,0,0,0,-1,1728,1135,0,0
511,-111,0,0,0,0,0,0,0,0,0,-1,1735,1135,0,0
518,-111,0,0,0,0,0,0,0,0,0,-1,1742,1135,0,0
525,-111,0,0,0,0,0,0,0,0,0,-1,1749,1135,0,0
532,-111,0,0,0,0,0,0,0,0,0,-1,1756,1135,0,0
539,-111,0,0,0,0,0,0,0,0,0,-1,1763,1135,0,0
546,-111,0,0,0,0,0,0,0,0,0,-1,1770,1135,0,0
553,-111,0,0,0,0,0,0,0,0,0,-1,1777,1135,0,0
560,-111,0,0,0,0,0,0,0,0,0,-1,1784,1135,0,0
567,-111,0,0,0,0,0,0,0,0,0,-1,1791,1135,0,0
574,-111,0,0,0,0,0,0,0,0,0,-1,1798,1135,0,0
581,-111,0,0,0,0,0,0,0,0,0,-1,1805,1135,0,0
588,-111,0,0,0,0,0,0,0,0,0,-1,1812,1135,0,0
595,-111,0,0,0,0,0,0,0,0,0,-1,1819,1135,0,0
602,-111,0,0,0,0,0,0,0,0,0,-1,1826,1135,0,0
609,-111,0,0,0,0,0,0,0,0,0,-1,1833,1135,0,0
616,-111,0,0,0,0,0,0,0,0,0,-1,1840,1135,0,0
623,-111,0,0,0,0,0,0,0,0,0,-1,1847,1135,0,0
630,-111,0,0,0,0,0,0,0,0,0,-1,1854,1135,0,0
637,-111,0,0,0,0,0,0,0,0,0,-1,1861,1135,0,0
644,-111,66.9879,2.56042,0.0006033,-0.000500801,-0.0019223,0.00205125,-0.00194875,-0.64557,0.00230965,0.0380604,1868,1135,66.9879,-2.56042
651,-111,67.1875,2.42651,0.000299666,-0.000893493,-0.00142098,0.00124422,-0.00183805,-0.586654,0.00179052,0.0374963,1875,1135,67.1875,-2.42657
658,-111,67.2687,2.40967,0.000207858,-0.00113068,-0.0010416,0.000776676,-0.00169949,-0.499843,0.00146234,0.0392852,1882,1135,67.2687,-2.40965
665,-111,67.3101,2.39893,0.000160343,-0.00119641,-0.000783984,0.000518705,-0.00155477,-0.428745,0.00124594,0.0416587,1889,1135,67.3101,-2.39898
672,-111,67.1802,2.35364,0.000154175,-0.00114357,-0.00061847,0.000401706,-0.00139111,-0.380706,0.00108635,0.0431139,1896,1135,67.1802,-2.35362
679,-111,67.0682,2.39404,0.000133555,-0.00113294,-0.000572236,0.000353804,-0.00135319,-0.367415,0.00104031,0.0416194,1903,1135,67.0683,-2.39399
686,-111,67.0107,2.46863,0.000404678,-0.0011681,-0.000620557,0.000620037,-0.00138346,-0.334036,0.00118438,0.0394425,1910,1135,67.0107,-2.46865
693,-111,67.0137,2.41309,0.000581722,-0.00118156,-0.000612205,0.000773434,-0.00137327,-0.303477,0.00125542,0.0382061,1917,1135,67.0136,-2.41313
700,-111,67.0933,2.33936,0.000775993,-0.00114556,-0.000456819,0.000879065,-0.00124863,-0.221916,0.00123459,0.026535,1924,1135,67.0933,-2.33937
707,-111,67.0922,2.25378,0,0,0,0,0,0,0,-1,1931,1135,67.0921,-2.25381
714,-111,45.1654,7.39746,0,0,0,0,0,0,0,-1,1938,1135,45.1654,-7.39745
721,-111,61.2397,8.9928,0,0,0,0,0,0,0,-1,1945,1135,61.2397,-8.99283
728,-111,61.3174,8.30444,0.000402769,9.9464e-05,0.000613315,0.000882902,-0.000380669,0.664196,0.000748486,0.0277932,1952,1135,61.3174,-8.30444
735,-111,61.3844,7.78223,0.000514744,0.000483546,0.000935186,0.00143446,-0.000436171,0.777059,0.00113011,0.0296106,1959,1135,61.3844,-7.78226
742,-111,61.296,7.30383,0.000381159,0.000967869,0.0014151,0.00211971,-0.000770678,0.887602,0.00172829,0.0195152,1966,1135,61.296,-7.30387
749,-111,61.2056,6.76526,0.000353751,0.00159994,0.00215516,0.00322027,-0.00126658,0.92612,0.00267109,0.0199857,1973,1135,61.2056,-6.76521
756,-111,61.1765,6.22339,0.000765195,0.00268729,0.00309834,0.00497021,-0.00151772,0.935784,0.00391861,0.018355,1980,1135,61.1765,-6.22341
763,-111,61.1748,5.73779,0.00198733,0.00379602,0.00413265,0.00712212,-0.00133877,0.893115,0.00525153,0.0166577,1987,1135,61.1748,-5.73785
770,-111,61.1328,5.23535,0.00441837,0.00501064,0.00525834,0.00998117,-0.00055216,0.813527,0.0068456,0.0144069,1994,1135,61.1328,-5.23536
777,-111,60.9363,4.7561,0.00795458,0.0060856,0.00636565,0.013454,0.00058622,0.712518,0.00878043,0.0292949,2001,1135,60.9363,-4.75605
784,-111,61.0186,4.47192,0.0128272,0.00693268,0.00743725,0.0178799,0.00188002,0.596748,0.0113453,0.0428754,2008,1135,61.0186,-4.47197
791,-111,61.2112,4.23938,0,0,0,0,0,0,0,-1,2015,1135,61.2111,-4.23936
798,-111,57.5242,3.44348,0,0,0,0,0,0,0,-1,2022,1135,57.5242,-3.44352
805,-111,56.2043,2.60376,0,0,0,0,0,0,0,-1,2029,1135,56.2043,-2.60376
812,-111,65.3762,2.4425,0,0,0,0,0,0,0,-1,2036,1135,65.3763,-2.44254
-700,-118,0,0,0,0,0,0,0,0,0,-1,524,1142,0,0
-693,-118,-48.409,-0.00244141,0.144114,-0.0370589,-0.0374401,0.151546,-0.0444911,-0.195963,0.118675,0.0457734,531,1142,-48.409,0.00242247
-686,-118,-47.7029,0.588623,0.125193,-0.0307209,-0.0361732,0.133177,-0.0387045,-0.217223,0.104112,0.0473893,538,1142,-47.7029,-0.588605
-679,-118,-46.7129,1.44592,0.105105,-0.0245536,-0.0327818,0.112922,-0.0323706,-0.234083,0.0880774,0.0453412,545,1142,-46.7129,-1.44592
-672,-118,-45.5232,2.27783,0,0,0,0,0,0,0,-1,552,1142,-45.5232,-2.27784
-665,-118,-49.768,-0.611816,0,0,0,0,0,0,0,-1,559,1142,-49.768,0.611801
-658,-118,-44.7487,0.726318,0,0,0,0,0,0,0,-1,566,1142,-44.7487,-0.726346
-651,-118,-45.3555,1.77625,0,0,0,0,0,0,0,-1,573,1142,-45.3555,-1.77628
-644,-118,-45.2106,2.46008,0.024906,-0.00250122,-0.0115687,0.0291363,-0.00673146,-0.35056,0.0220138,0.0348257,580,1142,-45.2106,-2.46003
-637,-118,-45.4185,3.11414,0.0144844,-0.00014138,-0.00842107,0.0183247,-0.00398164,-0.427857,0.0137374,0.0179584,587,1142,-45.4185,-3.11415
-630,-118,-45.4606,3.63391,0.00635691,0.00120921,-0.00542973,0.00979194,-0.00222582,-0.56407,0.00738261,0.0256271,594,1142,-45.4606,-3.63391
-623,-118,-45.4543,4.19922,0.00166943,0.00145482,-0.00340146,0.00496527,-0.00184103,-0.76963,0.00406528,0.0209947,601,1142,-45.4543,-4.19925
-616,-118,-45.6241,4.76306,0.000444292,0.000616634,-0.00222147,0.00275361,-0.00169268,-0.804783,0.00259131,0.0315046,608,1142,-45.6242,-4.76305
-609,-118,-46.1323,5.26538,0,0,0,0,0,0,0,-1,615,1142,-46.1322,-5.26538
-602,-118,-45.757,6.01721,0.000718273,-0.000631842,-0.00171281,0.00188425,-0.00179782,-0.597683,0.00212604,0.0483995,622,1142,-45.757,-6.01723
-595,-118,-45.7648,6.41553,0.00042057,-0.000664125,-0.00154444,0.00151512,-0.00175867,-0.616544,0.00189187,0.0350621,629,1142,-45.7648,-6.41549
-588,-118,-45.1376,7.33704,0,0,0,0,0,0,0,-1,636,1142,-45.1376,-7.337
-581,-118,-24.6116,3.89648,0,0,0,0,0,0,0,-1,643,1142,-24.6116,-3.89645
-574,-118,-51.6309,0.513062,0,0,0,0,0,0,0,-1,650,1142,-51.6309,-0.513102
-567,-118,-51.539,0.569092,0.00167793,-0.00096246,-0.0011315,0.00209647,-0.001381,-0.354291,0.00202183,0.0429831,657,1142,-51.539,-0.569118
-560,-118,-51.4432,0.38208,0.00238068,-0.000977961,-0.000963048,0.00263722,-0.00123451,-0.260344,0.00228372,0.036963,664,1142,-51.4432,-0.382105
-553,-118,-51.3889,0.500977,0.00183637,-0.000530329,-0.00111552,0.00227928,-0.000973234,-0.37795,0.00192764,0.0389693,671,1142,-51.3889,-0.500941
-546,-118,-51.2917,0.434814,0.00104018,0.000171797,-0.00120966,0.00189122,-0.000679237,-0.613091,0.00153806,0.0383279,678,1142,-51.2918,-0.434819
-539,-118,-51.4916,0.590942,0.00139201,0.000729618,-0.00168925,0.00278222,-0.000660591,-0.688595,0.00210977,0.0398497,685,1142,-51.4916,-0.590936
-532,-118,-51.7684,0.733765,0.0024264,0.00114207,-0.00235692,0.00422707,-0.000658605,-0.652397,0.00306129,0.0446275,692,1142,-51.7684,-0.733809
-525,-118,-51.6112,0.608643,0.00356191,0.00133104,-0.00318968,0.00582557,-0.000932613,-0.617194,0.004229,0.0455012,699,1142,-51.6112,-0.608589
-518,-118,0,0,0,0,0,0,0,0,0,-1,706,1142,0,0
-511,-118,0,0,0,0,0,0,0,0,0,-1,713,1142,0,0
-504,-118,0,0,0,0,0,0,0,0,0,-1,720,1142,0,0
-497,-118,0,0,0,0,0,0,0,0,0,-1,727,1142,0,0
-490,-118,0,0,0,0,0,0,0,0,0,-1,734,1142,0,0
-483,-118,0,0,0,0,0,0,0,0,0,-1,741,1142,0,0
-476,-118,0,0,0,0,0,0,0,0,0,-1,748,1142,0,0
-469,-118,0,0,0,0,0,0,0,0,0,-1,755,1142,0,0
-462,-118,0,0,0,0,0,0,0,0,0,-1,762,1142,0,0
-455,-118,0,0,0,0,0,0,0,0,0,-1,769,1142,0,0
-448,-118,0,0,0,0,0,0,0,0,0,-1,776,1142,0,0
-441,-118,0,0,0,0,0,0,0,0,0,-1,783,1142,0,0
-434,-118,0,0,0,0,0,0,0,0,0,-1,790,1142,0,0
-427,-118,0,0,0,0,0,0,0,0,0,-1,797,1142,0,0
-420,-118,0,0,0,0,0,0,0,0,0,-1,804,1142,0,0
-413,-118,0,0,0,0,0,0,0,0,0,-1,811,1142,0,0
-406,-118,0,0,0,0,0,0,0,0,0,-1,818,1142,0,0
-399,-118,0,0,0,0,0,0,0,0,0,-1,825,1142,0,0
-392,-118,0,0,0,0,0,0,0,0,0,-1,832,1142,0,0
-385,-118,0,0,0,0,0,0,0,0,0,-1,839,1142,0,0
-378,-118,0,0,0,0,0,0,0,0,0,-1,846,1142,0,0
-371,-118,0,0,0,0,0,0,0,0,0,-1,853,1142,0,0
-364,-118,0,0,0,0,0,0,0,0,0,-1,860,1142,0,0
-357,-118,0,0,0,0,0,0,0,0,0,-1,867,1142,0,0
-350,-118,0,0,0,0,0,0,0,0,0,-1,874,1142,0,0
-343,-118,0,0,0,0,0,0,0,0,0,-1,881,1142,0,0
-336,-118,0,0,0,0,0,0,0,0,0,-1,888,1142,0,0
-329,-118,0,0,0,0,0,0,0,0,0,-1,895,1142,0,0
-322,-118,0,0,0,0,0,0,0,0,0,-1,902,1142,0,0
-315,-118,0,0,0,0,0,0,0,0,0,-1,909,1142,0,0
-308,-118,0,0,0,0,0,0,0,0,0,-1,916,1142,0,0
-301,-118,0,0,0,0,0,0,0,0,0,-1,923,1142,0,0
-294,-118,0,0,0,0,0,0,0,0,0,-1,930,1142,0,0
-287,-118,0,0,0,0,0,0,0,0,0,-1,937,1142,0,0
-280,-118,0,0,0,0,0,0,0,0,0,-1,944,1142,0,0
-273,-118,0,0,0,0,0,0,0,0,0,-1,951,1142,0,0
-266,-118,0,0,0,0,0,0,0,0,0,-1,958,1142,0,0
-259,-118,0,0,0,0,0,0,0,0,0,-1,965,1142,0,0
-252,-118,0,0,0,0,0,0,0,0,0,-1,972,1142,0,0
-245,-118,0,0,0,0,0,0,0,0,0,-1,979,1142,0,0
-238,-118,0,0,0,0,0,0,0,0,0,-1,986,1142,0,0
-231,-118,0,0,0,0,0,0,0,0,0,-1,993,1142,0,0
-224,-118,0,0,0,0,0,0,0,0,0,-1,1000,1142,0,0
-217,-118,0,0,0,0,0,0,0,0,0,-1,1007,1142,0,0
-210,-118,0,0,0,0,0,0,0,0,0,-1,1014,1142,0,0
-203,-118,0,0,0,0,0,0,0,0,0,-1,1021,1142,0,0
-196,-118,0,0,0,0,0,0,0,0,0,-1,1028,1142,0,0
-189,-118,0,0,0,0,0,0,0,0,0,-1,1035,1142,0,0
-182,-118,0,0,0,0,0,0,0,0,0,-1,1042,1142,0,0
-175,-118,0,0,0,0,0,0,0,0,0,-1,1049,1142,0,0
-168,-118,0,0,0,0,0,0,0,0,0,-1,1056,1142,0,0
-161,-118,0,0,0,0,0,0,0,0,0,-1,1063,1142,0,0
-154,-118,0,0,0,0,0,0,0,0,0,-1,1070,1142,0,0
-147,-118,0,0,0,0,0,0,0,0,0,-1,1077,1142,0,0
-140,-118,0,0,0,0,0,0,0,0,0,-1,1084,1142,0,0
-133,-118,0,0,0,0,0,0,0,0,0,-1,1091,1142,0,0
-126,-118,0,0,0,0,0,0,0,0,0,-1,1098,1142,0,0
-119,-118,0,0,0,0,0,0,0,0,0,-1,1105,1142,0,0
-112,-118,0,0,0,0,0,0,0,0,0,-1,1112,1142,0,0
-105,-118,0,0,0,0,0,0,0,0,0,-1,1119,1142,0,0
-98,-118,0,0,0,0,0,0,0,0,0,-1,1126,1142,0,0
-91,-118,0,0,0,0,0,0,0,0,0,-1,1133,1142,0,0
-84,-118,0,0,0,0,0,0,0,0,0,-1,1140,1142,0,0
-77,-118,0,0,0,0,0,0,0,0,0,-1,1147,1142,0,0
-70,-118,0,0,0,0,0,0,0,0,0,-1,1154,1142,0,0
-63,-118,0,0,0,0,0,0,0,0,0,-1,1161,1142,0,0
-56,-118,0,0,0,0,0,0,0,0,0,-1,1168,1142,0,0
-49,-118,0,0,0,0,0,0,0,0,0,-1,1175,1142,0,0
-42,-118,0,0,0,0,0,0,0,0,0,-1,1182,1142,0,0
-35,-118,0,0,0,0,0,0,0,0,0,-1,1189,1142,0,0
-28,-118,0,0,0,0,0,0,0,0,0,-1,1196,1142,0,0
-21,-118,0,0,0,0,0,0,0,0,0,-1,1203,1142,0,0
-14,-118,0,0,0,0,0,0,0,0,0,-1,1210,1142,0,0
-7,-118,0,0,0,0,0,0,0,0,0,-1,1217,1142,0,0
0,-118,0,0,0,0,0,0,0,0,0,-1,1224,1142,0,0
7,-118,0,0,0,0,0,0,0,0,0,-1,1231,1142,0,0
14,-118,0,0,0,0,0,0,0,0,0,-1,1238,1142,0,0
21,-118,0,0,0,0,0,0,0,0,0,-1,1245,1142,0,0
28,-118,0,0,0,0,0,0,0,0,0,-1,1252,1142,0,0
35,-118,0,0,0,0,0,0,0,0,0,-1,1259,1142,0,0
42,-118,0,0,0,0,0,0,0,0,0,-1,1266,1142,0,0
49,-118,0,0,0,0,0,0,0,0,0,-1,1273,1142,0,0
56,-118,0,0,0,0,0,0,0,0,0,-1,1280,1142,0,0
63,-118,0,0,0,0,0,0,0,0,0,-1,1287,1142,0,0
70,-118,0,0,0,0,0,0,0,0,0,-1,1294,1142,0,0
77,-118,0,0,0,0,0,0,0,0,0,-1,1301,1142,0,0
84,-118,0,0,0,0,0,0,0,0,0,-1,1308,1142,0,0
91,-118,0,0,0,0,0,0,0,0,0,-1,1315,1142,0,0
98,-118,0,0,0,0,0,0,0,0,0,-1,1322,1142,0,0
105,-118,0,0,0,0,0,0,0,0,0,-1,1329,1142,0,0
112,-118,0,0,0,0,0,0,0,0,0,-1,1336,1142,0,0
119,-118,0,0,0,0,0,0,0,0,0,-1,1343,1142,0,0
126,-118,0,0,0,0,0,0,0,0,0,-1,1350,1142,0,0
133,-118,0,0,0,0,0,0,0,0,0,-1,1357,1142,0,0
140,-118,0,0,0,0,0,0,0,0,0,-1,1364,1142,0,0
147,-118,0,0,0,0,0,0,0,0,0,-1,1371,1142,0,0
154,-118,0,0,0,0,0,0,0,0,0,-1,1378,1142,0,0
161,-118,0,0,0,0,0,0,0,0,0,-1,1385,1142,0,0
168,-118,0,0,0,0,0,0,0,0,0,-1,1392,1142,0,0
175,-118,0,0,0,0,0,0,0,0,0,-1,1399,1142,0,0
182,-118,0,0,0,0,0,0,0,0,0,-1,1406,1142,0,0
189,-118,0,0,0,0,0,0,0,0,0,-1,1413,1142,0,0
196,-118,0,0,0,0,0,0,0,0,0,-1,1420,1142,0,0
203,-118,0,0,0,0,0,0,0,0,0,-1,1427,1142,0,0
210,-118,0,0,0,0,0,0,0,0,0,-1,1434,1142,0,0
217,-118,0,0,0,0,0,0,0,0,0,-1,1441,1142,0,0
224,-118,0,0,0,0,0,0,0,0,0,-1,1448,1142,0,0
231,-118,0,0,0,0,0,0,0,0,0,-1,1455,1142,0,0
238,-118,0,0,0,0,0,0,0,0,0,-1,1462,1142,0,0
245,-118,0,0,0,0,0,0,0,0,0,-1,1469,1142,0,0
252,-118,0,0,0,0,0,0,0,0,0,-1,1476,1142,0,0
259,-118,0,0,0,0,0,0,0,0,0,-1,1483,1142,0,0
266,-118,0,0,0,0,0,0,0,0,0,-1,1490,1142,0,0
273,-118,0,0,0,0,0,0,0,0,0,-1,1497,1142,0,0
280,-118,0,0,0,0,0,0,0,0,0,-1,1504,1142,0,0
287,-118,0,0,0,0,0,0,0,0,0,-1,1511,1142,0,0
294,-118,0,0,0,0,0,0,0,0,0,-1,1518,1142,0,0
301,-118,0,0,0,0,0,0,0,0,0,-1,1525,1142,0,0
308,-118,0,0,0,0,0,0,0,0,0,-1,1532,1142,0,0
315,-118,0,0,0,0,0,0,0,0,0,-1,1539,1142,0,0
322,-118,0,0,0,0,0,0,0,0,0,-1,1546,1142,0,0
329,-118,0,0,0,0,0,0,0,0,0,-1,1553,1142,0,0
336,-118,0,0,0,0,0,0,0,0,0,-1,1560,1142,0,0
343,-118,0,0,0,0,0,0,0,0,0,-1,1567,1142,0,0
350,-118,0,0,0,0,0,0,0,0,0,-1,1574,1142,0,0
357,-118,0,0,0,0,0,0,0,0,0,-1,1581,1142,0,0
364,-118,0,0,0,0,0,0,0,0,0,-1,1588,1142,0,0
371,-118,0,0,0,0,0,0,0,0,0,-1,1595,1142,0,0
378,-118,0,0,0,0,0,0,0,0,0,-1,1602,1142,0,0
385,-118,0,0,0,0,0,0,0,0,0,-1,1609,1142,0,0
392,-118,0,0,0,0,0,0,0,0,0,-1,1616,1142,0,0
399,-118,0,0,0,0,0,0,0,0,0,-1,1623,1142,0,0
406,-118,0,0,0,0,0,0,0,0,0,-1,1630,1142,0,0
413,-118,0,0,0,0,0,0,0,0,0,-1,1637,1142,0,0
420,-118,0,0,0,0,0,0,0,0,0,-1,1644,1142,0,0
427,-118,0,0,0,0,0,0,0,0,0,-1,1651,1142,0,0
434,-118,0,0,0,0,0,0,0,0,0,-1,1658,1142,0,0
441,-118,0,0,0,0,0,0,0,0,0,-1,1665,1142,0,0
448,-118,0,0,0,0,0,0,0,0,0,-1,1672,1142,0,0
455,-118,0,0,0,0,0,0,0,0,0,-1,1679,1142,0,0
462,-118,0,0,0,0,0,0,0,0,0,-1,1686,1142,0,0
469,-118,0,0,0,0,0,0,0,0,0,-1,1693,1142,0,0
476,-118,0,0,0,0,0,0,0,0,0,-1,1700,1142,0,0
483,-118,0,0,0,0,0,0,0,0,0,-1,1707,1142,0,0
490,-118,0,0,0,0,0,0,0,0,0,-1,1714,1142,0,0
497,-118,0,0,0,0,0,0,0,0,0,-1,1721,1142,0,0
504,-118,0,0,0,0,0,0,0,0,0,-1,1728,1142,0,0
511,-118,0,0,0,0,0,0,0,0,0,-1,1735,1142,0,0
518,-118,0,0,0,0,0,0,0,0,0,-1,1742,1142,0,0
525,-118,0,0,0,0,0,0,0,0,0,-1,1749,1142,0,0
532,-118,0,0,0,0,0,0,0,0,0,-1,1756,1142,0,0
539,-118,0,0,0,0,0,0,0,0,0,-1,1763,1142,0,0
546,-118,0,0,0,0,0,0,0,0,0,-1,1770,1142,0,0
553,-118,0,0,0,0,0,0,0,0,0,-1,1777,1142,0,0
560,-118,0,0,0,0,0,0,0,0,0,-1,1784,1142,0,0
567,-118,0,0,0,0,0,0,0,0,0,-1,1791,1142,0,0
574,-118,0,0,0,0,0,0,0,0,0,-1,1798,1142,0,0
581,-118,0,0,0,0,0,0,0,0,0,-1,1805,1142,0,0
588,-118,0,0,0,0,0,0,0,0,0,-1,1812,1142,0,0
595,-118,0,0,0,0,0,0,0,0,0,-1,1819,1142,0,0
602,-118,0,0,0,0,0,0,0,0,0,-1,1826,1142,0,0
609,-118,0,0,0,0,0,0,0,0,0,-1,1833,1142,0,0
616,-118,0,0,0,0,0,0,0,0,0,-1,1840,1142,0,0
623,-118,0,0,0,0,0,0,0,0,0,-1,1847,1142,0,0
630,-118,0,0,0,0,0,0,0,0,0,-1,1854,1142,0,0
637,-118,0,0,0,0,0,0,0,0,0,-1,1861,1142,0,0
644,-118,66.9742,2.46375,0.00119372,0.000191897,-0.00226443,0.00301198,-0.00162636,-0.676546,0.00271749,0.0402325,1868,1142,66.9742,-2.46368
651,-118,67.0573,2.4856,0.000657899,-0.000382249,-0.00166738,0.00188443,-0.00160878,-0.634224,0.0020189,0.0404954,1875,1142,67.0572,-2.48561
658,-118,67.217,2.40845,0.000407117,-0.000738347,-0.00122984,0.00119105,-0.00152228,-0.567483,0.00157042,0.0396265,1882,1142,67.217,-2.40845
665,-118,67.1948,2.26453,0.000231316,-0.000899399,-0.000931006,0.000755179,-0.00142326,-0.51253,0.00127729,0.0391085,1889,1142,67.1948,-2.26452
672,-118,67.0007,2.37183,0.000135224,-0.000918825,-0.000751763,0.000526296,-0.0013099,-0.479683,0.00109183,0.0447427,1896,1142,67.0007,-2.37181
679,-118,66.9109,2.58105,9.6226e-05,-0.000976544,-0.000699642,0.000441435,-0.00132175,-0.45836,0.00105943,0.0437242,1903,1142,66.9109,-2.58103
686,-118,66.9452,2.56226,0.000428654,-0.000960575,-0.000771114,0.000771876,-0.0013038,-0.418772,0.00121144,0.0383802,1910,1142,66.9451,-2.5622
693,-118,66.9259,2.42493,0.000616712,-0.000972216,-0.000777361,0.000933762,-0.00128927,-0.387259,0.00128892,0.0355121,1917,1142,66.9259,-2.42489
700,-118,67.0464,2.35571,0.000804132,-0.000947435,-0.000610278,0.000995792,-0.0011391,-0.3043,0.0012335,0.0216721,1924,1142,67.0464,-2.35567
707,-118,67.1224,2.34473,0,0,0,0,0,0,0,-1,1931,1142,67.1224,-2.34475
714,-118,50.4819,8.53809,0,0,0,0,0,0,0,-1,1938,1142,50.4819,-8.53809
721,-118,60.7822,9.00476,0,0,0,0,0,0,0,-1,1945,1142,60.7823,-9.00477
728,-118,60.7738,8.42285,0.00053715,0.000153763,0.000459813,0.000843627,-0.000152714,0.587905,0.000619628,0.0238037,1952,1142,60.7738,-8.42284
735,-118,60.7557,7.88684,0.000790998,0.000422974,0.000779764,0.00140817,-0.000194196,0.669526,0.00100975,0.0231678,1959,1142,60.7557,-7.88683
742,-118,60.7653,7.35071,0.000683815,0.000821109,0.00123009,0.00198446,-0.000479539,0.813273,0.00150845,0.033444,1966,1142,60.7652,-7.35075
749,-118,60.6022,6.78967,0.000532567,0.00149276,0.00196137,0.00303194,-0.00100661,0.905427,0.00242742,0.025237,1973,1142,60.6022,-6.78962
756,-118,60.5933,6.24268,0.000935712,0.0027687,0.00299625,0.0049855,-0.00128108,0.93382,0.00382292,0.020006,1980,1142,60.5933,-6.24269
763,-118,60.636,5.71521,0.00228159,0.00420749,0.00416171,0.00751621,-0.00102713,0.899089,0.00538593,0.0117075,1987,1142,60.6359,-5.71516
770,-118,60.5505,5.22412,0.00476919,0.00588442,0.00539985,0.0107554,-0.000101764,0.836848,0.00720441,0.0141121,1994,1142,60.5505,-5.22408
777,-118,60.3894,4.78455,0.00833823,0.0076119,0.00663006,0.0146151,0.00133506,0.758038,0.00933025,0.0301405,2001,1142,60.3895,-4.7845
784,-118,60.5564,4.47095,0.0132881,0.00937942,0.00785113,0.0194245,0.00324304,0.663416,0.0120154,0.0438086,2008,1142,60.5563,-4.4709
791,-118,60.7729,4.20325,0,0,0,0,0,0,0,-1,2015,1142,60.7728,-4.20324
798,-118,58.8809,3.30298,0,0,0,0,0,0,0,-1,2022,1142,58.8809,-3.30299
805,-118,59.936,1.54065,0,0,0,0,0,0,0,-1,2029,1142,59.936,-1.54065
812,-118,65.4683,2.38025,0,0,0,0,0,0,0,-1,2036,1142,65.4683,-2.38026
-700,-125,0,0,0,0,0,0,0,0,0,-1,524,1149,0,0
-693,-125,-47.889,0.0700684,0.166754,-0.0251064,-0.0541112,0.180963,-0.0393154,-0.25679,0.13566,0.0486142,531,1149,-47.889,-0.070059
-686,-125,-46.8129,0.816528,0.145166,-0.0198513,-0.0518116,0.160085,-0.0347702,-0.28036,0.120004,0.048568,538,1149,-46.8129,-0.816561
-679,-125,-45.8543,1.80261,0.122212,-0.0150275,-0.0467865,0.136644,-0.0294599,-0.299211,0.102339,0.0490923,545,1149,-45.8543,-1.80264
-672,-125,-44.7108,2.76001,0,0,0,0,0,0,0,-1,552,1149,-44.7107,-2.76007
-665,-125,-48.3779,0.536255,0,0,0,0,0,0,0,-1,559,1149,-48.3779,-0.536274
-658,-125,-45.1813,1.1449,0,0,0,0,0,0,0,-1,566,1149,-45.1813,-1.14492
-651,-125,-44.8385,1.88635,0.043851,-0.00170477,-0.0215837,0.0524528,-0.0103066,-0.379242,0.0388624,0.049381,573,1149,-44.8385,-1.88633
-644,-125,-44.6706,2.52368,0.0294274,9.51381e-05,-0.0160307,0.0364887,-0.00696611,-0.414911,0.0269496,0.0334245,580,1149,-44.6706,-2.52364
-637,-125,-44.817,3.08484,0.0170712,0.00145617,-0.0113519,0.0230413,-0.0045139,-0.484161,0.0170656,0.0144393,587,1149,-44.817,-3.08482
-630,-125,-44.8447,3.65149,0.00711494,0.00194869,-0.00688454,0.011885,-0.00282138,-0.605923,0.00901223,0.0149579,594,1149,-44.8447,-3.65145
-623,-125,-44.8572,4.23926,0.00114297,0.00158298,-0.00376842,0.00513781,-0.00241186,-0.814556,0.00445251,0.0138833,601,1149,-44.8572,-4.23931
-616,-125,-44.934,4.78857,-0.000302871,0.000487436,-0.00234123,0.00246663,-0.00228206,-0.869,0.00274235,0.0321721,608,1149,-44.934,-4.7886
-609,-125,-45.0974,5.5719,0,0,0,0,0,0,0,-1,615,1149,-45.0973,-5.57195
-602,-125,-45.0184,6.06409,0,0,0,0,0,0,0,-1,622,1149,-45.0184,-6.06407
-595,-125,-45.1678,6.75989,0,0,0,0,0,0,0,-1,629,1149,-45.1678,-6.7599
-588,-125,-43.8102,7.27136,0,0,0,0,0,0,0,-1,636,1149,-43.8103,-7.27139
-581,-125,-26.4055,4.83203,0,0,0,0,0,0,0,-1,643,1149,-26.4055,-4.83204
-574,-125,-37.674,0.655151,0,0,0,0,0,0,0,-1,650,1149,-37.674,-0.655195
-567,-125,-51.5333,0.453613,0,0,0,0,0,0,0,-1,657,1149,-51.5333,-0.453614
-560,-125,-51.5486,0.360718,0.00203638,-0.00123471,-0.000646189,0.00215941,-0.00135773,-0.188134,0.00204813,0.0366893,664,1149,-51.5486,-0.360712
-553,-125,-51.6237,0.458862,0.00158351,-0.000868988,-0.000720073,0.00177929,-0.00106478,-0.265483,0.00165921,0.0373943,671,1149,-51.6237,-0.458916
-546,-125,-51.4705,0.488525,0.000637718,-9.87885e-05,-0.000722705,0.00108058,-0.000541654,-0.549769,0.000953672,0.0388914,678,1149,-51.4705,-0.488508
-539,-125,-51.307,0.475098,0.000763748,0.00051259,-0.00110045,0.00174576,-0.000469421,-0.728586,0.00134784,0.040203,685,1149,-51.307,-0.475057
-532,-125,-51.3712,0.487427,0.00168651,0.000929611,-0.00162481,0.00297636,-0.000360239,-0.670978,0.00211457,0.0383818,692,1149,-51.3712,-0.487473
-525,-125,-51.5285,0.372925,0.00274766,0.00102094,-0.00228971,0.00433138,-0.000562775,-0.60511,0.00309229,0.0419958,699,1149,-51.5285,-0.372974
-518,-125,0,0,0,0,0,0,0,0,0,-1,706,1149,0,0
-511,-125,0,0,0,0,0,0,0,0,0,-1,713,1149,0,0
-504,-125,0,0,0,0,0,0,0,0,0,-1,720,1149,0,0
-497,-125,0,0,0,0,0,0,0,0,0,-1,727,1149,0,0
-490,-125,0,0,0,0,0,0,0,0,0,-1,734,1149,0,0
-483,-125,0,0,0,0,0,0,0,0,0,-1,741,1149,0,0
-476,-125,0,0,0,0,0,0,0,0,0,-1,748,1149,0,0
-469,-125,0,0,0,0,0,0,0,0,0,-1,755,1149,0,0
-462,-125,0,0,0,0,0,0,0,0,0,-1,762,1149,0,0
-455,-125,0,0,0,0,0,0,0,0,0,-1,769,1149,0,0
-448,-125,0,0,0,0,0,0,0,0,0,-1,776,1149,0,0
-441,-125,0,0,0,0,0,0,0,0,0,-1,783,1149,0,0
-434,-125,0,0,0,0,0,0,0,0,0,-1,790,1149,0,0
-427,-125,0,0,0,0,0,0,0,0,0,-1,797,1149,0,0
-420,-125,0,0,0,0,0,0,0,0,0,-1,804,1149,0,0
-413,-125,0,0,0,0,0,0,0,0,0,-1,811,1149,0,0
-406,-125,0,0,0,0,0,0,0,0,0,-1,818,1149,0,0
-399,-125,0,0,0,0,0,0,0,0,0,-1,825,1149,0,0
-392,-125,0,0,0,0,0,0,0,0,0,-1,832,1149,0,0
-385,-125,0,0,0,0,0,0,0,0,0,-1,839,1149,0,0
-378,-125,0,0,0,0,0,0,0,0,0,-1,846,1149,0,0
-371,-125,0,0,0,0,0,0,0,0,0,-1,853,1149,0,0
-364,-125,0,0,0,0,0,0,0,0,0,-1,860,1149,0,0
-357,-125,0,0,0,0,0,0,0,0,0,-1,867,1149,0,0
-350,-125,0,0,0,0,0,0,0,0,0,-1,874,1149,0,0
-343,-125,0,0,0,0,0,0,0,0,0,-1,881,1149,0,0
-336,-125,0,0,0,0,0,0,0,0,0,-1,888,1149,0,0
-329,-125,0,0,0,0,0,0,0,0,0,-1,895,1149,0,0
-322,-125,0,0,0,0,0,0,0,0,0,-1,902,1149,0,0
-315,-125,0,0,0,0,0,0,0,0,0,-1,909,1149,0,0
-308,-125,0,0,0,0,0,0,0,0,0,-1,916,1149,0,0
-301,-125,0,0,0,0,0,0,0,0,0,-1,923,1149,0,0
-294,-125,0,0,0,0,0,0,0,0,0,-1,930,1149,0,0
-287,-125,0,0,0,0,0,0,0,0,0,-1,937,1149,0,0
-280,-125,0,0,0,0,0,0,0,0,0,-1,944,1149,0,0
-273,-125,0,0,0,0,0,0,0,0,0,-1,951,1149,0,0
-266,-125,0,0,0,0,0,0,0,0,0,-1,958,1149,0,0
-259,-125,0,0,0,0,0,0,0,0,0,-1,965,1149,0,0
-252,-125,0,0,0,0,0,0,0,0,0,-1,972,1149,0,0
-245,-125,0,0,0,0,0,0,0,0,0,-1,979,1149,0,0
-238,-125,0,0,0,0,0,0,0,0,0,-1,986,1149,0,0
-231,-125,0,0,0,0,0,0,0,0,0,-1,993,1149,0,0
-224,-125,0,0,0,0,0,0,0,0,0,-1,1000,1149,0,0
-217,-125,0,0,0,0,0,0,0,0,0,-1,1007,1149,0,0
-210,-125,0,0,0,0,0,0,0,0,0,-1,1014,1149,0,0
-203,-125,0,0,0,0,0,0,0,0,0,-1,1021,1149,0,0
-196,-125,0,0,0,0,0,0,0,0,0,-1,1028,1149,0,0
-189,-125,0,0,0,0,0,0,0,0,0,-1,1035,1149,0,0
-182,-125,0,0,0,0,0,0,0,0,0,-1,1042,1149,0,0
-175,-125,0,0,0,0,0,0,0,0,0,-1,1049,1149,0,0
-168,-125,0,0,0,0,0,0,0,0,0,-1,1056,1149,0,0
-161,-125,0,0,0,0,0,0,0,0,0,-1,1063,1149,0,0
-154,-125,0,0,0,0,0,0,0,0,0,-1,1070,1149,0,0
-147,-125,0,0,0,0,0,0,0,0,0,-1,1077,1149,0,0
-140,-125,0,0,0,0,0,0,0,0,0,-1,1084,1149,0,0
-133,-125,0,0,0,0,0,0,0,0,0,-1,1091,1149,0,0
-126,-125,0,0,0,0,0,0,0,0,0,-1,1098,1149,0,0
-119,-125,0,0,0,0,0,0,0,0,0,-1,1105,1149,0,0
-112,-125,0,0,0,0,0,0,0,0,0,-1,1112,1149,0,0
-105,-125,0,0,0,0,0,0,0,0,0,-1,1119,1149,0,0
-98,-125,0,0,0,0,0,0,0,0,0,-1,1126,1149,0,0
-91,-125,0,0,0,0,0,0,0,0,0,-1,1133,1149,0,0
-84,-125,0,0,0,0,0,0,0,0,0,-1,1140,1149,0,0
-77,-125,0,0,0,0,0,0,0,0,0,-1,1147,1149,0,0
-70,-125,0,0,0,0,0,0,0,0,0,-1,1154,1149,0,0
-63,-125,0,0,0,0,0,0,0,0,0,-1,1161,1149,0,0
-56,-125,0,0,0,0,0,0,0,0,0,-1,1168,1149,0,0
-49,-125,0,0,0,0,0,0,0,0,0,-1,1175,1149,0,0
-42,-125,0,0,0,0,0,0,0,0,0,-1,1182,1149,0,0
-35,-125,0,0,0,0,0,0,0,0,0,-1,1189,1149,0,0
-28,-125,0,0,0,0,0,0,0,0,0,-1,1196,1149,0,0
-21,-125,0,0,0,0,0,0,0,0,0,-1,1203,1149,0,0
-14,-125,0,0,0,0,0,0,0,0,0,-1,1210,1149,0,0
-7,-125,0,0,0,0,0,0,0,0,0,-1,1217,1149,0,0
0,-125,0,0,0,0,0,0,0,0,0,-1,1224,1149,0,0
7,-125,0,0,0,0,0,0,0,0,0,-1,1231,1149,0,0
14,-125,0,0,0,0,0,0,0,0,0,-1,1238,1149,0,0
21,-125,0,0,0,0,0,0,0,0,0,-1,1245,1149,0,0
28,-125,0,0,0,0,0,0,0,0,0,-1,1252,1149,0,0
35,-125,0,0,0,0,0,0,0,0,0,-1,1259,1149,0,0
42,-125,0,0,0,0,0,0,0,0,0,-1,1266,1149,0,0
49,-125,0,0,0,0,0,0,0,0,0,-1,1273,1149,0,0
56,-125,0,0,0,0,0,0,0,0,0,-1,1280,1149,0,0
63,-125,0,0,0,0,0,0,0,0,0,-1,1287,1149,0,0
70,-125,0,0,0,0,0,0,0,0,0,-1,1294,1149,0,0
77,-125,0,0,0,0,0,0,0,0,0,-1,1301,1149,0,0
84,-125,0,0,0,0,0,0,0,0,0,-1,1308,1149,0,0
91,-125,0,0,0,0,0,0,0,0,0,-1,1315,1149,0,0
98,-125,0,0,0,0,0,0,0,0,0,-1,1322,1149,0,0
105,-125,0,0,0,0,0,0,0,0,0,-1,1329,1149,0,0
112,-125,0,0,0,0,0,0,0,0,0,-1,1336,1149,0,0
119,-125,0,0,0,0,0,0,0,0,0,-1,1343,1149,0,0
126,-125,0,0,0,0,0,0,0,0,0,-1,1350,1149,0,0
133,-125,0,0,0,0,0,0,0,0,0,-1,1357,1149,0,0
140,-125,0,0,0,0,0,0,0,0,0,-1,1364,1149,0,0
147,-125,0,0,0,0,0,0,0,0,0,-1,1371,1149,0,0
154,-125,0,0,0,0,0,0,0,0,0,-1,1378,1149,0,0
161,-125,0,0,0,0,0,0,0,0,0,-1,1385,1149,0,0
168,-125,0,0,0,0,0,0,0,0,0,-1,1392,1149,0,0
175,-125,0,0,0,0,0,0,0,0,0,-1,1399,1149,0,0
182,-125,0,0,0,0,0,0,0,0,0,-1,1406,1149,0,0
189,-125,0,0,0,0,0,0,0,0,0,-1,1413,1149,0,0
196,-125,0,0,0,0,0,0,0,0,0,-1,1420,1149,0,0
203,-125,0,0,0,0,0,0,0,0,0,-1,1427,1149,0,0
210,-125,0,0,0,0,0,0,0,0,0,-1,1434,1149,0,0
217,-125,0,0,0,0,0,0,0,0,0,-1,1441,1149,0,0
224,-125,0,0,0,0,0,0,0,0,0,-1,1448,1149,0,0
231,-125,0,0,0,0,0,0,0,0,0,-1,1455,1149,0,0
238,-125,0,0,0,0,0,0,0,0,0,-1,1462,1149,0,0
245,-125,0,0,0,0,0,0,0,0,0,-1,1469,1149,0,0
252,-125,0,0,0,0,0,0,0,0,0,-1,1476,1149,0,0
259,-125,0,0,0,0,0,0,0,0,0,-1,1483,1149,0,0
266,-125,0,0,0,0,0,0,0,0,0,-1,1490,1149,0,0
273,-125,0,0,0,0,0,0,0,0,0,-1,1497,1149,0,0
280,-125,0,0,0,0,0,0,0,0,0,-1,1504,1149,0,0
287,-125,0,0,0,0,0,0,0,0,0,-1,1511,1149,0,0
294,-125,0,0,0,0,0,0,0,0,0,-1,1518,1149,0,0
301,-125,0,0,0,0,0,0,0,0,0,-1,1525,1149,0,0
308,-125,0,0,0,0,0,0,0,0,0,-1,1532,1149,0,0
315,-125,0,0,0,0,0,0,0,0,0,-1,1539,1149,0,0
322,-125,0,0,0,0,0,0,0,0,0,-1,1546,1149,0,0
329,-125,0,0,0,0,0,0,0,0,0,-1,1553,1149,0,0
336,-125,0,0,0,0,0,0,0,0,0,-1,1560,1149,0,0
343,-125,0,0,0,0,0,0,0,0,0,-1,1567,1149,0,0
350,-125,0,0,0,0,0,0,0,0,0,-1,1574,1149,0,0
357,-125,0,0,0,0,0,0,0,0,0,-1,1581,1149,0,0
364,-125,0,0,0,0,0,0,0,0,0,-1,1588,1149,0,0
371,-125,0,0,0,0,0,0,0,0,0,-1,1595,1149,0,0
378,-125,0,0,0,0,0,0,0,0,0,-1,1602,1149,0,0
385,-125,0,0,0,0,0,0,0,0,0,-1,1609,1149,0,0
392,-125,0,0,0,0,0,0,0,0,0,-1,1616,1149,0,0
399,-125,0,0,0,0,0,0,0,0,0,-1,1623,1149,0,0
406,-125,0,0,0,0,0,0,0,0,0,-1,1630,1149,0,0
413,-125,0,0,0,0,0,0,0,0,0,-1,1637,1149,0,0
420,-125,0,0,0,0,0,0,0,0,0,-1,1644,1149,0,0
427,-125,0,0,0,0,0,0,0,0,0,-1,1651,1149,0,0
434,-125,0,0,0,0,0,0,0,0,0,-1,1658,1149,0,0
441,-125,0,0,0,0,0,0,0,0,0,-1,1665,1149,0,0
448,-125,0,0,0,0,0,0,0,0,0,-1,1672,1149,0,0
455,-125,0,0,0,0,0,0,0,0,0,-1,1679,1149,0,0
462,-125,0,0,0,0,0,0,0,0,0,-1,1686,1149,0,0
469,-125,0,0,0,0,0,0,0,0,0,-1,1693,1149,0,0
476,-125,0,0,0,0,0,0,0,0,0,-1,1700,1149,0,0
483,-125,0,0,0,0,0,0,0,0,0,-1,1707,1149,0,0
490,-125,0,0,0,0,0,0,0,0,0,-1,1714,1149,0,0
497,-125,0,0,0,0,0,0,0,0,0,-1,1721,1149,0,0
504,-125,0,0,0,0,0,0,0,0,0,-1,1728,1149,0,0
511,-125,0,0,0,0,0,0,0,0,0,-1,1735,1149,0,0
518,-125,0,0,0,0,0,0,0,0,0,-1,1742,1149,0,0
525,-125,0,0,0,0,0,0,0,0,0,-1,1749,1149,0,0
532,-125,0,0,0,0,0,0,0,0,0,-1,1756,1149,0,0
539,-125,0,0,0,0,0,0,0,0,0,-1,1763,1149,0,0
546,-125,0,0,0,0,0,0,0,0,0,-1,1770,1149,0,0
553,-125,0,0,0,0,0,0,0,0,0,-1,1777,1149,0,0
560,-125,0,0,0,0,0,0,0,0,0,-1,1784,1149,0,0
567,-125,0,0,0,0,0,0,0,0,0,-1,1791,1149,0,0
574,-125,0,0,0,0,0,0,0,0,0,-1,1798,1149,0,0
581,-125,0,0,0,0,0,0,0,0,0,-1,1805,1149,0,0
588,-125,0,0,0,0,0,0,0,0,0,-1,1812,1149,0,0
595,-125,0,0,0,0,0,0,0,0,0,-1,1819,1149,0,0
602,-125,0,0,0,0,0,0,0,0,0,-1,1826,1149,0,0
609,-125,0,0,0,0,0,0,0,0,0,-1,1833,1149,0,0
616,-125,0,0,0,0,0,0,0,0,0,-1,1840,1149,0,0
623,-125,0,0,0,0,0,0,0,0,0,-1,1847,1149,0,0
630,-125,0,0,0,0,0,0,0,0,0,-1,1854,1149,0,0
637,-125,0,0,0,0,0,0,0,0,0,-1,1861,1149,0,0
644,-125,66.8899,2.46753,0.00167764,0.000660559,-0.00213527,0.00336409,-0.00102589,-0.668495,0.00265169,0.0434321,1868,1149,66.8899,-2.46758
651,-125,66.8336,2.49939,0.0009906,-5.9768e-06,-0.00156388,0.00213366,-0.00114904,-0.631172,0.00192347,0.0417433,1875,1149,66.8337,-2.49935
658,-125,66.933,2.32019,0.000604034,-0.000426707,-0.001161,0.00135891,-0.00118158,-0.576512,0.00146794,0.0414337,1882,1149,66.933,-2.32017
665,-125,67.0264,2.16809,0.000304818,-0.000644441,-0.000901975,0.000849419,-0.00118904,-0.5432,0.00118234,0.0413451,1889,1149,67.0263,-2.16813
672,-125,66.9037,2.28394,0.000110659,-0.000697276,-0.000779642,0.000584775,-0.00117139,-0.546369,0.00103261,0.0430841,1896,1149,66.9037,-2.28392
679,-125,66.8541,2.32764,4.1075e-05,-0.000786567,-0.000769746,0.000501186,-0.00124668,-0.538759,0.00103928,0.0393686,1903,1149,66.8541,-2.32758
686,-125,66.9016,2.40344,0.000459557,-0.000653977,-0.000890168,0.000952737,-0.00114716,-0.505932,0.0012141,0.0371121,1910,1149,66.9016,-2.40346
693,-125,66.8884,2.36621,0.000695816,-0.000629713,-0.00090947,0.00115839,-0.00109229,-0.470521,0.00129962,0.0313086,1917,1149,66.8885,-2.36625
700,-125,67.0155,2.34607,0.00088627,-0.00059221,-0.000724764,0.00118229,-0.000888228,-0.387755,0.00119942,0.0180504,1924,1149,67.0156,-2.34611
707,-125,67.1322,2.33972,0,0,0,0,0,0,0,-1,1931,1149,67.1322,-2.33976
714,-125,54.8745,9.21375,0,0,0,0,0,0,0,-1,1938,1149,54.8746,-9.21371
721,-125,60.1868,9.02356,0,0,0,0,0,0,0,-1,1945,1149,60.1868,-9.02358
728,-125,60.1536,8.52112,0.000772061,0.000418673,0.000327736,0.0009677,0.000223034,0.538167,0.000585133,0.0218789,1952,1149,60.1535,-8.52118
735,-125,60.1752,7.99121,0.00116242,0.000588622,0.000635264,0.00157257,0.000178477,0.573296,0.00099424,0.0239737,1959,1149,60.1751,-7.99122
742,-125,60.1833,7.3728,0.00111035,0.000869373,0.00106125,0.00205794,-7.82097e-05,0.728873,0.00139876,0.0352914,1966,1149,60.1833,-7.37283
749,-125,60.0159,6.83826,0.00083986,0.00153343,0.0017716,0.00299186,-0.000618573,0.88205,0.00222955,0.0282603,1973,1149,60.0158,-6.83821
756,-125,60.0187,6.24719,0.00134913,0.00298684,0.0028272,0.00511138,-0.000775411,0.926359,0.00369329,0.0235393,1980,1149,60.0187,-6.2472
763,-125,60.0513,5.72546,0.00305192,0.00481167,0.00402162,0.00804854,-0.000184949,0.893095,0.0054284,0.0128718,1987,1149,60.0513,-5.72546
770,-125,59.9924,5.16748,0.00594768,0.00701213,0.00525171,0.0117585,0.0012013,0.835897,0.00747085,0.0158891,1994,1149,59.9925,-5.16748
777,-125,59.8569,4.73889,0.0100313,0.00946418,0.00648523,0.0162392,0.00325631,0.76355,0.00992045,0.0334055,2001,1149,59.8569,-4.73885
784,-125,59.8914,4.3877,0.0156855,0.0122404,0.00773338,0.0218858,0.00604003,0.675816,0.0130517,0.0468432,2008,1149,59.8914,-4.3877
791,-125,60.0396,4.03943,0,0,0,0,0,0,0,-1,2015,1149,60.0396,-4.03945
798,-125,59.9124,5.87378,0,0,0,0,0,0,0,-1,2022,1149,59.9122,-5.87379
805,-125,60.821,5.66406,0,0,0,0,0,0,0,-1,2029,1149,60.821,-5.66407
812,-125,61.4368,5.98474,0,0,0,0,0,0,0,-1,2036,1149,61.4369,-5.9847
-700,-132,0,0,0,0,0,0,0,0,0,-1,524,1156,0,0
-693,-132,-47.4288,0.263672,0,0,0,0,0,0,0,-1,531,1156,-47.4288,-0.263617
-686,-132,-46.2034,1.07373,0,0,0,0,0,0,0,-1,538,1156,-46.2034,-1.07371
-679,-132,-45.003,2.12622,0,0,0,0,0,0,0,-1,545,1156,-45.003,-2.12627
-672,-132,-47.3931,-0.13269,0,0,0,0,0,0,0,-1,552,1156,-47.3931,0.132725
-665,-132,-46.808,0.383667,0,0,0,0,0,0,0,-1,559,1156,-46.808,-0.383669
-658,-132,-44.6075,1.1886,0,0,0,0,0,0,0,-1,566,1156,-44.6075,-1.18864
-651,-132,-44.3319,1.86633,0.0493054,0.00162345,-0.0271392,0.0615883,-0.0106594,-0.425002,0.0450344,0.0454652,573,1156,-44.3319,-1.86638
-644,-132,-44.122,2.49402,0.0328999,0.0022476,-0.019811,0.042621,-0.0074735,-0.456174,0.031205,0.0263107,580,1156,-44.122,-2.49402
-637,-132,-44.2089,3.07007,0.0189125,0.00263157,-0.0136272,0.0266455,-0.00510143,-0.516157,0.0196857,0.0131347,587,1156,-44.2089,-3.07001
-630,-132,-44.2179,3.64221,0.00750489,0.00233911,-0.0077966,0.0131353,-0.0032913,-0.625446,0.0100355,0.0110735,594,1156,-44.2179,-3.64224
-623,-132,-44.2353,4.27063,0.000425779,0.00146321,-0.00360238,0.00458403,-0.00269504,-0.856903,0.00424948,0.0167254,601,1156,-44.2353,-4.27063
-616,-132,-44.2565,4.89868,0,0,0,0,0,0,0,-1,608,1156,-44.2565,-4.89868
-609,-132,-44.1962,5.37585,0,0,0,0,0,0,0,-1,615,1156,-44.1962,-5.37581
-602,-132,-44.2743,6.08704,0,0,0,0,0,0,0,-1,622,1156,-44.2743,-6.08706
-595,-132,-44.3892,6.75928,0,0,0,0,0,0,0,-1,629,1156,-44.3891,-6.75928
-588,-132,-42.6534,6.92969,0,0,0,0,0,0,0,-1,636,1156,-42.6535,-6.92967
-581,-132,-35.9343,6.42957,0,0,0,0,0,0,0,-1,643,1156,-35.9342,-6.42957
-574,-132,-33.2071,2.86963,0,0,0,0,0,0,0,-1,650,1156,-33.2071,-2.86963
-567,-132,-51.5806,0.640015,0,0,0,0,0,0,0,-1,657,1156,-51.5806,-0.639975
-560,-132,-51.6552,0.430664,0.00157427,-0.00139659,-0.000344595,0.00161372,-0.00143603,-0.113976,0.00176177,0.0338721,664,1156,-51.6552,-0.430676
-553,-132,-51.7078,0.265869,0.00129032,-0.00118619,-0.000339403,0.00133599,-0.00123187,-0.133763,0.00148296,0.0369691,671,1156,-51.7078,-0.265919
-546,-132,-51.6669,0.302368,0.000423359,-0.000485134,-0.000308214,0.000518053,-0.000579828,-0.298081,0.000634196,0.0410018,678,1156,-51.6669,-0.302427
-539,-132,-51.4453,0.476929,0.00075197,4.95327e-05,-0.000656904,0.00114565,-0.000344149,-0.539904,0.000900674,0.0416001,685,1156,-51.4453,-0.476885
-532,-132,-51.3646,0.497192,0.00210709,0.000362016,-0.00107924,0.00262239,-0.000153283,-0.445456,0.00180153,0.039863,692,1156,-51.3646,-0.497187
-525,-132,-51.4476,0.454224,0.00369466,0.000249697,-0.0015928,0.00431823,-0.000373871,-0.37315,0.00301119,0.0402611,699,1156,-51.4476,-0.454169
-518,-132,0,0,0,0,0,0,0,0,0,-1,706,1156,0,0
-511,-132,0,0,0,0,0,0,0,0,0,-1,713,1156,0,0
-504,-132,0,0,0,0,0,0,0,0,0,-1,720,1156,0,0
-497,-132,0,0,0,0,0,0,0,0,0,-1,727,1156,0,0
-490,-132,0,0,0,0,0,0,0,0,0,-1,734,1156,0,0
-483,-132,0,0,0,0,0,0,0,0,0,-1,741,1156,0,0
-476,-132,0,0,0,0,0,0,0,0,0,-1,748,1156,0,0
-469,-132,0,0,0,0,0,0,0,0,0,-1,755,1156,0,0
-462,-132,0,0,0,0,0,0,0,0,0,-1,762,1156,0,0
-455,-132,0,0,0,0,0,0,0,0,0,-1,769,1156,0,0
-448,-132,0,0,0,0,0,0,0,0,0,-1,776,1156,0,0
-441,-132,0,0,0,0,0,0,0,0,0,-1,783,1156,0,0
-434,-132,0,0,0,0,0,0,0,0,0,-1,790,1156,0,0
-427,-132,0,0,0,0,0,0,0,0,0,-1,797,1156,0,0
-420,-132,0,0,0,0,0,0,0,0,0,-1,804,1156,0,0
-413,-132,0,0,0,0,0,0,0,0,0,-1,811,1156,0,0
-406,-132,0,0,0,0,0,0,0,0,0,-1,818,1156,0,0
-399,-132,0,0,0,0,0,0,0,0,0,-1,825,1156,0,0
-392,-132,0,0,0,0,0,0,0,0,0,-1,832,1156,0,0
-385,-132,0,0,0,0,0,0,0,0,0,-1,839,1156,0,0
-378,-132,0,0,0,0,0,0,0,0,0,-1,846,1156,0,0
-371,-132,0,0,0,0,0,0,0,0,0,-1,853,1156,0,0
-364,-132,0,0,0,0,0,0,0,0,0,-1,860,1156,0,0
-357,-132,0,0,0,0,0,0,0,0,0,-1,867,1156,0,0
-350,-132,0,0,0,0,0,0,0,0,0,-1,874,1156,0,0
-343,-132,0,0,0,0,0,0,0,0,0,-1,881,1156,0,0
-336,-132,0,0,0,0,0,0,0,0,0,-1,888,1156,0,0
-329,-132,0,0,0,0,0,0,0,0,0,-1,895,1156,0,0
-322,-132,0,0,0,0,0,0,0,0,0,-1,902,1156,0,0
-315,-132,0,0,0,0,0,0,0,0,0,-1,909,1156,0,0
-308,-132,0,0,0,0,0,0,0,0,0,-1,916,1156,0,0
-301,-132,0,0,0,0,0,0,0,0,0,-1,923,1156,0,0
-294,-132,0,0,0,0,0,0,0,0,0,-1,930,1156,0,0
-287,-132,0,0,0,0,0,0,0,0,0,-1,937,1156,0,0
-280,-132,0,0,0,0,0,0,0,0,0,-1,944,1156,0,0
-273,-132,0,0,0,0,0,0,0,0,0,-1,951,1156,0,0
-266,-132,0,0,0,0,0,0,0,0,0,-1,958,1156,0,0
-259,-132,0,0,0,0,0,0,0,0,0,-1,965,1156,0,0
-252,-132,0,0,0,0,0,0,0,0,0,-1,972,1156,0,0
-245,-132,0,0,0,0,0,0,0,0,0,-1,979,1156,0,0
-238,-132,0,0,0,0,0,0,0,0,0,-1,986,1156,0,0
-231,-132,0,0,0,0,0,0,0,0,0,-1,993,1156,0,0
-224,-132,0,0,0,0,0,0,0,0,0,-1,1000,1156,0,0
-217,-132,0,0,0,0,0,0,0,0,0,-1,1007,1156,0,0
-210,-132,0,0,0,0,0,0,0,0,0,-1,1014,1156,0,0
-203,-132,0,0,0,0,0,0,0,0,0,-1,1021,1156,0,0
-196,-132,0,0,0,0,0,0,0,0,0,-1,1028,1156,0,0
-189,-132,0,0,0,0,0,0,0,0,0,-1,1035,1156,0,0
-182,-132,0,0,0,0,0,0,0,0,0,-1,1042,1156,0,0
-175,-132,0,0,0,0,0,0,0,0,0,-1,1049,1156,0,0
-168,-132,0,0,0,0,0,0,0,0,0,-1,1056,1156,0,0
-161,-132,0,0,0,0,0,0,0,0,0,-1,1063,1156,0,0
-154,-132,0,0,0,0,0,0,0,0,0,-1,1070,1156,0,0
-147,-132,0,0,0,0,0,0,0,0,0,-1,1077,1156,0,0
-140,-132,0,0,0,0,0,0,0,0,0,-1,1084,1156,0,0
-133,-132,0,0,0,0,0,0,0,0,0,-1,1091,1156,0,0
-126,-132,0,0,0,0,0,0,0,0,0,-1,1098,1156,0,0
-119,-132,0,0,0,0,0,0,0,0,0,-1,1105,1156,0,0
-112,-132,0,0,0,0,0,0,0,0,0,-1,1112,1156,0,0
-105,-132,0,0,0,0,0,0,0,0,0,-1,1119,1156,0,0
-98,-132,0,0,0,0,0,0,0,0,0,-1,1126,1156,0,0
-91,-132,0,0,0,0,0,0,0,0,0,-1,1133,1156,0,0
-84,-132,0,0,0,0,0,0,0,0,0,-1,1140,1156,0,0
-77,-132,0,0,0,0,0,0,0,0,0,-1,1147,1156,0,0
-70,-132,0,0,0,0,0,0,0,0,0,-1,1154,1156,0,0
-63,-132,0,0,0,0,0,0,0,0,0,-1,1161,1156,0,0
-56,-132,0,0,0,0,0,0,0,0,0,-1,1168,1156,0,0
-49,-132,0,0,0,0,0,0,0,0,0,-1,1175,1156,0,0
-42,-132,0,0,0,0,0,0,0,0,0,-1,1182,1156,0,0
-35,-132,0,0,0,0,0,0,0,0,0,-1,1189,1156,0,0
-28,-132,0,0,0,0,0,0,0,0,0,-1,1196,1156,0,0
-21,-132,0,0,0,0,0,0,0,0,0,-1,1203,1156,0,0
-14,-132,0,0,0,0,0,0,0,0,0,-1,1210,1156,0,0
-7,-132,0,0,0,0,0,0,0,0,0,-1,1217,1156,0,0
0,-132,0,0,0,0,0,0,0,0,0,-1,1224,1156,0,0
7,-132,0,0,0,0,0,0,0,0,0,-1,1231,1156,0,0
14,-132,0,0,0,0,0,0,0,0,0,-1,1238,1156,0,0
21,-132,0,0,0,0,0,0,0,0,0,-1,1245,1156,0,0
28,-132,0,0,0,0,0,0,0,0,0,-1,1252,1156,0,0
35,-132,0,0,0,0,0,0,0,0,0,-1,1259,1156,0,0
42,-132,0,0,0,0,0,0,0,0,0,-1,1266,1156,0,0
49,-132,0,0,0,0,0,0,0,0,0,-1,1273,1156,0,0
56,-132,0,0,0,0,0,0,0,0,0,-1,1280,1156,0,0
63,-132,0,0,0,0,0,0,0,0,0,-1,1287,1156,0,0
70,-132,0,0,0,0,0,0,0,0,0,-1,1294,1156,0,0
77,-132,0,0,0,0,0,0,0,0,0,-1,1301,1156,0,0
84,-132,0,0,0,0,0,0,0,0,0,-1,1308,1156,0,0
91,-132,0,0,0,0,0,0,0,0,0,-1,1315,1156,0,0
98,-132,0,0,0,0,0,0,0,0,0,-1,1322,1156,0,0
105,-132,0,0,0,0,0,0,0,0,0,-1,1329,1156,0,0
112,-132,0,0,0,0,0,0,0,0,0,-1,1336,1156,0,0
119,-132,0,0,0,0,0,0,0,0,0,-1,1343,1156,0,0
126,-132,0,0,0,0,0,0,0,0,0,-1,1350,1156,0,0
133,-132,0,0,0,0,0,0,0,0,0,-1,1357,1156,0,0
140,-132,0,0,0,0,0,0,0,0,0,-1,1364,1156,0,0
147,-132,0,0,0,0,0,0,0,0,0,-1,1371,1156,0,0
154,-132,0,0,0,0,0,0,0,0,0,-1,1378,1156,0,0
161,-132,0,0,0,0,0,0,0,0,0,-1,1385,1156,0,0
168,-132,0,0,0,0,0,0,0,0,0,-1,1392,1156,0,0
175,-132,0,0,0,0,0,0,0,0,0,-1,1399,1156,0,0
182,-132,0,0,0,0,0,0,0,0,0,-1,1406,1156,0,0
189,-132,0,0,0,0,0,0,0,0,0,-1,1413,1156,0,0
196,-132,0,0,0,0,0,0,0,0,0,-1,1420,1156,0,0
203,-132,0,0,0,0,0,0,0,0,0,-1,1427,1156,0,0
210,-132,0,0,0,0,0,0,0,0,0,-1,1434,1156,0,0
217,-132,0,0,0,0,0,0,0,0,0,-1,1441,1156,0,0
224,-132,0,0,0,0,0,0,0,0,0,-1,1448,1156,0,0
231,-132,0,0,0,0,0,0,0,0,0,-1,1455,1156,0,0
238,-132,0,0,0,0,0,0,0,0,0,-1,1462,1156,0,0
245,-132,0,0,0,0,0,0,0,0,0,-1,1469,1156,0,0
252,-132,0,0,0,0,0,0,0,0,0,-1,1476,1156,0,0
259,-132,0,0,0,0,0,0,0,0,0,-1,1483,1156,0,0
266,-132,0,0,0,0,0,0,0,0,0,-1,1490,1156,0,0
273,-132,0,0,0,0,0,0,0,0,0,-1,1497,1156,0,0
280,-132,0,0,0,0,0,0,0,0,0,-1,1504,1156,0,0
287,-132,0,0,0,0,0,0,0,0,0,-1,1511,1156,0,0
294,-132,0,0,0,0,0,0,0,0,0,-1,1518,1156,0,0
301,-132,0,0,0,0,0,0,0,0,0,-1,1525,1156,0,0
308,-132,0,0,0,0,0,0,0,0,0,-1,1532,1156,0,0
315,-132,0,0,0,0,0,0,0,0,0,-1,1539,1156,0,0
322,-132,0,0,0,0,0,0,0,0,0,-1,1546,1156,0,0
329,-132,0,0,0,0,0,0,0,0,0,-1,1553,1156,0,0
336,-132,0,0,0,0,0,0,0,0,0,-1,1560,1156,0,0
343,-132,0,0,0,0,0,0,0,0,0,-1,1567,1156,0,0
350,-132,0,0,0,0,0,0,0,0,0,-1,1574,1156,0,0
357,-132,0,0,0,0,0,0,0,0,0,-1,1581,1156,0,0
364,-132,0,0,0,0,0,0,0,0,0,-1,1588,1156,0,0
371,-132,0,0,0,0,0,0,0,0,0,-1,1595,1156,0,0
378,-132,0,0,0,0,0,0,0,0,0,-1,1602,1156,0,0
385,-132,0,0,0,0,0,0,0,0,0,-1,1609,1156,0,0
392,-132,0,0,0,0,0,0,0,0,0,-1,1616,1156,0,0
399,-132,0,0,0,0,0,0,0,0,0,-1,1623,1156,0,0
406,-132,0,0,0,0,0,0,0,0,0,-1,1630,1156,0,0
413,-132,0,0,0,0,0,0,0,0,0,-1,1637,1156,0,0
420,-132,0,0,0,0,0,0,0,0,0,-1,1644,1156,0,0
427,-132,0,0,0,0,0,0,0,0,0,-1,1651,1156,0,0
434,-132,0,0,0,0,0,0,0,0,0,-1,1658,1156,0,0
441,-132,0,0,0,0,0,0,0,0,0,-1,1665,1156,0,0
448,-132,0,0,0,0,0,0,0,0,0,-1,1672,1156,0,0
455,-132,0,0,0,0,0,0,0,0,0,-1,1679,1156,0,0
462,-132,0,0,0,0,0,0,0,0,0,-1,1686,1156,0,0
469,-132,0,0,0,0,0,0,0,0,0,-1,1693,1156,0,0
476,-132,0,0,0,0,0,0,0,0,0,-1,1700,1156,0,0
483,-132,0,0,0,0,0,0,0,0,0,-1,1707,1156,0,0
490,-132,0,0,0,0,0,0,0,0,0,-1,1714,1156,0,0
497,-132,0,0,0,0,0,0,0,0,0,-1,1721,1156,0,0
504,-132,0,0,0,0,0,0,0,0,0,-1,1728,1156,0,0
511,-132,0,0,0,0,0,0,0,0,0,-1,1735,1156,0,0
518,-132,0,0,0,0,0,0,0,0,0,-1,1742,1156,0,0
525,-132,0,0,0,0,0,0,0,0,0,-1,1749,1156,0,0
532,-132,0,0,0,0,0,0,0,0,0,-1,1756,1156,0,0
539,-132,0,0,0,0,0,0,0,0,0,-1,1763,1156,0,0
546,-132,0,0,0,0,0,0,0,0,0,-1,1770,1156,0,0
553,-132,0,0,0,0,0,0,0,0,0,-1,1777,1156,0,0
560,-132,0,0,0,0,0,0,0,0,0,-1,1784,1156,0,0
567,-132,0,0,0,0,0,0,0,0,0,-1,1791,1156,0,0
574,-132,0,0,0,0,0,0,0,0,0,-1,1798,1156,0,0
581,-132,0,0,0,0,0,0,0,0,0,-1,1805,1156,0,0
588,-132,0,0,0,0,0,0,0,0,0,-1,1812,1156,0,0
595,-132,0,0,0,0,0,0,0,0,0,-1,1819,1156,0,0
602,-132,0,0,0,0,0,0,0,0,0,-1,1826,1156,0,0
609,-132,0,0,0,0,0,0,0,0,0,-1,1833,1156,0,0
616,-132,0,0,0,0,0,0,0,0,0,-1,1840,1156,0,0
623,-132,0,0,0,0,0,0,0,0,0,-1,1847,1156,0,0
630,-132,0,0,0,0,0,0,0,0,0,-1,1854,1156,0,0
637,-132,0,0,0,0,0,0,0,0,0,-1,1861,1156,0,0
644,-132,67.0563,2.54419,0.00192254,0.0015439,-0.00217187,0.00391333,-0.000446886,-0.741923,0.00276989,0.0431796,1868,1156,67.0562,-2.54418
651,-132,66.8679,2.43542,0.00113917,0.000666995,-0.00162015,0.00254034,-0.000734179,-0.713048,0.00198409,0.0422454,1875,1156,66.8679,-2.43537
658,-132,66.8987,2.20142,0.000658984,9.0871e-05,-0.00123626,0.0016434,-0.000893545,-0.672473,0.00148588,0.0424602,1882,1156,66.8987,-2.20147
665,-132,67.0881,2.26013,0.000286701,-0.000240394,-0.0010097,0.00106669,-0.00102038,-0.657739,0.00120507,0.0404578,1889,1156,67.0881,-2.26008
672,-132,66.985,2.31689,4.88723e-05,-0.000349286,-0.000941008,0.000811629,-0.00111204,-0.681155,0.00111514,0.0384397,1896,1156,66.985,-2.31689
679,-132,66.9381,2.35742,-8.96969e-06,-0.000462224,-0.000964505,0.000755176,-0.00122637,-0.670008,0.00115478,0.0374398,1903,1156,66.9381,-2.35745
686,-132,66.9575,2.35791,0.000488944,-0.00021837,-0.00110445,0.00129497,-0.0010244,-0.630451,0.00134213,0.0360244,1910,1156,66.9575,-2.35789
693,-132,66.9467,2.36377,0.000752016,-0.000173791,-0.00110303,0.00148534,-0.000907116,-0.586727,0.00139467,0.0279009,1917,1156,66.9466,-2.36377
700,-132,67.0424,2.31128,0,0,0,0,0,0,0,-1,1924,1156,67.0423,-2.31133
707,-132,57.9275,3.01367,0,0,0,0,0,0,0,-1,1931,1156,57.9275,-3.01369
714,-132,57.8083,9.22156,0,0,0,0,0,0,0,-1,1938,1156,57.8084,-9.22151
721,-132,59.7346,8.93323,0,0,0,0,0,0,0,-1,1945,1156,59.7346,-8.93327
728,-132,59.5723,8.59595,0.000941763,0.000797296,0.000160083,0.00104515,0.000693904,0.573461,0.000614135,0.0324077,1952,1156,59.5723,-8.59591
735,-132,59.5143,8.05078,0.00142652,0.000894369,0.000471279,0.00170165,0.000619244,0.528411,0.000994505,0.0332308,1959,1156,59.5142,-8.05081
742,-132,59.5149,7.41174,0.0014072,0.00101587,0.000898276,0.00213087,0.000292194,0.678161,0.00133389,0.0276723,1966,1156,59.5149,-7.41173
749,-132,59.4894,6.84937,0.00104096,0.00160835,0.00161612,0.00296548,-0.000316174,0.872283,0.00209037,0.0251878,1973,1156,59.4894,-6.84931
756,-132,59.5076,6.27393,0.00169858,0.00320263,0.00264789,0.00520322,-0.000302013,0.923759,0.00357374,0.0232195,1980,1156,59.5075,-6.27397
763,-132,59.4406,5.73657,0.00378079,0.00541789,0.0037938,0.00848044,0.00071824,0.891649,0.00543007,0.0136442,1987,1156,59.4406,-5.73657
770,-132,59.4409,5.19727,0.00711002,0.00814989,0.00494283,0.0126001,0.00265986,0.8378,0.00766875,0.0139129,1994,1156,59.4409,-5.19732
777,-132,59.3462,4.63831,0.0117691,0.0113584,0.00611469,0.0176819,0.00544558,0.768614,0.0104566,0.0270197,2001,1156,59.3462,-4.63828
784,-132,59.3181,4.2981,0.0182135,0.0151846,0.00734028,0.0241939,0.00920416,0.683665,0.0141009,0.0473953,2008,1156,59.3181,-4.29814
791,-132,59.4033,3.95276,0,0,0,0,0,0,0,-1,2015,1156,59.4034,-3.95271
798,-132,59.9324,5.33301,0,0,0,0,0,0,0,-1,2022,1156,59.9324,-5.33306
805,-132,60.5486,5.01648,0.0556104,0.0326954,0.0117039,0.0605314,0.0277743,0.398019,0.0349873,0.046082,2029,1156,60.5486,-5.01645
812,-132,61.2996,4.90051,0,0,0,0,0,0,0,-1,2036,1156,61.2995,-4.90049
-700,-139,0,0,0,0,0,0,0,0,0,-1,524,1163,0,0
-693,-139,-47.0168,0.377441,0,0,0,0,0,0,0,-1,531,1163,-47.0169,-0.377395
-686,-139,-45.9515,1.29053,0,0,0,0,0,0,0,-1,538,1163,-45.9515,-1.29056
-679,-139,-45.9327,-1.30249,0,0,0,0,0,0,0,-1,545,1163,-45.9327,1.30253
-672,-139,-45.6501,-0.422607,0.126177,0.00538912,-0.0647468,0.154324,-0.0227584,-0.410085,0.111248,0.0454292,552,1163,-45.6501,0.422617
-665,-139,-45.2207,0.225342,0.10016,0.00576253,-0.0539362,0.124633,-0.0187105,-0.42596,0.0899761,0.0433388,559,1163,-45.2207,-0.22539
-658,-139,-44.0206,0.631226,0,0,0,0,0,0,0,-1,566,1163,-44.0206,-0.631224
-651,-139,-43.7729,1.55811,0.0548782,0.00526082,-0.0330775,0.0714168,-0.0112777,-0.463642,0.0517814,0.0485924,573,1163,-43.7729,-1.55808
-644,-139,-43.495,2.49927,0.036343,0.00457464,-0.0237935,0.0490672,-0.00814952,-0.491079,0.035739,0.0272426,580,1163,-43.495,-2.49925
-637,-139,-43.5737,3.05969,0.0206023,0.00383634,-0.015928,0.0302186,-0.00577998,-0.543163,0.0223233,0.0147648,587,1163,-43.5736,-3.05971
-630,-139,-43.5954,3.64746,0.00772202,0.00269725,-0.00863746,0.0142051,-0.00378579,-0.643868,0.0109523,0.0106014,594,1163,-43.5954,-3.64742
-623,-139,-43.6246,4.2771,-0.000484074,0.00131548,-0.00327645,0.00381346,-0.00298205,-0.919405,0.00393316,0.0170256,601,1163,-43.6246,-4.27709
-616,-139,-43.6626,4.87915,-0.002295,-1.64616e-05,-0.0013522,0.000612426,-0.00292389,-1.13547,0.00218224,0.019787,608,1163,-43.6626,-4.87909
-609,-139,-43.1115,4.88684,0,0,0,0,0,0,0,-1,615,1163,-43.1114,-4.88685
-602,-139,-43.5698,6.11243,0,0,0,0,0,0,0,-1,622,1163,-43.5697,-6.11237
-595,-139,-43.8026,6.71777,0,0,0,0,0,0,0,-1,629,1163,-43.8026,-6.7178
-588,-139,-44.1375,7.2334,0,0,0,0,0,0,0,-1,636,1163,-44.1375,-7.2334
-581,-139,-34.4892,6.72473,0,0,0,0,0,0,0,-1,643,1163,-34.4892,-6.72476
-574,-139,-23.0725,2.4043,0,0,0,0,0,0,0,-1,650,1163,-23.0725,-2.40433
-567,-139,-51.6351,0.683472,0,0,0,0,0,0,0,-1,657,1163,-51.6351,-0.683472
-560,-139,-51.6415,0.553833,0.000743599,-0.00124362,-0.000349794,0.000803372,-0.00130339,-0.169247,0.00122771,0.0360283,664,1163,-51.6415,-0.553799
-553,-139,-51.5482,0.473145,0.000631795,-0.00111739,-0.000235861,0.00066304,-0.00114864,-0.131707,0.00105842,0.0381607,671,1163,-51.5482,-0.473162
-546,-139,-51.5446,0.510132,6.78331e-05,-0.000679911,-5.69135e-05,7.21402e-05,-0.000684218,-0.0755337,0.000481995,0.0428139,678,1163,-51.5446,-0.510167
-539,-139,-51.5601,0.597412,0.000801211,-0.000683414,-0.000257927,0.000844745,-0.000726948,-0.167207,0.000908266,0.0426467,685,1163,-51.56,-0.597385
-532,-139,-51.5798,0.501343,0.00265534,-0.00111656,-0.000475595,0.00271438,-0.0011756,-0.123514,0.00230371,0.0412462,692,1163,-51.5797,-0.501304
-525,-139,-51.504,0.4552,0.00479707,-0.00206269,-0.000718784,0.00487158,-0.0021372,-0.103288,0.0041479,0.04107,699,1163,-51.504,-0.455256
-518,-139,0,0,0,0,0,0,0,0,0,-1,706,1163,0,0
-511,-139,0,0,0,0,0,0,0,0,0,-1,713,1163,0,0
-504,-139,0,0,0,0,0,0,0,0,0,-1,720,1163,0,0
-497,-139,0,0,0,0,0,0,0,0,0,-1,727,1163,0,0
-490,-139,0,0,0,0,0,0,0,0,0,-1,734,1163,0,0
-483,-139,0,0,0,0,0,0,0,0,0,-1,741,1163,0,0
-476,-139,0,0,0,0,0,0,0,0,0,-1,748,1163,0,0
-469,-139,0,0,0,0,0,0,0,0,0,-1,755,1163,0,0
-462,-139,0,0,0,0,0,0,0,0,0,-1,762,1163,0,0
-455,-139,0,0,0,0,0,0,0,0,0,-1,769,1163,0,0
-448,-139,0,0,0,0,0,0,0,0,0,-1,776,1163,0,0
-441,-139,0,0,0,0,0,0,0,0,0,-1,783,1163,0,0
-434,-139,0,0,0,0,0,0,0,0,0,-1,790,1163,0,0
-427,-139,0,0,0,0,0,0,0,0,0,-1,797,1163,0,0
-420,-139,0,0,0,0,0,0,0,0,0,-1,804,1163,0,0
-413,-139,0,0,0,0,0,0,0,0,0,-1,811,1163,0,0
-406,-139,0,0,0,0,0,0,0,0,0,-1,818,1163,0,0
-399,-139,0,0,0,0,0,0,0,0,0,-1,825,1163,0,0
-392,-139,0,0,0,0,0,0,0,0,0,-1,832,1163,0,0
-385,-139,0,0,0,0,0,0,0,0,0,-1,839,1163,0,0
-378,-139,0,0,0,0,0,0,0,0,0,-1,846,1163,0,0
-371,-139,0,0,0,0,0,0,0,0,0,-1,853,1163,0,0
-364,-139,0,0,0,0,0,0,0,0,0,-1,860,1163,0,0
-357,-139,0,0,0,0,0,0,0,0,0,-1,867,1163,0,0
-350,-139,0,0,0,0,0,0,0,0,0,-1,874,1163,0,0
-343,-139,0,0,0,0,0,0,0,0,0,-1,881,1163,0,0
-336,-139,0,0,0,0,0,0,0,0,0,-1,888,1163,0,0
-329,-139,0,0,0,0,0,0,0,0,0,-1,895,1163,0,0
-322,-139,0,0,0,0,0,0,0,0,0,-1,902,1163,0,0
-315,-139,0,0,0,0,0,0,0,0,0,-1,909,1163,0,0
-308,-139,0,0,0,0,0,0,0,0,0,-1,916,1163,0,0
-301,-139,0,0,0,0,0,0,0,0,0,-1,923,1163,0,0
-294,-139,0,0,0,0,0,0,0,0,0,-1,930,1163,0,0
-287,-139,0,0,0,0,0,0,0,0,0,-1,937,1163,0,0
-280,-139,0,0,0,0,0,0,0,0,0,-1,944,1163,0,0
-273,-139,0,0,0,0,0,0,0,0,0,-1,951,1163,0,0
-266,-139,0,0,0,0,0,0,0,0,0,-1,958,1163,0,0
-259,-139,0,0,0,0,0,0,0,0,0,-1,965,1163,0,0
-252,-139,0,0,0,0,0,0,0,0,0,-1,972,1163,0,0
-245,-139,0,0,0,0,0,0,0,0,0,-1,979,1163,0,0
-238,-139,0,0,0,0,0,0,0,0,0,-1,986,1163,0,0
-231,-139,0,0,0,0,0,0,0,0,0,-1,993,1163,0,0
-224,-139,0,0,0,0,0,0,0,0,0,-1,1000,1163,0,0
-217,-139,0,0,0,0,0,0,0,0,0,-1,1007,1163,0,0
-210,-139,0,0,0,0,0,0,0,0,0,-1,1014,1163,0,0
-203,-139,0,0,0,0,0,0,0,0,0,-1,1021,1163,0,0
-196,-139,0,0,0,0,0,0,0,0,0,-1,1028,1163,0,0
-189,-139,0,0,0,0,0,0,0,0,0,-1,1035,1163,0,0
-182,-139,0,0,0,0,0,0,0,0,0,-1,1042,1163,0,0
-175,-139,0,0,0,0,0,0,0,0,0,-1,1049,1163,0,0
-168,-139,0,0,0,0,0,0,0,0,0,-1,1056,1163,0,0
-161,-139,0,0,0,0,0,0,0,0,0,-1,1063,1163,0,0
-154,-139,0,0,0,0,0,0,0,0,0,-1,1070,1163,0,0
-147,-139,0,0,0,0,0,0,0,0,0,-1,1077,1163,0,0
-140,-139,0,0,0,0,0,0,0,0,0,-1,1084,1163,0,0
-133,-139,0,0,0,0,0,0,0,0,0,-1,1091,1163,0,0
-126,-139,0,0,0,0,0,0,0,0,0,-1,1098,1163,0,0
-119,-139,0,0,0,0,0,0,0,0,0,-1,1105,1163,0,0
-112,-139,0,0,0,0,0,0,0,0,0,-1,1112,1163,0,0
-105,-139,0,0,0,0,0,0,0,0,0,-1,1119,1163,0,0
-98,-139,0,0,0,0,0,0,0,0,0,-1,1126,1163,0,0
-91,-139,0,0,0,0,0,0,0,0,0,-1,1133,1163,0,0
-84,-139,0,0,0,0,0,0,0,0,0,-1,1140,1163,0,0
-77,-139,0,0,0,0,0,0,0,0,0,-1,1147,1163,0,0
-70,-139,0,0,0,0,0,0,0,0,0,-1,1154,1163,0,0
-63,-139,0,0,0,0,0,0,0,0,0,-1,1161,1163,0,0
-56,-139,0,0,0,0,0,0,0,0,0,-1,1168,1163,0,0
-49,-139,0,0,0,0,0,0,0,0,0,-1,1175,1163,0,0
-42,-139,0,0,0,0,0,0,0,0,0,-1,1182,1163,0,0
-35,-139,0,0,0,0,0,0,0,0,0,-1,1189,1163,0,0
-28,-139,0,0,0,0,0,0,0,0,0,-1,1196,1163,0,0
-21,-139,0,0,0,0,0,0,0,0,0,-1,1203,1163,0,0
-14,-139,0,0,0,0,0,0,0,0,0,-1,1210,1163,0,0
-7,-139,0,0,0,0,0,0,0,0,0,-1,1217,1163,0,0
0,-139,0,0,0,0,0,0,0,0,0,-1,1224,1163,0,0
7,-139,0,0,0,0,0,0,0,0,0,-1,1231,1163,0,0
14,-139,0,0,0,0,0,0,0,0,0,-1,1238,1163,0,0
21,-139,0,0,0,0,0,0,0,0,0,-1,1245,1163,0,0
28,-139,0,0,0,0,0,0,0,0,0,-1,1252,1163,0,0
35,-139,0,0,0,0,0,0,0,0,0,-1,1259,1163,0,0
42,-139,0,0,0,0,0,0,0,0,0,-1,1266,1163,0,0
49,-139,0,0,0,0,0,0,0,0,0,-1,1273,1163,0,0
56,-139,0,0,0,0,0,0,0,0,0,-1,1280,1163,0,0
63,-139,0,0,0,0,0,0,0,0,0,-1,1287,1163,0,0
70,-139,0,0,0,0,0,0,0,0,0,-1,1294,1163,0,0
77,-139,0,0,0,0,0,0,0,0,0,-1,1301,1163,0,0
84,-139,0,0,0,0,0,0,0,0,0,-1,1308,1163,0,0
91,-139,0,0,0,0,0,0,0,0,0,-1,1315,1163,0,0
98,-139,0,0,0,0,0,0,0,0,0,-1,1322,1163,0,0
105,-139,0,0,0,0,0,0,0,0,0,-1,1329,1163,0,0
112,-139,0,0,0,0,0,0,0,0,0,-1,1336,1163,0,0
119,-139,0,0,0,0,0,0,0,0,0,-1,1343,1163,0,0
126,-139,0,0,0,0,0,0,0,0,0,-1,1350,1163,0,0
133,-139,0,0,0,0,0,0,0,0,0,-1,1357,1163,0,0
140,-139,0,0,0,0,0,0,0,0,0,-1,1364,1163,0,0
147,-139,0,0,0,0,0,0,0,0,0,-1,1371,1163,0,0
154,-139,0,0,0,0,0,0,0,0,0,-1,1378,1163,0,0
161,-139,0,0,0,0,0,0,0,0,0,-1,1385,1163,0,0
168,-139,0,0,0,0,0,0,0,0,0,-1,1392,1163,0,0
175,-139,0,0,0,0,0,0,0,0,0,-1,1399,1163,0,0
182,-139,0,0,0,0,0,0,0,0,0,-1,1406,1163,0,0
189,-139,0,0,0,0,0,0,0,0,0,-1,1413,1163,0,0
196,-139,0,0,0,0,0,0,0,0,0,-1,1420,1163,0,0
203,-139,0,0,0,0,0,0,0,0,0,-1,1427,1163,0,0
210,-139,0,0,0,0,0,0,0,0,0,-1,1434,1163,0,0
217,-139,0,0,0,0,0,0,0,0,0,-1,1441,1163,0,0
224,-139,0,0,0,0,0,0,0,0,0,-1,1448,1163,0,0
231,-139,0,0,0,0,0,0,0,0,0,-1,1455,1163,0,0
238,-139,0,0,0,0,0,0,0,0,0,-1,1462,1163,0,0
245,-139,0,0,0,0,0,0,0,0,0,-1,1469,1163,0,0
252,-139,0,0,0,0,0,0,0,0,0,-1,1476,1163,0,0
259,-139,0,0,0,0,0,0,0,0,0,-1,1483,1163,0,0
266,-139,0,0,0,0,0,0,0,0,0,-1,1490,1163,0,0
273,-139,0,0,0,0,0,0,0,0,0,-1,1497,1163,0,0
280,-139,0,0,0,0,0,0,0,0,0,-1,1504,1163,0,0
287,-139,0,0,0,0,0,0,0,0,0,-1,1511,1163,0,0
294,-139,0,0,0,0,0,0,0,0,0,-1,1518,1163,0,0
301,-139,0,0,0,0,0,0,0,0,0,-1,1525,1163,0,0
308,-139,0,0,0,0,0,0,0,0,0,-1,1532,1163,0,0
315,-139,0,0,0,0,0,0,0,0,0,-1,1539,1163,0,0
322,-139,0,0,0,0,0,0,0,0,0,-1,1546,1163,0,0
329,-139,0,0,0,0,0,0,0,0,0,-1,1553,1163,0,0
336,-139,0,0,0,0,0,0,0,0,0,-1,1560,1163,0,0
343,-139,0,0,0,0,0,0,0,0,0,-1,1567,1163,0,0
350,-139,0,0,0,0,0,0,0,0,0,-1,1574,1163,0,0
357,-139,0,0,0,0,0,0,0,0,0,-1,1581,1163,0,0
364,-139,0,0,0,0,0,0,0,0,0,-1,1588,1163,0,0
371,-139,0,0,0,0,0,0,0,0,0,-1,1595,1163,0,0
378,-139,0,0,0,0,0,0,0,0,0,-1,1602,1163,0,0
385,-139,0,0,0,0,0,0,0,0,0,-1,1609,1163,0,0
392,-139,0,0,0,0,0,0,0,0,0,-1,1616,1163,0,0
399,-139,0,0,0,0,0,0,0,0,0,-1,1623,1163,0,0
406,-139,0,0,0,0,0,0,0,0,0,-1,1630,1163,0,0
413,-139,0,0,0,0,0,0,0,0,0,-1,1637,1163,0,0
420,-139,0,0,0,0,0,0,0,0,0,-1,1644,1163,0,0
427,-139,0,0,0,0,0,0,0,0,0,-1,1651,1163,0,0
434,-139,0,0,0,0,0,0,0,0,0,-1,1658,1163,0,0
441,-139,0,0,0,0,0,0,0,0,0,-1,1665,1163,0,0
448,-139,0,0,0,0,0,0,0,0,0,-1,1672,1163,0,0
455,-139,0,0,0,0,0,0,0,0,0,-1,1679,1163,0,0
462,-139,0,0,0,0,0,0,0,0,0,-1,1686,1163,0,0
469,-139,0,0,0,0,0,0,0,0,0,-1,1693,1163,0,0
476,-139,0,0,0,0,0,0,0,0,0,-1,1700,1163,0,0
483,-139,0,0,0,0,0,0,0,0,0,-1,1707,1163,0,0
490,-139,0,0,0,0,0,0,0,0,0,-1,1714,1163,0,0
497,-139,0,0,0,0,0,0,0,0,0,-1,1721,1163,0,0
504,-139,0,0,0,0,0,0,0,0,0,-1,1728,1163,0,0
511,-139,0,0,0,0,0,0,0,0,0,-1,1735,1163,0,0
518,-139,0,0,0,0,0,0,0,0,0,-1,1742,1163,0,0
525,-139,0,0,0,0,0,0,0,0,0,-1,1749,1163,0,0
532,-139,0,0,0,0,0,0,0,0,0,-1,1756,1163,0,0
539,-139,0,0,0,0,0,0,0,0,0,-1,1763,1163,0,0
546,-139,0,0,0,0,0,0,0,0,0,-1,1770,1163,0,0
553,-139,0,0,0,0,0,0,0,0,0,-1,1777,1163,0,0
560,-139,0,0,0,0,0,0,0,0,0,-1,1784,1163,0,0
567,-139,0,0,0,0,0,0,0,0,0,-1,1791,1163,0,0
574,-139,0,0,0,0,0,0,0,0,0,-1,1798,1163,0,0
581,-139,0,0,0,0,0,0,0,0,0,-1,1805,1163,0,0
588,-139,0,0,0,0,0,0,0,0,0,-1,1812,1163,0,0
595,-139,0,0,0,0,0,0,0,0,0,-1,1819,1163,0,0
602,-139,0,0,0,0,0,0,0,0,0,-1,1826,1163,0,0
609,-139,0,0,0,0,0,0,0,0,0,-1,1833,1163,0,0
616,-139,0,0,0,0,0,0,0,0,0,-1,1840,1163,0,0
623,-139,0,0,0,0,0,0,0,0,0,-1,1847,1163,0,0
630,-139,0,0,0,0,0,0,0,0,0,-1,1854,1163,0,0
637,-139,0,0,0,0,0,0,0,0,0,-1,1861,1163,0,0
644,-139,67.2173,2.50598,0.00214497,0.00226919,-0.00197759,0.00418564,0.000228512,-0.801096,0.00271746,0.0402299,1868,1163,67.2173,-2.50603
651,-139,67.0544,2.16479,0.00126962,0.00125633,-0.00147437,0.00273736,-0.000211407,-0.783146,0.0018993,0.0427789,1875,1163,67.0545,-2.16475
658,-139,67.0398,2.15833,0.00068249,0.000585965,-0.0011572,0.00179243,-0.000523975,-0.764557,0.00140262,0.0438729,1882,1163,67.0398,-2.15839
665,-139,67.1124,2.38367,0.000221824,0.000196426,-0.00102066,0.00122987,-0.000811616,-0.779177,0.00118687,0.0397018,1889,1163,67.1124,-2.38361
672,-139,67.0714,2.49109,-7.9437e-05,7.46653e-05,-0.00106642,0.00106681,-0.00107158,-0.821462,0.0012346,0.0370785,1896,1163,67.0714,-2.49111
679,-139,67.092,2.47485,-0.000114725,-3.3772e-05,-0.00117162,0.00109807,-0.00124657,-0.802665,0.00135459,0.0346016,1903,1163,67.092,-2.47485
686,-139,67.0153,2.4884,0.000447737,0.000344547,-0.00134952,0.00174665,-0.000954366,-0.766291,0.00158164,0.0337935,1910,1163,67.0152,-2.48841
693,-139,67.0209,2.37854,0.000702432,0.00036563,-0.00132011,0.00186484,-0.000796778,-0.721958,0.00157739,0.0221197,1917,1163,67.0208,-2.37852
700,-139,67.0649,2.24219,0,0,0,0,0,0,0,-1,1924,1163,67.0649,-2.24224
707,-139,32.116,6.54346,0,0,0,0,0,0,0,-1,1931,1163,32.116,-6.54343
714,-139,57.5105,9.52136,0,0,0,0,0,0,0,-1,1938,1163,57.5106,-9.52139
721,-139,57.5378,8.95654,0,0,0,0,0,0,0,-1,1945,1163,57.5378,-8.95658
728,-139,58.9594,8.84985,0,0,0,0,0,0,0,-1,1952,1163,58.9594,-8.84979
735,-139,58.829,8.16846,0.00148618,0.00114365,0.000248341,0.00161658,0.00101325,0.483534,0.000943284,0.0379944,1959,1163,58.829,-8.16842
742,-139,58.8893,7.40601,0.00143003,0.00108458,0.000721025,0.00199873,0.000515879,0.667836,0.00119814,0.0241069,1966,1163,58.8893,-7.40595
749,-139,58.8726,6.81067,0.000992287,0.00159372,0.00147453,0.00279789,-0.000211875,0.88599,0.00193974,0.0193019,1973,1163,58.8725,-6.81071
756,-139,58.8584,6.2655,0.0018549,0.0033233,0.00237128,0.00507144,0.000106764,0.935529,0.00334594,0.0112358,1980,1163,58.8584,-6.26548
763,-139,58.8187,5.69385,0.00427905,0.00594487,0.0032775,0.00849364,0.00173028,0.909829,0.00518285,0.0118408,1987,1163,58.8187,-5.6939
770,-139,58.8262,5.17468,0.00796046,0.00926059,0.00411049,0.0127721,0.00444895,0.863822,0.0074862,0.013551,1994,1163,58.8261,-5.17466
777,-139,58.8025,4.67163,0.0130313,0.0133286,0.00490862,0.0180908,0.00826907,0.800537,0.0104576,0.0282225,2001,1163,58.8024,-4.6716
784,-139,58.7917,4.17651,0.0199814,0.0183753,0.00570754,0.0249421,0.0134146,0.715511,0.0144141,0.0465279,2008,1163,58.7917,-4.17652
791,-139,58.8352,3.6637,0,0,0,0,0,0,0,-1,2015,1163,58.8351,-3.66373
798,-139,59.311,3.6864,0,0,0,0,0,0,0,-1,2022,1163,59.3109,-3.68636
805,-139,60.2075,4.38367,0,0,0,0,0,0,0,-1,2029,1163,60.2076,-4.38368
812,-139,0,0,0,0,0,0,0,0,0,-1,2036,1163,0,0
-700,-146,0,0,0,0,0,0,0,0,0,-1,524,1170,0,0
-693,-146,-46.602,0.539673,0,0,0,0,0,0,0,-1,531,1170,-46.602,-0.539717
-686,-146,-46.2112,1.47754,0,0,0,0,0,0,0,-1,538,1170,-46.2112,-1.47753
-679,-146,-44.6454,-1.4231,0,0,0,0,0,0,0,-1,545,1170,-44.6454,1.42313
-672,-146,-44.1602,-0.568115,0.140615,0.0141269,-0.0784101,0.178108,-0.0233662,-0.446028,0.127245,0.0441868,552,1170,-44.1602,0.568161
-665,-146,-43.6409,0.0777588,0.111269,0.0127125,-0.0647961,0.143396,-0.019415,-0.460301,0.102683,0.0430571,559,1170,-43.6409,-0.0778018
-658,-146,-43.222,0.685913,0,0,0,0,0,0,0,-1,566,1170,-43.222,-0.685928
-651,-146,-43.0687,1.54724,0.060872,0.00909193,-0.0391501,0.0819184,-0.0119544,-0.493258,0.0590021,0.0444842,573,1170,-43.0687,-1.54727
-644,-146,-42.8374,2.42346,0.0402136,0.00708639,-0.0278081,0.0560174,-0.00871734,-0.516795,0.0405641,0.0256247,580,1170,-42.8374,-2.42344
-637,-146,-42.92,3.05396,0.0227107,0.00521134,-0.018197,0.0341523,-0.00623026,-0.561301,0.025104,0.0120774,587,1170,-42.92,-3.05397
-630,-146,-42.9601,3.66992,0.00836225,0.00320505,-0.0094807,0.0156088,-0.00404147,-0.652618,0.0119824,0.0099815,594,1170,-42.9601,-3.66991
-623,-146,-42.9957,4.25659,-0.00105361,0.00134716,-0.00300522,0.00338286,-0.00308931,-0.975408,0.00373799,0.0126634,601,1170,-42.9957,-4.25661
-616,-146,-43.0734,4.90308,-0.00336488,-4.03908e-05,-0.000630449,7.51504e-05,-0.00348043,-1.38954,0.00234573,0.0200442,608,1170,-43.0734,-4.90303
-609,-146,-43.1401,5.55896,0,0,0,0,0,0,0,-1,615,1170,-43.1401,-5.55892
-602,-146,-42.9365,6.17114,0,0,0,0,0,0,0,-1,622,1170,-42.9365,-6.1711
-595,-146,-43.1181,6.81396,0,0,0,0,0,0,0,-1,629,1170,-43.1181,-6.81395
-588,-146,-43.4948,7.37219,0,0,0,0,0,0,0,-1,636,1170,-43.4948,-7.3722
-581,-146,-31.7815,6.30347,0,0,0,0,0,0,0,-1,643,1170,-31.7815,-6.3035
-574,-146,-17.9915,3.79114,0,0,0,0,0,0,0,-1,650,1170,-17.9915,-3.79118
-567,-146,-44.4572,0.6604,0,0,0,0,0,0,0,-1,657,1170,-44.4572,-0.660404
-560,-146,-51.6248,0.576782,0,0,0,0,0,0,0,-1,664,1170,-51.6248,-0.576812
-553,-146,-51.4626,0.515015,-0.000379632,-0.000594618,-0.000211713,-0.000249686,-0.000724564,-0.550492,0.000425008,0.0383879,671,1170,-51.4627,-0.514986
-546,-146,-51.54,0.576294,-0.000669984,-0.00040454,8.73457e-05,-0.000378377,-0.000696147,1.27977,0.000402428,0.0430339,678,1170,-51.54,-0.576348
-539,-146,-51.6862,0.379395,0.000557127,-0.000935543,2.0135e-05,0.000557399,-0.000935814,0.013486,0.000871286,0.0425626,685,1170,-51.6862,-0.379351
-532,-146,-51.8026,0.109497,0.00298992,-0.0021883,-5.89288e-05,0.00299059,-0.00218897,-0.0113782,0.00300233,0.0395621,692,1170,-51.8026,-0.109459
-525,-146,-51.6871,0.255005,0.0057158,-0.0039912,-0.000132997,0.00571762,-0.00399302,-0.0136977,0.00563584,0.0413724,699,1170,-51.6871,-0.255004
-518,-146,0,0,0,0,0,0,0,0,0,-1,706,1170,0,0
-511,-146,0,0,0,0,0,0,0,0,0,-1,713,1170,0,0
-504,-146,0,0,0,0,0,0,0,0,0,-1,720,1170,0,0
-497,-146,0,0,0,0,0,0,0,0,0,-1,727,1170,0,0
-490,-146,0,0,0,0,0,0,0,0,0,-1,734,1170,0,0
-483,-146,0,0,0,0,0,0,0,0,0,-1,741,1170,0,0
-476,-146,0,0,0,0,0,0,0,0,0,-1,748,1170,0,0
-469,-146,0,0,0,0,0,0,0,0,0,-1,755,1170,0,0
-462,-146,0,0,0,0,0,0,0,0,0,-1,762,1170,0,0
-455,-146,0,0,0,0,0,0,0,0,0,-1,769,1170,0,0
-448,-146,0,0,0,0,0,0,0,0,0,-1,776,1170,0,0
-441,-146,0,0,0,0,0,0,0,0,0,-1,783,1170,0,0
-434,-146,0,0,0,0,0,0,0,0,0,-1,790,1170,0,0
-427,-146,0,0,0,0,0,0,0,0,0,-1,797,1170,0,0
-420,-146,0,0,0,0,0,0,0,0,0,-1,804,1170,0,0
-413,-146,0,0,0,0,0,0,0,0,0,-1,811,1170,0,0
-406,-146,0,0,0,0,0,0,0,0,0,-1,818,1170,0,0
-399,-146,0,0,0,0,0,0,0,0,0,-1,825,1170,0,0
-392,-146,0,0,0,0,0,0,0,0,0,-1,832,1170,0,0
-385,-146,0,0,0,0,0,0,0,0,0,-1,839,1170,0,0
-378,-146,0,0,0,0,0,0,0,0,0,-1,846,1170,0,0
-371,-146,0,0,0,0,0,0,0,0,0,-1,853,1170,0,0
-364,-146,0,0,0,0,0,0,0,0,0,-1,860,1170,0,0
-357,-146,0,0,0,0,0,0,0,0,0,-1,867,1170,0,0
-350,-146,0,0,0,0,0,0,0,0,0,-1,874,1170,0,0
-343,-146,0,0,0,0,0,0,0,0,0,-1,881,1170,0,0
-336,-146,0,0,0,0,0,0,0,0,0,-1,888,1170,0,0
-329,-146,0,0,0,0,0,0,0,0,0,-1,895,1170,0,0
-322,-146,0,0,0,0,0,0,0,0,0,-1,902,1170,0,0
-315,-146,0,0,0,0,0,0,0,0,0,-1,909,1170,0,0
-308,-146,0,0,0,0,0,0,0,0,0,-1,916,1170,0,0
-301,-146,0,0,0,0,0,0,0,0,0,-1,923,1170,0,0
-294,-146,0,0,0,0,0,0,0,0,0,-1,930,1170,0,0
-287,-146,0,0,0,0,0,0,0,0,0,-1,937,1170,0,0
-280,-146,0,0,0,0,0,0,0,0,0,-1,944,1170,0,0
-273,-146,0,0,0,0,0,0,0,0,0,-1,951,1170,0,0
-266,-146,0,0,0,0,0,0,0,0,0,-1,958,1170,0,0
-259,-146,0,0,0,0,0,0,0,0,0,-1,965,1170,0,0
-252,-146,0,0,0,0,0,0,0,0,0,-1,972,1170,0,0
-245,-146,0,0,0,0,0,0,0,0,0,-1,979,1170,0,0
-238,-146,0,0,0,0,0,0,0,0,0,-1,986,1170,0,0
-231,-146,0,0,0,0,0,0,0,0,0,-1,993,1170,0,0
-224,-146,0,0,0,0,0,0,0,0,0,-1,1000,1170,0,0
-217,-146,0,0,0,0,0,0,0,0,0,-1,1007,1170,0,0
-210,-146,0,0,0,0,0,0,0,0,0,-1,1014,1170,0,0
-203,-146,0,0,0,0,0,0,0,0,0,-1,1021,1170,0,0
-196,-146,0,0,0,0,0,0,0,0,0,-1,1028,1170,0,0
-189,-146,0,0,0,0,0,0,0,0,0,-1,1035,1170,0,0
-182,-146,0,0,0,0,0,0,0,0,0,-1,1042,1170,0,0
-175,-146,0,0,0,0,0,0,0,0,0,-1,1049,1170,0,0
-168,-146,0,0,0,0,0,0,0,0,0,-1,1056,1170,0,0
-161,-146,0,0,0,0,0,0,0,0,0,-1,1063,1170,0,0
-154,-146,0,0,0,0,0,0,0,0,0,-1,1070,1170,0,0
-147,-146,0,0,0,0,0,0,0,0,0,-1,1077,1170,0,0
-140,-146,0,0,0,0,0,0,0,0,0,-1,1084,1170,0,0
-133,-146,0,0,0,0,0,0,0,0,0,-1,1091,1170,0,0
-126,-146,0,0,0,0,0,0,0,0,0,-1,1098,1170,0,0
-119,-146,0,0,0,0,0,0,0,0,0,-1,1105,1170,0,0
-112,-146,0,0,0,0,0,0,0,0,0,-1,1112,1170,0,0
-105,-146,0,0,0,0,0,0,0,0,0,-1,1119,1170,0,0
-98,-146,0,0,0,0,0,0,0,0,0,-1,1126,1170,0,0
-91,-146,0,0,0,0,0,0,0,0,0,-1,1133,1170,0,0
-84,-146,0,0,0,0,0,0,0,0,0,-1,1140,1170,0,0
-77,-146,0,0,0,0,0,0,0,0,0,-1,1147,1170,0,0
-70,-146,0,0,0,0,0,0,0,0,0,-1,1154,1170,0,0
-63,-146,0,0,0,0,0,0,0,0,0,-1,1161,1170,0,0
-56,-146,0,0,0,0,0,0,0,0,0,-1,1168,1170,0,0
-49,-146,0,0,0,0,0,0,0,0,0,-1,1175,1170,0,0
-42,-146,0,0,0,0,0,0,0,0,0,-1,1182,1170,0,0
-35,-146,0,0,0,0,0,0,0,0,0,-1,1189,1170,0,0
-28,-146,0,0,0,0,0,0,0,0,0,-1,1196,1170,0,0
-21,-146,0,0,0,0,0,0,0,0,0,-1,1203,1170,0,0
-14,-146,0,0,0,0,0,0,0,0,0,-1,1210,1170,0,0
-7,-146,0,0,0,0,0,0,0,0,0,-1,1217,1170,0,0
0,-146,0,0,0,0,0,0,0,0,0,-1,1224,1170,0,0
7,-146,0,0,0,0,0,0,0,0,0,-1,1231,1170,0,0
14,-146,0,0,0,0,0,0,0,0,0,-1,1238,1170,0,0
21,-146,0,0,0,0,0,0,0,0,0,-1,1245,1170,0,0
28,-146,0,0,0,0,0,0,0,0,0,-1,1252,1170,0,0
35,-146,0,0,0,0,0,0,0,0,0,-1,1259,1170,0,0
42,-146,0,0,0,0,0,0,0,0,0,-1,1266,1170,0,0
49,-146,0,0,0,0,0,0,0,0,0,-1,1273,1170,0,0
56,-146,0,0,0,0,0,0,0,0,0,-1,1280,1170,0,0
63,-146,0,0,0,0,0,0,0,0,0,-1,1287,1170,0,0
70,-146,0,0,0,0,0,0,0,0,0,-1,1294,1170,0,0
77,-146,0,0,0,0,0,0,0,0,0,-1,1301,1170,0,0
84,-146,0,0,0,0,0,0,0,0,0,-1,1308,1170,0,0
91,-146,0,0,0,0,0,0,0,0,0,-1,1315,1170,0,0
98,-146,0,0,0,0,0,0,0,0,0,-1,1322,1170,0,0
105,-146,0,0,0,0,0,0,0,0,0,-1,1329,1170,0,0
112,-146,0,0,0,0,0,0,0,0,0,-1,1336,1170,0,0
119,-146,0,0,0,0,0,0,0,0,0,-1,1343,1170,0,0
126,-146,0,0,0,0,0,0,0,0,0,-1,1350,1170,0,0
133,-146,0,0,0,0,0,0,0,0,0,-1,1357,1170,0,0
140,-146,0,0,0,0,0,0,0,0,0,-1,1364,1170,0,0
147,-146,0,0,0,0,0,0,0,0,0,-1,1371,1170,0,0
154,-146,0,0,0,0,0,0,0,0,0,-1,1378,1170,0,0
161,-146,0,0,0,0,0,0,0,0,0,-1,1385,1170,0,0
168,-146,0,0,0,0,0,0,0,0,0,-1,1392,1170,0,0
175,-146,0,0,0,0,0,0,0,0,0,-1,1399,1170,0,0
182,-146,0,0,0,0,0,0,0,0,0,-1,1406,1170,0,0
189,-146,0,0,0,0,0,0,0,0,0,-1,1413,1170,0,0
196,-146,0,0,0,0,0,0,0,0,0,-1,1420,1170,0,0
203,-146,0,0,0,0,0,0,0,0,0,-1,1427,1170,0,0
210,-146,0,0,0,0,0,0,0,0,0,-1,1434,1170,0,0
217,-146,0,0,0,0,0,0,0,0,0,-1,1441,1170,0,0
224,-146,0,0,0,0,0,0,0,0,0,-1,1448,1170,0,0
231,-146,0,0,0,0,0,0,0,0,0,-1,1455,1170,0,0
238,-146,0,0,0,0,0,0,0,0,0,-1,1462,1170,0,0
245,-146,0,0,0,0,0,0,0,0,0,-1,1469,1170,0,0
252,-146,0,0,0,0,0,0,0,0,0,-1,1476,1170,0,0
259,-146,0,0,0,0,0,0,0,0,0,-1,1483,1170,0,0
266,-146,0,0,0,0,0,0,0,0,0,-1,1490,1170,0,0
273,-146,0,0,0,0,0,0,0,0,0,-1,1497,1170,0,0
280,-146,0,0,0,0,0,0,0,0,0,-1,1504,1170,0,0
287,-146,0,0,0,0,0,0,0,0,0,-1,1511,1170,0,0
294,-146,0,0,0,0,0,0,0,0,0,-1,1518,1170,0,0
301,-146,0,0,0,0,0,0,0,0,0,-1,1525,1170,0,0
308,-146,0,0,0,0,0,0,0,0,0,-1,1532,1170,0,0
315,-146,0,0,0,0,0,0,0,0,0,-1,1539,1170,0,0
322,-146,0,0,0,0,0,0,0,0,0,-1,1546,1170,0,0
329,-146,0,0,0,0,0,0,0,0,0,-1,1553,1170,0,0
336,-146,0,0,0,0,0,0,0,0,0,-1,1560,1170,0,0
343,-146,0,0,0,0,0,0,0,0,0,-1,1567,1170,0,0
350,-146,0,0,0,0,0,0,0,0,0,-1,1574,1170,0,0
357,-146,0,0,0,0,0,0,0,0,0,-1,1581,1170,0,0
364,-146,0,0,0,0,0,0,0,0,0,-1,1588,1170,0,0
371,-146,0,0,0,0,0,0,0,0,0,-1,1595,1170,0,0
378,-146,0,0,0,0,0,0,0,0,0,-1,1602,1170,0,0
385,-146,0,0,0,0,0,0,0,0,0,-1,1609,1170,0,0
392,-146,0,0,0,0,0,0,0,0,0,-1,1616,1170,0,0
399,-146,0,0,0,0,0,0,0,0,0,-1,1623,1170,0,0
406,-146,0,0,0,0,0,0,0,0,0,-1,1630,1170,0,0
413,-146,0,0,0,0,0,0,0,0,0,-1,1637,1170,0,0
420,-146,0,0,0,0,0,0,0,0,0,-1,1644,1170,0,0
427,-146,0,0,0,0,0,0,0,0,0,-1,1651,1170,0,0
434,-146,0,0,0,0,0,0,0,0,0,-1,1658,1170,0,0
441,-146,0,0,0,0,0,0,0,0,0,-1,1665,1170,0,0
448,-146,0,0,0,0,0,0,0,0,0,-1,1672,1170,0,0
455,-146,0,0,0,0,0,0,0,0,0,-1,1679,1170,0,0
462,-146,0,0,0,0,0,0,0,0,0,-1,1686,1170,0,0
469,-146,0,0,0,0,0,0,0,0,0,-1,1693,1170,0,0
476,-146,0,0,0,0,0,0,0,0,0,-1,1700,1170,0,0
483,-146,0,0,0,0,0,0,0,0,0,-1,1707,1170,0,0
490,-146,0,0,0,0,0,0,0,0,0,-1,1714,1170,0,0
497,-146,0,0,0,0,0,0,0,0,0,-1,1721,1170,0,0
504,-146,0,0,0,0,0,0,0,0,0,-1,1728,1170,0,0
511,-146,0,0,0,0,0,0,0,0,0,-1,1735,1170,0,0
518,-146,0,0,0,0,0,0,0,0,0,-1,1742,1170,0,0
525,-146,0,0,0,0,0,0,0,0,0,-1,1749,1170,0,0
532,-146,0,0,0,0,0,0,0,0,0,-1,1756,1170,0,0
539,-146,0,0,0,0,0,0,0,0,0,-1,1763,1170,0,0
546,-146,0,0,0,0,0,0,0,0,0,-1,1770,1170,0,0
553,-146,0,0,0,0,0,0,0,0,0,-1,1777,1170,0,0
560,-146,0,0,0,0,0,0,0,0,0,-1,1784,1170,0,0
567,-146,0,0,0,0,0,0,0,0,0,-1,1791,1170,0,0
574,-146,0,0,0,0,0,0,0,0,0,-1,1798,1170,0,0
581,-146,0,0,0,0,0,0,0,0,0,-1,1805,1170,0,0
588,-146,0,0,0,0,0,0,0,0,0,-1,1812,1170,0,0
595,-146,0,0,0,0,0,0,0,0,0,-1,1819,1170,0,0
602,-146,0,0,0,0,0,0,0,0,0,-1,1826,1170,0,0
609,-146,0,0,0,0,0,0,0,0,0,-1,1833,1170,0,0
616,-146,0,0,0,0,0,0,0,0,0,-1,1840,1170,0,0
623,-146,0,0,0,0,0,0,0,0,0,-1,1847,1170,0,0
630,-146,0,0,0,0,0,0,0,0,0,-1,1854,1170,0,0
637,-146,67.0941,2.39111,0.00342261,0.00417976,-0.00223634,0.00606934,0.00153303,-0.869245,0.00364433,0.0406213,1861,1170,67.0941,-2.39108
644,-146,67.2278,2.26086,0.00214711,0.00248762,-0.00142214,0.00374966,0.000885067,-0.844972,0.00226319,0.0400199,1868,1170,67.2278,-2.26091
651,-146,67.0986,2.0752,0.00125637,0.00146469,-0.00106861,0.00243421,0.000286853,-0.833979,0.00153614,0.0375467,1875,1170,67.0987,-2.07515
658,-146,67.1106,2.20105,0.000621948,0.000793,-0.000910903,0.00162238,-0.000207435,-0.832207,0.00115695,0.041193,1882,1170,67.1106,-2.20108
665,-146,67.1378,2.52087,0.000119012,0.000425161,-0.000947431,0.0012318,-0.000687631,-0.86549,0.00112293,0.0420869,1889,1170,67.1378,-2.52088
672,-146,67.0978,2.62329,-0.000192129,0.000304936,-0.00118483,0.00126702,-0.00115421,-0.888781,0.0013984,0.0399223,1896,1170,67.0977,-2.62328
679,-146,67.0762,2.44702,-0.000121946,0.000184255,-0.00142148,0.00146086,-0.00139855,-0.839044,0.00165101,0.0318932,1903,1170,67.0761,-2.44704
686,-146,66.9712,2.32593,0.000550527,0.000646465,-0.00159681,0.00219602,-0.00099903,-0.800414,0.00188732,0.0242082,1910,1170,66.9712,-2.32587
693,-146,67.0133,2.26257,0.000779907,0.000622441,-0.00148716,0.00219041,-0.000788065,-0.758952,0.00178203,0.0179146,1917,1170,67.0133,-2.26252
700,-146,67.0431,2.10535,0,0,0,0,0,0,0,-1,1924,1170,67.0431,-2.1054
707,-146,29.9441,6.94653,0,0,0,0,0,0,0,-1,1931,1170,29.9441,-6.94652
714,-146,31.325,6.13245,0,0,0,0,0,0,0,-1,1938,1170,31.325,-6.1325
721,-146,56.8199,8.9541,0,0,0,0,0,0,0,-1,1945,1170,56.82,-8.95414
728,-146,58.332,8.23352,0,0,0,0,0,0,0,-1,1952,1170,58.3321,-8.23349
735,-146,58.2834,8.01172,0.00159765,0.0011375,0.000135884,0.00163478,0.00110037,0.266742,0.000962509,0.0403376,1959,1170,58.2835,-8.01176
742,-146,58.3876,7.37524,0.00150525,0.000937422,0.00068434,0.00196223,0.000480438,0.588769,0.00118104,0.0186231,1966,1170,58.3876,-7.37522
749,-146,58.2981,6.86731,0.00103536,0.00142217,0.00148466,0.00272597,-0.000268439,0.850169,0.00191308,0.0170665,1973,1170,58.2981,-6.86727
756,-146,58.2738,6.28113,0.00195041,0.00331129,0.00217121,0.00490618,0.000355512,0.937247,0.00315896,0.0127501,1980,1170,58.2738,-6.28108
763,-146,58.214,5.69971,0.00434849,0.0061843,0.00271717,0.00813442,0.00239837,0.948288,0.00482639,0.0123815,1987,1170,58.214,-5.69965
770,-146,58.1941,5.14795,0.00791213,0.00985645,0.00309096,0.0121245,0.00564406,0.937759,0.00700565,0.0142028,1994,1170,58.1941,-5.1479
777,-146,58.2219,4.6698,0.012778,0.014437,0.00330834,0.0170183,0.0101968,0.908231,0.00988971,0.0270672,2001,1170,58.2218,-4.66977
784,-146,58.2644,4.17358,0.0193858,0.0201773,0.00337518,0.0231799,0.0163833,0.843754,0.0137591,0.0464195,2008,1170,58.2645,-4.17364
791,-146,58.3867,3.66321,0,0,0,0,0,0,0,-1,2015,1170,58.3868,-3.6632
798,-146,59.1536,3.50916,0.0411949,0.0375727,0.00317734,0.043041,0.0357265,0.526365,0.0265933,0.0464598,2022,1170,59.1536,-3.50912
805,-146,59.8342,3.76416,0.0582934,0.0499718,0.00354766,0.0596005,0.0486647,0.353013,0.0366366,0.0445479,2029,1170,59.8343,-3.7642
812,-146,0,0,0,0,0,0,0,0,0,-1,2036,1170,0,0
-700,-153,0,0,0,0,0,0,0,0,0,-1,524,1177,0,0
-693,-153,0,0,0,0,0,0,0,0,0,-1,531,1177,0,0
-686,-153,-46.3009,1.52832,0,0,0,0,0,0,0,-1,538,1177,-46.3009,-1.52826
-679,-153,-43.2092,-1.62561,0,0,0,0,0,0,0,-1,545,1177,-43.2092,1.62563
-672,-153,-42.6732,-0.668335,0.154135,0.0214248,-0.0934206,0.202368,-0.0268081,-0.476601,0.144678,0.0473886,552,1177,-42.6732,0.66839
-665,-153,-41.9064,0.0267334,0.121813,0.0184388,-0.0764598,0.162417,-0.0221651,-0.488177,0.116372,0.0463151,559,1177,-41.9063,-0.0267389
-658,-153,-41.8821,1.28162,0,0,0,0,0,0,0,-1,566,1177,-41.8821,-1.28167
-651,-153,-42.0369,1.85803,0.0668819,0.0122152,-0.0455882,0.092703,-0.0136059,-0.515346,0.0668008,0.0498135,573,1177,-42.0369,-1.85802
-644,-153,-42.1513,2.41711,0.044313,0.00914743,-0.0321441,0.063369,-0.00990853,-0.53513,0.0459067,0.0302333,580,1177,-42.1513,-2.41714
-637,-153,-42.251,3.06934,0.0253108,0.00641264,-0.0208309,0.0387355,-0.00701205,-0.572472,0.0284506,0.0123423,587,1177,-42.251,-3.0693
-630,-153,-42.304,3.69116,0.00960182,0.00372111,-0.0107742,0.0178297,-0.00450675,-0.652188,0.0136392,0.00998802,594,1177,-42.304,-3.69117
-623,-153,-42.3474,4.31201,-0.000869468,0.00144868,-0.00339537,0.00387736,-0.00329815,-0.949881,0.00414728,0.0115414,601,1177,-42.3474,-4.31197
-616,-153,-42.392,4.93286,-0.00408069,-8.16644e-05,-0.000448,-3.20908e-05,-0.00413026,-1.46059,0.00274288,0.0154167,608,1177,-42.392,-4.93292
-609,-153,-42.4353,5.51184,-0.00136271,0.000136504,-0.00227957,0.00178655,-0.00301276,-0.944248,0.00280086,0.0381539,615,1177,-42.4353,-5.51179
-602,-153,-42.444,5.92798,0,0,0,0,0,0,0,-1,622,1177,-42.4439,-5.92796
-595,-153,-42.46,6.94617,0,0,0,0,0,0,0,-1,629,1177,-42.46,-6.94617
-588,-153,-32.348,5.51038,0,0,0,0,0,0,0,-1,636,1177,-32.348,-5.51034
-581,-153,-33.4568,6.41492,0,0,0,0,0,0,0,-1,643,1177,-33.4568,-6.41497
-574,-153,-25.4814,5.16956,0,0,0,0,0,0,0,-1,650,1177,-25.4814,-5.16961
-567,-153,-35.3121,1.09485,0,0,0,0,0,0,0,-1,657,1177,-35.3121,-1.09482
-560,-153,-51.5085,0.494263,0,0,0,0,0,0,0,-1,664,1177,-51.5085,-0.49431
-553,-153,-51.5313,0.490845,-0.00187669,0.000110341,-0.000417566,0.000194524,-0.00196088,-1.37186,0.00137668,0.0383587,671,1177,-51.5313,-0.490879
-546,-153,-51.6298,0.450562,-0.00195359,0.000193176,-7.27691e-05,0.000195639,-0.00195605,-1.53695,0.0013739,0.0411169,678,1177,-51.6297,-0.450502
-539,-153,-51.8195,0.0915527,-0.00017183,-0.000610812,9.6127e-06,-0.00017162,-0.000611022,0.0218837,0.000363891,0.0407424,685,1177,-51.8195,-0.0915544
-532,-153,-51.843,-0.194092,0.00301109,-0.00242866,0.000104349,0.00301309,-0.00243066,0.0191732,0.00314894,0.0410649,692,1177,-51.843,0.19408
-525,-153,-51.6568,0.0754395,0.00650179,-0.00484555,0.00023721,0.00650675,-0.00485051,0.0208922,0.00658032,0.0410966,699,1177,-51.6568,-0.075402
-518,-153,0,0,0,0,0,0,0,0,0,-1,706,1177,0,0
-511,-153,0,0,0,0,0,0,0,0,0,-1,713,1177,0,0
-504,-153,0,0,0,0,0,0,0,0,0,-1,720,1177,0,0
-497,-153,0,0,0,0,0,0,0,0,0,-1,727,1177,0,0
-490,-153,0,0,0,0,0,0,0,0,0,-1,734,1177,0,0
-483,-153,0,0,0,0,0,0,0,0,0,-1,741,1177,0,0
-476,-153,0,0,0,0,0,0,0,0,0,-1,748,1177,0,0
-469,-153,0,0,0,0,0,0,0,0,0,-1,755,1177,0,0
-462,-153,0,0,0,0,0,0,0,0,0,-1,762,1177,0,0
-455,-153,0,0,0,0,0,0,0,0,0,-1,769,1177,0,0
-448,-153,0,0,0,0,0,0,0,0,0,-1,776,1177,0,0
-441,-153,0,0,0,0,0,0,0,0,0,-1,783,1177,0,0
-434,-153,0,0,0,0,0,0,0,0,0,-1,790,1177,0,0
-427,-153,0,0,0,0,0,0,0,0,0,-1,797,1177,0,0
-420,-153,0,0,0,0,0,0,0,0,0,-1,804,1177,0,0
-413,-153,0,0,0,0,0,0,0,0,0,-1,811,1177,0,0
-406,-153,0,0,0,0,0,0,0,0,0,-1,818,1177,0,0
-399,-153,0,0,0,0,0,0,0,0,0,-1,825,1177,0,0
-392,-153,0,0,0,0,0,0,0,0,0,-1,832,1177,0,0
-385,-153,0,0,0,0,0,0,0,0,0,-1,839,1177,0,0
-378,-153,0,0,0,0,0,0,0,0,0,-1,846,1177,0,0
-371,-153,0,0,0,0,0,0,0,0,0,-1,853,1177,0,0
-364,-153,0,0,0,0,0,0,0,0,0,-1,860,1177,0,0
-357,-153,0,0,0,0,0,0,0,0,0,-1,867,1177,0,0
-350,-153,0,0,0,0,0,0,0,0,0,-1,874,1177,0,0
-343,-153,0,0,0,0,0,0,0,0,0,-1,881,1177,0,0
-336,-153,0,0,0,0,0,0,0,0,0,-1,888,1177,0,0
-329,-153,0,0,0,0,0,0,0,0,0,-1,895,1177,0,0
-322,-153,0,0,0,0,0,0,0,0,0,-1,902,1177,0,0
-315,-153,0,0,0,0,0,0,0,0,0,-1,909,1177,0,0
-308,-153,0,0,0,0,0,0,0,0,0,-1,916,1177,0,0
-301,-153,0,0,0,0,0,0,0,0,0,-1,923,1177,0,0
-294,-153,0,0,0,0,0,0,0,0,0,-1,930,1177,0,0
-287,-153,0,0,0,0,0,0,0,0,0,-1,937,1177,0,0
-280,-153,0,0,0,0,0,0,0,0,0,-1,944,1177,0,0
-273,-153,0,0,0,0,0,0,0,0,0,-1,951,1177,0,0
-266,-153,0,0,0,0,0,0,0,0,0,-1,958,1177,0,0
-259,-153,0,0,0,0,0,0,0,0,0,-1,965,1177,0,0
-252,-153,0,0,0,0,0,0,0,0,0,-1,972,1177,0,0
-245,-153,0,0,0,0,0,0,0,0,0,-1,979,1177,0,0
-238,-153,0,0,0,0,0,0,0,0,0,-1,986,1177,0,0
-231,-153,0,0,0,0,0,0,0,0,0,-1,993,1177,0,0
-224,-153,0,0,0,0,0,0,0,0,0,-1,1000,1177,0,0
-217,-153,0,0,0,0,0,0,0,0,0,-1,1007,1177,0,0
-210,-153,0,0,0,0,0,0,0,0,0,-1,1014,1177,0,0
-203,-153,0,0,0,0,0,0,0,0,0,-1,1021,1177,0,0
-196,-153,0,0,0,0,0,0,0,0,0,-1,1028,1177,0,0
-189,-153,0,0,0,0,0,0,0,0,0,-1,1035,1177,0,0
-182,-153,0,0,0,0,0,0,0,0,0,-1,1042,1177,0,0
-175,-153,0,0,0,0,0,0,0,0,0,-1,1049,1177,0,0
-168,-153,0,0,0,0,0,0,0,0,0,-1,1056,1177,0,0
-161,-153,0,0,0,0,0,0,0,0,0,-1,1063,1177,0,0
-154,-153,0,0,0,0,0,0,0,0,0,-1,1070,1177,0,0
-147,-153,0,0,0,0,0,0,0,0,0,-1,1077,1177,0,0
-140,-153,0,0,0,0,0,0,0,0,0,-1,1084,1177,0,0
-133,-153,0,0,0,0,0,0,0,0,0,-1,1091,1177,0,0
-126,-153,0,0,0,0,0,0,0,0,0,-1,1098,1177,0,0
-119,-153,0,0,0,0,0,0,0,0,0,-1,1105,1177,0,0
-112,-153,0,0,0,0,0,0,0,0,0,-1,1112,1177,0,0
-105,-153,0,0,0,0,0,0,0,0,0,-1,1119,1177,0,0
-98,-153,0,0,0,0,0,0,0,0,0,-1,1126,1177,0,0
-91,-153,0,0,0,0,0,0,0,0,0,-1,1133,1177,0,0
-84,-153,0,0,0,0,0,0,0,0,0,-1,1140,1177,0,0
-77,-153,0,0,0,0,0,0,0,0,0,-1,1147,1177,0,0
-70,-153,0,0,0,0,0,0,0,0,0,-1,1154,1177,0,0
-63,-153,0,0,0,0,0,0,0,0,0,-1,1161,1177,0,0
-56,-153,0,0,0,0,0,0,0,0,0,-1,1168,1177,0,0
-49,-153,0,0,0,0,0,0,0,0,0,-1,1175,1177,0,0
-42,-153,0,0,0,0,0,0,0,0,0,-1,1182,1177,0,0
-35,-153,0,0,0,0,0,0,0,0,0,-1,1189,1177,0,0
-28,-153,0,0,0,0,0,0,0,0,0,-1,1196,1177,0,0
-21,-153,0,0,0,0,0,0,0,0,0,-1,1203,1177,0,0
-14,-153,0,0,0,0,0,0,0,0,0,-1,1210,1177,0,0
-7,-153,0,0,0,0,0,0,0,0,0,-1,1217,1177,0,0
0,-153,0,0,0,0,0,0,0,0,0,-1,1224,1177,0,0
7,-153,0,0,0,0,0,0,0,0,0,-1,1231,1177,0,0
14,-153,0,0,0,0,0,0,0,0,0,-1,1238,1177,0,0
21,-153,0,0,0,0,0,0,0,0,0,-1,1245,1177,0,0
28,-153,0,0,0,0,0,0,0,0,0,-1,1252,1177,0,0
35,-153,0,0,0,0,0,0,0,0,0,-1,1259,1177,0,0
42,-153,0,0,0,0,0,0,0,0,0,-1,1266,1177,0,0
49,-153,0,0,0,0,0,0,0,0,0,-1,1273,1177,0,0
56,-153,0,0,0,0,0,0,0,0,0,-1,1280,1177,0,0
63,-153,0,0,0,0,0,0,0,0,0,-1,1287,1177,0,0
70,-153,0,0,0,0,0,0,0,0,0,-1,1294,1177,0,0
77,-153,0,0,0,0,0,0,0,0,0,-1,1301,1177,0,0
84,-153,0,0,0,0,0,0,0,0,0,-1,1308,1177,0,0
91,-153,0,0,0,0,0,0,0,0,0,-1,1315,1177,0,0
98,-153,0,0,0,0,0,0,0,0,0,-1,1322,1177,0,0
105,-153,0,0,0,0,0,0,0,0,0,-1,1329,1177,0,0
112,-153,0,0,0,0,0,0,0,0,0,-1,1336,1177,0,0
119,-153,0,0,0,0,0,0,0,0,0,-1,1343,1177,0,0
126,-153,0,0,0,0,0,0,0,0,0,-1,1350,1177,0,0
133,-153,0,0,0,0,0,0,0,0,0,-1,1357,1177,0,0
140,-153,0,0,0,0,0,0,0,0,0,-1,1364,1177,0,0
147,-153,0,0,0,0,0,0,0,0,0,-1,1371,1177,0,0
154,-153,0,0,0,0,0,0,0,0,0,-1,1378,1177,0,0
161,-153,0,0,0,0,0,0,0,0,0,-1,1385,1177,0,0
168,-153,0,0,0,0,0,0,0,0,0,-1,1392,1177,0,0
175,-153,0,0,0,0,0,0,0,0,0,-1,1399,1177,0,0
182,-153,0,0,0,0,0,0,0,0,0,-1,1406,1177,0,0
189,-153,0,0,0,0,0,0,0,0,0,-1,1413,1177,0,0
196,-153,0,0,0,0,0,0,0,0,0,-1,1420,1177,0,0
203,-153,0,0,0,0,0,0,0,0,0,-1,1427,1177,0,0
210,-153,0,0,0,0,0,0,0,0,0,-1,1434,1177,0,0
217,-153,0,0,0,0,0,0,0,0,0,-1,1441,1177,0,0
224,-153,0,0,0,0,0,0,0,0,0,-1,1448,1177,0,0
231,-153,0,0,0,0,0,0,0,0,0,-1,1455,1177,0,0
238,-153,0,0,0,0,0,0,0,0,0,-1,1462,1177,0,0
245,-153,0,0,0,0,0,0,0,0,0,-1,1469,1177,0,0
252,-153,0,0,0,0,0,0,0,0,0,-1,1476,1177,0,0
259,-153,0,0,0,0,0,0,0,0,0,-1,1483,1177,0,0
266,-153,0,0,0,0,0,0,0,0,0,-1,1490,1177,0,0
273,-153,0,0,0,0,0,0,0,0,0,-1,1497,1177,0,0
280,-153,0,0,0,0,0,0,0,0,0,-1,1504,1177,0,0
287,-153,0,0,0,0,0,0,0,0,0,-1,1511,1177,0,0
294,-153,0,0,0,0,0,0,0,0,0,-1,1518,1177,0,0
301,-153,0,0,0,0,0,0,0,0,0,-1,1525,1177,0,0
308,-153,0,0,0,0,0,0,0,0,0,-1,1532,1177,0,0
315,-153,0,0,0,0,0,0,0,0,0,-1,1539,1177,0,0
322,-153,0,0,0,0,0,0,0,0,0,-1,1546,1177,0,0
329,-153,0,0,0,0,0,0,0,0,0,-1,1553,1177,0,0
336,-153,0,0,0,0,0,0,0,0,0,-1,1560,1177,0,0
343,-153,0,0,0,0,0,0,0,0,0,-1,1567,1177,0,0
350,-153,0,0,0,0,0,0,0,0,0,-1,1574,1177,0,0
357,-153,0,0,0,0,0,0,0,0,0,-1,1581,1177,0,0
364,-153,0,0,0,0,0,0,0,0,0,-1,1588,1177,0,0
371,-153,0,0,0,0,0,0,0,0,0,-1,1595,1177,0,0
378,-153,0,0,0,0,0,0,0,0,0,-1,1602,1177,0,0
385,-153,0,0,0,0,0,0,0,0,0,-1,1609,1177,0,0
392,-153,0,0,0,0,0,0,0,0,0,-1,1616,1177,0,0
399,-153,0,0,0,0,0,0,0,0,0,-1,1623,1177,0,0
406,-153,0,0,0,0,0,0,0,0,0,-1,1630,1177,0,0
413,-153,0,0,0,0,0,0,0,0,0,-1,1637,1177,0,0
420,-153,0,0,0,0,0,0,0,0,0,-1,1644,1177,0,0
427,-153,0,0,0,0,0,0,0,0,0,-1,1651,1177,0,0
434,-153,0,0,0,0,0,0,0,0,0,-1,1658,1177,0,0
441,-153,0,0,0,0,0,0,0,0,0,-1,1665,1177,0,0
448,-153,0,0,0,0,0,0,0,0,0,-1,1672,1177,0,0
455,-153,0,0,0,0,0,0,0,0,0,-1,1679,1177,0,0
462,-153,0,0,0,0,0,0,0,0,0,-1,1686,1177,0,0
469,-153,0,0,0,0,0,0,0,0,0,-1,1693,1177,0,0
476,-153,0,0,0,0,0,0,0,0,0,-1,1700,1177,0,0
483,-153,0,0,0,0,0,0,0,0,0,-1,1707,1177,0,0
490,-153,0,0,0,0,0,0,0,0,0,-1,1714,1177,0,0
497,-153,0,0,0,0,0,0,0,0,0,-1,1721,1177,0,0
504,-153,0,0,0,0,0,0,0,0,0,-1,1728,1177,0,0
511,-153,0,0,0,0,0,0,0,0,0,-1,1735,1177,0,0
518,-153,0,0,0,0,0,0,0,0,0,-1,1742,1177,0,0
525,-153,0,0,0,0,0,0,0,0,0,-1,1749,1177,0,0
532,-153,0,0,0,0,0,0,0,0,0,-1,1756,1177,0,0
539,-153,0,0,0,0,0,0,0,0,0,-1,1763,1177,0,0
546,-153,0,0,0,0,0,0,0,0,0,-1,1770,1177,0,0
553,-153,0,0,0,0,0,0,0,0,0,-1,1777,1177,0,0
560,-153,0,0,0,0,0,0,0,0,0,-1,1784,1177,0,0
567,-153,0,0,0,0,0,0,0,0,0,-1,1791,1177,0,0
574,-153,0,0,0,0,0,0,0,0,0,-1,1798,1177,0,0
581,-153,0,0,0,0,0,0,0,0,0,-1,1805,1177,0,0
588,-153,0,0,0,0,0,0,0,0,0,-1,1812,1177,0,0
595,-153,0,0,0,0,0,0,0,0,0,-1,1819,1177,0,0
602,-153,0,0,0,0,0,0,0,0,0,-1,1826,1177,0,0
609,-153,0,0,0,0,0,0,0,0,0,-1,1833,1177,0,0
616,-153,0,0,0,0,0,0,0,0,0,-1,1840,1177,0,0
623,-153,0,0,0,0,0,0,0,0,0,-1,1847,1177,0,0
630,-153,0,0,0,0,0,0,0,0,0,-1,1854,1177,0,0
637,-153,67.0654,2.36389,0.00319281,0.0048285,-0.00138679,0.00562064,0.00240066,-1.05182,0.00325655,0.0415593,1861,1177,67.0654,-2.36389
644,-153,67.1097,2.32092,0.00204654,0.00302273,-0.000796863,0.0034691,0.00160017,-1.06019,0.00200489,0.0400305,1868,1177,67.1097,-2.32088
651,-153,67.069,2.28955,0.00124501,0.0018813,-0.000620291,0.00226028,0.000866038,-1.02235,0.0013168,0.031582,1875,1177,67.069,-2.28958
658,-153,67.0875,2.22229,0.000647409,0.00111304,-0.000643861,0.00156488,0.000195564,-0.95888,0.000984563,0.0343446,1882,1177,67.0875,-2.22231
665,-153,67.0712,2.82556,0,0,0,0,0,0,0,-1,1889,1177,67.0712,-2.82554
672,-153,67.0685,2.57495,-0.000138,0.00043778,-0.00116221,0.00134723,-0.00104745,-0.906809,0.00138617,0.0388292,1896,1177,67.0684,-2.575
679,-153,67.0356,2.32214,-6.83766e-05,0.000236746,-0.00142247,0.00151481,-0.00134644,-0.838819,0.0016529,0.0292792,1903,1177,67.0356,-2.32212
686,-153,66.9926,2.3291,0.000561898,0.000695823,-0.0015046,0.00213495,-0.000877233,-0.807636,0.00178891,0.0183558,1910,1177,66.9925,-2.32905
693,-153,67.0427,2.26306,0.000755767,0.000636144,-0.0013279,0.0020252,-0.000633293,-0.762892,0.00160348,0.0450841,1917,1177,67.0427,-2.26308
700,-153,67.0653,2.1709,0,0,0,0,0,0,0,-1,1924,1177,67.0653,-2.17093
707,-153,29.6483,6.6842,0,0,0,0,0,0,0,-1,1931,1177,29.6483,-6.68415
714,-153,36.0046,6.78418,0,0,0,0,0,0,0,-1,1938,1177,36.0046,-6.78418
721,-153,36.4866,6.47595,0,0,0,0,0,0,0,-1,1945,1177,36.4866,-6.47593
728,-153,47.7305,7.37024,0,0,0,0,0,0,0,-1,1952,1177,47.7304,-7.37022
735,-153,57.6105,7.63953,0,0,0,0,0,0,0,-1,1959,1177,57.6105,-7.63948
742,-153,57.7358,7.4679,0.00148765,0.000845956,0.000858293,0.00208311,0.000250502,0.606529,0.00131323,0.0174745,1966,1177,57.7358,-7.46792
749,-153,57.7367,6.92639,0.00110415,0.00137702,0.00158447,0.00283092,-0.000349745,0.828345,0.00201401,0.0179352,1973,1177,57.7367,-6.92644
756,-153,57.7007,6.3197,0.00211748,0.00340814,0.00200346,0.00486764,0.000657983,0.941206,0.00304952,0.0126401,1980,1177,57.7006,-6.31973
763,-153,57.6331,5.74805,0.0043669,0.00637069,0.00218968,0.0077768,0.0029608,0.999957,0.00453232,0.0125847,1987,1177,57.6331,-5.74808
770,-153,57.6228,5.16663,0.00763267,0.0101847,0.00215226,0.0114108,0.0064066,1.05298,0.00660459,0.0128184,1994,1177,57.6227,-5.16659
777,-153,57.6121,4.62231,0.0120367,0.0149731,0.00186516,0.0158786,0.0111312,1.11883,0.00941123,0.0256583,2001,1177,57.6122,-4.62233
784,-153,57.7666,4.08887,0.0179136,0.0209607,0.00128842,0.0214324,0.0174418,1.21981,0.0131613,0.0456278,2008,1177,57.7665,-4.08883
791,-153,58.2561,3.57422,0.0259899,0.0288755,0.000345533,0.0289163,0.0259491,1.45326,0.0183685,0.0441926,2015,1177,58.2562,-3.57419
798,-153,58.8967,3.41785,0.0367265,0.038873,-0.000869075,0.0391807,0.0364188,-1.23046,0.0252502,0.0451594,2022,1177,58.8967,-3.41785
805,-153,59.5867,3.23547,0.0510954,0.0514154,-0.00198579,0.0532476,0.0492632,-0.825592,0.0342476,0.0472061,2029,1177,59.5868,-3.23552
812,-153,0,0,0,0,0,0,0,0,0,-1,2036,1177,0,0
-700,-160,0,0,0,0,0,0,0,0,0,-1,524,1184,0,0
-693,-160,0,0,0,0,0,0,0,0,0,-1,531,1184,0,0
-686,-160,-44.4069,-0.855835,0,0,0,0,0,0,0,-1,538,1184,-44.4069,0.855857
-679,-160,-42.8816,-0.530884,0,0,0,0,0,0,0,-1,545,1184,-42.8816,0.530853
-672,-160,-41.2665,-0.314941,0.166928,0.0276305,-0.108053,0.225835,-0.031276,-0.49912,0.161991,0.0452015,552,1184,-41.2665,0.314936
-665,-160,-39.6973,-0.129028,0.131577,0.02318,-0.0875567,0.180352,-0.0255956,-0.508258,0.129612,0.0464575,559,1184,-39.6973,0.12898
-658,-160,-38.1317,0.0842285,0,0,0,0,0,0,0,-1,566,1184,-38.1317,-0.0842745
-651,-160,-41.4024,1.93933,0,0,0,0,0,0,0,-1,573,1184,-41.4024,-1.93935
-644,-160,-41.5131,2.66553,0.0483103,0.0108271,-0.036276,0.0704,-0.0112626,-0.546963,0.051103,0.0384609,580,1184,-41.5131,-2.66552
-637,-160,-41.5776,3.08679,0.0280461,0.0074192,-0.0234525,0.0433527,-0.00788741,-0.578246,0.0318581,0.0159594,587,1184,-41.5776,-3.08677
-630,-160,-41.6623,3.66968,0.011151,0.00420972,-0.0122393,0.0204022,-0.00504146,-0.647241,0.0155567,0.00944931,594,1184,-41.6623,-3.66965
-623,-160,-41.7224,4.29358,-0.000288517,0.00164098,-0.00408629,0.00487487,-0.0035224,-0.901322,0.00486908,0.0154435,601,1184,-41.7223,-4.29358
-616,-160,-41.7705,4.9502,-0.00464795,-6.36167e-05,-0.000450051,-1.98525e-05,-0.00469171,-1.47386,0.00312121,0.0141475,608,1184,-41.7705,-4.95024
-609,-160,-41.8497,5.58594,-0.00214779,9.84494e-05,-0.00222715,0.00146964,-0.00351898,-1.01893,0.00296009,0.0227845,615,1184,-41.8497,-5.58591
-602,-160,-41.9538,6.23438,0,0,0,0,0,0,0,-1,622,1184,-41.9538,-6.23435
-595,-160,-33.0669,5.93445,0,0,0,0,0,0,0,-1,629,1184,-33.0669,-5.93446
-588,-160,-33.4845,5.66699,0,0,0,0,0,0,0,-1,636,1184,-33.4845,-5.66697
-581,-160,-33.1338,6.41174,0,0,0,0,0,0,0,-1,643,1184,-33.1338,-6.41176
-574,-160,-32.7831,7.15649,0,0,0,0,0,0,0,-1,650,1184,-32.7831,-7.15655
-567,-160,-29.5828,0.643921,0,0,0,0,0,0,0,-1,657,1184,-29.5828,-0.643968
-560,-160,-51.3961,0.347046,0,0,0,0,0,0,0,-1,664,1184,-51.3961,-0.34708
-553,-160,-51.4858,0.424316,-0.00315271,0.000732858,-0.000417834,0.000777281,-0.00319713,-1.46487,0.00243227,0.0419075,671,1184,-51.4858,-0.424324
-546,-160,-51.5782,0.498657,-0.00328458,0.000949262,-0.000150256,0.000954587,-0.00328991,-1.53537,0.00257123,0.0384346,678,1184,-51.5782,-0.498704
-539,-160,-52.0104,0.303833,0,0,0,0,0,0,0,-1,685,1184,-52.0104,-0.303881
-532,-160,-51.6833,0.351318,0.00235924,-0.00214384,0.000491057,0.00241217,-0.00219677,0.107368,0.00266194,0.0429583,692,1184,-51.6833,-0.351258
-525,-160,-51.2726,0.265869,0.00649828,-0.00524725,0.00109802,0.00660005,-0.00534901,0.0924169,0.00691139,0.0451981,699,1184,-51.2726,-0.265855
-518,-160,-51.3405,0.310425,0.0106846,-0.00901302,0.00195686,0.0108771,-0.00920554,0.0980677,0.0116081,0.0414964,706,1184,-51.3405,-0.31045
-511,-160,0,0,0,0,0,0,0,0,0,-1,713,1184,0,0
-504,-160,0,0,0,0,0,0,0,0,0,-1,720,1184,0,0
-497,-160,0,0,0,0,0,0,0,0,0,-1,727,1184,0,0
-490,-160,0,0,0,0,0,0,0,0,0,-1,734,1184,0,0
-483,-160,0,0,0,0,0,0,0,0,0,-1,741,1184,0,0
-476,-160,0,0,0,0,0,0,0,0,0,-1,748,1184,0,0
-469,-160,0,0,0,0,0,0,0,0,0,-1,755,1184,0,0
-462,-160,0,0,0,0,0,0,0,0,0,-1,762,1184,0,0
-455,-160,0,0,0,0,0,0,0,0,0,-1,769,1184,0,0
-448,-160,0,0,0,0,0,0,0,0,0,-1,776,1184,0,0
-441,-160,0,0,0,0,0,0,0,0,0,-1,783,1184,0,0
-434,-160,0,0,0,0,0,0,0,0,0,-1,790,1184,0,0
-427,-160,0,0,0,0,0,0,0,0,0,-1,797,1184,0,0
-420,-160,0,0,0,0,0,0,0,0,0,-1,804,1184,0,0
-413,-160,0,0,0,0,0,0,0,0,0,-1,811,1184,0,0
-406,-160,0,0,0,0,0,0,0,0,0,-1,818,1184,0,0
-399,-160,0,0,0,0,0,0,0,0,0,-1,825,1184,0,0
-392,-160,0,0,0,0,0,0,0,0,0,-1,832,1184,0,0
-385,-160,0,0,0,0,0,0,0,0,0,-1,839,1184,0,0
-378,-160,0,0,0,0,0,0,0,0,0,-1,846,1184,0,0
-371,-160,0,0,0,0,0,0,0,0,0,-1,853,1184,0,0
-364,-160,0,0,0,0,0,0,0,0,0,-1,860,1184,0,0
-357,-160,0,0,0,0,0,0,0,0,0,-1,867,1184,0,0
-350,-160,0,0,0,0,0,0,0,0,0,-1,874,1184,0,0
-343,-160,0,0,0,0,0,0,0,0,0,-1,881,1184,0,0
-336,-160,0,0,0,0,0,0,0,0,0,-1,888,1184,0,0
-329,-160,0,0,0,0,0,0,0,0,0,-1,895,1184,0,0
-322,-160,0,0,0,0,0,0,0,0,0,-1,902,1184,0,0
-315,-160,0,0,0,0,0,0,0,0,0,-1,909,1184,0,0
-308,-160,0,0,0,0,0,0,0,0,0,-1,916,1184,0,0
-301,-160,0,0,0,0,0,0,0,0,0,-1,923,1184,0,0
-294,-160,0,0,0,0,0,0,0,0,0,-1,930,1184,0,0
-287,-160,0,0,0,0,0,0,0,0,0,-1,937,1184,0,0
-280,-160,0,0,0,0,0,0,0,0,0,-1,944,1184,0,0
-273,-160,0,0,0,0,0,0,0,0,0,-1,951,1184,0,0
-266,-160,0,0,0,0,0,0,0,0,0,-1,958,1184,0,0
-259,-160,0,0,0,0,0,0,0,0,0,-1,965,1184,0,0
-252,-160,0,0,0,0,0,0,0,0,0,-1,972,1184,0,0
-245,-160,0,0,0,0,0,0,0,0,0,-1,979,1184,0,0
-238,-160,0,0,0,0,0,0,0,0,0,-1,986,1184,0,0
-231,-160,0,0,0,0,0,0,0,0,0,-1,993,1184,0,0
-224,-160,0,0,0,0,0,0,0,0,0,-1,1000,1184,0,0
-217,-160,0,0,0,0,0,0,0,0,0,-1,1007,1184,0,0
-210,-160,0,0,0,0,0,0,0,0,0,-1,1014,1184,0,0
-203,-160,0,0,0,0,0,0,0,0,0,-1,1021,1184,0,0
-196,-160,0,0,0,0,0,0,0,0,0,-1,1028,1184,0,0
-189,-160,0,0,0,0,0,0,0,0,0,-1,1035,1184,0,0
-182,-160,0,0,0,0,0,0,0,0,0,-1,1042,1184,0,0
-175,-160,0,0,0,0,0,0,0,0,0,-1,1049,1184,0,0
-168,-160,0,0,0,0,0,0,0,0,0,-1,1056,1184,0,0
-161,-160,0,0,0,0,0,0,0,0,0,-1,1063,1184,0,0
-154,-160,0,0,0,0,0,0,0,0,0,-1,1070,1184,0,0
-147,-160,0,0,0,0,0,0,0,0,0,-1,1077,1184,0,0
-140,-160,0,0,0,0,0,0,0,0,0,-1,1084,1184,0,0
-133,-160,0,0,0,0,0,0,0,0,0,-1,1091,1184,0,0
-126,-160,0,0,0,0,0,0,0,0,0,-1,1098,1184,0,0
-119,-160,0,0,0,0,0,0,0,0,0,-1,1105,1184,0,0
-112,-160,0,0,0,0,0,0,0,0,0,-1,1112,1184,0,0
-105,-160,0,0,0,0,0,0,0,0,0,-1,1119,1184,0,0
-98,-160,0,0,0,0,0,0,0,0,0,-1,1126,1184,0,0
-91,-160,0,0,0,0,0,0,0,0,0,-1,1133,1184,0,0
-84,-160,0,0,0,0,0,0,0,0,0,-1,1140,1184,0,0
-77,-160,0,0,0,0,0,0,0,0,0,-1,1147,1184,0,0
-70,-160,0,0,0,0,0,0,0,0,0,-1,1154,1184,0,0
-63,-160,0,0,0,0,0,0,0,0,0,-1,1161,1184,0,0
-56,-160,0,0,0,0,0,0,0,0,0,-1,1168,1184,0,0
-49,-160,0,0,0,0,0,0,0,0,0,-1,1175,1184,0,0
-42,-160,0,0,0,0,0,0,0,0,0,-1,1182,1184,0,0
-35,-160,0,0,0,0,0,0,0,0,0,-1,1189,1184,0,0
-28,-160,0,0,0,0,0,0,0,0,0,-1,1196,1184,0,0
-21,-160,0,0,0,0,0,0,0,0,0,-1,1203,1184,0,0
-14,-160,0,0,0,0,0,0,0,0,0,-1,1210,1184,0,0
-7,-160,0,0,0,0,0,0,0,0,0,-1,1217,1184,0,0
0,-160,0,0,0,0,0,0,0,0,0,-1,1224,1184,0,0
7,-160,0,0,0,0,0,0,0,0,0,-1,1231,1184,0,0
14,-160,0,0,0,0,0,0,0,0,0,-1,1238,1184,0,0
21,-160,0,0,0,0,0,0,0,0,0,-1,1245,1184,0,0
28,-160,0,0,0,0,0,0,0,0,0,-1,1252,1184,0,0
35,-160,0,0,0,0,0,0,0,0,0,-1,1259,1184,0,0
42,-160,0,0,0,0,0,0,0,0,0,-1,1266,1184,0,0
49,-160,0,0,0,0,0,0,0,0,0,-1,1273,1184,0,0
56,-160,0,0,0,0,0,0,0,0,0,-1,1280,1184,0,0
63,-160,0,0,0,0,0,0,0,0,0,-1,1287,1184,0,0
70,-160,0,0,0,0,0,0,0,0,0,-1,1294,1184,0,0
77,-160,0,0,0,0,0,0,0,0,0,-1,1301,1184,0,0
84,-160,0,0,0,0,0,0,0,0,0,-1,1308,1184,0,0
91,-160,0,0,0,0,0,0,0,0,0,-1,1315,1184,0,0
98,-160,0,0,0,0,0,0,0,0,0,-1,1322,1184,0,0
105,-160,0,0,0,0,0,0,0,0,0,-1,1329,1184,0,0
112,-160,0,0,0,0,0,0,0,0,0,-1,1336,1184,0,0
119,-160,0,0,0,0,0,0,0,0,0,-1,1343,1184,0,0
126,-160,0,0,0,0,0,0,0,0,0,-1,1350,1184,0,0
133,-160,0,0,0,0,0,0,0,0,0,-1,1357,1184,0,0
140,-160,0,0,0,0,0,0,0,0,0,-1,1364,1184,0,0
147,-160,0,0,0,0,0,0,0,0,0,-1,1371,1184,0,0
154,-160,0,0,0,0,0,0,0,0,0,-1,1378,1184,0,0
161,-160,0,0,0,0,0,0,0,0,0,-1,1385,1184,0,0
168,-160,0,0,0,0,0,0,0,0,0,-1,1392,1184,0,0
175,-160,0,0,0,0,0,0,0,0,0,-1,1399,1184,0,0
182,-160,0,0,0,0,0,0,0,0,0,-1,1406,1184,0,0
189,-160,0,0,0,0,0,0,0,0,0,-1,1413,1184,0,0
196,-160,0,0,0,0,0,0,0,0,0,-1,1420,1184,0,0
203,-160,0,0,0,0,0,0,0,0,0,-1,1427,1184,0,0
210,-160,0,0,0,0,0,0,0,0,0,-1,1434,1184,0,0
217,-160,0,0,0,0,0,0,0,0,0,-1,1441,1184,0,0
224,-160,0,0,0,0,0,0,0,0,0,-1,1448,1184,0,0
231,-160,0,0,0,0,0,0,0,0,0,-1,1455,1184,0,0
238,-160,0,0,0,0,0,0,0,0,0,-1,1462,1184,0,0
245,-160,0,0,0,0,0,0,0,0,0,-1,1469,1184,0,0
252,-160,0,0,0,0,0,0,0,0,0,-1,1476,1184,0,0
259,-160,0,0,0,0,0,0,0,0,0,-1,1483,1184,0,0
266,-160,0,0,0,0,0,0,0,0,0,-1,1490,1184,0,0
273,-160,0,0,0,0,0,0,0,0,0,-1,1497,1184,0,0
280,-160,0,0,0,0,0,0,0,0,0,-1,1504,1184,0,0
287,-160,0,0,0,0,0,0,0,0,0,-1,1511,1184,0,0
294,-160,0,0,0,0,0,0,0,0,0,-1,1518,1184,0,0
301,-160,0,0,0,0,0,0,0,0,0,-1,1525,1184,0,0
308,-160,0,0,0,0,0,0,0,0,0,-1,1532,1184,0,0
315,-160,0,0,0,0,0,0,0,0,0,-1,1539,1184,0,0
322,-160,0,0,0,0,0,0,0,0,0,-1,1546,1184,0,0
329,-160,0,0,0,0,0,0,0,0,0,-1,1553,1184,0,0
336,-160,0,0,0,0,0,0,0,0,0,-1,1560,1184,0,0
343,-160,0,0,0,0,0,0,0,0,0,-1,1567,1184,0,0
350,-160,0,0,0,0,0,0,0,0,0,-1,1574,1184,0,0
357,-160,0,0,0,0,0,0,0,0,0,-1,1581,1184,0,0
364,-160,0,0,0,0,0,0,0,0,0,-1,1588,1184,0,0
371,-160,0,0,0,0,0,0,0,0,0,-1,1595,1184,0,0
378,-160,0,0,0,0,0,0,0,0,0,-1,1602,1184,0,0
385,-160,0,0,0,0,0,0,0,0,0,-1,1609,1184,0,0
392,-160,0,0,0,0,0,0,0,0,0,-1,1616,1184,0,0
399,-160,0,0,0,0,0,0,0,0,0,-1,1623,1184,0,0
406,-160,0,0,0,0,0,0,0,0,0,-1,1630,1184,0,0
413,-160,0,0,0,0,0,0,0,0,0,-1,1637,1184,0,0
420,-160,0,0,0,0,0,0,0,0,0,-1,1644,1184,0,0
427,-160,0,0,0,0,0,0,0,0,0,-1,1651,1184,0,0
434,-160,0,0,0,0,0,0,0,0,0,-1,1658,1184,0,0
441,-160,0,0,0,0,0,0,0,0,0,-1,1665,1184,0,0
448,-160,0,0,0,0,0,0,0,0,0,-1,1672,1184,0,0
455,-160,0,0,0,0,0,0,0,0,0,-1,1679,1184,0,0
462,-160,0,0,0,0,0,0,0,0,0,-1,1686,1184,0,0
469,-160,0,0,0,0,0,0,0,0,0,-1,1693,1184,0,0
476,-160,0,0,0,0,0,0,0,0,0,-1,1700,1184,0,0
483,-160,0,0,0,0,0,0,0,0,0,-1,1707,1184,0,0
490,-160,0,0,0,0,0,0,0,0,0,-1,1714,1184,0,0
497,-160,0,0,0,0,0,0,0,0,0,-1,1721,1184,0,0
504,-160,0,0,0,0,0,0,0,0,0,-1,1728,1184,0,0
511,-160,0,0,0,0,0,0,0,0,0,-1,1735,1184,0,0
518,-160,0,0,0,0,0,0,0,0,0,-1,1742,1184,0,0
525,-160,0,0,0,0,0,0,0,0,0,-1,1749,1184,0,0
532,-160,0,0,0,0,0,0,0,0,0,-1,1756,1184,0,0
539,-160,0,0,0,0,0,0,0,0,0,-1,1763,1184,0,0
546,-160,0,0,0,0,0,0,0,0,0,-1,1770,1184,0,0
553,-160,0,0,0,0,0,0,0,0,0,-1,1777,1184,0,0
560,-160,0,0,0,0,0,0,0,0,0,-1,1784,1184,0,0
567,-160,0,0,0,0,0,0,0,0,0,-1,1791,1184,0,0
574,-160,0,0,0,0,0,0,0,0,0,-1,1798,1184,0,0
581,-160,0,0,0,0,0,0,0,0,0,-1,1805,1184,0,0
588,-160,0,0,0,0,0,0,0,0,0,-1,1812,1184,0,0
595,-160,0,0,0,0,0,0,0,0,0,-1,1819,1184,0,0
602,-160,0,0,0,0,0,0,0,0,0,-1,1826,1184,0,0
609,-160,0,0,0,0,0,0,0,0,0,-1,1833,1184,0,0
616,-160,0,0,0,0,0,0,0,0,0,-1,1840,1184,0,0
623,-160,0,0,0,0,0,0,0,0,0,-1,1847,1184,0,0
630,-160,0,0,0,0,0,0,0,0,0,-1,1854,1184,0,0
637,-160,66.9252,2.30908,0.00249054,0.0051221,-0.000768971,0.00533032,0.00228232,-1.30635,0.00308803,0.0410176,1861,1184,66.9252,-2.30912
644,-160,66.9537,2.27747,0.00164876,0.00333469,-0.000353878,0.00340596,0.0015775,-1.37207,0.00196821,0.0428725,1868,1184,66.9537,-2.27745
651,-160,66.9525,2.22327,0.00105341,0.00215963,-0.000311516,0.00224132,0.000971719,-1.31433,0.00129783,0.0404166,1875,1184,66.9525,-2.22327
658,-160,66.9658,2.05115,0.000615052,0.00138665,-0.000502736,0.00163456,0.000367144,-1.11267,0.000990275,0.0386843,1882,1184,66.9659,-2.05113
665,-160,67.043,2.24207,0.000270456,0.0009244,-0.000824816,0.00148469,-0.000289833,-0.974105,0.00109921,0.0375201,1889,1184,67.0429,-2.24208
672,-160,67.0653,2.44531,0.000132602,0.000707282,-0.00126062,0.00171289,-0.000873007,-0.897452,0.00151899,0.0339592,1896,1184,67.0653,-2.44535
679,-160,67.0437,2.35217,0.000287936,0.000531685,-0.00156628,0.00198082,-0.0011612,-0.824226,0.0018345,0.0255741,1903,1184,67.0436,-2.35214
686,-160,67.0079,2.30603,0.000825876,0.000980699,-0.00163175,0.00253688,-0.0007303,-0.809101,0.0019801,0.0158247,1910,1184,67.008,-2.30608
693,-160,67.0234,2.28748,0,0,0,0,0,0,0,-1,1917,1184,67.0235,-2.28743
700,-160,42.8784,2.44617,0,0,0,0,0,0,0,-1,1924,1184,42.8785,-2.4462
707,-160,24.5115,6.27405,0,0,0,0,0,0,0,-1,1931,1184,24.5115,-6.27401
714,-160,35.6892,6.8905,0,0,0,0,0,0,0,-1,1938,1184,35.6892,-6.89048
721,-160,36.2388,6.37878,0,0,0,0,0,0,0,-1,1945,1184,36.2388,-6.37876
728,-160,52.2174,8.57385,0,0,0,0,0,0,0,-1,1952,1184,52.2174,-8.57381
735,-160,57.2518,8.31177,0,0,0,0,0,0,0,-1,1959,1184,57.2518,-8.31176
742,-160,57.1366,7.44922,0.00161181,0.000984003,0.000766269,0.00212598,0.000469834,0.590999,0.00128956,0.0185579,1966,1184,57.1366,-7.44917
749,-160,57.1343,6.8894,0.00128522,0.00156797,0.00142639,0.00285998,-6.78073e-06,0.834794,0.00190892,0.0192478,1973,1184,57.1343,-6.88938
756,-160,57.1102,6.31909,0.00224322,0.00362817,0.00170723,0.00477802,0.00109337,0.978065,0.00289066,0.0131453,1980,1184,57.1103,-6.31905
763,-160,57.0385,5.76819,0.00410999,0.00657371,0.00163215,0.0073867,0.00329701,1.10866,0.00427289,0.0140195,1987,1184,57.0385,-5.76814
770,-160,56.9277,5.11218,0.0068507,0.0104574,0.00122177,0.0108323,0.0064758,1.27307,0.00629382,0.028195,1994,1184,56.9278,-5.11218
777,-160,56.9128,4.64441,0.0105348,0.0153999,0.000417256,0.0154355,0.0104992,1.48586,0.00910255,0.0386497,2001,1184,56.9128,-4.64446
784,-160,57.3286,4.06226,0.015375,0.0216298,-0.000884675,0.0217526,0.0152523,-1.43296,0.0128932,0.0466146,2008,1184,57.3286,-4.06227
791,-160,57.5095,3.5022,0.0219556,0.0299413,-0.00288359,0.0308737,0.0210232,-1.25807,0.0182099,0.0475844,2015,1184,57.5096,-3.50222
798,-160,57.7136,2.92371,0,0,0,0,0,0,0,-1,2022,1184,57.7136,-2.92372
805,-160,59.4004,3.20776,0,0,0,0,0,0,0,-1,2029,1184,59.4003,-3.20781
812,-160,0,0,0,0,0,0,0,0,0,-1,2036,1184,0,0
-700,-167,0,0,0,0,0,0,0,0,0,-1,524,1191,0,0
-693,-167,0,0,0,0,0,0,0,0,0,-1,531,1191,0,0
-686,-167,-42.1467,-0.824097,0.26809,0.0434104,-0.172371,0.361498,-0.0499973,-0.496602,0.259276,0.0491827,538,1191,-42.1467,0.824088
-679,-167,-40.4547,-0.463135,0.221234,0.0377029,-0.146156,0.302044,-0.0431079,-0.505072,0.217163,0.0469204,545,1191,-40.4547,0.463076
-672,-167,-38.8717,-0.137939,0.178015,0.0317576,-0.120351,0.245713,-0.0359404,-0.512393,0.177009,0.0471162,552,1191,-38.8717,0.137915
-665,-167,-37.5421,-0.166748,0.139645,0.0261053,-0.0964782,0.194816,-0.0290662,-0.519467,0.140572,0.0470124,559,1191,-37.5421,0.166797
-658,-167,-35.9839,0.0151367,0,0,0,0,0,0,0,-1,566,1191,-35.9839,-0.0150807
-651,-167,-40.7858,2.34961,0,0,0,0,0,0,0,-1,573,1191,-40.7858,-2.34957
-644,-167,-40.8103,2.74744,0.0517795,0.0117782,-0.0395204,0.0760721,-0.0125143,-0.551147,0.0553597,0.0406824,580,1191,-40.8103,-2.74748
-637,-167,-40.9022,3.12463,0.0306758,0.0079992,-0.0256039,0.0473396,-0.00866455,-0.576958,0.0348092,0.018987,587,1191,-40.9022,-3.12458
-630,-167,-41.0187,3.67065,0.0129645,0.00452058,-0.0135921,0.0229753,-0.00549016,-0.634813,0.0174374,0.00979456,594,1191,-41.0187,-3.6707
-623,-167,-41.0593,4.26013,0.000862473,0.00184162,-0.00494119,0.00631743,-0.00361334,-0.834777,0.00580396,0.0147516,601,1191,-41.0592,-4.26017
-616,-167,-41.0999,4.92822,-0.00464187,-7.09038e-05,-0.000649981,1.97252e-05,-0.0047325,-1.43226,0.0031616,0.0187583,608,1191,-41.0999,-4.92825
-609,-167,-41.1385,5.63,-0.00297429,-0.000276322,-0.00206255,0.00083922,-0.00408983,-1.075,0.00304509,0.0171205,615,1191,-41.1386,-5.63003
-602,-167,-41.2838,6.19165,0,0,0,0,0,0,0,-1,622,1191,-41.2838,-6.19163
-595,-167,-41.1433,6.62561,0,0,0,0,0,0,0,-1,629,1191,-41.1433,-6.62556
-588,-167,-41.2794,7.48511,0,0,0,0,0,0,0,-1,636,1191,-41.2794,-7.48515
-581,-167,-32.8646,6.30542,0,0,0,0,0,0,0,-1,643,1191,-32.8646,-6.30537
-574,-167,-32.4808,7.37524,0,0,0,0,0,0,0,-1,650,1191,-32.4808,-7.37525
-567,-167,-27.3643,2.55859,0,0,0,0,0,0,0,-1,657,1191,-27.3643,-2.55864
-560,-167,-48.2598,0.834839,0,0,0,0,0,0,0,-1,664,1191,-48.2598,-0.834822
-553,-167,-51.3785,0.333618,0,0,0,0,0,0,0,-1,671,1191,-51.3785,-0.333592
-546,-167,-51.4755,0.457397,-0.00414145,0.00120762,-0.000245518,0.00121887,-0.00415269,-1.52503,0.00325181,0.0334667,678,1191,-51.4756,-0.45736
-539,-167,-51.5267,0.697144,-0.00239491,0.000932935,-0.000151114,0.000939783,-0.00240176,-1.52551,0.00198984,0.0374197,685,1191,-51.5267,-0.697103
-532,-167,-51.5448,0.831543,0.00165785,-0.00140167,0.000368517,0.00170161,-0.00144543,0.118197,0.00181895,0.0437134,692,1191,-51.5448,-0.831567
-525,-167,-51.4793,0.565552,0.00671144,-0.00497549,0.00110896,0.00681574,-0.00507979,0.093774,0.00689222,0.0472458,699,1191,-51.4793,-0.565551
-518,-167,-51.5504,0.615112,0.0117945,-0.00930141,0.00211282,0.0120041,-0.00951093,0.0988449,0.0124495,0.0444367,706,1191,-51.5504,-0.615086
-511,-167,0,0,0,0,0,0,0,0,0,-1,713,1191,0,0
-504,-167,0,0,0,0,0,0,0,0,0,-1,720,1191,0,0
-497,-167,0,0,0,0,0,0,0,0,0,-1,727,1191,0,0
-490,-167,0,0,0,0,0,0,0,0,0,-1,734,1191,0,0
-483,-167,0,0,0,0,0,0,0,0,0,-1,741,1191,0,0
-476,-167,0,0,0,0,0,0,0,0,0,-1,748,1191,0,0
-469,-167,0,0,0,0,0,0,0,0,0,-1,755,1191,0,0
-462,-167,0,0,0,0,0,0,0,0,0,-1,762,1191,0,0
-455,-167,0,0,0,0,0,0,0,0,0,-1,769,1191,0,0
-448,-167,0,0,0,0,0,0,0,0,0,-1,776,1191,0,0
-441,-167,0,0,0,0,0,0,0,0,0,-1,783,1191,0,0
-434,-167,0,0,0,0,0,0,0,0,0,-1,790,1191,0,0
-427,-167,0,0,0,0,0,0,0,0,0,-1,797,1191,0,0
-420,-167,0,0,0,0,0,0,0,0,0,-1,804,1191,0,0
-413,-167,0,0,0,0,0,0,0,0,0,-1,811,1191,0,0
-406,-167,0,0,0,0,0,0,0,0,0,-1,818,1191,0,0
-399,-167,0,0,0,0,0,0,0,0,0,-1,825,1191,0,0
-392,-167,0,0,0,0,0,0,0,0,0,-1,832,1191,0,0
-385,-167,0,0,0,0,0,0,0,0,0,-1,839,1191,0,0
-378,-167,0,0,0,0,0,0,0,0,0,-1,846,1191,0,0
-371,-167,0,0,0,0,0,0,0,0,0,-1,853,1191,0,0
-364,-167,0,0,0,0,0,0,0,0,0,-1,860,1191,0,0
-357,-167,0,0,0,0,0,0,0,0,0,-1,867,1191,0,0
-350,-167,0,0,0,0,0,0,0,0,0,-1,874,1191,0,0
-343,-167,0,0,0,0,0,0,0,0,0,-1,881,1191,0,0
-336,-167,0,0,0,0,0,0,0,0,0,-1,888,1191,0,0
-329,-167,0,0,0,0,0,0,0,0,0,-1,895,1191,0,0
-322,-167,0,0,0,0,0,0,0,0,0,-1,902,1191,0,0
-315,-167,0,0,0,0,0,0,0,0,0,-1,909,1191,0,0
-308,-167,0,0,0,0,0,0,0,0,0,-1,916,1191,0,0
-301,-167,0,0,0,0,0,0,0,0,0,-1,923,1191,0,0
-294,-167,0,0,0,0,0,0,0,0,0,-1,930,1191,0,0
-287,-167,0,0,0,0,0,0,0,0,0,-1,937,1191,0,0
-280,-167,0,0,0,0,0,0,0,0,0,-1,944,1191,0,0
-273,-167,0,0,0,0,0,0,0,0,0,-1,951,1191,0,0
-266,-167,0,0,0,0,0,0,0,0,0,-1,958,1191,0,0
-259,-167,0,0,0,0,0,0,0,0,0,-1,965,1191,0,0
-252,-167,0,0,0,0,0,0,0,0,0,-1,972,1191,0,0
-245,-167,0,0,0,0,0,0,0,0,0,-1,979,1191,0,0
-238,-167,0,0,0,0,0,0,0,0,0,-1,986,1191,0,0
-231,-167,0,0,0,0,0,0,0,0,0,-1,993,1191,0,0
-224,-167,0,0,0,0,0,0,0,0,0,-1,1000,1191,0,0
-217,-167,0,0,0,0,0,0,0,0,0,-1,1007,1191,0,0
-210,-167,0,0,0,0,0,0,0,0,0,-1,1014,1191,0,0
-203,-167,0,0,0,0,0,0,0,0,0,-1,1021,1191,0,0
-196,-167,0,0,0,0,0,0,0,0,0,-1,1028,1191,0,0
-189,-167,0,0,0,0,0,0,0,0,0,-1,1035,1191,0,0
-182,-167,0,0,0,0,0,0,0,0,0,-1,1042,1191,0,0
-175,-167,0,0,0,0,0,0,0,0,0,-1,1049,1191,0,0
-168,-167,0,0,0,0,0,0,0,0,0,-1,1056,1191,0,0
-161,-167,0,0,0,0,0,0,0,0,0,-1,1063,1191,0,0
-154,-167,0,0,0,0,0,0,0,0,0,-1,1070,1191,0,0
-147,-167,0,0,0,0,0,0,0,0,0,-1,1077,1191,0,0
-140,-167,0,0,0,0,0,0,0,0,0,-1,1084,1191,0,0
-133,-167,0,0,0,0,0,0,0,0,0,-1,1091,1191,0,0
-126,-167,0,0,0,0,0,0,0,0,0,-1,1098,1191,0,0
-119,-167,0,0,0,0,0,0,0,0,0,-1,1105,1191,0,0
-112,-167,0,0,0,0,0,0,0,0,0,-1,1112,1191,0,0
-105,-167,0,0,0,0,0,0,0,0,0,-1,1119,1191,0,0
-98,-167,0,0,0,0,0,0,0,0,0,-1,1126,1191,0,0
-91,-167,0,0,0,0,0,0,0,0,0,-1,1133,1191,0,0
-84,-167,0,0,0,0,0,0,0,0,0,-1,1140,1191,0,0
-77,-167,0,0,0,0,0,0,0,0,0,-1,1147,1191,0,0
-70,-167,0,0,0,0,0,0,0,0,0,-1,1154,1191,0,0
-63,-167,0,0,0,0,0,0,0,0,0,-1,1161,1191,0,0
-56,-167,0,0,0,0,0,0,0,0,0,-1,1168,1191,0,0
-49,-167,0,0,0,0,0,0,0,0,0,-1,1175,1191,0,0
-42,-167,0,0,0,0,0,0,0,0,0,-1,1182,1191,0,0
-35,-167,0,0,0,0,0,0,0,0,0,-1,1189,1191,0,0
-28,-167,0,0,0,0,0,0,0,0,0,-1,1196,1191,0,0
-21,-167,0,0,0,0,0,0,0,0,0,-1,1203,1191,0,0
-14,-167,0,0,0,0,0,0,0,0,0,-1,1210,1191,0,0
-7,-167,0,0,0,0,0,0,0,0,0,-1,1217,1191,0,0
0,-167,0,0,0,0,0,0,0,0,0,-1,1224,1191,0,0
7,-167,0,0,0,0,0,0,0,0,0,-1,1231,1191,0,0
14,-167,0,0,0,0,0,0,0,0,0,-1,1238,1191,0,0
21,-167,0,0,0,0,0,0,0,0,0,-1,1245,1191,0,0
28,-167,0,0,0,0,0,0,0,0,0,-1,1252,1191,0,0
35,-167,0,0,0,0,0,0,0,0,0,-1,1259,1191,0,0
42,-167,0,0,0,0,0,0,0,0,0,-1,1266,1191,0,0
49,-167,0,0,0,0,0,0,0,0,0,-1,1273,1191,0,0
56,-167,0,0,0,0,0,0,0,0,0,-1,1280,1191,0,0
63,-167,0,0,0,0,0,0,0,0,0,-1,1287,1191,0,0
70,-167,0,0,0,0,0,0,0,0,0,-1,1294,1191,0,0
77,-167,0,0,0,0,0,0,0,0,0,-1,1301,1191,0,0
84,-167,0,0,0,0,0,0,0,0,0,-1,1308,1191,0,0
91,-167,0,0,0,0,0,0,0,0,0,-1,1315,1191,0,0
98,-167,0,0,0,0,0,0,0,0,0,-1,1322,1191,0,0
105,-167,0,0,0,0,0,0,0,0,0,-1,1329,1191,0,0
112,-167,0,0,0,0,0,0,0,0,0,-1,1336,1191,0,0
119,-167,0,0,0,0,0,0,0,0,0,-1,1343,1191,0,0
126,-167,0,0,0,0,0,0,0,0,0,-1,1350,1191,0,0
133,-167,0,0,0,0,0,0,0,0,0,-1,1357,1191,0,0
140,-167,0,0,0,0,0,0,0,0,0,-1,1364,1191,0,0
147,-167,0,0,0,0,0,0,0,0,0,-1,1371,1191,0,0
154,-167,0,0,0,0,0,0,0,0,0,-1,1378,1191,0,0
161,-167,0,0,0,0,0,0,0,0,0,-1,1385,1191,0,0
168,-167,0,0,0,0,0,0,0,0,0,-1,1392,1191,0,0
175,-167,0,0,0,0,0,0,0,0,0,-1,1399,1191,0,0
182,-167,0,0,0,0,0,0,0,0,0,-1,1406,1191,0,0
189,-167,0,0,0,0,0,0,0,0,0,-1,1413,1191,0,0
196,-167,0,0,0,0,0,0,0,0,0,-1,1420,1191,0,0
203,-167,0,0,0,0,0,0,0,0,0,-1,1427,1191,0,0
210,-167,0,0,0,0,0,0,0,0,0,-1,1434,1191,0,0
217,-167,0,0,0,0,0,0,0,0,0,-1,1441,1191,0,0
224,-167,0,0,0,0,0,0,0,0,0,-1,1448,1191,0,0
231,-167,0,0,0,0,0,0,0,0,0,-1,1455,1191,0,0
238,-167,0,0,0,0,0,0,0,0,0,-1,1462,1191,0,0
245,-167,0,0,0,0,0,0,0,0,0,-1,1469,1191,0,0
252,-167,0,0,0,0,0,0,0,0,0,-1,1476,1191,0,0
259,-167,0,0,0,0,0,0,0,0,0,-1,1483,1191,0,0
266,-167,0,0,0,0,0,0,0,0,0,-1,1490,1191,0,0
273,-167,0,0,0,0,0,0,0,0,0,-1,1497,1191,0,0
280,-167,0,0,0,0,0,0,0,0,0,-1,1504,1191,0,0
287,-167,0,0,0,0,0,0,0,0,0,-1,1511,1191,0,0
294,-167,0,0,0,0,0,0,0,0,0,-1,1518,1191,0,0
301,-167,0,0,0,0,0,0,0,0,0,-1,1525,1191,0,0
308,-167,0,0,0,0,0,0,0,0,0,-1,1532,1191,0,0
315,-167,0,0,0,0,0,0,0,0,0,-1,1539,1191,0,0
322,-167,0,0,0,0,0,0,0,0,0,-1,1546,1191,0,0
329,-167,0,0,0,0,0,0,0,0,0,-1,1553,1191,0,0
336,-167,0,0,0,0,0,0,0,0,0,-1,1560,1191,0,0
343,-167,0,0,0,0,0,0,0,0,0,-1,1567,1191,0,0
350,-167,0,0,0,0,0,0,0,0,0,-1,1574,1191,0,0
357,-167,0,0,0,0,0,0,0,0,0,-1,1581,1191,0,0
364,-167,0,0,0,0,0,0,0,0,0,-1,1588,1191,0,0
371,-167,0,0,0,0,0,0,0,0,0,-1,1595,1191,0,0
378,-167,0,0,0,0,0,0,0,0,0,-1,1602,1191,0,0
385,-167,0,0,0,0,0,0,0,0,0,-1,1609,1191,0,0
392,-167,0,0,0,0,0,0,0,0,0,-1,1616,1191,0,0
399,-167,0,0,0,0,0,0,0,0,0,-1,1623,1191,0,0
406,-167,0,0,0,0,0,0,0,0,0,-1,1630,1191,0,0
413,-167,0,0,0,0,0,0,0,0,0,-1,1637,1191,0,0
420,-167,0,0,0,0,0,0,0,0,0,-1,1644,1191,0,0
427,-167,0,0,0,0,0,0,0,0,0,-1,1651,1191,0,0
434,-167,0,0,0,0,0,0,0,0,0,-1,1658,1191,0,0
441,-167,0,0,0,0,0,0,0,0,0,-1,1665,1191,0,0
448,-167,0,0,0,0,0,0,0,0,0,-1,1672,1191,0,0
455,-167,0,0,0,0,0,0,0,0,0,-1,1679,1191,0,0
462,-167,0,0,0,0,0,0,0,0,0,-1,1686,1191,0,0
469,-167,0,0,0,0,0,0,0,0,0,-1,1693,1191,0,0
476,-167,0,0,0,0,0,0,0,0,0,-1,1700,1191,0,0
483,-167,0,0,0,0,0,0,0,0,0,-1,1707,1191,0,0
490,-167,0,0,0,0,0,0,0,0,0,-1,1714,1191,0,0
497,-167,0,0,0,0,0,0,0,0,0,-1,1721,1191,0,0
504,-167,0,0,0,0,0,0,0,0,0,-1,1728,1191,0,0
511,-167,0,0,0,0,0,0,0,0,0,-1,1735,1191,0,0
518,-167,0,0,0,0,0,0,0,0,0,-1,1742,1191,0,0
525,-167,0,0,0,0,0,0,0,0,0,-1,1749,1191,0,0
532,-167,0,0,0,0,0,0,0,0,0,-1,1756,1191,0,0
539,-167,0,0,0,0,0,0,0,0,0,-1,1763,1191,0,0
546,-167,0,0,0,0,0,0,0,0,0,-1,1770,1191,0,0
553,-167,0,0,0,0,0,0,0,0,0,-1,1777,1191,0,0
560,-167,0,0,0,0,0,0,0,0,0,-1,1784,1191,0,0
567,-167,0,0,0,0,0,0,0,0,0,-1,1791,1191,0,0
574,-167,0,0,0,0,0,0,0,0,0,-1,1798,1191,0,0
581,-167,0,0,0,0,0,0,0,0,0,-1,1805,1191,0,0
588,-167,0,0,0,0,0,0,0,0,0,-1,1812,1191,0,0
595,-167,0,0,0,0,0,0,0,0,0,-1,1819,1191,0,0
602,-167,0,0,0,0,0,0,0,0,0,-1,1826,1191,0,0
609,-167,0,0,0,0,0,0,0,0,0,-1,1833,1191,0,0
616,-167,0,0,0,0,0,0,0,0,0,-1,1840,1191,0,0
623,-167,0,0,0,0,0,0,0,0,0,-1,1847,1191,0,0
630,-167,0,0,0,0,0,0,0,0,0,-1,1854,1191,0,0
637,-167,66.8641,2.04895,0.00174016,0.00470774,-1.0649e-05,0.00470778,0.00174012,-1.56721,0.00274866,0.0429828,1861,1191,66.8641,-2.04898
644,-167,66.9579,2.07153,0.00117929,0.00314654,7.94973e-05,0.00314975,0.00117609,1.53047,0.00183784,0.0449082,1868,1191,66.9579,-2.07153
651,-167,66.895,2.2655,0.000790081,0.00211704,-0.000132185,0.00213008,0.000777042,-1.47247,0.0012447,0.0433332,1875,1191,66.895,-2.26551
658,-167,66.9397,2.3385,0.000490446,0.00149738,-0.000557986,0.00174547,0.000242363,-1.15244,0.00109186,0.0465407,1882,1191,66.9396,-2.33851
665,-167,67.1149,2.37415,0.000254169,0.0011636,-0.00104121,0.00184505,-0.000427282,-0.991276,0.00139446,0.0413228,1889,1191,67.1149,-2.3742
672,-167,67.0674,2.36743,0.000218414,0.00101056,-0.001542,0.00220654,-0.000977569,-0.911108,0.00188344,0.0273215,1896,1191,67.0674,-2.36747
679,-167,67.011,2.28857,0.000386289,0.000903826,-0.00185552,0.00251853,-0.00122842,-0.854681,0.00220563,0.0206102,1903,1191,67.011,-2.28852
686,-167,66.9734,2.20728,0.000813192,0.00131015,-0.001888,0.00296595,-0.00084261,-0.850827,0.00230998,0.0291003,1910,1191,66.9733,-2.20733
693,-167,66.9252,2.14392,0,0,0,0,0,0,0,-1,1917,1191,66.9251,-2.14386
700,-167,28.0459,2.70508,0,0,0,0,0,0,0,-1,1924,1191,28.0459,-2.70513
707,-167,29.4708,7.10168,0,0,0,0,0,0,0,-1,1931,1191,29.4708,-7.10172
714,-167,35.9202,6.84668,0,0,0,0,0,0,0,-1,1938,1191,35.9202,-6.84664
721,-167,36.2072,6.38892,0,0,0,0,0,0,0,-1,1945,1191,36.2072,-6.38891
728,-167,56.3632,8.89856,0,0,0,0,0,0,0,-1,1952,1191,56.3631,-8.89859
735,-167,56.5929,8.31897,0.00160674,0.00146038,-1.03107e-05,0.00160746,0.00145966,-0.0699896,0.00102593,0.0316786,1959,1191,56.5929,-8.31899
742,-167,56.5247,7.54968,0.00158888,0.00119887,0.000664209,0.00208611,0.000701629,0.642615,0.00122574,0.0157729,1966,1191,56.5246,-7.54971
749,-167,56.5033,6.9231,0.00131491,0.00180187,0.00126119,0.00284287,0.000273914,0.880752,0.00181086,0.0146525,1973,1191,56.5033,-6.9231
756,-167,56.5117,6.35364,0.00217178,0.00380399,0.00145068,0.00465236,0.0013234,1.04162,0.00276798,0.0118044,1980,1191,56.5118,-6.35359
763,-167,56.4296,5.7677,0.00358496,0.0066831,0.00116134,0.00707009,0.00319798,1.24914,0.0040881,0.0139509,1987,1191,56.4296,-5.76772
770,-167,56.1997,5.28174,0.00568769,0.0106036,0.000401753,0.0106362,0.00565507,1.48979,0.00614493,0.0372476,1994,1191,56.1997,-5.28173
777,-167,56.3511,4.86267,0,0,0,0,0,0,0,-1,2001,1191,56.351,-4.8627
784,-167,56.9365,4.00818,0,0,0,0,0,0,0,-1,2008,1191,56.9366,-4.00821
791,-167,57.2334,3.13672,0.0168856,0.0309111,-0.0060384,0.0331526,0.0146441,-1.21536,0.019184,0.0478232,2015,1191,57.2334,-3.13668
798,-167,56.4692,2.02917,0.0227097,0.0417961,-0.0102421,0.046252,0.0182539,-1.16044,0.0269004,0.0497696,2022,1191,56.4693,-2.0292
805,-167,55.8406,1.03149,0,0,0,0,0,0,0,-1,2029,1191,55.8405,-1.03144
812,-167,0,0,0,0,0,0,0,0,0,-1,2036,1191,0,0
-700,-174,0,0,0,0,0,0,0,0,0,-1,524,1198,0,0
-693,-174,0,0,0,0,0,0,0,0,0,-1,531,1198,0,0
-686,-174,-39.8954,-0.867676,0.287503,0.0508896,-0.192449,0.395101,-0.0567086,-0.509803,0.284196,0.0449966,538,1198,-39.8954,0.867623
-679,-174,-38.2819,-0.381104,0.236224,0.0434923,-0.161529,0.327948,-0.0482319,-0.516445,0.236356,0.0441938,545,1198,-38.2819,0.381082
-672,-174,-36.5544,0.0201416,0.189273,0.0361599,-0.131917,0.265238,-0.0398053,-0.522479,0.191478,0.0477396,552,1198,-36.5544,-0.0201658
-665,-174,-35.3906,-0.223511,0.147819,0.0294005,-0.104988,0.209143,-0.0319236,-0.528649,0.151198,0.0496964,559,1198,-35.3906,0.223538
-658,-174,-33.821,-0.0540771,0,0,0,0,0,0,0,-1,566,1198,-33.821,0.0540977
-651,-174,-39.9091,2.12476,0,0,0,0,0,0,0,-1,573,1198,-39.9091,-2.12477
-644,-174,-40.0284,2.62305,0.0552668,0.0130663,-0.0428049,0.0818895,-0.0135564,-0.556406,0.0596277,0.0450007,580,1198,-40.0285,-2.62309
-637,-174,-40.1989,3.15405,0.0335427,0.00884348,-0.0278907,0.0516955,-0.00930941,-0.576979,0.0379494,0.0256065,587,1198,-40.1989,-3.15408
-630,-174,-40.3409,3.72058,0.0153052,0.00502124,-0.0151918,0.0262016,-0.00587518,-0.622215,0.0197201,0.0138289,594,1198,-40.3409,-3.72062
-623,-174,-40.3862,4.33582,0.00289668,0.00214909,-0.00610065,0.00863498,-0.00358921,-0.754801,0.00725528,0.0144054,601,1198,-40.3861,-4.33584
-616,-174,-40.3936,4.98767,-0.00341111,-4.33729e-05,-0.00102436,0.000243728,-0.00369821,-1.29753,0.0025506,0.0194326,608,1198,-40.3936,-4.98772
-609,-174,-40.4529,5.6438,-0.00285073,-0.000856088,-0.00151291,-4.13556e-05,-0.00366546,-1.07681,0.00242997,0.0218204,615,1198,-40.4529,-5.64383
-602,-174,-40.4871,6.2926,0,0,0,0,0,0,0,-1,622,1198,-40.4871,-6.29257
-595,-174,-40.7778,6.75232,0,0,0,0,0,0,0,-1,629,1198,-40.7778,-6.75234
-588,-174,-40.8331,7.49695,0,0,0,0,0,0,0,-1,636,1198,-40.8331,-7.49696
-581,-174,-40.8883,8.24158,0,0,0,0,0,0,0,-1,643,1198,-40.8883,-8.24157
-574,-174,-31.7448,7.09595,0,0,0,0,0,0,0,-1,650,1198,-31.7448,-7.09599
-567,-174,-26.6597,3.04041,0,0,0,0,0,0,0,-1,657,1198,-26.6597,-3.04039
-560,-174,-42.6953,1.07178,0,0,0,0,0,0,0,-1,664,1198,-42.6953,-1.07181
-553,-174,-51.3623,0.420654,0,0,0,0,0,0,0,-1,671,1198,-51.3623,-0.420678
-546,-174,-51.4199,0.480469,-0.00450151,0.00126976,-0.000593217,0.00133011,-0.00456185,-1.46942,0.00356822,0.0305033,678,1198,-51.4199,-0.480414
-539,-174,-51.4747,0.6604,-0.00354804,0.00186497,-0.000818457,0.00198602,-0.00366908,-1.42397,0.00331282,0.0364027,685,1198,-51.4747,-0.660379
-532,-174,-51.533,0.90332,0.00022914,-3.39597e-05,-0.0002979,0.000423243,-0.000228062,-0.577478,0.000381618,0.047658,692,1198,-51.533,-0.903344
-525,-174,-51.595,0.976318,0.00624985,-0.00420579,0.000702445,0.00629683,-0.00425277,0.0667833,0.00612881,0.048657,699,1198,-51.595,-0.976375
-518,-174,-51.5618,1.08154,0,0,0,0,0,0,0,-1,706,1198,-51.5617,-1.08156
-511,-174,0,0,0,0,0,0,0,0,0,-1,713,1198,0,0
-504,-174,0,0,0,0,0,0,0,0,0,-1,720,1198,0,0
-497,-174,0,0,0,0,0,0,0,0,0,-1,727,1198,0,0
-490,-174,0,0,0,0,0,0,0,0,0,-1,734,1198,0,0
-483,-174,0,0,0,0,0,0,0,0,0,-1,741,1198,0,0
-476,-174,0,0,0,0,0,0,0,0,0,-1,748,1198,0,0
-469,-174,0,0,0,0,0,0,0,0,0,-1,755,1198,0,0
-462,-174,0,0,0,0,0,0,0,0,0,-1,762,1198,0,0
-455,-174,0,0,0,0,0,0,0,0,0,-1,769,1198,0,0
-448,-174,0,0,0,0,0,0,0,0,0,-1,776,1198,0,0
-441,-174,0,0,0,0,0,0,0,0,0,-1,783,1198,0,0
-434,-174,0,0,0,0,0,0,0,0,0,-1,790,1198,0,0
-427,-174,0,0,0,0,0,0,0,0,0,-1,797,1198,0,0
-420,-174,0,0,0,0,0,0,0,0,0,-1,804,1198,0,0
-413,-174,0,0,0,0,0,0,0,0,0,-1,811,1198,0,0
-406,-174,0,0,0,0,0,0,0,0,0,-1,818,1198,0,0
-399,-174,0,0,0,0,0,0,0,0,0,-1,825,1198,0,0
-392,-174,0,0,0,0,0,0,0,0,0,-1,832,1198,0,0
-385,-174,0,0,0,0,0,0,0,0,0,-1,839,1198,0,0
-378,-174,0,0,0,0,0,0,0,0,0,-1,846,1198,0,0
-371,-174,0,0,0,0,0,0,0,0,0,-1,853,1198,0,0
-364,-174,0,0,0,0,0,0,0,0,0,-1,860,1198,0,0
-357,-174,0,0,0,0,0,0,0,0,0,-1,867,1198,0,0
-350,-174,0,0,0,0,0,0,0,0,0,-1,874,1198,0,0
-343,-174,0,0,0,0,0,0,0,0,0,-1,881,1198,0,0
-336,-174,0,0,0,0,0,0,0,0,0,-1,888,1198,0,0
-329,-174,0,0,0,0,0,0,0,0,0,-1,895,1198,0,0
-322,-174,0,0,0,0,0,0,0,0,0,-1,902,1198,0,0
-315,-174,0,0,0,0,0,0,0,0,0,-1,909,1198,0,0
-308,-174,0,0,0,0,0,0,0,0,0,-1,916,1198,0,0
-301,-174,0,0,0,0,0,0,0,0,0,-1,923,1198,0,0
-294,-174,0,0,0,0,0,0,0,0,0,-1,930,1198,0,0
-287,-174,0,0,0,0,0,0,0,0,0,-1,937,1198,0,0
-280,-174,0,0,0,0,0,0,0,0,0,-1,944,1198,0,0
-273,-174,0,0,0,0,0,0,0,0,0,-1,951,1198,0,0
-266,-174,0,0,0,0,0,0,0,0,0,-1,958,1198,0,0
-259,-174,0,0,0,0,0,0,0,0,0,-1,965,1198,0,0
-252,-174,0,0,0,0,0,0,0,0,0,-1,972,1198,0,0
-245,-174,0,0,0,0,0,0,0,0,0,-1,979,1198,0,0
-238,-174,0,0,0,0,0,0,0,0,0,-1,986,1198,0,0
-231,-174,0,0,0,0,0,0,0,0,0,-1,993,1198,0,0
-224,-174,0,0,0,0,0,0,0,0,0,-1,1000,1198,0,0
-217,-174,0,0,0,0,0,0,0,0,0,-1,1007,1198,0,0
-210,-174,0,0,0,0,0,0,0,0,0,-1,1014,1198,0,0
-203,-174,0,0,0,0,0,0,0,0,0,-1,1021,1198,0,0
-196,-174,0,0,0,0,0,0,0,0,0,-1,1028,1198,0,0
-189,-174,0,0,0,0,0,0,0,0,0,-1,1035,1198,0,0
-182,-174,0,0,0,0,0,0,0,0,0,-1,1042,1198,0,0
-175,-174,0,0,0,0,0,0,0,0,0,-1,1049,1198,0,0
-168,-174,0,0,0,0,0,0,0,0,0,-1,1056,1198,0,0
-161,-174,0,0,0,0,0,0,0,0,0,-1,1063,1198,0,0
-154,-174,0,0,0,0,0,0,0,0,0,-1,1070,1198,0,0
-147,-174,0,0,0,0,0,0,0,0,0,-1,1077,1198,0,0
-140,-174,0,0,0,0,0,0,0,0,0,-1,1084,1198,0,0
-133,-174,0,0,0,0,0,0,0,0,0,-1,1091,1198,0,0
-126,-174,0,0,0,0,0,0,0,0,0,-1,1098,1198,0,0
-119,-174,0,0,0,0,0,0,0,0,0,-1,1105,1198,0,0
-112,-174,0,0,0,0,0,0,0,0,0,-1,1112,1198,0,0
-105,-174,0,0,0,0,0,0,0,0,0,-1,1119,1198,0,0
-98,-174,0,0,0,0,0,0,0,0,0,-1,1126,1198,0,0
-91,-174,0,0,0,0,0,0,0,0,0,-1,1133,1198,0,0
-84,-174,0,0,0,0,0,0,0,0,0,-1,1140,1198,0,0
-77,-174,0,0,0,0,0,0,0,0,0,-1,1147,1198,0,0
-70,-174,0,0,0,0,0,0,0,0,0,-1,1154,1198,0,0
-63,-174,0,0,0,0,0,0,0,0,0,-1,1161,1198,0,0
-56,-174,0,0,0,0,0,0,0,0,0,-1,1168,1198,0,0
-49,-174,0,0,0,0,0,0,0,0,0,-1,1175,1198,0,0
-42,-174,0,0,0,0,0,0,0,0,0,-1,1182,1198,0,0
-35,-174,0,0,0,0,0,0,0,0,0,-1,1189,1198,0,0
-28,-174,0,0,0,0,0,0,0,0,0,-1,1196,1198,0,0
-21,-174,0,0,0,0,0,0,0,0,0,-1,1203,1198,0,0
-14,-174,0,0,0,0,0,0,0,0,0,-1,1210,1198,0,0
-7,-174,0,0,0,0,0,0,0,0,0,-1,1217,1198,0,0
0,-174,0,0,0,0,0,0,0,0,0,-1,1224,1198,0,0
7,-174,0,0,0,0,0,0,0,0,0,-1,1231,1198,0,0
14,-174,0,0,0,0,0,0,0,0,0,-1,1238,1198,0,0
21,-174,0,0,0,0,0,0,0,0,0,-1,1245,1198,0,0
28,-174,0,0,0,0,0,0,0,0,0,-1,1252,1198,0,0
35,-174,0,0,0,0,0,0,0,0,0,-1,1259,1198,0,0
42,-174,0,0,0,0,0,0,0,0,0,-1,1266,1198,0,0
49,-174,0,0,0,0,0,0,0,0,0,-1,1273,1198,0,0
56,-174,0,0,0,0,0,0,0,0,0,-1,1280,1198,0,0
63,-174,0,0,0,0,0,0,0,0,0,-1,1287,1198,0,0
70,-174,0,0,0,0,0,0,0,0,0,-1,1294,1198,0,0
77,-174,0,0,0,0,0,0,0,0,0,-1,1301,1198,0,0
84,-174,0,0,0,0,0,0,0,0,0,-1,1308,1198,0,0
91,-174,0,0,0,0,0,0,0,0,0,-1,1315,1198,0,0
98,-174,0,0,0,0,0,0,0,0,0,-1,1322,1198,0,0
105,-174,0,0,0,0,0,0,0,0,0,-1,1329,1198,0,0
112,-174,0,0,0,0,0,0,0,0,0,-1,1336,1198,0,0
119,-174,0,0,0,0,0,0,0,0,0,-1,1343,1198,0,0
126,-174,0,0,0,0,0,0,0,0,0,-1,1350,1198,0,0
133,-174,0,0,0,0,0,0,0,0,0,-1,1357,1198,0,0
140,-174,0,0,0,0,0,0,0,0,0,-1,1364,1198,0,0
147,-174,0,0,0,0,0,0,0,0,0,-1,1371,1198,0,0
154,-174,0,0,0,0,0,0,0,0,0,-1,1378,1198,0,0
161,-174,0,0,0,0,0,0,0,0,0,-1,1385,1198,0,0
168,-174,0,0,0,0,0,0,0,0,0,-1,1392,1198,0,0
175,-174,0,0,0,0,0,0,0,0,0,-1,1399,1198,0,0
182,-174,0,0,0,0,0,0,0,0,0,-1,1406,1198,0,0
189,-174,0,0,0,0,0,0,0,0,0,-1,1413,1198,0,0
196,-174,0,0,0,0,0,0,0,0,0,-1,1420,1198,0,0
203,-174,0,0,0,0,0,0,0,0,0,-1,1427,1198,0,0
210,-174,0,0,0,0,0,0,0,0,0,-1,1434,1198,0,0
217,-174,0,0,0,0,0,0,0,0,0,-1,1441,1198,0,0
224,-174,0,0,0,0,0,0,0,0,0,-1,1448,1198,0,0
231,-174,0,0,0,0,0,0,0,0,0,-1,1455,1198,0,0
238,-174,0,0,0,0,0,0,0,0,0,-1,1462,1198,0,0
245,-174,0,0,0,0,0,0,0,0,0,-1,1469,1198,0,0
252,-174,0,0,0,0,0,0,0,0,0,-1,1476,1198,0,0
259,-174,0,0,0,0,0,0,0,0,0,-1,1483,1198,0,0
266,-174,0,0,0,0,0,0,0,0,0,-1,1490,1198,0,0
273,-174,0,0,0,0,0,0,0,0,0,-1,1497,1198,0,0
280,-174,0,0,0,0,0,0,0,0,0,-1,1504,1198,0,0
287,-174,0,0,0,0,0,0,0,0,0,-1,1511,1198,0,0
294,-174,0,0,0,0,0,0,0,0,0,-1,1518,1198,0,0
301,-174,0,0,0,0,0,0,0,0,0,-1,1525,1198,0,0
308,-174,0,0,0,0,0,0,0,0,0,-1,1532,1198,0,0
315,-174,0,0,0,0,0,0,0,0,0,-1,1539,1198,0,0
322,-174,0,0,0,0,0,0,0,0,0,-1,1546,1198,0,0
329,-174,0,0,0,0,0,0,0,0,0,-1,1553,1198,0,0
336,-174,0,0,0,0,0,0,0,0,0,-1,1560,1198,0,0
343,-174,0,0,0,0,0,0,0,0,0,-1,1567,1198,0,0
350,-174,0,0,0,0,0,0,0,0,0,-1,1574,1198,0,0
357,-174,0,0,0,0,0,0,0,0,0,-1,1581,1198,0,0
364,-174,0,0,0,0,0,0,0,0,0,-1,1588,1198,0,0
371,-174,0,0,0,0,0,0,0,0,0,-1,1595,1198,0,0
378,-174,0,0,0,0,0,0,0,0,0,-1,1602,1198,0,0
385,-174,0,0,0,0,0,0,0,0,0,-1,1609,1198,0,0
392,-174,0,0,0,0,0,0,0,0,0,-1,1616,1198,0,0
399,-174,0,0,0,0,0,0,0,0,0,-1,1623,1198,0,0
406,-174,0,0,0,0,0,0,0,0,0,-1,1630,1198,0,0
413,-174,0,0,0,0,0,0,0,0,0,-1,1637,1198,0,0
420,-174,0,0,0,0,0,0,0,0,0,-1,1644,1198,0,0
427,-174,0,0,0,0,0,0,0,0,0,-1,1651,1198,0,0
434,-174,0,0,0,0,0,0,0,0,0,-1,1658,1198,0,0
441,-174,0,0,0,0,0,0,0,0,0,-1,1665,1198,0,0
448,-174,0,0,0,0,0,0,0,0,0,-1,1672,1198,0,0
455,-174,0,0,0,0,0,0,0,0,0,-1,1679,1198,0,0
462,-174,0,0,0,0,0,0,0,0,0,-1,1686,1198,0,0
469,-174,0,0,0,0,0,0,0,0,0,-1,1693,1198,0,0
476,-174,0,0,0,0,0,0,0,0,0,-1,1700,1198,0,0
483,-174,0,0,0,0,0,0,0,0,0,-1,1707,1198,0,0
490,-174,0,0,0,0,0,0,0,0,0,-1,1714,1198,0,0
497,-174,0,0,0,0,0,0,0,0,0,-1,1721,1198,0,0
504,-174,0,0,0,0,0,0,0,0,0,-1,1728,1198,0,0
511,-174,0,0,0,0,0,0,0,0,0,-1,1735,1198,0,0
518,-174,0,0,0,0,0,0,0,0,0,-1,1742,1198,0,0
525,-174,0,0,0,0,0,0,0,0,0,-1,1749,1198,0,0
532,-174,0,0,0,0,0,0,0,0,0,-1,1756,1198,0,0
539,-174,0,0,0,0,0,0,0,0,0,-1,1763,1198,0,0
546,-174,0,0,0,0,0,0,0,0,0,-1,1770,1198,0,0
553,-174,0,0,0,0,0,0,0,0,0,-1,1777,1198,0,0
560,-174,0,0,0,0,0,0,0,0,0,-1,1784,1198,0,0
567,-174,0,0,0,0,0,0,0,0,0,-1,1791,1198,0,0
574,-174,0,0,0,0,0,0,0,0,0,-1,1798,1198,0,0
581,-174,0,0,0,0,0,0,0,0,0,-1,1805,1198,0,0
588,-174,0,0,0,0,0,0,0,0,0,-1,1812,1198,0,0
595,-174,0,0,0,0,0,0,0,0,0,-1,1819,1198,0,0
602,-174,0,0,0,0,0,0,0,0,0,-1,1826,1198,0,0
609,-174,0,0,0,0,0,0,0,0,0,-1,1833,1198,0,0
616,-174,0,0,0,0,0,0,0,0,0,-1,1840,1198,0,0
623,-174,0,0,0,0,0,0,0,0,0,-1,1847,1198,0,0
630,-174,0,0,0,0,0,0,0,0,0,-1,1854,1198,0,0
637,-174,67.0028,2.00867,0.00139467,0.00412631,0.000405272,0.00418516,0.00133581,1.42657,0.00246841,0.0419969,1861,1198,67.0028,-2.00871
644,-174,66.9843,2.21521,0.000975784,0.00282226,0.000253244,0.00285636,0.000941682,1.43694,0.00168071,0.0412401,1868,1198,66.9842,-2.21526
651,-174,66.9054,2.23535,0.000686229,0.0019693,-0.000145879,0.00198567,0.000669852,-1.459,0.00116647,0.0403681,1875,1198,66.9054,-2.23532
658,-174,67.0603,2.59265,0.000442382,0.00147689,-0.000702507,0.00183203,8.72438e-05,-1.10273,0.00119333,0.0420358,1882,1198,67.0603,-2.59267
665,-174,67.1158,2.41699,0.000237292,0.00118888,-0.00120913,0.00201246,-0.000586285,-0.972844,0.0015739,0.0377249,1889,1198,67.1159,-2.41702
672,-174,67.0024,2.30762,0.00023615,0.000992819,-0.00165334,0.00231056,-0.00108159,-0.897877,0.00200085,0.02832,1896,1198,67.0024,-2.30763
679,-174,66.9786,2.28503,0.000392182,0.00084705,-0.00190445,0.00253759,-0.00129836,-0.844828,0.00225288,0.0233594,1903,1198,66.9786,-2.28506
686,-174,66.9374,2.11694,0,0,0,0,0,0,0,-1,1910,1198,66.9374,-2.1169
693,-174,51.1324,2.57349,0,0,0,0,0,0,0,-1,1917,1198,51.1325,-2.57343
700,-174,25.4004,6.11792,0,0,0,0,0,0,0,-1,1924,1198,25.4004,-6.11797
707,-174,34.7908,7.34473,0,0,0,0,0,0,0,-1,1931,1198,34.7908,-7.34475
714,-174,40.1135,7.79871,0,0,0,0,0,0,0,-1,1938,1198,40.1135,-7.79875
721,-174,40.8693,7.59863,0,0,0,0,0,0,0,-1,1945,1198,40.8693,-7.59859
728,-174,55.7598,8.80798,0,0,0,0,0,0,0,-1,1952,1198,55.7598,-8.80799
735,-174,55.8606,8.22815,0.00144783,0.0014627,1.1328e-05,0.00146882,0.00144172,1.07584,0.000970305,0.0206755,1959,1198,55.8606,-8.22812
742,-174,55.911,7.56958,0.00146421,0.00125527,0.000689137,0.00205675,0.000662731,0.710171,0.00121223,0.0215458,1966,1198,55.911,-7.56958
749,-174,55.8989,6.96313,0.00114352,0.00191964,0.00116632,0.00276077,0.000302396,0.945997,0.00174845,0.0180798,1973,1198,55.899,-6.9631
756,-174,55.8752,6.36304,0.00179567,0.00384506,0.00127931,0.00445946,0.00118128,1.12307,0.00266786,0.010982,1980,1198,55.8753,-6.36304
763,-174,55.8237,5.77979,0.00268107,0.00662588,0.000818227,0.00678887,0.00251809,1.37418,0.00396286,0.0167263,1987,1198,55.8238,-5.77973
770,-174,55.8071,5.54663,0,0,0,0,0,0,0,-1,1994,1198,55.8071,-5.54664
777,-174,56.0764,4.38879,0,0,0,0,0,0,0,-1,2001,1198,56.0765,-4.3888
784,-174,53.5789,3.44214,0,0,0,0,0,0,0,-1,2008,1198,53.5789,-3.44215
791,-174,57.1069,2.9397,0,0,0,0,0,0,0,-1,2015,1198,57.107,-2.93976
798,-174,56.3467,1.53528,0.0143219,0.0433535,-0.0145241,0.049372,0.00830338,-1.17795,0.0305257,0.0499684,2022,1198,56.3466,-1.53531
805,-174,55.6506,0.717163,0,0,0,0,0,0,0,-1,2029,1198,55.6507,-0.71716
812,-174,0,0,0,0,0,0,0,0,0,-1,2036,1198,0,0
-700,-181,0,0,0,0,0,0,0,0,0,-1,524,1205,0,0
-693,-181,0,0,0,0,0,0,0,0,0,-1,531,1205,0,0
-686,-181,-37.9351,-0.735474,0,0,0,0,0,0,0,-1,538,1205,-37.935,0.735428
-679,-181,-36.1674,-0.348145,0,0,0,0,0,0,0,-1,545,1205,-36.1674,0.348137
-672,-181,-34.4888,-0.0239258,0,0,0,0,0,0,0,-1,552,1205,-34.4888,0.0239688
-665,-181,-33.2725,-0.327026,0,0,0,0,0,0,0,-1,559,1205,-33.2724,0.327078
-658,-181,-36.267,1.32532,0,0,0,0,0,0,0,-1,566,1205,-36.267,-1.3253
-651,-181,-39.5117,2.19189,0,0,0,0,0,0,0,-1,573,1205,-39.5117,-2.19187
-644,-181,-39.5499,2.65674,0.0578198,0.0143198,-0.0449779,0.0860305,-0.0138909,-0.560189,0.0625006,0.048792,580,1205,-39.5499,-2.65674
-637,-181,-39.5466,3.18689,0.0358662,0.00974153,-0.0295649,0.0551258,-0.00951811,-0.577384,0.0402997,0.0275262,587,1205,-39.5466,-3.1869
-630,-181,-39.6864,3.74292,0.0174541,0.0056832,-0.0166656,0.0292429,-0.00610568,-0.61566,0.0218172,0.0144635,594,1205,-39.6864,-3.74292
-623,-181,-39.7458,4.36877,0.0050445,0.00272238,-0.00762185,0.0115932,-0.00382634,-0.709813,0.0092713,0.0149308,601,1205,-39.7459,-4.36872
-616,-181,-39.7502,5.02063,-0.00168022,0.000505694,-0.00236524,0.0020183,-0.00319282,-1.00183,0.00303401,0.0141531,608,1205,-39.7503,-5.0206
-609,-181,-39.7835,5.67371,-0.00253061,-0.000703333,-0.00177068,0.000375523,-0.00360946,-1.02357,0.00254075,0.0144483,615,1205,-39.7835,-5.67368
-602,-181,-39.7546,6.33813,-0.00294026,-0.00102249,-0.00166634,-5.88447e-05,-0.00390391,-1.04648,0.00258322,0.0241787,622,1205,-39.7546,-6.33817
-595,-181,-39.5521,6.99854,0,0,0,0,0,0,0,-1,629,1205,-39.552,-6.9985
-588,-181,-40.2446,7.57336,0,0,0,0,0,0,0,-1,636,1205,-40.2445,-7.57339
-581,-181,-40.2067,8.38855,0,0,0,0,0,0,0,-1,643,1205,-40.2067,-8.38853
-574,-181,-37.8376,8.52734,0,0,0,0,0,0,0,-1,650,1205,-37.8376,-8.5273
-567,-181,-25.8839,3.34485,0,0,0,0,0,0,0,-1,657,1205,-25.8839,-3.3449
-560,-181,-31.7396,1.63306,0,0,0,0,0,0,0,-1,664,1205,-31.7396,-1.63303
-553,-181,-51.3779,0.489014,0,0,0,0,0,0,0,-1,671,1205,-51.3779,-0.489009
-546,-181,-51.4424,0.571167,-0.00398144,0.0013155,-0.00142412,0.00167411,-0.00434005,-1.32412,0.00358419,0.0392794,678,1205,-51.4424,-0.571137
-539,-181,-51.5712,0.805664,-0.0035553,0.00239131,-0.00185911,0.00292469,-0.00408868,-1.2914,0.00406772,0.0409286,685,1205,-51.5712,-0.805663
-532,-181,-51.757,0.884766,-0.00100209,0.00150236,-0.00144792,0.00216443,-0.00166417,-1.14192,0.00221673,0.0495229,692,1205,-51.757,-0.884742
-525,-181,-51.6502,0.665283,0.00499302,-0.0026382,-9.63564e-05,0.00499424,-0.00263941,-0.0126239,0.00447664,0.0478539,699,1205,-51.6502,-0.665285
-518,-181,-51.3481,0.5177,0.0117601,-0.0081644,0.00161809,0.0118907,-0.00829495,0.080508,0.0117156,0.0439912,706,1205,-51.3481,-0.517666
-511,-181,0,0,0,0,0,0,0,0,0,-1,713,1205,0,0
-504,-181,0,0,0,0,0,0,0,0,0,-1,720,1205,0,0
-497,-181,0,0,0,0,0,0,0,0,0,-1,727,1205,0,0
-490,-181,0,0,0,0,0,0,0,0,0,-1,734,1205,0,0
-483,-181,0,0,0,0,0,0,0,0,0,-1,741,1205,0,0
-476,-181,0,0,0,0,0,0,0,0,0,-1,748,1205,0,0
-469,-181,0,0,0,0,0,0,0,0,0,-1,755,1205,0,0
-462,-181,0,0,0,0,0,0,0,0,0,-1,762,1205,0,0
-455,-181,0,0,0,0,0,0,0,0,0,-1,769,1205,0,0
-448,-181,0,0,0,0,0,0,0,0,0,-1,776,1205,0,0
-441,-181,0,0,0,0,0,0,0,0,0,-1,783,1205,0,0
-434,-181,0,0,0,0,0,0,0,0,0,-1,790,1205,0,0
-427,-181,0,0,0,0,0,0,0,0,0,-1,797,1205,0,0
-420,-181,0,0,0,0,0,0,0,0,0,-1,804,1205,0,0
-413,-181,0,0,0,0,0,0,0,0,0,-1,811,1205,0,0
-406,-181,0,0,0,0,0,0,0,0,0,-1,818,1205,0,0
-399,-181,0,0,0,0,0,0,0,0,0,-1,825,1205,0,0
-392,-181,0,0,0,0,0,0,0,0,0,-1,832,1205,0,0
-385,-181,0,0,0,0,0,0,0,0,0,-1,839,1205,0,0
-378,-181,0,0,0,0,0,0,0,0,0,-1,846,1205,0,0
-371,-181,0,0,0,0,0,0,0,0,0,-1,853,1205,0,0
-364,-181,0,0,0,0,0,0,0,0,0,-1,860,1205,0,0
-357,-181,0,0,0,0,0,0,0,0,0,-1,867,1205,0,0
-350,-181,0,0,0,0,0,0,0,0,0,-1,874,1205,0,0
-343,-181,0,0,0,0,0,0,0,0,0,-1,881,1205,0,0
-336,-181,0,0,0,0,0,0,0,0,0,-1,888,1205,0,0
-329,-181,0,0,0,0,0,0,0,0,0,-1,895,1205,0,0
-322,-181,0,0,0,0,0,0,0,0,0,-1,902,1205,0,0
-315,-181,0,0,0,0,0,0,0,0,0,-1,909,1205,0,0
-308,-181,0,0,0,0,0,0,0,0,0,-1,916,1205,0,0
-301,-181,0,0,0,0,0,0,0,0,0,-1,923,1205,0,0
-294,-181,0,0,0,0,0,0,0,0,0,-1,930,1205,0,0
-287,-181,0,0,0,0,0,0,0,0,0,-1,937,1205,0,0
-280,-181,0,0,0,0,0,0,0,0,0,-1,944,1205,0,0
-273,-181,0,0,0,0,0,0,0,0,0,-1,951,1205,0,0
-266,-181,0,0,0,0,0,0,0,0,0,-1,958,1205,0,0
-259,-181,0,0,0,0,0,0,0,0,0,-1,965,1205,0,0
-252,-181,0,0,0,0,0,0,0,0,0,-1,972,1205,0,0
-245,-181,0,0,0,0,0,0,0,0,0,-1,979,1205,0,0
-238,-181,0,0,0,0,0,0,0,0,0,-1,986,1205,0,0
-231,-181,0,0,0,0,0,0,0,0,0,-1,993,1205,0,0
-224,-181,0,0,0,0,0,0,0,0,0,-1,1000,1205,0,0
-217,-181,0,0,0,0,0,0,0,0,0,-1,1007,1205,0,0
-210,-181,0,0,0,0,0,0,0,0,0,-1,1014,1205,0,0
-203,-181,0,0,0,0,0,0,0,0,0,-1,1021,1205,0,0
-196,-181,0,0,0,0,0,0,0,0,0,-1,1028,1205,0,0
-189,-181,0,0,0,0,0,0,0,0,0,-1,1035,1205,0,0
-182,-181,0,0,0,0,0,0,0,0,0,-1,1042,1205,0,0
-175,-181,0,0,0,0,0,0,0,0,0,-1,1049,1205,0,0
-168,-181,0,0,0,0,0,0,0,0,0,-1,1056,1205,0,0
-161,-181,0,0,0,0,0,0,0,0,0,-1,1063,1205,0,0
-154,-181,0,0,0,0,0,0,0,0,0,-1,1070,1205,0,0
-147,-181,0,0,0,0,0,0,0,0,0,-1,1077,1205,0,0
-140,-181,0,0,0,0,0,0,0,0,0,-1,1084,1205,0,0
-133,-181,0,0,0,0,0,0,0,0,0,-1,1091,1205,0,0
-126,-181,0,0,0,0,0,0,0,0,0,-1,1098,1205,0,0
-119,-181,0,0,0,0,0,0,0,0,0,-1,1105,1205,0,0
-112,-181,0,0,0,0,0,0,0,0,0,-1,1112,1205,0,0
-105,-181,0,0,0,0,0,0,0,0,0,-1,1119,1205,0,0
-98,-181,0,0,0,0,0,0,0,0,0,-1,1126,1205,0,0
-91,-181,0,0,0,0,0,0,0,0,0,-1,1133,1205,0,0
-84,-181,0,0,0,0,0,0,0,0,0,-1,1140,1205,0,0
-77,-181,0,0,0,0,0,0,0,0,0,-1,1147,1205,0,0
-70,-181,0,0,0,0,0,0,0,0,0,-1,1154,1205,0,0
-63,-181,0,0,0,0,0,0,0,0,0,-1,1161,1205,0,0
-56,-181,0,0,0,0,0,0,0,0,0,-1,1168,1205,0,0
-49,-181,0,0,0,0,0,0,0,0,0,-1,1175,1205,0,0
-42,-181,0,0,0,0,0,0,0,0,0,-1,1182,1205,0,0
-35,-181,0,0,0,0,0,0,0,0,0,-1,1189,1205,0,0
-28,-181,0,0,0,0,0,0,0,0,0,-1,1196,1205,0,0
-21,-181,0,0,0,0,0,0,0,0,0,-1,1203,1205,0,0
-14,-181,0,0,0,0,0,0,0,0,0,-1,1210,1205,0,0
-7,-181,0,0,0,0,0,0,0,0,0,-1,1217,1205,0,0
0,-181,0,0,0,0,0,0,0,0,0,-1,1224,1205,0,0
7,-181,0,0,0,0,0,0,0,0,0,-1,1231,1205,0,0
14,-181,0,0,0,0,0,0,0,0,0,-1,1238,1205,0,0
21,-181,0,0,0,0,0,0,0,0,0,-1,1245,1205,0,0
28,-181,0,0,0,0,0,0,0,0,0,-1,1252,1205,0,0
35,-181,0,0,0,0,0,0,0,0,0,-1,1259,1205,0,0
42,-181,0,0,0,0,0,0,0,0,0,-1,1266,1205,0,0
49,-181,0,0,0,0,0,0,0,0,0,-1,1273,1205,0,0
56,-181,0,0,0,0,0,0,0,0,0,-1,1280,1205,0,0
63,-181,0,0,0,0,0,0,0,0,0,-1,1287,1205,0,0
70,-181,0,0,0,0,0,0,0,0,0,-1,1294,1205,0,0
77,-181,0,0,0,0,0,0,0,0,0,-1,1301,1205,0,0
84,-181,0,0,0,0,0,0,0,0,0,-1,1308,1205,0,0
91,-181,0,0,0,0,0,0,0,0,0,-1,1315,1205,0,0
98,-181,0,0,0,0,0,0,0,0,0,-1,1322,1205,0,0
105,-181,0,0,0,0,0,0,0,0,0,-1,1329,1205,0,0
112,-181,0,0,0,0,0,0,0,0,0,-1,1336,1205,0,0
119,-181,0,0,0,0,0,0,0,0,0,-1,1343,1205,0,0
126,-181,0,0,0,0,0,0,0,0,0,-1,1350,1205,0,0
133,-181,0,0,0,0,0,0,0,0,0,-1,1357,1205,0,0
140,-181,0,0,0,0,0,0,0,0,0,-1,1364,1205,0,0
147,-181,0,0,0,0,0,0,0,0,0,-1,1371,1205,0,0
154,-181,0,0,0,0,0,0,0,0,0,-1,1378,1205,0,0
161,-181,0,0,0,0,0,0,0,0,0,-1,1385,1205,0,0
168,-181,0,0,0,0,0,0,0,0,0,-1,1392,1205,0,0
175,-181,0,0,0,0,0,0,0,0,0,-1,1399,1205,0,0
182,-181,0,0,0,0,0,0,0,0,0,-1,1406,1205,0,0
189,-181,0,0,0,0,0,0,0,0,0,-1,1413,1205,0,0
196,-181,0,0,0,0,0,0,0,0,0,-1,1420,1205,0,0
203,-181,0,0,0,0,0,0,0,0,0,-1,1427,1205,0,0
210,-181,0,0,0,0,0,0,0,0,0,-1,1434,1205,0,0
217,-181,0,0,0,0,0,0,0,0,0,-1,1441,1205,0,0
224,-181,0,0,0,0,0,0,0,0,0,-1,1448,1205,0,0
231,-181,0,0,0,0,0,0,0,0,0,-1,1455,1205,0,0
238,-181,0,0,0,0,0,0,0,0,0,-1,1462,1205,0,0
245,-181,0,0,0,0,0,0,0,0,0,-1,1469,1205,0,0
252,-181,0,0,0,0,0,0,0,0,0,-1,1476,1205,0,0
259,-181,0,0,0,0,0,0,0,0,0,-1,1483,1205,0,0
266,-181,0,0,0,0,0,0,0,0,0,-1,1490,1205,0,0
273,-181,0,0,0,0,0,0,0,0,0,-1,1497,1205,0,0
280,-181,0,0,0,0,0,0,0,0,0,-1,1504,1205,0,0
287,-181,0,0,0,0,0,0,0,0,0,-1,1511,1205,0,0
294,-181,0,0,0,0,0,0,0,0,0,-1,1518,1205,0,0
301,-181,0,0,0,0,0,0,0,0,0,-1,1525,1205,0,0
308,-181,0,0,0,0,0,0,0,0,0,-1,1532,1205,0,0
315,-181,0,0,0,0,0,0,0,0,0,-1,1539,1205,0,0
322,-181,0,0,0,0,0,0,0,0,0,-1,1546,1205,0,0
329,-181,0,0,0,0,0,0,0,0,0,-1,1553,1205,0,0
336,-181,0,0,0,0,0,0,0,0,0,-1,1560,1205,0,0
343,-181,0,0,0,0,0,0,0,0,0,-1,1567,1205,0,0
350,-181,0,0,0,0,0,0,0,0,0,-1,1574,1205,0,0
357,-181,0,0,0,0,0,0,0,0,0,-1,1581,1205,0,0
364,-181,0,0,0,0,0,0,0,0,0,-1,1588,1205,0,0
371,-181,0,0,0,0,0,0,0,0,0,-1,1595,1205,0,0
378,-181,0,0,0,0,0,0,0,0,0,-1,1602,1205,0,0
385,-181,0,0,0,0,0,0,0,0,0,-1,1609,1205,0,0
392,-181,0,0,0,0,0,0,0,0,0,-1,1616,1205,0,0
399,-181,0,0,0,0,0,0,0,0,0,-1,1623,1205,0,0
406,-181,0,0,0,0,0,0,0,0,0,-1,1630,1205,0,0
413,-181,0,0,0,0,0,0,0,0,0,-1,1637,1205,0,0
420,-181,0,0,0,0,0,0,0,0,0,-1,1644,1205,0,0
427,-181,0,0,0,0,0,0,0,0,0,-1,1651,1205,0,0
434,-181,0,0,0,0,0,0,0,0,0,-1,1658,1205,0,0
441,-181,0,0,0,0,0,0,0,0,0,-1,1665,1205,0,0
448,-181,0,0,0,0,0,0,0,0,0,-1,1672,1205,0,0
455,-181,0,0,0,0,0,0,0,0,0,-1,1679,1205,0,0
462,-181,0,0,0,0,0,0,0,0,0,-1,1686,1205,0,0
469,-181,0,0,0,0,0,0,0,0,0,-1,1693,1205,0,0
476,-181,0,0,0,0,0,0,0,0,0,-1,1700,1205,0,0
483,-181,0,0,0,0,0,0,0,0,0,-1,1707,1205,0,0
490,-181,0,0,0,0,0,0,0,0,0,-1,1714,1205,0,0
497,-181,0,0,0,0,0,0,0,0,0,-1,1721,1205,0,0
504,-181,0,0,0,0,0,0,0,0,0,-1,1728,1205,0,0
511,-181,0,0,0,0,0,0,0,0,0,-1,1735,1205,0,0
518,-181,0,0,0,0,0,0,0,0,0,-1,1742,1205,0,0
525,-181,0,0,0,0,0,0,0,0,0,-1,1749,1205,0,0
532,-181,0,0,0,0,0,0,0,0,0,-1,1756,1205,0,0
539,-181,0,0,0,0,0,0,0,0,0,-1,1763,1205,0,0
546,-181,0,0,0,0,0,0,0,0,0,-1,1770,1205,0,0
553,-181,0,0,0,0,0,0,0,0,0,-1,1777,1205,0,0
560,-181,0,0,0,0,0,0,0,0,0,-1,1784,1205,0,0
567,-181,0,0,0,0,0,0,0,0,0,-1,1791,1205,0,0
574,-181,0,0,0,0,0,0,0,0,0,-1,1798,1205,0,0
581,-181,0,0,0,0,0,0,0,0,0,-1,1805,1205,0,0
588,-181,0,0,0,0,0,0,0,0,0,-1,1812,1205,0,0
595,-181,0,0,0,0,0,0,0,0,0,-1,1819,1205,0,0
602,-181,0,0,0,0,0,0,0,0,0,-1,1826,1205,0,0
609,-181,0,0,0,0,0,0,0,0,0,-1,1833,1205,0,0
616,-181,0,0,0,0,0,0,0,0,0,-1,1840,1205,0,0
623,-181,0,0,0,0,0,0,0,0,0,-1,1847,1205,0,0
630,-181,66.9998,2.45569,0.00139589,0.00506028,0.000901548,0.00527007,0.00118609,1.34216,0.00319233,0.0375815,1854,1205,66.9998,-2.45568
637,-181,67.0259,2.33069,0.00111228,0.00352407,0.000784906,0.00375702,0.000879339,1.2823,0.00226909,0.0373805,1861,1205,67.0259,-2.3307
644,-181,67.0291,2.36902,0.000783614,0.00255222,0.000432815,0.00265246,0.000683376,1.34321,0.00159024,0.0385733,1868,1205,67.029,-2.36905
651,-181,67.0148,2.41956,0.000554934,0.00193571,-0.000155565,0.00195302,0.000537625,-1.45998,0.00116492,0.0374852,1875,1205,67.0148,-2.41953
658,-181,66.9604,2.45178,0.000342122,0.00155887,-0.000800425,0.00195588,-5.48885e-05,-1.11035,0.0013226,0.033865,1882,1205,66.9604,-2.4518
665,-181,66.9844,2.43665,0.000173246,0.0012608,-0.00126812,0.00209681,-0.000662772,-0.987942,0.00166341,0.0355916,1889,1205,66.9844,-2.43662
672,-181,66.9659,2.38464,0.000221502,0.000964324,-0.00160257,0.00223796,-0.00105213,-0.899268,0.00194022,0.0263895,1896,1205,66.9659,-2.38465
679,-181,67.0162,2.3468,0.000364521,0.000720702,-0.00177332,0.00232485,-0.00123962,-0.835444,0.0020895,0.0309324,1903,1205,67.0163,-2.34681
686,-181,67.0745,2.27856,0,0,0,0,0,0,0,-1,1910,1205,67.0745,-2.27853
693,-181,36.1301,2.91016,0,0,0,0,0,0,0,-1,1917,1205,36.1302,-2.9102
700,-181,29.5845,6.58398,0,0,0,0,0,0,0,-1,1924,1205,29.5844,-6.58395
707,-181,55.4949,10.6722,0,0,0,0,0,0,0,-1,1931,1205,55.4949,-10.6722
714,-181,55.6268,10.3521,0,0,0,0,0,0,0,-1,1938,1205,55.6268,-10.3521
721,-181,51.2217,9.59631,0,0,0,0,0,0,0,-1,1945,1205,51.2217,-9.59637
728,-181,55.3246,8.80005,0,0,0,0,0,0,0,-1,1952,1205,55.3246,-8.80007
735,-181,55.3331,8.19873,0.00126086,0.00127463,6.38661e-05,0.00133198,0.00120351,0.839092,0.000848414,0.015875,1959,1205,55.3331,-8.19869
742,-181,55.2941,7.61853,0.00128975,0.00116754,0.000750329,0.00198146,0.000475834,0.74477,0.00119439,0.0190014,1966,1205,55.2941,-7.61855
749,-181,55.2681,6.97522,0.000888716,0.00192964,0.00110063,0.00262666,0.000191695,1.00626,0.00169084,0.0162403,1973,1205,55.2681,-6.97518
756,-181,55.2609,6.35522,0.00133428,0.0037664,0.0011653,0.0042346,0.000866083,1.18875,0.00258323,0.0115634,1980,1205,55.2609,-6.35521
763,-181,55.256,5.7677,0.00174189,0.00643645,0.000592026,0.00650996,0.00166839,1.44726,0.00390453,0.0166325,1987,1205,55.256,-5.76772
770,-181,55.303,5.20044,0,0,0,0,0,0,0,-1,1994,1205,55.3031,-5.20047
777,-181,53.519,4.25916,0,0,0,0,0,0,0,-1,2001,1205,53.5191,-4.25914
784,-181,49.4673,-0.801392,0,0,0,0,0,0,0,-1,2008,1205,49.4674,0.801388
791,-181,58.2214,-1.9187,0,0,0,0,0,0,0,-1,2015,1205,58.2215,1.91871
798,-181,56.0811,0.891479,0,0,0,0,0,0,0,-1,2022,1205,56.081,-0.89145
805,-181,0,0,0,0,0,0,0,0,0,-1,2029,1205,0,0
812,-181,0,0,0,0,0,0,0,0,0,-1,2036,1205,0,0
-700,-188,0,0,0,0,0,0,0,0,0,-1,524,1212,0,0
-693,-188,0,0,0,0,0,0,0,0,0,-1,531,1212,0,0
-686,-188,0,0,0,0,0,0,0,0,0,-1,538,1212,0,0
-679,-188,-33.9051,-0.324707,0,0,0,0,0,0,0,-1,545,1212,-33.9051,0.324712
-672,-188,-32.1877,-0.121948,0,0,0,0,0,0,0,-1,552,1212,-32.1877,0.121987
-665,-188,-40.1651,0.3573,0,0,0,0,0,0,0,-1,559,1212,-40.1651,-0.357304
-658,-188,-38.9851,2.146,0,0,0,0,0,0,0,-1,566,1212,-38.9851,-2.14604
-651,-188,-39.0159,2.52344,0.0864714,0.020461,-0.0634172,0.124958,-0.0180256,-0.545463,0.0899182,0.0487391,573,1212,-39.0159,-2.52341
-644,-188,-39.0485,2.83569,0.0590271,0.0150168,-0.0448165,0.0869494,-0.0129055,-0.557185,0.0627123,0.0462344,580,1212,-39.0485,-2.83575
-637,-188,-39.048,3.12537,0.0370458,0.0103473,-0.0297158,0.0562731,-0.00887999,-0.574291,0.0407988,0.0236063,587,1212,-39.048,-3.12533
-630,-188,-39.0533,3.74268,0.018668,0.00622861,-0.0171327,0.030675,-0.00577843,-0.611281,0.0226235,0.0112811,594,1212,-39.0533,-3.74273
-623,-188,-39.0748,4.40515,0.00642677,0.00327941,-0.00845467,0.013453,-0.0037468,-0.693385,0.0104441,0.0111549,601,1212,-39.0748,-4.40515
-616,-188,-39.0784,5.05042,-0.000437831,0.00108463,-0.00323384,0.00364562,-0.00299882,-0.900991,0.00384223,0.010324,608,1212,-39.0783,-5.05037
-609,-188,-39.0831,5.70593,-0.00222623,-0.000334775,-0.00186409,0.000809765,-0.00337077,-1.02015,0.00256015,0.0138364,615,1212,-39.0831,-5.70596
-602,-188,-39.0477,6.40234,-0.00268268,-0.000803808,-0.00168623,0.000187019,-0.00367351,-1.03955,0.00251366,0.024045,622,1212,-39.0477,-6.40238
-595,-188,-39.1846,6.97974,-0.00332236,-0.000876174,-0.000845587,-0.000612332,-0.0035862,-1.26835,0.00221508,0.0407336,629,1212,-39.1846,-6.97969
-588,-188,-39.5013,7.67371,0,0,0,0,0,0,0,-1,636,1212,-39.5013,-7.67371
-581,-188,-39.5106,8.27991,0,0,0,0,0,0,0,-1,643,1212,-39.5106,-8.27996
-574,-188,-39.6417,8.83386,0,0,0,0,0,0,0,-1,650,1212,-39.6417,-8.83391
-567,-188,-19.5786,4.10388,0,0,0,0,0,0,0,-1,657,1212,-19.5785,-4.10383
-560,-188,-23.9507,0.416626,0,0,0,0,0,0,0,-1,664,1212,-23.9508,-0.416602
-553,-188,-49.2368,1.03101,0,0,0,0,0,0,0,-1,671,1212,-49.2367,-1.03099
-546,-188,-51.4803,0.75415,0,0,0,0,0,0,0,-1,678,1212,-51.4803,-0.754133
-539,-188,-51.5788,0.71875,-0.00312517,0.00310703,-0.00251255,0.0039938,-0.00401194,-1.23151,0.00462212,0.0384015,685,1212,-51.5788,-0.718791
-532,-188,-51.709,0.640259,-0.00167907,0.00322321,-0.00254509,0.00430556,-0.00276142,-1.1687,0.00411246,0.0431371,692,1212,-51.709,-0.640254
-525,-188,-51.4777,0.44812,0.00336146,4.0511e-06,-0.00154192,0.00396214,-0.000596624,-0.371476,0.00286111,0.0417463,699,1212,-51.4777,-0.448141
-518,-188,-51.3303,0.494995,0.0101908,-0.00530897,0.000141337,0.0101921,-0.00531026,0.00911763,0.00909701,0.0427331,706,1212,-51.3303,-0.494981
-511,-188,-51.2405,0.418823,0.0183962,-0.013629,0.0025227,0.0185937,-0.0138265,0.0781302,0.0187851,0.0399753,713,1212,-51.2405,-0.418795
-504,-188,0,0,0,0,0,0,0,0,0,-1,720,1212,0,0
-497,-188,0,0,0,0,0,0,0,0,0,-1,727,1212,0,0
-490,-188,0,0,0,0,0,0,0,0,0,-1,734,1212,0,0
-483,-188,0,0,0,0,0,0,0,0,0,-1,741,1212,0,0
-476,-188,0,0,0,0,0,0,0,0,0,-1,748,1212,0,0
-469,-188,0,0,0,0,0,0,0,0,0,-1,755,1212,0,0
-462,-188,0,0,0,0,0,0,0,0,0,-1,762,1212,0,0
-455,-188,0,0,0,0,0,0,0,0,0,-1,769,1212,0,0
-448,-188,0,0,0,0,0,0,0,0,0,-1,776,1212,0,0
-441,-188,0,0,0,0,0,0,0,0,0,-1,783,1212,0,0
-434,-188,0,0,0,0,0,0,0,0,0,-1,790,1212,0,0
-427,-188,0,0,0,0,0,0,0,0,0,-1,797,1212,0,0
-420,-188,0,0,0,0,0,0,0,0,0,-1,804,1212,0,0
-413,-188,0,0,0,0,0,0,0,0,0,-1,811,1212,0,0
-406,-188,0,0,0,0,0,0,0,0,0,-1,818,1212,0,0
-399,-188,0,0,0,0,0,0,0,0,0,-1,825,1212,0,0
-392,-188,0,0,0,0,0,0,0,0,0,-1,832,1212,0,0
-385,-188,0,0,0,0,0,0,0,0,0,-1,839,1212,0,0
-378,-188,0,0,0,0,0,0,0,0,0,-1,846,1212,0,0
-371,-188,0,0,0,0,0,0,0,0,0,-1,853,1212,0,0
-364,-188,0,0,0,0,0,0,0,0,0,-1,860,1212,0,0
-357,-188,0,0,0,0,0,0,0,0,0,-1,867,1212,0,0
-350,-188,0,0,0,0,0,0,0,0,0,-1,874,1212,0,0
-343,-188,0,0,0,0,0,0,0,0,0,-1,881,1212,0,0
-336,-188,0,0,0,0,0,0,0,0,0,-1,888,1212,0,0
-329,-188,0,0,0,0,0,0,0,0,0,-1,895,1212,0,0
-322,-188,0,0,0,0,0,0,0,0,0,-1,902,1212,0,0
-315,-188,0,0,0,0,0,0,0,0,0,-1,909,1212,0,0
-308,-188,0,0,0,0,0,0,0,0,0,-1,916,1212,0,0
-301,-188,0,0,0,0,0,0,0,0,0,-1,923,1212,0,0
-294,-188,0,0,0,0,0,0,0,0,0,-1,930,1212,0,0
-287,-188,0,0,0,0,0,0,0,0,0,-1,937,1212,0,0
-280,-188,0,0,0,0,0,0,0,0,0,-1,944,1212,0,0
-273,-188,0,0,0,0,0,0,0,0,0,-1,951,1212,0,0
-266,-188,0,0,0,0,0,0,0,0,0,-1,958,1212,0,0
-259,-188,0,0,0,0,0,0,0,0,0,-1,965,1212,0,0
-252,-188,0,0,0,0,0,0,0,0,0,-1,972,1212,0,0
-245,-188,0,0,0,0,0,0,0,0,0,-1,979,1212,0,0
-238,-188,0,0,0,0,0,0,0,0,0,-1,986,1212,0,0
-231,-188,0,0,0,0,0,0,0,0,0,-1,993,1212,0,0
-224,-188,0,0,0,0,0,0,0,0,0,-1,1000,1212,0,0
-217,-188,0,0,0,0,0,0,0,0,0,-1,1007,1212,0,0
-210,-188,0,0,0,0,0,0,0,0,0,-1,1014,1212,0,0
-203,-188,0,0,0,0,0,0,0,0,0,-1,1021,1212,0,0
-196,-188,0,0,0,0,0,0,0,0,0,-1,1028,1212,0,0
-189,-188,0,0,0,0,0,0,0,0,0,-1,1035,1212,0,0
-182,-188,0,0,0,0,0,0,0,0,0,-1,1042,1212,0,0
-175,-188,0,0,0,0,0,0,0,0,0,-1,1049,1212,0,0
-168,-188,0,0,0,0,0,0,0,0,0,-1,1056,1212,0,0
-161,-188,0,0,0,0,0,0,0,0,0,-1,1063,1212,0,0
-154,-188,0,0,0,0,0,0,0,0,0,-1,1070,1212,0,0
-147,-188,0,0,0,0,0,0,0,0,0,-1,1077,1212,0,0
-140,-188,0,0,0,0,0,0,0,0,0,-1,1084,1212,0,0
-133,-188,0,0,0,0,0,0,0,0,0,-1,1091,1212,0,0
-126,-188,0,0,0,0,0,0,0,0,0,-1,1098,1212,0,0
-119,-188,0,0,0,0,0,0,0,0,0,-1,1105,1212,0,0
-112,-188,0,0,0,0,0,0,0,0,0,-1,1112,1212,0,0
-105,-188,0,0,0,0,0,0,0,0,0,-1,1119,1212,0,0
-98,-188,0,0,0,0,0,0,0,0,0,-1,1126,1212,0,0
-91,-188,0,0,0,0,0,0,0,0,0,-1,1133,1212,0,0
-84,-188,0,0,0,0,0,0,0,0,0,-1,1140,1212,0,0
-77,-188,0,0,0,0,0,0,0,0,0,-1,1147,1212,0,0
-70,-188,0,0,0,0,0,0,0,0,0,-1,1154,1212,0,0
-63,-188,0,0,0,0,0,0,0,0,0,-1,1161,1212,0,0
-56,-188,0,0,0,0,0,0,0,0,0,-1,1168,1212,0,0
-49,-188,0,0,0,0,0,0,0,0,0,-1,1175,1212,0,0
-42,-188,0,0,0,0,0,0,0,0,0,-1,1182,1212,0,0
-35,-188,0,0,0,0,0,0,0,0,0,-1,1189,1212,0,0
-28,-188,0,0,0,0,0,0,0,0,0,-1,1196,1212,0,0
-21,-188,0,0,0,0,0,0,0,0,0,-1,1203,1212,0,0
-14,-188,0,0,0,0,0,0,0,0,0,-1,1210,1212,0,0
-7,-188,0,0,0,0,0,0,0,0,0,-1,1217,1212,0,0
0,-188,0,0,0,0,0,0,0,0,0,-1,1224,1212,0,0
7,-188,0,0,0,0,0,0,0,0,0,-1,1231,1212,0,0
14,-188,0,0,0,0,0,0,0,0,0,-1,1238,1212,0,0
21,-188,0,0,0,0,0,0,0,0,0,-1,1245,1212,0,0
28,-188,0,0,0,0,0,0,0,0,0,-1,1252,1212,0,0
35,-188,0,0,0,0,0,0,0,0,0,-1,1259,1212,0,0
42,-188,0,0,0,0,0,0,0,0,0,-1,1266,1212,0,0
49,-188,0,0,0,0,0,0,0,0,0,-1,1273,1212,0,0
56,-188,0,0,0,0,0,0,0,0,0,-1,1280,1212,0,0
63,-188,0,0,0,0,0,0,0,0,0,-1,1287,1212,0,0
70,-188,0,0,0,0,0,0,0,0,0,-1,1294,1212,0,0
77,-188,0,0,0,0,0,0,0,0,0,-1,1301,1212,0,0
84,-188,0,0,0,0,0,0,0,0,0,-1,1308,1212,0,0
91,-188,0,0,0,0,0,0,0,0,0,-1,1315,1212,0,0
98,-188,0,0,0,0,0,0,0,0,0,-1,1322,1212,0,0
105,-188,0,0,0,0,0,0,0,0,0,-1,1329,1212,0,0
112,-188,0,0,0,0,0,0,0,0,0,-1,1336,1212,0,0
119,-188,0,0,0,0,0,0,0,0,0,-1,1343,1212,0,0
126,-188,0,0,0,0,0,0,0,0,0,-1,1350,1212,0,0
133,-188,0,0,0,0,0,0,0,0,0,-1,1357,1212,0,0
140,-188,0,0,0,0,0,0,0,0,0,-1,1364,1212,0,0
147,-188,0,0,0,0,0,0,0,0,0,-1,1371,1212,0,0
154,-188,0,0,0,0,0,0,0,0,0,-1,1378,1212,0,0
161,-188,0,0,0,0,0,0,0,0,0,-1,1385,1212,0,0
168,-188,0,0,0,0,0,0,0,0,0,-1,1392,1212,0,0
175,-188,0,0,0,0,0,0,0,0,0,-1,1399,1212,0,0
182,-188,0,0,0,0,0,0,0,0,0,-1,1406,1212,0,0
189,-188,0,0,0,0,0,0,0,0,0,-1,1413,1212,0,0
196,-188,0,0,0,0,0,0,0,0,0,-1,1420,1212,0,0
203,-188,0,0,0,0,0,0,0,0,0,-1,1427,1212,0,0
210,-188,0,0,0,0,0,0,0,0,0,-1,1434,1212,0,0
217,-188,0,0,0,0,0,0,0,0,0,-1,1441,1212,0,0
224,-188,0,0,0,0,0,0,0,0,0,-1,1448,1212,0,0
231,-188,0,0,0,0,0,0,0,0,0,-1,1455,1212,0,0
238,-188,0,0,0,0,0,0,0,0,0,-1,1462,1212,0,0
245,-188,0,0,0,0,0,0,0,0,0,-1,1469,1212,0,0
252,-188,0,0,0,0,0,0,0,0,0,-1,1476,1212,0,0
259,-188,0,0,0,0,0,0,0,0,0,-1,1483,1212,0,0
266,-188,0,0,0,0,0,0,0,0,0,-1,1490,1212,0,0
273,-188,0,0,0,0,0,0,0,0,0,-1,1497,1212,0,0
280,-188,0,0,0,0,0,0,0,0,0,-1,1504,1212,0,0
287,-188,0,0,0,0,0,0,0,0,0,-1,1511,1212,0,0
294,-188,0,0,0,0,0,0,0,0,0,-1,1518,1212,0,0
301,-188,0,0,0,0,0,0,0,0,0,-1,1525,1212,0,0
308,-188,0,0,0,0,0,0,0,0,0,-1,1532,1212,0,0
315,-188,0,0,0,0,0,0,0,0,0,-1,1539,1212,0,0
322,-188,0,0,0,0,0,0,0,0,0,-1,1546,1212,0,0
329,-188,0,0,0,0,0,0,0,0,0,-1,1553,1212,0,0
336,-188,0,0,0,0,0,0,0,0,0,-1,1560,1212,0,0
343,-188,0,0,0,0,0,0,0,0,0,-1,1567,1212,0,0
350,-188,0,0,0,0,0,0,0,0,0,-1,1574,1212,0,0
357,-188,0,0,0,0,0,0,0,0,0,-1,1581,1212,0,0
364,-188,0,0,0,0,0,0,0,0,0,-1,1588,1212,0,0
371,-188,0,0,0,0,0,0,0,0,0,-1,1595,1212,0,0
378,-188,0,0,0,0,0,0,0,0,0,-1,1602,1212,0,0
385,-188,0,0,0,0,0,0,0,0,0,-1,1609,1212,0,0
392,-188,0,0,0,0,0,0,0,0,0,-1,1616,1212,0,0
399,-188,0,0,0,0,0,0,0,0,0,-1,1623,1212,0,0
406,-188,0,0,0,0,0,0,0,0,0,-1,1630,1212,0,0
413,-188,0,0,0,0,0,0,0,0,0,-1,1637,1212,0,0
420,-188,0,0,0,0,0,0,0,0,0,-1,1644,1212,0,0
427,-188,0,0,0,0,0,0,0,0,0,-1,1651,1212,0,0
434,-188,0,0,0,0,0,0,0,0,0,-1,1658,1212,0,0
441,-188,0,0,0,0,0,0,0,0,0,-1,1665,1212,0,0
448,-188,0,0,0,0,0,0,0,0,0,-1,1672,1212,0,0
455,-188,0,0,0,0,0,0,0,0,0,-1,1679,1212,0,0
462,-188,0,0,0,0,0,0,0,0,0,-1,1686,1212,0,0
469,-188,0,0,0,0,0,0,0,0,0,-1,1693,1212,0,0
476,-188,0,0,0,0,0,0,0,0,0,-1,1700,1212,0,0
483,-188,0,0,0,0,0,0,0,0,0,-1,1707,1212,0,0
490,-188,0,0,0,0,0,0,0,0,0,-1,1714,1212,0,0
497,-188,0,0,0,0,0,0,0,0,0,-1,1721,1212,0,0
504,-188,0,0,0,0,0,0,0,0,0,-1,1728,1212,0,0
511,-188,0,0,0,0,0,0,0,0,0,-1,1735,1212,0,0
518,-188,0,0,0,0,0,0,0,0,0,-1,1742,1212,0,0
525,-188,0,0,0,0,0,0,0,0,0,-1,1749,1212,0,0
532,-188,0,0,0,0,0,0,0,0,0,-1,1756,1212,0,0
539,-188,0,0,0,0,0,0,0,0,0,-1,1763,1212,0,0
546,-188,0,0,0,0,0,0,0,0,0,-1,1770,1212,0,0
553,-188,0,0,0,0,0,0,0,0,0,-1,1777,1212,0,0
560,-188,0,0,0,0,0,0,0,0,0,-1,1784,1212,0,0
567,-188,0,0,0,0,0,0,0,0,0,-1,1791,1212,0,0
574,-188,0,0,0,0,0,0,0,0,0,-1,1798,1212,0,0
581,-188,0,0,0,0,0,0,0,0,0,-1,1805,1212,0,0
588,-188,0,0,0,0,0,0,0,0,0,-1,1812,1212,0,0
595,-188,0,0,0,0,0,0,0,0,0,-1,1819,1212,0,0
602,-188,0,0,0,0,0,0,0,0,0,-1,1826,1212,0,0
609,-188,0,0,0,0,0,0,0,0,0,-1,1833,1212,0,0
616,-188,0,0,0,0,0,0,0,0,0,-1,1840,1212,0,0
623,-188,0,0,0,0,0,0,0,0,0,-1,1847,1212,0,0
630,-188,66.984,2.32751,0.00124241,0.00380874,0.00174825,0.00469418,0.000356962,1.10198,0.00301751,0.0403584,1854,1212,66.984,-2.32751
637,-188,66.989,2.17761,0.000893453,0.00283502,0.00134796,0.00352538,0.000203087,1.09747,0.00228557,0.041267,1861,1212,66.989,-2.17764
644,-188,67.0114,2.32007,0.000564462,0.00226995,0.000726937,0.00253775,0.000296666,1.21783,0.00160212,0.0366765,1868,1212,67.0113,-2.32007
651,-188,66.9847,2.36206,0.000358777,0.00199563,-0.000115535,0.00200374,0.000350662,-1.50068,0.00123564,0.0304198,1875,1212,66.9848,-2.36204
658,-188,66.9982,2.38879,0.000173284,0.00177254,-0.000798874,0.00210322,-0.0001574,-1.17833,0.00145745,0.0307247,1882,1212,66.9982,-2.38874
665,-188,66.9528,2.40198,7.67705e-05,0.00149674,-0.00116835,0.00215391,-0.0005804,-1.05842,0.0016635,0.0315502,1889,1212,66.9527,-2.40199
672,-188,66.9695,2.35352,0.000217066,0.00115811,-0.00135899,0.00212573,-0.000750556,-0.952053,0.00172273,0.0250806,1896,1212,66.9695,-2.35346
679,-188,67.0597,2.39124,0,0,0,0,0,0,0,-1,1903,1212,67.0597,-2.39124
686,-188,60.1007,2.41321,0,0,0,0,0,0,0,-1,1910,1212,60.1007,-2.41325
693,-188,35.9054,2.18042,0,0,0,0,0,0,0,-1,1917,1212,35.9054,-2.18038
700,-188,54.452,11.2678,0,0,0,0,0,0,0,-1,1924,1212,54.452,-11.2678
707,-188,54.9509,10.9163,0,0,0,0,0,0,0,-1,1931,1212,54.9509,-10.9163
714,-188,54.7506,10.1539,0,0,0,0,0,0,0,-1,1938,1212,54.7507,-10.1539
721,-188,54.3789,9.70532,0,0,0,0,0,0,0,-1,1945,1212,54.3789,-9.70532
728,-188,54.6689,8.89783,0.000934575,0.000923347,-0.000352677,0.00128168,0.000576239,-0.777439,0.000741232,0.0298214,1952,1212,54.669,-8.89787
735,-188,54.6926,8.24146,0.00116978,0.000959762,0.000236727,0.00132374,0.000805799,0.576646,0.000770263,0.014374,1959,1212,54.6926,-8.24149
742,-188,54.6348,7.61609,0.00110861,0.000900641,0.00092876,0.00193919,7.00605e-05,0.729651,0.00127008,0.0155772,1966,1212,54.6348,-7.61611
749,-188,54.6223,7.00391,0.000529615,0.00171867,0.00120349,0.00246647,-0.00021819,1.01482,0.00172166,0.0144124,1973,1212,54.6223,-7.00389
756,-188,54.6338,6.36707,0.000585006,0.00329329,0.00128123,0.00380335,7.4946e-05,1.19193,0.00251096,0.0136779,1980,1212,54.6338,-6.36711
763,-188,54.6271,5.7572,0.000407411,0.00569728,0.000703112,0.00578914,0.000315551,1.44088,0.00375866,0.0184585,1987,1212,54.627,-5.75715
770,-188,54.5444,5.17419,0.000294342,0.00934509,-0.000672842,0.00939484,0.000244596,-1.497,0.00618331,0.0436097,1994,1212,54.5445,-5.17425
777,-188,54.5835,4.67297,0,0,0,0,0,0,0,-1,2001,1212,54.5835,-4.67299
784,-188,50.2876,-0.510742,0,0,0,0,0,0,0,-1,2008,1212,50.2875,0.510762
791,-188,51.6936,0.835083,0,0,0,0,0,0,0,-1,2015,1212,51.6937,-0.835076
798,-188,54.2373,-0.0861816,0,0,0,0,0,0,0,-1,2022,1212,54.2372,0.0861871
805,-188,0,0,0,0,0,0,0,0,0,-1,2029,1212,0,0
812,-188,0,0,0,0,0,0,0,0,0,-1,2036,1212,0,0
-700,-195,0,0,0,0,0,0,0,0,0,-1,524,1219,0,0
-693,-195,0,0,0,0,0,0,0,0,0,-1,531,1219,0,0
-686,-195,0,0,0,0,0,0,0,0,0,-1,538,1219,0,0
-679,-195,-31.6898,-0.237793,0,0,0,0,0,0,0,-1,545,1219,-31.6898,0.237784
-672,-195,-38.3379,0.411743,0,0,0,0,0,0,0,-1,552,1219,-38.3379,-0.411685
-665,-195,-39.6199,1.19299,0,0,0,0,0,0,0,-1,559,1219,-39.6199,-1.19295
-658,-195,-38.6828,1.38367,0,0,0,0,0,0,0,-1,566,1219,-38.6828,-1.38365
-651,-195,-38.8502,2.22473,0.0875928,0.0211761,-0.0618687,0.124602,-0.0158333,-0.539089,0.0888176,0.0455969,573,1219,-38.8502,-2.22469
-644,-195,-38.4954,2.93494,0.0593436,0.0154748,-0.0433188,0.0859646,-0.0111463,-0.551042,0.0613636,0.0433906,580,1219,-38.4954,-2.93496
-637,-195,-38.3002,3.13318,0.0371908,0.0106945,-0.0285597,0.0554255,-0.00754022,-0.568232,0.0397031,0.0247532,587,1219,-38.3002,-3.13312
-630,-195,-38.3757,3.76648,0.0189791,0.00654208,-0.0164787,0.0303735,-0.00485238,-0.604976,0.0220452,0.00952524,594,1219,-38.3757,-3.76654
-623,-195,-38.4087,4.41772,0.00709446,0.00364679,-0.0083775,0.0139236,-0.00318239,-0.68393,0.0105051,0.00886509,601,1219,-38.4087,-4.41776
-616,-195,-38.4127,5.06702,0.000399357,0.00154261,-0.00350854,0.00452579,-0.00258382,-0.866151,0.00415546,0.00974619,608,1219,-38.4127,-5.06707
-609,-195,-38.4108,5.7428,-0.00189409,-5.20026e-05,-0.00191723,0.00115395,-0.00310003,-1.00932,0.00254026,0.018125,615,1219,-38.4108,-5.74284
-602,-195,-38.4712,6.38513,-0.00243922,-0.000695257,-0.00182716,0.000457331,-0.00359181,-1.00803,0.00256063,0.0235382,622,1219,-38.4712,-6.38509
-595,-195,-38.5129,7.10168,-0.00308906,-0.00083619,-0.00100091,-0.000455746,-0.0034695,-1.20756,0.00217704,0.0348968,629,1219,-38.5129,-7.10168
-588,-195,-38.5887,7.88574,0,0,0,0,0,0,0,-1,636,1219,-38.5887,-7.88573
-581,-195,-38.625,8.31323,0,0,0,0,0,0,0,-1,643,1219,-38.625,-8.31324
-574,-195,-39.0187,8.672,0,0,0,0,0,0,0,-1,650,1219,-39.0187,-8.67195
-567,-195,-20.6388,3.78369,0,0,0,0,0,0,0,-1,657,1219,-20.6388,-3.78369
-560,-195,-20.878,2.10388,0,0,0,0,0,0,0,-1,664,1219,-20.878,-2.10385
-553,-195,-41.595,0.613281,0,0,0,0,0,0,0,-1,671,1219,-41.595,-0.61334
-546,-195,-51.4124,0.854614,0,0,0,0,0,0,0,-1,678,1219,-51.4124,-0.854624
-539,-195,-51.4948,0.759277,-0.00224254,0.00292886,-0.0031238,0.00439827,-0.00371195,-1.13111,0.00468803,0.0423982,685,1219,-51.4947,-0.759332
-532,-195,-51.562,0.584961,-0.00123416,0.00364469,-0.003466,0.00544365,-0.00303313,-1.09204,0.00495959,0.0349244,692,1219,-51.5619,-0.584942
-525,-195,-51.4991,0.728882,0.00245024,0.00205548,-0.00301497,0.00527429,-0.000768562,-0.752711,0.00379839,0.0394745,699,1219,-51.4991,-0.728827
-518,-195,-51.5461,0.907471,0.00818959,-0.0017275,-0.00172977,0.00848264,-0.00202055,-0.167823,0.00643523,0.0425487,706,1219,-51.5461,-0.907439
-511,-195,-51.3969,0.609863,0.0164017,-0.00982971,0.000670955,0.0164189,-0.00984686,0.025556,0.0153219,0.0429304,713,1219,-51.3968,-0.609882
-504,-195,0,0,0,0,0,0,0,0,0,-1,720,1219,0,0
-497,-195,0,0,0,0,0,0,0,0,0,-1,727,1219,0,0
-490,-195,0,0,0,0,0,0,0,0,0,-1,734,1219,0,0
-483,-195,0,0,0,0,0,0,0,0,0,-1,741,1219,0,0
-476,-195,0,0,0,0,0,0,0,0,0,-1,748,1219,0,0
-469,-195,0,0,0,0,0,0,0,0,0,-1,755,1219,0,0
-462,-195,0,0,0,0,0,0,0,0,0,-1,762,1219,0,0
-455,-195,0,0,0,0,0,0,0,0,0,-1,769,1219,0,0
-448,-195,0,0,0,0,0,0,0,0,0,-1,776,1219,0,0
-441,-195,0,0,0,0,0,0,0,0,0,-1,783,1219,0,0
-434,-195,0,0,0,0,0,0,0,0,0,-1,790,1219,0,0
-427,-195,0,0,0,0,0,0,0,0,0,-1,797,1219,0,0
-420,-195,0,0,0,0,0,0,0,0,0,-1,804,1219,0,0
-413,-195,0,0,0,0,0,0,0,0,0,-1,811,1219,0,0
-406,-195,0,0,0,0,0,0,0,0,0,-1,818,1219,0,0
-399,-195,0,0,0,0,0,0,0,0,0,-1,825,1219,0,0
-392,-195,0,0,0,0,0,0,0,0,0,-1,832,1219,0,0
-385,-195,0,0,0,0,0,0,0,0,0,-1,839,1219,0,0
-378,-195,0,0,0,0,0,0,0,0,0,-1,846,1219,0,0
-371,-195,0,0,0,0,0,0,0,0,0,-1,853,1219,0,0
-364,-195,0,0,0,0,0,0,0,0,0,-1,860,1219,0,0
-357,-195,0,0,0,0,0,0,0,0,0,-1,867,1219,0,0
-350,-195,0,0,0,0,0,0,0,0,0,-1,874,1219,0,0
-343,-195,0,0,0,0,0,0,0,0,0,-1,881,1219,0,0
-336,-195,0,0,0,0,0,0,0,0,0,-1,888,1219,0,0
-329,-195,0,0,0,0,0,0,0,0,0,-1,895,1219,0,0
-322,-195,0,0,0,0,0,0,0,0,0,-1,902,1219,0,0
-315,-195,0,0,0,0,0,0,0,0,0,-1,909,1219,0,0
-308,-195,0,0,0,0,0,0,0,0,0,-1,916,1219,0,0
-301,-195,0,0,0,0,0,0,0,0,0,-1,923,1219,0,0
-294,-195,0,0,0,0,0,0,0,0,0,-1,930,1219,0,0
-287,-195,0,0,0,0,0,0,0,0,0,-1,937,1219,0,0
-280,-195,0,0,0,0,0,0,0,0,0,-1,944,1219,0,0
-273,-195,0,0,0,0,0,0,0,0,0,-1,951,1219,0,0
-266,-195,0,0,0,0,0,0,0,0,0,-1,958,1219,0,0
-259,-195,0,0,0,0,0,0,0,0,0,-1,965,1219,0,0
-252,-195,0,0,0,0,0,0,0,0,0,-1,972,1219,0,0
-245,-195,0,0,0,0,0,0,0,0,0,-1,979,1219,0,0
-238,-195,0,0,0,0,0,0,0,0,0,-1,986,1219,0,0
-231,-195,0,0,0,0,0,0,0,0,0,-1,993,1219,0,0
-224,-195,0,0,0,0,0,0,0,0,0,-1,1000,1219,0,0
-217,-195,0,0,0,0,0,0,0,0,0,-1,1007,1219,0,0
-210,-195,0,0,0,0,0,0,0,0,0,-1,1014,1219,0,0
-203,-195,0,0,0,0,0,0,0,0,0,-1,1021,1219,0,0
-196,-195,0,0,0,0,0,0,0,0,0,-1,1028,1219,0,0
-189,-195,0,0,0,0,0,0,0,0,0,-1,1035,1219,0,0
-182,-195,0,0,0,0,0,0,0,0,0,-1,1042,1219,0,0
-175,-195,0,0,0,0,0,0,0,0,0,-1,1049,1219,0,0
-168,-195,0,0,0,0,0,0,0,0,0,-1,1056,1219,0,0
-161,-195,0,0,0,0,0,0,0,0,0,-1,1063,1219,0,0
-154,-195,0,0,0,0,0,0,0,0,0,-1,1070,1219,0,0
-147,-195,0,0,0,0,0,0,0,0,0,-1,1077,1219,0,0
-140,-195,0,0,0,0,0,0,0,0,0,-1,1084,1219,0,0
-133,-195,0,0,0,0,0,0,0,0,0,-1,1091,1219,0,0
-126,-195,0,0,0,0,0,0,0,0,0,-1,1098,1219,0,0
-119,-195,0,0,0,0,0,0,0,0,0,-1,1105,1219,0,0
-112,-195,0,0,0,0,0,0,0,0,0,-1,1112,1219,0,0
-105,-195,0,0,0,0,0,0,0,0,0,-1,1119,1219,0,0
-98,-195,0,0,0,0,0,0,0,0,0,-1,1126,1219,0,0
-91,-195,0,0,0,0,0,0,0,0,0,-1,1133,1219,0,0
-84,-195,0,0,0,0,0,0,0,0,0,-1,1140,1219,0,0
-77,-195,0,0,0,0,0,0,0,0,0,-1,1147,1219,0,0
-70,-195,0,0,0,0,0,0,0,0,0,-1,1154,1219,0,0
-63,-195,0,0,0,0,0,0,0,0,0,-1,1161,1219,0,0
-56,-195,0,0,0,0,0,0,0,0,0,-1,1168,1219,0,0
-49,-195,0,0,0,0,0,0,0,0,0,-1,1175,1219,0,0
-42,-195,0,0,0,0,0,0,0,0,0,-1,1182,1219,0,0
-35,-195,0,0,0,0,0,0,0,0,0,-1,1189,1219,0,0
-28,-195,0,0,0,0,0,0,0,0,0,-1,1196,1219,0,0
-21,-195,0,0,0,0,0,0,0,0,0,-1,1203,1219,0,0
-14,-195,0,0,0,0,0,0,0,0,0,-1,1210,1219,0,0
-7,-195,0,0,0,0,0,0,0,0,0,-1,1217,1219,0,0
0,-195,0,0,0,0,0,0,0,0,0,-1,1224,1219,0,0
7,-195,0,0,0,0,0,0,0,0,0,-1,1231,1219,0,0
14,-195,0,0,0,0,0,0,0,0,0,-1,1238,1219,0,0
21,-195,0,0,0,0,0,0,0,0,0,-1,1245,1219,0,0
28,-195,0,0,0,0,0,0,0,0,0,-1,1252,1219,0,0
35,-195,0,0,0,0,0,0,0,0,0,-1,1259,1219,0,0
42,-195,0,0,0,0,0,0,0,0,0,-1,1266,1219,0,0
49,-195,0,0,0,0,0,0,0,0,0,-1,1273,1219,0,0
56,-195,0,0,0,0,0,0,0,0,0,-1,1280,1219,0,0
63,-195,0,0,0,0,0,0,0,0,0,-1,1287,1219,0,0
70,-195,0,0,0,0,0,0,0,0,0,-1,1294,1219,0,0
77,-195,0,0,0,0,0,0,0,0,0,-1,1301,1219,0,0
84,-195,0,0,0,0,0,0,0,0,0,-1,1308,1219,0,0
91,-195,0,0,0,0,0,0,0,0,0,-1,1315,1219,0,0
98,-195,0,0,0,0,0,0,0,0,0,-1,1322,1219,0,0
105,-195,0,0,0,0,0,0,0,0,0,-1,1329,1219,0,0
112,-195,0,0,0,0,0,0,0,0,0,-1,1336,1219,0,0
119,-195,0,0,0,0,0,0,0,0,0,-1,1343,1219,0,0
126,-195,0,0,0,0,0,0,0,0,0,-1,1350,1219,0,0
133,-195,0,0,0,0,0,0,0,0,0,-1,1357,1219,0,0
140,-195,0,0,0,0,0,0,0,0,0,-1,1364,1219,0,0
147,-195,0,0,0,0,0,0,0,0,0,-1,1371,1219,0,0
154,-195,0,0,0,0,0,0,0,0,0,-1,1378,1219,0,0
161,-195,0,0,0,0,0,0,0,0,0,-1,1385,1219,0,0
168,-195,0,0,0,0,0,0,0,0,0,-1,1392,1219,0,0
175,-195,0,0,0,0,0,0,0,0,0,-1,1399,1219,0,0
182,-195,0,0,0,0,0,0,0,0,0,-1,1406,1219,0,0
189,-195,0,0,0,0,0,0,0,0,0,-1,1413,1219,0,0
196,-195,0,0,0,0,0,0,0,0,0,-1,1420,1219,0,0
203,-195,0,0,0,0,0,0,0,0,0,-1,1427,1219,0,0
210,-195,0,0,0,0,0,0,0,0,0,-1,1434,1219,0,0
217,-195,0,0,0,0,0,0,0,0,0,-1,1441,1219,0,0
224,-195,0,0,0,0,0,0,0,0,0,-1,1448,1219,0,0
231,-195,0,0,0,0,0,0,0,0,0,-1,1455,1219,0,0
238,-195,0,0,0,0,0,0,0,0,0,-1,1462,1219,0,0
245,-195,0,0,0,0,0,0,0,0,0,-1,1469,1219,0,0
252,-195,0,0,0,0,0,0,0,0,0,-1,1476,1219,0,0
259,-195,0,0,0,0,0,0,0,0,0,-1,1483,1219,0,0
266,-195,0,0,0,0,0,0,0,0,0,-1,1490,1219,0,0
273,-195,0,0,0,0,0,0,0,0,0,-1,1497,1219,0,0
280,-195,0,0,0,0,0,0,0,0,0,-1,1504,1219,0,0
287,-195,0,0,0,0,0,0,0,0,0,-1,1511,1219,0,0
294,-195,0,0,0,0,0,0,0,0,0,-1,1518,1219,0,0
301,-195,0,0,0,0,0,0,0,0,0,-1,1525,1219,0,0
308,-195,0,0,0,0,0,0,0,0,0,-1,1532,1219,0,0
315,-195,0,0,0,0,0,0,0,0,0,-1,1539,1219,0,0
322,-195,0,0,0,0,0,0,0,0,0,-1,1546,1219,0,0
329,-195,0,0,0,0,0,0,0,0,0,-1,1553,1219,0,0
336,-195,0,0,0,0,0,0,0,0,0,-1,1560,1219,0,0
343,-195,0,0,0,0,0,0,0,0,0,-1,1567,1219,0,0
350,-195,0,0,0,0,0,0,0,0,0,-1,1574,1219,0,0
357,-195,0,0,0,0,0,0,0,0,0,-1,1581,1219,0,0
364,-195,0,0,0,0,0,0,0,0,0,-1,1588,1219,0,0
371,-195,0,0,0,0,0,0,0,0,0,-1,1595,1219,0,0
378,-195,0,0,0,0,0,0,0,0,0,-1,1602,1219,0,0
385,-195,0,0,0,0,0,0,0,0,0,-1,1609,1219,0,0
392,-195,0,0,0,0,0,0,0,0,0,-1,1616,1219,0,0
399,-195,0,0,0,0,0,0,0,0,0,-1,1623,1219,0,0
406,-195,0,0,0,0,0,0,0,0,0,-1,1630,1219,0,0
413,-195,0,0,0,0,0,0,0,0,0,-1,1637,1219,0,0
420,-195,0,0,0,0,0,0,0,0,0,-1,1644,1219,0,0
427,-195,0,0,0,0,0,0,0,0,0,-1,1651,1219,0,0
434,-195,0,0,0,0,0,0,0,0,0,-1,1658,1219,0,0
441,-195,0,0,0,0,0,0,0,0,0,-1,1665,1219,0,0
448,-195,0,0,0,0,0,0,0,0,0,-1,1672,1219,0,0
455,-195,0,0,0,0,0,0,0,0,0,-1,1679,1219,0,0
462,-195,0,0,0,0,0,0,0,0,0,-1,1686,1219,0,0
469,-195,0,0,0,0,0,0,0,0,0,-1,1693,1219,0,0
476,-195,0,0,0,0,0,0,0,0,0,-1,1700,1219,0,0
483,-195,0,0,0,0,0,0,0,0,0,-1,1707,1219,0,0
490,-195,0,0,0,0,0,0,0,0,0,-1,1714,1219,0,0
497,-195,0,0,0,0,0,0,0,0,0,-1,1721,1219,0,0
504,-195,0,0,0,0,0,0,0,0,0,-1,1728,1219,0,0
511,-195,0,0,0,0,0,0,0,0,0,-1,1735,1219,0,0
518,-195,0,0,0,0,0,0,0,0,0,-1,1742,1219,0,0
525,-195,0,0,0,0,0,0,0,0,0,-1,1749,1219,0,0
532,-195,0,0,0,0,0,0,0,0,0,-1,1756,1219,0,0
539,-195,0,0,0,0,0,0,0,0,0,-1,1763,1219,0,0
546,-195,0,0,0,0,0,0,0,0,0,-1,1770,1219,0,0
553,-195,0,0,0,0,0,0,0,0,0,-1,1777,1219,0,0
560,-195,0,0,0,0,0,0,0,0,0,-1,1784,1219,0,0
567,-195,0,0,0,0,0,0,0,0,0,-1,1791,1219,0,0
574,-195,0,0,0,0,0,0,0,0,0,-1,1798,1219,0,0
581,-195,0,0,0,0,0,0,0,0,0,-1,1805,1219,0,0
588,-195,0,0,0,0,0,0,0,0,0,-1,1812,1219,0,0
595,-195,0,0,0,0,0,0,0,0,0,-1,1819,1219,0,0
602,-195,0,0,0,0,0,0,0,0,0,-1,1826,1219,0,0
609,-195,0,0,0,0,0,0,0,0,0,-1,1833,1219,0,0
616,-195,0,0,0,0,0,0,0,0,0,-1,1840,1219,0,0
623,-195,0,0,0,0,0,0,0,0,0,-1,1847,1219,0,0
630,-195,67.0791,2.26013,0,0,0,0,0,0,0,-1,1854,1219,67.0791,-2.26016
637,-195,66.955,1.90857,0,0,0,0,0,0,0,-1,1861,1219,66.9549,-1.90852
644,-195,67.0452,2.26782,0.000219408,0.0022705,0.000785688,0.00253687,-4.6964e-05,1.24393,0.00170712,0.0372164,1868,1219,67.0451,-2.26787
651,-195,67.0239,2.30383,7.48359e-05,0.0023715,-0.000306225,0.00241163,3.47068e-05,-1.44049,0.00159631,0.0268497,1875,1219,67.0239,-2.30378
658,-195,67.0214,2.33167,3.07808e-07,0.00221184,-0.000945936,0.00256124,-0.000349094,-1.21697,0.00183496,0.0238283,1882,1219,67.0214,-2.33169
665,-195,66.9883,2.3396,5.14953e-05,0.00186591,-0.0011781,0.00244563,-0.000528223,-1.11351,0.00183206,0.0231211,1889,1219,66.9882,-2.33955
672,-195,66.9888,2.23279,0.000293404,0.00143335,-0.00124563,0.00223322,-0.000506465,-0.999967,0.00168323,0.0341884,1896,1219,66.9888,-2.23281
679,-195,66.9728,2.05444,0,0,0,0,0,0,0,-1,1903,1219,66.9728,-2.05447
686,-195,51.2117,1.94312,0,0,0,0,0,0,0,-1,1910,1219,51.2117,-1.9431
693,-195,24.4368,5.68298,0,0,0,0,0,0,0,-1,1917,1219,24.4368,-5.68293
700,-195,54.3121,11.4919,0,0,0,0,0,0,0,-1,1924,1219,54.3121,-11.4919
707,-195,54.2377,10.8014,0,0,0,0,0,0,0,-1,1931,1219,54.2376,-10.8014
714,-195,54.3116,10.1925,0,0,0,0,0,0,0,-1,1938,1219,54.3117,-10.1926
721,-195,54.0415,9.55933,0.000624462,0.000474894,-0.00055966,0.00111431,-1.49562e-05,-0.718979,0.00074791,0.0416141,1945,1219,54.0415,-9.55929
728,-195,54.0687,8.92065,0.000800976,0.000379083,1.16479e-06,0.000800979,0.000379079,0.00276084,0.000462666,0.0121093,1952,1219,54.0688,-8.92069
735,-195,54.0675,8.23914,0.000868425,0.000378493,0.000649755,0.00131786,-7.09401e-05,0.605131,0.000903148,0.0129562,1959,1219,54.0675,-8.23909
742,-195,54.0143,7.62354,0.000617618,0.00039551,0.00138667,0.00189767,-0.000884542,0.74544,0.00164143,0.015168,1966,1219,54.0142,-7.62353
749,-195,53.9806,7.03076,-0.000172747,0.00122026,0.0016721,0.00233512,-0.00128761,0.982742,0.00212053,0.0147589,1973,1219,53.9806,-7.03072
756,-195,53.9922,6.42371,-0.000375601,0.00261146,0.0018591,0.00350265,-0.00126679,1.12379,0.00285271,0.015329,1980,1219,53.9922,-6.42368
763,-195,53.9929,5.77527,-0.00094487,0.00478135,0.00144077,0.00512342,-0.00128694,1.33769,0.00391574,0.0227228,1987,1219,53.9929,-5.77522
770,-195,53.8833,5.30603,-0.00157723,0.00824139,0.000171346,0.00824438,-0.00158022,1.55335,0.0060917,0.0448752,1994,1219,53.8833,-5.30602
777,-195,53.8696,5.03821,0,0,0,0,0,0,0,-1,2001,1219,53.8695,-5.03816
784,-195,51.2444,-0.069458,0,0,0,0,0,0,0,-1,2008,1219,51.2443,0.0694704
791,-195,50.6421,1.65222,0,0,0,0,0,0,0,-1,2015,1219,50.6422,-1.65218
798,-195,53.3943,2.08484,0,0,0,0,0,0,0,-1,2022,1219,53.3943,-2.08489
805,-195,0,0,0,0,0,0,0,0,0,-1,2029,1219,0,0
812,-195,0,0,0,0,0,0,0,0,0,-1,2036,1219,0,0
-700,-202,0,0,0,0,0,0,0,0,0,-1,524,1226,0,0
-693,-202,0,0,0,0,0,0,0,0,0,-1,531,1226,0,0
-686,-202,0,0,0,0,0,0,0,0,0,-1,538,1226,0,0
-679,-202,-36.2728,0.156494,0,0,0,0,0,0,0,-1,545,1226,-36.2728,-0.156467
-672,-202,-37.6696,0.558594,0,0,0,0,0,0,0,-1,552,1226,-37.6696,-0.558631
-665,-202,-38.9464,1.40125,0,0,0,0,0,0,0,-1,559,1226,-38.9464,-1.40125
-658,-202,-37.4807,0.939209,0,0,0,0,0,0,0,-1,566,1226,-37.4807,-0.93921
-651,-202,-38.4402,1.83325,0,0,0,0,0,0,0,-1,573,1226,-38.4402,-1.83327
-644,-202,-37.7556,3.0835,0,0,0,0,0,0,0,-1,580,1226,-37.7556,-3.08352
-637,-202,-37.5717,3.15833,0,0,0,0,0,0,0,-1,587,1226,-37.5717,-3.15836
-630,-202,-37.6708,3.72485,0.0184563,0.00697592,-0.0148087,0.0285984,-0.0031662,-0.600503,0.0202039,0.0230356,594,1226,-37.6708,-3.72489
-623,-202,-37.7214,4.41724,0.00723815,0.00411843,-0.00749151,0.0133305,-0.00197389,-0.682756,0.00961273,0.00948842,601,1226,-37.7214,-4.41722
-616,-202,-37.7346,5.08752,0.0010242,0.00207768,-0.00321517,0.00480897,-0.00170709,-0.866591,0.00390155,0.00861595,608,1226,-37.7345,-5.08749
-609,-202,-37.7357,5.76465,-0.00133171,0.000381803,-0.00171682,0.00144377,-0.00239367,-1.01684,0.00223806,0.021692,615,1226,-37.7357,-5.76461
-602,-202,-37.8077,6.42212,-0.00180104,-0.000544477,-0.00182443,0.000756824,-0.00310234,-0.951224,0.00236128,0.0224132,622,1226,-37.8077,-6.42214
-595,-202,-37.9192,7.16101,-0.00231335,-0.00104667,-0.00123008,-0.000296461,-0.00306357,-1.02314,0.00195108,0.0203759,629,1226,-37.9192,-7.161
-588,-202,-37.9532,7.75964,-0.00377253,5.83441e-07,-0.00127228,0.000389505,-0.00416145,-1.27413,0.00291283,0.023231,636,1226,-37.9532,-7.7597
-581,-202,-37.9172,8.33789,0,0,0,0,0,0,0,-1,643,1226,-37.9172,-8.33788
-574,-202,-26.922,5.99512,0,0,0,0,0,0,0,-1,650,1226,-26.922,-5.99512
-567,-202,-22.1768,4.56995,0,0,0,0,0,0,0,-1,657,1226,-22.1768,-4.56991
-560,-202,-10.929,2.73096,0,0,0,0,0,0,0,-1,664,1226,-10.929,-2.73092
-553,-202,-30.2701,1.474,0,0,0,0,0,0,0,-1,671,1226,-30.2701,-1.47395
-546,-202,-50.9316,0.222168,0,0,0,0,0,0,0,-1,678,1226,-50.9316,-0.22222
-539,-202,-51.191,0.491455,-0.000946117,0.00267004,-0.00349748,0.00479916,-0.00307523,-1.02396,0.00458246,0.047966,685,1226,-51.191,-0.491434
-532,-202,-51.488,0.643188,-5.12763e-06,0.00374909,-0.00400617,0.0062961,-0.00255215,-1.00449,0.00525877,0.0309717,692,1226,-51.488,-0.643182
-525,-202,-51.4869,0.584473,0.0026183,0.00351642,-0.00411806,0.00720983,-0.00107511,-0.839707,0.00520209,0.0368024,699,1226,-51.4869,-0.584415
-518,-202,-51.4467,0.64917,0.00690032,0.00164495,-0.00355739,0.00869527,-0.000150003,-0.467298,0.00584749,0.0417375,706,1226,-51.4466,-0.649222
-511,-202,-51.4784,0.707886,0.013979,-0.00478292,-0.0017473,0.0141404,-0.00494425,-0.0920747,0.011437,0.0424947,713,1226,-51.4784,-0.707857
-504,-202,0,0,0,0,0,0,0,0,0,-1,720,1226,0,0
-497,-202,0,0,0,0,0,0,0,0,0,-1,727,1226,0,0
-490,-202,0,0,0,0,0,0,0,0,0,-1,734,1226,0,0
-483,-202,0,0,0,0,0,0,0,0,0,-1,741,1226,0,0
-476,-202,0,0,0,0,0,0,0,0,0,-1,748,1226,0,0
-469,-202,0,0,0,0,0,0,0,0,0,-1,755,1226,0,0
-462,-202,0,0,0,0,0,0,0,0,0,-1,762,1226,0,0
-455,-202,0,0,0,0,0,0,0,0,0,-1,769,1226,0,0
-448,-202,0,0,0,0,0,0,0,0,0,-1,776,1226,0,0
-441,-202,0,0,0,0,0,0,0,0,0,-1,783,1226,0,0
-434,-202,0,0,0,0,0,0,0,0,0,-1,790,1226,0,0
-427,-202,0,0,0,0,0,0,0,0,0,-1,797,1226,0,0
-420,-202,0,0,0,0,0,0,0,0,0,-1,804,1226,0,0
-413,-202,0,0,0,0,0,0,0,0,0,-1,811,1226,0,0
-406,-202,0,0,0,0,0,0,0,0,0,-1,818,1226,0,0
-399,-202,0,0,0,0,0,0,0,0,0,-1,825,1226,0,0
-392,-202,0,0,0,0,0,0,0,0,0,-1,832,1226,0,0
-385,-202,0,0,0,0,0,0,0,0,0,-1,839,1226,0,0
-378,-202,0,0,0,0,0,0,0,0,0,-1,846,1226,0,0
-371,-202,0,0,0,0,0,0,0,0,0,-1,853,1226,0,0
-364,-202,0,0,0,0,0,0,0,0,0,-1,860,1226,0,0
-357,-202,0,0,0,0,0,0,0,0,0,-1,867,1226,0,0
-350,-202,0,0,0,0,0,0,0,0,0,-1,874,1226,0,0
-343,-202,0,0,0,0,0,0,0,0,0,-1,881,1226,0,0
-336,-202,0,0,0,0,0,0,0,0,0,-1,888,1226,0,0
-329,-202,0,0,0,0,0,0,0,0,0,-1,895,1226,0,0
-322,-202,0,0,0,0,0,0,0,0,0,-1,902,1226,0,0
-315,-202,0,0,0,0,0,0,0,0,0,-1,909,1226,0,0
-308,-202,0,0,0,0,0,0,0,0,0,-1,916,1226,0,0
-301,-202,0,0,0,0,0,0,0,0,0,-1,923,1226,0,0
-294,-202,0,0,0,0,0,0,0,0,0,-1,930,1226,0,0
-287,-202,0,0,0,0,0,0,0,0,0,-1,937,1226,0,0
-280,-202,0,0,0,0,0,0,0,0,0,-1,944,1226,0,0
-273,-202,0,0,0,0,0,0,0,0,0,-1,951,1226,0,0
-266,-202,0,0,0,0,0,0,0,0,0,-1,958,1226,0,0
-259,-202,0,0,0,0,0,0,0,0,0,-1,965,1226,0,0
-252,-202,0,0,0,0,0,0,0,0,0,-1,972,1226,0,0
-245,-202,0,0,0,0,0,0,0,0,0,-1,979,1226,0,0
-238,-202,0,0,0,0,0,0,0,0,0,-1,986,1226,0,0
-231,-202,0,0,0,0,0,0,0,0,0,-1,993,1226,0,0
-224,-202,0,0,0,0,0,0,0,0,0,-1,1000,1226,0,0
-217,-202,0,0,0,0,0,0,0,0,0,-1,1007,1226,0,0
-210,-202,0,0,0,0,0,0,0,0,0,-1,1014,1226,0,0
-203,-202,0,0,0,0,0,0,0,0,0,-1,1021,1226,0,0
-196,-202,0,0,0,0,0,0,0,0,0,-1,1028,1226,0,0
-189,-202,0,0,0,0,0,0,0,0,0,-1,1035,1226,0,0
-182,-202,0,0,0,0,0,0,0,0,0,-1,1042,1226,0,0
-175,-202,0,0,0,0,0,0,0,0,0,-1,1049,1226,0,0
-168,-202,0,0,0,0,0,0,0,0,0,-1,1056,1226,0,0
-161,-202,0,0,0,0,0,0,0,0,0,-1,1063,1226,0,0
-154,-202,0,0,0,0,0,0,0,0,0,-1,1070,1226,0,0
-147,-202,0,0,0,0,0,0,0,0,0,-1,1077,1226,0,0
-140,-202,0,0,0,0,0,0,0,0,0,-1,1084,1226,0,0
-133,-202,0,0,0,0,0,0,0,0,0,-1,1091,1226,0,0
-126,-202,0,0,0,0,0,0,0,0,0,-1,1098,1226,0,0
-119,-202,0,0,0,0,0,0,0,0,0,-1,1105,1226,0,0
-112,-202,0,0,0,0,0,0,0,0,0,-1,1112,1226,0,0
-105,-202,0,0,0,0,0,0,0,0,0,-1,1119,1226,0,0
-98,-202,0,0,0,0,0,0,0,0,0,-1,1126,1226,0,0
-91,-202,0,0,0,0,0,0,0,0,0,-1,1133,1226,0,0
-84,-202,0,0,0,0,0,0,0,0,0,-1,1140,1226,0,0
-77,-202,0,0,0,0,0,0,0,0,0,-1,1147,1226,0,0
-70,-202,0,0,0,0,0,0,0,0,0,-1,1154,1226,0,0
-63,-202,0,0,0,0,0,0,0,0,0,-1,1161,1226,0,0
-56,-202,0,0,0,0,0,0,0,0,0,-1,1168,1226,0,0
-49,-202,0,0,0,0,0,0,0,0,0,-1,1175,1226,0,0
-42,-202,0,0,0,0,0,0,0,0,0,-1,1182,1226,0,0
-35,-202,0,0,0,0,0,0,0,0,0,-1,1189,1226,0,0
-28,-202,0,0,0,0,0,0,0,0,0,-1,1196,1226,0,0
-21,-202,0,0,0,0,0,0,0,0,0,-1,1203,1226,0,0
-14,-202,0,0,0,0,0,0,0,0,0,-1,1210,1226,0,0
-7,-202,0,0,0,0,0,0,0,0,0,-1,1217,1226,0,0
0,-202,0,0,0,0,0,0,0,0,0,-1,1224,1226,0,0
7,-202,0,0,0,0,0,0,0,0,0,-1,1231,1226,0,0
14,-202,0,0,0,0,0,0,0,0,0,-1,1238,1226,0,0
21,-202,0,0,0,0,0,0,0,0,0,-1,1245,1226,0,0
28,-202,0,0,0,0,0,0,0,0,0,-1,1252,1226,0,0
35,-202,0,0,0,0,0,0,0,0,0,-1,1259,1226,0,0
42,-202,0,0,0,0,0,0,0,0,0,-1,1266,1226,0,0
49,-202,0,0,0,0,0,0,0,0,0,-1,1273,1226,0,0
56,-202,0,0,0,0,0,0,0,0,0,-1,1280,1226,0,0
63,-202,0,0,0,0,0,0,0,0,0,-1,1287,1226,0,0
70,-202,0,0,0,0,0,0,0,0,0,-1,1294,1226,0,0
77,-202,0,0,0,0,0,0,0,0,0,-1,1301,1226,0,0
84,-202,0,0,0,0,0,0,0,0,0,-1,1308,1226,0,0
91,-202,0,0,0,0,0,0,0,0,0,-1,1315,1226,0,0
98,-202,0,0,0,0,0,0,0,0,0,-1,1322,1226,0,0
105,-202,0,0,0,0,0,0,0,0,0,-1,1329,1226,0,0
112,-202,0,0,0,0,0,0,0,0,0,-1,1336,1226,0,0
119,-202,0,0,0,0,0,0,0,0,0,-1,1343,1226,0,0
126,-202,0,0,0,0,0,0,0,0,0,-1,1350,1226,0,0
133,-202,0,0,0,0,0,0,0,0,0,-1,1357,1226,0,0
140,-202,0,0,0,0,0,0,0,0,0,-1,1364,1226,0,0
147,-202,0,0,0,0,0,0,0,0,0,-1,1371,1226,0,0
154,-202,0,0,0,0,0,0,0,0,0,-1,1378,1226,0,0
161,-202,0,0,0,0,0,0,0,0,0,-1,1385,1226,0,0
168,-202,0,0,0,0,0,0,0,0,0,-1,1392,1226,0,0
175,-202,0,0,0,0,0,0,0,0,0,-1,1399,1226,0,0
182,-202,0,0,0,0,0,0,0,0,0,-1,1406,1226,0,0
189,-202,0,0,0,0,0,0,0,0,0,-1,1413,1226,0,0
196,-202,0,0,0,0,0,0,0,0,0,-1,1420,1226,0,0
203,-202,0,0,0,0,0,0,0,0,0,-1,1427,1226,0,0
210,-202,0,0,0,0,0,0,0,0,0,-1,1434,1226,0,0
217,-202,0,0,0,0,0,0,0,0,0,-1,1441,1226,0,0
224,-202,0,0,0,0,0,0,0,0,0,-1,1448,1226,0,0
231,-202,0,0,0,0,0,0,0,0,0,-1,1455,1226,0,0
238,-202,0,0,0,0,0,0,0,0,0,-1,1462,1226,0,0
245,-202,0,0,0,0,0,0,0,0,0,-1,1469,1226,0,0
252,-202,0,0,0,0,0,0,0,0,0,-1,1476,1226,0,0
259,-202,0,0,0,0,0,0,0,0,0,-1,1483,1226,0,0
266,-202,0,0,0,0,0,0,0,0,0,-1,1490,1226,0,0
273,-202,0,0,0,0,0,0,0,0,0,-1,1497,1226,0,0
280,-202,0,0,0,0,0,0,0,0,0,-1,1504,1226,0,0
287,-202,0,0,0,0,0,0,0,0,0,-1,1511,1226,0,0
294,-202,0,0,0,0,0,0,0,0,0,-1,1518,1226,0,0
301,-202,0,0,0,0,0,0,0,0,0,-1,1525,1226,0,0
308,-202,0,0,0,0,0,0,0,0,0,-1,1532,1226,0,0
315,-202,0,0,0,0,0,0,0,0,0,-1,1539,1226,0,0
322,-202,0,0,0,0,0,0,0,0,0,-1,1546,1226,0,0
329,-202,0,0,0,0,0,0,0,0,0,-1,1553,1226,0,0
336,-202,0,0,0,0,0,0,0,0,0,-1,1560,1226,0,0
343,-202,0,0,0,0,0,0,0,0,0,-1,1567,1226,0,0
350,-202,0,0,0,0,0,0,0,0,0,-1,1574,1226,0,0
357,-202,0,0,0,0,0,0,0,0,0,-1,1581,1226,0,0
364,-202,0,0,0,0,0,0,0,0,0,-1,1588,1226,0,0
371,-202,0,0,0,0,0,0,0,0,0,-1,1595,1226,0,0
378,-202,0,0,0,0,0,0,0,0,0,-1,1602,1226,0,0
385,-202,0,0,0,0,0,0,0,0,0,-1,1609,1226,0,0
392,-202,0,0,0,0,0,0,0,0,0,-1,1616,1226,0,0
399,-202,0,0,0,0,0,0,0,0,0,-1,1623,1226,0,0
406,-202,0,0,0,0,0,0,0,0,0,-1,1630,1226,0,0
413,-202,0,0,0,0,0,0,0,0,0,-1,1637,1226,0,0
420,-202,0,0,0,0,0,0,0,0,0,-1,1644,1226,0,0
427,-202,0,0,0,0,0,0,0,0,0,-1,1651,1226,0,0
434,-202,0,0,0,0,0,0,0,0,0,-1,1658,1226,0,0
441,-202,0,0,0,0,0,0,0,0,0,-1,1665,1226,0,0
448,-202,0,0,0,0,0,0,0,0,0,-1,1672,1226,0,0
455,-202,0,0,0,0,0,0,0,0,0,-1,1679,1226,0,0
462,-202,0,0,0,0,0,0,0,0,0,-1,1686,1226,0,0
469,-202,0,0,0,0,0,0,0,0,0,-1,1693,1226,0,0
476,-202,0,0,0,0,0,0,0,0,0,-1,1700,1226,0,0
483,-202,0,0,0,0,0,0,0,0,0,-1,1707,1226,0,0
490,-202,0,0,0,0,0,0,0,0,0,-1,1714,1226,0,0
497,-202,0,0,0,0,0,0,0,0,0,-1,1721,1226,0,0
504,-202,0,0,0,0,0,0,0,0,0,-1,1728,1226,0,0
511,-202,0,0,0,0,0,0,0,0,0,-1,1735,1226,0,0
518,-202,0,0,0,0,0,0,0,0,0,-1,1742,1226,0,0
525,-202,0,0,0,0,0,0,0,0,0,-1,1749,1226,0,0
532,-202,0,0,0,0,0,0,0,0,0,-1,1756,1226,0,0
539,-202,0,0,0,0,0,0,0,0,0,-1,1763,1226,0,0
546,-202,0,0,0,0,0,0,0,0,0,-1,1770,1226,0,0
553,-202,0,0,0,0,0,0,0,0,0,-1,1777,1226,0,0
560,-202,0,0,0,0,0,0,0,0,0,-1,1784,1226,0,0
567,-202,0,0,0,0,0,0,0,0,0,-1,1791,1226,0,0
574,-202,0,0,0,0,0,0,0,0,0,-1,1798,1226,0,0
581,-202,0,0,0,0,0,0,0,0,0,-1,1805,1226,0,0
588,-202,0,0,0,0,0,0,0,0,0,-1,1812,1226,0,0
595,-202,0,0,0,0,0,0,0,0,0,-1,1819,1226,0,0
602,-202,0,0,0,0,0,0,0,0,0,-1,1826,1226,0,0
609,-202,0,0,0,0,0,0,0,0,0,-1,1833,1226,0,0
616,-202,0,0,0,0,0,0,0,0,0,-1,1840,1226,0,0
623,-202,0,0,0,0,0,0,0,0,0,-1,1847,1226,0,0
630,-202,66.9766,2.39233,0.000295746,0.00185448,0.00279386,0.00397564,-0.00182541,0.921419,0.00342507,0.037152,1854,1226,66.9766,-2.39232
637,-202,67.0737,2.41406,-8.55343e-05,0.0024178,0.00152224,0.0031369,-0.000804626,1.12948,0.00240477,0.0367279,1861,1226,67.0737,-2.41406
644,-202,67.0205,2.40259,-0.000322306,0.00303217,0.000147725,0.00303866,-0.000328799,1.52687,0.00214379,0.0329252,1868,1226,67.0206,-2.4026
651,-202,66.9808,2.30896,-0.000267909,0.00344692,-0.00110547,0.003751,-0.000571989,-1.30237,0.00271151,0.0256659,1875,1226,66.9808,-2.309
658,-202,67.015,2.31177,-0.000212755,0.00314254,-0.00153941,0.00374179,-0.000812013,-1.19957,0.00280466,0.0221112,1882,1226,67.015,-2.31179
665,-202,67.0409,2.33801,-6.45075e-05,0.00257068,-0.00153131,0.00327323,-0.000767056,-1.14066,0.00247774,0.0214933,1889,1226,67.0408,-2.33804
672,-202,67.1147,2.3241,0.000203238,0.00196144,-0.00142448,0.00275624,-0.000591564,-1.06186,0.00206315,0.0450609,1896,1226,67.1147,-2.32405
679,-202,67.2214,2.31812,0,0,0,0,0,0,0,-1,1903,1226,67.2214,-2.31808
686,-202,49.1708,2.15198,0,0,0,0,0,0,0,-1,1910,1226,49.1708,-2.15195
693,-202,52.1176,12.0886,0,0,0,0,0,0,0,-1,1917,1226,52.1176,-12.0886
700,-202,53.6709,11.5229,0,0,0,0,0,0,0,-1,1924,1226,53.6709,-11.5229
707,-202,53.5573,10.6965,0.000715554,0.00039384,-0.000878926,0.00144822,-0.000338827,-0.694892,0.00109602,0.032816,1931,1226,53.5572,-10.6965
714,-202,53.4608,10.1371,0.000567179,0.000363305,-0.000703174,0.00117577,-0.000245282,-0.713416,0.000877113,0.035512,1938,1226,53.4608,-10.137
721,-202,53.4983,9.70081,0.0005413,-0.000101069,-0.000288321,0.000651727,-0.000211496,-0.365766,0.000519536,0.0231746,1945,1226,53.4983,-9.70083
728,-202,53.4691,8.91553,0.000571624,-0.000163695,0.000331127,0.000698755,-0.000290827,0.366583,0.000587294,0.0118782,1952,1226,53.4691,-8.91549
735,-202,53.4404,8.28198,0.00043205,-0.000105662,0.00105523,0.00125213,-0.000925746,0.66066,0.0012621,0.0119631,1959,1226,53.4404,-8.282
742,-202,53.3979,7.65344,-8.46703e-06,1.49186e-05,0.00186145,0.00186471,-0.00185826,0.788539,0.00214946,0.0129385,1966,1226,53.3979,-7.65339
749,-202,53.3319,7.03113,-0.00110203,0.000812175,0.00218381,0.00223941,-0.00252927,0.991927,0.0027549,0.013094,1973,1226,53.3319,-7.03113
756,-202,53.3514,6.43982,-0.00189359,0.00190928,0.00237922,0.00305352,-0.00303783,1.12252,0.00351684,0.0129357,1980,1226,53.3514,-6.4398
763,-202,53.4353,5.85754,-0.00325822,0.00371104,0.00201152,0.00424994,-0.00379713,1.30903,0.00464843,0.0270404,1987,1226,53.4353,-5.85758
770,-202,53.4917,5.32153,0,0,0,0,0,0,0,-1,1994,1226,53.4917,-5.32154
777,-202,53.3003,-4.00098,0,0,0,0,0,0,0,-1,2001,1226,53.3002,4.00099
784,-202,52.9231,-1.28162,0,0,0,0,0,0,0,-1,2008,1226,52.9232,1.28167
791,-202,52.2668,1.22656,0,0,0,0,0,0,0,-1,2015,1226,52.2668,-1.22651
798,-202,51.8999,3.58789,0,0,0,0,0,0,0,-1,2022,1226,51.9,-3.58791
805,-202,0,0,0,0,0,0,0,0,0,-1,2029,1226,0,0
812,-202,0,0,0,0,0,0,0,0,0,-1,2036,1226,0,0
-700,-209,0,0,0,0,0,0,0,0,0,-1,524,1233,0,0
-693,-209,0,0,0,0,0,0,0,0,0,-1,531,1233,0,0
-686,-209,0,0,0,0,0,0,0,0,0,-1,538,1233,0,0
-679,-209,-36.3138,1.07178,0,0,0,0,0,0,0,-1,545,1233,-36.3138,-1.07173
-672,-209,-37.7604,1.54517,0,0,0,0,0,0,0,-1,552,1233,-37.7604,-1.54521
-665,-209,-39.1766,1.87292,0,0,0,0,0,0,0,-1,559,1233,-39.1766,-1.87291
-658,-209,-40.528,2.2196,0,0,0,0,0,0,0,-1,566,1233,-40.528,-2.21965
-651,-209,-36.5391,0.882935,0,0,0,0,0,0,0,-1,573,1233,-36.5391,-0.882973
-644,-209,-43.4648,-7.04663,0,0,0,0,0,0,0,-1,580,1233,-43.4648,7.04659
-637,-209,-36.7006,2.91882,0,0,0,0,0,0,0,-1,587,1233,-36.7006,-2.91885
-630,-209,-36.8202,3.67383,0.0168126,0.00781725,-0.0123214,0.0254316,-0.000801742,-0.610399,0.0172278,0.0386389,594,1233,-36.8202,-3.67386
-623,-209,-37.0172,4.45154,0.00662316,0.00490115,-0.0059577,0.0117818,-0.000257444,-0.713635,0.00794171,0.0164762,601,1233,-37.0172,-4.4515
-616,-209,-37.0529,5.14258,0.0012531,0.002814,-0.00247486,0.00462856,-0.000561458,-0.938139,0.00328887,0.0128992,608,1233,-37.0529,-5.14261
-609,-209,-37.0657,5.80603,-0.000855346,0.00103982,-0.00133384,0.0017284,-0.00154393,-1.09424,0.00189028,0.0148625,615,1233,-37.0656,-5.80603
-602,-209,-37.1253,6.47742,-0.00123572,-0.000177377,-0.0016326,0.00100967,-0.00242276,-0.94212,0.00203692,0.0168097,622,1233,-37.1253,-6.47747
-595,-209,-37.1593,7.14868,-0.0016255,-0.0010918,-0.00135253,1.99585e-05,-0.00273725,-0.882795,0.00183152,0.0147109,629,1233,-37.1593,-7.14872
-588,-209,-37.2366,7.82935,-0.00295229,-0.000478885,-0.00137502,0.000133765,-0.00356494,-1.15164,0.00242245,0.0320685,636,1233,-37.2365,-7.82936
-581,-209,-37.3287,8.45776,0,0,0,0,0,0,0,-1,643,1233,-37.3287,-8.45777
-574,-209,-33.4955,9.52966,0,0,0,0,0,0,0,-1,650,1233,-33.4955,-9.52972
-567,-209,-26.2951,6.92981,0,0,0,0,0,0,0,-1,657,1233,-26.2951,-6.92986
-560,-209,-13.9294,4.16626,0,0,0,0,0,0,0,-1,664,1233,-13.9294,-4.16621
-553,-209,-22.7542,0.748779,0,0,0,0,0,0,0,-1,671,1233,-22.7541,-0.748796
-546,-209,-44.691,0.142822,0,0,0,0,0,0,0,-1,678,1233,-44.6911,-0.142844
-539,-209,-50.9387,0.213013,0,0,0,0,0,0,0,-1,685,1233,-50.9387,-0.213064
-532,-209,-51.2026,0.492676,0.0012792,0.00398093,-0.00453459,0.00736159,-0.00210147,-0.930164,0.00573796,0.0369968,692,1233,-51.2027,-0.492713
-525,-209,-51.3182,0.427124,0.00354142,0.00441655,-0.00506674,0.00906458,-0.00110662,-0.828471,0.00644368,0.0365536,699,1233,-51.3182,-0.427064
-518,-209,-51.3126,0.192871,0.00690117,0.0040266,-0.0051845,0.0108439,8.38484e-05,-0.65018,0.00720149,0.042675,706,1233,-51.3126,-0.192863
-511,-209,-51.6432,0.755737,0.0123862,0.000465067,-0.00433007,0.0137929,-0.00094172,-0.314131,0.00952473,0.0406246,713,1233,-51.6432,-0.755773
-504,-209,0,0,0,0,0,0,0,0,0,-1,720,1233,0,0
-497,-209,0,0,0,0,0,0,0,0,0,-1,727,1233,0,0
-490,-209,0,0,0,0,0,0,0,0,0,-1,734,1233,0,0
-483,-209,0,0,0,0,0,0,0,0,0,-1,741,1233,0,0
-476,-209,0,0,0,0,0,0,0,0,0,-1,748,1233,0,0
-469,-209,0,0,0,0,0,0,0,0,0,-1,755,1233,0,0
-462,-209,0,0,0,0,0,0,0,0,0,-1,762,1233,0,0
-455,-209,0,0,0,0,0,0,0,0,0,-1,769,1233,0,0
-448,-209,0,0,0,0,0,0,0,0,0,-1,776,1233,0,0
-441,-209,0,0,0,0,0,0,0,0,0,-1,783,1233,0,0
-434,-209,0,0,0,0,0,0,0,0,0,-1,790,1233,0,0
-427,-209,0,0,0,0,0,0,0,0,0,-1,797,1233,0,0
-420,-209,0,0,0,0,0,0,0,0,0,-1,804,1233,0,0
-413,-209,0,0,0,0,0,0,0,0,0,-1,811,1233,0,0
-406,-209,0,0,0,0,0,0,0,0,0,-1,818,1233,0,0
-399,-209,0,0,0,0,0,0,0,0,0,-1,825,1233,0,0
-392,-209,0,0,0,0,0,0,0,0,0,-1,832,1233,0,0
-385,-209,0,0,0,0,0,0,0,0,0,-1,839,1233,0,0
-378,-209,0,0,0,0,0,0,0,0,0,-1,846,1233,0,0
-371,-209,0,0,0,0,0,0,0,0,0,-1,853,1233,0,0
-364,-209,0,0,0,0,0,0,0,0,0,-1,860,1233,0,0
-357,-209,0,0,0,0,0,0,0,0,0,-1,867,1233,0,0
-350,-209,0,0,0,0,0,0,0,0,0,-1,874,1233,0,0
-343,-209,0,0,0,0,0,0,0,0,0,-1,881,1233,0,0
-336,-209,0,0,0,0,0,0,0,0,0,-1,888,1233,0,0
-329,-209,0,0,0,0,0,0,0,0,0,-1,895,1233,0,0
-322,-209,0,0,0,0,0,0,0,0,0,-1,902,1233,0,0
-315,-209,0,0,0,0,0,0,0,0,0,-1,909,1233,0,0
-308,-209,0,0,0,0,0,0,0,0,0,-1,916,1233,0,0
-301,-209,0,0,0,0,0,0,0,0,0,-1,923,1233,0,0
-294,-209,0,0,0,0,0,0,0,0,0,-1,930,1233,0,0
-287,-209,0,0,0,0,0,0,0,0,0,-1,937,1233,0,0
-280,-209,0,0,0,0,0,0,0,0,0,-1,944,1233,0,0
-273,-209,0,0,0,0,0,0,0,0,0,-1,951,1233,0,0
-266,-209,0,0,0,0,0,0,0,0,0,-1,958,1233,0,0
-259,-209,0,0,0,0,0,0,0,0,0,-1,965,1233,0,0
-252,-209,0,0,0,0,0,0,0,0,0,-1,972,1233,0,0
-245,-209,0,0,0,0,0,0,0,0,0,-1,979,1233,0,0
-238,-209,0,0,0,0,0,0,0,0,0,-1,986,1233,0,0
-231,-209,0,0,0,0,0,0,0,0,0,-1,993,1233,0,0
-224,-209,0,0,0,0,0,0,0,0,0,-1,1000,1233,0,0
-217,-209,0,0,0,0,0,0,0,0,0,-1,1007,1233,0,0
-210,-209,0,0,0,0,0,0,0,0,0,-1,1014,1233,0,0
-203,-209,0,0,0,0,0,0,0,0,0,-1,1021,1233,0,0
-196,-209,0,0,0,0,0,0,0,0,0,-1,1028,1233,0,0
-189,-209,0,0,0,0,0,0,0,0,0,-1,1035,1233,0,0
-182,-209,0,0,0,0,0,0,0,0,0,-1,1042,1233,0,0
-175,-209,0,0,0,0,0,0,0,0,0,-1,1049,1233,0,0
-168,-209,0,0,0,0,0,0,0,0,0,-1,1056,1233,0,0
-161,-209,0,0,0,0,0,0,0,0,0,-1,1063,1233,0,0
-154,-209,0,0,0,0,0,0,0,0,0,-1,1070,1233,0,0
-147,-209,0,0,0,0,0,0,0,0,0,-1,1077,1233,0,0
-140,-209,0,0,0,0,0,0,0,0,0,-1,1084,1233,0,0
-133,-209,0,0,0,0,0,0,0,0,0,-1,1091,1233,0,0
-126,-209,0,0,0,0,0,0,0,0,0,-1,1098,1233,0,0
-119,-209,0,0,0,0,0,0,0,0,0,-1,1105,1233,0,0
-112,-209,0,0,0,0,0,0,0,0,0,-1,1112,1233,0,0
-105,-209,0,0,0,0,0,0,0,0,0,-1,1119,1233,0,0
-98,-209,0,0,0,0,0,0,0,0,0,-1,1126,1233,0,0
-91,-209,0,0,0,0,0,0,0,0,0,-1,1133,1233,0,0
-84,-209,0,0,0,0,0,0,0,0,0,-1,1140,1233,0,0
-77,-209,0,0,0,0,0,0,0,0,0,-1,1147,1233,0,0
-70,-209,0,0,0,0,0,0,0,0,0,-1,1154,1233,0,0
-63,-209,0,0,0,0,0,0,0,0,0,-1,1161,1233,0,0
-56,-209,0,0,0,0,0,0,0,0,0,-1,1168,1233,0,0
-49,-209,0,0,0,0,0,0,0,0,0,-1,1175,1233,0,0
-42,-209,0,0,0,0,0,0,0,0,0,-1,1182,1233,0,0
-35,-209,0,0,0,0,0,0,0,0,0,-1,1189,1233,0,0
-28,-209,0,0,0,0,0,0,0,0,0,-1,1196,1233,0,0
-21,-209,0,0,0,0,0,0,0,0,0,-1,1203,1233,0,0
-14,-209,0,0,0,0,0,0,0,0,0,-1,1210,1233,0,0
-7,-209,0,0,0,0,0,0,0,0,0,-1,1217,1233,0,0
0,-209,0,0,0,0,0,0,0,0,0,-1,1224,1233,0,0
7,-209,0,0,0,0,0,0,0,0,0,-1,1231,1233,0,0
14,-209,0,0,0,0,0,0,0,0,0,-1,1238,1233,0,0
21,-209,0,0,0,0,0,0,0,0,0,-1,1245,1233,0,0
28,-209,0,0,0,0,0,0,0,0,0,-1,1252,1233,0,0
35,-209,0,0,0,0,0,0,0,0,0,-1,1259,1233,0,0
42,-209,0,0,0,0,0,0,0,0,0,-1,1266,1233,0,0
49,-209,0,0,0,0,0,0,0,0,0,-1,1273,1233,0,0
56,-209,0,0,0,0,0,0,0,0,0,-1,1280,1233,0,0
63,-209,0,0,0,0,0,0,0,0,0,-1,1287,1233,0,0
70,-209,0,0,0,0,0,0,0,0,0,-1,1294,1233,0,0
77,-209,0,0,0,0,0,0,0,0,0,-1,1301,1233,0,0
84,-209,0,0,0,0,0,0,0,0,0,-1,1308,1233,0,0
91,-209,0,0,0,0,0,0,0,0,0,-1,1315,1233,0,0
98,-209,0,0,0,0,0,0,0,0,0,-1,1322,1233,0,0
105,-209,0,0,0,0,0,0,0,0,0,-1,1329,1233,0,0
112,-209,0,0,0,0,0,0,0,0,0,-1,1336,1233,0,0
119,-209,0,0,0,0,0,0,0,0,0,-1,1343,1233,0,0
126,-209,0,0,0,0,0,0,0,0,0,-1,1350,1233,0,0
133,-209,0,0,0,0,0,0,0,0,0,-1,1357,1233,0,0
140,-209,0,0,0,0,0,0,0,0,0,-1,1364,1233,0,0
147,-209,0,0,0,0,0,0,0,0,0,-1,1371,1233,0,0
154,-209,0,0,0,0,0,0,0,0,0,-1,1378,1233,0,0
161,-209,0,0,0,0,0,0,0,0,0,-1,1385,1233,0,0
168,-209,0,0,0,0,0,0,0,0,0,-1,1392,1233,0,0
175,-209,0,0,0,0,0,0,0,0,0,-1,1399,1233,0,0
182,-209,0,0,0,0,0,0,0,0,0,-1,1406,1233,0,0
189,-209,0,0,0,0,0,0,0,0,0,-1,1413,1233,0,0
196,-209,0,0,0,0,0,0,0,0,0,-1,1420,1233,0,0
203,-209,0,0,0,0,0,0,0,0,0,-1,1427,1233,0,0
210,-209,0,0,0,0,0,0,0,0,0,-1,1434,1233,0,0
217,-209,0,0,0,0,0,0,0,0,0,-1,1441,1233,0,0
224,-209,0,0,0,0,0,0,0,0,0,-1,1448,1233,0,0
231,-209,0,0,0,0,0,0,0,0,0,-1,1455,1233,0,0
238,-209,0,0,0,0,0,0,0,0,0,-1,1462,1233,0,0
245,-209,0,0,0,0,0,0,0,0,0,-1,1469,1233,0,0
252,-209,0,0,0,0,0,0,0,0,0,-1,1476,1233,0,0
259,-209,0,0,0,0,0,0,0,0,0,-1,1483,1233,0,0
266,-209,0,0,0,0,0,0,0,0,0,-1,1490,1233,0,0
273,-209,0,0,0,0,0,0,0,0,0,-1,1497,1233,0,0
280,-209,0,0,0,0,0,0,0,0,0,-1,1504,1233,0,0
287,-209,0,0,0,0,0,0,0,0,0,-1,1511,1233,0,0
294,-209,0,0,0,0,0,0,0,0,0,-1,1518,1233,0,0
301,-209,0,0,0,0,0,0,0,0,0,-1,1525,1233,0,0
308,-209,0,0,0,0,0,0,0,0,0,-1,1532,1233,0,0
315,-209,0,0,0,0,0,0,0,0,0,-1,1539,1233,0,0
322,-209,0,0,0,0,0,0,0,0,0,-1,1546,1233,0,0
329,-209,0,0,0,0,0,0,0,0,0,-1,1553,1233,0,0
336,-209,0,0,0,0,0,0,0,0,0,-1,1560,1233,0,0
343,-209,0,0,0,0,0,0,0,0,0,-1,1567,1233,0,0
350,-209,0,0,0,0,0,0,0,0,0,-1,1574,1233,0,0
357,-209,0,0,0,0,0,0,0,0,0,-1,1581,1233,0,0
364,-209,0,0,0,0,0,0,0,0,0,-1,1588,1233,0,0
371,-209,0,0,0,0,0,0,0,0,0,-1,1595,1233,0,0
378,-209,0,0,0,0,0,0,0,0,0,-1,1602,1233,0,0
385,-209,0,0,0,0,0,0,0,0,0,-1,1609,1233,0,0
392,-209,0,0,0,0,0,0,0,0,0,-1,1616,1233,0,0
399,-209,0,0,0,0,0,0,0,0,0,-1,1623,1233,0,0
406,-209,0,0,0,0,0,0,0,0,0,-1,1630,1233,0,0
413,-209,0,0,0,0,0,0,0,0,0,-1,1637,1233,0,0
420,-209,0,0,0,0,0,0,0,0,0,-1,1644,1233,0,0
427,-209,0,0,0,0,0,0,0,0,0,-1,1651,1233,0,0
434,-209,0,0,0,0,0,0,0,0,0,-1,1658,1233,0,0
441,-209,0,0,0,0,0,0,0,0,0,-1,1665,1233,0,0
448,-209,0,0,0,0,0,0,0,0,0,-1,1672,1233,0,0
455,-209,0,0,0,0,0,0,0,0,0,-1,1679,1233,0,0
462,-209,0,0,0,0,0,0,0,0,0,-1,1686,1233,0,0
469,-209,0,0,0,0,0,0,0,0,0,-1,1693,1233,0,0
476,-209,0,0,0,0,0,0,0,0,0,-1,1700,1233,0,0
483,-209,0,0,0,0,0,0,0,0,0,-1,1707,1233,0,0
490,-209,0,0,0,0,0,0,0,0,0,-1,1714,1233,0,0
497,-209,0,0,0,0,0,0,0,0,0,-1,1721,1233,0,0
504,-209,0,0,0,0,0,0,0,0,0,-1,1728,1233,0,0
511,-209,0,0,0,0,0,0,0,0,0,-1,1735,1233,0,0
518,-209,0,0,0,0,0,0,0,0,0,-1,1742,1233,0,0
525,-209,0,0,0,0,0,0,0,0,0,-1,1749,1233,0,0
532,-209,0,0,0,0,0,0,0,0,0,-1,1756,1233,0,0
539,-209,0,0,0,0,0,0,0,0,0,-1,1763,1233,0,0
546,-209,0,0,0,0,0,0,0,0,0,-1,1770,1233,0,0
553,-209,0,0,0,0,0,0,0,0,0,-1,1777,1233,0,0
560,-209,0,0,0,0,0,0,0,0,0,-1,1784,1233,0,0
567,-209,0,0,0,0,0,0,0,0,0,-1,1791,1233,0,0
574,-209,0,0,0,0,0,0,0,0,0,-1,1798,1233,0,0
581,-209,0,0,0,0,0,0,0,0,0,-1,1805,1233,0,0
588,-209,0,0,0,0,0,0,0,0,0,-1,1812,1233,0,0
595,-209,0,0,0,0,0,0,0,0,0,-1,1819,1233,0,0
602,-209,0,0,0,0,0,0,0,0,0,-1,1826,1233,0,0
609,-209,0,0,0,0,0,0,0,0,0,-1,1833,1233,0,0
616,-209,0,0,0,0,0,0,0,0,0,-1,1840,1233,0,0
623,-209,66.9692,2.19189,-4.42973e-05,3.85174e-05,0.00413069,0.00412801,-0.00413379,0.79041,0.00476995,0.0349351,1847,1233,66.9693,-2.19184
630,-209,66.9683,2.25085,-0.000461917,0.00159856,0.00263451,0.00339711,-0.00226047,0.971783,0.0032883,0.0379241,1854,1233,66.9683,-2.25081
637,-209,67.0416,2.31531,-0.000717008,0.00289715,0.00107186,0.00319113,-0.00101098,1.30311,0.00253259,0.0373908,1861,1233,67.0417,-2.31528
644,-209,66.9235,2.31165,-0.000787551,0.00403601,-0.000510549,0.00408946,-0.000840997,-1.46649,0.00304559,0.0296418,1868,1233,66.9235,-2.31165
651,-209,66.9293,2.27295,-0.000568912,0.00449279,-0.00166975,0.00499398,-0.0010701,-1.27919,0.00373744,0.0233578,1875,1233,66.9294,-2.273
658,-209,67.0011,2.3136,-0.000444234,0.00390601,-0.00181869,0.00456616,-0.00110439,-1.2226,0.0034713,0.0207126,1882,1233,67.0011,-2.31357
665,-209,67.063,2.25073,-0.000248717,0.00313437,-0.00163439,0.00379496,-0.000909308,-1.18669,0.00288131,0.0352308,1889,1233,67.063,-2.25073
672,-209,67.1479,2.29529,0,0,0,0,0,0,0,-1,1896,1233,67.148,-2.29531
679,-209,55.2465,2.78674,0,0,0,0,0,0,0,-1,1903,1233,55.2464,-2.78678
686,-209,33.3711,3.89856,0,0,0,0,0,0,0,-1,1910,1233,33.3711,-3.89855
693,-209,52.6904,12.255,0,0,0,0,0,0,0,-1,1917,1233,52.6905,-12.255
700,-209,52.7758,11.5028,0.000533871,0.000464452,-0.000818614,0.00131851,-0.000320187,-0.764211,0.00100292,0.0448989,1924,1233,52.7758,-11.5028
707,-209,52.8043,10.8188,0.000572946,0.000229843,-0.000696157,0.00111838,-0.000315588,-0.664592,0.000870073,0.0375909,1931,1233,52.8043,-10.8188
714,-209,52.7789,10.241,0.000445277,0.000127547,-0.000457927,0.000771113,-0.00019829,-0.618433,0.000591359,0.0251984,1938,1233,52.7789,-10.241
721,-209,52.8452,9.55591,0.000407337,-0.000402743,5.9724e-06,0.000407381,-0.000402787,0.00737208,0.000467753,0.0144394,1945,1233,52.8452,-9.55594
728,-209,52.8588,8.9458,0.000260922,-0.000375767,0.000666872,0.000681537,-0.000796383,0.562708,0.000854136,0.0142464,1952,1233,52.8587,-8.94583
735,-209,52.8329,8.33105,-0.000124895,-0.000280703,0.00147248,0.00127174,-0.00167734,0.758969,0.00170801,0.0166197,1959,1233,52.8329,-8.33111
742,-209,52.7848,7.68225,-0.00084796,-0.000126868,0.00231733,0.00185779,-0.00283262,0.862573,0.00272744,0.0168727,1966,1233,52.7848,-7.68227
749,-209,52.7186,7.05908,-0.00229446,0.000572571,0.00273496,0.00222693,-0.00394883,1.02679,0.00361148,0.0145074,1973,1233,52.7186,-7.05908
756,-209,52.7002,6.47607,-0.00386309,0.00142531,0.00303971,0.00280996,-0.00524774,1.14336,0.00472255,0.0128401,1980,1233,52.7002,-6.47606
763,-209,52.678,5.96802,-0.00641788,0.00284935,0.00285495,0.00365826,-0.00722679,1.2947,0.00639607,0.0274873,1987,1233,52.678,-5.96806
770,-209,52.7859,5.59253,0,0,0,0,0,0,0,-1,1994,1233,52.7859,-5.59252
777,-209,49.8105,-3.45435,0,0,0,0,0,0,0,-1,2001,1233,49.8106,3.45429
784,-209,53.6729,-0.603394,0,0,0,0,0,0,0,-1,2008,1233,53.6728,0.603386
791,-209,53.6887,1.53479,0,0,0,0,0,0,0,-1,2015,1233,53.6887,-1.53478
798,-209,53.6404,3.71179,0,0,0,0,0,0,0,-1,2022,1233,53.6404,-3.71185
805,-209,0,0,0,0,0,0,0,0,0,-1,2029,1233,0,0
812,-209,0,0,0,0,0,0,0,0,0,-1,2036,1233,0,0
-700,-216,0,0,0,0,0,0,0,0,0,-1,524,1240,0,0
-693,-216,0,0,0,0,0,0,0,0,0,-1,531,1240,0,0
-686,-216,0,0,0,0,0,0,0,0,0,-1,538,1240,0,0
-679,-216,-36.3946,1.66467,0,0,0,0,0,0,0,-1,545,1240,-36.3946,-1.66473
-672,-216,-38.0517,1.77844,0,0,0,0,0,0,0,-1,552,1240,-38.0517,-1.77844
-665,-216,-39.902,1.93457,0,0,0,0,0,0,0,-1,559,1240,-39.902,-1.93453
-658,-216,-41.7407,1.98083,0,0,0,0,0,0,0,-1,566,1240,-41.7407,-1.98077
-651,-216,-42.788,-8.0509,0,0,0,0,0,0,0,-1,573,1240,-42.788,8.05092
-644,-216,-45.6099,1.72839,0,0,0,0,0,0,0,-1,580,1240,-45.6099,-1.72843
-637,-216,-35.9903,2.77026,0,0,0,0,0,0,0,-1,587,1240,-35.9903,-2.77025
-630,-216,-36.0909,3.70728,0.0125184,0.00825235,-0.00805046,0.0187136,0.00205713,-0.655895,0.0118497,0.0445787,594,1240,-36.0909,-3.70733
-623,-216,-36.2848,4.57178,0.00439251,0.00536596,-0.00327001,0.00818527,0.0015732,-0.859279,0.00501538,0.0206846,601,1240,-36.2848,-4.57172
-616,-216,-36.3909,5.1803,0.00070971,0.00334083,-0.00112737,0.0037578,0.000292737,-1.21654,0.00241355,0.0151221,608,1240,-36.3909,-5.18028
-609,-216,-36.4302,5.84155,-0.000657458,0.00162525,-0.000677299,0.00181109,-0.00084329,-1.30301,0.00156609,0.0144602,615,1240,-36.4303,-5.84152
-602,-216,-36.461,6.46973,-0.000816008,0.000256635,-0.00124834,0.00107898,-0.00163836,-0.988291,0.0015799,0.013449,622,1240,-36.461,-6.46975
-595,-216,-36.4581,7.11646,-0.00099802,-0.000959638,-0.00143611,0.000457412,-0.00241507,-0.792079,0.00178219,0.0184553,629,1240,-36.458,-7.11647
-588,-216,-36.4727,7.76624,-0.00208653,-0.000709304,-0.00160553,0.000349054,-0.00314489,-0.987984,0.0022221,0.0257854,636,1240,-36.4727,-7.76625
-581,-216,-36.5377,8.30408,0,0,0,0,0,0,0,-1,643,1240,-36.5376,-8.30405
-574,-216,-37.1616,9.10767,0,0,0,0,0,0,0,-1,650,1240,-37.1615,-9.10772
-567,-216,-33.4159,9.56567,0,0,0,0,0,0,0,-1,657,1240,-33.4159,-9.56565
-560,-216,-16.5087,5.4574,0,0,0,0,0,0,0,-1,664,1240,-16.5087,-5.45746
-553,-216,-16.2355,1.22351,0,0,0,0,0,0,0,-1,671,1240,-16.2356,-1.22356
-546,-216,-37.1617,-0.25415,0,0,0,0,0,0,0,-1,678,1240,-37.1618,0.254161
-539,-216,-47.7817,1.47327,0,0,0,0,0,0,0,-1,685,1240,-47.7818,-1.4733
-532,-216,-51.0062,0.307739,0,0,0,0,0,0,0,-1,692,1240,-51.0062,-0.307752
-525,-216,-51.2506,0.455444,0,0,0,0,0,0,0,-1,699,1240,-51.2506,-0.455499
-518,-216,-52.1805,1.60864,0,0,0,0,0,0,0,-1,706,1240,-52.1806,-1.60868
-511,-216,-51.8056,0.973389,0.0130289,0.00234516,-0.00664488,0.0162129,-0.000838813,-0.446839,0.0110988,0.0410035,713,1240,-51.8056,-0.973348
-504,-216,-51.4626,0.632324,0.0208339,-0.00516157,-0.00451108,0.0215945,-0.00592214,-0.16703,0.0167236,0.0401106,720,1240,-51.4626,-0.632295
-497,-216,0,0,0,0,0,0,0,0,0,-1,727,1240,0,0
-490,-216,0,0,0,0,0,0,0,0,0,-1,734,1240,0,0
-483,-216,0,0,0,0,0,0,0,0,0,-1,741,1240,0,0
-476,-216,0,0,0,0,0,0,0,0,0,-1,748,1240,0,0
-469,-216,0,0,0,0,0,0,0,0,0,-1,755,1240,0,0
-462,-216,0,0,0,0,0,0,0,0,0,-1,762,1240,0,0
-455,-216,0,0,0,0,0,0,0,0,0,-1,769,1240,0,0
-448,-216,0,0,0,0,0,0,0,0,0,-1,776,1240,0,0
-441,-216,0,0,0,0,0,0,0,0,0,-1,783,1240,0,0
-434,-216,0,0,0,0,0,0,0,0,0,-1,790,1240,0,0
-427,-216,0,0,0,0,0,0,0,0,0,-1,797,1240,0,0
-420,-216,0,0,0,0,0,0,0,0,0,-1,804,1240,0,0
-413,-216,0,0,0,0,0,0,0,0,0,-1,811,1240,0,0
-406,-216,0,0,0,0,0,0,0,0,0,-1,818,1240,0,0
-399,-216,0,0,0,0,0,0,0,0,0,-1,825,1240,0,0
-392,-216,0,0,0,0,0,0,0,0,0,-1,832,1240,0,0
-385,-216,0,0,0,0,0,0,0,0,0,-1,839,1240,0,0
-378,-216,0,0,0,0,0,0,0,0,0,-1,846,1240,0,0
-371,-216,0,0,0,0,0,0,0,0,0,-1,853,1240,0,0
-364,-216,0,0,0,0,0,0,0,0,0,-1,860,1240,0,0
-357,-216,0,0,0,0,0,0,0,0,0,-1,867,1240,0,0
-350,-216,0,0,0,0,0,0,0,0,0,-1,874,1240,0,0
-343,-216,0,0,0,0,0,0,0,0,0,-1,881,1240,0,0
-336,-216,0,0,0,0,0,0,0,0,0,-1,888,1240,0,0
-329,-216,0,0,0,0,0,0,0,0,0,-1,895,1240,0,0
-322,-216,0,0,0,0,0,0,0,0,0,-1,902,1240,0,0
-315,-216,0,0,0,0,0,0,0,0,0,-1,909,1240,0,0
-308,-216,0,0,0,0,0,0,0,0,0,-1,916,1240,0,0
-301,-216,0,0,0,0,0,0,0,0,0,-1,923,1240,0,0
-294,-216,0,0,0,0,0,0,0,0,0,-1,930,1240,0,0
-287,-216,0,0,0,0,0,0,0,0,0,-1,937,1240,0,0
-280,-216,0,0,0,0,0,0,0,0,0,-1,944,1240,0,0
-273,-216,0,0,0,0,0,0,0,0,0,-1,951,1240,0,0
-266,-216,0,0,0,0,0,0,0,0,0,-1,958,1240,0,0
-259,-216,0,0,0,0,0,0,0,0,0,-1,965,1240,0,0
-252,-216,0,0,0,0,0,0,0,0,0,-1,972,1240,0,0
-245,-216,0,0,0,0,0,0,0,0,0,-1,979,1240,0,0
-238,-216,0,0,0,0,0,0,0,0,0,-1,986,1240,0,0
-231,-216,0,0,0,0,0,0,0,0,0,-1,993,1240,0,0
-224,-216,0,0,0,0,0,0,0,0,0,-1,1000,1240,0,0
-217,-216,0,0,0,0,0,0,0,0,0,-1,1007,1240,0,0
-210,-216,0,0,0,0,0,0,0,0,0,-1,1014,1240,0,0
-203,-216,0,0,0,0,0,0,0,0,0,-1,1021,1240,0,0
-196,-216,0,0,0,0,0,0,0,0,0,-1,1028,1240,0,0
-189,-216,0,0,0,0,0,0,0,0,0,-1,1035,1240,0,0
-182,-216,0,0,0,0,0,0,0,0,0,-1,1042,1240,0,0
-175,-216,0,0,0,0,0,0,0,0,0,-1,1049,1240,0,0
-168,-216,0,0,0,0,0,0,0,0,0,-1,1056,1240,0,0
-161,-216,0,0,0,0,0,0,0,0,0,-1,1063,1240,0,0
-154,-216,0,0,0,0,0,0,0,0,0,-1,1070,1240,0,0
-147,-216,0,0,0,0,0,0,0,0,0,-1,1077,1240,0,0
-140,-216,0,0,0,0,0,0,0,0,0,-1,1084,1240,0,0
-133,-216,0,0,0,0,0,0,0,0,0,-1,1091,1240,0,0
-126,-216,0,0,0,0,0,0,0,0,0,-1,1098,1240,0,0
-119,-216,0,0,0,0,0,0,0,0,0,-1,1105,1240,0,0
-112,-216,0,0,0,0,0,0,0,0,0,-1,1112,1240,0,0
-105,-216,0,0,0,0,0,0,0,0,0,-1,1119,1240,0,0
-98,-216,0,0,0,0,0,0,0,0,0,-1,1126,1240,0,0
-91,-216,0,0,0,0,0,0,0,0,0,-1,1133,1240,0,0
-84,-216,0,0,0,0,0,0,0,0,0,-1,1140,1240,0,0
-77,-216,0,0,0,0,0,0,0,0,0,-1,1147,1240,0,0
-70,-216,0,0,0,0,0,0,0,0,0,-1,1154,1240,0,0
-63,-216,0,0,0,0,0,0,0,0,0,-1,1161,1240,0,0
-56,-216,0,0,0,0,0,0,0,0,0,-1,1168,1240,0,0
-49,-216,0,0,0,0,0,0,0,0,0,-1,1175,1240,0,0
-42,-216,0,0,0,0,0,0,0,0,0,-1,1182,1240,0,0
-35,-216,0,0,0,0,0,0,0,0,0,-1,1189,1240,0,0
-28,-216,0,0,0,0,0,0,0,0,0,-1,1196,1240,0,0
-21,-216,0,0,0,0,0,0,0,0,0,-1,1203,1240,0,0
-14,-216,0,0,0,0,0,0,0,0,0,-1,1210,1240,0,0
-7,-216,0,0,0,0,0,0,0,0,0,-1,1217,1240,0,0
0,-216,0,0,0,0,0,0,0,0,0,-1,1224,1240,0,0
7,-216,0,0,0,0,0,0,0,0,0,-1,1231,1240,0,0
14,-216,0,0,0,0,0,0,0,0,0,-1,1238,1240,0,0
21,-216,0,0,0,0,0,0,0,0,0,-1,1245,1240,0,0
28,-216,0,0,0,0,0,0,0,0,0,-1,1252,1240,0,0
35,-216,0,0,0,0,0,0,0,0,0,-1,1259,1240,0,0
42,-216,0,0,0,0,0,0,0,0,0,-1,1266,1240,0,0
49,-216,0,0,0,0,0,0,0,0,0,-1,1273,1240,0,0
56,-216,0,0,0,0,0,0,0,0,0,-1,1280,1240,0,0
63,-216,0,0,0,0,0,0,0,0,0,-1,1287,1240,0,0
70,-216,0,0,0,0,0,0,0,0,0,-1,1294,1240,0,0
77,-216,0,0,0,0,0,0,0,0,0,-1,1301,1240,0,0
84,-216,0,0,0,0,0,0,0,0,0,-1,1308,1240,0,0
91,-216,0,0,0,0,0,0,0,0,0,-1,1315,1240,0,0
98,-216,0,0,0,0,0,0,0,0,0,-1,1322,1240,0,0
105,-216,0,0,0,0,0,0,0,0,0,-1,1329,1240,0,0
112,-216,0,0,0,0,0,0,0,0,0,-1,1336,1240,0,0
119,-216,0,0,0,0,0,0,0,0,0,-1,1343,1240,0,0
126,-216,0,0,0,0,0,0,0,0,0,-1,1350,1240,0,0
133,-216,0,0,0,0,0,0,0,0,0,-1,1357,1240,0,0
140,-216,0,0,0,0,0,0,0,0,0,-1,1364,1240,0,0
147,-216,0,0,0,0,0,0,0,0,0,-1,1371,1240,0,0
154,-216,0,0,0,0,0,0,0,0,0,-1,1378,1240,0,0
161,-216,0,0,0,0,0,0,0,0,0,-1,1385,1240,0,0
168,-216,0,0,0,0,0,0,0,0,0,-1,1392,1240,0,0
175,-216,0,0,0,0,0,0,0,0,0,-1,1399,1240,0,0
182,-216,0,0,0,0,0,0,0,0,0,-1,1406,1240,0,0
189,-216,0,0,0,0,0,0,0,0,0,-1,1413,1240,0,0
196,-216,0,0,0,0,0,0,0,0,0,-1,1420,1240,0,0
203,-216,0,0,0,0,0,0,0,0,0,-1,1427,1240,0,0
210,-216,0,0,0,0,0,0,0,0,0,-1,1434,1240,0,0
217,-216,0,0,0,0,0,0,0,0,0,-1,1441,1240,0,0
224,-216,0,0,0,0,0,0,0,0,0,-1,1448,1240,0,0
231,-216,0,0,0,0,0,0,0,0,0,-1,1455,1240,0,0
238,-216,0,0,0,0,0,0,0,0,0,-1,1462,1240,0,0
245,-216,0,0,0,0,0,0,0,0,0,-1,1469,1240,0,0
252,-216,0,0,0,0,0,0,0,0,0,-1,1476,1240,0,0
259,-216,0,0,0,0,0,0,0,0,0,-1,1483,1240,0,0
266,-216,0,0,0,0,0,0,0,0,0,-1,1490,1240,0,0
273,-216,0,0,0,0,0,0,0,0,0,-1,1497,1240,0,0
280,-216,0,0,0,0,0,0,0,0,0,-1,1504,1240,0,0
287,-216,0,0,0,0,0,0,0,0,0,-1,1511,1240,0,0
294,-216,0,0,0,0,0,0,0,0,0,-1,1518,1240,0,0
301,-216,0,0,0,0,0,0,0,0,0,-1,1525,1240,0,0
308,-216,0,0,0,0,0,0,0,0,0,-1,1532,1240,0,0
315,-216,0,0,0,0,0,0,0,0,0,-1,1539,1240,0,0
322,-216,0,0,0,0,0,0,0,0,0,-1,1546,1240,0,0
329,-216,0,0,0,0,0,0,0,0,0,-1,1553,1240,0,0
336,-216,0,0,0,0,0,0,0,0,0,-1,1560,1240,0,0
343,-216,0,0,0,0,0,0,0,0,0,-1,1567,1240,0,0
350,-216,0,0,0,0,0,0,0,0,0,-1,1574,1240,0,0
357,-216,0,0,0,0,0,0,0,0,0,-1,1581,1240,0,0
364,-216,0,0,0,0,0,0,0,0,0,-1,1588,1240,0,0
371,-216,0,0,0,0,0,0,0,0,0,-1,1595,1240,0,0
378,-216,0,0,0,0,0,0,0,0,0,-1,1602,1240,0,0
385,-216,0,0,0,0,0,0,0,0,0,-1,1609,1240,0,0
392,-216,0,0,0,0,0,0,0,0,0,-1,1616,1240,0,0
399,-216,0,0,0,0,0,0,0,0,0,-1,1623,1240,0,0
406,-216,0,0,0,0,0,0,0,0,0,-1,1630,1240,0,0
413,-216,0,0,0,0,0,0,0,0,0,-1,1637,1240,0,0
420,-216,0,0,0,0,0,0,0,0,0,-1,1644,1240,0,0
427,-216,0,0,0,0,0,0,0,0,0,-1,1651,1240,0,0
434,-216,0,0,0,0,0,0,0,0,0,-1,1658,1240,0,0
441,-216,0,0,0,0,0,0,0,0,0,-1,1665,1240,0,0
448,-216,0,0,0,0,0,0,0,0,0,-1,1672,1240,0,0
455,-216,0,0,0,0,0,0,0,0,0,-1,1679,1240,0,0
462,-216,0,0,0,0,0,0,0,0,0,-1,1686,1240,0,0
469,-216,0,0,0,0,0,0,0,0,0,-1,1693,1240,0,0
476,-216,0,0,0,0,0,0,0,0,0,-1,1700,1240,0,0
483,-216,0,0,0,0,0,0,0,0,0,-1,1707,1240,0,0
490,-216,0,0,0,0,0,0,0,0,0,-1,1714,1240,0,0
497,-216,0,0,0,0,0,0,0,0,0,-1,1721,1240,0,0
504,-216,0,0,0,0,0,0,0,0,0,-1,1728,1240,0,0
511,-216,0,0,0,0,0,0,0,0,0,-1,1735,1240,0,0
518,-216,0,0,0,0,0,0,0,0,0,-1,1742,1240,0,0
525,-216,0,0,0,0,0,0,0,0,0,-1,1749,1240,0,0
532,-216,0,0,0,0,0,0,0,0,0,-1,1756,1240,0,0
539,-216,0,0,0,0,0,0,0,0,0,-1,1763,1240,0,0
546,-216,0,0,0,0,0,0,0,0,0,-1,1770,1240,0,0
553,-216,0,0,0,0,0,0,0,0,0,-1,1777,1240,0,0
560,-216,0,0,0,0,0,0,0,0,0,-1,1784,1240,0,0
567,-216,0,0,0,0,0,0,0,0,0,-1,1791,1240,0,0
574,-216,0,0,0,0,0,0,0,0,0,-1,1798,1240,0,0
581,-216,0,0,0,0,0,0,0,0,0,-1,1805,1240,0,0
588,-216,0,0,0,0,0,0,0,0,0,-1,1812,1240,0,0
595,-216,0,0,0,0,0,0,0,0,0,-1,1819,1240,0,0
602,-216,0,0,0,0,0,0,0,0,0,-1,1826,1240,0,0
609,-216,0,0,0,0,0,0,0,0,0,-1,1833,1240,0,0
616,-216,0,0,0,0,0,0,0,0,0,-1,1840,1240,0,0
623,-216,67.0953,2.15198,-0.000781746,-0.000891518,0.00401495,0.0031787,-0.00485196,0.778563,0.00466993,0.0411534,1847,1240,67.0954,-2.15198
630,-216,67.0981,2.28027,-0.00119893,0.00164996,0.00215926,0.00281229,-0.00236127,1.07698,0.00299074,0.0390241,1854,1240,67.0982,-2.28025
637,-216,67.0663,2.35876,-0.00144049,0.00391984,0.000243334,0.00393087,-0.00145152,1.52553,0.00321554,0.0339761,1861,1240,67.0662,-2.35879
644,-216,66.9839,2.36035,-0.00132686,0.00542608,-0.00139844,0.00570423,-0.001605,-1.37446,0.00443569,0.0271861,1868,1240,66.9839,-2.36038
651,-216,66.9409,2.31641,-0.000929606,0.00560904,-0.00226656,0.00631787,-0.00163844,-1.2677,0.00485118,0.0226737,1875,1240,66.9409,-2.31645
658,-216,67.0326,2.32983,-0.000711022,0.00465876,-0.00213226,0.00540245,-0.00145471,-1.23521,0.00417195,0.0312102,1882,1240,67.0326,-2.32988
665,-216,66.9668,2.03857,-0.000463957,0.00370007,-0.00183141,0.00439093,-0.00115482,-1.21007,0.00337867,0.0488482,1889,1240,66.9667,-2.03862
672,-216,66.9375,1.78442,0,0,0,0,0,0,0,-1,1896,1240,66.9375,-1.78438
679,-216,47.3159,3.82703,0,0,0,0,0,0,0,-1,1903,1240,47.316,-3.82708
686,-216,21.5172,6.19458,0,0,0,0,0,0,0,-1,1910,1240,21.5172,-6.19453
693,-216,52.7649,11.9225,0,0,0,0,0,0,0,-1,1917,1240,52.7649,-11.9224
700,-216,52.2877,11.4653,0.000512458,0.000419864,-0.000815374,0.00128285,-0.000350527,-0.757039,0.000992918,0.0487227,1924,1240,52.2878,-11.4654
707,-216,52.2377,10.8557,0.000524593,8.65901e-05,-0.00065087,0.000992318,-0.000381135,-0.62311,0.000818716,0.0493108,1931,1240,52.2377,-10.8558
714,-216,52.2198,10.2271,0.000360904,-0.000109093,-0.000298867,0.000506097,-0.000254287,-0.452234,0.00044696,0.0209233,1938,1240,52.2198,-10.227
721,-216,52.2216,9.62476,0.000231144,-0.000659694,0.00028706,0.000315632,-0.000744182,0.28624,0.000628338,0.0141604,1945,1240,52.2215,-9.62475
728,-216,52.254,8.98071,-0.000132908,-0.000527937,0.00103559,0.000723831,-0.00138468,0.691166,0.00123712,0.0136019,1952,1240,52.254,-8.98073
735,-216,52.2579,8.36841,-0.000729156,-0.000388543,0.00189317,0.00134196,-0.00245966,0.830257,0.00222626,0.0158138,1959,1240,52.2579,-8.36845
742,-216,52.1705,7.7478,-0.00159115,-0.000239843,0.00278835,0.00195355,-0.00378454,0.904263,0.00336864,0.0185619,1966,1240,52.1705,-7.74783
749,-216,52.1138,7.0968,-0.00302966,0.000318886,0.00335462,0.00239384,-0.00510461,1.01686,0.00442252,0.0141004,1973,1240,52.1138,-7.09675
756,-216,52.0575,6.47583,-0.0046637,0.000981023,0.0038651,0.00294455,-0.00662723,1.10076,0.00566097,0.0120235,1980,1240,52.0575,-6.47585
763,-216,52.0249,5.97021,-0.00739476,0.00201403,0.00408888,0.00354264,-0.00892337,1.21304,0.00741737,0.0213713,1987,1240,52.025,-5.97026
770,-216,52.171,5.5708,0,0,0,0,0,0,0,-1,1994,1240,52.171,-5.57079
777,-216,52.4053,5.151,0,0,0,0,0,0,0,-1,2001,1240,52.4053,-5.15098
784,-216,51.8208,-0.443726,0,0,0,0,0,0,0,-1,2008,1240,51.8208,0.443779
791,-216,55.1682,1.76636,0,0,0,0,0,0,0,-1,2015,1240,55.1682,-1.76635
798,-216,0,0,0,0,0,0,0,0,0,-1,2022,1240,0,0
805,-216,0,0,0,0,0,0,0,0,0,-1,2029,1240,0,0
812,-216,0,0,0,0,0,0,0,0,0,-1,2036,1240,0,0
-700,-223,0,0,0,0,0,0,0,0,0,-1,524,1247,0,0
-693,-223,0,0,0,0,0,0,0,0,0,-1,531,1247,0,0
-686,-223,0,0,0,0,0,0,0,0,0,-1,538,1247,0,0
-679,-223,0,0,0,0,0,0,0,0,0,-1,545,1247,0,0
-672,-223,-38.277,2.04651,0,0,0,0,0,0,0,-1,552,1247,-38.2771,-2.04651
-665,-223,-40.2462,2.229,0,0,0,0,0,0,0,-1,559,1247,-40.2462,-2.22899
-658,-223,-39.6435,-8.36633,0,0,0,0,0,0,0,-1,566,1247,-39.6435,8.36633
-651,-223,-40.2339,-7.32275,0,0,0,0,0,0,0,-1,573,1247,-40.234,7.32277
-644,-223,-45.9081,3.8446,0,0,0,0,0,0,0,-1,580,1247,-45.9081,-3.84463
-637,-223,-49.2922,0.294189,0,0,0,0,0,0,0,-1,587,1247,-49.2922,-0.294245
-630,-223,-35.658,3.7168,0,0,0,0,0,0,0,-1,594,1247,-35.6579,-3.71683
-623,-223,-35.7524,4.64417,0.00174714,0.00540925,0.000148152,0.00541524,0.00174115,1.53043,0.00319219,0.0359769,601,1247,-35.7524,-4.64417
-616,-223,-35.7172,5.18616,-0.00019597,0.00366732,0.00064325,0.00377161,-0.000300258,1.41007,0.00262023,0.0169402,608,1247,-35.7172,-5.1861
-609,-223,-35.7375,5.87012,-0.000804644,0.00213688,0.000284662,0.00216418,-0.000831938,1.4752,0.0017859,0.0126169,615,1247,-35.7376,-5.87013
-602,-223,-35.7779,6.48877,-0.000710483,0.000796327,-0.00055282,0.000977389,-0.000891545,-1.25428,0.00107941,0.0151014,622,1247,-35.7779,-6.48878
-595,-223,-35.7872,7.19531,-0.000631279,-0.000523762,-0.00119682,0.000620506,-0.00177555,-0.807842,0.00143594,0.0204144,629,1247,-35.7872,-7.19536
-588,-223,-35.763,7.87024,-0.00130986,-0.000723232,-0.00167067,0.000679675,-0.00271277,-0.872296,0.00207256,0.0251881,636,1247,-35.763,-7.87021
-581,-223,-35.787,8.51123,0,0,0,0,0,0,0,-1,643,1247,-35.787,-8.51122
-574,-223,-36.0651,9.23877,0,0,0,0,0,0,0,-1,650,1247,-36.0651,-9.23875
-567,-223,-36.5457,10.0721,0,0,0,0,0,0,0,-1,657,1247,-36.5456,-10.0722
-560,-223,-31.8748,9.50732,0,0,0,0,0,0,0,-1,664,1247,-31.8748,-9.50735
-553,-223,-11.4025,4.14722,0,0,0,0,0,0,0,-1,671,1247,-11.4025,-4.14719
-546,-223,-26.9034,-0.148682,0,0,0,0,0,0,0,-1,678,1247,-26.9034,0.14867
-539,-223,-36.7405,0.35376,0,0,0,0,0,0,0,-1,685,1247,-36.7405,-0.353807
-532,-223,-47.6184,1.39844,0,0,0,0,0,0,0,-1,692,1247,-47.6184,-1.3984
-525,-223,-50.1259,0.639404,0,0,0,0,0,0,0,-1,699,1247,-50.1259,-0.639368
-518,-223,-51.7355,1.05151,0,0,0,0,0,0,0,-1,706,1247,-51.7355,-1.05149
-511,-223,-51.6874,0.931519,0.0155832,-0.0001488,-0.00746233,0.0185597,-0.00312532,-0.379534,0.0135357,0.0416387,713,1247,-51.6874,-0.931501
-504,-223,-51.5876,0.759521,0.020164,-0.00252908,-0.00814186,0.0227829,-0.00514799,-0.311208,0.0171639,0.0406788,720,1247,-51.5876,-0.759498
-497,-223,0,0,0,0,0,0,0,0,0,-1,727,1247,0,0
-490,-223,0,0,0,0,0,0,0,0,0,-1,734,1247,0,0
-483,-223,0,0,0,0,0,0,0,0,0,-1,741,1247,0,0
-476,-223,0,0,0,0,0,0,0,0,0,-1,748,1247,0,0
-469,-223,0,0,0,0,0,0,0,0,0,-1,755,1247,0,0
-462,-223,0,0,0,0,0,0,0,0,0,-1,762,1247,0,0
-455,-223,0,0,0,0,0,0,0,0,0,-1,769,1247,0,0
-448,-223,0,0,0,0,0,0,0,0,0,-1,776,1247,0,0
-441,-223,0,0,0,0,0,0,0,0,0,-1,783,1247,0,0
-434,-223,0,0,0,0,0,0,0,0,0,-1,790,1247,0,0
-427,-223,0,0,0,0,0,0,0,0,0,-1,797,1247,0,0
-420,-223,0,0,0,0,0,0,0,0,0,-1,804,1247,0,0
-413,-223,0,0,0,0,0,0,0,0,0,-1,811,1247,0,0
-406,-223,0,0,0,0,0,0,0,0,0,-1,818,1247,0,0
-399,-223,0,0,0,0,0,0,0,0,0,-1,825,1247,0,0
-392,-223,0,0,0,0,0,0,0,0,0,-1,832,1247,0,0
-385,-223,0,0,0,0,0,0,0,0,0,-1,839,1247,0,0
-378,-223,0,0,0,0,0,0,0,0,0,-1,846,1247,0,0
-371,-223,0,0,0,0,0,0,0,0,0,-1,853,1247,0,0
-364,-223,0,0,0,0,0,0,0,0,0,-1,860,1247,0,0
-357,-223,0,0,0,0,0,0,0,0,0,-1,867,1247,0,0
-350,-223,0,0,0,0,0,0,0,0,0,-1,874,1247,0,0
-343,-223,0,0,0,0,0,0,0,0,0,-1,881,1247,0,0
-336,-223,0,0,0,0,0,0,0,0,0,-1,888,1247,0,0
-329,-223,0,0,0,0,0,0,0,0,0,-1,895,1247,0,0
-322,-223,0,0,0,0,0,0,0,0,0,-1,902,1247,0,0
-315,-223,0,0,0,0,0,0,0,0,0,-1,909,1247,0,0
-308,-223,0,0,0,0,0,0,0,0,0,-1,916,1247,0,0
-301,-223,0,0,0,0,0,0,0,0,0,-1,923,1247,0,0
-294,-223,0,0,0,0,0,0,0,0,0,-1,930,1247,0,0
-287,-223,0,0,0,0,0,0,0,0,0,-1,937,1247,0,0
-280,-223,0,0,0,0,0,0,0,0,0,-1,944,1247,0,0
-273,-223,0,0,0,0,0,0,0,0,0,-1,951,1247,0,0
-266,-223,0,0,0,0,0,0,0,0,0,-1,958,1247,0,0
-259,-223,0,0,0,0,0,0,0,0,0,-1,965,1247,0,0
-252,-223,0,0,0,0,0,0,0,0,0,-1,972,1247,0,0
-245,-223,0,0,0,0,0,0,0,0,0,-1,979,1247,0,0
-238,-223,0,0,0,0,0,0,0,0,0,-1,986,1247,0,0
-231,-223,0,0,0,0,0,0,0,0,0,-1,993,1247,0,0
-224,-223,0,0,0,0,0,0,0,0,0,-1,1000,1247,0,0
-217,-223,0,0,0,0,0,0,0,0,0,-1,1007,1247,0,0
-210,-223,0,0,0,0,0,0,0,0,0,-1,1014,1247,0,0
-203,-223,0,0,0,0,0,0,0,0,0,-1,1021,1247,0,0
-196,-223,0,0,0,0,0,0,0,0,0,-1,1028,1247,0,0
-189,-223,0,0,0,0,0,0,0,0,0,-1,1035,1247,0,0
-182,-223,0,0,0,0,0,0,0,0,0,-1,1042,1247,0,0
-175,-223,0,0,0,0,0,0,0,0,0,-1,1049,1247,0,0
-168,-223,0,0,0,0,0,0,0,0,0,-1,1056,1247,0,0
-161,-223,0,0,0,0,0,0,0,0,0,-1,1063,1247,0,0
-154,-223,0,0,0,0,0,0,0,0,0,-1,1070,1247,0,0
-147,-223,0,0,0,0,0,0,0,0,0,-1,1077,1247,0,0
-140,-223,0,0,0,0,0,0,0,0,0,-1,1084,1247,0,0
-133,-223,0,0,0,0,0,0,0,0,0,-1,1091,1247,0,0
-126,-223,0,0,0,0,0,0,0,0,0,-1,1098,1247,0,0
-119,-223,0,0,0,0,0,0,0,0,0,-1,1105,1247,0,0
-112,-223,0,0,0,0,0,0,0,0,0,-1,1112,1247,0,0
-105,-223,0,0,0,0,0,0,0,0,0,-1,1119,1247,0,0
-98,-223,0,0,0,0,0,0,0,0,0,-1,1126,1247,0,0
-91,-223,0,0,0,0,0,0,0,0,0,-1,1133,1247,0,0
-84,-223,0,0,0,0,0,0,0,0,0,-1,1140,1247,0,0
-77,-223,0,0,0,0,0,0,0,0,0,-1,1147,1247,0,0
-70,-223,0,0,0,0,0,0,0,0,0,-1,1154,1247,0,0
-63,-223,0,0,0,0,0,0,0,0,0,-1,1161,1247,0,0
-56,-223,0,0,0,0,0,0,0,0,0,-1,1168,1247,0,0
-49,-223,0,0,0,0,0,0,0,0,0,-1,1175,1247,0,0
-42,-223,0,0,0,0,0,0,0,0,0,-1,1182,1247,0,0
-35,-223,0,0,0,0,0,0,0,0,0,-1,1189,1247,0,0
-28,-223,0,0,0,0,0,0,0,0,0,-1,1196,1247,0,0
-21,-223,0,0,0,0,0,0,0,0,0,-1,1203,1247,0,0
-14,-223,0,0,0,0,0,0,0,0,0,-1,1210,1247,0,0
-7,-223,0,0,0,0,0,0,0,0,0,-1,1217,1247,0,0
0,-223,0,0,0,0,0,0,0,0,0,-1,1224,1247,0,0
7,-223,0,0,0,0,0,0,0,0,0,-1,1231,1247,0,0
14,-223,0,0,0,0,0,0,0,0,0,-1,1238,1247,0,0
21,-223,0,0,0,0,0,0,0,0,0,-1,1245,1247,0,0
28,-223,0,0,0,0,0,0,0,0,0,-1,1252,1247,0,0
35,-223,0,0,0,0,0,0,0,0,0,-1,1259,1247,0,0
42,-223,0,0,0,0,0,0,0,0,0,-1,1266,1247,0,0
49,-223,0,0,0,0,0,0,0,0,0,-1,1273,1247,0,0
56,-223,0,0,0,0,0,0,0,0,0,-1,1280,1247,0,0
63,-223,0,0,0,0,0,0,0,0,0,-1,1287,1247,0,0
70,-223,0,0,0,0,0,0,0,0,0,-1,1294,1247,0,0
77,-223,0,0,0,0,0,0,0,0,0,-1,1301,1247,0,0
84,-223,0,0,0,0,0,0,0,0,0,-1,1308,1247,0,0
91,-223,0,0,0,0,0,0,0,0,0,-1,1315,1247,0,0
98,-223,0,0,0,0,0,0,0,0,0,-1,1322,1247,0,0
105,-223,0,0,0,0,0,0,0,0,0,-1,1329,1247,0,0
112,-223,0,0,0,0,0,0,0,0,0,-1,1336,1247,0,0
119,-223,0,0,0,0,0,0,0,0,0,-1,1343,1247,0,0
126,-223,0,0,0,0,0,0,0,0,0,-1,1350,1247,0,0
133,-223,0,0,0,0,0,0,0,0,0,-1,1357,1247,0,0
140,-223,0,0,0,0,0,0,0,0,0,-1,1364,1247,0,0
147,-223,0,0,0,0,0,0,0,0,0,-1,1371,1247,0,0
154,-223,0,0,0,0,0,0,0,0,0,-1,1378,1247,0,0
161,-223,0,0,0,0,0,0,0,0,0,-1,1385,1247,0,0
168,-223,0,0,0,0,0,0,0,0,0,-1,1392,1247,0,0
175,-223,0,0,0,0,0,0,0,0,0,-1,1399,1247,0,0
182,-223,0,0,0,0,0,0,0,0,0,-1,1406,1247,0,0
189,-223,0,0,0,0,0,0,0,0,0,-1,1413,1247,0,0
196,-223,0,0,0,0,0,0,0,0,0,-1,1420,1247,0,0
203,-223,0,0,0,0,0,0,0,0,0,-1,1427,1247,0,0
210,-223,0,0,0,0,0,0,0,0,0,-1,1434,1247,0,0
217,-223,0,0,0,0,0,0,0,0,0,-1,1441,1247,0,0
224,-223,0,0,0,0,0,0,0,0,0,-1,1448,1247,0,0
231,-223,0,0,0,0,0,0,0,0,0,-1,1455,1247,0,0
238,-223,0,0,0,0,0,0,0,0,0,-1,1462,1247,0,0
245,-223,0,0,0,0,0,0,0,0,0,-1,1469,1247,0,0
252,-223,0,0,0,0,0,0,0,0,0,-1,1476,1247,0,0
259,-223,0,0,0,0,0,0,0,0,0,-1,1483,1247,0,0
266,-223,0,0,0,0,0,0,0,0,0,-1,1490,1247,0,0
273,-223,0,0,0,0,0,0,0,0,0,-1,1497,1247,0,0
280,-223,0,0,0,0,0,0,0,0,0,-1,1504,1247,0,0
287,-223,0,0,0,0,0,0,0,0,0,-1,1511,1247,0,0
294,-223,0,0,0,0,0,0,0,0,0,-1,1518,1247,0,0
301,-223,0,0,0,0,0,0,0,0,0,-1,1525,1247,0,0
308,-223,0,0,0,0,0,0,0,0,0,-1,1532,1247,0,0
315,-223,0,0,0,0,0,0,0,0,0,-1,1539,1247,0,0
322,-223,0,0,0,0,0,0,0,0,0,-1,1546,1247,0,0
329,-223,0,0,0,0,0,0,0,0,0,-1,1553,1247,0,0
336,-223,0,0,0,0,0,0,0,0,0,-1,1560,1247,0,0
343,-223,0,0,0,0,0,0,0,0,0,-1,1567,1247,0,0
350,-223,0,0,0,0,0,0,0,0,0,-1,1574,1247,0,0
357,-223,0,0,0,0,0,0,0,0,0,-1,1581,1247,0,0
364,-223,0,0,0,0,0,0,0,0,0,-1,1588,1247,0,0
371,-223,0,0,0,0,0,0,0,0,0,-1,1595,1247,0,0
378,-223,0,0,0,0,0,0,0,0,0,-1,1602,1247,0,0
385,-223,0,0,0,0,0,0,0,0,0,-1,1609,1247,0,0
392,-223,0,0,0,0,0,0,0,0,0,-1,1616,1247,0,0
399,-223,0,0,0,0,0,0,0,0,0,-1,1623,1247,0,0
406,-223,0,0,0,0,0,0,0,0,0,-1,1630,1247,0,0
413,-223,0,0,0,0,0,0,0,0,0,-1,1637,1247,0,0
420,-223,0,0,0,0,0,0,0,0,0,-1,1644,1247,0,0
427,-223,0,0,0,0,0,0,0,0,0,-1,1651,1247,0,0
434,-223,0,0,0,0,0,0,0,0,0,-1,1658,1247,0,0
441,-223,0,0,0,0,0,0,0,0,0,-1,1665,1247,0,0
448,-223,0,0,0,0,0,0,0,0,0,-1,1672,1247,0,0
455,-223,0,0,0,0,0,0,0,0,0,-1,1679,1247,0,0
462,-223,0,0,0,0,0,0,0,0,0,-1,1686,1247,0,0
469,-223,0,0,0,0,0,0,0,0,0,-1,1693,1247,0,0
476,-223,0,0,0,0,0,0,0,0,0,-1,1700,1247,0,0
483,-223,0,0,0,0,0,0,0,0,0,-1,1707,1247,0,0
490,-223,0,0,0,0,0,0,0,0,0,-1,1714,1247,0,0
497,-223,0,0,0,0,0,0,0,0,0,-1,1721,1247,0,0
504,-223,0,0,0,0,0,0,0,0,0,-1,1728,1247,0,0
511,-223,0,0,0,0,0,0,0,0,0,-1,1735,1247,0,0
518,-223,0,0,0,0,0,0,0,0,0,-1,1742,1247,0,0
525,-223,0,0,0,0,0,0,0,0,0,-1,1749,1247,0,0
532,-223,0,0,0,0,0,0,0,0,0,-1,1756,1247,0,0
539,-223,0,0,0,0,0,0,0,0,0,-1,1763,1247,0,0
546,-223,0,0,0,0,0,0,0,0,0,-1,1770,1247,0,0
553,-223,0,0,0,0,0,0,0,0,0,-1,1777,1247,0,0
560,-223,0,0,0,0,0,0,0,0,0,-1,1784,1247,0,0
567,-223,0,0,0,0,0,0,0,0,0,-1,1791,1247,0,0
574,-223,0,0,0,0,0,0,0,0,0,-1,1798,1247,0,0
581,-223,0,0,0,0,0,0,0,0,0,-1,1805,1247,0,0
588,-223,0,0,0,0,0,0,0,0,0,-1,1812,1247,0,0
595,-223,0,0,0,0,0,0,0,0,0,-1,1819,1247,0,0
602,-223,0,0,0,0,0,0,0,0,0,-1,1826,1247,0,0
609,-223,0,0,0,0,0,0,0,0,0,-1,1833,1247,0,0
616,-223,0,0,0,0,0,0,0,0,0,-1,1840,1247,0,0
623,-223,67.0264,2.20044,-0.00159724,-0.000811175,0.00343273,0.00225095,-0.00465937,0.842398,0.00406964,0.03965,1847,1247,67.0264,-2.20043
630,-223,67.0587,2.27783,-0.00202781,0.00279775,0.00114661,0.00305634,-0.0022864,1.34898,0.00309529,0.0363232,1854,1247,67.0588,-2.27789
637,-223,66.9984,2.37891,-0.00221154,0.00595131,-0.00109943,0.0060968,-0.00235702,-1.43923,0.00503749,0.0299087,1861,1247,66.9984,-2.37888
644,-223,66.9674,2.34155,-0.0018395,0.00733074,-0.00255241,0.00799329,-0.00250206,-1.31682,0.00632992,0.0246451,1868,1247,66.9674,-2.34158
651,-223,66.9296,2.25305,-0.00126998,0.00691296,-0.00296359,0.00787352,-0.00223053,-1.25736,0.00612934,0.0311137,1875,1247,66.9296,-2.25301
658,-223,67.0791,2.30481,0,0,0,0,0,0,0,-1,1882,1247,67.0791,-2.30483
665,-223,66.8979,1.85339,0,0,0,0,0,0,0,-1,1889,1247,66.8979,-1.85335
672,-223,56.4625,2.72424,0,0,0,0,0,0,0,-1,1896,1247,56.4626,-2.72418
679,-223,43.2783,2.46973,0,0,0,0,0,0,0,-1,1903,1247,43.2784,-2.46978
686,-223,40.7926,10.0316,0,0,0,0,0,0,0,-1,1910,1247,40.7926,-10.0316
693,-223,51.6038,11.8651,0,0,0,0,0,0,0,-1,1917,1247,51.6038,-11.8651
700,-223,51.3611,11.3093,0,0,0,0,0,0,0,-1,1924,1247,51.3611,-11.3094
707,-223,51.7333,10.8081,0.000565343,-7.96856e-05,-0.000544925,0.000876042,-0.000390384,-0.518195,0.000748878,0.0459299,1931,1247,51.7333,-10.8082
714,-223,51.6481,10.259,0.000318789,-0.000384437,-7.42606e-05,0.000326546,-0.000392193,-0.10407,0.000415541,0.0161696,1938,1247,51.648,-10.259
721,-223,51.5969,9.65198,3.61648e-05,-0.000869296,0.000610745,0.000343681,-0.00117681,0.466451,0.000920737,0.0140887,1945,1247,51.5969,-9.65202
728,-223,51.569,9.01697,-0.00053891,-0.000674946,0.0014278,0.000822486,-0.00203634,0.761597,0.00169942,0.0179497,1952,1247,51.569,-9.017
735,-223,51.5552,8.42163,-0.00126391,-0.000515634,0.0023214,0.00146158,-0.00324113,0.865296,0.00277916,0.0195559,1959,1247,51.5552,-8.42162
742,-223,51.4846,7.81738,-0.00202775,-0.000432853,0.00334205,0.00220557,-0.00466617,0.902514,0.0040513,0.0179183,1966,1247,51.4846,-7.81744
749,-223,51.4546,7.1228,-0.00301169,-0.000196774,0.0042989,0.0029192,-0.00612767,0.943599,0.00533158,0.0136793,1973,1247,51.4546,-7.12279
756,-223,51.381,6.48157,-0.00400696,6.67326e-05,0.00534465,0.0037495,-0.00768973,0.967452,0.00673377,0.0155202,1980,1247,51.381,-6.48152
763,-223,51.3596,5.96118,-0.00550766,0.000270828,0.00667052,0.00465095,-0.00988778,0.989769,0.00857353,0.0216878,1987,1247,51.3596,-5.96124
770,-223,51.6431,5.41882,0,0,0,0,0,0,0,-1,1994,1247,51.6431,-5.41877
777,-223,50.9795,4.79944,0,0,0,0,0,0,0,-1,2001,1247,50.9795,-4.79943
784,-223,54.1208,-0.293457,0,0,0,0,0,0,0,-1,2008,1247,54.1208,0.293477
791,-223,34.7136,2.92554,0,0,0,0,0,0,0,-1,2015,1247,34.7137,-2.92555
798,-223,0,0,0,0,0,0,0,0,0,-1,2022,1247,0,0
805,-223,0,0,0,0,0,0,0,0,0,-1,2029,1247,0,0
812,-223,0,0,0,0,0,0,0,0,0,-1,2036,1247,0,0
-700,-230,0,0,0,0,0,0,0,0,0,-1,524,1254,0,0
-693,-230,0,0,0,0,0,0,0,0,0,-1,531,1254,0,0
-686,-230,0,0,0,0,0,0,0,0,0,-1,538,1254,0,0
-679,-230,0,0,0,0,0,0,0,0,0,-1,545,1254,0,0
-672,-230,-38.5905,2.07617,0,0,0,0,0,0,0,-1,552,1254,-38.5905,-2.07614
-665,-230,-38.168,-9.9397,0,0,0,0,0,0,0,-1,559,1254,-38.168,9.93971
-658,-230,-38.8468,-8.48303,0,0,0,0,0,0,0,-1,566,1254,-38.8468,8.48304
-651,-230,-39.3627,-7.38525,0,0,0,0,0,0,0,-1,573,1254,-39.3627,7.38529
-644,-230,-48.2715,0.872925,0,0,0,0,0,0,0,-1,580,1254,-48.2715,-0.87288
-637,-230,-49.1636,-0.158325,0,0,0,0,0,0,0,-1,587,1254,-49.1636,0.158288
-630,-230,-35.2443,3.76355,0,0,0,0,0,0,0,-1,594,1254,-35.2443,-3.76353
-623,-230,-35.0823,4.55603,-2.82407e-05,0.0059288,0.00378615,0.00776759,-0.00186704,1.11868,0.00590004,0.0392373,601,1254,-35.0823,-4.556
-616,-230,-34.9733,5.22375,-0.000449546,0.00437604,0.00253201,0.00546077,-0.00153428,1.16604,0.00424538,0.0173286,608,1254,-34.9733,-5.22372
-609,-230,-35.0103,5.90149,-0.000616752,0.00291926,0.00136883,0.00338722,-0.00108471,1.24138,0.00269353,0.0119775,615,1254,-35.0102,-5.9015
-602,-230,-35.0519,6.56848,-0.00054451,0.00148706,0.000301645,0.0015309,-0.000588352,1.42646,0.00126324,0.0120739,622,1254,-35.0519,-6.56849
-595,-230,-35.1071,7.30554,-0.000448111,3.94123e-05,-0.000672436,0.000510906,-0.000919605,-0.959284,0.000837066,0.0187684,629,1254,-35.1071,-7.3055
-588,-230,-35.1422,8.07251,-0.000803975,-0.000577471,-0.00145805,0.000771724,-0.00215317,-0.824157,0.00175035,0.0265242,636,1254,-35.1422,-8.07248
-581,-230,-35.2056,8.82251,-0.00133388,-0.000490655,-0.00228481,0.00141111,-0.00323565,-0.876636,0.00275088,0.0292754,643,1254,-35.2056,-8.82248
-574,-230,-35.1815,9.36792,-0.00144744,0.00020537,-0.00294567,0.00243836,-0.00368044,-0.922157,0.00355687,0.0364053,650,1254,-35.1815,-9.36787
-567,-230,-35.2329,9.84961,-0.00152522,0.0018727,-0.00315378,0.00375602,-0.00340855,-1.03246,0.00413809,0.0469096,657,1254,-35.2329,-9.84956
-560,-230,-35.5689,10.23,0,0,0,0,0,0,0,-1,664,1254,-35.5689,-10.23
-553,-230,-13.1939,4.9718,0,0,0,0,0,0,0,-1,671,1254,-13.1939,-4.97175
-546,-230,-15.23,0.453979,0,0,0,0,0,0,0,-1,678,1254,-15.23,-0.453996
-539,-230,-25.8232,0.512817,0,0,0,0,0,0,0,-1,685,1254,-25.8232,-0.512878
-532,-230,-21.1644,1.52966,0,0,0,0,0,0,0,-1,692,1254,-21.1644,-1.52969
-525,-230,-29.4775,0.731445,0,0,0,0,0,0,0,-1,699,1254,-29.4775,-0.731432
-518,-230,-50.1594,0.622925,0,0,0,0,0,0,0,-1,706,1254,-50.1594,-0.622948
-511,-230,-51.3666,0.584229,0,0,0,0,0,0,0,-1,713,1254,-51.3666,-0.584191
-504,-230,-51.4562,0.720093,0,0,0,0,0,0,0,-1,720,1254,-51.4562,-0.720105
-497,-230,0,0,0,0,0,0,0,0,0,-1,727,1254,0,0
-490,-230,0,0,0,0,0,0,0,0,0,-1,734,1254,0,0
-483,-230,0,0,0,0,0,0,0,0,0,-1,741,1254,0,0
-476,-230,0,0,0,0,0,0,0,0,0,-1,748,1254,0,0
-469,-230,0,0,0,0,0,0,0,0,0,-1,755,1254,0,0
-462,-230,0,0,0,0,0,0,0,0,0,-1,762,1254,0,0
-455,-230,0,0,0,0,0,0,0,0,0,-1,769,1254,0,0
-448,-230,0,0,0,0,0,0,0,0,0,-1,776,1254,0,0
-441,-230,0,0,0,0,0,0,0,0,0,-1,783,1254,0,0
-434,-230,0,0,0,0,0,0,0,0,0,-1,790,1254,0,0
-427,-230,0,0,0,0,0,0,0,0,0,-1,797,1254,0,0
-420,-230,0,0,0,0,0,0,0,0,0,-1,804,1254,0,0
-413,-230,0,0,0,0,0,0,0,0,0,-1,811,1254,0,0
-406,-230,0,0,0,0,0,0,0,0,0,-1,818,1254,0,0
-399,-230,0,0,0,0,0,0,0,0,0,-1,825,1254,0,0
-392,-230,0,0,0,0,0,0,0,0,0,-1,832,1254,0,0
-385,-230,0,0,0,0,0,0,0,0,0,-1,839,1254,0,0
-378,-230,0,0,0,0,0,0,0,0,0,-1,846,1254,0,0
-371,-230,0,0,0,0,0,0,0,0,0,-1,853,1254,0,0
-364,-230,0,0,0,0,0,0,0,0,0,-1,860,1254,0,0
-357,-230,0,0,0,0,0,0,0,0,0,-1,867,1254,0,0
-350,-230,0,0,0,0,0,0,0,0,0,-1,874,1254,0,0
-343,-230,0,0,0,0,0,0,0,0,0,-1,881,1254,0,0
-336,-230,0,0,0,0,0,0,0,0,0,-1,888,1254,0,0
-329,-230,0,0,0,0,0,0,0,0,0,-1,895,1254,0,0
-322,-230,0,0,0,0,0,0,0,0,0,-1,902,1254,0,0
-315,-230,0,0,0,0,0,0,0,0,0,-1,909,1254,0,0
-308,-230,0,0,0,0,0,0,0,0,0,-1,916,1254,0,0
-301,-230,0,0,0,0,0,0,0,0,0,-1,923,1254,0,0
-294,-230,0,0,0,0,0,0,0,0,0,-1,930,1254,0,0
-287,-230,0,0,0,0,0,0,0,0,0,-1,937,1254,0,0
-280,-230,0,0,0,0,0,0,0,0,0,-1,944,1254,0,0
-273,-230,0,0,0,0,0,0,0,0,0,-1,951,1254,0,0
-266,-230,0,0,0,0,0,0,0,0,0,-1,958,1254,0,0
-259,-230,0,0,0,0,0,0,0,0,0,-1,965,1254,0,0
-252,-230,0,0,0,0,0,0,0,0,0,-1,972,1254,0,0
-245,-230,0,0,0,0,0,0,0,0,0,-1,979,1254,0,0
-238,-230,0,0,0,0,0,0,0,0,0,-1,986,1254,0,0
-231,-230,0,0,0,0,0,0,0,0,0,-1,993,1254,0,0
-224,-230,0,0,0,0,0,0,0,0,0,-1,1000,1254,0,0
-217,-230,0,0,0,0,0,0,0,0,0,-1,1007,1254,0,0
-210,-230,0,0,0,0,0,0,0,0,0,-1,1014,1254,0,0
-203,-230,0,0,0,0,0,0,0,0,0,-1,1021,1254,0,0
-196,-230,0,0,0,0,0,0,0,0,0,-1,1028,1254,0,0
-189,-230,0,0,0,0,0,0,0,0,0,-1,1035,1254,0,0
-182,-230,0,0,0,0,0,0,0,0,0,-1,1042,1254,0,0
-175,-230,0,0,0,0,0,0,0,0,0,-1,1049,1254,0,0
-168,-230,0,0,0,0,0,0,0,0,0,-1,1056,1254,0,0
-161,-230,0,0,0,0,0,0,0,0,0,-1,1063,1254,0,0
-154,-230,0,0,0,0,0,0,0,0,0,-1,1070,1254,0,0
-147,-230,0,0,0,0,0,0,0,0,0,-1,1077,1254,0,0
-140,-230,0,0,0,0,0,0,0,0,0,-1,1084,1254,0,0
-133,-230,0,0,0,0,0,0,0,0,0,-1,1091,1254,0,0
-126,-230,0,0,0,0,0,0,0,0,0,-1,1098,1254,0,0
-119,-230,0,0,0,0,0,0,0,0,0,-1,1105,1254,0,0
-112,-230,0,0,0,0,0,0,0,0,0,-1,1112,1254,0,0
-105,-230,0,0,0,0,0,0,0,0,0,-1,1119,1254,0,0
-98,-230,0,0,0,0,0,0,0,0,0,-1,1126,1254,0,0
-91,-230,0,0,0,0,0,0,0,0,0,-1,1133,1254,0,0
-84,-230,0,0,0,0,0,0,0,0,0,-1,1140,1254,0,0
-77,-230,0,0,0,0,0,0,0,0,0,-1,1147,1254,0,0
-70,-230,0,0,0,0,0,0,0,0,0,-1,1154,1254,0,0
-63,-230,0,0,0,0,0,0,0,0,0,-1,1161,1254,0,0
-56,-230,0,0,0,0,0,0,0,0,0,-1,1168,1254,0,0
-49,-230,0,0,0,0,0,0,0,0,0,-1,1175,1254,0,0
-42,-230,0,0,0,0,0,0,0,0,0,-1,1182,1254,0,0
-35,-230,0,0,0,0,0,0,0,0,0,-1,1189,1254,0,0
-28,-230,0,0,0,0,0,0,0,0,0,-1,1196,1254,0,0
-21,-230,0,0,0,0,0,0,0,0,0,-1,1203,1254,0,0
-14,-230,0,0,0,0,0,0,0,0,0,-1,1210,1254,0,0
-7,-230,0,0,0,0,0,0,0,0,0,-1,1217,1254,0,0
0,-230,0,0,0,0,0,0,0,0,0,-1,1224,1254,0,0
7,-230,0,0,0,0,0,0,0,0,0,-1,1231,1254,0,0
14,-230,0,0,0,0,0,0,0,0,0,-1,1238,1254,0,0
21,-230,0,0,0,0,0,0,0,0,0,-1,1245,1254,0,0
28,-230,0,0,0,0,0,0,0,0,0,-1,1252,1254,0,0
35,-230,0,0,0,0,0,0,0,0,0,-1,1259,1254,0,0
42,-230,0,0,0,0,0,0,0,0,0,-1,1266,1254,0,0
49,-230,0,0,0,0,0,0,0,0,0,-1,1273,1254,0,0
56,-230,0,0,0,0,0,0,0,0,0,-1,1280,1254,0,0
63,-230,0,0,0,0,0,0,0,0,0,-1,1287,1254,0,0
70,-230,0,0,0,0,0,0,0,0,0,-1,1294,1254,0,0
77,-230,0,0,0,0,0,0,0,0,0,-1,1301,1254,0,0
84,-230,0,0,0,0,0,0,0,0,0,-1,1308,1254,0,0
91,-230,0,0,0,0,0,0,0,0,0,-1,1315,1254,0,0
98,-230,0,0,0,0,0,0,0,0,0,-1,1322,1254,0,0
105,-230,0,0,0,0,0,0,0,0,0,-1,1329,1254,0,0
112,-230,0,0,0,0,0,0,0,0,0,-1,1336,1254,0,0
119,-230,0,0,0,0,0,0,0,0,0,-1,1343,1254,0,0
126,-230,0,0,0,0,0,0,0,0,0,-1,1350,1254,0,0
133,-230,0,0,0,0,0,0,0,0,0,-1,1357,1254,0,0
140,-230,0,0,0,0,0,0,0,0,0,-1,1364,1254,0,0
147,-230,0,0,0,0,0,0,0,0,0,-1,1371,1254,0,0
154,-230,0,0,0,0,0,0,0,0,0,-1,1378,1254,0,0
161,-230,0,0,0,0,0,0,0,0,0,-1,1385,1254,0,0
168,-230,0,0,0,0,0,0,0,0,0,-1,1392,1254,0,0
175,-230,0,0,0,0,0,0,0,0,0,-1,1399,1254,0,0
182,-230,0,0,0,0,0,0,0,0,0,-1,1406,1254,0,0
189,-230,0,0,0,0,0,0,0,0,0,-1,1413,1254,0,0
196,-230,0,0,0,0,0,0,0,0,0,-1,1420,1254,0,0
203,-230,0,0,0,0,0,0,0,0,0,-1,1427,1254,0,0
210,-230,0,0,0,0,0,0,0,0,0,-1,1434,1254,0,0
217,-230,0,0,0,0,0,0,0,0,0,-1,1441,1254,0,0
224,-230,0,0,0,0,0,0,0,0,0,-1,1448,1254,0,0
231,-230,0,0,0,0,0,0,0,0,0,-1,1455,1254,0,0
238,-230,0,0,0,0,0,0,0,0,0,-1,1462,1254,0,0
245,-230,0,0,0,0,0,0,0,0,0,-1,1469,1254,0,0
252,-230,0,0,0,0,0,0,0,0,0,-1,1476,1254,0,0
259,-230,0,0,0,0,0,0,0,0,0,-1,1483,1254,0,0
266,-230,0,0,0,0,0,0,0,0,0,-1,1490,1254,0,0
273,-230,0,0,0,0,0,0,0,0,0,-1,1497,1254,0,0
280,-230,0,0,0,0,0,0,0,0,0,-1,1504,1254,0,0
287,-230,0,0,0,0,0,0,0,0,0,-1,1511,1254,0,0
294,-230,0,0,0,0,0,0,0,0,0,-1,1518,1254,0,0
301,-230,0,0,0,0,0,0,0,0,0,-1,1525,1254,0,0
308,-230,0,0,0,0,0,0,0,0,0,-1,1532,1254,0,0
315,-230,0,0,0,0,0,0,0,0,0,-1,1539,1254,0,0
322,-230,0,0,0,0,0,0,0,0,0,-1,1546,1254,0,0
329,-230,0,0,0,0,0,0,0,0,0,-1,1553,1254,0,0
336,-230,0,0,0,0,0,0,0,0,0,-1,1560,1254,0,0
343,-230,0,0,0,0,0,0,0,0,0,-1,1567,1254,0,0
350,-230,0,0,0,0,0,0,0,0,0,-1,1574,1254,0,0
357,-230,0,0,0,0,0,0,0,0,0,-1,1581,1254,0,0
364,-230,0,0,0,0,0,0,0,0,0,-1,1588,1254,0,0
371,-230,0,0,0,0,0,0,0,0,0,-1,1595,1254,0,0
378,-230,0,0,0,0,0,0,0,0,0,-1,1602,1254,0,0
385,-230,0,0,0,0,0,0,0,0,0,-1,1609,1254,0,0
392,-230,0,0,0,0,0,0,0,0,0,-1,1616,1254,0,0
399,-230,0,0,0,0,0,0,0,0,0,-1,1623,1254,0,0
406,-230,0,0,0,0,0,0,0,0,0,-1,1630,1254,0,0
413,-230,0,0,0,0,0,0,0,0,0,-1,1637,1254,0,0
420,-230,0,0,0,0,0,0,0,0,0,-1,1644,1254,0,0
427,-230,0,0,0,0,0,0,0,0,0,-1,1651,1254,0,0
434,-230,0,0,0,0,0,0,0,0,0,-1,1658,1254,0,0
441,-230,0,0,0,0,0,0,0,0,0,-1,1665,1254,0,0
448,-230,0,0,0,0,0,0,0,0,0,-1,1672,1254,0,0
455,-230,0,0,0,0,0,0,0,0,0,-1,1679,1254,0,0
462,-230,0,0,0,0,0,0,0,0,0,-1,1686,1254,0,0
469,-230,0,0,0,0,0,0,0,0,0,-1,1693,1254,0,0
476,-230,0,0,0,0,0,0,0,0,0,-1,1700,1254,0,0
483,-230,0,0,0,0,0,0,0,0,0,-1,1707,1254,0,0
490,-230,0,0,0,0,0,0,0,0,0,-1,1714,1254,0,0
497,-230,0,0,0,0,0,0,0,0,0,-1,1721,1254,0,0
504,-230,0,0,0,0,0,0,0,0,0,-1,1728,1254,0,0
511,-230,0,0,0,0,0,0,0,0,0,-1,1735,1254,0,0
518,-230,0,0,0,0,0,0,0,0,0,-1,1742,1254,0,0
525,-230,0,0,0,0,0,0,0,0,0,-1,1749,1254,0,0
532,-230,0,0,0,0,0,0,0,0,0,-1,1756,1254,0,0
539,-230,0,0,0,0,0,0,0,0,0,-1,1763,1254,0,0
546,-230,0,0,0,0,0,0,0,0,0,-1,1770,1254,0,0
553,-230,0,0,0,0,0,0,0,0,0,-1,1777,1254,0,0
560,-230,0,0,0,0,0,0,0,0,0,-1,1784,1254,0,0
567,-230,0,0,0,0,0,0,0,0,0,-1,1791,1254,0,0
574,-230,0,0,0,0,0,0,0,0,0,-1,1798,1254,0,0
581,-230,0,0,0,0,0,0,0,0,0,-1,1805,1254,0,0
588,-230,0,0,0,0,0,0,0,0,0,-1,1812,1254,0,0
595,-230,0,0,0,0,0,0,0,0,0,-1,1819,1254,0,0
602,-230,0,0,0,0,0,0,0,0,0,-1,1826,1254,0,0
609,-230,0,0,0,0,0,0,0,0,0,-1,1833,1254,0,0
616,-230,67.0833,2.25134,-0.00164171,-0.00432197,0.00513799,0.00232805,-0.00829172,0.657826,0.00644553,0.0369354,1840,1254,67.0833,-2.25129
623,-230,67.0886,2.27649,-0.00232926,0.000792275,0.00250323,0.00218145,-0.00371843,1.06416,0.00344461,0.0373706,1847,1254,67.0887,-2.27654
630,-230,67.0076,2.36096,-0.00274651,0.00524838,-0.000173719,0.00525215,-0.00275028,-1.54908,0.00469487,0.0315323,1854,1254,67.0076,-2.36094
637,-230,66.9506,2.34863,-0.0027814,0.0087017,-0.00253116,0.00923487,-0.00331458,-1.36319,0.00750937,0.0263189,1861,1254,66.9506,-2.34861
644,-230,66.9098,2.25952,-0.00211637,0.00927334,-0.003497,0.0102613,-0.00310436,-1.29545,0.00807704,0.0227585,1868,1254,66.9098,-2.25956
651,-230,66.9177,2.20398,-0.0014318,0.00815716,-0.00344222,0.00926488,-0.00253951,-1.25946,0.0071745,0.04883,1875,1254,66.9178,-2.20404
658,-230,66.9551,2.18091,0,0,0,0,0,0,0,-1,1882,1254,66.955,-2.18085
665,-230,56.2585,2.51587,0,0,0,0,0,0,0,-1,1889,1254,56.2586,-2.51586
672,-230,43.0962,2.78699,0,0,0,0,0,0,0,-1,1896,1254,43.0962,-2.78698
679,-230,27.9967,2.37708,0,0,0,0,0,0,0,-1,1903,1254,27.9967,-2.3771
686,-230,40.8854,10.1788,0,0,0,0,0,0,0,-1,1910,1254,40.8853,-10.1788
693,-230,50.7637,12.0411,0,0,0,0,0,0,0,-1,1917,1254,50.7636,-12.0412
700,-230,50.8154,11.6178,0,0,0,0,0,0,0,-1,1924,1254,50.8155,-11.6177
707,-230,51.041,10.928,0.000654342,-0.000161779,-0.000440777,0.000846946,-0.000354383,-0.411961,0.000712756,0.0276111,1931,1254,51.041,-10.928
714,-230,50.973,10.3101,0.000217103,-0.000477736,0.000160178,0.00025225,-0.000512884,0.216003,0.000450212,0.0138538,1938,1254,50.973,-10.31
721,-230,50.9519,9.67712,-0.000322539,-0.000882282,0.000926385,0.000365327,-0.00157015,0.638702,0.00118742,0.0125297,1945,1254,50.952,-9.67707
728,-230,50.8845,9.06885,-0.00111418,-0.000713981,0.00179395,0.000890998,-0.00271916,0.840939,0.00217158,0.014307,1952,1254,50.8845,-9.06882
735,-230,50.8651,8.46045,-0.00198022,-0.00058783,0.00272467,0.00152818,-0.00409624,0.91048,0.00335819,0.0156931,1959,1254,50.8651,-8.4604
742,-230,50.8262,7.79907,-0.0028574,-0.000519039,0.00376772,0.00225674,-0.00563318,0.935845,0.00469223,0.0114904,1966,1254,50.8262,-7.79902
749,-230,50.7976,7.12842,-0.00368474,-0.000501287,0.00493377,0.00309116,-0.00727719,0.941436,0.00614664,0.0105868,1973,1254,50.7976,-7.12841
756,-230,50.7522,6.51257,-0.00449513,-0.00047757,0.00623985,0.00406887,-0.00904157,0.941123,0.00774868,0.0163198,1980,1254,50.7522,-6.51261
763,-230,50.7592,5.88074,-0.00547876,-0.000812614,0.00812891,0.00531141,-0.0116028,0.925146,0.00998805,0.0373125,1987,1254,50.7591,-5.88076
770,-230,51.1154,5.23303,0,0,0,0,0,0,0,-1,1994,1254,51.1154,-5.23301
777,-230,41.8693,3.74707,0,0,0,0,0,0,0,-1,2001,1254,41.8692,-3.74713
784,-230,35.8896,1.80334,0,0,0,0,0,0,0,-1,2008,1254,35.8897,-1.80338
791,-230,35.6028,2.20642,0,0,0,0,0,0,0,-1,2015,1254,35.6027,-2.2064
798,-230,0,0,0,0,0,0,0,0,0,-1,2022,1254,0,0
805,-230,0,0,0,0,0,0,0,0,0,-1,2029,1254,0,0
812,-230,0,0,0,0,0,0,0,0,0,-1,2036,1254,0,0
-700,-237,0,0,0,0,0,0,0,0,0,-1,524,1261,0,0
-693,-237,0,0,0,0,0,0,0,0,0,-1,531,1261,0,0
-686,-237,0,0,0,0,0,0,0,0,0,-1,538,1261,0,0
-679,-237,0,0,0,0,0,0,0,0,0,-1,545,1261,0,0
-672,-237,-36.6405,-12.5112,0,0,0,0,0,0,0,-1,552,1261,-36.6405,12.5113
-665,-237,-37.1436,-10.5648,0,0,0,0,0,0,0,-1,559,1261,-37.1436,10.5649
-658,-237,-37.8344,-8.67175,0,0,0,0,0,0,0,-1,566,1261,-37.8344,8.67179
-651,-237,-46.9487,1.65137,0,0,0,0,0,0,0,-1,573,1261,-46.9487,-1.65142
-644,-237,-47.6604,0.785034,0,0,0,0,0,0,0,-1,580,1261,-47.6604,-0.785034
-637,-237,-33.4961,2.71313,0,0,0,0,0,0,0,-1,587,1261,-33.4961,-2.71312
-630,-237,-34.0616,3.7832,0,0,0,0,0,0,0,-1,594,1261,-34.0616,-3.78319
-623,-237,-34.1138,4.47449,-0.000620688,0.0067708,0.0055199,0.00971793,-0.00356782,1.08039,0.00793975,0.0342638,601,1261,-34.1138,-4.4745
-616,-237,-34.2047,5.20642,-0.000839291,0.00513871,0.00392598,0.00708402,-0.0027846,1.11076,0.00587513,0.0152207,608,1261,-34.2047,-5.20638
-609,-237,-34.2957,5.90405,-0.000892439,0.00363506,0.00249308,0.0047388,-0.00199618,1.15401,0.00399447,0.0168616,615,1261,-34.2957,-5.90406
-602,-237,-34.3483,6.60022,-0.000708416,0.00213792,0.00123187,0.00259701,-0.00116751,1.21406,0.00222507,0.0126757,622,1261,-34.3482,-6.60019
-595,-237,-34.4312,7.33496,-0.000474492,0.000640279,4.67226e-05,0.000642234,-0.000476447,1.52898,0.000648231,0.0159213,629,1261,-34.4312,-7.33493
-588,-237,-34.4613,8.05969,-0.000446738,-0.000309558,-0.000969075,0.000593351,-0.00134965,-0.820729,0.00114977,0.0271432,636,1261,-34.4613,-8.05971
-581,-237,-34.503,8.71997,-0.00063725,-0.000737055,-0.00197944,0.00129291,-0.00266722,-0.772795,0.00233183,0.0245307,643,1261,-34.503,-8.71994
-574,-237,-34.4185,9.32996,-0.00074757,-0.000592945,-0.00279279,0.0021236,-0.00346411,-0.799236,0.00325686,0.0275882,650,1261,-34.4185,-9.32992
-567,-237,-34.5087,10.0177,-0.00100715,0.000802594,-0.00312825,0.00315422,-0.00335877,-0.926184,0.00376089,0.0429925,657,1261,-34.5087,-10.0177
-560,-237,-34.5629,10.3417,0,0,0,0,0,0,0,-1,664,1261,-34.5629,-10.3417
-553,-237,-20.6102,6.92139,0,0,0,0,0,0,0,-1,671,1261,-20.6102,-6.92138
-546,-237,-11.192,1.14014,0,0,0,0,0,0,0,-1,678,1261,-11.192,-1.14011
-539,-237,-16.512,1.53455,0,0,0,0,0,0,0,-1,685,1261,-16.512,-1.53457
-532,-237,-29.7025,1.23621,0,0,0,0,0,0,0,-1,692,1261,-29.7025,-1.23618
-525,-237,-47.2925,0.590942,0,0,0,0,0,0,0,-1,699,1261,-47.2925,-0.590989
-518,-237,-48.2897,0.765869,0,0,0,0,0,0,0,-1,706,1261,-48.2897,-0.765854
-511,-237,-51.3691,0.662842,0,0,0,0,0,0,0,-1,713,1261,-51.3692,-0.662845
-504,-237,-51.3792,0.638916,0,0,0,0,0,0,0,-1,720,1261,-51.3792,-0.638917
-497,-237,-51.3764,0.619019,0,0,0,0,0,0,0,-1,727,1261,-51.3764,-0.61899
-490,-237,0,0,0,0,0,0,0,0,0,-1,734,1261,0,0
-483,-237,0,0,0,0,0,0,0,0,0,-1,741,1261,0,0
-476,-237,0,0,0,0,0,0,0,0,0,-1,748,1261,0,0
-469,-237,0,0,0,0,0,0,0,0,0,-1,755,1261,0,0
-462,-237,0,0,0,0,0,0,0,0,0,-1,762,1261,0,0
-455,-237,0,0,0,0,0,0,0,0,0,-1,769,1261,0,0
-448,-237,0,0,0,0,0,0,0,0,0,-1,776,1261,0,0
-441,-237,0,0,0,0,0,0,0,0,0,-1,783,1261,0,0
-434,-237,0,0,0,0,0,0,0,0,0,-1,790,1261,0,0
-427,-237,0,0,0,0,0,0,0,0,0,-1,797,1261,0,0
-420,-237,0,0,0,0,0,0,0,0,0,-1,804,1261,0,0
-413,-237,0,0,0,0,0,0,0,0,0,-1,811,1261,0,0
-406,-237,0,0,0,0,0,0,0,0,0,-1,818,1261,0,0
-399,-237,0,0,0,0,0,0,0,0,0,-1,825,1261,0,0
-392,-237,0,0,0,0,0,0,0,0,0,-1,832,1261,0,0
-385,-237,0,0,0,0,0,0,0,0,0,-1,839,1261,0,0
-378,-237,0,0,0,0,0,0,0,0,0,-1,846,1261,0,0
-371,-237,0,0,0,0,0,0,0,0,0,-1,853,1261,0,0
-364,-237,0,0,0,0,0,0,0,0,0,-1,860,1261,0,0
-357,-237,0,0,0,0,0,0,0,0,0,-1,867,1261,0,0
-350,-237,0,0,0,0,0,0,0,0,0,-1,874,1261,0,0
-343,-237,0,0,0,0,0,0,0,0,0,-1,881,1261,0,0
-336,-237,0,0,0,0,0,0,0,0,0,-1,888,1261,0,0
-329,-237,0,0,0,0,0,0,0,0,0,-1,895,1261,0,0
-322,-237,0,0,0,0,0,0,0,0,0,-1,902,1261,0,0
-315,-237,0,0,0,0,0,0,0,0,0,-1,909,1261,0,0
-308,-237,0,0,0,0,0,0,0,0,0,-1,916,1261,0,0
-301,-237,0,0,0,0,0,0,0,0,0,-1,923,1261,0,0
-294,-237,0,0,0,0,0,0,0,0,0,-1,930,1261,0,0
-287,-237,0,0,0,0,0,0,0,0,0,-1,937,1261,0,0
-280,-237,0,0,0,0,0,0,0,0,0,-1,944,1261,0,0
-273,-237,0,0,0,0,0,0,0,0,0,-1,951,1261,0,0
-266,-237,0,0,0,0,0,0,0,0,0,-1,958,1261,0,0
-259,-237,0,0,0,0,0,0,0,0,0,-1,965,1261,0,0
-252,-237,0,0,0,0,0,0,0,0,0,-1,972,1261,0,0
-245,-237,0,0,0,0,0,0,0,0,0,-1,979,1261,0,0
-238,-237,0,0,0,0,0,0,0,0,0,-1,986,1261,0,0
-231,-237,0,0,0,0,0,0,0,0,0,-1,993,1261,0,0
-224,-237,0,0,0,0,0,0,0,0,0,-1,1000,1261,0,0
-217,-237,0,0,0,0,0,0,0,0,0,-1,1007,1261,0,0
-210,-237,0,0,0,0,0,0,0,0,0,-1,1014,1261,0,0
-203,-237,0,0,0,0,0,0,0,0,0,-1,1021,1261,0,0
-196,-237,0,0,0,0,0,0,0,0,0,-1,1028,1261,0,0
-189,-237,0,0,0,0,0,0,0,0,0,-1,1035,1261,0,0
-182,-237,0,0,0,0,0,0,0,0,0,-1,1042,1261,0,0
-175,-237,0,0,0,0,0,0,0,0,0,-1,1049,1261,0,0
-168,-237,0,0,0,0,0,0,0,0,0,-1,1056,1261,0,0
-161,-237,0,0,0,0,0,0,0,0,0,-1,1063,1261,0,0
-154,-237,0,0,0,0,0,0,0,0,0,-1,1070,1261,0,0
-147,-237,0,0,0,0,0,0,0,0,0,-1,1077,1261,0,0
-140,-237,0,0,0,0,0,0,0,0,0,-1,1084,1261,0,0
-133,-237,0,0,0,0,0,0,0,0,0,-1,1091,1261,0,0
-126,-237,0,0,0,0,0,0,0,0,0,-1,1098,1261,0,0
-119,-237,0,0,0,0,0,0,0,0,0,-1,1105,1261,0,0
-112,-237,0,0,0,0,0,0,0,0,0,-1,1112,1261,0,0
-105,-237,0,0,0,0,0,0,0,0,0,-1,1119,1261,0,0
-98,-237,0,0,0,0,0,0,0,0,0,-1,1126,1261,0,0
-91,-237,0,0,0,0,0,0,0,0,0,-1,1133,1261,0,0
-84,-237,0,0,0,0,0,0,0,0,0,-1,1140,1261,0,0
-77,-237,0,0,0,0,0,0,0,0,0,-1,1147,1261,0,0
-70,-237,0,0,0,0,0,0,0,0,0,-1,1154,1261,0,0
-63,-237,0,0,0,0,0,0,0,0,0,-1,1161,1261,0,0
-56,-237,0,0,0,0,0,0,0,0,0,-1,1168,1261,0,0
-49,-237,0,0,0,0,0,0,0,0,0,-1,1175,1261,0,0
-42,-237,0,0,0,0,0,0,0,0,0,-1,1182,1261,0,0
-35,-237,0,0,0,0,0,0,0,0,0,-1,1189,1261,0,0
-28,-237,0,0,0,0,0,0,0,0,0,-1,1196,1261,0,0
-21,-237,0,0,0,0,0,0,0,0,0,-1,1203,1261,0,0
-14,-237,0,0,0,0,0,0,0,0,0,-1,1210,1261,0,0
-7,-237,0,0,0,0,0,0,0,0,0,-1,1217,1261,0,0
0,-237,0,0,0,0,0,0,0,0,0,-1,1224,1261,0,0
7,-237,0,0,0,0,0,0,0,0,0,-1,1231,1261,0,0
14,-237,0,0,0,0,0,0,0,0,0,-1,1238,1261,0,0
21,-237,0,0,0,0,0,0,0,0,0,-1,1245,1261,0,0
28,-237,0,0,0,0,0,0,0,0,0,-1,1252,1261,0,0
35,-237,0,0,0,0,0,0,0,0,0,-1,1259,1261,0,0
42,-237,0,0,0,0,0,0,0,0,0,-1,1266,1261,0,0
49,-237,0,0,0,0,0,0,0,0,0,-1,1273,1261,0,0
56,-237,0,0,0,0,0,0,0,0,0,-1,1280,1261,0,0
63,-237,0,0,0,0,0,0,0,0,0,-1,1287,1261,0,0
70,-237,0,0,0,0,0,0,0,0,0,-1,1294,1261,0,0
77,-237,0,0,0,0,0,0,0,0,0,-1,1301,1261,0,0
84,-237,0,0,0,0,0,0,0,0,0,-1,1308,1261,0,0
91,-237,0,0,0,0,0,0,0,0,0,-1,1315,1261,0,0
98,-237,0,0,0,0,0,0,0,0,0,-1,1322,1261,0,0
105,-237,0,0,0,0,0,0,0,0,0,-1,1329,1261,0,0
112,-237,0,0,0,0,0,0,0,0,0,-1,1336,1261,0,0
119,-237,0,0,0,0,0,0,0,0,0,-1,1343,1261,0,0
126,-237,0,0,0,0,0,0,0,0,0,-1,1350,1261,0,0
133,-237,0,0,0,0,0,0,0,0,0,-1,1357,1261,0,0
140,-237,0,0,0,0,0,0,0,0,0,-1,1364,1261,0,0
147,-237,0,0,0,0,0,0,0,0,0,-1,1371,1261,0,0
154,-237,0,0,0,0,0,0,0,0,0,-1,1378,1261,0,0
161,-237,0,0,0,0,0,0,0,0,0,-1,1385,1261,0,0
168,-237,0,0,0,0,0,0,0,0,0,-1,1392,1261,0,0
175,-237,0,0,0,0,0,0,0,0,0,-1,1399,1261,0,0
182,-237,0,0,0,0,0,0,0,0,0,-1,1406,1261,0,0
189,-237,0,0,0,0,0,0,0,0,0,-1,1413,1261,0,0
196,-237,0,0,0,0,0,0,0,0,0,-1,1420,1261,0,0
203,-237,0,0,0,0,0,0,0,0,0,-1,1427,1261,0,0
210,-237,0,0,0,0,0,0,0,0,0,-1,1434,1261,0,0
217,-237,0,0,0,0,0,0,0,0,0,-1,1441,1261,0,0
224,-237,0,0,0,0,0,0,0,0,0,-1,1448,1261,0,0
231,-237,0,0,0,0,0,0,0,0,0,-1,1455,1261,0,0
238,-237,0,0,0,0,0,0,0,0,0,-1,1462,1261,0,0
245,-237,0,0,0,0,0,0,0,0,0,-1,1469,1261,0,0
252,-237,0,0,0,0,0,0,0,0,0,-1,1476,1261,0,0
259,-237,0,0,0,0,0,0,0,0,0,-1,1483,1261,0,0
266,-237,0,0,0,0,0,0,0,0,0,-1,1490,1261,0,0
273,-237,0,0,0,0,0,0,0,0,0,-1,1497,1261,0,0
280,-237,0,0,0,0,0,0,0,0,0,-1,1504,1261,0,0
287,-237,0,0,0,0,0,0,0,0,0,-1,1511,1261,0,0
294,-237,0,0,0,0,0,0,0,0,0,-1,1518,1261,0,0
301,-237,0,0,0,0,0,0,0,0,0,-1,1525,1261,0,0
308,-237,0,0,0,0,0,0,0,0,0,-1,1532,1261,0,0
315,-237,0,0,0,0,0,0,0,0,0,-1,1539,1261,0,0
322,-237,0,0,0,0,0,0,0,0,0,-1,1546,1261,0,0
329,-237,0,0,0,0,0,0,0,0,0,-1,1553,1261,0,0
336,-237,0,0,0,0,0,0,0,0,0,-1,1560,1261,0,0
343,-237,0,0,0,0,0,0,0,0,0,-1,1567,1261,0,0
350,-237,0,0,0,0,0,0,0,0,0,-1,1574,1261,0,0
357,-237,0,0,0,0,0,0,0,0,0,-1,1581,1261,0,0
364,-237,0,0,0,0,0,0,0,0,0,-1,1588,1261,0,0
371,-237,0,0,0,0,0,0,0,0,0,-1,1595,1261,0,0
378,-237,0,0,0,0,0,0,0,0,0,-1,1602,1261,0,0
385,-237,0,0,0,0,0,0,0,0,0,-1,1609,1261,0,0
392,-237,0,0,0,0,0,0,0,0,0,-1,1616,1261,0,0
399,-237,0,0,0,0,0,0,0,0,0,-1,1623,1261,0,0
406,-237,0,0,0,0,0,0,0,0,0,-1,1630,1261,0,0
413,-237,0,0,0,0,0,0,0,0,0,-1,1637,1261,0,0
420,-237,0,0,0,0,0,0,0,0,0,-1,1644,1261,0,0
427,-237,0,0,0,0,0,0,0,0,0,-1,1651,1261,0,0
434,-237,0,0,0,0,0,0,0,0,0,-1,1658,1261,0,0
441,-237,0,0,0,0,0,0,0,0,0,-1,1665,1261,0,0
448,-237,0,0,0,0,0,0,0,0,0,-1,1672,1261,0,0
455,-237,0,0,0,0,0,0,0,0,0,-1,1679,1261,0,0
462,-237,0,0,0,0,0,0,0,0,0,-1,1686,1261,0,0
469,-237,0,0,0,0,0,0,0,0,0,-1,1693,1261,0,0
476,-237,0,0,0,0,0,0,0,0,0,-1,1700,1261,0,0
483,-237,0,0,0,0,0,0,0,0,0,-1,1707,1261,0,0
490,-237,0,0,0,0,0,0,0,0,0,-1,1714,1261,0,0
497,-237,0,0,0,0,0,0,0,0,0,-1,1721,1261,0,0
504,-237,0,0,0,0,0,0,0,0,0,-1,1728,1261,0,0
511,-237,0,0,0,0,0,0,0,0,0,-1,1735,1261,0,0
518,-237,0,0,0,0,0,0,0,0,0,-1,1742,1261,0,0
525,-237,0,0,0,0,0,0,0,0,0,-1,1749,1261,0,0
532,-237,0,0,0,0,0,0,0,0,0,-1,1756,1261,0,0
539,-237,0,0,0,0,0,0,0,0,0,-1,1763,1261,0,0
546,-237,0,0,0,0,0,0,0,0,0,-1,1770,1261,0,0
553,-237,0,0,0,0,0,0,0,0,0,-1,1777,1261,0,0
560,-237,0,0,0,0,0,0,0,0,0,-1,1784,1261,0,0
567,-237,0,0,0,0,0,0,0,0,0,-1,1791,1261,0,0
574,-237,0,0,0,0,0,0,0,0,0,-1,1798,1261,0,0
581,-237,0,0,0,0,0,0,0,0,0,-1,1805,1261,0,0
588,-237,0,0,0,0,0,0,0,0,0,-1,1812,1261,0,0
595,-237,0,0,0,0,0,0,0,0,0,-1,1819,1261,0,0
602,-237,0,0,0,0,0,0,0,0,0,-1,1826,1261,0,0
609,-237,0,0,0,0,0,0,0,0,0,-1,1833,1261,0,0
616,-237,67.0927,2.29639,-0.00258226,-0.00322513,0.00448818,0.00159598,-0.00740337,0.74965,0.00554468,0.038302,1840,1261,67.0927,-2.29641
623,-237,67.1348,2.32507,-0.00316737,0.00289027,0.00133304,0.00317064,-0.00344774,1.36349,0.00382224,0.0341646,1847,1261,67.1348,-2.32503
630,-237,67.0143,2.33459,-0.00354937,0.00850901,-0.00188857,0.00879788,-0.00383824,-1.41902,0.00748044,0.0251512,1854,1261,67.0143,-2.33464
637,-237,66.9198,2.29504,-0.00330015,0.0117241,-0.00408767,0.0127642,-0.00434028,-1.32163,0.0102668,0.0200363,1861,1261,66.9198,-2.29506
644,-237,66.874,2.2533,-0.00237561,0.0110157,-0.00433226,0.012295,-0.00365494,-1.28366,0.00964858,0.0422717,1868,1261,66.874,-2.25325
651,-237,66.8193,2.20398,0,0,0,0,0,0,0,-1,1875,1261,66.8194,-2.20395
658,-237,62.9901,2.01404,0,0,0,0,0,0,0,-1,1882,1261,62.9901,-2.01406
665,-237,57.9302,3.30676,0,0,0,0,0,0,0,-1,1889,1261,57.9302,-3.30671
672,-237,45.3922,1.95618,0,0,0,0,0,0,0,-1,1896,1261,45.3922,-1.95623
679,-237,23.1501,7.37488,0,0,0,0,0,0,0,-1,1903,1261,23.1502,-7.37493
686,-237,36.8348,9.99426,0,0,0,0,0,0,0,-1,1910,1261,36.8349,-9.99424
693,-237,50.5327,12.2655,0,0,0,0,0,0,0,-1,1917,1261,50.5328,-12.2655
700,-237,50.4303,11.6541,0.00100972,0.000201495,-0.000759712,0.00146612,-0.000254896,-0.540965,0.00107252,0.02606,1924,1261,50.4303,-11.6541
707,-237,50.3434,11.0179,0.000722518,-0.000288716,-0.000336468,0.000824239,-0.000390437,-0.293583,0.000716046,0.0144961,1931,1261,50.3433,-11.0179
714,-237,50.3154,10.3413,9.32248e-05,-0.000522716,0.000371842,0.000268072,-0.000697563,0.439539,0.000575597,0.0162407,1938,1261,50.3154,-10.3413
721,-237,50.2574,9.72949,-0.000629878,-0.000807058,0.00120049,0.000485286,-0.00192222,0.748568,0.00147019,0.0181146,1945,1261,50.2574,-9.72947
728,-237,50.2461,9.07092,-0.00155516,-0.000653912,0.0020871,0.00103066,-0.00323973,0.891721,0.00257312,0.0152948,1952,1261,50.2461,-9.07094
735,-237,50.2238,8.41089,-0.00253439,-0.000544252,0.00303469,0.00165435,-0.00473299,0.943824,0.00382785,0.0198838,1959,1261,50.2238,-8.41083
742,-237,50.1796,7.82043,-0.00353179,-0.000487126,0.00409179,0.00235634,-0.00637526,0.963487,0.00521615,0.0154739,1966,1261,50.1796,-7.82047
749,-237,50.1215,7.18701,-0.00449565,-0.000476154,0.00526942,0.00315377,-0.00812557,0.967582,0.0067197,0.0105102,1973,1261,50.1215,-7.18702
756,-237,50.0792,6.5437,-0.00548944,-0.000464632,0.0066124,0.00409658,-0.0100507,0.966951,0.00840558,0.0185963,1980,1261,50.0792,-6.54367
763,-237,50.0864,5.88867,0,0,0,0,0,0,0,-1,1987,1261,50.0865,-5.88868
770,-237,49.2683,4.52454,0,0,0,0,0,0,0,-1,1994,1261,49.2683,-4.52457
777,-237,49.6375,3.19006,0,0,0,0,0,0,0,-1,2001,1261,49.6375,-3.19001
784,-237,36.3441,1.68591,0,0,0,0,0,0,0,-1,2008,1261,36.3441,-1.68592
791,-237,32.3025,6.03235,0,0,0,0,0,0,0,-1,2015,1261,32.3025,-6.03229
798,-237,0,0,0,0,0,0,0,0,0,-1,2022,1261,0,0
805,-237,0,0,0,0,0,0,0,0,0,-1,2029,1261,0,0
812,-237,0,0,0,0,0,0,0,0,0,-1,2036,1261,0,0
-700,-244,0,0,0,0,0,0,0,0,0,-1,524,1268,0,0
-693,-244,0,0,0,0,0,0,0,0,0,-1,531,1268,0,0
-686,-244,0,0,0,0,0,0,0,0,0,-1,538,1268,0,0
-679,-244,0,0,0,0,0,0,0,0,0,-1,545,1268,0,0
-672,-244,-44.7993,4.39575,0,0,0,0,0,0,0,-1,552,1268,-44.7992,-4.39576
-665,-244,-46.0868,3.64392,0,0,0,0,0,0,0,-1,559,1268,-46.0868,-3.64391
-658,-244,-45.9758,2.05481,0,0,0,0,0,0,0,-1,566,1268,-45.9758,-2.05486
-651,-244,-46.4749,1.28564,0,0,0,0,0,0,0,-1,573,1268,-46.4749,-1.28561
-644,-244,-32.7362,1.51355,0,0,0,0,0,0,0,-1,580,1268,-32.7362,-1.51355
-637,-244,-32.5895,2.41272,0,0,0,0,0,0,0,-1,587,1268,-32.5895,-2.41269
-630,-244,-33.5754,3.61279,0,0,0,0,0,0,0,-1,594,1268,-33.5754,-3.61279
-623,-244,-33.5807,4.45679,-0.0014928,0.00736223,0.00774755,0.0118581,-0.00598871,1.04499,0.010488,0.0365487,601,1268,-33.5807,-4.45683
-616,-244,-33.5986,5.28113,-0.00136216,0.00575388,0.00562136,0.00884862,-0.00445689,1.06754,0.00782018,0.0177795,608,1268,-33.5986,-5.28118
-609,-244,-33.6411,5.95447,-0.0012129,0.00426344,0.00380768,0.00621526,-0.00316472,1.09712,0.00551017,0.0161367,615,1268,-33.641,-5.95446
-602,-244,-33.6479,6.63538,-0.000859993,0.0027407,0.00229219,0.00385503,-0.00197433,1.11829,0.00342347,0.0162239,622,1268,-33.6479,-6.63543
-595,-244,-33.7253,7.33093,-0.000490122,0.00125573,0.000943661,0.0016683,-0.00090269,1.15864,0.00150614,0.0166292,629,1268,-33.7254,-7.33092
-588,-244,-33.7518,8.00757,-0.000201813,5.80117e-05,-0.000193645,0.000161285,-0.000305087,-1.08085,0.000273493,0.0205821,636,1268,-33.7518,-8.00758
-581,-244,-33.7775,8.68848,-0.000134935,-0.000810085,-0.00122204,0.000795297,-0.00174032,-0.650639,0.00149745,0.0175834,643,1268,-33.7775,-8.68849
-574,-244,-33.8195,9.38696,-0.000179546,-0.00115745,-0.00207136,0.00145979,-0.00279679,-0.669492,0.00249762,0.0182909,650,1268,-33.8194,-9.38698
-567,-244,-33.8911,10.0717,-0.000465313,-0.000189413,-0.00254303,0.0022194,-0.00287413,-0.812495,0.00294884,0.0311032,657,1268,-33.891,-10.0717
-560,-244,-33.8618,10.6918,-0.000288853,0.000215556,-0.00248103,0.00245717,-0.00253047,-0.836051,0.00287972,0.0441039,664,1268,-33.8618,-10.6918
-553,-244,-33.7322,11.3158,0,0,0,0,0,0,0,-1,671,1268,-33.7322,-11.3157
-546,-244,-11.2686,4.41772,0,0,0,0,0,0,0,-1,678,1268,-11.2686,-4.41767
-539,-244,-12.8706,0.3302,0,0,0,0,0,0,0,-1,685,1268,-12.8706,-0.330156
-532,-244,-18.1502,0.816528,0,0,0,0,0,0,0,-1,692,1268,-18.1502,-0.816514
-525,-244,-33.0835,0.693604,0,0,0,0,0,0,0,-1,699,1268,-33.0835,-0.69365
-518,-244,-47.5015,0.609131,0,0,0,0,0,0,0,-1,706,1268,-47.5015,-0.60919
-511,-244,-48.6138,1.11877,0,0,0,0,0,0,0,-1,713,1268,-48.6138,-1.11872
-504,-244,-51.3393,0.611206,0,0,0,0,0,0,0,-1,720,1268,-51.3393,-0.611221
-497,-244,-51.3639,0.628662,0,0,0,0,0,0,0,-1,727,1268,-51.3639,-0.628701
-490,-244,0,0,0,0,0,0,0,0,0,-1,734,1268,0,0
-483,-244,0,0,0,0,0,0,0,0,0,-1,741,1268,0,0
-476,-244,0,0,0,0,0,0,0,0,0,-1,748,1268,0,0
-469,-244,0,0,0,0,0,0,0,0,0,-1,755,1268,0,0
-462,-244,0,0,0,0,0,0,0,0,0,-1,762,1268,0,0
-455,-244,0,0,0,0,0,0,0,0,0,-1,769,1268,0,0
-448,-244,0,0,0,0,0,0,0,0,0,-1,776,1268,0,0
-441,-244,0,0,0,0,0,0,0,0,0,-1,783,1268,0,0
-434,-244,0,0,0,0,0,0,0,0,0,-1,790,1268,0,0
-427,-244,0,0,0,0,0,0,0,0,0,-1,797,1268,0,0
-420,-244,0,0,0,0,0,0,0,0,0,-1,804,1268,0,0
-413,-244,0,0,0,0,0,0,0,0,0,-1,811,1268,0,0
-406,-244,0,0,0,0,0,0,0,0,0,-1,818,1268,0,0
-399,-244,0,0,0,0,0,0,0,0,0,-1,825,1268,0,0
-392,-244,0,0,0,0,0,0,0,0,0,-1,832,1268,0,0
-385,-244,0,0,0,0,0,0,0,0,0,-1,839,1268,0,0
-378,-244,0,0,0,0,0,0,0,0,0,-1,846,1268,0,0
-371,-244,0,0,0,0,0,0,0,0,0,-1,853,1268,0,0
-364,-244,0,0,0,0,0,0,0,0,0,-1,860,1268,0,0
-357,-244,0,0,0,0,0,0,0,0,0,-1,867,1268,0,0
-350,-244,0,0,0,0,0,0,0,0,0,-1,874,1268,0,0
-343,-244,0,0,0,0,0,0,0,0,0,-1,881,1268,0,0
-336,-244,0,0,0,0,0,0,0,0,0,-1,888,1268,0,0
-329,-244,0,0,0,0,0,0,0,0,0,-1,895,1268,0,0
-322,-244,0,0,0,0,0,0,0,0,0,-1,902,1268,0,0
-315,-244,0,0,0,0,0,0,0,0,0,-1,909,1268,0,0
-308,-244,0,0,0,0,0,0,0,0,0,-1,916,1268,0,0
-301,-244,0,0,0,0,0,0,0,0,0,-1,923,1268,0,0
-294,-244,0,0,0,0,0,0,0,0,0,-1,930,1268,0,0
-287,-244,0,0,0,0,0,0,0,0,0,-1,937,1268,0,0
-280,-244,0,0,0,0,0,0,0,0,0,-1,944,1268,0,0
-273,-244,0,0,0,0,0,0,0,0,0,-1,951,1268,0,0
-266,-244,0,0,0,0,0,0,0,0,0,-1,958,1268,0,0
-259,-244,0,0,0,0,0,0,0,0,0,-1,965,1268,0,0
-252,-244,0,0,0,0,0,0,0,0,0,-1,972,1268,0,0
-245,-244,0,0,0,0,0,0,0,0,0,-1,979,1268,0,0
-238,-244,0,0,0,0,0,0,0,0,0,-1,986,1268,0,0
-231,-244,0,0,0,0,0,0,0,0,0,-1,993,1268,0,0
-224,-244,0,0,0,0,0,0,0,0,0,-1,1000,1268,0,0
-217,-244,0,0,0,0,0,0,0,0,0,-1,1007,1268,0,0
-210,-244,0,0,0,0,0,0,0,0,0,-1,1014,1268,0,0
-203,-244,0,0,0,0,0,0,0,0,0,-1,1021,1268,0,0
-196,-244,0,0,0,0,0,0,0,0,0,-1,1028,1268,0,0
-189,-244,0,0,0,0,0,0,0,0,0,-1,1035,1268,0,0
-182,-244,0,0,0,0,0,0,0,0,0,-1,1042,1268,0,0
-175,-244,0,0,0,0,0,0,0,0,0,-1,1049,1268,0,0
-168,-244,0,0,0,0,0,0,0,0,0,-1,1056,1268,0,0
-161,-244,0,0,0,0,0,0,0,0,0,-1,1063,1268,0,0
-154,-244,0,0,0,0,0,0,0,0,0,-1,1070,1268,0,0
-147,-244,0,0,0,0,0,0,0,0,0,-1,1077,1268,0,0
-140,-244,0,0,0,0,0,0,0,0,0,-1,1084,1268,0,0
-133,-244,0,0,0,0,0,0,0,0,0,-1,1091,1268,0,0
-126,-244,0,0,0,0,0,0,0,0,0,-1,1098,1268,0,0
-119,-244,0,0,0,0,0,0,0,0,0,-1,1105,1268,0,0
-112,-244,0,0,0,0,0,0,0,0,0,-1,1112,1268,0,0
-105,-244,0,0,0,0,0,0,0,0,0,-1,1119,1268,0,0
-98,-244,0,0,0,0,0,0,0,0,0,-1,1126,1268,0,0
-91,-244,0,0,0,0,0,0,0,0,0,-1,1133,1268,0,0
-84,-244,0,0,0,0,0,0,0,0,0,-1,1140,1268,0,0
-77,-244,0,0,0,0,0,0,0,0,0,-1,1147,1268,0,0
-70,-244,0,0,0,0,0,0,0,0,0,-1,1154,1268,0,0
-63,-244,0,0,0,0,0,0,0,0,0,-1,1161,1268,0,0
-56,-244,0,0,0,0,0,0,0,0,0,-1,1168,1268,0,0
-49,-244,0,0,0,0,0,0,0,0,0,-1,1175,1268,0,0
-42,-244,0,0,0,0,0,0,0,0,0,-1,1182,1268,0,0
-35,-244,0,0,0,0,0,0,0,0,0,-1,1189,1268,0,0
-28,-244,0,0,0,0,0,0,0,0,0,-1,1196,1268,0,0
-21,-244,0,0,0,0,0,0,0,0,0,-1,1203,1268,0,0
-14,-244,0,0,0,0,0,0,0,0,0,-1,1210,1268,0,0
-7,-244,0,0,0,0,0,0,0,0,0,-1,1217,1268,0,0
0,-244,0,0,0,0,0,0,0,0,0,-1,1224,1268,0,0
7,-244,0,0,0,0,0,0,0,0,0,-1,1231,1268,0,0
14,-244,0,0,0,0,0,0,0,0,0,-1,1238,1268,0,0
21,-244,0,0,0,0,0,0,0,0,0,-1,1245,1268,0,0
28,-244,0,0,0,0,0,0,0,0,0,-1,1252,1268,0,0
35,-244,0,0,0,0,0,0,0,0,0,-1,1259,1268,0,0
42,-244,0,0,0,0,0,0,0,0,0,-1,1266,1268,0,0
49,-244,0,0,0,0,0,0,0,0,0,-1,1273,1268,0,0
56,-244,0,0,0,0,0,0,0,0,0,-1,1280,1268,0,0
63,-244,0,0,0,0,0,0,0,0,0,-1,1287,1268,0,0
70,-244,0,0,0,0,0,0,0,0,0,-1,1294,1268,0,0
77,-244,0,0,0,0,0,0,0,0,0,-1,1301,1268,0,0
84,-244,0,0,0,0,0,0,0,0,0,-1,1308,1268,0,0
91,-244,0,0,0,0,0,0,0,0,0,-1,1315,1268,0,0
98,-244,0,0,0,0,0,0,0,0,0,-1,1322,1268,0,0
105,-244,0,0,0,0,0,0,0,0,0,-1,1329,1268,0,0
112,-244,0,0,0,0,0,0,0,0,0,-1,1336,1268,0,0
119,-244,0,0,0,0,0,0,0,0,0,-1,1343,1268,0,0
126,-244,0,0,0,0,0,0,0,0,0,-1,1350,1268,0,0
133,-244,0,0,0,0,0,0,0,0,0,-1,1357,1268,0,0
140,-244,0,0,0,0,0,0,0,0,0,-1,1364,1268,0,0
147,-244,0,0,0,0,0,0,0,0,0,-1,1371,1268,0,0
154,-244,0,0,0,0,0,0,0,0,0,-1,1378,1268,0,0
161,-244,0,0,0,0,0,0,0,0,0,-1,1385,1268,0,0
168,-244,0,0,0,0,0,0,0,0,0,-1,1392,1268,0,0
175,-244,0,0,0,0,0,0,0,0,0,-1,1399,1268,0,0
182,-244,0,0,0,0,0,0,0,0,0,-1,1406,1268,0,0
189,-244,0,0,0,0,0,0,0,0,0,-1,1413,1268,0,0
196,-244,0,0,0,0,0,0,0,0,0,-1,1420,1268,0,0
203,-244,0,0,0,0,0,0,0,0,0,-1,1427,1268,0,0
210,-244,0,0,0,0,0,0,0,0,0,-1,1434,1268,0,0
217,-244,0,0,0,0,0,0,0,0,0,-1,1441,1268,0,0
224,-244,0,0,0,0,0,0,0,0,0,-1,1448,1268,0,0
231,-244,0,0,0,0,0,0,0,0,0,-1,1455,1268,0,0
238,-244,0,0,0,0,0,0,0,0,0,-1,1462,1268,0,0
245,-244,0,0,0,0,0,0,0,0,0,-1,1469,1268,0,0
252,-244,0,0,0,0,0,0,0,0,0,-1,1476,1268,0,0
259,-244,0,0,0,0,0,0,0,0,0,-1,1483,1268,0,0
266,-244,0,0,0,0,0,0,0,0,0,-1,1490,1268,0,0
273,-244,0,0,0,0,0,0,0,0,0,-1,1497,1268,0,0
280,-244,0,0,0,0,0,0,0,0,0,-1,1504,1268,0,0
287,-244,0,0,0,0,0,0,0,0,0,-1,1511,1268,0,0
294,-244,0,0,0,0,0,0,0,0,0,-1,1518,1268,0,0
301,-244,0,0,0,0,0,0,0,0,0,-1,1525,1268,0,0
308,-244,0,0,0,0,0,0,0,0,0,-1,1532,1268,0,0
315,-244,0,0,0,0,0,0,0,0,0,-1,1539,1268,0,0
322,-244,0,0,0,0,0,0,0,0,0,-1,1546,1268,0,0
329,-244,0,0,0,0,0,0,0,0,0,-1,1553,1268,0,0
336,-244,0,0,0,0,0,0,0,0,0,-1,1560,1268,0,0
343,-244,0,0,0,0,0,0,0,0,0,-1,1567,1268,0,0
350,-244,0,0,0,0,0,0,0,0,0,-1,1574,1268,0,0
357,-244,0,0,0,0,0,0,0,0,0,-1,1581,1268,0,0
364,-244,0,0,0,0,0,0,0,0,0,-1,1588,1268,0,0
371,-244,0,0,0,0,0,0,0,0,0,-1,1595,1268,0,0
378,-244,0,0,0,0,0,0,0,0,0,-1,1602,1268,0,0
385,-244,0,0,0,0,0,0,0,0,0,-1,1609,1268,0,0
392,-244,0,0,0,0,0,0,0,0,0,-1,1616,1268,0,0
399,-244,0,0,0,0,0,0,0,0,0,-1,1623,1268,0,0
406,-244,0,0,0,0,0,0,0,0,0,-1,1630,1268,0,0
413,-244,0,0,0,0,0,0,0,0,0,-1,1637,1268,0,0
420,-244,0,0,0,0,0,0,0,0,0,-1,1644,1268,0,0
427,-244,0,0,0,0,0,0,0,0,0,-1,1651,1268,0,0
434,-244,0,0,0,0,0,0,0,0,0,-1,1658,1268,0,0
441,-244,0,0,0,0,0,0,0,0,0,-1,1665,1268,0,0
448,-244,0,0,0,0,0,0,0,0,0,-1,1672,1268,0,0
455,-244,0,0,0,0,0,0,0,0,0,-1,1679,1268,0,0
462,-244,0,0,0,0,0,0,0,0,0,-1,1686,1268,0,0
469,-244,0,0,0,0,0,0,0,0,0,-1,1693,1268,0,0
476,-244,0,0,0,0,0,0,0,0,0,-1,1700,1268,0,0
483,-244,0,0,0,0,0,0,0,0,0,-1,1707,1268,0,0
490,-244,0,0,0,0,0,0,0,0,0,-1,1714,1268,0,0
497,-244,0,0,0,0,0,0,0,0,0,-1,1721,1268,0,0
504,-244,0,0,0,0,0,0,0,0,0,-1,1728,1268,0,0
511,-244,0,0,0,0,0,0,0,0,0,-1,1735,1268,0,0
518,-244,0,0,0,0,0,0,0,0,0,-1,1742,1268,0,0
525,-244,0,0,0,0,0,0,0,0,0,-1,1749,1268,0,0
532,-244,0,0,0,0,0,0,0,0,0,-1,1756,1268,0,0
539,-244,0,0,0,0,0,0,0,0,0,-1,1763,1268,0,0
546,-244,0,0,0,0,0,0,0,0,0,-1,1770,1268,0,0
553,-244,0,0,0,0,0,0,0,0,0,-1,1777,1268,0,0
560,-244,0,0,0,0,0,0,0,0,0,-1,1784,1268,0,0
567,-244,0,0,0,0,0,0,0,0,0,-1,1791,1268,0,0
574,-244,0,0,0,0,0,0,0,0,0,-1,1798,1268,0,0
581,-244,0,0,0,0,0,0,0,0,0,-1,1805,1268,0,0
588,-244,0,0,0,0,0,0,0,0,0,-1,1812,1268,0,0
595,-244,0,0,0,0,0,0,0,0,0,-1,1819,1268,0,0
602,-244,0,0,0,0,0,0,0,0,0,-1,1826,1268,0,0
609,-244,0,0,0,0,0,0,0,0,0,-1,1833,1268,0,0
616,-244,66.9692,2.29419,-0.00355026,-0.000725366,0.00291823,0.00110427,-0.00537989,1.01078,0.00400575,0.033198,1840,1268,66.9693,-2.29424
623,-244,67.021,2.40808,-0.00406116,0.00644794,-0.000697529,0.00649404,-0.00410725,-1.50481,0.00617215,0.0259236,1847,1268,67.021,-2.40803
630,-244,66.9973,2.40015,-0.0043718,0.0129383,-0.00422149,0.013913,-0.00534644,-1.3439,0.0114802,0.023448,1854,1268,66.9974,-2.4002
637,-244,66.9539,2.33838,-0.00368796,0.0143425,-0.00544224,0.0158578,-0.00520327,-1.29924,0.0126677,0.0360934,1861,1268,66.9539,-2.33834
644,-244,66.8612,2.31763,-0.00260671,0.0121684,-0.00489253,0.0136415,-0.0040799,-1.27832,0.0107164,0.0437162,1868,1268,66.8612,-2.31768
651,-244,66.7019,2.25977,0,0,0,0,0,0,0,-1,1875,1268,66.7019,-2.25977
658,-244,66.5573,2.24976,0,0,0,0,0,0,0,-1,1882,1268,66.5572,-2.2497
665,-244,50.7988,1.09888,0,0,0,0,0,0,0,-1,1889,1268,50.7989,-1.09893
672,-244,32.224,3.6123,0,0,0,0,0,0,0,-1,1896,1268,32.224,-3.6123
679,-244,27.2593,7.90649,0,0,0,0,0,0,0,-1,1903,1268,27.2592,-7.9065
686,-244,49.6783,13.0038,0,0,0,0,0,0,0,-1,1910,1268,49.6783,-13.0037
693,-244,49.6454,12.415,0.000654744,0.00200251,-0.00165486,0.00311543,-0.000458179,-0.978753,0.00224532,0.035327,1917,1268,49.6454,-12.4151
700,-244,49.6996,11.7416,0.0012012,-0.000174245,-0.000694095,0.00149058,-0.000463625,-0.395004,0.00117905,0.0110636,1924,1268,49.6996,-11.7416
707,-244,49.6796,11.0677,0.00075165,-0.000532761,-0.000183096,0.000777241,-0.000558352,-0.138868,0.000774549,0.0105797,1931,1268,49.6796,-11.0678
714,-244,49.7253,10.4005,-4.46526e-05,-0.000630711,0.000577386,0.000309806,-0.00098517,0.550579,0.000780812,0.0157278,1938,1268,49.7253,-10.4005
721,-244,49.6252,9.81128,-0.000920679,-0.00075249,0.00141544,0.000581347,-0.00225452,0.81507,0.00172967,0.0218999,1945,1268,49.6252,-9.81125
728,-244,49.5875,9.11511,-0.00194494,-0.000591755,0.00229397,0.00112332,-0.00366002,0.928804,0.00288821,0.0279415,1952,1268,49.5875,-9.11512
735,-244,49.546,8.36853,-0.00301909,-0.000490593,0.00324145,0.00172443,-0.00523411,0.971337,0.00418439,0.0281013,1959,1268,49.546,-8.36855
742,-244,49.4873,7.8739,-0.00412405,-0.00044854,0.00430535,0.00239488,-0.00696746,0.987118,0.00561614,0.01809,1966,1268,49.4873,-7.87385
749,-244,49.3383,7.32202,-0.00522134,-0.000440397,0.00549302,0.00315976,-0.0088215,0.990631,0.00717021,0.0258488,1973,1268,49.3382,-7.32197
756,-244,49.1401,6.77869,-0.006398,-0.000433661,0.0068816,0.00408415,-0.0109158,0.989861,0.00895463,0.0367328,1980,1268,49.1402,-6.77873
763,-244,49.1139,6.05603,0,0,0,0,0,0,0,-1,1987,1268,49.1139,-6.05607
770,-244,48.905,4.28406,0,0,0,0,0,0,0,-1,1994,1268,48.905,-4.284
777,-244,48.7119,2.7002,0,0,0,0,0,0,0,-1,2001,1268,48.712,-2.70019
784,-244,31.7908,5.20081,0,0,0,0,0,0,0,-1,2008,1268,31.7907,-5.20083
791,-244,0,0,0,0,0,0,0,0,0,-1,2015,1268,0,0
798,-244,0,0,0,0,0,0,0,0,0,-1,2022,1268,0,0
805,-244,0,0,0,0,0,0,0,0,0,-1,2029,1268,0,0
812,-244,0,0,0,0,0,0,0,0,0,-1,2036,1268,0,0
-700,-251,0,0,0,0,0,0,0,0,0,-1,524,1275,0,0
-693,-251,0,0,0,0,0,0,0,0,0,-1,531,1275,0,0
-686,-251,0,0,0,0,0,0,0,0,0,-1,538,1275,0,0
-679,-251,0,0,0,0,0,0,0,0,0,-1,545,1275,0,0
-672,-251,0,0,0,0,0,0,0,0,0,-1,552,1275,0,0
-665,-251,-45.2521,2.44568,0,0,0,0,0,0,0,-1,559,1275,-45.2521,-2.44573
-658,-251,-45.5222,1.44397,0,0,0,0,0,0,0,-1,566,1275,-45.5221,-1.44401
-651,-251,-45.8498,0.382935,0,0,0,0,0,0,0,-1,573,1275,-45.8498,-0.382965
-644,-251,-46.2018,-0.658325,0,0,0,0,0,0,0,-1,580,1275,-46.2019,0.658365
-637,-251,-31.6829,2.1123,0,0,0,0,0,0,0,-1,587,1275,-31.6829,-2.11227
-630,-251,-32.9876,3.57202,0,0,0,0,0,0,0,-1,594,1275,-32.9876,-3.57201
-623,-251,-32.9846,4.43726,-0.00345486,0.00796938,0.0100987,0.0138595,-0.009345,1.04278,0.0134814,0.0418761,601,1275,-32.9846,-4.43726
-616,-251,-32.9188,5.29822,-0.00238004,0.00633385,0.00740286,0.0105667,-0.00661293,1.05138,0.0100059,0.0218001,608,1275,-32.9188,-5.29828
-609,-251,-32.9674,5.97168,-0.00177558,0.00482736,0.00518232,0.0076705,-0.00461871,1.06901,0.00716773,0.0201892,615,1275,-32.9674,-5.97174
-602,-251,-32.9715,6.67102,-0.00116495,0.00327329,0.00339892,0.00511337,-0.00300504,1.0746,0.00473956,0.0145161,622,1275,-32.9715,-6.67108
-595,-251,-33.0076,7.354,-0.000596074,0.00180466,0.00189001,0.00284327,-0.00163469,1.06832,0.00261655,0.0131031,629,1275,-33.0076,-7.35396
-588,-251,-33.0441,8.02856,-0.000130179,0.00046111,0.000633607,0.000864653,-0.000533722,1.00369,0.000814853,0.0146332,636,1275,-33.0441,-8.02854
-581,-251,-33.0774,8.73083,0.000145577,-0.00065904,-0.000434044,0.000335084,-0.000848547,-0.411663,0.000704477,0.0145647,643,1275,-33.0774,-8.73082
-574,-251,-33.1097,9.46838,0.000312339,-0.00139283,-0.00133963,0.00104768,-0.00212817,-0.50201,0.00186862,0.0145869,650,1275,-33.1097,-9.46842
-567,-251,-33.1804,10.1809,0.000243815,-0.00103542,-0.00190531,0.001614,-0.00240561,-0.623457,0.00233568,0.0252854,657,1275,-33.1804,-10.1809
-560,-251,-33.1455,11.0748,0.000274894,-0.000577378,-0.00189342,0.00178954,-0.00209202,-0.674712,0.00224329,0.0462901,664,1275,-33.1455,-11.0748
-553,-251,-32.9764,11.8425,0,0,0,0,0,0,0,-1,671,1275,-32.9764,-11.8425
-546,-251,-12.995,4.5675,0,0,0,0,0,0,0,-1,678,1275,-12.995,-4.56745
-539,-251,-10.7916,0.366333,0,0,0,0,0,0,0,-1,685,1275,-10.7916,-0.366282
-532,-251,-10.7391,-0.00769043,0,0,0,0,0,0,0,-1,692,1275,-10.7391,0.00773227
-525,-251,-29.4286,-0.250244,0,0,0,0,0,0,0,-1,699,1275,-29.4286,0.250266
-518,-251,-32.6981,0.678833,0,0,0,0,0,0,0,-1,706,1275,-32.6981,-0.678787
-511,-251,-29.4731,0.637085,0,0,0,0,0,0,0,-1,713,1275,-29.4731,-0.637025
-504,-251,-30.6428,0.792358,0,0,0,0,0,0,0,-1,720,1275,-30.6427,-0.792335
-497,-251,-48.861,1.23169,0,0,0,0,0,0,0,-1,727,1275,-48.861,-1.23169
-490,-251,0,0,0,0,0,0,0,0,0,-1,734,1275,0,0
-483,-251,0,0,0,0,0,0,0,0,0,-1,741,1275,0,0
-476,-251,0,0,0,0,0,0,0,0,0,-1,748,1275,0,0
-469,-251,0,0,0,0,0,0,0,0,0,-1,755,1275,0,0
-462,-251,0,0,0,0,0,0,0,0,0,-1,762,1275,0,0
-455,-251,0,0,0,0,0,0,0,0,0,-1,769,1275,0,0
-448,-251,0,0,0,0,0,0,0,0,0,-1,776,1275,0,0
-441,-251,0,0,0,0,0,0,0,0,0,-1,783,1275,0,0
-434,-251,0,0,0,0,0,0,0,0,0,-1,790,1275,0,0
-427,-251,0,0,0,0,0,0,0,0,0,-1,797,1275,0,0
-420,-251,0,0,0,0,0,0,0,0,0,-1,804,1275,0,0
-413,-251,0,0,0,0,0,0,0,0,0,-1,811,1275,0,0
-406,-251,0,0,0,0,0,0,0,0,0,-1,818,1275,0,0
-399,-251,0,0,0,0,0,0,0,0,0,-1,825,1275,0,0
-392,-251,0,0,0,0,0,0,0,0,0,-1,832,1275,0,0
-385,-251,0,0,0,0,0,0,0,0,0,-1,839,1275,0,0
-378,-251,0,0,0,0,0,0,0,0,0,-1,846,1275,0,0
-371,-251,0,0,0,0,0,0,0,0,0,-1,853,1275,0,0
-364,-251,0,0,0,0,0,0,0,0,0,-1,860,1275,0,0
-357,-251,0,0,0,0,0,0,0,0,0,-1,867,1275,0,0
-350,-251,0,0,0,0,0,0,0,0,0,-1,874,1275,0,0
-343,-251,0,0,0,0,0,0,0,0,0,-1,881,1275,0,0
-336,-251,0,0,0,0,0,0,0,0,0,-1,888,1275,0,0
-329,-251,0,0,0,0,0,0,0,0,0,-1,895,1275,0,0
-322,-251,0,0,0,0,0,0,0,0,0,-1,902,1275,0,0
-315,-251,0,0,0,0,0,0,0,0,0,-1,909,1275,0,0
-308,-251,0,0,0,0,0,0,0,0,0,-1,916,1275,0,0
-301,-251,0,0,0,0,0,0,0,0,0,-1,923,1275,0,0
-294,-251,0,0,0,0,0,0,0,0,0,-1,930,1275,0,0
-287,-251,0,0,0,0,0,0,0,0,0,-1,937,1275,0,0
-280,-251,0,0,0,0,0,0,0,0,0,-1,944,1275,0,0
-273,-251,0,0,0,0,0,0,0,0,0,-1,951,1275,0,0
-266,-251,0,0,0,0,0,0,0,0,0,-1,958,1275,0,0
-259,-251,0,0,0,0,0,0,0,0,0,-1,965,1275,0,0
-252,-251,0,0,0,0,0,0,0,0,0,-1,972,1275,0,0
-245,-251,0,0,0,0,0,0,0,0,0,-1,979,1275,0,0
-238,-251,0,0,0,0,0,0,0,0,0,-1,986,1275,0,0
-231,-251,0,0,0,0,0,0,0,0,0,-1,993,1275,0,0
-224,-251,0,0,0,0,0,0,0,0,0,-1,1000,1275,0,0
-217,-251,0,0,0,0,0,0,0,0,0,-1,1007,1275,0,0
-210,-251,0,0,0,0,0,0,0,0,0,-1,1014,1275,0,0
-203,-251,0,0,0,0,0,0,0,0,0,-1,1021,1275,0,0
-196,-251,0,0,0,0,0,0,0,0,0,-1,1028,1275,0,0
-189,-251,0,0,0,0,0,0,0,0,0,-1,1035,1275,0,0
-182,-251,0,0,0,0,0,0,0,0,0,-1,1042,1275,0,0
-175,-251,0,0,0,0,0,0,0,0,0,-1,1049,1275,0,0
-168,-251,0,0,0,0,0,0,0,0,0,-1,1056,1275,0,0
-161,-251,0,0,0,0,0,0,0,0,0,-1,1063,1275,0,0
-154,-251,0,0,0,0,0,0,0,0,0,-1,1070,1275,0,0
-147,-251,0,0,0,0,0,0,0,0,0,-1,1077,1275,0,0
-140,-251,0,0,0,0,0,0,0,0,0,-1,1084,1275,0,0
-133,-251,0,0,0,0,0,0,0,0,0,-1,1091,1275,0,0
-126,-251,0,0,0,0,0,0,0,0,0,-1,1098,1275,0,0
-119,-251,0,0,0,0,0,0,0,0,0,-1,1105,1275,0,0
-112,-251,0,0,0,0,0,0,0,0,0,-1,1112,1275,0,0
-105,-251,0,0,0,0,0,0,0,0,0,-1,1119,1275,0,0
-98,-251,0,0,0,0,0,0,0,0,0,-1,1126,1275,0,0
-91,-251,0,0,0,0,0,0,0,0,0,-1,1133,1275,0,0
-84,-251,0,0,0,0,0,0,0,0,0,-1,1140,1275,0,0
-77,-251,0,0,0,0,0,0,0,0,0,-1,1147,1275,0,0
-70,-251,0,0,0,0,0,0,0,0,0,-1,1154,1275,0,0
-63,-251,0,0,0,0,0,0,0,0,0,-1,1161,1275,0,0
-56,-251,0,0,0,0,0,0,0,0,0,-1,1168,1275,0,0
-49,-251,0,0,0,0,0,0,0,0,0,-1,1175,1275,0,0
-42,-251,0,0,0,0,0,0,0,0,0,-1,1182,1275,0,0
-35,-251,0,0,0,0,0,0,0,0,0,-1,1189,1275,0,0
-28,-251,0,0,0,0,0,0,0,0,0,-1,1196,1275,0,0
-21,-251,0,0,0,0,0,0,0,0,0,-1,1203,1275,0,0
-14,-251,0,0,0,0,0,0,0,0,0,-1,1210,1275,0,0
-7,-251,0,0,0,0,0,0,0,0,0,-1,1217,1275,0,0
0,-251,0,0,0,0,0,0,0,0,0,-1,1224,1275,0,0
7,-251,0,0,0,0,0,0,0,0,0,-1,1231,1275,0,0
14,-251,0,0,0,0,0,0,0,0,0,-1,1238,1275,0,0
21,-251,0,0,0,0,0,0,0,0,0,-1,1245,1275,0,0
28,-251,0,0,0,0,0,0,0,0,0,-1,1252,1275,0,0
35,-251,0,0,0,0,0,0,0,0,0,-1,1259,1275,0,0
42,-251,0,0,0,0,0,0,0,0,0,-1,1266,1275,0,0
49,-251,0,0,0,0,0,0,0,0,0,-1,1273,1275,0,0
56,-251,0,0,0,0,0,0,0,0,0,-1,1280,1275,0,0
63,-251,0,0,0,0,0,0,0,0,0,-1,1287,1275,0,0
70,-251,0,0,0,0,0,0,0,0,0,-1,1294,1275,0,0
77,-251,0,0,0,0,0,0,0,0,0,-1,1301,1275,0,0
84,-251,0,0,0,0,0,0,0,0,0,-1,1308,1275,0,0
91,-251,0,0,0,0,0,0,0,0,0,-1,1315,1275,0,0
98,-251,0,0,0,0,0,0,0,0,0,-1,1322,1275,0,0
105,-251,0,0,0,0,0,0,0,0,0,-1,1329,1275,0,0
112,-251,0,0,0,0,0,0,0,0,0,-1,1336,1275,0,0
119,-251,0,0,0,0,0,0,0,0,0,-1,1343,1275,0,0
126,-251,0,0,0,0,0,0,0,0,0,-1,1350,1275,0,0
133,-251,0,0,0,0,0,0,0,0,0,-1,1357,1275,0,0
140,-251,0,0,0,0,0,0,0,0,0,-1,1364,1275,0,0
147,-251,0,0,0,0,0,0,0,0,0,-1,1371,1275,0,0
154,-251,0,0,0,0,0,0,0,0,0,-1,1378,1275,0,0
161,-251,0,0,0,0,0,0,0,0,0,-1,1385,1275,0,0
168,-251,0,0,0,0,0,0,0,0,0,-1,1392,1275,0,0
175,-251,0,0,0,0,0,0,0,0,0,-1,1399,1275,0,0
182,-251,0,0,0,0,0,0,0,0,0,-1,1406,1275,0,0
189,-251,0,0,0,0,0,0,0,0,0,-1,1413,1275,0,0
196,-251,0,0,0,0,0,0,0,0,0,-1,1420,1275,0,0
203,-251,0,0,0,0,0,0,0,0,0,-1,1427,1275,0,0
210,-251,0,0,0,0,0,0,0,0,0,-1,1434,1275,0,0
217,-251,0,0,0,0,0,0,0,0,0,-1,1441,1275,0,0
224,-251,0,0,0,0,0,0,0,0,0,-1,1448,1275,0,0
231,-251,0,0,0,0,0,0,0,0,0,-1,1455,1275,0,0
238,-251,0,0,0,0,0,0,0,0,0,-1,1462,1275,0,0
245,-251,0,0,0,0,0,0,0,0,0,-1,1469,1275,0,0
252,-251,0,0,0,0,0,0,0,0,0,-1,1476,1275,0,0
259,-251,0,0,0,0,0,0,0,0,0,-1,1483,1275,0,0
266,-251,0,0,0,0,0,0,0,0,0,-1,1490,1275,0,0
273,-251,0,0,0,0,0,0,0,0,0,-1,1497,1275,0,0
280,-251,0,0,0,0,0,0,0,0,0,-1,1504,1275,0,0
287,-251,0,0,0,0,0,0,0,0,0,-1,1511,1275,0,0
294,-251,0,0,0,0,0,0,0,0,0,-1,1518,1275,0,0
301,-251,0,0,0,0,0,0,0,0,0,-1,1525,1275,0,0
308,-251,0,0,0,0,0,0,0,0,0,-1,1532,1275,0,0
315,-251,0,0,0,0,0,0,0,0,0,-1,1539,1275,0,0
322,-251,0,0,0,0,0,0,0,0,0,-1,1546,1275,0,0
329,-251,0,0,0,0,0,0,0,0,0,-1,1553,1275,0,0
336,-251,0,0,0,0,0,0,0,0,0,-1,1560,1275,0,0
343,-251,0,0,0,0,0,0,0,0,0,-1,1567,1275,0,0
350,-251,0,0,0,0,0,0,0,0,0,-1,1574,1275,0,0
357,-251,0,0,0,0,0,0,0,0,0,-1,1581,1275,0,0
364,-251,0,0,0,0,0,0,0,0,0,-1,1588,1275,0,0
371,-251,0,0,0,0,0,0,0,0,0,-1,1595,1275,0,0
378,-251,0,0,0,0,0,0,0,0,0,-1,1602,1275,0,0
385,-251,0,0,0,0,0,0,0,0,0,-1,1609,1275,0,0
392,-251,0,0,0,0,0,0,0,0,0,-1,1616,1275,0,0
399,-251,0,0,0,0,0,0,0,0,0,-1,1623,1275,0,0
406,-251,0,0,0,0,0,0,0,0,0,-1,1630,1275,0,0
413,-251,0,0,0,0,0,0,0,0,0,-1,1637,1275,0,0
420,-251,0,0,0,0,0,0,0,0,0,-1,1644,1275,0,0
427,-251,0,0,0,0,0,0,0,0,0,-1,1651,1275,0,0
434,-251,0,0,0,0,0,0,0,0,0,-1,1658,1275,0,0
441,-251,0,0,0,0,0,0,0,0,0,-1,1665,1275,0,0
448,-251,0,0,0,0,0,0,0,0,0,-1,1672,1275,0,0
455,-251,0,0,0,0,0,0,0,0,0,-1,1679,1275,0,0
462,-251,0,0,0,0,0,0,0,0,0,-1,1686,1275,0,0
469,-251,0,0,0,0,0,0,0,0,0,-1,1693,1275,0,0
476,-251,0,0,0,0,0,0,0,0,0,-1,1700,1275,0,0
483,-251,0,0,0,0,0,0,0,0,0,-1,1707,1275,0,0
490,-251,0,0,0,0,0,0,0,0,0,-1,1714,1275,0,0
497,-251,0,0,0,0,0,0,0,0,0,-1,1721,1275,0,0
504,-251,0,0,0,0,0,0,0,0,0,-1,1728,1275,0,0
511,-251,0,0,0,0,0,0,0,0,0,-1,1735,1275,0,0
518,-251,0,0,0,0,0,0,0,0,0,-1,1742,1275,0,0
525,-251,0,0,0,0,0,0,0,0,0,-1,1749,1275,0,0
532,-251,0,0,0,0,0,0,0,0,0,-1,1756,1275,0,0
539,-251,0,0,0,0,0,0,0,0,0,-1,1763,1275,0,0
546,-251,0,0,0,0,0,0,0,0,0,-1,1770,1275,0,0
553,-251,0,0,0,0,0,0,0,0,0,-1,1777,1275,0,0
560,-251,0,0,0,0,0,0,0,0,0,-1,1784,1275,0,0
567,-251,0,0,0,0,0,0,0,0,0,-1,1791,1275,0,0
574,-251,0,0,0,0,0,0,0,0,0,-1,1798,1275,0,0
581,-251,0,0,0,0,0,0,0,0,0,-1,1805,1275,0,0
588,-251,0,0,0,0,0,0,0,0,0,-1,1812,1275,0,0
595,-251,0,0,0,0,0,0,0,0,0,-1,1819,1275,0,0
602,-251,0,0,0,0,0,0,0,0,0,-1,1826,1275,0,0
609,-251,67.0482,2.25061,-0.00402364,-0.00400177,0.00400188,-1.08182e-05,-0.0080146,0.786764,0.00533946,0.0306334,1833,1275,67.0483,-2.25066
616,-251,66.9458,2.27063,-0.00456403,0.00400242,0.000232368,0.00400872,-0.00457033,1.5437,0.00495665,0.024836,1840,1275,66.9457,-2.27065
623,-251,66.9508,2.35522,-0.0049699,0.0117422,-0.0035411,0.0124615,-0.00568925,-1.37038,0.0107197,0.0202345,1847,1275,66.9508,-2.35522
630,-251,66.9963,2.38062,-0.0048986,0.0170829,-0.00634893,0.0187849,-0.00660057,-1.30888,0.0152087,0.0329162,1854,1275,66.9964,-2.38062
637,-251,67.0104,2.23022,-0.00374863,0.015857,-0.00620053,0.0176534,-0.00554502,-1.2888,0.0139886,0.0391067,1861,1275,67.0103,-2.23028
644,-251,66.9722,1.62012,-0.00263617,0.0129176,-0.00519074,0.0144908,-0.00420935,-1.27652,0.0113274,0.0439846,1868,1275,66.9721,-1.62008
651,-251,66.9945,1.38245,0,0,0,0,0,0,0,-1,1875,1275,66.9945,-1.38246
658,-251,64.3931,2.57288,0,0,0,0,0,0,0,-1,1882,1275,64.393,-2.57287
665,-251,32.9579,2.60229,0,0,0,0,0,0,0,-1,1889,1275,32.9579,-2.60231
672,-251,26.0721,4.53064,0,0,0,0,0,0,0,-1,1896,1275,26.0721,-4.53063
679,-251,29.1344,8.63782,0,0,0,0,0,0,0,-1,1903,1275,29.1344,-8.63778
686,-251,49.192,13.0186,0,0,0,0,0,0,0,-1,1910,1275,49.192,-13.0186
693,-251,49.0851,12.4314,0.000978304,0.00200393,-0.0016637,0.00323206,-0.000249824,-0.934896,0.00224263,0.0262084,1917,1275,49.0851,-12.4313
700,-251,49.0502,11.7716,0.00145027,-0.000343238,-0.000562426,0.00161205,-0.000505017,-0.280082,0.00127678,0.0096814,1924,1275,49.0502,-11.7716
707,-251,49.0383,11.0854,0.00079769,-0.000585412,2.34997e-05,0.000798089,-0.000585811,0.016984,0.000802123,0.0113394,1931,1275,49.0383,-11.0854
714,-251,49.0381,10.4279,-0.000169295,-0.000613213,0.000811015,0.000449586,-0.00123209,0.651828,0.00100534,0.0157326,1938,1275,49.0381,-10.4278
721,-251,48.9415,9.83704,-0.00120456,-0.000668294,0.00164872,0.000733953,-0.00260681,0.866008,0.0020273,0.0239403,1945,1275,48.9415,-9.83704
728,-251,48.9115,9.24475,-0.00235302,-0.000575093,0.00253608,0.00122331,-0.00415142,0.95397,0.00325298,0.0289087,1952,1275,48.9114,-9.24481
735,-251,48.9016,8.47485,-0.00355144,-0.000537401,0.00350163,0.00176773,-0.00585658,0.988606,0.00460807,0.0231349,1959,1275,48.9016,-8.47486
742,-251,48.8275,7.92078,-0.00478964,-0.000567419,0.00458462,0.00236879,-0.00772586,1.00116,0.00609557,0.0191909,1966,1275,48.8276,-7.92072
749,-251,48.5596,7.48962,-0.00605378,-0.000617272,0.0057859,0.00305709,-0.00972814,1.005,0.00770922,0.0384879,1973,1275,48.5595,-7.48956
756,-251,48.2916,6.95239,0,0,0,0,0,0,0,-1,1980,1275,48.2916,-6.95239
763,-251,43.3652,5.7583,0,0,0,0,0,0,0,-1,1987,1275,43.3653,-5.75827
770,-251,49.4386,3.45508,0,0,0,0,0,0,0,-1,1994,1275,49.4386,-3.4551
777,-251,31.5731,4.33252,0,0,0,0,0,0,0,-1,2001,1275,31.5731,-4.33251
784,-251,32.0776,5.78247,0,0,0,0,0,0,0,-1,2008,1275,32.0776,-5.78247
791,-251,0,0,0,0,0,0,0,0,0,-1,2015,1275,0,0
798,-251,0,0,0,0,0,0,0,0,0,-1,2022,1275,0,0
805,-251,0,0,0,0,0,0,0,0,0,-1,2029,1275,0,0
812,-251,0,0,0,0,0,0,0,0,0,-1,2036,1275,0,0
-700,-258,0,0,0,0,0,0,0,0,0,-1,524,1282,0,0
-693,-258,0,0,0,0,0,0,0,0,0,-1,531,1282,0,0
-686,-258,0,0,0,0,0,0,0,0,0,-1,538,1282,0,0
-679,-258,0,0,0,0,0,0,0,0,0,-1,545,1282,0,0
-672,-258,0,0,0,0,0,0,0,0,0,-1,552,1282,0,0
-665,-258,-44.8717,2.03601,0,0,0,0,0,0,0,-1,559,1282,-44.8717,-2.03603
-658,-258,-45.2628,1.20544,0,0,0,0,0,0,0,-1,566,1282,-45.2627,-1.20545
-651,-258,-45.5418,0.0863037,0,0,0,0,0,0,0,-1,573,1282,-45.5418,-0.0863288
-644,-258,-45.1855,0.336792,0,0,0,0,0,0,0,-1,580,1282,-45.1855,-0.336733
-637,-258,-45.329,0.234253,0,0,0,0,0,0,0,-1,587,1282,-45.329,-0.234296
-630,-258,-45.3398,-0.102051,0,0,0,0,0,0,0,-1,594,1282,-45.3399,0.102042
-623,-258,-32.3589,4.39026,0,0,0,0,0,0,0,-1,601,1282,-32.359,-4.39029
-616,-258,-32.0725,5.13269,-0.00233498,0.00693235,0.00919047,0.0125912,-0.00799381,1.01889,0.0119831,0.035857,608,1282,-32.0725,-5.13269
-609,-258,-32.2407,5.99512,-0.00166512,0.00534946,0.00652296,0.00924826,-0.00556391,1.03207,0.00863955,0.0175097,615,1282,-32.2407,-5.99513
-602,-258,-32.2704,6.70581,-0.00102919,0.00375266,0.00446986,0.00643087,-0.00370741,1.03099,0.00592332,0.0139051,622,1282,-32.2704,-6.70579
-595,-258,-32.295,7.39734,-0.000456074,0.00227502,0.00278624,0.00401235,-0.0021934,1.01325,0.00363383,0.0119173,629,1282,-32.295,-7.39737
-588,-258,-32.342,8.10657,5.73135e-05,0.000883502,0.00142212,0.00195131,-0.0010105,0.926747,0.00173852,0.0126253,636,1282,-32.342,-8.10652
-581,-258,-32.3694,8.80762,0.000490587,-0.000399448,0.000305382,0.00058529,-0.000494151,0.30071,0.000623956,0.0149759,643,1282,-32.3694,-8.80759
-574,-258,-32.3772,9.51501,0.000876841,-0.00152705,-0.000609686,0.00102263,-0.00167284,-0.234715,0.00157125,0.015427,650,1282,-32.3772,-9.51507
-567,-258,-32.4697,10.2136,0.00116545,-0.00215413,-0.00122146,0.00156645,-0.00255513,-0.317213,0.00240231,0.0166082,657,1282,-32.4697,-10.2136
-560,-258,-32.5344,10.9008,0.00143989,-0.00235856,-0.0013643,0.00187912,-0.00279779,-0.311466,0.00271752,0.0498702,664,1282,-32.5344,-10.9007
-553,-258,-32.5081,11.6642,0,0,0,0,0,0,0,-1,671,1282,-32.5081,-11.6641
-546,-258,-14.2231,5.92029,0,0,0,0,0,0,0,-1,678,1282,-14.2231,-5.92028
-539,-258,-10.2228,4.05823,0,0,0,0,0,0,0,-1,685,1282,-10.2228,-4.05823
-532,-258,-10.2173,-0.353882,0,0,0,0,0,0,0,-1,692,1282,-10.2173,0.353836
-525,-258,-21.8661,-1.5929,0,0,0,0,0,0,0,-1,699,1282,-21.8661,1.59285
-518,-258,-29.2484,0.123169,0,0,0,0,0,0,0,-1,706,1282,-29.2484,-0.123186
-511,-258,-23.5061,1.16833,0,0,0,0,0,0,0,-1,713,1282,-23.5061,-1.16833
-504,-258,-22.9178,0.484131,0,0,0,0,0,0,0,-1,720,1282,-22.9178,-0.484106
-497,-258,-17.8047,0.730469,0,0,0,0,0,0,0,-1,727,1282,-17.8048,-0.730489
-490,-258,-15.4346,0.632935,0,0,0,0,0,0,0,-1,734,1282,-15.4346,-0.632917
-483,-258,0,0,0,0,0,0,0,0,0,-1,741,1282,0,0
-476,-258,0,0,0,0,0,0,0,0,0,-1,748,1282,0,0
-469,-258,0,0,0,0,0,0,0,0,0,-1,755,1282,0,0
-462,-258,0,0,0,0,0,0,0,0,0,-1,762,1282,0,0
-455,-258,0,0,0,0,0,0,0,0,0,-1,769,1282,0,0
-448,-258,0,0,0,0,0,0,0,0,0,-1,776,1282,0,0
-441,-258,0,0,0,0,0,0,0,0,0,-1,783,1282,0,0
-434,-258,0,0,0,0,0,0,0,0,0,-1,790,1282,0,0
-427,-258,0,0,0,0,0,0,0,0,0,-1,797,1282,0,0
-420,-258,0,0,0,0,0,0,0,0,0,-1,804,1282,0,0
-413,-258,0,0,0,0,0,0,0,0,0,-1,811,1282,0,0
-406,-258,0,0,0,0,0,0,0,0,0,-1,818,1282,0,0
-399,-258,0,0,0,0,0,0,0,0,0,-1,825,1282,0,0
-392,-258,0,0,0,0,0,0,0,0,0,-1,832,1282,0,0
-385,-258,0,0,0,0,0,0,0,0,0,-1,839,1282,0,0
-378,-258,0,0,0,0,0,0,0,0,0,-1,846,1282,0,0
-371,-258,0,0,0,0,0,0,0,0,0,-1,853,1282,0,0
-364,-258,0,0,0,0,0,0,0,0,0,-1,860,1282,0,0
-357,-258,0,0,0,0,0,0,0,0,0,-1,867,1282,0,0
-350,-258,0,0,0,0,0,0,0,0,0,-1,874,1282,0,0
-343,-258,0,0,0,0,0,0,0,0,0,-1,881,1282,0,0
-336,-258,0,0,0,0,0,0,0,0,0,-1,888,1282,0,0
-329,-258,0,0,0,0,0,0,0,0,0,-1,895,1282,0,0
-322,-258,0,0,0,0,0,0,0,0,0,-1,902,1282,0,0
-315,-258,0,0,0,0,0,0,0,0,0,-1,909,1282,0,0
-308,-258,0,0,0,0,0,0,0,0,0,-1,916,1282,0,0
-301,-258,0,0,0,0,0,0,0,0,0,-1,923,1282,0,0
-294,-258,0,0,0,0,0,0,0,0,0,-1,930,1282,0,0
-287,-258,0,0,0,0,0,0,0,0,0,-1,937,1282,0,0
-280,-258,0,0,0,0,0,0,0,0,0,-1,944,1282,0,0
-273,-258,0,0,0,0,0,0,0,0,0,-1,951,1282,0,0
-266,-258,0,0,0,0,0,0,0,0,0,-1,958,1282,0,0
-259,-258,0,0,0,0,0,0,0,0,0,-1,965,1282,0,0
-252,-258,0,0,0,0,0,0,0,0,0,-1,972,1282,0,0
-245,-258,0,0,0,0,0,0,0,0,0,-1,979,1282,0,0
-238,-258,0,0,0,0,0,0,0,0,0,-1,986,1282,0,0
-231,-258,0,0,0,0,0,0,0,0,0,-1,993,1282,0,0
-224,-258,0,0,0,0,0,0,0,0,0,-1,1000,1282,0,0
-217,-258,0,0,0,0,0,0,0,0,0,-1,1007,1282,0,0
-210,-258,0,0,0,0,0,0,0,0,0,-1,1014,1282,0,0
-203,-258,0,0,0,0,0,0,0,0,0,-1,1021,1282,0,0
-196,-258,0,0,0,0,0,0,0,0,0,-1,1028,1282,0,0
-189,-258,0,0,0,0,0,0,0,0,0,-1,1035,1282,0,0
-182,-258,0,0,0,0,0,0,0,0,0,-1,1042,1282,0,0
-175,-258,0,0,0,0,0,0,0,0,0,-1,1049,1282,0,0
-168,-258,0,0,0,0,0,0,0,0,0,-1,1056,1282,0,0
-161,-258,0,0,0,0,0,0,0,0,0,-1,1063,1282,0,0
-154,-258,0,0,0,0,0,0,0,0,0,-1,1070,1282,0,0
-147,-258,0,0,0,0,0,0,0,0,0,-1,1077,1282,0,0
-140,-258,0,0,0,0,0,0,0,0,0,-1,1084,1282,0,0
-133,-258,0,0,0,0,0,0,0,0,0,-1,1091,1282,0,0
-126,-258,0,0,0,0,0,0,0,0,0,-1,1098,1282,0,0
-119,-258,0,0,0,0,0,0,0,0,0,-1,1105,1282,0,0
-112,-258,0,0,0,0,0,0,0,0,0,-1,1112,1282,0,0
-105,-258,0,0,0,0,0,0,0,0,0,-1,1119,1282,0,0
-98,-258,0,0,0,0,0,0,0,0,0,-1,1126,1282,0,0
-91,-258,0,0,0,0,0,0,0,0,0,-1,1133,1282,0,0
-84,-258,0,0,0,0,0,0,0,0,0,-1,1140,1282,0,0
-77,-258,0,0,0,0,0,0,0,0,0,-1,1147,1282,0,0
-70,-258,0,0,0,0,0,0,0,0,0,-1,1154,1282,0,0
-63,-258,0,0,0,0,0,0,0,0,0,-1,1161,1282,0,0
-56,-258,0,0,0,0,0,0,0,0,0,-1,1168,1282,0,0
-49,-258,0,0,0,0,0,0,0,0,0,-1,1175,1282,0,0
-42,-258,0,0,0,0,0,0,0,0,0,-1,1182,1282,0,0
-35,-258,0,0,0,0,0,0,0,0,0,-1,1189,1282,0,0
-28,-258,0,0,0,0,0,0,0,0,0,-1,1196,1282,0,0
-21,-258,0,0,0,0,0,0,0,0,0,-1,1203,1282,0,0
-14,-258,0,0,0,0,0,0,0,0,0,-1,1210,1282,0,0
-7,-258,0,0,0,0,0,0,0,0,0,-1,1217,1282,0,0
0,-258,0,0,0,0,0,0,0,0,0,-1,1224,1282,0,0
7,-258,0,0,0,0,0,0,0,0,0,-1,1231,1282,0,0
14,-258,0,0,0,0,0,0,0,0,0,-1,1238,1282,0,0
21,-258,0,0,0,0,0,0,0,0,0,-1,1245,1282,0,0
28,-258,0,0,0,0,0,0,0,0,0,-1,1252,1282,0,0
35,-258,0,0,0,0,0,0,0,0,0,-1,1259,1282,0,0
42,-258,0,0,0,0,0,0,0,0,0,-1,1266,1282,0,0
49,-258,0,0,0,0,0,0,0,0,0,-1,1273,1282,0,0
56,-258,0,0,0,0,0,0,0,0,0,-1,1280,1282,0,0
63,-258,0,0,0,0,0,0,0,0,0,-1,1287,1282,0,0
70,-258,0,0,0,0,0,0,0,0,0,-1,1294,1282,0,0
77,-258,0,0,0,0,0,0,0,0,0,-1,1301,1282,0,0
84,-258,0,0,0,0,0,0,0,0,0,-1,1308,1282,0,0
91,-258,0,0,0,0,0,0,0,0,0,-1,1315,1282,0,0
98,-258,0,0,0,0,0,0,0,0,0,-1,1322,1282,0,0
105,-258,0,0,0,0,0,0,0,0,0,-1,1329,1282,0,0
112,-258,0,0,0,0,0,0,0,0,0,-1,1336,1282,0,0
119,-258,0,0,0,0,0,0,0,0,0,-1,1343,1282,0,0
126,-258,0,0,0,0,0,0,0,0,0,-1,1350,1282,0,0
133,-258,0,0,0,0,0,0,0,0,0,-1,1357,1282,0,0
140,-258,0,0,0,0,0,0,0,0,0,-1,1364,1282,0,0
147,-258,0,0,0,0,0,0,0,0,0,-1,1371,1282,0,0
154,-258,0,0,0,0,0,0,0,0,0,-1,1378,1282,0,0
161,-258,0,0,0,0,0,0,0,0,0,-1,1385,1282,0,0
168,-258,0,0,0,0,0,0,0,0,0,-1,1392,1282,0,0
175,-258,0,0,0,0,0,0,0,0,0,-1,1399,1282,0,0
182,-258,0,0,0,0,0,0,0,0,0,-1,1406,1282,0,0
189,-258,0,0,0,0,0,0,0,0,0,-1,1413,1282,0,0
196,-258,0,0,0,0,0,0,0,0,0,-1,1420,1282,0,0
203,-258,0,0,0,0,0,0,0,0,0,-1,1427,1282,0,0
210,-258,0,0,0,0,0,0,0,0,0,-1,1434,1282,0,0
217,-258,0,0,0,0,0,0,0,0,0,-1,1441,1282,0,0
224,-258,0,0,0,0,0,0,0,0,0,-1,1448,1282,0,0
231,-258,0,0,0,0,0,0,0,0,0,-1,1455,1282,0,0
238,-258,0,0,0,0,0,0,0,0,0,-1,1462,1282,0,0
245,-258,0,0,0,0,0,0,0,0,0,-1,1469,1282,0,0
252,-258,0,0,0,0,0,0,0,0,0,-1,1476,1282,0,0
259,-258,0,0,0,0,0,0,0,0,0,-1,1483,1282,0,0
266,-258,0,0,0,0,0,0,0,0,0,-1,1490,1282,0,0
273,-258,0,0,0,0,0,0,0,0,0,-1,1497,1282,0,0
280,-258,0,0,0,0,0,0,0,0,0,-1,1504,1282,0,0
287,-258,0,0,0,0,0,0,0,0,0,-1,1511,1282,0,0
294,-258,0,0,0,0,0,0,0,0,0,-1,1518,1282,0,0
301,-258,0,0,0,0,0,0,0,0,0,-1,1525,1282,0,0
308,-258,0,0,0,0,0,0,0,0,0,-1,1532,1282,0,0
315,-258,0,0,0,0,0,0,0,0,0,-1,1539,1282,0,0
322,-258,0,0,0,0,0,0,0,0,0,-1,1546,1282,0,0
329,-258,0,0,0,0,0,0,0,0,0,-1,1553,1282,0,0
336,-258,0,0,0,0,0,0,0,0,0,-1,1560,1282,0,0
343,-258,0,0,0,0,0,0,0,0,0,-1,1567,1282,0,0
350,-258,0,0,0,0,0,0,0,0,0,-1,1574,1282,0,0
357,-258,0,0,0,0,0,0,0,0,0,-1,1581,1282,0,0
364,-258,0,0,0,0,0,0,0,0,0,-1,1588,1282,0,0
371,-258,0,0,0,0,0,0,0,0,0,-1,1595,1282,0,0
378,-258,0,0,0,0,0,0,0,0,0,-1,1602,1282,0,0
385,-258,0,0,0,0,0,0,0,0,0,-1,1609,1282,0,0
392,-258,0,0,0,0,0,0,0,0,0,-1,1616,1282,0,0
399,-258,0,0,0,0,0,0,0,0,0,-1,1623,1282,0,0
406,-258,0,0,0,0,0,0,0,0,0,-1,1630,1282,0,0
413,-258,0,0,0,0,0,0,0,0,0,-1,1637,1282,0,0
420,-258,0,0,0,0,0,0,0,0,0,-1,1644,1282,0,0
427,-258,0,0,0,0,0,0,0,0,0,-1,1651,1282,0,0
434,-258,0,0,0,0,0,0,0,0,0,-1,1658,1282,0,0
441,-258,0,0,0,0,0,0,0,0,0,-1,1665,1282,0,0
448,-258,0,0,0,0,0,0,0,0,0,-1,1672,1282,0,0
455,-258,0,0,0,0,0,0,0,0,0,-1,1679,1282,0,0
462,-258,0,0,0,0,0,0,0,0,0,-1,1686,1282,0,0
469,-258,0,0,0,0,0,0,0,0,0,-1,1693,1282,0,0
476,-258,0,0,0,0,0,0,0,0,0,-1,1700,1282,0,0
483,-258,0,0,0,0,0,0,0,0,0,-1,1707,1282,0,0
490,-258,0,0,0,0,0,0,0,0,0,-1,1714,1282,0,0
497,-258,0,0,0,0,0,0,0,0,0,-1,1721,1282,0,0
504,-258,0,0,0,0,0,0,0,0,0,-1,1728,1282,0,0
511,-258,0,0,0,0,0,0,0,0,0,-1,1735,1282,0,0
518,-258,0,0,0,0,0,0,0,0,0,-1,1742,1282,0,0
525,-258,0,0,0,0,0,0,0,0,0,-1,1749,1282,0,0
532,-258,0,0,0,0,0,0,0,0,0,-1,1756,1282,0,0
539,-258,0,0,0,0,0,0,0,0,0,-1,1763,1282,0,0
546,-258,0,0,0,0,0,0,0,0,0,-1,1770,1282,0,0
553,-258,0,0,0,0,0,0,0,0,0,-1,1777,1282,0,0
560,-258,0,0,0,0,0,0,0,0,0,-1,1784,1282,0,0
567,-258,0,0,0,0,0,0,0,0,0,-1,1791,1282,0,0
574,-258,0,0,0,0,0,0,0,0,0,-1,1798,1282,0,0
581,-258,0,0,0,0,0,0,0,0,0,-1,1805,1282,0,0
588,-258,0,0,0,0,0,0,0,0,0,-1,1812,1282,0,0
595,-258,0,0,0,0,0,0,0,0,0,-1,1819,1282,0,0
602,-258,0,0,0,0,0,0,0,0,0,-1,1826,1282,0,0
609,-258,67.0437,2.3064,-0.00512996,0.000813031,0.00101778,0.000982501,-0.00529943,1.4058,0.00390191,0.0270118,1833,1282,67.0437,-2.30638
616,-258,66.9305,2.30798,-0.00558223,0.00966331,-0.00297653,0.0102238,-0.00614276,-1.38466,0.00954668,0.0244919,1840,1282,66.9306,-2.308
623,-258,66.9034,2.32495,-0.00570086,0.0169969,-0.00639974,0.018677,-0.00738093,-1.31407,0.0155086,0.0330811,1847,1282,66.9035,-2.325
630,-258,66.8075,2.14368,-0.00519224,0.0197736,-0.00778051,0.0219999,-0.00741849,-1.29211,0.0176665,0.0451058,1854,1282,66.8074,-2.14368
637,-258,66.9346,2.02234,-0.00384568,0.0165141,-0.00657397,0.0184523,-0.00578384,-1.28409,0.014616,0.0463203,1861,1282,66.9346,-2.02236
644,-258,67.0886,1.92078,0,0,0,0,0,0,0,-1,1868,1282,67.0886,-1.9208
651,-258,66.6749,1.84326,0,0,0,0,0,0,0,-1,1875,1282,66.6749,-1.84326
658,-258,45.4424,3.1405,0,0,0,0,0,0,0,-1,1882,1282,45.4423,-3.14046
665,-258,35.4747,1.1864,0,0,0,0,0,0,0,-1,1889,1282,35.4747,-1.18637
672,-258,22.703,2.80957,0,0,0,0,0,0,0,-1,1896,1282,22.703,-2.80962
679,-258,26.8693,8.19543,0,0,0,0,0,0,0,-1,1903,1282,26.8692,-8.19548
686,-258,48.5585,13.1683,0,0,0,0,0,0,0,-1,1910,1282,48.5585,-13.1683
693,-258,48.4552,12.4796,0.0011932,0.00205753,-0.00172919,0.00340774,-0.000157014,-0.90785,0.00232593,0.0198483,1917,1282,48.4552,-12.4796
700,-258,48.3947,11.7953,0.00155987,-0.000334811,-0.00054999,0.00170795,-0.00048289,-0.263003,0.00132916,0.00941253,1924,1282,48.3946,-11.7952
707,-258,48.3843,11.1272,0.000806131,-0.000510225,9.50936e-05,0.000812965,-0.000517059,0.0717436,0.000774199,0.0110637,1931,1282,48.3843,-11.1272
714,-258,48.3622,10.4786,-0.000217385,-0.000523172,0.00090968,0.00055216,-0.00129272,0.702139,0.00109337,0.0125706,1938,1282,48.3622,-10.4787
721,-258,48.3118,9.81494,-0.00133423,-0.000563204,0.00176637,0.00085923,-0.00275666,0.892839,0.00218134,0.0219595,1945,1282,48.3117,-9.81499
728,-258,48.2329,9.20813,-0.00257018,-0.000541514,0.00267878,0.00130854,-0.00442023,0.966383,0.00346634,0.0215805,1952,1282,48.2329,-9.20818
735,-258,48.2512,8.51941,-0.00389698,-0.000566543,0.00367443,0.00180239,-0.00626592,0.99815,0.00489008,0.0183123,1959,1282,48.2512,-8.51946
742,-258,48.2344,7.90967,-0.00530761,-0.000677375,0.00479194,0.00232939,-0.00831438,1.01043,0.0064609,0.0190287,1966,1282,48.2344,-7.90969
749,-258,48.0419,7.40515,-0.0068353,-0.000809515,0.00602919,0.00291767,-0.0105625,1.01711,0.00818934,0.0418871,1973,1282,48.0419,-7.40513
756,-258,47.8287,6.76587,0,0,0,0,0,0,0,-1,1980,1282,47.8288,-6.76592
763,-258,39.3638,5.09753,0,0,0,0,0,0,0,-1,1987,1282,39.3638,-5.09751
770,-258,40.3713,4.08325,0,0,0,0,0,0,0,-1,1994,1282,40.3713,-4.08323
777,-258,31.912,4.83093,0,0,0,0,0,0,0,-1,2001,1282,31.912,-4.8309
784,-258,32.6525,6.43091,0,0,0,0,0,0,0,-1,2008,1282,32.6525,-6.43091
791,-258,0,0,0,0,0,0,0,0,0,-1,2015,1282,0,0
798,-258,0,0,0,0,0,0,0,0,0,-1,2022,1282,0,0
805,-258,0,0,0,0,0,0,0,0,0,-1,2029,1282,0,0
812,-258,0,0,0,0,0,0,0,0,0,-1,2036,1282,0,0
-700,-265,0,0,0,0,0,0,0,0,0,-1,524,1289,0,0
-693,-265,0,0,0,0,0,0,0,0,0,-1,531,1289,0,0
-686,-265,0,0,0,0,0,0,0,0,0,-1,538,1289,0,0
-679,-265,0,0,0,0,0,0,0,0,0,-1,545,1289,0,0
-672,-265,0,0,0,0,0,0,0,0,0,-1,552,1289,0,0
-665,-265,-44.553,1.771,0,0,0,0,0,0,0,-1,559,1289,-44.553,-1.77096
-658,-265,-44.9351,1.32117,0,0,0,0,0,0,0,-1,566,1289,-44.9351,-1.32118
-651,-265,-44.821,1.0614,0,0,0,0,0,0,0,-1,573,1289,-44.821,-1.06141
-644,-265,-44.4684,0.304932,0,0,0,0,0,0,0,-1,580,1289,-44.4684,-0.304991
-637,-265,-44.6157,0.250122,0,0,0,0,0,0,0,-1,587,1289,-44.6157,-0.250067
-630,-265,-44.5689,0.900269,0,0,0,0,0,0,0,-1,594,1289,-44.5689,-0.900302
-623,-265,-30.7225,3.67676,0,0,0,0,0,0,0,-1,601,1289,-30.7225,-3.67678
-616,-265,-31.1645,4.79187,-0.00201345,0.00766183,0.0109263,0.0147735,-0.00912512,0.993804,0.0139257,0.0469616,608,1289,-31.1645,-4.79193
-609,-265,-31.5508,6.00378,-0.0013499,0.00593092,0.00777476,0.0108753,-0.00629433,1.00435,0.0100298,0.0200303,615,1289,-31.5509,-6.00378
-602,-265,-31.5694,6.7384,-0.000743904,0.00424993,0.00543893,0.00773771,-0.00423168,1.00059,0.00700865,0.0150812,622,1289,-31.5694,-6.73846
-595,-265,-31.5875,7.44934,-0.000203955,0.00272964,0.00357852,0.00513031,-0.00260462,0.9799,0.00454443,0.0129976,629,1289,-31.5874,-7.44933
-588,-265,-31.6231,8.14453,0.000264177,0.00134329,0.00211638,0.00298781,-0.00138035,0.91021,0.00257825,0.0114729,636,1289,-31.6231,-8.14448
-581,-265,-31.6657,8.84546,0.000688333,3.09722e-05,0.000975915,0.00138943,-0.000670125,0.622968,0.00121302,0.0130148,643,1289,-31.6657,-8.84544
-574,-265,-31.7201,9.58057,0.0011081,-0.00122902,0.0001285,0.00111514,-0.00123606,0.0547621,0.00135807,0.0141695,650,1289,-31.7201,-9.58061
-567,-265,-31.7877,10.2887,0.00158223,-0.00245598,-0.000422516,0.00162597,-0.00249972,-0.103141,0.00239971,0.0194072,657,1289,-31.7877,-10.2887
-560,-265,-31.8185,10.9722,0.00225414,-0.00332779,-0.000729458,0.00234789,-0.00342154,-0.127823,0.00335015,0.0266904,664,1289,-31.8185,-10.9722
-553,-265,-31.8282,11.6749,0,0,0,0,0,0,0,-1,671,1289,-31.8283,-11.6749
-546,-265,-24.2283,10.2581,0,0,0,0,0,0,0,-1,678,1289,-24.2283,-10.258
-539,-265,-13.7668,6.39917,0,0,0,0,0,0,0,-1,685,1289,-13.7668,-6.39915
-532,-265,-8.53998,3.41467,0,0,0,0,0,0,0,-1,692,1289,-8.53996,-3.41473
-525,-265,-12.1317,0.514648,0,0,0,0,0,0,0,-1,699,1289,-12.1317,-0.514634
-518,-265,-24.1604,0.712402,0,0,0,0,0,0,0,-1,706,1289,-24.1604,-0.712425
-511,-265,-23.233,0.791626,0,0,0,0,0,0,0,-1,713,1289,-23.233,-0.791617
-504,-265,-22.3056,0.87085,0,0,0,0,0,0,0,-1,720,1289,-22.3056,-0.87081
-497,-265,-18.689,-0.278442,0,0,0,0,0,0,0,-1,727,1289,-18.689,0.278423
-490,-265,-15.1696,0.492676,0,0,0,0,0,0,0,-1,734,1289,-15.1696,-0.492688
-483,-265,0,0,0,0,0,0,0,0,0,-1,741,1289,0,0
-476,-265,0,0,0,0,0,0,0,0,0,-1,748,1289,0,0
-469,-265,0,0,0,0,0,0,0,0,0,-1,755,1289,0,0
-462,-265,0,0,0,0,0,0,0,0,0,-1,762,1289,0,0
-455,-265,0,0,0,0,0,0,0,0,0,-1,769,1289,0,0
-448,-265,0,0,0,0,0,0,0,0,0,-1,776,1289,0,0
-441,-265,0,0,0,0,0,0,0,0,0,-1,783,1289,0,0
-434,-265,0,0,0,0,0,0,0,0,0,-1,790,1289,0,0
-427,-265,0,0,0,0,0,0,0,0,0,-1,797,1289,0,0
-420,-265,0,0,0,0,0,0,0,0,0,-1,804,1289,0,0
-413,-265,0,0,0,0,0,0,0,0,0,-1,811,1289,0,0
-406,-265,0,0,0,0,0,0,0,0,0,-1,818,1289,0,0
-399,-265,0,0,0,0,0,0,0,0,0,-1,825,1289,0,0
-392,-265,0,0,0,0,0,0,0,0,0,-1,832,1289,0,0
-385,-265,0,0,0,0,0,0,0,0,0,-1,839,1289,0,0
-378,-265,0,0,0,0,0,0,0,0,0,-1,846,1289,0,0
-371,-265,0,0,0,0,0,0,0,0,0,-1,853,1289,0,0
-364,-265,0,0,0,0,0,0,0,0,0,-1,860,1289,0,0
-357,-265,0,0,0,0,0,0,0,0,0,-1,867,1289,0,0
-350,-265,0,0,0,0,0,0,0,0,0,-1,874,1289,0,0
-343,-265,0,0,0,0,0,0,0,0,0,-1,881,1289,0,0
-336,-265,0,0,0,0,0,0,0,0,0,-1,888,1289,0,0
-329,-265,0,0,0,0,0,0,0,0,0,-1,895,1289,0,0
-322,-265,0,0,0,0,0,0,0,0,0,-1,902,1289,0,0
-315,-265,0,0,0,0,0,0,0,0,0,-1,909,1289,0,0
-308,-265,0,0,0,0,0,0,0,0,0,-1,916,1289,0,0
-301,-265,0,0,0,0,0,0,0,0,0,-1,923,1289,0,0
-294,-265,0,0,0,0,0,0,0,0,0,-1,930,1289,0,0
-287,-265,0,0,0,0,0,0,0,0,0,-1,937,1289,0,0
-280,-265,0,0,0,0,0,0,0,0,0,-1,944,1289,0,0
-273,-265,0,0,0,0,0,0,0,0,0,-1,951,1289,0,0
-266,-265,0,0,0,0,0,0,0,0,0,-1,958,1289,0,0
-259,-265,0,0,0,0,0,0,0,0,0,-1,965,1289,0,0
-252,-265,0,0,0,0,0,0,0,0,0,-1,972,1289,0,0
-245,-265,0,0,0,0,0,0,0,0,0,-1,979,1289,0,0
-238,-265,0,0,0,0,0,0,0,0,0,-1,986,1289,0,0
-231,-265,0,0,0,0,0,0,0,0,0,-1,993,1289,0,0
-224,-265,0,0,0,0,0,0,0,0,0,-1,1000,1289,0,0
-217,-265,0,0,0,0,0,0,0,0,0,-1,1007,1289,0,0
-210,-265,0,0,0,0,0,0,0,0,0,-1,1014,1289,0,0
-203,-265,0,0,0,0,0,0,0,0,0,-1,1021,1289,0,0
-196,-265,0,0,0,0,0,0,0,0,0,-1,1028,1289,0,0
-189,-265,0,0,0,0,0,0,0,0,0,-1,1035,1289,0,0
-182,-265,0,0,0,0,0,0,0,0,0,-1,1042,1289,0,0
-175,-265,0,0,0,0,0,0,0,0,0,-1,1049,1289,0,0
-168,-265,0,0,0,0,0,0,0,0,0,-1,1056,1289,0,0
-161,-265,0,0,0,0,0,0,0,0,0,-1,1063,1289,0,0
-154,-265,0,0,0,0,0,0,0,0,0,-1,1070,1289,0,0
-147,-265,0,0,0,0,0,0,0,0,0,-1,1077,1289,0,0
-140,-265,0,0,0,0,0,0,0,0,0,-1,1084,1289,0,0
-133,-265,0,0,0,0,0,0,0,0,0,-1,1091,1289,0,0
-126,-265,0,0,0,0,0,0,0,0,0,-1,1098,1289,0,0
-119,-265,0,0,0,0,0,0,0,0,0,-1,1105,1289,0,0
-112,-265,0,0,0,0,0,0,0,0,0,-1,1112,1289,0,0
-105,-265,0,0,0,0,0,0,0,0,0,-1,1119,1289,0,0
-98,-265,0,0,0,0,0,0,0,0,0,-1,1126,1289,0,0
-91,-265,0,0,0,0,0,0,0,0,0,-1,1133,1289,0,0
-84,-265,0,0,0,0,0,0,0,0,0,-1,1140,1289,0,0
-77,-265,0,0,0,0,0,0,0,0,0,-1,1147,1289,0,0
-70,-265,0,0,0,0,0,0,0,0,0,-1,1154,1289,0,0
-63,-265,0,0,0,0,0,0,0,0,0,-1,1161,1289,0,0
-56,-265,0,0,0,0,0,0,0,0,0,-1,1168,1289,0,0
-49,-265,0,0,0,0,0,0,0,0,0,-1,1175,1289,0,0
-42,-265,0,0,0,0,0,0,0,0,0,-1,1182,1289,0,0
-35,-265,0,0,0,0,0,0,0,0,0,-1,1189,1289,0,0
-28,-265,0,0,0,0,0,0,0,0,0,-1,1196,1289,0,0
-21,-265,0,0,0,0,0,0,0,0,0,-1,1203,1289,0,0
-14,-265,0,0,0,0,0,0,0,0,0,-1,1210,1289,0,0
-7,-265,0,0,0,0,0,0,0,0,0,-1,1217,1289,0,0
0,-265,0,0,0,0,0,0,0,0,0,-1,1224,1289,0,0
7,-265,0,0,0,0,0,0,0,0,0,-1,1231,1289,0,0
14,-265,0,0,0,0,0,0,0,0,0,-1,1238,1289,0,0
21,-265,0,0,0,0,0,0,0,0,0,-1,1245,1289,0,0
28,-265,0,0,0,0,0,0,0,0,0,-1,1252,1289,0,0
35,-265,0,0,0,0,0,0,0,0,0,-1,1259,1289,0,0
42,-265,0,0,0,0,0,0,0,0,0,-1,1266,1289,0,0
49,-265,0,0,0,0,0,0,0,0,0,-1,1273,1289,0,0
56,-265,0,0,0,0,0,0,0,0,0,-1,1280,1289,0,0
63,-265,0,0,0,0,0,0,0,0,0,-1,1287,1289,0,0
70,-265,0,0,0,0,0,0,0,0,0,-1,1294,1289,0,0
77,-265,0,0,0,0,0,0,0,0,0,-1,1301,1289,0,0
84,-265,0,0,0,0,0,0,0,0,0,-1,1308,1289,0,0
91,-265,0,0,0,0,0,0,0,0,0,-1,1315,1289,0,0
98,-265,0,0,0,0,0,0,0,0,0,-1,1322,1289,0,0
105,-265,0,0,0,0,0,0,0,0,0,-1,1329,1289,0,0
112,-265,0,0,0,0,0,0,0,0,0,-1,1336,1289,0,0
119,-265,0,0,0,0,0,0,0,0,0,-1,1343,1289,0,0
126,-265,0,0,0,0,0,0,0,0,0,-1,1350,1289,0,0
133,-265,0,0,0,0,0,0,0,0,0,-1,1357,1289,0,0
140,-265,0,0,0,0,0,0,0,0,0,-1,1364,1289,0,0
147,-265,0,0,0,0,0,0,0,0,0,-1,1371,1289,0,0
154,-265,0,0,0,0,0,0,0,0,0,-1,1378,1289,0,0
161,-265,0,0,0,0,0,0,0,0,0,-1,1385,1289,0,0
168,-265,0,0,0,0,0,0,0,0,0,-1,1392,1289,0,0
175,-265,0,0,0,0,0,0,0,0,0,-1,1399,1289,0,0
182,-265,0,0,0,0,0,0,0,0,0,-1,1406,1289,0,0
189,-265,0,0,0,0,0,0,0,0,0,-1,1413,1289,0,0
196,-265,0,0,0,0,0,0,0,0,0,-1,1420,1289,0,0
203,-265,0,0,0,0,0,0,0,0,0,-1,1427,1289,0,0
210,-265,0,0,0,0,0,0,0,0,0,-1,1434,1289,0,0
217,-265,0,0,0,0,0,0,0,0,0,-1,1441,1289,0,0
224,-265,0,0,0,0,0,0,0,0,0,-1,1448,1289,0,0
231,-265,0,0,0,0,0,0,0,0,0,-1,1455,1289,0,0
238,-265,0,0,0,0,0,0,0,0,0,-1,1462,1289,0,0
245,-265,0,0,0,0,0,0,0,0,0,-1,1469,1289,0,0
252,-265,0,0,0,0,0,0,0,0,0,-1,1476,1289,0,0
259,-265,0,0,0,0,0,0,0,0,0,-1,1483,1289,0,0
266,-265,0,0,0,0,0,0,0,0,0,-1,1490,1289,0,0
273,-265,0,0,0,0,0,0,0,0,0,-1,1497,1289,0,0
280,-265,0,0,0,0,0,0,0,0,0,-1,1504,1289,0,0
287,-265,0,0,0,0,0,0,0,0,0,-1,1511,1289,0,0
294,-265,0,0,0,0,0,0,0,0,0,-1,1518,1289,0,0
301,-265,0,0,0,0,0,0,0,0,0,-1,1525,1289,0,0
308,-265,0,0,0,0,0,0,0,0,0,-1,1532,1289,0,0
315,-265,0,0,0,0,0,0,0,0,0,-1,1539,1289,0,0
322,-265,0,0,0,0,0,0,0,0,0,-1,1546,1289,0,0
329,-265,0,0,0,0,0,0,0,0,0,-1,1553,1289,0,0
336,-265,0,0,0,0,0,0,0,0,0,-1,1560,1289,0,0
343,-265,0,0,0,0,0,0,0,0,0,-1,1567,1289,0,0
350,-265,0,0,0,0,0,0,0,0,0,-1,1574,1289,0,0
357,-265,0,0,0,0,0,0,0,0,0,-1,1581,1289,0,0
364,-265,0,0,0,0,0,0,0,0,0,-1,1588,1289,0,0
371,-265,0,0,0,0,0,0,0,0,0,-1,1595,1289,0,0
378,-265,0,0,0,0,0,0,0,0,0,-1,1602,1289,0,0
385,-265,0,0,0,0,0,0,0,0,0,-1,1609,1289,0,0
392,-265,0,0,0,0,0,0,0,0,0,-1,1616,1289,0,0
399,-265,0,0,0,0,0,0,0,0,0,-1,1623,1289,0,0
406,-265,0,0,0,0,0,0,0,0,0,-1,1630,1289,0,0
413,-265,0,0,0,0,0,0,0,0,0,-1,1637,1289,0,0
420,-265,0,0,0,0,0,0,0,0,0,-1,1644,1289,0,0
427,-265,0,0,0,0,0,0,0,0,0,-1,1651,1289,0,0
434,-265,0,0,0,0,0,0,0,0,0,-1,1658,1289,0,0
441,-265,0,0,0,0,0,0,0,0,0,-1,1665,1289,0,0
448,-265,0,0,0,0,0,0,0,0,0,-1,1672,1289,0,0
455,-265,0,0,0,0,0,0,0,0,0,-1,1679,1289,0,0
462,-265,0,0,0,0,0,0,0,0,0,-1,1686,1289,0,0
469,-265,0,0,0,0,0,0,0,0,0,-1,1693,1289,0,0
476,-265,0,0,0,0,0,0,0,0,0,-1,1700,1289,0,0
483,-265,0,0,0,0,0,0,0,0,0,-1,1707,1289,0,0
490,-265,0,0,0,0,0,0,0,0,0,-1,1714,1289,0,0
497,-265,0,0,0,0,0,0,0,0,0,-1,1721,1289,0,0
504,-265,0,0,0,0,0,0,0,0,0,-1,1728,1289,0,0
511,-265,0,0,0,0,0,0,0,0,0,-1,1735,1289,0,0
518,-265,0,0,0,0,0,0,0,0,0,-1,1742,1289,0,0
525,-265,0,0,0,0,0,0,0,0,0,-1,1749,1289,0,0
532,-265,0,0,0,0,0,0,0,0,0,-1,1756,1289,0,0
539,-265,0,0,0,0,0,0,0,0,0,-1,1763,1289,0,0
546,-265,0,0,0,0,0,0,0,0,0,-1,1770,1289,0,0
553,-265,0,0,0,0,0,0,0,0,0,-1,1777,1289,0,0
560,-265,0,0,0,0,0,0,0,0,0,-1,1784,1289,0,0
567,-265,0,0,0,0,0,0,0,0,0,-1,1791,1289,0,0
574,-265,0,0,0,0,0,0,0,0,0,-1,1798,1289,0,0
581,-265,0,0,0,0,0,0,0,0,0,-1,1805,1289,0,0
588,-265,0,0,0,0,0,0,0,0,0,-1,1812,1289,0,0
595,-265,0,0,0,0,0,0,0,0,0,-1,1819,1289,0,0
602,-265,66.9476,2.31616,-0.0055851,-0.00278169,0.00135968,-0.00223057,-0.00613622,1.18571,0.00358648,0.028531,1826,1289,66.9476,-2.31614
609,-265,66.9106,2.25891,-0.00610626,0.00701486,-0.00273217,0.00756104,-0.00665243,-1.37349,0.00821174,0.0295427,1833,1289,66.9106,-2.25894
616,-265,66.8964,2.30701,-0.0064388,0.0159998,-0.00662181,0.0178082,-0.0082472,-1.3042,0.015377,0.0353999,1840,1289,66.8964,-2.30704
623,-265,66.8506,1.98376,-0.00598038,0.0200465,-0.00832583,0.022482,-0.00841586,-1.28622,0.0184448,0.0493011,1847,1289,66.8506,-1.98375
630,-265,66.7269,1.8656,-0.00506223,0.0195188,-0.00796978,0.0218767,-0.00742006,-1.28315,0.0175875,0.0491104,1854,1289,66.7269,-1.86563
637,-265,66.8754,1.91577,0,0,0,0,0,0,0,-1,1861,1289,66.8754,-1.91575
644,-265,66.7095,2.01782,0,0,0,0,0,0,0,-1,1868,1289,66.7095,-2.01778
651,-265,53.6781,1.57166,0,0,0,0,0,0,0,-1,1875,1289,53.6781,-1.57167
658,-265,41.7163,3.71619,0,0,0,0,0,0,0,-1,1882,1289,41.7163,-3.71624
665,-265,34.7902,1.43164,0,0,0,0,0,0,0,-1,1889,1289,34.7901,-1.43162
672,-265,20.0045,6.62671,0,0,0,0,0,0,0,-1,1896,1289,20.0045,-6.62668
679,-265,47.7499,13.8374,0,0,0,0,0,0,0,-1,1903,1289,47.7499,-13.8374
686,-265,47.7284,13.1509,0.00103668,0.00339754,-0.00243814,0.00492597,-0.000491751,-1.01084,0.00345957,0.0489984,1910,1289,47.7284,-13.1509
693,-265,47.7528,12.5034,0.00128441,0.00161158,-0.0015654,0.00302192,-0.00012593,-0.837459,0.00205787,0.0118741,1917,1289,47.7528,-12.5034
700,-265,47.72,11.8285,0.00144145,-0.000571751,-0.000340141,0.00149737,-0.000627666,-0.162932,0.00126068,0.0110186,1924,1289,47.7199,-11.8285
707,-265,47.7053,11.1517,0.000640827,-0.000610552,0.000342175,0.000728279,-0.000698005,0.250221,0.000823527,0.0104425,1931,1289,47.7054,-11.1517
714,-265,47.6803,10.483,-0.00035882,-0.000540847,0.00112751,0.000681344,-0.00158101,0.745125,0.00134016,0.0135871,1938,1289,47.6803,-10.4831
721,-265,47.5903,9.80432,-0.0014633,-0.000518855,0.00195106,0.00101631,-0.00299847,0.904132,0.00241027,0.0167947,1945,1289,47.5903,-9.80431
728,-265,47.5408,9.19824,-0.00268835,-0.000519842,0.00283979,0.00143564,-0.00464383,0.967761,0.00366928,0.0164761,1952,1289,47.5407,-9.19824
735,-265,47.6034,8.56567,-0.00403066,-0.000583463,0.00381493,0.00187916,-0.00649329,0.997575,0.00507263,0.0160912,1959,1289,47.6034,-8.56569
742,-265,47.5664,7.89941,-0.00548752,-0.000766653,0.00491348,0.00232396,-0.00857813,1.00932,0.00663058,0.0204235,1966,1289,47.5664,-7.89941
749,-265,47.5203,7.20959,-0.00713411,-0.000987682,0.00612406,0.00279102,-0.0109128,1.01795,0.00836227,0.0487701,1973,1289,47.5203,-7.20964
756,-265,47.5916,6.51941,0,0,0,0,0,0,0,-1,1980,1289,47.5915,-6.51943
763,-265,39.1299,4.9679,0,0,0,0,0,0,0,-1,1987,1289,39.1299,-4.96791
770,-265,35.1674,5.07715,0,0,0,0,0,0,0,-1,1994,1289,35.1673,-5.07718
777,-265,32.1664,5.3457,0,0,0,0,0,0,0,-1,2001,1289,32.1664,-5.34568
784,-265,0,0,0,0,0,0,0,0,0,-1,2008,1289,0,0
791,-265,0,0,0,0,0,0,0,0,0,-1,2015,1289,0,0
798,-265,0,0,0,0,0,0,0,0,0,-1,2022,1289,0,0
805,-265,0,0,0,0,0,0,0,0,0,-1,2029,1289,0,0
812,-265,0,0,0,0,0,0,0,0,0,-1,2036,1289,0,0
-700,-272,0,0,0,0,0,0,0,0,0,-1,524,1296,0,0
-693,-272,0,0,0,0,0,0,0,0,0,-1,531,1296,0,0
-686,-272,0,0,0,0,0,0,0,0,0,-1,538,1296,0,0
-679,-272,0,0,0,0,0,0,0,0,0,-1,545,1296,0,0
-672,-272,0,0,0,0,0,0,0,0,0,-1,552,1296,0,0
-665,-272,0,0,0,0,0,0,0,0,0,-1,559,1296,0,0
-658,-272,-44.6526,1.54443,0,0,0,0,0,0,0,-1,566,1296,-44.6526,-1.5444
-651,-272,-44.3723,1.53772,0,0,0,0,0,0,0,-1,573,1296,-44.3723,-1.53774
-644,-272,-44.1104,1.46021,0,0,0,0,0,0,0,-1,580,1296,-44.1104,-1.46022
-637,-272,-43.9348,1.25171,0,0,0,0,0,0,0,-1,587,1296,-43.9348,-1.25175
-630,-272,-43.5906,0.784912,0,0,0,0,0,0,0,-1,594,1296,-43.5906,-0.784935
-623,-272,-30.1874,3.57471,0,0,0,0,0,0,0,-1,601,1296,-30.1874,-3.57466
-616,-272,-30.4186,4.9657,-0.00140671,0.00832823,0.0124789,0.0168554,-0.00993383,0.97135,0.0156379,0.0471028,608,1296,-30.4186,-4.96574
-609,-272,-30.7526,6.20679,-0.000827559,0.00643555,0.00885731,0.0123769,-0.00676889,0.97995,0.0112108,0.0274818,615,1296,-30.7526,-6.20678
-602,-272,-30.8239,6.74609,-0.000317519,0.00467591,0.00625262,0.00891186,-0.00455347,0.975353,0.00790879,0.0159387,622,1296,-30.8239,-6.74606
-595,-272,-30.8914,7.47998,0.000135793,0.00312251,0.00422962,0.00611466,-0.00285636,0.955102,0.00529207,0.0122488,629,1296,-30.8914,-7.48003
-588,-272,-30.9232,8.18274,0.000512469,0.00175294,0.00268368,0.00388712,-0.00162171,0.898962,0.00326894,0.0111205,636,1296,-30.9232,-8.18274
-581,-272,-30.9766,8.85901,0.000852786,0.000496463,0.00150197,0.00218712,-0.000837875,0.726365,0.00180346,0.00993342,643,1296,-30.9766,-8.85906
-574,-272,-31.0297,9.57898,0.00119365,-0.000669794,0.000644904,0.00139507,-0.000871212,0.302723,0.00132004,0.0147326,650,1296,-31.0297,-9.57894
-567,-272,-31.0791,10.2976,0.00158259,-0.00176604,8.82055e-05,0.00158491,-0.00176837,0.0263164,0.00193698,0.0212434,657,1296,-31.0791,-10.2976
-560,-272,-31.0953,10.999,0.00190054,-0.00260583,-0.000100416,0.00190278,-0.00260807,-0.0222684,0.00261493,0.0210761,664,1296,-31.0953,-10.999
-553,-272,-31.0253,11.6886,0.00266905,-0.00316989,0.000135082,0.00267217,-0.00317301,0.0231183,0.00337885,0.0302711,671,1296,-31.0253,-11.6886
-546,-272,-31.1163,12.5231,0,0,0,0,0,0,0,-1,678,1296,-31.1163,-12.523
-539,-272,-24.1416,11.0325,0,0,0,0,0,0,0,-1,685,1296,-24.1416,-11.0324
-532,-272,-10.5572,4.53943,0,0,0,0,0,0,0,-1,692,1296,-10.5572,-4.53943
-525,-272,-11.9599,0.0393066,0,0,0,0,0,0,0,-1,699,1296,-11.9599,-0.0393577
-518,-272,-21.1357,-1.41382,0,0,0,0,0,0,0,-1,706,1296,-21.1357,1.41379
-511,-272,-23.2565,0.226318,0,0,0,0,0,0,0,-1,713,1296,-23.2565,-0.22626
-504,-272,-19.7397,0.114746,0,0,0,0,0,0,0,-1,720,1296,-19.7397,-0.114701
-497,-272,-19.2225,1.71301,0,0,0,0,0,0,0,-1,727,1296,-19.2225,-1.71302
-490,-272,-20.1948,2.4032,0,0,0,0,0,0,0,-1,734,1296,-20.1948,-2.40322
-483,-272,-15.3736,0.792603,0,0,0,0,0,0,0,-1,741,1296,-15.3736,-0.79263
-476,-272,0,0,0,0,0,0,0,0,0,-1,748,1296,0,0
-469,-272,0,0,0,0,0,0,0,0,0,-1,755,1296,0,0
-462,-272,0,0,0,0,0,0,0,0,0,-1,762,1296,0,0
-455,-272,0,0,0,0,0,0,0,0,0,-1,769,1296,0,0
-448,-272,0,0,0,0,0,0,0,0,0,-1,776,1296,0,0
-441,-272,0,0,0,0,0,0,0,0,0,-1,783,1296,0,0
-434,-272,0,0,0,0,0,0,0,0,0,-1,790,1296,0,0
-427,-272,0,0,0,0,0,0,0,0,0,-1,797,1296,0,0
-420,-272,0,0,0,0,0,0,0,0,0,-1,804,1296,0,0
-413,-272,0,0,0,0,0,0,0,0,0,-1,811,1296,0,0
-406,-272,0,0,0,0,0,0,0,0,0,-1,818,1296,0,0
-399,-272,0,0,0,0,0,0,0,0,0,-1,825,1296,0,0
-392,-272,0,0,0,0,0,0,0,0,0,-1,832,1296,0,0
-385,-272,0,0,0,0,0,0,0,0,0,-1,839,1296,0,0
-378,-272,0,0,0,0,0,0,0,0,0,-1,846,1296,0,0
-371,-272,0,0,0,0,0,0,0,0,0,-1,853,1296,0,0
-364,-272,0,0,0,0,0,0,0,0,0,-1,860,1296,0,0
-357,-272,0,0,0,0,0,0,0,0,0,-1,867,1296,0,0
-350,-272,0,0,0,0,0,0,0,0,0,-1,874,1296,0,0
-343,-272,0,0,0,0,0,0,0,0,0,-1,881,1296,0,0
-336,-272,0,0,0,0,0,0,0,0,0,-1,888,1296,0,0
-329,-272,0,0,0,0,0,0,0,0,0,-1,895,1296,0,0
-322,-272,0,0,0,0,0,0,0,0,0,-1,902,1296,0,0
-315,-272,0,0,0,0,0,0,0,0,0,-1,909,1296,0,0
-308,-272,0,0,0,0,0,0,0,0,0,-1,916,1296,0,0
-301,-272,0,0,0,0,0,0,0,0,0,-1,923,1296,0,0
-294,-272,0,0,0,0,0,0,0,0,0,-1,930,1296,0,0
-287,-272,0,0,0,0,0,0,0,0,0,-1,937,1296,0,0
-280,-272,0,0,0,0,0,0,0,0,0,-1,944,1296,0,0
-273,-272,0,0,0,0,0,0,0,0,0,-1,951,1296,0,0
-266,-272,0,0,0,0,0,0,0,0,0,-1,958,1296,0,0
-259,-272,0,0,0,0,0,0,0,0,0,-1,965,1296,0,0
-252,-272,0,0,0,0,0,0,0,0,0,-1,972,1296,0,0
-245,-272,0,0,0,0,0,0,0,0,0,-1,979,1296,0,0
-238,-272,0,0,0,0,0,0,0,0,0,-1,986,1296,0,0
-231,-272,0,0,0,0,0,0,0,0,0,-1,993,1296,0,0
-224,-272,0,0,0,0,0,0,0,0,0,-1,1000,1296,0,0
-217,-272,0,0,0,0,0,0,0,0,0,-1,1007,1296,0,0
-210,-272,0,0,0,0,0,0,0,0,0,-1,1014,1296,0,0
-203,-272,0,0,0,0,0,0,0,0,0,-1,1021,1296,0,0
-196,-272,0,0,0,0,0,0,0,0,0,-1,1028,1296,0,0
-189,-272,0,0,0,0,0,0,0,0,0,-1,1035,1296,0,0
-182,-272,0,0,0,0,0,0,0,0,0,-1,1042,1296,0,0
-175,-272,0,0,0,0,0,0,0,0,0,-1,1049,1296,0,0
-168,-272,0,0,0,0,0,0,0,0,0,-1,1056,1296,0,0
-161,-272,0,0,0,0,0,0,0,0,0,-1,1063,1296,0,0
-154,-272,0,0,0,0,0,0,0,0,0,-1,1070,1296,0,0
-147,-272,0,0,0,0,0,0,0,0,0,-1,1077,1296,0,0
-140,-272,0,0,0,0,0,0,0,0,0,-1,1084,1296,0,0
-133,-272,0,0,0,0,0,0,0,0,0,-1,1091,1296,0,0
-126,-272,0,0,0,0,0,0,0,0,0,-1,1098,1296,0,0
-119,-272,0,0,0,0,0,0,0,0,0,-1,1105,1296,0,0
-112,-272,0,0,0,0,0,0,0,0,0,-1,1112,1296,0,0
-105,-272,0,0,0,0,0,0,0,0,0,-1,1119,1296,0,0
-98,-272,0,0,0,0,0,0,0,0,0,-1,1126,1296,0,0
-91,-272,0,0,0,0,0,0,0,0,0,-1,1133,1296,0,0
-84,-272,0,0,0,0,0,0,0,0,0,-1,1140,1296,0,0
-77,-272,0,0,0,0,0,0,0,0,0,-1,1147,1296,0,0
-70,-272,0,0,0,0,0,0,0,0,0,-1,1154,1296,0,0
-63,-272,0,0,0,0,0,0,0,0,0,-1,1161,1296,0,0
-56,-272,0,0,0,0,0,0,0,0,0,-1,1168,1296,0,0
-49,-272,0,0,0,0,0,0,0,0,0,-1,1175,1296,0,0
-42,-272,0,0,0,0,0,0,0,0,0,-1,1182,1296,0,0
-35,-272,0,0,0,0,0,0,0,0,0,-1,1189,1296,0,0
-28,-272,0,0,0,0,0,0,0,0,0,-1,1196,1296,0,0
-21,-272,0,0,0,0,0,0,0,0,0,-1,1203,1296,0,0
-14,-272,0,0,0,0,0,0,0,0,0,-1,1210,1296,0,0
-7,-272,0,0,0,0,0,0,0,0,0,-1,1217,1296,0,0
0,-272,0,0,0,0,0,0,0,0,0,-1,1224,1296,0,0
7,-272,0,0,0,0,0,0,0,0,0,-1,1231,1296,0,0
14,-272,0,0,0,0,0,0,0,0,0,-1,1238,1296,0,0
21,-272,0,0,0,0,0,0,0,0,0,-1,1245,1296,0,0
28,-272,0,0,0,0,0,0,0,0,0,-1,1252,1296,0,0
35,-272,0,0,0,0,0,0,0,0,0,-1,1259,1296,0,0
42,-272,0,0,0,0,0,0,0,0,0,-1,1266,1296,0,0
49,-272,0,0,0,0,0,0,0,0,0,-1,1273,1296,0,0
56,-272,0,0,0,0,0,0,0,0,0,-1,1280,1296,0,0
63,-272,0,0,0,0,0,0,0,0,0,-1,1287,1296,0,0
70,-272,0,0,0,0,0,0,0,0,0,-1,1294,1296,0,0
77,-272,0,0,0,0,0,0,0,0,0,-1,1301,1296,0,0
84,-272,0,0,0,0,0,0,0,0,0,-1,1308,1296,0,0
91,-272,0,0,0,0,0,0,0,0,0,-1,1315,1296,0,0
98,-272,0,0,0,0,0,0,0,0,0,-1,1322,1296,0,0
105,-272,0,0,0,0,0,0,0,0,0,-1,1329,1296,0,0
112,-272,0,0,0,0,0,0,0,0,0,-1,1336,1296,0,0
119,-272,0,0,0,0,0,0,0,0,0,-1,1343,1296,0,0
126,-272,0,0,0,0,0,0,0,0,0,-1,1350,1296,0,0
133,-272,0,0,0,0,0,0,0,0,0,-1,1357,1296,0,0
140,-272,0,0,0,0,0,0,0,0,0,-1,1364,1296,0,0
147,-272,0,0,0,0,0,0,0,0,0,-1,1371,1296,0,0
154,-272,0,0,0,0,0,0,0,0,0,-1,1378,1296,0,0
161,-272,0,0,0,0,0,0,0,0,0,-1,1385,1296,0,0
168,-272,0,0,0,0,0,0,0,0,0,-1,1392,1296,0,0
175,-272,0,0,0,0,0,0,0,0,0,-1,1399,1296,0,0
182,-272,0,0,0,0,0,0,0,0,0,-1,1406,1296,0,0
189,-272,0,0,0,0,0,0,0,0,0,-1,1413,1296,0,0
196,-272,0,0,0,0,0,0,0,0,0,-1,1420,1296,0,0
203,-272,0,0,0,0,0,0,0,0,0,-1,1427,1296,0,0
210,-272,0,0,0,0,0,0,0,0,0,-1,1434,1296,0,0
217,-272,0,0,0,0,0,0,0,0,0,-1,1441,1296,0,0
224,-272,0,0,0,0,0,0,0,0,0,-1,1448,1296,0,0
231,-272,0,0,0,0,0,0,0,0,0,-1,1455,1296,0,0
238,-272,0,0,0,0,0,0,0,0,0,-1,1462,1296,0,0
245,-272,0,0,0,0,0,0,0,0,0,-1,1469,1296,0,0
252,-272,0,0,0,0,0,0,0,0,0,-1,1476,1296,0,0
259,-272,0,0,0,0,0,0,0,0,0,-1,1483,1296,0,0
266,-272,0,0,0,0,0,0,0,0,0,-1,1490,1296,0,0
273,-272,0,0,0,0,0,0,0,0,0,-1,1497,1296,0,0
280,-272,0,0,0,0,0,0,0,0,0,-1,1504,1296,0,0
287,-272,0,0,0,0,0,0,0,0,0,-1,1511,1296,0,0
294,-272,0,0,0,0,0,0,0,0,0,-1,1518,1296,0,0
301,-272,0,0,0,0,0,0,0,0,0,-1,1525,1296,0,0
308,-272,0,0,0,0,0,0,0,0,0,-1,1532,1296,0,0
315,-272,0,0,0,0,0,0,0,0,0,-1,1539,1296,0,0
322,-272,0,0,0,0,0,0,0,0,0,-1,1546,1296,0,0
329,-272,0,0,0,0,0,0,0,0,0,-1,1553,1296,0,0
336,-272,0,0,0,0,0,0,0,0,0,-1,1560,1296,0,0
343,-272,0,0,0,0,0,0,0,0,0,-1,1567,1296,0,0
350,-272,0,0,0,0,0,0,0,0,0,-1,1574,1296,0,0
357,-272,0,0,0,0,0,0,0,0,0,-1,1581,1296,0,0
364,-272,0,0,0,0,0,0,0,0,0,-1,1588,1296,0,0
371,-272,0,0,0,0,0,0,0,0,0,-1,1595,1296,0,0
378,-272,0,0,0,0,0,0,0,0,0,-1,1602,1296,0,0
385,-272,0,0,0,0,0,0,0,0,0,-1,1609,1296,0,0
392,-272,0,0,0,0,0,0,0,0,0,-1,1616,1296,0,0
399,-272,0,0,0,0,0,0,0,0,0,-1,1623,1296,0,0
406,-272,0,0,0,0,0,0,0,0,0,-1,1630,1296,0,0
413,-272,0,0,0,0,0,0,0,0,0,-1,1637,1296,0,0
420,-272,0,0,0,0,0,0,0,0,0,-1,1644,1296,0,0
427,-272,0,0,0,0,0,0,0,0,0,-1,1651,1296,0,0
434,-272,0,0,0,0,0,0,0,0,0,-1,1658,1296,0,0
441,-272,0,0,0,0,0,0,0,0,0,-1,1665,1296,0,0
448,-272,0,0,0,0,0,0,0,0,0,-1,1672,1296,0,0
455,-272,0,0,0,0,0,0,0,0,0,-1,1679,1296,0,0
462,-272,0,0,0,0,0,0,0,0,0,-1,1686,1296,0,0
469,-272,0,0,0,0,0,0,0,0,0,-1,1693,1296,0,0
476,-272,0,0,0,0,0,0,0,0,0,-1,1700,1296,0,0
483,-272,0,0,0,0,0,0,0,0,0,-1,1707,1296,0,0
490,-272,0,0,0,0,0,0,0,0,0,-1,1714,1296,0,0
497,-272,0,0,0,0,0,0,0,0,0,-1,1721,1296,0,0
504,-272,0,0,0,0,0,0,0,0,0,-1,1728,1296,0,0
511,-272,0,0,0,0,0,0,0,0,0,-1,1735,1296,0,0
518,-272,0,0,0,0,0,0,0,0,0,-1,1742,1296,0,0
525,-272,0,0,0,0,0,0,0,0,0,-1,1749,1296,0,0
532,-272,0,0,0,0,0,0,0,0,0,-1,1756,1296,0,0
539,-272,0,0,0,0,0,0,0,0,0,-1,1763,1296,0,0
546,-272,0,0,0,0,0,0,0,0,0,-1,1770,1296,0,0
553,-272,0,0,0,0,0,0,0,0,0,-1,1777,1296,0,0
560,-272,0,0,0,0,0,0,0,0,0,-1,1784,1296,0,0
567,-272,0,0,0,0,0,0,0,0,0,-1,1791,1296,0,0
574,-272,0,0,0,0,0,0,0,0,0,-1,1798,1296,0,0
581,-272,0,0,0,0,0,0,0,0,0,-1,1805,1296,0,0
588,-272,0,0,0,0,0,0,0,0,0,-1,1812,1296,0,0
595,-272,0,0,0,0,0,0,0,0,0,-1,1819,1296,0,0
602,-272,66.9298,2.31848,-0.0067514,0.00413548,-0.00331617,0.00506606,-0.00768198,-1.29722,0.00741155,0.032354,1826,1296,66.9298,-2.31842
609,-272,66.8862,2.19226,-0.00732489,0.0144207,-0.00761317,0.0168212,-0.0097253,-1.26537,0.015508,0.0401239,1833,1296,66.8862,-2.19222
616,-272,66.9242,2.21326,-0.00717169,0.0202872,-0.00974926,0.0233966,-0.0102811,-1.26206,0.0199292,0.0475238,1840,1296,66.9242,-2.21324
623,-272,66.8768,1.76086,-0.00596984,0.0198101,-0.0090494,0.0226695,-0.00882925,-1.26475,0.0187619,0.0478044,1847,1296,66.8768,-1.76085
630,-272,66.6901,1.57727,-0.00481405,0.017614,-0.00766314,0.0199822,-0.0071823,-1.27106,0.0162535,0.0456025,1854,1296,66.6901,-1.57728
637,-272,66.6252,1.41541,0,0,0,0,0,0,0,-1,1861,1296,66.6252,-1.41538
644,-272,53.563,1.44336,0,0,0,0,0,0,0,-1,1868,1296,53.5629,-1.4433
651,-272,41.9225,4.27161,0,0,0,0,0,0,0,-1,1875,1296,41.9225,-4.27157
658,-272,35.1527,2.10571,0,0,0,0,0,0,0,-1,1882,1296,35.1527,-2.10573
665,-272,22.0238,4.14417,0,0,0,0,0,0,0,-1,1889,1296,22.0238,-4.14421
672,-272,22.661,7.21765,0,0,0,0,0,0,0,-1,1896,1296,22.661,-7.21761
679,-272,47.1307,13.9984,0,0,0,0,0,0,0,-1,1903,1296,47.1308,-13.9984
686,-272,47.0437,13.2773,0.00159141,0.00284456,-0.0021652,0.00447202,-3.60513e-05,-0.926243,0.00299344,0.0382126,1910,1296,47.0438,-13.2773
693,-272,47.0624,12.5381,0.00167758,0.00101083,-0.00120238,0.00259194,9.64624e-05,-0.650164,0.00169672,0.0129844,1917,1296,47.0623,-12.5381
700,-272,47.0619,11.8672,0.00154927,-0.000778517,-6.03718e-05,0.00155083,-0.000780081,-0.0259121,0.00137006,0.0126291,1924,1296,47.0618,-11.8672
707,-272,47.0466,11.1886,0.000646359,-0.000656504,0.000574672,0.000863611,-0.000873756,0.361438,0.00100308,0.0108363,1931,1296,47.0467,-11.1886
714,-272,47.0083,10.5154,-0.000393249,-0.000506195,0.00128579,0.000837305,-0.00173675,0.763452,0.00151607,0.0141678,1938,1296,47.0083,-10.5154
721,-272,46.9277,9.87988,-0.00151924,-0.000439541,0.00206584,0.00115583,-0.00311461,0.913201,0.00255052,0.0197309,1945,1296,46.9277,-9.87989
728,-272,46.9227,9.20471,-0.00275661,-0.000459024,0.00293151,0.00154075,-0.00475638,0.972141,0.00379037,0.0201513,1952,1296,46.9227,-9.20469
735,-272,46.9253,8.59021,-0.00413514,-0.000569345,0.00389311,0.0019297,-0.00663419,1.00013,0.00518709,0.0167729,1959,1296,46.9253,-8.59022
742,-272,46.8337,8.00208,-0.00566039,-0.000850876,0.00498315,0.00227741,-0.00878868,1.0102,0.00674761,0.0265563,1966,1296,46.8337,-8.00212
749,-272,46.7704,7.34717,-0.00746352,-0.00121481,0.00618668,0.00259168,-0.01127,1.01922,0.00850982,0.0496261,1973,1296,46.7704,-7.34717
756,-272,46.8087,6.72009,0,0,0,0,0,0,0,-1,1980,1296,46.8087,-6.72009
763,-272,34.3995,5.88416,0,0,0,0,0,0,0,-1,1987,1296,34.3996,-5.88419
770,-272,25.9485,3.67749,0,0,0,0,0,0,0,-1,1994,1296,25.9485,-3.67744
777,-272,32.3619,6.13257,0,0,0,0,0,0,0,-1,2001,1296,32.362,-6.1326
784,-272,0,0,0,0,0,0,0,0,0,-1,2008,1296,0,0
791,-272,0,0,0,0,0,0,0,0,0,-1,2015,1296,0,0
798,-272,0,0,0,0,0,0,0,0,0,-1,2022,1296,0,0
805,-272,0,0,0,0,0,0,0,0,0,-1,2029,1296,0,0
812,-272,0,0,0,0,0,0,0,0,0,-1,2036,1296,0,0
-700,-279,0,0,0,0,0,0,0,0,0,-1,524,1303,0,0
-693,-279,0,0,0,0,0,0,0,0,0,-1,531,1303,0,0
-686,-279,0,0,0,0,0,0,0,0,0,-1,538,1303,0,0
-679,-279,0,0,0,0,0,0,0,0,0,-1,545,1303,0,0
-672,-279,0,0,0,0,0,0,0,0,0,-1,552,1303,0,0
-665,-279,0,0,0,0,0,0,0,0,0,-1,559,1303,0,0
-658,-279,-44.3733,1.65881,0,0,0,0,0,0,0,-1,566,1303,-44.3733,-1.65883
-651,-279,-44.1603,1.61462,0,0,0,0,0,0,0,-1,573,1303,-44.1604,-1.61462
-644,-279,-43.8069,1.50903,0,0,0,0,0,0,0,-1,580,1303,-43.8069,-1.50909
-637,-279,-43.2951,1.33704,0,0,0,0,0,0,0,-1,587,1303,-43.2951,-1.33703
-630,-279,-42.6152,1.22852,0,0,0,0,0,0,0,-1,594,1303,-42.6152,-1.22856
-623,-279,-41.8359,0.907715,0,0,0,0,0,0,0,-1,601,1303,-41.8358,-0.907688
-616,-279,-30.087,5.48438,0,0,0,0,0,0,0,-1,608,1303,-30.087,-5.48434
-609,-279,-30.391,5.95117,-0.000277718,0.00658954,0.00991005,0.0136439,-0.00733212,0.952166,0.0122919,0.0486533,615,1303,-30.391,-5.95119
-602,-279,-30.0936,6.78699,0.000152382,0.00487304,0.00700089,0.00990078,-0.00487536,0.947988,0.00869392,0.0157887,622,1303,-30.0936,-6.78702
-595,-279,-30.187,7.49841,0.000526186,0.00337485,0.00479183,0.00694955,-0.00304852,0.92986,0.00591704,0.0109415,629,1303,-30.1869,-7.49839
-588,-279,-30.2277,8.1991,0.000808383,0.00208365,0.0031485,0.00465844,-0.0017664,0.885307,0.0038326,0.0112953,636,1303,-30.2277,-8.19915
-581,-279,-30.2665,8.87329,0.00106309,0.000925173,0.00192322,0.00291859,-0.000930319,0.767477,0.00231889,0.0125138,643,1303,-30.2665,-8.87332
-574,-279,-30.3096,9.59314,0.00132462,-0.000118965,0.00105675,0.00188256,-0.000676904,0.485776,0.00153138,0.0134772,650,1303,-30.3096,-9.59315
-567,-279,-30.3455,10.3057,0.00162842,-0.00108189,0.000495759,0.00171626,-0.00116972,0.175354,0.00167615,0.0185223,657,1303,-30.3455,-10.3057
-560,-279,-30.3618,11.0428,0.00188762,-0.00191643,0.000355176,0.0019205,-0.00194931,0.0923048,0.00223426,0.017264,664,1303,-30.3618,-11.0428
-553,-279,-30.3671,11.7716,0.00242014,-0.00252007,0.000762268,0.00253508,-0.00263501,0.149663,0.00298514,0.016425,671,1303,-30.3671,-11.7716
-546,-279,-30.4019,12.4851,0.0032271,-0.00315994,0.0011606,0.00343145,-0.00336429,0.174291,0.00392359,0.0320286,678,1303,-30.4019,-12.4851
-539,-279,-30.7722,13.2821,0,0,0,0,0,0,0,-1,685,1303,-30.7722,-13.282
-532,-279,-14.9813,7.89917,0,0,0,0,0,0,0,-1,692,1303,-14.9813,-7.89918
-525,-279,-11.7063,-0.539185,0,0,0,0,0,0,0,-1,699,1303,-11.7063,0.539166
-518,-279,-16.8138,1.11963,0,0,0,0,0,0,0,-1,706,1303,-16.8138,-1.11968
-511,-279,-20.1063,-1.37915,0,0,0,0,0,0,0,-1,713,1303,-20.1062,1.37918
-504,-279,-18.3766,1.04578,0,0,0,0,0,0,0,-1,720,1303,-18.3767,-1.04577
-497,-279,-19.0046,2.08911,0,0,0,0,0,0,0,-1,727,1303,-19.0046,-2.08905
-490,-279,-20.0176,2.55188,0,0,0,0,0,0,0,-1,734,1303,-20.0176,-2.55183
-483,-279,-20.8064,2.99792,0,0,0,0,0,0,0,-1,741,1303,-20.8064,-2.99797
-476,-279,0,0,0,0,0,0,0,0,0,-1,748,1303,0,0
-469,-279,0,0,0,0,0,0,0,0,0,-1,755,1303,0,0
-462,-279,0,0,0,0,0,0,0,0,0,-1,762,1303,0,0
-455,-279,0,0,0,0,0,0,0,0,0,-1,769,1303,0,0
-448,-279,0,0,0,0,0,0,0,0,0,-1,776,1303,0,0
-441,-279,0,0,0,0,0,0,0,0,0,-1,783,1303,0,0
-434,-279,0,0,0,0,0,0,0,0,0,-1,790,1303,0,0
-427,-279,0,0,0,0,0,0,0,0,0,-1,797,1303,0,0
-420,-279,0,0,0,0,0,0,0,0,0,-1,804,1303,0,0
-413,-279,0,0,0,0,0,0,0,0,0,-1,811,1303,0,0
-406,-279,0,0,0,0,0,0,0,0,0,-1,818,1303,0,0
-399,-279,0,0,0,0,0,0,0,0,0,-1,825,1303,0,0
-392,-279,0,0,0,0,0,0,0,0,0,-1,832,1303,0,0
-385,-279,0,0,0,0,0,0,0,0,0,-1,839,1303,0,0
-378,-279,0,0,0,0,0,0,0,0,0,-1,846,1303,0,0
-371,-279,0,0,0,0,0,0,0,0,0,-1,853,1303,0,0
-364,-279,0,0,0,0,0,0,0,0,0,-1,860,1303,0,0
-357,-279,0,0,0,0,0,0,0,0,0,-1,867,1303,0,0
-350,-279,0,0,0,0,0,0,0,0,0,-1,874,1303,0,0
-343,-279,0,0,0,0,0,0,0,0,0,-1,881,1303,0,0
-336,-279,0,0,0,0,0,0,0,0,0,-1,888,1303,0,0
-329,-279,0,0,0,0,0,0,0,0,0,-1,895,1303,0,0
-322,-279,0,0,0,0,0,0,0,0,0,-1,902,1303,0,0
-315,-279,0,0,0,0,0,0,0,0,0,-1,909,1303,0,0
-308,-279,0,0,0,0,0,0,0,0,0,-1,916,1303,0,0
-301,-279,0,0,0,0,0,0,0,0,0,-1,923,1303,0,0
-294,-279,0,0,0,0,0,0,0,0,0,-1,930,1303,0,0
-287,-279,0,0,0,0,0,0,0,0,0,-1,937,1303,0,0
-280,-279,0,0,0,0,0,0,0,0,0,-1,944,1303,0,0
-273,-279,0,0,0,0,0,0,0,0,0,-1,951,1303,0,0
-266,-279,0,0,0,0,0,0,0,0,0,-1,958,1303,0,0
-259,-279,0,0,0,0,0,0,0,0,0,-1,965,1303,0,0
-252,-279,0,0,0,0,0,0,0,0,0,-1,972,1303,0,0
-245,-279,0,0,0,0,0,0,0,0,0,-1,979,1303,0,0
-238,-279,0,0,0,0,0,0,0,0,0,-1,986,1303,0,0
-231,-279,0,0,0,0,0,0,0,0,0,-1,993,1303,0,0
-224,-279,0,0,0,0,0,0,0,0,0,-1,1000,1303,0,0
-217,-279,0,0,0,0,0,0,0,0,0,-1,1007,1303,0,0
-210,-279,0,0,0,0,0,0,0,0,0,-1,1014,1303,0,0
-203,-279,0,0,0,0,0,0,0,0,0,-1,1021,1303,0,0
-196,-279,0,0,0,0,0,0,0,0,0,-1,1028,1303,0,0
-189,-279,0,0,0,0,0,0,0,0,0,-1,1035,1303,0,0
-182,-279,0,0,0,0,0,0,0,0,0,-1,1042,1303,0,0
-175,-279,0,0,0,0,0,0,0,0,0,-1,1049,1303,0,0
-168,-279,0,0,0,0,0,0,0,0,0,-1,1056,1303,0,0
-161,-279,0,0,0,0,0,0,0,0,0,-1,1063,1303,0,0
-154,-279,0,0,0,0,0,0,0,0,0,-1,1070,1303,0,0
-147,-279,0,0,0,0,0,0,0,0,0,-1,1077,1303,0,0
-140,-279,0,0,0,0,0,0,0,0,0,-1,1084,1303,0,0
-133,-279,0,0,0,0,0,0,0,0,0,-1,1091,1303,0,0
-126,-279,0,0,0,0,0,0,0,0,0,-1,1098,1303,0,0
-119,-279,0,0,0,0,0,0,0,0,0,-1,1105,1303,0,0
-112,-279,0,0,0,0,0,0,0,0,0,-1,1112,1303,0,0
-105,-279,0,0,0,0,0,0,0,0,0,-1,1119,1303,0,0
-98,-279,0,0,0,0,0,0,0,0,0,-1,1126,1303,0,0
-91,-279,0,0,0,0,0,0,0,0,0,-1,1133,1303,0,0
-84,-279,0,0,0,0,0,0,0,0,0,-1,1140,1303,0,0
-77,-279,0,0,0,0,0,0,0,0,0,-1,1147,1303,0,0
-70,-279,0,0,0,0,0,0,0,0,0,-1,1154,1303,0,0
-63,-279,0,0,0,0,0,0,0,0,0,-1,1161,1303,0,0
-56,-279,0,0,0,0,0,0,0,0,0,-1,1168,1303,0,0
-49,-279,0,0,0,0,0,0,0,0,0,-1,1175,1303,0,0
-42,-279,0,0,0,0,0,0,0,0,0,-1,1182,1303,0,0
-35,-279,0,0,0,0,0,0,0,0,0,-1,1189,1303,0,0
-28,-279,0,0,0,0,0,0,0,0,0,-1,1196,1303,0,0
-21,-279,0,0,0,0,0,0,0,0,0,-1,1203,1303,0,0
-14,-279,0,0,0,0,0,0,0,0,0,-1,1210,1303,0,0
-7,-279,0,0,0,0,0,0,0,0,0,-1,1217,1303,0,0
0,-279,0,0,0,0,0,0,0,0,0,-1,1224,1303,0,0
7,-279,0,0,0,0,0,0,0,0,0,-1,1231,1303,0,0
14,-279,0,0,0,0,0,0,0,0,0,-1,1238,1303,0,0
21,-279,0,0,0,0,0,0,0,0,0,-1,1245,1303,0,0
28,-279,0,0,0,0,0,0,0,0,0,-1,1252,1303,0,0
35,-279,0,0,0,0,0,0,0,0,0,-1,1259,1303,0,0
42,-279,0,0,0,0,0,0,0,0,0,-1,1266,1303,0,0
49,-279,0,0,0,0,0,0,0,0,0,-1,1273,1303,0,0
56,-279,0,0,0,0,0,0,0,0,0,-1,1280,1303,0,0
63,-279,0,0,0,0,0,0,0,0,0,-1,1287,1303,0,0
70,-279,0,0,0,0,0,0,0,0,0,-1,1294,1303,0,0
77,-279,0,0,0,0,0,0,0,0,0,-1,1301,1303,0,0
84,-279,0,0,0,0,0,0,0,0,0,-1,1308,1303,0,0
91,-279,0,0,0,0,0,0,0,0,0,-1,1315,1303,0,0
98,-279,0,0,0,0,0,0,0,0,0,-1,1322,1303,0,0
105,-279,0,0,0,0,0,0,0,0,0,-1,1329,1303,0,0
112,-279,0,0,0,0,0,0,0,0,0,-1,1336,1303,0,0
119,-279,0,0,0,0,0,0,0,0,0,-1,1343,1303,0,0
126,-279,0,0,0,0,0,0,0,0,0,-1,1350,1303,0,0
133,-279,0,0,0,0,0,0,0,0,0,-1,1357,1303,0,0
140,-279,0,0,0,0,0,0,0,0,0,-1,1364,1303,0,0
147,-279,0,0,0,0,0,0,0,0,0,-1,1371,1303,0,0
154,-279,0,0,0,0,0,0,0,0,0,-1,1378,1303,0,0
161,-279,0,0,0,0,0,0,0,0,0,-1,1385,1303,0,0
168,-279,0,0,0,0,0,0,0,0,0,-1,1392,1303,0,0
175,-279,0,0,0,0,0,0,0,0,0,-1,1399,1303,0,0
182,-279,0,0,0,0,0,0,0,0,0,-1,1406,1303,0,0
189,-279,0,0,0,0,0,0,0,0,0,-1,1413,1303,0,0
196,-279,0,0,0,0,0,0,0,0,0,-1,1420,1303,0,0
203,-279,0,0,0,0,0,0,0,0,0,-1,1427,1303,0,0
210,-279,0,0,0,0,0,0,0,0,0,-1,1434,1303,0,0
217,-279,0,0,0,0,0,0,0,0,0,-1,1441,1303,0,0
224,-279,0,0,0,0,0,0,0,0,0,-1,1448,1303,0,0
231,-279,0,0,0,0,0,0,0,0,0,-1,1455,1303,0,0
238,-279,0,0,0,0,0,0,0,0,0,-1,1462,1303,0,0
245,-279,0,0,0,0,0,0,0,0,0,-1,1469,1303,0,0
252,-279,0,0,0,0,0,0,0,0,0,-1,1476,1303,0,0
259,-279,0,0,0,0,0,0,0,0,0,-1,1483,1303,0,0
266,-279,0,0,0,0,0,0,0,0,0,-1,1490,1303,0,0
273,-279,0,0,0,0,0,0,0,0,0,-1,1497,1303,0,0
280,-279,0,0,0,0,0,0,0,0,0,-1,1504,1303,0,0
287,-279,0,0,0,0,0,0,0,0,0,-1,1511,1303,0,0
294,-279,0,0,0,0,0,0,0,0,0,-1,1518,1303,0,0
301,-279,0,0,0,0,0,0,0,0,0,-1,1525,1303,0,0
308,-279,0,0,0,0,0,0,0,0,0,-1,1532,1303,0,0
315,-279,0,0,0,0,0,0,0,0,0,-1,1539,1303,0,0
322,-279,0,0,0,0,0,0,0,0,0,-1,1546,1303,0,0
329,-279,0,0,0,0,0,0,0,0,0,-1,1553,1303,0,0
336,-279,0,0,0,0,0,0,0,0,0,-1,1560,1303,0,0
343,-279,0,0,0,0,0,0,0,0,0,-1,1567,1303,0,0
350,-279,0,0,0,0,0,0,0,0,0,-1,1574,1303,0,0
357,-279,0,0,0,0,0,0,0,0,0,-1,1581,1303,0,0
364,-279,0,0,0,0,0,0,0,0,0,-1,1588,1303,0,0
371,-279,0,0,0,0,0,0,0,0,0,-1,1595,1303,0,0
378,-279,0,0,0,0,0,0,0,0,0,-1,1602,1303,0,0
385,-279,0,0,0,0,0,0,0,0,0,-1,1609,1303,0,0
392,-279,0,0,0,0,0,0,0,0,0,-1,1616,1303,0,0
399,-279,0,0,0,0,0,0,0,0,0,-1,1623,1303,0,0
406,-279,0,0,0,0,0,0,0,0,0,-1,1630,1303,0,0
413,-279,0,0,0,0,0,0,0,0,0,-1,1637,1303,0,0
420,-279,0,0,0,0,0,0,0,0,0,-1,1644,1303,0,0
427,-279,0,0,0,0,0,0,0,0,0,-1,1651,1303,0,0
434,-279,0,0,0,0,0,0,0,0,0,-1,1658,1303,0,0
441,-279,0,0,0,0,0,0,0,0,0,-1,1665,1303,0,0
448,-279,0,0,0,0,0,0,0,0,0,-1,1672,1303,0,0
455,-279,0,0,0,0,0,0,0,0,0,-1,1679,1303,0,0
462,-279,0,0,0,0,0,0,0,0,0,-1,1686,1303,0,0
469,-279,0,0,0,0,0,0,0,0,0,-1,1693,1303,0,0
476,-279,0,0,0,0,0,0,0,0,0,-1,1700,1303,0,0
483,-279,0,0,0,0,0,0,0,0,0,-1,1707,1303,0,0
490,-279,0,0,0,0,0,0,0,0,0,-1,1714,1303,0,0
497,-279,0,0,0,0,0,0,0,0,0,-1,1721,1303,0,0
504,-279,0,0,0,0,0,0,0,0,0,-1,1728,1303,0,0
511,-279,0,0,0,0,0,0,0,0,0,-1,1735,1303,0,0
518,-279,0,0,0,0,0,0,0,0,0,-1,1742,1303,0,0
525,-279,0,0,0,0,0,0,0,0,0,-1,1749,1303,0,0
532,-279,0,0,0,0,0,0,0,0,0,-1,1756,1303,0,0
539,-279,0,0,0,0,0,0,0,0,0,-1,1763,1303,0,0
546,-279,0,0,0,0,0,0,0,0,0,-1,1770,1303,0,0
553,-279,0,0,0,0,0,0,0,0,0,-1,1777,1303,0,0
560,-279,0,0,0,0,0,0,0,0,0,-1,1784,1303,0,0
567,-279,0,0,0,0,0,0,0,0,0,-1,1791,1303,0,0
574,-279,0,0,0,0,0,0,0,0,0,-1,1798,1303,0,0
581,-279,0,0,0,0,0,0,0,0,0,-1,1805,1303,0,0
588,-279,0,0,0,0,0,0,0,0,0,-1,1812,1303,0,0
595,-279,0,0,0,0,0,0,0,0,0,-1,1819,1303,0,0
602,-279,66.9421,2.25757,0,0,0,0,0,0,0,-1,1826,1303,66.9421,-2.2576
609,-279,66.8331,2.07922,0,0,0,0,0,0,0,-1,1833,1303,66.8331,-2.07921
616,-279,67.0078,2.18188,0,0,0,0,0,0,0,-1,1840,1303,67.0078,-2.18194
623,-279,67.516,1.43506,0,0,0,0,0,0,0,-1,1847,1303,67.5159,-1.43509
630,-279,66.6772,1.29053,0,0,0,0,0,0,0,-1,1854,1303,66.6773,-1.29051
637,-279,64.8074,1.49939,0,0,0,0,0,0,0,-1,1861,1303,64.8074,-1.49939
644,-279,33.5021,3.40234,0,0,0,0,0,0,0,-1,1868,1303,33.5021,-3.40237
651,-279,29.8456,2.3562,0,0,0,0,0,0,0,-1,1875,1303,29.8455,-2.35615
658,-279,21.5076,7.65649,0,0,0,0,0,0,0,-1,1882,1303,21.5076,-7.65648
665,-279,18.9794,6.09607,0,0,0,0,0,0,0,-1,1889,1303,18.9793,-6.09601
672,-279,23.5206,8.32507,0,0,0,0,0,0,0,-1,1896,1303,23.5206,-8.32512
679,-279,46.2751,13.9551,0,0,0,0,0,0,0,-1,1903,1303,46.2752,-13.955
686,-279,46.343,13.2856,0.00204321,0.00222202,-0.00201549,0.00415009,0.000115145,-0.807563,0.00272915,0.0318082,1910,1303,46.343,-13.2857
693,-279,46.3735,12.5681,0.00192462,0.000615101,-0.00103678,0.00249609,4.3633e-05,-0.503758,0.00164971,0.0181664,1917,1303,46.3735,-12.5681
700,-279,46.3936,11.9209,0.00155045,-0.000636704,-1.75786e-05,0.00155059,-0.000636845,-0.00803654,0.00129913,0.0131516,1924,1303,46.3935,-11.9209
707,-279,46.3655,11.2339,0.000622835,-0.000491954,0.000627845,0.000905011,-0.00077413,0.422384,0.000970434,0.00983284,1931,1303,46.3655,-11.2339
714,-279,46.3224,10.563,-0.000392492,-0.000382186,0.00134821,0.000960879,-0.00173556,0.787309,0.00157806,0.0109425,1938,1303,46.3224,-10.563
721,-279,46.3312,9.8999,-0.00150346,-0.00036416,0.00214892,0.00128933,-0.00315696,0.914962,0.00264147,0.0158899,1945,1303,46.3311,-9.89995
728,-279,46.3113,9.24792,-0.00274525,-0.000447273,0.00304768,0.00166081,-0.00485334,0.965661,0.0039086,0.0181413,1952,1303,46.3113,-9.24794
735,-279,46.2524,8.64063,-0.00415727,-0.000652715,0.00406348,0.0020202,-0.00683018,0.988964,0.00535541,0.0171982,1959,1303,46.2525,-8.64062
742,-279,46.2074,8.08545,-0.00575099,-0.00108736,0.00522904,0.00230623,-0.00914458,0.995133,0.00699306,0.0285893,1966,1303,46.2074,-8.0855
749,-279,46.2087,7.53101,0,0,0,0,0,0,0,-1,1973,1303,46.2087,-7.53106
756,-279,23.2091,4.43433,0,0,0,0,0,0,0,-1,1980,1303,23.2092,-4.43432
763,-279,27.1613,3.46265,0,0,0,0,0,0,0,-1,1987,1303,27.1613,-3.4627
770,-279,21.5828,3.54199,0,0,0,0,0,0,0,-1,1994,1303,21.5827,-3.54198
777,-279,32.5369,6.99609,0,0,0,0,0,0,0,-1,2001,1303,32.5369,-6.99608
784,-279,0,0,0,0,0,0,0,0,0,-1,2008,1303,0,0
791,-279,0,0,0,0,0,0,0,0,0,-1,2015,1303,0,0
798,-279,0,0,0,0,0,0,0,0,0,-1,2022,1303,0,0
805,-279,0,0,0,0,0,0,0,0,0,-1,2029,1303,0,0
812,-279,0,0,0,0,0,0,0,0,0,-1,2036,1303,0,0
-700,-286,0,0,0,0,0,0,0,0,0,-1,524,1310,0,0
-693,-286,0,0,0,0,0,0,0,0,0,-1,531,1310,0,0
-686,-286,0,0,0,0,0,0,0,0,0,-1,538,1310,0,0
-679,-286,0,0,0,0,0,0,0,0,0,-1,545,1310,0,0
-672,-286,0,0,0,0,0,0,0,0,0,-1,552,1310,0,0
-665,-286,0,0,0,0,0,0,0,0,0,-1,559,1310,0,0
-658,-286,-44.103,1.76782,0,0,0,0,0,0,0,-1,566,1310,-44.103,-1.76778
-651,-286,-43.6417,1.98254,0,0,0,0,0,0,0,-1,573,1310,-43.6416,-1.98254
-644,-286,-43.3175,1.59558,0,0,0,0,0,0,0,-1,580,1310,-43.3175,-1.59556
-637,-286,-42.8448,1.15039,0,0,0,0,0,0,0,-1,587,1310,-42.8448,-1.15043
-630,-286,-42.1176,0.443848,0,0,0,0,0,0,0,-1,594,1310,-42.1176,-0.443802
-623,-286,-41.3121,-0.468384,0,0,0,0,0,0,0,-1,601,1310,-41.3121,0.468376
-616,-286,-22.0634,2.37744,0,0,0,0,0,0,0,-1,608,1310,-22.0633,-2.37746
-609,-286,-29.5206,5.90332,0,0,0,0,0,0,0,-1,615,1310,-29.5206,-5.9033
-602,-286,-29.4307,6.7699,0.000742568,0.00487377,0.00741419,0.0105047,-0.00488838,0.921254,0.00908225,0.0227196,622,1310,-29.4307,-6.76992
-595,-286,-29.4942,7.53894,0.00102683,0.00342562,0.00506106,0.00742747,-0.00297501,0.901744,0.00618654,0.0128478,629,1310,-29.4942,-7.53892
-588,-286,-29.5317,8.21338,0.00119839,0.00221721,0.00338799,0.00513388,-0.00171828,0.860018,0.00411666,0.0139075,636,1310,-29.5317,-8.21343
-581,-286,-29.5204,8.91089,0.00135843,0.00117817,0.0022031,0.00347325,-0.000936642,0.764954,0.00268278,0.0156561,643,1310,-29.5205,-8.91093
-574,-286,-29.5635,9.63806,0.00154098,0.000277738,0.00140634,0.00245103,-0.000632312,0.574336,0.00188056,0.0152724,650,1310,-29.5635,-9.63804
-567,-286,-29.6135,10.3615,0.00177159,-0.000524879,0.000915788,0.00209206,-0.000845356,0.336626,0.00174609,0.0151082,657,1310,-29.6135,-10.3615
-560,-286,-29.6449,11.0874,0.00204208,-0.00121281,0.000792554,0.0022248,-0.00139554,0.226594,0.0021084,0.0142715,664,1310,-29.6449,-11.0874
-553,-286,-29.6513,11.806,0.00251276,-0.00167273,0.00114714,0.00280654,-0.00196651,0.250711,0.00276992,0.0105118,671,1310,-29.6513,-11.806
-546,-286,-29.6595,12.5729,0.00324169,-0.002107,0.00157645,0.00367175,-0.00253706,0.266321,0.00360456,0.0251092,678,1310,-29.6596,-12.5728
-539,-286,-29.7969,13.4282,0,0,0,0,0,0,0,-1,685,1310,-29.7969,-13.4282
-532,-286,-21.6771,10.4924,0,0,0,0,0,0,0,-1,692,1310,-21.6771,-10.4924
-525,-286,-11.4528,-1.11768,0,0,0,0,0,0,0,-1,699,1310,-11.4528,1.11769
-518,-286,-11.0701,1.37329,0,0,0,0,0,0,0,-1,706,1310,-11.0701,-1.37332
-511,-286,-17.7545,-0.0791016,0,0,0,0,0,0,0,-1,713,1310,-17.7544,0.0791606
-504,-286,-18.0455,1.29602,0,0,0,0,0,0,0,-1,720,1310,-18.0455,-1.29601
-497,-286,-18.3367,2.67114,0,0,0,0,0,0,0,-1,727,1310,-18.3366,-2.67118
-490,-286,-19.5795,2.47266,0,0,0,0,0,0,0,-1,734,1310,-19.5795,-2.4727
-483,-286,-19.7277,2.74744,0,0,0,0,0,0,0,-1,741,1310,-19.7277,-2.74747
-476,-286,-20.0391,3.06177,0,0,0,0,0,0,0,-1,748,1310,-20.0391,-3.06178
-469,-286,0,0,0,0,0,0,0,0,0,-1,755,1310,0,0
-462,-286,0,0,0,0,0,0,0,0,0,-1,762,1310,0,0
-455,-286,0,0,0,0,0,0,0,0,0,-1,769,1310,0,0
-448,-286,0,0,0,0,0,0,0,0,0,-1,776,1310,0,0
-441,-286,0,0,0,0,0,0,0,0,0,-1,783,1310,0,0
-434,-286,0,0,0,0,0,0,0,0,0,-1,790,1310,0,0
-427,-286,0,0,0,0,0,0,0,0,0,-1,797,1310,0,0
-420,-286,0,0,0,0,0,0,0,0,0,-1,804,1310,0,0
-413,-286,0,0,0,0,0,0,0,0,0,-1,811,1310,0,0
-406,-286,0,0,0,0,0,0,0,0,0,-1,818,1310,0,0
-399,-286,0,0,0,0,0,0,0,0,0,-1,825,1310,0,0
-392,-286,0,0,0,0,0,0,0,0,0,-1,832,1310,0,0
-385,-286,0,0,0,0,0,0,0,0,0,-1,839,1310,0,0
-378,-286,0,0,0,0,0,0,0,0,0,-1,846,1310,0,0
-371,-286,0,0,0,0,0,0,0,0,0,-1,853,1310,0,0
-364,-286,0,0,0,0,0,0,0,0,0,-1,860,1310,0,0
-357,-286,0,0,0,0,0,0,0,0,0,-1,867,1310,0,0
-350,-286,0,0,0,0,0,0,0,0,0,-1,874,1310,0,0
-343,-286,0,0,0,0,0,0,0,0,0,-1,881,1310,0,0
-336,-286,0,0,0,0,0,0,0,0,0,-1,888,1310,0,0
-329,-286,0,0,0,0,0,0,0,0,0,-1,895,1310,0,0
-322,-286,0,0,0,0,0,0,0,0,0,-1,902,1310,0,0
-315,-286,0,0,0,0,0,0,0,0,0,-1,909,1310,0,0
-308,-286,0,0,0,0,0,0,0,0,0,-1,916,1310,0,0
-301,-286,0,0,0,0,0,0,0,0,0,-1,923,1310,0,0
-294,-286,0,0,0,0,0,0,0,0,0,-1,930,1310,0,0
-287,-286,0,0,0,0,0,0,0,0,0,-1,937,1310,0,0
-280,-286,0,0,0,0,0,0,0,0,0,-1,944,1310,0,0
-273,-286,0,0,0,0,0,0,0,0,0,-1,951,1310,0,0
-266,-286,0,0,0,0,0,0,0,0,0,-1,958,1310,0,0
-259,-286,0,0,0,0,0,0,0,0,0,-1,965,1310,0,0
-252,-286,0,0,0,0,0,0,0,0,0,-1,972,1310,0,0
-245,-286,0,0,0,0,0,0,0,0,0,-1,979,1310,0,0
-238,-286,0,0,0,0,0,0,0,0,0,-1,986,1310,0,0
-231,-286,0,0,0,0,0,0,0,0,0,-1,993,1310,0,0
-224,-286,0,0,0,0,0,0,0,0,0,-1,1000,1310,0,0
-217,-286,0,0,0,0,0,0,0,0,0,-1,1007,1310,0,0
-210,-286,0,0,0,0,0,0,0,0,0,-1,1014,1310,0,0
-203,-286,0,0,0,0,0,0,0,0,0,-1,1021,1310,0,0
-196,-286,0,0,0,0,0,0,0,0,0,-1,1028,1310,0,0
-189,-286,0,0,0,0,0,0,0,0,0,-1,1035,1310,0,0
-182,-286,0,0,0,0,0,0,0,0,0,-1,1042,1310,0,0
-175,-286,0,0,0,0,0,0,0,0,0,-1,1049,1310,0,0
-168,-286,0,0,0,0,0,0,0,0,0,-1,1056,1310,0,0
-161,-286,0,0,0,0,0,0,0,0,0,-1,1063,1310,0,0
-154,-286,0,0,0,0,0,0,0,0,0,-1,1070,1310,0,0
-147,-286,0,0,0,0,0,0,0,0,0,-1,1077,1310,0,0
-140,-286,0,0,0,0,0,0,0,0,0,-1,1084,1310,0,0
-133,-286,0,0,0,0,0,0,0,0,0,-1,1091,1310,0,0
-126,-286,0,0,0,0,0,0,0,0,0,-1,1098,1310,0,0
-119,-286,0,0,0,0,0,0,0,0,0,-1,1105,1310,0,0
-112,-286,0,0,0,0,0,0,0,0,0,-1,1112,1310,0,0
-105,-286,0,0,0,0,0,0,0,0,0,-1,1119,1310,0,0
-98,-286,0,0,0,0,0,0,0,0,0,-1,1126,1310,0,0
-91,-286,0,0,0,0,0,0,0,0,0,-1,1133,1310,0,0
-84,-286,0,0,0,0,0,0,0,0,0,-1,1140,1310,0,0
-77,-286,0,0,0,0,0,0,0,0,0,-1,1147,1310,0,0
-70,-286,0,0,0,0,0,0,0,0,0,-1,1154,1310,0,0
-63,-286,0,0,0,0,0,0,0,0,0,-1,1161,1310,0,0
-56,-286,0,0,0,0,0,0,0,0,0,-1,1168,1310,0,0
-49,-286,0,0,0,0,0,0,0,0,0,-1,1175,1310,0,0
-42,-286,0,0,0,0,0,0,0,0,0,-1,1182,1310,0,0
-35,-286,0,0,0,0,0,0,0,0,0,-1,1189,1310,0,0
-28,-286,0,0,0,0,0,0,0,0,0,-1,1196,1310,0,0
-21,-286,0,0,0,0,0,0,0,0,0,-1,1203,1310,0,0
-14,-286,0,0,0,0,0,0,0,0,0,-1,1210,1310,0,0
-7,-286,0,0,0,0,0,0,0,0,0,-1,1217,1310,0,0
0,-286,0,0,0,0,0,0,0,0,0,-1,1224,1310,0,0
7,-286,0,0,0,0,0,0,0,0,0,-1,1231,1310,0,0
14,-286,0,0,0,0,0,0,0,0,0,-1,1238,1310,0,0
21,-286,0,0,0,0,0,0,0,0,0,-1,1245,1310,0,0
28,-286,0,0,0,0,0,0,0,0,0,-1,1252,1310,0,0
35,-286,0,0,0,0,0,0,0,0,0,-1,1259,1310,0,0
42,-286,0,0,0,0,0,0,0,0,0,-1,1266,1310,0,0
49,-286,0,0,0,0,0,0,0,0,0,-1,1273,1310,0,0
56,-286,0,0,0,0,0,0,0,0,0,-1,1280,1310,0,0
63,-286,0,0,0,0,0,0,0,0,0,-1,1287,1310,0,0
70,-286,0,0,0,0,0,0,0,0,0,-1,1294,1310,0,0
77,-286,0,0,0,0,0,0,0,0,0,-1,1301,1310,0,0
84,-286,0,0,0,0,0,0,0,0,0,-1,1308,1310,0,0
91,-286,0,0,0,0,0,0,0,0,0,-1,1315,1310,0,0
98,-286,0,0,0,0,0,0,0,0,0,-1,1322,1310,0,0
105,-286,0,0,0,0,0,0,0,0,0,-1,1329,1310,0,0
112,-286,0,0,0,0,0,0,0,0,0,-1,1336,1310,0,0
119,-286,0,0,0,0,0,0,0,0,0,-1,1343,1310,0,0
126,-286,0,0,0,0,0,0,0,0,0,-1,1350,1310,0,0
133,-286,0,0,0,0,0,0,0,0,0,-1,1357,1310,0,0
140,-286,0,0,0,0,0,0,0,0,0,-1,1364,1310,0,0
147,-286,0,0,0,0,0,0,0,0,0,-1,1371,1310,0,0
154,-286,0,0,0,0,0,0,0,0,0,-1,1378,1310,0,0
161,-286,0,0,0,0,0,0,0,0,0,-1,1385,1310,0,0
168,-286,0,0,0,0,0,0,0,0,0,-1,1392,1310,0,0
175,-286,0,0,0,0,0,0,0,0,0,-1,1399,1310,0,0
182,-286,0,0,0,0,0,0,0,0,0,-1,1406,1310,0,0
189,-286,0,0,0,0,0,0,0,0,0,-1,1413,1310,0,0
196,-286,0,0,0,0,0,0,0,0,0,-1,1420,1310,0,0
203,-286,0,0,0,0,0,0,0,0,0,-1,1427,1310,0,0
210,-286,0,0,0,0,0,0,0,0,0,-1,1434,1310,0,0
217,-286,0,0,0,0,0,0,0,0,0,-1,1441,1310,0,0
224,-286,0,0,0,0,0,0,0,0,0,-1,1448,1310,0,0
231,-286,0,0,0,0,0,0,0,0,0,-1,1455,1310,0,0
238,-286,0,0,0,0,0,0,0,0,0,-1,1462,1310,0,0
245,-286,0,0,0,0,0,0,0,0,0,-1,1469,1310,0,0
252,-286,0,0,0,0,0,0,0,0,0,-1,1476,1310,0,0
259,-286,0,0,0,0,0,0,0,0,0,-1,1483,1310,0,0
266,-286,0,0,0,0,0,0,0,0,0,-1,1490,1310,0,0
273,-286,0,0,0,0,0,0,0,0,0,-1,1497,1310,0,0
280,-286,0,0,0,0,0,0,0,0,0,-1,1504,1310,0,0
287,-286,0,0,0,0,0,0,0,0,0,-1,1511,1310,0,0
294,-286,0,0,0,0,0,0,0,0,0,-1,1518,1310,0,0
301,-286,0,0,0,0,0,0,0,0,0,-1,1525,1310,0,0
308,-286,0,0,0,0,0,0,0,0,0,-1,1532,1310,0,0
315,-286,0,0,0,0,0,0,0,0,0,-1,1539,1310,0,0
322,-286,0,0,0,0,0,0,0,0,0,-1,1546,1310,0,0
329,-286,0,0,0,0,0,0,0,0,0,-1,1553,1310,0,0
336,-286,0,0,0,0,0,0,0,0,0,-1,1560,1310,0,0
343,-286,0,0,0,0,0,0,0,0,0,-1,1567,1310,0,0
350,-286,0,0,0,0,0,0,0,0,0,-1,1574,1310,0,0
357,-286,0,0,0,0,0,0,0,0,0,-1,1581,1310,0,0
364,-286,0,0,0,0,0,0,0,0,0,-1,1588,1310,0,0
371,-286,0,0,0,0,0,0,0,0,0,-1,1595,1310,0,0
378,-286,0,0,0,0,0,0,0,0,0,-1,1602,1310,0,0
385,-286,0,0,0,0,0,0,0,0,0,-1,1609,1310,0,0
392,-286,0,0,0,0,0,0,0,0,0,-1,1616,1310,0,0
399,-286,0,0,0,0,0,0,0,0,0,-1,1623,1310,0,0
406,-286,0,0,0,0,0,0,0,0,0,-1,1630,1310,0,0
413,-286,0,0,0,0,0,0,0,0,0,-1,1637,1310,0,0
420,-286,0,0,0,0,0,0,0,0,0,-1,1644,1310,0,0
427,-286,0,0,0,0,0,0,0,0,0,-1,1651,1310,0,0
434,-286,0,0,0,0,0,0,0,0,0,-1,1658,1310,0,0
441,-286,0,0,0,0,0,0,0,0,0,-1,1665,1310,0,0
448,-286,0,0,0,0,0,0,0,0,0,-1,1672,1310,0,0
455,-286,0,0,0,0,0,0,0,0,0,-1,1679,1310,0,0
462,-286,0,0,0,0,0,0,0,0,0,-1,1686,1310,0,0
469,-286,0,0,0,0,0,0,0,0,0,-1,1693,1310,0,0
476,-286,0,0,0,0,0,0,0,0,0,-1,1700,1310,0,0
483,-286,0,0,0,0,0,0,0,0,0,-1,1707,1310,0,0
490,-286,0,0,0,0,0,0,0,0,0,-1,1714,1310,0,0
497,-286,0,0,0,0,0,0,0,0,0,-1,1721,1310,0,0
504,-286,0,0,0,0,0,0,0,0,0,-1,1728,1310,0,0
511,-286,0,0,0,0,0,0,0,0,0,-1,1735,1310,0,0
518,-286,0,0,0,0,0,0,0,0,0,-1,1742,1310,0,0
525,-286,0,0,0,0,0,0,0,0,0,-1,1749,1310,0,0
532,-286,0,0,0,0,0,0,0,0,0,-1,1756,1310,0,0
539,-286,0,0,0,0,0,0,0,0,0,-1,1763,1310,0,0
546,-286,0,0,0,0,0,0,0,0,0,-1,1770,1310,0,0
553,-286,0,0,0,0,0,0,0,0,0,-1,1777,1310,0,0
560,-286,0,0,0,0,0,0,0,0,0,-1,1784,1310,0,0
567,-286,0,0,0,0,0,0,0,0,0,-1,1791,1310,0,0
574,-286,0,0,0,0,0,0,0,0,0,-1,1798,1310,0,0
581,-286,0,0,0,0,0,0,0,0,0,-1,1805,1310,0,0
588,-286,0,0,0,0,0,0,0,0,0,-1,1812,1310,0,0
595,-286,66.078,2.33081,0,0,0,0,0,0,0,-1,1819,1310,66.0781,-2.33083
602,-286,66.9714,2.08264,0,0,0,0,0,0,0,-1,1826,1310,66.9715,-2.08267
609,-286,66.8496,2.44385,0,0,0,0,0,0,0,-1,1833,1310,66.8496,-2.44386
616,-286,66.6825,2.5614,0,0,0,0,0,0,0,-1,1840,1310,66.6825,-2.56145
623,-286,68.2633,0.950195,0,0,0,0,0,0,0,-1,1847,1310,68.2633,-0.950175
630,-286,65.3651,1.61572,0,0,0,0,0,0,0,-1,1854,1310,65.3651,-1.61568
637,-286,47.8409,3.69824,0,0,0,0,0,0,0,-1,1861,1310,47.841,-3.69823
644,-286,25.6433,1.33862,0,0,0,0,0,0,0,-1,1868,1310,25.6433,-1.33858
651,-286,25.2507,1.88245,0,0,0,0,0,0,0,-1,1875,1310,25.2508,-1.88245
658,-286,25.9475,9.43689,0,0,0,0,0,0,0,-1,1882,1310,25.9475,-9.43693
665,-286,24.9838,8.03101,0,0,0,0,0,0,0,-1,1889,1310,24.9837,-8.03104
672,-286,40.2175,12.9626,0,0,0,0,0,0,0,-1,1896,1310,40.2175,-12.9627
679,-286,45.7253,13.9352,0,0,0,0,0,0,0,-1,1903,1310,45.7253,-13.9352
686,-286,45.7329,13.2711,0.00230924,0.00153587,-0.00176203,0.00372652,0.000118597,-0.677383,0.00244577,0.0227812,1910,1310,45.733,-13.2711
693,-286,45.7157,12.6138,0.0019765,0.00030798,-0.000844115,0.00232905,-4.45705e-05,-0.395634,0.00156777,0.0167997,1917,1310,45.7157,-12.6138
700,-286,45.7052,11.9418,0.00143567,-0.000452794,3.98446e-05,0.00143651,-0.000453634,0.0210864,0.0011394,0.0126814,1924,1310,45.7052,-11.9417
707,-286,45.6687,11.2856,0.000541258,-0.000296735,0.000682791,0.000923362,-0.000678838,0.510199,0.000928615,0.00980442,1931,1310,45.6686,-11.2857
714,-286,45.6395,10.6102,-0.000433307,-0.000219337,0.00140974,0.00108747,-0.00174011,0.823271,0.00164694,0.00985627,1938,1310,45.6395,-10.6103
721,-286,45.6434,9.94971,-0.00151371,-0.000238447,0.00223241,0.00144561,-0.00319777,0.924506,0.00274374,0.0129793,1945,1310,45.6435,-9.94969
728,-286,45.605,9.30505,-0.00274544,-0.000378328,0.00317619,0.00182766,-0.00495142,0.963745,0.00405004,0.016763,1952,1310,45.605,-9.30499
735,-286,45.5894,8.65247,-0.0041913,-0.000688827,0.00427974,0.00218411,-0.00706424,0.979601,0.00558183,0.0196139,1959,1310,45.5894,-8.65245
742,-286,45.5892,8.07788,-0.00587606,-0.00130371,0.00558175,0.00244191,-0.00962168,0.979767,0.00736463,0.0382034,1966,1310,45.5892,-8.07793
749,-286,45.7073,7.4834,0,0,0,0,0,0,0,-1,1973,1310,45.7073,-7.48345
756,-286,24.8226,4.43481,0,0,0,0,0,0,0,-1,1980,1310,24.8227,-4.43479
763,-286,20.6671,3.99683,0,0,0,0,0,0,0,-1,1987,1310,20.6671,-3.99683
770,-286,23.9147,4.45679,0,0,0,0,0,0,0,-1,1994,1310,23.9146,-4.45675
777,-286,0,0,0,0,0,0,0,0,0,-1,2001,1310,0,0
784,-286,0,0,0,0,0,0,0,0,0,-1,2008,1310,0,0
791,-286,0,0,0,0,0,0,0,0,0,-1,2015,1310,0,0
798,-286,0,0,0,0,0,0,0,0,0,-1,2022,1310,0,0
805,-286,0,0,0,0,0,0,0,0,0,-1,2029,1310,0,0
812,-286,0,0,0,0,0,0,0,0,0,-1,2036,1310,0,0
-700,-293,0,0,0,0,0,0,0,0,0,-1,524,1317,0,0
-693,-293,0,0,0,0,0,0,0,0,0,-1,531,1317,0,0
-686,-293,0,0,0,0,0,0,0,0,0,-1,538,1317,0,0
-679,-293,0,0,0,0,0,0,0,0,0,-1,545,1317,0,0
-672,-293,0,0,0,0,0,0,0,0,0,-1,552,1317,0,0
-665,-293,0,0,0,0,0,0,0,0,0,-1,559,1317,0,0
-658,-293,0,0,0,0,0,0,0,0,0,-1,566,1317,0,0
-651,-293,-42.6636,2.1897,0,0,0,0,0,0,0,-1,573,1317,-42.6636,-2.18965
-644,-293,-42.6672,1.56262,0,0,0,0,0,0,0,-1,580,1317,-42.6672,-1.5626
-637,-293,-42.7898,0.963745,0,0,0,0,0,0,0,-1,587,1317,-42.7898,-0.963689
-630,-293,-42.7558,0.296021,0,0,0,0,0,0,0,-1,594,1317,-42.7558,-0.295997
-623,-293,-15.6058,0.229614,0,0,0,0,0,0,0,-1,601,1317,-15.6058,-0.229666
-616,-293,-15.5056,2.17737,0,0,0,0,0,0,0,-1,608,1317,-15.5055,-2.17742
-609,-293,-25.3796,5.07373,0,0,0,0,0,0,0,-1,615,1317,-25.3796,-5.07369
-602,-293,-28.8247,6.86572,0,0,0,0,0,0,0,-1,622,1317,-28.8247,-6.86567
-595,-293,-28.8245,7.56946,0.00189396,0.00346008,0.00511442,0.00785105,-0.002497,0.861362,0.00623531,0.0217898,629,1317,-28.8245,-7.5695
-588,-293,-28.8357,8.25244,0.00182981,0.00229331,0.00341169,0.00548112,-0.00135799,0.81931,0.00418092,0.0174136,636,1317,-28.8357,-8.2524
-581,-293,-28.8063,8.94519,0.00180644,0.00134882,0.0022623,0.00385148,-0.000696213,0.735,0.00282843,0.0192172,643,1317,-28.8063,-8.94524
-574,-293,-28.8138,9.69727,0.00184122,0.000564437,0.00151654,0.00284825,-0.000442597,0.586179,0.00206226,0.0170952,650,1317,-28.8138,-9.69722
-567,-293,-28.8906,10.429,0.0019529,-0.000104288,0.00108029,0.00241596,-0.000567351,0.404954,0.00182932,0.0163864,657,1317,-28.8905,-10.429
-560,-293,-28.9414,11.1537,0.00219567,-0.000670545,0.000957159,0.00248591,-0.000960792,0.294425,0.00205387,0.0164361,664,1317,-28.9414,-11.1537
-553,-293,-28.9444,11.8583,0.00259353,-0.00103952,0.00124708,0.00298041,-0.00142639,0.30081,0.00259646,0.0111817,671,1317,-28.9444,-11.8582
-546,-293,-28.9851,12.5885,0.00325407,-0.00135082,0.00168462,0.00380455,-0.0019013,0.315832,0.00335481,0.0169051,678,1317,-28.9851,-12.5885
-539,-293,-29.0142,13.3254,0,0,0,0,0,0,0,-1,685,1317,-29.0142,-13.3255
-532,-293,-27.4858,13.6715,0,0,0,0,0,0,0,-1,692,1317,-27.4858,-13.6715
-525,-293,-8.20642,3.62256,0,0,0,0,0,0,0,-1,699,1317,-8.20639,-3.6226
-518,-293,-10.1053,0.314209,0,0,0,0,0,0,0,-1,706,1317,-10.1053,-0.314234
-511,-293,-11.6276,0.235352,0,0,0,0,0,0,0,-1,713,1317,-11.6276,-0.235372
-504,-293,-17.9086,1.25427,0,0,0,0,0,0,0,-1,720,1317,-17.9086,-1.25423
-497,-293,-18.8006,1.62122,0,0,0,0,0,0,0,-1,727,1317,-18.8006,-1.62119
-490,-293,-18.8961,1.99255,0,0,0,0,0,0,0,-1,734,1317,-18.8961,-1.99251
-483,-293,-19.0831,2.35498,0,0,0,0,0,0,0,-1,741,1317,-19.0831,-2.35497
-476,-293,-19.5228,2.61243,0,0,0,0,0,0,0,-1,748,1317,-19.5228,-2.61237
-469,-293,0,0,0,0,0,0,0,0,0,-1,755,1317,0,0
-462,-293,0,0,0,0,0,0,0,0,0,-1,762,1317,0,0
-455,-293,0,0,0,0,0,0,0,0,0,-1,769,1317,0,0
-448,-293,0,0,0,0,0,0,0,0,0,-1,776,1317,0,0
-441,-293,0,0,0,0,0,0,0,0,0,-1,783,1317,0,0
-434,-293,0,0,0,0,0,0,0,0,0,-1,790,1317,0,0
-427,-293,0,0,0,0,0,0,0,0,0,-1,797,1317,0,0
-420,-293,0,0,0,0,0,0,0,0,0,-1,804,1317,0,0
-413,-293,0,0,0,0,0,0,0,0,0,-1,811,1317,0,0
-406,-293,0,0,0,0,0,0,0,0,0,-1,818,1317,0,0
-399,-293,0,0,0,0,0,0,0,0,0,-1,825,1317,0,0
-392,-293,0,0,0,0,0,0,0,0,0,-1,832,1317,0,0
-385,-293,0,0,0,0,0,0,0,0,0,-1,839,1317,0,0
-378,-293,0,0,0,0,0,0,0,0,0,-1,846,1317,0,0
-371,-293,0,0,0,0,0,0,0,0,0,-1,853,1317,0,0
-364,-293,0,0,0,0,0,0,0,0,0,-1,860,1317,0,0
-357,-293,0,0,0,0,0,0,0,0,0,-1,867,1317,0,0
-350,-293,0,0,0,0,0,0,0,0,0,-1,874,1317,0,0
-343,-293,0,0,0,0,0,0,0,0,0,-1,881,1317,0,0
-336,-293,0,0,0,0,0,0,0,0,0,-1,888,1317,0,0
-329,-293,0,0,0,0,0,0,0,0,0,-1,895,1317,0,0
-322,-293,0,0,0,0,0,0,0,0,0,-1,902,1317,0,0
-315,-293,0,0,0,0,0,0,0,0,0,-1,909,1317,0,0
-308,-293,0,0,0,0,0,0,0,0,0,-1,916,1317,0,0
-301,-293,0,0,0,0,0,0,0,0,0,-1,923,1317,0,0
-294,-293,0,0,0,0,0,0,0,0,0,-1,930,1317,0,0
-287,-293,0,0,0,0,0,0,0,0,0,-1,937,1317,0,0
-280,-293,0,0,0,0,0,0,0,0,0,-1,944,1317,0,0
-273,-293,0,0,0,0,0,0,0,0,0,-1,951,1317,0,0
-266,-293,0,0,0,0,0,0,0,0,0,-1,958,1317,0,0
-259,-293,0,0,0,0,0,0,0,0,0,-1,965,1317,0,0
-252,-293,0,0,0,0,0,0,0,0,0,-1,972,1317,0,0
-245,-293,0,0,0,0,0,0,0,0,0,-1,979,1317,0,0
-238,-293,0,0,0,0,0,0,0,0,0,-1,986,1317,0,0
-231,-293,0,0,0,0,0,0,0,0,0,-1,993,1317,0,0
-224,-293,0,0,0,0,0,0,0,0,0,-1,1000,1317,0,0
-217,-293,0,0,0,0,0,0,0,0,0,-1,1007,1317,0,0
-210,-293,0,0,0,0,0,0,0,0,0,-1,1014,1317,0,0
-203,-293,0,0,0,0,0,0,0,0,0,-1,1021,1317,0,0
-196,-293,0,0,0,0,0,0,0,0,0,-1,1028,1317,0,0
-189,-293,0,0,0,0,0,0,0,0,0,-1,1035,1317,0,0
-182,-293,0,0,0,0,0,0,0,0,0,-1,1042,1317,0,0
-175,-293,0,0,0,0,0,0,0,0,0,-1,1049,1317,0,0
-168,-293,0,0,0,0,0,0,0,0,0,-1,1056,1317,0,0
-161,-293,0,0,0,0,0,0,0,0,0,-1,1063,1317,0,0
-154,-293,0,0,0,0,0,0,0,0,0,-1,1070,1317,0,0
-147,-293,0,0,0,0,0,0,0,0,0,-1,1077,1317,0,0
-140,-293,0,0,0,0,0,0,0,0,0,-1,1084,1317,0,0
-133,-293,0,0,0,0,0,0,0,0,0,-1,1091,1317,0,0
-126,-293,0,0,0,0,0,0,0,0,0,-1,1098,1317,0,0
-119,-293,0,0,0,0,0,0,0,0,0,-1,1105,1317,0,0
-112,-293,0,0,0,0,0,0,0,0,0,-1,1112,1317,0,0
-105,-293,0,0,0,0,0,0,0,0,0,-1,1119,1317,0,0
-98,-293,0,0,0,0,0,0,0,0,0,-1,1126,1317,0,0
-91,-293,0,0,0,0,0,0,0,0,0,-1,1133,1317,0,0
-84,-293,0,0,0,0,0,0,0,0,0,-1,1140,1317,0,0
-77,-293,0,0,0,0,0,0,0,0,0,-1,1147,1317,0,0
-70,-293,0,0,0,0,0,0,0,0,0,-1,1154,1317,0,0
-63,-293,0,0,0,0,0,0,0,0,0,-1,1161,1317,0,0
-56,-293,0,0,0,0,0,0,0,0,0,-1,1168,1317,0,0
-49,-293,0,0,0,0,0,0,0,0,0,-1,1175,1317,0,0
-42,-293,0,0,0,0,0,0,0,0,0,-1,1182,1317,0,0
-35,-293,0,0,0,0,0,0,0,0,0,-1,1189,1317,0,0
-28,-293,0,0,0,0,0,0,0,0,0,-1,1196,1317,0,0
-21,-293,0,0,0,0,0,0,0,0,0,-1,1203,1317,0,0
-14,-293,0,0,0,0,0,0,0,0,0,-1,1210,1317,0,0
-7,-293,0,0,0,0,0,0,0,0,0,-1,1217,1317,0,0
0,-293,0,0,0,0,0,0,0,0,0,-1,1224,1317,0,0
7,-293,0,0,0,0,0,0,0,0,0,-1,1231,1317,0,0
14,-293,0,0,0,0,0,0,0,0,0,-1,1238,1317,0,0
21,-293,0,0,0,0,0,0,0,0,0,-1,1245,1317,0,0
28,-293,0,0,0,0,0,0,0,0,0,-1,1252,1317,0,0
35,-293,0,0,0,0,0,0,0,0,0,-1,1259,1317,0,0
42,-293,0,0,0,0,0,0,0,0,0,-1,1266,1317,0,0
49,-293,0,0,0,0,0,0,0,0,0,-1,1273,1317,0,0
56,-293,0,0,0,0,0,0,0,0,0,-1,1280,1317,0,0
63,-293,0,0,0,0,0,0,0,0,0,-1,1287,1317,0,0
70,-293,0,0,0,0,0,0,0,0,0,-1,1294,1317,0,0
77,-293,0,0,0,0,0,0,0,0,0,-1,1301,1317,0,0
84,-293,0,0,0,0,0,0,0,0,0,-1,1308,1317,0,0
91,-293,0,0,0,0,0,0,0,0,0,-1,1315,1317,0,0
98,-293,0,0,0,0,0,0,0,0,0,-1,1322,1317,0,0
105,-293,0,0,0,0,0,0,0,0,0,-1,1329,1317,0,0
112,-293,0,0,0,0,0,0,0,0,0,-1,1336,1317,0,0
119,-293,0,0,0,0,0,0,0,0,0,-1,1343,1317,0,0
126,-293,0,0,0,0,0,0,0,0,0,-1,1350,1317,0,0
133,-293,0,0,0,0,0,0,0,0,0,-1,1357,1317,0,0
140,-293,0,0,0,0,0,0,0,0,0,-1,1364,1317,0,0
147,-293,0,0,0,0,0,0,0,0,0,-1,1371,1317,0,0
154,-293,0,0,0,0,0,0,0,0,0,-1,1378,1317,0,0
161,-293,0,0,0,0,0,0,0,0,0,-1,1385,1317,0,0
168,-293,0,0,0,0,0,0,0,0,0,-1,1392,1317,0,0
175,-293,0,0,0,0,0,0,0,0,0,-1,1399,1317,0,0
182,-293,0,0,0,0,0,0,0,0,0,-1,1406,1317,0,0
189,-293,0,0,0,0,0,0,0,0,0,-1,1413,1317,0,0
196,-293,0,0,0,0,0,0,0,0,0,-1,1420,1317,0,0
203,-293,0,0,0,0,0,0,0,0,0,-1,1427,1317,0,0
210,-293,0,0,0,0,0,0,0,0,0,-1,1434,1317,0,0
217,-293,0,0,0,0,0,0,0,0,0,-1,1441,1317,0,0
224,-293,0,0,0,0,0,0,0,0,0,-1,1448,1317,0,0
231,-293,0,0,0,0,0,0,0,0,0,-1,1455,1317,0,0
238,-293,0,0,0,0,0,0,0,0,0,-1,1462,1317,0,0
245,-293,0,0,0,0,0,0,0,0,0,-1,1469,1317,0,0
252,-293,0,0,0,0,0,0,0,0,0,-1,1476,1317,0,0
259,-293,0,0,0,0,0,0,0,0,0,-1,1483,1317,0,0
266,-293,0,0,0,0,0,0,0,0,0,-1,1490,1317,0,0
273,-293,0,0,0,0,0,0,0,0,0,-1,1497,1317,0,0
280,-293,0,0,0,0,0,0,0,0,0,-1,1504,1317,0,0
287,-293,0,0,0,0,0,0,0,0,0,-1,1511,1317,0,0
294,-293,0,0,0,0,0,0,0,0,0,-1,1518,1317,0,0
301,-293,0,0,0,0,0,0,0,0,0,-1,1525,1317,0,0
308,-293,0,0,0,0,0,0,0,0,0,-1,1532,1317,0,0
315,-293,0,0,0,0,0,0,0,0,0,-1,1539,1317,0,0
322,-293,0,0,0,0,0,0,0,0,0,-1,1546,1317,0,0
329,-293,0,0,0,0,0,0,0,0,0,-1,1553,1317,0,0
336,-293,0,0,0,0,0,0,0,0,0,-1,1560,1317,0,0
343,-293,0,0,0,0,0,0,0,0,0,-1,1567,1317,0,0
350,-293,0,0,0,0,0,0,0,0,0,-1,1574,1317,0,0
357,-293,0,0,0,0,0,0,0,0,0,-1,1581,1317,0,0
364,-293,0,0,0,0,0,0,0,0,0,-1,1588,1317,0,0
371,-293,0,0,0,0,0,0,0,0,0,-1,1595,1317,0,0
378,-293,0,0,0,0,0,0,0,0,0,-1,1602,1317,0,0
385,-293,0,0,0,0,0,0,0,0,0,-1,1609,1317,0,0
392,-293,0,0,0,0,0,0,0,0,0,-1,1616,1317,0,0
399,-293,0,0,0,0,0,0,0,0,0,-1,1623,1317,0,0
406,-293,0,0,0,0,0,0,0,0,0,-1,1630,1317,0,0
413,-293,0,0,0,0,0,0,0,0,0,-1,1637,1317,0,0
420,-293,0,0,0,0,0,0,0,0,0,-1,1644,1317,0,0
427,-293,0,0,0,0,0,0,0,0,0,-1,1651,1317,0,0
434,-293,0,0,0,0,0,0,0,0,0,-1,1658,1317,0,0
441,-293,0,0,0,0,0,0,0,0,0,-1,1665,1317,0,0
448,-293,0,0,0,0,0,0,0,0,0,-1,1672,1317,0,0
455,-293,0,0,0,0,0,0,0,0,0,-1,1679,1317,0,0
462,-293,0,0,0,0,0,0,0,0,0,-1,1686,1317,0,0
469,-293,0,0,0,0,0,0,0,0,0,-1,1693,1317,0,0
476,-293,0,0,0,0,0,0,0,0,0,-1,1700,1317,0,0
483,-293,0,0,0,0,0,0,0,0,0,-1,1707,1317,0,0
490,-293,0,0,0,0,0,0,0,0,0,-1,1714,1317,0,0
497,-293,0,0,0,0,0,0,0,0,0,-1,1721,1317,0,0
504,-293,0,0,0,0,0,0,0,0,0,-1,1728,1317,0,0
511,-293,0,0,0,0,0,0,0,0,0,-1,1735,1317,0,0
518,-293,0,0,0,0,0,0,0,0,0,-1,1742,1317,0,0
525,-293,0,0,0,0,0,0,0,0,0,-1,1749,1317,0,0
532,-293,0,0,0,0,0,0,0,0,0,-1,1756,1317,0,0
539,-293,0,0,0,0,0,0,0,0,0,-1,1763,1317,0,0
546,-293,0,0,0,0,0,0,0,0,0,-1,1770,1317,0,0
553,-293,0,0,0,0,0,0,0,0,0,-1,1777,1317,0,0
560,-293,0,0,0,0,0,0,0,0,0,-1,1784,1317,0,0
567,-293,0,0,0,0,0,0,0,0,0,-1,1791,1317,0,0
574,-293,0,0,0,0,0,0,0,0,0,-1,1798,1317,0,0
581,-293,0,0,0,0,0,0,0,0,0,-1,1805,1317,0,0
588,-293,0,0,0,0,0,0,0,0,0,-1,1812,1317,0,0
595,-293,66.2869,2.13513,0,0,0,0,0,0,0,-1,1819,1317,66.2868,-2.13508
602,-293,66.2808,1.91528,0,0,0,0,0,0,0,-1,1826,1317,66.2807,-1.91525
609,-293,66.3551,1.26086,0,0,0,0,0,0,0,-1,1833,1317,66.3551,-1.2609
616,-293,66.8596,2.64221,0,0,0,0,0,0,0,-1,1840,1317,66.8597,-2.64226
623,-293,64.6224,0.448364,0,0,0,0,0,0,0,-1,1847,1317,64.6224,-0.448318
630,-293,46.6716,3.21558,0,0,0,0,0,0,0,-1,1854,1317,46.6716,-3.2156
637,-293,42.7729,4.95544,0,0,0,0,0,0,0,-1,1861,1317,42.773,-4.95546
644,-293,24.4565,0.520752,0,0,0,0,0,0,0,-1,1868,1317,24.4566,-0.520709
651,-293,25.8926,9.51245,0,0,0,0,0,0,0,-1,1875,1317,25.8926,-9.51246
658,-293,25.4904,9.10205,0,0,0,0,0,0,0,-1,1882,1317,25.4904,-9.10209
665,-293,39.7999,13.4221,0,0,0,0,0,0,0,-1,1889,1317,39.8,-13.4221
672,-293,45.1887,14.6532,0,0,0,0,0,0,0,-1,1896,1317,45.1888,-14.6532
679,-293,45.1646,13.9792,0.00181864,0.00341789,-0.00201226,0.00478358,0.000452949,-0.974519,0.00304931,0.017886,1903,1317,45.1646,-13.9792
686,-293,45.1277,13.318,0.00242941,0.00100287,-0.00141449,0.00330029,0.000131984,-0.551873,0.00215754,0.0166077,1910,1317,45.1277,-13.318
693,-293,45.0964,12.6527,0.00191849,0.000139675,-0.00061984,0.00211317,-5.50054e-05,-0.304326,0.00142747,0.0126208,1917,1317,45.0964,-12.6527
700,-293,45.0356,11.9768,0.00127613,-0.000279297,0.000123712,0.0012859,-0.000289075,0.0788751,0.000968123,0.0110297,1924,1317,45.0357,-11.9768
707,-293,44.9999,11.3223,0.000433816,-0.000137372,0.000739963,0.000941386,-0.000644942,0.601227,0.000921182,0.0123868,1931,1317,44.9999,-11.3223
714,-293,44.9774,10.6523,-0.000490013,-6.91629e-05,0.00144953,0.00118514,-0.00174431,0.857478,0.00170156,0.00885316,1938,1317,44.9775,-10.6524
721,-293,44.972,9.97192,-0.00153131,-9.41597e-05,0.00227108,0.00156931,-0.00319478,0.938616,0.00280341,0.0105089,1945,1317,44.9721,-9.97189
728,-293,44.9503,9.29761,-0.00273156,-0.000237777,0.00322838,0.00197614,-0.00494547,0.969687,0.00411694,0.0135117,1952,1317,44.9503,-9.29758
735,-293,44.9132,8.61304,-0.00417579,-0.000584613,0.00438074,0.00235425,-0.00711466,0.979896,0.00569251,0.0242735,1959,1317,44.9132,-8.61308
742,-293,45.0259,8.00696,0,0,0,0,0,0,0,-1,1966,1317,45.0259,-8.00693
749,-293,29.439,5.35339,0,0,0,0,0,0,0,-1,1973,1317,29.4389,-5.35334
756,-293,24.978,3.9718,0,0,0,0,0,0,0,-1,1980,1317,24.978,-3.97186
763,-293,26.6713,4.74097,0,0,0,0,0,0,0,-1,1987,1317,26.6713,-4.74098
770,-293,24.1349,4.69153,0,0,0,0,0,0,0,-1,1994,1317,24.1348,-4.69159
777,-293,0,0,0,0,0,0,0,0,0,-1,2001,1317,0,0
784,-293,0,0,0,0,0,0,0,0,0,-1,2008,1317,0,0
791,-293,0,0,0,0,0,0,0,0,0,-1,2015,1317,0,0
798,-293,0,0,0,0,0,0,0,0,0,-1,2022,1317,0,0
805,-293,0,0,0,0,0,0,0,0,0,-1,2029,1317,0,0
812,-293,0,0,0,0,0,0,0,0,0,-1,2036,1317,0,0
-700,-300,0,0,0,0,0,0,0,0,0,-1,524,1324,0,0
-693,-300,0,0,0,0,0,0,0,0,0,-1,531,1324,0,0
-686,-300,0,0,0,0,0,0,0,0,0,-1,538,1324,0,0
-679,-300,0,0,0,0,0,0,0,0,0,-1,545,1324,0,0
-672,-300,0,0,0,0,0,0,0,0,0,-1,552,1324,0,0
-665,-300,0,0,0,0,0,0,0,0,0,-1,559,1324,0,0
-658,-300,0,0,0,0,0,0,0,0,0,-1,566,1324,0,0
-651,-300,-41.7632,2.33789,0,0,0,0,0,0,0,-1,573,1324,-41.7632,-2.33789
-644,-300,-42.3084,1.3728,0,0,0,0,0,0,0,-1,580,1324,-42.3084,-1.37282
-637,-300,-42.6259,0.807251,0,0,0,0,0,0,0,-1,587,1324,-42.6259,-0.807209
-630,-300,-21.1108,2.26306,0,0,0,0,0,0,0,-1,594,1324,-21.1109,-2.2631
-623,-300,-12.7067,1.48462,0,0,0,0,0,0,0,-1,601,1324,-12.7067,-1.48462
-616,-300,-14.9988,1.68628,0,0,0,0,0,0,0,-1,608,1324,-14.9988,-1.68627
-609,-300,-15.5027,3.29907,0,0,0,0,0,0,0,-1,615,1324,-15.5027,-3.29902
-602,-300,-28.0917,6.70679,0,0,0,0,0,0,0,-1,622,1324,-28.0917,-6.7068
-595,-300,-28.1462,7.56519,0.00263448,0.00328641,0.00489287,0.00786416,-0.00194327,0.818659,0.00599642,0.038419,629,1324,-28.1462,-7.56513
-588,-300,-28.1183,8.28198,0.00234036,0.00222042,0.00322093,0.00550188,-0.000941099,0.77609,0.00401852,0.0216297,636,1324,-28.1183,-8.28192
-581,-300,-28.1235,9.01221,0.00215439,0.00143194,0.0021604,0.00398355,-0.000397222,0.702563,0.00279752,0.0206543,643,1324,-28.1235,-9.0122
-574,-300,-28.1053,9.76013,0.00205833,0.000812262,0.00150618,0.00306525,-0.000194657,0.589288,0.00211138,0.0164408,650,1324,-28.1053,-9.76014
-567,-300,-28.1837,10.4614,0.00207351,0.000319246,0.00116765,0.00265677,-0.000264021,0.463266,0.00186543,0.0164232,657,1324,-28.1836,-10.4614
-560,-300,-28.2404,11.1885,0.00227734,-8.44779e-05,0.00108407,0.00269948,-0.000506612,0.371334,0.00199013,0.0146679,664,1324,-28.2404,-11.1885
-553,-300,-28.2334,11.9042,0.00260703,-0.000335392,0.00135339,0.00313485,-0.000863211,0.371854,0.00242931,0.0104221,671,1324,-28.2334,-11.9042
-546,-300,-28.2596,12.6127,0.00320623,-0.000512894,0.0018195,0.00394831,-0.00125498,0.387255,0.0031354,0.0100527,678,1324,-28.2596,-12.6127
-539,-300,-28.214,13.3818,0.00424631,-0.000695892,0.00250725,0.00529553,-0.00174511,0.39633,0.00423369,0.0272773,685,1324,-28.214,-13.3818
-532,-300,-28.1299,14.1421,0,0,0,0,0,0,0,-1,692,1324,-28.13,-14.142
-525,-300,-13.5115,6.27783,0,0,0,0,0,0,0,-1,699,1324,-13.5115,-6.2778
-518,-300,-9.8349,-0.537109,0,0,0,0,0,0,0,-1,706,1324,-9.83487,0.537068
-511,-300,-12.8644,0.081665,0,0,0,0,0,0,0,-1,713,1324,-12.8644,-0.0817016
-504,-300,-13.4829,-0.165527,0,0,0,0,0,0,0,-1,720,1324,-13.4829,0.165544
-497,-300,-18.1063,0.956543,0,0,0,0,0,0,0,-1,727,1324,-18.1063,-0.9565
-490,-300,-18.2293,1.53625,0,0,0,0,0,0,0,-1,734,1324,-18.2293,-1.53626
-483,-300,-18.3522,1.61084,0,0,0,0,0,0,0,-1,741,1324,-18.3522,-1.6108
-476,-300,-18.7489,1.96387,0,0,0,0,0,0,0,-1,748,1324,-18.7489,-1.96387
-469,-300,0,0,0,0,0,0,0,0,0,-1,755,1324,0,0
-462,-300,0,0,0,0,0,0,0,0,0,-1,762,1324,0,0
-455,-300,0,0,0,0,0,0,0,0,0,-1,769,1324,0,0
-448,-300,0,0,0,0,0,0,0,0,0,-1,776,1324,0,0
-441,-300,0,0,0,0,0,0,0,0,0,-1,783,1324,0,0
-434,-300,0,0,0,0,0,0,0,0,0,-1,790,1324,0,0
-427,-300,0,0,0,0,0,0,0,0,0,-1,797,1324,0,0
-420,-300,0,0,0,0,0,0,0,0,0,-1,804,1324,0,0
-413,-300,0,0,0,0,0,0,0,0,0,-1,811,1324,0,0
-406,-300,0,0,0,0,0,0,0,0,0,-1,818,1324,0,0
-399,-300,0,0,0,0,0,0,0,0,0,-1,825,1324,0,0
-392,-300,0,0,0,0,0,0,0,0,0,-1,832,1324,0,0
-385,-300,0,0,0,0,0,0,0,0,0,-1,839,1324,0,0
-378,-300,0,0,0,0,0,0,0,0,0,-1,846,1324,0,0
-371,-300,0,0,0,0,0,0,0,0,0,-1,853,1324,0,0
-364,-300,0,0,0,0,0,0,0,0,0,-1,860,1324,0,0
-357,-300,0,0,0,0,0,0,0,0,0,-1,867,1324,0,0
-350,-300,0,0,0,0,0,0,0,0,0,-1,874,1324,0,0
-343,-300,0,0,0,0,0,0,0,0,0,-1,881,1324,0,0
-336,-300,0,0,0,0,0,0,0,0,0,-1,888,1324,0,0
-329,-300,0,0,0,0,0,0,0,0,0,-1,895,1324,0,0
-322,-300,0,0,0,0,0,0,0,0,0,-1,902,1324,0,0
-315,-300,0,0,0,0,0,0,0,0,0,-1,909,1324,0,0
-308,-300,0,0,0,0,0,0,0,0,0,-1,916,1324,0,0
-301,-300,0,0,0,0,0,0,0,0,0,-1,923,1324,0,0
-294,-300,0,0,0,0,0,0,0,0,0,-1,930,1324,0,0
-287,-300,0,0,0,0,0,0,0,0,0,-1,937,1324,0,0
-280,-300,0,0,0,0,0,0,0,0,0,-1,944,1324,0,0
-273,-300,0,0,0,0,0,0,0,0,0,-1,951,1324,0,0
-266,-300,0,0,0,0,0,0,0,0,0,-1,958,1324,0,0
-259,-300,0,0,0,0,0,0,0,0,0,-1,965,1324,0,0
-252,-300,0,0,0,0,0,0,0,0,0,-1,972,1324,0,0
-245,-300,0,0,0,0,0,0,0,0,0,-1,979,1324,0,0
-238,-300,0,0,0,0,0,0,0,0,0,-1,986,1324,0,0
-231,-300,0,0,0,0,0,0,0,0,0,-1,993,1324,0,0
-224,-300,0,0,0,0,0,0,0,0,0,-1,1000,1324,0,0
-217,-300,0,0,0,0,0,0,0,0,0,-1,1007,1324,0,0
-210,-300,0,0,0,0,0,0,0,0,0,-1,1014,1324,0,0
-203,-300,0,0,0,0,0,0,0,0,0,-1,1021,1324,0,0
-196,-300,0,0,0,0,0,0,0,0,0,-1,1028,1324,0,0
-189,-300,0,0,0,0,0,0,0,0,0,-1,1035,1324,0,0
-182,-300,0,0,0,0,0,0,0,0,0,-1,1042,1324,0,0
-175,-300,0,0,0,0,0,0,0,0,0,-1,1049,1324,0,0
-168,-300,0,0,0,0,0,0,0,0,0,-1,1056,1324,0,0
-161,-300,0,0,0,0,0,0,0,0,0,-1,1063,1324,0,0
-154,-300,0,0,0,0,0,0,0,0,0,-1,1070,1324,0,0
-147,-300,0,0,0,0,0,0,0,0,0,-1,1077,1324,0,0
-140,-300,0,0,0,0,0,0,0,0,0,-1,1084,1324,0,0
-133,-300,0,0,0,0,0,0,0,0,0,-1,1091,1324,0,0
-126,-300,0,0,0,0,0,0,0,0,0,-1,1098,1324,0,0
-119,-300,0,0,0,0,0,0,0,0,0,-1,1105,1324,0,0
-112,-300,0,0,0,0,0,0,0,0,0,-1,1112,1324,0,0
-105,-300,0,0,0,0,0,0,0,0,0,-1,1119,1324,0,0
-98,-300,0,0,0,0,0,0,0,0,0,-1,1126,1324,0,0
-91,-300,0,0,0,0,0,0,0,0,0,-1,1133,1324,0,0
-84,-300,0,0,0,0,0,0,0,0,0,-1,1140,1324,0,0
-77,-300,0,0,0,0,0,0,0,0,0,-1,1147,1324,0,0
-70,-300,0,0,0,0,0,0,0,0,0,-1,1154,1324,0,0
-63,-300,0,0,0,0,0,0,0,0,0,-1,1161,1324,0,0
-56,-300,0,0,0,0,0,0,0,0,0,-1,1168,1324,0,0
-49,-300,0,0,0,0,0,0,0,0,0,-1,1175,1324,0,0
-42,-300,0,0,0,0,0,0,0,0,0,-1,1182,1324,0,0
-35,-300,0,0,0,0,0,0,0,0,0,-1,1189,1324,0,0
-28,-300,0,0,0,0,0,0,0,0,0,-1,1196,1324,0,0
-21,-300,0,0,0,0,0,0,0,0,0,-1,1203,1324,0,0
-14,-300,0,0,0,0,0,0,0,0,0,-1,1210,1324,0,0
-7,-300,0,0,0,0,0,0,0,0,0,-1,1217,1324,0,0
0,-300,0,0,0,0,0,0,0,0,0,-1,1224,1324,0,0
7,-300,0,0,0,0,0,0,0,0,0,-1,1231,1324,0,0
14,-300,0,0,0,0,0,0,0,0,0,-1,1238,1324,0,0
21,-300,0,0,0,0,0,0,0,0,0,-1,1245,1324,0,0
28,-300,0,0,0,0,0,0,0,0,0,-1,1252,1324,0,0
35,-300,0,0,0,0,0,0,0,0,0,-1,1259,1324,0,0
42,-300,0,0,0,0,0,0,0,0,0,-1,1266,1324,0,0
49,-300,0,0,0,0,0,0,0,0,0,-1,1273,1324,0,0
56,-300,0,0,0,0,0,0,0,0,0,-1,1280,1324,0,0
63,-300,0,0,0,0,0,0,0,0,0,-1,1287,1324,0,0
70,-300,0,0,0,0,0,0,0,0,0,-1,1294,1324,0,0
77,-300,0,0,0,0,0,0,0,0,0,-1,1301,1324,0,0
84,-300,0,0,0,0,0,0,0,0,0,-1,1308,1324,0,0
91,-300,0,0,0,0,0,0,0,0,0,-1,1315,1324,0,0
98,-300,0,0,0,0,0,0,0,0,0,-1,1322,1324,0,0
105,-300,0,0,0,0,0,0,0,0,0,-1,1329,1324,0,0
112,-300,0,0,0,0,0,0,0,0,0,-1,1336,1324,0,0
119,-300,0,0,0,0,0,0,0,0,0,-1,1343,1324,0,0
126,-300,0,0,0,0,0,0,0,0,0,-1,1350,1324,0,0
133,-300,0,0,0,0,0,0,0,0,0,-1,1357,1324,0,0
140,-300,0,0,0,0,0,0,0,0,0,-1,1364,1324,0,0
147,-300,0,0,0,0,0,0,0,0,0,-1,1371,1324,0,0
154,-300,0,0,0,0,0,0,0,0,0,-1,1378,1324,0,0
161,-300,0,0,0,0,0,0,0,0,0,-1,1385,1324,0,0
168,-300,0,0,0,0,0,0,0,0,0,-1,1392,1324,0,0
175,-300,0,0,0,0,0,0,0,0,0,-1,1399,1324,0,0
182,-300,0,0,0,0,0,0,0,0,0,-1,1406,1324,0,0
189,-300,0,0,0,0,0,0,0,0,0,-1,1413,1324,0,0
196,-300,0,0,0,0,0,0,0,0,0,-1,1420,1324,0,0
203,-300,0,0,0,0,0,0,0,0,0,-1,1427,1324,0,0
210,-300,0,0,0,0,0,0,0,0,0,-1,1434,1324,0,0
217,-300,0,0,0,0,0,0,0,0,0,-1,1441,1324,0,0
224,-300,0,0,0,0,0,0,0,0,0,-1,1448,1324,0,0
231,-300,0,0,0,0,0,0,0,0,0,-1,1455,1324,0,0
238,-300,0,0,0,0,0,0,0,0,0,-1,1462,1324,0,0
245,-300,0,0,0,0,0,0,0,0,0,-1,1469,1324,0,0
252,-300,0,0,0,0,0,0,0,0,0,-1,1476,1324,0,0
259,-300,0,0,0,0,0,0,0,0,0,-1,1483,1324,0,0
266,-300,0,0,0,0,0,0,0,0,0,-1,1490,1324,0,0
273,-300,0,0,0,0,0,0,0,0,0,-1,1497,1324,0,0
280,-300,0,0,0,0,0,0,0,0,0,-1,1504,1324,0,0
287,-300,0,0,0,0,0,0,0,0,0,-1,1511,1324,0,0
294,-300,0,0,0,0,0,0,0,0,0,-1,1518,1324,0,0
301,-300,0,0,0,0,0,0,0,0,0,-1,1525,1324,0,0
308,-300,0,0,0,0,0,0,0,0,0,-1,1532,1324,0,0
315,-300,0,0,0,0,0,0,0,0,0,-1,1539,1324,0,0
322,-300,0,0,0,0,0,0,0,0,0,-1,1546,1324,0,0
329,-300,0,0,0,0,0,0,0,0,0,-1,1553,1324,0,0
336,-300,0,0,0,0,0,0,0,0,0,-1,1560,1324,0,0
343,-300,0,0,0,0,0,0,0,0,0,-1,1567,1324,0,0
350,-300,0,0,0,0,0,0,0,0,0,-1,1574,1324,0,0
357,-300,0,0,0,0,0,0,0,0,0,-1,1581,1324,0,0
364,-300,0,0,0,0,0,0,0,0,0,-1,1588,1324,0,0
371,-300,0,0,0,0,0,0,0,0,0,-1,1595,1324,0,0
378,-300,0,0,0,0,0,0,0,0,0,-1,1602,1324,0,0
385,-300,0,0,0,0,0,0,0,0,0,-1,1609,1324,0,0
392,-300,0,0,0,0,0,0,0,0,0,-1,1616,1324,0,0
399,-300,0,0,0,0,0,0,0,0,0,-1,1623,1324,0,0
406,-300,0,0,0,0,0,0,0,0,0,-1,1630,1324,0,0
413,-300,0,0,0,0,0,0,0,0,0,-1,1637,1324,0,0
420,-300,0,0,0,0,0,0,0,0,0,-1,1644,1324,0,0
427,-300,0,0,0,0,0,0,0,0,0,-1,1651,1324,0,0
434,-300,0,0,0,0,0,0,0,0,0,-1,1658,1324,0,0
441,-300,0,0,0,0,0,0,0,0,0,-1,1665,1324,0,0
448,-300,0,0,0,0,0,0,0,0,0,-1,1672,1324,0,0
455,-300,0,0,0,0,0,0,0,0,0,-1,1679,1324,0,0
462,-300,0,0,0,0,0,0,0,0,0,-1,1686,1324,0,0
469,-300,0,0,0,0,0,0,0,0,0,-1,1693,1324,0,0
476,-300,0,0,0,0,0,0,0,0,0,-1,1700,1324,0,0
483,-300,0,0,0,0,0,0,0,0,0,-1,1707,1324,0,0
490,-300,0,0,0,0,0,0,0,0,0,-1,1714,1324,0,0
497,-300,0,0,0,0,0,0,0,0,0,-1,1721,1324,0,0
504,-300,0,0,0,0,0,0,0,0,0,-1,1728,1324,0,0
511,-300,0,0,0,0,0,0,0,0,0,-1,1735,1324,0,0
518,-300,0,0,0,0,0,0,0,0,0,-1,1742,1324,0,0
525,-300,0,0,0,0,0,0,0,0,0,-1,1749,1324,0,0
532,-300,0,0,0,0,0,0,0,0,0,-1,1756,1324,0,0
539,-300,0,0,0,0,0,0,0,0,0,-1,1763,1324,0,0
546,-300,0,0,0,0,0,0,0,0,0,-1,1770,1324,0,0
553,-300,0,0,0,0,0,0,0,0,0,-1,1777,1324,0,0
560,-300,0,0,0,0,0,0,0,0,0,-1,1784,1324,0,0
567,-300,0,0,0,0,0,0,0,0,0,-1,1791,1324,0,0
574,-300,0,0,0,0,0,0,0,0,0,-1,1798,1324,0,0
581,-300,0,0,0,0,0,0,0,0,0,-1,1805,1324,0,0
588,-300,66.4561,1.99207,0,0,0,0,0,0,0,-1,1812,1324,66.456,-1.99202
595,-300,66.4685,1.95496,0,0,0,0,0,0,0,-1,1819,1324,66.4685,-1.95499
602,-300,66.5259,1.72363,0,0,0,0,0,0,0,-1,1826,1324,66.5259,-1.72367
609,-300,64.2576,2.90149,0,0,0,0,0,0,0,-1,1833,1324,64.2575,-2.90154
616,-300,65.1267,2.84033,0,0,0,0,0,0,0,-1,1840,1324,65.1267,-2.84037
623,-300,47.4474,2.43188,0,0,0,0,0,0,0,-1,1847,1324,47.4474,-2.43194
630,-300,42.4099,3.9165,0,0,0,0,0,0,0,-1,1854,1324,42.4099,-3.91649
637,-300,31.1719,4.6366,0,0,0,0,0,0,0,-1,1861,1324,31.1718,-4.63665
644,-300,22.9836,3.44934,0,0,0,0,0,0,0,-1,1868,1324,22.9836,-3.4493
651,-300,25.5004,9.11853,0,0,0,0,0,0,0,-1,1875,1324,25.5004,-9.11851
658,-300,25.4012,9.20032,0,0,0,0,0,0,0,-1,1882,1324,25.4012,-9.20036
665,-300,44.5886,15.3561,0,0,0,0,0,0,0,-1,1889,1324,44.5886,-15.3561
672,-300,44.442,14.7614,0.00111185,0.00496601,-0.00276429,0.00640864,-0.000330778,-1.0898,0.00438684,0.032561,1896,1324,44.442,-14.7613
679,-300,44.4763,14.0414,0.00183167,0.00211558,-0.00147536,0.0034558,0.000491455,-0.833358,0.00215877,0.0132978,1903,1324,44.4763,-14.0414
686,-300,44.4607,13.366,0.00215929,0.000335064,-0.000948174,0.00256285,-6.8491e-05,-0.40239,0.00173185,0.0139671,1910,1324,44.4607,-13.3659
693,-300,44.4089,12.7056,0.0016271,-7.47494e-05,-0.000343069,0.00169366,-0.000141305,-0.191619,0.00117903,0.0121812,1917,1324,44.4089,-12.7056
700,-300,44.3593,12.0234,0.00104619,-0.000142983,0.000223105,0.00108667,-0.000183463,0.179484,0.000792712,0.0129077,1924,1324,44.3592,-12.0234
707,-300,44.3567,11.3237,0.000396627,2.58671e-05,0.000743146,0.000977166,-0.000554672,0.663166,0.00089555,0.0100945,1931,1324,44.3567,-11.3238
714,-300,44.3303,10.658,-0.000362178,0.000125686,0.00137347,0.00127672,-0.00151321,0.873283,0.00161269,0.0121744,1938,1324,44.3303,-10.658
721,-300,44.3103,10.0004,-0.00125325,0.000139518,0.0021322,0.00168617,-0.00279991,0.943239,0.00261651,0.0135673,1945,1324,44.3103,-10.0004
728,-300,44.3285,9.28625,-0.00229877,4.75669e-05,0.00303469,0.00212796,-0.00437917,0.969843,0.0038311,0.0183829,1952,1324,44.3284,-9.28629
735,-300,44.1007,8.87646,-0.00361118,-0.000288002,0.0041666,0.0025361,-0.00643528,0.975129,0.00534021,0.0353554,1959,1324,44.1007,-8.87652
742,-300,43.985,8.31885,0,0,0,0,0,0,0,-1,1966,1324,43.985,-8.3189
749,-300,27.4065,5.9718,0,0,0,0,0,0,0,-1,1973,1324,27.4065,-5.97181
756,-300,22.1423,3.45642,0,0,0,0,0,0,0,-1,1980,1324,22.1423,-3.45638
763,-300,22.6136,5.1571,0,0,0,0,0,0,0,-1,1987,1324,22.6136,-5.15706
770,-300,24.859,4.77979,0,0,0,0,0,0,0,-1,1994,1324,24.859,-4.77972
777,-300,0,0,0,0,0,0,0,0,0,-1,2001,1324,0,0
784,-300,0,0,0,0,0,0,0,0,0,-1,2008,1324,0,0
791,-300,0,0,0,0,0,0,0,0,0,-1,2015,1324,0,0
798,-300,0,0,0,0,0,0,0,0,0,-1,2022,1324,0,0
805,-300,0,0,0,0,0,0,0,0,0,-1,2029,1324,0,0
812,-300,0,0,0,0,0,0,0,0,0,-1,2036,1324,0,0
-700,-307,0,0,0,0,0,0,0,0,0,-1,524,1331,0,0
-693,-307,0,0,0,0,0,0,0,0,0,-1,531,1331,0,0
-686,-307,0,0,0,0,0,0,0,0,0,-1,538,1331,0,0
-679,-307,0,0,0,0,0,0,0,0,0,-1,545,1331,0,0
-672,-307,0,0,0,0,0,0,0,0,0,-1,552,1331,0,0
-665,-307,0,0,0,0,0,0,0,0,0,-1,559,1331,0,0
-658,-307,0,0,0,0,0,0,0,0,0,-1,566,1331,0,0
-651,-307,-40.7436,1.98755,0,0,0,0,0,0,0,-1,573,1331,-40.7436,-1.98753
-644,-307,-41.7838,1.24817,0,0,0,0,0,0,0,-1,580,1331,-41.7838,-1.2482
-637,-307,-41.9006,0.477783,0,0,0,0,0,0,0,-1,587,1331,-41.9006,-0.477844
-630,-307,-12.0005,0.767212,0,0,0,0,0,0,0,-1,594,1331,-12.0005,-0.767266
-623,-307,-12.2128,2.93811,0,0,0,0,0,0,0,-1,601,1331,-12.2128,-2.93813
-616,-307,-12.6612,2.08289,0,0,0,0,0,0,0,-1,608,1331,-12.6612,-2.08293
-609,-307,-12.2767,1.83228,0,0,0,0,0,0,0,-1,615,1331,-12.2768,-1.83224
-602,-307,-27.3408,6.77759,0,0,0,0,0,0,0,-1,622,1331,-27.3408,-6.77763
-595,-307,-27.4857,7.60461,0.0034554,0.00306069,0.00480494,0.00806703,-0.00155094,0.764873,0.00596262,0.0499334,629,1331,-27.4857,-7.60467
-588,-307,-27.4177,8.34644,0.00291302,0.00210935,0.00310224,0.00563934,-0.000616973,0.720992,0.00398119,0.0233176,636,1331,-27.4176,-8.34646
-581,-307,-27.4094,9.07239,0.00255145,0.0014547,0.00207226,0.00414666,-0.000140514,0.65605,0.00281245,0.0162963,643,1331,-27.4094,-9.07244
-574,-307,-27.4282,9.78125,0.00230249,0.000937928,0.00144621,0.00321928,2.11356e-05,0.564993,0.00213918,0.0128553,650,1331,-27.4282,-9.7812
-567,-307,-27.4825,10.488,0.00220766,0.000539932,0.0011414,0.00278734,-3.9753e-05,0.469926,0.00187162,0.0127134,657,1331,-27.4826,-10.4881
-560,-307,-27.4963,11.2198,0.00232604,0.000211685,0.00104273,0.00275376,-0.000216035,0.38926,0.00191192,0.0140796,664,1331,-27.4963,-11.2198
-553,-307,-27.5057,11.9359,0.00255748,-2.07086e-05,0.00124569,0.00306101,-0.000524239,0.384138,0.002236,0.0110579,671,1331,-27.5057,-11.936
-546,-307,-27.5372,12.6484,0.0030679,-0.000171954,0.00166634,0.00377194,-0.000876001,0.399761,0.00285183,0.0105133,678,1331,-27.5372,-12.6485
-539,-307,-27.554,13.3938,0.00398329,-0.000312678,0.00227969,0.00496753,-0.00129692,0.407568,0.00381814,0.0181957,685,1331,-27.554,-13.3938
-532,-307,-27.5526,14.1477,0,0,0,0,0,0,0,-1,692,1331,-27.5525,-14.1477
-525,-307,-13.2009,6.91309,0,0,0,0,0,0,0,-1,699,1331,-13.2009,-6.9131
-518,-307,-9.77777,-1.56653,0,0,0,0,0,0,0,-1,706,1331,-9.77777,1.56651
-511,-307,-12.5226,0.26709,0,0,0,0,0,0,0,-1,713,1331,-12.5226,-0.267038
-504,-307,-12.5913,-0.308105,0,0,0,0,0,0,0,-1,720,1331,-12.5913,0.308124
-497,-307,-13.8586,-0.115845,0,0,0,0,0,0,0,-1,727,1331,-13.8587,0.115861
-490,-307,-17.9429,0.982178,0,0,0,0,0,0,0,-1,734,1331,-17.9429,-0.982198
-483,-307,-18.1066,0.927612,0,0,0,0,0,0,0,-1,741,1331,-18.1066,-0.927609
-476,-307,-18.1288,1.1228,0,0,0,0,0,0,0,-1,748,1331,-18.1289,-1.12286
-469,-307,-18.2028,0.798584,0,0,0,0,0,0,0,-1,755,1331,-18.2027,-0.798546
-462,-307,0,0,0,0,0,0,0,0,0,-1,762,1331,0,0
-455,-307,0,0,0,0,0,0,0,0,0,-1,769,1331,0,0
-448,-307,0,0,0,0,0,0,0,0,0,-1,776,1331,0,0
-441,-307,0,0,0,0,0,0,0,0,0,-1,783,1331,0,0
-434,-307,0,0,0,0,0,0,0,0,0,-1,790,1331,0,0
-427,-307,0,0,0,0,0,0,0,0,0,-1,797,1331,0,0
-420,-307,0,0,0,0,0,0,0,0,0,-1,804,1331,0,0
-413,-307,0,0,0,0,0,0,0,0,0,-1,811,1331,0,0
-406,-307,0,0,0,0,0,0,0,0,0,-1,818,1331,0,0
-399,-307,0,0,0,0,0,0,0,0,0,-1,825,1331,0,0
-392,-307,0,0,0,0,0,0,0,0,0,-1,832,1331,0,0
-385,-307,0,0,0,0,0,0,0,0,0,-1,839,1331,0,0
-378,-307,0,0,0,0,0,0,0,0,0,-1,846,1331,0,0
-371,-307,0,0,0,0,0,0,0,0,0,-1,853,1331,0,0
-364,-307,0,0,0,0,0,0,0,0,0,-1,860,1331,0,0
-357,-307,0,0,0,0,0,0,0,0,0,-1,867,1331,0,0
-350,-307,0,0,0,0,0,0,0,0,0,-1,874,1331,0,0
-343,-307,0,0,0,0,0,0,0,0,0,-1,881,1331,0,0
-336,-307,0,0,0,0,0,0,0,0,0,-1,888,1331,0,0
-329,-307,0,0,0,0,0,0,0,0,0,-1,895,1331,0,0
-322,-307,0,0,0,0,0,0,0,0,0,-1,902,1331,0,0
-315,-307,0,0,0,0,0,0,0,0,0,-1,909,1331,0,0
-308,-307,0,0,0,0,0,0,0,0,0,-1,916,1331,0,0
-301,-307,0,0,0,0,0,0,0,0,0,-1,923,1331,0,0
-294,-307,0,0,0,0,0,0,0,0,0,-1,930,1331,0,0
-287,-307,0,0,0,0,0,0,0,0,0,-1,937,1331,0,0
-280,-307,0,0,0,0,0,0,0,0,0,-1,944,1331,0,0
-273,-307,0,0,0,0,0,0,0,0,0,-1,951,1331,0,0
-266,-307,0,0,0,0,0,0,0,0,0,-1,958,1331,0,0
-259,-307,0,0,0,0,0,0,0,0,0,-1,965,1331,0,0
-252,-307,0,0,0,0,0,0,0,0,0,-1,972,1331,0,0
-245,-307,0,0,0,0,0,0,0,0,0,-1,979,1331,0,0
-238,-307,0,0,0,0,0,0,0,0,0,-1,986,1331,0,0
-231,-307,0,0,0,0,0,0,0,0,0,-1,993,1331,0,0
-224,-307,0,0,0,0,0,0,0,0,0,-1,1000,1331,0,0
-217,-307,0,0,0,0,0,0,0,0,0,-1,1007,1331,0,0
-210,-307,0,0,0,0,0,0,0,0,0,-1,1014,1331,0,0
-203,-307,0,0,0,0,0,0,0,0,0,-1,1021,1331,0,0
-196,-307,0,0,0,0,0,0,0,0,0,-1,1028,1331,0,0
-189,-307,0,0,0,0,0,0,0,0,0,-1,1035,1331,0,0
-182,-307,0,0,0,0,0,0,0,0,0,-1,1042,1331,0,0
-175,-307,0,0,0,0,0,0,0,0,0,-1,1049,1331,0,0
-168,-307,0,0,0,0,0,0,0,0,0,-1,1056,1331,0,0
-161,-307,0,0,0,0,0,0,0,0,0,-1,1063,1331,0,0
-154,-307,0,0,0,0,0,0,0,0,0,-1,1070,1331,0,0
-147,-307,0,0,0,0,0,0,0,0,0,-1,1077,1331,0,0
-140,-307,0,0,0,0,0,0,0,0,0,-1,1084,1331,0,0
-133,-307,0,0,0,0,0,0,0,0,0,-1,1091,1331,0,0
-126,-307,0,0,0,0,0,0,0,0,0,-1,1098,1331,0,0
-119,-307,0,0,0,0,0,0,0,0,0,-1,1105,1331,0,0
-112,-307,0,0,0,0,0,0,0,0,0,-1,1112,1331,0,0
-105,-307,0,0,0,0,0,0,0,0,0,-1,1119,1331,0,0
-98,-307,0,0,0,0,0,0,0,0,0,-1,1126,1331,0,0
-91,-307,0,0,0,0,0,0,0,0,0,-1,1133,1331,0,0
-84,-307,0,0,0,0,0,0,0,0,0,-1,1140,1331,0,0
-77,-307,0,0,0,0,0,0,0,0,0,-1,1147,1331,0,0
-70,-307,0,0,0,0,0,0,0,0,0,-1,1154,1331,0,0
-63,-307,0,0,0,0,0,0,0,0,0,-1,1161,1331,0,0
-56,-307,0,0,0,0,0,0,0,0,0,-1,1168,1331,0,0
-49,-307,0,0,0,0,0,0,0,0,0,-1,1175,1331,0,0
-42,-307,0,0,0,0,0,0,0,0,0,-1,1182,1331,0,0
-35,-307,0,0,0,0,0,0,0,0,0,-1,1189,1331,0,0
-28,-307,0,0,0,0,0,0,0,0,0,-1,1196,1331,0,0
-21,-307,0,0,0,0,0,0,0,0,0,-1,1203,1331,0,0
-14,-307,0,0,0,0,0,0,0,0,0,-1,1210,1331,0,0
-7,-307,0,0,0,0,0,0,0,0,0,-1,1217,1331,0,0
0,-307,0,0,0,0,0,0,0,0,0,-1,1224,1331,0,0
7,-307,0,0,0,0,0,0,0,0,0,-1,1231,1331,0,0
14,-307,0,0,0,0,0,0,0,0,0,-1,1238,1331,0,0
21,-307,0,0,0,0,0,0,0,0,0,-1,1245,1331,0,0
28,-307,0,0,0,0,0,0,0,0,0,-1,1252,1331,0,0
35,-307,0,0,0,0,0,0,0,0,0,-1,1259,1331,0,0
42,-307,0,0,0,0,0,0,0,0,0,-1,1266,1331,0,0
49,-307,0,0,0,0,0,0,0,0,0,-1,1273,1331,0,0
56,-307,0,0,0,0,0,0,0,0,0,-1,1280,1331,0,0
63,-307,0,0,0,0,0,0,0,0,0,-1,1287,1331,0,0
70,-307,0,0,0,0,0,0,0,0,0,-1,1294,1331,0,0
77,-307,0,0,0,0,0,0,0,0,0,-1,1301,1331,0,0
84,-307,0,0,0,0,0,0,0,0,0,-1,1308,1331,0,0
91,-307,0,0,0,0,0,0,0,0,0,-1,1315,1331,0,0
98,-307,0,0,0,0,0,0,0,0,0,-1,1322,1331,0,0
105,-307,0,0,0,0,0,0,0,0,0,-1,1329,1331,0,0
112,-307,0,0,0,0,0,0,0,0,0,-1,1336,1331,0,0
119,-307,0,0,0,0,0,0,0,0,0,-1,1343,1331,0,0
126,-307,0,0,0,0,0,0,0,0,0,-1,1350,1331,0,0
133,-307,0,0,0,0,0,0,0,0,0,-1,1357,1331,0,0
140,-307,0,0,0,0,0,0,0,0,0,-1,1364,1331,0,0
147,-307,0,0,0,0,0,0,0,0,0,-1,1371,1331,0,0
154,-307,0,0,0,0,0,0,0,0,0,-1,1378,1331,0,0
161,-307,0,0,0,0,0,0,0,0,0,-1,1385,1331,0,0
168,-307,0,0,0,0,0,0,0,0,0,-1,1392,1331,0,0
175,-307,0,0,0,0,0,0,0,0,0,-1,1399,1331,0,0
182,-307,0,0,0,0,0,0,0,0,0,-1,1406,1331,0,0
189,-307,0,0,0,0,0,0,0,0,0,-1,1413,1331,0,0
196,-307,0,0,0,0,0,0,0,0,0,-1,1420,1331,0,0
203,-307,0,0,0,0,0,0,0,0,0,-1,1427,1331,0,0
210,-307,0,0,0,0,0,0,0,0,0,-1,1434,1331,0,0
217,-307,0,0,0,0,0,0,0,0,0,-1,1441,1331,0,0
224,-307,0,0,0,0,0,0,0,0,0,-1,1448,1331,0,0
231,-307,0,0,0,0,0,0,0,0,0,-1,1455,1331,0,0
238,-307,0,0,0,0,0,0,0,0,0,-1,1462,1331,0,0
245,-307,0,0,0,0,0,0,0,0,0,-1,1469,1331,0,0
252,-307,0,0,0,0,0,0,0,0,0,-1,1476,1331,0,0
259,-307,0,0,0,0,0,0,0,0,0,-1,1483,1331,0,0
266,-307,0,0,0,0,0,0,0,0,0,-1,1490,1331,0,0
273,-307,0,0,0,0,0,0,0,0,0,-1,1497,1331,0,0
280,-307,0,0,0,0,0,0,0,0,0,-1,1504,1331,0,0
287,-307,0,0,0,0,0,0,0,0,0,-1,1511,1331,0,0
294,-307,0,0,0,0,0,0,0,0,0,-1,1518,1331,0,0
301,-307,0,0,0,0,0,0,0,0,0,-1,1525,1331,0,0
308,-307,0,0,0,0,0,0,0,0,0,-1,1532,1331,0,0
315,-307,0,0,0,0,0,0,0,0,0,-1,1539,1331,0,0
322,-307,0,0,0,0,0,0,0,0,0,-1,1546,1331,0,0
329,-307,0,0,0,0,0,0,0,0,0,-1,1553,1331,0,0
336,-307,0,0,0,0,0,0,0,0,0,-1,1560,1331,0,0
343,-307,0,0,0,0,0,0,0,0,0,-1,1567,1331,0,0
350,-307,0,0,0,0,0,0,0,0,0,-1,1574,1331,0,0
357,-307,0,0,0,0,0,0,0,0,0,-1,1581,1331,0,0
364,-307,0,0,0,0,0,0,0,0,0,-1,1588,1331,0,0
371,-307,0,0,0,0,0,0,0,0,0,-1,1595,1331,0,0
378,-307,0,0,0,0,0,0,0,0,0,-1,1602,1331,0,0
385,-307,0,0,0,0,0,0,0,0,0,-1,1609,1331,0,0
392,-307,0,0,0,0,0,0,0,0,0,-1,1616,1331,0,0
399,-307,0,0,0,0,0,0,0,0,0,-1,1623,1331,0,0
406,-307,0,0,0,0,0,0,0,0,0,-1,1630,1331,0,0
413,-307,0,0,0,0,0,0,0,0,0,-1,1637,1331,0,0
420,-307,0,0,0,0,0,0,0,0,0,-1,1644,1331,0,0
427,-307,0,0,0,0,0,0,0,0,0,-1,1651,1331,0,0
434,-307,0,0,0,0,0,0,0,0,0,-1,1658,1331,0,0
441,-307,0,0,0,0,0,0,0,0,0,-1,1665,1331,0,0
448,-307,0,0,0,0,0,0,0,0,0,-1,1672,1331,0,0
455,-307,0,0,0,0,0,0,0,0,0,-1,1679,1331,0,0
462,-307,0,0,0,0,0,0,0,0,0,-1,1686,1331,0,0
469,-307,0,0,0,0,0,0,0,0,0,-1,1693,1331,0,0
476,-307,0,0,0,0,0,0,0,0,0,-1,1700,1331,0,0
483,-307,0,0,0,0,0,0,0,0,0,-1,1707,1331,0,0
490,-307,0,0,0,0,0,0,0,0,0,-1,1714,1331,0,0
497,-307,0,0,0,0,0,0,0,0,0,-1,1721,1331,0,0
504,-307,0,0,0,0,0,0,0,0,0,-1,1728,1331,0,0
511,-307,0,0,0,0,0,0,0,0,0,-1,1735,1331,0,0
518,-307,0,0,0,0,0,0,0,0,0,-1,1742,1331,0,0
525,-307,0,0,0,0,0,0,0,0,0,-1,1749,1331,0,0
532,-307,0,0,0,0,0,0,0,0,0,-1,1756,1331,0,0
539,-307,0,0,0,0,0,0,0,0,0,-1,1763,1331,0,0
546,-307,0,0,0,0,0,0,0,0,0,-1,1770,1331,0,0
553,-307,0,0,0,0,0,0,0,0,0,-1,1777,1331,0,0
560,-307,0,0,0,0,0,0,0,0,0,-1,1784,1331,0,0
567,-307,0,0,0,0,0,0,0,0,0,-1,1791,1331,0,0
574,-307,0,0,0,0,0,0,0,0,0,-1,1798,1331,0,0
581,-307,0,0,0,0,0,0,0,0,0,-1,1805,1331,0,0
588,-307,66.5917,1.60864,0,0,0,0,0,0,0,-1,1812,1331,66.5917,-1.60867
595,-307,66.708,1.85352,0,0,0,0,0,0,0,-1,1819,1331,66.708,-1.85351
602,-307,66.111,1.49976,0,0,0,0,0,0,0,-1,1826,1331,66.1109,-1.49974
609,-307,63.8848,2.78992,0,0,0,0,0,0,0,-1,1833,1331,63.8848,-2.78989
616,-307,53.2878,0.135498,0,0,0,0,0,0,0,-1,1840,1331,53.2878,-0.135477
623,-307,44.3966,2.84888,0,0,0,0,0,0,0,-1,1847,1331,44.3966,-2.84884
630,-307,29.8116,1.51184,0,0,0,0,0,0,0,-1,1854,1331,29.8116,-1.51188
637,-307,24.6407,4.09106,0,0,0,0,0,0,0,-1,1861,1331,24.6407,-4.09103
644,-307,22.6885,5.80408,0,0,0,0,0,0,0,-1,1868,1331,22.6884,-5.80408
651,-307,17.5013,5.80078,0,0,0,0,0,0,0,-1,1875,1331,17.5014,-5.80072
658,-307,37.4427,13.9775,0,0,0,0,0,0,0,-1,1882,1331,37.4427,-13.9776
665,-307,43.9124,15.4326,0,0,0,0,0,0,0,-1,1889,1331,43.9124,-15.4326
672,-307,43.8091,14.76,0.00105961,0.00243461,-0.00156177,0.00345351,4.07129e-05,-0.992738,0.00228889,0.0196755,1896,1331,43.8091,-14.76
679,-307,43.7854,14.0786,0.00167981,0.000467661,-0.000615377,0.00193746,0.000210014,-0.396507,0.00122764,0.0105398,1903,1331,43.7854,-14.0786
686,-307,43.7683,13.4015,0.00187295,-0.000341623,-0.00037867,0.00193591,-0.000404582,-0.164756,0.00144448,0.0106218,1910,1331,43.7683,-13.4015
693,-307,43.7251,12.7217,0.00143715,-0.000235678,-9.34269e-05,0.00144235,-0.000240879,-0.0556192,0.0010511,0.0130838,1917,1331,43.7252,-12.7216
700,-307,43.7029,12.0079,0.00097017,-4.15145e-06,0.000263766,0.00103699,-7.09743e-05,0.248122,0.00071616,0.0142595,1924,1331,43.7029,-12.0079
707,-307,43.6814,11.3223,0.000448954,0.000196895,0.00071542,0.00104936,-0.000403512,0.698212,0.000866002,0.0165062,1931,1331,43.6814,-11.3222
714,-307,43.6554,10.7068,-0.000195528,0.000339362,0.00128748,0.00138689,-0.00124305,0.887805,0.00151915,0.0144894,1938,1331,43.6554,-10.7068
721,-307,43.6672,10.0677,-0.000986358,0.000385144,0.0020203,0.0018329,-0.00243412,0.949012,0.0024717,0.0180762,1945,1331,43.6672,-10.0677
728,-307,43.7018,9.39636,0,0,0,0,0,0,0,-1,1952,1331,43.7017,-9.39634
735,-307,43.5496,8.59729,0,0,0,0,0,0,0,-1,1959,1331,43.5496,-8.59723
742,-307,26.677,6.09192,0,0,0,0,0,0,0,-1,1966,1331,26.677,-6.0919
749,-307,26.7727,5.9032,0,0,0,0,0,0,0,-1,1973,1331,26.7727,-5.90323
756,-307,27.1556,5.74756,0,0,0,0,0,0,0,-1,1980,1331,27.1557,-5.7475
763,-307,18.7522,3.55298,0,0,0,0,0,0,0,-1,1987,1331,18.7522,-3.55301
770,-307,0,0,0,0,0,0,0,0,0,-1,1994,1331,0,0
777,-307,0,0,0,0,0,0,0,0,0,-1,2001,1331,0,0
784,-307,0,0,0,0,0,0,0,0,0,-1,2008,1331,0,0
791,-307,0,0,0,0,0,0,0,0,0,-1,2015,1331,0,0
798,-307,0,0,0,0,0,0,0,0,0,-1,2022,1331,0,0
805,-307,0,0,0,0,0,0,0,0,0,-1,2029,1331,0,0
812,-307,0,0,0,0,0,0,0,0,0,-1,2036,1331,0,0
-700,-314,0,0,0,0,0,0,0,0,0,-1,524,1338,0,0
-693,-314,0,0,0,0,0,0,0,0,0,-1,531,1338,0,0
-686,-314,0,0,0,0,0,0,0,0,0,-1,538,1338,0,0
-679,-314,0,0,0,0,0,0,0,0,0,-1,545,1338,0,0
-672,-314,0,0,0,0,0,0,0,0,0,-1,552,1338,0,0
-665,-314,0,0,0,0,0,0,0,0,0,-1,559,1338,0,0
-658,-314,0,0,0,0,0,0,0,0,0,-1,566,1338,0,0
-651,-314,0,0,0,0,0,0,0,0,0,-1,573,1338,0,0
-644,-314,-41.2806,1.17566,0,0,0,0,0,0,0,-1,580,1338,-41.2806,-1.17565
-637,-314,-58.369,7.97375,0,0,0,0,0,0,0,-1,587,1338,-58.369,-7.97376
-630,-314,-59.7463,6.72742,0,0,0,0,0,0,0,-1,594,1338,-59.7463,-6.72739
-623,-314,-13.3542,3.00903,0,0,0,0,0,0,0,-1,601,1338,-13.3542,-3.00907
-616,-314,-9.93311,1.15088,0,0,0,0,0,0,0,-1,608,1338,-9.93308,-1.15093
-609,-314,-9.4361,2.86292,0,0,0,0,0,0,0,-1,615,1338,-9.43612,-2.86286
-602,-314,-11.8027,2.42798,0,0,0,0,0,0,0,-1,622,1338,-11.8027,-2.42802
-595,-314,-26.7583,7.60181,0,0,0,0,0,0,0,-1,629,1338,-26.7583,-7.60185
-588,-314,-26.6862,8.35205,0.00357591,0.00188653,0.00287278,0.00572561,-0.000263166,0.642412,0.00390775,0.0338264,636,1338,-26.6861,-8.35206
-581,-314,-26.6674,9.08997,0.00298258,0.00139384,0.00191846,0.00426463,0.000111792,0.589112,0.00280656,0.012438,643,1338,-26.6673,-9.08993
-574,-314,-26.7299,9.77698,0.00256459,0.00097124,0.00136232,0.00334609,0.000189747,0.520817,0.00217024,0.0121973,650,1338,-26.7299,-9.77701
-567,-314,-26.7549,10.5065,0.00237333,0.000644148,0.00111908,0.0029229,9.4577e-05,0.456496,0.00191785,0.0143616,657,1338,-26.7549,-10.5064
-560,-314,-26.7496,11.2555,0.00243773,0.000382269,0.00106002,0.00288644,-6.64385e-05,0.400431,0.00194682,0.0149328,664,1338,-26.7496,-11.2555
-553,-314,-26.7883,11.9783,0.00263736,0.000147467,0.00124717,0.00315461,-0.000369782,0.393146,0.00223655,0.0167098,671,1338,-26.7883,-11.9782
-546,-314,-26.8483,12.7124,0.00312922,-4.57944e-07,0.0016422,0.00383276,-0.000703995,0.404757,0.00281929,0.0185569,678,1338,-26.8483,-12.7124
-539,-314,-26.8383,13.4387,0.0039875,-0.000119243,0.0021952,0.00493999,-0.00107174,0.409384,0.00370264,0.0195878,685,1338,-26.8383,-13.4387
-532,-314,-26.7656,14.0981,0,0,0,0,0,0,0,-1,692,1338,-26.7656,-14.0982
-525,-314,-13.3017,7.50671,0,0,0,0,0,0,0,-1,699,1338,-13.3017,-7.50669
-518,-314,-8.52753,4.70032,0,0,0,0,0,0,0,-1,706,1338,-8.52755,-4.70034
-511,-314,-11.8597,0.384888,0,0,0,0,0,0,0,-1,713,1338,-11.8597,-0.384927
-504,-314,-11.4322,-0.187378,0,0,0,0,0,0,0,-1,720,1338,-11.4322,0.187381
-497,-314,-11.0047,-0.759644,0,0,0,0,0,0,0,-1,727,1338,-11.0047,0.759689
-490,-314,-18.5143,0.471069,0,0,0,0,0,0,0,-1,734,1338,-18.5143,-0.47103
-483,-314,-17.8528,0.577271,0,0,0,0,0,0,0,-1,741,1338,-17.8528,-0.577327
-476,-314,-17.714,0.665405,0,0,0,0,0,0,0,-1,748,1338,-17.714,-0.665388
-469,-314,-17.7246,0.794678,0,0,0,0,0,0,0,-1,755,1338,-17.7246,-0.794645
-462,-314,0,0,0,0,0,0,0,0,0,-1,762,1338,0,0
-455,-314,0,0,0,0,0,0,0,0,0,-1,769,1338,0,0
-448,-314,0,0,0,0,0,0,0,0,0,-1,776,1338,0,0
-441,-314,0,0,0,0,0,0,0,0,0,-1,783,1338,0,0
-434,-314,0,0,0,0,0,0,0,0,0,-1,790,1338,0,0
-427,-314,0,0,0,0,0,0,0,0,0,-1,797,1338,0,0
-420,-314,0,0,0,0,0,0,0,0,0,-1,804,1338,0,0
-413,-314,0,0,0,0,0,0,0,0,0,-1,811,1338,0,0
-406,-314,0,0,0,0,0,0,0,0,0,-1,818,1338,0,0
-399,-314,0,0,0,0,0,0,0,0,0,-1,825,1338,0,0
-392,-314,0,0,0,0,0,0,0,0,0,-1,832,1338,0,0
-385,-314,0,0,0,0,0,0,0,0,0,-1,839,1338,0,0
-378,-314,0,0,0,0,0,0,0,0,0,-1,846,1338,0,0
-371,-314,0,0,0,0,0,0,0,0,0,-1,853,1338,0,0
-364,-314,0,0,0,0,0,0,0,0,0,-1,860,1338,0,0
-357,-314,0,0,0,0,0,0,0,0,0,-1,867,1338,0,0
-350,-314,0,0,0,0,0,0,0,0,0,-1,874,1338,0,0
-343,-314,0,0,0,0,0,0,0,0,0,-1,881,1338,0,0
-336,-314,0,0,0,0,0,0,0,0,0,-1,888,1338,0,0
-329,-314,0,0,0,0,0,0,0,0,0,-1,895,1338,0,0
-322,-314,0,0,0,0,0,0,0,0,0,-1,902,1338,0,0
-315,-314,0,0,0,0,0,0,0,0,0,-1,909,1338,0,0
-308,-314,0,0,0,0,0,0,0,0,0,-1,916,1338,0,0
-301,-314,0,0,0,0,0,0,0,0,0,-1,923,1338,0,0
-294,-314,0,0,0,0,0,0,0,0,0,-1,930,1338,0,0
-287,-314,0,0,0,0,0,0,0,0,0,-1,937,1338,0,0
-280,-314,0,0,0,0,0,0,0,0,0,-1,944,1338,0,0
-273,-314,0,0,0,0,0,0,0,0,0,-1,951,1338,0,0
-266,-314,0,0,0,0,0,0,0,0,0,-1,958,1338,0,0
-259,-314,0,0,0,0,0,0,0,0,0,-1,965,1338,0,0
-252,-314,0,0,0,0,0,0,0,0,0,-1,972,1338,0,0
-245,-314,0,0,0,0,0,0,0,0,0,-1,979,1338,0,0
-238,-314,0,0,0,0,0,0,0,0,0,-1,986,1338,0,0
-231,-314,0,0,0,0,0,0,0,0,0,-1,993,1338,0,0
-224,-314,0,0,0,0,0,0,0,0,0,-1,1000,1338,0,0
-217,-314,0,0,0,0,0,0,0,0,0,-1,1007,1338,0,0
-210,-314,0,0,0,0,0,0,0,0,0,-1,1014,1338,0,0
-203,-314,0,0,0,0,0,0,0,0,0,-1,1021,1338,0,0
-196,-314,0,0,0,0,0,0,0,0,0,-1,1028,1338,0,0
-189,-314,0,0,0,0,0,0,0,0,0,-1,1035,1338,0,0
-182,-314,0,0,0,0,0,0,0,0,0,-1,1042,1338,0,0
-175,-314,0,0,0,0,0,0,0,0,0,-1,1049,1338,0,0
-168,-314,0,0,0,0,0,0,0,0,0,-1,1056,1338,0,0
-161,-314,0,0,0,0,0,0,0,0,0,-1,1063,1338,0,0
-154,-314,0,0,0,0,0,0,0,0,0,-1,1070,1338,0,0
-147,-314,0,0,0,0,0,0,0,0,0,-1,1077,1338,0,0
-140,-314,0,0,0,0,0,0,0,0,0,-1,1084,1338,0,0
-133,-314,0,0,0,0,0,0,0,0,0,-1,1091,1338,0,0
-126,-314,0,0,0,0,0,0,0,0,0,-1,1098,1338,0,0
-119,-314,0,0,0,0,0,0,0,0,0,-1,1105,1338,0,0
-112,-314,0,0,0,0,0,0,0,0,0,-1,1112,1338,0,0
-105,-314,0,0,0,0,0,0,0,0,0,-1,1119,1338,0,0
-98,-314,0,0,0,0,0,0,0,0,0,-1,1126,1338,0,0
-91,-314,0,0,0,0,0,0,0,0,0,-1,1133,1338,0,0
-84,-314,0,0,0,0,0,0,0,0,0,-1,1140,1338,0,0
-77,-314,0,0,0,0,0,0,0,0,0,-1,1147,1338,0,0
-70,-314,0,0,0,0,0,0,0,0,0,-1,1154,1338,0,0
-63,-314,0,0,0,0,0,0,0,0,0,-1,1161,1338,0,0
-56,-314,0,0,0,0,0,0,0,0,0,-1,1168,1338,0,0
-49,-314,0,0,0,0,0,0,0,0,0,-1,1175,1338,0,0
-42,-314,0,0,0,0,0,0,0,0,0,-1,1182,1338,0,0
-35,-314,0,0,0,0,0,0,0,0,0,-1,1189,1338,0,0
-28,-314,0,0,0,0,0,0,0,0,0,-1,1196,1338,0,0
-21,-314,0,0,0,0,0,0,0,0,0,-1,1203,1338,0,0
-14,-314,0,0,0,0,0,0,0,0,0,-1,1210,1338,0,0
-7,-314,0,0,0,0,0,0,0,0,0,-1,1217,1338,0,0
0,-314,0,0,0,0,0,0,0,0,0,-1,1224,1338,0,0
7,-314,0,0,0,0,0,0,0,0,0,-1,1231,1338,0,0
14,-314,0,0,0,0,0,0,0,0,0,-1,1238,1338,0,0
21,-314,0,0,0,0,0,0,0,0,0,-1,1245,1338,0,0
28,-314,0,0,0,0,0,0,0,0,0,-1,1252,1338,0,0
35,-314,0,0,0,0,0,0,0,0,0,-1,1259,1338,0,0
42,-314,0,0,0,0,0,0,0,0,0,-1,1266,1338,0,0
49,-314,0,0,0,0,0,0,0,0,0,-1,1273,1338,0,0
56,-314,0,0,0,0,0,0,0,0,0,-1,1280,1338,0,0
63,-314,0,0,0,0,0,0,0,0,0,-1,1287,1338,0,0
70,-314,0,0,0,0,0,0,0,0,0,-1,1294,1338,0,0
77,-314,0,0,0,0,0,0,0,0,0,-1,1301,1338,0,0
84,-314,0,0,0,0,0,0,0,0,0,-1,1308,1338,0,0
91,-314,0,0,0,0,0,0,0,0,0,-1,1315,1338,0,0
98,-314,0,0,0,0,0,0,0,0,0,-1,1322,1338,0,0
105,-314,0,0,0,0,0,0,0,0,0,-1,1329,1338,0,0
112,-314,0,0,0,0,0,0,0,0,0,-1,1336,1338,0,0
119,-314,0,0,0,0,0,0,0,0,0,-1,1343,1338,0,0
126,-314,0,0,0,0,0,0,0,0,0,-1,1350,1338,0,0
133,-314,0,0,0,0,0,0,0,0,0,-1,1357,1338,0,0
140,-314,0,0,0,0,0,0,0,0,0,-1,1364,1338,0,0
147,-314,0,0,0,0,0,0,0,0,0,-1,1371,1338,0,0
154,-314,0,0,0,0,0,0,0,0,0,-1,1378,1338,0,0
161,-314,0,0,0,0,0,0,0,0,0,-1,1385,1338,0,0
168,-314,0,0,0,0,0,0,0,0,0,-1,1392,1338,0,0
175,-314,0,0,0,0,0,0,0,0,0,-1,1399,1338,0,0
182,-314,0,0,0,0,0,0,0,0,0,-1,1406,1338,0,0
189,-314,0,0,0,0,0,0,0,0,0,-1,1413,1338,0,0
196,-314,0,0,0,0,0,0,0,0,0,-1,1420,1338,0,0
203,-314,0,0,0,0,0,0,0,0,0,-1,1427,1338,0,0
210,-314,0,0,0,0,0,0,0,0,0,-1,1434,1338,0,0
217,-314,0,0,0,0,0,0,0,0,0,-1,1441,1338,0,0
224,-314,0,0,0,0,0,0,0,0,0,-1,1448,1338,0,0
231,-314,0,0,0,0,0,0,0,0,0,-1,1455,1338,0,0
238,-314,0,0,0,0,0,0,0,0,0,-1,1462,1338,0,0
245,-314,0,0,0,0,0,0,0,0,0,-1,1469,1338,0,0
252,-314,0,0,0,0,0,0,0,0,0,-1,1476,1338,0,0
259,-314,0,0,0,0,0,0,0,0,0,-1,1483,1338,0,0
266,-314,0,0,0,0,0,0,0,0,0,-1,1490,1338,0,0
273,-314,0,0,0,0,0,0,0,0,0,-1,1497,1338,0,0
280,-314,0,0,0,0,0,0,0,0,0,-1,1504,1338,0,0
287,-314,0,0,0,0,0,0,0,0,0,-1,1511,1338,0,0
294,-314,0,0,0,0,0,0,0,0,0,-1,1518,1338,0,0
301,-314,0,0,0,0,0,0,0,0,0,-1,1525,1338,0,0
308,-314,0,0,0,0,0,0,0,0,0,-1,1532,1338,0,0
315,-314,0,0,0,0,0,0,0,0,0,-1,1539,1338,0,0
322,-314,0,0,0,0,0,0,0,0,0,-1,1546,1338,0,0
329,-314,0,0,0,0,0,0,0,0,0,-1,1553,1338,0,0
336,-314,0,0,0,0,0,0,0,0,0,-1,1560,1338,0,0
343,-314,0,0,0,0,0,0,0,0,0,-1,1567,1338,0,0
350,-314,0,0,0,0,0,0,0,0,0,-1,1574,1338,0,0
357,-314,0,0,0,0,0,0,0,0,0,-1,1581,1338,0,0
364,-314,0,0,0,0,0,0,0,0,0,-1,1588,1338,0,0
371,-314,0,0,0,0,0,0,0,0,0,-1,1595,1338,0,0
378,-314,0,0,0,0,0,0,0,0,0,-1,1602,1338,0,0
385,-314,0,0,0,0,0,0,0,0,0,-1,1609,1338,0,0
392,-314,0,0,0,0,0,0,0,0,0,-1,1616,1338,0,0
399,-314,0,0,0,0,0,0,0,0,0,-1,1623,1338,0,0
406,-314,0,0,0,0,0,0,0,0,0,-1,1630,1338,0,0
413,-314,0,0,0,0,0,0,0,0,0,-1,1637,1338,0,0
420,-314,0,0,0,0,0,0,0,0,0,-1,1644,1338,0,0
427,-314,0,0,0,0,0,0,0,0,0,-1,1651,1338,0,0
434,-314,0,0,0,0,0,0,0,0,0,-1,1658,1338,0,0
441,-314,0,0,0,0,0,0,0,0,0,-1,1665,1338,0,0
448,-314,0,0,0,0,0,0,0,0,0,-1,1672,1338,0,0
455,-314,0,0,0,0,0,0,0,0,0,-1,1679,1338,0,0
462,-314,0,0,0,0,0,0,0,0,0,-1,1686,1338,0,0
469,-314,0,0,0,0,0,0,0,0,0,-1,1693,1338,0,0
476,-314,0,0,0,0,0,0,0,0,0,-1,1700,1338,0,0
483,-314,0,0,0,0,0,0,0,0,0,-1,1707,1338,0,0
490,-314,0,0,0,0,0,0,0,0,0,-1,1714,1338,0,0
497,-314,0,0,0,0,0,0,0,0,0,-1,1721,1338,0,0
504,-314,0,0,0,0,0,0,0,0,0,-1,1728,1338,0,0
511,-314,0,0,0,0,0,0,0,0,0,-1,1735,1338,0,0
518,-314,0,0,0,0,0,0,0,0,0,-1,1742,1338,0,0
525,-314,0,0,0,0,0,0,0,0,0,-1,1749,1338,0,0
532,-314,0,0,0,0,0,0,0,0,0,-1,1756,1338,0,0
539,-314,0,0,0,0,0,0,0,0,0,-1,1763,1338,0,0
546,-314,0,0,0,0,0,0,0,0,0,-1,1770,1338,0,0
553,-314,0,0,0,0,0,0,0,0,0,-1,1777,1338,0,0
560,-314,0,0,0,0,0,0,0,0,0,-1,1784,1338,0,0
567,-314,0,0,0,0,0,0,0,0,0,-1,1791,1338,0,0
574,-314,0,0,0,0,0,0,0,0,0,-1,1798,1338,0,0
581,-314,66.1637,1.86658,0,0,0,0,0,0,0,-1,1805,1338,66.1637,-1.86663
588,-314,66.4303,1.43481,0,0,0,0,0,0,0,-1,1812,1338,66.4303,-1.43487
595,-314,66.7465,0.982788,0,0,0,0,0,0,0,-1,1819,1338,66.7464,-0.982795
602,-314,66.322,1.38416,0,0,0,0,0,0,0,-1,1826,1338,66.322,-1.3842
609,-314,60.2225,1.27014,0,0,0,0,0,0,0,-1,1833,1338,60.2225,-1.27017
616,-314,48.1149,3.005,0,0,0,0,0,0,0,-1,1840,1338,48.1149,-3.00505
623,-314,38.7728,2.71741,0,0,0,0,0,0,0,-1,1847,1338,38.7728,-2.71737
630,-314,29.4308,6.23206,0,0,0,0,0,0,0,-1,1854,1338,29.4308,-6.23202
637,-314,22.1349,5.16418,0,0,0,0,0,0,0,-1,1861,1338,22.1349,-5.16414
644,-314,18.7517,6.2605,0,0,0,0,0,0,0,-1,1868,1338,18.7517,-6.26053
651,-314,23.1317,8.005,0,0,0,0,0,0,0,-1,1875,1338,23.1317,-8.00506
658,-314,43.2209,16.1084,0,0,0,0,0,0,0,-1,1882,1338,43.221,-16.1084
665,-314,43.1232,15.4761,0.000171385,0.0025471,-0.00206993,0.00374579,-0.0010273,-1.04589,0.00290091,0.0379899,1889,1338,43.1232,-15.476
672,-314,43.1162,14.8214,0.000891866,0.000955664,-0.00118172,0.00210592,-0.00025839,-0.798892,0.00149753,0.0136142,1896,1338,43.1162,-14.8214
679,-314,43.1085,14.1174,0.00141456,-9.29608e-05,-0.000486273,0.0015578,-0.000236204,-0.286472,0.00112556,0.0106486,1903,1338,43.1085,-14.1174
686,-314,43.0808,13.4232,0.00160438,-0.000326176,-0.00030794,0.00165231,-0.000374105,-0.154406,0.00124512,0.0132197,1910,1338,43.0809,-13.4233
693,-314,43.0448,12.7272,0.00139173,-7.59873e-05,-0.000102091,0.00139879,-8.30545e-05,-0.0691144,0.00096141,0.0137037,1917,1338,43.0447,-12.7272
700,-314,43.0123,12.0276,0.0011031,0.000172946,0.000178649,0.00113623,0.000139814,0.183375,0.00071545,0.0152776,1924,1338,43.0123,-12.0275
707,-314,42.9973,11.3611,0.000736026,0.000413801,0.000551826,0.00114978,4.94183e-08,0.643365,0.000766502,0.0156907,1931,1338,42.9973,-11.3611
714,-314,42.9575,10.7302,0.000226698,0.000607298,0.00105701,0.001491,-0.000657004,0.874462,0.00127093,0.0129779,1938,1338,42.9576,-10.7303
721,-314,42.9331,10.1113,-0.000458857,0.000677092,0.00177126,0.00196921,-0.00175098,0.94055,0.00214908,0.0269232,1945,1338,42.9331,-10.1114
728,-314,42.9785,9.48743,0,0,0,0,0,0,0,-1,1952,1338,42.9785,-9.48743
735,-314,26.3665,6.21582,0,0,0,0,0,0,0,-1,1959,1338,26.3664,-6.21581
742,-314,26.2235,6.0166,0,0,0,0,0,0,0,-1,1966,1338,26.2235,-6.01662
749,-314,26.2223,5.47046,0,0,0,0,0,0,0,-1,1973,1338,26.2223,-5.47041
756,-314,24.2521,5.93408,0,0,0,0,0,0,0,-1,1980,1338,24.252,-5.93413
763,-314,19.2207,4.07239,0,0,0,0,0,0,0,-1,1987,1338,19.2206,-4.07239
770,-314,0,0,0,0,0,0,0,0,0,-1,1994,1338,0,0
777,-314,0,0,0,0,0,0,0,0,0,-1,2001,1338,0,0
784,-314,0,0,0,0,0,0,0,0,0,-1,2008,1338,0,0
791,-314,0,0,0,0,0,0,0,0,0,-1,2015,1338,0,0
798,-314,0,0,0,0,0,0,0,0,0,-1,2022,1338,0,0
805,-314,0,0,0,0,0,0,0,0,0,-1,2029,1338,0,0
812,-314,0,0,0,0,0,0,0,0,0,-1,2036,1338,0,0
-700,-321,0,0,0,0,0,0,0,0,0,-1,524,1345,0,0
-693,-321,0,0,0,0,0,0,0,0,0,-1,531,1345,0,0
-686,-321,0,0,0,0,0,0,0,0,0,-1,538,1345,0,0
-679,-321,0,0,0,0,0,0,0,0,0,-1,545,1345,0,0
-672,-321,0,0,0,0,0,0,0,0,0,-1,552,1345,0,0
-665,-321,0,0,0,0,0,0,0,0,0,-1,559,1345,0,0
-658,-321,0,0,0,0,0,0,0,0,0,-1,566,1345,0,0
-651,-321,0,0,0,0,0,0,0,0,0,-1,573,1345,0,0
-644,-321,-58.7329,10.2313,0,0,0,0,0,0,0,-1,580,1345,-58.7329,-10.2313
-637,-321,-59.9981,9.06421,0,0,0,0,0,0,0,-1,587,1345,-59.9981,-9.06417
-630,-321,-61.377,8.07166,0,0,0,0,0,0,0,-1,594,1345,-61.3769,-8.07168
-623,-321,-13.2242,3.14148,0,0,0,0,0,0,0,-1,601,1345,-13.2243,-3.14146
-616,-321,-11.6754,3.13794,0,0,0,0,0,0,0,-1,608,1345,-11.6754,-3.13789
-609,-321,-7.95209,1.14758,0,0,0,0,0,0,0,-1,615,1345,-7.95208,-1.14757
-602,-321,-8.85791,2.50049,0,0,0,0,0,0,0,-1,622,1345,-8.85791,-2.50048
-595,-321,-19.8463,5.36584,0,0,0,0,0,0,0,-1,629,1345,-19.8462,-5.36589
-588,-321,-25.9954,8.37134,0,0,0,0,0,0,0,-1,636,1345,-25.9954,-8.37128
-581,-321,-25.965,9.12244,0.00368844,0.00142632,0.0016384,0.00454827,0.000566491,0.483291,0.0028621,0.0141726,643,1345,-25.9649,-9.12249
-574,-321,-26.0165,9.82678,0.00299976,0.00104228,0.00121725,0.00358295,0.000459094,0.446793,0.00225126,0.0155915,650,1345,-26.0165,-9.82682
-567,-321,-26.0299,10.526,0.00264109,0.000755207,0.00106361,0.00311956,0.000276735,0.422733,0.00199387,0.0219196,657,1345,-26.0299,-10.5261
-560,-321,-26.0068,11.2986,0.00256117,0.000536827,0.00107167,0.0030231,7.49e-05,0.406971,0.0019909,0.0245354,664,1345,-26.0068,-11.2986
-553,-321,-26.0894,11.9905,0.00266505,0.000315291,0.00124417,0.0032014,-0.000221056,0.407016,0.00221164,0.0264994,671,1345,-26.0893,-11.9905
-546,-321,-26.1818,12.7413,0.00306329,0.000187233,0.00158943,0.00376867,-0.000518152,0.417684,0.00270178,0.0284062,678,1345,-26.1818,-12.7413
-539,-321,-26.1774,13.4448,0.00377277,9.94026e-05,0.00205848,0.00469485,-0.000822675,0.42114,0.0034371,0.0262834,685,1345,-26.1774,-13.4448
-532,-321,-26.11,14.0747,0,0,0,0,0,0,0,-1,692,1345,-26.11,-14.0747
-525,-321,-26.1472,15.1078,0,0,0,0,0,0,0,-1,699,1345,-26.1472,-15.1078
-518,-321,-10.3564,6.75696,0,0,0,0,0,0,0,-1,706,1345,-10.3564,-6.75694
-511,-321,-9.3302,5.29297,0,0,0,0,0,0,0,-1,713,1345,-9.33023,-5.29294
-504,-321,-10.4713,0.0145264,0,0,0,0,0,0,0,-1,720,1345,-10.4713,-0.0145296
-497,-321,-9.96771,0.313599,0,0,0,0,0,0,0,-1,727,1345,-9.96769,-0.313618
-490,-321,-10.7631,0.973511,0,0,0,0,0,0,0,-1,734,1345,-10.7631,-0.97353
-483,-321,-17.5908,0.2323,0,0,0,0,0,0,0,-1,741,1345,-17.5908,-0.232355
-476,-321,-17.2915,0.297363,0,0,0,0,0,0,0,-1,748,1345,-17.2915,-0.297342
-469,-321,-17.2441,0.478027,0,0,0,0,0,0,0,-1,755,1345,-17.2441,-0.477994
-462,-321,-17.1672,0.526489,0,0,0,0,0,0,0,-1,762,1345,-17.1672,-0.526533
-455,-321,0,0,0,0,0,0,0,0,0,-1,769,1345,0,0
-448,-321,0,0,0,0,0,0,0,0,0,-1,776,1345,0,0
-441,-321,0,0,0,0,0,0,0,0,0,-1,783,1345,0,0
-434,-321,0,0,0,0,0,0,0,0,0,-1,790,1345,0,0
-427,-321,0,0,0,0,0,0,0,0,0,-1,797,1345,0,0
-420,-321,0,0,0,0,0,0,0,0,0,-1,804,1345,0,0
-413,-321,0,0,0,0,0,0,0,0,0,-1,811,1345,0,0
-406,-321,0,0,0,0,0,0,0,0,0,-1,818,1345,0,0
-399,-321,0,0,0,0,0,0,0,0,0,-1,825,1345,0,0
-392,-321,0,0,0,0,0,0,0,0,0,-1,832,1345,0,0
-385,-321,0,0,0,0,0,0,0,0,0,-1,839,1345,0,0
-378,-321,0,0,0,0,0,0,0,0,0,-1,846,1345,0,0
-371,-321,0,0,0,0,0,0,0,0,0,-1,853,1345,0,0
-364,-321,0,0,0,0,0,0,0,0,0,-1,860,1345,0,0
-357,-321,0,0,0,0,0,0,0,0,0,-1,867,1345,0,0
-350,-321,0,0,0,0,0,0,0,0,0,-1,874,1345,0,0
-343,-321,0,0,0,0,0,0,0,0,0,-1,881,1345,0,0
-336,-321,0,0,0,0,0,0,0,0,0,-1,888,1345,0,0
-329,-321,0,0,0,0,0,0,0,0,0,-1,895,1345,0,0
-322,-321,0,0,0,0,0,0,0,0,0,-1,902,1345,0,0
-315,-321,0,0,0,0,0,0,0,0,0,-1,909,1345,0,0
-308,-321,0,0,0,0,0,0,0,0,0,-1,916,1345,0,0
-301,-321,0,0,0,0,0,0,0,0,0,-1,923,1345,0,0
-294,-321,0,0,0,0,0,0,0,0,0,-1,930,1345,0,0
-287,-321,0,0,0,0,0,0,0,0,0,-1,937,1345,0,0
-280,-321,0,0,0,0,0,0,0,0,0,-1,944,1345,0,0
-273,-321,0,0,0,0,0,0,0,0,0,-1,951,1345,0,0
-266,-321,0,0,0,0,0,0,0,0,0,-1,958,1345,0,0
-259,-321,0,0,0,0,0,0,0,0,0,-1,965,1345,0,0
-252,-321,0,0,0,0,0,0,0,0,0,-1,972,1345,0,0
-245,-321,0,0,0,0,0,0,0,0,0,-1,979,1345,0,0
-238,-321,0,0,0,0,0,0,0,0,0,-1,986,1345,0,0
-231,-321,0,0,0,0,0,0,0,0,0,-1,993,1345,0,0
-224,-321,0,0,0,0,0,0,0,0,0,-1,1000,1345,0,0
-217,-321,0,0,0,0,0,0,0,0,0,-1,1007,1345,0,0
-210,-321,0,0,0,0,0,0,0,0,0,-1,1014,1345,0,0
-203,-321,0,0,0,0,0,0,0,0,0,-1,1021,1345,0,0
-196,-321,0,0,0,0,0,0,0,0,0,-1,1028,1345,0,0
-189,-321,0,0,0,0,0,0,0,0,0,-1,1035,1345,0,0
-182,-321,0,0,0,0,0,0,0,0,0,-1,1042,1345,0,0
-175,-321,0,0,0,0,0,0,0,0,0,-1,1049,1345,0,0
-168,-321,0,0,0,0,0,0,0,0,0,-1,1056,1345,0,0
-161,-321,0,0,0,0,0,0,0,0,0,-1,1063,1345,0,0
-154,-321,0,0,0,0,0,0,0,0,0,-1,1070,1345,0,0
-147,-321,0,0,0,0,0,0,0,0,0,-1,1077,1345,0,0
-140,-321,0,0,0,0,0,0,0,0,0,-1,1084,1345,0,0
-133,-321,0,0,0,0,0,0,0,0,0,-1,1091,1345,0,0
-126,-321,0,0,0,0,0,0,0,0,0,-1,1098,1345,0,0
-119,-321,0,0,0,0,0,0,0,0,0,-1,1105,1345,0,0
-112,-321,0,0,0,0,0,0,0,0,0,-1,1112,1345,0,0
-105,-321,0,0,0,0,0,0,0,0,0,-1,1119,1345,0,0
-98,-321,0,0,0,0,0,0,0,0,0,-1,1126,1345,0,0
-91,-321,0,0,0,0,0,0,0,0,0,-1,1133,1345,0,0
-84,-321,0,0,0,0,0,0,0,0,0,-1,1140,1345,0,0
-77,-321,0,0,0,0,0,0,0,0,0,-1,1147,1345,0,0
-70,-321,0,0,0,0,0,0,0,0,0,-1,1154,1345,0,0
-63,-321,0,0,0,0,0,0,0,0,0,-1,1161,1345,0,0
-56,-321,0,0,0,0,0,0,0,0,0,-1,1168,1345,0,0
-49,-321,0,0,0,0,0,0,0,0,0,-1,1175,1345,0,0
-42,-321,0,0,0,0,0,0,0,0,0,-1,1182,1345,0,0
-35,-321,0,0,0,0,0,0,0,0,0,-1,1189,1345,0,0
-28,-321,0,0,0,0,0,0,0,0,0,-1,1196,1345,0,0
-21,-321,0,0,0,0,0,0,0,0,0,-1,1203,1345,0,0
-14,-321,0,0,0,0,0,0,0,0,0,-1,1210,1345,0,0
-7,-321,0,0,0,0,0,0,0,0,0,-1,1217,1345,0,0
0,-321,0,0,0,0,0,0,0,0,0,-1,1224,1345,0,0
7,-321,0,0,0,0,0,0,0,0,0,-1,1231,1345,0,0
14,-321,0,0,0,0,0,0,0,0,0,-1,1238,1345,0,0
21,-321,0,0,0,0,0,0,0,0,0,-1,1245,1345,0,0
28,-321,0,0,0,0,0,0,0,0,0,-1,1252,1345,0,0
35,-321,0,0,0,0,0,0,0,0,0,-1,1259,1345,0,0
42,-321,0,0,0,0,0,0,0,0,0,-1,1266,1345,0,0
49,-321,0,0,0,0,0,0,0,0,0,-1,1273,1345,0,0
56,-321,0,0,0,0,0,0,0,0,0,-1,1280,1345,0,0
63,-321,0,0,0,0,0,0,0,0,0,-1,1287,1345,0,0
70,-321,0,0,0,0,0,0,0,0,0,-1,1294,1345,0,0
77,-321,0,0,0,0,0,0,0,0,0,-1,1301,1345,0,0
84,-321,0,0,0,0,0,0,0,0,0,-1,1308,1345,0,0
91,-321,0,0,0,0,0,0,0,0,0,-1,1315,1345,0,0
98,-321,0,0,0,0,0,0,0,0,0,-1,1322,1345,0,0
105,-321,0,0,0,0,0,0,0,0,0,-1,1329,1345,0,0
112,-321,0,0,0,0,0,0,0,0,0,-1,1336,1345,0,0
119,-321,0,0,0,0,0,0,0,0,0,-1,1343,1345,0,0
126,-321,0,0,0,0,0,0,0,0,0,-1,1350,1345,0,0
133,-321,0,0,0,0,0,0,0,0,0,-1,1357,1345,0,0
140,-321,0,0,0,0,0,0,0,0,0,-1,1364,1345,0,0
147,-321,0,0,0,0,0,0,0,0,0,-1,1371,1345,0,0
154,-321,0,0,0,0,0,0,0,0,0,-1,1378,1345,0,0
161,-321,0,0,0,0,0,0,0,0,0,-1,1385,1345,0,0
168,-321,0,0,0,0,0,0,0,0,0,-1,1392,1345,0,0
175,-321,0,0,0,0,0,0,0,0,0,-1,1399,1345,0,0
182,-321,0,0,0,0,0,0,0,0,0,-1,1406,1345,0,0
189,-321,0,0,0,0,0,0,0,0,0,-1,1413,1345,0,0
196,-321,0,0,0,0,0,0,0,0,0,-1,1420,1345,0,0
203,-321,0,0,0,0,0,0,0,0,0,-1,1427,1345,0,0
210,-321,0,0,0,0,0,0,0,0,0,-1,1434,1345,0,0
217,-321,0,0,0,0,0,0,0,0,0,-1,1441,1345,0,0
224,-321,0,0,0,0,0,0,0,0,0,-1,1448,1345,0,0
231,-321,0,0,0,0,0,0,0,0,0,-1,1455,1345,0,0
238,-321,0,0,0,0,0,0,0,0,0,-1,1462,1345,0,0
245,-321,0,0,0,0,0,0,0,0,0,-1,1469,1345,0,0
252,-321,0,0,0,0,0,0,0,0,0,-1,1476,1345,0,0
259,-321,0,0,0,0,0,0,0,0,0,-1,1483,1345,0,0
266,-321,0,0,0,0,0,0,0,0,0,-1,1490,1345,0,0
273,-321,0,0,0,0,0,0,0,0,0,-1,1497,1345,0,0
280,-321,0,0,0,0,0,0,0,0,0,-1,1504,1345,0,0
287,-321,0,0,0,0,0,0,0,0,0,-1,1511,1345,0,0
294,-321,0,0,0,0,0,0,0,0,0,-1,1518,1345,0,0
301,-321,0,0,0,0,0,0,0,0,0,-1,1525,1345,0,0
308,-321,0,0,0,0,0,0,0,0,0,-1,1532,1345,0,0
315,-321,0,0,0,0,0,0,0,0,0,-1,1539,1345,0,0
322,-321,0,0,0,0,0,0,0,0,0,-1,1546,1345,0,0
329,-321,0,0,0,0,0,0,0,0,0,-1,1553,1345,0,0
336,-321,0,0,0,0,0,0,0,0,0,-1,1560,1345,0,0
343,-321,0,0,0,0,0,0,0,0,0,-1,1567,1345,0,0
350,-321,0,0,0,0,0,0,0,0,0,-1,1574,1345,0,0
357,-321,0,0,0,0,0,0,0,0,0,-1,1581,1345,0,0
364,-321,0,0,0,0,0,0,0,0,0,-1,1588,1345,0,0
371,-321,0,0,0,0,0,0,0,0,0,-1,1595,1345,0,0
378,-321,0,0,0,0,0,0,0,0,0,-1,1602,1345,0,0
385,-321,0,0,0,0,0,0,0,0,0,-1,1609,1345,0,0
392,-321,0,0,0,0,0,0,0,0,0,-1,1616,1345,0,0
399,-321,0,0,0,0,0,0,0,0,0,-1,1623,1345,0,0
406,-321,0,0,0,0,0,0,0,0,0,-1,1630,1345,0,0
413,-321,0,0,0,0,0,0,0,0,0,-1,1637,1345,0,0
420,-321,0,0,0,0,0,0,0,0,0,-1,1644,1345,0,0
427,-321,0,0,0,0,0,0,0,0,0,-1,1651,1345,0,0
434,-321,0,0,0,0,0,0,0,0,0,-1,1658,1345,0,0
441,-321,0,0,0,0,0,0,0,0,0,-1,1665,1345,0,0
448,-321,0,0,0,0,0,0,0,0,0,-1,1672,1345,0,0
455,-321,0,0,0,0,0,0,0,0,0,-1,1679,1345,0,0
462,-321,0,0,0,0,0,0,0,0,0,-1,1686,1345,0,0
469,-321,0,0,0,0,0,0,0,0,0,-1,1693,1345,0,0
476,-321,0,0,0,0,0,0,0,0,0,-1,1700,1345,0,0
483,-321,0,0,0,0,0,0,0,0,0,-1,1707,1345,0,0
490,-321,0,0,0,0,0,0,0,0,0,-1,1714,1345,0,0
497,-321,0,0,0,0,0,0,0,0,0,-1,1721,1345,0,0
504,-321,0,0,0,0,0,0,0,0,0,-1,1728,1345,0,0
511,-321,0,0,0,0,0,0,0,0,0,-1,1735,1345,0,0
518,-321,0,0,0,0,0,0,0,0,0,-1,1742,1345,0,0
525,-321,0,0,0,0,0,0,0,0,0,-1,1749,1345,0,0
532,-321,0,0,0,0,0,0,0,0,0,-1,1756,1345,0,0
539,-321,0,0,0,0,0,0,0,0,0,-1,1763,1345,0,0
546,-321,0,0,0,0,0,0,0,0,0,-1,1770,1345,0,0
553,-321,0,0,0,0,0,0,0,0,0,-1,1777,1345,0,0
560,-321,0,0,0,0,0,0,0,0,0,-1,1784,1345,0,0
567,-321,0,0,0,0,0,0,0,0,0,-1,1791,1345,0,0
574,-321,0,0,0,0,0,0,0,0,0,-1,1798,1345,0,0
581,-321,66.1073,1.6543,0,0,0,0,0,0,0,-1,1805,1345,66.1073,-1.65427
588,-321,66.6576,0.7948,0,0,0,0,0,0,0,-1,1812,1345,66.6575,-0.794774
595,-321,67.2585,-0.216431,0,0,0,0,0,0,0,-1,1819,1345,67.2586,0.216484
602,-321,60.3523,1.24133,0,0,0,0,0,0,0,-1,1826,1345,60.3523,-1.2413
609,-321,48.311,3.39575,0,0,0,0,0,0,0,-1,1833,1345,48.311,-3.39571
616,-321,37.8107,2.58704,0,0,0,0,0,0,0,-1,1840,1345,37.8106,-2.58705
623,-321,37.6854,3.68933,0,0,0,0,0,0,0,-1,1847,1345,37.6854,-3.68931
630,-321,23.6674,4.34106,0,0,0,0,0,0,0,-1,1854,1345,23.6674,-4.34112
637,-321,21.7925,6.79224,0,0,0,0,0,0,0,-1,1861,1345,21.7925,-6.7922
644,-321,16.8844,6.71973,0,0,0,0,0,0,0,-1,1868,1345,16.8844,-6.71971
651,-321,27.4924,10.0319,0,0,0,0,0,0,0,-1,1875,1345,27.4924,-10.0319
658,-321,42.4053,16.1843,0,0,0,0,0,0,0,-1,1882,1345,42.4053,-16.1844
665,-321,42.4292,15.5272,0.000258669,0.000895715,-0.00126827,0.00188485,-0.000730466,-0.908427,0.00155821,0.0265105,1889,1345,42.4292,-15.5272
672,-321,42.4292,14.8514,0.00081004,0.000121579,-0.000763976,0.00130375,-0.000372136,-0.573731,0.00101619,0.0136556,1896,1345,42.4292,-14.8515
679,-321,42.4336,14.1602,0.00122959,-0.000173453,-0.00043187,0.00135186,-0.00029573,-0.275913,0.00101429,0.0124102,1903,1345,42.4336,-14.1601
686,-321,42.3931,13.4691,0.00144519,-9.37189e-05,-0.000357744,0.00152429,-0.000172817,-0.217601,0.00107842,0.0136174,1910,1345,42.3931,-13.4692
693,-321,42.3588,12.791,0.00146822,0.000193346,-0.000259068,0.00151885,0.000142712,-0.193015,0.000968509,0.0133629,1917,1345,42.3588,-12.791
700,-321,42.3394,12.1016,0.00140588,0.000489945,-8.55263e-05,0.00141379,0.000482027,-0.0923129,0.000829907,0.0136038,1924,1345,42.3394,-12.1015
707,-321,42.3212,11.4032,0.00123024,0.000802025,0.000183007,0.00129779,0.00073447,0.353623,0.000751449,0.0160076,1931,1345,42.3212,-11.4031
714,-321,42.2864,10.7213,0.00088386,0.00109595,0.000594017,0.00159331,0.000386494,0.873727,0.000959679,0.0148107,1938,1345,42.2864,-10.7214
721,-321,42.2207,10.0494,0.00031507,0.00125022,0.00127483,0.00214052,-0.00057523,0.961167,0.00165247,0.0418212,1945,1345,42.2207,-10.0495
728,-321,42.2272,9.4259,0,0,0,0,0,0,0,-1,1952,1345,42.2271,-9.42594
735,-321,22.0081,5.65479,0,0,0,0,0,0,0,-1,1959,1345,22.008,-5.65481
742,-321,24.5398,5.05725,0,0,0,0,0,0,0,-1,1966,1345,24.5398,-5.05729
749,-321,24.0675,5.4458,0,0,0,0,0,0,0,-1,1973,1345,24.0675,-5.44581
756,-321,19.6251,4.98315,0,0,0,0,0,0,0,-1,1980,1345,19.6251,-4.98311
763,-321,19.6747,4.61438,0,0,0,0,0,0,0,-1,1987,1345,19.6747,-4.61436
770,-321,0,0,0,0,0,0,0,0,0,-1,1994,1345,0,0
777,-321,0,0,0,0,0,0,0,0,0,-1,2001,1345,0,0
784,-321,0,0,0,0,0,0,0,0,0,-1,2008,1345,0,0
791,-321,0,0,0,0,0,0,0,0,0,-1,2015,1345,0,0
798,-321,0,0,0,0,0,0,0,0,0,-1,2022,1345,0,0
805,-321,0,0,0,0,0,0,0,0,0,-1,2029,1345,0,0
812,-321,0,0,0,0,0,0,0,0,0,-1,2036,1345,0,0
-700,-328,0,0,0,0,0,0,0,0,0,-1,524,1352,0,0
-693,-328,0,0,0,0,0,0,0,0,0,-1,531,1352,0,0
-686,-328,0,0,0,0,0,0,0,0,0,-1,538,1352,0,0
-679,-328,0,0,0,0,0,0,0,0,0,-1,545,1352,0,0
-672,-328,0,0,0,0,0,0,0,0,0,-1,552,1352,0,0
-665,-328,0,0,0,0,0,0,0,0,0,-1,559,1352,0,0
-658,-328,0,0,0,0,0,0,0,0,0,-1,566,1352,0,0
-651,-328,0,0,0,0,0,0,0,0,0,-1,573,1352,0,0
-644,-328,0,0,0,0,0,0,0,0,0,-1,580,1352,0,0
-637,-328,-61.3883,10.1125,0,0,0,0,0,0,0,-1,587,1352,-61.3883,-10.1126
-630,-328,-62.8012,9.14563,0,0,0,0,0,0,0,-1,594,1352,-62.8012,-9.14564
-623,-328,-10.7739,4.55042,0,0,0,0,0,0,0,-1,601,1352,-10.7739,-4.55041
-616,-328,-8.22198,-0.25708,0,0,0,0,0,0,0,-1,608,1352,-8.22201,0.257067
-609,-328,-7.87439,0.192871,0,0,0,0,0,0,0,-1,615,1352,-7.87441,-0.192822
-602,-328,-7.63062,1.31665,0,0,0,0,0,0,0,-1,622,1352,-7.63064,-1.3166
-595,-328,-9.42639,2.93494,0,0,0,0,0,0,0,-1,629,1352,-9.42638,-2.93499
-588,-328,-25.3466,8.18262,0,0,0,0,0,0,0,-1,636,1352,-25.3465,-8.18261
-581,-328,-25.254,9.10266,0.00448424,0.00155246,0.00132712,0.00499575,0.00104096,0.367877,0.00304344,0.0277137,643,1352,-25.254,-9.10262
-574,-328,-25.2818,9.8855,0.00343095,0.0011414,0.00106864,0.00385223,0.000720127,0.375508,0.00236494,0.0152065,650,1352,-25.2818,-9.88544
-567,-328,-25.2997,10.6025,0.00285911,0.0008596,0.00100746,0.00327869,0.000440027,0.394619,0.00205488,0.0204326,657,1352,-25.2997,-10.6025
-560,-328,-25.2972,11.355,0.00260721,0.000641247,0.00108296,0.00308678,0.00016168,0.416876,0.00200613,0.0283441,664,1352,-25.2972,-11.355
-553,-328,-25.3788,12.0559,0.00259442,0.000449021,0.00124521,0.00316526,-0.000121821,0.429843,0.00215193,0.0313854,671,1352,-25.3788,-12.0559
-546,-328,-25.4334,12.7924,0.00288437,0.000335894,0.00153361,0.00360403,-0.000383766,0.438755,0.00254029,0.0306228,678,1352,-25.4334,-12.7924
-539,-328,-25.4608,13.499,0.00344804,0.000264489,0.00192242,0.00435215,-0.000639621,0.439605,0.00313645,0.0250998,685,1352,-25.4608,-13.499
-532,-328,-25.4406,14.2217,0.00431684,0.000245878,0.00239394,0.00542368,-0.000860957,0.433075,0.0039343,0.019505,692,1352,-25.4406,-14.2217
-525,-328,-25.4457,15.0308,0.00546088,0.000177267,0.00297189,0.00679541,-0.00115726,0.422065,0.00496122,0.0348517,699,1352,-25.4457,-15.0308
-518,-328,-25.5764,15.8611,0,0,0,0,0,0,0,-1,706,1352,-25.5764,-15.8611
-511,-328,-9.39868,7.16113,0,0,0,0,0,0,0,-1,713,1352,-9.39869,-7.16113
-504,-328,-8.60626,-0.905762,0,0,0,0,0,0,0,-1,720,1352,-8.60623,0.905787
-497,-328,-9.29102,-0.0517578,0,0,0,0,0,0,0,-1,727,1352,-9.29104,0.0518175
-490,-328,-10.0663,0.882813,0,0,0,0,0,0,0,-1,734,1352,-10.0663,-0.882795
-483,-328,-10.8181,1.72375,0,0,0,0,0,0,0,-1,741,1352,-10.8181,-1.72374
-476,-328,-16.8951,-0.150757,0,0,0,0,0,0,0,-1,748,1352,-16.8951,0.150795
-469,-328,-16.8412,0.00158691,0,0,0,0,0,0,0,-1,755,1352,-16.8412,-0.00161515
-462,-328,-16.3546,-0.203491,0,0,0,0,0,0,0,-1,762,1352,-16.3545,0.203532
-455,-328,0,0,0,0,0,0,0,0,0,-1,769,1352,0,0
-448,-328,0,0,0,0,0,0,0,0,0,-1,776,1352,0,0
-441,-328,0,0,0,0,0,0,0,0,0,-1,783,1352,0,0
-434,-328,0,0,0,0,0,0,0,0,0,-1,790,1352,0,0
-427,-328,0,0,0,0,0,0,0,0,0,-1,797,1352,0,0
-420,-328,0,0,0,0,0,0,0,0,0,-1,804,1352,0,0
-413,-328,0,0,0,0,0,0,0,0,0,-1,811,1352,0,0
-406,-328,0,0,0,0,0,0,0,0,0,-1,818,1352,0,0
-399,-328,0,0,0,0,0,0,0,0,0,-1,825,1352,0,0
-392,-328,0,0,0,0,0,0,0,0,0,-1,832,1352,0,0
-385,-328,0,0,0,0,0,0,0,0,0,-1,839,1352,0,0
-378,-328,0,0,0,0,0,0,0,0,0,-1,846,1352,0,0
-371,-328,0,0,0,0,0,0,0,0,0,-1,853,1352,0,0
-364,-328,0,0,0,0,0,0,0,0,0,-1,860,1352,0,0
-357,-328,0,0,0,0,0,0,0,0,0,-1,867,1352,0,0
-350,-328,0,0,0,0,0,0,0,0,0,-1,874,1352,0,0
-343,-328,0,0,0,0,0,0,0,0,0,-1,881,1352,0,0
-336,-328,0,0,0,0,0,0,0,0,0,-1,888,1352,0,0
-329,-328,0,0,0,0,0,0,0,0,0,-1,895,1352,0,0
-322,-328,0,0,0,0,0,0,0,0,0,-1,902,1352,0,0
-315,-328,0,0,0,0,0,0,0,0,0,-1,909,1352,0,0
-308,-328,0,0,0,0,0,0,0,0,0,-1,916,1352,0,0
-301,-328,0,0,0,0,0,0,0,0,0,-1,923,1352,0,0
-294,-328,0,0,0,0,0,0,0,0,0,-1,930,1352,0,0
-287,-328,0,0,0,0,0,0,0,0,0,-1,937,1352,0,0
-280,-328,0,0,0,0,0,0,0,0,0,-1,944,1352,0,0
-273,-328,0,0,0,0,0,0,0,0,0,-1,951,1352,0,0
-266,-328,0,0,0,0,0,0,0,0,0,-1,958,1352,0,0
-259,-328,0,0,0,0,0,0,0,0,0,-1,965,1352,0,0
-252,-328,0,0,0,0,0,0,0,0,0,-1,972,1352,0,0
-245,-328,0,0,0,0,0,0,0,0,0,-1,979,1352,0,0
-238,-328,0,0,0,0,0,0,0,0,0,-1,986,1352,0,0
-231,-328,0,0,0,0,0,0,0,0,0,-1,993,1352,0,0
-224,-328,0,0,0,0,0,0,0,0,0,-1,1000,1352,0,0
-217,-328,0,0,0,0,0,0,0,0,0,-1,1007,1352,0,0
-210,-328,0,0,0,0,0,0,0,0,0,-1,1014,1352,0,0
-203,-328,0,0,0,0,0,0,0,0,0,-1,1021,1352,0,0
-196,-328,0,0,0,0,0,0,0,0,0,-1,1028,1352,0,0
-189,-328,0,0,0,0,0,0,0,0,0,-1,1035,1352,0,0
-182,-328,0,0,0,0,0,0,0,0,0,-1,1042,1352,0,0
-175,-328,0,0,0,0,0,0,0,0,0,-1,1049,1352,0,0
-168,-328,0,0,0,0,0,0,0,0,0,-1,1056,1352,0,0
-161,-328,0,0,0,0,0,0,0,0,0,-1,1063,1352,0,0
-154,-328,0,0,0,0,0,0,0,0,0,-1,1070,1352,0,0
-147,-328,0,0,0,0,0,0,0,0,0,-1,1077,1352,0,0
-140,-328,0,0,0,0,0,0,0,0,0,-1,1084,1352,0,0
-133,-328,0,0,0,0,0,0,0,0,0,-1,1091,1352,0,0
-126,-328,0,0,0,0,0,0,0,0,0,-1,1098,1352,0,0
-119,-328,0,0,0,0,0,0,0,0,0,-1,1105,1352,0,0
-112,-328,0,0,0,0,0,0,0,0,0,-1,1112,1352,0,0
-105,-328,0,0,0,0,0,0,0,0,0,-1,1119,1352,0,0
-98,-328,0,0,0,0,0,0,0,0,0,-1,1126,1352,0,0
-91,-328,0,0,0,0,0,0,0,0,0,-1,1133,1352,0,0
-84,-328,0,0,0,0,0,0,0,0,0,-1,1140,1352,0,0
-77,-328,0,0,0,0,0,0,0,0,0,-1,1147,1352,0,0
-70,-328,0,0,0,0,0,0,0,0,0,-1,1154,1352,0,0
-63,-328,0,0,0,0,0,0,0,0,0,-1,1161,1352,0,0
-56,-328,0,0,0,0,0,0,0,0,0,-1,1168,1352,0,0
-49,-328,0,0,0,0,0,0,0,0,0,-1,1175,1352,0,0
-42,-328,0,0,0,0,0,0,0,0,0,-1,1182,1352,0,0
-35,-328,0,0,0,0,0,0,0,0,0,-1,1189,1352,0,0
-28,-328,0,0,0,0,0,0,0,0,0,-1,1196,1352,0,0
-21,-328,0,0,0,0,0,0,0,0,0,-1,1203,1352,0,0
-14,-328,0,0,0,0,0,0,0,0,0,-1,1210,1352,0,0
-7,-328,0,0,0,0,0,0,0,0,0,-1,1217,1352,0,0
0,-328,0,0,0,0,0,0,0,0,0,-1,1224,1352,0,0
7,-328,0,0,0,0,0,0,0,0,0,-1,1231,1352,0,0
14,-328,0,0,0,0,0,0,0,0,0,-1,1238,1352,0,0
21,-328,0,0,0,0,0,0,0,0,0,-1,1245,1352,0,0
28,-328,0,0,0,0,0,0,0,0,0,-1,1252,1352,0,0
35,-328,0,0,0,0,0,0,0,0,0,-1,1259,1352,0,0
42,-328,0,0,0,0,0,0,0,0,0,-1,1266,1352,0,0
49,-328,0,0,0,0,0,0,0,0,0,-1,1273,1352,0,0
56,-328,0,0,0,0,0,0,0,0,0,-1,1280,1352,0,0
63,-328,0,0,0,0,0,0,0,0,0,-1,1287,1352,0,0
70,-328,0,0,0,0,0,0,0,0,0,-1,1294,1352,0,0
77,-328,0,0,0,0,0,0,0,0,0,-1,1301,1352,0,0
84,-328,0,0,0,0,0,0,0,0,0,-1,1308,1352,0,0
91,-328,0,0,0,0,0,0,0,0,0,-1,1315,1352,0,0
98,-328,0,0,0,0,0,0,0,0,0,-1,1322,1352,0,0
105,-328,0,0,0,0,0,0,0,0,0,-1,1329,1352,0,0
112,-328,0,0,0,0,0,0,0,0,0,-1,1336,1352,0,0
119,-328,0,0,0,0,0,0,0,0,0,-1,1343,1352,0,0
126,-328,0,0,0,0,0,0,0,0,0,-1,1350,1352,0,0
133,-328,0,0,0,0,0,0,0,0,0,-1,1357,1352,0,0
140,-328,0,0,0,0,0,0,0,0,0,-1,1364,1352,0,0
147,-328,0,0,0,0,0,0,0,0,0,-1,1371,1352,0,0
154,-328,0,0,0,0,0,0,0,0,0,-1,1378,1352,0,0
161,-328,0,0,0,0,0,0,0,0,0,-1,1385,1352,0,0
168,-328,0,0,0,0,0,0,0,0,0,-1,1392,1352,0,0
175,-328,0,0,0,0,0,0,0,0,0,-1,1399,1352,0,0
182,-328,0,0,0,0,0,0,0,0,0,-1,1406,1352,0,0
189,-328,0,0,0,0,0,0,0,0,0,-1,1413,1352,0,0
196,-328,0,0,0,0,0,0,0,0,0,-1,1420,1352,0,0
203,-328,0,0,0,0,0,0,0,0,0,-1,1427,1352,0,0
210,-328,0,0,0,0,0,0,0,0,0,-1,1434,1352,0,0
217,-328,0,0,0,0,0,0,0,0,0,-1,1441,1352,0,0
224,-328,0,0,0,0,0,0,0,0,0,-1,1448,1352,0,0
231,-328,0,0,0,0,0,0,0,0,0,-1,1455,1352,0,0
238,-328,0,0,0,0,0,0,0,0,0,-1,1462,1352,0,0
245,-328,0,0,0,0,0,0,0,0,0,-1,1469,1352,0,0
252,-328,0,0,0,0,0,0,0,0,0,-1,1476,1352,0,0
259,-328,0,0,0,0,0,0,0,0,0,-1,1483,1352,0,0
266,-328,0,0,0,0,0,0,0,0,0,-1,1490,1352,0,0
273,-328,0,0,0,0,0,0,0,0,0,-1,1497,1352,0,0
280,-328,0,0,0,0,0,0,0,0,0,-1,1504,1352,0,0
287,-328,0,0,0,0,0,0,0,0,0,-1,1511,1352,0,0
294,-328,0,0,0,0,0,0,0,0,0,-1,1518,1352,0,0
301,-328,0,0,0,0,0,0,0,0,0,-1,1525,1352,0,0
308,-328,0,0,0,0,0,0,0,0,0,-1,1532,1352,0,0
315,-328,0,0,0,0,0,0,0,0,0,-1,1539,1352,0,0
322,-328,0,0,0,0,0,0,0,0,0,-1,1546,1352,0,0
329,-328,0,0,0,0,0,0,0,0,0,-1,1553,1352,0,0
336,-328,0,0,0,0,0,0,0,0,0,-1,1560,1352,0,0
343,-328,0,0,0,0,0,0,0,0,0,-1,1567,1352,0,0
350,-328,0,0,0,0,0,0,0,0,0,-1,1574,1352,0,0
357,-328,0,0,0,0,0,0,0,0,0,-1,1581,1352,0,0
364,-328,0,0,0,0,0,0,0,0,0,-1,1588,1352,0,0
371,-328,0,0,0,0,0,0,0,0,0,-1,1595,1352,0,0
378,-328,0,0,0,0,0,0,0,0,0,-1,1602,1352,0,0
385,-328,0,0,0,0,0,0,0,0,0,-1,1609,1352,0,0
392,-328,0,0,0,0,0,0,0,0,0,-1,1616,1352,0,0
399,-328,0,0,0,0,0,0,0,0,0,-1,1623,1352,0,0
406,-328,0,0,0,0,0,0,0,0,0,-1,1630,1352,0,0
413,-328,0,0,0,0,0,0,0,0,0,-1,1637,1352,0,0
420,-328,0,0,0,0,0,0,0,0,0,-1,1644,1352,0,0
427,-328,0,0,0,0,0,0,0,0,0,-1,1651,1352,0,0
434,-328,0,0,0,0,0,0,0,0,0,-1,1658,1352,0,0
441,-328,0,0,0,0,0,0,0,0,0,-1,1665,1352,0,0
448,-328,0,0,0,0,0,0,0,0,0,-1,1672,1352,0,0
455,-328,0,0,0,0,0,0,0,0,0,-1,1679,1352,0,0
462,-328,0,0,0,0,0,0,0,0,0,-1,1686,1352,0,0
469,-328,0,0,0,0,0,0,0,0,0,-1,1693,1352,0,0
476,-328,0,0,0,0,0,0,0,0,0,-1,1700,1352,0,0
483,-328,0,0,0,0,0,0,0,0,0,-1,1707,1352,0,0
490,-328,0,0,0,0,0,0,0,0,0,-1,1714,1352,0,0
497,-328,0,0,0,0,0,0,0,0,0,-1,1721,1352,0,0
504,-328,0,0,0,0,0,0,0,0,0,-1,1728,1352,0,0
511,-328,0,0,0,0,0,0,0,0,0,-1,1735,1352,0,0
518,-328,0,0,0,0,0,0,0,0,0,-1,1742,1352,0,0
525,-328,0,0,0,0,0,0,0,0,0,-1,1749,1352,0,0
532,-328,0,0,0,0,0,0,0,0,0,-1,1756,1352,0,0
539,-328,0,0,0,0,0,0,0,0,0,-1,1763,1352,0,0
546,-328,0,0,0,0,0,0,0,0,0,-1,1770,1352,0,0
553,-328,0,0,0,0,0,0,0,0,0,-1,1777,1352,0,0
560,-328,0,0,0,0,0,0,0,0,0,-1,1784,1352,0,0
567,-328,0,0,0,0,0,0,0,0,0,-1,1791,1352,0,0
574,-328,65.0565,3.09021,0,0,0,0,0,0,0,-1,1798,1352,65.0565,-3.09019
581,-328,66.3988,1.74048,0,0,0,0,0,0,0,-1,1805,1352,66.3989,-1.74051
588,-328,67.0304,0.506714,0,0,0,0,0,0,0,-1,1812,1352,67.0304,-0.506669
595,-328,60.5831,1.52856,0,0,0,0,0,0,0,-1,1819,1352,60.5832,-1.52861
602,-328,48.7734,3.66785,0,0,0,0,0,0,0,-1,1826,1352,48.7734,-3.66782
609,-328,37.0468,1.17407,0,0,0,0,0,0,0,-1,1833,1352,37.0468,-1.17407
616,-328,36.999,2.42859,0,0,0,0,0,0,0,-1,1840,1352,36.999,-2.42862
623,-328,34.345,5.14722,0,0,0,0,0,0,0,-1,1847,1352,34.3449,-5.14718
630,-328,22.0211,5.026,0,0,0,0,0,0,0,-1,1854,1352,22.0212,-5.02603
637,-328,21.15,5.53699,0,0,0,0,0,0,0,-1,1861,1352,21.15,-5.53704
644,-328,16.9579,6.3396,0,0,0,0,0,0,0,-1,1868,1352,16.9579,-6.33959
651,-328,36.2629,14.6906,0,0,0,0,0,0,0,-1,1875,1352,36.263,-14.6905
658,-328,41.7961,16.2518,0,0,0,0,0,0,0,-1,1882,1352,41.7962,-16.2519
665,-328,41.7992,15.5679,0.000629369,-0.000218112,-0.000323997,0.000739042,-0.000327785,-0.326394,0.000631004,0.015363,1889,1352,41.7992,-15.5679
672,-328,41.76,14.8945,0.000943002,-0.00026116,-0.000355567,0.00104016,-0.000358314,-0.266726,0.000838786,0.0122854,1896,1352,41.76,-14.8945
679,-328,41.7614,14.2019,0.0012557,-9.65672e-05,-0.000406006,0.00136823,-0.000209102,-0.270387,0.00098925,0.0150003,1903,1352,41.7613,-14.2019
686,-328,41.7212,13.498,0.00151008,0.000136185,-0.000436769,0.00163717,9.09064e-06,-0.283169,0.00108843,0.0159285,1910,1352,41.7212,-13.4981
693,-328,41.6746,12.8348,0.00172076,0.000450318,-0.000445059,0.00186115,0.000309921,-0.305577,0.00115145,0.0104674,1917,1352,41.6746,-12.8349
700,-328,41.6532,12.1512,0.00189304,0.000832493,-0.000423662,0.0020415,0.000684032,-0.33705,0.00119985,0.0143039,1924,1352,41.6531,-12.1513
707,-328,41.6566,11.4468,0.00193444,0.00125661,-0.000311847,0.00205608,0.00113497,-0.371912,0.00118922,0.0165386,1931,1352,41.6567,-11.4467
714,-328,41.6171,10.7415,0.00180545,0.00173162,-7.52088e-05,0.00185231,0.00168476,-0.557271,0.00118299,0.0173591,1938,1352,41.617,-10.7415
721,-328,41.592,9.92407,0,0,0,0,0,0,0,-1,1945,1352,41.592,-9.92405
728,-328,29.2787,6.74695,0,0,0,0,0,0,0,-1,1952,1352,29.2787,-6.74693
735,-328,20.8927,5.23523,0,0,0,0,0,0,0,-1,1959,1352,20.8927,-5.23528
742,-328,20.3547,4.11316,0,0,0,0,0,0,0,-1,1966,1352,20.3547,-4.11321
749,-328,20.0669,5.66321,0,0,0,0,0,0,0,-1,1973,1352,20.0669,-5.66319
756,-328,19.9543,5.50464,0,0,0,0,0,0,0,-1,1980,1352,19.9543,-5.50463
763,-328,0,0,0,0,0,0,0,0,0,-1,1987,1352,0,0
770,-328,0,0,0,0,0,0,0,0,0,-1,1994,1352,0,0
777,-328,0,0,0,0,0,0,0,0,0,-1,2001,1352,0,0
784,-328,0,0,0,0,0,0,0,0,0,-1,2008,1352,0,0
791,-328,0,0,0,0,0,0,0,0,0,-1,2015,1352,0,0
798,-328,0,0,0,0,0,0,0,0,0,-1,2022,1352,0,0
805,-328,0,0,0,0,0,0,0,0,0,-1,2029,1352,0,0
812,-328,0,0,0,0,0,0,0,0,0,-1,2036,1352,0,0
-700,-335,0,0,0,0,0,0,0,0,0,-1,524,1359,0,0
-693,-335,0,0,0,0,0,0,0,0,0,-1,531,1359,0,0
-686,-335,0,0,0,0,0,0,0,0,0,-1,538,1359,0,0
-679,-335,0,0,0,0,0,0,0,0,0,-1,545,1359,0,0
-672,-335,0,0,0,0,0,0,0,0,0,-1,552,1359,0,0
-665,-335,0,0,0,0,0,0,0,0,0,-1,559,1359,0,0
-658,-335,0,0,0,0,0,0,0,0,0,-1,566,1359,0,0
-651,-335,0,0,0,0,0,0,0,0,0,-1,573,1359,0,0
-644,-335,0,0,0,0,0,0,0,0,0,-1,580,1359,0,0
-637,-335,-62.7114,11.0491,0,0,0,0,0,0,0,-1,587,1359,-62.7114,-11.0491
-630,-335,-64.2532,9.91284,0,0,0,0,0,0,0,-1,594,1359,-64.2532,-9.91285
-623,-335,-8.43304,1.09509,0,0,0,0,0,0,0,-1,601,1359,-8.43301,-1.09507
-616,-335,-7.80927,-0.485352,0,0,0,0,0,0,0,-1,608,1359,-7.80926,0.485291
-609,-335,-7.12256,-2.03601,0,0,0,0,0,0,0,-1,615,1359,-7.12253,2.03601
-602,-335,-9.39935,2.25146,0,0,0,0,0,0,0,-1,622,1359,-9.39935,-2.25145
-595,-335,-9.54767,3.01917,0,0,0,0,0,0,0,-1,629,1359,-9.54768,-3.01911
-588,-335,-24.7224,8.14148,0,0,0,0,0,0,0,-1,636,1359,-24.7223,-8.14143
-581,-335,-24.5504,9.2041,0.00440466,0.00132606,0.00116818,0.00479774,0.000932983,0.324589,0.00293731,0.0462086,643,1359,-24.5504,-9.20413
-574,-335,-24.5714,9.87732,0.0033981,0.00106057,0.00102811,0.00378595,0.000672727,0.360731,0.00233229,0.0132371,650,1359,-24.5714,-9.87738
-567,-335,-24.5778,10.6407,0.00286605,0.000871498,0.00102011,0.00329538,0.000442174,0.398358,0.00206536,0.0172642,657,1359,-24.5777,-10.6408
-560,-335,-24.5956,11.3309,0.00262356,0.000707723,0.00110561,0.00312851,0.000202773,0.428425,0.00202147,0.0268546,664,1359,-24.5956,-11.331
-553,-335,-24.6602,12.043,0.00261269,0.000569145,0.0012663,0.00321804,-3.62116e-05,0.445934,0.00215753,0.0308458,671,1359,-24.6601,-12.043
-546,-335,-24.6993,12.8109,0.00283503,0.000463547,0.00149851,0.00356018,-0.000261602,0.450697,0.00246528,0.0279843,678,1359,-24.6993,-12.8109
-539,-335,-24.7358,13.5332,0.00328032,0.000398503,0.00181031,0.00415316,-0.000474337,0.449266,0.00293967,0.0216498,685,1359,-24.7359,-13.5332
-532,-335,-24.772,14.2969,0.0039873,0.000382512,0.00220231,0.00503074,-0.000660934,0.442465,0.00359445,0.016065,692,1359,-24.772,-14.2968
-525,-335,-24.7237,15.0497,0.00492355,0.000346926,0.00267703,0.00615701,-0.000886533,0.431763,0.00442985,0.0133342,699,1359,-24.7237,-15.0496
-518,-335,-24.8247,15.715,0,0,0,0,0,0,0,-1,706,1359,-24.8247,-15.7149
-511,-335,-17.3098,11.6718,0,0,0,0,0,0,0,-1,713,1359,-17.3097,-11.6717
-504,-335,-9.35767,5.99695,0,0,0,0,0,0,0,-1,720,1359,-9.35767,-5.99694
-497,-335,-8.75024,-0.650513,0,0,0,0,0,0,0,-1,727,1359,-8.75024,0.650521
-490,-335,-9.51971,0.417603,0,0,0,0,0,0,0,-1,734,1359,-9.51974,-0.41765
-483,-335,-10.2883,1.29224,0,0,0,0,0,0,0,-1,741,1359,-10.2883,-1.2922
-476,-335,-11.9938,-0.173462,0,0,0,0,0,0,0,-1,748,1359,-11.9938,0.173429
-469,-335,-12.8704,-0.204102,0,0,0,0,0,0,0,-1,755,1359,-12.8704,0.204117
-462,-335,-13.486,0.0218506,0,0,0,0,0,0,0,-1,762,1359,-13.4859,-0.0217908
-455,-335,-14.1504,0.549561,0,0,0,0,0,0,0,-1,769,1359,-14.1504,-0.549583
-448,-335,0,0,0,0,0,0,0,0,0,-1,776,1359,0,0
-441,-335,0,0,0,0,0,0,0,0,0,-1,783,1359,0,0
-434,-335,0,0,0,0,0,0,0,0,0,-1,790,1359,0,0
-427,-335,0,0,0,0,0,0,0,0,0,-1,797,1359,0,0
-420,-335,0,0,0,0,0,0,0,0,0,-1,804,1359,0,0
-413,-335,0,0,0,0,0,0,0,0,0,-1,811,1359,0,0
-406,-335,0,0,0,0,0,0,0,0,0,-1,818,1359,0,0
-399,-335,0,0,0,0,0,0,0,0,0,-1,825,1359,0,0
-392,-335,0,0,0,0,0,0,0,0,0,-1,832,1359,0,0
-385,-335,0,0,0,0,0,0,0,0,0,-1,839,1359,0,0
-378,-335,0,0,0,0,0,0,0,0,0,-1,846,1359,0,0
-371,-335,0,0,0,0,0,0,0,0,0,-1,853,1359,0,0
-364,-335,0,0,0,0,0,0,0,0,0,-1,860,1359,0,0
-357,-335,0,0,0,0,0,0,0,0,0,-1,867,1359,0,0
-350,-335,0,0,0,0,0,0,0,0,0,-1,874,1359,0,0
-343,-335,0,0,0,0,0,0,0,0,0,-1,881,1359,0,0
-336,-335,0,0,0,0,0,0,0,0,0,-1,888,1359,0,0
-329,-335,0,0,0,0,0,0,0,0,0,-1,895,1359,0,0
-322,-335,0,0,0,0,0,0,0,0,0,-1,902,1359,0,0
-315,-335,0,0,0,0,0,0,0,0,0,-1,909,1359,0,0
-308,-335,0,0,0,0,0,0,0,0,0,-1,916,1359,0,0
-301,-335,0,0,0,0,0,0,0,0,0,-1,923,1359,0,0
-294,-335,0,0,0,0,0,0,0,0,0,-1,930,1359,0,0
-287,-335,0,0,0,0,0,0,0,0,0,-1,937,1359,0,0
-280,-335,0,0,0,0,0,0,0,0,0,-1,944,1359,0,0
-273,-335,0,0,0,0,0,0,0,0,0,-1,951,1359,0,0
-266,-335,0,0,0,0,0,0,0,0,0,-1,958,1359,0,0
-259,-335,0,0,0,0,0,0,0,0,0,-1,965,1359,0,0
-252,-335,0,0,0,0,0,0,0,0,0,-1,972,1359,0,0
-245,-335,0,0,0,0,0,0,0,0,0,-1,979,1359,0,0
-238,-335,0,0,0,0,0,0,0,0,0,-1,986,1359,0,0
-231,-335,0,0,0,0,0,0,0,0,0,-1,993,1359,0,0
-224,-335,0,0,0,0,0,0,0,0,0,-1,1000,1359,0,0
-217,-335,0,0,0,0,0,0,0,0,0,-1,1007,1359,0,0
-210,-335,0,0,0,0,0,0,0,0,0,-1,1014,1359,0,0
-203,-335,0,0,0,0,0,0,0,0,0,-1,1021,1359,0,0
-196,-335,0,0,0,0,0,0,0,0,0,-1,1028,1359,0,0
-189,-335,0,0,0,0,0,0,0,0,0,-1,1035,1359,0,0
-182,-335,0,0,0,0,0,0,0,0,0,-1,1042,1359,0,0
-175,-335,0,0,0,0,0,0,0,0,0,-1,1049,1359,0,0
-168,-335,0,0,0,0,0,0,0,0,0,-1,1056,1359,0,0
-161,-335,0,0,0,0,0,0,0,0,0,-1,1063,1359,0,0
-154,-335,0,0,0,0,0,0,0,0,0,-1,1070,1359,0,0
-147,-335,0,0,0,0,0,0,0,0,0,-1,1077,1359,0,0
-140,-335,0,0,0,0,0,0,0,0,0,-1,1084,1359,0,0
-133,-335,0,0,0,0,0,0,0,0,0,-1,1091,1359,0,0
-126,-335,0,0,0,0,0,0,0,0,0,-1,1098,1359,0,0
-119,-335,0,0,0,0,0,0,0,0,0,-1,1105,1359,0,0
-112,-335,0,0,0,0,0,0,0,0,0,-1,1112,1359,0,0
-105,-335,0,0,0,0,0,0,0,0,0,-1,1119,1359,0,0
-98,-335,0,0,0,0,0,0,0,0,0,-1,1126,1359,0,0
-91,-335,0,0,0,0,0,0,0,0,0,-1,1133,1359,0,0
-84,-335,0,0,0,0,0,0,0,0,0,-1,1140,1359,0,0
-77,-335,0,0,0,0,0,0,0,0,0,-1,1147,1359,0,0
-70,-335,0,0,0,0,0,0,0,0,0,-1,1154,1359,0,0
-63,-335,0,0,0,0,0,0,0,0,0,-1,1161,1359,0,0
-56,-335,0,0,0,0,0,0,0,0,0,-1,1168,1359,0,0
-49,-335,0,0,0,0,0,0,0,0,0,-1,1175,1359,0,0
-42,-335,0,0,0,0,0,0,0,0,0,-1,1182,1359,0,0
-35,-335,0,0,0,0,0,0,0,0,0,-1,1189,1359,0,0
-28,-335,0,0,0,0,0,0,0,0,0,-1,1196,1359,0,0
-21,-335,0,0,0,0,0,0,0,0,0,-1,1203,1359,0,0
-14,-335,0,0,0,0,0,0,0,0,0,-1,1210,1359,0,0
-7,-335,0,0,0,0,0,0,0,0,0,-1,1217,1359,0,0
0,-335,0,0,0,0,0,0,0,0,0,-1,1224,1359,0,0
7,-335,0,0,0,0,0,0,0,0,0,-1,1231,1359,0,0
14,-335,0,0,0,0,0,0,0,0,0,-1,1238,1359,0,0
21,-335,0,0,0,0,0,0,0,0,0,-1,1245,1359,0,0
28,-335,0,0,0,0,0,0,0,0,0,-1,1252,1359,0,0
35,-335,0,0,0,0,0,0,0,0,0,-1,1259,1359,0,0
42,-335,0,0,0,0,0,0,0,0,0,-1,1266,1359,0,0
49,-335,0,0,0,0,0,0,0,0,0,-1,1273,1359,0,0
56,-335,0,0,0,0,0,0,0,0,0,-1,1280,1359,0,0
63,-335,0,0,0,0,0,0,0,0,0,-1,1287,1359,0,0
70,-335,0,0,0,0,0,0,0,0,0,-1,1294,1359,0,0
77,-335,0,0,0,0,0,0,0,0,0,-1,1301,1359,0,0
84,-335,0,0,0,0,0,0,0,0,0,-1,1308,1359,0,0
91,-335,0,0,0,0,0,0,0,0,0,-1,1315,1359,0,0
98,-335,0,0,0,0,0,0,0,0,0,-1,1322,1359,0,0
105,-335,0,0,0,0,0,0,0,0,0,-1,1329,1359,0,0
112,-335,0,0,0,0,0,0,0,0,0,-1,1336,1359,0,0
119,-335,0,0,0,0,0,0,0,0,0,-1,1343,1359,0,0
126,-335,0,0,0,0,0,0,0,0,0,-1,1350,1359,0,0
133,-335,0,0,0,0,0,0,0,0,0,-1,1357,1359,0,0
140,-335,0,0,0,0,0,0,0,0,0,-1,1364,1359,0,0
147,-335,0,0,0,0,0,0,0,0,0,-1,1371,1359,0,0
154,-335,0,0,0,0,0,0,0,0,0,-1,1378,1359,0,0
161,-335,0,0,0,0,0,0,0,0,0,-1,1385,1359,0,0
168,-335,0,0,0,0,0,0,0,0,0,-1,1392,1359,0,0
175,-335,0,0,0,0,0,0,0,0,0,-1,1399,1359,0,0
182,-335,0,0,0,0,0,0,0,0,0,-1,1406,1359,0,0
189,-335,0,0,0,0,0,0,0,0,0,-1,1413,1359,0,0
196,-335,0,0,0,0,0,0,0,0,0,-1,1420,1359,0,0
203,-335,0,0,0,0,0,0,0,0,0,-1,1427,1359,0,0
210,-335,0,0,0,0,0,0,0,0,0,-1,1434,1359,0,0
217,-335,0,0,0,0,0,0,0,0,0,-1,1441,1359,0,0
224,-335,0,0,0,0,0,0,0,0,0,-1,1448,1359,0,0
231,-335,0,0,0,0,0,0,0,0,0,-1,1455,1359,0,0
238,-335,0,0,0,0,0,0,0,0,0,-1,1462,1359,0,0
245,-335,0,0,0,0,0,0,0,0,0,-1,1469,1359,0,0
252,-335,0,0,0,0,0,0,0,0,0,-1,1476,1359,0,0
259,-335,0,0,0,0,0,0,0,0,0,-1,1483,1359,0,0
266,-335,0,0,0,0,0,0,0,0,0,-1,1490,1359,0,0
273,-335,0,0,0,0,0,0,0,0,0,-1,1497,1359,0,0
280,-335,0,0,0,0,0,0,0,0,0,-1,1504,1359,0,0
287,-335,0,0,0,0,0,0,0,0,0,-1,1511,1359,0,0
294,-335,0,0,0,0,0,0,0,0,0,-1,1518,1359,0,0
301,-335,0,0,0,0,0,0,0,0,0,-1,1525,1359,0,0
308,-335,0,0,0,0,0,0,0,0,0,-1,1532,1359,0,0
315,-335,0,0,0,0,0,0,0,0,0,-1,1539,1359,0,0
322,-335,0,0,0,0,0,0,0,0,0,-1,1546,1359,0,0
329,-335,0,0,0,0,0,0,0,0,0,-1,1553,1359,0,0
336,-335,0,0,0,0,0,0,0,0,0,-1,1560,1359,0,0
343,-335,0,0,0,0,0,0,0,0,0,-1,1567,1359,0,0
350,-335,0,0,0,0,0,0,0,0,0,-1,1574,1359,0,0
357,-335,0,0,0,0,0,0,0,0,0,-1,1581,1359,0,0
364,-335,0,0,0,0,0,0,0,0,0,-1,1588,1359,0,0
371,-335,0,0,0,0,0,0,0,0,0,-1,1595,1359,0,0
378,-335,0,0,0,0,0,0,0,0,0,-1,1602,1359,0,0
385,-335,0,0,0,0,0,0,0,0,0,-1,1609,1359,0,0
392,-335,0,0,0,0,0,0,0,0,0,-1,1616,1359,0,0
399,-335,0,0,0,0,0,0,0,0,0,-1,1623,1359,0,0
406,-335,0,0,0,0,0,0,0,0,0,-1,1630,1359,0,0
413,-335,0,0,0,0,0,0,0,0,0,-1,1637,1359,0,0
420,-335,0,0,0,0,0,0,0,0,0,-1,1644,1359,0,0
427,-335,0,0,0,0,0,0,0,0,0,-1,1651,1359,0,0
434,-335,0,0,0,0,0,0,0,0,0,-1,1658,1359,0,0
441,-335,0,0,0,0,0,0,0,0,0,-1,1665,1359,0,0
448,-335,0,0,0,0,0,0,0,0,0,-1,1672,1359,0,0
455,-335,0,0,0,0,0,0,0,0,0,-1,1679,1359,0,0
462,-335,0,0,0,0,0,0,0,0,0,-1,1686,1359,0,0
469,-335,0,0,0,0,0,0,0,0,0,-1,1693,1359,0,0
476,-335,0,0,0,0,0,0,0,0,0,-1,1700,1359,0,0
483,-335,0,0,0,0,0,0,0,0,0,-1,1707,1359,0,0
490,-335,0,0,0,0,0,0,0,0,0,-1,1714,1359,0,0
497,-335,0,0,0,0,0,0,0,0,0,-1,1721,1359,0,0
504,-335,0,0,0,0,0,0,0,0,0,-1,1728,1359,0,0
511,-335,0,0,0,0,0,0,0,0,0,-1,1735,1359,0,0
518,-335,0,0,0,0,0,0,0,0,0,-1,1742,1359,0,0
525,-335,0,0,0,0,0,0,0,0,0,-1,1749,1359,0,0
532,-335,0,0,0,0,0,0,0,0,0,-1,1756,1359,0,0
539,-335,0,0,0,0,0,0,0,0,0,-1,1763,1359,0,0
546,-335,0,0,0,0,0,0,0,0,0,-1,1770,1359,0,0
553,-335,0,0,0,0,0,0,0,0,0,-1,1777,1359,0,0
560,-335,0,0,0,0,0,0,0,0,0,-1,1784,1359,0,0
567,-335,0,0,0,0,0,0,0,0,0,-1,1791,1359,0,0
574,-335,65.0712,2.80188,0,0,0,0,0,0,0,-1,1798,1359,65.0712,-2.80193
581,-335,66.5206,1.60327,0,0,0,0,0,0,0,-1,1805,1359,66.5206,-1.60333
588,-335,67.826,0.334961,0,0,0,0,0,0,0,-1,1812,1359,67.8261,-0.335018
595,-335,49.984,3.76465,0,0,0,0,0,0,0,-1,1819,1359,49.984,-3.76467
602,-335,36.5643,0.0861816,0,0,0,0,0,0,0,-1,1826,1359,36.5643,-0.0862283
609,-335,36.2933,0.993896,0,0,0,0,0,0,0,-1,1833,1359,36.2934,-0.993911
616,-335,34.6969,4.82666,0,0,0,0,0,0,0,-1,1840,1359,34.6969,-4.82667
623,-335,26.6051,6.54333,0,0,0,0,0,0,0,-1,1847,1359,26.6051,-6.54339
630,-335,19.1707,1.00952,0,0,0,0,0,0,0,-1,1854,1359,19.1707,-1.00953
637,-335,18.2009,6.65454,0,0,0,0,0,0,0,-1,1861,1359,18.2009,-6.6546
644,-335,28.1042,12.067,0,0,0,0,0,0,0,-1,1868,1359,28.1042,-12.067
651,-335,41.0021,17.1428,0,0,0,0,0,0,0,-1,1875,1359,41.0021,-17.1428
658,-335,41.1111,16.3412,-0.000119149,0.000415465,-0.000450149,0.000671692,-0.000375375,-1.05333,0.00061254,0.0376343,1882,1359,41.1111,-16.3412
665,-335,41.1315,15.6027,0.000310992,1.40552e-05,-0.000307538,0.000504024,-0.000178977,-0.560516,0.000408945,0.0158336,1889,1359,41.1315,-15.6027
672,-335,41.0985,14.906,0.000786369,-6.81167e-05,-0.000348395,0.000910412,-0.000192159,-0.342045,0.000680104,0.0182728,1896,1359,41.0985,-14.9061
679,-335,41.0688,14.2422,0.00128462,4.89985e-05,-0.000451923,0.00143226,-9.86479e-05,-0.315775,0.000989366,0.0156629,1903,1359,41.0688,-14.2422
686,-335,41.0449,13.5276,0.00175114,0.000240502,-0.000559468,0.00193578,5.58685e-05,-0.318762,0.0012723,0.0137486,1910,1359,41.0449,-13.5276
693,-335,40.9834,12.8363,0.00221705,0.000552206,-0.000688946,0.00246517,0.000304085,-0.345685,0.00155205,0.0112703,1917,1359,40.9834,-12.8363
700,-335,40.9406,12.1974,0.00266686,0.000972952,-0.000822445,0.00300048,0.000639336,-0.385358,0.00182493,0.0116951,1924,1359,40.9405,-12.1974
707,-335,40.9302,11.4979,0.00296038,0.00147004,-0.00087759,0.00336649,0.00106393,-0.433411,0.00198701,0.0148744,1931,1359,40.9301,-11.498
714,-335,40.9202,10.6783,0.00310871,0.00209252,-0.000845628,0.00358715,0.00161408,-0.514876,0.0020745,0.0360811,1938,1359,40.9202,-10.6783
721,-335,40.8042,9.7478,0,0,0,0,0,0,0,-1,1945,1359,40.8042,-9.74776
728,-335,20.8126,5.21167,0,0,0,0,0,0,0,-1,1952,1359,20.8127,-5.21172
735,-335,20.2725,5.34729,0,0,0,0,0,0,0,-1,1959,1359,20.2724,-5.34734
742,-335,19.8624,4.72229,0,0,0,0,0,0,0,-1,1966,1359,19.8624,-4.72225
749,-335,20.5887,6.05322,0,0,0,0,0,0,0,-1,1973,1359,20.5887,-6.05322
756,-335,20.7832,6.00452,0,0,0,0,0,0,0,-1,1980,1359,20.7832,-6.00447
763,-335,0,0,0,0,0,0,0,0,0,-1,1987,1359,0,0
770,-335,0,0,0,0,0,0,0,0,0,-1,1994,1359,0,0
777,-335,0,0,0,0,0,0,0,0,0,-1,2001,1359,0,0
784,-335,0,0,0,0,0,0,0,0,0,-1,2008,1359,0,0
791,-335,0,0,0,0,0,0,0,0,0,-1,2015,1359,0,0
798,-335,0,0,0,0,0,0,0,0,0,-1,2022,1359,0,0
805,-335,0,0,0,0,0,0,0,0,0,-1,2029,1359,0,0
812,-335,0,0,0,0,0,0,0,0,0,-1,2036,1359,0,0
-700,-342,0,0,0,0,0,0,0,0,0,-1,524,1366,0,0
-693,-342,0,0,0,0,0,0,0,0,0,-1,531,1366,0,0
-686,-342,0,0,0,0,0,0,0,0,0,-1,538,1366,0,0
-679,-342,0,0,0,0,0,0,0,0,0,-1,545,1366,0,0
-672,-342,0,0,0,0,0,0,0,0,0,-1,552,1366,0,0
-665,-342,0,0,0,0,0,0,0,0,0,-1,559,1366,0,0
-658,-342,0,0,0,0,0,0,0,0,0,-1,566,1366,0,0
-651,-342,0,0,0,0,0,0,0,0,0,-1,573,1366,0,0
-644,-342,0,0,0,0,0,0,0,0,0,-1,580,1366,0,0
-637,-342,-63.7546,12.2344,0,0,0,0,0,0,0,-1,587,1366,-63.7546,-12.2343
-630,-342,-8.60132,2.71777,0,0,0,0,0,0,0,-1,594,1366,-8.60135,-2.71779
-623,-342,-8.41168,0.662476,0,0,0,0,0,0,0,-1,601,1366,-8.41168,-0.662442
-616,-342,-6.625,-1.28015,0,0,0,0,0,0,0,-1,608,1366,-6.62499,1.28011
-609,-342,-7.83154,0.674561,0,0,0,0,0,0,0,-1,615,1366,-7.83155,-0.674598
-602,-342,-9.65765,2.25195,0,0,0,0,0,0,0,-1,622,1366,-9.65767,-2.25192
-595,-342,-9.47687,3.00671,0,0,0,0,0,0,0,-1,629,1366,-9.47686,-3.00668
-588,-342,-9.78467,3.57727,0,0,0,0,0,0,0,-1,636,1366,-9.78468,-3.57723
-581,-342,-23.9794,9.24878,0,0,0,0,0,0,0,-1,643,1366,-23.9794,-9.24884
-574,-342,-23.8901,9.927,0.00380303,0.00120959,0.00124021,0.00430063,0.00071198,0.381563,0.00266169,0.0169915,650,1366,-23.8901,-9.92698
-567,-342,-23.8351,10.6632,0.00311577,0.000994087,0.00117425,0.00363741,0.00047245,0.418046,0.0022838,0.0171284,657,1366,-23.8352,-10.6631
-560,-342,-23.9095,11.3348,0.00276203,0.000806347,0.00119209,0.00332602,0.000242358,0.441906,0.00214114,0.0265259,664,1366,-23.9095,-11.3349
-553,-342,-23.9779,11.9795,0.00264839,0.000650513,0.0012784,0.00327185,2.70512e-05,0.45375,0.00217228,0.030076,671,1366,-23.9779,-11.9795
-546,-342,-24.018,12.7192,0.00276007,0.000536508,0.00143154,0.00346084,-0.000164266,0.455233,0.00236389,0.029846,678,1366,-24.018,-12.7192
-539,-342,-24.026,13.5156,0.00307686,0.000464946,0.00165016,0.00387531,-0.000333508,0.450657,0.00270158,0.024681,685,1366,-24.026,-13.5157
-532,-342,-24.0408,14.3125,0.00362377,0.000448257,0.00194678,0.00454817,-0.000476142,0.443314,0.00320264,0.0184078,692,1366,-24.0408,-14.3125
-525,-342,-24.0074,15.0802,0.00436701,0.0004459,0.00231486,0.00544,-0.000627082,0.434039,0.00385274,0.0136602,699,1366,-24.0075,-15.0802
-518,-342,-23.9946,15.8156,0.00541822,0.00064756,0.00276861,0.00668735,-0.000621562,0.429814,0.0046792,0.0411634,706,1366,-23.9946,-15.8156
-511,-342,-24.0137,16.5328,0,0,0,0,0,0,0,-1,713,1366,-24.0137,-16.5328
-504,-342,-8.95709,6.5719,0,0,0,0,0,0,0,-1,720,1366,-8.95707,-6.57192
-497,-342,-8.26587,-0.943604,0,0,0,0,0,0,0,-1,727,1366,-8.26586,0.943543
-490,-342,-9.07153,-0.0227051,0,0,0,0,0,0,0,-1,734,1366,-9.07155,0.0227087
-483,-342,-9.87726,0.898071,0,0,0,0,0,0,0,-1,741,1366,-9.87724,-0.898125
-476,-342,-11.6371,-0.736328,0,0,0,0,0,0,0,-1,748,1366,-11.6371,0.736281
-469,-342,-12.6245,-0.987549,0,0,0,0,0,0,0,-1,755,1366,-12.6245,0.987553
-462,-342,-13.0912,-0.533203,0,0,0,0,0,0,0,-1,762,1366,-13.0912,0.533224
-455,-342,-13.7612,0.122925,0,0,0,0,0,0,0,-1,769,1366,-13.7612,-0.122896
-448,-342,-14.5278,0.826904,0,0,0,0,0,0,0,-1,776,1366,-14.5277,-0.826861
-441,-342,0,0,0,0,0,0,0,0,0,-1,783,1366,0,0
-434,-342,0,0,0,0,0,0,0,0,0,-1,790,1366,0,0
-427,-342,0,0,0,0,0,0,0,0,0,-1,797,1366,0,0
-420,-342,0,0,0,0,0,0,0,0,0,-1,804,1366,0,0
-413,-342,0,0,0,0,0,0,0,0,0,-1,811,1366,0,0
-406,-342,0,0,0,0,0,0,0,0,0,-1,818,1366,0,0
-399,-342,0,0,0,0,0,0,0,0,0,-1,825,1366,0,0
-392,-342,0,0,0,0,0,0,0,0,0,-1,832,1366,0,0
-385,-342,0,0,0,0,0,0,0,0,0,-1,839,1366,0,0
-378,-342,0,0,0,0,0,0,0,0,0,-1,846,1366,0,0
-371,-342,0,0,0,0,0,0,0,0,0,-1,853,1366,0,0
-364,-342,0,0,0,0,0,0,0,0,0,-1,860,1366,0,0
-357,-342,0,0,0,0,0,0,0,0,0,-1,867,1366,0,0
-350,-342,0,0,0,0,0,0,0,0,0,-1,874,1366,0,0
-343,-342,0,0,0,0,0,0,0,0,0,-1,881,1366,0,0
-336,-342,0,0,0,0,0,0,0,0,0,-1,888,1366,0,0
-329,-342,0,0,0,0,0,0,0,0,0,-1,895,1366,0,0
-322,-342,0,0,0,0,0,0,0,0,0,-1,902,1366,0,0
-315,-342,0,0,0,0,0,0,0,0,0,-1,909,1366,0,0
-308,-342,0,0,0,0,0,0,0,0,0,-1,916,1366,0,0
-301,-342,0,0,0,0,0,0,0,0,0,-1,923,1366,0,0
-294,-342,0,0,0,0,0,0,0,0,0,-1,930,1366,0,0
-287,-342,0,0,0,0,0,0,0,0,0,-1,937,1366,0,0
-280,-342,0,0,0,0,0,0,0,0,0,-1,944,1366,0,0
-273,-342,0,0,0,0,0,0,0,0,0,-1,951,1366,0,0
-266,-342,0,0,0,0,0,0,0,0,0,-1,958,1366,0,0
-259,-342,0,0,0,0,0,0,0,0,0,-1,965,1366,0,0
-252,-342,0,0,0,0,0,0,0,0,0,-1,972,1366,0,0
-245,-342,0,0,0,0,0,0,0,0,0,-1,979,1366,0,0
-238,-342,0,0,0,0,0,0,0,0,0,-1,986,1366,0,0
-231,-342,0,0,0,0,0,0,0,0,0,-1,993,1366,0,0
-224,-342,0,0,0,0,0,0,0,0,0,-1,1000,1366,0,0
-217,-342,0,0,0,0,0,0,0,0,0,-1,1007,1366,0,0
-210,-342,0,0,0,0,0,0,0,0,0,-1,1014,1366,0,0
-203,-342,0,0,0,0,0,0,0,0,0,-1,1021,1366,0,0
-196,-342,0,0,0,0,0,0,0,0,0,-1,1028,1366,0,0
-189,-342,0,0,0,0,0,0,0,0,0,-1,1035,1366,0,0
-182,-342,0,0,0,0,0,0,0,0,0,-1,1042,1366,0,0
-175,-342,0,0,0,0,0,0,0,0,0,-1,1049,1366,0,0
-168,-342,0,0,0,0,0,0,0,0,0,-1,1056,1366,0,0
-161,-342,0,0,0,0,0,0,0,0,0,-1,1063,1366,0,0
-154,-342,0,0,0,0,0,0,0,0,0,-1,1070,1366,0,0
-147,-342,0,0,0,0,0,0,0,0,0,-1,1077,1366,0,0
-140,-342,0,0,0,0,0,0,0,0,0,-1,1084,1366,0,0
-133,-342,0,0,0,0,0,0,0,0,0,-1,1091,1366,0,0
-126,-342,0,0,0,0,0,0,0,0,0,-1,1098,1366,0,0
-119,-342,0,0,0,0,0,0,0,0,0,-1,1105,1366,0,0
-112,-342,0,0,0,0,0,0,0,0,0,-1,1112,1366,0,0
-105,-342,0,0,0,0,0,0,0,0,0,-1,1119,1366,0,0
-98,-342,0,0,0,0,0,0,0,0,0,-1,1126,1366,0,0
-91,-342,0,0,0,0,0,0,0,0,0,-1,1133,1366,0,0
-84,-342,0,0,0,0,0,0,0,0,0,-1,1140,1366,0,0
-77,-342,0,0,0,0,0,0,0,0,0,-1,1147,1366,0,0
-70,-342,0,0,0,0,0,0,0,0,0,-1,1154,1366,0,0
-63,-342,0,0,0,0,0,0,0,0,0,-1,1161,1366,0,0
-56,-342,0,0,0,0,0,0,0,0,0,-1,1168,1366,0,0
-49,-342,0,0,0,0,0,0,0,0,0,-1,1175,1366,0,0
-42,-342,0,0,0,0,0,0,0,0,0,-1,1182,1366,0,0
-35,-342,0,0,0,0,0,0,0,0,0,-1,1189,1366,0,0
-28,-342,0,0,0,0,0,0,0,0,0,-1,1196,1366,0,0
-21,-342,0,0,0,0,0,0,0,0,0,-1,1203,1366,0,0
-14,-342,0,0,0,0,0,0,0,0,0,-1,1210,1366,0,0
-7,-342,0,0,0,0,0,0,0,0,0,-1,1217,1366,0,0
0,-342,0,0,0,0,0,0,0,0,0,-1,1224,1366,0,0
7,-342,0,0,0,0,0,0,0,0,0,-1,1231,1366,0,0
14,-342,0,0,0,0,0,0,0,0,0,-1,1238,1366,0,0
21,-342,0,0,0,0,0,0,0,0,0,-1,1245,1366,0,0
28,-342,0,0,0,0,0,0,0,0,0,-1,1252,1366,0,0
35,-342,0,0,0,0,0,0,0,0,0,-1,1259,1366,0,0
42,-342,0,0,0,0,0,0,0,0,0,-1,1266,1366,0,0
49,-342,0,0,0,0,0,0,0,0,0,-1,1273,1366,0,0
56,-342,0,0,0,0,0,0,0,0,0,-1,1280,1366,0,0
63,-342,0,0,0,0,0,0,0,0,0,-1,1287,1366,0,0
70,-342,0,0,0,0,0,0,0,0,0,-1,1294,1366,0,0
77,-342,0,0,0,0,0,0,0,0,0,-1,1301,1366,0,0
84,-342,0,0,0,0,0,0,0,0,0,-1,1308,1366,0,0
91,-342,0,0,0,0,0,0,0,0,0,-1,1315,1366,0,0
98,-342,0,0,0,0,0,0,0,0,0,-1,1322,1366,0,0
105,-342,0,0,0,0,0,0,0,0,0,-1,1329,1366,0,0
112,-342,0,0,0,0,0,0,0,0,0,-1,1336,1366,0,0
119,-342,0,0,0,0,0,0,0,0,0,-1,1343,1366,0,0
126,-342,0,0,0,0,0,0,0,0,0,-1,1350,1366,0,0
133,-342,0,0,0,0,0,0,0,0,0,-1,1357,1366,0,0
140,-342,0,0,0,0,0,0,0,0,0,-1,1364,1366,0,0
147,-342,0,0,0,0,0,0,0,0,0,-1,1371,1366,0,0
154,-342,0,0,0,0,0,0,0,0,0,-1,1378,1366,0,0
161,-342,0,0,0,0,0,0,0,0,0,-1,1385,1366,0,0
168,-342,0,0,0,0,0,0,0,0,0,-1,1392,1366,0,0
175,-342,0,0,0,0,0,0,0,0,0,-1,1399,1366,0,0
182,-342,0,0,0,0,0,0,0,0,0,-1,1406,1366,0,0
189,-342,0,0,0,0,0,0,0,0,0,-1,1413,1366,0,0
196,-342,0,0,0,0,0,0,0,0,0,-1,1420,1366,0,0
203,-342,0,0,0,0,0,0,0,0,0,-1,1427,1366,0,0
210,-342,0,0,0,0,0,0,0,0,0,-1,1434,1366,0,0
217,-342,0,0,0,0,0,0,0,0,0,-1,1441,1366,0,0
224,-342,0,0,0,0,0,0,0,0,0,-1,1448,1366,0,0
231,-342,0,0,0,0,0,0,0,0,0,-1,1455,1366,0,0
238,-342,0,0,0,0,0,0,0,0,0,-1,1462,1366,0,0
245,-342,0,0,0,0,0,0,0,0,0,-1,1469,1366,0,0
252,-342,0,0,0,0,0,0,0,0,0,-1,1476,1366,0,0
259,-342,0,0,0,0,0,0,0,0,0,-1,1483,1366,0,0
266,-342,0,0,0,0,0,0,0,0,0,-1,1490,1366,0,0
273,-342,0,0,0,0,0,0,0,0,0,-1,1497,1366,0,0
280,-342,0,0,0,0,0,0,0,0,0,-1,1504,1366,0,0
287,-342,0,0,0,0,0,0,0,0,0,-1,1511,1366,0,0
294,-342,0,0,0,0,0,0,0,0,0,-1,1518,1366,0,0
301,-342,0,0,0,0,0,0,0,0,0,-1,1525,1366,0,0
308,-342,0,0,0,0,0,0,0,0,0,-1,1532,1366,0,0
315,-342,0,0,0,0,0,0,0,0,0,-1,1539,1366,0,0
322,-342,0,0,0,0,0,0,0,0,0,-1,1546,1366,0,0
329,-342,0,0,0,0,0,0,0,0,0,-1,1553,1366,0,0
336,-342,0,0,0,0,0,0,0,0,0,-1,1560,1366,0,0
343,-342,0,0,0,0,0,0,0,0,0,-1,1567,1366,0,0
350,-342,0,0,0,0,0,0,0,0,0,-1,1574,1366,0,0
357,-342,0,0,0,0,0,0,0,0,0,-1,1581,1366,0,0
364,-342,0,0,0,0,0,0,0,0,0,-1,1588,1366,0,0
371,-342,0,0,0,0,0,0,0,0,0,-1,1595,1366,0,0
378,-342,0,0,0,0,0,0,0,0,0,-1,1602,1366,0,0
385,-342,0,0,0,0,0,0,0,0,0,-1,1609,1366,0,0
392,-342,0,0,0,0,0,0,0,0,0,-1,1616,1366,0,0
399,-342,0,0,0,0,0,0,0,0,0,-1,1623,1366,0,0
406,-342,0,0,0,0,0,0,0,0,0,-1,1630,1366,0,0
413,-342,0,0,0,0,0,0,0,0,0,-1,1637,1366,0,0
420,-342,0,0,0,0,0,0,0,0,0,-1,1644,1366,0,0
427,-342,0,0,0,0,0,0,0,0,0,-1,1651,1366,0,0
434,-342,0,0,0,0,0,0,0,0,0,-1,1658,1366,0,0
441,-342,0,0,0,0,0,0,0,0,0,-1,1665,1366,0,0
448,-342,0,0,0,0,0,0,0,0,0,-1,1672,1366,0,0
455,-342,0,0,0,0,0,0,0,0,0,-1,1679,1366,0,0
462,-342,0,0,0,0,0,0,0,0,0,-1,1686,1366,0,0
469,-342,0,0,0,0,0,0,0,0,0,-1,1693,1366,0,0
476,-342,0,0,0,0,0,0,0,0,0,-1,1700,1366,0,0
483,-342,0,0,0,0,0,0,0,0,0,-1,1707,1366,0,0
490,-342,0,0,0,0,0,0,0,0,0,-1,1714,1366,0,0
497,-342,0,0,0,0,0,0,0,0,0,-1,1721,1366,0,0
504,-342,0,0,0,0,0,0,0,0,0,-1,1728,1366,0,0
511,-342,0,0,0,0,0,0,0,0,0,-1,1735,1366,0,0
518,-342,0,0,0,0,0,0,0,0,0,-1,1742,1366,0,0
525,-342,0,0,0,0,0,0,0,0,0,-1,1749,1366,0,0
532,-342,0,0,0,0,0,0,0,0,0,-1,1756,1366,0,0
539,-342,0,0,0,0,0,0,0,0,0,-1,1763,1366,0,0
546,-342,0,0,0,0,0,0,0,0,0,-1,1770,1366,0,0
553,-342,0,0,0,0,0,0,0,0,0,-1,1777,1366,0,0
560,-342,0,0,0,0,0,0,0,0,0,-1,1784,1366,0,0
567,-342,64.6937,3.24878,0,0,0,0,0,0,0,-1,1791,1366,64.6938,-3.24881
574,-342,65.4669,2.18384,0,0,0,0,0,0,0,-1,1798,1366,65.4669,-2.18381
581,-342,66.542,1.36292,0,0,0,0,0,0,0,-1,1805,1366,66.542,-1.36295
588,-342,43.9108,7.22559,0,0,0,0,0,0,0,-1,1812,1366,43.9107,-7.22554
595,-342,35.7993,0.709961,0,0,0,0,0,0,0,-1,1819,1366,35.7993,-0.709913
602,-342,36.3618,3.28723,0,0,0,0,0,0,0,-1,1826,1366,36.3619,-3.28719
609,-342,35.3777,4.14978,0,0,0,0,0,0,0,-1,1833,1366,35.3777,-4.14976
616,-342,34.199,5.8158,0,0,0,0,0,0,0,-1,1840,1366,34.199,-5.81579
623,-342,26.0299,6.86865,0,0,0,0,0,0,0,-1,1847,1366,26.0299,-6.86863
630,-342,17.3431,0.773071,0,0,0,0,0,0,0,-1,1854,1366,17.3432,-0.773095
637,-342,16.196,6.76172,0,0,0,0,0,0,0,-1,1861,1366,16.1961,-6.76174
644,-342,31.8916,14.0614,0,0,0,0,0,0,0,-1,1868,1366,31.8916,-14.0613
651,-342,40.5004,17.0153,0,0,0,0,0,0,0,-1,1875,1366,40.5004,-17.0152
658,-342,40.4502,16.3433,-0.000225534,0.000469394,-0.000567726,0.000787546,-0.000543686,-1.06001,0.000772873,0.0217963,1882,1366,40.4501,-16.3433
665,-342,40.425,15.6482,0.00029716,0.00010812,-0.000381679,0.000595848,-0.000190568,-0.664019,0.000473709,0.0189495,1889,1366,40.4251,-15.6482
672,-342,40.3915,14.9633,0.000901359,2.41886e-05,-0.000367112,0.00103473,-0.000109178,-0.34846,0.00072894,0.0147084,1896,1366,40.3915,-14.9632
679,-342,40.3662,14.2937,0.00156418,0.000124641,-0.000445373,0.00169083,-2.00857e-06,-0.277055,0.00112789,0.0134307,1903,1366,40.3662,-14.2937
686,-342,40.3705,13.5984,0.00222704,0.000305811,-0.000554532,0.0023756,0.000157243,-0.261769,0.00153401,0.0120495,1910,1366,40.3704,-13.5984
693,-342,40.2925,12.9023,0.00292641,0.000628108,-0.000727348,0.00313725,0.000417265,-0.282146,0.00196722,0.0128074,1917,1366,40.2924,-12.9024
700,-342,40.2443,12.2368,0.00363757,0.00109149,-0.000942446,0.00394846,0.000780595,-0.318636,0.00241454,0.0149164,1924,1366,40.2443,-12.2368
707,-342,40.2367,11.5,0.00414962,0.00165191,-0.00110188,0.00456624,0.0012353,-0.361479,0.0027273,0.0145955,1931,1366,40.2367,-11.5001
714,-342,40.3159,10.5701,0,0,0,0,0,0,0,-1,1938,1366,40.3159,-10.57
721,-342,22.4666,6.08679,0,0,0,0,0,0,0,-1,1945,1366,22.4666,-6.08678
728,-342,19.8912,5.26636,0,0,0,0,0,0,0,-1,1952,1366,19.8913,-5.26636
735,-342,19.481,4.41968,0,0,0,0,0,0,0,-1,1959,1366,19.4809,-4.41962
742,-342,19.309,2.66943,0,0,0,0,0,0,0,-1,1966,1366,19.3089,-2.66948
749,-342,21.0934,6.47729,0,0,0,0,0,0,0,-1,1973,1366,21.0934,-6.4773
756,-342,0,0,0,0,0,0,0,0,0,-1,1980,1366,0,0
763,-342,0,0,0,0,0,0,0,0,0,-1,1987,1366,0,0
770,-342,0,0,0,0,0,0,0,0,0,-1,1994,1366,0,0
777,-342,0,0,0,0,0,0,0,0,0,-1,2001,1366,0,0
784,-342,0,0,0,0,0,0,0,0,0,-1,2008,1366,0,0
791,-342,0,0,0,0,0,0,0,0,0,-1,2015,1366,0,0
798,-342,0,0,0,0,0,0,0,0,0,-1,2022,1366,0,0
805,-342,0,0,0,0,0,0,0,0,0,-1,2029,1366,0,0
812,-342,0,0,0,0,0,0,0,0,0,-1,2036,1366,0,0
-700,-349,0,0,0,0,0,0,0,0,0,-1,524,1373,0,0
-693,-349,0,0,0,0,0,0,0,0,0,-1,531,1373,0,0
-686,-349,0,0,0,0,0,0,0,0,0,-1,538,1373,0,0
-679,-349,0,0,0,0,0,0,0,0,0,-1,545,1373,0,0
-672,-349,0,0,0,0,0,0,0,0,0,-1,552,1373,0,0
-665,-349,0,0,0,0,0,0,0,0,0,-1,559,1373,0,0
-658,-349,0,0,0,0,0,0,0,0,0,-1,566,1373,0,0
-651,-349,0,0,0,0,0,0,0,0,0,-1,573,1373,0,0
-644,-349,0,0,0,0,0,0,0,0,0,-1,580,1373,0,0
-637,-349,0,0,0,0,0,0,0,0,0,-1,587,1373,0,0
-630,-349,-7.64117,-5.06177,0,0,0,0,0,0,0,-1,594,1373,-7.64118,5.0618
-623,-349,-8.63507,0.51123,0,0,0,0,0,0,0,-1,601,1373,-8.63505,-0.511275
-616,-349,-5.2066,-0.188232,0,0,0,0,0,0,0,-1,608,1373,-5.20659,0.188211
-609,-349,-7.12073,1.37048,0,0,0,0,0,0,0,-1,615,1373,-7.12072,-1.37044
-602,-349,-9.00623,3.39587,0,0,0,0,0,0,0,-1,622,1373,-9.0062,-3.39591
-595,-349,-9.50568,2.96912,0,0,0,0,0,0,0,-1,629,1373,-9.50569,-2.96906
-588,-349,-8.60046,3.56042,0,0,0,0,0,0,0,-1,636,1373,-8.60046,-3.56047
-581,-349,-23.0405,9.2782,0,0,0,0,0,0,0,-1,643,1373,-23.0405,-9.27816
-574,-349,-23.1034,9.91675,0.00429005,0.00150092,0.0016629,0.00506575,0.000725224,0.436468,0.00316326,0.0405842,650,1373,-23.1034,-9.91674
-567,-349,-23.1412,10.7048,0.00347662,0.0012076,0.00147453,0.00420258,0.000481637,0.457497,0.00265578,0.0177559,657,1373,-23.1412,-10.7049
-560,-349,-23.176,11.4293,0.00302465,0.000958516,0.00137933,0.00371489,0.000268278,0.46398,0.00239218,0.0215146,664,1373,-23.176,-11.4293
-553,-349,-23.1861,12.0695,0.00280844,0.000757297,0.00136143,0.00348736,7.83756e-05,0.462592,0.00229923,0.0270084,671,1373,-23.1861,-12.0694
-546,-349,-23.2448,12.7926,0.00279541,0.000601763,0.00140931,0.00348441,-8.72393e-05,0.454724,0.00235256,0.0303285,678,1373,-23.2448,-12.7926
-539,-349,-23.312,13.572,0.00296125,0.000492768,0.00152123,0.00368596,-0.000231944,0.444588,0.00253816,0.0254207,685,1373,-23.312,-13.572
-532,-349,-23.3217,14.3484,0.00332117,0.000439342,0.00171209,0.004118,-0.000357488,0.435597,0.00287192,0.0182343,692,1373,-23.3217,-14.3484
-525,-349,-23.3019,15.104,0.00384247,0.000419213,0.00197218,0.0047422,-0.000480514,0.428005,0.0033332,0.0139976,699,1373,-23.3019,-15.104
-518,-349,-23.3044,15.8674,0.00457543,0.000544164,0.00230575,0.00562236,-0.000502761,0.426216,0.00392657,0.024699,706,1373,-23.3044,-15.8675
-511,-349,-23.2891,16.6346,0,0,0,0,0,0,0,-1,713,1373,-23.2891,-16.6347
-504,-349,-9.60516,7.88831,0,0,0,0,0,0,0,-1,720,1373,-9.60519,-7.88825
-497,-349,-7.9339,5.58789,0,0,0,0,0,0,0,-1,727,1373,-7.93388,-5.58785
-490,-349,-8.73969,-0.503784,0,0,0,0,0,0,0,-1,734,1373,-8.73966,0.503752
-483,-349,-5.66974,3.7395,0,0,0,0,0,0,0,-1,741,1373,-5.66975,-3.73949
-476,-349,-10.8496,1.15759,0,0,0,0,0,0,0,-1,748,1373,-10.8496,-1.15756
-469,-349,-12.3314,-1.74878,0,0,0,0,0,0,0,-1,755,1373,-12.3314,1.74882
-462,-349,-12.6559,-0.995361,0,0,0,0,0,0,0,-1,762,1373,-12.656,0.995351
-455,-349,-13.2897,-0.234253,0,0,0,0,0,0,0,-1,769,1373,-13.2897,0.234261
-448,-349,-14.045,0.712891,0,0,0,0,0,0,0,-1,776,1373,-14.045,-0.712838
-441,-349,0,0,0,0,0,0,0,0,0,-1,783,1373,0,0
-434,-349,0,0,0,0,0,0,0,0,0,-1,790,1373,0,0
-427,-349,0,0,0,0,0,0,0,0,0,-1,797,1373,0,0
-420,-349,0,0,0,0,0,0,0,0,0,-1,804,1373,0,0
-413,-349,0,0,0,0,0,0,0,0,0,-1,811,1373,0,0
-406,-349,0,0,0,0,0,0,0,0,0,-1,818,1373,0,0
-399,-349,0,0,0,0,0,0,0,0,0,-1,825,1373,0,0
-392,-349,0,0,0,0,0,0,0,0,0,-1,832,1373,0,0
-385,-349,0,0,0,0,0,0,0,0,0,-1,839,1373,0,0
-378,-349,0,0,0,0,0,0,0,0,0,-1,846,1373,0,0
-371,-349,0,0,0,0,0,0,0,0,0,-1,853,1373,0,0
-364,-349,0,0,0,0,0,0,0,0,0,-1,860,1373,0,0
-357,-349,0,0,0,0,0,0,0,0,0,-1,867,1373,0,0
-350,-349,0,0,0,0,0,0,0,0,0,-1,874,1373,0,0
-343,-349,0,0,0,0,0,0,0,0,0,-1,881,1373,0,0
-336,-349,0,0,0,0,0,0,0,0,0,-1,888,1373,0,0
-329,-349,0,0,0,0,0,0,0,0,0,-1,895,1373,0,0
-322,-349,0,0,0,0,0,0,0,0,0,-1,902,1373,0,0
-315,-349,0,0,0,0,0,0,0,0,0,-1,909,1373,0,0
-308,-349,0,0,0,0,0,0,0,0,0,-1,916,1373,0,0
-301,-349,0,0,0,0,0,0,0,0,0,-1,923,1373,0,0
-294,-349,0,0,0,0,0,0,0,0,0,-1,930,1373,0,0
-287,-349,0,0,0,0,0,0,0,0,0,-1,937,1373,0,0
-280,-349,0,0,0,0,0,0,0,0,0,-1,944,1373,0,0
-273,-349,0,0,0,0,0,0,0,0,0,-1,951,1373,0,0
-266,-349,0,0,0,0,0,0,0,0,0,-1,958,1373,0,0
-259,-349,0,0,0,0,0,0,0,0,0,-1,965,1373,0,0
-252,-349,0,0,0,0,0,0,0,0,0,-1,972,1373,0,0
-245,-349,0,0,0,0,0,0,0,0,0,-1,979,1373,0,0
-238,-349,0,0,0,0,0,0,0,0,0,-1,986,1373,0,0
-231,-349,0,0,0,0,0,0,0,0,0,-1,993,1373,0,0
-224,-349,0,0,0,0,0,0,0,0,0,-1,1000,1373,0,0
-217,-349,0,0,0,0,0,0,0,0,0,-1,1007,1373,0,0
-210,-349,0,0,0,0,0,0,0,0,0,-1,1014,1373,0,0
-203,-349,0,0,0,0,0,0,0,0,0,-1,1021,1373,0,0
-196,-349,0,0,0,0,0,0,0,0,0,-1,1028,1373,0,0
-189,-349,0,0,0,0,0,0,0,0,0,-1,1035,1373,0,0
-182,-349,0,0,0,0,0,0,0,0,0,-1,1042,1373,0,0
-175,-349,0,0,0,0,0,0,0,0,0,-1,1049,1373,0,0
-168,-349,0,0,0,0,0,0,0,0,0,-1,1056,1373,0,0
-161,-349,0,0,0,0,0,0,0,0,0,-1,1063,1373,0,0
-154,-349,0,0,0,0,0,0,0,0,0,-1,1070,1373,0,0
-147,-349,0,0,0,0,0,0,0,0,0,-1,1077,1373,0,0
-140,-349,0,0,0,0,0,0,0,0,0,-1,1084,1373,0,0
-133,-349,0,0,0,0,0,0,0,0,0,-1,1091,1373,0,0
-126,-349,0,0,0,0,0,0,0,0,0,-1,1098,1373,0,0
-119,-349,0,0,0,0,0,0,0,0,0,-1,1105,1373,0,0
-112,-349,0,0,0,0,0,0,0,0,0,-1,1112,1373,0,0
-105,-349,0,0,0,0,0,0,0,0,0,-1,1119,1373,0,0
-98,-349,0,0,0,0,0,0,0,0,0,-1,1126,1373,0,0
-91,-349,0,0,0,0,0,0,0,0,0,-1,1133,1373,0,0
-84,-349,0,0,0,0,0,0,0,0,0,-1,1140,1373,0,0
-77,-349,0,0,0,0,0,0,0,0,0,-1,1147,1373,0,0
-70,-349,0,0,0,0,0,0,0,0,0,-1,1154,1373,0,0
-63,-349,0,0,0,0,0,0,0,0,0,-1,1161,1373,0,0
-56,-349,0,0,0,0,0,0,0,0,0,-1,1168,1373,0,0
-49,-349,0,0,0,0,0,0,0,0,0,-1,1175,1373,0,0
-42,-349,0,0,0,0,0,0,0,0,0,-1,1182,1373,0,0
-35,-349,0,0,0,0,0,0,0,0,0,-1,1189,1373,0,0
-28,-349,0,0,0,0,0,0,0,0,0,-1,1196,1373,0,0
-21,-349,0,0,0,0,0,0,0,0,0,-1,1203,1373,0,0
-14,-349,0,0,0,0,0,0,0,0,0,-1,1210,1373,0,0
-7,-349,0,0,0,0,0,0,0,0,0,-1,1217,1373,0,0
0,-349,0,0,0,0,0,0,0,0,0,-1,1224,1373,0,0
7,-349,0,0,0,0,0,0,0,0,0,-1,1231,1373,0,0
14,-349,0,0,0,0,0,0,0,0,0,-1,1238,1373,0,0
21,-349,0,0,0,0,0,0,0,0,0,-1,1245,1373,0,0
28,-349,0,0,0,0,0,0,0,0,0,-1,1252,1373,0,0
35,-349,0,0,0,0,0,0,0,0,0,-1,1259,1373,0,0
42,-349,0,0,0,0,0,0,0,0,0,-1,1266,1373,0,0
49,-349,0,0,0,0,0,0,0,0,0,-1,1273,1373,0,0
56,-349,0,0,0,0,0,0,0,0,0,-1,1280,1373,0,0
63,-349,0,0,0,0,0,0,0,0,0,-1,1287,1373,0,0
70,-349,0,0,0,0,0,0,0,0,0,-1,1294,1373,0,0
77,-349,0,0,0,0,0,0,0,0,0,-1,1301,1373,0,0
84,-349,0,0,0,0,0,0,0,0,0,-1,1308,1373,0,0
91,-349,0,0,0,0,0,0,0,0,0,-1,1315,1373,0,0
98,-349,0,0,0,0,0,0,0,0,0,-1,1322,1373,0,0
105,-349,0,0,0,0,0,0,0,0,0,-1,1329,1373,0,0
112,-349,0,0,0,0,0,0,0,0,0,-1,1336,1373,0,0
119,-349,0,0,0,0,0,0,0,0,0,-1,1343,1373,0,0
126,-349,0,0,0,0,0,0,0,0,0,-1,1350,1373,0,0
133,-349,0,0,0,0,0,0,0,0,0,-1,1357,1373,0,0
140,-349,0,0,0,0,0,0,0,0,0,-1,1364,1373,0,0
147,-349,0,0,0,0,0,0,0,0,0,-1,1371,1373,0,0
154,-349,0,0,0,0,0,0,0,0,0,-1,1378,1373,0,0
161,-349,0,0,0,0,0,0,0,0,0,-1,1385,1373,0,0
168,-349,0,0,0,0,0,0,0,0,0,-1,1392,1373,0,0
175,-349,0,0,0,0,0,0,0,0,0,-1,1399,1373,0,0
182,-349,0,0,0,0,0,0,0,0,0,-1,1406,1373,0,0
189,-349,0,0,0,0,0,0,0,0,0,-1,1413,1373,0,0
196,-349,0,0,0,0,0,0,0,0,0,-1,1420,1373,0,0
203,-349,0,0,0,0,0,0,0,0,0,-1,1427,1373,0,0
210,-349,0,0,0,0,0,0,0,0,0,-1,1434,1373,0,0
217,-349,0,0,0,0,0,0,0,0,0,-1,1441,1373,0,0
224,-349,0,0,0,0,0,0,0,0,0,-1,1448,1373,0,0
231,-349,0,0,0,0,0,0,0,0,0,-1,1455,1373,0,0
238,-349,0,0,0,0,0,0,0,0,0,-1,1462,1373,0,0
245,-349,0,0,0,0,0,0,0,0,0,-1,1469,1373,0,0
252,-349,0,0,0,0,0,0,0,0,0,-1,1476,1373,0,0
259,-349,0,0,0,0,0,0,0,0,0,-1,1483,1373,0,0
266,-349,0,0,0,0,0,0,0,0,0,-1,1490,1373,0,0
273,-349,0,0,0,0,0,0,0,0,0,-1,1497,1373,0,0
280,-349,0,0,0,0,0,0,0,0,0,-1,1504,1373,0,0
287,-349,0,0,0,0,0,0,0,0,0,-1,1511,1373,0,0
294,-349,0,0,0,0,0,0,0,0,0,-1,1518,1373,0,0
301,-349,0,0,0,0,0,0,0,0,0,-1,1525,1373,0,0
308,-349,0,0,0,0,0,0,0,0,0,-1,1532,1373,0,0
315,-349,0,0,0,0,0,0,0,0,0,-1,1539,1373,0,0
322,-349,0,0,0,0,0,0,0,0,0,-1,1546,1373,0,0
329,-349,0,0,0,0,0,0,0,0,0,-1,1553,1373,0,0
336,-349,0,0,0,0,0,0,0,0,0,-1,1560,1373,0,0
343,-349,0,0,0,0,0,0,0,0,0,-1,1567,1373,0,0
350,-349,0,0,0,0,0,0,0,0,0,-1,1574,1373,0,0
357,-349,0,0,0,0,0,0,0,0,0,-1,1581,1373,0,0
364,-349,0,0,0,0,0,0,0,0,0,-1,1588,1373,0,0
371,-349,0,0,0,0,0,0,0,0,0,-1,1595,1373,0,0
378,-349,0,0,0,0,0,0,0,0,0,-1,1602,1373,0,0
385,-349,0,0,0,0,0,0,0,0,0,-1,1609,1373,0,0
392,-349,0,0,0,0,0,0,0,0,0,-1,1616,1373,0,0
399,-349,0,0,0,0,0,0,0,0,0,-1,1623,1373,0,0
406,-349,0,0,0,0,0,0,0,0,0,-1,1630,1373,0,0
413,-349,0,0,0,0,0,0,0,0,0,-1,1637,1373,0,0
420,-349,0,0,0,0,0,0,0,0,0,-1,1644,1373,0,0
427,-349,0,0,0,0,0,0,0,0,0,-1,1651,1373,0,0
434,-349,0,0,0,0,0,0,0,0,0,-1,1658,1373,0,0
441,-349,0,0,0,0,0,0,0,0,0,-1,1665,1373,0,0
448,-349,0,0,0,0,0,0,0,0,0,-1,1672,1373,0,0
455,-349,0,0,0,0,0,0,0,0,0,-1,1679,1373,0,0
462,-349,0,0,0,0,0,0,0,0,0,-1,1686,1373,0,0
469,-349,0,0,0,0,0,0,0,0,0,-1,1693,1373,0,0
476,-349,0,0,0,0,0,0,0,0,0,-1,1700,1373,0,0
483,-349,0,0,0,0,0,0,0,0,0,-1,1707,1373,0,0
490,-349,0,0,0,0,0,0,0,0,0,-1,1714,1373,0,0
497,-349,0,0,0,0,0,0,0,0,0,-1,1721,1373,0,0
504,-349,0,0,0,0,0,0,0,0,0,-1,1728,1373,0,0
511,-349,0,0,0,0,0,0,0,0,0,-1,1735,1373,0,0
518,-349,0,0,0,0,0,0,0,0,0,-1,1742,1373,0,0
525,-349,0,0,0,0,0,0,0,0,0,-1,1749,1373,0,0
532,-349,0,0,0,0,0,0,0,0,0,-1,1756,1373,0,0
539,-349,0,0,0,0,0,0,0,0,0,-1,1763,1373,0,0
546,-349,0,0,0,0,0,0,0,0,0,-1,1770,1373,0,0
553,-349,0,0,0,0,0,0,0,0,0,-1,1777,1373,0,0
560,-349,63.5519,3.94397,0,0,0,0,0,0,0,-1,1784,1373,63.5519,-3.94394
567,-349,64.7863,2.54688,0,0,0,0,0,0,0,-1,1791,1373,64.7863,-2.5469
574,-349,65.8214,1.63818,0,0,0,0,0,0,0,-1,1798,1373,65.8214,-1.63813
581,-349,42.8947,6.78381,0,0,0,0,0,0,0,-1,1805,1373,42.8946,-6.78376
588,-349,44.8121,5.06213,0,0,0,0,0,0,0,-1,1812,1373,44.8121,-5.06215
595,-349,44.4338,6.14099,0,0,0,0,0,0,0,-1,1819,1373,44.4338,-6.14095
602,-349,35.6641,3.26465,0,0,0,0,0,0,0,-1,1826,1373,35.6641,-3.26468
609,-349,34.7175,4.401,0,0,0,0,0,0,0,-1,1833,1373,34.7175,-4.40096
616,-349,27.1451,6.68274,0,0,0,0,0,0,0,-1,1840,1373,27.1451,-6.6828
623,-349,18.8478,2.75769,0,0,0,0,0,0,0,-1,1847,1373,18.8478,-2.75774
630,-349,15.4948,6.47644,0,0,0,0,0,0,0,-1,1854,1373,15.4947,-6.4765
637,-349,16.5161,6.92639,0,0,0,0,0,0,0,-1,1861,1373,16.5161,-6.92636
644,-349,39.9198,17.7566,0,0,0,0,0,0,0,-1,1868,1373,39.9197,-17.7566
651,-349,39.929,17.0337,-0.000341998,0.000661242,-0.000974842,0.00125595,-0.000936707,-1.02301,0.0012704,0.0468341,1875,1373,39.9289,-17.0337
658,-349,39.774,16.3379,-5.00117e-05,0.000352901,-0.000559498,0.000746106,-0.000443217,-0.958205,0.000694039,0.0272738,1882,1373,39.7741,-16.3379
665,-349,39.7174,15.6691,0.000487552,0.000128715,-0.000389942,0.000737372,-0.000121105,-0.569781,0.000536526,0.0230669,1889,1373,39.7175,-15.6691
672,-349,39.6821,14.9926,0.00113313,0.000129847,-0.000362707,0.00125052,1.24568e-05,-0.31301,0.000829561,0.0158462,1896,1373,39.6821,-14.9926
679,-349,39.6733,14.3103,0.00187003,0.000294033,-0.000434912,0.00198208,0.000181982,-0.252157,0.0012651,0.0152757,1903,1373,39.6734,-14.3103
686,-349,39.7236,13.6539,0.00264706,0.000563539,-0.000557911,0.00278705,0.000423551,-0.24584,0.00173417,0.0168502,1910,1373,39.7236,-13.6539
693,-349,39.6226,12.959,0.00350304,0.000991461,-0.000766576,0.00371852,0.000775977,-0.274028,0.0022651,0.0195534,1917,1373,39.6226,-12.959
700,-349,39.5701,12.2939,0.00441724,0.00160024,-0.00104876,0.00476481,0.00125267,-0.320016,0.0028522,0.0192445,1924,1373,39.5701,-12.2939
707,-349,39.6346,11.5693,0.00511191,0.00234577,-0.00129025,0.0056203,0.00183737,-0.375346,0.00330905,0.036315,1931,1373,39.6347,-11.5693
714,-349,39.7375,10.7227,0,0,0,0,0,0,0,-1,1938,1373,39.7376,-10.7227
721,-349,19.6688,5.93604,0,0,0,0,0,0,0,-1,1945,1373,19.6688,-5.93606
728,-349,18.6333,3.73218,0,0,0,0,0,0,0,-1,1952,1373,18.6333,-3.73214
735,-349,18.1918,3.39954,0,0,0,0,0,0,0,-1,1959,1373,18.1918,-3.3995
742,-349,20.7345,2.07483,0,0,0,0,0,0,0,-1,1966,1373,20.7345,-2.07485
749,-349,21.9037,1.45789,0,0,0,0,0,0,0,-1,1973,1373,21.9037,-1.45788
756,-349,0,0,0,0,0,0,0,0,0,-1,1980,1373,0,0
763,-349,0,0,0,0,0,0,0,0,0,-1,1987,1373,0,0
770,-349,0,0,0,0,0,0,0,0,0,-1,1994,1373,0,0
777,-349,0,0,0,0,0,0,0,0,0,-1,2001,1373,0,0
784,-349,0,0,0,0,0,0,0,0,0,-1,2008,1373,0,0
791,-349,0,0,0,0,0,0,0,0,0,-1,2015,1373,0,0
798,-349,0,0,0,0,0,0,0,0,0,-1,2022,1373,0,0
805,-349,0,0,0,0,0,0,0,0,0,-1,2029,1373,0,0
812,-349,0,0,0,0,0,0,0,0,0,-1,2036,1373,0,0
-700,-356,0,0,0,0,0,0,0,0,0,-1,524,1380,0,0
-693,-356,0,0,0,0,0,0,0,0,0,-1,531,1380,0,0
-686,-356,0,0,0,0,0,0,0,0,0,-1,538,1380,0,0
-679,-356,0,0,0,0,0,0,0,0,0,-1,545,1380,0,0
-672,-356,0,0,0,0,0,0,0,0,0,-1,552,1380,0,0
-665,-356,0,0,0,0,0,0,0,0,0,-1,559,1380,0,0
-658,-356,0,0,0,0,0,0,0,0,0,-1,566,1380,0,0
-651,-356,0,0,0,0,0,0,0,0,0,-1,573,1380,0,0
-644,-356,0,0,0,0,0,0,0,0,0,-1,580,1380,0,0
-637,-356,0,0,0,0,0,0,0,0,0,-1,587,1380,0,0
-630,-356,-8.23126,-5.01917,0,0,0,0,0,0,0,-1,594,1380,-8.23124,5.0192
-623,-356,-0.263855,-0.675781,0,0,0,0,0,0,0,-1,601,1380,-0.263835,0.675841
-616,-356,-8.26532,-3.43945,0,0,0,0,0,0,0,-1,608,1380,-8.2653,3.43948
-609,-356,-4.88483,0.734497,0,0,0,0,0,0,0,-1,615,1380,-4.88485,-0.734532
-602,-356,-9.06635,2.4021,0,0,0,0,0,0,0,-1,622,1380,-9.06634,-2.40206
-595,-356,-8.45703,3.61853,0,0,0,0,0,0,0,-1,629,1380,-8.45706,-3.61848
-588,-356,-9.31738,4.14258,0,0,0,0,0,0,0,-1,636,1380,-9.31736,-4.14255
-581,-356,-16.5185,7.32312,0,0,0,0,0,0,0,-1,643,1380,-16.5185,-7.32306
-574,-356,-22.4863,9.9425,0,0,0,0,0,0,0,-1,650,1380,-22.4864,-9.94252
-567,-356,-22.4529,10.6752,0.00395148,0.0015803,0.00186105,0.0049725,0.000559279,0.501788,0.00314519,0.022657,657,1380,-22.4529,-10.6752
-560,-356,-22.3992,11.4688,0.00335237,0.00121712,0.00163129,0.00423434,0.000335143,0.495644,0.00271807,0.0179487,664,1380,-22.3992,-11.4688
-553,-356,-22.4416,12.1965,0.00299818,0.000930951,0.00149896,0.00378535,0.000143787,0.483557,0.00247703,0.020124,671,1380,-22.4416,-12.1965
-546,-356,-22.5101,12.9098,0.00283092,0.000697301,0.00143589,0.00355293,-2.47081e-05,0.465908,0.0023769,0.0226089,678,1380,-22.5102,-12.9097
-539,-356,-22.5534,13.6627,0.00284052,0.000519877,0.00144547,0.00353377,-0.000173378,0.447198,0.00241571,0.016317,685,1380,-22.5534,-13.6628
-532,-356,-22.6069,14.402,0.00304464,0.000433131,0.00156274,0.00377534,-0.000297569,0.437374,0.00262172,0.0152121,692,1380,-22.6069,-14.402
-525,-356,-22.6149,15.1268,0.00340119,0.000397285,0.00175861,0.00421194,-0.00041346,0.431976,0.00295543,0.0133348,699,1380,-22.6149,-15.1268
-518,-356,-22.6136,15.8796,0.0039405,0.000486411,0.00205249,0.00489588,-0.000468971,0.435647,0.00343094,0.0142809,706,1380,-22.6137,-15.8797
-511,-356,-22.6071,16.6497,0,0,0,0,0,0,0,-1,713,1380,-22.6071,-16.6497
-504,-356,-14.3925,12.3971,0,0,0,0,0,0,0,-1,720,1380,-14.3925,-12.3971
-497,-356,-5.68604,4.96387,0,0,0,0,0,0,0,-1,727,1380,-5.68605,-4.96385
-490,-356,-7.95288,5.5625,0,0,0,0,0,0,0,-1,734,1380,-7.95285,-5.56246
-483,-356,-7.2627,4.07446,0,0,0,0,0,0,0,-1,741,1380,-7.2627,-4.07441
-476,-356,-5.1936,4.16016,0,0,0,0,0,0,0,-1,748,1380,-5.1936,-4.16012
-469,-356,-10.0883,0.536011,0,0,0,0,0,0,0,-1,755,1380,-10.0883,-0.535989
-462,-356,-12.3481,-0.215698,0,0,0,0,0,0,0,-1,762,1380,-12.3481,0.215641
-455,-356,-13.1367,-0.264648,0,0,0,0,0,0,0,-1,769,1380,-13.1367,0.264647
-448,-356,-13.9116,-0.310181,0,0,0,0,0,0,0,-1,776,1380,-13.9115,0.310207
-441,-356,-13.1602,3.05603,0,0,0,0,0,0,0,-1,783,1380,-13.1602,-3.05609
-434,-356,0,0,0,0,0,0,0,0,0,-1,790,1380,0,0
-427,-356,0,0,0,0,0,0,0,0,0,-1,797,1380,0,0
-420,-356,0,0,0,0,0,0,0,0,0,-1,804,1380,0,0
-413,-356,0,0,0,0,0,0,0,0,0,-1,811,1380,0,0
-406,-356,0,0,0,0,0,0,0,0,0,-1,818,1380,0,0
-399,-356,0,0,0,0,0,0,0,0,0,-1,825,1380,0,0
-392,-356,0,0,0,0,0,0,0,0,0,-1,832,1380,0,0
-385,-356,0,0,0,0,0,0,0,0,0,-1,839,1380,0,0
-378,-356,0,0,0,0,0,0,0,0,0,-1,846,1380,0,0
-371,-356,0,0,0,0,0,0,0,0,0,-1,853,1380,0,0
-364,-356,0,0,0,0,0,0,0,0,0,-1,860,1380,0,0
-357,-356,0,0,0,0,0,0,0,0,0,-1,867,1380,0,0
-350,-356,0,0,0,0,0,0,0,0,0,-1,874,1380,0,0
-343,-356,0,0,0,0,0,0,0,0,0,-1,881,1380,0,0
-336,-356,0,0,0,0,0,0,0,0,0,-1,888,1380,0,0
-329,-356,0,0,0,0,0,0,0,0,0,-1,895,1380,0,0
-322,-356,0,0,0,0,0,0,0,0,0,-1,902,1380,0,0
-315,-356,0,0,0,0,0,0,0,0,0,-1,909,1380,0,0
-308,-356,0,0,0,0,0,0,0,0,0,-1,916,1380,0,0
-301,-356,0,0,0,0,0,0,0,0,0,-1,923,1380,0,0
-294,-356,0,0,0,0,0,0,0,0,0,-1,930,1380,0,0
-287,-356,0,0,0,0,0,0,0,0,0,-1,937,1380,0,0
-280,-356,0,0,0,0,0,0,0,0,0,-1,944,1380,0,0
-273,-356,0,0,0,0,0,0,0,0,0,-1,951,1380,0,0
-266,-356,0,0,0,0,0,0,0,0,0,-1,958,1380,0,0
-259,-356,0,0,0,0,0,0,0,0,0,-1,965,1380,0,0
-252,-356,0,0,0,0,0,0,0,0,0,-1,972,1380,0,0
-245,-356,0,0,0,0,0,0,0,0,0,-1,979,1380,0,0
-238,-356,0,0,0,0,0,0,0,0,0,-1,986,1380,0,0
-231,-356,0,0,0,0,0,0,0,0,0,-1,993,1380,0,0
-224,-356,0,0,0,0,0,0,0,0,0,-1,1000,1380,0,0
-217,-356,0,0,0,0,0,0,0,0,0,-1,1007,1380,0,0
-210,-356,0,0,0,0,0,0,0,0,0,-1,1014,1380,0,0
-203,-356,0,0,0,0,0,0,0,0,0,-1,1021,1380,0,0
-196,-356,0,0,0,0,0,0,0,0,0,-1,1028,1380,0,0
-189,-356,0,0,0,0,0,0,0,0,0,-1,1035,1380,0,0
-182,-356,0,0,0,0,0,0,0,0,0,-1,1042,1380,0,0
-175,-356,0,0,0,0,0,0,0,0,0,-1,1049,1380,0,0
-168,-356,0,0,0,0,0,0,0,0,0,-1,1056,1380,0,0
-161,-356,0,0,0,0,0,0,0,0,0,-1,1063,1380,0,0
-154,-356,0,0,0,0,0,0,0,0,0,-1,1070,1380,0,0
-147,-356,0,0,0,0,0,0,0,0,0,-1,1077,1380,0,0
-140,-356,0,0,0,0,0,0,0,0,0,-1,1084,1380,0,0
-133,-356,0,0,0,0,0,0,0,0,0,-1,1091,1380,0,0
-126,-356,0,0,0,0,0,0,0,0,0,-1,1098,1380,0,0
-119,-356,0,0,0,0,0,0,0,0,0,-1,1105,1380,0,0
-112,-356,0,0,0,0,0,0,0,0,0,-1,1112,1380,0,0
-105,-356,0,0,0,0,0,0,0,0,0,-1,1119,1380,0,0
-98,-356,0,0,0,0,0,0,0,0,0,-1,1126,1380,0,0
-91,-356,0,0,0,0,0,0,0,0,0,-1,1133,1380,0,0
-84,-356,0,0,0,0,0,0,0,0,0,-1,1140,1380,0,0
-77,-356,0,0,0,0,0,0,0,0,0,-1,1147,1380,0,0
-70,-356,0,0,0,0,0,0,0,0,0,-1,1154,1380,0,0
-63,-356,0,0,0,0,0,0,0,0,0,-1,1161,1380,0,0
-56,-356,0,0,0,0,0,0,0,0,0,-1,1168,1380,0,0
-49,-356,0,0,0,0,0,0,0,0,0,-1,1175,1380,0,0
-42,-356,0,0,0,0,0,0,0,0,0,-1,1182,1380,0,0
-35,-356,0,0,0,0,0,0,0,0,0,-1,1189,1380,0,0
-28,-356,0,0,0,0,0,0,0,0,0,-1,1196,1380,0,0
-21,-356,0,0,0,0,0,0,0,0,0,-1,1203,1380,0,0
-14,-356,0,0,0,0,0,0,0,0,0,-1,1210,1380,0,0
-7,-356,0,0,0,0,0,0,0,0,0,-1,1217,1380,0,0
0,-356,0,0,0,0,0,0,0,0,0,-1,1224,1380,0,0
7,-356,0,0,0,0,0,0,0,0,0,-1,1231,1380,0,0
14,-356,0,0,0,0,0,0,0,0,0,-1,1238,1380,0,0
21,-356,0,0,0,0,0,0,0,0,0,-1,1245,1380,0,0
28,-356,0,0,0,0,0,0,0,0,0,-1,1252,1380,0,0
35,-356,0,0,0,0,0,0,0,0,0,-1,1259,1380,0,0
42,-356,0,0,0,0,0,0,0,0,0,-1,1266,1380,0,0
49,-356,0,0,0,0,0,0,0,0,0,-1,1273,1380,0,0
56,-356,0,0,0,0,0,0,0,0,0,-1,1280,1380,0,0
63,-356,0,0,0,0,0,0,0,0,0,-1,1287,1380,0,0
70,-356,0,0,0,0,0,0,0,0,0,-1,1294,1380,0,0
77,-356,0,0,0,0,0,0,0,0,0,-1,1301,1380,0,0
84,-356,0,0,0,0,0,0,0,0,0,-1,1308,1380,0,0
91,-356,0,0,0,0,0,0,0,0,0,-1,1315,1380,0,0
98,-356,0,0,0,0,0,0,0,0,0,-1,1322,1380,0,0
105,-356,0,0,0,0,0,0,0,0,0,-1,1329,1380,0,0
112,-356,0,0,0,0,0,0,0,0,0,-1,1336,1380,0,0
119,-356,0,0,0,0,0,0,0,0,0,-1,1343,1380,0,0
126,-356,0,0,0,0,0,0,0,0,0,-1,1350,1380,0,0
133,-356,0,0,0,0,0,0,0,0,0,-1,1357,1380,0,0
140,-356,0,0,0,0,0,0,0,0,0,-1,1364,1380,0,0
147,-356,0,0,0,0,0,0,0,0,0,-1,1371,1380,0,0
154,-356,0,0,0,0,0,0,0,0,0,-1,1378,1380,0,0
161,-356,0,0,0,0,0,0,0,0,0,-1,1385,1380,0,0
168,-356,0,0,0,0,0,0,0,0,0,-1,1392,1380,0,0
175,-356,0,0,0,0,0,0,0,0,0,-1,1399,1380,0,0
182,-356,0,0,0,0,0,0,0,0,0,-1,1406,1380,0,0
189,-356,0,0,0,0,0,0,0,0,0,-1,1413,1380,0,0
196,-356,0,0,0,0,0,0,0,0,0,-1,1420,1380,0,0
203,-356,0,0,0,0,0,0,0,0,0,-1,1427,1380,0,0
210,-356,0,0,0,0,0,0,0,0,0,-1,1434,1380,0,0
217,-356,0,0,0,0,0,0,0,0,0,-1,1441,1380,0,0
224,-356,0,0,0,0,0,0,0,0,0,-1,1448,1380,0,0
231,-356,0,0,0,0,0,0,0,0,0,-1,1455,1380,0,0
238,-356,0,0,0,0,0,0,0,0,0,-1,1462,1380,0,0
245,-356,0,0,0,0,0,0,0,0,0,-1,1469,1380,0,0
252,-356,0,0,0,0,0,0,0,0,0,-1,1476,1380,0,0
259,-356,0,0,0,0,0,0,0,0,0,-1,1483,1380,0,0
266,-356,0,0,0,0,0,0,0,0,0,-1,1490,1380,0,0
273,-356,0,0,0,0,0,0,0,0,0,-1,1497,1380,0,0
280,-356,0,0,0,0,0,0,0,0,0,-1,1504,1380,0,0
287,-356,0,0,0,0,0,0,0,0,0,-1,1511,1380,0,0
294,-356,0,0,0,0,0,0,0,0,0,-1,1518,1380,0,0
301,-356,0,0,0,0,0,0,0,0,0,-1,1525,1380,0,0
308,-356,0,0,0,0,0,0,0,0,0,-1,1532,1380,0,0
315,-356,0,0,0,0,0,0,0,0,0,-1,1539,1380,0,0
322,-356,0,0,0,0,0,0,0,0,0,-1,1546,1380,0,0
329,-356,0,0,0,0,0,0,0,0,0,-1,1553,1380,0,0
336,-356,0,0,0,0,0,0,0,0,0,-1,1560,1380,0,0
343,-356,0,0,0,0,0,0,0,0,0,-1,1567,1380,0,0
350,-356,0,0,0,0,0,0,0,0,0,-1,1574,1380,0,0
357,-356,0,0,0,0,0,0,0,0,0,-1,1581,1380,0,0
364,-356,0,0,0,0,0,0,0,0,0,-1,1588,1380,0,0
371,-356,0,0,0,0,0,0,0,0,0,-1,1595,1380,0,0
378,-356,0,0,0,0,0,0,0,0,0,-1,1602,1380,0,0
385,-356,0,0,0,0,0,0,0,0,0,-1,1609,1380,0,0
392,-356,0,0,0,0,0,0,0,0,0,-1,1616,1380,0,0
399,-356,0,0,0,0,0,0,0,0,0,-1,1623,1380,0,0
406,-356,0,0,0,0,0,0,0,0,0,-1,1630,1380,0,0
413,-356,0,0,0,0,0,0,0,0,0,-1,1637,1380,0,0
420,-356,0,0,0,0,0,0,0,0,0,-1,1644,1380,0,0
427,-356,0,0,0,0,0,0,0,0,0,-1,1651,1380,0,0
434,-356,0,0,0,0,0,0,0,0,0,-1,1658,1380,0,0
441,-356,0,0,0,0,0,0,0,0,0,-1,1665,1380,0,0
448,-356,0,0,0,0,0,0,0,0,0,-1,1672,1380,0,0
455,-356,0,0,0,0,0,0,0,0,0,-1,1679,1380,0,0
462,-356,0,0,0,0,0,0,0,0,0,-1,1686,1380,0,0
469,-356,0,0,0,0,0,0,0,0,0,-1,1693,1380,0,0
476,-356,0,0,0,0,0,0,0,0,0,-1,1700,1380,0,0
483,-356,0,0,0,0,0,0,0,0,0,-1,1707,1380,0,0
490,-356,0,0,0,0,0,0,0,0,0,-1,1714,1380,0,0
497,-356,0,0,0,0,0,0,0,0,0,-1,1721,1380,0,0
504,-356,0,0,0,0,0,0,0,0,0,-1,1728,1380,0,0
511,-356,0,0,0,0,0,0,0,0,0,-1,1735,1380,0,0
518,-356,0,0,0,0,0,0,0,0,0,-1,1742,1380,0,0
525,-356,0,0,0,0,0,0,0,0,0,-1,1749,1380,0,0
532,-356,0,0,0,0,0,0,0,0,0,-1,1756,1380,0,0
539,-356,0,0,0,0,0,0,0,0,0,-1,1763,1380,0,0
546,-356,0,0,0,0,0,0,0,0,0,-1,1770,1380,0,0
553,-356,0,0,0,0,0,0,0,0,0,-1,1777,1380,0,0
560,-356,63.6171,3.12183,0,0,0,0,0,0,0,-1,1784,1380,63.617,-3.12183
567,-356,65.0425,1.89966,0,0,0,0,0,0,0,-1,1791,1380,65.0424,-1.8996
574,-356,45.5742,3.39575,0,0,0,0,0,0,0,-1,1798,1380,45.5742,-3.39574
581,-356,45.6708,3.64172,0,0,0,0,0,0,0,-1,1805,1380,45.6707,-3.64175
588,-356,44.4739,4.87085,0,0,0,0,0,0,0,-1,1812,1380,44.4739,-4.87086
595,-356,32.0834,5.86084,0,0,0,0,0,0,0,-1,1819,1380,32.0834,-5.86079
602,-356,30.1604,6.07104,0,0,0,0,0,0,0,-1,1826,1380,30.1604,-6.07104
609,-356,28.3435,6.48901,0,0,0,0,0,0,0,-1,1833,1380,28.3435,-6.48899
616,-356,26.9358,6.80872,0,0,0,0,0,0,0,-1,1840,1380,26.9358,-6.80877
623,-356,16.1803,1.07532,0,0,0,0,0,0,0,-1,1847,1380,16.1803,-1.07529
630,-356,16.4138,6.91553,0,0,0,0,0,0,0,-1,1854,1380,16.4138,-6.9155
637,-356,24.8021,12.0151,0,0,0,0,0,0,0,-1,1861,1380,24.8022,-12.0151
644,-356,39.0911,17.9315,0,0,0,0,0,0,0,-1,1868,1380,39.091,-17.9315
651,-356,39.1802,17.0852,-0.000314453,0.000632803,-0.000898349,0.00117473,-0.000856382,-1.02799,0.00117745,0.0203652,1875,1380,39.1801,-17.0852
658,-356,39.0895,16.3424,7.72947e-05,0.000366423,-0.000534794,0.000775847,-0.00033213,-0.917402,0.000656568,0.0154423,1882,1380,39.0894,-16.3424
665,-356,39.0499,15.7089,0.000698419,0.000208711,-0.000379026,0.000904802,2.32874e-06,-0.498617,0.000602426,0.0160938,1889,1380,39.05,-15.7088
672,-356,38.9983,15.0623,0.0014573,0.000239897,-0.000349354,0.00155042,0.000146768,-0.260517,0.000988333,0.0159191,1896,1380,38.9983,-15.0623
679,-356,38.9866,14.373,0.00235087,0.000415909,-0.000427972,0.0024413,0.000325477,-0.20824,0.00153062,0.0178215,1903,1380,38.9866,-14.373
686,-356,38.9648,13.6592,0.00337163,0.000752128,-0.000611992,0.00350756,0.000616202,-0.218556,0.00216244,0.0191879,1910,1380,38.9649,-13.6592
693,-356,38.9357,12.9917,0.00453844,0.00127398,-0.000916318,0.00477806,0.00103436,-0.255773,0.00290268,0.0163432,1917,1380,38.9356,-12.9917
700,-356,38.9464,12.317,0.00587218,0.00204886,-0.00135816,0.00630552,0.00161552,-0.308856,0.00378199,0.0231507,1924,1380,38.9465,-12.317
707,-356,39.0551,11.6438,0,0,0,0,0,0,0,-1,1931,1380,39.055,-11.6438
714,-356,19.6907,5.82129,0,0,0,0,0,0,0,-1,1938,1380,19.6907,-5.82132
721,-356,17.2948,4.1958,0,0,0,0,0,0,0,-1,1945,1380,17.2948,-4.19584
728,-356,19.1846,2.31519,0,0,0,0,0,0,0,-1,1952,1380,19.1846,-2.31514
735,-356,20.0731,2.50842,0,0,0,0,0,0,0,-1,1959,1380,20.0731,-2.50844
742,-356,21.0111,2.43762,0,0,0,0,0,0,0,-1,1966,1380,21.0112,-2.43762
749,-356,22.1411,1.83276,0,0,0,0,0,0,0,-1,1973,1380,22.1411,-1.83275
756,-356,0,0,0,0,0,0,0,0,0,-1,1980,1380,0,0
763,-356,0,0,0,0,0,0,0,0,0,-1,1987,1380,0,0
770,-356,0,0,0,0,0,0,0,0,0,-1,1994,1380,0,0
777,-356,0,0,0,0,0,0,0,0,0,-1,2001,1380,0,0
784,-356,0,0,0,0,0,0,0,0,0,-1,2008,1380,0,0
791,-356,0,0,0,0,0,0,0,0,0,-1,2015,1380,0,0
798,-356,0,0,0,0,0,0,0,0,0,-1,2022,1380,0,0
805,-356,0,0,0,0,0,0,0,0,0,-1,2029,1380,0,0
812,-356,0,0,0,0,0,0,0,0,0,-1,2036,1380,0,0
-700,-363,0,0,0,0,0,0,0,0,0,-1,524,1387,0,0
-693,-363,0,0,0,0,0,0,0,0,0,-1,531,1387,0,0
-686,-363,0,0,0,0,0,0,0,0,0,-1,538,1387,0,0
-679,-363,0,0,0,0,0,0,0,0,0,-1,545,1387,0,0
-672,-363,0,0,0,0,0,0,0,0,0,-1,552,1387,0,0
-665,-363,0,0,0,0,0,0,0,0,0,-1,559,1387,0,0
-658,-363,0,0,0,0,0,0,0,0,0,-1,566,1387,0,0
-651,-363,0,0,0,0,0,0,0,0,0,-1,573,1387,0,0
-644,-363,0,0,0,0,0,0,0,0,0,-1,580,1387,0,0
-637,-363,0,0,0,0,0,0,0,0,0,-1,587,1387,0,0
-630,-363,0,0,0,0,0,0,0,0,0,-1,594,1387,0,0
-623,-363,-9.67566,-5.91846,0,0,0,0,0,0,0,-1,601,1387,-9.67563,5.91847
-616,-363,-9.02985,-2.98083,0,0,0,0,0,0,0,-1,608,1387,-9.02987,2.98079
-609,-363,-4.90265,0.195679,0,0,0,0,0,0,0,-1,615,1387,-4.90263,-0.195721
-602,-363,-9.65009,3.5321,0,0,0,0,0,0,0,-1,622,1387,-9.65007,-3.53211
-595,-363,-8.00256,3.48853,0,0,0,0,0,0,0,-1,629,1387,-8.00256,-3.48855
-588,-363,-10.8846,4.49768,0,0,0,0,0,0,0,-1,636,1387,-10.8846,-4.49773
-581,-363,-11.7469,5.15161,0,0,0,0,0,0,0,-1,643,1387,-11.747,-5.15167
-574,-363,-17.8334,8.33801,0,0,0,0,0,0,0,-1,650,1387,-17.8334,-8.33804
-567,-363,-21.8034,10.7032,0,0,0,0,0,0,0,-1,657,1387,-21.8034,-10.7033
-560,-363,-21.7143,11.4784,0.00367055,0.0015257,0.00201562,0.00488128,0.000314966,0.540917,0.00315445,0.0149704,664,1387,-21.7143,-11.4784
-553,-363,-21.7338,12.2355,0.00321255,0.00115425,0.00175026,0.0042138,0.000152992,0.519623,0.00275962,0.0138891,671,1387,-21.7338,-12.2355
-546,-363,-21.7874,12.9435,0.00292056,0.000846029,0.00156064,0.0037572,9.38994e-06,0.492099,0.00250167,0.0138648,678,1387,-21.7873,-12.9435
-539,-363,-21.803,13.6726,0.00280517,0.000607793,0.00145436,0.00352919,-0.00011623,0.46191,0.00239248,0.015682,685,1387,-21.803,-13.6727
-532,-363,-21.8594,14.4301,0.00286566,0.000482695,0.0014656,0.00356299,-0.000214632,0.444099,0.00245,0.0131042,692,1387,-21.8594,-14.43
-525,-363,-21.8865,15.1553,0.00307135,0.000423219,0.00156611,0.0037981,-0.000303532,0.434475,0.00263907,0.0119436,699,1387,-21.8865,-15.1553
-518,-363,-21.9001,15.8857,0.00343239,0.000471015,0.00177414,0.00426255,-0.000359143,0.437657,0.00296867,0.0106536,706,1387,-21.9001,-15.8858
-511,-363,-21.8665,16.6399,0.00400162,0.000676478,0.00215485,0.00506072,-0.000382627,0.456823,0.00350832,0.0302081,713,1387,-21.8664,-16.6399
-504,-363,-21.8109,17.4214,0,0,0,0,0,0,0,-1,720,1387,-21.8109,-17.4214
-497,-363,-7.18842,7.29944,0,0,0,0,0,0,0,-1,727,1387,-7.18839,-7.29945
-490,-363,-5.42413,4.6958,0,0,0,0,0,0,0,-1,734,1387,-5.42412,-4.69583
-483,-363,-6.28375,4.1394,0,0,0,0,0,0,0,-1,741,1387,-6.28374,-4.13944
-476,-363,-5.83807,4.31018,0,0,0,0,0,0,0,-1,748,1387,-5.8381,-4.31013
-469,-363,-10.7125,0.697754,0,0,0,0,0,0,0,-1,755,1387,-10.7125,-0.697811
-462,-363,-9.55951,-0.0830078,0,0,0,0,0,0,0,-1,762,1387,-9.55949,0.0830163
-455,-363,-13.1008,-0.290894,0,0,0,0,0,0,0,-1,769,1387,-13.1008,0.290921
-448,-363,-11.7324,2.46606,0,0,0,0,0,0,0,-1,776,1387,-11.7324,-2.46605
-441,-363,-12.4464,2.5354,0,0,0,0,0,0,0,-1,783,1387,-12.4463,-2.53537
-434,-363,-13.6918,2.14661,0,0,0,0,0,0,0,-1,790,1387,-13.6918,-2.14662
-427,-363,0,0,0,0,0,0,0,0,0,-1,797,1387,0,0
-420,-363,0,0,0,0,0,0,0,0,0,-1,804,1387,0,0
-413,-363,0,0,0,0,0,0,0,0,0,-1,811,1387,0,0
-406,-363,0,0,0,0,0,0,0,0,0,-1,818,1387,0,0
-399,-363,0,0,0,0,0,0,0,0,0,-1,825,1387,0,0
-392,-363,0,0,0,0,0,0,0,0,0,-1,832,1387,0,0
-385,-363,0,0,0,0,0,0,0,0,0,-1,839,1387,0,0
-378,-363,0,0,0,0,0,0,0,0,0,-1,846,1387,0,0
-371,-363,0,0,0,0,0,0,0,0,0,-1,853,1387,0,0
-364,-363,0,0,0,0,0,0,0,0,0,-1,860,1387,0,0
-357,-363,0,0,0,0,0,0,0,0,0,-1,867,1387,0,0
-350,-363,0,0,0,0,0,0,0,0,0,-1,874,1387,0,0
-343,-363,0,0,0,0,0,0,0,0,0,-1,881,1387,0,0
-336,-363,0,0,0,0,0,0,0,0,0,-1,888,1387,0,0
-329,-363,0,0,0,0,0,0,0,0,0,-1,895,1387,0,0
-322,-363,0,0,0,0,0,0,0,0,0,-1,902,1387,0,0
-315,-363,0,0,0,0,0,0,0,0,0,-1,909,1387,0,0
-308,-363,0,0,0,0,0,0,0,0,0,-1,916,1387,0,0
-301,-363,0,0,0,0,0,0,0,0,0,-1,923,1387,0,0
-294,-363,0,0,0,0,0,0,0,0,0,-1,930,1387,0,0
-287,-363,0,0,0,0,0,0,0,0,0,-1,937,1387,0,0
-280,-363,0,0,0,0,0,0,0,0,0,-1,944,1387,0,0
-273,-363,0,0,0,0,0,0,0,0,0,-1,951,1387,0,0
-266,-363,0,0,0,0,0,0,0,0,0,-1,958,1387,0,0
-259,-363,0,0,0,0,0,0,0,0,0,-1,965,1387,0,0
-252,-363,0,0,0,0,0,0,0,0,0,-1,972,1387,0,0
-245,-363,0,0,0,0,0,0,0,0,0,-1,979,1387,0,0
-238,-363,0,0,0,0,0,0,0,0,0,-1,986,1387,0,0
-231,-363,0,0,0,0,0,0,0,0,0,-1,993,1387,0,0
-224,-363,0,0,0,0,0,0,0,0,0,-1,1000,1387,0,0
-217,-363,0,0,0,0,0,0,0,0,0,-1,1007,1387,0,0
-210,-363,0,0,0,0,0,0,0,0,0,-1,1014,1387,0,0
-203,-363,0,0,0,0,0,0,0,0,0,-1,1021,1387,0,0
-196,-363,0,0,0,0,0,0,0,0,0,-1,1028,1387,0,0
-189,-363,0,0,0,0,0,0,0,0,0,-1,1035,1387,0,0
-182,-363,0,0,0,0,0,0,0,0,0,-1,1042,1387,0,0
-175,-363,0,0,0,0,0,0,0,0,0,-1,1049,1387,0,0
-168,-363,0,0,0,0,0,0,0,0,0,-1,1056,1387,0,0
-161,-363,0,0,0,0,0,0,0,0,0,-1,1063,1387,0,0
-154,-363,0,0,0,0,0,0,0,0,0,-1,1070,1387,0,0
-147,-363,0,0,0,0,0,0,0,0,0,-1,1077,1387,0,0
-140,-363,0,0,0,0,0,0,0,0,0,-1,1084,1387,0,0
-133,-363,0,0,0,0,0,0,0,0,0,-1,1091,1387,0,0
-126,-363,0,0,0,0,0,0,0,0,0,-1,1098,1387,0,0
-119,-363,0,0,0,0,0,0,0,0,0,-1,1105,1387,0,0
-112,-363,0,0,0,0,0,0,0,0,0,-1,1112,1387,0,0
-105,-363,0,0,0,0,0,0,0,0,0,-1,1119,1387,0,0
-98,-363,0,0,0,0,0,0,0,0,0,-1,1126,1387,0,0
-91,-363,0,0,0,0,0,0,0,0,0,-1,1133,1387,0,0
-84,-363,0,0,0,0,0,0,0,0,0,-1,1140,1387,0,0
-77,-363,0,0,0,0,0,0,0,0,0,-1,1147,1387,0,0
-70,-363,0,0,0,0,0,0,0,0,0,-1,1154,1387,0,0
-63,-363,0,0,0,0,0,0,0,0,0,-1,1161,1387,0,0
-56,-363,0,0,0,0,0,0,0,0,0,-1,1168,1387,0,0
-49,-363,0,0,0,0,0,0,0,0,0,-1,1175,1387,0,0
-42,-363,0,0,0,0,0,0,0,0,0,-1,1182,1387,0,0
-35,-363,0,0,0,0,0,0,0,0,0,-1,1189,1387,0,0
-28,-363,0,0,0,0,0,0,0,0,0,-1,1196,1387,0,0
-21,-363,0,0,0,0,0,0,0,0,0,-1,1203,1387,0,0
-14,-363,0,0,0,0,0,0,0,0,0,-1,1210,1387,0,0
-7,-363,0,0,0,0,0,0,0,0,0,-1,1217,1387,0,0
0,-363,0,0,0,0,0,0,0,0,0,-1,1224,1387,0,0
7,-363,0,0,0,0,0,0,0,0,0,-1,1231,1387,0,0
14,-363,0,0,0,0,0,0,0,0,0,-1,1238,1387,0,0
21,-363,0,0,0,0,0,0,0,0,0,-1,1245,1387,0,0
28,-363,0,0,0,0,0,0,0,0,0,-1,1252,1387,0,0
35,-363,0,0,0,0,0,0,0,0,0,-1,1259,1387,0,0
42,-363,0,0,0,0,0,0,0,0,0,-1,1266,1387,0,0
49,-363,0,0,0,0,0,0,0,0,0,-1,1273,1387,0,0
56,-363,0,0,0,0,0,0,0,0,0,-1,1280,1387,0,0
63,-363,0,0,0,0,0,0,0,0,0,-1,1287,1387,0,0
70,-363,0,0,0,0,0,0,0,0,0,-1,1294,1387,0,0
77,-363,0,0,0,0,0,0,0,0,0,-1,1301,1387,0,0
84,-363,0,0,0,0,0,0,0,0,0,-1,1308,1387,0,0
91,-363,0,0,0,0,0,0,0,0,0,-1,1315,1387,0,0
98,-363,0,0,0,0,0,0,0,0,0,-1,1322,1387,0,0
105,-363,0,0,0,0,0,0,0,0,0,-1,1329,1387,0,0
112,-363,0,0,0,0,0,0,0,0,0,-1,1336,1387,0,0
119,-363,0,0,0,0,0,0,0,0,0,-1,1343,1387,0,0
126,-363,0,0,0,0,0,0,0,0,0,-1,1350,1387,0,0
133,-363,0,0,0,0,0,0,0,0,0,-1,1357,1387,0,0
140,-363,0,0,0,0,0,0,0,0,0,-1,1364,1387,0,0
147,-363,0,0,0,0,0,0,0,0,0,-1,1371,1387,0,0
154,-363,0,0,0,0,0,0,0,0,0,-1,1378,1387,0,0
161,-363,0,0,0,0,0,0,0,0,0,-1,1385,1387,0,0
168,-363,0,0,0,0,0,0,0,0,0,-1,1392,1387,0,0
175,-363,0,0,0,0,0,0,0,0,0,-1,1399,1387,0,0
182,-363,0,0,0,0,0,0,0,0,0,-1,1406,1387,0,0
189,-363,0,0,0,0,0,0,0,0,0,-1,1413,1387,0,0
196,-363,0,0,0,0,0,0,0,0,0,-1,1420,1387,0,0
203,-363,0,0,0,0,0,0,0,0,0,-1,1427,1387,0,0
210,-363,0,0,0,0,0,0,0,0,0,-1,1434,1387,0,0
217,-363,0,0,0,0,0,0,0,0,0,-1,1441,1387,0,0
224,-363,0,0,0,0,0,0,0,0,0,-1,1448,1387,0,0
231,-363,0,0,0,0,0,0,0,0,0,-1,1455,1387,0,0
238,-363,0,0,0,0,0,0,0,0,0,-1,1462,1387,0,0
245,-363,0,0,0,0,0,0,0,0,0,-1,1469,1387,0,0
252,-363,0,0,0,0,0,0,0,0,0,-1,1476,1387,0,0
259,-363,0,0,0,0,0,0,0,0,0,-1,1483,1387,0,0
266,-363,0,0,0,0,0,0,0,0,0,-1,1490,1387,0,0
273,-363,0,0,0,0,0,0,0,0,0,-1,1497,1387,0,0
280,-363,0,0,0,0,0,0,0,0,0,-1,1504,1387,0,0
287,-363,0,0,0,0,0,0,0,0,0,-1,1511,1387,0,0
294,-363,0,0,0,0,0,0,0,0,0,-1,1518,1387,0,0
301,-363,0,0,0,0,0,0,0,0,0,-1,1525,1387,0,0
308,-363,0,0,0,0,0,0,0,0,0,-1,1532,1387,0,0
315,-363,0,0,0,0,0,0,0,0,0,-1,1539,1387,0,0
322,-363,0,0,0,0,0,0,0,0,0,-1,1546,1387,0,0
329,-363,0,0,0,0,0,0,0,0,0,-1,1553,1387,0,0
336,-363,0,0,0,0,0,0,0,0,0,-1,1560,1387,0,0
343,-363,0,0,0,0,0,0,0,0,0,-1,1567,1387,0,0
350,-363,0,0,0,0,0,0,0,0,0,-1,1574,1387,0,0
357,-363,0,0,0,0,0,0,0,0,0,-1,1581,1387,0,0
364,-363,0,0,0,0,0,0,0,0,0,-1,1588,1387,0,0
371,-363,0,0,0,0,0,0,0,0,0,-1,1595,1387,0,0
378,-363,0,0,0,0,0,0,0,0,0,-1,1602,1387,0,0
385,-363,0,0,0,0,0,0,0,0,0,-1,1609,1387,0,0
392,-363,0,0,0,0,0,0,0,0,0,-1,1616,1387,0,0
399,-363,0,0,0,0,0,0,0,0,0,-1,1623,1387,0,0
406,-363,0,0,0,0,0,0,0,0,0,-1,1630,1387,0,0
413,-363,0,0,0,0,0,0,0,0,0,-1,1637,1387,0,0
420,-363,0,0,0,0,0,0,0,0,0,-1,1644,1387,0,0
427,-363,0,0,0,0,0,0,0,0,0,-1,1651,1387,0,0
434,-363,0,0,0,0,0,0,0,0,0,-1,1658,1387,0,0
441,-363,0,0,0,0,0,0,0,0,0,-1,1665,1387,0,0
448,-363,0,0,0,0,0,0,0,0,0,-1,1672,1387,0,0
455,-363,0,0,0,0,0,0,0,0,0,-1,1679,1387,0,0
462,-363,0,0,0,0,0,0,0,0,0,-1,1686,1387,0,0
469,-363,0,0,0,0,0,0,0,0,0,-1,1693,1387,0,0
476,-363,0,0,0,0,0,0,0,0,0,-1,1700,1387,0,0
483,-363,0,0,0,0,0,0,0,0,0,-1,1707,1387,0,0
490,-363,0,0,0,0,0,0,0,0,0,-1,1714,1387,0,0
497,-363,0,0,0,0,0,0,0,0,0,-1,1721,1387,0,0
504,-363,0,0,0,0,0,0,0,0,0,-1,1728,1387,0,0
511,-363,0,0,0,0,0,0,0,0,0,-1,1735,1387,0,0
518,-363,0,0,0,0,0,0,0,0,0,-1,1742,1387,0,0
525,-363,0,0,0,0,0,0,0,0,0,-1,1749,1387,0,0
532,-363,0,0,0,0,0,0,0,0,0,-1,1756,1387,0,0
539,-363,0,0,0,0,0,0,0,0,0,-1,1763,1387,0,0
546,-363,0,0,0,0,0,0,0,0,0,-1,1770,1387,0,0
553,-363,62.1395,3.42249,0,0,0,0,0,0,0,-1,1777,1387,62.1395,-3.42245
560,-363,63.2896,2.40808,0,0,0,0,0,0,0,-1,1784,1387,63.2896,-2.40811
567,-363,64.4463,1.38135,0,0,0,0,0,0,0,-1,1791,1387,64.4463,-1.38131
574,-363,45.7261,2.8075,0,0,0,0,0,0,0,-1,1798,1387,45.7261,-2.80754
581,-363,39.2413,1.97632,0,0,0,0,0,0,0,-1,1805,1387,39.2413,-1.97636
588,-363,32.5608,6.72131,0,0,0,0,0,0,0,-1,1812,1387,32.5608,-6.72131
595,-363,31.4688,6.95435,0,0,0,0,0,0,0,-1,1819,1387,31.4688,-6.95431
602,-363,25.7437,5.33667,0,0,0,0,0,0,0,-1,1826,1387,25.7437,-5.33667
609,-363,27.7048,7.06885,0,0,0,0,0,0,0,-1,1833,1387,27.7048,-7.06882
616,-363,16.229,1.08704,0,0,0,0,0,0,0,-1,1840,1387,16.229,-1.08706
623,-363,15.7283,7.16663,0,0,0,0,0,0,0,-1,1847,1387,15.7282,-7.16665
630,-363,18.3192,9.27844,0,0,0,0,0,0,0,-1,1854,1387,18.3192,-9.27843
637,-363,38.3815,18.6746,0,0,0,0,0,0,0,-1,1861,1387,38.3814,-18.6746
644,-363,38.4453,17.8538,0.000268325,0.00122702,-0.00152188,0.00234326,-0.000847914,-0.937965,0.00190866,0.0188803,1868,1387,38.4453,-17.8538
651,-363,38.4493,17.1008,7.89992e-05,0.000582414,-0.000864664,0.00123126,-0.000569849,-0.927036,0.00106299,0.0115533,1875,1387,38.4493,-17.1008
658,-363,38.4061,16.4113,0.00047673,0.000352783,-0.000543323,0.000961603,-0.00013209,-0.728612,0.00068933,0.0124313,1882,1387,38.4062,-16.4113
665,-363,38.3663,15.7612,0.00108768,0.000251059,-0.000382464,0.00123617,0.000102569,-0.370332,0.000792139,0.0129363,1889,1387,38.3663,-15.7612
672,-363,38.311,15.0933,0.00189528,0.000322584,-0.000342382,0.00196658,0.000251279,-0.205327,0.00123584,0.0137794,1896,1387,38.3111,-15.0933
679,-363,38.2745,14.4034,0.00287357,0.000533747,-0.000403373,0.00294116,0.00046616,-0.166012,0.00182534,0.0152933,1903,1387,38.2746,-14.4034
686,-363,38.2465,13.7168,0.00400693,0.000909236,-0.000569642,0.00410836,0.000807804,-0.176215,0.00251329,0.0154335,1910,1387,38.2465,-13.7168
693,-363,38.2281,13.0038,0.00535446,0.00150359,-0.000887271,0.00554906,0.00130899,-0.215906,0.00334942,0.0130061,1917,1387,38.2281,-13.0038
700,-363,38.3704,12.2437,0.00693509,0.00238302,-0.00135859,0.00730974,0.00200838,-0.269073,0.00436069,0.0287582,1924,1387,38.3704,-12.2437
707,-363,38.6494,11.5284,0,0,0,0,0,0,0,-1,1931,1387,38.6494,-11.5284
714,-363,16.5782,5.3147,0,0,0,0,0,0,0,-1,1938,1387,16.5783,-5.31472
721,-363,14.4045,4.51685,0,0,0,0,0,0,0,-1,1945,1387,14.4045,-4.51685
728,-363,19.9756,0.853027,0,0,0,0,0,0,0,-1,1952,1387,19.9756,-0.853059
735,-363,21.4297,1.2981,0,0,0,0,0,0,0,-1,1959,1387,21.4297,-1.29811
742,-363,21.3621,2.79663,0,0,0,0,0,0,0,-1,1966,1387,21.362,-2.7966
749,-363,0,0,0,0,0,0,0,0,0,-1,1973,1387,0,0
756,-363,0,0,0,0,0,0,0,0,0,-1,1980,1387,0,0
763,-363,0,0,0,0,0,0,0,0,0,-1,1987,1387,0,0
770,-363,0,0,0,0,0,0,0,0,0,-1,1994,1387,0,0
777,-363,0,0,0,0,0,0,0,0,0,-1,2001,1387,0,0
784,-363,0,0,0,0,0,0,0,0,0,-1,2008,1387,0,0
791,-363,0,0,0,0,0,0,0,0,0,-1,2015,1387,0,0
798,-363,0,0,0,0,0,0,0,0,0,-1,2022,1387,0,0
805,-363,0,0,0,0,0,0,0,0,0,-1,2029,1387,0,0
812,-363,0,0,0,0,0,0,0,0,0,-1,2036,1387,0,0
-700,-370,0,0,0,0,0,0,0,0,0,-1,524,1394,0,0
-693,-370,0,0,0,0,0,0,0,0,0,-1,531,1394,0,0
-686,-370,0,0,0,0,0,0,0,0,0,-1,538,1394,0,0
-679,-370,0,0,0,0,0,0,0,0,0,-1,545,1394,0,0
-672,-370,0,0,0,0,0,0,0,0,0,-1,552,1394,0,0
-665,-370,0,0,0,0,0,0,0,0,0,-1,559,1394,0,0
-658,-370,0,0,0,0,0,0,0,0,0,-1,566,1394,0,0
-651,-370,0,0,0,0,0,0,0,0,0,-1,573,1394,0,0
-644,-370,0,0,0,0,0,0,0,0,0,-1,580,1394,0,0
-637,-370,0,0,0,0,0,0,0,0,0,-1,587,1394,0,0
-630,-370,0,0,0,0,0,0,0,0,0,-1,594,1394,0,0
-623,-370,-10.1758,-7.10486,0,0,0,0,0,0,0,-1,601,1394,-10.1758,7.10483
-616,-370,-8.85925,-1.61475,0,0,0,0,0,0,0,-1,608,1394,-8.85925,1.61476
-609,-370,-5.39325,0.0421143,0,0,0,0,0,0,0,-1,615,1394,-5.39328,-0.0421372
-602,-370,-12.3151,3.44592,0,0,0,0,0,0,0,-1,622,1394,-12.3151,-3.44595
-595,-370,-7.53284,5.44214,0,0,0,0,0,0,0,-1,629,1394,-7.53284,-5.44216
-588,-370,-11.2422,4.50598,0,0,0,0,0,0,0,-1,636,1394,-11.2422,-4.50596
-581,-370,-13.1575,5.84888,0,0,0,0,0,0,0,-1,643,1394,-13.1575,-5.84887
-574,-370,-13.0107,6.69861,0,0,0,0,0,0,0,-1,650,1394,-13.0108,-6.69866
-567,-370,-21.0984,10.6616,0,0,0,0,0,0,0,-1,657,1394,-21.0985,-10.6616
-560,-370,-21.1064,11.4734,0.00421267,0.00188457,0.00252277,0.00582699,0.000270239,0.569244,0.00379779,0.0344098,664,1394,-21.1064,-11.4733
-553,-370,-21.038,12.2618,0.00358965,0.00143439,0.00208487,0.00485893,0.000165111,0.546867,0.00318567,0.0122615,671,1394,-21.038,-12.2619
-546,-370,-21.0365,12.9969,0.00312445,0.00104997,0.00174342,0.00411585,5.85678e-05,0.51705,0.00272459,0.0157973,678,1394,-21.0365,-12.9969
-539,-370,-21.0427,13.7737,0.00284476,0.000749952,0.00150831,0.00363367,-3.89615e-05,0.481912,0.00243554,0.0194894,685,1394,-21.0427,-13.7736
-532,-370,-21.1193,14.5137,0.00275167,0.000567844,0.00140816,0.00344166,-0.000122145,0.455611,0.00233622,0.0207989,692,1394,-21.1193,-14.5136
-525,-370,-21.1512,15.1984,0.00281998,0.000481551,0.00142763,0.00349608,-0.000194547,0.442291,0.0023982,0.018808,699,1394,-21.1513,-15.1983
-518,-370,-21.1652,15.8862,0.00303797,0.000487204,0.001567,0.003783,-0.000257831,0.443818,0.00261219,0.0134849,706,1394,-21.1652,-15.8863
-511,-370,-21.1852,16.6469,0.00345849,0.000649734,0.00187324,0.00439533,-0.00028711,0.463743,0.00303046,0.0158304,713,1394,-21.1852,-16.6468
-504,-370,-21.2094,17.4277,0,0,0,0,0,0,0,-1,720,1394,-21.2094,-17.4277
-497,-370,-12.3546,11.7982,0,0,0,0,0,0,0,-1,727,1394,-12.3546,-11.7983
-490,-370,-5.30695,4.5271,0,0,0,0,0,0,0,-1,734,1394,-5.30698,-4.52704
-483,-370,-6.02997,4.59253,0,0,0,0,0,0,0,-1,741,1394,-6.02994,-4.5925
-476,-370,-6.75293,4.65796,0,0,0,0,0,0,0,-1,748,1394,-6.7529,-4.65795
-469,-370,-10.584,1.14294,0,0,0,0,0,0,0,-1,755,1394,-10.584,-1.14293
-462,-370,-9.54462,0.387207,0,0,0,0,0,0,0,-1,762,1394,-9.5446,-0.387176
-455,-370,-8.50525,-0.36853,0,0,0,0,0,0,0,-1,769,1394,-8.50523,0.368582
-448,-370,-10.9543,2.28833,0,0,0,0,0,0,0,-1,776,1394,-10.9543,-2.28835
-441,-370,-11.8699,1.8313,0,0,0,0,0,0,0,-1,783,1394,-11.8699,-1.83127
-434,-370,-12.7855,1.37415,0,0,0,0,0,0,0,-1,790,1394,-12.7855,-1.37419
-427,-370,0,0,0,0,0,0,0,0,0,-1,797,1394,0,0
-420,-370,0,0,0,0,0,0,0,0,0,-1,804,1394,0,0
-413,-370,0,0,0,0,0,0,0,0,0,-1,811,1394,0,0
-406,-370,0,0,0,0,0,0,0,0,0,-1,818,1394,0,0
-399,-370,0,0,0,0,0,0,0,0,0,-1,825,1394,0,0
-392,-370,0,0,0,0,0,0,0,0,0,-1,832,1394,0,0
-385,-370,0,0,0,0,0,0,0,0,0,-1,839,1394,0,0
-378,-370,0,0,0,0,0,0,0,0,0,-1,846,1394,0,0
-371,-370,0,0,0,0,0,0,0,0,0,-1,853,1394,0,0
-364,-370,0,0,0,0,0,0,0,0,0,-1,860,1394,0,0
-357,-370,0,0,0,0,0,0,0,0,0,-1,867,1394,0,0
-350,-370,0,0,0,0,0,0,0,0,0,-1,874,1394,0,0
-343,-370,0,0,0,0,0,0,0,0,0,-1,881,1394,0,0
-336,-370,0,0,0,0,0,0,0,0,0,-1,888,1394,0,0
-329,-370,0,0,0,0,0,0,0,0,0,-1,895,1394,0,0
-322,-370,0,0,0,0,0,0,0,0,0,-1,902,1394,0,0
-315,-370,0,0,0,0,0,0,0,0,0,-1,909,1394,0,0
-308,-370,0,0,0,0,0,0,0,0,0,-1,916,1394,0,0
-301,-370,0,0,0,0,0,0,0,0,0,-1,923,1394,0,0
-294,-370,0,0,0,0,0,0,0,0,0,-1,930,1394,0,0
-287,-370,0,0,0,0,0,0,0,0,0,-1,937,1394,0,0
-280,-370,0,0,0,0,0,0,0,0,0,-1,944,1394,0,0
-273,-370,0,0,0,0,0,0,0,0,0,-1,951,1394,0,0
-266,-370,0,0,0,0,0,0,0,0,0,-1,958,1394,0,0
-259,-370,0,0,0,0,0,0,0,0,0,-1,965,1394,0,0
-252,-370,0,0,0,0,0,0,0,0,0,-1,972,1394,0,0
-245,-370,0,0,0,0,0,0,0,0,0,-1,979,1394,0,0
-238,-370,0,0,0,0,0,0,0,0,0,-1,986,1394,0,0
-231,-370,0,0,0,0,0,0,0,0,0,-1,993,1394,0,0
-224,-370,0,0,0,0,0,0,0,0,0,-1,1000,1394,0,0
-217,-370,0,0,0,0,0,0,0,0,0,-1,1007,1394,0,0
-210,-370,0,0,0,0,0,0,0,0,0,-1,1014,1394,0,0
-203,-370,0,0,0,0,0,0,0,0,0,-1,1021,1394,0,0
-196,-370,0,0,0,0,0,0,0,0,0,-1,1028,1394,0,0
-189,-370,0,0,0,0,0,0,0,0,0,-1,1035,1394,0,0
-182,-370,0,0,0,0,0,0,0,0,0,-1,1042,1394,0,0
-175,-370,0,0,0,0,0,0,0,0,0,-1,1049,1394,0,0
-168,-370,0,0,0,0,0,0,0,0,0,-1,1056,1394,0,0
-161,-370,0,0,0,0,0,0,0,0,0,-1,1063,1394,0,0
-154,-370,0,0,0,0,0,0,0,0,0,-1,1070,1394,0,0
-147,-370,0,0,0,0,0,0,0,0,0,-1,1077,1394,0,0
-140,-370,0,0,0,0,0,0,0,0,0,-1,1084,1394,0,0
-133,-370,0,0,0,0,0,0,0,0,0,-1,1091,1394,0,0
-126,-370,0,0,0,0,0,0,0,0,0,-1,1098,1394,0,0
-119,-370,0,0,0,0,0,0,0,0,0,-1,1105,1394,0,0
-112,-370,0,0,0,0,0,0,0,0,0,-1,1112,1394,0,0
-105,-370,0,0,0,0,0,0,0,0,0,-1,1119,1394,0,0
-98,-370,0,0,0,0,0,0,0,0,0,-1,1126,1394,0,0
-91,-370,0,0,0,0,0,0,0,0,0,-1,1133,1394,0,0
-84,-370,0,0,0,0,0,0,0,0,0,-1,1140,1394,0,0
-77,-370,0,0,0,0,0,0,0,0,0,-1,1147,1394,0,0
-70,-370,0,0,0,0,0,0,0,0,0,-1,1154,1394,0,0
-63,-370,0,0,0,0,0,0,0,0,0,-1,1161,1394,0,0
-56,-370,0,0,0,0,0,0,0,0,0,-1,1168,1394,0,0
-49,-370,0,0,0,0,0,0,0,0,0,-1,1175,1394,0,0
-42,-370,0,0,0,0,0,0,0,0,0,-1,1182,1394,0,0
-35,-370,0,0,0,0,0,0,0,0,0,-1,1189,1394,0,0
-28,-370,0,0,0,0,0,0,0,0,0,-1,1196,1394,0,0
-21,-370,0,0,0,0,0,0,0,0,0,-1,1203,1394,0,0
-14,-370,0,0,0,0,0,0,0,0,0,-1,1210,1394,0,0
-7,-370,0,0,0,0,0,0,0,0,0,-1,1217,1394,0,0
0,-370,0,0,0,0,0,0,0,0,0,-1,1224,1394,0,0
7,-370,0,0,0,0,0,0,0,0,0,-1,1231,1394,0,0
14,-370,0,0,0,0,0,0,0,0,0,-1,1238,1394,0,0
21,-370,0,0,0,0,0,0,0,0,0,-1,1245,1394,0,0
28,-370,0,0,0,0,0,0,0,0,0,-1,1252,1394,0,0
35,-370,0,0,0,0,0,0,0,0,0,-1,1259,1394,0,0
42,-370,0,0,0,0,0,0,0,0,0,-1,1266,1394,0,0
49,-370,0,0,0,0,0,0,0,0,0,-1,1273,1394,0,0
56,-370,0,0,0,0,0,0,0,0,0,-1,1280,1394,0,0
63,-370,0,0,0,0,0,0,0,0,0,-1,1287,1394,0,0
70,-370,0,0,0,0,0,0,0,0,0,-1,1294,1394,0,0
77,-370,0,0,0,0,0,0,0,0,0,-1,1301,1394,0,0
84,-370,0,0,0,0,0,0,0,0,0,-1,1308,1394,0,0
91,-370,0,0,0,0,0,0,0,0,0,-1,1315,1394,0,0
98,-370,0,0,0,0,0,0,0,0,0,-1,1322,1394,0,0
105,-370,0,0,0,0,0,0,0,0,0,-1,1329,1394,0,0
112,-370,0,0,0,0,0,0,0,0,0,-1,1336,1394,0,0
119,-370,0,0,0,0,0,0,0,0,0,-1,1343,1394,0,0
126,-370,0,0,0,0,0,0,0,0,0,-1,1350,1394,0,0
133,-370,0,0,0,0,0,0,0,0,0,-1,1357,1394,0,0
140,-370,0,0,0,0,0,0,0,0,0,-1,1364,1394,0,0
147,-370,0,0,0,0,0,0,0,0,0,-1,1371,1394,0,0
154,-370,0,0,0,0,0,0,0,0,0,-1,1378,1394,0,0
161,-370,0,0,0,0,0,0,0,0,0,-1,1385,1394,0,0
168,-370,0,0,0,0,0,0,0,0,0,-1,1392,1394,0,0
175,-370,0,0,0,0,0,0,0,0,0,-1,1399,1394,0,0
182,-370,0,0,0,0,0,0,0,0,0,-1,1406,1394,0,0
189,-370,0,0,0,0,0,0,0,0,0,-1,1413,1394,0,0
196,-370,0,0,0,0,0,0,0,0,0,-1,1420,1394,0,0
203,-370,0,0,0,0,0,0,0,0,0,-1,1427,1394,0,0
210,-370,0,0,0,0,0,0,0,0,0,-1,1434,1394,0,0
217,-370,0,0,0,0,0,0,0,0,0,-1,1441,1394,0,0
224,-370,0,0,0,0,0,0,0,0,0,-1,1448,1394,0,0
231,-370,0,0,0,0,0,0,0,0,0,-1,1455,1394,0,0
238,-370,0,0,0,0,0,0,0,0,0,-1,1462,1394,0,0
245,-370,0,0,0,0,0,0,0,0,0,-1,1469,1394,0,0
252,-370,0,0,0,0,0,0,0,0,0,-1,1476,1394,0,0
259,-370,0,0,0,0,0,0,0,0,0,-1,1483,1394,0,0
266,-370,0,0,0,0,0,0,0,0,0,-1,1490,1394,0,0
273,-370,0,0,0,0,0,0,0,0,0,-1,1497,1394,0,0
280,-370,0,0,0,0,0,0,0,0,0,-1,1504,1394,0,0
287,-370,0,0,0,0,0,0,0,0,0,-1,1511,1394,0,0
294,-370,0,0,0,0,0,0,0,0,0,-1,1518,1394,0,0
301,-370,0,0,0,0,0,0,0,0,0,-1,1525,1394,0,0
308,-370,0,0,0,0,0,0,0,0,0,-1,1532,1394,0,0
315,-370,0,0,0,0,0,0,0,0,0,-1,1539,1394,0,0
322,-370,0,0,0,0,0,0,0,0,0,-1,1546,1394,0,0
329,-370,0,0,0,0,0,0,0,0,0,-1,1553,1394,0,0
336,-370,0,0,0,0,0,0,0,0,0,-1,1560,1394,0,0
343,-370,0,0,0,0,0,0,0,0,0,-1,1567,1394,0,0
350,-370,0,0,0,0,0,0,0,0,0,-1,1574,1394,0,0
357,-370,0,0,0,0,0,0,0,0,0,-1,1581,1394,0,0
364,-370,0,0,0,0,0,0,0,0,0,-1,1588,1394,0,0
371,-370,0,0,0,0,0,0,0,0,0,-1,1595,1394,0,0
378,-370,0,0,0,0,0,0,0,0,0,-1,1602,1394,0,0
385,-370,0,0,0,0,0,0,0,0,0,-1,1609,1394,0,0
392,-370,0,0,0,0,0,0,0,0,0,-1,1616,1394,0,0
399,-370,0,0,0,0,0,0,0,0,0,-1,1623,1394,0,0
406,-370,0,0,0,0,0,0,0,0,0,-1,1630,1394,0,0
413,-370,0,0,0,0,0,0,0,0,0,-1,1637,1394,0,0
420,-370,0,0,0,0,0,0,0,0,0,-1,1644,1394,0,0
427,-370,0,0,0,0,0,0,0,0,0,-1,1651,1394,0,0
434,-370,0,0,0,0,0,0,0,0,0,-1,1658,1394,0,0
441,-370,0,0,0,0,0,0,0,0,0,-1,1665,1394,0,0
448,-370,0,0,0,0,0,0,0,0,0,-1,1672,1394,0,0
455,-370,0,0,0,0,0,0,0,0,0,-1,1679,1394,0,0
462,-370,0,0,0,0,0,0,0,0,0,-1,1686,1394,0,0
469,-370,0,0,0,0,0,0,0,0,0,-1,1693,1394,0,0
476,-370,0,0,0,0,0,0,0,0,0,-1,1700,1394,0,0
483,-370,0,0,0,0,0,0,0,0,0,-1,1707,1394,0,0
490,-370,0,0,0,0,0,0,0,0,0,-1,1714,1394,0,0
497,-370,0,0,0,0,0,0,0,0,0,-1,1721,1394,0,0
504,-370,0,0,0,0,0,0,0,0,0,-1,1728,1394,0,0
511,-370,0,0,0,0,0,0,0,0,0,-1,1735,1394,0,0
518,-370,0,0,0,0,0,0,0,0,0,-1,1742,1394,0,0
525,-370,0,0,0,0,0,0,0,0,0,-1,1749,1394,0,0
532,-370,0,0,0,0,0,0,0,0,0,-1,1756,1394,0,0
539,-370,0,0,0,0,0,0,0,0,0,-1,1763,1394,0,0
546,-370,60.9257,3.80493,0,0,0,0,0,0,0,-1,1770,1394,60.9256,-3.80494
553,-370,61.9966,2.87524,0,0,0,0,0,0,0,-1,1777,1394,61.9966,-2.8753
560,-370,63.1577,1.82617,0,0,0,0,0,0,0,-1,1784,1394,63.1578,-1.82617
567,-370,46.1089,3.11719,0,0,0,0,0,0,0,-1,1791,1394,46.1089,-3.1172
574,-370,38.8953,1.49353,0,0,0,0,0,0,0,-1,1798,1394,38.8952,-1.49348
581,-370,39.178,2.86145,0,0,0,0,0,0,0,-1,1805,1394,39.1779,-2.86145
588,-370,39.2102,4.27661,0,0,0,0,0,0,0,-1,1812,1394,39.2102,-4.27657
595,-370,25.793,4.5271,0,0,0,0,0,0,0,-1,1819,1394,25.793,-4.52711
602,-370,25.1077,5.34937,0,0,0,0,0,0,0,-1,1826,1394,25.1077,-5.34932
609,-370,16.712,0.993286,0,0,0,0,0,0,0,-1,1833,1394,16.7121,-0.99323
616,-370,16.7764,7.23315,0,0,0,0,0,0,0,-1,1840,1394,16.7764,-7.23313
623,-370,17.6625,8.94263,0,0,0,0,0,0,0,-1,1847,1394,17.6624,-8.94258
630,-370,20.9681,11.1785,0,0,0,0,0,0,0,-1,1854,1394,20.9681,-11.1784
637,-370,37.3477,18.9316,0,0,0,0,0,0,0,-1,1861,1394,37.3477,-18.9316
644,-370,37.8077,17.8325,0.000373449,0.00098305,-0.00128481,0.00199872,-0.00064222,-0.901862,0.00159038,0.0160178,1868,1394,37.8078,-17.8326
651,-370,37.7715,17.141,0.000380965,0.000515752,-0.000780554,0.00123182,-0.000335099,-0.828462,0.000952761,0.0133453,1875,1394,37.7715,-17.141
658,-370,37.7305,16.4906,0.000853511,0.000352403,-0.000520703,0.00118081,2.5108e-05,-0.561157,0.000778969,0.0128466,1882,1394,37.7305,-16.4907
665,-370,37.6958,15.8051,0.00151871,0.000321625,-0.000374985,0.00162648,0.000213863,-0.279836,0.00102053,0.0149009,1889,1394,37.6958,-15.8051
672,-370,37.632,15.0952,0.00240584,0.000445419,-0.000331486,0.00246038,0.000390885,-0.163052,0.00152673,0.0159084,1896,1394,37.6319,-15.0952
679,-370,37.6354,14.407,0.0034818,0.000704556,-0.000367608,0.00352964,0.000656721,-0.129396,0.0021676,0.0151972,1903,1394,37.6354,-14.407
686,-370,37.606,13.7358,0.00473641,0.00111883,-0.000494849,0.00480288,0.00105236,-0.133523,0.00291515,0.0152429,1910,1394,37.606,-13.7358
693,-370,37.5532,13.0049,0.00628348,0.00178123,-0.000799083,0.0064211,0.00164361,-0.170548,0.00385159,0.0141141,1917,1394,37.5532,-13.0049
700,-370,37.6866,12.1672,0.00814373,0.00274135,-0.00125061,0.00841919,0.00246588,-0.2168,0.00499789,0.0478065,1924,1394,37.6866,-12.1673
707,-370,37.9269,11.2356,0,0,0,0,0,0,0,-1,1931,1394,37.9269,-11.2356
714,-370,16.9116,5.93018,0,0,0,0,0,0,0,-1,1938,1394,16.9116,-5.93014
721,-370,17.2007,4.69153,0,0,0,0,0,0,0,-1,1945,1394,17.2007,-4.69158
728,-370,20.5315,-0.313354,0,0,0,0,0,0,0,-1,1952,1394,20.5315,0.313332
735,-370,22.3652,0.233398,0,0,0,0,0,0,0,-1,1959,1394,22.3652,-0.233355
742,-370,24.1989,0.780029,0,0,0,0,0,0,0,-1,1966,1394,24.1989,-0.780041
749,-370,0,0,0,0,0,0,0,0,0,-1,1973,1394,0,0
756,-370,0,0,0,0,0,0,0,0,0,-1,1980,1394,0,0
763,-370,0,0,0,0,0,0,0,0,0,-1,1987,1394,0,0
770,-370,0,0,0,0,0,0,0,0,0,-1,1994,1394,0,0
777,-370,0,0,0,0,0,0,0,0,0,-1,2001,1394,0,0
784,-370,0,0,0,0,0,0,0,0,0,-1,2008,1394,0,0
791,-370,0,0,0,0,0,0,0,0,0,-1,2015,1394,0,0
798,-370,0,0,0,0,0,0,0,0,0,-1,2022,1394,0,0
805,-370,0,0,0,0,0,0,0,0,0,-1,2029,1394,0,0
812,-370,0,0,0,0,0,0,0,0,0,-1,2036,1394,0,0
-700,-377,0,0,0,0,0,0,0,0,0,-1,524,1401,0,0
-693,-377,0,0,0,0,0,0,0,0,0,-1,531,1401,0,0
-686,-377,0,0,0,0,0,0,0,0,0,-1,538,1401,0,0
-679,-377,0,0,0,0,0,0,0,0,0,-1,545,1401,0,0
-672,-377,0,0,0,0,0,0,0,0,0,-1,552,1401,0,0
-665,-377,0,0,0,0,0,0,0,0,0,-1,559,1401,0,0
-658,-377,0,0,0,0,0,0,0,0,0,-1,566,1401,0,0
-651,-377,0,0,0,0,0,0,0,0,0,-1,573,1401,0,0
-644,-377,0,0,0,0,0,0,0,0,0,-1,580,1401,0,0
-637,-377,0,0,0,0,0,0,0,0,0,-1,587,1401,0,0
-630,-377,0,0,0,0,0,0,0,0,0,-1,594,1401,0,0
-623,-377,0,0,0,0,0,0,0,0,0,-1,601,1401,0,0
-616,-377,-9.43915,-2.4906,0,0,0,0,0,0,0,-1,608,1401,-9.43915,2.49062
-609,-377,-7.2821,-1.35278,0,0,0,0,0,0,0,-1,615,1401,-7.28208,1.35279
-602,-377,-14.9736,3.98279,0,0,0,0,0,0,0,-1,622,1401,-14.9737,-3.98276
-595,-377,-6.9082,1.18201,0,0,0,0,0,0,0,-1,629,1401,-6.90822,-1.18204
-588,-377,-12.8003,3.44751,0,0,0,0,0,0,0,-1,636,1401,-12.8003,-3.44754
-581,-377,-11.8243,6.21521,0,0,0,0,0,0,0,-1,643,1401,-11.8244,-6.21519
-574,-377,-12.2761,6.60547,0,0,0,0,0,0,0,-1,650,1401,-12.2761,-6.60552
-567,-377,-13.4844,7.41931,0,0,0,0,0,0,0,-1,657,1401,-13.4845,-7.41926
-560,-377,-20.5048,11.42,0,0,0,0,0,0,0,-1,664,1401,-20.5048,-11.42
-553,-377,-20.3206,12.261,0.00411701,0.0017881,0.00247736,0.00568994,0.000215172,0.565701,0.00372364,0.0182009,671,1401,-20.3206,-12.2609
-546,-377,-20.3431,13.0911,0.00346244,0.00130245,0.00198423,0.00464155,0.00012334,0.536173,0.00305408,0.0186577,678,1401,-20.3431,-13.0911
-539,-377,-20.3354,13.8044,0.00301073,0.000927525,0.00162822,0.00390201,3.62457e-05,0.500841,0.00258934,0.0242214,685,1401,-20.3354,-13.8044
-532,-377,-20.4103,14.4984,0.00275235,0.000675859,0.0014193,0.00347262,-4.44056e-05,0.469613,0.00233002,0.0206354,692,1401,-20.4102,-14.4984
-525,-377,-20.3757,15.2412,0.00266868,0.000556213,0.00135214,0.00332823,-0.000103333,0.453825,0.00225405,0.0244446,699,1401,-20.3756,-15.2412
-518,-377,-20.4326,15.9342,0.00273627,0.000525944,0.00141204,0.00342422,-0.000162003,0.453356,0.00233869,0.0161834,706,1401,-20.4326,-15.9342
-511,-377,-20.4753,16.6676,0.00299263,0.000656488,0.00162677,0.00382725,-0.000178131,0.474035,0.0026129,0.0121751,713,1401,-20.4753,-16.6675
-504,-377,-20.5197,17.4227,0.00350122,0.000965664,0.00206889,0.00465987,-0.000192987,0.510516,0.00317286,0.0159098,720,1401,-20.5197,-17.4227
-497,-377,-20.5407,18.1555,0,0,0,0,0,0,0,-1,727,1401,-20.5407,-18.1555
-490,-377,-8.88409,10.1245,0,0,0,0,0,0,0,-1,734,1401,-8.8841,-10.1245
-483,-377,-5.6524,5.07324,0,0,0,0,0,0,0,-1,741,1401,-5.6524,-5.07325
-476,-377,-6.11682,5.10535,0,0,0,0,0,0,0,-1,748,1401,-6.11681,-5.10537
-469,-377,-10.3211,1.9281,0,0,0,0,0,0,0,-1,755,1401,-10.3211,-1.92808
-462,-377,-9.2204,1.0022,0,0,0,0,0,0,0,-1,762,1401,-9.22039,-1.00218
-455,-377,-8.11969,0.0762939,0,0,0,0,0,0,0,-1,769,1401,-8.11968,-0.0762759
-448,-377,-9.05334,0.877319,0,0,0,0,0,0,0,-1,776,1401,-9.05332,-0.877324
-441,-377,-11.212,0.763428,0,0,0,0,0,0,0,-1,783,1401,-11.212,-0.763415
-434,-377,-11.0984,0.996216,0,0,0,0,0,0,0,-1,790,1401,-11.0984,-0.996265
-427,-377,-11.1733,1.25732,0,0,0,0,0,0,0,-1,797,1401,-11.1733,-1.25732
-420,-377,0,0,0,0,0,0,0,0,0,-1,804,1401,0,0
-413,-377,0,0,0,0,0,0,0,0,0,-1,811,1401,0,0
-406,-377,0,0,0,0,0,0,0,0,0,-1,818,1401,0,0
-399,-377,0,0,0,0,0,0,0,0,0,-1,825,1401,0,0
-392,-377,0,0,0,0,0,0,0,0,0,-1,832,1401,0,0
-385,-377,0,0,0,0,0,0,0,0,0,-1,839,1401,0,0
-378,-377,0,0,0,0,0,0,0,0,0,-1,846,1401,0,0
-371,-377,0,0,0,0,0,0,0,0,0,-1,853,1401,0,0
-364,-377,0,0,0,0,0,0,0,0,0,-1,860,1401,0,0
-357,-377,0,0,0,0,0,0,0,0,0,-1,867,1401,0,0
-350,-377,0,0,0,0,0,0,0,0,0,-1,874,1401,0,0
-343,-377,0,0,0,0,0,0,0,0,0,-1,881,1401,0,0
-336,-377,0,0,0,0,0,0,0,0,0,-1,888,1401,0,0
-329,-377,0,0,0,0,0,0,0,0,0,-1,895,1401,0,0
-322,-377,0,0,0,0,0,0,0,0,0,-1,902,1401,0,0
-315,-377,0,0,0,0,0,0,0,0,0,-1,909,1401,0,0
-308,-377,0,0,0,0,0,0,0,0,0,-1,916,1401,0,0
-301,-377,0,0,0,0,0,0,0,0,0,-1,923,1401,0,0
-294,-377,0,0,0,0,0,0,0,0,0,-1,930,1401,0,0
-287,-377,0,0,0,0,0,0,0,0,0,-1,937,1401,0,0
-280,-377,0,0,0,0,0,0,0,0,0,-1,944,1401,0,0
-273,-377,0,0,0,0,0,0,0,0,0,-1,951,1401,0,0
-266,-377,0,0,0,0,0,0,0,0,0,-1,958,1401,0,0
-259,-377,0,0,0,0,0,0,0,0,0,-1,965,1401,0,0
-252,-377,0,0,0,0,0,0,0,0,0,-1,972,1401,0,0
-245,-377,0,0,0,0,0,0,0,0,0,-1,979,1401,0,0
-238,-377,0,0,0,0,0,0,0,0,0,-1,986,1401,0,0
-231,-377,0,0,0,0,0,0,0,0,0,-1,993,1401,0,0
-224,-377,0,0,0,0,0,0,0,0,0,-1,1000,1401,0,0
-217,-377,0,0,0,0,0,0,0,0,0,-1,1007,1401,0,0
-210,-377,0,0,0,0,0,0,0,0,0,-1,1014,1401,0,0
-203,-377,0,0,0,0,0,0,0,0,0,-1,1021,1401,0,0
-196,-377,0,0,0,0,0,0,0,0,0,-1,1028,1401,0,0
-189,-377,0,0,0,0,0,0,0,0,0,-1,1035,1401,0,0
-182,-377,0,0,0,0,0,0,0,0,0,-1,1042,1401,0,0
-175,-377,0,0,0,0,0,0,0,0,0,-1,1049,1401,0,0
-168,-377,0,0,0,0,0,0,0,0,0,-1,1056,1401,0,0
-161,-377,0,0,0,0,0,0,0,0,0,-1,1063,1401,0,0
-154,-377,0,0,0,0,0,0,0,0,0,-1,1070,1401,0,0
-147,-377,0,0,0,0,0,0,0,0,0,-1,1077,1401,0,0
-140,-377,0,0,0,0,0,0,0,0,0,-1,1084,1401,0,0
-133,-377,0,0,0,0,0,0,0,0,0,-1,1091,1401,0,0
-126,-377,0,0,0,0,0,0,0,0,0,-1,1098,1401,0,0
-119,-377,0,0,0,0,0,0,0,0,0,-1,1105,1401,0,0
-112,-377,0,0,0,0,0,0,0,0,0,-1,1112,1401,0,0
-105,-377,0,0,0,0,0,0,0,0,0,-1,1119,1401,0,0
-98,-377,0,0,0,0,0,0,0,0,0,-1,1126,1401,0,0
-91,-377,0,0,0,0,0,0,0,0,0,-1,1133,1401,0,0
-84,-377,0,0,0,0,0,0,0,0,0,-1,1140,1401,0,0
-77,-377,0,0,0,0,0,0,0,0,0,-1,1147,1401,0,0
-70,-377,0,0,0,0,0,0,0,0,0,-1,1154,1401,0,0
-63,-377,0,0,0,0,0,0,0,0,0,-1,1161,1401,0,0
-56,-377,0,0,0,0,0,0,0,0,0,-1,1168,1401,0,0
-49,-377,0,0,0,0,0,0,0,0,0,-1,1175,1401,0,0
-42,-377,0,0,0,0,0,0,0,0,0,-1,1182,1401,0,0
-35,-377,0,0,0,0,0,0,0,0,0,-1,1189,1401,0,0
-28,-377,0,0,0,0,0,0,0,0,0,-1,1196,1401,0,0
-21,-377,0,0,0,0,0,0,0,0,0,-1,1203,1401,0,0
-14,-377,0,0,0,0,0,0,0,0,0,-1,1210,1401,0,0
-7,-377,0,0,0,0,0,0,0,0,0,-1,1217,1401,0,0
0,-377,0,0,0,0,0,0,0,0,0,-1,1224,1401,0,0
7,-377,0,0,0,0,0,0,0,0,0,-1,1231,1401,0,0
14,-377,0,0,0,0,0,0,0,0,0,-1,1238,1401,0,0
21,-377,0,0,0,0,0,0,0,0,0,-1,1245,1401,0,0
28,-377,0,0,0,0,0,0,0,0,0,-1,1252,1401,0,0
35,-377,0,0,0,0,0,0,0,0,0,-1,1259,1401,0,0
42,-377,0,0,0,0,0,0,0,0,0,-1,1266,1401,0,0
49,-377,0,0,0,0,0,0,0,0,0,-1,1273,1401,0,0
56,-377,0,0,0,0,0,0,0,0,0,-1,1280,1401,0,0
63,-377,0,0,0,0,0,0,0,0,0,-1,1287,1401,0,0
70,-377,0,0,0,0,0,0,0,0,0,-1,1294,1401,0,0
77,-377,0,0,0,0,0,0,0,0,0,-1,1301,1401,0,0
84,-377,0,0,0,0,0,0,0,0,0,-1,1308,1401,0,0
91,-377,0,0,0,0,0,0,0,0,0,-1,1315,1401,0,0
98,-377,0,0,0,0,0,0,0,0,0,-1,1322,1401,0,0
105,-377,0,0,0,0,0,0,0,0,0,-1,1329,1401,0,0
112,-377,0,0,0,0,0,0,0,0,0,-1,1336,1401,0,0
119,-377,0,0,0,0,0,0,0,0,0,-1,1343,1401,0,0
126,-377,0,0,0,0,0,0,0,0,0,-1,1350,1401,0,0
133,-377,0,0,0,0,0,0,0,0,0,-1,1357,1401,0,0
140,-377,0,0,0,0,0,0,0,0,0,-1,1364,1401,0,0
147,-377,0,0,0,0,0,0,0,0,0,-1,1371,1401,0,0
154,-377,0,0,0,0,0,0,0,0,0,-1,1378,1401,0,0
161,-377,0,0,0,0,0,0,0,0,0,-1,1385,1401,0,0
168,-377,0,0,0,0,0,0,0,0,0,-1,1392,1401,0,0
175,-377,0,0,0,0,0,0,0,0,0,-1,1399,1401,0,0
182,-377,0,0,0,0,0,0,0,0,0,-1,1406,1401,0,0
189,-377,0,0,0,0,0,0,0,0,0,-1,1413,1401,0,0
196,-377,0,0,0,0,0,0,0,0,0,-1,1420,1401,0,0
203,-377,0,0,0,0,0,0,0,0,0,-1,1427,1401,0,0
210,-377,0,0,0,0,0,0,0,0,0,-1,1434,1401,0,0
217,-377,0,0,0,0,0,0,0,0,0,-1,1441,1401,0,0
224,-377,0,0,0,0,0,0,0,0,0,-1,1448,1401,0,0
231,-377,0,0,0,0,0,0,0,0,0,-1,1455,1401,0,0
238,-377,0,0,0,0,0,0,0,0,0,-1,1462,1401,0,0
245,-377,0,0,0,0,0,0,0,0,0,-1,1469,1401,0,0
252,-377,0,0,0,0,0,0,0,0,0,-1,1476,1401,0,0
259,-377,0,0,0,0,0,0,0,0,0,-1,1483,1401,0,0
266,-377,0,0,0,0,0,0,0,0,0,-1,1490,1401,0,0
273,-377,0,0,0,0,0,0,0,0,0,-1,1497,1401,0,0
280,-377,0,0,0,0,0,0,0,0,0,-1,1504,1401,0,0
287,-377,0,0,0,0,0,0,0,0,0,-1,1511,1401,0,0
294,-377,0,0,0,0,0,0,0,0,0,-1,1518,1401,0,0
301,-377,0,0,0,0,0,0,0,0,0,-1,1525,1401,0,0
308,-377,0,0,0,0,0,0,0,0,0,-1,1532,1401,0,0
315,-377,0,0,0,0,0,0,0,0,0,-1,1539,1401,0,0
322,-377,0,0,0,0,0,0,0,0,0,-1,1546,1401,0,0
329,-377,0,0,0,0,0,0,0,0,0,-1,1553,1401,0,0
336,-377,0,0,0,0,0,0,0,0,0,-1,1560,1401,0,0
343,-377,0,0,0,0,0,0,0,0,0,-1,1567,1401,0,0
350,-377,0,0,0,0,0,0,0,0,0,-1,1574,1401,0,0
357,-377,0,0,0,0,0,0,0,0,0,-1,1581,1401,0,0
364,-377,0,0,0,0,0,0,0,0,0,-1,1588,1401,0,0
371,-377,0,0,0,0,0,0,0,0,0,-1,1595,1401,0,0
378,-377,0,0,0,0,0,0,0,0,0,-1,1602,1401,0,0
385,-377,0,0,0,0,0,0,0,0,0,-1,1609,1401,0,0
392,-377,0,0,0,0,0,0,0,0,0,-1,1616,1401,0,0
399,-377,0,0,0,0,0,0,0,0,0,-1,1623,1401,0,0
406,-377,0,0,0,0,0,0,0,0,0,-1,1630,1401,0,0
413,-377,0,0,0,0,0,0,0,0,0,-1,1637,1401,0,0
420,-377,0,0,0,0,0,0,0,0,0,-1,1644,1401,0,0
427,-377,0,0,0,0,0,0,0,0,0,-1,1651,1401,0,0
434,-377,0,0,0,0,0,0,0,0,0,-1,1658,1401,0,0
441,-377,0,0,0,0,0,0,0,0,0,-1,1665,1401,0,0
448,-377,0,0,0,0,0,0,0,0,0,-1,1672,1401,0,0
455,-377,0,0,0,0,0,0,0,0,0,-1,1679,1401,0,0
462,-377,0,0,0,0,0,0,0,0,0,-1,1686,1401,0,0
469,-377,0,0,0,0,0,0,0,0,0,-1,1693,1401,0,0
476,-377,0,0,0,0,0,0,0,0,0,-1,1700,1401,0,0
483,-377,0,0,0,0,0,0,0,0,0,-1,1707,1401,0,0
490,-377,0,0,0,0,0,0,0,0,0,-1,1714,1401,0,0
497,-377,0,0,0,0,0,0,0,0,0,-1,1721,1401,0,0
504,-377,0,0,0,0,0,0,0,0,0,-1,1728,1401,0,0
511,-377,0,0,0,0,0,0,0,0,0,-1,1735,1401,0,0
518,-377,0,0,0,0,0,0,0,0,0,-1,1742,1401,0,0
525,-377,0,0,0,0,0,0,0,0,0,-1,1749,1401,0,0
532,-377,0,0,0,0,0,0,0,0,0,-1,1756,1401,0,0
539,-377,0,0,0,0,0,0,0,0,0,-1,1763,1401,0,0
546,-377,27.8485,2.34094,0,0,0,0,0,0,0,-1,1770,1401,27.8486,-2.34091
553,-377,61.8907,2.39148,0,0,0,0,0,0,0,-1,1777,1401,61.8908,-2.39149
560,-377,38.3577,-2.15015,0,0,0,0,0,0,0,-1,1784,1401,38.3576,2.1501
567,-377,38.4889,-0.285645,0,0,0,0,0,0,0,-1,1791,1401,38.4889,0.2857
574,-377,38.6221,1.61694,0,0,0,0,0,0,0,-1,1798,1401,38.6221,-1.61689
581,-377,39.1818,3.76367,0,0,0,0,0,0,0,-1,1805,1401,39.1818,-3.76366
588,-377,25.882,4.35217,0,0,0,0,0,0,0,-1,1812,1401,25.8819,-4.3522
595,-377,25.5392,5.11804,0,0,0,0,0,0,0,-1,1819,1401,25.5392,-5.11808
602,-377,24.816,5.79126,0,0,0,0,0,0,0,-1,1826,1401,24.816,-5.79124
609,-377,15.0223,4.76135,0,0,0,0,0,0,0,-1,1833,1401,15.0224,-4.76129
616,-377,14.1842,5.78992,0,0,0,0,0,0,0,-1,1840,1401,14.1842,-5.78987
623,-377,15.8248,8.76721,0,0,0,0,0,0,0,-1,1847,1401,15.8248,-8.76725
630,-377,36.4652,19.778,0,0,0,0,0,0,0,-1,1854,1401,36.4652,-19.778
637,-377,36.9554,18.6453,0.000750518,0.00116827,-0.00120337,0.00218076,-0.000261963,-0.871331,0.00154856,0.0482102,1861,1401,36.9554,-18.6452
644,-377,37.1248,17.8672,0.000576786,0.000702759,-0.0010043,0.00164605,-0.000366502,-0.816716,0.00123775,0.0146215,1868,1401,37.1248,-17.8672
651,-377,37.0734,17.1636,0.000737701,0.000442252,-0.000659905,0.00126621,-8.62615e-05,-0.675285,0.000874316,0.0141322,1875,1401,37.0734,-17.1636
658,-377,37.0361,16.5137,0.00126679,0.000391953,-0.000476638,0.0014763,0.000182441,-0.41414,0.000929375,0.0149552,1882,1401,37.0361,-16.5136
665,-377,37.0314,15.8185,0.00197543,0.000464348,-0.000360252,0.00205692,0.000382856,-0.222464,0.00126315,0.019385,1889,1401,37.0314,-15.8185
672,-377,36.9791,15.1139,0.00292771,0.000666991,-0.000311608,0.00296987,0.000624827,-0.134495,0.00180799,0.0202553,1896,1401,36.9791,-15.1139
679,-377,36.9264,14.4402,0.00407871,0.000996799,-0.000306338,0.00410887,0.000966644,-0.0981193,0.00248063,0.0189726,1903,1401,36.9264,-14.4402
686,-377,36.9165,13.7806,0.0054283,0.00145765,-0.000351376,0.00545916,0.0014268,-0.0875863,0.00326932,0.0158158,1910,1401,36.9165,-13.7806
693,-377,36.9463,13.0287,0.00715761,0.00219127,-0.000570819,0.00722237,0.00212651,-0.112975,0.0042857,0.0214134,1917,1401,36.9463,-13.0286
700,-377,37.0959,12.176,0,0,0,0,0,0,0,-1,1924,1401,37.096,-12.1761
707,-377,28.6234,9.18152,0,0,0,0,0,0,0,-1,1931,1401,28.6234,-9.18151
714,-377,16.5369,5.45959,0,0,0,0,0,0,0,-1,1938,1401,16.5369,-5.4596
721,-377,17.0913,5.42529,0,0,0,0,0,0,0,-1,1945,1401,17.0914,-5.42529
728,-377,14.5396,2.79724,0,0,0,0,0,0,0,-1,1952,1401,14.5396,-2.7972
735,-377,23.2977,-0.991089,0,0,0,0,0,0,0,-1,1959,1401,23.2978,0.991076
742,-377,0,0,0,0,0,0,0,0,0,-1,1966,1401,0,0
749,-377,0,0,0,0,0,0,0,0,0,-1,1973,1401,0,0
756,-377,0,0,0,0,0,0,0,0,0,-1,1980,1401,0,0
763,-377,0,0,0,0,0,0,0,0,0,-1,1987,1401,0,0
770,-377,0,0,0,0,0,0,0,0,0,-1,1994,1401,0,0
777,-377,0,0,0,0,0,0,0,0,0,-1,2001,1401,0,0
784,-377,0,0,0,0,0,0,0,0,0,-1,2008,1401,0,0
791,-377,0,0,0,0,0,0,0,0,0,-1,2015,1401,0,0
798,-377,0,0,0,0,0,0,0,0,0,-1,2022,1401,0,0
805,-377,0,0,0,0,0,0,0,0,0,-1,2029,1401,0,0
812,-377,0,0,0,0,0,0,0,0,0,-1,2036,1401,0,0
-700,-384,0,0,0,0,0,0,0,0,0,-1,524,1408,0,0
-693,-384,0,0,0,0,0,0,0,0,0,-1,531,1408,0,0
-686,-384,0,0,0,0,0,0,0,0,0,-1,538,1408,0,0
-679,-384,0,0,0,0,0,0,0,0,0,-1,545,1408,0,0
-672,-384,0,0,0,0,0,0,0,0,0,-1,552,1408,0,0
-665,-384,0,0,0,0,0,0,0,0,0,-1,559,1408,0,0
-658,-384,0,0,0,0,0,0,0,0,0,-1,566,1408,0,0
-651,-384,0,0,0,0,0,0,0,0,0,-1,573,1408,0,0
-644,-384,0,0,0,0,0,0,0,0,0,-1,580,1408,0,0
-637,-384,0,0,0,0,0,0,0,0,0,-1,587,1408,0,0
-630,-384,0,0,0,0,0,0,0,0,0,-1,594,1408,0,0
-623,-384,0,0,0,0,0,0,0,0,0,-1,601,1408,0,0
-616,-384,-10.019,-3.36646,0,0,0,0,0,0,0,-1,608,1408,-10.019,3.36648
-609,-384,-7.72357,-2.3418,0,0,0,0,0,0,0,-1,615,1408,-7.72358,2.34182
-602,-384,-11.7632,-2.85156,0,0,0,0,0,0,0,-1,622,1408,-11.7632,2.85157
-595,-384,-10.2217,2.8855,0,0,0,0,0,0,0,-1,629,1408,-10.2218,-2.88548
-588,-384,-12.1653,2.29041,0,0,0,0,0,0,0,-1,636,1408,-12.1654,-2.29038
-581,-384,-11.9297,3.60376,0,0,0,0,0,0,0,-1,643,1408,-11.9298,-3.6038
-574,-384,-11.8677,6.02722,0,0,0,0,0,0,0,-1,650,1408,-11.8677,-6.02722
-567,-384,-12.0743,7.04639,0,0,0,0,0,0,0,-1,657,1408,-12.0743,-7.04641
-560,-384,-19.7866,11.3877,0,0,0,0,0,0,0,-1,664,1408,-19.7866,-11.3877
-553,-384,-19.6111,12.2833,0.00463045,0.00211769,0.00281183,0.00645382,0.000294314,0.575295,0.00420788,0.0499876,671,1408,-19.6112,-12.2833
-546,-384,-19.5952,13.1128,0.00375202,0.00151528,0.00215675,0.00506312,0.000204182,0.546212,0.00330945,0.0167876,678,1408,-19.5951,-13.1127
-539,-384,-19.6575,13.8153,0.00312193,0.0010757,0.00168675,0.00407161,0.000126022,0.512783,0.00267339,0.0181108,685,1408,-19.6575,-13.8153
-532,-384,-19.6595,14.488,0.00271135,0.000766284,0.00137947,0.00342664,5.09894e-05,0.47836,0.00226762,0.0232956,692,1408,-19.6595,-14.4881
-525,-384,-19.662,15.2664,0.00251022,0.000631225,0.00125062,0.00313492,6.52787e-06,0.463256,0.00208777,0.0230391,699,1408,-19.662,-15.2664
-518,-384,-19.7222,15.9907,0.00247539,0.000600906,0.00126324,0.00311111,-3.48061e-05,0.466237,0.00208577,0.0138435,706,1408,-19.7222,-15.9908
-511,-384,-19.7639,16.7306,0.00263175,0.000731726,0.00142978,0.00339835,-3.48822e-05,0.492166,0.00227729,0.0108914,713,1408,-19.7639,-16.7305
-504,-384,-19.7982,17.4705,0.00302129,0.00104012,0.00180005,0.00408532,-2.39073e-05,0.533858,0.00273155,0.0124562,720,1408,-19.7982,-17.4705
-497,-384,-19.7901,18.2306,0.00367272,0.00154424,0.00242079,0.00525288,-3.59181e-05,0.578302,0.00351395,0.0410835,727,1408,-19.7901,-18.2305
-490,-384,-19.6489,19.0902,0,0,0,0,0,0,0,-1,734,1408,-19.6489,-19.0902
-483,-384,-6.26471,7.61194,0,0,0,0,0,0,0,-1,741,1408,-6.26469,-7.61191
-476,-384,-6.02734,5.67761,0,0,0,0,0,0,0,-1,748,1408,-6.02736,-5.6776
-469,-384,-10.206,2.63721,0,0,0,0,0,0,0,-1,755,1408,-10.206,-2.6372
-462,-384,-9.04291,1.43542,0,0,0,0,0,0,0,-1,762,1408,-9.04293,-1.43545
-455,-384,-7.87988,0.233765,0,0,0,0,0,0,0,-1,769,1408,-7.87986,-0.233709
-448,-384,-9.35529,7.19226,0,0,0,0,0,0,0,-1,776,1408,-9.35531,-7.19226
-441,-384,-10.4697,1.79004,0,0,0,0,0,0,0,-1,783,1408,-10.4697,-1.79003
-434,-384,-10.6449,0.552246,0,0,0,0,0,0,0,-1,790,1408,-10.6449,-0.552216
-427,-384,-10.968,1.10583,0,0,0,0,0,0,0,-1,797,1408,-10.968,-1.10588
-420,-384,-12.5607,4.54858,0,0,0,0,0,0,0,-1,804,1408,-12.5607,-4.54859
-413,-384,0,0,0,0,0,0,0,0,0,-1,811,1408,0,0
-406,-384,0,0,0,0,0,0,0,0,0,-1,818,1408,0,0
-399,-384,0,0,0,0,0,0,0,0,0,-1,825,1408,0,0
-392,-384,0,0,0,0,0,0,0,0,0,-1,832,1408,0,0
-385,-384,0,0,0,0,0,0,0,0,0,-1,839,1408,0,0
-378,-384,0,0,0,0,0,0,0,0,0,-1,846,1408,0,0
-371,-384,0,0,0,0,0,0,0,0,0,-1,853,1408,0,0
-364,-384,0,0,0,0,0,0,0,0,0,-1,860,1408,0,0
-357,-384,0,0,0,0,0,0,0,0,0,-1,867,1408,0,0
-350,-384,0,0,0,0,0,0,0,0,0,-1,874,1408,0,0
-343,-384,0,0,0,0,0,0,0,0,0,-1,881,1408,0,0
-336,-384,0,0,0,0,0,0,0,0,0,-1,888,1408,0,0
-329,-384,0,0,0,0,0,0,0,0,0,-1,895,1408,0,0
-322,-384,0,0,0,0,0,0,0,0,0,-1,902,1408,0,0
-315,-384,0,0,0,0,0,0,0,0,0,-1,909,1408,0,0
-308,-384,0,0,0,0,0,0,0,0,0,-1,916,1408,0,0
-301,-384,0,0,0,0,0,0,0,0,0,-1,923,1408,0,0
-294,-384,0,0,0,0,0,0,0,0,0,-1,930,1408,0,0
-287,-384,0,0,0,0,0,0,0,0,0,-1,937,1408,0,0
-280,-384,0,0,0,0,0,0,0,0,0,-1,944,1408,0,0
-273,-384,0,0,0,0,0,0,0,0,0,-1,951,1408,0,0
-266,-384,0,0,0,0,0,0,0,0,0,-1,958,1408,0,0
-259,-384,0,0,0,0,0,0,0,0,0,-1,965,1408,0,0
-252,-384,0,0,0,0,0,0,0,0,0,-1,972,1408,0,0
-245,-384,0,0,0,0,0,0,0,0,0,-1,979,1408,0,0
-238,-384,0,0,0,0,0,0,0,0,0,-1,986,1408,0,0
-231,-384,0,0,0,0,0,0,0,0,0,-1,993,1408,0,0
-224,-384,0,0,0,0,0,0,0,0,0,-1,1000,1408,0,0
-217,-384,0,0,0,0,0,0,0,0,0,-1,1007,1408,0,0
-210,-384,0,0,0,0,0,0,0,0,0,-1,1014,1408,0,0
-203,-384,0,0,0,0,0,0,0,0,0,-1,1021,1408,0,0
-196,-384,0,0,0,0,0,0,0,0,0,-1,1028,1408,0,0
-189,-384,0,0,0,0,0,0,0,0,0,-1,1035,1408,0,0
-182,-384,0,0,0,0,0,0,0,0,0,-1,1042,1408,0,0
-175,-384,0,0,0,0,0,0,0,0,0,-1,1049,1408,0,0
-168,-384,0,0,0,0,0,0,0,0,0,-1,1056,1408,0,0
-161,-384,0,0,0,0,0,0,0,0,0,-1,1063,1408,0,0
-154,-384,0,0,0,0,0,0,0,0,0,-1,1070,1408,0,0
-147,-384,0,0,0,0,0,0,0,0,0,-1,1077,1408,0,0
-140,-384,0,0,0,0,0,0,0,0,0,-1,1084,1408,0,0
-133,-384,0,0,0,0,0,0,0,0,0,-1,1091,1408,0,0
-126,-384,0,0,0,0,0,0,0,0,0,-1,1098,1408,0,0
-119,-384,0,0,0,0,0,0,0,0,0,-1,1105,1408,0,0
-112,-384,0,0,0,0,0,0,0,0,0,-1,1112,1408,0,0
-105,-384,0,0,0,0,0,0,0,0,0,-1,1119,1408,0,0
-98,-384,0,0,0,0,0,0,0,0,0,-1,1126,1408,0,0
-91,-384,0,0,0,0,0,0,0,0,0,-1,1133,1408,0,0
-84,-384,0,0,0,0,0,0,0,0,0,-1,1140,1408,0,0
-77,-384,0,0,0,0,0,0,0,0,0,-1,1147,1408,0,0
-70,-384,0,0,0,0,0,0,0,0,0,-1,1154,1408,0,0
-63,-384,0,0,0,0,0,0,0,0,0,-1,1161,1408,0,0
-56,-384,0,0,0,0,0,0,0,0,0,-1,1168,1408,0,0
-49,-384,0,0,0,0,0,0,0,0,0,-1,1175,1408,0,0
-42,-384,0,0,0,0,0,0,0,0,0,-1,1182,1408,0,0
-35,-384,0,0,0,0,0,0,0,0,0,-1,1189,1408,0,0
-28,-384,0,0,0,0,0,0,0,0,0,-1,1196,1408,0,0
-21,-384,0,0,0,0,0,0,0,0,0,-1,1203,1408,0,0
-14,-384,0,0,0,0,0,0,0,0,0,-1,1210,1408,0,0
-7,-384,0,0,0,0,0,0,0,0,0,-1,1217,1408,0,0
0,-384,0,0,0,0,0,0,0,0,0,-1,1224,1408,0,0
7,-384,0,0,0,0,0,0,0,0,0,-1,1231,1408,0,0
14,-384,0,0,0,0,0,0,0,0,0,-1,1238,1408,0,0
21,-384,0,0,0,0,0,0,0,0,0,-1,1245,1408,0,0
28,-384,0,0,0,0,0,0,0,0,0,-1,1252,1408,0,0
35,-384,0,0,0,0,0,0,0,0,0,-1,1259,1408,0,0
42,-384,0,0,0,0,0,0,0,0,0,-1,1266,1408,0,0
49,-384,0,0,0,0,0,0,0,0,0,-1,1273,1408,0,0
56,-384,0,0,0,0,0,0,0,0,0,-1,1280,1408,0,0
63,-384,0,0,0,0,0,0,0,0,0,-1,1287,1408,0,0
70,-384,0,0,0,0,0,0,0,0,0,-1,1294,1408,0,0
77,-384,0,0,0,0,0,0,0,0,0,-1,1301,1408,0,0
84,-384,0,0,0,0,0,0,0,0,0,-1,1308,1408,0,0
91,-384,0,0,0,0,0,0,0,0,0,-1,1315,1408,0,0
98,-384,0,0,0,0,0,0,0,0,0,-1,1322,1408,0,0
105,-384,0,0,0,0,0,0,0,0,0,-1,1329,1408,0,0
112,-384,0,0,0,0,0,0,0,0,0,-1,1336,1408,0,0
119,-384,0,0,0,0,0,0,0,0,0,-1,1343,1408,0,0
126,-384,0,0,0,0,0,0,0,0,0,-1,1350,1408,0,0
133,-384,0,0,0,0,0,0,0,0,0,-1,1357,1408,0,0
140,-384,0,0,0,0,0,0,0,0,0,-1,1364,1408,0,0
147,-384,0,0,0,0,0,0,0,0,0,-1,1371,1408,0,0
154,-384,0,0,0,0,0,0,0,0,0,-1,1378,1408,0,0
161,-384,0,0,0,0,0,0,0,0,0,-1,1385,1408,0,0
168,-384,0,0,0,0,0,0,0,0,0,-1,1392,1408,0,0
175,-384,0,0,0,0,0,0,0,0,0,-1,1399,1408,0,0
182,-384,0,0,0,0,0,0,0,0,0,-1,1406,1408,0,0
189,-384,0,0,0,0,0,0,0,0,0,-1,1413,1408,0,0
196,-384,0,0,0,0,0,0,0,0,0,-1,1420,1408,0,0
203,-384,0,0,0,0,0,0,0,0,0,-1,1427,1408,0,0
210,-384,0,0,0,0,0,0,0,0,0,-1,1434,1408,0,0
217,-384,0,0,0,0,0,0,0,0,0,-1,1441,1408,0,0
224,-384,0,0,0,0,0,0,0,0,0,-1,1448,1408,0,0
231,-384,0,0,0,0,0,0,0,0,0,-1,1455,1408,0,0
238,-384,0,0,0,0,0,0,0,0,0,-1,1462,1408,0,0
245,-384,0,0,0,0,0,0,0,0,0,-1,1469,1408,0,0
252,-384,0,0,0,0,0,0,0,0,0,-1,1476,1408,0,0
259,-384,0,0,0,0,0,0,0,0,0,-1,1483,1408,0,0
266,-384,0,0,0,0,0,0,0,0,0,-1,1490,1408,0,0
273,-384,0,0,0,0,0,0,0,0,0,-1,1497,1408,0,0
280,-384,0,0,0,0,0,0,0,0,0,-1,1504,1408,0,0
287,-384,0,0,0,0,0,0,0,0,0,-1,1511,1408,0,0
294,-384,0,0,0,0,0,0,0,0,0,-1,1518,1408,0,0
301,-384,0,0,0,0,0,0,0,0,0,-1,1525,1408,0,0
308,-384,0,0,0,0,0,0,0,0,0,-1,1532,1408,0,0
315,-384,0,0,0,0,0,0,0,0,0,-1,1539,1408,0,0
322,-384,0,0,0,0,0,0,0,0,0,-1,1546,1408,0,0
329,-384,0,0,0,0,0,0,0,0,0,-1,1553,1408,0,0
336,-384,0,0,0,0,0,0,0,0,0,-1,1560,1408,0,0
343,-384,0,0,0,0,0,0,0,0,0,-1,1567,1408,0,0
350,-384,0,0,0,0,0,0,0,0,0,-1,1574,1408,0,0
357,-384,0,0,0,0,0,0,0,0,0,-1,1581,1408,0,0
364,-384,0,0,0,0,0,0,0,0,0,-1,1588,1408,0,0
371,-384,0,0,0,0,0,0,0,0,0,-1,1595,1408,0,0
378,-384,0,0,0,0,0,0,0,0,0,-1,1602,1408,0,0
385,-384,0,0,0,0,0,0,0,0,0,-1,1609,1408,0,0
392,-384,0,0,0,0,0,0,0,0,0,-1,1616,1408,0,0
399,-384,0,0,0,0,0,0,0,0,0,-1,1623,1408,0,0
406,-384,0,0,0,0,0,0,0,0,0,-1,1630,1408,0,0
413,-384,0,0,0,0,0,0,0,0,0,-1,1637,1408,0,0
420,-384,0,0,0,0,0,0,0,0,0,-1,1644,1408,0,0
427,-384,0,0,0,0,0,0,0,0,0,-1,1651,1408,0,0
434,-384,0,0,0,0,0,0,0,0,0,-1,1658,1408,0,0
441,-384,0,0,0,0,0,0,0,0,0,-1,1665,1408,0,0
448,-384,0,0,0,0,0,0,0,0,0,-1,1672,1408,0,0
455,-384,0,0,0,0,0,0,0,0,0,-1,1679,1408,0,0
462,-384,0,0,0,0,0,0,0,0,0,-1,1686,1408,0,0
469,-384,0,0,0,0,0,0,0,0,0,-1,1693,1408,0,0
476,-384,0,0,0,0,0,0,0,0,0,-1,1700,1408,0,0
483,-384,0,0,0,0,0,0,0,0,0,-1,1707,1408,0,0
490,-384,0,0,0,0,0,0,0,0,0,-1,1714,1408,0,0
497,-384,0,0,0,0,0,0,0,0,0,-1,1721,1408,0,0
504,-384,0,0,0,0,0,0,0,0,0,-1,1728,1408,0,0
511,-384,0,0,0,0,0,0,0,0,0,-1,1735,1408,0,0
518,-384,0,0,0,0,0,0,0,0,0,-1,1742,1408,0,0
525,-384,0,0,0,0,0,0,0,0,0,-1,1749,1408,0,0
532,-384,0,0,0,0,0,0,0,0,0,-1,1756,1408,0,0
539,-384,27.6886,2.85803,0,0,0,0,0,0,0,-1,1763,1408,27.6886,-2.85807
546,-384,27.5044,2.9425,0,0,0,0,0,0,0,-1,1770,1408,27.5044,-2.94255
553,-384,27.3052,2.78394,0,0,0,0,0,0,0,-1,1777,1408,27.3051,-2.78394
560,-384,26.833,3.19812,0,0,0,0,0,0,0,-1,1784,1408,26.833,-3.19816
567,-384,38.2566,0.109985,0,0,0,0,0,0,0,-1,1791,1408,38.2566,-0.110044
574,-384,38.4003,2.05945,0,0,0,0,0,0,0,-1,1798,1408,38.4003,-2.05949
581,-384,25.819,3.91846,0,0,0,0,0,0,0,-1,1805,1408,25.8189,-3.91848
588,-384,23.3721,4.25439,0,0,0,0,0,0,0,-1,1812,1408,23.3721,-4.25442
595,-384,24.981,5.59595,0,0,0,0,0,0,0,-1,1819,1408,24.981,-5.59598
602,-384,20.6605,4.17261,0,0,0,0,0,0,0,-1,1826,1408,20.6606,-4.17265
609,-384,14.158,5.49475,0,0,0,0,0,0,0,-1,1833,1408,14.158,-5.49474
616,-384,14.7997,7.6908,0,0,0,0,0,0,0,-1,1840,1408,14.7996,-7.69079
623,-384,16.4293,9.58899,0,0,0,0,0,0,0,-1,1847,1408,16.4294,-9.58901
630,-384,36.3724,19.3459,0,0,0,0,0,0,0,-1,1854,1408,36.3724,-19.3459
637,-384,36.4357,18.5842,0.00102008,0.000878274,-0.000947196,0.00189903,-6.66536e-07,-0.748039,0.00126624,0.0249021,1861,1408,36.4357,-18.5843
644,-384,36.3732,17.9229,0.00090752,0.000523328,-0.000811541,0.00154939,-0.000118543,-0.669184,0.00107462,0.0172228,1868,1408,36.3731,-17.9228
651,-384,36.3328,17.1976,0.00113365,0.00040399,-0.000572601,0.00144777,8.98706e-05,-0.501755,0.000936662,0.0160335,1875,1408,36.3328,-17.1977
658,-384,36.3049,16.4967,0.00165546,0.00043328,-0.000431351,0.00179237,0.000296377,-0.307327,0.00110939,0.0162906,1882,1408,36.3049,-16.4967
665,-384,36.327,15.8527,0.00237277,0.000593078,-0.000329158,0.0024317,0.000534151,-0.177148,0.00147567,0.0181964,1889,1408,36.327,-15.8526
672,-384,36.3044,15.1541,0.00334708,0.000884422,-0.000261178,0.00337448,0.000857027,-0.104506,0.00202535,0.016485,1896,1408,36.3045,-15.154
679,-384,36.2483,14.4426,0.00452299,0.00130367,-0.000196586,0.00453495,0.00129171,-0.0607636,0.00269785,0.0159992,1903,1408,36.2483,-14.4427
686,-384,36.2126,13.7971,0.00589865,0.00183886,-0.000127657,0.00590266,0.00183485,-0.0314029,0.00348824,0.0131814,1910,1408,36.2127,-13.7971
693,-384,36.2887,13.1122,0.00771409,0.0027021,-0.000204532,0.00772242,0.00269377,-0.0407184,0.00452596,0.0358377,1917,1408,36.2886,-13.1122
700,-384,36.4171,12.4548,0,0,0,0,0,0,0,-1,1924,1408,36.4171,-12.4549
707,-384,17.0566,6.62842,0,0,0,0,0,0,0,-1,1931,1408,17.0567,-6.62848
714,-384,16.038,5.0282,0,0,0,0,0,0,0,-1,1938,1408,16.038,-5.02819
721,-384,13.8843,2.8717,0,0,0,0,0,0,0,-1,1945,1408,13.8843,-2.87171
728,-384,15.4409,6.25745,0,0,0,0,0,0,0,-1,1952,1408,15.4409,-6.2574
735,-384,16.7598,6.71289,0,0,0,0,0,0,0,-1,1959,1408,16.7598,-6.71287
742,-384,0,0,0,0,0,0,0,0,0,-1,1966,1408,0,0
749,-384,0,0,0,0,0,0,0,0,0,-1,1973,1408,0,0
756,-384,0,0,0,0,0,0,0,0,0,-1,1980,1408,0,0
763,-384,0,0,0,0,0,0,0,0,0,-1,1987,1408,0,0
770,-384,0,0,0,0,0,0,0,0,0,-1,1994,1408,0,0
777,-384,0,0,0,0,0,0,0,0,0,-1,2001,1408,0,0
784,-384,0,0,0,0,0,0,0,0,0,-1,2008,1408,0,0
791,-384,0,0,0,0,0,0,0,0,0,-1,2015,1408,0,0
798,-384,0,0,0,0,0,0,0,0,0,-1,2022,1408,0,0
805,-384,0,0,0,0,0,0,0,0,0,-1,2029,1408,0,0
812,-384,0,0,0,0,0,0,0,0,0,-1,2036,1408,0,0
-700,-391,0,0,0,0,0,0,0,0,0,-1,524,1415,0,0
-693,-391,0,0,0,0,0,0,0,0,0,-1,531,1415,0,0
-686,-391,0,0,0,0,0,0,0,0,0,-1,538,1415,0,0
-679,-391,0,0,0,0,0,0,0,0,0,-1,545,1415,0,0
-672,-391,0,0,0,0,0,0,0,0,0,-1,552,1415,0,0
-665,-391,0,0,0,0,0,0,0,0,0,-1,559,1415,0,0
-658,-391,0,0,0,0,0,0,0,0,0,-1,566,1415,0,0
-651,-391,0,0,0,0,0,0,0,0,0,-1,573,1415,0,0
-644,-391,0,0,0,0,0,0,0,0,0,-1,580,1415,0,0
-637,-391,0,0,0,0,0,0,0,0,0,-1,587,1415,0,0
-630,-391,0,0,0,0,0,0,0,0,0,-1,594,1415,0,0
-623,-391,0,0,0,0,0,0,0,0,0,-1,601,1415,0,0
-616,-391,0,0,0,0,0,0,0,0,0,-1,608,1415,0,0
-609,-391,-7.71753,-3.69763,0,0,0,0,0,0,0,-1,615,1415,-7.71751,3.69759
-602,-391,-13.9493,-4.12805,0,0,0,0,0,0,0,-1,622,1415,-13.9493,4.12803
-595,-391,-10.8315,1.76172,0,0,0,0,0,0,0,-1,629,1415,-10.8315,-1.76171
-588,-391,-10.265,2.16431,0,0,0,0,0,0,0,-1,636,1415,-10.265,-2.16431
-581,-391,-11.3325,2.44836,0,0,0,0,0,0,0,-1,643,1415,-11.3325,-2.44842
-574,-391,-11.1471,6.19983,0,0,0,0,0,0,0,-1,650,1415,-11.1471,-6.19981
-567,-391,-11.5172,6.82458,0,0,0,0,0,0,0,-1,657,1415,-11.5171,-6.82454
-560,-391,-11.2459,7.37195,0,0,0,0,0,0,0,-1,664,1415,-11.2459,-7.37191
-553,-391,-18.948,12.142,0,0,0,0,0,0,0,-1,671,1415,-18.948,-12.1419
-546,-391,-18.894,13.1063,0.00420102,0.00190135,0.00246185,0.00576832,0.000334048,0.566923,0.00373918,0.0183795,678,1415,-18.894,-13.1064
-539,-391,-18.8799,13.8628,0.00336996,0.00133297,0.00185931,0.00447146,0.000231471,0.53483,0.00290689,0.0145107,685,1415,-18.88,-13.8628
-532,-391,-18.9469,14.5782,0.00278354,0.000902499,0.00143599,0.00355959,0.000126443,0.49547,0.00233206,0.0258732,692,1415,-18.9469,-14.5783
-525,-391,-19.0049,15.2983,0.00244334,0.000695549,0.00123057,0.00307875,6.014e-05,0.476644,0.00203275,0.0244485,699,1415,-19.0049,-15.2983
-518,-391,-19.0096,16.0381,0.00228213,0.000623936,0.00118487,0.00289918,6.8933e-06,0.480123,0.00193049,0.0150646,706,1415,-19.0096,-16.038
-511,-391,-19.0276,16.7776,0.00229763,0.000704389,0.00128044,0.00300904,-7.01612e-06,0.507127,0.00200837,0.0149129,713,1415,-19.0276,-16.7776
-504,-391,-19.0665,17.5148,0.00252184,0.000957267,0.00155401,0.00347935,-2.46917e-07,0.552216,0.00231965,0.0136026,720,1415,-19.0665,-17.5148
-497,-391,-19.0925,18.2448,0.00297186,0.00138757,0.0020354,0.00436382,-4.40143e-06,0.599824,0.00291068,0.0142204,727,1415,-19.0925,-18.2448
-490,-391,-19.0615,18.9888,0,0,0,0,0,0,0,-1,734,1415,-19.0615,-18.9888
-483,-391,-11.1018,12.9382,0,0,0,0,0,0,0,-1,741,1415,-11.1018,-12.9382
-476,-391,-6.05731,6.85303,0,0,0,0,0,0,0,-1,748,1415,-6.05728,-6.85304
-469,-391,-3.88953,5.0979,0,0,0,0,0,0,0,-1,755,1415,-3.88955,-5.09794
-462,-391,-8.67688,2.03125,0,0,0,0,0,0,0,-1,762,1415,-8.67685,-2.03121
-455,-391,-8.65576,6.46997,0,0,0,0,0,0,0,-1,769,1415,-8.65579,-6.46999
-448,-391,-8.39618,4.38403,0,0,0,0,0,0,0,-1,776,1415,-8.39617,-4.38405
-441,-391,-9.77704,2.5946,0,0,0,0,0,0,0,-1,783,1415,-9.77702,-2.5946
-434,-391,-11.5403,2.12878,0,0,0,0,0,0,0,-1,790,1415,-11.5403,-2.12881
-427,-391,-10.5311,2.50403,0,0,0,0,0,0,0,-1,797,1415,-10.5311,-2.504
-420,-391,-14.7087,1.24365,0,0,0,0,0,0,0,-1,804,1415,-14.7088,-1.24365
-413,-391,0,0,0,0,0,0,0,0,0,-1,811,1415,0,0
-406,-391,0,0,0,0,0,0,0,0,0,-1,818,1415,0,0
-399,-391,0,0,0,0,0,0,0,0,0,-1,825,1415,0,0
-392,-391,0,0,0,0,0,0,0,0,0,-1,832,1415,0,0
-385,-391,0,0,0,0,0,0,0,0,0,-1,839,1415,0,0
-378,-391,0,0,0,0,0,0,0,0,0,-1,846,1415,0,0
-371,-391,0,0,0,0,0,0,0,0,0,-1,853,1415,0,0
-364,-391,0,0,0,0,0,0,0,0,0,-1,860,1415,0,0
-357,-391,0,0,0,0,0,0,0,0,0,-1,867,1415,0,0
-350,-391,0,0,0,0,0,0,0,0,0,-1,874,1415,0,0
-343,-391,0,0,0,0,0,0,0,0,0,-1,881,1415,0,0
-336,-391,0,0,0,0,0,0,0,0,0,-1,888,1415,0,0
-329,-391,0,0,0,0,0,0,0,0,0,-1,895,1415,0,0
-322,-391,0,0,0,0,0,0,0,0,0,-1,902,1415,0,0
-315,-391,0,0,0,0,0,0,0,0,0,-1,909,1415,0,0
-308,-391,0,0,0,0,0,0,0,0,0,-1,916,1415,0,0
-301,-391,0,0,0,0,0,0,0,0,0,-1,923,1415,0,0
-294,-391,0,0,0,0,0,0,0,0,0,-1,930,1415,0,0
-287,-391,0,0,0,0,0,0,0,0,0,-1,937,1415,0,0
-280,-391,0,0,0,0,0,0,0,0,0,-1,944,1415,0,0
-273,-391,0,0,0,0,0,0,0,0,0,-1,951,1415,0,0
-266,-391,0,0,0,0,0,0,0,0,0,-1,958,1415,0,0
-259,-391,0,0,0,0,0,0,0,0,0,-1,965,1415,0,0
-252,-391,0,0,0,0,0,0,0,0,0,-1,972,1415,0,0
-245,-391,0,0,0,0,0,0,0,0,0,-1,979,1415,0,0
-238,-391,0,0,0,0,0,0,0,0,0,-1,986,1415,0,0
-231,-391,0,0,0,0,0,0,0,0,0,-1,993,1415,0,0
-224,-391,0,0,0,0,0,0,0,0,0,-1,1000,1415,0,0
-217,-391,0,0,0,0,0,0,0,0,0,-1,1007,1415,0,0
-210,-391,0,0,0,0,0,0,0,0,0,-1,1014,1415,0,0
-203,-391,0,0,0,0,0,0,0,0,0,-1,1021,1415,0,0
-196,-391,0,0,0,0,0,0,0,0,0,-1,1028,1415,0,0
-189,-391,0,0,0,0,0,0,0,0,0,-1,1035,1415,0,0
-182,-391,0,0,0,0,0,0,0,0,0,-1,1042,1415,0,0
-175,-391,0,0,0,0,0,0,0,0,0,-1,1049,1415,0,0
-168,-391,0,0,0,0,0,0,0,0,0,-1,1056,1415,0,0
-161,-391,0,0,0,0,0,0,0,0,0,-1,1063,1415,0,0
-154,-391,0,0,0,0,0,0,0,0,0,-1,1070,1415,0,0
-147,-391,0,0,0,0,0,0,0,0,0,-1,1077,1415,0,0
-140,-391,0,0,0,0,0,0,0,0,0,-1,1084,1415,0,0
-133,-391,0,0,0,0,0,0,0,0,0,-1,1091,1415,0,0
-126,-391,0,0,0,0,0,0,0,0,0,-1,1098,1415,0,0
-119,-391,0,0,0,0,0,0,0,0,0,-1,1105,1415,0,0
-112,-391,0,0,0,0,0,0,0,0,0,-1,1112,1415,0,0
-105,-391,0,0,0,0,0,0,0,0,0,-1,1119,1415,0,0
-98,-391,0,0,0,0,0,0,0,0,0,-1,1126,1415,0,0
-91,-391,0,0,0,0,0,0,0,0,0,-1,1133,1415,0,0
-84,-391,0,0,0,0,0,0,0,0,0,-1,1140,1415,0,0
-77,-391,0,0,0,0,0,0,0,0,0,-1,1147,1415,0,0
-70,-391,0,0,0,0,0,0,0,0,0,-1,1154,1415,0,0
-63,-391,0,0,0,0,0,0,0,0,0,-1,1161,1415,0,0
-56,-391,0,0,0,0,0,0,0,0,0,-1,1168,1415,0,0
-49,-391,0,0,0,0,0,0,0,0,0,-1,1175,1415,0,0
-42,-391,0,0,0,0,0,0,0,0,0,-1,1182,1415,0,0
-35,-391,0,0,0,0,0,0,0,0,0,-1,1189,1415,0,0
-28,-391,0,0,0,0,0,0,0,0,0,-1,1196,1415,0,0
-21,-391,0,0,0,0,0,0,0,0,0,-1,1203,1415,0,0
-14,-391,0,0,0,0,0,0,0,0,0,-1,1210,1415,0,0
-7,-391,0,0,0,0,0,0,0,0,0,-1,1217,1415,0,0
0,-391,0,0,0,0,0,0,0,0,0,-1,1224,1415,0,0
7,-391,0,0,0,0,0,0,0,0,0,-1,1231,1415,0,0
14,-391,0,0,0,0,0,0,0,0,0,-1,1238,1415,0,0
21,-391,0,0,0,0,0,0,0,0,0,-1,1245,1415,0,0
28,-391,0,0,0,0,0,0,0,0,0,-1,1252,1415,0,0
35,-391,0,0,0,0,0,0,0,0,0,-1,1259,1415,0,0
42,-391,0,0,0,0,0,0,0,0,0,-1,1266,1415,0,0
49,-391,0,0,0,0,0,0,0,0,0,-1,1273,1415,0,0
56,-391,0,0,0,0,0,0,0,0,0,-1,1280,1415,0,0
63,-391,0,0,0,0,0,0,0,0,0,-1,1287,1415,0,0
70,-391,0,0,0,0,0,0,0,0,0,-1,1294,1415,0,0
77,-391,0,0,0,0,0,0,0,0,0,-1,1301,1415,0,0
84,-391,0,0,0,0,0,0,0,0,0,-1,1308,1415,0,0
91,-391,0,0,0,0,0,0,0,0,0,-1,1315,1415,0,0
98,-391,0,0,0,0,0,0,0,0,0,-1,1322,1415,0,0
105,-391,0,0,0,0,0,0,0,0,0,-1,1329,1415,0,0
112,-391,0,0,0,0,0,0,0,0,0,-1,1336,1415,0,0
119,-391,0,0,0,0,0,0,0,0,0,-1,1343,1415,0,0
126,-391,0,0,0,0,0,0,0,0,0,-1,1350,1415,0,0
133,-391,0,0,0,0,0,0,0,0,0,-1,1357,1415,0,0
140,-391,0,0,0,0,0,0,0,0,0,-1,1364,1415,0,0
147,-391,0,0,0,0,0,0,0,0,0,-1,1371,1415,0,0
154,-391,0,0,0,0,0,0,0,0,0,-1,1378,1415,0,0
161,-391,0,0,0,0,0,0,0,0,0,-1,1385,1415,0,0
168,-391,0,0,0,0,0,0,0,0,0,-1,1392,1415,0,0
175,-391,0,0,0,0,0,0,0,0,0,-1,1399,1415,0,0
182,-391,0,0,0,0,0,0,0,0,0,-1,1406,1415,0,0
189,-391,0,0,0,0,0,0,0,0,0,-1,1413,1415,0,0
196,-391,0,0,0,0,0,0,0,0,0,-1,1420,1415,0,0
203,-391,0,0,0,0,0,0,0,0,0,-1,1427,1415,0,0
210,-391,0,0,0,0,0,0,0,0,0,-1,1434,1415,0,0
217,-391,0,0,0,0,0,0,0,0,0,-1,1441,1415,0,0
224,-391,0,0,0,0,0,0,0,0,0,-1,1448,1415,0,0
231,-391,0,0,0,0,0,0,0,0,0,-1,1455,1415,0,0
238,-391,0,0,0,0,0,0,0,0,0,-1,1462,1415,0,0
245,-391,0,0,0,0,0,0,0,0,0,-1,1469,1415,0,0
252,-391,0,0,0,0,0,0,0,0,0,-1,1476,1415,0,0
259,-391,0,0,0,0,0,0,0,0,0,-1,1483,1415,0,0
266,-391,0,0,0,0,0,0,0,0,0,-1,1490,1415,0,0
273,-391,0,0,0,0,0,0,0,0,0,-1,1497,1415,0,0
280,-391,0,0,0,0,0,0,0,0,0,-1,1504,1415,0,0
287,-391,0,0,0,0,0,0,0,0,0,-1,1511,1415,0,0
294,-391,0,0,0,0,0,0,0,0,0,-1,1518,1415,0,0
301,-391,0,0,0,0,0,0,0,0,0,-1,1525,1415,0,0
308,-391,0,0,0,0,0,0,0,0,0,-1,1532,1415,0,0
315,-391,0,0,0,0,0,0,0,0,0,-1,1539,1415,0,0
322,-391,0,0,0,0,0,0,0,0,0,-1,1546,1415,0,0
329,-391,0,0,0,0,0,0,0,0,0,-1,1553,1415,0,0
336,-391,0,0,0,0,0,0,0,0,0,-1,1560,1415,0,0
343,-391,0,0,0,0,0,0,0,0,0,-1,1567,1415,0,0
350,-391,0,0,0,0,0,0,0,0,0,-1,1574,1415,0,0
357,-391,0,0,0,0,0,0,0,0,0,-1,1581,1415,0,0
364,-391,0,0,0,0,0,0,0,0,0,-1,1588,1415,0,0
371,-391,0,0,0,0,0,0,0,0,0,-1,1595,1415,0,0
378,-391,0,0,0,0,0,0,0,0,0,-1,1602,1415,0,0
385,-391,0,0,0,0,0,0,0,0,0,-1,1609,1415,0,0
392,-391,0,0,0,0,0,0,0,0,0,-1,1616,1415,0,0
399,-391,0,0,0,0,0,0,0,0,0,-1,1623,1415,0,0
406,-391,0,0,0,0,0,0,0,0,0,-1,1630,1415,0,0
413,-391,0,0,0,0,0,0,0,0,0,-1,1637,1415,0,0
420,-391,0,0,0,0,0,0,0,0,0,-1,1644,1415,0,0
427,-391,0,0,0,0,0,0,0,0,0,-1,1651,1415,0,0
434,-391,0,0,0,0,0,0,0,0,0,-1,1658,1415,0,0
441,-391,0,0,0,0,0,0,0,0,0,-1,1665,1415,0,0
448,-391,0,0,0,0,0,0,0,0,0,-1,1672,1415,0,0
455,-391,0,0,0,0,0,0,0,0,0,-1,1679,1415,0,0
462,-391,0,0,0,0,0,0,0,0,0,-1,1686,1415,0,0
469,-391,0,0,0,0,0,0,0,0,0,-1,1693,1415,0,0
476,-391,0,0,0,0,0,0,0,0,0,-1,1700,1415,0,0
483,-391,0,0,0,0,0,0,0,0,0,-1,1707,1415,0,0
490,-391,0,0,0,0,0,0,0,0,0,-1,1714,1415,0,0
497,-391,0,0,0,0,0,0,0,0,0,-1,1721,1415,0,0
504,-391,0,0,0,0,0,0,0,0,0,-1,1728,1415,0,0
511,-391,0,0,0,0,0,0,0,0,0,-1,1735,1415,0,0
518,-391,0,0,0,0,0,0,0,0,0,-1,1742,1415,0,0
525,-391,0,0,0,0,0,0,0,0,0,-1,1749,1415,0,0
532,-391,28.5959,3.02356,0,0,0,0,0,0,0,-1,1756,1415,28.596,-3.02358
539,-391,27.5881,3.25012,0,0,0,0,0,0,0,-1,1763,1415,27.5882,-3.25016
546,-391,27.2837,3.28064,0,0,0,0,0,0,0,-1,1770,1415,27.2837,-3.28064
553,-391,32.5952,5.04553,0,0,0,0,0,0,0,-1,1777,1415,32.5952,-5.04551
560,-391,31.2947,5.67017,0,0,0,0,0,0,0,-1,1784,1415,31.2947,-5.67011
567,-391,30.1473,6.17603,0,0,0,0,0,0,0,-1,1791,1415,30.1473,-6.17602
574,-391,27.5656,5.6842,0,0,0,0,0,0,0,-1,1798,1415,27.5655,-5.68422
581,-391,25.8883,5.76123,0,0,0,0,0,0,0,-1,1805,1415,25.8883,-5.76124
588,-391,24.2717,5.47986,0,0,0,0,0,0,0,-1,1812,1415,24.2717,-5.47982
595,-391,22.8827,6.1991,0,0,0,0,0,0,0,-1,1819,1415,22.8827,-6.19909
602,-391,15.1635,5.69849,0,0,0,0,0,0,0,-1,1826,1415,15.1635,-5.69847
609,-391,14.8285,7.50476,0,0,0,0,0,0,0,-1,1833,1415,14.8285,-7.50479
616,-391,20.7952,12.0503,0,0,0,0,0,0,0,-1,1840,1415,20.7952,-12.0503
623,-391,35.6194,19.8817,0,0,0,0,0,0,0,-1,1847,1415,35.6194,-19.8817
630,-391,35.786,19.2325,0,0,0,0,0,0,0,-1,1854,1415,35.786,-19.2325
637,-391,35.7123,18.5908,0.00122009,0.000691254,-0.000767328,0.00176728,0.000144064,-0.619472,0.00113322,0.0167523,1861,1415,35.7123,-18.5909
644,-391,35.6664,17.938,0.00117989,0.000432426,-0.00067664,0.00157915,3.31646e-05,-0.533082,0.00104189,0.0168021,1868,1415,35.6663,-17.9379
651,-391,35.6488,17.2836,0.00145728,0.000417458,-0.000527203,0.00167781,0.00019693,-0.396181,0.00105902,0.018252,1875,1415,35.6489,-17.2835
658,-391,35.6121,16.5736,0.0020135,0.000542509,-0.000452354,0.00214147,0.000414536,-0.2757,0.00131149,0.0195133,1882,1415,35.6121,-16.5736
665,-391,35.615,15.9059,0.0027825,0.000801312,-0.000383658,0.0028542,0.000729611,-0.184756,0.00171222,0.0160378,1889,1415,35.6149,-15.9059
672,-391,35.5995,15.2148,0.00380099,0.0011967,-0.000304066,0.00383602,0.00116167,-0.1147,0.0022714,0.0132543,1896,1415,35.5995,-15.2149
679,-391,35.5598,14.5006,0.00500909,0.00172605,-0.000174291,0.00501831,0.00171682,-0.0528903,0.00294508,0.0124955,1903,1415,35.5599,-14.5007
686,-391,35.54,13.8225,0.00639722,0.00234453,4.13534e-05,0.00639764,0.0023441,0.0102025,0.00373737,0.0154058,1910,1415,35.54,-13.8225
693,-391,35.61,13.4456,0.00825689,0.00335316,0.00018102,0.00826357,0.00334649,0.0368479,0.00479961,0.0404311,1917,1415,35.61,-13.4456
700,-391,35.9075,13.007,0,0,0,0,0,0,0,-1,1924,1415,35.9074,-13.007
707,-391,12.9524,5.96851,0,0,0,0,0,0,0,-1,1931,1415,12.9524,-5.96849
714,-391,15.6875,7.67896,0,0,0,0,0,0,0,-1,1938,1415,15.6875,-7.67893
721,-391,14.1808,8.08435,0,0,0,0,0,0,0,-1,1945,1415,14.1808,-8.08439
728,-391,13.8102,7.28174,0,0,0,0,0,0,0,-1,1952,1415,13.8102,-7.28174
735,-391,0,0,0,0,0,0,0,0,0,-1,1959,1415,0,0
742,-391,0,0,0,0,0,0,0,0,0,-1,1966,1415,0,0
749,-391,0,0,0,0,0,0,0,0,0,-1,1973,1415,0,0
756,-391,0,0,0,0,0,0,0,0,0,-1,1980,1415,0,0
763,-391,0,0,0,0,0,0,0,0,0,-1,1987,1415,0,0
770,-391,0,0,0,0,0,0,0,0,0,-1,1994,1415,0,0
777,-391,0,0,0,0,0,0,0,0,0,-1,2001,1415,0,0
784,-391,0,0,0,0,0,0,0,0,0,-1,2008,1415,0,0
791,-391,0,0,0,0,0,0,0,0,0,-1,2015,1415,0,0
798,-391,0,0,0,0,0,0,0,0,0,-1,2022,1415,0,0
805,-391,0,0,0,0,0,0,0,0,0,-1,2029,1415,0,0
812,-391,0,0,0,0,0,0,0,0,0,-1,2036,1415,0,0
-700,-398,0,0,0,0,0,0,0,0,0,-1,524,1422,0,0
-693,-398,0,0,0,0,0,0,0,0,0,-1,531,1422,0,0
-686,-398,0,0,0,0,0,0,0,0,0,-1,538,1422,0,0
-679,-398,0,0,0,0,0,0,0,0,0,-1,545,1422,0,0
-672,-398,0,0,0,0,0,0,0,0,0,-1,552,1422,0,0
-665,-398,0,0,0,0,0,0,0,0,0,-1,559,1422,0,0
-658,-398,0,0,0,0,0,0,0,0,0,-1,566,1422,0,0
-651,-398,0,0,0,0,0,0,0,0,0,-1,573,1422,0,0
-644,-398,0,0,0,0,0,0,0,0,0,-1,580,1422,0,0
-637,-398,0,0,0,0,0,0,0,0,0,-1,587,1422,0,0
-630,-398,0,0,0,0,0,0,0,0,0,-1,594,1422,0,0
-623,-398,0,0,0,0,0,0,0,0,0,-1,601,1422,0,0
-616,-398,0,0,0,0,0,0,0,0,0,-1,608,1422,0,0
-609,-398,-7.47125,-4.05322,0,0,0,0,0,0,0,-1,615,1422,-7.47128,4.05317
-602,-398,-4.58868,-2.77026,0,0,0,0,0,0,0,-1,622,1422,-4.58869,2.77023
-595,-398,-12.2224,-1.82007,0,0,0,0,0,0,0,-1,629,1422,-12.2224,1.82006
-588,-398,-10.6939,1.32336,0,0,0,0,0,0,0,-1,636,1422,-10.6939,-1.32337
-581,-398,-10.433,3.1123,0,0,0,0,0,0,0,-1,643,1422,-10.433,-3.11233
-574,-398,-10.4475,5.89807,0,0,0,0,0,0,0,-1,650,1422,-10.4475,-5.89802
-567,-398,-10.4904,6.80115,0,0,0,0,0,0,0,-1,657,1422,-10.4904,-6.80115
-560,-398,-10.5333,7.70435,0,0,0,0,0,0,0,-1,664,1422,-10.5333,-7.70429
-553,-398,-18.2471,12.1943,0,0,0,0,0,0,0,-1,671,1422,-18.2471,-12.1944
-546,-398,-18.2123,13.116,0.00464522,0.00231233,0.00284311,0.00655187,0.000405688,0.590734,0.00423916,0.0323644,678,1422,-18.2123,-13.116
-539,-398,-18.145,13.9252,0.00361969,0.00162184,0.00210422,0.00495005,0.000291471,0.563786,0.0032073,0.0129766,685,1422,-18.145,-13.9252
-532,-398,-18.2088,14.6278,0.00286296,0.00105641,0.00155197,0.00375538,0.000163994,0.521851,0.00245075,0.0206549,692,1422,-18.2088,-14.6278
-525,-398,-18.236,15.3342,0.0024011,0.00077554,0.0012653,0.00309218,8.44556e-05,0.499906,0.00203389,0.0197505,699,1422,-18.2359,-15.3343
-518,-398,-18.2521,16.0591,0.00214186,0.000658835,0.00115044,0.00276905,3.1646e-05,0.499131,0.00183558,0.018252,706,1422,-18.2521,-16.0591
-511,-398,-18.2898,16.7969,0.00205275,0.000693184,0.00117001,0.00272612,1.98138e-05,0.52223,0.00181085,0.0156956,713,1422,-18.2898,-16.7968
-504,-398,-18.325,17.5414,0.00215492,0.000894215,0.00133978,0.00300523,4.39038e-05,0.565518,0.00198901,0.0158437,720,1422,-18.325,-17.5414
-497,-398,-18.3626,18.2711,0.00246533,0.00126642,0.00168098,0.00365055,8.12035e-05,0.614122,0.00240709,0.0105067,727,1422,-18.3626,-18.2711
-490,-398,-18.3824,19.0055,0.00309899,0.00188891,0.00220936,0.00478466,0.000203242,0.651748,0.00312423,0.0204791,734,1422,-18.3824,-19.0055
-483,-398,-18.2126,20.016,0,0,0,0,0,0,0,-1,741,1422,-18.2126,-20.016
-476,-398,-8.64392,11.9448,0,0,0,0,0,0,0,-1,748,1422,-8.6439,-11.9448
-469,-398,-8.91699,10.6276,0,0,0,0,0,0,0,-1,755,1422,-8.91697,-10.6275
-462,-398,-9.59753,9.32532,0,0,0,0,0,0,0,-1,762,1422,-9.59753,-9.32531
-455,-398,-8.08331,6.75024,0,0,0,0,0,0,0,-1,769,1422,-8.08333,-6.75022
-448,-398,-7.4505,5.25293,0,0,0,0,0,0,0,-1,776,1422,-7.4505,-5.25291
-441,-398,-7.61639,3.32141,0,0,0,0,0,0,0,-1,783,1422,-7.61637,-3.32145
-434,-398,-10.7618,3.297,0,0,0,0,0,0,0,-1,790,1422,-10.7618,-3.29704
-427,-398,-11.9061,2.24939,0,0,0,0,0,0,0,-1,797,1422,-11.9061,-2.24941
-420,-398,-13.467,2.32788,0,0,0,0,0,0,0,-1,804,1422,-13.467,-2.32787
-413,-398,-14.7983,2.15515,0,0,0,0,0,0,0,-1,811,1422,-14.7983,-2.15516
-406,-398,0,0,0,0,0,0,0,0,0,-1,818,1422,0,0
-399,-398,0,0,0,0,0,0,0,0,0,-1,825,1422,0,0
-392,-398,0,0,0,0,0,0,0,0,0,-1,832,1422,0,0
-385,-398,0,0,0,0,0,0,0,0,0,-1,839,1422,0,0
-378,-398,0,0,0,0,0,0,0,0,0,-1,846,1422,0,0
-371,-398,0,0,0,0,0,0,0,0,0,-1,853,1422,0,0
-364,-398,0,0,0,0,0,0,0,0,0,-1,860,1422,0,0
-357,-398,0,0,0,0,0,0,0,0,0,-1,867,1422,0,0
-350,-398,0,0,0,0,0,0,0,0,0,-1,874,1422,0,0
-343,-398,0,0,0,0,0,0,0,0,0,-1,881,1422,0,0
-336,-398,0,0,0,0,0,0,0,0,0,-1,888,1422,0,0
-329,-398,0,0,0,0,0,0,0,0,0,-1,895,1422,0,0
-322,-398,0,0,0,0,0,0,0,0,0,-1,902,1422,0,0
-315,-398,0,0,0,0,0,0,0,0,0,-1,909,1422,0,0
-308,-398,0,0,0,0,0,0,0,0,0,-1,916,1422,0,0
-301,-398,0,0,0,0,0,0,0,0,0,-1,923,1422,0,0
-294,-398,0,0,0,0,0,0,0,0,0,-1,930,1422,0,0
-287,-398,0,0,0,0,0,0,0,0,0,-1,937,1422,0,0
-280,-398,0,0,0,0,0,0,0,0,0,-1,944,1422,0,0
-273,-398,0,0,0,0,0,0,0,0,0,-1,951,1422,0,0
-266,-398,0,0,0,0,0,0,0,0,0,-1,958,1422,0,0
-259,-398,0,0,0,0,0,0,0,0,0,-1,965,1422,0,0
-252,-398,0,0,0,0,0,0,0,0,0,-1,972,1422,0,0
-245,-398,0,0,0,0,0,0,0,0,0,-1,979,1422,0,0
-238,-398,0,0,0,0,0,0,0,0,0,-1,986,1422,0,0
-231,-398,0,0,0,0,0,0,0,0,0,-1,993,1422,0,0
-224,-398,0,0,0,0,0,0,0,0,0,-1,1000,1422,0,0
-217,-398,0,0,0,0,0,0,0,0,0,-1,1007,1422,0,0
-210,-398,0,0,0,0,0,0,0,0,0,-1,1014,1422,0,0
-203,-398,0,0,0,0,0,0,0,0,0,-1,1021,1422,0,0
-196,-398,0,0,0,0,0,0,0,0,0,-1,1028,1422,0,0
-189,-398,0,0,0,0,0,0,0,0,0,-1,1035,1422,0,0
-182,-398,0,0,0,0,0,0,0,0,0,-1,1042,1422,0,0
-175,-398,0,0,0,0,0,0,0,0,0,-1,1049,1422,0,0
-168,-398,0,0,0,0,0,0,0,0,0,-1,1056,1422,0,0
-161,-398,0,0,0,0,0,0,0,0,0,-1,1063,1422,0,0
-154,-398,0,0,0,0,0,0,0,0,0,-1,1070,1422,0,0
-147,-398,0,0,0,0,0,0,0,0,0,-1,1077,1422,0,0
-140,-398,0,0,0,0,0,0,0,0,0,-1,1084,1422,0,0
-133,-398,0,0,0,0,0,0,0,0,0,-1,1091,1422,0,0
-126,-398,0,0,0,0,0,0,0,0,0,-1,1098,1422,0,0
-119,-398,0,0,0,0,0,0,0,0,0,-1,1105,1422,0,0
-112,-398,0,0,0,0,0,0,0,0,0,-1,1112,1422,0,0
-105,-398,0,0,0,0,0,0,0,0,0,-1,1119,1422,0,0
-98,-398,0,0,0,0,0,0,0,0,0,-1,1126,1422,0,0
-91,-398,0,0,0,0,0,0,0,0,0,-1,1133,1422,0,0
-84,-398,0,0,0,0,0,0,0,0,0,-1,1140,1422,0,0
-77,-398,0,0,0,0,0,0,0,0,0,-1,1147,1422,0,0
-70,-398,0,0,0,0,0,0,0,0,0,-1,1154,1422,0,0
-63,-398,0,0,0,0,0,0,0,0,0,-1,1161,1422,0,0
-56,-398,0,0,0,0,0,0,0,0,0,-1,1168,1422,0,0
-49,-398,0,0,0,0,0,0,0,0,0,-1,1175,1422,0,0
-42,-398,0,0,0,0,0,0,0,0,0,-1,1182,1422,0,0
-35,-398,0,0,0,0,0,0,0,0,0,-1,1189,1422,0,0
-28,-398,0,0,0,0,0,0,0,0,0,-1,1196,1422,0,0
-21,-398,0,0,0,0,0,0,0,0,0,-1,1203,1422,0,0
-14,-398,0,0,0,0,0,0,0,0,0,-1,1210,1422,0,0
-7,-398,0,0,0,0,0,0,0,0,0,-1,1217,1422,0,0
0,-398,0,0,0,0,0,0,0,0,0,-1,1224,1422,0,0
7,-398,0,0,0,0,0,0,0,0,0,-1,1231,1422,0,0
14,-398,0,0,0,0,0,0,0,0,0,-1,1238,1422,0,0
21,-398,0,0,0,0,0,0,0,0,0,-1,1245,1422,0,0
28,-398,0,0,0,0,0,0,0,0,0,-1,1252,1422,0,0
35,-398,0,0,0,0,0,0,0,0,0,-1,1259,1422,0,0
42,-398,0,0,0,0,0,0,0,0,0,-1,1266,1422,0,0
49,-398,0,0,0,0,0,0,0,0,0,-1,1273,1422,0,0
56,-398,0,0,0,0,0,0,0,0,0,-1,1280,1422,0,0
63,-398,0,0,0,0,0,0,0,0,0,-1,1287,1422,0,0
70,-398,0,0,0,0,0,0,0,0,0,-1,1294,1422,0,0
77,-398,0,0,0,0,0,0,0,0,0,-1,1301,1422,0,0
84,-398,0,0,0,0,0,0,0,0,0,-1,1308,1422,0,0
91,-398,0,0,0,0,0,0,0,0,0,-1,1315,1422,0,0
98,-398,0,0,0,0,0,0,0,0,0,-1,1322,1422,0,0
105,-398,0,0,0,0,0,0,0,0,0,-1,1329,1422,0,0
112,-398,0,0,0,0,0,0,0,0,0,-1,1336,1422,0,0
119,-398,0,0,0,0,0,0,0,0,0,-1,1343,1422,0,0
126,-398,0,0,0,0,0,0,0,0,0,-1,1350,1422,0,0
133,-398,0,0,0,0,0,0,0,0,0,-1,1357,1422,0,0
140,-398,0,0,0,0,0,0,0,0,0,-1,1364,1422,0,0
147,-398,0,0,0,0,0,0,0,0,0,-1,1371,1422,0,0
154,-398,0,0,0,0,0,0,0,0,0,-1,1378,1422,0,0
161,-398,0,0,0,0,0,0,0,0,0,-1,1385,1422,0,0
168,-398,0,0,0,0,0,0,0,0,0,-1,1392,1422,0,0
175,-398,0,0,0,0,0,0,0,0,0,-1,1399,1422,0,0
182,-398,0,0,0,0,0,0,0,0,0,-1,1406,1422,0,0
189,-398,0,0,0,0,0,0,0,0,0,-1,1413,1422,0,0
196,-398,0,0,0,0,0,0,0,0,0,-1,1420,1422,0,0
203,-398,0,0,0,0,0,0,0,0,0,-1,1427,1422,0,0
210,-398,0,0,0,0,0,0,0,0,0,-1,1434,1422,0,0
217,-398,0,0,0,0,0,0,0,0,0,-1,1441,1422,0,0
224,-398,0,0,0,0,0,0,0,0,0,-1,1448,1422,0,0
231,-398,0,0,0,0,0,0,0,0,0,-1,1455,1422,0,0
238,-398,0,0,0,0,0,0,0,0,0,-1,1462,1422,0,0
245,-398,0,0,0,0,0,0,0,0,0,-1,1469,1422,0,0
252,-398,0,0,0,0,0,0,0,0,0,-1,1476,1422,0,0
259,-398,0,0,0,0,0,0,0,0,0,-1,1483,1422,0,0
266,-398,0,0,0,0,0,0,0,0,0,-1,1490,1422,0,0
273,-398,0,0,0,0,0,0,0,0,0,-1,1497,1422,0,0
280,-398,0,0,0,0,0,0,0,0,0,-1,1504,1422,0,0
287,-398,0,0,0,0,0,0,0,0,0,-1,1511,1422,0,0
294,-398,0,0,0,0,0,0,0,0,0,-1,1518,1422,0,0
301,-398,0,0,0,0,0,0,0,0,0,-1,1525,1422,0,0
308,-398,0,0,0,0,0,0,0,0,0,-1,1532,1422,0,0
315,-398,0,0,0,0,0,0,0,0,0,-1,1539,1422,0,0
322,-398,0,0,0,0,0,0,0,0,0,-1,1546,1422,0,0
329,-398,0,0,0,0,0,0,0,0,0,-1,1553,1422,0,0
336,-398,0,0,0,0,0,0,0,0,0,-1,1560,1422,0,0
343,-398,0,0,0,0,0,0,0,0,0,-1,1567,1422,0,0
350,-398,0,0,0,0,0,0,0,0,0,-1,1574,1422,0,0
357,-398,0,0,0,0,0,0,0,0,0,-1,1581,1422,0,0
364,-398,0,0,0,0,0,0,0,0,0,-1,1588,1422,0,0
371,-398,0,0,0,0,0,0,0,0,0,-1,1595,1422,0,0
378,-398,0,0,0,0,0,0,0,0,0,-1,1602,1422,0,0
385,-398,0,0,0,0,0,0,0,0,0,-1,1609,1422,0,0
392,-398,0,0,0,0,0,0,0,0,0,-1,1616,1422,0,0
399,-398,0,0,0,0,0,0,0,0,0,-1,1623,1422,0,0
406,-398,0,0,0,0,0,0,0,0,0,-1,1630,1422,0,0
413,-398,0,0,0,0,0,0,0,0,0,-1,1637,1422,0,0
420,-398,0,0,0,0,0,0,0,0,0,-1,1644,1422,0,0
427,-398,0,0,0,0,0,0,0,0,0,-1,1651,1422,0,0
434,-398,0,0,0,0,0,0,0,0,0,-1,1658,1422,0,0
441,-398,0,0,0,0,0,0,0,0,0,-1,1665,1422,0,0
448,-398,0,0,0,0,0,0,0,0,0,-1,1672,1422,0,0
455,-398,0,0,0,0,0,0,0,0,0,-1,1679,1422,0,0
462,-398,0,0,0,0,0,0,0,0,0,-1,1686,1422,0,0
469,-398,0,0,0,0,0,0,0,0,0,-1,1693,1422,0,0
476,-398,0,0,0,0,0,0,0,0,0,-1,1700,1422,0,0
483,-398,0,0,0,0,0,0,0,0,0,-1,1707,1422,0,0
490,-398,0,0,0,0,0,0,0,0,0,-1,1714,1422,0,0
497,-398,0,0,0,0,0,0,0,0,0,-1,1721,1422,0,0
504,-398,0,0,0,0,0,0,0,0,0,-1,1728,1422,0,0
511,-398,0,0,0,0,0,0,0,0,0,-1,1735,1422,0,0
518,-398,0,0,0,0,0,0,0,0,0,-1,1742,1422,0,0
525,-398,0,0,0,0,0,0,0,0,0,-1,1749,1422,0,0
532,-398,28.4558,3.84094,0,0,0,0,0,0,0,-1,1756,1422,28.4558,-3.8409
539,-398,27.0594,3.33887,0,0,0,0,0,0,0,-1,1763,1422,27.0595,-3.3389
546,-398,31.6873,5.58582,0,0,0,0,0,0,0,-1,1770,1422,31.6872,-5.58585
553,-398,30.4392,5.92383,0,0,0,0,0,0,0,-1,1777,1422,30.4392,-5.92386
560,-398,29.1621,6.30469,0,0,0,0,0,0,0,-1,1784,1422,29.1621,-6.30469
567,-398,27.8411,6.55029,0,0,0,0,0,0,0,-1,1791,1422,27.8411,-6.55033
574,-398,26.411,6.8916,0,0,0,0,0,0,0,-1,1798,1422,26.411,-6.8916
581,-398,24.75,7.11145,0,0,0,0,0,0,0,-1,1805,1422,24.7499,-7.11142
588,-398,23.1649,7.67969,0,0,0,0,0,0,0,-1,1812,1422,23.1649,-7.67975
595,-398,21.4253,7.86023,0,0,0,0,0,0,0,-1,1819,1422,21.4253,-7.86029
602,-398,19.6857,8.04077,0,0,0,0,0,0,0,-1,1826,1422,19.6856,-8.04083
609,-398,21.1835,13.2628,0,0,0,0,0,0,0,-1,1833,1422,21.1835,-13.2628
616,-398,34.7998,20.8674,0,0,0,0,0,0,0,-1,1840,1422,34.7998,-20.8674
623,-398,35.0533,20.1595,0,0,0,0,0,0,0,-1,1847,1422,35.0533,-20.1596
630,-398,35.116,19.3179,0.00171076,0.000889322,-0.000932081,0.0023186,0.000281482,-0.577873,0.00146098,0.0149828,1854,1422,35.116,-19.3178
637,-398,35.0532,18.6409,0.00142172,0.000588994,-0.000737824,0.00185255,0.000158161,-0.528515,0.00118584,0.0149783,1861,1422,35.0532,-18.6409
644,-398,34.947,17.9958,0.00145267,0.000417491,-0.000649721,0.00176577,0.000104396,-0.449055,0.00114397,0.0210218,1868,1422,34.947,-17.9959
651,-398,34.9738,17.3688,0.00178455,0.000502932,-0.000575549,0.00200507,0.00028241,-0.365898,0.00125323,0.0312042,1875,1422,34.9737,-17.3687
658,-398,34.976,16.6776,0.00236992,0.000739309,-0.000557123,0.00254209,0.000567139,-0.299724,0.00154088,0.0278708,1882,1422,34.976,-16.6776
665,-398,34.9183,15.9459,0.00318139,0.0011293,-0.000527939,0.00330925,0.00100144,-0.237605,0.00195959,0.018431,1889,1422,34.9183,-15.9459
672,-398,34.9073,15.2552,0.00422581,0.0016668,-0.000442278,0.0043001,0.00159251,-0.166403,0.00251033,0.0147973,1896,1422,34.9074,-15.2552
679,-398,34.8859,14.5574,0.00544387,0.00236432,-0.00025884,0.00546547,0.00234272,-0.0832728,0.00316618,0.0137936,1903,1422,34.8858,-14.5574
686,-398,34.8655,13.8733,0.00680846,0.0031364,0.000101486,0.00681126,0.0031336,0.0276093,0.00393666,0.0215015,1910,1422,34.8655,-13.8733
693,-398,34.7262,13.2313,0.0086372,0.00440433,0.000471581,0.0086891,0.00435243,0.109619,0.00501666,0.0452865,1917,1422,34.7261,-13.2313
700,-398,34.7668,12.5275,0,0,0,0,0,0,0,-1,1924,1422,34.7668,-12.5274
707,-398,10.9731,5.479,0,0,0,0,0,0,0,-1,1931,1422,10.9732,-5.47896
714,-398,11.7313,6.17346,0,0,0,0,0,0,0,-1,1938,1422,11.7313,-6.17348
721,-398,13.9371,8.05103,0,0,0,0,0,0,0,-1,1945,1422,13.9372,-8.05102
728,-398,14.786,7.0282,0,0,0,0,0,0,0,-1,1952,1422,14.786,-7.0282
735,-398,0,0,0,0,0,0,0,0,0,-1,1959,1422,0,0
742,-398,0,0,0,0,0,0,0,0,0,-1,1966,1422,0,0
749,-398,0,0,0,0,0,0,0,0,0,-1,1973,1422,0,0
756,-398,0,0,0,0,0,0,0,0,0,-1,1980,1422,0,0
763,-398,0,0,0,0,0,0,0,0,0,-1,1987,1422,0,0
770,-398,0,0,0,0,0,0,0,0,0,-1,1994,1422,0,0
777,-398,0,0,0,0,0,0,0,0,0,-1,2001,1422,0,0
784,-398,0,0,0,0,0,0,0,0,0,-1,2008,1422,0,0
791,-398,0,0,0,0,0,0,0,0,0,-1,2015,1422,0,0
798,-398,0,0,0,0,0,0,0,0,0,-1,2022,1422,0,0
805,-398,0,0,0,0,0,0,0,0,0,-1,2029,1422,0,0
812,-398,0,0,0,0,0,0,0,0,0,-1,2036,1422,0,0
-700,-405,0,0,0,0,0,0,0,0,0,-1,524,1429,0,0
-693,-405,0,0,0,0,0,0,0,0,0,-1,531,1429,0,0
-686,-405,0,0,0,0,0,0,0,0,0,-1,538,1429,0,0
-679,-405,0,0,0,0,0,0,0,0,0,-1,545,1429,0,0
-672,-405,0,0,0,0,0,0,0,0,0,-1,552,1429,0,0
-665,-405,0,0,0,0,0,0,0,0,0,-1,559,1429,0,0
-658,-405,0,0,0,0,0,0,0,0,0,-1,566,1429,0,0
-651,-405,0,0,0,0,0,0,0,0,0,-1,573,1429,0,0
-644,-405,0,0,0,0,0,0,0,0,0,-1,580,1429,0,0
-637,-405,0,0,0,0,0,0,0,0,0,-1,587,1429,0,0
-630,-405,0,0,0,0,0,0,0,0,0,-1,594,1429,0,0
-623,-405,0,0,0,0,0,0,0,0,0,-1,601,1429,0,0
-616,-405,0,0,0,0,0,0,0,0,0,-1,608,1429,0,0
-609,-405,0,0,0,0,0,0,0,0,0,-1,615,1429,0,0
-602,-405,-5.80988,-3.46594,0,0,0,0,0,0,0,-1,622,1429,-5.80987,3.46592
-595,-405,-9.35413,2.01477,0,0,0,0,0,0,0,-1,629,1429,-9.35411,-2.01476
-588,-405,-7.35693,0.507202,0,0,0,0,0,0,0,-1,636,1429,-7.35696,-0.507187
-581,-405,-10.1284,1.62927,0,0,0,0,0,0,0,-1,643,1429,-10.1284,-1.62922
-574,-405,-9.32074,3.05896,0,0,0,0,0,0,0,-1,650,1429,-9.32077,-3.0589
-567,-405,-9.68781,6.92163,0,0,0,0,0,0,0,-1,657,1429,-9.68782,-6.92166
-560,-405,-9.28674,7.20886,0,0,0,0,0,0,0,-1,664,1429,-9.28675,-7.20885
-553,-405,-17.4295,12.2814,0,0,0,0,0,0,0,-1,671,1429,-17.4295,-12.2814
-546,-405,-17.4449,13.118,0.00512837,0.00276402,0.00324357,0.00739848,0.000493912,0.610645,0.0047762,0.0471996,678,1429,-17.4449,-13.1181
-539,-405,-17.4572,13.9019,0.00388116,0.00198702,0.00238599,0.00550117,0.000367012,0.59647,0.00355143,0.0139074,685,1429,-17.4572,-13.9018
-532,-405,-17.4653,14.6448,0.00294564,0.00129198,0.00170536,0.00401404,0.00022358,0.559675,0.0026047,0.0160497,692,1429,-17.4653,-14.6448
-525,-405,-17.4983,15.3832,0.00237389,0.000936136,0.00133925,0.00317501,0.000135018,0.539081,0.00207313,0.0147861,699,1429,-17.4983,-15.3832
-518,-405,-17.5184,16.1223,0.00203194,0.000773847,0.00115789,0.00272062,8.51661e-05,0.536568,0.00178603,0.0154408,706,1429,-17.5183,-16.1223
-511,-405,-17.5565,16.85,0.00186729,0.000752113,0.00110562,0.00254796,7.14401e-05,0.551848,0.00167534,0.0163935,713,1429,-17.5565,-16.85
-504,-405,-17.606,17.5688,0.00189225,0.000880275,0.00117809,0.00266841,0.00010411,0.582561,0.00174527,0.0178033,720,1429,-17.606,-17.5689
-497,-405,-17.6273,18.3458,0.00212325,0.00116131,0.00139686,0.00311963,0.000164934,0.619594,0.00202701,0.0148359,727,1429,-17.6273,-18.3459
-490,-405,-17.6611,19.0641,0.0025997,0.00163653,0.00176265,0.00394537,0.000290862,0.652044,0.00253885,0.0139912,734,1429,-17.6611,-19.064
-483,-405,-17.588,19.9,0.00323203,0.00235464,0.00224685,0.00508261,0.000504054,0.688988,0.00323351,0.0342853,741,1429,-17.588,-19.9
-476,-405,-17.3735,20.9719,0,0,0,0,0,0,0,-1,748,1429,-17.3735,-20.972
-469,-405,-9.65692,12.8171,0,0,0,0,0,0,0,-1,755,1429,-9.65691,-12.8172
-462,-405,-9.14862,11.3597,0,0,0,0,0,0,0,-1,762,1429,-9.14865,-11.3597
-455,-405,-9.021,9.51111,0,0,0,0,0,0,0,-1,769,1429,-9.021,-9.51109
-448,-405,-8.4649,6.82813,0,0,0,0,0,0,0,-1,776,1429,-8.46492,-6.82817
-441,-405,-6.6712,4.23767,0,0,0,0,0,0,0,-1,783,1429,-6.67121,-4.23764
-434,-405,-9.62549,3.94189,0,0,0,0,0,0,0,-1,790,1429,-9.62546,-3.94191
-427,-405,-10.9764,3.73926,0,0,0,0,0,0,0,-1,797,1429,-10.9764,-3.73923
-420,-405,-12.1187,3.68506,0,0,0,0,0,0,0,-1,804,1429,-12.1187,-3.68512
-413,-405,-13.5353,3.75659,0,0,0,0,0,0,0,-1,811,1429,-13.5353,-3.75655
-406,-405,-14.7374,3.99817,0,0,0,0,0,0,0,-1,818,1429,-14.7374,-3.99814
-399,-405,0,0,0,0,0,0,0,0,0,-1,825,1429,0,0
-392,-405,0,0,0,0,0,0,0,0,0,-1,832,1429,0,0
-385,-405,0,0,0,0,0,0,0,0,0,-1,839,1429,0,0
-378,-405,0,0,0,0,0,0,0,0,0,-1,846,1429,0,0
-371,-405,0,0,0,0,0,0,0,0,0,-1,853,1429,0,0
-364,-405,0,0,0,0,0,0,0,0,0,-1,860,1429,0,0
-357,-405,0,0,0,0,0,0,0,0,0,-1,867,1429,0,0
-350,-405,0,0,0,0,0,0,0,0,0,-1,874,1429,0,0
-343,-405,0,0,0,0,0,0,0,0,0,-1,881,1429,0,0
-336,-405,0,0,0,0,0,0,0,0,0,-1,888,1429,0,0
-329,-405,0,0,0,0,0,0,0,0,0,-1,895,1429,0,0
-322,-405,0,0,0,0,0,0,0,0,0,-1,902,1429,0,0
-315,-405,0,0,0,0,0,0,0,0,0,-1,909,1429,0,0
-308,-405,0,0,0,0,0,0,0,0,0,-1,916,1429,0,0
-301,-405,0,0,0,0,0,0,0,0,0,-1,923,1429,0,0
-294,-405,0,0,0,0,0,0,0,0,0,-1,930,1429,0,0
-287,-405,0,0,0,0,0,0,0,0,0,-1,937,1429,0,0
-280,-405,0,0,0,0,0,0,0,0,0,-1,944,1429,0,0
-273,-405,0,0,0,0,0,0,0,0,0,-1,951,1429,0,0
-266,-405,0,0,0,0,0,0,0,0,0,-1,958,1429,0,0
-259,-405,0,0,0,0,0,0,0,0,0,-1,965,1429,0,0
-252,-405,0,0,0,0,0,0,0,0,0,-1,972,1429,0,0
-245,-405,0,0,0,0,0,0,0,0,0,-1,979,1429,0,0
-238,-405,0,0,0,0,0,0,0,0,0,-1,986,1429,0,0
-231,-405,0,0,0,0,0,0,0,0,0,-1,993,1429,0,0
-224,-405,0,0,0,0,0,0,0,0,0,-1,1000,1429,0,0
-217,-405,0,0,0,0,0,0,0,0,0,-1,1007,1429,0,0
-210,-405,0,0,0,0,0,0,0,0,0,-1,1014,1429,0,0
-203,-405,0,0,0,0,0,0,0,0,0,-1,1021,1429,0,0
-196,-405,0,0,0,0,0,0,0,0,0,-1,1028,1429,0,0
-189,-405,0,0,0,0,0,0,0,0,0,-1,1035,1429,0,0
-182,-405,0,0,0,0,0,0,0,0,0,-1,1042,1429,0,0
-175,-405,0,0,0,0,0,0,0,0,0,-1,1049,1429,0,0
-168,-405,0,0,0,0,0,0,0,0,0,-1,1056,1429,0,0
-161,-405,0,0,0,0,0,0,0,0,0,-1,1063,1429,0,0
-154,-405,0,0,0,0,0,0,0,0,0,-1,1070,1429,0,0
-147,-405,0,0,0,0,0,0,0,0,0,-1,1077,1429,0,0
-140,-405,0,0,0,0,0,0,0,0,0,-1,1084,1429,0,0
-133,-405,0,0,0,0,0,0,0,0,0,-1,1091,1429,0,0
-126,-405,0,0,0,0,0,0,0,0,0,-1,1098,1429,0,0
-119,-405,0,0,0,0,0,0,0,0,0,-1,1105,1429,0,0
-112,-405,0,0,0,0,0,0,0,0,0,-1,1112,1429,0,0
-105,-405,0,0,0,0,0,0,0,0,0,-1,1119,1429,0,0
-98,-405,0,0,0,0,0,0,0,0,0,-1,1126,1429,0,0
-91,-405,0,0,0,0,0,0,0,0,0,-1,1133,1429,0,0
-84,-405,0,0,0,0,0,0,0,0,0,-1,1140,1429,0,0
-77,-405,0,0,0,0,0,0,0,0,0,-1,1147,1429,0,0
-70,-405,0,0,0,0,0,0,0,0,0,-1,1154,1429,0,0
-63,-405,0,0,0,0,0,0,0,0,0,-1,1161,1429,0,0
-56,-405,0,0,0,0,0,0,0,0,0,-1,1168,1429,0,0
-49,-405,0,0,0,0,0,0,0,0,0,-1,1175,1429,0,0
-42,-405,0,0,0,0,0,0,0,0,0,-1,1182,1429,0,0
-35,-405,0,0,0,0,0,0,0,0,0,-1,1189,1429,0,0
-28,-405,0,0,0,0,0,0,0,0,0,-1,1196,1429,0,0
-21,-405,0,0,0,0,0,0,0,0,0,-1,1203,1429,0,0
-14,-405,0,0,0,0,0,0,0,0,0,-1,1210,1429,0,0
-7,-405,0,0,0,0,0,0,0,0,0,-1,1217,1429,0,0
0,-405,0,0,0,0,0,0,0,0,0,-1,1224,1429,0,0
7,-405,0,0,0,0,0,0,0,0,0,-1,1231,1429,0,0
14,-405,0,0,0,0,0,0,0,0,0,-1,1238,1429,0,0
21,-405,0,0,0,0,0,0,0,0,0,-1,1245,1429,0,0
28,-405,0,0,0,0,0,0,0,0,0,-1,1252,1429,0,0
35,-405,0,0,0,0,0,0,0,0,0,-1,1259,1429,0,0
42,-405,0,0,0,0,0,0,0,0,0,-1,1266,1429,0,0
49,-405,0,0,0,0,0,0,0,0,0,-1,1273,1429,0,0
56,-405,0,0,0,0,0,0,0,0,0,-1,1280,1429,0,0
63,-405,0,0,0,0,0,0,0,0,0,-1,1287,1429,0,0
70,-405,0,0,0,0,0,0,0,0,0,-1,1294,1429,0,0
77,-405,0,0,0,0,0,0,0,0,0,-1,1301,1429,0,0
84,-405,0,0,0,0,0,0,0,0,0,-1,1308,1429,0,0
91,-405,0,0,0,0,0,0,0,0,0,-1,1315,1429,0,0
98,-405,0,0,0,0,0,0,0,0,0,-1,1322,1429,0,0
105,-405,0,0,0,0,0,0,0,0,0,-1,1329,1429,0,0
112,-405,0,0,0,0,0,0,0,0,0,-1,1336,1429,0,0
119,-405,0,0,0,0,0,0,0,0,0,-1,1343,1429,0,0
126,-405,0,0,0,0,0,0,0,0,0,-1,1350,1429,0,0
133,-405,0,0,0,0,0,0,0,0,0,-1,1357,1429,0,0
140,-405,0,0,0,0,0,0,0,0,0,-1,1364,1429,0,0
147,-405,0,0,0,0,0,0,0,0,0,-1,1371,1429,0,0
154,-405,0,0,0,0,0,0,0,0,0,-1,1378,1429,0,0
161,-405,0,0,0,0,0,0,0,0,0,-1,1385,1429,0,0
168,-405,0,0,0,0,0,0,0,0,0,-1,1392,1429,0,0
175,-405,0,0,0,0,0,0,0,0,0,-1,1399,1429,0,0
182,-405,0,0,0,0,0,0,0,0,0,-1,1406,1429,0,0
189,-405,0,0,0,0,0,0,0,0,0,-1,1413,1429,0,0
196,-405,0,0,0,0,0,0,0,0,0,-1,1420,1429,0,0
203,-405,0,0,0,0,0,0,0,0,0,-1,1427,1429,0,0
210,-405,0,0,0,0,0,0,0,0,0,-1,1434,1429,0,0
217,-405,0,0,0,0,0,0,0,0,0,-1,1441,1429,0,0
224,-405,0,0,0,0,0,0,0,0,0,-1,1448,1429,0,0
231,-405,0,0,0,0,0,0,0,0,0,-1,1455,1429,0,0
238,-405,0,0,0,0,0,0,0,0,0,-1,1462,1429,0,0
245,-405,0,0,0,0,0,0,0,0,0,-1,1469,1429,0,0
252,-405,0,0,0,0,0,0,0,0,0,-1,1476,1429,0,0
259,-405,0,0,0,0,0,0,0,0,0,-1,1483,1429,0,0
266,-405,0,0,0,0,0,0,0,0,0,-1,1490,1429,0,0
273,-405,0,0,0,0,0,0,0,0,0,-1,1497,1429,0,0
280,-405,0,0,0,0,0,0,0,0,0,-1,1504,1429,0,0
287,-405,0,0,0,0,0,0,0,0,0,-1,1511,1429,0,0
294,-405,0,0,0,0,0,0,0,0,0,-1,1518,1429,0,0
301,-405,0,0,0,0,0,0,0,0,0,-1,1525,1429,0,0
308,-405,0,0,0,0,0,0,0,0,0,-1,1532,1429,0,0
315,-405,0,0,0,0,0,0,0,0,0,-1,1539,1429,0,0
322,-405,0,0,0,0,0,0,0,0,0,-1,1546,1429,0,0
329,-405,0,0,0,0,0,0,0,0,0,-1,1553,1429,0,0
336,-405,0,0,0,0,0,0,0,0,0,-1,1560,1429,0,0
343,-405,0,0,0,0,0,0,0,0,0,-1,1567,1429,0,0
350,-405,0,0,0,0,0,0,0,0,0,-1,1574,1429,0,0
357,-405,0,0,0,0,0,0,0,0,0,-1,1581,1429,0,0
364,-405,0,0,0,0,0,0,0,0,0,-1,1588,1429,0,0
371,-405,0,0,0,0,0,0,0,0,0,-1,1595,1429,0,0
378,-405,0,0,0,0,0,0,0,0,0,-1,1602,1429,0,0
385,-405,0,0,0,0,0,0,0,0,0,-1,1609,1429,0,0
392,-405,0,0,0,0,0,0,0,0,0,-1,1616,1429,0,0
399,-405,0,0,0,0,0,0,0,0,0,-1,1623,1429,0,0
406,-405,0,0,0,0,0,0,0,0,0,-1,1630,1429,0,0
413,-405,0,0,0,0,0,0,0,0,0,-1,1637,1429,0,0
420,-405,0,0,0,0,0,0,0,0,0,-1,1644,1429,0,0
427,-405,0,0,0,0,0,0,0,0,0,-1,1651,1429,0,0
434,-405,0,0,0,0,0,0,0,0,0,-1,1658,1429,0,0
441,-405,0,0,0,0,0,0,0,0,0,-1,1665,1429,0,0
448,-405,0,0,0,0,0,0,0,0,0,-1,1672,1429,0,0
455,-405,0,0,0,0,0,0,0,0,0,-1,1679,1429,0,0
462,-405,0,0,0,0,0,0,0,0,0,-1,1686,1429,0,0
469,-405,0,0,0,0,0,0,0,0,0,-1,1693,1429,0,0
476,-405,0,0,0,0,0,0,0,0,0,-1,1700,1429,0,0
483,-405,0,0,0,0,0,0,0,0,0,-1,1707,1429,0,0
490,-405,0,0,0,0,0,0,0,0,0,-1,1714,1429,0,0
497,-405,0,0,0,0,0,0,0,0,0,-1,1721,1429,0,0
504,-405,0,0,0,0,0,0,0,0,0,-1,1728,1429,0,0
511,-405,0,0,0,0,0,0,0,0,0,-1,1735,1429,0,0
518,-405,0,0,0,0,0,0,0,0,0,-1,1742,1429,0,0
525,-405,31.1563,-1.40942,0,0,0,0,0,0,0,-1,1749,1429,31.1563,1.40937
532,-405,28.156,4.8783,0,0,0,0,0,0,0,-1,1756,1429,28.1561,-4.87833
539,-405,26.5133,3.02454,0,0,0,0,0,0,0,-1,1763,1429,26.5133,-3.0246
546,-405,29.5735,6.53052,0,0,0,0,0,0,0,-1,1770,1429,29.5735,-6.53049
553,-405,28.2911,6.70654,0,0,0,0,0,0,0,-1,1777,1429,28.2912,-6.70656
560,-405,26.9299,7.08472,0,0,0,0,0,0,0,-1,1784,1429,26.9299,-7.08469
567,-405,25.804,7.14661,0,0,0,0,0,0,0,-1,1791,1429,25.8039,-7.14665
574,-405,25.1151,8.07971,0,0,0,0,0,0,0,-1,1798,1429,25.1151,-8.07965
581,-405,23.5055,8.505,0,0,0,0,0,0,0,-1,1805,1429,23.5054,-8.50501
588,-405,21.7491,8.98254,0,0,0,0,0,0,0,-1,1812,1429,21.7491,-8.98254
595,-405,21.6327,10.7795,0,0,0,0,0,0,0,-1,1819,1429,21.6327,-10.7796
602,-405,21.6461,13.9199,0,0,0,0,0,0,0,-1,1826,1429,21.6461,-13.92
609,-405,34.3069,21.7107,0,0,0,0,0,0,0,-1,1833,1429,34.3069,-21.7106
616,-405,34.4376,20.8159,0,0,0,0,0,0,0,-1,1840,1429,34.4376,-20.8159
623,-405,34.3982,20.155,0.00251899,0.00137976,-0.00146162,0.00351806,0.000380688,-0.599595,0.00222934,0.0150935,1847,1429,34.3983,-20.1551
630,-405,34.3872,19.4099,0.00192575,0.000823968,-0.000974598,0.00249438,0.00025534,-0.52816,0.00158468,0.0111079,1854,1429,34.3872,-19.4099
637,-405,34.3573,18.6952,0.00170853,0.000534606,-0.000789338,0.00210523,0.000137913,-0.465697,0.00135985,0.0119789,1861,1429,34.3573,-18.6952
644,-405,34.2992,18.0118,0.0018025,0.000444532,-0.000704732,0.00210212,0.000144911,-0.402002,0.00135569,0.0314801,1868,1429,34.2991,-18.0118
651,-405,34.2264,17.3414,0.0021708,0.000613682,-0.000700952,0.00243985,0.000344631,-0.366496,0.00152473,0.0367943,1875,1429,34.2265,-17.3414
658,-405,34.246,16.6813,0.00275837,0.000963388,-0.000743632,0.00302642,0.000695341,-0.345959,0.0018304,0.0270982,1882,1429,34.246,-16.6812
665,-405,34.2197,15.9727,0.00358685,0.00150133,-0.000771422,0.00384118,0.001247,-0.318466,0.00226272,0.0213919,1889,1429,34.2197,-15.9727
672,-405,34.2306,15.2792,0.00460984,0.00221095,-0.000699047,0.00479868,0.00202211,-0.263841,0.00278191,0.0255701,1896,1429,34.2305,-15.2792
679,-405,34.3231,14.5985,0.0057758,0.0031322,-0.000488821,0.00586329,0.00304471,-0.177109,0.00338601,0.0304432,1903,1429,34.3231,-14.5985
686,-405,34.3386,13.7822,0,0,0,0,0,0,0,-1,1910,1429,34.3386,-13.7823
693,-405,34.0087,13.1151,0,0,0,0,0,0,0,-1,1917,1429,34.0086,-13.1151
700,-405,9.1958,4.02026,0,0,0,0,0,0,0,-1,1924,1429,9.19579,-4.02025
707,-405,7.40308,3.83191,0,0,0,0,0,0,0,-1,1931,1429,7.40311,-3.83194
714,-405,7.33252,3.47388,0,0,0,0,0,0,0,-1,1938,1429,7.33255,-3.47383
721,-405,9.23523,0.993896,0,0,0,0,0,0,0,-1,1945,1429,9.23523,-0.993884
728,-405,0,0,0,0,0,0,0,0,0,-1,1952,1429,0,0
735,-405,0,0,0,0,0,0,0,0,0,-1,1959,1429,0,0
742,-405,0,0,0,0,0,0,0,0,0,-1,1966,1429,0,0
749,-405,0,0,0,0,0,0,0,0,0,-1,1973,1429,0,0
756,-405,0,0,0,0,0,0,0,0,0,-1,1980,1429,0,0
763,-405,0,0,0,0,0,0,0,0,0,-1,1987,1429,0,0
770,-405,0,0,0,0,0,0,0,0,0,-1,1994,1429,0,0
777,-405,0,0,0,0,0,0,0,0,0,-1,2001,1429,0,0
784,-405,0,0,0,0,0,0,0,0,0,-1,2008,1429,0,0
791,-405,0,0,0,0,0,0,0,0,0,-1,2015,1429,0,0
798,-405,0,0,0,0,0,0,0,0,0,-1,2022,1429,0,0
805,-405,0,0,0,0,0,0,0,0,0,-1,2029,1429,0,0
812,-405,0,0,0,0,0,0,0,0,0,-1,2036,1429,0,0
-700,-412,0,0,0,0,0,0,0,0,0,-1,524,1436,0,0
-693,-412,0,0,0,0,0,0,0,0,0,-1,531,1436,0,0
-686,-412,0,0,0,0,0,0,0,0,0,-1,538,1436,0,0
-679,-412,0,0,0,0,0,0,0,0,0,-1,545,1436,0,0
-672,-412,0,0,0,0,0,0,0,0,0,-1,552,1436,0,0
-665,-412,0,0,0,0,0,0,0,0,0,-1,559,1436,0,0
-658,-412,0,0,0,0,0,0,0,0,0,-1,566,1436,0,0
-651,-412,0,0,0,0,0,0,0,0,0,-1,573,1436,0,0
-644,-412,0,0,0,0,0,0,0,0,0,-1,580,1436,0,0
-637,-412,0,0,0,0,0,0,0,0,0,-1,587,1436,0,0
-630,-412,0,0,0,0,0,0,0,0,0,-1,594,1436,0,0
-623,-412,0,0,0,0,0,0,0,0,0,-1,601,1436,0,0
-616,-412,0,0,0,0,0,0,0,0,0,-1,608,1436,0,0
-609,-412,0,0,0,0,0,0,0,0,0,-1,615,1436,0,0
-602,-412,-3.72766,-3.50012,0,0,0,0,0,0,0,-1,622,1436,-3.72764,3.50017
-595,-412,-10.3706,0.65564,0,0,0,0,0,0,0,-1,629,1436,-10.3706,-0.655672
-588,-412,-8.17957,1.94934,0,0,0,0,0,0,0,-1,636,1436,-8.17956,-1.94939
-581,-412,-6.60065,-0.0554199,0,0,0,0,0,0,0,-1,643,1436,-6.60063,0.0554733
-574,-412,-8.34131,5.25012,0,0,0,0,0,0,0,-1,650,1436,-8.34129,-5.25012
-567,-412,-7.50354,3.65454,0,0,0,0,0,0,0,-1,657,1436,-7.50356,-3.65452
-560,-412,-8.52448,7.39014,0,0,0,0,0,0,0,-1,664,1436,-8.52447,-7.39019
-553,-412,-7.36761,6.54651,0,0,0,0,0,0,0,-1,671,1436,-7.36763,-6.54654
-546,-412,-16.6776,13.1956,0,0,0,0,0,0,0,-1,678,1436,-16.6775,-13.1956
-539,-412,-16.6933,13.8738,0.00416362,0.00238844,0.00269087,0.00610951,0.00044255,0.626091,0.0039338,0.0285054,685,1436,-16.6933,-13.8737
-532,-412,-16.7278,14.696,0.00312166,0.00156145,0.00193449,0.00442741,0.000255698,0.593741,0.00287017,0.0159428,692,1436,-16.7278,-14.6961
-525,-412,-16.7727,15.4473,0.00247774,0.00112825,0.00151983,0.00346587,0.000140114,0.576487,0.00226532,0.0156668,699,1436,-16.7727,-15.4472
-518,-412,-16.7887,16.1766,0.00207011,0.000917006,0.00128859,0.00290525,8.18613e-05,0.575042,0.00191013,0.0161009,706,1436,-16.7887,-16.1766
-511,-412,-16.835,16.8792,0.00182591,0.000837367,0.00116623,0.00259829,6.49904e-05,0.584963,0.00171094,0.0192205,713,1436,-16.835,-16.8791
-504,-412,-16.9135,17.6102,0.00173687,0.000881597,0.00113386,0.00252105,9.74155e-05,0.60507,0.00164919,0.01855,720,1436,-16.9135,-17.6103
-497,-412,-16.9376,18.3795,0.00183689,0.00105423,0.00121886,0.0027257,0.000165423,0.630064,0.00176458,0.0152267,727,1436,-16.9376,-18.3795
-490,-412,-16.9488,19.1044,0.00214849,0.00141496,0.00144626,0.00327377,0.000289683,0.66122,0.00209265,0.0145148,734,1436,-16.9488,-19.1043
-483,-412,-16.9772,19.8005,0.00260954,0.00194612,0.0017621,0.00407088,0.000484776,0.692364,0.00256763,0.0122077,741,1436,-16.9771,-19.8006
-476,-412,-16.9815,20.5918,0,0,0,0,0,0,0,-1,748,1436,-16.9815,-20.5918
-469,-412,-12.7646,18.4785,0,0,0,0,0,0,0,-1,755,1436,-12.7647,-18.4785
-462,-412,-8.94659,13.3385,0,0,0,0,0,0,0,-1,762,1436,-8.94657,-13.3385
-455,-412,-8.25006,11.2572,0,0,0,0,0,0,0,-1,769,1436,-8.25007,-11.2572
-448,-412,-7.38086,8.78186,0,0,0,0,0,0,0,-1,776,1436,-7.38088,-8.78183
-441,-412,-8.79523,9.05286,0,0,0,0,0,0,0,-1,783,1436,-8.79521,-9.0529
-434,-412,-10.6305,8.03577,0,0,0,0,0,0,0,-1,790,1436,-10.6305,-8.0358
-427,-412,-10.0004,5.15271,0,0,0,0,0,0,0,-1,797,1436,-10.0004,-5.15266
-420,-412,-10.4468,4.9043,0,0,0,0,0,0,0,-1,804,1436,-10.4468,-4.90429
-413,-412,-11.5704,4.97766,0,0,0,0,0,0,0,-1,811,1436,-11.5704,-4.97771
-406,-412,-13.1968,5.70093,0,0,0,0,0,0,0,-1,818,1436,-13.1968,-5.70096
-399,-412,-10.5506,0.771973,0,0,0,0,0,0,0,-1,825,1436,-10.5506,-0.771954
-392,-412,0,0,0,0,0,0,0,0,0,-1,832,1436,0,0
-385,-412,0,0,0,0,0,0,0,0,0,-1,839,1436,0,0
-378,-412,0,0,0,0,0,0,0,0,0,-1,846,1436,0,0
-371,-412,0,0,0,0,0,0,0,0,0,-1,853,1436,0,0
-364,-412,0,0,0,0,0,0,0,0,0,-1,860,1436,0,0
-357,-412,0,0,0,0,0,0,0,0,0,-1,867,1436,0,0
-350,-412,0,0,0,0,0,0,0,0,0,-1,874,1436,0,0
-343,-412,0,0,0,0,0,0,0,0,0,-1,881,1436,0,0
-336,-412,0,0,0,0,0,0,0,0,0,-1,888,1436,0,0
-329,-412,0,0,0,0,0,0,0,0,0,-1,895,1436,0,0
-322,-412,0,0,0,0,0,0,0,0,0,-1,902,1436,0,0
-315,-412,0,0,0,0,0,0,0,0,0,-1,909,1436,0,0
-308,-412,0,0,0,0,0,0,0,0,0,-1,916,1436,0,0
-301,-412,0,0,0,0,0,0,0,0,0,-1,923,1436,0,0
-294,-412,0,0,0,0,0,0,0,0,0,-1,930,1436,0,0
-287,-412,0,0,0,0,0,0,0,0,0,-1,937,1436,0,0
-280,-412,0,0,0,0,0,0,0,0,0,-1,944,1436,0,0
-273,-412,0,0,0,0,0,0,0,0,0,-1,951,1436,0,0
-266,-412,0,0,0,0,0,0,0,0,0,-1,958,1436,0,0
-259,-412,0,0,0,0,0,0,0,0,0,-1,965,1436,0,0
-252,-412,0,0,0,0,0,0,0,0,0,-1,972,1436,0,0
-245,-412,0,0,0,0,0,0,0,0,0,-1,979,1436,0,0
-238,-412,0,0,0,0,0,0,0,0,0,-1,986,1436,0,0
-231,-412,0,0,0,0,0,0,0,0,0,-1,993,1436,0,0
-224,-412,0,0,0,0,0,0,0,0,0,-1,1000,1436,0,0
-217,-412,0,0,0,0,0,0,0,0,0,-1,1007,1436,0,0
-210,-412,0,0,0,0,0,0,0,0,0,-1,1014,1436,0,0
-203,-412,0,0,0,0,0,0,0,0,0,-1,1021,1436,0,0
-196,-412,0,0,0,0,0,0,0,0,0,-1,1028,1436,0,0
-189,-412,0,0,0,0,0,0,0,0,0,-1,1035,1436,0,0
-182,-412,0,0,0,0,0,0,0,0,0,-1,1042,1436,0,0
-175,-412,0,0,0,0,0,0,0,0,0,-1,1049,1436,0,0
-168,-412,0,0,0,0,0,0,0,0,0,-1,1056,1436,0,0
-161,-412,0,0,0,0,0,0,0,0,0,-1,1063,1436,0,0
-154,-412,0,0,0,0,0,0,0,0,0,-1,1070,1436,0,0
-147,-412,0,0,0,0,0,0,0,0,0,-1,1077,1436,0,0
-140,-412,0,0,0,0,0,0,0,0,0,-1,1084,1436,0,0
-133,-412,0,0,0,0,0,0,0,0,0,-1,1091,1436,0,0
-126,-412,0,0,0,0,0,0,0,0,0,-1,1098,1436,0,0
-119,-412,0,0,0,0,0,0,0,0,0,-1,1105,1436,0,0
-112,-412,0,0,0,0,0,0,0,0,0,-1,1112,1436,0,0
-105,-412,0,0,0,0,0,0,0,0,0,-1,1119,1436,0,0
-98,-412,0,0,0,0,0,0,0,0,0,-1,1126,1436,0,0
-91,-412,0,0,0,0,0,0,0,0,0,-1,1133,1436,0,0
-84,-412,0,0,0,0,0,0,0,0,0,-1,1140,1436,0,0
-77,-412,0,0,0,0,0,0,0,0,0,-1,1147,1436,0,0
-70,-412,0,0,0,0,0,0,0,0,0,-1,1154,1436,0,0
-63,-412,0,0,0,0,0,0,0,0,0,-1,1161,1436,0,0
-56,-412,0,0,0,0,0,0,0,0,0,-1,1168,1436,0,0
-49,-412,0,0,0,0,0,0,0,0,0,-1,1175,1436,0,0
-42,-412,0,0,0,0,0,0,0,0,0,-1,1182,1436,0,0
-35,-412,0,0,0,0,0,0,0,0,0,-1,1189,1436,0,0
-28,-412,0,0,0,0,0,0,0,0,0,-1,1196,1436,0,0
-21,-412,0,0,0,0,0,0,0,0,0,-1,1203,1436,0,0
-14,-412,0,0,0,0,0,0,0,0,0,-1,1210,1436,0,0
-7,-412,0,0,0,0,0,0,0,0,0,-1,1217,1436,0,0
0,-412,0,0,0,0,0,0,0,0,0,-1,1224,1436,0,0
7,-412,0,0,0,0,0,0,0,0,0,-1,1231,1436,0,0
14,-412,0,0,0,0,0,0,0,0,0,-1,1238,1436,0,0
21,-412,0,0,0,0,0,0,0,0,0,-1,1245,1436,0,0
28,-412,0,0,0,0,0,0,0,0,0,-1,1252,1436,0,0
35,-412,0,0,0,0,0,0,0,0,0,-1,1259,1436,0,0
42,-412,0,0,0,0,0,0,0,0,0,-1,1266,1436,0,0
49,-412,0,0,0,0,0,0,0,0,0,-1,1273,1436,0,0
56,-412,0,0,0,0,0,0,0,0,0,-1,1280,1436,0,0
63,-412,0,0,0,0,0,0,0,0,0,-1,1287,1436,0,0
70,-412,0,0,0,0,0,0,0,0,0,-1,1294,1436,0,0
77,-412,0,0,0,0,0,0,0,0,0,-1,1301,1436,0,0
84,-412,0,0,0,0,0,0,0,0,0,-1,1308,1436,0,0
91,-412,0,0,0,0,0,0,0,0,0,-1,1315,1436,0,0
98,-412,0,0,0,0,0,0,0,0,0,-1,1322,1436,0,0
105,-412,0,0,0,0,0,0,0,0,0,-1,1329,1436,0,0
112,-412,0,0,0,0,0,0,0,0,0,-1,1336,1436,0,0
119,-412,0,0,0,0,0,0,0,0,0,-1,1343,1436,0,0
126,-412,0,0,0,0,0,0,0,0,0,-1,1350,1436,0,0
133,-412,0,0,0,0,0,0,0,0,0,-1,1357,1436,0,0
140,-412,0,0,0,0,0,0,0,0,0,-1,1364,1436,0,0
147,-412,0,0,0,0,0,0,0,0,0,-1,1371,1436,0,0
154,-412,0,0,0,0,0,0,0,0,0,-1,1378,1436,0,0
161,-412,0,0,0,0,0,0,0,0,0,-1,1385,1436,0,0
168,-412,0,0,0,0,0,0,0,0,0,-1,1392,1436,0,0
175,-412,0,0,0,0,0,0,0,0,0,-1,1399,1436,0,0
182,-412,0,0,0,0,0,0,0,0,0,-1,1406,1436,0,0
189,-412,0,0,0,0,0,0,0,0,0,-1,1413,1436,0,0
196,-412,0,0,0,0,0,0,0,0,0,-1,1420,1436,0,0
203,-412,0,0,0,0,0,0,0,0,0,-1,1427,1436,0,0
210,-412,0,0,0,0,0,0,0,0,0,-1,1434,1436,0,0
217,-412,0,0,0,0,0,0,0,0,0,-1,1441,1436,0,0
224,-412,0,0,0,0,0,0,0,0,0,-1,1448,1436,0,0
231,-412,0,0,0,0,0,0,0,0,0,-1,1455,1436,0,0
238,-412,0,0,0,0,0,0,0,0,0,-1,1462,1436,0,0
245,-412,0,0,0,0,0,0,0,0,0,-1,1469,1436,0,0
252,-412,0,0,0,0,0,0,0,0,0,-1,1476,1436,0,0
259,-412,0,0,0,0,0,0,0,0,0,-1,1483,1436,0,0
266,-412,0,0,0,0,0,0,0,0,0,-1,1490,1436,0,0
273,-412,0,0,0,0,0,0,0,0,0,-1,1497,1436,0,0
280,-412,0,0,0,0,0,0,0,0,0,-1,1504,1436,0,0
287,-412,0,0,0,0,0,0,0,0,0,-1,1511,1436,0,0
294,-412,0,0,0,0,0,0,0,0,0,-1,1518,1436,0,0
301,-412,0,0,0,0,0,0,0,0,0,-1,1525,1436,0,0
308,-412,0,0,0,0,0,0,0,0,0,-1,1532,1436,0,0
315,-412,0,0,0,0,0,0,0,0,0,-1,1539,1436,0,0
322,-412,0,0,0,0,0,0,0,0,0,-1,1546,1436,0,0
329,-412,0,0,0,0,0,0,0,0,0,-1,1553,1436,0,0
336,-412,0,0,0,0,0,0,0,0,0,-1,1560,1436,0,0
343,-412,0,0,0,0,0,0,0,0,0,-1,1567,1436,0,0
350,-412,0,0,0,0,0,0,0,0,0,-1,1574,1436,0,0
357,-412,0,0,0,0,0,0,0,0,0,-1,1581,1436,0,0
364,-412,0,0,0,0,0,0,0,0,0,-1,1588,1436,0,0
371,-412,0,0,0,0,0,0,0,0,0,-1,1595,1436,0,0
378,-412,0,0,0,0,0,0,0,0,0,-1,1602,1436,0,0
385,-412,0,0,0,0,0,0,0,0,0,-1,1609,1436,0,0
392,-412,0,0,0,0,0,0,0,0,0,-1,1616,1436,0,0
399,-412,0,0,0,0,0,0,0,0,0,-1,1623,1436,0,0
406,-412,0,0,0,0,0,0,0,0,0,-1,1630,1436,0,0
413,-412,0,0,0,0,0,0,0,0,0,-1,1637,1436,0,0
420,-412,0,0,0,0,0,0,0,0,0,-1,1644,1436,0,0
427,-412,0,0,0,0,0,0,0,0,0,-1,1651,1436,0,0
434,-412,0,0,0,0,0,0,0,0,0,-1,1658,1436,0,0
441,-412,0,0,0,0,0,0,0,0,0,-1,1665,1436,0,0
448,-412,0,0,0,0,0,0,0,0,0,-1,1672,1436,0,0
455,-412,0,0,0,0,0,0,0,0,0,-1,1679,1436,0,0
462,-412,0,0,0,0,0,0,0,0,0,-1,1686,1436,0,0
469,-412,0,0,0,0,0,0,0,0,0,-1,1693,1436,0,0
476,-412,0,0,0,0,0,0,0,0,0,-1,1700,1436,0,0
483,-412,0,0,0,0,0,0,0,0,0,-1,1707,1436,0,0
490,-412,0,0,0,0,0,0,0,0,0,-1,1714,1436,0,0
497,-412,0,0,0,0,0,0,0,0,0,-1,1721,1436,0,0
504,-412,0,0,0,0,0,0,0,0,0,-1,1728,1436,0,0
511,-412,0,0,0,0,0,0,0,0,0,-1,1735,1436,0,0
518,-412,30.1038,-2.43384,0,0,0,0,0,0,0,-1,1742,1436,30.1038,2.43383
525,-412,29.5283,-1.42493,0,0,0,0,0,0,0,-1,1749,1436,29.5283,1.42495
532,-412,28.8533,-0.386597,0,0,0,0,0,0,0,-1,1756,1436,28.8533,0.386632
539,-412,25.8654,2.74683,0,0,0,0,0,0,0,-1,1763,1436,25.8654,-2.74685
546,-412,25.4265,2.4342,0,0,0,0,0,0,0,-1,1770,1436,25.4265,-2.4342
553,-412,26.3595,7.49255,0,0,0,0,0,0,0,-1,1777,1436,26.3595,-7.4925
560,-412,24.9116,7.94324,0,0,0,0,0,0,0,-1,1784,1436,24.9116,-7.94327
567,-412,23.668,7.94531,0,0,0,0,0,0,0,-1,1791,1436,23.6679,-7.94534
574,-412,23.0142,9.17236,0,0,0,0,0,0,0,-1,1798,1436,23.0141,-9.17235
581,-412,22.2615,10.0349,0,0,0,0,0,0,0,-1,1805,1436,22.2615,-10.0349
588,-412,21.6893,10.8069,0,0,0,0,0,0,0,-1,1812,1436,21.6893,-10.8069
595,-412,21.5137,14.3157,0,0,0,0,0,0,0,-1,1819,1436,21.5137,-14.3157
602,-412,33.6169,22.4375,0,0,0,0,0,0,0,-1,1826,1436,33.6169,-22.4375
609,-412,33.7216,21.5576,0.00455279,0.00357353,-0.00328045,0.00737994,0.000746371,-0.711317,0.00469101,0.0456138,1833,1436,33.7215,-21.5576
616,-412,33.7805,20.8394,0.0032891,0.00212089,-0.00212657,0.00491032,0.000499668,-0.651368,0.00312036,0.0141212,1840,1436,33.7805,-20.8393
623,-412,33.7194,20.1567,0.00241162,0.00132112,-0.00143259,0.00339921,0.000333518,-0.603561,0.00216356,0.0100893,1847,1436,33.7193,-20.1568
630,-412,33.6906,19.431,0.00198038,0.000767181,-0.00100726,0.00254959,0.00019797,-0.51437,0.00163773,0.0120763,1854,1436,33.6905,-19.431
637,-412,33.6782,18.7158,0.00185553,0.000520717,-0.000842392,0.00226286,0.000113389,-0.450392,0.00147223,0.0143893,1861,1436,33.6783,-18.7158
644,-412,33.6561,18.0327,0.00201978,0.0005229,-0.000768121,0.0023438,0.000198879,-0.399188,0.00150064,0.0159189,1868,1436,33.6561,-18.0327
651,-412,33.6088,17.3417,0.00244591,0.000767477,-0.000829373,0.00278659,0.000426802,-0.389749,0.00173306,0.0272973,1875,1436,33.6087,-17.3416
658,-412,33.5652,16.6855,0.00308691,0.00122051,-0.000951763,0.00348664,0.000820772,-0.397622,0.00210487,0.0177552,1882,1436,33.5652,-16.6856
665,-412,33.5454,15.9899,0.00399429,0.0019023,-0.00107271,0.00444656,0.00145003,-0.399004,0.00261847,0.0229469,1889,1436,33.5454,-15.9899
672,-412,33.5708,15.2585,0.00505283,0.00277622,-0.00106275,0.00547182,0.00235722,-0.375542,0.00316923,0.0336721,1896,1436,33.5708,-15.2585
679,-412,33.8007,14.6074,0,0,0,0,0,0,0,-1,1903,1436,33.8007,-14.6075
686,-412,32.8472,13.8766,0,0,0,0,0,0,0,-1,1910,1436,32.8472,-13.8766
693,-412,11.9346,6.02344,0,0,0,0,0,0,0,-1,1917,1436,11.9346,-6.02343
700,-412,8.82764,5.8844,0,0,0,0,0,0,0,-1,1924,1436,8.82761,-5.88444
707,-412,6.59998,1.68994,0,0,0,0,0,0,0,-1,1931,1436,6.60002,-1.68995
714,-412,4.77283,-2.39832,0,0,0,0,0,0,0,-1,1938,1436,4.77288,2.39835
721,-412,0,0,0,0,0,0,0,0,0,-1,1945,1436,0,0
728,-412,0,0,0,0,0,0,0,0,0,-1,1952,1436,0,0
735,-412,0,0,0,0,0,0,0,0,0,-1,1959,1436,0,0
742,-412,0,0,0,0,0,0,0,0,0,-1,1966,1436,0,0
749,-412,0,0,0,0,0,0,0,0,0,-1,1973,1436,0,0
756,-412,0,0,0,0,0,0,0,0,0,-1,1980,1436,0,0
763,-412,0,0,0,0,0,0,0,0,0,-1,1987,1436,0,0
770,-412,0,0,0,0,0,0,0,0,0,-1,1994,1436,0,0
777,-412,0,0,0,0,0,0,0,0,0,-1,2001,1436,0,0
784,-412,0,0,0,0,0,0,0,0,0,-1,2008,1436,0,0
791,-412,0,0,0,0,0,0,0,0,0,-1,2015,1436,0,0
798,-412,0,0,0,0,0,0,0,0,0,-1,2022,1436,0,0
805,-412,0,0,0,0,0,0,0,0,0,-1,2029,1436,0,0
812,-412,0,0,0,0,0,0,0,0,0,-1,2036,1436,0,0
-700,-419,0,0,0,0,0,0,0,0,0,-1,524,1443,0,0
-693,-419,0,0,0,0,0,0,0,0,0,-1,531,1443,0,0
-686,-419,0,0,0,0,0,0,0,0,0,-1,538,1443,0,0
-679,-419,0,0,0,0,0,0,0,0,0,-1,545,1443,0,0
-672,-419,0,0,0,0,0,0,0,0,0,-1,552,1443,0,0
-665,-419,0,0,0,0,0,0,0,0,0,-1,559,1443,0,0
-658,-419,0,0,0,0,0,0,0,0,0,-1,566,1443,0,0
-651,-419,0,0,0,0,0,0,0,0,0,-1,573,1443,0,0
-644,-419,0,0,0,0,0,0,0,0,0,-1,580,1443,0,0
-637,-419,0,0,0,0,0,0,0,0,0,-1,587,1443,0,0
-630,-419,0,0,0,0,0,0,0,0,0,-1,594,1443,0,0
-623,-419,0,0,0,0,0,0,0,0,0,-1,601,1443,0,0
-616,-419,0,0,0,0,0,0,0,0,0,-1,608,1443,0,0
-609,-419,0,0,0,0,0,0,0,0,0,-1,615,1443,0,0
-602,-419,0,0,0,0,0,0,0,0,0,-1,622,1443,0,0
-595,-419,-11.4904,-0.622681,0,0,0,0,0,0,0,-1,629,1443,-11.4903,0.622714
-588,-419,-9.09369,0.742432,0,0,0,0,0,0,0,-1,636,1443,-9.09366,-0.742482
-581,-419,-6.39172,2.14673,0,0,0,0,0,0,0,-1,643,1443,-6.39175,-2.14668
-574,-419,-4.09772,3.54773,0,0,0,0,0,0,0,-1,650,1443,-4.09772,-3.54767
-567,-419,-6.14038,3.22498,0,0,0,0,0,0,0,-1,657,1443,-6.14037,-3.22497
-560,-419,-4.52814,5.22253,0,0,0,0,0,0,0,-1,664,1443,-4.52816,-5.22251
-553,-419,-5.08331,6.11829,0,0,0,0,0,0,0,-1,671,1443,-5.08331,-6.1183
-546,-419,-10.3732,9.23279,0,0,0,0,0,0,0,-1,678,1443,-10.3732,-9.23275
-539,-419,-15.9669,13.7881,0,0,0,0,0,0,0,-1,685,1443,-15.9668,-13.7881
-532,-419,-16.0162,14.7064,0.0033963,0.0018431,0.00222906,0.00498017,0.000259231,0.617775,0.00323717,0.0281919,692,1443,-16.0162,-14.7064
-525,-419,-16.0366,15.4833,0.00263879,0.00131615,0.00176204,0.00385953,9.54202e-05,0.605874,0.00254181,0.013354,699,1443,-16.0366,-15.4833
-518,-419,-16.0403,16.2023,0.00214877,0.00105685,0.00148331,0.00318341,2.22153e-05,0.609058,0.00211491,0.0170307,706,1443,-16.0403,-16.2023
-511,-419,-16.0737,16.9275,0.00181528,0.000917466,0.00129336,0.00273543,-2.67802e-06,0.61836,0.00182451,0.0192061,713,1443,-16.0737,-16.9275
-504,-419,-16.1714,17.6718,0.00162097,0.000887383,0.00117044,0.00248074,2.76053e-05,0.633556,0.0016447,0.0189872,720,1443,-16.1715,-17.6718
-497,-419,-16.2039,18.3881,0.00160248,0.000966231,0.00113646,0.00246449,0.000104211,0.648929,0.00160938,0.0135627,727,1443,-16.2039,-18.3881
-490,-419,-16.2147,19.1106,0.00176869,0.00121796,0.00123593,0.00275956,0.000227091,0.675789,0.00176888,0.0114845,734,1443,-16.2147,-19.1106
-483,-419,-16.2529,19.8491,0.00210944,0.00163578,0.00143721,0.00332921,0.000416017,0.703741,0.00209461,0.0100189,741,1443,-16.2529,-19.8491
-476,-419,-16.226,20.6449,0.00257566,0.00214362,0.00172824,0.00410133,0.000617955,0.723223,0.00255328,0.0205752,748,1443,-16.226,-20.6449
-469,-419,-16.2161,21.4658,0,0,0,0,0,0,0,-1,755,1443,-16.2161,-21.4658
-462,-419,-11.5347,18.1563,0,0,0,0,0,0,0,-1,762,1443,-11.5347,-18.1562
-455,-419,-7.35645,11.9451,0,0,0,0,0,0,0,-1,769,1443,-7.35646,-11.9451
-448,-419,-7.49109,9.92444,0,0,0,0,0,0,0,-1,776,1443,-7.49109,-9.92442
-441,-419,-7.65527,8.75574,0,0,0,0,0,0,0,-1,783,1443,-7.65525,-8.75568
-434,-419,-11.3724,12.3643,0,0,0,0,0,0,0,-1,790,1443,-11.3724,-12.3643
-427,-419,-8.23193,7.89404,0,0,0,0,0,0,0,-1,797,1443,-8.23193,-7.89404
-420,-419,-8.74091,6.36597,0,0,0,0,0,0,0,-1,804,1443,-8.74089,-6.366
-413,-419,-9.88391,6.53955,0,0,0,0,0,0,0,-1,811,1443,-9.8839,-6.53955
-406,-419,-10.3372,2.75195,0,0,0,0,0,0,0,-1,818,1443,-10.3372,-2.75201
-399,-419,-11.5999,1.40002,0,0,0,0,0,0,0,-1,825,1443,-11.5999,-1.39998
-392,-419,0,0,0,0,0,0,0,0,0,-1,832,1443,0,0
-385,-419,0,0,0,0,0,0,0,0,0,-1,839,1443,0,0
-378,-419,0,0,0,0,0,0,0,0,0,-1,846,1443,0,0
-371,-419,0,0,0,0,0,0,0,0,0,-1,853,1443,0,0
-364,-419,0,0,0,0,0,0,0,0,0,-1,860,1443,0,0
-357,-419,0,0,0,0,0,0,0,0,0,-1,867,1443,0,0
-350,-419,0,0,0,0,0,0,0,0,0,-1,874,1443,0,0
-343,-419,0,0,0,0,0,0,0,0,0,-1,881,1443,0,0
-336,-419,0,0,0,0,0,0,0,0,0,-1,888,1443,0,0
-329,-419,0,0,0,0,0,0,0,0,0,-1,895,1443,0,0
-322,-419,0,0,0,0,0,0,0,0,0,-1,902,1443,0,0
-315,-419,0,0,0,0,0,0,0,0,0,-1,909,1443,0,0
-308,-419,0,0,0,0,0,0,0,0,0,-1,916,1443,0,0
-301,-419,0,0,0,0,0,0,0,0,0,-1,923,1443,0,0
-294,-419,0,0,0,0,0,0,0,0,0,-1,930,1443,0,0
-287,-419,0,0,0,0,0,0,0,0,0,-1,937,1443,0,0
-280,-419,0,0,0,0,0,0,0,0,0,-1,944,1443,0,0
-273,-419,0,0,0,0,0,0,0,0,0,-1,951,1443,0,0
-266,-419,0,0,0,0,0,0,0,0,0,-1,958,1443,0,0
-259,-419,0,0,0,0,0,0,0,0,0,-1,965,1443,0,0
-252,-419,0,0,0,0,0,0,0,0,0,-1,972,1443,0,0
-245,-419,0,0,0,0,0,0,0,0,0,-1,979,1443,0,0
-238,-419,0,0,0,0,0,0,0,0,0,-1,986,1443,0,0
-231,-419,0,0,0,0,0,0,0,0,0,-1,993,1443,0,0
-224,-419,0,0,0,0,0,0,0,0,0,-1,1000,1443,0,0
-217,-419,0,0,0,0,0,0,0,0,0,-1,1007,1443,0,0
-210,-419,0,0,0,0,0,0,0,0,0,-1,1014,1443,0,0
-203,-419,0,0,0,0,0,0,0,0,0,-1,1021,1443,0,0
-196,-419,0,0,0,0,0,0,0,0,0,-1,1028,1443,0,0
-189,-419,0,0,0,0,0,0,0,0,0,-1,1035,1443,0,0
-182,-419,0,0,0,0,0,0,0,0,0,-1,1042,1443,0,0
-175,-419,0,0,0,0,0,0,0,0,0,-1,1049,1443,0,0
-168,-419,0,0,0,0,0,0,0,0,0,-1,1056,1443,0,0
-161,-419,0,0,0,0,0,0,0,0,0,-1,1063,1443,0,0
-154,-419,0,0,0,0,0,0,0,0,0,-1,1070,1443,0,0
-147,-419,0,0,0,0,0,0,0,0,0,-1,1077,1443,0,0
-140,-419,0,0,0,0,0,0,0,0,0,-1,1084,1443,0,0
-133,-419,0,0,0,0,0,0,0,0,0,-1,1091,1443,0,0
-126,-419,0,0,0,0,0,0,0,0,0,-1,1098,1443,0,0
-119,-419,0,0,0,0,0,0,0,0,0,-1,1105,1443,0,0
-112,-419,0,0,0,0,0,0,0,0,0,-1,1112,1443,0,0
-105,-419,0,0,0,0,0,0,0,0,0,-1,1119,1443,0,0
-98,-419,0,0,0,0,0,0,0,0,0,-1,1126,1443,0,0
-91,-419,0,0,0,0,0,0,0,0,0,-1,1133,1443,0,0
-84,-419,0,0,0,0,0,0,0,0,0,-1,1140,1443,0,0
-77,-419,0,0,0,0,0,0,0,0,0,-1,1147,1443,0,0
-70,-419,0,0,0,0,0,0,0,0,0,-1,1154,1443,0,0
-63,-419,0,0,0,0,0,0,0,0,0,-1,1161,1443,0,0
-56,-419,0,0,0,0,0,0,0,0,0,-1,1168,1443,0,0
-49,-419,0,0,0,0,0,0,0,0,0,-1,1175,1443,0,0
-42,-419,0,0,0,0,0,0,0,0,0,-1,1182,1443,0,0
-35,-419,0,0,0,0,0,0,0,0,0,-1,1189,1443,0,0
-28,-419,0,0,0,0,0,0,0,0,0,-1,1196,1443,0,0
-21,-419,0,0,0,0,0,0,0,0,0,-1,1203,1443,0,0
-14,-419,0,0,0,0,0,0,0,0,0,-1,1210,1443,0,0
-7,-419,0,0,0,0,0,0,0,0,0,-1,1217,1443,0,0
0,-419,0,0,0,0,0,0,0,0,0,-1,1224,1443,0,0
7,-419,0,0,0,0,0,0,0,0,0,-1,1231,1443,0,0
14,-419,0,0,0,0,0,0,0,0,0,-1,1238,1443,0,0
21,-419,0,0,0,0,0,0,0,0,0,-1,1245,1443,0,0
28,-419,0,0,0,0,0,0,0,0,0,-1,1252,1443,0,0
35,-419,0,0,0,0,0,0,0,0,0,-1,1259,1443,0,0
42,-419,0,0,0,0,0,0,0,0,0,-1,1266,1443,0,0
49,-419,0,0,0,0,0,0,0,0,0,-1,1273,1443,0,0
56,-419,0,0,0,0,0,0,0,0,0,-1,1280,1443,0,0
63,-419,0,0,0,0,0,0,0,0,0,-1,1287,1443,0,0
70,-419,0,0,0,0,0,0,0,0,0,-1,1294,1443,0,0
77,-419,0,0,0,0,0,0,0,0,0,-1,1301,1443,0,0
84,-419,0,0,0,0,0,0,0,0,0,-1,1308,1443,0,0
91,-419,0,0,0,0,0,0,0,0,0,-1,1315,1443,0,0
98,-419,0,0,0,0,0,0,0,0,0,-1,1322,1443,0,0
105,-419,0,0,0,0,0,0,0,0,0,-1,1329,1443,0,0
112,-419,0,0,0,0,0,0,0,0,0,-1,1336,1443,0,0
119,-419,0,0,0,0,0,0,0,0,0,-1,1343,1443,0,0
126,-419,0,0,0,0,0,0,0,0,0,-1,1350,1443,0,0
133,-419,0,0,0,0,0,0,0,0,0,-1,1357,1443,0,0
140,-419,0,0,0,0,0,0,0,0,0,-1,1364,1443,0,0
147,-419,0,0,0,0,0,0,0,0,0,-1,1371,1443,0,0
154,-419,0,0,0,0,0,0,0,0,0,-1,1378,1443,0,0
161,-419,0,0,0,0,0,0,0,0,0,-1,1385,1443,0,0
168,-419,0,0,0,0,0,0,0,0,0,-1,1392,1443,0,0
175,-419,0,0,0,0,0,0,0,0,0,-1,1399,1443,0,0
182,-419,0,0,0,0,0,0,0,0,0,-1,1406,1443,0,0
189,-419,0,0,0,0,0,0,0,0,0,-1,1413,1443,0,0
196,-419,0,0,0,0,0,0,0,0,0,-1,1420,1443,0,0
203,-419,0,0,0,0,0,0,0,0,0,-1,1427,1443,0,0
210,-419,0,0,0,0,0,0,0,0,0,-1,1434,1443,0,0
217,-419,0,0,0,0,0,0,0,0,0,-1,1441,1443,0,0
224,-419,0,0,0,0,0,0,0,0,0,-1,1448,1443,0,0
231,-419,0,0,0,0,0,0,0,0,0,-1,1455,1443,0,0
238,-419,0,0,0,0,0,0,0,0,0,-1,1462,1443,0,0
245,-419,0,0,0,0,0,0,0,0,0,-1,1469,1443,0,0
252,-419,0,0,0,0,0,0,0,0,0,-1,1476,1443,0,0
259,-419,0,0,0,0,0,0,0,0,0,-1,1483,1443,0,0
266,-419,0,0,0,0,0,0,0,0,0,-1,1490,1443,0,0
273,-419,0,0,0,0,0,0,0,0,0,-1,1497,1443,0,0
280,-419,0,0,0,0,0,0,0,0,0,-1,1504,1443,0,0
287,-419,0,0,0,0,0,0,0,0,0,-1,1511,1443,0,0
294,-419,0,0,0,0,0,0,0,0,0,-1,1518,1443,0,0
301,-419,0,0,0,0,0,0,0,0,0,-1,1525,1443,0,0
308,-419,0,0,0,0,0,0,0,0,0,-1,1532,1443,0,0
315,-419,0,0,0,0,0,0,0,0,0,-1,1539,1443,0,0
322,-419,0,0,0,0,0,0,0,0,0,-1,1546,1443,0,0
329,-419,0,0,0,0,0,0,0,0,0,-1,1553,1443,0,0
336,-419,0,0,0,0,0,0,0,0,0,-1,1560,1443,0,0
343,-419,0,0,0,0,0,0,0,0,0,-1,1567,1443,0,0
350,-419,0,0,0,0,0,0,0,0,0,-1,1574,1443,0,0
357,-419,0,0,0,0,0,0,0,0,0,-1,1581,1443,0,0
364,-419,0,0,0,0,0,0,0,0,0,-1,1588,1443,0,0
371,-419,0,0,0,0,0,0,0,0,0,-1,1595,1443,0,0
378,-419,0,0,0,0,0,0,0,0,0,-1,1602,1443,0,0
385,-419,0,0,0,0,0,0,0,0,0,-1,1609,1443,0,0
392,-419,0,0,0,0,0,0,0,0,0,-1,1616,1443,0,0
399,-419,0,0,0,0,0,0,0,0,0,-1,1623,1443,0,0
406,-419,0,0,0,0,0,0,0,0,0,-1,1630,1443,0,0
413,-419,0,0,0,0,0,0,0,0,0,-1,1637,1443,0,0
420,-419,0,0,0,0,0,0,0,0,0,-1,1644,1443,0,0
427,-419,0,0,0,0,0,0,0,0,0,-1,1651,1443,0,0
434,-419,0,0,0,0,0,0,0,0,0,-1,1658,1443,0,0
441,-419,0,0,0,0,0,0,0,0,0,-1,1665,1443,0,0
448,-419,0,0,0,0,0,0,0,0,0,-1,1672,1443,0,0
455,-419,0,0,0,0,0,0,0,0,0,-1,1679,1443,0,0
462,-419,0,0,0,0,0,0,0,0,0,-1,1686,1443,0,0
469,-419,0,0,0,0,0,0,0,0,0,-1,1693,1443,0,0
476,-419,0,0,0,0,0,0,0,0,0,-1,1700,1443,0,0
483,-419,0,0,0,0,0,0,0,0,0,-1,1707,1443,0,0
490,-419,0,0,0,0,0,0,0,0,0,-1,1714,1443,0,0
497,-419,0,0,0,0,0,0,0,0,0,-1,1721,1443,0,0
504,-419,0,0,0,0,0,0,0,0,0,-1,1728,1443,0,0
511,-419,20.3005,3.7959,0,0,0,0,0,0,0,-1,1735,1443,20.3005,-3.79584
518,-419,21.3154,2.03027,0,0,0,0,0,0,0,-1,1742,1443,21.3155,-2.03029
525,-419,28.3439,-1.24475,0,0,0,0,0,0,0,-1,1749,1443,28.3438,1.24471
532,-419,27.5902,-0.272583,0,0,0,0,0,0,0,-1,1756,1443,27.5902,0.272526
539,-419,26.5278,1.60583,0,0,0,0,0,0,0,-1,1763,1443,26.5279,-1.60579
546,-419,24.9509,2.77539,0,0,0,0,0,0,0,-1,1770,1443,24.9509,-2.77537
553,-419,24.118,3.75525,0,0,0,0,0,0,0,-1,1777,1443,24.1181,-3.75526
560,-419,11.8199,8.26343,0,0,0,0,0,0,0,-1,1784,1443,11.82,-8.26341
567,-419,21.5143,8.74719,0,0,0,0,0,0,0,-1,1791,1443,21.5143,-8.74722
574,-419,19.5886,6.46155,0,0,0,0,0,0,0,-1,1798,1443,19.5886,-6.46157
581,-419,20.7926,11.4265,0,0,0,0,0,0,0,-1,1805,1443,20.7926,-11.4265
588,-419,19.4242,12.5363,0,0,0,0,0,0,0,-1,1812,1443,19.4242,-12.5362
595,-419,22.9375,16.0151,0,0,0,0,0,0,0,-1,1819,1443,22.9375,-16.0152
602,-419,33.0765,22.3267,0,0,0,0,0,0,0,-1,1826,1443,33.0766,-22.3267
609,-419,33.094,21.5548,0.00385807,0.00287311,-0.00280962,0.00621804,0.000513131,-0.698638,0.00398534,0.0256831,1833,1443,33.094,-21.5549
616,-419,33.0757,20.8695,0.00290468,0.00185261,-0.0019362,0.00438503,0.000372258,-0.652757,0.00280751,0.0131518,1840,1443,33.0757,-20.8695
623,-419,33.0413,20.1843,0.00226588,0.00121107,-0.00135562,0.00319307,0.000283877,-0.599883,0.00204068,0.0108411,1847,1443,33.0412,-20.1844
630,-419,33.0265,19.4623,0.00197114,0.000702869,-0.000973918,0.00249918,0.000174832,-0.496818,0.00161101,0.0128087,1854,1443,33.0265,-19.4623
637,-419,32.9958,18.7716,0.00194005,0.000517439,-0.000825726,0.0023186,0.000138891,-0.429852,0.00150158,0.0135682,1861,1443,32.9958,-18.7717
644,-419,32.9634,18.0994,0.00217555,0.000612929,-0.000764092,0.00248707,0.000301407,-0.387128,0.00156727,0.0123141,1868,1443,32.9633,-18.0994
651,-419,32.9137,17.4454,0.00266414,0.00093655,-0.000886671,0.00303821,0.000562472,-0.399233,0.00186645,0.0124188,1875,1443,32.9137,-17.4455
658,-419,32.8693,16.7422,0.00338762,0.00150521,-0.00109527,0.00389054,0.00100229,-0.430453,0.00233252,0.0133353,1882,1443,32.8692,-16.7422
665,-419,32.8655,16.0383,0.00441409,0.0023561,-0.00133425,0.00507004,0.00170014,-0.456929,0.00297964,0.0210201,1889,1443,32.8655,-16.0383
672,-419,32.9475,15.2516,0.00553815,0.00343081,-0.00142099,0.00625349,0.00271546,-0.466377,0.00362085,0.0423957,1896,1443,32.9475,-15.2515
679,-419,33.1997,14.5255,0,0,0,0,0,0,0,-1,1903,1443,33.1998,-14.5255
686,-419,17.4127,8.03076,0,0,0,0,0,0,0,-1,1910,1443,17.4127,-8.03071
693,-419,8.76086,5.60535,0,0,0,0,0,0,0,-1,1917,1443,8.76091,-5.6054
700,-419,11.0498,4.85156,0,0,0,0,0,0,0,-1,1924,1443,11.0498,-4.85153
707,-419,9.5752,1.80042,0,0,0,0,0,0,0,-1,1931,1443,9.57523,-1.80037
714,-419,5.77576,-1.25061,0,0,0,0,0,0,0,-1,1938,1443,5.7757,1.25056
721,-419,0,0,0,0,0,0,0,0,0,-1,1945,1443,0,0
728,-419,0,0,0,0,0,0,0,0,0,-1,1952,1443,0,0
735,-419,0,0,0,0,0,0,0,0,0,-1,1959,1443,0,0
742,-419,0,0,0,0,0,0,0,0,0,-1,1966,1443,0,0
749,-419,0,0,0,0,0,0,0,0,0,-1,1973,1443,0,0
756,-419,0,0,0,0,0,0,0,0,0,-1,1980,1443,0,0
763,-419,0,0,0,0,0,0,0,0,0,-1,1987,1443,0,0
770,-419,0,0,0,0,0,0,0,0,0,-1,1994,1443,0,0
777,-419,0,0,0,0,0,0,0,0,0,-1,2001,1443,0,0
784,-419,0,0,0,0,0,0,0,0,0,-1,2008,1443,0,0
791,-419,0,0,0,0,0,0,0,0,0,-1,2015,1443,0,0
798,-419,0,0,0,0,0,0,0,0,0,-1,2022,1443,0,0
805,-419,0,0,0,0,0,0,0,0,0,-1,2029,1443,0,0
812,-419,0,0,0,0,0,0,0,0,0,-1,2036,1443,0,0
-700,-426,0,0,0,0,0,0,0,0,0,-1,524,1450,0,0
-693,-426,0,0,0,0,0,0,0,0,0,-1,531,1450,0,0
-686,-426,0,0,0,0,0,0,0,0,0,-1,538,1450,0,0
-679,-426,0,0,0,0,0,0,0,0,0,-1,545,1450,0,0
-672,-426,0,0,0,0,0,0,0,0,0,-1,552,1450,0,0
-665,-426,0,0,0,0,0,0,0,0,0,-1,559,1450,0,0
-658,-426,0,0,0,0,0,0,0,0,0,-1,566,1450,0,0
-651,-426,0,0,0,0,0,0,0,0,0,-1,573,1450,0,0
-644,-426,0,0,0,0,0,0,0,0,0,-1,580,1450,0,0
-637,-426,0,0,0,0,0,0,0,0,0,-1,587,1450,0,0
-630,-426,0,0,0,0,0,0,0,0,0,-1,594,1450,0,0
-623,-426,0,0,0,0,0,0,0,0,0,-1,601,1450,0,0
-616,-426,0,0,0,0,0,0,0,0,0,-1,608,1450,0,0
-609,-426,0,0,0,0,0,0,0,0,0,-1,615,1450,0,0
-602,-426,0,0,0,0,0,0,0,0,0,-1,622,1450,0,0
-595,-426,0,0,0,0,0,0,0,0,0,-1,629,1450,0,0
-588,-426,-10.184,-0.554321,0,0,0,0,0,0,0,-1,636,1450,-10.184,0.554321
-581,-426,-7.3349,1.48157,0,0,0,0,0,0,0,-1,643,1450,-7.33491,-1.48152
-574,-426,-5.02856,2.89319,0,0,0,0,0,0,0,-1,650,1450,-5.02858,-2.89319
-567,-426,-3.04797,1.72644,0,0,0,0,0,0,0,-1,657,1450,-3.04797,-1.72639
-560,-426,-5.55682,3.44397,0,0,0,0,0,0,0,-1,664,1450,-5.55684,-3.44399
-553,-426,-4.67017,6.66614,0,0,0,0,0,0,0,-1,671,1450,-4.67015,-6.66619
-546,-426,-7.58752,8.28882,0,0,0,0,0,0,0,-1,678,1450,-7.58752,-8.28878
-539,-426,-10.436,10.7441,0,0,0,0,0,0,0,-1,685,1450,-10.436,-10.7441
-532,-426,-15.3807,14.7069,0,0,0,0,0,0,0,-1,692,1450,-15.3808,-14.7069
-525,-426,-15.3511,15.4521,0.00274862,0.00152723,0.00206651,0.00429279,-1.69324e-05,0.641728,0.00286752,0.0224744,699,1450,-15.3511,-15.4522
-518,-426,-15.334,16.2357,0.00224081,0.00122944,0.00175252,0.00355914,-8.88914e-05,0.64494,0.00240294,0.0166542,706,1450,-15.334,-16.2357
-511,-426,-15.3532,16.9885,0.00186727,0.00103876,0.00150924,0.00301808,-0.000112047,0.651457,0.00205042,0.0159011,713,1450,-15.3532,-16.9886
-504,-426,-15.4161,17.7146,0.00160855,0.000939502,0.00130916,0.00262525,-7.72011e-05,0.660313,0.00177646,0.0163506,720,1450,-15.4161,-17.7146
-497,-426,-15.4462,18.4369,0.00149844,0.000930867,0.00116847,0.00241709,1.2213e-05,0.666271,0.00160734,0.0128086,727,1450,-15.4462,-18.4368
-490,-426,-15.4721,19.1588,0.00154862,0.00107529,0.0011485,0.00248459,0.000139324,0.683788,0.00161196,0.0120288,734,1450,-15.4721,-19.1588
-483,-426,-15.5245,19.8787,0.00178499,0.00137863,0.00123625,0.00283464,0.000328972,0.70395,0.00179021,0.0116687,741,1450,-15.5245,-19.8787
-476,-426,-15.551,20.5942,0.00219014,0.00182545,0.00145748,0.00347664,0.000538951,0.723168,0.00216063,0.00904626,748,1450,-15.551,-20.5943
-469,-426,-15.5749,21.3052,0.00278857,0.00227102,0.00172345,0.00427256,0.000787028,0.71088,0.00262565,0.0132696,755,1450,-15.5749,-21.3052
-462,-426,-15.5007,22.0587,0,0,0,0,0,0,0,-1,762,1450,-15.5007,-22.0587
-455,-426,-10.215,17.7007,0,0,0,0,0,0,0,-1,769,1450,-10.215,-17.7007
-448,-426,-6.46545,10.1322,0,0,0,0,0,0,0,-1,776,1450,-6.46543,-10.1322
-441,-426,-10.9547,11.4747,0,0,0,0,0,0,0,-1,783,1450,-10.9546,-11.4748
-434,-426,-10.4998,13.6189,0,0,0,0,0,0,0,-1,790,1450,-10.4997,-13.6189
-427,-426,-9.36627,13.7396,0,0,0,0,0,0,0,-1,797,1450,-9.36628,-13.7396
-420,-426,-5.33765,7.95044,0,0,0,0,0,0,0,-1,804,1450,-5.33766,-7.95041
-413,-426,-10.1148,5.0415,0,0,0,0,0,0,0,-1,811,1450,-10.1148,-5.04152
-406,-426,-11.4199,3.6438,0,0,0,0,0,0,0,-1,818,1450,-11.4198,-3.64382
-399,-426,-12.7595,2.29004,0,0,0,0,0,0,0,-1,825,1450,-12.7595,-2.29003
-392,-426,-12.4147,0.537354,0,0,0,0,0,0,0,-1,832,1450,-12.4147,-0.53731
-385,-426,0,0,0,0,0,0,0,0,0,-1,839,1450,0,0
-378,-426,0,0,0,0,0,0,0,0,0,-1,846,1450,0,0
-371,-426,0,0,0,0,0,0,0,0,0,-1,853,1450,0,0
-364,-426,0,0,0,0,0,0,0,0,0,-1,860,1450,0,0
-357,-426,0,0,0,0,0,0,0,0,0,-1,867,1450,0,0
-350,-426,0,0,0,0,0,0,0,0,0,-1,874,1450,0,0
-343,-426,0,0,0,0,0,0,0,0,0,-1,881,1450,0,0
-336,-426,0,0,0,0,0,0,0,0,0,-1,888,1450,0,0
-329,-426,0,0,0,0,0,0,0,0,0,-1,895,1450,0,0
-322,-426,0,0,0,0,0,0,0,0,0,-1,902,1450,0,0
-315,-426,0,0,0,0,0,0,0,0,0,-1,909,1450,0,0
-308,-426,0,0,0,0,0,0,0,0,0,-1,916,1450,0,0
-301,-426,0,0,0,0,0,0,0,0,0,-1,923,1450,0,0
-294,-426,0,0,0,0,0,0,0,0,0,-1,930,1450,0,0
-287,-426,0,0,0,0,0,0,0,0,0,-1,937,1450,0,0
-280,-426,0,0,0,0,0,0,0,0,0,-1,944,1450,0,0
-273,-426,0,0,0,0,0,0,0,0,0,-1,951,1450,0,0
-266,-426,0,0,0,0,0,0,0,0,0,-1,958,1450,0,0
-259,-426,0,0,0,0,0,0,0,0,0,-1,965,1450,0,0
-252,-426,0,0,0,0,0,0,0,0,0,-1,972,1450,0,0
-245,-426,0,0,0,0,0,0,0,0,0,-1,979,1450,0,0
-238,-426,0,0,0,0,0,0,0,0,0,-1,986,1450,0,0
-231,-426,0,0,0,0,0,0,0,0,0,-1,993,1450,0,0
-224,-426,0,0,0,0,0,0,0,0,0,-1,1000,1450,0,0
-217,-426,0,0,0,0,0,0,0,0,0,-1,1007,1450,0,0
-210,-426,0,0,0,0,0,0,0,0,0,-1,1014,1450,0,0
-203,-426,0,0,0,0,0,0,0,0,0,-1,1021,1450,0,0
-196,-426,0,0,0,0,0,0,0,0,0,-1,1028,1450,0,0
-189,-426,0,0,0,0,0,0,0,0,0,-1,1035,1450,0,0
-182,-426,0,0,0,0,0,0,0,0,0,-1,1042,1450,0,0
-175,-426,0,0,0,0,0,0,0,0,0,-1,1049,1450,0,0
-168,-426,0,0,0,0,0,0,0,0,0,-1,1056,1450,0,0
-161,-426,0,0,0,0,0,0,0,0,0,-1,1063,1450,0,0
-154,-426,0,0,0,0,0,0,0,0,0,-1,1070,1450,0,0
-147,-426,0,0,0,0,0,0,0,0,0,-1,1077,1450,0,0
-140,-426,0,0,0,0,0,0,0,0,0,-1,1084,1450,0,0
-133,-426,0,0,0,0,0,0,0,0,0,-1,1091,1450,0,0
-126,-426,0,0,0,0,0,0,0,0,0,-1,1098,1450,0,0
-119,-426,0,0,0,0,0,0,0,0,0,-1,1105,1450,0,0
-112,-426,0,0,0,0,0,0,0,0,0,-1,1112,1450,0,0
-105,-426,0,0,0,0,0,0,0,0,0,-1,1119,1450,0,0
-98,-426,0,0,0,0,0,0,0,0,0,-1,1126,1450,0,0
-91,-426,0,0,0,0,0,0,0,0,0,-1,1133,1450,0,0
-84,-426,0,0,0,0,0,0,0,0,0,-1,1140,1450,0,0
-77,-426,0,0,0,0,0,0,0,0,0,-1,1147,1450,0,0
-70,-426,0,0,0,0,0,0,0,0,0,-1,1154,1450,0,0
-63,-426,0,0,0,0,0,0,0,0,0,-1,1161,1450,0,0
-56,-426,0,0,0,0,0,0,0,0,0,-1,1168,1450,0,0
-49,-426,0,0,0,0,0,0,0,0,0,-1,1175,1450,0,0
-42,-426,0,0,0,0,0,0,0,0,0,-1,1182,1450,0,0
-35,-426,0,0,0,0,0,0,0,0,0,-1,1189,1450,0,0
-28,-426,0,0,0,0,0,0,0,0,0,-1,1196,1450,0,0
-21,-426,0,0,0,0,0,0,0,0,0,-1,1203,1450,0,0
-14,-426,0,0,0,0,0,0,0,0,0,-1,1210,1450,0,0
-7,-426,0,0,0,0,0,0,0,0,0,-1,1217,1450,0,0
0,-426,0,0,0,0,0,0,0,0,0,-1,1224,1450,0,0
7,-426,0,0,0,0,0,0,0,0,0,-1,1231,1450,0,0
14,-426,0,0,0,0,0,0,0,0,0,-1,1238,1450,0,0
21,-426,0,0,0,0,0,0,0,0,0,-1,1245,1450,0,0
28,-426,0,0,0,0,0,0,0,0,0,-1,1252,1450,0,0
35,-426,0,0,0,0,0,0,0,0,0,-1,1259,1450,0,0
42,-426,0,0,0,0,0,0,0,0,0,-1,1266,1450,0,0
49,-426,0,0,0,0,0,0,0,0,0,-1,1273,1450,0,0
56,-426,0,0,0,0,0,0,0,0,0,-1,1280,1450,0,0
63,-426,0,0,0,0,0,0,0,0,0,-1,1287,1450,0,0
70,-426,0,0,0,0,0,0,0,0,0,-1,1294,1450,0,0
77,-426,0,0,0,0,0,0,0,0,0,-1,1301,1450,0,0
84,-426,0,0,0,0,0,0,0,0,0,-1,1308,1450,0,0
91,-426,0,0,0,0,0,0,0,0,0,-1,1315,1450,0,0
98,-426,0,0,0,0,0,0,0,0,0,-1,1322,1450,0,0
105,-426,0,0,0,0,0,0,0,0,0,-1,1329,1450,0,0
112,-426,0,0,0,0,0,0,0,0,0,-1,1336,1450,0,0
119,-426,0,0,0,0,0,0,0,0,0,-1,1343,1450,0,0
126,-426,0,0,0,0,0,0,0,0,0,-1,1350,1450,0,0
133,-426,0,0,0,0,0,0,0,0,0,-1,1357,1450,0,0
140,-426,0,0,0,0,0,0,0,0,0,-1,1364,1450,0,0
147,-426,0,0,0,0,0,0,0,0,0,-1,1371,1450,0,0
154,-426,0,0,0,0,0,0,0,0,0,-1,1378,1450,0,0
161,-426,0,0,0,0,0,0,0,0,0,-1,1385,1450,0,0
168,-426,0,0,0,0,0,0,0,0,0,-1,1392,1450,0,0
175,-426,0,0,0,0,0,0,0,0,0,-1,1399,1450,0,0
182,-426,0,0,0,0,0,0,0,0,0,-1,1406,1450,0,0
189,-426,0,0,0,0,0,0,0,0,0,-1,1413,1450,0,0
196,-426,0,0,0,0,0,0,0,0,0,-1,1420,1450,0,0
203,-426,0,0,0,0,0,0,0,0,0,-1,1427,1450,0,0
210,-426,0,0,0,0,0,0,0,0,0,-1,1434,1450,0,0
217,-426,0,0,0,0,0,0,0,0,0,-1,1441,1450,0,0
224,-426,0,0,0,0,0,0,0,0,0,-1,1448,1450,0,0
231,-426,0,0,0,0,0,0,0,0,0,-1,1455,1450,0,0
238,-426,0,0,0,0,0,0,0,0,0,-1,1462,1450,0,0
245,-426,0,0,0,0,0,0,0,0,0,-1,1469,1450,0,0
252,-426,0,0,0,0,0,0,0,0,0,-1,1476,1450,0,0
259,-426,0,0,0,0,0,0,0,0,0,-1,1483,1450,0,0
266,-426,0,0,0,0,0,0,0,0,0,-1,1490,1450,0,0
273,-426,0,0,0,0,0,0,0,0,0,-1,1497,1450,0,0
280,-426,0,0,0,0,0,0,0,0,0,-1,1504,1450,0,0
287,-426,0,0,0,0,0,0,0,0,0,-1,1511,1450,0,0
294,-426,0,0,0,0,0,0,0,0,0,-1,1518,1450,0,0
301,-426,0,0,0,0,0,0,0,0,0,-1,1525,1450,0,0
308,-426,0,0,0,0,0,0,0,0,0,-1,1532,1450,0,0
315,-426,0,0,0,0,0,0,0,0,0,-1,1539,1450,0,0
322,-426,0,0,0,0,0,0,0,0,0,-1,1546,1450,0,0
329,-426,0,0,0,0,0,0,0,0,0,-1,1553,1450,0,0
336,-426,0,0,0,0,0,0,0,0,0,-1,1560,1450,0,0
343,-426,0,0,0,0,0,0,0,0,0,-1,1567,1450,0,0
350,-426,0,0,0,0,0,0,0,0,0,-1,1574,1450,0,0
357,-426,0,0,0,0,0,0,0,0,0,-1,1581,1450,0,0
364,-426,0,0,0,0,0,0,0,0,0,-1,1588,1450,0,0
371,-426,0,0,0,0,0,0,0,0,0,-1,1595,1450,0,0
378,-426,0,0,0,0,0,0,0,0,0,-1,1602,1450,0,0
385,-426,0,0,0,0,0,0,0,0,0,-1,1609,1450,0,0
392,-426,0,0,0,0,0,0,0,0,0,-1,1616,1450,0,0
399,-426,0,0,0,0,0,0,0,0,0,-1,1623,1450,0,0
406,-426,0,0,0,0,0,0,0,0,0,-1,1630,1450,0,0
413,-426,0,0,0,0,0,0,0,0,0,-1,1637,1450,0,0
420,-426,0,0,0,0,0,0,0,0,0,-1,1644,1450,0,0
427,-426,0,0,0,0,0,0,0,0,0,-1,1651,1450,0,0
434,-426,0,0,0,0,0,0,0,0,0,-1,1658,1450,0,0
441,-426,0,0,0,0,0,0,0,0,0,-1,1665,1450,0,0
448,-426,0,0,0,0,0,0,0,0,0,-1,1672,1450,0,0
455,-426,0,0,0,0,0,0,0,0,0,-1,1679,1450,0,0
462,-426,0,0,0,0,0,0,0,0,0,-1,1686,1450,0,0
469,-426,0,0,0,0,0,0,0,0,0,-1,1693,1450,0,0
476,-426,0,0,0,0,0,0,0,0,0,-1,1700,1450,0,0
483,-426,0,0,0,0,0,0,0,0,0,-1,1707,1450,0,0
490,-426,0,0,0,0,0,0,0,0,0,-1,1714,1450,0,0
497,-426,0,0,0,0,0,0,0,0,0,-1,1721,1450,0,0
504,-426,20.6873,3.38367,0,0,0,0,0,0,0,-1,1728,1450,20.6873,-3.38361
511,-426,19.6676,3.53748,0,0,0,0,0,0,0,-1,1735,1450,19.6676,-3.53749
518,-426,18.6853,3.32288,0,0,0,0,0,0,0,-1,1742,1450,18.6853,-3.3229
525,-426,18.9552,2.71033,0,0,0,0,0,0,0,-1,1749,1450,18.9552,-2.71034
532,-426,19.4333,2.70764,0,0,0,0,0,0,0,-1,1756,1450,19.4334,-2.70764
539,-426,25.1482,2.56287,0,0,0,0,0,0,0,-1,1763,1450,25.1482,-2.56286
546,-426,24.1136,3.75659,0,0,0,0,0,0,0,-1,1770,1450,24.1136,-3.7566
553,-426,23.0791,4.95032,0,0,0,0,0,0,0,-1,1777,1450,23.0791,-4.95034
560,-426,12.9688,11.8289,0,0,0,0,0,0,0,-1,1784,1450,12.9688,-11.8288
567,-426,13.6388,11.5623,0,0,0,0,0,0,0,-1,1791,1450,13.6388,-11.5623
574,-426,14.3943,11.0286,0,0,0,0,0,0,0,-1,1798,1450,14.3942,-11.0285
581,-426,16.3879,11.4653,0,0,0,0,0,0,0,-1,1805,1450,16.3879,-11.4653
588,-426,18.1212,12.5547,0,0,0,0,0,0,0,-1,1812,1450,18.1212,-12.5547
595,-426,30.0474,21.0964,0,0,0,0,0,0,0,-1,1819,1450,30.0474,-21.0965
602,-426,32.3964,22.2775,0,0,0,0,0,0,0,-1,1826,1450,32.3964,-22.2775
609,-426,32.4069,21.5792,0.00351818,0.00249036,-0.00249202,0.00554872,0.000459808,-0.683712,0.0035558,0.0149216,1833,1450,32.4069,-21.5792
616,-426,32.394,20.8813,0.00268695,0.00169428,-0.00175495,0.00401441,0.000366824,-0.647588,0.00256276,0.0156152,1840,1450,32.394,-20.8813
623,-426,32.3586,20.1962,0.00220102,0.00113061,-0.0012499,0.00302548,0.000306151,-0.583111,0.00192308,0.0125179,1847,1450,32.3586,-20.1961
630,-426,32.3628,19.5156,0.00200953,0.000642569,-0.000907154,0.00246187,0.000190236,-0.46255,0.00158165,0.0126305,1854,1450,32.3627,-19.5156
637,-426,32.3209,18.827,0.0020472,0.000481813,-0.000779861,0.0023694,0.000159612,-0.391793,0.00152918,0.0130237,1861,1450,32.321,-18.827
644,-426,32.2601,18.1359,0.00233037,0.000634949,-0.000737451,0.00260625,0.000359073,-0.357976,0.00163104,0.0132439,1868,1450,32.2601,-18.1359
651,-426,32.208,17.4879,0.00286773,0.0010195,-0.000918014,0.0032462,0.000641027,-0.391044,0.00198526,0.0130526,1875,1450,32.208,-17.488
658,-426,32.184,16.7693,0.00367216,0.00169537,-0.00120435,0.00424177,0.00112576,-0.441784,0.00253726,0.0132961,1882,1450,32.184,-16.7692
665,-426,32.2109,15.9016,0.00482606,0.00272522,-0.00155523,0.00565237,0.00189891,-0.48838,0.00332143,0.0365382,1889,1450,32.211,-15.9016
672,-426,32.4574,15.2617,0,0,0,0,0,0,0,-1,1896,1450,32.4574,-15.2617
679,-426,17.1522,8.15784,0,0,0,0,0,0,0,-1,1903,1450,17.1522,-8.15784
686,-426,13.5326,8.03711,0,0,0,0,0,0,0,-1,1910,1450,13.5326,-8.03717
693,-426,11.8607,6.45215,0,0,0,0,0,0,0,-1,1917,1450,11.8607,-6.45215
700,-426,9.24304,2.95447,0,0,0,0,0,0,0,-1,1924,1450,9.24305,-2.95442
707,-426,8.44519,-1.21448,0,0,0,0,0,0,0,-1,1931,1450,8.44514,1.21454
714,-426,0,0,0,0,0,0,0,0,0,-1,1938,1450,0,0
721,-426,0,0,0,0,0,0,0,0,0,-1,1945,1450,0,0
728,-426,0,0,0,0,0,0,0,0,0,-1,1952,1450,0,0
735,-426,0,0,0,0,0,0,0,0,0,-1,1959,1450,0,0
742,-426,0,0,0,0,0,0,0,0,0,-1,1966,1450,0,0
749,-426,0,0,0,0,0,0,0,0,0,-1,1973,1450,0,0
756,-426,0,0,0,0,0,0,0,0,0,-1,1980,1450,0,0
763,-426,0,0,0,0,0,0,0,0,0,-1,1987,1450,0,0
770,-426,0,0,0,0,0,0,0,0,0,-1,1994,1450,0,0
777,-426,0,0,0,0,0,0,0,0,0,-1,2001,1450,0,0
784,-426,0,0,0,0,0,0,0,0,0,-1,2008,1450,0,0
791,-426,0,0,0,0,0,0,0,0,0,-1,2015,1450,0,0
798,-426,0,0,0,0,0,0,0,0,0,-1,2022,1450,0,0
805,-426,0,0,0,0,0,0,0,0,0,-1,2029,1450,0,0
812,-426,0,0,0,0,0,0,0,0,0,-1,2036,1450,0,0
-700,-433,0,0,0,0,0,0,0,0,0,-1,524,1457,0,0
-693,-433,0,0,0,0,0,0,0,0,0,-1,531,1457,0,0
-686,-433,0,0,0,0,0,0,0,0,0,-1,538,1457,0,0
-679,-433,0,0,0,0,0,0,0,0,0,-1,545,1457,0,0
-672,-433,0,0,0,0,0,0,0,0,0,-1,552,1457,0,0
-665,-433,0,0,0,0,0,0,0,0,0,-1,559,1457,0,0
-658,-433,0,0,0,0,0,0,0,0,0,-1,566,1457,0,0
-651,-433,0,0,0,0,0,0,0,0,0,-1,573,1457,0,0
-644,-433,0,0,0,0,0,0,0,0,0,-1,580,1457,0,0
-637,-433,0,0,0,0,0,0,0,0,0,-1,587,1457,0,0
-630,-433,0,0,0,0,0,0,0,0,0,-1,594,1457,0,0
-623,-433,0,0,0,0,0,0,0,0,0,-1,601,1457,0,0
-616,-433,0,0,0,0,0,0,0,0,0,-1,608,1457,0,0
-609,-433,0,0,0,0,0,0,0,0,0,-1,615,1457,0,0
-602,-433,0,0,0,0,0,0,0,0,0,-1,622,1457,0,0
-595,-433,0,0,0,0,0,0,0,0,0,-1,629,1457,0,0
-588,-433,-10.3756,-0.467041,0,0,0,0,0,0,0,-1,636,1457,-10.3756,0.467081
-581,-433,-8.12201,0.884033,0,0,0,0,0,0,0,-1,643,1457,-8.12204,-0.884056
-574,-433,-5.86847,2.23523,0,0,0,0,0,0,0,-1,650,1457,-5.86844,-2.23519
-567,-433,-5.42255,1.16833,0,0,0,0,0,0,0,-1,657,1457,-5.42254,-1.1683
-560,-433,-6.84027,1.86414,0,0,0,0,0,0,0,-1,664,1457,-6.84026,-1.86412
-553,-433,-5.74017,1.79163,0,0,0,0,0,0,0,-1,671,1457,-5.74015,-1.79166
-546,-433,-8.12451,7.35095,0,0,0,0,0,0,0,-1,678,1457,-8.12451,-7.35097
-539,-433,-7.3136,8.75659,0,0,0,0,0,0,0,-1,685,1457,-7.31362,-8.75659
-532,-433,-14.4959,14.6382,0,0,0,0,0,0,0,-1,692,1457,-14.4959,-14.6381
-525,-433,-14.5594,15.6168,0.00302348,0.00182838,0.00256252,0.0050572,-0.000205335,0.67085,0.00344195,0.0488114,699,1457,-14.5594,-15.6168
-518,-433,-14.6205,16.2936,0.00246109,0.00150736,0.00217501,0.0042109,-0.000242444,0.677482,0.00289147,0.0184141,706,1457,-14.6206,-16.2936
-511,-433,-14.6617,17.0177,0.00203114,0.0012777,0.00185749,0.00354972,-0.000240882,0.68535,0.00245072,0.0164999,713,1457,-14.6618,-17.0177
-504,-433,-14.6883,17.7319,0.00169211,0.00110841,0.0015584,0.00298576,-0.00018523,0.692832,0.00205503,0.0138699,720,1457,-14.6883,-17.7319
-497,-433,-14.7068,18.4617,0.00148829,0.00101082,0.00130874,0.00257989,-8.07776e-05,0.695183,0.00174747,0.0143976,727,1457,-14.7068,-18.4617
-490,-433,-14.7693,19.1805,0.00143807,0.00104373,0.00117083,0.00242821,5.35883e-05,0.70198,0.00160124,0.0156361,734,1457,-14.7693,-19.1805
-483,-433,-14.795,19.906,0.00157738,0.00121737,0.00114895,0.00256034,0.000234407,0.707696,0.00163437,0.016236,741,1457,-14.795,-19.9059
-476,-433,-14.8167,20.6377,0.00189657,0.00156206,0.00128423,0.00302439,0.00043424,0.720645,0.00188823,0.0111419,748,1457,-14.8166,-20.6377
-469,-433,-14.8651,21.3491,0.00238553,0.00195157,0.00149999,0.00368415,0.000652952,0.713568,0.00226997,0.0114656,755,1457,-14.8651,-21.3491
-462,-433,-14.9103,22.0564,0,0,0,0,0,0,0,-1,762,1457,-14.9103,-22.0563
-455,-433,-13.8576,22.7446,0,0,0,0,0,0,0,-1,769,1457,-13.8576,-22.7446
-448,-433,-6.94812,14.5563,0,0,0,0,0,0,0,-1,776,1457,-6.94809,-14.5562
-441,-433,-9.97485,14.0258,0,0,0,0,0,0,0,-1,783,1457,-9.97488,-14.0257
-434,-433,-9.41205,14.2297,0,0,0,0,0,0,0,-1,790,1457,-9.41205,-14.2297
-427,-433,-8.67419,13.6827,0,0,0,0,0,0,0,-1,797,1457,-8.67422,-13.6827
-420,-433,-5.74658,9.49121,0,0,0,0,0,0,0,-1,804,1457,-5.7466,-9.49119
-413,-433,-3.63074,5.5813,0,0,0,0,0,0,0,-1,811,1457,-3.63072,-5.58129
-406,-433,-12.3472,4.69373,0,0,0,0,0,0,0,-1,818,1457,-12.3472,-4.69374
-399,-433,-12.055,2.83594,0,0,0,0,0,0,0,-1,825,1457,-12.055,-2.83594
-392,-433,-12.9772,1.6228,0,0,0,0,0,0,0,-1,832,1457,-12.9772,-1.62282
-385,-433,-13.7999,0.514771,0,0,0,0,0,0,0,-1,839,1457,-13.7999,-0.514788
-378,-433,0,0,0,0,0,0,0,0,0,-1,846,1457,0,0
-371,-433,0,0,0,0,0,0,0,0,0,-1,853,1457,0,0
-364,-433,0,0,0,0,0,0,0,0,0,-1,860,1457,0,0
-357,-433,0,0,0,0,0,0,0,0,0,-1,867,1457,0,0
-350,-433,0,0,0,0,0,0,0,0,0,-1,874,1457,0,0
-343,-433,0,0,0,0,0,0,0,0,0,-1,881,1457,0,0
-336,-433,0,0,0,0,0,0,0,0,0,-1,888,1457,0,0
-329,-433,0,0,0,0,0,0,0,0,0,-1,895,1457,0,0
-322,-433,0,0,0,0,0,0,0,0,0,-1,902,1457,0,0
-315,-433,0,0,0,0,0,0,0,0,0,-1,909,1457,0,0
-308,-433,0,0,0,0,0,0,0,0,0,-1,916,1457,0,0
-301,-433,0,0,0,0,0,0,0,0,0,-1,923,1457,0,0
-294,-433,0,0,0,0,0,0,0,0,0,-1,930,1457,0,0
-287,-433,0,0,0,0,0,0,0,0,0,-1,937,1457,0,0
-280,-433,0,0,0,0,0,0,0,0,0,-1,944,1457,0,0
-273,-433,0,0,0,0,0,0,0,0,0,-1,951,1457,0,0
-266,-433,0,0,0,0,0,0,0,0,0,-1,958,1457,0,0
-259,-433,0,0,0,0,0,0,0,0,0,-1,965,1457,0,0
-252,-433,0,0,0,0,0,0,0,0,0,-1,972,1457,0,0
-245,-433,0,0,0,0,0,0,0,0,0,-1,979,1457,0,0
-238,-433,0,0,0,0,0,0,0,0,0,-1,986,1457,0,0
-231,-433,0,0,0,0,0,0,0,0,0,-1,993,1457,0,0
-224,-433,0,0,0,0,0,0,0,0,0,-1,1000,1457,0,0
-217,-433,0,0,0,0,0,0,0,0,0,-1,1007,1457,0,0
-210,-433,0,0,0,0,0,0,0,0,0,-1,1014,1457,0,0
-203,-433,0,0,0,0,0,0,0,0,0,-1,1021,1457,0,0
-196,-433,0,0,0,0,0,0,0,0,0,-1,1028,1457,0,0
-189,-433,0,0,0,0,0,0,0,0,0,-1,1035,1457,0,0
-182,-433,0,0,0,0,0,0,0,0,0,-1,1042,1457,0,0
-175,-433,0,0,0,0,0,0,0,0,0,-1,1049,1457,0,0
-168,-433,0,0,0,0,0,0,0,0,0,-1,1056,1457,0,0
-161,-433,0,0,0,0,0,0,0,0,0,-1,1063,1457,0,0
-154,-433,0,0,0,0,0,0,0,0,0,-1,1070,1457,0,0
-147,-433,0,0,0,0,0,0,0,0,0,-1,1077,1457,0,0
-140,-433,0,0,0,0,0,0,0,0,0,-1,1084,1457,0,0
-133,-433,0,0,0,0,0,0,0,0,0,-1,1091,1457,0,0
-126,-433,0,0,0,0,0,0,0,0,0,-1,1098,1457,0,0
-119,-433,0,0,0,0,0,0,0,0,0,-1,1105,1457,0,0
-112,-433,0,0,0,0,0,0,0,0,0,-1,1112,1457,0,0
-105,-433,0,0,0,0,0,0,0,0,0,-1,1119,1457,0,0
-98,-433,0,0,0,0,0,0,0,0,0,-1,1126,1457,0,0
-91,-433,0,0,0,0,0,0,0,0,0,-1,1133,1457,0,0
-84,-433,0,0,0,0,0,0,0,0,0,-1,1140,1457,0,0
-77,-433,0,0,0,0,0,0,0,0,0,-1,1147,1457,0,0
-70,-433,0,0,0,0,0,0,0,0,0,-1,1154,1457,0,0
-63,-433,0,0,0,0,0,0,0,0,0,-1,1161,1457,0,0
-56,-433,0,0,0,0,0,0,0,0,0,-1,1168,1457,0,0
-49,-433,0,0,0,0,0,0,0,0,0,-1,1175,1457,0,0
-42,-433,0,0,0,0,0,0,0,0,0,-1,1182,1457,0,0
-35,-433,0,0,0,0,0,0,0,0,0,-1,1189,1457,0,0
-28,-433,0,0,0,0,0,0,0,0,0,-1,1196,1457,0,0
-21,-433,0,0,0,0,0,0,0,0,0,-1,1203,1457,0,0
-14,-433,0,0,0,0,0,0,0,0,0,-1,1210,1457,0,0
-7,-433,0,0,0,0,0,0,0,0,0,-1,1217,1457,0,0
0,-433,0,0,0,0,0,0,0,0,0,-1,1224,1457,0,0
7,-433,0,0,0,0,0,0,0,0,0,-1,1231,1457,0,0
14,-433,0,0,0,0,0,0,0,0,0,-1,1238,1457,0,0
21,-433,0,0,0,0,0,0,0,0,0,-1,1245,1457,0,0
28,-433,0,0,0,0,0,0,0,0,0,-1,1252,1457,0,0
35,-433,0,0,0,0,0,0,0,0,0,-1,1259,1457,0,0
42,-433,0,0,0,0,0,0,0,0,0,-1,1266,1457,0,0
49,-433,0,0,0,0,0,0,0,0,0,-1,1273,1457,0,0
56,-433,0,0,0,0,0,0,0,0,0,-1,1280,1457,0,0
63,-433,0,0,0,0,0,0,0,0,0,-1,1287,1457,0,0
70,-433,0,0,0,0,0,0,0,0,0,-1,1294,1457,0,0
77,-433,0,0,0,0,0,0,0,0,0,-1,1301,1457,0,0
84,-433,0,0,0,0,0,0,0,0,0,-1,1308,1457,0,0
91,-433,0,0,0,0,0,0,0,0,0,-1,1315,1457,0,0
98,-433,0,0,0,0,0,0,0,0,0,-1,1322,1457,0,0
105,-433,0,0,0,0,0,0,0,0,0,-1,1329,1457,0,0
112,-433,0,0,0,0,0,0,0,0,0,-1,1336,1457,0,0
119,-433,0,0,0,0,0,0,0,0,0,-1,1343,1457,0,0
126,-433,0,0,0,0,0,0,0,0,0,-1,1350,1457,0,0
133,-433,0,0,0,0,0,0,0,0,0,-1,1357,1457,0,0
140,-433,0,0,0,0,0,0,0,0,0,-1,1364,1457,0,0
147,-433,0,0,0,0,0,0,0,0,0,-1,1371,1457,0,0
154,-433,0,0,0,0,0,0,0,0,0,-1,1378,1457,0,0
161,-433,0,0,0,0,0,0,0,0,0,-1,1385,1457,0,0
168,-433,0,0,0,0,0,0,0,0,0,-1,1392,1457,0,0
175,-433,0,0,0,0,0,0,0,0,0,-1,1399,1457,0,0
182,-433,0,0,0,0,0,0,0,0,0,-1,1406,1457,0,0
189,-433,0,0,0,0,0,0,0,0,0,-1,1413,1457,0,0
196,-433,0,0,0,0,0,0,0,0,0,-1,1420,1457,0,0
203,-433,0,0,0,0,0,0,0,0,0,-1,1427,1457,0,0
210,-433,0,0,0,0,0,0,0,0,0,-1,1434,1457,0,0
217,-433,0,0,0,0,0,0,0,0,0,-1,1441,1457,0,0
224,-433,0,0,0,0,0,0,0,0,0,-1,1448,1457,0,0
231,-433,0,0,0,0,0,0,0,0,0,-1,1455,1457,0,0
238,-433,0,0,0,0,0,0,0,0,0,-1,1462,1457,0,0
245,-433,0,0,0,0,0,0,0,0,0,-1,1469,1457,0,0
252,-433,0,0,0,0,0,0,0,0,0,-1,1476,1457,0,0
259,-433,0,0,0,0,0,0,0,0,0,-1,1483,1457,0,0
266,-433,0,0,0,0,0,0,0,0,0,-1,1490,1457,0,0
273,-433,0,0,0,0,0,0,0,0,0,-1,1497,1457,0,0
280,-433,0,0,0,0,0,0,0,0,0,-1,1504,1457,0,0
287,-433,0,0,0,0,0,0,0,0,0,-1,1511,1457,0,0
294,-433,0,0,0,0,0,0,0,0,0,-1,1518,1457,0,0
301,-433,0,0,0,0,0,0,0,0,0,-1,1525,1457,0,0
308,-433,0,0,0,0,0,0,0,0,0,-1,1532,1457,0,0
315,-433,0,0,0,0,0,0,0,0,0,-1,1539,1457,0,0
322,-433,0,0,0,0,0,0,0,0,0,-1,1546,1457,0,0
329,-433,0,0,0,0,0,0,0,0,0,-1,1553,1457,0,0
336,-433,0,0,0,0,0,0,0,0,0,-1,1560,1457,0,0
343,-433,0,0,0,0,0,0,0,0,0,-1,1567,1457,0,0
350,-433,0,0,0,0,0,0,0,0,0,-1,1574,1457,0,0
357,-433,0,0,0,0,0,0,0,0,0,-1,1581,1457,0,0
364,-433,0,0,0,0,0,0,0,0,0,-1,1588,1457,0,0
371,-433,0,0,0,0,0,0,0,0,0,-1,1595,1457,0,0
378,-433,0,0,0,0,0,0,0,0,0,-1,1602,1457,0,0
385,-433,0,0,0,0,0,0,0,0,0,-1,1609,1457,0,0
392,-433,0,0,0,0,0,0,0,0,0,-1,1616,1457,0,0
399,-433,0,0,0,0,0,0,0,0,0,-1,1623,1457,0,0
406,-433,0,0,0,0,0,0,0,0,0,-1,1630,1457,0,0
413,-433,0,0,0,0,0,0,0,0,0,-1,1637,1457,0,0
420,-433,0,0,0,0,0,0,0,0,0,-1,1644,1457,0,0
427,-433,0,0,0,0,0,0,0,0,0,-1,1651,1457,0,0
434,-433,0,0,0,0,0,0,0,0,0,-1,1658,1457,0,0
441,-433,0,0,0,0,0,0,0,0,0,-1,1665,1457,0,0
448,-433,0,0,0,0,0,0,0,0,0,-1,1672,1457,0,0
455,-433,0,0,0,0,0,0,0,0,0,-1,1679,1457,0,0
462,-433,0,0,0,0,0,0,0,0,0,-1,1686,1457,0,0
469,-433,0,0,0,0,0,0,0,0,0,-1,1693,1457,0,0
476,-433,0,0,0,0,0,0,0,0,0,-1,1700,1457,0,0
483,-433,0,0,0,0,0,0,0,0,0,-1,1707,1457,0,0
490,-433,0,0,0,0,0,0,0,0,0,-1,1714,1457,0,0
497,-433,0,0,0,0,0,0,0,0,0,-1,1721,1457,0,0
504,-433,19.9058,3.03662,0,0,0,0,0,0,0,-1,1728,1457,19.9058,-3.03656
511,-433,19.0145,3.07837,0,0,0,0,0,0,0,-1,1735,1457,19.0146,-3.07834
518,-433,18.071,3.06433,0,0,0,0,0,0,0,-1,1742,1457,18.071,-3.06432
525,-433,17.2048,3.37085,0,0,0,0,0,0,0,-1,1749,1457,17.2049,-3.37083
532,-433,16.5637,3.36646,0,0,0,0,0,0,0,-1,1756,1457,16.5637,-3.36643
539,-433,15.9193,3.30396,0,0,0,0,0,0,0,-1,1763,1457,15.9193,-3.30394
546,-433,23.1903,4.81775,0,0,0,0,0,0,0,-1,1770,1457,23.1903,-4.81775
553,-433,13.9674,11.5781,0,0,0,0,0,0,0,-1,1777,1457,13.9674,-11.5781
560,-433,13.9855,11.7341,0,0,0,0,0,0,0,-1,1784,1457,13.9855,-11.7341
567,-433,13.9264,11.3364,0,0,0,0,0,0,0,-1,1791,1457,13.9263,-11.3364
574,-433,15.5305,12.3673,0,0,0,0,0,0,0,-1,1798,1457,15.5305,-12.3673
581,-433,16.6405,12.1898,0,0,0,0,0,0,0,-1,1805,1457,16.6405,-12.1898
588,-433,26.4386,19.7478,0,0,0,0,0,0,0,-1,1812,1457,26.4386,-19.7478
595,-433,31.5214,23.2069,0,0,0,0,0,0,0,-1,1819,1457,31.5214,-23.207
602,-433,31.7246,22.3357,0.00386406,0.00296048,-0.00287751,0.00632503,0.000499507,-0.70753,0.00406044,0.0289357,1826,1457,31.7246,-22.3357
609,-433,31.7562,21.5889,0.00302693,0.00208532,-0.00209145,0.00469991,0.000412333,-0.674689,0.00300528,0.0170663,1833,1457,31.7562,-21.5889
616,-433,31.739,20.9237,0.00230962,0.00141371,-0.00146114,0.00338993,0.000333396,-0.636656,0.00215743,0.0143399,1840,1457,31.7391,-20.9237
623,-433,31.6639,20.2295,0.00195617,0.000906693,-0.00101972,0.00257825,0.000284623,-0.547771,0.00163225,0.0113313,1847,1457,31.664,-20.2295
630,-433,31.6492,19.5548,0.00187838,0.000449415,-0.000714235,0.00217415,0.000153641,-0.392613,0.00140103,0.0138112,1854,1457,31.6492,-19.5548
637,-433,31.6234,18.8777,0.00202397,0.000319766,-0.000619242,0.00222521,0.000118521,-0.314218,0.00144559,0.0159197,1861,1457,31.6234,-18.8776
644,-433,31.5735,18.1962,0.0024219,0.000540685,-0.000625212,0.00261073,0.000351854,-0.293317,0.00163586,0.016835,1868,1457,31.5735,-18.1962
651,-433,31.5425,17.4954,0.00313729,0.00103715,-0.000909703,0.00347653,0.0006979,-0.356948,0.00212363,0.0128992,1875,1457,31.5424,-17.4954
658,-433,31.4464,16.7811,0.00418089,0.00187942,-0.00132091,0.00478201,0.0012783,-0.427071,0.00285881,0.0403564,1882,1457,31.4464,-16.7811
665,-433,31.5232,15.8438,0,0,0,0,0,0,0,-1,1889,1457,31.5232,-15.8438
672,-433,18.115,8.7207,0,0,0,0,0,0,0,-1,1896,1457,18.115,-8.72074
679,-433,17.2969,9.6355,0,0,0,0,0,0,0,-1,1903,1457,17.2968,-9.63548
686,-433,13.6356,8.61694,0,0,0,0,0,0,0,-1,1910,1457,13.6356,-8.61694
693,-433,13.4081,8.39624,0,0,0,0,0,0,0,-1,1917,1457,13.4081,-8.39624
700,-433,7.16809,-1.5166,0,0,0,0,0,0,0,-1,1924,1457,7.16806,1.51656
707,-433,8.68359,-2.82202,0,0,0,0,0,0,0,-1,1931,1457,8.68359,2.82197
714,-433,0,0,0,0,0,0,0,0,0,-1,1938,1457,0,0
721,-433,0,0,0,0,0,0,0,0,0,-1,1945,1457,0,0
728,-433,0,0,0,0,0,0,0,0,0,-1,1952,1457,0,0
735,-433,0,0,0,0,0,0,0,0,0,-1,1959,1457,0,0
742,-433,0,0,0,0,0,0,0,0,0,-1,1966,1457,0,0
749,-433,0,0,0,0,0,0,0,0,0,-1,1973,1457,0,0
756,-433,0,0,0,0,0,0,0,0,0,-1,1980,1457,0,0
763,-433,0,0,0,0,0,0,0,0,0,-1,1987,1457,0,0
770,-433,0,0,0,0,0,0,0,0,0,-1,1994,1457,0,0
777,-433,0,0,0,0,0,0,0,0,0,-1,2001,1457,0,0
784,-433,0,0,0,0,0,0,0,0,0,-1,2008,1457,0,0
791,-433,0,0,0,0,0,0,0,0,0,-1,2015,1457,0,0
798,-433,0,0,0,0,0,0,0,0,0,-1,2022,1457,0,0
805,-433,0,0,0,0,0,0,0,0,0,-1,2029,1457,0,0
812,-433,0,0,0,0,0,0,0,0,0,-1,2036,1457,0,0
-700,-440,0,0,0,0,0,0,0,0,0,-1,524,1464,0,0
-693,-440,0,0,0,0,0,0,0,0,0,-1,531,1464,0,0
-686,-440,0,0,0,0,0,0,0,0,0,-1,538,1464,0,0
-679,-440,0,0,0,0,0,0,0,0,0,-1,545,1464,0,0
-672,-440,0,0,0,0,0,0,0,0,0,-1,552,1464,0,0
-665,-440,0,0,0,0,0,0,0,0,0,-1,559,1464,0,0
-658,-440,0,0,0,0,0,0,0,0,0,-1,566,1464,0,0
-651,-440,0,0,0,0,0,0,0,0,0,-1,573,1464,0,0
-644,-440,0,0,0,0,0,0,0,0,0,-1,580,1464,0,0
-637,-440,0,0,0,0,0,0,0,0,0,-1,587,1464,0,0
-630,-440,0,0,0,0,0,0,0,0,0,-1,594,1464,0,0
-623,-440,0,0,0,0,0,0,0,0,0,-1,601,1464,0,0
-616,-440,0,0,0,0,0,0,0,0,0,-1,608,1464,0,0
-609,-440,0,0,0,0,0,0,0,0,0,-1,615,1464,0,0
-602,-440,0,0,0,0,0,0,0,0,0,-1,622,1464,0,0
-595,-440,0,0,0,0,0,0,0,0,0,-1,629,1464,0,0
-588,-440,0,0,0,0,0,0,0,0,0,-1,636,1464,0,0
-581,-440,-8.97278,0.254517,0,0,0,0,0,0,0,-1,643,1464,-8.97276,-0.254526
-574,-440,-7.00818,-0.918579,0,0,0,0,0,0,0,-1,650,1464,-7.00817,0.918538
-567,-440,-6.12152,-0.0766602,0,0,0,0,0,0,0,-1,657,1464,-6.12151,0.0767097
-560,-440,-5.46747,0.82251,0,0,0,0,0,0,0,-1,664,1464,-5.46748,-0.822551
-553,-440,-6.84729,0.0831299,0,0,0,0,0,0,0,-1,671,1464,-6.84732,-0.083136
-546,-440,-5.63446,-0.153198,0,0,0,0,0,0,0,-1,678,1464,-5.63447,0.153147
-539,-440,-6.80017,8.58252,0,0,0,0,0,0,0,-1,685,1464,-6.80015,-8.58257
-532,-440,-9.69647,11.3262,0,0,0,0,0,0,0,-1,692,1464,-9.69649,-11.3262
-525,-440,-14.0103,15.4421,0,0,0,0,0,0,0,-1,699,1464,-14.0103,-15.4421
-518,-440,-13.9399,16.2441,0.00291909,0.00182104,0.00283819,0.00526087,-0.000520738,0.689857,0.00369309,0.0285368,706,1464,-13.9399,-16.2441
-511,-440,-13.9165,17.0472,0.00239613,0.00153616,0.00241538,0.0044195,-0.000487204,0.697311,0.00312143,0.0163163,713,1464,-13.9165,-17.0473
-504,-440,-13.9357,17.7845,0.00193935,0.00127962,0.00199098,0.00362761,-0.000408632,0.703304,0.00256549,0.0197148,720,1464,-13.9357,-17.7846
-497,-440,-13.986,18.4742,0.00160685,0.00108319,0.00160668,0.00297289,-0.00028285,0.704627,0.00208262,0.0224082,727,1464,-13.986,-18.4742
-490,-440,-14.0453,19.1278,0.00142427,0.00101147,0.00132834,0.00256215,-0.000126416,0.708324,0.00175176,0.0229187,734,1464,-14.0453,-19.1278
-483,-440,-14.0756,19.9149,0.00143897,0.00108963,0.00117951,0.00245667,7.19309e-05,0.711888,0.00161434,0.0204207,741,1464,-14.0755,-19.9149
-476,-440,-14.1167,20.66,0.00164653,0.00136471,0.00121362,0.00272739,0.000283851,0.727604,0.00173142,0.0144662,748,1464,-14.1167,-20.66
-469,-440,-14.1635,21.3882,0.00200805,0.00179477,0.00137926,0.00328479,0.00051803,0.746817,0.00203923,0.0129833,755,1464,-14.1634,-21.3882
-462,-440,-14.2384,22.0936,0.00264792,0.00253587,0.00181005,0.00440282,0.000780982,0.769927,0.00271262,0.017537,762,1464,-14.2384,-22.0937
-455,-440,-14.2145,22.8857,0,0,0,0,0,0,0,-1,769,1464,-14.2145,-22.8857
-448,-440,-12.8837,23.5623,0,0,0,0,0,0,0,-1,776,1464,-12.8837,-23.5623
-441,-440,-7.28583,14.7465,0,0,0,0,0,0,0,-1,783,1464,-7.28584,-14.7464
-434,-440,-8.33636,14.5024,0,0,0,0,0,0,0,-1,790,1464,-8.33638,-14.5025
-427,-440,-8.28094,14.2512,0,0,0,0,0,0,0,-1,797,1464,-8.28094,-14.2512
-420,-440,-6.86603,8.09216,0,0,0,0,0,0,0,-1,804,1464,-6.86602,-8.09222
-413,-440,-3.46796,5.72278,0,0,0,0,0,0,0,-1,811,1464,-3.46797,-5.72276
-406,-440,-5.2887,5.20264,0,0,0,0,0,0,0,-1,818,1464,-5.2887,-5.20261
-399,-440,-12.7318,3.94421,0,0,0,0,0,0,0,-1,825,1464,-12.7318,-3.94419
-392,-440,-13.5565,2.51855,0,0,0,0,0,0,0,-1,832,1464,-13.5565,-2.51861
-385,-440,-14.6741,1.39795,0,0,0,0,0,0,0,-1,839,1464,-14.6741,-1.39801
-378,-440,-15.8063,0.293457,0,0,0,0,0,0,0,-1,846,1464,-15.8063,-0.293412
-371,-440,0,0,0,0,0,0,0,0,0,-1,853,1464,0,0
-364,-440,0,0,0,0,0,0,0,0,0,-1,860,1464,0,0
-357,-440,0,0,0,0,0,0,0,0,0,-1,867,1464,0,0
-350,-440,0,0,0,0,0,0,0,0,0,-1,874,1464,0,0
-343,-440,0,0,0,0,0,0,0,0,0,-1,881,1464,0,0
-336,-440,0,0,0,0,0,0,0,0,0,-1,888,1464,0,0
-329,-440,0,0,0,0,0,0,0,0,0,-1,895,1464,0,0
-322,-440,0,0,0,0,0,0,0,0,0,-1,902,1464,0,0
-315,-440,0,0,0,0,0,0,0,0,0,-1,909,1464,0,0
-308,-440,0,0,0,0,0,0,0,0,0,-1,916,1464,0,0
-301,-440,0,0,0,0,0,0,0,0,0,-1,923,1464,0,0
-294,-440,0,0,0,0,0,0,0,0,0,-1,930,1464,0,0
-287,-440,0,0,0,0,0,0,0,0,0,-1,937,1464,0,0
-280,-440,0,0,0,0,0,0,0,0,0,-1,944,1464,0,0
-273,-440,0,0,0,0,0,0,0,0,0,-1,951,1464,0,0
-266,-440,0,0,0,0,0,0,0,0,0,-1,958,1464,0,0
-259,-440,0,0,0,0,0,0,0,0,0,-1,965,1464,0,0
-252,-440,0,0,0,0,0,0,0,0,0,-1,972,1464,0,0
-245,-440,0,0,0,0,0,0,0,0,0,-1,979,1464,0,0
-238,-440,0,0,0,0,0,0,0,0,0,-1,986,1464,0,0
-231,-440,0,0,0,0,0,0,0,0,0,-1,993,1464,0,0
-224,-440,0,0,0,0,0,0,0,0,0,-1,1000,1464,0,0
-217,-440,0,0,0,0,0,0,0,0,0,-1,1007,1464,0,0
-210,-440,0,0,0,0,0,0,0,0,0,-1,1014,1464,0,0
-203,-440,0,0,0,0,0,0,0,0,0,-1,1021,1464,0,0
-196,-440,0,0,0,0,0,0,0,0,0,-1,1028,1464,0,0
-189,-440,0,0,0,0,0,0,0,0,0,-1,1035,1464,0,0
-182,-440,0,0,0,0,0,0,0,0,0,-1,1042,1464,0,0
-175,-440,0,0,0,0,0,0,0,0,0,-1,1049,1464,0,0
-168,-440,0,0,0,0,0,0,0,0,0,-1,1056,1464,0,0
-161,-440,0,0,0,0,0,0,0,0,0,-1,1063,1464,0,0
-154,-440,0,0,0,0,0,0,0,0,0,-1,1070,1464,0,0
-147,-440,0,0,0,0,0,0,0,0,0,-1,1077,1464,0,0
-140,-440,0,0,0,0,0,0,0,0,0,-1,1084,1464,0,0
-133,-440,0,0,0,0,0,0,0,0,0,-1,1091,1464,0,0
-126,-440,0,0,0,0,0,0,0,0,0,-1,1098,1464,0,0
-119,-440,0,0,0,0,0,0,0,0,0,-1,1105,1464,0,0
-112,-440,0,0,0,0,0,0,0,0,0,-1,1112,1464,0,0
-105,-440,0,0,0,0,0,0,0,0,0,-1,1119,1464,0,0
-98,-440,0,0,0,0,0,0,0,0,0,-1,1126,1464,0,0
-91,-440,0,0,0,0,0,0,0,0,0,-1,1133,1464,0,0
-84,-440,0,0,0,0,0,0,0,0,0,-1,1140,1464,0,0
-77,-440,0,0,0,0,0,0,0,0,0,-1,1147,1464,0,0
-70,-440,0,0,0,0,0,0,0,0,0,-1,1154,1464,0,0
-63,-440,0,0,0,0,0,0,0,0,0,-1,1161,1464,0,0
-56,-440,0,0,0,0,0,0,0,0,0,-1,1168,1464,0,0
-49,-440,0,0,0,0,0,0,0,0,0,-1,1175,1464,0,0
-42,-440,0,0,0,0,0,0,0,0,0,-1,1182,1464,0,0
-35,-440,0,0,0,0,0,0,0,0,0,-1,1189,1464,0,0
-28,-440,0,0,0,0,0,0,0,0,0,-1,1196,1464,0,0
-21,-440,0,0,0,0,0,0,0,0,0,-1,1203,1464,0,0
-14,-440,0,0,0,0,0,0,0,0,0,-1,1210,1464,0,0
-7,-440,0,0,0,0,0,0,0,0,0,-1,1217,1464,0,0
0,-440,0,0,0,0,0,0,0,0,0,-1,1224,1464,0,0
7,-440,0,0,0,0,0,0,0,0,0,-1,1231,1464,0,0
14,-440,0,0,0,0,0,0,0,0,0,-1,1238,1464,0,0
21,-440,0,0,0,0,0,0,0,0,0,-1,1245,1464,0,0
28,-440,0,0,0,0,0,0,0,0,0,-1,1252,1464,0,0
35,-440,0,0,0,0,0,0,0,0,0,-1,1259,1464,0,0
42,-440,0,0,0,0,0,0,0,0,0,-1,1266,1464,0,0
49,-440,0,0,0,0,0,0,0,0,0,-1,1273,1464,0,0
56,-440,0,0,0,0,0,0,0,0,0,-1,1280,1464,0,0
63,-440,0,0,0,0,0,0,0,0,0,-1,1287,1464,0,0
70,-440,0,0,0,0,0,0,0,0,0,-1,1294,1464,0,0
77,-440,0,0,0,0,0,0,0,0,0,-1,1301,1464,0,0
84,-440,0,0,0,0,0,0,0,0,0,-1,1308,1464,0,0
91,-440,0,0,0,0,0,0,0,0,0,-1,1315,1464,0,0
98,-440,0,0,0,0,0,0,0,0,0,-1,1322,1464,0,0
105,-440,0,0,0,0,0,0,0,0,0,-1,1329,1464,0,0
112,-440,0,0,0,0,0,0,0,0,0,-1,1336,1464,0,0
119,-440,0,0,0,0,0,0,0,0,0,-1,1343,1464,0,0
126,-440,0,0,0,0,0,0,0,0,0,-1,1350,1464,0,0
133,-440,0,0,0,0,0,0,0,0,0,-1,1357,1464,0,0
140,-440,0,0,0,0,0,0,0,0,0,-1,1364,1464,0,0
147,-440,0,0,0,0,0,0,0,0,0,-1,1371,1464,0,0
154,-440,0,0,0,0,0,0,0,0,0,-1,1378,1464,0,0
161,-440,0,0,0,0,0,0,0,0,0,-1,1385,1464,0,0
168,-440,0,0,0,0,0,0,0,0,0,-1,1392,1464,0,0
175,-440,0,0,0,0,0,0,0,0,0,-1,1399,1464,0,0
182,-440,0,0,0,0,0,0,0,0,0,-1,1406,1464,0,0
189,-440,0,0,0,0,0,0,0,0,0,-1,1413,1464,0,0
196,-440,0,0,0,0,0,0,0,0,0,-1,1420,1464,0,0
203,-440,0,0,0,0,0,0,0,0,0,-1,1427,1464,0,0
210,-440,0,0,0,0,0,0,0,0,0,-1,1434,1464,0,0
217,-440,0,0,0,0,0,0,0,0,0,-1,1441,1464,0,0
224,-440,0,0,0,0,0,0,0,0,0,-1,1448,1464,0,0
231,-440,0,0,0,0,0,0,0,0,0,-1,1455,1464,0,0
238,-440,0,0,0,0,0,0,0,0,0,-1,1462,1464,0,0
245,-440,0,0,0,0,0,0,0,0,0,-1,1469,1464,0,0
252,-440,0,0,0,0,0,0,0,0,0,-1,1476,1464,0,0
259,-440,0,0,0,0,0,0,0,0,0,-1,1483,1464,0,0
266,-440,0,0,0,0,0,0,0,0,0,-1,1490,1464,0,0
273,-440,0,0,0,0,0,0,0,0,0,-1,1497,1464,0,0
280,-440,0,0,0,0,0,0,0,0,0,-1,1504,1464,0,0
287,-440,0,0,0,0,0,0,0,0,0,-1,1511,1464,0,0
294,-440,0,0,0,0,0,0,0,0,0,-1,1518,1464,0,0
301,-440,0,0,0,0,0,0,0,0,0,-1,1525,1464,0,0
308,-440,0,0,0,0,0,0,0,0,0,-1,1532,1464,0,0
315,-440,0,0,0,0,0,0,0,0,0,-1,1539,1464,0,0
322,-440,0,0,0,0,0,0,0,0,0,-1,1546,1464,0,0
329,-440,0,0,0,0,0,0,0,0,0,-1,1553,1464,0,0
336,-440,0,0,0,0,0,0,0,0,0,-1,1560,1464,0,0
343,-440,0,0,0,0,0,0,0,0,0,-1,1567,1464,0,0
350,-440,0,0,0,0,0,0,0,0,0,-1,1574,1464,0,0
357,-440,0,0,0,0,0,0,0,0,0,-1,1581,1464,0,0
364,-440,0,0,0,0,0,0,0,0,0,-1,1588,1464,0,0
371,-440,0,0,0,0,0,0,0,0,0,-1,1595,1464,0,0
378,-440,0,0,0,0,0,0,0,0,0,-1,1602,1464,0,0
385,-440,0,0,0,0,0,0,0,0,0,-1,1609,1464,0,0
392,-440,0,0,0,0,0,0,0,0,0,-1,1616,1464,0,0
399,-440,0,0,0,0,0,0,0,0,0,-1,1623,1464,0,0
406,-440,0,0,0,0,0,0,0,0,0,-1,1630,1464,0,0
413,-440,0,0,0,0,0,0,0,0,0,-1,1637,1464,0,0
420,-440,0,0,0,0,0,0,0,0,0,-1,1644,1464,0,0
427,-440,0,0,0,0,0,0,0,0,0,-1,1651,1464,0,0
434,-440,0,0,0,0,0,0,0,0,0,-1,1658,1464,0,0
441,-440,0,0,0,0,0,0,0,0,0,-1,1665,1464,0,0
448,-440,0,0,0,0,0,0,0,0,0,-1,1672,1464,0,0
455,-440,0,0,0,0,0,0,0,0,0,-1,1679,1464,0,0
462,-440,0,0,0,0,0,0,0,0,0,-1,1686,1464,0,0
469,-440,0,0,0,0,0,0,0,0,0,-1,1693,1464,0,0
476,-440,0,0,0,0,0,0,0,0,0,-1,1700,1464,0,0
483,-440,0,0,0,0,0,0,0,0,0,-1,1707,1464,0,0
490,-440,0,0,0,0,0,0,0,0,0,-1,1714,1464,0,0
497,-440,16.965,-0.528442,0,0,0,0,0,0,0,-1,1721,1464,16.965,0.528492
504,-440,15.8052,0.670166,0,0,0,0,0,0,0,-1,1728,1464,15.8052,-0.670145
511,-440,17.5754,2.77832,0,0,0,0,0,0,0,-1,1735,1464,17.5754,-2.77826
518,-440,16.9017,3.07861,0,0,0,0,0,0,0,-1,1742,1464,16.9018,-3.07859
525,-440,18.4495,12.0867,0,0,0,0,0,0,0,-1,1749,1464,18.4495,-12.0867
532,-440,15.4319,3.64392,0,0,0,0,0,0,0,-1,1756,1464,15.4318,-3.64391
539,-440,14.8214,3.41321,0,0,0,0,0,0,0,-1,1763,1464,14.8214,-3.4132
546,-440,14.8651,10.7683,0,0,0,0,0,0,0,-1,1770,1464,14.8651,-10.7683
553,-440,15.1213,11.4121,0,0,0,0,0,0,0,-1,1777,1464,15.1213,-11.4121
560,-440,17.4325,12.5394,0,0,0,0,0,0,0,-1,1784,1464,17.4325,-12.5394
567,-440,16.9025,12.4249,0,0,0,0,0,0,0,-1,1791,1464,16.9025,-12.425
574,-440,19.2841,14.8679,0,0,0,0,0,0,0,-1,1798,1464,19.2841,-14.868
581,-440,26.4432,21.3477,0,0,0,0,0,0,0,-1,1805,1464,26.4432,-21.3476
588,-440,30.7452,23.9025,0,0,0,0,0,0,0,-1,1812,1464,30.7452,-23.9025
595,-440,30.958,23.104,0.00445984,0.0032722,-0.00312063,0.00704265,0.000689392,-0.691378,0.00448301,0.0320937,1819,1464,30.958,-23.1041
602,-440,31.0654,22.3035,0.00353171,0.00240219,-0.00237085,0.00540414,0.00052976,-0.668473,0.0034398,0.019768,1826,1464,31.0654,-22.3035
609,-440,31.0599,21.6344,0.00278751,0.00164078,-0.00170998,0.00401769,0.0004106,-0.623636,0.00255262,0.0165798,1833,1464,31.06,-21.6343
616,-440,31.0173,20.969,0.00217199,0.00110635,-0.00120114,0.00295318,0.000325156,-0.57664,0.00186985,0.0171271,1840,1464,31.0173,-20.969
623,-440,30.9946,20.2806,0.00191413,0.000673638,-0.000830628,0.00233053,0.00025723,-0.4647,0.00147544,0.0136702,1847,1464,30.9947,-20.2806
630,-440,30.9467,19.5734,0.00190328,0.000282718,-0.000565327,0.002081,0.000104996,-0.304588,0.00135369,0.0115605,1854,1464,30.9467,-19.5734
637,-440,30.9302,18.931,0.00209385,0.000197062,-0.00049627,0.00221585,7.50656e-05,-0.241047,0.00145286,0.016608,1861,1464,30.9302,-18.9311
644,-440,30.9087,18.2565,0.00251366,0.000506906,-0.000544435,0.00265185,0.000368716,-0.248574,0.00165871,0.015603,1868,1464,30.9087,-18.2564
651,-440,30.9077,17.4917,0.00330142,0.00113072,-0.000910422,0.0036327,0.000799438,-0.348987,0.00220419,0.0218336,1875,1464,30.9077,-17.4917
658,-440,30.9614,16.6432,0,0,0,0,0,0,0,-1,1882,1464,30.9615,-16.6432
665,-440,24.2067,12.5813,0,0,0,0,0,0,0,-1,1889,1464,24.2067,-12.5813
672,-440,18.9385,9.6394,0,0,0,0,0,0,0,-1,1896,1464,18.9384,-9.63939
679,-440,16.9508,10.2336,0,0,0,0,0,0,0,-1,1903,1464,16.9508,-10.2337
686,-440,15.2556,8.44177,0,0,0,0,0,0,0,-1,1910,1464,15.2556,-8.44177
693,-440,9.88635,2.89795,0,0,0,0,0,0,0,-1,1917,1464,9.88638,-2.89798
700,-440,7.07825,-2.62061,0,0,0,0,0,0,0,-1,1924,1464,7.07829,2.62057
707,-440,0,0,0,0,0,0,0,0,0,-1,1931,1464,0,0
714,-440,0,0,0,0,0,0,0,0,0,-1,1938,1464,0,0
721,-440,0,0,0,0,0,0,0,0,0,-1,1945,1464,0,0
728,-440,0,0,0,0,0,0,0,0,0,-1,1952,1464,0,0
735,-440,0,0,0,0,0,0,0,0,0,-1,1959,1464,0,0
742,-440,0,0,0,0,0,0,0,0,0,-1,1966,1464,0,0
749,-440,0,0,0,0,0,0,0,0,0,-1,1973,1464,0,0
756,-440,0,0,0,0,0,0,0,0,0,-1,1980,1464,0,0
763,-440,0,0,0,0,0,0,0,0,0,-1,1987,1464,0,0
770,-440,0,0,0,0,0,0,0,0,0,-1,1994,1464,0,0
777,-440,0,0,0,0,0,0,0,0,0,-1,2001,1464,0,0
784,-440,0,0,0,0,0,0,0,0,0,-1,2008,1464,0,0
791,-440,0,0,0,0,0,0,0,0,0,-1,2015,1464,0,0
798,-440,0,0,0,0,0,0,0,0,0,-1,2022,1464,0,0
805,-440,0,0,0,0,0,0,0,0,0,-1,2029,1464,0,0
812,-440,0,0,0,0,0,0,0,0,0,-1,2036,1464,0,0
-700,-447,0,0,0,0,0,0,0,0,0,-1,524,1471,0,0
-693,-447,0,0,0,0,0,0,0,0,0,-1,531,1471,0,0
-686,-447,0,0,0,0,0,0,0,0,0,-1,538,1471,0,0
-679,-447,0,0,0,0,0,0,0,0,0,-1,545,1471,0,0
-672,-447,0,0,0,0,0,0,0,0,0,-1,552,1471,0,0
-665,-447,0,0,0,0,0,0,0,0,0,-1,559,1471,0,0
-658,-447,0,0,0,0,0,0,0,0,0,-1,566,1471,0,0
-651,-447,0,0,0,0,0,0,0,0,0,-1,573,1471,0,0
-644,-447,0,0,0,0,0,0,0,0,0,-1,580,1471,0,0
-637,-447,0,0,0,0,0,0,0,0,0,-1,587,1471,0,0
-630,-447,0,0,0,0,0,0,0,0,0,-1,594,1471,0,0
-623,-447,0,0,0,0,0,0,0,0,0,-1,601,1471,0,0
-616,-447,0,0,0,0,0,0,0,0,0,-1,608,1471,0,0
-609,-447,0,0,0,0,0,0,0,0,0,-1,615,1471,0,0
-602,-447,0,0,0,0,0,0,0,0,0,-1,622,1471,0,0
-595,-447,0,0,0,0,0,0,0,0,0,-1,629,1471,0,0
-588,-447,0,0,0,0,0,0,0,0,0,-1,636,1471,0,0
-581,-447,-7.06482,-1.50476,0,0,0,0,0,0,0,-1,643,1471,-7.0648,1.50474
-574,-447,-6.88092,-0.00585938,0,0,0,0,0,0,0,-1,650,1471,-6.88095,0.00589852
-567,-447,-6.8205,-1.32178,0,0,0,0,0,0,0,-1,657,1471,-6.82047,1.32172
-560,-447,-8.85748,2.80774,0,0,0,0,0,0,0,-1,664,1471,-8.85748,-2.80775
-553,-447,-7.60486,3.26794,0,0,0,0,0,0,0,-1,671,1471,-7.60487,-3.26799
-546,-447,-3.94501,1.8656,0,0,0,0,0,0,0,-1,678,1471,-3.945,-1.86554
-539,-447,-5.35492,4.50024,0,0,0,0,0,0,0,-1,685,1471,-5.35492,-4.50018
-532,-447,-6.12781,8.81091,0,0,0,0,0,0,0,-1,692,1471,-6.12781,-8.81094
-525,-447,-9.44501,12.098,0,0,0,0,0,0,0,-1,699,1471,-9.44502,-12.098
-518,-447,-13.272,16.0657,0,0,0,0,0,0,0,-1,706,1471,-13.272,-16.0657
-511,-447,-13.2175,17.0317,0.00263533,0.00152269,0.00284796,0.0049808,-0.000822781,0.688944,0.00362605,0.0259607,713,1471,-13.2175,-17.0317
-504,-447,-13.1998,17.874,0.00207118,0.00116726,0.00231111,0.0039741,-0.000735666,0.688837,0.00292562,0.0206071,720,1471,-13.1997,-17.874
-497,-447,-13.3126,18.5756,0.00163084,0.000889189,0.00181167,0.00310924,-0.000589211,0.684448,0.00229459,0.0248272,727,1471,-13.3126,-18.5755
-490,-447,-13.3474,19.2007,0.00137254,0.000755632,0.00143456,0.00253143,-0.000403264,0.679503,0.00183686,0.0254009,734,1471,-13.3474,-19.2007
-483,-447,-13.3709,19.9493,0.0013351,0.000821495,0.00122247,0.00232745,-0.000170857,0.68187,0.00161161,0.0223936,741,1471,-13.3709,-19.9493
-476,-447,-13.4124,20.6921,0.00151459,0.00113204,0.00122772,0.00256585,8.07865e-05,0.708122,0.00168428,0.015163,748,1471,-13.4123,-20.6922
-469,-447,-13.4501,21.4282,0.00187478,0.00169515,0.00140398,0.00319182,0.000378114,0.753454,0.00201371,0.0135379,755,1471,-13.4501,-21.4282
-462,-447,-13.4787,22.1621,0.00251444,0.00253064,0.00182875,0.00435131,0.000693778,0.787612,0.00269949,0.0134301,762,1471,-13.4787,-22.1621
-455,-447,-13.5151,22.8602,0.00347147,0.00373083,0.00257112,0.00617554,0.00102676,0.810596,0.00382103,0.0248546,769,1471,-13.5152,-22.8602
-448,-447,-13.5093,23.5886,0,0,0,0,0,0,0,-1,776,1471,-13.5093,-23.5886
-441,-447,-8.68506,19.0931,0,0,0,0,0,0,0,-1,783,1471,-8.68504,-19.0932
-434,-447,-7.43402,15.6273,0,0,0,0,0,0,0,-1,790,1471,-7.43404,-15.6274
-427,-447,-7.21832,14.691,0,0,0,0,0,0,0,-1,797,1471,-7.21834,-14.6911
-420,-447,-8.0545,12.8055,0,0,0,0,0,0,0,-1,804,1471,-8.05452,-12.8055
-413,-447,-4.27393,6.59705,0,0,0,0,0,0,0,-1,811,1471,-4.27392,-6.59707
-406,-447,-1.04279,6.18591,0,0,0,0,0,0,0,-1,818,1471,-1.04276,-6.18586
-399,-447,0.0134888,0.687622,0,0,0,0,0,0,0,-1,825,1471,0.0134841,-0.68767
-392,-447,-14.0646,3.76147,0,0,0,0,0,0,0,-1,832,1471,-14.0646,-3.7615
-385,-447,-15.1695,2.61865,0,0,0,0,0,0,0,-1,839,1471,-15.1695,-2.61871
-378,-447,-15.9424,1.49316,0,0,0,0,0,0,0,-1,846,1471,-15.9424,-1.49313
-371,-447,-17.3655,0.73291,0,0,0,0,0,0,0,-1,853,1471,-17.3655,-0.732946
-364,-447,0,0,0,0,0,0,0,0,0,-1,860,1471,0,0
-357,-447,0,0,0,0,0,0,0,0,0,-1,867,1471,0,0
-350,-447,0,0,0,0,0,0,0,0,0,-1,874,1471,0,0
-343,-447,0,0,0,0,0,0,0,0,0,-1,881,1471,0,0
-336,-447,0,0,0,0,0,0,0,0,0,-1,888,1471,0,0
-329,-447,0,0,0,0,0,0,0,0,0,-1,895,1471,0,0
-322,-447,0,0,0,0,0,0,0,0,0,-1,902,1471,0,0
-315,-447,0,0,0,0,0,0,0,0,0,-1,909,1471,0,0
-308,-447,0,0,0,0,0,0,0,0,0,-1,916,1471,0,0
-301,-447,0,0,0,0,0,0,0,0,0,-1,923,1471,0,0
-294,-447,0,0,0,0,0,0,0,0,0,-1,930,1471,0,0
-287,-447,0,0,0,0,0,0,0,0,0,-1,937,1471,0,0
-280,-447,0,0,0,0,0,0,0,0,0,-1,944,1471,0,0
-273,-447,0,0,0,0,0,0,0,0,0,-1,951,1471,0,0
-266,-447,0,0,0,0,0,0,0,0,0,-1,958,1471,0,0
-259,-447,0,0,0,0,0,0,0,0,0,-1,965,1471,0,0
-252,-447,0,0,0,0,0,0,0,0,0,-1,972,1471,0,0
-245,-447,0,0,0,0,0,0,0,0,0,-1,979,1471,0,0
-238,-447,0,0,0,0,0,0,0,0,0,-1,986,1471,0,0
-231,-447,0,0,0,0,0,0,0,0,0,-1,993,1471,0,0
-224,-447,0,0,0,0,0,0,0,0,0,-1,1000,1471,0,0
-217,-447,0,0,0,0,0,0,0,0,0,-1,1007,1471,0,0
-210,-447,0,0,0,0,0,0,0,0,0,-1,1014,1471,0,0
-203,-447,0,0,0,0,0,0,0,0,0,-1,1021,1471,0,0
-196,-447,0,0,0,0,0,0,0,0,0,-1,1028,1471,0,0
-189,-447,0,0,0,0,0,0,0,0,0,-1,1035,1471,0,0
-182,-447,0,0,0,0,0,0,0,0,0,-1,1042,1471,0,0
-175,-447,0,0,0,0,0,0,0,0,0,-1,1049,1471,0,0
-168,-447,0,0,0,0,0,0,0,0,0,-1,1056,1471,0,0
-161,-447,0,0,0,0,0,0,0,0,0,-1,1063,1471,0,0
-154,-447,0,0,0,0,0,0,0,0,0,-1,1070,1471,0,0
-147,-447,0,0,0,0,0,0,0,0,0,-1,1077,1471,0,0
-140,-447,0,0,0,0,0,0,0,0,0,-1,1084,1471,0,0
-133,-447,0,0,0,0,0,0,0,0,0,-1,1091,1471,0,0
-126,-447,0,0,0,0,0,0,0,0,0,-1,1098,1471,0,0
-119,-447,0,0,0,0,0,0,0,0,0,-1,1105,1471,0,0
-112,-447,0,0,0,0,0,0,0,0,0,-1,1112,1471,0,0
-105,-447,0,0,0,0,0,0,0,0,0,-1,1119,1471,0,0
-98,-447,0,0,0,0,0,0,0,0,0,-1,1126,1471,0,0
-91,-447,0,0,0,0,0,0,0,0,0,-1,1133,1471,0,0
-84,-447,0,0,0,0,0,0,0,0,0,-1,1140,1471,0,0
-77,-447,0,0,0,0,0,0,0,0,0,-1,1147,1471,0,0
-70,-447,0,0,0,0,0,0,0,0,0,-1,1154,1471,0,0
-63,-447,0,0,0,0,0,0,0,0,0,-1,1161,1471,0,0
-56,-447,0,0,0,0,0,0,0,0,0,-1,1168,1471,0,0
-49,-447,0,0,0,0,0,0,0,0,0,-1,1175,1471,0,0
-42,-447,0,0,0,0,0,0,0,0,0,-1,1182,1471,0,0
-35,-447,0,0,0,0,0,0,0,0,0,-1,1189,1471,0,0
-28,-447,0,0,0,0,0,0,0,0,0,-1,1196,1471,0,0
-21,-447,0,0,0,0,0,0,0,0,0,-1,1203,1471,0,0
-14,-447,0,0,0,0,0,0,0,0,0,-1,1210,1471,0,0
-7,-447,0,0,0,0,0,0,0,0,0,-1,1217,1471,0,0
0,-447,0,0,0,0,0,0,0,0,0,-1,1224,1471,0,0
7,-447,0,0,0,0,0,0,0,0,0,-1,1231,1471,0,0
14,-447,0,0,0,0,0,0,0,0,0,-1,1238,1471,0,0
21,-447,0,0,0,0,0,0,0,0,0,-1,1245,1471,0,0
28,-447,0,0,0,0,0,0,0,0,0,-1,1252,1471,0,0
35,-447,0,0,0,0,0,0,0,0,0,-1,1259,1471,0,0
42,-447,0,0,0,0,0,0,0,0,0,-1,1266,1471,0,0
49,-447,0,0,0,0,0,0,0,0,0,-1,1273,1471,0,0
56,-447,0,0,0,0,0,0,0,0,0,-1,1280,1471,0,0
63,-447,0,0,0,0,0,0,0,0,0,-1,1287,1471,0,0
70,-447,0,0,0,0,0,0,0,0,0,-1,1294,1471,0,0
77,-447,0,0,0,0,0,0,0,0,0,-1,1301,1471,0,0
84,-447,0,0,0,0,0,0,0,0,0,-1,1308,1471,0,0
91,-447,0,0,0,0,0,0,0,0,0,-1,1315,1471,0,0
98,-447,0,0,0,0,0,0,0,0,0,-1,1322,1471,0,0
105,-447,0,0,0,0,0,0,0,0,0,-1,1329,1471,0,0
112,-447,0,0,0,0,0,0,0,0,0,-1,1336,1471,0,0
119,-447,0,0,0,0,0,0,0,0,0,-1,1343,1471,0,0
126,-447,0,0,0,0,0,0,0,0,0,-1,1350,1471,0,0
133,-447,0,0,0,0,0,0,0,0,0,-1,1357,1471,0,0
140,-447,0,0,0,0,0,0,0,0,0,-1,1364,1471,0,0
147,-447,0,0,0,0,0,0,0,0,0,-1,1371,1471,0,0
154,-447,0,0,0,0,0,0,0,0,0,-1,1378,1471,0,0
161,-447,0,0,0,0,0,0,0,0,0,-1,1385,1471,0,0
168,-447,0,0,0,0,0,0,0,0,0,-1,1392,1471,0,0
175,-447,0,0,0,0,0,0,0,0,0,-1,1399,1471,0,0
182,-447,0,0,0,0,0,0,0,0,0,-1,1406,1471,0,0
189,-447,0,0,0,0,0,0,0,0,0,-1,1413,1471,0,0
196,-447,0,0,0,0,0,0,0,0,0,-1,1420,1471,0,0
203,-447,0,0,0,0,0,0,0,0,0,-1,1427,1471,0,0
210,-447,0,0,0,0,0,0,0,0,0,-1,1434,1471,0,0
217,-447,0,0,0,0,0,0,0,0,0,-1,1441,1471,0,0
224,-447,0,0,0,0,0,0,0,0,0,-1,1448,1471,0,0
231,-447,0,0,0,0,0,0,0,0,0,-1,1455,1471,0,0
238,-447,0,0,0,0,0,0,0,0,0,-1,1462,1471,0,0
245,-447,0,0,0,0,0,0,0,0,0,-1,1469,1471,0,0
252,-447,0,0,0,0,0,0,0,0,0,-1,1476,1471,0,0
259,-447,0,0,0,0,0,0,0,0,0,-1,1483,1471,0,0
266,-447,0,0,0,0,0,0,0,0,0,-1,1490,1471,0,0
273,-447,0,0,0,0,0,0,0,0,0,-1,1497,1471,0,0
280,-447,0,0,0,0,0,0,0,0,0,-1,1504,1471,0,0
287,-447,0,0,0,0,0,0,0,0,0,-1,1511,1471,0,0
294,-447,0,0,0,0,0,0,0,0,0,-1,1518,1471,0,0
301,-447,0,0,0,0,0,0,0,0,0,-1,1525,1471,0,0
308,-447,0,0,0,0,0,0,0,0,0,-1,1532,1471,0,0
315,-447,0,0,0,0,0,0,0,0,0,-1,1539,1471,0,0
322,-447,0,0,0,0,0,0,0,0,0,-1,1546,1471,0,0
329,-447,0,0,0,0,0,0,0,0,0,-1,1553,1471,0,0
336,-447,0,0,0,0,0,0,0,0,0,-1,1560,1471,0,0
343,-447,0,0,0,0,0,0,0,0,0,-1,1567,1471,0,0
350,-447,0,0,0,0,0,0,0,0,0,-1,1574,1471,0,0
357,-447,0,0,0,0,0,0,0,0,0,-1,1581,1471,0,0
364,-447,0,0,0,0,0,0,0,0,0,-1,1588,1471,0,0
371,-447,0,0,0,0,0,0,0,0,0,-1,1595,1471,0,0
378,-447,0,0,0,0,0,0,0,0,0,-1,1602,1471,0,0
385,-447,0,0,0,0,0,0,0,0,0,-1,1609,1471,0,0
392,-447,0,0,0,0,0,0,0,0,0,-1,1616,1471,0,0
399,-447,0,0,0,0,0,0,0,0,0,-1,1623,1471,0,0
406,-447,0,0,0,0,0,0,0,0,0,-1,1630,1471,0,0
413,-447,0,0,0,0,0,0,0,0,0,-1,1637,1471,0,0
420,-447,0,0,0,0,0,0,0,0,0,-1,1644,1471,0,0
427,-447,0,0,0,0,0,0,0,0,0,-1,1651,1471,0,0
434,-447,0,0,0,0,0,0,0,0,0,-1,1658,1471,0,0
441,-447,0,0,0,0,0,0,0,0,0,-1,1665,1471,0,0
448,-447,0,0,0,0,0,0,0,0,0,-1,1672,1471,0,0
455,-447,0,0,0,0,0,0,0,0,0,-1,1679,1471,0,0
462,-447,0,0,0,0,0,0,0,0,0,-1,1686,1471,0,0
469,-447,0,0,0,0,0,0,0,0,0,-1,1693,1471,0,0
476,-447,0,0,0,0,0,0,0,0,0,-1,1700,1471,0,0
483,-447,0,0,0,0,0,0,0,0,0,-1,1707,1471,0,0
490,-447,18.2214,-0.810303,0,0,0,0,0,0,0,-1,1714,1471,18.2215,0.810307
497,-447,17.0237,0.352417,0,0,0,0,0,0,0,-1,1721,1471,17.0237,-0.352442
504,-447,15.8998,1.53479,0,0,0,0,0,0,0,-1,1728,1471,15.8997,-1.53478
511,-447,14.7201,2.76111,0,0,0,0,0,0,0,-1,1735,1471,14.7201,-2.76107
518,-447,17.7618,13.2864,0,0,0,0,0,0,0,-1,1742,1471,17.7619,-13.2863
525,-447,17.1191,11.9014,0,0,0,0,0,0,0,-1,1749,1471,17.1191,-11.9013
532,-447,16.3959,10.0455,0,0,0,0,0,0,0,-1,1756,1471,16.3959,-10.0456
539,-447,14.1699,10.0204,0,0,0,0,0,0,0,-1,1763,1471,14.1699,-10.0204
546,-447,16.3715,11.8046,0,0,0,0,0,0,0,-1,1770,1471,16.3714,-11.8046
553,-447,17.5106,13.4012,0,0,0,0,0,0,0,-1,1777,1471,17.5107,-13.4012
560,-447,17.0187,13.168,0,0,0,0,0,0,0,-1,1784,1471,17.0187,-13.168
567,-447,18.9286,15.1703,0,0,0,0,0,0,0,-1,1791,1471,18.9286,-15.1703
574,-447,30.1306,25.7349,0,0,0,0,0,0,0,-1,1798,1471,30.1306,-25.7349
581,-447,30.3641,24.6575,0,0,0,0,0,0,0,-1,1805,1471,30.3641,-24.6574
588,-447,30.3965,23.7594,0.00504464,0.00323377,-0.0029802,0.00725392,0.0010245,-0.637921,0.0045332,0.0351191,1812,1471,30.3964,-23.7594
595,-447,30.3905,23.033,0.00389997,0.00256439,-0.00244892,0.00577052,0.000693847,-0.65229,0.00363785,0.0138468,1819,1471,30.3905,-23.033
602,-447,30.3628,22.327,0.00311363,0.00186068,-0.00188435,0.00447292,0.000501395,-0.624916,0.00282966,0.0117943,1826,1471,30.3628,-22.327
609,-447,30.3416,21.6545,0.00251225,0.00126708,-0.00136725,0.00339199,0.000387341,-0.57175,0.00214391,0.0131345,1833,1471,30.3416,-21.6546
616,-447,30.3311,20.9691,0.00204664,0.000874152,-0.000979169,0.00260165,0.000319144,-0.515661,0.00163844,0.0142241,1840,1471,30.331,-20.9691
623,-447,30.3164,20.3181,0.00191825,0.000520562,-0.000674172,0.00219044,0.000248381,-0.383715,0.00138494,0.0151244,1847,1471,30.3165,-20.3181
630,-447,30.2684,19.6355,0.0020063,0.0002133,-0.000444012,0.00211023,0.000109371,-0.229929,0.00137182,0.0101803,1854,1471,30.2685,-19.6355
637,-447,30.2626,18.9474,0.00227196,0.000164277,-0.000399014,0.00234497,9.12673e-05,-0.180974,0.0015338,0.0114911,1861,1471,30.2625,-18.9473
644,-447,30.2467,18.2595,0.00273835,0.000491223,-0.000535451,0.00285941,0.000370156,-0.222362,0.00179565,0.0124046,1868,1471,30.2467,-18.2595
651,-447,30.2612,17.4762,0,0,0,0,0,0,0,-1,1875,1471,30.2613,-17.4763
658,-447,30.2566,16.5862,0,0,0,0,0,0,0,-1,1882,1471,30.2566,-16.5862
665,-447,18.4946,9.79919,0,0,0,0,0,0,0,-1,1889,1471,18.4946,-9.79922
672,-447,18.9784,9.66077,0,0,0,0,0,0,0,-1,1896,1471,18.9784,-9.66081
679,-447,14.844,7.4248,0,0,0,0,0,0,0,-1,1903,1471,14.844,-7.42477
686,-447,9.81079,4.30859,0,0,0,0,0,0,0,-1,1910,1471,9.8108,-4.30864
693,-447,10.48,2.08643,0,0,0,0,0,0,0,-1,1917,1471,10.48,-2.08642
700,-447,0,0,0,0,0,0,0,0,0,-1,1924,1471,0,0
707,-447,0,0,0,0,0,0,0,0,0,-1,1931,1471,0,0
714,-447,0,0,0,0,0,0,0,0,0,-1,1938,1471,0,0
721,-447,0,0,0,0,0,0,0,0,0,-1,1945,1471,0,0
728,-447,0,0,0,0,0,0,0,0,0,-1,1952,1471,0,0
735,-447,0,0,0,0,0,0,0,0,0,-1,1959,1471,0,0
742,-447,0,0,0,0,0,0,0,0,0,-1,1966,1471,0,0
749,-447,0,0,0,0,0,0,0,0,0,-1,1973,1471,0,0
756,-447,0,0,0,0,0,0,0,0,0,-1,1980,1471,0,0
763,-447,0,0,0,0,0,0,0,0,0,-1,1987,1471,0,0
770,-447,0,0,0,0,0,0,0,0,0,-1,1994,1471,0,0
777,-447,0,0,0,0,0,0,0,0,0,-1,2001,1471,0,0
784,-447,0,0,0,0,0,0,0,0,0,-1,2008,1471,0,0
791,-447,0,0,0,0,0,0,0,0,0,-1,2015,1471,0,0
798,-447,0,0,0,0,0,0,0,0,0,-1,2022,1471,0,0
805,-447,0,0,0,0,0,0,0,0,0,-1,2029,1471,0,0
812,-447,0,0,0,0,0,0,0,0,0,-1,2036,1471,0,0
-700,-454,0,0,0,0,0,0,0,0,0,-1,524,1478,0,0
-693,-454,0,0,0,0,0,0,0,0,0,-1,531,1478,0,0
-686,-454,0,0,0,0,0,0,0,0,0,-1,538,1478,0,0
-679,-454,0,0,0,0,0,0,0,0,0,-1,545,1478,0,0
-672,-454,0,0,0,0,0,0,0,0,0,-1,552,1478,0,0
-665,-454,0,0,0,0,0,0,0,0,0,-1,559,1478,0,0
-658,-454,0,0,0,0,0,0,0,0,0,-1,566,1478,0,0
-651,-454,0,0,0,0,0,0,0,0,0,-1,573,1478,0,0
-644,-454,0,0,0,0,0,0,0,0,0,-1,580,1478,0,0
-637,-454,0,0,0,0,0,0,0,0,0,-1,587,1478,0,0
-630,-454,0,0,0,0,0,0,0,0,0,-1,594,1478,0,0
-623,-454,0,0,0,0,0,0,0,0,0,-1,601,1478,0,0
-616,-454,0,0,0,0,0,0,0,0,0,-1,608,1478,0,0
-609,-454,0,0,0,0,0,0,0,0,0,-1,615,1478,0,0
-602,-454,0,0,0,0,0,0,0,0,0,-1,622,1478,0,0
-595,-454,0,0,0,0,0,0,0,0,0,-1,629,1478,0,0
-588,-454,0,0,0,0,0,0,0,0,0,-1,636,1478,0,0
-581,-454,0,0,0,0,0,0,0,0,0,-1,643,1478,0,0
-574,-454,-8.4881,-0.465942,0,0,0,0,0,0,0,-1,650,1478,-8.4881,0.465885
-567,-454,-8.10046,0.922974,0,0,0,0,0,0,0,-1,657,1478,-8.10047,-0.923034
-560,-454,-10.656,3.51172,0,0,0,0,0,0,0,-1,664,1478,-10.656,-3.51176
-553,-454,-9.01129,3.95251,0,0,0,0,0,0,0,-1,671,1478,-9.0113,-3.95256
-546,-454,-9.61896,6.05237,0,0,0,0,0,0,0,-1,678,1478,-9.61897,-6.05239
-539,-454,-7.72589,4.96533,0,0,0,0,0,0,0,-1,685,1478,-7.72592,-4.96532
-532,-454,-7.03931,7.59985,0,0,0,0,0,0,0,-1,692,1478,-7.03929,-7.59981
-525,-454,-5.78723,9.677,0,0,0,0,0,0,0,-1,699,1478,-5.78722,-9.67703
-518,-454,-9.82098,13.8295,0,0,0,0,0,0,0,-1,706,1478,-9.82098,-13.8295
-511,-454,-12.5977,17.0613,0,0,0,0,0,0,0,-1,713,1478,-12.5977,-17.0613
-504,-454,-12.5206,17.8657,0.00219285,0.00125868,0.00261051,0.00437773,-0.000926198,0.696873,0.00327122,0.0203382,720,1478,-12.5206,-17.8657
-497,-454,-12.597,18.6281,0.00163504,0.000883253,0.00196997,0.00326466,-0.000746361,0.691125,0.00246321,0.0193117,727,1478,-12.597,-18.6281
-490,-454,-12.6097,19.325,0.00129863,0.000637959,0.00147278,0.00247767,-0.00054108,0.675077,0.00185858,0.0188099,734,1478,-12.6098,-19.325
-483,-454,-12.6431,20.0433,0.00120082,0.000632647,0.00119373,0.0021438,-0.000310336,0.668581,0.00154308,0.0164867,741,1478,-12.6431,-20.0434
-476,-454,-12.6932,20.7333,0.00134354,0.000900487,0.00116739,0.00231024,-6.62054e-05,0.691631,0.00156269,0.0137085,748,1478,-12.6932,-20.7333
-469,-454,-12.7202,21.4673,0.00169179,0.00146272,0.00135493,0.00293702,0.000217493,0.743233,0.00188969,0.0103977,755,1478,-12.7201,-21.4672
-462,-454,-12.7613,22.1984,0.00229508,0.00224785,0.00178196,0.00405359,0.000489351,0.778772,0.00255494,0.0111313,762,1478,-12.7613,-22.1984
-455,-454,-12.8004,22.8998,0.00320024,0.0033538,0.00251946,0.00579765,0.000756387,0.800631,0.00363927,0.0125509,769,1478,-12.8004,-22.8998
-448,-454,-12.777,23.6449,0.0045268,0.00506407,0.00381687,0.00862175,0.000969123,0.820531,0.00545357,0.0273105,776,1478,-12.777,-23.6449
-441,-454,-12.5932,24.525,0,0,0,0,0,0,0,-1,783,1478,-12.5932,-24.525
-434,-454,-7.55743,19.4857,0,0,0,0,0,0,0,-1,790,1478,-7.55746,-19.4858
-427,-454,-6.00183,15.8636,0,0,0,0,0,0,0,-1,797,1478,-6.00184,-15.8637
-420,-454,-6.28088,15.2135,0,0,0,0,0,0,0,-1,804,1478,-6.28087,-15.2135
-413,-454,-5.4408,13.674,0,0,0,0,0,0,0,-1,811,1478,-5.44079,-13.6739
-406,-454,-2.38208,10.0308,0,0,0,0,0,0,0,-1,818,1478,-2.38209,-10.0308
-399,-454,-1.21033,6.95447,0,0,0,0,0,0,0,-1,825,1478,-1.21035,-6.95452
-392,-454,0.0967407,0.985474,0,0,0,0,0,0,0,-1,832,1478,0.0967364,-0.985529
-385,-454,2.38629,3.297,0,0,0,0,0,0,0,-1,839,1478,2.38629,-3.29702
-378,-454,-15.9756,2.83997,0,0,0,0,0,0,0,-1,846,1478,-15.9756,-2.83994
-371,-454,-17.2753,2.01453,0,0,0,0,0,0,0,-1,853,1478,-17.2753,-2.01455
-364,-454,1.08124,0.819458,0,0,0,0,0,0,0,-1,860,1478,1.08124,-0.819513
-357,-454,0,0,0,0,0,0,0,0,0,-1,867,1478,0,0
-350,-454,0,0,0,0,0,0,0,0,0,-1,874,1478,0,0
-343,-454,0,0,0,0,0,0,0,0,0,-1,881,1478,0,0
-336,-454,0,0,0,0,0,0,0,0,0,-1,888,1478,0,0
-329,-454,0,0,0,0,0,0,0,0,0,-1,895,1478,0,0
-322,-454,0,0,0,0,0,0,0,0,0,-1,902,1478,0,0
-315,-454,0,0,0,0,0,0,0,0,0,-1,909,1478,0,0
-308,-454,0,0,0,0,0,0,0,0,0,-1,916,1478,0,0
-301,-454,0,0,0,0,0,0,0,0,0,-1,923,1478,0,0
-294,-454,0,0,0,0,0,0,0,0,0,-1,930,1478,0,0
-287,-454,0,0,0,0,0,0,0,0,0,-1,937,1478,0,0
-280,-454,0,0,0,0,0,0,0,0,0,-1,944,1478,0,0
-273,-454,0,0,0,0,0,0,0,0,0,-1,951,1478,0,0
-266,-454,0,0,0,0,0,0,0,0,0,-1,958,1478,0,0
-259,-454,0,0,0,0,0,0,0,0,0,-1,965,1478,0,0
-252,-454,0,0,0,0,0,0,0,0,0,-1,972,1478,0,0
-245,-454,0,0,0,0,0,0,0,0,0,-1,979,1478,0,0
-238,-454,0,0,0,0,0,0,0,0,0,-1,986,1478,0,0
-231,-454,0,0,0,0,0,0,0,0,0,-1,993,1478,0,0
-224,-454,0,0,0,0,0,0,0,0,0,-1,1000,1478,0,0
-217,-454,0,0,0,0,0,0,0,0,0,-1,1007,1478,0,0
-210,-454,0,0,0,0,0,0,0,0,0,-1,1014,1478,0,0
-203,-454,0,0,0,0,0,0,0,0,0,-1,1021,1478,0,0
-196,-454,0,0,0,0,0,0,0,0,0,-1,1028,1478,0,0
-189,-454,0,0,0,0,0,0,0,0,0,-1,1035,1478,0,0
-182,-454,0,0,0,0,0,0,0,0,0,-1,1042,1478,0,0
-175,-454,0,0,0,0,0,0,0,0,0,-1,1049,1478,0,0
-168,-454,0,0,0,0,0,0,0,0,0,-1,1056,1478,0,0
-161,-454,0,0,0,0,0,0,0,0,0,-1,1063,1478,0,0
-154,-454,0,0,0,0,0,0,0,0,0,-1,1070,1478,0,0
-147,-454,0,0,0,0,0,0,0,0,0,-1,1077,1478,0,0
-140,-454,0,0,0,0,0,0,0,0,0,-1,1084,1478,0,0
-133,-454,0,0,0,0,0,0,0,0,0,-1,1091,1478,0,0
-126,-454,0,0,0,0,0,0,0,0,0,-1,1098,1478,0,0
-119,-454,0,0,0,0,0,0,0,0,0,-1,1105,1478,0,0
-112,-454,0,0,0,0,0,0,0,0,0,-1,1112,1478,0,0
-105,-454,0,0,0,0,0,0,0,0,0,-1,1119,1478,0,0
-98,-454,0,0,0,0,0,0,0,0,0,-1,1126,1478,0,0
-91,-454,0,0,0,0,0,0,0,0,0,-1,1133,1478,0,0
-84,-454,0,0,0,0,0,0,0,0,0,-1,1140,1478,0,0
-77,-454,0,0,0,0,0,0,0,0,0,-1,1147,1478,0,0
-70,-454,0,0,0,0,0,0,0,0,0,-1,1154,1478,0,0
-63,-454,0,0,0,0,0,0,0,0,0,-1,1161,1478,0,0
-56,-454,0,0,0,0,0,0,0,0,0,-1,1168,1478,0,0
-49,-454,0,0,0,0,0,0,0,0,0,-1,1175,1478,0,0
-42,-454,0,0,0,0,0,0,0,0,0,-1,1182,1478,0,0
-35,-454,0,0,0,0,0,0,0,0,0,-1,1189,1478,0,0
-28,-454,0,0,0,0,0,0,0,0,0,-1,1196,1478,0,0
-21,-454,0,0,0,0,0,0,0,0,0,-1,1203,1478,0,0
-14,-454,0,0,0,0,0,0,0,0,0,-1,1210,1478,0,0
-7,-454,0,0,0,0,0,0,0,0,0,-1,1217,1478,0,0
0,-454,0,0,0,0,0,0,0,0,0,-1,1224,1478,0,0
7,-454,0,0,0,0,0,0,0,0,0,-1,1231,1478,0,0
14,-454,0,0,0,0,0,0,0,0,0,-1,1238,1478,0,0
21,-454,0,0,0,0,0,0,0,0,0,-1,1245,1478,0,0
28,-454,0,0,0,0,0,0,0,0,0,-1,1252,1478,0,0
35,-454,0,0,0,0,0,0,0,0,0,-1,1259,1478,0,0
42,-454,0,0,0,0,0,0,0,0,0,-1,1266,1478,0,0
49,-454,0,0,0,0,0,0,0,0,0,-1,1273,1478,0,0
56,-454,0,0,0,0,0,0,0,0,0,-1,1280,1478,0,0
63,-454,0,0,0,0,0,0,0,0,0,-1,1287,1478,0,0
70,-454,0,0,0,0,0,0,0,0,0,-1,1294,1478,0,0
77,-454,0,0,0,0,0,0,0,0,0,-1,1301,1478,0,0
84,-454,0,0,0,0,0,0,0,0,0,-1,1308,1478,0,0
91,-454,0,0,0,0,0,0,0,0,0,-1,1315,1478,0,0
98,-454,0,0,0,0,0,0,0,0,0,-1,1322,1478,0,0
105,-454,0,0,0,0,0,0,0,0,0,-1,1329,1478,0,0
112,-454,0,0,0,0,0,0,0,0,0,-1,1336,1478,0,0
119,-454,0,0,0,0,0,0,0,0,0,-1,1343,1478,0,0
126,-454,0,0,0,0,0,0,0,0,0,-1,1350,1478,0,0
133,-454,0,0,0,0,0,0,0,0,0,-1,1357,1478,0,0
140,-454,0,0,0,0,0,0,0,0,0,-1,1364,1478,0,0
147,-454,0,0,0,0,0,0,0,0,0,-1,1371,1478,0,0
154,-454,0,0,0,0,0,0,0,0,0,-1,1378,1478,0,0
161,-454,0,0,0,0,0,0,0,0,0,-1,1385,1478,0,0
168,-454,0,0,0,0,0,0,0,0,0,-1,1392,1478,0,0
175,-454,0,0,0,0,0,0,0,0,0,-1,1399,1478,0,0
182,-454,0,0,0,0,0,0,0,0,0,-1,1406,1478,0,0
189,-454,0,0,0,0,0,0,0,0,0,-1,1413,1478,0,0
196,-454,0,0,0,0,0,0,0,0,0,-1,1420,1478,0,0
203,-454,0,0,0,0,0,0,0,0,0,-1,1427,1478,0,0
210,-454,0,0,0,0,0,0,0,0,0,-1,1434,1478,0,0
217,-454,0,0,0,0,0,0,0,0,0,-1,1441,1478,0,0
224,-454,0,0,0,0,0,0,0,0,0,-1,1448,1478,0,0
231,-454,0,0,0,0,0,0,0,0,0,-1,1455,1478,0,0
238,-454,0,0,0,0,0,0,0,0,0,-1,1462,1478,0,0
245,-454,0,0,0,0,0,0,0,0,0,-1,1469,1478,0,0
252,-454,0,0,0,0,0,0,0,0,0,-1,1476,1478,0,0
259,-454,0,0,0,0,0,0,0,0,0,-1,1483,1478,0,0
266,-454,0,0,0,0,0,0,0,0,0,-1,1490,1478,0,0
273,-454,0,0,0,0,0,0,0,0,0,-1,1497,1478,0,0
280,-454,0,0,0,0,0,0,0,0,0,-1,1504,1478,0,0
287,-454,0,0,0,0,0,0,0,0,0,-1,1511,1478,0,0
294,-454,0,0,0,0,0,0,0,0,0,-1,1518,1478,0,0
301,-454,0,0,0,0,0,0,0,0,0,-1,1525,1478,0,0
308,-454,0,0,0,0,0,0,0,0,0,-1,1532,1478,0,0
315,-454,0,0,0,0,0,0,0,0,0,-1,1539,1478,0,0
322,-454,0,0,0,0,0,0,0,0,0,-1,1546,1478,0,0
329,-454,0,0,0,0,0,0,0,0,0,-1,1553,1478,0,0
336,-454,0,0,0,0,0,0,0,0,0,-1,1560,1478,0,0
343,-454,0,0,0,0,0,0,0,0,0,-1,1567,1478,0,0
350,-454,0,0,0,0,0,0,0,0,0,-1,1574,1478,0,0
357,-454,0,0,0,0,0,0,0,0,0,-1,1581,1478,0,0
364,-454,0,0,0,0,0,0,0,0,0,-1,1588,1478,0,0
371,-454,0,0,0,0,0,0,0,0,0,-1,1595,1478,0,0
378,-454,0,0,0,0,0,0,0,0,0,-1,1602,1478,0,0
385,-454,0,0,0,0,0,0,0,0,0,-1,1609,1478,0,0
392,-454,0,0,0,0,0,0,0,0,0,-1,1616,1478,0,0
399,-454,0,0,0,0,0,0,0,0,0,-1,1623,1478,0,0
406,-454,0,0,0,0,0,0,0,0,0,-1,1630,1478,0,0
413,-454,0,0,0,0,0,0,0,0,0,-1,1637,1478,0,0
420,-454,0,0,0,0,0,0,0,0,0,-1,1644,1478,0,0
427,-454,0,0,0,0,0,0,0,0,0,-1,1651,1478,0,0
434,-454,0,0,0,0,0,0,0,0,0,-1,1658,1478,0,0
441,-454,0,0,0,0,0,0,0,0,0,-1,1665,1478,0,0
448,-454,0,0,0,0,0,0,0,0,0,-1,1672,1478,0,0
455,-454,0,0,0,0,0,0,0,0,0,-1,1679,1478,0,0
462,-454,0,0,0,0,0,0,0,0,0,-1,1686,1478,0,0
469,-454,0,0,0,0,0,0,0,0,0,-1,1693,1478,0,0
476,-454,0,0,0,0,0,0,0,0,0,-1,1700,1478,0,0
483,-454,14.2399,3.97498,0,0,0,0,0,0,0,-1,1707,1478,14.2399,-3.97502
490,-454,18.1821,-0.175781,0,0,0,0,0,0,0,-1,1714,1478,18.1821,0.175822
497,-454,16.8854,1.01208,0,0,0,0,0,0,0,-1,1721,1478,16.8854,-1.01209
504,-454,15.587,2.05994,0,0,0,0,0,0,0,-1,1728,1478,15.5871,-2.05998
511,-454,17.0273,14.5258,0,0,0,0,0,0,0,-1,1735,1478,17.0273,-14.5258
518,-454,16.4158,13.1039,0,0,0,0,0,0,0,-1,1742,1478,16.4157,-13.1038
525,-454,15.7842,11.6628,0,0,0,0,0,0,0,-1,1749,1478,15.7841,-11.6629
532,-454,15.1094,10.2476,0,0,0,0,0,0,0,-1,1756,1478,15.1094,-10.2475
539,-454,13.7905,10.9373,0,0,0,0,0,0,0,-1,1763,1478,13.7906,-10.9372
546,-454,16.2002,13.2458,0,0,0,0,0,0,0,-1,1770,1478,16.2002,-13.2459
553,-454,15.6747,12.1868,0,0,0,0,0,0,0,-1,1777,1478,15.6747,-12.1868
560,-454,16.3895,14.0527,0,0,0,0,0,0,0,-1,1784,1478,16.3895,-14.0528
567,-454,29.968,26.1898,0,0,0,0,0,0,0,-1,1791,1478,29.9681,-26.1899
574,-454,29.7631,25.275,0.00694768,0.00372811,-0.00321625,0.00893451,0.00174128,-0.553368,0.00546911,0.0474252,1798,1478,29.7631,-25.275
581,-454,29.7399,24.4684,0.0055909,0.00318554,-0.00283591,0.00746862,0.00130783,-0.584848,0.00460545,0.0312084,1805,1478,29.7399,-24.4684
588,-454,29.8018,23.7151,0.00442152,0.00259809,-0.00240474,0.00608158,0.000938041,-0.604204,0.0037807,0.0152519,1812,1478,29.8018,-23.7151
595,-454,29.7217,23.04,0.00348047,0.00202928,-0.00196498,0.00484955,0.000660202,-0.608532,0.00303698,0.0122339,1819,1478,29.7217,-23.04
602,-454,29.6852,22.3595,0.00280143,0.0014563,-0.00152168,0.00379255,0.00046518,-0.577311,0.00238845,0.00962747,1826,1478,29.6852,-22.3595
609,-454,29.6704,21.6891,0.00230711,0.000985373,-0.00110182,0.00293105,0.000361425,-0.515263,0.0018454,0.0118533,1833,1478,29.6704,-21.689
616,-454,29.6376,21.0066,0.0019533,0.000670815,-0.000777235,0.00231967,0.000304444,-0.440488,0.00145562,0.0142156,1840,1478,29.6376,-21.0066
623,-454,29.6318,20.3452,0.00191441,0.00034639,-0.000489762,0.00205481,0.000205987,-0.279188,0.00130664,0.014618,1847,1478,29.6318,-20.3452
630,-454,29.6124,19.6775,0.00207091,8.99877e-05,-0.000251652,0.00210237,5.85183e-05,-0.124405,0.00138249,0.0150863,1854,1478,29.6124,-19.6775
637,-454,29.5341,19,0.00241432,3.36041e-05,-0.000168219,0.00242614,2.17768e-05,-0.0701942,0.00161022,0.013676,1861,1478,29.5341,-19
644,-454,29.6194,18.3024,0.0030014,0.000214278,-0.000292209,0.0030317,0.000183972,-0.103345,0.00196269,0.0245231,1868,1478,29.6194,-18.3024
651,-454,29.741,17.5743,0,0,0,0,0,0,0,-1,1875,1478,29.741,-17.5744
658,-454,17.2583,10.0765,0,0,0,0,0,0,0,-1,1882,1478,17.2583,-10.0765
665,-454,17.683,9.67566,0,0,0,0,0,0,0,-1,1889,1478,17.683,-9.67572
672,-454,16.5476,6.41931,0,0,0,0,0,0,0,-1,1896,1478,16.5476,-6.41929
679,-454,14.2161,5.45007,0,0,0,0,0,0,0,-1,1903,1478,14.2161,-5.45013
686,-454,10.3767,2.12842,0,0,0,0,0,0,0,-1,1910,1478,10.3767,-2.12839
693,-454,11.1857,1.48486,0,0,0,0,0,0,0,-1,1917,1478,11.1857,-1.48487
700,-454,0,0,0,0,0,0,0,0,0,-1,1924,1478,0,0
707,-454,0,0,0,0,0,0,0,0,0,-1,1931,1478,0,0
714,-454,0,0,0,0,0,0,0,0,0,-1,1938,1478,0,0
721,-454,0,0,0,0,0,0,0,0,0,-1,1945,1478,0,0
728,-454,0,0,0,0,0,0,0,0,0,-1,1952,1478,0,0
735,-454,0,0,0,0,0,0,0,0,0,-1,1959,1478,0,0
742,-454,0,0,0,0,0,0,0,0,0,-1,1966,1478,0,0
749,-454,0,0,0,0,0,0,0,0,0,-1,1973,1478,0,0
756,-454,0,0,0,0,0,0,0,0,0,-1,1980,1478,0,0
763,-454,0,0,0,0,0,0,0,0,0,-1,1987,1478,0,0
770,-454,0,0,0,0,0,0,0,0,0,-1,1994,1478,0,0
777,-454,0,0,0,0,0,0,0,0,0,-1,2001,1478,0,0
784,-454,0,0,0,0,0,0,0,0,0,-1,2008,1478,0,0
791,-454,0,0,0,0,0,0,0,0,0,-1,2015,1478,0,0
798,-454,0,0,0,0,0,0,0,0,0,-1,2022,1478,0,0
805,-454,0,0,0,0,0,0,0,0,0,-1,2029,1478,0,0
812,-454,0,0,0,0,0,0,0,0,0,-1,2036,1478,0,0
-700,-461,0,0,0,0,0,0,0,0,0,-1,524,1485,0,0
-693,-461,0,0,0,0,0,0,0,0,0,-1,531,1485,0,0
-686,-461,0,0,0,0,0,0,0,0,0,-1,538,1485,0,0
-679,-461,0,0,0,0,0,0,0,0,0,-1,545,1485,0,0
-672,-461,0,0,0,0,0,0,0,0,0,-1,552,1485,0,0
-665,-461,0,0,0,0,0,0,0,0,0,-1,559,1485,0,0
-658,-461,0,0,0,0,0,0,0,0,0,-1,566,1485,0,0
-651,-461,0,0,0,0,0,0,0,0,0,-1,573,1485,0,0
-644,-461,0,0,0,0,0,0,0,0,0,-1,580,1485,0,0
-637,-461,0,0,0,0,0,0,0,0,0,-1,587,1485,0,0
-630,-461,0,0,0,0,0,0,0,0,0,-1,594,1485,0,0
-623,-461,0,0,0,0,0,0,0,0,0,-1,601,1485,0,0
-616,-461,0,0,0,0,0,0,0,0,0,-1,608,1485,0,0
-609,-461,0,0,0,0,0,0,0,0,0,-1,615,1485,0,0
-602,-461,0,0,0,0,0,0,0,0,0,-1,622,1485,0,0
-595,-461,0,0,0,0,0,0,0,0,0,-1,629,1485,0,0
-588,-461,0,0,0,0,0,0,0,0,0,-1,636,1485,0,0
-581,-461,0,0,0,0,0,0,0,0,0,-1,643,1485,0,0
-574,-461,0,0,0,0,0,0,0,0,0,-1,650,1485,0,0
-567,-461,-9.69031,0.513306,0,0,0,0,0,0,0,-1,657,1485,-9.69032,-0.513305
-560,-461,-7.28815,1.54004,0,0,0,0,0,0,0,-1,664,1485,-7.28817,-1.54005
-553,-461,-11.9607,5.27783,0,0,0,0,0,0,0,-1,671,1485,-11.9607,-5.27778
-546,-461,-11.4215,4.44666,0,0,0,0,0,0,0,-1,678,1485,-11.4215,-4.4467
-539,-461,-9.36493,5.23438,0,0,0,0,0,0,0,-1,685,1485,-9.3649,-5.23432
-532,-461,-7.82898,6.78357,0,0,0,0,0,0,0,-1,692,1485,-7.829,-6.78363
-525,-461,-6.37878,8.75659,0,0,0,0,0,0,0,-1,699,1485,-6.3788,-8.75659
-518,-461,-6.49695,10.886,0,0,0,0,0,0,0,-1,706,1485,-6.49696,-10.8859
-511,-461,-12.1329,17.0165,0,0,0,0,0,0,0,-1,713,1485,-12.1329,-17.0164
-504,-461,-11.92,17.7885,0.00187465,0.00173083,0.00300668,0.00481027,-0.0012048,0.773442,0.00367488,0.0401608,720,1485,-11.92,-17.7884
-497,-461,-11.8458,18.6444,0.00114711,0.00118555,0.00214419,0.0033106,-0.000977942,0.789881,0.00259521,0.0115815,727,1485,-11.8458,-18.6444
-490,-461,-11.8846,19.3441,0.000724329,0.000736548,0.00146463,0.00219508,-0.000734202,0.787484,0.00175993,0.0127849,734,1485,-11.8846,-19.3441
-483,-461,-11.9236,20.0613,0.00062085,0.00057736,0.00108017,0.00167949,-0.000481283,0.775334,0.0013099,0.0123297,741,1485,-11.9236,-20.0613
-476,-461,-11.9819,20.7747,0.000809998,0.00070677,0.00098525,0.00174498,-0.000228217,0.759229,0.00124638,0.0106745,748,1485,-11.9819,-20.7746
-469,-461,-12.0182,21.4988,0.00124685,0.00115454,0.00115054,0.00235216,4.92284e-05,0.765351,0.00155196,0.0123216,755,1485,-12.0182,-21.4988
-462,-461,-12.0171,22.2239,0.00193195,0.0017982,0.00154736,0.00341388,0.000316267,0.763802,0.00217816,0.0186881,762,1485,-12.0171,-22.2238
-455,-461,-12.0625,22.9473,0.00288124,0.00272733,0.00222222,0.00502784,0.000580735,0.768091,0.00317606,0.0241359,769,1485,-12.0625,-22.9472
-448,-461,-12.0792,23.6681,0.00418861,0.00419722,0.00337228,0.00756519,0.000820632,0.786037,0.00479339,0.0231914,776,1485,-12.0792,-23.6681
-441,-461,-12.004,24.5045,0.00576805,0.00601168,0.00481621,0.0107076,0.00107211,0.798042,0.00680923,0.0482555,783,1485,-12.0039,-24.5045
-434,-461,-11.7642,25.6024,0,0,0,0,0,0,0,-1,790,1485,-11.7642,-25.6024
-427,-461,-8.26154,21.546,0,0,0,0,0,0,0,-1,797,1485,-8.26153,-21.5461
-420,-461,-5.70355,16.6116,0,0,0,0,0,0,0,-1,804,1485,-5.70353,-16.6115
-413,-461,-5.98798,16.0605,0,0,0,0,0,0,0,-1,811,1485,-5.98796,-16.0605
-406,-461,-5.52667,14.839,0,0,0,0,0,0,0,-1,818,1485,-5.52666,-14.839
-399,-461,-1.93439,9.82849,0,0,0,0,0,0,0,-1,825,1485,-1.9344,-9.82846
-392,-461,-0.357544,5.55225,0,0,0,0,0,0,0,-1,832,1485,-0.357536,-5.55228
-385,-461,1.71509,3.35254,0,0,0,0,0,0,0,-1,839,1485,1.71511,-3.35255
-378,-461,1.95996,3.01111,0,0,0,0,0,0,0,-1,846,1485,1.95993,-3.01111
-371,-461,0.702881,2.33459,0,0,0,0,0,0,0,-1,853,1485,0.702859,-2.33459
-364,-461,-1.93097,2.56458,0,0,0,0,0,0,0,-1,860,1485,-1.93095,-2.56456
-357,-461,-2.41516,3.49487,0,0,0,0,0,0,0,-1,867,1485,-2.41517,-3.49487
-350,-461,0,0,0,0,0,0,0,0,0,-1,874,1485,0,0
-343,-461,0,0,0,0,0,0,0,0,0,-1,881,1485,0,0
-336,-461,0,0,0,0,0,0,0,0,0,-1,888,1485,0,0
-329,-461,0,0,0,0,0,0,0,0,0,-1,895,1485,0,0
-322,-461,0,0,0,0,0,0,0,0,0,-1,902,1485,0,0
-315,-461,0,0,0,0,0,0,0,0,0,-1,909,1485,0,0
-308,-461,0,0,0,0,0,0,0,0,0,-1,916,1485,0,0
-301,-461,0,0,0,0,0,0,0,0,0,-1,923,1485,0,0
-294,-461,0,0,0,0,0,0,0,0,0,-1,930,1485,0,0
-287,-461,0,0,0,0,0,0,0,0,0,-1,937,1485,0,0
-280,-461,0,0,0,0,0,0,0,0,0,-1,944,1485,0,0
-273,-461,0,0,0,0,0,0,0,0,0,-1,951,1485,0,0
-266,-461,0,0,0,0,0,0,0,0,0,-1,958,1485,0,0
-259,-461,0,0,0,0,0,0,0,0,0,-1,965,1485,0,0
-252,-461,0,0,0,0,0,0,0,0,0,-1,972,1485,0,0
-245,-461,0,0,0,0,0,0,0,0,0,-1,979,1485,0,0
-238,-461,0,0,0,0,0,0,0,0,0,-1,986,1485,0,0
-231,-461,0,0,0,0,0,0,0,0,0,-1,993,1485,0,0
-224,-461,0,0,0,0,0,0,0,0,0,-1,1000,1485,0,0
-217,-461,0,0,0,0,0,0,0,0,0,-1,1007,1485,0,0
-210,-461,0,0,0,0,0,0,0,0,0,-1,1014,1485,0,0
-203,-461,0,0,0,0,0,0,0,0,0,-1,1021,1485,0,0
-196,-461,0,0,0,0,0,0,0,0,0,-1,1028,1485,0,0
-189,-461,0,0,0,0,0,0,0,0,0,-1,1035,1485,0,0
-182,-461,0,0,0,0,0,0,0,0,0,-1,1042,1485,0,0
-175,-461,0,0,0,0,0,0,0,0,0,-1,1049,1485,0,0
-168,-461,0,0,0,0,0,0,0,0,0,-1,1056,1485,0,0
-161,-461,0,0,0,0,0,0,0,0,0,-1,1063,1485,0,0
-154,-461,0,0,0,0,0,0,0,0,0,-1,1070,1485,0,0
-147,-461,0,0,0,0,0,0,0,0,0,-1,1077,1485,0,0
-140,-461,0,0,0,0,0,0,0,0,0,-1,1084,1485,0,0
-133,-461,0,0,0,0,0,0,0,0,0,-1,1091,1485,0,0
-126,-461,0,0,0,0,0,0,0,0,0,-1,1098,1485,0,0
-119,-461,0,0,0,0,0,0,0,0,0,-1,1105,1485,0,0
-112,-461,0,0,0,0,0,0,0,0,0,-1,1112,1485,0,0
-105,-461,0,0,0,0,0,0,0,0,0,-1,1119,1485,0,0
-98,-461,0,0,0,0,0,0,0,0,0,-1,1126,1485,0,0
-91,-461,0,0,0,0,0,0,0,0,0,-1,1133,1485,0,0
-84,-461,0,0,0,0,0,0,0,0,0,-1,1140,1485,0,0
-77,-461,0,0,0,0,0,0,0,0,0,-1,1147,1485,0,0
-70,-461,0,0,0,0,0,0,0,0,0,-1,1154,1485,0,0
-63,-461,0,0,0,0,0,0,0,0,0,-1,1161,1485,0,0
-56,-461,0,0,0,0,0,0,0,0,0,-1,1168,1485,0,0
-49,-461,0,0,0,0,0,0,0,0,0,-1,1175,1485,0,0
-42,-461,0,0,0,0,0,0,0,0,0,-1,1182,1485,0,0
-35,-461,0,0,0,0,0,0,0,0,0,-1,1189,1485,0,0
-28,-461,0,0,0,0,0,0,0,0,0,-1,1196,1485,0,0
-21,-461,0,0,0,0,0,0,0,0,0,-1,1203,1485,0,0
-14,-461,0,0,0,0,0,0,0,0,0,-1,1210,1485,0,0
-7,-461,0,0,0,0,0,0,0,0,0,-1,1217,1485,0,0
0,-461,0,0,0,0,0,0,0,0,0,-1,1224,1485,0,0
7,-461,0,0,0,0,0,0,0,0,0,-1,1231,1485,0,0
14,-461,0,0,0,0,0,0,0,0,0,-1,1238,1485,0,0
21,-461,0,0,0,0,0,0,0,0,0,-1,1245,1485,0,0
28,-461,0,0,0,0,0,0,0,0,0,-1,1252,1485,0,0
35,-461,0,0,0,0,0,0,0,0,0,-1,1259,1485,0,0
42,-461,0,0,0,0,0,0,0,0,0,-1,1266,1485,0,0
49,-461,0,0,0,0,0,0,0,0,0,-1,1273,1485,0,0
56,-461,0,0,0,0,0,0,0,0,0,-1,1280,1485,0,0
63,-461,0,0,0,0,0,0,0,0,0,-1,1287,1485,0,0
70,-461,0,0,0,0,0,0,0,0,0,-1,1294,1485,0,0
77,-461,0,0,0,0,0,0,0,0,0,-1,1301,1485,0,0
84,-461,0,0,0,0,0,0,0,0,0,-1,1308,1485,0,0
91,-461,0,0,0,0,0,0,0,0,0,-1,1315,1485,0,0
98,-461,0,0,0,0,0,0,0,0,0,-1,1322,1485,0,0
105,-461,0,0,0,0,0,0,0,0,0,-1,1329,1485,0,0
112,-461,0,0,0,0,0,0,0,0,0,-1,1336,1485,0,0
119,-461,0,0,0,0,0,0,0,0,0,-1,1343,1485,0,0
126,-461,0,0,0,0,0,0,0,0,0,-1,1350,1485,0,0
133,-461,0,0,0,0,0,0,0,0,0,-1,1357,1485,0,0
140,-461,0,0,0,0,0,0,0,0,0,-1,1364,1485,0,0
147,-461,0,0,0,0,0,0,0,0,0,-1,1371,1485,0,0
154,-461,0,0,0,0,0,0,0,0,0,-1,1378,1485,0,0
161,-461,0,0,0,0,0,0,0,0,0,-1,1385,1485,0,0
168,-461,0,0,0,0,0,0,0,0,0,-1,1392,1485,0,0
175,-461,0,0,0,0,0,0,0,0,0,-1,1399,1485,0,0
182,-461,0,0,0,0,0,0,0,0,0,-1,1406,1485,0,0
189,-461,0,0,0,0,0,0,0,0,0,-1,1413,1485,0,0
196,-461,0,0,0,0,0,0,0,0,0,-1,1420,1485,0,0
203,-461,0,0,0,0,0,0,0,0,0,-1,1427,1485,0,0
210,-461,0,0,0,0,0,0,0,0,0,-1,1434,1485,0,0
217,-461,0,0,0,0,0,0,0,0,0,-1,1441,1485,0,0
224,-461,0,0,0,0,0,0,0,0,0,-1,1448,1485,0,0
231,-461,0,0,0,0,0,0,0,0,0,-1,1455,1485,0,0
238,-461,0,0,0,0,0,0,0,0,0,-1,1462,1485,0,0
245,-461,0,0,0,0,0,0,0,0,0,-1,1469,1485,0,0
252,-461,0,0,0,0,0,0,0,0,0,-1,1476,1485,0,0
259,-461,0,0,0,0,0,0,0,0,0,-1,1483,1485,0,0
266,-461,0,0,0,0,0,0,0,0,0,-1,1490,1485,0,0
273,-461,0,0,0,0,0,0,0,0,0,-1,1497,1485,0,0
280,-461,0,0,0,0,0,0,0,0,0,-1,1504,1485,0,0
287,-461,0,0,0,0,0,0,0,0,0,-1,1511,1485,0,0
294,-461,0,0,0,0,0,0,0,0,0,-1,1518,1485,0,0
301,-461,0,0,0,0,0,0,0,0,0,-1,1525,1485,0,0
308,-461,0,0,0,0,0,0,0,0,0,-1,1532,1485,0,0
315,-461,0,0,0,0,0,0,0,0,0,-1,1539,1485,0,0
322,-461,0,0,0,0,0,0,0,0,0,-1,1546,1485,0,0
329,-461,0,0,0,0,0,0,0,0,0,-1,1553,1485,0,0
336,-461,0,0,0,0,0,0,0,0,0,-1,1560,1485,0,0
343,-461,0,0,0,0,0,0,0,0,0,-1,1567,1485,0,0
350,-461,0,0,0,0,0,0,0,0,0,-1,1574,1485,0,0
357,-461,0,0,0,0,0,0,0,0,0,-1,1581,1485,0,0
364,-461,0,0,0,0,0,0,0,0,0,-1,1588,1485,0,0
371,-461,0,0,0,0,0,0,0,0,0,-1,1595,1485,0,0
378,-461,0,0,0,0,0,0,0,0,0,-1,1602,1485,0,0
385,-461,0,0,0,0,0,0,0,0,0,-1,1609,1485,0,0
392,-461,0,0,0,0,0,0,0,0,0,-1,1616,1485,0,0
399,-461,0,0,0,0,0,0,0,0,0,-1,1623,1485,0,0
406,-461,0,0,0,0,0,0,0,0,0,-1,1630,1485,0,0
413,-461,0,0,0,0,0,0,0,0,0,-1,1637,1485,0,0
420,-461,0,0,0,0,0,0,0,0,0,-1,1644,1485,0,0
427,-461,0,0,0,0,0,0,0,0,0,-1,1651,1485,0,0
434,-461,0,0,0,0,0,0,0,0,0,-1,1658,1485,0,0
441,-461,0,0,0,0,0,0,0,0,0,-1,1665,1485,0,0
448,-461,0,0,0,0,0,0,0,0,0,-1,1672,1485,0,0
455,-461,0,0,0,0,0,0,0,0,0,-1,1679,1485,0,0
462,-461,0,0,0,0,0,0,0,0,0,-1,1686,1485,0,0
469,-461,0,0,0,0,0,0,0,0,0,-1,1693,1485,0,0
476,-461,14.1906,0.690552,0,0,0,0,0,0,0,-1,1700,1485,14.1906,-0.690525
483,-461,10.6361,3.09106,0,0,0,0,0,0,0,-1,1707,1485,10.6361,-3.091
490,-461,17.9972,0.665894,0,0,0,0,0,0,0,-1,1714,1485,17.9972,-0.665876
497,-461,16.6829,1.87732,0,0,0,0,0,0,0,-1,1721,1485,16.6828,-1.87736
504,-461,15.3884,3.09216,0,0,0,0,0,0,0,-1,1728,1485,15.3885,-3.09212
511,-461,15.4292,14.3512,0,0,0,0,0,0,0,-1,1735,1485,15.4292,-14.3512
518,-461,14.8081,10.0085,0,0,0,0,0,0,0,-1,1742,1485,14.8081,-10.0086
525,-461,14.0022,10.8033,0,0,0,0,0,0,0,-1,1749,1485,14.0022,-10.8033
532,-461,17.1704,14.077,0,0,0,0,0,0,0,-1,1756,1485,17.1704,-14.077
539,-461,17.0229,14.7386,0,0,0,0,0,0,0,-1,1763,1485,17.0229,-14.7387
546,-461,16.2106,14.1372,0,0,0,0,0,0,0,-1,1770,1485,16.2106,-14.1372
553,-461,25.9354,24.2889,0,0,0,0,0,0,0,-1,1777,1485,25.9354,-24.2889
560,-461,28.974,26.2162,0,0,0,0,0,0,0,-1,1784,1485,28.974,-26.2162
567,-461,29.1702,25.7292,0.00751107,0.00390462,-0.00304719,0.00924861,0.00216708,-0.518226,0.00558532,0.0337302,1791,1485,29.1702,-25.7293
574,-461,29.1602,25.149,0.00599473,0.00318596,-0.00263018,0.00757198,0.00160872,-0.540179,0.00460636,0.0319768,1798,1485,29.1602,-25.1491
581,-461,29.1443,24.4349,0.00480389,0.00263601,-0.00229847,0.00626119,0.00117871,-0.565066,0.00384197,0.0195217,1805,1485,29.1443,-24.4349
588,-461,29.1169,23.7601,0.00381564,0.00208511,-0.00193761,0.00507241,0.000828342,-0.575402,0.0031421,0.0118246,1812,1485,29.117,-23.7601
595,-461,29.0519,23.099,0.00308177,0.00156433,-0.00157784,0.00407383,0.000572268,-0.561289,0.00254666,0.00930578,1819,1485,29.0519,-23.099
602,-461,29.0278,22.4076,0.00253616,0.00107457,-0.00123843,0.00324334,0.000367386,-0.518845,0.00205076,0.0101454,1826,1485,29.0278,-22.4076
609,-461,29.0074,21.7169,0.00215574,0.00068688,-0.00090491,0.00258675,0.000255871,-0.444509,0.00164585,0.0122735,1833,1485,29.0074,-21.717
616,-461,28.9695,21.0298,0.00191914,0.000417534,-0.000629429,0.00214808,0.000188599,-0.348843,0.00137351,0.0143801,1840,1485,28.9694,-21.0298
623,-461,28.9733,20.3833,0.0019612,0.000107669,-0.00034956,0.00202494,4.39367e-05,-0.180341,0.00133555,0.0174179,1847,1485,28.9733,-20.3833
630,-461,28.9299,19.7432,0.0021545,-9.23974e-05,-9.53654e-05,0.00215854,-9.64378e-05,-0.0423416,0.00147223,0.0174948,1854,1485,28.93,-19.7432
637,-461,28.8619,19.0468,0.00252297,-0.000165586,4.20345e-05,0.00252362,-0.000166243,0.0156295,0.00174048,0.0159449,1861,1485,28.8619,-19.0467
644,-461,28.9142,18.4198,0.00308348,-2.6289e-05,1.99693e-05,0.00308361,-2.64171e-05,0.00642113,0.0020646,0.0310294,1868,1485,28.9142,-18.4198
651,-461,29.009,17.7544,0,0,0,0,0,0,0,-1,1875,1485,29.009,-17.7545
658,-461,16.8987,10.1084,0,0,0,0,0,0,0,-1,1882,1485,16.8986,-10.1084
665,-461,17.2638,9.81384,0,0,0,0,0,0,0,-1,1889,1485,17.2638,-9.81385
672,-461,14.4877,6.89429,0,0,0,0,0,0,0,-1,1896,1485,14.4876,-6.89431
679,-461,10.0535,2.16321,0,0,0,0,0,0,0,-1,1903,1485,10.0535,-2.16317
686,-461,10.8195,1.84192,0,0,0,0,0,0,0,-1,1910,1485,10.8194,-1.84195
693,-461,0,0,0,0,0,0,0,0,0,-1,1917,1485,0,0
700,-461,0,0,0,0,0,0,0,0,0,-1,1924,1485,0,0
707,-461,0,0,0,0,0,0,0,0,0,-1,1931,1485,0,0
714,-461,0,0,0,0,0,0,0,0,0,-1,1938,1485,0,0
721,-461,0,0,0,0,0,0,0,0,0,-1,1945,1485,0,0
728,-461,0,0,0,0,0,0,0,0,0,-1,1952,1485,0,0
735,-461,0,0,0,0,0,0,0,0,0,-1,1959,1485,0,0
742,-461,0,0,0,0,0,0,0,0,0,-1,1966,1485,0,0
749,-461,0,0,0,0,0,0,0,0,0,-1,1973,1485,0,0
756,-461,0,0,0,0,0,0,0,0,0,-1,1980,1485,0,0
763,-461,0,0,0,0,0,0,0,0,0,-1,1987,1485,0,0
770,-461,0,0,0,0,0,0,0,0,0,-1,1994,1485,0,0
777,-461,0,0,0,0,0,0,0,0,0,-1,2001,1485,0,0
784,-461,0,0,0,0,0,0,0,0,0,-1,2008,1485,0,0
791,-461,0,0,0,0,0,0,0,0,0,-1,2015,1485,0,0
798,-461,0,0,0,0,0,0,0,0,0,-1,2022,1485,0,0
805,-461,0,0,0,0,0,0,0,0,0,-1,2029,1485,0,0
812,-461,0,0,0,0,0,0,0,0,0,-1,2036,1485,0,0
-700,-468,0,0,0,0,0,0,0,0,0,-1,524,1492,0,0
-693,-468,0,0,0,0,0,0,0,0,0,-1,531,1492,0,0
-686,-468,0,0,0,0,0,0,0,0,0,-1,538,1492,0,0
-679,-468,0,0,0,0,0,0,0,0,0,-1,545,1492,0,0
-672,-468,0,0,0,0,0,0,0,0,0,-1,552,1492,0,0
-665,-468,0,0,0,0,0,0,0,0,0,-1,559,1492,0,0
-658,-468,0,0,0,0,0,0,0,0,0,-1,566,1492,0,0
-651,-468,0,0,0,0,0,0,0,0,0,-1,573,1492,0,0
-644,-468,0,0,0,0,0,0,0,0,0,-1,580,1492,0,0
-637,-468,0,0,0,0,0,0,0,0,0,-1,587,1492,0,0
-630,-468,0,0,0,0,0,0,0,0,0,-1,594,1492,0,0
-623,-468,0,0,0,0,0,0,0,0,0,-1,601,1492,0,0
-616,-468,0,0,0,0,0,0,0,0,0,-1,608,1492,0,0
-609,-468,0,0,0,0,0,0,0,0,0,-1,615,1492,0,0
-602,-468,0,0,0,0,0,0,0,0,0,-1,622,1492,0,0
-595,-468,0,0,0,0,0,0,0,0,0,-1,629,1492,0,0
-588,-468,0,0,0,0,0,0,0,0,0,-1,636,1492,0,0
-581,-468,0,0,0,0,0,0,0,0,0,-1,643,1492,0,0
-574,-468,0,0,0,0,0,0,0,0,0,-1,650,1492,0,0
-567,-468,-11.2603,1.8042,0,0,0,0,0,0,0,-1,657,1492,-11.2603,-1.80424
-560,-468,-8.77441,2.23694,0,0,0,0,0,0,0,-1,664,1492,-8.77443,-2.23692
-553,-468,-5.94061,9.26318,0,0,0,0,0,0,0,-1,671,1492,-5.94062,-9.26322
-546,-468,-10.47,5.43237,0,0,0,0,0,0,0,-1,678,1492,-10.47,-5.4324
-539,-468,-10.2468,5.45203,0,0,0,0,0,0,0,-1,685,1492,-10.2468,-5.45197
-532,-468,-8.39795,6.02783,0,0,0,0,0,0,0,-1,692,1492,-8.39793,-6.02789
-525,-468,-6.59332,7.15405,0,0,0,0,0,0,0,-1,699,1492,-6.59331,-7.15411
-518,-468,-6.33588,8.65393,0,0,0,0,0,0,0,-1,706,1492,-6.33588,-8.65397
-511,-468,-8.05835,13.8282,0,0,0,0,0,0,0,-1,713,1492,-8.05835,-13.8283
-504,-468,-11.2141,17.7085,0,0,0,0,0,0,0,-1,720,1492,-11.2141,-17.7085
-497,-468,-11.1738,18.5948,0.000574798,0.000856218,0.00230001,0.00301982,-0.00158881,0.815949,0.00270321,0.0287116,727,1492,-11.1738,-18.5949
-490,-468,-11.1561,19.3978,9.99567e-05,0.000256656,0.00149254,0.0016729,-0.00131629,0.811621,0.0017299,0.00867278,734,1492,-11.1561,-19.3978
-483,-468,-11.2165,20.0992,9.6173e-06,4.61381e-05,0.0010302,0.00105824,-0.00100249,0.79426,0.00118991,0.00935795,741,1492,-11.2165,-20.0992
-476,-468,-11.2645,20.8163,0.000231096,0.000162058,0.000868826,0.00106609,-0.000672935,0.765543,0.00101254,0.00947505,748,1492,-11.2645,-20.8163
-469,-468,-11.2856,21.5477,0.000716368,0.000632184,0.00098918,0.00166435,-0.000315799,0.764135,0.00122844,0.0124291,755,1492,-11.2856,-21.5477
-462,-468,-11.2844,22.2687,0.00142613,0.00131194,0.00132398,0.00269424,4.3828e-05,0.763849,0.00178173,0.0242064,762,1492,-11.2844,-22.2687
-455,-468,-11.3386,22.9445,0.00235544,0.00225383,0.00189959,0.0042049,0.000404367,0.772028,0.00267867,0.0254162,769,1492,-11.3386,-22.9444
-448,-468,-11.3682,23.6565,0.00358029,0.00366484,0.00286651,0.00648938,0.000755747,0.792772,0.00409764,0.0154329,776,1492,-11.3682,-23.6565
-441,-468,-11.3992,24.3801,0.0050419,0.0053675,0.00411021,0.00931813,0.00109127,0.805192,0.00588217,0.0177749,783,1492,-11.3992,-24.3801
-434,-468,-11.3565,25.1997,0.00681288,0.00757097,0.00578926,0.0129936,0.00139027,0.818088,0.00823816,0.0374896,790,1492,-11.3565,-25.1997
-427,-468,-11.3357,26.0581,0,0,0,0,0,0,0,-1,797,1492,-11.3357,-26.0581
-420,-468,-7.57581,22.0538,0,0,0,0,0,0,0,-1,804,1492,-7.57582,-22.0538
-413,-468,-5.30328,17.3519,0,0,0,0,0,0,0,-1,811,1492,-5.30329,-17.352
-406,-468,-2.2356,9.396,0,0,0,0,0,0,0,-1,818,1492,-2.2356,-9.396
-399,-468,-0.940369,8.1936,0,0,0,0,0,0,0,-1,825,1492,-0.940365,-8.19357
-392,-468,-0.35144,8.14673,0,0,0,0,0,0,0,-1,832,1492,-0.351449,-8.14674
-385,-468,0.465759,5.35864,0,0,0,0,0,0,0,-1,839,1492,0.465732,-5.35864
-378,-468,1.99835,3.25391,0,0,0,0,0,0,0,-1,846,1492,1.99837,-3.2539
-371,-468,-0.31842,3.1532,0,0,0,0,0,0,0,-1,853,1492,-0.318441,-3.15324
-364,-468,-0.966736,2.14563,0,0,0,0,0,0,0,-1,860,1492,-0.966735,-2.14557
-357,-468,-3.06787,3.22742,0,0,0,0,0,0,0,-1,867,1492,-3.06784,-3.2274
-350,-468,-3.18658,4.12659,0,0,0,0,0,0,0,-1,874,1492,-3.18659,-4.12658
-343,-468,0,0,0,0,0,0,0,0,0,-1,881,1492,0,0
-336,-468,0,0,0,0,0,0,0,0,0,-1,888,1492,0,0
-329,-468,0,0,0,0,0,0,0,0,0,-1,895,1492,0,0
-322,-468,0,0,0,0,0,0,0,0,0,-1,902,1492,0,0
-315,-468,0,0,0,0,0,0,0,0,0,-1,909,1492,0,0
-308,-468,0,0,0,0,0,0,0,0,0,-1,916,1492,0,0
-301,-468,0,0,0,0,0,0,0,0,0,-1,923,1492,0,0
-294,-468,0,0,0,0,0,0,0,0,0,-1,930,1492,0,0
-287,-468,0,0,0,0,0,0,0,0,0,-1,937,1492,0,0
-280,-468,0,0,0,0,0,0,0,0,0,-1,944,1492,0,0
-273,-468,0,0,0,0,0,0,0,0,0,-1,951,1492,0,0
-266,-468,0,0,0,0,0,0,0,0,0,-1,958,1492,0,0
-259,-468,0,0,0,0,0,0,0,0,0,-1,965,1492,0,0
-252,-468,0,0,0,0,0,0,0,0,0,-1,972,1492,0,0
-245,-468,0,0,0,0,0,0,0,0,0,-1,979,1492,0,0
-238,-468,0,0,0,0,0,0,0,0,0,-1,986,1492,0,0
-231,-468,0,0,0,0,0,0,0,0,0,-1,993,1492,0,0
-224,-468,0,0,0,0,0,0,0,0,0,-1,1000,1492,0,0
-217,-468,0,0,0,0,0,0,0,0,0,-1,1007,1492,0,0
-210,-468,0,0,0,0,0,0,0,0,0,-1,1014,1492,0,0
-203,-468,0,0,0,0,0,0,0,0,0,-1,1021,1492,0,0
-196,-468,0,0,0,0,0,0,0,0,0,-1,1028,1492,0,0
-189,-468,0,0,0,0,0,0,0,0,0,-1,1035,1492,0,0
-182,-468,0,0,0,0,0,0,0,0,0,-1,1042,1492,0,0
-175,-468,0,0,0,0,0,0,0,0,0,-1,1049,1492,0,0
-168,-468,0,0,0,0,0,0,0,0,0,-1,1056,1492,0,0
-161,-468,0,0,0,0,0,0,0,0,0,-1,1063,1492,0,0
-154,-468,0,0,0,0,0,0,0,0,0,-1,1070,1492,0,0
-147,-468,0,0,0,0,0,0,0,0,0,-1,1077,1492,0,0
-140,-468,0,0,0,0,0,0,0,0,0,-1,1084,1492,0,0
-133,-468,0,0,0,0,0,0,0,0,0,-1,1091,1492,0,0
-126,-468,0,0,0,0,0,0,0,0,0,-1,1098,1492,0,0
-119,-468,0,0,0,0,0,0,0,0,0,-1,1105,1492,0,0
-112,-468,0,0,0,0,0,0,0,0,0,-1,1112,1492,0,0
-105,-468,0,0,0,0,0,0,0,0,0,-1,1119,1492,0,0
-98,-468,0,0,0,0,0,0,0,0,0,-1,1126,1492,0,0
-91,-468,0,0,0,0,0,0,0,0,0,-1,1133,1492,0,0
-84,-468,0,0,0,0,0,0,0,0,0,-1,1140,1492,0,0
-77,-468,0,0,0,0,0,0,0,0,0,-1,1147,1492,0,0
-70,-468,0,0,0,0,0,0,0,0,0,-1,1154,1492,0,0
-63,-468,0,0,0,0,0,0,0,0,0,-1,1161,1492,0,0
-56,-468,0,0,0,0,0,0,0,0,0,-1,1168,1492,0,0
-49,-468,0,0,0,0,0,0,0,0,0,-1,1175,1492,0,0
-42,-468,0,0,0,0,0,0,0,0,0,-1,1182,1492,0,0
-35,-468,0,0,0,0,0,0,0,0,0,-1,1189,1492,0,0
-28,-468,0,0,0,0,0,0,0,0,0,-1,1196,1492,0,0
-21,-468,0,0,0,0,0,0,0,0,0,-1,1203,1492,0,0
-14,-468,0,0,0,0,0,0,0,0,0,-1,1210,1492,0,0
-7,-468,0,0,0,0,0,0,0,0,0,-1,1217,1492,0,0
0,-468,0,0,0,0,0,0,0,0,0,-1,1224,1492,0,0
7,-468,0,0,0,0,0,0,0,0,0,-1,1231,1492,0,0
14,-468,0,0,0,0,0,0,0,0,0,-1,1238,1492,0,0
21,-468,0,0,0,0,0,0,0,0,0,-1,1245,1492,0,0
28,-468,0,0,0,0,0,0,0,0,0,-1,1252,1492,0,0
35,-468,0,0,0,0,0,0,0,0,0,-1,1259,1492,0,0
42,-468,0,0,0,0,0,0,0,0,0,-1,1266,1492,0,0
49,-468,0,0,0,0,0,0,0,0,0,-1,1273,1492,0,0
56,-468,0,0,0,0,0,0,0,0,0,-1,1280,1492,0,0
63,-468,0,0,0,0,0,0,0,0,0,-1,1287,1492,0,0
70,-468,0,0,0,0,0,0,0,0,0,-1,1294,1492,0,0
77,-468,0,0,0,0,0,0,0,0,0,-1,1301,1492,0,0
84,-468,0,0,0,0,0,0,0,0,0,-1,1308,1492,0,0
91,-468,0,0,0,0,0,0,0,0,0,-1,1315,1492,0,0
98,-468,0,0,0,0,0,0,0,0,0,-1,1322,1492,0,0
105,-468,0,0,0,0,0,0,0,0,0,-1,1329,1492,0,0
112,-468,0,0,0,0,0,0,0,0,0,-1,1336,1492,0,0
119,-468,0,0,0,0,0,0,0,0,0,-1,1343,1492,0,0
126,-468,0,0,0,0,0,0,0,0,0,-1,1350,1492,0,0
133,-468,0,0,0,0,0,0,0,0,0,-1,1357,1492,0,0
140,-468,0,0,0,0,0,0,0,0,0,-1,1364,1492,0,0
147,-468,0,0,0,0,0,0,0,0,0,-1,1371,1492,0,0
154,-468,0,0,0,0,0,0,0,0,0,-1,1378,1492,0,0
161,-468,0,0,0,0,0,0,0,0,0,-1,1385,1492,0,0
168,-468,0,0,0,0,0,0,0,0,0,-1,1392,1492,0,0
175,-468,0,0,0,0,0,0,0,0,0,-1,1399,1492,0,0
182,-468,0,0,0,0,0,0,0,0,0,-1,1406,1492,0,0
189,-468,0,0,0,0,0,0,0,0,0,-1,1413,1492,0,0
196,-468,0,0,0,0,0,0,0,0,0,-1,1420,1492,0,0
203,-468,0,0,0,0,0,0,0,0,0,-1,1427,1492,0,0
210,-468,0,0,0,0,0,0,0,0,0,-1,1434,1492,0,0
217,-468,0,0,0,0,0,0,0,0,0,-1,1441,1492,0,0
224,-468,0,0,0,0,0,0,0,0,0,-1,1448,1492,0,0
231,-468,0,0,0,0,0,0,0,0,0,-1,1455,1492,0,0
238,-468,0,0,0,0,0,0,0,0,0,-1,1462,1492,0,0
245,-468,0,0,0,0,0,0,0,0,0,-1,1469,1492,0,0
252,-468,0,0,0,0,0,0,0,0,0,-1,1476,1492,0,0
259,-468,0,0,0,0,0,0,0,0,0,-1,1483,1492,0,0
266,-468,0,0,0,0,0,0,0,0,0,-1,1490,1492,0,0
273,-468,0,0,0,0,0,0,0,0,0,-1,1497,1492,0,0
280,-468,0,0,0,0,0,0,0,0,0,-1,1504,1492,0,0
287,-468,0,0,0,0,0,0,0,0,0,-1,1511,1492,0,0
294,-468,0,0,0,0,0,0,0,0,0,-1,1518,1492,0,0
301,-468,0,0,0,0,0,0,0,0,0,-1,1525,1492,0,0
308,-468,0,0,0,0,0,0,0,0,0,-1,1532,1492,0,0
315,-468,0,0,0,0,0,0,0,0,0,-1,1539,1492,0,0
322,-468,0,0,0,0,0,0,0,0,0,-1,1546,1492,0,0
329,-468,0,0,0,0,0,0,0,0,0,-1,1553,1492,0,0
336,-468,0,0,0,0,0,0,0,0,0,-1,1560,1492,0,0
343,-468,0,0,0,0,0,0,0,0,0,-1,1567,1492,0,0
350,-468,0,0,0,0,0,0,0,0,0,-1,1574,1492,0,0
357,-468,0,0,0,0,0,0,0,0,0,-1,1581,1492,0,0
364,-468,0,0,0,0,0,0,0,0,0,-1,1588,1492,0,0
371,-468,0,0,0,0,0,0,0,0,0,-1,1595,1492,0,0
378,-468,0,0,0,0,0,0,0,0,0,-1,1602,1492,0,0
385,-468,0,0,0,0,0,0,0,0,0,-1,1609,1492,0,0
392,-468,0,0,0,0,0,0,0,0,0,-1,1616,1492,0,0
399,-468,0,0,0,0,0,0,0,0,0,-1,1623,1492,0,0
406,-468,0,0,0,0,0,0,0,0,0,-1,1630,1492,0,0
413,-468,0,0,0,0,0,0,0,0,0,-1,1637,1492,0,0
420,-468,0,0,0,0,0,0,0,0,0,-1,1644,1492,0,0
427,-468,0,0,0,0,0,0,0,0,0,-1,1651,1492,0,0
434,-468,0,0,0,0,0,0,0,0,0,-1,1658,1492,0,0
441,-468,0,0,0,0,0,0,0,0,0,-1,1665,1492,0,0
448,-468,0,0,0,0,0,0,0,0,0,-1,1672,1492,0,0
455,-468,0,0,0,0,0,0,0,0,0,-1,1679,1492,0,0
462,-468,0,0,0,0,0,0,0,0,0,-1,1686,1492,0,0
469,-468,15.6879,1.2677,0,0,0,0,0,0,0,-1,1693,1492,15.6879,-1.26772
476,-468,14.9318,1.61865,0,0,0,0,0,0,0,-1,1700,1492,14.9318,-1.61869
483,-468,11.265,4.64795,0,0,0,0,0,0,0,-1,1707,1492,11.265,-4.64798
490,-468,12.1316,3.51624,0,0,0,0,0,0,0,-1,1714,1492,12.1316,-3.51628
497,-468,16.5355,3.14587,0,0,0,0,0,0,0,-1,1721,1492,16.5356,-3.14583
504,-468,15.0642,4.10437,0,0,0,0,0,0,0,-1,1728,1492,15.0643,-4.10431
511,-468,15.6877,9.4801,0,0,0,0,0,0,0,-1,1735,1492,15.6878,-9.48007
518,-468,13.759,11.0887,0,0,0,0,0,0,0,-1,1742,1492,13.759,-11.0887
525,-468,16.6531,14.2238,0,0,0,0,0,0,0,-1,1749,1492,16.653,-14.2237
532,-468,16.9696,15.9641,0,0,0,0,0,0,0,-1,1756,1492,16.9696,-15.9641
539,-468,21.5308,20.7551,0,0,0,0,0,0,0,-1,1763,1492,21.5308,-20.7551
546,-468,25.5796,25.0283,0,0,0,0,0,0,0,-1,1770,1492,25.5796,-25.0284
553,-468,28.2168,27.1355,0,0,0,0,0,0,0,-1,1777,1492,28.2168,-27.1355
560,-468,28.4325,26.4778,0.0087011,0.00488075,-0.00369251,0.0109482,0.00263359,-0.546698,0.00659854,0.0405581,1784,1492,28.4325,-26.4778
567,-468,28.4611,25.8622,0.00671818,0.00360488,-0.00278541,0.0083524,0.00197065,-0.530589,0.00504145,0.0215001,1791,1492,28.4611,-25.8622
574,-468,28.4664,25.1549,0.00530947,0.0027938,-0.00231304,0.00668456,0.00141871,-0.536362,0.00406681,0.0167199,1798,1492,28.4665,-25.1549
581,-468,28.4584,24.4955,0.00417786,0.00218251,-0.0019464,0.00536738,0.000992992,-0.548571,0.00329748,0.0176318,1805,1492,28.4584,-24.4955
588,-468,28.4127,23.8119,0.00330925,0.00163893,-0.00162473,0.00430091,0.000647282,-0.547994,0.00267772,0.0137622,1812,1492,28.4127,-23.8119
595,-468,28.3733,23.1375,0.00273169,0.00114559,-0.00131832,0.00347712,0.000400164,-0.514614,0.00219687,0.0110685,1819,1492,28.3733,-23.1374
602,-468,28.3588,22.4459,0.00230432,0.000721961,-0.00105433,0.00283131,0.000194968,-0.463517,0.00182603,0.00989519,1826,1492,28.3588,-22.446
609,-468,28.3186,21.7504,0.00203884,0.000411932,-0.000792888,0.00236134,8.94378e-05,-0.386297,0.00154527,0.0103464,1833,1492,28.3186,-21.7504
616,-468,28.2924,21.075,0.00193719,0.000183409,-0.000557171,0.00209923,2.13693e-05,-0.283019,0.00139242,0.0103939,1840,1492,28.2924,-21.075
623,-468,28.2633,20.4207,0.00208531,-0.000104148,-0.000274356,0.00211917,-0.000138004,-0.122779,0.00146095,0.0122165,1847,1492,28.2633,-20.4207
630,-468,28.2352,19.7385,0.00236747,-0.000221608,-9.61452e-06,0.00236751,-0.000221644,-0.00371342,0.00165717,0.0128186,1854,1492,28.2352,-19.7385
637,-468,28.2059,19.022,0.00282078,-0.000298721,0.00019284,0.00283265,-0.000310597,0.0615054,0.00200002,0.014063,1861,1492,28.2059,-19.0219
644,-468,28.2219,18.4597,0.00343998,-0.000209033,0.000309629,0.00346607,-0.000235119,0.084052,0.00239294,0.0346423,1868,1492,28.222,-18.4597
651,-468,28.3839,17.8921,0,0,0,0,0,0,0,-1,1875,1492,28.3839,-17.8921
658,-468,16.4969,10.0774,0,0,0,0,0,0,0,-1,1882,1492,16.497,-10.0774
665,-468,15.4673,8.59546,0,0,0,0,0,0,0,-1,1889,1492,15.4672,-8.59548
672,-468,9.96814,3.61133,0,0,0,0,0,0,0,-1,1896,1492,9.96817,-3.61139
679,-468,11.2191,1.91968,0,0,0,0,0,0,0,-1,1903,1492,11.2191,-1.91965
686,-468,11.9252,1.42285,0,0,0,0,0,0,0,-1,1910,1492,11.9252,-1.42291
693,-468,0,0,0,0,0,0,0,0,0,-1,1917,1492,0,0
700,-468,0,0,0,0,0,0,0,0,0,-1,1924,1492,0,0
707,-468,0,0,0,0,0,0,0,0,0,-1,1931,1492,0,0
714,-468,0,0,0,0,0,0,0,0,0,-1,1938,1492,0,0
721,-468,0,0,0,0,0,0,0,0,0,-1,1945,1492,0,0
728,-468,0,0,0,0,0,0,0,0,0,-1,1952,1492,0,0
735,-468,0,0,0,0,0,0,0,0,0,-1,1959,1492,0,0
742,-468,0,0,0,0,0,0,0,0,0,-1,1966,1492,0,0
749,-468,0,0,0,0,0,0,0,0,0,-1,1973,1492,0,0
756,-468,0,0,0,0,0,0,0,0,0,-1,1980,1492,0,0
763,-468,0,0,0,0,0,0,0,0,0,-1,1987,1492,0,0
770,-468,0,0,0,0,0,0,0,0,0,-1,1994,1492,0,0
777,-468,0,0,0,0,0,0,0,0,0,-1,2001,1492,0,0
784,-468,0,0,0,0,0,0,0,0,0,-1,2008,1492,0,0
791,-468,0,0,0,0,0,0,0,0,0,-1,2015,1492,0,0
798,-468,0,0,0,0,0,0,0,0,0,-1,2022,1492,0,0
805,-468,0,0,0,0,0,0,0,0,0,-1,2029,1492,0,0
812,-468,0,0,0,0,0,0,0,0,0,-1,2036,1492,0,0
-700,-475,0,0,0,0,0,0,0,0,0,-1,524,1499,0,0
-693,-475,0,0,0,0,0,0,0,0,0,-1,531,1499,0,0
-686,-475,0,0,0,0,0,0,0,0,0,-1,538,1499,0,0
-679,-475,0,0,0,0,0,0,0,0,0,-1,545,1499,0,0
-672,-475,0,0,0,0,0,0,0,0,0,-1,552,1499,0,0
-665,-475,0,0,0,0,0,0,0,0,0,-1,559,1499,0,0
-658,-475,0,0,0,0,0,0,0,0,0,-1,566,1499,0,0
-651,-475,0,0,0,0,0,0,0,0,0,-1,573,1499,0,0
-644,-475,0,0,0,0,0,0,0,0,0,-1,580,1499,0,0
-637,-475,0,0,0,0,0,0,0,0,0,-1,587,1499,0,0
-630,-475,0,0,0,0,0,0,0,0,0,-1,594,1499,0,0
-623,-475,0,0,0,0,0,0,0,0,0,-1,601,1499,0,0
-616,-475,0,0,0,0,0,0,0,0,0,-1,608,1499,0,0
-609,-475,0,0,0,0,0,0,0,0,0,-1,615,1499,0,0
-602,-475,0,0,0,0,0,0,0,0,0,-1,622,1499,0,0
-595,-475,0,0,0,0,0,0,0,0,0,-1,629,1499,0,0
-588,-475,0,0,0,0,0,0,0,0,0,-1,636,1499,0,0
-581,-475,0,0,0,0,0,0,0,0,0,-1,643,1499,0,0
-574,-475,0,0,0,0,0,0,0,0,0,-1,650,1499,0,0
-567,-475,0,0,0,0,0,0,0,0,0,-1,657,1499,0,0
-560,-475,-9.42731,9.29517,0,0,0,0,0,0,0,-1,664,1499,-9.42731,-9.29519
-553,-475,-8.15131,8.78369,0,0,0,0,0,0,0,-1,671,1499,-8.15131,-8.78367
-546,-475,-8.41254,8.20654,0,0,0,0,0,0,0,-1,678,1499,-8.41251,-8.20655
-539,-475,-4.7345,4.17419,0,0,0,0,0,0,0,-1,685,1499,-4.73449,-4.17418
-532,-475,-7.07379,4.25024,0,0,0,0,0,0,0,-1,692,1499,-7.07378,-4.2503
-525,-475,-6.13147,5.82166,0,0,0,0,0,0,0,-1,699,1499,-6.1315,-5.8216
-518,-475,-7.28784,9.31506,0,0,0,0,0,0,0,-1,706,1499,-7.28782,-9.315
-511,-475,-6.84851,12.4244,0,0,0,0,0,0,0,-1,713,1499,-6.84851,-12.4244
-504,-475,-8.80957,16.0863,0,0,0,0,0,0,0,-1,720,1499,-8.80954,-16.0862
-497,-475,-10.6192,18.5104,0,0,0,0,0,0,0,-1,727,1499,-10.6192,-18.5103
-490,-475,-10.4808,19.4124,0.000777059,-0.00124144,0.00180213,0.0018333,-0.00229768,0.530142,0.00239004,0.0167255,734,1499,-10.4808,-19.4123
-483,-475,-10.4995,20.1753,0.000554202,-0.0013981,0.00122002,0.00114052,-0.00198442,0.447994,0.00182599,0.00952309,741,1499,-10.4995,-20.1754
-476,-475,-10.5405,20.8726,0.000588143,-0.00115318,0.000937113,0.000996635,-0.00156167,0.411071,0.001489,0.0109272,748,1499,-10.5405,-20.8726
-469,-475,-10.5634,21.5835,0.000836396,-0.00051093,0.000950045,0.00132738,-0.00100192,0.477,0.00134919,0.0129596,755,1499,-10.5633,-21.5834
-462,-475,-10.5641,22.3029,0.00124312,0.000370856,0.00115618,0.00204269,-0.000428713,0.605041,0.00152492,0.0185849,762,1499,-10.5641,-22.3028
-455,-475,-10.625,23.0021,0.0018036,0.00149908,0.00156929,0.00322799,7.46833e-05,0.737037,0.00212754,0.016618,769,1499,-10.625,-23.0021
-448,-475,-10.683,23.7137,0.00259038,0.00303392,0.00230427,0.00512707,0.000497235,0.833372,0.00326494,0.014227,776,1499,-10.683,-23.7138
-441,-475,-10.7062,24.4332,0.00356428,0.00479757,0.00327861,0.00751702,0.000844826,0.878353,0.00475483,0.0167397,783,1499,-10.7063,-24.4332
-434,-475,-10.7197,25.1025,0.00481219,0.00709664,0.00466792,0.0107601,0.00114877,0.905389,0.00682276,0.0122963,790,1499,-10.7197,-25.1025
-427,-475,-10.6517,25.9391,0.00628996,0.00953249,0.00630695,0.0144232,0.00139922,0.911204,0.00918467,0.0363609,797,1499,-10.6517,-25.939
-420,-475,-10.537,26.7683,0,0,0,0,0,0,0,-1,804,1499,-10.537,-26.7683
-413,-475,-6.46777,20.8481,0,0,0,0,0,0,0,-1,811,1499,-6.46776,-20.8481
-406,-475,-2.56116,12.4956,0,0,0,0,0,0,0,-1,818,1499,-2.56116,-12.4956
-399,-475,-1.39667,6.1615,0,0,0,0,0,0,0,-1,825,1499,-1.39664,-6.16155
-392,-475,0.217163,8.61389,0,0,0,0,0,0,0,-1,832,1499,0.217167,-8.6139
-385,-475,1.18372,2.73999,0,0,0,0,0,0,0,-1,839,1499,1.18372,-2.73995
-378,-475,1.31409,2.90149,0,0,0,0,0,0,0,-1,846,1499,1.31411,-2.90151
-371,-475,2.3476,3.31116,0,0,0,0,0,0,0,-1,853,1499,2.34761,-3.31121
-364,-475,1.04462,9.05823,0,0,0,0,0,0,0,-1,860,1499,1.04461,-9.05825
-357,-475,-0.262756,7.97205,0,0,0,0,0,0,0,-1,867,1499,-0.262784,-7.97205
-350,-475,-2.77173,4.35486,0,0,0,0,0,0,0,-1,874,1499,-2.77175,-4.35491
-343,-475,-5.47327,-0.958374,0,0,0,0,0,0,0,-1,881,1499,-5.47327,0.958346
-336,-475,0,0,0,0,0,0,0,0,0,-1,888,1499,0,0
-329,-475,0,0,0,0,0,0,0,0,0,-1,895,1499,0,0
-322,-475,0,0,0,0,0,0,0,0,0,-1,902,1499,0,0
-315,-475,0,0,0,0,0,0,0,0,0,-1,909,1499,0,0
-308,-475,0,0,0,0,0,0,0,0,0,-1,916,1499,0,0
-301,-475,0,0,0,0,0,0,0,0,0,-1,923,1499,0,0
-294,-475,0,0,0,0,0,0,0,0,0,-1,930,1499,0,0
-287,-475,0,0,0,0,0,0,0,0,0,-1,937,1499,0,0
-280,-475,0,0,0,0,0,0,0,0,0,-1,944,1499,0,0
-273,-475,0,0,0,0,0,0,0,0,0,-1,951,1499,0,0
-266,-475,0,0,0,0,0,0,0,0,0,-1,958,1499,0,0
-259,-475,0,0,0,0,0,0,0,0,0,-1,965,1499,0,0
-252,-475,0,0,0,0,0,0,0,0,0,-1,972,1499,0,0
-245,-475,0,0,0,0,0,0,0,0,0,-1,979,1499,0,0
-238,-475,0,0,0,0,0,0,0,0,0,-1,986,1499,0,0
-231,-475,0,0,0,0,0,0,0,0,0,-1,993,1499,0,0
-224,-475,0,0,0,0,0,0,0,0,0,-1,1000,1499,0,0
-217,-475,0,0,0,0,0,0,0,0,0,-1,1007,1499,0,0
-210,-475,0,0,0,0,0,0,0,0,0,-1,1014,1499,0,0
-203,-475,0,0,0,0,0,0,0,0,0,-1,1021,1499,0,0
-196,-475,0,0,0,0,0,0,0,0,0,-1,1028,1499,0,0
-189,-475,0,0,0,0,0,0,0,0,0,-1,1035,1499,0,0
-182,-475,0,0,0,0,0,0,0,0,0,-1,1042,1499,0,0
-175,-475,0,0,0,0,0,0,0,0,0,-1,1049,1499,0,0
-168,-475,0,0,0,0,0,0,0,0,0,-1,1056,1499,0,0
-161,-475,0,0,0,0,0,0,0,0,0,-1,1063,1499,0,0
-154,-475,0,0,0,0,0,0,0,0,0,-1,1070,1499,0,0
-147,-475,0,0,0,0,0,0,0,0,0,-1,1077,1499,0,0
-140,-475,0,0,0,0,0,0,0,0,0,-1,1084,1499,0,0
-133,-475,0,0,0,0,0,0,0,0,0,-1,1091,1499,0,0
-126,-475,0,0,0,0,0,0,0,0,0,-1,1098,1499,0,0
-119,-475,0,0,0,0,0,0,0,0,0,-1,1105,1499,0,0
-112,-475,0,0,0,0,0,0,0,0,0,-1,1112,1499,0,0
-105,-475,0,0,0,0,0,0,0,0,0,-1,1119,1499,0,0
-98,-475,0,0,0,0,0,0,0,0,0,-1,1126,1499,0,0
-91,-475,0,0,0,0,0,0,0,0,0,-1,1133,1499,0,0
-84,-475,0,0,0,0,0,0,0,0,0,-1,1140,1499,0,0
-77,-475,0,0,0,0,0,0,0,0,0,-1,1147,1499,0,0
-70,-475,0,0,0,0,0,0,0,0,0,-1,1154,1499,0,0
-63,-475,0,0,0,0,0,0,0,0,0,-1,1161,1499,0,0
-56,-475,0,0,0,0,0,0,0,0,0,-1,1168,1499,0,0
-49,-475,0,0,0,0,0,0,0,0,0,-1,1175,1499,0,0
-42,-475,0,0,0,0,0,0,0,0,0,-1,1182,1499,0,0
-35,-475,0,0,0,0,0,0,0,0,0,-1,1189,1499,0,0
-28,-475,0,0,0,0,0,0,0,0,0,-1,1196,1499,0,0
-21,-475,0,0,0,0,0,0,0,0,0,-1,1203,1499,0,0
-14,-475,0,0,0,0,0,0,0,0,0,-1,1210,1499,0,0
-7,-475,0,0,0,0,0,0,0,0,0,-1,1217,1499,0,0
0,-475,0,0,0,0,0,0,0,0,0,-1,1224,1499,0,0
7,-475,0,0,0,0,0,0,0,0,0,-1,1231,1499,0,0
14,-475,0,0,0,0,0,0,0,0,0,-1,1238,1499,0,0
21,-475,0,0,0,0,0,0,0,0,0,-1,1245,1499,0,0
28,-475,0,0,0,0,0,0,0,0,0,-1,1252,1499,0,0
35,-475,0,0,0,0,0,0,0,0,0,-1,1259,1499,0,0
42,-475,0,0,0,0,0,0,0,0,0,-1,1266,1499,0,0
49,-475,0,0,0,0,0,0,0,0,0,-1,1273,1499,0,0
56,-475,0,0,0,0,0,0,0,0,0,-1,1280,1499,0,0
63,-475,0,0,0,0,0,0,0,0,0,-1,1287,1499,0,0
70,-475,0,0,0,0,0,0,0,0,0,-1,1294,1499,0,0
77,-475,0,0,0,0,0,0,0,0,0,-1,1301,1499,0,0
84,-475,0,0,0,0,0,0,0,0,0,-1,1308,1499,0,0
91,-475,0,0,0,0,0,0,0,0,0,-1,1315,1499,0,0
98,-475,0,0,0,0,0,0,0,0,0,-1,1322,1499,0,0
105,-475,0,0,0,0,0,0,0,0,0,-1,1329,1499,0,0
112,-475,0,0,0,0,0,0,0,0,0,-1,1336,1499,0,0
119,-475,0,0,0,0,0,0,0,0,0,-1,1343,1499,0,0
126,-475,0,0,0,0,0,0,0,0,0,-1,1350,1499,0,0
133,-475,0,0,0,0,0,0,0,0,0,-1,1357,1499,0,0
140,-475,0,0,0,0,0,0,0,0,0,-1,1364,1499,0,0
147,-475,0,0,0,0,0,0,0,0,0,-1,1371,1499,0,0
154,-475,0,0,0,0,0,0,0,0,0,-1,1378,1499,0,0
161,-475,0,0,0,0,0,0,0,0,0,-1,1385,1499,0,0
168,-475,0,0,0,0,0,0,0,0,0,-1,1392,1499,0,0
175,-475,0,0,0,0,0,0,0,0,0,-1,1399,1499,0,0
182,-475,0,0,0,0,0,0,0,0,0,-1,1406,1499,0,0
189,-475,0,0,0,0,0,0,0,0,0,-1,1413,1499,0,0
196,-475,0,0,0,0,0,0,0,0,0,-1,1420,1499,0,0
203,-475,0,0,0,0,0,0,0,0,0,-1,1427,1499,0,0
210,-475,0,0,0,0,0,0,0,0,0,-1,1434,1499,0,0
217,-475,0,0,0,0,0,0,0,0,0,-1,1441,1499,0,0
224,-475,0,0,0,0,0,0,0,0,0,-1,1448,1499,0,0
231,-475,0,0,0,0,0,0,0,0,0,-1,1455,1499,0,0
238,-475,0,0,0,0,0,0,0,0,0,-1,1462,1499,0,0
245,-475,0,0,0,0,0,0,0,0,0,-1,1469,1499,0,0
252,-475,0,0,0,0,0,0,0,0,0,-1,1476,1499,0,0
259,-475,0,0,0,0,0,0,0,0,0,-1,1483,1499,0,0
266,-475,0,0,0,0,0,0,0,0,0,-1,1490,1499,0,0
273,-475,0,0,0,0,0,0,0,0,0,-1,1497,1499,0,0
280,-475,0,0,0,0,0,0,0,0,0,-1,1504,1499,0,0
287,-475,0,0,0,0,0,0,0,0,0,-1,1511,1499,0,0
294,-475,0,0,0,0,0,0,0,0,0,-1,1518,1499,0,0
301,-475,0,0,0,0,0,0,0,0,0,-1,1525,1499,0,0
308,-475,0,0,0,0,0,0,0,0,0,-1,1532,1499,0,0
315,-475,0,0,0,0,0,0,0,0,0,-1,1539,1499,0,0
322,-475,0,0,0,0,0,0,0,0,0,-1,1546,1499,0,0
329,-475,0,0,0,0,0,0,0,0,0,-1,1553,1499,0,0
336,-475,0,0,0,0,0,0,0,0,0,-1,1560,1499,0,0
343,-475,0,0,0,0,0,0,0,0,0,-1,1567,1499,0,0
350,-475,0,0,0,0,0,0,0,0,0,-1,1574,1499,0,0
357,-475,0,0,0,0,0,0,0,0,0,-1,1581,1499,0,0
364,-475,0,0,0,0,0,0,0,0,0,-1,1588,1499,0,0
371,-475,0,0,0,0,0,0,0,0,0,-1,1595,1499,0,0
378,-475,0,0,0,0,0,0,0,0,0,-1,1602,1499,0,0
385,-475,0,0,0,0,0,0,0,0,0,-1,1609,1499,0,0
392,-475,0,0,0,0,0,0,0,0,0,-1,1616,1499,0,0
399,-475,0,0,0,0,0,0,0,0,0,-1,1623,1499,0,0
406,-475,0,0,0,0,0,0,0,0,0,-1,1630,1499,0,0
413,-475,0,0,0,0,0,0,0,0,0,-1,1637,1499,0,0
420,-475,0,0,0,0,0,0,0,0,0,-1,1644,1499,0,0
427,-475,0,0,0,0,0,0,0,0,0,-1,1651,1499,0,0
434,-475,0,0,0,0,0,0,0,0,0,-1,1658,1499,0,0
441,-475,0,0,0,0,0,0,0,0,0,-1,1665,1499,0,0
448,-475,0,0,0,0,0,0,0,0,0,-1,1672,1499,0,0
455,-475,0,0,0,0,0,0,0,0,0,-1,1679,1499,0,0
462,-475,12.6372,0.275391,0,0,0,0,0,0,0,-1,1686,1499,12.6372,-0.27536
469,-475,15.6437,2.28296,0,0,0,0,0,0,0,-1,1693,1499,15.6437,-2.28293
476,-475,15.3302,2.71436,0,0,0,0,0,0,0,-1,1700,1499,15.3303,-2.7143
483,-475,10.7461,5.91479,0,0,0,0,0,0,0,-1,1707,1499,10.7461,-5.91476
490,-475,11.9305,4.4364,0,0,0,0,0,0,0,-1,1714,1499,11.9305,-4.43644
497,-475,15.3451,4.3479,0,0,0,0,0,0,0,-1,1721,1499,15.3451,-4.34789
504,-475,16.9646,7.71265,0,0,0,0,0,0,0,-1,1728,1499,16.9646,-7.71265
511,-475,18.941,12.7572,0,0,0,0,0,0,0,-1,1735,1499,18.941,-12.7572
518,-475,17.0021,13.8564,0,0,0,0,0,0,0,-1,1742,1499,17.0021,-13.8564
525,-475,17.5637,15.2103,0,0,0,0,0,0,0,-1,1749,1499,17.5637,-15.2103
532,-475,20.8623,20.8413,0,0,0,0,0,0,0,-1,1756,1499,20.8623,-20.8413
539,-475,20.5494,20.8519,0,0,0,0,0,0,0,-1,1763,1499,20.5494,-20.852
546,-475,20.4524,19.8799,0,0,0,0,0,0,0,-1,1770,1499,20.4524,-19.8798
553,-475,27.4858,27.449,0,0,0,0,0,0,0,-1,1777,1499,27.4859,-27.449
560,-475,27.645,26.6573,0.00753042,0.00433099,-0.00334044,0.00963444,0.00222697,-0.562088,0.00582432,0.0308774,1784,1499,27.645,-26.6573
567,-475,27.8323,25.843,0.00587572,0.00311617,-0.00249496,0.00734702,0.00164487,-0.532817,0.00445219,0.0144003,1791,1499,27.8322,-25.8431
574,-475,27.7782,25.1748,0.0046865,0.00233856,-0.00204663,0.00587196,0.0011531,-0.525004,0.0035925,0.0140241,1798,1499,27.7782,-25.1748
581,-475,27.7496,24.5258,0.00370234,0.0017475,-0.00169553,0.004682,0.000767838,-0.52393,0.00289948,0.0127183,1805,1499,27.7496,-24.5258
588,-475,27.7194,23.832,0.00297706,0.00126703,-0.00143576,0.00379311,0.000450974,-0.516841,0.00239263,0.0109762,1812,1499,27.7193,-23.832
595,-475,27.6942,23.1459,0.00254602,0.000844491,-0.00120237,0.00316817,0.000222333,-0.477504,0.00204204,0.0123873,1819,1499,27.6942,-23.1459
602,-475,27.6742,22.4581,0.00223651,0.000520516,-0.00103332,0.00272161,3.54169e-05,-0.438916,0.00180272,0.0140878,1826,1499,27.6742,-22.4581
609,-475,27.6398,21.7827,0.00207729,0.000310779,-0.000860048,0.00242685,-3.87757e-05,-0.386043,0.00163098,0.0122467,1833,1499,27.6398,-21.7827
616,-475,27.5914,21.1349,0.00210926,0.000123143,-0.000673228,0.00231595,-8.35486e-05,-0.297881,0.00157256,0.0113389,1840,1499,27.5915,-21.1348
623,-475,27.5702,20.4304,0.00233071,-0.000148426,-0.000387602,0.0023899,-0.000207612,-0.151529,0.00166679,0.0121827,1847,1499,27.5702,-20.4304
630,-475,27.5439,19.749,0.0026397,-0.000192277,-9.99293e-05,0.00264322,-0.000195799,-0.0352276,0.00183091,0.0141732,1854,1499,27.5439,-19.749
637,-475,27.5171,19.0795,0.00308568,-0.00031367,0.000213993,0.00309909,-0.000327088,0.0626216,0.00218328,0.0234587,1861,1499,27.5171,-19.0794
644,-475,27.4484,18.3988,0,0,0,0,0,0,0,-1,1868,1499,27.4484,-18.3988
651,-475,11.7965,7.57593,0,0,0,0,0,0,0,-1,1875,1499,11.7965,-7.5759
658,-475,14.6708,8.80322,0,0,0,0,0,0,0,-1,1882,1499,14.6708,-8.8032
665,-475,9.33435,5.43335,0,0,0,0,0,0,0,-1,1889,1499,9.33439,-5.43332
672,-475,9.38635,1.10474,0,0,0,0,0,0,0,-1,1896,1499,9.38629,-1.10475
679,-475,12.2594,1.31079,0,0,0,0,0,0,0,-1,1903,1499,12.2594,-1.31077
686,-475,0,0,0,0,0,0,0,0,0,-1,1910,1499,0,0
693,-475,0,0,0,0,0,0,0,0,0,-1,1917,1499,0,0
700,-475,0,0,0,0,0,0,0,0,0,-1,1924,1499,0,0
707,-475,0,0,0,0,0,0,0,0,0,-1,1931,1499,0,0
714,-475,0,0,0,0,0,0,0,0,0,-1,1938,1499,0,0
721,-475,0,0,0,0,0,0,0,0,0,-1,1945,1499,0,0
728,-475,0,0,0,0,0,0,0,0,0,-1,1952,1499,0,0
735,-475,0,0,0,0,0,0,0,0,0,-1,1959,1499,0,0
742,-475,0,0,0,0,0,0,0,0,0,-1,1966,1499,0,0
749,-475,0,0,0,0,0,0,0,0,0,-1,1973,1499,0,0
756,-475,0,0,0,0,0,0,0,0,0,-1,1980,1499,0,0
763,-475,0,0,0,0,0,0,0,0,0,-1,1987,1499,0,0
770,-475,0,0,0,0,0,0,0,0,0,-1,1994,1499,0,0
777,-475,0,0,0,0,0,0,0,0,0,-1,2001,1499,0,0
784,-475,0,0,0,0,0,0,0,0,0,-1,2008,1499,0,0
791,-475,0,0,0,0,0,0,0,0,0,-1,2015,1499,0,0
798,-475,0,0,0,0,0,0,0,0,0,-1,2022,1499,0,0
805,-475,0,0,0,0,0,0,0,0,0,-1,2029,1499,0,0
812,-475,0,0,0,0,0,0,0,0,0,-1,2036,1499,0,0
-700,-482,0,0,0,0,0,0,0,0,0,-1,524,1506,0,0
-693,-482,0,0,0,0,0,0,0,0,0,-1,531,1506,0,0
-686,-482,0,0,0,0,0,0,0,0,0,-1,538,1506,0,0
-679,-482,0,0,0,0,0,0,0,0,0,-1,545,1506,0,0
-672,-482,0,0,0,0,0,0,0,0,0,-1,552,1506,0,0
-665,-482,0,0,0,0,0,0,0,0,0,-1,559,1506,0,0
-658,-482,0,0,0,0,0,0,0,0,0,-1,566,1506,0,0
-651,-482,0,0,0,0,0,0,0,0,0,-1,573,1506,0,0
-644,-482,0,0,0,0,0,0,0,0,0,-1,580,1506,0,0
-637,-482,0,0,0,0,0,0,0,0,0,-1,587,1506,0,0
-630,-482,0,0,0,0,0,0,0,0,0,-1,594,1506,0,0
-623,-482,0,0,0,0,0,0,0,0,0,-1,601,1506,0,0
-616,-482,0,0,0,0,0,0,0,0,0,-1,608,1506,0,0
-609,-482,0,0,0,0,0,0,0,0,0,-1,615,1506,0,0
-602,-482,0,0,0,0,0,0,0,0,0,-1,622,1506,0,0
-595,-482,0,0,0,0,0,0,0,0,0,-1,629,1506,0,0
-588,-482,0,0,0,0,0,0,0,0,0,-1,636,1506,0,0
-581,-482,0,0,0,0,0,0,0,0,0,-1,643,1506,0,0
-574,-482,0,0,0,0,0,0,0,0,0,-1,650,1506,0,0
-567,-482,0,0,0,0,0,0,0,0,0,-1,657,1506,0,0
-560,-482,0,0,0,0,0,0,0,0,0,-1,664,1506,0,0
-553,-482,-9.06055,9.34314,0,0,0,0,0,0,0,-1,671,1506,-9.06056,-9.34312
-546,-482,-4.08624,8.34241,0,0,0,0,0,0,0,-1,678,1506,-4.08624,-8.3424
-539,-482,-4.29877,2.73499,0,0,0,0,0,0,0,-1,685,1506,-4.29879,-2.73494
-532,-482,-3.63611,4.23987,0,0,0,0,0,0,0,-1,692,1506,-3.63609,-4.23983
-525,-482,-6.19116,5.24927,0,0,0,0,0,0,0,-1,699,1506,-6.19117,-5.24927
-518,-482,-5.92957,6.39807,0,0,0,0,0,0,0,-1,706,1506,-5.92958,-6.39806
-511,-482,-7.74634,11.9137,0,0,0,0,0,0,0,-1,713,1506,-7.74633,-11.9137
-504,-482,-6.42358,13.4211,0,0,0,0,0,0,0,-1,720,1506,-6.42356,-13.4212
-497,-482,-8.86163,17.7108,0,0,0,0,0,0,0,-1,727,1506,-8.86163,-17.7109
-490,-482,-9.828,19.4336,0,0,0,0,0,0,0,-1,734,1506,-9.82799,-19.4336
-483,-482,-9.79205,20.1678,0.00244341,-0.00269968,0.00204951,0.00316023,-0.0034165,0.336454,0.00379804,0.0112319,741,1506,-9.79205,-20.1679
-476,-482,-9.80847,20.9049,0.00220387,-0.0023481,0.00152705,0.00266869,-0.00281291,0.295478,0.00316517,0.0103602,748,1506,-9.80848,-20.9049
-469,-482,-9.86243,21.631,0.00208885,-0.00161756,0.00131621,0.0025087,-0.00203741,0.308782,0.00262939,0.0121894,755,1506,-9.86241,-21.631
-462,-482,-9.89551,22.3303,0.0020331,-0.000639284,0.00128712,0.00255219,-0.00115838,0.383347,0.0021921,0.0130713,762,1506,-9.89551,-22.3304
-455,-482,-9.9118,23.0115,0.00204836,0.000540595,0.00144817,0.00292712,-0.000338171,0.545413,0.00207335,0.0134704,769,1506,-9.91182,-23.0115
-448,-482,-9.95038,23.74,0.00222632,0.00204288,0.00189806,0.00403488,0.000234322,0.761255,0.00261531,0.0139151,776,1506,-9.95037,-23.74
-441,-482,-9.99109,24.4424,0.00255146,0.00369621,0.00257519,0.00576187,0.0004858,0.894754,0.00368999,0.0137041,783,1506,-9.99112,-24.4423
-434,-482,-10.0289,25.1442,0.00313997,0.00584137,0.00365988,0.00839184,0.000589504,0.962173,0.00540878,0.0164917,790,1506,-10.0289,-25.1442
-427,-482,-10.0496,25.8665,0.00389851,0.00799961,0.00491876,0.0112781,0.000619989,0.982886,0.00732085,0.0213186,797,1506,-10.0496,-25.8664
-420,-482,-10.0984,26.6475,0,0,0,0,0,0,0,-1,804,1506,-10.0985,-26.6474
-413,-482,-6.56415,22.3163,0,0,0,0,0,0,0,-1,811,1506,-6.56417,-22.3163
-406,-482,-2.51373,12.7556,0,0,0,0,0,0,0,-1,818,1506,-2.51376,-12.7556
-399,-482,-1.3822,9.22595,0,0,0,0,0,0,0,-1,825,1506,-1.38221,-9.22598
-392,-482,-1.06836,9.22729,0,0,0,0,0,0,0,-1,832,1506,-1.06835,-9.2273
-385,-482,0.0647583,8.90649,0,0,0,0,0,0,0,-1,839,1506,0.0647778,-8.90644
-378,-482,0.215698,5.96948,0,0,0,0,0,0,0,-1,846,1506,0.215681,-5.9695
-371,-482,-0.10907,8.10437,0,0,0,0,0,0,0,-1,853,1506,-0.109063,-8.10433
-364,-482,-0.154968,10.5032,0,0,0,0,0,0,0,-1,860,1506,-0.154976,-10.5032
-357,-482,2.14807,4.60144,0,0,0,0,0,0,0,-1,867,1506,2.14807,-4.60144
-350,-482,-7.5813,-1.45935,0,0,0,0,0,0,0,-1,874,1506,-7.58133,1.45937
-343,-482,-7.19983,-1.26416,0,0,0,0,0,0,0,-1,881,1506,-7.19981,1.26414
-336,-482,2.52826,-0.390503,0,0,0,0,0,0,0,-1,888,1506,2.52826,0.390456
-329,-482,0,0,0,0,0,0,0,0,0,-1,895,1506,0,0
-322,-482,0,0,0,0,0,0,0,0,0,-1,902,1506,0,0
-315,-482,0,0,0,0,0,0,0,0,0,-1,909,1506,0,0
-308,-482,0,0,0,0,0,0,0,0,0,-1,916,1506,0,0
-301,-482,0,0,0,0,0,0,0,0,0,-1,923,1506,0,0
-294,-482,0,0,0,0,0,0,0,0,0,-1,930,1506,0,0
-287,-482,0,0,0,0,0,0,0,0,0,-1,937,1506,0,0
-280,-482,0,0,0,0,0,0,0,0,0,-1,944,1506,0,0
-273,-482,0,0,0,0,0,0,0,0,0,-1,951,1506,0,0
-266,-482,0,0,0,0,0,0,0,0,0,-1,958,1506,0,0
-259,-482,0,0,0,0,0,0,0,0,0,-1,965,1506,0,0
-252,-482,0,0,0,0,0,0,0,0,0,-1,972,1506,0,0
-245,-482,0,0,0,0,0,0,0,0,0,-1,979,1506,0,0
-238,-482,0,0,0,0,0,0,0,0,0,-1,986,1506,0,0
-231,-482,0,0,0,0,0,0,0,0,0,-1,993,1506,0,0
-224,-482,0,0,0,0,0,0,0,0,0,-1,1000,1506,0,0
-217,-482,0,0,0,0,0,0,0,0,0,-1,1007,1506,0,0
-210,-482,0,0,0,0,0,0,0,0,0,-1,1014,1506,0,0
-203,-482,0,0,0,0,0,0,0,0,0,-1,1021,1506,0,0
-196,-482,0,0,0,0,0,0,0,0,0,-1,1028,1506,0,0
-189,-482,0,0,0,0,0,0,0,0,0,-1,1035,1506,0,0
-182,-482,0,0,0,0,0,0,0,0,0,-1,1042,1506,0,0
-175,-482,0,0,0,0,0,0,0,0,0,-1,1049,1506,0,0
-168,-482,0,0,0,0,0,0,0,0,0,-1,1056,1506,0,0
-161,-482,0,0,0,0,0,0,0,0,0,-1,1063,1506,0,0
-154,-482,0,0,0,0,0,0,0,0,0,-1,1070,1506,0,0
-147,-482,0,0,0,0,0,0,0,0,0,-1,1077,1506,0,0
-140,-482,0,0,0,0,0,0,0,0,0,-1,1084,1506,0,0
-133,-482,0,0,0,0,0,0,0,0,0,-1,1091,1506,0,0
-126,-482,0,0,0,0,0,0,0,0,0,-1,1098,1506,0,0
-119,-482,0,0,0,0,0,0,0,0,0,-1,1105,1506,0,0
-112,-482,0,0,0,0,0,0,0,0,0,-1,1112,1506,0,0
-105,-482,0,0,0,0,0,0,0,0,0,-1,1119,1506,0,0
-98,-482,0,0,0,0,0,0,0,0,0,-1,1126,1506,0,0
-91,-482,0,0,0,0,0,0,0,0,0,-1,1133,1506,0,0
-84,-482,0,0,0,0,0,0,0,0,0,-1,1140,1506,0,0
-77,-482,0,0,0,0,0,0,0,0,0,-1,1147,1506,0,0
-70,-482,0,0,0,0,0,0,0,0,0,-1,1154,1506,0,0
-63,-482,0,0,0,0,0,0,0,0,0,-1,1161,1506,0,0
-56,-482,0,0,0,0,0,0,0,0,0,-1,1168,1506,0,0
-49,-482,0,0,0,0,0,0,0,0,0,-1,1175,1506,0,0
-42,-482,0,0,0,0,0,0,0,0,0,-1,1182,1506,0,0
-35,-482,0,0,0,0,0,0,0,0,0,-1,1189,1506,0,0
-28,-482,0,0,0,0,0,0,0,0,0,-1,1196,1506,0,0
-21,-482,0,0,0,0,0,0,0,0,0,-1,1203,1506,0,0
-14,-482,0,0,0,0,0,0,0,0,0,-1,1210,1506,0,0
-7,-482,0,0,0,0,0,0,0,0,0,-1,1217,1506,0,0
0,-482,0,0,0,0,0,0,0,0,0,-1,1224,1506,0,0
7,-482,0,0,0,0,0,0,0,0,0,-1,1231,1506,0,0
14,-482,0,0,0,0,0,0,0,0,0,-1,1238,1506,0,0
21,-482,0,0,0,0,0,0,0,0,0,-1,1245,1506,0,0
28,-482,0,0,0,0,0,0,0,0,0,-1,1252,1506,0,0
35,-482,0,0,0,0,0,0,0,0,0,-1,1259,1506,0,0
42,-482,0,0,0,0,0,0,0,0,0,-1,1266,1506,0,0
49,-482,0,0,0,0,0,0,0,0,0,-1,1273,1506,0,0
56,-482,0,0,0,0,0,0,0,0,0,-1,1280,1506,0,0
63,-482,0,0,0,0,0,0,0,0,0,-1,1287,1506,0,0
70,-482,0,0,0,0,0,0,0,0,0,-1,1294,1506,0,0
77,-482,0,0,0,0,0,0,0,0,0,-1,1301,1506,0,0
84,-482,0,0,0,0,0,0,0,0,0,-1,1308,1506,0,0
91,-482,0,0,0,0,0,0,0,0,0,-1,1315,1506,0,0
98,-482,0,0,0,0,0,0,0,0,0,-1,1322,1506,0,0
105,-482,0,0,0,0,0,0,0,0,0,-1,1329,1506,0,0
112,-482,0,0,0,0,0,0,0,0,0,-1,1336,1506,0,0
119,-482,0,0,0,0,0,0,0,0,0,-1,1343,1506,0,0
126,-482,0,0,0,0,0,0,0,0,0,-1,1350,1506,0,0
133,-482,0,0,0,0,0,0,0,0,0,-1,1357,1506,0,0
140,-482,0,0,0,0,0,0,0,0,0,-1,1364,1506,0,0
147,-482,0,0,0,0,0,0,0,0,0,-1,1371,1506,0,0
154,-482,0,0,0,0,0,0,0,0,0,-1,1378,1506,0,0
161,-482,0,0,0,0,0,0,0,0,0,-1,1385,1506,0,0
168,-482,0,0,0,0,0,0,0,0,0,-1,1392,1506,0,0
175,-482,0,0,0,0,0,0,0,0,0,-1,1399,1506,0,0
182,-482,0,0,0,0,0,0,0,0,0,-1,1406,1506,0,0
189,-482,0,0,0,0,0,0,0,0,0,-1,1413,1506,0,0
196,-482,0,0,0,0,0,0,0,0,0,-1,1420,1506,0,0
203,-482,0,0,0,0,0,0,0,0,0,-1,1427,1506,0,0
210,-482,0,0,0,0,0,0,0,0,0,-1,1434,1506,0,0
217,-482,0,0,0,0,0,0,0,0,0,-1,1441,1506,0,0
224,-482,0,0,0,0,0,0,0,0,0,-1,1448,1506,0,0
231,-482,0,0,0,0,0,0,0,0,0,-1,1455,1506,0,0
238,-482,0,0,0,0,0,0,0,0,0,-1,1462,1506,0,0
245,-482,0,0,0,0,0,0,0,0,0,-1,1469,1506,0,0
252,-482,0,0,0,0,0,0,0,0,0,-1,1476,1506,0,0
259,-482,0,0,0,0,0,0,0,0,0,-1,1483,1506,0,0
266,-482,0,0,0,0,0,0,0,0,0,-1,1490,1506,0,0
273,-482,0,0,0,0,0,0,0,0,0,-1,1497,1506,0,0
280,-482,0,0,0,0,0,0,0,0,0,-1,1504,1506,0,0
287,-482,0,0,0,0,0,0,0,0,0,-1,1511,1506,0,0
294,-482,0,0,0,0,0,0,0,0,0,-1,1518,1506,0,0
301,-482,0,0,0,0,0,0,0,0,0,-1,1525,1506,0,0
308,-482,0,0,0,0,0,0,0,0,0,-1,1532,1506,0,0
315,-482,0,0,0,0,0,0,0,0,0,-1,1539,1506,0,0
322,-482,0,0,0,0,0,0,0,0,0,-1,1546,1506,0,0
329,-482,0,0,0,0,0,0,0,0,0,-1,1553,1506,0,0
336,-482,0,0,0,0,0,0,0,0,0,-1,1560,1506,0,0
343,-482,0,0,0,0,0,0,0,0,0,-1,1567,1506,0,0
350,-482,0,0,0,0,0,0,0,0,0,-1,1574,1506,0,0
357,-482,0,0,0,0,0,0,0,0,0,-1,1581,1506,0,0
364,-482,0,0,0,0,0,0,0,0,0,-1,1588,1506,0,0
371,-482,0,0,0,0,0,0,0,0,0,-1,1595,1506,0,0
378,-482,0,0,0,0,0,0,0,0,0,-1,1602,1506,0,0
385,-482,0,0,0,0,0,0,0,0,0,-1,1609,1506,0,0
392,-482,0,0,0,0,0,0,0,0,0,-1,1616,1506,0,0
399,-482,0,0,0,0,0,0,0,0,0,-1,1623,1506,0,0
406,-482,0,0,0,0,0,0,0,0,0,-1,1630,1506,0,0
413,-482,0,0,0,0,0,0,0,0,0,-1,1637,1506,0,0
420,-482,0,0,0,0,0,0,0,0,0,-1,1644,1506,0,0
427,-482,0,0,0,0,0,0,0,0,0,-1,1651,1506,0,0
434,-482,0,0,0,0,0,0,0,0,0,-1,1658,1506,0,0
441,-482,0,0,0,0,0,0,0,0,0,-1,1665,1506,0,0
448,-482,4.24146,1.55383,0,0,0,0,0,0,0,-1,1672,1506,4.24149,-1.55381
455,-482,12.4122,1.09729,0,0,0,0,0,0,0,-1,1679,1506,12.4122,-1.09734
462,-482,15.0673,3.13135,0,0,0,0,0,0,0,-1,1686,1506,15.0672,-3.13134
469,-482,15.3793,3.46301,0,0,0,0,0,0,0,-1,1693,1506,15.3793,-3.46307
476,-482,8.69751,9.18738,0,0,0,0,0,0,0,-1,1700,1506,8.69753,-9.18739
483,-482,10.0902,7.17432,0,0,0,0,0,0,0,-1,1707,1506,10.0902,-7.1743
490,-482,11.6289,5.4928,0,0,0,0,0,0,0,-1,1714,1506,11.6289,-5.49283
497,-482,15.9539,7.40222,0,0,0,0,0,0,0,-1,1721,1506,15.9538,-7.40219
504,-482,20.4233,12.006,0,0,0,0,0,0,0,-1,1728,1506,20.4233,-12.006
511,-482,18.4937,12.9175,0,0,0,0,0,0,0,-1,1735,1506,18.4936,-12.9174
518,-482,16.6002,13.9679,0,0,0,0,0,0,0,-1,1742,1506,16.6003,-13.9679
525,-482,18.495,15.9618,0,0,0,0,0,0,0,-1,1749,1506,18.495,-15.9618
532,-482,19.9375,21.0775,0,0,0,0,0,0,0,-1,1756,1506,19.9375,-21.0775
539,-482,20.2291,20.5577,0,0,0,0,0,0,0,-1,1763,1506,20.2291,-20.5578
546,-482,27.0593,28.278,0,0,0,0,0,0,0,-1,1770,1506,27.0593,-28.278
553,-482,27.0415,27.3419,0,0,0,0,0,0,0,-1,1777,1506,27.0415,-27.3419
560,-482,27.0828,26.5721,0.00648769,0.00379695,-0.00300129,0.00843135,0.00185328,-0.574693,0.00511628,0.0165881,1784,1506,27.0828,-26.5722
567,-482,27.1648,25.869,0.00511358,0.00270498,-0.00224333,0.00645543,0.00136313,-0.539057,0.00392887,0.014141,1791,1506,27.1648,-25.869
574,-482,27.1377,25.2155,0.00412733,0.00199169,-0.00184245,0.00518903,0.000929991,-0.522769,0.0031948,0.0137285,1798,1506,27.1377,-25.2155
581,-482,27.0808,24.5403,0.00330335,0.00144043,-0.001533,0.00416569,0.000578092,-0.5124,0.00260589,0.0107915,1805,1506,27.0808,-24.5403
588,-482,27.0313,23.8519,0.00273317,0.0010267,-0.00134747,0.00347483,0.000285037,-0.503156,0.00222763,0.0115844,1812,1506,27.0312,-23.8519
595,-482,27.0089,23.1646,0.00245419,0.000686309,-0.0012023,0.00306252,7.79795e-05,-0.468414,0.00201619,0.018211,1819,1506,27.0089,-23.1646
602,-482,27.005,22.4728,0.00227936,0.000467619,-0.00114375,0.00283251,-8.5538e-05,-0.45047,0.00191749,0.0224668,1826,1506,27.005,-22.4728
609,-482,26.9657,21.819,0.00223611,0.00034968,-0.00107625,0.00272397,-0.000138178,-0.42559,0.00186375,0.0165727,1833,1506,26.9657,-21.8189
616,-482,26.9104,21.1644,0.00243882,0.000185725,-0.000949802,0.00278579,-0.000161238,-0.350239,0.0019132,0.0115818,1840,1506,26.9104,-21.1645
623,-482,26.8597,20.4856,0.00278085,-6.92027e-05,-0.00069226,0.0029401,-0.00022845,-0.226106,0.00204049,0.0183278,1847,1506,26.8598,-20.4856
630,-482,26.8201,19.8478,0.00312186,-5.06602e-05,-0.000405791,0.00317294,-0.000101742,-0.125222,0.00215001,0.04011,1854,1506,26.82,-19.8477
637,-482,26.8376,19.2535,0,0,0,0,0,0,0,-1,1861,1506,26.8376,-19.2536
644,-482,17.5909,11.6163,0,0,0,0,0,0,0,-1,1868,1506,17.5909,-11.6163
651,-482,4.03845,7.05273,0,0,0,0,0,0,0,-1,1875,1506,4.03843,-7.05279
658,-482,10.0278,5.87903,0,0,0,0,0,0,0,-1,1882,1506,10.0279,-5.87902
665,-482,8.15198,3.22229,0,0,0,0,0,0,0,-1,1889,1506,8.15199,-3.22232
672,-482,9.87415,1.3147,0,0,0,0,0,0,0,-1,1896,1506,9.87416,-1.31473
679,-482,0,0,0,0,0,0,0,0,0,-1,1903,1506,0,0
686,-482,0,0,0,0,0,0,0,0,0,-1,1910,1506,0,0
693,-482,0,0,0,0,0,0,0,0,0,-1,1917,1506,0,0
700,-482,0,0,0,0,0,0,0,0,0,-1,1924,1506,0,0
707,-482,0,0,0,0,0,0,0,0,0,-1,1931,1506,0,0
714,-482,0,0,0,0,0,0,0,0,0,-1,1938,1506,0,0
721,-482,0,0,0,0,0,0,0,0,0,-1,1945,1506,0,0
728,-482,0,0,0,0,0,0,0,0,0,-1,1952,1506,0,0
735,-482,0,0,0,0,0,0,0,0,0,-1,1959,1506,0,0
742,-482,0,0,0,0,0,0,0,0,0,-1,1966,1506,0,0
749,-482,0,0,0,0,0,0,0,0,0,-1,1973,1506,0,0
756,-482,0,0,0,0,0,0,0,0,0,-1,1980,1506,0,0
763,-482,0,0,0,0,0,0,0,0,0,-1,1987,1506,0,0
770,-482,0,0,0,0,0,0,0,0,0,-1,1994,1506,0,0
777,-482,0,0,0,0,0,0,0,0,0,-1,2001,1506,0,0
784,-482,0,0,0,0,0,0,0,0,0,-1,2008,1506,0,0
791,-482,0,0,0,0,0,0,0,0,0,-1,2015,1506,0,0
798,-482,0,0,0,0,0,0,0,0,0,-1,2022,1506,0,0
805,-482,0,0,0,0,0,0,0,0,0,-1,2029,1506,0,0
812,-482,0,0,0,0,0,0,0,0,0,-1,2036,1506,0,0
-700,-489,0,0,0,0,0,0,0,0,0,-1,524,1513,0,0
-693,-489,0,0,0,0,0,0,0,0,0,-1,531,1513,0,0
-686,-489,0,0,0,0,0,0,0,0,0,-1,538,1513,0,0
-679,-489,0,0,0,0,0,0,0,0,0,-1,545,1513,0,0
-672,-489,0,0,0,0,0,0,0,0,0,-1,552,1513,0,0
-665,-489,0,0,0,0,0,0,0,0,0,-1,559,1513,0,0
-658,-489,0,0,0,0,0,0,0,0,0,-1,566,1513,0,0
-651,-489,0,0,0,0,0,0,0,0,0,-1,573,1513,0,0
-644,-489,0,0,0,0,0,0,0,0,0,-1,580,1513,0,0
-637,-489,0,0,0,0,0,0,0,0,0,-1,587,1513,0,0
-630,-489,0,0,0,0,0,0,0,0,0,-1,594,1513,0,0
-623,-489,0,0,0,0,0,0,0,0,0,-1,601,1513,0,0
-616,-489,0,0,0,0,0,0,0,0,0,-1,608,1513,0,0
-609,-489,0,0,0,0,0,0,0,0,0,-1,615,1513,0,0
-602,-489,0,0,0,0,0,0,0,0,0,-1,622,1513,0,0
-595,-489,0,0,0,0,0,0,0,0,0,-1,629,1513,0,0
-588,-489,0,0,0,0,0,0,0,0,0,-1,636,1513,0,0
-581,-489,0,0,0,0,0,0,0,0,0,-1,643,1513,0,0
-574,-489,0,0,0,0,0,0,0,0,0,-1,650,1513,0,0
-567,-489,0,0,0,0,0,0,0,0,0,-1,657,1513,0,0
-560,-489,0,0,0,0,0,0,0,0,0,-1,664,1513,0,0
-553,-489,-9.42206,8.5116,0,0,0,0,0,0,0,-1,671,1513,-9.42205,-8.51158
-546,-489,-7.80951,8.18506,0,0,0,0,0,0,0,-1,678,1513,-7.8095,-8.18503
-539,-489,-3.06879,2.82349,0,0,0,0,0,0,0,-1,685,1513,-3.06881,-2.82354
-532,-489,-3.14215,2.5835,0,0,0,0,0,0,0,-1,692,1513,-3.14213,-2.58353
-525,-489,-2.604,4.06274,0,0,0,0,0,0,0,-1,699,1513,-2.60399,-4.06274
-518,-489,-5.43774,7.48059,0,0,0,0,0,0,0,-1,706,1513,-5.43777,-7.48058
-511,-489,-7.52856,10.951,0,0,0,0,0,0,0,-1,713,1513,-7.52857,-10.951
-504,-489,-7.17352,12.8508,0,0,0,0,0,0,0,-1,720,1513,-7.17352,-12.8508
-497,-489,-5.51678,14.9254,0,0,0,0,0,0,0,-1,727,1513,-5.51681,-14.9254
-490,-489,-9.20599,19.2723,0,0,0,0,0,0,0,-1,734,1513,-9.20597,-19.2723
-483,-489,-9.12256,20.0747,0.00558555,-0.00232206,0.00341673,0.00685732,-0.00359383,0.35633,0.00613125,0.0289307,741,1513,-9.12253,-20.0747
-476,-489,-9.11493,20.9069,0.00502408,-0.00211108,0.0026032,0.00587286,-0.00295986,0.315185,0.0051912,0.0106917,748,1513,-9.11493,-20.9068
-469,-489,-9.14709,21.6365,0.00447377,-0.00159839,0.00210742,0.0051335,-0.00225812,0.303386,0.00437386,0.0109846,755,1513,-9.14706,-21.6365
-462,-489,-9.1778,22.3507,0.00388211,-0.000834874,0.0017933,0.00448645,-0.00143922,0.325049,0.00356879,0.015932,762,1513,-9.17779,-22.3508
-455,-489,-9.22772,23.097,0.00328549,6.42768e-05,0.0016532,0.00398294,-0.000633174,0.399224,0.00288957,0.0197027,769,1513,-9.2277,-23.0971
-448,-489,-9.26471,23.7806,0.00280147,0.00120848,0.00177384,0.00394944,6.05203e-05,0.574378,0.00261302,0.0174381,776,1513,-9.2647,-23.7807
-441,-489,-9.28381,24.483,0.00244521,0.00246468,0.00211824,0.00457321,0.000336682,0.787697,0.002943,0.0158156,783,1513,-9.28382,-24.483
-434,-489,-9.35822,25.193,0.00237461,0.00420384,0.00287161,0.00630297,0.000275486,0.93957,0.00411323,0.0184352,790,1513,-9.35819,-25.193
-427,-489,-9.39453,25.8713,0.00250326,0.00591757,0.00378189,0.00835976,6.10747e-05,0.997408,0.00555293,0.0202998,797,1513,-9.39453,-25.8714
-420,-489,-9.43555,26.7303,0.00276853,0.00820473,0.00499126,0.01117,-0.000196742,1.03473,0.00751311,0.0276528,804,1513,-9.43553,-26.7303
-413,-489,-9.39404,27.6786,0,0,0,0,0,0,0,-1,811,1513,-9.39403,-27.6786
-406,-489,-3.10559,15.8143,0,0,0,0,0,0,0,-1,818,1513,-3.10556,-15.8143
-399,-489,-1.41241,9.10718,0,0,0,0,0,0,0,-1,825,1513,-1.41244,-9.10722
-392,-489,-1.0368,9.30469,0,0,0,0,0,0,0,-1,832,1513,-1.03682,-9.30466
-385,-489,-1.75165,10.6559,0,0,0,0,0,0,0,-1,839,1513,-1.75165,-10.6559
-378,-489,-0.401428,9.87048,0,0,0,0,0,0,0,-1,846,1513,-0.401415,-9.87047
-371,-489,-1.11633,10.6606,0,0,0,0,0,0,0,-1,853,1513,-1.11633,-10.6606
-364,-489,-0.503113,8.98486,0,0,0,0,0,0,0,-1,860,1513,-0.503097,-8.98482
-357,-489,-0.609924,10.9606,0,0,0,0,0,0,0,-1,867,1513,-0.609947,-10.9605
-350,-489,-7.94659,-0.358887,0,0,0,0,0,0,0,-1,874,1513,-7.94657,0.358912
-343,-489,-7.49323,-0.437866,0,0,0,0,0,0,0,-1,881,1513,-7.49322,0.437823
-336,-489,-7.02332,-0.53125,0,0,0,0,0,0,0,-1,888,1513,-7.0233,0.531295
-329,-489,-13.2786,4.96082,0,0,0,0,0,0,0,-1,895,1513,-13.2785,-4.96077
-322,-489,0,0,0,0,0,0,0,0,0,-1,902,1513,0,0
-315,-489,0,0,0,0,0,0,0,0,0,-1,909,1513,0,0
-308,-489,0,0,0,0,0,0,0,0,0,-1,916,1513,0,0
-301,-489,0,0,0,0,0,0,0,0,0,-1,923,1513,0,0
-294,-489,0,0,0,0,0,0,0,0,0,-1,930,1513,0,0
-287,-489,0,0,0,0,0,0,0,0,0,-1,937,1513,0,0
-280,-489,0,0,0,0,0,0,0,0,0,-1,944,1513,0,0
-273,-489,0,0,0,0,0,0,0,0,0,-1,951,1513,0,0
-266,-489,0,0,0,0,0,0,0,0,0,-1,958,1513,0,0
-259,-489,0,0,0,0,0,0,0,0,0,-1,965,1513,0,0
-252,-489,0,0,0,0,0,0,0,0,0,-1,972,1513,0,0
-245,-489,0,0,0,0,0,0,0,0,0,-1,979,1513,0,0
-238,-489,0,0,0,0,0,0,0,0,0,-1,986,1513,0,0
-231,-489,0,0,0,0,0,0,0,0,0,-1,993,1513,0,0
-224,-489,0,0,0,0,0,0,0,0,0,-1,1000,1513,0,0
-217,-489,0,0,0,0,0,0,0,0,0,-1,1007,1513,0,0
-210,-489,0,0,0,0,0,0,0,0,0,-1,1014,1513,0,0
-203,-489,0,0,0,0,0,0,0,0,0,-1,1021,1513,0,0
-196,-489,0,0,0,0,0,0,0,0,0,-1,1028,1513,0,0
-189,-489,0,0,0,0,0,0,0,0,0,-1,1035,1513,0,0
-182,-489,0,0,0,0,0,0,0,0,0,-1,1042,1513,0,0
-175,-489,0,0,0,0,0,0,0,0,0,-1,1049,1513,0,0
-168,-489,0,0,0,0,0,0,0,0,0,-1,1056,1513,0,0
-161,-489,0,0,0,0,0,0,0,0,0,-1,1063,1513,0,0
-154,-489,0,0,0,0,0,0,0,0,0,-1,1070,1513,0,0
-147,-489,0,0,0,0,0,0,0,0,0,-1,1077,1513,0,0
-140,-489,0,0,0,0,0,0,0,0,0,-1,1084,1513,0,0
-133,-489,0,0,0,0,0,0,0,0,0,-1,1091,1513,0,0
-126,-489,0,0,0,0,0,0,0,0,0,-1,1098,1513,0,0
-119,-489,0,0,0,0,0,0,0,0,0,-1,1105,1513,0,0
-112,-489,0,0,0,0,0,0,0,0,0,-1,1112,1513,0,0
-105,-489,0,0,0,0,0,0,0,0,0,-1,1119,1513,0,0
-98,-489,0,0,0,0,0,0,0,0,0,-1,1126,1513,0,0
-91,-489,0,0,0,0,0,0,0,0,0,-1,1133,1513,0,0
-84,-489,0,0,0,0,0,0,0,0,0,-1,1140,1513,0,0
-77,-489,0,0,0,0,0,0,0,0,0,-1,1147,1513,0,0
-70,-489,0,0,0,0,0,0,0,0,0,-1,1154,1513,0,0
-63,-489,0,0,0,0,0,0,0,0,0,-1,1161,1513,0,0
-56,-489,0,0,0,0,0,0,0,0,0,-1,1168,1513,0,0
-49,-489,0,0,0,0,0,0,0,0,0,-1,1175,1513,0,0
-42,-489,0,0,0,0,0,0,0,0,0,-1,1182,1513,0,0
-35,-489,0,0,0,0,0,0,0,0,0,-1,1189,1513,0,0
-28,-489,0,0,0,0,0,0,0,0,0,-1,1196,1513,0,0
-21,-489,0,0,0,0,0,0,0,0,0,-1,1203,1513,0,0
-14,-489,0,0,0,0,0,0,0,0,0,-1,1210,1513,0,0
-7,-489,0,0,0,0,0,0,0,0,0,-1,1217,1513,0,0
0,-489,0,0,0,0,0,0,0,0,0,-1,1224,1513,0,0
7,-489,0,0,0,0,0,0,0,0,0,-1,1231,1513,0,0
14,-489,0,0,0,0,0,0,0,0,0,-1,1238,1513,0,0
21,-489,0,0,0,0,0,0,0,0,0,-1,1245,1513,0,0
28,-489,0,0,0,0,0,0,0,0,0,-1,1252,1513,0,0
35,-489,0,0,0,0,0,0,0,0,0,-1,1259,1513,0,0
42,-489,0,0,0,0,0,0,0,0,0,-1,1266,1513,0,0
49,-489,0,0,0,0,0,0,0,0,0,-1,1273,1513,0,0
56,-489,0,0,0,0,0,0,0,0,0,-1,1280,1513,0,0
63,-489,0,0,0,0,0,0,0,0,0,-1,1287,1513,0,0
70,-489,0,0,0,0,0,0,0,0,0,-1,1294,1513,0,0
77,-489,0,0,0,0,0,0,0,0,0,-1,1301,1513,0,0
84,-489,0,0,0,0,0,0,0,0,0,-1,1308,1513,0,0
91,-489,0,0,0,0,0,0,0,0,0,-1,1315,1513,0,0
98,-489,0,0,0,0,0,0,0,0,0,-1,1322,1513,0,0
105,-489,0,0,0,0,0,0,0,0,0,-1,1329,1513,0,0
112,-489,0,0,0,0,0,0,0,0,0,-1,1336,1513,0,0
119,-489,0,0,0,0,0,0,0,0,0,-1,1343,1513,0,0
126,-489,0,0,0,0,0,0,0,0,0,-1,1350,1513,0,0
133,-489,0,0,0,0,0,0,0,0,0,-1,1357,1513,0,0
140,-489,0,0,0,0,0,0,0,0,0,-1,1364,1513,0,0
147,-489,0,0,0,0,0,0,0,0,0,-1,1371,1513,0,0
154,-489,0,0,0,0,0,0,0,0,0,-1,1378,1513,0,0
161,-489,0,0,0,0,0,0,0,0,0,-1,1385,1513,0,0
168,-489,0,0,0,0,0,0,0,0,0,-1,1392,1513,0,0
175,-489,0,0,0,0,0,0,0,0,0,-1,1399,1513,0,0
182,-489,0,0,0,0,0,0,0,0,0,-1,1406,1513,0,0
189,-489,0,0,0,0,0,0,0,0,0,-1,1413,1513,0,0
196,-489,0,0,0,0,0,0,0,0,0,-1,1420,1513,0,0
203,-489,0,0,0,0,0,0,0,0,0,-1,1427,1513,0,0
210,-489,0,0,0,0,0,0,0,0,0,-1,1434,1513,0,0
217,-489,0,0,0,0,0,0,0,0,0,-1,1441,1513,0,0
224,-489,0,0,0,0,0,0,0,0,0,-1,1448,1513,0,0
231,-489,0,0,0,0,0,0,0,0,0,-1,1455,1513,0,0
238,-489,0,0,0,0,0,0,0,0,0,-1,1462,1513,0,0
245,-489,0,0,0,0,0,0,0,0,0,-1,1469,1513,0,0
252,-489,0,0,0,0,0,0,0,0,0,-1,1476,1513,0,0
259,-489,0,0,0,0,0,0,0,0,0,-1,1483,1513,0,0
266,-489,0,0,0,0,0,0,0,0,0,-1,1490,1513,0,0
273,-489,0,0,0,0,0,0,0,0,0,-1,1497,1513,0,0
280,-489,0,0,0,0,0,0,0,0,0,-1,1504,1513,0,0
287,-489,0,0,0,0,0,0,0,0,0,-1,1511,1513,0,0
294,-489,0,0,0,0,0,0,0,0,0,-1,1518,1513,0,0
301,-489,0,0,0,0,0,0,0,0,0,-1,1525,1513,0,0
308,-489,0,0,0,0,0,0,0,0,0,-1,1532,1513,0,0
315,-489,0,0,0,0,0,0,0,0,0,-1,1539,1513,0,0
322,-489,0,0,0,0,0,0,0,0,0,-1,1546,1513,0,0
329,-489,0,0,0,0,0,0,0,0,0,-1,1553,1513,0,0
336,-489,0,0,0,0,0,0,0,0,0,-1,1560,1513,0,0
343,-489,0,0,0,0,0,0,0,0,0,-1,1567,1513,0,0
350,-489,0,0,0,0,0,0,0,0,0,-1,1574,1513,0,0
357,-489,0,0,0,0,0,0,0,0,0,-1,1581,1513,0,0
364,-489,0,0,0,0,0,0,0,0,0,-1,1588,1513,0,0
371,-489,0,0,0,0,0,0,0,0,0,-1,1595,1513,0,0
378,-489,0,0,0,0,0,0,0,0,0,-1,1602,1513,0,0
385,-489,0,0,0,0,0,0,0,0,0,-1,1609,1513,0,0
392,-489,0,0,0,0,0,0,0,0,0,-1,1616,1513,0,0
399,-489,0,0,0,0,0,0,0,0,0,-1,1623,1513,0,0
406,-489,0,0,0,0,0,0,0,0,0,-1,1630,1513,0,0
413,-489,0,0,0,0,0,0,0,0,0,-1,1637,1513,0,0
420,-489,0,0,0,0,0,0,0,0,0,-1,1644,1513,0,0
427,-489,0,0,0,0,0,0,0,0,0,-1,1651,1513,0,0
434,-489,0,0,0,0,0,0,0,0,0,-1,1658,1513,0,0
441,-489,11.4602,2.56787,0,0,0,0,0,0,0,-1,1665,1513,11.4602,-2.56786
448,-489,12.4425,1.72351,0,0,0,0,0,0,0,-1,1672,1513,12.4425,-1.72349
455,-489,12.5575,1.37463,0,0,0,0,0,0,0,-1,1679,1513,12.5575,-1.37469
462,-489,14.9784,3.84888,0,0,0,0,0,0,0,-1,1686,1513,14.9784,-3.84892
469,-489,15.1367,4.53101,0,0,0,0,0,0,0,-1,1693,1513,15.1368,-4.531
476,-489,15.5536,5.09338,0,0,0,0,0,0,0,-1,1700,1513,15.5536,-5.09339
483,-489,8.96912,8.37805,0,0,0,0,0,0,0,-1,1707,1513,8.96909,-8.37809
490,-489,10.5366,7.49561,0,0,0,0,0,0,0,-1,1714,1513,10.5367,-7.49558
497,-489,14.6051,11.8397,0,0,0,0,0,0,0,-1,1721,1513,14.6051,-11.8397
504,-489,16.7527,14.1735,0,0,0,0,0,0,0,-1,1728,1513,16.7527,-14.1735
511,-489,17.83,17.7993,0,0,0,0,0,0,0,-1,1735,1513,17.83,-17.7993
518,-489,16.4751,14.3682,0,0,0,0,0,0,0,-1,1742,1513,16.4751,-14.3682
525,-489,17.2606,17.4949,0,0,0,0,0,0,0,-1,1749,1513,17.2606,-17.4949
532,-489,19.397,21.0182,0,0,0,0,0,0,0,-1,1756,1513,19.397,-21.0182
539,-489,26.323,29.0208,0,0,0,0,0,0,0,-1,1763,1513,26.3229,-29.0208
546,-489,26.4921,28.139,0.00855741,0.00633594,-0.00494958,0.0125194,0.002374,-0.675022,0.00767823,0.0393054,1770,1513,26.492,-28.139
553,-489,26.4664,27.308,0.0068884,0.00469409,-0.00368092,0.0096322,0.00195029,-0.640557,0.00588018,0.0221839,1777,1513,26.4665,-27.308
560,-489,26.484,26.5651,0.00549551,0.00336485,-0.00268858,0.00732213,0.00153823,-0.596766,0.00445803,0.0137296,1784,1513,26.484,-26.5651
567,-489,26.4982,25.8992,0.00439995,0.00237156,-0.00202227,0.00564809,0.00112342,-0.55297,0.00345239,0.0154781,1791,1513,26.4982,-25.8991
574,-489,26.4331,25.2518,0.00361891,0.00169899,-0.00165965,0.00457623,0.000741675,-0.5232,0.00283611,0.0153679,1798,1513,26.4331,-25.2519
581,-489,26.4236,24.5709,0.00297542,0.001168,-0.00138943,0.00372918,0.000414242,-0.497063,0.00236019,0.0114654,1805,1513,26.4236,-24.5709
588,-489,26.3969,23.9106,0.00258234,0.0008048,-0.00127867,0.00325078,0.000136353,-0.481693,0.0021232,0.0132504,1812,1513,26.3968,-23.9106
595,-489,26.3701,23.2643,0.0024748,0.000545679,-0.00122885,0.00307243,-5.19509e-05,-0.452656,0.00206582,0.0195032,1819,1513,26.3702,-23.2643
602,-489,26.3365,22.6088,0.00247287,0.000441938,-0.00129058,0.00309959,-0.000184779,-0.452068,0.00213066,0.02584,1826,1513,26.3365,-22.6088
609,-489,26.2917,21.9114,0.0026051,0.000423068,-0.00136006,0.00325767,-0.000229496,-0.447362,0.00225218,0.0182127,1833,1513,26.2917,-21.9113
616,-489,26.2744,21.187,0.00308051,0.000334146,-0.00137145,0.00364808,-0.000233423,-0.392384,0.00251347,0.0209899,1840,1513,26.2744,-21.187
623,-489,26.2319,20.4943,0.00364301,0.000173882,-0.00122794,0.00403366,-0.00021677,-0.308012,0.0027642,0.0459521,1847,1513,26.2319,-20.4942
630,-489,26.1996,19.6379,0,0,0,0,0,0,0,-1,1854,1513,26.1996,-19.638
637,-489,17.2048,11.8091,0,0,0,0,0,0,0,-1,1861,1513,17.2048,-11.8091
644,-489,9.67578,8.45874,0,0,0,0,0,0,0,-1,1868,1513,9.67576,-8.45879
651,-489,6.13818,6.85095,0,0,0,0,0,0,0,-1,1875,1513,6.13823,-6.85097
658,-489,5.43848,7.75513,0,0,0,0,0,0,0,-1,1882,1513,5.43844,-7.75509
665,-489,5.48438,8.59912,0,0,0,0,0,0,0,-1,1889,1513,5.48434,-8.59907
672,-489,0,0,0,0,0,0,0,0,0,-1,1896,1513,0,0
679,-489,0,0,0,0,0,0,0,0,0,-1,1903,1513,0,0
686,-489,0,0,0,0,0,0,0,0,0,-1,1910,1513,0,0
693,-489,0,0,0,0,0,0,0,0,0,-1,1917,1513,0,0
700,-489,0,0,0,0,0,0,0,0,0,-1,1924,1513,0,0
707,-489,0,0,0,0,0,0,0,0,0,-1,1931,1513,0,0
714,-489,0,0,0,0,0,0,0,0,0,-1,1938,1513,0,0
721,-489,0,0,0,0,0,0,0,0,0,-1,1945,1513,0,0
728,-489,0,0,0,0,0,0,0,0,0,-1,1952,1513,0,0
735,-489,0,0,0,0,0,0,0,0,0,-1,1959,1513,0,0
742,-489,0,0,0,0,0,0,0,0,0,-1,1966,1513,0,0
749,-489,0,0,0,0,0,0,0,0,0,-1,1973,1513,0,0
756,-489,0,0,0,0,0,0,0,0,0,-1,1980,1513,0,0
763,-489,0,0,0,0,0,0,0,0,0,-1,1987,1513,0,0
770,-489,0,0,0,0,0,0,0,0,0,-1,1994,1513,0,0
777,-489,0,0,0,0,0,0,0,0,0,-1,2001,1513,0,0
784,-489,0,0,0,0,0,0,0,0,0,-1,2008,1513,0,0
791,-489,0,0,0,0,0,0,0,0,0,-1,2015,1513,0,0
798,-489,0,0,0,0,0,0,0,0,0,-1,2022,1513,0,0
805,-489,0,0,0,0,0,0,0,0,0,-1,2029,1513,0,0
812,-489,0,0,0,0,0,0,0,0,0,-1,2036,1513,0,0
-700,-496,0,0,0,0,0,0,0,0,0,-1,524,1520,0,0
-693,-496,0,0,0,0,0,0,0,0,0,-1,531,1520,0,0
-686,-496,0,0,0,0,0,0,0,0,0,-1,538,1520,0,0
-679,-496,0,0,0,0,0,0,0,0,0,-1,545,1520,0,0
-672,-496,0,0,0,0,0,0,0,0,0,-1,552,1520,0,0
-665,-496,0,0,0,0,0,0,0,0,0,-1,559,1520,0,0
-658,-496,0,0,0,0,0,0,0,0,0,-1,566,1520,0,0
-651,-496,0,0,0,0,0,0,0,0,0,-1,573,1520,0,0
-644,-496,0,0,0,0,0,0,0,0,0,-1,580,1520,0,0
-637,-496,0,0,0,0,0,0,0,0,0,-1,587,1520,0,0
-630,-496,0,0,0,0,0,0,0,0,0,-1,594,1520,0,0
-623,-496,0,0,0,0,0,0,0,0,0,-1,601,1520,0,0
-616,-496,0,0,0,0,0,0,0,0,0,-1,608,1520,0,0
-609,-496,0,0,0,0,0,0,0,0,0,-1,615,1520,0,0
-602,-496,0,0,0,0,0,0,0,0,0,-1,622,1520,0,0
-595,-496,0,0,0,0,0,0,0,0,0,-1,629,1520,0,0
-588,-496,0,0,0,0,0,0,0,0,0,-1,636,1520,0,0
-581,-496,0,0,0,0,0,0,0,0,0,-1,643,1520,0,0
-574,-496,0,0,0,0,0,0,0,0,0,-1,650,1520,0,0
-567,-496,0,0,0,0,0,0,0,0,0,-1,657,1520,0,0
-560,-496,0,0,0,0,0,0,0,0,0,-1,664,1520,0,0
-553,-496,0,0,0,0,0,0,0,0,0,-1,671,1520,0,0
-546,-496,-8.09711,7.94836,0,0,0,0,0,0,0,-1,678,1520,-8.09712,-7.94842
-539,-496,-3.20129,1.16052,0,0,0,0,0,0,0,-1,685,1520,-3.20131,-1.16054
-532,-496,-2.98279,2.62146,0,0,0,0,0,0,0,-1,692,1520,-2.98278,-2.62151
-525,-496,-2.75201,4.08032,0,0,0,0,0,0,0,-1,699,1520,-2.75201,-4.08031
-518,-496,-2.6333,5.36072,0,0,0,0,0,0,0,-1,706,1520,-2.63328,-5.36077
-511,-496,-7.92126,9.68604,0,0,0,0,0,0,0,-1,713,1520,-7.92127,-9.68598
-504,-496,-7.51044,11.6274,0,0,0,0,0,0,0,-1,720,1520,-7.51042,-11.6275
-497,-496,-5.30933,14.4291,0,0,0,0,0,0,0,-1,727,1520,-5.30932,-14.4291
-490,-496,-8.21246,19.5051,0,0,0,0,0,0,0,-1,734,1520,-8.21243,-19.5051
-483,-496,-8.30084,20.3911,0.00857854,-0.00304818,0.00485207,0.0103373,-0.00480699,0.347755,0.00893581,0.0493594,741,1520,-8.30087,-20.3911
-476,-496,-8.45569,20.9437,0.00776124,-0.00268163,0.00378009,0.00898593,-0.00390632,0.313312,0.0076335,0.021283,748,1520,-8.4557,-20.9437
-469,-496,-8.45251,21.6881,0.0068413,-0.0021145,0.00303218,0.00777133,-0.00304453,0.29761,0.00644025,0.0107863,755,1520,-8.45249,-21.6882
-462,-496,-8.48254,22.4028,0.00581785,-0.00132296,0.00245822,0.00658226,-0.00208737,0.301482,0.00522485,0.0158075,762,1520,-8.48254,-22.4028
-455,-496,-8.53766,23.1464,0.00475867,-0.000466311,0.00205107,0.00546763,-0.00117527,0.332796,0.00409347,0.0208797,769,1520,-8.53763,-23.1463
-448,-496,-8.5705,23.8619,0.00381286,0.000540993,0.00188547,0.00467318,-0.000319327,0.428072,0.00322717,0.0191064,776,1520,-8.57049,-23.8619
-441,-496,-8.56305,24.5298,0.0030348,0.00162456,0.00195717,0.00441,0.000249367,0.612499,0.0028605,0.0145398,783,1520,-8.56304,-24.5298
-434,-496,-8.62903,25.2109,0.00259989,0.00314742,0.00244022,0.00532919,0.000418128,0.841259,0.00342194,0.0142019,790,1520,-8.62902,-25.2109
-427,-496,-8.68646,25.9117,0.00243174,0.00462445,0.00308907,0.00680596,0.000250235,0.955921,0.00445624,0.0180944,797,1520,-8.68647,-25.9117
-420,-496,-8.69012,26.6226,0.00252977,0.00645182,0.00402051,0.00896407,1.75261e-05,1.0123,0.00597021,0.0189573,804,1520,-8.69015,-26.6225
-413,-496,-8.6239,27.3923,0.00370023,0.00808173,0.00599345,0.0122723,-0.000490313,0.960617,0.00834975,0.0319265,811,1520,-8.62388,-27.3923
-406,-496,-8.49817,28.3652,0,0,0,0,0,0,0,-1,818,1520,-8.49818,-28.3653
-399,-496,-8.17273,29.3623,0,0,0,0,0,0,0,-1,825,1520,-8.1727,-29.3624
-392,-496,-1.49786,12.387,0,0,0,0,0,0,0,-1,832,1520,-1.49788,-12.387
-385,-496,-1.72437,11.4985,0,0,0,0,0,0,0,-1,839,1520,-1.72436,-11.4985
-378,-496,-1.45532,14.0719,0,0,0,0,0,0,0,-1,846,1520,-1.45533,-14.0719
-371,-496,0.0877075,12.5299,0,0,0,0,0,0,0,-1,853,1520,0.0876896,-12.5299
-364,-496,0.0881348,10.6422,0,0,0,0,0,0,0,-1,860,1520,0.0881368,-10.6423
-357,-496,0.323792,7.56812,0,0,0,0,0,0,0,-1,867,1520,0.323782,-7.56806
-350,-496,2.1535,7.18945,0,0,0,0,0,0,0,-1,874,1520,2.15348,-7.1894
-343,-496,-7.56244,0.335327,0,0,0,0,0,0,0,-1,881,1520,-7.56242,-0.335322
-336,-496,-3.99249,6.02222,0,0,0,0,0,0,0,-1,888,1520,-3.99246,-6.0222
-329,-496,-6.93689,-0.100342,0,0,0,0,0,0,0,-1,895,1520,-6.93686,0.1003
-322,-496,-6.17505,0.494385,0,0,0,0,0,0,0,-1,902,1520,-6.17507,-0.49437
-315,-496,-7.539,5.78638,0,0,0,0,0,0,0,-1,909,1520,-7.53898,-5.78633
-308,-496,0,0,0,0,0,0,0,0,0,-1,916,1520,0,0
-301,-496,0,0,0,0,0,0,0,0,0,-1,923,1520,0,0
-294,-496,0,0,0,0,0,0,0,0,0,-1,930,1520,0,0
-287,-496,0,0,0,0,0,0,0,0,0,-1,937,1520,0,0
-280,-496,0,0,0,0,0,0,0,0,0,-1,944,1520,0,0
-273,-496,0,0,0,0,0,0,0,0,0,-1,951,1520,0,0
-266,-496,0,0,0,0,0,0,0,0,0,-1,958,1520,0,0
-259,-496,0,0,0,0,0,0,0,0,0,-1,965,1520,0,0
-252,-496,0,0,0,0,0,0,0,0,0,-1,972,1520,0,0
-245,-496,0,0,0,0,0,0,0,0,0,-1,979,1520,0,0
-238,-496,0,0,0,0,0,0,0,0,0,-1,986,1520,0,0
-231,-496,0,0,0,0,0,0,0,0,0,-1,993,1520,0,0
-224,-496,0,0,0,0,0,0,0,0,0,-1,1000,1520,0,0
-217,-496,0,0,0,0,0,0,0,0,0,-1,1007,1520,0,0
-210,-496,0,0,0,0,0,0,0,0,0,-1,1014,1520,0,0
-203,-496,0,0,0,0,0,0,0,0,0,-1,1021,1520,0,0
-196,-496,0,0,0,0,0,0,0,0,0,-1,1028,1520,0,0
-189,-496,0,0,0,0,0,0,0,0,0,-1,1035,1520,0,0
-182,-496,0,0,0,0,0,0,0,0,0,-1,1042,1520,0,0
-175,-496,0,0,0,0,0,0,0,0,0,-1,1049,1520,0,0
-168,-496,0,0,0,0,0,0,0,0,0,-1,1056,1520,0,0
-161,-496,0,0,0,0,0,0,0,0,0,-1,1063,1520,0,0
-154,-496,0,0,0,0,0,0,0,0,0,-1,1070,1520,0,0
-147,-496,0,0,0,0,0,0,0,0,0,-1,1077,1520,0,0
-140,-496,0,0,0,0,0,0,0,0,0,-1,1084,1520,0,0
-133,-496,0,0,0,0,0,0,0,0,0,-1,1091,1520,0,0
-126,-496,0,0,0,0,0,0,0,0,0,-1,1098,1520,0,0
-119,-496,0,0,0,0,0,0,0,0,0,-1,1105,1520,0,0
-112,-496,0,0,0,0,0,0,0,0,0,-1,1112,1520,0,0
-105,-496,0,0,0,0,0,0,0,0,0,-1,1119,1520,0,0
-98,-496,0,0,0,0,0,0,0,0,0,-1,1126,1520,0,0
-91,-496,0,0,0,0,0,0,0,0,0,-1,1133,1520,0,0
-84,-496,0,0,0,0,0,0,0,0,0,-1,1140,1520,0,0
-77,-496,0,0,0,0,0,0,0,0,0,-1,1147,1520,0,0
-70,-496,0,0,0,0,0,0,0,0,0,-1,1154,1520,0,0
-63,-496,0,0,0,0,0,0,0,0,0,-1,1161,1520,0,0
-56,-496,0,0,0,0,0,0,0,0,0,-1,1168,1520,0,0
-49,-496,0,0,0,0,0,0,0,0,0,-1,1175,1520,0,0
-42,-496,0,0,0,0,0,0,0,0,0,-1,1182,1520,0,0
-35,-496,0,0,0,0,0,0,0,0,0,-1,1189,1520,0,0
-28,-496,0,0,0,0,0,0,0,0,0,-1,1196,1520,0,0
-21,-496,0,0,0,0,0,0,0,0,0,-1,1203,1520,0,0
-14,-496,0,0,0,0,0,0,0,0,0,-1,1210,1520,0,0
-7,-496,0,0,0,0,0,0,0,0,0,-1,1217,1520,0,0
0,-496,0,0,0,0,0,0,0,0,0,-1,1224,1520,0,0
7,-496,0,0,0,0,0,0,0,0,0,-1,1231,1520,0,0
14,-496,0,0,0,0,0,0,0,0,0,-1,1238,1520,0,0
21,-496,0,0,0,0,0,0,0,0,0,-1,1245,1520,0,0
28,-496,0,0,0,0,0,0,0,0,0,-1,1252,1520,0,0
35,-496,0,0,0,0,0,0,0,0,0,-1,1259,1520,0,0
42,-496,0,0,0,0,0,0,0,0,0,-1,1266,1520,0,0
49,-496,0,0,0,0,0,0,0,0,0,-1,1273,1520,0,0
56,-496,0,0,0,0,0,0,0,0,0,-1,1280,1520,0,0
63,-496,0,0,0,0,0,0,0,0,0,-1,1287,1520,0,0
70,-496,0,0,0,0,0,0,0,0,0,-1,1294,1520,0,0
77,-496,0,0,0,0,0,0,0,0,0,-1,1301,1520,0,0
84,-496,0,0,0,0,0,0,0,0,0,-1,1308,1520,0,0
91,-496,0,0,0,0,0,0,0,0,0,-1,1315,1520,0,0
98,-496,0,0,0,0,0,0,0,0,0,-1,1322,1520,0,0
105,-496,0,0,0,0,0,0,0,0,0,-1,1329,1520,0,0
112,-496,0,0,0,0,0,0,0,0,0,-1,1336,1520,0,0
119,-496,0,0,0,0,0,0,0,0,0,-1,1343,1520,0,0
126,-496,0,0,0,0,0,0,0,0,0,-1,1350,1520,0,0
133,-496,0,0,0,0,0,0,0,0,0,-1,1357,1520,0,0
140,-496,0,0,0,0,0,0,0,0,0,-1,1364,1520,0,0
147,-496,0,0,0,0,0,0,0,0,0,-1,1371,1520,0,0
154,-496,0,0,0,0,0,0,0,0,0,-1,1378,1520,0,0
161,-496,0,0,0,0,0,0,0,0,0,-1,1385,1520,0,0
168,-496,0,0,0,0,0,0,0,0,0,-1,1392,1520,0,0
175,-496,0,0,0,0,0,0,0,0,0,-1,1399,1520,0,0
182,-496,0,0,0,0,0,0,0,0,0,-1,1406,1520,0,0
189,-496,0,0,0,0,0,0,0,0,0,-1,1413,1520,0,0
196,-496,0,0,0,0,0,0,0,0,0,-1,1420,1520,0,0
203,-496,0,0,0,0,0,0,0,0,0,-1,1427,1520,0,0
210,-496,0,0,0,0,0,0,0,0,0,-1,1434,1520,0,0
217,-496,0,0,0,0,0,0,0,0,0,-1,1441,1520,0,0
224,-496,0,0,0,0,0,0,0,0,0,-1,1448,1520,0,0
231,-496,0,0,0,0,0,0,0,0,0,-1,1455,1520,0,0
238,-496,0,0,0,0,0,0,0,0,0,-1,1462,1520,0,0
245,-496,0,0,0,0,0,0,0,0,0,-1,1469,1520,0,0
252,-496,0,0,0,0,0,0,0,0,0,-1,1476,1520,0,0
259,-496,0,0,0,0,0,0,0,0,0,-1,1483,1520,0,0
266,-496,0,0,0,0,0,0,0,0,0,-1,1490,1520,0,0
273,-496,0,0,0,0,0,0,0,0,0,-1,1497,1520,0,0
280,-496,0,0,0,0,0,0,0,0,0,-1,1504,1520,0,0
287,-496,0,0,0,0,0,0,0,0,0,-1,1511,1520,0,0
294,-496,0,0,0,0,0,0,0,0,0,-1,1518,1520,0,0
301,-496,0,0,0,0,0,0,0,0,0,-1,1525,1520,0,0
308,-496,0,0,0,0,0,0,0,0,0,-1,1532,1520,0,0
315,-496,0,0,0,0,0,0,0,0,0,-1,1539,1520,0,0
322,-496,0,0,0,0,0,0,0,0,0,-1,1546,1520,0,0
329,-496,0,0,0,0,0,0,0,0,0,-1,1553,1520,0,0
336,-496,0,0,0,0,0,0,0,0,0,-1,1560,1520,0,0
343,-496,0,0,0,0,0,0,0,0,0,-1,1567,1520,0,0
350,-496,0,0,0,0,0,0,0,0,0,-1,1574,1520,0,0
357,-496,0,0,0,0,0,0,0,0,0,-1,1581,1520,0,0
364,-496,0,0,0,0,0,0,0,0,0,-1,1588,1520,0,0
371,-496,0,0,0,0,0,0,0,0,0,-1,1595,1520,0,0
378,-496,0,0,0,0,0,0,0,0,0,-1,1602,1520,0,0
385,-496,0,0,0,0,0,0,0,0,0,-1,1609,1520,0,0
392,-496,0,0,0,0,0,0,0,0,0,-1,1616,1520,0,0
399,-496,0,0,0,0,0,0,0,0,0,-1,1623,1520,0,0
406,-496,0,0,0,0,0,0,0,0,0,-1,1630,1520,0,0
413,-496,0,0,0,0,0,0,0,0,0,-1,1637,1520,0,0
420,-496,0,0,0,0,0,0,0,0,0,-1,1644,1520,0,0
427,-496,0,0,0,0,0,0,0,0,0,-1,1651,1520,0,0
434,-496,11.0457,3.37732,0,0,0,0,0,0,0,-1,1658,1520,11.0456,-3.37736
441,-496,11.788,2.75488,0,0,0,0,0,0,0,-1,1665,1520,11.7879,-2.75485
448,-496,12.2146,2.18494,0,0,0,0,0,0,0,-1,1672,1520,12.2146,-2.18489
455,-496,12.3489,1.65173,0,0,0,0,0,0,0,-1,1679,1520,12.3489,-1.65178
462,-496,12.1912,1.32361,0,0,0,0,0,0,0,-1,1686,1520,12.1911,-1.32357
469,-496,14.8138,5.77954,0,0,0,0,0,0,0,-1,1693,1520,14.8138,-5.77958
476,-496,15.2449,6.27942,0,0,0,0,0,0,0,-1,1700,1520,15.2449,-6.27936
483,-496,9.19812,6.88367,0,0,0,0,0,0,0,-1,1707,1520,9.19812,-6.88361
490,-496,10.2123,7.97144,0,0,0,0,0,0,0,-1,1714,1520,10.2122,-7.97145
497,-496,13.9297,12.2981,0,0,0,0,0,0,0,-1,1721,1520,13.9297,-12.2982
504,-496,16.3271,16.6501,0,0,0,0,0,0,0,-1,1728,1520,16.3272,-16.6502
511,-496,17.6753,18.0685,0,0,0,0,0,0,0,-1,1735,1520,17.6753,-18.0685
518,-496,17.0537,17.3118,0,0,0,0,0,0,0,-1,1742,1520,17.0538,-17.3118
525,-496,18.2721,19.3259,0,0,0,0,0,0,0,-1,1749,1520,18.2721,-19.3259
532,-496,25.9341,28.8696,0,0,0,0,0,0,0,-1,1756,1520,25.9341,-28.8696
539,-496,25.6635,28.8064,0,0,0,0,0,0,0,-1,1763,1520,25.6635,-28.8064
546,-496,25.7391,28.0271,0.00716844,0.00557535,-0.00436658,0.0108105,0.00193325,-0.695181,0.00665685,0.0212461,1770,1520,25.7391,-28.0271
553,-496,25.8306,27.2463,0.00574567,0.00410265,-0.00320861,0.00823627,0.00161205,-0.660074,0.00504017,0.0151228,1777,1520,25.8306,-27.2464
560,-496,25.8383,26.6117,0.0045925,0.00286377,-0.00231354,0.00619787,0.0012584,-0.606623,0.00378287,0.0150527,1784,1520,25.8382,-26.6117
567,-496,25.8312,25.939,0.00374769,0.00197416,-0.00176671,0.0048377,0.000884153,-0.552803,0.00297454,0.012926,1791,1520,25.8312,-25.939
574,-496,25.7891,25.269,0.00316363,0.00135955,-0.00147607,0.00399146,0.000531723,-0.511123,0.00250263,0.0133855,1798,1520,25.789,-25.2691
581,-496,25.7478,24.6261,0.00271664,0.000879518,-0.00128226,0.0033754,0.000220761,-0.474586,0.00218041,0.013847,1805,1520,25.7478,-24.6261
588,-496,25.749,23.955,0.00252173,0.000596684,-0.00127931,0.00316017,-4.17538e-05,-0.462887,0.00212083,0.0159367,1812,1520,25.749,-23.9549
595,-496,25.7073,23.2966,0.0026095,0.000455206,-0.00136116,0.00326816,-0.000203448,-0.450678,0.00224966,0.0172863,1819,1520,25.7072,-23.2966
602,-496,25.6508,22.6417,0.00281866,0.000515259,-0.00157945,0.00362172,-0.000287801,-0.470378,0.00251591,0.0180485,1826,1520,25.6508,-22.6417
609,-496,25.6478,21.9104,0.00316569,0.000647705,-0.00182654,0.0041251,-0.000311706,-0.483652,0.00285964,0.0183031,1833,1520,25.6479,-21.9103
616,-496,25.7532,21.0828,0.00401206,0.000711606,-0.00203016,0.00497809,-0.000254425,-0.444133,0.00340671,0.0466211,1840,1520,25.7532,-21.0828
623,-496,25.5724,20.0443,0,0,0,0,0,0,0,-1,1847,1520,25.5724,-20.0443
630,-496,18.5656,13.8966,0,0,0,0,0,0,0,-1,1854,1520,18.5655,-13.8967
637,-496,14.6411,10.1016,0,0,0,0,0,0,0,-1,1861,1520,14.6411,-10.1016
644,-496,12.4537,10.087,0,0,0,0,0,0,0,-1,1868,1520,12.4537,-10.0871
651,-496,8.18506,5.47803,0,0,0,0,0,0,0,-1,1875,1520,8.18505,-5.47806
658,-496,7.79993,4.02563,0,0,0,0,0,0,0,-1,1882,1520,7.79997,-4.02568
665,-496,5.47583,7.90625,0,0,0,0,0,0,0,-1,1889,1520,5.47581,-7.90628
672,-496,0,0,0,0,0,0,0,0,0,-1,1896,1520,0,0
679,-496,0,0,0,0,0,0,0,0,0,-1,1903,1520,0,0
686,-496,0,0,0,0,0,0,0,0,0,-1,1910,1520,0,0
693,-496,0,0,0,0,0,0,0,0,0,-1,1917,1520,0,0
700,-496,0,0,0,0,0,0,0,0,0,-1,1924,1520,0,0
707,-496,0,0,0,0,0,0,0,0,0,-1,1931,1520,0,0
714,-496,0,0,0,0,0,0,0,0,0,-1,1938,1520,0,0
721,-496,0,0,0,0,0,0,0,0,0,-1,1945,1520,0,0
728,-496,0,0,0,0,0,0,0,0,0,-1,1952,1520,0,0
735,-496,0,0,0,0,0,0,0,0,0,-1,1959,1520,0,0
742,-496,0,0,0,0,0,0,0,0,0,-1,1966,1520,0,0
749,-496,0,0,0,0,0,0,0,0,0,-1,1973,1520,0,0
756,-496,0,0,0,0,0,0,0,0,0,-1,1980,1520,0,0
763,-496,0,0,0,0,0,0,0,0,0,-1,1987,1520,0,0
770,-496,0,0,0,0,0,0,0,0,0,-1,1994,1520,0,0
777,-496,0,0,0,0,0,0,0,0,0,-1,2001,1520,0,0
784,-496,0,0,0,0,0,0,0,0,0,-1,2008,1520,0,0
791,-496,0,0,0,0,0,0,0,0,0,-1,2015,1520,0,0
798,-496,0,0,0,0,0,0,0,0,0,-1,2022,1520,0,0
805,-496,0,0,0,0,0,0,0,0,0,-1,2029,1520,0,0
812,-496,0,0,0,0,0,0,0,0,0,-1,2036,1520,0,0
-700,-503,0,0,0,0,0,0,0,0,0,-1,524,1527,0,0
-693,-503,0,0,0,0,0,0,0,0,0,-1,531,1527,0,0
-686,-503,0,0,0,0,0,0,0,0,0,-1,538,1527,0,0
-679,-503,0,0,0,0,0,0,0,0,0,-1,545,1527,0,0
-672,-503,0,0,0,0,0,0,0,0,0,-1,552,1527,0,0
-665,-503,0,0,0,0,0,0,0,0,0,-1,559,1527,0,0
-658,-503,0,0,0,0,0,0,0,0,0,-1,566,1527,0,0
-651,-503,0,0,0,0,0,0,0,0,0,-1,573,1527,0,0
-644,-503,0,0,0,0,0,0,0,0,0,-1,580,1527,0,0
-637,-503,0,0,0,0,0,0,0,0,0,-1,587,1527,0,0
-630,-503,0,0,0,0,0,0,0,0,0,-1,594,1527,0,0
-623,-503,0,0,0,0,0,0,0,0,0,-1,601,1527,0,0
-616,-503,0,0,0,0,0,0,0,0,0,-1,608,1527,0,0
-609,-503,0,0,0,0,0,0,0,0,0,-1,615,1527,0,0
-602,-503,0,0,0,0,0,0,0,0,0,-1,622,1527,0,0
-595,-503,0,0,0,0,0,0,0,0,0,-1,629,1527,0,0
-588,-503,0,0,0,0,0,0,0,0,0,-1,636,1527,0,0
-581,-503,0,0,0,0,0,0,0,0,0,-1,643,1527,0,0
-574,-503,0,0,0,0,0,0,0,0,0,-1,650,1527,0,0
-567,-503,0,0,0,0,0,0,0,0,0,-1,657,1527,0,0
-560,-503,0,0,0,0,0,0,0,0,0,-1,664,1527,0,0
-553,-503,0,0,0,0,0,0,0,0,0,-1,671,1527,0,0
-546,-503,0,0,0,0,0,0,0,0,0,-1,678,1527,0,0
-539,-503,3.50177,4.26428,0,0,0,0,0,0,0,-1,685,1527,3.50177,-4.26424
-532,-503,-3.13196,1.05298,0,0,0,0,0,0,0,-1,692,1527,-3.13194,-1.05299
-525,-503,-2.94293,2.59314,0,0,0,0,0,0,0,-1,699,1527,-2.94296,-2.59314
-518,-503,-2.7395,4.05872,0,0,0,0,0,0,0,-1,706,1527,-2.73948,-4.05871
-511,-503,-1.60022,7.23877,0,0,0,0,0,0,0,-1,713,1527,-1.60023,-7.23872
-504,-503,-8.1402,10.1541,0,0,0,0,0,0,0,-1,720,1527,-8.14017,-10.1541
-497,-503,-4.51758,14.0781,0,0,0,0,0,0,0,-1,727,1527,-4.5176,-14.0782
-490,-503,-4.24194,16.1982,0,0,0,0,0,0,0,-1,734,1527,-4.24196,-16.1982
-483,-503,-7.77515,20.4366,0,0,0,0,0,0,0,-1,741,1527,-7.77517,-20.4367
-476,-503,-7.64697,21.1543,0.012127,-0.00301528,0.00558707,0.0139653,-0.00485357,0.31787,0.0112816,0.0386034,748,1527,-7.647,-21.1543
-469,-503,-7.76776,21.7355,0.0106007,-0.00240197,0.00447192,0.0119902,-0.00379148,0.301261,0.0095126,0.0144378,755,1527,-7.76775,-21.7355
-462,-503,-7.79901,22.4597,0.00890533,-0.00161285,0.00353101,0.00998075,-0.00268827,0.29564,0.0077078,0.0117981,762,1527,-7.79899,-22.4597
-455,-503,-7.81653,23.1919,0.00717966,-0.000800442,0.00278938,0.00805799,-0.00167877,0.305055,0.00601025,0.0179487,769,1527,-7.81652,-23.1919
-448,-503,-7.83508,23.9054,0.00557843,6.2908e-05,0.00228432,0.00640165,-0.000760306,0.345888,0.00454246,0.0168334,776,1527,-7.83507,-23.9054
-441,-503,-7.83093,24.5487,0.00421278,0.000977434,0.00204929,0.00520594,-1.57277e-05,0.451282,0.00347588,0.0132043,783,1527,-7.83094,-24.5486
-434,-503,-7.8902,25.233,0.00326249,0.00227665,0.00223561,0.00505887,0.000480271,0.676892,0.00322444,0.0119132,790,1527,-7.89019,-25.233
-427,-503,-7.99304,25.9159,0.00266238,0.00353639,0.00261717,0.00575279,0.000445978,0.868123,0.00369551,0.0183313,797,1527,-7.99303,-25.9159
-420,-503,-7.95819,26.6071,0.00245934,0.00499283,0.00328721,0.00724892,0.000203245,0.969308,0.00476631,0.0186482,804,1527,-7.95819,-26.607
-413,-503,-7.97968,27.3368,0.00312681,0.00639412,0.00471233,0.00974794,-0.000227013,0.952254,0.0065756,0.0168843,811,1527,-7.97966,-27.3368
-406,-503,-8.00513,28.0474,0.00542789,0.00918508,0.00675021,0.0143132,0.000299747,0.921115,0.00944382,0.026347,818,1527,-8.00513,-28.0473
-399,-503,-7.87366,28.9702,0.00821431,0.0119628,0.00878925,0.0190754,0.00110169,0.890446,0.0123661,0.0439908,825,1527,-7.87367,-28.9703
-392,-503,-7.5246,30.1432,0,0,0,0,0,0,0,-1,832,1527,-7.52457,-30.1432
-385,-503,-2.00403,14.1218,0,0,0,0,0,0,0,-1,839,1527,-2.00403,-14.1218
-378,-503,-2.07043,13.8632,0,0,0,0,0,0,0,-1,846,1527,-2.07043,-13.8631
-371,-503,-1.67285,13.8081,0,0,0,0,0,0,0,-1,853,1527,-1.67285,-13.8081
-364,-503,0.181396,12.3768,0,0,0,0,0,0,0,-1,860,1527,0.18138,-12.3768
-357,-503,0.558533,9.25452,0,0,0,0,0,0,0,-1,867,1527,0.558542,-9.25446
-350,-503,0.219971,6.84827,0,0,0,0,0,0,0,-1,874,1527,0.21996,-6.84831
-343,-503,-3.5802,4.43274,0,0,0,0,0,0,0,-1,881,1527,-3.58018,-4.43276
-336,-503,-3.2384,6.40637,0,0,0,0,0,0,0,-1,888,1527,-3.2384,-6.40643
-329,-503,-1.70691,11.886,0,0,0,0,0,0,0,-1,895,1527,-1.70689,-11.886
-322,-503,-3.31317,8.81519,0,0,0,0,0,0,0,-1,902,1527,-3.31315,-8.81524
-315,-503,-3.90265,7.73853,0,0,0,0,0,0,0,-1,909,1527,-3.90264,-7.73854
-308,-503,-1.70264,7.35413,0,0,0,0,0,0,0,-1,916,1527,-1.70262,-7.35416
-301,-503,0,0,0,0,0,0,0,0,0,-1,923,1527,0,0
-294,-503,0,0,0,0,0,0,0,0,0,-1,930,1527,0,0
-287,-503,0,0,0,0,0,0,0,0,0,-1,937,1527,0,0
-280,-503,0,0,0,0,0,0,0,0,0,-1,944,1527,0,0
-273,-503,0,0,0,0,0,0,0,0,0,-1,951,1527,0,0
-266,-503,0,0,0,0,0,0,0,0,0,-1,958,1527,0,0
-259,-503,0,0,0,0,0,0,0,0,0,-1,965,1527,0,0
-252,-503,0,0,0,0,0,0,0,0,0,-1,972,1527,0,0
-245,-503,0,0,0,0,0,0,0,0,0,-1,979,1527,0,0
-238,-503,0,0,0,0,0,0,0,0,0,-1,986,1527,0,0
-231,-503,0,0,0,0,0,0,0,0,0,-1,993,1527,0,0
-224,-503,0,0,0,0,0,0,0,0,0,-1,1000,1527,0,0
-217,-503,0,0,0,0,0,0,0,0,0,-1,1007,1527,0,0
-210,-503,0,0,0,0,0,0,0,0,0,-1,1014,1527,0,0
-203,-503,0,0,0,0,0,0,0,0,0,-1,1021,1527,0,0
-196,-503,0,0,0,0,0,0,0,0,0,-1,1028,1527,0,0
-189,-503,0,0,0,0,0,0,0,0,0,-1,1035,1527,0,0
-182,-503,0,0,0,0,0,0,0,0,0,-1,1042,1527,0,0
-175,-503,0,0,0,0,0,0,0,0,0,-1,1049,1527,0,0
-168,-503,0,0,0,0,0,0,0,0,0,-1,1056,1527,0,0
-161,-503,0,0,0,0,0,0,0,0,0,-1,1063,1527,0,0
-154,-503,0,0,0,0,0,0,0,0,0,-1,1070,1527,0,0
-147,-503,0,0,0,0,0,0,0,0,0,-1,1077,1527,0,0
-140,-503,0,0,0,0,0,0,0,0,0,-1,1084,1527,0,0
-133,-503,0,0,0,0,0,0,0,0,0,-1,1091,1527,0,0
-126,-503,0,0,0,0,0,0,0,0,0,-1,1098,1527,0,0
-119,-503,0,0,0,0,0,0,0,0,0,-1,1105,1527,0,0
-112,-503,0,0,0,0,0,0,0,0,0,-1,1112,1527,0,0
-105,-503,0,0,0,0,0,0,0,0,0,-1,1119,1527,0,0
-98,-503,0,0,0,0,0,0,0,0,0,-1,1126,1527,0,0
-91,-503,0,0,0,0,0,0,0,0,0,-1,1133,1527,0,0
-84,-503,0,0,0,0,0,0,0,0,0,-1,1140,1527,0,0
-77,-503,0,0,0,0,0,0,0,0,0,-1,1147,1527,0,0
-70,-503,0,0,0,0,0,0,0,0,0,-1,1154,1527,0,0
-63,-503,0,0,0,0,0,0,0,0,0,-1,1161,1527,0,0
-56,-503,0,0,0,0,0,0,0,0,0,-1,1168,1527,0,0
-49,-503,0,0,0,0,0,0,0,0,0,-1,1175,1527,0,0
-42,-503,0,0,0,0,0,0,0,0,0,-1,1182,1527,0,0
-35,-503,0,0,0,0,0,0,0,0,0,-1,1189,1527,0,0
-28,-503,0,0,0,0,0,0,0,0,0,-1,1196,1527,0,0
-21,-503,0,0,0,0,0,0,0,0,0,-1,1203,1527,0,0
-14,-503,0,0,0,0,0,0,0,0,0,-1,1210,1527,0,0
-7,-503,0,0,0,0,0,0,0,0,0,-1,1217,1527,0,0
0,-503,0,0,0,0,0,0,0,0,0,-1,1224,1527,0,0
7,-503,0,0,0,0,0,0,0,0,0,-1,1231,1527,0,0
14,-503,0,0,0,0,0,0,0,0,0,-1,1238,1527,0,0
21,-503,0,0,0,0,0,0,0,0,0,-1,1245,1527,0,0
28,-503,0,0,0,0,0,0,0,0,0,-1,1252,1527,0,0
35,-503,0,0,0,0,0,0,0,0,0,-1,1259,1527,0,0
42,-503,0,0,0,0,0,0,0,0,0,-1,1266,1527,0,0
49,-503,0,0,0,0,0,0,0,0,0,-1,1273,1527,0,0
56,-503,0,0,0,0,0,0,0,0,0,-1,1280,1527,0,0
63,-503,0,0,0,0,0,0,0,0,0,-1,1287,1527,0,0
70,-503,0,0,0,0,0,0,0,0,0,-1,1294,1527,0,0
77,-503,0,0,0,0,0,0,0,0,0,-1,1301,1527,0,0
84,-503,0,0,0,0,0,0,0,0,0,-1,1308,1527,0,0
91,-503,0,0,0,0,0,0,0,0,0,-1,1315,1527,0,0
98,-503,0,0,0,0,0,0,0,0,0,-1,1322,1527,0,0
105,-503,0,0,0,0,0,0,0,0,0,-1,1329,1527,0,0
112,-503,0,0,0,0,0,0,0,0,0,-1,1336,1527,0,0
119,-503,0,0,0,0,0,0,0,0,0,-1,1343,1527,0,0
126,-503,0,0,0,0,0,0,0,0,0,-1,1350,1527,0,0
133,-503,0,0,0,0,0,0,0,0,0,-1,1357,1527,0,0
140,-503,0,0,0,0,0,0,0,0,0,-1,1364,1527,0,0
147,-503,0,0,0,0,0,0,0,0,0,-1,1371,1527,0,0
154,-503,0,0,0,0,0,0,0,0,0,-1,1378,1527,0,0
161,-503,0,0,0,0,0,0,0,0,0,-1,1385,1527,0,0
168,-503,0,0,0,0,0,0,0,0,0,-1,1392,1527,0,0
175,-503,0,0,0,0,0,0,0,0,0,-1,1399,1527,0,0
182,-503,0,0,0,0,0,0,0,0,0,-1,1406,1527,0,0
189,-503,0,0,0,0,0,0,0,0,0,-1,1413,1527,0,0
196,-503,0,0,0,0,0,0,0,0,0,-1,1420,1527,0,0
203,-503,0,0,0,0,0,0,0,0,0,-1,1427,1527,0,0
210,-503,0,0,0,0,0,0,0,0,0,-1,1434,1527,0,0
217,-503,0,0,0,0,0,0,0,0,0,-1,1441,1527,0,0
224,-503,0,0,0,0,0,0,0,0,0,-1,1448,1527,0,0
231,-503,0,0,0,0,0,0,0,0,0,-1,1455,1527,0,0
238,-503,0,0,0,0,0,0,0,0,0,-1,1462,1527,0,0
245,-503,0,0,0,0,0,0,0,0,0,-1,1469,1527,0,0
252,-503,0,0,0,0,0,0,0,0,0,-1,1476,1527,0,0
259,-503,0,0,0,0,0,0,0,0,0,-1,1483,1527,0,0
266,-503,0,0,0,0,0,0,0,0,0,-1,1490,1527,0,0
273,-503,0,0,0,0,0,0,0,0,0,-1,1497,1527,0,0
280,-503,0,0,0,0,0,0,0,0,0,-1,1504,1527,0,0
287,-503,0,0,0,0,0,0,0,0,0,-1,1511,1527,0,0
294,-503,0,0,0,0,0,0,0,0,0,-1,1518,1527,0,0
301,-503,0,0,0,0,0,0,0,0,0,-1,1525,1527,0,0
308,-503,0,0,0,0,0,0,0,0,0,-1,1532,1527,0,0
315,-503,0,0,0,0,0,0,0,0,0,-1,1539,1527,0,0
322,-503,0,0,0,0,0,0,0,0,0,-1,1546,1527,0,0
329,-503,0,0,0,0,0,0,0,0,0,-1,1553,1527,0,0
336,-503,0,0,0,0,0,0,0,0,0,-1,1560,1527,0,0
343,-503,0,0,0,0,0,0,0,0,0,-1,1567,1527,0,0
350,-503,0,0,0,0,0,0,0,0,0,-1,1574,1527,0,0
357,-503,0,0,0,0,0,0,0,0,0,-1,1581,1527,0,0
364,-503,0,0,0,0,0,0,0,0,0,-1,1588,1527,0,0
371,-503,0,0,0,0,0,0,0,0,0,-1,1595,1527,0,0
378,-503,0,0,0,0,0,0,0,0,0,-1,1602,1527,0,0
385,-503,0,0,0,0,0,0,0,0,0,-1,1609,1527,0,0
392,-503,0,0,0,0,0,0,0,0,0,-1,1616,1527,0,0
399,-503,0,0,0,0,0,0,0,0,0,-1,1623,1527,0,0
406,-503,0,0,0,0,0,0,0,0,0,-1,1630,1527,0,0
413,-503,0,0,0,0,0,0,0,0,0,-1,1637,1527,0,0
420,-503,0,0,0,0,0,0,0,0,0,-1,1644,1527,0,0
427,-503,10.5968,4.9856,0,0,0,0,0,0,0,-1,1651,1527,10.5969,-4.98563
434,-503,11.4329,3.97217,0,0,0,0,0,0,0,-1,1658,1527,11.4328,-3.97222
441,-503,12.0957,2.96509,0,0,0,0,0,0,0,-1,1665,1527,12.0957,-2.96512
448,-503,12.3259,2.53894,0,0,0,0,0,0,0,-1,1672,1527,12.326,-2.53895
455,-503,12.1669,2.18762,0,0,0,0,0,0,0,-1,1679,1527,12.1668,-2.18767
462,-503,11.59,2.60791,0,0,0,0,0,0,0,-1,1686,1527,11.5899,-2.60794
469,-503,11.1625,1.61853,0,0,0,0,0,0,0,-1,1693,1527,11.1625,-1.61856
476,-503,9.07703,5.81042,0,0,0,0,0,0,0,-1,1700,1527,9.07699,-5.81047
483,-503,9.74414,6.92432,0,0,0,0,0,0,0,-1,1707,1527,9.74417,-6.9243
490,-503,10.5033,10.1071,0,0,0,0,0,0,0,-1,1714,1527,10.5032,-10.107
497,-503,15.0057,17.9476,0,0,0,0,0,0,0,-1,1721,1527,15.0058,-17.9476
504,-503,16.4764,18.4486,0,0,0,0,0,0,0,-1,1728,1527,16.4764,-18.4486
511,-503,16.8276,18.3271,0,0,0,0,0,0,0,-1,1735,1527,16.8276,-18.3272
518,-503,17.2533,18.2738,0,0,0,0,0,0,0,-1,1742,1527,17.2533,-18.2738
525,-503,21.2887,26.5785,0,0,0,0,0,0,0,-1,1749,1527,21.2887,-26.5785
532,-503,25.1187,29.458,0,0,0,0,0,0,0,-1,1756,1527,25.1186,-29.4581
539,-503,25.1376,28.7434,0.00743558,0.00624107,-0.00503733,0.0119109,0.00176571,-0.726391,0.00742239,0.02981,1763,1527,25.1375,-28.7434
546,-503,25.1755,27.9641,0.0058836,0.00475604,-0.00374739,0.00910938,0.00153026,-0.710735,0.00563255,0.0133218,1770,1527,25.1756,-27.9642
553,-503,25.1718,27.3076,0.00473243,0.00344115,-0.00271174,0.00687434,0.00129925,-0.668528,0.00421706,0.0143024,1777,1527,25.1717,-27.3077
560,-503,25.1442,26.6558,0.00383478,0.00229631,-0.00190593,0.00512085,0.00101024,-0.593595,0.00313194,0.0148502,1784,1527,25.1442,-26.6558
567,-503,25.1451,25.9764,0.00323499,0.0015147,-0.00146249,0.00407153,0.000678162,-0.519574,0.00251891,0.0136795,1791,1527,25.1452,-25.9765
574,-503,25.1256,25.3064,0.00284938,0.000966699,-0.00124164,0.00346618,0.000349902,-0.461052,0.00220343,0.013906,1798,1527,25.1257,-25.3064
581,-503,25.0677,24.6619,0.00260937,0.000556339,-0.00113549,0.00311357,5.2143e-05,-0.41788,0.00205855,0.0146562,1805,1527,25.0678,-24.6618
588,-503,25.0415,24.0118,0.00261563,0.000374342,-0.00125005,0.00317381,-0.000183847,-0.419966,0.00217974,0.0182865,1812,1527,25.0414,-24.0118
595,-503,25.01,23.3101,0.00288927,0.000380748,-0.00148367,0.0035778,-0.000307787,-0.434497,0.00249414,0.0144504,1819,1527,25.0099,-23.31
602,-503,25.0328,22.5819,0.00330927,0.000653109,-0.00189541,0.00429558,-0.000333195,-0.479806,0.002981,0.0244896,1826,1527,25.0328,-22.582
609,-503,25.0629,21.7422,0,0,0,0,0,0,0,-1,1833,1527,25.0629,-21.7422
616,-503,25.228,21.1702,0,0,0,0,0,0,0,-1,1840,1527,25.228,-21.1702
623,-503,18.7351,15.5999,0,0,0,0,0,0,0,-1,1847,1527,18.7351,-15.5999
630,-503,20.6721,13.9077,0,0,0,0,0,0,0,-1,1854,1527,20.6721,-13.9077
637,-503,14.5564,9.20496,0,0,0,0,0,0,0,-1,1861,1527,14.5564,-9.2049
644,-503,11.4802,7.57214,0,0,0,0,0,0,0,-1,1868,1527,11.4802,-7.57215
651,-503,11.5718,6.5448,0,0,0,0,0,0,0,-1,1875,1527,11.5718,-6.54476
658,-503,8.25635,3.10498,0,0,0,0,0,0,0,-1,1882,1527,8.2563,-3.10493
665,-503,0,0,0,0,0,0,0,0,0,-1,1889,1527,0,0
672,-503,0,0,0,0,0,0,0,0,0,-1,1896,1527,0,0
679,-503,0,0,0,0,0,0,0,0,0,-1,1903,1527,0,0
686,-503,0,0,0,0,0,0,0,0,0,-1,1910,1527,0,0
693,-503,0,0,0,0,0,0,0,0,0,-1,1917,1527,0,0
700,-503,0,0,0,0,0,0,0,0,0,-1,1924,1527,0,0
707,-503,0,0,0,0,0,0,0,0,0,-1,1931,1527,0,0
714,-503,0,0,0,0,0,0,0,0,0,-1,1938,1527,0,0
721,-503,0,0,0,0,0,0,0,0,0,-1,1945,1527,0,0
728,-503,0,0,0,0,0,0,0,0,0,-1,1952,1527,0,0
735,-503,0,0,0,0,0,0,0,0,0,-1,1959,1527,0,0
742,-503,0,0,0,0,0,0,0,0,0,-1,1966,1527,0,0
749,-503,0,0,0,0,0,0,0,0,0,-1,1973,1527,0,0
756,-503,0,0,0,0,0,0,0,0,0,-1,1980,1527,0,0
763,-503,0,0,0,0,0,0,0,0,0,-1,1987,1527,0,0
770,-503,0,0,0,0,0,0,0,0,0,-1,1994,1527,0,0
777,-503,0,0,0,0,0,0,0,0,0,-1,2001,1527,0,0
784,-503,0,0,0,0,0,0,0,0,0,-1,2008,1527,0,0
791,-503,0,0,0,0,0,0,0,0,0,-1,2015,1527,0,0
798,-503,0,0,0,0,0,0,0,0,0,-1,2022,1527,0,0
805,-503,0,0,0,0,0,0,0,0,0,-1,2029,1527,0,0
812,-503,0,0,0,0,0,0,0,0,0,-1,2036,1527,0,0
-700,-510,0,0,0,0,0,0,0,0,0,-1,524,1534,0,0
-693,-510,0,0,0,0,0,0,0,0,0,-1,531,1534,0,0
-686,-510,0,0,0,0,0,0,0,0,0,-1,538,1534,0,0
-679,-510,0,0,0,0,0,0,0,0,0,-1,545,1534,0,0
-672,-510,0,0,0,0,0,0,0,0,0,-1,552,1534,0,0
-665,-510,0,0,0,0,0,0,0,0,0,-1,559,1534,0,0
-658,-510,0,0,0,0,0,0,0,0,0,-1,566,1534,0,0
-651,-510,0,0,0,0,0,0,0,0,0,-1,573,1534,0,0
-644,-510,0,0,0,0,0,0,0,0,0,-1,580,1534,0,0
-637,-510,0,0,0,0,0,0,0,0,0,-1,587,1534,0,0
-630,-510,0,0,0,0,0,0,0,0,0,-1,594,1534,0,0
-623,-510,0,0,0,0,0,0,0,0,0,-1,601,1534,0,0
-616,-510,0,0,0,0,0,0,0,0,0,-1,608,1534,0,0
-609,-510,0,0,0,0,0,0,0,0,0,-1,615,1534,0,0
-602,-510,0,0,0,0,0,0,0,0,0,-1,622,1534,0,0
-595,-510,0,0,0,0,0,0,0,0,0,-1,629,1534,0,0
-588,-510,0,0,0,0,0,0,0,0,0,-1,636,1534,0,0
-581,-510,0,0,0,0,0,0,0,0,0,-1,643,1534,0,0
-574,-510,0,0,0,0,0,0,0,0,0,-1,650,1534,0,0
-567,-510,0,0,0,0,0,0,0,0,0,-1,657,1534,0,0
-560,-510,0,0,0,0,0,0,0,0,0,-1,664,1534,0,0
-553,-510,0,0,0,0,0,0,0,0,0,-1,671,1534,0,0
-546,-510,0,0,0,0,0,0,0,0,0,-1,678,1534,0,0
-539,-510,0,0,0,0,0,0,0,0,0,-1,685,1534,0,0
-532,-510,-3.95129,4.52014,0,0,0,0,0,0,0,-1,692,1534,-3.95131,-4.5202
-525,-510,-2.77411,0.316772,0,0,0,0,0,0,0,-1,699,1534,-2.77409,-0.3168
-518,-510,-2.86847,2.71423,0,0,0,0,0,0,0,-1,706,1534,-2.86849,-2.71424
-511,-510,-2.28571,4.48083,0,0,0,0,0,0,0,-1,713,1534,-2.28571,-4.48086
-504,-510,-4.86731,10.8224,0,0,0,0,0,0,0,-1,720,1534,-4.8673,-10.8224
-497,-510,-3.42352,15.5178,0,0,0,0,0,0,0,-1,727,1534,-3.42352,-15.5178
-490,-510,-5.9472,18.5184,0,0,0,0,0,0,0,-1,734,1534,-5.94718,-18.5185
-483,-510,-6.51569,20.0287,0,0,0,0,0,0,0,-1,741,1534,-6.51569,-20.0287
-476,-510,-6.67615,21.0018,0.0185134,-0.00300202,0.0083006,0.0213435,-0.0058321,0.328589,0.0165198,0.0489793,748,1534,-6.67614,-21.0018
-469,-510,-7.04626,21.7916,0.0159827,-0.00235198,0.00660356,0.0181134,-0.00448274,0.312122,0.0138145,0.019218,755,1534,-7.04625,-21.7917
-462,-510,-7.08331,22.4701,0.0132653,-0.00160189,0.00512719,0.014862,-0.0031986,0.3019,0.0111285,0.0115693,762,1534,-7.0833,-22.4702
-455,-510,-7.1181,23.2042,0.0105805,-0.000883105,0.00391969,0.0117926,-0.00209519,0.299902,0.00864516,0.0145625,769,1534,-7.11809,-23.2043
-448,-510,-7.13141,23.9058,0.00809374,-0.000196147,0.00298548,0.00905699,-0.0011594,0.3121,0.00645923,0.0134954,776,1534,-7.13143,-23.9057
-441,-510,-7.14368,24.583,0.00597967,0.000529351,0.00238524,0.00687609,-0.000367069,0.35949,0.00471119,0.0140602,783,1534,-7.14365,-24.583
-434,-510,-7.22693,25.2677,0.00439058,0.00158136,0.00223043,0.00562183,0.000350113,0.504395,0.0036368,0.0158379,790,1534,-7.22694,-25.2677
-427,-510,-7.30566,25.8861,0.00327542,0.00262212,0.00232465,0.00529626,0.00060129,0.715597,0.00334845,0.0241705,797,1534,-7.30567,-25.8862
-420,-510,-7.30603,26.5994,0.00271352,0.00375937,0.00273496,0.00602095,0.000451945,0.879858,0.00387212,0.0222362,804,1534,-7.30603,-26.5994
-413,-510,-7.31519,27.3802,0.00287104,0.00502152,0.00366269,0.00776354,0.000129029,0.92817,0.00513322,0.0119489,811,1534,-7.31521,-27.3802
-406,-510,-7.35339,28.0724,0.00437284,0.00724067,0.00517284,0.0111747,0.000438846,0.920604,0.00730788,0.0116673,818,1534,-7.3534,-28.0723
-399,-510,-7.38599,28.738,0.00648202,0.00952327,0.00676067,0.0149322,0.00107308,0.896019,0.00961709,0.0159894,825,1534,-7.386,-28.738
-392,-510,-7.27789,29.4424,0,0,0,0,0,0,0,-1,832,1534,-7.2779,-29.4424
-385,-510,-7.02948,30.8243,0,0,0,0,0,0,0,-1,839,1534,-7.0295,-30.8243
-378,-510,-1.78308,13.8044,0,0,0,0,0,0,0,-1,846,1534,-1.78309,-13.8044
-371,-510,-1.74982,13.8027,0,0,0,0,0,0,0,-1,853,1534,-1.74981,-13.8028
-364,-510,-1.3479,13.7771,0,0,0,0,0,0,0,-1,860,1534,-1.34791,-13.7771
-357,-510,-0.254395,8.89575,0,0,0,0,0,0,0,-1,867,1534,-0.254397,-8.89569
-350,-510,0.471191,6.06458,0,0,0,0,0,0,0,-1,874,1534,0.47118,-6.06453
-343,-510,-6.96869,26.3074,0,0,0,0,0,0,0,-1,881,1534,-6.9687,-26.3074
-336,-510,-5.60437,29.5996,0,0,0,0,0,0,0,-1,888,1534,-5.60435,-29.5996
-329,-510,-4.87781,20.6893,0,0,0,0,0,0,0,-1,895,1534,-4.87782,-20.6894
-322,-510,-0.251526,11.973,0,0,0,0,0,0,0,-1,902,1534,-0.251497,-11.9731
-315,-510,-1.73047,10.9796,0,0,0,0,0,0,0,-1,909,1534,-1.73049,-10.9796
-308,-510,-2.05328,9.72034,0,0,0,0,0,0,0,-1,916,1534,-2.05327,-9.72036
-301,-510,-1.85437,11.5869,0,0,0,0,0,0,0,-1,923,1534,-1.85437,-11.5869
-294,-510,0,0,0,0,0,0,0,0,0,-1,930,1534,0,0
-287,-510,0,0,0,0,0,0,0,0,0,-1,937,1534,0,0
-280,-510,0,0,0,0,0,0,0,0,0,-1,944,1534,0,0
-273,-510,0,0,0,0,0,0,0,0,0,-1,951,1534,0,0
-266,-510,0,0,0,0,0,0,0,0,0,-1,958,1534,0,0
-259,-510,0,0,0,0,0,0,0,0,0,-1,965,1534,0,0
-252,-510,0,0,0,0,0,0,0,0,0,-1,972,1534,0,0
-245,-510,0,0,0,0,0,0,0,0,0,-1,979,1534,0,0
-238,-510,0,0,0,0,0,0,0,0,0,-1,986,1534,0,0
-231,-510,0,0,0,0,0,0,0,0,0,-1,993,1534,0,0
-224,-510,0,0,0,0,0,0,0,0,0,-1,1000,1534,0,0
-217,-510,0,0,0,0,0,0,0,0,0,-1,1007,1534,0,0
-210,-510,0,0,0,0,0,0,0,0,0,-1,1014,1534,0,0
-203,-510,0,0,0,0,0,0,0,0,0,-1,1021,1534,0,0
-196,-510,0,0,0,0,0,0,0,0,0,-1,1028,1534,0,0
-189,-510,0,0,0,0,0,0,0,0,0,-1,1035,1534,0,0
-182,-510,0,0,0,0,0,0,0,0,0,-1,1042,1534,0,0
-175,-510,0,0,0,0,0,0,0,0,0,-1,1049,1534,0,0
-168,-510,0,0,0,0,0,0,0,0,0,-1,1056,1534,0,0
-161,-510,0,0,0,0,0,0,0,0,0,-1,1063,1534,0,0
-154,-510,0,0,0,0,0,0,0,0,0,-1,1070,1534,0,0
-147,-510,0,0,0,0,0,0,0,0,0,-1,1077,1534,0,0
-140,-510,0,0,0,0,0,0,0,0,0,-1,1084,1534,0,0
-133,-510,0,0,0,0,0,0,0,0,0,-1,1091,1534,0,0
-126,-510,0,0,0,0,0,0,0,0,0,-1,1098,1534,0,0
-119,-510,0,0,0,0,0,0,0,0,0,-1,1105,1534,0,0
-112,-510,0,0,0,0,0,0,0,0,0,-1,1112,1534,0,0
-105,-510,0,0,0,0,0,0,0,0,0,-1,1119,1534,0,0
-98,-510,0,0,0,0,0,0,0,0,0,-1,1126,1534,0,0
-91,-510,0,0,0,0,0,0,0,0,0,-1,1133,1534,0,0
-84,-510,0,0,0,0,0,0,0,0,0,-1,1140,1534,0,0
-77,-510,0,0,0,0,0,0,0,0,0,-1,1147,1534,0,0
-70,-510,0,0,0,0,0,0,0,0,0,-1,1154,1534,0,0
-63,-510,0,0,0,0,0,0,0,0,0,-1,1161,1534,0,0
-56,-510,0,0,0,0,0,0,0,0,0,-1,1168,1534,0,0
-49,-510,0,0,0,0,0,0,0,0,0,-1,1175,1534,0,0
-42,-510,0,0,0,0,0,0,0,0,0,-1,1182,1534,0,0
-35,-510,0,0,0,0,0,0,0,0,0,-1,1189,1534,0,0
-28,-510,0,0,0,0,0,0,0,0,0,-1,1196,1534,0,0
-21,-510,0,0,0,0,0,0,0,0,0,-1,1203,1534,0,0
-14,-510,0,0,0,0,0,0,0,0,0,-1,1210,1534,0,0
-7,-510,0,0,0,0,0,0,0,0,0,-1,1217,1534,0,0
0,-510,0,0,0,0,0,0,0,0,0,-1,1224,1534,0,0
7,-510,0,0,0,0,0,0,0,0,0,-1,1231,1534,0,0
14,-510,0,0,0,0,0,0,0,0,0,-1,1238,1534,0,0
21,-510,0,0,0,0,0,0,0,0,0,-1,1245,1534,0,0
28,-510,0,0,0,0,0,0,0,0,0,-1,1252,1534,0,0
35,-510,0,0,0,0,0,0,0,0,0,-1,1259,1534,0,0
42,-510,0,0,0,0,0,0,0,0,0,-1,1266,1534,0,0
49,-510,0,0,0,0,0,0,0,0,0,-1,1273,1534,0,0
56,-510,0,0,0,0,0,0,0,0,0,-1,1280,1534,0,0
63,-510,0,0,0,0,0,0,0,0,0,-1,1287,1534,0,0
70,-510,0,0,0,0,0,0,0,0,0,-1,1294,1534,0,0
77,-510,0,0,0,0,0,0,0,0,0,-1,1301,1534,0,0
84,-510,0,0,0,0,0,0,0,0,0,-1,1308,1534,0,0
91,-510,0,0,0,0,0,0,0,0,0,-1,1315,1534,0,0
98,-510,0,0,0,0,0,0,0,0,0,-1,1322,1534,0,0
105,-510,0,0,0,0,0,0,0,0,0,-1,1329,1534,0,0
112,-510,0,0,0,0,0,0,0,0,0,-1,1336,1534,0,0
119,-510,0,0,0,0,0,0,0,0,0,-1,1343,1534,0,0
126,-510,0,0,0,0,0,0,0,0,0,-1,1350,1534,0,0
133,-510,0,0,0,0,0,0,0,0,0,-1,1357,1534,0,0
140,-510,0,0,0,0,0,0,0,0,0,-1,1364,1534,0,0
147,-510,0,0,0,0,0,0,0,0,0,-1,1371,1534,0,0
154,-510,0,0,0,0,0,0,0,0,0,-1,1378,1534,0,0
161,-510,0,0,0,0,0,0,0,0,0,-1,1385,1534,0,0
168,-510,0,0,0,0,0,0,0,0,0,-1,1392,1534,0,0
175,-510,0,0,0,0,0,0,0,0,0,-1,1399,1534,0,0
182,-510,0,0,0,0,0,0,0,0,0,-1,1406,1534,0,0
189,-510,0,0,0,0,0,0,0,0,0,-1,1413,1534,0,0
196,-510,0,0,0,0,0,0,0,0,0,-1,1420,1534,0,0
203,-510,0,0,0,0,0,0,0,0,0,-1,1427,1534,0,0
210,-510,0,0,0,0,0,0,0,0,0,-1,1434,1534,0,0
217,-510,0,0,0,0,0,0,0,0,0,-1,1441,1534,0,0
224,-510,0,0,0,0,0,0,0,0,0,-1,1448,1534,0,0
231,-510,0,0,0,0,0,0,0,0,0,-1,1455,1534,0,0
238,-510,0,0,0,0,0,0,0,0,0,-1,1462,1534,0,0
245,-510,0,0,0,0,0,0,0,0,0,-1,1469,1534,0,0
252,-510,0,0,0,0,0,0,0,0,0,-1,1476,1534,0,0
259,-510,0,0,0,0,0,0,0,0,0,-1,1483,1534,0,0
266,-510,0,0,0,0,0,0,0,0,0,-1,1490,1534,0,0
273,-510,0,0,0,0,0,0,0,0,0,-1,1497,1534,0,0
280,-510,0,0,0,0,0,0,0,0,0,-1,1504,1534,0,0
287,-510,0,0,0,0,0,0,0,0,0,-1,1511,1534,0,0
294,-510,0,0,0,0,0,0,0,0,0,-1,1518,1534,0,0
301,-510,0,0,0,0,0,0,0,0,0,-1,1525,1534,0,0
308,-510,0,0,0,0,0,0,0,0,0,-1,1532,1534,0,0
315,-510,0,0,0,0,0,0,0,0,0,-1,1539,1534,0,0
322,-510,0,0,0,0,0,0,0,0,0,-1,1546,1534,0,0
329,-510,0,0,0,0,0,0,0,0,0,-1,1553,1534,0,0
336,-510,0,0,0,0,0,0,0,0,0,-1,1560,1534,0,0
343,-510,0,0,0,0,0,0,0,0,0,-1,1567,1534,0,0
350,-510,0,0,0,0,0,0,0,0,0,-1,1574,1534,0,0
357,-510,0,0,0,0,0,0,0,0,0,-1,1581,1534,0,0
364,-510,0,0,0,0,0,0,0,0,0,-1,1588,1534,0,0
371,-510,0,0,0,0,0,0,0,0,0,-1,1595,1534,0,0
378,-510,0,0,0,0,0,0,0,0,0,-1,1602,1534,0,0
385,-510,0,0,0,0,0,0,0,0,0,-1,1609,1534,0,0
392,-510,0,0,0,0,0,0,0,0,0,-1,1616,1534,0,0
399,-510,0,0,0,0,0,0,0,0,0,-1,1623,1534,0,0
406,-510,0,0,0,0,0,0,0,0,0,-1,1630,1534,0,0
413,-510,0,0,0,0,0,0,0,0,0,-1,1637,1534,0,0
420,-510,14.1888,6.71936,0,0,0,0,0,0,0,-1,1644,1534,14.1889,-6.71939
427,-510,10.2134,5.59485,0,0,0,0,0,0,0,-1,1651,1534,10.2134,-5.59485
434,-510,11.8219,4.07898,0,0,0,0,0,0,0,-1,1658,1534,11.8219,-4.07895
441,-510,12.6812,3.02991,0,0,0,0,0,0,0,-1,1665,1534,12.6811,-3.0299
448,-510,13.2379,2.2804,0,0,0,0,0,0,0,-1,1672,1534,13.2379,-2.28037
455,-510,9.76892,2.20642,0,0,0,0,0,0,0,-1,1679,1534,9.76894,-2.20647
462,-510,9.84692,2.49182,0,0,0,0,0,0,0,-1,1686,1534,9.84695,-2.49185
469,-510,16.6072,7.26941,0,0,0,0,0,0,0,-1,1693,1534,16.6072,-7.26945
476,-510,15.9199,7.8645,0,0,0,0,0,0,0,-1,1700,1534,15.9199,-7.86455
483,-510,13.0833,8.10938,0,0,0,0,0,0,0,-1,1707,1534,13.0833,-8.10932
490,-510,13.0841,15.3286,0,0,0,0,0,0,0,-1,1714,1534,13.0841,-15.3286
497,-510,15.5652,18.823,0,0,0,0,0,0,0,-1,1721,1534,15.5652,-18.823
504,-510,15.998,18.7478,0,0,0,0,0,0,0,-1,1728,1534,15.998,-18.7478
511,-510,15.9443,18.0476,0,0,0,0,0,0,0,-1,1735,1534,15.9443,-18.0476
518,-510,21.5343,27.1368,0,0,0,0,0,0,0,-1,1742,1534,21.5342,-27.1368
525,-510,24.2271,30.2643,0,0,0,0,0,0,0,-1,1749,1534,24.227,-30.2643
532,-510,24.5375,29.3641,0.00750237,0.00687055,-0.00559307,0.0127884,0.00158448,-0.757187,0.00804962,0.028011,1756,1534,24.5375,-29.3642
539,-510,24.6014,28.6052,0.00594735,0.00516186,-0.00415059,0.00972374,0.00138547,-0.738226,0.00607357,0.0141193,1763,1534,24.6015,-28.6053
546,-510,24.5455,28.0074,0.00474119,0.00382745,-0.00303023,0.0073488,0.00121985,-0.710577,0.00454745,0.0134848,1770,1534,24.5455,-28.0075
553,-510,24.501,27.3369,0.00384545,0.00266698,-0.0021029,0.00544011,0.00107232,-0.648801,0.00332741,0.0144113,1777,1534,24.501,-27.3369
560,-510,24.4646,26.6487,0.00318532,0.00163105,-0.00137415,0.00398686,0.000829504,-0.528051,0.00242909,0.0150963,1784,1534,24.4647,-26.6486
567,-510,24.4537,25.9812,0.00280765,0.00096593,-0.00101505,0.00325731,0.000516275,-0.417007,0.00202154,0.0141204,1791,1534,24.4538,-25.9811
574,-510,24.4266,25.3298,0.00261184,0.000502849,-0.00086056,0.00291842,0.00019627,-0.342237,0.0018836,0.0144882,1798,1534,24.4267,-25.3299
581,-510,24.3922,24.7113,0.00259807,0.000192844,-0.000866141,0.00287751,-8.65946e-05,-0.312082,0.00194785,0.0132787,1805,1534,24.3923,-24.7113
588,-510,24.3694,24.0386,0.00283383,0.000149026,-0.00113142,0.00324703,-0.00026418,-0.35016,0.00225791,0.0143984,1812,1534,24.3694,-24.0386
595,-510,24.4519,23.2235,0.00330295,0.000364587,-0.00157066,0.00398446,-0.000316923,-0.409385,0.002768,0.0210109,1819,1534,24.4519,-23.2235
602,-510,24.4771,22.4196,0,0,0,0,0,0,0,-1,1826,1534,24.4771,-22.4195
609,-510,21.259,19.222,0,0,0,0,0,0,0,-1,1833,1534,21.259,-19.222
616,-510,18.7024,16.2474,0,0,0,0,0,0,0,-1,1840,1534,18.7024,-16.2474
623,-510,19.6013,14.6211,0,0,0,0,0,0,0,-1,1847,1534,19.6013,-14.6211
630,-510,13.7461,9.30334,0,0,0,0,0,0,0,-1,1854,1534,13.7461,-9.30335
637,-510,11.0155,7.38464,0,0,0,0,0,0,0,-1,1861,1534,11.0155,-7.38463
644,-510,11.5809,7.17126,0,0,0,0,0,0,0,-1,1868,1534,11.5809,-7.17123
651,-510,8.70471,3.5061,0,0,0,0,0,0,0,-1,1875,1534,8.70475,-3.50611
658,-510,0,0,0,0,0,0,0,0,0,-1,1882,1534,0,0
665,-510,0,0,0,0,0,0,0,0,0,-1,1889,1534,0,0
672,-510,0,0,0,0,0,0,0,0,0,-1,1896,1534,0,0
679,-510,0,0,0,0,0,0,0,0,0,-1,1903,1534,0,0
686,-510,0,0,0,0,0,0,0,0,0,-1,1910,1534,0,0
693,-510,0,0,0,0,0,0,0,0,0,-1,1917,1534,0,0
700,-510,0,0,0,0,0,0,0,0,0,-1,1924,1534,0,0
707,-510,0,0,0,0,0,0,0,0,0,-1,1931,1534,0,0
714,-510,0,0,0,0,0,0,0,0,0,-1,1938,1534,0,0
721,-510,0,0,0,0,0,0,0,0,0,-1,1945,1534,0,0
728,-510,0,0,0,0,0,0,0,0,0,-1,1952,1534,0,0
735,-510,0,0,0,0,0,0,0,0,0,-1,1959,1534,0,0
742,-510,0,0,0,0,0,0,0,0,0,-1,1966,1534,0,0
749,-510,0,0,0,0,0,0,0,0,0,-1,1973,1534,0,0
756,-510,0,0,0,0,0,0,0,0,0,-1,1980,1534,0,0
763,-510,0,0,0,0,0,0,0,0,0,-1,1987,1534,0,0
770,-510,0,0,0,0,0,0,0,0,0,-1,1994,1534,0,0
777,-510,0,0,0,0,0,0,0,0,0,-1,2001,1534,0,0
784,-510,0,0,0,0,0,0,0,0,0,-1,2008,1534,0,0
791,-510,0,0,0,0,0,0,0,0,0,-1,2015,1534,0,0
798,-510,0,0,0,0,0,0,0,0,0,-1,2022,1534,0,0
805,-510,0,0,0,0,0,0,0,0,0,-1,2029,1534,0,0
812,-510,0,0,0,0,0,0,0,0,0,-1,2036,1534,0,0
-700,-517,0,0,0,0,0,0,0,0,0,-1,524,1541,0,0
-693,-517,0,0,0,0,0,0,0,0,0,-1,531,1541,0,0
-686,-517,0,0,0,0,0,0,0,0,0,-1,538,1541,0,0
-679,-517,0,0,0,0,0,0,0,0,0,-1,545,1541,0,0
-672,-517,0,0,0,0,0,0,0,0,0,-1,552,1541,0,0
-665,-517,0,0,0,0,0,0,0,0,0,-1,559,1541,0,0
-658,-517,0,0,0,0,0,0,0,0,0,-1,566,1541,0,0
-651,-517,0,0,0,0,0,0,0,0,0,-1,573,1541,0,0
-644,-517,0,0,0,0,0,0,0,0,0,-1,580,1541,0,0
-637,-517,0,0,0,0,0,0,0,0,0,-1,587,1541,0,0
-630,-517,0,0,0,0,0,0,0,0,0,-1,594,1541,0,0
-623,-517,0,0,0,0,0,0,0,0,0,-1,601,1541,0,0
-616,-517,0,0,0,0,0,0,0,0,0,-1,608,1541,0,0
-609,-517,0,0,0,0,0,0,0,0,0,-1,615,1541,0,0
-602,-517,0,0,0,0,0,0,0,0,0,-1,622,1541,0,0
-595,-517,0,0,0,0,0,0,0,0,0,-1,629,1541,0,0
-588,-517,0,0,0,0,0,0,0,0,0,-1,636,1541,0,0
-581,-517,0,0,0,0,0,0,0,0,0,-1,643,1541,0,0
-574,-517,0,0,0,0,0,0,0,0,0,-1,650,1541,0,0
-567,-517,0,0,0,0,0,0,0,0,0,-1,657,1541,0,0
-560,-517,0,0,0,0,0,0,0,0,0,-1,664,1541,0,0
-553,-517,0,0,0,0,0,0,0,0,0,-1,671,1541,0,0
-546,-517,0,0,0,0,0,0,0,0,0,-1,678,1541,0,0
-539,-517,0,0,0,0,0,0,0,0,0,-1,685,1541,0,0
-532,-517,0,0,0,0,0,0,0,0,0,-1,692,1541,0,0
-525,-517,-3.62903,4.3606,0,0,0,0,0,0,0,-1,699,1541,-3.62904,-4.36056
-518,-517,-1.664,2.27209,0,0,0,0,0,0,0,-1,706,1541,-1.66399,-2.27207
-511,-517,-0.999146,5.52063,0,0,0,0,0,0,0,-1,713,1541,-0.999126,-5.52059
-504,-517,-1.06946,8.67432,0,0,0,0,0,0,0,-1,720,1541,-1.06947,-8.6743
-497,-517,-5.43036,17.4033,0,0,0,0,0,0,0,-1,727,1541,-5.43033,-17.4034
-490,-517,-6.1571,20.6029,0,0,0,0,0,0,0,-1,734,1541,-6.1571,-20.6029
-483,-517,-6.19037,20.8241,0,0,0,0,0,0,0,-1,741,1541,-6.19034,-20.8241
-476,-517,-5.87518,20.8728,0,0,0,0,0,0,0,-1,748,1541,-5.87516,-20.8728
-469,-517,-6.27405,21.8345,0.023196,-0.00162935,0.0095626,0.0264524,-0.00488568,0.328211,0.0194689,0.0237601,755,1541,-6.27408,-21.8345
-462,-517,-6.41217,22.4966,0.0190326,-0.00101597,0.0073333,0.0214286,-0.00341197,0.315795,0.0155484,0.0247203,762,1541,-6.41218,-22.4966
-455,-517,-6.41669,23.2216,0.015038,-0.000485297,0.00549756,0.0167877,-0.00223503,0.308137,0.0120064,0.0173008,769,1541,-6.4167,-23.2215
-448,-517,-6.43274,23.9529,0.0113904,-7.25704e-05,0.00401131,0.0126547,-0.00133683,0.30532,0.00891553,0.0149188,776,1541,-6.43271,-23.9529
-441,-517,-6.48834,24.6492,0.00832633,0.0003921,0.00296613,0.0093126,-0.000594163,0.321007,0.00641563,0.011954,783,1541,-6.48834,-24.6492
-434,-517,-6.534,25.3312,0.00594529,0.00112156,0.00240822,0.00694174,0.000125112,0.39232,0.00458669,0.0149172,790,1541,-6.534,-25.3312
-427,-517,-6.58075,25.9885,0.00421173,0.0018987,0.00218492,0.00552735,0.000583085,0.541985,0.00350673,0.0152268,797,1541,-6.58073,-25.9885
-420,-517,-6.62915,26.6776,0.00320575,0.00271682,0.00231822,0.00529236,0.000630206,0.732865,0.00333806,0.029573,804,1541,-6.62912,-26.6777
-413,-517,-6.65192,27.3796,0.00281271,0.00384572,0.00276695,0.00614396,0.000514466,0.877671,0.00393571,0.0161796,811,1541,-6.65194,-27.3796
-406,-517,-6.66919,28.0946,0.00350229,0.00546797,0.00378868,0.00839922,0.000571044,0.912308,0.00541917,0.011924,818,1541,-6.66918,-28.0946
-399,-517,-6.69104,28.7902,0.00495829,0.00730902,0.00499607,0.0112661,0.0010012,0.900926,0.00720025,0.0115191,825,1541,-6.69101,-28.7901
-392,-517,-6.68719,29.4846,0.00640283,0.00943333,0.00619363,0.0142944,0.0015418,0.905365,0.00905948,0.0186001,832,1541,-6.68721,-29.4846
-385,-517,-6.57581,30.5244,0.00751401,0.0112298,0.00747001,0.0170695,0.00167433,0.907282,0.0108646,0.048909,839,1541,-6.57578,-30.5245
-378,-517,-6.4245,31.7267,0,0,0,0,0,0,0,-1,846,1541,-6.42448,-31.7267
-371,-517,-1.37585,13.2646,0,0,0,0,0,0,0,-1,853,1541,-1.37586,-13.2647
-364,-517,-1.26245,12.6289,0,0,0,0,0,0,0,-1,860,1541,-1.26243,-12.6289
-357,-517,-1.23889,12.979,0,0,0,0,0,0,0,-1,867,1541,-1.23891,-12.979
-350,-517,-5.40198,23.8954,0,0,0,0,0,0,0,-1,874,1541,-5.40196,-23.8954
-343,-517,-5.45844,29.2598,0,0,0,0,0,0,0,-1,881,1541,-5.45842,-29.2598
-336,-517,-4.53223,29.6708,0,0,0,0,0,0,0,-1,888,1541,-4.53221,-29.6708
-329,-517,-3.60602,30.0817,0,0,0,0,0,0,0,-1,895,1541,-3.60601,-30.0817
-322,-517,-4.21246,19.5819,0,0,0,0,0,0,0,-1,902,1541,-4.21244,-19.5819
-315,-517,-0.987976,7.29749,0,0,0,0,0,0,0,-1,909,1541,-0.987993,-7.29743
-308,-517,3.27911,17.621,0,0,0,0,0,0,0,-1,916,1541,3.27913,-17.621
-301,-517,-1.69141,8.87488,0,0,0,0,0,0,0,-1,923,1541,-1.69141,-8.87485
-294,-517,-1.72583,9.92566,0,0,0,0,0,0,0,-1,930,1541,-1.72584,-9.92571
-287,-517,-3.09045,12.1472,0,0,0,0,0,0,0,-1,937,1541,-3.09043,-12.1472
-280,-517,0,0,0,0,0,0,0,0,0,-1,944,1541,0,0
-273,-517,0,0,0,0,0,0,0,0,0,-1,951,1541,0,0
-266,-517,0,0,0,0,0,0,0,0,0,-1,958,1541,0,0
-259,-517,0,0,0,0,0,0,0,0,0,-1,965,1541,0,0
-252,-517,0,0,0,0,0,0,0,0,0,-1,972,1541,0,0
-245,-517,0,0,0,0,0,0,0,0,0,-1,979,1541,0,0
-238,-517,0,0,0,0,0,0,0,0,0,-1,986,1541,0,0
-231,-517,0,0,0,0,0,0,0,0,0,-1,993,1541,0,0
-224,-517,0,0,0,0,0,0,0,0,0,-1,1000,1541,0,0
-217,-517,0,0,0,0,0,0,0,0,0,-1,1007,1541,0,0
-210,-517,0,0,0,0,0,0,0,0,0,-1,1014,1541,0,0
-203,-517,0,0,0,0,0,0,0,0,0,-1,1021,1541,0,0
-196,-517,0,0,0,0,0,0,0,0,0,-1,1028,1541,0,0
-189,-517,0,0,0,0,0,0,0,0,0,-1,1035,1541,0,0
-182,-517,0,0,0,0,0,0,0,0,0,-1,1042,1541,0,0
-175,-517,0,0,0,0,0,0,0,0,0,-1,1049,1541,0,0
-168,-517,0,0,0,0,0,0,0,0,0,-1,1056,1541,0,0
-161,-517,0,0,0,0,0,0,0,0,0,-1,1063,1541,0,0
-154,-517,0,0,0,0,0,0,0,0,0,-1,1070,1541,0,0
-147,-517,0,0,0,0,0,0,0,0,0,-1,1077,1541,0,0
-140,-517,0,0,0,0,0,0,0,0,0,-1,1084,1541,0,0
-133,-517,0,0,0,0,0,0,0,0,0,-1,1091,1541,0,0
-126,-517,0,0,0,0,0,0,0,0,0,-1,1098,1541,0,0
-119,-517,0,0,0,0,0,0,0,0,0,-1,1105,1541,0,0
-112,-517,0,0,0,0,0,0,0,0,0,-1,1112,1541,0,0
-105,-517,0,0,0,0,0,0,0,0,0,-1,1119,1541,0,0
-98,-517,0,0,0,0,0,0,0,0,0,-1,1126,1541,0,0
-91,-517,0,0,0,0,0,0,0,0,0,-1,1133,1541,0,0
-84,-517,0,0,0,0,0,0,0,0,0,-1,1140,1541,0,0
-77,-517,0,0,0,0,0,0,0,0,0,-1,1147,1541,0,0
-70,-517,0,0,0,0,0,0,0,0,0,-1,1154,1541,0,0
-63,-517,0,0,0,0,0,0,0,0,0,-1,1161,1541,0,0
-56,-517,0,0,0,0,0,0,0,0,0,-1,1168,1541,0,0
-49,-517,0,0,0,0,0,0,0,0,0,-1,1175,1541,0,0
-42,-517,0,0,0,0,0,0,0,0,0,-1,1182,1541,0,0
-35,-517,0,0,0,0,0,0,0,0,0,-1,1189,1541,0,0
-28,-517,0,0,0,0,0,0,0,0,0,-1,1196,1541,0,0
-21,-517,0,0,0,0,0,0,0,0,0,-1,1203,1541,0,0
-14,-517,0,0,0,0,0,0,0,0,0,-1,1210,1541,0,0
-7,-517,0,0,0,0,0,0,0,0,0,-1,1217,1541,0,0
0,-517,0,0,0,0,0,0,0,0,0,-1,1224,1541,0,0
7,-517,0,0,0,0,0,0,0,0,0,-1,1231,1541,0,0
14,-517,0,0,0,0,0,0,0,0,0,-1,1238,1541,0,0
21,-517,0,0,0,0,0,0,0,0,0,-1,1245,1541,0,0
28,-517,0,0,0,0,0,0,0,0,0,-1,1252,1541,0,0
35,-517,0,0,0,0,0,0,0,0,0,-1,1259,1541,0,0
42,-517,0,0,0,0,0,0,0,0,0,-1,1266,1541,0,0
49,-517,0,0,0,0,0,0,0,0,0,-1,1273,1541,0,0
56,-517,0,0,0,0,0,0,0,0,0,-1,1280,1541,0,0
63,-517,0,0,0,0,0,0,0,0,0,-1,1287,1541,0,0
70,-517,0,0,0,0,0,0,0,0,0,-1,1294,1541,0,0
77,-517,0,0,0,0,0,0,0,0,0,-1,1301,1541,0,0
84,-517,0,0,0,0,0,0,0,0,0,-1,1308,1541,0,0
91,-517,0,0,0,0,0,0,0,0,0,-1,1315,1541,0,0
98,-517,0,0,0,0,0,0,0,0,0,-1,1322,1541,0,0
105,-517,0,0,0,0,0,0,0,0,0,-1,1329,1541,0,0
112,-517,0,0,0,0,0,0,0,0,0,-1,1336,1541,0,0
119,-517,0,0,0,0,0,0,0,0,0,-1,1343,1541,0,0
126,-517,0,0,0,0,0,0,0,0,0,-1,1350,1541,0,0
133,-517,0,0,0,0,0,0,0,0,0,-1,1357,1541,0,0
140,-517,0,0,0,0,0,0,0,0,0,-1,1364,1541,0,0
147,-517,0,0,0,0,0,0,0,0,0,-1,1371,1541,0,0
154,-517,0,0,0,0,0,0,0,0,0,-1,1378,1541,0,0
161,-517,0,0,0,0,0,0,0,0,0,-1,1385,1541,0,0
168,-517,0,0,0,0,0,0,0,0,0,-1,1392,1541,0,0
175,-517,0,0,0,0,0,0,0,0,0,-1,1399,1541,0,0
182,-517,0,0,0,0,0,0,0,0,0,-1,1406,1541,0,0
189,-517,0,0,0,0,0,0,0,0,0,-1,1413,1541,0,0
196,-517,0,0,0,0,0,0,0,0,0,-1,1420,1541,0,0
203,-517,0,0,0,0,0,0,0,0,0,-1,1427,1541,0,0
210,-517,0,0,0,0,0,0,0,0,0,-1,1434,1541,0,0
217,-517,0,0,0,0,0,0,0,0,0,-1,1441,1541,0,0
224,-517,0,0,0,0,0,0,0,0,0,-1,1448,1541,0,0
231,-517,0,0,0,0,0,0,0,0,0,-1,1455,1541,0,0
238,-517,0,0,0,0,0,0,0,0,0,-1,1462,1541,0,0
245,-517,0,0,0,0,0,0,0,0,0,-1,1469,1541,0,0
252,-517,0,0,0,0,0,0,0,0,0,-1,1476,1541,0,0
259,-517,0,0,0,0,0,0,0,0,0,-1,1483,1541,0,0
266,-517,0,0,0,0,0,0,0,0,0,-1,1490,1541,0,0
273,-517,0,0,0,0,0,0,0,0,0,-1,1497,1541,0,0
280,-517,0,0,0,0,0,0,0,0,0,-1,1504,1541,0,0
287,-517,0,0,0,0,0,0,0,0,0,-1,1511,1541,0,0
294,-517,0,0,0,0,0,0,0,0,0,-1,1518,1541,0,0
301,-517,0,0,0,0,0,0,0,0,0,-1,1525,1541,0,0
308,-517,0,0,0,0,0,0,0,0,0,-1,1532,1541,0,0
315,-517,0,0,0,0,0,0,0,0,0,-1,1539,1541,0,0
322,-517,0,0,0,0,0,0,0,0,0,-1,1546,1541,0,0
329,-517,0,0,0,0,0,0,0,0,0,-1,1553,1541,0,0
336,-517,0,0,0,0,0,0,0,0,0,-1,1560,1541,0,0
343,-517,0,0,0,0,0,0,0,0,0,-1,1567,1541,0,0
350,-517,0,0,0,0,0,0,0,0,0,-1,1574,1541,0,0
357,-517,0,0,0,0,0,0,0,0,0,-1,1581,1541,0,0
364,-517,0,0,0,0,0,0,0,0,0,-1,1588,1541,0,0
371,-517,0,0,0,0,0,0,0,0,0,-1,1595,1541,0,0
378,-517,0,0,0,0,0,0,0,0,0,-1,1602,1541,0,0
385,-517,0,0,0,0,0,0,0,0,0,-1,1609,1541,0,0
392,-517,0,0,0,0,0,0,0,0,0,-1,1616,1541,0,0
399,-517,0,0,0,0,0,0,0,0,0,-1,1623,1541,0,0
406,-517,13.1395,7.01978,0,0,0,0,0,0,0,-1,1630,1541,13.1396,-7.01981
413,-517,12.8859,6.31592,0,0,0,0,0,0,0,-1,1637,1541,12.8858,-6.31588
420,-517,12.4789,6.20337,0,0,0,0,0,0,0,-1,1644,1541,12.4789,-6.20333
427,-517,11.647,4.66516,0,0,0,0,0,0,0,-1,1651,1541,11.647,-4.66519
434,-517,12.3719,3.92773,0,0,0,0,0,0,0,-1,1658,1541,12.3719,-3.92776
441,-517,13.146,3.14124,0,0,0,0,0,0,0,-1,1665,1541,13.146,-3.14121
448,-517,13.8861,2.36682,0,0,0,0,0,0,0,-1,1672,1541,13.8861,-2.36684
455,-517,13.6012,4.06335,0,0,0,0,0,0,0,-1,1679,1541,13.6012,-4.06335
462,-517,14.8956,7.0752,0,0,0,0,0,0,0,-1,1686,1541,14.8956,-7.07525
469,-517,13.6292,6.87744,0,0,0,0,0,0,0,-1,1693,1541,13.6292,-6.87739
476,-517,17.1632,14.1487,0,0,0,0,0,0,0,-1,1700,1541,17.1632,-14.1487
483,-517,16.5157,15.0776,0,0,0,0,0,0,0,-1,1707,1541,16.5157,-15.0777
490,-517,15.5439,18.0258,0,0,0,0,0,0,0,-1,1714,1541,15.5439,-18.0258
497,-517,16.0292,18.7786,0,0,0,0,0,0,0,-1,1721,1541,16.0291,-18.7786
504,-517,17.3815,22.3873,0,0,0,0,0,0,0,-1,1728,1541,17.3814,-22.3873
511,-517,16.9674,21.8491,0,0,0,0,0,0,0,-1,1735,1541,16.9674,-21.8491
518,-517,24.0289,30.5757,0,0,0,0,0,0,0,-1,1742,1541,24.0289,-30.5757
525,-517,23.788,30.0247,0.00778653,0.00704953,-0.00603249,0.0134618,0.00137429,-0.754893,0.0085533,0.0264621,1749,1541,23.788,-30.0246
532,-517,23.9591,29.2502,0.00610488,0.00553754,-0.00463728,0.0104672,0.00117526,-0.75485,0.00662121,0.0130034,1756,1541,23.9591,-29.2502
539,-517,23.9656,28.5962,0.00480887,0.00418934,-0.00342354,0.00793663,0.00106158,-0.740281,0.00497512,0.0137647,1763,1541,23.9655,-28.5961
546,-517,23.924,28.0032,0.00377573,0.00302338,-0.00241359,0.00584228,0.00095683,-0.708092,0.00361833,0.0151975,1770,1541,23.9239,-28.0032
553,-517,23.8724,27.3464,0.00299503,0.00201565,-0.00153335,0.00411499,0.000895693,-0.630837,0.00249886,0.0197854,1777,1541,23.8725,-27.3464
560,-517,23.8374,26.6798,0.00245207,0.00108908,-0.000819255,0.00283623,0.000704922,-0.438468,0.00170513,0.0182925,1784,1541,23.8374,-26.6799
567,-517,23.8265,26.0504,0.00219079,0.000502127,-0.000457175,0.00230662,0.0003863,-0.248133,0.00142652,0.0141039,1791,1541,23.8265,-26.0504
574,-517,23.7938,25.3723,0.00210952,7.62035e-05,-0.000281458,0.00214776,3.79626e-05,-0.135041,0.00141936,0.0152312,1798,1541,23.7938,-25.3723
581,-517,23.7413,24.7125,0.00228615,-0.000185612,-0.00032168,0.00232733,-0.00022679,-0.127317,0.00163241,0.016889,1805,1541,23.7414,-24.7125
588,-517,23.7146,24.0464,0.00274826,-0.000158811,-0.000653149,0.00288826,-0.000298815,-0.211158,0.00203245,0.0179971,1812,1541,23.7146,-24.0464
595,-517,23.7313,23.4194,0.00341539,0.000200252,-0.00123469,0.00383482,-0.00021918,-0.327476,0.00263265,0.0445595,1819,1541,23.7314,-23.4194
602,-517,23.9862,22.5221,0,0,0,0,0,0,0,-1,1826,1541,23.9862,-22.5221
609,-517,12.6417,10.8751,0,0,0,0,0,0,0,-1,1833,1541,12.6417,-10.8751
616,-517,14.205,10.3193,0,0,0,0,0,0,0,-1,1840,1541,14.205,-10.3194
623,-517,12.578,10.0779,0,0,0,0,0,0,0,-1,1847,1541,12.578,-10.0779
630,-517,11.7035,7.47815,0,0,0,0,0,0,0,-1,1854,1541,11.7035,-7.47812
637,-517,11.5172,5.79822,0,0,0,0,0,0,0,-1,1861,1541,11.5173,-5.79825
644,-517,11.4232,3.30579,0,0,0,0,0,0,0,-1,1868,1541,11.4232,-3.30574
651,-517,0,0,0,0,0,0,0,0,0,-1,1875,1541,0,0
658,-517,0,0,0,0,0,0,0,0,0,-1,1882,1541,0,0
665,-517,0,0,0,0,0,0,0,0,0,-1,1889,1541,0,0
672,-517,0,0,0,0,0,0,0,0,0,-1,1896,1541,0,0
679,-517,0,0,0,0,0,0,0,0,0,-1,1903,1541,0,0
686,-517,0,0,0,0,0,0,0,0,0,-1,1910,1541,0,0
693,-517,0,0,0,0,0,0,0,0,0,-1,1917,1541,0,0
700,-517,0,0,0,0,0,0,0,0,0,-1,1924,1541,0,0
707,-517,0,0,0,0,0,0,0,0,0,-1,1931,1541,0,0
714,-517,0,0,0,0,0,0,0,0,0,-1,1938,1541,0,0
721,-517,0,0,0,0,0,0,0,0,0,-1,1945,1541,0,0
728,-517,0,0,0,0,0,0,0,0,0,-1,1952,1541,0,0
735,-517,0,0,0,0,0,0,0,0,0,-1,1959,1541,0,0
742,-517,0,0,0,0,0,0,0,0,0,-1,1966,1541,0,0
749,-517,0,0,0,0,0,0,0,0,0,-1,1973,1541,0,0
756,-517,0,0,0,0,0,0,0,0,0,-1,1980,1541,0,0
763,-517,0,0,0,0,0,0,0,0,0,-1,1987,1541,0,0
770,-517,0,0,0,0,0,0,0,0,0,-1,1994,1541,0,0
777,-517,0,0,0,0,0,0,0,0,0,-1,2001,1541,0,0
784,-517,0,0,0,0,0,0,0,0,0,-1,2008,1541,0,0
791,-517,0,0,0,0,0,0,0,0,0,-1,2015,1541,0,0
798,-517,0,0,0,0,0,0,0,0,0,-1,2022,1541,0,0
805,-517,0,0,0,0,0,0,0,0,0,-1,2029,1541,0,0
812,-517,0,0,0,0,0,0,0,0,0,-1,2036,1541,0,0
-700,-524,0,0,0,0,0,0,0,0,0,-1,524,1548,0,0
-693,-524,0,0,0,0,0,0,0,0,0,-1,531,1548,0,0
-686,-524,0,0,0,0,0,0,0,0,0,-1,538,1548,0,0
-679,-524,0,0,0,0,0,0,0,0,0,-1,545,1548,0,0
-672,-524,0,0,0,0,0,0,0,0,0,-1,552,1548,0,0
-665,-524,0,0,0,0,0,0,0,0,0,-1,559,1548,0,0
-658,-524,0,0,0,0,0,0,0,0,0,-1,566,1548,0,0
-651,-524,0,0,0,0,0,0,0,0,0,-1,573,1548,0,0
-644,-524,0,0,0,0,0,0,0,0,0,-1,580,1548,0,0
-637,-524,0,0,0,0,0,0,0,0,0,-1,587,1548,0,0
-630,-524,0,0,0,0,0,0,0,0,0,-1,594,1548,0,0
-623,-524,0,0,0,0,0,0,0,0,0,-1,601,1548,0,0
-616,-524,0,0,0,0,0,0,0,0,0,-1,608,1548,0,0
-609,-524,0,0,0,0,0,0,0,0,0,-1,615,1548,0,0
-602,-524,0,0,0,0,0,0,0,0,0,-1,622,1548,0,0
-595,-524,0,0,0,0,0,0,0,0,0,-1,629,1548,0,0
-588,-524,0,0,0,0,0,0,0,0,0,-1,636,1548,0,0
-581,-524,0,0,0,0,0,0,0,0,0,-1,643,1548,0,0
-574,-524,0,0,0,0,0,0,0,0,0,-1,650,1548,0,0
-567,-524,0,0,0,0,0,0,0,0,0,-1,657,1548,0,0
-560,-524,0,0,0,0,0,0,0,0,0,-1,664,1548,0,0
-553,-524,0,0,0,0,0,0,0,0,0,-1,671,1548,0,0
-546,-524,0,0,0,0,0,0,0,0,0,-1,678,1548,0,0
-539,-524,0,0,0,0,0,0,0,0,0,-1,685,1548,0,0
-532,-524,0,0,0,0,0,0,0,0,0,-1,692,1548,0,0
-525,-524,-0.215515,3.97131,0,0,0,0,0,0,0,-1,699,1548,-0.215501,-3.97136
-518,-524,-0.806274,4.35632,0,0,0,0,0,0,0,-1,706,1548,-0.806259,-4.35633
-511,-524,-1.08301,4.29004,0,0,0,0,0,0,0,-1,713,1548,-1.08301,-4.29006
-504,-524,-1.28821,3.98145,0,0,0,0,0,0,0,-1,720,1548,-1.28822,-3.98151
-497,-524,-0.328491,8.63416,0,0,0,0,0,0,0,-1,727,1548,-0.328487,-8.63411
-490,-524,-6.33374,19.7203,0,0,0,0,0,0,0,-1,734,1548,-6.33376,-19.7203
-483,-524,-6.43658,20.6208,0,0,0,0,0,0,0,-1,741,1548,-6.4366,-20.6209
-476,-524,-6.41266,21.6748,0,0,0,0,0,0,0,-1,748,1548,-6.41267,-21.6748
-469,-524,-6.21234,22.3641,0.0326715,0.00025076,0.0135666,0.0375995,-0.00467718,0.348422,0.0267619,0.0406353,755,1548,-6.21234,-22.3641
-462,-524,-5.64856,22.7798,0.0264404,0.000508164,0.0102866,0.0300253,-0.00307668,0.335335,0.0211172,0.0389851,762,1548,-5.64859,-22.7798
-455,-524,-5.95605,23.4701,0,0,0,0,0,0,0,-1,769,1548,-5.95606,-23.4701
-448,-524,-5.75146,23.9913,0.0154805,0.000646281,0.0054384,0.0172606,-0.00113388,0.316339,0.0119031,0.0165102,776,1548,-5.75149,-23.9913
-441,-524,-5.78595,24.7087,0.0112375,0.000744577,0.00387019,0.0125105,-0.000528447,0.317783,0.00852197,0.0114282,783,1548,-5.78596,-24.7087
-434,-524,-5.80652,25.3746,0.00790097,0.00104936,0.00284702,0.00892957,2.07634e-05,0.346695,0.00594613,0.0132825,790,1548,-5.80653,-25.3747
-427,-524,-5.84491,26.047,0.00544878,0.00150311,0.00227561,0.00648767,0.000464224,0.428273,0.00417897,0.0160721,797,1548,-5.8449,-26.047
-420,-524,-5.9101,26.7413,0.00392211,0.00198949,0.00211231,0.00527864,0.000632958,0.570876,0.00332823,0.0418642,804,1548,-5.9101,-26.7413
-413,-524,-5.97906,27.4314,0.00295314,0.00296885,0.00210692,0.00506793,0.000854064,0.787262,0.00313298,0.0388533,811,1548,-5.97905,-27.4314
-406,-524,-5.96356,28.1455,0.00286441,0.00398559,0.00268841,0.00617123,0.000678767,0.888187,0.0039076,0.0137748,818,1548,-5.96356,-28.1456
-399,-524,-5.99493,28.8259,0.00374593,0.00545384,0.00358602,0.00828618,0.000913592,0.902288,0.00524617,0.00980724,825,1548,-5.99491,-28.826
-392,-524,-6.01324,29.4601,0.00481567,0.00707463,0.00444277,0.0105292,0.00136105,0.909875,0.00661267,0.0104849,832,1548,-6.01324,-29.4601
-385,-524,-6.03351,30.1591,0.0057137,0.00842676,0.00531756,0.0125581,0.00158237,0.910287,0.00789762,0.0164795,839,1548,-6.03351,-30.159
-378,-524,-6.02563,30.9093,0,0,0,0,0,0,0,-1,846,1548,-6.02565,-30.9093
-371,-524,-4.20789,29.1592,0,0,0,0,0,0,0,-1,853,1548,-4.2079,-29.1592
-364,-524,-0.712097,14.9871,0,0,0,0,0,0,0,-1,860,1548,-0.712116,-14.9871
-357,-524,-1.34052,14.7448,0,0,0,0,0,0,0,-1,867,1548,-1.34054,-14.7447
-350,-524,-4.31909,25.032,0,0,0,0,0,0,0,-1,874,1548,-4.31906,-25.0319
-343,-524,-3.69696,28.6923,0,0,0,0,0,0,0,-1,881,1548,-3.69694,-28.6922
-336,-524,-3.4873,29.655,0,0,0,0,0,0,0,-1,888,1548,-3.48728,-29.6551
-329,-524,-3.21936,30.5509,0,0,0,0,0,0,0,-1,895,1548,-3.21933,-30.5509
-322,-524,-4.31378,25.6389,0,0,0,0,0,0,0,-1,902,1548,-4.31379,-25.639
-315,-524,-1.90839,19.4824,0,0,0,0,0,0,0,-1,909,1548,-1.90838,-19.4824
-308,-524,-2.36938,19.3059,0,0,0,0,0,0,0,-1,916,1548,-2.3694,-19.3058
-301,-524,2.72394,17.7618,0,0,0,0,0,0,0,-1,923,1548,2.72396,-17.7619
-294,-524,-1.52515,9.05408,0,0,0,0,0,0,0,-1,930,1548,-1.52512,-9.05411
-287,-524,-0.962219,10.3199,0,0,0,0,0,0,0,-1,937,1548,-0.962241,-10.32
-280,-524,-1.36255,10.3859,0,0,0,0,0,0,0,-1,944,1548,-1.36253,-10.3859
-273,-524,0,0,0,0,0,0,0,0,0,-1,951,1548,0,0
-266,-524,0,0,0,0,0,0,0,0,0,-1,958,1548,0,0
-259,-524,0,0,0,0,0,0,0,0,0,-1,965,1548,0,0
-252,-524,0,0,0,0,0,0,0,0,0,-1,972,1548,0,0
-245,-524,0,0,0,0,0,0,0,0,0,-1,979,1548,0,0
-238,-524,0,0,0,0,0,0,0,0,0,-1,986,1548,0,0
-231,-524,0,0,0,0,0,0,0,0,0,-1,993,1548,0,0
-224,-524,0,0,0,0,0,0,0,0,0,-1,1000,1548,0,0
-217,-524,0,0,0,0,0,0,0,0,0,-1,1007,1548,0,0
-210,-524,0,0,0,0,0,0,0,0,0,-1,1014,1548,0,0
-203,-524,0,0,0,0,0,0,0,0,0,-1,1021,1548,0,0
-196,-524,0,0,0,0,0,0,0,0,0,-1,1028,1548,0,0
-189,-524,0,0,0,0,0,0,0,0,0,-1,1035,1548,0,0
-182,-524,0,0,0,0,0,0,0,0,0,-1,1042,1548,0,0
-175,-524,0,0,0,0,0,0,0,0,0,-1,1049,1548,0,0
-168,-524,0,0,0,0,0,0,0,0,0,-1,1056,1548,0,0
-161,-524,0,0,0,0,0,0,0,0,0,-1,1063,1548,0,0
-154,-524,0,0,0,0,0,0,0,0,0,-1,1070,1548,0,0
-147,-524,0,0,0,0,0,0,0,0,0,-1,1077,1548,0,0
-140,-524,0,0,0,0,0,0,0,0,0,-1,1084,1548,0,0
-133,-524,0,0,0,0,0,0,0,0,0,-1,1091,1548,0,0
-126,-524,0,0,0,0,0,0,0,0,0,-1,1098,1548,0,0
-119,-524,0,0,0,0,0,0,0,0,0,-1,1105,1548,0,0
-112,-524,0,0,0,0,0,0,0,0,0,-1,1112,1548,0,0
-105,-524,0,0,0,0,0,0,0,0,0,-1,1119,1548,0,0
-98,-524,0,0,0,0,0,0,0,0,0,-1,1126,1548,0,0
-91,-524,0,0,0,0,0,0,0,0,0,-1,1133,1548,0,0
-84,-524,0,0,0,0,0,0,0,0,0,-1,1140,1548,0,0
-77,-524,0,0,0,0,0,0,0,0,0,-1,1147,1548,0,0
-70,-524,0,0,0,0,0,0,0,0,0,-1,1154,1548,0,0
-63,-524,0,0,0,0,0,0,0,0,0,-1,1161,1548,0,0
-56,-524,0,0,0,0,0,0,0,0,0,-1,1168,1548,0,0
-49,-524,0,0,0,0,0,0,0,0,0,-1,1175,1548,0,0
-42,-524,0,0,0,0,0,0,0,0,0,-1,1182,1548,0,0
-35,-524,0,0,0,0,0,0,0,0,0,-1,1189,1548,0,0
-28,-524,0,0,0,0,0,0,0,0,0,-1,1196,1548,0,0
-21,-524,0,0,0,0,0,0,0,0,0,-1,1203,1548,0,0
-14,-524,0,0,0,0,0,0,0,0,0,-1,1210,1548,0,0
-7,-524,0,0,0,0,0,0,0,0,0,-1,1217,1548,0,0
0,-524,0,0,0,0,0,0,0,0,0,-1,1224,1548,0,0
7,-524,0,0,0,0,0,0,0,0,0,-1,1231,1548,0,0
14,-524,0,0,0,0,0,0,0,0,0,-1,1238,1548,0,0
21,-524,0,0,0,0,0,0,0,0,0,-1,1245,1548,0,0
28,-524,0,0,0,0,0,0,0,0,0,-1,1252,1548,0,0
35,-524,0,0,0,0,0,0,0,0,0,-1,1259,1548,0,0
42,-524,0,0,0,0,0,0,0,0,0,-1,1266,1548,0,0
49,-524,0,0,0,0,0,0,0,0,0,-1,1273,1548,0,0
56,-524,0,0,0,0,0,0,0,0,0,-1,1280,1548,0,0
63,-524,0,0,0,0,0,0,0,0,0,-1,1287,1548,0,0
70,-524,0,0,0,0,0,0,0,0,0,-1,1294,1548,0,0
77,-524,0,0,0,0,0,0,0,0,0,-1,1301,1548,0,0
84,-524,0,0,0,0,0,0,0,0,0,-1,1308,1548,0,0
91,-524,0,0,0,0,0,0,0,0,0,-1,1315,1548,0,0
98,-524,0,0,0,0,0,0,0,0,0,-1,1322,1548,0,0
105,-524,0,0,0,0,0,0,0,0,0,-1,1329,1548,0,0
112,-524,0,0,0,0,0,0,0,0,0,-1,1336,1548,0,0
119,-524,0,0,0,0,0,0,0,0,0,-1,1343,1548,0,0
126,-524,0,0,0,0,0,0,0,0,0,-1,1350,1548,0,0
133,-524,0,0,0,0,0,0,0,0,0,-1,1357,1548,0,0
140,-524,0,0,0,0,0,0,0,0,0,-1,1364,1548,0,0
147,-524,0,0,0,0,0,0,0,0,0,-1,1371,1548,0,0
154,-524,0,0,0,0,0,0,0,0,0,-1,1378,1548,0,0
161,-524,0,0,0,0,0,0,0,0,0,-1,1385,1548,0,0
168,-524,0,0,0,0,0,0,0,0,0,-1,1392,1548,0,0
175,-524,0,0,0,0,0,0,0,0,0,-1,1399,1548,0,0
182,-524,0,0,0,0,0,0,0,0,0,-1,1406,1548,0,0
189,-524,0,0,0,0,0,0,0,0,0,-1,1413,1548,0,0
196,-524,0,0,0,0,0,0,0,0,0,-1,1420,1548,0,0
203,-524,0,0,0,0,0,0,0,0,0,-1,1427,1548,0,0
210,-524,0,0,0,0,0,0,0,0,0,-1,1434,1548,0,0
217,-524,0,0,0,0,0,0,0,0,0,-1,1441,1548,0,0
224,-524,0,0,0,0,0,0,0,0,0,-1,1448,1548,0,0
231,-524,0,0,0,0,0,0,0,0,0,-1,1455,1548,0,0
238,-524,0,0,0,0,0,0,0,0,0,-1,1462,1548,0,0
245,-524,0,0,0,0,0,0,0,0,0,-1,1469,1548,0,0
252,-524,0,0,0,0,0,0,0,0,0,-1,1476,1548,0,0
259,-524,0,0,0,0,0,0,0,0,0,-1,1483,1548,0,0
266,-524,0,0,0,0,0,0,0,0,0,-1,1490,1548,0,0
273,-524,0,0,0,0,0,0,0,0,0,-1,1497,1548,0,0
280,-524,0,0,0,0,0,0,0,0,0,-1,1504,1548,0,0
287,-524,0,0,0,0,0,0,0,0,0,-1,1511,1548,0,0
294,-524,0,0,0,0,0,0,0,0,0,-1,1518,1548,0,0
301,-524,0,0,0,0,0,0,0,0,0,-1,1525,1548,0,0
308,-524,0,0,0,0,0,0,0,0,0,-1,1532,1548,0,0
315,-524,0,0,0,0,0,0,0,0,0,-1,1539,1548,0,0
322,-524,0,0,0,0,0,0,0,0,0,-1,1546,1548,0,0
329,-524,0,0,0,0,0,0,0,0,0,-1,1553,1548,0,0
336,-524,0,0,0,0,0,0,0,0,0,-1,1560,1548,0,0
343,-524,0,0,0,0,0,0,0,0,0,-1,1567,1548,0,0
350,-524,0,0,0,0,0,0,0,0,0,-1,1574,1548,0,0
357,-524,0,0,0,0,0,0,0,0,0,-1,1581,1548,0,0
364,-524,0,0,0,0,0,0,0,0,0,-1,1588,1548,0,0
371,-524,0,0,0,0,0,0,0,0,0,-1,1595,1548,0,0
378,-524,0,0,0,0,0,0,0,0,0,-1,1602,1548,0,0
385,-524,0,0,0,0,0,0,0,0,0,-1,1609,1548,0,0
392,-524,0,0,0,0,0,0,0,0,0,-1,1616,1548,0,0
399,-524,8.81848,5.05774,0,0,0,0,0,0,0,-1,1623,1548,8.81843,-5.05769
406,-524,8.64294,6.06799,0,0,0,0,0,0,0,-1,1630,1548,8.6429,-6.06805
413,-524,11.677,6.41858,0,0,0,0,0,0,0,-1,1637,1548,11.677,-6.41864
420,-524,11.4913,6.36401,0,0,0,0,0,0,0,-1,1644,1548,11.4913,-6.36402
427,-524,7.68335,6.17249,0,0,0,0,0,0,0,-1,1651,1548,7.68341,-6.17245
434,-524,10.432,11.6801,0,0,0,0,0,0,0,-1,1658,1548,10.432,-11.68
441,-524,8.78552,4.12305,0,0,0,0,0,0,0,-1,1665,1548,8.78553,-4.12301
448,-524,14.1854,4.78674,0,0,0,0,0,0,0,-1,1672,1548,14.1854,-4.78674
455,-524,12.4784,3.65576,0,0,0,0,0,0,0,-1,1679,1548,12.4784,-3.65572
462,-524,14.7551,9.29395,0,0,0,0,0,0,0,-1,1686,1548,14.7552,-9.29397
469,-524,16.3314,14.3779,0,0,0,0,0,0,0,-1,1693,1548,16.3314,-14.3779
476,-524,15.9106,15.1875,0,0,0,0,0,0,0,-1,1700,1548,15.9107,-15.1876
483,-524,15.2776,16.2268,0,0,0,0,0,0,0,-1,1707,1548,15.2776,-16.2269
490,-524,15.2563,18.5848,0,0,0,0,0,0,0,-1,1714,1548,15.2564,-18.5848
497,-524,17.5173,22.6123,0,0,0,0,0,0,0,-1,1721,1548,17.5174,-22.6123
504,-524,22.9382,32.3666,0,0,0,0,0,0,0,-1,1728,1548,22.9382,-32.3666
511,-524,23.3076,31.3737,0,0,0,0,0,0,0,-1,1735,1548,23.3076,-31.3736
518,-524,23.3727,30.5978,0.00764953,0.00711823,-0.00604475,0.0134345,0.00133329,-0.763439,0.00854662,0.0276141,1742,1548,23.3726,-30.5978
525,-524,23.3328,29.9686,0.00605569,0.00571319,-0.00478642,0.0106739,0.00109496,-0.767517,0.0067805,0.0145769,1749,1548,23.3328,-29.9686
532,-524,23.3093,29.2959,0.00466043,0.0044272,-0.00361782,0.00816351,0.000924114,-0.769287,0.00516195,0.010904,1756,1548,23.3094,-29.296
539,-524,23.291,28.6323,0.00360236,0.00331113,-0.00258408,0.00604492,0.000868569,-0.757252,0.00377389,0.0115732,1763,1548,23.291,-28.6323
546,-524,23.2522,28.0396,0.0027554,0.00224669,-0.00166944,0.00418975,0.000812342,-0.709801,0.00256562,0.0161386,1770,1548,23.2523,-28.0395
553,-524,23.2268,27.4325,0.00212842,0.00133189,-0.000841679,0.0026613,0.000799003,-0.564417,0.00157685,0.0284752,1777,1548,23.2269,-27.4325
560,-524,23.208,26.7454,0.00174901,0.000478894,-0.000153764,0.00176736,0.000460544,-0.118777,0.00105866,0.0345585,1784,1548,23.208,-26.7454
567,-524,23.1575,26.0872,0.00165006,-8.08327e-05,0.000222166,0.00167812,-0.000108894,0.125641,0.00115675,0.0190523,1791,1548,23.1574,-26.0872
574,-524,23.145,25.4121,0.00173286,-0.000520324,0.000437733,0.00181491,-0.000602375,0.185297,0.00145297,0.0147847,1798,1548,23.145,-25.4121
581,-524,23.1022,24.72,0.0021593,-0.000777797,0.000378263,0.00220723,-0.000825731,0.126048,0.00181062,0.0164468,1805,1548,23.1021,-24.72
588,-524,23.1364,24.0564,0.00292877,-0.000713912,1.49893e-06,0.00292877,-0.000713913,0.00041149,0.00222893,0.0286133,1812,1548,23.1363,-24.0564
595,-524,23.1801,23.2048,0,0,0,0,0,0,0,-1,1819,1548,23.18,-23.2048
602,-524,13.837,12.0682,0,0,0,0,0,0,0,-1,1826,1548,13.837,-12.0683
609,-524,13.0056,10.5138,0,0,0,0,0,0,0,-1,1833,1548,13.0056,-10.5138
616,-524,11.6941,8.65515,0,0,0,0,0,0,0,-1,1840,1548,11.6941,-8.65514
623,-524,9.38452,5.15356,0,0,0,0,0,0,0,-1,1847,1548,9.38456,-5.15359
630,-524,11.0541,3.57434,0,0,0,0,0,0,0,-1,1854,1548,11.0541,-3.57438
637,-524,11.6067,3.20728,0,0,0,0,0,0,0,-1,1861,1548,11.6067,-3.20724
644,-524,12.2134,0.727173,0,0,0,0,0,0,0,-1,1868,1548,12.2134,-0.727222
651,-524,0,0,0,0,0,0,0,0,0,-1,1875,1548,0,0
658,-524,0,0,0,0,0,0,0,0,0,-1,1882,1548,0,0
665,-524,0,0,0,0,0,0,0,0,0,-1,1889,1548,0,0
672,-524,0,0,0,0,0,0,0,0,0,-1,1896,1548,0,0
679,-524,0,0,0,0,0,0,0,0,0,-1,1903,1548,0,0
686,-524,0,0,0,0,0,0,0,0,0,-1,1910,1548,0,0
693,-524,0,0,0,0,0,0,0,0,0,-1,1917,1548,0,0
700,-524,0,0,0,0,0,0,0,0,0,-1,1924,1548,0,0
707,-524,0,0,0,0,0,0,0,0,0,-1,1931,1548,0,0
714,-524,0,0,0,0,0,0,0,0,0,-1,1938,1548,0,0
721,-524,0,0,0,0,0,0,0,0,0,-1,1945,1548,0,0
728,-524,0,0,0,0,0,0,0,0,0,-1,1952,1548,0,0
735,-524,0,0,0,0,0,0,0,0,0,-1,1959,1548,0,0
742,-524,0,0,0,0,0,0,0,0,0,-1,1966,1548,0,0
749,-524,0,0,0,0,0,0,0,0,0,-1,1973,1548,0,0
756,-524,0,0,0,0,0,0,0,0,0,-1,1980,1548,0,0
763,-524,0,0,0,0,0,0,0,0,0,-1,1987,1548,0,0
770,-524,0,0,0,0,0,0,0,0,0,-1,1994,1548,0,0
777,-524,0,0,0,0,0,0,0,0,0,-1,2001,1548,0,0
784,-524,0,0,0,0,0,0,0,0,0,-1,2008,1548,0,0
791,-524,0,0,0,0,0,0,0,0,0,-1,2015,1548,0,0
798,-524,0,0,0,0,0,0,0,0,0,-1,2022,1548,0,0
805,-524,0,0,0,0,0,0,0,0,0,-1,2029,1548,0,0
812,-524,0,0,0,0,0,0,0,0,0,-1,2036,1548,0,0
-700,-531,0,0,0,0,0,0,0,0,0,-1,524,1555,0,0
-693,-531,0,0,0,0,0,0,0,0,0,-1,531,1555,0,0
-686,-531,0,0,0,0,0,0,0,0,0,-1,538,1555,0,0
-679,-531,0,0,0,0,0,0,0,0,0,-1,545,1555,0,0
-672,-531,0,0,0,0,0,0,0,0,0,-1,552,1555,0,0
-665,-531,0,0,0,0,0,0,0,0,0,-1,559,1555,0,0
-658,-531,0,0,0,0,0,0,0,0,0,-1,566,1555,0,0
-651,-531,0,0,0,0,0,0,0,0,0,-1,573,1555,0,0
-644,-531,0,0,0,0,0,0,0,0,0,-1,580,1555,0,0
-637,-531,0,0,0,0,0,0,0,0,0,-1,587,1555,0,0
-630,-531,0,0,0,0,0,0,0,0,0,-1,594,1555,0,0
-623,-531,0,0,0,0,0,0,0,0,0,-1,601,1555,0,0
-616,-531,0,0,0,0,0,0,0,0,0,-1,608,1555,0,0
-609,-531,0,0,0,0,0,0,0,0,0,-1,615,1555,0,0
-602,-531,0,0,0,0,0,0,0,0,0,-1,622,1555,0,0
-595,-531,0,0,0,0,0,0,0,0,0,-1,629,1555,0,0
-588,-531,0,0,0,0,0,0,0,0,0,-1,636,1555,0,0
-581,-531,0,0,0,0,0,0,0,0,0,-1,643,1555,0,0
-574,-531,0,0,0,0,0,0,0,0,0,-1,650,1555,0,0
-567,-531,0,0,0,0,0,0,0,0,0,-1,657,1555,0,0
-560,-531,0,0,0,0,0,0,0,0,0,-1,664,1555,0,0
-553,-531,0,0,0,0,0,0,0,0,0,-1,671,1555,0,0
-546,-531,0,0,0,0,0,0,0,0,0,-1,678,1555,0,0
-539,-531,0,0,0,0,0,0,0,0,0,-1,685,1555,0,0
-532,-531,0,0,0,0,0,0,0,0,0,-1,692,1555,0,0
-525,-531,0,0,0,0,0,0,0,0,0,-1,699,1555,0,0
-518,-531,-1.63983,4.03821,0,0,0,0,0,0,0,-1,706,1555,-1.63982,-4.03821
-511,-531,-2.9682,8.07483,0,0,0,0,0,0,0,-1,713,1555,-2.9682,-8.07479
-504,-531,-2.95978,0.557861,0,0,0,0,0,0,0,-1,720,1555,-2.95978,-0.557917
-497,-531,-2.46039,8.07422,0,0,0,0,0,0,0,-1,727,1555,-2.46039,-8.07423
-490,-531,-0.423462,7.92065,0,0,0,0,0,0,0,-1,734,1555,-0.42344,-7.92066
-483,-531,-6.77216,20.0909,0,0,0,0,0,0,0,-1,741,1555,-6.77217,-20.0909
-476,-531,-6.68127,22.1953,0,0,0,0,0,0,0,-1,748,1555,-6.68125,-22.1953
-469,-531,-6.50122,22.7393,0.0447089,0.00366641,0.0187579,0.0519901,-0.00361485,0.370267,0.0359257,0.0483598,755,1555,-6.50121,-22.7393
-462,-531,-6.01172,23.597,0.0355691,0.00321865,0.0140533,0.0408212,-0.00203351,0.357658,0.0279167,0.0499611,762,1555,-6.01172,-23.597
-455,-531,-5.2066,23.6554,0.0274203,0.00276557,0.0103287,0.0311754,-0.000989525,0.348703,0.0211212,0.0488884,769,1555,-5.20662,-23.6553
-448,-531,-5.00378,24.0081,0.020287,0.00204089,0.00726394,0.0228256,-0.000497747,0.336215,0.0153857,0.0246813,776,1555,-5.00381,-24.0081
-441,-531,-5.11285,24.7019,0.014602,0.00159855,0.00506664,0.016343,-0.000142503,0.330989,0.0109432,0.0133046,783,1555,-5.11287,-24.7019
-434,-531,-5.13989,25.4131,0.0101288,0.00134822,0.00350671,0.0113574,0.00011964,0.336986,0.00753203,0.0121997,790,1555,-5.13989,-25.413
-427,-531,-5.19446,26.1041,0.00685836,0.00141066,0.00256083,0.00787312,0.000395898,0.37728,0.00512188,0.0154085,797,1555,-5.19444,-26.1042
-420,-531,-5.29749,26.7704,0.00473581,0.00154902,0.00208919,0.00576989,0.000514937,0.459613,0.00368695,0.0373422,804,1555,-5.2975,-26.7704
-413,-531,-5.29968,27.4974,0.00317096,0.00235027,0.00166847,0.0044788,0.00104242,0.664822,0.00270617,0.0349564,811,1555,-5.29967,-27.4975
-406,-531,-5.29492,28.1594,0.00234728,0.00277496,0.00186895,0.00444227,0.000679978,0.842358,0.00276289,0.0140796,818,1555,-5.29493,-28.1594
-399,-531,-5.31964,28.8334,0.00272272,0.00394409,0.0025265,0.00593266,0.000734146,0.903979,0.00373452,0.0140858,825,1555,-5.31964,-28.8334
-392,-531,-5.323,29.5021,0.00350657,0.00518933,0.00313959,0.00759833,0.00109757,0.916317,0.00474222,0.0178077,832,1555,-5.32302,-29.5021
-385,-531,-5.36871,30.1593,0.00426331,0.00625151,0.00373437,0.00912183,0.00139299,0.915483,0.00567417,0.0157898,839,1555,-5.3687,-30.1593
-378,-531,-5.42029,30.7793,0.00509742,0.00747573,0.00440363,0.0108479,0.00172521,0.917272,0.006731,0.0194081,846,1555,-5.42031,-30.7794
-371,-531,-5.41168,31.5441,0,0,0,0,0,0,0,-1,853,1555,-5.41165,-31.5441
-364,-531,-5.21686,32.4603,0,0,0,0,0,0,0,-1,860,1555,-5.21685,-32.4603
-357,-531,-4.29193,31.5354,0,0,0,0,0,0,0,-1,867,1555,-4.29191,-31.5354
-350,-531,-3.16101,27.5791,0,0,0,0,0,0,0,-1,874,1555,-3.16099,-27.5791
-343,-531,-2.90552,28.561,0,0,0,0,0,0,0,-1,881,1555,-2.90549,-28.5611
-336,-531,-2.6698,29.5398,0,0,0,0,0,0,0,-1,888,1555,-2.66983,-29.5398
-329,-531,-2.45148,30.4781,0,0,0,0,0,0,0,-1,895,1555,-2.45148,-30.4781
-322,-531,-3.25092,28.4921,0,0,0,0,0,0,0,-1,902,1555,-3.25092,-28.4921
-315,-531,-5.51929,31.7814,0,0,0,0,0,0,0,-1,909,1555,-5.51928,-31.7813
-308,-531,-1.66455,19.0624,0,0,0,0,0,0,0,-1,916,1555,-1.66455,-19.0623
-301,-531,-2.02405,18.8912,0,0,0,0,0,0,0,-1,923,1555,-2.02407,-18.8913
-294,-531,-1.3244,8.1825,0,0,0,0,0,0,0,-1,930,1555,-1.3244,-8.18251
-287,-531,-1.78192,10.1661,0,0,0,0,0,0,0,-1,937,1555,-1.78192,-10.1661
-280,-531,-2.14508,10.3945,0,0,0,0,0,0,0,-1,944,1555,-2.14506,-10.3945
-273,-531,-2.50818,10.6229,0,0,0,0,0,0,0,-1,951,1555,-2.5082,-10.6229
-266,-531,-4.97742,17.9215,0,0,0,0,0,0,0,-1,958,1555,-4.97744,-17.9215
-259,-531,0,0,0,0,0,0,0,0,0,-1,965,1555,0,0
-252,-531,0,0,0,0,0,0,0,0,0,-1,972,1555,0,0
-245,-531,0,0,0,0,0,0,0,0,0,-1,979,1555,0,0
-238,-531,0,0,0,0,0,0,0,0,0,-1,986,1555,0,0
-231,-531,0,0,0,0,0,0,0,0,0,-1,993,1555,0,0
-224,-531,0,0,0,0,0,0,0,0,0,-1,1000,1555,0,0
-217,-531,0,0,0,0,0,0,0,0,0,-1,1007,1555,0,0
-210,-531,0,0,0,0,0,0,0,0,0,-1,1014,1555,0,0
-203,-531,0,0,0,0,0,0,0,0,0,-1,1021,1555,0,0
-196,-531,0,0,0,0,0,0,0,0,0,-1,1028,1555,0,0
-189,-531,0,0,0,0,0,0,0,0,0,-1,1035,1555,0,0
-182,-531,0,0,0,0,0,0,0,0,0,-1,1042,1555,0,0
-175,-531,0,0,0,0,0,0,0,0,0,-1,1049,1555,0,0
-168,-531,0,0,0,0,0,0,0,0,0,-1,1056,1555,0,0
-161,-531,0,0,0,0,0,0,0,0,0,-1,1063,1555,0,0
-154,-531,0,0,0,0,0,0,0,0,0,-1,1070,1555,0,0
-147,-531,0,0,0,0,0,0,0,0,0,-1,1077,1555,0,0
-140,-531,0,0,0,0,0,0,0,0,0,-1,1084,1555,0,0
-133,-531,0,0,0,0,0,0,0,0,0,-1,1091,1555,0,0
-126,-531,0,0,0,0,0,0,0,0,0,-1,1098,1555,0,0
-119,-531,0,0,0,0,0,0,0,0,0,-1,1105,1555,0,0
-112,-531,0,0,0,0,0,0,0,0,0,-1,1112,1555,0,0
-105,-531,0,0,0,0,0,0,0,0,0,-1,1119,1555,0,0
-98,-531,0,0,0,0,0,0,0,0,0,-1,1126,1555,0,0
-91,-531,0,0,0,0,0,0,0,0,0,-1,1133,1555,0,0
-84,-531,0,0,0,0,0,0,0,0,0,-1,1140,1555,0,0
-77,-531,0,0,0,0,0,0,0,0,0,-1,1147,1555,0,0
-70,-531,0,0,0,0,0,0,0,0,0,-1,1154,1555,0,0
-63,-531,0,0,0,0,0,0,0,0,0,-1,1161,1555,0,0
-56,-531,0,0,0,0,0,0,0,0,0,-1,1168,1555,0,0
-49,-531,0,0,0,0,0,0,0,0,0,-1,1175,1555,0,0
-42,-531,0,0,0,0,0,0,0,0,0,-1,1182,1555,0,0
-35,-531,0,0,0,0,0,0,0,0,0,-1,1189,1555,0,0
-28,-531,0,0,0,0,0,0,0,0,0,-1,1196,1555,0,0
-21,-531,0,0,0,0,0,0,0,0,0,-1,1203,1555,0,0
-14,-531,0,0,0,0,0,0,0,0,0,-1,1210,1555,0,0
-7,-531,0,0,0,0,0,0,0,0,0,-1,1217,1555,0,0
0,-531,0,0,0,0,0,0,0,0,0,-1,1224,1555,0,0
7,-531,0,0,0,0,0,0,0,0,0,-1,1231,1555,0,0
14,-531,0,0,0,0,0,0,0,0,0,-1,1238,1555,0,0
21,-531,0,0,0,0,0,0,0,0,0,-1,1245,1555,0,0
28,-531,0,0,0,0,0,0,0,0,0,-1,1252,1555,0,0
35,-531,0,0,0,0,0,0,0,0,0,-1,1259,1555,0,0
42,-531,0,0,0,0,0,0,0,0,0,-1,1266,1555,0,0
49,-531,0,0,0,0,0,0,0,0,0,-1,1273,1555,0,0
56,-531,0,0,0,0,0,0,0,0,0,-1,1280,1555,0,0
63,-531,0,0,0,0,0,0,0,0,0,-1,1287,1555,0,0
70,-531,0,0,0,0,0,0,0,0,0,-1,1294,1555,0,0
77,-531,0,0,0,0,0,0,0,0,0,-1,1301,1555,0,0
84,-531,0,0,0,0,0,0,0,0,0,-1,1308,1555,0,0
91,-531,0,0,0,0,0,0,0,0,0,-1,1315,1555,0,0
98,-531,0,0,0,0,0,0,0,0,0,-1,1322,1555,0,0
105,-531,0,0,0,0,0,0,0,0,0,-1,1329,1555,0,0
112,-531,0,0,0,0,0,0,0,0,0,-1,1336,1555,0,0
119,-531,0,0,0,0,0,0,0,0,0,-1,1343,1555,0,0
126,-531,0,0,0,0,0,0,0,0,0,-1,1350,1555,0,0
133,-531,0,0,0,0,0,0,0,0,0,-1,1357,1555,0,0
140,-531,0,0,0,0,0,0,0,0,0,-1,1364,1555,0,0
147,-531,0,0,0,0,0,0,0,0,0,-1,1371,1555,0,0
154,-531,0,0,0,0,0,0,0,0,0,-1,1378,1555,0,0
161,-531,0,0,0,0,0,0,0,0,0,-1,1385,1555,0,0
168,-531,0,0,0,0,0,0,0,0,0,-1,1392,1555,0,0
175,-531,0,0,0,0,0,0,0,0,0,-1,1399,1555,0,0
182,-531,0,0,0,0,0,0,0,0,0,-1,1406,1555,0,0
189,-531,0,0,0,0,0,0,0,0,0,-1,1413,1555,0,0
196,-531,0,0,0,0,0,0,0,0,0,-1,1420,1555,0,0
203,-531,0,0,0,0,0,0,0,0,0,-1,1427,1555,0,0
210,-531,0,0,0,0,0,0,0,0,0,-1,1434,1555,0,0
217,-531,0,0,0,0,0,0,0,0,0,-1,1441,1555,0,0
224,-531,0,0,0,0,0,0,0,0,0,-1,1448,1555,0,0
231,-531,0,0,0,0,0,0,0,0,0,-1,1455,1555,0,0
238,-531,0,0,0,0,0,0,0,0,0,-1,1462,1555,0,0
245,-531,0,0,0,0,0,0,0,0,0,-1,1469,1555,0,0
252,-531,0,0,0,0,0,0,0,0,0,-1,1476,1555,0,0
259,-531,0,0,0,0,0,0,0,0,0,-1,1483,1555,0,0
266,-531,0,0,0,0,0,0,0,0,0,-1,1490,1555,0,0
273,-531,0,0,0,0,0,0,0,0,0,-1,1497,1555,0,0
280,-531,0,0,0,0,0,0,0,0,0,-1,1504,1555,0,0
287,-531,0,0,0,0,0,0,0,0,0,-1,1511,1555,0,0
294,-531,0,0,0,0,0,0,0,0,0,-1,1518,1555,0,0
301,-531,0,0,0,0,0,0,0,0,0,-1,1525,1555,0,0
308,-531,0,0,0,0,0,0,0,0,0,-1,1532,1555,0,0
315,-531,0,0,0,0,0,0,0,0,0,-1,1539,1555,0,0
322,-531,0,0,0,0,0,0,0,0,0,-1,1546,1555,0,0
329,-531,0,0,0,0,0,0,0,0,0,-1,1553,1555,0,0
336,-531,0,0,0,0,0,0,0,0,0,-1,1560,1555,0,0
343,-531,0,0,0,0,0,0,0,0,0,-1,1567,1555,0,0
350,-531,0,0,0,0,0,0,0,0,0,-1,1574,1555,0,0
357,-531,0,0,0,0,0,0,0,0,0,-1,1581,1555,0,0
364,-531,0,0,0,0,0,0,0,0,0,-1,1588,1555,0,0
371,-531,0,0,0,0,0,0,0,0,0,-1,1595,1555,0,0
378,-531,0,0,0,0,0,0,0,0,0,-1,1602,1555,0,0
385,-531,3.48169,1.78625,0,0,0,0,0,0,0,-1,1609,1555,3.48165,-1.78624
392,-531,10.8781,9.09204,0,0,0,0,0,0,0,-1,1616,1555,10.8781,-9.09205
399,-531,8.26306,5.29602,0,0,0,0,0,0,0,-1,1623,1555,8.26302,-5.29607
406,-531,8.26147,5.42712,0,0,0,0,0,0,0,-1,1630,1555,8.26145,-5.42716
413,-531,8.20618,5.75012,0,0,0,0,0,0,0,-1,1637,1555,8.20619,-5.75017
420,-531,7.64868,7.09558,0,0,0,0,0,0,0,-1,1644,1555,7.64867,-7.09564
427,-531,9.93054,11.8412,0,0,0,0,0,0,0,-1,1651,1555,9.93059,-11.8412
434,-531,10.244,11.7072,0,0,0,0,0,0,0,-1,1658,1555,10.244,-11.7071
441,-531,11.4528,12.9397,0,0,0,0,0,0,0,-1,1665,1555,11.4528,-12.9397
448,-531,11.928,18.8029,0,0,0,0,0,0,0,-1,1672,1555,11.928,-18.8028
455,-531,14.4877,9.67065,0,0,0,0,0,0,0,-1,1679,1555,14.4876,-9.67066
462,-531,13.5253,12.2002,0,0,0,0,0,0,0,-1,1686,1555,13.5252,-12.2002
469,-531,15.5087,15.7894,0,0,0,0,0,0,0,-1,1693,1555,15.5086,-15.7895
476,-531,14.6582,16.2264,0,0,0,0,0,0,0,-1,1700,1555,14.6582,-16.2264
483,-531,14.755,18.5994,0,0,0,0,0,0,0,-1,1707,1555,14.7551,-18.5994
490,-531,16.9362,25.4943,0,0,0,0,0,0,0,-1,1714,1555,16.9362,-25.4942
497,-531,22.438,33.0271,0,0,0,0,0,0,0,-1,1721,1555,22.438,-33.027
504,-531,22.5736,32.0836,0.00898264,0.00942795,-0.00737573,0.0165844,0.0018262,-0.800488,0.0105006,0.0428139,1728,1555,22.5737,-32.0836
511,-531,22.6737,31.3131,0.00733808,0.00737864,-0.00602836,0.0133868,0.00132996,-0.78708,0.00851587,0.0167924,1735,1555,22.6737,-31.3131
518,-531,22.6985,30.6438,0.00578859,0.0055785,-0.00457178,0.0102565,0.00111055,-0.773912,0.00649921,0.0146145,1742,1555,22.6984,-30.6438
525,-531,22.6942,30.0111,0.00442681,0.00434868,-0.00347602,0.00786398,0.000911509,-0.779779,0.00496678,0.0144473,1749,1555,22.6943,-30.0112
532,-531,22.6833,29.3473,0.00325113,0.00321502,-0.00246689,0.00570003,0.000766124,-0.781739,0.00357213,0.0113074,1756,1555,22.6834,-29.3473
539,-531,22.6449,28.6991,0.00237044,0.00227465,-0.00156279,0.00388607,0.000759017,-0.770078,0.00237843,0.0128017,1763,1555,22.6449,-28.6991
546,-531,22.5619,28.0573,0.00167702,0.0013038,-0.000713826,0.00222823,0.000752596,-0.657548,0.00130885,0.0174726,1770,1555,22.5619,-28.0572
553,-531,22.5538,27.4636,0.00119638,0.000480284,7.29167e-05,0.00120373,0.000472935,0.100451,0.00070027,0.035238,1777,1555,22.5538,-27.4636
560,-531,22.5426,26.8456,0.000984695,-0.000271923,0.000729213,0.00131895,-0.000606175,0.429796,0.00113658,0.0374428,1784,1555,22.5426,-26.8456
567,-531,22.4321,26.1117,0.00106329,-0.000781375,0.00111765,0.00159004,-0.00130812,0.440425,0.00167589,0.0210491,1791,1555,22.4321,-26.1117
574,-531,22.4464,25.4348,0.00134739,-0.00120246,0.00136801,0.00194246,-0.00179754,0.410302,0.00215983,0.0161249,1798,1555,22.4464,-25.4349
581,-531,22.4749,24.7329,0.00210337,-0.00138852,0.00125175,0.00250572,-0.00179088,0.311004,0.00249206,0.0264549,1805,1555,22.4749,-24.7329
588,-531,22.4606,23.9907,0.00332377,-0.00119925,0.000772179,0.00345196,-0.00132745,0.164516,0.00284882,0.0434655,1812,1555,22.4606,-23.9908
595,-531,22.3187,23.2197,0,0,0,0,0,0,0,-1,1819,1555,22.3188,-23.2197
602,-531,13.701,11.8346,0,0,0,0,0,0,0,-1,1826,1555,13.701,-11.8347
609,-531,10.9072,8.50903,0,0,0,0,0,0,0,-1,1833,1555,10.9073,-8.50902
616,-531,10.5723,7.17859,0,0,0,0,0,0,0,-1,1840,1555,10.5723,-7.17855
623,-531,10.0674,5.08984,0,0,0,0,0,0,0,-1,1847,1555,10.0674,-5.08981
630,-531,11.672,3.18909,0,0,0,0,0,0,0,-1,1854,1555,11.672,-3.18904
637,-531,13.2546,1.38965,0,0,0,0,0,0,0,-1,1861,1555,13.2547,-1.3896
644,-531,0,0,0,0,0,0,0,0,0,-1,1868,1555,0,0
651,-531,0,0,0,0,0,0,0,0,0,-1,1875,1555,0,0
658,-531,0,0,0,0,0,0,0,0,0,-1,1882,1555,0,0
665,-531,0,0,0,0,0,0,0,0,0,-1,1889,1555,0,0
672,-531,0,0,0,0,0,0,0,0,0,-1,1896,1555,0,0
679,-531,0,0,0,0,0,0,0,0,0,-1,1903,1555,0,0
686,-531,0,0,0,0,0,0,0,0,0,-1,1910,1555,0,0
693,-531,0,0,0,0,0,0,0,0,0,-1,1917,1555,0,0
700,-531,0,0,0,0,0,0,0,0,0,-1,1924,1555,0,0
707,-531,0,0,0,0,0,0,0,0,0,-1,1931,1555,0,0
714,-531,0,0,0,0,0,0,0,0,0,-1,1938,1555,0,0
721,-531,0,0,0,0,0,0,0,0,0,-1,1945,1555,0,0
728,-531,0,0,0,0,0,0,0,0,0,-1,1952,1555,0,0
735,-531,0,0,0,0,0,0,0,0,0,-1,1959,1555,0,0
742,-531,0,0,0,0,0,0,0,0,0,-1,1966,1555,0,0
749,-531,0,0,0,0,0,0,0,0,0,-1,1973,1555,0,0
756,-531,0,0,0,0,0,0,0,0,0,-1,1980,1555,0,0
763,-531,0,0,0,0,0,0,0,0,0,-1,1987,1555,0,0
770,-531,0,0,0,0,0,0,0,0,0,-1,1994,1555,0,0
777,-531,0,0,0,0,0,0,0,0,0,-1,2001,1555,0,0
784,-531,0,0,0,0,0,0,0,0,0,-1,2008,1555,0,0
791,-531,0,0,0,0,0,0,0,0,0,-1,2015,1555,0,0
798,-531,0,0,0,0,0,0,0,0,0,-1,2022,1555,0,0
805,-531,0,0,0,0,0,0,0,0,0,-1,2029,1555,0,0
812,-531,0,0,0,0,0,0,0,0,0,-1,2036,1555,0,0
-700,-538,0,0,0,0,0,0,0,0,0,-1,524,1562,0,0
-693,-538,0,0,0,0,0,0,0,0,0,-1,531,1562,0,0
-686,-538,0,0,0,0,0,0,0,0,0,-1,538,1562,0,0
-679,-538,0,0,0,0,0,0,0,0,0,-1,545,1562,0,0
-672,-538,0,0,0,0,0,0,0,0,0,-1,552,1562,0,0
-665,-538,0,0,0,0,0,0,0,0,0,-1,559,1562,0,0
-658,-538,0,0,0,0,0,0,0,0,0,-1,566,1562,0,0
-651,-538,0,0,0,0,0,0,0,0,0,-1,573,1562,0,0
-644,-538,0,0,0,0,0,0,0,0,0,-1,580,1562,0,0
-637,-538,0,0,0,0,0,0,0,0,0,-1,587,1562,0,0
-630,-538,0,0,0,0,0,0,0,0,0,-1,594,1562,0,0
-623,-538,0,0,0,0,0,0,0,0,0,-1,601,1562,0,0
-616,-538,0,0,0,0,0,0,0,0,0,-1,608,1562,0,0
-609,-538,0,0,0,0,0,0,0,0,0,-1,615,1562,0,0
-602,-538,0,0,0,0,0,0,0,0,0,-1,622,1562,0,0
-595,-538,0,0,0,0,0,0,0,0,0,-1,629,1562,0,0
-588,-538,0,0,0,0,0,0,0,0,0,-1,636,1562,0,0
-581,-538,0,0,0,0,0,0,0,0,0,-1,643,1562,0,0
-574,-538,0,0,0,0,0,0,0,0,0,-1,650,1562,0,0
-567,-538,0,0,0,0,0,0,0,0,0,-1,657,1562,0,0
-560,-538,0,0,0,0,0,0,0,0,0,-1,664,1562,0,0
-553,-538,0,0,0,0,0,0,0,0,0,-1,671,1562,0,0
-546,-538,0,0,0,0,0,0,0,0,0,-1,678,1562,0,0
-539,-538,0,0,0,0,0,0,0,0,0,-1,685,1562,0,0
-532,-538,0,0,0,0,0,0,0,0,0,-1,692,1562,0,0
-525,-538,0,0,0,0,0,0,0,0,0,-1,699,1562,0,0
-518,-538,0,0,0,0,0,0,0,0,0,-1,706,1562,0,0
-511,-538,-2.6582,-1.54321,0,0,0,0,0,0,0,-1,713,1562,-2.65821,1.54327
-504,-538,-2.66455,-0.71167,0,0,0,0,0,0,0,-1,720,1562,-2.66456,0.711667
-497,-538,-0.763855,6.77747,0,0,0,0,0,0,0,-1,727,1562,-0.76385,-6.77743
-490,-538,-2.70453,8.01465,0,0,0,0,0,0,0,-1,734,1562,-2.70451,-8.0147
-483,-538,-0.933533,7.84644,0,0,0,0,0,0,0,-1,741,1562,-0.933548,-7.84638
-476,-538,-3.29962,15.8307,0,0,0,0,0,0,0,-1,748,1562,-3.29962,-15.8306
-469,-538,-6.60828,23.1887,0,0,0,0,0,0,0,-1,755,1562,-6.60829,-23.1887
-462,-538,-5.47748,22.3617,0.045899,0.0073291,0.0184764,0.0533215,-9.33837e-05,0.381995,0.0355788,0.0469441,762,1562,-5.47748,-22.3617
-455,-538,-4.72424,23.6763,0.03484,0.00587212,0.0134681,0.0401342,0.000577904,0.374537,0.0265656,0.0439229,769,1562,-4.72426,-23.6763
-448,-538,-4.26782,24.2037,0.0254333,0.00415545,0.00939416,0.0289872,0.000601521,0.361671,0.0191275,0.0249506,776,1562,-4.26781,-24.2037
-441,-538,-4.3847,24.8854,0.0181614,0.00298718,0.00650089,0.0205656,0.000583004,0.354224,0.0135202,0.028318,783,1562,-4.38468,-24.8854
-434,-538,-4.48608,25.4337,0.0124807,0.00199411,0.00436189,0.0140579,0.000416978,0.346945,0.00923605,0.0145626,790,1562,-4.48609,-25.4337
-427,-538,-4.54297,26.157,0.00837783,0.00159136,0.00304798,0.00954576,0.000423426,0.365924,0.0062275,0.0144302,797,1562,-4.54295,-26.157
-420,-538,-4.57861,26.8147,0.00565042,0.00135802,0.00227488,0.00663172,0.000376714,0.407248,0.00430108,0.0192352,804,1562,-4.57862,-26.8147
-413,-538,-4.59119,27.4781,0.00351076,0.00193878,0.00148137,0.00440174,0.0010478,0.541491,0.00265506,0.0197113,811,1562,-4.59121,-27.4781
-406,-538,-4.61926,28.1494,0.00202158,0.00177587,0.00134494,0.00324927,0.000548179,0.739852,0.00200854,0.016057,818,1562,-4.61928,-28.1494
-399,-538,-4.64941,28.8365,0.00196158,0.00268689,0.00180275,0.0041631,0.000485369,0.884657,0.00262859,0.0145093,825,1562,-4.64943,-28.8365
-392,-538,-4.64148,29.531,0.00251757,0.00364212,0.00223447,0.00538397,0.00077572,0.908657,0.00336072,0.0157679,832,1562,-4.6415,-29.5311
-385,-538,-4.68671,30.2123,0.00315766,0.00451736,0.00263509,0.00655889,0.00111613,0.911645,0.00405212,0.0135174,839,1562,-4.68668,-30.2123
-378,-538,-4.72681,30.8715,0.00381944,0.00549963,0.00306416,0.00783677,0.0014823,0.919194,0.0048072,0.0105094,846,1562,-4.72683,-30.8714
-371,-538,-4.7666,31.5198,0.00459134,0.00657213,0.00352289,0.00924119,0.00192227,0.922427,0.0056305,0.0146041,853,1562,-4.76658,-31.5198
-364,-538,-4.71063,32.2827,0.00547692,0.00776884,0.00406482,0.0108461,0.00239961,0.922793,0.00657843,0.0213237,860,1562,-4.71065,-32.2827
-357,-538,-4.56311,33.101,0,0,0,0,0,0,0,-1,867,1562,-4.56312,-33.101
-350,-538,-4.49548,34.1931,0,0,0,0,0,0,0,-1,874,1562,-4.49547,-34.1931
-343,-538,-2.47339,28.3082,0,0,0,0,0,0,0,-1,881,1562,-2.47341,-28.3083
-336,-538,-2.40161,28.5409,0,0,0,0,0,0,0,-1,888,1562,-2.40163,-28.541
-329,-538,-2.57159,28.4905,0,0,0,0,0,0,0,-1,895,1562,-2.57161,-28.4905
-322,-538,-2.83783,28.2308,0,0,0,0,0,0,0,-1,902,1562,-2.83783,-28.2308
-315,-538,-2.91827,27.7609,0,0,0,0,0,0,0,-1,909,1562,-2.91829,-27.7608
-308,-538,-4.37433,31.7996,0,0,0,0,0,0,0,-1,916,1562,-4.3743,-31.7995
-301,-538,-0.452393,18.5101,0,0,0,0,0,0,0,-1,923,1562,-0.452367,-18.5102
-294,-538,1.23138,14.0757,0,0,0,0,0,0,0,-1,930,1562,1.23137,-14.0757
-287,-538,-2.60419,10.2361,0,0,0,0,0,0,0,-1,937,1562,-2.6042,-10.2361
-280,-538,-2.93475,10.5106,0,0,0,0,0,0,0,-1,944,1562,-2.93475,-10.5106
-273,-538,-3.26532,10.785,0,0,0,0,0,0,0,-1,951,1562,-3.26531,-10.785
-266,-538,-5.03412,15.9951,0,0,0,0,0,0,0,-1,958,1562,-5.03409,-15.9951
-259,-538,-5.89642,16.5184,0,0,0,0,0,0,0,-1,965,1562,-5.89644,-16.5184
-252,-538,0,0,0,0,0,0,0,0,0,-1,972,1562,0,0
-245,-538,0,0,0,0,0,0,0,0,0,-1,979,1562,0,0
-238,-538,0,0,0,0,0,0,0,0,0,-1,986,1562,0,0
-231,-538,0,0,0,0,0,0,0,0,0,-1,993,1562,0,0
-224,-538,0,0,0,0,0,0,0,0,0,-1,1000,1562,0,0
-217,-538,0,0,0,0,0,0,0,0,0,-1,1007,1562,0,0
-210,-538,0,0,0,0,0,0,0,0,0,-1,1014,1562,0,0
-203,-538,0,0,0,0,0,0,0,0,0,-1,1021,1562,0,0
-196,-538,0,0,0,0,0,0,0,0,0,-1,1028,1562,0,0
-189,-538,0,0,0,0,0,0,0,0,0,-1,1035,1562,0,0
-182,-538,0,0,0,0,0,0,0,0,0,-1,1042,1562,0,0
-175,-538,0,0,0,0,0,0,0,0,0,-1,1049,1562,0,0
-168,-538,0,0,0,0,0,0,0,0,0,-1,1056,1562,0,0
-161,-538,0,0,0,0,0,0,0,0,0,-1,1063,1562,0,0
-154,-538,0,0,0,0,0,0,0,0,0,-1,1070,1562,0,0
-147,-538,0,0,0,0,0,0,0,0,0,-1,1077,1562,0,0
-140,-538,0,0,0,0,0,0,0,0,0,-1,1084,1562,0,0
-133,-538,0,0,0,0,0,0,0,0,0,-1,1091,1562,0,0
-126,-538,0,0,0,0,0,0,0,0,0,-1,1098,1562,0,0
-119,-538,0,0,0,0,0,0,0,0,0,-1,1105,1562,0,0
-112,-538,0,0,0,0,0,0,0,0,0,-1,1112,1562,0,0
-105,-538,0,0,0,0,0,0,0,0,0,-1,1119,1562,0,0
-98,-538,0,0,0,0,0,0,0,0,0,-1,1126,1562,0,0
-91,-538,0,0,0,0,0,0,0,0,0,-1,1133,1562,0,0
-84,-538,0,0,0,0,0,0,0,0,0,-1,1140,1562,0,0
-77,-538,0,0,0,0,0,0,0,0,0,-1,1147,1562,0,0
-70,-538,0,0,0,0,0,0,0,0,0,-1,1154,1562,0,0
-63,-538,0,0,0,0,0,0,0,0,0,-1,1161,1562,0,0
-56,-538,0,0,0,0,0,0,0,0,0,-1,1168,1562,0,0
-49,-538,0,0,0,0,0,0,0,0,0,-1,1175,1562,0,0
-42,-538,0,0,0,0,0,0,0,0,0,-1,1182,1562,0,0
-35,-538,0,0,0,0,0,0,0,0,0,-1,1189,1562,0,0
-28,-538,0,0,0,0,0,0,0,0,0,-1,1196,1562,0,0
-21,-538,0,0,0,0,0,0,0,0,0,-1,1203,1562,0,0
-14,-538,0,0,0,0,0,0,0,0,0,-1,1210,1562,0,0
-7,-538,0,0,0,0,0,0,0,0,0,-1,1217,1562,0,0
0,-538,0,0,0,0,0,0,0,0,0,-1,1224,1562,0,0
7,-538,0,0,0,0,0,0,0,0,0,-1,1231,1562,0,0
14,-538,0,0,0,0,0,0,0,0,0,-1,1238,1562,0,0
21,-538,0,0,0,0,0,0,0,0,0,-1,1245,1562,0,0
28,-538,0,0,0,0,0,0,0,0,0,-1,1252,1562,0,0
35,-538,0,0,0,0,0,0,0,0,0,-1,1259,1562,0,0
42,-538,0,0,0,0,0,0,0,0,0,-1,1266,1562,0,0
49,-538,0,0,0,0,0,0,0,0,0,-1,1273,1562,0,0
56,-538,0,0,0,0,0,0,0,0,0,-1,1280,1562,0,0
63,-538,0,0,0,0,0,0,0,0,0,-1,1287,1562,0,0
70,-538,0,0,0,0,0,0,0,0,0,-1,1294,1562,0,0
77,-538,0,0,0,0,0,0,0,0,0,-1,1301,1562,0,0
84,-538,0,0,0,0,0,0,0,0,0,-1,1308,1562,0,0
91,-538,0,0,0,0,0,0,0,0,0,-1,1315,1562,0,0
98,-538,0,0,0,0,0,0,0,0,0,-1,1322,1562,0,0
105,-538,0,0,0,0,0,0,0,0,0,-1,1329,1562,0,0
112,-538,0,0,0,0,0,0,0,0,0,-1,1336,1562,0,0
119,-538,0,0,0,0,0,0,0,0,0,-1,1343,1562,0,0
126,-538,0,0,0,0,0,0,0,0,0,-1,1350,1562,0,0
133,-538,0,0,0,0,0,0,0,0,0,-1,1357,1562,0,0
140,-538,0,0,0,0,0,0,0,0,0,-1,1364,1562,0,0
147,-538,0,0,0,0,0,0,0,0,0,-1,1371,1562,0,0
154,-538,0,0,0,0,0,0,0,0,0,-1,1378,1562,0,0
161,-538,0,0,0,0,0,0,0,0,0,-1,1385,1562,0,0
168,-538,0,0,0,0,0,0,0,0,0,-1,1392,1562,0,0
175,-538,0,0,0,0,0,0,0,0,0,-1,1399,1562,0,0
182,-538,0,0,0,0,0,0,0,0,0,-1,1406,1562,0,0
189,-538,0,0,0,0,0,0,0,0,0,-1,1413,1562,0,0
196,-538,0,0,0,0,0,0,0,0,0,-1,1420,1562,0,0
203,-538,0,0,0,0,0,0,0,0,0,-1,1427,1562,0,0
210,-538,0,0,0,0,0,0,0,0,0,-1,1434,1562,0,0
217,-538,0,0,0,0,0,0,0,0,0,-1,1441,1562,0,0
224,-538,0,0,0,0,0,0,0,0,0,-1,1448,1562,0,0
231,-538,0,0,0,0,0,0,0,0,0,-1,1455,1562,0,0
238,-538,0,0,0,0,0,0,0,0,0,-1,1462,1562,0,0
245,-538,0,0,0,0,0,0,0,0,0,-1,1469,1562,0,0
252,-538,0,0,0,0,0,0,0,0,0,-1,1476,1562,0,0
259,-538,0,0,0,0,0,0,0,0,0,-1,1483,1562,0,0
266,-538,0,0,0,0,0,0,0,0,0,-1,1490,1562,0,0
273,-538,0,0,0,0,0,0,0,0,0,-1,1497,1562,0,0
280,-538,0,0,0,0,0,0,0,0,0,-1,1504,1562,0,0
287,-538,0,0,0,0,0,0,0,0,0,-1,1511,1562,0,0
294,-538,0,0,0,0,0,0,0,0,0,-1,1518,1562,0,0
301,-538,0,0,0,0,0,0,0,0,0,-1,1525,1562,0,0
308,-538,0,0,0,0,0,0,0,0,0,-1,1532,1562,0,0
315,-538,0,0,0,0,0,0,0,0,0,-1,1539,1562,0,0
322,-538,0,0,0,0,0,0,0,0,0,-1,1546,1562,0,0
329,-538,0,0,0,0,0,0,0,0,0,-1,1553,1562,0,0
336,-538,0,0,0,0,0,0,0,0,0,-1,1560,1562,0,0
343,-538,0,0,0,0,0,0,0,0,0,-1,1567,1562,0,0
350,-538,0,0,0,0,0,0,0,0,0,-1,1574,1562,0,0
357,-538,0,0,0,0,0,0,0,0,0,-1,1581,1562,0,0
364,-538,0,0,0,0,0,0,0,0,0,-1,1588,1562,0,0
371,-538,0,0,0,0,0,0,0,0,0,-1,1595,1562,0,0
378,-538,9.65479,5.82434,0,0,0,0,0,0,0,-1,1602,1562,9.6548,-5.82439
385,-538,10.5449,7.9502,0,0,0,0,0,0,0,-1,1609,1562,10.5449,-7.95014
392,-538,8.20361,7.07214,0,0,0,0,0,0,0,-1,1616,1562,8.20362,-7.07211
399,-538,7.85425,4.70508,0,0,0,0,0,0,0,-1,1623,1562,7.85425,-4.70512
406,-538,7.77734,4.96094,0,0,0,0,0,0,0,-1,1630,1562,7.77729,-4.96097
413,-538,13.0446,13.1765,0,0,0,0,0,0,0,-1,1637,1562,13.0446,-13.1765
420,-538,9.96216,12.7653,0,0,0,0,0,0,0,-1,1644,1562,9.96221,-12.7653
427,-538,10.1732,14.5863,0,0,0,0,0,0,0,-1,1651,1562,10.1732,-14.5863
434,-538,9.64331,14.7745,0,0,0,0,0,0,0,-1,1658,1562,9.64326,-14.7746
441,-538,11.5039,20.5195,0,0,0,0,0,0,0,-1,1665,1562,11.5039,-20.5195
448,-538,12.8766,22.4932,0,0,0,0,0,0,0,-1,1672,1562,12.8766,-22.4932
455,-538,12.5693,17.4128,0,0,0,0,0,0,0,-1,1679,1562,12.5694,-17.4128
462,-538,12.1389,17.017,0,0,0,0,0,0,0,-1,1686,1562,12.1389,-17.017
469,-538,14.3802,16.6945,0,0,0,0,0,0,0,-1,1693,1562,14.3803,-16.6945
476,-538,13.724,19.0608,0,0,0,0,0,0,0,-1,1700,1562,13.724,-19.0608
483,-538,17.088,25.2936,0,0,0,0,0,0,0,-1,1707,1562,17.088,-25.2936
490,-538,21.8922,33.4032,0,0,0,0,0,0,0,-1,1714,1562,21.8922,-33.4032
497,-538,22.0852,32.5933,0,0,0,0,0,0,0,-1,1721,1562,22.0852,-32.5932
504,-538,22.0922,31.9021,0.00697889,0.00760255,-0.00582674,0.0131258,0.00145564,-0.812131,0.00830794,0.0174956,1728,1562,22.0922,-31.9021
511,-538,22.0538,31.2993,0.00556093,0.00578415,-0.00459678,0.0102707,0.00107441,-0.797536,0.00651856,0.0106341,1735,1562,22.0539,-31.2993
518,-538,22.0452,30.6785,0.00421772,0.00416021,-0.00329616,0.00748525,0.000892678,-0.781036,0.00472082,0.0119572,1742,1562,22.0452,-30.6784
525,-538,22.0286,30.022,0.00308103,0.00309887,-0.00231614,0.0054061,0.000773796,-0.787323,0.00337583,0.0132179,1749,1562,22.0285,-30.0219
532,-538,22.0172,29.3807,0.00211181,0.00210834,-0.00140839,0.00351847,0.000701684,-0.784783,0.00215026,0.0145481,1756,1562,22.0172,-29.3808
539,-538,21.9768,28.7515,0.00137664,0.00131751,-0.000574392,0.00192223,0.000771921,-0.759687,0.00111694,0.0175179,1763,1562,21.9769,-28.7514
546,-538,21.916,28.0726,0.000796212,0.000443091,0.000259361,0.000933406,0.000305897,0.486553,0.000549462,0.0188397,1770,1562,21.916,-28.0726
553,-538,21.9211,27.3862,0.000409642,-0.000297372,0.00105351,0.00116737,-0.0010551,0.623525,0.00128369,0.0303855,1777,1562,21.9212,-27.3862
560,-538,21.826,26.8101,0.00029111,-0.000944341,0.00172928,0.00150969,-0.00216292,0.613854,0.00213153,0.0344007,1784,1562,21.8261,-26.8101
567,-538,21.7592,26.1904,0.000453538,-0.00141496,0.0022003,0.00190972,-0.00287114,0.584632,0.00277877,0.0262991,1791,1562,21.7591,-26.1904
574,-538,21.6849,25.4924,0.000846351,-0.0018296,0.00255698,0.00239426,-0.00337752,0.544356,0.00334842,0.0323658,1798,1562,21.685,-25.4925
581,-538,21.764,24.8118,0.00185624,-0.00194533,0.00242483,0.00303649,-0.00312558,0.45298,0.0035578,0.0475717,1805,1562,21.7641,-24.8118
588,-538,22.0742,24.1162,0,0,0,0,0,0,0,-1,1812,1562,22.0743,-24.1162
595,-538,15.9808,16.0894,0,0,0,0,0,0,0,-1,1819,1562,15.9808,-16.0893
602,-538,10.314,8.94238,0,0,0,0,0,0,0,-1,1826,1562,10.314,-8.94238
609,-538,10.1046,7.05713,0,0,0,0,0,0,0,-1,1833,1562,10.1046,-7.05719
616,-538,9.92249,5.43506,0,0,0,0,0,0,0,-1,1840,1562,9.92254,-5.43507
623,-538,11.1711,4.31604,0,0,0,0,0,0,0,-1,1847,1562,11.1711,-4.316
630,-538,12.6112,2.61633,0,0,0,0,0,0,0,-1,1854,1562,12.6112,-2.61637
637,-538,0,0,0,0,0,0,0,0,0,-1,1861,1562,0,0
644,-538,0,0,0,0,0,0,0,0,0,-1,1868,1562,0,0
651,-538,0,0,0,0,0,0,0,0,0,-1,1875,1562,0,0
658,-538,0,0,0,0,0,0,0,0,0,-1,1882,1562,0,0
665,-538,0,0,0,0,0,0,0,0,0,-1,1889,1562,0,0
672,-538,0,0,0,0,0,0,0,0,0,-1,1896,1562,0,0
679,-538,0,0,0,0,0,0,0,0,0,-1,1903,1562,0,0
686,-538,0,0,0,0,0,0,0,0,0,-1,1910,1562,0,0
693,-538,0,0,0,0,0,0,0,0,0,-1,1917,1562,0,0
700,-538,0,0,0,0,0,0,0,0,0,-1,1924,1562,0,0
707,-538,0,0,0,0,0,0,0,0,0,-1,1931,1562,0,0
714,-538,0,0,0,0,0,0,0,0,0,-1,1938,1562,0,0
721,-538,0,0,0,0,0,0,0,0,0,-1,1945,1562,0,0
728,-538,0,0,0,0,0,0,0,0,0,-1,1952,1562,0,0
735,-538,0,0,0,0,0,0,0,0,0,-1,1959,1562,0,0
742,-538,0,0,0,0,0,0,0,0,0,-1,1966,1562,0,0
749,-538,0,0,0,0,0,0,0,0,0,-1,1973,1562,0,0
756,-538,0,0,0,0,0,0,0,0,0,-1,1980,1562,0,0
763,-538,0,0,0,0,0,0,0,0,0,-1,1987,1562,0,0
770,-538,0,0,0,0,0,0,0,0,0,-1,1994,1562,0,0
777,-538,0,0,0,0,0,0,0,0,0,-1,2001,1562,0,0
784,-538,0,0,0,0,0,0,0,0,0,-1,2008,1562,0,0
791,-538,0,0,0,0,0,0,0,0,0,-1,2015,1562,0,0
798,-538,0,0,0,0,0,0,0,0,0,-1,2022,1562,0,0
805,-538,0,0,0,0,0,0,0,0,0,-1,2029,1562,0,0
812,-538,0,0,0,0,0,0,0,0,0,-1,2036,1562,0,0
-700,-545,0,0,0,0,0,0,0,0,0,-1,524,1569,0,0
-693,-545,0,0,0,0,0,0,0,0,0,-1,531,1569,0,0
-686,-545,0,0,0,0,0,0,0,0,0,-1,538,1569,0,0
-679,-545,0,0,0,0,0,0,0,0,0,-1,545,1569,0,0
-672,-545,0,0,0,0,0,0,0,0,0,-1,552,1569,0,0
-665,-545,0,0,0,0,0,0,0,0,0,-1,559,1569,0,0
-658,-545,0,0,0,0,0,0,0,0,0,-1,566,1569,0,0
-651,-545,0,0,0,0,0,0,0,0,0,-1,573,1569,0,0
-644,-545,0,0,0,0,0,0,0,0,0,-1,580,1569,0,0
-637,-545,0,0,0,0,0,0,0,0,0,-1,587,1569,0,0
-630,-545,0,0,0,0,0,0,0,0,0,-1,594,1569,0,0
-623,-545,0,0,0,0,0,0,0,0,0,-1,601,1569,0,0
-616,-545,0,0,0,0,0,0,0,0,0,-1,608,1569,0,0
-609,-545,0,0,0,0,0,0,0,0,0,-1,615,1569,0,0
-602,-545,0,0,0,0,0,0,0,0,0,-1,622,1569,0,0
-595,-545,0,0,0,0,0,0,0,0,0,-1,629,1569,0,0
-588,-545,0,0,0,0,0,0,0,0,0,-1,636,1569,0,0
-581,-545,0,0,0,0,0,0,0,0,0,-1,643,1569,0,0
-574,-545,0,0,0,0,0,0,0,0,0,-1,650,1569,0,0
-567,-545,0,0,0,0,0,0,0,0,0,-1,657,1569,0,0
-560,-545,0,0,0,0,0,0,0,0,0,-1,664,1569,0,0
-553,-545,0,0,0,0,0,0,0,0,0,-1,671,1569,0,0
-546,-545,0,0,0,0,0,0,0,0,0,-1,678,1569,0,0
-539,-545,0,0,0,0,0,0,0,0,0,-1,685,1569,0,0
-532,-545,0,0,0,0,0,0,0,0,0,-1,692,1569,0,0
-525,-545,0,0,0,0,0,0,0,0,0,-1,699,1569,0,0
-518,-545,0,0,0,0,0,0,0,0,0,-1,706,1569,0,0
-511,-545,0,0,0,0,0,0,0,0,0,-1,713,1569,0,0
-504,-545,-3.55237,-2.5354,0,0,0,0,0,0,0,-1,720,1569,-3.55236,2.53545
-497,-545,2.26575,5.69214,0,0,0,0,0,0,0,-1,727,1569,2.26573,-5.6922
-490,-545,-2.17334,7.81396,0,0,0,0,0,0,0,-1,734,1569,-2.17334,-7.81399
-483,-545,-1.88336,5.8446,0,0,0,0,0,0,0,-1,741,1569,-1.88334,-5.84466
-476,-545,-1.13147,6.5741,0,0,0,0,0,0,0,-1,748,1569,-1.13149,-6.57405
-469,-545,-1.03412,15.8353,0,0,0,0,0,0,0,-1,755,1569,-1.03414,-15.8353
-462,-545,-5.44592,22.0533,0,0,0,0,0,0,0,-1,762,1569,-5.44594,-22.0533
-455,-545,-4.35577,23.692,0,0,0,0,0,0,0,-1,769,1569,-4.35578,-23.692
-448,-545,-3.54333,24.0645,0.0307663,0.00723601,0.0119488,0.03577,0.00223233,0.396572,0.0231385,0.0363287,776,1569,-3.54331,-24.0645
-441,-545,-3.57758,24.9958,0.0217095,0.00503426,0.00822344,0.0250826,0.00166116,0.389252,0.0161964,0.0330015,783,1569,-3.57756,-24.9958
-434,-545,-3.90198,25.5313,0.0146673,0.00296011,0.0053823,0.0167657,0.000861743,0.371739,0.0109012,0.029656,790,1569,-3.902,-25.5313
-427,-545,-3.86096,26.1974,0.00971409,0.00196144,0.00366028,0.0111691,0.00050639,0.37837,0.00728316,0.0226541,797,1569,-3.86099,-26.1974
-420,-545,-3.84717,26.839,0.00640037,0.00131222,0.00256935,0.00747208,0.000240513,0.395171,0.00490318,0.0250506,804,1569,-3.84717,-26.839
-413,-545,-3.88855,27.493,0.00373294,0.00161723,0.00143512,0.00445795,0.000892216,0.467795,0.00272372,0.0236529,811,1569,-3.88855,-27.493
-406,-545,-3.92926,28.183,0.0016853,0.000891218,0.00100489,0.00236875,0.000207773,0.597257,0.00151467,0.0174094,818,1569,-3.92924,-28.1829
-399,-545,-3.94348,28.8463,0.00128843,0.00156492,0.00129176,0.00272581,0.000127543,0.838705,0.00177622,0.0129049,825,1569,-3.94349,-28.8463
-392,-545,-3.97778,29.5211,0.00169812,0.00228211,0.00159432,0.00361095,0.000369284,0.875968,0.00229413,0.0122392,832,1569,-3.97779,-29.5212
-385,-545,-4.00616,30.2208,0.00228781,0.00303044,0.00187436,0.00456991,0.000748342,0.883183,0.00283033,0.00997336,839,1569,-4.00616,-30.2208
-378,-545,-4.06421,30.8981,0.00286291,0.00384572,0.00215715,0.00556672,0.0011419,0.897389,0.00339514,0.0114958,846,1569,-4.06423,-30.8981
-371,-545,-4.09058,31.5991,0.00346747,0.00466754,0.00245432,0.00659411,0.0015409,0.905287,0.00398306,0.0153329,853,1569,-4.09055,-31.5991
-364,-545,-4.1073,32.2249,0.00420348,0.00572028,0.0028779,0.00793803,0.00198573,0.914232,0.00476994,0.0116666,860,1569,-4.10729,-32.2248
-357,-545,-4.04364,32.9862,0.00496745,0.00684369,0.00331448,0.00935025,0.00246089,0.92331,0.00559656,0.0224859,867,1569,-4.04362,-32.9862
-350,-545,-3.99463,33.7623,0.00589626,0.00810636,0.00388062,0.0110362,0.00296642,0.924107,0.00659493,0.0377788,874,1569,-3.99461,-33.7623
-343,-545,-3.8598,34.4115,0,0,0,0,0,0,0,-1,881,1569,-3.85981,-34.4115
-336,-545,-3.7262,34.6897,0,0,0,0,0,0,0,-1,888,1569,-3.72619,-34.6896
-329,-545,-2.03595,27.8694,0,0,0,0,0,0,0,-1,895,1569,-2.03592,-27.8694
-322,-545,-2.42474,27.9695,0,0,0,0,0,0,0,-1,902,1569,-2.42474,-27.9695
-315,-545,-2.52954,30.1711,0,0,0,0,0,0,0,-1,909,1569,-2.52951,-30.1712
-308,-545,-1.54358,21.4457,0,0,0,0,0,0,0,-1,916,1569,-1.54357,-21.4457
-301,-545,1.52191,17.5009,0,0,0,0,0,0,0,-1,923,1569,1.52192,-17.5008
-294,-545,-2.69287,8.42102,0,0,0,0,0,0,0,-1,930,1569,-2.69287,-8.42097
-287,-545,-3.47784,9.96021,0,0,0,0,0,0,0,-1,937,1569,-3.47785,-9.96021
-280,-545,-3.7879,10.5448,0,0,0,0,0,0,0,-1,944,1569,-3.78793,-10.5448
-273,-545,-5.10333,12.864,0,0,0,0,0,0,0,-1,951,1569,-5.10331,-12.864
-266,-545,-5.78955,13.3704,0,0,0,0,0,0,0,-1,958,1569,-5.78952,-13.3703
-259,-545,-6.32184,13.8101,0,0,0,0,0,0,0,-1,965,1569,-6.32182,-13.81
-252,-545,0.369263,7.54053,0,0,0,0,0,0,0,-1,972,1569,0.369276,-7.54056
-245,-545,-0.236633,6.65564,0,0,0,0,0,0,0,-1,979,1569,-0.236605,-6.65566
-238,-545,0,0,0,0,0,0,0,0,0,-1,986,1569,0,0
-231,-545,0,0,0,0,0,0,0,0,0,-1,993,1569,0,0
-224,-545,0,0,0,0,0,0,0,0,0,-1,1000,1569,0,0
-217,-545,0,0,0,0,0,0,0,0,0,-1,1007,1569,0,0
-210,-545,0,0,0,0,0,0,0,0,0,-1,1014,1569,0,0
-203,-545,0,0,0,0,0,0,0,0,0,-1,1021,1569,0,0
-196,-545,0,0,0,0,0,0,0,0,0,-1,1028,1569,0,0
-189,-545,0,0,0,0,0,0,0,0,0,-1,1035,1569,0,0
-182,-545,0,0,0,0,0,0,0,0,0,-1,1042,1569,0,0
-175,-545,0,0,0,0,0,0,0,0,0,-1,1049,1569,0,0
-168,-545,0,0,0,0,0,0,0,0,0,-1,1056,1569,0,0
-161,-545,0,0,0,0,0,0,0,0,0,-1,1063,1569,0,0
-154,-545,0,0,0,0,0,0,0,0,0,-1,1070,1569,0,0
-147,-545,0,0,0,0,0,0,0,0,0,-1,1077,1569,0,0
-140,-545,0,0,0,0,0,0,0,0,0,-1,1084,1569,0,0
-133,-545,0,0,0,0,0,0,0,0,0,-1,1091,1569,0,0
-126,-545,0,0,0,0,0,0,0,0,0,-1,1098,1569,0,0
-119,-545,0,0,0,0,0,0,0,0,0,-1,1105,1569,0,0
-112,-545,0,0,0,0,0,0,0,0,0,-1,1112,1569,0,0
-105,-545,0,0,0,0,0,0,0,0,0,-1,1119,1569,0,0
-98,-545,0,0,0,0,0,0,0,0,0,-1,1126,1569,0,0
-91,-545,0,0,0,0,0,0,0,0,0,-1,1133,1569,0,0
-84,-545,0,0,0,0,0,0,0,0,0,-1,1140,1569,0,0
-77,-545,0,0,0,0,0,0,0,0,0,-1,1147,1569,0,0
-70,-545,0,0,0,0,0,0,0,0,0,-1,1154,1569,0,0
-63,-545,0,0,0,0,0,0,0,0,0,-1,1161,1569,0,0
-56,-545,0,0,0,0,0,0,0,0,0,-1,1168,1569,0,0
-49,-545,0,0,0,0,0,0,0,0,0,-1,1175,1569,0,0
-42,-545,0,0,0,0,0,0,0,0,0,-1,1182,1569,0,0
-35,-545,0,0,0,0,0,0,0,0,0,-1,1189,1569,0,0
-28,-545,0,0,0,0,0,0,0,0,0,-1,1196,1569,0,0
-21,-545,0,0,0,0,0,0,0,0,0,-1,1203,1569,0,0
-14,-545,0,0,0,0,0,0,0,0,0,-1,1210,1569,0,0
-7,-545,0,0,0,0,0,0,0,0,0,-1,1217,1569,0,0
0,-545,0,0,0,0,0,0,0,0,0,-1,1224,1569,0,0
7,-545,0,0,0,0,0,0,0,0,0,-1,1231,1569,0,0
14,-545,0,0,0,0,0,0,0,0,0,-1,1238,1569,0,0
21,-545,0,0,0,0,0,0,0,0,0,-1,1245,1569,0,0
28,-545,0,0,0,0,0,0,0,0,0,-1,1252,1569,0,0
35,-545,0,0,0,0,0,0,0,0,0,-1,1259,1569,0,0
42,-545,0,0,0,0,0,0,0,0,0,-1,1266,1569,0,0
49,-545,0,0,0,0,0,0,0,0,0,-1,1273,1569,0,0
56,-545,0,0,0,0,0,0,0,0,0,-1,1280,1569,0,0
63,-545,0,0,0,0,0,0,0,0,0,-1,1287,1569,0,0
70,-545,0,0,0,0,0,0,0,0,0,-1,1294,1569,0,0
77,-545,0,0,0,0,0,0,0,0,0,-1,1301,1569,0,0
84,-545,0,0,0,0,0,0,0,0,0,-1,1308,1569,0,0
91,-545,0,0,0,0,0,0,0,0,0,-1,1315,1569,0,0
98,-545,0,0,0,0,0,0,0,0,0,-1,1322,1569,0,0
105,-545,0,0,0,0,0,0,0,0,0,-1,1329,1569,0,0
112,-545,0,0,0,0,0,0,0,0,0,-1,1336,1569,0,0
119,-545,0,0,0,0,0,0,0,0,0,-1,1343,1569,0,0
126,-545,0,0,0,0,0,0,0,0,0,-1,1350,1569,0,0
133,-545,0,0,0,0,0,0,0,0,0,-1,1357,1569,0,0
140,-545,0,0,0,0,0,0,0,0,0,-1,1364,1569,0,0
147,-545,0,0,0,0,0,0,0,0,0,-1,1371,1569,0,0
154,-545,0,0,0,0,0,0,0,0,0,-1,1378,1569,0,0
161,-545,0,0,0,0,0,0,0,0,0,-1,1385,1569,0,0
168,-545,0,0,0,0,0,0,0,0,0,-1,1392,1569,0,0
175,-545,0,0,0,0,0,0,0,0,0,-1,1399,1569,0,0
182,-545,0,0,0,0,0,0,0,0,0,-1,1406,1569,0,0
189,-545,0,0,0,0,0,0,0,0,0,-1,1413,1569,0,0
196,-545,0,0,0,0,0,0,0,0,0,-1,1420,1569,0,0
203,-545,0,0,0,0,0,0,0,0,0,-1,1427,1569,0,0
210,-545,0,0,0,0,0,0,0,0,0,-1,1434,1569,0,0
217,-545,0,0,0,0,0,0,0,0,0,-1,1441,1569,0,0
224,-545,0,0,0,0,0,0,0,0,0,-1,1448,1569,0,0
231,-545,0,0,0,0,0,0,0,0,0,-1,1455,1569,0,0
238,-545,0,0,0,0,0,0,0,0,0,-1,1462,1569,0,0
245,-545,0,0,0,0,0,0,0,0,0,-1,1469,1569,0,0
252,-545,0,0,0,0,0,0,0,0,0,-1,1476,1569,0,0
259,-545,0,0,0,0,0,0,0,0,0,-1,1483,1569,0,0
266,-545,0,0,0,0,0,0,0,0,0,-1,1490,1569,0,0
273,-545,0,0,0,0,0,0,0,0,0,-1,1497,1569,0,0
280,-545,0,0,0,0,0,0,0,0,0,-1,1504,1569,0,0
287,-545,0,0,0,0,0,0,0,0,0,-1,1511,1569,0,0
294,-545,0,0,0,0,0,0,0,0,0,-1,1518,1569,0,0
301,-545,0,0,0,0,0,0,0,0,0,-1,1525,1569,0,0
308,-545,0,0,0,0,0,0,0,0,0,-1,1532,1569,0,0
315,-545,0,0,0,0,0,0,0,0,0,-1,1539,1569,0,0
322,-545,0,0,0,0,0,0,0,0,0,-1,1546,1569,0,0
329,-545,0,0,0,0,0,0,0,0,0,-1,1553,1569,0,0
336,-545,0,0,0,0,0,0,0,0,0,-1,1560,1569,0,0
343,-545,0,0,0,0,0,0,0,0,0,-1,1567,1569,0,0
350,-545,0,0,0,0,0,0,0,0,0,-1,1574,1569,0,0
357,-545,0,0,0,0,0,0,0,0,0,-1,1581,1569,0,0
364,-545,7.19495,4.88098,0,0,0,0,0,0,0,-1,1588,1569,7.19497,-4.88095
371,-545,7.82324,3.84302,0,0,0,0,0,0,0,-1,1595,1569,7.82324,-3.84307
378,-545,7.65674,5.52673,0,0,0,0,0,0,0,-1,1602,1569,7.6567,-5.52667
385,-545,8.58447,1.16125,0,0,0,0,0,0,0,-1,1609,1569,8.5845,-1.1612
392,-545,12.5654,3.89526,0,0,0,0,0,0,0,-1,1616,1569,12.5655,-3.89532
399,-545,11.5869,5.6333,0,0,0,0,0,0,0,-1,1623,1569,11.5869,-5.63326
406,-545,11.234,6.36414,0,0,0,0,0,0,0,-1,1630,1569,11.234,-6.3641
413,-545,12.1521,13.4817,0,0,0,0,0,0,0,-1,1637,1569,12.1521,-13.4817
420,-545,11.1954,13.6047,0,0,0,0,0,0,0,-1,1644,1569,11.1954,-13.6047
427,-545,9.61072,14.9135,0,0,0,0,0,0,0,-1,1651,1569,9.61076,-14.9134
434,-545,13.1598,23.9921,0,0,0,0,0,0,0,-1,1658,1569,13.1598,-23.992
441,-545,12.2833,22.2238,0,0,0,0,0,0,0,-1,1665,1569,12.2833,-22.2237
448,-545,13.0082,21.941,0,0,0,0,0,0,0,-1,1672,1569,13.0082,-21.941
455,-545,13.733,21.6583,0,0,0,0,0,0,0,-1,1679,1569,13.733,-21.6583
462,-545,12.449,20.7413,0,0,0,0,0,0,0,-1,1686,1569,12.4489,-20.7413
469,-545,12.7837,17.7919,0,0,0,0,0,0,0,-1,1693,1569,12.7837,-17.7919
476,-545,15.7562,24.8708,0,0,0,0,0,0,0,-1,1700,1569,15.7563,-24.8709
483,-545,21.4105,34.0034,0,0,0,0,0,0,0,-1,1707,1569,21.4105,-34.0034
490,-545,21.412,33.2827,0.00886884,0.0111737,-0.00788445,0.0179895,0.00205303,-0.857966,0.0113706,0.0298705,1714,1569,21.412,-33.2827
497,-545,21.4235,32.6284,0.00697841,0.00829456,-0.00592283,0.0135958,0.00167721,-0.840725,0.00855972,0.023621,1721,1569,21.4234,-32.6284
504,-545,21.5214,31.954,0.00543686,0.00592309,-0.00443903,0.0101257,0.0012343,-0.812754,0.00637894,0.0157734,1728,1569,21.5213,-31.954
511,-545,21.4563,31.3077,0.004155,0.00434913,-0.0033349,0.00758838,0.000915759,-0.799947,0.00478298,0.0117729,1735,1569,21.4563,-31.3077
518,-545,21.4269,30.6801,0.00294498,0.00292319,-0.00219602,0.00513014,0.000738037,-0.782918,0.00320255,0.0142699,1742,1569,21.4269,-30.6801
525,-545,21.3829,30.0382,0.00193969,0.00202952,-0.00131836,0.00330373,0.00066548,-0.802426,0.00201758,0.0154158,1749,1569,21.3829,-30.0382
532,-545,21.3314,29.4087,0.00109054,0.00118796,-0.000483405,0.0016251,0.000653397,-0.835615,0.000944234,0.0154678,1756,1569,21.3314,-29.4087
539,-545,21.3101,28.7716,0.000426586,0.000537208,0.000321607,0.000808225,0.000155569,0.870557,0.000495175,0.0187797,1763,1569,21.31,-28.7715
546,-545,21.2572,28.0859,-0.000100354,-0.000224295,0.00118317,0.00102247,-0.00134712,0.759234,0.00137236,0.0194921,1770,1569,21.2572,-28.0859
553,-545,21.297,27.4365,-0.000453731,-0.000878449,0.00203659,0.00138154,-0.00271372,0.73345,0.00240574,0.026374,1777,1569,21.297,-27.4365
560,-545,21.2631,26.7988,-0.000560971,-0.00141556,0.00280536,0.00184945,-0.00382598,0.709823,0.00334229,0.03121,1784,1569,21.2631,-26.7988
567,-545,21.2267,26.0514,0,0,0,0,0,0,0,-1,1791,1569,21.2267,-26.0513
574,-545,21.2012,25.3162,0,0,0,0,0,0,0,-1,1798,1569,21.2012,-25.3162
581,-545,21.1956,24.7247,0,0,0,0,0,0,0,-1,1805,1569,21.1955,-24.7247
588,-545,15.4786,16.7035,0,0,0,0,0,0,0,-1,1812,1569,15.4786,-16.7035
595,-545,10.2859,9.11218,0,0,0,0,0,0,0,-1,1819,1569,10.2858,-9.11215
602,-545,8.82117,6.32214,0,0,0,0,0,0,0,-1,1826,1569,8.82121,-6.32217
609,-545,10.2406,5.22351,0,0,0,0,0,0,0,-1,1833,1569,10.2406,-5.22353
616,-545,11.701,3.93188,0,0,0,0,0,0,0,-1,1840,1569,11.701,-3.93191
623,-545,13.2139,2.32043,0,0,0,0,0,0,0,-1,1847,1569,13.2139,-2.32042
630,-545,0,0,0,0,0,0,0,0,0,-1,1854,1569,0,0
637,-545,0,0,0,0,0,0,0,0,0,-1,1861,1569,0,0
644,-545,0,0,0,0,0,0,0,0,0,-1,1868,1569,0,0
651,-545,0,0,0,0,0,0,0,0,0,-1,1875,1569,0,0
658,-545,0,0,0,0,0,0,0,0,0,-1,1882,1569,0,0
665,-545,0,0,0,0,0,0,0,0,0,-1,1889,1569,0,0
672,-545,0,0,0,0,0,0,0,0,0,-1,1896,1569,0,0
679,-545,0,0,0,0,0,0,0,0,0,-1,1903,1569,0,0
686,-545,0,0,0,0,0,0,0,0,0,-1,1910,1569,0,0
693,-545,0,0,0,0,0,0,0,0,0,-1,1917,1569,0,0
700,-545,0,0,0,0,0,0,0,0,0,-1,1924,1569,0,0
707,-545,0,0,0,0,0,0,0,0,0,-1,1931,1569,0,0
714,-545,0,0,0,0,0,0,0,0,0,-1,1938,1569,0,0
721,-545,0,0,0,0,0,0,0,0,0,-1,1945,1569,0,0
728,-545,0,0,0,0,0,0,0,0,0,-1,1952,1569,0,0
735,-545,0,0,0,0,0,0,0,0,0,-1,1959,1569,0,0
742,-545,0,0,0,0,0,0,0,0,0,-1,1966,1569,0,0
749,-545,0,0,0,0,0,0,0,0,0,-1,1973,1569,0,0
756,-545,0,0,0,0,0,0,0,0,0,-1,1980,1569,0,0
763,-545,0,0,0,0,0,0,0,0,0,-1,1987,1569,0,0
770,-545,0,0,0,0,0,0,0,0,0,-1,1994,1569,0,0
777,-545,0,0,0,0,0,0,0,0,0,-1,2001,1569,0,0
784,-545,0,0,0,0,0,0,0,0,0,-1,2008,1569,0,0
791,-545,0,0,0,0,0,0,0,0,0,-1,2015,1569,0,0
798,-545,0,0,0,0,0,0,0,0,0,-1,2022,1569,0,0
805,-545,0,0,0,0,0,0,0,0,0,-1,2029,1569,0,0
812,-545,0,0,0,0,0,0,0,0,0,-1,2036,1569,0,0
-700,-552,0,0,0,0,0,0,0,0,0,-1,524,1576,0,0
-693,-552,0,0,0,0,0,0,0,0,0,-1,531,1576,0,0
-686,-552,0,0,0,0,0,0,0,0,0,-1,538,1576,0,0
-679,-552,0,0,0,0,0,0,0,0,0,-1,545,1576,0,0
-672,-552,0,0,0,0,0,0,0,0,0,-1,552,1576,0,0
-665,-552,0,0,0,0,0,0,0,0,0,-1,559,1576,0,0
-658,-552,0,0,0,0,0,0,0,0,0,-1,566,1576,0,0
-651,-552,0,0,0,0,0,0,0,0,0,-1,573,1576,0,0
-644,-552,0,0,0,0,0,0,0,0,0,-1,580,1576,0,0
-637,-552,0,0,0,0,0,0,0,0,0,-1,587,1576,0,0
-630,-552,0,0,0,0,0,0,0,0,0,-1,594,1576,0,0
-623,-552,0,0,0,0,0,0,0,0,0,-1,601,1576,0,0
-616,-552,0,0,0,0,0,0,0,0,0,-1,608,1576,0,0
-609,-552,0,0,0,0,0,0,0,0,0,-1,615,1576,0,0
-602,-552,0,0,0,0,0,0,0,0,0,-1,622,1576,0,0
-595,-552,0,0,0,0,0,0,0,0,0,-1,629,1576,0,0
-588,-552,0,0,0,0,0,0,0,0,0,-1,636,1576,0,0
-581,-552,0,0,0,0,0,0,0,0,0,-1,643,1576,0,0
-574,-552,0,0,0,0,0,0,0,0,0,-1,650,1576,0,0
-567,-552,0,0,0,0,0,0,0,0,0,-1,657,1576,0,0
-560,-552,0,0,0,0,0,0,0,0,0,-1,664,1576,0,0
-553,-552,0,0,0,0,0,0,0,0,0,-1,671,1576,0,0
-546,-552,0,0,0,0,0,0,0,0,0,-1,678,1576,0,0
-539,-552,0,0,0,0,0,0,0,0,0,-1,685,1576,0,0
-532,-552,0,0,0,0,0,0,0,0,0,-1,692,1576,0,0
-525,-552,0,0,0,0,0,0,0,0,0,-1,699,1576,0,0
-518,-552,0,0,0,0,0,0,0,0,0,-1,706,1576,0,0
-511,-552,0,0,0,0,0,0,0,0,0,-1,713,1576,0,0
-504,-552,0,0,0,0,0,0,0,0,0,-1,720,1576,0,0
-497,-552,1.51282,3.96924,0,0,0,0,0,0,0,-1,727,1576,1.5128,-3.96924
-490,-552,-3.82312,6.32104,0,0,0,0,0,0,0,-1,734,1576,-3.82314,-6.3211
-483,-552,-3.50586,6.47986,0,0,0,0,0,0,0,-1,741,1576,-3.50587,-6.47983
-476,-552,-1.95129,4.43054,0,0,0,0,0,0,0,-1,748,1576,-1.95128,-4.43054
-469,-552,-1.40491,7.9895,0,0,0,0,0,0,0,-1,755,1576,-1.40491,-7.98947
-462,-552,0.0459595,16.3469,0,0,0,0,0,0,0,-1,762,1576,0.0459611,-16.3469
-455,-552,-2.9613,21.5142,0,0,0,0,0,0,0,-1,769,1576,-2.96128,-21.5142
-448,-552,-2.88885,23.8344,0,0,0,0,0,0,0,-1,776,1576,-2.88884,-23.8343
-441,-552,-2.94818,24.9775,0,0,0,0,0,0,0,-1,783,1576,-2.94816,-24.9776
-434,-552,-3.04034,25.9651,0,0,0,0,0,0,0,-1,790,1576,-3.04033,-25.965
-427,-552,-3.22388,26.0844,0.0110335,0.00265981,0.00444937,0.0129562,0.00073711,0.407893,0.00840256,0.0365058,797,1576,-3.2239,-26.0844
-420,-552,-3.15619,26.8617,0.00711358,0.00154655,0.00304605,0.00845637,0.000203765,0.415201,0.0055709,0.0237684,804,1576,-3.15622,-26.8617
-413,-552,-3.18567,27.5323,0.00393244,0.00152314,0.00161577,0.0047432,0.000712379,0.465071,0.00295345,0.0167311,811,1576,-3.18566,-27.5324
-406,-552,-3.23462,28.2393,0.00140133,0.000262022,0.00093439,0.00192602,-0.000262668,0.511654,0.00137993,0.0132262,818,1576,-3.23463,-28.2392
-399,-552,-3.26886,28.9055,0.000723201,0.000700914,0.00106017,0.00177229,-0.00034817,0.780143,0.00131306,0.0141849,825,1576,-3.26887,-28.9055
-392,-552,-3.32593,29.5511,0.00100459,0.00120183,0.0012462,0.00235331,-0.000146886,0.824885,0.00162005,0.0155528,832,1576,-3.32592,-29.5511
-385,-552,-3.33704,30.2483,0.00154054,0.00183212,0.00141453,0.00310835,0.000264304,0.83675,0.00198999,0.0142039,839,1576,-3.33707,-30.2483
-378,-552,-3.39459,30.8939,0.00203529,0.00248419,0.00156891,0.00384462,0.000674858,0.856448,0.00237037,0.0157641,846,1576,-3.39461,-30.8939
-371,-552,-3.41931,31.5931,0.00250456,0.00308175,0.00172555,0.00454267,0.00104364,0.868254,0.00274745,0.019818,853,1576,-3.41932,-31.5931
-364,-552,-3.4303,32.2476,0.00312996,0.00395499,0.00203335,0.00561725,0.0014677,0.885477,0.00336407,0.0150806,860,1576,-3.4303,-32.2476
-357,-552,-3.43256,32.876,0.003787,0.0048768,0.00235137,0.00674558,0.00191821,0.899257,0.00401348,0.010575,867,1576,-3.43258,-32.876
-350,-552,-3.42657,33.6064,0.00458189,0.00585362,0.00276661,0.0080565,0.00237901,0.898355,0.0047796,0.0155214,874,1576,-3.42657,-33.6065
-343,-552,-3.45563,34.2158,0.00544306,0.00683065,0.00329844,0.00950748,0.00276624,0.889057,0.0056468,0.0256983,881,1576,-3.45561,-34.2159
-336,-552,-3.37714,34.7094,0.00659487,0.00839466,0.00429596,0.011884,0.00310556,0.888643,0.00711701,0.0475531,888,1576,-3.37716,-34.7094
-329,-552,-3.17755,35.4176,0,0,0,0,0,0,0,-1,895,1576,-3.17754,-35.4176
-322,-552,-1.23962,28.5371,0,0,0,0,0,0,0,-1,902,1576,-1.23964,-28.5371
-315,-552,-0.605347,28.994,0,0,0,0,0,0,0,-1,909,1576,-0.605331,-28.9941
-308,-552,-1.01624,30.3169,0,0,0,0,0,0,0,-1,916,1576,-1.01624,-30.3169
-301,-552,1.39453,18.4995,0,0,0,0,0,0,0,-1,923,1576,1.3945,-18.4995
-294,-552,0.842163,13.7863,0,0,0,0,0,0,0,-1,930,1576,0.842149,-13.7863
-287,-552,-0.663757,13.3474,0,0,0,0,0,0,0,-1,937,1576,-0.663744,-13.3474
-280,-552,-5.47241,8.96765,0,0,0,0,0,0,0,-1,944,1576,-5.47239,-8.96766
-273,-552,1.64587,10.6685,0,0,0,0,0,0,0,-1,951,1576,1.6459,-10.6685
-266,-552,-1.32678,8.05688,0,0,0,0,0,0,0,-1,958,1576,-1.32677,-8.05683
-259,-552,-5.54321,8.31213,0,0,0,0,0,0,0,-1,965,1576,-5.54324,-8.31214
-252,-552,-1.93445,7.81543,0,0,0,0,0,0,0,-1,972,1576,-1.93445,-7.81546
-245,-552,-2.53613,6.92212,0,0,0,0,0,0,0,-1,979,1576,-2.53614,-6.92216
-238,-552,-6.5365,2.81885,0,0,0,0,0,0,0,-1,986,1576,-6.53649,-2.8188
-231,-552,-4.32239,4.34583,0,0,0,0,0,0,0,-1,993,1576,-4.32239,-4.34587
-224,-552,0,0,0,0,0,0,0,0,0,-1,1000,1576,0,0
-217,-552,0,0,0,0,0,0,0,0,0,-1,1007,1576,0,0
-210,-552,0,0,0,0,0,0,0,0,0,-1,1014,1576,0,0
-203,-552,0,0,0,0,0,0,0,0,0,-1,1021,1576,0,0
-196,-552,0,0,0,0,0,0,0,0,0,-1,1028,1576,0,0
-189,-552,0,0,0,0,0,0,0,0,0,-1,1035,1576,0,0
-182,-552,0,0,0,0,0,0,0,0,0,-1,1042,1576,0,0
-175,-552,0,0,0,0,0,0,0,0,0,-1,1049,1576,0,0
-168,-552,0,0,0,0,0,0,0,0,0,-1,1056,1576,0,0
-161,-552,0,0,0,0,0,0,0,0,0,-1,1063,1576,0,0
-154,-552,0,0,0,0,0,0,0,0,0,-1,1070,1576,0,0
-147,-552,0,0,0,0,0,0,0,0,0,-1,1077,1576,0,0
-140,-552,0,0,0,0,0,0,0,0,0,-1,1084,1576,0,0
-133,-552,0,0,0,0,0,0,0,0,0,-1,1091,1576,0,0
-126,-552,0,0,0,0,0,0,0,0,0,-1,1098,1576,0,0
-119,-552,0,0,0,0,0,0,0,0,0,-1,1105,1576,0,0
-112,-552,0,0,0,0,0,0,0,0,0,-1,1112,1576,0,0
-105,-552,0,0,0,0,0,0,0,0,0,-1,1119,1576,0,0
-98,-552,0,0,0,0,0,0,0,0,0,-1,1126,1576,0,0
-91,-552,0,0,0,0,0,0,0,0,0,-1,1133,1576,0,0
-84,-552,0,0,0,0,0,0,0,0,0,-1,1140,1576,0,0
-77,-552,0,0,0,0,0,0,0,0,0,-1,1147,1576,0,0
-70,-552,0,0,0,0,0,0,0,0,0,-1,1154,1576,0,0
-63,-552,0,0,0,0,0,0,0,0,0,-1,1161,1576,0,0
-56,-552,0,0,0,0,0,0,0,0,0,-1,1168,1576,0,0
-49,-552,0,0,0,0,0,0,0,0,0,-1,1175,1576,0,0
-42,-552,0,0,0,0,0,0,0,0,0,-1,1182,1576,0,0
-35,-552,0,0,0,0,0,0,0,0,0,-1,1189,1576,0,0
-28,-552,0,0,0,0,0,0,0,0,0,-1,1196,1576,0,0
-21,-552,0,0,0,0,0,0,0,0,0,-1,1203,1576,0,0
-14,-552,0,0,0,0,0,0,0,0,0,-1,1210,1576,0,0
-7,-552,0,0,0,0,0,0,0,0,0,-1,1217,1576,0,0
0,-552,0,0,0,0,0,0,0,0,0,-1,1224,1576,0,0
7,-552,0,0,0,0,0,0,0,0,0,-1,1231,1576,0,0
14,-552,0,0,0,0,0,0,0,0,0,-1,1238,1576,0,0
21,-552,0,0,0,0,0,0,0,0,0,-1,1245,1576,0,0
28,-552,0,0,0,0,0,0,0,0,0,-1,1252,1576,0,0
35,-552,0,0,0,0,0,0,0,0,0,-1,1259,1576,0,0
42,-552,0,0,0,0,0,0,0,0,0,-1,1266,1576,0,0
49,-552,0,0,0,0,0,0,0,0,0,-1,1273,1576,0,0
56,-552,0,0,0,0,0,0,0,0,0,-1,1280,1576,0,0
63,-552,0,0,0,0,0,0,0,0,0,-1,1287,1576,0,0
70,-552,0,0,0,0,0,0,0,0,0,-1,1294,1576,0,0
77,-552,0,0,0,0,0,0,0,0,0,-1,1301,1576,0,0
84,-552,0,0,0,0,0,0,0,0,0,-1,1308,1576,0,0
91,-552,0,0,0,0,0,0,0,0,0,-1,1315,1576,0,0
98,-552,0,0,0,0,0,0,0,0,0,-1,1322,1576,0,0
105,-552,0,0,0,0,0,0,0,0,0,-1,1329,1576,0,0
112,-552,0,0,0,0,0,0,0,0,0,-1,1336,1576,0,0
119,-552,0,0,0,0,0,0,0,0,0,-1,1343,1576,0,0
126,-552,0,0,0,0,0,0,0,0,0,-1,1350,1576,0,0
133,-552,0,0,0,0,0,0,0,0,0,-1,1357,1576,0,0
140,-552,0,0,0,0,0,0,0,0,0,-1,1364,1576,0,0
147,-552,0,0,0,0,0,0,0,0,0,-1,1371,1576,0,0
154,-552,0,0,0,0,0,0,0,0,0,-1,1378,1576,0,0
161,-552,0,0,0,0,0,0,0,0,0,-1,1385,1576,0,0
168,-552,0,0,0,0,0,0,0,0,0,-1,1392,1576,0,0
175,-552,0,0,0,0,0,0,0,0,0,-1,1399,1576,0,0
182,-552,0,0,0,0,0,0,0,0,0,-1,1406,1576,0,0
189,-552,0,0,0,0,0,0,0,0,0,-1,1413,1576,0,0
196,-552,0,0,0,0,0,0,0,0,0,-1,1420,1576,0,0
203,-552,0,0,0,0,0,0,0,0,0,-1,1427,1576,0,0
210,-552,0,0,0,0,0,0,0,0,0,-1,1434,1576,0,0
217,-552,0,0,0,0,0,0,0,0,0,-1,1441,1576,0,0
224,-552,0,0,0,0,0,0,0,0,0,-1,1448,1576,0,0
231,-552,0,0,0,0,0,0,0,0,0,-1,1455,1576,0,0
238,-552,0,0,0,0,0,0,0,0,0,-1,1462,1576,0,0
245,-552,0,0,0,0,0,0,0,0,0,-1,1469,1576,0,0
252,-552,0,0,0,0,0,0,0,0,0,-1,1476,1576,0,0
259,-552,0,0,0,0,0,0,0,0,0,-1,1483,1576,0,0
266,-552,0,0,0,0,0,0,0,0,0,-1,1490,1576,0,0
273,-552,0,0,0,0,0,0,0,0,0,-1,1497,1576,0,0
280,-552,0,0,0,0,0,0,0,0,0,-1,1504,1576,0,0
287,-552,0,0,0,0,0,0,0,0,0,-1,1511,1576,0,0
294,-552,0,0,0,0,0,0,0,0,0,-1,1518,1576,0,0
301,-552,0,0,0,0,0,0,0,0,0,-1,1525,1576,0,0
308,-552,0,0,0,0,0,0,0,0,0,-1,1532,1576,0,0
315,-552,0,0,0,0,0,0,0,0,0,-1,1539,1576,0,0
322,-552,0,0,0,0,0,0,0,0,0,-1,1546,1576,0,0
329,-552,0,0,0,0,0,0,0,0,0,-1,1553,1576,0,0
336,-552,0,0,0,0,0,0,0,0,0,-1,1560,1576,0,0
343,-552,0,0,0,0,0,0,0,0,0,-1,1567,1576,0,0
350,-552,4.97876,4.09888,0,0,0,0,0,0,0,-1,1574,1576,4.97875,-4.09883
357,-552,5.18469,4.10706,0,0,0,0,0,0,0,-1,1581,1576,5.1847,-4.10702
364,-552,5.80872,5.07031,0,0,0,0,0,0,0,-1,1588,1576,5.80874,-5.07037
371,-552,7.10657,5.64783,0,0,0,0,0,0,0,-1,1595,1576,7.10651,-5.64786
378,-552,6.44446,4.91492,0,0,0,0,0,0,0,-1,1602,1576,6.44448,-4.91496
385,-552,12.8276,3.16504,0,0,0,0,0,0,0,-1,1609,1576,12.8276,-3.16503
392,-552,12.1301,4.3363,0,0,0,0,0,0,0,-1,1616,1576,12.1302,-4.33631
399,-552,11.3486,5.6012,0,0,0,0,0,0,0,-1,1623,1576,11.3486,-5.60115
406,-552,10.7863,6.42542,0,0,0,0,0,0,0,-1,1630,1576,10.7863,-6.42536
413,-552,8.39307,10.365,0,0,0,0,0,0,0,-1,1637,1576,8.3931,-10.365
420,-552,10.2306,12.7225,0,0,0,0,0,0,0,-1,1644,1576,10.2305,-12.7226
427,-552,9.73267,14.783,0,0,0,0,0,0,0,-1,1651,1576,9.73269,-14.783
434,-552,12.0377,20.1364,0,0,0,0,0,0,0,-1,1658,1576,12.0377,-20.1364
441,-552,12.4963,21.5277,0,0,0,0,0,0,0,-1,1665,1576,12.4964,-21.5277
448,-552,12.9141,21.5482,0,0,0,0,0,0,0,-1,1672,1576,12.9141,-21.5482
455,-552,13.3318,21.5687,0,0,0,0,0,0,0,-1,1679,1576,13.3317,-21.5687
462,-552,12.745,20.5947,0,0,0,0,0,0,0,-1,1686,1576,12.745,-20.5947
469,-552,17.7067,29.6902,0,0,0,0,0,0,0,-1,1693,1576,17.7067,-29.6902
476,-552,20.6903,34.7499,0,0,0,0,0,0,0,-1,1700,1576,20.6903,-34.7499
483,-552,20.8687,33.8237,0,0,0,0,0,0,0,-1,1707,1576,20.8686,-33.8237
490,-552,20.8584,33.199,0.00699035,0.00925663,-0.00613634,0.0143636,0.00188341,-0.8767,0.00901374,0.0151027,1714,1576,20.8584,-33.199
497,-552,20.965,32.6167,0.0053936,0.00676515,-0.00457357,0.0107041,0.00145467,-0.859815,0.00670397,0.0221146,1721,1576,20.965,-32.6167
504,-552,20.9154,32.0092,0.00404888,0.00462645,-0.00333401,0.00768416,0.000991168,-0.8286,0.00482643,0.0241215,1728,1576,20.9154,-32.0091
511,-552,20.8296,31.3264,0.00286512,0.00320687,-0.00232529,0.00536756,0.000704431,-0.822076,0.00336821,0.0172338,1735,1576,20.8296,-31.3264
518,-552,20.8108,30.6876,0.00176001,0.00192035,-0.00132575,0.00316835,0.000512007,-0.815598,0.00196394,0.0157044,1742,1576,20.8108,-30.6876
525,-552,20.7478,30.0573,0.000847421,0.00111987,-0.000521447,0.00152259,0.000444699,-0.913165,0.000904053,0.0158682,1749,1576,20.7478,-30.0573
532,-552,20.6956,29.4365,8.60469e-05,0.000366908,0.000279549,0.000539317,-8.6362e-05,1.01816,0.00039152,0.0157489,1756,1576,20.6955,-29.4365
539,-552,20.6759,28.778,-0.00053424,-0.000210903,0.00110561,0.000744798,-0.00148994,0.857996,0.00131392,0.0194431,1763,1576,20.676,-28.778
546,-552,20.6273,28.1123,-0.00102056,-0.000899968,0.00205339,0.00109401,-0.00301454,0.800076,0.00245694,0.0228725,1770,1576,20.6274,-28.1123
553,-552,20.6595,27.4711,-0.00136072,-0.00152432,0.00304669,0.00160527,-0.00449031,0.771977,0.00364831,0.0252787,1777,1576,20.6595,-27.471
560,-552,20.6517,26.9797,-0.0015031,-0.00200727,0.00402429,0.00227699,-0.00578736,0.754119,0.00480074,0.0497942,1784,1576,20.6518,-26.9798
567,-552,20.6783,26.0908,0,0,0,0,0,0,0,-1,1791,1576,20.6784,-26.0908
574,-552,12.8835,14.8463,0,0,0,0,0,0,0,-1,1798,1576,12.8836,-14.8463
581,-552,9.74841,9.98645,0,0,0,0,0,0,0,-1,1805,1576,9.74847,-9.9864
588,-552,10.5619,9.34924,0,0,0,0,0,0,0,-1,1812,1576,10.5619,-9.34921
595,-552,5.36194,6.62744,0,0,0,0,0,0,0,-1,1819,1576,5.36193,-6.62742
602,-552,10.6863,4.31616,0,0,0,0,0,0,0,-1,1826,1576,10.6862,-4.31619
609,-552,12.146,3.18286,0,0,0,0,0,0,0,-1,1833,1576,12.1459,-3.18281
616,-552,13.8762,2.08167,0,0,0,0,0,0,0,-1,1840,1576,13.8763,-2.08167
623,-552,0,0,0,0,0,0,0,0,0,-1,1847,1576,0,0
630,-552,0,0,0,0,0,0,0,0,0,-1,1854,1576,0,0
637,-552,0,0,0,0,0,0,0,0,0,-1,1861,1576,0,0
644,-552,0,0,0,0,0,0,0,0,0,-1,1868,1576,0,0
651,-552,0,0,0,0,0,0,0,0,0,-1,1875,1576,0,0
658,-552,0,0,0,0,0,0,0,0,0,-1,1882,1576,0,0
665,-552,0,0,0,0,0,0,0,0,0,-1,1889,1576,0,0
672,-552,0,0,0,0,0,0,0,0,0,-1,1896,1576,0,0
679,-552,0,0,0,0,0,0,0,0,0,-1,1903,1576,0,0
686,-552,0,0,0,0,0,0,0,0,0,-1,1910,1576,0,0
693,-552,0,0,0,0,0,0,0,0,0,-1,1917,1576,0,0
700,-552,0,0,0,0,0,0,0,0,0,-1,1924,1576,0,0
707,-552,0,0,0,0,0,0,0,0,0,-1,1931,1576,0,0
714,-552,0,0,0,0,0,0,0,0,0,-1,1938,1576,0,0
721,-552,0,0,0,0,0,0,0,0,0,-1,1945,1576,0,0
728,-552,0,0,0,0,0,0,0,0,0,-1,1952,1576,0,0
735,-552,0,0,0,0,0,0,0,0,0,-1,1959,1576,0,0
742,-552,0,0,0,0,0,0,0,0,0,-1,1966,1576,0,0
749,-552,0,0,0,0,0,0,0,0,0,-1,1973,1576,0,0
756,-552,0,0,0,0,0,0,0,0,0,-1,1980,1576,0,0
763,-552,0,0,0,0,0,0,0,0,0,-1,1987,1576,0,0
770,-552,0,0,0,0,0,0,0,0,0,-1,1994,1576,0,0
777,-552,0,0,0,0,0,0,0,0,0,-1,2001,1576,0,0
784,-552,0,0,0,0,0,0,0,0,0,-1,2008,1576,0,0
791,-552,0,0,0,0,0,0,0,0,0,-1,2015,1576,0,0
798,-552,0,0,0,0,0,0,0,0,0,-1,2022,1576,0,0
805,-552,0,0,0,0,0,0,0,0,0,-1,2029,1576,0,0
812,-552,0,0,0,0,0,0,0,0,0,-1,2036,1576,0,0
-700,-559,0,0,0,0,0,0,0,0,0,-1,524,1583,0,0
-693,-559,0,0,0,0,0,0,0,0,0,-1,531,1583,0,0
-686,-559,0,0,0,0,0,0,0,0,0,-1,538,1583,0,0
-679,-559,0,0,0,0,0,0,0,0,0,-1,545,1583,0,0
-672,-559,0,0,0,0,0,0,0,0,0,-1,552,1583,0,0
-665,-559,0,0,0,0,0,0,0,0,0,-1,559,1583,0,0
-658,-559,0,0,0,0,0,0,0,0,0,-1,566,1583,0,0
-651,-559,0,0,0,0,0,0,0,0,0,-1,573,1583,0,0
-644,-559,0,0,0,0,0,0,0,0,0,-1,580,1583,0,0
-637,-559,0,0,0,0,0,0,0,0,0,-1,587,1583,0,0
-630,-559,0,0,0,0,0,0,0,0,0,-1,594,1583,0,0
-623,-559,0,0,0,0,0,0,0,0,0,-1,601,1583,0,0
-616,-559,0,0,0,0,0,0,0,0,0,-1,608,1583,0,0
-609,-559,0,0,0,0,0,0,0,0,0,-1,615,1583,0,0
-602,-559,0,0,0,0,0,0,0,0,0,-1,622,1583,0,0
-595,-559,0,0,0,0,0,0,0,0,0,-1,629,1583,0,0
-588,-559,0,0,0,0,0,0,0,0,0,-1,636,1583,0,0
-581,-559,0,0,0,0,0,0,0,0,0,-1,643,1583,0,0
-574,-559,0,0,0,0,0,0,0,0,0,-1,650,1583,0,0
-567,-559,0,0,0,0,0,0,0,0,0,-1,657,1583,0,0
-560,-559,0,0,0,0,0,0,0,0,0,-1,664,1583,0,0
-553,-559,0,0,0,0,0,0,0,0,0,-1,671,1583,0,0
-546,-559,0,0,0,0,0,0,0,0,0,-1,678,1583,0,0
-539,-559,0,0,0,0,0,0,0,0,0,-1,685,1583,0,0
-532,-559,0,0,0,0,0,0,0,0,0,-1,692,1583,0,0
-525,-559,0,0,0,0,0,0,0,0,0,-1,699,1583,0,0
-518,-559,0,0,0,0,0,0,0,0,0,-1,706,1583,0,0
-511,-559,0,0,0,0,0,0,0,0,0,-1,713,1583,0,0
-504,-559,0,0,0,0,0,0,0,0,0,-1,720,1583,0,0
-497,-559,0,0,0,0,0,0,0,0,0,-1,727,1583,0,0
-490,-559,-5.49835,4.47424,0,0,0,0,0,0,0,-1,734,1583,-5.49833,-4.4743
-483,-559,-5.24078,4.74561,0,0,0,0,0,0,0,-1,741,1583,-5.24079,-4.74563
-476,-559,-4.98022,4.99316,0,0,0,0,0,0,0,-1,748,1583,-4.98024,-4.99321
-469,-559,-4.6424,5.38062,0,0,0,0,0,0,0,-1,755,1583,-4.64237,-5.38058
-462,-559,-0.161865,6.49438,0,0,0,0,0,0,0,-1,762,1583,-0.161835,-6.49444
-455,-559,1.08826,7.02527,0,0,0,0,0,0,0,-1,769,1583,1.08823,-7.02529
-448,-559,-2.86023,20.0852,0,0,0,0,0,0,0,-1,776,1583,-2.86025,-20.0852
-441,-559,-2.39484,24.85,0,0,0,0,0,0,0,-1,783,1583,-2.39481,-24.8499
-434,-559,-1.88562,25.6169,0,0,0,0,0,0,0,-1,790,1583,-1.88562,-25.617
-427,-559,-2.48071,25.9175,0,0,0,0,0,0,0,-1,797,1583,-2.48071,-25.9174
-420,-559,-2.4809,26.7798,0,0,0,0,0,0,0,-1,804,1583,-2.48089,-26.7797
-413,-559,-2.54236,27.575,0.00413108,0.00159046,0.00213774,0.00534745,0.000374079,0.517315,0.00344705,0.0175537,811,1583,-2.54238,-27.575
-406,-559,-2.58173,28.2853,0.00116238,-0.000198068,0.00116646,0.00183246,-0.000868151,0.521428,0.00159199,0.0101058,818,1583,-2.58174,-28.2853
-399,-559,-2.60303,28.9684,0.000241757,-2.01527e-05,0.00107753,0.00119626,-0.000974654,0.724928,0.00125555,0.0141758,825,1583,-2.60305,-28.9684
-392,-559,-2.63721,29.6089,0.000397989,0.000291387,0.00112014,0.00146609,-0.000776717,0.761624,0.00131512,0.0174499,832,1583,-2.63724,-29.6088
-385,-559,-2.65387,30.2797,0.000867569,0.0008336,0.00116566,0.00201637,-0.000315204,0.778113,0.0014607,0.0172255,839,1583,-2.65385,-30.2797
-378,-559,-2.6842,30.9489,0.00128806,0.00136808,0.00120021,0.00252895,0.000127184,0.80206,0.00164521,0.0158586,846,1583,-2.6842,-30.9488
-371,-559,-2.7511,31.6458,0.00166425,0.00182358,0.00123624,0.00298272,0.000505111,0.817574,0.00184332,0.0223646,853,1583,-2.75113,-31.6457
-364,-559,-2.7677,32.2806,0.00221892,0.00256085,0.00143922,0.00383922,0.000940547,0.844517,0.00231068,0.0201445,860,1583,-2.76769,-32.2806
-357,-559,-2.77362,32.918,0.00281582,0.00334202,0.00165078,0.00475053,0.00140731,0.864424,0.00281761,0.0127098,867,1583,-2.77361,-32.918
-350,-559,-2.80627,33.5403,0.00357087,0.00411386,0.00194754,0.00580874,0.00187599,0.854654,0.00342304,0.0109137,874,1583,-2.80626,-33.5402
-343,-559,-2.83459,34.2043,0.00441014,0.00501909,0.00241501,0.00714874,0.00228049,0.848106,0.0042165,0.0120515,881,1583,-2.83457,-34.2043
-336,-559,-2.88959,34.8181,0.00546111,0.00639954,0.00325557,0.00921954,0.00264111,0.856969,0.00548232,0.0281591,888,1583,-2.88961,-34.8181
-329,-559,-2.59131,35.6539,0,0,0,0,0,0,0,-1,895,1583,-2.59129,-35.6539
-322,-559,-1.93127,36.0963,0,0,0,0,0,0,0,-1,902,1583,-1.93127,-36.0963
-315,-559,-0.659607,29.1698,0,0,0,0,0,0,0,-1,909,1583,-0.659577,-29.1698
-308,-559,-0.755493,30.4624,0,0,0,0,0,0,0,-1,916,1583,-0.755509,-30.4625
-301,-559,-1.22174,31.0372,0,0,0,0,0,0,0,-1,923,1583,-1.22176,-31.0372
-294,-559,0.945129,18.5165,0,0,0,0,0,0,0,-1,930,1583,0.945117,-18.5165
-287,-559,-0.11792,15.4912,0,0,0,0,0,0,0,-1,937,1583,-0.117939,-15.4912
-280,-559,0.191467,13.5093,0,0,0,0,0,0,0,-1,944,1583,0.191441,-13.5093
-273,-559,2.12836,10.3059,0,0,0,0,0,0,0,-1,951,1583,2.12839,-10.3059
-266,-559,-0.597046,6.68933,0,0,0,0,0,0,0,-1,958,1583,-0.597031,-6.68937
-259,-559,-7.00311,8.62756,0,0,0,0,0,0,0,-1,965,1583,-7.00312,-8.6275
-252,-559,-9.4483,2.87805,0,0,0,0,0,0,0,-1,972,1583,-9.44829,-2.87805
-245,-559,-4.80804,7.1803,0,0,0,0,0,0,0,-1,979,1583,-4.80804,-7.18027
-238,-559,-8.45764,2.54858,0,0,0,0,0,0,0,-1,986,1583,-8.45763,-2.54862
-231,-559,-5.86914,4.34021,0,0,0,0,0,0,0,-1,993,1583,-5.86914,-4.34019
-224,-559,-3.30505,6.22864,0,0,0,0,0,0,0,-1,1000,1583,-3.30505,-6.22859
-217,-559,0,0,0,0,0,0,0,0,0,-1,1007,1583,0,0
-210,-559,0,0,0,0,0,0,0,0,0,-1,1014,1583,0,0
-203,-559,0,0,0,0,0,0,0,0,0,-1,1021,1583,0,0
-196,-559,0,0,0,0,0,0,0,0,0,-1,1028,1583,0,0
-189,-559,0,0,0,0,0,0,0,0,0,-1,1035,1583,0,0
-182,-559,0,0,0,0,0,0,0,0,0,-1,1042,1583,0,0
-175,-559,0,0,0,0,0,0,0,0,0,-1,1049,1583,0,0
-168,-559,0,0,0,0,0,0,0,0,0,-1,1056,1583,0,0
-161,-559,0,0,0,0,0,0,0,0,0,-1,1063,1583,0,0
-154,-559,0,0,0,0,0,0,0,0,0,-1,1070,1583,0,0
-147,-559,0,0,0,0,0,0,0,0,0,-1,1077,1583,0,0
-140,-559,0,0,0,0,0,0,0,0,0,-1,1084,1583,0,0
-133,-559,0,0,0,0,0,0,0,0,0,-1,1091,1583,0,0
-126,-559,0,0,0,0,0,0,0,0,0,-1,1098,1583,0,0
-119,-559,0,0,0,0,0,0,0,0,0,-1,1105,1583,0,0
-112,-559,0,0,0,0,0,0,0,0,0,-1,1112,1583,0,0
-105,-559,0,0,0,0,0,0,0,0,0,-1,1119,1583,0,0
-98,-559,0,0,0,0,0,0,0,0,0,-1,1126,1583,0,0
-91,-559,0,0,0,0,0,0,0,0,0,-1,1133,1583,0,0
-84,-559,0,0,0,0,0,0,0,0,0,-1,1140,1583,0,0
-77,-559,0,0,0,0,0,0,0,0,0,-1,1147,1583,0,0
-70,-559,0,0,0,0,0,0,0,0,0,-1,1154,1583,0,0
-63,-559,0,0,0,0,0,0,0,0,0,-1,1161,1583,0,0
-56,-559,0,0,0,0,0,0,0,0,0,-1,1168,1583,0,0
-49,-559,0,0,0,0,0,0,0,0,0,-1,1175,1583,0,0
-42,-559,0,0,0,0,0,0,0,0,0,-1,1182,1583,0,0
-35,-559,0,0,0,0,0,0,0,0,0,-1,1189,1583,0,0
-28,-559,0,0,0,0,0,0,0,0,0,-1,1196,1583,0,0
-21,-559,0,0,0,0,0,0,0,0,0,-1,1203,1583,0,0
-14,-559,0,0,0,0,0,0,0,0,0,-1,1210,1583,0,0
-7,-559,0,0,0,0,0,0,0,0,0,-1,1217,1583,0,0
0,-559,0,0,0,0,0,0,0,0,0,-1,1224,1583,0,0
7,-559,0,0,0,0,0,0,0,0,0,-1,1231,1583,0,0
14,-559,0,0,0,0,0,0,0,0,0,-1,1238,1583,0,0
21,-559,0,0,0,0,0,0,0,0,0,-1,1245,1583,0,0
28,-559,0,0,0,0,0,0,0,0,0,-1,1252,1583,0,0
35,-559,0,0,0,0,0,0,0,0,0,-1,1259,1583,0,0
42,-559,0,0,0,0,0,0,0,0,0,-1,1266,1583,0,0
49,-559,0,0,0,0,0,0,0,0,0,-1,1273,1583,0,0
56,-559,0,0,0,0,0,0,0,0,0,-1,1280,1583,0,0
63,-559,0,0,0,0,0,0,0,0,0,-1,1287,1583,0,0
70,-559,0,0,0,0,0,0,0,0,0,-1,1294,1583,0,0
77,-559,0,0,0,0,0,0,0,0,0,-1,1301,1583,0,0
84,-559,0,0,0,0,0,0,0,0,0,-1,1308,1583,0,0
91,-559,0,0,0,0,0,0,0,0,0,-1,1315,1583,0,0
98,-559,0,0,0,0,0,0,0,0,0,-1,1322,1583,0,0
105,-559,0,0,0,0,0,0,0,0,0,-1,1329,1583,0,0
112,-559,0,0,0,0,0,0,0,0,0,-1,1336,1583,0,0
119,-559,0,0,0,0,0,0,0,0,0,-1,1343,1583,0,0
126,-559,0,0,0,0,0,0,0,0,0,-1,1350,1583,0,0
133,-559,0,0,0,0,0,0,0,0,0,-1,1357,1583,0,0
140,-559,0,0,0,0,0,0,0,0,0,-1,1364,1583,0,0
147,-559,0,0,0,0,0,0,0,0,0,-1,1371,1583,0,0
154,-559,0,0,0,0,0,0,0,0,0,-1,1378,1583,0,0
161,-559,0,0,0,0,0,0,0,0,0,-1,1385,1583,0,0
168,-559,0,0,0,0,0,0,0,0,0,-1,1392,1583,0,0
175,-559,0,0,0,0,0,0,0,0,0,-1,1399,1583,0,0
182,-559,0,0,0,0,0,0,0,0,0,-1,1406,1583,0,0
189,-559,0,0,0,0,0,0,0,0,0,-1,1413,1583,0,0
196,-559,0,0,0,0,0,0,0,0,0,-1,1420,1583,0,0
203,-559,0,0,0,0,0,0,0,0,0,-1,1427,1583,0,0
210,-559,0,0,0,0,0,0,0,0,0,-1,1434,1583,0,0
217,-559,0,0,0,0,0,0,0,0,0,-1,1441,1583,0,0
224,-559,0,0,0,0,0,0,0,0,0,-1,1448,1583,0,0
231,-559,0,0,0,0,0,0,0,0,0,-1,1455,1583,0,0
238,-559,0,0,0,0,0,0,0,0,0,-1,1462,1583,0,0
245,-559,0,0,0,0,0,0,0,0,0,-1,1469,1583,0,0
252,-559,0,0,0,0,0,0,0,0,0,-1,1476,1583,0,0
259,-559,0,0,0,0,0,0,0,0,0,-1,1483,1583,0,0
266,-559,0,0,0,0,0,0,0,0,0,-1,1490,1583,0,0
273,-559,0,0,0,0,0,0,0,0,0,-1,1497,1583,0,0
280,-559,0,0,0,0,0,0,0,0,0,-1,1504,1583,0,0
287,-559,0,0,0,0,0,0,0,0,0,-1,1511,1583,0,0
294,-559,0,0,0,0,0,0,0,0,0,-1,1518,1583,0,0
301,-559,0,0,0,0,0,0,0,0,0,-1,1525,1583,0,0
308,-559,0,0,0,0,0,0,0,0,0,-1,1532,1583,0,0
315,-559,0,0,0,0,0,0,0,0,0,-1,1539,1583,0,0
322,-559,0,0,0,0,0,0,0,0,0,-1,1546,1583,0,0
329,-559,0,0,0,0,0,0,0,0,0,-1,1553,1583,0,0
336,-559,5.97668,3.09827,0,0,0,0,0,0,0,-1,1560,1583,5.97667,-3.09824
343,-559,5.44824,2.88696,0,0,0,0,0,0,0,-1,1567,1583,5.44819,-2.88693
350,-559,4.69775,3.27051,0,0,0,0,0,0,0,-1,1574,1583,4.69771,-3.27048
357,-559,3.88025,3.60999,0,0,0,0,0,0,0,-1,1581,1583,3.88027,-3.60998
364,-559,5.00928,5.32605,0,0,0,0,0,0,0,-1,1588,1583,5.00928,-5.32607
371,-559,1.84436,2.52441,0,0,0,0,0,0,0,-1,1595,1583,1.84441,-2.52447
378,-559,6.34753,1.53137,0,0,0,0,0,0,0,-1,1602,1583,6.34752,-1.53139
385,-559,6.95911,1.48181,0,0,0,0,0,0,0,-1,1609,1583,6.95916,-1.48175
392,-559,11.6949,4.77734,0,0,0,0,0,0,0,-1,1616,1583,11.6949,-4.77731
399,-559,11.1104,5.56909,0,0,0,0,0,0,0,-1,1623,1583,11.1103,-5.56905
406,-559,10.3385,6.48657,0,0,0,0,0,0,0,-1,1630,1583,10.3385,-6.48661
413,-559,9.76147,6.97571,0,0,0,0,0,0,0,-1,1637,1583,9.76143,-6.97574
420,-559,7.77124,10.5851,0,0,0,0,0,0,0,-1,1644,1583,7.77128,-10.585
427,-559,10.1022,12.5565,0,0,0,0,0,0,0,-1,1651,1583,10.1021,-12.5565
434,-559,9.62769,14.6309,0,0,0,0,0,0,0,-1,1658,1583,9.62771,-14.6309
441,-559,12.6149,21.3678,0,0,0,0,0,0,0,-1,1665,1583,12.6149,-21.3678
448,-559,13.7046,22.6677,0,0,0,0,0,0,0,-1,1672,1583,13.7046,-22.6677
455,-559,13.9427,23.0509,0,0,0,0,0,0,0,-1,1679,1583,13.9427,-23.0509
462,-559,19.931,36.4783,0,0,0,0,0,0,0,-1,1686,1583,19.9311,-36.4783
469,-559,19.9801,35.3158,0,0,0,0,0,0,0,-1,1693,1583,19.9801,-35.3157
476,-559,20.187,34.5919,0.00828185,0.0131656,-0.00807844,0.0191632,0.0022843,-0.932168,0.0120862,0.0252241,1700,1583,20.187,-34.5919
483,-559,20.2697,33.8496,0.00677879,0.0100153,-0.00629678,0.0148985,0.00189565,-0.911175,0.00936459,0.0137977,1707,1583,20.2697,-33.8497
490,-559,20.2517,33.2051,0.00535063,0.00735387,-0.00475676,0.0112133,0.00149118,-0.889167,0.00703139,0.0149744,1714,1583,20.2517,-33.205
497,-559,20.2864,32.6298,0.0040231,0.00525796,-0.00349982,0.0081944,0.00108667,-0.872708,0.00513915,0.0184696,1721,1583,20.2864,-32.6298
504,-559,20.1959,32.0231,0.00286245,0.00339283,-0.00245709,0.005599,0.000656283,-0.839155,0.00353427,0.0245246,1728,1583,20.1959,-32.0231
511,-559,20.1444,31.3676,0.00177446,0.00216076,-0.00151017,0.00349008,0.00044514,-0.849004,0.00219345,0.0213027,1735,1583,20.1444,-31.3676
518,-559,20.1768,30.7227,0.000772729,0.0010635,-0.000624944,0.00155975,0.000276484,-0.899685,0.000961021,0.014209,1742,1583,20.1768,-30.7227
525,-559,20.1284,30.0841,-7.07524e-05,0.000373673,0.000135848,0.000411909,-0.000108988,1.29644,0.000317238,0.0132646,1749,1583,20.1285,-30.0841
532,-559,20.0862,29.4613,-0.000780961,-0.000276139,0.000938692,0.000443486,-0.00150059,0.91674,0.00117642,0.0144007,1756,1583,20.0862,-29.4613
539,-559,20.0463,28.8256,-0.00141124,-0.000793591,0.00182899,0.000752463,-0.0029573,0.869035,0.00226442,0.018958,1763,1583,20.0463,-28.8256
546,-559,19.9794,28.1675,-0.00193262,-0.00141428,0.00291825,0.00125628,-0.00460319,0.829687,0.00356218,0.0169108,1770,1583,19.9794,-28.1675
553,-559,20.0475,27.4821,-0.00237304,-0.00202835,0.00412933,0.00193223,-0.00633362,0.806254,0.00499272,0.0218881,1777,1583,20.0475,-27.482
560,-559,20.043,27.0525,-0.00267044,-0.00245669,0.00537708,0.00281458,-0.00794171,0.795335,0.00644102,0.0433877,1784,1583,20.0429,-27.0525
567,-559,20.0122,26.3965,0,0,0,0,0,0,0,-1,1791,1583,20.0122,-26.3965
574,-559,10.5109,10.7317,0,0,0,0,0,0,0,-1,1798,1583,10.5108,-10.7317
581,-559,5.97095,5.96179,0,0,0,0,0,0,0,-1,1805,1583,5.97093,-5.96181
588,-559,5.79102,5.89954,0,0,0,0,0,0,0,-1,1812,1583,5.79098,-5.89949
595,-559,5.79089,6.24231,0,0,0,0,0,0,0,-1,1819,1583,5.7909,-6.24227
602,-559,12.478,2.35669,0,0,0,0,0,0,0,-1,1826,1583,12.4781,-2.35675
609,-559,14.0479,1.22681,0,0,0,0,0,0,0,-1,1833,1583,14.0479,-1.22681
616,-559,0,0,0,0,0,0,0,0,0,-1,1840,1583,0,0
623,-559,0,0,0,0,0,0,0,0,0,-1,1847,1583,0,0
630,-559,0,0,0,0,0,0,0,0,0,-1,1854,1583,0,0
637,-559,0,0,0,0,0,0,0,0,0,-1,1861,1583,0,0
644,-559,0,0,0,0,0,0,0,0,0,-1,1868,1583,0,0
651,-559,0,0,0,0,0,0,0,0,0,-1,1875,1583,0,0
658,-559,0,0,0,0,0,0,0,0,0,-1,1882,1583,0,0
665,-559,0,0,0,0,0,0,0,0,0,-1,1889,1583,0,0
672,-559,0,0,0,0,0,0,0,0,0,-1,1896,1583,0,0
679,-559,0,0,0,0,0,0,0,0,0,-1,1903,1583,0,0
686,-559,0,0,0,0,0,0,0,0,0,-1,1910,1583,0,0
693,-559,0,0,0,0,0,0,0,0,0,-1,1917,1583,0,0
700,-559,0,0,0,0,0,0,0,0,0,-1,1924,1583,0,0
707,-559,0,0,0,0,0,0,0,0,0,-1,1931,1583,0,0
714,-559,0,0,0,0,0,0,0,0,0,-1,1938,1583,0,0
721,-559,0,0,0,0,0,0,0,0,0,-1,1945,1583,0,0
728,-559,0,0,0,0,0,0,0,0,0,-1,1952,1583,0,0
735,-559,0,0,0,0,0,0,0,0,0,-1,1959,1583,0,0
742,-559,0,0,0,0,0,0,0,0,0,-1,1966,1583,0,0
749,-559,0,0,0,0,0,0,0,0,0,-1,1973,1583,0,0
756,-559,0,0,0,0,0,0,0,0,0,-1,1980,1583,0,0
763,-559,0,0,0,0,0,0,0,0,0,-1,1987,1583,0,0
770,-559,0,0,0,0,0,0,0,0,0,-1,1994,1583,0,0
777,-559,0,0,0,0,0,0,0,0,0,-1,2001,1583,0,0
784,-559,0,0,0,0,0,0,0,0,0,-1,2008,1583,0,0
791,-559,0,0,0,0,0,0,0,0,0,-1,2015,1583,0,0
798,-559,0,0,0,0,0,0,0,0,0,-1,2022,1583,0,0
805,-559,0,0,0,0,0,0,0,0,0,-1,2029,1583,0,0
812,-559,0,0,0,0,0,0,0,0,0,-1,2036,1583,0,0
-700,-566,0,0,0,0,0,0,0,0,0,-1,524,1590,0,0
-693,-566,0,0,0,0,0,0,0,0,0,-1,531,1590,0,0
-686,-566,0,0,0,0,0,0,0,0,0,-1,538,1590,0,0
-679,-566,0,0,0,0,0,0,0,0,0,-1,545,1590,0,0
-672,-566,0,0,0,0,0,0,0,0,0,-1,552,1590,0,0
-665,-566,0,0,0,0,0,0,0,0,0,-1,559,1590,0,0
-658,-566,0,0,0,0,0,0,0,0,0,-1,566,1590,0,0
-651,-566,0,0,0,0,0,0,0,0,0,-1,573,1590,0,0
-644,-566,0,0,0,0,0,0,0,0,0,-1,580,1590,0,0
-637,-566,0,0,0,0,0,0,0,0,0,-1,587,1590,0,0
-630,-566,0,0,0,0,0,0,0,0,0,-1,594,1590,0,0
-623,-566,0,0,0,0,0,0,0,0,0,-1,601,1590,0,0
-616,-566,0,0,0,0,0,0,0,0,0,-1,608,1590,0,0
-609,-566,0,0,0,0,0,0,0,0,0,-1,615,1590,0,0
-602,-566,0,0,0,0,0,0,0,0,0,-1,622,1590,0,0
-595,-566,0,0,0,0,0,0,0,0,0,-1,629,1590,0,0
-588,-566,0,0,0,0,0,0,0,0,0,-1,636,1590,0,0
-581,-566,0,0,0,0,0,0,0,0,0,-1,643,1590,0,0
-574,-566,0,0,0,0,0,0,0,0,0,-1,650,1590,0,0
-567,-566,0,0,0,0,0,0,0,0,0,-1,657,1590,0,0
-560,-566,0,0,0,0,0,0,0,0,0,-1,664,1590,0,0
-553,-566,0,0,0,0,0,0,0,0,0,-1,671,1590,0,0
-546,-566,0,0,0,0,0,0,0,0,0,-1,678,1590,0,0
-539,-566,0,0,0,0,0,0,0,0,0,-1,685,1590,0,0
-532,-566,0,0,0,0,0,0,0,0,0,-1,692,1590,0,0
-525,-566,0,0,0,0,0,0,0,0,0,-1,699,1590,0,0
-518,-566,0,0,0,0,0,0,0,0,0,-1,706,1590,0,0
-511,-566,0,0,0,0,0,0,0,0,0,-1,713,1590,0,0
-504,-566,0,0,0,0,0,0,0,0,0,-1,720,1590,0,0
-497,-566,0,0,0,0,0,0,0,0,0,-1,727,1590,0,0
-490,-566,0,0,0,0,0,0,0,0,0,-1,734,1590,0,0
-483,-566,-7.17084,2.78613,0,0,0,0,0,0,0,-1,741,1590,-7.17083,-2.78618
-476,-566,-7.13971,2.87183,0,0,0,0,0,0,0,-1,748,1590,-7.13971,-2.87184
-469,-566,-6.43829,3.2998,0,0,0,0,0,0,0,-1,755,1590,-6.43829,-3.2998
-462,-566,-0.459106,3.89343,0,0,0,0,0,0,0,-1,762,1590,-0.459095,-3.89341
-455,-566,0.280212,4.74023,0,0,0,0,0,0,0,-1,769,1590,0.280207,-4.74023
-448,-566,0.436951,5.51306,0,0,0,0,0,0,0,-1,776,1590,0.436971,-5.51301
-441,-566,-0.440735,12.4063,0,0,0,0,0,0,0,-1,783,1590,-0.440753,-12.4062
-434,-566,-1.26025,25.8245,0,0,0,0,0,0,0,-1,790,1590,-1.26027,-25.8245
-427,-566,-1.54132,26.6355,0,0,0,0,0,0,0,-1,797,1590,-1.5413,-26.6355
-420,-566,-2.0285,26.787,0,0,0,0,0,0,0,-1,804,1590,-2.02851,-26.787
-413,-566,-1.90594,27.6,0.00404569,0.00160609,0.00271541,0.0058027,-0.000150911,0.574298,0.00391974,0.0320997,811,1590,-1.90594,-27.6
-406,-566,-1.91974,28.3108,0.000844913,-0.000592188,0.00153371,0.00182005,-0.00156733,0.566331,0.00195752,0.0132939,818,1590,-1.91975,-28.3108
-399,-566,-1.94971,28.9841,-0.000168656,-0.000631855,0.00126254,0.000883355,-0.00168387,0.694687,0.00150601,0.0114484,825,1590,-1.94973,-28.9842
-392,-566,-1.98688,29.6355,-5.62974e-05,-0.000453306,0.00121045,0.00097182,-0.00148142,0.704126,0.00142653,0.0147778,832,1590,-1.98688,-29.6355
-385,-566,-1.99719,30.3214,0.00037984,4.3919e-05,0.0011724,0.00139625,-0.000972495,0.714251,0.00137487,0.0167082,839,1590,-1.99716,-30.3214
-378,-566,-2.01379,31.0137,0.000746329,0.000503339,0.00112169,0.00175309,-0.000503419,0.731452,0.00136777,0.0169487,846,1590,-2.01379,-31.0136
-371,-566,-2.10553,31.6793,0.00104575,0.000871187,0.00107059,0.00203261,-0.000115674,0.744726,0.00139523,0.0231927,853,1590,-2.10553,-31.6794
-364,-566,-2.10455,32.334,0.00151618,0.0015033,0.0011893,0.00269906,0.000320426,0.782691,0.00170264,0.0240169,860,1590,-2.10454,-32.334
-357,-566,-2.10944,32.9417,0.00203951,0.00219241,0.00132204,0.00344021,0.000791706,0.814278,0.00208041,0.019998,867,1590,-2.10942,-32.9417
-350,-566,-2.15338,33.5706,0.00271337,0.00284642,0.00152556,0.00430691,0.00125288,0.807187,0.00255805,0.022909,874,1590,-2.15336,-33.5705
-343,-566,-2.14685,34.1956,0.0034532,0.00367515,0.00189964,0.00546705,0.0016613,0.814574,0.00323633,0.0283093,881,1590,-2.14686,-34.1956
-336,-566,-2.27209,34.8411,0.00439659,0.0049356,0.00263106,0.00731092,0.00202127,0.836437,0.0043593,0.0315911,888,1590,-2.27211,-34.841
-329,-566,-2.19135,35.4641,0,0,0,0,0,0,0,-1,895,1590,-2.19136,-35.4641
-322,-566,-2.06854,36.2228,0,0,0,0,0,0,0,-1,902,1590,-2.06855,-36.2227
-315,-566,-1.81134,36.9974,0,0,0,0,0,0,0,-1,909,1590,-1.81134,-36.9975
-308,-566,-0.127258,29.7607,0,0,0,0,0,0,0,-1,916,1590,-0.12725,-29.7608
-301,-566,0.424011,30.6545,0,0,0,0,0,0,0,-1,923,1590,0.424036,-30.6546
-294,-566,-0.623474,37.1293,0,0,0,0,0,0,0,-1,930,1590,-0.623483,-37.1292
-287,-566,1.25391,23.4589,0,0,0,0,0,0,0,-1,937,1590,1.2539,-23.4589
-280,-566,1.59406,17.8762,0,0,0,0,0,0,0,-1,944,1590,1.59405,-17.8762
-273,-566,0.49762,11.2427,0,0,0,0,0,0,0,-1,951,1590,0.497591,-11.2426
-266,-566,0.392151,6.90295,0,0,0,0,0,0,0,-1,958,1590,0.392151,-6.90294
-259,-566,0.343628,6.47437,0,0,0,0,0,0,0,-1,965,1590,0.34363,-6.47438
-252,-566,-7.68311,1.01343,0,0,0,0,0,0,0,-1,972,1590,-7.68308,-1.01348
-245,-566,-11.1835,1.97522,0,0,0,0,0,0,0,-1,979,1590,-11.1835,-1.97527
-238,-566,-10.4883,2.40491,0,0,0,0,0,0,0,-1,986,1590,-10.4883,-2.40487
-231,-566,-7.41827,4.22803,0,0,0,0,0,0,0,-1,993,1590,-7.41827,-4.22803
-224,-566,-4.67188,6.30859,0,0,0,0,0,0,0,-1,1000,1590,-4.67185,-6.30853
-217,-566,-2.82867,7.52527,0,0,0,0,0,0,0,-1,1007,1590,-2.82869,-7.52531
-210,-566,-1.03436,8.67737,0,0,0,0,0,0,0,-1,1014,1590,-1.03439,-8.67733
-203,-566,0,0,0,0,0,0,0,0,0,-1,1021,1590,0,0
-196,-566,0,0,0,0,0,0,0,0,0,-1,1028,1590,0,0
-189,-566,0,0,0,0,0,0,0,0,0,-1,1035,1590,0,0
-182,-566,0,0,0,0,0,0,0,0,0,-1,1042,1590,0,0
-175,-566,0,0,0,0,0,0,0,0,0,-1,1049,1590,0,0
-168,-566,0,0,0,0,0,0,0,0,0,-1,1056,1590,0,0
-161,-566,0,0,0,0,0,0,0,0,0,-1,1063,1590,0,0
-154,-566,0,0,0,0,0,0,0,0,0,-1,1070,1590,0,0
-147,-566,0,0,0,0,0,0,0,0,0,-1,1077,1590,0,0
-140,-566,0,0,0,0,0,0,0,0,0,-1,1084,1590,0,0
-133,-566,0,0,0,0,0,0,0,0,0,-1,1091,1590,0,0
-126,-566,0,0,0,0,0,0,0,0,0,-1,1098,1590,0,0
-119,-566,0,0,0,0,0,0,0,0,0,-1,1105,1590,0,0
-112,-566,0,0,0,0,0,0,0,0,0,-1,1112,1590,0,0
-105,-566,0,0,0,0,0,0,0,0,0,-1,1119,1590,0,0
-98,-566,0,0,0,0,0,0,0,0,0,-1,1126,1590,0,0
-91,-566,0,0,0,0,0,0,0,0,0,-1,1133,1590,0,0
-84,-566,0,0,0,0,0,0,0,0,0,-1,1140,1590,0,0
-77,-566,0,0,0,0,0,0,0,0,0,-1,1147,1590,0,0
-70,-566,0,0,0,0,0,0,0,0,0,-1,1154,1590,0,0
-63,-566,0,0,0,0,0,0,0,0,0,-1,1161,1590,0,0
-56,-566,0,0,0,0,0,0,0,0,0,-1,1168,1590,0,0
-49,-566,0,0,0,0,0,0,0,0,0,-1,1175,1590,0,0
-42,-566,0,0,0,0,0,0,0,0,0,-1,1182,1590,0,0
-35,-566,0,0,0,0,0,0,0,0,0,-1,1189,1590,0,0
-28,-566,0,0,0,0,0,0,0,0,0,-1,1196,1590,0,0
-21,-566,0,0,0,0,0,0,0,0,0,-1,1203,1590,0,0
-14,-566,0,0,0,0,0,0,0,0,0,-1,1210,1590,0,0
-7,-566,0,0,0,0,0,0,0,0,0,-1,1217,1590,0,0
0,-566,0,0,0,0,0,0,0,0,0,-1,1224,1590,0,0
7,-566,0,0,0,0,0,0,0,0,0,-1,1231,1590,0,0
14,-566,0,0,0,0,0,0,0,0,0,-1,1238,1590,0,0
21,-566,0,0,0,0,0,0,0,0,0,-1,1245,1590,0,0
28,-566,0,0,0,0,0,0,0,0,0,-1,1252,1590,0,0
35,-566,0,0,0,0,0,0,0,0,0,-1,1259,1590,0,0
42,-566,0,0,0,0,0,0,0,0,0,-1,1266,1590,0,0
49,-566,0,0,0,0,0,0,0,0,0,-1,1273,1590,0,0
56,-566,0,0,0,0,0,0,0,0,0,-1,1280,1590,0,0
63,-566,0,0,0,0,0,0,0,0,0,-1,1287,1590,0,0
70,-566,0,0,0,0,0,0,0,0,0,-1,1294,1590,0,0
77,-566,0,0,0,0,0,0,0,0,0,-1,1301,1590,0,0
84,-566,0,0,0,0,0,0,0,0,0,-1,1308,1590,0,0
91,-566,0,0,0,0,0,0,0,0,0,-1,1315,1590,0,0
98,-566,0,0,0,0,0,0,0,0,0,-1,1322,1590,0,0
105,-566,0,0,0,0,0,0,0,0,0,-1,1329,1590,0,0
112,-566,0,0,0,0,0,0,0,0,0,-1,1336,1590,0,0
119,-566,0,0,0,0,0,0,0,0,0,-1,1343,1590,0,0
126,-566,0,0,0,0,0,0,0,0,0,-1,1350,1590,0,0
133,-566,0,0,0,0,0,0,0,0,0,-1,1357,1590,0,0
140,-566,0,0,0,0,0,0,0,0,0,-1,1364,1590,0,0
147,-566,0,0,0,0,0,0,0,0,0,-1,1371,1590,0,0
154,-566,0,0,0,0,0,0,0,0,0,-1,1378,1590,0,0
161,-566,0,0,0,0,0,0,0,0,0,-1,1385,1590,0,0
168,-566,0,0,0,0,0,0,0,0,0,-1,1392,1590,0,0
175,-566,0,0,0,0,0,0,0,0,0,-1,1399,1590,0,0
182,-566,0,0,0,0,0,0,0,0,0,-1,1406,1590,0,0
189,-566,0,0,0,0,0,0,0,0,0,-1,1413,1590,0,0
196,-566,0,0,0,0,0,0,0,0,0,-1,1420,1590,0,0
203,-566,0,0,0,0,0,0,0,0,0,-1,1427,1590,0,0
210,-566,0,0,0,0,0,0,0,0,0,-1,1434,1590,0,0
217,-566,0,0,0,0,0,0,0,0,0,-1,1441,1590,0,0
224,-566,0,0,0,0,0,0,0,0,0,-1,1448,1590,0,0
231,-566,0,0,0,0,0,0,0,0,0,-1,1455,1590,0,0
238,-566,0,0,0,0,0,0,0,0,0,-1,1462,1590,0,0
245,-566,0,0,0,0,0,0,0,0,0,-1,1469,1590,0,0
252,-566,0,0,0,0,0,0,0,0,0,-1,1476,1590,0,0
259,-566,0,0,0,0,0,0,0,0,0,-1,1483,1590,0,0
266,-566,0,0,0,0,0,0,0,0,0,-1,1490,1590,0,0
273,-566,0,0,0,0,0,0,0,0,0,-1,1497,1590,0,0
280,-566,0,0,0,0,0,0,0,0,0,-1,1504,1590,0,0
287,-566,0,0,0,0,0,0,0,0,0,-1,1511,1590,0,0
294,-566,0,0,0,0,0,0,0,0,0,-1,1518,1590,0,0
301,-566,0,0,0,0,0,0,0,0,0,-1,1525,1590,0,0
308,-566,0,0,0,0,0,0,0,0,0,-1,1532,1590,0,0
315,-566,0,0,0,0,0,0,0,0,0,-1,1539,1590,0,0
322,-566,6.07983,4.44873,0,0,0,0,0,0,0,-1,1546,1590,6.07983,-4.44873
329,-566,5.77026,3.47534,0,0,0,0,0,0,0,-1,1553,1590,5.77026,-3.47535
336,-566,5.41138,2.62915,0,0,0,0,0,0,0,-1,1560,1590,5.41138,-2.62909
343,-566,4.81873,1.79089,0,0,0,0,0,0,0,-1,1567,1590,4.81878,-1.79095
350,-566,4.41663,2.44214,0,0,0,0,0,0,0,-1,1574,1590,4.41666,-2.44214
357,-566,6.34058,5.18579,0,0,0,0,0,0,0,-1,1581,1590,6.34059,-5.1858
364,-566,6.06262,4.20251,0,0,0,0,0,0,0,-1,1588,1590,6.06259,-4.20246
371,-566,5.78455,3.21912,0,0,0,0,0,0,0,-1,1595,1590,5.7846,-3.21912
378,-566,5.7439,0.695557,0,0,0,0,0,0,0,-1,1602,1590,5.74392,-0.695531
385,-566,5.67615,-0.573975,0,0,0,0,0,0,0,-1,1609,1590,5.67612,0.573956
392,-566,5.78638,1.82434,0,0,0,0,0,0,0,-1,1616,1590,5.78637,-1.82439
399,-566,18.6853,38.6455,0,0,0,0,0,0,0,-1,1623,1590,18.6853,-38.6456
406,-566,4.30359,5.26868,0,0,0,0,0,0,0,-1,1630,1590,4.30364,-5.26867
413,-566,4.27124,5.79492,0,0,0,0,0,0,0,-1,1637,1590,4.27123,-5.7949
420,-566,18.0121,32.5314,0,0,0,0,0,0,0,-1,1644,1590,18.0121,-32.5313
427,-566,19.4491,36.9315,0,0,0,0,0,0,0,-1,1651,1590,19.4491,-36.9315
434,-566,19.338,36.7385,0,0,0,0,0,0,0,-1,1658,1590,19.338,-36.7386
441,-566,15.5841,27.5869,0,0,0,0,0,0,0,-1,1665,1590,15.5842,-27.587
448,-566,19.6996,37.9496,0,0,0,0,0,0,0,-1,1672,1590,19.6996,-37.9496
455,-566,19.2648,36.964,0,0,0,0,0,0,0,-1,1679,1590,19.2647,-36.964
462,-566,19.4369,36.0898,0.00913159,0.0163742,-0.0100122,0.0233999,0.00210591,-0.958923,0.0149475,0.0443303,1686,1590,19.4369,-36.0898
469,-566,19.5479,35.1541,0.00787694,0.0133008,-0.00784828,0.0188925,0.00228524,-0.951747,0.0119066,0.019228,1693,1590,19.5479,-35.1541
476,-566,19.6212,34.4933,0.00642934,0.0103715,-0.00624151,0.0149458,0.00185508,-0.938345,0.00940668,0.0109499,1700,1590,19.6212,-34.4933
483,-566,19.6299,33.8776,0.00515157,0.00781264,-0.00486252,0.0115234,0.00144083,-0.918945,0.00724986,0.0110518,1707,1590,19.6299,-33.8775
490,-566,19.6146,33.2469,0.00395928,0.00560311,-0.0036551,0.00852757,0.00103483,-0.895992,0.00537342,0.0121818,1714,1590,19.6146,-33.2469
497,-566,19.639,32.626,0.00285253,0.00387625,-0.00267244,0.00608541,0.000643368,-0.880019,0.0038604,0.0158099,1721,1590,19.639,-32.626
504,-566,19.5734,32.0194,0.00183699,0.00228678,-0.00180722,0.00388304,0.000240723,-0.847301,0.0025123,0.0202732,1728,1590,19.5734,-32.0194
511,-566,19.5306,31.4023,0.000822934,0.00124389,-0.000919607,0.0019768,9.00252e-05,-0.8979,0.00128891,0.0198331,1735,1590,19.5307,-31.4023
518,-566,19.5433,30.7841,-9.22596e-05,0.000360087,-0.000142547,0.00040126,-0.000133433,-1.28961,0.000321355,0.0124277,1742,1590,19.5433,-30.784
525,-566,19.5037,30.1281,-0.00089946,-0.00021927,0.000595052,0.00012602,-0.00124475,1.04501,0.00087487,0.0121585,1749,1590,19.5037,-30.1281
532,-566,19.4579,29.4657,-0.00160322,-0.000758739,0.00144068,0.000320305,-0.00268226,0.927948,0.00190395,0.0143557,1756,1590,19.4579,-29.4657
539,-566,19.412,28.8246,-0.00230549,-0.00123336,0.0024579,0.00074625,-0.0042851,0.892766,0.00313523,0.0194915,1763,1590,19.412,-28.8245
546,-566,19.4523,28.1101,-0.00294738,-0.00176382,0.00376806,0.00145864,-0.00616984,0.863288,0.0046759,0.0239515,1770,1590,19.4523,-28.1101
553,-566,19.4386,27.6432,-0.00358342,-0.00230272,0.00526626,0.00236197,-0.00824812,0.845898,0.00643229,0.0362399,1777,1590,19.4387,-27.6432
560,-566,19.1466,27.1976,-0.00422641,-0.00260954,0.00691679,0.0035459,-0.0103819,0.843574,0.00835781,0.0408477,1784,1590,19.1466,-27.1977
567,-566,19.038,26.6451,0,0,0,0,0,0,0,-1,1791,1590,19.0379,-26.6452
574,-566,7.99548,3.14514,0,0,0,0,0,0,0,-1,1798,1590,7.99543,-3.14511
581,-566,2.54102,5.1311,0,0,0,0,0,0,0,-1,1805,1590,2.54099,-5.13111
588,-566,-1.91321,8.39197,0,0,0,0,0,0,0,-1,1812,1590,-1.91316,-8.39199
595,-566,9.0271,4.66467,0,0,0,0,0,0,0,-1,1819,1590,9.02705,-4.66468
602,-566,9.953,3.54895,0,0,0,0,0,0,0,-1,1826,1590,9.953,-3.54898
609,-566,0,0,0,0,0,0,0,0,0,-1,1833,1590,0,0
616,-566,0,0,0,0,0,0,0,0,0,-1,1840,1590,0,0
623,-566,0,0,0,0,0,0,0,0,0,-1,1847,1590,0,0
630,-566,0,0,0,0,0,0,0,0,0,-1,1854,1590,0,0
637,-566,0,0,0,0,0,0,0,0,0,-1,1861,1590,0,0
644,-566,0,0,0,0,0,0,0,0,0,-1,1868,1590,0,0
651,-566,0,0,0,0,0,0,0,0,0,-1,1875,1590,0,0
658,-566,0,0,0,0,0,0,0,0,0,-1,1882,1590,0,0
665,-566,0,0,0,0,0,0,0,0,0,-1,1889,1590,0,0
672,-566,0,0,0,0,0,0,0,0,0,-1,1896,1590,0,0
679,-566,0,0,0,0,0,0,0,0,0,-1,1903,1590,0,0
686,-566,0,0,0,0,0,0,0,0,0,-1,1910,1590,0,0
693,-566,0,0,0,0,0,0,0,0,0,-1,1917,1590,0,0
700,-566,0,0,0,0,0,0,0,0,0,-1,1924,1590,0,0
707,-566,0,0,0,0,0,0,0,0,0,-1,1931,1590,0,0
714,-566,0,0,0,0,0,0,0,0,0,-1,1938,1590,0,0
721,-566,0,0,0,0,0,0,0,0,0,-1,1945,1590,0,0
728,-566,0,0,0,0,0,0,0,0,0,-1,1952,1590,0,0
735,-566,0,0,0,0,0,0,0,0,0,-1,1959,1590,0,0
742,-566,0,0,0,0,0,0,0,0,0,-1,1966,1590,0,0
749,-566,0,0,0,0,0,0,0,0,0,-1,1973,1590,0,0
756,-566,0,0,0,0,0,0,0,0,0,-1,1980,1590,0,0
763,-566,0,0,0,0,0,0,0,0,0,-1,1987,1590,0,0
770,-566,0,0,0,0,0,0,0,0,0,-1,1994,1590,0,0
777,-566,0,0,0,0,0,0,0,0,0,-1,2001,1590,0,0
784,-566,0,0,0,0,0,0,0,0,0,-1,2008,1590,0,0
791,-566,0,0,0,0,0,0,0,0,0,-1,2015,1590,0,0
798,-566,0,0,0,0,0,0,0,0,0,-1,2022,1590,0,0
805,-566,0,0,0,0,0,0,0,0,0,-1,2029,1590,0,0
812,-566,0,0,0,0,0,0,0,0,0,-1,2036,1590,0,0
-700,-573,0,0,0,0,0,0,0,0,0,-1,524,1597,0,0
-693,-573,0,0,0,0,0,0,0,0,0,-1,531,1597,0,0
-686,-573,0,0,0,0,0,0,0,0,0,-1,538,1597,0,0
-679,-573,0,0,0,0,0,0,0,0,0,-1,545,1597,0,0
-672,-573,0,0,0,0,0,0,0,0,0,-1,552,1597,0,0
-665,-573,0,0,0,0,0,0,0,0,0,-1,559,1597,0,0
-658,-573,0,0,0,0,0,0,0,0,0,-1,566,1597,0,0
-651,-573,0,0,0,0,0,0,0,0,0,-1,573,1597,0,0
-644,-573,0,0,0,0,0,0,0,0,0,-1,580,1597,0,0
-637,-573,0,0,0,0,0,0,0,0,0,-1,587,1597,0,0
-630,-573,0,0,0,0,0,0,0,0,0,-1,594,1597,0,0
-623,-573,0,0,0,0,0,0,0,0,0,-1,601,1597,0,0
-616,-573,0,0,0,0,0,0,0,0,0,-1,608,1597,0,0
-609,-573,0,0,0,0,0,0,0,0,0,-1,615,1597,0,0
-602,-573,0,0,0,0,0,0,0,0,0,-1,622,1597,0,0
-595,-573,0,0,0,0,0,0,0,0,0,-1,629,1597,0,0
-588,-573,0,0,0,0,0,0,0,0,0,-1,636,1597,0,0
-581,-573,0,0,0,0,0,0,0,0,0,-1,643,1597,0,0
-574,-573,0,0,0,0,0,0,0,0,0,-1,650,1597,0,0
-567,-573,0,0,0,0,0,0,0,0,0,-1,657,1597,0,0
-560,-573,0,0,0,0,0,0,0,0,0,-1,664,1597,0,0
-553,-573,0,0,0,0,0,0,0,0,0,-1,671,1597,0,0
-546,-573,0,0,0,0,0,0,0,0,0,-1,678,1597,0,0
-539,-573,0,0,0,0,0,0,0,0,0,-1,685,1597,0,0
-532,-573,0,0,0,0,0,0,0,0,0,-1,692,1597,0,0
-525,-573,0,0,0,0,0,0,0,0,0,-1,699,1597,0,0
-518,-573,0,0,0,0,0,0,0,0,0,-1,706,1597,0,0
-511,-573,0,0,0,0,0,0,0,0,0,-1,713,1597,0,0
-504,-573,0,0,0,0,0,0,0,0,0,-1,720,1597,0,0
-497,-573,0,0,0,0,0,0,0,0,0,-1,727,1597,0,0
-490,-573,0,0,0,0,0,0,0,0,0,-1,734,1597,0,0
-483,-573,0,0,0,0,0,0,0,0,0,-1,741,1597,0,0
-476,-573,-9.3327,0.972778,0,0,0,0,0,0,0,-1,748,1597,-9.33268,-0.972776
-469,-573,-1.41681,1.13379,0,0,0,0,0,0,0,-1,755,1597,-1.41681,-1.13382
-462,-573,-0.748535,2.02588,0,0,0,0,0,0,0,-1,762,1597,-0.748533,-2.02584
-455,-573,-0.112976,2.70703,0,0,0,0,0,0,0,-1,769,1597,-0.112988,-2.70697
-448,-573,-1.26172,3.33252,0,0,0,0,0,0,0,-1,776,1597,-1.26173,-3.33248
-441,-573,0.108582,5.06726,0,0,0,0,0,0,0,-1,783,1597,0.108584,-5.06721
-434,-573,1.61768,7.05444,0,0,0,0,0,0,0,-1,790,1597,1.61767,-7.05446
-427,-573,-1.37927,24.4124,0,0,0,0,0,0,0,-1,797,1597,-1.37928,-24.4124
-420,-573,-0.718567,26.3201,0,0,0,0,0,0,0,-1,804,1597,-0.718597,-26.32
-413,-573,-1.25507,27.4048,0,0,0,0,0,0,0,-1,811,1597,-1.25504,-27.4048
-406,-573,-1.24268,28.25,0.000705628,-0.000671209,0.00236095,0.00247648,-0.00244206,0.643538,0.00283974,0.0392497,818,1597,-1.24266,-28.25
-399,-573,-1.30109,29.0204,-0.000478231,-0.000992375,0.00177938,0.00106255,-0.00253315,0.713658,0.00213307,0.0164905,825,1597,-1.30112,-29.0203
-392,-573,-1.32196,29.7017,-0.000483598,-0.000994453,0.00155655,0.000838338,-0.00231639,0.704073,0.00188684,0.0138609,832,1597,-1.32198,-29.7016
-385,-573,-1.35535,30.3573,-0.000137706,-0.000583117,0.00136144,0.00101912,-0.00173995,0.704326,0.00161097,0.0157874,839,1597,-1.35536,-30.3574
-378,-573,-1.38983,31.0145,0.000143576,-0.000222017,0.00117807,0.00115294,-0.00123138,0.708429,0.00137684,0.0169367,846,1597,-1.38984,-31.0146
-371,-573,-1.42133,31.6935,0.000363804,5.86625e-05,0.00101606,0.00123869,-0.00081622,0.710876,0.00119473,0.0185307,853,1597,-1.4213,-31.6934
-364,-573,-1.42438,32.3168,0.000754427,0.00057612,0.00102293,0.00169208,-0.000361535,0.74193,0.00126589,0.0213357,860,1597,-1.42438,-32.3168
-357,-573,-1.42645,32.957,0.0012296,0.00117833,0.00106909,0.00227336,0.00013457,0.77341,0.00147277,0.0242343,867,1597,-1.42643,-32.9571
-350,-573,-1.48303,33.6191,0.00185792,0.00174303,0.00118625,0.00298811,0.000612843,0.761204,0.00182247,0.0194885,874,1597,-1.48305,-33.6191
-343,-573,-1.48822,34.2452,0.00254804,0.00249507,0.00146288,0.00398468,0.00105843,0.776347,0.00238332,0.0225736,881,1597,-1.48824,-34.2453
-336,-573,-1.55219,34.8988,0.00342642,0.00365179,0.00207998,0.00562214,0.00145607,0.812461,0.00336929,0.0182585,888,1597,-1.55217,-34.8988
-329,-573,-1.53876,35.5204,0.00458823,0.00620829,0.00328754,0.00878413,0.00201239,0.906188,0.00531386,0.0204613,895,1597,-1.53874,-35.5204
-322,-573,-1.57886,36.181,0.0060479,0.011037,0.00518583,0.0142971,0.00278784,1.00958,0.0087514,0.0181233,902,1597,-1.57887,-36.181
-315,-573,-1.44562,37.0212,0.00778974,0.0161511,0.00741804,0.0204854,0.00345542,1.042,0.0126633,0.0373523,909,1597,-1.44564,-37.0212
-308,-573,-1.54974,38.0046,0,0,0,0,0,0,0,-1,916,1597,-1.54972,-38.0046
-301,-573,-1.2796,38.2963,0,0,0,0,0,0,0,-1,923,1597,-1.27962,-38.2963
-294,-573,-0.291504,36.5417,0,0,0,0,0,0,0,-1,930,1597,-0.291507,-36.5417
-287,-573,-0.118835,37.2726,0,0,0,0,0,0,0,-1,937,1597,-0.118816,-37.2726
-280,-573,1.19684,26.4906,0,0,0,0,0,0,0,-1,944,1597,1.19685,-26.4906
-273,-573,2.24805,25.4375,0,0,0,0,0,0,0,-1,951,1597,2.24803,-25.4374
-266,-573,1.31116,7.1814,0,0,0,0,0,0,0,-1,958,1597,1.31118,-7.18142
-259,-573,1.2514,6.70959,0,0,0,0,0,0,0,-1,965,1597,1.25137,-6.70965
-252,-573,2.07874,5.27161,0,0,0,0,0,0,0,-1,972,1597,2.07875,-5.27157
-245,-573,-10.2592,1.09827,0,0,0,0,0,0,0,-1,979,1597,-10.2592,-1.09823
-238,-573,-11.5463,4.44141,0,0,0,0,0,0,0,-1,986,1597,-11.5463,-4.44146
-231,-573,-9.23431,4.14539,0,0,0,0,0,0,0,-1,993,1597,-9.23431,-4.14534
-224,-573,-6.70044,7.40857,0,0,0,0,0,0,0,-1,1000,1597,-6.70045,-7.40851
-217,-573,-4.25824,8.59119,0,0,0,0,0,0,0,-1,1007,1597,-4.25824,-8.59122
-210,-573,-2.39661,9.73914,0,0,0,0,0,0,0,-1,1014,1597,-2.39658,-9.73915
-203,-573,-0.557373,10.9005,0,0,0,0,0,0,0,-1,1021,1597,-0.557387,-10.9006
-196,-573,-1.65344,9.02246,0,0,0,0,0,0,0,-1,1028,1597,-1.65349,-9.02241
-189,-573,-6.12915,6.66882,0,0,0,0,0,0,0,-1,1035,1597,-6.12913,-6.66884
-182,-573,0,0,0,0,0,0,0,0,0,-1,1042,1597,0,0
-175,-573,0,0,0,0,0,0,0,0,0,-1,1049,1597,0,0
-168,-573,0,0,0,0,0,0,0,0,0,-1,1056,1597,0,0
-161,-573,0,0,0,0,0,0,0,0,0,-1,1063,1597,0,0
-154,-573,0,0,0,0,0,0,0,0,0,-1,1070,1597,0,0
-147,-573,0,0,0,0,0,0,0,0,0,-1,1077,1597,0,0
-140,-573,0,0,0,0,0,0,0,0,0,-1,1084,1597,0,0
-133,-573,0,0,0,0,0,0,0,0,0,-1,1091,1597,0,0
-126,-573,0,0,0,0,0,0,0,0,0,-1,1098,1597,0,0
-119,-573,0,0,0,0,0,0,0,0,0,-1,1105,1597,0,0
-112,-573,0,0,0,0,0,0,0,0,0,-1,1112,1597,0,0
-105,-573,0,0,0,0,0,0,0,0,0,-1,1119,1597,0,0
-98,-573,0,0,0,0,0,0,0,0,0,-1,1126,1597,0,0
-91,-573,0,0,0,0,0,0,0,0,0,-1,1133,1597,0,0
-84,-573,0,0,0,0,0,0,0,0,0,-1,1140,1597,0,0
-77,-573,0,0,0,0,0,0,0,0,0,-1,1147,1597,0,0
-70,-573,0,0,0,0,0,0,0,0,0,-1,1154,1597,0,0
-63,-573,0,0,0,0,0,0,0,0,0,-1,1161,1597,0,0
-56,-573,0,0,0,0,0,0,0,0,0,-1,1168,1597,0,0
-49,-573,0,0,0,0,0,0,0,0,0,-1,1175,1597,0,0
-42,-573,0,0,0,0,0,0,0,0,0,-1,1182,1597,0,0
-35,-573,0,0,0,0,0,0,0,0,0,-1,1189,1597,0,0
-28,-573,0,0,0,0,0,0,0,0,0,-1,1196,1597,0,0
-21,-573,0,0,0,0,0,0,0,0,0,-1,1203,1597,0,0
-14,-573,0,0,0,0,0,0,0,0,0,-1,1210,1597,0,0
-7,-573,0,0,0,0,0,0,0,0,0,-1,1217,1597,0,0
0,-573,0,0,0,0,0,0,0,0,0,-1,1224,1597,0,0
7,-573,0,0,0,0,0,0,0,0,0,-1,1231,1597,0,0
14,-573,0,0,0,0,0,0,0,0,0,-1,1238,1597,0,0
21,-573,0,0,0,0,0,0,0,0,0,-1,1245,1597,0,0
28,-573,0,0,0,0,0,0,0,0,0,-1,1252,1597,0,0
35,-573,0,0,0,0,0,0,0,0,0,-1,1259,1597,0,0
42,-573,0,0,0,0,0,0,0,0,0,-1,1266,1597,0,0
49,-573,0,0,0,0,0,0,0,0,0,-1,1273,1597,0,0
56,-573,0,0,0,0,0,0,0,0,0,-1,1280,1597,0,0
63,-573,0,0,0,0,0,0,0,0,0,-1,1287,1597,0,0
70,-573,0,0,0,0,0,0,0,0,0,-1,1294,1597,0,0
77,-573,0,0,0,0,0,0,0,0,0,-1,1301,1597,0,0
84,-573,0,0,0,0,0,0,0,0,0,-1,1308,1597,0,0
91,-573,0,0,0,0,0,0,0,0,0,-1,1315,1597,0,0
98,-573,0,0,0,0,0,0,0,0,0,-1,1322,1597,0,0
105,-573,0,0,0,0,0,0,0,0,0,-1,1329,1597,0,0
112,-573,0,0,0,0,0,0,0,0,0,-1,1336,1597,0,0
119,-573,0,0,0,0,0,0,0,0,0,-1,1343,1597,0,0
126,-573,0,0,0,0,0,0,0,0,0,-1,1350,1597,0,0
133,-573,0,0,0,0,0,0,0,0,0,-1,1357,1597,0,0
140,-573,0,0,0,0,0,0,0,0,0,-1,1364,1597,0,0
147,-573,0,0,0,0,0,0,0,0,0,-1,1371,1597,0,0
154,-573,0,0,0,0,0,0,0,0,0,-1,1378,1597,0,0
161,-573,0,0,0,0,0,0,0,0,0,-1,1385,1597,0,0
168,-573,0,0,0,0,0,0,0,0,0,-1,1392,1597,0,0
175,-573,0,0,0,0,0,0,0,0,0,-1,1399,1597,0,0
182,-573,0,0,0,0,0,0,0,0,0,-1,1406,1597,0,0
189,-573,0,0,0,0,0,0,0,0,0,-1,1413,1597,0,0
196,-573,0,0,0,0,0,0,0,0,0,-1,1420,1597,0,0
203,-573,0,0,0,0,0,0,0,0,0,-1,1427,1597,0,0
210,-573,0,0,0,0,0,0,0,0,0,-1,1434,1597,0,0
217,-573,0,0,0,0,0,0,0,0,0,-1,1441,1597,0,0
224,-573,0,0,0,0,0,0,0,0,0,-1,1448,1597,0,0
231,-573,0,0,0,0,0,0,0,0,0,-1,1455,1597,0,0
238,-573,0,0,0,0,0,0,0,0,0,-1,1462,1597,0,0
245,-573,0,0,0,0,0,0,0,0,0,-1,1469,1597,0,0
252,-573,0,0,0,0,0,0,0,0,0,-1,1476,1597,0,0
259,-573,0,0,0,0,0,0,0,0,0,-1,1483,1597,0,0
266,-573,0,0,0,0,0,0,0,0,0,-1,1490,1597,0,0
273,-573,0,0,0,0,0,0,0,0,0,-1,1497,1597,0,0
280,-573,0,0,0,0,0,0,0,0,0,-1,1504,1597,0,0
287,-573,0,0,0,0,0,0,0,0,0,-1,1511,1597,0,0
294,-573,0,0,0,0,0,0,0,0,0,-1,1518,1597,0,0
301,-573,0,0,0,0,0,0,0,0,0,-1,1525,1597,0,0
308,-573,5.93042,9.71143,0,0,0,0,0,0,0,-1,1532,1597,5.93046,-9.71144
315,-573,4.34204,11.719,0,0,0,0,0,0,0,-1,1539,1597,4.34205,-11.719
322,-573,10.3269,7.77563,0,0,0,0,0,0,0,-1,1546,1597,10.327,-7.77565
329,-573,4.99573,3.80273,0,0,0,0,0,0,0,-1,1553,1597,4.9957,-3.80273
336,-573,4.85693,2.53455,0,0,0,0,0,0,0,-1,1560,1597,4.8569,-2.53459
343,-573,5.5946,2.15894,0,0,0,0,0,0,0,-1,1567,1597,5.59456,-2.1589
350,-573,2.53748,1.56433,0,0,0,0,0,0,0,-1,1574,1597,2.53753,-1.5643
357,-573,7.40247,4.03613,0,0,0,0,0,0,0,-1,1581,1597,7.40244,-4.03614
364,-573,7.14551,3.02087,0,0,0,0,0,0,0,-1,1588,1597,7.14556,-3.02084
371,-573,6.88867,2.00549,0,0,0,0,0,0,0,-1,1595,1597,6.88868,-2.00553
378,-573,8.62012,6.09106,0,0,0,0,0,0,0,-1,1602,1597,8.62012,-6.09103
385,-573,6.54346,-0.951904,0,0,0,0,0,0,0,-1,1609,1597,6.54349,0.951901
392,-573,17.5164,38.3645,0,0,0,0,0,0,0,-1,1616,1597,17.5164,-38.3645
399,-573,18.292,42.0471,0,0,0,0,0,0,0,-1,1623,1597,18.292,-42.0471
406,-573,17.7627,41.4259,0,0,0,0,0,0,0,-1,1630,1597,17.7626,-41.4259
413,-573,18.2855,33.5858,0,0,0,0,0,0,0,-1,1637,1597,18.2855,-33.5858
420,-573,18.8063,37.0011,0,0,0,0,0,0,0,-1,1644,1597,18.8063,-37.0011
427,-573,19.7836,39.3757,0,0,0,0,0,0,0,-1,1651,1597,19.7836,-39.3757
434,-573,19.4296,39.1941,0,0,0,0,0,0,0,-1,1658,1597,19.4296,-39.1941
441,-573,19.0393,38.0935,0,0,0,0,0,0,0,-1,1665,1597,19.0393,-38.0936
448,-573,18.9735,37.3326,0.00826877,0.0171948,-0.0105999,0.024233,0.00123064,-0.984656,0.0157611,0.0433107,1672,1597,18.9736,-37.3327
455,-573,18.9808,36.4954,0.00734658,0.0148773,-0.0090316,0.020897,0.00132687,-0.982898,0.0135108,0.0320432,1679,1597,18.9808,-36.4953
462,-573,19.1056,35.6434,0.00689419,0.0126005,-0.00762134,0.0178852,0.00160945,-0.964504,0.0114249,0.0212155,1686,1597,19.1056,-35.6435
469,-573,19.0665,35.0548,0.0059967,0.0102272,-0.00602418,0.0144967,0.00172721,-0.954238,0.00914329,0.0149966,1693,1597,19.0665,-35.0548
476,-573,19.0486,34.4806,0.00481706,0.00793552,-0.00478745,0.0114113,0.00134132,-0.942827,0.00720215,0.0150174,1700,1597,19.0486,-34.4806
483,-573,19.0563,33.895,0.00374446,0.00584697,-0.00372026,0.00866165,0.000929781,-0.923096,0.00549081,0.0135318,1707,1597,19.0562,-33.895
490,-573,19.0087,33.2744,0.00275789,0.00402269,-0.00278321,0.00624444,0.00053614,-0.897111,0.00399625,0.0138913,1714,1597,19.0086,-33.2745
497,-573,19.0121,32.6345,0.00183064,0.00260363,-0.00202363,0.00427734,0.000156922,-0.879757,0.00280072,0.0215242,1721,1597,19.0121,-32.6345
504,-573,18.9857,32.0364,0.000938275,0.00128393,-0.00132007,0.00244244,-0.000220231,-0.85049,0.00170645,0.0191045,1728,1597,18.9857,-32.0363
511,-573,18.95,31.3903,-6.28595e-06,0.000425986,-0.00050489,0.000759057,-0.000339357,-0.987639,0.000649417,0.0199959,1735,1597,18.9499,-31.3902
518,-573,18.9017,30.7844,-0.000834689,-0.000225567,0.000151503,-0.000189965,-0.000870291,1.33999,0.00052838,0.015323,1742,1597,18.9017,-30.7844
525,-573,18.9047,30.1593,-0.0016147,-0.00069833,0.000865239,-0.000177449,-0.00213558,1.0289,0.00136841,0.0178962,1749,1597,18.9047,-30.1593
532,-573,18.8618,29.4825,-0.00232654,-0.00113371,0.00176956,0.000137238,-0.00359749,0.947939,0.00244536,0.0181714,1756,1597,18.8619,-29.4826
539,-573,18.7637,28.7957,0,0,0,0,0,0,0,-1,1763,1597,18.7636,-28.7957
546,-573,18.9194,28.0825,0,0,0,0,0,0,0,-1,1770,1597,18.9194,-28.0825
553,-573,18.6852,27.8014,0,0,0,0,0,0,0,-1,1777,1597,18.6852,-27.8014
560,-573,18.163,27.0618,0,0,0,0,0,0,0,-1,1784,1597,18.163,-27.0618
567,-573,17.8217,26.3833,0,0,0,0,0,0,0,-1,1791,1597,17.8217,-26.3832
574,-573,0.83374,5.7041,0,0,0,0,0,0,0,-1,1798,1597,0.833718,-5.70405
581,-573,-0.224854,7.41602,0,0,0,0,0,0,0,-1,1805,1597,-0.224904,-7.41596
588,-573,-0.134033,7.67065,0,0,0,0,0,0,0,-1,1812,1597,-0.134037,-7.67063
595,-573,-0.0825195,8.35083,0,0,0,0,0,0,0,-1,1819,1597,-0.0824684,-8.35088
602,-573,0,0,0,0,0,0,0,0,0,-1,1826,1597,0,0
609,-573,0,0,0,0,0,0,0,0,0,-1,1833,1597,0,0
616,-573,0,0,0,0,0,0,0,0,0,-1,1840,1597,0,0
623,-573,0,0,0,0,0,0,0,0,0,-1,1847,1597,0,0
630,-573,0,0,0,0,0,0,0,0,0,-1,1854,1597,0,0
637,-573,0,0,0,0,0,0,0,0,0,-1,1861,1597,0,0
644,-573,0,0,0,0,0,0,0,0,0,-1,1868,1597,0,0
651,-573,0,0,0,0,0,0,0,0,0,-1,1875,1597,0,0
658,-573,0,0,0,0,0,0,0,0,0,-1,1882,1597,0,0
665,-573,0,0,0,0,0,0,0,0,0,-1,1889,1597,0,0
672,-573,0,0,0,0,0,0,0,0,0,-1,1896,1597,0,0
679,-573,0,0,0,0,0,0,0,0,0,-1,1903,1597,0,0
686,-573,0,0,0,0,0,0,0,0,0,-1,1910,1597,0,0
693,-573,0,0,0,0,0,0,0,0,0,-1,1917,1597,0,0
700,-573,0,0,0,0,0,0,0,0,0,-1,1924,1597,0,0
707,-573,0,0,0,0,0,0,0,0,0,-1,1931,1597,0,0
714,-573,0,0,0,0,0,0,0,0,0,-1,1938,1597,0,0
721,-573,0,0,0,0,0,0,0,0,0,-1,1945,1597,0,0
728,-573,0,0,0,0,0,0,0,0,0,-1,1952,1597,0,0
735,-573,0,0,0,0,0,0,0,0,0,-1,1959,1597,0,0
742,-573,0,0,0,0,0,0,0,0,0,-1,1966,1597,0,0
749,-573,0,0,0,0,0,0,0,0,0,-1,1973,1597,0,0
756,-573,0,0,0,0,0,0,0,0,0,-1,1980,1597,0,0
763,-573,0,0,0,0,0,0,0,0,0,-1,1987,1597,0,0
770,-573,0,0,0,0,0,0,0,0,0,-1,1994,1597,0,0
777,-573,0,0,0,0,0,0,0,0,0,-1,2001,1597,0,0
784,-573,0,0,0,0,0,0,0,0,0,-1,2008,1597,0,0
791,-573,0,0,0,0,0,0,0,0,0,-1,2015,1597,0,0
798,-573,0,0,0,0,0,0,0,0,0,-1,2022,1597,0,0
805,-573,0,0,0,0,0,0,0,0,0,-1,2029,1597,0,0
812,-573,0,0,0,0,0,0,0,0,0,-1,2036,1597,0,0
-700,-580,0,0,0,0,0,0,0,0,0,-1,524,1604,0,0
-693,-580,0,0,0,0,0,0,0,0,0,-1,531,1604,0,0
-686,-580,0,0,0,0,0,0,0,0,0,-1,538,1604,0,0
-679,-580,0,0,0,0,0,0,0,0,0,-1,545,1604,0,0
-672,-580,0,0,0,0,0,0,0,0,0,-1,552,1604,0,0
-665,-580,0,0,0,0,0,0,0,0,0,-1,559,1604,0,0
-658,-580,0,0,0,0,0,0,0,0,0,-1,566,1604,0,0
-651,-580,0,0,0,0,0,0,0,0,0,-1,573,1604,0,0
-644,-580,0,0,0,0,0,0,0,0,0,-1,580,1604,0,0
-637,-580,0,0,0,0,0,0,0,0,0,-1,587,1604,0,0
-630,-580,0,0,0,0,0,0,0,0,0,-1,594,1604,0,0
-623,-580,0,0,0,0,0,0,0,0,0,-1,601,1604,0,0
-616,-580,0,0,0,0,0,0,0,0,0,-1,608,1604,0,0
-609,-580,0,0,0,0,0,0,0,0,0,-1,615,1604,0,0
-602,-580,0,0,0,0,0,0,0,0,0,-1,622,1604,0,0
-595,-580,0,0,0,0,0,0,0,0,0,-1,629,1604,0,0
-588,-580,0,0,0,0,0,0,0,0,0,-1,636,1604,0,0
-581,-580,0,0,0,0,0,0,0,0,0,-1,643,1604,0,0
-574,-580,0,0,0,0,0,0,0,0,0,-1,650,1604,0,0
-567,-580,0,0,0,0,0,0,0,0,0,-1,657,1604,0,0
-560,-580,0,0,0,0,0,0,0,0,0,-1,664,1604,0,0
-553,-580,0,0,0,0,0,0,0,0,0,-1,671,1604,0,0
-546,-580,0,0,0,0,0,0,0,0,0,-1,678,1604,0,0
-539,-580,0,0,0,0,0,0,0,0,0,-1,685,1604,0,0
-532,-580,0,0,0,0,0,0,0,0,0,-1,692,1604,0,0
-525,-580,0,0,0,0,0,0,0,0,0,-1,699,1604,0,0
-518,-580,0,0,0,0,0,0,0,0,0,-1,706,1604,0,0
-511,-580,0,0,0,0,0,0,0,0,0,-1,713,1604,0,0
-504,-580,0,0,0,0,0,0,0,0,0,-1,720,1604,0,0
-497,-580,0,0,0,0,0,0,0,0,0,-1,727,1604,0,0
-490,-580,0,0,0,0,0,0,0,0,0,-1,734,1604,0,0
-483,-580,0,0,0,0,0,0,0,0,0,-1,741,1604,0,0
-476,-580,0,0,0,0,0,0,0,0,0,-1,748,1604,0,0
-469,-580,-1.69189,-0.38916,0,0,0,0,0,0,0,-1,755,1604,-1.69192,0.389188
-462,-580,-0.859863,0.675293,0,0,0,0,0,0,0,-1,762,1604,-0.859834,-0.675245
-455,-580,-0.730164,0.651978,0,0,0,0,0,0,0,-1,769,1604,-0.730153,-0.651957
-448,-580,-3.31891,2.07544,0,0,0,0,0,0,0,-1,776,1604,-3.3189,-2.07539
-441,-580,-1.63843,3.9469,0,0,0,0,0,0,0,-1,783,1604,-1.63842,-3.94695
-434,-580,0.23291,5.97876,0,0,0,0,0,0,0,-1,790,1604,0.232901,-5.97878
-427,-580,1.62756,8.05493,0,0,0,0,0,0,0,-1,797,1604,1.62758,-8.05488
-420,-580,0.986572,11.2383,0,0,0,0,0,0,0,-1,804,1604,0.986544,-11.2382
-413,-580,0.922913,21.5701,0,0,0,0,0,0,0,-1,811,1604,0.922905,-21.5701
-406,-580,-0.604797,28.2213,0,0,0,0,0,0,0,-1,818,1604,-0.604796,-28.2213
-399,-580,-0.635986,29.0608,-0.00100836,-0.00143116,0.00220685,0.000997195,-0.00343671,0.737648,0.00268597,0.0398994,825,1604,-0.635998,-29.0608
-392,-580,-0.683044,29.7479,-0.000925991,-0.00149911,0.00195476,0.000763107,-0.00318821,0.712619,0.00242028,0.0187282,832,1604,-0.683033,-29.7479
-385,-580,-0.708435,30.3938,-0.000534763,-0.00108517,0.00170842,0.000920476,-0.00254041,0.705541,0.00206982,0.0131069,839,1604,-0.708421,-30.3938
-378,-580,-0.745361,31.0482,-0.000260345,-0.000746855,0.0014651,0.000981558,-0.00198876,0.703132,0.00174747,0.0161679,846,1604,-0.745342,-31.0482
-371,-580,-0.782898,31.7307,-6.74716e-05,-0.000487724,0.00124578,0.000985783,-0.00154098,0.70185,0.00147052,0.0151933,853,1604,-0.782921,-31.7307
-364,-580,-0.772644,32.3594,0.00025505,-6.3045e-05,0.00115586,0.00126275,-0.00107075,0.717027,0.00134877,0.0211574,860,1604,-0.772662,-32.3594
-357,-580,-0.79425,32.9866,0.000670393,0.00045521,0.00111718,0.00168515,-0.000559548,0.737393,0.0013492,0.0138791,867,1604,-0.794275,-32.9866
-350,-580,-0.8396,33.6675,0.00121671,0.000940876,0.00113755,0.00222468,-6.70871e-05,0.725072,0.00150598,0.0113217,874,1604,-0.839605,-33.6675
-343,-580,-0.857056,34.299,0.00180183,0.00160777,0.00129274,0.00300118,0.000408426,0.74794,0.0018795,0.0119134,881,1604,-0.857037,-34.299
-336,-580,-0.901428,34.8636,0.00252771,0.0026233,0.00173801,0.00431417,0.00083684,0.799145,0.00264173,0.0202013,888,1604,-0.9014,-34.8636
-329,-580,-0.905457,35.5653,0.00348314,0.00488067,0.002682,0.00695344,0.00141038,0.912835,0.00424434,0.0186975,895,1604,-0.905439,-35.5653
-322,-580,-0.934631,36.239,0.00466523,0.00891346,0.00416626,0.0114658,0.00211284,1.02114,0.00704601,0.0208029,902,1604,-0.934631,-36.239
-315,-580,-0.921814,36.8209,0.00606098,0.0131162,0.00592838,0.0164872,0.00269007,1.05378,0.0102135,0.0231133,909,1604,-0.921818,-36.8209
-308,-580,-0.856201,37.5929,0.00747231,0.0180096,0.00795527,0.0222827,0.00319921,1.07788,0.0139119,0.0328883,916,1604,-0.856178,-37.5929
-301,-580,-0.77356,38.0674,0.00927597,0.0241043,0.0106083,0.0296326,0.0037477,1.09039,0.0186319,0.0311874,923,1604,-0.773569,-38.0673
-294,-580,-0.858521,38.6538,0,0,0,0,0,0,0,-1,930,1604,-0.858512,-38.6539
-287,-580,-0.697144,40.0208,0,0,0,0,0,0,0,-1,937,1604,-0.697152,-40.0208
-280,-580,-0.630188,41.6282,0,0,0,0,0,0,0,-1,944,1604,-0.630173,-41.6281
-273,-580,-0.526611,42.6691,0,0,0,0,0,0,0,-1,951,1604,-0.526632,-42.6691
-266,-580,1.71777,25.6515,0,0,0,0,0,0,0,-1,958,1604,1.71775,-25.6515
-259,-580,1.31091,9.11536,0,0,0,0,0,0,0,-1,965,1604,1.31092,-9.11539
-252,-580,1.07629,7.74097,0,0,0,0,0,0,0,-1,972,1604,1.07627,-7.74101
-245,-580,3.80304,9.16028,0,0,0,0,0,0,0,-1,979,1604,3.80306,-9.16034
-238,-580,-10.3588,1.57556,0,0,0,0,0,0,0,-1,986,1604,-10.3588,-1.5755
-231,-580,-10.576,6.43787,0,0,0,0,0,0,0,-1,993,1604,-10.576,-6.43783
-224,-580,-8.27435,7.58972,0,0,0,0,0,0,0,-1,1000,1604,-8.27435,-7.5897
-217,-580,-5.85632,9.51221,0,0,0,0,0,0,0,-1,1007,1604,-5.85632,-9.5122
-210,-580,-3.6684,11.1569,0,0,0,0,0,0,0,-1,1014,1604,-3.66839,-11.1569
-203,-580,-1.92474,12.7845,0,0,0,0,0,0,0,-1,1021,1604,-1.92477,-12.7845
-196,-580,-2.28552,10.3289,0,0,0,0,0,0,0,-1,1028,1604,-2.28552,-10.3288
-189,-580,-4.58252,7.59058,0,0,0,0,0,0,0,-1,1035,1604,-4.58256,-7.59057
-182,-580,-5.45874,7.65942,0,0,0,0,0,0,0,-1,1042,1604,-5.45876,-7.65939
-175,-580,-6.38977,7.55005,0,0,0,0,0,0,0,-1,1049,1604,-6.38981,-7.5501
-168,-580,0,0,0,0,0,0,0,0,0,-1,1056,1604,0,0
-161,-580,0,0,0,0,0,0,0,0,0,-1,1063,1604,0,0
-154,-580,0,0,0,0,0,0,0,0,0,-1,1070,1604,0,0
-147,-580,0,0,0,0,0,0,0,0,0,-1,1077,1604,0,0
-140,-580,0,0,0,0,0,0,0,0,0,-1,1084,1604,0,0
-133,-580,0,0,0,0,0,0,0,0,0,-1,1091,1604,0,0
-126,-580,0,0,0,0,0,0,0,0,0,-1,1098,1604,0,0
-119,-580,0,0,0,0,0,0,0,0,0,-1,1105,1604,0,0
-112,-580,0,0,0,0,0,0,0,0,0,-1,1112,1604,0,0
-105,-580,0,0,0,0,0,0,0,0,0,-1,1119,1604,0,0
-98,-580,0,0,0,0,0,0,0,0,0,-1,1126,1604,0,0
-91,-580,0,0,0,0,0,0,0,0,0,-1,1133,1604,0,0
-84,-580,0,0,0,0,0,0,0,0,0,-1,1140,1604,0,0
-77,-580,0,0,0,0,0,0,0,0,0,-1,1147,1604,0,0
-70,-580,0,0,0,0,0,0,0,0,0,-1,1154,1604,0,0
-63,-580,0,0,0,0,0,0,0,0,0,-1,1161,1604,0,0
-56,-580,0,0,0,0,0,0,0,0,0,-1,1168,1604,0,0
-49,-580,0,0,0,0,0,0,0,0,0,-1,1175,1604,0,0
-42,-580,0,0,0,0,0,0,0,0,0,-1,1182,1604,0,0
-35,-580,0,0,0,0,0,0,0,0,0,-1,1189,1604,0,0
-28,-580,0,0,0,0,0,0,0,0,0,-1,1196,1604,0,0
-21,-580,0,0,0,0,0,0,0,0,0,-1,1203,1604,0,0
-14,-580,0,0,0,0,0,0,0,0,0,-1,1210,1604,0,0
-7,-580,0,0,0,0,0,0,0,0,0,-1,1217,1604,0,0
0,-580,0,0,0,0,0,0,0,0,0,-1,1224,1604,0,0
7,-580,0,0,0,0,0,0,0,0,0,-1,1231,1604,0,0
14,-580,0,0,0,0,0,0,0,0,0,-1,1238,1604,0,0
21,-580,0,0,0,0,0,0,0,0,0,-1,1245,1604,0,0
28,-580,0,0,0,0,0,0,0,0,0,-1,1252,1604,0,0
35,-580,0,0,0,0,0,0,0,0,0,-1,1259,1604,0,0
42,-580,0,0,0,0,0,0,0,0,0,-1,1266,1604,0,0
49,-580,0,0,0,0,0,0,0,0,0,-1,1273,1604,0,0
56,-580,0,0,0,0,0,0,0,0,0,-1,1280,1604,0,0
63,-580,0,0,0,0,0,0,0,0,0,-1,1287,1604,0,0
70,-580,0,0,0,0,0,0,0,0,0,-1,1294,1604,0,0
77,-580,0,0,0,0,0,0,0,0,0,-1,1301,1604,0,0
84,-580,0,0,0,0,0,0,0,0,0,-1,1308,1604,0,0
91,-580,0,0,0,0,0,0,0,0,0,-1,1315,1604,0,0
98,-580,0,0,0,0,0,0,0,0,0,-1,1322,1604,0,0
105,-580,0,0,0,0,0,0,0,0,0,-1,1329,1604,0,0
112,-580,0,0,0,0,0,0,0,0,0,-1,1336,1604,0,0
119,-580,0,0,0,0,0,0,0,0,0,-1,1343,1604,0,0
126,-580,0,0,0,0,0,0,0,0,0,-1,1350,1604,0,0
133,-580,0,0,0,0,0,0,0,0,0,-1,1357,1604,0,0
140,-580,0,0,0,0,0,0,0,0,0,-1,1364,1604,0,0
147,-580,0,0,0,0,0,0,0,0,0,-1,1371,1604,0,0
154,-580,0,0,0,0,0,0,0,0,0,-1,1378,1604,0,0
161,-580,0,0,0,0,0,0,0,0,0,-1,1385,1604,0,0
168,-580,0,0,0,0,0,0,0,0,0,-1,1392,1604,0,0
175,-580,0,0,0,0,0,0,0,0,0,-1,1399,1604,0,0
182,-580,0,0,0,0,0,0,0,0,0,-1,1406,1604,0,0
189,-580,0,0,0,0,0,0,0,0,0,-1,1413,1604,0,0
196,-580,0,0,0,0,0,0,0,0,0,-1,1420,1604,0,0
203,-580,0,0,0,0,0,0,0,0,0,-1,1427,1604,0,0
210,-580,0,0,0,0,0,0,0,0,0,-1,1434,1604,0,0
217,-580,0,0,0,0,0,0,0,0,0,-1,1441,1604,0,0
224,-580,0,0,0,0,0,0,0,0,0,-1,1448,1604,0,0
231,-580,0,0,0,0,0,0,0,0,0,-1,1455,1604,0,0
238,-580,0,0,0,0,0,0,0,0,0,-1,1462,1604,0,0
245,-580,0,0,0,0,0,0,0,0,0,-1,1469,1604,0,0
252,-580,0,0,0,0,0,0,0,0,0,-1,1476,1604,0,0
259,-580,0,0,0,0,0,0,0,0,0,-1,1483,1604,0,0
266,-580,0,0,0,0,0,0,0,0,0,-1,1490,1604,0,0
273,-580,0,0,0,0,0,0,0,0,0,-1,1497,1604,0,0
280,-580,0,0,0,0,0,0,0,0,0,-1,1504,1604,0,0
287,-580,0,0,0,0,0,0,0,0,0,-1,1511,1604,0,0
294,-580,4.0437,0.177368,0,0,0,0,0,0,0,-1,1518,1604,4.04369,-0.177371
301,-580,7.55164,8.05798,0,0,0,0,0,0,0,-1,1525,1604,7.55158,-8.05802
308,-580,5.9126,9.99341,0,0,0,0,0,0,0,-1,1532,1604,5.91255,-9.99337
315,-580,4.27356,11.9287,0,0,0,0,0,0,0,-1,1539,1604,4.27352,-11.9287
322,-580,10.2366,7.50281,0,0,0,0,0,0,0,-1,1546,1604,10.2366,-7.50282
329,-580,10.5962,8.69641,0,0,0,0,0,0,0,-1,1553,1604,10.5962,-8.69642
336,-580,3.66431,1.58862,0,0,0,0,0,0,0,-1,1560,1604,3.6643,-1.58864
343,-580,3.32227,1.39636,0,0,0,0,0,0,0,-1,1567,1604,3.32222,-1.39633
350,-580,8.71277,4.0564,0,0,0,0,0,0,0,-1,1574,1604,8.71271,-4.05638
357,-580,8.52332,3.08154,0,0,0,0,0,0,0,-1,1581,1604,8.52332,-3.08157
364,-580,8.25818,2.07605,0,0,0,0,0,0,0,-1,1588,1604,8.25812,-2.07608
371,-580,7.42114,7.14282,0,0,0,0,0,0,0,-1,1595,1604,7.42119,-7.14281
378,-580,7.9718,6.6731,0,0,0,0,0,0,0,-1,1602,1604,7.9718,-6.67307
385,-580,8.52246,6.20337,0,0,0,0,0,0,0,-1,1609,1604,8.52241,-6.20334
392,-580,19.1831,42.1492,0,0,0,0,0,0,0,-1,1616,1604,19.1831,-42.1492
399,-580,18.3989,41.6628,0,0,0,0,0,0,0,-1,1623,1604,18.399,-41.6629
406,-580,17.7174,41.0417,0,0,0,0,0,0,0,-1,1630,1604,17.7175,-41.0418
413,-580,17.7496,40.0327,0,0,0,0,0,0,0,-1,1637,1604,17.7496,-40.0327
420,-580,17.9854,39.527,0,0,0,0,0,0,0,-1,1644,1604,17.9853,-39.527
427,-580,18.1896,39.1097,0,0,0,0,0,0,0,-1,1651,1604,18.1895,-39.1097
434,-580,18.7035,38.3053,0,0,0,0,0,0,0,-1,1658,1604,18.7035,-38.3053
441,-580,18.3217,37.5879,0,0,0,0,0,0,0,-1,1665,1604,18.3216,-37.5879
448,-580,18.4526,36.9055,0.00630766,0.0128642,-0.00784649,0.0180897,0.00108215,-0.983278,0.0117158,0.0171774,1672,1604,18.4526,-36.9055
455,-580,18.5339,36.3135,0.00557072,0.0111215,-0.00673064,0.0156265,0.0010657,-0.980952,0.0100812,0.0195936,1679,1604,18.5339,-36.3134
462,-580,18.5206,35.6752,0.00520533,0.00934264,-0.00572685,0.013363,0.00118497,-0.958716,0.00854112,0.0218534,1686,1604,18.5207,-35.6752
469,-580,18.4923,35.0599,0.00452064,0.00751302,-0.00458026,0.0108353,0.00119839,-0.943265,0.00685904,0.0198816,1693,1604,18.4923,-35.0599
476,-580,18.4391,34.4681,0.00356383,0.00574603,-0.00366906,0.00848279,0.000827076,-0.929923,0.00540065,0.0156948,1700,1604,18.439,-34.4681
483,-580,18.4193,33.8949,0.0026553,0.00407158,-0.00287119,0.00632067,0.000406215,-0.906304,0.00408511,0.0142378,1707,1604,18.4193,-33.8949
490,-580,18.3859,33.3049,0.00182659,0.00259645,-0.00216844,0.00441386,9.17586e-06,-0.873241,0.00293952,0.0187484,1714,1604,18.3858,-33.305
497,-580,18.3433,32.6852,0.00103285,0.00145215,-0.00160332,0.00285946,-0.000374469,-0.85041,0.00204261,0.0150922,1721,1604,18.3433,-32.6852
504,-580,18.3055,32.0687,0.000227698,0.000402214,-0.00105111,0.00136969,-0.000739774,-0.826811,0.00123586,0.0188137,1728,1604,18.3055,-32.0687
511,-580,18.295,31.4178,-0.000681677,-0.00028518,-0.000313874,-0.000112188,-0.000854668,-1.06707,0.000536309,0.0182147,1735,1604,18.295,-31.4179
518,-580,18.264,30.8019,-0.00148103,-0.000717675,0.00023018,-0.00065364,-0.00154507,1.29946,0.00089556,0.0167383,1742,1604,18.264,-30.8018
525,-580,18.2507,30.1622,-0.00232774,-0.00112888,0.00096134,-0.000595396,-0.00286122,1.06417,0.00174324,0.0240951,1749,1604,18.2508,-30.1622
532,-580,18.1439,29.5603,-0.00318222,-0.00150426,0.00199366,-0.000180234,-0.00450624,0.984562,0.00294592,0.0434608,1756,1604,18.1439,-29.5603
539,-580,18.1436,28.8779,0,0,0,0,0,0,0,-1,1763,1604,18.1435,-28.8779
546,-580,18.4987,27.5359,0,0,0,0,0,0,0,-1,1770,1604,18.4987,-27.5358
553,-580,17.1749,26.6359,0,0,0,0,0,0,0,-1,1777,1604,17.1749,-26.6358
560,-580,17.3662,27.0336,0,0,0,0,0,0,0,-1,1784,1604,17.3662,-27.0336
567,-580,3.87708,4.0647,0,0,0,0,0,0,0,-1,1791,1604,3.87711,-4.06471
574,-580,2.31653,5.62952,0,0,0,0,0,0,0,-1,1798,1604,2.31654,-5.62947
581,-580,1.60876,6.67664,0,0,0,0,0,0,0,-1,1805,1604,1.60873,-6.67667
588,-580,1.38684,7.14441,0,0,0,0,0,0,0,-1,1812,1604,1.38689,-7.14443
595,-580,0,0,0,0,0,0,0,0,0,-1,1819,1604,0,0
602,-580,0,0,0,0,0,0,0,0,0,-1,1826,1604,0,0
609,-580,0,0,0,0,0,0,0,0,0,-1,1833,1604,0,0
616,-580,0,0,0,0,0,0,0,0,0,-1,1840,1604,0,0
623,-580,0,0,0,0,0,0,0,0,0,-1,1847,1604,0,0
630,-580,0,0,0,0,0,0,0,0,0,-1,1854,1604,0,0
637,-580,0,0,0,0,0,0,0,0,0,-1,1861,1604,0,0
644,-580,0,0,0,0,0,0,0,0,0,-1,1868,1604,0,0
651,-580,0,0,0,0,0,0,0,0,0,-1,1875,1604,0,0
658,-580,0,0,0,0,0,0,0,0,0,-1,1882,1604,0,0
665,-580,0,0,0,0,0,0,0,0,0,-1,1889,1604,0,0
672,-580,0,0,0,0,0,0,0,0,0,-1,1896,1604,0,0
679,-580,0,0,0,0,0,0,0,0,0,-1,1903,1604,0,0
686,-580,0,0,0,0,0,0,0,0,0,-1,1910,1604,0,0
693,-580,0,0,0,0,0,0,0,0,0,-1,1917,1604,0,0
700,-580,0,0,0,0,0,0,0,0,0,-1,1924,1604,0,0
707,-580,0,0,0,0,0,0,0,0,0,-1,1931,1604,0,0
714,-580,0,0,0,0,0,0,0,0,0,-1,1938,1604,0,0
721,-580,0,0,0,0,0,0,0,0,0,-1,1945,1604,0,0
728,-580,0,0,0,0,0,0,0,0,0,-1,1952,1604,0,0
735,-580,0,0,0,0,0,0,0,0,0,-1,1959,1604,0,0
742,-580,0,0,0,0,0,0,0,0,0,-1,1966,1604,0,0
749,-580,0,0,0,0,0,0,0,0,0,-1,1973,1604,0,0
756,-580,0,0,0,0,0,0,0,0,0,-1,1980,1604,0,0
763,-580,0,0,0,0,0,0,0,0,0,-1,1987,1604,0,0
770,-580,0,0,0,0,0,0,0,0,0,-1,1994,1604,0,0
777,-580,0,0,0,0,0,0,0,0,0,-1,2001,1604,0,0
784,-580,0,0,0,0,0,0,0,0,0,-1,2008,1604,0,0
791,-580,0,0,0,0,0,0,0,0,0,-1,2015,1604,0,0
798,-580,0,0,0,0,0,0,0,0,0,-1,2022,1604,0,0
805,-580,0,0,0,0,0,0,0,0,0,-1,2029,1604,0,0
812,-580,0,0,0,0,0,0,0,0,0,-1,2036,1604,0,0
-700,-587,0,0,0,0,0,0,0,0,0,-1,524,1611,0,0
-693,-587,0,0,0,0,0,0,0,0,0,-1,531,1611,0,0
-686,-587,0,0,0,0,0,0,0,0,0,-1,538,1611,0,0
-679,-587,0,0,0,0,0,0,0,0,0,-1,545,1611,0,0
-672,-587,0,0,0,0,0,0,0,0,0,-1,552,1611,0,0
-665,-587,0,0,0,0,0,0,0,0,0,-1,559,1611,0,0
-658,-587,0,0,0,0,0,0,0,0,0,-1,566,1611,0,0
-651,-587,0,0,0,0,0,0,0,0,0,-1,573,1611,0,0
-644,-587,0,0,0,0,0,0,0,0,0,-1,580,1611,0,0
-637,-587,0,0,0,0,0,0,0,0,0,-1,587,1611,0,0
-630,-587,0,0,0,0,0,0,0,0,0,-1,594,1611,0,0
-623,-587,0,0,0,0,0,0,0,0,0,-1,601,1611,0,0
-616,-587,0,0,0,0,0,0,0,0,0,-1,608,1611,0,0
-609,-587,0,0,0,0,0,0,0,0,0,-1,615,1611,0,0
-602,-587,0,0,0,0,0,0,0,0,0,-1,622,1611,0,0
-595,-587,0,0,0,0,0,0,0,0,0,-1,629,1611,0,0
-588,-587,0,0,0,0,0,0,0,0,0,-1,636,1611,0,0
-581,-587,0,0,0,0,0,0,0,0,0,-1,643,1611,0,0
-574,-587,0,0,0,0,0,0,0,0,0,-1,650,1611,0,0
-567,-587,0,0,0,0,0,0,0,0,0,-1,657,1611,0,0
-560,-587,0,0,0,0,0,0,0,0,0,-1,664,1611,0,0
-553,-587,0,0,0,0,0,0,0,0,0,-1,671,1611,0,0
-546,-587,0,0,0,0,0,0,0,0,0,-1,678,1611,0,0
-539,-587,0,0,0,0,0,0,0,0,0,-1,685,1611,0,0
-532,-587,0,0,0,0,0,0,0,0,0,-1,692,1611,0,0
-525,-587,0,0,0,0,0,0,0,0,0,-1,699,1611,0,0
-518,-587,0,0,0,0,0,0,0,0,0,-1,706,1611,0,0
-511,-587,0,0,0,0,0,0,0,0,0,-1,713,1611,0,0
-504,-587,0,0,0,0,0,0,0,0,0,-1,720,1611,0,0
-497,-587,0,0,0,0,0,0,0,0,0,-1,727,1611,0,0
-490,-587,0,0,0,0,0,0,0,0,0,-1,734,1611,0,0
-483,-587,0,0,0,0,0,0,0,0,0,-1,741,1611,0,0
-476,-587,0,0,0,0,0,0,0,0,0,-1,748,1611,0,0
-469,-587,0,0,0,0,0,0,0,0,0,-1,755,1611,0,0
-462,-587,-0.714355,-0.418457,0,0,0,0,0,0,0,-1,762,1611,-0.714359,0.418483
-455,-587,-0.619812,-0.522461,0,0,0,0,0,0,0,-1,769,1611,-0.619802,0.522515
-448,-587,-0.461731,-0.686523,0,0,0,0,0,0,0,-1,776,1611,-0.461739,0.686559
-441,-587,-3.56555,2.72253,0,0,0,0,0,0,0,-1,783,1611,-3.56555,-2.72259
-434,-587,-1.77319,4.76318,0,0,0,0,0,0,0,-1,790,1611,-1.77318,-4.76323
-427,-587,0.0346069,6.92944,0,0,0,0,0,0,0,-1,797,1611,0.034587,-6.92941
-420,-587,-0.647156,10.1157,0,0,0,0,0,0,0,-1,804,1611,-0.647128,-10.1158
-413,-587,2.13971,10.3901,0,0,0,0,0,0,0,-1,811,1611,2.13971,-10.3902
-406,-587,2.2525,19.7814,0,0,0,0,0,0,0,-1,818,1611,2.25253,-19.7814
-399,-587,-0.0648193,28.9999,0,0,0,0,0,0,0,-1,825,1611,-0.0648371,-28.9999
-392,-587,-0.113647,29.7018,0,0,0,0,0,0,0,-1,832,1611,-0.113671,-29.7018
-385,-587,-0.156555,30.376,-0.000805731,-0.00162191,0.0021467,0.000971324,-0.00339897,0.691468,0.00264978,0.0253038,839,1611,-0.156582,-30.376
-378,-587,-0.161377,31.0967,-0.000457166,-0.00117459,0.00189908,0.00111679,-0.00274855,0.692054,0.00229698,0.0148084,846,1611,-0.161382,-31.0967
-371,-587,-0.169189,31.7661,-0.00024722,-0.000857528,0.0016626,0.001138,-0.00224275,0.694638,0.00198631,0.0145842,853,1611,-0.169202,-31.7661
-364,-587,-0.158264,32.4263,3.89892e-05,-0.000492044,0.00149218,0.00128909,-0.00174215,0.697351,0.00175659,0.0181255,860,1611,-0.158268,-32.4263
-357,-587,-0.182678,33.026,0.000410155,-3.77603e-05,0.00137624,0.00158054,-0.00120815,0.70474,0.00161483,0.0170829,867,1611,-0.182694,-33.026
-350,-587,-0.227844,33.6902,0.000866878,0.000387387,0.00130331,0.00195231,-0.000698041,0.694439,0.00158627,0.0102146,874,1611,-0.227866,-33.6901
-343,-587,-0.260315,34.3167,0.00133502,0.000962833,0.00133553,0.00249736,-0.000199509,0.716173,0.00173524,0.0129607,881,1611,-0.260322,-34.3166
-336,-587,-0.284973,34.929,0.00188813,0.00181016,0.00159462,0.00344424,0.000254055,0.773177,0.00221633,0.0130125,888,1611,-0.284981,-34.929
-329,-587,-0.305359,35.5619,0.00262195,0.00368087,0.00225549,0.0054682,0.000834613,0.900683,0.00340157,0.0142804,895,1611,-0.305374,-35.5619
-322,-587,-0.300537,36.215,0.00351787,0.00692064,0.00334198,0.00896939,0.00146912,1.02085,0.00555503,0.0172918,902,1611,-0.300526,-36.215
-315,-587,-0.328613,36.7999,0.00458682,0.0102942,0.00467449,0.0129173,0.00196381,1.05945,0.00803727,0.0147431,909,1611,-0.328643,-36.7999
-308,-587,-0.343872,37.4185,0.00571145,0.0141403,0.00617716,0.0174037,0.00244799,1.08476,0.0108787,0.0151504,916,1611,-0.343847,-37.4184
-301,-587,-0.305054,38.0511,0.0071616,0.0188468,0.00814786,0.0230304,0.00297806,1.09645,0.0144635,0.0155985,923,1611,-0.305036,-38.0511
-294,-587,-0.263123,38.7081,0.00883129,0.024821,0.0105298,0.0300471,0.00360519,1.1101,0.0189444,0.0260767,930,1611,-0.26313,-38.7081
-287,-587,-0.281006,39.4868,0.0109419,0.0321446,0.0136332,0.0388132,0.00427325,1.11587,0.0245752,0.0405243,937,1611,-0.281007,-39.4868
-280,-587,-0.180115,40.7032,0.0134056,0.0406038,0.0170496,0.0488135,0.00519594,1.12204,0.0309561,0.0486236,944,1611,-0.18014,-40.7032
-273,-587,-0.122314,41.7209,0.015665,0.0481846,0.0200522,0.0577409,0.00610868,1.12607,0.0366279,0.0448621,951,1611,-0.122311,-41.7209
-266,-587,-0.0950317,42.4209,0,0,0,0,0,0,0,-1,958,1611,-0.0950105,-42.4209
-259,-587,0.615845,41.068,0,0,0,0,0,0,0,-1,965,1611,0.615838,-41.0681
-252,-587,1.30188,10.3103,0,0,0,0,0,0,0,-1,972,1611,1.30188,-10.3104
-245,-587,1.52075,27.4791,0,0,0,0,0,0,0,-1,979,1611,1.52076,-27.4791
-238,-587,2.87799,9.53821,0,0,0,0,0,0,0,-1,986,1611,2.87797,-9.53823
-231,-587,2.49548,9.14465,0,0,0,0,0,0,0,-1,993,1611,2.49551,-9.14468
-224,-587,-9.72528,9.21069,0,0,0,0,0,0,0,-1,1000,1611,-9.72529,-9.21072
-217,-587,-7.07495,10.7847,0,0,0,0,0,0,0,-1,1007,1611,-7.07495,-10.7847
-210,-587,-4.72308,12.5889,0,0,0,0,0,0,0,-1,1014,1611,-4.72307,-12.5888
-203,-587,-3.2583,13.7289,0,0,0,0,0,0,0,-1,1021,1611,-3.25828,-13.7289
-196,-587,-1.953,14.8145,0,0,0,0,0,0,0,-1,1028,1611,-1.95302,-14.8144
-189,-587,-3.04138,8.66638,0,0,0,0,0,0,0,-1,1035,1611,-3.04136,-8.66635
-182,-587,-3.97095,9.7146,0,0,0,0,0,0,0,-1,1042,1611,-3.97093,-9.71461
-175,-587,-4.80969,8.37878,0,0,0,0,0,0,0,-1,1049,1611,-4.80964,-8.37883
-168,-587,-5.91394,8.72546,0,0,0,0,0,0,0,-1,1056,1611,-5.91398,-8.72542
-161,-587,-7.06946,8.88501,0,0,0,0,0,0,0,-1,1063,1611,-7.06947,-8.885
-154,-587,-2.24731,6.56519,0,0,0,0,0,0,0,-1,1070,1611,-2.24728,-6.56517
-147,-587,0,0,0,0,0,0,0,0,0,-1,1077,1611,0,0
-140,-587,0,0,0,0,0,0,0,0,0,-1,1084,1611,0,0
-133,-587,0,0,0,0,0,0,0,0,0,-1,1091,1611,0,0
-126,-587,0,0,0,0,0,0,0,0,0,-1,1098,1611,0,0
-119,-587,0,0,0,0,0,0,0,0,0,-1,1105,1611,0,0
-112,-587,0,0,0,0,0,0,0,0,0,-1,1112,1611,0,0
-105,-587,0,0,0,0,0,0,0,0,0,-1,1119,1611,0,0
-98,-587,0,0,0,0,0,0,0,0,0,-1,1126,1611,0,0
-91,-587,0,0,0,0,0,0,0,0,0,-1,1133,1611,0,0
-84,-587,0,0,0,0,0,0,0,0,0,-1,1140,1611,0,0
-77,-587,0,0,0,0,0,0,0,0,0,-1,1147,1611,0,0
-70,-587,0,0,0,0,0,0,0,0,0,-1,1154,1611,0,0
-63,-587,0,0,0,0,0,0,0,0,0,-1,1161,1611,0,0
-56,-587,0,0,0,0,0,0,0,0,0,-1,1168,1611,0,0
-49,-587,0,0,0,0,0,0,0,0,0,-1,1175,1611,0,0
-42,-587,0,0,0,0,0,0,0,0,0,-1,1182,1611,0,0
-35,-587,0,0,0,0,0,0,0,0,0,-1,1189,1611,0,0
-28,-587,0,0,0,0,0,0,0,0,0,-1,1196,1611,0,0
-21,-587,0,0,0,0,0,0,0,0,0,-1,1203,1611,0,0
-14,-587,0,0,0,0,0,0,0,0,0,-1,1210,1611,0,0
-7,-587,0,0,0,0,0,0,0,0,0,-1,1217,1611,0,0
0,-587,0,0,0,0,0,0,0,0,0,-1,1224,1611,0,0
7,-587,0,0,0,0,0,0,0,0,0,-1,1231,1611,0,0
14,-587,0,0,0,0,0,0,0,0,0,-1,1238,1611,0,0
21,-587,0,0,0,0,0,0,0,0,0,-1,1245,1611,0,0
28,-587,0,0,0,0,0,0,0,0,0,-1,1252,1611,0,0
35,-587,0,0,0,0,0,0,0,0,0,-1,1259,1611,0,0
42,-587,0,0,0,0,0,0,0,0,0,-1,1266,1611,0,0
49,-587,0,0,0,0,0,0,0,0,0,-1,1273,1611,0,0
56,-587,0,0,0,0,0,0,0,0,0,-1,1280,1611,0,0
63,-587,0,0,0,0,0,0,0,0,0,-1,1287,1611,0,0
70,-587,0,0,0,0,0,0,0,0,0,-1,1294,1611,0,0
77,-587,0,0,0,0,0,0,0,0,0,-1,1301,1611,0,0
84,-587,0,0,0,0,0,0,0,0,0,-1,1308,1611,0,0
91,-587,0,0,0,0,0,0,0,0,0,-1,1315,1611,0,0
98,-587,0,0,0,0,0,0,0,0,0,-1,1322,1611,0,0
105,-587,0,0,0,0,0,0,0,0,0,-1,1329,1611,0,0
112,-587,0,0,0,0,0,0,0,0,0,-1,1336,1611,0,0
119,-587,0,0,0,0,0,0,0,0,0,-1,1343,1611,0,0
126,-587,0,0,0,0,0,0,0,0,0,-1,1350,1611,0,0
133,-587,0,0,0,0,0,0,0,0,0,-1,1357,1611,0,0
140,-587,0,0,0,0,0,0,0,0,0,-1,1364,1611,0,0
147,-587,0,0,0,0,0,0,0,0,0,-1,1371,1611,0,0
154,-587,0,0,0,0,0,0,0,0,0,-1,1378,1611,0,0
161,-587,0,0,0,0,0,0,0,0,0,-1,1385,1611,0,0
168,-587,0,0,0,0,0,0,0,0,0,-1,1392,1611,0,0
175,-587,0,0,0,0,0,0,0,0,0,-1,1399,1611,0,0
182,-587,0,0,0,0,0,0,0,0,0,-1,1406,1611,0,0
189,-587,0,0,0,0,0,0,0,0,0,-1,1413,1611,0,0
196,-587,0,0,0,0,0,0,0,0,0,-1,1420,1611,0,0
203,-587,0,0,0,0,0,0,0,0,0,-1,1427,1611,0,0
210,-587,0,0,0,0,0,0,0,0,0,-1,1434,1611,0,0
217,-587,0,0,0,0,0,0,0,0,0,-1,1441,1611,0,0
224,-587,0,0,0,0,0,0,0,0,0,-1,1448,1611,0,0
231,-587,0,0,0,0,0,0,0,0,0,-1,1455,1611,0,0
238,-587,0,0,0,0,0,0,0,0,0,-1,1462,1611,0,0
245,-587,0,0,0,0,0,0,0,0,0,-1,1469,1611,0,0
252,-587,0,0,0,0,0,0,0,0,0,-1,1476,1611,0,0
259,-587,0,0,0,0,0,0,0,0,0,-1,1483,1611,0,0
266,-587,0,0,0,0,0,0,0,0,0,-1,1490,1611,0,0
273,-587,10.2936,6.35083,0,0,0,0,0,0,0,-1,1497,1611,10.2936,-6.35087
280,-587,2.09204,1.1217,0,0,0,0,0,0,0,-1,1504,1611,2.092,-1.12176
287,-587,3.2865,0.671509,0,0,0,0,0,0,0,-1,1511,1611,3.28656,-0.671538
294,-587,4.24646,1.58765,0,0,0,0,0,0,0,-1,1518,1611,4.24648,-1.58761
301,-587,7.60474,8.37085,0,0,0,0,0,0,0,-1,1525,1611,7.60478,-8.37084
308,-587,5.99316,10.2291,0,0,0,0,0,0,0,-1,1532,1611,5.99315,-10.2291
315,-587,4.34558,12.3289,0,0,0,0,0,0,0,-1,1539,1611,4.34556,-12.3288
322,-587,10.4526,6.38245,0,0,0,0,0,0,0,-1,1546,1611,10.4526,-6.38245
329,-587,10.7738,8.42444,0,0,0,0,0,0,0,-1,1553,1611,10.7738,-8.42438
336,-587,7.5531,5.96619,0,0,0,0,0,0,0,-1,1560,1611,7.55311,-5.96617
343,-587,9.57495,4.38391,0,0,0,0,0,0,0,-1,1567,1611,9.57494,-4.38397
350,-587,9.50378,3.45093,0,0,0,0,0,0,0,-1,1574,1611,9.50376,-3.4509
357,-587,9.40027,2.50806,0,0,0,0,0,0,0,-1,1581,1611,9.40022,-2.50803
364,-587,9.26477,1.34131,0,0,0,0,0,0,0,-1,1588,1611,9.26479,-1.34126
371,-587,6.98926,7.87561,0,0,0,0,0,0,0,-1,1595,1611,6.98928,-7.87564
378,-587,9.25146,13.8358,0,0,0,0,0,0,0,-1,1602,1611,9.2515,-13.8359
385,-587,16.5306,40.6755,0,0,0,0,0,0,0,-1,1609,1611,16.5307,-40.6755
392,-587,17.0308,40.4634,0,0,0,0,0,0,0,-1,1616,1611,17.0307,-40.4634
399,-587,17.8571,41.2504,0,0,0,0,0,0,0,-1,1623,1611,17.857,-41.2504
406,-587,17.8505,40.5873,0.00564305,0.0203726,-0.011972,0.0270637,-0.00104805,-1.06115,0.0184018,0.0407052,1630,1611,17.8505,-40.5872
413,-587,17.5824,40.0044,0.00572697,0.0182167,-0.0108886,0.0245241,-0.000580413,-1.04576,0.0165463,0.0357722,1637,1611,17.5824,-40.0044
420,-587,17.7214,39.3688,0.00547199,0.0153702,-0.0093563,0.0210057,-0.00016351,-1.02867,0.0140586,0.0375786,1644,1611,17.7214,-39.3687
427,-587,17.8151,38.8104,0.00529961,0.0137956,-0.00821778,0.0187984,0.000296787,-1.02395,0.0124345,0.0309841,1651,1611,17.8151,-38.8105
434,-587,17.8894,38.2162,0,0,0,0,0,0,0,-1,1658,1611,17.8895,-38.2162
441,-587,17.87,37.5587,0,0,0,0,0,0,0,-1,1665,1611,17.87,-37.5587
448,-587,17.9113,36.927,0.00475654,0.00931614,-0.00570856,0.0131833,0.000889373,-0.975378,0.00850792,0.0164661,1672,1611,17.9112,-36.927
455,-587,17.925,36.3417,0.00413689,0.00798516,-0.00492227,0.011346,0.000776043,-0.971718,0.00731905,0.0149714,1679,1611,17.9251,-36.3416
462,-587,17.9047,35.7153,0.00380539,0.00659493,-0.00423104,0.00965517,0.000745161,-0.944615,0.00620333,0.0186341,1686,1611,17.9047,-35.7154
469,-587,17.8534,35.1356,0.00325622,0.00517053,-0.00343416,0.00777843,0.000648318,-0.921307,0.00498359,0.0162346,1693,1611,17.8534,-35.1356
476,-587,17.8041,34.5509,0.00248065,0.00383039,-0.00279451,0.00603036,0.000280676,-0.90388,0.00393002,0.0105136,1700,1611,17.8041,-34.5509
483,-587,17.7679,33.9404,0.0017168,0.00250154,-0.0022293,0.00437273,-0.000154394,-0.872508,0.00296796,0.0139006,1707,1611,17.7679,-33.9404
490,-587,17.7533,33.3281,0.00102709,0.00133108,-0.00173783,0.00292355,-0.000565375,-0.829018,0.00216227,0.0172086,1714,1611,17.7533,-33.3281
497,-587,17.7095,32.7252,0.000356241,0.00043033,-0.00135607,0.00174987,-0.000963295,-0.799053,0.00158824,0.0139889,1721,1611,17.7094,-32.7253
504,-587,17.6556,32.1307,-0.000346225,-0.000341562,-0.000974946,0.000631055,-0.00131884,-0.786594,0.00114888,0.0130711,1728,1611,17.6557,-32.1308
511,-587,17.6515,31.5072,-0.00117662,-0.000845938,-0.000368137,-0.000607719,-0.00141484,-0.996465,0.00081956,0.0142436,1735,1611,17.6515,-31.5072
518,-587,17.6726,30.8566,-0.00191551,-0.00103654,1.69219e-05,-0.00103622,-0.00191584,1.55155,0.00110734,0.0149784,1742,1611,17.6726,-30.8565
525,-587,17.6764,30.2878,-0.00283779,-0.0013657,0.00072901,-0.00106578,-0.00313771,1.1805,0.00184234,0.0303061,1749,1611,17.6764,-30.2878
532,-587,17.5916,29.5197,0,0,0,0,0,0,0,-1,1756,1611,17.5916,-29.5197
539,-587,18.6039,28.8945,0,0,0,0,0,0,0,-1,1763,1611,18.6038,-28.8946
546,-587,17.6716,25.2673,0,0,0,0,0,0,0,-1,1770,1611,17.6716,-25.2674
553,-587,7.5813,8.45068,0,0,0,0,0,0,0,-1,1777,1611,7.58125,-8.45068
560,-587,4.21179,5.23547,0,0,0,0,0,0,0,-1,1784,1611,4.21185,-5.23553
567,-587,4.03711,5.46387,0,0,0,0,0,0,0,-1,1791,1611,4.03715,-5.46382
574,-587,3.83142,5.68884,0,0,0,0,0,0,0,-1,1798,1611,3.83141,-5.68881
581,-587,3.47168,6.00977,0,0,0,0,0,0,0,-1,1805,1611,3.47167,-6.00983
588,-587,0,0,0,0,0,0,0,0,0,-1,1812,1611,0,0
595,-587,0,0,0,0,0,0,0,0,0,-1,1819,1611,0,0
602,-587,0,0,0,0,0,0,0,0,0,-1,1826,1611,0,0
609,-587,0,0,0,0,0,0,0,0,0,-1,1833,1611,0,0
616,-587,0,0,0,0,0,0,0,0,0,-1,1840,1611,0,0
623,-587,0,0,0,0,0,0,0,0,0,-1,1847,1611,0,0
630,-587,0,0,0,0,0,0,0,0,0,-1,1854,1611,0,0
637,-587,0,0,0,0,0,0,0,0,0,-1,1861,1611,0,0
644,-587,0,0,0,0,0,0,0,0,0,-1,1868,1611,0,0
651,-587,0,0,0,0,0,0,0,0,0,-1,1875,1611,0,0
658,-587,0,0,0,0,0,0,0,0,0,-1,1882,1611,0,0
665,-587,0,0,0,0,0,0,0,0,0,-1,1889,1611,0,0
672,-587,0,0,0,0,0,0,0,0,0,-1,1896,1611,0,0
679,-587,0,0,0,0,0,0,0,0,0,-1,1903,1611,0,0
686,-587,0,0,0,0,0,0,0,0,0,-1,1910,1611,0,0
693,-587,0,0,0,0,0,0,0,0,0,-1,1917,1611,0,0
700,-587,0,0,0,0,0,0,0,0,0,-1,1924,1611,0,0
707,-587,0,0,0,0,0,0,0,0,0,-1,1931,1611,0,0
714,-587,0,0,0,0,0,0,0,0,0,-1,1938,1611,0,0
721,-587,0,0,0,0,0,0,0,0,0,-1,1945,1611,0,0
728,-587,0,0,0,0,0,0,0,0,0,-1,1952,1611,0,0
735,-587,0,0,0,0,0,0,0,0,0,-1,1959,1611,0,0
742,-587,0,0,0,0,0,0,0,0,0,-1,1966,1611,0,0
749,-587,0,0,0,0,0,0,0,0,0,-1,1973,1611,0,0
756,-587,0,0,0,0,0,0,0,0,0,-1,1980,1611,0,0
763,-587,0,0,0,0,0,0,0,0,0,-1,1987,1611,0,0
770,-587,0,0,0,0,0,0,0,0,0,-1,1994,1611,0,0
777,-587,0,0,0,0,0,0,0,0,0,-1,2001,1611,0,0
784,-587,0,0,0,0,0,0,0,0,0,-1,2008,1611,0,0
791,-587,0,0,0,0,0,0,0,0,0,-1,2015,1611,0,0
798,-587,0,0,0,0,0,0,0,0,0,-1,2022,1611,0,0
805,-587,0,0,0,0,0,0,0,0,0,-1,2029,1611,0,0
812,-587,0,0,0,0,0,0,0,0,0,-1,2036,1611,0,0
-700,-594,0,0,0,0,0,0,0,0,0,-1,524,1618,0,0
-693,-594,0,0,0,0,0,0,0,0,0,-1,531,1618,0,0
-686,-594,0,0,0,0,0,0,0,0,0,-1,538,1618,0,0
-679,-594,0,0,0,0,0,0,0,0,0,-1,545,1618,0,0
-672,-594,0,0,0,0,0,0,0,0,0,-1,552,1618,0,0
-665,-594,0,0,0,0,0,0,0,0,0,-1,559,1618,0,0
-658,-594,0,0,0,0,0,0,0,0,0,-1,566,1618,0,0
-651,-594,0,0,0,0,0,0,0,0,0,-1,573,1618,0,0
-644,-594,0,0,0,0,0,0,0,0,0,-1,580,1618,0,0
-637,-594,0,0,0,0,0,0,0,0,0,-1,587,1618,0,0
-630,-594,0,0,0,0,0,0,0,0,0,-1,594,1618,0,0
-623,-594,0,0,0,0,0,0,0,0,0,-1,601,1618,0,0
-616,-594,0,0,0,0,0,0,0,0,0,-1,608,1618,0,0
-609,-594,0,0,0,0,0,0,0,0,0,-1,615,1618,0,0
-602,-594,0,0,0,0,0,0,0,0,0,-1,622,1618,0,0
-595,-594,0,0,0,0,0,0,0,0,0,-1,629,1618,0,0
-588,-594,0,0,0,0,0,0,0,0,0,-1,636,1618,0,0
-581,-594,0,0,0,0,0,0,0,0,0,-1,643,1618,0,0
-574,-594,0,0,0,0,0,0,0,0,0,-1,650,1618,0,0
-567,-594,0,0,0,0,0,0,0,0,0,-1,657,1618,0,0
-560,-594,0,0,0,0,0,0,0,0,0,-1,664,1618,0,0
-553,-594,0,0,0,0,0,0,0,0,0,-1,671,1618,0,0
-546,-594,0,0,0,0,0,0,0,0,0,-1,678,1618,0,0
-539,-594,0,0,0,0,0,0,0,0,0,-1,685,1618,0,0
-532,-594,0,0,0,0,0,0,0,0,0,-1,692,1618,0,0
-525,-594,0,0,0,0,0,0,0,0,0,-1,699,1618,0,0
-518,-594,0,0,0,0,0,0,0,0,0,-1,706,1618,0,0
-511,-594,0,0,0,0,0,0,0,0,0,-1,713,1618,0,0
-504,-594,0,0,0,0,0,0,0,0,0,-1,720,1618,0,0
-497,-594,0,0,0,0,0,0,0,0,0,-1,727,1618,0,0
-490,-594,0,0,0,0,0,0,0,0,0,-1,734,1618,0,0
-483,-594,0,0,0,0,0,0,0,0,0,-1,741,1618,0,0
-476,-594,0,0,0,0,0,0,0,0,0,-1,748,1618,0,0
-469,-594,0,0,0,0,0,0,0,0,0,-1,755,1618,0,0
-462,-594,0,0,0,0,0,0,0,0,0,-1,762,1618,0,0
-455,-594,-0.509216,-1.58411,0,0,0,0,0,0,0,-1,769,1618,-0.509245,1.58415
-448,-594,-7.71887,-0.0559082,0,0,0,0,0,0,0,-1,776,1618,-7.71885,0.055939
-441,-594,-5.78473,1.18298,0,0,0,0,0,0,0,-1,783,1618,-5.78474,-1.18295
-434,-594,-3.93628,3.06213,0,0,0,0,0,0,0,-1,790,1618,-3.93631,-3.06208
-427,-594,-3.97693,6.77759,0,0,0,0,0,0,0,-1,797,1618,-3.97695,-6.77764
-420,-594,-2.53046,7.71606,0,0,0,0,0,0,0,-1,804,1618,-2.53047,-7.71609
-413,-594,-0.860413,8.00391,0,0,0,0,0,0,0,-1,811,1618,-0.860423,-8.00389
-406,-594,2.45746,13.6218,0,0,0,0,0,0,0,-1,818,1618,2.45747,-13.6218
-399,-594,1.30414,24.9963,0,0,0,0,0,0,0,-1,825,1618,1.30415,-24.9963
-392,-594,0.716248,30.1217,0,0,0,0,0,0,0,-1,832,1618,0.71625,-30.1217
-385,-594,0.577637,30.6351,-0.00104707,-0.00211393,0.0027565,0.00122714,-0.00438814,0.68982,0.00340891,0.0371921,839,1618,0.577624,-30.6352
-378,-594,0.42572,31.1217,-0.000642625,-0.00147664,0.00250414,0.00147899,-0.00359825,0.702892,0.00301526,0.0175183,846,1618,0.425738,-31.1216
-371,-594,0.489441,31.7732,-0.000430566,-0.00109899,0.00224293,0.00150292,-0.00303248,0.711439,0.00266769,0.0134063,853,1618,0.489444,-31.7732
-364,-594,0.487366,32.4276,-0.000189165,-0.000783966,0.0019651,0.00150091,-0.00247404,0.710297,0.00231775,0.0111254,860,1618,0.487349,-32.4276
-357,-594,0.450195,33.0857,0.000147256,-0.000384456,0.0017626,0.00166394,-0.00190113,0.710546,0.00205981,0.0106292,867,1618,0.450194,-33.0857
-350,-594,0.407104,33.736,0.000537963,-7.60825e-06,0.00160306,0.00189128,-0.00136093,0.701123,0.00188597,0.0150992,874,1618,0.40708,-33.7359
-343,-594,0.359375,34.3687,0.000941528,0.000483811,0.00152522,0.00225496,-0.000829624,0.710929,0.00184317,0.0179406,881,1618,0.359357,-34.3686
-336,-594,0.313599,34.9768,0.0013947,0.00116804,0.00161448,0.00289983,-0.000337087,0.750359,0.00205482,0.015841,888,1618,0.313601,-34.9768
-329,-594,0.319031,35.6063,0.00199291,0.00265354,0.00202051,0.00437056,0.000275888,0.866423,0.00282624,0.0147894,895,1618,0.319021,-35.6063
-322,-594,0.350281,36.2579,0.00269719,0.00517282,0.00276394,0.00696346,0.000906548,0.995929,0.00437157,0.0163071,902,1618,0.350255,-36.2579
-315,-594,0.319031,36.845,0.0035367,0.00783867,0.00373025,0.00999367,0.0013817,1.04693,0.00625298,0.0171302,909,1618,0.319054,-36.845
-308,-594,0.28894,37.4415,0.00446183,0.0108432,0.00481109,0.0134255,0.00187955,1.07819,0.00839423,0.01519,916,1618,0.288933,-37.4415
-301,-594,0.254028,38.0195,0.00562991,0.0144389,0.00623574,0.0176688,0.00240001,1.09288,0.0110663,0.0123734,923,1618,0.254048,-38.0196
-294,-594,0.270325,38.608,0.0069471,0.0189135,0.00794688,0.0228778,0.00298286,1.10808,0.0143612,0.0147149,930,1618,0.270328,-38.6081
-287,-594,0.225464,39.1982,0.00855891,0.024162,0.010079,0.029106,0.00361488,1.11475,0.0183183,0.0228084,937,1618,0.225467,-39.1982
-280,-594,0.282959,39.8784,0.0104113,0.0299015,0.0123665,0.0359011,0.00441169,1.1191,0.0226075,0.0253157,944,1618,0.282973,-39.8784
-273,-594,0.32666,40.6853,0.0122159,0.0351183,0.014478,0.0421263,0.00520793,1.11999,0.0265193,0.0302429,951,1618,0.326648,-40.6853
-266,-594,0.491455,41.4419,0.0139864,0.0401196,0.0165413,0.0481326,0.00597335,1.11969,0.0302942,0.0390757,958,1618,0.491475,-41.442
-259,-594,0.298889,41.5707,0,0,0,0,0,0,0,-1,965,1618,0.298871,-41.5707
-252,-594,0.962402,41.0249,0,0,0,0,0,0,0,-1,972,1618,0.962397,-41.0249
-245,-594,2.27759,35.1766,0,0,0,0,0,0,0,-1,979,1618,2.27756,-35.1766
-238,-594,2.09015,28.0121,0,0,0,0,0,0,0,-1,986,1618,2.09012,-28.0121
-231,-594,1.93774,9.35388,0,0,0,0,0,0,0,-1,993,1618,1.93776,-9.35393
-224,-594,1.81824,8.62744,0,0,0,0,0,0,0,-1,1000,1618,1.81822,-8.62745
-217,-594,-8.24066,12.0752,0,0,0,0,0,0,0,-1,1007,1618,-8.24068,-12.0751
-210,-594,-5.61438,14.2119,0,0,0,0,0,0,0,-1,1014,1618,-5.6144,-14.212
-203,-594,-3.94507,15.5768,0,0,0,0,0,0,0,-1,1021,1618,-3.94506,-15.5768
-196,-594,2.78613,10.5815,0,0,0,0,0,0,0,-1,1028,1618,2.78612,-10.5815
-189,-594,2.60913,9.48865,0,0,0,0,0,0,0,-1,1035,1618,2.6091,-9.48871
-182,-594,1.2395,9.38806,0,0,0,0,0,0,0,-1,1042,1618,1.23951,-9.38804
-175,-594,0.234863,8.73792,0,0,0,0,0,0,0,-1,1049,1618,0.234812,-8.73786
-168,-594,-0.495483,8.46289,0,0,0,0,0,0,0,-1,1056,1618,-0.495513,-8.46285
-161,-594,-1.39734,8.28699,0,0,0,0,0,0,0,-1,1063,1618,-1.39729,-8.28699
-154,-594,-0.000854492,7.68445,0,0,0,0,0,0,0,-1,1070,1618,-0.000805755,-7.6845
-147,-594,0.348267,9.3385,0,0,0,0,0,0,0,-1,1077,1618,0.348237,-9.33849
-140,-594,0.675171,11.5884,0,0,0,0,0,0,0,-1,1084,1618,0.675204,-11.5884
-133,-594,0,0,0,0,0,0,0,0,0,-1,1091,1618,0,0
-126,-594,0,0,0,0,0,0,0,0,0,-1,1098,1618,0,0
-119,-594,0,0,0,0,0,0,0,0,0,-1,1105,1618,0,0
-112,-594,0,0,0,0,0,0,0,0,0,-1,1112,1618,0,0
-105,-594,0,0,0,0,0,0,0,0,0,-1,1119,1618,0,0
-98,-594,0,0,0,0,0,0,0,0,0,-1,1126,1618,0,0
-91,-594,0,0,0,0,0,0,0,0,0,-1,1133,1618,0,0
-84,-594,0,0,0,0,0,0,0,0,0,-1,1140,1618,0,0
-77,-594,0,0,0,0,0,0,0,0,0,-1,1147,1618,0,0
-70,-594,0,0,0,0,0,0,0,0,0,-1,1154,1618,0,0
-63,-594,0,0,0,0,0,0,0,0,0,-1,1161,1618,0,0
-56,-594,0,0,0,0,0,0,0,0,0,-1,1168,1618,0,0
-49,-594,0,0,0,0,0,0,0,0,0,-1,1175,1618,0,0
-42,-594,0,0,0,0,0,0,0,0,0,-1,1182,1618,0,0
-35,-594,0,0,0,0,0,0,0,0,0,-1,1189,1618,0,0
-28,-594,0,0,0,0,0,0,0,0,0,-1,1196,1618,0,0
-21,-594,0,0,0,0,0,0,0,0,0,-1,1203,1618,0,0
-14,-594,0,0,0,0,0,0,0,0,0,-1,1210,1618,0,0
-7,-594,0,0,0,0,0,0,0,0,0,-1,1217,1618,0,0
0,-594,0,0,0,0,0,0,0,0,0,-1,1224,1618,0,0
7,-594,0,0,0,0,0,0,0,0,0,-1,1231,1618,0,0
14,-594,0,0,0,0,0,0,0,0,0,-1,1238,1618,0,0
21,-594,0,0,0,0,0,0,0,0,0,-1,1245,1618,0,0
28,-594,0,0,0,0,0,0,0,0,0,-1,1252,1618,0,0
35,-594,0,0,0,0,0,0,0,0,0,-1,1259,1618,0,0
42,-594,0,0,0,0,0,0,0,0,0,-1,1266,1618,0,0
49,-594,0,0,0,0,0,0,0,0,0,-1,1273,1618,0,0
56,-594,0,0,0,0,0,0,0,0,0,-1,1280,1618,0,0
63,-594,0,0,0,0,0,0,0,0,0,-1,1287,1618,0,0
70,-594,0,0,0,0,0,0,0,0,0,-1,1294,1618,0,0
77,-594,0,0,0,0,0,0,0,0,0,-1,1301,1618,0,0
84,-594,0,0,0,0,0,0,0,0,0,-1,1308,1618,0,0
91,-594,0,0,0,0,0,0,0,0,0,-1,1315,1618,0,0
98,-594,0,0,0,0,0,0,0,0,0,-1,1322,1618,0,0
105,-594,0,0,0,0,0,0,0,0,0,-1,1329,1618,0,0
112,-594,0,0,0,0,0,0,0,0,0,-1,1336,1618,0,0
119,-594,0,0,0,0,0,0,0,0,0,-1,1343,1618,0,0
126,-594,0,0,0,0,0,0,0,0,0,-1,1350,1618,0,0
133,-594,0,0,0,0,0,0,0,0,0,-1,1357,1618,0,0
140,-594,0,0,0,0,0,0,0,0,0,-1,1364,1618,0,0
147,-594,0,0,0,0,0,0,0,0,0,-1,1371,1618,0,0
154,-594,0,0,0,0,0,0,0,0,0,-1,1378,1618,0,0
161,-594,0,0,0,0,0,0,0,0,0,-1,1385,1618,0,0
168,-594,0,0,0,0,0,0,0,0,0,-1,1392,1618,0,0
175,-594,0,0,0,0,0,0,0,0,0,-1,1399,1618,0,0
182,-594,0,0,0,0,0,0,0,0,0,-1,1406,1618,0,0
189,-594,0,0,0,0,0,0,0,0,0,-1,1413,1618,0,0
196,-594,0,0,0,0,0,0,0,0,0,-1,1420,1618,0,0
203,-594,0,0,0,0,0,0,0,0,0,-1,1427,1618,0,0
210,-594,0,0,0,0,0,0,0,0,0,-1,1434,1618,0,0
217,-594,0,0,0,0,0,0,0,0,0,-1,1441,1618,0,0
224,-594,0,0,0,0,0,0,0,0,0,-1,1448,1618,0,0
231,-594,0,0,0,0,0,0,0,0,0,-1,1455,1618,0,0
238,-594,0,0,0,0,0,0,0,0,0,-1,1462,1618,0,0
245,-594,0,0,0,0,0,0,0,0,0,-1,1469,1618,0,0
252,-594,3.03674,1.20996,0,0,0,0,0,0,0,-1,1476,1618,3.0368,-1.20999
259,-594,4.79834,1.53113,0,0,0,0,0,0,0,-1,1483,1618,4.79837,-1.53118
266,-594,3.71606,2.68152,0,0,0,0,0,0,0,-1,1490,1618,3.71609,-2.68149
273,-594,9.7655,6.33557,0,0,0,0,0,0,0,-1,1497,1618,9.76555,-6.33554
280,-594,3.13281,0.911255,0,0,0,0,0,0,0,-1,1504,1618,3.13277,-0.911207
287,-594,4.42749,1.51563,0,0,0,0,0,0,0,-1,1511,1618,4.42747,-1.51564
294,-594,5.36475,3.34937,0,0,0,0,0,0,0,-1,1518,1618,5.36475,-3.3494
301,-594,7.97144,9.04333,0,0,0,0,0,0,0,-1,1525,1618,7.9714,-9.04328
308,-594,6.30347,10.4633,0,0,0,0,0,0,0,-1,1532,1618,6.30351,-10.4633
315,-594,4.62012,11.934,0,0,0,0,0,0,0,-1,1539,1618,4.62006,-11.934
322,-594,2.91528,13.3134,0,0,0,0,0,0,0,-1,1546,1618,2.91523,-13.3133
329,-594,4.19861,9.77258,0,0,0,0,0,0,0,-1,1553,1618,4.19865,-9.77264
336,-594,10.1353,4.66528,0,0,0,0,0,0,0,-1,1560,1618,10.1353,-4.66533
343,-594,10.5729,3.71228,0,0,0,0,0,0,0,-1,1567,1618,10.5729,-3.71232
350,-594,10.219,2.98792,0,0,0,0,0,0,0,-1,1574,1618,10.219,-2.98797
357,-594,9.83154,1.96326,0,0,0,0,0,0,0,-1,1581,1618,9.8315,-1.96321
364,-594,9.74939,0.700562,0,0,0,0,0,0,0,-1,1588,1618,9.74939,-0.700615
371,-594,8.54297,14.3988,0,0,0,0,0,0,0,-1,1595,1618,8.54296,-14.3989
378,-594,17.479,43.5231,0,0,0,0,0,0,0,-1,1602,1618,17.479,-43.5231
385,-594,17.2029,42.6355,0,0,0,0,0,0,0,-1,1609,1618,17.2029,-42.6355
392,-594,17.1792,41.9948,0,0,0,0,0,0,0,-1,1616,1618,17.1792,-41.9948
399,-594,17.2483,41.1365,0.00596322,0.0211297,-0.011392,0.0272316,-0.000138678,-1.07905,0.0182008,0.0423534,1623,1618,17.2483,-41.1365
406,-594,17.3413,40.5055,0.00540902,0.0172523,-0.00945262,0.022485,0.000176392,-1.06522,0.0149315,0.0265352,1630,1618,17.3413,-40.5054
413,-594,17.3328,39.9684,0.00507519,0.0146465,-0.00819097,0.0193474,0.00037429,-1.04978,0.0127753,0.018636,1637,1618,17.3328,-39.9683
420,-594,17.3281,39.3798,0.00459066,0.0117951,-0.00675686,0.01585,0.000535773,-1.03029,0.0103927,0.0158167,1644,1618,17.3281,-39.3797
427,-594,17.3544,38.7609,0.00425638,0.0102666,-0.00581691,0.0138088,0.00071419,-1.02382,0.00897728,0.0134858,1651,1618,17.3544,-38.7609
434,-594,17.312,38.1873,0.00399936,0.00910854,-0.00522014,0.0123656,0.000742253,-1.01295,0.00800782,0.019076,1658,1618,17.312,-38.1873
441,-594,17.2706,37.567,0.00387269,0.00780379,-0.00470534,0.0109376,0.000738866,-0.983246,0.00705835,0.0176896,1665,1618,17.2706,-37.567
448,-594,17.3177,36.9611,0.00359492,0.00660781,-0.00415108,0.00951733,0.000685391,-0.95946,0.00612921,0.0182552,1672,1618,17.3177,-36.961
455,-594,17.2958,36.3586,0.00308819,0.00558208,-0.00365024,0.00819248,0.000477792,-0.949987,0.00530956,0.0134107,1679,1618,17.2958,-36.3586
462,-594,17.2526,35.767,0.00277665,0.00447023,-0.00322045,0.00695336,0.000293517,-0.913959,0.0045409,0.0140542,1686,1618,17.2526,-35.7669
469,-594,17.2168,35.1967,0.00231805,0.00333942,-0.00272307,0.00559928,5.81923e-05,-0.878091,0.00371361,0.0126116,1693,1618,17.2168,-35.1966
476,-594,17.207,34.6097,0.00168819,0.00232922,-0.00231667,0.00434744,-0.000330033,-0.854138,0.00301433,0.0127721,1700,1618,17.2071,-34.6097
483,-594,17.1906,33.9823,0.00103988,0.00127917,-0.00195317,0.00311636,-0.000797305,-0.815988,0.00238813,0.0157018,1707,1618,17.1906,-33.9823
490,-594,17.1565,33.3621,0.000441441,0.000357605,-0.00163851,0.00203857,-0.00123953,-0.77261,0.00191126,0.0143151,1714,1618,17.1565,-33.3621
497,-594,17.1106,32.7565,-0.000161615,-0.000350682,-0.00139806,0.0011451,-0.0016574,-0.751641,0.00162701,0.0109568,1721,1618,17.1106,-32.7565
504,-594,17.0776,32.1478,-0.000804461,-0.000864986,-0.00115408,0.000319755,-0.0019892,-0.77229,0.00144456,0.0106915,1728,1618,17.0776,-32.1479
511,-594,17.0725,31.5016,-0.00160983,-0.00123522,-0.000653129,-0.000743072,-0.00210198,-0.925041,0.00123082,0.0170025,1735,1618,17.0725,-31.5016
518,-594,17.0103,30.8654,-0.00237504,-0.00124382,-0.000373715,-0.00113151,-0.00248735,-1.27886,0.00143802,0.0244366,1742,1618,17.0103,-30.8653
525,-594,16.9185,30.1649,-0.00349124,-0.00150345,0.000350401,-0.00144349,-0.00355119,1.40132,0.0020622,0.0437663,1749,1618,16.9185,-30.1649
532,-594,16.954,29.4659,0,0,0,0,0,0,0,-1,1756,1618,16.954,-29.4659
539,-594,21.0237,24.9617,0,0,0,0,0,0,0,-1,1763,1618,21.0237,-24.9616
546,-594,7.48645,8.54785,0,0,0,0,0,0,0,-1,1770,1618,7.48639,-8.54789
553,-594,3.69714,5.68762,0,0,0,0,0,0,0,-1,1777,1618,3.69715,-5.68764
560,-594,6.06616,4.44482,0,0,0,0,0,0,0,-1,1784,1618,6.06621,-4.44477
567,-594,5.97266,4.73303,0,0,0,0,0,0,0,-1,1791,1618,5.97271,-4.73309
574,-594,5.9906,4.96326,0,0,0,0,0,0,0,-1,1798,1618,5.99065,-4.96326
581,-594,0,0,0,0,0,0,0,0,0,-1,1805,1618,0,0
588,-594,0,0,0,0,0,0,0,0,0,-1,1812,1618,0,0
595,-594,0,0,0,0,0,0,0,0,0,-1,1819,1618,0,0
602,-594,0,0,0,0,0,0,0,0,0,-1,1826,1618,0,0
609,-594,0,0,0,0,0,0,0,0,0,-1,1833,1618,0,0
616,-594,0,0,0,0,0,0,0,0,0,-1,1840,1618,0,0
623,-594,0,0,0,0,0,0,0,0,0,-1,1847,1618,0,0
630,-594,0,0,0,0,0,0,0,0,0,-1,1854,1618,0,0
637,-594,0,0,0,0,0,0,0,0,0,-1,1861,1618,0,0
644,-594,0,0,0,0,0,0,0,0,0,-1,1868,1618,0,0
651,-594,0,0,0,0,0,0,0,0,0,-1,1875,1618,0,0
658,-594,0,0,0,0,0,0,0,0,0,-1,1882,1618,0,0
665,-594,0,0,0,0,0,0,0,0,0,-1,1889,1618,0,0
672,-594,0,0,0,0,0,0,0,0,0,-1,1896,1618,0,0
679,-594,0,0,0,0,0,0,0,0,0,-1,1903,1618,0,0
686,-594,0,0,0,0,0,0,0,0,0,-1,1910,1618,0,0
693,-594,0,0,0,0,0,0,0,0,0,-1,1917,1618,0,0
700,-594,0,0,0,0,0,0,0,0,0,-1,1924,1618,0,0
707,-594,0,0,0,0,0,0,0,0,0,-1,1931,1618,0,0
714,-594,0,0,0,0,0,0,0,0,0,-1,1938,1618,0,0
721,-594,0,0,0,0,0,0,0,0,0,-1,1945,1618,0,0
728,-594,0,0,0,0,0,0,0,0,0,-1,1952,1618,0,0
735,-594,0,0,0,0,0,0,0,0,0,-1,1959,1618,0,0
742,-594,0,0,0,0,0,0,0,0,0,-1,1966,1618,0,0
749,-594,0,0,0,0,0,0,0,0,0,-1,1973,1618,0,0
756,-594,0,0,0,0,0,0,0,0,0,-1,1980,1618,0,0
763,-594,0,0,0,0,0,0,0,0,0,-1,1987,1618,0,0
770,-594,0,0,0,0,0,0,0,0,0,-1,1994,1618,0,0
777,-594,0,0,0,0,0,0,0,0,0,-1,2001,1618,0,0
784,-594,0,0,0,0,0,0,0,0,0,-1,2008,1618,0,0
791,-594,0,0,0,0,0,0,0,0,0,-1,2015,1618,0,0
798,-594,0,0,0,0,0,0,0,0,0,-1,2022,1618,0,0
805,-594,0,0,0,0,0,0,0,0,0,-1,2029,1618,0,0
812,-594,0,0,0,0,0,0,0,0,0,-1,2036,1618,0,0
-700,-601,0,0,0,0,0,0,0,0,0,-1,524,1625,0,0
-693,-601,0,0,0,0,0,0,0,0,0,-1,531,1625,0,0
-686,-601,0,0,0,0,0,0,0,0,0,-1,538,1625,0,0
-679,-601,0,0,0,0,0,0,0,0,0,-1,545,1625,0,0
-672,-601,0,0,0,0,0,0,0,0,0,-1,552,1625,0,0
-665,-601,0,0,0,0,0,0,0,0,0,-1,559,1625,0,0
-658,-601,0,0,0,0,0,0,0,0,0,-1,566,1625,0,0
-651,-601,0,0,0,0,0,0,0,0,0,-1,573,1625,0,0
-644,-601,0,0,0,0,0,0,0,0,0,-1,580,1625,0,0
-637,-601,0,0,0,0,0,0,0,0,0,-1,587,1625,0,0
-630,-601,0,0,0,0,0,0,0,0,0,-1,594,1625,0,0
-623,-601,0,0,0,0,0,0,0,0,0,-1,601,1625,0,0
-616,-601,0,0,0,0,0,0,0,0,0,-1,608,1625,0,0
-609,-601,0,0,0,0,0,0,0,0,0,-1,615,1625,0,0
-602,-601,0,0,0,0,0,0,0,0,0,-1,622,1625,0,0
-595,-601,0,0,0,0,0,0,0,0,0,-1,629,1625,0,0
-588,-601,0,0,0,0,0,0,0,0,0,-1,636,1625,0,0
-581,-601,0,0,0,0,0,0,0,0,0,-1,643,1625,0,0
-574,-601,0,0,0,0,0,0,0,0,0,-1,650,1625,0,0
-567,-601,0,0,0,0,0,0,0,0,0,-1,657,1625,0,0
-560,-601,0,0,0,0,0,0,0,0,0,-1,664,1625,0,0
-553,-601,0,0,0,0,0,0,0,0,0,-1,671,1625,0,0
-546,-601,0,0,0,0,0,0,0,0,0,-1,678,1625,0,0
-539,-601,0,0,0,0,0,0,0,0,0,-1,685,1625,0,0
-532,-601,0,0,0,0,0,0,0,0,0,-1,692,1625,0,0
-525,-601,0,0,0,0,0,0,0,0,0,-1,699,1625,0,0
-518,-601,0,0,0,0,0,0,0,0,0,-1,706,1625,0,0
-511,-601,0,0,0,0,0,0,0,0,0,-1,713,1625,0,0
-504,-601,0,0,0,0,0,0,0,0,0,-1,720,1625,0,0
-497,-601,0,0,0,0,0,0,0,0,0,-1,727,1625,0,0
-490,-601,0,0,0,0,0,0,0,0,0,-1,734,1625,0,0
-483,-601,0,0,0,0,0,0,0,0,0,-1,741,1625,0,0
-476,-601,0,0,0,0,0,0,0,0,0,-1,748,1625,0,0
-469,-601,0,0,0,0,0,0,0,0,0,-1,755,1625,0,0
-462,-601,0,0,0,0,0,0,0,0,0,-1,762,1625,0,0
-455,-601,0,0,0,0,0,0,0,0,0,-1,769,1625,0,0
-448,-601,-7.07623,2.7616,0,0,0,0,0,0,0,-1,776,1625,-7.07626,-2.76161
-441,-601,-6.06689,3.33447,0,0,0,0,0,0,0,-1,783,1625,-6.06691,-3.33448
-434,-601,-5.02655,3.8468,0,0,0,0,0,0,0,-1,790,1625,-5.02657,-3.84674
-427,-601,-5.78601,4.2406,0,0,0,0,0,0,0,-1,797,1625,-5.786,-4.24058
-420,-601,-5.5191,5.60364,0,0,0,0,0,0,0,-1,804,1625,-5.51907,-5.60368
-413,-601,-4.30756,5.86047,0,0,0,0,0,0,0,-1,811,1625,-4.30757,-5.86046
-406,-601,-1.67493,7.20422,0,0,0,0,0,0,0,-1,818,1625,-1.67493,-7.20428
-399,-601,1.40094,15.3108,0,0,0,0,0,0,0,-1,825,1625,1.40096,-15.3107
-392,-601,0.875977,30.2346,0,0,0,0,0,0,0,-1,832,1625,0.875947,-30.2346
-385,-601,1.01947,30.8558,0,0,0,0,0,0,0,-1,839,1625,1.01948,-30.8558
-378,-601,1.16302,31.4771,0,0,0,0,0,0,0,-1,846,1625,1.16301,-31.4771
-371,-601,1.1319,31.7534,-0.000318155,-0.000989315,0.00302251,0.00238734,-0.00369481,0.730111,0.00353848,0.0252644,853,1625,1.1319,-31.7534
-364,-601,1.11383,32.4282,-0.000129723,-0.000800361,0.00252712,0.00208422,-0.00301431,0.719439,0.00295992,0.0135267,860,1625,1.11383,-32.4282
-357,-601,1.0575,33.1193,0.000153262,-0.000549625,0.00217371,0.00200376,-0.00240012,0.705252,0.00254601,0.010491,867,1625,1.05751,-33.1193
-350,-601,1.07739,33.821,0.00045205,-0.00027549,0.00188953,0.00201251,-0.00183595,0.690302,0.00222269,0.0207369,874,1625,1.07737,-33.8211
-343,-601,1.00134,34.4801,0.00077414,9.79544e-05,0.00168236,0.00215204,-0.00127994,0.686237,0.00200267,0.0257631,881,1625,1.00135,-34.4802
-336,-601,0.9104,35.0641,0.00111667,0.000607435,0.00160811,0.00249019,-0.000766092,0.706884,0.00196589,0.0230856,888,1625,0.910411,-35.0641
-329,-601,0.930054,35.6709,0.00157436,0.00172107,0.00179846,0.00344767,-0.000152233,0.805781,0.00235083,0.0183934,895,1625,0.930045,-35.6709
-322,-601,0.947632,36.2872,0.00209223,0.00360011,0.00227168,0.00523969,0.000452648,0.945621,0.00335245,0.0136856,902,1625,0.947643,-36.2873
-315,-601,0.91803,36.8381,0.00271406,0.00568588,0.00296022,0.00751219,0.000887749,1.01801,0.00474,0.0144198,909,1625,0.918027,-36.8382
-308,-601,0.881897,37.4515,0.00344404,0.00802565,0.00373218,0.010114,0.00135569,1.06065,0.00633927,0.0127836,916,1625,0.881927,-37.4515
-301,-601,0.86731,38.0657,0.00436327,0.0107725,0.00476757,0.0133124,0.00182338,1.0813,0.00833389,0.0108483,923,1625,0.86734,-38.0657
-294,-601,0.857727,38.6438,0.00539296,0.0141311,0.00600729,0.0171901,0.00233396,1.0998,0.0107668,0.011732,930,1625,0.857751,-38.6438
-287,-601,0.811218,39.2532,0.0066095,0.0179164,0.00746543,0.0216274,0.00289843,1.10947,0.0135558,0.0116816,937,1625,0.811248,-39.2532
-280,-601,0.814697,39.881,0.00801605,0.0218706,0.00900674,0.0263059,0.00358073,1.11321,0.0164739,0.0133824,944,1625,0.814707,-39.881
-273,-601,0.810486,40.491,0.00942039,0.0253664,0.0104175,0.0305118,0.00427501,1.11203,0.0190766,0.0140978,951,1625,0.810475,-40.4909
-266,-601,0.843933,41.0977,0.0108188,0.0287023,0.0117357,0.0345146,0.00500647,1.11094,0.0215358,0.0171113,958,1625,0.843921,-41.0976
-259,-601,0.873901,41.6255,0.012285,0.0316286,0.012859,0.0380472,0.00586649,1.10783,0.023653,0.0302057,965,1625,0.873904,-41.6255
-252,-601,0.887512,42.1736,0,0,0,0,0,0,0,-1,972,1625,0.887525,-42.1735
-245,-601,1.72241,42.376,0,0,0,0,0,0,0,-1,979,1625,1.72239,-42.3759
-238,-601,2.75482,35.777,0,0,0,0,0,0,0,-1,986,1625,2.75481,-35.777
-231,-601,2.66772,13.7051,0,0,0,0,0,0,0,-1,993,1625,2.6677,-13.7051
-224,-601,-0.0305176,9.13684,0,0,0,0,0,0,0,-1,1000,1625,-0.030498,-9.13681
-217,-601,3.39429,10.3898,0,0,0,0,0,0,0,-1,1007,1625,3.39431,-10.3898
-210,-601,-6.53699,15.7931,0,0,0,0,0,0,0,-1,1014,1625,-6.53697,-15.7931
-203,-601,2.69348,15.9099,0,0,0,0,0,0,0,-1,1021,1625,2.69351,-15.91
-196,-601,2.66992,16.1815,0,0,0,0,0,0,0,-1,1028,1625,2.66995,-16.1815
-189,-601,2.849,16.6105,0,0,0,0,0,0,0,-1,1035,1625,2.84902,-16.6104
-182,-601,1.82153,13.9752,0,0,0,0,0,0,0,-1,1042,1625,1.82155,-13.9752
-175,-601,0.544922,9.28687,0,0,0,0,0,0,0,-1,1049,1625,0.544879,-9.28685
-168,-601,-0.247559,8.97461,0,0,0,0,0,0,0,-1,1056,1625,-0.247598,-8.97466
-161,-601,-1.16833,8.80078,0,0,0,0,0,0,0,-1,1063,1625,-1.16837,-8.80081
-154,-601,1.12756,7.94861,0,0,0,0,0,0,0,-1,1070,1625,1.12762,-7.94855
-147,-601,1.35352,9.55432,0,0,0,0,0,0,0,-1,1077,1625,1.35351,-9.55429
-140,-601,1.72437,11.1498,0,0,0,0,0,0,0,-1,1084,1625,1.72432,-11.1498
-133,-601,2.13281,12.8347,0,0,0,0,0,0,0,-1,1091,1625,2.13287,-12.8348
-126,-601,3.09534,15.427,0,0,0,0,0,0,0,-1,1098,1625,3.0953,-15.4271
-119,-601,1.22485,9.43457,0,0,0,0,0,0,0,-1,1105,1625,1.22489,-9.43456
-112,-601,0,0,0,0,0,0,0,0,0,-1,1112,1625,0,0
-105,-601,0,0,0,0,0,0,0,0,0,-1,1119,1625,0,0
-98,-601,0,0,0,0,0,0,0,0,0,-1,1126,1625,0,0
-91,-601,0,0,0,0,0,0,0,0,0,-1,1133,1625,0,0
-84,-601,0,0,0,0,0,0,0,0,0,-1,1140,1625,0,0
-77,-601,0,0,0,0,0,0,0,0,0,-1,1147,1625,0,0
-70,-601,0,0,0,0,0,0,0,0,0,-1,1154,1625,0,0
-63,-601,0,0,0,0,0,0,0,0,0,-1,1161,1625,0,0
-56,-601,0,0,0,0,0,0,0,0,0,-1,1168,1625,0,0
-49,-601,0,0,0,0,0,0,0,0,0,-1,1175,1625,0,0
-42,-601,0,0,0,0,0,0,0,0,0,-1,1182,1625,0,0
-35,-601,0,0,0,0,0,0,0,0,0,-1,1189,1625,0,0
-28,-601,0,0,0,0,0,0,0,0,0,-1,1196,1625,0,0
-21,-601,0,0,0,0,0,0,0,0,0,-1,1203,1625,0,0
-14,-601,0,0,0,0,0,0,0,0,0,-1,1210,1625,0,0
-7,-601,0,0,0,0,0,0,0,0,0,-1,1217,1625,0,0
0,-601,0,0,0,0,0,0,0,0,0,-1,1224,1625,0,0
7,-601,0,0,0,0,0,0,0,0,0,-1,1231,1625,0,0
14,-601,0,0,0,0,0,0,0,0,0,-1,1238,1625,0,0
21,-601,0,0,0,0,0,0,0,0,0,-1,1245,1625,0,0
28,-601,0,0,0,0,0,0,0,0,0,-1,1252,1625,0,0
35,-601,0,0,0,0,0,0,0,0,0,-1,1259,1625,0,0
42,-601,0,0,0,0,0,0,0,0,0,-1,1266,1625,0,0
49,-601,0,0,0,0,0,0,0,0,0,-1,1273,1625,0,0
56,-601,0,0,0,0,0,0,0,0,0,-1,1280,1625,0,0
63,-601,0,0,0,0,0,0,0,0,0,-1,1287,1625,0,0
70,-601,0,0,0,0,0,0,0,0,0,-1,1294,1625,0,0
77,-601,0,0,0,0,0,0,0,0,0,-1,1301,1625,0,0
84,-601,0,0,0,0,0,0,0,0,0,-1,1308,1625,0,0
91,-601,0,0,0,0,0,0,0,0,0,-1,1315,1625,0,0
98,-601,0,0,0,0,0,0,0,0,0,-1,1322,1625,0,0
105,-601,0,0,0,0,0,0,0,0,0,-1,1329,1625,0,0
112,-601,0,0,0,0,0,0,0,0,0,-1,1336,1625,0,0
119,-601,0,0,0,0,0,0,0,0,0,-1,1343,1625,0,0
126,-601,0,0,0,0,0,0,0,0,0,-1,1350,1625,0,0
133,-601,0,0,0,0,0,0,0,0,0,-1,1357,1625,0,0
140,-601,0,0,0,0,0,0,0,0,0,-1,1364,1625,0,0
147,-601,0,0,0,0,0,0,0,0,0,-1,1371,1625,0,0
154,-601,0,0,0,0,0,0,0,0,0,-1,1378,1625,0,0
161,-601,0,0,0,0,0,0,0,0,0,-1,1385,1625,0,0
168,-601,0,0,0,0,0,0,0,0,0,-1,1392,1625,0,0
175,-601,0,0,0,0,0,0,0,0,0,-1,1399,1625,0,0
182,-601,0,0,0,0,0,0,0,0,0,-1,1406,1625,0,0
189,-601,0,0,0,0,0,0,0,0,0,-1,1413,1625,0,0
196,-601,0,0,0,0,0,0,0,0,0,-1,1420,1625,0,0
203,-601,0,0,0,0,0,0,0,0,0,-1,1427,1625,0,0
210,-601,0,0,0,0,0,0,0,0,0,-1,1434,1625,0,0
217,-601,0,0,0,0,0,0,0,0,0,-1,1441,1625,0,0
224,-601,0,0,0,0,0,0,0,0,0,-1,1448,1625,0,0
231,-601,-0.0371094,0.525879,0,0,0,0,0,0,0,-1,1455,1625,-0.0371518,-0.525824
238,-601,2.03369,-1.32861,0,0,0,0,0,0,0,-1,1462,1625,2.03364,1.32858
245,-601,2.71375,2.44983,0,0,0,0,0,0,0,-1,1469,1625,2.71371,-2.44979
252,-601,4.66943,2.28381,0,0,0,0,0,0,0,-1,1476,1625,4.66947,-2.28376
259,-601,6.42712,2.61987,0,0,0,0,0,0,0,-1,1483,1625,6.42711,-2.61985
266,-601,6.75317,1.68701,0,0,0,0,0,0,0,-1,1490,1625,6.75323,-1.687
273,-601,5.4314,2.92053,0,0,0,0,0,0,0,-1,1497,1625,5.43144,-2.92051
280,-601,4.64722,1.17786,0,0,0,0,0,0,0,-1,1504,1625,4.64722,-1.1779
287,-601,5.32532,2.6217,0,0,0,0,0,0,0,-1,1511,1625,5.32535,-2.62171
294,-601,5.97693,4.22693,0,0,0,0,0,0,0,-1,1518,1625,5.97697,-4.22694
301,-601,7.28162,9.50024,0,0,0,0,0,0,0,-1,1525,1625,7.28162,-9.50025
308,-601,6.53528,10.3927,0,0,0,0,0,0,0,-1,1532,1625,6.53529,-10.3927
315,-601,4.88013,11.7184,0,0,0,0,0,0,0,-1,1539,1625,4.88015,-11.7184
322,-601,3.38098,12.7864,0,0,0,0,0,0,0,-1,1546,1625,3.38104,-12.7864
329,-601,1.8772,13.8768,0,0,0,0,0,0,0,-1,1553,1625,1.87716,-13.8768
336,-601,4.67847,9.53308,0,0,0,0,0,0,0,-1,1560,1625,4.67848,-9.53309
343,-601,11.1404,3.14575,0,0,0,0,0,0,0,-1,1567,1625,11.1404,-3.1458
350,-601,10.9462,2.37769,0,0,0,0,0,0,0,-1,1574,1625,10.9461,-2.37764
357,-601,10.7518,1.6095,0,0,0,0,0,0,0,-1,1581,1625,10.7518,-1.60948
364,-601,5.33643,9.74426,0,0,0,0,0,0,0,-1,1588,1625,5.33637,-9.74429
371,-601,15.6366,44.541,0,0,0,0,0,0,0,-1,1595,1625,15.6366,-44.541
378,-601,16.8829,43.16,0,0,0,0,0,0,0,-1,1602,1625,16.8829,-43.1601
385,-601,16.7498,42.4266,0.00824265,0.0281254,-0.0146345,0.0358759,0.000492224,-1.08375,0.0237549,0.0451962,1609,1625,16.7497,-42.4266
392,-601,16.6896,41.8407,0.00662823,0.0220792,-0.0114549,0.0281703,0.000537143,-1.08208,0.0186037,0.0392837,1616,1625,16.6896,-41.8407
399,-601,16.6709,41.0951,0.00559295,0.0177864,-0.00908712,0.0226325,0.000746832,-1.08087,0.0148457,0.0205314,1623,1625,16.6709,-41.0951
406,-601,16.7787,40.4548,0.00491367,0.0142527,-0.00736314,0.0183022,0.000864232,-1.06798,0.0119238,0.0135696,1630,1625,16.7786,-40.4549
413,-601,16.7656,39.8729,0.00438365,0.0116892,-0.00617741,0.015213,0.000859843,-1.0524,0.00986785,0.0125627,1637,1625,16.7657,-39.8729
420,-601,16.7516,39.2826,0.00379945,0.00900377,-0.00490369,0.011953,0.000850263,-1.02933,0.00770088,0.0110899,1644,1625,16.7515,-39.2826
427,-601,16.7618,38.7252,0.0033926,0.00758378,-0.00415269,0.0101397,0.000836707,-1.01907,0.00649886,0.0153842,1651,1625,16.7619,-38.7252
434,-601,16.713,38.1548,0.00309575,0.00660634,-0.00376863,0.0090084,0.000693688,-1.00334,0.00578824,0.0165298,1658,1625,16.713,-38.1548
441,-601,16.6763,37.5813,0.00294066,0.00553826,-0.00348314,0.00795687,0.000522044,-0.963854,0.00513941,0.0178292,1665,1625,16.6763,-37.5813
448,-601,16.7201,36.9845,0.00269067,0.00459123,-0.00316293,0.00694355,0.00033835,-0.931329,0.00452047,0.0151965,1672,1625,16.7201,-36.9845
455,-601,16.7158,36.3889,0.00227351,0.00379916,-0.00289216,0.00602741,4.52672e-05,-0.914339,0.00400327,0.013991,1679,1625,16.7158,-36.3889
462,-601,16.6693,35.7933,0.00197706,0.00289686,-0.00266863,0.00514492,-0.000271012,-0.870728,0.00352376,0.012382,1686,1625,16.6693,-35.7934
469,-601,16.634,35.2279,0.00158556,0.00197972,-0.00241645,0.00420711,-0.000641829,-0.826087,0.00304135,0.0117571,1693,1625,16.6341,-35.2279
476,-601,16.6149,34.6345,0.00108354,0.00121684,-0.00220171,0.00335291,-0.00105252,-0.80053,0.00265655,0.0141035,1700,1625,16.6148,-34.6345
483,-601,16.576,34.0112,0.000546433,0.000385372,-0.00201116,0.00247867,-0.00154687,-0.765388,0.00234481,0.0169297,1707,1625,16.5761,-34.0112
490,-601,16.5579,33.3997,2.6988e-05,-0.000335886,-0.00185391,0.00170832,-0.00201722,-0.73662,0.00215341,0.0128484,1714,1625,16.5579,-33.3997
497,-601,16.5323,32.7948,-0.000517004,-0.000885286,-0.00174581,0.00105435,-0.00245664,-0.732854,0.00208026,0.0113734,1721,1625,16.5323,-32.7948
504,-601,16.5796,32.167,-0.00108195,-0.00113195,-0.00167152,0.000564759,-0.00277866,-0.77792,0.00206658,0.0229176,1728,1625,16.5796,-32.167
511,-601,16.4762,31.6555,-0.00182254,-0.00139965,-0.00133009,-0.000264304,-0.00295788,-0.864224,0.00188999,0.0379729,1735,1625,16.4762,-31.6556
518,-601,16.3868,30.9647,-0.00262606,-0.00122162,-0.00128053,-0.000463399,-0.00338427,-1.0362,0.00211867,0.0473459,1742,1625,16.3868,-30.9647
525,-601,16.4149,30.3066,0,0,0,0,0,0,0,-1,1749,1625,16.4149,-30.3066
532,-601,16.3573,21.5406,0,0,0,0,0,0,0,-1,1756,1625,16.3573,-21.5406
539,-601,7.77112,11.4299,0,0,0,0,0,0,0,-1,1763,1625,7.77116,-11.4299
546,-601,6.56873,3.62354,0,0,0,0,0,0,0,-1,1770,1625,6.56867,-3.62352
553,-601,7.03015,4.25049,0,0,0,0,0,0,0,-1,1777,1625,7.03011,-4.25048
560,-601,7.50745,4.83374,0,0,0,0,0,0,0,-1,1784,1625,7.50744,-4.83376
567,-601,7.82043,3.83301,0,0,0,0,0,0,0,-1,1791,1625,7.82041,-3.83303
574,-601,0,0,0,0,0,0,0,0,0,-1,1798,1625,0,0
581,-601,0,0,0,0,0,0,0,0,0,-1,1805,1625,0,0
588,-601,0,0,0,0,0,0,0,0,0,-1,1812,1625,0,0
595,-601,0,0,0,0,0,0,0,0,0,-1,1819,1625,0,0
602,-601,0,0,0,0,0,0,0,0,0,-1,1826,1625,0,0
609,-601,0,0,0,0,0,0,0,0,0,-1,1833,1625,0,0
616,-601,0,0,0,0,0,0,0,0,0,-1,1840,1625,0,0
623,-601,0,0,0,0,0,0,0,0,0,-1,1847,1625,0,0
630,-601,0,0,0,0,0,0,0,0,0,-1,1854,1625,0,0
637,-601,0,0,0,0,0,0,0,0,0,-1,1861,1625,0,0
644,-601,0,0,0,0,0,0,0,0,0,-1,1868,1625,0,0
651,-601,0,0,0,0,0,0,0,0,0,-1,1875,1625,0,0
658,-601,0,0,0,0,0,0,0,0,0,-1,1882,1625,0,0
665,-601,0,0,0,0,0,0,0,0,0,-1,1889,1625,0,0
672,-601,0,0,0,0,0,0,0,0,0,-1,1896,1625,0,0
679,-601,0,0,0,0,0,0,0,0,0,-1,1903,1625,0,0
686,-601,0,0,0,0,0,0,0,0,0,-1,1910,1625,0,0
693,-601,0,0,0,0,0,0,0,0,0,-1,1917,1625,0,0
700,-601,0,0,0,0,0,0,0,0,0,-1,1924,1625,0,0
707,-601,0,0,0,0,0,0,0,0,0,-1,1931,1625,0,0
714,-601,0,0,0,0,0,0,0,0,0,-1,1938,1625,0,0
721,-601,0,0,0,0,0,0,0,0,0,-1,1945,1625,0,0
728,-601,0,0,0,0,0,0,0,0,0,-1,1952,1625,0,0
735,-601,0,0,0,0,0,0,0,0,0,-1,1959,1625,0,0
742,-601,0,0,0,0,0,0,0,0,0,-1,1966,1625,0,0
749,-601,0,0,0,0,0,0,0,0,0,-1,1973,1625,0,0
756,-601,0,0,0,0,0,0,0,0,0,-1,1980,1625,0,0
763,-601,0,0,0,0,0,0,0,0,0,-1,1987,1625,0,0
770,-601,0,0,0,0,0,0,0,0,0,-1,1994,1625,0,0
777,-601,0,0,0,0,0,0,0,0,0,-1,2001,1625,0,0
784,-601,0,0,0,0,0,0,0,0,0,-1,2008,1625,0,0
791,-601,0,0,0,0,0,0,0,0,0,-1,2015,1625,0,0
798,-601,0,0,0,0,0,0,0,0,0,-1,2022,1625,0,0
805,-601,0,0,0,0,0,0,0,0,0,-1,2029,1625,0,0
812,-601,0,0,0,0,0,0,0,0,0,-1,2036,1625,0,0
-700,-608,0,0,0,0,0,0,0,0,0,-1,524,1632,0,0
-693,-608,0,0,0,0,0,0,0,0,0,-1,531,1632,0,0
-686,-608,0,0,0,0,0,0,0,0,0,-1,538,1632,0,0
-679,-608,0,0,0,0,0,0,0,0,0,-1,545,1632,0,0
-672,-608,0,0,0,0,0,0,0,0,0,-1,552,1632,0,0
-665,-608,0,0,0,0,0,0,0,0,0,-1,559,1632,0,0
-658,-608,0,0,0,0,0,0,0,0,0,-1,566,1632,0,0
-651,-608,0,0,0,0,0,0,0,0,0,-1,573,1632,0,0
-644,-608,0,0,0,0,0,0,0,0,0,-1,580,1632,0,0
-637,-608,0,0,0,0,0,0,0,0,0,-1,587,1632,0,0
-630,-608,0,0,0,0,0,0,0,0,0,-1,594,1632,0,0
-623,-608,0,0,0,0,0,0,0,0,0,-1,601,1632,0,0
-616,-608,0,0,0,0,0,0,0,0,0,-1,608,1632,0,0
-609,-608,0,0,0,0,0,0,0,0,0,-1,615,1632,0,0
-602,-608,0,0,0,0,0,0,0,0,0,-1,622,1632,0,0
-595,-608,0,0,0,0,0,0,0,0,0,-1,629,1632,0,0
-588,-608,0,0,0,0,0,0,0,0,0,-1,636,1632,0,0
-581,-608,0,0,0,0,0,0,0,0,0,-1,643,1632,0,0
-574,-608,0,0,0,0,0,0,0,0,0,-1,650,1632,0,0
-567,-608,0,0,0,0,0,0,0,0,0,-1,657,1632,0,0
-560,-608,0,0,0,0,0,0,0,0,0,-1,664,1632,0,0
-553,-608,0,0,0,0,0,0,0,0,0,-1,671,1632,0,0
-546,-608,0,0,0,0,0,0,0,0,0,-1,678,1632,0,0
-539,-608,0,0,0,0,0,0,0,0,0,-1,685,1632,0,0
-532,-608,0,0,0,0,0,0,0,0,0,-1,692,1632,0,0
-525,-608,0,0,0,0,0,0,0,0,0,-1,699,1632,0,0
-518,-608,0,0,0,0,0,0,0,0,0,-1,706,1632,0,0
-511,-608,0,0,0,0,0,0,0,0,0,-1,713,1632,0,0
-504,-608,0,0,0,0,0,0,0,0,0,-1,720,1632,0,0
-497,-608,0,0,0,0,0,0,0,0,0,-1,727,1632,0,0
-490,-608,0,0,0,0,0,0,0,0,0,-1,734,1632,0,0
-483,-608,0,0,0,0,0,0,0,0,0,-1,741,1632,0,0
-476,-608,0,0,0,0,0,0,0,0,0,-1,748,1632,0,0
-469,-608,0,0,0,0,0,0,0,0,0,-1,755,1632,0,0
-462,-608,0,0,0,0,0,0,0,0,0,-1,762,1632,0,0
-455,-608,0,0,0,0,0,0,0,0,0,-1,769,1632,0,0
-448,-608,0,0,0,0,0,0,0,0,0,-1,776,1632,0,0
-441,-608,-7.34601,2.78052,0,0,0,0,0,0,0,-1,783,1632,-7.346,-2.78056
-434,-608,-6.34558,3.27405,0,0,0,0,0,0,0,-1,790,1632,-6.34555,-3.27406
-427,-608,-7.74335,4.17688,0,0,0,0,0,0,0,-1,797,1632,-7.74334,-4.17693
-420,-608,-6.82794,4.34839,0,0,0,0,0,0,0,-1,804,1632,-6.82794,-4.34838
-413,-608,-5.41919,5.66138,0,0,0,0,0,0,0,-1,811,1632,-5.41917,-5.66133
-406,-608,-4.79681,4.98999,0,0,0,0,0,0,0,-1,818,1632,-4.79684,-4.98997
-399,-608,-2.60645,6.34167,0,0,0,0,0,0,0,-1,825,1632,-2.60643,-6.34169
-392,-608,2.08356,15.437,0,0,0,0,0,0,0,-1,832,1632,2.08354,-15.437
-385,-608,1.57581,31.0293,0,0,0,0,0,0,0,-1,839,1632,1.57579,-31.0293
-378,-608,2.24133,30.6426,0,0,0,0,0,0,0,-1,846,1632,2.24135,-30.6426
-371,-608,1.79645,31.5944,0,0,0,0,0,0,0,-1,853,1632,1.79648,-31.5944
-364,-608,1.8241,32.3619,5.29663e-05,-0.000578647,0.00294841,0.00270244,-0.00322812,0.732046,0.00342849,0.029753,860,1632,1.82412,-32.3619
-357,-608,1.68604,33.0917,0.000245547,-0.000534556,0.00245114,0.00233748,-0.00262648,0.706494,0.00286756,0.019288,867,1632,1.68605,-33.0916
-350,-608,1.69537,33.7952,0.000410212,-0.000310564,0.00205995,0.00214106,-0.00204141,0.6988,0.00241498,0.020154,874,1632,1.69536,-33.7952
-343,-608,1.66614,34.4479,0.0006318,-3.78942e-05,0.00174094,0.0020698,-0.00147589,0.69039,0.00205666,0.0275418,881,1632,1.66616,-34.4479
-336,-608,1.57849,35.1056,0.000856034,0.000305689,0.00151987,0.00212544,-0.000963722,0.695844,0.00182509,0.0197897,888,1632,1.5785,-35.1056
-329,-608,1.52612,35.7292,0.00118129,0.00106982,0.00152799,0.00265456,-0.000403449,0.767169,0.00191838,0.0175121,895,1632,1.52614,-35.7293
-322,-608,1.49695,36.2963,0.00154261,0.00238016,0.00178248,0.00379239,0.000130375,0.900776,0.00248594,0.0167507,902,1632,1.49694,-36.2963
-315,-608,1.50616,36.8573,0.00199477,0.00396852,0.00225698,0.00544496,0.000518335,0.9915,0.00347012,0.0158893,909,1632,1.50619,-36.8574
-308,-608,1.46942,37.5022,0.00257521,0.00576075,0.00280329,0.00739216,0.000943798,1.04374,0.00464558,0.0162135,916,1632,1.46942,-37.5022
-301,-608,1.45514,38.116,0.00330175,0.00782219,0.00355313,0.00977306,0.00135088,1.06868,0.00611502,0.0114358,923,1632,1.45513,-38.116
-294,-608,1.46051,38.6862,0.00412585,0.01032,0.00445849,0.0126516,0.0017943,1.08896,0.00790446,0.0115072,930,1632,1.46051,-38.6861
-287,-608,1.42725,39.2795,0.00506054,0.013041,0.00544971,0.0158051,0.00229642,1.1014,0.00986083,0.0112139,937,1632,1.42724,-39.2795
-280,-608,1.42041,39.8563,0.00615669,0.0157591,0.0064975,0.0190368,0.00287896,1.10359,0.0118487,0.00932367,944,1632,1.42038,-39.8563
-273,-608,1.38916,40.4373,0.00727001,0.0181188,0.00745458,0.0219137,0.00347514,1.09992,0.0135995,0.0104866,951,1632,1.38915,-40.4373
-266,-608,1.39825,41.0516,0.00834165,0.0203825,0.00827554,0.0245959,0.0041283,1.09987,0.0152091,0.0111914,958,1632,1.39823,-41.0516
-259,-608,1.45447,41.6459,0.00950311,0.0223919,0.00896485,0.0269883,0.00490673,1.09703,0.0166001,0.0159208,965,1632,1.45449,-41.6458
-252,-608,1.59076,42.1891,0.0108191,0.0238599,0.00948774,0.0288518,0.00582718,1.08646,0.0176164,0.0333439,972,1632,1.59077,-42.189
-245,-608,1.82257,42.9,0,0,0,0,0,0,0,-1,979,1632,1.82254,-42.9001
-238,-608,1.77112,44.0815,0,0,0,0,0,0,0,-1,986,1632,1.77111,-44.0815
-231,-608,3.26025,27.5262,0,0,0,0,0,0,0,-1,993,1632,3.26023,-27.5263
-224,-608,2.51642,15.3452,0,0,0,0,0,0,0,-1,1000,1632,2.5164,-15.3452
-217,-608,1.04419,12.8451,0,0,0,0,0,0,0,-1,1007,1632,1.04418,-12.8451
-210,-608,2.75903,15.9414,0,0,0,0,0,0,0,-1,1014,1632,2.75903,-15.9414
-203,-608,2.76776,16.217,0,0,0,0,0,0,0,-1,1021,1632,2.76773,-16.217
-196,-608,1.53955,18.6058,0,0,0,0,0,0,0,-1,1028,1632,1.53959,-18.6058
-189,-608,1.37634,19.119,0,0,0,0,0,0,0,-1,1035,1632,1.37634,-19.1191
-182,-608,2.89221,16.7092,0,0,0,0,0,0,0,-1,1042,1632,2.89224,-16.7093
-175,-608,0.219116,15.1643,0,0,0,0,0,0,0,-1,1049,1632,0.219173,-15.1644
-168,-608,0.000366211,9.48645,0,0,0,0,0,0,0,-1,1056,1632,0.000317105,-9.48648
-161,-608,2.27832,15.4423,0,0,0,0,0,0,0,-1,1063,1632,2.27826,-15.4423
-154,-608,1.3999,16.4037,0,0,0,0,0,0,0,-1,1070,1632,1.39987,-16.4037
-147,-608,2.4386,9.50317,0,0,0,0,0,0,0,-1,1077,1632,2.43858,-9.50313
-140,-608,2.60132,10.8401,0,0,0,0,0,0,0,-1,1084,1632,2.60134,-10.8401
-133,-608,3.2312,12.4738,0,0,0,0,0,0,0,-1,1091,1632,3.23116,-12.4738
-126,-608,3.76465,13.9644,0,0,0,0,0,0,0,-1,1098,1632,3.76466,-13.9644
-119,-608,4.28906,15.4196,0,0,0,0,0,0,0,-1,1105,1632,4.28911,-15.4195
-112,-608,0.745117,10.5587,0,0,0,0,0,0,0,-1,1112,1632,0.745145,-10.5587
-105,-608,-0.252319,1.42419,0,0,0,0,0,0,0,-1,1119,1632,-0.252331,-1.42418
-98,-608,-2.8595,3.0863,0,0,0,0,0,0,0,-1,1126,1632,-2.85948,-3.08625
-91,-608,-3.71948,1.73608,0,0,0,0,0,0,0,-1,1133,1632,-3.7195,-1.73607
-84,-608,0,0,0,0,0,0,0,0,0,-1,1140,1632,0,0
-77,-608,0,0,0,0,0,0,0,0,0,-1,1147,1632,0,0
-70,-608,0,0,0,0,0,0,0,0,0,-1,1154,1632,0,0
-63,-608,0,0,0,0,0,0,0,0,0,-1,1161,1632,0,0
-56,-608,0,0,0,0,0,0,0,0,0,-1,1168,1632,0,0
-49,-608,0,0,0,0,0,0,0,0,0,-1,1175,1632,0,0
-42,-608,0,0,0,0,0,0,0,0,0,-1,1182,1632,0,0
-35,-608,0,0,0,0,0,0,0,0,0,-1,1189,1632,0,0
-28,-608,0,0,0,0,0,0,0,0,0,-1,1196,1632,0,0
-21,-608,0,0,0,0,0,0,0,0,0,-1,1203,1632,0,0
-14,-608,0,0,0,0,0,0,0,0,0,-1,1210,1632,0,0
-7,-608,0,0,0,0,0,0,0,0,0,-1,1217,1632,0,0
0,-608,0,0,0,0,0,0,0,0,0,-1,1224,1632,0,0
7,-608,0,0,0,0,0,0,0,0,0,-1,1231,1632,0,0
14,-608,0,0,0,0,0,0,0,0,0,-1,1238,1632,0,0
21,-608,0,0,0,0,0,0,0,0,0,-1,1245,1632,0,0
28,-608,0,0,0,0,0,0,0,0,0,-1,1252,1632,0,0
35,-608,0,0,0,0,0,0,0,0,0,-1,1259,1632,0,0
42,-608,0,0,0,0,0,0,0,0,0,-1,1266,1632,0,0
49,-608,0,0,0,0,0,0,0,0,0,-1,1273,1632,0,0
56,-608,0,0,0,0,0,0,0,0,0,-1,1280,1632,0,0
63,-608,0,0,0,0,0,0,0,0,0,-1,1287,1632,0,0
70,-608,0,0,0,0,0,0,0,0,0,-1,1294,1632,0,0
77,-608,0,0,0,0,0,0,0,0,0,-1,1301,1632,0,0
84,-608,0,0,0,0,0,0,0,0,0,-1,1308,1632,0,0
91,-608,0,0,0,0,0,0,0,0,0,-1,1315,1632,0,0
98,-608,0,0,0,0,0,0,0,0,0,-1,1322,1632,0,0
105,-608,0,0,0,0,0,0,0,0,0,-1,1329,1632,0,0
112,-608,0,0,0,0,0,0,0,0,0,-1,1336,1632,0,0
119,-608,0,0,0,0,0,0,0,0,0,-1,1343,1632,0,0
126,-608,0,0,0,0,0,0,0,0,0,-1,1350,1632,0,0
133,-608,0,0,0,0,0,0,0,0,0,-1,1357,1632,0,0
140,-608,0,0,0,0,0,0,0,0,0,-1,1364,1632,0,0
147,-608,0,0,0,0,0,0,0,0,0,-1,1371,1632,0,0
154,-608,0,0,0,0,0,0,0,0,0,-1,1378,1632,0,0
161,-608,0,0,0,0,0,0,0,0,0,-1,1385,1632,0,0
168,-608,0,0,0,0,0,0,0,0,0,-1,1392,1632,0,0
175,-608,0,0,0,0,0,0,0,0,0,-1,1399,1632,0,0
182,-608,0,0,0,0,0,0,0,0,0,-1,1406,1632,0,0
189,-608,0,0,0,0,0,0,0,0,0,-1,1413,1632,0,0
196,-608,0,0,0,0,0,0,0,0,0,-1,1420,1632,0,0
203,-608,0,0,0,0,0,0,0,0,0,-1,1427,1632,0,0
210,-608,5.7157,-0.333008,0,0,0,0,0,0,0,-1,1434,1632,5.71566,0.333004
217,-608,4.49402,-0.831787,0,0,0,0,0,0,0,-1,1441,1632,4.49396,0.831738
224,-608,4.18018,-1.11792,0,0,0,0,0,0,0,-1,1448,1632,4.1802,1.11796
231,-608,0.361816,0.825195,0,0,0,0,0,0,0,-1,1455,1632,0.36185,-0.825226
238,-608,2.85388,-0.28833,0,0,0,0,0,0,0,-1,1462,1632,2.85391,0.288282
245,-608,3.87537,4.02173,0,0,0,0,0,0,0,-1,1469,1632,3.87538,-4.02168
252,-608,5.66956,3.5282,0,0,0,0,0,0,0,-1,1476,1632,5.6696,-3.52815
259,-608,7.47437,3.07178,0,0,0,0,0,0,0,-1,1483,1632,7.4744,-3.07172
266,-608,9.46936,2.34766,0,0,0,0,0,0,0,-1,1490,1632,9.46932,-2.34764
273,-608,6.03003,3.34241,0,0,0,0,0,0,0,-1,1497,1632,6.02997,-3.34245
280,-608,5.72461,2.0769,0,0,0,0,0,0,0,-1,1504,1632,5.72457,-2.07688
287,-608,6.20581,3.59338,0,0,0,0,0,0,0,-1,1511,1632,6.20585,-3.59341
294,-608,6.94922,5.17151,0,0,0,0,0,0,0,-1,1518,1632,6.94925,-5.17151
301,-608,7.60083,6.68018,0,0,0,0,0,0,0,-1,1525,1632,7.60086,-6.68013
308,-608,7.64746,9.93848,0,0,0,0,0,0,0,-1,1532,1632,7.64745,-9.93842
315,-608,5.30688,11.2054,0,0,0,0,0,0,0,-1,1539,1632,5.30694,-11.2054
322,-608,5.32617,13.7581,0,0,0,0,0,0,0,-1,1546,1632,5.32613,-13.758
329,-608,7.12231,13.9607,0,0,0,0,0,0,0,-1,1553,1632,7.12231,-13.9607
336,-608,5.48633,7.82446,0,0,0,0,0,0,0,-1,1560,1632,5.48634,-7.82446
343,-608,5.47192,5.61047,0,0,0,0,0,0,0,-1,1567,1632,5.47192,-5.61045
350,-608,11.6957,1.71387,0,0,0,0,0,0,0,-1,1574,1632,11.6957,-1.71388
357,-608,3.77002,5.10046,0,0,0,0,0,0,0,-1,1581,1632,3.77002,-5.10043
364,-608,15.0598,45.1941,0,0,0,0,0,0,0,-1,1588,1632,15.0598,-45.1941
371,-608,15.4303,44.175,0,0,0,0,0,0,0,-1,1595,1632,15.4303,-44.1751
378,-608,15.8009,43.156,0,0,0,0,0,0,0,-1,1602,1632,15.8009,-43.156
385,-608,16.182,42.2551,0.00726734,0.0230401,-0.0115919,0.0291739,0.00113352,-1.0841,0.0190827,0.0327447,1609,1632,16.182,-42.2551
392,-608,16.1444,41.649,0.00583261,0.0181312,-0.00912146,0.0229826,0.000981219,-1.08198,0.0150053,0.0229451,1616,1632,16.1445,-41.6491
399,-608,16.1855,40.9944,0.00489495,0.014501,-0.00723231,0.0183799,0.00101608,-1.07851,0.011929,0.01131,1623,1632,16.1855,-40.9944
406,-608,16.2299,40.4102,0.00422797,0.0114925,-0.00582883,0.0147282,0.000992294,-1.06403,0.00950529,0.00935599,1630,1632,16.2299,-40.4102
413,-608,16.2087,39.8445,0.00366471,0.00916907,-0.00479547,0.011946,0.000887783,-1.04591,0.00768518,0.0101409,1637,1632,16.2088,-39.8445
420,-608,16.1578,39.2913,0.00309937,0.0067762,-0.00370922,0.0090776,0.000797969,-1.01547,0.00580406,0.0181541,1644,1632,16.1579,-39.2913
427,-608,16.186,38.7299,0.00272023,0.00554262,-0.0031239,0.00755929,0.000703566,-0.997549,0.00482214,0.0198408,1651,1632,16.1861,-38.7298
434,-608,16.1732,38.156,0.00245805,0.00476955,-0.0028965,0.00673237,0.000495232,-0.975227,0.00433261,0.0154957,1658,1632,16.1732,-38.156
441,-608,16.1366,37.5676,0.00231406,0.00394627,-0.00276906,0.00601699,0.000243342,-0.928702,0.00393272,0.0140574,1665,1632,16.1366,-37.5677
448,-608,16.1423,37.0223,0.00212711,0.00324153,-0.00262906,0.00537178,-3.13879e-06,-0.889824,0.00358223,0.0154327,1672,1632,16.1423,-37.0224
455,-608,16.1514,36.4177,0.00182604,0.00266143,-0.00253638,0.00481428,-0.000326809,-0.867006,0.00332382,0.0120837,1679,1632,16.1514,-36.4177
462,-608,16.1039,35.8208,0.0015652,0.001953,-0.0024748,0.00424148,-0.000723281,-0.824492,0.00309703,0.0117717,1686,1632,16.1038,-35.8207
469,-608,16.0552,35.2491,0.00123612,0.00121541,-0.00242588,0.00365167,-0.00120014,-0.783264,0.00291796,0.00841581,1693,1632,16.0551,-35.2492
476,-608,16.0161,34.6675,0.000851867,0.000643942,-0.00236947,0.00311965,-0.00162384,-0.763474,0.00278367,0.0089776,1700,1632,16.0161,-34.6675
483,-608,15.9987,34.0537,0.00041023,-1.69979e-05,-0.00231921,0.00252564,-0.00213241,-0.739475,0.00269252,0.00874448,1707,1632,15.9987,-34.0537
490,-608,15.9833,33.4307,-8.93758e-05,-0.000637049,-0.00229141,0.00194451,-0.00267093,-0.725927,0.0026757,0.0106968,1714,1632,15.9833,-33.4306
497,-608,16.0029,32.787,-0.000659611,-0.00112999,-0.0022787,0.00139601,-0.00318561,-0.733974,0.00271163,0.0259633,1721,1632,16.0029,-32.787
504,-608,16.1439,32.1399,0,0,0,0,0,0,0,-1,1728,1632,16.1439,-32.1399
511,-608,15.8701,31.8505,0,0,0,0,0,0,0,-1,1735,1632,15.8701,-31.8505
518,-608,15.9102,30.9745,0,0,0,0,0,0,0,-1,1742,1632,15.9101,-30.9745
525,-608,11.2109,16.2579,0,0,0,0,0,0,0,-1,1749,1632,11.2109,-16.2579
532,-608,8.27917,11.6693,0,0,0,0,0,0,0,-1,1756,1632,8.27919,-11.6694
539,-608,9.40796,1.43457,0,0,0,0,0,0,0,-1,1763,1632,9.40801,-1.43463
546,-608,9.94031,2.1134,0,0,0,0,0,0,0,-1,1770,1632,9.94031,-2.11346
553,-608,10.363,2.81335,0,0,0,0,0,0,0,-1,1777,1632,10.3631,-2.81333
560,-608,9.23999,4.5636,0,0,0,0,0,0,0,-1,1784,1632,9.24,-4.56354
567,-608,0,0,0,0,0,0,0,0,0,-1,1791,1632,0,0
574,-608,0,0,0,0,0,0,0,0,0,-1,1798,1632,0,0
581,-608,0,0,0,0,0,0,0,0,0,-1,1805,1632,0,0
588,-608,0,0,0,0,0,0,0,0,0,-1,1812,1632,0,0
595,-608,0,0,0,0,0,0,0,0,0,-1,1819,1632,0,0
602,-608,0,0,0,0,0,0,0,0,0,-1,1826,1632,0,0
609,-608,0,0,0,0,0,0,0,0,0,-1,1833,1632,0,0
616,-608,0,0,0,0,0,0,0,0,0,-1,1840,1632,0,0
623,-608,0,0,0,0,0,0,0,0,0,-1,1847,1632,0,0
630,-608,0,0,0,0,0,0,0,0,0,-1,1854,1632,0,0
637,-608,0,0,0,0,0,0,0,0,0,-1,1861,1632,0,0
644,-608,0,0,0,0,0,0,0,0,0,-1,1868,1632,0,0
651,-608,0,0,0,0,0,0,0,0,0,-1,1875,1632,0,0
658,-608,0,0,0,0,0,0,0,0,0,-1,1882,1632,0,0
665,-608,0,0,0,0,0,0,0,0,0,-1,1889,1632,0,0
672,-608,0,0,0,0,0,0,0,0,0,-1,1896,1632,0,0
679,-608,0,0,0,0,0,0,0,0,0,-1,1903,1632,0,0
686,-608,0,0,0,0,0,0,0,0,0,-1,1910,1632,0,0
693,-608,0,0,0,0,0,0,0,0,0,-1,1917,1632,0,0
700,-608,0,0,0,0,0,0,0,0,0,-1,1924,1632,0,0
707,-608,0,0,0,0,0,0,0,0,0,-1,1931,1632,0,0
714,-608,0,0,0,0,0,0,0,0,0,-1,1938,1632,0,0
721,-608,0,0,0,0,0,0,0,0,0,-1,1945,1632,0,0
728,-608,0,0,0,0,0,0,0,0,0,-1,1952,1632,0,0
735,-608,0,0,0,0,0,0,0,0,0,-1,1959,1632,0,0
742,-608,0,0,0,0,0,0,0,0,0,-1,1966,1632,0,0
749,-608,0,0,0,0,0,0,0,0,0,-1,1973,1632,0,0
756,-608,0,0,0,0,0,0,0,0,0,-1,1980,1632,0,0
763,-608,0,0,0,0,0,0,0,0,0,-1,1987,1632,0,0
770,-608,0,0,0,0,0,0,0,0,0,-1,1994,1632,0,0
777,-608,0,0,0,0,0,0,0,0,0,-1,2001,1632,0,0
784,-608,0,0,0,0,0,0,0,0,0,-1,2008,1632,0,0
791,-608,0,0,0,0,0,0,0,0,0,-1,2015,1632,0,0
798,-608,0,0,0,0,0,0,0,0,0,-1,2022,1632,0,0
805,-608,0,0,0,0,0,0,0,0,0,-1,2029,1632,0,0
812,-608,0,0,0,0,0,0,0,0,0,-1,2036,1632,0,0
-700,-615,0,0,0,0,0,0,0,0,0,-1,524,1639,0,0
-693,-615,0,0,0,0,0,0,0,0,0,-1,531,1639,0,0
-686,-615,0,0,0,0,0,0,0,0,0,-1,538,1639,0,0
-679,-615,0,0,0,0,0,0,0,0,0,-1,545,1639,0,0
-672,-615,0,0,0,0,0,0,0,0,0,-1,552,1639,0,0
-665,-615,0,0,0,0,0,0,0,0,0,-1,559,1639,0,0
-658,-615,0,0,0,0,0,0,0,0,0,-1,566,1639,0,0
-651,-615,0,0,0,0,0,0,0,0,0,-1,573,1639,0,0
-644,-615,0,0,0,0,0,0,0,0,0,-1,580,1639,0,0
-637,-615,0,0,0,0,0,0,0,0,0,-1,587,1639,0,0
-630,-615,0,0,0,0,0,0,0,0,0,-1,594,1639,0,0
-623,-615,0,0,0,0,0,0,0,0,0,-1,601,1639,0,0
-616,-615,0,0,0,0,0,0,0,0,0,-1,608,1639,0,0
-609,-615,0,0,0,0,0,0,0,0,0,-1,615,1639,0,0
-602,-615,0,0,0,0,0,0,0,0,0,-1,622,1639,0,0
-595,-615,0,0,0,0,0,0,0,0,0,-1,629,1639,0,0
-588,-615,0,0,0,0,0,0,0,0,0,-1,636,1639,0,0
-581,-615,0,0,0,0,0,0,0,0,0,-1,643,1639,0,0
-574,-615,0,0,0,0,0,0,0,0,0,-1,650,1639,0,0
-567,-615,0,0,0,0,0,0,0,0,0,-1,657,1639,0,0
-560,-615,0,0,0,0,0,0,0,0,0,-1,664,1639,0,0
-553,-615,0,0,0,0,0,0,0,0,0,-1,671,1639,0,0
-546,-615,0,0,0,0,0,0,0,0,0,-1,678,1639,0,0
-539,-615,0,0,0,0,0,0,0,0,0,-1,685,1639,0,0
-532,-615,0,0,0,0,0,0,0,0,0,-1,692,1639,0,0
-525,-615,0,0,0,0,0,0,0,0,0,-1,699,1639,0,0
-518,-615,0,0,0,0,0,0,0,0,0,-1,706,1639,0,0
-511,-615,0,0,0,0,0,0,0,0,0,-1,713,1639,0,0
-504,-615,0,0,0,0,0,0,0,0,0,-1,720,1639,0,0
-497,-615,0,0,0,0,0,0,0,0,0,-1,727,1639,0,0
-490,-615,0,0,0,0,0,0,0,0,0,-1,734,1639,0,0
-483,-615,0,0,0,0,0,0,0,0,0,-1,741,1639,0,0
-476,-615,0,0,0,0,0,0,0,0,0,-1,748,1639,0,0
-469,-615,0,0,0,0,0,0,0,0,0,-1,755,1639,0,0
-462,-615,0,0,0,0,0,0,0,0,0,-1,762,1639,0,0
-455,-615,0,0,0,0,0,0,0,0,0,-1,769,1639,0,0
-448,-615,0,0,0,0,0,0,0,0,0,-1,776,1639,0,0
-441,-615,0,0,0,0,0,0,0,0,0,-1,783,1639,0,0
-434,-615,-7.64508,2.98596,0,0,0,0,0,0,0,-1,790,1639,-7.64505,-2.98594
-427,-615,-9.0011,2.89404,0,0,0,0,0,0,0,-1,797,1639,-9.00107,-2.89399
-420,-615,-8.07568,3.0752,0,0,0,0,0,0,0,-1,804,1639,-8.07569,-3.07514
-413,-615,-7.09149,3.396,0,0,0,0,0,0,0,-1,811,1639,-7.09147,-3.39599
-406,-615,-6.21368,3.7312,0,0,0,0,0,0,0,-1,818,1639,-6.21366,-3.73114
-399,-615,-4.84875,3.91907,0,0,0,0,0,0,0,-1,825,1639,-4.84877,-3.91901
-392,-615,1.7395,13.3127,0,0,0,0,0,0,0,-1,832,1639,1.73953,-13.3128
-385,-615,3.42297,14.9401,0,0,0,0,0,0,0,-1,839,1639,3.42296,-14.94
-378,-615,3.14178,30.5505,0,0,0,0,0,0,0,-1,846,1639,3.1418,-30.5505
-371,-615,2.59448,31.588,0,0,0,0,0,0,0,-1,853,1639,2.59447,-31.588
-364,-615,2.36542,32.5468,0,0,0,0,0,0,0,-1,860,1639,2.36542,-32.5467
-357,-615,2.24884,33.2054,0,0,0,0,0,0,0,-1,867,1639,2.24883,-33.2054
-350,-615,2.29913,33.8586,0.000519579,-0.000244383,0.00251636,0.00268279,-0.00240759,0.710074,0.00294036,0.031341,874,1639,2.29911,-33.8587
-343,-615,2.26825,34.3987,0.000649846,-4.61825e-05,0.00207767,0.00240845,-0.00180479,0.702418,0.00244082,0.0217372,881,1639,2.26824,-34.3987
-336,-615,2.20154,35.0717,0.000745401,0.000136176,0.00167366,0.00214194,-0.00126036,0.695381,0.00198618,0.0119126,888,1639,2.20152,-35.0716
-329,-615,2.14508,35.7113,0.000910891,0.000566812,0.0014648,0.00221372,-0.000736015,0.726941,0.00177283,0.0116395,895,1639,2.14507,-35.7113
-322,-615,2.1264,36.3275,0.00108883,0.00136776,0.00147701,0.00271187,-0.000255286,0.83247,0.00189874,0.0124242,902,1639,2.12641,-36.3275
-315,-615,2.12531,36.9403,0.00135202,0.00252616,0.00172049,0.00375699,0.000121193,0.949814,0.00246525,0.0153207,909,1639,2.12532,-36.9403
-308,-615,2.06177,37.5621,0.00177204,0.00387506,0.00205085,0.00512826,0.000518842,1.02228,0.00325968,0.0229077,916,1639,2.06176,-37.5621
-301,-615,2.06946,38.1309,0.00231634,0.00539597,0.00254744,0.00683281,0.000879493,1.05724,0.00429218,0.0134524,923,1639,2.06948,-38.1308
-294,-615,2.05585,38.7052,0.00297394,0.00723593,0.00318406,0.00893631,0.00127357,1.0803,0.00558166,0.0107226,930,1639,2.05582,-38.7052
-287,-615,2.00989,39.2938,0.00369321,0.00920687,0.00384297,0.0111796,0.0017205,1.09654,0.00695089,0.00843192,937,1639,2.0099,-39.2939
-280,-615,2.00208,39.8796,0.00456285,0.0111188,0.00456266,0.0134589,0.00222272,1.09689,0.00833113,0.0104495,944,1639,2.00206,-39.8797
-273,-615,1.96869,40.4543,0.00548012,0.0127281,0.00521382,0.0154537,0.00275452,1.0891,0.00951809,0.0123717,951,1639,1.96869,-40.4544
-266,-615,1.94348,41.028,0.00635302,0.014272,0.00575175,0.0172953,0.00332965,1.08685,0.0105962,0.0120589,958,1639,1.94349,-41.028
-259,-615,1.97107,41.6005,0.00731302,0.0156949,0.00621878,0.0190031,0.00400481,1.0819,0.0115672,0.012921,965,1639,1.97109,-41.6005
-252,-615,1.97443,42.2361,0.00833744,0.016676,0.00646812,0.0202021,0.0048113,1.07168,0.0121852,0.0188495,972,1639,1.97445,-42.2361
-245,-615,2.10669,42.9698,0.0093133,0.0176558,0.00664297,0.0213286,0.00564055,1.06575,0.0127614,0.0325811,979,1639,2.10669,-42.9699
-238,-615,2.15533,43.5677,0.00965097,0.0169358,0.00679065,0.0209992,0.00558753,1.03156,0.0125584,0.0448951,986,1639,2.15532,-43.5677
-231,-615,2.20642,44.2252,0,0,0,0,0,0,0,-1,993,1639,2.20642,-44.2252
-224,-615,2.37201,44.3359,0,0,0,0,0,0,0,-1,1000,1639,2.37198,-44.336
-217,-615,3.99097,27.3737,0,0,0,0,0,0,0,-1,1007,1639,3.99096,-27.3736
-210,-615,2.48901,18.9324,0,0,0,0,0,0,0,-1,1014,1639,2.48902,-18.9323
-203,-615,2.13684,18.6173,0,0,0,0,0,0,0,-1,1021,1639,2.13683,-18.6173
-196,-615,4.27161,21.3264,0,0,0,0,0,0,0,-1,1028,1639,4.27165,-21.3264
-189,-615,1.8269,19.6761,0,0,0,0,0,0,0,-1,1035,1639,1.82691,-19.6761
-182,-615,3.08008,45.4559,0,0,0,0,0,0,0,-1,1042,1639,3.08003,-45.4559
-175,-615,3.00256,45.9554,0,0,0,0,0,0,0,-1,1049,1639,3.00251,-45.9555
-168,-615,3.85754,15.472,0,0,0,0,0,0,0,-1,1056,1639,3.85757,-15.472
-161,-615,2.14307,46.5156,0,0,0,0,0,0,0,-1,1063,1639,2.14303,-46.5156
-154,-615,1.37329,47.9545,0,0,0,0,0,0,0,-1,1070,1639,1.37327,-47.9545
-147,-615,0.0180664,48.1396,0,0,0,0,0,0,0,-1,1077,1639,0.0180157,-48.1397
-140,-615,3.73401,10.2349,0,0,0,0,0,0,0,-1,1084,1639,3.73402,-10.2348
-133,-615,2.6178,17.45,0,0,0,0,0,0,0,-1,1091,1639,2.61776,-17.4499
-126,-615,4.43408,12.5017,0,0,0,0,0,0,0,-1,1098,1639,4.43403,-12.5018
-119,-615,4.82983,13.9279,0,0,0,0,0,0,0,-1,1105,1639,4.82986,-13.9278
-112,-615,3.65698,14.4874,0,0,0,0,0,0,0,-1,1112,1639,3.65695,-14.4875
-105,-615,0.958496,2.45398,0,0,0,0,0,0,0,-1,1119,1639,0.958452,-2.45398
-98,-615,-0.647705,2.12109,0,0,0,0,0,0,0,-1,1126,1639,-0.647756,-2.12105
-91,-615,-3.07983,2.97375,0,0,0,0,0,0,0,-1,1133,1639,-3.07989,-2.97376
-84,-615,-2.46509,0.703247,0,0,0,0,0,0,0,-1,1140,1639,-2.46505,-0.703273
-77,-615,-3.17859,1.23755,0,0,0,0,0,0,0,-1,1147,1639,-3.17865,-1.23752
-70,-615,-4.03943,1.43335,0,0,0,0,0,0,0,-1,1154,1639,-4.03942,-1.43339
-63,-615,-4.8877,1.45544,0,0,0,0,0,0,0,-1,1161,1639,-4.88766,-1.45549
-56,-615,0,0,0,0,0,0,0,0,0,-1,1168,1639,0,0
-49,-615,0,0,0,0,0,0,0,0,0,-1,1175,1639,0,0
-42,-615,0,0,0,0,0,0,0,0,0,-1,1182,1639,0,0
-35,-615,0,0,0,0,0,0,0,0,0,-1,1189,1639,0,0
-28,-615,0,0,0,0,0,0,0,0,0,-1,1196,1639,0,0
-21,-615,0,0,0,0,0,0,0,0,0,-1,1203,1639,0,0
-14,-615,0,0,0,0,0,0,0,0,0,-1,1210,1639,0,0
-7,-615,0,0,0,0,0,0,0,0,0,-1,1217,1639,0,0
0,-615,0,0,0,0,0,0,0,0,0,-1,1224,1639,0,0
7,-615,0,0,0,0,0,0,0,0,0,-1,1231,1639,0,0
14,-615,0,0,0,0,0,0,0,0,0,-1,1238,1639,0,0
21,-615,0,0,0,0,0,0,0,0,0,-1,1245,1639,0,0
28,-615,0,0,0,0,0,0,0,0,0,-1,1252,1639,0,0
35,-615,0,0,0,0,0,0,0,0,0,-1,1259,1639,0,0
42,-615,0,0,0,0,0,0,0,0,0,-1,1266,1639,0,0
49,-615,0,0,0,0,0,0,0,0,0,-1,1273,1639,0,0
56,-615,0,0,0,0,0,0,0,0,0,-1,1280,1639,0,0
63,-615,0,0,0,0,0,0,0,0,0,-1,1287,1639,0,0
70,-615,0,0,0,0,0,0,0,0,0,-1,1294,1639,0,0
77,-615,0,0,0,0,0,0,0,0,0,-1,1301,1639,0,0
84,-615,0,0,0,0,0,0,0,0,0,-1,1308,1639,0,0
91,-615,0,0,0,0,0,0,0,0,0,-1,1315,1639,0,0
98,-615,0,0,0,0,0,0,0,0,0,-1,1322,1639,0,0
105,-615,0,0,0,0,0,0,0,0,0,-1,1329,1639,0,0
112,-615,0,0,0,0,0,0,0,0,0,-1,1336,1639,0,0
119,-615,0,0,0,0,0,0,0,0,0,-1,1343,1639,0,0
126,-615,0,0,0,0,0,0,0,0,0,-1,1350,1639,0,0
133,-615,0,0,0,0,0,0,0,0,0,-1,1357,1639,0,0
140,-615,0,0,0,0,0,0,0,0,0,-1,1364,1639,0,0
147,-615,0,0,0,0,0,0,0,0,0,-1,1371,1639,0,0
154,-615,0,0,0,0,0,0,0,0,0,-1,1378,1639,0,0
161,-615,0,0,0,0,0,0,0,0,0,-1,1385,1639,0,0
168,-615,0,0,0,0,0,0,0,0,0,-1,1392,1639,0,0
175,-615,5.39648,-2.00879,0,0,0,0,0,0,0,-1,1399,1639,5.3965,2.00881
182,-615,5.65393,-1.51025,0,0,0,0,0,0,0,-1,1406,1639,5.65388,1.51028
189,-615,5.58972,-1.35608,0,0,0,0,0,0,0,-1,1413,1639,5.58967,1.35607
196,-615,5.49915,-0.693604,0,0,0,0,0,0,0,-1,1420,1639,5.4991,0.693602
203,-615,5.33411,-0.226685,0,0,0,0,0,0,0,-1,1427,1639,5.33414,0.226689
210,-615,5.60278,0.108276,0,0,0,0,0,0,0,-1,1434,1639,5.60284,-0.10831
217,-615,6.26331,-0.307373,0,0,0,0,0,0,0,-1,1441,1639,6.26331,0.307372
224,-615,5.45422,-0.333984,0,0,0,0,0,0,0,-1,1448,1639,5.45422,0.333992
231,-615,4.92542,1.80298,0,0,0,0,0,0,0,-1,1455,1639,4.92537,-1.80297
238,-615,4.76355,1.96729,0,0,0,0,0,0,0,-1,1462,1639,4.76357,-1.96734
245,-615,4.08643,3.15906,0,0,0,0,0,0,0,-1,1469,1639,4.08638,-3.159
252,-615,6.37805,3.73889,0,0,0,0,0,0,0,-1,1476,1639,6.37806,-3.73891
259,-615,8.35974,3.16443,0,0,0,0,0,0,0,-1,1483,1639,8.35975,-3.16444
266,-615,10.3414,2.58997,0,0,0,0,0,0,0,-1,1490,1639,10.3414,-2.58996
273,-615,6.57043,1.84766,0,0,0,0,0,0,0,-1,1497,1639,6.5704,-1.84771
280,-615,7.10449,3.23438,0,0,0,0,0,0,0,-1,1504,1639,7.10447,-3.23435
287,-615,7.35779,4.68542,0,0,0,0,0,0,0,-1,1511,1639,7.35776,-4.68546
294,-615,7.63733,6.29114,0,0,0,0,0,0,0,-1,1518,1639,7.63735,-6.29109
301,-615,8.47925,11.452,0,0,0,0,0,0,0,-1,1525,1639,8.47922,-11.452
308,-615,6.8114,10.9059,0,0,0,0,0,0,0,-1,1532,1639,6.81137,-10.9058
315,-615,5.1427,14.7251,0,0,0,0,0,0,0,-1,1539,1639,5.14269,-14.7251
322,-615,7.17981,17.6864,0,0,0,0,0,0,0,-1,1546,1639,7.17985,-17.6864
329,-615,7.62134,20.4354,0,0,0,0,0,0,0,-1,1553,1639,7.62139,-20.4354
336,-615,6.45007,14.1138,0,0,0,0,0,0,0,-1,1560,1639,6.45011,-14.1138
343,-615,2.40491,6.50134,0,0,0,0,0,0,0,-1,1567,1639,2.40489,-6.50137
350,-615,15.046,46.4662,0,0,0,0,0,0,0,-1,1574,1639,15.046,-46.4662
357,-615,15.077,45.795,0,0,0,0,0,0,0,-1,1581,1639,15.077,-45.7951
364,-615,15.1617,44.83,0.0099248,0.0328612,-0.0156268,0.0407764,0.0020096,-1.10195,0.0265398,0.0491669,1588,1639,15.1617,-44.83
371,-615,15.3014,43.5909,0.00874184,0.0277299,-0.0134125,0.0346685,0.0018032,-1.09339,0.0225354,0.0366222,1595,1639,15.3014,-43.5909
378,-615,15.5867,42.6514,0.00751054,0.0229509,-0.0110716,0.0287282,0.00173326,-1.08985,0.0186013,0.0197856,1602,1639,15.5867,-42.6513
385,-615,15.6188,42.0579,0.00622581,0.0183752,-0.00897398,0.0231372,0.0014638,-1.08293,0.0149608,0.012418,1609,1639,15.6188,-42.0579
392,-615,15.6487,41.5131,0.00503878,0.0144798,-0.00714776,0.0183251,0.00119343,-1.07723,0.011839,0.0115354,1616,1639,15.6487,-41.513
399,-615,15.6462,40.9612,0.00424557,0.0115425,-0.00570916,0.0146694,0.00111866,-1.06972,0.00942888,0.0126896,1623,1639,15.6463,-40.9612
406,-615,15.6471,40.4257,0.00365322,0.00911017,-0.00463307,0.0117585,0.0010049,-1.05151,0.00752642,0.0120495,1630,1639,15.647,-40.4257
413,-615,15.6411,39.891,0.00313117,0.00716671,-0.00380518,0.009456,0.000841883,-1.02918,0.00604296,0.012946,1637,1639,15.6411,-39.891
420,-615,15.6283,39.327,0.0026356,0.00518393,-0.00294433,0.00711797,0.000701553,-0.989607,0.00452961,0.0138017,1644,1639,15.6282,-39.327
427,-615,15.6215,38.7467,0.0023118,0.00421717,-0.00252997,0.00596788,0.000561094,-0.965467,0.00380537,0.0152906,1651,1639,15.6215,-38.7468
434,-615,15.616,38.1611,0.0020971,0.00369905,-0.0024452,0.00547112,0.000325032,-0.943675,0.00354404,0.0145917,1658,1639,15.616,-38.1611
441,-615,15.5835,37.5953,0.00198338,0.00315807,-0.00244895,0.00508912,5.23254e-05,-0.903093,0.00337544,0.0156537,1665,1639,15.5835,-37.5953
448,-615,15.5662,37.0327,0.00185965,0.0027222,-0.00246532,0.00479369,-0.000211839,-0.871991,0.00326869,0.0158613,1672,1639,15.5661,-37.0327
455,-615,15.546,36.4508,0.00166611,0.00236964,-0.00252948,0.0045717,-0.000535949,-0.854488,0.00324125,0.0142792,1679,1639,15.546,-36.4508
462,-615,15.5194,35.8618,0.00145456,0.00186971,-0.00261328,0.00428364,-0.000959372,-0.825031,0.0032235,0.0143127,1686,1639,15.5194,-35.8618
469,-615,15.4807,35.2732,0.00119065,0.00131569,-0.0027493,0.00400317,-0.00149684,-0.796766,0.0032835,0.0117026,1693,1639,15.4807,-35.2732
476,-615,15.4724,34.6776,0.00092888,0.00090279,-0.00284475,0.00376062,-0.00192895,-0.783105,0.00334113,0.0115082,1700,1639,15.4724,-34.6777
483,-615,15.4938,33.9901,0.00061566,0.000398202,-0.00291403,0.00342299,-0.00240912,-0.766751,0.00338409,0.0264103,1707,1639,15.4938,-33.9901
490,-615,15.4623,33.3875,0.000132781,-0.000282095,-0.00301683,0.0029493,-0.00309861,-0.751072,0.00349212,0.0437555,1714,1639,15.4623,-33.3874
497,-615,15.495,32.6401,0,0,0,0,0,0,0,-1,1721,1639,15.495,-32.6401
504,-615,15.389,31.2102,0,0,0,0,0,0,0,-1,1728,1639,15.389,-31.2102
511,-615,15.2349,30.2052,0,0,0,0,0,0,0,-1,1735,1639,15.2348,-30.2052
518,-615,13.2416,9.81812,0,0,0,0,0,0,0,-1,1742,1639,13.2416,-9.81813
525,-615,4.37524,3.90491,0,0,0,0,0,0,0,-1,1749,1639,4.37518,-3.90495
532,-615,7.3645,0.848145,0,0,0,0,0,0,0,-1,1756,1639,7.36451,-0.848093
539,-615,12.8112,-0.0476074,0,0,0,0,0,0,0,-1,1763,1639,12.8111,0.0475553
546,-615,8.33813,2.94556,0,0,0,0,0,0,0,-1,1770,1639,8.33813,-2.9455
553,-615,5.82532,-2.04199,0,0,0,0,0,0,0,-1,1777,1639,5.82534,2.04195
560,-615,0,0,0,0,0,0,0,0,0,-1,1784,1639,0,0
567,-615,0,0,0,0,0,0,0,0,0,-1,1791,1639,0,0
574,-615,0,0,0,0,0,0,0,0,0,-1,1798,1639,0,0
581,-615,0,0,0,0,0,0,0,0,0,-1,1805,1639,0,0
588,-615,0,0,0,0,0,0,0,0,0,-1,1812,1639,0,0
595,-615,0,0,0,0,0,0,0,0,0,-1,1819,1639,0,0
602,-615,0,0,0,0,0,0,0,0,0,-1,1826,1639,0,0
609,-615,0,0,0,0,0,0,0,0,0,-1,1833,1639,0,0
616,-615,0,0,0,0,0,0,0,0,0,-1,1840,1639,0,0
623,-615,0,0,0,0,0,0,0,0,0,-1,1847,1639,0,0
630,-615,0,0,0,0,0,0,0,0,0,-1,1854,1639,0,0
637,-615,0,0,0,0,0,0,0,0,0,-1,1861,1639,0,0
644,-615,0,0,0,0,0,0,0,0,0,-1,1868,1639,0,0
651,-615,0,0,0,0,0,0,0,0,0,-1,1875,1639,0,0
658,-615,0,0,0,0,0,0,0,0,0,-1,1882,1639,0,0
665,-615,0,0,0,0,0,0,0,0,0,-1,1889,1639,0,0
672,-615,0,0,0,0,0,0,0,0,0,-1,1896,1639,0,0
679,-615,0,0,0,0,0,0,0,0,0,-1,1903,1639,0,0
686,-615,0,0,0,0,0,0,0,0,0,-1,1910,1639,0,0
693,-615,0,0,0,0,0,0,0,0,0,-1,1917,1639,0,0
700,-615,0,0,0,0,0,0,0,0,0,-1,1924,1639,0,0
707,-615,0,0,0,0,0,0,0,0,0,-1,1931,1639,0,0
714,-615,0,0,0,0,0,0,0,0,0,-1,1938,1639,0,0
721,-615,0,0,0,0,0,0,0,0,0,-1,1945,1639,0,0
728,-615,0,0,0,0,0,0,0,0,0,-1,1952,1639,0,0
735,-615,0,0,0,0,0,0,0,0,0,-1,1959,1639,0,0
742,-615,0,0,0,0,0,0,0,0,0,-1,1966,1639,0,0
749,-615,0,0,0,0,0,0,0,0,0,-1,1973,1639,0,0
756,-615,0,0,0,0,0,0,0,0,0,-1,1980,1639,0,0
763,-615,0,0,0,0,0,0,0,0,0,-1,1987,1639,0,0
770,-615,0,0,0,0,0,0,0,0,0,-1,1994,1639,0,0
777,-615,0,0,0,0,0,0,0,0,0,-1,2001,1639,0,0
784,-615,0,0,0,0,0,0,0,0,0,-1,2008,1639,0,0
791,-615,0,0,0,0,0,0,0,0,0,-1,2015,1639,0,0
798,-615,0,0,0,0,0,0,0,0,0,-1,2022,1639,0,0
805,-615,0,0,0,0,0,0,0,0,0,-1,2029,1639,0,0
812,-615,0,0,0,0,0,0,0,0,0,-1,2036,1639,0,0
-700,-622,0,0,0,0,0,0,0,0,0,-1,524,1646,0,0
-693,-622,0,0,0,0,0,0,0,0,0,-1,531,1646,0,0
-686,-622,0,0,0,0,0,0,0,0,0,-1,538,1646,0,0
-679,-622,0,0,0,0,0,0,0,0,0,-1,545,1646,0,0
-672,-622,0,0,0,0,0,0,0,0,0,-1,552,1646,0,0
-665,-622,0,0,0,0,0,0,0,0,0,-1,559,1646,0,0
-658,-622,0,0,0,0,0,0,0,0,0,-1,566,1646,0,0
-651,-622,0,0,0,0,0,0,0,0,0,-1,573,1646,0,0
-644,-622,0,0,0,0,0,0,0,0,0,-1,580,1646,0,0
-637,-622,0,0,0,0,0,0,0,0,0,-1,587,1646,0,0
-630,-622,0,0,0,0,0,0,0,0,0,-1,594,1646,0,0
-623,-622,0,0,0,0,0,0,0,0,0,-1,601,1646,0,0
-616,-622,0,0,0,0,0,0,0,0,0,-1,608,1646,0,0
-609,-622,0,0,0,0,0,0,0,0,0,-1,615,1646,0,0
-602,-622,0,0,0,0,0,0,0,0,0,-1,622,1646,0,0
-595,-622,0,0,0,0,0,0,0,0,0,-1,629,1646,0,0
-588,-622,0,0,0,0,0,0,0,0,0,-1,636,1646,0,0
-581,-622,0,0,0,0,0,0,0,0,0,-1,643,1646,0,0
-574,-622,0,0,0,0,0,0,0,0,0,-1,650,1646,0,0
-567,-622,0,0,0,0,0,0,0,0,0,-1,657,1646,0,0
-560,-622,0,0,0,0,0,0,0,0,0,-1,664,1646,0,0
-553,-622,0,0,0,0,0,0,0,0,0,-1,671,1646,0,0
-546,-622,0,0,0,0,0,0,0,0,0,-1,678,1646,0,0
-539,-622,0,0,0,0,0,0,0,0,0,-1,685,1646,0,0
-532,-622,0,0,0,0,0,0,0,0,0,-1,692,1646,0,0
-525,-622,0,0,0,0,0,0,0,0,0,-1,699,1646,0,0
-518,-622,0,0,0,0,0,0,0,0,0,-1,706,1646,0,0
-511,-622,0,0,0,0,0,0,0,0,0,-1,713,1646,0,0
-504,-622,0,0,0,0,0,0,0,0,0,-1,720,1646,0,0
-497,-622,0,0,0,0,0,0,0,0,0,-1,727,1646,0,0
-490,-622,0,0,0,0,0,0,0,0,0,-1,734,1646,0,0
-483,-622,0,0,0,0,0,0,0,0,0,-1,741,1646,0,0
-476,-622,0,0,0,0,0,0,0,0,0,-1,748,1646,0,0
-469,-622,0,0,0,0,0,0,0,0,0,-1,755,1646,0,0
-462,-622,0,0,0,0,0,0,0,0,0,-1,762,1646,0,0
-455,-622,0,0,0,0,0,0,0,0,0,-1,769,1646,0,0
-448,-622,0,0,0,0,0,0,0,0,0,-1,776,1646,0,0
-441,-622,0,0,0,0,0,0,0,0,0,-1,783,1646,0,0
-434,-622,0,0,0,0,0,0,0,0,0,-1,790,1646,0,0
-427,-622,-7.62891,3.48096,0,0,0,0,0,0,0,-1,797,1646,-7.62892,-3.48092
-420,-622,-9.35791,1.77185,0,0,0,0,0,0,0,-1,804,1646,-9.35789,-1.77183
-413,-622,-8.46075,1.96777,0,0,0,0,0,0,0,-1,811,1646,-8.46074,-1.96774
-406,-622,-4.44318,2.16858,0,0,0,0,0,0,0,-1,818,1646,-4.44315,-2.16859
-399,-622,-7.06976,1.51001,0,0,0,0,0,0,0,-1,825,1646,-7.06976,-1.51005
-392,-622,3.89551,5.85376,0,0,0,0,0,0,0,-1,832,1646,3.8955,-5.85379
-385,-622,2.00543,14.0448,0,0,0,0,0,0,0,-1,839,1646,2.00544,-14.0448
-378,-622,1.49036,15.3436,0,0,0,0,0,0,0,-1,846,1646,1.49033,-15.3436
-371,-622,3.02704,31.2758,0,0,0,0,0,0,0,-1,853,1646,3.02703,-31.2757
-364,-622,2.7218,32.4528,0,0,0,0,0,0,0,-1,860,1646,2.72179,-32.4528
-357,-622,3.02924,33.1705,0,0,0,0,0,0,0,-1,867,1646,3.02926,-33.1705
-350,-622,2.94922,33.8907,0.000736033,0.000114708,0.00303044,0.00347169,-0.00262095,0.73432,0.003529,0.0448135,874,1646,2.94921,-33.8908
-343,-622,2.81311,34.4777,0.00074527,0.000277993,0.00256783,0.00309007,-0.00206681,0.74003,0.0029968,0.0258856,881,1646,2.81308,-34.4777
-336,-622,2.79279,35.0952,0.000695621,0.000302245,0.00205175,0.00256009,-0.00156222,0.737612,0.00240315,0.0100161,888,1646,2.7928,-35.0953
-329,-622,2.74371,35.7286,0.0006728,0.000406323,0.00167949,0.00222433,-0.00114521,0.745815,0.00197838,0.00870058,895,1646,2.74371,-35.7287
-322,-622,2.72772,36.3516,0.000647977,0.000747814,0.0015071,0.00220582,-0.000810034,0.801953,0.0018023,0.00992955,902,1646,2.72773,-36.3516
-315,-622,2.71301,36.9679,0.000712809,0.00151152,0.0015624,0.00272479,-0.000500466,0.910521,0.00200429,0.0136449,909,1646,2.713,-36.9679
-308,-622,2.68884,37.5586,0.000969002,0.00246398,0.00172207,0.00359379,-0.000160814,0.990159,0.00245123,0.0148941,916,1646,2.68884,-37.5586
-301,-622,2.6839,38.126,0.00134722,0.00352505,0.00200887,0.00472115,0.000151122,1.03376,0.00309829,0.0147088,923,1646,2.68389,-38.1259
-294,-622,2.64215,38.7175,0.00186976,0.00482384,0.00241717,0.00617953,0.000514065,1.05965,0.00395947,0.0107481,930,1646,2.64213,-38.7175
-287,-622,2.61182,39.3005,0.00242293,0.00622266,0.00280317,0.00770913,0.000936461,1.08322,0.00485745,0.00833411,937,1646,2.6118,-39.3005
-280,-622,2.58209,39.8824,0.00312765,0.00756934,0.00325228,0.0092867,0.00141029,1.08496,0.00577869,0.0101367,944,1646,2.58212,-39.8825
-273,-622,2.5647,40.4435,0.00390784,0.00867064,0.00364934,0.0106468,0.00193164,1.07448,0.00654966,0.0159799,951,1646,2.56469,-40.4435
-266,-622,2.53339,41.0182,0.00465571,0.00975883,0.00397226,0.0119284,0.00248611,1.07089,0.00726675,0.0149341,958,1646,2.53337,-41.0182
-259,-622,2.54224,41.6031,0.005462,0.0107698,0.00421451,0.0130964,0.00313541,1.06639,0.00789612,0.0118038,965,1646,2.54221,-41.6032
-252,-622,2.521,42.1478,0.00630193,0.0115625,0.00428892,0.0139635,0.003901,1.06046,0.00831931,0.0124542,972,1646,2.52097,-42.1478
-245,-622,2.56061,42.7134,0.00708317,0.0123785,0.00437043,0.0148407,0.00462097,1.05774,0.0087692,0.0123573,979,1646,2.56061,-42.7134
-238,-622,2.56335,43.2688,0.00741618,0.0118868,0.00448393,0.0146617,0.00464128,1.01663,0.00865276,0.0160326,986,1646,2.56334,-43.2688
-231,-622,2.65125,43.8949,0.00733262,0.00799184,0.00424549,0.0119205,0.00340396,0.824139,0.00709016,0.0277894,993,1646,2.65124,-43.895
-224,-622,2.74402,44.3118,0.00793862,0.00495846,0.00456057,0.0112464,0.00165071,0.6275,0.0070124,0.0412313,1000,1646,2.74403,-44.3117
-217,-622,2.83813,44.7119,0,0,0,0,0,0,0,-1,1007,1646,2.83816,-44.712
-210,-622,3.87927,28.0903,0,0,0,0,0,0,0,-1,1014,1646,3.87925,-28.0903
-203,-622,4.21375,20.9574,0,0,0,0,0,0,0,-1,1021,1646,4.21375,-20.9574
-196,-622,4.18518,21.2491,0,0,0,0,0,0,0,-1,1028,1646,4.18521,-21.2491
-189,-622,3.94495,46.472,0,0,0,0,0,0,0,-1,1035,1646,3.94491,-46.472
-182,-622,3.34985,45.9619,0.00659424,-0.0180869,0.0133629,0.0124432,-0.0239358,0.412576,0.0213499,0.047911,1042,1646,3.34981,-45.9619
-175,-622,3.24341,46.4022,0,0,0,0,0,0,0,-1,1049,1646,3.24339,-46.4022
-168,-622,3.31116,46.9277,0,0,0,0,0,0,0,-1,1056,1646,3.31119,-46.9278
-161,-622,4.52686,48.9176,0,0,0,0,0,0,0,-1,1063,1646,4.52684,-48.9176
-154,-622,3.79138,48.7334,0,0,0,0,0,0,0,-1,1070,1646,3.79134,-48.7334
-147,-622,1.85205,49.8027,0,0,0,0,0,0,0,-1,1077,1646,1.85208,-49.8027
-140,-622,0.546997,48.6783,0,0,0,0,0,0,0,-1,1084,1646,0.547022,-48.6784
-133,-622,3.09644,17.677,0,0,0,0,0,0,0,-1,1091,1646,3.09638,-17.677
-126,-622,3.5061,19.5251,0,0,0,0,0,0,0,-1,1098,1646,3.50616,-19.5252
-119,-622,4.06384,13.1715,0,0,0,0,0,0,0,-1,1105,1646,4.06379,-13.1716
-112,-622,4.33276,14.6605,0,0,0,0,0,0,0,-1,1112,1646,4.33281,-14.6605
-105,-622,0.306519,4.38159,0,0,0,0,0,0,0,-1,1119,1646,0.306536,-4.38159
-98,-622,-0.510376,3.5033,0,0,0,0,0,0,0,-1,1126,1646,-0.510393,-3.50324
-91,-622,-1.146,0.975952,0,0,0,0,0,0,0,-1,1133,1646,-1.14599,-0.97597
-84,-622,-2.04895,1.31787,0,0,0,0,0,0,0,-1,1140,1646,-2.0489,-1.31781
-77,-622,-1.80627,0.332275,0,0,0,0,0,0,0,-1,1147,1646,-1.80622,-0.33223
-70,-622,-3.65588,2.28149,0,0,0,0,0,0,0,-1,1154,1646,-3.65589,-2.28155
-63,-622,-2.49683,1.27087,0,0,0,0,0,0,0,-1,1161,1646,-2.49679,-1.27093
-56,-622,-2.44238,-0.575562,0,0,0,0,0,0,0,-1,1168,1646,-2.44242,0.575508
-49,-622,-2.41089,1.38818,0,0,0,0,0,0,0,-1,1175,1646,-2.41088,-1.38815
-42,-622,-2.71497,2.85242,0,0,0,0,0,0,0,-1,1182,1646,-2.71491,-2.85247
-35,-622,-3.0177,4.25842,0,0,0,0,0,0,0,-1,1189,1646,-3.01773,-4.25838
-28,-622,-0.896606,0.678833,0,0,0,0,0,0,0,-1,1196,1646,-0.89661,-0.678835
-21,-622,16.4141,36.2849,0,0,0,0,0,0,0,-1,1203,1646,16.4141,-36.285
-14,-622,22.5557,61.7714,0,0,0,0,0,0,0,-1,1210,1646,22.5557,-61.7714
-7,-622,2.05774,47.2183,0,0,0,0,0,0,0,-1,1217,1646,2.05772,-47.2183
0,-622,0,0,0,0,0,0,0,0,0,-1,1224,1646,0,0
7,-622,0,0,0,0,0,0,0,0,0,-1,1231,1646,0,0
14,-622,0,0,0,0,0,0,0,0,0,-1,1238,1646,0,0
21,-622,0,0,0,0,0,0,0,0,0,-1,1245,1646,0,0
28,-622,0,0,0,0,0,0,0,0,0,-1,1252,1646,0,0
35,-622,0,0,0,0,0,0,0,0,0,-1,1259,1646,0,0
42,-622,0,0,0,0,0,0,0,0,0,-1,1266,1646,0,0
49,-622,0,0,0,0,0,0,0,0,0,-1,1273,1646,0,0
56,-622,0,0,0,0,0,0,0,0,0,-1,1280,1646,0,0
63,-622,0,0,0,0,0,0,0,0,0,-1,1287,1646,0,0
70,-622,0,0,0,0,0,0,0,0,0,-1,1294,1646,0,0
77,-622,0,0,0,0,0,0,0,0,0,-1,1301,1646,0,0
84,-622,0,0,0,0,0,0,0,0,0,-1,1308,1646,0,0
91,-622,0,0,0,0,0,0,0,0,0,-1,1315,1646,0,0
98,-622,0,0,0,0,0,0,0,0,0,-1,1322,1646,0,0
105,-622,0,0,0,0,0,0,0,0,0,-1,1329,1646,0,0
112,-622,0,0,0,0,0,0,0,0,0,-1,1336,1646,0,0
119,-622,0,0,0,0,0,0,0,0,0,-1,1343,1646,0,0
126,-622,-0.663452,56.8844,0,0,0,0,0,0,0,-1,1350,1646,-0.663508,-56.8844
133,-622,-1.39954,56.917,0,0,0,0,0,0,0,-1,1357,1646,-1.39954,-56.917
140,-622,7.56958,54.3489,0,0,0,0,0,0,0,-1,1364,1646,7.56963,-54.3489
147,-622,6.64978,53.7191,0,0,0,0,0,0,0,-1,1371,1646,6.64984,-53.7191
154,-622,5.82373,53.0214,0,0,0,0,0,0,0,-1,1378,1646,5.82377,-53.0214
161,-622,10.6884,6.46448,0,0,0,0,0,0,0,-1,1385,1646,10.6883,-6.46442
168,-622,12.2402,5.18091,0,0,0,0,0,0,0,-1,1392,1646,12.2403,-5.1809
175,-622,5.64355,-1.77075,0,0,0,0,0,0,0,-1,1399,1646,5.64351,1.77077
182,-622,5.88586,-1.32251,0,0,0,0,0,0,0,-1,1406,1646,5.88587,1.32256
189,-622,5.97986,-1.18005,0,0,0,0,0,0,0,-1,1413,1646,5.97986,1.18003
196,-622,5.85022,-0.244507,0,0,0,0,0,0,0,-1,1420,1646,5.85026,0.244478
203,-622,5.25159,0.138794,0,0,0,0,0,0,0,-1,1427,1646,5.25162,-0.138822
210,-622,6.66833,0.0397949,0,0,0,0,0,0,0,-1,1434,1646,6.6684,-0.0398278
217,-622,6.12061,0.0506592,0,0,0,0,0,0,0,-1,1441,1646,6.12058,-0.0507181
224,-622,5.57275,0.0616455,0,0,0,0,0,0,0,-1,1448,1646,5.57276,-0.0616084
231,-622,5.31348,1.3949,0,0,0,0,0,0,0,-1,1455,1646,5.31342,-1.39495
238,-622,3.76477,2.90686,0,0,0,0,0,0,0,-1,1462,1646,3.7648,-2.90686
245,-622,5.13794,2.67993,0,0,0,0,0,0,0,-1,1469,1646,5.13796,-2.67992
252,-622,6.66528,2.53992,0,0,0,0,0,0,0,-1,1476,1646,6.66522,-2.53991
259,-622,8.93787,3.31458,0,0,0,0,0,0,0,-1,1483,1646,8.93791,-3.31454
266,-622,5.72644,3.11926,0,0,0,0,0,0,0,-1,1490,1646,5.72647,-3.1192
273,-622,7.28076,3.61218,0,0,0,0,0,0,0,-1,1497,1646,7.28071,-3.61212
280,-622,8.43127,4.4447,0,0,0,0,0,0,0,-1,1504,1646,8.43123,-4.44467
287,-622,8.60315,5.94617,0,0,0,0,0,0,0,-1,1511,1646,8.60319,-5.94622
294,-622,7.62756,11.5143,0,0,0,0,0,0,0,-1,1518,1646,7.62762,-11.5143
301,-622,7.36548,11.6569,0,0,0,0,0,0,0,-1,1525,1646,7.36549,-11.6569
308,-622,7.10339,11.7994,0,0,0,0,0,0,0,-1,1532,1646,7.10335,-11.7995
315,-622,8.28687,16.5842,0,0,0,0,0,0,0,-1,1539,1646,8.28689,-16.5843
322,-622,7.43689,20.5786,0,0,0,0,0,0,0,-1,1546,1646,7.43685,-20.5786
329,-622,9.76477,26.4202,0,0,0,0,0,0,0,-1,1553,1646,9.7648,-26.4202
336,-622,10.4526,28.8552,0,0,0,0,0,0,0,-1,1560,1646,10.4526,-28.8552
343,-622,14.1588,45.819,0,0,0,0,0,0,0,-1,1567,1646,14.1588,-45.819
350,-622,15.2197,44.8788,0,0,0,0,0,0,0,-1,1574,1646,15.2197,-44.8788
357,-622,14.9446,44.5032,0.00928306,0.0283961,-0.0126177,0.0346679,0.0030113,-1.1095,0.0221764,0.0435222,1581,1646,14.9446,-44.5032
364,-622,15.0055,43.8643,0.00803211,0.0250184,-0.0114447,0.0307771,0.00227345,-1.10461,0.0198038,0.0337779,1588,1646,15.0055,-43.8642
371,-622,15.0477,43.1857,0.00708704,0.0212652,-0.00992922,0.0263763,0.00197595,-1.09542,0.016964,0.0207018,1595,1646,15.0477,-43.1857
378,-622,15.0968,42.6038,0.00615168,0.0177728,-0.00834347,0.0221296,0.00179483,-1.08956,0.0141927,0.0118611,1602,1646,15.0968,-42.6038
385,-622,15.1094,42.0385,0.00516515,0.0143454,-0.00688659,0.0180314,0.00147915,-1.07935,0.0115595,0.00960249,1609,1646,15.1093,-42.0384
392,-622,15.0973,41.5194,0.00427013,0.0114108,-0.00560175,0.0144833,0.00119767,-1.06912,0.00928209,0.0117293,1616,1646,15.0973,-41.5194
399,-622,15.0684,40.9762,0.00364392,0.0090967,-0.00456798,0.0116901,0.00105057,-1.05445,0.00746785,0.0122069,1623,1646,15.0684,-40.9761
406,-622,15.0668,40.417,0.00316587,0.00719325,-0.00380321,0.00948297,0.000876146,-1.02887,0.00605111,0.0147784,1630,1646,15.0668,-40.417
413,-622,15.0663,39.8776,0.00272011,0.00560968,-0.00317097,0.00764949,0.000680294,-0.999161,0.0048887,0.0164883,1637,1646,15.0662,-39.8776
420,-622,15.0656,39.3223,0.0023164,0.00404259,-0.00253415,0.00585659,0.000502405,-0.94953,0.00374816,0.0159929,1644,1646,15.0656,-39.3222
427,-622,15.05,38.7673,0.00207904,0.00333026,-0.00229019,0.00507876,0.00033055,-0.91873,0.00328121,0.0127388,1651,1646,15.05,-38.7674
434,-622,15.0286,38.1981,0.0019267,0.00301476,-0.00232505,0.00485858,8.28758e-05,-0.900324,0.00321179,0.0136389,1658,1646,15.0285,-38.1982
441,-622,15.004,37.6228,0.00184591,0.0027177,-0.00243996,0.0047604,-0.000196786,-0.87379,0.00324119,0.0155035,1665,1646,15.004,-37.6228
448,-622,14.9791,37.0553,0.00178213,0.00252992,-0.00260112,0.00478388,-0.000471827,-0.856781,0.0033576,0.0143277,1672,1646,14.9791,-37.0554
455,-622,14.9501,36.4646,0.00169776,0.00242195,-0.00283456,0.00491745,-0.000797734,-0.848926,0.00357401,0.015695,1679,1646,14.9501,-36.4645
462,-622,14.9397,35.8881,0.00157183,0.00220458,-0.0031139,0.00501814,-0.00124172,-0.836025,0.00382708,0.016575,1686,1646,14.9397,-35.8881
469,-622,14.8904,35.2893,0.00141707,0.00194856,-0.0035165,0.00520934,-0.00184371,-0.823112,0.00422379,0.0185886,1693,1646,14.8904,-35.2893
476,-622,14.9927,34.6926,0.00133491,0.00183202,-0.00386379,0.00545524,-0.00228831,-0.817519,0.00459368,0.0343011,1700,1646,14.9927,-34.6926
483,-622,14.9907,33.9264,0,0,0,0,0,0,0,-1,1707,1646,14.9907,-33.9264
490,-622,14.9645,33.4269,0,0,0,0,0,0,0,-1,1714,1646,14.9645,-33.4269
497,-622,14.9666,32.1024,0,0,0,0,0,0,0,-1,1721,1646,14.9665,-32.1024
504,-622,10.8306,19.8021,0,0,0,0,0,0,0,-1,1728,1646,10.8306,-19.8022
511,-622,5.29004,4.14587,0,0,0,0,0,0,0,-1,1735,1646,5.29008,-4.14589
518,-622,5.6001,1.55359,0,0,0,0,0,0,0,-1,1742,1646,5.60015,-1.5536
525,-622,5.83093,2.01807,0,0,0,0,0,0,0,-1,1749,1646,5.83097,-2.01802
532,-622,5.44202,0.57373,0,0,0,0,0,0,0,-1,1756,1646,5.44196,-0.573705
539,-622,9.32129,1.06116,0,0,0,0,0,0,0,-1,1763,1646,9.32131,-1.0612
546,-622,6.50977,-3.45618,0,0,0,0,0,0,0,-1,1770,1646,6.50981,3.4562
553,-622,0,0,0,0,0,0,0,0,0,-1,1777,1646,0,0
560,-622,0,0,0,0,0,0,0,0,0,-1,1784,1646,0,0
567,-622,0,0,0,0,0,0,0,0,0,-1,1791,1646,0,0
574,-622,0,0,0,0,0,0,0,0,0,-1,1798,1646,0,0
581,-622,0,0,0,0,0,0,0,0,0,-1,1805,1646,0,0
588,-622,0,0,0,0,0,0,0,0,0,-1,1812,1646,0,0
595,-622,0,0,0,0,0,0,0,0,0,-1,1819,1646,0,0
602,-622,0,0,0,0,0,0,0,0,0,-1,1826,1646,0,0
609,-622,0,0,0,0,0,0,0,0,0,-1,1833,1646,0,0
616,-622,0,0,0,0,0,0,0,0,0,-1,1840,1646,0,0
623,-622,0,0,0,0,0,0,0,0,0,-1,1847,1646,0,0
630,-622,0,0,0,0,0,0,0,0,0,-1,1854,1646,0,0
637,-622,0,0,0,0,0,0,0,0,0,-1,1861,1646,0,0
644,-622,0,0,0,0,0,0,0,0,0,-1,1868,1646,0,0
651,-622,0,0,0,0,0,0,0,0,0,-1,1875,1646,0,0
658,-622,0,0,0,0,0,0,0,0,0,-1,1882,1646,0,0
665,-622,0,0,0,0,0,0,0,0,0,-1,1889,1646,0,0
672,-622,0,0,0,0,0,0,0,0,0,-1,1896,1646,0,0
679,-622,0,0,0,0,0,0,0,0,0,-1,1903,1646,0,0
686,-622,0,0,0,0,0,0,0,0,0,-1,1910,1646,0,0
693,-622,0,0,0,0,0,0,0,0,0,-1,1917,1646,0,0
700,-622,0,0,0,0,0,0,0,0,0,-1,1924,1646,0,0
707,-622,0,0,0,0,0,0,0,0,0,-1,1931,1646,0,0
714,-622,0,0,0,0,0,0,0,0,0,-1,1938,1646,0,0
721,-622,0,0,0,0,0,0,0,0,0,-1,1945,1646,0,0
728,-622,0,0,0,0,0,0,0,0,0,-1,1952,1646,0,0
735,-622,0,0,0,0,0,0,0,0,0,-1,1959,1646,0,0
742,-622,0,0,0,0,0,0,0,0,0,-1,1966,1646,0,0
749,-622,0,0,0,0,0,0,0,0,0,-1,1973,1646,0,0
756,-622,0,0,0,0,0,0,0,0,0,-1,1980,1646,0,0
763,-622,0,0,0,0,0,0,0,0,0,-1,1987,1646,0,0
770,-622,0,0,0,0,0,0,0,0,0,-1,1994,1646,0,0
777,-622,0,0,0,0,0,0,0,0,0,-1,2001,1646,0,0
784,-622,0,0,0,0,0,0,0,0,0,-1,2008,1646,0,0
791,-622,0,0,0,0,0,0,0,0,0,-1,2015,1646,0,0
798,-622,0,0,0,0,0,0,0,0,0,-1,2022,1646,0,0
805,-622,0,0,0,0,0,0,0,0,0,-1,2029,1646,0,0
812,-622,0,0,0,0,0,0,0,0,0,-1,2036,1646,0,0
-700,-629,0,0,0,0,0,0,0,0,0,-1,524,1653,0,0
-693,-629,0,0,0,0,0,0,0,0,0,-1,531,1653,0,0
-686,-629,0,0,0,0,0,0,0,0,0,-1,538,1653,0,0
-679,-629,0,0,0,0,0,0,0,0,0,-1,545,1653,0,0
-672,-629,0,0,0,0,0,0,0,0,0,-1,552,1653,0,0
-665,-629,0,0,0,0,0,0,0,0,0,-1,559,1653,0,0
-658,-629,0,0,0,0,0,0,0,0,0,-1,566,1653,0,0
-651,-629,0,0,0,0,0,0,0,0,0,-1,573,1653,0,0
-644,-629,0,0,0,0,0,0,0,0,0,-1,580,1653,0,0
-637,-629,0,0,0,0,0,0,0,0,0,-1,587,1653,0,0
-630,-629,0,0,0,0,0,0,0,0,0,-1,594,1653,0,0
-623,-629,0,0,0,0,0,0,0,0,0,-1,601,1653,0,0
-616,-629,0,0,0,0,0,0,0,0,0,-1,608,1653,0,0
-609,-629,0,0,0,0,0,0,0,0,0,-1,615,1653,0,0
-602,-629,0,0,0,0,0,0,0,0,0,-1,622,1653,0,0
-595,-629,0,0,0,0,0,0,0,0,0,-1,629,1653,0,0
-588,-629,0,0,0,0,0,0,0,0,0,-1,636,1653,0,0
-581,-629,0,0,0,0,0,0,0,0,0,-1,643,1653,0,0
-574,-629,0,0,0,0,0,0,0,0,0,-1,650,1653,0,0
-567,-629,0,0,0,0,0,0,0,0,0,-1,657,1653,0,0
-560,-629,0,0,0,0,0,0,0,0,0,-1,664,1653,0,0
-553,-629,0,0,0,0,0,0,0,0,0,-1,671,1653,0,0
-546,-629,0,0,0,0,0,0,0,0,0,-1,678,1653,0,0
-539,-629,0,0,0,0,0,0,0,0,0,-1,685,1653,0,0
-532,-629,0,0,0,0,0,0,0,0,0,-1,692,1653,0,0
-525,-629,0,0,0,0,0,0,0,0,0,-1,699,1653,0,0
-518,-629,0,0,0,0,0,0,0,0,0,-1,706,1653,0,0
-511,-629,0,0,0,0,0,0,0,0,0,-1,713,1653,0,0
-504,-629,0,0,0,0,0,0,0,0,0,-1,720,1653,0,0
-497,-629,0,0,0,0,0,0,0,0,0,-1,727,1653,0,0
-490,-629,0,0,0,0,0,0,0,0,0,-1,734,1653,0,0
-483,-629,0,0,0,0,0,0,0,0,0,-1,741,1653,0,0
-476,-629,0,0,0,0,0,0,0,0,0,-1,748,1653,0,0
-469,-629,0,0,0,0,0,0,0,0,0,-1,755,1653,0,0
-462,-629,0,0,0,0,0,0,0,0,0,-1,762,1653,0,0
-455,-629,0,0,0,0,0,0,0,0,0,-1,769,1653,0,0
-448,-629,0,0,0,0,0,0,0,0,0,-1,776,1653,0,0
-441,-629,0,0,0,0,0,0,0,0,0,-1,783,1653,0,0
-434,-629,0,0,0,0,0,0,0,0,0,-1,790,1653,0,0
-427,-629,0,0,0,0,0,0,0,0,0,-1,797,1653,0,0
-420,-629,-3.87103,3.37634,0,0,0,0,0,0,0,-1,804,1653,-3.87101,-3.37633
-413,-629,-5.69751,1.33582,0,0,0,0,0,0,0,-1,811,1653,-5.69754,-1.3358
-406,-629,2.85406,6.01501,0,0,0,0,0,0,0,-1,818,1653,2.85405,-6.01507
-399,-629,-0.455627,10.8687,0,0,0,0,0,0,0,-1,825,1653,-0.455625,-10.8687
-392,-629,1.15369,11.1295,0,0,0,0,0,0,0,-1,832,1653,1.1537,-11.1295
-385,-629,1.81976,11.6935,0,0,0,0,0,0,0,-1,839,1653,1.81975,-11.6935
-378,-629,2.19452,14.7941,0,0,0,0,0,0,0,-1,846,1653,2.19451,-14.7941
-371,-629,3.60114,14.7299,0,0,0,0,0,0,0,-1,853,1653,3.60113,-14.7299
-364,-629,3.26898,21.0801,0,0,0,0,0,0,0,-1,860,1653,3.26895,-21.08
-357,-629,4.38782,16.3444,0,0,0,0,0,0,0,-1,867,1653,4.38783,-16.3443
-350,-629,3.61823,33.879,0,0,0,0,0,0,0,-1,874,1653,3.61822,-33.8791
-343,-629,3.2655,34.5258,0.00119987,0.000788879,0.00307479,0.00407602,-0.00208727,0.752032,0.0036196,0.0381937,881,1653,3.26549,-34.5257
-336,-629,3.37219,35.1324,0.000899609,0.000500604,0.00238696,0.00309539,-0.00169518,0.743705,0.00280494,0.0182005,888,1653,3.37219,-35.1325
-329,-629,3.36487,35.7596,0.000629666,0.000207287,0.00182887,0.0022595,-0.00142255,0.727915,0.00214406,0.0111505,895,1653,3.36489,-35.7596
-322,-629,3.32745,36.3828,0.000369376,0.000105938,0.00148534,0.00172883,-0.00125351,0.741174,0.00172913,0.010975,902,1653,3.32744,-36.3828
-315,-629,3.28973,36.9885,0.000211777,0.000512955,0.00139383,0.0017643,-0.00103957,0.839209,0.00163675,0.0139741,909,1653,3.28974,-36.9886
-308,-629,3.25806,37.593,0.000297501,0.00112366,0.00143871,0.00220742,-0.000786257,0.925197,0.00179214,0.0128108,916,1653,3.25804,-37.593
-301,-629,3.25928,38.1996,0.000523862,0.00182039,0.00159515,0.00289397,-0.000549715,0.978403,0.00213626,0.0121171,923,1653,3.25931,-38.1996
-294,-629,3.25006,38.7549,0.000922378,0.00271707,0.00186601,0.00389028,-0.000250835,1.00952,0.00268104,0.0125349,930,1653,3.25007,-38.7549
-287,-629,3.20129,39.3286,0.0013285,0.00372022,0.00208626,0.00492906,0.000119664,1.04564,0.00324688,0.0101718,937,1653,3.2013,-39.3287
-280,-629,3.16431,39.9139,0.00189071,0.00471862,0.0023777,0.00607102,0.000538304,1.05365,0.00388038,0.0109336,944,1653,3.16434,-39.9139
-273,-629,3.14996,40.4761,0.00253958,0.00552282,0.00262586,0.00705115,0.00101125,1.0437,0.00440257,0.0147822,951,1653,3.14998,-40.4761
-266,-629,3.13568,41.0563,0.00318542,0.00635908,0.00284805,0.00803253,0.00151197,1.03956,0.00492895,0.0148808,958,1653,3.13568,-41.0563
-259,-629,3.12787,41.6398,0.00387199,0.00714395,0.00296809,0.00889707,0.00211887,1.03728,0.00536639,0.0151289,965,1653,3.12789,-41.6398
-252,-629,3.10028,42.1805,0.00457602,0.00787786,0.00295059,0.00960799,0.00284589,1.04046,0.00569871,0.0114443,972,1653,3.1003,-42.1805
-245,-629,3.09497,42.7426,0.00525949,0.00849497,0.00292625,0.0102209,0.00353357,1.03791,0.00599393,0.00842114,979,1653,3.095,-42.7425
-238,-629,3.10046,43.2797,0.00560922,0.00818122,0.00295611,0.0101189,0.0036715,0.990566,0.005915,0.0115423,986,1653,3.10048,-43.2797
-231,-629,3.07404,43.8152,0.00575595,0.0053644,0.00279794,0.00836497,0.00275539,0.75047,0.00492233,0.0164722,993,1653,3.07402,-43.8151
-224,-629,3.17975,44.4702,0.00645769,0.0034377,0.00313104,0.00842383,0.00147156,0.560718,0.00519531,0.0203897,1000,1653,3.17977,-44.4702
-217,-629,3.11633,44.8975,0.00672105,0.000590436,0.00338189,0.0082201,-0.00090861,0.417232,0.00580668,0.0324516,1007,1653,3.11633,-44.8974
-210,-629,3.24219,45.5576,0,0,0,0,0,0,0,-1,1014,1653,3.24221,-45.5576
-203,-629,3.18164,46.6595,0,0,0,0,0,0,0,-1,1021,1653,3.18166,-46.6595
-196,-629,3.62158,46.5847,0,0,0,0,0,0,0,-1,1028,1653,3.62155,-46.5848
-189,-629,3.8938,46.5457,0.007235,-0.00736926,0.00884388,0.0114018,-0.011536,0.440299,0.0132432,0.0467076,1035,1653,3.89381,-46.5456
-182,-629,3.63757,46.5341,0.00751245,-0.00810981,0.0111499,0.013315,-0.0139124,0.479848,0.015721,0.0440299,1042,1653,3.63756,-46.5341
-175,-629,4.12671,48.4196,0,0,0,0,0,0,0,-1,1049,1653,4.12675,-48.4196
-168,-629,5.7439,48.3495,0,0,0,0,0,0,0,-1,1056,1653,5.74394,-48.3495
-161,-629,4.6731,48.7089,0,0,0,0,0,0,0,-1,1063,1653,4.6731,-48.7089
-154,-629,5.19556,49.5348,0,0,0,0,0,0,0,-1,1070,1653,5.19553,-49.5347
-147,-629,3.60181,47.5922,0,0,0,0,0,0,0,-1,1077,1653,3.60177,-47.5922
-140,-629,2.10181,41.6577,0,0,0,0,0,0,0,-1,1084,1653,2.10175,-41.6577
-133,-629,3.41248,17.6686,0,0,0,0,0,0,0,-1,1091,1653,3.41243,-17.6686
-126,-629,4.01025,19.5328,0,0,0,0,0,0,0,-1,1098,1653,4.01022,-19.5328
-119,-629,4.94177,13.5525,0,0,0,0,0,0,0,-1,1105,1653,4.94172,-13.5525
-112,-629,5.63123,15.9187,0,0,0,0,0,0,0,-1,1112,1653,5.63118,-15.9187
-105,-629,2.15881,4.38342,0,0,0,0,0,0,0,-1,1119,1653,2.15878,-4.38347
-98,-629,0.825806,4.19385,0,0,0,0,0,0,0,-1,1126,1653,0.825779,-4.1939
-91,-629,-0.452271,3.64465,0,0,0,0,0,0,0,-1,1133,1653,-0.452278,-3.6446
-84,-629,-2.6084,0.466797,0,0,0,0,0,0,0,-1,1140,1653,-2.6084,-0.466786
-77,-629,-3.50903,2.10706,0,0,0,0,0,0,0,-1,1147,1653,-3.509,-2.10707
-70,-629,-1.20886,2.52502,0,0,0,0,0,0,0,-1,1154,1653,-1.20886,-2.525
-63,-629,-0.960693,4.30212,0,0,0,0,0,0,0,-1,1161,1653,-0.960691,-4.30215
-56,-629,-1.31934,5.64343,0,0,0,0,0,0,0,-1,1168,1653,-1.31928,-5.6434
-49,-629,-2.15662,2.57458,0,0,0,0,0,0,0,-1,1175,1653,-2.15656,-2.57459
-42,-629,-2.46326,3.91467,0,0,0,0,0,0,0,-1,1182,1653,-2.4633,-3.91466
-35,-629,-2.67261,5.24292,0,0,0,0,0,0,0,-1,1189,1653,-2.67257,-5.24298
-28,-629,-0.402954,-0.866577,0,0,0,0,0,0,0,-1,1196,1653,-0.402943,0.866612
-21,-629,3.45508,27.0596,0,0,0,0,0,0,0,-1,1203,1653,3.45508,-27.0596
-14,-629,2.62427,49.126,0,0,0,0,0,0,0,-1,1210,1653,2.62426,-49.126
-7,-629,2.55078,49.0612,0,0,0,0,0,0,0,-1,1217,1653,2.55078,-49.0611
0,-629,2.59473,48.8999,0,0,0,0,0,0,0,-1,1224,1653,2.59472,-48.8999
7,-629,2.4303,48.8623,0,0,0,0,0,0,0,-1,1231,1653,2.43028,-48.8624
14,-629,12.3838,50.3403,0,0,0,0,0,0,0,-1,1238,1653,12.3838,-50.3403
21,-629,11.7729,50.9128,0.0940972,0.0479396,0.030958,0.109632,0.0324046,0.465095,0.0650357,0.0475059,1245,1653,11.7729,-50.9128
28,-629,11.1185,51.1965,0.0390062,0.0313664,0.0362589,0.0716459,-0.00127321,0.732916,0.0481939,0.0488812,1252,1653,11.1185,-51.1966
35,-629,10.1207,51.0051,-0.00233156,0.0161616,0.0374839,0.0455226,-0.0316926,0.906325,0.0448179,0.048869,1259,1653,10.1207,-51.0052
42,-629,9.11975,51.0498,-0.0301636,0.00229848,0.0362556,0.0257904,-0.0536555,0.995861,0.0467991,0.0467663,1266,1653,9.11981,-51.0499
49,-629,8.40991,51.5078,0,0,0,0,0,0,0,-1,1273,1653,8.40991,-51.5078
56,-629,7.56519,51.7938,0,0,0,0,0,0,0,-1,1280,1653,7.56516,-51.7938
63,-629,6.70532,52.0782,-0.0831278,-0.0203538,0.0262572,-0.0108191,-0.0926624,1.22248,0.058503,0.0468099,1287,1653,6.70529,-52.0783
70,-629,6.14221,52.3656,-0.0880813,-0.0178782,0.0178822,-0.0135857,-0.0923738,1.33521,0.0575906,0.0453556,1294,1653,6.14217,-52.3655
77,-629,4.93591,52.5643,-0.086944,-0.0140179,0.0086447,-0.0130071,-0.0879548,1.4544,0.0548176,0.0457065,1301,1653,4.93593,-52.5643
84,-629,4.16699,53.1158,-0.0823248,-0.00678661,-0.000949906,-0.00677467,-0.0823368,-1.55822,0.0527781,0.0435209,1308,1653,4.16694,-53.1158
91,-629,4.20911,52.8507,-0.0788064,0.0076735,-0.0110674,0.00906741,-0.0802003,-1.44551,0.0567314,0.0428249,1315,1653,4.20914,-52.8507
98,-629,4.20679,52.6195,0,0,0,0,0,0,0,-1,1322,1653,4.20674,-52.6195
105,-629,2.14417,56.1163,-0.079898,0.0452824,-0.0308291,0.052463,-0.0870786,-1.34196,0.0813865,0.0460807,1329,1653,2.14417,-56.1163
112,-629,1.71143,56.0116,0,0,0,0,0,0,0,-1,1336,1653,1.71141,-56.0117
119,-629,0.966309,55.8964,-0.0866445,0.0858395,-0.0519714,0.100289,-0.101094,-1.29962,0.116268,0.041027,1343,1653,0.966351,-55.8963
126,-629,0.398926,56.0012,-0.0909795,0.108709,-0.0620532,0.126421,-0.108692,-1.29276,0.135871,0.0401556,1350,1653,0.398884,-56.0012
133,-629,-0.0153809,55.4941,0,0,0,0,0,0,0,-1,1357,1653,-0.0153779,-55.4941
140,-629,7.91675,54.2935,0,0,0,0,0,0,0,-1,1364,1653,7.91671,-54.2934
147,-629,7.15234,53.7018,0,0,0,0,0,0,0,-1,1371,1653,7.15231,-53.7018
154,-629,6.41516,53.151,0,0,0,0,0,0,0,-1,1378,1653,6.41517,-53.151
161,-629,10.5461,6.83752,0,0,0,0,0,0,0,-1,1385,1653,10.5461,-6.83758
168,-629,12.0059,5.56348,0,0,0,0,0,0,0,-1,1392,1653,12.0059,-5.56352
175,-629,5.84485,-1.78845,0,0,0,0,0,0,0,-1,1399,1653,5.84479,1.7884
182,-629,5.99036,-1.27783,0,0,0,0,0,0,0,-1,1406,1653,5.99041,1.27778
189,-629,5.97668,-0.748535,0,0,0,0,0,0,0,-1,1413,1653,5.97671,0.748544
196,-629,4.52869,9.24695,0,0,0,0,0,0,0,-1,1420,1653,4.52869,-9.2469
203,-629,3.75085,6.88037,0,0,0,0,0,0,0,-1,1427,1653,3.75087,-6.88032
210,-629,3.5907,6.52637,0,0,0,0,0,0,0,-1,1434,1653,3.59067,-6.52642
217,-629,2.4585,4.84448,0,0,0,0,0,0,0,-1,1441,1653,2.45855,-4.84448
224,-629,1.31982,3.68481,0,0,0,0,0,0,0,-1,1448,1653,1.31986,-3.68487
231,-629,3.63025,1.73499,0,0,0,0,0,0,0,-1,1455,1653,3.6303,-1.735
238,-629,4.26428,2.11255,0,0,0,0,0,0,0,-1,1462,1653,4.26429,-2.11253
245,-629,5.61816,1.95361,0,0,0,0,0,0,0,-1,1469,1653,5.61815,-1.95359
252,-629,7.27136,2.18982,0,0,0,0,0,0,0,-1,1476,1653,7.27131,-2.18985
259,-629,8.67334,2.18628,0,0,0,0,0,0,0,-1,1483,1653,8.6733,-2.18633
266,-629,6.86475,3.72058,0,0,0,0,0,0,0,-1,1490,1653,6.86479,-3.72063
273,-629,7.9021,3.8717,0,0,0,0,0,0,0,-1,1497,1653,7.90205,-3.87171
280,-629,9.70837,4.39087,0,0,0,0,0,0,0,-1,1504,1653,9.7084,-4.39082
287,-629,9.82947,7.19348,0,0,0,0,0,0,0,-1,1511,1653,9.8295,-7.19347
294,-629,6.56555,11.6359,0,0,0,0,0,0,0,-1,1518,1653,6.5656,-11.6358
301,-629,13.903,44.4862,0,0,0,0,0,0,0,-1,1525,1653,13.903,-44.4862
308,-629,6.08264,12.1423,0,0,0,0,0,0,0,-1,1532,1653,6.08263,-12.1423
315,-629,6.82043,18.2764,0,0,0,0,0,0,0,-1,1539,1653,6.82049,-18.2764
322,-629,14.1931,43.8071,0,0,0,0,0,0,0,-1,1546,1653,14.1931,-43.8071
329,-629,14.4332,46.4408,0,0,0,0,0,0,0,-1,1553,1653,14.4333,-46.4408
336,-629,14.4412,45.8777,0,0,0,0,0,0,0,-1,1560,1653,14.4411,-45.8776
343,-629,14.6405,45.3859,0,0,0,0,0,0,0,-1,1567,1653,14.6405,-45.3858
350,-629,14.6177,44.766,0.00855554,0.0229579,-0.00965227,0.0277993,0.00371416,-1.10589,0.0174272,0.0274657,1574,1653,14.6177,-44.7659
357,-629,14.6016,44.1781,0.00724805,0.020881,-0.00889436,0.0252705,0.00285856,-1.11235,0.0159796,0.0169447,1581,1653,14.6016,-44.1782
364,-629,14.575,43.6482,0.00628741,0.0185364,-0.00819046,0.022639,0.00218484,-1.10643,0.0144197,0.0151311,1588,1653,14.5749,-43.6483
371,-629,14.5565,43.1313,0.00556091,0.0158525,-0.00722336,0.0195755,0.00183789,-1.09489,0.0124829,0.012442,1595,1653,14.5566,-43.1314
378,-629,14.559,42.5913,0.00489127,0.0133454,-0.00622877,0.016646,0.00159067,-1.08352,0.0106069,0.0108942,1602,1653,14.5589,-42.5913
385,-629,14.5696,42.0664,0.00419443,0.0108686,-0.0053024,0.0137966,0.0012664,-1.06626,0.008806,0.0132847,1609,1653,14.5696,-42.0665
392,-629,14.5493,41.5399,0.00360178,0.00877313,-0.00449386,0.0113721,0.00100282,-1.04646,0.00727021,0.0124505,1616,1653,14.5493,-41.5399
399,-629,14.5367,40.9896,0.00317472,0.0070237,-0.00383664,0.00939146,0.000806958,-1.01786,0.00601007,0.0116807,1623,1653,14.5367,-40.9897
406,-629,14.5403,40.4393,0.00284398,0.00562569,-0.00336833,0.00787902,0.000590643,-0.981196,0.00506729,0.0139731,1630,1653,14.5403,-40.4393
413,-629,14.5046,39.874,0.00253654,0.00448413,-0.00298533,0.00665047,0.000370191,-0.943054,0.00431555,0.0232082,1637,1653,14.5046,-39.874
420,-629,14.4553,39.3409,0.00228383,0.00340105,-0.00261477,0.00551621,0.00016867,-0.890635,0.00362256,0.0219648,1644,1653,14.4553,-39.3409
427,-629,14.4865,38.8254,0.00217979,0.00300665,-0.00256462,0.00519095,-4.50574e-06,-0.865313,0.00346213,0.0157733,1651,1653,14.4865,-38.8255
434,-629,14.4711,38.2621,0.00212738,0.00294456,-0.00272947,0.00529586,-0.000223909,-0.859694,0.00360752,0.0143436,1658,1653,14.4711,-38.262
441,-629,14.4401,37.6595,0.00210968,0.00295599,-0.00296761,0.00553046,-0.00046479,-0.856217,0.00385126,0.016553,1665,1653,14.4401,-37.6595
448,-629,14.4335,37.0713,0.00211718,0.00310009,-0.00328535,0.00593054,-0.000713276,-0.859642,0.00421163,0.0151019,1672,1653,14.4335,-37.0713
455,-629,14.3955,36.478,0.00214098,0.00334681,-0.0037032,0.00649585,-0.00100806,-0.866095,0.00470274,0.0140246,1679,1653,14.3955,-36.478
462,-629,14.3806,35.9401,0.00211996,0.00357536,-0.00419239,0.00710273,-0.00140741,-0.87133,0.00526735,0.0180979,1686,1653,14.3806,-35.9401
469,-629,14.3429,35.3248,0.00205397,0.00375832,-0.00487464,0.00785471,-0.00204243,-0.871933,0.00603364,0.026188,1693,1653,14.3429,-35.3248
476,-629,14.3999,34.6948,0,0,0,0,0,0,0,-1,1700,1653,14.3999,-34.6949
483,-629,14.0381,30.967,0,0,0,0,0,0,0,-1,1707,1653,14.0381,-30.9671
490,-629,13.9072,28.8588,0,0,0,0,0,0,0,-1,1714,1653,13.9072,-28.8587
497,-629,10.3662,19.8605,0,0,0,0,0,0,0,-1,1721,1653,10.3662,-19.8605
504,-629,7.89453,15.5316,0,0,0,0,0,0,0,-1,1728,1653,7.89447,-15.5316
511,-629,6.29138,3.40295,0,0,0,0,0,0,0,-1,1735,1653,6.29137,-3.403
518,-629,5.84387,1.41858,0,0,0,0,0,0,0,-1,1742,1653,5.84391,-1.4186
525,-629,6.4729,1.02319,0,0,0,0,0,0,0,-1,1749,1653,6.47284,-1.02316
532,-629,6.86511,0.903687,0,0,0,0,0,0,0,-1,1756,1653,6.86514,-0.903691
539,-629,6.60803,0.746704,0,0,0,0,0,0,0,-1,1763,1653,6.60809,-0.746691
546,-629,0,0,0,0,0,0,0,0,0,-1,1770,1653,0,0
553,-629,0,0,0,0,0,0,0,0,0,-1,1777,1653,0,0
560,-629,0,0,0,0,0,0,0,0,0,-1,1784,1653,0,0
567,-629,0,0,0,0,0,0,0,0,0,-1,1791,1653,0,0
574,-629,0,0,0,0,0,0,0,0,0,-1,1798,1653,0,0
581,-629,0,0,0,0,0,0,0,0,0,-1,1805,1653,0,0
588,-629,0,0,0,0,0,0,0,0,0,-1,1812,1653,0,0
595,-629,0,0,0,0,0,0,0,0,0,-1,1819,1653,0,0
602,-629,0,0,0,0,0,0,0,0,0,-1,1826,1653,0,0
609,-629,0,0,0,0,0,0,0,0,0,-1,1833,1653,0,0
616,-629,0,0,0,0,0,0,0,0,0,-1,1840,1653,0,0
623,-629,0,0,0,0,0,0,0,0,0,-1,1847,1653,0,0
630,-629,0,0,0,0,0,0,0,0,0,-1,1854,1653,0,0
637,-629,0,0,0,0,0,0,0,0,0,-1,1861,1653,0,0
644,-629,0,0,0,0,0,0,0,0,0,-1,1868,1653,0,0
651,-629,0,0,0,0,0,0,0,0,0,-1,1875,1653,0,0
658,-629,0,0,0,0,0,0,0,0,0,-1,1882,1653,0,0
665,-629,0,0,0,0,0,0,0,0,0,-1,1889,1653,0,0
672,-629,0,0,0,0,0,0,0,0,0,-1,1896,1653,0,0
679,-629,0,0,0,0,0,0,0,0,0,-1,1903,1653,0,0
686,-629,0,0,0,0,0,0,0,0,0,-1,1910,1653,0,0
693,-629,0,0,0,0,0,0,0,0,0,-1,1917,1653,0,0
700,-629,0,0,0,0,0,0,0,0,0,-1,1924,1653,0,0
707,-629,0,0,0,0,0,0,0,0,0,-1,1931,1653,0,0
714,-629,0,0,0,0,0,0,0,0,0,-1,1938,1653,0,0
721,-629,0,0,0,0,0,0,0,0,0,-1,1945,1653,0,0
728,-629,0,0,0,0,0,0,0,0,0,-1,1952,1653,0,0
735,-629,0,0,0,0,0,0,0,0,0,-1,1959,1653,0,0
742,-629,0,0,0,0,0,0,0,0,0,-1,1966,1653,0,0
749,-629,0,0,0,0,0,0,0,0,0,-1,1973,1653,0,0
756,-629,0,0,0,0,0,0,0,0,0,-1,1980,1653,0,0
763,-629,0,0,0,0,0,0,0,0,0,-1,1987,1653,0,0
770,-629,0,0,0,0,0,0,0,0,0,-1,1994,1653,0,0
777,-629,0,0,0,0,0,0,0,0,0,-1,2001,1653,0,0
784,-629,0,0,0,0,0,0,0,0,0,-1,2008,1653,0,0
791,-629,0,0,0,0,0,0,0,0,0,-1,2015,1653,0,0
798,-629,0,0,0,0,0,0,0,0,0,-1,2022,1653,0,0
805,-629,0,0,0,0,0,0,0,0,0,-1,2029,1653,0,0
812,-629,0,0,0,0,0,0,0,0,0,-1,2036,1653,0,0
-700,-636,0,0,0,0,0,0,0,0,0,-1,524,1660,0,0
-693,-636,0,0,0,0,0,0,0,0,0,-1,531,1660,0,0
-686,-636,0,0,0,0,0,0,0,0,0,-1,538,1660,0,0
-679,-636,0,0,0,0,0,0,0,0,0,-1,545,1660,0,0
-672,-636,0,0,0,0,0,0,0,0,0,-1,552,1660,0,0
-665,-636,0,0,0,0,0,0,0,0,0,-1,559,1660,0,0
-658,-636,0,0,0,0,0,0,0,0,0,-1,566,1660,0,0
-651,-636,0,0,0,0,0,0,0,0,0,-1,573,1660,0,0
-644,-636,0,0,0,0,0,0,0,0,0,-1,580,1660,0,0
-637,-636,0,0,0,0,0,0,0,0,0,-1,587,1660,0,0
-630,-636,0,0,0,0,0,0,0,0,0,-1,594,1660,0,0
-623,-636,0,0,0,0,0,0,0,0,0,-1,601,1660,0,0
-616,-636,0,0,0,0,0,0,0,0,0,-1,608,1660,0,0
-609,-636,0,0,0,0,0,0,0,0,0,-1,615,1660,0,0
-602,-636,0,0,0,0,0,0,0,0,0,-1,622,1660,0,0
-595,-636,0,0,0,0,0,0,0,0,0,-1,629,1660,0,0
-588,-636,0,0,0,0,0,0,0,0,0,-1,636,1660,0,0
-581,-636,0,0,0,0,0,0,0,0,0,-1,643,1660,0,0
-574,-636,0,0,0,0,0,0,0,0,0,-1,650,1660,0,0
-567,-636,0,0,0,0,0,0,0,0,0,-1,657,1660,0,0
-560,-636,0,0,0,0,0,0,0,0,0,-1,664,1660,0,0
-553,-636,0,0,0,0,0,0,0,0,0,-1,671,1660,0,0
-546,-636,0,0,0,0,0,0,0,0,0,-1,678,1660,0,0
-539,-636,0,0,0,0,0,0,0,0,0,-1,685,1660,0,0
-532,-636,0,0,0,0,0,0,0,0,0,-1,692,1660,0,0
-525,-636,0,0,0,0,0,0,0,0,0,-1,699,1660,0,0
-518,-636,0,0,0,0,0,0,0,0,0,-1,706,1660,0,0
-511,-636,0,0,0,0,0,0,0,0,0,-1,713,1660,0,0
-504,-636,0,0,0,0,0,0,0,0,0,-1,720,1660,0,0
-497,-636,0,0,0,0,0,0,0,0,0,-1,727,1660,0,0
-490,-636,0,0,0,0,0,0,0,0,0,-1,734,1660,0,0
-483,-636,0,0,0,0,0,0,0,0,0,-1,741,1660,0,0
-476,-636,0,0,0,0,0,0,0,0,0,-1,748,1660,0,0
-469,-636,0,0,0,0,0,0,0,0,0,-1,755,1660,0,0
-462,-636,0,0,0,0,0,0,0,0,0,-1,762,1660,0,0
-455,-636,0,0,0,0,0,0,0,0,0,-1,769,1660,0,0
-448,-636,0,0,0,0,0,0,0,0,0,-1,776,1660,0,0
-441,-636,0,0,0,0,0,0,0,0,0,-1,783,1660,0,0
-434,-636,0,0,0,0,0,0,0,0,0,-1,790,1660,0,0
-427,-636,0,0,0,0,0,0,0,0,0,-1,797,1660,0,0
-420,-636,0,0,0,0,0,0,0,0,0,-1,804,1660,0,0
-413,-636,0,0,0,0,0,0,0,0,0,-1,811,1660,0,0
-406,-636,-0.591125,10.6943,0,0,0,0,0,0,0,-1,818,1660,-0.59115,-10.6943
-399,-636,0.0766602,11.2408,0,0,0,0,0,0,0,-1,825,1660,0.076685,-11.2409
-392,-636,0.75946,11.9233,0,0,0,0,0,0,0,-1,832,1660,0.759481,-11.9233
-385,-636,1.68878,12.517,0,0,0,0,0,0,0,-1,839,1660,1.6888,-12.5169
-378,-636,2.22107,13.0013,0,0,0,0,0,0,0,-1,846,1660,2.22107,-13.0014
-371,-636,2.52185,11.9684,0,0,0,0,0,0,0,-1,853,1660,2.52184,-11.9684
-364,-636,4.51947,14.8503,0,0,0,0,0,0,0,-1,860,1660,4.51949,-14.8504
-357,-636,4.55682,15.8809,0,0,0,0,0,0,0,-1,867,1660,4.55681,-15.8808
-350,-636,3.383,33.8971,0,0,0,0,0,0,0,-1,874,1660,3.38302,-33.8971
-343,-636,3.63336,34.5304,0.00182956,0.00180617,0.0035649,0.00538278,-0.00174706,0.783758,0.00429111,0.0495217,881,1660,3.63337,-34.5304
-336,-636,3.8067,35.1736,0.00124171,0.000901059,0.00264625,0.00372311,-0.00158034,0.75326,0.00314415,0.0334788,888,1660,3.80668,-35.1736
-329,-636,3.96643,35.7803,0.000719697,8.49012e-05,0.00188236,0.00231123,-0.00150663,0.701875,0.0022205,0.0179387,895,1660,3.96642,-35.7802
-322,-636,3.91687,36.406,0.000219004,-0.00050883,0.00139918,0.00130082,-0.00159064,0.65817,0.00167218,0.0120476,902,1660,3.91685,-36.406
-315,-636,3.86273,37.0028,-0.000119549,-0.000439564,0.00123015,0.000960955,-0.00152007,0.720726,0.00144449,0.0133658,909,1660,3.86273,-37.0028
-308,-636,3.83765,37.604,-0.000171086,-0.00013829,0.00121394,0.00105936,-0.00136874,0.792152,0.00140565,0.0119574,916,1660,3.83766,-37.604
-301,-636,3.83118,38.2065,-6.16297e-05,0.000259901,0.00130118,0.00141021,-0.00121194,0.846863,0.00151534,0.0115566,923,1660,3.83117,-38.2065
-294,-636,3.79315,38.806,0.000250921,0.000871128,0.00149308,0.00208596,-0.000963914,0.88779,0.00180013,0.0144316,930,1660,3.79313,-38.806
-287,-636,3.7627,39.3699,0.00054943,0.00161627,0.00161015,0.00277906,-0.000613356,0.945352,0.00208742,0.0137221,937,1660,3.76268,-39.3699
-280,-636,3.7403,39.9424,0.000994795,0.00240999,0.00181055,0.0036463,-0.000241521,0.971681,0.00251524,0.0136632,944,1660,3.74029,-39.9424
-273,-636,3.73242,40.5157,0.00152771,0.00306795,0.00197491,0.00441758,0.000178074,0.971305,0.00288753,0.0138544,951,1660,3.7324,-40.5157
-266,-636,3.71289,41.1085,0.00207523,0.00378942,0.00215762,0.00525395,0.0006107,0.974461,0.00331786,0.0150007,958,1660,3.7129,-41.1086
-259,-636,3.69928,41.6915,0.00262739,0.0044375,0.00219651,0.00590812,0.00115678,0.98082,0.00361537,0.016678,965,1660,3.69928,-41.6915
-252,-636,3.6861,42.2192,0.00319676,0.00517509,0.00213707,0.00654082,0.00183104,1.00215,0.00389635,0.0123372,972,1660,3.68607,-42.2193
-245,-636,3.67181,42.7631,0.00377962,0.00561589,0.00204101,0.00693577,0.00245974,0.99676,0.00406038,0.0115906,979,1660,3.67184,-42.7631
-238,-636,3.67615,43.2942,0.00410965,0.00544761,0.00200662,0.00689383,0.00266343,0.946297,0.00401428,0.0132926,986,1660,3.67612,-43.2942
-231,-636,3.67761,43.8265,0.00436421,0.00349162,0.00187669,0.00585465,0.00200118,0.671187,0.00343611,0.0116322,993,1660,3.67759,-43.8266
-224,-636,3.68103,44.3563,0.00507143,0.00232474,0.00217262,0.00626837,0.00112781,0.503548,0.00385832,0.00975534,1000,1660,3.68104,-44.3563
-217,-636,3.64142,44.9451,0.00545796,0.000649117,0.00245957,0.00649312,-0.000386042,0.398368,0.004463,0.0181791,1007,1660,3.6414,-44.9451
-210,-636,3.61475,45.4486,0.00580332,-0.000537434,0.00319667,0.00713516,-0.00186928,0.394764,0.00548705,0.0299592,1014,1660,3.61475,-45.4485
-203,-636,3.62488,46.0353,0.00617812,-0.00122864,0.00435282,0.00818981,-0.00324034,0.432919,0.00680231,0.0327694,1021,1660,3.6249,-46.0353
-196,-636,3.84949,46.4093,0.00652614,-0.00233847,0.00555217,0.0091982,-0.00501052,0.448546,0.00832133,0.0312315,1028,1660,3.8495,-46.4093
-189,-636,3.90112,46.8146,0.00694847,-0.00298152,0.00710708,0.0106531,-0.00668611,0.480506,0.0100977,0.0271286,1035,1660,3.90106,-46.8146
-182,-636,3.9989,47.2085,0.00739077,-0.00246591,0.00893181,0.0126637,-0.00773884,0.533296,0.0118932,0.0375002,1042,1660,3.99887,-47.2085
-175,-636,4.349,48.1213,0.00786788,-0.000373318,0.011201,0.0156821,-0.00818759,0.609142,0.0140058,0.0465507,1049,1660,4.34897,-48.1214
-168,-636,4.5592,48.7595,0,0,0,0,0,0,0,-1,1056,1660,4.55922,-48.7595
-161,-636,4.68799,49.3859,0,0,0,0,0,0,0,-1,1063,1660,4.68798,-49.3859
-154,-636,4.70801,49.9929,0,0,0,0,0,0,0,-1,1070,1660,4.70802,-49.9929
-147,-636,3.4165,49.0498,0,0,0,0,0,0,0,-1,1077,1660,3.41645,-49.0498
-140,-636,3.4729,27.1271,0,0,0,0,0,0,0,-1,1084,1660,3.47287,-27.1271
-133,-636,4.68311,18.0922,0,0,0,0,0,0,0,-1,1091,1660,4.68316,-18.0921
-126,-636,3.79028,18.2225,0,0,0,0,0,0,0,-1,1098,1660,3.79025,-18.2226
-119,-636,1.8667,13.8916,0,0,0,0,0,0,0,-1,1105,1660,1.86668,-13.8916
-112,-636,-1.24963,9.7998,0,0,0,0,0,0,0,-1,1112,1660,-1.24968,-9.79978
-105,-636,3.51624,4.72791,0,0,0,0,0,0,0,-1,1119,1660,3.51618,-4.7279
-98,-636,1.54504,5.11914,0,0,0,0,0,0,0,-1,1126,1660,1.54503,-5.11912
-91,-636,-1.87964,-2.25012,0,0,0,0,0,0,0,-1,1133,1660,-1.87966,2.25016
-84,-636,-2.84143,0.133667,0,0,0,0,0,0,0,-1,1140,1660,-2.84144,-0.133701
-77,-636,-3.57349,2.45935,0,0,0,0,0,0,0,-1,1147,1660,-3.57345,-2.45939
-70,-636,-4.23682,4.82312,0,0,0,0,0,0,0,-1,1154,1660,-4.23681,-4.82307
-63,-636,-2.21033,6.97168,0,0,0,0,0,0,0,-1,1161,1660,-2.21034,-6.97165
-56,-636,-2.51917,8.80359,0,0,0,0,0,0,0,-1,1168,1660,-2.51916,-8.80361
-49,-636,-3.13,10.4113,0,0,0,0,0,0,0,-1,1175,1660,-3.12996,-10.4112
-42,-636,-2.27771,4.90173,0,0,0,0,0,0,0,-1,1182,1660,-2.27775,-4.90173
-35,-636,-2.27698,5.89685,0,0,0,0,0,0,0,-1,1189,1660,-2.27695,-5.89686
-28,-636,-1.70654,4.83936,0,0,0,0,0,0,0,-1,1196,1660,-1.70656,-4.8393
-21,-636,4.24683,27.7834,0,0,0,0,0,0,0,-1,1203,1660,4.24687,-27.7835
-14,-636,21.4045,62.6761,0,0,0,0,0,0,0,-1,1210,1660,21.4045,-62.6762
-7,-636,3.04382,50.9039,0,0,0,0,0,0,0,-1,1217,1660,3.04383,-50.9039
0,-636,3.48108,50.5051,0,0,0,0,0,0,0,-1,1224,1660,3.48105,-50.5051
7,-636,7.23328,56.483,0,0,0,0,0,0,0,-1,1231,1660,7.23331,-56.4831
14,-636,12.6257,49.2864,0.168145,0.0457411,0.0168742,0.170429,0.0434575,0.134514,0.102259,0.0466366,1238,1660,12.6258,-49.2863
21,-636,11.7528,49.7432,0.110068,0.0310738,0.0244346,0.117015,0.0241267,0.277008,0.071341,0.0448654,1245,1660,11.7528,-49.7431
28,-636,10.7703,50.6057,0.0601527,0.0152589,0.0269596,0.0727869,0.00262475,0.438242,0.0476738,0.0483334,1252,1660,10.7702,-50.6057
35,-636,9.84827,50.9791,0.0209866,0.00053548,0.0261274,0.0388182,-0.0172961,0.598875,0.0331824,0.0454523,1259,1660,9.84832,-50.9791
42,-636,8.89868,51.3065,-0.007451,-0.0131726,0.023556,0.0134173,-0.0340409,0.724971,0.0282492,0.0474119,1266,1660,8.89871,-51.3065
49,-636,7.80603,51.5859,0,0,0,0,0,0,0,-1,1273,1660,7.806,-51.5859
56,-636,7.21069,51.8112,0,0,0,0,0,0,0,-1,1280,1660,7.21068,-51.8112
63,-636,6.6322,52.1724,-0.0653016,-0.036201,0.0126087,-0.031498,-0.0700046,1.21378,0.0404846,0.0453978,1287,1660,6.63219,-52.1724
70,-636,6.04126,52.4985,-0.0732702,-0.0341292,0.0046479,-0.0335849,-0.0738145,1.45421,0.0426744,0.044645,1294,1660,6.04126,-52.4985
77,-636,5.27966,52.922,-0.075803,-0.0304924,-0.00379835,-0.0301762,-0.0761192,-1.48774,0.0442606,0.0458103,1301,1660,5.27962,-52.922
84,-636,4.78943,53.312,-0.0728981,-0.0243263,-0.011669,-0.0216683,-0.075556,-1.34684,0.0449249,0.042859,1308,1660,4.78939,-53.312
91,-636,4.677,53.1498,-0.0705424,-0.0111783,-0.0192281,-0.00549449,-0.0762262,-1.28338,0.0490886,0.0416627,1315,1660,4.67704,-53.1498
98,-636,4.2522,53.4474,0,0,0,0,0,0,0,-1,1322,1660,4.25215,-53.4473
105,-636,3.89099,53.7158,0,0,0,0,0,0,0,-1,1329,1660,3.89095,-53.7158
112,-636,3.70142,54.069,0,0,0,0,0,0,0,-1,1336,1660,3.70136,-54.069
119,-636,1.85596,55.6381,-0.0740784,0.0643778,-0.0512644,0.0812924,-0.090993,-1.2521,0.0995216,0.0474366,1343,1660,1.85599,-55.6381
126,-636,1.35547,55.4373,-0.076709,0.0869818,-0.0594976,0.106323,-0.0960497,-1.2565,0.11689,0.0430352,1350,1660,1.35546,-55.4372
133,-636,0.997192,55.1755,0,0,0,0,0,0,0,-1,1357,1660,0.997203,-55.1755
140,-636,0.656372,54.6913,0,0,0,0,0,0,0,-1,1364,1660,0.656317,-54.6913
147,-636,10.5295,53.6642,0,0,0,0,0,0,0,-1,1371,1660,10.5295,-53.6641
154,-636,10.449,53.2205,0,0,0,0,0,0,0,-1,1378,1660,10.449,-53.2205
161,-636,10.2961,7.13025,0,0,0,0,0,0,0,-1,1385,1660,10.2961,-7.13021
168,-636,11.7659,5.83899,0,0,0,0,0,0,0,-1,1392,1660,11.7658,-5.83899
175,-636,5.94592,-1.72888,0,0,0,0,0,0,0,-1,1399,1660,5.94598,1.72886
182,-636,5.93994,-1.11938,0,0,0,0,0,0,0,-1,1406,1660,5.93998,1.11936
189,-636,5.32544,11.9595,0,0,0,0,0,0,0,-1,1413,1660,5.32542,-11.9595
196,-636,5.3623,9.38025,0,0,0,0,0,0,0,-1,1420,1660,5.36225,-9.38027
203,-636,5.18542,9.02429,0,0,0,0,0,0,0,-1,1427,1660,5.18547,-9.0243
210,-636,4.09167,7.17041,0,0,0,0,0,0,0,-1,1434,1660,4.09173,-7.17041
217,-636,2.94897,5.28992,0,0,0,0,0,0,0,-1,1441,1660,2.94899,-5.28991
224,-636,1.49194,3.63916,0,0,0,0,0,0,0,-1,1448,1660,1.49197,-3.63918
231,-636,0.17749,2.24854,0,0,0,0,0,0,0,-1,1455,1660,0.177501,-2.24855
238,-636,-0.764648,1.00598,0,0,0,0,0,0,0,-1,1462,1660,-0.764704,-1.00595
245,-636,6.21204,1.18005,0,0,0,0,0,0,0,-1,1469,1660,6.21206,-1.18001
252,-636,7.70251,0.865723,0,0,0,0,0,0,0,-1,1476,1660,7.7025,-0.865692
259,-636,9.03601,0.787231,0,0,0,0,0,0,0,-1,1483,1660,9.03598,-0.787243
266,-636,10.1071,3.24109,0,0,0,0,0,0,0,-1,1490,1660,10.1071,-3.24103
273,-636,8.48535,5.02466,0,0,0,0,0,0,0,-1,1497,1660,8.48533,-5.02472
280,-636,11.908,32.0698,0,0,0,0,0,0,0,-1,1504,1660,11.9079,-32.0698
287,-636,12.1218,36.4158,0,0,0,0,0,0,0,-1,1511,1660,12.1218,-36.4158
294,-636,13.3706,44.9711,0,0,0,0,0,0,0,-1,1518,1660,13.3706,-44.9711
301,-636,13.8679,48.1317,0,0,0,0,0,0,0,-1,1525,1660,13.8679,-48.1317
308,-636,14.166,47.5372,0,0,0,0,0,0,0,-1,1532,1660,14.166,-47.5373
315,-636,14.045,47.2386,0,0,0,0,0,0,0,-1,1539,1660,14.0451,-47.2386
322,-636,13.9503,46.6732,0,0,0,0,0,0,0,-1,1546,1660,13.9503,-46.6732
329,-636,13.9227,46.3405,0.00957785,0.0182389,-0.00628341,0.0215395,0.00627721,-1.08712,0.0127914,0.0375472,1553,1660,13.9228,-46.3405
336,-636,13.9331,45.7795,0.00852517,0.0179157,-0.00652819,0.0212618,0.00517912,-1.09716,0.0128022,0.0272102,1560,1660,13.9332,-45.7796
343,-636,14.032,45.2233,0.00745926,0.0174031,-0.00667192,0.0207519,0.00411046,-1.10561,0.0126884,0.0197893,1567,1660,14.032,-45.2233
350,-636,14.014,44.6831,0.00654628,0.0162234,-0.00659309,0.0195629,0.00320678,-1.10195,0.0121153,0.0119946,1574,1660,14.014,-44.6831
357,-636,14.0294,44.1414,0.00555858,0.0149144,-0.00622836,0.018026,0.00244707,-1.10749,0.0112904,0.0112454,1581,1660,14.0294,-44.1413
364,-636,14.045,43.6138,0.00484792,0.0133951,-0.00588445,0.0163941,0.00184893,-1.09946,0.0103682,0.0116824,1588,1660,14.0451,-43.6138
371,-636,14.043,43.1221,0.00434745,0.01159,-0.00534578,0.0144256,0.00151187,-1.0831,0.00915482,0.00971786,1595,1660,14.043,-43.122
378,-636,14.0331,42.6052,0.00389106,0.00981965,-0.00476151,0.0124642,0.00124652,-1.06382,0.0079267,0.00973083,1602,1660,14.0331,-42.6052
385,-636,14.0348,42.0714,0.00343667,0.00809048,-0.00421098,0.0105747,0.000952461,-1.03781,0.00675473,0.0157246,1609,1660,14.0348,-42.0715
392,-636,14.015,41.5306,0.00311125,0.00667568,-0.00374744,0.00904311,0.000743817,-1.00736,0.00579673,0.0163987,1616,1660,14.015,-41.5307
399,-636,13.9951,40.9982,0.00286952,0.00544686,-0.00340044,0.00779463,0.000521756,-0.966522,0.00503153,0.0120922,1623,1660,13.9951,-40.9981
406,-636,14.0026,40.4829,0.00269375,0.00453216,-0.0032042,0.0069464,0.00027951,-0.925084,0.00454063,0.0140933,1630,1660,14.0026,-40.4829
413,-636,13.9934,39.8967,0.00254334,0.00386281,-0.00307376,0.00634684,5.93099e-05,-0.891111,0.0042116,0.0227873,1637,1660,13.9934,-39.8967
420,-636,13.9358,39.3588,0.0024586,0.00331202,-0.00298296,0.00589864,-0.000128017,-0.856441,0.00397578,0.0231344,1644,1660,13.9358,-39.3588
427,-636,13.9315,38.8439,0.00250899,0.00329537,-0.00314524,0.0060719,-0.000267543,-0.847581,0.00414,0.0162135,1651,1660,13.9315,-38.8439
434,-636,13.9081,38.2665,0.00258322,0.0035452,-0.00345341,0.00655096,-0.000422538,-0.854593,0.00451475,0.0161441,1658,1660,13.9081,-38.2665
441,-636,13.8782,37.6772,0.00265453,0.00391294,-0.00381619,0.00715145,-0.000583982,-0.867102,0.00497374,0.0135085,1665,1660,13.8781,-37.6773
448,-636,13.8961,37.1135,0.00273913,0.00440735,-0.00426845,0.00792242,-0.000775938,-0.881889,0.00555835,0.0150435,1672,1660,13.8961,-37.1135
455,-636,13.8364,36.5284,0.00285931,0.00499334,-0.00482096,0.00886395,-0.0010113,-0.894307,0.00627363,0.0150622,1679,1660,13.8364,-36.5284
462,-636,13.7354,35.9387,0.00295522,0.00562195,-0.00544286,0.00989239,-0.00131521,-0.90552,0.0070742,0.0207265,1686,1660,13.7354,-35.9388
469,-636,13.7799,35.2999,0.00296958,0.00617866,-0.00628205,0.0110578,-0.0019096,-0.910433,0.00808397,0.0372865,1693,1660,13.7799,-35.3
476,-636,13.9257,34.6652,0,0,0,0,0,0,0,-1,1700,1660,13.9256,-34.6652
483,-636,11.3833,24.3958,0,0,0,0,0,0,0,-1,1707,1660,11.3833,-24.3957
490,-636,10.8951,23.9569,0,0,0,0,0,0,0,-1,1714,1660,10.8951,-23.9569
497,-636,9.55579,18.0111,0,0,0,0,0,0,0,-1,1721,1660,9.55574,-18.0111
504,-636,6.26428,19.4268,0,0,0,0,0,0,0,-1,1728,1660,6.26433,-19.4268
511,-636,5.65466,9.23218,0,0,0,0,0,0,0,-1,1735,1660,5.65461,-9.23216
518,-636,6.72791,1.07605,0,0,0,0,0,0,0,-1,1742,1660,6.7279,-1.0761
525,-636,7.04309,0.93335,0,0,0,0,0,0,0,-1,1749,1660,7.04308,-0.933298
532,-636,0,0,0,0,0,0,0,0,0,-1,1756,1660,0,0
539,-636,0,0,0,0,0,0,0,0,0,-1,1763,1660,0,0
546,-636,0,0,0,0,0,0,0,0,0,-1,1770,1660,0,0
553,-636,0,0,0,0,0,0,0,0,0,-1,1777,1660,0,0
560,-636,0,0,0,0,0,0,0,0,0,-1,1784,1660,0,0
567,-636,0,0,0,0,0,0,0,0,0,-1,1791,1660,0,0
574,-636,0,0,0,0,0,0,0,0,0,-1,1798,1660,0,0
581,-636,0,0,0,0,0,0,0,0,0,-1,1805,1660,0,0
588,-636,0,0,0,0,0,0,0,0,0,-1,1812,1660,0,0
595,-636,0,0,0,0,0,0,0,0,0,-1,1819,1660,0,0
602,-636,0,0,0,0,0,0,0,0,0,-1,1826,1660,0,0
609,-636,0,0,0,0,0,0,0,0,0,-1,1833,1660,0,0
616,-636,0,0,0,0,0,0,0,0,0,-1,1840,1660,0,0
623,-636,0,0,0,0,0,0,0,0,0,-1,1847,1660,0,0
630,-636,0,0,0,0,0,0,0,0,0,-1,1854,1660,0,0
637,-636,0,0,0,0,0,0,0,0,0,-1,1861,1660,0,0
644,-636,0,0,0,0,0,0,0,0,0,-1,1868,1660,0,0
651,-636,0,0,0,0,0,0,0,0,0,-1,1875,1660,0,0
658,-636,0,0,0,0,0,0,0,0,0,-1,1882,1660,0,0
665,-636,0,0,0,0,0,0,0,0,0,-1,1889,1660,0,0
672,-636,0,0,0,0,0,0,0,0,0,-1,1896,1660,0,0
679,-636,0,0,0,0,0,0,0,0,0,-1,1903,1660,0,0
686,-636,0,0,0,0,0,0,0,0,0,-1,1910,1660,0,0
693,-636,0,0,0,0,0,0,0,0,0,-1,1917,1660,0,0
700,-636,0,0,0,0,0,0,0,0,0,-1,1924,1660,0,0
707,-636,0,0,0,0,0,0,0,0,0,-1,1931,1660,0,0
714,-636,0,0,0,0,0,0,0,0,0,-1,1938,1660,0,0
721,-636,0,0,0,0,0,0,0,0,0,-1,1945,1660,0,0
728,-636,0,0,0,0,0,0,0,0,0,-1,1952,1660,0,0
735,-636,0,0,0,0,0,0,0,0,0,-1,1959,1660,0,0
742,-636,0,0,0,0,0,0,0,0,0,-1,1966,1660,0,0
749,-636,0,0,0,0,0,0,0,0,0,-1,1973,1660,0,0
756,-636,0,0,0,0,0,0,0,0,0,-1,1980,1660,0,0
763,-636,0,0,0,0,0,0,0,0,0,-1,1987,1660,0,0
770,-636,0,0,0,0,0,0,0,0,0,-1,1994,1660,0,0
777,-636,0,0,0,0,0,0,0,0,0,-1,2001,1660,0,0
784,-636,0,0,0,0,0,0,0,0,0,-1,2008,1660,0,0
791,-636,0,0,0,0,0,0,0,0,0,-1,2015,1660,0,0
798,-636,0,0,0,0,0,0,0,0,0,-1,2022,1660,0,0
805,-636,0,0,0,0,0,0,0,0,0,-1,2029,1660,0,0
812,-636,0,0,0,0,0,0,0,0,0,-1,2036,1660,0,0
-700,-643,0,0,0,0,0,0,0,0,0,-1,524,1667,0,0
-693,-643,0,0,0,0,0,0,0,0,0,-1,531,1667,0,0
-686,-643,0,0,0,0,0,0,0,0,0,-1,538,1667,0,0
-679,-643,0,0,0,0,0,0,0,0,0,-1,545,1667,0,0
-672,-643,0,0,0,0,0,0,0,0,0,-1,552,1667,0,0
-665,-643,0,0,0,0,0,0,0,0,0,-1,559,1667,0,0
-658,-643,0,0,0,0,0,0,0,0,0,-1,566,1667,0,0
-651,-643,0,0,0,0,0,0,0,0,0,-1,573,1667,0,0
-644,-643,0,0,0,0,0,0,0,0,0,-1,580,1667,0,0
-637,-643,0,0,0,0,0,0,0,0,0,-1,587,1667,0,0
-630,-643,0,0,0,0,0,0,0,0,0,-1,594,1667,0,0
-623,-643,0,0,0,0,0,0,0,0,0,-1,601,1667,0,0
-616,-643,0,0,0,0,0,0,0,0,0,-1,608,1667,0,0
-609,-643,0,0,0,0,0,0,0,0,0,-1,615,1667,0,0
-602,-643,0,0,0,0,0,0,0,0,0,-1,622,1667,0,0
-595,-643,0,0,0,0,0,0,0,0,0,-1,629,1667,0,0
-588,-643,0,0,0,0,0,0,0,0,0,-1,636,1667,0,0
-581,-643,0,0,0,0,0,0,0,0,0,-1,643,1667,0,0
-574,-643,0,0,0,0,0,0,0,0,0,-1,650,1667,0,0
-567,-643,0,0,0,0,0,0,0,0,0,-1,657,1667,0,0
-560,-643,0,0,0,0,0,0,0,0,0,-1,664,1667,0,0
-553,-643,0,0,0,0,0,0,0,0,0,-1,671,1667,0,0
-546,-643,0,0,0,0,0,0,0,0,0,-1,678,1667,0,0
-539,-643,0,0,0,0,0,0,0,0,0,-1,685,1667,0,0
-532,-643,0,0,0,0,0,0,0,0,0,-1,692,1667,0,0
-525,-643,0,0,0,0,0,0,0,0,0,-1,699,1667,0,0
-518,-643,0,0,0,0,0,0,0,0,0,-1,706,1667,0,0
-511,-643,0,0,0,0,0,0,0,0,0,-1,713,1667,0,0
-504,-643,0,0,0,0,0,0,0,0,0,-1,720,1667,0,0
-497,-643,0,0,0,0,0,0,0,0,0,-1,727,1667,0,0
-490,-643,0,0,0,0,0,0,0,0,0,-1,734,1667,0,0
-483,-643,0,0,0,0,0,0,0,0,0,-1,741,1667,0,0
-476,-643,0,0,0,0,0,0,0,0,0,-1,748,1667,0,0
-469,-643,0,0,0,0,0,0,0,0,0,-1,755,1667,0,0
-462,-643,0,0,0,0,0,0,0,0,0,-1,762,1667,0,0
-455,-643,0,0,0,0,0,0,0,0,0,-1,769,1667,0,0
-448,-643,0,0,0,0,0,0,0,0,0,-1,776,1667,0,0
-441,-643,0,0,0,0,0,0,0,0,0,-1,783,1667,0,0
-434,-643,0,0,0,0,0,0,0,0,0,-1,790,1667,0,0
-427,-643,0,0,0,0,0,0,0,0,0,-1,797,1667,0,0
-420,-643,0,0,0,0,0,0,0,0,0,-1,804,1667,0,0
-413,-643,0,0,0,0,0,0,0,0,0,-1,811,1667,0,0
-406,-643,0,0,0,0,0,0,0,0,0,-1,818,1667,0,0
-399,-643,0.589417,11.6465,0,0,0,0,0,0,0,-1,825,1667,0.58939,-11.6465
-392,-643,0.865295,12.6523,0,0,0,0,0,0,0,-1,832,1667,0.865315,-12.6523
-385,-643,1.72968,13.2692,0,0,0,0,0,0,0,-1,839,1667,1.72967,-13.2692
-378,-643,2.66522,13.8193,0,0,0,0,0,0,0,-1,846,1667,2.66524,-13.8193
-371,-643,0.466125,3.35095,0,0,0,0,0,0,0,-1,853,1667,0.466148,-3.351
-364,-643,1.69513,9.922,0,0,0,0,0,0,0,-1,860,1667,1.69511,-9.92205
-357,-643,1.14227,10.8429,0,0,0,0,0,0,0,-1,867,1667,1.14228,-10.8429
-350,-643,5.95978,32.8947,0,0,0,0,0,0,0,-1,874,1667,5.95975,-32.8947
-343,-643,4.22565,34.4973,0,0,0,0,0,0,0,-1,881,1667,4.22563,-34.4974
-336,-643,4.53571,35.0344,0,0,0,0,0,0,0,-1,888,1667,4.53573,-35.0345
-329,-643,4.49341,35.6787,0.000785758,0.000758749,0.00231914,0.00309143,-0.00154692,0.782487,0.00272699,0.0410695,895,1667,4.49341,-35.6788
-322,-643,4.5105,36.4767,5.24574e-05,-0.00017653,0.00176278,0.00170446,-0.00182853,0.752968,0.00204019,0.0291346,902,1667,4.51051,-36.4767
-315,-643,4.43237,37.0621,-0.000492613,-0.000639856,0.00145467,0.000890302,-0.00202277,0.760115,0.00172371,0.0202007,909,1667,4.43237,-37.0621
-308,-643,4.44086,37.601,-0.000694858,-0.000848048,0.00131152,0.000542306,-0.00208521,0.75623,0.00160181,0.0141248,916,1667,4.44085,-37.6009
-301,-643,4.42059,38.2013,-0.000697157,-0.000935935,0.00125844,0.000447547,-0.00208064,0.738104,0.00155785,0.0139129,923,1667,4.42057,-38.2013
-294,-643,4.35645,38.7948,-0.000427303,-0.000738131,0.00130621,0.000732702,-0.00189814,0.726186,0.00156781,0.0122819,930,1667,4.35645,-38.7948
-287,-643,4.32855,39.3754,-0.000196207,-0.000349831,0.00126468,0.000993992,-0.00154003,0.755067,0.0014743,0.0108396,937,1667,4.32857,-39.3754
-280,-643,4.31647,39.9708,0.000156904,0.00018594,0.00132131,0.00149281,-0.00114997,0.790892,0.00153008,0.0151344,944,1667,4.31649,-39.9708
-273,-643,4.29059,40.5416,0.000605803,0.000693424,0.00137069,0.002021,-0.000721772,0.801374,0.00164169,0.0135728,951,1667,4.29062,-40.5416
-266,-643,4.25665,41.1116,0.00110167,0.00133858,0.00151515,0.0027399,-0.000299643,0.824409,0.00193423,0.0131668,958,1667,4.25662,-41.1116
-259,-643,4.24725,41.6656,0.00156792,0.00191638,0.0014841,0.00323645,0.000247858,0.843831,0.00207994,0.0129361,965,1667,4.24725,-41.6657
-252,-643,4.2442,42.2338,0.00205277,0.00275428,0.00142085,0.00386704,0.000940021,0.90641,0.00232881,0.014109,972,1667,4.24422,-42.2338
-245,-643,4.22296,42.777,0.00257951,0.00314305,0.00130981,0.00420106,0.00152151,0.891345,0.00245601,0.0139275,979,1667,4.22297,-42.777
-238,-643,4.23425,43.3059,0.00289354,0.00319606,0.00126083,0.00431467,0.00177493,0.845097,0.00250409,0.0176051,986,1667,4.23424,-43.306
-231,-643,4.21887,43.8643,0.00317735,0.00206169,0.00121505,0.00395651,0.00128254,0.5702,0.0023309,0.0118911,993,1667,4.21885,-43.8643
-224,-643,4.2113,44.3574,0.00383077,0.00153044,0.00153332,0.00459736,0.000763855,0.463611,0.00284468,0.00920544,1000,1667,4.21133,-44.3574
-217,-643,4.18628,44.8341,0.00428472,0.00067752,0.00185196,0.00506622,-0.00010398,0.399314,0.00341267,0.00868757,1007,1667,4.18626,-44.834
-210,-643,4.17053,45.3699,0.00474714,3.59139e-07,0.00245827,0.00579078,-0.00104328,0.401482,0.00425117,0.0122578,1014,1667,4.17056,-45.3698
-203,-643,4.18298,45.9418,0.00522945,-0.000228162,0.00336312,0.00683158,-0.00183029,0.444574,0.00527148,0.0158758,1021,1667,4.183,-45.9417
-196,-643,4.20422,46.4215,0.00570143,-0.000693815,0.00432695,0.00788408,-0.00287646,0.467186,0.00643294,0.016328,1028,1667,4.20417,-46.4216
-189,-643,4.29883,46.8799,0.00622523,-0.00059715,0.0055561,0.00933374,-0.00370565,0.51009,0.00775853,0.0154294,1035,1667,4.2988,-46.8799
-182,-643,4.35571,47.4237,0.00672648,0.000489007,0.00693918,0.0112156,-0.00400006,0.574204,0.00910804,0.0224994,1042,1667,4.35568,-47.4238
-175,-643,4.5271,47.9121,0.00724295,0.0025856,0.00862224,0.0138454,-0.00401689,0.653506,0.0108207,0.032841,1049,1667,4.52712,-47.9121
-168,-643,4.62903,48.4325,0.00769317,0.00604296,0.0105073,0.0174077,-0.00367158,0.746215,0.013003,0.0384699,1056,1667,4.62907,-48.4325
-161,-643,4.75769,49.0291,0.00818848,0.0106912,0.0124249,0.0219276,-0.00304793,0.835586,0.0157331,0.0451284,1063,1667,4.7577,-49.0291
-154,-643,4.76172,49.5795,0.00843843,0.0165476,0.0140905,0.0271552,-0.00216924,0.92549,0.0188682,0.0496884,1070,1667,4.76169,-49.5795
-147,-643,4.72925,50.0842,0,0,0,0,0,0,0,-1,1077,1667,4.72921,-50.0842
-140,-643,4.30322,22.9166,0,0,0,0,0,0,0,-1,1084,1667,4.30327,-22.9167
-133,-643,3.66748,21.6034,0,0,0,0,0,0,0,-1,1091,1667,3.66743,-21.6034
-126,-643,3.13904,17.689,0,0,0,0,0,0,0,-1,1098,1667,3.13909,-17.689
-119,-643,3.76282,14.1458,0,0,0,0,0,0,0,-1,1105,1667,3.76283,-14.1458
-112,-643,3.81458,16.2069,0,0,0,0,0,0,0,-1,1112,1667,3.81463,-16.2069
-105,-643,-2.23413,10.0996,0,0,0,0,0,0,0,-1,1119,1667,-2.23415,-10.0996
-98,-643,3.11035,4.68066,0,0,0,0,0,0,0,-1,1126,1667,3.11041,-4.68071
-91,-643,-1.74146,-2.5885,0,0,0,0,0,0,0,-1,1133,1667,-1.74146,2.58856
-84,-643,-3.07446,-0.199341,0,0,0,0,0,0,0,-1,1140,1667,-3.07449,0.199383
-77,-643,-3.63794,2.81165,0,0,0,0,0,0,0,-1,1147,1667,-3.63791,-2.8117
-70,-643,-3.36938,4.45203,0,0,0,0,0,0,0,-1,1154,1667,-3.36941,-4.452
-63,-643,-3.67822,6.26855,0,0,0,0,0,0,0,-1,1161,1667,-3.67823,-6.26856
-56,-643,-3.95142,8.1073,0,0,0,0,0,0,0,-1,1168,1667,-3.95139,-8.10732
-49,-643,-4.23535,9.90552,0,0,0,0,0,0,0,-1,1175,1667,-4.23537,-9.90557
-42,-643,-4.25195,10.7059,0,0,0,0,0,0,0,-1,1182,1667,-4.25192,-10.706
-35,-643,-4.10986,11.6588,0,0,0,0,0,0,0,-1,1189,1667,-4.10982,-11.6589
-28,-643,-1.38513,5.604,0,0,0,0,0,0,0,-1,1196,1667,-1.3851,-5.60403
-21,-643,1.61011,23.1276,0,0,0,0,0,0,0,-1,1203,1667,1.61011,-23.1275
-14,-643,20.6979,63.3094,0,0,0,0,0,0,0,-1,1210,1667,20.6978,-63.3094
-7,-643,6.02649,55.6321,0,0,0,0,0,0,0,-1,1217,1667,6.02649,-55.6321
0,-643,7.5127,54.8982,0,0,0,0,0,0,0,-1,1224,1667,7.51273,-54.8982
7,-643,7.42627,56.3319,0.210982,0.0332108,0.00177936,0.211,0.033193,0.010008,0.131011,0.0436666,1231,1667,7.42627,-56.3319
14,-643,12.2195,48.7551,0.162229,0.027934,0.0127073,0.163421,0.0267421,0.0935166,0.101218,0.0425524,1238,1667,12.2195,-48.7551
21,-643,11.3646,49.5872,0.114951,0.0152616,0.0163765,0.117572,0.0126403,0.15872,0.0745261,0.0439592,1245,1667,11.3647,-49.5871
28,-643,10.5908,50.2198,0.0722387,0.000992318,0.0158761,0.0756163,-0.00238527,0.209622,0.0512245,0.0452814,1252,1667,10.5908,-50.2198
35,-643,9.49377,50.8799,0.0372696,-0.0125974,0.0129193,0.0404179,-0.0157457,0.239031,0.0334528,0.0418779,1259,1667,9.49375,-50.8799
42,-643,8.53711,51.2659,0.0101509,-0.0257311,0.00876377,0.0121769,-0.0277571,0.227194,0.0236336,0.0458144,1266,1667,8.5371,-51.2659
49,-643,7.70056,51.527,-0.0125002,-0.0378956,0.00401556,-0.0118804,-0.0385154,0.153146,0.0227743,0.0462583,1273,1667,7.70061,-51.527
56,-643,6.73059,51.4318,0,0,0,0,0,0,0,-1,1280,1667,6.73061,-51.4317
63,-643,6.28918,52.0646,0,0,0,0,0,0,0,-1,1287,1667,6.28913,-52.0646
70,-643,5.80518,53.311,0,0,0,0,0,0,0,-1,1294,1667,5.80522,-53.311
77,-643,5.53723,53.4611,-0.0647059,-0.0438851,-0.0194802,-0.0322081,-0.076383,-1.0308,0.0442798,0.0438674,1301,1667,5.53718,-53.4611
84,-643,5.27222,53.609,-0.0633065,-0.0389189,-0.0257227,-0.0226461,-0.0795793,-1.00673,0.0473453,0.0456013,1308,1667,5.27224,-53.609
91,-643,5.00562,53.7454,-0.0618225,-0.0274811,-0.0307191,-0.00945954,-0.0798441,-1.04025,0.0503731,0.0457279,1315,1667,5.00564,-53.7453
98,-643,4.00708,54.3965,0,0,0,0,0,0,0,-1,1322,1667,4.00707,-54.3965
105,-643,5.33313,53.5969,0,0,0,0,0,0,0,-1,1329,1667,5.33308,-53.5969
112,-643,4.27087,54.2578,-0.0591776,0.0243662,-0.0460801,0.0447897,-0.0796012,-1.1536,0.0727485,0.0462093,1336,1667,4.27091,-54.2579
119,-643,2.9104,55.4664,-0.0591761,0.0417226,-0.0519213,0.0636677,-0.0811211,-1.17091,0.0837961,0.0463972,1343,1667,2.91037,-55.4665
126,-643,2.45471,55.2002,-0.0598523,0.0621334,-0.0569644,0.0845975,-0.0823164,-1.19517,0.0963708,0.0457788,1350,1667,2.45474,-55.2002
133,-643,2.02026,54.9338,0,0,0,0,0,0,0,-1,1357,1667,2.02025,-54.9338
140,-643,10.4709,53.9238,0,0,0,0,0,0,0,-1,1364,1667,10.471,-53.9239
147,-643,10.3219,53.5254,0,0,0,0,0,0,0,-1,1371,1667,10.3218,-53.5253
154,-643,10.2111,53.085,0,0,0,0,0,0,0,-1,1378,1667,10.2111,-53.085
161,-643,5.57935,26.2754,0,0,0,0,0,0,0,-1,1385,1667,5.57931,-26.2754
168,-643,10.5563,10.9818,0,0,0,0,0,0,0,-1,1392,1667,10.5562,-10.9819
175,-643,5.88525,-1.1698,0,0,0,0,0,0,0,-1,1399,1667,5.88526,1.16977
182,-643,5.80945,-0.418701,0,0,0,0,0,0,0,-1,1406,1667,5.80949,0.418712
189,-643,5.42297,12.9208,0,0,0,0,0,0,0,-1,1413,1667,5.42298,-12.9208
196,-643,5.51953,11.2415,0,0,0,0,0,0,0,-1,1420,1667,5.51948,-11.2414
203,-643,5.60828,9.82153,0,0,0,0,0,0,0,-1,1427,1667,5.60833,-9.82148
210,-643,4.73218,7.58728,0,0,0,0,0,0,0,-1,1434,1667,4.73222,-7.58728
217,-643,3.8031,5.28955,0,0,0,0,0,0,0,-1,1441,1667,3.80305,-5.28955
224,-643,2.96436,2.97095,0,0,0,0,0,0,0,-1,1448,1667,2.96432,-2.97095
231,-643,2.13403,1.08472,0,0,0,0,0,0,0,-1,1455,1667,2.13403,-1.08467
238,-643,1.18152,-0.261963,0,0,0,0,0,0,0,-1,1462,1667,1.18152,0.26192
245,-643,-0.157471,-1.79016,0,0,0,0,0,0,0,-1,1469,1667,-0.157517,1.7901
252,-643,8.08789,0.0202637,0,0,0,0,0,0,0,-1,1476,1667,8.08791,-0.0203056
259,-643,9.02979,-0.46936,0,0,0,0,0,0,0,-1,1483,1667,9.02974,0.46933
266,-643,4.55066,5.17554,0,0,0,0,0,0,0,-1,1490,1667,4.55063,-5.17556
273,-643,10.74,31.432,0,0,0,0,0,0,0,-1,1497,1667,10.7399,-31.4319
280,-643,12.1675,42.5023,0,0,0,0,0,0,0,-1,1504,1667,12.1675,-42.5023
287,-643,12.9725,46.299,0,0,0,0,0,0,0,-1,1511,1667,12.9725,-46.299
294,-643,13.2585,48.7054,0,0,0,0,0,0,0,-1,1518,1667,13.2585,-48.7055
301,-643,13.316,48.1185,0.0120499,0.0099909,-0.00113872,0.0125555,0.0094853,-0.417861,0.00755776,0.0412492,1525,1667,13.316,-48.1185
308,-643,13.5509,47.5411,0.0105033,0.0102039,-0.00130269,0.0116649,0.00904234,-0.728182,0.00706653,0.0375081,1532,1667,13.5509,-47.5412
315,-643,13.5248,47.1362,0.00934851,0.0119519,-0.00245873,0.0134322,0.00786814,-1.02885,0.00779304,0.030008,1539,1667,13.5248,-47.1363
322,-643,13.4736,46.6281,0.00843013,0.0125181,-0.00340558,0.014446,0.00650223,-1.05568,0.00835422,0.0178662,1546,1667,13.4736,-46.6281
329,-643,13.4623,46.1261,0.00761447,0.0125009,-0.00399324,0.014739,0.0053763,-1.05994,0.00861271,0.0133398,1553,1667,13.4623,-46.1261
336,-643,13.4777,45.6736,0.00675244,0.0123244,-0.00425661,0.0146257,0.00445113,-1.07516,0.00865697,0.0119924,1560,1667,13.4777,-45.6736
343,-643,13.5173,45.2054,0.0058416,0.0120589,-0.00443933,0.0143698,0.00353071,-1.09084,0.00864667,0.0139696,1567,1667,13.5174,-45.2054
350,-643,13.5492,44.665,0.0050471,0.0113264,-0.00449812,0.0136722,0.00270126,-1.09009,0.00836113,0.0130068,1574,1667,13.5492,-44.665
357,-643,13.5094,44.1575,0.00429111,0.0104929,-0.00435805,0.0127407,0.00204335,-1.09461,0.00790124,0.0114735,1581,1667,13.5094,-44.1575
364,-643,13.5233,43.6437,0.00374628,0.0095226,-0.00421019,0.01174,0.00152884,-1.08603,0.00737013,0.0105654,1588,1667,13.5233,-43.6436
371,-643,13.5305,43.1555,0.00338856,0.00834106,-0.00394416,0.0105219,0.00120775,-1.06571,0.00664866,0.00843023,1595,1667,13.5305,-43.1555
378,-643,13.5139,42.652,0.00306894,0.00709055,-0.00363729,0.00923585,0.000923647,-1.03791,0.00587361,0.0101253,1602,1667,13.5139,-42.6519
385,-643,13.5049,42.1136,0.00279965,0.00593804,-0.00336182,0.00807885,0.000658829,-1.00375,0.00518028,0.0161554,1609,1667,13.5048,-42.1137
392,-643,13.4934,41.5649,0.00270728,0.0050784,-0.00317325,0.00728032,0.000505355,-0.964174,0.00469417,0.0162257,1616,1667,13.4934,-41.5649
399,-643,13.453,41.0443,0.00264866,0.00431416,-0.00310516,0.00669629,0.000266527,-0.916407,0.00437806,0.0139527,1623,1667,13.453,-41.0444
406,-643,13.4568,40.4972,0.00264025,0.0038539,-0.00318015,0.0064846,9.55025e-06,-0.879673,0.00431989,0.0138131,1630,1667,13.4568,-40.4972
413,-643,13.46,39.9294,0.00267314,0.00364936,-0.00332432,0.00652121,-0.000198712,-0.858293,0.0044152,0.0203433,1637,1667,13.4599,-39.9294
420,-643,13.4104,39.3937,0.00279938,0.00366654,-0.00356154,0.0068208,-0.000354879,-0.84597,0.00466999,0.0192655,1644,1667,13.4104,-39.3937
427,-643,13.3859,38.8453,0.00305701,0.00409238,-0.00400972,0.0076177,-0.000468314,-0.849597,0.00524155,0.0163,1651,1667,13.3859,-38.8453
434,-643,13.3529,38.2715,0.00331369,0.00475161,-0.00453992,0.00862914,-0.000563852,-0.863928,0.00594963,0.0171168,1658,1667,13.353,-38.2715
441,-643,13.3318,37.6946,0.00351965,0.00557236,-0.00507715,0.00972586,-0.000633852,-0.88513,0.00670518,0.0157358,1665,1667,13.3318,-37.6945
448,-643,13.3384,37.1354,0.00372236,0.00650784,-0.00570467,0.0109873,-0.000757122,-0.905126,0.00758985,0.0197903,1672,1667,13.3384,-37.1354
455,-643,13.2573,36.5792,0.00397706,0.00750602,-0.00642326,0.0124027,-0.000919669,-0.919442,0.00859148,0.0281569,1679,1667,13.2573,-36.5792
462,-643,13.2074,35.8448,0.00429527,0.00850319,-0.00714897,0.0138514,-0.00105291,-0.928509,0.00960447,0.045527,1686,1667,13.2074,-35.8448
469,-643,13.3024,35.147,0,0,0,0,0,0,0,-1,1693,1667,13.3024,-35.147
476,-643,10.5598,24.5066,0,0,0,0,0,0,0,-1,1700,1667,10.5598,-24.5065
483,-643,10.4502,24.3062,0,0,0,0,0,0,0,-1,1707,1667,10.4502,-24.3062
490,-643,10.6885,24.1522,0,0,0,0,0,0,0,-1,1714,1667,10.6884,-24.1522
497,-643,10.9073,23.9465,0,0,0,0,0,0,0,-1,1721,1667,10.9074,-23.9465
504,-643,8.05591,19.0656,0,0,0,0,0,0,0,-1,1728,1667,8.0559,-19.0655
511,-643,7.74719,18.1564,0,0,0,0,0,0,0,-1,1735,1667,7.74724,-18.1563
518,-643,7.40564,0.922607,0,0,0,0,0,0,0,-1,1742,1667,7.4057,-0.922598
525,-643,0,0,0,0,0,0,0,0,0,-1,1749,1667,0,0
532,-643,0,0,0,0,0,0,0,0,0,-1,1756,1667,0,0
539,-643,0,0,0,0,0,0,0,0,0,-1,1763,1667,0,0
546,-643,0,0,0,0,0,0,0,0,0,-1,1770,1667,0,0
553,-643,0,0,0,0,0,0,0,0,0,-1,1777,1667,0,0
560,-643,0,0,0,0,0,0,0,0,0,-1,1784,1667,0,0
567,-643,0,0,0,0,0,0,0,0,0,-1,1791,1667,0,0
574,-643,0,0,0,0,0,0,0,0,0,-1,1798,1667,0,0
581,-643,0,0,0,0,0,0,0,0,0,-1,1805,1667,0,0
588,-643,0,0,0,0,0,0,0,0,0,-1,1812,1667,0,0
595,-643,0,0,0,0,0,0,0,0,0,-1,1819,1667,0,0
602,-643,0,0,0,0,0,0,0,0,0,-1,1826,1667,0,0
609,-643,0,0,0,0,0,0,0,0,0,-1,1833,1667,0,0
616,-643,0,0,0,0,0,0,0,0,0,-1,1840,1667,0,0
623,-643,0,0,0,0,0,0,0,0,0,-1,1847,1667,0,0
630,-643,0,0,0,0,0,0,0,0,0,-1,1854,1667,0,0
637,-643,0,0,0,0,0,0,0,0,0,-1,1861,1667,0,0
644,-643,0,0,0,0,0,0,0,0,0,-1,1868,1667,0,0
651,-643,0,0,0,0,0,0,0,0,0,-1,1875,1667,0,0
658,-643,0,0,0,0,0,0,0,0,0,-1,1882,1667,0,0
665,-643,0,0,0,0,0,0,0,0,0,-1,1889,1667,0,0
672,-643,0,0,0,0,0,0,0,0,0,-1,1896,1667,0,0
679,-643,0,0,0,0,0,0,0,0,0,-1,1903,1667,0,0
686,-643,0,0,0,0,0,0,0,0,0,-1,1910,1667,0,0
693,-643,0,0,0,0,0,0,0,0,0,-1,1917,1667,0,0
700,-643,0,0,0,0,0,0,0,0,0,-1,1924,1667,0,0
707,-643,0,0,0,0,0,0,0,0,0,-1,1931,1667,0,0
714,-643,0,0,0,0,0,0,0,0,0,-1,1938,1667,0,0
721,-643,0,0,0,0,0,0,0,0,0,-1,1945,1667,0,0
728,-643,0,0,0,0,0,0,0,0,0,-1,1952,1667,0,0
735,-643,0,0,0,0,0,0,0,0,0,-1,1959,1667,0,0
742,-643,0,0,0,0,0,0,0,0,0,-1,1966,1667,0,0
749,-643,0,0,0,0,0,0,0,0,0,-1,1973,1667,0,0
756,-643,0,0,0,0,0,0,0,0,0,-1,1980,1667,0,0
763,-643,0,0,0,0,0,0,0,0,0,-1,1987,1667,0,0
770,-643,0,0,0,0,0,0,0,0,0,-1,1994,1667,0,0
777,-643,0,0,0,0,0,0,0,0,0,-1,2001,1667,0,0
784,-643,0,0,0,0,0,0,0,0,0,-1,2008,1667,0,0
791,-643,0,0,0,0,0,0,0,0,0,-1,2015,1667,0,0
798,-643,0,0,0,0,0,0,0,0,0,-1,2022,1667,0,0
805,-643,0,0,0,0,0,0,0,0,0,-1,2029,1667,0,0
812,-643,0,0,0,0,0,0,0,0,0,-1,2036,1667,0,0
-700,-650,0,0,0,0,0,0,0,0,0,-1,524,1674,0,0
-693,-650,0,0,0,0,0,0,0,0,0,-1,531,1674,0,0
-686,-650,0,0,0,0,0,0,0,0,0,-1,538,1674,0,0
-679,-650,0,0,0,0,0,0,0,0,0,-1,545,1674,0,0
-672,-650,0,0,0,0,0,0,0,0,0,-1,552,1674,0,0
-665,-650,0,0,0,0,0,0,0,0,0,-1,559,1674,0,0
-658,-650,0,0,0,0,0,0,0,0,0,-1,566,1674,0,0
-651,-650,0,0,0,0,0,0,0,0,0,-1,573,1674,0,0
-644,-650,0,0,0,0,0,0,0,0,0,-1,580,1674,0,0
-637,-650,0,0,0,0,0,0,0,0,0,-1,587,1674,0,0
-630,-650,0,0,0,0,0,0,0,0,0,-1,594,1674,0,0
-623,-650,0,0,0,0,0,0,0,0,0,-1,601,1674,0,0
-616,-650,0,0,0,0,0,0,0,0,0,-1,608,1674,0,0
-609,-650,0,0,0,0,0,0,0,0,0,-1,615,1674,0,0
-602,-650,0,0,0,0,0,0,0,0,0,-1,622,1674,0,0
-595,-650,0,0,0,0,0,0,0,0,0,-1,629,1674,0,0
-588,-650,0,0,0,0,0,0,0,0,0,-1,636,1674,0,0
-581,-650,0,0,0,0,0,0,0,0,0,-1,643,1674,0,0
-574,-650,0,0,0,0,0,0,0,0,0,-1,650,1674,0,0
-567,-650,0,0,0,0,0,0,0,0,0,-1,657,1674,0,0
-560,-650,0,0,0,0,0,0,0,0,0,-1,664,1674,0,0
-553,-650,0,0,0,0,0,0,0,0,0,-1,671,1674,0,0
-546,-650,0,0,0,0,0,0,0,0,0,-1,678,1674,0,0
-539,-650,0,0,0,0,0,0,0,0,0,-1,685,1674,0,0
-532,-650,0,0,0,0,0,0,0,0,0,-1,692,1674,0,0
-525,-650,0,0,0,0,0,0,0,0,0,-1,699,1674,0,0
-518,-650,0,0,0,0,0,0,0,0,0,-1,706,1674,0,0
-511,-650,0,0,0,0,0,0,0,0,0,-1,713,1674,0,0
-504,-650,0,0,0,0,0,0,0,0,0,-1,720,1674,0,0
-497,-650,0,0,0,0,0,0,0,0,0,-1,727,1674,0,0
-490,-650,0,0,0,0,0,0,0,0,0,-1,734,1674,0,0
-483,-650,0,0,0,0,0,0,0,0,0,-1,741,1674,0,0
-476,-650,0,0,0,0,0,0,0,0,0,-1,748,1674,0,0
-469,-650,0,0,0,0,0,0,0,0,0,-1,755,1674,0,0
-462,-650,0,0,0,0,0,0,0,0,0,-1,762,1674,0,0
-455,-650,0,0,0,0,0,0,0,0,0,-1,769,1674,0,0
-448,-650,0,0,0,0,0,0,0,0,0,-1,776,1674,0,0
-441,-650,0,0,0,0,0,0,0,0,0,-1,783,1674,0,0
-434,-650,0,0,0,0,0,0,0,0,0,-1,790,1674,0,0
-427,-650,0,0,0,0,0,0,0,0,0,-1,797,1674,0,0
-420,-650,0,0,0,0,0,0,0,0,0,-1,804,1674,0,0
-413,-650,0,0,0,0,0,0,0,0,0,-1,811,1674,0,0
-406,-650,0,0,0,0,0,0,0,0,0,-1,818,1674,0,0
-399,-650,0,0,0,0,0,0,0,0,0,-1,825,1674,0,0
-392,-650,5.44415,6.85669,0,0,0,0,0,0,0,-1,832,1674,5.44414,-6.85674
-385,-650,1.74451,14.0183,0,0,0,0,0,0,0,-1,839,1674,1.74453,-14.0183
-378,-650,0.997986,4.11108,0,0,0,0,0,0,0,-1,846,1674,0.998006,-4.11113
-371,-650,-1.80096,3.78625,0,0,0,0,0,0,0,-1,853,1674,-1.80094,-3.78625
-364,-650,-2.95679,2.57507,0,0,0,0,0,0,0,-1,860,1674,-2.95681,-2.57506
-357,-650,1.97833,10.8362,0,0,0,0,0,0,0,-1,867,1674,1.97835,-10.8362
-350,-650,-5.30243,0.159912,0,0,0,0,0,0,0,-1,874,1674,-5.30244,-0.159866
-343,-650,5.88293,33.7437,0,0,0,0,0,0,0,-1,881,1674,5.88291,-33.7436
-336,-650,5.46069,34.989,0,0,0,0,0,0,0,-1,888,1674,5.46072,-34.989
-329,-650,5.01703,35.5864,0,0,0,0,0,0,0,-1,895,1674,5.01701,-35.5864
-322,-650,4.94867,36.6007,-0.000251239,8.95614e-05,0.00201447,0.00194082,-0.0021025,0.827592,0.00233503,0.0478259,902,1674,4.94867,-36.6007
-315,-650,4.99359,36.9761,-0.000862818,-0.000713143,0.00178793,0.00100152,-0.00257748,0.806314,0.00213207,0.0427528,909,1674,4.99357,-36.9761
-308,-650,5.03546,37.547,-0.00114656,-0.00133418,0.00164715,0.000409453,-0.00289019,0.756952,0.00207678,0.0260569,916,1674,5.03546,-37.547
-301,-650,5.0155,38.2318,-0.00119537,-0.0017903,0.00156283,9.80493e-05,-0.00308372,0.691355,0.00208926,0.0134656,923,1674,5.01551,-38.2318
-294,-650,4.94452,38.817,-0.000931137,-0.00188196,0.00154494,0.000209882,-0.00302298,0.636135,0.0020888,0.0105869,930,1674,4.9445,-38.817
-287,-650,4.90289,39.3945,-0.000733465,-0.00172723,0.00140772,0.000262494,-0.00272319,0.615739,0.00190898,0.013277,937,1674,4.90287,-39.3945
-280,-650,4.87408,39.9705,-0.000529309,-0.00128792,0.00134321,0.000487128,-0.00230435,0.647788,0.00172174,0.0148496,944,1674,4.87408,-39.9705
-273,-650,4.8363,40.5775,-0.000226302,-0.000806832,0.00129095,0.000806615,-0.00183975,0.674814,0.00156621,0.014122,951,1674,4.83629,-40.5776
-266,-650,4.8089,41.1268,0.000172747,-0.000150541,0.00139545,0.00141588,-0.00139368,0.727737,0.00162212,0.0120643,958,1674,4.80891,-41.1268
-259,-650,4.79053,41.656,0.00051641,0.000420527,0.00127687,0.00174624,-0.000809301,0.766634,0.00150813,0.0146677,965,1674,4.79053,-41.656
-252,-650,4.77808,42.223,0.000892148,0.00138281,0.00118738,0.00234994,-7.49775e-05,0.887273,0.00159221,0.0135637,972,1674,4.77805,-42.223
-245,-650,4.75336,42.7563,0.00135568,0.00173168,0.00102472,0.00258551,0.000501856,0.876121,0.00158313,0.0132355,979,1674,4.75339,-42.7563
-238,-650,4.73657,43.3268,0.00165097,0.00198184,0.00091909,0.00275027,0.000882548,0.874444,0.00162147,0.0143798,986,1674,4.73654,-43.3268
-231,-650,4.70978,43.9091,0.00193632,0.0015091,0.000888788,0.00263681,0.000808613,0.667466,0.00155984,0.0186221,993,1674,4.70979,-43.909
-224,-650,4.69916,44.4139,0.00253926,0.00132374,0.00114967,0.00323193,0.000631067,0.542251,0.00197811,0.0141991,1000,1674,4.69915,-44.4139
-217,-650,4.71368,44.8635,0.00306798,0.000841016,0.00141357,0.00375395,0.00015505,0.451797,0.00245258,0.0100428,1007,1674,4.71366,-44.8635
-210,-650,4.73224,45.3555,0.00363583,0.000452349,0.00189912,0.00452206,-0.000433872,0.436612,0.00316924,0.0102327,1014,1674,4.73225,-45.3554
-203,-650,4.76892,45.86,0.00418141,0.000421866,0.00258178,0.00549524,-0.000891969,0.470732,0.00399416,0.0150614,1021,1674,4.76893,-45.86
-196,-650,4.76099,46.3431,0.00471075,0.000265776,0.0033164,0.0064805,-0.00150398,0.490193,0.00489922,0.0136862,1028,1674,4.76104,-46.3431
-189,-650,4.73975,46.8386,0.00523583,0.000637637,0.00422762,0.00774908,-0.00187561,0.536352,0.00589163,0.0111238,1035,1674,4.73969,-46.8387
-182,-650,4.7948,47.3951,0.00575045,0.00184412,0.00522791,0.00937814,-0.00178357,0.606625,0.00692362,0.0113985,1042,1674,4.7948,-47.3952
-175,-650,4.83105,47.8002,0.00626357,0.00371878,0.00643639,0.0115521,-0.00156978,0.687812,0.00827446,0.0180244,1049,1674,4.83101,-47.8002
-168,-650,4.82043,48.2354,0.00668002,0.00654375,0.00776943,0.0143816,-0.00115785,0.781014,0.00999607,0.0233408,1056,1674,4.82047,-48.2354
-161,-650,4.76965,48.6852,0.00714118,0.0101917,0.00910937,0.0179026,-0.000569748,0.868348,0.0121295,0.032629,1063,1674,4.76968,-48.6852
-154,-650,4.79932,49.1151,0.00748347,0.0146262,0.0102381,0.021898,0.000211672,0.953214,0.0145286,0.0371621,1070,1674,4.79937,-49.1151
-147,-650,4.94543,49.5952,0,0,0,0,0,0,0,-1,1077,1674,4.94541,-49.5952
-140,-650,4.76416,50.828,0,0,0,0,0,0,0,-1,1084,1674,4.7642,-50.828
-133,-650,4.64465,51.3945,0,0,0,0,0,0,0,-1,1091,1674,4.64471,-51.3945
-126,-650,5.09399,51.1843,0,0,0,0,0,0,0,-1,1098,1674,5.09405,-51.1844
-119,-650,5.16663,20.6232,0,0,0,0,0,0,0,-1,1105,1674,5.16665,-20.6232
-112,-650,3.86292,14.4513,0,0,0,0,0,0,0,-1,1112,1674,3.8629,-14.4513
-105,-650,7.92102,38.1313,0,0,0,0,0,0,0,-1,1119,1674,7.92104,-38.1314
-98,-650,3.3761,6.78003,0,0,0,0,0,0,0,-1,1126,1674,3.37611,-6.78009
-91,-650,3.66809,7.04443,0,0,0,0,0,0,0,-1,1133,1674,3.66806,-7.04439
-84,-650,-3.82666,-1.59521,0,0,0,0,0,0,0,-1,1140,1674,-3.82661,1.59517
-77,-650,-4.70557,1.90198,0,0,0,0,0,0,0,-1,1147,1674,-4.7056,-1.90194
-70,-650,-4.88171,3.81653,0,0,0,0,0,0,0,-1,1154,1674,-4.88176,-3.81651
-63,-650,-5.14612,5.56543,0,0,0,0,0,0,0,-1,1161,1674,-5.14612,-5.56547
-56,-650,-5.38367,7.41101,0,0,0,0,0,0,0,-1,1168,1674,-5.38361,-7.41102
-49,-650,-5.11316,8.23706,0,0,0,0,0,0,0,-1,1175,1674,-5.11317,-8.23708
-42,-650,-4.99487,9.6792,0,0,0,0,0,0,0,-1,1182,1674,-4.99484,-9.67921
-35,-650,-4.77771,11.3369,0,0,0,0,0,0,0,-1,1189,1674,-4.77769,-11.3369
-28,-650,-4.1936,13.1501,0,0,0,0,0,0,0,-1,1196,1674,-4.19358,-13.1501
-21,-650,7.52466,48.5822,0,0,0,0,0,0,0,-1,1203,1674,7.52469,-48.5821
-14,-650,5.28503,55.3047,0,0,0,0,0,0,0,-1,1210,1674,5.28505,-55.3047
-7,-650,6.04114,55.3446,0,0,0,0,0,0,0,-1,1217,1674,6.04109,-55.3446
0,-650,6.01135,55.7705,0,0,0,0,0,0,0,-1,1224,1674,6.01132,-55.7705
7,-650,7.63586,56.2134,0.177465,0.021229,0.0035181,0.177544,0.0211498,0.0225026,0.111981,0.0434392,1231,1674,7.63586,-56.2133
14,-650,7.68958,57.4073,0.143056,0.0160945,0.0095893,0.143776,0.0153743,0.0749627,0.0911589,0.0418582,1238,1674,7.6896,-57.4074
21,-650,10.9493,49.4003,0.106964,0.00573576,0.0103349,0.108008,0.00469138,0.100711,0.0704935,0.0464058,1245,1674,10.9493,-49.4003
28,-650,10.3102,50.0674,0,0,0,0,0,0,0,-1,1252,1674,10.3102,-50.0674
35,-650,9.19568,50.754,0,0,0,0,0,0,0,-1,1259,1674,9.19572,-50.754
42,-650,8.33569,51.2953,0,0,0,0,0,0,0,-1,1266,1674,8.33567,-51.2953
49,-650,7.62805,51.4453,-0.00186743,-0.0411616,-0.00713223,-0.000612926,-0.0424161,-0.174112,0.0280753,0.0444701,1273,1674,7.62806,-51.4453
56,-650,6.88342,51.576,-0.0187235,-0.0471623,-0.0131023,-0.0136074,-0.0522784,-0.372266,0.0313179,0.0457052,1280,1674,6.88341,-51.5761
63,-650,6.14917,51.9407,-0.0366008,-0.0521866,-0.015221,-0.0272937,-0.0614937,-0.548804,0.0355779,0.0459638,1287,1674,6.14917,-51.9407
70,-650,5.74133,52.7687,0,0,0,0,0,0,0,-1,1294,1674,5.74134,-52.7687
77,-650,5.81311,54.1425,0,0,0,0,0,0,0,-1,1301,1674,5.81311,-54.1425
84,-650,5.54407,54.2604,-0.0532604,-0.0451112,-0.0341958,-0.0147481,-0.0836235,-0.844695,0.0515412,0.0475993,1308,1674,5.54409,-54.2603
91,-650,4.93091,54.9702,-0.0522679,-0.0358073,-0.0371554,-0.00598156,-0.0820936,-0.894394,0.0528482,0.0476794,1315,1674,4.93091,-54.9702
98,-650,4.75305,54.8781,-0.0503099,-0.0227556,-0.0403198,0.00607586,-0.0791414,-0.950028,0.0548984,0.0453743,1322,1674,4.75304,-54.8781
105,-650,4.80615,54.7563,0,0,0,0,0,0,0,-1,1329,1674,4.80613,-54.7564
112,-650,5.01086,54.3939,-0.0466762,0.00937541,-0.0459899,0.0352061,-0.0725068,-1.05905,0.0634189,0.0429452,1336,1674,5.01084,-54.3939
119,-650,3.96948,55.2368,-0.0453445,0.0243144,-0.0491681,0.0497394,-0.0707695,-1.09356,0.0699281,0.0420699,1343,1674,3.96946,-55.2368
126,-650,3.547,54.9592,-0.0451302,0.0408556,-0.0517485,0.0651405,-0.0694151,-1.13202,0.0776988,0.0485255,1350,1674,3.54697,-54.9593
133,-650,3.1366,54.6556,0,0,0,0,0,0,0,-1,1357,1674,3.13658,-54.6557
140,-650,8.20728,56.6472,0,0,0,0,0,0,0,-1,1364,1674,8.20724,-56.6472
147,-650,10.6768,53.3942,0,0,0,0,0,0,0,-1,1371,1674,10.6768,-53.3941
154,-650,10.7704,52.9136,0,0,0,0,0,0,0,-1,1378,1674,10.7704,-52.9136
161,-650,4.09106,30.3021,0,0,0,0,0,0,0,-1,1385,1674,4.09104,-30.3021
168,-650,11.2113,7.87231,0,0,0,0,0,0,0,-1,1392,1674,11.2113,-7.87236
175,-650,5.62537,-0.230713,0,0,0,0,0,0,0,-1,1399,1674,5.62538,0.230745
182,-650,5.56006,0.421631,0,0,0,0,0,0,0,-1,1406,1674,5.56,-0.421652
189,-650,4.81543,11.0654,0,0,0,0,0,0,0,-1,1413,1674,4.81542,-11.0654
196,-650,5.39575,11.9077,0,0,0,0,0,0,0,-1,1420,1674,5.39575,-11.9078
203,-650,3.93628,11.8215,0,0,0,0,0,0,0,-1,1427,1674,3.93624,-11.8216
210,-650,5.40955,8.08594,0,0,0,0,0,0,0,-1,1434,1674,5.40958,-8.086
217,-650,5.12451,4.69739,0,0,0,0,0,0,0,-1,1441,1674,5.12451,-4.69738
224,-650,4.79041,1.45813,0,0,0,0,0,0,0,-1,1448,1674,4.79046,-1.45816
231,-650,4.04102,-0.642212,0,0,0,0,0,0,0,-1,1455,1674,4.04101,0.642209
238,-650,3.23022,-1.43396,0,0,0,0,0,0,0,-1,1462,1674,3.23023,1.43394
245,-650,1.65894,-2.55042,0,0,0,0,0,0,0,-1,1469,1674,1.65889,2.55036
252,-650,8.75342,0.355103,0,0,0,0,0,0,0,-1,1476,1674,8.75337,-0.355147
259,-650,5.61255,3.17566,0,0,0,0,0,0,0,-1,1483,1674,5.61257,-3.17572
266,-650,4.00403,6.10229,0,0,0,0,0,0,0,-1,1490,1674,4.00401,-6.10225
273,-650,11.9524,42.7109,0,0,0,0,0,0,0,-1,1497,1674,11.9524,-42.7109
280,-650,12.3011,46.7283,0,0,0,0,0,0,0,-1,1504,1674,12.3011,-46.7283
287,-650,12.416,48.8248,0,0,0,0,0,0,0,-1,1511,1674,12.416,-48.8249
294,-650,12.8127,48.5399,0.0108958,0.00732109,-0.00103231,0.0111725,0.00704439,-0.261881,0.00652327,0.0438558,1518,1674,12.8127,-48.5399
301,-650,12.8601,48.0387,0.00967614,0.00723344,-0.000852829,0.00994443,0.00696516,-0.304781,0.00589314,0.0331929,1525,1674,12.8601,-48.0387
308,-650,12.9346,47.5646,0.0085163,0.00732688,-0.000943652,0.00903701,0.00680617,-0.504225,0.00543585,0.0197473,1532,1674,12.9346,-47.5645
315,-650,12.9996,47.0625,0.00758207,0.00830559,-0.00162032,0.00960405,0.00628361,-0.89523,0.00563218,0.0117857,1539,1674,12.9996,-47.0626
322,-650,12.9851,46.6099,0.00672658,0.00864486,-0.00218882,0.0100755,0.00529597,-0.991896,0.00581962,0.0114052,1546,1674,12.9852,-46.6099
329,-650,12.9868,46.1125,0.00596091,0.00861799,-0.00258383,0.0101948,0.00438408,-1.02286,0.00590517,0.0176277,1553,1674,12.9869,-46.1126
336,-650,13.0149,45.6533,0.00521581,0.00848294,-0.00278885,0.0100814,0.00361731,-1.05034,0.00589737,0.0158502,1560,1674,13.0149,-45.6534
343,-650,13.0441,45.171,0.00441234,0.00831688,-0.00293591,0.00989036,0.00283886,-1.07881,0.00588033,0.0154989,1567,1674,13.0441,-45.171
350,-650,13.0536,44.6508,0.00370408,0.00782199,-0.0030373,0.00943244,0.00209364,-1.08326,0.0057196,0.0168841,1574,1674,13.0536,-44.6507
357,-650,13.0046,44.1543,0.00305196,0.00721019,-0.00300882,0.00878836,0.00147379,-1.08773,0.00543467,0.0136919,1581,1674,13.0047,-44.1543
364,-650,13.0044,43.6691,0.00261128,0.00653635,-0.00299176,0.00815183,0.000995804,-1.07568,0.00513491,0.00963756,1588,1674,13.0044,-43.6691
371,-650,12.9993,43.1467,0.00238305,0.00575659,-0.00294329,0.00746218,0.000677452,-1.0456,0.00476505,0.0117873,1595,1674,12.9992,-43.1467
378,-650,12.9701,42.6409,0.00219597,0.00486088,-0.0028741,0.00669637,0.000360479,-1.00245,0.00434907,0.013037,1602,1674,12.9701,-42.6409
385,-650,12.9729,42.1191,0.00212111,0.00417769,-0.00285737,0.00618616,0.00011264,-0.95812,0.00408708,0.0141203,1609,1674,12.9729,-42.1191
392,-650,12.9679,41.5944,0.00228463,0.00380714,-0.00293805,0.00608095,1.08138e-05,-0.912162,0.00405037,0.0168749,1616,1674,12.9679,-41.5944
399,-650,12.9408,41.0607,0.00245386,0.00348878,-0.00315099,0.00616452,-0.000221873,-0.866782,0.0041856,0.0156108,1623,1674,12.9407,-41.0607
406,-650,12.9138,40.516,0.00268039,0.00348775,-0.00350678,0.006614,-0.000445871,-0.842703,0.00456522,0.0153664,1630,1674,12.9138,-40.516
413,-650,12.8922,39.9746,0.00298989,0.00380274,-0.00395364,0.00737079,-0.000578159,-0.836617,0.00511748,0.0165409,1637,1674,12.8923,-39.9746
420,-650,12.8638,39.4508,0.00343549,0.00449476,-0.00455913,0.00855492,-0.000624667,-0.843224,0.00592249,0.0167582,1644,1674,12.8637,-39.4509
427,-650,12.8574,38.8948,0.00397062,0.00547638,-0.00530159,0.0100783,-0.000631282,-0.855932,0.00693886,0.015116,1651,1674,12.8574,-38.8948
434,-650,12.8054,38.3418,0.00448871,0.00668153,-0.00605663,0.0117402,-0.000569949,-0.874942,0.00802353,0.0187815,1658,1674,12.8054,-38.3419
441,-650,12.8137,37.7805,0.00491169,0.00813764,-0.00677597,0.01349,-0.000440632,-0.902245,0.00914373,0.0303159,1665,1674,12.8137,-37.7805
448,-650,12.8595,37.2009,0.0052911,0.0097326,-0.00758109,0.0154115,-0.000387809,-0.927878,0.010406,0.0409325,1672,1674,12.8595,-37.2009
455,-650,12.7797,36.4956,0.00566309,0.0113365,-0.00842859,0.017393,-0.000393336,-0.947724,0.0117286,0.0449633,1679,1674,12.7797,-36.4956
462,-650,12.7094,35.8749,0,0,0,0,0,0,0,-1,1686,1674,12.7093,-35.8749
469,-650,11.3628,29.8889,0,0,0,0,0,0,0,-1,1693,1674,11.3628,-29.8889
476,-650,10.9189,27.1289,0,0,0,0,0,0,0,-1,1700,1674,10.919,-27.1289
483,-650,10.2426,24.5127,0,0,0,0,0,0,0,-1,1707,1674,10.2425,-24.5127
490,-650,10.4818,24.3475,0,0,0,0,0,0,0,-1,1714,1674,10.4818,-24.3475
497,-650,10.4985,20.1362,0,0,0,0,0,0,0,-1,1721,1674,10.4986,-20.1362
504,-650,9.69458,18.7721,0,0,0,0,0,0,0,-1,1728,1674,9.6946,-18.772
511,-650,9.37158,17.7506,0,0,0,0,0,0,0,-1,1735,1674,9.37159,-17.7506
518,-650,0,0,0,0,0,0,0,0,0,-1,1742,1674,0,0
525,-650,0,0,0,0,0,0,0,0,0,-1,1749,1674,0,0
532,-650,0,0,0,0,0,0,0,0,0,-1,1756,1674,0,0
539,-650,0,0,0,0,0,0,0,0,0,-1,1763,1674,0,0
546,-650,0,0,0,0,0,0,0,0,0,-1,1770,1674,0,0
553,-650,0,0,0,0,0,0,0,0,0,-1,1777,1674,0,0
560,-650,0,0,0,0,0,0,0,0,0,-1,1784,1674,0,0
567,-650,0,0,0,0,0,0,0,0,0,-1,1791,1674,0,0
574,-650,0,0,0,0,0,0,0,0,0,-1,1798,1674,0,0
581,-650,0,0,0,0,0,0,0,0,0,-1,1805,1674,0,0
588,-650,0,0,0,0,0,0,0,0,0,-1,1812,1674,0,0
595,-650,0,0,0,0,0,0,0,0,0,-1,1819,1674,0,0
602,-650,0,0,0,0,0,0,0,0,0,-1,1826,1674,0,0
609,-650,0,0,0,0,0,0,0,0,0,-1,1833,1674,0,0
616,-650,0,0,0,0,0,0,0,0,0,-1,1840,1674,0,0
623,-650,0,0,0,0,0,0,0,0,0,-1,1847,1674,0,0
630,-650,0,0,0,0,0,0,0,0,0,-1,1854,1674,0,0
637,-650,0,0,0,0,0,0,0,0,0,-1,1861,1674,0,0
644,-650,0,0,0,0,0,0,0,0,0,-1,1868,1674,0,0
651,-650,0,0,0,0,0,0,0,0,0,-1,1875,1674,0,0
658,-650,0,0,0,0,0,0,0,0,0,-1,1882,1674,0,0
665,-650,0,0,0,0,0,0,0,0,0,-1,1889,1674,0,0
672,-650,0,0,0,0,0,0,0,0,0,-1,1896,1674,0,0
679,-650,0,0,0,0,0,0,0,0,0,-1,1903,1674,0,0
686,-650,0,0,0,0,0,0,0,0,0,-1,1910,1674,0,0
693,-650,0,0,0,0,0,0,0,0,0,-1,1917,1674,0,0
700,-650,0,0,0,0,0,0,0,0,0,-1,1924,1674,0,0
707,-650,0,0,0,0,0,0,0,0,0,-1,1931,1674,0,0
714,-650,0,0,0,0,0,0,0,0,0,-1,1938,1674,0,0
721,-650,0,0,0,0,0,0,0,0,0,-1,1945,1674,0,0
728,-650,0,0,0,0,0,0,0,0,0,-1,1952,1674,0,0
735,-650,0,0,0,0,0,0,0,0,0,-1,1959,1674,0,0
742,-650,0,0,0,0,0,0,0,0,0,-1,1966,1674,0,0
749,-650,0,0,0,0,0,0,0,0,0,-1,1973,1674,0,0
756,-650,0,0,0,0,0,0,0,0,0,-1,1980,1674,0,0
763,-650,0,0,0,0,0,0,0,0,0,-1,1987,1674,0,0
770,-650,0,0,0,0,0,0,0,0,0,-1,1994,1674,0,0
777,-650,0,0,0,0,0,0,0,0,0,-1,2001,1674,0,0
784,-650,0,0,0,0,0,0,0,0,0,-1,2008,1674,0,0
791,-650,0,0,0,0,0,0,0,0,0,-1,2015,1674,0,0
798,-650,0,0,0,0,0,0,0,0,0,-1,2022,1674,0,0
805,-650,0,0,0,0,0,0,0,0,0,-1,2029,1674,0,0
812,-650,0,0,0,0,0,0,0,0,0,-1,2036,1674,0,0
-700,-657,0,0,0,0,0,0,0,0,0,-1,524,1681,0,0
-693,-657,0,0,0,0,0,0,0,0,0,-1,531,1681,0,0
-686,-657,0,0,0,0,0,0,0,0,0,-1,538,1681,0,0
-679,-657,0,0,0,0,0,0,0,0,0,-1,545,1681,0,0
-672,-657,0,0,0,0,0,0,0,0,0,-1,552,1681,0,0
-665,-657,0,0,0,0,0,0,0,0,0,-1,559,1681,0,0
-658,-657,0,0,0,0,0,0,0,0,0,-1,566,1681,0,0
-651,-657,0,0,0,0,0,0,0,0,0,-1,573,1681,0,0
-644,-657,0,0,0,0,0,0,0,0,0,-1,580,1681,0,0
-637,-657,0,0,0,0,0,0,0,0,0,-1,587,1681,0,0
-630,-657,0,0,0,0,0,0,0,0,0,-1,594,1681,0,0
-623,-657,0,0,0,0,0,0,0,0,0,-1,601,1681,0,0
-616,-657,0,0,0,0,0,0,0,0,0,-1,608,1681,0,0
-609,-657,0,0,0,0,0,0,0,0,0,-1,615,1681,0,0
-602,-657,0,0,0,0,0,0,0,0,0,-1,622,1681,0,0
-595,-657,0,0,0,0,0,0,0,0,0,-1,629,1681,0,0
-588,-657,0,0,0,0,0,0,0,0,0,-1,636,1681,0,0
-581,-657,0,0,0,0,0,0,0,0,0,-1,643,1681,0,0
-574,-657,0,0,0,0,0,0,0,0,0,-1,650,1681,0,0
-567,-657,0,0,0,0,0,0,0,0,0,-1,657,1681,0,0
-560,-657,0,0,0,0,0,0,0,0,0,-1,664,1681,0,0
-553,-657,0,0,0,0,0,0,0,0,0,-1,671,1681,0,0
-546,-657,0,0,0,0,0,0,0,0,0,-1,678,1681,0,0
-539,-657,0,0,0,0,0,0,0,0,0,-1,685,1681,0,0
-532,-657,0,0,0,0,0,0,0,0,0,-1,692,1681,0,0
-525,-657,0,0,0,0,0,0,0,0,0,-1,699,1681,0,0
-518,-657,0,0,0,0,0,0,0,0,0,-1,706,1681,0,0
-511,-657,0,0,0,0,0,0,0,0,0,-1,713,1681,0,0
-504,-657,0,0,0,0,0,0,0,0,0,-1,720,1681,0,0
-497,-657,0,0,0,0,0,0,0,0,0,-1,727,1681,0,0
-490,-657,0,0,0,0,0,0,0,0,0,-1,734,1681,0,0
-483,-657,0,0,0,0,0,0,0,0,0,-1,741,1681,0,0
-476,-657,0,0,0,0,0,0,0,0,0,-1,748,1681,0,0
-469,-657,0,0,0,0,0,0,0,0,0,-1,755,1681,0,0
-462,-657,0,0,0,0,0,0,0,0,0,-1,762,1681,0,0
-455,-657,0,0,0,0,0,0,0,0,0,-1,769,1681,0,0
-448,-657,0,0,0,0,0,0,0,0,0,-1,776,1681,0,0
-441,-657,0,0,0,0,0,0,0,0,0,-1,783,1681,0,0
-434,-657,0,0,0,0,0,0,0,0,0,-1,790,1681,0,0
-427,-657,0,0,0,0,0,0,0,0,0,-1,797,1681,0,0
-420,-657,0,0,0,0,0,0,0,0,0,-1,804,1681,0,0
-413,-657,0,0,0,0,0,0,0,0,0,-1,811,1681,0,0
-406,-657,0,0,0,0,0,0,0,0,0,-1,818,1681,0,0
-399,-657,0,0,0,0,0,0,0,0,0,-1,825,1681,0,0
-392,-657,0,0,0,0,0,0,0,0,0,-1,832,1681,0,0
-385,-657,1.09814,6.18896,0,0,0,0,0,0,0,-1,839,1681,1.09814,-6.18894
-378,-657,0.31488,4.46753,0,0,0,0,0,0,0,-1,846,1681,0.31487,-4.46755
-371,-657,-0.519043,2.69421,0,0,0,0,0,0,0,-1,853,1681,-0.519064,-2.69422
-364,-657,-3.42017,4.18323,0,0,0,0,0,0,0,-1,860,1681,-3.42019,-4.18319
-357,-657,-4.41913,2.97168,0,0,0,0,0,0,0,-1,867,1681,-4.41913,-2.97165
-350,-657,-5.42291,1.70276,0,0,0,0,0,0,0,-1,874,1681,-5.42291,-1.70277
-343,-657,4.36414,33.4623,0,0,0,0,0,0,0,-1,881,1681,4.36411,-33.4623
-336,-657,4.56995,35.6785,0,0,0,0,0,0,0,-1,888,1681,4.56993,-35.6784
-329,-657,5.28461,36.0762,0,0,0,0,0,0,0,-1,895,1681,5.28461,-36.0761
-322,-657,5.85547,36.5724,-0.000766038,-0.000421367,0.00215146,0.00156465,-0.00275205,0.825364,0.00252348,0.0476299,902,1681,5.85545,-36.5724
-315,-657,5.67523,36.8705,-0.00136119,-0.00144156,0.0021031,0.00070211,-0.00350487,0.775846,0.00260238,0.0442747,909,1681,5.67523,-36.8705
-308,-657,5.64429,37.7115,-0.00160967,-0.00233499,0.00204021,9.98636e-05,-0.00404453,0.69744,0.00273025,0.0382322,916,1681,5.64431,-37.7116
-301,-657,5.552,38.3052,-0.00160892,-0.00298848,0.00199571,-0.000187149,-0.00441025,0.61901,0.00287981,0.0312284,923,1681,5.55202,-38.3052
-294,-657,5.51208,38.876,-0.00126132,-0.00315141,0.00196946,-2.18984e-05,-0.00439083,0.561699,0.00291995,0.01752,930,1681,5.51208,-38.876
-287,-657,5.46448,39.4489,-0.00102853,-0.00301627,0.00178158,1.76474e-05,-0.00406245,0.53097,0.0027142,0.0119114,937,1681,5.46445,-39.4489
-280,-657,5.41064,39.9987,-0.00092075,-0.00248372,0.00162942,0.000104897,-0.00350937,0.561797,0.00237532,0.0147023,944,1681,5.41062,-39.9987
-273,-657,5.39276,40.593,-0.000731127,-0.00186741,0.00150048,0.000305166,-0.00290371,0.604418,0.00204513,0.0111819,951,1681,5.39274,-40.593
-266,-657,5.35632,41.1416,-0.000400399,-0.0010679,0.00158828,0.000888821,-0.00235712,0.681839,0.0019369,0.0154214,958,1681,5.35631,-41.1416
-259,-657,5.32947,41.6682,-0.000166514,-0.00041118,0.00140042,0.00111691,-0.0016946,0.741832,0.00163461,0.0189343,965,1681,5.32949,-41.6682
-252,-657,5.29944,42.2094,9.83446e-05,0.000678935,0.00130802,0.00172849,-0.000951208,0.894596,0.00156867,0.013376,972,1681,5.29944,-42.2093
-245,-657,5.2915,42.7667,0.000475392,0.00100107,0.00110304,0.00187216,-0.000395689,0.902361,0.00139878,0.0163427,979,1681,5.2915,-42.7667
-238,-657,5.31665,43.3267,0.00068832,0.00142348,0.000939834,0.00206506,4.67412e-05,0.971809,0.00136139,0.0212353,986,1681,5.31665,-43.3267
-231,-657,5.28168,43.8921,0.000879009,0.00150774,0.0009161,0.00216191,0.000224838,0.950681,0.00137248,0.0212547,993,1681,5.28168,-43.8921
-224,-657,5.23578,44.4171,0.00134558,0.00151889,0.00110406,0.00253969,0.000324779,0.824561,0.00159592,0.0165506,1000,1681,5.23579,-44.4171
-217,-657,5.23944,44.9252,0.00185519,0.00118743,0.00127718,0.00284141,0.000201216,0.65755,0.00183089,0.0110963,1007,1681,5.23945,-44.9252
-210,-657,5.255,45.4106,0.0024213,0.000894759,0.00160542,0.00343565,-0.000119592,0.563496,0.00233132,0.0114121,1014,1681,5.25498,-45.4107
-203,-657,5.23474,45.8983,0.00296687,0.000921392,0.00208718,0.00426842,-0.000380161,0.557587,0.00298043,0.0134634,1021,1681,5.23474,-45.8983
-196,-657,5.21997,46.3763,0.00349455,0.000893156,0.00260534,0.00510583,-0.000718118,0.553877,0.00366677,0.0134061,1028,1681,5.21995,-46.3764
-189,-657,5.22644,46.8606,0.00398703,0.00130131,0.00323127,0.00614337,-0.000855025,0.588465,0.00440831,0.00967442,1035,1681,5.22648,-46.8606
-182,-657,5.23633,47.3496,0.00449631,0.00239852,0.00390621,0.007492,-0.000597173,0.654232,0.00520515,0.00875069,1042,1681,5.23638,-47.3496
-175,-657,5.25549,47.8062,0.00506256,0.00390414,0.00472926,0.00924795,-0.000281243,0.724465,0.00626115,0.0120527,1049,1681,5.25552,-47.8062
-168,-657,5.22559,48.2684,0.00548922,0.00606766,0.00559104,0.011377,0.000179925,0.81124,0.00752538,0.0149396,1056,1681,5.22553,-48.2685
-161,-657,5.22876,48.7531,0.0059286,0.00880281,0.00645976,0.0139834,0.000748016,0.894851,0.0090832,0.0152739,1063,1681,5.22876,-48.753
-154,-657,5.32007,49.1608,0.00631918,0.0120491,0.00717443,0.0169095,0.00145883,0.975362,0.0108195,0.0177191,1070,1681,5.32003,-49.1607
-147,-657,5.35657,49.5916,0.00662928,0.0154818,0.00776344,0.0199922,0.00211896,1.04449,0.0126809,0.0306446,1077,1681,5.3566,-49.5915
-140,-657,5.28833,50.3082,0.00681317,0.019,0.00808642,0.0230318,0.00278139,1.10828,0.0145165,0.0418151,1084,1681,5.28828,-50.3082
-133,-657,5.20972,50.896,0.00728949,0.0229572,0.00836028,0.0265804,0.00366632,1.16185,0.0166334,0.0459161,1091,1681,5.20969,-50.896
-126,-657,5.18787,51.4149,0,0,0,0,0,0,0,-1,1098,1681,5.18787,-51.4149
-119,-657,5.78613,51.3567,0,0,0,0,0,0,0,-1,1105,1681,5.78619,-51.3567
-112,-657,6.24219,42.9092,0,0,0,0,0,0,0,-1,1112,1681,6.24217,-42.9092
-105,-657,7.37256,41.0361,0,0,0,0,0,0,0,-1,1119,1681,7.37254,-41.0362
-98,-657,8.14404,38.4435,0,0,0,0,0,0,0,-1,1126,1681,8.14405,-38.4435
-91,-657,3.6521,16.6017,0,0,0,0,0,0,0,-1,1133,1681,3.65215,-16.6017
-84,-657,4.08008,10.4579,0,0,0,0,0,0,0,-1,1140,1681,4.08006,-10.4579
-77,-657,-5.29846,0.396606,0,0,0,0,0,0,0,-1,1147,1681,-5.29842,-0.396573
-70,-657,-4.14893,2.14575,0,0,0,0,0,0,0,-1,1154,1681,-4.14893,-2.1458
-63,-657,-4.1239,3.177,0,0,0,0,0,0,0,-1,1161,1681,-4.12391,-3.17698
-56,-657,-6.40576,5.73987,0,0,0,0,0,0,0,-1,1168,1681,-6.40577,-5.7399
-49,-657,-5.98462,7.54053,0,0,0,0,0,0,0,-1,1175,1681,-5.98466,-7.5405
-42,-657,-5.71948,9.28955,0,0,0,0,0,0,0,-1,1182,1681,-5.71951,-9.2895
-35,-657,-5.44556,11.015,0,0,0,0,0,0,0,-1,1189,1681,-5.44555,-11.015
-28,-657,-1.3446,8.92847,0,0,0,0,0,0,0,-1,1196,1681,-1.34459,-8.92848
-21,-657,4.78357,54.863,0,0,0,0,0,0,0,-1,1203,1681,4.78362,-54.8631
-14,-657,5.44897,55.0131,0,0,0,0,0,0,0,-1,1210,1681,5.44899,-55.0131
-7,-657,6.13318,55.3142,0.179098,0.00324838,-0.0115726,0.179856,0.00249007,-0.0654333,0.119083,0.0471146,1217,1681,6.13312,-55.3142
0,-657,6.57397,55.6313,0.165174,0.0119281,-0.00255471,0.165216,0.0118855,-0.0166645,0.106404,0.0465501,1224,1681,6.57401,-55.6313
7,-657,6.97009,55.9242,0,0,0,0,0,0,0,-1,1231,1681,6.97005,-55.9242
14,-657,7.94067,57.1757,0.120944,0.00895328,0.00713352,0.121396,0.00850072,0.0633562,0.0782515,0.0429024,1238,1681,7.9407,-57.1757
21,-657,8.354,58.3254,0.0940783,0.000699928,0.00599696,0.0944619,0.00031637,0.0638724,0.0628694,0.0422858,1245,1681,8.35397,-58.3254
28,-657,8.57642,58.8861,0.0670169,-0.00937767,0.00225147,0.0670832,-0.00944396,0.0294376,0.0481796,0.0473501,1252,1681,8.57636,-58.8861
35,-657,9.35486,51.1036,0,0,0,0,0,0,0,-1,1259,1681,9.3549,-51.1037
42,-657,8.55457,51.2815,0.0217424,-0.0303649,-0.00832897,0.0230413,-0.0316638,-0.154709,0.0317145,0.0438754,1266,1681,8.5546,-51.2815
49,-657,7.65601,51.4259,0.0039632,-0.0394033,-0.0137876,0.00797549,-0.0434156,-0.283186,0.0319359,0.0450665,1273,1681,7.65602,-51.4259
56,-657,7.55359,56.8911,-0.0114019,-0.0451978,-0.01938,-0.00258746,-0.0540122,-0.426854,0.0351774,0.0453341,1280,1681,7.55356,-56.8911
63,-657,7.29712,56.6808,-0.0271994,-0.0500528,-0.0216854,-0.0141143,-0.0631378,-0.542919,0.0382649,0.0486144,1287,1681,7.29715,-56.6807
70,-657,6.2229,55.2941,0,0,0,0,0,0,0,-1,1294,1681,6.22286,-55.294
77,-657,6.01892,54.9893,0,0,0,0,0,0,0,-1,1301,1681,6.01896,-54.9893
84,-657,5.9115,54.8965,-0.043735,-0.0454493,-0.0379427,-0.00663973,-0.0825445,-0.774104,0.0529554,0.0492473,1308,1681,5.91155,-54.8965
91,-657,5.67188,55.0813,-0.0429678,-0.0381553,-0.0394959,-0.000992361,-0.0801307,-0.815823,0.0530928,0.0451546,1315,1681,5.67186,-55.0813
98,-657,5.49329,55.3271,-0.0406667,-0.027406,-0.0410951,0.00759023,-0.0756629,-0.86538,0.053153,0.0450712,1322,1681,5.49331,-55.3272
105,-657,5.58911,55.41,0,0,0,0,0,0,0,-1,1329,1681,5.58907,-55.41
112,-657,5.74866,54.8508,-0.03544,-0.000531334,-0.0436859,0.0290581,-0.0650294,-0.975453,0.055629,0.0442537,1336,1681,5.7486,-54.8509
119,-657,5.10254,55.1068,-0.0332762,0.0117374,-0.0450499,0.0395898,-0.0611286,-1.01706,0.0585914,0.0452614,1343,1681,5.10252,-55.1068
126,-657,4.81042,54.6503,-0.0323575,0.0244313,-0.046098,0.0501781,-0.0581043,-1.06143,0.0625727,0.0468579,1350,1681,4.8104,-54.6502
133,-657,4.69043,54.1971,0,0,0,0,0,0,0,-1,1357,1681,4.6904,-54.1972
140,-657,8.55176,56.4296,0,0,0,0,0,0,0,-1,1364,1681,8.55178,-56.4296
147,-657,8.65735,57.2046,0,0,0,0,0,0,0,-1,1371,1681,8.65729,-57.2046
154,-657,13.7589,55.1967,0,0,0,0,0,0,0,-1,1378,1681,13.759,-55.1967
161,-657,4.2926,24.9226,0,0,0,0,0,0,0,-1,1385,1681,4.29264,-24.9226
168,-657,5.21643,0.70105,0,0,0,0,0,0,0,-1,1392,1681,5.21648,-0.7011
175,-657,5.52771,0.649048,0,0,0,0,0,0,0,-1,1399,1681,5.52774,-0.649019
182,-657,5.73999,1.02612,0,0,0,0,0,0,0,-1,1406,1681,5.73995,-1.02611
189,-657,5.92126,1.44116,0,0,0,0,0,0,0,-1,1413,1681,5.92126,-1.44115
196,-657,4.92834,9.59021,0,0,0,0,0,0,0,-1,1420,1681,4.9284,-9.59018
203,-657,6.26343,5.16492,0,0,0,0,0,0,0,-1,1427,1681,6.26345,-5.16488
210,-657,3.9856,5.28088,0,0,0,0,0,0,0,-1,1434,1681,3.98555,-5.28084
217,-657,3.95178,5.2843,0,0,0,0,0,0,0,-1,1441,1681,3.95174,-5.28431
224,-657,6.66736,-0.250244,0,0,0,0,0,0,0,-1,1448,1681,6.66737,0.250229
231,-657,6.85498,-1.70752,0,0,0,0,0,0,0,-1,1455,1681,6.855,1.70758
238,-657,5.34143,-2.89819,0,0,0,0,0,0,0,-1,1462,1681,5.34143,2.89813
245,-657,8.66003,-0.102783,0,0,0,0,0,0,0,-1,1469,1681,8.66,0.102824
252,-657,4.78955,0.623779,0,0,0,0,0,0,0,-1,1476,1681,4.7895,-0.623826
259,-657,2.61523,4.31909,0,0,0,0,0,0,0,-1,1483,1681,2.61523,-4.31908
266,-657,5.35437,11.4742,0,0,0,0,0,0,0,-1,1490,1681,5.35441,-11.4742
273,-657,11.9164,46.0638,0,0,0,0,0,0,0,-1,1497,1681,11.9164,-46.0638
280,-657,12.2848,49.4636,0,0,0,0,0,0,0,-1,1504,1681,12.2847,-49.4636
287,-657,12.224,48.8075,0.00943179,0.00494464,-0.000880236,0.00959829,0.00477814,-0.186941,0.00554159,0.0390347,1511,1681,12.224,-48.8075
294,-657,12.3208,48.438,0.00866645,0.00507171,-0.000801808,0.00883718,0.00490098,-0.209803,0.00511227,0.0329727,1518,1681,12.3208,-48.438
301,-657,12.4547,48.0509,0.00775751,0.00503445,-0.000736592,0.00794399,0.00484797,-0.247955,0.00462349,0.0237276,1525,1681,12.4547,-48.0509
308,-657,12.4805,47.5581,0.00685027,0.00515869,-0.000846969,0.00720144,0.00480752,-0.393048,0.00423488,0.0162408,1532,1681,12.4805,-47.5581
315,-657,12.4988,47.0745,0.00603575,0.00574362,-0.00124706,0.00714526,0.0046341,-0.7271,0.00418557,0.0123223,1539,1681,12.4988,-47.0745
322,-657,12.5277,46.5986,0.0052249,0.00596533,-0.00156241,0.00720078,0.00398944,-0.901729,0.00416546,0.0143851,1546,1681,12.5277,-46.5987
329,-657,12.5325,46.1337,0.00447863,0.00592835,-0.001784,0.00712913,0.00327785,-0.978366,0.00412044,0.0202549,1553,1681,12.5325,-46.1337
336,-657,12.5328,45.6477,0.0037912,0.00578481,-0.00188546,0.00692075,0.00265526,-1.02856,0.00403158,0.0180156,1560,1681,12.5329,-45.6477
343,-657,12.5576,45.1639,0.00305643,0.00563439,-0.00193427,0.00666981,0.00202101,-1.0793,0.00394918,0.0147821,1567,1681,12.5576,-45.1639
350,-657,12.5369,44.6749,0.00242311,0.00523749,-0.00197771,0.00625755,0.00140306,-1.09461,0.00379155,0.0157563,1574,1681,12.5369,-44.6749
357,-657,12.5176,44.163,0.00185836,0.00471116,-0.00196123,0.00570985,0.000859682,-1.09981,0.00355482,0.0148008,1581,1681,12.5176,-44.1629
364,-657,12.5267,43.6816,0.00151603,0.00419723,-0.0019991,0.00526362,0.000449642,-1.08076,0.00336921,0.0107392,1588,1681,12.5267,-43.6816
371,-657,12.5055,43.1677,0.00142665,0.00369842,-0.00210725,0.00495643,0.000168639,-1.03259,0.00324954,0.015384,1595,1681,12.5055,-43.1677
378,-657,12.458,42.6575,0.00138184,0.0030602,-0.00223211,0.00460567,-0.000163625,-0.965203,0.00312642,0.0162551,1602,1681,12.4581,-42.6575
385,-657,12.4387,42.1296,0.00151765,0.00277471,-0.00245091,0.0046764,-0.000384036,-0.910917,0.00325317,0.0136377,1609,1681,12.4387,-42.1297
392,-657,12.4321,41.6184,0.00196703,0.00284432,-0.00280072,0.00524054,-0.000429189,-0.863077,0.00364519,0.0128415,1616,1681,12.4322,-41.6184
399,-657,12.4296,41.078,0.00239899,0.00299412,-0.00333352,0.00604333,-0.000650223,-0.829912,0.00426219,0.0127852,1623,1681,12.4295,-41.078
406,-657,12.4071,40.5325,0.00292026,0.00350387,-0.00404126,0.00726384,-0.000839721,-0.821439,0.00514536,0.0150264,1630,1681,12.4071,-40.5324
413,-657,12.3687,39.9861,0.00358125,0.00447771,-0.00488709,0.00893709,-0.000878119,-0.831129,0.00627129,0.0145542,1637,1681,12.3686,-39.9861
420,-657,12.3502,39.4307,0.0044421,0.00604091,-0.00596461,0.0112594,-0.000776435,-0.852014,0.00777803,0.0157662,1644,1681,12.3503,-39.4307
427,-657,12.3356,38.8566,0.00533119,0.00775629,-0.00706821,0.0137152,-0.000627721,-0.870346,0.00935973,0.0205494,1651,1681,12.3356,-38.8566
434,-657,12.3945,38.3187,0.00619917,0.00972811,-0.00810723,0.0162607,-0.00033338,-0.892548,0.0109533,0.0291156,1658,1681,12.3946,-38.3188
441,-657,12.606,37.802,0.0069251,0.0119897,-0.00900899,0.0188155,9.92632e-05,-0.922405,0.0125107,0.0429922,1665,1681,12.606,-37.802
448,-657,12.8069,37.2715,0,0,0,0,0,0,0,-1,1672,1681,12.8068,-37.2715
455,-657,12.3093,36.4484,0,0,0,0,0,0,0,-1,1679,1681,12.3093,-36.4483
462,-657,10.2832,30.1719,0,0,0,0,0,0,0,-1,1686,1681,10.2831,-30.1718
469,-657,9.22205,26.4175,0,0,0,0,0,0,0,-1,1693,1681,9.2221,-26.4175
476,-657,8.9519,20.5712,0,0,0,0,0,0,0,-1,1700,1681,8.95194,-20.5712
483,-657,10.0663,21.8628,0,0,0,0,0,0,0,-1,1707,1681,10.0663,-21.8628
490,-657,11.6039,21.2185,0,0,0,0,0,0,0,-1,1714,1681,11.6038,-21.2185
497,-657,9.20862,17.8127,0,0,0,0,0,0,0,-1,1721,1681,9.2086,-17.8127
504,-657,0,0,0,0,0,0,0,0,0,-1,1728,1681,0,0
511,-657,0,0,0,0,0,0,0,0,0,-1,1735,1681,0,0
518,-657,0,0,0,0,0,0,0,0,0,-1,1742,1681,0,0
525,-657,0,0,0,0,0,0,0,0,0,-1,1749,1681,0,0
532,-657,0,0,0,0,0,0,0,0,0,-1,1756,1681,0,0
539,-657,0,0,0,0,0,0,0,0,0,-1,1763,1681,0,0
546,-657,0,0,0,0,0,0,0,0,0,-1,1770,1681,0,0
553,-657,0,0,0,0,0,0,0,0,0,-1,1777,1681,0,0
560,-657,0,0,0,0,0,0,0,0,0,-1,1784,1681,0,0
567,-657,0,0,0,0,0,0,0,0,0,-1,1791,1681,0,0
574,-657,0,0,0,0,0,0,0,0,0,-1,1798,1681,0,0
581,-657,0,0,0,0,0,0,0,0,0,-1,1805,1681,0,0
588,-657,0,0,0,0,0,0,0,0,0,-1,1812,1681,0,0
595,-657,0,0,0,0,0,0,0,0,0,-1,1819,1681,0,0
602,-657,0,0,0,0,0,0,0,0,0,-1,1826,1681,0,0
609,-657,0,0,0,0,0,0,0,0,0,-1,1833,1681,0,0
616,-657,0,0,0,0,0,0,0,0,0,-1,1840,1681,0,0
623,-657,0,0,0,0,0,0,0,0,0,-1,1847,1681,0,0
630,-657,0,0,0,0,0,0,0,0,0,-1,1854,1681,0,0
637,-657,0,0,0,0,0,0,0,0,0,-1,1861,1681,0,0
644,-657,0,0,0,0,0,0,0,0,0,-1,1868,1681,0,0
651,-657,0,0,0,0,0,0,0,0,0,-1,1875,1681,0,0
658,-657,0,0,0,0,0,0,0,0,0,-1,1882,1681,0,0
665,-657,0,0,0,0,0,0,0,0,0,-1,1889,1681,0,0
672,-657,0,0,0,0,0,0,0,0,0,-1,1896,1681,0,0
679,-657,0,0,0,0,0,0,0,0,0,-1,1903,1681,0,0
686,-657,0,0,0,0,0,0,0,0,0,-1,1910,1681,0,0
693,-657,0,0,0,0,0,0,0,0,0,-1,1917,1681,0,0
700,-657,0,0,0,0,0,0,0,0,0,-1,1924,1681,0,0
707,-657,0,0,0,0,0,0,0,0,0,-1,1931,1681,0,0
714,-657,0,0,0,0,0,0,0,0,0,-1,1938,1681,0,0
721,-657,0,0,0,0,0,0,0,0,0,-1,1945,1681,0,0
728,-657,0,0,0,0,0,0,0,0,0,-1,1952,1681,0,0
735,-657,0,0,0,0,0,0,0,0,0,-1,1959,1681,0,0
742,-657,0,0,0,0,0,0,0,0,0,-1,1966,1681,0,0
749,-657,0,0,0,0,0,0,0,0,0,-1,1973,1681,0,0
756,-657,0,0,0,0,0,0,0,0,0,-1,1980,1681,0,0
763,-657,0,0,0,0,0,0,0,0,0,-1,1987,1681,0,0
770,-657,0,0,0,0,0,0,0,0,0,-1,1994,1681,0,0
777,-657,0,0,0,0,0,0,0,0,0,-1,2001,1681,0,0
784,-657,0,0,0,0,0,0,0,0,0,-1,2008,1681,0,0
791,-657,0,0,0,0,0,0,0,0,0,-1,2015,1681,0,0
798,-657,0,0,0,0,0,0,0,0,0,-1,2022,1681,0,0
805,-657,0,0,0,0,0,0,0,0,0,-1,2029,1681,0,0
812,-657,0,0,0,0,0,0,0,0,0,-1,2036,1681,0,0
-700,-664,0,0,0,0,0,0,0,0,0,-1,524,1688,0,0
-693,-664,0,0,0,0,0,0,0,0,0,-1,531,1688,0,0
-686,-664,0,0,0,0,0,0,0,0,0,-1,538,1688,0,0
-679,-664,0,0,0,0,0,0,0,0,0,-1,545,1688,0,0
-672,-664,0,0,0,0,0,0,0,0,0,-1,552,1688,0,0
-665,-664,0,0,0,0,0,0,0,0,0,-1,559,1688,0,0
-658,-664,0,0,0,0,0,0,0,0,0,-1,566,1688,0,0
-651,-664,0,0,0,0,0,0,0,0,0,-1,573,1688,0,0
-644,-664,0,0,0,0,0,0,0,0,0,-1,580,1688,0,0
-637,-664,0,0,0,0,0,0,0,0,0,-1,587,1688,0,0
-630,-664,0,0,0,0,0,0,0,0,0,-1,594,1688,0,0
-623,-664,0,0,0,0,0,0,0,0,0,-1,601,1688,0,0
-616,-664,0,0,0,0,0,0,0,0,0,-1,608,1688,0,0
-609,-664,0,0,0,0,0,0,0,0,0,-1,615,1688,0,0
-602,-664,0,0,0,0,0,0,0,0,0,-1,622,1688,0,0
-595,-664,0,0,0,0,0,0,0,0,0,-1,629,1688,0,0
-588,-664,0,0,0,0,0,0,0,0,0,-1,636,1688,0,0
-581,-664,0,0,0,0,0,0,0,0,0,-1,643,1688,0,0
-574,-664,0,0,0,0,0,0,0,0,0,-1,650,1688,0,0
-567,-664,0,0,0,0,0,0,0,0,0,-1,657,1688,0,0
-560,-664,0,0,0,0,0,0,0,0,0,-1,664,1688,0,0
-553,-664,0,0,0,0,0,0,0,0,0,-1,671,1688,0,0
-546,-664,0,0,0,0,0,0,0,0,0,-1,678,1688,0,0
-539,-664,0,0,0,0,0,0,0,0,0,-1,685,1688,0,0
-532,-664,0,0,0,0,0,0,0,0,0,-1,692,1688,0,0
-525,-664,0,0,0,0,0,0,0,0,0,-1,699,1688,0,0
-518,-664,0,0,0,0,0,0,0,0,0,-1,706,1688,0,0
-511,-664,0,0,0,0,0,0,0,0,0,-1,713,1688,0,0
-504,-664,0,0,0,0,0,0,0,0,0,-1,720,1688,0,0
-497,-664,0,0,0,0,0,0,0,0,0,-1,727,1688,0,0
-490,-664,0,0,0,0,0,0,0,0,0,-1,734,1688,0,0
-483,-664,0,0,0,0,0,0,0,0,0,-1,741,1688,0,0
-476,-664,0,0,0,0,0,0,0,0,0,-1,748,1688,0,0
-469,-664,0,0,0,0,0,0,0,0,0,-1,755,1688,0,0
-462,-664,0,0,0,0,0,0,0,0,0,-1,762,1688,0,0
-455,-664,0,0,0,0,0,0,0,0,0,-1,769,1688,0,0
-448,-664,0,0,0,0,0,0,0,0,0,-1,776,1688,0,0
-441,-664,0,0,0,0,0,0,0,0,0,-1,783,1688,0,0
-434,-664,0,0,0,0,0,0,0,0,0,-1,790,1688,0,0
-427,-664,0,0,0,0,0,0,0,0,0,-1,797,1688,0,0
-420,-664,0,0,0,0,0,0,0,0,0,-1,804,1688,0,0
-413,-664,0,0,0,0,0,0,0,0,0,-1,811,1688,0,0
-406,-664,0,0,0,0,0,0,0,0,0,-1,818,1688,0,0
-399,-664,0,0,0,0,0,0,0,0,0,-1,825,1688,0,0
-392,-664,0,0,0,0,0,0,0,0,0,-1,832,1688,0,0
-385,-664,0,0,0,0,0,0,0,0,0,-1,839,1688,0,0
-378,-664,0,0,0,0,0,0,0,0,0,-1,846,1688,0,0
-371,-664,-1.61676,5.92737,0,0,0,0,0,0,0,-1,853,1688,-1.61675,-5.92735
-364,-664,-3.901,5.87024,0,0,0,0,0,0,0,-1,860,1688,-3.90097,-5.87027
-357,-664,-4.81012,4.53479,0,0,0,0,0,0,0,-1,867,1688,-4.81012,-4.5348
-350,-664,5.10297,32.1788,0,0,0,0,0,0,0,-1,874,1688,5.10296,-32.1788
-343,-664,5.2652,32.889,0,0,0,0,0,0,0,-1,881,1688,5.26517,-32.889
-336,-664,5.38037,33.5928,0,0,0,0,0,0,0,-1,888,1688,5.38037,-33.5927
-329,-664,5.87378,36.1255,0,0,0,0,0,0,0,-1,895,1688,5.87375,-36.1255
-322,-664,6.43555,36.5721,0,0,0,0,0,0,0,-1,902,1688,6.43553,-36.5721
-315,-664,6.67224,36.7802,-0.00180493,-0.00285003,0.00242718,0.00015531,-0.00481027,0.67937,0.00325985,0.0470572,909,1688,6.67227,-36.7802
-308,-664,6.54358,38.2733,-0.00190147,-0.00403614,0.00251419,-0.000237433,-0.00570017,0.584664,0.0037235,0.0458197,916,1688,6.54358,-38.2733
-301,-664,6.19635,38.0685,-0.00174763,-0.00485833,0.00256183,-0.000305966,-0.0063,0.512577,0.00410181,0.0458334,923,1688,6.19635,-38.0684
-294,-664,6.05707,38.9072,-0.00126596,-0.00495602,0.00253612,2.52619e-05,-0.00624723,0.470925,0.00417327,0.0411137,930,1688,6.05709,-38.9072
-287,-664,6.0683,39.5244,-0.00097669,-0.00468524,0.00229415,0.000118862,-0.00578079,0.445519,0.00389409,0.0284809,937,1688,6.06828,-39.5244
-280,-664,5.95068,40.0408,-0.00103362,-0.00387085,0.00202916,2.36374e-05,-0.00492811,0.480333,0.00329332,0.0195277,944,1688,5.95068,-40.0407
-273,-664,5.90741,40.6147,-0.00103274,-0.00294825,0.00181172,5.88021e-05,-0.00403979,0.542248,0.00271301,0.0161386,951,1688,5.9074,-40.6147
-266,-664,5.85431,41.1648,-0.000836651,-0.00187128,0.00186614,0.000582552,-0.00329048,0.650188,0.00241141,0.0226033,958,1688,5.85429,-41.1647
-259,-664,5.84283,41.6907,-0.00076666,-0.00101734,0.00159803,0.000710938,-0.00249493,0.746262,0.00194409,0.0193581,965,1688,5.84281,-41.6907
-252,-664,5.85071,42.2543,-0.000649082,0.00018784,0.00146208,0.00129016,-0.00175141,0.924777,0.00176277,0.0159422,972,1688,5.85073,-42.2543
-245,-664,5.84943,42.8087,-0.000364761,0.000537917,0.00120374,0.00137215,-0.001199,0.96476,0.00148558,0.0207301,979,1688,5.84943,-42.8087
-238,-664,5.86804,43.3623,-0.000235074,0.00113614,0.000984941,0.0016506,-0.000749537,1.08945,0.0014179,0.0243372,986,1688,5.86805,-43.3623
-231,-664,5.83368,43.8856,-0.000158178,0.00170911,0.000968468,0.00212069,-0.000569756,1.16894,0.0016371,0.0198071,993,1688,5.8337,-43.8857
-224,-664,5.77557,44.4221,0.000186629,0.00184437,0.00110387,0.00239592,-0.000364918,1.10743,0.00173178,0.0139885,1000,1688,5.77556,-44.4221
-217,-664,5.74933,44.9443,0.000692807,0.00155576,0.00121338,0.00241209,-0.000163529,0.956225,0.00166525,0.0111895,1007,1688,5.74933,-44.9444
-210,-664,5.73993,45.4346,0.00126333,0.00123549,0.00141997,0.00266945,-0.000170627,0.780496,0.00183915,0.0116694,1014,1688,5.7399,-45.4346
-203,-664,5.70056,45.9137,0.0018133,0.00123581,0.0017675,0.00331549,-0.00026637,0.704432,0.00230425,0.013413,1021,1688,5.70051,-45.9137
-196,-664,5.68469,46.3726,0.00233601,0.00123675,0.00213766,0.00399357,-0.000420809,0.659565,0.00281316,0.0138941,1028,1688,5.68474,-46.3726
-189,-664,5.69275,46.8842,0.00278276,0.001566,0.00255941,0.00480511,-0.000456339,0.668712,0.00336584,0.0101611,1035,1688,5.69277,-46.8841
-182,-664,5.71289,47.3511,0.00327054,0.00246682,0.00300744,0.00590285,-0.000165492,0.718981,0.00399154,0.00995894,1042,1688,5.71287,-47.3511
-175,-664,5.70679,47.7915,0.00386335,0.00361618,0.0035631,0.00730501,0.000174523,0.768062,0.00481289,0.0134008,1049,1688,5.70682,-47.7915
-168,-664,5.71094,48.234,0.00427619,0.00522944,0.00409364,0.00887411,0.000631527,0.843352,0.0057172,0.0142042,1056,1688,5.71094,-48.234
-161,-664,5.71667,48.6694,0.00466328,0.00721843,0.00460948,0.0107241,0.0011576,0.920586,0.00679648,0.0110932,1063,1688,5.71666,-48.6694
-154,-664,5.7793,49.1064,0.00506733,0.00954237,0.00500614,0.0127883,0.00182143,0.995558,0.0079879,0.0120401,1070,1688,5.77931,-49.1064
-147,-664,5.78516,49.5214,0.00546766,0.0118788,0.00528458,0.014854,0.0024924,1.05802,0.00918529,0.0188914,1077,1688,5.78512,-49.5214
-140,-664,5.80151,49.9608,0.00581817,0.0143111,0.00539362,0.0169293,0.00319997,1.11888,0.0103852,0.0213355,1084,1688,5.80147,-49.9608
-133,-664,5.77856,50.4443,0.00636265,0.0169618,0.00547571,0.0192825,0.00404192,1.16992,0.0117419,0.0213447,1091,1688,5.77853,-50.4444
-126,-664,5.87817,50.9631,0.00683097,0.0203581,0.00553339,0.0223332,0.00485587,1.22795,0.0135631,0.0377022,1098,1688,5.8782,-50.9631
-119,-664,6.03088,51.5394,0,0,0,0,0,0,0,-1,1105,1688,6.03083,-51.5395
-112,-664,6.3916,51.1235,0,0,0,0,0,0,0,-1,1112,1688,6.39161,-51.1236
-105,-664,6.87256,43.2527,0,0,0,0,0,0,0,-1,1119,1688,6.87258,-43.2527
-98,-664,7.69324,41.3359,0,0,0,0,0,0,0,-1,1126,1688,7.69321,-41.3359
-91,-664,5.41931,25.6302,0,0,0,0,0,0,0,-1,1133,1688,5.41932,-25.6302
-84,-664,3.48389,16.6913,0,0,0,0,0,0,0,-1,1140,1688,3.4839,-16.6913
-77,-664,4.52014,11.2122,0,0,0,0,0,0,0,-1,1147,1688,4.5202,-11.2122
-70,-664,4.20374,8.24524,0,0,0,0,0,0,0,-1,1154,1688,4.20379,-8.24519
-63,-664,-4.677,2.40503,0,0,0,0,0,0,0,-1,1161,1688,-4.67702,-2.40498
-56,-664,-4.66504,3.32727,0,0,0,0,0,0,0,-1,1168,1688,-4.6651,-3.32724
-49,-664,-2.54297,3.31848,0,0,0,0,0,0,0,-1,1175,1688,-2.54297,-3.31852
-42,-664,-0.359253,4.38684,0,0,0,0,0,0,0,-1,1182,1688,-0.359261,-4.38685
-35,-664,-0.705566,3.55017,0,0,0,0,0,0,0,-1,1189,1688,-0.705567,-3.55023
-28,-664,-1.54236,10.2538,0,0,0,0,0,0,0,-1,1196,1688,-1.54236,-10.2538
-21,-664,19.5455,63.6403,0,0,0,0,0,0,0,-1,1203,1688,19.5456,-63.6402
-14,-664,6.58252,54.3501,0,0,0,0,0,0,0,-1,1210,1688,6.58256,-54.3501
-7,-664,6.64075,55.3156,0.13844,0.00406743,-0.00501127,0.138627,0.00388079,-0.0372248,0.0911519,0.0491742,1217,1688,6.64069,-55.3156
0,-664,7.1311,55.4987,0.129295,0.00902559,0.000603243,0.129298,0.00902257,0.00501561,0.0833539,0.0475603,1224,1688,7.13113,-55.4987
7,-664,7.49243,55.7682,0,0,0,0,0,0,0,-1,1231,1688,7.49239,-55.7682
14,-664,8.17322,56.6405,0.0992913,0.00470873,0.0051233,0.099568,0.00443202,0.053957,0.0649517,0.0460697,1238,1688,8.17316,-56.6405
21,-664,8.45483,57.6161,0.079726,-0.00168401,0.00290195,0.0798293,-0.00178732,0.035586,0.0538252,0.0448254,1245,1688,8.45479,-57.6161
28,-664,8.83521,58.4974,0.0590967,-0.00974718,-0.00135964,0.0591236,-0.00977402,-0.0197394,0.0430452,0.0451698,1252,1688,8.83524,-58.4975
35,-664,9.08191,59.0122,0.0392417,-0.0186292,-0.00676582,0.0400222,-0.0194097,-0.114849,0.0349942,0.0480199,1259,1688,9.08188,-59.0122
42,-664,8.62036,51.4579,0.0220559,-0.0275031,-0.0120065,0.0248115,-0.0302587,-0.2256,0.0318466,0.0460699,1266,1688,8.62036,-51.4579
49,-664,8.00818,51.5806,0.00697406,-0.0350834,-0.0172329,0.0131332,-0.0412425,-0.343258,0.0327623,0.0438525,1273,1688,8.0082,-51.5805
56,-664,8.45605,57.5856,0,0,0,0,0,0,0,-1,1280,1688,8.45602,-57.5855
63,-664,8.31226,57.125,-0.0199907,-0.0449898,-0.024682,-0.0048237,-0.0601568,-0.551012,0.0385972,0.0475562,1287,1688,8.31222,-57.125
70,-664,7.95007,56.8566,-0.028092,-0.0452742,-0.0308853,-0.0046252,-0.068741,-0.649746,0.044366,0.0463509,1294,1688,7.95004,-56.8566
77,-664,7.51672,56.4285,0,0,0,0,0,0,0,-1,1301,1688,7.5167,-56.4285
84,-664,6.79724,56.0874,-0.0350556,-0.042486,-0.0384596,-0.000132222,-0.0774094,-0.737248,0.0515623,0.0491734,1308,1688,6.79721,-56.0875
91,-664,6.20166,56.0129,-0.0343778,-0.0369557,-0.0390789,0.00343344,-0.0747669,-0.768912,0.0510276,0.0460059,1315,1688,6.20163,-56.013
98,-664,6.21863,55.8207,-0.0318792,-0.0284359,-0.039609,0.00948887,-0.069804,-0.807117,0.05,0.0472355,1322,1688,6.21861,-55.8206
105,-664,6.16223,55.6658,-0.0287494,-0.0179093,-0.0403757,0.0174085,-0.0640672,-0.852119,0.0495445,0.0476049,1329,1688,6.16223,-55.6657
112,-664,5.99561,55.3798,-0.0257524,-0.00674484,-0.0401361,0.0249974,-0.0574946,-0.901651,0.0488431,0.044903,1336,1688,5.99563,-55.3797
119,-664,5.8457,55.0155,-0.0230718,0.00295872,-0.0403131,0.0323055,-0.0524186,-0.941543,0.0493728,0.0465265,1343,1688,5.84575,-55.0155
126,-664,5.5863,54.4912,0,0,0,0,0,0,0,-1,1350,1688,5.58629,-54.4912
133,-664,8.89807,55.5579,0,0,0,0,0,0,0,-1,1357,1688,8.89804,-55.5579
140,-664,8.94568,56.2162,0,0,0,0,0,0,0,-1,1364,1688,8.94569,-56.2162
147,-664,9.0188,56.9962,0,0,0,0,0,0,0,-1,1371,1688,9.01874,-56.9962
154,-664,13.0916,56.0908,0,0,0,0,0,0,0,-1,1378,1688,13.0915,-56.0908
161,-664,4.60132,1.56238,0,0,0,0,0,0,0,-1,1385,1688,4.60134,-1.56233
168,-664,5.172,1.25488,0,0,0,0,0,0,0,-1,1392,1688,5.17203,-1.25484
175,-664,5.58313,1.16467,0,0,0,0,0,0,0,-1,1399,1688,5.58317,-1.16466
182,-664,5.74268,1.41113,0,0,0,0,0,0,0,-1,1406,1688,5.74263,-1.41115
189,-664,5.87744,1.87061,0,0,0,0,0,0,0,-1,1413,1688,5.87745,-1.87065
196,-664,6.7594,5.97473,0,0,0,0,0,0,0,-1,1420,1688,6.75943,-5.97478
203,-664,5.38452,5.22034,0,0,0,0,0,0,0,-1,1427,1688,5.38453,-5.2203
210,-664,5.25549,6.45715,0,0,0,0,0,0,0,-1,1434,1688,5.25549,-6.45721
217,-664,5.72009,6.73975,0,0,0,0,0,0,0,-1,1441,1688,5.72014,-6.73972
224,-664,5.05725,7.42908,0,0,0,0,0,0,0,-1,1448,1688,5.05723,-7.42912
231,-664,5.13318,7.60864,0,0,0,0,0,0,0,-1,1455,1688,5.13313,-7.60862
238,-664,4.23193,6.45471,0,0,0,0,0,0,0,-1,1462,1688,4.23197,-6.45476
245,-664,4.42004,6.80896,0,0,0,0,0,0,0,-1,1469,1688,4.4201,-6.80901
252,-664,3.67346,6.85461,0,0,0,0,0,0,0,-1,1476,1688,3.6734,-6.85462
259,-664,4.55823,11.7435,0,0,0,0,0,0,0,-1,1483,1688,4.55826,-11.7435
266,-664,11.6727,49.6917,0,0,0,0,0,0,0,-1,1490,1688,11.6728,-49.6916
273,-664,11.9077,49.5531,0,0,0,0,0,0,0,-1,1497,1688,11.9077,-49.5531
280,-664,11.9199,49.3345,0.00775316,0.00317127,-0.000888925,0.00791957,0.00300485,-0.185067,0.00461647,0.0328351,1504,1688,11.9199,-49.3345
287,-664,11.8362,48.8649,0.00724813,0.00337398,-0.000867123,0.00743336,0.00318876,-0.210447,0.00430606,0.0312839,1511,1688,11.8361,-48.8649
294,-664,11.9644,48.4159,0.00666492,0.00354347,-0.000813793,0.00686435,0.00334405,-0.240318,0.00396357,0.0220689,1518,1688,11.9643,-48.4159
301,-664,12.0369,47.962,0.00595934,0.00358917,-0.000777224,0.00619147,0.00335704,-0.290235,0.00357889,0.0136257,1525,1688,12.0368,-47.9621
308,-664,12.0597,47.5162,0.00522498,0.00370409,-0.000846369,0.00560234,0.00332672,-0.419411,0.00325344,0.0125161,1532,1688,12.0596,-47.5162
315,-664,12.049,47.0692,0.00450601,0.00401507,-0.00103607,0.00532529,0.00319579,-0.66908,0.00309503,0.0132512,1539,1688,12.0489,-47.0692
322,-664,12.0707,46.6146,0.00375853,0.0041391,-0.00116621,0.00513045,0.00276718,-0.866266,0.00296512,0.0158331,1546,1688,12.0707,-46.6146
329,-664,12.072,46.1742,0.00305035,0.00405613,-0.00123653,0.00488811,0.00221837,-0.97853,0.00282616,0.017016,1553,1688,12.0721,-46.1741
336,-664,12.0647,45.6943,0.00240212,0.00386005,-0.00122784,0.00455901,0.00170315,-1.05329,0.00266005,0.0143163,1560,1688,12.0647,-45.6943
343,-664,12.0505,45.2227,0.00172745,0.00367787,-0.00117688,0.00423108,0.00117424,-1.13138,0.00252213,0.01207,1567,1688,12.0506,-45.2227
350,-664,12.0298,44.7255,0.00117955,0.00332107,-0.0011547,0.00382507,0.000675554,-1.15925,0.00235735,0.0145432,1574,1688,12.0298,-44.7254
357,-664,12.0239,44.1909,0.000711747,0.00283408,-0.00113922,0.0033298,0.000216029,-1.16037,0.00215147,0.0140425,1581,1688,12.0239,-44.191
364,-664,12.043,43.6785,0.000470771,0.00244876,-0.00123234,0.00303988,-0.000120352,-1.12354,0.00206787,0.0110455,1588,1688,12.0429,-43.6784
371,-664,12.0277,43.1974,0.000522584,0.00221959,-0.0014966,0.00309149,-0.000349314,-1.04328,0.00218675,0.0137501,1595,1688,12.0277,-43.1974
378,-664,11.9713,42.6917,0.000639917,0.00182904,-0.0018108,0.00314039,-0.00067143,-0.944024,0.0023496,0.014289,1602,1688,11.9714,-42.6916
385,-664,11.9396,42.1602,0.001006,0.0019312,-0.00227038,0.00378563,-0.000848425,-0.885901,0.00284898,0.0150615,1609,1688,11.9395,-42.1602
392,-664,11.8794,41.6694,0.00176558,0.00244297,-0.00289871,0.0050227,-0.000814149,-0.843557,0.00365024,0.0173264,1616,1688,11.8794,-41.6694
399,-664,11.8953,41.1311,0.0025104,0.00308187,-0.00377229,0.00657923,-0.000986961,-0.823199,0.00474945,0.0143708,1623,1688,11.8953,-41.1311
406,-664,11.9084,40.5746,0.00338924,0.00413721,-0.00486485,0.00864244,-0.00111598,-0.82376,0.00616737,0.0130184,1630,1688,11.9084,-40.5746
413,-664,11.8844,40.0167,0.00449127,0.00582805,-0.00616629,0.0113621,-0.00104275,-0.839384,0.00794513,0.0123042,1637,1688,11.8844,-40.0167
420,-664,11.8774,39.4562,0.00589063,0.00837921,-0.00780293,0.0150364,-0.000766594,-0.864465,0.0102893,0.0275001,1644,1688,11.8774,-39.4562
427,-664,11.8882,38.9283,0.00724634,0.0109783,-0.00936037,0.0186569,-0.000432226,-0.883783,0.0125845,0.048098,1651,1688,11.8882,-38.9283
434,-664,11.723,37.9502,0.00859593,0.0139383,-0.0107836,0.0223766,0.000157565,-0.906807,0.0148655,0.0440405,1658,1688,11.7231,-37.9502
441,-664,11.9142,37.3954,0.00973054,0.0171681,-0.0118847,0.0259023,0.00099636,-0.937025,0.0169459,0.0470186,1665,1688,11.9142,-37.3954
448,-664,12.2892,37.0298,0,0,0,0,0,0,0,-1,1672,1688,12.2892,-37.0297
455,-664,7.53198,11.3838,0,0,0,0,0,0,0,-1,1679,1688,7.53195,-11.3838
462,-664,4.3147,4.25439,0,0,0,0,0,0,0,-1,1686,1688,4.31467,-4.25435
469,-664,6.05469,7.49341,0,0,0,0,0,0,0,-1,1693,1688,6.05474,-7.49339
476,-664,10.2377,22.7128,0,0,0,0,0,0,0,-1,1700,1688,10.2377,-22.7128
483,-664,8.41895,10.9768,0,0,0,0,0,0,0,-1,1707,1688,8.41897,-10.9769
490,-664,3.90771,13.2842,0,0,0,0,0,0,0,-1,1714,1688,3.90776,-13.2841
497,-664,0,0,0,0,0,0,0,0,0,-1,1721,1688,0,0
504,-664,0,0,0,0,0,0,0,0,0,-1,1728,1688,0,0
511,-664,0,0,0,0,0,0,0,0,0,-1,1735,1688,0,0
518,-664,0,0,0,0,0,0,0,0,0,-1,1742,1688,0,0
525,-664,0,0,0,0,0,0,0,0,0,-1,1749,1688,0,0
532,-664,0,0,0,0,0,0,0,0,0,-1,1756,1688,0,0
539,-664,0,0,0,0,0,0,0,0,0,-1,1763,1688,0,0
546,-664,0,0,0,0,0,0,0,0,0,-1,1770,1688,0,0
553,-664,0,0,0,0,0,0,0,0,0,-1,1777,1688,0,0
560,-664,0,0,0,0,0,0,0,0,0,-1,1784,1688,0,0
567,-664,0,0,0,0,0,0,0,0,0,-1,1791,1688,0,0
574,-664,0,0,0,0,0,0,0,0,0,-1,1798,1688,0,0
581,-664,0,0,0,0,0,0,0,0,0,-1,1805,1688,0,0
588,-664,0,0,0,0,0,0,0,0,0,-1,1812,1688,0,0
595,-664,0,0,0,0,0,0,0,0,0,-1,1819,1688,0,0
602,-664,0,0,0,0,0,0,0,0,0,-1,1826,1688,0,0
609,-664,0,0,0,0,0,0,0,0,0,-1,1833,1688,0,0
616,-664,0,0,0,0,0,0,0,0,0,-1,1840,1688,0,0
623,-664,0,0,0,0,0,0,0,0,0,-1,1847,1688,0,0
630,-664,0,0,0,0,0,0,0,0,0,-1,1854,1688,0,0
637,-664,0,0,0,0,0,0,0,0,0,-1,1861,1688,0,0
644,-664,0,0,0,0,0,0,0,0,0,-1,1868,1688,0,0
651,-664,0,0,0,0,0,0,0,0,0,-1,1875,1688,0,0
658,-664,0,0,0,0,0,0,0,0,0,-1,1882,1688,0,0
665,-664,0,0,0,0,0,0,0,0,0,-1,1889,1688,0,0
672,-664,0,0,0,0,0,0,0,0,0,-1,1896,1688,0,0
679,-664,0,0,0,0,0,0,0,0,0,-1,1903,1688,0,0
686,-664,0,0,0,0,0,0,0,0,0,-1,1910,1688,0,0
693,-664,0,0,0,0,0,0,0,0,0,-1,1917,1688,0,0
700,-664,0,0,0,0,0,0,0,0,0,-1,1924,1688,0,0
707,-664,0,0,0,0,0,0,0,0,0,-1,1931,1688,0,0
714,-664,0,0,0,0,0,0,0,0,0,-1,1938,1688,0,0
721,-664,0,0,0,0,0,0,0,0,0,-1,1945,1688,0,0
728,-664,0,0,0,0,0,0,0,0,0,-1,1952,1688,0,0
735,-664,0,0,0,0,0,0,0,0,0,-1,1959,1688,0,0
742,-664,0,0,0,0,0,0,0,0,0,-1,1966,1688,0,0
749,-664,0,0,0,0,0,0,0,0,0,-1,1973,1688,0,0
756,-664,0,0,0,0,0,0,0,0,0,-1,1980,1688,0,0
763,-664,0,0,0,0,0,0,0,0,0,-1,1987,1688,0,0
770,-664,0,0,0,0,0,0,0,0,0,-1,1994,1688,0,0
777,-664,0,0,0,0,0,0,0,0,0,-1,2001,1688,0,0
784,-664,0,0,0,0,0,0,0,0,0,-1,2008,1688,0,0
791,-664,0,0,0,0,0,0,0,0,0,-1,2015,1688,0,0
798,-664,0,0,0,0,0,0,0,0,0,-1,2022,1688,0,0
805,-664,0,0,0,0,0,0,0,0,0,-1,2029,1688,0,0
812,-664,0,0,0,0,0,0,0,0,0,-1,2036,1688,0,0
-700,-671,0,0,0,0,0,0,0,0,0,-1,524,1695,0,0
-693,-671,0,0,0,0,0,0,0,0,0,-1,531,1695,0,0
-686,-671,0,0,0,0,0,0,0,0,0,-1,538,1695,0,0
-679,-671,0,0,0,0,0,0,0,0,0,-1,545,1695,0,0
-672,-671,0,0,0,0,0,0,0,0,0,-1,552,1695,0,0
-665,-671,0,0,0,0,0,0,0,0,0,-1,559,1695,0,0
-658,-671,0,0,0,0,0,0,0,0,0,-1,566,1695,0,0
-651,-671,0,0,0,0,0,0,0,0,0,-1,573,1695,0,0
-644,-671,0,0,0,0,0,0,0,0,0,-1,580,1695,0,0
-637,-671,0,0,0,0,0,0,0,0,0,-1,587,1695,0,0
-630,-671,0,0,0,0,0,0,0,0,0,-1,594,1695,0,0
-623,-671,0,0,0,0,0,0,0,0,0,-1,601,1695,0,0
-616,-671,0,0,0,0,0,0,0,0,0,-1,608,1695,0,0
-609,-671,0,0,0,0,0,0,0,0,0,-1,615,1695,0,0
-602,-671,0,0,0,0,0,0,0,0,0,-1,622,1695,0,0
-595,-671,0,0,0,0,0,0,0,0,0,-1,629,1695,0,0
-588,-671,0,0,0,0,0,0,0,0,0,-1,636,1695,0,0
-581,-671,0,0,0,0,0,0,0,0,0,-1,643,1695,0,0
-574,-671,0,0,0,0,0,0,0,0,0,-1,650,1695,0,0
-567,-671,0,0,0,0,0,0,0,0,0,-1,657,1695,0,0
-560,-671,0,0,0,0,0,0,0,0,0,-1,664,1695,0,0
-553,-671,0,0,0,0,0,0,0,0,0,-1,671,1695,0,0
-546,-671,0,0,0,0,0,0,0,0,0,-1,678,1695,0,0
-539,-671,0,0,0,0,0,0,0,0,0,-1,685,1695,0,0
-532,-671,0,0,0,0,0,0,0,0,0,-1,692,1695,0,0
-525,-671,0,0,0,0,0,0,0,0,0,-1,699,1695,0,0
-518,-671,0,0,0,0,0,0,0,0,0,-1,706,1695,0,0
-511,-671,0,0,0,0,0,0,0,0,0,-1,713,1695,0,0
-504,-671,0,0,0,0,0,0,0,0,0,-1,720,1695,0,0
-497,-671,0,0,0,0,0,0,0,0,0,-1,727,1695,0,0
-490,-671,0,0,0,0,0,0,0,0,0,-1,734,1695,0,0
-483,-671,0,0,0,0,0,0,0,0,0,-1,741,1695,0,0
-476,-671,0,0,0,0,0,0,0,0,0,-1,748,1695,0,0
-469,-671,0,0,0,0,0,0,0,0,0,-1,755,1695,0,0
-462,-671,0,0,0,0,0,0,0,0,0,-1,762,1695,0,0
-455,-671,0,0,0,0,0,0,0,0,0,-1,769,1695,0,0
-448,-671,0,0,0,0,0,0,0,0,0,-1,776,1695,0,0
-441,-671,0,0,0,0,0,0,0,0,0,-1,783,1695,0,0
-434,-671,0,0,0,0,0,0,0,0,0,-1,790,1695,0,0
-427,-671,0,0,0,0,0,0,0,0,0,-1,797,1695,0,0
-420,-671,0,0,0,0,0,0,0,0,0,-1,804,1695,0,0
-413,-671,0,0,0,0,0,0,0,0,0,-1,811,1695,0,0
-406,-671,0,0,0,0,0,0,0,0,0,-1,818,1695,0,0
-399,-671,0,0,0,0,0,0,0,0,0,-1,825,1695,0,0
-392,-671,0,0,0,0,0,0,0,0,0,-1,832,1695,0,0
-385,-671,0,0,0,0,0,0,0,0,0,-1,839,1695,0,0
-378,-671,0,0,0,0,0,0,0,0,0,-1,846,1695,0,0
-371,-671,0,0,0,0,0,0,0,0,0,-1,853,1695,0,0
-364,-671,-4.18738,7.51416,0,0,0,0,0,0,0,-1,860,1695,-4.18739,-7.51419
-357,-671,-5.02393,6.07129,0,0,0,0,0,0,0,-1,867,1695,-5.0239,-6.07135
-350,-671,6.93323,33.8943,0,0,0,0,0,0,0,-1,874,1695,6.93325,-33.8943
-343,-671,6.16626,32.3158,0,0,0,0,0,0,0,-1,881,1695,6.16623,-32.3158
-336,-671,5.67371,33.653,0,0,0,0,0,0,0,-1,888,1695,5.67369,-33.653
-329,-671,6.14716,34.5975,0,0,0,0,0,0,0,-1,895,1695,6.14716,-34.5976
-322,-671,7.66357,36.4028,0,0,0,0,0,0,0,-1,902,1695,7.66357,-36.4028
-315,-671,7.62384,36.494,0,0,0,0,0,0,0,-1,909,1695,7.62384,-36.494
-308,-671,7.72363,38.7517,0,0,0,0,0,0,0,-1,916,1695,7.72365,-38.7517
-301,-671,6.87506,37.6588,-0.00154351,-0.00755589,0.00329108,-9.22978e-05,-0.0090071,0.415304,0.0059742,0.0457745,923,1695,6.87505,-37.6588
-294,-671,6.53375,38.8844,-0.000815707,-0.00733984,0.0032978,0.000560818,-0.00871637,0.395422,0.00600659,0.0474174,930,1695,6.53378,-38.8844
-287,-671,6.62726,39.6702,-0.000426387,-0.00668999,0.00301126,0.000786447,-0.00790282,0.382889,0.0055493,0.0421969,937,1695,6.62725,-39.6702
-280,-671,6.52338,40.1929,-0.00075136,-0.00536729,0.00258664,0.000407289,-0.00652594,0.421136,0.00449255,0.0351731,944,1695,6.5234,-40.1929
-273,-671,6.44391,40.701,-0.00104177,-0.0039528,0.00225966,0.000190579,-0.00518515,0.499279,0.00352201,0.0329294,951,1695,6.44392,-40.701
-266,-671,6.40131,41.2515,-0.0010566,-0.00245086,0.00226366,0.000614845,-0.00412231,0.636024,0.00297441,0.0248377,958,1695,6.40133,-41.2514
-259,-671,6.34277,41.7478,-0.00121258,-0.00129647,0.00190564,0.00065158,-0.00316063,0.774395,0.00235453,0.0210882,965,1695,6.34279,-41.7478
-252,-671,6.36694,42.3053,-0.00129589,3.39026e-05,0.00172402,0.0012168,-0.00247879,0.969443,0.00217472,0.0174344,972,1695,6.36691,-42.3054
-245,-671,6.36609,42.848,-0.00115599,0.000422241,0.00140437,0.00124401,-0.00197776,1.04136,0.0018761,0.0202062,979,1695,6.36611,-42.848
-238,-671,6.35602,43.3707,-0.00115813,0.0011555,0.00112583,0.0016129,-0.00161554,1.18488,0.00186394,0.0199938,986,1695,6.35604,-43.3708
-231,-671,6.30518,43.9154,-0.00123528,0.00210268,0.00111217,0.0024393,-0.0015719,1.27689,0.00233384,0.0146922,993,1695,6.30515,-43.9154
-224,-671,6.26184,44.4337,-0.00101911,0.00227297,0.00120637,0.0026677,-0.00141385,1.25457,0.00239326,0.011777,1000,1695,6.26184,-44.4337
-217,-671,6.2428,44.9484,-0.00050735,0.00192581,0.00125539,0.0024574,-0.00103893,1.17025,0.00207324,0.0113655,1007,1695,6.2428,-44.9483
-210,-671,6.24091,45.4631,7.33028e-05,0.00148682,0.00135013,0.00230398,-0.000743864,1.02652,0.00183491,0.0114714,1014,1695,6.24093,-45.4631
-203,-671,6.20166,45.9362,0.000636917,0.00140204,0.00159631,0.00266099,-0.000622035,0.903007,0.00201363,0.0191579,1021,1695,6.20171,-45.9362
-196,-671,6.17834,46.4039,0.00117035,0.0013646,0.00184683,0.00311686,-0.000581906,0.811669,0.00229658,0.0166984,1028,1695,6.17838,-46.4039
-189,-671,6.19006,46.9268,0.00160236,0.00156381,0.00211628,0.00369945,-0.00053328,0.780844,0.00266192,0.0127616,1035,1695,6.19005,-46.9268
-182,-671,6.18311,47.3828,0.0020954,0.00224454,0.00239876,0.00456988,-0.000229944,0.800937,0.00312606,0.0103837,1042,1695,6.18309,-47.3828
-175,-671,6.17651,47.8152,0.00273327,0.00305524,0.00276139,0.00566033,0.000128177,0.814515,0.00373156,0.0132574,1049,1695,6.17655,-47.8151
-168,-671,6.17175,48.2401,0.00314663,0.0042143,0.00305532,0.00678206,0.000578858,0.871887,0.00434131,0.0140534,1056,1695,6.17174,-48.2401
-161,-671,6.17578,48.677,0.00348969,0.00563303,0.00332815,0.0080578,0.00106493,0.941157,0.00505442,0.0102624,1063,1695,6.17578,-48.677
-154,-671,6.19873,49.1091,0.00388709,0.00729465,0.00352072,0.00950218,0.00167956,1.01075,0.00585578,0.00962731,1070,1695,6.19869,-49.1091
-147,-671,6.20166,49.5369,0.00430901,0.00893424,0.00362058,0.0109178,0.00232548,1.06961,0.0066405,0.0107149,1077,1695,6.20168,-49.5369
-140,-671,6.23303,49.9343,0.00469324,0.0105199,0.00357195,0.0122159,0.00299719,1.12749,0.00735144,0.0135436,1084,1695,6.23308,-49.9343
-133,-671,6.2323,50.3081,0.00520005,0.0121769,0.00349571,0.013627,0.00374993,1.17757,0.00812831,0.019207,1091,1695,6.23234,-50.3081
-126,-671,6.30505,50.842,0.00563756,0.0140731,0.00335542,0.015245,0.00446567,1.23479,0.00904979,0.0331878,1098,1695,6.30504,-50.8421
-119,-671,6.4054,51.511,0,0,0,0,0,0,0,-1,1105,1695,6.40538,-51.511
-112,-671,6.58704,44.6255,0,0,0,0,0,0,0,-1,1112,1695,6.58701,-44.6255
-105,-671,7.33252,41.3418,0,0,0,0,0,0,0,-1,1119,1695,7.33247,-41.3418
-98,-671,6.34534,45.6299,0,0,0,0,0,0,0,-1,1126,1695,6.34533,-45.6299
-91,-671,6.40063,38.2443,0,0,0,0,0,0,0,-1,1133,1695,6.40059,-38.2442
-84,-671,5.4209,26.2415,0,0,0,0,0,0,0,-1,1140,1695,5.42096,-26.2414
-77,-671,4.31763,16.489,0,0,0,0,0,0,0,-1,1147,1695,4.31757,-16.489
-70,-671,3.06067,10.7737,0,0,0,0,0,0,0,-1,1154,1695,3.0607,-10.7737
-63,-671,2.94592,6.90198,0,0,0,0,0,0,0,-1,1161,1695,2.94594,-6.90198
-56,-671,-3.07678,2.87976,0,0,0,0,0,0,0,-1,1168,1695,-3.07675,-2.87979
-49,-671,-1.05957,4.76917,0,0,0,0,0,0,0,-1,1175,1695,-1.05958,-4.76921
-42,-671,0.539307,3.7865,0,0,0,0,0,0,0,-1,1182,1695,0.539266,-3.78648
-35,-671,-0.272461,0.347534,0,0,0,0,0,0,0,-1,1189,1695,-0.272434,-0.347569
-28,-671,-10.4878,17.2009,0,0,0,0,0,0,0,-1,1196,1695,-10.4878,-17.2009
-21,-671,6.75037,54.4504,0,0,0,0,0,0,0,-1,1203,1695,6.75034,-54.4504
-14,-671,7.04053,54.4894,0,0,0,0,0,0,0,-1,1210,1695,7.04052,-54.4893
-7,-671,7.7019,54.9871,0,0,0,0,0,0,0,-1,1217,1695,7.70193,-54.987
0,-671,7.77258,55.3484,0.0997813,0.00699157,0.00230158,0.0998383,0.00693452,0.0247839,0.064372,0.0468731,1224,1695,7.77259,-55.3484
7,-671,8.17261,55.7047,0.0915162,0.00604234,0.00416479,0.0917187,0.00583989,0.0485725,0.0592951,0.0480677,1231,1695,8.17257,-55.7047
14,-671,8.40186,56.3563,0.0796047,0.00238144,0.00352377,0.0797652,0.00222098,0.0455049,0.0524521,0.0461406,1238,1695,8.40189,-56.3563
21,-671,8.60925,57.0341,0.0656569,-0.00243638,0.000802676,0.0656663,-0.00244584,0.0117857,0.0446152,0.0455972,1245,1695,8.60925,-57.0341
28,-671,9.08887,58.0552,0.0503329,-0.00869191,-0.00349473,0.0505391,-0.00889811,-0.0589334,0.037017,0.0466073,1252,1695,9.08882,-58.0552
35,-671,9.43665,58.7205,0.0347301,-0.0159481,-0.00868366,0.0361768,-0.0173947,-0.165077,0.0315568,0.0460473,1259,1695,9.43665,-58.7205
42,-671,9.74023,59.3322,0,0,0,0,0,0,0,-1,1266,1695,9.7402,-59.3321
49,-671,10.55,58.1509,0.00832701,-0.0295795,-0.0183563,0.015759,-0.0370115,-0.3847,0.0312798,0.0449047,1273,1695,10.55,-58.1509
56,-671,10.0015,57.7804,-0.00312779,-0.0343724,-0.0228951,0.00896708,-0.0464672,-0.48601,0.0343595,0.0453954,1280,1695,10.0015,-57.7803
63,-671,9.61121,57.3799,-0.0143601,-0.0385352,-0.0251902,0.00149257,-0.0543879,-0.561699,0.0367662,0.0460424,1287,1695,9.61117,-57.3798
70,-671,9.21106,57.0824,-0.0211015,-0.0391898,-0.0307045,0.00186314,-0.0621544,-0.642171,0.0420711,0.0435409,1294,1695,9.21101,-57.0825
77,-671,8.69226,56.7559,-0.0270528,-0.0385566,-0.0347678,0.00243562,-0.068045,-0.703422,0.0461966,0.0425259,1301,1695,8.69226,-56.7559
84,-671,8.06494,56.2955,-0.0273105,-0.0377178,-0.0367285,0.00458114,-0.0696094,-0.715027,0.0480062,0.0457282,1308,1695,8.0649,-56.2955
91,-671,8.64783,55.9899,0,0,0,0,0,0,0,-1,1315,1695,8.64787,-55.9899
98,-671,7.77136,56.1383,0,0,0,0,0,0,0,-1,1322,1695,7.77142,-56.1383
105,-671,6.77246,56.0018,-0.0208226,-0.0188295,-0.0367146,0.0169021,-0.0565542,-0.798967,0.0444219,0.0424087,1329,1695,6.77249,-56.0018
112,-671,6.42371,55.2351,-0.0176272,-0.010159,-0.0358181,0.0221192,-0.0499054,-0.837337,0.0426024,0.0408407,1336,1695,6.42375,-55.2351
119,-671,6.10535,54.7123,-0.0146631,-0.00272907,-0.0352495,0.0270549,-0.044447,-0.869243,0.0416867,0.0449676,1343,1695,6.10529,-54.7123
126,-671,5.79578,54.1798,0,0,0,0,0,0,0,-1,1350,1695,5.79579,-54.1798
133,-671,9.25598,55.3823,-0.0122499,0.010864,-0.0338968,0.0351198,-0.0365057,-0.949691,0.0413556,0.0459316,1357,1695,9.25599,-55.3823
140,-671,9.3136,56.0511,-0.0132752,0.0169329,-0.0328563,0.0379906,-0.0343329,-1.00084,0.0417738,0.0430498,1364,1695,9.31358,-56.0511
147,-671,9.33899,56.824,0,0,0,0,0,0,0,-1,1371,1695,9.33897,-56.824
154,-671,9.40662,57.5188,0,0,0,0,0,0,0,-1,1378,1695,9.40657,-57.5188
161,-671,4.49292,4.91272,0,0,0,0,0,0,0,-1,1385,1695,4.49297,-4.91273
168,-671,5.17639,6.1416,0,0,0,0,0,0,0,-1,1392,1695,5.1764,-6.14164
175,-671,5.6731,1.64685,0,0,0,0,0,0,0,-1,1399,1695,5.67313,-1.64691
182,-671,5.56812,1.71692,0,0,0,0,0,0,0,-1,1406,1695,5.56809,-1.71686
189,-671,6.98315,6.36169,0,0,0,0,0,0,0,-1,1413,1695,6.98312,-6.36175
196,-671,5.38123,5.69775,0,0,0,0,0,0,0,-1,1420,1695,5.38125,-5.69769
203,-671,5.95117,8.11658,0,0,0,0,0,0,0,-1,1427,1695,5.9512,-8.11662
210,-671,4.73596,8.39624,0,0,0,0,0,0,0,-1,1434,1695,4.736,-8.39618
217,-671,5.37097,11.863,0,0,0,0,0,0,0,-1,1441,1695,5.37094,-11.863
224,-671,5.08167,13.6694,0,0,0,0,0,0,0,-1,1448,1695,5.08165,-13.6695
231,-671,5.66663,15.3348,0,0,0,0,0,0,0,-1,1455,1695,5.66667,-15.3349
238,-671,6.32959,16.2036,0,0,0,0,0,0,0,-1,1462,1695,6.32961,-16.2037
245,-671,11.6372,50.5765,0,0,0,0,0,0,0,-1,1469,1695,11.6372,-50.5766
252,-671,11.3958,50.7214,0,0,0,0,0,0,0,-1,1476,1695,11.3958,-50.7214
259,-671,11.4149,50.5313,0,0,0,0,0,0,0,-1,1483,1695,11.415,-50.5313
266,-671,11.4727,49.9974,0.00639588,0.00113518,-0.000452054,0.00643445,0.00109662,-0.085099,0.00397484,0.0370273,1490,1695,11.4727,-49.9974
273,-671,11.5526,49.6522,0.0061424,0.00165863,-0.000639171,0.00623174,0.00156929,-0.138868,0.00374271,0.011604,1497,1695,11.5526,-49.6522
280,-671,11.5479,49.2679,0.0057974,0.00212818,-0.00075398,0.00594629,0.00197928,-0.194966,0.00349645,0.0104314,1504,1695,11.5478,-49.268
287,-671,11.5481,48.7621,0.00540172,0.00235347,-0.000785213,0.0055921,0.00216309,-0.237862,0.00325606,0.0129668,1511,1695,11.5481,-48.7621
294,-671,11.5577,48.3181,0.00495084,0.00251527,-0.000789189,0.0051842,0.00228191,-0.287502,0.00300023,0.0136123,1518,1695,11.5578,-48.3181
301,-671,11.5867,47.9277,0.00438545,0.00259857,-0.000806974,0.00469594,0.00228808,-0.367296,0.00271149,0.0118166,1525,1695,11.5866,-47.9277
308,-671,11.5885,47.5087,0.00376224,0.0026892,-0.000874336,0.00425154,0.00219989,-0.510206,0.00245513,0.0122629,1532,1695,11.5885,-47.5087
315,-671,11.5901,47.0669,0.00307484,0.0027055,-0.000874747,0.0037842,0.00199614,-0.68137,0.00218591,0.0143545,1539,1695,11.59,-47.0669
322,-671,11.6069,46.6393,0.00233917,0.00270066,-0.000825625,0.00336509,0.00167474,-0.893159,0.00194284,0.0160539,1546,1695,11.6069,-46.6392
329,-671,11.5872,46.217,0.00162312,0.00254395,-0.000733506,0.00294957,0.0012175,-1.06566,0.00171155,0.0134015,1553,1695,11.5872,-46.217
336,-671,11.5894,45.7328,0.000960883,0.00229012,-0.000603338,0.00252313,0.000727874,-1.20224,0.00149955,0.0106518,1560,1695,11.5894,-45.7328
343,-671,11.5977,45.2198,0.000304183,0.002076,-0.000444586,0.0021813,0.000198885,-1.33824,0.00139265,0.0120788,1567,1695,11.5977,-45.2198
350,-671,11.575,44.7625,-0.00018722,0.00176209,-0.000346819,0.00182196,-0.000247087,-1.39986,0.00130482,0.0137059,1574,1695,11.575,-44.7625
357,-671,11.5535,44.2039,-0.000566951,0.00134564,-0.00033305,0.00140198,-0.000623288,-1.40323,0.00119775,0.0126009,1581,1695,11.5535,-44.2039
364,-671,11.5369,43.6821,-0.00069473,0.00113082,-0.000497519,0.0012576,-0.000821515,-1.32127,0.00120915,0.0122738,1588,1695,11.5368,-43.6822
371,-671,11.5093,43.2239,-0.000462103,0.00121652,-0.000947933,0.00164331,-0.000888896,-1.14775,0.00148344,0.0140155,1595,1695,11.5093,-43.2239
378,-671,11.4769,42.7135,-0.000120741,0.00114019,-0.00150213,0.0021388,-0.00111935,-0.984091,0.00191154,0.0124558,1602,1695,11.4769,-42.7135
385,-671,11.4409,42.1777,0.000557533,0.0016972,-0.00227981,0.00347731,-0.00122257,-0.907863,0.00281564,0.0141143,1609,1695,11.441,-42.1778
392,-671,11.395,41.6799,0.00172857,0.00272055,-0.00327928,0.00554114,-0.00109202,-0.860455,0.00410678,0.0181979,1616,1695,11.3951,-41.6799
399,-671,11.3455,41.1704,0.00291832,0.00396435,-0.00460904,0.00807995,-0.00119728,-0.841895,0.00582688,0.0148289,1623,1695,11.3455,-41.1704
406,-671,11.3906,40.6124,0.00431461,0.00567892,-0.00621912,0.0112532,-0.00125965,-0.840023,0.00795532,0.0191747,1630,1695,11.3906,-40.6124
413,-671,11.3948,40.0966,0.00605293,0.00826818,-0.00813849,0.0153741,-0.00105297,-0.853031,0.0106178,0.0277836,1637,1695,11.3948,-40.0965
420,-671,11.4521,39.3422,0.00814403,0.0117582,-0.0103278,0.0204359,-0.00053364,-0.872007,0.0138052,0.0461325,1644,1695,11.4521,-39.3422
427,-671,11.45,38.6353,0,0,0,0,0,0,0,-1,1651,1695,11.45,-38.6352
434,-671,11.1704,37.7747,0,0,0,0,0,0,0,-1,1658,1695,11.1704,-37.7747
441,-671,11.0129,36.8718,0,0,0,0,0,0,0,-1,1665,1695,11.0129,-36.8718
448,-671,7.44873,20.2306,0,0,0,0,0,0,0,-1,1672,1695,7.44872,-20.2306
455,-671,6.62805,19.8612,0,0,0,0,0,0,0,-1,1679,1695,6.62811,-19.8612
462,-671,5.86255,4.47961,0,0,0,0,0,0,0,-1,1686,1695,5.8625,-4.4796
469,-671,3.71301,3.76978,0,0,0,0,0,0,0,-1,1693,1695,3.71297,-3.76974
476,-671,3.75574,3.18848,0,0,0,0,0,0,0,-1,1700,1695,3.7558,-3.18847
483,-671,7.81824,12.1041,0,0,0,0,0,0,0,-1,1707,1695,7.81826,-12.1041
490,-671,0,0,0,0,0,0,0,0,0,-1,1714,1695,0,0
497,-671,0,0,0,0,0,0,0,0,0,-1,1721,1695,0,0
504,-671,0,0,0,0,0,0,0,0,0,-1,1728,1695,0,0
511,-671,0,0,0,0,0,0,0,0,0,-1,1735,1695,0,0
518,-671,0,0,0,0,0,0,0,0,0,-1,1742,1695,0,0
525,-671,0,0,0,0,0,0,0,0,0,-1,1749,1695,0,0
532,-671,0,0,0,0,0,0,0,0,0,-1,1756,1695,0,0
539,-671,0,0,0,0,0,0,0,0,0,-1,1763,1695,0,0
546,-671,0,0,0,0,0,0,0,0,0,-1,1770,1695,0,0
553,-671,0,0,0,0,0,0,0,0,0,-1,1777,1695,0,0
560,-671,0,0,0,0,0,0,0,0,0,-1,1784,1695,0,0
567,-671,0,0,0,0,0,0,0,0,0,-1,1791,1695,0,0
574,-671,0,0,0,0,0,0,0,0,0,-1,1798,1695,0,0
581,-671,0,0,0,0,0,0,0,0,0,-1,1805,1695,0,0
588,-671,0,0,0,0,0,0,0,0,0,-1,1812,1695,0,0
595,-671,0,0,0,0,0,0,0,0,0,-1,1819,1695,0,0
602,-671,0,0,0,0,0,0,0,0,0,-1,1826,1695,0,0
609,-671,0,0,0,0,0,0,0,0,0,-1,1833,1695,0,0
616,-671,0,0,0,0,0,0,0,0,0,-1,1840,1695,0,0
623,-671,0,0,0,0,0,0,0,0,0,-1,1847,1695,0,0
630,-671,0,0,0,0,0,0,0,0,0,-1,1854,1695,0,0
637,-671,0,0,0,0,0,0,0,0,0,-1,1861,1695,0,0
644,-671,0,0,0,0,0,0,0,0,0,-1,1868,1695,0,0
651,-671,0,0,0,0,0,0,0,0,0,-1,1875,1695,0,0
658,-671,0,0,0,0,0,0,0,0,0,-1,1882,1695,0,0
665,-671,0,0,0,0,0,0,0,0,0,-1,1889,1695,0,0
672,-671,0,0,0,0,0,0,0,0,0,-1,1896,1695,0,0
679,-671,0,0,0,0,0,0,0,0,0,-1,1903,1695,0,0
686,-671,0,0,0,0,0,0,0,0,0,-1,1910,1695,0,0
693,-671,0,0,0,0,0,0,0,0,0,-1,1917,1695,0,0
700,-671,0,0,0,0,0,0,0,0,0,-1,1924,1695,0,0
707,-671,0,0,0,0,0,0,0,0,0,-1,1931,1695,0,0
714,-671,0,0,0,0,0,0,0,0,0,-1,1938,1695,0,0
721,-671,0,0,0,0,0,0,0,0,0,-1,1945,1695,0,0
728,-671,0,0,0,0,0,0,0,0,0,-1,1952,1695,0,0
735,-671,0,0,0,0,0,0,0,0,0,-1,1959,1695,0,0
742,-671,0,0,0,0,0,0,0,0,0,-1,1966,1695,0,0
749,-671,0,0,0,0,0,0,0,0,0,-1,1973,1695,0,0
756,-671,0,0,0,0,0,0,0,0,0,-1,1980,1695,0,0
763,-671,0,0,0,0,0,0,0,0,0,-1,1987,1695,0,0
770,-671,0,0,0,0,0,0,0,0,0,-1,1994,1695,0,0
777,-671,0,0,0,0,0,0,0,0,0,-1,2001,1695,0,0
784,-671,0,0,0,0,0,0,0,0,0,-1,2008,1695,0,0
791,-671,0,0,0,0,0,0,0,0,0,-1,2015,1695,0,0
798,-671,0,0,0,0,0,0,0,0,0,-1,2022,1695,0,0
805,-671,0,0,0,0,0,0,0,0,0,-1,2029,1695,0,0
812,-671,0,0,0,0,0,0,0,0,0,-1,2036,1695,0,0
-700,-678,0,0,0,0,0,0,0,0,0,-1,524,1702,0,0
-693,-678,0,0,0,0,0,0,0,0,0,-1,531,1702,0,0
-686,-678,0,0,0,0,0,0,0,0,0,-1,538,1702,0,0
-679,-678,0,0,0,0,0,0,0,0,0,-1,545,1702,0,0
-672,-678,0,0,0,0,0,0,0,0,0,-1,552,1702,0,0
-665,-678,0,0,0,0,0,0,0,0,0,-1,559,1702,0,0
-658,-678,0,0,0,0,0,0,0,0,0,-1,566,1702,0,0
-651,-678,0,0,0,0,0,0,0,0,0,-1,573,1702,0,0
-644,-678,0,0,0,0,0,0,0,0,0,-1,580,1702,0,0
-637,-678,0,0,0,0,0,0,0,0,0,-1,587,1702,0,0
-630,-678,0,0,0,0,0,0,0,0,0,-1,594,1702,0,0
-623,-678,0,0,0,0,0,0,0,0,0,-1,601,1702,0,0
-616,-678,0,0,0,0,0,0,0,0,0,-1,608,1702,0,0
-609,-678,0,0,0,0,0,0,0,0,0,-1,615,1702,0,0
-602,-678,0,0,0,0,0,0,0,0,0,-1,622,1702,0,0
-595,-678,0,0,0,0,0,0,0,0,0,-1,629,1702,0,0
-588,-678,0,0,0,0,0,0,0,0,0,-1,636,1702,0,0
-581,-678,0,0,0,0,0,0,0,0,0,-1,643,1702,0,0
-574,-678,0,0,0,0,0,0,0,0,0,-1,650,1702,0,0
-567,-678,0,0,0,0,0,0,0,0,0,-1,657,1702,0,0
-560,-678,0,0,0,0,0,0,0,0,0,-1,664,1702,0,0
-553,-678,0,0,0,0,0,0,0,0,0,-1,671,1702,0,0
-546,-678,0,0,0,0,0,0,0,0,0,-1,678,1702,0,0
-539,-678,0,0,0,0,0,0,0,0,0,-1,685,1702,0,0
-532,-678,0,0,0,0,0,0,0,0,0,-1,692,1702,0,0
-525,-678,0,0,0,0,0,0,0,0,0,-1,699,1702,0,0
-518,-678,0,0,0,0,0,0,0,0,0,-1,706,1702,0,0
-511,-678,0,0,0,0,0,0,0,0,0,-1,713,1702,0,0
-504,-678,0,0,0,0,0,0,0,0,0,-1,720,1702,0,0
-497,-678,0,0,0,0,0,0,0,0,0,-1,727,1702,0,0
-490,-678,0,0,0,0,0,0,0,0,0,-1,734,1702,0,0
-483,-678,0,0,0,0,0,0,0,0,0,-1,741,1702,0,0
-476,-678,0,0,0,0,0,0,0,0,0,-1,748,1702,0,0
-469,-678,0,0,0,0,0,0,0,0,0,-1,755,1702,0,0
-462,-678,0,0,0,0,0,0,0,0,0,-1,762,1702,0,0
-455,-678,0,0,0,0,0,0,0,0,0,-1,769,1702,0,0
-448,-678,0,0,0,0,0,0,0,0,0,-1,776,1702,0,0
-441,-678,0,0,0,0,0,0,0,0,0,-1,783,1702,0,0
-434,-678,0,0,0,0,0,0,0,0,0,-1,790,1702,0,0
-427,-678,0,0,0,0,0,0,0,0,0,-1,797,1702,0,0
-420,-678,0,0,0,0,0,0,0,0,0,-1,804,1702,0,0
-413,-678,0,0,0,0,0,0,0,0,0,-1,811,1702,0,0
-406,-678,0,0,0,0,0,0,0,0,0,-1,818,1702,0,0
-399,-678,0,0,0,0,0,0,0,0,0,-1,825,1702,0,0
-392,-678,0,0,0,0,0,0,0,0,0,-1,832,1702,0,0
-385,-678,0,0,0,0,0,0,0,0,0,-1,839,1702,0,0
-378,-678,0,0,0,0,0,0,0,0,0,-1,846,1702,0,0
-371,-678,0,0,0,0,0,0,0,0,0,-1,853,1702,0,0
-364,-678,0,0,0,0,0,0,0,0,0,-1,860,1702,0,0
-357,-678,0,0,0,0,0,0,0,0,0,-1,867,1702,0,0
-350,-678,-5.79944,6.11865,0,0,0,0,0,0,0,-1,874,1702,-5.79942,-6.11864
-343,-678,8.79578,34.4388,0,0,0,0,0,0,0,-1,881,1702,8.79579,-34.4388
-336,-678,9.06317,34.813,0,0,0,0,0,0,0,-1,888,1702,9.06318,-34.8129
-329,-678,8.68359,35.6151,0,0,0,0,0,0,0,-1,895,1702,8.68362,-35.6152
-322,-678,8.50494,35.5048,0,0,0,0,0,0,0,-1,902,1702,8.50495,-35.5047
-315,-678,7.92517,36.941,0,0,0,0,0,0,0,-1,909,1702,7.92518,-36.941
-308,-678,7.0307,37.2706,0,0,0,0,0,0,0,-1,916,1702,7.03069,-37.2706
-301,-678,7.47504,37.3203,0,0,0,0,0,0,0,-1,923,1702,7.47504,-37.3203
-294,-678,6.6236,39.0983,0,0,0,0,0,0,0,-1,930,1702,6.62361,-39.0983
-287,-678,6.91223,39.9137,0.00079818,-0.0094201,0.00370797,0.00200191,-0.0106238,0.3139,0.00783557,0.0467483,937,1702,6.91224,-39.9136
-280,-678,7.06927,40.5443,2.7315e-05,-0.00718585,0.00310679,0.00118094,-0.00833947,0.355544,0.00599221,0.0443849,944,1702,7.06927,-40.5443
-273,-678,7.28223,40.6461,0,0,0,0,0,0,0,-1,951,1702,7.28224,-40.6462
-266,-678,7.06555,41.262,-0.00105412,-0.00282625,0.00266687,0.000870034,-0.0047504,0.625012,0.00349325,0.0363635,958,1702,7.06553,-41.262
-259,-678,6.84729,41.8356,-0.00152524,-0.0011726,0.00226,0.000917945,-0.00361578,0.824328,0.00276772,0.0217194,965,1702,6.84729,-41.8356
-252,-678,6.88531,42.3485,-0.00186892,0.000286947,0.00206296,0.00153662,-0.00311859,1.02615,0.00273893,0.0186144,972,1702,6.8853,-42.3485
-245,-678,6.85626,42.8823,-0.00190641,0.000793515,0.00172009,0.00163012,-0.00274302,1.11811,0.00255194,0.0194783,979,1702,6.85628,-42.8823
-238,-678,6.81726,43.397,-0.00206073,0.00166556,0.00141462,0.00214174,-0.00253691,1.2461,0.00270443,0.0148238,986,1702,6.81725,-43.397
-231,-678,6.77161,43.9205,-0.00231962,0.00290379,0.00142435,0.00326694,-0.00268277,1.32116,0.00344058,0.0121334,993,1702,6.77159,-43.9205
-224,-678,6.7359,44.4437,-0.00222052,0.00304044,0.00149298,0.00343459,-0.00261468,1.31268,0.00350322,0.012625,1000,1702,6.73592,-44.4437
-217,-678,6.72125,44.9877,-0.0016814,0.00256221,0.00148596,0.0030308,-0.00214998,1.26532,0.0030055,0.0133563,1007,1702,6.72123,-44.9876
-210,-678,6.70697,45.5159,-0.00107602,0.00194143,0.00147478,0.0025425,-0.00167708,1.18379,0.0024532,0.0140357,1014,1702,6.70697,-45.5158
-203,-678,6.70825,45.972,-0.000482732,0.00172533,0.00162724,0.00258772,-0.00134512,1.08346,0.0023081,0.0187919,1021,1702,6.70826,-45.972
-196,-678,6.67432,46.4385,7.45465e-05,0.00161,0.00176275,0.00276495,-0.0010804,0.990776,0.00229003,0.0187769,1028,1702,6.6743,-46.4385
-189,-678,6.65039,46.9236,0.000515789,0.00165216,0.00190445,0.00307138,-0.000903432,0.930367,0.00240595,0.0110234,1035,1702,6.65034,-46.9236
-182,-678,6.64746,47.3979,0.00103417,0.00209714,0.00205292,0.00368625,-0.000554945,0.912063,0.00266184,0.010295,1042,1702,6.64749,-47.3979
-175,-678,6.63599,47.8528,0.00173184,0.00262752,0.00228007,0.00450332,-0.000143956,0.882371,0.00305133,0.0117216,1049,1702,6.63598,-47.8528
-168,-678,6.61304,48.285,0.0021583,0.00341519,0.00239571,0.00526352,0.000309975,0.913668,0.00341038,0.0112411,1056,1702,6.61308,-48.285
-161,-678,6.61438,48.7034,0.00245587,0.00438988,0.0024928,0.00609667,0.000749082,0.970422,0.00383919,0.00949175,1063,1702,6.6144,-48.7034
-154,-678,6.62402,49.146,0.00282683,0.00555032,0.00255519,0.00708398,0.00129317,1.03022,0.00435606,0.00872425,1070,1702,6.62406,-49.146
-147,-678,6.60596,49.572,0.00323687,0.00670621,0.00255481,0.0080596,0.00188348,1.08364,0.00486824,0.0106601,1077,1702,6.60599,-49.572
-140,-678,6.62927,49.9777,0.00360784,0.00767056,0.00241722,0.00879663,0.00248177,1.13484,0.00523699,0.011532,1084,1702,6.62928,-49.9777
-133,-678,6.65442,50.3575,0.00404576,0.00863324,0.00225264,0.00955441,0.0031246,1.18262,0.00562519,0.0128391,1091,1702,6.65439,-50.3576
-126,-678,6.67627,50.7816,0.00439445,0.0094627,0.00200433,0.0101595,0.00369761,1.2362,0.00593755,0.0159221,1098,1702,6.67627,-50.7817
-119,-678,6.73218,51.5079,0,0,0,0,0,0,0,-1,1105,1702,6.73215,-51.508
-112,-678,6.78528,52.1682,0,0,0,0,0,0,0,-1,1112,1702,6.78531,-52.1682
-105,-678,6.70972,51.9479,0,0,0,0,0,0,0,-1,1119,1702,6.70967,-51.9479
-98,-678,6.76135,52.3767,0,0,0,0,0,0,0,-1,1126,1702,6.76133,-52.3767
-91,-678,6.87781,52.5073,0,0,0,0,0,0,0,-1,1133,1702,6.8778,-52.5073
-84,-678,6.58545,36.5073,0,0,0,0,0,0,0,-1,1140,1702,6.58544,-36.5073
-77,-678,5.95154,29.1879,0,0,0,0,0,0,0,-1,1147,1702,5.95156,-29.1878
-70,-678,4.75891,19.6552,0,0,0,0,0,0,0,-1,1154,1702,4.75895,-19.6551
-63,-678,3.41687,11.0365,0,0,0,0,0,0,0,-1,1161,1702,3.41682,-11.0365
-56,-678,1.72388,6.13159,0,0,0,0,0,0,0,-1,1168,1702,1.72388,-6.13157
-49,-678,-0.241699,5.29895,0,0,0,0,0,0,0,-1,1175,1702,-0.241682,-5.29897
-42,-678,0.297119,3.90649,0,0,0,0,0,0,0,-1,1182,1702,0.297139,-3.90655
-35,-678,0.498413,3.64038,0,0,0,0,0,0,0,-1,1189,1702,0.498471,-3.64038
-28,-678,0.132446,3.55994,0,0,0,0,0,0,0,-1,1196,1702,0.132432,-3.55993
-21,-678,7.30408,54.6969,0,0,0,0,0,0,0,-1,1203,1702,7.30405,-54.6969
-14,-678,7.55627,54.7188,0.0824341,0.00323147,-0.000839522,0.082443,0.00322257,-0.0105981,0.0539199,0.0435578,1210,1702,7.5563,-54.7188
-7,-678,7.91028,55.025,0.0793989,0.0045154,0.00107061,0.0794142,0.0045001,0.0142931,0.0515084,0.0466094,1217,1702,7.91026,-55.025
0,-678,8.12988,55.3346,0.0756615,0.00549178,0.00301209,0.0757906,0.00536273,0.0428207,0.0488377,0.0485015,1224,1702,8.12994,-55.3346
7,-678,8.36353,55.7063,0.070548,0.00422508,0.00363536,0.0707467,0.00402641,0.0545949,0.0458813,0.0476421,1231,1702,8.36355,-55.7063
14,-678,8.48962,56.1167,0.0624158,0.00127124,0.00232477,0.062504,0.00118298,0.0379479,0.0412807,0.045127,1238,1702,8.48958,-56.1167
21,-678,8.67651,56.7271,0.0527032,-0.00225367,-0.000475946,0.0527073,-0.00225779,-0.00865949,0.0359144,0.0447971,1245,1702,8.67651,-56.7271
28,-678,9.16113,57.2864,0.0416204,-0.00695096,-0.00448085,0.0420303,-0.00736088,-0.091227,0.0307687,0.0442493,1252,1702,9.16114,-57.2863
35,-678,9.67285,58.0083,0.0297176,-0.0127059,-0.00919208,0.0316237,-0.0146119,-0.20446,0.0272898,0.0455255,1259,1702,9.67287,-58.0083
42,-678,10.1263,58.712,0,0,0,0,0,0,0,-1,1266,1702,10.1264,-58.7121
49,-678,12.266,58.3677,0,0,0,0,0,0,0,-1,1273,1702,12.266,-58.3677
56,-678,11.5724,57.9646,-0.000806402,-0.0279365,-0.0217705,0.0112794,-0.0400223,-0.506784,0.0311301,0.0453075,1280,1702,11.5724,-57.9646
63,-678,11.031,57.342,-0.00990717,-0.0316602,-0.0239289,0.00550109,-0.0470685,-0.572088,0.0333642,0.0452004,1287,1702,11.0311,-57.3421
70,-678,10.5757,57.1582,-0.0153041,-0.0325719,-0.0287229,0.00605448,-0.0539305,-0.639398,0.0381324,0.0439507,1294,1702,10.5757,-57.1582
77,-678,10.0752,56.8759,-0.0202873,-0.0324402,-0.0320259,0.00623345,-0.058961,-0.691645,0.0415413,0.0446864,1301,1702,10.0752,-56.8759
84,-678,10.1842,55.606,0,0,0,0,0,0,0,-1,1308,1702,10.1842,-55.606
91,-678,9.24011,55.8256,0,0,0,0,0,0,0,-1,1315,1702,9.24014,-55.8255
98,-678,8.3042,56.0002,-0.0173923,-0.0244521,-0.0325347,0.0118035,-0.0536479,-0.731362,0.0402804,0.0417994,1322,1702,8.30415,-56.0003
105,-678,7.36255,56.1982,-0.0141677,-0.0180279,-0.032244,0.0162039,-0.0483996,-0.755504,0.0388121,0.0414343,1329,1702,7.3626,-56.1983
112,-678,6.47729,56.5637,-0.0109919,-0.011496,-0.0309829,0.01974,-0.0422279,-0.781331,0.036554,0.0415238,1336,1702,6.47729,-56.5637
119,-678,9.47571,55.4443,-0.00795143,-0.00596272,-0.0299676,0.023027,-0.0369412,-0.801983,0.0349319,0.0393467,1343,1702,9.47569,-55.4444
126,-678,9.13855,55.2595,0,0,0,0,0,0,0,-1,1350,1702,9.13861,-55.2595
133,-678,9.59375,55.2578,-0.00462162,0.00351953,-0.0279492,0.0276931,-0.0287952,-0.857711,0.0326156,0.0436995,1357,1702,9.59375,-55.2578
140,-678,9.97473,55.8051,-0.00440288,0.00829158,-0.0267964,0.0294822,-0.0255935,-0.901689,0.0318244,0.045921,1364,1702,9.97469,-55.8051
147,-678,10.5159,56.2527,0,0,0,0,0,0,0,-1,1371,1702,10.5159,-56.2527
154,-678,6.71069,52.9884,0,0,0,0,0,0,0,-1,1378,1702,6.71068,-52.9884
161,-678,8.81226,34.8624,0,0,0,0,0,0,0,-1,1385,1702,8.81229,-34.8624
168,-678,4.21863,5.25781,0,0,0,0,0,0,0,-1,1392,1702,4.21865,-5.25781
175,-678,5.21899,5.9635,0,0,0,0,0,0,0,-1,1399,1702,5.21894,-5.96346
182,-678,7.31262,6.75122,0,0,0,0,0,0,0,-1,1406,1702,7.3126,-6.75123
189,-678,5.96021,6.36853,0,0,0,0,0,0,0,-1,1413,1702,5.96018,-6.36851
196,-678,5.01599,8.15771,0,0,0,0,0,0,0,-1,1420,1702,5.01596,-8.15767
203,-678,4.64771,13.0559,0,0,0,0,0,0,0,-1,1427,1702,4.64766,-13.0559
210,-678,5.6532,18.5957,0,0,0,0,0,0,0,-1,1434,1702,5.65318,-18.5958
217,-678,6.88049,23.4835,0,0,0,0,0,0,0,-1,1441,1702,6.88047,-23.4835
224,-678,8.521,32.0977,0,0,0,0,0,0,0,-1,1448,1702,8.52098,-32.0977
231,-678,9.96838,42.3734,0,0,0,0,0,0,0,-1,1455,1702,9.96844,-42.3734
238,-678,10.9049,51.6998,0,0,0,0,0,0,0,-1,1462,1702,10.9049,-51.6998
245,-678,11.056,51.1512,0,0,0,0,0,0,0,-1,1469,1702,11.056,-51.1512
252,-678,11.0601,50.8085,0.00531395,-0.000339258,0.000385953,0.00534018,-0.000365486,0.0678519,0.00368799,0.0241592,1476,1702,11.0601,-50.8085
259,-678,11.0919,50.4763,0.00501763,0.000162736,-6.41664e-05,0.00501848,0.000161888,-0.0132138,0.00329302,0.0181047,1483,1702,11.0919,-50.4763
266,-678,11.1501,50.0696,0.00468279,0.000724229,-0.000423973,0.00472769,0.00067933,-0.105508,0.00295153,0.0131073,1490,1702,11.1502,-50.0696
273,-678,11.1671,49.6853,0.00446898,0.00118054,-0.000627567,0.00458467,0.00106485,-0.182308,0.00277057,0.012208,1497,1702,11.1671,-49.6853
280,-678,11.1412,49.3007,0.00417563,0.00154838,-0.000759985,0.00437963,0.00134438,-0.262246,0.00259063,0.0122121,1504,1702,11.1412,-49.3007
287,-678,11.1532,48.858,0.00383959,0.00175535,-0.000811562,0.00411832,0.00147662,-0.330827,0.00240922,0.012226,1511,1702,11.1532,-48.858
294,-678,11.1661,48.3885,0.00346975,0.00186181,-0.000846043,0.00383289,0.00149866,-0.405445,0.00223038,0.0135843,1518,1702,11.1661,-48.3885
301,-678,11.1575,47.953,0.00298705,0.00194955,-0.000894758,0.00350256,0.00143404,-0.522695,0.00203323,0.0120726,1525,1702,11.1575,-47.9531
308,-678,11.1459,47.5293,0.00241954,0.00197747,-0.00093764,0.00316185,0.00123517,-0.669643,0.00183999,0.0133241,1532,1702,11.1459,-47.5293
315,-678,11.1305,47.089,0.00174562,0.00185243,-0.000857278,0.00265796,0.000940083,-0.816507,0.00155632,0.0153544,1539,1702,11.1305,-47.089
322,-678,11.1221,46.6704,0.00103378,0.00181572,-0.000731278,0.00225398,0.000595519,-1.03089,0.00134871,0.0181028,1546,1702,11.1221,-46.6705
329,-678,11.1031,46.2137,0.000319147,0.00164826,-0.00053641,0.00183773,0.000129671,-1.23125,0.0011843,0.014459,1553,1702,11.1031,-46.2138
336,-678,11.0944,45.7365,-0.000358101,0.00140794,-0.000333118,0.00146869,-0.000418845,-1.39043,0.00114458,0.0124794,1560,1702,11.0944,-45.7364
343,-678,11.098,45.2363,-0.000999551,0.00121636,-0.000100413,0.0012209,-0.00100409,-1.52561,0.00128663,0.0138604,1567,1702,11.098,-45.2363
350,-678,11.1001,44.7334,-0.0014435,0.000983016,6.8958e-05,0.000984974,-0.00144546,1.54241,0.00141158,0.0149416,1574,1702,11.1001,-44.7334
357,-678,11.0585,44.2374,-0.00175767,0.000651276,0.000111709,0.000656446,-0.00176284,1.52456,0.00144464,0.011492,1581,1702,11.0585,-44.2374
364,-678,11.0352,43.7362,-0.00180415,0.000592506,-7.29464e-05,0.000594724,-0.00180637,-1.5404,0.00144391,0.0114449,1588,1702,11.0352,-43.7362
371,-678,11.0004,43.2506,-0.00142593,0.000966053,-0.000638798,0.00112596,-0.00158583,-1.32551,0.00157314,0.0121721,1595,1702,11.0004,-43.2506
378,-678,10.955,42.7405,-0.000879571,0.00117043,-0.00135096,0.00184123,-0.00155037,-1.10993,0.00196054,0.0125333,1602,1702,10.955,-42.7405
385,-678,10.9474,42.2335,0.00010192,0.00213947,-0.00237986,0.00370945,-0.00146806,-0.987637,0.00308119,0.0122104,1609,1702,10.9474,-42.2335
392,-678,10.944,41.7418,0.00169752,0.00363572,-0.00371266,0.00650368,-0.00117044,-0.913063,0.004774,0.021328,1616,1702,10.944,-41.7419
399,-678,10.9945,41.2618,0.00338036,0.005513,-0.00550373,0.0100528,-0.00115939,-0.881085,0.00711983,0.0332304,1623,1702,10.9945,-41.2619
406,-678,11.0602,40.7018,0.00539343,0.00793244,-0.00769014,0.0144572,-0.00113129,-0.867202,0.0100365,0.0390094,1630,1702,11.0602,-40.7018
413,-678,10.9907,39.8951,0.00788657,0.0114261,-0.0102805,0.0200881,-0.000775373,-0.870637,0.0136578,0.0402572,1637,1702,10.9908,-39.8952
420,-678,11.151,39.0978,0.0109386,0.0160474,-0.0132605,0.0269973,-1.12616e-05,-0.880549,0.0180019,0.0451003,1644,1702,11.151,-39.0978
427,-678,11.3217,38.4203,0,0,0,0,0,0,0,-1,1651,1702,11.3216,-38.4203
434,-678,10.1094,38.722,0,0,0,0,0,0,0,-1,1658,1702,10.1094,-38.7221
441,-678,8.64539,21.1864,0,0,0,0,0,0,0,-1,1665,1702,8.64536,-21.1865
448,-678,7.62244,20.7195,0,0,0,0,0,0,0,-1,1672,1702,7.6224,-20.7195
455,-678,5.44678,5.54297,0,0,0,0,0,0,0,-1,1679,1702,5.44676,-5.54294
462,-678,3.86792,2.87402,0,0,0,0,0,0,0,-1,1686,1702,3.86796,-2.87406
469,-678,2.26587,1.98755,0,0,0,0,0,0,0,-1,1693,1702,2.26592,-1.98755
476,-678,0,0,0,0,0,0,0,0,0,-1,1700,1702,0,0
483,-678,0,0,0,0,0,0,0,0,0,-1,1707,1702,0,0
490,-678,0,0,0,0,0,0,0,0,0,-1,1714,1702,0,0
497,-678,0,0,0,0,0,0,0,0,0,-1,1721,1702,0,0
504,-678,0,0,0,0,0,0,0,0,0,-1,1728,1702,0,0
511,-678,0,0,0,0,0,0,0,0,0,-1,1735,1702,0,0
518,-678,0,0,0,0,0,0,0,0,0,-1,1742,1702,0,0
525,-678,0,0,0,0,0,0,0,0,0,-1,1749,1702,0,0
532,-678,0,0,0,0,0,0,0,0,0,-1,1756,1702,0,0
539,-678,0,0,0,0,0,0,0,0,0,-1,1763,1702,0,0
546,-678,0,0,0,0,0,0,0,0,0,-1,1770,1702,0,0
553,-678,0,0,0,0,0,0,0,0,0,-1,1777,1702,0,0
560,-678,0,0,0,0,0,0,0,0,0,-1,1784,1702,0,0
567,-678,0,0,0,0,0,0,0,0,0,-1,1791,1702,0,0
574,-678,0,0,0,0,0,0,0,0,0,-1,1798,1702,0,0
581,-678,0,0,0,0,0,0,0,0,0,-1,1805,1702,0,0
588,-678,0,0,0,0,0,0,0,0,0,-1,1812,1702,0,0
595,-678,0,0,0,0,0,0,0,0,0,-1,1819,1702,0,0
602,-678,0,0,0,0,0,0,0,0,0,-1,1826,1702,0,0
609,-678,0,0,0,0,0,0,0,0,0,-1,1833,1702,0,0
616,-678,0,0,0,0,0,0,0,0,0,-1,1840,1702,0,0
623,-678,0,0,0,0,0,0,0,0,0,-1,1847,1702,0,0
630,-678,0,0,0,0,0,0,0,0,0,-1,1854,1702,0,0
637,-678,0,0,0,0,0,0,0,0,0,-1,1861,1702,0,0
644,-678,0,0,0,0,0,0,0,0,0,-1,1868,1702,0,0
651,-678,0,0,0,0,0,0,0,0,0,-1,1875,1702,0,0
658,-678,0,0,0,0,0,0,0,0,0,-1,1882,1702,0,0
665,-678,0,0,0,0,0,0,0,0,0,-1,1889,1702,0,0
672,-678,0,0,0,0,0,0,0,0,0,-1,1896,1702,0,0
679,-678,0,0,0,0,0,0,0,0,0,-1,1903,1702,0,0
686,-678,0,0,0,0,0,0,0,0,0,-1,1910,1702,0,0
693,-678,0,0,0,0,0,0,0,0,0,-1,1917,1702,0,0
700,-678,0,0,0,0,0,0,0,0,0,-1,1924,1702,0,0
707,-678,0,0,0,0,0,0,0,0,0,-1,1931,1702,0,0
714,-678,0,0,0,0,0,0,0,0,0,-1,1938,1702,0,0
721,-678,0,0,0,0,0,0,0,0,0,-1,1945,1702,0,0
728,-678,0,0,0,0,0,0,0,0,0,-1,1952,1702,0,0
735,-678,0,0,0,0,0,0,0,0,0,-1,1959,1702,0,0
742,-678,0,0,0,0,0,0,0,0,0,-1,1966,1702,0,0
749,-678,0,0,0,0,0,0,0,0,0,-1,1973,1702,0,0
756,-678,0,0,0,0,0,0,0,0,0,-1,1980,1702,0,0
763,-678,0,0,0,0,0,0,0,0,0,-1,1987,1702,0,0
770,-678,0,0,0,0,0,0,0,0,0,-1,1994,1702,0,0
777,-678,0,0,0,0,0,0,0,0,0,-1,2001,1702,0,0
784,-678,0,0,0,0,0,0,0,0,0,-1,2008,1702,0,0
791,-678,0,0,0,0,0,0,0,0,0,-1,2015,1702,0,0
798,-678,0,0,0,0,0,0,0,0,0,-1,2022,1702,0,0
805,-678,0,0,0,0,0,0,0,0,0,-1,2029,1702,0,0
812,-678,0,0,0,0,0,0,0,0,0,-1,2036,1702,0,0
-700,-685,0,0,0,0,0,0,0,0,0,-1,524,1709,0,0
-693,-685,0,0,0,0,0,0,0,0,0,-1,531,1709,0,0
-686,-685,0,0,0,0,0,0,0,0,0,-1,538,1709,0,0
-679,-685,0,0,0,0,0,0,0,0,0,-1,545,1709,0,0
-672,-685,0,0,0,0,0,0,0,0,0,-1,552,1709,0,0
-665,-685,0,0,0,0,0,0,0,0,0,-1,559,1709,0,0
-658,-685,0,0,0,0,0,0,0,0,0,-1,566,1709,0,0
-651,-685,0,0,0,0,0,0,0,0,0,-1,573,1709,0,0
-644,-685,0,0,0,0,0,0,0,0,0,-1,580,1709,0,0
-637,-685,0,0,0,0,0,0,0,0,0,-1,587,1709,0,0
-630,-685,0,0,0,0,0,0,0,0,0,-1,594,1709,0,0
-623,-685,0,0,0,0,0,0,0,0,0,-1,601,1709,0,0
-616,-685,0,0,0,0,0,0,0,0,0,-1,608,1709,0,0
-609,-685,0,0,0,0,0,0,0,0,0,-1,615,1709,0,0
-602,-685,0,0,0,0,0,0,0,0,0,-1,622,1709,0,0
-595,-685,0,0,0,0,0,0,0,0,0,-1,629,1709,0,0
-588,-685,0,0,0,0,0,0,0,0,0,-1,636,1709,0,0
-581,-685,0,0,0,0,0,0,0,0,0,-1,643,1709,0,0
-574,-685,0,0,0,0,0,0,0,0,0,-1,650,1709,0,0
-567,-685,0,0,0,0,0,0,0,0,0,-1,657,1709,0,0
-560,-685,0,0,0,0,0,0,0,0,0,-1,664,1709,0,0
-553,-685,0,0,0,0,0,0,0,0,0,-1,671,1709,0,0
-546,-685,0,0,0,0,0,0,0,0,0,-1,678,1709,0,0
-539,-685,0,0,0,0,0,0,0,0,0,-1,685,1709,0,0
-532,-685,0,0,0,0,0,0,0,0,0,-1,692,1709,0,0
-525,-685,0,0,0,0,0,0,0,0,0,-1,699,1709,0,0
-518,-685,0,0,0,0,0,0,0,0,0,-1,706,1709,0,0
-511,-685,0,0,0,0,0,0,0,0,0,-1,713,1709,0,0
-504,-685,0,0,0,0,0,0,0,0,0,-1,720,1709,0,0
-497,-685,0,0,0,0,0,0,0,0,0,-1,727,1709,0,0
-490,-685,0,0,0,0,0,0,0,0,0,-1,734,1709,0,0
-483,-685,0,0,0,0,0,0,0,0,0,-1,741,1709,0,0
-476,-685,0,0,0,0,0,0,0,0,0,-1,748,1709,0,0
-469,-685,0,0,0,0,0,0,0,0,0,-1,755,1709,0,0
-462,-685,0,0,0,0,0,0,0,0,0,-1,762,1709,0,0
-455,-685,0,0,0,0,0,0,0,0,0,-1,769,1709,0,0
-448,-685,0,0,0,0,0,0,0,0,0,-1,776,1709,0,0
-441,-685,0,0,0,0,0,0,0,0,0,-1,783,1709,0,0
-434,-685,0,0,0,0,0,0,0,0,0,-1,790,1709,0,0
-427,-685,0,0,0,0,0,0,0,0,0,-1,797,1709,0,0
-420,-685,0,0,0,0,0,0,0,0,0,-1,804,1709,0,0
-413,-685,0,0,0,0,0,0,0,0,0,-1,811,1709,0,0
-406,-685,0,0,0,0,0,0,0,0,0,-1,818,1709,0,0
-399,-685,0,0,0,0,0,0,0,0,0,-1,825,1709,0,0
-392,-685,0,0,0,0,0,0,0,0,0,-1,832,1709,0,0
-385,-685,0,0,0,0,0,0,0,0,0,-1,839,1709,0,0
-378,-685,0,0,0,0,0,0,0,0,0,-1,846,1709,0,0
-371,-685,0,0,0,0,0,0,0,0,0,-1,853,1709,0,0
-364,-685,0,0,0,0,0,0,0,0,0,-1,860,1709,0,0
-357,-685,0,0,0,0,0,0,0,0,0,-1,867,1709,0,0
-350,-685,0,0,0,0,0,0,0,0,0,-1,874,1709,0,0
-343,-685,-5.98505,6.56335,0,0,0,0,0,0,0,-1,881,1709,-5.98505,-6.56329
-336,-685,-6.51312,5.10571,0,0,0,0,0,0,0,-1,888,1709,-6.51311,-5.10575
-329,-685,9.98907,36.2474,0,0,0,0,0,0,0,-1,895,1709,9.98909,-36.2475
-322,-685,3.83191,16.7219,0,0,0,0,0,0,0,-1,902,1709,3.8319,-16.7219
-315,-685,5.15784,21.4388,0,0,0,0,0,0,0,-1,909,1709,5.15783,-21.4389
-308,-685,7.39392,37.1825,0,0,0,0,0,0,0,-1,916,1709,7.39393,-37.1825
-301,-685,6.53046,38.03,0,0,0,0,0,0,0,-1,923,1709,6.53046,-38.03
-294,-685,7.17651,40.4591,0,0,0,0,0,0,0,-1,930,1709,7.17653,-40.4591
-287,-685,7.36658,40.6002,0.00310247,-0.0135833,0.0043152,0.00415239,-0.0146333,0.238668,0.0113947,0.0474552,937,1709,7.3666,-40.6002
-280,-685,7.53577,40.7769,0.00147071,-0.00983537,0.00346226,0.0024467,-0.0108114,0.274766,0.00814655,0.0478036,944,1709,7.53576,-40.7769
-273,-685,7.7514,40.9369,0,0,0,0,0,0,0,-1,951,1709,7.7514,-40.9368
-266,-685,7.47272,40.9316,-0.000924328,-0.00321529,0.00294622,0.00109126,-0.00523088,0.599992,0.00390221,0.0460949,958,1709,7.47269,-40.9317
-259,-685,7.50336,41.7432,-0.00185449,-0.000786133,0.00253755,0.00127285,-0.00391348,0.889138,0.00312102,0.0422411,965,1709,7.50337,-41.7431
-252,-685,7.3772,42.395,-0.00253077,0.000781492,0.00235302,0.00200277,-0.00375205,1.09204,0.00337333,0.0383693,972,1709,7.37718,-42.3951
-245,-685,7.35529,42.9241,-0.00275762,0.00152159,0.00203669,0.00233597,-0.003572,1.19042,0.00343576,0.036054,979,1709,7.35526,-42.9241
-238,-685,7.37463,43.4531,-0.00308959,0.00250407,0.00175187,0.00300744,-0.00359296,1.291,0.00381574,0.0271923,986,1709,7.37466,-43.4532
-231,-685,7.30139,43.9955,-0.00354618,0.00391733,0.00179564,0.00432687,-0.00395572,1.34656,0.00478356,0.0170687,993,1709,7.30136,-43.9955
-224,-685,7.24841,44.4845,-0.00351276,0.00393404,0.00187054,0.00437749,-0.00395621,1.33802,0.00481351,0.0150352,1000,1709,7.24839,-44.4845
-217,-685,7.21973,45.0151,-0.00287968,0.00323311,0.00183539,0.00374185,-0.00338843,1.3004,0.00411835,0.011331,1007,1709,7.21975,-45.0152
-210,-685,7.1803,45.5365,-0.0022005,0.00235957,0.00174861,0.0029529,-0.00279383,1.24367,0.0033183,0.0148416,1014,1709,7.1803,-45.5365
-203,-685,7.16541,45.9976,-0.00153256,0.00197004,0.00184563,0.00276303,-0.00232555,1.16499,0.00294151,0.0161407,1021,1709,7.16536,-45.9975
-196,-685,7.14221,46.4551,-0.000916424,0.00172974,0.00190326,0.00272462,-0.0019113,1.08914,0.00269024,0.013806,1028,1709,7.14224,-46.4551
-189,-685,7.11133,46.9305,-0.000450768,0.00158269,0.00195176,0.00276667,-0.00163474,1.02552,0.00256902,0.00929859,1035,1709,7.11128,-46.9306
-182,-685,7.09326,47.3965,4.8828e-05,0.00178423,0.00198413,0.00308209,-0.00124903,0.991529,0.00257415,0.0139948,1042,1709,7.09329,-47.3965
-175,-685,7.08081,47.8436,0.000744808,0.00208503,0.0021079,0.00362678,-0.000796933,0.939299,0.00272265,0.0152726,1049,1709,7.08079,-47.8436
-168,-685,7.05896,48.3021,0.00114211,0.00259631,0.00208345,0.0040759,-0.000337476,0.953285,0.00283646,0.0118247,1056,1709,7.05896,-48.3022
-161,-685,7.06262,48.7546,0.00135259,0.00323056,0.0020317,0.00452977,5.33795e-05,1.00186,0.00300221,0.0114221,1063,1709,7.0626,-48.7546
-154,-685,7.06067,49.1868,0.0016644,0.00402794,0.00198865,0.00515946,0.000532882,1.05349,0.00327649,0.0105542,1070,1709,7.06066,-49.1868
-147,-685,7.03552,49.5992,0.0020473,0.00489626,0.00192285,0.00586479,0.00107877,1.1042,0.00360449,0.010027,1077,1709,7.03554,-49.5993
-140,-685,7.03333,49.974,0.00242966,0.0054388,0.00174104,0.0062353,0.00163316,1.14173,0.00373351,0.0119055,1084,1709,7.03336,-49.9739
-133,-685,7.06628,50.3531,0.00286542,0.00595339,0.00155634,0.00660168,0.00221713,1.1761,0.00387935,0.0110628,1091,1709,7.06627,-50.3531
-126,-685,7.09131,50.7653,0.00328172,0.00629266,0.0013032,0.00677837,0.00279601,1.21404,0.00393342,0.00973259,1098,1709,7.0913,-50.7652
-119,-685,7.15137,51.1775,0,0,0,0,0,0,0,-1,1105,1709,7.15136,-51.1775
-112,-685,7.09558,51.5175,0.00421755,0.00606475,0.000578738,0.0062311,0.00405121,1.29092,0.0036512,0.01515,1112,1709,7.09562,-51.5174
-105,-685,7.09583,51.8724,0.00457415,0.00543731,5.0113e-05,0.00544021,0.00457125,1.513,0.00337465,0.0169761,1119,1709,7.09582,-51.8724
-98,-685,7.18982,52.1407,0.00505946,0.0046007,-0.000445408,0.00533108,0.00432908,-0.547617,0.00327161,0.0231388,1126,1709,7.1898,-52.1407
-91,-685,7.17285,52.3528,0.00568559,0.00385086,-0.000754649,0.0059561,0.00358034,-0.344193,0.00346212,0.0438417,1133,1709,7.1729,-52.3528
-84,-685,7.28491,52.7462,0,0,0,0,0,0,0,-1,1140,1709,7.28493,-52.7462
-77,-685,7.255,53.1788,0,0,0,0,0,0,0,-1,1147,1709,7.25505,-53.1789
-70,-685,7.33484,53.6433,0,0,0,0,0,0,0,-1,1154,1709,7.33488,-53.6433
-63,-685,6.03015,29.7728,0,0,0,0,0,0,0,-1,1161,1709,6.0302,-29.7728
-56,-685,3.93909,15.8704,0,0,0,0,0,0,0,-1,1168,1709,3.93905,-15.8704
-49,-685,3.07471,9.86011,0,0,0,0,0,0,0,-1,1175,1709,3.07467,-9.86009
-42,-685,2.70618,7.54504,0,0,0,0,0,0,0,-1,1182,1709,2.7062,-7.54504
-35,-685,2.95264,7.91516,0,0,0,0,0,0,0,-1,1189,1709,2.95262,-7.91517
-28,-685,8.11353,52.4509,0,0,0,0,0,0,0,-1,1196,1709,8.1135,-52.451
-21,-685,7.94519,54.7075,0,0,0,0,0,0,0,-1,1203,1709,7.94515,-54.7075
-14,-685,7.9679,54.9346,0.0612969,0.00230727,0.00104191,0.0613153,0.00228887,0.0176552,0.0401357,0.0333077,1210,1709,7.96786,-54.9346
-7,-685,8.02075,55.1433,0.0608701,0.00343814,0.00194538,0.0609359,0.00337232,0.0338212,0.0395478,0.046451,1217,1709,8.0207,-55.1434
0,-685,8.00061,55.3843,0,0,0,0,0,0,0,-1,1224,1709,8.00059,-55.3843
7,-685,8.56763,55.7172,0,0,0,0,0,0,0,-1,1231,1709,8.56764,-55.7172
14,-685,8.39294,55.8302,0,0,0,0,0,0,0,-1,1238,1709,8.39291,-55.8302
21,-685,8.69775,56.1647,0,0,0,0,0,0,0,-1,1245,1709,8.69776,-56.1647
28,-685,9.10059,56.2335,0,0,0,0,0,0,0,-1,1252,1709,9.10053,-56.2335
35,-685,9.5979,56.8329,0,0,0,0,0,0,0,-1,1259,1709,9.59794,-56.8329
42,-685,8.7572,56.2791,0,0,0,0,0,0,0,-1,1266,1709,8.75722,-56.279
49,-685,8.92554,56.3291,0,0,0,0,0,0,0,-1,1273,1709,8.92555,-56.3291
56,-685,13.1256,58.1224,0,0,0,0,0,0,0,-1,1280,1709,13.1256,-58.1224
63,-685,12.608,57.2755,0,0,0,0,0,0,0,-1,1287,1709,12.6081,-57.2756
70,-685,9.06201,56.3407,0,0,0,0,0,0,0,-1,1294,1709,9.06197,-56.3407
77,-685,9.35071,56.3048,0,0,0,0,0,0,0,-1,1301,1709,9.35069,-56.3048
84,-685,9.42517,55.1361,0,0,0,0,0,0,0,-1,1308,1709,9.4252,-55.1361
91,-685,9.34656,55.5754,0,0,0,0,0,0,0,-1,1315,1709,9.34654,-55.5754
98,-685,8.89392,55.5513,0,0,0,0,0,0,0,-1,1322,1709,8.89392,-55.5512
105,-685,8.31274,55.6863,0,0,0,0,0,0,0,-1,1329,1709,8.31278,-55.6862
112,-685,9.6145,55.4993,0,0,0,0,0,0,0,-1,1336,1709,9.61455,-55.4992
119,-685,9.66199,55.3411,0,0,0,0,0,0,0,-1,1343,1709,9.66193,-55.3411
126,-685,9.83936,55.1301,0,0,0,0,0,0,0,-1,1350,1709,9.83932,-55.1301
133,-685,10.0381,54.9706,0,0,0,0,0,0,0,-1,1357,1709,10.0381,-54.9705
140,-685,9.9353,54.9523,0,0,0,0,0,0,0,-1,1364,1709,9.93525,-54.9523
147,-685,9.89319,54.8632,0,0,0,0,0,0,0,-1,1371,1709,9.89322,-54.8632
154,-685,9.99182,54.718,0,0,0,0,0,0,0,-1,1378,1709,9.99188,-54.718
161,-685,10.4047,54.5922,0,0,0,0,0,0,0,-1,1385,1709,10.4047,-54.5922
168,-685,4.37524,10.8778,0,0,0,0,0,0,0,-1,1392,1709,4.37525,-10.8778
175,-685,3.97522,8.94324,0,0,0,0,0,0,0,-1,1399,1709,3.97519,-8.94328
182,-685,3.98218,9.19739,0,0,0,0,0,0,0,-1,1406,1709,3.98221,-9.1974
189,-685,4.53479,15.2343,0,0,0,0,0,0,0,-1,1413,1709,4.53474,-15.2343
196,-685,10.4412,53.6309,0,0,0,0,0,0,0,-1,1420,1709,10.4411,-53.6309
203,-685,10.5007,53.2675,0,0,0,0,0,0,0,-1,1427,1709,10.5007,-53.2674
210,-685,10.7534,52.8354,0,0,0,0,0,0,0,-1,1434,1709,10.7535,-52.8354
217,-685,10.6246,52.3723,0,0,0,0,0,0,0,-1,1441,1709,10.6247,-52.3723
224,-685,10.5363,52.1414,0,0,0,0,0,0,0,-1,1448,1709,10.5363,-52.1414
231,-685,10.562,51.8486,0,0,0,0,0,0,0,-1,1455,1709,10.562,-51.8487
238,-685,10.6843,51.5315,0.00418265,-0.00128561,0.00110558,0.00439772,-0.00150068,0.19213,0.00353972,0.0327646,1462,1709,10.6843,-51.5315
245,-685,10.6742,51.1553,0.00399535,-0.000712506,0.000640225,0.00408086,-0.000798018,0.132779,0.00302191,0.0209712,1469,1709,10.6742,-51.1553
252,-685,10.6906,50.8278,0.00387144,-0.000134637,0.000144001,0.00387661,-0.000139806,0.0358839,0.00263225,0.0154032,1476,1709,10.6906,-50.8278
259,-685,10.723,50.4867,0.00356535,0.000255828,-0.000232843,0.00358165,0.000239527,-0.0698967,0.00231207,0.0122542,1483,1709,10.7231,-50.4867
266,-685,10.7648,50.0945,0.00326384,0.00064622,-0.000537313,0.00336984,0.000540219,-0.194778,0.00208989,0.0139591,1490,1709,10.7648,-50.0945
273,-685,10.7445,49.6726,0.00304692,0.000986984,-0.000719071,0.00327309,0.000760808,-0.304742,0.00197785,0.016108,1497,1709,10.7444,-49.6726
280,-685,10.7207,49.2496,0.00276682,0.0012406,-0.000845009,0.00314229,0.000865125,-0.418142,0.00187427,0.016809,1504,1709,10.7207,-49.2497
287,-685,10.7258,48.8579,0.00245798,0.00142927,-0.000899993,0.00298023,0.00090702,-0.525793,0.001764,0.0122221,1511,1709,10.7258,-48.8579
294,-685,10.7281,48.4358,0.00214654,0.00148158,-0.000952607,0.00282302,0.000805098,-0.617498,0.00167926,0.010806,1518,1709,10.7281,-48.4358
301,-685,10.7407,47.9926,0.00172081,0.00158017,-0.00101922,0.00267213,0.000628843,-0.750956,0.00161319,0.0125432,1525,1709,10.7407,-47.9926
308,-685,10.74,47.5554,0.0011833,0.00158461,-0.00104738,0.00245039,0.000317528,-0.880041,0.00153871,0.0143095,1532,1709,10.74,-47.5554
315,-685,10.7289,47.123,0.00049352,0.00139795,-0.000908329,0.00196041,-6.8937e-05,-1.01636,0.00133051,0.0131798,1539,1709,10.7289,-47.123
322,-685,10.678,46.6486,-0.000216501,0.00138428,-0.000731564,0.00166824,-0.000500458,-1.20055,0.00131121,0.0208661,1546,1709,10.6779,-46.6485
329,-685,10.6515,46.2029,-0.000958342,0.00124129,-0.000442476,0.00132696,-0.00104401,-1.37954,0.00137213,0.0196178,1553,1709,10.6515,-46.2029
336,-685,10.6329,45.7334,-0.0016899,0.00103848,-0.00016562,0.0010485,-0.00169992,-1.51039,0.00160159,0.0137523,1560,1709,10.6329,-45.7334
343,-685,10.6238,45.2272,-0.00236825,0.000870609,0.000157223,0.000878223,-0.00237586,1.52241,0.00194394,0.0119064,1567,1709,10.6238,-45.2271
350,-685,10.6071,44.7472,-0.00282782,0.000697598,0.000442983,0.000752408,-0.00288263,1.44769,0.00221556,0.0123811,1574,1709,10.6071,-44.7472
357,-685,10.5671,44.2816,-0.00313471,0.000418575,0.000581006,0.000511165,-0.0032273,1.41277,0.0023406,0.0104685,1581,1709,10.5672,-44.2816
364,-685,10.537,43.8055,-0.00316175,0.000453267,0.000454089,0.000509433,-0.00321792,1.44773,0.0023337,0.0115272,1588,1709,10.537,-43.8055
371,-685,10.5248,43.3085,-0.00269471,0.00104612,-0.000137871,0.0010512,-0.00269979,-1.53401,0.00223426,0.0201532,1595,1709,10.5247,-43.3085
378,-685,10.507,42.7657,-0.00195921,0.00146524,-0.000924807,0.00169903,-0.002193,-1.32318,0.00225309,0.0226135,1602,1709,10.507,-42.7657
385,-685,10.4352,42.2332,-0.000663622,0.00277807,-0.00214999,0.00381109,-0.00169664,-1.12289,0.00325706,0.0315416,1609,1709,10.4352,-42.2331
392,-685,10.46,41.6731,0.00141067,0.00470313,-0.00381214,0.00720931,-0.00109551,-0.989223,0.00520991,0.0355924,1616,1709,10.46,-41.6731
399,-685,10.5986,41.1593,0.00369613,0.0072787,-0.00613444,0.011878,-0.000903206,-0.927451,0.00823629,0.0409869,1623,1709,10.5986,-41.1593
406,-685,10.71,40.6683,0,0,0,0,0,0,0,-1,1630,1709,10.71,-40.6684
413,-685,10.443,39.9269,0,0,0,0,0,0,0,-1,1637,1709,10.443,-39.9268
420,-685,10.6095,39.113,0,0,0,0,0,0,0,-1,1644,1709,10.6095,-39.113
427,-685,9.69543,38.8829,0,0,0,0,0,0,0,-1,1651,1709,9.69542,-38.8829
434,-685,4.87769,8.91418,0,0,0,0,0,0,0,-1,1658,1709,4.87768,-8.91413
441,-685,5.62,8.75549,0,0,0,0,0,0,0,-1,1665,1709,5.61996,-8.75545
448,-685,6.4043,8.58972,0,0,0,0,0,0,0,-1,1672,1709,6.40435,-8.58971
455,-685,2.31958,4.09802,0,0,0,0,0,0,0,-1,1679,1709,2.31957,-4.09803
462,-685,0,0,0,0,0,0,0,0,0,-1,1686,1709,0,0
469,-685,0,0,0,0,0,0,0,0,0,-1,1693,1709,0,0
476,-685,0,0,0,0,0,0,0,0,0,-1,1700,1709,0,0
483,-685,0,0,0,0,0,0,0,0,0,-1,1707,1709,0,0
490,-685,0,0,0,0,0,0,0,0,0,-1,1714,1709,0,0
497,-685,0,0,0,0,0,0,0,0,0,-1,1721,1709,0,0
504,-685,0,0,0,0,0,0,0,0,0,-1,1728,1709,0,0
511,-685,0,0,0,0,0,0,0,0,0,-1,1735,1709,0,0
518,-685,0,0,0,0,0,0,0,0,0,-1,1742,1709,0,0
525,-685,0,0,0,0,0,0,0,0,0,-1,1749,1709,0,0
532,-685,0,0,0,0,0,0,0,0,0,-1,1756,1709,0,0
539,-685,0,0,0,0,0,0,0,0,0,-1,1763,1709,0,0
546,-685,0,0,0,0,0,0,0,0,0,-1,1770,1709,0,0
553,-685,0,0,0,0,0,0,0,0,0,-1,1777,1709,0,0
560,-685,0,0,0,0,0,0,0,0,0,-1,1784,1709,0,0
567,-685,0,0,0,0,0,0,0,0,0,-1,1791,1709,0,0
574,-685,0,0,0,0,0,0,0,0,0,-1,1798,1709,0,0
581,-685,0,0,0,0,0,0,0,0,0,-1,1805,1709,0,0
588,-685,0,0,0,0,0,0,0,0,0,-1,1812,1709,0,0
595,-685,0,0,0,0,0,0,0,0,0,-1,1819,1709,0,0
602,-685,0,0,0,0,0,0,0,0,0,-1,1826,1709,0,0
609,-685,0,0,0,0,0,0,0,0,0,-1,1833,1709,0,0
616,-685,0,0,0,0,0,0,0,0,0,-1,1840,1709,0,0
623,-685,0,0,0,0,0,0,0,0,0,-1,1847,1709,0,0
630,-685,0,0,0,0,0,0,0,0,0,-1,1854,1709,0,0
637,-685,0,0,0,0,0,0,0,0,0,-1,1861,1709,0,0
644,-685,0,0,0,0,0,0,0,0,0,-1,1868,1709,0,0
651,-685,0,0,0,0,0,0,0,0,0,-1,1875,1709,0,0
658,-685,0,0,0,0,0,0,0,0,0,-1,1882,1709,0,0
665,-685,0,0,0,0,0,0,0,0,0,-1,1889,1709,0,0
672,-685,0,0,0,0,0,0,0,0,0,-1,1896,1709,0,0
679,-685,0,0,0,0,0,0,0,0,0,-1,1903,1709,0,0
686,-685,0,0,0,0,0,0,0,0,0,-1,1910,1709,0,0
693,-685,0,0,0,0,0,0,0,0,0,-1,1917,1709,0,0
700,-685,0,0,0,0,0,0,0,0,0,-1,1924,1709,0,0
707,-685,0,0,0,0,0,0,0,0,0,-1,1931,1709,0,0
714,-685,0,0,0,0,0,0,0,0,0,-1,1938,1709,0,0
721,-685,0,0,0,0,0,0,0,0,0,-1,1945,1709,0,0
728,-685,0,0,0,0,0,0,0,0,0,-1,1952,1709,0,0
735,-685,0,0,0,0,0,0,0,0,0,-1,1959,1709,0,0
742,-685,0,0,0,0,0,0,0,0,0,-1,1966,1709,0,0
749,-685,0,0,0,0,0,0,0,0,0,-1,1973,1709,0,0
756,-685,0,0,0,0,0,0,0,0,0,-1,1980,1709,0,0
763,-685,0,0,0,0,0,0,0,0,0,-1,1987,1709,0,0
770,-685,0,0,0,0,0,0,0,0,0,-1,1994,1709,0,0
777,-685,0,0,0,0,0,0,0,0,0,-1,2001,1709,0,0
784,-685,0,0,0,0,0,0,0,0,0,-1,2008,1709,0,0
791,-685,0,0,0,0,0,0,0,0,0,-1,2015,1709,0,0
798,-685,0,0,0,0,0,0,0,0,0,-1,2022,1709,0,0
805,-685,0,0,0,0,0,0,0,0,0,-1,2029,1709,0,0
812,-685,0,0,0,0,0,0,0,0,0,-1,2036,1709,0,0
-700,-692,0,0,0,0,0,0,0,0,0,-1,524,1716,0,0
-693,-692,0,0,0,0,0,0,0,0,0,-1,531,1716,0,0
-686,-692,0,0,0,0,0,0,0,0,0,-1,538,1716,0,0
-679,-692,0,0,0,0,0,0,0,0,0,-1,545,1716,0,0
-672,-692,0,0,0,0,0,0,0,0,0,-1,552,1716,0,0
-665,-692,0,0,0,0,0,0,0,0,0,-1,559,1716,0,0
-658,-692,0,0,0,0,0,0,0,0,0,-1,566,1716,0,0
-651,-692,0,0,0,0,0,0,0,0,0,-1,573,1716,0,0
-644,-692,0,0,0,0,0,0,0,0,0,-1,580,1716,0,0
-637,-692,0,0,0,0,0,0,0,0,0,-1,587,1716,0,0
-630,-692,0,0,0,0,0,0,0,0,0,-1,594,1716,0,0
-623,-692,0,0,0,0,0,0,0,0,0,-1,601,1716,0,0
-616,-692,0,0,0,0,0,0,0,0,0,-1,608,1716,0,0
-609,-692,0,0,0,0,0,0,0,0,0,-1,615,1716,0,0
-602,-692,0,0,0,0,0,0,0,0,0,-1,622,1716,0,0
-595,-692,0,0,0,0,0,0,0,0,0,-1,629,1716,0,0
-588,-692,0,0,0,0,0,0,0,0,0,-1,636,1716,0,0
-581,-692,0,0,0,0,0,0,0,0,0,-1,643,1716,0,0
-574,-692,0,0,0,0,0,0,0,0,0,-1,650,1716,0,0
-567,-692,0,0,0,0,0,0,0,0,0,-1,657,1716,0,0
-560,-692,0,0,0,0,0,0,0,0,0,-1,664,1716,0,0
-553,-692,0,0,0,0,0,0,0,0,0,-1,671,1716,0,0
-546,-692,0,0,0,0,0,0,0,0,0,-1,678,1716,0,0
-539,-692,0,0,0,0,0,0,0,0,0,-1,685,1716,0,0
-532,-692,0,0,0,0,0,0,0,0,0,-1,692,1716,0,0
-525,-692,0,0,0,0,0,0,0,0,0,-1,699,1716,0,0
-518,-692,0,0,0,0,0,0,0,0,0,-1,706,1716,0,0
-511,-692,0,0,0,0,0,0,0,0,0,-1,713,1716,0,0
-504,-692,0,0,0,0,0,0,0,0,0,-1,720,1716,0,0
-497,-692,0,0,0,0,0,0,0,0,0,-1,727,1716,0,0
-490,-692,0,0,0,0,0,0,0,0,0,-1,734,1716,0,0
-483,-692,0,0,0,0,0,0,0,0,0,-1,741,1716,0,0
-476,-692,0,0,0,0,0,0,0,0,0,-1,748,1716,0,0
-469,-692,0,0,0,0,0,0,0,0,0,-1,755,1716,0,0
-462,-692,0,0,0,0,0,0,0,0,0,-1,762,1716,0,0
-455,-692,0,0,0,0,0,0,0,0,0,-1,769,1716,0,0
-448,-692,0,0,0,0,0,0,0,0,0,-1,776,1716,0,0
-441,-692,0,0,0,0,0,0,0,0,0,-1,783,1716,0,0
-434,-692,0,0,0,0,0,0,0,0,0,-1,790,1716,0,0
-427,-692,0,0,0,0,0,0,0,0,0,-1,797,1716,0,0
-420,-692,0,0,0,0,0,0,0,0,0,-1,804,1716,0,0
-413,-692,0,0,0,0,0,0,0,0,0,-1,811,1716,0,0
-406,-692,0,0,0,0,0,0,0,0,0,-1,818,1716,0,0
-399,-692,0,0,0,0,0,0,0,0,0,-1,825,1716,0,0
-392,-692,0,0,0,0,0,0,0,0,0,-1,832,1716,0,0
-385,-692,0,0,0,0,0,0,0,0,0,-1,839,1716,0,0
-378,-692,0,0,0,0,0,0,0,0,0,-1,846,1716,0,0
-371,-692,0,0,0,0,0,0,0,0,0,-1,853,1716,0,0
-364,-692,0,0,0,0,0,0,0,0,0,-1,860,1716,0,0
-357,-692,0,0,0,0,0,0,0,0,0,-1,867,1716,0,0
-350,-692,0,0,0,0,0,0,0,0,0,-1,874,1716,0,0
-343,-692,0,0,0,0,0,0,0,0,0,-1,881,1716,0,0
-336,-692,0,0,0,0,0,0,0,0,0,-1,888,1716,0,0
-329,-692,3.03107,4.10266,0,0,0,0,0,0,0,-1,895,1716,3.03105,-4.10267
-322,-692,4.43713,18.5242,0,0,0,0,0,0,0,-1,902,1716,4.43711,-18.5241
-315,-692,5.38965,17.975,0,0,0,0,0,0,0,-1,909,1716,5.38963,-17.975
-308,-692,5.86938,17.4392,0,0,0,0,0,0,0,-1,916,1716,5.86937,-17.4392
-301,-692,8.65558,20.7662,0,0,0,0,0,0,0,-1,923,1716,8.65556,-20.7663
-294,-692,8.41125,35.4742,0,0,0,0,0,0,0,-1,930,1716,8.41125,-35.4742
-287,-692,8.18616,40.614,0,0,0,0,0,0,0,-1,937,1716,8.18617,-40.614
-280,-692,8.01581,40.9655,0,0,0,0,0,0,0,-1,944,1716,8.01581,-40.9655
-273,-692,8.06403,41.1371,0,0,0,0,0,0,0,-1,951,1716,8.06403,-41.1371
-266,-692,8.35571,40.5779,0,0,0,0,0,0,0,-1,958,1716,8.35568,-40.5779
-259,-692,8.17584,41.7341,0,0,0,0,0,0,0,-1,965,1716,8.17587,-41.7342
-252,-692,7.85309,42.4478,0,0,0,0,0,0,0,-1,972,1716,7.8531,-42.4478
-245,-692,7.9574,42.707,-0.00362745,0.00288472,0.00230722,0.00361929,-0.00436202,1.26256,0.00461466,0.048933,979,1716,7.95742,-42.707
-238,-692,8.14844,43.4048,-0.00409116,0.00391647,0.00212635,0.00444608,-0.00462077,1.32669,0.00523507,0.0463909,986,1716,8.14844,-43.4048
-231,-692,7.92914,44.0818,-0.00467315,0.00535453,0.00228192,0.00584938,-0.00516801,1.35724,0.00636495,0.0394982,993,1716,7.92915,-44.0818
-224,-692,7.74078,44.5245,-0.00461652,0.0051372,0.00246598,0.00572521,-0.00520453,1.33672,0.00631267,0.0192284,1000,1716,7.7408,-44.5246
-217,-692,7.68304,45.0024,-0.00388458,0.00404018,0.00240883,0.00471493,-0.00455933,1.29768,0.00535474,0.0123213,1007,1716,7.68306,-45.0025
-210,-692,7.65759,45.5138,-0.00315475,0.00278582,0.00224506,0.00353883,-0.00390775,1.24718,0.00430105,0.0126324,1014,1716,7.65758,-45.5137
-203,-692,7.6394,45.988,-0.00245485,0.00213965,0.00228106,0.00307978,-0.00339498,1.17987,0.00373968,0.0163779,1021,1716,7.63939,-45.988
-196,-692,7.60071,46.4923,-0.00183256,0.00170126,0.00224845,0.00279398,-0.00292528,1.11842,0.00330231,0.0183781,1028,1716,7.60074,-46.4923
-189,-692,7.54626,46.9402,-0.00139593,0.00134824,0.00219731,0.00256668,-0.00261436,1.0645,0.00299132,0.0093649,1035,1716,7.54631,-46.9402
-182,-692,7.52563,47.4099,-0.000973522,0.00131741,0.00210103,0.00256494,-0.00222105,1.03497,0.00276557,0.0139858,1042,1716,7.52558,-47.4099
-175,-692,7.49353,47.8785,-0.000331188,0.00142118,0.0021132,0.00283265,-0.00174265,0.981923,0.00266642,0.0157584,1049,1716,7.49353,-47.8785
-168,-692,7.49438,48.3142,-1.71247e-06,0.0017253,0.00195106,0.0029954,-0.00127181,0.993733,0.00252978,0.0123397,1056,1716,7.49441,-48.3142
-161,-692,7.495,48.7848,0.000101508,0.00211987,0.00176668,0.00314529,-0.000923918,1.0449,0.00246328,0.013938,1063,1716,7.49503,-48.7848
-154,-692,7.48181,49.2231,0.000328401,0.00267158,0.00163249,0.00350938,-0.000509399,1.09664,0.00252656,0.0151519,1070,1716,7.48185,-49.2231
-147,-692,7.47351,49.6086,0.000656592,0.00341446,0.00152383,0.00409065,-1.95943e-05,1.15316,0.00273365,0.0152809,1077,1716,7.47346,-49.6087
-140,-692,7.44995,49.9806,0.00100694,0.00367364,0.00131607,0.00421375,0.000466828,1.18136,0.00266721,0.0115068,1084,1716,7.44991,-49.9806
-133,-692,7.4458,50.359,0.00142509,0.00396068,0.00114039,0.00439811,0.00098766,1.20453,0.00266458,0.0098027,1091,1716,7.44576,-50.359
-126,-692,7.4519,50.7601,0.00187861,0.00412127,0.000943066,0.00446512,0.00153476,1.22117,0.00261958,0.00803345,1098,1716,7.45192,-50.7602
-119,-692,7.44421,51.1492,0.0024004,0.00414306,0.000736708,0.00441276,0.0021307,1.21986,0.00254821,0.0124055,1105,1716,7.44418,-51.1491
-112,-692,7.46021,51.5062,0.00289471,0.00395776,0.000474165,0.00413852,0.00271395,1.20658,0.00242772,0.0124518,1112,1716,7.46022,-51.5062
-105,-692,7.50281,51.8373,0.0032652,0.00350986,0.000101916,0.00354675,0.00322831,1.22349,0.00226583,0.0173616,1119,1716,7.50286,-51.8373
-98,-692,7.5752,52.1215,0.00371532,0.00293432,-0.000239014,0.00378266,0.00286698,-0.274625,0.00227872,0.0193154,1126,1716,7.57515,-52.1214
-91,-692,7.55139,52.4558,0.00426,0.00239018,-0.000457414,0.0043659,0.00228428,-0.227509,0.00252156,0.020529,1133,1716,7.55137,-52.4558
-84,-692,7.60083,52.7778,0.00485531,0.00162446,-0.000621106,0.0049706,0.00150917,-0.18353,0.00294264,0.0245036,1140,1716,7.60087,-52.7778
-77,-692,7.57874,53.1398,0.00517228,0.000405461,-0.000887178,0.00533205,0.000245699,-0.17817,0.00347569,0.0203568,1147,1716,7.57868,-53.1398
-70,-692,7.62952,53.505,0.00507399,-0.000236153,-0.00120539,0.0053348,-0.000496963,-0.213085,0.00373323,0.0364138,1154,1716,7.62948,-53.505
-63,-692,7.71814,53.6273,0,0,0,0,0,0,0,-1,1161,1716,7.71812,-53.6273
-56,-692,7.68958,53.844,0,0,0,0,0,0,0,-1,1168,1716,7.68955,-53.844
-49,-692,7.75732,54.1696,0,0,0,0,0,0,0,-1,1175,1716,7.75737,-54.1695
-42,-692,7.89807,54.4878,0,0,0,0,0,0,0,-1,1182,1716,7.89806,-54.4878
-35,-692,8.00647,54.8079,0,0,0,0,0,0,0,-1,1189,1716,8.00643,-54.8079
-28,-692,7.95789,54.7435,0,0,0,0,0,0,0,-1,1196,1716,7.95789,-54.7436
-21,-692,8.03088,54.8849,0.041617,0.000395505,0.00107773,0.0416451,0.000367345,0.026121,0.0276418,0.0368638,1203,1716,8.03091,-54.8849
-14,-692,8.08228,55.0236,0.0443634,0.00137355,0.00130373,0.0444029,0.00133405,0.0302893,0.0291674,0.0188266,1210,1716,8.08223,-55.0236
-7,-692,8.11755,55.2322,0.0456463,0.00236315,0.0016476,0.0457089,0.00230053,0.0379922,0.0297355,0.0177963,1217,1716,8.1175,-55.2322
0,-692,8.18286,55.3582,0.0452124,0.00212321,0.00214371,0.0453187,0.00201682,0.0495873,0.0295632,0.0243152,1224,1716,8.18288,-55.3582
7,-692,8.30334,55.4177,0.0439813,0.00106266,0.00165505,0.044045,0.000998935,0.0384862,0.0290361,0.033393,1231,1716,8.30332,-55.4177
14,-692,8.39307,55.7548,0.0408617,-0.00067262,-3.19911e-05,0.0408617,-0.000672644,-0.000770233,0.0274681,0.0335557,1238,1716,8.39301,-55.7548
21,-692,8.48157,55.9148,0.0366961,-0.00244769,-0.00250595,0.0368559,-0.00260747,-0.0636727,0.0254843,0.0311017,1245,1716,8.48155,-55.9148
28,-692,8.56506,55.8492,0.0313971,-0.00488778,-0.0056844,0.0322668,-0.00575746,-0.151816,0.023665,0.0322029,1252,1716,8.56507,-55.8492
35,-692,8.64685,55.9602,0.0248437,-0.00829692,-0.00930568,0.0272779,-0.0107311,-0.255848,0.022627,0.0302061,1259,1716,8.64688,-55.9603
42,-692,8.72266,56.0894,0.0183279,-0.0120505,-0.0126517,0.0229068,-0.0166293,-0.347253,0.0229219,0.0288054,1266,1716,8.72264,-56.0894
49,-692,8.8175,56.1459,0.011628,-0.0152909,-0.0159261,0.0190204,-0.0226833,-0.434571,0.0241086,0.0377242,1273,1716,8.81752,-56.1459
56,-692,8.85242,56.0581,0,0,0,0,0,0,0,-1,1280,1716,8.85243,-56.0582
63,-692,8.8999,56.0205,0,0,0,0,0,0,0,-1,1287,1716,8.89995,-56.0205
70,-692,8.99841,56.1078,-0.00498461,-0.0224292,-0.0238742,0.0117107,-0.0391245,-0.610259,0.0307393,0.0417797,1294,1716,8.99836,-56.1078
77,-692,9.18079,56.1016,-0.00860534,-0.0228978,-0.0257889,0.0110091,-0.0425123,-0.650237,0.0326362,0.0460331,1301,1716,9.18081,-56.1016
84,-692,9.1936,55.9191,0,0,0,0,0,0,0,-1,1308,1716,9.19365,-55.9191
91,-692,9.26831,55.7177,-0.0084722,-0.0218906,-0.025175,0.0108722,-0.0412351,-0.655173,0.031741,0.0472749,1315,1716,9.26827,-55.7176
98,-692,9.27771,55.6362,-0.00651746,-0.0194816,-0.0239145,0.0117779,-0.0377769,-0.653052,0.0298942,0.0343855,1322,1716,9.27776,-55.6362
105,-692,9.34094,55.5657,-0.00375393,-0.0158551,-0.0230249,0.0140021,-0.0336111,-0.656911,0.0282559,0.0438644,1329,1716,9.34099,-55.5657
112,-692,9.51563,55.5787,-0.000965084,-0.0123921,-0.0212875,0.0153623,-0.0287195,-0.65429,0.0258372,0.0483141,1336,1716,9.51564,-55.5787
119,-692,9.52502,55.4484,0.00181746,-0.00955062,-0.0195989,0.0165399,-0.0242731,-0.644261,0.023704,0.0406468,1343,1716,9.52497,-55.4484
126,-692,9.63245,55.2511,0.00401055,-0.00753237,-0.0180429,0.0171826,-0.0207044,-0.630604,0.0219055,0.0410534,1350,1716,9.63241,-55.251
133,-692,9.74548,55.1191,0.00561241,-0.00523633,-0.0164802,0.017538,-0.0171619,-0.62641,0.0200344,0.0320892,1357,1716,9.74544,-55.1191
140,-692,9.70117,55.0984,0.00697709,-0.00248928,-0.014915,0.017892,-0.0134042,-0.631753,0.0181306,0.0346963,1364,1716,9.70114,-55.0984
147,-692,9.75232,54.9384,0.00770891,-6.62651e-05,-0.0133412,0.0177174,-0.0100748,-0.643626,0.0162468,0.0406467,1371,1716,9.75234,-54.9384
154,-692,9.81177,54.7498,0.00861959,0.00130878,-0.0112744,0.0168164,-0.006888,-0.628634,0.0140802,0.0357116,1378,1716,9.81173,-54.7498
161,-692,10.0482,54.6196,0.00970612,0.00249462,-0.0088077,0.0156176,-0.00341683,-0.591112,0.0117179,0.0423687,1385,1716,10.0482,-54.6196
168,-692,10.027,54.427,0,0,0,0,0,0,0,-1,1392,1716,10.027,-54.427
175,-692,10.1337,54.1642,0,0,0,0,0,0,0,-1,1399,1716,10.1337,-54.1642
182,-692,10.132,53.9305,0,0,0,0,0,0,0,-1,1406,1716,10.1319,-53.9305
189,-692,10.1152,53.7017,0,0,0,0,0,0,0,-1,1413,1716,10.1152,-53.7017
196,-692,10.1394,53.4153,0.00682401,-0.000766926,0.00283948,0.0077686,-0.00171152,0.32115,0.00583387,0.0381732,1420,1716,10.1394,-53.4152
203,-692,10.1921,53.1484,0.00597405,-0.00084517,0.00282171,0.00699021,-0.00186134,0.345666,0.00538883,0.0262243,1427,1716,10.1921,-53.1485
210,-692,10.319,52.8618,0.00511673,-0.000843642,0.0025331,0.00604782,-0.00177473,0.352241,0.00473564,0.0211593,1434,1716,10.3189,-52.8619
217,-692,10.2845,52.4983,0.00426164,-0.0010942,0.00187385,0.00485214,-0.0016847,0.305276,0.00391895,0.0181207,1441,1716,10.2845,-52.4984
224,-692,10.2794,52.2101,0.00378966,-0.00108375,0.00157205,0.00425277,-0.00154686,0.28648,0.00346777,0.0143027,1448,1716,10.2794,-52.2101
231,-692,10.2789,51.8931,0.00326865,-0.00075553,0.00107823,0.00353934,-0.00102622,0.245968,0.00276584,0.0127036,1455,1716,10.2789,-51.893
238,-692,10.3053,51.5059,0.00298448,-0.000541784,0.0005389,0.003065,-0.000622303,0.148316,0.00227926,0.0200442,1462,1716,10.3053,-51.5059
245,-692,10.2968,51.1812,0.00276739,-0.000146713,0.00015858,0.002776,-0.000155317,0.0542048,0.00190455,0.0215604,1469,1716,10.2968,-51.1812
252,-692,10.3154,50.8674,0.00255528,0.000261356,-0.000217112,0.00257565,0.000240988,-0.0935401,0.00164267,0.0199145,1476,1716,10.3154,-50.8675
259,-692,10.3302,50.4996,0.00225697,0.000552469,-0.000498617,0.00239211,0.000417324,-0.264681,0.00147544,0.011376,1483,1716,10.3302,-50.4996
266,-692,10.3348,50.1064,0.00200024,0.000792763,-0.000732313,0.0023456,0.000447406,-0.440668,0.00143799,0.0112204,1490,1716,10.3349,-50.1065
273,-692,10.3248,49.6906,0.00179058,0.00102784,-0.000885157,0.00237303,0.000445391,-0.581989,0.00145644,0.0159234,1497,1716,10.3248,-49.6906
280,-692,10.3226,49.2489,0.00152857,0.00116918,-0.000995809,0.00236077,0.000336984,-0.696135,0.00147441,0.0149005,1504,1716,10.3226,-49.2489
287,-692,10.319,48.86,0.00124045,0.0013469,-0.00104511,0.00234014,0.000247214,-0.81084,0.00148457,0.011607,1511,1716,10.319,-48.86
294,-692,10.3043,48.4659,0.000979764,0.00135069,-0.00110674,0.0022874,4.3057e-05,-0.868416,0.00151079,0.0109212,1518,1716,10.3043,-48.466
301,-692,10.3031,48.0399,0.000586563,0.00148043,-0.0011779,0.00229334,-0.000226349,-0.966722,0.00160966,0.0140345,1525,1716,10.3031,-48.0399
308,-692,10.2917,47.6237,4.65764e-05,0.00148292,-0.00118117,0.00214711,-0.000617615,-1.05855,0.00167566,0.0170913,1532,1716,10.2918,-47.6237
315,-692,10.2843,47.161,-0.000700012,0.0012418,-0.000971532,0.00164441,-0.00110262,-1.17794,0.00159624,0.0157934,1539,1716,10.2843,-47.161
322,-692,10.2222,46.6559,-0.00144549,0.00126421,-0.000738733,0.00145252,-0.0016338,-1.3212,0.00178291,0.0212155,1546,1716,10.2221,-46.6558
329,-692,10.179,46.1803,-0.00225678,0.00115755,-0.000338493,0.00119078,-0.00229001,-1.47293,0.00204277,0.0191783,1553,1716,10.1789,-46.1803
336,-692,10.1697,45.7206,-0.00309149,0.00099552,3.12894e-05,0.00099576,-0.00309173,1.56314,0.00246116,0.0130856,1560,1716,10.1697,-45.7206
343,-692,10.1647,45.2847,-0.00387093,0.000832414,0.000477315,0.000880365,-0.00391888,1.47067,0.00295016,0.0128998,1567,1716,10.1647,-45.2847
350,-692,10.1447,44.8314,-0.00442093,0.000679441,0.000945195,0.000848968,-0.00459046,1.39333,0.00337904,0.0171253,1574,1716,10.1447,-44.8314
357,-692,10.093,44.2502,-0.00477783,0.00041029,0.0012618,0.000700892,-0.00506843,1.34443,0.00363518,0.0277357,1581,1716,10.093,-44.2503
364,-692,10.0486,43.6376,-0.00484353,0.000469561,0.00128089,0.000762237,-0.0051362,1.34616,0.00370445,0.034155,1588,1716,10.0486,-43.6376
371,-692,9.87598,43.1917,-0.00433191,0.0012229,0.000755552,0.00132384,-0.00443284,1.43799,0.00348144,0.0421963,1595,1716,9.87597,-43.1917
378,-692,9.80518,42.7981,-0.00338528,0.00181503,-3.13221e-05,0.00181522,-0.00338547,-1.56477,0.0030479,0.0477006,1602,1716,9.80512,-42.7981
385,-692,9.90417,42.2263,0,0,0,0,0,0,0,-1,1609,1716,9.90412,-42.2263
392,-692,9.91504,41.584,0,0,0,0,0,0,0,-1,1616,1716,9.91505,-41.584
399,-692,10.0482,41.0494,0,0,0,0,0,0,0,-1,1623,1716,10.0482,-41.0494
406,-692,9.59875,39.3361,0,0,0,0,0,0,0,-1,1630,1716,9.59878,-39.336
413,-692,9.4187,38.8396,0,0,0,0,0,0,0,-1,1637,1716,9.41875,-38.8396
420,-692,9.37878,36.9653,0,0,0,0,0,0,0,-1,1644,1716,9.37872,-36.9654
427,-692,3.79578,8.60339,0,0,0,0,0,0,0,-1,1651,1716,3.79577,-8.6034
434,-692,4.78516,8.64636,0,0,0,0,0,0,0,-1,1658,1716,4.78512,-8.64634
441,-692,5.8208,8.74036,0,0,0,0,0,0,0,-1,1665,1716,5.82084,-8.7404
448,-692,6.73792,8.51013,0,0,0,0,0,0,0,-1,1672,1716,6.73793,-8.5101
455,-692,0,0,0,0,0,0,0,0,0,-1,1679,1716,0,0
462,-692,0,0,0,0,0,0,0,0,0,-1,1686,1716,0,0
469,-692,0,0,0,0,0,0,0,0,0,-1,1693,1716,0,0
476,-692,0,0,0,0,0,0,0,0,0,-1,1700,1716,0,0
483,-692,0,0,0,0,0,0,0,0,0,-1,1707,1716,0,0
490,-692,0,0,0,0,0,0,0,0,0,-1,1714,1716,0,0
497,-692,0,0,0,0,0,0,0,0,0,-1,1721,1716,0,0
504,-692,0,0,0,0,0,0,0,0,0,-1,1728,1716,0,0
511,-692,0,0,0,0,0,0,0,0,0,-1,1735,1716,0,0
518,-692,0,0,0,0,0,0,0,0,0,-1,1742,1716,0,0
525,-692,0,0,0,0,0,0,0,0,0,-1,1749,1716,0,0
532,-692,0,0,0,0,0,0,0,0,0,-1,1756,1716,0,0
539,-692,0,0,0,0,0,0,0,0,0,-1,1763,1716,0,0
546,-692,0,0,0,0,0,0,0,0,0,-1,1770,1716,0,0
553,-692,0,0,0,0,0,0,0,0,0,-1,1777,1716,0,0
560,-692,0,0,0,0,0,0,0,0,0,-1,1784,1716,0,0
567,-692,0,0,0,0,0,0,0,0,0,-1,1791,1716,0,0
574,-692,0,0,0,0,0,0,0,0,0,-1,1798,1716,0,0
581,-692,0,0,0,0,0,0,0,0,0,-1,1805,1716,0,0
588,-692,0,0,0,0,0,0,0,0,0,-1,1812,1716,0,0
595,-692,0,0,0,0,0,0,0,0,0,-1,1819,1716,0,0
602,-692,0,0,0,0,0,0,0,0,0,-1,1826,1716,0,0
609,-692,0,0,0,0,0,0,0,0,0,-1,1833,1716,0,0
616,-692,0,0,0,0,0,0,0,0,0,-1,1840,1716,0,0
623,-692,0,0,0,0,0,0,0,0,0,-1,1847,1716,0,0
630,-692,0,0,0,0,0,0,0,0,0,-1,1854,1716,0,0
637,-692,0,0,0,0,0,0,0,0,0,-1,1861,1716,0,0
644,-692,0,0,0,0,0,0,0,0,0,-1,1868,1716,0,0
651,-692,0,0,0,0,0,0,0,0,0,-1,1875,1716,0,0
658,-692,0,0,0,0,0,0,0,0,0,-1,1882,1716,0,0
665,-692,0,0,0,0,0,0,0,0,0,-1,1889,1716,0,0
672,-692,0,0,0,0,0,0,0,0,0,-1,1896,1716,0,0
679,-692,0,0,0,0,0,0,0,0,0,-1,1903,1716,0,0
686,-692,0,0,0,0,0,0,0,0,0,-1,1910,1716,0,0
693,-692,0,0,0,0,0,0,0,0,0,-1,1917,1716,0,0
700,-692,0,0,0,0,0,0,0,0,0,-1,1924,1716,0,0
707,-692,0,0,0,0,0,0,0,0,0,-1,1931,1716,0,0
714,-692,0,0,0,0,0,0,0,0,0,-1,1938,1716,0,0
721,-692,0,0,0,0,0,0,0,0,0,-1,1945,1716,0,0
728,-692,0,0,0,0,0,0,0,0,0,-1,1952,1716,0,0
735,-692,0,0,0,0,0,0,0,0,0,-1,1959,1716,0,0
742,-692,0,0,0,0,0,0,0,0,0,-1,1966,1716,0,0
749,-692,0,0,0,0,0,0,0,0,0,-1,1973,1716,0,0
756,-692,0,0,0,0,0,0,0,0,0,-1,1980,1716,0,0
763,-692,0,0,0,0,0,0,0,0,0,-1,1987,1716,0,0
770,-692,0,0,0,0,0,0,0,0,0,-1,1994,1716,0,0
777,-692,0,0,0,0,0,0,0,0,0,-1,2001,1716,0,0
784,-692,0,0,0,0,0,0,0,0,0,-1,2008,1716,0,0
791,-692,0,0,0,0,0,0,0,0,0,-1,2015,1716,0,0
798,-692,0,0,0,0,0,0,0,0,0,-1,2022,1716,0,0
805,-692,0,0,0,0,0,0,0,0,0,-1,2029,1716,0,0
812,-692,0,0,0,0,0,0,0,0,0,-1,2036,1716,0,0
-700,-699,0,0,0,0,0,0,0,0,0,-1,524,1723,0,0
-693,-699,0,0,0,0,0,0,0,0,0,-1,531,1723,0,0
-686,-699,0,0,0,0,0,0,0,0,0,-1,538,1723,0,0
-679,-699,0,0,0,0,0,0,0,0,0,-1,545,1723,0,0
-672,-699,0,0,0,0,0,0,0,0,0,-1,552,1723,0,0
-665,-699,0,0,0,0,0,0,0,0,0,-1,559,1723,0,0
-658,-699,0,0,0,0,0,0,0,0,0,-1,566,1723,0,0
-651,-699,0,0,0,0,0,0,0,0,0,-1,573,1723,0,0
-644,-699,0,0,0,0,0,0,0,0,0,-1,580,1723,0,0
-637,-699,0,0,0,0,0,0,0,0,0,-1,587,1723,0,0
-630,-699,0,0,0,0,0,0,0,0,0,-1,594,1723,0,0
-623,-699,0,0,0,0,0,0,0,0,0,-1,601,1723,0,0
-616,-699,0,0,0,0,0,0,0,0,0,-1,608,1723,0,0
-609,-699,0,0,0,0,0,0,0,0,0,-1,615,1723,0,0
-602,-699,0,0,0,0,0,0,0,0,0,-1,622,1723,0,0
-595,-699,0,0,0,0,0,0,0,0,0,-1,629,1723,0,0
-588,-699,0,0,0,0,0,0,0,0,0,-1,636,1723,0,0
-581,-699,0,0,0,0,0,0,0,0,0,-1,643,1723,0,0
-574,-699,0,0,0,0,0,0,0,0,0,-1,650,1723,0,0
-567,-699,0,0,0,0,0,0,0,0,0,-1,657,1723,0,0
-560,-699,0,0,0,0,0,0,0,0,0,-1,664,1723,0,0
-553,-699,0,0,0,0,0,0,0,0,0,-1,671,1723,0,0
-546,-699,0,0,0,0,0,0,0,0,0,-1,678,1723,0,0
-539,-699,0,0,0,0,0,0,0,0,0,-1,685,1723,0,0
-532,-699,0,0,0,0,0,0,0,0,0,-1,692,1723,0,0
-525,-699,0,0,0,0,0,0,0,0,0,-1,699,1723,0,0
-518,-699,0,0,0,0,0,0,0,0,0,-1,706,1723,0,0
-511,-699,0,0,0,0,0,0,0,0,0,-1,713,1723,0,0
-504,-699,0,0,0,0,0,0,0,0,0,-1,720,1723,0,0
-497,-699,0,0,0,0,0,0,0,0,0,-1,727,1723,0,0
-490,-699,0,0,0,0,0,0,0,0,0,-1,734,1723,0,0
-483,-699,0,0,0,0,0,0,0,0,0,-1,741,1723,0,0
-476,-699,0,0,0,0,0,0,0,0,0,-1,748,1723,0,0
-469,-699,0,0,0,0,0,0,0,0,0,-1,755,1723,0,0
-462,-699,0,0,0,0,0,0,0,0,0,-1,762,1723,0,0
-455,-699,0,0,0,0,0,0,0,0,0,-1,769,1723,0,0
-448,-699,0,0,0,0,0,0,0,0,0,-1,776,1723,0,0
-441,-699,0,0,0,0,0,0,0,0,0,-1,783,1723,0,0
-434,-699,0,0,0,0,0,0,0,0,0,-1,790,1723,0,0
-427,-699,0,0,0,0,0,0,0,0,0,-1,797,1723,0,0
-420,-699,0,0,0,0,0,0,0,0,0,-1,804,1723,0,0
-413,-699,0,0,0,0,0,0,0,0,0,-1,811,1723,0,0
-406,-699,0,0,0,0,0,0,0,0,0,-1,818,1723,0,0
-399,-699,0,0,0,0,0,0,0,0,0,-1,825,1723,0,0
-392,-699,0,0,0,0,0,0,0,0,0,-1,832,1723,0,0
-385,-699,0,0,0,0,0,0,0,0,0,-1,839,1723,0,0
-378,-699,0,0,0,0,0,0,0,0,0,-1,846,1723,0,0
-371,-699,0,0,0,0,0,0,0,0,0,-1,853,1723,0,0
-364,-699,0,0,0,0,0,0,0,0,0,-1,860,1723,0,0
-357,-699,0,0,0,0,0,0,0,0,0,-1,867,1723,0,0
-350,-699,0,0,0,0,0,0,0,0,0,-1,874,1723,0,0
-343,-699,0,0,0,0,0,0,0,0,0,-1,881,1723,0,0
-336,-699,0,0,0,0,0,0,0,0,0,-1,888,1723,0,0
-329,-699,0,0,0,0,0,0,0,0,0,-1,895,1723,0,0
-322,-699,0,0,0,0,0,0,0,0,0,-1,902,1723,0,0
-315,-699,6.20001,19.5193,0,0,0,0,0,0,0,-1,909,1723,6.20001,-19.5193
-308,-699,6.98151,18.9218,0,0,0,0,0,0,0,-1,916,1723,6.98151,-18.9217
-301,-699,4.72729,12.8752,0,0,0,0,0,0,0,-1,923,1723,4.72732,-12.8752
-294,-699,6.90332,19.8601,0,0,0,0,0,0,0,-1,930,1723,6.90332,-19.8601
-287,-699,9.0968,36.3315,0,0,0,0,0,0,0,-1,937,1723,9.09678,-36.3315
-280,-699,9.30219,35.7897,0,0,0,0,0,0,0,-1,944,1723,9.30221,-35.7896
-273,-699,10.2987,33.8755,0,0,0,0,0,0,0,-1,951,1723,10.2987,-33.8755
-266,-699,6.81915,20.8951,0,0,0,0,0,0,0,-1,958,1723,6.81914,-20.8952
-259,-699,5.39758,14.5466,0,0,0,0,0,0,0,-1,965,1723,5.39759,-14.5466
-252,-699,8.3866,31.6284,0,0,0,0,0,0,0,-1,972,1723,8.38657,-31.6284
-245,-699,8.71527,42.5946,0,0,0,0,0,0,0,-1,979,1723,8.71526,-42.5946
-238,-699,8.87799,43.4672,0,0,0,0,0,0,0,-1,986,1723,8.878,-43.4672
-231,-699,8.76831,43.8683,-0.0058391,0.00738985,0.00282544,0.00796804,-0.00641729,1.36895,0.00832145,0.0466141,993,1723,8.7683,-43.8683
-224,-699,8.20697,44.438,-0.00568741,0.00684029,0.00315487,0.00758993,-0.00643705,1.33751,0.00810759,0.0406833,1000,1723,8.20699,-44.438
-217,-699,8.09924,44.9263,-0.00473064,0.005269,0.00316856,0.00618846,-0.00565011,1.28837,0.00683736,0.0245377,1007,1723,8.09925,-44.9262
-210,-699,8.10992,45.4647,-0.00386214,0.00360945,0.00303249,0.00468532,-0.00493802,1.22987,0.00555668,0.017057,1014,1723,8.10992,-45.4647
-203,-699,8.13159,45.9885,-0.00306406,0.00271689,0.00310386,0.00406774,-0.0044149,1.16031,0.00489882,0.0234984,1021,1723,8.13156,-45.9885
-196,-699,8.07251,46.51,-0.00237993,0.00201374,0.00302737,0.00355736,-0.00392355,1.09927,0.00432083,0.0184865,1028,1723,8.07253,-46.51
-189,-699,8.00659,46.9706,-0.00193418,0.00144173,0.00291836,0.00312513,-0.00361758,1.04759,0.00389636,0.00895447,1035,1723,8.00664,-46.9705
-182,-699,7.9762,47.4486,-0.00162295,0.00115544,0.00269225,0.00279578,-0.00326329,1.02358,0.00350168,0.0119741,1042,1723,7.97622,-47.4486
-175,-699,7.95605,47.9458,-0.0010934,0.00106927,0.00259298,0.00279735,-0.00282148,0.982946,0.00324404,0.0144958,1049,1723,7.95601,-47.9458
-168,-699,7.94043,48.36,-0.000869913,0.00116499,0.00228261,0.00264664,-0.00235156,0.995051,0.00288739,0.0152419,1056,1723,7.94047,-48.36
-161,-699,7.91138,48.7753,-0.00092,0.00134259,0.00194493,0.00246131,-0.00203872,1.04881,0.00260191,0.0139089,1063,1723,7.91135,-48.7752
-154,-699,7.88513,49.2094,-0.00083183,0.00168003,0.00169142,0.00253082,-0.00168262,1.10475,0.002449,0.0141175,1070,1723,7.88517,-49.2093
-147,-699,7.8667,49.597,-0.000624031,0.00236698,0.00151448,0.0029999,-0.00125695,1.17495,0.00252543,0.0164877,1077,1723,7.86675,-49.5971
-140,-699,7.8429,49.9846,-0.00037013,0.00239984,0.00124091,0.00287443,-0.000844727,1.2055,0.00225132,0.0112076,1084,1723,7.84286,-49.9847
-133,-699,7.82776,50.3936,-1.56263e-05,0.00254901,0.00103085,0.00291198,-0.000378599,1.23224,0.00207905,0.00939677,1091,1723,7.8278,-50.3935
-126,-699,7.81885,50.7756,0.000414106,0.00266609,0.000853945,0.00295328,0.000126917,1.24637,0.00192794,0.0118451,1098,1723,7.81881,-50.7756
-119,-699,7.80481,51.146,0.000921667,0.00267969,0.000702736,0.00292607,0.00067529,1.23359,0.00176911,0.0181038,1105,1723,7.80476,-51.146
-112,-699,7.82214,51.4982,0.00143121,0.0025844,0.00054977,0.00280449,0.00121112,1.19,0.00162418,0.012332,1112,1723,7.82213,-51.4981
-105,-699,7.83398,51.8466,0.00182075,0.00233051,0.000336392,0.00249768,0.00165358,1.1096,0.00146706,0.0121628,1119,1723,7.83393,-51.8465
-98,-699,7.88843,52.1808,0.00223453,0.00201873,0.000147975,0.00230977,0.00194349,0.470372,0.00143344,0.015482,1126,1723,7.88845,-52.1807
-91,-699,7.90234,52.4915,0.00272131,0.00166365,-2.37909e-06,0.00272132,0.00166365,-0.00224938,0.00158408,0.0221361,1133,1723,7.90239,-52.4915
-84,-699,7.91248,52.8208,0.00320859,0.00121441,-0.00012489,0.00321638,0.00120662,-0.0623024,0.00187618,0.0270794,1140,1723,7.91248,-52.8208
-77,-699,7.89978,53.105,0.00353411,0.000573523,-0.000297035,0.00356362,0.000544016,-0.0990146,0.00221677,0.0186611,1147,1723,7.8998,-53.105
-70,-699,7.92017,53.3904,0.00363514,0.000170985,-0.000504344,0.00370708,9.90516e-05,-0.141672,0.00243904,0.0191504,1154,1723,7.92013,-53.3903
-63,-699,7.95581,53.6917,0.00461112,-0.000735239,-0.00039564,0.00464024,-0.000764359,-0.0734685,0.00337724,0.016287,1161,1723,7.95576,-53.6917
-56,-699,7.93335,53.9259,0.00641565,-0.00129865,-0.000240281,0.00642313,-0.00130613,-0.0311072,0.00477736,0.0121429,1168,1723,7.93335,-53.9259
-49,-699,7.97717,54.2074,0.00842748,-0.00114473,-0.000567197,0.00846098,-0.00117822,-0.0589795,0.00607162,0.0267056,1175,1723,7.97723,-54.2074
-42,-699,8.08228,54.4259,0.00980523,-0.00129513,-1.39037e-05,0.00980524,-0.00129515,-0.00125254,0.00700855,0.0299067,1182,1723,8.08228,-54.426
-35,-699,8.11304,54.6748,0.0130698,-0.000565198,0.00129872,0.0131924,-0.000687798,0.0941216,0.00903293,0.0268338,1189,1723,8.11302,-54.6748
-28,-699,8.15857,54.8461,0.0175171,-0.000544921,0.00226738,0.0177974,-0.000825202,0.122991,0.0121494,0.0223112,1196,1723,8.15854,-54.8461
-21,-699,8.17444,54.9304,0.0196658,0.000378849,0.00313315,0.020162,-0.000117362,0.15707,0.0134806,0.015262,1203,1723,8.17446,-54.9304
-14,-699,8.19922,55.1179,0.0221665,0.00129358,0.00327768,0.0226691,0.000790985,0.152153,0.0148561,0.013101,1210,1723,8.19923,-55.1179
-7,-699,8.25586,55.3059,0.0240373,0.00213686,0.003326,0.0245313,0.00164289,0.147441,0.015835,0.0100227,1217,1723,8.25589,-55.3059
0,-699,8.34595,55.4421,0.0249605,0.00186757,0.00338784,0.0254472,0.00138082,0.1427,0.0165238,0.0138749,1224,1723,8.34594,-55.4421
7,-699,8.47339,55.4856,0.0253302,0.00113896,0.00259128,0.0256047,0.000864508,0.105521,0.0167891,0.0232232,1231,1723,8.47338,-55.4856
14,-699,8.52881,55.657,0.0244467,-6.75884e-05,0.000841811,0.0244756,-9.64617e-05,0.0342857,0.0163493,0.0224875,1238,1723,8.52876,-55.657
21,-699,8.48523,55.7595,0.0227747,-0.00128021,-0.00147524,0.0228648,-0.00137035,-0.0610233,0.0157199,0.0177865,1245,1723,8.4852,-55.7595
28,-699,8.55872,55.7814,0.0202843,-0.00292661,-0.00429696,0.0210542,-0.00369656,-0.177302,0.0154168,0.0164751,1252,1723,8.55867,-55.7814
35,-699,8.65186,55.9032,0.01676,-0.00536067,-0.00745162,0.019036,-0.00763667,-0.296437,0.0158613,0.0139611,1259,1723,8.65189,-55.9032
42,-699,8.70679,55.974,0.0129656,-0.0080639,-0.0103761,0.0172233,-0.0123216,-0.389381,0.0171358,0.0133582,1266,1723,8.70681,-55.9739
49,-699,8.76721,56.0317,0.00860573,-0.0104612,-0.0131795,0.0153384,-0.0171939,-0.472284,0.0187927,0.0163733,1273,1723,8.76723,-56.0317
56,-699,8.85681,56.0609,0.00406645,-0.012882,-0.0155965,0.0133423,-0.0221579,-0.53654,0.0207056,0.0182968,1280,1723,8.85676,-56.0609
63,-699,8.92297,56.017,0.000651581,-0.0150986,-0.0173716,0.0118498,-0.0262968,-0.572588,0.0225443,0.0163574,1287,1723,8.92299,-56.017
70,-699,8.98596,55.9995,-0.00149893,-0.0161503,-0.019922,0.0124016,-0.0300508,-0.609212,0.0252061,0.0131949,1294,1723,8.98591,-55.9995
77,-699,9.03931,55.9874,-0.00421382,-0.0167149,-0.0212101,0.0116476,-0.0325764,-0.642106,0.0264686,0.0124633,1301,1723,9.03931,-55.9874
84,-699,9.1051,55.9463,-0.00440952,-0.0170373,-0.0212622,0.0114564,-0.0329032,-0.641068,0.0265901,0.0148933,1308,1723,9.10515,-55.9463
91,-699,9.18506,55.9028,-0.00397632,-0.0162724,-0.0202779,0.011065,-0.0313137,-0.638208,0.0253813,0.0143946,1315,1723,9.1851,-55.9028
98,-699,9.25366,55.834,-0.0022741,-0.0147171,-0.0190623,0.0115563,-0.0285474,-0.62766,0.0238365,0.0124124,1322,1723,9.25363,-55.8339
105,-699,9.31226,55.7715,0.000125558,-0.0121765,-0.0181128,0.0131033,-0.0251542,-0.62171,0.0224503,0.0166137,1329,1723,9.31222,-55.7715
112,-699,9.3479,55.6978,0.00259012,-0.00993007,-0.0165153,0.013992,-0.0213319,-0.604241,0.0205405,0.0237228,1336,1723,9.34794,-55.6978
119,-699,9.35889,55.5675,0.00503201,-0.00809419,-0.0149261,0.0147742,-0.0178364,-0.578268,0.0188554,0.0177099,1343,1723,9.35894,-55.5675
126,-699,9.42712,55.4078,0.00692517,-0.00683751,-0.0134225,0.0151275,-0.0150398,-0.548531,0.0174171,0.0191045,1350,1723,9.42717,-55.4078
133,-699,9.51929,55.2826,0.00824785,-0.00533983,-0.0118602,0.0151223,-0.0122142,-0.525299,0.0158125,0.0179129,1357,1723,9.51924,-55.2826
140,-699,9.57935,55.1505,0.00929862,-0.00337351,-0.0102964,0.0150523,-0.00912718,-0.509577,0.014099,0.0193724,1364,1723,9.57928,-55.1505
147,-699,9.63757,54.9871,0.00965228,-0.00163876,-0.00880336,0.0144648,-0.0064513,-0.500284,0.0123678,0.0150512,1371,1723,9.63758,-54.987
154,-699,9.64587,54.7955,0.0101255,-0.000525981,-0.00708062,0.0136597,-0.00406019,-0.462958,0.0107193,0.0152415,1378,1723,9.64585,-54.7955
161,-699,9.69641,54.6296,0.0104974,0.000585243,-0.00515137,0.0126897,-0.00160705,-0.402358,0.00904321,0.0112198,1385,1723,9.69643,-54.6296
168,-699,9.76221,54.4191,0.0100611,0.00244699,-0.00348961,0.0114185,0.00108965,-0.370959,0.00727635,0.0119458,1392,1723,9.76221,-54.4191
175,-699,9.80969,54.1896,0.00737424,0.0016923,0.000808778,0.00748712,0.00157942,0.138673,0.0045571,0.0176481,1399,1723,9.80975,-54.1895
182,-699,9.85889,53.9664,0.00729778,0.00113074,0.00201875,0.00789983,0.000528685,0.289833,0.00509947,0.0192455,1406,1723,9.85891,-53.9664
189,-699,9.83044,53.7019,0.00606456,0.000840712,0.00162035,0.00652634,0.000378931,0.277629,0.00423025,0.0186851,1413,1723,9.83048,-53.7019
196,-699,9.84668,53.4254,0.00492239,-0.000139969,0.00178559,0.00548882,-0.000706401,0.307183,0.00391598,0.017679,1420,1723,9.84671,-53.4254
203,-699,9.87512,53.1644,0.0042641,-0.000155171,0.00172089,0.00485517,-0.000746238,0.330843,0.00351205,0.0141393,1427,1723,9.87509,-53.1644
210,-699,9.92419,52.879,0.00360409,-0.000105724,0.00146331,0.0041118,-0.000613433,0.333964,0.00296689,0.0140373,1434,1723,9.92417,-52.879
217,-699,9.94934,52.5618,0.00293356,-0.00020927,0.000958524,0.00320282,-0.000478538,0.273861,0.0023113,0.014459,1441,1723,9.94938,-52.5617
224,-699,9.95105,52.2426,0.00252391,-0.000151738,0.000670991,0.00268275,-0.000310577,0.232445,0.0019005,0.016083,1448,1723,9.95104,-52.2425
231,-699,9.94727,51.9146,0.00209305,8.56557e-05,0.00028511,0.00213276,4.59469e-05,0.138385,0.00140677,0.0135667,1455,1723,9.94723,-51.9145
238,-699,9.93591,51.5442,0.0018209,0.000262581,-0.000109839,0.0018286,0.000254876,-0.0700246,0.00114361,0.0119543,1462,1723,9.93595,-51.5442
245,-699,9.94434,51.205,0.00160344,0.000540396,-0.000414709,0.00174609,0.000397753,-0.331284,0.00105673,0.0132544,1469,1723,9.94435,-51.2049
252,-699,9.94385,50.8706,0.00131815,0.000807613,-0.000679091,0.00178837,0.000337399,-0.605618,0.00109721,0.0115556,1476,1723,9.94384,-50.8706
259,-699,9.94287,50.4948,0.00103673,0.00101627,-0.000862209,0.00188877,0.00016423,-0.779464,0.00120816,0.0124287,1483,1723,9.94287,-50.4948
266,-699,9.93701,50.1107,0.000842264,0.00112253,-0.0010156,0.00200761,-4.28235e-05,-0.853955,0.00135291,0.0138182,1490,1723,9.937,-50.1107
273,-699,9.92773,49.7096,0.000659434,0.0012655,-0.00113344,0.00213572,-0.000210787,-0.916021,0.00149902,0.0123072,1497,1723,9.92779,-49.7096
280,-699,9.94141,49.29,0.000427689,0.00134359,-0.00123194,0.00219994,-0.00042866,-0.96335,0.00162843,0.0132941,1504,1723,9.94147,-49.29
287,-699,9.91687,48.8657,0.000173455,0.00154984,-0.00127768,0.00231288,-0.000589581,-1.03243,0.00177146,0.0116475,1511,1723,9.91693,-48.8657
294,-699,9.89258,48.4529,-2.27041e-05,0.00153852,-0.0013423,0.00231069,-0.000794871,-1.04877,0.00186283,0.0110431,1518,1723,9.89261,-48.4529
301,-699,9.88342,48.0527,-0.000381506,0.00173934,-0.00140226,0.00243699,-0.00107916,-1.10913,0.00207989,0.0128369,1525,1723,9.88342,-48.0527
308,-699,9.87927,47.6376,-0.000931898,0.00176077,-0.00135322,0.00232331,-0.00149444,-1.17682,0.00222143,0.0167097,1532,1723,9.87924,-47.6376
315,-699,9.86084,47.1714,-0.00176382,0.00146131,-0.00103906,0.00176708,-0.00206959,-1.2846,0.00221739,0.0187904,1539,1723,9.8608,-47.1714
322,-699,9.81592,46.6978,-0.00258357,0.00151901,-0.000716427,0.00164052,-0.00270508,-1.40279,0.0025339,0.0203889,1546,1723,9.81588,-46.6977
329,-699,9.75464,46.2313,-0.00352582,0.00143949,-0.000150421,0.00144404,-0.00353037,-1.54054,0.00295498,0.0168702,1553,1723,9.75464,-46.2314
336,-699,9.71326,45.7941,-0.00454461,0.0012913,0.000367884,0.0013144,-0.00456771,1.50809,0.00356498,0.0193444,1560,1723,9.71321,-45.794
343,-699,9.77319,45.3495,-0.00553419,0.00106842,0.00101158,0.00121992,-0.00568569,1.42213,0.00425579,0.0298026,1567,1723,9.7732,-45.3494
350,-699,9.7677,44.7813,-0.00630308,0.000843098,0.00177843,0.00126122,-0.0067212,1.33988,0.004955,0.0443763,1574,1723,9.76774,-44.7813
357,-699,9.70886,44.0444,-0.00685601,0.000476029,0.00240761,0.00119593,-0.00757591,1.28025,0.00549282,0.0464572,1581,1723,9.70889,-44.0444
364,-699,9.48071,43.7227,-0.00708839,0.000452242,0.0026714,0.00130271,-0.00793886,1.26258,0.00577599,0.0425738,1588,1723,9.48075,-43.7226
371,-699,9.24976,43.2935,0,0,0,0,0,0,0,-1,1595,1723,9.24974,-43.2935
378,-699,8.89783,42.9802,0,0,0,0,0,0,0,-1,1602,1723,8.89778,-42.9802
385,-699,8.56873,41.9456,0,0,0,0,0,0,0,-1,1609,1723,8.56878,-41.9456
392,-699,9.53882,40.8688,0,0,0,0,0,0,0,-1,1616,1723,9.53877,-40.8687
399,-699,12.1949,39.684,0,0,0,0,0,0,0,-1,1623,1723,12.195,-39.6839
406,-699,9.51123,40.2999,0,0,0,0,0,0,0,-1,1630,1723,9.51121,-40.3
413,-699,8.81848,38.9709,0,0,0,0,0,0,0,-1,1637,1723,8.81852,-38.971
420,-699,8.41907,38.2246,0,0,0,0,0,0,0,-1,1644,1723,8.41902,-38.2247
427,-699,2.98743,11.8593,0,0,0,0,0,0,0,-1,1651,1723,2.98746,-11.8592
434,-699,4.66455,8.90222,0,0,0,0,0,0,0,-1,1658,1723,4.66456,-8.90223
441,-699,0,0,0,0,0,0,0,0,0,-1,1665,1723,0,0
448,-699,0,0,0,0,0,0,0,0,0,-1,1672,1723,0,0
455,-699,0,0,0,0,0,0,0,0,0,-1,1679,1723,0,0
462,-699,0,0,0,0,0,0,0,0,0,-1,1686,1723,0,0
469,-699,0,0,0,0,0,0,0,0,0,-1,1693,1723,0,0
476,-699,0,0,0,0,0,0,0,0,0,-1,1700,1723,0,0
483,-699,0,0,0,0,0,0,0,0,0,-1,1707,1723,0,0
490,-699,0,0,0,0,0,0,0,0,0,-1,1714,1723,0,0
497,-699,0,0,0,0,0,0,0,0,0,-1,1721,1723,0,0
504,-699,0,0,0,0,0,0,0,0,0,-1,1728,1723,0,0
511,-699,0,0,0,0,0,0,0,0,0,-1,1735,1723,0,0
518,-699,0,0,0,0,0,0,0,0,0,-1,1742,1723,0,0
525,-699,0,0,0,0,0,0,0,0,0,-1,1749,1723,0,0
532,-699,0,0,0,0,0,0,0,0,0,-1,1756,1723,0,0
539,-699,0,0,0,0,0,0,0,0,0,-1,1763,1723,0,0
546,-699,0,0,0,0,0,0,0,0,0,-1,1770,1723,0,0
553,-699,0,0,0,0,0,0,0,0,0,-1,1777,1723,0,0
560,-699,0,0,0,0,0,0,0,0,0,-1,1784,1723,0,0
567,-699,0,0,0,0,0,0,0,0,0,-1,1791,1723,0,0
574,-699,0,0,0,0,0,0,0,0,0,-1,1798,1723,0,0
581,-699,0,0,0,0,0,0,0,0,0,-1,1805,1723,0,0
588,-699,0,0,0,0,0,0,0,0,0,-1,1812,1723,0,0
595,-699,0,0,0,0,0,0,0,0,0,-1,1819,1723,0,0
602,-699,0,0,0,0,0,0,0,0,0,-1,1826,1723,0,0
609,-699,0,0,0,0,0,0,0,0,0,-1,1833,1723,0,0
616,-699,0,0,0,0,0,0,0,0,0,-1,1840,1723,0,0
623,-699,0,0,0,0,0,0,0,0,0,-1,1847,1723,0,0
630,-699,0,0,0,0,0,0,0,0,0,-1,1854,1723,0,0
637,-699,0,0,0,0,0,0,0,0,0,-1,1861,1723,0,0
644,-699,0,0,0,0,0,0,0,0,0,-1,1868,1723,0,0
651,-699,0,0,0,0,0,0,0,0,0,-1,1875,1723,0,0
658,-699,0,0,0,0,0,0,0,0,0,-1,1882,1723,0,0
665,-699,0,0,0,0,0,0,0,0,0,-1,1889,1723,0,0
672,-699,0,0,0,0,0,0,0,0,0,-1,1896,1723,0,0
679,-699,0,0,0,0,0,0,0,0,0,-1,1903,1723,0,0
686,-699,0,0,0,0,0,0,0,0,0,-1,1910,1723,0,0
693,-699,0,0,0,0,0,0,0,0,0,-1,1917,1723,0,0
700,-699,0,0,0,0,0,0,0,0,0,-1,1924,1723,0,0
707,-699,0,0,0,0,0,0,0,0,0,-1,1931,1723,0,0
714,-699,0,0,0,0,0,0,0,0,0,-1,1938,1723,0,0
721,-699,0,0,0,0,0,0,0,0,0,-1,1945,1723,0,0
728,-699,0,0,0,0,0,0,0,0,0,-1,1952,1723,0,0
735,-699,0,0,0,0,0,0,0,0,0,-1,1959,1723,0,0
742,-699,0,0,0,0,0,0,0,0,0,-1,1966,1723,0,0
749,-699,0,0,0,0,0,0,0,0,0,-1,1973,1723,0,0
756,-699,0,0,0,0,0,0,0,0,0,-1,1980,1723,0,0
763,-699,0,0,0,0,0,0,0,0,0,-1,1987,1723,0,0
770,-699,0,0,0,0,0,0,0,0,0,-1,1994,1723,0,0
777,-699,0,0,0,0,0,0,0,0,0,-1,2001,1723,0,0
784,-699,0,0,0,0,0,0,0,0,0,-1,2008,1723,0,0
791,-699,0,0,0,0,0,0,0,0,0,-1,2015,1723,0,0
798,-699,0,0,0,0,0,0,0,0,0,-1,2022,1723,0,0
805,-699,0,0,0,0,0,0,0,0,0,-1,2029,1723,0,0
812,-699,0,0,0,0,0,0,0,0,0,-1,2036,1723,0,0
-700,-706,0,0,0,0,0,0,0,0,0,-1,524,1730,0,0
-693,-706,0,0,0,0,0,0,0,0,0,-1,531,1730,0,0
-686,-706,0,0,0,0,0,0,0,0,0,-1,538,1730,0,0
-679,-706,0,0,0,0,0,0,0,0,0,-1,545,1730,0,0
-672,-706,0,0,0,0,0,0,0,0,0,-1,552,1730,0,0
-665,-706,0,0,0,0,0,0,0,0,0,-1,559,1730,0,0
-658,-706,0,0,0,0,0,0,0,0,0,-1,566,1730,0,0
-651,-706,0,0,0,0,0,0,0,0,0,-1,573,1730,0,0
-644,-706,0,0,0,0,0,0,0,0,0,-1,580,1730,0,0
-637,-706,0,0,0,0,0,0,0,0,0,-1,587,1730,0,0
-630,-706,0,0,0,0,0,0,0,0,0,-1,594,1730,0,0
-623,-706,0,0,0,0,0,0,0,0,0,-1,601,1730,0,0
-616,-706,0,0,0,0,0,0,0,0,0,-1,608,1730,0,0
-609,-706,0,0,0,0,0,0,0,0,0,-1,615,1730,0,0
-602,-706,0,0,0,0,0,0,0,0,0,-1,622,1730,0,0
-595,-706,0,0,0,0,0,0,0,0,0,-1,629,1730,0,0
-588,-706,0,0,0,0,0,0,0,0,0,-1,636,1730,0,0
-581,-706,0,0,0,0,0,0,0,0,0,-1,643,1730,0,0
-574,-706,0,0,0,0,0,0,0,0,0,-1,650,1730,0,0
-567,-706,0,0,0,0,0,0,0,0,0,-1,657,1730,0,0
-560,-706,0,0,0,0,0,0,0,0,0,-1,664,1730,0,0
-553,-706,0,0,0,0,0,0,0,0,0,-1,671,1730,0,0
-546,-706,0,0,0,0,0,0,0,0,0,-1,678,1730,0,0
-539,-706,0,0,0,0,0,0,0,0,0,-1,685,1730,0,0
-532,-706,0,0,0,0,0,0,0,0,0,-1,692,1730,0,0
-525,-706,0,0,0,0,0,0,0,0,0,-1,699,1730,0,0
-518,-706,0,0,0,0,0,0,0,0,0,-1,706,1730,0,0
-511,-706,0,0,0,0,0,0,0,0,0,-1,713,1730,0,0
-504,-706,0,0,0,0,0,0,0,0,0,-1,720,1730,0,0
-497,-706,0,0,0,0,0,0,0,0,0,-1,727,1730,0,0
-490,-706,0,0,0,0,0,0,0,0,0,-1,734,1730,0,0
-483,-706,0,0,0,0,0,0,0,0,0,-1,741,1730,0,0
-476,-706,0,0,0,0,0,0,0,0,0,-1,748,1730,0,0
-469,-706,0,0,0,0,0,0,0,0,0,-1,755,1730,0,0
-462,-706,0,0,0,0,0,0,0,0,0,-1,762,1730,0,0
-455,-706,0,0,0,0,0,0,0,0,0,-1,769,1730,0,0
-448,-706,0,0,0,0,0,0,0,0,0,-1,776,1730,0,0
-441,-706,0,0,0,0,0,0,0,0,0,-1,783,1730,0,0
-434,-706,0,0,0,0,0,0,0,0,0,-1,790,1730,0,0
-427,-706,0,0,0,0,0,0,0,0,0,-1,797,1730,0,0
-420,-706,0,0,0,0,0,0,0,0,0,-1,804,1730,0,0
-413,-706,0,0,0,0,0,0,0,0,0,-1,811,1730,0,0
-406,-706,0,0,0,0,0,0,0,0,0,-1,818,1730,0,0
-399,-706,0,0,0,0,0,0,0,0,0,-1,825,1730,0,0
-392,-706,0,0,0,0,0,0,0,0,0,-1,832,1730,0,0
-385,-706,0,0,0,0,0,0,0,0,0,-1,839,1730,0,0
-378,-706,0,0,0,0,0,0,0,0,0,-1,846,1730,0,0
-371,-706,0,0,0,0,0,0,0,0,0,-1,853,1730,0,0
-364,-706,0,0,0,0,0,0,0,0,0,-1,860,1730,0,0
-357,-706,0,0,0,0,0,0,0,0,0,-1,867,1730,0,0
-350,-706,0,0,0,0,0,0,0,0,0,-1,874,1730,0,0
-343,-706,0,0,0,0,0,0,0,0,0,-1,881,1730,0,0
-336,-706,0,0,0,0,0,0,0,0,0,-1,888,1730,0,0
-329,-706,0,0,0,0,0,0,0,0,0,-1,895,1730,0,0
-322,-706,0,0,0,0,0,0,0,0,0,-1,902,1730,0,0
-315,-706,0,0,0,0,0,0,0,0,0,-1,909,1730,0,0
-308,-706,5.08191,14.6245,0,0,0,0,0,0,0,-1,916,1730,5.08188,-14.6245
-301,-706,7.45007,21.1975,0,0,0,0,0,0,0,-1,923,1730,7.45005,-21.1976
-294,-706,11.8603,21.026,0,0,0,0,0,0,0,-1,930,1730,11.8603,-21.026
-287,-706,10.3292,20.8425,0,0,0,0,0,0,0,-1,937,1730,10.3292,-20.8425
-280,-706,7.9162,21.8951,0,0,0,0,0,0,0,-1,944,1730,7.9162,-21.8952
-273,-706,7.38953,20.6355,0,0,0,0,0,0,0,-1,951,1730,7.38955,-20.6355
-266,-706,9.66724,22.8231,0,0,0,0,0,0,0,-1,958,1730,9.66722,-22.8231
-259,-706,3.47852,20.7363,0,0,0,0,0,0,0,-1,965,1730,3.47851,-20.7364
-252,-706,3.84259,20.1979,0,0,0,0,0,0,0,-1,972,1730,3.84256,-20.1979
-245,-706,4.698,19.2992,0,0,0,0,0,0,0,-1,979,1730,4.69799,-19.2991
-238,-706,8.12567,36.8694,0,0,0,0,0,0,0,-1,986,1730,8.12568,-36.8694
-231,-706,9.62701,43.5653,0,0,0,0,0,0,0,-1,993,1730,9.62702,-43.5654
-224,-706,8.69891,44.3907,0,0,0,0,0,0,0,-1,1000,1730,8.69891,-44.3907
-217,-706,8.5177,44.8274,-0.00545863,0.00664112,0.00397341,0.00782926,-0.00664678,1.28023,0.00836704,0.0395008,1007,1730,8.51768,-44.8274
-210,-706,8.56409,45.4025,-0.0044261,0.00455283,0.0039144,0.00601969,-0.00589296,1.21226,0.0068779,0.0376924,1014,1730,8.56408,-45.4025
-203,-706,8.48401,46.0341,-0.00349368,0.00346301,0.00408153,0.00534729,-0.00537796,1.13829,0.00619224,0.0320384,1021,1730,8.48401,-46.0341
-196,-706,8.49976,46.418,-0.00272775,0.00251463,0.00401738,0.00469031,-0.00490343,1.07445,0.0055394,0.0248709,1028,1730,8.4998,-46.418
-189,-706,8.41748,46.943,-0.00225548,0.00183036,0.00391598,0.00420428,-0.0046294,1.02582,0.00510209,0.0206443,1035,1730,8.41754,-46.943
-182,-706,8.39868,47.4602,-0.00212847,0.00137158,0.0035809,0.00360721,-0.00436409,1.01269,0.00460914,0.0172356,1042,1730,8.39872,-47.4602
-175,-706,8.40027,47.9479,-0.00179523,0.00120489,0.00341205,0.00343206,-0.0040224,0.992499,0.00430833,0.0171187,1049,1730,8.40029,-47.9479
-168,-706,8.36023,48.3729,-0.00170777,0.00118858,0.00300805,0.00307891,-0.0035981,1.00974,0.00385885,0.0160518,1056,1730,8.36028,-48.3729
-161,-706,8.3241,48.7976,-0.00193972,0.00124539,0.00256221,0.00266965,-0.00336398,1.06346,0.0034912,0.0142918,1063,1730,8.32412,-48.7977
-154,-706,8.29163,49.2229,-0.0020199,0.00145843,0.00222994,0.00254722,-0.00310869,1.11659,0.0032708,0.0137365,1070,1730,8.29166,-49.2229
-147,-706,8.25464,49.6128,-0.00196419,0.00218751,0.00201725,0.00300622,-0.0027829,1.18526,0.00334318,0.0125673,1077,1730,8.25467,-49.6128
-140,-706,8.24292,50.027,-0.00184196,0.00204672,0.00168185,0.00267319,-0.00246843,1.21423,0.0029693,0.0119132,1084,1730,8.24288,-50.0269
-133,-706,8.21912,50.4058,-0.00157868,0.00210477,0.00142602,0.00259231,-0.00206622,1.24137,0.00269531,0.00977703,1091,1730,8.21916,-50.4057
-126,-706,8.21863,50.7883,-0.00119573,0.00221511,0.0012476,0.00262273,-0.00160336,1.255,0.00246348,0.0142159,1098,1730,8.21868,-50.7883
-119,-706,8.18066,51.1691,-0.000721744,0.00217404,0.00109921,0.00254402,-0.00109172,1.24612,0.00215419,0.0187951,1105,1730,8.18072,-51.169
-112,-706,8.17615,51.5237,-0.000203932,0.00212867,0.000992334,0.0024937,-0.000568965,1.21831,0.00188103,0.0129345,1112,1730,8.17614,-51.5237
-105,-706,8.18567,51.8728,0.000211735,0.00196748,0.000841049,0.00230535,-0.000126133,1.18881,0.00158062,0.0094075,1119,1730,8.18567,-51.8728
-98,-706,8.20361,52.1927,0.000620006,0.00175126,0.000692437,0.00207972,0.000291538,1.12787,0.00130024,0.0119952,1126,1730,8.20356,-52.1928
-91,-706,8.2146,52.5234,0.00108013,0.00155325,0.0005877,0.00195021,0.000683166,0.976734,0.00114265,0.0157489,1133,1730,8.21462,-52.5234
-84,-706,8.19604,52.8397,0.00150724,0.00127982,0.000467663,0.00187482,0.000912239,0.666139,0.00108256,0.0180308,1140,1730,8.19605,-52.8397
-77,-706,8.18457,53.116,0.00190928,0.000966246,0.000350436,0.00202524,0.000850282,0.319571,0.00117427,0.0169059,1147,1730,8.18455,-53.116
-70,-706,8.17505,53.4302,0.00217058,0.000650131,0.000157876,0.0021868,0.000633911,0.10238,0.00129918,0.0202926,1154,1730,8.1751,-53.4301
-63,-706,8.18481,53.7184,0.00280907,0.000113354,0.000167648,0.00281946,0.000102968,0.0618727,0.00184628,0.0152637,1161,1730,8.18477,-53.7184
-56,-706,8.1947,53.957,0.00386574,-0.000335471,0.000247919,0.00388032,-0.000350051,0.0587396,0.00271111,0.0144112,1168,1730,8.19467,-53.9571
-49,-706,8.18176,54.2073,0.00510594,-0.000447477,4.76898e-05,0.00510635,-0.000447886,0.00858663,0.00356293,0.0160165,1175,1730,8.18172,-54.2072
-42,-706,8.24109,54.4346,0.00613313,-0.000752767,0.00016158,0.00613692,-0.000756557,0.0234481,0.00436537,0.0205223,1182,1730,8.24106,-54.4345
-35,-706,8.26648,54.6267,0.00726354,-0.000278114,0.000699071,0.00732779,-0.000342367,0.0916541,0.00500322,0.0178265,1189,1730,8.26648,-54.6267
-28,-706,8.31079,54.8016,0.00838078,-4.72642e-06,0.00129651,0.00857666,-0.00020061,0.14995,0.0057858,0.0117336,1196,1730,8.3108,-54.8016
-21,-706,8.35059,54.9586,0.00947202,0.000674856,0.0018652,0.00985114,0.000295728,0.200532,0.00647111,0.0126603,1203,1730,8.35063,-54.9586
-14,-706,8.37964,55.1425,0.0107901,0.00144627,0.00201623,0.0112066,0.00102977,0.203709,0.00715255,0.0121553,1210,1730,8.3797,-55.1424
-7,-706,8.42773,55.3241,0.0117347,0.00215641,0.00208381,0.0121684,0.0017227,0.205201,0.00760338,0.00967321,1217,1730,8.42778,-55.3241
0,-706,8.48682,55.4792,0.0122852,0.00210229,0.0021624,0.0127254,0.00166212,0.200812,0.00798742,0.0135202,1224,1730,8.48681,-55.4793
7,-706,8.50439,55.5968,0.012581,0.00214383,0.00164803,0.0128351,0.00188979,0.152944,0.00800151,0.0158506,1231,1730,8.50441,-55.5968
14,-706,8.5481,55.6926,0.0122482,0.00193756,0.000475705,0.0122701,0.00191566,0.0460069,0.0076222,0.0155075,1238,1730,8.54813,-55.6926
21,-706,8.59717,55.7737,0.0114949,0.00150938,-0.00114198,0.0116239,0.00138044,-0.112429,0.00733255,0.0119827,1245,1730,8.5972,-55.7737
28,-706,8.66162,55.844,0.0103351,0.000800266,-0.0031289,0.0112702,-0.000134795,-0.290398,0.0075588,0.0119249,1252,1730,8.66164,-55.844
35,-706,8.70276,55.9254,0.0086885,-0.000453313,-0.00544177,0.0112244,-0.00298917,-0.436078,0.00865314,0.0137991,1259,1730,8.7028,-55.9255
42,-706,8.74316,55.9854,0.00683891,-0.00197073,-0.00761593,0.0112321,-0.00636391,-0.523217,0.0102878,0.012335,1266,1730,8.74322,-55.9854
49,-706,8.79187,56.0338,0.00446961,-0.0034405,-0.00972745,0.0110153,-0.0099862,-0.592312,0.0121301,0.0146737,1273,1730,8.79187,-56.0339
56,-706,8.86182,56.0477,0.00189963,-0.0051114,-0.0115469,0.0104614,-0.0136732,-0.638025,0.0139752,0.0148289,1280,1730,8.86186,-56.0478
63,-706,8.92078,56.0238,0.000217761,-0.00687799,-0.0128976,0.0100466,-0.0167068,-0.651178,0.0156048,0.0127158,1287,1730,8.92077,-56.0238
70,-706,8.95227,56.0013,-0.000237352,-0.00804515,-0.0148276,0.0111916,-0.0194741,-0.656676,0.0179188,0.0131249,1294,1730,8.95227,-56.0013
77,-706,8.98132,55.9839,-0.00101541,-0.0090393,-0.0157885,0.0112629,-0.0213176,-0.660978,0.0191066,0.0114907,1301,1730,8.98133,-55.9839
84,-706,9.03101,55.972,-0.00104964,-0.00979206,-0.015795,0.0109678,-0.0218095,-0.650403,0.019266,0.00963063,1308,1730,9.03105,-55.972
91,-706,9.09058,55.95,-0.000628153,-0.00982419,-0.0150137,0.0104758,-0.0209282,-0.636805,0.0184628,0.0110325,1315,1730,9.09059,-55.95
98,-706,9.13477,55.8984,0.000725323,-0.00932211,-0.0139901,0.0105663,-0.0191631,-0.613023,0.0174019,0.0150132,1322,1730,9.13478,-55.8984
105,-706,9.18225,55.8461,0.00255952,-0.00797048,-0.013051,0.0113675,-0.0167784,-0.593673,0.0163498,0.0168154,1329,1730,9.18225,-55.8461
112,-706,9.20435,55.7405,0.00443134,-0.00711399,-0.0116218,0.0116352,-0.0143179,-0.554893,0.0150107,0.0159361,1336,1730,9.20434,-55.7404
119,-706,9.22363,55.6316,0.0062504,-0.00634854,-0.010223,0.011959,-0.0120571,-0.509273,0.0138657,0.0131902,1343,1730,9.22366,-55.6316
126,-706,9.28113,55.488,0.00762745,-0.00560929,-0.00889476,0.012096,-0.0100778,-0.465549,0.0128197,0.0150538,1350,1730,9.28118,-55.4881
133,-706,9.36731,55.3156,0.00847131,-0.00463688,-0.00754762,0.0119134,-0.00807892,-0.427868,0.0116131,0.013899,1357,1730,9.36733,-55.3156
140,-706,9.40173,55.1279,0.00892198,-0.00329216,-0.00618572,0.0115074,-0.00587758,-0.395898,0.0102111,0.0136752,1364,1730,9.40172,-55.1279
147,-706,9.46289,54.9468,0.00880207,-0.00204453,-0.00501032,0.0107622,-0.00400469,-0.372919,0.00881823,0.0220966,1371,1730,9.46293,-54.9468
154,-706,9.50061,54.8046,0.00875603,-0.0011792,-0.00381423,0.0100514,-0.00247462,-0.327404,0.00766025,0.021216,1378,1730,9.50059,-54.8046
161,-706,9.48254,54.6307,0.00858602,-0.00021958,-0.00254063,0.00926647,-0.00090003,-0.261686,0.00649846,0.0112316,1385,1730,9.48254,-54.6308
168,-706,9.51563,54.4108,0.00749431,0.00103414,-0.00145891,0.0078085,0.00071995,-0.212118,0.00498305,0.0107994,1392,1730,9.5156,-54.4107
175,-706,9.57117,54.1876,0.0052175,0.000848511,0.000848974,0.00537667,0.000689339,0.185336,0.0033782,0.0107174,1399,1730,9.57116,-54.1877
182,-706,9.56592,53.946,0.00470863,0.000842383,0.00108329,0.00499147,0.000559548,0.255389,0.0031577,0.0113073,1406,1730,9.56589,-53.9461
189,-706,9.56543,53.6765,0.00385976,0.000807479,0.000787683,0.00405105,0.000616195,0.238233,0.00252053,0.0145354,1413,1730,9.56543,-53.6765
196,-706,9.58118,53.4113,0.00310495,0.000407643,0.00079343,0.00332104,0.000191561,0.26589,0.00215301,0.0130066,1420,1730,9.5812,-53.4112
203,-706,9.59082,53.1527,0.0026229,0.00048155,0.000663985,0.00281207,0.000292375,0.277554,0.00178525,0.0140915,1427,1730,9.59083,-53.1527
210,-706,9.59302,52.8499,0.00214581,0.000629406,0.000409493,0.00224932,0.000525892,0.2476,0.00135861,0.0130428,1434,1730,9.59303,-52.8499
217,-706,9.58667,52.5614,0.0016543,0.000680491,2.02199e-05,0.00165472,0.000680071,0.0207518,0.000960385,0.0137116,1441,1730,9.58665,-52.5614
224,-706,9.5874,52.2642,0.00131167,0.000794595,-0.000257248,0.00141785,0.000688416,-0.39145,0.000818708,0.0185325,1448,1730,9.58741,-52.2642
231,-706,9.59961,51.9133,0.000943885,0.000977485,-0.000556545,0.00151748,0.000403887,-0.800487,0.000907497,0.0146233,1455,1730,9.59959,-51.9133
238,-706,9.59863,51.5625,0.000693139,0.00112811,-0.000830692,0.00176932,5.19348e-05,-0.913431,0.00116262,0.00974228,1462,1730,9.59863,-51.5625
245,-706,9.61121,51.1948,0.000499448,0.00132714,-0.00107121,0.00206166,-0.000235075,-0.969734,0.00145913,0.0120524,1469,1730,9.61125,-51.1948
252,-706,9.60376,50.8434,0.000216756,0.0015154,-0.00125679,0.0022807,-0.000548535,-1.02384,0.0017325,0.0117212,1476,1730,9.6038,-50.8434
259,-706,9.60193,50.4899,-1.6577e-05,0.00166899,-0.0013332,0.00240346,-0.000751041,-1.06726,0.00190272,0.0135989,1483,1730,9.60195,-50.4898
266,-706,9.56189,50.1195,-0.000138312,0.00168311,-0.00139555,0.00243882,-0.000894018,-1.07449,0.00199192,0.013902,1490,1730,9.56185,-50.1195
273,-706,9.53479,49.7152,-0.000280252,0.00176468,-0.00147409,0.0025362,-0.00105177,-1.08862,0.00212979,0.0131691,1497,1730,9.53474,-49.7152
280,-706,9.53577,49.2819,-0.00046988,0.0018161,-0.00155343,0.00260173,-0.00125551,-1.10257,0.00227174,0.0116285,1504,1730,9.53572,-49.2818
287,-706,9.50037,48.8763,-0.000687578,0.00208465,-0.00158852,0.00280678,-0.00140971,-1.14413,0.00247854,0.0123092,1511,1730,9.50032,-48.8763
294,-706,9.48315,48.4816,-0.000818797,0.00209363,-0.00164507,0.00283441,-0.00155958,-1.14769,0.00257222,0.0114648,1518,1730,9.48317,-48.4816
301,-706,9.46875,48.0585,-0.00115339,0.00239797,-0.00167479,0.00306319,-0.0018186,-1.19271,0.00284887,0.010984,1525,1730,9.46878,-48.0585
308,-706,9.46301,47.6279,-0.00173338,0.00244677,-0.00154,0.00295285,-0.00223946,-1.25329,0.0030072,0.0127155,1532,1730,9.46306,-47.6279
315,-706,9.44434,47.1768,-0.00268767,0.00205976,-0.00107875,0.00229339,-0.00292129,-1.35752,0.00301796,0.0209093,1539,1730,9.44436,-47.1768
322,-706,9.4093,46.7079,-0.003632,0.00212612,-0.000622955,0.00219275,-0.00369862,-1.46425,0.00343822,0.0228242,1546,1730,9.40935,-46.7079
329,-706,9.38843,46.2111,-0.00477955,0.0020406,0.000180495,0.00204538,-0.00478432,1.54436,0.00404744,0.0250929,1553,1730,9.38842,-46.2111
336,-706,9.2428,45.6066,-0.00607814,0.00185013,0.000918139,0.00195506,-0.00618308,1.457,0.00490537,0.0440076,1560,1730,9.24279,-45.6065
343,-706,9.30225,45.3214,0,0,0,0,0,0,0,-1,1567,1730,9.30231,-45.3214
350,-706,9.14343,44.6832,-0.00858172,0.000982553,0.0030678,0.00188198,-0.00948116,1.2856,0.00703255,0.0469306,1574,1730,9.14339,-44.6832
357,-706,9.01038,44.2654,-0.00945261,0.000393945,0.00417434,0.00192541,-0.0109841,1.21917,0.00804173,0.0472086,1581,1730,9.01036,-44.2654
364,-706,8.87622,43.9871,-0.0100388,0.000134424,0.0048629,0.00208496,-0.0119894,1.18934,0.00877088,0.0493923,1588,1730,8.87622,-43.987
371,-706,8.69482,43.5846,0,0,0,0,0,0,0,-1,1595,1730,8.69485,-43.5846
378,-706,7.25085,37.1644,0,0,0,0,0,0,0,-1,1602,1730,7.25091,-37.1644
385,-706,8.13733,39.9003,0,0,0,0,0,0,0,-1,1609,1730,8.13735,-39.9003
392,-706,6.43359,36.5219,0,0,0,0,0,0,0,-1,1616,1730,6.43354,-36.5218
399,-706,6.06824,36.3298,0,0,0,0,0,0,0,-1,1623,1730,6.06819,-36.3299
406,-706,8.80493,41.0588,0,0,0,0,0,0,0,-1,1630,1730,8.80494,-41.0588
413,-706,8.43433,40.3345,0,0,0,0,0,0,0,-1,1637,1730,8.43428,-40.3344
420,-706,8.0636,39.6101,0,0,0,0,0,0,0,-1,1644,1730,8.06362,-39.6101
427,-706,0,0,0,0,0,0,0,0,0,-1,1651,1730,0,0
434,-706,0,0,0,0,0,0,0,0,0,-1,1658,1730,0,0
441,-706,0,0,0,0,0,0,0,0,0,-1,1665,1730,0,0
448,-706,0,0,0,0,0,0,0,0,0,-1,1672,1730,0,0
455,-706,0,0,0,0,0,0,0,0,0,-1,1679,1730,0,0
462,-706,0,0,0,0,0,0,0,0,0,-1,1686,1730,0,0
469,-706,0,0,0,0,0,0,0,0,0,-1,1693,1730,0,0
476,-706,0,0,0,0,0,0,0,0,0,-1,1700,1730,0,0
483,-706,0,0,0,0,0,0,0,0,0,-1,1707,1730,0,0
490,-706,0,0,0,0,0,0,0,0,0,-1,1714,1730,0,0
497,-706,0,0,0,0,0,0,0,0,0,-1,1721,1730,0,0
504,-706,0,0,0,0,0,0,0,0,0,-1,1728,1730,0,0
511,-706,0,0,0,0,0,0,0,0,0,-1,1735,1730,0,0
518,-706,0,0,0,0,0,0,0,0,0,-1,1742,1730,0,0
525,-706,0,0,0,0,0,0,0,0,0,-1,1749,1730,0,0
532,-706,0,0,0,0,0,0,0,0,0,-1,1756,1730,0,0
539,-706,0,0,0,0,0,0,0,0,0,-1,1763,1730,0,0
546,-706,0,0,0,0,0,0,0,0,0,-1,1770,1730,0,0
553,-706,0,0,0,0,0,0,0,0,0,-1,1777,1730,0,0
560,-706,0,0,0,0,0,0,0,0,0,-1,1784,1730,0,0
567,-706,0,0,0,0,0,0,0,0,0,-1,1791,1730,0,0
574,-706,0,0,0,0,0,0,0,0,0,-1,1798,1730,0,0
581,-706,0,0,0,0,0,0,0,0,0,-1,1805,1730,0,0
588,-706,0,0,0,0,0,0,0,0,0,-1,1812,1730,0,0
595,-706,0,0,0,0,0,0,0,0,0,-1,1819,1730,0,0
602,-706,0,0,0,0,0,0,0,0,0,-1,1826,1730,0,0
609,-706,0,0,0,0,0,0,0,0,0,-1,1833,1730,0,0
616,-706,0,0,0,0,0,0,0,0,0,-1,1840,1730,0,0
623,-706,0,0,0,0,0,0,0,0,0,-1,1847,1730,0,0
630,-706,0,0,0,0,0,0,0,0,0,-1,1854,1730,0,0
637,-706,0,0,0,0,0,0,0,0,0,-1,1861,1730,0,0
644,-706,0,0,0,0,0,0,0,0,0,-1,1868,1730,0,0
651,-706,0,0,0,0,0,0,0,0,0,-1,1875,1730,0,0
658,-706,0,0,0,0,0,0,0,0,0,-1,1882,1730,0,0
665,-706,0,0,0,0,0,0,0,0,0,-1,1889,1730,0,0
672,-706,0,0,0,0,0,0,0,0,0,-1,1896,1730,0,0
679,-706,0,0,0,0,0,0,0,0,0,-1,1903,1730,0,0
686,-706,0,0,0,0,0,0,0,0,0,-1,1910,1730,0,0
693,-706,0,0,0,0,0,0,0,0,0,-1,1917,1730,0,0
700,-706,0,0,0,0,0,0,0,0,0,-1,1924,1730,0,0
707,-706,0,0,0,0,0,0,0,0,0,-1,1931,1730,0,0
714,-706,0,0,0,0,0,0,0,0,0,-1,1938,1730,0,0
721,-706,0,0,0,0,0,0,0,0,0,-1,1945,1730,0,0
728,-706,0,0,0,0,0,0,0,0,0,-1,1952,1730,0,0
735,-706,0,0,0,0,0,0,0,0,0,-1,1959,1730,0,0
742,-706,0,0,0,0,0,0,0,0,0,-1,1966,1730,0,0
749,-706,0,0,0,0,0,0,0,0,0,-1,1973,1730,0,0
756,-706,0,0,0,0,0,0,0,0,0,-1,1980,1730,0,0
763,-706,0,0,0,0,0,0,0,0,0,-1,1987,1730,0,0
770,-706,0,0,0,0,0,0,0,0,0,-1,1994,1730,0,0
777,-706,0,0,0,0,0,0,0,0,0,-1,2001,1730,0,0
784,-706,0,0,0,0,0,0,0,0,0,-1,2008,1730,0,0
791,-706,0,0,0,0,0,0,0,0,0,-1,2015,1730,0,0
798,-706,0,0,0,0,0,0,0,0,0,-1,2022,1730,0,0
805,-706,0,0,0,0,0,0,0,0,0,-1,2029,1730,0,0
812,-706,0,0,0,0,0,0,0,0,0,-1,2036,1730,0,0
-700,-713,0,0,0,0,0,0,0,0,0,-1,524,1737,0,0
-693,-713,0,0,0,0,0,0,0,0,0,-1,531,1737,0,0
-686,-713,0,0,0,0,0,0,0,0,0,-1,538,1737,0,0
-679,-713,0,0,0,0,0,0,0,0,0,-1,545,1737,0,0
-672,-713,0,0,0,0,0,0,0,0,0,-1,552,1737,0,0
-665,-713,0,0,0,0,0,0,0,0,0,-1,559,1737,0,0
-658,-713,0,0,0,0,0,0,0,0,0,-1,566,1737,0,0
-651,-713,0,0,0,0,0,0,0,0,0,-1,573,1737,0,0
-644,-713,0,0,0,0,0,0,0,0,0,-1,580,1737,0,0
-637,-713,0,0,0,0,0,0,0,0,0,-1,587,1737,0,0
-630,-713,0,0,0,0,0,0,0,0,0,-1,594,1737,0,0
-623,-713,0,0,0,0,0,0,0,0,0,-1,601,1737,0,0
-616,-713,0,0,0,0,0,0,0,0,0,-1,608,1737,0,0
-609,-713,0,0,0,0,0,0,0,0,0,-1,615,1737,0,0
-602,-713,0,0,0,0,0,0,0,0,0,-1,622,1737,0,0
-595,-713,0,0,0,0,0,0,0,0,0,-1,629,1737,0,0
-588,-713,0,0,0,0,0,0,0,0,0,-1,636,1737,0,0
-581,-713,0,0,0,0,0,0,0,0,0,-1,643,1737,0,0
-574,-713,0,0,0,0,0,0,0,0,0,-1,650,1737,0,0
-567,-713,0,0,0,0,0,0,0,0,0,-1,657,1737,0,0
-560,-713,0,0,0,0,0,0,0,0,0,-1,664,1737,0,0
-553,-713,0,0,0,0,0,0,0,0,0,-1,671,1737,0,0
-546,-713,0,0,0,0,0,0,0,0,0,-1,678,1737,0,0
-539,-713,0,0,0,0,0,0,0,0,0,-1,685,1737,0,0
-532,-713,0,0,0,0,0,0,0,0,0,-1,692,1737,0,0
-525,-713,0,0,0,0,0,0,0,0,0,-1,699,1737,0,0
-518,-713,0,0,0,0,0,0,0,0,0,-1,706,1737,0,0
-511,-713,0,0,0,0,0,0,0,0,0,-1,713,1737,0,0
-504,-713,0,0,0,0,0,0,0,0,0,-1,720,1737,0,0
-497,-713,0,0,0,0,0,0,0,0,0,-1,727,1737,0,0
-490,-713,0,0,0,0,0,0,0,0,0,-1,734,1737,0,0
-483,-713,0,0,0,0,0,0,0,0,0,-1,741,1737,0,0
-476,-713,0,0,0,0,0,0,0,0,0,-1,748,1737,0,0
-469,-713,0,0,0,0,0,0,0,0,0,-1,755,1737,0,0
-462,-713,0,0,0,0,0,0,0,0,0,-1,762,1737,0,0
-455,-713,0,0,0,0,0,0,0,0,0,-1,769,1737,0,0
-448,-713,0,0,0,0,0,0,0,0,0,-1,776,1737,0,0
-441,-713,0,0,0,0,0,0,0,0,0,-1,783,1737,0,0
-434,-713,0,0,0,0,0,0,0,0,0,-1,790,1737,0,0
-427,-713,0,0,0,0,0,0,0,0,0,-1,797,1737,0,0
-420,-713,0,0,0,0,0,0,0,0,0,-1,804,1737,0,0
-413,-713,0,0,0,0,0,0,0,0,0,-1,811,1737,0,0
-406,-713,0,0,0,0,0,0,0,0,0,-1,818,1737,0,0
-399,-713,0,0,0,0,0,0,0,0,0,-1,825,1737,0,0
-392,-713,0,0,0,0,0,0,0,0,0,-1,832,1737,0,0
-385,-713,0,0,0,0,0,0,0,0,0,-1,839,1737,0,0
-378,-713,0,0,0,0,0,0,0,0,0,-1,846,1737,0,0
-371,-713,0,0,0,0,0,0,0,0,0,-1,853,1737,0,0
-364,-713,0,0,0,0,0,0,0,0,0,-1,860,1737,0,0
-357,-713,0,0,0,0,0,0,0,0,0,-1,867,1737,0,0
-350,-713,0,0,0,0,0,0,0,0,0,-1,874,1737,0,0
-343,-713,0,0,0,0,0,0,0,0,0,-1,881,1737,0,0
-336,-713,0,0,0,0,0,0,0,0,0,-1,888,1737,0,0
-329,-713,0,0,0,0,0,0,0,0,0,-1,895,1737,0,0
-322,-713,0,0,0,0,0,0,0,0,0,-1,902,1737,0,0
-315,-713,0,0,0,0,0,0,0,0,0,-1,909,1737,0,0
-308,-713,0,0,0,0,0,0,0,0,0,-1,916,1737,0,0
-301,-713,0,0,0,0,0,0,0,0,0,-1,923,1737,0,0
-294,-713,7.17883,22.0453,0,0,0,0,0,0,0,-1,930,1737,7.17881,-22.0453
-287,-713,11.8916,21.5834,0,0,0,0,0,0,0,-1,937,1737,11.8916,-21.5833
-280,-713,10.2786,21.3551,0,0,0,0,0,0,0,-1,944,1737,10.2787,-21.3551
-273,-713,11.1981,23.8683,0,0,0,0,0,0,0,-1,951,1737,11.198,-23.8683
-266,-713,3.17981,19.8851,0,0,0,0,0,0,0,-1,958,1737,3.17983,-19.8851
-259,-713,3.5921,19.6868,0,0,0,0,0,0,0,-1,965,1737,3.59207,-19.6868
-252,-713,4.55469,20.5758,0,0,0,0,0,0,0,-1,972,1737,4.55466,-20.5758
-245,-713,3.89014,25.9825,0,0,0,0,0,0,0,-1,979,1737,3.89013,-25.9826
-238,-713,6.62506,30.5463,0,0,0,0,0,0,0,-1,986,1737,6.62509,-30.5462
-231,-713,8.87695,43.6794,0,0,0,0,0,0,0,-1,993,1737,8.87697,-43.6794
-224,-713,8.68207,44.1208,0,0,0,0,0,0,0,-1,1000,1737,8.68209,-44.1208
-217,-713,8.93958,44.7399,0,0,0,0,0,0,0,-1,1007,1737,8.93955,-44.7399
-210,-713,8.76935,45.9896,0,0,0,0,0,0,0,-1,1014,1737,8.76936,-45.9897
-203,-713,8.53467,46.4886,-0.00353682,0.00389955,0.00511012,0.00650103,-0.00613831,1.09991,0.00729833,0.0483668,1021,1737,8.53467,-46.4886
-196,-713,8.5625,46.2073,-0.00271129,0.00278193,0.0051183,0.00584401,-0.00577336,1.03166,0.00670733,0.0477334,1028,1737,8.56245,-46.2073
-189,-713,8.80225,46.8535,-0.00225146,0.00229705,0.0051079,0.00561412,-0.00556853,0.994843,0.00645632,0.0435405,1035,1737,8.80225,-46.8535
-182,-713,8.75842,47.325,-0.00249857,0.00195067,0.00466208,0.0048917,-0.00543961,1.00801,0.00596757,0.0307457,1042,1737,8.75837,-47.3249
-175,-713,8.85986,47.9738,0,0,0,0,0,0,0,-1,1049,1737,8.85992,-47.9738
-168,-713,8.86572,48.2783,-0.00266244,0.00189827,0.00397461,0.00420022,-0.0049644,1.04584,0.00529732,0.03074,1056,1737,8.86576,-48.2783
-161,-713,8.73535,48.8086,-0.00315692,0.00195748,0.00344134,0.00368772,-0.00488716,1.10493,0.00496682,0.0143669,1063,1737,8.73536,-48.8087
-154,-713,8.67139,49.2095,-0.00346926,0.00212601,0.00305053,0.00346752,-0.00481077,1.15649,0.0048004,0.0119582,1070,1737,8.67134,-49.2095
-147,-713,8.64905,49.6302,-0.00360682,0.00296044,0.00281758,0.00400359,-0.00464996,1.21622,0.00500077,0.0186195,1077,1737,8.64905,-49.6302
-140,-713,8.65295,50.0782,-0.0036338,0.00263214,0.00241042,0.0034521,-0.00445375,1.2429,0.00457664,0.0190395,1084,1737,8.653,-50.0783
-133,-713,8.60327,50.4393,-0.00345697,0.00257031,0.00209101,0.00322469,-0.00411135,1.2675,0.00424576,0.01303,1091,1737,8.60333,-50.4393
-126,-713,8.58875,50.7603,-0.00310451,0.00263655,0.00189524,0.00320577,-0.00367373,1.27903,0.00397494,0.018903,1098,1737,8.5888,-50.7603
-119,-713,8.56799,51.1077,-0.00263485,0.00246473,0.00172131,0.00299136,-0.00316148,1.27389,0.00355279,0.0276028,1105,1737,8.56798,-51.1077
-112,-713,8.52905,51.5283,-0.00206559,0.00242402,0.00163676,0.00295737,-0.00259894,1.25579,0.00321016,0.0144073,1112,1737,8.52906,-51.5283
-105,-713,8.53516,51.8716,-0.00158168,0.00228439,0.00151978,0.00281029,-0.00210758,1.23766,0.00284898,0.011384,1119,1737,8.53515,-51.8716
-98,-713,8.51648,52.2003,-0.00114045,0.00207041,0.0013786,0.0025811,-0.00165113,1.21603,0.00246306,0.0106205,1126,1737,8.51647,-52.2004
-91,-713,8.49585,52.5148,-0.00066084,0.00196419,0.0012942,0.00249494,-0.00119159,1.18161,0.00217231,0.0106099,1133,1737,8.4959,-52.5148
-84,-713,8.47595,52.8356,-0.000245157,0.00172855,0.0011428,0.00225162,-0.000768225,1.14155,0.00181227,0.00985445,1140,1737,8.47599,-52.8356
-77,-713,8.4657,53.1414,0.000297012,0.00157197,0.00106032,0.00217168,-0.000302703,1.05605,0.00155852,0.0130496,1147,1737,8.46568,-53.1413
-70,-713,8.4519,53.4368,0.000719732,0.00123085,0.000827381,0.00184124,0.000109339,0.935188,0.00119272,0.0159471,1154,1737,8.45185,-53.4368
-63,-713,8.4646,53.7196,0.00108045,0.000948023,0.000710925,0.00172824,0.000300235,0.738964,0.00106626,0.0140686,1161,1737,8.46464,-53.7196
-56,-713,8.47595,53.955,0.00159312,0.000592556,0.000673955,0.00193218,0.000253494,0.466118,0.00121249,0.0135068,1168,1737,8.47599,-53.9549
-49,-713,8.42908,54.1807,0.00224695,0.000296108,0.000538106,0.00238553,0.000157524,0.252061,0.00154053,0.0171097,1175,1737,8.42906,-54.1807
-42,-713,8.46069,54.4111,0.00292102,-3.57168e-05,0.000534169,0.00301456,-0.000129262,0.173364,0.00205415,0.0195109,1182,1737,8.46067,-54.4111
-35,-713,8.49951,54.6047,0.0036628,-4.81758e-05,0.000702313,0.00379126,-0.000176644,0.180921,0.0025884,0.0149723,1189,1737,8.49953,-54.6047
-28,-713,8.52075,54.8137,0.0044435,4.13563e-05,0.000885719,0.00461502,-0.000130169,0.191289,0.00312098,0.0140688,1196,1737,8.52076,-54.8137
-21,-713,8.53003,54.9805,0.00527458,0.000280901,0.0011794,0.00553911,1.6364e-05,0.220646,0.0036873,0.0106749,1203,1737,8.53008,-54.9805
-14,-713,8.54126,55.1517,0.00625635,0.000699953,0.00129374,0.00654281,0.000413491,0.217906,0.00423079,0.0118063,1210,1737,8.54126,-55.1518
-7,-713,8.57751,55.3333,0.00712516,0.00113486,0.00132462,0.00740499,0.000855028,0.208197,0.00467777,0.0102082,1217,1737,8.57749,-55.3332
0,-713,8.60864,55.4874,0.00769079,0.00117075,0.00125742,0.00792489,0.000936652,0.184063,0.00500037,0.0148458,1224,1737,8.60864,-55.4874
7,-713,8.61963,55.6136,0.00802177,0.00160722,0.000824027,0.00812594,0.00150305,0.125742,0.00499228,0.0182853,1231,1737,8.61961,-55.6137
14,-713,8.64307,55.7365,0.00798425,0.00191437,-3.03007e-05,0.0079844,0.00191422,-0.00499182,0.00481345,0.0137921,1238,1737,8.64305,-55.7365
21,-713,8.6936,55.8125,0.00759435,0.00199555,-0.00122463,0.00785049,0.00173941,-0.206189,0.00476098,0.0117878,1245,1737,8.69365,-55.8125
28,-713,8.70996,55.8835,0.00689111,0.00193556,-0.00267467,0.00805933,0.000767347,-0.411797,0.00513624,0.0117863,1252,1737,8.70996,-55.8835
35,-713,8.73694,55.9504,0.00587707,0.00159248,-0.00434268,0.00857712,-0.00110757,-0.556257,0.00612077,0.0113865,1259,1737,8.73698,-55.9505
42,-713,8.78906,56.0042,0.00467578,0.00100212,-0.00588834,0.00900714,-0.00332924,-0.63421,0.00736958,0.0113283,1266,1737,8.78903,-56.0041
49,-713,8.83423,56.0099,0.00307997,0.000338821,-0.00735939,0.00919532,-0.00577654,-0.693336,0.0087188,0.0124377,1273,1737,8.83425,-56.0099
56,-713,8.8656,56.0109,0.00132802,-0.00061506,-0.00855153,0.00896302,-0.00825006,-0.728836,0.00994082,0.0138769,1280,1737,8.86557,-56.0108
63,-713,8.90198,56.0359,0.000287923,-0.00178417,-0.00940191,0.0087107,-0.0102069,-0.730522,0.0109335,0.013334,1287,1737,8.90197,-56.0359
70,-713,8.93054,56.0425,0.000238171,-0.00266832,-0.0105838,0.00946807,-0.0118982,-0.717171,0.0123624,0.0124853,1294,1737,8.93053,-56.0425
77,-713,8.95581,56.0315,-5.83045e-05,-0.00368901,-0.0109464,0.00922229,-0.0129696,-0.703226,0.0128732,0.0125811,1301,1737,8.95582,-56.0315
84,-713,8.99927,56.0065,0.000100282,-0.00449806,-0.0107507,0.00879488,-0.0131927,-0.680053,0.0127789,0.0125707,1308,1737,8.99928,-56.0065
91,-713,9.01648,55.9766,0.000548594,-0.00493571,-0.0100771,0.00824999,-0.0126371,-0.652556,0.0121475,0.0126046,1315,1737,9.01643,-55.9765
98,-713,9.0365,55.9106,0.00155977,-0.00509784,-0.00917001,0.00798648,-0.0115245,-0.611289,0.0113263,0.0118457,1322,1737,9.03646,-55.9106
105,-713,9.07031,55.8373,0.00297749,-0.00461236,-0.00821846,0.00823488,-0.00986976,-0.569104,0.0104669,0.0136213,1329,1737,9.07035,-55.8372
112,-713,9.10596,55.7532,0.00436678,-0.0046722,-0.00705946,0.00822951,-0.00853493,-0.500669,0.00967949,0.0140012,1336,1737,9.10601,-55.7532
119,-713,9.12671,55.6449,0.00553656,-0.00452224,-0.00598682,0.00832617,-0.00731185,-0.436045,0.00903494,0.014062,1343,1737,9.12669,-55.6449
126,-713,9.14697,55.5322,0.00636543,-0.00417715,-0.00494868,0.00832435,-0.00613607,-0.376921,0.00838053,0.0140275,1350,1737,9.14694,-55.5323
133,-713,9.19153,55.3613,0.0067324,-0.00362228,-0.00393064,0.00805543,-0.00494531,-0.324682,0.00757724,0.0137709,1357,1737,9.19152,-55.3614
140,-713,9.23157,55.1531,0.00669231,-0.0028023,-0.00296159,0.00754035,-0.00365034,-0.278884,0.00658978,0.0144958,1364,1737,9.23153,-55.1531
147,-713,9.24915,54.9517,0.00626223,-0.00196076,-0.00218752,0.00680795,-0.00250648,-0.244478,0.00556555,0.0146997,1371,1737,9.24912,-54.9516
154,-713,9.25671,54.8303,0.00586156,-0.0013132,-0.00147731,0.00615383,-0.00160548,-0.195321,0.00472944,0.0148696,1378,1737,9.25668,-54.8303
161,-713,9.26868,54.625,0.00538951,-0.00056362,-0.000797167,0.0054944,-0.000668519,-0.130837,0.0039049,0.0114136,1385,1737,9.26873,-54.625
168,-713,9.28662,54.3927,0.00430299,0.000182864,-0.00029813,0.00432446,0.000161403,-0.0718603,0.0028307,0.0105104,1392,1737,9.28665,-54.3926
175,-713,9.30212,54.1636,0.00280993,0.000282991,0.000606577,0.00294799,0.000144929,0.223796,0.00191884,0.0133326,1399,1737,9.30209,-54.1635
182,-713,9.29578,53.9445,0.00231936,0.000516825,0.000414404,0.00241006,0.000426118,0.215488,0.00148519,0.0118816,1406,1737,9.29579,-53.9444
189,-713,9.29663,53.7006,0.00180726,0.00071543,0.000125654,0.00182153,0.000701156,0.113116,0.00106091,0.0110636,1413,1737,9.29666,-53.7006
196,-713,9.31616,53.4377,0.00136275,0.000766383,-6.57378e-05,0.00136991,0.000759223,-0.108496,0.000792464,0.0124833,1420,1737,9.3162,-53.4378
203,-713,9.32312,53.1707,0.00103529,0.00105342,-0.000341923,0.0013864,0.000702313,-0.798649,0.000800462,0.0174492,1427,1737,9.32312,-53.1706
210,-713,9.30457,52.8551,0.000739362,0.00136822,-0.000636595,0.00176381,0.000343778,-1.01479,0.00107968,0.0147358,1434,1737,9.30457,-52.8551
217,-713,9.29968,52.5417,0.000420277,0.00157641,-0.000938524,0.00210061,-0.000103923,-1.06142,0.0014363,0.0118696,1441,1737,9.29971,-52.5417
224,-713,9.29236,52.2472,0.000149847,0.00175752,-0.00121,0.00240635,-0.000498986,-1.07859,0.00179385,0.0119563,1448,1737,9.29241,-52.2472
231,-713,9.30103,51.9236,-0.000174136,0.00191797,-0.00143985,0.00265164,-0.000907803,-1.09954,0.00213567,0.0114031,1455,1737,9.30107,-51.9236
238,-713,9.28833,51.5717,-0.000394865,0.00205449,-0.00161486,0.00285653,-0.00119691,-1.10982,0.00240475,0.00912993,1462,1737,9.28838,-51.5717
245,-713,9.28101,51.2025,-0.000535661,0.00223791,-0.00180851,0.00313013,-0.00142788,-1.11248,0.00269205,0.0117953,1469,1737,9.28099,-51.2025
252,-713,9.26843,50.8313,-0.000791912,0.00238684,-0.00193456,0.00330119,-0.00170626,-1.12928,0.00293953,0.0122252,1476,1737,9.2684,-50.8313
259,-713,9.25378,50.4668,-0.00095667,0.00251209,-0.00191205,0.00335919,-0.00180377,-1.15375,0.00302559,0.0131606,1483,1737,9.25377,-50.4668
266,-713,9.1947,50.123,-0.000976718,0.00246297,-0.00188128,0.00329206,-0.00180581,-1.1557,0.00298466,0.0118353,1490,1737,9.19475,-50.1231
273,-713,9.15637,49.7345,-0.00103966,0.00250831,-0.00191886,0.00334757,-0.00187892,-1.15849,0.00305697,0.0097753,1497,1737,9.15638,-49.7345
280,-713,9.12268,49.3134,-0.00114283,0.00254929,-0.00197326,0.00340539,-0.00199894,-1.16145,0.00315521,0.0109166,1504,1737,9.12267,-49.3134
287,-713,9.09338,48.889,-0.00127992,0.00289506,-0.00199316,0.0036938,-0.00207866,-1.18965,0.00337593,0.0120121,1511,1737,9.09343,-48.889
294,-713,9.09619,48.4819,-0.00129979,0.00294752,-0.00203125,0.00376256,-0.00211482,-1.18922,0.00343747,0.0179206,1518,1737,9.09618,-48.4819
301,-713,9.02075,48.0048,-0.00157527,0.00337715,-0.00200962,0.00409002,-0.00228813,-1.22992,0.00373109,0.0246668,1525,1737,9.02074,-48.0047
308,-713,8.92053,47.5625,-0.00216472,0.00345499,-0.00175106,0.00395594,-0.00266568,-1.29215,0.00384711,0.032431,1532,1737,8.92054,-47.5625
315,-713,9.02112,47.2351,-0.0032613,0.00293902,-0.00109085,0.00312534,-0.00344762,-1.40163,0.00379642,0.0436229,1539,1737,9.02116,-47.2352
322,-713,9.13782,46.8612,0,0,0,0,0,0,0,-1,1546,1737,9.13784,-46.8612
329,-713,9.0647,46.0898,0,0,0,0,0,0,0,-1,1553,1737,9.06475,-46.0899
336,-713,8.9856,45.5115,0,0,0,0,0,0,0,-1,1560,1737,8.98565,-45.5115
343,-713,7.94702,43.9208,0,0,0,0,0,0,0,-1,1567,1737,7.947,-43.9208
350,-713,8.23511,44.7478,0,0,0,0,0,0,0,-1,1574,1737,8.23511,-44.7478
357,-713,7.99341,44.4104,0,0,0,0,0,0,0,-1,1581,1737,7.99336,-44.4104
364,-713,8.27856,44.1887,0,0,0,0,0,0,0,-1,1588,1737,8.27856,-44.1888
371,-713,8.58569,41.7396,0,0,0,0,0,0,0,-1,1595,1737,8.58564,-41.7396
378,-713,5.16516,38.248,0,0,0,0,0,0,0,-1,1602,1737,5.16511,-38.248
385,-713,5.6416,36.8367,0,0,0,0,0,0,0,-1,1609,1737,5.64155,-36.8367
392,-713,5.11096,36.6809,0,0,0,0,0,0,0,-1,1616,1737,5.11091,-36.6809
399,-713,4.47375,36.4706,0,0,0,0,0,0,0,-1,1623,1737,4.47376,-36.4706
406,-713,2.30334,27.5551,0,0,0,0,0,0,0,-1,1630,1737,2.30332,-27.555
413,-713,8.05823,41.6907,0,0,0,0,0,0,0,-1,1637,1737,8.05819,-41.6907
420,-713,0,0,0,0,0,0,0,0,0,-1,1644,1737,0,0
427,-713,0,0,0,0,0,0,0,0,0,-1,1651,1737,0,0
434,-713,0,0,0,0,0,0,0,0,0,-1,1658,1737,0,0
441,-713,0,0,0,0,0,0,0,0,0,-1,1665,1737,0,0
448,-713,0,0,0,0,0,0,0,0,0,-1,1672,1737,0,0
455,-713,0,0,0,0,0,0,0,0,0,-1,1679,1737,0,0
462,-713,0,0,0,0,0,0,0,0,0,-1,1686,1737,0,0
469,-713,0,0,0,0,0,0,0,0,0,-1,1693,1737,0,0
476,-713,0,0,0,0,0,0,0,0,0,-1,1700,1737,0,0
483,-713,0,0,0,0,0,0,0,0,0,-1,1707,1737,0,0
490,-713,0,0,0,0,0,0,0,0,0,-1,1714,1737,0,0
497,-713,0,0,0,0,0,0,0,0,0,-1,1721,1737,0,0
504,-713,0,0,0,0,0,0,0,0,0,-1,1728,1737,0,0
511,-713,0,0,0,0,0,0,0,0,0,-1,1735,1737,0,0
518,-713,0,0,0,0,0,0,0,0,0,-1,1742,1737,0,0
525,-713,0,0,0,0,0,0,0,0,0,-1,1749,1737,0,0
532,-713,0,0,0,0,0,0,0,0,0,-1,1756,1737,0,0
539,-713,0,0,0,0,0,0,0,0,0,-1,1763,1737,0,0
546,-713,0,0,0,0,0,0,0,0,0,-1,1770,1737,0,0
553,-713,0,0,0,0,0,0,0,0,0,-1,1777,1737,0,0
560,-713,0,0,0,0,0,0,0,0,0,-1,1784,1737,0,0
567,-713,0,0,0,0,0,0,0,0,0,-1,1791,1737,0,0
574,-713,0,0,0,0,0,0,0,0,0,-1,1798,1737,0,0
581,-713,0,0,0,0,0,0,0,0,0,-1,1805,1737,0,0
588,-713,0,0,0,0,0,0,0,0,0,-1,1812,1737,0,0
595,-713,0,0,0,0,0,0,0,0,0,-1,1819,1737,0,0
602,-713,0,0,0,0,0,0,0,0,0,-1,1826,1737,0,0
609,-713,0,0,0,0,0,0,0,0,0,-1,1833,1737,0,0
616,-713,0,0,0,0,0,0,0,0,0,-1,1840,1737,0,0
623,-713,0,0,0,0,0,0,0,0,0,-1,1847,1737,0,0
630,-713,0,0,0,0,0,0,0,0,0,-1,1854,1737,0,0
637,-713,0,0,0,0,0,0,0,0,0,-1,1861,1737,0,0
644,-713,0,0,0,0,0,0,0,0,0,-1,1868,1737,0,0
651,-713,0,0,0,0,0,0,0,0,0,-1,1875,1737,0,0
658,-713,0,0,0,0,0,0,0,0,0,-1,1882,1737,0,0
665,-713,0,0,0,0,0,0,0,0,0,-1,1889,1737,0,0
672,-713,0,0,0,0,0,0,0,0,0,-1,1896,1737,0,0
679,-713,0,0,0,0,0,0,0,0,0,-1,1903,1737,0,0
686,-713,0,0,0,0,0,0,0,0,0,-1,1910,1737,0,0
693,-713,0,0,0,0,0,0,0,0,0,-1,1917,1737,0,0
700,-713,0,0,0,0,0,0,0,0,0,-1,1924,1737,0,0
707,-713,0,0,0,0,0,0,0,0,0,-1,1931,1737,0,0
714,-713,0,0,0,0,0,0,0,0,0,-1,1938,1737,0,0
721,-713,0,0,0,0,0,0,0,0,0,-1,1945,1737,0,0
728,-713,0,0,0,0,0,0,0,0,0,-1,1952,1737,0,0
735,-713,0,0,0,0,0,0,0,0,0,-1,1959,1737,0,0
742,-713,0,0,0,0,0,0,0,0,0,-1,1966,1737,0,0
749,-713,0,0,0,0,0,0,0,0,0,-1,1973,1737,0,0
756,-713,0,0,0,0,0,0,0,0,0,-1,1980,1737,0,0
763,-713,0,0,0,0,0,0,0,0,0,-1,1987,1737,0,0
770,-713,0,0,0,0,0,0,0,0,0,-1,1994,1737,0,0
777,-713,0,0,0,0,0,0,0,0,0,-1,2001,1737,0,0
784,-713,0,0,0,0,0,0,0,0,0,-1,2008,1737,0,0
791,-713,0,0,0,0,0,0,0,0,0,-1,2015,1737,0,0
798,-713,0,0,0,0,0,0,0,0,0,-1,2022,1737,0,0
805,-713,0,0,0,0,0,0,0,0,0,-1,2029,1737,0,0
812,-713,0,0,0,0,0,0,0,0,0,-1,2036,1737,0,0
-700,-720,0,0,0,0,0,0,0,0,0,-1,524,1744,0,0
-693,-720,0,0,0,0,0,0,0,0,0,-1,531,1744,0,0
-686,-720,0,0,0,0,0,0,0,0,0,-1,538,1744,0,0
-679,-720,0,0,0,0,0,0,0,0,0,-1,545,1744,0,0
-672,-720,0,0,0,0,0,0,0,0,0,-1,552,1744,0,0
-665,-720,0,0,0,0,0,0,0,0,0,-1,559,1744,0,0
-658,-720,0,0,0,0,0,0,0,0,0,-1,566,1744,0,0
-651,-720,0,0,0,0,0,0,0,0,0,-1,573,1744,0,0
-644,-720,0,0,0,0,0,0,0,0,0,-1,580,1744,0,0
-637,-720,0,0,0,0,0,0,0,0,0,-1,587,1744,0,0
-630,-720,0,0,0,0,0,0,0,0,0,-1,594,1744,0,0
-623,-720,0,0,0,0,0,0,0,0,0,-1,601,1744,0,0
-616,-720,0,0,0,0,0,0,0,0,0,-1,608,1744,0,0
-609,-720,0,0,0,0,0,0,0,0,0,-1,615,1744,0,0
-602,-720,0,0,0,0,0,0,0,0,0,-1,622,1744,0,0
-595,-720,0,0,0,0,0,0,0,0,0,-1,629,1744,0,0
-588,-720,0,0,0,0,0,0,0,0,0,-1,636,1744,0,0
-581,-720,0,0,0,0,0,0,0,0,0,-1,643,1744,0,0
-574,-720,0,0,0,0,0,0,0,0,0,-1,650,1744,0,0
-567,-720,0,0,0,0,0,0,0,0,0,-1,657,1744,0,0
-560,-720,0,0,0,0,0,0,0,0,0,-1,664,1744,0,0
-553,-720,0,0,0,0,0,0,0,0,0,-1,671,1744,0,0
-546,-720,0,0,0,0,0,0,0,0,0,-1,678,1744,0,0
-539,-720,0,0,0,0,0,0,0,0,0,-1,685,1744,0,0
-532,-720,0,0,0,0,0,0,0,0,0,-1,692,1744,0,0
-525,-720,0,0,0,0,0,0,0,0,0,-1,699,1744,0,0
-518,-720,0,0,0,0,0,0,0,0,0,-1,706,1744,0,0
-511,-720,0,0,0,0,0,0,0,0,0,-1,713,1744,0,0
-504,-720,0,0,0,0,0,0,0,0,0,-1,720,1744,0,0
-497,-720,0,0,0,0,0,0,0,0,0,-1,727,1744,0,0
-490,-720,0,0,0,0,0,0,0,0,0,-1,734,1744,0,0
-483,-720,0,0,0,0,0,0,0,0,0,-1,741,1744,0,0
-476,-720,0,0,0,0,0,0,0,0,0,-1,748,1744,0,0
-469,-720,0,0,0,0,0,0,0,0,0,-1,755,1744,0,0
-462,-720,0,0,0,0,0,0,0,0,0,-1,762,1744,0,0
-455,-720,0,0,0,0,0,0,0,0,0,-1,769,1744,0,0
-448,-720,0,0,0,0,0,0,0,0,0,-1,776,1744,0,0
-441,-720,0,0,0,0,0,0,0,0,0,-1,783,1744,0,0
-434,-720,0,0,0,0,0,0,0,0,0,-1,790,1744,0,0
-427,-720,0,0,0,0,0,0,0,0,0,-1,797,1744,0,0
-420,-720,0,0,0,0,0,0,0,0,0,-1,804,1744,0,0
-413,-720,0,0,0,0,0,0,0,0,0,-1,811,1744,0,0
-406,-720,0,0,0,0,0,0,0,0,0,-1,818,1744,0,0
-399,-720,0,0,0,0,0,0,0,0,0,-1,825,1744,0,0
-392,-720,0,0,0,0,0,0,0,0,0,-1,832,1744,0,0
-385,-720,0,0,0,0,0,0,0,0,0,-1,839,1744,0,0
-378,-720,0,0,0,0,0,0,0,0,0,-1,846,1744,0,0
-371,-720,0,0,0,0,0,0,0,0,0,-1,853,1744,0,0
-364,-720,0,0,0,0,0,0,0,0,0,-1,860,1744,0,0
-357,-720,0,0,0,0,0,0,0,0,0,-1,867,1744,0,0
-350,-720,0,0,0,0,0,0,0,0,0,-1,874,1744,0,0
-343,-720,0,0,0,0,0,0,0,0,0,-1,881,1744,0,0
-336,-720,0,0,0,0,0,0,0,0,0,-1,888,1744,0,0
-329,-720,0,0,0,0,0,0,0,0,0,-1,895,1744,0,0
-322,-720,0,0,0,0,0,0,0,0,0,-1,902,1744,0,0
-315,-720,0,0,0,0,0,0,0,0,0,-1,909,1744,0,0
-308,-720,0,0,0,0,0,0,0,0,0,-1,916,1744,0,0
-301,-720,0,0,0,0,0,0,0,0,0,-1,923,1744,0,0
-294,-720,0,0,0,0,0,0,0,0,0,-1,930,1744,0,0
-287,-720,0,0,0,0,0,0,0,0,0,-1,937,1744,0,0
-280,-720,6.46796,22.6417,0,0,0,0,0,0,0,-1,944,1744,6.46793,-22.6417
-273,-720,8.54633,13.262,0,0,0,0,0,0,0,-1,951,1744,8.54636,-13.2619
-266,-720,7.28027,13.3165,0,0,0,0,0,0,0,-1,958,1744,7.28026,-13.3166
-259,-720,3.70563,18.6372,0,0,0,0,0,0,0,-1,965,1744,3.70564,-18.6372
-252,-720,4.00989,18.5059,0,0,0,0,0,0,0,-1,972,1744,4.00988,-18.5058
-245,-720,7.05634,33.8489,0,0,0,0,0,0,0,-1,979,1744,7.05634,-33.8489
-238,-720,5.02216,24.1455,0,0,0,0,0,0,0,-1,986,1744,5.02217,-24.1455
-231,-720,9.58331,44.7466,0,0,0,0,0,0,0,-1,993,1744,9.5833,-44.7466
-224,-720,9.55518,44.8546,0,0,0,0,0,0,0,-1,1000,1744,9.55516,-44.8546
-217,-720,8.78998,44.5598,0,0,0,0,0,0,0,-1,1007,1744,8.78999,-44.5598
-210,-720,8.74036,38.6686,0,0,0,0,0,0,0,-1,1014,1744,8.74035,-38.6686
-203,-720,8.53784,47.0641,0,0,0,0,0,0,0,-1,1021,1744,8.53786,-47.064
-196,-720,8.70935,46.1097,0,0,0,0,0,0,0,-1,1028,1744,8.70936,-46.1097
-189,-720,9.25281,46.9762,0,0,0,0,0,0,0,-1,1035,1744,9.25284,-46.9761
-182,-720,9.28064,47.4779,-0.00256211,0.00281953,0.00573448,0.00646312,-0.0062057,1.00477,0.00731485,0.045082,1042,1744,9.28058,-47.4779
-175,-720,9.22742,48.0038,0,0,0,0,0,0,0,-1,1049,1744,9.2274,-48.0038
-168,-720,9.22229,48.3347,0,0,0,0,0,0,0,-1,1056,1744,9.22228,-48.3347
-161,-720,8.95142,48.6862,0,0,0,0,0,0,0,-1,1063,1744,8.95142,-48.6861
-154,-720,9.0376,49.2366,-0.00507916,0.00372263,0.00401762,0.00528068,-0.00663722,1.20085,0.00689565,0.0224237,1070,1744,9.03758,-49.2365
-147,-720,9.02673,49.7112,-0.00548096,0.00475243,0.00380026,0.00600932,-0.00673785,1.25138,0.00736358,0.0212346,1077,1744,9.02668,-49.7112
-140,-720,9.02808,50.1403,-0.0057109,0.00426156,0.00333195,0.00527236,-0.00672169,1.27625,0.0069416,0.0189132,1084,1744,9.02806,-50.1402
-133,-720,8.9707,50.4567,-0.00564862,0.00409746,0.00295572,0.00492379,-0.00647495,1.29819,0.00660134,0.0154017,1091,1744,8.97066,-50.4566
-126,-720,8.93958,50.8184,-0.00533099,0.00411295,0.00274923,0.00485498,-0.00607302,1.30717,0.00632233,0.0152748,1098,1744,8.9396,-50.8184
-119,-720,8.8949,51.1621,-0.00485278,0.00375271,0.00254005,0.00444651,-0.00554658,1.30416,0.00578115,0.0164252,1105,1744,8.89492,-51.1621
-112,-720,8.85876,51.5149,-0.00419797,0.00368972,0.00248225,0.00440586,-0.00491411,1.28992,0.00538356,0.0150187,1112,1744,8.85871,-51.5149
-105,-720,8.84619,51.8685,-0.00360689,0.00350019,0.00239946,0.00423443,-0.00434113,1.27384,0.00495123,0.0145215,1119,1744,8.84619,-51.8685
-98,-720,8.82825,52.1998,-0.00308921,0.00319783,0.00225259,0.00392159,-0.00381297,1.25991,0.0044657,0.0112072,1126,1744,8.82821,-52.1998
-91,-720,8.79346,52.5215,-0.00252943,0.00306662,0.00215292,0.00379903,-0.00326184,1.24288,0.00408053,0.0101566,1133,1744,8.7935,-52.5214
-84,-720,8.77173,52.8522,-0.00206278,0.00264996,0.00191985,0.00333304,-0.00274586,1.22896,0.00351511,0.0111208,1140,1744,8.77178,-52.8522
-77,-720,8.7572,53.1638,-0.00130266,0.00239163,0.00184074,0.00315222,-0.00206325,1.17897,0.00303295,0.0138851,1147,1744,8.75715,-53.1638
-70,-720,8.74097,53.4338,-0.000711427,0.00191243,0.00152251,0.00261028,-0.00140927,1.14102,0.00235496,0.0125133,1154,1744,8.74102,-53.4338
-63,-720,8.72852,53.7034,-0.000588305,0.00179228,0.00126554,0.00233934,-0.00113536,1.16278,0.00204587,0.011551,1161,1744,8.72858,-53.7034
-56,-720,8.72815,53.9456,-0.000348719,0.00152481,0.00105288,0.00199733,-0.000821243,1.14895,0.00167386,0.0136803,1168,1744,8.72814,-53.9455
-49,-720,8.68311,54.1716,-6.8334e-07,0.00115667,0.000889026,0.00163876,-0.000482778,1.07391,0.00128405,0.0200488,1175,1744,8.68316,-54.1717
-42,-720,8.69788,54.403,0.000400204,0.000820908,0.000787623,0.00142579,-0.000204673,0.915888,0.00102558,0.0213304,1182,1744,8.69791,-54.403
-35,-720,8.73071,54.6029,0.000860673,0.000499429,0.000785507,0.00148606,-0.000125954,0.672391,0.00103525,0.0179326,1189,1744,8.73066,-54.6029
-28,-720,8.72522,54.8171,0.00134521,0.000180027,0.000805125,0.00175642,-0.000231182,0.472202,0.00125512,0.0110941,1196,1744,8.72526,-54.8171
-21,-720,8.71057,55.0159,0.00187569,-5.66793e-05,0.000932836,0.00225252,-0.000433512,0.38392,0.0016651,0.00951324,1203,1744,8.71055,-55.0159
-14,-720,8.71179,55.1671,0.00238386,-0.000114833,0.00116279,0.00284125,-0.000572223,0.374765,0.00211092,0.0113725,1210,1744,8.71177,-55.1671
-7,-720,8.72803,55.3448,0.0028161,-8.14055e-05,0.00138438,0.00337119,-0.000636496,0.38134,0.00248693,0.012301,1217,1744,8.72806,-55.3448
0,-720,8.74695,55.5079,0.00321305,-2.85253e-05,0.00156861,0.00384781,-0.00066328,0.384519,0.00281249,0.0130388,1224,1744,8.7469,-55.5079
7,-720,8.75439,55.6324,0.00340088,0.000295636,0.00149584,0.00400422,-0.000307702,0.383386,0.00277773,0.0161211,1231,1744,8.75443,-55.6324
14,-720,8.7749,55.7423,0.00338046,0.000680832,0.0011989,0.00383601,0.000225277,0.363128,0.00248565,0.0153975,1238,1744,8.77491,-55.7422
21,-720,8.78833,55.8318,0.0031892,0.000965138,0.000669866,0.00337537,0.000778965,0.271084,0.00204076,0.0121769,1245,1744,8.78836,-55.8318
28,-720,8.78345,55.8999,0.00282236,0.00123174,-0.000135693,0.00283386,0.00122025,-0.0844947,0.00164137,0.0115282,1252,1744,8.78346,-55.8999
35,-720,8.79639,55.9691,0.00235681,0.00138661,-0.00108162,0.00305713,0.000686293,-0.574597,0.0018522,0.0108974,1259,1744,8.79639,-55.9691
42,-720,8.82642,56.021,0.00178911,0.00140115,-0.002,0.00360452,-0.000414256,-0.737055,0.00255233,0.0117364,1266,1744,8.82638,-56.021
49,-720,8.85364,56.0261,0.000994771,0.00130606,-0.00293644,0.00409098,-0.00179015,-0.811876,0.00348101,0.0128579,1273,1744,8.85367,-56.0261
56,-720,8.87451,56.0469,0.000129999,0.000965127,-0.00374937,0.00432011,-0.00322498,-0.840854,0.00437143,0.0116959,1280,1744,8.87455,-56.0469
63,-720,8.89771,56.0687,-0.000242082,0.000398827,-0.00436688,0.004457,-0.00430025,-0.822024,0.00505627,0.0127303,1287,1744,8.89775,-56.0687
70,-720,8.92285,56.0784,0.000100486,-4.8924e-05,-0.00520914,0.00523546,-0.00518389,-0.778228,0.00601564,0.0134679,1294,1744,8.92281,-56.0783
77,-720,8.93494,56.0536,0.000214511,-0.000641584,-0.00548108,0.00528423,-0.0057113,-0.74643,0.00634987,0.0156792,1301,1744,8.93498,-56.0536
84,-720,8.96387,55.9741,0.000508284,-0.0012282,-0.00543233,0.00514132,-0.00586124,-0.706154,0.00635686,0.0144616,1308,1744,8.96387,-55.9742
91,-720,8.974,55.9301,0.00101783,-0.00164466,-0.00522702,0.00508047,-0.0057073,-0.660706,0.00623182,0.0133597,1315,1744,8.97395,-55.93
98,-720,8.94702,55.9076,0.00170005,-0.00206847,-0.00478163,0.00495529,-0.00532371,-0.59771,0.00593585,0.0125113,1322,1744,8.94696,-55.9076
105,-720,8.97217,55.8307,0.00238515,-0.0021524,-0.00416884,0.00486259,-0.00462985,-0.5362,0.00548101,0.0121945,1329,1744,8.97215,-55.8306
112,-720,9.0061,55.7329,0.00308122,-0.0024747,-0.00340528,0.00469791,-0.00409139,-0.443253,0.00507853,0.0112863,1336,1744,9.00616,-55.7329
119,-720,9.01477,55.6224,0.00358009,-0.00267069,-0.00276863,0.00463003,-0.00372063,-0.362471,0.00483078,0.0110761,1343,1744,9.01471,-55.6225
126,-720,9.03333,55.4995,0.0038363,-0.00266091,-0.00215508,0.00448613,-0.00331074,-0.292864,0.00451854,0.0114919,1350,1744,9.03334,-55.4995
133,-720,9.052,55.3772,0.00379178,-0.00248754,-0.00150926,0.0041357,-0.00283147,-0.224048,0.00404592,0.0138227,1357,1744,9.05202,-55.3772
140,-720,9.07227,55.2151,0.00343026,-0.00210164,-0.000961502,0.00359261,-0.00226399,-0.167277,0.00341019,0.0199636,1364,1744,9.07225,-55.215
147,-720,9.06628,55.0063,0.00289644,-0.00166804,-0.000527912,0.0029567,-0.0017283,-0.113658,0.0027357,0.0204465,1371,1744,9.06624,-55.0063
154,-720,9.05383,54.8176,0.00238349,-0.00124412,-0.000187346,0.00239314,-0.00125377,-0.051462,0.00213952,0.0137123,1378,1744,9.05378,-54.8176
161,-720,9.07312,54.6223,0.00181952,-0.000748319,6.8643e-05,0.00182136,-0.000750152,0.0267063,0.001527,0.0103525,1385,1744,9.07308,-54.6223
168,-720,9.07349,54.4056,0.0010677,-0.000372937,0.000185866,0.00109129,-0.000396531,0.126263,0.000889664,0.0103044,1392,1744,9.07351,-54.4056
175,-720,9.06323,54.1636,0.00038887,-0.00017638,0.00025579,0.000487435,-0.000274944,0.367799,0.000445822,0.0160478,1399,1744,9.06329,-54.1636
182,-720,9.05823,53.9397,9.26008e-05,0.000119943,-3.334e-05,0.000142306,7.02379e-05,-0.97997,8.21627e-05,0.0150269,1406,1744,9.05826,-53.9397
189,-720,9.04834,53.7067,-0.000106448,0.000559512,-0.000376253,0.000728968,-0.000275904,-1.14763,0.000599498,0.0124174,1413,1744,9.04836,-53.7067
196,-720,9.05505,53.4498,-0.000296394,0.000977053,-0.000804931,0.00136665,-0.000685989,-1.12002,0.00120661,0.0139086,1420,1744,9.05508,-53.4499
203,-720,9.0332,53.1531,-0.000496738,0.00157966,-0.00131003,0.002213,-0.00113008,-1.12047,0.00196359,0.0160891,1427,1744,9.0332,-53.1531
210,-720,9.02063,52.86,-0.000617411,0.00210973,-0.00167614,0.00290689,-0.00141457,-1.12686,0.0025441,0.0142122,1434,1744,9.02067,-52.86
217,-720,9.02051,52.5442,-0.000770369,0.0024799,-0.00191658,0.0033676,-0.00165807,-1.13705,0.002957,0.0133633,1441,1744,9.02048,-52.5442
224,-720,9.0011,52.2173,-0.000962694,0.00273888,-0.00218584,0.00375223,-0.00197605,-1.13669,0.0033598,0.0103961,1448,1744,9.00116,-52.2173
231,-720,9.00549,51.9028,-0.00126935,0.00291832,-0.00236941,0.00398649,-0.00233752,-1.14726,0.00369231,0.0108765,1455,1744,9.00548,-51.9029
238,-720,8.98328,51.5546,-0.00145759,0.00306906,-0.00248014,0.00416337,-0.0025519,-1.15526,0.0039141,0.00943881,1462,1744,8.98323,-51.5545
245,-720,8.94446,51.2106,-0.00152273,0.00328903,-0.00265728,0.00446776,-0.00270146,-1.15329,0.00418081,0.0117896,1469,1744,8.94446,-51.2105
252,-720,8.92346,50.8521,-0.00174336,0.00345168,-0.00275718,0.00464219,-0.00293387,-1.16319,0.00441095,0.0119802,1476,1744,8.92342,-50.852
259,-720,8.88806,50.4917,-0.00184417,0.00359677,-0.00267039,0.00468837,-0.00293578,-1.18274,0.0044404,0.0108017,1483,1744,8.88804,-50.4917
266,-720,8.84241,50.1241,-0.00175999,0.00354042,-0.0025754,0.00458566,-0.00280522,-1.18525,0.0043082,0.00851086,1490,1744,8.84237,-50.1241
273,-720,8.79968,49.7375,-0.00172812,0.00360781,-0.00260052,0.00466554,-0.00278584,-1.1845,0.00434744,0.0127055,1497,1744,8.79974,-49.7375
280,-720,8.71265,49.328,-0.00172691,0.00369729,-0.00265456,0.00478021,-0.00280983,-1.18346,0.00443106,0.0165452,1504,1744,8.71263,-49.328
287,-720,8.66357,48.8657,-0.00176764,0.00417948,-0.00268629,0.00521319,-0.00280135,-1.20345,0.00469652,0.0277101,1511,1744,8.66358,-48.8657
294,-720,8.74219,48.3868,-0.00166055,0.00435664,-0.00272267,0.0054057,-0.00270962,-1.20302,0.00477079,0.0406297,1518,1744,8.7422,-48.3869
301,-720,8.85339,47.7487,0,0,0,0,0,0,0,-1,1525,1744,8.8534,-47.7487
308,-720,8.45972,47.559,0,0,0,0,0,0,0,-1,1532,1744,8.45978,-47.559
315,-720,8.54041,47.4001,0,0,0,0,0,0,0,-1,1539,1744,8.54043,-47.4001
322,-720,8.98181,43.5223,0,0,0,0,0,0,0,-1,1546,1744,8.98176,-43.5223
329,-720,9.15906,34.7668,0,0,0,0,0,0,0,-1,1553,1744,9.1591,-34.7669
336,-720,6.14148,26.5682,0,0,0,0,0,0,0,-1,1560,1744,6.14151,-26.5683
343,-720,6.78552,21.3625,0,0,0,0,0,0,0,-1,1567,1744,6.78551,-21.3625
350,-720,4.0741,11.1836,0,0,0,0,0,0,0,-1,1574,1744,4.07412,-11.1836
357,-720,6.90833,21.4504,0,0,0,0,0,0,0,-1,1581,1744,6.90827,-21.4505
364,-720,6.59497,44.1384,0,0,0,0,0,0,0,-1,1588,1744,6.59492,-44.1385
371,-720,5.46997,23.6176,0,0,0,0,0,0,0,-1,1595,1744,5.47001,-23.6176
378,-720,3.88257,25.5404,0,0,0,0,0,0,0,-1,1602,1744,3.88262,-25.5404
385,-720,4.672,37.3854,0,0,0,0,0,0,0,-1,1609,1744,4.67202,-37.3854
392,-720,4.89319,36.2684,0,0,0,0,0,0,0,-1,1616,1744,4.89323,-36.2684
399,-720,2.37317,24.7166,0,0,0,0,0,0,0,-1,1623,1744,2.37317,-24.7166
406,-720,0,0,0,0,0,0,0,0,0,-1,1630,1744,0,0
413,-720,0,0,0,0,0,0,0,0,0,-1,1637,1744,0,0
420,-720,0,0,0,0,0,0,0,0,0,-1,1644,1744,0,0
427,-720,0,0,0,0,0,0,0,0,0,-1,1651,1744,0,0
434,-720,0,0,0,0,0,0,0,0,0,-1,1658,1744,0,0
441,-720,0,0,0,0,0,0,0,0,0,-1,1665,1744,0,0
448,-720,0,0,0,0,0,0,0,0,0,-1,1672,1744,0,0
455,-720,0,0,0,0,0,0,0,0,0,-1,1679,1744,0,0
462,-720,0,0,0,0,0,0,0,0,0,-1,1686,1744,0,0
469,-720,0,0,0,0,0,0,0,0,0,-1,1693,1744,0,0
476,-720,0,0,0,0,0,0,0,0,0,-1,1700,1744,0,0
483,-720,0,0,0,0,0,0,0,0,0,-1,1707,1744,0,0
490,-720,0,0,0,0,0,0,0,0,0,-1,1714,1744,0,0
497,-720,0,0,0,0,0,0,0,0,0,-1,1721,1744,0,0
504,-720,0,0,0,0,0,0,0,0,0,-1,1728,1744,0,0
511,-720,0,0,0,0,0,0,0,0,0,-1,1735,1744,0,0
518,-720,0,0,0,0,0,0,0,0,0,-1,1742,1744,0,0
525,-720,0,0,0,0,0,0,0,0,0,-1,1749,1744,0,0
532,-720,0,0,0,0,0,0,0,0,0,-1,1756,1744,0,0
539,-720,0,0,0,0,0,0,0,0,0,-1,1763,1744,0,0
546,-720,0,0,0,0,0,0,0,0,0,-1,1770,1744,0,0
553,-720,0,0,0,0,0,0,0,0,0,-1,1777,1744,0,0
560,-720,0,0,0,0,0,0,0,0,0,-1,1784,1744,0,0
567,-720,0,0,0,0,0,0,0,0,0,-1,1791,1744,0,0
574,-720,0,0,0,0,0,0,0,0,0,-1,1798,1744,0,0
581,-720,0,0,0,0,0,0,0,0,0,-1,1805,1744,0,0
588,-720,0,0,0,0,0,0,0,0,0,-1,1812,1744,0,0
595,-720,0,0,0,0,0,0,0,0,0,-1,1819,1744,0,0
602,-720,0,0,0,0,0,0,0,0,0,-1,1826,1744,0,0
609,-720,0,0,0,0,0,0,0,0,0,-1,1833,1744,0,0
616,-720,0,0,0,0,0,0,0,0,0,-1,1840,1744,0,0
623,-720,0,0,0,0,0,0,0,0,0,-1,1847,1744,0,0
630,-720,0,0,0,0,0,0,0,0,0,-1,1854,1744,0,0
637,-720,0,0,0,0,0,0,0,0,0,-1,1861,1744,0,0
644,-720,0,0,0,0,0,0,0,0,0,-1,1868,1744,0,0
651,-720,0,0,0,0,0,0,0,0,0,-1,1875,1744,0,0
658,-720,0,0,0,0,0,0,0,0,0,-1,1882,1744,0,0
665,-720,0,0,0,0,0,0,0,0,0,-1,1889,1744,0,0
672,-720,0,0,0,0,0,0,0,0,0,-1,1896,1744,0,0
679,-720,0,0,0,0,0,0,0,0,0,-1,1903,1744,0,0
686,-720,0,0,0,0,0,0,0,0,0,-1,1910,1744,0,0
693,-720,0,0,0,0,0,0,0,0,0,-1,1917,1744,0,0
700,-720,0,0,0,0,0,0,0,0,0,-1,1924,1744,0,0
707,-720,0,0,0,0,0,0,0,0,0,-1,1931,1744,0,0
714,-720,0,0,0,0,0,0,0,0,0,-1,1938,1744,0,0
721,-720,0,0,0,0,0,0,0,0,0,-1,1945,1744,0,0
728,-720,0,0,0,0,0,0,0,0,0,-1,1952,1744,0,0
735,-720,0,0,0,0,0,0,0,0,0,-1,1959,1744,0,0
742,-720,0,0,0,0,0,0,0,0,0,-1,1966,1744,0,0
749,-720,0,0,0,0,0,0,0,0,0,-1,1973,1744,0,0
756,-720,0,0,0,0,0,0,0,0,0,-1,1980,1744,0,0
763,-720,0,0,0,0,0,0,0,0,0,-1,1987,1744,0,0
770,-720,0,0,0,0,0,0,0,0,0,-1,1994,1744,0,0
777,-720,0,0,0,0,0,0,0,0,0,-1,2001,1744,0,0
784,-720,0,0,0,0,0,0,0,0,0,-1,2008,1744,0,0
791,-720,0,0,0,0,0,0,0,0,0,-1,2015,1744,0,0
798,-720,0,0,0,0,0,0,0,0,0,-1,2022,1744,0,0
805,-720,0,0,0,0,0,0,0,0,0,-1,2029,1744,0,0
812,-720,0,0,0,0,0,0,0,0,0,-1,2036,1744,0,0
-700,-727,0,0,0,0,0,0,0,0,0,-1,524,1751,0,0
-693,-727,0,0,0,0,0,0,0,0,0,-1,531,1751,0,0
-686,-727,0,0,0,0,0,0,0,0,0,-1,538,1751,0,0
-679,-727,0,0,0,0,0,0,0,0,0,-1,545,1751,0,0
-672,-727,0,0,0,0,0,0,0,0,0,-1,552,1751,0,0
-665,-727,0,0,0,0,0,0,0,0,0,-1,559,1751,0,0
-658,-727,0,0,0,0,0,0,0,0,0,-1,566,1751,0,0
-651,-727,0,0,0,0,0,0,0,0,0,-1,573,1751,0,0
-644,-727,0,0,0,0,0,0,0,0,0,-1,580,1751,0,0
-637,-727,0,0,0,0,0,0,0,0,0,-1,587,1751,0,0
-630,-727,0,0,0,0,0,0,0,0,0,-1,594,1751,0,0
-623,-727,0,0,0,0,0,0,0,0,0,-1,601,1751,0,0
-616,-727,0,0,0,0,0,0,0,0,0,-1,608,1751,0,0
-609,-727,0,0,0,0,0,0,0,0,0,-1,615,1751,0,0
-602,-727,0,0,0,0,0,0,0,0,0,-1,622,1751,0,0
-595,-727,0,0,0,0,0,0,0,0,0,-1,629,1751,0,0
-588,-727,0,0,0,0,0,0,0,0,0,-1,636,1751,0,0
-581,-727,0,0,0,0,0,0,0,0,0,-1,643,1751,0,0
-574,-727,0,0,0,0,0,0,0,0,0,-1,650,1751,0,0
-567,-727,0,0,0,0,0,0,0,0,0,-1,657,1751,0,0
-560,-727,0,0,0,0,0,0,0,0,0,-1,664,1751,0,0
-553,-727,0,0,0,0,0,0,0,0,0,-1,671,1751,0,0
-546,-727,0,0,0,0,0,0,0,0,0,-1,678,1751,0,0
-539,-727,0,0,0,0,0,0,0,0,0,-1,685,1751,0,0
-532,-727,0,0,0,0,0,0,0,0,0,-1,692,1751,0,0
-525,-727,0,0,0,0,0,0,0,0,0,-1,699,1751,0,0
-518,-727,0,0,0,0,0,0,0,0,0,-1,706,1751,0,0
-511,-727,0,0,0,0,0,0,0,0,0,-1,713,1751,0,0
-504,-727,0,0,0,0,0,0,0,0,0,-1,720,1751,0,0
-497,-727,0,0,0,0,0,0,0,0,0,-1,727,1751,0,0
-490,-727,0,0,0,0,0,0,0,0,0,-1,734,1751,0,0
-483,-727,0,0,0,0,0,0,0,0,0,-1,741,1751,0,0
-476,-727,0,0,0,0,0,0,0,0,0,-1,748,1751,0,0
-469,-727,0,0,0,0,0,0,0,0,0,-1,755,1751,0,0
-462,-727,0,0,0,0,0,0,0,0,0,-1,762,1751,0,0
-455,-727,0,0,0,0,0,0,0,0,0,-1,769,1751,0,0
-448,-727,0,0,0,0,0,0,0,0,0,-1,776,1751,0,0
-441,-727,0,0,0,0,0,0,0,0,0,-1,783,1751,0,0
-434,-727,0,0,0,0,0,0,0,0,0,-1,790,1751,0,0
-427,-727,0,0,0,0,0,0,0,0,0,-1,797,1751,0,0
-420,-727,0,0,0,0,0,0,0,0,0,-1,804,1751,0,0
-413,-727,0,0,0,0,0,0,0,0,0,-1,811,1751,0,0
-406,-727,0,0,0,0,0,0,0,0,0,-1,818,1751,0,0
-399,-727,0,0,0,0,0,0,0,0,0,-1,825,1751,0,0
-392,-727,0,0,0,0,0,0,0,0,0,-1,832,1751,0,0
-385,-727,0,0,0,0,0,0,0,0,0,-1,839,1751,0,0
-378,-727,0,0,0,0,0,0,0,0,0,-1,846,1751,0,0
-371,-727,0,0,0,0,0,0,0,0,0,-1,853,1751,0,0
-364,-727,0,0,0,0,0,0,0,0,0,-1,860,1751,0,0
-357,-727,0,0,0,0,0,0,0,0,0,-1,867,1751,0,0
-350,-727,0,0,0,0,0,0,0,0,0,-1,874,1751,0,0
-343,-727,0,0,0,0,0,0,0,0,0,-1,881,1751,0,0
-336,-727,0,0,0,0,0,0,0,0,0,-1,888,1751,0,0
-329,-727,0,0,0,0,0,0,0,0,0,-1,895,1751,0,0
-322,-727,0,0,0,0,0,0,0,0,0,-1,902,1751,0,0
-315,-727,0,0,0,0,0,0,0,0,0,-1,909,1751,0,0
-308,-727,0,0,0,0,0,0,0,0,0,-1,916,1751,0,0
-301,-727,0,0,0,0,0,0,0,0,0,-1,923,1751,0,0
-294,-727,0,0,0,0,0,0,0,0,0,-1,930,1751,0,0
-287,-727,0,0,0,0,0,0,0,0,0,-1,937,1751,0,0
-280,-727,0,0,0,0,0,0,0,0,0,-1,944,1751,0,0
-273,-727,0,0,0,0,0,0,0,0,0,-1,951,1751,0,0
-266,-727,4.24805,7.61145,0,0,0,0,0,0,0,-1,958,1751,4.24802,-7.6115
-259,-727,3.65228,5.4082,0,0,0,0,0,0,0,-1,965,1751,3.65229,-5.40818
-252,-727,5.8797,32.9292,0,0,0,0,0,0,0,-1,972,1751,5.87972,-32.9292
-245,-727,6.59198,32.2588,0,0,0,0,0,0,0,-1,979,1751,6.59195,-32.2587
-238,-727,6.6189,30.4597,0,0,0,0,0,0,0,-1,986,1751,6.61889,-30.4598
-231,-727,6.70105,28.9473,0,0,0,0,0,0,0,-1,993,1751,6.70103,-28.9472
-224,-727,10.4429,45.6672,0,0,0,0,0,0,0,-1,1000,1751,10.443,-45.6673
-217,-727,9.07013,38.8207,0,0,0,0,0,0,0,-1,1007,1751,9.07015,-38.8207
-210,-727,5.0921,32.4524,0,0,0,0,0,0,0,-1,1014,1751,5.09209,-32.4523
-203,-727,14.1763,48.6819,0,0,0,0,0,0,0,-1,1021,1751,14.1763,-48.6819
-196,-727,13.0454,48.5956,0,0,0,0,0,0,0,-1,1028,1751,13.0455,-48.5955
-189,-727,10.3168,48.1697,0,0,0,0,0,0,0,-1,1035,1751,10.3168,-48.1697
-182,-727,9.82764,47.7858,0,0,0,0,0,0,0,-1,1042,1751,9.82763,-47.7858
-175,-727,9.69897,48.3126,0,0,0,0,0,0,0,-1,1049,1751,9.69901,-48.3127
-168,-727,9.47571,48.5278,0,0,0,0,0,0,0,-1,1056,1751,9.47568,-48.5278
-161,-727,9.23901,48.3986,0,0,0,0,0,0,0,-1,1063,1751,9.23904,-48.3986
-154,-727,9.25952,49.0114,0,0,0,0,0,0,0,-1,1070,1751,9.25952,-49.0114
-147,-727,9.00842,49.5896,0,0,0,0,0,0,0,-1,1077,1751,9.00848,-49.5896
-140,-727,9.23352,49.9232,-0.00822687,0.00628601,0.00445257,0.00754317,-0.00948402,1.29562,0.00985192,0.0324,1084,1751,9.23353,-49.9232
-133,-727,9.33337,50.317,-0.00826486,0.00607602,0.0040121,0.00712216,-0.009311,1.31573,0.00951571,0.0257444,1091,1751,9.33342,-50.3171
-126,-727,9.23279,50.7629,-0.00794773,0.00605998,0.00379111,0.0070202,-0.00890795,1.32273,0.00921763,0.0185613,1098,1751,9.23284,-50.763
-119,-727,9.20679,51.1802,-0.00741466,0.00548682,0.0035328,0.00639086,-0.0083187,1.32028,0.00851684,0.0141936,1105,1751,9.20679,-51.1802
-112,-727,9.18823,51.4591,-0.00660826,0.00543177,0.00350802,0.00637931,-0.00755579,1.30699,0.00805499,0.0179124,1112,1751,9.18821,-51.4591
-105,-727,9.10046,51.8291,-0.00584151,0.00517552,0.00345658,0.00617021,-0.00683621,1.2906,0.00751254,0.0193445,1119,1751,9.10047,-51.8291
-98,-727,9.11194,52.2013,-0.00518179,0.00475367,0.00328664,0.00574247,-0.00617059,1.27855,0.00687949,0.0140797,1126,1751,9.11189,-52.2013
-91,-727,9.10559,52.5157,-0.00448207,0.00455165,0.0031502,0.00554168,-0.0054721,1.2663,0.00635885,0.0127966,1133,1751,9.10565,-52.5158
-84,-727,9.06702,52.8389,-0.0039211,0.00388054,0.00280675,0.00478537,-0.00482593,1.25894,0.0055491,0.012802,1140,1751,9.06699,-52.8388
-77,-727,9.03149,53.1487,-0.00289111,0.00342755,0.00270873,0.00442978,-0.00389334,1.21642,0.00480868,0.0130838,1147,1751,9.03145,-53.1487
-70,-727,9.01086,53.4501,-0.00211918,0.00269236,0.00225895,0.00358668,-0.0030135,1.19383,0.0038154,0.0139134,1154,1751,9.01091,-53.4501
-63,-727,8.99512,53.7153,-0.00221794,0.00266586,0.00184642,0.00328535,-0.00283744,1.24709,0.00353815,0.0114655,1161,1751,8.99507,-53.7154
-56,-727,8.96362,53.9514,-0.00215976,0.00244804,0.00144913,0.00286589,-0.00257761,1.29006,0.00314428,0.0117352,1168,1751,8.96361,-53.9515
-49,-727,8.93591,54.1899,-0.00188109,0.00204938,0.00119105,0.00238213,-0.00221384,1.29836,0.00265408,0.0144382,1175,1751,8.93596,-54.19
-42,-727,8.9248,54.4313,-0.00162668,0.00172815,0.00100414,0.00200574,-0.00190427,1.30109,0.0022577,0.0172143,1182,1751,8.92479,-54.4313
-35,-727,8.89758,54.6222,-0.00135729,0.0012359,0.000957807,0.00155131,-0.0016727,1.25268,0.00186182,0.0148311,1189,1751,8.89754,-54.6222
-28,-727,8.8905,54.8104,-0.00107661,0.000673809,0.000941494,0.00108406,-0.00148686,1.15986,0.00149038,0.00920965,1196,1751,8.89047,-54.8104
-21,-727,8.87439,55.0135,-0.000809351,8.17026e-05,0.000983075,0.000715495,-0.00144314,0.998153,0.00126967,0.0106923,1203,1751,8.87436,-55.0135
-14,-727,8.88501,55.1768,-0.000582557,-0.00035752,0.00110797,0.000643628,-0.0015837,0.836002,0.00132358,0.0116823,1210,1751,8.88495,-55.1768
-7,-727,8.88196,55.3488,-0.000362355,-0.000644208,0.00119696,0.000701948,-0.00170851,0.726799,0.00143155,0.0150774,1217,1751,8.8819,-55.3487
0,-727,8.87402,55.5121,-7.36655e-05,-0.000654908,0.00134888,0.00101555,-0.00174412,0.679294,0.0016117,0.0144869,1224,1751,8.87406,-55.5121
7,-727,8.88245,55.6052,0.00010475,-0.000321579,0.00134381,0.0012522,-0.00146903,0.70674,0.00157276,0.0141787,1231,1751,8.88245,-55.6053
14,-727,8.8833,55.71,0.000169841,0.000215099,0.00121252,0.0014052,-0.00102026,0.794728,0.00140621,0.0153153,1238,1751,8.88326,-55.71
21,-727,8.86768,55.8269,0.000197691,0.000703909,0.000979544,0.00146252,-0.000560917,0.91183,0.00120627,0.0131357,1245,1751,8.86766,-55.8268
28,-727,8.87097,55.8949,0.000190432,0.00128709,0.000572798,0.00153171,-5.41846e-05,1.16719,0.00103967,0.0115665,1252,1751,8.87102,-55.8949
35,-727,8.89087,55.9652,0.000185703,0.00183459,0.000117183,0.00184288,0.000177417,1.5002,0.00117392,0.0123206,1259,1751,8.89087,-55.9652
42,-727,8.86951,56.0162,0.000149052,0.00227211,-0.000317584,0.0023186,0.000102564,-1.42545,0.00151271,0.0125146,1266,1751,8.86945,-56.0163
49,-727,8.85852,56.0345,-6.79642e-05,0.00265307,-0.00077296,0.00285731,-0.000272207,-1.31247,0.00200179,0.0111985,1273,1751,8.85849,-56.0345
56,-727,8.86072,56.0874,-0.000319149,0.00275614,-0.00115278,0.00314028,-0.000703286,-1.24914,0.00236309,0.00990327,1280,1751,8.86077,-56.0874
63,-727,8.88013,56.0927,-0.000317343,0.00273943,-0.00140052,0.00328406,-0.000861977,-1.19991,0.00252621,0.0120482,1287,1751,8.88007,-56.0926
70,-727,8.91687,56.0681,9.60798e-05,0.0027459,-0.00175643,0.00362109,-0.000779111,-1.10853,0.00271134,0.0148236,1294,1751,8.91688,-56.0681
77,-727,8.92542,56.0679,0.000254672,0.0026168,-0.00176875,0.00356257,-0.000691092,-1.07977,0.00263578,0.0172203,1301,1751,8.92543,-56.0679
84,-727,8.94031,55.9646,0.000413338,0.00232558,-0.00168332,0.00330536,-0.000566444,-1.04368,0.00241464,0.0163227,1308,1751,8.9403,-55.9646
91,-727,8.94177,55.8662,0.000626727,0.00203925,-0.0015143,0.00300389,-0.000337915,-1.0036,0.00212421,0.0175225,1315,1751,8.94171,-55.8662
98,-727,8.8949,55.8755,0.00082687,0.00149725,-0.00117179,0.00238085,-5.67304e-05,-0.924703,0.00160648,0.0155411,1322,1751,8.89489,-55.8755
105,-727,8.91052,55.8152,0.000907403,0.00106803,-0.000807545,0.00179924,0.000176186,-0.834961,0.00114529,0.0140263,1329,1751,8.91048,-55.8151
112,-727,8.92834,55.7241,0.00100101,0.000570633,-0.0003285,0.00117852,0.000393114,-0.495437,0.000692873,0.0116833,1336,1751,8.92837,-55.7241
119,-727,8.92383,55.6222,0.000978091,0.00010566,2.89034e-05,0.000979048,0.000104703,0.0330814,0.000620748,0.00933568,1343,1751,8.92379,-55.6222
126,-727,8.94897,55.4777,0.000795347,-0.000156372,0.00033158,0.000899476,-0.000260501,0.304288,0.000702767,0.0105954,1350,1751,8.94899,-55.4776
133,-727,8.93762,55.3625,0.000419879,-0.000365483,0.000656602,0.000792262,-0.000737867,0.515906,0.000883607,0.0151417,1357,1751,8.93762,-55.3626
140,-727,8.92102,55.2233,-9.64087e-05,-0.000431293,0.000875513,0.00062753,-0.00115523,0.690914,0.0010442,0.0224704,1364,1751,8.92099,-55.2233
147,-727,8.90759,55.0088,-0.000689408,-0.000455917,0.00102456,0.000458532,-0.00160386,0.842127,0.00125043,0.0193621,1371,1751,8.90759,-55.0088
154,-727,8.89429,54.8054,-0.00122252,-0.000465939,0.00106567,0.000286593,-0.00197505,0.955949,0.00142189,0.0120258,1378,1751,8.89429,-54.8054
161,-727,8.87,54.6204,-0.00172456,-0.000263335,0.00101459,0.000256324,-0.00224422,1.09745,0.0015885,0.00993479,1385,1751,8.87005,-54.6204
168,-727,8.84424,54.4148,-0.00205599,-0.000361554,0.000833208,-2.04897e-05,-0.00239705,1.18227,0.00159125,0.0125575,1392,1751,8.84421,-54.4148
175,-727,8.84692,54.1792,-0.00200472,-0.00043431,0.000349914,-0.000359872,-0.00207916,1.36119,0.00128308,0.0180709,1399,1751,8.84696,-54.1792
182,-727,8.84851,53.9471,-0.00200923,-0.000338159,-0.000250911,-0.000301298,-0.00204609,-1.42493,0.00127554,0.0194099,1406,1751,8.84851,-53.9471
189,-727,8.80566,53.6984,-0.00190696,0.000346326,-0.000706407,0.00054947,-0.00211011,-1.29078,0.00162124,0.0122121,1413,1751,8.80569,-53.6984
196,-727,8.78796,53.4445,-0.00187962,0.00102425,-0.00140917,0.00159564,-0.00245102,-1.18557,0.00235367,0.0145299,1420,1751,8.78792,-53.4444
203,-727,8.76147,53.1375,-0.0019801,0.00205073,-0.00223197,0.00304257,-0.00297194,-1.15263,0.00347256,0.0172866,1427,1751,8.76146,-53.1374
210,-727,8.7478,52.8423,-0.00192551,0.00285398,-0.00271051,0.00407778,-0.00314932,-1.14669,0.00418403,0.0167143,1434,1751,8.74781,-52.8423
217,-727,8.71729,52.5552,-0.0019065,0.00338117,-0.00292135,0.00467741,-0.00320273,-1.15318,0.00457608,0.0121838,1441,1751,8.71728,-52.5552
224,-727,8.69971,52.213,-0.00200246,0.00372321,-0.00319782,0.00515244,-0.00343169,-1.15049,0.00498913,0.0130588,1448,1751,8.69976,-52.2131
231,-727,8.68433,51.8857,-0.0022874,0.0039489,-0.00335873,0.00541375,-0.00375226,-1.15953,0.0053209,0.0114945,1455,1751,8.68428,-51.8857
238,-727,8.66492,51.4812,-0.0024261,0.00413091,-0.00344392,0.00560732,-0.00390251,-1.1658,0.00551983,0.014569,1462,1751,8.66488,-51.4811
245,-727,8.65369,51.1409,-0.00238793,0.00440585,-0.00363263,0.00598237,-0.00396445,-1.16134,0.00578206,0.0176481,1469,1751,8.65372,-51.1409
252,-727,8.59692,50.818,-0.00254662,0.00459457,-0.00373152,0.0061886,-0.00414065,-1.16708,0.00600254,0.0173197,1476,1751,8.59696,-50.818
259,-727,8.53894,50.4451,-0.00256403,0.00475946,-0.00360351,0.00623519,-0.00403976,-1.1821,0.00597721,0.0164984,1483,1751,8.53894,-50.4451
266,-727,8.54919,50.1096,-0.00234483,0.00470239,-0.00345608,0.0061144,-0.00375684,-1.18293,0.00575309,0.0199691,1490,1751,8.54916,-50.1097
273,-727,8.57153,49.7467,-0.00216963,0.00479705,-0.00347304,0.00623262,-0.0036052,-1.17884,0.00574699,0.033144,1497,1751,8.57157,-49.7466
280,-727,8.28589,49.3427,0,0,0,0,0,0,0,-1,1504,1751,8.28594,-49.3427
287,-727,8.21082,48.8575,0,0,0,0,0,0,0,-1,1511,1751,8.21082,-48.8575
294,-727,8.32593,48.2502,0,0,0,0,0,0,0,-1,1518,1751,8.3259,-48.2503
301,-727,8.44385,46.1619,0,0,0,0,0,0,0,-1,1525,1751,8.4439,-46.1619
308,-727,8.77002,44.8007,0,0,0,0,0,0,0,-1,1532,1751,8.76996,-44.8006
315,-727,8.10571,41.24,0,0,0,0,0,0,0,-1,1539,1751,8.10567,-41.2399
322,-727,8.24133,40.2081,0,0,0,0,0,0,0,-1,1546,1751,8.24136,-40.2082
329,-727,5.54419,31.0325,0,0,0,0,0,0,0,-1,1553,1751,5.54425,-31.0325
336,-727,5.55823,20.2439,0,0,0,0,0,0,0,-1,1560,1751,5.55829,-20.2438
343,-727,2.41699,8.72095,0,0,0,0,0,0,0,-1,1567,1751,2.41702,-8.72098
350,-727,3.89783,7.50195,0,0,0,0,0,0,0,-1,1574,1751,3.89782,-7.50193
357,-727,4.48462,10.2948,0,0,0,0,0,0,0,-1,1581,1751,4.48464,-10.2948
364,-727,6.96729,17.2365,0,0,0,0,0,0,0,-1,1588,1751,6.96732,-17.2365
371,-727,5.04565,23.2227,0,0,0,0,0,0,0,-1,1595,1751,5.04564,-23.2227
378,-727,4.56726,23.0574,0,0,0,0,0,0,0,-1,1602,1751,4.56727,-23.0574
385,-727,3.52307,22.6431,0,0,0,0,0,0,0,-1,1609,1751,3.52303,-22.643
392,-727,0,0,0,0,0,0,0,0,0,-1,1616,1751,0,0
399,-727,0,0,0,0,0,0,0,0,0,-1,1623,1751,0,0
406,-727,0,0,0,0,0,0,0,0,0,-1,1630,1751,0,0
413,-727,0,0,0,0,0,0,0,0,0,-1,1637,1751,0,0
420,-727,0,0,0,0,0,0,0,0,0,-1,1644,1751,0,0
427,-727,0,0,0,0,0,0,0,0,0,-1,1651,1751,0,0
434,-727,0,0,0,0,0,0,0,0,0,-1,1658,1751,0,0
441,-727,0,0,0,0,0,0,0,0,0,-1,1665,1751,0,0
448,-727,0,0,0,0,0,0,0,0,0,-1,1672,1751,0,0
455,-727,0,0,0,0,0,0,0,0,0,-1,1679,1751,0,0
462,-727,0,0,0,0,0,0,0,0,0,-1,1686,1751,0,0
469,-727,0,0,0,0,0,0,0,0,0,-1,1693,1751,0,0
476,-727,0,0,0,0,0,0,0,0,0,-1,1700,1751,0,0
483,-727,0,0,0,0,0,0,0,0,0,-1,1707,1751,0,0
490,-727,0,0,0,0,0,0,0,0,0,-1,1714,1751,0,0
497,-727,0,0,0,0,0,0,0,0,0,-1,1721,1751,0,0
504,-727,0,0,0,0,0,0,0,0,0,-1,1728,1751,0,0
511,-727,0,0,0,0,0,0,0,0,0,-1,1735,1751,0,0
518,-727,0,0,0,0,0,0,0,0,0,-1,1742,1751,0,0
525,-727,0,0,0,0,0,0,0,0,0,-1,1749,1751,0,0
532,-727,0,0,0,0,0,0,0,0,0,-1,1756,1751,0,0
539,-727,0,0,0,0,0,0,0,0,0,-1,1763,1751,0,0
546,-727,0,0,0,0,0,0,0,0,0,-1,1770,1751,0,0
553,-727,0,0,0,0,0,0,0,0,0,-1,1777,1751,0,0
560,-727,0,0,0,0,0,0,0,0,0,-1,1784,1751,0,0
567,-727,0,0,0,0,0,0,0,0,0,-1,1791,1751,0,0
574,-727,0,0,0,0,0,0,0,0,0,-1,1798,1751,0,0
581,-727,0,0,0,0,0,0,0,0,0,-1,1805,1751,0,0
588,-727,0,0,0,0,0,0,0,0,0,-1,1812,1751,0,0
595,-727,0,0,0,0,0,0,0,0,0,-1,1819,1751,0,0
602,-727,0,0,0,0,0,0,0,0,0,-1,1826,1751,0,0
609,-727,0,0,0,0,0,0,0,0,0,-1,1833,1751,0,0
616,-727,0,0,0,0,0,0,0,0,0,-1,1840,1751,0,0
623,-727,0,0,0,0,0,0,0,0,0,-1,1847,1751,0,0
630,-727,0,0,0,0,0,0,0,0,0,-1,1854,1751,0,0
637,-727,0,0,0,0,0,0,0,0,0,-1,1861,1751,0,0
644,-727,0,0,0,0,0,0,0,0,0,-1,1868,1751,0,0
651,-727,0,0,0,0,0,0,0,0,0,-1,1875,1751,0,0
658,-727,0,0,0,0,0,0,0,0,0,-1,1882,1751,0,0
665,-727,0,0,0,0,0,0,0,0,0,-1,1889,1751,0,0
672,-727,0,0,0,0,0,0,0,0,0,-1,1896,1751,0,0
679,-727,0,0,0,0,0,0,0,0,0,-1,1903,1751,0,0
686,-727,0,0,0,0,0,0,0,0,0,-1,1910,1751,0,0
693,-727,0,0,0,0,0,0,0,0,0,-1,1917,1751,0,0
700,-727,0,0,0,0,0,0,0,0,0,-1,1924,1751,0,0
707,-727,0,0,0,0,0,0,0,0,0,-1,1931,1751,0,0
714,-727,0,0,0,0,0,0,0,0,0,-1,1938,1751,0,0
721,-727,0,0,0,0,0,0,0,0,0,-1,1945,1751,0,0
728,-727,0,0,0,0,0,0,0,0,0,-1,1952,1751,0,0
735,-727,0,0,0,0,0,0,0,0,0,-1,1959,1751,0,0
742,-727,0,0,0,0,0,0,0,0,0,-1,1966,1751,0,0
749,-727,0,0,0,0,0,0,0,0,0,-1,1973,1751,0,0
756,-727,0,0,0,0,0,0,0,0,0,-1,1980,1751,0,0
763,-727,0,0,0,0,0,0,0,0,0,-1,1987,1751,0,0
770,-727,0,0,0,0,0,0,0,0,0,-1,1994,1751,0,0
777,-727,0,0,0,0,0,0,0,0,0,-1,2001,1751,0,0
784,-727,0,0,0,0,0,0,0,0,0,-1,2008,1751,0,0
791,-727,0,0,0,0,0,0,0,0,0,-1,2015,1751,0,0
798,-727,0,0,0,0,0,0,0,0,0,-1,2022,1751,0,0
805,-727,0,0,0,0,0,0,0,0,0,-1,2029,1751,0,0
812,-727,0,0,0,0,0,0,0,0,0,-1,2036,1751,0,0
-700,-734,0,0,0,0,0,0,0,0,0,-1,524,1758,0,0
-693,-734,0,0,0,0,0,0,0,0,0,-1,531,1758,0,0
-686,-734,0,0,0,0,0,0,0,0,0,-1,538,1758,0,0
-679,-734,0,0,0,0,0,0,0,0,0,-1,545,1758,0,0
-672,-734,0,0,0,0,0,0,0,0,0,-1,552,1758,0,0
-665,-734,0,0,0,0,0,0,0,0,0,-1,559,1758,0,0
-658,-734,0,0,0,0,0,0,0,0,0,-1,566,1758,0,0
-651,-734,0,0,0,0,0,0,0,0,0,-1,573,1758,0,0
-644,-734,0,0,0,0,0,0,0,0,0,-1,580,1758,0,0
-637,-734,0,0,0,0,0,0,0,0,0,-1,587,1758,0,0
-630,-734,0,0,0,0,0,0,0,0,0,-1,594,1758,0,0
-623,-734,0,0,0,0,0,0,0,0,0,-1,601,1758,0,0
-616,-734,0,0,0,0,0,0,0,0,0,-1,608,1758,0,0
-609,-734,0,0,0,0,0,0,0,0,0,-1,615,1758,0,0
-602,-734,0,0,0,0,0,0,0,0,0,-1,622,1758,0,0
-595,-734,0,0,0,0,0,0,0,0,0,-1,629,1758,0,0
-588,-734,0,0,0,0,0,0,0,0,0,-1,636,1758,0,0
-581,-734,0,0,0,0,0,0,0,0,0,-1,643,1758,0,0
-574,-734,0,0,0,0,0,0,0,0,0,-1,650,1758,0,0
-567,-734,0,0,0,0,0,0,0,0,0,-1,657,1758,0,0
-560,-734,0,0,0,0,0,0,0,0,0,-1,664,1758,0,0
-553,-734,0,0,0,0,0,0,0,0,0,-1,671,1758,0,0
-546,-734,0,0,0,0,0,0,0,0,0,-1,678,1758,0,0
-539,-734,0,0,0,0,0,0,0,0,0,-1,685,1758,0,0
-532,-734,0,0,0,0,0,0,0,0,0,-1,692,1758,0,0
-525,-734,0,0,0,0,0,0,0,0,0,-1,699,1758,0,0
-518,-734,0,0,0,0,0,0,0,0,0,-1,706,1758,0,0
-511,-734,0,0,0,0,0,0,0,0,0,-1,713,1758,0,0
-504,-734,0,0,0,0,0,0,0,0,0,-1,720,1758,0,0
-497,-734,0,0,0,0,0,0,0,0,0,-1,727,1758,0,0
-490,-734,0,0,0,0,0,0,0,0,0,-1,734,1758,0,0
-483,-734,0,0,0,0,0,0,0,0,0,-1,741,1758,0,0
-476,-734,0,0,0,0,0,0,0,0,0,-1,748,1758,0,0
-469,-734,0,0,0,0,0,0,0,0,0,-1,755,1758,0,0
-462,-734,0,0,0,0,0,0,0,0,0,-1,762,1758,0,0
-455,-734,0,0,0,0,0,0,0,0,0,-1,769,1758,0,0
-448,-734,0,0,0,0,0,0,0,0,0,-1,776,1758,0,0
-441,-734,0,0,0,0,0,0,0,0,0,-1,783,1758,0,0
-434,-734,0,0,0,0,0,0,0,0,0,-1,790,1758,0,0
-427,-734,0,0,0,0,0,0,0,0,0,-1,797,1758,0,0
-420,-734,0,0,0,0,0,0,0,0,0,-1,804,1758,0,0
-413,-734,0,0,0,0,0,0,0,0,0,-1,811,1758,0,0
-406,-734,0,0,0,0,0,0,0,0,0,-1,818,1758,0,0
-399,-734,0,0,0,0,0,0,0,0,0,-1,825,1758,0,0
-392,-734,0,0,0,0,0,0,0,0,0,-1,832,1758,0,0
-385,-734,0,0,0,0,0,0,0,0,0,-1,839,1758,0,0
-378,-734,0,0,0,0,0,0,0,0,0,-1,846,1758,0,0
-371,-734,0,0,0,0,0,0,0,0,0,-1,853,1758,0,0
-364,-734,0,0,0,0,0,0,0,0,0,-1,860,1758,0,0
-357,-734,0,0,0,0,0,0,0,0,0,-1,867,1758,0,0
-350,-734,0,0,0,0,0,0,0,0,0,-1,874,1758,0,0
-343,-734,0,0,0,0,0,0,0,0,0,-1,881,1758,0,0
-336,-734,0,0,0,0,0,0,0,0,0,-1,888,1758,0,0
-329,-734,0,0,0,0,0,0,0,0,0,-1,895,1758,0,0
-322,-734,0,0,0,0,0,0,0,0,0,-1,902,1758,0,0
-315,-734,0,0,0,0,0,0,0,0,0,-1,909,1758,0,0
-308,-734,0,0,0,0,0,0,0,0,0,-1,916,1758,0,0
-301,-734,0,0,0,0,0,0,0,0,0,-1,923,1758,0,0
-294,-734,0,0,0,0,0,0,0,0,0,-1,930,1758,0,0
-287,-734,0,0,0,0,0,0,0,0,0,-1,937,1758,0,0
-280,-734,0,0,0,0,0,0,0,0,0,-1,944,1758,0,0
-273,-734,0,0,0,0,0,0,0,0,0,-1,951,1758,0,0
-266,-734,0,0,0,0,0,0,0,0,0,-1,958,1758,0,0
-259,-734,0,0,0,0,0,0,0,0,0,-1,965,1758,0,0
-252,-734,5.73883,31.5245,0,0,0,0,0,0,0,-1,972,1758,5.73884,-31.5246
-245,-734,6.32513,30.9761,0,0,0,0,0,0,0,-1,979,1758,6.32511,-30.9761
-238,-734,6.82385,30.0449,0,0,0,0,0,0,0,-1,986,1758,6.82387,-30.0449
-231,-734,7.1958,29.1666,0,0,0,0,0,0,0,-1,993,1758,7.19578,-29.1666
-224,-734,7.36169,28.5652,0,0,0,0,0,0,0,-1,1000,1758,7.36172,-28.5651
-217,-734,7.45984,28.4386,0,0,0,0,0,0,0,-1,1007,1758,7.45986,-28.4386
-210,-734,7.45483,28.4388,0,0,0,0,0,0,0,-1,1014,1758,7.45482,-28.4388
-203,-734,14.3309,49.7766,0,0,0,0,0,0,0,-1,1021,1758,14.3309,-49.7766
-196,-734,13.0366,49.6821,0,0,0,0,0,0,0,-1,1028,1758,13.0366,-49.6822
-189,-734,11.8075,49.2727,0,0,0,0,0,0,0,-1,1035,1758,11.8075,-49.2728
-182,-734,10.8073,48.8035,0,0,0,0,0,0,0,-1,1042,1758,10.8072,-48.8035
-175,-734,9.90186,48.634,0,0,0,0,0,0,0,-1,1049,1758,9.90187,-48.6341
-168,-734,8.91504,48.7642,0,0,0,0,0,0,0,-1,1056,1758,8.91505,-48.7641
-161,-734,8.07922,48.9545,0,0,0,0,0,0,0,-1,1063,1758,8.07918,-48.9545
-154,-734,9.50635,49.0457,0,0,0,0,0,0,0,-1,1070,1758,9.50629,-49.0457
-147,-734,10.1156,49.1252,0,0,0,0,0,0,0,-1,1077,1758,10.1156,-49.1252
-140,-734,9.99719,50.1254,0,0,0,0,0,0,0,-1,1084,1758,9.99721,-50.1254
-133,-734,9.72522,50.3521,-0.0115285,0.00843069,0.00525905,0.00973161,-0.0128294,1.3283,0.0130665,0.0479051,1091,1758,9.7252,-50.3521
-126,-734,9.41541,50.5978,-0.0111415,0.00834062,0.00500961,0.0095533,-0.0123541,1.33329,0.0126827,0.0471181,1098,1758,9.41543,-50.5977
-119,-734,9.51904,51.1191,0,0,0,0,0,0,0,-1,1105,1758,9.51908,-51.1191
-112,-734,9.50928,51.3992,0,0,0,0,0,0,0,-1,1112,1758,9.50934,-51.3992
-105,-734,9.31567,51.733,0,0,0,0,0,0,0,-1,1119,1758,9.31572,-51.733
-98,-734,9.36621,52.1848,0,0,0,0,0,0,0,-1,1126,1758,9.36618,-52.1848
-91,-734,9.40869,52.4969,0,0,0,0,0,0,0,-1,1133,1758,9.40873,-52.497
-84,-734,9.34741,52.8163,0,0,0,0,0,0,0,-1,1140,1758,9.34738,-52.8163
-77,-734,9.29944,53.1642,0,0,0,0,0,0,0,-1,1147,1758,9.29939,-53.1642
-70,-734,9.29724,53.4769,0,0,0,0,0,0,0,-1,1154,1758,9.29721,-53.4769
-63,-734,9.16541,53.5004,-0.00367446,0.00349982,0.00244084,0.00425149,-0.00442613,1.27206,0.00501036,0.0361674,1161,1758,9.16544,-53.5004
-56,-734,9.18567,53.9043,-0.00367589,0.00325545,0.00191299,0.00374836,-0.00416881,1.31861,0.00457313,0.0176085,1168,1758,9.18563,-53.9043
-49,-734,9.16138,54.2029,-0.00335038,0.00278081,0.00156952,0.00315923,-0.0037288,1.3342,0.00398134,0.0139512,1175,1758,9.16143,-54.2028
-42,-734,9.11865,54.4441,-0.00320389,0.00247314,0.00134197,0.00277438,-0.00350513,1.34998,0.00363365,0.0148135,1182,1758,9.1187,-54.4441
-35,-734,9.10657,54.6276,-0.00318484,0.00186245,0.00138527,0.00221765,-0.00354004,1.31979,0.0033533,0.0144921,1189,1758,9.1066,-54.6275
-28,-734,9.09204,54.8098,-0.00311939,0.00115465,0.00146204,0.00160692,-0.00357166,1.27079,0.00306074,0.0101571,1196,1758,9.092,-54.8098
-21,-734,9.12402,54.9962,-0.00308617,0.000393021,0.00150781,0.000955531,-0.00364868,1.21372,0.00280574,0.0162301,1203,1758,9.12397,-54.9962
-14,-734,9.05432,55.2007,-0.00308776,-0.000232062,0.00159185,0.000478483,-0.00379831,1.15097,0.00270584,0.0167865,1210,1758,9.05432,-55.2007
-7,-734,9.02014,55.3369,-0.00304045,-0.000743589,0.00156295,4.74914e-05,-0.00383153,1.10224,0.00257033,0.0184228,1217,1758,9.02018,-55.3369
0,-734,8.99377,55.4719,-0.00290009,-0.00103333,0.00158885,-0.000123987,-0.00380944,1.05097,0.00249932,0.0171059,1224,1758,8.99382,-55.4719
7,-734,8.9823,55.6119,-0.00280327,-0.000726416,0.00147714,4.07769e-05,-0.00357046,1.09177,0.00239402,0.0131392,1231,1758,8.98232,-55.6119
14,-734,8.97131,55.7257,-0.00274555,-0.000150645,0.00130318,0.000390834,-0.00328703,1.177,0.00233257,0.0148189,1238,1758,8.97131,-55.7257
21,-734,8.93127,55.8163,-0.00262964,0.000355658,0.00111425,0.000725684,-0.00299966,1.25017,0.00228049,0.0129054,1245,1758,8.93127,-55.8163
28,-734,8.92468,55.9092,-0.00246001,0.00115561,0.000806143,0.00132721,-0.0026316,1.36107,0.00232661,0.0119977,1252,1758,8.92474,-55.9092
35,-734,8.94324,55.9955,-0.00224467,0.00206173,0.000466136,0.00211161,-0.00229454,1.4642,0.00254463,0.0155852,1259,1758,8.9433,-55.9955
42,-734,8.93799,56.0186,-0.00193898,0.0029945,0.000176838,0.00300083,-0.00194531,1.53501,0.00287725,0.012649,1266,1758,8.93798,-56.0185
49,-734,8.89221,56.0507,-0.0016921,0.0040675,-9.61107e-05,0.0040691,-0.00169371,-1.55412,0.00342008,0.0102519,1273,1758,8.89216,-56.0506
56,-734,8.88062,56.078,-0.00149732,0.0048532,-0.000360478,0.0048736,-0.00151771,-1.51427,0.00385586,0.0096899,1280,1758,8.88057,-56.078
63,-734,8.90222,56.0596,-0.00141544,0.00582173,-0.000502376,0.00585643,-0.00145014,-1.50182,0.00446683,0.0128547,1287,1758,8.90226,-56.0596
70,-734,8.89001,56.0637,-0.00135549,0.00675736,-0.000557763,0.00679553,-0.00139366,-1.50247,0.0050593,0.0138938,1294,1758,8.88997,-56.0637
77,-734,8.89001,56.113,-0.00145538,0.00751923,-0.000378011,0.00753513,-0.00147128,-1.52878,0.00557889,0.0185306,1301,1758,8.89,-56.113
84,-734,8.88245,56.025,-0.00166404,0.00788254,-0.000188627,0.00788627,-0.00166776,-1.55105,0.00589264,0.0169838,1308,1758,8.88245,-56.025
91,-734,8.87012,55.9414,-0.00194457,0.00806047,0.000101404,0.0080615,-0.0019456,1.56066,0.00612672,0.0194343,1315,1758,8.87007,-55.9414
98,-734,8.8645,55.8929,-0.00234894,0.00762829,0.000582007,0.00766213,-0.00238277,1.51273,0.00606054,0.0151822,1322,1758,8.86446,-55.8929
105,-734,8.85596,55.8019,-0.00287402,0.00722504,0.00103625,0.00733028,-0.00297926,1.46959,0.00612636,0.0150975,1329,1758,8.856,-55.8019
112,-734,8.85181,55.7062,-0.00335503,0.0064684,0.00152103,0.00669852,-0.00358515,1.42064,0.00602729,0.0129197,1336,1758,8.85186,-55.7062
119,-734,8.83374,55.598,-0.00380693,0.00561242,0.00187704,0.00597268,-0.0041672,1.38117,0.00588512,0.0143166,1343,1758,8.83371,-55.5981
126,-734,8.83154,55.4584,-0.00423223,0.00491489,0.00213614,0.00538915,-0.00470649,1.35232,0.00583316,0.0168169,1350,1758,8.83156,-55.4584
133,-734,8.79041,55.3273,-0.00460137,0.00405212,0.00240625,0.0046762,-0.00522546,1.31703,0.00571966,0.0149522,1357,1758,8.7904,-55.3273
140,-734,8.76074,55.1816,-0.00486475,0.00320911,0.0025073,0.00392438,-0.00558001,1.2929,0.00551505,0.0200354,1364,1758,8.76074,-55.1816
147,-734,8.74304,54.9835,-0.00513834,0.00241728,0.00248818,0.00316307,-0.00588412,1.27959,0.00530156,0.0147677,1371,1758,8.74303,-54.9836
154,-734,8.71313,54.8239,-0.00522924,0.00153403,0.00232161,0.00225427,-0.00594948,1.26998,0.00489397,0.00986515,1378,1758,8.71312,-54.8238
161,-734,8.66626,54.6433,-0.00516911,0.00131233,0.0020541,0.00190848,-0.00576526,1.28833,0.00461319,0.0090306,1385,1758,8.66624,-54.6433
168,-734,8.61865,54.4143,-0.00488307,0.00040815,0.00167538,0.000894018,-0.00536893,1.28853,0.0039115,0.0140211,1392,1758,8.61867,-54.4143
175,-734,8.60901,54.1814,-0.00448992,-0.000451156,0.000960107,-0.000234535,-0.00470654,1.34889,0.00306251,0.0174891,1399,1758,8.60905,-54.1814
182,-734,8.62378,53.9349,-0.00379482,-0.000919623,-0.000236388,-0.000900318,-0.00381413,-1.48931,0.0023021,0.0167584,1406,1758,8.62381,-53.9349
189,-734,8.5791,53.6932,-0.00348706,1.30158e-05,-0.000843101,0.000205515,-0.00367956,-1.34632,0.00252434,0.0125486,1413,1758,8.57905,-53.6932
196,-734,8.52979,53.4442,-0.0033886,0.000859827,-0.00183341,0.00154162,-0.00407039,-1.21477,0.00334795,0.015079,1420,1758,8.5298,-53.4443
203,-734,8.54443,53.1108,-0.00342422,0.00244908,-0.00309408,0.00377825,-0.00475339,-1.16505,0.00493646,0.0216568,1427,1758,8.54443,-53.1108
210,-734,8.5387,52.7925,-0.00317948,0.00359879,-0.00374632,0.0052615,-0.00484219,-1.15309,0.00583504,0.0371269,1434,1758,8.53875,-52.7925
217,-734,8.46423,52.4961,0,0,0,0,0,0,0,-1,1441,1758,8.46426,-52.4961
224,-734,8.4043,52.261,0,0,0,0,0,0,0,-1,1448,1758,8.40432,-52.261
231,-734,8.33008,51.8621,0,0,0,0,0,0,0,-1,1455,1758,8.33013,-51.8621
238,-734,8.3269,51.3671,0,0,0,0,0,0,0,-1,1462,1758,8.32692,-51.3671
245,-734,8.38245,50.926,0,0,0,0,0,0,0,-1,1469,1758,8.38242,-50.926
252,-734,8.27319,50.6884,0,0,0,0,0,0,0,-1,1476,1758,8.27323,-50.6884
259,-734,8.23267,50.4077,0,0,0,0,0,0,0,-1,1483,1758,8.23261,-50.4077
266,-734,8.23792,50.0977,0,0,0,0,0,0,0,-1,1490,1758,8.23793,-50.0977
273,-734,8.35608,49.8185,0,0,0,0,0,0,0,-1,1497,1758,8.35612,-49.8185
280,-734,8.06348,48.7776,0,0,0,0,0,0,0,-1,1504,1758,8.06351,-48.7776
287,-734,7.75989,48.4988,0,0,0,0,0,0,0,-1,1511,1758,7.75987,-48.4988
294,-734,7.42676,47.7545,0,0,0,0,0,0,0,-1,1518,1758,7.4268,-47.7545
301,-734,7.21814,42.6078,0,0,0,0,0,0,0,-1,1525,1758,7.21809,-42.6078
308,-734,8.0509,41.5156,0,0,0,0,0,0,0,-1,1532,1758,8.05087,-41.5157
315,-734,7.93787,40.8274,0,0,0,0,0,0,0,-1,1539,1758,7.93784,-40.8273
322,-734,7.82483,40.139,0,0,0,0,0,0,0,-1,1546,1758,7.82481,-40.139
329,-734,5.73267,19.656,0,0,0,0,0,0,0,-1,1553,1758,5.73262,-19.656
336,-734,6.71375,23.7469,0,0,0,0,0,0,0,-1,1560,1758,6.71372,-23.7469
343,-734,5.54968,5.14221,0,0,0,0,0,0,0,-1,1567,1758,5.54973,-5.14225
350,-734,5.07397,6.73242,0,0,0,0,0,0,0,-1,1574,1758,5.07402,-6.73243
357,-734,5.05542,7.19189,0,0,0,0,0,0,0,-1,1581,1758,5.05541,-7.19184
364,-734,4.43896,10.4904,0,0,0,0,0,0,0,-1,1588,1758,4.43893,-10.4904
371,-734,7.36975,17.4751,0,0,0,0,0,0,0,-1,1595,1758,7.36972,-17.4752
378,-734,0,0,0,0,0,0,0,0,0,-1,1602,1758,0,0
385,-734,0,0,0,0,0,0,0,0,0,-1,1609,1758,0,0
392,-734,0,0,0,0,0,0,0,0,0,-1,1616,1758,0,0
399,-734,0,0,0,0,0,0,0,0,0,-1,1623,1758,0,0
406,-734,0,0,0,0,0,0,0,0,0,-1,1630,1758,0,0
413,-734,0,0,0,0,0,0,0,0,0,-1,1637,1758,0,0
420,-734,0,0,0,0,0,0,0,0,0,-1,1644,1758,0,0
427,-734,0,0,0,0,0,0,0,0,0,-1,1651,1758,0,0
434,-734,0,0,0,0,0,0,0,0,0,-1,1658,1758,0,0
441,-734,0,0,0,0,0,0,0,0,0,-1,1665,1758,0,0
448,-734,0,0,0,0,0,0,0,0,0,-1,1672,1758,0,0
455,-734,0,0,0,0,0,0,0,0,0,-1,1679,1758,0,0
462,-734,0,0,0,0,0,0,0,0,0,-1,1686,1758,0,0
469,-734,0,0,0,0,0,0,0,0,0,-1,1693,1758,0,0
476,-734,0,0,0,0,0,0,0,0,0,-1,1700,1758,0,0
483,-734,0,0,0,0,0,0,0,0,0,-1,1707,1758,0,0
490,-734,0,0,0,0,0,0,0,0,0,-1,1714,1758,0,0
497,-734,0,0,0,0,0,0,0,0,0,-1,1721,1758,0,0
504,-734,0,0,0,0,0,0,0,0,0,-1,1728,1758,0,0
511,-734,0,0,0,0,0,0,0,0,0,-1,1735,1758,0,0
518,-734,0,0,0,0,0,0,0,0,0,-1,1742,1758,0,0
525,-734,0,0,0,0,0,0,0,0,0,-1,1749,1758,0,0
532,-734,0,0,0,0,0,0,0,0,0,-1,1756,1758,0,0
539,-734,0,0,0,0,0,0,0,0,0,-1,1763,1758,0,0
546,-734,0,0,0,0,0,0,0,0,0,-1,1770,1758,0,0
553,-734,0,0,0,0,0,0,0,0,0,-1,1777,1758,0,0
560,-734,0,0,0,0,0,0,0,0,0,-1,1784,1758,0,0
567,-734,0,0,0,0,0,0,0,0,0,-1,1791,1758,0,0
574,-734,0,0,0,0,0,0,0,0,0,-1,1798,1758,0,0
581,-734,0,0,0,0,0,0,0,0,0,-1,1805,1758,0,0
588,-734,0,0,0,0,0,0,0,0,0,-1,1812,1758,0,0
595,-734,0,0,0,0,0,0,0,0,0,-1,1819,1758,0,0
602,-734,0,0,0,0,0,0,0,0,0,-1,1826,1758,0,0
609,-734,0,0,0,0,0,0,0,0,0,-1,1833,1758,0,0
616,-734,0,0,0,0,0,0,0,0,0,-1,1840,1758,0,0
623,-734,0,0,0,0,0,0,0,0,0,-1,1847,1758,0,0
630,-734,0,0,0,0,0,0,0,0,0,-1,1854,1758,0,0
637,-734,0,0,0,0,0,0,0,0,0,-1,1861,1758,0,0
644,-734,0,0,0,0,0,0,0,0,0,-1,1868,1758,0,0
651,-734,0,0,0,0,0,0,0,0,0,-1,1875,1758,0,0
658,-734,0,0,0,0,0,0,0,0,0,-1,1882,1758,0,0
665,-734,0,0,0,0,0,0,0,0,0,-1,1889,1758,0,0
672,-734,0,0,0,0,0,0,0,0,0,-1,1896,1758,0,0
679,-734,0,0,0,0,0,0,0,0,0,-1,1903,1758,0,0
686,-734,0,0,0,0,0,0,0,0,0,-1,1910,1758,0,0
693,-734,0,0,0,0,0,0,0,0,0,-1,1917,1758,0,0
700,-734,0,0,0,0,0,0,0,0,0,-1,1924,1758,0,0
707,-734,0,0,0,0,0,0,0,0,0,-1,1931,1758,0,0
714,-734,0,0,0,0,0,0,0,0,0,-1,1938,1758,0,0
721,-734,0,0,0,0,0,0,0,0,0,-1,1945,1758,0,0
728,-734,0,0,0,0,0,0,0,0,0,-1,1952,1758,0,0
735,-734,0,0,0,0,0,0,0,0,0,-1,1959,1758,0,0
742,-734,0,0,0,0,0,0,0,0,0,-1,1966,1758,0,0
749,-734,0,0,0,0,0,0,0,0,0,-1,1973,1758,0,0
756,-734,0,0,0,0,0,0,0,0,0,-1,1980,1758,0,0
763,-734,0,0,0,0,0,0,0,0,0,-1,1987,1758,0,0
770,-734,0,0,0,0,0,0,0,0,0,-1,1994,1758,0,0
777,-734,0,0,0,0,0,0,0,0,0,-1,2001,1758,0,0
784,-734,0,0,0,0,0,0,0,0,0,-1,2008,1758,0,0
791,-734,0,0,0,0,0,0,0,0,0,-1,2015,1758,0,0
798,-734,0,0,0,0,0,0,0,0,0,-1,2022,1758,0,0
805,-734,0,0,0,0,0,0,0,0,0,-1,2029,1758,0,0
812,-734,0,0,0,0,0,0,0,0,0,-1,2036,1758,0,0
-700,-741,0,0,0,0,0,0,0,0,0,-1,524,1765,0,0
-693,-741,0,0,0,0,0,0,0,0,0,-1,531,1765,0,0
-686,-741,0,0,0,0,0,0,0,0,0,-1,538,1765,0,0
-679,-741,0,0,0,0,0,0,0,0,0,-1,545,1765,0,0
-672,-741,0,0,0,0,0,0,0,0,0,-1,552,1765,0,0
-665,-741,0,0,0,0,0,0,0,0,0,-1,559,1765,0,0
-658,-741,0,0,0,0,0,0,0,0,0,-1,566,1765,0,0
-651,-741,0,0,0,0,0,0,0,0,0,-1,573,1765,0,0
-644,-741,0,0,0,0,0,0,0,0,0,-1,580,1765,0,0
-637,-741,0,0,0,0,0,0,0,0,0,-1,587,1765,0,0
-630,-741,0,0,0,0,0,0,0,0,0,-1,594,1765,0,0
-623,-741,0,0,0,0,0,0,0,0,0,-1,601,1765,0,0
-616,-741,0,0,0,0,0,0,0,0,0,-1,608,1765,0,0
-609,-741,0,0,0,0,0,0,0,0,0,-1,615,1765,0,0
-602,-741,0,0,0,0,0,0,0,0,0,-1,622,1765,0,0
-595,-741,0,0,0,0,0,0,0,0,0,-1,629,1765,0,0
-588,-741,0,0,0,0,0,0,0,0,0,-1,636,1765,0,0
-581,-741,0,0,0,0,0,0,0,0,0,-1,643,1765,0,0
-574,-741,0,0,0,0,0,0,0,0,0,-1,650,1765,0,0
-567,-741,0,0,0,0,0,0,0,0,0,-1,657,1765,0,0
-560,-741,0,0,0,0,0,0,0,0,0,-1,664,1765,0,0
-553,-741,0,0,0,0,0,0,0,0,0,-1,671,1765,0,0
-546,-741,0,0,0,0,0,0,0,0,0,-1,678,1765,0,0
-539,-741,0,0,0,0,0,0,0,0,0,-1,685,1765,0,0
-532,-741,0,0,0,0,0,0,0,0,0,-1,692,1765,0,0
-525,-741,0,0,0,0,0,0,0,0,0,-1,699,1765,0,0
-518,-741,0,0,0,0,0,0,0,0,0,-1,706,1765,0,0
-511,-741,0,0,0,0,0,0,0,0,0,-1,713,1765,0,0
-504,-741,0,0,0,0,0,0,0,0,0,-1,720,1765,0,0
-497,-741,0,0,0,0,0,0,0,0,0,-1,727,1765,0,0
-490,-741,0,0,0,0,0,0,0,0,0,-1,734,1765,0,0
-483,-741,0,0,0,0,0,0,0,0,0,-1,741,1765,0,0
-476,-741,0,0,0,0,0,0,0,0,0,-1,748,1765,0,0
-469,-741,0,0,0,0,0,0,0,0,0,-1,755,1765,0,0
-462,-741,0,0,0,0,0,0,0,0,0,-1,762,1765,0,0
-455,-741,0,0,0,0,0,0,0,0,0,-1,769,1765,0,0
-448,-741,0,0,0,0,0,0,0,0,0,-1,776,1765,0,0
-441,-741,0,0,0,0,0,0,0,0,0,-1,783,1765,0,0
-434,-741,0,0,0,0,0,0,0,0,0,-1,790,1765,0,0
-427,-741,0,0,0,0,0,0,0,0,0,-1,797,1765,0,0
-420,-741,0,0,0,0,0,0,0,0,0,-1,804,1765,0,0
-413,-741,0,0,0,0,0,0,0,0,0,-1,811,1765,0,0
-406,-741,0,0,0,0,0,0,0,0,0,-1,818,1765,0,0
-399,-741,0,0,0,0,0,0,0,0,0,-1,825,1765,0,0
-392,-741,0,0,0,0,0,0,0,0,0,-1,832,1765,0,0
-385,-741,0,0,0,0,0,0,0,0,0,-1,839,1765,0,0
-378,-741,0,0,0,0,0,0,0,0,0,-1,846,1765,0,0
-371,-741,0,0,0,0,0,0,0,0,0,-1,853,1765,0,0
-364,-741,0,0,0,0,0,0,0,0,0,-1,860,1765,0,0
-357,-741,0,0,0,0,0,0,0,0,0,-1,867,1765,0,0
-350,-741,0,0,0,0,0,0,0,0,0,-1,874,1765,0,0
-343,-741,0,0,0,0,0,0,0,0,0,-1,881,1765,0,0
-336,-741,0,0,0,0,0,0,0,0,0,-1,888,1765,0,0
-329,-741,0,0,0,0,0,0,0,0,0,-1,895,1765,0,0
-322,-741,0,0,0,0,0,0,0,0,0,-1,902,1765,0,0
-315,-741,0,0,0,0,0,0,0,0,0,-1,909,1765,0,0
-308,-741,0,0,0,0,0,0,0,0,0,-1,916,1765,0,0
-301,-741,0,0,0,0,0,0,0,0,0,-1,923,1765,0,0
-294,-741,0,0,0,0,0,0,0,0,0,-1,930,1765,0,0
-287,-741,0,0,0,0,0,0,0,0,0,-1,937,1765,0,0
-280,-741,0,0,0,0,0,0,0,0,0,-1,944,1765,0,0
-273,-741,0,0,0,0,0,0,0,0,0,-1,951,1765,0,0
-266,-741,0,0,0,0,0,0,0,0,0,-1,958,1765,0,0
-259,-741,0,0,0,0,0,0,0,0,0,-1,965,1765,0,0
-252,-741,0,0,0,0,0,0,0,0,0,-1,972,1765,0,0
-245,-741,0,0,0,0,0,0,0,0,0,-1,979,1765,0,0
-238,-741,7.13855,29.8348,0,0,0,0,0,0,0,-1,986,1765,7.13856,-29.8348
-231,-741,7.74182,29.3066,0,0,0,0,0,0,0,-1,993,1765,7.74183,-29.3066
-224,-741,7.80078,29.0964,0,0,0,0,0,0,0,-1,1000,1765,7.80079,-29.0964
-217,-741,8.15863,29.113,0,0,0,0,0,0,0,-1,1007,1765,8.15863,-29.1131
-210,-741,8.37024,29.3896,0,0,0,0,0,0,0,-1,1014,1765,8.37022,-29.3896
-203,-741,7.703,44.0701,0,0,0,0,0,0,0,-1,1021,1765,7.70306,-44.0701
-196,-741,13.1698,50.7012,0,0,0,0,0,0,0,-1,1028,1765,13.1698,-50.7012
-189,-741,12.3024,50.0712,0,0,0,0,0,0,0,-1,1035,1765,12.3023,-50.0712
-182,-741,11.3236,49.675,0,0,0,0,0,0,0,-1,1042,1765,11.3236,-49.675
-175,-741,10.1451,49.7836,0,0,0,0,0,0,0,-1,1049,1765,10.1451,-49.7836
-168,-741,9.26172,49.837,0,0,0,0,0,0,0,-1,1056,1765,9.26167,-49.837
-161,-741,8.42102,49.8832,0,0,0,0,0,0,0,-1,1063,1765,8.42099,-49.8832
-154,-741,10.5177,48.0798,0,0,0,0,0,0,0,-1,1070,1765,10.5177,-48.0798
-147,-741,10.9515,48.8568,0,0,0,0,0,0,0,-1,1077,1765,10.9515,-48.8569
-140,-741,10.1722,48.6353,0,0,0,0,0,0,0,-1,1084,1765,10.1722,-48.6353
-133,-741,10.2046,50.632,0,0,0,0,0,0,0,-1,1091,1765,10.2046,-50.6319
-126,-741,9.60583,50.5765,0,0,0,0,0,0,0,-1,1098,1765,9.60587,-50.5766
-119,-741,9.33801,50.1482,0,0,0,0,0,0,0,-1,1105,1765,9.33802,-50.1482
-112,-741,9.6283,47.2815,0,0,0,0,0,0,0,-1,1112,1765,9.62827,-47.2815
-105,-741,9.61792,45.9158,0,0,0,0,0,0,0,-1,1119,1765,9.61797,-45.9158
-98,-741,9.19971,40.25,0,0,0,0,0,0,0,-1,1126,1765,9.19971,-40.25
-91,-741,8.40002,36.3687,0,0,0,0,0,0,0,-1,1133,1765,8.40002,-36.3687
-84,-741,7.8877,35.0892,0,0,0,0,0,0,0,-1,1140,1765,7.88776,-35.0892
-77,-741,7.73303,34.1174,0,0,0,0,0,0,0,-1,1147,1765,7.73304,-34.1174
-70,-741,7.5437,32.0275,0,0,0,0,0,0,0,-1,1154,1765,7.5437,-32.0275
-63,-741,9.17456,53.1215,0,0,0,0,0,0,0,-1,1161,1765,9.17454,-53.1214
-56,-741,9.44153,53.8201,0,0,0,0,0,0,0,-1,1168,1765,9.4415,-53.8201
-49,-741,9.38989,54.27,0,0,0,0,0,0,0,-1,1175,1765,9.3899,-54.27
-42,-741,9.31079,54.4711,0,0,0,0,0,0,0,-1,1182,1765,9.31082,-54.4711
-35,-741,9.30481,54.6321,-0.00511632,0.0022317,0.00193323,0.00270928,-0.00559391,1.32861,0.00488933,0.0245395,1189,1765,9.30476,-54.6321
-28,-741,9.2937,54.8315,-0.00519319,0.00134641,0.00212528,0.00197641,-0.00582318,1.28262,0.0046821,0.0149014,1196,1765,9.29373,-54.8316
-21,-741,9.27661,55.0153,-0.00518614,0.000516328,0.00221951,0.00127837,-0.00594819,1.24007,0.00445317,0.0193618,1203,1765,9.27656,-55.0152
-14,-741,9.18555,55.207,-0.00518686,-0.000165788,0.0023647,0.000772532,-0.00612518,1.19305,0.00436382,0.0202935,1210,1765,9.18556,-55.207
-7,-741,9.14331,55.3175,-0.00479011,4.35285e-05,0.00190644,0.000704941,-0.00545153,1.23685,0.00389068,0.017072,1217,1765,9.14335,-55.3175
0,-741,9.12756,55.437,-0.00433138,6.74353e-05,0.00160023,0.000587976,-0.00485192,1.2563,0.00344736,0.0159929,1224,1765,9.12753,-55.437
7,-741,9.09509,55.5913,-0.00415191,0.000882257,0.00120935,0.0011577,-0.00442736,1.34685,0.00340375,0.0171268,1231,1765,9.09512,-55.5913
14,-741,9.07471,55.7161,-0.00400319,0.00201879,0.000741501,0.00210875,-0.00409315,1.45007,0.00364125,0.0165687,1238,1765,9.07468,-55.7161
21,-741,9.03662,55.806,-0.00379169,0.00302681,0.000250357,0.00303599,-0.00380087,1.53414,0.00395548,0.0139089,1245,1765,9.03666,-55.806
28,-741,8.97729,55.9279,-0.00356926,0.0044329,-0.00037723,0.00445064,-0.003587,-1.52379,0.00464946,0.0143231,1252,1765,8.97735,-55.9279
35,-741,8.99072,55.9697,-0.00331004,0.00604131,-0.00102157,0.00615161,-0.00342034,-1.46324,0.00560086,0.0156792,1259,1765,8.99067,-55.9697
42,-741,9.00317,56.0034,-0.00290832,0.00774287,-0.00153536,0.00795977,-0.00312523,-1.43045,0.0065997,0.015928,1266,1765,9.00315,-56.0034
49,-741,8.94885,56.0541,-0.00263416,0.00978703,-0.00193765,0.0100823,-0.00292941,-1.41959,0.00788159,0.0104694,1273,1765,8.94884,-56.054
56,-741,8.91907,56.0682,-0.00251074,0.0115334,-0.00229612,0.0118993,-0.00287661,-1.41278,0.00904551,0.0099104,1280,1765,8.91907,-56.0683
63,-741,8.88538,56.0721,-0.00266955,0.0135421,-0.0023824,0.0138849,-0.00301241,-1.42787,0.0104071,0.01476,1287,1765,8.88543,-56.0721
70,-741,8.84204,56.0927,-0.00295718,0.0155218,-0.0022332,0.0157879,-0.00322323,-1.45222,0.011748,0.0176016,1294,1765,8.84207,-56.0926
77,-741,8.83179,56.0796,-0.00352967,0.0172761,-0.00170215,0.0174145,-0.003668,-1.4897,0.0130059,0.0147769,1301,1765,8.83173,-56.0795
84,-741,8.80676,56.0387,-0.00419002,0.0184123,-0.00119453,0.0184753,-0.00425298,-1.51814,0.0139523,0.0167328,1308,1765,8.80679,-56.0387
91,-741,8.7782,55.9956,-0.00495123,0.0192608,-0.00053473,0.0192726,-0.00496303,-1.54873,0.0147831,0.0138965,1315,1765,8.77818,-55.9956
98,-741,8.77124,55.9038,-0.00599244,0.0188053,0.000579513,0.0188188,-0.00600598,1.54744,0.0149554,0.0111493,1322,1765,8.77129,-55.9038
105,-741,8.76221,55.7831,-0.00707393,0.0185794,0.0015096,0.018668,-0.00716246,1.51222,0.0153984,0.0114868,1329,1765,8.76217,-55.7831
112,-741,8.755,55.6836,-0.00789864,0.0177518,0.00234464,0.0179643,-0.0081112,1.48039,0.0154088,0.0112451,1336,1765,8.75496,-55.6835
119,-741,8.7124,55.5645,-0.00870107,0.0165633,0.00301693,0.0169186,-0.00905634,1.45358,0.0152239,0.0142848,1343,1765,8.71234,-55.5645
126,-741,8.67749,55.4421,-0.00942454,0.0152769,0.00354495,0.0157756,-0.00992322,1.43104,0.0149649,0.0195735,1350,1765,8.67747,-55.4422
133,-741,8.63232,55.3125,-0.00998242,0.0134974,0.00407316,0.0141839,-0.0106689,1.40382,0.0143965,0.0152804,1357,1765,8.63229,-55.3125
140,-741,8.60547,55.157,-0.0103121,0.0114253,0.00434785,0.0122626,-0.0111495,1.38053,0.0135221,0.0118908,1364,1765,8.6055,-55.157
147,-741,8.57715,54.9895,-0.0106549,0.00934531,0.00442742,0.0102816,-0.0115911,1.3624,0.0126357,0.0110944,1371,1765,8.5771,-54.9896
154,-741,8.5332,54.8303,-0.0106005,0.00690068,0.00427189,0.00788774,-0.0115876,1.34372,0.0113115,0.00955287,1378,1765,8.53317,-54.8303
161,-741,8.48816,54.6278,-0.0101141,0.00531175,0.00397657,0.00627652,-0.0110789,1.33278,0.0101472,0.0112744,1385,1765,8.48816,-54.6278
168,-741,8.4541,54.4175,-0.00906038,0.00264294,0.0034512,0.00358485,-0.0100023,1.30436,0.00813098,0.0256001,1392,1765,8.45406,-54.4174
175,-741,8.41077,54.2412,0,0,0,0,0,0,0,-1,1399,1765,8.41075,-54.2412
182,-741,8.39502,53.9384,0,0,0,0,0,0,0,-1,1406,1765,8.395,-53.9383
189,-741,8.31494,53.7097,0,0,0,0,0,0,0,-1,1413,1765,8.31496,-53.7097
196,-741,8.26355,53.4584,0,0,0,0,0,0,0,-1,1420,1765,8.26359,-53.4583
203,-741,8.25879,53.0671,0,0,0,0,0,0,0,-1,1427,1765,8.25874,-53.0671
210,-741,8.20056,52.5044,0,0,0,0,0,0,0,-1,1434,1765,8.2005,-52.5045
217,-741,8.4032,40.1213,0,0,0,0,0,0,0,-1,1441,1765,8.40325,-40.1214
224,-741,8.0719,38.4249,0,0,0,0,0,0,0,-1,1448,1765,8.07187,-38.4249
231,-741,7.95923,39.0671,0,0,0,0,0,0,0,-1,1455,1765,7.9592,-39.0671
238,-741,7.96619,42.4865,0,0,0,0,0,0,0,-1,1462,1765,7.96621,-42.4864
245,-741,8.53577,45.7744,0,0,0,0,0,0,0,-1,1469,1765,8.53581,-45.7744
252,-741,8.59167,47.473,0,0,0,0,0,0,0,-1,1476,1765,8.59162,-47.473
259,-741,8.47412,48.5269,0,0,0,0,0,0,0,-1,1483,1765,8.47412,-48.5269
266,-741,8.50134,48.3838,0,0,0,0,0,0,0,-1,1490,1765,8.50132,-48.3838
273,-741,8.81421,49.1227,0,0,0,0,0,0,0,-1,1497,1765,8.81426,-49.1227
280,-741,7.75842,49.8695,0,0,0,0,0,0,0,-1,1504,1765,7.75845,-49.8695
287,-741,7.52783,49.7068,0,0,0,0,0,0,0,-1,1511,1765,7.52783,-49.7068
294,-741,5.91187,43.7742,0,0,0,0,0,0,0,-1,1518,1765,5.91188,-43.7742
301,-741,6.20667,38.5165,0,0,0,0,0,0,0,-1,1525,1765,6.20667,-38.5165
308,-741,7.99036,42.5969,0,0,0,0,0,0,0,-1,1532,1765,7.99037,-42.5969
315,-741,7.83838,41.6693,0,0,0,0,0,0,0,-1,1539,1765,7.83835,-41.6694
322,-741,7.68628,40.7418,0,0,0,0,0,0,0,-1,1546,1765,7.68633,-40.7418
329,-741,4.74414,17.928,0,0,0,0,0,0,0,-1,1553,1765,4.74414,-17.928
336,-741,5.74304,22.0945,0,0,0,0,0,0,0,-1,1560,1765,5.74306,-22.0945
343,-741,7.09888,26.501,0,0,0,0,0,0,0,-1,1567,1765,7.09885,-26.501
350,-741,4.90369,5.44666,0,0,0,0,0,0,0,-1,1574,1765,4.90368,-5.44664
357,-741,4.02063,5.16626,0,0,0,0,0,0,0,-1,1581,1765,4.02058,-5.1662
364,-741,0,0,0,0,0,0,0,0,0,-1,1588,1765,0,0
371,-741,0,0,0,0,0,0,0,0,0,-1,1595,1765,0,0
378,-741,0,0,0,0,0,0,0,0,0,-1,1602,1765,0,0
385,-741,0,0,0,0,0,0,0,0,0,-1,1609,1765,0,0
392,-741,0,0,0,0,0,0,0,0,0,-1,1616,1765,0,0
399,-741,0,0,0,0,0,0,0,0,0,-1,1623,1765,0,0
406,-741,0,0,0,0,0,0,0,0,0,-1,1630,1765,0,0
413,-741,0,0,0,0,0,0,0,0,0,-1,1637,1765,0,0
420,-741,0,0,0,0,0,0,0,0,0,-1,1644,1765,0,0
427,-741,0,0,0,0,0,0,0,0,0,-1,1651,1765,0,0
434,-741,0,0,0,0,0,0,0,0,0,-1,1658,1765,0,0
441,-741,0,0,0,0,0,0,0,0,0,-1,1665,1765,0,0
448,-741,0,0,0,0,0,0,0,0,0,-1,1672,1765,0,0
455,-741,0,0,0,0,0,0,0,0,0,-1,1679,1765,0,0
462,-741,0,0,0,0,0,0,0,0,0,-1,1686,1765,0,0
469,-741,0,0,0,0,0,0,0,0,0,-1,1693,1765,0,0
476,-741,0,0,0,0,0,0,0,0,0,-1,1700,1765,0,0
483,-741,0,0,0,0,0,0,0,0,0,-1,1707,1765,0,0
490,-741,0,0,0,0,0,0,0,0,0,-1,1714,1765,0,0
497,-741,0,0,0,0,0,0,0,0,0,-1,1721,1765,0,0
504,-741,0,0,0,0,0,0,0,0,0,-1,1728,1765,0,0
511,-741,0,0,0,0,0,0,0,0,0,-1,1735,1765,0,0
518,-741,0,0,0,0,0,0,0,0,0,-1,1742,1765,0,0
525,-741,0,0,0,0,0,0,0,0,0,-1,1749,1765,0,0
532,-741,0,0,0,0,0,0,0,0,0,-1,1756,1765,0,0
539,-741,0,0,0,0,0,0,0,0,0,-1,1763,1765,0,0
546,-741,0,0,0,0,0,0,0,0,0,-1,1770,1765,0,0
553,-741,0,0,0,0,0,0,0,0,0,-1,1777,1765,0,0
560,-741,0,0,0,0,0,0,0,0,0,-1,1784,1765,0,0
567,-741,0,0,0,0,0,0,0,0,0,-1,1791,1765,0,0
574,-741,0,0,0,0,0,0,0,0,0,-1,1798,1765,0,0
581,-741,0,0,0,0,0,0,0,0,0,-1,1805,1765,0,0
588,-741,0,0,0,0,0,0,0,0,0,-1,1812,1765,0,0
595,-741,0,0,0,0,0,0,0,0,0,-1,1819,1765,0,0
602,-741,0,0,0,0,0,0,0,0,0,-1,1826,1765,0,0
609,-741,0,0,0,0,0,0,0,0,0,-1,1833,1765,0,0
616,-741,0,0,0,0,0,0,0,0,0,-1,1840,1765,0,0
623,-741,0,0,0,0,0,0,0,0,0,-1,1847,1765,0,0
630,-741,0,0,0,0,0,0,0,0,0,-1,1854,1765,0,0
637,-741,0,0,0,0,0,0,0,0,0,-1,1861,1765,0,0
644,-741,0,0,0,0,0,0,0,0,0,-1,1868,1765,0,0
651,-741,0,0,0,0,0,0,0,0,0,-1,1875,1765,0,0
658,-741,0,0,0,0,0,0,0,0,0,-1,1882,1765,0,0
665,-741,0,0,0,0,0,0,0,0,0,-1,1889,1765,0,0
672,-741,0,0,0,0,0,0,0,0,0,-1,1896,1765,0,0
679,-741,0,0,0,0,0,0,0,0,0,-1,1903,1765,0,0
686,-741,0,0,0,0,0,0,0,0,0,-1,1910,1765,0,0
693,-741,0,0,0,0,0,0,0,0,0,-1,1917,1765,0,0
700,-741,0,0,0,0,0,0,0,0,0,-1,1924,1765,0,0
707,-741,0,0,0,0,0,0,0,0,0,-1,1931,1765,0,0
714,-741,0,0,0,0,0,0,0,0,0,-1,1938,1765,0,0
721,-741,0,0,0,0,0,0,0,0,0,-1,1945,1765,0,0
728,-741,0,0,0,0,0,0,0,0,0,-1,1952,1765,0,0
735,-741,0,0,0,0,0,0,0,0,0,-1,1959,1765,0,0
742,-741,0,0,0,0,0,0,0,0,0,-1,1966,1765,0,0
749,-741,0,0,0,0,0,0,0,0,0,-1,1973,1765,0,0
756,-741,0,0,0,0,0,0,0,0,0,-1,1980,1765,0,0
763,-741,0,0,0,0,0,0,0,0,0,-1,1987,1765,0,0
770,-741,0,0,0,0,0,0,0,0,0,-1,1994,1765,0,0
777,-741,0,0,0,0,0,0,0,0,0,-1,2001,1765,0,0
784,-741,0,0,0,0,0,0,0,0,0,-1,2008,1765,0,0
791,-741,0,0,0,0,0,0,0,0,0,-1,2015,1765,0,0
798,-741,0,0,0,0,0,0,0,0,0,-1,2022,1765,0,0
805,-741,0,0,0,0,0,0,0,0,0,-1,2029,1765,0,0
812,-741,0,0,0,0,0,0,0,0,0,-1,2036,1765,0,0
-700,-748,0,0,0,0,0,0,0,0,0,-1,524,1772,0,0
-693,-748,0,0,0,0,0,0,0,0,0,-1,531,1772,0,0
-686,-748,0,0,0,0,0,0,0,0,0,-1,538,1772,0,0
-679,-748,0,0,0,0,0,0,0,0,0,-1,545,1772,0,0
-672,-748,0,0,0,0,0,0,0,0,0,-1,552,1772,0,0
-665,-748,0,0,0,0,0,0,0,0,0,-1,559,1772,0,0
-658,-748,0,0,0,0,0,0,0,0,0,-1,566,1772,0,0
-651,-748,0,0,0,0,0,0,0,0,0,-1,573,1772,0,0
-644,-748,0,0,0,0,0,0,0,0,0,-1,580,1772,0,0
-637,-748,0,0,0,0,0,0,0,0,0,-1,587,1772,0,0
-630,-748,0,0,0,0,0,0,0,0,0,-1,594,1772,0,0
-623,-748,0,0,0,0,0,0,0,0,0,-1,601,1772,0,0
-616,-748,0,0,0,0,0,0,0,0,0,-1,608,1772,0,0
-609,-748,0,0,0,0,0,0,0,0,0,-1,615,1772,0,0
-602,-748,0,0,0,0,0,0,0,0,0,-1,622,1772,0,0
-595,-748,0,0,0,0,0,0,0,0,0,-1,629,1772,0,0
-588,-748,0,0,0,0,0,0,0,0,0,-1,636,1772,0,0
-581,-748,0,0,0,0,0,0,0,0,0,-1,643,1772,0,0
-574,-748,0,0,0,0,0,0,0,0,0,-1,650,1772,0,0
-567,-748,0,0,0,0,0,0,0,0,0,-1,657,1772,0,0
-560,-748,0,0,0,0,0,0,0,0,0,-1,664,1772,0,0
-553,-748,0,0,0,0,0,0,0,0,0,-1,671,1772,0,0
-546,-748,0,0,0,0,0,0,0,0,0,-1,678,1772,0,0
-539,-748,0,0,0,0,0,0,0,0,0,-1,685,1772,0,0
-532,-748,0,0,0,0,0,0,0,0,0,-1,692,1772,0,0
-525,-748,0,0,0,0,0,0,0,0,0,-1,699,1772,0,0
-518,-748,0,0,0,0,0,0,0,0,0,-1,706,1772,0,0
-511,-748,0,0,0,0,0,0,0,0,0,-1,713,1772,0,0
-504,-748,0,0,0,0,0,0,0,0,0,-1,720,1772,0,0
-497,-748,0,0,0,0,0,0,0,0,0,-1,727,1772,0,0
-490,-748,0,0,0,0,0,0,0,0,0,-1,734,1772,0,0
-483,-748,0,0,0,0,0,0,0,0,0,-1,741,1772,0,0
-476,-748,0,0,0,0,0,0,0,0,0,-1,748,1772,0,0
-469,-748,0,0,0,0,0,0,0,0,0,-1,755,1772,0,0
-462,-748,0,0,0,0,0,0,0,0,0,-1,762,1772,0,0
-455,-748,0,0,0,0,0,0,0,0,0,-1,769,1772,0,0
-448,-748,0,0,0,0,0,0,0,0,0,-1,776,1772,0,0
-441,-748,0,0,0,0,0,0,0,0,0,-1,783,1772,0,0
-434,-748,0,0,0,0,0,0,0,0,0,-1,790,1772,0,0
-427,-748,0,0,0,0,0,0,0,0,0,-1,797,1772,0,0
-420,-748,0,0,0,0,0,0,0,0,0,-1,804,1772,0,0
-413,-748,0,0,0,0,0,0,0,0,0,-1,811,1772,0,0
-406,-748,0,0,0,0,0,0,0,0,0,-1,818,1772,0,0
-399,-748,0,0,0,0,0,0,0,0,0,-1,825,1772,0,0
-392,-748,0,0,0,0,0,0,0,0,0,-1,832,1772,0,0
-385,-748,0,0,0,0,0,0,0,0,0,-1,839,1772,0,0
-378,-748,0,0,0,0,0,0,0,0,0,-1,846,1772,0,0
-371,-748,0,0,0,0,0,0,0,0,0,-1,853,1772,0,0
-364,-748,0,0,0,0,0,0,0,0,0,-1,860,1772,0,0
-357,-748,0,0,0,0,0,0,0,0,0,-1,867,1772,0,0
-350,-748,0,0,0,0,0,0,0,0,0,-1,874,1772,0,0
-343,-748,0,0,0,0,0,0,0,0,0,-1,881,1772,0,0
-336,-748,0,0,0,0,0,0,0,0,0,-1,888,1772,0,0
-329,-748,0,0,0,0,0,0,0,0,0,-1,895,1772,0,0
-322,-748,0,0,0,0,0,0,0,0,0,-1,902,1772,0,0
-315,-748,0,0,0,0,0,0,0,0,0,-1,909,1772,0,0
-308,-748,0,0,0,0,0,0,0,0,0,-1,916,1772,0,0
-301,-748,0,0,0,0,0,0,0,0,0,-1,923,1772,0,0
-294,-748,0,0,0,0,0,0,0,0,0,-1,930,1772,0,0
-287,-748,0,0,0,0,0,0,0,0,0,-1,937,1772,0,0
-280,-748,0,0,0,0,0,0,0,0,0,-1,944,1772,0,0
-273,-748,0,0,0,0,0,0,0,0,0,-1,951,1772,0,0
-266,-748,0,0,0,0,0,0,0,0,0,-1,958,1772,0,0
-259,-748,0,0,0,0,0,0,0,0,0,-1,965,1772,0,0
-252,-748,0,0,0,0,0,0,0,0,0,-1,972,1772,0,0
-245,-748,0,0,0,0,0,0,0,0,0,-1,979,1772,0,0
-238,-748,0,0,0,0,0,0,0,0,0,-1,986,1772,0,0
-231,-748,0,0,0,0,0,0,0,0,0,-1,993,1772,0,0
-224,-748,0,0,0,0,0,0,0,0,0,-1,1000,1772,0,0
-217,-748,8.97742,29.9884,0,0,0,0,0,0,0,-1,1007,1772,8.97744,-29.9884
-210,-748,8.8941,30.14,0,0,0,0,0,0,0,-1,1014,1772,8.8941,-30.14
-203,-748,7.88,43.3942,0,0,0,0,0,0,0,-1,1021,1772,7.87999,-43.3941
-196,-748,7.95483,43.9952,0,0,0,0,0,0,0,-1,1028,1772,7.95478,-43.9953
-189,-748,8.18359,44.5873,0,0,0,0,0,0,0,-1,1035,1772,8.18358,-44.5873
-182,-748,8.49304,45.5183,0,0,0,0,0,0,0,-1,1042,1772,8.49308,-45.5183
-175,-748,10.4392,50.6167,0,0,0,0,0,0,0,-1,1049,1772,10.4392,-50.6167
-168,-748,9.54541,50.6587,0,0,0,0,0,0,0,-1,1056,1772,9.54547,-50.6586
-161,-748,10.7574,47.7889,0,0,0,0,0,0,0,-1,1063,1772,10.7574,-47.7889
-154,-748,11.4552,48.7113,0,0,0,0,0,0,0,-1,1070,1772,11.4552,-48.7113
-147,-748,11.7789,49.4792,0,0,0,0,0,0,0,-1,1077,1772,11.7789,-49.4793
-140,-748,10.4108,44.9001,0,0,0,0,0,0,0,-1,1084,1772,10.4107,-44.9001
-133,-748,7.44727,22.0308,0,0,0,0,0,0,0,-1,1091,1772,7.44728,-22.0308
-126,-748,5.98035,22.6067,0,0,0,0,0,0,0,-1,1098,1772,5.9803,-22.6067
-119,-748,6.63342,26.309,0,0,0,0,0,0,0,-1,1105,1772,6.6334,-26.3089
-112,-748,6.91333,24.923,0,0,0,0,0,0,0,-1,1112,1772,6.91339,-24.923
-105,-748,6.83313,25.0537,0,0,0,0,0,0,0,-1,1119,1772,6.83311,-25.0537
-98,-748,8.13623,30.8743,0,0,0,0,0,0,0,-1,1126,1772,8.13628,-30.8742
-91,-748,4.85352,15.3033,0,0,0,0,0,0,0,-1,1133,1772,4.85351,-15.3033
-84,-748,-0.192017,7.26196,0,0,0,0,0,0,0,-1,1140,1772,-0.192047,-7.26201
-77,-748,4.42615,13.5537,0,0,0,0,0,0,0,-1,1147,1772,4.4261,-13.5538
-70,-748,4.46191,13.7446,0,0,0,0,0,0,0,-1,1154,1772,4.4619,-13.7446
-63,-748,4.49768,13.9355,0,0,0,0,0,0,0,-1,1161,1772,4.49769,-13.9355
-56,-748,3.05762,7.87817,0,0,0,0,0,0,0,-1,1168,1772,3.05768,-7.87822
-49,-748,3.04102,7.82471,0,0,0,0,0,0,0,-1,1175,1772,3.04096,-7.82468
-42,-748,0.793457,14.9474,0,0,0,0,0,0,0,-1,1182,1772,0.793413,-14.9474
-35,-748,9.54602,54.582,0,0,0,0,0,0,0,-1,1189,1772,9.54598,-54.5821
-28,-748,9.48389,54.8514,-0.00728488,0.00133299,0.00314605,0.00235927,-0.00831116,1.25547,0.00647216,0.0486869,1196,1772,9.4839,-54.8515
-21,-748,9.41748,55.021,-0.00722962,0.000600222,0.00337615,0.00185492,-0.00848432,1.21498,0.00636525,0.0235219,1203,1772,9.41746,-55.021
-14,-748,9.31396,55.155,-0.00610114,0.00208308,0.00242499,0.00274764,-0.0067657,1.30332,0.00565347,0.0183328,1210,1772,9.31396,-55.1551
-7,-748,9.27466,55.3032,-0.00451378,0.00438689,0.000747106,0.00444917,-0.00457606,1.48763,0.00521089,0.0177737,1217,1772,9.27463,-55.3032
0,-748,9.24524,55.4277,-0.00365921,0.00535581,-5.09626e-05,0.0053561,-0.0036595,-1.56514,0.00523579,0.0165923,1224,1772,9.24525,-55.4278
7,-748,9.21594,55.5211,-0.00333747,0.00703085,-0.000871949,0.00710366,-0.00341028,-1.48748,0.00619382,0.0151296,1231,1772,9.21594,-55.5211
14,-748,9.16321,55.6804,-0.00306522,0.00893111,-0.00175665,0.00918305,-0.00331716,-1.42835,0.00747719,0.016274,1238,1772,9.16326,-55.6804
21,-748,9.13953,55.802,-0.00274319,0.0105876,-0.00263878,0.011091,-0.00324652,-1.38232,0.00868092,0.0124881,1245,1772,9.13957,-55.802
28,-748,9.06543,55.9019,-0.00255078,0.0126133,-0.00357932,0.0134157,-0.00335318,-1.35027,0.0102461,0.0126145,1252,1772,9.06539,-55.9019
35,-748,9.04321,55.9342,-0.00241572,0.0148411,-0.00446675,0.0159287,-0.00350335,-1.33195,0.0119592,0.0131383,1259,1772,9.04322,-55.9342
42,-748,9.03784,55.969,-0.00218418,0.0170589,-0.00504978,0.0183035,-0.00342884,-1.32913,0.0134913,0.0140611,1266,1772,9.03787,-55.969
49,-748,8.99512,55.9951,-0.00217729,0.0195881,-0.00538218,0.0208462,-0.00343547,-1.34115,0.0151729,0.0109498,1273,1772,8.99515,-55.9951
56,-748,8.92712,56.0454,-0.00250125,0.0219608,-0.00557797,0.0231727,-0.00371313,-1.35686,0.0168233,0.0105442,1280,1772,8.92713,-56.0454
63,-748,8.87085,56.0494,-0.00326211,0.0245864,-0.00530885,0.0255641,-0.00423983,-1.38867,0.0186176,0.0119767,1287,1772,8.87089,-56.0494
70,-748,8.83142,56.0491,-0.00421102,0.0272512,-0.00469988,0.0279383,-0.00489809,-1.42564,0.0204546,0.0143611,1294,1772,8.83148,-56.049
77,-748,8.80298,56.031,-0.00554225,0.0297245,-0.00360577,0.0300894,-0.00590714,-1.46994,0.0222911,0.0134611,1301,1772,8.80292,-56.0311
84,-748,8.76758,56.0125,-0.00688832,0.0315109,-0.00262097,0.031689,-0.0070664,-1.50296,0.0238332,0.0149266,1308,1772,8.76762,-56.0124
91,-748,8.71851,55.9885,-0.00855762,0.0325571,-0.00118735,0.0325913,-0.00859188,-1.54195,0.0250868,0.0129092,1315,1772,8.71856,-55.9885
98,-748,8.6781,55.9025,-0.0104482,0.0322362,0.000690433,0.0322474,-0.0104594,1.55463,0.0257041,0.0117998,1322,1772,8.67811,-55.9025
105,-748,8.67053,55.764,-0.0119753,0.0325883,0.00199064,0.032677,-0.0120641,1.52624,0.0267295,0.012875,1329,1772,8.67052,-55.764
112,-748,8.63855,55.6606,-0.0131885,0.0322023,0.00317255,0.032423,-0.0134091,1.50135,0.0272096,0.0157787,1336,1772,8.63859,-55.6606
119,-748,8.59424,55.5551,-0.014441,0.0312369,0.00422183,0.0316239,-0.014828,1.4794,0.0273971,0.0139741,1343,1772,8.59421,-55.5551
126,-748,8.53223,55.455,-0.0156208,0.029808,0.00512816,0.0303797,-0.0161925,1.45977,0.0273012,0.0160256,1350,1772,8.53226,-55.455
133,-748,8.47583,55.3102,-0.0165325,0.0274769,0.00602901,0.0282879,-0.0173435,1.43708,0.0265967,0.010205,1357,1772,8.47579,-55.3102
140,-748,8.45569,55.1426,-0.0170877,0.0244773,0.00663778,0.0255116,-0.0181219,1.41622,0.025312,0.0134031,1364,1772,8.4557,-55.1425
147,-748,8.41296,54.9781,-0.0176055,0.0213085,0.00697141,0.0225197,-0.0188167,1.39877,0.0238975,0.014851,1371,1772,8.41293,-54.9781
154,-748,8.33569,54.8134,-0.0174614,0.0175005,0.00694268,0.0188287,-0.0187896,1.38177,0.021719,0.0134519,1378,1772,8.33574,-54.8133
161,-748,8.30457,54.634,-0.016407,0.0138463,0.00674136,0.0152805,-0.0178412,1.36118,0.0191419,0.0198532,1385,1772,8.30456,-54.634
168,-748,8.28149,54.4657,0,0,0,0,0,0,0,-1,1392,1772,8.28149,-54.4656
175,-748,11.6235,16.8242,0,0,0,0,0,0,0,-1,1399,1772,11.6236,-16.8242
182,-748,7.62476,10.3058,0,0,0,0,0,0,0,-1,1406,1772,7.62476,-10.3058
189,-748,6.15857,6.95898,0,0,0,0,0,0,0,-1,1413,1772,6.15862,-6.95896
196,-748,3.9425,8.46021,0,0,0,0,0,0,0,-1,1420,1772,3.9425,-8.46026
203,-748,3.9668,12.9835,0,0,0,0,0,0,0,-1,1427,1772,3.96678,-12.9836
210,-748,4.71472,16.8318,0,0,0,0,0,0,0,-1,1434,1772,4.71471,-16.8317
217,-748,5.38452,21.5551,0,0,0,0,0,0,0,-1,1441,1772,5.38455,-21.555
224,-748,6.14258,25.2345,0,0,0,0,0,0,0,-1,1448,1772,6.14263,-25.2345
231,-748,6.46045,29.7867,0,0,0,0,0,0,0,-1,1455,1772,6.46049,-29.7867
238,-748,7.41565,32.8574,0,0,0,0,0,0,0,-1,1462,1772,7.41562,-32.8574
245,-748,7.84912,32.0914,0,0,0,0,0,0,0,-1,1469,1772,7.84914,-32.0914
252,-748,7.57336,29.4369,0,0,0,0,0,0,0,-1,1476,1772,7.57337,-29.4369
259,-748,9.47351,46.1896,0,0,0,0,0,0,0,-1,1483,1772,9.4735,-46.1895
266,-748,8.36536,48.6908,0,0,0,0,0,0,0,-1,1490,1772,8.36541,-48.6909
273,-748,7.31421,46.6743,0,0,0,0,0,0,0,-1,1497,1772,7.31415,-46.6743
280,-748,8.76538,40.4501,0,0,0,0,0,0,0,-1,1504,1772,8.76537,-40.45
287,-748,14.161,8.32813,0,0,0,0,0,0,0,-1,1511,1772,14.161,-8.32808
294,-748,6.38525,32.4724,0,0,0,0,0,0,0,-1,1518,1772,6.38521,-32.4725
301,-748,5.40393,38.9807,0,0,0,0,0,0,0,-1,1525,1772,5.40397,-38.9807
308,-748,5.95227,37.1827,0,0,0,0,0,0,0,-1,1532,1772,5.95229,-37.1827
315,-748,7.71741,42.637,0,0,0,0,0,0,0,-1,1539,1772,7.71738,-42.637
322,-748,4.26538,29.0557,0,0,0,0,0,0,0,-1,1546,1772,4.26537,-29.0556
329,-748,3.87256,16.1473,0,0,0,0,0,0,0,-1,1553,1772,3.87259,-16.1474
336,-748,4.81006,19.6141,0,0,0,0,0,0,0,-1,1560,1772,4.81011,-19.6141
343,-748,0,0,0,0,0,0,0,0,0,-1,1567,1772,0,0
350,-748,0,0,0,0,0,0,0,0,0,-1,1574,1772,0,0
357,-748,0,0,0,0,0,0,0,0,0,-1,1581,1772,0,0
364,-748,0,0,0,0,0,0,0,0,0,-1,1588,1772,0,0
371,-748,0,0,0,0,0,0,0,0,0,-1,1595,1772,0,0
378,-748,0,0,0,0,0,0,0,0,0,-1,1602,1772,0,0
385,-748,0,0,0,0,0,0,0,0,0,-1,1609,1772,0,0
392,-748,0,0,0,0,0,0,0,0,0,-1,1616,1772,0,0
399,-748,0,0,0,0,0,0,0,0,0,-1,1623,1772,0,0
406,-748,0,0,0,0,0,0,0,0,0,-1,1630,1772,0,0
413,-748,0,0,0,0,0,0,0,0,0,-1,1637,1772,0,0
420,-748,0,0,0,0,0,0,0,0,0,-1,1644,1772,0,0
427,-748,0,0,0,0,0,0,0,0,0,-1,1651,1772,0,0
434,-748,0,0,0,0,0,0,0,0,0,-1,1658,1772,0,0
441,-748,0,0,0,0,0,0,0,0,0,-1,1665,1772,0,0
448,-748,0,0,0,0,0,0,0,0,0,-1,1672,1772,0,0
455,-748,0,0,0,0,0,0,0,0,0,-1,1679,1772,0,0
462,-748,0,0,0,0,0,0,0,0,0,-1,1686,1772,0,0
469,-748,0,0,0,0,0,0,0,0,0,-1,1693,1772,0,0
476,-748,0,0,0,0,0,0,0,0,0,-1,1700,1772,0,0
483,-748,0,0,0,0,0,0,0,0,0,-1,1707,1772,0,0
490,-748,0,0,0,0,0,0,0,0,0,-1,1714,1772,0,0
497,-748,0,0,0,0,0,0,0,0,0,-1,1721,1772,0,0
504,-748,0,0,0,0,0,0,0,0,0,-1,1728,1772,0,0
511,-748,0,0,0,0,0,0,0,0,0,-1,1735,1772,0,0
518,-748,0,0,0,0,0,0,0,0,0,-1,1742,1772,0,0
525,-748,0,0,0,0,0,0,0,0,0,-1,1749,1772,0,0
532,-748,0,0,0,0,0,0,0,0,0,-1,1756,1772,0,0
539,-748,0,0,0,0,0,0,0,0,0,-1,1763,1772,0,0
546,-748,0,0,0,0,0,0,0,0,0,-1,1770,1772,0,0
553,-748,0,0,0,0,0,0,0,0,0,-1,1777,1772,0,0
560,-748,0,0,0,0,0,0,0,0,0,-1,1784,1772,0,0
567,-748,0,0,0,0,0,0,0,0,0,-1,1791,1772,0,0
574,-748,0,0,0,0,0,0,0,0,0,-1,1798,1772,0,0
581,-748,0,0,0,0,0,0,0,0,0,-1,1805,1772,0,0
588,-748,0,0,0,0,0,0,0,0,0,-1,1812,1772,0,0
595,-748,0,0,0,0,0,0,0,0,0,-1,1819,1772,0,0
602,-748,0,0,0,0,0,0,0,0,0,-1,1826,1772,0,0
609,-748,0,0,0,0,0,0,0,0,0,-1,1833,1772,0,0
616,-748,0,0,0,0,0,0,0,0,0,-1,1840,1772,0,0
623,-748,0,0,0,0,0,0,0,0,0,-1,1847,1772,0,0
630,-748,0,0,0,0,0,0,0,0,0,-1,1854,1772,0,0
637,-748,0,0,0,0,0,0,0,0,0,-1,1861,1772,0,0
644,-748,0,0,0,0,0,0,0,0,0,-1,1868,1772,0,0
651,-748,0,0,0,0,0,0,0,0,0,-1,1875,1772,0,0
658,-748,0,0,0,0,0,0,0,0,0,-1,1882,1772,0,0
665,-748,0,0,0,0,0,0,0,0,0,-1,1889,1772,0,0
672,-748,0,0,0,0,0,0,0,0,0,-1,1896,1772,0,0
679,-748,0,0,0,0,0,0,0,0,0,-1,1903,1772,0,0
686,-748,0,0,0,0,0,0,0,0,0,-1,1910,1772,0,0
693,-748,0,0,0,0,0,0,0,0,0,-1,1917,1772,0,0
700,-748,0,0,0,0,0,0,0,0,0,-1,1924,1772,0,0
707,-748,0,0,0,0,0,0,0,0,0,-1,1931,1772,0,0
714,-748,0,0,0,0,0,0,0,0,0,-1,1938,1772,0,0
721,-748,0,0,0,0,0,0,0,0,0,-1,1945,1772,0,0
728,-748,0,0,0,0,0,0,0,0,0,-1,1952,1772,0,0
735,-748,0,0,0,0,0,0,0,0,0,-1,1959,1772,0,0
742,-748,0,0,0,0,0,0,0,0,0,-1,1966,1772,0,0
749,-748,0,0,0,0,0,0,0,0,0,-1,1973,1772,0,0
756,-748,0,0,0,0,0,0,0,0,0,-1,1980,1772,0,0
763,-748,0,0,0,0,0,0,0,0,0,-1,1987,1772,0,0
770,-748,0,0,0,0,0,0,0,0,0,-1,1994,1772,0,0
777,-748,0,0,0,0,0,0,0,0,0,-1,2001,1772,0,0
784,-748,0,0,0,0,0,0,0,0,0,-1,2008,1772,0,0
791,-748,0,0,0,0,0,0,0,0,0,-1,2015,1772,0,0
798,-748,0,0,0,0,0,0,0,0,0,-1,2022,1772,0,0
805,-748,0,0,0,0,0,0,0,0,0,-1,2029,1772,0,0
812,-748,0,0,0,0,0,0,0,0,0,-1,2036,1772,0,0
-700,-755,0,0,0,0,0,0,0,0,0,-1,524,1779,0,0
-693,-755,0,0,0,0,0,0,0,0,0,-1,531,1779,0,0
-686,-755,0,0,0,0,0,0,0,0,0,-1,538,1779,0,0
-679,-755,0,0,0,0,0,0,0,0,0,-1,545,1779,0,0
-672,-755,0,0,0,0,0,0,0,0,0,-1,552,1779,0,0
-665,-755,0,0,0,0,0,0,0,0,0,-1,559,1779,0,0
-658,-755,0,0,0,0,0,0,0,0,0,-1,566,1779,0,0
-651,-755,0,0,0,0,0,0,0,0,0,-1,573,1779,0,0
-644,-755,0,0,0,0,0,0,0,0,0,-1,580,1779,0,0
-637,-755,0,0,0,0,0,0,0,0,0,-1,587,1779,0,0
-630,-755,0,0,0,0,0,0,0,0,0,-1,594,1779,0,0
-623,-755,0,0,0,0,0,0,0,0,0,-1,601,1779,0,0
-616,-755,0,0,0,0,0,0,0,0,0,-1,608,1779,0,0
-609,-755,0,0,0,0,0,0,0,0,0,-1,615,1779,0,0
-602,-755,0,0,0,0,0,0,0,0,0,-1,622,1779,0,0
-595,-755,0,0,0,0,0,0,0,0,0,-1,629,1779,0,0
-588,-755,0,0,0,0,0,0,0,0,0,-1,636,1779,0,0
-581,-755,0,0,0,0,0,0,0,0,0,-1,643,1779,0,0
-574,-755,0,0,0,0,0,0,0,0,0,-1,650,1779,0,0
-567,-755,0,0,0,0,0,0,0,0,0,-1,657,1779,0,0
-560,-755,0,0,0,0,0,0,0,0,0,-1,664,1779,0,0
-553,-755,0,0,0,0,0,0,0,0,0,-1,671,1779,0,0
-546,-755,0,0,0,0,0,0,0,0,0,-1,678,1779,0,0
-539,-755,0,0,0,0,0,0,0,0,0,-1,685,1779,0,0
-532,-755,0,0,0,0,0,0,0,0,0,-1,692,1779,0,0
-525,-755,0,0,0,0,0,0,0,0,0,-1,699,1779,0,0
-518,-755,0,0,0,0,0,0,0,0,0,-1,706,1779,0,0
-511,-755,0,0,0,0,0,0,0,0,0,-1,713,1779,0,0
-504,-755,0,0,0,0,0,0,0,0,0,-1,720,1779,0,0
-497,-755,0,0,0,0,0,0,0,0,0,-1,727,1779,0,0
-490,-755,0,0,0,0,0,0,0,0,0,-1,734,1779,0,0
-483,-755,0,0,0,0,0,0,0,0,0,-1,741,1779,0,0
-476,-755,0,0,0,0,0,0,0,0,0,-1,748,1779,0,0
-469,-755,0,0,0,0,0,0,0,0,0,-1,755,1779,0,0
-462,-755,0,0,0,0,0,0,0,0,0,-1,762,1779,0,0
-455,-755,0,0,0,0,0,0,0,0,0,-1,769,1779,0,0
-448,-755,0,0,0,0,0,0,0,0,0,-1,776,1779,0,0
-441,-755,0,0,0,0,0,0,0,0,0,-1,783,1779,0,0
-434,-755,0,0,0,0,0,0,0,0,0,-1,790,1779,0,0
-427,-755,0,0,0,0,0,0,0,0,0,-1,797,1779,0,0
-420,-755,0,0,0,0,0,0,0,0,0,-1,804,1779,0,0
-413,-755,0,0,0,0,0,0,0,0,0,-1,811,1779,0,0
-406,-755,0,0,0,0,0,0,0,0,0,-1,818,1779,0,0
-399,-755,0,0,0,0,0,0,0,0,0,-1,825,1779,0,0
-392,-755,0,0,0,0,0,0,0,0,0,-1,832,1779,0,0
-385,-755,0,0,0,0,0,0,0,0,0,-1,839,1779,0,0
-378,-755,0,0,0,0,0,0,0,0,0,-1,846,1779,0,0
-371,-755,0,0,0,0,0,0,0,0,0,-1,853,1779,0,0
-364,-755,0,0,0,0,0,0,0,0,0,-1,860,1779,0,0
-357,-755,0,0,0,0,0,0,0,0,0,-1,867,1779,0,0
-350,-755,0,0,0,0,0,0,0,0,0,-1,874,1779,0,0
-343,-755,0,0,0,0,0,0,0,0,0,-1,881,1779,0,0
-336,-755,0,0,0,0,0,0,0,0,0,-1,888,1779,0,0
-329,-755,0,0,0,0,0,0,0,0,0,-1,895,1779,0,0
-322,-755,0,0,0,0,0,0,0,0,0,-1,902,1779,0,0
-315,-755,0,0,0,0,0,0,0,0,0,-1,909,1779,0,0
-308,-755,0,0,0,0,0,0,0,0,0,-1,916,1779,0,0
-301,-755,0,0,0,0,0,0,0,0,0,-1,923,1779,0,0
-294,-755,0,0,0,0,0,0,0,0,0,-1,930,1779,0,0
-287,-755,0,0,0,0,0,0,0,0,0,-1,937,1779,0,0
-280,-755,0,0,0,0,0,0,0,0,0,-1,944,1779,0,0
-273,-755,0,0,0,0,0,0,0,0,0,-1,951,1779,0,0
-266,-755,0,0,0,0,0,0,0,0,0,-1,958,1779,0,0
-259,-755,0,0,0,0,0,0,0,0,0,-1,965,1779,0,0
-252,-755,0,0,0,0,0,0,0,0,0,-1,972,1779,0,0
-245,-755,0,0,0,0,0,0,0,0,0,-1,979,1779,0,0
-238,-755,0,0,0,0,0,0,0,0,0,-1,986,1779,0,0
-231,-755,0,0,0,0,0,0,0,0,0,-1,993,1779,0,0
-224,-755,0,0,0,0,0,0,0,0,0,-1,1000,1779,0,0
-217,-755,0,0,0,0,0,0,0,0,0,-1,1007,1779,0,0
-210,-755,0,0,0,0,0,0,0,0,0,-1,1014,1779,0,0
-203,-755,8.97363,30.5414,0,0,0,0,0,0,0,-1,1021,1779,8.97362,-30.5414
-196,-755,8.08667,43.2203,0,0,0,0,0,0,0,-1,1028,1779,8.08666,-43.2204
-189,-755,0.725098,39.8892,0,0,0,0,0,0,0,-1,1035,1779,0.725055,-39.8891
-182,-755,1.80835,40.9692,0,0,0,0,0,0,0,-1,1042,1779,1.80838,-40.9692
-175,-755,3.04749,41.9612,0,0,0,0,0,0,0,-1,1049,1779,3.0475,-41.9612
-168,-755,4.8302,42.7631,0,0,0,0,0,0,0,-1,1056,1779,4.8302,-42.7631
-161,-755,6.46777,44.0007,0,0,0,0,0,0,0,-1,1063,1779,6.46773,-44.0007
-154,-755,7.71094,44.9023,0,0,0,0,0,0,0,-1,1070,1779,7.71089,-44.9023
-147,-755,-6.45593,10.2422,0,0,0,0,0,0,0,-1,1077,1779,-6.45594,-10.2422
-140,-755,1.33521,21.3856,0,0,0,0,0,0,0,-1,1084,1779,1.33522,-21.3857
-133,-755,2.89417,21.0964,0,0,0,0,0,0,0,-1,1091,1779,2.89422,-21.0964
-126,-755,3.26404,20.9304,0,0,0,0,0,0,0,-1,1098,1779,3.26399,-20.9305
-119,-755,5.17761,21.9325,0,0,0,0,0,0,0,-1,1105,1779,5.17761,-21.9325
-112,-755,5.40247,24.5646,0,0,0,0,0,0,0,-1,1112,1779,5.40244,-24.5646
-105,-755,7.01294,20.1539,0,0,0,0,0,0,0,-1,1119,1779,7.01295,-20.154
-98,-755,5.50708,16.9628,0,0,0,0,0,0,0,-1,1126,1779,5.5071,-16.9628
-91,-755,5.51025,12.0438,0,0,0,0,0,0,0,-1,1133,1779,5.51022,-12.0439
-84,-755,0.169312,8.66443,0,0,0,0,0,0,0,-1,1140,1779,0.16932,-8.66446
-77,-755,-0.0491943,6.87439,0,0,0,0,0,0,0,-1,1147,1779,-0.0491385,-6.87443
-70,-755,4.5686,13.2169,0,0,0,0,0,0,0,-1,1154,1779,4.56865,-13.2169
-63,-755,-1.36316,7.3147,0,0,0,0,0,0,0,-1,1161,1779,-1.36312,-7.31473
-56,-755,0.0483398,5.06079,0,0,0,0,0,0,0,-1,1168,1779,0.0483138,-5.06084
-49,-755,-1.32263,5.33716,0,0,0,0,0,0,0,-1,1175,1779,-1.32264,-5.33718
-42,-755,-2.03613,4.01672,0,0,0,0,0,0,0,-1,1182,1779,-2.0361,-4.01671
-35,-755,-2.72498,2.37476,0,0,0,0,0,0,0,-1,1189,1779,-2.72502,-2.37473
-28,-755,9.55469,54.9132,0,0,0,0,0,0,0,-1,1196,1779,9.55475,-54.9132
-21,-755,9.53137,55.0841,0,0,0,0,0,0,0,-1,1203,1779,9.53136,-55.0841
-14,-755,9.4928,55.1193,-0.00744932,0.0106597,0.00233712,0.0109564,-0.00774608,1.44449,0.0108508,0.0362379,1210,1779,9.49284,-55.1192
-7,-755,9.39001,55.2261,-0.00505199,0.0157484,-0.000375008,0.0157551,-0.00505875,-1.55278,0.0125347,0.0245825,1217,1779,9.38998,-55.2261
0,-755,9.34668,55.3575,-0.00413446,0.0180978,-0.00141769,0.0181878,-0.0042245,-1.50737,0.0137514,0.0157126,1224,1779,9.34666,-55.3576
7,-755,9.32727,55.4995,-0.00400189,0.0205913,-0.00241289,0.0208258,-0.00423639,-1.47392,0.0154903,0.0146095,1231,1779,9.32727,-55.4995
14,-755,9.26465,55.6493,-0.00383723,0.023053,-0.00354522,0.0235125,-0.00429677,-1.44189,0.0172862,0.0124499,1238,1779,9.26471,-55.6493
21,-755,9.15881,55.8126,-0.00359552,0.0250581,-0.00470862,0.025812,-0.00434944,-1.41203,0.0188261,0.0161944,1245,1779,9.15879,-55.8127
28,-755,9.12512,55.8555,-0.00355751,0.0272836,-0.00586933,0.0283628,-0.00463673,-1.38895,0.0206285,0.0197856,1252,1779,9.12507,-55.8554
35,-755,9.13782,55.9208,-0.00362227,0.0295017,-0.00690714,0.0308843,-0.00500486,-1.37324,0.0224446,0.0210073,1259,1779,9.13781,-55.9208
42,-755,9.07837,55.9409,-0.00353675,0.0314682,-0.00754011,0.0330232,-0.00509182,-1.36741,0.0238943,0.015317,1266,1779,9.07839,-55.941
49,-755,9.03516,55.9404,-0.00368057,0.033727,-0.00784571,0.0353058,-0.00525945,-1.37221,0.025472,0.010837,1273,1779,9.03516,-55.9404
56,-755,8.95325,55.9969,-0.00421338,0.0358943,-0.00797458,0.0374217,-0.00574079,-1.38155,0.0270651,0.0101454,1280,1779,8.95329,-55.9969
63,-755,8.88806,56.0396,-0.00527127,0.0383904,-0.00752308,0.0396503,-0.00653117,-1.40486,0.028858,0.0101425,1287,1779,8.88802,-56.0395
70,-755,8.86438,56.0074,-0.0065758,0.0410909,-0.00663886,0.0419983,-0.00748317,-1.43496,0.0307978,0.0144286,1294,1779,8.86436,-56.0074
77,-755,8.80042,55.9485,-0.00835853,0.0437013,-0.00514579,0.0442051,-0.00886228,-1.47321,0.0328254,0.0139809,1301,1779,8.80046,-55.9485
84,-755,8.74341,55.9399,-0.0101372,0.0457734,-0.00381297,0.0460323,-0.010396,-1.50302,0.0346769,0.0148369,1308,1779,8.74341,-55.9399
91,-755,8.68848,55.9014,-0.0123445,0.0461503,-0.00179738,0.0462055,-0.0123997,-1.54011,0.0356628,0.0149342,1315,1779,8.68848,-55.9013
98,-755,8.60596,55.8695,-0.0149111,0.0463276,0.000662984,0.0463348,-0.0149183,1.55997,0.0368824,0.0152611,1322,1779,8.60598,-55.8695
105,-755,8.56567,55.7483,-0.017004,0.0474263,0.0024008,0.0475157,-0.0170934,1.5336,0.0386559,0.0191137,1329,1779,8.56565,-55.7483
112,-755,8.51917,55.6382,-0.0187444,0.0477346,0.00405058,0.0479805,-0.0189902,1.51016,0.0398548,0.0250227,1336,1779,8.51914,-55.6382
119,-755,8.47864,55.5244,-0.0206801,0.0471933,0.00567003,0.0476637,-0.0211505,1.48802,0.040701,0.0247139,1343,1779,8.47865,-55.5244
126,-755,8.4353,55.49,-0.0226034,0.0457849,0.00720725,0.0465362,-0.0233547,1.46693,0.0410847,0.0288206,1350,1779,8.43535,-55.49
133,-755,8.29395,55.349,-0.0241235,0.042921,0.00869603,0.0440306,-0.0252331,1.44389,0.0404773,0.0301438,1357,1779,8.29394,-55.3491
140,-755,8.15442,55.1908,-0.025167,0.0391539,0.0098155,0.0406184,-0.0266315,1.42268,0.0391057,0.0364822,1364,1779,8.15445,-55.1908
147,-755,8.17725,55.035,-0.0260748,0.0351919,0.0105137,0.0369459,-0.0278288,1.40549,0.037521,0.0376799,1371,1779,8.17722,-55.035
154,-755,8.08459,54.9467,-0.026083,0.0302853,0.01074,0.0322623,-0.02806,1.38876,0.0348552,0.038197,1378,1779,8.08454,-54.9467
161,-755,7.9303,54.8326,0,0,0,0,0,0,0,-1,1385,1779,7.93033,-54.8326
168,-755,3.98181,7.35901,0,0,0,0,0,0,0,-1,1392,1779,3.98184,-7.35904
175,-755,8.17065,1.34363,0,0,0,0,0,0,0,-1,1399,1779,8.1706,-1.34368
182,-755,8.09216,2.96924,0,0,0,0,0,0,0,-1,1406,1779,8.09213,-2.9693
189,-755,8.04419,4.68042,0,0,0,0,0,0,0,-1,1413,1779,8.04419,-4.68046
196,-755,7.74841,7.4541,0,0,0,0,0,0,0,-1,1420,1779,7.74842,-7.45405
203,-755,4.80554,6.88696,0,0,0,0,0,0,0,-1,1427,1779,4.80554,-6.88697
210,-755,25.1694,7.35693,0,0,0,0,0,0,0,-1,1434,1779,25.1694,-7.35688
217,-755,5.01648,16.411,0,0,0,0,0,0,0,-1,1441,1779,5.01646,-16.411
224,-755,5.18103,22.6283,0,0,0,0,0,0,0,-1,1448,1779,5.18101,-22.6283
231,-755,5.7489,30.15,0,0,0,0,0,0,0,-1,1455,1779,5.74885,-30.15
238,-755,6.56323,29.2726,0,0,0,0,0,0,0,-1,1462,1779,6.56327,-29.2726
245,-755,8.29639,28.2113,0,0,0,0,0,0,0,-1,1469,1779,8.29639,-28.2113
252,-755,6.8877,28.8699,0,0,0,0,0,0,0,-1,1476,1779,6.88774,-28.8698
259,-755,6.42676,30.8574,0,0,0,0,0,0,0,-1,1483,1779,6.42677,-30.8575
266,-755,17.255,7.86096,0,0,0,0,0,0,0,-1,1490,1779,17.255,-7.86092
273,-755,15.7932,7.59778,0,0,0,0,0,0,0,-1,1497,1779,15.7932,-7.59777
280,-755,14.6255,7.34802,0,0,0,0,0,0,0,-1,1504,1779,14.6254,-7.34806
287,-755,13.8279,7.83105,0,0,0,0,0,0,0,-1,1511,1779,13.8279,-7.83104
294,-755,12.5695,7.96814,0,0,0,0,0,0,0,-1,1518,1779,12.5694,-7.9682
301,-755,11.2659,8.27087,0,0,0,0,0,0,0,-1,1525,1779,11.2658,-8.27087
308,-755,5.17737,37.2896,0,0,0,0,0,0,0,-1,1532,1779,5.17742,-37.2896
315,-755,0.828613,31.032,0,0,0,0,0,0,0,-1,1539,1779,0.828668,-31.032
322,-755,0,0,0,0,0,0,0,0,0,-1,1546,1779,0,0
329,-755,0,0,0,0,0,0,0,0,0,-1,1553,1779,0,0
336,-755,0,0,0,0,0,0,0,0,0,-1,1560,1779,0,0
343,-755,0,0,0,0,0,0,0,0,0,-1,1567,1779,0,0
350,-755,0,0,0,0,0,0,0,0,0,-1,1574,1779,0,0
357,-755,0,0,0,0,0,0,0,0,0,-1,1581,1779,0,0
364,-755,0,0,0,0,0,0,0,0,0,-1,1588,1779,0,0
371,-755,0,0,0,0,0,0,0,0,0,-1,1595,1779,0,0
378,-755,0,0,0,0,0,0,0,0,0,-1,1602,1779,0,0
385,-755,0,0,0,0,0,0,0,0,0,-1,1609,1779,0,0
392,-755,0,0,0,0,0,0,0,0,0,-1,1616,1779,0,0
399,-755,0,0,0,0,0,0,0,0,0,-1,1623,1779,0,0
406,-755,0,0,0,0,0,0,0,0,0,-1,1630,1779,0,0
413,-755,0,0,0,0,0,0,0,0,0,-1,1637,1779,0,0
420,-755,0,0,0,0,0,0,0,0,0,-1,1644,1779,0,0
427,-755,0,0,0,0,0,0,0,0,0,-1,1651,1779,0,0
434,-755,0,0,0,0,0,0,0,0,0,-1,1658,1779,0,0
441,-755,0,0,0,0,0,0,0,0,0,-1,1665,1779,0,0
448,-755,0,0,0,0,0,0,0,0,0,-1,1672,1779,0,0
455,-755,0,0,0,0,0,0,0,0,0,-1,1679,1779,0,0
462,-755,0,0,0,0,0,0,0,0,0,-1,1686,1779,0,0
469,-755,0,0,0,0,0,0,0,0,0,-1,1693,1779,0,0
476,-755,0,0,0,0,0,0,0,0,0,-1,1700,1779,0,0
483,-755,0,0,0,0,0,0,0,0,0,-1,1707,1779,0,0
490,-755,0,0,0,0,0,0,0,0,0,-1,1714,1779,0,0
497,-755,0,0,0,0,0,0,0,0,0,-1,1721,1779,0,0
504,-755,0,0,0,0,0,0,0,0,0,-1,1728,1779,0,0
511,-755,0,0,0,0,0,0,0,0,0,-1,1735,1779,0,0
518,-755,0,0,0,0,0,0,0,0,0,-1,1742,1779,0,0
525,-755,0,0,0,0,0,0,0,0,0,-1,1749,1779,0,0
532,-755,0,0,0,0,0,0,0,0,0,-1,1756,1779,0,0
539,-755,0,0,0,0,0,0,0,0,0,-1,1763,1779,0,0
546,-755,0,0,0,0,0,0,0,0,0,-1,1770,1779,0,0
553,-755,0,0,0,0,0,0,0,0,0,-1,1777,1779,0,0
560,-755,0,0,0,0,0,0,0,0,0,-1,1784,1779,0,0
567,-755,0,0,0,0,0,0,0,0,0,-1,1791,1779,0,0
574,-755,0,0,0,0,0,0,0,0,0,-1,1798,1779,0,0
581,-755,0,0,0,0,0,0,0,0,0,-1,1805,1779,0,0
588,-755,0,0,0,0,0,0,0,0,0,-1,1812,1779,0,0
595,-755,0,0,0,0,0,0,0,0,0,-1,1819,1779,0,0
602,-755,0,0,0,0,0,0,0,0,0,-1,1826,1779,0,0
609,-755,0,0,0,0,0,0,0,0,0,-1,1833,1779,0,0
616,-755,0,0,0,0,0,0,0,0,0,-1,1840,1779,0,0
623,-755,0,0,0,0,0,0,0,0,0,-1,1847,1779,0,0
630,-755,0,0,0,0,0,0,0,0,0,-1,1854,1779,0,0
637,-755,0,0,0,0,0,0,0,0,0,-1,1861,1779,0,0
644,-755,0,0,0,0,0,0,0,0,0,-1,1868,1779,0,0
651,-755,0,0,0,0,0,0,0,0,0,-1,1875,1779,0,0
658,-755,0,0,0,0,0,0,0,0,0,-1,1882,1779,0,0
665,-755,0,0,0,0,0,0,0,0,0,-1,1889,1779,0,0
672,-755,0,0,0,0,0,0,0,0,0,-1,1896,1779,0,0
679,-755,0,0,0,0,0,0,0,0,0,-1,1903,1779,0,0
686,-755,0,0,0,0,0,0,0,0,0,-1,1910,1779,0,0
693,-755,0,0,0,0,0,0,0,0,0,-1,1917,1779,0,0
700,-755,0,0,0,0,0,0,0,0,0,-1,1924,1779,0,0
707,-755,0,0,0,0,0,0,0,0,0,-1,1931,1779,0,0
714,-755,0,0,0,0,0,0,0,0,0,-1,1938,1779,0,0
721,-755,0,0,0,0,0,0,0,0,0,-1,1945,1779,0,0
728,-755,0,0,0,0,0,0,0,0,0,-1,1952,1779,0,0
735,-755,0,0,0,0,0,0,0,0,0,-1,1959,1779,0,0
742,-755,0,0,0,0,0,0,0,0,0,-1,1966,1779,0,0
749,-755,0,0,0,0,0,0,0,0,0,-1,1973,1779,0,0
756,-755,0,0,0,0,0,0,0,0,0,-1,1980,1779,0,0
763,-755,0,0,0,0,0,0,0,0,0,-1,1987,1779,0,0
770,-755,0,0,0,0,0,0,0,0,0,-1,1994,1779,0,0
777,-755,0,0,0,0,0,0,0,0,0,-1,2001,1779,0,0
784,-755,0,0,0,0,0,0,0,0,0,-1,2008,1779,0,0
791,-755,0,0,0,0,0,0,0,0,0,-1,2015,1779,0,0
798,-755,0,0,0,0,0,0,0,0,0,-1,2022,1779,0,0
805,-755,0,0,0,0,0,0,0,0,0,-1,2029,1779,0,0
812,-755,0,0,0,0,0,0,0,0,0,-1,2036,1779,0,0
-700,-762,0,0,0,0,0,0,0,0,0,-1,524,1786,0,0
-693,-762,0,0,0,0,0,0,0,0,0,-1,531,1786,0,0
-686,-762,0,0,0,0,0,0,0,0,0,-1,538,1786,0,0
-679,-762,0,0,0,0,0,0,0,0,0,-1,545,1786,0,0
-672,-762,0,0,0,0,0,0,0,0,0,-1,552,1786,0,0
-665,-762,0,0,0,0,0,0,0,0,0,-1,559,1786,0,0
-658,-762,0,0,0,0,0,0,0,0,0,-1,566,1786,0,0
-651,-762,0,0,0,0,0,0,0,0,0,-1,573,1786,0,0
-644,-762,0,0,0,0,0,0,0,0,0,-1,580,1786,0,0
-637,-762,0,0,0,0,0,0,0,0,0,-1,587,1786,0,0
-630,-762,0,0,0,0,0,0,0,0,0,-1,594,1786,0,0
-623,-762,0,0,0,0,0,0,0,0,0,-1,601,1786,0,0
-616,-762,0,0,0,0,0,0,0,0,0,-1,608,1786,0,0
-609,-762,0,0,0,0,0,0,0,0,0,-1,615,1786,0,0
-602,-762,0,0,0,0,0,0,0,0,0,-1,622,1786,0,0
-595,-762,0,0,0,0,0,0,0,0,0,-1,629,1786,0,0
-588,-762,0,0,0,0,0,0,0,0,0,-1,636,1786,0,0
-581,-762,0,0,0,0,0,0,0,0,0,-1,643,1786,0,0
-574,-762,0,0,0,0,0,0,0,0,0,-1,650,1786,0,0
-567,-762,0,0,0,0,0,0,0,0,0,-1,657,1786,0,0
-560,-762,0,0,0,0,0,0,0,0,0,-1,664,1786,0,0
-553,-762,0,0,0,0,0,0,0,0,0,-1,671,1786,0,0
-546,-762,0,0,0,0,0,0,0,0,0,-1,678,1786,0,0
-539,-762,0,0,0,0,0,0,0,0,0,-1,685,1786,0,0
-532,-762,0,0,0,0,0,0,0,0,0,-1,692,1786,0,0
-525,-762,0,0,0,0,0,0,0,0,0,-1,699,1786,0,0
-518,-762,0,0,0,0,0,0,0,0,0,-1,706,1786,0,0
-511,-762,0,0,0,0,0,0,0,0,0,-1,713,1786,0,0
-504,-762,0,0,0,0,0,0,0,0,0,-1,720,1786,0,0
-497,-762,0,0,0,0,0,0,0,0,0,-1,727,1786,0,0
-490,-762,0,0,0,0,0,0,0,0,0,-1,734,1786,0,0
-483,-762,0,0,0,0,0,0,0,0,0,-1,741,1786,0,0
-476,-762,0,0,0,0,0,0,0,0,0,-1,748,1786,0,0
-469,-762,0,0,0,0,0,0,0,0,0,-1,755,1786,0,0
-462,-762,0,0,0,0,0,0,0,0,0,-1,762,1786,0,0
-455,-762,0,0,0,0,0,0,0,0,0,-1,769,1786,0,0
-448,-762,0,0,0,0,0,0,0,0,0,-1,776,1786,0,0
-441,-762,0,0,0,0,0,0,0,0,0,-1,783,1786,0,0
-434,-762,0,0,0,0,0,0,0,0,0,-1,790,1786,0,0
-427,-762,0,0,0,0,0,0,0,0,0,-1,797,1786,0,0
-420,-762,0,0,0,0,0,0,0,0,0,-1,804,1786,0,0
-413,-762,0,0,0,0,0,0,0,0,0,-1,811,1786,0,0
-406,-762,0,0,0,0,0,0,0,0,0,-1,818,1786,0,0
-399,-762,0,0,0,0,0,0,0,0,0,-1,825,1786,0,0
-392,-762,0,0,0,0,0,0,0,0,0,-1,832,1786,0,0
-385,-762,0,0,0,0,0,0,0,0,0,-1,839,1786,0,0
-378,-762,0,0,0,0,0,0,0,0,0,-1,846,1786,0,0
-371,-762,0,0,0,0,0,0,0,0,0,-1,853,1786,0,0
-364,-762,0,0,0,0,0,0,0,0,0,-1,860,1786,0,0
-357,-762,0,0,0,0,0,0,0,0,0,-1,867,1786,0,0
-350,-762,0,0,0,0,0,0,0,0,0,-1,874,1786,0,0
-343,-762,0,0,0,0,0,0,0,0,0,-1,881,1786,0,0
-336,-762,0,0,0,0,0,0,0,0,0,-1,888,1786,0,0
-329,-762,0,0,0,0,0,0,0,0,0,-1,895,1786,0,0
-322,-762,0,0,0,0,0,0,0,0,0,-1,902,1786,0,0
-315,-762,0,0,0,0,0,0,0,0,0,-1,909,1786,0,0
-308,-762,0,0,0,0,0,0,0,0,0,-1,916,1786,0,0
-301,-762,0,0,0,0,0,0,0,0,0,-1,923,1786,0,0
-294,-762,0,0,0,0,0,0,0,0,0,-1,930,1786,0,0
-287,-762,0,0,0,0,0,0,0,0,0,-1,937,1786,0,0
-280,-762,0,0,0,0,0,0,0,0,0,-1,944,1786,0,0
-273,-762,0,0,0,0,0,0,0,0,0,-1,951,1786,0,0
-266,-762,0,0,0,0,0,0,0,0,0,-1,958,1786,0,0
-259,-762,0,0,0,0,0,0,0,0,0,-1,965,1786,0,0
-252,-762,0,0,0,0,0,0,0,0,0,-1,972,1786,0,0
-245,-762,0,0,0,0,0,0,0,0,0,-1,979,1786,0,0
-238,-762,0,0,0,0,0,0,0,0,0,-1,986,1786,0,0
-231,-762,0,0,0,0,0,0,0,0,0,-1,993,1786,0,0
-224,-762,0,0,0,0,0,0,0,0,0,-1,1000,1786,0,0
-217,-762,0,0,0,0,0,0,0,0,0,-1,1007,1786,0,0
-210,-762,0,0,0,0,0,0,0,0,0,-1,1014,1786,0,0
-203,-762,0,0,0,0,0,0,0,0,0,-1,1021,1786,0,0
-196,-762,0,0,0,0,0,0,0,0,0,-1,1028,1786,0,0
-189,-762,0,0,0,0,0,0,0,0,0,-1,1035,1786,0,0
-182,-762,4.44226,13.2462,0,0,0,0,0,0,0,-1,1042,1786,4.44227,-13.2462
-175,-762,1.14465,40.1932,0,0,0,0,0,0,0,-1,1049,1786,1.1447,-40.1932
-168,-762,3.26794,41.3881,0,0,0,0,0,0,0,-1,1056,1786,3.26794,-41.388
-161,-762,-3.29077,11.9508,0,0,0,0,0,0,0,-1,1063,1786,-3.29076,-11.9508
-154,-762,-4.55823,11.1176,0,0,0,0,0,0,0,-1,1070,1786,-4.55828,-11.1175
-147,-762,-6.52454,9.41418,0,0,0,0,0,0,0,-1,1077,1786,-6.52458,-9.41419
-140,-762,4.99792,5.28589,0,0,0,0,0,0,0,-1,1084,1786,4.99793,-5.28587
-133,-762,0.689819,19.2172,0,0,0,0,0,0,0,-1,1091,1786,0.689867,-19.2171
-126,-762,1.48743,19.9288,0,0,0,0,0,0,0,-1,1098,1786,1.48738,-19.9289
-119,-762,2.65637,20.208,0,0,0,0,0,0,0,-1,1105,1786,2.65632,-20.208
-112,-762,6.84705,25.5554,0,0,0,0,0,0,0,-1,1112,1786,6.84706,-25.5554
-105,-762,5.57947,21.618,0,0,0,0,0,0,0,-1,1119,1786,5.57948,-21.618
-98,-762,5.0636,17.9901,0,0,0,0,0,0,0,-1,1126,1786,5.06361,-17.9901
-91,-762,4.54773,14.3622,0,0,0,0,0,0,0,-1,1133,1786,4.54774,-14.3622
-84,-762,3.96375,10.4547,0,0,0,0,0,0,0,-1,1140,1786,3.96371,-10.4548
-77,-762,0.305054,8.49365,0,0,0,0,0,0,0,-1,1147,1786,0.305008,-8.49362
-70,-762,0.183716,6.74622,0,0,0,0,0,0,0,-1,1154,1786,0.183696,-6.74621
-63,-762,-0.883057,9.08813,0,0,0,0,0,0,0,-1,1161,1786,-0.88311,-9.08808
-56,-762,-0.578979,5.10254,0,0,0,0,0,0,0,-1,1168,1786,-0.578951,-5.10249
-49,-762,-2.04541,3.66321,0,0,0,0,0,0,0,-1,1175,1786,-2.0454,-3.66319
-42,-762,-2.23462,3.474,0,0,0,0,0,0,0,-1,1182,1786,-2.23459,-3.47399
-35,-762,-3.28992,1.68164,0,0,0,0,0,0,0,-1,1189,1786,-3.28998,-1.68164
-28,-762,-3.75378,1.37769,0,0,0,0,0,0,0,-1,1196,1786,-3.75373,-1.37767
-21,-762,10.7117,54.3762,0,0,0,0,0,0,0,-1,1203,1786,10.7117,-54.3763
-14,-762,9.6637,55.0868,0,0,0,0,0,0,0,-1,1210,1786,9.66371,-55.0868
-7,-762,9.46765,55.1211,0,0,0,0,0,0,0,-1,1217,1786,9.46768,-55.1211
0,-762,9.2832,55.4681,-0.00288129,0.03243,-0.00373401,0.0328205,-0.00327182,-1.46659,0.0230485,0.0413627,1224,1786,9.28316,-55.4682
7,-762,9.43945,55.5037,-0.0028673,0.0353754,-0.00497003,0.0360107,-0.00350265,-1.44365,0.0252558,0.0251559,1231,1786,9.43945,-55.5037
14,-762,9.33276,55.7883,-0.00274326,0.0381572,-0.00644894,0.0391499,-0.00373599,-1.41806,0.0274302,0.0388607,1238,1786,9.33277,-55.7884
21,-762,9.0752,55.8142,-0.00256796,0.0403813,-0.00797374,0.0418139,-0.00400054,-1.39303,0.0293006,0.0442727,1245,1786,9.07525,-55.8142
28,-762,9.07471,56.0884,-0.0027243,0.0427083,-0.0093874,0.0445715,-0.00458753,-1.37486,0.0313556,0.0447246,1252,1786,9.07476,-56.0884
35,-762,8.98206,56.0597,-0.00307944,0.0448558,-0.0105802,0.0470871,-0.00531081,-1.36294,0.0333031,0.0464505,1259,1786,8.9821,-56.0597
42,-762,9.04895,55.9646,0,0,0,0,0,0,0,-1,1266,1786,9.0489,-55.9646
49,-762,9.0481,56.0383,-0.00373918,0.0487088,-0.0114003,0.0510797,-0.00611001,-1.36576,0.0362618,0.0455156,1273,1786,9.04805,-56.0384
56,-762,9.04614,56.0486,-0.00470892,0.0508847,-0.011326,0.0531035,-0.00692778,-1.37734,0.0379231,0.0331917,1280,1786,9.04619,-56.0486
63,-762,8.97729,56.0482,-0.00635671,0.0535526,-0.0105079,0.0553422,-0.0081463,-1.40211,0.0398885,0.030808,1287,1786,8.9773,-56.0483
70,-762,8.91162,56.0364,-0.00832606,0.056614,-0.00914679,0.0578778,-0.00958978,-1.4335,0.042147,0.0329253,1294,1786,8.91165,-56.0364
77,-762,8.77246,55.8708,-0.0108853,0.0596791,-0.00703438,0.0603735,-0.0115797,-1.4724,0.0446127,0.0419154,1301,1786,8.77244,-55.8708
84,-762,8.70642,55.8668,0,0,0,0,0,0,0,-1,1308,1786,8.70641,-55.8669
91,-762,8.72473,55.7795,0,0,0,0,0,0,0,-1,1315,1786,8.72469,-55.7795
98,-762,8.47278,55.8102,0,0,0,0,0,0,0,-1,1322,1786,8.47277,-55.8102
105,-762,8.46399,55.8173,-0.0230465,0.0658901,0.00321189,0.0660059,-0.0231623,1.53474,0.0534254,0.048671,1329,1786,8.46399,-55.8172
112,-762,8.37036,55.5826,-0.0255652,0.0672003,0.00543151,0.0675172,-0.0258821,1.51251,0.0556814,0.045196,1336,1786,8.37041,-55.5827
119,-762,8.38623,55.4026,-0.0284484,0.0673929,0.00770585,0.0680085,-0.029064,1.49108,0.0575286,0.0478868,1343,1786,8.3862,-55.4026
126,-762,8.41248,55.9155,0,0,0,0,0,0,0,-1,1350,1786,8.41248,-55.9155
133,-762,8.11597,55.6064,-0.0337371,0.0631482,0.0120941,0.064635,-0.0352239,1.44847,0.0584812,0.0486534,1357,1786,8.11594,-55.6064
140,-762,7.84424,55.2405,-0.0355139,0.0590483,0.0138314,0.0610299,-0.0374955,1.4285,0.057422,0.044063,1364,1786,7.84427,-55.2405
147,-762,7.83887,55.3638,-0.0369701,0.0547216,0.0150374,0.0571247,-0.0393732,1.41233,0.0560265,0.0421673,1371,1786,7.83887,-55.3637
154,-762,7.73486,55.1595,0,0,0,0,0,0,0,-1,1378,1786,7.73483,-55.1595
161,-762,8.65051,34.8102,0,0,0,0,0,0,0,-1,1385,1786,8.65054,-34.8101
168,-762,8.19287,0.880615,0,0,0,0,0,0,0,-1,1392,1786,8.19291,-0.880603
175,-762,8.33997,1.95947,0,0,0,0,0,0,0,-1,1399,1786,8.33997,-1.95942
182,-762,8.28418,3.56482,0,0,0,0,0,0,0,-1,1406,1786,8.28415,-3.56485
189,-762,8.21179,5.23389,0,0,0,0,0,0,0,-1,1413,1786,8.21183,-5.23383
196,-762,8.05969,6.95483,0,0,0,0,0,0,0,-1,1420,1786,8.05972,-6.9548
203,-762,24.0077,7.10425,0,0,0,0,0,0,0,-1,1427,1786,24.0077,-7.10426
210,-762,23.8073,7.6499,0,0,0,0,0,0,0,-1,1434,1786,23.8073,-7.64987
217,-762,23.3193,8.24426,0,0,0,0,0,0,0,-1,1441,1786,23.3194,-8.2442
224,-762,2.65149,20.6106,0,0,0,0,0,0,0,-1,1448,1786,2.65153,-20.6106
231,-762,5.46655,23.521,0,0,0,0,0,0,0,-1,1455,1786,5.46653,-23.521
238,-762,5.35632,29.7203,0,0,0,0,0,0,0,-1,1462,1786,5.35629,-29.7203
245,-762,6.93054,27.8312,0,0,0,0,0,0,0,-1,1469,1786,6.93058,-27.8312
252,-762,6.20215,28.3027,0,0,0,0,0,0,0,-1,1476,1786,6.20211,-28.3027
259,-762,5.46472,28.8762,0,0,0,0,0,0,0,-1,1483,1786,5.46476,-28.8762
266,-762,16.451,7.67773,0,0,0,0,0,0,0,-1,1490,1786,16.4511,-7.67773
273,-762,15.287,7.5304,0,0,0,0,0,0,0,-1,1497,1786,15.2869,-7.53044
280,-762,14.1501,7.38379,0,0,0,0,0,0,0,-1,1504,1786,14.1502,-7.38376
287,-762,12.6891,7.99133,0,0,0,0,0,0,0,-1,1511,1786,12.6891,-7.99135
294,-762,12.6959,8.30371,0,0,0,0,0,0,0,-1,1518,1786,12.6959,-8.30368
301,-762,11.4222,8.84143,0,0,0,0,0,0,0,-1,1525,1786,11.4223,-8.84149
308,-762,0,0,0,0,0,0,0,0,0,-1,1532,1786,0,0
315,-762,0,0,0,0,0,0,0,0,0,-1,1539,1786,0,0
322,-762,0,0,0,0,0,0,0,0,0,-1,1546,1786,0,0
329,-762,0,0,0,0,0,0,0,0,0,-1,1553,1786,0,0
336,-762,0,0,0,0,0,0,0,0,0,-1,1560,1786,0,0
343,-762,0,0,0,0,0,0,0,0,0,-1,1567,1786,0,0
350,-762,0,0,0,0,0,0,0,0,0,-1,1574,1786,0,0
357,-762,0,0,0,0,0,0,0,0,0,-1,1581,1786,0,0
364,-762,0,0,0,0,0,0,0,0,0,-1,1588,1786,0,0
371,-762,0,0,0,0,0,0,0,0,0,-1,1595,1786,0,0
378,-762,0,0,0,0,0,0,0,0,0,-1,1602,1786,0,0
385,-762,0,0,0,0,0,0,0,0,0,-1,1609,1786,0,0
392,-762,0,0,0,0,0,0,0,0,0,-1,1616,1786,0,0
399,-762,0,0,0,0,0,0,0,0,0,-1,1623,1786,0,0
406,-762,0,0,0,0,0,0,0,0,0,-1,1630,1786,0,0
413,-762,0,0,0,0,0,0,0,0,0,-1,1637,1786,0,0
420,-762,0,0,0,0,0,0,0,0,0,-1,1644,1786,0,0
427,-762,0,0,0,0,0,0,0,0,0,-1,1651,1786,0,0
434,-762,0,0,0,0,0,0,0,0,0,-1,1658,1786,0,0
441,-762,0,0,0,0,0,0,0,0,0,-1,1665,1786,0,0
448,-762,0,0,0,0,0,0,0,0,0,-1,1672,1786,0,0
455,-762,0,0,0,0,0,0,0,0,0,-1,1679,1786,0,0
462,-762,0,0,0,0,0,0,0,0,0,-1,1686,1786,0,0
469,-762,0,0,0,0,0,0,0,0,0,-1,1693,1786,0,0
476,-762,0,0,0,0,0,0,0,0,0,-1,1700,1786,0,0
483,-762,0,0,0,0,0,0,0,0,0,-1,1707,1786,0,0
490,-762,0,0,0,0,0,0,0,0,0,-1,1714,1786,0,0
497,-762,0,0,0,0,0,0,0,0,0,-1,1721,1786,0,0
504,-762,0,0,0,0,0,0,0,0,0,-1,1728,1786,0,0
511,-762,0,0,0,0,0,0,0,0,0,-1,1735,1786,0,0
518,-762,0,0,0,0,0,0,0,0,0,-1,1742,1786,0,0
525,-762,0,0,0,0,0,0,0,0,0,-1,1749,1786,0,0
532,-762,0,0,0,0,0,0,0,0,0,-1,1756,1786,0,0
539,-762,0,0,0,0,0,0,0,0,0,-1,1763,1786,0,0
546,-762,0,0,0,0,0,0,0,0,0,-1,1770,1786,0,0
553,-762,0,0,0,0,0,0,0,0,0,-1,1777,1786,0,0
560,-762,0,0,0,0,0,0,0,0,0,-1,1784,1786,0,0
567,-762,0,0,0,0,0,0,0,0,0,-1,1791,1786,0,0
574,-762,0,0,0,0,0,0,0,0,0,-1,1798,1786,0,0
581,-762,0,0,0,0,0,0,0,0,0,-1,1805,1786,0,0
588,-762,0,0,0,0,0,0,0,0,0,-1,1812,1786,0,0
595,-762,0,0,0,0,0,0,0,0,0,-1,1819,1786,0,0
602,-762,0,0,0,0,0,0,0,0,0,-1,1826,1786,0,0
609,-762,0,0,0,0,0,0,0,0,0,-1,1833,1786,0,0
616,-762,0,0,0,0,0,0,0,0,0,-1,1840,1786,0,0
623,-762,0,0,0,0,0,0,0,0,0,-1,1847,1786,0,0
630,-762,0,0,0,0,0,0,0,0,0,-1,1854,1786,0,0
637,-762,0,0,0,0,0,0,0,0,0,-1,1861,1786,0,0
644,-762,0,0,0,0,0,0,0,0,0,-1,1868,1786,0,0
651,-762,0,0,0,0,0,0,0,0,0,-1,1875,1786,0,0
658,-762,0,0,0,0,0,0,0,0,0,-1,1882,1786,0,0
665,-762,0,0,0,0,0,0,0,0,0,-1,1889,1786,0,0
672,-762,0,0,0,0,0,0,0,0,0,-1,1896,1786,0,0
679,-762,0,0,0,0,0,0,0,0,0,-1,1903,1786,0,0
686,-762,0,0,0,0,0,0,0,0,0,-1,1910,1786,0,0
693,-762,0,0,0,0,0,0,0,0,0,-1,1917,1786,0,0
700,-762,0,0,0,0,0,0,0,0,0,-1,1924,1786,0,0
707,-762,0,0,0,0,0,0,0,0,0,-1,1931,1786,0,0
714,-762,0,0,0,0,0,0,0,0,0,-1,1938,1786,0,0
721,-762,0,0,0,0,0,0,0,0,0,-1,1945,1786,0,0
728,-762,0,0,0,0,0,0,0,0,0,-1,1952,1786,0,0
735,-762,0,0,0,0,0,0,0,0,0,-1,1959,1786,0,0
742,-762,0,0,0,0,0,0,0,0,0,-1,1966,1786,0,0
749,-762,0,0,0,0,0,0,0,0,0,-1,1973,1786,0,0
756,-762,0,0,0,0,0,0,0,0,0,-1,1980,1786,0,0
763,-762,0,0,0,0,0,0,0,0,0,-1,1987,1786,0,0
770,-762,0,0,0,0,0,0,0,0,0,-1,1994,1786,0,0
777,-762,0,0,0,0,0,0,0,0,0,-1,2001,1786,0,0
784,-762,0,0,0,0,0,0,0,0,0,-1,2008,1786,0,0
791,-762,0,0,0,0,0,0,0,0,0,-1,2015,1786,0,0
798,-762,0,0,0,0,0,0,0,0,0,-1,2022,1786,0,0
805,-762,0,0,0,0,0,0,0,0,0,-1,2029,1786,0,0
812,-762,0,0,0,0,0,0,0,0,0,-1,2036,1786,0,0
-700,-769,0,0,0,0,0,0,0,0,0,-1,524,1793,0,0
-693,-769,0,0,0,0,0,0,0,0,0,-1,531,1793,0,0
-686,-769,0,0,0,0,0,0,0,0,0,-1,538,1793,0,0
-679,-769,0,0,0,0,0,0,0,0,0,-1,545,1793,0,0
-672,-769,0,0,0,0,0,0,0,0,0,-1,552,1793,0,0
-665,-769,0,0,0,0,0,0,0,0,0,-1,559,1793,0,0
-658,-769,0,0,0,0,0,0,0,0,0,-1,566,1793,0,0
-651,-769,0,0,0,0,0,0,0,0,0,-1,573,1793,0,0
-644,-769,0,0,0,0,0,0,0,0,0,-1,580,1793,0,0
-637,-769,0,0,0,0,0,0,0,0,0,-1,587,1793,0,0
-630,-769,0,0,0,0,0,0,0,0,0,-1,594,1793,0,0
-623,-769,0,0,0,0,0,0,0,0,0,-1,601,1793,0,0
-616,-769,0,0,0,0,0,0,0,0,0,-1,608,1793,0,0
-609,-769,0,0,0,0,0,0,0,0,0,-1,615,1793,0,0
-602,-769,0,0,0,0,0,0,0,0,0,-1,622,1793,0,0
-595,-769,0,0,0,0,0,0,0,0,0,-1,629,1793,0,0
-588,-769,0,0,0,0,0,0,0,0,0,-1,636,1793,0,0
-581,-769,0,0,0,0,0,0,0,0,0,-1,643,1793,0,0
-574,-769,0,0,0,0,0,0,0,0,0,-1,650,1793,0,0
-567,-769,0,0,0,0,0,0,0,0,0,-1,657,1793,0,0
-560,-769,0,0,0,0,0,0,0,0,0,-1,664,1793,0,0
-553,-769,0,0,0,0,0,0,0,0,0,-1,671,1793,0,0
-546,-769,0,0,0,0,0,0,0,0,0,-1,678,1793,0,0
-539,-769,0,0,0,0,0,0,0,0,0,-1,685,1793,0,0
-532,-769,0,0,0,0,0,0,0,0,0,-1,692,1793,0,0
-525,-769,0,0,0,0,0,0,0,0,0,-1,699,1793,0,0
-518,-769,0,0,0,0,0,0,0,0,0,-1,706,1793,0,0
-511,-769,0,0,0,0,0,0,0,0,0,-1,713,1793,0,0
-504,-769,0,0,0,0,0,0,0,0,0,-1,720,1793,0,0
-497,-769,0,0,0,0,0,0,0,0,0,-1,727,1793,0,0
-490,-769,0,0,0,0,0,0,0,0,0,-1,734,1793,0,0
-483,-769,0,0,0,0,0,0,0,0,0,-1,741,1793,0,0
-476,-769,0,0,0,0,0,0,0,0,0,-1,748,1793,0,0
-469,-769,0,0,0,0,0,0,0,0,0,-1,755,1793,0,0
-462,-769,0,0,0,0,0,0,0,0,0,-1,762,1793,0,0
-455,-769,0,0,0,0,0,0,0,0,0,-1,769,1793,0,0
-448,-769,0,0,0,0,0,0,0,0,0,-1,776,1793,0,0
-441,-769,0,0,0,0,0,0,0,0,0,-1,783,1793,0,0
-434,-769,0,0,0,0,0,0,0,0,0,-1,790,1793,0,0
-427,-769,0,0,0,0,0,0,0,0,0,-1,797,1793,0,0
-420,-769,0,0,0,0,0,0,0,0,0,-1,804,1793,0,0
-413,-769,0,0,0,0,0,0,0,0,0,-1,811,1793,0,0
-406,-769,0,0,0,0,0,0,0,0,0,-1,818,1793,0,0
-399,-769,0,0,0,0,0,0,0,0,0,-1,825,1793,0,0
-392,-769,0,0,0,0,0,0,0,0,0,-1,832,1793,0,0
-385,-769,0,0,0,0,0,0,0,0,0,-1,839,1793,0,0
-378,-769,0,0,0,0,0,0,0,0,0,-1,846,1793,0,0
-371,-769,0,0,0,0,0,0,0,0,0,-1,853,1793,0,0
-364,-769,0,0,0,0,0,0,0,0,0,-1,860,1793,0,0
-357,-769,0,0,0,0,0,0,0,0,0,-1,867,1793,0,0
-350,-769,0,0,0,0,0,0,0,0,0,-1,874,1793,0,0
-343,-769,0,0,0,0,0,0,0,0,0,-1,881,1793,0,0
-336,-769,0,0,0,0,0,0,0,0,0,-1,888,1793,0,0
-329,-769,0,0,0,0,0,0,0,0,0,-1,895,1793,0,0
-322,-769,0,0,0,0,0,0,0,0,0,-1,902,1793,0,0
-315,-769,0,0,0,0,0,0,0,0,0,-1,909,1793,0,0
-308,-769,0,0,0,0,0,0,0,0,0,-1,916,1793,0,0
-301,-769,0,0,0,0,0,0,0,0,0,-1,923,1793,0,0
-294,-769,0,0,0,0,0,0,0,0,0,-1,930,1793,0,0
-287,-769,0,0,0,0,0,0,0,0,0,-1,937,1793,0,0
-280,-769,0,0,0,0,0,0,0,0,0,-1,944,1793,0,0
-273,-769,0,0,0,0,0,0,0,0,0,-1,951,1793,0,0
-266,-769,0,0,0,0,0,0,0,0,0,-1,958,1793,0,0
-259,-769,0,0,0,0,0,0,0,0,0,-1,965,1793,0,0
-252,-769,0,0,0,0,0,0,0,0,0,-1,972,1793,0,0
-245,-769,0,0,0,0,0,0,0,0,0,-1,979,1793,0,0
-238,-769,0,0,0,0,0,0,0,0,0,-1,986,1793,0,0
-231,-769,0,0,0,0,0,0,0,0,0,-1,993,1793,0,0
-224,-769,0,0,0,0,0,0,0,0,0,-1,1000,1793,0,0
-217,-769,0,0,0,0,0,0,0,0,0,-1,1007,1793,0,0
-210,-769,0,0,0,0,0,0,0,0,0,-1,1014,1793,0,0
-203,-769,0,0,0,0,0,0,0,0,0,-1,1021,1793,0,0
-196,-769,0,0,0,0,0,0,0,0,0,-1,1028,1793,0,0
-189,-769,0,0,0,0,0,0,0,0,0,-1,1035,1793,0,0
-182,-769,0,0,0,0,0,0,0,0,0,-1,1042,1793,0,0
-175,-769,0,0,0,0,0,0,0,0,0,-1,1049,1793,0,0
-168,-769,0,0,0,0,0,0,0,0,0,-1,1056,1793,0,0
-161,-769,-3.61145,12.4761,0,0,0,0,0,0,0,-1,1063,1793,-3.6114,-12.476
-154,-769,-0.813232,5.32874,0,0,0,0,0,0,0,-1,1070,1793,-0.813269,-5.32872
-147,-769,4.26587,4.7002,0,0,0,0,0,0,0,-1,1077,1793,4.26593,-4.70022
-140,-769,4.10376,5.28589,0,0,0,0,0,0,0,-1,1084,1793,4.10371,-5.28584
-133,-769,6.422,8.21777,0,0,0,0,0,0,0,-1,1091,1793,6.42198,-8.21773
-126,-769,-0.352295,19.326,0,0,0,0,0,0,0,-1,1098,1793,-0.352235,-19.326
-119,-769,6.01685,16.2577,0,0,0,0,0,0,0,-1,1105,1793,6.01689,-16.2576
-112,-769,5.76416,27.2615,0,0,0,0,0,0,0,-1,1112,1793,5.7642,-27.2615
-105,-769,4.97009,22.8479,0,0,0,0,0,0,0,-1,1119,1793,4.97006,-22.8479
-98,-769,4.69373,18.9142,0,0,0,0,0,0,0,-1,1126,1793,4.69376,-18.9142
-91,-769,4.41748,14.9805,0,0,0,0,0,0,0,-1,1133,1793,4.41746,-14.9805
-84,-769,3.2207,12.4565,0,0,0,0,0,0,0,-1,1140,1793,3.22066,-12.4565
-77,-769,2.48816,8.98486,0,0,0,0,0,0,0,-1,1147,1793,2.48815,-8.98489
-70,-769,1.04944,11.9852,0,0,0,0,0,0,0,-1,1154,1793,1.04947,-11.9852
-63,-769,-2.39709,9.60339,0,0,0,0,0,0,0,-1,1161,1793,-2.39706,-9.6034
-56,-769,-5.84363,7.22156,0,0,0,0,0,0,0,-1,1168,1793,-5.84359,-7.22157
-49,-769,-2.41443,3.95471,0,0,0,0,0,0,0,-1,1175,1793,-2.41446,-3.95471
-42,-769,-3.1991,2.64941,0,0,0,0,0,0,0,-1,1182,1793,-3.19914,-2.64944
-35,-769,-3.50183,1.73389,0,0,0,0,0,0,0,-1,1189,1793,-3.50189,-1.7339
-28,-769,-3.96985,1.14075,0,0,0,0,0,0,0,-1,1196,1793,-3.96985,-1.14078
-21,-769,9.71558,46.531,0,0,0,0,0,0,0,-1,1203,1793,9.71561,-46.5311
-14,-769,10.7487,54.7123,0,0,0,0,0,0,0,-1,1210,1793,10.7487,-54.7123
-7,-769,9.8949,54.8713,0,0,0,0,0,0,0,-1,1217,1793,9.89493,-54.8714
0,-769,9.1897,55.5779,0,0,0,0,0,0,0,-1,1224,1793,9.18968,-55.5779
7,-769,9.61194,55.5391,-0.000172583,0.0581579,-0.00890408,0.0594868,-0.0015015,-1.42264,0.0401678,0.0484256,1231,1793,9.61199,-55.539
14,-769,9.45166,55.9069,-0.000123825,0.0607115,-0.0107309,0.0625489,-0.00196118,-1.40122,0.0423681,0.0459228,1238,1793,9.45171,-55.9068
21,-769,9.30994,56.239,-0.00012694,0.0626392,-0.0126135,0.0650792,-0.00256692,-1.37972,0.0442666,0.0469998,1245,1793,9.30997,-56.239
28,-769,9.11658,56.3722,-0.000631797,0.0644846,-0.0142247,0.0674563,-0.00360358,-1.36484,0.0462189,0.0424014,1252,1793,9.11662,-56.3721
35,-769,8.60339,56.286,-0.00148218,0.065864,-0.015468,0.0692467,-0.00486494,-1.35549,0.0478686,0.045215,1259,1793,8.60334,-56.286
42,-769,8.26086,56.8036,0,0,0,0,0,0,0,-1,1266,1793,8.26091,-56.8035
49,-769,9.04504,56.1144,-0.00320024,0.0679521,-0.0159068,0.0713463,-0.00659443,-1.36057,0.0499078,0.0458867,1273,1793,9.04499,-56.1143
56,-769,9.16345,55.5985,-0.00482371,0.0695732,-0.0154623,0.0726588,-0.00790933,-1.37383,0.0512794,0.0461371,1280,1793,9.16349,-55.5985
63,-769,9.06091,55.5166,-0.00726088,0.0719866,-0.0141214,0.0744278,-0.00970203,-1.39962,0.0531485,0.0489245,1287,1793,9.06097,-55.5166
70,-769,8.83301,55.8235,-0.0100883,0.0751185,-0.0121382,0.0768139,-0.0117837,-1.43202,0.0555553,0.0469798,1294,1793,8.83299,-55.8235
77,-769,8.92407,55.6608,-0.0136026,0.0784449,-0.00927552,0.0793703,-0.014528,-1.47136,0.0583621,0.047651,1301,1793,8.92411,-55.6607
84,-769,9.02515,55.5878,0,0,0,0,0,0,0,-1,1308,1793,9.02517,-55.5877
91,-769,7.27417,55.4111,0,0,0,0,0,0,0,-1,1315,1793,7.27416,-55.4112
98,-769,8.2124,57.0745,0,0,0,0,0,0,0,-1,1322,1793,8.21243,-57.0744
105,-769,7.95093,56.8999,0,0,0,0,0,0,0,-1,1329,1793,7.95094,-56.8998
112,-769,7.44226,57.2783,0,0,0,0,0,0,0,-1,1336,1793,7.44225,-57.2783
119,-769,7.15063,57.6,0,0,0,0,0,0,0,-1,1343,1793,7.15068,-57.5999
126,-769,6.77991,57.8877,0,0,0,0,0,0,0,-1,1350,1793,6.77989,-57.8877
133,-769,8.00269,55.755,0,0,0,0,0,0,0,-1,1357,1793,8.00274,-55.755
140,-769,7.66589,55.2469,0,0,0,0,0,0,0,-1,1364,1793,7.66585,-55.2469
147,-769,7.35437,55.661,0,0,0,0,0,0,0,-1,1371,1793,7.35442,-55.661
154,-769,8.1134,55.8298,0,0,0,0,0,0,0,-1,1378,1793,8.11336,-55.8299
161,-769,6.57019,1.53223,0,0,0,0,0,0,0,-1,1385,1793,6.57019,-1.53226
168,-769,8.27637,0.756958,0,0,0,0,0,0,0,-1,1392,1793,8.27639,-0.756944
175,-769,8.47144,2.41174,0,0,0,0,0,0,0,-1,1399,1793,8.47147,-2.4118
182,-769,8.41479,4.05994,0,0,0,0,0,0,0,-1,1406,1793,8.41479,-4.05997
189,-769,8.25049,5.68433,0,0,0,0,0,0,0,-1,1413,1793,8.25054,-5.68428
196,-769,7.97729,7.42847,0,0,0,0,0,0,0,-1,1420,1793,7.9773,-7.42848
203,-769,22.0977,6.73889,0,0,0,0,0,0,0,-1,1427,1793,22.0977,-6.7389
210,-769,22.1115,7.77246,0,0,0,0,0,0,0,-1,1434,1793,22.1115,-7.77248
217,-769,22.4723,8.79102,0,0,0,0,0,0,0,-1,1441,1793,22.4723,-8.79099
224,-769,22.1348,9.35278,0,0,0,0,0,0,0,-1,1448,1793,22.1348,-9.35283
231,-769,3.13318,19.7184,0,0,0,0,0,0,0,-1,1455,1793,3.13323,-19.7184
238,-769,5.74512,18.6597,0,0,0,0,0,0,0,-1,1462,1793,5.74512,-18.6596
245,-769,5.80798,22.87,0,0,0,0,0,0,0,-1,1469,1793,5.80796,-22.87
252,-769,6.20837,28.394,0,0,0,0,0,0,0,-1,1476,1793,6.20833,-28.3941
259,-769,10.974,17.7698,0,0,0,0,0,0,0,-1,1483,1793,10.974,-17.7698
266,-769,15.8488,7.3905,0,0,0,0,0,0,0,-1,1490,1793,15.8488,-7.39046
273,-769,14.8075,7.56152,0,0,0,0,0,0,0,-1,1497,1793,14.8075,-7.56152
280,-769,13.6519,7.43054,0,0,0,0,0,0,0,-1,1504,1793,13.6518,-7.43058
287,-769,0,0,0,0,0,0,0,0,0,-1,1511,1793,0,0
294,-769,0,0,0,0,0,0,0,0,0,-1,1518,1793,0,0
301,-769,0,0,0,0,0,0,0,0,0,-1,1525,1793,0,0
308,-769,0,0,0,0,0,0,0,0,0,-1,1532,1793,0,0
315,-769,0,0,0,0,0,0,0,0,0,-1,1539,1793,0,0
322,-769,0,0,0,0,0,0,0,0,0,-1,1546,1793,0,0
329,-769,0,0,0,0,0,0,0,0,0,-1,1553,1793,0,0
336,-769,0,0,0,0,0,0,0,0,0,-1,1560,1793,0,0
343,-769,0,0,0,0,0,0,0,0,0,-1,1567,1793,0,0
350,-769,0,0,0,0,0,0,0,0,0,-1,1574,1793,0,0
357,-769,0,0,0,0,0,0,0,0,0,-1,1581,1793,0,0
364,-769,0,0,0,0,0,0,0,0,0,-1,1588,1793,0,0
371,-769,0,0,0,0,0,0,0,0,0,-1,1595,1793,0,0
378,-769,0,0,0,0,0,0,0,0,0,-1,1602,1793,0,0
385,-769,0,0,0,0,0,0,0,0,0,-1,1609,1793,0,0
392,-769,0,0,0,0,0,0,0,0,0,-1,1616,1793,0,0
399,-769,0,0,0,0,0,0,0,0,0,-1,1623,1793,0,0
406,-769,0,0,0,0,0,0,0,0,0,-1,1630,1793,0,0
413,-769,0,0,0,0,0,0,0,0,0,-1,1637,1793,0,0
420,-769,0,0,0,0,0,0,0,0,0,-1,1644,1793,0,0
427,-769,0,0,0,0,0,0,0,0,0,-1,1651,1793,0,0
434,-769,0,0,0,0,0,0,0,0,0,-1,1658,1793,0,0
441,-769,0,0,0,0,0,0,0,0,0,-1,1665,1793,0,0
448,-769,0,0,0,0,0,0,0,0,0,-1,1672,1793,0,0
455,-769,0,0,0,0,0,0,0,0,0,-1,1679,1793,0,0
462,-769,0,0,0,0,0,0,0,0,0,-1,1686,1793,0,0
469,-769,0,0,0,0,0,0,0,0,0,-1,1693,1793,0,0
476,-769,0,0,0,0,0,0,0,0,0,-1,1700,1793,0,0
483,-769,0,0,0,0,0,0,0,0,0,-1,1707,1793,0,0
490,-769,0,0,0,0,0,0,0,0,0,-1,1714,1793,0,0
497,-769,0,0,0,0,0,0,0,0,0,-1,1721,1793,0,0
504,-769,0,0,0,0,0,0,0,0,0,-1,1728,1793,0,0
511,-769,0,0,0,0,0,0,0,0,0,-1,1735,1793,0,0
518,-769,0,0,0,0,0,0,0,0,0,-1,1742,1793,0,0
525,-769,0,0,0,0,0,0,0,0,0,-1,1749,1793,0,0
532,-769,0,0,0,0,0,0,0,0,0,-1,1756,1793,0,0
539,-769,0,0,0,0,0,0,0,0,0,-1,1763,1793,0,0
546,-769,0,0,0,0,0,0,0,0,0,-1,1770,1793,0,0
553,-769,0,0,0,0,0,0,0,0,0,-1,1777,1793,0,0
560,-769,0,0,0,0,0,0,0,0,0,-1,1784,1793,0,0
567,-769,0,0,0,0,0,0,0,0,0,-1,1791,1793,0,0
574,-769,0,0,0,0,0,0,0,0,0,-1,1798,1793,0,0
581,-769,0,0,0,0,0,0,0,0,0,-1,1805,1793,0,0
588,-769,0,0,0,0,0,0,0,0,0,-1,1812,1793,0,0
595,-769,0,0,0,0,0,0,0,0,0,-1,1819,1793,0,0
602,-769,0,0,0,0,0,0,0,0,0,-1,1826,1793,0,0
609,-769,0,0,0,0,0,0,0,0,0,-1,1833,1793,0,0
616,-769,0,0,0,0,0,0,0,0,0,-1,1840,1793,0,0
623,-769,0,0,0,0,0,0,0,0,0,-1,1847,1793,0,0
630,-769,0,0,0,0,0,0,0,0,0,-1,1854,1793,0,0
637,-769,0,0,0,0,0,0,0,0,0,-1,1861,1793,0,0
644,-769,0,0,0,0,0,0,0,0,0,-1,1868,1793,0,0
651,-769,0,0,0,0,0,0,0,0,0,-1,1875,1793,0,0
658,-769,0,0,0,0,0,0,0,0,0,-1,1882,1793,0,0
665,-769,0,0,0,0,0,0,0,0,0,-1,1889,1793,0,0
672,-769,0,0,0,0,0,0,0,0,0,-1,1896,1793,0,0
679,-769,0,0,0,0,0,0,0,0,0,-1,1903,1793,0,0
686,-769,0,0,0,0,0,0,0,0,0,-1,1910,1793,0,0
693,-769,0,0,0,0,0,0,0,0,0,-1,1917,1793,0,0
700,-769,0,0,0,0,0,0,0,0,0,-1,1924,1793,0,0
707,-769,0,0,0,0,0,0,0,0,0,-1,1931,1793,0,0
714,-769,0,0,0,0,0,0,0,0,0,-1,1938,1793,0,0
721,-769,0,0,0,0,0,0,0,0,0,-1,1945,1793,0,0
728,-769,0,0,0,0,0,0,0,0,0,-1,1952,1793,0,0
735,-769,0,0,0,0,0,0,0,0,0,-1,1959,1793,0,0
742,-769,0,0,0,0,0,0,0,0,0,-1,1966,1793,0,0
749,-769,0,0,0,0,0,0,0,0,0,-1,1973,1793,0,0
756,-769,0,0,0,0,0,0,0,0,0,-1,1980,1793,0,0
763,-769,0,0,0,0,0,0,0,0,0,-1,1987,1793,0,0
770,-769,0,0,0,0,0,0,0,0,0,-1,1994,1793,0,0
777,-769,0,0,0,0,0,0,0,0,0,-1,2001,1793,0,0
784,-769,0,0,0,0,0,0,0,0,0,-1,2008,1793,0,0
791,-769,0,0,0,0,0,0,0,0,0,-1,2015,1793,0,0
798,-769,0,0,0,0,0,0,0,0,0,-1,2022,1793,0,0
805,-769,0,0,0,0,0,0,0,0,0,-1,2029,1793,0,0
812,-769,0,0,0,0,0,0,0,0,0,-1,2036,1793,0,0
-700,-776,0,0,0,0,0,0,0,0,0,-1,524,1800,0,0
-693,-776,0,0,0,0,0,0,0,0,0,-1,531,1800,0,0
-686,-776,0,0,0,0,0,0,0,0,0,-1,538,1800,0,0
-679,-776,0,0,0,0,0,0,0,0,0,-1,545,1800,0,0
-672,-776,0,0,0,0,0,0,0,0,0,-1,552,1800,0,0
-665,-776,0,0,0,0,0,0,0,0,0,-1,559,1800,0,0
-658,-776,0,0,0,0,0,0,0,0,0,-1,566,1800,0,0
-651,-776,0,0,0,0,0,0,0,0,0,-1,573,1800,0,0
-644,-776,0,0,0,0,0,0,0,0,0,-1,580,1800,0,0
-637,-776,0,0,0,0,0,0,0,0,0,-1,587,1800,0,0
-630,-776,0,0,0,0,0,0,0,0,0,-1,594,1800,0,0
-623,-776,0,0,0,0,0,0,0,0,0,-1,601,1800,0,0
-616,-776,0,0,0,0,0,0,0,0,0,-1,608,1800,0,0
-609,-776,0,0,0,0,0,0,0,0,0,-1,615,1800,0,0
-602,-776,0,0,0,0,0,0,0,0,0,-1,622,1800,0,0
-595,-776,0,0,0,0,0,0,0,0,0,-1,629,1800,0,0
-588,-776,0,0,0,0,0,0,0,0,0,-1,636,1800,0,0
-581,-776,0,0,0,0,0,0,0,0,0,-1,643,1800,0,0
-574,-776,0,0,0,0,0,0,0,0,0,-1,650,1800,0,0
-567,-776,0,0,0,0,0,0,0,0,0,-1,657,1800,0,0
-560,-776,0,0,0,0,0,0,0,0,0,-1,664,1800,0,0
-553,-776,0,0,0,0,0,0,0,0,0,-1,671,1800,0,0
-546,-776,0,0,0,0,0,0,0,0,0,-1,678,1800,0,0
-539,-776,0,0,0,0,0,0,0,0,0,-1,685,1800,0,0
-532,-776,0,0,0,0,0,0,0,0,0,-1,692,1800,0,0
-525,-776,0,0,0,0,0,0,0,0,0,-1,699,1800,0,0
-518,-776,0,0,0,0,0,0,0,0,0,-1,706,1800,0,0
-511,-776,0,0,0,0,0,0,0,0,0,-1,713,1800,0,0
-504,-776,0,0,0,0,0,0,0,0,0,-1,720,1800,0,0
-497,-776,0,0,0,0,0,0,0,0,0,-1,727,1800,0,0
-490,-776,0,0,0,0,0,0,0,0,0,-1,734,1800,0,0
-483,-776,0,0,0,0,0,0,0,0,0,-1,741,1800,0,0
-476,-776,0,0,0,0,0,0,0,0,0,-1,748,1800,0,0
-469,-776,0,0,0,0,0,0,0,0,0,-1,755,1800,0,0
-462,-776,0,0,0,0,0,0,0,0,0,-1,762,1800,0,0
-455,-776,0,0,0,0,0,0,0,0,0,-1,769,1800,0,0
-448,-776,0,0,0,0,0,0,0,0,0,-1,776,1800,0,0
-441,-776,0,0,0,0,0,0,0,0,0,-1,783,1800,0,0
-434,-776,0,0,0,0,0,0,0,0,0,-1,790,1800,0,0
-427,-776,0,0,0,0,0,0,0,0,0,-1,797,1800,0,0
-420,-776,0,0,0,0,0,0,0,0,0,-1,804,1800,0,0
-413,-776,0,0,0,0,0,0,0,0,0,-1,811,1800,0,0
-406,-776,0,0,0,0,0,0,0,0,0,-1,818,1800,0,0
-399,-776,0,0,0,0,0,0,0,0,0,-1,825,1800,0,0
-392,-776,0,0,0,0,0,0,0,0,0,-1,832,1800,0,0
-385,-776,0,0,0,0,0,0,0,0,0,-1,839,1800,0,0
-378,-776,0,0,0,0,0,0,0,0,0,-1,846,1800,0,0
-371,-776,0,0,0,0,0,0,0,0,0,-1,853,1800,0,0
-364,-776,0,0,0,0,0,0,0,0,0,-1,860,1800,0,0
-357,-776,0,0,0,0,0,0,0,0,0,-1,867,1800,0,0
-350,-776,0,0,0,0,0,0,0,0,0,-1,874,1800,0,0
-343,-776,0,0,0,0,0,0,0,0,0,-1,881,1800,0,0
-336,-776,0,0,0,0,0,0,0,0,0,-1,888,1800,0,0
-329,-776,0,0,0,0,0,0,0,0,0,-1,895,1800,0,0
-322,-776,0,0,0,0,0,0,0,0,0,-1,902,1800,0,0
-315,-776,0,0,0,0,0,0,0,0,0,-1,909,1800,0,0
-308,-776,0,0,0,0,0,0,0,0,0,-1,916,1800,0,0
-301,-776,0,0,0,0,0,0,0,0,0,-1,923,1800,0,0
-294,-776,0,0,0,0,0,0,0,0,0,-1,930,1800,0,0
-287,-776,0,0,0,0,0,0,0,0,0,-1,937,1800,0,0
-280,-776,0,0,0,0,0,0,0,0,0,-1,944,1800,0,0
-273,-776,0,0,0,0,0,0,0,0,0,-1,951,1800,0,0
-266,-776,0,0,0,0,0,0,0,0,0,-1,958,1800,0,0
-259,-776,0,0,0,0,0,0,0,0,0,-1,965,1800,0,0
-252,-776,0,0,0,0,0,0,0,0,0,-1,972,1800,0,0
-245,-776,0,0,0,0,0,0,0,0,0,-1,979,1800,0,0
-238,-776,0,0,0,0,0,0,0,0,0,-1,986,1800,0,0
-231,-776,0,0,0,0,0,0,0,0,0,-1,993,1800,0,0
-224,-776,0,0,0,0,0,0,0,0,0,-1,1000,1800,0,0
-217,-776,0,0,0,0,0,0,0,0,0,-1,1007,1800,0,0
-210,-776,0,0,0,0,0,0,0,0,0,-1,1014,1800,0,0
-203,-776,0,0,0,0,0,0,0,0,0,-1,1021,1800,0,0
-196,-776,0,0,0,0,0,0,0,0,0,-1,1028,1800,0,0
-189,-776,0,0,0,0,0,0,0,0,0,-1,1035,1800,0,0
-182,-776,0,0,0,0,0,0,0,0,0,-1,1042,1800,0,0
-175,-776,0,0,0,0,0,0,0,0,0,-1,1049,1800,0,0
-168,-776,0,0,0,0,0,0,0,0,0,-1,1056,1800,0,0
-161,-776,0,0,0,0,0,0,0,0,0,-1,1063,1800,0,0
-154,-776,0,0,0,0,0,0,0,0,0,-1,1070,1800,0,0
-147,-776,0,0,0,0,0,0,0,0,0,-1,1077,1800,0,0
-140,-776,2.98499,5.20911,0,0,0,0,0,0,0,-1,1084,1800,2.98493,-5.2091
-133,-776,6.72363,9.35828,0,0,0,0,0,0,0,-1,1091,1800,6.72358,-9.35824
-126,-776,6.55029,13.7832,0,0,0,0,0,0,0,-1,1098,1800,6.55029,-13.7832
-119,-776,5.72107,13.7787,0,0,0,0,0,0,0,-1,1105,1800,5.72106,-13.7787
-112,-776,6.84998,20.4421,0,0,0,0,0,0,0,-1,1112,1800,6.84993,-20.4421
-105,-776,4.46863,24.6742,0,0,0,0,0,0,0,-1,1119,1800,4.46868,-24.6742
-98,-776,4.31616,19.7659,0,0,0,0,0,0,0,-1,1126,1800,4.31619,-19.7659
-91,-776,3.30225,18.134,0,0,0,0,0,0,0,-1,1133,1800,3.30222,-18.134
-84,-776,2.67932,14.3162,0,0,0,0,0,0,0,-1,1140,1800,2.67926,-14.3161
-77,-776,0.580078,11.1272,0,0,0,0,0,0,0,-1,1147,1800,0.58002,-11.1272
-70,-776,-0.562866,12.3163,0,0,0,0,0,0,0,-1,1154,1800,-0.562897,-12.3163
-63,-776,-3.96106,9.97656,0,0,0,0,0,0,0,-1,1161,1800,-3.961,-9.97654
-56,-776,-7.35913,7.63672,0,0,0,0,0,0,0,-1,1168,1800,-7.3591,-7.63676
-49,-776,-7.62952,3.1908,0,0,0,0,0,0,0,-1,1175,1800,-7.62955,-3.19076
-42,-776,-3.41272,3.0249,0,0,0,0,0,0,0,-1,1182,1800,-3.41269,-3.02488
-35,-776,-3.71753,1.63635,0,0,0,0,0,0,0,-1,1189,1800,-3.71755,-1.63631
-28,-776,-4.03979,0.716064,0,0,0,0,0,0,0,-1,1196,1800,-4.03977,-0.716055
-21,-776,9.49951,55.0894,0,0,0,0,0,0,0,-1,1203,1800,9.49955,-55.0893
-14,-776,8.4563,60.3981,0,0,0,0,0,0,0,-1,1210,1800,8.45629,-60.3981
-7,-776,8.85437,58.9343,0,0,0,0,0,0,0,-1,1217,1800,8.85434,-58.9343
0,-776,9.88623,55.0707,0,0,0,0,0,0,0,-1,1224,1800,9.88619,-55.0707
7,-776,9.67908,55.5481,0,0,0,0,0,0,0,-1,1231,1800,9.67909,-55.5481
14,-776,9.43994,55.8145,0.00437872,0.0934443,-0.0167242,0.0964811,0.00134191,-1.39117,0.0638782,0.0462007,1238,1800,9.43997,-55.8145
21,-776,9.28735,56.1771,0.00403725,0.0941829,-0.0189265,0.0979954,0.000224769,-1.37202,0.0652555,0.0447239,1245,1800,9.28738,-56.1771
28,-776,9.05127,56.5208,0.00297711,0.0945537,-0.0206351,0.0989886,-0.00145784,-1.35909,0.0664837,0.0427615,1252,1800,9.0513,-56.5207
35,-776,8.59448,56.5244,0.0013661,0.0940577,-0.0217679,0.0989152,-0.00349138,-1.35124,0.0671375,0.0431403,1259,1800,8.59451,-56.5244
42,-776,8.36633,56.7195,-0.000198665,0.0929001,-0.0220088,0.0978408,-0.00513941,-1.34997,0.0670061,0.0478192,1266,1800,8.3663,-56.7195
49,-776,8.16724,56.9554,0,0,0,0,0,0,0,-1,1273,1800,8.16719,-56.9554
56,-776,9.4729,55.1104,-0.00457014,0.0923929,-0.0204429,0.0965267,-0.00870391,-1.37128,0.0674399,0.042922,1280,1800,9.4729,-55.1104
63,-776,9.19324,54.7306,-0.0080168,0.0938785,-0.0183999,0.0970993,-0.0112376,-1.39751,0.0687854,0.0472314,1287,1800,9.19321,-54.7305
70,-776,9.09302,54.7958,0,0,0,0,0,0,0,-1,1294,1800,9.09299,-54.7957
77,-776,8.93994,55.2367,0,0,0,0,0,0,0,-1,1301,1800,8.93998,-55.2366
84,-776,7.91272,55.1199,0,0,0,0,0,0,0,-1,1308,1800,7.91271,-55.1199
91,-776,7.95532,55.1281,-0.0267593,0.104163,-0.00376936,0.104271,-0.0268678,-1.54204,0.0799884,0.0462052,1315,1800,7.9553,-55.128
98,-776,8.37988,56.1783,-0.033066,0.107621,0.00139596,0.107634,-0.0330799,1.56088,0.0849575,0.0467629,1322,1800,8.37988,-56.1784
105,-776,7.94385,56.3523,0,0,0,0,0,0,0,-1,1329,1800,7.94383,-56.3523
112,-776,7.44067,56.7222,-0.0431312,0.118224,0.00871596,0.118694,-0.0436007,1.51699,0.0969864,0.048647,1336,1800,7.44073,-56.7222
119,-776,6.8822,56.9854,-0.0489921,0.121197,0.0127669,0.122149,-0.0499445,1.49634,0.102232,0.0466103,1343,1800,6.88216,-56.9854
126,-776,6.37097,57.463,-0.0550979,0.121414,0.017035,0.123043,-0.0567269,1.47546,0.106118,0.0465166,1350,1800,6.37092,-57.463
133,-776,6.04138,58.1311,0,0,0,0,0,0,0,-1,1357,1800,6.04144,-58.1311
140,-776,4.11194,59.8776,0,0,0,0,0,0,0,-1,1364,1800,4.11189,-59.8776
147,-776,6.69141,55.6758,0,0,0,0,0,0,0,-1,1371,1800,6.69139,-55.6757
154,-776,38.4338,21.854,0,0,0,0,0,0,0,-1,1378,1800,38.4339,-21.854
161,-776,6.50293,1.1731,0,0,0,0,0,0,0,-1,1385,1800,6.5029,-1.17313
168,-776,8.44971,1.22913,0,0,0,0,0,0,0,-1,1392,1800,8.44974,-1.22915
175,-776,8.61523,2.87061,0,0,0,0,0,0,0,-1,1399,1800,8.6152,-2.87063
182,-776,8.54065,4.60645,0,0,0,0,0,0,0,-1,1406,1800,8.5407,-4.60643
189,-776,8.35303,6.28223,0,0,0,0,0,0,0,-1,1413,1800,8.35297,-6.28225
196,-776,8.0387,8.21704,0,0,0,0,0,0,0,-1,1420,1800,8.03865,-8.217
203,-776,7.91736,9.79919,0,0,0,0,0,0,0,-1,1427,1800,7.91735,-9.79922
210,-776,20.2479,7.85718,0,0,0,0,0,0,0,-1,1434,1800,20.248,-7.85719
217,-776,21.5171,9.3418,0,0,0,0,0,0,0,-1,1441,1800,21.5171,-9.34182
224,-776,3.09253,14.9313,0,0,0,0,0,0,0,-1,1448,1800,3.09254,-14.9313
231,-776,20.8671,9.21057,0,0,0,0,0,0,0,-1,1455,1800,20.867,-9.21054
238,-776,20.7511,9.05847,0,0,0,0,0,0,0,-1,1462,1800,20.7511,-9.05848
245,-776,3.80823,15.4108,0,0,0,0,0,0,0,-1,1469,1800,3.80826,-15.4108
252,-776,8.57837,20.2009,0,0,0,0,0,0,0,-1,1476,1800,8.57841,-20.2009
259,-776,14.1882,7.69055,0,0,0,0,0,0,0,-1,1483,1800,14.1882,-7.69061
266,-776,0,0,0,0,0,0,0,0,0,-1,1490,1800,0,0
273,-776,0,0,0,0,0,0,0,0,0,-1,1497,1800,0,0
280,-776,0,0,0,0,0,0,0,0,0,-1,1504,1800,0,0
287,-776,0,0,0,0,0,0,0,0,0,-1,1511,1800,0,0
294,-776,0,0,0,0,0,0,0,0,0,-1,1518,1800,0,0
301,-776,0,0,0,0,0,0,0,0,0,-1,1525,1800,0,0
308,-776,0,0,0,0,0,0,0,0,0,-1,1532,1800,0,0
315,-776,0,0,0,0,0,0,0,0,0,-1,1539,1800,0,0
322,-776,0,0,0,0,0,0,0,0,0,-1,1546,1800,0,0
329,-776,0,0,0,0,0,0,0,0,0,-1,1553,1800,0,0
336,-776,0,0,0,0,0,0,0,0,0,-1,1560,1800,0,0
343,-776,0,0,0,0,0,0,0,0,0,-1,1567,1800,0,0
350,-776,0,0,0,0,0,0,0,0,0,-1,1574,1800,0,0
357,-776,0,0,0,0,0,0,0,0,0,-1,1581,1800,0,0
364,-776,0,0,0,0,0,0,0,0,0,-1,1588,1800,0,0
371,-776,0,0,0,0,0,0,0,0,0,-1,1595,1800,0,0
378,-776,0,0,0,0,0,0,0,0,0,-1,1602,1800,0,0
385,-776,0,0,0,0,0,0,0,0,0,-1,1609,1800,0,0
392,-776,0,0,0,0,0,0,0,0,0,-1,1616,1800,0,0
399,-776,0,0,0,0,0,0,0,0,0,-1,1623,1800,0,0
406,-776,0,0,0,0,0,0,0,0,0,-1,1630,1800,0,0
413,-776,0,0,0,0,0,0,0,0,0,-1,1637,1800,0,0
420,-776,0,0,0,0,0,0,0,0,0,-1,1644,1800,0,0
427,-776,0,0,0,0,0,0,0,0,0,-1,1651,1800,0,0
434,-776,0,0,0,0,0,0,0,0,0,-1,1658,1800,0,0
441,-776,0,0,0,0,0,0,0,0,0,-1,1665,1800,0,0
448,-776,0,0,0,0,0,0,0,0,0,-1,1672,1800,0,0
455,-776,0,0,0,0,0,0,0,0,0,-1,1679,1800,0,0
462,-776,0,0,0,0,0,0,0,0,0,-1,1686,1800,0,0
469,-776,0,0,0,0,0,0,0,0,0,-1,1693,1800,0,0
476,-776,0,0,0,0,0,0,0,0,0,-1,1700,1800,0,0
483,-776,0,0,0,0,0,0,0,0,0,-1,1707,1800,0,0
490,-776,0,0,0,0,0,0,0,0,0,-1,1714,1800,0,0
497,-776,0,0,0,0,0,0,0,0,0,-1,1721,1800,0,0
504,-776,0,0,0,0,0,0,0,0,0,-1,1728,1800,0,0
511,-776,0,0,0,0,0,0,0,0,0,-1,1735,1800,0,0
518,-776,0,0,0,0,0,0,0,0,0,-1,1742,1800,0,0
525,-776,0,0,0,0,0,0,0,0,0,-1,1749,1800,0,0
532,-776,0,0,0,0,0,0,0,0,0,-1,1756,1800,0,0
539,-776,0,0,0,0,0,0,0,0,0,-1,1763,1800,0,0
546,-776,0,0,0,0,0,0,0,0,0,-1,1770,1800,0,0
553,-776,0,0,0,0,0,0,0,0,0,-1,1777,1800,0,0
560,-776,0,0,0,0,0,0,0,0,0,-1,1784,1800,0,0
567,-776,0,0,0,0,0,0,0,0,0,-1,1791,1800,0,0
574,-776,0,0,0,0,0,0,0,0,0,-1,1798,1800,0,0
581,-776,0,0,0,0,0,0,0,0,0,-1,1805,1800,0,0
588,-776,0,0,0,0,0,0,0,0,0,-1,1812,1800,0,0
595,-776,0,0,0,0,0,0,0,0,0,-1,1819,1800,0,0
602,-776,0,0,0,0,0,0,0,0,0,-1,1826,1800,0,0
609,-776,0,0,0,0,0,0,0,0,0,-1,1833,1800,0,0
616,-776,0,0,0,0,0,0,0,0,0,-1,1840,1800,0,0
623,-776,0,0,0,0,0,0,0,0,0,-1,1847,1800,0,0
630,-776,0,0,0,0,0,0,0,0,0,-1,1854,1800,0,0
637,-776,0,0,0,0,0,0,0,0,0,-1,1861,1800,0,0
644,-776,0,0,0,0,0,0,0,0,0,-1,1868,1800,0,0
651,-776,0,0,0,0,0,0,0,0,0,-1,1875,1800,0,0
658,-776,0,0,0,0,0,0,0,0,0,-1,1882,1800,0,0
665,-776,0,0,0,0,0,0,0,0,0,-1,1889,1800,0,0
672,-776,0,0,0,0,0,0,0,0,0,-1,1896,1800,0,0
679,-776,0,0,0,0,0,0,0,0,0,-1,1903,1800,0,0
686,-776,0,0,0,0,0,0,0,0,0,-1,1910,1800,0,0
693,-776,0,0,0,0,0,0,0,0,0,-1,1917,1800,0,0
700,-776,0,0,0,0,0,0,0,0,0,-1,1924,1800,0,0
707,-776,0,0,0,0,0,0,0,0,0,-1,1931,1800,0,0
714,-776,0,0,0,0,0,0,0,0,0,-1,1938,1800,0,0
721,-776,0,0,0,0,0,0,0,0,0,-1,1945,1800,0,0
728,-776,0,0,0,0,0,0,0,0,0,-1,1952,1800,0,0
735,-776,0,0,0,0,0,0,0,0,0,-1,1959,1800,0,0
742,-776,0,0,0,0,0,0,0,0,0,-1,1966,1800,0,0
749,-776,0,0,0,0,0,0,0,0,0,-1,1973,1800,0,0
756,-776,0,0,0,0,0,0,0,0,0,-1,1980,1800,0,0
763,-776,0,0,0,0,0,0,0,0,0,-1,1987,1800,0,0
770,-776,0,0,0,0,0,0,0,0,0,-1,1994,1800,0,0
777,-776,0,0,0,0,0,0,0,0,0,-1,2001,1800,0,0
784,-776,0,0,0,0,0,0,0,0,0,-1,2008,1800,0,0
791,-776,0,0,0,0,0,0,0,0,0,-1,2015,1800,0,0
798,-776,0,0,0,0,0,0,0,0,0,-1,2022,1800,0,0
805,-776,0,0,0,0,0,0,0,0,0,-1,2029,1800,0,0
812,-776,0,0,0,0,0,0,0,0,0,-1,2036,1800,0,0
-700,-783,0,0,0,0,0,0,0,0,0,-1,524,1807,0,0
-693,-783,0,0,0,0,0,0,0,0,0,-1,531,1807,0,0
-686,-783,0,0,0,0,0,0,0,0,0,-1,538,1807,0,0
-679,-783,0,0,0,0,0,0,0,0,0,-1,545,1807,0,0
-672,-783,0,0,0,0,0,0,0,0,0,-1,552,1807,0,0
-665,-783,0,0,0,0,0,0,0,0,0,-1,559,1807,0,0
-658,-783,0,0,0,0,0,0,0,0,0,-1,566,1807,0,0
-651,-783,0,0,0,0,0,0,0,0,0,-1,573,1807,0,0
-644,-783,0,0,0,0,0,0,0,0,0,-1,580,1807,0,0
-637,-783,0,0,0,0,0,0,0,0,0,-1,587,1807,0,0
-630,-783,0,0,0,0,0,0,0,0,0,-1,594,1807,0,0
-623,-783,0,0,0,0,0,0,0,0,0,-1,601,1807,0,0
-616,-783,0,0,0,0,0,0,0,0,0,-1,608,1807,0,0
-609,-783,0,0,0,0,0,0,0,0,0,-1,615,1807,0,0
-602,-783,0,0,0,0,0,0,0,0,0,-1,622,1807,0,0
-595,-783,0,0,0,0,0,0,0,0,0,-1,629,1807,0,0
-588,-783,0,0,0,0,0,0,0,0,0,-1,636,1807,0,0
-581,-783,0,0,0,0,0,0,0,0,0,-1,643,1807,0,0
-574,-783,0,0,0,0,0,0,0,0,0,-1,650,1807,0,0
-567,-783,0,0,0,0,0,0,0,0,0,-1,657,1807,0,0
-560,-783,0,0,0,0,0,0,0,0,0,-1,664,1807,0,0
-553,-783,0,0,0,0,0,0,0,0,0,-1,671,1807,0,0
-546,-783,0,0,0,0,0,0,0,0,0,-1,678,1807,0,0
-539,-783,0,0,0,0,0,0,0,0,0,-1,685,1807,0,0
-532,-783,0,0,0,0,0,0,0,0,0,-1,692,1807,0,0
-525,-783,0,0,0,0,0,0,0,0,0,-1,699,1807,0,0
-518,-783,0,0,0,0,0,0,0,0,0,-1,706,1807,0,0
-511,-783,0,0,0,0,0,0,0,0,0,-1,713,1807,0,0
-504,-783,0,0,0,0,0,0,0,0,0,-1,720,1807,0,0
-497,-783,0,0,0,0,0,0,0,0,0,-1,727,1807,0,0
-490,-783,0,0,0,0,0,0,0,0,0,-1,734,1807,0,0
-483,-783,0,0,0,0,0,0,0,0,0,-1,741,1807,0,0
-476,-783,0,0,0,0,0,0,0,0,0,-1,748,1807,0,0
-469,-783,0,0,0,0,0,0,0,0,0,-1,755,1807,0,0
-462,-783,0,0,0,0,0,0,0,0,0,-1,762,1807,0,0
-455,-783,0,0,0,0,0,0,0,0,0,-1,769,1807,0,0
-448,-783,0,0,0,0,0,0,0,0,0,-1,776,1807,0,0
-441,-783,0,0,0,0,0,0,0,0,0,-1,783,1807,0,0
-434,-783,0,0,0,0,0,0,0,0,0,-1,790,1807,0,0
-427,-783,0,0,0,0,0,0,0,0,0,-1,797,1807,0,0
-420,-783,0,0,0,0,0,0,0,0,0,-1,804,1807,0,0
-413,-783,0,0,0,0,0,0,0,0,0,-1,811,1807,0,0
-406,-783,0,0,0,0,0,0,0,0,0,-1,818,1807,0,0
-399,-783,0,0,0,0,0,0,0,0,0,-1,825,1807,0,0
-392,-783,0,0,0,0,0,0,0,0,0,-1,832,1807,0,0
-385,-783,0,0,0,0,0,0,0,0,0,-1,839,1807,0,0
-378,-783,0,0,0,0,0,0,0,0,0,-1,846,1807,0,0
-371,-783,0,0,0,0,0,0,0,0,0,-1,853,1807,0,0
-364,-783,0,0,0,0,0,0,0,0,0,-1,860,1807,0,0
-357,-783,0,0,0,0,0,0,0,0,0,-1,867,1807,0,0
-350,-783,0,0,0,0,0,0,0,0,0,-1,874,1807,0,0
-343,-783,0,0,0,0,0,0,0,0,0,-1,881,1807,0,0
-336,-783,0,0,0,0,0,0,0,0,0,-1,888,1807,0,0
-329,-783,0,0,0,0,0,0,0,0,0,-1,895,1807,0,0
-322,-783,0,0,0,0,0,0,0,0,0,-1,902,1807,0,0
-315,-783,0,0,0,0,0,0,0,0,0,-1,909,1807,0,0
-308,-783,0,0,0,0,0,0,0,0,0,-1,916,1807,0,0
-301,-783,0,0,0,0,0,0,0,0,0,-1,923,1807,0,0
-294,-783,0,0,0,0,0,0,0,0,0,-1,930,1807,0,0
-287,-783,0,0,0,0,0,0,0,0,0,-1,937,1807,0,0
-280,-783,0,0,0,0,0,0,0,0,0,-1,944,1807,0,0
-273,-783,0,0,0,0,0,0,0,0,0,-1,951,1807,0,0
-266,-783,0,0,0,0,0,0,0,0,0,-1,958,1807,0,0
-259,-783,0,0,0,0,0,0,0,0,0,-1,965,1807,0,0
-252,-783,0,0,0,0,0,0,0,0,0,-1,972,1807,0,0
-245,-783,0,0,0,0,0,0,0,0,0,-1,979,1807,0,0
-238,-783,0,0,0,0,0,0,0,0,0,-1,986,1807,0,0
-231,-783,0,0,0,0,0,0,0,0,0,-1,993,1807,0,0
-224,-783,0,0,0,0,0,0,0,0,0,-1,1000,1807,0,0
-217,-783,0,0,0,0,0,0,0,0,0,-1,1007,1807,0,0
-210,-783,0,0,0,0,0,0,0,0,0,-1,1014,1807,0,0
-203,-783,0,0,0,0,0,0,0,0,0,-1,1021,1807,0,0
-196,-783,0,0,0,0,0,0,0,0,0,-1,1028,1807,0,0
-189,-783,0,0,0,0,0,0,0,0,0,-1,1035,1807,0,0
-182,-783,0,0,0,0,0,0,0,0,0,-1,1042,1807,0,0
-175,-783,0,0,0,0,0,0,0,0,0,-1,1049,1807,0,0
-168,-783,0,0,0,0,0,0,0,0,0,-1,1056,1807,0,0
-161,-783,0,0,0,0,0,0,0,0,0,-1,1063,1807,0,0
-154,-783,0,0,0,0,0,0,0,0,0,-1,1070,1807,0,0
-147,-783,0,0,0,0,0,0,0,0,0,-1,1077,1807,0,0
-140,-783,0,0,0,0,0,0,0,0,0,-1,1084,1807,0,0
-133,-783,0,0,0,0,0,0,0,0,0,-1,1091,1807,0,0
-126,-783,0,0,0,0,0,0,0,0,0,-1,1098,1807,0,0
-119,-783,0,0,0,0,0,0,0,0,0,-1,1105,1807,0,0
-112,-783,5.33936,14.7699,0,0,0,0,0,0,0,-1,1112,1807,5.33931,-14.7699
-105,-783,6.44263,21.2224,0,0,0,0,0,0,0,-1,1119,1807,6.44263,-21.2224
-98,-783,5.54773,20.5695,0,0,0,0,0,0,0,-1,1126,1807,5.54772,-20.5695
-91,-783,2.6106,20.2491,0,0,0,0,0,0,0,-1,1133,1807,2.61056,-20.2492
-84,-783,-0.0491943,14.5743,0,0,0,0,0,0,0,-1,1140,1807,-0.0491562,-14.5743
-77,-783,0.332764,12.7788,0,0,0,0,0,0,0,-1,1147,1807,0.332743,-12.7788
-70,-783,-1.93176,5.12817,0,0,0,0,0,0,0,-1,1154,1807,-1.93171,-5.12813
-63,-783,-5.31702,10.54,0,0,0,0,0,0,0,-1,1161,1807,-5.31703,-10.54
-56,-783,-6.26135,6.9679,0,0,0,0,0,0,0,-1,1168,1807,-6.26136,-6.96785
-49,-783,-3.17688,4.59705,0,0,0,0,0,0,0,-1,1175,1807,-3.17685,-4.5971
-42,-783,-3.72876,3.1405,0,0,0,0,0,0,0,-1,1182,1807,-3.72874,-3.14055
-35,-783,-3.97046,1.59399,0,0,0,0,0,0,0,-1,1189,1807,-3.97041,-1.59401
-28,-783,-4.12195,0.270386,0,0,0,0,0,0,0,-1,1196,1807,-4.12197,-0.270408
-21,-783,7.87305,61.8094,0,0,0,0,0,0,0,-1,1203,1807,7.8731,-61.8094
-14,-783,8.52039,60.234,0,0,0,0,0,0,0,-1,1210,1807,8.52034,-60.234
-7,-783,9.13464,58.6742,0,0,0,0,0,0,0,-1,1217,1807,9.13459,-58.6742
0,-783,9.69299,57.0247,0,0,0,0,0,0,0,-1,1224,1807,9.69293,-57.0247
7,-783,9.74963,55.6559,0,0,0,0,0,0,0,-1,1231,1807,9.74962,-55.6559
14,-783,9.50537,55.8682,0.0110945,0.139903,-0.0247186,0.144484,0.00651389,-1.38756,0.0942265,0.0481655,1238,1807,9.50539,-55.8682
21,-783,9.27271,56.1749,0.0102183,0.138135,-0.027206,0.143681,0.00467242,-1.3697,0.0942684,0.0463401,1245,1807,9.27275,-56.1749
28,-783,9.1637,56.6284,0,0,0,0,0,0,0,-1,1252,1807,9.16366,-56.6284
35,-783,8.71484,56.3748,0.00564108,0.131493,-0.0296803,0.138142,-0.00100735,-1.35043,0.092432,0.0459338,1259,1807,8.71487,-56.3747
42,-783,8.8031,56.3965,0.00280462,0.126764,-0.029419,0.133391,-0.003823,-1.34921,0.090229,0.0475824,1266,1807,8.8031,-56.3964
49,-783,8.85962,56.5031,0,0,0,0,0,0,0,-1,1273,1807,8.85962,-56.5031
56,-783,9.39343,53.9661,-0.00399709,0.119982,-0.0263234,0.12534,-0.00935461,-1.37001,0.0868461,0.0465429,1280,1807,9.39337,-53.966
63,-783,9.2876,53.9609,-0.00869265,0.119533,-0.0233803,0.123663,-0.0128227,-1.39595,0.0870316,0.0468849,1287,1807,9.28761,-53.9609
70,-783,9.19385,53.9691,0,0,0,0,0,0,0,-1,1294,1807,9.19387,-53.9691
77,-783,8.65186,54.2634,-0.0198311,0.124065,-0.0149843,0.125609,-0.0213749,-1.46813,0.0916984,0.0466613,1301,1807,8.65182,-54.2635
84,-783,8.39404,54.4639,-0.0257379,0.128595,-0.0107739,0.129344,-0.0264864,-1.50144,0.0962801,0.045396,1308,1807,8.39408,-54.4639
91,-783,8.58667,54.8579,-0.0329589,0.12831,-0.00469174,0.128447,-0.0330952,-1.54174,0.0985333,0.0422185,1315,1807,8.58669,-54.8579
98,-783,8.73779,55.1589,-0.0409041,0.133847,0.00146322,0.13386,-0.0409164,1.56242,0.105556,0.0458631,1322,1807,8.73783,-55.1589
105,-783,8.92993,55.2872,0,0,0,0,0,0,0,-1,1329,1807,8.92993,-55.2872
112,-783,7.32727,55.899,-0.0541321,0.149943,0.0104359,0.150475,-0.0546644,1.51984,0.122668,0.0470141,1336,1807,7.32732,-55.899
119,-783,6.55457,56.0306,-0.062229,0.155042,0.0157034,0.156171,-0.0633581,1.49902,0.130466,0.043946,1343,1807,6.55451,-56.0307
126,-783,5.52661,56.6526,-0.0707113,0.156194,0.0213723,0.158189,-0.0727068,1.4777,0.136319,0.047485,1350,1807,5.52656,-56.6526
133,-783,4.56763,57.3385,0,0,0,0,0,0,0,-1,1357,1807,4.56757,-57.3385
140,-783,4.27686,59.3983,0,0,0,0,0,0,0,-1,1364,1807,4.2769,-59.3983
147,-783,15.1754,55.6388,0,0,0,0,0,0,0,-1,1371,1807,15.1754,-55.6388
154,-783,38.2109,17.545,0,0,0,0,0,0,0,-1,1378,1807,38.2109,-17.545
161,-783,39.5087,17.5449,0,0,0,0,0,0,0,-1,1385,1807,39.5087,-17.545
168,-783,8.62561,1.79944,0,0,0,0,0,0,0,-1,1392,1807,8.62561,-1.79946
175,-783,8.78699,3.40857,0,0,0,0,0,0,0,-1,1399,1807,8.78697,-3.40854
182,-783,8.70984,5.14661,0,0,0,0,0,0,0,-1,1406,1807,8.70989,-5.14666
189,-783,8.55762,6.79871,0,0,0,0,0,0,0,-1,1413,1807,8.55766,-6.79872
196,-783,8.25488,8.66626,0,0,0,0,0,0,0,-1,1420,1807,8.25492,-8.66628
203,-783,7.86755,10.5735,0,0,0,0,0,0,0,-1,1427,1807,7.8676,-10.5734
210,-783,5.6969,8.99231,0,0,0,0,0,0,0,-1,1434,1807,5.69693,-8.99234
217,-783,5.28503,3.80872,0,0,0,0,0,0,0,-1,1441,1807,5.285,-3.80868
224,-783,3.22571,6.62903,0,0,0,0,0,0,0,-1,1448,1807,3.2257,-6.62907
231,-783,4.27942,4.56262,0,0,0,0,0,0,0,-1,1455,1807,4.27948,-4.56267
238,-783,0,0,0,0,0,0,0,0,0,-1,1462,1807,0,0
245,-783,0,0,0,0,0,0,0,0,0,-1,1469,1807,0,0
252,-783,0,0,0,0,0,0,0,0,0,-1,1476,1807,0,0
259,-783,0,0,0,0,0,0,0,0,0,-1,1483,1807,0,0
266,-783,0,0,0,0,0,0,0,0,0,-1,1490,1807,0,0
273,-783,0,0,0,0,0,0,0,0,0,-1,1497,1807,0,0
280,-783,0,0,0,0,0,0,0,0,0,-1,1504,1807,0,0
287,-783,0,0,0,0,0,0,0,0,0,-1,1511,1807,0,0
294,-783,0,0,0,0,0,0,0,0,0,-1,1518,1807,0,0
301,-783,0,0,0,0,0,0,0,0,0,-1,1525,1807,0,0
308,-783,0,0,0,0,0,0,0,0,0,-1,1532,1807,0,0
315,-783,0,0,0,0,0,0,0,0,0,-1,1539,1807,0,0
322,-783,0,0,0,0,0,0,0,0,0,-1,1546,1807,0,0
329,-783,0,0,0,0,0,0,0,0,0,-1,1553,1807,0,0
336,-783,0,0,0,0,0,0,0,0,0,-1,1560,1807,0,0
343,-783,0,0,0,0,0,0,0,0,0,-1,1567,1807,0,0
350,-783,0,0,0,0,0,0,0,0,0,-1,1574,1807,0,0
357,-783,0,0,0,0,0,0,0,0,0,-1,1581,1807,0,0
364,-783,0,0,0,0,0,0,0,0,0,-1,1588,1807,0,0
371,-783,0,0,0,0,0,0,0,0,0,-1,1595,1807,0,0
378,-783,0,0,0,0,0,0,0,0,0,-1,1602,1807,0,0
385,-783,0,0,0,0,0,0,0,0,0,-1,1609,1807,0,0
392,-783,0,0,0,0,0,0,0,0,0,-1,1616,1807,0,0
399,-783,0,0,0,0,0,0,0,0,0,-1,1623,1807,0,0
406,-783,0,0,0,0,0,0,0,0,0,-1,1630,1807,0,0
413,-783,0,0,0,0,0,0,0,0,0,-1,1637,1807,0,0
420,-783,0,0,0,0,0,0,0,0,0,-1,1644,1807,0,0
427,-783,0,0,0,0,0,0,0,0,0,-1,1651,1807,0,0
434,-783,0,0,0,0,0,0,0,0,0,-1,1658,1807,0,0
441,-783,0,0,0,0,0,0,0,0,0,-1,1665,1807,0,0
448,-783,0,0,0,0,0,0,0,0,0,-1,1672,1807,0,0
455,-783,0,0,0,0,0,0,0,0,0,-1,1679,1807,0,0
462,-783,0,0,0,0,0,0,0,0,0,-1,1686,1807,0,0
469,-783,0,0,0,0,0,0,0,0,0,-1,1693,1807,0,0
476,-783,0,0,0,0,0,0,0,0,0,-1,1700,1807,0,0
483,-783,0,0,0,0,0,0,0,0,0,-1,1707,1807,0,0
490,-783,0,0,0,0,0,0,0,0,0,-1,1714,1807,0,0
497,-783,0,0,0,0,0,0,0,0,0,-1,1721,1807,0,0
504,-783,0,0,0,0,0,0,0,0,0,-1,1728,1807,0,0
511,-783,0,0,0,0,0,0,0,0,0,-1,1735,1807,0,0
518,-783,0,0,0,0,0,0,0,0,0,-1,1742,1807,0,0
525,-783,0,0,0,0,0,0,0,0,0,-1,1749,1807,0,0
532,-783,0,0,0,0,0,0,0,0,0,-1,1756,1807,0,0
539,-783,0,0,0,0,0,0,0,0,0,-1,1763,1807,0,0
546,-783,0,0,0,0,0,0,0,0,0,-1,1770,1807,0,0
553,-783,0,0,0,0,0,0,0,0,0,-1,1777,1807,0,0
560,-783,0,0,0,0,0,0,0,0,0,-1,1784,1807,0,0
567,-783,0,0,0,0,0,0,0,0,0,-1,1791,1807,0,0
574,-783,0,0,0,0,0,0,0,0,0,-1,1798,1807,0,0
581,-783,0,0,0,0,0,0,0,0,0,-1,1805,1807,0,0
588,-783,0,0,0,0,0,0,0,0,0,-1,1812,1807,0,0
595,-783,0,0,0,0,0,0,0,0,0,-1,1819,1807,0,0
602,-783,0,0,0,0,0,0,0,0,0,-1,1826,1807,0,0
609,-783,0,0,0,0,0,0,0,0,0,-1,1833,1807,0,0
616,-783,0,0,0,0,0,0,0,0,0,-1,1840,1807,0,0
623,-783,0,0,0,0,0,0,0,0,0,-1,1847,1807,0,0
630,-783,0,0,0,0,0,0,0,0,0,-1,1854,1807,0,0
637,-783,0,0,0,0,0,0,0,0,0,-1,1861,1807,0,0
644,-783,0,0,0,0,0,0,0,0,0,-1,1868,1807,0,0
651,-783,0,0,0,0,0,0,0,0,0,-1,1875,1807,0,0
658,-783,0,0,0,0,0,0,0,0,0,-1,1882,1807,0,0
665,-783,0,0,0,0,0,0,0,0,0,-1,1889,1807,0,0
672,-783,0,0,0,0,0,0,0,0,0,-1,1896,1807,0,0
679,-783,0,0,0,0,0,0,0,0,0,-1,1903,1807,0,0
686,-783,0,0,0,0,0,0,0,0,0,-1,1910,1807,0,0
693,-783,0,0,0,0,0,0,0,0,0,-1,1917,1807,0,0
700,-783,0,0,0,0,0,0,0,0,0,-1,1924,1807,0,0
707,-783,0,0,0,0,0,0,0,0,0,-1,1931,1807,0,0
714,-783,0,0,0,0,0,0,0,0,0,-1,1938,1807,0,0
721,-783,0,0,0,0,0,0,0,0,0,-1,1945,1807,0,0
728,-783,0,0,0,0,0,0,0,0,0,-1,1952,1807,0,0
735,-783,0,0,0,0,0,0,0,0,0,-1,1959,1807,0,0
742,-783,0,0,0,0,0,0,0,0,0,-1,1966,1807,0,0
749,-783,0,0,0,0,0,0,0,0,0,-1,1973,1807,0,0
756,-783,0,0,0,0,0,0,0,0,0,-1,1980,1807,0,0
763,-783,0,0,0,0,0,0,0,0,0,-1,1987,1807,0,0
770,-783,0,0,0,0,0,0,0,0,0,-1,1994,1807,0,0
777,-783,0,0,0,0,0,0,0,0,0,-1,2001,1807,0,0
784,-783,0,0,0,0,0,0,0,0,0,-1,2008,1807,0,0
791,-783,0,0,0,0,0,0,0,0,0,-1,2015,1807,0,0
798,-783,0,0,0,0,0,0,0,0,0,-1,2022,1807,0,0
805,-783,0,0,0,0,0,0,0,0,0,-1,2029,1807,0,0
812,-783,0,0,0,0,0,0,0,0,0,-1,2036,1807,0,0
-700,-790,0,0,0,0,0,0,0,0,0,-1,524,1814,0,0
-693,-790,0,0,0,0,0,0,0,0,0,-1,531,1814,0,0
-686,-790,0,0,0,0,0,0,0,0,0,-1,538,1814,0,0
-679,-790,0,0,0,0,0,0,0,0,0,-1,545,1814,0,0
-672,-790,0,0,0,0,0,0,0,0,0,-1,552,1814,0,0
-665,-790,0,0,0,0,0,0,0,0,0,-1,559,1814,0,0
-658,-790,0,0,0,0,0,0,0,0,0,-1,566,1814,0,0
-651,-790,0,0,0,0,0,0,0,0,0,-1,573,1814,0,0
-644,-790,0,0,0,0,0,0,0,0,0,-1,580,1814,0,0
-637,-790,0,0,0,0,0,0,0,0,0,-1,587,1814,0,0
-630,-790,0,0,0,0,0,0,0,0,0,-1,594,1814,0,0
-623,-790,0,0,0,0,0,0,0,0,0,-1,601,1814,0,0
-616,-790,0,0,0,0,0,0,0,0,0,-1,608,1814,0,0
-609,-790,0,0,0,0,0,0,0,0,0,-1,615,1814,0,0
-602,-790,0,0,0,0,0,0,0,0,0,-1,622,1814,0,0
-595,-790,0,0,0,0,0,0,0,0,0,-1,629,1814,0,0
-588,-790,0,0,0,0,0,0,0,0,0,-1,636,1814,0,0
-581,-790,0,0,0,0,0,0,0,0,0,-1,643,1814,0,0
-574,-790,0,0,0,0,0,0,0,0,0,-1,650,1814,0,0
-567,-790,0,0,0,0,0,0,0,0,0,-1,657,1814,0,0
-560,-790,0,0,0,0,0,0,0,0,0,-1,664,1814,0,0
-553,-790,0,0,0,0,0,0,0,0,0,-1,671,1814,0,0
-546,-790,0,0,0,0,0,0,0,0,0,-1,678,1814,0,0
-539,-790,0,0,0,0,0,0,0,0,0,-1,685,1814,0,0
-532,-790,0,0,0,0,0,0,0,0,0,-1,692,1814,0,0
-525,-790,0,0,0,0,0,0,0,0,0,-1,699,1814,0,0
-518,-790,0,0,0,0,0,0,0,0,0,-1,706,1814,0,0
-511,-790,0,0,0,0,0,0,0,0,0,-1,713,1814,0,0
-504,-790,0,0,0,0,0,0,0,0,0,-1,720,1814,0,0
-497,-790,0,0,0,0,0,0,0,0,0,-1,727,1814,0,0
-490,-790,0,0,0,0,0,0,0,0,0,-1,734,1814,0,0
-483,-790,0,0,0,0,0,0,0,0,0,-1,741,1814,0,0
-476,-790,0,0,0,0,0,0,0,0,0,-1,748,1814,0,0
-469,-790,0,0,0,0,0,0,0,0,0,-1,755,1814,0,0
-462,-790,0,0,0,0,0,0,0,0,0,-1,762,1814,0,0
-455,-790,0,0,0,0,0,0,0,0,0,-1,769,1814,0,0
-448,-790,0,0,0,0,0,0,0,0,0,-1,776,1814,0,0
-441,-790,0,0,0,0,0,0,0,0,0,-1,783,1814,0,0
-434,-790,0,0,0,0,0,0,0,0,0,-1,790,1814,0,0
-427,-790,0,0,0,0,0,0,0,0,0,-1,797,1814,0,0
-420,-790,0,0,0,0,0,0,0,0,0,-1,804,1814,0,0
-413,-790,0,0,0,0,0,0,0,0,0,-1,811,1814,0,0
-406,-790,0,0,0,0,0,0,0,0,0,-1,818,1814,0,0
-399,-790,0,0,0,0,0,0,0,0,0,-1,825,1814,0,0
-392,-790,0,0,0,0,0,0,0,0,0,-1,832,1814,0,0
-385,-790,0,0,0,0,0,0,0,0,0,-1,839,1814,0,0
-378,-790,0,0,0,0,0,0,0,0,0,-1,846,1814,0,0
-371,-790,0,0,0,0,0,0,0,0,0,-1,853,1814,0,0
-364,-790,0,0,0,0,0,0,0,0,0,-1,860,1814,0,0
-357,-790,0,0,0,0,0,0,0,0,0,-1,867,1814,0,0
-350,-790,0,0,0,0,0,0,0,0,0,-1,874,1814,0,0
-343,-790,0,0,0,0,0,0,0,0,0,-1,881,1814,0,0
-336,-790,0,0,0,0,0,0,0,0,0,-1,888,1814,0,0
-329,-790,0,0,0,0,0,0,0,0,0,-1,895,1814,0,0
-322,-790,0,0,0,0,0,0,0,0,0,-1,902,1814,0,0
-315,-790,0,0,0,0,0,0,0,0,0,-1,909,1814,0,0
-308,-790,0,0,0,0,0,0,0,0,0,-1,916,1814,0,0
-301,-790,0,0,0,0,0,0,0,0,0,-1,923,1814,0,0
-294,-790,0,0,0,0,0,0,0,0,0,-1,930,1814,0,0
-287,-790,0,0,0,0,0,0,0,0,0,-1,937,1814,0,0
-280,-790,0,0,0,0,0,0,0,0,0,-1,944,1814,0,0
-273,-790,0,0,0,0,0,0,0,0,0,-1,951,1814,0,0
-266,-790,0,0,0,0,0,0,0,0,0,-1,958,1814,0,0
-259,-790,0,0,0,0,0,0,0,0,0,-1,965,1814,0,0
-252,-790,0,0,0,0,0,0,0,0,0,-1,972,1814,0,0
-245,-790,0,0,0,0,0,0,0,0,0,-1,979,1814,0,0
-238,-790,0,0,0,0,0,0,0,0,0,-1,986,1814,0,0
-231,-790,0,0,0,0,0,0,0,0,0,-1,993,1814,0,0
-224,-790,0,0,0,0,0,0,0,0,0,-1,1000,1814,0,0
-217,-790,0,0,0,0,0,0,0,0,0,-1,1007,1814,0,0
-210,-790,0,0,0,0,0,0,0,0,0,-1,1014,1814,0,0
-203,-790,0,0,0,0,0,0,0,0,0,-1,1021,1814,0,0
-196,-790,0,0,0,0,0,0,0,0,0,-1,1028,1814,0,0
-189,-790,0,0,0,0,0,0,0,0,0,-1,1035,1814,0,0
-182,-790,0,0,0,0,0,0,0,0,0,-1,1042,1814,0,0
-175,-790,0,0,0,0,0,0,0,0,0,-1,1049,1814,0,0
-168,-790,0,0,0,0,0,0,0,0,0,-1,1056,1814,0,0
-161,-790,0,0,0,0,0,0,0,0,0,-1,1063,1814,0,0
-154,-790,0,0,0,0,0,0,0,0,0,-1,1070,1814,0,0
-147,-790,0,0,0,0,0,0,0,0,0,-1,1077,1814,0,0
-140,-790,0,0,0,0,0,0,0,0,0,-1,1084,1814,0,0
-133,-790,0,0,0,0,0,0,0,0,0,-1,1091,1814,0,0
-126,-790,0,0,0,0,0,0,0,0,0,-1,1098,1814,0,0
-119,-790,0,0,0,0,0,0,0,0,0,-1,1105,1814,0,0
-112,-790,0,0,0,0,0,0,0,0,0,-1,1112,1814,0,0
-105,-790,0,0,0,0,0,0,0,0,0,-1,1119,1814,0,0
-98,-790,0,0,0,0,0,0,0,0,0,-1,1126,1814,0,0
-91,-790,0,0,0,0,0,0,0,0,0,-1,1133,1814,0,0
-84,-790,0,0,0,0,0,0,0,0,0,-1,1140,1814,0,0
-77,-790,-0.969238,5.30847,0,0,0,0,0,0,0,-1,1147,1814,-0.969277,-5.3085
-70,-790,-1.23169,4.98914,0,0,0,0,0,0,0,-1,1154,1814,-1.23163,-4.98916
-63,-790,-1.69128,4.32263,0,0,0,0,0,0,0,-1,1161,1814,-1.69128,-4.32258
-56,-790,-2.24756,3.75305,0,0,0,0,0,0,0,-1,1168,1814,-2.24758,-3.75302
-49,-790,-3.11011,3.35779,0,0,0,0,0,0,0,-1,1175,1814,-3.11006,-3.35781
-42,-790,0.593262,1.19165,0,0,0,0,0,0,0,-1,1182,1814,0.593225,-1.19165
-35,-790,0.307129,-0.20105,0,0,0,0,0,0,0,-1,1189,1814,0.307178,0.201006
-28,-790,-2.78467,0.785156,0,0,0,0,0,0,0,-1,1196,1814,-2.78471,-0.785183
-21,-790,7.80701,61.6615,0,0,0,0,0,0,0,-1,1203,1814,7.80696,-61.6615
-14,-790,8.55774,60.0803,0,0,0,0,0,0,0,-1,1210,1814,8.55771,-60.0804
-7,-790,9.49316,58.8928,0,0,0,0,0,0,0,-1,1217,1814,9.49315,-58.8928
0,-790,10.2241,56.9619,0,0,0,0,0,0,0,-1,1224,1814,10.2241,-56.9619
7,-790,6.99805,55.6008,0,0,0,0,0,0,0,-1,1231,1814,6.99804,-55.6008
14,-790,9.58899,55.9672,0,0,0,0,0,0,0,-1,1238,1814,9.58897,-55.9671
21,-790,9.29858,56.1967,0,0,0,0,0,0,0,-1,1245,1814,9.29864,-56.1967
28,-790,8.43225,56.1296,0.0156618,0.190736,-0.0391959,0.199111,0.00728711,-1.3603,0.130379,0.0434014,1252,1814,8.43231,-56.1297
35,-790,8.65808,56.2153,0.0114686,0.181005,-0.0393862,0.189708,0.00276528,-1.35332,0.12556,0.0454964,1259,1814,8.65814,-56.2154
42,-790,8.96594,56.5327,0.00681738,0.170431,-0.0383302,0.178965,-0.00171716,-1.35171,0.119887,0.042216,1266,1814,8.96593,-56.5327
49,-790,10.7074,53.0961,0.00214936,0.160503,-0.0361193,0.168353,-0.0057001,-1.3568,0.114183,0.0444479,1273,1814,10.7074,-53.0961
56,-790,9.97876,53.3169,-0.00321745,0.153249,-0.0331227,0.159972,-0.00994041,-1.37055,0.110111,0.0464265,1280,1814,9.97879,-53.3169
63,-790,9.43262,53.3112,-0.00941502,0.149363,-0.0290642,0.154516,-0.014568,-1.39532,0.108194,0.0435307,1287,1814,9.43258,-53.3112
70,-790,9.23596,53.2601,-0.0161024,0.148891,-0.0242709,0.152387,-0.0195986,-1.42773,0.108715,0.0405842,1294,1814,9.23598,-53.2601
77,-790,8.9491,53.4966,-0.0235467,0.150672,-0.0185359,0.152622,-0.025497,-1.46597,0.111225,0.0407041,1301,1814,8.94914,-53.4966
84,-790,8.74805,53.548,-0.0309903,0.155411,-0.0133459,0.156362,-0.031941,-1.49968,0.116359,0.042398,1308,1814,8.74801,-53.548
91,-790,8.86121,53.4214,-0.0400327,0.154155,-0.00584955,0.154331,-0.0402088,-1.54071,0.118585,0.0424072,1315,1814,8.86125,-53.4214
98,-790,9.11926,53.4309,-0.0497544,0.1625,0.00122928,0.162508,-0.0497615,1.56501,0.128187,0.0434503,1322,1814,9.11925,-53.4309
105,-790,8.73047,53.802,-0.0579509,0.174599,0.00637155,0.174774,-0.0581253,1.54343,0.139973,0.0467732,1329,1814,8.7305,-53.802
112,-790,8.20886,53.9486,-0.0667865,0.185921,0.0119944,0.186489,-0.0673545,1.52347,0.151841,0.0470387,1336,1814,8.20883,-53.9486
119,-790,6.67932,54.9976,-0.077807,0.193882,0.0188063,0.195178,-0.0791026,1.50201,0.163014,0.0445383,1343,1814,6.67934,-54.9976
126,-790,5.61743,56.3083,-0.0893735,0.196078,0.0262609,0.198474,-0.0917694,1.47982,0.171305,0.0488101,1350,1814,5.61749,-56.3083
133,-790,5.05493,57.4689,0,0,0,0,0,0,0,-1,1357,1814,5.05495,-57.4688
140,-790,3.9613,58.4818,0,0,0,0,0,0,0,-1,1364,1814,3.96125,-58.4818
147,-790,3.63538,57.1455,0,0,0,0,0,0,0,-1,1371,1814,3.63537,-57.1455
154,-790,40.215,13.2396,0,0,0,0,0,0,0,-1,1378,1814,40.2149,-13.2396
161,-790,39.3429,13.0336,0,0,0,0,0,0,0,-1,1385,1814,39.3429,-13.0336
168,-790,7.04077,2.23279,0,0,0,0,0,0,0,-1,1392,1814,7.04082,-2.23275
175,-790,9.03918,3.98535,0,0,0,0,0,0,0,-1,1399,1814,9.0392,-3.98535
182,-790,8.96997,5.67896,0,0,0,0,0,0,0,-1,1406,1814,8.97001,-5.6789
189,-790,8.59729,6.86975,0,0,0,0,0,0,0,-1,1413,1814,8.59728,-6.86972
196,-790,8.21924,9.29053,0,0,0,0,0,0,0,-1,1420,1814,8.21924,-9.29048
203,-790,0,0,0,0,0,0,0,0,0,-1,1427,1814,0,0
210,-790,0,0,0,0,0,0,0,0,0,-1,1434,1814,0,0
217,-790,0,0,0,0,0,0,0,0,0,-1,1441,1814,0,0
224,-790,0,0,0,0,0,0,0,0,0,-1,1448,1814,0,0
231,-790,0,0,0,0,0,0,0,0,0,-1,1455,1814,0,0
238,-790,0,0,0,0,0,0,0,0,0,-1,1462,1814,0,0
245,-790,0,0,0,0,0,0,0,0,0,-1,1469,1814,0,0
252,-790,0,0,0,0,0,0,0,0,0,-1,1476,1814,0,0
259,-790,0,0,0,0,0,0,0,0,0,-1,1483,1814,0,0
266,-790,0,0,0,0,0,0,0,0,0,-1,1490,1814,0,0
273,-790,0,0,0,0,0,0,0,0,0,-1,1497,1814,0,0
280,-790,0,0,0,0,0,0,0,0,0,-1,1504,1814,0,0
287,-790,0,0,0,0,0,0,0,0,0,-1,1511,1814,0,0
294,-790,0,0,0,0,0,0,0,0,0,-1,1518,1814,0,0
301,-790,0,0,0,0,0,0,0,0,0,-1,1525,1814,0,0
308,-790,0,0,0,0,0,0,0,0,0,-1,1532,1814,0,0
315,-790,0,0,0,0,0,0,0,0,0,-1,1539,1814,0,0
322,-790,0,0,0,0,0,0,0,0,0,-1,1546,1814,0,0
329,-790,0,0,0,0,0,0,0,0,0,-1,1553,1814,0,0
336,-790,0,0,0,0,0,0,0,0,0,-1,1560,1814,0,0
343,-790,0,0,0,0,0,0,0,0,0,-1,1567,1814,0,0
350,-790,0,0,0,0,0,0,0,0,0,-1,1574,1814,0,0
357,-790,0,0,0,0,0,0,0,0,0,-1,1581,1814,0,0
364,-790,0,0,0,0,0,0,0,0,0,-1,1588,1814,0,0
371,-790,0,0,0,0,0,0,0,0,0,-1,1595,1814,0,0
378,-790,0,0,0,0,0,0,0,0,0,-1,1602,1814,0,0
385,-790,0,0,0,0,0,0,0,0,0,-1,1609,1814,0,0
392,-790,0,0,0,0,0,0,0,0,0,-1,1616,1814,0,0
399,-790,0,0,0,0,0,0,0,0,0,-1,1623,1814,0,0
406,-790,0,0,0,0,0,0,0,0,0,-1,1630,1814,0,0
413,-790,0,0,0,0,0,0,0,0,0,-1,1637,1814,0,0
420,-790,0,0,0,0,0,0,0,0,0,-1,1644,1814,0,0
427,-790,0,0,0,0,0,0,0,0,0,-1,1651,1814,0,0
434,-790,0,0,0,0,0,0,0,0,0,-1,1658,1814,0,0
441,-790,0,0,0,0,0,0,0,0,0,-1,1665,1814,0,0
448,-790,0,0,0,0,0,0,0,0,0,-1,1672,1814,0,0
455,-790,0,0,0,0,0,0,0,0,0,-1,1679,1814,0,0
462,-790,0,0,0,0,0,0,0,0,0,-1,1686,1814,0,0
469,-790,0,0,0,0,0,0,0,0,0,-1,1693,1814,0,0
476,-790,0,0,0,0,0,0,0,0,0,-1,1700,1814,0,0
483,-790,0,0,0,0,0,0,0,0,0,-1,1707,1814,0,0
490,-790,0,0,0,0,0,0,0,0,0,-1,1714,1814,0,0
497,-790,0,0,0,0,0,0,0,0,0,-1,1721,1814,0,0
504,-790,0,0,0,0,0,0,0,0,0,-1,1728,1814,0,0
511,-790,0,0,0,0,0,0,0,0,0,-1,1735,1814,0,0
518,-790,0,0,0,0,0,0,0,0,0,-1,1742,1814,0,0
525,-790,0,0,0,0,0,0,0,0,0,-1,1749,1814,0,0
532,-790,0,0,0,0,0,0,0,0,0,-1,1756,1814,0,0
539,-790,0,0,0,0,0,0,0,0,0,-1,1763,1814,0,0
546,-790,0,0,0,0,0,0,0,0,0,-1,1770,1814,0,0
553,-790,0,0,0,0,0,0,0,0,0,-1,1777,1814,0,0
560,-790,0,0,0,0,0,0,0,0,0,-1,1784,1814,0,0
567,-790,0,0,0,0,0,0,0,0,0,-1,1791,1814,0,0
574,-790,0,0,0,0,0,0,0,0,0,-1,1798,1814,0,0
581,-790,0,0,0,0,0,0,0,0,0,-1,1805,1814,0,0
588,-790,0,0,0,0,0,0,0,0,0,-1,1812,1814,0,0
595,-790,0,0,0,0,0,0,0,0,0,-1,1819,1814,0,0
602,-790,0,0,0,0,0,0,0,0,0,-1,1826,1814,0,0
609,-790,0,0,0,0,0,0,0,0,0,-1,1833,1814,0,0
616,-790,0,0,0,0,0,0,0,0,0,-1,1840,1814,0,0
623,-790,0,0,0,0,0,0,0,0,0,-1,1847,1814,0,0
630,-790,0,0,0,0,0,0,0,0,0,-1,1854,1814,0,0
637,-790,0,0,0,0,0,0,0,0,0,-1,1861,1814,0,0
644,-790,0,0,0,0,0,0,0,0,0,-1,1868,1814,0,0
651,-790,0,0,0,0,0,0,0,0,0,-1,1875,1814,0,0
658,-790,0,0,0,0,0,0,0,0,0,-1,1882,1814,0,0
665,-790,0,0,0,0,0,0,0,0,0,-1,1889,1814,0,0
672,-790,0,0,0,0,0,0,0,0,0,-1,1896,1814,0,0
679,-790,0,0,0,0,0,0,0,0,0,-1,1903,1814,0,0
686,-790,0,0,0,0,0,0,0,0,0,-1,1910,1814,0,0
693,-790,0,0,0,0,0,0,0,0,0,-1,1917,1814,0,0
700,-790,0,0,0,0,0,0,0,0,0,-1,1924,1814,0,0
707,-790,0,0,0,0,0,0,0,0,0,-1,1931,1814,0,0
714,-790,0,0,0,0,0,0,0,0,0,-1,1938,1814,0,0
721,-790,0,0,0,0,0,0,0,0,0,-1,1945,1814,0,0
728,-790,0,0,0,0,0,0,0,0,0,-1,1952,1814,0,0
735,-790,0,0,0,0,0,0,0,0,0,-1,1959,1814,0,0
742,-790,0,0,0,0,0,0,0,0,0,-1,1966,1814,0,0
749,-790,0,0,0,0,0,0,0,0,0,-1,1973,1814,0,0
756,-790,0,0,0,0,0,0,0,0,0,-1,1980,1814,0,0
763,-790,0,0,0,0,0,0,0,0,0,-1,1987,1814,0,0
770,-790,0,0,0,0,0,0,0,0,0,-1,1994,1814,0,0
777,-790,0,0,0,0,0,0,0,0,0,-1,2001,1814,0,0
784,-790,0,0,0,0,0,0,0,0,0,-1,2008,1814,0,0
791,-790,0,0,0,0,0,0,0,0,0,-1,2015,1814,0,0
798,-790,0,0,0,0,0,0,0,0,0,-1,2022,1814,0,0
805,-790,0,0,0,0,0,0,0,0,0,-1,2029,1814,0,0
812,-790,0,0,0,0,0,0,0,0,0,-1,2036,1814,0,0
-700,-797,0,0,0,0,0,0,0,0,0,-1,524,1821,0,0
-693,-797,0,0,0,0,0,0,0,0,0,-1,531,1821,0,0
-686,-797,0,0,0,0,0,0,0,0,0,-1,538,1821,0,0
-679,-797,0,0,0,0,0,0,0,0,0,-1,545,1821,0,0
-672,-797,0,0,0,0,0,0,0,0,0,-1,552,1821,0,0
-665,-797,0,0,0,0,0,0,0,0,0,-1,559,1821,0,0
-658,-797,0,0,0,0,0,0,0,0,0,-1,566,1821,0,0
-651,-797,0,0,0,0,0,0,0,0,0,-1,573,1821,0,0
-644,-797,0,0,0,0,0,0,0,0,0,-1,580,1821,0,0
-637,-797,0,0,0,0,0,0,0,0,0,-1,587,1821,0,0
-630,-797,0,0,0,0,0,0,0,0,0,-1,594,1821,0,0
-623,-797,0,0,0,0,0,0,0,0,0,-1,601,1821,0,0
-616,-797,0,0,0,0,0,0,0,0,0,-1,608,1821,0,0
-609,-797,0,0,0,0,0,0,0,0,0,-1,615,1821,0,0
-602,-797,0,0,0,0,0,0,0,0,0,-1,622,1821,0,0
-595,-797,0,0,0,0,0,0,0,0,0,-1,629,1821,0,0
-588,-797,0,0,0,0,0,0,0,0,0,-1,636,1821,0,0
-581,-797,0,0,0,0,0,0,0,0,0,-1,643,1821,0,0
-574,-797,0,0,0,0,0,0,0,0,0,-1,650,1821,0,0
-567,-797,0,0,0,0,0,0,0,0,0,-1,657,1821,0,0
-560,-797,0,0,0,0,0,0,0,0,0,-1,664,1821,0,0
-553,-797,0,0,0,0,0,0,0,0,0,-1,671,1821,0,0
-546,-797,0,0,0,0,0,0,0,0,0,-1,678,1821,0,0
-539,-797,0,0,0,0,0,0,0,0,0,-1,685,1821,0,0
-532,-797,0,0,0,0,0,0,0,0,0,-1,692,1821,0,0
-525,-797,0,0,0,0,0,0,0,0,0,-1,699,1821,0,0
-518,-797,0,0,0,0,0,0,0,0,0,-1,706,1821,0,0
-511,-797,0,0,0,0,0,0,0,0,0,-1,713,1821,0,0
-504,-797,0,0,0,0,0,0,0,0,0,-1,720,1821,0,0
-497,-797,0,0,0,0,0,0,0,0,0,-1,727,1821,0,0
-490,-797,0,0,0,0,0,0,0,0,0,-1,734,1821,0,0
-483,-797,0,0,0,0,0,0,0,0,0,-1,741,1821,0,0
-476,-797,0,0,0,0,0,0,0,0,0,-1,748,1821,0,0
-469,-797,0,0,0,0,0,0,0,0,0,-1,755,1821,0,0
-462,-797,0,0,0,0,0,0,0,0,0,-1,762,1821,0,0
-455,-797,0,0,0,0,0,0,0,0,0,-1,769,1821,0,0
-448,-797,0,0,0,0,0,0,0,0,0,-1,776,1821,0,0
-441,-797,0,0,0,0,0,0,0,0,0,-1,783,1821,0,0
-434,-797,0,0,0,0,0,0,0,0,0,-1,790,1821,0,0
-427,-797,0,0,0,0,0,0,0,0,0,-1,797,1821,0,0
-420,-797,0,0,0,0,0,0,0,0,0,-1,804,1821,0,0
-413,-797,0,0,0,0,0,0,0,0,0,-1,811,1821,0,0
-406,-797,0,0,0,0,0,0,0,0,0,-1,818,1821,0,0
-399,-797,0,0,0,0,0,0,0,0,0,-1,825,1821,0,0
-392,-797,0,0,0,0,0,0,0,0,0,-1,832,1821,0,0
-385,-797,0,0,0,0,0,0,0,0,0,-1,839,1821,0,0
-378,-797,0,0,0,0,0,0,0,0,0,-1,846,1821,0,0
-371,-797,0,0,0,0,0,0,0,0,0,-1,853,1821,0,0
-364,-797,0,0,0,0,0,0,0,0,0,-1,860,1821,0,0
-357,-797,0,0,0,0,0,0,0,0,0,-1,867,1821,0,0
-350,-797,0,0,0,0,0,0,0,0,0,-1,874,1821,0,0
-343,-797,0,0,0,0,0,0,0,0,0,-1,881,1821,0,0
-336,-797,0,0,0,0,0,0,0,0,0,-1,888,1821,0,0
-329,-797,0,0,0,0,0,0,0,0,0,-1,895,1821,0,0
-322,-797,0,0,0,0,0,0,0,0,0,-1,902,1821,0,0
-315,-797,0,0,0,0,0,0,0,0,0,-1,909,1821,0,0
-308,-797,0,0,0,0,0,0,0,0,0,-1,916,1821,0,0
-301,-797,0,0,0,0,0,0,0,0,0,-1,923,1821,0,0
-294,-797,0,0,0,0,0,0,0,0,0,-1,930,1821,0,0
-287,-797,0,0,0,0,0,0,0,0,0,-1,937,1821,0,0
-280,-797,0,0,0,0,0,0,0,0,0,-1,944,1821,0,0
-273,-797,0,0,0,0,0,0,0,0,0,-1,951,1821,0,0
-266,-797,0,0,0,0,0,0,0,0,0,-1,958,1821,0,0
-259,-797,0,0,0,0,0,0,0,0,0,-1,965,1821,0,0
-252,-797,0,0,0,0,0,0,0,0,0,-1,972,1821,0,0
-245,-797,0,0,0,0,0,0,0,0,0,-1,979,1821,0,0
-238,-797,0,0,0,0,0,0,0,0,0,-1,986,1821,0,0
-231,-797,0,0,0,0,0,0,0,0,0,-1,993,1821,0,0
-224,-797,0,0,0,0,0,0,0,0,0,-1,1000,1821,0,0
-217,-797,0,0,0,0,0,0,0,0,0,-1,1007,1821,0,0
-210,-797,0,0,0,0,0,0,0,0,0,-1,1014,1821,0,0
-203,-797,0,0,0,0,0,0,0,0,0,-1,1021,1821,0,0
-196,-797,0,0,0,0,0,0,0,0,0,-1,1028,1821,0,0
-189,-797,0,0,0,0,0,0,0,0,0,-1,1035,1821,0,0
-182,-797,0,0,0,0,0,0,0,0,0,-1,1042,1821,0,0
-175,-797,0,0,0,0,0,0,0,0,0,-1,1049,1821,0,0
-168,-797,0,0,0,0,0,0,0,0,0,-1,1056,1821,0,0
-161,-797,0,0,0,0,0,0,0,0,0,-1,1063,1821,0,0
-154,-797,0,0,0,0,0,0,0,0,0,-1,1070,1821,0,0
-147,-797,0,0,0,0,0,0,0,0,0,-1,1077,1821,0,0
-140,-797,0,0,0,0,0,0,0,0,0,-1,1084,1821,0,0
-133,-797,0,0,0,0,0,0,0,0,0,-1,1091,1821,0,0
-126,-797,0,0,0,0,0,0,0,0,0,-1,1098,1821,0,0
-119,-797,0,0,0,0,0,0,0,0,0,-1,1105,1821,0,0
-112,-797,0,0,0,0,0,0,0,0,0,-1,1112,1821,0,0
-105,-797,0,0,0,0,0,0,0,0,0,-1,1119,1821,0,0
-98,-797,0,0,0,0,0,0,0,0,0,-1,1126,1821,0,0
-91,-797,0,0,0,0,0,0,0,0,0,-1,1133,1821,0,0
-84,-797,0,0,0,0,0,0,0,0,0,-1,1140,1821,0,0
-77,-797,0,0,0,0,0,0,0,0,0,-1,1147,1821,0,0
-70,-797,0,0,0,0,0,0,0,0,0,-1,1154,1821,0,0
-63,-797,0,0,0,0,0,0,0,0,0,-1,1161,1821,0,0
-56,-797,0,0,0,0,0,0,0,0,0,-1,1168,1821,0,0
-49,-797,0,0,0,0,0,0,0,0,0,-1,1175,1821,0,0
-42,-797,0.579834,0.692871,0,0,0,0,0,0,0,-1,1182,1821,0.579856,-0.692816
-35,-797,-0.185425,5.55396,0,0,0,0,0,0,0,-1,1189,1821,-0.18542,-5.55396
-28,-797,-0.310181,4.71509,0,0,0,0,0,0,0,-1,1196,1821,-0.310228,-4.71503
-21,-797,2.28735,52.385,0,0,0,0,0,0,0,-1,1203,1821,2.28734,-52.385
-14,-797,8.57495,59.9495,0,0,0,0,0,0,0,-1,1210,1821,8.57495,-59.9495
-7,-797,10.1882,59.2147,0,0,0,0,0,0,0,-1,1217,1821,10.1883,-59.2147
0,-797,6.23657,55.9777,0,0,0,0,0,0,0,-1,1224,1821,6.23653,-55.9777
7,-797,6.77063,55.7904,0,0,0,0,0,0,0,-1,1231,1821,6.77068,-55.7904
14,-797,7.34668,55.5797,0,0,0,0,0,0,0,-1,1238,1821,7.34669,-55.5797
21,-797,7.92688,55.6893,0,0,0,0,0,0,0,-1,1245,1821,7.92689,-55.6893
28,-797,8.40234,55.856,0.0249974,0.265453,-0.0518854,0.276171,0.0142794,-1.36709,0.179544,0.0434978,1252,1821,8.40238,-55.856
35,-797,8.48218,56.2688,0.0188128,0.246811,-0.0510484,0.257718,0.00790498,-1.36029,0.169239,0.0467491,1259,1821,8.48218,-56.2687
42,-797,11.6099,51.5706,0.0116653,0.227116,-0.0488036,0.237656,0.00112589,-1.35811,0.158063,0.0436762,1266,1821,11.6099,-51.5705
49,-797,11.0725,52.1377,0.00481013,0.208247,-0.045247,0.217856,-0.00479947,-1.36152,0.146863,0.0444969,1273,1821,11.0725,-52.1377
56,-797,10.2705,52.9076,-0.00252079,0.193656,-0.0407808,0.201796,-0.0106605,-1.37379,0.138221,0.0426289,1280,1821,10.2705,-52.9076
63,-797,9.4917,53.2235,-0.0104784,0.184063,-0.0353663,0.190293,-0.0167082,-1.39643,0.132782,0.0419862,1287,1821,9.49168,-53.2235
70,-797,9.41272,52.9912,-0.0189143,0.179773,-0.0293089,0.184006,-0.0231475,-1.42735,0.13107,0.040731,1294,1821,9.41272,-52.9912
77,-797,9.35364,52.9442,-0.0279914,0.17944,-0.0225228,0.181857,-0.0304087,-1.46388,0.132542,0.041458,1301,1821,9.35367,-52.9442
84,-797,9.11536,52.5414,-0.0371502,0.183846,-0.0163291,0.185046,-0.0383502,-1.49744,0.137936,0.0448873,1308,1821,9.11538,-52.5414
91,-797,8.92322,52.4036,-0.0482046,0.18068,-0.00730586,0.180913,-0.0484375,-1.53892,0.139585,0.0463093,1315,1821,8.92324,-52.4036
98,-797,8.86438,52.4222,0,0,0,0,0,0,0,-1,1322,1821,8.86436,-52.4222
105,-797,9.58679,51.7946,-0.0696354,0.209656,0.0061654,0.209792,-0.0697715,1.54874,0.168019,0.0447271,1329,1821,9.58679,-51.7945
112,-797,8.7594,52.3806,-0.0811708,0.226183,0.0129349,0.226727,-0.0817142,1.52881,0.184522,0.0455103,1336,1821,8.75942,-52.3806
119,-797,8.0863,53.5757,-0.0959655,0.238258,0.0216622,0.239656,-0.0973637,1.50634,0.200276,0.0444339,1343,1821,8.08632,-53.5757
126,-797,7.35071,54.9523,-0.111338,0.242014,0.0312868,0.244763,-0.114087,1.48316,0.211712,0.0485128,1350,1821,7.35066,-54.9522
133,-797,6.69641,56.0981,0,0,0,0,0,0,0,-1,1357,1821,6.69636,-56.0981
140,-797,5.96472,57.3259,0,0,0,0,0,0,0,-1,1364,1821,5.96475,-57.3259
147,-797,5.10449,58.5544,0,0,0,0,0,0,0,-1,1371,1821,5.10455,-58.5545
154,-797,40.2623,8.88733,0,0,0,0,0,0,0,-1,1378,1821,40.2623,-8.88731
161,-797,42.2798,8.17371,0,0,0,0,0,0,0,-1,1385,1821,42.2798,-8.17367
168,-797,0,0,0,0,0,0,0,0,0,-1,1392,1821,0,0
175,-797,0,0,0,0,0,0,0,0,0,-1,1399,1821,0,0
182,-797,0,0,0,0,0,0,0,0,0,-1,1406,1821,0,0
189,-797,0,0,0,0,0,0,0,0,0,-1,1413,1821,0,0
196,-797,0,0,0,0,0,0,0,0,0,-1,1420,1821,0,0
203,-797,0,0,0,0,0,0,0,0,0,-1,1427,1821,0,0
210,-797,0,0,0,0,0,0,0,0,0,-1,1434,1821,0,0
217,-797,0,0,0,0,0,0,0,0,0,-1,1441,1821,0,0
224,-797,0,0,0,0,0,0,0,0,0,-1,1448,1821,0,0
231,-797,0,0,0,0,0,0,0,0,0,-1,1455,1821,0,0
238,-797,0,0,0,0,0,0,0,0,0,-1,1462,1821,0,0
245,-797,0,0,0,0,0,0,0,0,0,-1,1469,1821,0,0
252,-797,0,0,0,0,0,0,0,0,0,-1,1476,1821,0,0
259,-797,0,0,0,0,0,0,0,0,0,-1,1483,1821,0,0
266,-797,0,0,0,0,0,0,0,0,0,-1,1490,1821,0,0
273,-797,0,0,0,0,0,0,0,0,0,-1,1497,1821,0,0
280,-797,0,0,0,0,0,0,0,0,0,-1,1504,1821,0,0
287,-797,0,0,0,0,0,0,0,0,0,-1,1511,1821,0,0
294,-797,0,0,0,0,0,0,0,0,0,-1,1518,1821,0,0
301,-797,0,0,0,0,0,0,0,0,0,-1,1525,1821,0,0
308,-797,0,0,0,0,0,0,0,0,0,-1,1532,1821,0,0
315,-797,0,0,0,0,0,0,0,0,0,-1,1539,1821,0,0
322,-797,0,0,0,0,0,0,0,0,0,-1,1546,1821,0,0
329,-797,0,0,0,0,0,0,0,0,0,-1,1553,1821,0,0
336,-797,0,0,0,0,0,0,0,0,0,-1,1560,1821,0,0
343,-797,0,0,0,0,0,0,0,0,0,-1,1567,1821,0,0
350,-797,0,0,0,0,0,0,0,0,0,-1,1574,1821,0,0
357,-797,0,0,0,0,0,0,0,0,0,-1,1581,1821,0,0
364,-797,0,0,0,0,0,0,0,0,0,-1,1588,1821,0,0
371,-797,0,0,0,0,0,0,0,0,0,-1,1595,1821,0,0
378,-797,0,0,0,0,0,0,0,0,0,-1,1602,1821,0,0
385,-797,0,0,0,0,0,0,0,0,0,-1,1609,1821,0,0
392,-797,0,0,0,0,0,0,0,0,0,-1,1616,1821,0,0
399,-797,0,0,0,0,0,0,0,0,0,-1,1623,1821,0,0
406,-797,0,0,0,0,0,0,0,0,0,-1,1630,1821,0,0
413,-797,0,0,0,0,0,0,0,0,0,-1,1637,1821,0,0
420,-797,0,0,0,0,0,0,0,0,0,-1,1644,1821,0,0
427,-797,0,0,0,0,0,0,0,0,0,-1,1651,1821,0,0
434,-797,0,0,0,0,0,0,0,0,0,-1,1658,1821,0,0
441,-797,0,0,0,0,0,0,0,0,0,-1,1665,1821,0,0
448,-797,0,0,0,0,0,0,0,0,0,-1,1672,1821,0,0
455,-797,0,0,0,0,0,0,0,0,0,-1,1679,1821,0,0
462,-797,0,0,0,0,0,0,0,0,0,-1,1686,1821,0,0
469,-797,0,0,0,0,0,0,0,0,0,-1,1693,1821,0,0
476,-797,0,0,0,0,0,0,0,0,0,-1,1700,1821,0,0
483,-797,0,0,0,0,0,0,0,0,0,-1,1707,1821,0,0
490,-797,0,0,0,0,0,0,0,0,0,-1,1714,1821,0,0
497,-797,0,0,0,0,0,0,0,0,0,-1,1721,1821,0,0
504,-797,0,0,0,0,0,0,0,0,0,-1,1728,1821,0,0
511,-797,0,0,0,0,0,0,0,0,0,-1,1735,1821,0,0
518,-797,0,0,0,0,0,0,0,0,0,-1,1742,1821,0,0
525,-797,0,0,0,0,0,0,0,0,0,-1,1749,1821,0,0
532,-797,0,0,0,0,0,0,0,0,0,-1,1756,1821,0,0
539,-797,0,0,0,0,0,0,0,0,0,-1,1763,1821,0,0
546,-797,0,0,0,0,0,0,0,0,0,-1,1770,1821,0,0
553,-797,0,0,0,0,0,0,0,0,0,-1,1777,1821,0,0
560,-797,0,0,0,0,0,0,0,0,0,-1,1784,1821,0,0
567,-797,0,0,0,0,0,0,0,0,0,-1,1791,1821,0,0
574,-797,0,0,0,0,0,0,0,0,0,-1,1798,1821,0,0
581,-797,0,0,0,0,0,0,0,0,0,-1,1805,1821,0,0
588,-797,0,0,0,0,0,0,0,0,0,-1,1812,1821,0,0
595,-797,0,0,0,0,0,0,0,0,0,-1,1819,1821,0,0
602,-797,0,0,0,0,0,0,0,0,0,-1,1826,1821,0,0
609,-797,0,0,0,0,0,0,0,0,0,-1,1833,1821,0,0
616,-797,0,0,0,0,0,0,0,0,0,-1,1840,1821,0,0
623,-797,0,0,0,0,0,0,0,0,0,-1,1847,1821,0,0
630,-797,0,0,0,0,0,0,0,0,0,-1,1854,1821,0,0
637,-797,0,0,0,0,0,0,0,0,0,-1,1861,1821,0,0
644,-797,0,0,0,0,0,0,0,0,0,-1,1868,1821,0,0
651,-797,0,0,0,0,0,0,0,0,0,-1,1875,1821,0,0
658,-797,0,0,0,0,0,0,0,0,0,-1,1882,1821,0,0
665,-797,0,0,0,0,0,0,0,0,0,-1,1889,1821,0,0
672,-797,0,0,0,0,0,0,0,0,0,-1,1896,1821,0,0
679,-797,0,0,0,0,0,0,0,0,0,-1,1903,1821,0,0
686,-797,0,0,0,0,0,0,0,0,0,-1,1910,1821,0,0
693,-797,0,0,0,0,0,0,0,0,0,-1,1917,1821,0,0
700,-797,0,0,0,0,0,0,0,0,0,-1,1924,1821,0,0
707,-797,0,0,0,0,0,0,0,0,0,-1,1931,1821,0,0
714,-797,0,0,0,0,0,0,0,0,0,-1,1938,1821,0,0
721,-797,0,0,0,0,0,0,0,0,0,-1,1945,1821,0,0
728,-797,0,0,0,0,0,0,0,0,0,-1,1952,1821,0,0
735,-797,0,0,0,0,0,0,0,0,0,-1,1959,1821,0,0
742,-797,0,0,0,0,0,0,0,0,0,-1,1966,1821,0,0
749,-797,0,0,0,0,0,0,0,0,0,-1,1973,1821,0,0
756,-797,0,0,0,0,0,0,0,0,0,-1,1980,1821,0,0
763,-797,0,0,0,0,0,0,0,0,0,-1,1987,1821,0,0
770,-797,0,0,0,0,0,0,0,0,0,-1,1994,1821,0,0
777,-797,0,0,0,0,0,0,0,0,0,-1,2001,1821,0,0
784,-797,0,0,0,0,0,0,0,0,0,-1,2008,1821,0,0
791,-797,0,0,0,0,0,0,0,0,0,-1,2015,1821,0,0
798,-797,0,0,0,0,0,0,0,0,0,-1,2022,1821,0,0
805,-797,0,0,0,0,0,0,0,0,0,-1,2029,1821,0,0
812,-797,0,0,0,0,0,0,0,0,0,-1,2036,1821,0,0
-700,-804,0,0,0,0,0,0,0,0,0,-1,524,1828,0,0
-693,-804,0,0,0,0,0,0,0,0,0,-1,531,1828,0,0
-686,-804,0,0,0,0,0,0,0,0,0,-1,538,1828,0,0
-679,-804,0,0,0,0,0,0,0,0,0,-1,545,1828,0,0
-672,-804,0,0,0,0,0,0,0,0,0,-1,552,1828,0,0
-665,-804,0,0,0,0,0,0,0,0,0,-1,559,1828,0,0
-658,-804,0,0,0,0,0,0,0,0,0,-1,566,1828,0,0
-651,-804,0,0,0,0,0,0,0,0,0,-1,573,1828,0,0
-644,-804,0,0,0,0,0,0,0,0,0,-1,580,1828,0,0
-637,-804,0,0,0,0,0,0,0,0,0,-1,587,1828,0,0
-630,-804,0,0,0,0,0,0,0,0,0,-1,594,1828,0,0
-623,-804,0,0,0,0,0,0,0,0,0,-1,601,1828,0,0
-616,-804,0,0,0,0,0,0,0,0,0,-1,608,1828,0,0
-609,-804,0,0,0,0,0,0,0,0,0,-1,615,1828,0,0
-602,-804,0,0,0,0,0,0,0,0,0,-1,622,1828,0,0
-595,-804,0,0,0,0,0,0,0,0,0,-1,629,1828,0,0
-588,-804,0,0,0,0,0,0,0,0,0,-1,636,1828,0,0
-581,-804,0,0,0,0,0,0,0,0,0,-1,643,1828,0,0
-574,-804,0,0,0,0,0,0,0,0,0,-1,650,1828,0,0
-567,-804,0,0,0,0,0,0,0,0,0,-1,657,1828,0,0
-560,-804,0,0,0,0,0,0,0,0,0,-1,664,1828,0,0
-553,-804,0,0,0,0,0,0,0,0,0,-1,671,1828,0,0
-546,-804,0,0,0,0,0,0,0,0,0,-1,678,1828,0,0
-539,-804,0,0,0,0,0,0,0,0,0,-1,685,1828,0,0
-532,-804,0,0,0,0,0,0,0,0,0,-1,692,1828,0,0
-525,-804,0,0,0,0,0,0,0,0,0,-1,699,1828,0,0
-518,-804,0,0,0,0,0,0,0,0,0,-1,706,1828,0,0
-511,-804,0,0,0,0,0,0,0,0,0,-1,713,1828,0,0
-504,-804,0,0,0,0,0,0,0,0,0,-1,720,1828,0,0
-497,-804,0,0,0,0,0,0,0,0,0,-1,727,1828,0,0
-490,-804,0,0,0,0,0,0,0,0,0,-1,734,1828,0,0
-483,-804,0,0,0,0,0,0,0,0,0,-1,741,1828,0,0
-476,-804,0,0,0,0,0,0,0,0,0,-1,748,1828,0,0
-469,-804,0,0,0,0,0,0,0,0,0,-1,755,1828,0,0
-462,-804,0,0,0,0,0,0,0,0,0,-1,762,1828,0,0
-455,-804,0,0,0,0,0,0,0,0,0,-1,769,1828,0,0
-448,-804,0,0,0,0,0,0,0,0,0,-1,776,1828,0,0
-441,-804,0,0,0,0,0,0,0,0,0,-1,783,1828,0,0
-434,-804,0,0,0,0,0,0,0,0,0,-1,790,1828,0,0
-427,-804,0,0,0,0,0,0,0,0,0,-1,797,1828,0,0
-420,-804,0,0,0,0,0,0,0,0,0,-1,804,1828,0,0
-413,-804,0,0,0,0,0,0,0,0,0,-1,811,1828,0,0
-406,-804,0,0,0,0,0,0,0,0,0,-1,818,1828,0,0
-399,-804,0,0,0,0,0,0,0,0,0,-1,825,1828,0,0
-392,-804,0,0,0,0,0,0,0,0,0,-1,832,1828,0,0
-385,-804,0,0,0,0,0,0,0,0,0,-1,839,1828,0,0
-378,-804,0,0,0,0,0,0,0,0,0,-1,846,1828,0,0
-371,-804,0,0,0,0,0,0,0,0,0,-1,853,1828,0,0
-364,-804,0,0,0,0,0,0,0,0,0,-1,860,1828,0,0
-357,-804,0,0,0,0,0,0,0,0,0,-1,867,1828,0,0
-350,-804,0,0,0,0,0,0,0,0,0,-1,874,1828,0,0
-343,-804,0,0,0,0,0,0,0,0,0,-1,881,1828,0,0
-336,-804,0,0,0,0,0,0,0,0,0,-1,888,1828,0,0
-329,-804,0,0,0,0,0,0,0,0,0,-1,895,1828,0,0
-322,-804,0,0,0,0,0,0,0,0,0,-1,902,1828,0,0
-315,-804,0,0,0,0,0,0,0,0,0,-1,909,1828,0,0
-308,-804,0,0,0,0,0,0,0,0,0,-1,916,1828,0,0
-301,-804,0,0,0,0,0,0,0,0,0,-1,923,1828,0,0
-294,-804,0,0,0,0,0,0,0,0,0,-1,930,1828,0,0
-287,-804,0,0,0,0,0,0,0,0,0,-1,937,1828,0,0
-280,-804,0,0,0,0,0,0,0,0,0,-1,944,1828,0,0
-273,-804,0,0,0,0,0,0,0,0,0,-1,951,1828,0,0
-266,-804,0,0,0,0,0,0,0,0,0,-1,958,1828,0,0
-259,-804,0,0,0,0,0,0,0,0,0,-1,965,1828,0,0
-252,-804,0,0,0,0,0,0,0,0,0,-1,972,1828,0,0
-245,-804,0,0,0,0,0,0,0,0,0,-1,979,1828,0,0
-238,-804,0,0,0,0,0,0,0,0,0,-1,986,1828,0,0
-231,-804,0,0,0,0,0,0,0,0,0,-1,993,1828,0,0
-224,-804,0,0,0,0,0,0,0,0,0,-1,1000,1828,0,0
-217,-804,0,0,0,0,0,0,0,0,0,-1,1007,1828,0,0
-210,-804,0,0,0,0,0,0,0,0,0,-1,1014,1828,0,0
-203,-804,0,0,0,0,0,0,0,0,0,-1,1021,1828,0,0
-196,-804,0,0,0,0,0,0,0,0,0,-1,1028,1828,0,0
-189,-804,0,0,0,0,0,0,0,0,0,-1,1035,1828,0,0
-182,-804,0,0,0,0,0,0,0,0,0,-1,1042,1828,0,0
-175,-804,0,0,0,0,0,0,0,0,0,-1,1049,1828,0,0
-168,-804,0,0,0,0,0,0,0,0,0,-1,1056,1828,0,0
-161,-804,0,0,0,0,0,0,0,0,0,-1,1063,1828,0,0
-154,-804,0,0,0,0,0,0,0,0,0,-1,1070,1828,0,0
-147,-804,0,0,0,0,0,0,0,0,0,-1,1077,1828,0,0
-140,-804,0,0,0,0,0,0,0,0,0,-1,1084,1828,0,0
-133,-804,0,0,0,0,0,0,0,0,0,-1,1091,1828,0,0
-126,-804,0,0,0,0,0,0,0,0,0,-1,1098,1828,0,0
-119,-804,0,0,0,0,0,0,0,0,0,-1,1105,1828,0,0
-112,-804,0,0,0,0,0,0,0,0,0,-1,1112,1828,0,0
-105,-804,0,0,0,0,0,0,0,0,0,-1,1119,1828,0,0
-98,-804,0,0,0,0,0,0,0,0,0,-1,1126,1828,0,0
-91,-804,0,0,0,0,0,0,0,0,0,-1,1133,1828,0,0
-84,-804,0,0,0,0,0,0,0,0,0,-1,1140,1828,0,0
-77,-804,0,0,0,0,0,0,0,0,0,-1,1147,1828,0,0
-70,-804,0,0,0,0,0,0,0,0,0,-1,1154,1828,0,0
-63,-804,0,0,0,0,0,0,0,0,0,-1,1161,1828,0,0
-56,-804,0,0,0,0,0,0,0,0,0,-1,1168,1828,0,0
-49,-804,0,0,0,0,0,0,0,0,0,-1,1175,1828,0,0
-42,-804,0,0,0,0,0,0,0,0,0,-1,1182,1828,0,0
-35,-804,0,0,0,0,0,0,0,0,0,-1,1189,1828,0,0
-28,-804,0,0,0,0,0,0,0,0,0,-1,1196,1828,0,0
-21,-804,0,0,0,0,0,0,0,0,0,-1,1203,1828,0,0
-14,-804,0,0,0,0,0,0,0,0,0,-1,1210,1828,0,0
-7,-804,0,0,0,0,0,0,0,0,0,-1,1217,1828,0,0
0,-804,0,0,0,0,0,0,0,0,0,-1,1224,1828,0,0
7,-804,0,0,0,0,0,0,0,0,0,-1,1231,1828,0,0
14,-804,0,0,0,0,0,0,0,0,0,-1,1238,1828,0,0
21,-804,0,0,0,0,0,0,0,0,0,-1,1245,1828,0,0
28,-804,0,0,0,0,0,0,0,0,0,-1,1252,1828,0,0
35,-804,12.6516,49.7385,0.0273699,0.335356,-0.0647621,0.34842,0.0143061,-1.37175,0.227661,0.0447541,1259,1828,12.6516,-49.7385
42,-804,11.8037,50.7397,0.0168258,0.301762,-0.0607773,0.314185,0.0044035,-1.36918,0.208004,0.0442954,1266,1828,11.8038,-50.7398
49,-804,11.3073,51.421,0.00711225,0.269318,-0.0554142,0.280548,-0.00411792,-1.37085,0.18842,0.0449803,1273,1828,11.3072,-51.4211
56,-804,10.4269,52.7866,-0.00257593,0.243528,-0.0490921,0.252959,-0.0120072,-1.38099,0.172781,0.0424732,1280,1828,10.4269,-52.7867
63,-804,9.63354,52.949,-0.0125351,0.224667,-0.042059,0.231904,-0.0197719,-1.4004,0.161597,0.0460256,1287,1828,9.63359,-52.949
70,-804,9.66895,52.7572,-0.0229568,0.213766,-0.0345886,0.218716,-0.0279072,-1.42864,0.155948,0.0458872,1294,1828,9.66901,-52.7572
77,-804,9.47791,51.7307,-0.0337734,0.209489,-0.0268661,0.212421,-0.0367052,-1.4621,0.155302,0.0447443,1301,1828,9.47794,-51.7307
84,-804,9.28723,51.543,-0.0447405,0.212399,-0.0197938,0.213914,-0.0462552,-1.49442,0.160268,0.0424071,1308,1828,9.28721,-51.5429
91,-804,0,0,0,0,0,0,0,0,0,-1,1315,1828,0,0
98,-804,0,0,0,0,0,0,0,0,0,-1,1322,1828,0,0
105,-804,0,0,0,0,0,0,0,0,0,-1,1329,1828,0,0
112,-804,0,0,0,0,0,0,0,0,0,-1,1336,1828,0,0
119,-804,0,0,0,0,0,0,0,0,0,-1,1343,1828,0,0
126,-804,0,0,0,0,0,0,0,0,0,-1,1350,1828,0,0
133,-804,0,0,0,0,0,0,0,0,0,-1,1357,1828,0,0
140,-804,0,0,0,0,0,0,0,0,0,-1,1364,1828,0,0
147,-804,0,0,0,0,0,0,0,0,0,-1,1371,1828,0,0
154,-804,0,0,0,0,0,0,0,0,0,-1,1378,1828,0,0
161,-804,0,0,0,0,0,0,0,0,0,-1,1385,1828,0,0
168,-804,0,0,0,0,0,0,0,0,0,-1,1392,1828,0,0
175,-804,0,0,0,0,0,0,0,0,0,-1,1399,1828,0,0
182,-804,0,0,0,0,0,0,0,0,0,-1,1406,1828,0,0
189,-804,0,0,0,0,0,0,0,0,0,-1,1413,1828,0,0
196,-804,0,0,0,0,0,0,0,0,0,-1,1420,1828,0,0
203,-804,0,0,0,0,0,0,0,0,0,-1,1427,1828,0,0
210,-804,0,0,0,0,0,0,0,0,0,-1,1434,1828,0,0
217,-804,0,0,0,0,0,0,0,0,0,-1,1441,1828,0,0
224,-804,0,0,0,0,0,0,0,0,0,-1,1448,1828,0,0
231,-804,0,0,0,0,0,0,0,0,0,-1,1455,1828,0,0
238,-804,0,0,0,0,0,0,0,0,0,-1,1462,1828,0,0
245,-804,0,0,0,0,0,0,0,0,0,-1,1469,1828,0,0
252,-804,0,0,0,0,0,0,0,0,0,-1,1476,1828,0,0
259,-804,0,0,0,0,0,0,0,0,0,-1,1483,1828,0,0
266,-804,0,0,0,0,0,0,0,0,0,-1,1490,1828,0,0
273,-804,0,0,0,0,0,0,0,0,0,-1,1497,1828,0,0
280,-804,0,0,0,0,0,0,0,0,0,-1,1504,1828,0,0
287,-804,0,0,0,0,0,0,0,0,0,-1,1511,1828,0,0
294,-804,0,0,0,0,0,0,0,0,0,-1,1518,1828,0,0
301,-804,0,0,0,0,0,0,0,0,0,-1,1525,1828,0,0
308,-804,0,0,0,0,0,0,0,0,0,-1,1532,1828,0,0
315,-804,0,0,0,0,0,0,0,0,0,-1,1539,1828,0,0
322,-804,0,0,0,0,0,0,0,0,0,-1,1546,1828,0,0
329,-804,0,0,0,0,0,0,0,0,0,-1,1553,1828,0,0
336,-804,0,0,0,0,0,0,0,0,0,-1,1560,1828,0,0
343,-804,0,0,0,0,0,0,0,0,0,-1,1567,1828,0,0
350,-804,0,0,0,0,0,0,0,0,0,-1,1574,1828,0,0
357,-804,0,0,0,0,0,0,0,0,0,-1,1581,1828,0,0
364,-804,0,0,0,0,0,0,0,0,0,-1,1588,1828,0,0
371,-804,0,0,0,0,0,0,0,0,0,-1,1595,1828,0,0
378,-804,0,0,0,0,0,0,0,0,0,-1,1602,1828,0,0
385,-804,0,0,0,0,0,0,0,0,0,-1,1609,1828,0,0
392,-804,0,0,0,0,0,0,0,0,0,-1,1616,1828,0,0
399,-804,0,0,0,0,0,0,0,0,0,-1,1623,1828,0,0
406,-804,0,0,0,0,0,0,0,0,0,-1,1630,1828,0,0
413,-804,0,0,0,0,0,0,0,0,0,-1,1637,1828,0,0
420,-804,0,0,0,0,0,0,0,0,0,-1,1644,1828,0,0
427,-804,0,0,0,0,0,0,0,0,0,-1,1651,1828,0,0
434,-804,0,0,0,0,0,0,0,0,0,-1,1658,1828,0,0
441,-804,0,0,0,0,0,0,0,0,0,-1,1665,1828,0,0
448,-804,0,0,0,0,0,0,0,0,0,-1,1672,1828,0,0
455,-804,0,0,0,0,0,0,0,0,0,-1,1679,1828,0,0
462,-804,0,0,0,0,0,0,0,0,0,-1,1686,1828,0,0
469,-804,0,0,0,0,0,0,0,0,0,-1,1693,1828,0,0
476,-804,0,0,0,0,0,0,0,0,0,-1,1700,1828,0,0
483,-804,0,0,0,0,0,0,0,0,0,-1,1707,1828,0,0
490,-804,0,0,0,0,0,0,0,0,0,-1,1714,1828,0,0
497,-804,0,0,0,0,0,0,0,0,0,-1,1721,1828,0,0
504,-804,0,0,0,0,0,0,0,0,0,-1,1728,1828,0,0
511,-804,0,0,0,0,0,0,0,0,0,-1,1735,1828,0,0
518,-804,0,0,0,0,0,0,0,0,0,-1,1742,1828,0,0
525,-804,0,0,0,0,0,0,0,0,0,-1,1749,1828,0,0
532,-804,0,0,0,0,0,0,0,0,0,-1,1756,1828,0,0
539,-804,0,0,0,0,0,0,0,0,0,-1,1763,1828,0,0
546,-804,0,0,0,0,0,0,0,0,0,-1,1770,1828,0,0
553,-804,0,0,0,0,0,0,0,0,0,-1,1777,1828,0,0
560,-804,0,0,0,0,0,0,0,0,0,-1,1784,1828,0,0
567,-804,0,0,0,0,0,0,0,0,0,-1,1791,1828,0,0
574,-804,0,0,0,0,0,0,0,0,0,-1,1798,1828,0,0
581,-804,0,0,0,0,0,0,0,0,0,-1,1805,1828,0,0
588,-804,0,0,0,0,0,0,0,0,0,-1,1812,1828,0,0
595,-804,0,0,0,0,0,0,0,0,0,-1,1819,1828,0,0
602,-804,0,0,0,0,0,0,0,0,0,-1,1826,1828,0,0
609,-804,0,0,0,0,0,0,0,0,0,-1,1833,1828,0,0
616,-804,0,0,0,0,0,0,0,0,0,-1,1840,1828,0,0
623,-804,0,0,0,0,0,0,0,0,0,-1,1847,1828,0,0
630,-804,0,0,0,0,0,0,0,0,0,-1,1854,1828,0,0
637,-804,0,0,0,0,0,0,0,0,0,-1,1861,1828,0,0
644,-804,0,0,0,0,0,0,0,0,0,-1,1868,1828,0,0
651,-804,0,0,0,0,0,0,0,0,0,-1,1875,1828,0,0
658,-804,0,0,0,0,0,0,0,0,0,-1,1882,1828,0,0
665,-804,0,0,0,0,0,0,0,0,0,-1,1889,1828,0,0
672,-804,0,0,0,0,0,0,0,0,0,-1,1896,1828,0,0
679,-804,0,0,0,0,0,0,0,0,0,-1,1903,1828,0,0
686,-804,0,0,0,0,0,0,0,0,0,-1,1910,1828,0,0
693,-804,0,0,0,0,0,0,0,0,0,-1,1917,1828,0,0
700,-804,0,0,0,0,0,0,0,0,0,-1,1924,1828,0,0
707,-804,0,0,0,0,0,0,0,0,0,-1,1931,1828,0,0
714,-804,0,0,0,0,0,0,0,0,0,-1,1938,1828,0,0
721,-804,0,0,0,0,0,0,0,0,0,-1,1945,1828,0,0
728,-804,0,0,0,0,0,0,0,0,0,-1,1952,1828,0,0
735,-804,0,0,0,0,0,0,0,0,0,-1,1959,1828,0,0
742,-804,0,0,0,0,0,0,0,0,0,-1,1966,1828,0,0
749,-804,0,0,0,0,0,0,0,0,0,-1,1973,1828,0,0
756,-804,0,0,0,0,0,0,0,0,0,-1,1980,1828,0,0
763,-804,0,0,0,0,0,0,0,0,0,-1,1987,1828,0,0
770,-804,0,0,0,0,0,0,0,0,0,-1,1994,1828,0,0
777,-804,0,0,0,0,0,0,0,0,0,-1,2001,1828,0,0
784,-804,0,0,0,0,0,0,0,0,0,-1,2008,1828,0,0
791,-804,0,0,0,0,0,0,0,0,0,-1,2015,1828,0,0
798,-804,0,0,0,0,0,0,0,0,0,-1,2022,1828,0,0
805,-804,0,0,0,0,0,0,0,0,0,-1,2029,1828,0,0
812,-804,0,0,0,0,0,0,0,0,0,-1,2036,1828,0,0

