 "x_c",  "y_c",  "u_c",  "v_c",  "exx",  "eyy",  "exy",  "e1",  "e2",  "gamma",  "e_vonmises",  "sigma",  "x",  "y",  "u",  "v"
-700,715,0,0,0,0,0,0,0,0,0,-1,524,309,0,0
-693,715,0,0,0,0,0,0,0,0,0,-1,531,309,0,0
-686,715,0,0,0,0,0,0,0,0,0,-1,538,309,0,0
-679,715,0,0,0,0,0,0,0,0,0,-1,545,309,0,0
-672,715,0,0,0,0,0,0,0,0,0,-1,552,309,0,0
-665,715,0,0,0,0,0,0,0,0,0,-1,559,309,0,0
-658,715,0,0,0,0,0,0,0,0,0,-1,566,309,0,0
-651,715,0,0,0,0,0,0,0,0,0,-1,573,309,0,0
-644,715,0,0,0,0,0,0,0,0,0,-1,580,309,0,0
-637,715,0,0,0,0,0,0,0,0,0,-1,587,309,0,0
-630,715,0,0,0,0,0,0,0,0,0,-1,594,309,0,0
-623,715,0,0,0,0,0,0,0,0,0,-1,601,309,0,0
-616,715,0,0,0,0,0,0,0,0,0,-1,608,309,0,0
-609,715,0,0,0,0,0,0,0,0,0,-1,615,309,0,0
-602,715,0,0,0,0,0,0,0,0,0,-1,622,309,0,0
-595,715,0,0,0,0,0,0,0,0,0,-1,629,309,0,0
-588,715,0,0,0,0,0,0,0,0,0,-1,636,309,0,0
-581,715,0,0,0,0,0,0,0,0,0,-1,643,309,0,0
-574,715,0,0,0,0,0,0,0,0,0,-1,650,309,0,0
-567,715,0,0,0,0,0,0,0,0,0,-1,657,309,0,0
-560,715,0,0,0,0,0,0,0,0,0,-1,664,309,0,0
-553,715,0,0,0,0,0,0,0,0,0,-1,671,309,0,0
-546,715,0,0,0,0,0,0,0,0,0,-1,678,309,0,0
-539,715,0,0,0,0,0,0,0,0,0,-1,685,309,0,0
-532,715,0,0,0,0,0,0,0,0,0,-1,692,309,0,0
-525,715,0,0,0,0,0,0,0,0,0,-1,699,309,0,0
-518,715,0,0,0,0,0,0,0,0,0,-1,706,309,0,0
-511,715,0,0,0,0,0,0,0,0,0,-1,713,309,0,0
-504,715,0,0,0,0,0,0,0,0,0,-1,720,309,0,0
-497,715,0,0,0,0,0,0,0,0,0,-1,727,309,0,0
-490,715,0,0,0,0,0,0,0,0,0,-1,734,309,0,0
-483,715,0,0,0,0,0,0,0,0,0,-1,741,309,0,0
-476,715,0,0,0,0,0,0,0,0,0,-1,748,309,0,0
-469,715,0,0,0,0,0,0,0,0,0,-1,755,309,0,0
-462,715,0,0,0,0,0,0,0,0,0,-1,762,309,0,0
-455,715,0,0,0,0,0,0,0,0,0,-1,769,309,0,0
-448,715,0,0,0,0,0,0,0,0,0,-1,776,309,0,0
-441,715,0,0,0,0,0,0,0,0,0,-1,783,309,0,0
-434,715,0,0,0,0,0,0,0,0,0,-1,790,309,0,0
-427,715,0,0,0,0,0,0,0,0,0,-1,797,309,0,0
-420,715,0,0,0,0,0,0,0,0,0,-1,804,309,0,0
-413,715,0,0,0,0,0,0,0,0,0,-1,811,309,0,0
-406,715,0,0,0,0,0,0,0,0,0,-1,818,309,0,0
-399,715,0,0,0,0,0,0,0,0,0,-1,825,309,0,0
-392,715,0,0,0,0,0,0,0,0,0,-1,832,309,0,0
-385,715,0,0,0,0,0,0,0,0,0,-1,839,309,0,0
-378,715,0,0,0,0,0,0,0,0,0,-1,846,309,0,0
-371,715,0,0,0,0,0,0,0,0,0,-1,853,309,0,0
-364,715,0,0,0,0,0,0,0,0,0,-1,860,309,0,0
-357,715,0,0,0,0,0,0,0,0,0,-1,867,309,0,0
-350,715,0,0,0,0,0,0,0,0,0,-1,874,309,0,0
-343,715,0,0,0,0,0,0,0,0,0,-1,881,309,0,0
-336,715,0,0,0,0,0,0,0,0,0,-1,888,309,0,0
-329,715,0,0,0,0,0,0,0,0,0,-1,895,309,0,0
-322,715,0,0,0,0,0,0,0,0,0,-1,902,309,0,0
-315,715,0,0,0,0,0,0,0,0,0,-1,909,309,0,0
-308,715,0,0,0,0,0,0,0,0,0,-1,916,309,0,0
-301,715,0,0,0,0,0,0,0,0,0,-1,923,309,0,0
-294,715,0,0,0,0,0,0,0,0,0,-1,930,309,0,0
-287,715,0,0,0,0,0,0,0,0,0,-1,937,309,0,0
-280,715,0,0,0,0,0,0,0,0,0,-1,944,309,0,0
-273,715,0,0,0,0,0,0,0,0,0,-1,951,309,0,0
-266,715,0,0,0,0,0,0,0,0,0,-1,958,309,0,0
-259,715,0,0,0,0,0,0,0,0,0,-1,965,309,0,0
-252,715,0,0,0,0,0,0,0,0,0,-1,972,309,0,0
-245,715,0,0,0,0,0,0,0,0,0,-1,979,309,0,0
-238,715,0,0,0,0,0,0,0,0,0,-1,986,309,0,0
-231,715,0,0,0,0,0,0,0,0,0,-1,993,309,0,0
-224,715,0,0,0,0,0,0,0,0,0,-1,1000,309,0,0
-217,715,0,0,0,0,0,0,0,0,0,-1,1007,309,0,0
-210,715,0,0,0,0,0,0,0,0,0,-1,1014,309,0,0
-203,715,0,0,0,0,0,0,0,0,0,-1,1021,309,0,0
-196,715,0,0,0,0,0,0,0,0,0,-1,1028,309,0,0
-189,715,0,0,0,0,0,0,0,0,0,-1,1035,309,0,0
-182,715,0,0,0,0,0,0,0,0,0,-1,1042,309,0,0
-175,715,0,0,0,0,0,0,0,0,0,-1,1049,309,0,0
-168,715,0,0,0,0,0,0,0,0,0,-1,1056,309,0,0
-161,715,0,0,0,0,0,0,0,0,0,-1,1063,309,0,0
-154,715,0,0,0,0,0,0,0,0,0,-1,1070,309,0,0
-147,715,0,0,0,0,0,0,0,0,0,-1,1077,309,0,0
-140,715,0,0,0,0,0,0,0,0,0,-1,1084,309,0,0
-133,715,0,0,0,0,0,0,0,0,0,-1,1091,309,0,0
-126,715,0,0,0,0,0,0,0,0,0,-1,1098,309,0,0
-119,715,0,0,0,0,0,0,0,0,0,-1,1105,309,0,0
-112,715,0,0,0,0,0,0,0,0,0,-1,1112,309,0,0
-105,715,0,0,0,0,0,0,0,0,0,-1,1119,309,0,0
-98,715,0,0,0,0,0,0,0,0,0,-1,1126,309,0,0
-91,715,0,0,0,0,0,0,0,0,0,-1,1133,309,0,0
-84,715,0,0,0,0,0,0,0,0,0,-1,1140,309,0,0
-77,715,0,0,0,0,0,0,0,0,0,-1,1147,309,0,0
-70,715,0,0,0,0,0,0,0,0,0,-1,1154,309,0,0
-63,715,0,0,0,0,0,0,0,0,0,-1,1161,309,0,0
-56,715,0,0,0,0,0,0,0,0,0,-1,1168,309,0,0
-49,715,0,0,0,0,0,0,0,0,0,-1,1175,309,0,0
-42,715,0,0,0,0,0,0,0,0,0,-1,1182,309,0,0
-35,715,0,0,0,0,0,0,0,0,0,-1,1189,309,0,0
-28,715,0,0,0,0,0,0,0,0,0,-1,1196,309,0,0
-21,715,0,0,0,0,0,0,0,0,0,-1,1203,309,0,0
-14,715,0,0,0,0,0,0,0,0,0,-1,1210,309,0,0
-7,715,0,0,0,0,0,0,0,0,0,-1,1217,309,0,0
0,715,0,0,0,0,0,0,0,0,0,-1,1224,309,0,0
7,715,0,0,0,0,0,0,0,0,0,-1,1231,309,0,0
14,715,0,0,0,0,0,0,0,0,0,-1,1238,309,0,0
21,715,0,0,0,0,0,0,0,0,0,-1,1245,309,0,0
28,715,0,0,0,0,0,0,0,0,0,-1,1252,309,0,0
35,715,0,0,0,0,0,0,0,0,0,-1,1259,309,0,0
42,715,0,0,0,0,0,0,0,0,0,-1,1266,309,0,0
49,715,0,0,0,0,0,0,0,0,0,-1,1273,309,0,0
56,715,0,0,0,0,0,0,0,0,0,-1,1280,309,0,0
63,715,1.94312,-1.18509,0,0,0,0,0,0,0,-1,1287,309,1.94312,1.18509
70,715,1.97217,-1.00143,0,0,0,0,0,0,0,-1,1294,309,1.9722,1.00144
77,715,0,0,0,0,0,0,0,0,0,-1,1301,309,0,0
84,715,0,0,0,0,0,0,0,0,0,-1,1308,309,0,0
91,715,0,0,0,0,0,0,0,0,0,-1,1315,309,0,0
98,715,0,0,0,0,0,0,0,0,0,-1,1322,309,0,0
105,715,0,0,0,0,0,0,0,0,0,-1,1329,309,0,0
112,715,0,0,0,0,0,0,0,0,0,-1,1336,309,0,0
119,715,0,0,0,0,0,0,0,0,0,-1,1343,309,0,0
126,715,0,0,0,0,0,0,0,0,0,-1,1350,309,0,0
133,715,0,0,0,0,0,0,0,0,0,-1,1357,309,0,0
140,715,0,0,0,0,0,0,0,0,0,-1,1364,309,0,0
147,715,0,0,0,0,0,0,0,0,0,-1,1371,309,0,0
154,715,0,0,0,0,0,0,0,0,0,-1,1378,309,0,0
161,715,0,0,0,0,0,0,0,0,0,-1,1385,309,0,0
168,715,0,0,0,0,0,0,0,0,0,-1,1392,309,0,0
175,715,0,0,0,0,0,0,0,0,0,-1,1399,309,0,0
182,715,0,0,0,0,0,0,0,0,0,-1,1406,309,0,0
189,715,0,0,0,0,0,0,0,0,0,-1,1413,309,0,0
196,715,0,0,0,0,0,0,0,0,0,-1,1420,309,0,0
203,715,0,0,0,0,0,0,0,0,0,-1,1427,309,0,0
210,715,0,0,0,0,0,0,0,0,0,-1,1434,309,0,0
217,715,0,0,0,0,0,0,0,0,0,-1,1441,309,0,0
224,715,0,0,0,0,0,0,0,0,0,-1,1448,309,0,0
231,715,0,0,0,0,0,0,0,0,0,-1,1455,309,0,0
238,715,0,0,0,0,0,0,0,0,0,-1,1462,309,0,0
245,715,0,0,0,0,0,0,0,0,0,-1,1469,309,0,0
252,715,0,0,0,0,0,0,0,0,0,-1,1476,309,0,0
259,715,0,0,0,0,0,0,0,0,0,-1,1483,309,0,0
266,715,0,0,0,0,0,0,0,0,0,-1,1490,309,0,0
273,715,0,0,0,0,0,0,0,0,0,-1,1497,309,0,0
280,715,0,0,0,0,0,0,0,0,0,-1,1504,309,0,0
287,715,0,0,0,0,0,0,0,0,0,-1,1511,309,0,0
294,715,0,0,0,0,0,0,0,0,0,-1,1518,309,0,0
301,715,0,0,0,0,0,0,0,0,0,-1,1525,309,0,0
308,715,0,0,0,0,0,0,0,0,0,-1,1532,309,0,0
315,715,0,0,0,0,0,0,0,0,0,-1,1539,309,0,0
322,715,0,0,0,0,0,0,0,0,0,-1,1546,309,0,0
329,715,0,0,0,0,0,0,0,0,0,-1,1553,309,0,0
336,715,0,0,0,0,0,0,0,0,0,-1,1560,309,0,0
343,715,0,0,0,0,0,0,0,0,0,-1,1567,309,0,0
350,715,0,0,0,0,0,0,0,0,0,-1,1574,309,0,0
357,715,0,0,0,0,0,0,0,0,0,-1,1581,309,0,0
364,715,0,0,0,0,0,0,0,0,0,-1,1588,309,0,0
371,715,0,0,0,0,0,0,0,0,0,-1,1595,309,0,0
378,715,0,0,0,0,0,0,0,0,0,-1,1602,309,0,0
385,715,0,0,0,0,0,0,0,0,0,-1,1609,309,0,0
392,715,0,0,0,0,0,0,0,0,0,-1,1616,309,0,0
399,715,0,0,0,0,0,0,0,0,0,-1,1623,309,0,0
406,715,0,0,0,0,0,0,0,0,0,-1,1630,309,0,0
413,715,0,0,0,0,0,0,0,0,0,-1,1637,309,0,0
420,715,0,0,0,0,0,0,0,0,0,-1,1644,309,0,0
427,715,0,0,0,0,0,0,0,0,0,-1,1651,309,0,0
434,715,0,0,0,0,0,0,0,0,0,-1,1658,309,0,0
441,715,0,0,0,0,0,0,0,0,0,-1,1665,309,0,0
448,715,0,0,0,0,0,0,0,0,0,-1,1672,309,0,0
455,715,0,0,0,0,0,0,0,0,0,-1,1679,309,0,0
462,715,0,0,0,0,0,0,0,0,0,-1,1686,309,0,0
469,715,0,0,0,0,0,0,0,0,0,-1,1693,309,0,0
476,715,0,0,0,0,0,0,0,0,0,-1,1700,309,0,0
483,715,0,0,0,0,0,0,0,0,0,-1,1707,309,0,0
490,715,0,0,0,0,0,0,0,0,0,-1,1714,309,0,0
497,715,0,0,0,0,0,0,0,0,0,-1,1721,309,0,0
504,715,0,0,0,0,0,0,0,0,0,-1,1728,309,0,0
511,715,0,0,0,0,0,0,0,0,0,-1,1735,309,0,0
518,715,0,0,0,0,0,0,0,0,0,-1,1742,309,0,0
525,715,0,0,0,0,0,0,0,0,0,-1,1749,309,0,0
532,715,0,0,0,0,0,0,0,0,0,-1,1756,309,0,0
539,715,0,0,0,0,0,0,0,0,0,-1,1763,309,0,0
546,715,0,0,0,0,0,0,0,0,0,-1,1770,309,0,0
553,715,0,0,0,0,0,0,0,0,0,-1,1777,309,0,0
560,715,0,0,0,0,0,0,0,0,0,-1,1784,309,0,0
567,715,0,0,0,0,0,0,0,0,0,-1,1791,309,0,0
574,715,0,0,0,0,0,0,0,0,0,-1,1798,309,0,0
581,715,0,0,0,0,0,0,0,0,0,-1,1805,309,0,0
588,715,0,0,0,0,0,0,0,0,0,-1,1812,309,0,0
595,715,0,0,0,0,0,0,0,0,0,-1,1819,309,0,0
602,715,0,0,0,0,0,0,0,0,0,-1,1826,309,0,0
609,715,0,0,0,0,0,0,0,0,0,-1,1833,309,0,0
616,715,0,0,0,0,0,0,0,0,0,-1,1840,309,0,0
623,715,0,0,0,0,0,0,0,0,0,-1,1847,309,0,0
630,715,0,0,0,0,0,0,0,0,0,-1,1854,309,0,0
637,715,0,0,0,0,0,0,0,0,0,-1,1861,309,0,0
644,715,0,0,0,0,0,0,0,0,0,-1,1868,309,0,0
651,715,0,0,0,0,0,0,0,0,0,-1,1875,309,0,0
658,715,0,0,0,0,0,0,0,0,0,-1,1882,309,0,0
665,715,0,0,0,0,0,0,0,0,0,-1,1889,309,0,0
672,715,0,0,0,0,0,0,0,0,0,-1,1896,309,0,0
679,715,0,0,0,0,0,0,0,0,0,-1,1903,309,0,0
686,715,0,0,0,0,0,0,0,0,0,-1,1910,309,0,0
693,715,0,0,0,0,0,0,0,0,0,-1,1917,309,0,0
700,715,0,0,0,0,0,0,0,0,0,-1,1924,309,0,0
707,715,0,0,0,0,0,0,0,0,0,-1,1931,309,0,0
714,715,0,0,0,0,0,0,0,0,0,-1,1938,309,0,0
721,715,0,0,0,0,0,0,0,0,0,-1,1945,309,0,0
728,715,0,0,0,0,0,0,0,0,0,-1,1952,309,0,0
735,715,0,0,0,0,0,0,0,0,0,-1,1959,309,0,0
742,715,0,0,0,0,0,0,0,0,0,-1,1966,309,0,0
749,715,0,0,0,0,0,0,0,0,0,-1,1973,309,0,0
756,715,0,0,0,0,0,0,0,0,0,-1,1980,309,0,0
763,715,0,0,0,0,0,0,0,0,0,-1,1987,309,0,0
770,715,0,0,0,0,0,0,0,0,0,-1,1994,309,0,0
777,715,0,0,0,0,0,0,0,0,0,-1,2001,309,0,0
784,715,0,0,0,0,0,0,0,0,0,-1,2008,309,0,0
791,715,0,0,0,0,0,0,0,0,0,-1,2015,309,0,0
798,715,0,0,0,0,0,0,0,0,0,-1,2022,309,0,0
805,715,0,0,0,0,0,0,0,0,0,-1,2029,309,0,0
812,715,0,0,0,0,0,0,0,0,0,-1,2036,309,0,0
-700,708,0,0,0,0,0,0,0,0,0,-1,524,316,0,0
-693,708,0,0,0,0,0,0,0,0,0,-1,531,316,0,0
-686,708,0,0,0,0,0,0,0,0,0,-1,538,316,0,0
-679,708,0,0,0,0,0,0,0,0,0,-1,545,316,0,0
-672,708,0,0,0,0,0,0,0,0,0,-1,552,316,0,0
-665,708,0,0,0,0,0,0,0,0,0,-1,559,316,0,0
-658,708,0,0,0,0,0,0,0,0,0,-1,566,316,0,0
-651,708,0,0,0,0,0,0,0,0,0,-1,573,316,0,0
-644,708,0,0,0,0,0,0,0,0,0,-1,580,316,0,0
-637,708,0,0,0,0,0,0,0,0,0,-1,587,316,0,0
-630,708,0,0,0,0,0,0,0,0,0,-1,594,316,0,0
-623,708,0,0,0,0,0,0,0,0,0,-1,601,316,0,0
-616,708,0,0,0,0,0,0,0,0,0,-1,608,316,0,0
-609,708,0,0,0,0,0,0,0,0,0,-1,615,316,0,0
-602,708,0,0,0,0,0,0,0,0,0,-1,622,316,0,0
-595,708,0,0,0,0,0,0,0,0,0,-1,629,316,0,0
-588,708,0,0,0,0,0,0,0,0,0,-1,636,316,0,0
-581,708,0,0,0,0,0,0,0,0,0,-1,643,316,0,0
-574,708,0,0,0,0,0,0,0,0,0,-1,650,316,0,0
-567,708,0,0,0,0,0,0,0,0,0,-1,657,316,0,0
-560,708,0,0,0,0,0,0,0,0,0,-1,664,316,0,0
-553,708,0,0,0,0,0,0,0,0,0,-1,671,316,0,0
-546,708,0,0,0,0,0,0,0,0,0,-1,678,316,0,0
-539,708,0,0,0,0,0,0,0,0,0,-1,685,316,0,0
-532,708,0,0,0,0,0,0,0,0,0,-1,692,316,0,0
-525,708,0,0,0,0,0,0,0,0,0,-1,699,316,0,0
-518,708,0,0,0,0,0,0,0,0,0,-1,706,316,0,0
-511,708,0,0,0,0,0,0,0,0,0,-1,713,316,0,0
-504,708,0,0,0,0,0,0,0,0,0,-1,720,316,0,0
-497,708,0,0,0,0,0,0,0,0,0,-1,727,316,0,0
-490,708,0,0,0,0,0,0,0,0,0,-1,734,316,0,0
-483,708,0,0,0,0,0,0,0,0,0,-1,741,316,0,0
-476,708,0,0,0,0,0,0,0,0,0,-1,748,316,0,0
-469,708,0,0,0,0,0,0,0,0,0,-1,755,316,0,0
-462,708,0,0,0,0,0,0,0,0,0,-1,762,316,0,0
-455,708,0,0,0,0,0,0,0,0,0,-1,769,316,0,0
-448,708,0,0,0,0,0,0,0,0,0,-1,776,316,0,0
-441,708,0,0,0,0,0,0,0,0,0,-1,783,316,0,0
-434,708,0,0,0,0,0,0,0,0,0,-1,790,316,0,0
-427,708,0,0,0,0,0,0,0,0,0,-1,797,316,0,0
-420,708,0,0,0,0,0,0,0,0,0,-1,804,316,0,0
-413,708,0,0,0,0,0,0,0,0,0,-1,811,316,0,0
-406,708,0,0,0,0,0,0,0,0,0,-1,818,316,0,0
-399,708,0,0,0,0,0,0,0,0,0,-1,825,316,0,0
-392,708,0,0,0,0,0,0,0,0,0,-1,832,316,0,0
-385,708,0,0,0,0,0,0,0,0,0,-1,839,316,0,0
-378,708,0,0,0,0,0,0,0,0,0,-1,846,316,0,0
-371,708,0,0,0,0,0,0,0,0,0,-1,853,316,0,0
-364,708,0,0,0,0,0,0,0,0,0,-1,860,316,0,0
-357,708,0,0,0,0,0,0,0,0,0,-1,867,316,0,0
-350,708,0,0,0,0,0,0,0,0,0,-1,874,316,0,0
-343,708,0,0,0,0,0,0,0,0,0,-1,881,316,0,0
-336,708,0,0,0,0,0,0,0,0,0,-1,888,316,0,0
-329,708,0,0,0,0,0,0,0,0,0,-1,895,316,0,0
-322,708,0,0,0,0,0,0,0,0,0,-1,902,316,0,0
-315,708,0,0,0,0,0,0,0,0,0,-1,909,316,0,0
-308,708,0,0,0,0,0,0,0,0,0,-1,916,316,0,0
-301,708,0,0,0,0,0,0,0,0,0,-1,923,316,0,0
-294,708,0,0,0,0,0,0,0,0,0,-1,930,316,0,0
-287,708,0,0,0,0,0,0,0,0,0,-1,937,316,0,0
-280,708,0,0,0,0,0,0,0,0,0,-1,944,316,0,0
-273,708,0,0,0,0,0,0,0,0,0,-1,951,316,0,0
-266,708,0,0,0,0,0,0,0,0,0,-1,958,316,0,0
-259,708,0,0,0,0,0,0,0,0,0,-1,965,316,0,0
-252,708,0,0,0,0,0,0,0,0,0,-1,972,316,0,0
-245,708,0,0,0,0,0,0,0,0,0,-1,979,316,0,0
-238,708,0,0,0,0,0,0,0,0,0,-1,986,316,0,0
-231,708,0,0,0,0,0,0,0,0,0,-1,993,316,0,0
-224,708,0,0,0,0,0,0,0,0,0,-1,1000,316,0,0
-217,708,0,0,0,0,0,0,0,0,0,-1,1007,316,0,0
-210,708,0,0,0,0,0,0,0,0,0,-1,1014,316,0,0
-203,708,0,0,0,0,0,0,0,0,0,-1,1021,316,0,0
-196,708,0,0,0,0,0,0,0,0,0,-1,1028,316,0,0
-189,708,0,0,0,0,0,0,0,0,0,-1,1035,316,0,0
-182,708,0,0,0,0,0,0,0,0,0,-1,1042,316,0,0
-175,708,0,0,0,0,0,0,0,0,0,-1,1049,316,0,0
-168,708,0,0,0,0,0,0,0,0,0,-1,1056,316,0,0
-161,708,0,0,0,0,0,0,0,0,0,-1,1063,316,0,0
-154,708,0,0,0,0,0,0,0,0,0,-1,1070,316,0,0
-147,708,0,0,0,0,0,0,0,0,0,-1,1077,316,0,0
-140,708,0,0,0,0,0,0,0,0,0,-1,1084,316,0,0
-133,708,0,0,0,0,0,0,0,0,0,-1,1091,316,0,0
-126,708,0,0,0,0,0,0,0,0,0,-1,1098,316,0,0
-119,708,0,0,0,0,0,0,0,0,0,-1,1105,316,0,0
-112,708,0,0,0,0,0,0,0,0,0,-1,1112,316,0,0
-105,708,0,0,0,0,0,0,0,0,0,-1,1119,316,0,0
-98,708,0,0,0,0,0,0,0,0,0,-1,1126,316,0,0
-91,708,0,0,0,0,0,0,0,0,0,-1,1133,316,0,0
-84,708,0,0,0,0,0,0,0,0,0,-1,1140,316,0,0
-77,708,0,0,0,0,0,0,0,0,0,-1,1147,316,0,0
-70,708,0,0,0,0,0,0,0,0,0,-1,1154,316,0,0
-63,708,0,0,0,0,0,0,0,0,0,-1,1161,316,0,0
-56,708,0,0,0,0,0,0,0,0,0,-1,1168,316,0,0
-49,708,0,0,0,0,0,0,0,0,0,-1,1175,316,0,0
-42,708,0,0,0,0,0,0,0,0,0,-1,1182,316,0,0
-35,708,0.117554,0.654358,0.0561205,0.0464878,0.0176902,0.0696383,0.03297,0.652489,0.0402246,0.0481535,1189,316,0.117502,-0.654372
-28,708,0.165039,0.781097,0.066611,0.0466186,0.0199398,0.07892,0.0343096,0.553047,0.0456937,0.047208,1196,316,0.165068,-0.781109
-21,708,0.433228,0.644775,0,0,0,0,0,0,0,-1,1203,316,0.433208,-0.644782
-14,708,1.23999,1.10471,0.0793016,0.0443879,0.0211979,0.0893055,0.034384,0.440939,0.0520131,0.04244,1210,316,1.23995,-1.1047
-7,708,2.0625,1.34741,0,0,0,0,0,0,0,-1,1217,316,2.06254,-1.34743
0,708,2.8457,1.57504,0,0,0,0,0,0,0,-1,1224,316,2.84565,-1.57505
7,708,-0.754761,1.24219,0,0,0,0,0,0,0,-1,1231,316,-0.754702,-1.24219
14,708,-0.822144,0.673279,0,0,0,0,0,0,0,-1,1238,316,-0.822089,-0.673291
21,708,-0.895996,0.0810852,0,0,0,0,0,0,0,-1,1245,316,-0.895951,-0.0810968
28,708,-0.584473,1.86874,0,0,0,0,0,0,0,-1,1252,316,-0.584467,-1.86875
35,708,-1.01453,-2.50507,0,0,0,0,0,0,0,-1,1259,316,-1.01455,2.50507
42,708,-1.70471,-0.716583,0,0,0,0,0,0,0,-1,1266,316,-1.70474,0.716593
49,708,1.5249,-1.198,0,0,0,0,0,0,0,-1,1273,316,1.52486,1.198
56,708,1.49866,-1.09656,0,0,0,0,0,0,0,-1,1280,316,1.49868,1.09656
63,708,1.49072,-0.983521,0,0,0,0,0,0,0,-1,1287,316,1.49067,0.983511
70,708,1.48608,-0.835144,0,0,0,0,0,0,0,-1,1294,316,1.48611,0.83514
77,708,-3.14575,-1.7814,0,0,0,0,0,0,0,-1,1301,316,-3.14577,1.7814
84,708,-2.42078,-1.63049,0,0,0,0,0,0,0,-1,1308,316,-2.42076,1.63049
91,708,-1.6958,-1.47958,0,0,0,0,0,0,0,-1,1315,316,-1.69575,1.47958
98,708,-4.19043,1.19174,0,0,0,0,0,0,0,-1,1322,316,-4.19041,-1.19175
105,708,-2.90063,1.06375,0.10178,0.0684285,-0.0551807,0.14275,0.0274588,-0.63866,0.0874622,0.0494868,1329,316,-2.90067,-1.06376
112,708,-1.76965,0.879669,0.0891057,0.0668912,-0.0477123,0.126987,0.0290104,-0.671037,0.0768353,0.0452366,1336,316,-1.76968,-0.879657
119,708,-0.88501,0.613831,0,0,0,0,0,0,0,-1,1343,316,-0.885002,-0.613828
126,708,0.0246582,0.296387,0,0,0,0,0,0,0,-1,1350,316,0.0247182,-0.296385
133,708,1.74194,-0.292725,0,0,0,0,0,0,0,-1,1357,316,1.74189,0.292712
140,708,0.138672,0.682739,0.0190767,0.0596999,-0.00468595,0.0602334,0.0185432,-1.45743,0.0356214,0.047536,1364,316,0.13865,-0.682733
147,708,-1.2334,1.50082,0.00413982,0.0546642,0.0024224,0.05478,0.00402394,1.523,0.0352553,0.0471339,1371,316,-1.23337,-1.50081
154,708,0,0,0,0,0,0,0,0,0,-1,1378,316,0,0
161,708,0,0,0,0,0,0,0,0,0,-1,1385,316,0,0
168,708,0,0,0,0,0,0,0,0,0,-1,1392,316,0,0
175,708,0,0,0,0,0,0,0,0,0,-1,1399,316,0,0
182,708,0,0,0,0,0,0,0,0,0,-1,1406,316,0,0
189,708,0,0,0,0,0,0,0,0,0,-1,1413,316,0,0
196,708,0,0,0,0,0,0,0,0,0,-1,1420,316,0,0
203,708,0,0,0,0,0,0,0,0,0,-1,1427,316,0,0
210,708,0,0,0,0,0,0,0,0,0,-1,1434,316,0,0
217,708,0,0,0,0,0,0,0,0,0,-1,1441,316,0,0
224,708,0,0,0,0,0,0,0,0,0,-1,1448,316,0,0
231,708,0,0,0,0,0,0,0,0,0,-1,1455,316,0,0
238,708,0,0,0,0,0,0,0,0,0,-1,1462,316,0,0
245,708,0,0,0,0,0,0,0,0,0,-1,1469,316,0,0
252,708,0,0,0,0,0,0,0,0,0,-1,1476,316,0,0
259,708,0,0,0,0,0,0,0,0,0,-1,1483,316,0,0
266,708,0,0,0,0,0,0,0,0,0,-1,1490,316,0,0
273,708,0,0,0,0,0,0,0,0,0,-1,1497,316,0,0
280,708,0,0,0,0,0,0,0,0,0,-1,1504,316,0,0
287,708,0,0,0,0,0,0,0,0,0,-1,1511,316,0,0
294,708,0,0,0,0,0,0,0,0,0,-1,1518,316,0,0
301,708,0,0,0,0,0,0,0,0,0,-1,1525,316,0,0
308,708,0,0,0,0,0,0,0,0,0,-1,1532,316,0,0
315,708,0,0,0,0,0,0,0,0,0,-1,1539,316,0,0
322,708,0,0,0,0,0,0,0,0,0,-1,1546,316,0,0
329,708,0,0,0,0,0,0,0,0,0,-1,1553,316,0,0
336,708,0,0,0,0,0,0,0,0,0,-1,1560,316,0,0
343,708,0,0,0,0,0,0,0,0,0,-1,1567,316,0,0
350,708,0,0,0,0,0,0,0,0,0,-1,1574,316,0,0
357,708,0,0,0,0,0,0,0,0,0,-1,1581,316,0,0
364,708,0,0,0,0,0,0,0,0,0,-1,1588,316,0,0
371,708,0,0,0,0,0,0,0,0,0,-1,1595,316,0,0
378,708,0,0,0,0,0,0,0,0,0,-1,1602,316,0,0
385,708,0,0,0,0,0,0,0,0,0,-1,1609,316,0,0
392,708,0,0,0,0,0,0,0,0,0,-1,1616,316,0,0
399,708,0,0,0,0,0,0,0,0,0,-1,1623,316,0,0
406,708,0,0,0,0,0,0,0,0,0,-1,1630,316,0,0
413,708,0,0,0,0,0,0,0,0,0,-1,1637,316,0,0
420,708,0,0,0,0,0,0,0,0,0,-1,1644,316,0,0
427,708,0,0,0,0,0,0,0,0,0,-1,1651,316,0,0
434,708,0,0,0,0,0,0,0,0,0,-1,1658,316,0,0
441,708,0,0,0,0,0,0,0,0,0,-1,1665,316,0,0
448,708,0,0,0,0,0,0,0,0,0,-1,1672,316,0,0
455,708,0,0,0,0,0,0,0,0,0,-1,1679,316,0,0
462,708,0,0,0,0,0,0,0,0,0,-1,1686,316,0,0
469,708,0,0,0,0,0,0,0,0,0,-1,1693,316,0,0
476,708,0,0,0,0,0,0,0,0,0,-1,1700,316,0,0
483,708,0,0,0,0,0,0,0,0,0,-1,1707,316,0,0
490,708,0,0,0,0,0,0,0,0,0,-1,1714,316,0,0
497,708,0,0,0,0,0,0,0,0,0,-1,1721,316,0,0
504,708,0,0,0,0,0,0,0,0,0,-1,1728,316,0,0
511,708,0,0,0,0,0,0,0,0,0,-1,1735,316,0,0
518,708,0,0,0,0,0,0,0,0,0,-1,1742,316,0,0
525,708,0,0,0,0,0,0,0,0,0,-1,1749,316,0,0
532,708,0,0,0,0,0,0,0,0,0,-1,1756,316,0,0
539,708,0,0,0,0,0,0,0,0,0,-1,1763,316,0,0
546,708,0,0,0,0,0,0,0,0,0,-1,1770,316,0,0
553,708,0,0,0,0,0,0,0,0,0,-1,1777,316,0,0
560,708,0,0,0,0,0,0,0,0,0,-1,1784,316,0,0
567,708,0,0,0,0,0,0,0,0,0,-1,1791,316,0,0
574,708,0,0,0,0,0,0,0,0,0,-1,1798,316,0,0
581,708,0,0,0,0,0,0,0,0,0,-1,1805,316,0,0
588,708,0,0,0,0,0,0,0,0,0,-1,1812,316,0,0
595,708,0,0,0,0,0,0,0,0,0,-1,1819,316,0,0
602,708,0,0,0,0,0,0,0,0,0,-1,1826,316,0,0
609,708,0,0,0,0,0,0,0,0,0,-1,1833,316,0,0
616,708,0,0,0,0,0,0,0,0,0,-1,1840,316,0,0
623,708,0,0,0,0,0,0,0,0,0,-1,1847,316,0,0
630,708,0,0,0,0,0,0,0,0,0,-1,1854,316,0,0
637,708,0,0,0,0,0,0,0,0,0,-1,1861,316,0,0
644,708,0,0,0,0,0,0,0,0,0,-1,1868,316,0,0
651,708,0,0,0,0,0,0,0,0,0,-1,1875,316,0,0
658,708,0,0,0,0,0,0,0,0,0,-1,1882,316,0,0
665,708,0,0,0,0,0,0,0,0,0,-1,1889,316,0,0
672,708,0,0,0,0,0,0,0,0,0,-1,1896,316,0,0
679,708,0,0,0,0,0,0,0,0,0,-1,1903,316,0,0
686,708,0,0,0,0,0,0,0,0,0,-1,1910,316,0,0
693,708,0,0,0,0,0,0,0,0,0,-1,1917,316,0,0
700,708,0,0,0,0,0,0,0,0,0,-1,1924,316,0,0
707,708,0,0,0,0,0,0,0,0,0,-1,1931,316,0,0
714,708,0,0,0,0,0,0,0,0,0,-1,1938,316,0,0
721,708,0,0,0,0,0,0,0,0,0,-1,1945,316,0,0
728,708,0,0,0,0,0,0,0,0,0,-1,1952,316,0,0
735,708,0,0,0,0,0,0,0,0,0,-1,1959,316,0,0
742,708,0,0,0,0,0,0,0,0,0,-1,1966,316,0,0
749,708,0,0,0,0,0,0,0,0,0,-1,1973,316,0,0
756,708,0,0,0,0,0,0,0,0,0,-1,1980,316,0,0
763,708,0,0,0,0,0,0,0,0,0,-1,1987,316,0,0
770,708,0,0,0,0,0,0,0,0,0,-1,1994,316,0,0
777,708,0,0,0,0,0,0,0,0,0,-1,2001,316,0,0
784,708,0,0,0,0,0,0,0,0,0,-1,2008,316,0,0
791,708,0,0,0,0,0,0,0,0,0,-1,2015,316,0,0
798,708,0,0,0,0,0,0,0,0,0,-1,2022,316,0,0
805,708,0,0,0,0,0,0,0,0,0,-1,2029,316,0,0
812,708,0,0,0,0,0,0,0,0,0,-1,2036,316,0,0
-700,701,0,0,0,0,0,0,0,0,0,-1,524,323,0,0
-693,701,0,0,0,0,0,0,0,0,0,-1,531,323,0,0
-686,701,0,0,0,0,0,0,0,0,0,-1,538,323,0,0
-679,701,0,0,0,0,0,0,0,0,0,-1,545,323,0,0
-672,701,0,0,0,0,0,0,0,0,0,-1,552,323,0,0
-665,701,0,0,0,0,0,0,0,0,0,-1,559,323,0,0
-658,701,0,0,0,0,0,0,0,0,0,-1,566,323,0,0
-651,701,0,0,0,0,0,0,0,0,0,-1,573,323,0,0
-644,701,0,0,0,0,0,0,0,0,0,-1,580,323,0,0
-637,701,0,0,0,0,0,0,0,0,0,-1,587,323,0,0
-630,701,0,0,0,0,0,0,0,0,0,-1,594,323,0,0
-623,701,0,0,0,0,0,0,0,0,0,-1,601,323,0,0
-616,701,0,0,0,0,0,0,0,0,0,-1,608,323,0,0
-609,701,0,0,0,0,0,0,0,0,0,-1,615,323,0,0
-602,701,0,0,0,0,0,0,0,0,0,-1,622,323,0,0
-595,701,0,0,0,0,0,0,0,0,0,-1,629,323,0,0
-588,701,0,0,0,0,0,0,0,0,0,-1,636,323,0,0
-581,701,0,0,0,0,0,0,0,0,0,-1,643,323,0,0
-574,701,0,0,0,0,0,0,0,0,0,-1,650,323,0,0
-567,701,0,0,0,0,0,0,0,0,0,-1,657,323,0,0
-560,701,0,0,0,0,0,0,0,0,0,-1,664,323,0,0
-553,701,0,0,0,0,0,0,0,0,0,-1,671,323,0,0
-546,701,0,0,0,0,0,0,0,0,0,-1,678,323,0,0
-539,701,0,0,0,0,0,0,0,0,0,-1,685,323,0,0
-532,701,0,0,0,0,0,0,0,0,0,-1,692,323,0,0
-525,701,0,0,0,0,0,0,0,0,0,-1,699,323,0,0
-518,701,0,0,0,0,0,0,0,0,0,-1,706,323,0,0
-511,701,0,0,0,0,0,0,0,0,0,-1,713,323,0,0
-504,701,0,0,0,0,0,0,0,0,0,-1,720,323,0,0
-497,701,0,0,0,0,0,0,0,0,0,-1,727,323,0,0
-490,701,0,0,0,0,0,0,0,0,0,-1,734,323,0,0
-483,701,0,0,0,0,0,0,0,0,0,-1,741,323,0,0
-476,701,0,0,0,0,0,0,0,0,0,-1,748,323,0,0
-469,701,0,0,0,0,0,0,0,0,0,-1,755,323,0,0
-462,701,0,0,0,0,0,0,0,0,0,-1,762,323,0,0
-455,701,0,0,0,0,0,0,0,0,0,-1,769,323,0,0
-448,701,0,0,0,0,0,0,0,0,0,-1,776,323,0,0
-441,701,0,0,0,0,0,0,0,0,0,-1,783,323,0,0
-434,701,0,0,0,0,0,0,0,0,0,-1,790,323,0,0
-427,701,0,0,0,0,0,0,0,0,0,-1,797,323,0,0
-420,701,0,0,0,0,0,0,0,0,0,-1,804,323,0,0
-413,701,0,0,0,0,0,0,0,0,0,-1,811,323,0,0
-406,701,0,0,0,0,0,0,0,0,0,-1,818,323,0,0
-399,701,0,0,0,0,0,0,0,0,0,-1,825,323,0,0
-392,701,0,0,0,0,0,0,0,0,0,-1,832,323,0,0
-385,701,0,0,0,0,0,0,0,0,0,-1,839,323,0,0
-378,701,0,0,0,0,0,0,0,0,0,-1,846,323,0,0
-371,701,0,0,0,0,0,0,0,0,0,-1,853,323,0,0
-364,701,0,0,0,0,0,0,0,0,0,-1,860,323,0,0
-357,701,0,0,0,0,0,0,0,0,0,-1,867,323,0,0
-350,701,0,0,0,0,0,0,0,0,0,-1,874,323,0,0
-343,701,0,0,0,0,0,0,0,0,0,-1,881,323,0,0
-336,701,0,0,0,0,0,0,0,0,0,-1,888,323,0,0
-329,701,0,0,0,0,0,0,0,0,0,-1,895,323,0,0
-322,701,0,0,0,0,0,0,0,0,0,-1,902,323,0,0
-315,701,0,0,0,0,0,0,0,0,0,-1,909,323,0,0
-308,701,0,0,0,0,0,0,0,0,0,-1,916,323,0,0
-301,701,0,0,0,0,0,0,0,0,0,-1,923,323,0,0
-294,701,0,0,0,0,0,0,0,0,0,-1,930,323,0,0
-287,701,0,0,0,0,0,0,0,0,0,-1,937,323,0,0
-280,701,0,0,0,0,0,0,0,0,0,-1,944,323,0,0
-273,701,0,0,0,0,0,0,0,0,0,-1,951,323,0,0
-266,701,0,0,0,0,0,0,0,0,0,-1,958,323,0,0
-259,701,0,0,0,0,0,0,0,0,0,-1,965,323,0,0
-252,701,0,0,0,0,0,0,0,0,0,-1,972,323,0,0
-245,701,0,0,0,0,0,0,0,0,0,-1,979,323,0,0
-238,701,0,0,0,0,0,0,0,0,0,-1,986,323,0,0
-231,701,0,0,0,0,0,0,0,0,0,-1,993,323,0,0
-224,701,0,0,0,0,0,0,0,0,0,-1,1000,323,0,0
-217,701,0,0,0,0,0,0,0,0,0,-1,1007,323,0,0
-210,701,0,0,0,0,0,0,0,0,0,-1,1014,323,0,0
-203,701,0,0,0,0,0,0,0,0,0,-1,1021,323,0,0
-196,701,0,0,0,0,0,0,0,0,0,-1,1028,323,0,0
-189,701,0,0,0,0,0,0,0,0,0,-1,1035,323,0,0
-182,701,0,0,0,0,0,0,0,0,0,-1,1042,323,0,0
-175,701,0,0,0,0,0,0,0,0,0,-1,1049,323,0,0
-168,701,0,0,0,0,0,0,0,0,0,-1,1056,323,0,0
-161,701,0,0,0,0,0,0,0,0,0,-1,1063,323,0,0
-154,701,0,0,0,0,0,0,0,0,0,-1,1070,323,0,0
-147,701,0,0,0,0,0,0,0,0,0,-1,1077,323,0,0
-140,701,0,0,0,0,0,0,0,0,0,-1,1084,323,0,0
-133,701,0,0,0,0,0,0,0,0,0,-1,1091,323,0,0
-126,701,0,0,0,0,0,0,0,0,0,-1,1098,323,0,0
-119,701,0,0,0,0,0,0,0,0,0,-1,1105,323,0,0
-112,701,0,0,0,0,0,0,0,0,0,-1,1112,323,0,0
-105,701,0,0,0,0,0,0,0,0,0,-1,1119,323,0,0
-98,701,0,0,0,0,0,0,0,0,0,-1,1126,323,0,0
-91,701,0,0,0,0,0,0,0,0,0,-1,1133,323,0,0
-84,701,0,0,0,0,0,0,0,0,0,-1,1140,323,0,0
-77,701,0,0,0,0,0,0,0,0,0,-1,1147,323,0,0
-70,701,0.249146,-0.260498,0,0,0,0,0,0,0,-1,1154,323,0.249106,0.260491
-63,701,0.204834,0.306305,0,0,0,0,0,0,0,-1,1161,323,0.204852,-0.306318
-56,701,0.0604248,0.622131,0,0,0,0,0,0,0,-1,1168,323,0.0604693,-0.622131
-49,701,-0.152466,0.141876,0.0326818,0.0328546,0.0130658,0.0458342,0.0197021,0.788705,0.0265491,0.0494377,1175,323,-0.152408,-0.141872
-42,701,-0.13208,-0.0859375,0.0398346,0.033124,0.0135699,0.0504579,0.0225007,0.664198,0.0291886,0.0468994,1182,323,-0.132061,0.0859416
-35,701,-0.338257,-0.674683,0.0470735,0.0324675,0.0144294,0.0559427,0.0235983,0.551132,0.0324298,0.0454074,1189,323,-0.338271,0.674671
-28,701,0.317871,0.959229,0.0546148,0.0328036,0.0162185,0.0632533,0.0241651,0.489412,0.0368565,0.0491675,1196,323,0.317919,-0.959242
-21,701,0.483887,0.964569,0,0,0,0,0,0,0,-1,1203,323,0.483893,-0.964563
-14,701,1.44397,1.229,0,0,0,0,0,0,0,-1,1210,323,1.44401,-1.229
-7,701,2.69751,1.72781,0,0,0,0,0,0,0,-1,1217,323,2.69745,-1.72781
0,701,4.08484,6.88284,0,0,0,0,0,0,0,-1,1224,323,4.08488,-6.88283
7,701,-0.760254,-1.36371,0,0,0,0,0,0,0,-1,1231,323,-0.760236,1.3637
14,701,-0.161133,-1.15698,0,0,0,0,0,0,0,-1,1238,323,-0.161117,1.15699
21,701,-0.265137,1.78696,0,0,0,0,0,0,0,-1,1245,323,-0.265146,-1.78697
28,701,-0.565308,1.62277,0,0,0,0,0,0,0,-1,1252,323,-0.565283,-1.62277
35,701,-0.81543,1.23987,0,0,0,0,0,0,0,-1,1259,323,-0.815468,-1.23986
42,701,-0.782593,0.998535,0,0,0,0,0,0,0,-1,1266,323,-0.78261,-0.998536
49,701,-1.04504,0.80249,0,0,0,0,0,0,0,-1,1273,323,-1.04506,-0.802477
56,701,1.07861,-0.848724,0,0,0,0,0,0,0,-1,1280,323,1.07859,0.848719
63,701,1.06775,-0.71344,0,0,0,0,0,0,0,-1,1287,323,1.06775,0.713444
70,701,1.09314,-0.548828,0,0,0,0,0,0,0,-1,1294,323,1.09313,0.548837
77,701,-2.31409,-1.38333,0,0,0,0,0,0,0,-1,1301,323,-2.31406,1.38334
84,701,-1.44482,-1.40906,0.0830577,0.0532211,-0.0549776,0.125105,0.0111737,-0.652912,0.0799396,0.0460649,1308,323,-1.44478,1.40905
91,701,-0.590576,-1.29239,0,0,0,0,0,0,0,-1,1315,323,-0.590594,1.29238
98,701,-3.43823,1.41306,0,0,0,0,0,0,0,-1,1322,323,-3.43818,-1.41306
105,701,-2.302,1.18127,0.0785406,0.0575593,-0.0443911,0.113664,0.0224361,-0.669365,0.0695147,0.0486071,1329,323,-2.302,-1.18128
112,701,-1.20618,0.911896,0.0702847,0.0558161,-0.0393057,0.103016,0.0230845,-0.69439,0.0624221,0.0436136,1336,323,-1.2062,-0.911898
119,701,-0.190186,-0.188477,0,0,0,0,0,0,0,-1,1343,323,-0.190208,0.188462
126,701,0.880371,-1.73868,0,0,0,0,0,0,0,-1,1350,323,0.880393,1.73869
133,701,1.28809,-2.61612,0,0,0,0,0,0,0,-1,1357,323,1.28807,2.61612
140,701,-0.287476,0.0588989,0.0209809,0.0474829,-0.007479,0.0494478,0.019016,-1.31388,0.0288012,0.0474319,1364,323,-0.287488,-0.0588913
147,701,-1.42444,0.936157,0.00964706,0.0432933,-0.00191323,0.0434017,0.00953862,-1.51418,0.0263372,0.0473087,1371,323,-1.42438,-0.936155
154,701,0.769165,0.589417,8.4242e-05,0.0349635,0.00305268,0.0352286,-0.000180917,1.48415,0.0235463,0.0455824,1378,323,0.76915,-0.589429
161,701,0.413818,-0.242371,-0.00938173,0.0315902,0.00543884,0.0322999,-0.0100914,1.44104,0.0255697,0.0444245,1385,323,0.413872,0.242358
168,701,-0.038208,-0.0266113,0,0,0,0,0,0,0,-1,1392,323,-0.0382584,0.026622
175,701,-0.0969238,-1.67715,0,0,0,0,0,0,0,-1,1399,323,-0.0969206,1.67716
182,701,0.0880127,-0.678772,0,0,0,0,0,0,0,-1,1406,323,0.0879592,0.678785
189,701,0.0931396,-0.711517,0,0,0,0,0,0,0,-1,1413,323,0.0931319,0.71151
196,701,0,0,0,0,0,0,0,0,0,-1,1420,323,0,0
203,701,0,0,0,0,0,0,0,0,0,-1,1427,323,0,0
210,701,0,0,0,0,0,0,0,0,0,-1,1434,323,0,0
217,701,0,0,0,0,0,0,0,0,0,-1,1441,323,0,0
224,701,0,0,0,0,0,0,0,0,0,-1,1448,323,0,0
231,701,0,0,0,0,0,0,0,0,0,-1,1455,323,0,0
238,701,0,0,0,0,0,0,0,0,0,-1,1462,323,0,0
245,701,0,0,0,0,0,0,0,0,0,-1,1469,323,0,0
252,701,0,0,0,0,0,0,0,0,0,-1,1476,323,0,0
259,701,0,0,0,0,0,0,0,0,0,-1,1483,323,0,0
266,701,0,0,0,0,0,0,0,0,0,-1,1490,323,0,0
273,701,0,0,0,0,0,0,0,0,0,-1,1497,323,0,0
280,701,0,0,0,0,0,0,0,0,0,-1,1504,323,0,0
287,701,0,0,0,0,0,0,0,0,0,-1,1511,323,0,0
294,701,0,0,0,0,0,0,0,0,0,-1,1518,323,0,0
301,701,0,0,0,0,0,0,0,0,0,-1,1525,323,0,0
308,701,0,0,0,0,0,0,0,0,0,-1,1532,323,0,0
315,701,0,0,0,0,0,0,0,0,0,-1,1539,323,0,0
322,701,0,0,0,0,0,0,0,0,0,-1,1546,323,0,0
329,701,0,0,0,0,0,0,0,0,0,-1,1553,323,0,0
336,701,0,0,0,0,0,0,0,0,0,-1,1560,323,0,0
343,701,0,0,0,0,0,0,0,0,0,-1,1567,323,0,0
350,701,0,0,0,0,0,0,0,0,0,-1,1574,323,0,0
357,701,0,0,0,0,0,0,0,0,0,-1,1581,323,0,0
364,701,0,0,0,0,0,0,0,0,0,-1,1588,323,0,0
371,701,0,0,0,0,0,0,0,0,0,-1,1595,323,0,0
378,701,0,0,0,0,0,0,0,0,0,-1,1602,323,0,0
385,701,0,0,0,0,0,0,0,0,0,-1,1609,323,0,0
392,701,0,0,0,0,0,0,0,0,0,-1,1616,323,0,0
399,701,0,0,0,0,0,0,0,0,0,-1,1623,323,0,0
406,701,0,0,0,0,0,0,0,0,0,-1,1630,323,0,0
413,701,0,0,0,0,0,0,0,0,0,-1,1637,323,0,0
420,701,0,0,0,0,0,0,0,0,0,-1,1644,323,0,0
427,701,0,0,0,0,0,0,0,0,0,-1,1651,323,0,0
434,701,0,0,0,0,0,0,0,0,0,-1,1658,323,0,0
441,701,0,0,0,0,0,0,0,0,0,-1,1665,323,0,0
448,701,0,0,0,0,0,0,0,0,0,-1,1672,323,0,0
455,701,0,0,0,0,0,0,0,0,0,-1,1679,323,0,0
462,701,0,0,0,0,0,0,0,0,0,-1,1686,323,0,0
469,701,0,0,0,0,0,0,0,0,0,-1,1693,323,0,0
476,701,0,0,0,0,0,0,0,0,0,-1,1700,323,0,0
483,701,0,0,0,0,0,0,0,0,0,-1,1707,323,0,0
490,701,0,0,0,0,0,0,0,0,0,-1,1714,323,0,0
497,701,0,0,0,0,0,0,0,0,0,-1,1721,323,0,0
504,701,0,0,0,0,0,0,0,0,0,-1,1728,323,0,0
511,701,0,0,0,0,0,0,0,0,0,-1,1735,323,0,0
518,701,0,0,0,0,0,0,0,0,0,-1,1742,323,0,0
525,701,0,0,0,0,0,0,0,0,0,-1,1749,323,0,0
532,701,0,0,0,0,0,0,0,0,0,-1,1756,323,0,0
539,701,0,0,0,0,0,0,0,0,0,-1,1763,323,0,0
546,701,0,0,0,0,0,0,0,0,0,-1,1770,323,0,0
553,701,0,0,0,0,0,0,0,0,0,-1,1777,323,0,0
560,701,0,0,0,0,0,0,0,0,0,-1,1784,323,0,0
567,701,0,0,0,0,0,0,0,0,0,-1,1791,323,0,0
574,701,0,0,0,0,0,0,0,0,0,-1,1798,323,0,0
581,701,0,0,0,0,0,0,0,0,0,-1,1805,323,0,0
588,701,0,0,0,0,0,0,0,0,0,-1,1812,323,0,0
595,701,0,0,0,0,0,0,0,0,0,-1,1819,323,0,0
602,701,0,0,0,0,0,0,0,0,0,-1,1826,323,0,0
609,701,0,0,0,0,0,0,0,0,0,-1,1833,323,0,0
616,701,0,0,0,0,0,0,0,0,0,-1,1840,323,0,0
623,701,0,0,0,0,0,0,0,0,0,-1,1847,323,0,0
630,701,0,0,0,0,0,0,0,0,0,-1,1854,323,0,0
637,701,0,0,0,0,0,0,0,0,0,-1,1861,323,0,0
644,701,0,0,0,0,0,0,0,0,0,-1,1868,323,0,0
651,701,0,0,0,0,0,0,0,0,0,-1,1875,323,0,0
658,701,0,0,0,0,0,0,0,0,0,-1,1882,323,0,0
665,701,0,0,0,0,0,0,0,0,0,-1,1889,323,0,0
672,701,0,0,0,0,0,0,0,0,0,-1,1896,323,0,0
679,701,0,0,0,0,0,0,0,0,0,-1,1903,323,0,0
686,701,0,0,0,0,0,0,0,0,0,-1,1910,323,0,0
693,701,0,0,0,0,0,0,0,0,0,-1,1917,323,0,0
700,701,0,0,0,0,0,0,0,0,0,-1,1924,323,0,0
707,701,0,0,0,0,0,0,0,0,0,-1,1931,323,0,0
714,701,0,0,0,0,0,0,0,0,0,-1,1938,323,0,0
721,701,0,0,0,0,0,0,0,0,0,-1,1945,323,0,0
728,701,0,0,0,0,0,0,0,0,0,-1,1952,323,0,0
735,701,0,0,0,0,0,0,0,0,0,-1,1959,323,0,0
742,701,0,0,0,0,0,0,0,0,0,-1,1966,323,0,0
749,701,0,0,0,0,0,0,0,0,0,-1,1973,323,0,0
756,701,0,0,0,0,0,0,0,0,0,-1,1980,323,0,0
763,701,0,0,0,0,0,0,0,0,0,-1,1987,323,0,0
770,701,0,0,0,0,0,0,0,0,0,-1,1994,323,0,0
777,701,0,0,0,0,0,0,0,0,0,-1,2001,323,0,0
784,701,0,0,0,0,0,0,0,0,0,-1,2008,323,0,0
791,701,0,0,0,0,0,0,0,0,0,-1,2015,323,0,0
798,701,0,0,0,0,0,0,0,0,0,-1,2022,323,0,0
805,701,0,0,0,0,0,0,0,0,0,-1,2029,323,0,0
812,701,0,0,0,0,0,0,0,0,0,-1,2036,323,0,0
-700,694,0,0,0,0,0,0,0,0,0,-1,524,330,0,0
-693,694,0,0,0,0,0,0,0,0,0,-1,531,330,0,0
-686,694,0,0,0,0,0,0,0,0,0,-1,538,330,0,0
-679,694,0,0,0,0,0,0,0,0,0,-1,545,330,0,0
-672,694,0,0,0,0,0,0,0,0,0,-1,552,330,0,0
-665,694,0,0,0,0,0,0,0,0,0,-1,559,330,0,0
-658,694,0,0,0,0,0,0,0,0,0,-1,566,330,0,0
-651,694,0,0,0,0,0,0,0,0,0,-1,573,330,0,0
-644,694,0,0,0,0,0,0,0,0,0,-1,580,330,0,0
-637,694,0,0,0,0,0,0,0,0,0,-1,587,330,0,0
-630,694,0,0,0,0,0,0,0,0,0,-1,594,330,0,0
-623,694,0,0,0,0,0,0,0,0,0,-1,601,330,0,0
-616,694,0,0,0,0,0,0,0,0,0,-1,608,330,0,0
-609,694,0,0,0,0,0,0,0,0,0,-1,615,330,0,0
-602,694,0,0,0,0,0,0,0,0,0,-1,622,330,0,0
-595,694,0,0,0,0,0,0,0,0,0,-1,629,330,0,0
-588,694,0,0,0,0,0,0,0,0,0,-1,636,330,0,0
-581,694,0,0,0,0,0,0,0,0,0,-1,643,330,0,0
-574,694,0,0,0,0,0,0,0,0,0,-1,650,330,0,0
-567,694,0,0,0,0,0,0,0,0,0,-1,657,330,0,0
-560,694,0,0,0,0,0,0,0,0,0,-1,664,330,0,0
-553,694,0,0,0,0,0,0,0,0,0,-1,671,330,0,0
-546,694,0,0,0,0,0,0,0,0,0,-1,678,330,0,0
-539,694,0,0,0,0,0,0,0,0,0,-1,685,330,0,0
-532,694,0,0,0,0,0,0,0,0,0,-1,692,330,0,0
-525,694,0,0,0,0,0,0,0,0,0,-1,699,330,0,0
-518,694,0,0,0,0,0,0,0,0,0,-1,706,330,0,0
-511,694,0,0,0,0,0,0,0,0,0,-1,713,330,0,0
-504,694,0,0,0,0,0,0,0,0,0,-1,720,330,0,0
-497,694,0,0,0,0,0,0,0,0,0,-1,727,330,0,0
-490,694,0,0,0,0,0,0,0,0,0,-1,734,330,0,0
-483,694,0,0,0,0,0,0,0,0,0,-1,741,330,0,0
-476,694,0,0,0,0,0,0,0,0,0,-1,748,330,0,0
-469,694,0,0,0,0,0,0,0,0,0,-1,755,330,0,0
-462,694,0,0,0,0,0,0,0,0,0,-1,762,330,0,0
-455,694,0,0,0,0,0,0,0,0,0,-1,769,330,0,0
-448,694,0,0,0,0,0,0,0,0,0,-1,776,330,0,0
-441,694,0,0,0,0,0,0,0,0,0,-1,783,330,0,0
-434,694,0,0,0,0,0,0,0,0,0,-1,790,330,0,0
-427,694,0,0,0,0,0,0,0,0,0,-1,797,330,0,0
-420,694,0,0,0,0,0,0,0,0,0,-1,804,330,0,0
-413,694,0,0,0,0,0,0,0,0,0,-1,811,330,0,0
-406,694,0,0,0,0,0,0,0,0,0,-1,818,330,0,0
-399,694,0,0,0,0,0,0,0,0,0,-1,825,330,0,0
-392,694,0,0,0,0,0,0,0,0,0,-1,832,330,0,0
-385,694,0,0,0,0,0,0,0,0,0,-1,839,330,0,0
-378,694,0,0,0,0,0,0,0,0,0,-1,846,330,0,0
-371,694,0,0,0,0,0,0,0,0,0,-1,853,330,0,0
-364,694,0,0,0,0,0,0,0,0,0,-1,860,330,0,0
-357,694,0,0,0,0,0,0,0,0,0,-1,867,330,0,0
-350,694,0,0,0,0,0,0,0,0,0,-1,874,330,0,0
-343,694,0,0,0,0,0,0,0,0,0,-1,881,330,0,0
-336,694,0,0,0,0,0,0,0,0,0,-1,888,330,0,0
-329,694,0,0,0,0,0,0,0,0,0,-1,895,330,0,0
-322,694,0,0,0,0,0,0,0,0,0,-1,902,330,0,0
-315,694,0,0,0,0,0,0,0,0,0,-1,909,330,0,0
-308,694,0,0,0,0,0,0,0,0,0,-1,916,330,0,0
-301,694,0,0,0,0,0,0,0,0,0,-1,923,330,0,0
-294,694,0,0,0,0,0,0,0,0,0,-1,930,330,0,0
-287,694,0,0,0,0,0,0,0,0,0,-1,937,330,0,0
-280,694,0,0,0,0,0,0,0,0,0,-1,944,330,0,0
-273,694,0,0,0,0,0,0,0,0,0,-1,951,330,0,0
-266,694,0,0,0,0,0,0,0,0,0,-1,958,330,0,0
-259,694,0,0,0,0,0,0,0,0,0,-1,965,330,0,0
-252,694,0,0,0,0,0,0,0,0,0,-1,972,330,0,0
-245,694,0,0,0,0,0,0,0,0,0,-1,979,330,0,0
-238,694,0,0,0,0,0,0,0,0,0,-1,986,330,0,0
-231,694,0,0,0,0,0,0,0,0,0,-1,993,330,0,0
-224,694,0,0,0,0,0,0,0,0,0,-1,1000,330,0,0
-217,694,0,0,0,0,0,0,0,0,0,-1,1007,330,0,0
-210,694,0,0,0,0,0,0,0,0,0,-1,1014,330,0,0
-203,694,0,0,0,0,0,0,0,0,0,-1,1021,330,0,0
-196,694,0,0,0,0,0,0,0,0,0,-1,1028,330,0,0
-189,694,0,0,0,0,0,0,0,0,0,-1,1035,330,0,0
-182,694,0,0,0,0,0,0,0,0,0,-1,1042,330,0,0
-175,694,0,0,0,0,0,0,0,0,0,-1,1049,330,0,0
-168,694,0,0,0,0,0,0,0,0,0,-1,1056,330,0,0
-161,694,0,0,0,0,0,0,0,0,0,-1,1063,330,0,0
-154,694,0,0,0,0,0,0,0,0,0,-1,1070,330,0,0
-147,694,0,0,0,0,0,0,0,0,0,-1,1077,330,0,0
-140,694,0,0,0,0,0,0,0,0,0,-1,1084,330,0,0
-133,694,0,0,0,0,0,0,0,0,0,-1,1091,330,0,0
-126,694,0,0,0,0,0,0,0,0,0,-1,1098,330,0,0
-119,694,0,0,0,0,0,0,0,0,0,-1,1105,330,0,0
-112,694,0,0,0,0,0,0,0,0,0,-1,1112,330,0,0
-105,694,-0.157227,-0.126862,0.0137078,0.0140436,0.00852495,0.0224023,0.0053491,0.795247,0.0135096,0.0441829,1119,330,-0.157259,0.126858
-98,694,-0.235107,-0.236359,0,0,0,0,0,0,0,-1,1126,330,-0.235061,0.236371
-91,694,0.0571289,0.323029,0.010424,0.0153411,0.00806074,0.0213099,0.00445526,0.933419,0.012979,0.0403326,1133,330,0.0570811,-0.323031
-84,694,0.0947266,0.342316,0.0107982,0.018642,0.00951283,0.0250097,0.00443051,0.98092,0.0154101,0.0418117,1140,330,0.0947274,-0.34232
-77,694,0.17334,0.237488,0.0128369,0.0188942,0.0118064,0.0280542,0.00367687,0.910953,0.0176056,0.0433424,1147,330,0.173313,-0.237494
-70,694,0.159668,0.110962,0.014705,0.0211716,0.0113734,0.0297623,0.00611423,0.923888,0.0181501,0.0426632,1154,330,0.159705,-0.11097
-63,694,0.079834,0.222595,0.0187404,0.0220212,0.0105034,0.0310116,0.0097501,0.862862,0.0183111,0.0460089,1161,330,0.0798721,-0.222602
-56,694,0.0395508,0.394562,0.0225435,0.0221589,0.0103426,0.0326956,0.0120068,0.776101,0.0190974,0.0493874,1168,330,0.0395691,-0.394556
-49,694,-0.125122,-0.0831909,0.0270137,0.0226712,0.0106825,0.0357434,0.0139415,0.685138,0.0208022,0.0483095,1175,330,-0.125156,0.0831821
-42,694,-0.126709,-0.184875,0.0326521,0.0230187,0.010969,0.0398154,0.0158554,0.578515,0.0231456,0.0459977,1182,330,-0.126696,0.184877
-35,694,-0.439819,-0.962402,0.0380905,0.0225188,0.0116029,0.0442777,0.0163316,0.48989,0.0258553,0.0456421,1189,330,-0.439818,0.962415
-28,694,0.315552,0.639648,0.0434218,0.0228138,0.0129593,0.0496742,0.0165613,0.449524,0.0292053,0.0469822,1196,330,0.315555,-0.639649
-21,694,0.813354,0.668243,0.0478321,0.0227638,0.0138996,0.0540143,0.0165815,0.418505,0.0319504,0.0441209,1203,330,0.813363,-0.668256
-14,694,1.43994,0.5354,0.0498853,0.0219989,0.014064,0.0557464,0.0161378,0.394856,0.0331224,0.0451036,1210,330,1.43988,-0.535401
-7,694,2.07715,0.332245,0,0,0,0,0,0,0,-1,1217,330,2.07712,-0.33223
0,694,-0.84314,-0.683685,0,0,0,0,0,0,0,-1,1224,330,-0.843124,0.6837
7,694,-0.900513,-0.298218,0,0,0,0,0,0,0,-1,1231,330,-0.900551,0.298218
14,694,-0.00976563,-0.673981,0,0,0,0,0,0,0,-1,1238,330,-0.0097685,0.673994
21,694,-0.38562,1.41946,0,0,0,0,0,0,0,-1,1245,330,-0.385581,-1.41946
28,694,-0.605835,1.29727,0,0,0,0,0,0,0,-1,1252,330,-0.605853,-1.29728
35,694,-0.684204,0.984375,0,0,0,0,0,0,0,-1,1259,330,-0.68422,-0.984369
42,694,-0.640137,0.753967,0.0161222,0.0079262,-0.0176038,0.0300987,-0.00605026,-0.671039,0.0223571,0.0468334,1266,330,-0.640131,-0.753964
49,694,-0.819702,0.609467,0.0155191,0.0292378,-0.0243472,0.0476735,-0.00291656,-0.922704,0.0327978,0.0479576,1273,330,-0.819713,-0.609462
56,694,-0.585449,0.337921,0,0,0,0,0,0,0,-1,1280,330,-0.585429,-0.337924
63,694,0.84375,-0.429321,0,0,0,0,0,0,0,-1,1287,330,0.843784,0.429312
70,694,0.772827,-0.267029,0,0,0,0,0,0,0,-1,1294,330,0.772881,0.267039
77,694,-0.383301,-0.964386,0,0,0,0,0,0,0,-1,1301,330,-0.383307,0.964393
84,694,-0.509033,-1.16779,0,0,0,0,0,0,0,-1,1308,330,-0.509035,1.1678
91,694,-0.568726,-1.28311,0,0,0,0,0,0,0,-1,1315,330,-0.568786,1.28312
98,694,-1.65625,2.23297,0.0594372,0.0454412,-0.037276,0.0903664,0.0145121,-0.692611,0.0560368,0.0458284,1322,330,-1.65621,-2.23296
105,694,-1.47839,1.44336,0.0594111,0.0462253,-0.0347612,0.0881991,0.0174374,-0.69168,0.0539349,0.0434019,1329,330,-1.47843,-1.44335
112,694,-0.879517,0.786407,0.0542078,0.044634,-0.0313804,0.0811644,0.0176775,-0.709709,0.0492854,0.0442246,1336,330,-0.879553,-0.786415
119,694,-0.0373535,-0.142883,0.0478753,0.0421774,-0.0264441,0.0716234,0.0184293,-0.731738,0.0429449,0.0450612,1343,330,-0.0373831,0.142869
126,694,0.844482,-1.34247,0.0394192,0.0400326,-0.0204271,0.0601553,0.0192965,-0.792904,0.0354666,0.0449287,1350,330,0.844529,1.34246
133,694,1.36914,-2.3754,0,0,0,0,0,0,0,-1,1357,330,1.36917,2.37539
140,694,-0.391357,-0.171173,0,0,0,0,0,0,0,-1,1364,330,-0.391386,0.171185
147,694,-0.776489,-0.0243835,0,0,0,0,0,0,0,-1,1371,330,-0.776524,0.0243924
154,694,0.585449,-0.258728,0.00411044,0.0256722,0.000119637,0.0256728,0.00410977,1.56525,0.0159231,0.0457747,1378,330,0.58545,0.258717
161,694,0.299561,-0.267334,-0.00348965,0.0234315,0.00213482,0.0235998,-0.00365789,1.49215,0.0170835,0.0417742,1385,330,0.299564,0.267334
168,694,-0.0966797,-0.295746,0,0,0,0,0,0,0,-1,1392,330,-0.0966641,0.295744
175,694,-0.102051,0.78891,0,0,0,0,0,0,0,-1,1399,330,-0.102027,-0.788919
182,694,-0.0406494,0.0454712,0,0,0,0,0,0,0,-1,1406,330,-0.0406503,-0.0454644
189,694,-0.059082,-0.0187988,-0.0019256,-0.00170098,0.000836121,-0.000969658,-0.00265692,0.85216,0.00155251,0.0442513,1413,330,-0.0590822,0.0187908
196,694,-0.108521,-0.151093,0.00106848,-0.0114484,-0.00423868,0.00236878,-0.0127487,-0.297655,0.00938888,0.0411092,1420,330,-0.108575,0.151083
203,694,-0.199341,-0.2854,0,0,0,0,0,0,0,-1,1427,330,-0.199321,0.285411
210,694,-0.384155,-0.475311,-0.0109538,-0.0282507,-0.00400642,-0.0100709,-0.0291336,-0.21691,0.0170853,0.0442718,1434,330,-0.384196,0.475313
217,694,-0.274536,-0.713898,0,0,0,0,0,0,0,-1,1441,330,-0.274536,0.713902
224,694,0.0927734,-0.731689,0,0,0,0,0,0,0,-1,1448,330,0.0928036,0.731701
231,694,0,0,0,0,0,0,0,0,0,-1,1455,330,0,0
238,694,0,0,0,0,0,0,0,0,0,-1,1462,330,0,0
245,694,0,0,0,0,0,0,0,0,0,-1,1469,330,0,0
252,694,0,0,0,0,0,0,0,0,0,-1,1476,330,0,0
259,694,0,0,0,0,0,0,0,0,0,-1,1483,330,0,0
266,694,0,0,0,0,0,0,0,0,0,-1,1490,330,0,0
273,694,0,0,0,0,0,0,0,0,0,-1,1497,330,0,0
280,694,0,0,0,0,0,0,0,0,0,-1,1504,330,0,0
287,694,0,0,0,0,0,0,0,0,0,-1,1511,330,0,0
294,694,0,0,0,0,0,0,0,0,0,-1,1518,330,0,0
301,694,0,0,0,0,0,0,0,0,0,-1,1525,330,0,0
308,694,0,0,0,0,0,0,0,0,0,-1,1532,330,0,0
315,694,0,0,0,0,0,0,0,0,0,-1,1539,330,0,0
322,694,0,0,0,0,0,0,0,0,0,-1,1546,330,0,0
329,694,0,0,0,0,0,0,0,0,0,-1,1553,330,0,0
336,694,0,0,0,0,0,0,0,0,0,-1,1560,330,0,0
343,694,0,0,0,0,0,0,0,0,0,-1,1567,330,0,0
350,694,0,0,0,0,0,0,0,0,0,-1,1574,330,0,0
357,694,0,0,0,0,0,0,0,0,0,-1,1581,330,0,0
364,694,0,0,0,0,0,0,0,0,0,-1,1588,330,0,0
371,694,0,0,0,0,0,0,0,0,0,-1,1595,330,0,0
378,694,0,0,0,0,0,0,0,0,0,-1,1602,330,0,0
385,694,0,0,0,0,0,0,0,0,0,-1,1609,330,0,0
392,694,0,0,0,0,0,0,0,0,0,-1,1616,330,0,0
399,694,0,0,0,0,0,0,0,0,0,-1,1623,330,0,0
406,694,0,0,0,0,0,0,0,0,0,-1,1630,330,0,0
413,694,0,0,0,0,0,0,0,0,0,-1,1637,330,0,0
420,694,0,0,0,0,0,0,0,0,0,-1,1644,330,0,0
427,694,0,0,0,0,0,0,0,0,0,-1,1651,330,0,0
434,694,0,0,0,0,0,0,0,0,0,-1,1658,330,0,0
441,694,0,0,0,0,0,0,0,0,0,-1,1665,330,0,0
448,694,0,0,0,0,0,0,0,0,0,-1,1672,330,0,0
455,694,0,0,0,0,0,0,0,0,0,-1,1679,330,0,0
462,694,0,0,0,0,0,0,0,0,0,-1,1686,330,0,0
469,694,0,0,0,0,0,0,0,0,0,-1,1693,330,0,0
476,694,0,0,0,0,0,0,0,0,0,-1,1700,330,0,0
483,694,0,0,0,0,0,0,0,0,0,-1,1707,330,0,0
490,694,0,0,0,0,0,0,0,0,0,-1,1714,330,0,0
497,694,0,0,0,0,0,0,0,0,0,-1,1721,330,0,0
504,694,0,0,0,0,0,0,0,0,0,-1,1728,330,0,0
511,694,0,0,0,0,0,0,0,0,0,-1,1735,330,0,0
518,694,0,0,0,0,0,0,0,0,0,-1,1742,330,0,0
525,694,0,0,0,0,0,0,0,0,0,-1,1749,330,0,0
532,694,0,0,0,0,0,0,0,0,0,-1,1756,330,0,0
539,694,0,0,0,0,0,0,0,0,0,-1,1763,330,0,0
546,694,0,0,0,0,0,0,0,0,0,-1,1770,330,0,0
553,694,0,0,0,0,0,0,0,0,0,-1,1777,330,0,0
560,694,0,0,0,0,0,0,0,0,0,-1,1784,330,0,0
567,694,0,0,0,0,0,0,0,0,0,-1,1791,330,0,0
574,694,0,0,0,0,0,0,0,0,0,-1,1798,330,0,0
581,694,0,0,0,0,0,0,0,0,0,-1,1805,330,0,0
588,694,0,0,0,0,0,0,0,0,0,-1,1812,330,0,0
595,694,0,0,0,0,0,0,0,0,0,-1,1819,330,0,0
602,694,0,0,0,0,0,0,0,0,0,-1,1826,330,0,0
609,694,0,0,0,0,0,0,0,0,0,-1,1833,330,0,0
616,694,0,0,0,0,0,0,0,0,0,-1,1840,330,0,0
623,694,0,0,0,0,0,0,0,0,0,-1,1847,330,0,0
630,694,0,0,0,0,0,0,0,0,0,-1,1854,330,0,0
637,694,0,0,0,0,0,0,0,0,0,-1,1861,330,0,0
644,694,0,0,0,0,0,0,0,0,0,-1,1868,330,0,0
651,694,0,0,0,0,0,0,0,0,0,-1,1875,330,0,0
658,694,0,0,0,0,0,0,0,0,0,-1,1882,330,0,0
665,694,0,0,0,0,0,0,0,0,0,-1,1889,330,0,0
672,694,0,0,0,0,0,0,0,0,0,-1,1896,330,0,0
679,694,0,0,0,0,0,0,0,0,0,-1,1903,330,0,0
686,694,0,0,0,0,0,0,0,0,0,-1,1910,330,0,0
693,694,0,0,0,0,0,0,0,0,0,-1,1917,330,0,0
700,694,0,0,0,0,0,0,0,0,0,-1,1924,330,0,0
707,694,0,0,0,0,0,0,0,0,0,-1,1931,330,0,0
714,694,0,0,0,0,0,0,0,0,0,-1,1938,330,0,0
721,694,0,0,0,0,0,0,0,0,0,-1,1945,330,0,0
728,694,0,0,0,0,0,0,0,0,0,-1,1952,330,0,0
735,694,0,0,0,0,0,0,0,0,0,-1,1959,330,0,0
742,694,0,0,0,0,0,0,0,0,0,-1,1966,330,0,0
749,694,0,0,0,0,0,0,0,0,0,-1,1973,330,0,0
756,694,0,0,0,0,0,0,0,0,0,-1,1980,330,0,0
763,694,0,0,0,0,0,0,0,0,0,-1,1987,330,0,0
770,694,0,0,0,0,0,0,0,0,0,-1,1994,330,0,0
777,694,0,0,0,0,0,0,0,0,0,-1,2001,330,0,0
784,694,0,0,0,0,0,0,0,0,0,-1,2008,330,0,0
791,694,0,0,0,0,0,0,0,0,0,-1,2015,330,0,0
798,694,0,0,0,0,0,0,0,0,0,-1,2022,330,0,0
805,694,0,0,0,0,0,0,0,0,0,-1,2029,330,0,0
812,694,0,0,0,0,0,0,0,0,0,-1,2036,330,0,0
-700,687,0,0,0,0,0,0,0,0,0,-1,524,337,0,0
-693,687,0,0,0,0,0,0,0,0,0,-1,531,337,0,0
-686,687,0,0,0,0,0,0,0,0,0,-1,538,337,0,0
-679,687,0,0,0,0,0,0,0,0,0,-1,545,337,0,0
-672,687,0,0,0,0,0,0,0,0,0,-1,552,337,0,0
-665,687,0,0,0,0,0,0,0,0,0,-1,559,337,0,0
-658,687,0,0,0,0,0,0,0,0,0,-1,566,337,0,0
-651,687,0,0,0,0,0,0,0,0,0,-1,573,337,0,0
-644,687,0,0,0,0,0,0,0,0,0,-1,580,337,0,0
-637,687,0,0,0,0,0,0,0,0,0,-1,587,337,0,0
-630,687,0,0,0,0,0,0,0,0,0,-1,594,337,0,0
-623,687,0,0,0,0,0,0,0,0,0,-1,601,337,0,0
-616,687,0,0,0,0,0,0,0,0,0,-1,608,337,0,0
-609,687,0,0,0,0,0,0,0,0,0,-1,615,337,0,0
-602,687,0,0,0,0,0,0,0,0,0,-1,622,337,0,0
-595,687,0,0,0,0,0,0,0,0,0,-1,629,337,0,0
-588,687,0,0,0,0,0,0,0,0,0,-1,636,337,0,0
-581,687,0,0,0,0,0,0,0,0,0,-1,643,337,0,0
-574,687,0,0,0,0,0,0,0,0,0,-1,650,337,0,0
-567,687,0,0,0,0,0,0,0,0,0,-1,657,337,0,0
-560,687,0,0,0,0,0,0,0,0,0,-1,664,337,0,0
-553,687,0,0,0,0,0,0,0,0,0,-1,671,337,0,0
-546,687,0,0,0,0,0,0,0,0,0,-1,678,337,0,0
-539,687,0,0,0,0,0,0,0,0,0,-1,685,337,0,0
-532,687,0,0,0,0,0,0,0,0,0,-1,692,337,0,0
-525,687,0,0,0,0,0,0,0,0,0,-1,699,337,0,0
-518,687,0,0,0,0,0,0,0,0,0,-1,706,337,0,0
-511,687,0,0,0,0,0,0,0,0,0,-1,713,337,0,0
-504,687,0,0,0,0,0,0,0,0,0,-1,720,337,0,0
-497,687,0,0,0,0,0,0,0,0,0,-1,727,337,0,0
-490,687,0,0,0,0,0,0,0,0,0,-1,734,337,0,0
-483,687,0,0,0,0,0,0,0,0,0,-1,741,337,0,0
-476,687,0,0,0,0,0,0,0,0,0,-1,748,337,0,0
-469,687,0,0,0,0,0,0,0,0,0,-1,755,337,0,0
-462,687,0,0,0,0,0,0,0,0,0,-1,762,337,0,0
-455,687,0,0,0,0,0,0,0,0,0,-1,769,337,0,0
-448,687,0,0,0,0,0,0,0,0,0,-1,776,337,0,0
-441,687,0,0,0,0,0,0,0,0,0,-1,783,337,0,0
-434,687,0,0,0,0,0,0,0,0,0,-1,790,337,0,0
-427,687,0,0,0,0,0,0,0,0,0,-1,797,337,0,0
-420,687,0,0,0,0,0,0,0,0,0,-1,804,337,0,0
-413,687,0,0,0,0,0,0,0,0,0,-1,811,337,0,0
-406,687,0,0,0,0,0,0,0,0,0,-1,818,337,0,0
-399,687,0,0,0,0,0,0,0,0,0,-1,825,337,0,0
-392,687,0,0,0,0,0,0,0,0,0,-1,832,337,0,0
-385,687,0,0,0,0,0,0,0,0,0,-1,839,337,0,0
-378,687,0,0,0,0,0,0,0,0,0,-1,846,337,0,0
-371,687,0,0,0,0,0,0,0,0,0,-1,853,337,0,0
-364,687,0,0,0,0,0,0,0,0,0,-1,860,337,0,0
-357,687,0,0,0,0,0,0,0,0,0,-1,867,337,0,0
-350,687,0,0,0,0,0,0,0,0,0,-1,874,337,0,0
-343,687,0,0,0,0,0,0,0,0,0,-1,881,337,0,0
-336,687,0,0,0,0,0,0,0,0,0,-1,888,337,0,0
-329,687,0,0,0,0,0,0,0,0,0,-1,895,337,0,0
-322,687,0,0,0,0,0,0,0,0,0,-1,902,337,0,0
-315,687,0,0,0,0,0,0,0,0,0,-1,909,337,0,0
-308,687,0,0,0,0,0,0,0,0,0,-1,916,337,0,0
-301,687,0,0,0,0,0,0,0,0,0,-1,923,337,0,0
-294,687,0,0,0,0,0,0,0,0,0,-1,930,337,0,0
-287,687,0,0,0,0,0,0,0,0,0,-1,937,337,0,0
-280,687,0,0,0,0,0,0,0,0,0,-1,944,337,0,0
-273,687,0,0,0,0,0,0,0,0,0,-1,951,337,0,0
-266,687,0,0,0,0,0,0,0,0,0,-1,958,337,0,0
-259,687,0,0,0,0,0,0,0,0,0,-1,965,337,0,0
-252,687,0,0,0,0,0,0,0,0,0,-1,972,337,0,0
-245,687,0,0,0,0,0,0,0,0,0,-1,979,337,0,0
-238,687,0,0,0,0,0,0,0,0,0,-1,986,337,0,0
-231,687,0,0,0,0,0,0,0,0,0,-1,993,337,0,0
-224,687,0,0,0,0,0,0,0,0,0,-1,1000,337,0,0
-217,687,0,0,0,0,0,0,0,0,0,-1,1007,337,0,0
-210,687,0,0,0,0,0,0,0,0,0,-1,1014,337,0,0
-203,687,0,0,0,0,0,0,0,0,0,-1,1021,337,0,0
-196,687,0,0,0,0,0,0,0,0,0,-1,1028,337,0,0
-189,687,0,0,0,0,0,0,0,0,0,-1,1035,337,0,0
-182,687,0,0,0,0,0,0,0,0,0,-1,1042,337,0,0
-175,687,0,0,0,0,0,0,0,0,0,-1,1049,337,0,0
-168,687,0,0,0,0,0,0,0,0,0,-1,1056,337,0,0
-161,687,0,0,0,0,0,0,0,0,0,-1,1063,337,0,0
-154,687,0,0,0,0,0,0,0,0,0,-1,1070,337,0,0
-147,687,0,0,0,0,0,0,0,0,0,-1,1077,337,0,0
-140,687,0,0,0,0,0,0,0,0,0,-1,1084,337,0,0
-133,687,-0.189819,0.131226,0.0112124,0.00443529,-0.00182115,0.0116708,0.00397691,-0.246574,0.00685111,0.0433257,1091,337,-0.189824,-0.131228
-126,687,0.163818,-0.687897,0.0109616,0.00495364,0.000535284,0.0110089,0.00490633,0.0881704,0.0063685,0.0408824,1098,337,0.163794,0.687906
-119,687,-0.0672607,-0.434814,0.0101764,0.00603805,0.00293202,0.0116959,0.0045186,0.478122,0.00681051,0.0391739,1105,337,-0.0673112,0.434822
-112,687,-0.0965576,-0.175415,0.0104153,0.00728609,0.00594645,0.0149995,0.00270184,0.656757,0.00923181,0.0410718,1112,337,-0.0965914,0.175419
-105,687,0.00366211,-0.234161,0.0103025,0.00918583,0.00778056,0.0175447,0.00194358,0.74958,0.0111055,0.0429401,1119,337,0.00362169,0.234173
-98,687,0.0946045,-0.321106,0,0,0,0,0,0,0,-1,1126,337,0.0945758,0.32112
-91,687,-0.759277,-0.588745,0.00803413,0.0105362,0.00742408,0.0168139,0.00175644,0.86887,0.0106721,0.0411554,1133,337,-0.759245,0.588744
-84,687,0.0739746,-0.0923157,0.00834315,0.0123174,0.00829643,0.0188614,0.0017992,0.902942,0.0120195,0.0384889,1140,337,0.0740163,0.0923261
-77,687,0.23291,0.231354,0.0100557,0.012676,0.00989839,0.0213506,0.00138115,0.851197,0.0137964,0.0420457,1147,337,0.232864,-0.231341
-70,687,-0.0057373,0.232025,0.011695,0.0144948,0.00939271,0.0225914,0.00359846,0.859374,0.0140163,0.0413099,1154,337,-0.0057797,-0.232039
-63,687,-0.248047,0.23111,0.0149285,0.0153328,0.00859911,0.0237322,0.00652918,0.797151,0.0141562,0.0407173,1161,337,-0.248026,-0.231112
-56,687,-0.291016,0.0234985,0.0181161,0.0153211,0.0084605,0.0252938,0.0081435,0.703548,0.0149088,0.0437992,1168,337,-0.290962,-0.023496
-49,687,-0.211182,-0.322021,0.0216248,0.0156616,0.00865477,0.0277971,0.00948922,0.619513,0.0163157,0.0437567,1175,337,-0.211167,0.322031
-42,687,-0.210815,-0.507813,0.0259542,0.0159587,0.00876436,0.0310456,0.0108673,0.526275,0.0181909,0.047099,1182,337,-0.210815,0.507805
-35,687,-0.513916,-1.25049,0.0299247,0.0155007,0.00918492,0.0343907,0.0110347,0.452572,0.0202758,0.0463892,1189,337,-0.513901,1.2505
-28,687,0.373291,0.317139,0.0336056,0.0156828,0.010167,0.0381968,0.0110916,0.424172,0.0226898,0.0403822,1196,337,0.37334,-0.317146
-21,687,1.15198,0.251526,0.0367515,0.0156498,0.0108847,0.0413598,0.0110415,0.400486,0.0247285,0.0415551,1203,337,1.152,-0.251536
-14,687,1.6228,-0.156097,0.0381139,0.015031,0.0110594,0.0425573,0.0105876,0.382035,0.0255833,0.0447612,1210,337,1.62286,0.156097
-7,687,2.11694,-0.750916,0.0364244,0.0152557,0.00948967,0.0400556,0.0116244,0.36546,0.023795,0.0476085,1217,337,2.11697,0.750913
0,687,2.60034,-1.33865,0,0,0,0,0,0,0,-1,1224,337,2.60031,1.33865
7,687,-0.439209,-0.411865,0,0,0,0,0,0,0,-1,1231,337,-0.439157,0.411866
14,687,0.038208,-0.675781,0,0,0,0,0,0,0,-1,1238,337,0.0382239,0.675782
21,687,-0.151367,-0.0379333,0,0,0,0,0,0,0,-1,1245,337,-0.151397,0.0379192
28,687,-0.0222168,-0.189667,0,0,0,0,0,0,0,-1,1252,337,-0.0222688,0.189661
35,687,0.00524902,-0.257721,0,0,0,0,0,0,0,-1,1259,337,0.00519997,0.257734
42,687,-0.608643,0.574402,0.0113795,0.00531629,-0.0123866,0.0211001,-0.00440435,-0.665384,0.0157416,0.0444184,1266,337,-0.608684,-0.574398
49,687,-0.433716,0.425049,0.0107018,0.0201654,-0.0169452,0.0330271,-0.00215984,-0.92155,0.0227722,0.0449661,1273,337,-0.433747,-0.425045
56,687,0.178833,-0.14679,0.0162043,0.0225285,-0.0189283,0.0385571,0.000175778,-0.868163,0.0256463,0.0454672,1280,337,0.178833,0.146783
63,687,0.161743,-0.0352478,0,0,0,0,0,0,0,-1,1287,337,0.161739,0.0352453
70,687,0.318359,-0.208069,0,0,0,0,0,0,0,-1,1294,337,0.318305,0.208084
77,687,0.0546875,-0.475403,0,0,0,0,0,0,0,-1,1301,337,0.0546745,0.475398
84,687,-0.0648193,-0.652771,0.0422842,0.0328404,-0.029823,0.0677569,0.0073678,-0.706885,0.0429266,0.0468424,1308,337,-0.0648664,0.652786
91,687,-0.165405,-0.841034,0.0426025,0.0345797,-0.0291975,0.0680628,0.00911934,-0.717131,0.0426616,0.0464772,1315,337,-0.165433,0.841027
98,687,-0.504272,-0.986084,0.0433587,0.0351308,-0.0280334,0.0675784,0.0109111,-0.712543,0.0418916,0.0488099,1322,337,-0.504226,0.986089
105,687,-1.49146,1.01315,0.0439408,0.0356648,-0.0265176,0.0666413,0.0129643,-0.707998,0.0407986,0.0433986,1329,337,-1.49151,-1.01315
112,687,-0.777588,0.677673,0.0408149,0.0343689,-0.0243397,0.0621441,0.0130397,-0.719572,0.0378393,0.0443107,1336,337,-0.777623,-0.677674
119,687,0.110596,-0.0423279,0.0368403,0.0323542,-0.0209921,0.0557089,0.0134856,-0.732175,0.0335597,0.0440662,1343,337,0.110639,0.0423379
126,687,0.859863,-1.04312,0.031195,0.0305263,-0.0167334,0.0475973,0.014124,-0.775409,0.0282271,0.0433292,1350,337,0.859923,1.04312
133,687,1.64771,-2.01691,0,0,0,0,0,0,0,-1,1357,337,1.64772,2.0169
140,687,-0.309082,-0.218109,0.0174852,0.0276702,-0.0077145,0.0318215,0.013334,-1.07713,0.0184523,0.0475086,1364,337,-0.309082,0.218108
147,687,-0.581665,0.0540161,0.0111345,0.0252603,-0.00442311,0.026531,0.00986378,-1.29105,0.0154846,0.0494164,1371,337,-0.58171,-0.0540281
154,687,-0.784302,0.382904,0,0,0,0,0,0,0,-1,1378,337,-0.784268,-0.382914
161,687,0.186157,-0.267273,0,0,0,0,0,0,0,-1,1385,337,0.186143,0.267266
168,687,0.026001,0.239746,0,0,0,0,0,0,0,-1,1392,337,0.0259453,-0.239747
175,687,-0.0446777,0.521271,0,0,0,0,0,0,0,-1,1399,337,-0.0446868,-0.521261
182,687,-0.0646973,0.839325,0,0,0,0,0,0,0,-1,1406,337,-0.0647239,-0.83933
189,687,-0.162964,0.829895,8.36966e-05,0.00142428,0.000382032,0.0015255,-1.75293e-05,1.31178,0.0010229,0.044585,1413,337,-0.162943,-0.829901
196,687,-0.296387,0.651215,0.00194258,-0.00502194,-0.0029832,0.00304569,-0.00612505,-0.354181,0.00539331,0.0414735,1420,337,-0.296342,-0.651227
203,687,-0.043457,0.428345,0,0,0,0,0,0,0,-1,1427,337,-0.0434186,-0.428331
210,687,0.10144,0.145905,0,0,0,0,0,0,0,-1,1434,337,0.101479,-0.145898
217,687,-0.0137939,-0.625244,0,0,0,0,0,0,0,-1,1441,337,-0.0137714,0.625251
224,687,0.352539,-0.593292,-0.0185004,-0.0171679,0.00126557,-0.0164039,-0.0192644,1.02769,0.0120036,0.0443193,1448,337,0.352581,0.593305
231,687,0.665527,-0.585266,-0.0277552,-0.0169683,0.00297224,-0.0162036,-0.02852,1.31896,0.0165169,0.0459702,1455,337,0.665542,0.585271
238,687,1.03955,-0.518951,0,0,0,0,0,0,0,-1,1462,337,1.03959,0.518944
245,687,3.7207,-0.878845,-0.0488215,-0.0140156,0.00665877,-0.0127852,-0.0500519,1.38808,0.0300276,0.0448564,1469,337,3.72073,0.878839
252,687,2.23035,-0.856354,-0.0601349,-0.0114727,0.00874139,-0.0099501,-0.0616575,1.39834,0.0382225,0.0449357,1476,337,2.23032,0.856344
259,687,0,0,0,0,0,0,0,0,0,-1,1483,337,0,0
266,687,0,0,0,0,0,0,0,0,0,-1,1490,337,0,0
273,687,0,0,0,0,0,0,0,0,0,-1,1497,337,0,0
280,687,0,0,0,0,0,0,0,0,0,-1,1504,337,0,0
287,687,0,0,0,0,0,0,0,0,0,-1,1511,337,0,0
294,687,0,0,0,0,0,0,0,0,0,-1,1518,337,0,0
301,687,0,0,0,0,0,0,0,0,0,-1,1525,337,0,0
308,687,0,0,0,0,0,0,0,0,0,-1,1532,337,0,0
315,687,0,0,0,0,0,0,0,0,0,-1,1539,337,0,0
322,687,0,0,0,0,0,0,0,0,0,-1,1546,337,0,0
329,687,0,0,0,0,0,0,0,0,0,-1,1553,337,0,0
336,687,0,0,0,0,0,0,0,0,0,-1,1560,337,0,0
343,687,0,0,0,0,0,0,0,0,0,-1,1567,337,0,0
350,687,0,0,0,0,0,0,0,0,0,-1,1574,337,0,0
357,687,0,0,0,0,0,0,0,0,0,-1,1581,337,0,0
364,687,0,0,0,0,0,0,0,0,0,-1,1588,337,0,0
371,687,0,0,0,0,0,0,0,0,0,-1,1595,337,0,0
378,687,0,0,0,0,0,0,0,0,0,-1,1602,337,0,0
385,687,0,0,0,0,0,0,0,0,0,-1,1609,337,0,0
392,687,0,0,0,0,0,0,0,0,0,-1,1616,337,0,0
399,687,0,0,0,0,0,0,0,0,0,-1,1623,337,0,0
406,687,0,0,0,0,0,0,0,0,0,-1,1630,337,0,0
413,687,0,0,0,0,0,0,0,0,0,-1,1637,337,0,0
420,687,0,0,0,0,0,0,0,0,0,-1,1644,337,0,0
427,687,0,0,0,0,0,0,0,0,0,-1,1651,337,0,0
434,687,0,0,0,0,0,0,0,0,0,-1,1658,337,0,0
441,687,0,0,0,0,0,0,0,0,0,-1,1665,337,0,0
448,687,0,0,0,0,0,0,0,0,0,-1,1672,337,0,0
455,687,0,0,0,0,0,0,0,0,0,-1,1679,337,0,0
462,687,0,0,0,0,0,0,0,0,0,-1,1686,337,0,0
469,687,0,0,0,0,0,0,0,0,0,-1,1693,337,0,0
476,687,0,0,0,0,0,0,0,0,0,-1,1700,337,0,0
483,687,0,0,0,0,0,0,0,0,0,-1,1707,337,0,0
490,687,0,0,0,0,0,0,0,0,0,-1,1714,337,0,0
497,687,0,0,0,0,0,0,0,0,0,-1,1721,337,0,0
504,687,0,0,0,0,0,0,0,0,0,-1,1728,337,0,0
511,687,0,0,0,0,0,0,0,0,0,-1,1735,337,0,0
518,687,0,0,0,0,0,0,0,0,0,-1,1742,337,0,0
525,687,0,0,0,0,0,0,0,0,0,-1,1749,337,0,0
532,687,0,0,0,0,0,0,0,0,0,-1,1756,337,0,0
539,687,0,0,0,0,0,0,0,0,0,-1,1763,337,0,0
546,687,0,0,0,0,0,0,0,0,0,-1,1770,337,0,0
553,687,0,0,0,0,0,0,0,0,0,-1,1777,337,0,0
560,687,0,0,0,0,0,0,0,0,0,-1,1784,337,0,0
567,687,0,0,0,0,0,0,0,0,0,-1,1791,337,0,0
574,687,0,0,0,0,0,0,0,0,0,-1,1798,337,0,0
581,687,0,0,0,0,0,0,0,0,0,-1,1805,337,0,0
588,687,0,0,0,0,0,0,0,0,0,-1,1812,337,0,0
595,687,0,0,0,0,0,0,0,0,0,-1,1819,337,0,0
602,687,0,0,0,0,0,0,0,0,0,-1,1826,337,0,0
609,687,0,0,0,0,0,0,0,0,0,-1,1833,337,0,0
616,687,0,0,0,0,0,0,0,0,0,-1,1840,337,0,0
623,687,0,0,0,0,0,0,0,0,0,-1,1847,337,0,0
630,687,0,0,0,0,0,0,0,0,0,-1,1854,337,0,0
637,687,0,0,0,0,0,0,0,0,0,-1,1861,337,0,0
644,687,0,0,0,0,0,0,0,0,0,-1,1868,337,0,0
651,687,0,0,0,0,0,0,0,0,0,-1,1875,337,0,0
658,687,0,0,0,0,0,0,0,0,0,-1,1882,337,0,0
665,687,0,0,0,0,0,0,0,0,0,-1,1889,337,0,0
672,687,0,0,0,0,0,0,0,0,0,-1,1896,337,0,0
679,687,0,0,0,0,0,0,0,0,0,-1,1903,337,0,0
686,687,0,0,0,0,0,0,0,0,0,-1,1910,337,0,0
693,687,0,0,0,0,0,0,0,0,0,-1,1917,337,0,0
700,687,0,0,0,0,0,0,0,0,0,-1,1924,337,0,0
707,687,0,0,0,0,0,0,0,0,0,-1,1931,337,0,0
714,687,0,0,0,0,0,0,0,0,0,-1,1938,337,0,0
721,687,0,0,0,0,0,0,0,0,0,-1,1945,337,0,0
728,687,0,0,0,0,0,0,0,0,0,-1,1952,337,0,0
735,687,0,0,0,0,0,0,0,0,0,-1,1959,337,0,0
742,687,0,0,0,0,0,0,0,0,0,-1,1966,337,0,0
749,687,0,0,0,0,0,0,0,0,0,-1,1973,337,0,0
756,687,0,0,0,0,0,0,0,0,0,-1,1980,337,0,0
763,687,0,0,0,0,0,0,0,0,0,-1,1987,337,0,0
770,687,0,0,0,0,0,0,0,0,0,-1,1994,337,0,0
777,687,0,0,0,0,0,0,0,0,0,-1,2001,337,0,0
784,687,0,0,0,0,0,0,0,0,0,-1,2008,337,0,0
791,687,0,0,0,0,0,0,0,0,0,-1,2015,337,0,0
798,687,0,0,0,0,0,0,0,0,0,-1,2022,337,0,0
805,687,0,0,0,0,0,0,0,0,0,-1,2029,337,0,0
812,687,0,0,0,0,0,0,0,0,0,-1,2036,337,0,0
-700,680,0,0,0,0,0,0,0,0,0,-1,524,344,0,0
-693,680,0,0,0,0,0,0,0,0,0,-1,531,344,0,0
-686,680,0,0,0,0,0,0,0,0,0,-1,538,344,0,0
-679,680,0,0,0,0,0,0,0,0,0,-1,545,344,0,0
-672,680,0,0,0,0,0,0,0,0,0,-1,552,344,0,0
-665,680,0,0,0,0,0,0,0,0,0,-1,559,344,0,0
-658,680,0,0,0,0,0,0,0,0,0,-1,566,344,0,0
-651,680,0,0,0,0,0,0,0,0,0,-1,573,344,0,0
-644,680,0,0,0,0,0,0,0,0,0,-1,580,344,0,0
-637,680,0,0,0,0,0,0,0,0,0,-1,587,344,0,0
-630,680,0,0,0,0,0,0,0,0,0,-1,594,344,0,0
-623,680,0,0,0,0,0,0,0,0,0,-1,601,344,0,0
-616,680,0,0,0,0,0,0,0,0,0,-1,608,344,0,0
-609,680,0,0,0,0,0,0,0,0,0,-1,615,344,0,0
-602,680,0,0,0,0,0,0,0,0,0,-1,622,344,0,0
-595,680,0,0,0,0,0,0,0,0,0,-1,629,344,0,0
-588,680,0,0,0,0,0,0,0,0,0,-1,636,344,0,0
-581,680,0,0,0,0,0,0,0,0,0,-1,643,344,0,0
-574,680,0,0,0,0,0,0,0,0,0,-1,650,344,0,0
-567,680,0,0,0,0,0,0,0,0,0,-1,657,344,0,0
-560,680,0,0,0,0,0,0,0,0,0,-1,664,344,0,0
-553,680,0,0,0,0,0,0,0,0,0,-1,671,344,0,0
-546,680,0,0,0,0,0,0,0,0,0,-1,678,344,0,0
-539,680,0,0,0,0,0,0,0,0,0,-1,685,344,0,0
-532,680,0,0,0,0,0,0,0,0,0,-1,692,344,0,0
-525,680,0,0,0,0,0,0,0,0,0,-1,699,344,0,0
-518,680,0,0,0,0,0,0,0,0,0,-1,706,344,0,0
-511,680,0,0,0,0,0,0,0,0,0,-1,713,344,0,0
-504,680,0,0,0,0,0,0,0,0,0,-1,720,344,0,0
-497,680,0,0,0,0,0,0,0,0,0,-1,727,344,0,0
-490,680,0,0,0,0,0,0,0,0,0,-1,734,344,0,0
-483,680,0,0,0,0,0,0,0,0,0,-1,741,344,0,0
-476,680,0,0,0,0,0,0,0,0,0,-1,748,344,0,0
-469,680,0,0,0,0,0,0,0,0,0,-1,755,344,0,0
-462,680,0,0,0,0,0,0,0,0,0,-1,762,344,0,0
-455,680,0,0,0,0,0,0,0,0,0,-1,769,344,0,0
-448,680,0,0,0,0,0,0,0,0,0,-1,776,344,0,0
-441,680,0,0,0,0,0,0,0,0,0,-1,783,344,0,0
-434,680,0,0,0,0,0,0,0,0,0,-1,790,344,0,0
-427,680,0,0,0,0,0,0,0,0,0,-1,797,344,0,0
-420,680,0,0,0,0,0,0,0,0,0,-1,804,344,0,0
-413,680,0,0,0,0,0,0,0,0,0,-1,811,344,0,0
-406,680,0,0,0,0,0,0,0,0,0,-1,818,344,0,0
-399,680,0,0,0,0,0,0,0,0,0,-1,825,344,0,0
-392,680,0,0,0,0,0,0,0,0,0,-1,832,344,0,0
-385,680,0,0,0,0,0,0,0,0,0,-1,839,344,0,0
-378,680,0,0,0,0,0,0,0,0,0,-1,846,344,0,0
-371,680,0,0,0,0,0,0,0,0,0,-1,853,344,0,0
-364,680,0,0,0,0,0,0,0,0,0,-1,860,344,0,0
-357,680,0,0,0,0,0,0,0,0,0,-1,867,344,0,0
-350,680,0,0,0,0,0,0,0,0,0,-1,874,344,0,0
-343,680,0,0,0,0,0,0,0,0,0,-1,881,344,0,0
-336,680,0,0,0,0,0,0,0,0,0,-1,888,344,0,0
-329,680,0,0,0,0,0,0,0,0,0,-1,895,344,0,0
-322,680,0,0,0,0,0,0,0,0,0,-1,902,344,0,0
-315,680,0,0,0,0,0,0,0,0,0,-1,909,344,0,0
-308,680,0,0,0,0,0,0,0,0,0,-1,916,344,0,0
-301,680,0,0,0,0,0,0,0,0,0,-1,923,344,0,0
-294,680,0,0,0,0,0,0,0,0,0,-1,930,344,0,0
-287,680,0,0,0,0,0,0,0,0,0,-1,937,344,0,0
-280,680,0,0,0,0,0,0,0,0,0,-1,944,344,0,0
-273,680,0,0,0,0,0,0,0,0,0,-1,951,344,0,0
-266,680,0,0,0,0,0,0,0,0,0,-1,958,344,0,0
-259,680,0,0,0,0,0,0,0,0,0,-1,965,344,0,0
-252,680,0,0,0,0,0,0,0,0,0,-1,972,344,0,0
-245,680,0,0,0,0,0,0,0,0,0,-1,979,344,0,0
-238,680,0,0,0,0,0,0,0,0,0,-1,986,344,0,0
-231,680,0,0,0,0,0,0,0,0,0,-1,993,344,0,0
-224,680,0,0,0,0,0,0,0,0,0,-1,1000,344,0,0
-217,680,0,0,0,0,0,0,0,0,0,-1,1007,344,0,0
-210,680,0,0,0,0,0,0,0,0,0,-1,1014,344,0,0
-203,680,0,0,0,0,0,0,0,0,0,-1,1021,344,0,0
-196,680,0,0,0,0,0,0,0,0,0,-1,1028,344,0,0
-189,680,0,0,0,0,0,0,0,0,0,-1,1035,344,0,0
-182,680,0,0,0,0,0,0,0,0,0,-1,1042,344,0,0
-175,680,0,0,0,0,0,0,0,0,0,-1,1049,344,0,0
-168,680,0,0,0,0,0,0,0,0,0,-1,1056,344,0,0
-161,680,0,0,0,0,0,0,0,0,0,-1,1063,344,0,0
-154,680,-0.42334,-0.21048,0.00325504,0.0075064,-0.00575533,0.0115161,-0.000754616,-0.962298,0.00794087,0.038969,1070,344,-0.423307,0.210493
-147,680,-0.0810547,0.178436,0.00424081,0.0036499,-0.00507668,0.00903063,-0.00113992,-0.756332,0.00643414,0.0389018,1077,344,-0.0810709,-0.178431
-140,680,-0.152222,0.102692,0.00571905,0.000886655,-0.00353021,0.00758075,-0.000975046,-0.485297,0.00540823,0.0401182,1084,344,-0.152263,-0.102691
-133,680,-0.158691,0.0756836,0.00711927,0.00194297,-0.00137787,0.00746319,0.00159905,-0.244606,0.00453736,0.0397105,1091,344,-0.158644,-0.0756778
-126,680,0.0655518,0.0137329,0.00729738,0.00224869,0.00076958,0.00741208,0.00213399,0.147956,0.00440583,0.0389371,1098,344,0.0655185,-0.0137179
-119,680,0.0406494,-0.415161,0.00695474,0.00321004,0.00270689,0.00837373,0.00179105,0.482831,0.00509158,0.0368021,1105,344,0.0406827,0.415175
-112,680,-0.0385742,-0.282867,0.00753871,0.00425462,0.0052072,0.0113566,0.000436702,0.632662,0.0074298,0.0369809,1112,344,-0.0386299,0.282859
-105,680,-0.00415039,-0.247375,0.00759328,0.0058877,0.00668107,0.0134758,5.21354e-06,0.72192,0.0089821,0.0402918,1119,344,-0.004174,0.247377
-98,680,0.322632,-0.382202,0.00695173,0.00687824,0.00698666,0.0139017,-7.17738e-05,0.782768,0.00929184,0.0402836,1126,344,0.322608,0.382191
-91,680,-0.792236,-0.290741,0.00606243,0.00716474,0.00649969,0.0131366,9.05707e-05,0.827696,0.0087277,0.0420613,1133,344,-0.792178,0.290741
-84,680,0.176025,0.0584717,0.00628711,0.00809572,0.0070533,0.0143024,8.03848e-05,0.849155,0.00950828,0.0384739,1140,344,0.176018,-0.0584705
-77,680,0.340332,0.274139,0.00765128,0.00849385,0.00816468,0.0162481,-0.000102974,0.811175,0.0108666,0.0419933,1147,344,0.340276,-0.274137
-70,680,-0.469727,0.257874,0,0,0,0,0,0,0,-1,1154,344,-0.469725,-0.257883
-63,680,-0.598022,0.190063,0.0115334,0.0107053,0.00696277,0.0180944,0.00414429,0.7557,0.0109462,0.0419723,1161,344,-0.598041,-0.190068
-56,680,0.0783691,0.237122,0.0141323,0.0106135,0.00683285,0.0194286,0.00531717,0.65939,0.0115938,0.0425451,1168,344,0.078385,-0.237106
-49,680,-0.0933838,0.0846863,0.0168032,0.010804,0.00692428,0.0213497,0.00625754,0.581001,0.0126731,0.042085,1175,344,-0.0933331,-0.0846857
-42,680,-0.173462,-0.159668,0.0200357,0.0110201,0.00690684,0.0237756,0.00728021,0.496279,0.0140663,0.04838,1182,344,-0.173514,0.159665
-35,680,-0.107788,0.212677,0.022849,0.0105819,0.00715392,0.0261388,0.00729212,0.431019,0.015575,0.0474434,1189,344,-0.107816,-0.212667
-28,680,0.318237,0.225159,0.0253235,0.0106567,0.0078345,0.0287213,0.00725891,0.409212,0.0172449,0.0402371,1196,344,0.318244,-0.225168
-21,680,0.67395,0.277039,0.0275261,0.0106082,0.00835898,0.0309595,0.00717486,0.389726,0.0187123,0.0390278,1203,344,0.673904,-0.277032
-14,680,0.92334,0.185425,0.0284035,0.0100977,0.0085226,0.031757,0.00674422,0.374877,0.0193197,0.0418075,1210,344,0.923346,-0.185439
-7,680,0.776489,-0.244598,0.0269997,0.0103357,0.0073041,0.029748,0.00758747,0.359877,0.0178487,0.0453779,1217,344,0.7765,0.244584
0,680,-0.44104,-0.0716248,0,0,0,0,0,0,0,-1,1224,344,-0.44109,0.0716101
7,680,-0.473755,0.00961304,0,0,0,0,0,0,0,-1,1231,344,-0.473807,-0.00962291
14,680,-0.124634,-0.0860291,0,0,0,0,0,0,0,-1,1238,344,-0.124591,0.0860198
21,680,-0.0494385,0.024231,0.019151,0.00859237,-0.000811321,0.019213,0.00853039,-0.0762432,0.0111158,0.0430211,1245,344,-0.0494847,-0.0242415
28,680,-0.0179443,-0.144623,0.0135084,0.00796395,-0.00480039,0.0162795,0.00519279,-0.523544,0.00960212,0.0405263,1252,344,-0.017996,0.144636
35,680,-0.0292969,-0.19809,0.0110041,0.00578123,-0.00691867,0.0157878,0.000997555,-0.604941,0.0102089,0.0418659,1259,344,-0.0292601,0.198083
42,680,-0.390991,0.244446,0.00793032,0.00349472,-0.00864438,0.0146369,-0.00321182,-0.659827,0.0109861,0.0396533,1266,344,-0.390993,-0.244439
49,680,-0.14502,0.166473,0.00730844,0.0136055,-0.0116691,0.0225433,-0.00162944,-0.917168,0.0156004,0.0375613,1273,344,-0.145072,-0.166468
56,680,0.0266113,-0.0164185,0.0105281,0.0155668,-0.0129161,0.0262069,-0.00011206,-0.881718,0.0175088,0.0388858,1280,344,0.0265635,0.0164241
63,680,0.0941162,-0.0495911,0.0157838,0.0180257,-0.0150943,0.0320406,0.00176888,-0.822461,0.0207959,0.0385207,1287,344,0.0941166,0.0495872
70,680,0.0893555,-0.248932,0.0204304,0.0203824,-0.0172181,0.0376245,0.00318832,-0.784701,0.0240906,0.0399757,1294,344,0.0893386,0.248927
77,680,0.0463867,-0.305817,0.0251631,0.0221828,-0.0195084,0.0432381,0.00410771,-0.747279,0.0275584,0.0468126,1301,344,0.0463924,0.305829
84,680,-0.00952148,-0.374603,0.0291918,0.0241734,-0.0211887,0.0480193,0.00534585,-0.726461,0.0303881,0.0471426,1308,344,-0.00951297,0.374589
91,680,-0.0799561,-0.429199,0.0299088,0.0256454,-0.021081,0.0489656,0.00658861,-0.735009,0.0306842,0.0486785,1315,344,-0.0798963,0.429205
98,680,-0.130249,-0.192444,0,0,0,0,0,0,0,-1,1322,344,-0.130281,0.192446
105,680,-0.276245,0.00921631,0,0,0,0,0,0,0,-1,1329,344,-0.276285,-0.00921642
112,680,-0.503784,0.407379,0.0299317,0.0255009,-0.0183453,0.0461949,0.00923769,-0.725307,0.0282258,0.0442639,1336,344,-0.503828,-0.407386
119,680,0.192139,0.0508118,0.0275224,0.0239486,-0.0161272,0.0419614,0.00950965,-0.730223,0.0254048,0.043823,1343,344,0.192093,-0.0508178
126,680,-0.0653076,-0.122742,0,0,0,0,0,0,0,-1,1350,344,-0.0653408,0.122753
133,680,0.170898,-0.433105,0.0193716,0.0214697,-0.00983728,0.0303137,0.0105276,-0.838517,0.0177716,0.0437803,1357,344,0.170912,0.433097
140,680,-0.153564,-0.24054,0.0143678,0.0202457,-0.00666363,0.0245897,0.0100238,-0.993091,0.0142774,0.0470837,1364,344,-0.153613,0.240551
147,680,-0.510254,0.0133362,0.00973376,0.0185902,-0.00420914,0.0202715,0.00805249,-1.19078,0.0117859,0.045913,1371,344,-0.510273,-0.0133441
154,680,-0.395874,-0.301086,0.00563151,0.013256,-0.00189765,0.0137022,0.00518532,-1.33986,0.00798853,0.0455631,1378,344,-0.395931,0.301098
161,680,0.138672,-0.21048,0.00115779,0.0124993,-0.000656684,0.0125372,0.00111989,-1.51315,0.00801097,0.0436622,1385,344,0.13868,0.210474
168,680,0.119873,0.116333,-0.00308795,0.0111058,0.000972307,0.0111721,-0.00315424,1.50272,0.00869236,0.0443824,1392,344,0.119933,-0.116348
175,680,0.0220947,0.323059,-0.00364808,0.0089992,0.0012749,0.00912643,-0.00377532,1.47133,0.00765942,0.0455047,1399,344,0.0220689,-0.323055
182,680,-0.000854492,0.602966,-0.00212678,0.00626593,0.00100119,0.00638371,-0.00224456,1.45369,0.00516907,0.0479314,1406,344,-0.000861221,-0.602978
189,680,-0.0174561,0.792816,0.00109905,0.00313775,9.24904e-05,0.00314193,0.00109487,1.52555,0.00184156,0.0462643,1413,344,-0.0174641,-0.792801
196,680,-0.0787354,0.979736,0.00222557,-0.00104804,-0.00209536,0.00324765,-0.00207012,-0.453825,0.0030952,0.0487673,1420,344,-0.0787799,-0.979741
203,680,-0.269287,0.12738,0.000469256,-0.00500741,-0.00233013,0.00132647,-0.00586462,-0.352517,0.00441877,0.0437713,1427,344,-0.269304,-0.127371
210,680,-0.0585938,-0.0914612,-0.00300907,-0.00861548,-0.000624892,-0.00294027,-0.00868429,-0.109667,0.00510023,0.0411268,1434,344,-0.058592,0.0914519
217,680,0.0738525,-0.417725,-0.00645388,-0.00962691,0.000806733,-0.00626055,-0.00982024,0.235209,0.00574075,0.0409488,1441,344,0.0738053,0.417712
224,680,0.291382,-0.477753,-0.0118048,-0.0101504,0.00202306,-0.00879198,-0.0131633,0.979469,0.00774135,0.0411723,1448,344,0.291443,0.477756
231,680,0.605835,-0.38681,-0.0183699,-0.0105843,0.00342834,-0.00928983,-0.0196644,1.20978,0.011359,0.0428683,1455,344,0.605818,0.386799
238,680,1.25586,0.174683,0,0,0,0,0,0,0,-1,1462,344,1.25584,-0.174681
245,680,4.26941,-0.770905,-0.0334303,-0.00965494,0.00628711,-0.00809477,-0.0349905,1.32756,0.0211515,0.0462485,1469,344,4.26938,0.770896
252,680,2.88818,-0.771576,-0.0415534,-0.00844135,0.00788375,-0.00666011,-0.0433347,1.34859,0.0269455,0.0474539,1476,344,2.88821,0.771581
259,680,1.64526,-0.507904,-0.0494861,-0.00791804,0.00846818,-0.00625912,-0.051145,1.37735,0.0322136,0.0481419,1483,344,1.64524,0.507911
266,680,0.490356,-0.335632,-0.0566924,-0.00701032,0.0084424,-0.00561491,-0.0580878,1.40699,0.0369958,0.0452572,1490,344,0.490306,0.335634
273,680,-0.130981,-0.124603,-0.060413,-0.00660364,0.00703623,-0.00569879,-0.0613178,1.4429,0.0391176,0.0412348,1497,344,-0.131027,0.124593
280,680,0,0,0,0,0,0,0,0,0,-1,1504,344,0,0
287,680,0,0,0,0,0,0,0,0,0,-1,1511,344,0,0
294,680,0,0,0,0,0,0,0,0,0,-1,1518,344,0,0
301,680,0,0,0,0,0,0,0,0,0,-1,1525,344,0,0
308,680,0,0,0,0,0,0,0,0,0,-1,1532,344,0,0
315,680,0,0,0,0,0,0,0,0,0,-1,1539,344,0,0
322,680,0,0,0,0,0,0,0,0,0,-1,1546,344,0,0
329,680,0,0,0,0,0,0,0,0,0,-1,1553,344,0,0
336,680,0,0,0,0,0,0,0,0,0,-1,1560,344,0,0
343,680,0,0,0,0,0,0,0,0,0,-1,1567,344,0,0
350,680,0,0,0,0,0,0,0,0,0,-1,1574,344,0,0
357,680,0,0,0,0,0,0,0,0,0,-1,1581,344,0,0
364,680,0,0,0,0,0,0,0,0,0,-1,1588,344,0,0
371,680,0,0,0,0,0,0,0,0,0,-1,1595,344,0,0
378,680,0,0,0,0,0,0,0,0,0,-1,1602,344,0,0
385,680,0,0,0,0,0,0,0,0,0,-1,1609,344,0,0
392,680,0,0,0,0,0,0,0,0,0,-1,1616,344,0,0
399,680,0,0,0,0,0,0,0,0,0,-1,1623,344,0,0
406,680,0,0,0,0,0,0,0,0,0,-1,1630,344,0,0
413,680,0,0,0,0,0,0,0,0,0,-1,1637,344,0,0
420,680,0,0,0,0,0,0,0,0,0,-1,1644,344,0,0
427,680,0,0,0,0,0,0,0,0,0,-1,1651,344,0,0
434,680,0,0,0,0,0,0,0,0,0,-1,1658,344,0,0
441,680,0,0,0,0,0,0,0,0,0,-1,1665,344,0,0
448,680,0,0,0,0,0,0,0,0,0,-1,1672,344,0,0
455,680,0,0,0,0,0,0,0,0,0,-1,1679,344,0,0
462,680,0,0,0,0,0,0,0,0,0,-1,1686,344,0,0
469,680,0,0,0,0,0,0,0,0,0,-1,1693,344,0,0
476,680,0,0,0,0,0,0,0,0,0,-1,1700,344,0,0
483,680,0,0,0,0,0,0,0,0,0,-1,1707,344,0,0
490,680,0,0,0,0,0,0,0,0,0,-1,1714,344,0,0
497,680,0,0,0,0,0,0,0,0,0,-1,1721,344,0,0
504,680,0,0,0,0,0,0,0,0,0,-1,1728,344,0,0
511,680,0,0,0,0,0,0,0,0,0,-1,1735,344,0,0
518,680,0,0,0,0,0,0,0,0,0,-1,1742,344,0,0
525,680,0,0,0,0,0,0,0,0,0,-1,1749,344,0,0
532,680,0,0,0,0,0,0,0,0,0,-1,1756,344,0,0
539,680,0,0,0,0,0,0,0,0,0,-1,1763,344,0,0
546,680,0,0,0,0,0,0,0,0,0,-1,1770,344,0,0
553,680,0,0,0,0,0,0,0,0,0,-1,1777,344,0,0
560,680,0,0,0,0,0,0,0,0,0,-1,1784,344,0,0
567,680,0,0,0,0,0,0,0,0,0,-1,1791,344,0,0
574,680,0,0,0,0,0,0,0,0,0,-1,1798,344,0,0
581,680,0,0,0,0,0,0,0,0,0,-1,1805,344,0,0
588,680,0,0,0,0,0,0,0,0,0,-1,1812,344,0,0
595,680,0,0,0,0,0,0,0,0,0,-1,1819,344,0,0
602,680,0,0,0,0,0,0,0,0,0,-1,1826,344,0,0
609,680,0,0,0,0,0,0,0,0,0,-1,1833,344,0,0
616,680,0,0,0,0,0,0,0,0,0,-1,1840,344,0,0
623,680,0,0,0,0,0,0,0,0,0,-1,1847,344,0,0
630,680,0,0,0,0,0,0,0,0,0,-1,1854,344,0,0
637,680,0,0,0,0,0,0,0,0,0,-1,1861,344,0,0
644,680,0,0,0,0,0,0,0,0,0,-1,1868,344,0,0
651,680,0,0,0,0,0,0,0,0,0,-1,1875,344,0,0
658,680,0,0,0,0,0,0,0,0,0,-1,1882,344,0,0
665,680,0,0,0,0,0,0,0,0,0,-1,1889,344,0,0
672,680,0,0,0,0,0,0,0,0,0,-1,1896,344,0,0
679,680,0,0,0,0,0,0,0,0,0,-1,1903,344,0,0
686,680,0,0,0,0,0,0,0,0,0,-1,1910,344,0,0
693,680,0,0,0,0,0,0,0,0,0,-1,1917,344,0,0
700,680,0,0,0,0,0,0,0,0,0,-1,1924,344,0,0
707,680,0,0,0,0,0,0,0,0,0,-1,1931,344,0,0
714,680,0,0,0,0,0,0,0,0,0,-1,1938,344,0,0
721,680,0,0,0,0,0,0,0,0,0,-1,1945,344,0,0
728,680,0,0,0,0,0,0,0,0,0,-1,1952,344,0,0
735,680,0,0,0,0,0,0,0,0,0,-1,1959,344,0,0
742,680,0,0,0,0,0,0,0,0,0,-1,1966,344,0,0
749,680,0,0,0,0,0,0,0,0,0,-1,1973,344,0,0
756,680,0,0,0,0,0,0,0,0,0,-1,1980,344,0,0
763,680,0,0,0,0,0,0,0,0,0,-1,1987,344,0,0
770,680,0,0,0,0,0,0,0,0,0,-1,1994,344,0,0
777,680,0,0,0,0,0,0,0,0,0,-1,2001,344,0,0
784,680,0,0,0,0,0,0,0,0,0,-1,2008,344,0,0
791,680,0,0,0,0,0,0,0,0,0,-1,2015,344,0,0
798,680,0,0,0,0,0,0,0,0,0,-1,2022,344,0,0
805,680,0,0,0,0,0,0,0,0,0,-1,2029,344,0,0
812,680,0,0,0,0,0,0,0,0,0,-1,2036,344,0,0
-700,673,0,0,0,0,0,0,0,0,0,-1,524,351,0,0
-693,673,0,0,0,0,0,0,0,0,0,-1,531,351,0,0
-686,673,0,0,0,0,0,0,0,0,0,-1,538,351,0,0
-679,673,0,0,0,0,0,0,0,0,0,-1,545,351,0,0
-672,673,0,0,0,0,0,0,0,0,0,-1,552,351,0,0
-665,673,0,0,0,0,0,0,0,0,0,-1,559,351,0,0
-658,673,0,0,0,0,0,0,0,0,0,-1,566,351,0,0
-651,673,0,0,0,0,0,0,0,0,0,-1,573,351,0,0
-644,673,0,0,0,0,0,0,0,0,0,-1,580,351,0,0
-637,673,0,0,0,0,0,0,0,0,0,-1,587,351,0,0
-630,673,0,0,0,0,0,0,0,0,0,-1,594,351,0,0
-623,673,0,0,0,0,0,0,0,0,0,-1,601,351,0,0
-616,673,0,0,0,0,0,0,0,0,0,-1,608,351,0,0
-609,673,0,0,0,0,0,0,0,0,0,-1,615,351,0,0
-602,673,0,0,0,0,0,0,0,0,0,-1,622,351,0,0
-595,673,0,0,0,0,0,0,0,0,0,-1,629,351,0,0
-588,673,0,0,0,0,0,0,0,0,0,-1,636,351,0,0
-581,673,0,0,0,0,0,0,0,0,0,-1,643,351,0,0
-574,673,0,0,0,0,0,0,0,0,0,-1,650,351,0,0
-567,673,0,0,0,0,0,0,0,0,0,-1,657,351,0,0
-560,673,0,0,0,0,0,0,0,0,0,-1,664,351,0,0
-553,673,0,0,0,0,0,0,0,0,0,-1,671,351,0,0
-546,673,0,0,0,0,0,0,0,0,0,-1,678,351,0,0
-539,673,0,0,0,0,0,0,0,0,0,-1,685,351,0,0
-532,673,0,0,0,0,0,0,0,0,0,-1,692,351,0,0
-525,673,0,0,0,0,0,0,0,0,0,-1,699,351,0,0
-518,673,0,0,0,0,0,0,0,0,0,-1,706,351,0,0
-511,673,0,0,0,0,0,0,0,0,0,-1,713,351,0,0
-504,673,0,0,0,0,0,0,0,0,0,-1,720,351,0,0
-497,673,0,0,0,0,0,0,0,0,0,-1,727,351,0,0
-490,673,0,0,0,0,0,0,0,0,0,-1,734,351,0,0
-483,673,0,0,0,0,0,0,0,0,0,-1,741,351,0,0
-476,673,0,0,0,0,0,0,0,0,0,-1,748,351,0,0
-469,673,0,0,0,0,0,0,0,0,0,-1,755,351,0,0
-462,673,0,0,0,0,0,0,0,0,0,-1,762,351,0,0
-455,673,0,0,0,0,0,0,0,0,0,-1,769,351,0,0
-448,673,0,0,0,0,0,0,0,0,0,-1,776,351,0,0
-441,673,0,0,0,0,0,0,0,0,0,-1,783,351,0,0
-434,673,0,0,0,0,0,0,0,0,0,-1,790,351,0,0
-427,673,0,0,0,0,0,0,0,0,0,-1,797,351,0,0
-420,673,0,0,0,0,0,0,0,0,0,-1,804,351,0,0
-413,673,0,0,0,0,0,0,0,0,0,-1,811,351,0,0
-406,673,0,0,0,0,0,0,0,0,0,-1,818,351,0,0
-399,673,0,0,0,0,0,0,0,0,0,-1,825,351,0,0
-392,673,0,0,0,0,0,0,0,0,0,-1,832,351,0,0
-385,673,0,0,0,0,0,0,0,0,0,-1,839,351,0,0
-378,673,0,0,0,0,0,0,0,0,0,-1,846,351,0,0
-371,673,0,0,0,0,0,0,0,0,0,-1,853,351,0,0
-364,673,0,0,0,0,0,0,0,0,0,-1,860,351,0,0
-357,673,0,0,0,0,0,0,0,0,0,-1,867,351,0,0
-350,673,0,0,0,0,0,0,0,0,0,-1,874,351,0,0
-343,673,0,0,0,0,0,0,0,0,0,-1,881,351,0,0
-336,673,0,0,0,0,0,0,0,0,0,-1,888,351,0,0
-329,673,0,0,0,0,0,0,0,0,0,-1,895,351,0,0
-322,673,0,0,0,0,0,0,0,0,0,-1,902,351,0,0
-315,673,0,0,0,0,0,0,0,0,0,-1,909,351,0,0
-308,673,0,0,0,0,0,0,0,0,0,-1,916,351,0,0
-301,673,0,0,0,0,0,0,0,0,0,-1,923,351,0,0
-294,673,0,0,0,0,0,0,0,0,0,-1,930,351,0,0
-287,673,0,0,0,0,0,0,0,0,0,-1,937,351,0,0
-280,673,0,0,0,0,0,0,0,0,0,-1,944,351,0,0
-273,673,0,0,0,0,0,0,0,0,0,-1,951,351,0,0
-266,673,0,0,0,0,0,0,0,0,0,-1,958,351,0,0
-259,673,0,0,0,0,0,0,0,0,0,-1,965,351,0,0
-252,673,0,0,0,0,0,0,0,0,0,-1,972,351,0,0
-245,673,0,0,0,0,0,0,0,0,0,-1,979,351,0,0
-238,673,0,0,0,0,0,0,0,0,0,-1,986,351,0,0
-231,673,0,0,0,0,0,0,0,0,0,-1,993,351,0,0
-224,673,0,0,0,0,0,0,0,0,0,-1,1000,351,0,0
-217,673,0,0,0,0,0,0,0,0,0,-1,1007,351,0,0
-210,673,0,0,0,0,0,0,0,0,0,-1,1014,351,0,0
-203,673,0,0,0,0,0,0,0,0,0,-1,1021,351,0,0
-196,673,0,0,0,0,0,0,0,0,0,-1,1028,351,0,0
-189,673,0,0,0,0,0,0,0,0,0,-1,1035,351,0,0
-182,673,0,0,0,0,0,0,0,0,0,-1,1042,351,0,0
-175,673,0.135254,0.273956,-0.00626058,0.0166971,-0.00507806,0.0177702,-0.00733365,-1.36255,0.0149054,0.0386428,1049,351,0.13528,-0.273971
-168,673,0.114014,-0.0142517,-0.00442676,0.012329,-0.00512326,0.0137713,-0.0058691,-1.29637,0.0116413,0.0412325,1056,351,0.114011,0.0142374
-161,673,-0.180298,-0.317169,-0.00226179,0.00887778,-0.00487469,0.0107097,-0.0040937,-1.21132,0.00882668,0.037717,1063,351,-0.180247,0.317159
-154,673,-0.290161,-0.17157,-0.000244454,0.00551015,-0.00474298,0.00818035,-0.00291465,-1.05804,0.00664183,0.0387121,1070,351,-0.290153,0.171575
-147,673,-0.314331,-0.0680237,0.00102696,0.00241609,-0.00406964,0.00585002,-0.00240696,-0.869919,0.00490337,0.0396821,1077,351,-0.314361,0.0680328
-140,673,-0.2229,-0.0405273,0.00256611,-0.000286779,-0.0029248,0.00439377,-0.00211444,-0.558516,0.00383356,0.0404072,1084,351,-0.222872,0.0405373
-133,673,0.0306396,-0.350861,0.00413391,0.000439423,-0.00114461,0.00445978,0.00011355,-0.277364,0.00293607,0.0408581,1091,351,0.0305831,0.350854
-126,673,0.111084,-0.358398,0.00459867,0.000592587,0.000706946,0.00471976,0.000471494,0.169644,0.00300171,0.041896,1098,351,0.111028,0.358391
-119,673,0.210205,-0.417816,0.00457894,0.00140671,0.00225042,0.00574603,0.000239623,0.478426,0.00375336,0.0381907,1105,351,0.210152,0.417818
-112,673,0.0124512,-0.194672,0.00533015,0.00224671,0.00429031,0.00834734,-0.000770482,0.612909,0.00583869,0.0392031,1112,351,0.012405,0.194658
-105,673,-0.271362,-0.0924377,0.00547504,0.00361348,0.00549058,0.0101132,-0.00102466,0.701435,0.00710833,0.0431953,1119,351,-0.271311,0.0924413
-98,673,-0.4104,-0.163391,0.00508585,0.00447344,0.00579663,0.0105844,-0.00102506,0.75901,0.00742156,0.0455333,1126,351,-0.410432,0.163389
-91,673,-0.49585,-0.323029,0,0,0,0,0,0,0,-1,1133,351,-0.495893,0.323043
-84,673,0.343994,0.104767,0.00460994,0.00526555,0.00586089,0.0108078,-0.000932307,0.813335,0.00753522,0.0400052,1140,351,0.343942,-0.104759
-77,673,0.398315,0.269135,0.00564179,0.00567691,0.00662085,0.0122802,-0.000961527,0.786724,0.00852542,0.041436,1147,351,0.398279,-0.269145
-70,673,-0.297974,0.181915,0.00669311,0.00683858,0.00615124,0.0129175,0.00061418,0.79131,0.00841442,0.0426231,1154,351,-0.298021,-0.181912
-63,673,0.432495,0.0339966,0,0,0,0,0,0,0,-1,1161,351,0.432546,-0.0339911
-56,673,0.0585938,0.146118,0.0106889,0.00737774,0.00542717,0.0147074,0.00335924,0.637355,0.00889909,0.0430129,1168,351,0.0585989,-0.146126
-49,673,-0.168213,0.124786,0.012657,0.00745617,0.00544945,0.0160947,0.00401847,0.562784,0.00967265,0.0424011,1175,351,-0.168192,-0.1248
-42,673,-0.0775146,0.0373535,0.0149996,0.00759369,0.00534926,0.0178025,0.00479077,0.48265,0.0106373,0.0495259,1182,351,-0.0775724,-0.0373631
-35,673,-0.00146484,-0.0763245,0,0,0,0,0,0,0,-1,1189,351,-0.00151014,0.0763285
-28,673,0.103271,0.206421,0.0185426,0.00717069,0.00591133,0.0210587,0.00465458,0.402414,0.0127735,0.0434804,1196,351,0.103245,-0.206422
-21,673,0.257202,0.239624,0.0200519,0.00709793,0.00627562,0.0225935,0.00455634,0.384805,0.0137966,0.0397541,1203,351,0.257233,-0.239637
-14,673,0.237671,0.229523,0.0205975,0.00667567,0.00641708,0.0231041,0.00416911,0.372384,0.0142182,0.0419523,1210,351,0.237626,-0.229518
-7,673,0.199829,0.154358,0,0,0,0,0,0,0,-1,1217,351,0.199821,-0.154343
0,673,-0.239502,-0.061554,0.0183147,0.00698012,0.00405267,0.0196146,0.00568018,0.310394,0.011654,0.0395542,1224,351,-0.239543,0.061557
7,673,-0.259766,-0.0362549,0.0174795,0.00667635,0.0029871,0.0182504,0.00590541,0.252575,0.0107533,0.040727,1231,351,-0.259823,0.0362453
14,673,-0.078125,-0.0935974,0.0159276,0.00670602,0.00188486,0.016298,0.00633564,0.194032,0.00948698,0.0369231,1238,351,-0.0781125,0.0936
21,673,-0.0378418,-0.0919189,0.013119,0.0062194,-0.000456822,0.0131491,0.00618929,-0.0658274,0.00759596,0.0232206,1245,351,-0.0377926,0.09193
28,673,-0.0228271,-0.0851746,0.00915453,0.00556278,-0.00323398,0.0110578,0.00365949,-0.531942,0.00650474,0.0147183,1252,351,-0.0228799,0.0851665
35,673,-0.0336914,-0.142517,0.00738274,0.00398413,-0.00477244,0.0107494,0.000617483,-0.614363,0.00696955,0.0196691,1259,351,-0.0336409,0.142503
42,673,-0.0318604,-0.110352,0.00544928,0.00224147,-0.00596581,0.010023,-0.00233228,-0.654079,0.00758001,0.0225443,1266,351,-0.0318135,0.110342
49,673,0.00158691,-0.0621643,0.00493057,0.00896217,-0.0079321,0.0151306,-0.00123787,-0.90983,0.010524,0.0142168,1273,351,0.00159154,0.0621543
56,673,-0.0090332,-0.0558167,0.00674928,0.0104162,-0.00867516,0.0174495,-0.000284042,-0.889539,0.0117288,0.0120954,1280,351,-0.0090936,0.0558267
63,673,0.0170898,-0.0585632,0.0101908,0.0123631,-0.0102269,0.0215613,0.000992561,-0.838305,0.0140551,0.0151911,1287,351,0.0171397,0.058578
70,673,0.00219727,-0.0418091,0.0134547,0.0141555,-0.0117607,0.025571,0.00203925,-0.800291,0.0164099,0.0243873,1294,351,0.00220251,0.0417949
77,673,0.0717773,-0.133667,0.0168313,0.0155833,-0.0134656,0.0296874,0.00272725,-0.762245,0.018948,0.0351709,1301,351,0.0717636,0.133673
84,673,-0.0332031,-0.120178,0.0196563,0.0170927,-0.0146764,0.0331067,0.00364217,-0.74184,0.0209628,0.039661,1308,351,-0.0331545,0.120189
91,673,-0.043457,-0.255798,0.0204596,0.0182807,-0.0148193,0.0342294,0.00451091,-0.748705,0.0214745,0.0447842,1315,351,-0.0434011,0.25581
98,673,-0.102295,-0.130768,0.0213807,0.0186661,-0.0146394,0.0347256,0.00532117,-0.739171,0.0215963,0.0482605,1322,351,-0.102329,0.130775
105,673,-0.189087,-0.0231934,0.0222273,0.0189091,-0.0142228,0.0348875,0.0062489,-0.727335,0.0214805,0.0415748,1329,351,-0.189075,0.0232079
112,673,-0.271118,-0.0173645,0.0213341,0.0182161,-0.0134229,0.0332882,0.006262,-0.727585,0.0204273,0.0393029,1336,351,-0.27117,0.017362
119,673,-0.0692139,-0.0951233,0.019932,0.0170818,-0.0119862,0.0305776,0.00643626,-0.726229,0.0186143,0.0405419,1343,351,-0.0691826,0.0951256
126,673,-0.0693359,-0.0864563,0.0175952,0.0160132,-0.00997559,0.0268111,0.00679728,-0.745834,0.0160941,0.0393394,1350,351,-0.0692899,0.0864642
133,673,-0.104248,-0.11499,0.0146591,0.0152465,-0.00765974,0.0226182,0.00728743,-0.804558,0.013331,0.0397628,1357,351,-0.104248,0.114986
140,673,-0.00244141,-0.052002,0.0111995,0.0143816,-0.00538417,0.0184049,0.00717625,-0.929061,0.0107116,0.0426722,1364,351,-0.00241677,0.0520088
147,673,-0.251099,-0.0385742,0.00789373,0.013335,-0.00360299,0.0151292,0.00609958,-1.10878,0.00878928,0.0412816,1371,351,-0.251158,0.0385735
154,673,-0.255249,-0.0845032,0.00492412,0.00932915,-0.00193824,0.0100605,0.00419273,-1.20997,0.00583524,0.0389036,1378,351,-0.255279,0.0844929
161,673,-0.0135498,-0.130005,0.00164865,0.00899682,-0.00103291,0.00913925,0.00150622,-1.43377,0.00565799,0.0417445,1385,351,-0.0135141,0.130014
168,673,0.0465088,-0.151001,-0.00150754,0.00825579,0.000238921,0.00826163,-0.00151338,1.54634,0.00607537,0.0407505,1392,351,0.0464992,0.151003
175,673,-0.0690918,-0.0175171,-0.00204948,0.00716248,0.000557697,0.00719612,-0.00208312,1.51055,0.00562194,0.0407787,1399,351,-0.0690998,0.0175092
182,673,0.0201416,0.298798,-0.000899065,0.0056085,0.000424475,0.00563607,-0.000926636,1.50593,0.0041013,0.0409402,1406,351,0.0202002,-0.2988
189,673,-0.0426025,0.293091,0.00147643,0.00384623,-8.83492e-05,0.00384952,0.00147314,-1.53358,0.00224282,0.0396607,1413,351,-0.0426032,-0.293086
196,673,-0.0487061,-0.0499268,0.00214527,0.00118685,-0.00147989,0.0032216,0.000110511,-0.628818,0.00211186,0.0412516,1420,351,-0.0487073,0.0499367
203,673,-0.448853,0.106964,0.00109571,-0.00145919,-0.00140041,0.00171379,-0.00207727,-0.415643,0.00219212,0.0453722,1427,351,-0.448808,-0.10696
210,673,-0.441772,-0.273987,-0.00106356,-0.00397179,-8.20791e-07,-0.00106356,-0.00397179,-0.00028223,0.00237412,0.0431576,1434,351,-0.441743,0.273997
217,673,-0.33606,-0.371429,-0.00348696,-0.00494709,0.00118258,-0.00282724,-0.00560681,0.508858,0.00323713,0.0394932,1441,351,-0.335999,0.37144
224,673,0.147095,-0.369659,-0.00717564,-0.00570291,0.00221463,-0.00410543,-0.00877311,0.945898,0.00506863,0.0387884,1448,351,0.147136,0.369668
231,673,0.827637,-0.271729,-0.0117887,-0.00641665,0.00335713,-0.00480325,-0.0134021,1.1228,0.00784045,0.0388304,1455,351,0.827597,0.271743
238,673,1.01135,0.200439,-0.0172517,-0.00715594,0.00447517,-0.00545783,-0.0189498,1.20813,0.0112636,0.0435399,1462,351,1.0114,-0.200425
245,673,1.03479,0.0981445,0,0,0,0,0,0,0,-1,1469,351,1.03481,-0.098133
252,673,0.0860596,0.0765381,-0.0284067,-0.00620093,0.00673626,-0.00431724,-0.0302904,1.29813,0.0189194,0.0484582,1476,351,0.0860124,-0.0765456
259,673,0.313599,-0.320221,-0.034371,-0.0060485,0.00705552,-0.00438821,-0.0360313,1.33968,0.0227,0.0458256,1483,351,0.313603,0.320214
266,673,0.526611,-0.411957,-0.0397532,-0.00579848,0.00670804,-0.00452129,-0.0410304,1.38265,0.025978,0.0424863,1490,351,0.526571,0.411948
273,673,0.199097,-0.255646,-0.0427494,-0.00581362,0.00540445,-0.00503908,-0.043524,1.42845,0.0274907,0.0421084,1497,351,0.199076,0.255652
280,673,-0.0490723,-0.159851,-0.0450528,-0.00519005,0.00429462,-0.00473262,-0.0455103,1.46468,0.0288921,0.0415739,1504,351,-0.0490788,0.159839
287,673,-0.348877,-0.300171,-0.0456682,-0.0050336,0.003077,-0.00480192,-0.0458999,1.49564,0.0291315,0.0423244,1511,351,-0.34883,0.300177
294,673,-0.484741,-0.129639,-0.0433956,-0.00384688,0.00258927,-0.00367808,-0.0435644,1.5057,0.0278978,0.0439835,1518,351,-0.484795,0.129636
301,673,0,0,0,0,0,0,0,0,0,-1,1525,351,0,0
308,673,0,0,0,0,0,0,0,0,0,-1,1532,351,0,0
315,673,0,0,0,0,0,0,0,0,0,-1,1539,351,0,0
322,673,0,0,0,0,0,0,0,0,0,-1,1546,351,0,0
329,673,0,0,0,0,0,0,0,0,0,-1,1553,351,0,0
336,673,0,0,0,0,0,0,0,0,0,-1,1560,351,0,0
343,673,0,0,0,0,0,0,0,0,0,-1,1567,351,0,0
350,673,0,0,0,0,0,0,0,0,0,-1,1574,351,0,0
357,673,0,0,0,0,0,0,0,0,0,-1,1581,351,0,0
364,673,0,0,0,0,0,0,0,0,0,-1,1588,351,0,0
371,673,0,0,0,0,0,0,0,0,0,-1,1595,351,0,0
378,673,0,0,0,0,0,0,0,0,0,-1,1602,351,0,0
385,673,0,0,0,0,0,0,0,0,0,-1,1609,351,0,0
392,673,0,0,0,0,0,0,0,0,0,-1,1616,351,0,0
399,673,0,0,0,0,0,0,0,0,0,-1,1623,351,0,0
406,673,0,0,0,0,0,0,0,0,0,-1,1630,351,0,0
413,673,0,0,0,0,0,0,0,0,0,-1,1637,351,0,0
420,673,0,0,0,0,0,0,0,0,0,-1,1644,351,0,0
427,673,0,0,0,0,0,0,0,0,0,-1,1651,351,0,0
434,673,0,0,0,0,0,0,0,0,0,-1,1658,351,0,0
441,673,0,0,0,0,0,0,0,0,0,-1,1665,351,0,0
448,673,0,0,0,0,0,0,0,0,0,-1,1672,351,0,0
455,673,0,0,0,0,0,0,0,0,0,-1,1679,351,0,0
462,673,0,0,0,0,0,0,0,0,0,-1,1686,351,0,0
469,673,0,0,0,0,0,0,0,0,0,-1,1693,351,0,0
476,673,0,0,0,0,0,0,0,0,0,-1,1700,351,0,0
483,673,0,0,0,0,0,0,0,0,0,-1,1707,351,0,0
490,673,0,0,0,0,0,0,0,0,0,-1,1714,351,0,0
497,673,0,0,0,0,0,0,0,0,0,-1,1721,351,0,0
504,673,0,0,0,0,0,0,0,0,0,-1,1728,351,0,0
511,673,0,0,0,0,0,0,0,0,0,-1,1735,351,0,0
518,673,0,0,0,0,0,0,0,0,0,-1,1742,351,0,0
525,673,0,0,0,0,0,0,0,0,0,-1,1749,351,0,0
532,673,0,0,0,0,0,0,0,0,0,-1,1756,351,0,0
539,673,0,0,0,0,0,0,0,0,0,-1,1763,351,0,0
546,673,0,0,0,0,0,0,0,0,0,-1,1770,351,0,0
553,673,0,0,0,0,0,0,0,0,0,-1,1777,351,0,0
560,673,0,0,0,0,0,0,0,0,0,-1,1784,351,0,0
567,673,0,0,0,0,0,0,0,0,0,-1,1791,351,0,0
574,673,0,0,0,0,0,0,0,0,0,-1,1798,351,0,0
581,673,0,0,0,0,0,0,0,0,0,-1,1805,351,0,0
588,673,0,0,0,0,0,0,0,0,0,-1,1812,351,0,0
595,673,0,0,0,0,0,0,0,0,0,-1,1819,351,0,0
602,673,0,0,0,0,0,0,0,0,0,-1,1826,351,0,0
609,673,0,0,0,0,0,0,0,0,0,-1,1833,351,0,0
616,673,0,0,0,0,0,0,0,0,0,-1,1840,351,0,0
623,673,0,0,0,0,0,0,0,0,0,-1,1847,351,0,0
630,673,0,0,0,0,0,0,0,0,0,-1,1854,351,0,0
637,673,0,0,0,0,0,0,0,0,0,-1,1861,351,0,0
644,673,0,0,0,0,0,0,0,0,0,-1,1868,351,0,0
651,673,0,0,0,0,0,0,0,0,0,-1,1875,351,0,0
658,673,0,0,0,0,0,0,0,0,0,-1,1882,351,0,0
665,673,0,0,0,0,0,0,0,0,0,-1,1889,351,0,0
672,673,0,0,0,0,0,0,0,0,0,-1,1896,351,0,0
679,673,0,0,0,0,0,0,0,0,0,-1,1903,351,0,0
686,673,0,0,0,0,0,0,0,0,0,-1,1910,351,0,0
693,673,0,0,0,0,0,0,0,0,0,-1,1917,351,0,0
700,673,0,0,0,0,0,0,0,0,0,-1,1924,351,0,0
707,673,0,0,0,0,0,0,0,0,0,-1,1931,351,0,0
714,673,0,0,0,0,0,0,0,0,0,-1,1938,351,0,0
721,673,0,0,0,0,0,0,0,0,0,-1,1945,351,0,0
728,673,0,0,0,0,0,0,0,0,0,-1,1952,351,0,0
735,673,0,0,0,0,0,0,0,0,0,-1,1959,351,0,0
742,673,0,0,0,0,0,0,0,0,0,-1,1966,351,0,0
749,673,0,0,0,0,0,0,0,0,0,-1,1973,351,0,0
756,673,0,0,0,0,0,0,0,0,0,-1,1980,351,0,0
763,673,0,0,0,0,0,0,0,0,0,-1,1987,351,0,0
770,673,0,0,0,0,0,0,0,0,0,-1,1994,351,0,0
777,673,0,0,0,0,0,0,0,0,0,-1,2001,351,0,0
784,673,0,0,0,0,0,0,0,0,0,-1,2008,351,0,0
791,673,0,0,0,0,0,0,0,0,0,-1,2015,351,0,0
798,673,0,0,0,0,0,0,0,0,0,-1,2022,351,0,0
805,673,0,0,0,0,0,0,0,0,0,-1,2029,351,0,0
812,673,0,0,0,0,0,0,0,0,0,-1,2036,351,0,0
-700,666,0,0,0,0,0,0,0,0,0,-1,524,358,0,0
-693,666,0,0,0,0,0,0,0,0,0,-1,531,358,0,0
-686,666,0,0,0,0,0,0,0,0,0,-1,538,358,0,0
-679,666,0,0,0,0,0,0,0,0,0,-1,545,358,0,0
-672,666,0,0,0,0,0,0,0,0,0,-1,552,358,0,0
-665,666,0,0,0,0,0,0,0,0,0,-1,559,358,0,0
-658,666,0,0,0,0,0,0,0,0,0,-1,566,358,0,0
-651,666,0,0,0,0,0,0,0,0,0,-1,573,358,0,0
-644,666,0,0,0,0,0,0,0,0,0,-1,580,358,0,0
-637,666,0,0,0,0,0,0,0,0,0,-1,587,358,0,0
-630,666,0,0,0,0,0,0,0,0,0,-1,594,358,0,0
-623,666,0,0,0,0,0,0,0,0,0,-1,601,358,0,0
-616,666,0,0,0,0,0,0,0,0,0,-1,608,358,0,0
-609,666,0,0,0,0,0,0,0,0,0,-1,615,358,0,0
-602,666,0,0,0,0,0,0,0,0,0,-1,622,358,0,0
-595,666,0,0,0,0,0,0,0,0,0,-1,629,358,0,0
-588,666,0,0,0,0,0,0,0,0,0,-1,636,358,0,0
-581,666,0,0,0,0,0,0,0,0,0,-1,643,358,0,0
-574,666,0,0,0,0,0,0,0,0,0,-1,650,358,0,0
-567,666,0,0,0,0,0,0,0,0,0,-1,657,358,0,0
-560,666,0,0,0,0,0,0,0,0,0,-1,664,358,0,0
-553,666,0,0,0,0,0,0,0,0,0,-1,671,358,0,0
-546,666,0,0,0,0,0,0,0,0,0,-1,678,358,0,0
-539,666,0,0,0,0,0,0,0,0,0,-1,685,358,0,0
-532,666,0,0,0,0,0,0,0,0,0,-1,692,358,0,0
-525,666,0,0,0,0,0,0,0,0,0,-1,699,358,0,0
-518,666,0,0,0,0,0,0,0,0,0,-1,706,358,0,0
-511,666,0,0,0,0,0,0,0,0,0,-1,713,358,0,0
-504,666,0,0,0,0,0,0,0,0,0,-1,720,358,0,0
-497,666,0,0,0,0,0,0,0,0,0,-1,727,358,0,0
-490,666,0,0,0,0,0,0,0,0,0,-1,734,358,0,0
-483,666,0,0,0,0,0,0,0,0,0,-1,741,358,0,0
-476,666,0,0,0,0,0,0,0,0,0,-1,748,358,0,0
-469,666,0,0,0,0,0,0,0,0,0,-1,755,358,0,0
-462,666,0,0,0,0,0,0,0,0,0,-1,762,358,0,0
-455,666,0,0,0,0,0,0,0,0,0,-1,769,358,0,0
-448,666,0,0,0,0,0,0,0,0,0,-1,776,358,0,0
-441,666,0,0,0,0,0,0,0,0,0,-1,783,358,0,0
-434,666,0,0,0,0,0,0,0,0,0,-1,790,358,0,0
-427,666,0,0,0,0,0,0,0,0,0,-1,797,358,0,0
-420,666,0,0,0,0,0,0,0,0,0,-1,804,358,0,0
-413,666,0,0,0,0,0,0,0,0,0,-1,811,358,0,0
-406,666,0,0,0,0,0,0,0,0,0,-1,818,358,0,0
-399,666,0,0,0,0,0,0,0,0,0,-1,825,358,0,0
-392,666,0,0,0,0,0,0,0,0,0,-1,832,358,0,0
-385,666,0,0,0,0,0,0,0,0,0,-1,839,358,0,0
-378,666,0,0,0,0,0,0,0,0,0,-1,846,358,0,0
-371,666,0,0,0,0,0,0,0,0,0,-1,853,358,0,0
-364,666,0,0,0,0,0,0,0,0,0,-1,860,358,0,0
-357,666,0,0,0,0,0,0,0,0,0,-1,867,358,0,0
-350,666,0,0,0,0,0,0,0,0,0,-1,874,358,0,0
-343,666,0,0,0,0,0,0,0,0,0,-1,881,358,0,0
-336,666,0,0,0,0,0,0,0,0,0,-1,888,358,0,0
-329,666,0,0,0,0,0,0,0,0,0,-1,895,358,0,0
-322,666,0,0,0,0,0,0,0,0,0,-1,902,358,0,0
-315,666,0,0,0,0,0,0,0,0,0,-1,909,358,0,0
-308,666,0,0,0,0,0,0,0,0,0,-1,916,358,0,0
-301,666,0,0,0,0,0,0,0,0,0,-1,923,358,0,0
-294,666,0,0,0,0,0,0,0,0,0,-1,930,358,0,0
-287,666,0,0,0,0,0,0,0,0,0,-1,937,358,0,0
-280,666,0,0,0,0,0,0,0,0,0,-1,944,358,0,0
-273,666,0,0,0,0,0,0,0,0,0,-1,951,358,0,0
-266,666,0,0,0,0,0,0,0,0,0,-1,958,358,0,0
-259,666,0,0,0,0,0,0,0,0,0,-1,965,358,0,0
-252,666,0,0,0,0,0,0,0,0,0,-1,972,358,0,0
-245,666,0,0,0,0,0,0,0,0,0,-1,979,358,0,0
-238,666,0,0,0,0,0,0,0,0,0,-1,986,358,0,0
-231,666,0,0,0,0,0,0,0,0,0,-1,993,358,0,0
-224,666,0,0,0,0,0,0,0,0,0,-1,1000,358,0,0
-217,666,0,0,0,0,0,0,0,0,0,-1,1007,358,0,0
-210,666,0,0,0,0,0,0,0,0,0,-1,1014,358,0,0
-203,666,0,0,0,0,0,0,0,0,0,-1,1021,358,0,0
-196,666,-0.297607,0.860504,-0.0172607,0.019918,-0.00325587,0.020201,-0.0175437,-1.4841,0.0218099,0.0424459,1028,358,-0.29759,-0.860507
-189,666,-0.405273,0.625214,0,0,0,0,0,0,0,-1,1035,358,-0.405325,-0.625208
-182,666,-0.295532,0.382172,-0.00982613,0.0142039,-0.0042104,0.0149203,-0.0105425,-1.40227,0.0147732,0.0389143,1042,358,-0.295486,-0.382172
-175,666,-0.041626,0.308868,-0.00752971,0.011308,-0.0045836,0.0123641,-0.00858579,-1.34434,0.0121608,0.0390811,1049,358,-0.0415962,-0.308856
-168,666,0.163818,0.00405884,-0.006045,0.00850747,-0.00435003,0.00970864,-0.00724617,-1.30138,0.00982322,0.042596,1056,358,0.163801,-0.004054
-161,666,-0.0362549,-0.236145,-0.00419342,0.00625525,-0.00397858,0.00759771,-0.00553588,-1.24537,0.00761376,0.0441055,1063,358,-0.0363101,0.236152
-154,666,-0.224243,-0.177063,-0.00227674,0.00383403,-0.00378038,0.00563937,-0.00408208,-1.12526,0.00563664,0.0441574,1070,358,-0.22419,0.177073
-147,666,-0.247559,-0.123779,-0.000980696,0.00148766,-0.0031961,0.00367959,-0.00317263,-0.969654,0.00395974,0.0425068,1077,358,-0.247569,0.123775
-140,666,-0.214355,-0.246582,0.000449496,-0.000891685,-0.00238737,0.00225867,-0.00270086,-0.648481,0.00286718,0.0424167,1084,358,-0.214366,0.246567
-133,666,-0.220581,-0.352051,0.00202023,-0.000383736,-0.00100427,0.00238455,-0.000748062,-0.348011,0.00188909,0.0425369,1091,358,-0.22054,0.352058
-126,666,-0.0540771,-0.398438,0.00265126,-0.000334562,0.000523139,0.00274026,-0.000423567,0.168522,0.00198317,0.0443649,1098,358,-0.0540783,0.398447
-119,666,0.261475,-0.388428,0.00285808,0.000329381,0.00173118,0.00373746,-0.000549999,0.469999,0.00269376,0.0411538,1105,358,0.261526,0.388418
-112,666,-0.0570068,-0.104156,0.00366553,0.000978963,0.00336375,0.0059443,-0.0012998,0.595429,0.00445972,0.0394635,1112,358,-0.0570059,0.104162
-105,666,-0.381836,0.0491943,0,0,0,0,0,0,0,-1,1119,358,-0.381798,-0.0492058
-98,666,-0.775513,0.0915527,0,0,0,0,0,0,0,-1,1126,358,-0.775466,-0.0915574
-91,666,0.273804,-0.0147705,0.00323514,0.0031426,0.00447679,0.0076659,-0.00128816,0.78023,0.00558969,0.0444053,1133,358,0.273795,0.0147644
-84,666,0.276123,-0.0454102,0.00329198,0.00338776,0.00475674,0.00809685,-0.00141711,0.790432,0.00592701,0.0429015,1140,358,0.276158,0.0454103
-77,666,0.243652,-0.0803833,0,0,0,0,0,0,0,-1,1147,358,0.243603,0.080372
-70,666,-0.0250244,-0.0243225,0.0048077,0.00472619,0.00484956,0.00961667,-8.27876e-05,0.781196,0.00643889,0.0410614,1154,358,-0.0249948,0.024336
-63,666,0.228394,-0.0255127,0.00623978,0.00528691,0.00435003,0.0101394,0.00138731,0.730854,0.00634789,0.0384844,1161,358,0.228373,0.0254986
-56,666,-0.000610352,-0.0101318,0.007825,0.00516233,0.00423169,0.0109298,0.00205749,0.632994,0.00670677,0.0379502,1168,358,-0.000630401,0.0101195
-49,666,-0.0543213,0.0183105,0.00922552,0.00516925,0.0042139,0.011874,0.00252082,0.561112,0.00722383,0.0333824,1175,358,-0.0543044,-0.0183023
-42,666,-0.039917,-0.0336914,0.0108692,0.00524857,0.00407029,0.0130051,0.00311265,0.483257,0.00784122,0.0297225,1182,358,-0.0399463,0.0337011
-35,666,-0.00500488,-0.0630188,0.0121442,0.00487956,0.00409395,0.013985,0.00303885,0.422537,0.00849354,0.0292885,1189,358,-0.00505854,0.063005
-28,666,-0.00671387,-0.0480042,0.0131607,0.00481415,0.00436522,0.0150265,0.00294827,0.403939,0.00919389,0.0286223,1196,358,-0.00677007,0.0480132
-21,666,0.052002,-0.0263977,0.0141711,0.00471921,0.00459928,0.0160397,0.00285062,0.385906,0.00988098,0.0280103,1203,358,0.0520494,0.0263942
-14,666,-0.00170898,-0.04599,0.0145004,0.00436322,0.00470702,0.0163489,0.00251468,0.374214,0.0101653,0.0225011,1210,358,-0.00173632,0.0460025
-7,666,-0.0273438,-0.0515747,0.0135906,0.0045262,0.0039869,0.0150947,0.00302216,0.360738,0.0092223,0.0161762,1217,358,-0.0272842,0.0515663
0,666,-0.0109863,-0.0522461,0.0127697,0.00460121,0.00299702,0.0137513,0.00361957,0.316527,0.00823072,0.0110394,1224,358,-0.0110323,0.0522543
7,666,-0.0284424,-0.066803,0.0120611,0.0044323,0.00221461,0.0126573,0.00383601,0.263014,0.00749429,0.0136302,1231,358,-0.0284555,0.0668005
14,666,-0.0369873,-0.0802307,0.0108283,0.00450049,0.00136969,0.011112,0.00421674,0.204277,0.00647736,0.0143495,1238,358,-0.0369521,0.0802278
21,666,-0.0291748,-0.0668335,0.00877378,0.00438483,-0.000266088,0.00878985,0.00436876,-0.0603324,0.00507485,0.0107615,1245,358,-0.0291882,0.0668396
28,666,-0.0391846,-0.0693665,0.00610045,0.00380063,-0.00215159,0.00739013,0.00251095,-0.539985,0.00433911,0.00993939,1252,358,-0.0392441,0.0693554
35,666,-0.0238037,-0.0797119,0.004886,0.00267309,-0.00324204,0.00720519,0.000353897,-0.620954,0.00468995,0.0084154,1259,358,-0.0237923,0.0797143
42,666,-0.00878906,-0.0827026,0.00368338,0.00138618,-0.00405902,0.00675318,-0.00168362,-0.647516,0.00515579,0.00973057,1266,358,-0.00876268,0.0827033
49,666,-0.0128174,-0.0579224,0.00327891,0.0057425,-0.00530923,0.00996096,-0.000939548,-0.899386,0.00697495,0.00867614,1273,358,-0.0128042,0.0579134
56,666,-0.0174561,-0.0632324,0.0042626,0.00673778,-0.00572509,0.0113575,-0.00035714,-0.891845,0.00769349,0.0102555,1280,358,-0.0174249,0.0632404
63,666,-0.019043,-0.072113,0.00644623,0.00816119,-0.00678588,0.0141436,0.000463865,-0.848247,0.00927828,0.0123312,1287,358,-0.0190376,0.0720978
70,666,-0.0267334,-0.0843811,0.00866062,0.00944767,-0.00785247,0.0169165,0.00119182,-0.810435,0.0109021,0.0122958,1294,358,-0.0267185,0.0843907
77,666,-0.0396729,-0.0979309,0.0109777,0.0105082,-0.00906504,0.019811,0.00167484,-0.772453,0.012686,0.0159958,1301,358,-0.0396745,0.0979325
84,666,-0.0252686,-0.100464,0.0128881,0.0115943,-0.00989975,0.0221621,0.00232033,-0.752771,0.0140652,0.0221939,1308,358,-0.0252213,0.100456
91,666,-0.0455322,-0.0967102,0.0136115,0.012505,-0.0101283,0.0232016,0.00291491,-0.758112,0.0145935,0.0208794,1315,358,-0.0455322,0.0967115
98,666,-0.0761719,-0.0839539,0.0143888,0.0128094,-0.010133,0.0237629,0.00343536,-0.74651,0.01483,0.0179483,1322,358,-0.0761913,0.0839568
105,666,-0.0787354,-0.071228,0.0151368,0.0129674,-0.00996909,0.02408,0.00402413,-0.731208,0.0148943,0.0181839,1329,358,-0.0787509,0.0712357
112,666,-0.0712891,-0.110168,0.0147525,0.0125029,-0.00952089,0.0232148,0.00404061,-0.726602,0.014321,0.0208601,1336,358,-0.07123,0.110178
119,666,-0.0501709,-0.0926208,0.0139735,0.011717,-0.00861123,0.0215301,0.0041604,-0.72026,0.0131872,0.0233203,1343,358,-0.0502113,0.0926252
126,666,-0.0594482,-0.0469971,0.0125311,0.0109793,-0.00727134,0.0190678,0.00444255,-0.732246,0.0115202,0.0241312,1350,358,-0.0594729,0.0469892
133,666,-0.039917,-0.0326843,0.0106556,0.0104663,-0.00569862,0.0162604,0.00486154,-0.777093,0.00963751,0.0214457,1357,358,-0.0398825,0.0326835
140,666,-0.00561523,-0.0741272,0.00832704,0.00991657,-0.00410874,0.0133067,0.00493691,-0.880935,0.00776738,0.0205728,1364,358,-0.00555544,0.0741407
147,666,0.0185547,-0.0625916,0.00602736,0.00933221,-0.00285229,0.0109762,0.00438341,-1.04794,0.00637974,0.0201856,1371,358,0.0185078,0.0625811
154,666,-0.00305176,-0.0700989,0.0039342,0.0065049,-0.00169849,0.00734957,0.00308953,-1.10931,0.00426118,0.0187441,1378,358,-0.00299305,0.0700913
161,666,-0.0032959,-0.0997314,0.0016119,0.00644595,-0.00106757,0.00667122,0.00138663,-1.36284,0.00406488,0.022226,1385,358,-0.00333911,0.0997255
168,666,-0.00695801,-0.114716,-0.000652426,0.00612897,-0.000123873,0.00613124,-0.000654688,-1.55254,0.00432228,0.024594,1392,358,-0.00698716,0.114704
175,666,-0.0726318,-0.0527954,-0.00109785,0.00565869,0.000150682,0.00566205,-0.00110121,1.54851,0.00419028,0.0205818,1399,358,-0.0725942,0.0528062
182,666,-0.0218506,-0.0444031,-0.000233313,0.00485023,8.86561e-05,0.00485178,-0.000234859,1.55336,0.00331558,0.0222696,1406,358,-0.0218674,0.0444069
189,666,-0.00830078,-0.0723572,0.0014729,0.00394113,-0.000168167,0.00395253,0.00146149,-1.50308,0.00230766,0.0226189,1413,358,-0.00832005,0.0723701
196,666,-0.0488281,-0.0525208,0.0018662,0.00229988,-0.0010343,0.00313983,0.00102625,-0.888726,0.00184866,0.027765,1420,358,-0.0488462,0.0525211
203,666,0.0732422,-0.142761,0.00132597,0.000545464,-0.000826691,0.00184989,2.15434e-05,-0.564871,0.00122614,0.0404593,1427,358,0.0732083,0.142776
210,666,-0.00244141,-0.14801,5.87489e-05,-0.00121192,0.0002859,0.000120113,-0.00127328,0.211427,0.000891594,0.0429812,1434,358,-0.00247773,0.147997
217,666,-0.684814,-0.228516,0,0,0,0,0,0,0,-1,1441,358,-0.684796,0.228524
224,666,-0.118408,-0.0582581,0,0,0,0,0,0,0,-1,1448,358,-0.118375,0.058273
231,666,-0.0279541,0.0588074,0,0,0,0,0,0,0,-1,1455,358,-0.0279349,-0.0587994
238,666,0.68335,0.0605469,0,0,0,0,0,0,0,-1,1462,358,0.683304,-0.0605497
245,666,-0.0354004,0.0514832,0,0,0,0,0,0,0,-1,1469,358,-0.0354406,-0.0514858
252,666,-0.00231934,0.180176,-0.0190875,-0.00450011,0.00548918,-0.00266533,-0.0209223,1.24822,0.0131501,0.045868,1476,358,-0.00227998,-0.180189
259,666,0.545776,-0.580353,-0.0235808,-0.00458009,0.00561864,-0.00304297,-0.025118,1.30376,0.0158288,0.0444554,1483,358,0.545768,0.580363
266,666,0.407227,-0.513672,-0.0276254,-0.00474265,0.00510741,-0.00365444,-0.0287137,1.36087,0.018048,0.0407744,1490,358,0.407256,0.513684
273,666,0.223999,-0.199768,-0.0300371,-0.00504312,0.0039499,-0.00443376,-0.0306465,1.41773,0.0191251,0.0404784,1497,358,0.223989,0.199771
280,666,0.0119629,-0.0344543,-0.0320212,-0.00481953,0.00292854,-0.00450782,-0.0323329,1.46475,0.0202209,0.0359884,1504,358,0.011922,0.0344397
287,666,-0.336182,0.0179138,-0.0328678,-0.00513123,0.00177042,-0.00501868,-0.0329803,1.50731,0.0205196,0.041169,1511,358,-0.336199,-0.0179202
294,666,-0.293579,-0.154358,-0.0317764,-0.00446922,0.00112983,-0.00442256,-0.0318231,1.52952,0.0199056,0.0445031,1518,358,-0.293594,0.154343
301,666,-0.0899658,-0.50177,0,0,0,0,0,0,0,-1,1525,358,-0.0899764,0.501766
308,666,-0.620483,-0.382477,0,0,0,0,0,0,0,-1,1532,358,-0.62048,0.382465
315,666,-0.536133,-0.498566,0,0,0,0,0,0,0,-1,1539,358,-0.536166,0.498577
322,666,0,0,0,0,0,0,0,0,0,-1,1546,358,0,0
329,666,0,0,0,0,0,0,0,0,0,-1,1553,358,0,0
336,666,0,0,0,0,0,0,0,0,0,-1,1560,358,0,0
343,666,0,0,0,0,0,0,0,0,0,-1,1567,358,0,0
350,666,0,0,0,0,0,0,0,0,0,-1,1574,358,0,0
357,666,0,0,0,0,0,0,0,0,0,-1,1581,358,0,0
364,666,0,0,0,0,0,0,0,0,0,-1,1588,358,0,0
371,666,0,0,0,0,0,0,0,0,0,-1,1595,358,0,0
378,666,0,0,0,0,0,0,0,0,0,-1,1602,358,0,0
385,666,0,0,0,0,0,0,0,0,0,-1,1609,358,0,0
392,666,0,0,0,0,0,0,0,0,0,-1,1616,358,0,0
399,666,0,0,0,0,0,0,0,0,0,-1,1623,358,0,0
406,666,0,0,0,0,0,0,0,0,0,-1,1630,358,0,0
413,666,0,0,0,0,0,0,0,0,0,-1,1637,358,0,0
420,666,0,0,0,0,0,0,0,0,0,-1,1644,358,0,0
427,666,0,0,0,0,0,0,0,0,0,-1,1651,358,0,0
434,666,0,0,0,0,0,0,0,0,0,-1,1658,358,0,0
441,666,0,0,0,0,0,0,0,0,0,-1,1665,358,0,0
448,666,0,0,0,0,0,0,0,0,0,-1,1672,358,0,0
455,666,0,0,0,0,0,0,0,0,0,-1,1679,358,0,0
462,666,0,0,0,0,0,0,0,0,0,-1,1686,358,0,0
469,666,0,0,0,0,0,0,0,0,0,-1,1693,358,0,0
476,666,0,0,0,0,0,0,0,0,0,-1,1700,358,0,0
483,666,0,0,0,0,0,0,0,0,0,-1,1707,358,0,0
490,666,0,0,0,0,0,0,0,0,0,-1,1714,358,0,0
497,666,0,0,0,0,0,0,0,0,0,-1,1721,358,0,0
504,666,0,0,0,0,0,0,0,0,0,-1,1728,358,0,0
511,666,0,0,0,0,0,0,0,0,0,-1,1735,358,0,0
518,666,0,0,0,0,0,0,0,0,0,-1,1742,358,0,0
525,666,0,0,0,0,0,0,0,0,0,-1,1749,358,0,0
532,666,0,0,0,0,0,0,0,0,0,-1,1756,358,0,0
539,666,0,0,0,0,0,0,0,0,0,-1,1763,358,0,0
546,666,0,0,0,0,0,0,0,0,0,-1,1770,358,0,0
553,666,0,0,0,0,0,0,0,0,0,-1,1777,358,0,0
560,666,0,0,0,0,0,0,0,0,0,-1,1784,358,0,0
567,666,0,0,0,0,0,0,0,0,0,-1,1791,358,0,0
574,666,0,0,0,0,0,0,0,0,0,-1,1798,358,0,0
581,666,0,0,0,0,0,0,0,0,0,-1,1805,358,0,0
588,666,0,0,0,0,0,0,0,0,0,-1,1812,358,0,0
595,666,0,0,0,0,0,0,0,0,0,-1,1819,358,0,0
602,666,0,0,0,0,0,0,0,0,0,-1,1826,358,0,0
609,666,0,0,0,0,0,0,0,0,0,-1,1833,358,0,0
616,666,0,0,0,0,0,0,0,0,0,-1,1840,358,0,0
623,666,0,0,0,0,0,0,0,0,0,-1,1847,358,0,0
630,666,0,0,0,0,0,0,0,0,0,-1,1854,358,0,0
637,666,0,0,0,0,0,0,0,0,0,-1,1861,358,0,0
644,666,0,0,0,0,0,0,0,0,0,-1,1868,358,0,0
651,666,0,0,0,0,0,0,0,0,0,-1,1875,358,0,0
658,666,0,0,0,0,0,0,0,0,0,-1,1882,358,0,0
665,666,0,0,0,0,0,0,0,0,0,-1,1889,358,0,0
672,666,0,0,0,0,0,0,0,0,0,-1,1896,358,0,0
679,666,0,0,0,0,0,0,0,0,0,-1,1903,358,0,0
686,666,0,0,0,0,0,0,0,0,0,-1,1910,358,0,0
693,666,0,0,0,0,0,0,0,0,0,-1,1917,358,0,0
700,666,0,0,0,0,0,0,0,0,0,-1,1924,358,0,0
707,666,0,0,0,0,0,0,0,0,0,-1,1931,358,0,0
714,666,0,0,0,0,0,0,0,0,0,-1,1938,358,0,0
721,666,0,0,0,0,0,0,0,0,0,-1,1945,358,0,0
728,666,0,0,0,0,0,0,0,0,0,-1,1952,358,0,0
735,666,0,0,0,0,0,0,0,0,0,-1,1959,358,0,0
742,666,0,0,0,0,0,0,0,0,0,-1,1966,358,0,0
749,666,0,0,0,0,0,0,0,0,0,-1,1973,358,0,0
756,666,0,0,0,0,0,0,0,0,0,-1,1980,358,0,0
763,666,0,0,0,0,0,0,0,0,0,-1,1987,358,0,0
770,666,0,0,0,0,0,0,0,0,0,-1,1994,358,0,0
777,666,0,0,0,0,0,0,0,0,0,-1,2001,358,0,0
784,666,0,0,0,0,0,0,0,0,0,-1,2008,358,0,0
791,666,0,0,0,0,0,0,0,0,0,-1,2015,358,0,0
798,666,0,0,0,0,0,0,0,0,0,-1,2022,358,0,0
805,666,0,0,0,0,0,0,0,0,0,-1,2029,358,0,0
812,666,0,0,0,0,0,0,0,0,0,-1,2036,358,0,0
-700,659,0,0,0,0,0,0,0,0,0,-1,524,365,0,0
-693,659,0,0,0,0,0,0,0,0,0,-1,531,365,0,0
-686,659,0,0,0,0,0,0,0,0,0,-1,538,365,0,0
-679,659,0,0,0,0,0,0,0,0,0,-1,545,365,0,0
-672,659,0,0,0,0,0,0,0,0,0,-1,552,365,0,0
-665,659,0,0,0,0,0,0,0,0,0,-1,559,365,0,0
-658,659,0,0,0,0,0,0,0,0,0,-1,566,365,0,0
-651,659,0,0,0,0,0,0,0,0,0,-1,573,365,0,0
-644,659,0,0,0,0,0,0,0,0,0,-1,580,365,0,0
-637,659,0,0,0,0,0,0,0,0,0,-1,587,365,0,0
-630,659,0,0,0,0,0,0,0,0,0,-1,594,365,0,0
-623,659,0,0,0,0,0,0,0,0,0,-1,601,365,0,0
-616,659,0,0,0,0,0,0,0,0,0,-1,608,365,0,0
-609,659,0,0,0,0,0,0,0,0,0,-1,615,365,0,0
-602,659,0,0,0,0,0,0,0,0,0,-1,622,365,0,0
-595,659,0,0,0,0,0,0,0,0,0,-1,629,365,0,0
-588,659,0,0,0,0,0,0,0,0,0,-1,636,365,0,0
-581,659,0,0,0,0,0,0,0,0,0,-1,643,365,0,0
-574,659,0,0,0,0,0,0,0,0,0,-1,650,365,0,0
-567,659,0,0,0,0,0,0,0,0,0,-1,657,365,0,0
-560,659,0,0,0,0,0,0,0,0,0,-1,664,365,0,0
-553,659,0,0,0,0,0,0,0,0,0,-1,671,365,0,0
-546,659,0,0,0,0,0,0,0,0,0,-1,678,365,0,0
-539,659,0,0,0,0,0,0,0,0,0,-1,685,365,0,0
-532,659,0,0,0,0,0,0,0,0,0,-1,692,365,0,0
-525,659,0,0,0,0,0,0,0,0,0,-1,699,365,0,0
-518,659,0,0,0,0,0,0,0,0,0,-1,706,365,0,0
-511,659,0,0,0,0,0,0,0,0,0,-1,713,365,0,0
-504,659,0,0,0,0,0,0,0,0,0,-1,720,365,0,0
-497,659,0,0,0,0,0,0,0,0,0,-1,727,365,0,0
-490,659,0,0,0,0,0,0,0,0,0,-1,734,365,0,0
-483,659,0,0,0,0,0,0,0,0,0,-1,741,365,0,0
-476,659,0,0,0,0,0,0,0,0,0,-1,748,365,0,0
-469,659,0,0,0,0,0,0,0,0,0,-1,755,365,0,0
-462,659,0,0,0,0,0,0,0,0,0,-1,762,365,0,0
-455,659,0,0,0,0,0,0,0,0,0,-1,769,365,0,0
-448,659,0,0,0,0,0,0,0,0,0,-1,776,365,0,0
-441,659,0,0,0,0,0,0,0,0,0,-1,783,365,0,0
-434,659,0,0,0,0,0,0,0,0,0,-1,790,365,0,0
-427,659,0,0,0,0,0,0,0,0,0,-1,797,365,0,0
-420,659,0,0,0,0,0,0,0,0,0,-1,804,365,0,0
-413,659,0,0,0,0,0,0,0,0,0,-1,811,365,0,0
-406,659,0,0,0,0,0,0,0,0,0,-1,818,365,0,0
-399,659,0,0,0,0,0,0,0,0,0,-1,825,365,0,0
-392,659,0,0,0,0,0,0,0,0,0,-1,832,365,0,0
-385,659,0,0,0,0,0,0,0,0,0,-1,839,365,0,0
-378,659,0,0,0,0,0,0,0,0,0,-1,846,365,0,0
-371,659,0,0,0,0,0,0,0,0,0,-1,853,365,0,0
-364,659,0,0,0,0,0,0,0,0,0,-1,860,365,0,0
-357,659,0,0,0,0,0,0,0,0,0,-1,867,365,0,0
-350,659,0,0,0,0,0,0,0,0,0,-1,874,365,0,0
-343,659,0,0,0,0,0,0,0,0,0,-1,881,365,0,0
-336,659,0,0,0,0,0,0,0,0,0,-1,888,365,0,0
-329,659,0,0,0,0,0,0,0,0,0,-1,895,365,0,0
-322,659,0,0,0,0,0,0,0,0,0,-1,902,365,0,0
-315,659,0,0,0,0,0,0,0,0,0,-1,909,365,0,0
-308,659,0,0,0,0,0,0,0,0,0,-1,916,365,0,0
-301,659,0,0,0,0,0,0,0,0,0,-1,923,365,0,0
-294,659,0,0,0,0,0,0,0,0,0,-1,930,365,0,0
-287,659,0,0,0,0,0,0,0,0,0,-1,937,365,0,0
-280,659,0,0,0,0,0,0,0,0,0,-1,944,365,0,0
-273,659,0,0,0,0,0,0,0,0,0,-1,951,365,0,0
-266,659,0,0,0,0,0,0,0,0,0,-1,958,365,0,0
-259,659,0,0,0,0,0,0,0,0,0,-1,965,365,0,0
-252,659,0,0,0,0,0,0,0,0,0,-1,972,365,0,0
-245,659,0,0,0,0,0,0,0,0,0,-1,979,365,0,0
-238,659,0,0,0,0,0,0,0,0,0,-1,986,365,0,0
-231,659,0,0,0,0,0,0,0,0,0,-1,993,365,0,0
-224,659,0,0,0,0,0,0,0,0,0,-1,1000,365,0,0
-217,659,-0.0362549,-0.708618,-0.0217879,0.0119624,-0.00391154,0.0124098,-0.0222353,-1.45691,0.0202687,0.0410501,1007,365,-0.0362829,0.708627
-210,659,-0.265869,-0.605316,-0.019876,0.0127522,-0.0040012,0.0132357,-0.0203595,-1.45054,0.019541,0.0391347,1014,365,-0.265898,0.605311
-203,659,-0.612244,-0.450562,-0.0172458,0.0123629,-0.00373583,0.012827,-0.0177099,-1.4472,0.0177054,0.0410328,1021,365,-0.612255,0.450568
-196,659,-0.955322,-0.327087,-0.0147814,0.0115804,-0.00335357,0.0120003,-0.0152013,-1.44623,0.0157411,0.048586,1028,365,-0.955317,0.327097
-189,659,-0.0435791,0.0654907,0,0,0,0,0,0,0,-1,1035,365,-0.0435634,-0.0654914
-182,659,0.105835,-0.186707,0,0,0,0,0,0,0,-1,1042,365,0.105868,0.186697
-175,659,0.55603,0.075592,0,0,0,0,0,0,0,-1,1049,365,0.555997,-0.075598
-168,659,0.268555,0.158508,-0.0064886,0.0054422,-0.00355538,0.00642135,-0.00746775,-1.30206,0.00802645,0.0414094,1056,365,0.268607,-0.158502
-161,659,-0.0114746,0.219849,-0.00498119,0.00413279,-0.00314489,0.00511263,-0.00596103,-1.26876,0.00639963,0.0437165,1063,365,-0.0114832,-0.219863
-154,659,-0.227783,0.252686,-0.00330677,0.00251528,-0.00293159,0.00373563,-0.00452712,-1.17634,0.0047778,0.0436694,1070,365,-0.227794,-0.252683
-147,659,-0.383789,0.152496,-0.00213148,0.000832247,-0.00245774,0.0022203,-0.00351953,-1.05669,0.00334207,0.0438349,1077,365,-0.383763,-0.152508
-140,659,-0.244385,-0.0999451,-0.000896227,-0.00111665,-0.00191305,0.000909786,-0.00292267,-0.756624,0.00231216,0.043558,1084,365,-0.244398,0.0999356
-133,659,-0.184448,-0.57785,0.000583539,-0.000757708,-0.00090353,0.00103813,-0.0012123,-0.466145,0.00130058,0.0426359,1091,365,-0.184469,0.577845
-126,659,-0.201782,-0.545074,0.00129438,-0.00077891,0.000303864,0.001338,-0.000822527,0.142567,0.00125916,0.0417925,1098,365,-0.201775,0.545068
-119,659,0.0925293,-0.246765,0.00164745,-0.000261785,0.00122743,0.00224779,-0.000862121,0.454889,0.00185396,0.0404389,1105,365,0.0925215,0.246773
-112,659,-0.120605,-0.0901489,0.00244007,0.000213561,0.00250556,0.00406856,-0.00141492,0.57634,0.00328714,0.0354916,1112,365,-0.120648,0.0901464
-105,659,-0.207275,-0.0109253,0.0026462,0.00108013,0.00329776,0.00525261,-0.00152628,0.668834,0.00410617,0.0353874,1119,365,-0.207251,0.0109157
-98,659,-0.055542,-0.107147,0.00256063,0.0016811,0.00358995,0.00573765,-0.00149592,0.724452,0.00440915,0.0378509,1126,365,-0.0556015,0.107134
-91,659,0.126587,-0.162598,0.0022954,0.0019887,0.00353418,0.00567956,-0.00139546,0.763717,0.00432719,0.0385176,1133,365,0.12664,0.162589
-84,659,0.164063,-0.0731812,0.00228971,0.00213043,0.00376334,0.00597425,-0.00155411,0.774819,0.00458944,0.0369764,1140,365,0.16401,0.073168
-77,659,0.0998535,-0.0371094,0.00278591,0.00252577,0.00410052,0.00675841,-0.00144674,0.769543,0.00505731,0.033199,1147,365,0.0998744,0.0371219
-70,659,-0.0045166,-0.0437622,0.00332527,0.00326593,0.00375094,0.00704666,-0.000455454,0.781443,0.00485671,0.0258827,1154,365,-0.00456088,0.0437732
-63,659,-0.00671387,-0.0598755,0.00434533,0.00372994,0.00334841,0.00740015,0.000675123,0.739581,0.0047245,0.0223518,1161,365,-0.00676365,0.0598845
-56,659,-0.0125732,-0.0396118,0.00552311,0.00362511,0.00324312,0.00795323,0.001195,0.643062,0.00495212,0.0185314,1168,365,-0.0126234,0.0396266
-49,659,-0.0126953,-0.0600891,0.00648495,0.00359581,0.00320837,0.00855896,0.0015218,0.573867,0.00527243,0.0134606,1175,365,-0.0126708,0.0600984
-42,659,-0.00622559,-0.0671997,0.00760017,0.00363957,0.00305444,0.00926008,0.00197965,0.497796,0.00563073,0.0100169,1182,365,-0.00626586,0.0671846
-35,659,-0.0065918,-0.0491638,0.00841013,0.00333243,0.00302185,0.00981809,0.00192447,0.436021,0.00600755,0.00955321,1189,365,-0.00655492,0.0491659
-28,659,-0.0140381,-0.0661011,0.00902665,0.00324436,0.0031682,0.0104246,0.00184642,0.415545,0.00642333,0.0108895,1196,365,-0.0140787,0.0661089
-21,659,-0.0172119,-0.0645752,0.0096904,0.00314303,0.00330202,0.0110665,0.00176695,0.394853,0.0068649,0.0102169,1203,365,-0.0172583,0.0645788
-14,659,-0.0280762,-0.0647583,0.00988648,0.00284792,0.00337304,0.0112419,0.0014925,0.382092,0.00704996,0.00740485,1210,365,-0.0280574,0.0647575
-7,659,-0.03479,-0.0632324,0.00919385,0.00295819,0.00282283,0.0102819,0.00187016,0.367891,0.00632406,0.00752931,1217,365,-0.0347388,0.0632224
0,659,-0.0324707,-0.0581665,0.0086181,0.00300752,0.00213961,0.00934092,0.0022847,0.325791,0.00562263,0.00718307,1224,365,-0.0324681,0.0581524
7,659,-0.039917,-0.0620117,0.00806232,0.0029115,0.00157458,0.00850553,0.00246829,0.274376,0.00505272,0.00712022,1231,365,-0.0398817,0.0620138
14,659,-0.0284424,-0.0601196,0.00714462,0.00298206,0.000946764,0.00734984,0.00277684,0.213459,0.00428546,0.00988329,1238,365,-0.0284807,0.0601347
21,659,-0.0334473,-0.0669861,0.00572893,0.0030224,-0.000162927,0.0057387,0.00301263,-0.0599095,0.00331462,0.0100089,1245,365,-0.0334854,0.0669958
28,659,-0.0424805,-0.0770569,0.00399169,0.00254627,-0.00141068,0.00485401,0.00168395,-0.548672,0.00284591,0.00866861,1252,365,-0.0425373,0.0770654
35,659,-0.0187988,-0.0774841,0.00318221,0.00175266,-0.00216245,0.00474495,0.000189913,-0.625781,0.00310194,0.00889251,1259,365,-0.0188317,0.0774849
42,659,-0.0194092,-0.0712585,0.00244413,0.000830402,-0.00271032,0.00446514,-0.00119061,-0.640725,0.00344295,0.00969322,1266,365,-0.0193647,0.0712574
49,659,-0.0321045,-0.0671997,0.00214526,0.00358408,-0.00348273,0.00642093,-0.000691584,-0.887248,0.00452879,0.00992935,1273,365,-0.0320444,0.0671848
56,659,-0.0333252,-0.0540161,0.00264705,0.00422905,-0.00369617,0.00721791,-0.000341811,-0.890811,0.00492983,0.0132023,1280,365,-0.0332852,0.0540265
63,659,-0.0274658,-0.0645752,0.00398906,0.00521719,-0.00439598,0.00904178,0.000164461,-0.854793,0.00597379,0.0150178,1287,365,-0.027418,0.0645789
70,659,-0.00878906,-0.112488,0.00544161,0.00610683,-0.00511476,0.0108998,0.000648657,-0.817868,0.00706024,0.0161127,1294,365,-0.0087926,0.112483
77,659,-0.0280762,-0.103302,0.0069722,0.00686342,-0.00594734,0.0128654,0.000970226,-0.780825,0.00827251,0.0165801,1301,365,-0.0281019,0.103304
84,659,-0.0247803,-0.0818481,0.0082183,0.00762185,-0.0065083,0.0144352,0.00140495,-0.762503,0.00919102,0.0119827,1308,365,-0.0248399,0.0818579
91,659,-0.0371094,-0.0858154,0.00879459,0.00829936,-0.00674433,0.0152958,0.0017981,-0.767049,0.00965384,0.0100644,1315,365,-0.0371494,0.0858135
98,659,-0.0476074,-0.081665,0.00939456,0.00853642,-0.00683412,0.0158131,0.00211791,-0.754048,0.00991179,0.00707733,1322,365,-0.0476653,0.0816766
105,659,-0.0334473,-0.0792542,0.00999529,0.0086387,-0.0068129,0.0161636,0.00247041,-0.735782,0.0100539,0.0085089,1329,365,-0.0333967,0.0792625
112,659,-0.0299072,-0.0907898,0.00988467,0.00834148,-0.00658378,0.0157419,0.00248423,-0.727066,0.00977236,0.0101233,1336,365,-0.0299671,0.0907933
119,659,-0.0205078,-0.082489,0.00947582,0.0078117,-0.00602081,0.0147218,0.00256572,-0.716734,0.00908092,0.0110236,1343,365,-0.0205622,0.0824881
126,659,-0.00183105,-0.0651245,0.00861365,0.00731894,-0.00514385,0.0131507,0.00278186,-0.722802,0.00800269,0.011924,1350,365,-0.00177576,0.065131
133,659,-0.0090332,-0.0740356,0.00745137,0.00699036,-0.00409465,0.011322,0.00311974,-0.757281,0.00675273,0.0105558,1357,365,-0.00899154,0.0740229
140,659,-0.0335693,-0.0822144,0.00592733,0.00666499,-0.00300829,0.00932698,0.00326535,-0.846396,0.00546501,0.0085878,1364,365,-0.0336063,0.0822
147,659,-0.0307617,-0.061615,0.00436665,0.00637983,-0.00214011,0.00773826,0.00300822,-1.00522,0.0045044,0.00798233,1371,365,-0.0307594,0.0616168
154,659,-0.0238037,-0.0495911,0.00293288,0.0044888,-0.00136179,0.00527918,0.0021425,-1.04491,0.0030659,0.00887235,1378,365,-0.0237595,0.0496007
161,659,-0.00756836,-0.0744019,0.00134107,0.00457627,-0.000936223,0.00482767,0.00108967,-1.30846,0.00292371,0.00922894,1385,365,-0.00757609,0.0744152
168,659,-0.0245361,-0.0868835,-0.000227373,0.0045048,-0.000265896,0.00451969,-0.000242267,-1.51484,0.00309704,0.0107452,1392,365,-0.0244914,0.0868823
175,659,-0.0380859,-0.0587463,-0.000559058,0.00438286,-5.38361e-05,0.00438345,-0.000559645,-1.5599,0.00312559,0.0093597,1399,365,-0.0381457,0.0587326
182,659,-0.00488281,-0.0613708,7.96939e-05,0.00401762,-8.09206e-05,0.00401929,7.80316e-05,-1.55026,0.0026539,0.0104904,1406,365,-0.00484025,0.061386
189,659,-0.00415039,-0.0685425,0.001275,0.00361398,-0.000182004,0.00362806,0.00126092,-1.4936,0.00212687,0.0108896,1413,365,-0.00420429,0.068531
196,659,-0.0378418,-0.0520325,0.00150804,0.00264026,-0.000708882,0.00298134,0.00116696,-1.12234,0.00173475,0.0120191,1420,365,-0.0377921,0.0520418
203,659,-0.0268555,-0.0864563,0.0013057,0.0015022,-0.000473506,0.00188754,0.000920355,-0.887694,0.00108988,0.0192451,1427,365,-0.0268268,0.0864677
210,659,-0.0228271,-0.0986938,0.000624477,0.000286328,0.000385051,0.000875939,3.48662e-05,0.578523,0.000572691,0.0274239,1434,365,-0.022834,0.098689
217,659,-0.239746,-0.0862732,-0.000430701,-0.000464729,0.00114166,0.000694071,-0.0015895,0.777947,0.00135178,0.0333564,1441,365,-0.239709,0.0862719
224,659,-0.0848389,0.00344849,-0.00203872,-0.00119794,0.00182117,0.000250732,-0.00348739,0.898829,0.00241285,0.0414625,1448,365,-0.0848086,-0.00343468
231,659,-0.0357666,0.02948,-0.00419578,-0.00193843,0.00252889,-0.000297775,-0.00583644,0.99529,0.0037956,0.0415966,1455,365,-0.0357474,-0.0294696
238,659,0.315186,0.0775146,-0.00691805,-0.00272454,0.00316034,-0.00102866,-0.00861393,1.07829,0.0054323,0.0418308,1462,365,0.315212,-0.0775157
245,659,-0.0264893,0.00335693,-0.00958047,-0.00287603,0.00369461,-0.00123951,-0.011217,1.15382,0.00710097,0.0418366,1469,365,-0.0265472,-0.00334696
252,659,-0.00476074,-0.00942993,-0.0125378,-0.00321057,0.0042995,-0.00153109,-0.0142173,1.1984,0.00901131,0.040171,1476,365,-0.00471435,0.00942581
259,659,0.303711,-0.0385132,-0.0159125,-0.00342976,0.00430021,-0.00209178,-0.0172505,1.26915,0.0108703,0.0433801,1483,365,0.303692,0.0385186
266,659,0.276978,-0.14801,-0.0189528,-0.00383886,0.00372865,-0.00296905,-0.0198226,1.34162,0.012345,0.0422564,1490,365,0.277022,0.148021
273,659,0.220947,-0.0908813,-0.0208846,-0.00432515,0.00273462,-0.00388524,-0.0213245,1.4113,0.0131145,0.039515,1497,365,0.221006,0.0908939
280,659,0.231323,-0.104187,-0.022571,-0.00440125,0.00183318,-0.00421814,-0.0227542,1.47124,0.0139772,0.0393208,1504,365,0.231303,0.104172
287,659,-0.400757,0.221313,-0.0235114,-0.00502515,0.000773981,-0.0049928,-0.0235438,1.52903,0.0143246,0.0425533,1511,365,-0.400798,-0.221306
294,659,-0.59668,-0.154999,-0.0231966,-0.00474879,7.47785e-05,-0.00474848,-0.0231969,1.56674,0.0141499,0.045597,1518,365,-0.596734,0.154992
301,659,-0.466064,-0.381134,0,0,0,0,0,0,0,-1,1525,365,-0.466036,0.381147
308,659,-0.0130615,-0.290802,-0.0199847,-0.0017709,0.0013025,-0.00167823,-0.0200773,1.49977,0.012862,0.0393873,1532,365,-0.0131004,0.290814
315,659,-0.699341,-0.84613,-0.0181374,4.50874e-05,0.0021593,0.000298002,-0.0183903,1.4542,0.0123607,0.0432185,1539,365,-0.699316,0.846131
322,659,-0.384277,-0.571686,-0.0159397,0.00264743,0.00452212,0.00368924,-0.0169815,1.34437,0.0127302,0.0437583,1546,365,-0.384274,0.57168
329,659,-0.157349,0.221375,0,0,0,0,0,0,0,-1,1553,365,-0.157397,-0.221372
336,659,-0.257202,0.309357,0,0,0,0,0,0,0,-1,1560,365,-0.257262,-0.309352
343,659,0,0,0,0,0,0,0,0,0,-1,1567,365,0,0
350,659,0,0,0,0,0,0,0,0,0,-1,1574,365,0,0
357,659,0,0,0,0,0,0,0,0,0,-1,1581,365,0,0
364,659,0,0,0,0,0,0,0,0,0,-1,1588,365,0,0
371,659,0,0,0,0,0,0,0,0,0,-1,1595,365,0,0
378,659,0,0,0,0,0,0,0,0,0,-1,1602,365,0,0
385,659,0,0,0,0,0,0,0,0,0,-1,1609,365,0,0
392,659,0,0,0,0,0,0,0,0,0,-1,1616,365,0,0
399,659,0,0,0,0,0,0,0,0,0,-1,1623,365,0,0
406,659,0,0,0,0,0,0,0,0,0,-1,1630,365,0,0
413,659,0,0,0,0,0,0,0,0,0,-1,1637,365,0,0
420,659,0,0,0,0,0,0,0,0,0,-1,1644,365,0,0
427,659,0,0,0,0,0,0,0,0,0,-1,1651,365,0,0
434,659,0,0,0,0,0,0,0,0,0,-1,1658,365,0,0
441,659,0,0,0,0,0,0,0,0,0,-1,1665,365,0,0
448,659,0,0,0,0,0,0,0,0,0,-1,1672,365,0,0
455,659,0,0,0,0,0,0,0,0,0,-1,1679,365,0,0
462,659,0,0,0,0,0,0,0,0,0,-1,1686,365,0,0
469,659,0,0,0,0,0,0,0,0,0,-1,1693,365,0,0
476,659,0,0,0,0,0,0,0,0,0,-1,1700,365,0,0
483,659,0,0,0,0,0,0,0,0,0,-1,1707,365,0,0
490,659,0,0,0,0,0,0,0,0,0,-1,1714,365,0,0
497,659,0,0,0,0,0,0,0,0,0,-1,1721,365,0,0
504,659,0,0,0,0,0,0,0,0,0,-1,1728,365,0,0
511,659,0,0,0,0,0,0,0,0,0,-1,1735,365,0,0
518,659,0,0,0,0,0,0,0,0,0,-1,1742,365,0,0
525,659,0,0,0,0,0,0,0,0,0,-1,1749,365,0,0
532,659,0,0,0,0,0,0,0,0,0,-1,1756,365,0,0
539,659,0,0,0,0,0,0,0,0,0,-1,1763,365,0,0
546,659,0,0,0,0,0,0,0,0,0,-1,1770,365,0,0
553,659,0,0,0,0,0,0,0,0,0,-1,1777,365,0,0
560,659,0,0,0,0,0,0,0,0,0,-1,1784,365,0,0
567,659,0,0,0,0,0,0,0,0,0,-1,1791,365,0,0
574,659,0,0,0,0,0,0,0,0,0,-1,1798,365,0,0
581,659,0,0,0,0,0,0,0,0,0,-1,1805,365,0,0
588,659,0,0,0,0,0,0,0,0,0,-1,1812,365,0,0
595,659,0,0,0,0,0,0,0,0,0,-1,1819,365,0,0
602,659,0,0,0,0,0,0,0,0,0,-1,1826,365,0,0
609,659,0,0,0,0,0,0,0,0,0,-1,1833,365,0,0
616,659,0,0,0,0,0,0,0,0,0,-1,1840,365,0,0
623,659,0,0,0,0,0,0,0,0,0,-1,1847,365,0,0
630,659,0,0,0,0,0,0,0,0,0,-1,1854,365,0,0
637,659,0,0,0,0,0,0,0,0,0,-1,1861,365,0,0
644,659,0,0,0,0,0,0,0,0,0,-1,1868,365,0,0
651,659,0,0,0,0,0,0,0,0,0,-1,1875,365,0,0
658,659,0,0,0,0,0,0,0,0,0,-1,1882,365,0,0
665,659,0,0,0,0,0,0,0,0,0,-1,1889,365,0,0
672,659,0,0,0,0,0,0,0,0,0,-1,1896,365,0,0
679,659,0,0,0,0,0,0,0,0,0,-1,1903,365,0,0
686,659,0,0,0,0,0,0,0,0,0,-1,1910,365,0,0
693,659,0,0,0,0,0,0,0,0,0,-1,1917,365,0,0
700,659,0,0,0,0,0,0,0,0,0,-1,1924,365,0,0
707,659,0,0,0,0,0,0,0,0,0,-1,1931,365,0,0
714,659,0,0,0,0,0,0,0,0,0,-1,1938,365,0,0
721,659,0,0,0,0,0,0,0,0,0,-1,1945,365,0,0
728,659,0,0,0,0,0,0,0,0,0,-1,1952,365,0,0
735,659,0,0,0,0,0,0,0,0,0,-1,1959,365,0,0
742,659,0,0,0,0,0,0,0,0,0,-1,1966,365,0,0
749,659,0,0,0,0,0,0,0,0,0,-1,1973,365,0,0
756,659,0,0,0,0,0,0,0,0,0,-1,1980,365,0,0
763,659,0,0,0,0,0,0,0,0,0,-1,1987,365,0,0
770,659,0,0,0,0,0,0,0,0,0,-1,1994,365,0,0
777,659,0,0,0,0,0,0,0,0,0,-1,2001,365,0,0
784,659,0,0,0,0,0,0,0,0,0,-1,2008,365,0,0
791,659,0,0,0,0,0,0,0,0,0,-1,2015,365,0,0
798,659,0,0,0,0,0,0,0,0,0,-1,2022,365,0,0
805,659,0,0,0,0,0,0,0,0,0,-1,2029,365,0,0
812,659,0,0,0,0,0,0,0,0,0,-1,2036,365,0,0
-700,652,0,0,0,0,0,0,0,0,0,-1,524,372,0,0
-693,652,0,0,0,0,0,0,0,0,0,-1,531,372,0,0
-686,652,0,0,0,0,0,0,0,0,0,-1,538,372,0,0
-679,652,0,0,0,0,0,0,0,0,0,-1,545,372,0,0
-672,652,0,0,0,0,0,0,0,0,0,-1,552,372,0,0
-665,652,0,0,0,0,0,0,0,0,0,-1,559,372,0,0
-658,652,0,0,0,0,0,0,0,0,0,-1,566,372,0,0
-651,652,0,0,0,0,0,0,0,0,0,-1,573,372,0,0
-644,652,0,0,0,0,0,0,0,0,0,-1,580,372,0,0
-637,652,0,0,0,0,0,0,0,0,0,-1,587,372,0,0
-630,652,0,0,0,0,0,0,0,0,0,-1,594,372,0,0
-623,652,0,0,0,0,0,0,0,0,0,-1,601,372,0,0
-616,652,0,0,0,0,0,0,0,0,0,-1,608,372,0,0
-609,652,0,0,0,0,0,0,0,0,0,-1,615,372,0,0
-602,652,0,0,0,0,0,0,0,0,0,-1,622,372,0,0
-595,652,0,0,0,0,0,0,0,0,0,-1,629,372,0,0
-588,652,0,0,0,0,0,0,0,0,0,-1,636,372,0,0
-581,652,0,0,0,0,0,0,0,0,0,-1,643,372,0,0
-574,652,0,0,0,0,0,0,0,0,0,-1,650,372,0,0
-567,652,0,0,0,0,0,0,0,0,0,-1,657,372,0,0
-560,652,0,0,0,0,0,0,0,0,0,-1,664,372,0,0
-553,652,0,0,0,0,0,0,0,0,0,-1,671,372,0,0
-546,652,0,0,0,0,0,0,0,0,0,-1,678,372,0,0
-539,652,0,0,0,0,0,0,0,0,0,-1,685,372,0,0
-532,652,0,0,0,0,0,0,0,0,0,-1,692,372,0,0
-525,652,0,0,0,0,0,0,0,0,0,-1,699,372,0,0
-518,652,0,0,0,0,0,0,0,0,0,-1,706,372,0,0
-511,652,0,0,0,0,0,0,0,0,0,-1,713,372,0,0
-504,652,0,0,0,0,0,0,0,0,0,-1,720,372,0,0
-497,652,0,0,0,0,0,0,0,0,0,-1,727,372,0,0
-490,652,0,0,0,0,0,0,0,0,0,-1,734,372,0,0
-483,652,0,0,0,0,0,0,0,0,0,-1,741,372,0,0
-476,652,0,0,0,0,0,0,0,0,0,-1,748,372,0,0
-469,652,0,0,0,0,0,0,0,0,0,-1,755,372,0,0
-462,652,0,0,0,0,0,0,0,0,0,-1,762,372,0,0
-455,652,0,0,0,0,0,0,0,0,0,-1,769,372,0,0
-448,652,0,0,0,0,0,0,0,0,0,-1,776,372,0,0
-441,652,0,0,0,0,0,0,0,0,0,-1,783,372,0,0
-434,652,0,0,0,0,0,0,0,0,0,-1,790,372,0,0
-427,652,0,0,0,0,0,0,0,0,0,-1,797,372,0,0
-420,652,0,0,0,0,0,0,0,0,0,-1,804,372,0,0
-413,652,0,0,0,0,0,0,0,0,0,-1,811,372,0,0
-406,652,0,0,0,0,0,0,0,0,0,-1,818,372,0,0
-399,652,0,0,0,0,0,0,0,0,0,-1,825,372,0,0
-392,652,0,0,0,0,0,0,0,0,0,-1,832,372,0,0
-385,652,0,0,0,0,0,0,0,0,0,-1,839,372,0,0
-378,652,0,0,0,0,0,0,0,0,0,-1,846,372,0,0
-371,652,0,0,0,0,0,0,0,0,0,-1,853,372,0,0
-364,652,0,0,0,0,0,0,0,0,0,-1,860,372,0,0
-357,652,0,0,0,0,0,0,0,0,0,-1,867,372,0,0
-350,652,0,0,0,0,0,0,0,0,0,-1,874,372,0,0
-343,652,0,0,0,0,0,0,0,0,0,-1,881,372,0,0
-336,652,0,0,0,0,0,0,0,0,0,-1,888,372,0,0
-329,652,0,0,0,0,0,0,0,0,0,-1,895,372,0,0
-322,652,0,0,0,0,0,0,0,0,0,-1,902,372,0,0
-315,652,0,0,0,0,0,0,0,0,0,-1,909,372,0,0
-308,652,0,0,0,0,0,0,0,0,0,-1,916,372,0,0
-301,652,0,0,0,0,0,0,0,0,0,-1,923,372,0,0
-294,652,0,0,0,0,0,0,0,0,0,-1,930,372,0,0
-287,652,0,0,0,0,0,0,0,0,0,-1,937,372,0,0
-280,652,0,0,0,0,0,0,0,0,0,-1,944,372,0,0
-273,652,0,0,0,0,0,0,0,0,0,-1,951,372,0,0
-266,652,0,0,0,0,0,0,0,0,0,-1,958,372,0,0
-259,652,0,0,0,0,0,0,0,0,0,-1,965,372,0,0
-252,652,0,0,0,0,0,0,0,0,0,-1,972,372,0,0
-245,652,0,0,0,0,0,0,0,0,0,-1,979,372,0,0
-238,652,0,0,0,0,0,0,0,0,0,-1,986,372,0,0
-231,652,0.162415,-0.270264,-0.0205293,0.00258121,-0.00482868,0.00354954,-0.0214976,-1.37288,0.0156497,0.0394421,993,372,0.162432,0.270271
-224,652,0.227356,-0.434875,-0.0181249,0.00363914,-0.0043094,0.00446136,-0.0189471,-1.38226,0.0143516,0.0390062,1000,372,0.227361,0.434877
-217,652,0.112671,-0.569977,-0.0165449,0.00503505,-0.00421023,0.00582737,-0.0173372,-1.38478,0.0139135,0.0415125,1007,372,0.112654,0.569964
-210,652,-0.124146,-0.687225,-0.0152324,0.00565637,-0.00400001,0.00639613,-0.0159722,-1.38792,0.013303,0.0401664,1014,372,-0.124161,0.68724
-203,652,-0.450745,-0.620331,-0.0135695,0.00584796,-0.0035654,0.00648193,-0.0142035,-1.39482,0.012217,0.0414387,1021,372,-0.450737,0.620345
-196,652,-0.661743,-0.603851,0,0,0,0,0,0,0,-1,1028,372,-0.6617,0.603845
-189,652,3.0675,1.16443,0,0,0,0,0,0,0,-1,1035,372,3.06754,-1.16442
-182,652,0.643311,0.0835571,0,0,0,0,0,0,0,-1,1042,372,0.643321,-0.0835552
-175,652,0.489014,0.065033,-0.00691597,0.00389249,-0.00324801,0.00479344,-0.00781692,-1.30021,0.00735002,0.0422781,1049,372,0.489057,-0.0650306
-168,652,0.22998,0.119293,-0.00621598,0.0030691,-0.00279197,0.00384396,-0.00699084,-1.30008,0.00634282,0.0389326,1056,372,0.230017,-0.119304
-161,652,-0.0333252,0.221161,0,0,0,0,0,0,0,-1,1063,372,-0.0332686,-0.221168
-154,652,0.227051,0.12384,-0.00365728,0.00149093,-0.00218319,0.00229208,-0.00445843,-1.21909,0.00396374,0.0433586,1070,372,0.227067,-0.12384
-147,652,-0.203857,0.192261,-0.00267123,0.000367947,-0.00182326,0.00122184,-0.00352513,-1.1328,0.00284617,0.0442601,1077,372,-0.203879,-0.192258
-140,652,-0.231934,0.27475,-0.00166073,-0.00112523,-0.00148385,0.000114836,-0.00290079,-0.87466,0.00197326,0.0436783,1084,372,-0.231966,-0.274759
-133,652,-0.105713,-0.413818,-0.000326032,-0.000863273,-0.000804414,0.000253427,-0.00144273,-0.624253,0.00105648,0.0400201,1091,372,-0.105721,0.413819
-126,652,-0.105103,-0.198792,0.00040044,-0.000923632,0.000106821,0.000409003,-0.000932194,0.0799867,0.000793736,0.0366993,1098,372,-0.105124,0.198803
-119,652,-0.0561523,-0.15152,0.000832881,-0.000538389,0.000792483,0.00119516,-0.000900668,0.428779,0.001214,0.0315579,1105,372,-0.0562034,0.151524
-112,652,-0.0515137,-0.0914307,0.00156599,-0.000213031,0.00176739,0.00265509,-0.00130213,0.55226,0.00232879,0.0227421,1112,372,-0.0515213,0.0914364
-105,652,-0.0821533,-0.0892639,0.00176931,0.000437351,0.00239934,0.00359338,-0.00138672,0.650022,0.00296786,0.0187887,1119,372,-0.0821107,0.0892487
-98,652,-0.0576172,-0.0856934,0.00176421,0.000915958,0.00267031,0.00404387,-0.0013637,0.706641,0.00324737,0.0216514,1126,372,-0.0575707,0.0856895
-91,652,0.0429688,-0.0577087,0.00160015,0.00119194,0.00269472,0.00409848,-0.00130639,0.747599,0.00325634,0.0214937,1133,372,0.0430274,0.0577209
-84,652,0.0474854,-0.0614929,0.00154953,0.0011726,0.00287137,0.00423861,-0.00151648,0.752627,0.00344437,0.0168966,1140,372,0.0475208,0.0614817
-77,652,-0.000976563,-0.0596924,0.00185039,0.00151521,0.0030965,0.00478383,-0.00141823,0.758363,0.00375239,0.0130779,1147,372,-0.000994027,0.0596966
-70,652,-0.0279541,-0.071991,0.00220177,0.00205137,0.00281168,0.00493926,-0.000686118,0.772028,0.00354376,0.00988234,1154,372,-0.0280135,0.0719944
-63,652,-0.0197754,-0.063385,0.00284783,0.00238758,0.00249994,0.00512822,0.000107203,0.739501,0.00338364,0.00952341,1161,372,-0.0197836,0.0633823
-56,652,-0.0292969,-0.0583191,0.00367663,0.00225837,0.00241375,0.00548326,0.000451737,0.642524,0.00351462,0.00915326,1168,372,-0.029239,0.0583212
-49,652,-0.0314941,-0.0625305,0.00429192,0.00217326,0.00237969,0.00583742,0.000627762,0.575989,0.00370015,0.00801857,1175,372,-0.031535,0.0625172
-42,652,-0.0240479,-0.0524292,0.00500417,0.00216826,0.00224104,0.00623817,0.000934264,0.503331,0.00388498,0.00807183,1182,372,-0.0240266,0.0524206
-35,652,-0.0147705,-0.0559387,0.00547588,0.00190957,0.00218543,0.00651332,0.000872127,0.443209,0.00408267,0.00729183,1189,372,-0.0147477,0.0559504
-28,652,-0.0238037,-0.0648499,0.00580894,0.00182487,0.0022574,0.00682756,0.000806247,0.423882,0.00430818,0.0071665,1196,372,-0.0238563,0.0648585
-21,652,-0.0292969,-0.0643311,0.0062186,0.00175756,0.00233584,0.00721784,0.000758318,0.404229,0.00458009,0.0070876,1203,372,-0.0293565,0.0643236
-14,652,-0.0241699,-0.0590515,0.00632061,0.00156764,0.00239384,0.00731727,0.000570978,0.394518,0.00469943,0.00806106,1210,372,-0.0242041,0.0590607
-7,652,-0.0267334,-0.0664673,0.00580462,0.00170398,0.00198997,0.00661153,0.000897063,0.385231,0.00414118,0.0102597,1217,372,-0.026697,0.0664613
0,652,-0.0430908,-0.0744019,0.00541922,0.00179377,0.00153506,0.00598187,0.00123113,0.351324,0.00364746,0.0101404,1224,372,-0.043085,0.0744099
7,652,-0.0379639,-0.065155,0.00502262,0.00179531,0.00114795,0.00538928,0.00142865,0.309167,0.00322394,0.0114087,1231,372,-0.0379808,0.0651466
14,652,-0.0406494,-0.0636597,0.00439,0.00189782,0.000695759,0.00457108,0.00171674,0.254618,0.00266622,0.0103961,1238,372,-0.0406552,0.0636681
21,652,-0.0393066,-0.0648193,0.0034753,0.0021266,-8.68245e-06,0.00347535,0.00212654,-0.0064373,0.00202317,0.00921039,1245,372,-0.03929,0.0648297
28,652,-0.0332031,-0.0769653,0.00241629,0.00172916,-0.000822333,0.00296395,0.00118151,-0.587523,0.00172292,0.0081104,1252,372,-0.0332096,0.0769604
35,652,-0.0183105,-0.0779114,0.00192439,0.00120134,-0.00131693,0.00292852,0.000197216,-0.651438,0.00189004,0.00875982,1259,372,-0.0183247,0.0779263
42,652,-0.0217285,-0.0677185,0.00158317,0.000595874,-0.00165411,0.00281573,-0.000636679,-0.640387,0.00212147,0.0101733,1266,372,-0.0217485,0.0677035
49,652,-0.0274658,-0.0696716,0.00138747,0.00233584,-0.00212689,0.00404077,-0.000317451,-0.895078,0.00280565,0.0123369,1273,372,-0.0274881,0.0696614
56,652,-0.0369873,-0.0683594,0.00151409,0.00280041,-0.00220286,0.00445208,-0.000137579,-0.927433,0.00301496,0.0140118,1280,372,-0.0369794,0.0683572
63,652,-0.0397949,-0.0691528,0.00218246,0.00352968,-0.00262733,0.00556838,0.000143759,-0.910889,0.00366527,0.0172653,1287,372,-0.0398203,0.0691413
70,652,-0.0212402,-0.102173,0.00303765,0.00418767,-0.00310267,0.00676816,0.000457157,-0.877023,0.0043677,0.015755,1294,372,-0.0212729,0.102177
77,652,-0.0108643,-0.0837402,0.00394277,0.00477021,-0.00365623,0.00803605,0.000676932,-0.841736,0.00514658,0.0154538,1301,372,-0.0109072,0.0837452
84,652,-0.0229492,-0.0640869,0.00464968,0.00533018,-0.00402997,0.00903424,0.000945618,-0.827513,0.00573367,0.0125841,1308,372,-0.022924,0.0640761
91,652,-0.0639648,-0.0976257,0.0051199,0.00579836,-0.004307,0.00977947,0.00113879,-0.824698,0.00617515,0.0142968,1315,372,-0.0640052,0.0976401
98,652,-0.0377197,-0.0783691,0.00566287,0.00592177,-0.0045082,0.0103024,0.00128226,-0.799751,0.00648324,0.0109617,1322,372,-0.0377164,0.0783774
105,652,-0.0146484,-0.059082,0.0061921,0.00593023,-0.00461224,0.0106753,0.00144707,-0.771207,0.00668688,0.00979352,1329,372,-0.0146964,0.0590687
112,652,-0.0109863,-0.0766602,0.00632443,0.00566051,-0.0045726,0.0105771,0.00140784,-0.749163,0.00663212,0.00882022,1336,372,-0.0109932,0.0766626
119,652,-0.015625,-0.0694885,0.00627347,0.00521265,-0.00428389,0.0100597,0.00142646,-0.723804,0.00628515,0.00963861,1343,372,-0.0156519,0.0694855
126,652,-0.0213623,-0.0523376,0.005934,0.00478694,-0.00378235,0.00918606,0.00153489,-0.710155,0.00568194,0.0112491,1350,372,-0.0213178,0.052342
133,652,-0.0443115,-0.0466919,0.00538812,0.00448413,-0.00314326,0.00811172,0.00176053,-0.713988,0.00492696,0.0111569,1357,372,-0.0443701,0.0466807
140,652,-0.05896,-0.0528564,0.00452984,0.00420588,-0.00244915,0.00682236,0.00191336,-0.752377,0.00406349,0.0087836,1364,372,-0.0589558,0.0528515
147,652,-0.0474854,-0.0516052,0.00355824,0.00401916,-0.00188618,0.00568892,0.00188849,-0.846188,0.00334576,0.00859591,1371,372,-0.0475316,0.0516045
154,652,-0.0267334,-0.0447693,0.00263766,0.00275578,-0.00134924,0.00404725,0.00134618,-0.807271,0.00237993,0.00859777,1378,372,-0.0266817,0.0447638
161,652,-0.0169678,-0.0581665,0.00163776,0.00290729,-0.00106831,0.00351519,0.00102986,-1.05346,0.00208668,0.00902019,1385,372,-0.0170078,0.058153
168,652,-0.0253906,-0.0810242,0.000576329,0.0029819,-0.000591592,0.00311951,0.000438713,-1.34224,0.00194996,0.00955892,1392,372,-0.0253733,0.0810253
175,652,-0.0286865,-0.0635681,0.000224725,0.00307598,-0.000380607,0.00312591,0.000174793,-1.44035,0.00202819,0.0083164,1399,372,-0.0286642,0.0635614
182,652,-0.0180664,-0.055542,0.000563447,0.00299922,-0.000340108,0.00304582,0.000516849,-1.43463,0.00188207,0.00965382,1406,372,-0.0180627,0.0555383
189,652,-0.0137939,-0.0653687,0.00127694,0.00291771,-0.000305061,0.00297259,0.00122205,-1.39279,0.00172524,0.0101433,1413,372,-0.0138293,0.0653631
196,652,-0.0183105,-0.0561829,0.00126149,0.00244037,-0.000536643,0.00264806,0.00105379,-1.20152,0.00153944,0.00821856,1420,372,-0.0183679,0.0561714
203,652,-0.0314941,-0.06073,0.00114166,0.00177465,-0.000268349,0.0018731,0.00104321,-1.21917,0.00108377,0.0100288,1427,372,-0.0315019,0.0607193
210,652,-0.0057373,-0.0828857,0.000825547,0.000948822,0.000377527,0.00126971,0.000504659,0.866318,0.000738188,0.013929,1434,372,-0.00574299,0.0828875
217,652,-0.00512695,-0.0792236,0.000184742,0.000348634,0.000964315,0.00123448,-0.000701102,0.827786,0.00113156,0.0140247,1441,372,-0.00514555,0.079211
224,652,-0.026001,-0.0402222,-0.000815019,-0.00026167,0.00149296,0.000980031,-0.00205672,0.877019,0.00178963,0.0180333,1448,372,-0.0260474,0.0402135
231,652,-0.0612793,-0.0164795,-0.0022338,-0.000893248,0.00203118,0.000575389,-0.00370244,0.944769,0.00268075,0.0235721,1455,372,-0.0612311,0.0164662
238,652,-0.0477295,0.0209961,-0.00410335,-0.00157037,0.00249096,-4.24252e-05,-0.0056313,1.02058,0.00374014,0.0246711,1462,372,-0.0477174,-0.0210009
245,652,-0.0198975,-0.0466614,-0.00595359,-0.00182722,0.00284706,-0.000374373,-0.00740644,1.09894,0.00481768,0.0225584,1469,372,-0.0198881,0.0466558
252,652,0.0114746,-0.0953674,-0.00801287,-0.00227124,0.00325647,-0.000800834,-0.00948328,1.14667,0.00607287,0.0272621,1476,372,0.0115004,0.0953699
259,652,0.0350342,-0.0388489,-0.0105268,-0.00256261,0.00318015,-0.00144858,-0.0116408,1.23385,0.00732557,0.0395065,1483,372,0.0350435,0.0388453
266,652,0.0977783,-0.0270386,-0.012801,-0.00309919,0.00261876,-0.00243745,-0.0134627,1.32329,0.00828308,0.0383746,1490,372,0.0977379,0.0270345
273,652,0.1427,-0.11322,-0.0143334,-0.00368768,0.00179096,-0.00339446,-0.0146267,1.40851,0.0088396,0.0354549,1497,372,0.142642,0.113219
280,652,0.124756,-0.202545,-0.0157451,-0.00396746,0.00102121,-0.00387957,-0.015833,1.48494,0.00952913,0.0383934,1504,372,0.124756,0.202559
287,652,0.0300293,-0.417267,-0.016686,-0.00476495,8.07224e-05,-0.0047644,-0.0166866,1.56403,0.00992505,0.0429983,1511,372,0.0300184,0.41728
294,652,-0.438843,-0.118195,-0.0168581,-0.00474579,-0.000618289,-0.00471431,-0.0168896,-1.51993,0.0100634,0.041091,1518,372,-0.43889,0.118185
301,652,-0.706787,0.0946655,0,0,0,0,0,0,0,-1,1525,372,-0.70681,-0.0946685
308,652,-0.41748,-0.516968,-0.0157129,-0.00281186,8.46299e-05,-0.00281131,-0.0157134,1.56424,0.00967564,0.0418665,1532,372,-0.417531,0.516975
315,652,-0.545776,-0.701752,-0.0146928,-0.00158407,0.000648732,-0.00155205,-0.0147248,1.52147,0.00934227,0.0431032,1539,372,-0.545736,0.701756
322,652,-0.468506,-0.637421,-0.013441,0.000334743,0.00226557,0.000697772,-0.013804,1.41191,0.00944388,0.0420141,1546,372,-0.468495,0.637414
329,652,-0.108276,-0.235809,-0.0120373,0.00275466,0.00474097,0.00414374,-0.0134264,1.28578,0.0106055,0.0424283,1553,372,-0.108313,0.235796
336,652,0.178345,-0.0544739,0,0,0,0,0,0,0,-1,1560,372,0.178335,0.0544742
343,652,0.305786,-0.00820923,-0.0111268,0.00967376,0.0114639,0.0147521,-0.0162051,1.15379,0.0178797,0.0434637,1567,372,0.305787,0.00819924
350,652,0.0106201,-0.0458679,-0.0118309,0.0130924,0.0150424,0.0201645,-0.018903,1.13132,0.0225596,0.0445107,1574,372,0.0105663,0.0458806
357,652,0,0,0,0,0,0,0,0,0,-1,1581,372,0,0
364,652,0,0,0,0,0,0,0,0,0,-1,1588,372,0,0
371,652,0,0,0,0,0,0,0,0,0,-1,1595,372,0,0
378,652,0,0,0,0,0,0,0,0,0,-1,1602,372,0,0
385,652,0,0,0,0,0,0,0,0,0,-1,1609,372,0,0
392,652,0,0,0,0,0,0,0,0,0,-1,1616,372,0,0
399,652,0,0,0,0,0,0,0,0,0,-1,1623,372,0,0
406,652,0,0,0,0,0,0,0,0,0,-1,1630,372,0,0
413,652,0,0,0,0,0,0,0,0,0,-1,1637,372,0,0
420,652,0,0,0,0,0,0,0,0,0,-1,1644,372,0,0
427,652,0,0,0,0,0,0,0,0,0,-1,1651,372,0,0
434,652,0,0,0,0,0,0,0,0,0,-1,1658,372,0,0
441,652,0,0,0,0,0,0,0,0,0,-1,1665,372,0,0
448,652,0,0,0,0,0,0,0,0,0,-1,1672,372,0,0
455,652,0,0,0,0,0,0,0,0,0,-1,1679,372,0,0
462,652,0,0,0,0,0,0,0,0,0,-1,1686,372,0,0
469,652,0,0,0,0,0,0,0,0,0,-1,1693,372,0,0
476,652,0,0,0,0,0,0,0,0,0,-1,1700,372,0,0
483,652,0,0,0,0,0,0,0,0,0,-1,1707,372,0,0
490,652,0,0,0,0,0,0,0,0,0,-1,1714,372,0,0
497,652,0,0,0,0,0,0,0,0,0,-1,1721,372,0,0
504,652,0,0,0,0,0,0,0,0,0,-1,1728,372,0,0
511,652,0,0,0,0,0,0,0,0,0,-1,1735,372,0,0
518,652,0,0,0,0,0,0,0,0,0,-1,1742,372,0,0
525,652,0,0,0,0,0,0,0,0,0,-1,1749,372,0,0
532,652,0,0,0,0,0,0,0,0,0,-1,1756,372,0,0
539,652,0,0,0,0,0,0,0,0,0,-1,1763,372,0,0
546,652,0,0,0,0,0,0,0,0,0,-1,1770,372,0,0
553,652,0,0,0,0,0,0,0,0,0,-1,1777,372,0,0
560,652,0,0,0,0,0,0,0,0,0,-1,1784,372,0,0
567,652,0,0,0,0,0,0,0,0,0,-1,1791,372,0,0
574,652,0,0,0,0,0,0,0,0,0,-1,1798,372,0,0
581,652,0,0,0,0,0,0,0,0,0,-1,1805,372,0,0
588,652,0,0,0,0,0,0,0,0,0,-1,1812,372,0,0
595,652,0,0,0,0,0,0,0,0,0,-1,1819,372,0,0
602,652,0,0,0,0,0,0,0,0,0,-1,1826,372,0,0
609,652,0,0,0,0,0,0,0,0,0,-1,1833,372,0,0
616,652,0,0,0,0,0,0,0,0,0,-1,1840,372,0,0
623,652,0,0,0,0,0,0,0,0,0,-1,1847,372,0,0
630,652,0,0,0,0,0,0,0,0,0,-1,1854,372,0,0
637,652,0,0,0,0,0,0,0,0,0,-1,1861,372,0,0
644,652,0,0,0,0,0,0,0,0,0,-1,1868,372,0,0
651,652,0,0,0,0,0,0,0,0,0,-1,1875,372,0,0
658,652,0,0,0,0,0,0,0,0,0,-1,1882,372,0,0
665,652,0,0,0,0,0,0,0,0,0,-1,1889,372,0,0
672,652,0,0,0,0,0,0,0,0,0,-1,1896,372,0,0
679,652,0,0,0,0,0,0,0,0,0,-1,1903,372,0,0
686,652,0,0,0,0,0,0,0,0,0,-1,1910,372,0,0
693,652,0,0,0,0,0,0,0,0,0,-1,1917,372,0,0
700,652,0,0,0,0,0,0,0,0,0,-1,1924,372,0,0
707,652,0,0,0,0,0,0,0,0,0,-1,1931,372,0,0
714,652,0,0,0,0,0,0,0,0,0,-1,1938,372,0,0
721,652,0,0,0,0,0,0,0,0,0,-1,1945,372,0,0
728,652,0,0,0,0,0,0,0,0,0,-1,1952,372,0,0
735,652,0,0,0,0,0,0,0,0,0,-1,1959,372,0,0
742,652,0,0,0,0,0,0,0,0,0,-1,1966,372,0,0
749,652,0,0,0,0,0,0,0,0,0,-1,1973,372,0,0
756,652,0,0,0,0,0,0,0,0,0,-1,1980,372,0,0
763,652,0,0,0,0,0,0,0,0,0,-1,1987,372,0,0
770,652,0,0,0,0,0,0,0,0,0,-1,1994,372,0,0
777,652,0,0,0,0,0,0,0,0,0,-1,2001,372,0,0
784,652,0,0,0,0,0,0,0,0,0,-1,2008,372,0,0
791,652,0,0,0,0,0,0,0,0,0,-1,2015,372,0,0
798,652,0,0,0,0,0,0,0,0,0,-1,2022,372,0,0
805,652,0,0,0,0,0,0,0,0,0,-1,2029,372,0,0
812,652,0,0,0,0,0,0,0,0,0,-1,2036,372,0,0
-700,645,0,0,0,0,0,0,0,0,0,-1,524,379,0,0
-693,645,0,0,0,0,0,0,0,0,0,-1,531,379,0,0
-686,645,0,0,0,0,0,0,0,0,0,-1,538,379,0,0
-679,645,0,0,0,0,0,0,0,0,0,-1,545,379,0,0
-672,645,0,0,0,0,0,0,0,0,0,-1,552,379,0,0
-665,645,0,0,0,0,0,0,0,0,0,-1,559,379,0,0
-658,645,0,0,0,0,0,0,0,0,0,-1,566,379,0,0
-651,645,0,0,0,0,0,0,0,0,0,-1,573,379,0,0
-644,645,0,0,0,0,0,0,0,0,0,-1,580,379,0,0
-637,645,0,0,0,0,0,0,0,0,0,-1,587,379,0,0
-630,645,0,0,0,0,0,0,0,0,0,-1,594,379,0,0
-623,645,0,0,0,0,0,0,0,0,0,-1,601,379,0,0
-616,645,0,0,0,0,0,0,0,0,0,-1,608,379,0,0
-609,645,0,0,0,0,0,0,0,0,0,-1,615,379,0,0
-602,645,0,0,0,0,0,0,0,0,0,-1,622,379,0,0
-595,645,0,0,0,0,0,0,0,0,0,-1,629,379,0,0
-588,645,0,0,0,0,0,0,0,0,0,-1,636,379,0,0
-581,645,0,0,0,0,0,0,0,0,0,-1,643,379,0,0
-574,645,0,0,0,0,0,0,0,0,0,-1,650,379,0,0
-567,645,0,0,0,0,0,0,0,0,0,-1,657,379,0,0
-560,645,0,0,0,0,0,0,0,0,0,-1,664,379,0,0
-553,645,0,0,0,0,0,0,0,0,0,-1,671,379,0,0
-546,645,0,0,0,0,0,0,0,0,0,-1,678,379,0,0
-539,645,0,0,0,0,0,0,0,0,0,-1,685,379,0,0
-532,645,0,0,0,0,0,0,0,0,0,-1,692,379,0,0
-525,645,0,0,0,0,0,0,0,0,0,-1,699,379,0,0
-518,645,0,0,0,0,0,0,0,0,0,-1,706,379,0,0
-511,645,0,0,0,0,0,0,0,0,0,-1,713,379,0,0
-504,645,0,0,0,0,0,0,0,0,0,-1,720,379,0,0
-497,645,0,0,0,0,0,0,0,0,0,-1,727,379,0,0
-490,645,0,0,0,0,0,0,0,0,0,-1,734,379,0,0
-483,645,0,0,0,0,0,0,0,0,0,-1,741,379,0,0
-476,645,0,0,0,0,0,0,0,0,0,-1,748,379,0,0
-469,645,0,0,0,0,0,0,0,0,0,-1,755,379,0,0
-462,645,0,0,0,0,0,0,0,0,0,-1,762,379,0,0
-455,645,0,0,0,0,0,0,0,0,0,-1,769,379,0,0
-448,645,0,0,0,0,0,0,0,0,0,-1,776,379,0,0
-441,645,0,0,0,0,0,0,0,0,0,-1,783,379,0,0
-434,645,0,0,0,0,0,0,0,0,0,-1,790,379,0,0
-427,645,0,0,0,0,0,0,0,0,0,-1,797,379,0,0
-420,645,0,0,0,0,0,0,0,0,0,-1,804,379,0,0
-413,645,0,0,0,0,0,0,0,0,0,-1,811,379,0,0
-406,645,0,0,0,0,0,0,0,0,0,-1,818,379,0,0
-399,645,0,0,0,0,0,0,0,0,0,-1,825,379,0,0
-392,645,0,0,0,0,0,0,0,0,0,-1,832,379,0,0
-385,645,0,0,0,0,0,0,0,0,0,-1,839,379,0,0
-378,645,0,0,0,0,0,0,0,0,0,-1,846,379,0,0
-371,645,0,0,0,0,0,0,0,0,0,-1,853,379,0,0
-364,645,0,0,0,0,0,0,0,0,0,-1,860,379,0,0
-357,645,0,0,0,0,0,0,0,0,0,-1,867,379,0,0
-350,645,0,0,0,0,0,0,0,0,0,-1,874,379,0,0
-343,645,0,0,0,0,0,0,0,0,0,-1,881,379,0,0
-336,645,0,0,0,0,0,0,0,0,0,-1,888,379,0,0
-329,645,0,0,0,0,0,0,0,0,0,-1,895,379,0,0
-322,645,0,0,0,0,0,0,0,0,0,-1,902,379,0,0
-315,645,0,0,0,0,0,0,0,0,0,-1,909,379,0,0
-308,645,0,0,0,0,0,0,0,0,0,-1,916,379,0,0
-301,645,0,0,0,0,0,0,0,0,0,-1,923,379,0,0
-294,645,0,0,0,0,0,0,0,0,0,-1,930,379,0,0
-287,645,0,0,0,0,0,0,0,0,0,-1,937,379,0,0
-280,645,0,0,0,0,0,0,0,0,0,-1,944,379,0,0
-273,645,0,0,0,0,0,0,0,0,0,-1,951,379,0,0
-266,645,0,0,0,0,0,0,0,0,0,-1,958,379,0,0
-259,645,0,0,0,0,0,0,0,0,0,-1,965,379,0,0
-252,645,0.298584,0.209869,0,0,0,0,0,0,0,-1,972,379,0.298572,-0.209867
-245,645,0.30603,0.564636,-0.0170853,0.00378006,-0.00641037,0.00559212,-0.0188974,-1.29531,0.0148183,0.0361529,979,379,0.306003,-0.564651
-238,645,-0.0973511,0.181091,-0.0162989,0.00139808,-0.00529893,0.00286338,-0.0177642,-1.30101,0.0129036,0.0363989,986,379,-0.0973411,-0.181087
-231,645,-0.273438,0.288239,-0.0146809,0.000744871,-0.00487768,0.0021578,-0.0160938,-1.28884,0.011516,0.0383555,993,379,-0.273415,-0.28823
-224,645,0.081604,-0.220825,-0.0131971,0.000503794,-0.00431406,0.00174901,-0.0144423,-1.28979,0.010261,0.0373416,1000,379,0.0815876,0.220819
-217,645,-0.0390015,-0.517487,-0.0122542,0.00100079,-0.00401652,0.00212289,-0.0133763,-1.29837,0.00970289,0.0387754,1007,379,-0.0390299,0.5175
-210,645,-0.173401,-0.696899,-0.0113225,0.00126015,-0.00368579,0.00226031,-0.0123226,-1.30582,0.00906298,0.0403111,1014,379,-0.173413,0.696897
-203,645,-0.339844,-0.767487,-0.0102367,0.00160321,-0.00319178,0.00240883,-0.0110423,-1.32356,0.00828207,0.0432556,1021,379,-0.339815,0.767483
-196,645,-0.312256,-0.796448,-0.00935443,0.00185771,-0.00277922,0.00250881,-0.0100055,-1.34067,0.00764509,0.043965,1028,379,-0.312201,0.796436
-189,645,-0.246582,-0.791473,0,0,0,0,0,0,0,-1,1035,379,-0.246577,0.791469
-182,645,-0.0686035,-0.657623,0,0,0,0,0,0,0,-1,1042,379,-0.0685668,0.657611
-175,645,0.409058,0.106812,-0.00591275,0.0015576,-0.0025678,0.0023551,-0.00671024,-1.26967,0.00543148,0.0409007,1049,379,0.409026,-0.106819
-168,645,0.203735,0.0956726,-0.005533,0.00130233,-0.00209111,0.00189131,-0.00612197,-1.29625,0.00483662,0.0387471,1056,379,0.203702,-0.0956804
-161,645,0.0528564,0.226532,-0.00464454,0.0012074,-0.00171596,0.00167345,-0.00511059,-1.30559,0.0040809,0.0414799,1063,379,0.0528181,-0.226522
-154,645,0.230347,0.169861,-0.00355757,0.000726002,-0.00154414,0.0012246,-0.00405616,-1.25847,0.0031916,0.0407166,1070,379,0.230369,-0.169867
-147,645,-0.00964355,0.212616,-0.00278062,5.63507e-05,-0.00129156,0.000556261,-0.00328053,-1.2015,0.00239408,0.0389155,1077,379,-0.00970109,-0.212621
-140,645,-0.0531006,-0.00152588,-0.00199441,-0.00100746,-0.00110889,-0.000287201,-0.00271468,-0.994749,0.00172205,0.0343594,1084,379,-0.0530512,0.00152723
-133,645,-0.0501709,-0.0847168,-0.000835368,-0.000805723,-0.000703402,-0.000116987,-0.0015241,-0.795933,0.000979405,0.0254889,1091,379,-0.0501631,0.0847048
-126,645,-0.0654297,-0.121063,-0.000141055,-0.000884011,-5.17973e-05,-0.000137462,-0.000887605,-0.0692713,0.000551655,0.0194826,1098,379,-0.0654173,0.121049
-119,645,-0.0336914,-0.0872192,0.000316939,-0.000618249,0.000436625,0.000489099,-0.000790409,0.375581,0.000745521,0.0140633,1105,379,-0.0337389,0.0872114
-112,645,-0.0150146,-0.0751648,0.000964962,-0.000418001,0.00116246,0.00162606,-0.0010791,0.517089,0.00157243,0.0103595,1112,379,-0.0149842,0.0751672
-105,645,-0.0272217,-0.0769958,0.00115212,3.73592e-05,0.00166076,0.00234653,-0.00115706,0.623496,0.00206129,0.010754,1119,379,-0.0272801,0.076992
-98,645,-0.0360107,-0.072113,0.00119458,0.000370589,0.00192375,0.00274995,-0.00118479,0.679911,0.00233086,0.0121103,1126,379,-0.0360574,0.0721039
-91,645,-0.0288086,-0.0779114,0.00111123,0.000570478,0.00202713,0.00288594,-0.00120423,0.7191,0.00242708,0.0123373,1133,379,-0.028755,0.0779147
-84,645,-0.029541,-0.0802917,0.00101661,0.000503798,0.00217769,0.00295293,-0.00143253,0.726797,0.00258217,0.0114965,1140,379,-0.0295011,0.0802776
-77,645,-0.0328369,-0.0908508,0.0011128,0.000764915,0.00228333,0.0032288,-0.00135109,0.747382,0.00271727,0.0103359,1147,379,-0.0328097,0.0908428
-70,645,-0.0172119,-0.0917053,0.00128589,0.00113513,0.00206143,0.00327331,-0.000852297,0.767123,0.00251492,0.00923228,1154,379,-0.0172213,0.0917011
-63,645,-0.0262451,-0.0786438,0.00168181,0.00133524,0.00181897,0.00333573,-0.000318672,0.737908,0.0023373,0.0100138,1161,379,-0.0261957,0.0786286
-56,645,-0.0411377,-0.0747986,0.00222901,0.00119059,0.00172864,0.00351473,-9.51248e-05,0.639507,0.00237549,0.0117631,1168,379,-0.0411761,0.0748127
-49,645,-0.0427246,-0.0652161,0.00258951,0.00103569,0.00168274,0.00366603,-4.08285e-05,0.569131,0.00245774,0.00954537,1175,379,-0.0426866,0.0652056
-42,645,-0.0319824,-0.0660095,0.00302104,0.000983755,0.00152583,0.003837,0.000167792,0.491073,0.00250395,0.00869284,1182,379,-0.0319427,0.0660216
-35,645,-0.0222168,-0.0777283,0.0032817,0.000757832,0.00142706,0.00392476,0.000114778,0.423365,0.0025791,0.00924216,1189,379,-0.0221749,0.0777165
-28,645,-0.0253906,-0.0812683,0.00345072,0.000662231,0.00142805,0.00405228,6.06675e-05,0.398688,0.00268153,0.00775948,1196,379,-0.0254007,0.0812773
-21,645,-0.0327148,-0.0679321,0.0037083,0.000623176,0.00146335,0.00429197,3.9499e-05,0.379526,0.00284824,0.00922659,1203,379,-0.032677,0.0679409
-14,645,-0.0168457,-0.0523682,0.00377557,0.000532037,0.00152238,0.00437817,-7.05554e-05,0.376899,0.00294258,0.00905096,1210,379,-0.0168342,0.052374
-7,645,-0.022583,-0.0661316,0.0034344,0.000701346,0.00127023,0.00393359,0.000202159,0.374447,0.00255767,0.0119541,1217,379,-0.0225993,0.0661256
0,645,-0.050293,-0.0809937,0.00321676,0.000855863,0.00103375,0.00360542,0.000467205,0.35962,0.002264,0.0212371,1224,379,-0.0503526,0.0810006
7,645,-0.0183105,-0.0763855,0.00299802,0.000986434,0.000829955,0.00329624,0.000688216,0.344952,0.0020078,0.0144857,1231,379,-0.0182544,0.0763759
14,645,-0.0119629,-0.0703735,0.00266006,0.00114604,0.000571505,0.00285157,0.00095453,0.32333,0.00167606,0.0143876,1238,379,-0.0119201,0.0703689
21,645,-0.0379639,-0.0672607,0.00217375,0.00142793,0.000234483,0.00224134,0.00136034,0.280663,0.00130387,0.00960451,1245,379,-0.0379593,0.067246
28,645,-0.0384521,-0.0757446,0.00164838,0.00120407,-0.000163228,0.0017019,0.00115055,-0.316833,0.00100269,0.00841954,1252,379,-0.0384857,0.0757303
35,645,-0.0299072,-0.0727234,0.00127905,0.00090232,-0.00044457,0.00157352,0.000607857,-0.585011,0.000916265,0.00835521,1259,379,-0.0299169,0.0727269
42,645,-0.0231934,-0.0733032,0.00119011,0.000545525,-0.000624663,0.00157072,0.000164911,-0.547237,0.000996735,0.00873725,1266,379,-0.023134,0.0732973
49,645,-0.012207,-0.0774841,0.00121697,0.001618,-0.000939122,0.00237777,0.000457192,-0.890576,0.0014569,0.0112216,1273,379,-0.0122546,0.077475
56,645,-0.0177002,-0.0753479,0.0012138,0.00193187,-0.00099715,0.00263265,0.000513017,-0.958202,0.00161155,0.0109088,1280,379,-0.0177132,0.0753525
63,645,-0.0251465,-0.07901,0.0015177,0.00235044,-0.00138832,0.00338348,0.00048466,-0.931084,0.00211271,0.0106136,1287,379,-0.0251059,0.0790215
70,645,-0.0114746,-0.0806274,0.00198765,0.00271131,-0.00190804,0.00429153,0.000407428,-0.879102,0.00273534,0.0133887,1294,379,-0.0114563,0.0806319
77,645,-0.00512695,-0.0676575,0.00243004,0.00306986,-0.00242458,0.00519554,0.000304352,-0.850991,0.00336683,0.0167839,1301,379,-0.00517161,0.0676541
84,645,-0.0383301,-0.0729675,0.00273436,0.00338368,-0.00284852,0.00592598,0.000192059,-0.842141,0.00388821,0.0124647,1308,379,-0.0383725,0.0729659
91,645,-0.0632324,-0.0885925,0.00297059,0.00362893,-0.00327608,0.00659234,7.18143e-06,-0.835468,0.0043925,0.0134458,1315,379,-0.0632135,0.0885793
98,645,-0.0390625,-0.0733948,0.00313803,0.00362769,-0.0036266,0.00701772,-0.000251994,-0.819102,0.0047647,0.0117377,1322,379,-0.0390159,0.0733881
105,645,-0.0164795,-0.0620728,0.00329998,0.00351785,-0.00386633,0.00727678,-0.000458948,-0.799482,0.00501118,0.00902427,1329,379,-0.0165227,0.0620734
112,645,-0.00915527,-0.0629883,0.00331566,0.00328373,-0.00394131,0.00724104,-0.000641644,-0.783373,0.00505484,0.00806228,1336,379,-0.00910047,0.0629802
119,645,-0.0131836,-0.0713806,0.00319542,0.00293721,-0.00378445,0.00685297,-0.000720333,-0.768348,0.00482671,0.00853586,1343,379,-0.0131456,0.0713917
126,645,-0.0323486,-0.0700378,0.00300849,0.00260922,-0.00343274,0.0062474,-0.00062969,-0.756353,0.00438991,0.0107597,1350,379,-0.0322986,0.0700388
133,645,-0.0469971,-0.0621033,0.00272294,0.00237344,-0.00293474,0.00548812,-0.000391749,-0.755661,0.00379608,0.0113066,1357,379,-0.047023,0.0620988
140,645,-0.0534668,-0.0487366,0.00230422,0.00217962,-0.00237361,0.00461635,-0.000132506,-0.772278,0.00312267,0.0111778,1364,379,-0.0534722,0.0487367
147,645,-0.0421143,-0.0402222,0.0016341,0.00209279,-0.00188923,0.00376654,-3.96611e-05,-0.8458,0.00252435,0.0121259,1371,379,-0.0421615,0.040225
154,645,-0.0233154,-0.043335,0.00106308,0.00128827,-0.00137441,0.00255469,-0.000203339,-0.826269,0.00177479,0.0106767,1378,379,-0.023306,0.0433405
161,645,-0.0164795,-0.0508728,0.00063383,0.00145915,-0.00109642,0.00221799,-0.000125013,-0.965384,0.00152204,0.0124036,1385,379,-0.0164642,0.0508868
168,645,-0.0119629,-0.0607605,8.45006e-05,0.00163079,-0.00063068,0.0018554,-0.000140107,-1.22867,0.00128618,0.0142045,1392,379,-0.0119106,0.0607539
175,645,0.0012207,-0.0654602,-9.12473e-05,0.00184575,-0.000365022,0.00191226,-0.000157751,-1.39058,0.00133054,0.0125276,1399,379,0.00126405,0.0654713
182,645,-0.015625,-0.0637817,0.000218738,0.00192493,-0.000328369,0.00198594,0.000157723,-1.38708,0.00127465,0.00933835,1406,379,-0.0156268,0.0637718
189,645,-0.020752,-0.0701904,0.000738042,0.00203571,-0.000255335,0.00208414,0.000689608,-1.38334,0.00122601,0.0102286,1413,379,-0.0207954,0.0702013
196,645,-0.0296631,-0.0771484,0.000726723,0.00186944,-0.000346819,0.00196647,0.0006297,-1.29802,0.00115955,0.0110402,1420,379,-0.0297166,0.0771337
203,645,-0.0333252,-0.0598145,0.000850187,0.00154581,-0.000127799,0.00156854,0.000827451,-1.39473,0.000906056,0.0105424,1427,379,-0.0333649,0.0598082
210,645,-0.00366211,-0.0827026,0.000820931,0.0010779,0.000327852,0.00130155,0.000597287,0.972151,0.000752294,0.0124335,1434,379,-0.00370157,0.0827136
217,645,-0.0144043,-0.0918579,0.000433229,0.000633763,0.000754016,0.00129415,-0.000227157,0.851499,0.000947605,0.010988,1441,379,-0.014432,0.0918449
224,645,-0.0273438,-0.0721436,-0.000148975,0.000178363,0.00116103,0.0011872,-0.00115782,0.855421,0.00135393,0.0102401,1448,379,-0.0273378,0.0721477
231,645,-0.0390625,-0.0494995,-0.0010479,-0.000317102,0.00156239,0.000922051,-0.00228706,0.90027,0.00190783,0.0111745,1455,379,-0.0390823,0.0494984
238,645,-0.0476074,-0.0505981,-0.00229896,-0.000855824,0.00189052,0.000446148,-0.00360093,0.967704,0.00256231,0.0091174,1462,379,-0.0476386,0.050597
245,645,-0.0203857,-0.0639648,-0.00355953,-0.00113012,0.00211727,9.61493e-05,-0.00478579,1.04583,0.00322306,0.00970033,1469,379,-0.020417,0.0639742
252,645,-0.0078125,-0.0668945,-0.00496251,-0.00158605,0.00238744,-0.000350239,-0.00619832,1.09315,0.00402056,0.0136046,1476,379,-0.00778509,0.0668871
259,645,-0.0100098,-0.0619812,-0.00680979,-0.00190183,0.00227605,-0.00100881,-0.00770282,1.1969,0.00483416,0.0221349,1483,379,-0.0100652,0.0619738
266,645,-0.0233154,-0.05896,-0.00849358,-0.00248038,0.00176871,-0.00199871,-0.00897525,1.30492,0.00544104,0.0215331,1490,379,-0.0233731,0.0589546
273,645,-0.0125732,-0.10376,-0.00969275,-0.00310253,0.00109719,-0.00292466,-0.00987062,1.41008,0.00585432,0.0188071,1497,379,-0.0125381,0.10377
280,645,0.00756836,-0.229218,-0.010854,-0.00350432,0.000456683,-0.00347605,-0.0108823,1.50898,0.00641801,0.0291284,1504,379,0.00755713,0.229232
287,645,-0.0325928,-0.156738,-0.0117328,-0.0043686,-0.000359032,-0.00435114,-0.0117502,-1.5222,0.00685966,0.036904,1511,379,-0.0325478,0.156734
294,645,0.00170898,-0.215271,-0.0121794,-0.00450933,-0.0010234,-0.00437512,-0.0123136,-1.44041,0.00720782,0.0389964,1518,379,0.00169505,0.215272
301,645,0.0854492,-0.407776,-0.0122268,-0.00394873,-0.00077132,-0.00387748,-0.0122981,-1.47868,0.00726001,0.0427262,1525,379,0.0854843,0.407763
308,645,-0.128296,-0.420074,-0.0122747,-0.00330863,-0.000694998,-0.00325507,-0.0123283,-1.49389,0.0073772,0.0437821,1532,379,-0.128294,0.420071
315,645,-0.338989,-0.515411,-0.0117833,-0.00250528,-0.000364994,-0.00249094,-0.0117977,-1.53154,0.00718029,0.0421134,1539,379,-0.339033,0.515425
322,645,-0.455078,-0.564789,-0.0111462,-0.00109794,0.000705458,-0.00104865,-0.0111954,1.50105,0.0071398,0.0429868,1546,379,-0.455046,0.564785
329,645,-0.466064,-0.590973,-0.0103507,0.000740629,0.00236602,0.00122426,-0.0108344,1.36917,0.00766367,0.044172,1553,379,-0.466028,0.590988
336,645,-0.347168,-0.601288,-0.00990908,0.0028861,0.00459013,0.00436242,-0.0113854,1.25962,0.00938855,0.0434354,1560,379,-0.34718,0.601287
343,645,-0.0883789,-0.254181,-0.0100481,0.00581938,0.00717283,0.00858114,-0.0128099,1.20326,0.0124303,0.0431602,1567,379,-0.0883844,0.25419
350,645,-0.383423,-0.271454,-0.0105272,0.00832745,0.00955594,0.0123236,-0.0145234,1.17471,0.0155175,0.0442077,1574,379,-0.383372,0.271468
357,645,-0.71936,-0.345367,-0.0114015,0.0112005,0.0107236,0.0154786,-0.0156796,1.1912,0.0179893,0.0475101,1581,379,-0.719325,0.345355
364,645,-0.361816,-0.558289,0,0,0,0,0,0,0,-1,1588,379,-0.361836,0.558303
371,645,0,0,0,0,0,0,0,0,0,-1,1595,379,0,0
378,645,0,0,0,0,0,0,0,0,0,-1,1602,379,0,0
385,645,0,0,0,0,0,0,0,0,0,-1,1609,379,0,0
392,645,0,0,0,0,0,0,0,0,0,-1,1616,379,0,0
399,645,0,0,0,0,0,0,0,0,0,-1,1623,379,0,0
406,645,0,0,0,0,0,0,0,0,0,-1,1630,379,0,0
413,645,0,0,0,0,0,0,0,0,0,-1,1637,379,0,0
420,645,0,0,0,0,0,0,0,0,0,-1,1644,379,0,0
427,645,0,0,0,0,0,0,0,0,0,-1,1651,379,0,0
434,645,0,0,0,0,0,0,0,0,0,-1,1658,379,0,0
441,645,0,0,0,0,0,0,0,0,0,-1,1665,379,0,0
448,645,0,0,0,0,0,0,0,0,0,-1,1672,379,0,0
455,645,0,0,0,0,0,0,0,0,0,-1,1679,379,0,0
462,645,0,0,0,0,0,0,0,0,0,-1,1686,379,0,0
469,645,0,0,0,0,0,0,0,0,0,-1,1693,379,0,0
476,645,0,0,0,0,0,0,0,0,0,-1,1700,379,0,0
483,645,0,0,0,0,0,0,0,0,0,-1,1707,379,0,0
490,645,0,0,0,0,0,0,0,0,0,-1,1714,379,0,0
497,645,0,0,0,0,0,0,0,0,0,-1,1721,379,0,0
504,645,0,0,0,0,0,0,0,0,0,-1,1728,379,0,0
511,645,0,0,0,0,0,0,0,0,0,-1,1735,379,0,0
518,645,0,0,0,0,0,0,0,0,0,-1,1742,379,0,0
525,645,0,0,0,0,0,0,0,0,0,-1,1749,379,0,0
532,645,0,0,0,0,0,0,0,0,0,-1,1756,379,0,0
539,645,0,0,0,0,0,0,0,0,0,-1,1763,379,0,0
546,645,0,0,0,0,0,0,0,0,0,-1,1770,379,0,0
553,645,0,0,0,0,0,0,0,0,0,-1,1777,379,0,0
560,645,0,0,0,0,0,0,0,0,0,-1,1784,379,0,0
567,645,0,0,0,0,0,0,0,0,0,-1,1791,379,0,0
574,645,0,0,0,0,0,0,0,0,0,-1,1798,379,0,0
581,645,0,0,0,0,0,0,0,0,0,-1,1805,379,0,0
588,645,0,0,0,0,0,0,0,0,0,-1,1812,379,0,0
595,645,0,0,0,0,0,0,0,0,0,-1,1819,379,0,0
602,645,0,0,0,0,0,0,0,0,0,-1,1826,379,0,0
609,645,0,0,0,0,0,0,0,0,0,-1,1833,379,0,0
616,645,0,0,0,0,0,0,0,0,0,-1,1840,379,0,0
623,645,0,0,0,0,0,0,0,0,0,-1,1847,379,0,0
630,645,0,0,0,0,0,0,0,0,0,-1,1854,379,0,0
637,645,0,0,0,0,0,0,0,0,0,-1,1861,379,0,0
644,645,0,0,0,0,0,0,0,0,0,-1,1868,379,0,0
651,645,0,0,0,0,0,0,0,0,0,-1,1875,379,0,0
658,645,0,0,0,0,0,0,0,0,0,-1,1882,379,0,0
665,645,0,0,0,0,0,0,0,0,0,-1,1889,379,0,0
672,645,0,0,0,0,0,0,0,0,0,-1,1896,379,0,0
679,645,0,0,0,0,0,0,0,0,0,-1,1903,379,0,0
686,645,0,0,0,0,0,0,0,0,0,-1,1910,379,0,0
693,645,0,0,0,0,0,0,0,0,0,-1,1917,379,0,0
700,645,0,0,0,0,0,0,0,0,0,-1,1924,379,0,0
707,645,0,0,0,0,0,0,0,0,0,-1,1931,379,0,0
714,645,0,0,0,0,0,0,0,0,0,-1,1938,379,0,0
721,645,0,0,0,0,0,0,0,0,0,-1,1945,379,0,0
728,645,0,0,0,0,0,0,0,0,0,-1,1952,379,0,0
735,645,0,0,0,0,0,0,0,0,0,-1,1959,379,0,0
742,645,0,0,0,0,0,0,0,0,0,-1,1966,379,0,0
749,645,0,0,0,0,0,0,0,0,0,-1,1973,379,0,0
756,645,0,0,0,0,0,0,0,0,0,-1,1980,379,0,0
763,645,0,0,0,0,0,0,0,0,0,-1,1987,379,0,0
770,645,0,0,0,0,0,0,0,0,0,-1,1994,379,0,0
777,645,0,0,0,0,0,0,0,0,0,-1,2001,379,0,0
784,645,0,0,0,0,0,0,0,0,0,-1,2008,379,0,0
791,645,0,0,0,0,0,0,0,0,0,-1,2015,379,0,0
798,645,0,0,0,0,0,0,0,0,0,-1,2022,379,0,0
805,645,0,0,0,0,0,0,0,0,0,-1,2029,379,0,0
812,645,0,0,0,0,0,0,0,0,0,-1,2036,379,0,0
-700,638,0,0,0,0,0,0,0,0,0,-1,524,386,0,0
-693,638,0,0,0,0,0,0,0,0,0,-1,531,386,0,0
-686,638,0,0,0,0,0,0,0,0,0,-1,538,386,0,0
-679,638,0,0,0,0,0,0,0,0,0,-1,545,386,0,0
-672,638,0,0,0,0,0,0,0,0,0,-1,552,386,0,0
-665,638,0,0,0,0,0,0,0,0,0,-1,559,386,0,0
-658,638,0,0,0,0,0,0,0,0,0,-1,566,386,0,0
-651,638,0,0,0,0,0,0,0,0,0,-1,573,386,0,0
-644,638,0,0,0,0,0,0,0,0,0,-1,580,386,0,0
-637,638,0,0,0,0,0,0,0,0,0,-1,587,386,0,0
-630,638,0,0,0,0,0,0,0,0,0,-1,594,386,0,0
-623,638,0,0,0,0,0,0,0,0,0,-1,601,386,0,0
-616,638,0,0,0,0,0,0,0,0,0,-1,608,386,0,0
-609,638,0,0,0,0,0,0,0,0,0,-1,615,386,0,0
-602,638,0,0,0,0,0,0,0,0,0,-1,622,386,0,0
-595,638,0,0,0,0,0,0,0,0,0,-1,629,386,0,0
-588,638,0,0,0,0,0,0,0,0,0,-1,636,386,0,0
-581,638,0,0,0,0,0,0,0,0,0,-1,643,386,0,0
-574,638,0,0,0,0,0,0,0,0,0,-1,650,386,0,0
-567,638,0,0,0,0,0,0,0,0,0,-1,657,386,0,0
-560,638,0,0,0,0,0,0,0,0,0,-1,664,386,0,0
-553,638,0,0,0,0,0,0,0,0,0,-1,671,386,0,0
-546,638,0,0,0,0,0,0,0,0,0,-1,678,386,0,0
-539,638,0,0,0,0,0,0,0,0,0,-1,685,386,0,0
-532,638,0,0,0,0,0,0,0,0,0,-1,692,386,0,0
-525,638,0,0,0,0,0,0,0,0,0,-1,699,386,0,0
-518,638,0,0,0,0,0,0,0,0,0,-1,706,386,0,0
-511,638,0,0,0,0,0,0,0,0,0,-1,713,386,0,0
-504,638,0,0,0,0,0,0,0,0,0,-1,720,386,0,0
-497,638,0,0,0,0,0,0,0,0,0,-1,727,386,0,0
-490,638,0,0,0,0,0,0,0,0,0,-1,734,386,0,0
-483,638,0,0,0,0,0,0,0,0,0,-1,741,386,0,0
-476,638,0,0,0,0,0,0,0,0,0,-1,748,386,0,0
-469,638,0,0,0,0,0,0,0,0,0,-1,755,386,0,0
-462,638,0,0,0,0,0,0,0,0,0,-1,762,386,0,0
-455,638,0,0,0,0,0,0,0,0,0,-1,769,386,0,0
-448,638,0,0,0,0,0,0,0,0,0,-1,776,386,0,0
-441,638,0,0,0,0,0,0,0,0,0,-1,783,386,0,0
-434,638,0,0,0,0,0,0,0,0,0,-1,790,386,0,0
-427,638,0,0,0,0,0,0,0,0,0,-1,797,386,0,0
-420,638,0,0,0,0,0,0,0,0,0,-1,804,386,0,0
-413,638,0,0,0,0,0,0,0,0,0,-1,811,386,0,0
-406,638,0,0,0,0,0,0,0,0,0,-1,818,386,0,0
-399,638,0,0,0,0,0,0,0,0,0,-1,825,386,0,0
-392,638,0,0,0,0,0,0,0,0,0,-1,832,386,0,0
-385,638,0,0,0,0,0,0,0,0,0,-1,839,386,0,0
-378,638,0,0,0,0,0,0,0,0,0,-1,846,386,0,0
-371,638,0,0,0,0,0,0,0,0,0,-1,853,386,0,0
-364,638,0,0,0,0,0,0,0,0,0,-1,860,386,0,0
-357,638,0,0,0,0,0,0,0,0,0,-1,867,386,0,0
-350,638,0,0,0,0,0,0,0,0,0,-1,874,386,0,0
-343,638,0,0,0,0,0,0,0,0,0,-1,881,386,0,0
-336,638,0,0,0,0,0,0,0,0,0,-1,888,386,0,0
-329,638,0,0,0,0,0,0,0,0,0,-1,895,386,0,0
-322,638,0,0,0,0,0,0,0,0,0,-1,902,386,0,0
-315,638,0,0,0,0,0,0,0,0,0,-1,909,386,0,0
-308,638,0,0,0,0,0,0,0,0,0,-1,916,386,0,0
-301,638,0,0,0,0,0,0,0,0,0,-1,923,386,0,0
-294,638,0,0,0,0,0,0,0,0,0,-1,930,386,0,0
-287,638,0,0,0,0,0,0,0,0,0,-1,937,386,0,0
-280,638,0,0,0,0,0,0,0,0,0,-1,944,386,0,0
-273,638,0,0,0,0,0,0,0,0,0,-1,951,386,0,0
-266,638,0.532471,0.215332,0,0,0,0,0,0,0,-1,958,386,0.532488,-0.215343
-259,638,0.441528,0.208099,-0.00907775,0.0127749,-0.0115599,0.0177551,-0.0140579,-1.16401,0.0184085,0.0472127,965,386,0.441498,-0.208099
-252,638,0.373108,0.220856,-0.0107416,0.00674172,-0.00867519,0.0103157,-0.0143156,-1.18001,0.0142833,0.0452745,972,386,0.373124,-0.220865
-245,638,0.293152,0.29538,-0.0114411,0.004717,-0.00638889,0.0069379,-0.013662,-1.23624,0.0121027,0.0375584,979,386,0.293136,-0.295364
-238,638,-0.00445557,0.188568,-0.0111437,0.00174261,-0.0050383,0.00347862,-0.0128797,-1.23897,0.00995077,0.0399012,986,386,-0.00447884,-0.188563
-231,638,-0.26355,0.38678,-0.0101825,0.000155855,-0.00445726,0.00181218,-0.0118388,-1.21501,0.00856079,0.0385269,993,386,-0.26357,-0.386769
-224,638,-0.137939,0.0791016,-0.00935081,-0.000876859,-0.00390217,0.000646275,-0.0108739,-1.19865,0.00747404,0.0378234,1000,386,-0.137952,-0.0791019
-217,638,-0.144531,-0.0710754,-0.00882943,-0.00106345,-0.00353797,0.000306642,-0.0101995,-1.20133,0.00690416,0.0404243,1007,386,-0.144535,0.071086
-210,638,-0.170288,-0.269714,-0.0081281,-0.00119448,-0.00319335,5.21154e-05,-0.0093747,-1.19862,0.00626724,0.0429147,1014,386,-0.170291,0.269707
-203,638,-0.235046,-0.701874,-0.00737041,-0.000934883,-0.00271172,5.53699e-05,-0.00836066,-1.22067,0.00559232,0.0468588,1021,386,-0.235049,0.70188
-196,638,0.238281,-0.606079,-0.00691914,-0.00060043,-0.00232892,0.000165187,-0.00768476,-1.25318,0.00517911,0.0451103,1028,386,0.23831,0.606083
-189,638,0.699951,-0.478058,0,0,0,0,0,0,0,-1,1035,386,0.699916,0.478062
-182,638,-0.00683594,-0.567871,0,0,0,0,0,0,0,-1,1042,386,-0.00685621,0.567856
-175,638,0.03125,-0.691864,0,0,0,0,0,0,0,-1,1049,386,0.0312126,0.691855
-168,638,0.0722656,0.0088501,-0.00464506,6.91573e-05,-0.00147963,0.000495079,-0.00507098,-1.29052,0.00355718,0.0286799,1056,386,0.0723069,-0.00884664
-161,638,-0.0257568,-0.0478821,-0.00400206,0.000316893,-0.00115424,0.000606009,-0.00429117,-1.32536,0.0030827,0.0253964,1063,386,-0.0257776,0.0478906
-154,638,-0.0327148,-0.0446472,-0.00317673,0.000180835,-0.00101144,0.000461983,-0.00345788,-1.29967,0.00247367,0.0211946,1070,386,-0.0326665,0.0446333
-147,638,-0.0112305,-0.0369873,-0.0025969,-0.000148232,-0.000842662,0.000113729,-0.00285886,-1.26939,0.00194492,0.0175858,1077,386,-0.0112848,0.0370025
-140,638,-0.0219727,-0.049408,-0.00201072,-0.000924569,-0.000791576,-0.000507685,-0.0024276,-1.08606,0.00147852,0.014025,1084,386,-0.0219221,0.0493977
-133,638,-0.0235596,-0.072998,-0.00103414,-0.000832504,-0.000588011,-0.000336731,-0.00152991,-0.870301,0.000928285,0.010345,1091,386,-0.0236081,0.0729955
-126,638,-0.017334,-0.0771484,-0.000397401,-0.000981706,-0.000136179,-0.000367221,-0.00101189,-0.218091,0.000591487,0.0117047,1098,386,-0.0173084,0.0771341
-119,638,-0.0167236,-0.0715332,3.81986e-05,-0.000883113,0.000195979,7.8154e-05,-0.000923069,0.20112,0.000643016,0.0135472,1105,386,-0.0167765,0.0715327
-112,638,-0.0235596,-0.0697937,0.000586514,-0.000838137,0.00072757,0.000892405,-0.00114403,0.397993,0.00117872,0.0121101,1112,386,-0.0235622,0.0698051
-105,638,-0.0284424,-0.0700073,0.000758368,-0.000621346,0.00112723,0.00139008,-0.00125306,0.510803,0.0015267,0.0144536,1119,386,-0.0284041,0.0699978
-98,638,-0.0169678,-0.0821533,0.000834368,-0.000477234,0.00137491,0.00170187,-0.00134473,0.562867,0.00176298,0.0153221,1126,386,-0.0170117,0.0821389
-91,638,-0.0372314,-0.083374,0.00082674,-0.00043476,0.00152729,0.0018484,-0.00145642,0.589573,0.00191251,0.0116425,1133,386,-0.0372122,0.0833774
-84,638,-0.0617676,-0.071991,0.000728254,-0.000535758,0.00167683,0.00188822,-0.00169573,0.605178,0.00207019,0.0121892,1140,386,-0.0618193,0.0719841
-77,638,-0.0405273,-0.0780334,0.000724797,-0.000367151,0.00175443,0.00201625,-0.0016586,0.63455,0.00212502,0.00977048,1147,386,-0.0405224,0.0780295
-70,638,-0.00915527,-0.0791321,0.000760559,-0.000116448,0.00166587,0.00204467,-0.00140056,0.656703,0.00200066,0.00963641,1154,386,-0.00920622,0.0791344
-63,638,-0.017334,-0.0791016,0.000938914,-3.71375e-05,0.00159384,0.00211777,-0.00121599,0.636833,0.00194808,0.0101868,1161,386,-0.0172954,0.0790922
-56,638,-0.0378418,-0.0862122,0.00125409,-0.000170938,0.00159231,0.00228603,-0.00120288,0.575024,0.00204643,0.0139758,1168,386,-0.0378426,0.0861983
-49,638,-0.0322266,-0.0761414,0.00149908,-0.00038723,0.00158524,0.00240052,-0.00128867,0.517045,0.00216196,0.0119018,1175,386,-0.0322271,0.0761394
-42,638,-0.0388184,-0.0818787,0.00184624,-0.000471764,0.00142019,0.00252033,-0.00114585,0.44316,0.00216569,0.01023,1182,386,-0.0387841,0.0818889
-35,638,-0.0194092,-0.082489,0.00201964,-0.00061791,0.00133541,0.00257769,-0.00117596,0.395833,0.00221697,0.00970006,1189,386,-0.0194311,0.0824939
-28,638,-0.010376,-0.0785828,0.00210915,-0.000718703,0.00125233,0.00258401,-0.00119357,0.362433,0.00222969,0.00923113,1196,386,-0.0104188,0.0785975
-21,638,-0.0318604,-0.065033,0.00228452,-0.000728471,0.00120239,0.00270553,-0.00114948,0.336802,0.00228533,0.011188,1203,386,-0.0319034,0.065027
-14,638,-0.0303955,-0.0531311,0.00236612,-0.000717721,0.00120624,0.00278188,-0.00113349,0.331926,0.00232636,0.0116126,1210,386,-0.0304361,0.053146
-7,638,-0.0302734,-0.0865173,0.00221177,-0.000483121,0.000998529,0.00254143,-0.000812776,0.318875,0.00202046,0.0163127,1217,386,-0.0302664,0.0865077
0,638,-0.0239258,-0.0595398,0.00217942,-0.000204022,0.000854471,0.0024541,-0.000478698,0.311024,0.00181678,0.0267966,1224,386,-0.0238723,0.0595404
7,638,-0.0135498,-0.0732422,0.00216775,9.35916e-05,0.000741015,0.00240528,-0.000143941,0.310202,0.00165359,0.0217765,1231,386,-0.0135852,0.0732527
14,638,-0.0136719,-0.073761,0.00209018,0.000391033,0.000625966,0.00229588,0.000185329,0.3175,0.0014727,0.0120405,1238,386,-0.0137307,0.0737589
21,638,-0.024292,-0.0654297,0.00192884,0.000733611,0.000534777,0.00213318,0.000529272,0.364981,0.00128263,0.0106017,1245,386,-0.0242313,0.0654358
28,638,-0.0412598,-0.0726013,0.00174594,0.000788829,0.000396103,0.0018886,0.000646165,0.345704,0.00110835,0.00871494,1252,386,-0.041308,0.0725883
35,638,-0.0379639,-0.0704651,0.00158353,0.000558354,0.000202323,0.00162201,0.000519869,0.187969,0.000956372,0.010127,1259,386,-0.0379157,0.0704506
42,638,-0.020874,-0.0795898,0.0017298,0.000216142,5.89583e-05,0.00173209,0.000213849,0.0388723,0.00109046,0.00955624,1266,386,-0.0208807,0.0795863
49,638,-0.0148926,-0.0848999,0.00190602,0.000458992,-0.000104396,0.00191351,0.000451499,-0.0716505,0.00115498,0.00784333,1273,386,-0.0149012,0.0849086
56,638,-0.026123,-0.0661926,0.00182066,0.000397768,-0.00015498,0.00183734,0.000381083,-0.107244,0.0011197,0.0101099,1280,386,-0.0260955,0.0661934
63,638,-0.019165,-0.0555115,0.00186499,0.000209178,-0.000640641,0.00208391,-9.74361e-06,-0.329283,0.00139253,0.0119147,1287,386,-0.0191142,0.0555056
70,638,-0.000732422,-0.0646362,0.00201505,-3.06018e-05,-0.00140388,0.00272919,-0.000744742,-0.470576,0.00211194,0.0146074,1294,386,-0.000730728,0.0646281
77,638,-0.0112305,-0.067749,0.00208682,-0.000147968,-0.00201422,0.00327283,-0.00133398,-0.532156,0.00273713,0.0149875,1301,386,-0.0112292,0.0677549
84,638,-0.036377,-0.0643005,0.00204883,-0.000287966,-0.00263255,0.00376062,-0.00199975,-0.576543,0.00337715,0.0111168,1308,386,-0.0363276,0.0643148
91,638,-0.0437012,-0.0679932,0.00188804,-0.000334703,-0.00326046,0.00422134,-0.00266801,-0.621142,0.00401112,0.0120925,1315,386,-0.0437121,0.0679985
98,638,-0.036377,-0.0702209,0.00164158,-0.000408434,-0.00376889,0.00452236,-0.00328921,-0.652626,0.0045287,0.0111373,1322,386,-0.0364226,0.0702134
105,638,-0.0203857,-0.0623779,0.00144512,-0.000415278,-0.00413907,0.00475723,-0.00372738,-0.674866,0.0049106,0.00865907,1329,386,-0.0203782,0.0623802
112,638,-0.00646973,-0.053009,0.00123546,-0.000333665,-0.00428879,0.00481086,-0.00390907,-0.694932,0.00504342,0.00897648,1336,386,-0.00646964,0.0530031
119,638,-0.0205078,-0.0856323,0.000992881,-0.000259302,-0.0042022,0.00461538,-0.0038818,-0.711447,0.00491194,0.0106984,1343,386,-0.0205274,0.0856267
126,638,-0.0341797,-0.0843811,0.000894758,-0.000132697,-0.00389018,0.00430498,-0.00354292,-0.719749,0.00453811,0.0141516,1350,386,-0.0342013,0.0843689
133,638,-0.03479,-0.0710144,0.000817932,-3.06621e-05,-0.00342096,0.00384081,-0.00305354,-0.723699,0.0039891,0.0147,1357,386,-0.0348408,0.0710074
140,638,-0.0323486,-0.0561523,0.000715135,0.000310592,-0.00285202,0.00337205,-0.00234632,-0.749996,0.00331916,0.0152509,1364,386,-0.0323267,0.0561426
147,638,-0.0292969,-0.0310059,0.0003404,0.000722605,-0.0023152,0.00285457,-0.00179157,-0.826576,0.00270575,0.0168242,1371,386,-0.0293401,0.03102
154,638,-0.0228271,-0.0531616,9.89295e-05,0.000574043,-0.00182431,0.0021762,-0.00150322,-0.850143,0.00213613,0.0143751,1378,386,-0.0228207,0.0531592
161,638,-0.0236816,-0.0619202,7.08572e-05,0.000865122,-0.00145476,0.00197598,-0.00104001,-0.918645,0.00176901,0.0168268,1385,386,-0.0236714,0.061915
168,638,-0.0020752,-0.0575562,-9.16066e-05,0.0012031,-0.000873554,0.00164302,-0.000531527,-1.10427,0.001309,0.0214972,1392,386,-0.00208319,0.0575598
175,638,0.0189209,-0.0441284,-7.29115e-05,0.00154804,-0.000491506,0.00168543,-0.000210301,-1.29823,0.00119988,0.0179668,1399,386,0.0189228,0.0441219
182,638,-0.00939941,-0.0539551,0.000205527,0.00174151,-0.000446891,0.00186207,8.49677e-05,-1.3073,0.00121405,0.012375,1406,386,-0.00940213,0.0539536
189,638,-0.0269775,-0.0805054,0.000524157,0.00200478,-0.000295076,0.00206142,0.000467518,-1.38115,0.00124798,0.0107692,1413,386,-0.0269975,0.0804944
196,638,-0.0404053,-0.0884399,0.000511336,0.00203301,-0.000262892,0.00207714,0.000467197,-1.40445,0.00125828,0.0137089,1420,386,-0.0404388,0.0884307
203,638,-0.0360107,-0.0870361,0.000645794,0.00190327,-4.13464e-05,0.00190463,0.000644436,-1.53796,0.00111863,0.0190321,1427,386,-0.0359822,0.0870397
210,638,-0.00769043,-0.0857849,0.000647338,0.00162922,0.000332623,0.00173129,0.000545269,1.27306,0.00102213,0.0148539,1434,386,-0.00764579,0.0857798
217,638,-0.026001,-0.0908508,0.000418036,0.00125115,0.000674064,0.00162698,4.22033e-05,1.06217,0.00107087,0.0106135,1441,386,-0.026009,0.0908565
224,638,-0.0291748,-0.0639038,0.000119139,0.000860625,0.000978253,0.00153603,-0.000556268,0.966528,0.00125136,0.00982878,1448,386,-0.0291902,0.0638992
231,638,-0.0374756,-0.036377,-0.000415248,0.000388951,0.00125969,0.00130916,-0.00133546,0.939889,0.0015269,0.0100867,1455,386,-0.0374989,0.0363637
238,638,-0.0477295,-0.0505066,-0.00122562,-0.00010752,0.00147255,0.000908531,-0.00224167,0.966818,0.00187227,0.0111897,1462,386,-0.0477589,0.0505049
245,638,-0.0361328,-0.0600891,-0.00206012,-0.000492282,0.00158708,0.000493928,-0.00304633,1.01479,0.00221397,0.0132875,1469,386,-0.0361787,0.0600937
252,638,-0.0356445,-0.0552673,-0.00298911,-0.00104978,0.00172726,-3.86145e-05,-0.00400027,1.04117,0.00265407,0.0142065,1476,386,-0.0356163,0.0552659
259,638,-0.0286865,-0.065094,-0.00431682,-0.00137332,0.00160362,-0.000668459,-0.00502168,1.15667,0.00314871,0.0128909,1483,386,-0.0287395,0.0651079
266,638,-0.0333252,-0.067688,-0.00552561,-0.00198129,0.0011392,-0.00164672,-0.00586018,1.28514,0.00348988,0.00967263,1490,386,-0.0333643,0.0676729
273,638,-0.0257568,-0.0725098,-0.00644603,-0.00258134,0.000610906,-0.00248707,-0.0065403,1.41769,0.00381196,0.00894403,1497,386,-0.0257961,0.0725182
280,638,0.0163574,-0.0886536,-0.00738359,-0.00302682,9.26812e-05,-0.00302485,-0.00738556,1.54954,0.00428724,0.0132904,1504,386,0.0163632,0.0886621
287,638,0.104248,-0.119507,-0.00816348,-0.00387028,-0.000600347,-0.00378791,-0.00824585,-1.43444,0.00476598,0.0225437,1511,386,0.104239,0.119504
294,638,0.124634,-0.135803,-0.00873514,-0.00409346,-0.00121066,-0.00379667,-0.00903193,-1.33039,0.00523659,0.0290817,1518,386,0.124656,0.1358
301,638,0.0765381,-0.1026,-0.0091532,-0.0037622,-0.00110963,-0.00354274,-0.00937266,-1.37554,0.00546475,0.0363935,1525,386,0.0765232,0.102587
308,638,0.0476074,-0.0578003,-0.0095032,-0.00338364,-0.00114735,-0.0031756,-0.00971124,-1.39142,0.00571756,0.0392126,1532,386,0.0476264,0.0577875
315,638,-0.14209,-0.246887,-0.00933611,-0.00287772,-0.000998554,-0.00272685,-0.00948697,-1.42085,0.00563989,0.0397283,1539,386,-0.142113,0.246891
322,638,-0.186646,-0.228912,-0.00908238,-0.00185196,-0.000327052,-0.00183719,-0.00909714,-1.52569,0.00555458,0.0429761,1546,386,-0.186641,0.228908
329,638,-0.324097,-0.305511,-0.00865802,-0.00046559,0.000732707,-0.000400575,-0.00872304,1.4823,0.00568654,0.0421894,1553,386,-0.324044,0.305523
336,638,-0.437622,-0.263092,-0.00841395,0.00108431,0.00229137,0.00160819,-0.00893782,1.34603,0.00656065,0.041001,1560,386,-0.437638,0.263102
343,638,-0.517456,-0.417023,-0.00866279,0.00329219,0.00415989,0.00459722,-0.00996782,1.2668,0.00859757,0.0422198,1567,386,-0.517507,0.417037
350,638,-0.730591,-0.43515,-0.00893833,0.00514665,0.00573216,0.00718459,-0.0109763,1.2292,0.0105611,0.045202,1574,386,-0.730651,0.435136
357,638,-0.946533,-0.439667,-0.00951937,0.00743371,0.00624325,0.00948475,-0.0115704,1.25338,0.0121761,0.0480299,1581,386,-0.946584,0.439661
364,638,-0.17981,-0.610504,-0.010171,0.00879652,0.00698879,0.0110935,-0.012468,1.25326,0.0136109,0.0472228,1588,386,-0.179758,0.610504
371,638,0.151489,-0.471252,0,0,0,0,0,0,0,-1,1595,386,0.15154,0.471259
378,638,0.349854,-0.241791,0,0,0,0,0,0,0,-1,1602,386,0.349853,0.241798
385,638,0,0,0,0,0,0,0,0,0,-1,1609,386,0,0
392,638,0,0,0,0,0,0,0,0,0,-1,1616,386,0,0
399,638,0,0,0,0,0,0,0,0,0,-1,1623,386,0,0
406,638,0,0,0,0,0,0,0,0,0,-1,1630,386,0,0
413,638,0,0,0,0,0,0,0,0,0,-1,1637,386,0,0
420,638,0,0,0,0,0,0,0,0,0,-1,1644,386,0,0
427,638,0,0,0,0,0,0,0,0,0,-1,1651,386,0,0
434,638,0,0,0,0,0,0,0,0,0,-1,1658,386,0,0
441,638,0,0,0,0,0,0,0,0,0,-1,1665,386,0,0
448,638,0,0,0,0,0,0,0,0,0,-1,1672,386,0,0
455,638,0,0,0,0,0,0,0,0,0,-1,1679,386,0,0
462,638,0,0,0,0,0,0,0,0,0,-1,1686,386,0,0
469,638,0,0,0,0,0,0,0,0,0,-1,1693,386,0,0
476,638,0,0,0,0,0,0,0,0,0,-1,1700,386,0,0
483,638,0,0,0,0,0,0,0,0,0,-1,1707,386,0,0
490,638,0,0,0,0,0,0,0,0,0,-1,1714,386,0,0
497,638,0,0,0,0,0,0,0,0,0,-1,1721,386,0,0
504,638,0,0,0,0,0,0,0,0,0,-1,1728,386,0,0
511,638,0,0,0,0,0,0,0,0,0,-1,1735,386,0,0
518,638,0,0,0,0,0,0,0,0,0,-1,1742,386,0,0
525,638,0,0,0,0,0,0,0,0,0,-1,1749,386,0,0
532,638,0,0,0,0,0,0,0,0,0,-1,1756,386,0,0
539,638,0,0,0,0,0,0,0,0,0,-1,1763,386,0,0
546,638,0,0,0,0,0,0,0,0,0,-1,1770,386,0,0
553,638,0,0,0,0,0,0,0,0,0,-1,1777,386,0,0
560,638,0,0,0,0,0,0,0,0,0,-1,1784,386,0,0
567,638,0,0,0,0,0,0,0,0,0,-1,1791,386,0,0
574,638,0,0,0,0,0,0,0,0,0,-1,1798,386,0,0
581,638,0,0,0,0,0,0,0,0,0,-1,1805,386,0,0
588,638,0,0,0,0,0,0,0,0,0,-1,1812,386,0,0
595,638,0,0,0,0,0,0,0,0,0,-1,1819,386,0,0
602,638,0,0,0,0,0,0,0,0,0,-1,1826,386,0,0
609,638,0,0,0,0,0,0,0,0,0,-1,1833,386,0,0
616,638,0,0,0,0,0,0,0,0,0,-1,1840,386,0,0
623,638,0,0,0,0,0,0,0,0,0,-1,1847,386,0,0
630,638,0,0,0,0,0,0,0,0,0,-1,1854,386,0,0
637,638,0,0,0,0,0,0,0,0,0,-1,1861,386,0,0
644,638,0,0,0,0,0,0,0,0,0,-1,1868,386,0,0
651,638,0,0,0,0,0,0,0,0,0,-1,1875,386,0,0
658,638,0,0,0,0,0,0,0,0,0,-1,1882,386,0,0
665,638,0,0,0,0,0,0,0,0,0,-1,1889,386,0,0
672,638,0,0,0,0,0,0,0,0,0,-1,1896,386,0,0
679,638,0,0,0,0,0,0,0,0,0,-1,1903,386,0,0
686,638,0,0,0,0,0,0,0,0,0,-1,1910,386,0,0
693,638,0,0,0,0,0,0,0,0,0,-1,1917,386,0,0
700,638,0,0,0,0,0,0,0,0,0,-1,1924,386,0,0
707,638,0,0,0,0,0,0,0,0,0,-1,1931,386,0,0
714,638,0,0,0,0,0,0,0,0,0,-1,1938,386,0,0
721,638,0,0,0,0,0,0,0,0,0,-1,1945,386,0,0
728,638,0,0,0,0,0,0,0,0,0,-1,1952,386,0,0
735,638,0,0,0,0,0,0,0,0,0,-1,1959,386,0,0
742,638,0,0,0,0,0,0,0,0,0,-1,1966,386,0,0
749,638,0,0,0,0,0,0,0,0,0,-1,1973,386,0,0
756,638,0,0,0,0,0,0,0,0,0,-1,1980,386,0,0
763,638,0,0,0,0,0,0,0,0,0,-1,1987,386,0,0
770,638,0,0,0,0,0,0,0,0,0,-1,1994,386,0,0
777,638,0,0,0,0,0,0,0,0,0,-1,2001,386,0,0
784,638,0,0,0,0,0,0,0,0,0,-1,2008,386,0,0
791,638,0,0,0,0,0,0,0,0,0,-1,2015,386,0,0
798,638,0,0,0,0,0,0,0,0,0,-1,2022,386,0,0
805,638,0,0,0,0,0,0,0,0,0,-1,2029,386,0,0
812,638,0,0,0,0,0,0,0,0,0,-1,2036,386,0,0
-700,631,0,0,0,0,0,0,0,0,0,-1,524,393,0,0
-693,631,0,0,0,0,0,0,0,0,0,-1,531,393,0,0
-686,631,0,0,0,0,0,0,0,0,0,-1,538,393,0,0
-679,631,0,0,0,0,0,0,0,0,0,-1,545,393,0,0
-672,631,0,0,0,0,0,0,0,0,0,-1,552,393,0,0
-665,631,0,0,0,0,0,0,0,0,0,-1,559,393,0,0
-658,631,0,0,0,0,0,0,0,0,0,-1,566,393,0,0
-651,631,0,0,0,0,0,0,0,0,0,-1,573,393,0,0
-644,631,0,0,0,0,0,0,0,0,0,-1,580,393,0,0
-637,631,0,0,0,0,0,0,0,0,0,-1,587,393,0,0
-630,631,0,0,0,0,0,0,0,0,0,-1,594,393,0,0
-623,631,0,0,0,0,0,0,0,0,0,-1,601,393,0,0
-616,631,0,0,0,0,0,0,0,0,0,-1,608,393,0,0
-609,631,0,0,0,0,0,0,0,0,0,-1,615,393,0,0
-602,631,0,0,0,0,0,0,0,0,0,-1,622,393,0,0
-595,631,0,0,0,0,0,0,0,0,0,-1,629,393,0,0
-588,631,0,0,0,0,0,0,0,0,0,-1,636,393,0,0
-581,631,0,0,0,0,0,0,0,0,0,-1,643,393,0,0
-574,631,0,0,0,0,0,0,0,0,0,-1,650,393,0,0
-567,631,0,0,0,0,0,0,0,0,0,-1,657,393,0,0
-560,631,0,0,0,0,0,0,0,0,0,-1,664,393,0,0
-553,631,0,0,0,0,0,0,0,0,0,-1,671,393,0,0
-546,631,0,0,0,0,0,0,0,0,0,-1,678,393,0,0
-539,631,0,0,0,0,0,0,0,0,0,-1,685,393,0,0
-532,631,0,0,0,0,0,0,0,0,0,-1,692,393,0,0
-525,631,0,0,0,0,0,0,0,0,0,-1,699,393,0,0
-518,631,0,0,0,0,0,0,0,0,0,-1,706,393,0,0
-511,631,0,0,0,0,0,0,0,0,0,-1,713,393,0,0
-504,631,0,0,0,0,0,0,0,0,0,-1,720,393,0,0
-497,631,0,0,0,0,0,0,0,0,0,-1,727,393,0,0
-490,631,0,0,0,0,0,0,0,0,0,-1,734,393,0,0
-483,631,0,0,0,0,0,0,0,0,0,-1,741,393,0,0
-476,631,0,0,0,0,0,0,0,0,0,-1,748,393,0,0
-469,631,0,0,0,0,0,0,0,0,0,-1,755,393,0,0
-462,631,0,0,0,0,0,0,0,0,0,-1,762,393,0,0
-455,631,0,0,0,0,0,0,0,0,0,-1,769,393,0,0
-448,631,0,0,0,0,0,0,0,0,0,-1,776,393,0,0
-441,631,0,0,0,0,0,0,0,0,0,-1,783,393,0,0
-434,631,0,0,0,0,0,0,0,0,0,-1,790,393,0,0
-427,631,0,0,0,0,0,0,0,0,0,-1,797,393,0,0
-420,631,0,0,0,0,0,0,0,0,0,-1,804,393,0,0
-413,631,0,0,0,0,0,0,0,0,0,-1,811,393,0,0
-406,631,0,0,0,0,0,0,0,0,0,-1,818,393,0,0
-399,631,0,0,0,0,0,0,0,0,0,-1,825,393,0,0
-392,631,0,0,0,0,0,0,0,0,0,-1,832,393,0,0
-385,631,0,0,0,0,0,0,0,0,0,-1,839,393,0,0
-378,631,0,0,0,0,0,0,0,0,0,-1,846,393,0,0
-371,631,0,0,0,0,0,0,0,0,0,-1,853,393,0,0
-364,631,0,0,0,0,0,0,0,0,0,-1,860,393,0,0
-357,631,0,0,0,0,0,0,0,0,0,-1,867,393,0,0
-350,631,0,0,0,0,0,0,0,0,0,-1,874,393,0,0
-343,631,0,0,0,0,0,0,0,0,0,-1,881,393,0,0
-336,631,0,0,0,0,0,0,0,0,0,-1,888,393,0,0
-329,631,0,0,0,0,0,0,0,0,0,-1,895,393,0,0
-322,631,0,0,0,0,0,0,0,0,0,-1,902,393,0,0
-315,631,0,0,0,0,0,0,0,0,0,-1,909,393,0,0
-308,631,0,0,0,0,0,0,0,0,0,-1,916,393,0,0
-301,631,0,0,0,0,0,0,0,0,0,-1,923,393,0,0
-294,631,0,0,0,0,0,0,0,0,0,-1,930,393,0,0
-287,631,0,0,0,0,0,0,0,0,0,-1,937,393,0,0
-280,631,-0.950928,0.00881958,0,0,0,0,0,0,0,-1,944,393,-0.950905,-0.00882378
-273,631,-0.652527,-0.104736,0,0,0,0,0,0,0,-1,951,393,-0.652501,0.104733
-266,631,0.608765,0.247192,0,0,0,0,0,0,0,-1,958,393,0.608752,-0.247207
-259,631,0.574524,0.312927,-0.00525273,0.0139871,-0.0107689,0.0188071,-0.0100727,-1.14995,0.0169261,0.0474883,965,393,0.574549,-0.31292
-252,631,0.459106,0.253448,-0.00655902,0.00801068,-0.0081419,0.011651,-0.0101993,-1.15035,0.0126246,0.0425337,972,393,0.459109,-0.25345
-245,631,0.388123,0.220764,-0.00721076,0.00530778,-0.00601657,0.00773054,-0.00963352,-1.18798,0.0100452,0.0404669,979,393,0.388149,-0.220773
-238,631,0.308533,0.210724,-0.00724697,0.00218729,-0.00453629,0.00401456,-0.00907424,-1.18787,0.00774274,0.0468052,986,393,0.308524,-0.210731
-231,631,-0.120728,0.298248,-0.00676336,0.000203926,-0.00383253,0.00189948,-0.00845891,-1.15427,0.00636758,0.0464458,993,393,-0.120721,-0.298242
-224,631,-0.0427856,0.204529,-0.00639011,-0.00121829,-0.00330339,0.000390955,-0.00799935,-1.11748,0.00546788,0.0435238,1000,393,-0.0428037,-0.204536
-217,631,-0.0395508,0.0635376,-0.0061535,-0.00185523,-0.0029383,-0.000363979,-0.00764475,-1.10115,0.00497961,0.0412546,1007,393,-0.0395774,-0.0635394
-210,631,-0.182007,-0.0666199,-0.00560369,-0.00231169,-0.00263098,-0.000854243,-0.00706114,-1.06492,0.00445009,0.0428096,1014,393,-0.181994,0.0666217
-203,631,-0.0637207,-0.361755,-0.00502363,-0.00223232,-0.00220017,-0.00102248,-0.00623346,-1.06804,0.00386022,0.0447538,1021,393,-0.0637332,0.361765
-196,631,0.270264,-0.414673,-0.00484096,-0.00195726,-0.00186203,-0.0010441,-0.00575412,-1.11485,0.00353975,0.0448871,1028,393,0.270204,0.414662
-189,631,0.489258,-0.412628,-0.00444213,-0.00183994,-0.0016997,-0.00100051,-0.00528156,-1.11207,0.00323945,0.0411954,1035,393,0.489235,0.412629
-182,631,0.0625,-0.244873,-0.00388721,-0.00147937,-0.00156268,-0.000710631,-0.00465595,-1.11362,0.0028963,0.0399024,1042,393,0.0625295,0.244883
-175,631,0.0375977,-0.174835,-0.00373348,-0.000976594,-0.00132597,-0.000442368,-0.0042677,-1.1878,0.00270974,0.0317739,1049,393,0.0375817,0.174824
-168,631,-0.0172119,-0.0609436,-0.0038029,-0.000642146,-0.000900789,-0.000403453,-0.00404159,-1.31177,0.00257048,0.0160402,1056,393,-0.0171854,0.0609457
-161,631,-0.0335693,-0.072052,-0.00337911,-0.000184894,-0.000622052,-6.80293e-05,-0.00349597,-1.38509,0.00230831,0.00804634,1063,393,-0.0336039,0.072061
-154,631,-0.0385742,-0.0762329,-0.00281017,-8.85992e-05,-0.000503526,1.57196e-06,-0.00290034,-1.39359,0.00193409,0.00792324,1070,393,-0.038524,0.0762317
-147,631,-0.0227051,-0.0791931,-0.00242716,-0.000181592,-0.000383976,-0.00011775,-0.002491,-1.40604,0.00162284,0.00927189,1077,393,-0.0227147,0.0792065
-140,631,-0.0180664,-0.0890198,-0.00208431,-0.000685446,-0.000403482,-0.000577411,-0.00219234,-1.30918,0.00131215,0.00938571,1084,393,-0.0180079,0.0890051
-133,631,-0.0203857,-0.0889282,-0.00134257,-0.00061052,-0.000351544,-0.000469043,-0.00148404,-1.18819,0.000875927,0.00820152,1091,393,-0.0204099,0.0889231
-126,631,-0.000244141,-0.0619202,-0.000813406,-0.000746294,-7.69629e-05,-0.00069589,-0.00086381,-0.990975,0.000528862,0.0123751,1098,393,-0.000241181,0.0619264
-119,631,-0.0032959,-0.0470276,-0.000446457,-0.00073247,0.000117236,-0.000404545,-0.000774382,0.343347,0.00044724,0.0151554,1105,393,-0.00332025,0.0470369
-112,631,-0.0334473,-0.0582886,-9.18493e-06,-0.000757768,0.000477989,0.000223622,-0.000990574,0.453237,0.000746178,0.0125817,1112,393,-0.0334482,0.0583038
-105,631,-0.000732422,-0.0625916,0.000135413,-0.000665044,0.000798593,0.000628456,-0.00115809,0.553108,0.00104646,0.0163303,1119,393,-0.000719892,0.0625974
-98,631,-0.00476074,-0.0793152,0.000223998,-0.000622919,0.00102918,0.000913429,-0.00131235,0.590228,0.00129192,0.0157867,1126,393,-0.00471313,0.0793177
-91,631,-0.0306396,-0.0840759,0.000309859,-0.000677207,0.00116622,0.00108267,-0.00145002,0.585229,0.00146737,0.0160974,1133,393,-0.0306507,0.0840911
-84,631,-0.0327148,-0.0753174,0.000263991,-0.000925163,0.0012897,0.00108957,-0.00175075,0.569409,0.0016546,0.0141948,1140,393,-0.0327251,0.0753188
-77,631,-0.024292,-0.0799561,0.000213413,-0.000974883,0.00133644,0.00108182,-0.00184329,0.576231,0.00170778,0.00889248,1147,393,-0.0242517,0.0799642
-70,631,-0.00915527,-0.0706177,0.000138806,-0.000931447,0.00139827,0.00110085,-0.00189349,0.602644,0.00174886,0.00989028,1154,393,-0.0092052,0.0706036
-63,631,-0.0129395,-0.0695496,0.000118929,-0.00113233,0.00150056,0.00111905,-0.00213246,0.587889,0.00190741,0.00914561,1161,393,-0.0128969,0.0695359
-56,631,-0.0131836,-0.0780334,0.000204541,-0.00140458,0.00157153,0.00116549,-0.00236553,0.548814,0.00207751,0.0107703,1168,393,-0.0132409,0.0780367
-49,631,-0.0209961,-0.0791321,0.000435821,-0.00185908,0.00155304,0.00121932,-0.00264258,0.467238,0.00227959,0.0104169,1175,393,-0.0209786,0.079134
-42,631,-0.0389404,-0.0730896,0.000810601,-0.00215096,0.00130714,0.001305,-0.00264536,0.361598,0.00232409,0.008315,1182,393,-0.038922,0.0730914
-35,631,-0.0246582,-0.0700989,0.00101507,-0.00240764,0.00118395,0.00138469,-0.00277726,0.302608,0.00244733,0.00916971,1189,393,-0.0246642,0.0700957
-28,631,-0.0308838,-0.0596619,0.00113701,-0.00261507,0.000998916,0.00138638,-0.00286444,0.244639,0.00250317,0.0119111,1196,393,-0.0308874,0.0596612
-21,631,-0.0456543,-0.0735168,0.00134491,-0.00263695,0.000823483,0.00150849,-0.00280053,0.196095,0.00252482,0.0115214,1203,393,-0.0456823,0.0735264
-14,631,-0.0527344,-0.087616,0.00156162,-0.00251004,0.00069724,0.00167771,-0.00262613,0.164982,0.00250485,0.0136838,1210,393,-0.0526984,0.0876194
-7,631,-0.0327148,-0.0953369,0.00168417,-0.00210599,0.000491076,0.00174676,-0.00216858,0.126777,0.0022649,0.0194523,1217,393,-0.0327326,0.0953309
0,631,-0.0335693,-0.0905762,0.00190385,-0.00160909,0.000392236,0.00194712,-0.00165235,0.109852,0.00208048,0.0191146,1224,393,-0.0335314,0.0905873
7,631,-0.0386963,-0.0849609,0.00215068,-0.00105942,0.00040414,0.00220078,-0.00110952,0.123333,0.00194551,0.0163897,1231,393,-0.0387086,0.0849696
14,631,-0.0429688,-0.0776978,0.00235479,-0.000533908,0.00054143,0.00245294,-0.000632054,0.179324,0.0018817,0.00995404,1238,393,-0.0429901,0.0776833
21,631,-0.0377197,-0.0703735,0.00246588,9.45542e-05,0.000767761,0.00269275,-0.000132318,0.287321,0.00184086,0.0123128,1245,393,-0.0377606,0.0703877
28,631,-0.0389404,-0.0683289,0.00257049,0.000494759,0.000948379,0.00293853,0.000126712,0.370188,0.00191818,0.0138794,1252,393,-0.0389202,0.0683328
35,631,-0.0107422,-0.0526733,0.00255567,0.000344973,0.000939228,0.00290082,-1.76486e-07,0.352164,0.00193394,0.0126471,1259,393,-0.0107633,0.0526818
42,631,-0.00488281,-0.0702515,0.00291024,0.000149837,0.000972592,0.0032185,-0.000158419,0.306928,0.00220037,0.0111399,1266,393,-0.00483146,0.070252
49,631,-0.0201416,-0.0805359,0.00332142,-6.13447e-05,0.000884932,0.00353894,-0.000278857,0.241018,0.00245752,0.0100024,1273,393,-0.0201654,0.0805215
56,631,-0.0310059,-0.0630493,0.00330123,-0.000282926,0.000723709,0.00344185,-0.00042354,0.191905,0.00244799,0.0117308,1280,393,-0.0309695,0.0630506
63,631,-0.0285645,-0.0631104,0.00335974,-0.000871606,1.15526e-05,0.00335977,-0.000871637,0.00273021,0.00257995,0.013182,1287,393,-0.0285184,0.0631077
70,631,-0.0152588,-0.0561829,0.00350863,-0.00154403,-0.00123786,0.0037956,-0.001831,-0.227802,0.00331386,0.0124465,1294,393,-0.0152528,0.056185
77,631,-0.0178223,-0.0769043,0.00350988,-0.00206955,-0.00236744,0.00437903,-0.0029387,-0.35185,0.00425209,0.0121451,1301,393,-0.0177896,0.0768935
84,631,-0.0341797,-0.0787964,0.003433,-0.00257792,-0.00350418,0.00504404,-0.00418896,-0.43093,0.00533829,0.0104336,1308,393,-0.0341752,0.0787994
91,631,-0.0338135,-0.0739136,0.00314583,-0.00291315,-0.00462893,0.0056485,-0.00541582,-0.495643,0.00638846,0.0127488,1315,393,-0.033828,0.0739062
98,631,-0.0327148,-0.0757446,0.00268431,-0.00318048,-0.00559321,0.00606721,-0.00656339,-0.543958,0.00729416,0.0116269,1322,393,-0.0327512,0.0757324
105,631,-0.0217285,-0.0725403,0.00219581,-0.00317664,-0.00628684,0.00634627,-0.0073271,-0.583499,0.00790109,0.00992505,1329,393,-0.0217864,0.0725306
112,631,-0.00598145,-0.0568237,0.00166615,-0.0029519,-0.00662253,0.00637064,-0.0076564,-0.617657,0.00810985,0.0102551,1336,393,-0.00597511,0.0568197
119,631,-0.0300293,-0.0882568,0.00108459,-0.00264527,-0.00659104,0.00606947,-0.00763015,-0.647527,0.00792656,0.0109488,1343,393,-0.0300686,0.0882455
126,631,-0.0367432,-0.0924988,0.000789306,-0.00224972,-0.00617131,0.00562542,-0.00708583,-0.664688,0.00735497,0.0153899,1350,393,-0.0368036,0.0925018
133,631,-0.0217285,-0.0742188,0.000571401,-0.00193084,-0.00552898,0.00498905,-0.00634848,-0.67413,0.00656139,0.0164314,1357,393,-0.0217669,0.0742165
140,631,0.00134277,-0.0668335,0.000412625,-0.00126834,-0.00471117,0.0043577,-0.00521342,-0.697126,0.00553324,0.0178399,1364,393,0.00130989,0.0668346
147,631,0.00158691,-0.0545349,0.00012407,-0.000449718,-0.00376222,0.00361032,-0.00393597,-0.747344,0.0043582,0.02058,1371,393,0.00164262,0.0545363
154,631,-0.03125,-0.0296021,-2.71844e-05,-0.000139288,-0.00283615,0.00275347,-0.00291994,-0.775518,0.00327601,0.0192139,1378,393,-0.0312812,0.0296087
161,631,-0.0367432,-0.0714417,0.000146996,0.000263432,-0.00204981,0.00225585,-0.00184542,-0.799595,0.00237182,0.0214562,1385,393,-0.0367913,0.0714311
168,631,0.00683594,-0.0690308,0.000291179,0.000797566,-0.00113013,0.00170252,-0.000613774,-0.895598,0.00138568,0.0261575,1392,393,0.00687219,0.0690397
175,631,0.0115967,-0.0504761,0.000563261,0.0012487,-0.000443201,0.00146624,0.000345727,-1.11452,0.00088505,0.0199355,1399,393,0.0115892,0.050461
182,631,-0.00756836,-0.0563354,0.000907572,0.00155655,-0.000195787,0.00161104,0.000853081,-1.29935,0.000930675,0.0109065,1406,393,-0.00752665,0.0563402
189,631,-0.00390625,-0.0546265,0.00111887,0.00186568,2.75214e-05,0.00186669,0.00111786,1.53401,0.00108473,0.00988756,1413,393,-0.00388478,0.0546292
196,631,-0.0285645,-0.0737,0.00119018,0.00199622,0.00016198,0.00202755,0.00115885,1.37972,0.0011746,0.0105989,1420,393,-0.0285825,0.0737031
203,631,-0.0255127,-0.0808105,0.00139556,0.00199687,0.00038167,0.00218208,0.00121035,1.11901,0.00126233,0.012679,1427,393,-0.0255507,0.0808011
210,631,-0.0211182,-0.0863647,0.00142669,0.001811,0.00065578,0.0023022,0.000935495,0.927916,0.00133692,0.0138951,1434,393,-0.0210903,0.086361
217,631,-0.0258789,-0.078064,0.0012963,0.0015119,0.000898842,0.00230938,0.000498818,0.845078,0.00140319,0.0147127,1441,393,-0.0258854,0.0780528
224,631,-0.0505371,-0.0687256,0.00114644,0.00120057,0.00109969,0.00227353,7.34823e-05,0.797701,0.0014918,0.012253,1448,393,-0.0505763,0.0687202
231,631,-0.0522461,-0.0381165,0.000814519,0.000775739,0.0012697,0.00206498,-0.000474723,0.777763,0.00155917,0.0106861,1455,393,-0.0522142,0.0381092
238,631,-0.0454102,-0.0486755,0.00026128,0.00033587,0.0013824,0.00168147,-0.00108432,0.798884,0.00160919,0.0156272,1462,393,-0.0454011,0.0486638
245,631,-0.0423584,-0.0682983,-0.000336082,-6.50836e-05,0.00140189,0.00120784,-0.00160901,0.833576,0.0016318,0.0178761,1469,393,-0.0422994,0.0682849
252,631,-0.0428467,-0.068512,-0.001087,-0.000693663,0.00137997,0.000503581,-0.00228424,0.856179,0.0017155,0.0177725,1476,393,-0.0428906,0.0685136
259,631,-0.0354004,-0.0759277,-0.00209864,-0.000985026,0.00125239,-0.000171245,-0.00291242,0.994573,0.00188712,0.0118345,1483,393,-0.0353851,0.075922
266,631,-0.0256348,-0.0825195,-0.00300223,-0.00153713,0.000869387,-0.00113281,-0.00340654,1.13549,0.0020032,0.0105934,1490,393,-0.0256544,0.082522
273,631,-0.0341797,-0.0466003,-0.00376283,-0.00209936,0.000432714,-0.00199353,-0.00386866,1.33094,0.00223392,0.0122755,1497,393,-0.0341526,0.0465892
280,631,-0.0266113,-0.0498352,-0.00455423,-0.00254225,-5.72498e-06,-0.00254223,-0.00455425,-1.56795,0.00263533,0.00966639,1504,393,-0.0266652,0.0498491
287,631,0.0012207,-0.0817261,-0.00527309,-0.00331923,-0.00060917,-0.00314486,-0.00544745,-1.29202,0.00315759,0.0102234,1511,393,0.00123273,0.0817315
294,631,-0.00622559,-0.0887756,-0.0059535,-0.00356969,-0.00118499,-0.00308087,-0.00644232,-1.17955,0.00372065,0.0132988,1518,393,-0.00621173,0.0887698
301,631,-0.0393066,-0.0798035,-0.00668282,-0.0033899,-0.00121635,-0.00298933,-0.00708339,-1.25266,0.00410614,0.0197913,1525,393,-0.0392718,0.0798046
308,631,-0.0375977,-0.058197,-0.00726672,-0.00318003,-0.00135472,-0.00277174,-0.00767502,-1.27807,0.00448777,0.0276615,1532,393,-0.0375834,0.0581897
315,631,0.0239258,-0.0197144,-0.00728404,-0.00287834,-0.00133542,-0.00250517,-0.00765721,-1.2983,0.00450808,0.0320229,1539,393,0.0239651,0.0197107
322,631,0.00390625,-0.0749207,-0.00725293,-0.00213841,-0.000947415,-0.00196856,-0.00742279,-1.39339,0.00444026,0.0371707,1546,393,0.00393408,0.074919
329,631,-0.2948,-0.242462,-0.00704311,-0.00110954,-0.000321355,-0.00109219,-0.00706046,-1.51685,0.00438845,0.0407264,1553,393,-0.294824,0.24245
336,631,-0.522095,-0.271271,-0.00689532,-8.83075e-06,0.000755778,7.31386e-05,-0.00697729,1.46276,0.0046761,0.0391191,1560,393,-0.522102,0.271282
343,631,-0.725952,-0.66156,-0.00717225,0.00165763,0.00210676,0.00213453,-0.00764916,1.34818,0.00594019,0.0428633,1567,393,-0.725983,0.661551
350,631,-1.03259,-0.686493,-0.00728163,0.00302173,0.00312088,0.00389331,-0.00815321,1.29846,0.00709854,0.0474197,1574,393,-1.03263,0.686505
357,631,-0.86377,-0.377502,0,0,0,0,0,0,0,-1,1581,393,-0.863756,0.377501
364,631,-0.20105,-0.404327,0,0,0,0,0,0,0,-1,1588,393,-0.20104,0.404335
371,631,-0.0994873,0.0249634,0,0,0,0,0,0,0,-1,1595,393,-0.0994929,-0.0249709
378,631,0.476563,-0.306061,0,0,0,0,0,0,0,-1,1602,393,0.476573,0.306051
385,631,-0.0782471,-0.290619,-0.0120602,0.00278617,-0.000461812,0.00280052,-0.0120745,-1.53973,0.00912753,0.0424667,1609,393,-0.0782876,0.290626
392,631,-0.317627,0.0830383,-0.0134859,0.000950636,-0.00289588,0.00150987,-0.0140452,-1.38003,0.00990517,0.0417468,1616,393,-0.317589,-0.0830458
399,631,0,0,0,0,0,0,0,0,0,-1,1623,393,0,0
406,631,0,0,0,0,0,0,0,0,0,-1,1630,393,0,0
413,631,0,0,0,0,0,0,0,0,0,-1,1637,393,0,0
420,631,0,0,0,0,0,0,0,0,0,-1,1644,393,0,0
427,631,0,0,0,0,0,0,0,0,0,-1,1651,393,0,0
434,631,0,0,0,0,0,0,0,0,0,-1,1658,393,0,0
441,631,0,0,0,0,0,0,0,0,0,-1,1665,393,0,0
448,631,0,0,0,0,0,0,0,0,0,-1,1672,393,0,0
455,631,0,0,0,0,0,0,0,0,0,-1,1679,393,0,0
462,631,0,0,0,0,0,0,0,0,0,-1,1686,393,0,0
469,631,0,0,0,0,0,0,0,0,0,-1,1693,393,0,0
476,631,0,0,0,0,0,0,0,0,0,-1,1700,393,0,0
483,631,0,0,0,0,0,0,0,0,0,-1,1707,393,0,0
490,631,0,0,0,0,0,0,0,0,0,-1,1714,393,0,0
497,631,0,0,0,0,0,0,0,0,0,-1,1721,393,0,0
504,631,0,0,0,0,0,0,0,0,0,-1,1728,393,0,0
511,631,0,0,0,0,0,0,0,0,0,-1,1735,393,0,0
518,631,0,0,0,0,0,0,0,0,0,-1,1742,393,0,0
525,631,0,0,0,0,0,0,0,0,0,-1,1749,393,0,0
532,631,0,0,0,0,0,0,0,0,0,-1,1756,393,0,0
539,631,0,0,0,0,0,0,0,0,0,-1,1763,393,0,0
546,631,0,0,0,0,0,0,0,0,0,-1,1770,393,0,0
553,631,0,0,0,0,0,0,0,0,0,-1,1777,393,0,0
560,631,0,0,0,0,0,0,0,0,0,-1,1784,393,0,0
567,631,0,0,0,0,0,0,0,0,0,-1,1791,393,0,0
574,631,0,0,0,0,0,0,0,0,0,-1,1798,393,0,0
581,631,0,0,0,0,0,0,0,0,0,-1,1805,393,0,0
588,631,0,0,0,0,0,0,0,0,0,-1,1812,393,0,0
595,631,0,0,0,0,0,0,0,0,0,-1,1819,393,0,0
602,631,0,0,0,0,0,0,0,0,0,-1,1826,393,0,0
609,631,0,0,0,0,0,0,0,0,0,-1,1833,393,0,0
616,631,0,0,0,0,0,0,0,0,0,-1,1840,393,0,0
623,631,0,0,0,0,0,0,0,0,0,-1,1847,393,0,0
630,631,0,0,0,0,0,0,0,0,0,-1,1854,393,0,0
637,631,0,0,0,0,0,0,0,0,0,-1,1861,393,0,0
644,631,0,0,0,0,0,0,0,0,0,-1,1868,393,0,0
651,631,0,0,0,0,0,0,0,0,0,-1,1875,393,0,0
658,631,0,0,0,0,0,0,0,0,0,-1,1882,393,0,0
665,631,0,0,0,0,0,0,0,0,0,-1,1889,393,0,0
672,631,0,0,0,0,0,0,0,0,0,-1,1896,393,0,0
679,631,0,0,0,0,0,0,0,0,0,-1,1903,393,0,0
686,631,0,0,0,0,0,0,0,0,0,-1,1910,393,0,0
693,631,0,0,0,0,0,0,0,0,0,-1,1917,393,0,0
700,631,0,0,0,0,0,0,0,0,0,-1,1924,393,0,0
707,631,0,0,0,0,0,0,0,0,0,-1,1931,393,0,0
714,631,0,0,0,0,0,0,0,0,0,-1,1938,393,0,0
721,631,0,0,0,0,0,0,0,0,0,-1,1945,393,0,0
728,631,0,0,0,0,0,0,0,0,0,-1,1952,393,0,0
735,631,0,0,0,0,0,0,0,0,0,-1,1959,393,0,0
742,631,0,0,0,0,0,0,0,0,0,-1,1966,393,0,0
749,631,0,0,0,0,0,0,0,0,0,-1,1973,393,0,0
756,631,0,0,0,0,0,0,0,0,0,-1,1980,393,0,0
763,631,0,0,0,0,0,0,0,0,0,-1,1987,393,0,0
770,631,0,0,0,0,0,0,0,0,0,-1,1994,393,0,0
777,631,0,0,0,0,0,0,0,0,0,-1,2001,393,0,0
784,631,0,0,0,0,0,0,0,0,0,-1,2008,393,0,0
791,631,0,0,0,0,0,0,0,0,0,-1,2015,393,0,0
798,631,0,0,0,0,0,0,0,0,0,-1,2022,393,0,0
805,631,0,0,0,0,0,0,0,0,0,-1,2029,393,0,0
812,631,0,0,0,0,0,0,0,0,0,-1,2036,393,0,0
-700,624,0,0,0,0,0,0,0,0,0,-1,524,400,0,0
-693,624,0,0,0,0,0,0,0,0,0,-1,531,400,0,0
-686,624,0,0,0,0,0,0,0,0,0,-1,538,400,0,0
-679,624,0,0,0,0,0,0,0,0,0,-1,545,400,0,0
-672,624,0,0,0,0,0,0,0,0,0,-1,552,400,0,0
-665,624,0,0,0,0,0,0,0,0,0,-1,559,400,0,0
-658,624,0,0,0,0,0,0,0,0,0,-1,566,400,0,0
-651,624,0,0,0,0,0,0,0,0,0,-1,573,400,0,0
-644,624,0,0,0,0,0,0,0,0,0,-1,580,400,0,0
-637,624,0,0,0,0,0,0,0,0,0,-1,587,400,0,0
-630,624,0,0,0,0,0,0,0,0,0,-1,594,400,0,0
-623,624,0,0,0,0,0,0,0,0,0,-1,601,400,0,0
-616,624,0,0,0,0,0,0,0,0,0,-1,608,400,0,0
-609,624,0,0,0,0,0,0,0,0,0,-1,615,400,0,0
-602,624,0,0,0,0,0,0,0,0,0,-1,622,400,0,0
-595,624,0,0,0,0,0,0,0,0,0,-1,629,400,0,0
-588,624,0,0,0,0,0,0,0,0,0,-1,636,400,0,0
-581,624,0,0,0,0,0,0,0,0,0,-1,643,400,0,0
-574,624,0,0,0,0,0,0,0,0,0,-1,650,400,0,0
-567,624,0,0,0,0,0,0,0,0,0,-1,657,400,0,0
-560,624,0,0,0,0,0,0,0,0,0,-1,664,400,0,0
-553,624,0,0,0,0,0,0,0,0,0,-1,671,400,0,0
-546,624,0,0,0,0,0,0,0,0,0,-1,678,400,0,0
-539,624,0,0,0,0,0,0,0,0,0,-1,685,400,0,0
-532,624,0,0,0,0,0,0,0,0,0,-1,692,400,0,0
-525,624,0,0,0,0,0,0,0,0,0,-1,699,400,0,0
-518,624,0,0,0,0,0,0,0,0,0,-1,706,400,0,0
-511,624,0,0,0,0,0,0,0,0,0,-1,713,400,0,0
-504,624,0,0,0,0,0,0,0,0,0,-1,720,400,0,0
-497,624,0,0,0,0,0,0,0,0,0,-1,727,400,0,0
-490,624,0,0,0,0,0,0,0,0,0,-1,734,400,0,0
-483,624,0,0,0,0,0,0,0,0,0,-1,741,400,0,0
-476,624,0,0,0,0,0,0,0,0,0,-1,748,400,0,0
-469,624,0,0,0,0,0,0,0,0,0,-1,755,400,0,0
-462,624,0,0,0,0,0,0,0,0,0,-1,762,400,0,0
-455,624,0,0,0,0,0,0,0,0,0,-1,769,400,0,0
-448,624,0,0,0,0,0,0,0,0,0,-1,776,400,0,0
-441,624,0,0,0,0,0,0,0,0,0,-1,783,400,0,0
-434,624,0,0,0,0,0,0,0,0,0,-1,790,400,0,0
-427,624,0,0,0,0,0,0,0,0,0,-1,797,400,0,0
-420,624,0,0,0,0,0,0,0,0,0,-1,804,400,0,0
-413,624,0,0,0,0,0,0,0,0,0,-1,811,400,0,0
-406,624,0,0,0,0,0,0,0,0,0,-1,818,400,0,0
-399,624,0,0,0,0,0,0,0,0,0,-1,825,400,0,0
-392,624,0,0,0,0,0,0,0,0,0,-1,832,400,0,0
-385,624,0,0,0,0,0,0,0,0,0,-1,839,400,0,0
-378,624,0,0,0,0,0,0,0,0,0,-1,846,400,0,0
-371,624,0,0,0,0,0,0,0,0,0,-1,853,400,0,0
-364,624,0,0,0,0,0,0,0,0,0,-1,860,400,0,0
-357,624,0,0,0,0,0,0,0,0,0,-1,867,400,0,0
-350,624,0,0,0,0,0,0,0,0,0,-1,874,400,0,0
-343,624,0,0,0,0,0,0,0,0,0,-1,881,400,0,0
-336,624,0,0,0,0,0,0,0,0,0,-1,888,400,0,0
-329,624,0,0,0,0,0,0,0,0,0,-1,895,400,0,0
-322,624,0,0,0,0,0,0,0,0,0,-1,902,400,0,0
-315,624,0,0,0,0,0,0,0,0,0,-1,909,400,0,0
-308,624,0,0,0,0,0,0,0,0,0,-1,916,400,0,0
-301,624,0,0,0,0,0,0,0,0,0,-1,923,400,0,0
-294,624,0.368042,-0.00997925,0,0,0,0,0,0,0,-1,930,400,0.368062,0.00996809
-287,624,-0.859863,0.59549,0,0,0,0,0,0,0,-1,937,400,-0.859881,-0.595502
-280,624,-1.39862,0.333801,0,0,0,0,0,0,0,-1,944,400,-1.39865,-0.333816
-273,624,-0.600525,0.106323,0,0,0,0,0,0,0,-1,951,400,-0.600499,-0.106338
-266,624,0.47583,0.216858,0,0,0,0,0,0,0,-1,958,400,0.475848,-0.21687
-259,624,0.605103,0.273041,-0.00253576,0.0140147,-0.00984294,0.0185988,-0.00711989,-1.13494,0.0153338,0.0475696,965,400,0.605088,-0.273052
-252,624,0.317871,-0.160858,-0.00353719,0.00838864,-0.00746379,0.011979,-0.00712752,-1.12244,0.011149,0.0428387,972,400,0.317887,0.160873
-245,624,0.164734,-0.0191956,-0.00413859,0.00551552,-0.0054872,0.00799667,-0.00661973,-1.14614,0.00845126,0.0418463,979,400,0.16473,0.0192064
-238,624,0.0934448,0.0575256,-0.00438841,0.002523,-0.0039494,0.00431512,-0.00618053,-1.14481,0.00609148,0.0475604,986,400,0.0934243,-0.05752
-231,624,-0.193176,0.393799,-0.0042377,0.000481938,-0.0031558,0.00206265,-0.00581842,-1.10644,0.00471922,0.0476224,993,400,-0.193199,-0.393799
-224,624,-0.0725708,0.492035,-0.0041784,-0.00103433,-0.00265739,0.000481189,-0.00569392,-1.0525,0.00396608,0.0454387,1000,400,-0.0725448,-0.492045
-217,624,0.0186157,0.216095,-0.00413226,-0.00190469,-0.00231901,-0.000445856,-0.00559109,-1.00927,0.00358802,0.0431075,1007,400,0.01859,-0.216091
-210,624,-0.02948,-0.096344,-0.00368801,-0.00257158,-0.00206706,-0.000988688,-0.0052709,-0.917279,0.00323513,0.0374217,1014,400,-0.0294497,0.0963588
-203,624,0.0172729,-0.148285,-0.00325723,-0.00267199,-0.00172064,-0.00121927,-0.00470995,-0.869625,0.00282273,0.0339988,1021,400,0.0172872,0.148288
-196,624,0.102905,-0.159882,-0.00327731,-0.00253576,-0.00146217,-0.00139809,-0.00441498,-0.909571,0.00260548,0.0336227,1028,400,0.102909,0.159894
-189,624,0.0682373,-0.106201,-0.00315063,-0.00242251,-0.00132502,-0.00141244,-0.0041607,-0.919469,0.0024431,0.0311522,1035,400,0.0682043,0.106211
-182,624,0.0218506,-0.0915833,-0.00286742,-0.00208868,-0.00120298,-0.00121362,-0.00374247,-0.941913,0.00220475,0.0254781,1042,400,0.0218535,0.0915858
-175,624,-0.00805664,-0.0720215,-0.00290891,-0.00160477,-0.000974213,-0.00108454,-0.00342914,-1.08032,0.00202388,0.0169423,1049,400,-0.00807257,0.0720348
-168,624,-0.0147705,-0.0744629,-0.00311523,-0.00122118,-0.000596877,-0.00104878,-0.00328763,-1.28961,0.00193912,0.0121424,1056,400,-0.0148132,0.0744591
-161,624,-0.0350342,-0.0870361,-0.0028502,-0.00070452,-0.000371763,-0.000641933,-0.00291278,-1.40401,0.00176718,0.0103651,1063,400,-0.0349971,0.0870473
-154,624,-0.0263672,-0.0908508,-0.00249378,-0.000513477,-0.000282811,-0.00047388,-0.00253338,-1.43169,0.00155522,0.00911658,1070,400,-0.0263887,0.090852
-147,624,-0.0234375,-0.0968323,-0.00225281,-0.000477266,-0.000216648,-0.000451214,-0.00227886,-1.45112,0.00139341,0.0097753,1077,400,-0.0234922,0.0968284
-140,624,-0.0252686,-0.0997925,-0.00200657,-0.000758312,-0.000262656,-0.000705297,-0.00205959,-1.37163,0.00120862,0.00878528,1084,400,-0.025322,0.0997813
-133,624,-0.0235596,-0.104126,-0.00137758,-0.000635595,-0.000308123,-0.000524327,-0.00148885,-1.22425,0.000872021,0.0098076,1091,400,-0.0235569,0.104116
-126,624,-0.0324707,-0.0710144,-0.000858697,-0.000680937,-0.000153672,-0.000592293,-0.000947341,-1.04758,0.000552635,0.0120093,1098,400,-0.0324913,0.0710172
-119,624,-0.0483398,-0.0514526,-0.000498117,-0.000656401,-5.2222e-05,-0.00048244,-0.000672078,-0.291635,0.000400111,0.0140288,1105,400,-0.0483031,0.051456
-112,624,-0.0404053,-0.0504456,-8.50096e-05,-0.000731062,0.000184236,-3.61638e-05,-0.000779908,0.259164,0.000508313,0.0151951,1112,400,-0.040456,0.0504504
-105,624,-0.0150146,-0.0565796,0.000109519,-0.000677552,0.000472844,0.000331168,-0.0008992,0.438342,0.000735155,0.0112843,1119,400,-0.0150723,0.0565917
-98,624,-0.0238037,-0.0680237,0.000279488,-0.000674358,0.000716309,0.000663119,-0.00105799,0.491695,0.00100236,0.0122006,1126,400,-0.0237643,0.0680374
-91,624,-0.0441895,-0.0745239,0.000457099,-0.000744595,0.000872055,0.000915259,-0.00120276,0.483745,0.00122659,0.0166755,1133,400,-0.0441392,0.0745285
-84,624,-0.0297852,-0.0849609,0.000466553,-0.00107834,0.00100208,0.000959347,-0.00157113,0.457044,0.00147514,0.01489,1140,400,-0.0298013,0.0849651
-77,624,-0.00500488,-0.101715,0.000400654,-0.00135687,0.00105207,0.000892689,-0.0018489,0.43746,0.00161463,0.010729,1147,400,-0.00494674,0.101705
-70,624,-0.00756836,-0.0939331,0.000277656,-0.00148031,0.00121813,0.000900823,-0.00210348,0.472865,0.00178026,0.0106246,1154,400,-0.00753751,0.0939382
-63,624,-0.0123291,-0.0777893,0.000194038,-0.00212148,0.00138389,0.000840598,-0.00276804,0.437068,0.00218026,0.00940864,1161,400,-0.0123382,0.0777934
-56,624,-0.00744629,-0.075531,0.000223979,-0.00256378,0.0015136,0.000887744,-0.00322754,0.413277,0.0025007,0.00849255,1168,400,-0.0074677,0.075527
-49,624,-0.0183105,-0.085083,0.000547737,-0.00333079,0.00147073,0.00104236,-0.00382541,0.324426,0.00295956,0.00910568,1175,400,-0.0183377,0.0850731
-42,624,-0.0362549,-0.0731201,0.00103738,-0.00390863,0.00113916,0.00128713,-0.00415839,0.215832,0.00328643,0.00903055,1182,400,-0.0362428,0.073121
-35,624,-0.00927734,-0.0523682,0.00132135,-0.00441511,0.000935167,0.00146996,-0.00456371,0.157588,0.00363298,0.0136629,1189,400,-0.0092252,0.0523777
-28,624,-0.03125,-0.0598755,0.00146143,-0.00483976,0.00061487,0.00152087,-0.0048992,0.0963686,0.00387392,0.0183264,1196,400,-0.0312582,0.0598811
-21,624,-0.0306396,-0.0744019,0.00163787,-0.00495652,0.000230147,0.0016459,-0.00496454,0.0348439,0.00397362,0.0131413,1203,400,-0.0306373,0.0744017
-14,624,-0.00390625,-0.0759277,0.0019123,-0.00474174,-6.94252e-05,0.00191303,-0.00474247,-0.010432,0.00395661,0.0140855,1210,400,-0.00390289,0.0759126
-7,624,-0.032959,-0.0528564,0.00214847,-0.00406149,-0.000285381,0.00216155,-0.00407458,-0.0458267,0.00365647,0.0167631,1217,400,-0.0329559,0.0528622
0,624,-0.017334,-0.0653687,0.00247916,-0.00330945,-0.000369631,0.00250267,-0.00333295,-0.0635111,0.00338054,0.0167282,1224,400,-0.0172866,0.065371
7,624,-0.0308838,-0.0810242,0.00290308,-0.00245579,-0.00023715,0.00291356,-0.00246626,-0.0441386,0.00310962,0.0124338,1231,400,-0.0308801,0.0810353
14,624,-0.0373535,-0.0875549,0.00329633,-0.00165813,0.00015274,0.00330103,-0.00166284,0.0307898,0.00291745,0.0106093,1238,400,-0.0373817,0.0875525
21,624,-0.0330811,-0.0769348,0.00361161,-0.000628926,0.000710716,0.00372755,-0.000744872,0.161715,0.00276695,0.011285,1245,400,-0.0331223,0.0769276
28,624,-0.0343018,-0.066925,0.00400725,0.000233108,0.0012639,0.00439141,-0.000151052,0.295074,0.00297923,0.0102806,1252,400,-0.0343611,0.0669241
35,624,-0.0236816,-0.0631409,0.00425227,0.000191119,0.00151543,0.00475542,-0.000312032,0.320567,0.00327925,0.0129522,1259,400,-0.023671,0.0631497
42,624,-0.0201416,-0.0718384,0.00495773,0.00024762,0.00182133,0.00557984,-0.00037449,0.329145,0.0038508,0.0149287,1266,400,-0.020095,0.071832
49,624,-0.024292,-0.0703735,0.0057723,-7.36312e-05,0.00185248,0.00630989,-0.000611219,0.28244,0.00442443,0.0166526,1273,400,-0.0243156,0.0703756
56,624,-0.0258789,-0.0570679,0.00611398,-0.000272104,0.00171532,0.00654556,-0.000703676,0.246483,0.00461618,0.0162341,1280,400,-0.0258391,0.0570574
63,624,-0.0111084,-0.0555115,0.00648216,-0.00108206,0.000879704,0.00658312,-0.00118302,0.114266,0.00483161,0.0121853,1287,400,-0.0110864,0.055514
70,624,-0.00854492,-0.0606384,0.00681922,-0.0019833,-0.000760288,0.0068844,-0.00204849,-0.0855275,0.00540345,0.0109385,1294,400,-0.00855893,0.0606424
77,624,-0.0258789,-0.0647888,0.00708507,-0.00274338,-0.00233414,0.00761124,-0.00326954,-0.221714,0.00644657,0.0111862,1301,400,-0.0258734,0.0647788
84,624,-0.0300293,-0.0722656,0.00716236,-0.00348631,-0.0039729,0.00848125,-0.0048052,-0.320525,0.00776819,0.0101402,1308,400,-0.0300191,0.0722798
91,624,-0.0313721,-0.0761719,0.00680885,-0.00405796,-0.00569558,0.00924701,-0.00649612,-0.404476,0.00913543,0.0109202,1315,400,-0.031313,0.076169
98,624,-0.0264893,-0.0889893,0.00610449,-0.00457856,-0.00728467,0.00979614,-0.00827022,-0.469049,0.010443,0.0122287,1322,400,-0.0264524,0.0889766
105,624,-0.0283203,-0.0901794,0.00523417,-0.00466125,-0.00848396,0.0101077,-0.00953481,-0.521417,0.0113422,0.013231,1329,400,-0.0283175,0.0901723
112,624,-0.0240479,-0.0677185,0.00422762,-0.0044283,-0.00919788,0.0100649,-0.0102656,-0.565497,0.011738,0.0122351,1336,400,-0.0240375,0.067711
119,624,-0.0352783,-0.0801392,0.00316202,-0.00408098,-0.00939645,0.0096107,-0.0105297,-0.601465,0.0116321,0.0132574,1343,400,-0.0353289,0.0801283
126,624,-0.0308838,-0.0950928,0.00242723,-0.00366825,-0.00895011,0.00883428,-0.0100753,-0.621294,0.0109253,0.0161238,1350,400,-0.0308425,0.0950892
133,624,-0.00891113,-0.0688782,0.00179651,-0.0034244,-0.00814383,0.00773804,-0.00936593,-0.6303,0.00988988,0.0162859,1357,400,-0.0089256,0.0688828
140,624,0.012085,-0.0586853,0.00129925,-0.00267499,-0.00707451,0.00666042,-0.00803616,-0.648484,0.00849746,0.0166971,1364,400,0.0120518,0.0586727
147,624,-0.000244141,-0.057251,0.000744595,-0.00170117,-0.00568559,0.00533733,-0.00629391,-0.67947,0.00672287,0.020644,1371,400,-0.000289335,0.0572452
154,624,-0.0280762,-0.0603638,0.000371436,-0.00144349,-0.00427407,0.00383331,-0.00490537,-0.680792,0.00505792,0.0225307,1378,400,-0.0281169,0.0603604
161,624,-0.020874,-0.0736694,0.000449071,-0.00106054,-0.00303527,0.00282198,-0.00343345,-0.663531,0.00361732,0.0206665,1385,400,-0.0209089,0.0736632
168,624,-0.00854492,-0.0730896,0.000580616,-0.000387237,-0.00168399,0.00184883,-0.00165545,-0.645484,0.00202423,0.0205591,1392,400,-0.008524,0.0730985
175,624,-0.000610352,-0.0756226,0.000953314,9.57457e-05,-0.000609179,0.00126948,-0.000220423,-0.478738,0.000928559,0.0166995,1399,400,-0.000645727,0.0756306
182,624,0.0045166,-0.0762329,0.00120653,0.000463948,-0.000118593,0.00122501,0.000445468,-0.154583,0.000715973,0.0100044,1406,400,0.00448801,0.0762288
189,624,-0.000610352,-0.0623169,0.00136508,0.000770485,0.000187857,0.00141946,0.000716106,0.281767,0.000819535,0.00930286,1413,400,-0.000616998,0.0623199
196,624,-0.0292969,-0.0643311,0.00151524,0.000995702,0.000408499,0.00173957,0.000771373,0.502194,0.00100648,0.00985461,1420,400,-0.0292991,0.0643415
203,624,-0.0350342,-0.0618591,0.00177172,0.00117047,0.000585601,0.00212935,0.000812835,0.548258,0.00124079,0.0126803,1427,400,-0.0350029,0.0618523
210,624,-0.0268555,-0.0649414,0.00190803,0.00115443,0.000731124,0.00235374,0.000708723,0.547463,0.00139431,0.0157833,1434,400,-0.0268205,0.0649422
217,624,-0.0356445,-0.05896,0.00195224,0.0010599,0.000862465,0.00247711,0.000535031,0.546693,0.0015051,0.0184979,1441,400,-0.0356439,0.0589543
224,624,-0.0415039,-0.0501709,0.00202529,0.000981324,0.00093628,0.00257526,0.000431352,0.531104,0.00159265,0.0151986,1448,400,-0.0415388,0.0501806
231,624,-0.0428467,-0.0612183,0.0019449,0.000766222,0.000954952,0.00247773,0.000233397,0.508934,0.00157978,0.0114493,1455,400,-0.0427893,0.0612064
238,624,-0.0426025,-0.0559387,0.00169265,0.000527314,0.000935073,0.00221173,8.22637e-06,0.506774,0.00147175,0.0161746,1462,400,-0.0425431,0.055935
245,624,-0.0410156,-0.0723267,0.00137867,0.000227602,0.000858409,0.00183663,-0.000230356,0.490084,0.00130798,0.0177376,1469,400,-0.0410316,0.0723158
252,624,-0.0349121,-0.0660095,0.000839811,-0.000346864,0.000689477,0.0011561,-0.000663157,0.430101,0.00106313,0.0133424,1476,400,-0.0348569,0.0660017
259,624,-0.0211182,-0.07901,0.000100154,-0.000586648,0.000558404,0.000412298,-0.000898792,0.509721,0.000774134,0.00890436,1483,400,-0.0211577,0.0790084
266,624,-0.0377197,-0.069458,-0.000583293,-0.00106004,0.000269368,-0.000461971,-0.00118136,0.423185,0.000687434,0.0126981,1490,400,-0.0376792,0.0694568
273,624,-0.0361328,-0.0444641,-0.00126218,-0.00157567,-4.64711e-05,-0.00125544,-0.00158242,-0.144111,0.000964605,0.0154525,1497,400,-0.0361584,0.0444777
280,624,-0.0516357,-0.0714417,-0.00202316,-0.00200039,-0.000362416,-0.00164918,-0.00237437,-0.801102,0.00140502,0.0132392,1504,400,-0.0516506,0.0714321
287,624,-0.0206299,-0.0902405,-0.00276599,-0.00269845,-0.000825826,-0.00190571,-0.00355874,-0.805834,0.00205636,0.0108373,1511,400,-0.0206854,0.0902311
294,624,-0.019043,-0.072876,-0.00356927,-0.00296131,-0.00130115,-0.0019291,-0.00460148,-0.900153,0.00266819,0.00961243,1518,400,-0.0190164,0.0728619
301,624,-0.0391846,-0.0721741,-0.00450142,-0.00289158,-0.0013548,-0.00212062,-0.00527237,-1.05344,0.00306335,0.0102295,1525,400,-0.0392119,0.0721892
308,624,-0.0413818,-0.0691528,-0.00522074,-0.00280597,-0.00145965,-0.00211905,-0.00590765,-1.13094,0.00345589,0.01303,1532,400,-0.0413896,0.0691439
315,624,-0.0396729,-0.071106,-0.00545406,-0.00264861,-0.00146186,-0.00202534,-0.00607733,-1.16778,0.00357319,0.0142468,1539,400,-0.0396509,0.0710958
322,624,-0.0249023,-0.112518,-0.00561524,-0.00211943,-0.00125299,-0.00171672,-0.00601795,-1.25982,0.00357968,0.0202193,1546,400,-0.0249309,0.112509
329,624,-0.0944824,-0.179047,-0.00556511,-0.00135762,-0.000924818,-0.00116331,-0.00575941,-1.36371,0.00351657,0.0311818,1553,400,-0.094543,0.179051
336,624,-0.227905,-0.245758,-0.00545685,-0.000595964,-0.000188958,-0.00058863,-0.00546419,-1.532,0.0034633,0.0311387,1560,400,-0.227906,0.245755
343,624,-0.284424,-0.591095,-0.00571634,0.000652676,0.000788277,0.000748788,-0.00581245,1.44947,0.00414716,0.0383612,1567,400,-0.284371,0.591087
350,624,-0.220947,-0.782043,0,0,0,0,0,0,0,-1,1574,400,-0.220893,0.782055
357,624,-0.199585,-0.111053,-0.00588578,0.00305842,0.00128437,0.00323919,-0.00606656,1.43096,0.00545472,0.0374368,1581,400,-0.199562,0.111062
364,624,-0.216309,-0.125732,-0.00626417,0.00386732,0.00153029,0.00409342,-0.00649026,1.42411,0.0061625,0.0435585,1588,400,-0.216331,0.125745
371,624,-0.0976563,0.0511169,-0.00661762,0.00405559,0.00123649,0.00419696,-0.006759,1.45696,0.00638282,0.0491545,1595,400,-0.0977118,-0.0511078
378,624,0.00976563,0.158447,0,0,0,0,0,0,0,-1,1602,400,0.00971933,-0.158439
385,624,0.0910645,-0.352112,-0.00840338,0.00078851,-0.00202795,0.00121604,-0.00883091,-1.36302,0.00633166,0.0425053,1609,400,0.0910261,0.352118
392,624,-0.196899,-0.177734,-0.00925749,-0.000866915,-0.00384096,0.000625805,-0.0107502,-1.20013,0.00738426,0.0452348,1616,400,-0.196901,0.177728
399,624,-0.69458,-0.24585,0,0,0,0,0,0,0,-1,1623,400,-0.694581,0.245852
406,624,-0.453369,-0.249542,0,0,0,0,0,0,0,-1,1630,400,-0.453326,0.249556
413,624,0,0,0,0,0,0,0,0,0,-1,1637,400,0,0
420,624,0,0,0,0,0,0,0,0,0,-1,1644,400,0,0
427,624,0,0,0,0,0,0,0,0,0,-1,1651,400,0,0
434,624,0,0,0,0,0,0,0,0,0,-1,1658,400,0,0
441,624,0,0,0,0,0,0,0,0,0,-1,1665,400,0,0
448,624,0,0,0,0,0,0,0,0,0,-1,1672,400,0,0
455,624,0,0,0,0,0,0,0,0,0,-1,1679,400,0,0
462,624,0,0,0,0,0,0,0,0,0,-1,1686,400,0,0
469,624,0,0,0,0,0,0,0,0,0,-1,1693,400,0,0
476,624,0,0,0,0,0,0,0,0,0,-1,1700,400,0,0
483,624,0,0,0,0,0,0,0,0,0,-1,1707,400,0,0
490,624,0,0,0,0,0,0,0,0,0,-1,1714,400,0,0
497,624,0,0,0,0,0,0,0,0,0,-1,1721,400,0,0
504,624,0,0,0,0,0,0,0,0,0,-1,1728,400,0,0
511,624,0,0,0,0,0,0,0,0,0,-1,1735,400,0,0
518,624,0,0,0,0,0,0,0,0,0,-1,1742,400,0,0
525,624,0,0,0,0,0,0,0,0,0,-1,1749,400,0,0
532,624,0,0,0,0,0,0,0,0,0,-1,1756,400,0,0
539,624,0,0,0,0,0,0,0,0,0,-1,1763,400,0,0
546,624,0,0,0,0,0,0,0,0,0,-1,1770,400,0,0
553,624,0,0,0,0,0,0,0,0,0,-1,1777,400,0,0
560,624,0,0,0,0,0,0,0,0,0,-1,1784,400,0,0
567,624,0,0,0,0,0,0,0,0,0,-1,1791,400,0,0
574,624,0,0,0,0,0,0,0,0,0,-1,1798,400,0,0
581,624,0,0,0,0,0,0,0,0,0,-1,1805,400,0,0
588,624,0,0,0,0,0,0,0,0,0,-1,1812,400,0,0
595,624,0,0,0,0,0,0,0,0,0,-1,1819,400,0,0
602,624,0,0,0,0,0,0,0,0,0,-1,1826,400,0,0
609,624,0,0,0,0,0,0,0,0,0,-1,1833,400,0,0
616,624,0,0,0,0,0,0,0,0,0,-1,1840,400,0,0
623,624,0,0,0,0,0,0,0,0,0,-1,1847,400,0,0
630,624,0,0,0,0,0,0,0,0,0,-1,1854,400,0,0
637,624,0,0,0,0,0,0,0,0,0,-1,1861,400,0,0
644,624,0,0,0,0,0,0,0,0,0,-1,1868,400,0,0
651,624,0,0,0,0,0,0,0,0,0,-1,1875,400,0,0
658,624,0,0,0,0,0,0,0,0,0,-1,1882,400,0,0
665,624,0,0,0,0,0,0,0,0,0,-1,1889,400,0,0
672,624,0,0,0,0,0,0,0,0,0,-1,1896,400,0,0
679,624,0,0,0,0,0,0,0,0,0,-1,1903,400,0,0
686,624,0,0,0,0,0,0,0,0,0,-1,1910,400,0,0
693,624,0,0,0,0,0,0,0,0,0,-1,1917,400,0,0
700,624,0,0,0,0,0,0,0,0,0,-1,1924,400,0,0
707,624,0,0,0,0,0,0,0,0,0,-1,1931,400,0,0
714,624,0,0,0,0,0,0,0,0,0,-1,1938,400,0,0
721,624,0,0,0,0,0,0,0,0,0,-1,1945,400,0,0
728,624,0,0,0,0,0,0,0,0,0,-1,1952,400,0,0
735,624,0,0,0,0,0,0,0,0,0,-1,1959,400,0,0
742,624,0,0,0,0,0,0,0,0,0,-1,1966,400,0,0
749,624,0,0,0,0,0,0,0,0,0,-1,1973,400,0,0
756,624,0,0,0,0,0,0,0,0,0,-1,1980,400,0,0
763,624,0,0,0,0,0,0,0,0,0,-1,1987,400,0,0
770,624,0,0,0,0,0,0,0,0,0,-1,1994,400,0,0
777,624,0,0,0,0,0,0,0,0,0,-1,2001,400,0,0
784,624,0,0,0,0,0,0,0,0,0,-1,2008,400,0,0
791,624,0,0,0,0,0,0,0,0,0,-1,2015,400,0,0
798,624,0,0,0,0,0,0,0,0,0,-1,2022,400,0,0
805,624,0,0,0,0,0,0,0,0,0,-1,2029,400,0,0
812,624,0,0,0,0,0,0,0,0,0,-1,2036,400,0,0
-700,617,0,0,0,0,0,0,0,0,0,-1,524,407,0,0
-693,617,0,0,0,0,0,0,0,0,0,-1,531,407,0,0
-686,617,0,0,0,0,0,0,0,0,0,-1,538,407,0,0
-679,617,0,0,0,0,0,0,0,0,0,-1,545,407,0,0
-672,617,0,0,0,0,0,0,0,0,0,-1,552,407,0,0
-665,617,0,0,0,0,0,0,0,0,0,-1,559,407,0,0
-658,617,0,0,0,0,0,0,0,0,0,-1,566,407,0,0
-651,617,0,0,0,0,0,0,0,0,0,-1,573,407,0,0
-644,617,0,0,0,0,0,0,0,0,0,-1,580,407,0,0
-637,617,0,0,0,0,0,0,0,0,0,-1,587,407,0,0
-630,617,0,0,0,0,0,0,0,0,0,-1,594,407,0,0
-623,617,0,0,0,0,0,0,0,0,0,-1,601,407,0,0
-616,617,0,0,0,0,0,0,0,0,0,-1,608,407,0,0
-609,617,0,0,0,0,0,0,0,0,0,-1,615,407,0,0
-602,617,0,0,0,0,0,0,0,0,0,-1,622,407,0,0
-595,617,0,0,0,0,0,0,0,0,0,-1,629,407,0,0
-588,617,0,0,0,0,0,0,0,0,0,-1,636,407,0,0
-581,617,0,0,0,0,0,0,0,0,0,-1,643,407,0,0
-574,617,0,0,0,0,0,0,0,0,0,-1,650,407,0,0
-567,617,0,0,0,0,0,0,0,0,0,-1,657,407,0,0
-560,617,0,0,0,0,0,0,0,0,0,-1,664,407,0,0
-553,617,0,0,0,0,0,0,0,0,0,-1,671,407,0,0
-546,617,0,0,0,0,0,0,0,0,0,-1,678,407,0,0
-539,617,0,0,0,0,0,0,0,0,0,-1,685,407,0,0
-532,617,0,0,0,0,0,0,0,0,0,-1,692,407,0,0
-525,617,0,0,0,0,0,0,0,0,0,-1,699,407,0,0
-518,617,0,0,0,0,0,0,0,0,0,-1,706,407,0,0
-511,617,0,0,0,0,0,0,0,0,0,-1,713,407,0,0
-504,617,0,0,0,0,0,0,0,0,0,-1,720,407,0,0
-497,617,0,0,0,0,0,0,0,0,0,-1,727,407,0,0
-490,617,0,0,0,0,0,0,0,0,0,-1,734,407,0,0
-483,617,0,0,0,0,0,0,0,0,0,-1,741,407,0,0
-476,617,0,0,0,0,0,0,0,0,0,-1,748,407,0,0
-469,617,0,0,0,0,0,0,0,0,0,-1,755,407,0,0
-462,617,0,0,0,0,0,0,0,0,0,-1,762,407,0,0
-455,617,0,0,0,0,0,0,0,0,0,-1,769,407,0,0
-448,617,0,0,0,0,0,0,0,0,0,-1,776,407,0,0
-441,617,0,0,0,0,0,0,0,0,0,-1,783,407,0,0
-434,617,0,0,0,0,0,0,0,0,0,-1,790,407,0,0
-427,617,0,0,0,0,0,0,0,0,0,-1,797,407,0,0
-420,617,0,0,0,0,0,0,0,0,0,-1,804,407,0,0
-413,617,0,0,0,0,0,0,0,0,0,-1,811,407,0,0
-406,617,0,0,0,0,0,0,0,0,0,-1,818,407,0,0
-399,617,0,0,0,0,0,0,0,0,0,-1,825,407,0,0
-392,617,0,0,0,0,0,0,0,0,0,-1,832,407,0,0
-385,617,0,0,0,0,0,0,0,0,0,-1,839,407,0,0
-378,617,0,0,0,0,0,0,0,0,0,-1,846,407,0,0
-371,617,0,0,0,0,0,0,0,0,0,-1,853,407,0,0
-364,617,0,0,0,0,0,0,0,0,0,-1,860,407,0,0
-357,617,0,0,0,0,0,0,0,0,0,-1,867,407,0,0
-350,617,0,0,0,0,0,0,0,0,0,-1,874,407,0,0
-343,617,0,0,0,0,0,0,0,0,0,-1,881,407,0,0
-336,617,0,0,0,0,0,0,0,0,0,-1,888,407,0,0
-329,617,0,0,0,0,0,0,0,0,0,-1,895,407,0,0
-322,617,0,0,0,0,0,0,0,0,0,-1,902,407,0,0
-315,617,0,0,0,0,0,0,0,0,0,-1,909,407,0,0
-308,617,0,0,0,0,0,0,0,0,0,-1,916,407,0,0
-301,617,0.223389,0.0936584,0,0,0,0,0,0,0,-1,923,407,0.223382,-0.0936473
-294,617,0.406006,0.086853,0,0,0,0,0,0,0,-1,930,407,0.406,-0.0868492
-287,617,-1.23175,0.27771,0,0,0,0,0,0,0,-1,937,407,-1.23175,-0.27771
-280,617,-1.01782,0.196991,0.00426457,0.0341655,-0.0138596,0.0396014,-0.00117134,-1.19702,0.0267999,0.0461238,944,407,-1.01782,-0.196995
-273,617,-0.676392,0.0700073,0.00239987,0.0268329,-0.0130007,0.0324563,-0.00322346,-1.16255,0.0227881,0.047103,951,407,-0.676415,-0.0699971
-266,617,0.0784912,0.39801,0.000490873,0.0195757,-0.0111217,0.0246876,-0.00462106,-1.13996,0.0181954,0.042139,958,407,0.0784765,-0.398019
-259,617,-0.391052,-0.0610962,-0.000728353,0.0132346,-0.00880111,0.017487,-0.00498079,-1.1207,0.0136252,0.0451861,965,407,-0.391029,0.0610972
-252,617,-0.291443,-0.275848,-0.00146163,0.00811063,-0.00667102,0.0115348,-0.00488583,-1.09657,0.00973609,0.0458895,972,407,-0.291448,0.275854
-245,617,0.00756836,-0.221008,-0.00200352,0.00535782,-0.00486198,0.0077752,-0.0044209,-1.10939,0.00712964,0.0404783,979,407,0.0075766,0.220999
-238,617,-0.0559082,-0.00952148,-0.00237265,0.00265378,-0.00333861,0.00431939,-0.00403826,-1.10804,0.0048262,0.0440944,986,407,-0.0559119,0.00953626
-231,617,-0.171692,0.227081,-0.00244064,0.00076399,-0.00249688,0.00212847,-0.00380511,-1.07067,0.00347104,0.0411536,993,407,-0.171709,-0.227088
-224,617,0.167664,-0.0583191,-0.00259041,-0.000656864,-0.00203629,0.0006305,-0.00387778,-1.00703,0.00281895,0.0390664,1000,407,0.167641,0.0583331
-217,617,-0.0216675,0.365906,0,0,0,0,0,0,0,-1,1007,407,-0.0216617,-0.3659
-210,617,-0.0140381,-0.135223,-0.00228376,-0.00234655,-0.00151391,-0.000800918,-0.00382939,-0.775031,0.00233225,0.0218475,1014,407,-0.0140377,0.135219
-203,617,0.00366211,-0.085968,-0.00188327,-0.00258014,-0.00122098,-0.000961986,-0.00350142,-0.646407,0.00208881,0.0165285,1021,407,0.00363924,0.0859758
-196,617,-0.00183105,-0.0544128,-0.0019652,-0.00255711,-0.00100117,-0.00121715,-0.00330515,-0.641685,0.00193018,0.0142265,1028,407,-0.00183873,0.0544142
-189,617,-0.0202637,-0.0508118,-0.00198717,-0.00248666,-0.000873917,-0.00132801,-0.00314582,-0.646218,0.00182356,0.0117537,1035,407,-0.0202188,0.0508202
-182,617,-0.0432129,-0.0652771,-0.00186089,-0.00220942,-0.000757424,-0.00125794,-0.00281237,-0.67233,0.00162673,0.011905,1042,407,-0.043224,0.0652754
-175,617,-0.0224609,-0.0593567,-0.00200578,-0.00181605,-0.000541612,-0.00136105,-0.00246077,-0.872097,0.00142339,0.0106444,1049,407,-0.022502,0.0593611
-168,617,-0.0158691,-0.068634,-0.00228412,-0.00144177,-0.000216719,-0.00138928,-0.0023366,-1.33318,0.00135706,0.00953574,1056,407,-0.0158173,0.0686453
-161,617,-0.0174561,-0.0847168,-0.00211996,-0.000894888,-4.46914e-05,-0.00089326,-0.00212159,-1.53438,0.00122998,0.0105223,1063,407,-0.0175109,0.0847233
-154,617,-0.0216064,-0.0962524,-0.00190389,-0.00063232,8.49874e-07,-0.00063232,-0.0019039,1.57013,0.00111968,0.0101315,1070,407,-0.0216462,0.0962385
-147,617,-0.0134277,-0.107574,-0.00179765,-0.000483661,4.49212e-06,-0.000483646,-0.00179767,1.56738,0.00107416,0.0137605,1077,407,-0.0133811,0.107565
-140,617,-0.000244141,-0.102509,-0.00163442,-0.000578427,-8.82004e-05,-0.000571111,-0.00164173,-1.48804,0.000962369,0.0101024,1084,407,-0.000266897,0.1025
-133,617,-0.0330811,-0.101532,-0.00107793,-0.000398931,-0.000227108,-0.000329973,-0.00114689,-1.27601,0.000681761,0.0114606,1091,407,-0.0330735,0.101524
-126,617,-0.046875,-0.0666809,-0.000558113,-0.00035992,-0.000159913,-0.000270888,-0.000647145,-1.06278,0.000375277,0.0126835,1098,407,-0.0469155,0.066683
-119,617,-0.0582275,-0.066803,-0.000163723,-0.000325071,-0.000109206,-0.000108624,-0.00038017,-0.467271,0.00022611,0.013025,1105,407,-0.0581666,0.0667975
-112,617,-0.0302734,-0.0690308,0.000281499,-0.00045647,4.26989e-05,0.000283962,-0.000458932,0.0576039,0.000432857,0.0142685,1112,407,-0.030284,0.0690455
-105,617,-0.0180664,-0.0589905,0.000578763,-0.000486468,0.00031819,0.00066657,-0.000574275,0.269257,0.000717063,0.014361,1119,407,-0.0180416,0.0589922
-98,617,-0.0350342,-0.0860596,0.00084155,-0.000592818,0.00059306,0.001055,-0.000806264,0.345473,0.00107779,0.011808,1126,407,-0.0350242,0.0860665
-91,617,-0.0562744,-0.0992126,0.0011488,-0.000791367,0.000777769,0.00142209,-0.00106466,0.337905,0.00144066,0.0164407,1133,407,-0.0562627,0.0992211
-84,617,-0.0268555,-0.0948181,0.00128075,-0.00139669,0.000929246,0.00157165,-0.0016876,0.303388,0.00188212,0.0156884,1140,407,-0.0268359,0.0948093
-77,617,0.00708008,-0.10614,0.00124124,-0.00205784,0.00102962,0.0015362,-0.00235281,0.279007,0.00226176,0.0115405,1147,407,0.00705659,0.106129
-70,617,-0.00244141,-0.106567,0.00109799,-0.00246623,0.00135715,0.00155592,-0.00292415,0.325422,0.00262647,0.011226,1154,407,-0.00238162,0.106553
-63,617,-0.00842285,-0.092926,0.00092594,-0.00360262,0.00164317,0.00145933,-0.00413601,0.31388,0.00335142,0.0112629,1161,407,-0.00842636,0.0929264
-56,617,-0.00842285,-0.0690613,0.000817791,-0.0043072,0.00191545,0.00145457,-0.00494398,0.320948,0.00387298,0.00905884,1168,407,-0.00838271,0.069067
-49,617,-0.0151367,-0.0820923,0.00116378,-0.00542391,0.00191032,0.00167766,-0.00593779,0.26278,0.00462041,0.00836529,1175,407,-0.0151624,0.0820895
-42,617,-0.0141602,-0.0906372,0.00175567,-0.0062815,0.00154251,0.00204155,-0.00656737,0.183251,0.00519426,0.00982908,1182,407,-0.0142081,0.090648
-35,617,0.0118408,-0.0660095,0.00197623,-0.00700478,0.00129769,0.00215998,-0.00718852,0.14066,0.00565164,0.015013,1189,407,0.011831,0.0660078
-28,617,-0.00769043,-0.0715332,0.00197675,-0.00758291,0.000832397,0.00204869,-0.00765485,0.0862094,0.00590578,0.0177712,1196,407,-0.00773788,0.0715349
-21,617,0.00549316,-0.0658875,0.00195596,-0.00761945,0.000159732,0.00195863,-0.00762211,0.0166753,0.00584472,0.0131014,1203,407,0.0054379,0.0658876
-14,617,-0.0300293,-0.039917,0.00209759,-0.00725902,-0.00044986,0.00211916,-0.0072806,-0.0479321,0.00569314,0.0148777,1210,407,-0.030086,0.0399305
-7,617,-0.0516357,-0.0347595,0.00235162,-0.00612237,-0.00076525,0.00242017,-0.00619092,-0.0893426,0.00512804,0.0165931,1217,407,-0.051669,0.0347722
0,617,-0.0384521,-0.0441895,0.00276395,-0.00497702,-0.000972918,0.00288436,-0.00509743,-0.123133,0.00466696,0.0139247,1224,407,-0.0384793,0.0441822
7,617,-0.00952148,-0.0778809,0.00334013,-0.00368857,-0.000862689,0.00344447,-0.00379291,-0.120358,0.00418012,0.00965403,1231,407,-0.00951213,0.0778771
14,617,-0.0308838,-0.0753784,0.00393124,-0.00253478,-0.000348748,0.00394999,-0.00255353,-0.0537278,0.00378355,0.0116919,1238,407,-0.0308697,0.0753649
21,617,-0.0305176,-0.0685425,0.00451342,-0.000979815,0.000414555,0.00454453,-0.00101092,0.0749012,0.00341688,0.0114459,1245,407,-0.0304655,0.0685276
28,617,-0.0288086,-0.0645447,0.00533131,0.000378471,0.00123416,0.0056218,8.79767e-05,0.23117,0.00371889,0.00962271,1252,407,-0.0288485,0.064533
35,617,-0.0314941,-0.0750427,0.00602744,0.000437889,0.00172064,0.00651465,-4.93142e-05,0.275929,0.00435963,0.0110777,1259,407,-0.0315384,0.0750528
42,617,-0.0153809,-0.0762634,0.00731415,0.000617113,0.00233332,0.00804693,-0.000115662,0.304295,0.00540358,0.0169075,1266,407,-0.0153907,0.0762675
49,617,-0.024292,-0.0678406,0.00878488,0.00015896,0.00256243,0.00948866,-0.000544821,0.268044,0.00651498,0.0177834,1273,407,-0.0243153,0.0678422
56,617,-0.0413818,-0.0586548,0.00969469,-7.86147e-05,0.00257715,0.0103326,-0.000716551,0.242658,0.00713926,0.0125248,1280,407,-0.0414056,0.058658
63,617,-0.0257568,-0.0644531,0.010623,-0.00117433,0.00167635,0.0108565,-0.0014079,0.138446,0.00774974,0.00891545,1287,407,-0.0258168,0.0644402
70,617,-0.0350342,-0.0601501,0.0115234,-0.00237573,-0.000298219,0.0115298,-0.00238212,-0.0214428,0.00859136,0.0132041,1294,407,-0.0350739,0.0601383
77,617,-0.0383301,-0.0606079,0.0122789,-0.00339262,-0.0021994,0.0125818,-0.00369543,-0.136823,0.00985341,0.0116328,1301,407,-0.0383696,0.0606051
84,617,-0.041748,-0.065918,0.0127271,-0.00449762,-0.00425723,0.0137219,-0.00549238,-0.229545,0.0114275,0.00930831,1308,407,-0.0417792,0.0659058
91,617,-0.029541,-0.0849609,0.0124828,-0.0053007,-0.00651597,0.0146147,-0.00743261,-0.316205,0.0129522,0.00923668,1315,407,-0.0295828,0.0849535
98,617,-0.00585938,-0.0903015,0.011624,-0.00612226,-0.00874754,0.0152109,-0.00970914,-0.389135,0.014504,0.01072,1322,407,-0.00583524,0.0903009
105,617,-0.0157471,-0.0733643,0.0104629,-0.00631464,-0.0104764,0.0154952,-0.011347,-0.447805,0.0155589,0.0123757,1329,407,-0.0158057,0.0733562
112,617,-0.0305176,-0.0546265,0.00903787,-0.00611526,-0.0115724,0.0152933,-0.0123707,-0.495558,0.0160015,0.0139311,1336,407,-0.0305517,0.0546407
119,617,-0.0230713,-0.0437317,0.00745771,-0.0057314,-0.0120653,0.014613,-0.0128867,-0.535294,0.0158874,0.0170722,1343,407,-0.0230753,0.043735
126,617,-0.0218506,-0.0657043,0.0060886,-0.00536661,-0.0116156,0.0133119,-0.01259,-0.556343,0.0149564,0.0196934,1350,407,-0.0218861,0.0657002
133,617,-0.0302734,-0.0786438,0.00480692,-0.00527376,-0.0106481,0.0115473,-0.0120142,-0.564344,0.0136041,0.0167124,1357,407,-0.0302142,0.0786446
140,617,-0.024292,-0.0792236,0.00369706,-0.00447527,-0.00934291,0.00980828,-0.0105865,-0.579254,0.0117778,0.0146221,1364,407,-0.0242978,0.079218
147,617,-0.02771,-0.0832825,0.00260551,-0.00331277,-0.00749733,0.00770654,-0.0084138,-0.597437,0.00931007,0.0178943,1371,407,-0.0276822,0.0832848
154,617,-0.0167236,-0.105286,0.0017306,-0.00315656,-0.00558297,0.00538133,-0.00680729,-0.579115,0.00705314,0.0203054,1378,407,-0.016738,0.105278
161,617,-0.0325928,-0.0984192,0.00146247,-0.00278532,-0.0038386,0.00372558,-0.00504842,-0.532712,0.00508483,0.0211026,1385,407,-0.0325777,0.0984305
168,617,-0.0423584,-0.105133,0.00138239,-0.00184072,-0.00201678,0.00235241,-0.00281074,-0.448311,0.00298486,0.0193609,1392,407,-0.0423759,0.105143
175,617,-0.0280762,-0.11496,0.00171321,-0.00120863,-0.000497146,0.00179548,-0.0012909,-0.164002,0.00178985,0.0162297,1399,407,-0.0280314,0.114955
182,617,-0.0123291,-0.104034,0.00193637,-0.00064475,7.18713e-05,0.00193837,-0.00064675,0.0278163,0.00155338,0.0106308,1406,407,-0.0122958,0.104026
189,617,-0.0307617,-0.0854797,0.00217012,-0.000158415,0.000301363,0.00220849,-0.000196786,0.126642,0.00154211,0.0100399,1413,407,-0.0307612,0.0854946
196,617,-0.0456543,-0.0799866,0.00237844,0.000289285,0.000437916,0.00246652,0.000201205,0.198485,0.00158155,0.0128549,1420,407,-0.0457078,0.0799909
203,617,-0.0474854,-0.0739441,0.00255241,0.000726775,0.000448933,0.00265683,0.000622353,0.228537,0.00160452,0.0132789,1427,407,-0.0474348,0.0739326
210,617,-0.0411377,-0.0710754,0.00254282,0.000941081,0.00038952,0.00263252,0.000851379,0.226343,0.00155116,0.01348,1434,407,-0.0411512,0.0710687
217,617,-0.0396729,-0.0618286,0.00247097,0.00111235,0.000307473,0.00253732,0.00104601,0.212518,0.00147242,0.0182704,1441,407,-0.0396955,0.0618377
224,617,-0.0289307,-0.0605164,0.00243636,0.00127496,0.000199124,0.00246955,0.00124177,0.16517,0.0014258,0.0179306,1448,407,-0.0288863,0.0605229
231,617,-0.0340576,-0.0707397,0.00227606,0.00128278,4.82253e-05,0.0022784,0.00128044,0.0483995,0.0013188,0.0131224,1455,407,-0.0339968,0.0707331
238,617,-0.0380859,-0.0803223,0.00199107,0.00123928,-8.03517e-05,0.00199956,0.00123079,-0.105296,0.00116467,0.013896,1462,407,-0.0380978,0.0803255
245,617,-0.00939941,-0.106842,0.00167933,0.000987761,-0.000185871,0.00172612,0.00094097,-0.246612,0.000997929,0.0124461,1469,407,-0.00941319,0.106847
252,617,-0.00756836,-0.0742798,0.00109732,0.000412666,-0.000385861,0.00127082,0.000239167,-0.422556,0.000779814,0.0136293,1476,407,-0.00757553,0.0742908
259,617,-0.0198975,-0.0638733,0.000481674,0.000209183,-0.000411204,0.000778617,-8.77594e-05,-0.625423,0.000550667,0.0110024,1483,407,-0.0199035,0.0638644
266,617,-0.0301514,-0.0570374,-2.07833e-05,-0.00022631,-0.000530106,0.000416428,-0.000663521,-0.689659,0.000628925,0.0131593,1490,407,-0.0301338,0.0570256
273,617,-0.0395508,-0.0462341,-0.000549397,-0.000740518,-0.000622983,-1.46877e-05,-0.00127523,-0.709295,0.000845298,0.0144174,1497,407,-0.0395246,0.0462321
280,617,-0.048584,-0.0732727,-0.00112828,-0.0011503,-0.000767232,-0.000371978,-0.0019066,-0.778222,0.00116701,0.01289,1504,407,-0.0486423,0.0732575
287,617,-0.0439453,-0.0812683,-0.00173546,-0.0018091,-0.00101779,-0.000753819,-0.00279074,-0.767316,0.00166703,0.0118809,1511,407,-0.0439802,0.0812689
294,617,-0.0311279,-0.0771484,-0.00243671,-0.00208605,-0.00134662,-0.000903399,-0.00361937,-0.850133,0.00217523,0.00954888,1518,407,-0.031174,0.0771456
301,617,-0.0367432,-0.0626526,-0.00325383,-0.00212019,-0.0013791,-0.00119598,-0.00417805,-0.980379,0.00248458,0.00750474,1525,407,-0.0367724,0.0626472
308,617,-0.038208,-0.0671692,-0.00383973,-0.00215415,-0.00144837,-0.00132121,-0.00467267,-1.0489,0.00278136,0.00759541,1532,407,-0.0381767,0.0671724
315,617,-0.0335693,-0.0713196,-0.00404875,-0.00212782,-0.00148149,-0.0013227,-0.00485388,-1.07299,0.00289747,0.00806486,1539,407,-0.0335594,0.0713324
322,617,-0.0230713,-0.0667419,-0.00423015,-0.00181319,-0.00137123,-0.00119391,-0.00484943,-1.14659,0.00291758,0.0105452,1546,407,-0.0230999,0.0667375
329,617,-0.017334,-0.074646,-0.00423021,-0.00130682,-0.00121442,-0.000868156,-0.00466887,-1.22417,0.00286734,0.0106893,1553,407,-0.0172738,0.0746604
336,617,-0.0262451,-0.071106,-0.00414577,-0.000813082,-0.000704727,-0.000670188,-0.00428867,-1.37074,0.00266397,0.0193124,1560,407,-0.0262099,0.0710938
343,617,0.0529785,-0.292175,0,0,0,0,0,0,0,-1,1567,407,0.0530024,0.29218
350,617,-0.0130615,-0.0918579,-0.00427371,0.000802069,0.000399112,0.000833259,-0.0043049,1.4928,0.00318424,0.0355564,1574,407,-0.0130292,0.091864
357,617,-0.105347,-0.140686,-0.00434445,0.0018949,0.000132755,0.00189772,-0.00434727,1.54953,0.00369685,0.0352655,1581,407,-0.105322,0.140685
364,617,-0.112305,-0.0587463,-0.00462382,0.00250064,0.000283074,0.00251187,-0.00463505,1.53115,0.00418653,0.0391164,1588,407,-0.11226,0.0587429
371,617,-0.081665,0.04776,-0.00473807,0.00253238,-4.54285e-05,0.00253266,-0.00473835,-1.56455,0.00426182,0.0460731,1595,407,-0.0816764,-0.0477479
378,617,-0.0482178,0.147552,0,0,0,0,0,0,0,-1,1602,407,-0.0481871,-0.147554
385,617,0.146484,-0.394806,-0.00562031,-0.000378201,-0.00267226,0.000743861,-0.00674237,-1.17326,0.00476227,0.0423612,1609,407,0.146532,0.394811
392,617,-0.0178223,-0.122589,-0.00611421,-0.00177571,-0.00393383,0.000547334,-0.00843725,-1.03737,0.00581587,0.0422361,1616,407,-0.0177814,0.122596
399,617,-0.380493,-0.166199,-0.00621453,-0.00422775,-0.00572227,0.000586715,-0.011029,-0.871342,0.00755583,0.0423846,1623,407,-0.380454,0.166187
406,617,-0.434814,-0.169128,-0.00584925,-0.00838582,-0.00831732,0.00129593,-0.015531,-0.709737,0.0108119,0.0430531,1630,407,-0.434766,0.169121
413,617,-0.377197,-0.239014,-0.00634771,-0.0122497,-0.0102281,0.00134661,-0.019944,-0.644954,0.0137668,0.0428065,1637,407,-0.377159,0.239022
420,617,-0.361328,-0.461761,-0.00704317,-0.016235,-0.0114375,0.00068724,-0.0239654,-0.594357,0.0162109,0.0424014,1644,407,-0.361276,0.461755
427,617,0,0,0,0,0,0,0,0,0,-1,1651,407,0,0
434,617,0,0,0,0,0,0,0,0,0,-1,1658,407,0,0
441,617,0,0,0,0,0,0,0,0,0,-1,1665,407,0,0
448,617,0,0,0,0,0,0,0,0,0,-1,1672,407,0,0
455,617,0,0,0,0,0,0,0,0,0,-1,1679,407,0,0
462,617,0,0,0,0,0,0,0,0,0,-1,1686,407,0,0
469,617,0,0,0,0,0,0,0,0,0,-1,1693,407,0,0
476,617,0,0,0,0,0,0,0,0,0,-1,1700,407,0,0
483,617,0,0,0,0,0,0,0,0,0,-1,1707,407,0,0
490,617,0,0,0,0,0,0,0,0,0,-1,1714,407,0,0
497,617,0,0,0,0,0,0,0,0,0,-1,1721,407,0,0
504,617,0,0,0,0,0,0,0,0,0,-1,1728,407,0,0
511,617,0,0,0,0,0,0,0,0,0,-1,1735,407,0,0
518,617,0,0,0,0,0,0,0,0,0,-1,1742,407,0,0
525,617,0,0,0,0,0,0,0,0,0,-1,1749,407,0,0
532,617,0,0,0,0,0,0,0,0,0,-1,1756,407,0,0
539,617,0,0,0,0,0,0,0,0,0,-1,1763,407,0,0
546,617,0,0,0,0,0,0,0,0,0,-1,1770,407,0,0
553,617,0,0,0,0,0,0,0,0,0,-1,1777,407,0,0
560,617,0,0,0,0,0,0,0,0,0,-1,1784,407,0,0
567,617,0,0,0,0,0,0,0,0,0,-1,1791,407,0,0
574,617,0,0,0,0,0,0,0,0,0,-1,1798,407,0,0
581,617,0,0,0,0,0,0,0,0,0,-1,1805,407,0,0
588,617,0,0,0,0,0,0,0,0,0,-1,1812,407,0,0
595,617,0,0,0,0,0,0,0,0,0,-1,1819,407,0,0
602,617,0,0,0,0,0,0,0,0,0,-1,1826,407,0,0
609,617,0,0,0,0,0,0,0,0,0,-1,1833,407,0,0
616,617,0,0,0,0,0,0,0,0,0,-1,1840,407,0,0
623,617,0,0,0,0,0,0,0,0,0,-1,1847,407,0,0
630,617,0,0,0,0,0,0,0,0,0,-1,1854,407,0,0
637,617,0,0,0,0,0,0,0,0,0,-1,1861,407,0,0
644,617,0,0,0,0,0,0,0,0,0,-1,1868,407,0,0
651,617,0,0,0,0,0,0,0,0,0,-1,1875,407,0,0
658,617,0,0,0,0,0,0,0,0,0,-1,1882,407,0,0
665,617,0,0,0,0,0,0,0,0,0,-1,1889,407,0,0
672,617,0,0,0,0,0,0,0,0,0,-1,1896,407,0,0
679,617,0,0,0,0,0,0,0,0,0,-1,1903,407,0,0
686,617,0,0,0,0,0,0,0,0,0,-1,1910,407,0,0
693,617,0,0,0,0,0,0,0,0,0,-1,1917,407,0,0
700,617,0,0,0,0,0,0,0,0,0,-1,1924,407,0,0
707,617,0,0,0,0,0,0,0,0,0,-1,1931,407,0,0
714,617,0,0,0,0,0,0,0,0,0,-1,1938,407,0,0
721,617,0,0,0,0,0,0,0,0,0,-1,1945,407,0,0
728,617,0,0,0,0,0,0,0,0,0,-1,1952,407,0,0
735,617,0,0,0,0,0,0,0,0,0,-1,1959,407,0,0
742,617,0,0,0,0,0,0,0,0,0,-1,1966,407,0,0
749,617,0,0,0,0,0,0,0,0,0,-1,1973,407,0,0
756,617,0,0,0,0,0,0,0,0,0,-1,1980,407,0,0
763,617,0,0,0,0,0,0,0,0,0,-1,1987,407,0,0
770,617,0,0,0,0,0,0,0,0,0,-1,1994,407,0,0
777,617,0,0,0,0,0,0,0,0,0,-1,2001,407,0,0
784,617,0,0,0,0,0,0,0,0,0,-1,2008,407,0,0
791,617,0,0,0,0,0,0,0,0,0,-1,2015,407,0,0
798,617,0,0,0,0,0,0,0,0,0,-1,2022,407,0,0
805,617,0,0,0,0,0,0,0,0,0,-1,2029,407,0,0
812,617,0,0,0,0,0,0,0,0,0,-1,2036,407,0,0
-700,610,0,0,0,0,0,0,0,0,0,-1,524,414,0,0
-693,610,0,0,0,0,0,0,0,0,0,-1,531,414,0,0
-686,610,0,0,0,0,0,0,0,0,0,-1,538,414,0,0
-679,610,0,0,0,0,0,0,0,0,0,-1,545,414,0,0
-672,610,0,0,0,0,0,0,0,0,0,-1,552,414,0,0
-665,610,0,0,0,0,0,0,0,0,0,-1,559,414,0,0
-658,610,0,0,0,0,0,0,0,0,0,-1,566,414,0,0
-651,610,0,0,0,0,0,0,0,0,0,-1,573,414,0,0
-644,610,0,0,0,0,0,0,0,0,0,-1,580,414,0,0
-637,610,0,0,0,0,0,0,0,0,0,-1,587,414,0,0
-630,610,0,0,0,0,0,0,0,0,0,-1,594,414,0,0
-623,610,0,0,0,0,0,0,0,0,0,-1,601,414,0,0
-616,610,0,0,0,0,0,0,0,0,0,-1,608,414,0,0
-609,610,0,0,0,0,0,0,0,0,0,-1,615,414,0,0
-602,610,0,0,0,0,0,0,0,0,0,-1,622,414,0,0
-595,610,0,0,0,0,0,0,0,0,0,-1,629,414,0,0
-588,610,0,0,0,0,0,0,0,0,0,-1,636,414,0,0
-581,610,0,0,0,0,0,0,0,0,0,-1,643,414,0,0
-574,610,0,0,0,0,0,0,0,0,0,-1,650,414,0,0
-567,610,0,0,0,0,0,0,0,0,0,-1,657,414,0,0
-560,610,0,0,0,0,0,0,0,0,0,-1,664,414,0,0
-553,610,0,0,0,0,0,0,0,0,0,-1,671,414,0,0
-546,610,0,0,0,0,0,0,0,0,0,-1,678,414,0,0
-539,610,0,0,0,0,0,0,0,0,0,-1,685,414,0,0
-532,610,0,0,0,0,0,0,0,0,0,-1,692,414,0,0
-525,610,0,0,0,0,0,0,0,0,0,-1,699,414,0,0
-518,610,0,0,0,0,0,0,0,0,0,-1,706,414,0,0
-511,610,0,0,0,0,0,0,0,0,0,-1,713,414,0,0
-504,610,0,0,0,0,0,0,0,0,0,-1,720,414,0,0
-497,610,0,0,0,0,0,0,0,0,0,-1,727,414,0,0
-490,610,0,0,0,0,0,0,0,0,0,-1,734,414,0,0
-483,610,0,0,0,0,0,0,0,0,0,-1,741,414,0,0
-476,610,0,0,0,0,0,0,0,0,0,-1,748,414,0,0
-469,610,0,0,0,0,0,0,0,0,0,-1,755,414,0,0
-462,610,0,0,0,0,0,0,0,0,0,-1,762,414,0,0
-455,610,0,0,0,0,0,0,0,0,0,-1,769,414,0,0
-448,610,0,0,0,0,0,0,0,0,0,-1,776,414,0,0
-441,610,0,0,0,0,0,0,0,0,0,-1,783,414,0,0
-434,610,0,0,0,0,0,0,0,0,0,-1,790,414,0,0
-427,610,0,0,0,0,0,0,0,0,0,-1,797,414,0,0
-420,610,0,0,0,0,0,0,0,0,0,-1,804,414,0,0
-413,610,0,0,0,0,0,0,0,0,0,-1,811,414,0,0
-406,610,0,0,0,0,0,0,0,0,0,-1,818,414,0,0
-399,610,0,0,0,0,0,0,0,0,0,-1,825,414,0,0
-392,610,0,0,0,0,0,0,0,0,0,-1,832,414,0,0
-385,610,0,0,0,0,0,0,0,0,0,-1,839,414,0,0
-378,610,0,0,0,0,0,0,0,0,0,-1,846,414,0,0
-371,610,0,0,0,0,0,0,0,0,0,-1,853,414,0,0
-364,610,0,0,0,0,0,0,0,0,0,-1,860,414,0,0
-357,610,0,0,0,0,0,0,0,0,0,-1,867,414,0,0
-350,610,0,0,0,0,0,0,0,0,0,-1,874,414,0,0
-343,610,0,0,0,0,0,0,0,0,0,-1,881,414,0,0
-336,610,0,0,0,0,0,0,0,0,0,-1,888,414,0,0
-329,610,0,0,0,0,0,0,0,0,0,-1,895,414,0,0
-322,610,0,0,0,0,0,0,0,0,0,-1,902,414,0,0
-315,610,0.587463,2.35367,0,0,0,0,0,0,0,-1,909,414,0.587438,-2.35368
-308,610,0.74585,2.52954,0,0,0,0,0,0,0,-1,916,414,0.745819,-2.52955
-301,610,-0.70166,-1.16528,0,0,0,0,0,0,0,-1,923,414,-0.701672,1.16528
-294,610,-0.619263,1.50916,0,0,0,0,0,0,0,-1,930,414,-0.619261,-1.50916
-287,610,-0.846619,0.0937805,0,0,0,0,0,0,0,-1,937,414,-0.846602,-0.093769
-280,610,-0.609009,0.00204468,0.00424296,0.030297,-0.0121136,0.0350588,-0.000518851,-1.19626,0.0235474,0.0454272,944,414,-0.609007,-0.00202968
-273,610,-0.302917,-0.109009,0.00280242,0.0239009,-0.0112962,0.0288077,-0.0021044,-1.16101,0.0199437,0.0430696,951,414,-0.302945,0.109013
-266,610,0.196167,-0.102509,0.00127477,0.0175227,-0.00968754,0.0220418,-0.00324434,-1.13432,0.0158868,0.0436624,958,414,0.196168,0.102519
-259,610,-0.226196,-0.0787048,0.000348084,0.0119338,-0.00768659,0.015766,-0.00348407,-1.10831,0.0118441,0.0450879,965,414,-0.226226,0.078712
-252,610,-0.34729,-0.0364075,-0.000145891,0.00740335,-0.00581417,0.0105607,-0.00330325,-1.07331,0.00836194,0.0439057,972,414,-0.347273,0.0364103
-245,610,-0.0406494,-0.14978,-0.000605875,0.00479323,-0.00421373,0.00709798,-0.00291063,-1.07029,0.00594466,0.0408,979,414,-0.0406353,0.149769
-238,610,0.0355225,-0.0203247,-0.0010206,0.00239825,-0.00277814,0.00395076,-0.00257311,-1.0612,0.00379445,0.0365502,986,414,0.0355161,0.0203264
-231,610,-0.00994873,-0.0415649,-0.00124068,0.000648601,-0.00192874,0.0018516,-0.00244369,-1.01311,0.00248773,0.0299332,993,414,-0.00997295,0.0415586
-224,610,0.0172729,-0.0793762,-0.00153468,-0.000651083,-0.00152883,0.000498504,-0.00268426,-0.926055,0.00197674,0.0216802,1000,414,0.0172942,0.0793683
-217,610,-0.00946045,-0.070282,-0.00170459,-0.00160384,-0.00126775,-0.000385464,-0.00292297,-0.805255,0.00183372,0.0147223,1007,414,-0.00945896,0.0702928
-210,610,-0.0309448,-0.059967,-0.00140827,-0.00240293,-0.00110129,-0.000697226,-0.00311398,-0.573311,0.00188701,0.0099843,1014,414,-0.0309155,0.0599739
-203,610,-0.0163574,-0.0600891,-0.00104812,-0.0027027,-0.000861308,-0.000681152,-0.00306967,-0.402772,0.00186141,0.0124074,1021,414,-0.0163505,0.0600969
-196,610,-0.010376,-0.0696716,-0.0011628,-0.00273902,-0.000675335,-0.000913031,-0.00298879,-0.354245,0.00176857,0.012468,1028,414,-0.0103482,0.0696798
-189,610,-0.0109863,-0.0546265,-0.00126465,-0.00263204,-0.000559461,-0.00106492,-0.00283176,-0.342898,0.00165158,0.00993796,1035,414,-0.0109494,0.054621
-182,610,-0.0209961,-0.0576172,-0.00123177,-0.00230443,-0.000451936,-0.00106674,-0.00246946,-0.350103,0.00143013,0.0102441,1042,414,-0.0210381,0.0576219
-175,610,-0.0258789,-0.0519104,-0.00144366,-0.00184605,-0.00025387,-0.00132092,-0.00196878,-0.450317,0.00115861,0.0103035,1049,414,-0.0258778,0.0519028
-168,610,-0.0159912,-0.0489502,-0.00175336,-0.00132483,1.13744e-05,-0.00132453,-0.00175366,1.54428,0.00105555,0.00979362,1056,414,-0.0159531,0.0489423
-161,610,-0.0161133,-0.0742493,-0.00163776,-0.000594991,0.000133623,-0.000578141,-0.00165461,1.44535,0.000969625,0.00957766,1063,414,-0.0160952,0.0742428
-154,610,-0.0350342,-0.102997,-0.00151745,-0.000128433,0.000142958,-0.000113872,-0.00153201,1.46929,0.000985576,0.0120613,1070,414,-0.0350285,0.102985
-147,610,-0.0371094,-0.123871,-0.00150945,0.000214865,0.000121781,0.000223424,-0.00151801,1.50063,0.00109411,0.0142142,1077,414,-0.03717,0.123869
-140,610,-0.0108643,-0.0993958,-0.00139945,0.000411424,4.26429e-06,0.000411434,-0.00139946,1.56844,0.00109617,0.0111766,1084,414,-0.0108188,0.0993893
-133,610,-0.036377,-0.0901489,-0.000903675,0.000647764,-0.000188716,0.00067039,-0.0009263,-1.45147,0.000925788,0.0117658,1091,414,-0.0363475,0.0901391
-126,610,-0.0473633,-0.0776978,-0.000402456,0.000766317,-0.000186371,0.000795315,-0.000431455,-1.41644,0.000718586,0.011565,1098,414,-0.0473358,0.0777109
-119,610,-0.0474854,-0.0655823,-6.38647e-05,0.000779347,-0.000158353,0.000808105,-9.26224e-05,-1.39115,0.000572115,0.0102695,1105,414,-0.0475028,0.065587
-112,610,-0.0151367,-0.0589905,0.000379539,0.000539274,-4.22376e-05,0.000549755,0.000369058,-1.32757,0.000323552,0.0171269,1112,414,-0.0150853,0.0589945
-105,610,-0.00671387,-0.0614014,0.000720973,0.000368515,0.000265883,0.000863728,0.00022576,0.492735,0.000517257,0.0163204,1119,414,-0.00665804,0.061407
-98,610,-0.0362549,-0.0933838,0.00102176,4.55632e-05,0.000609152,0.00131424,-0.00024692,0.44764,0.000969011,0.0111709,1126,414,-0.0362514,0.0933778
-91,610,-0.034668,-0.0840149,0.00142535,-0.000368787,0.000847483,0.00176236,-0.000705801,0.378492,0.00146787,0.0123809,1133,414,-0.0347278,0.0840039
-84,610,-0.00183105,-0.0773926,0.00164009,-0.00137767,0.00105864,0.00197443,-0.00171201,0.305903,0.00213016,0.0131081,1140,414,-0.00187591,0.0773906
-77,610,-0.00683594,-0.0930176,0.00163072,-0.00248495,0.0012531,0.00198223,-0.00283646,0.273483,0.0027966,0.00980005,1147,414,-0.00686433,0.0930049
-70,610,-0.0162354,-0.102814,0.00150271,-0.0032327,0.00179132,0.00210399,-0.00383398,0.323845,0.00347645,0.0113724,1154,414,-0.0162691,0.102813
-63,610,-0.0223389,-0.08078,0.00128505,-0.00486635,0.00227243,0.00203347,-0.00561477,0.318157,0.00457423,0.010659,1161,414,-0.0223158,0.08077
-56,610,-0.027832,-0.0585022,0.00108829,-0.00581535,0.00272779,0.002036,-0.00676307,0.334383,0.0053189,0.00841067,1168,414,-0.0278266,0.0584925
-49,610,-0.0302734,-0.0859985,0.00152142,-0.00727656,0.00279242,0.00233287,-0.00808801,0.282803,0.00631494,0.00885657,1175,414,-0.0302622,0.0859872
-42,610,-0.020752,-0.101563,0.00227922,-0.00824084,0.00247294,0.00283153,-0.00879316,0.219737,0.00699954,0.0124099,1182,414,-0.0207703,0.101564
-35,610,-0.0137939,-0.0782166,0.00252636,-0.00888946,0.00231367,0.00297745,-0.00934055,0.192552,0.00742136,0.0129673,1189,414,-0.0138268,0.0782041
-28,610,-0.0142822,-0.0820007,0.0024305,-0.00921128,0.00167828,0.00266761,-0.00944839,0.140353,0.00735128,0.0115841,1196,414,-0.0142595,0.0820113
-21,610,-0.0213623,-0.074646,0.00226179,-0.00878172,0.000689655,0.00230469,-0.00882462,0.0621272,0.0067831,0.010307,1203,414,-0.0213201,0.074638
-14,610,-0.0390625,-0.0556335,0.00232757,-0.00796745,-0.000279303,0.00233514,-0.00797503,-0.0271033,0.00624239,0.0124556,1210,414,-0.039022,0.0556382
-7,610,-0.0478516,-0.0519104,0.00255788,-0.00612119,-0.000832892,0.00263708,-0.00620039,-0.0948127,0.00523874,0.0138508,1217,414,-0.0477927,0.0519192
0,610,-0.0308838,-0.0711975,0.00301501,-0.00433259,-0.00129554,0.00323676,-0.00455433,-0.169514,0.00451957,0.00999927,1224,414,-0.0308305,0.0711914
7,610,-0.0239258,-0.0757141,0.003713,-0.00245314,-0.00136354,0.00400107,-0.00274121,-0.208202,0.00391524,0.00968734,1231,414,-0.0239713,0.0757272
14,610,-0.0395508,-0.08255,0.00445637,-0.000884752,-0.000914068,0.00460847,-0.00103685,-0.164888,0.00346996,0.011556,1238,414,-0.0395121,0.0825432
21,610,-0.0377197,-0.0595093,0.00527049,0.00116796,-0.000139749,0.00527524,0.00116321,-0.0340116,0.00320035,0.0107937,1245,414,-0.0377467,0.0595156
28,610,-0.0163574,-0.0706482,0.00645261,0.00282313,0.000800464,0.00662131,0.00265443,0.20771,0.00384776,0.0106322,1252,414,-0.016372,0.0706551
35,610,0.0113525,-0.0740051,0.00756019,0.00269195,0.00143136,0.00794985,0.00230229,0.26579,0.00472336,0.0131816,1259,414,0.0114055,0.0739925
42,610,-0.000610352,-0.0701904,0.00941957,0.00261963,0.00230672,0.0101282,0.00191098,0.298059,0.00621389,0.013258,1266,414,-0.000618702,0.0702044
49,610,-0.0202637,-0.0775757,0.0115806,0.00161292,0.00277579,0.0123015,0.00089206,0.254084,0.00792041,0.0137667,1273,414,-0.0202808,0.077571
56,610,-0.0109863,-0.0695496,0.0130973,0.000954655,0.00298841,0.0137929,0.000259031,0.228701,0.00911016,0.012214,1280,414,-0.0109284,0.0695606
63,610,-0.0268555,-0.0651245,0.0146637,-0.000859301,0.00192459,0.0148988,-0.00109436,0.121532,0.0103167,0.0156402,1287,414,-0.026876,0.0651263
70,610,-0.0554199,-0.0758057,0.0161241,-0.0028094,-0.000476636,0.0161361,-0.00282139,-0.025153,0.0118107,0.021936,1294,414,-0.055395,0.075808
77,610,-0.0864258,-0.072937,0.0173212,-0.0043973,-0.00272333,0.0176574,-0.00473358,-0.122859,0.0136264,0.026441,1301,414,-0.0864525,0.0729298
84,610,-0.0957031,-0.0719299,0.0180346,-0.00606108,-0.00530406,0.0191505,-0.00717695,-0.207358,0.0157154,0.0287524,1308,414,-0.0957608,0.0719366
91,610,-0.0617676,-0.0773621,0.0178154,-0.00718354,-0.00825964,0.0202979,-0.009666,-0.291964,0.0176589,0.0239271,1315,414,-0.061727,0.0773681
98,610,0.0340576,-0.0775757,0.0166582,-0.00837728,-0.011317,0.0210155,-0.0127346,-0.36753,0.0196802,0.0217968,1322,414,0.0340942,0.0775664
105,610,0.0186768,-0.0499573,0.0150992,-0.00875466,-0.0137566,0.0213793,-0.0150348,-0.428259,0.0211298,0.0177277,1329,414,0.0186685,0.0499607
112,610,-0.026123,-0.0639954,0.0131531,-0.00860906,-0.0153755,0.0211083,-0.0165642,-0.477464,0.0218029,0.0111968,1336,414,-0.0261459,0.0639968
119,610,-0.0483398,-0.0508423,0.0109604,-0.00814057,-0.0161906,0.0202074,-0.0173876,-0.518926,0.0217258,0.0161438,1343,414,-0.0483983,0.0508338
126,610,-0.0174561,-0.0530701,0.00894323,-0.00780843,-0.0156379,0.0183072,-0.0171724,-0.539534,0.0204876,0.0240899,1350,414,-0.0174181,0.0530761
133,610,-0.0101318,-0.079834,0.00707849,-0.0078704,-0.0143781,0.0158089,-0.0166008,-0.545698,0.0187136,0.0186231,1357,414,-0.0101763,0.0798253
140,610,-0.0355225,-0.0912781,0.00546465,-0.00699135,-0.0127356,0.0134135,-0.0149402,-0.557984,0.0163779,0.0143448,1364,414,-0.0354633,0.091279
147,610,-0.0390625,-0.0813904,0.00402729,-0.00554818,-0.0102852,0.0105845,-0.0121054,-0.567565,0.0131098,0.0153763,1371,414,-0.0390764,0.0814027
154,610,-0.0411377,-0.0987244,0.00281657,-0.00545166,-0.00774084,0.00745807,-0.0100932,-0.540135,0.0101712,0.0198258,1378,414,-0.0411383,0.0987111
161,610,-0.0588379,-0.105133,0.00232132,-0.0050405,-0.00532938,0.0051174,-0.00783658,-0.483176,0.00753371,0.024968,1385,414,-0.0588236,0.105132
168,610,-0.059082,-0.0944519,0.00208362,-0.00376758,-0.00280311,0.00320976,-0.00489372,-0.38201,0.0047121,0.0251111,1392,414,-0.059101,0.0944366
175,610,-0.0267334,-0.0812378,0.00258958,-0.00289491,-0.000609466,0.00265649,-0.00296182,-0.109348,0.00324533,0.0198412,1399,414,-0.0266732,0.0812409
182,610,-0.0090332,-0.0777283,0.00300079,-0.00196662,0.000195798,0.0030085,-0.00197433,0.0393351,0.00289742,0.014144,1406,414,-0.00908037,0.077734
189,610,-0.0270996,-0.0753784,0.00348823,-0.00107241,0.000474493,0.00353707,-0.00112125,0.102577,0.00280745,0.0126597,1413,414,-0.0270809,0.0753834
196,610,-0.0402832,-0.079895,0.00380611,-0.000218797,0.000544367,0.00387844,-0.000291123,0.132088,0.00268793,0.0126029,1420,414,-0.0402938,0.0799061
203,610,-0.0378418,-0.0751038,0.0039271,0.000578475,0.000462167,0.00398972,0.000515859,0.134663,0.00250562,0.0139316,1427,414,-0.0378752,0.0751105
210,610,-0.0385742,-0.0761719,0.0037965,0.00107382,0.000244424,0.00381827,0.00105205,0.0888268,0.00227733,0.010448,1434,414,-0.0385192,0.0761619
217,610,-0.0341797,-0.0766296,0.00363452,0.00153154,-1.72823e-05,0.00363467,0.0015314,-0.00821725,0.00210712,0.0156233,1441,414,-0.0341232,0.0766288
224,610,-0.0394287,-0.0687561,0.00350405,0.00192553,-0.000254856,0.00354418,0.0018854,-0.156167,0.00204763,0.0183866,1448,414,-0.0394539,0.0687516
231,610,-0.039917,-0.071167,0.0032286,0.00214622,-0.000536614,0.00344954,0.00192528,-0.390576,0.00199608,0.014384,1455,414,-0.0398621,0.0711551
238,610,-0.0314941,-0.0788879,0.00280205,0.00222488,-0.000739074,0.00330688,0.00172005,-0.599268,0.00190975,0.010656,1462,414,-0.0314556,0.0788782
245,610,-0.00549316,-0.104126,0.0023609,0.00188603,-0.000825362,0.0029823,0.00126463,-0.645344,0.00172844,0.0123016,1469,414,-0.00548725,0.104112
252,610,-0.00805664,-0.086792,0.00161485,0.00117515,-0.00104839,0.00246619,0.000323809,-0.682043,0.00154753,0.0138909,1476,414,-0.00800478,0.0867961
259,610,-0.0128174,-0.0623169,0.000996245,0.000953445,-0.000974711,0.00194979,-1.0099e-07,-0.774422,0.00129989,0.0112388,1483,414,-0.0127981,0.0623118
266,610,-0.0267334,-0.0555725,0.000531619,0.000507638,-0.000961466,0.00148117,-0.000441913,-0.779163,0.00116308,0.0113102,1490,414,-0.0267229,0.0555731
273,610,-0.0407715,-0.0609741,1.9191e-05,-2.07938e-05,-0.000926233,0.000925648,-0.000927251,-0.774608,0.00106977,0.00976622,1497,414,-0.0408017,0.0609881
280,610,-0.0432129,-0.0627747,-0.000512623,-0.000417767,-0.000969116,0.000505081,-0.00143547,-0.809848,0.00116251,0.00922537,1504,414,-0.0432475,0.0627666
287,610,-0.055542,-0.0662231,-0.00106485,-0.00105671,-0.00105446,-6.30901e-06,-0.00211525,-0.787328,0.00140807,0.0115773,1511,414,-0.0555025,0.0662261
294,610,-0.0408936,-0.065155,-0.00171516,-0.00135614,-0.00130473,-0.000218634,-0.00285267,-0.85376,0.00183325,0.00984615,1518,414,-0.0409431,0.0651673
301,610,-0.0266113,-0.0610962,-0.00242588,-0.00146721,-0.00133206,-0.00053086,-0.00336223,-0.958107,0.00208716,0.0093459,1525,414,-0.0265567,0.0610996
308,610,-0.013916,-0.0710449,-0.00286455,-0.00154932,-0.00141986,-0.000642178,-0.00377169,-1.00227,0.00233009,0.0115522,1532,414,-0.013916,0.0710316
315,610,-0.0332031,-0.0906372,-0.00304009,-0.00159528,-0.00145921,-0.000689445,-0.00394592,-1.01525,0.00243357,0.0121135,1539,414,-0.0332033,0.0906461
322,610,-0.0322266,-0.0662231,-0.00321653,-0.0014452,-0.00138049,-0.000690692,-0.00397104,-1.07061,0.0024498,0.0123391,1546,414,-0.0322347,0.0662237
329,610,-0.0267334,-0.0520325,-0.00320659,-0.00113687,-0.00130679,-0.000504807,-0.00383865,-1.12029,0.00240853,0.0110365,1553,414,-0.0267336,0.0520205
336,610,-0.0288086,-0.0587463,-0.0030915,-0.000825517,-0.000933969,-0.000490187,-0.00342683,-1.22609,0.00213995,0.00930577,1560,414,-0.0287992,0.0587435
343,610,-0.039917,-0.0614319,-0.00323951,-0.000171395,-0.000396346,-0.000121021,-0.00328988,-1.44438,0.00215405,0.0119213,1567,414,-0.0398633,0.0614382
350,610,-0.0310059,-0.0752869,-0.00305897,0.000334201,-0.000161183,0.000341841,-0.00306661,-1.52344,0.00216736,0.0160266,1574,414,-0.0309653,0.075292
357,610,-0.0198975,-0.0956726,-0.00304918,0.0011558,-0.000468641,0.0012074,-0.00310078,-1.46114,0.00256615,0.0217788,1581,414,-0.0199178,0.0956807
364,610,-0.0371094,-0.0401917,-0.00325058,0.00159605,-0.000363972,0.00162323,-0.00327776,-1.49626,0.00288283,0.0251415,1588,414,-0.0370707,0.0401964
371,610,-0.0944824,0.015625,-0.00321691,0.00153706,-0.000679131,0.00163217,-0.00331202,-1.43165,0.00290893,0.0379231,1595,414,-0.0945111,-0.0156231
378,610,-0.182251,-0.0140991,-0.00334911,0.000916192,-0.00163911,0.00147332,-0.00390623,-1.24315,0.00321001,0.0409942,1602,414,-0.182269,0.0141038
385,610,0.309448,-0.114319,-0.00357534,-0.00097738,-0.00273373,0.000750296,-0.00530301,-1.00719,0.00381015,0.0424749,1609,414,0.309436,0.114309
392,610,0.540649,0.0726624,0,0,0,0,0,0,0,-1,1616,414,0.540687,-0.0726679
399,610,0.097168,-0.239197,-0.00382962,-0.00344589,-0.00460636,0.000972598,-0.00824811,-0.806212,0.00584995,0.0426166,1623,414,0.0971586,0.239197
406,610,0.013916,-0.224152,-0.0035693,-0.00640234,-0.00617065,0.00134533,-0.011317,-0.672574,0.00803074,0.0418623,1630,414,0.0139477,0.224164
413,610,-0.422607,-0.147064,-0.00394141,-0.00883734,-0.00710944,0.00112971,-0.0139085,-0.619593,0.0096709,0.0410035,1637,414,-0.422605,0.14707
420,610,-0.423218,-0.195923,-0.00431834,-0.0112104,-0.00737168,0.000372993,-0.0159017,-0.566755,0.0107277,0.0419172,1644,414,-0.423239,0.19592
427,610,-0.320313,-0.232452,-0.00349154,-0.0136771,-0.00708409,0.000140398,-0.0173091,-0.473747,0.0115865,0.0415731,1651,414,-0.320279,0.23246
434,610,-0.255005,-0.351349,-0.00215553,-0.0145989,-0.0060766,0.000319594,-0.017074,-0.386801,0.0114907,0.040459,1658,414,-0.255029,0.351364
441,610,0,0,0,0,0,0,0,0,0,-1,1665,414,0,0
448,610,0,0,0,0,0,0,0,0,0,-1,1672,414,0,0
455,610,0,0,0,0,0,0,0,0,0,-1,1679,414,0,0
462,610,0,0,0,0,0,0,0,0,0,-1,1686,414,0,0
469,610,0,0,0,0,0,0,0,0,0,-1,1693,414,0,0
476,610,0,0,0,0,0,0,0,0,0,-1,1700,414,0,0
483,610,0,0,0,0,0,0,0,0,0,-1,1707,414,0,0
490,610,0,0,0,0,0,0,0,0,0,-1,1714,414,0,0
497,610,0,0,0,0,0,0,0,0,0,-1,1721,414,0,0
504,610,0,0,0,0,0,0,0,0,0,-1,1728,414,0,0
511,610,0,0,0,0,0,0,0,0,0,-1,1735,414,0,0
518,610,0,0,0,0,0,0,0,0,0,-1,1742,414,0,0
525,610,0,0,0,0,0,0,0,0,0,-1,1749,414,0,0
532,610,0,0,0,0,0,0,0,0,0,-1,1756,414,0,0
539,610,0,0,0,0,0,0,0,0,0,-1,1763,414,0,0
546,610,0,0,0,0,0,0,0,0,0,-1,1770,414,0,0
553,610,0,0,0,0,0,0,0,0,0,-1,1777,414,0,0
560,610,0,0,0,0,0,0,0,0,0,-1,1784,414,0,0
567,610,0,0,0,0,0,0,0,0,0,-1,1791,414,0,0
574,610,0,0,0,0,0,0,0,0,0,-1,1798,414,0,0
581,610,0,0,0,0,0,0,0,0,0,-1,1805,414,0,0
588,610,0,0,0,0,0,0,0,0,0,-1,1812,414,0,0
595,610,0,0,0,0,0,0,0,0,0,-1,1819,414,0,0
602,610,0,0,0,0,0,0,0,0,0,-1,1826,414,0,0
609,610,0,0,0,0,0,0,0,0,0,-1,1833,414,0,0
616,610,0,0,0,0,0,0,0,0,0,-1,1840,414,0,0
623,610,0,0,0,0,0,0,0,0,0,-1,1847,414,0,0
630,610,0,0,0,0,0,0,0,0,0,-1,1854,414,0,0
637,610,0,0,0,0,0,0,0,0,0,-1,1861,414,0,0
644,610,0,0,0,0,0,0,0,0,0,-1,1868,414,0,0
651,610,0,0,0,0,0,0,0,0,0,-1,1875,414,0,0
658,610,0,0,0,0,0,0,0,0,0,-1,1882,414,0,0
665,610,0,0,0,0,0,0,0,0,0,-1,1889,414,0,0
672,610,0,0,0,0,0,0,0,0,0,-1,1896,414,0,0
679,610,0,0,0,0,0,0,0,0,0,-1,1903,414,0,0
686,610,0,0,0,0,0,0,0,0,0,-1,1910,414,0,0
693,610,0,0,0,0,0,0,0,0,0,-1,1917,414,0,0
700,610,0,0,0,0,0,0,0,0,0,-1,1924,414,0,0
707,610,0,0,0,0,0,0,0,0,0,-1,1931,414,0,0
714,610,0,0,0,0,0,0,0,0,0,-1,1938,414,0,0
721,610,0,0,0,0,0,0,0,0,0,-1,1945,414,0,0
728,610,0,0,0,0,0,0,0,0,0,-1,1952,414,0,0
735,610,0,0,0,0,0,0,0,0,0,-1,1959,414,0,0
742,610,0,0,0,0,0,0,0,0,0,-1,1966,414,0,0
749,610,0,0,0,0,0,0,0,0,0,-1,1973,414,0,0
756,610,0,0,0,0,0,0,0,0,0,-1,1980,414,0,0
763,610,0,0,0,0,0,0,0,0,0,-1,1987,414,0,0
770,610,0,0,0,0,0,0,0,0,0,-1,1994,414,0,0
777,610,0,0,0,0,0,0,0,0,0,-1,2001,414,0,0
784,610,0,0,0,0,0,0,0,0,0,-1,2008,414,0,0
791,610,0,0,0,0,0,0,0,0,0,-1,2015,414,0,0
798,610,0,0,0,0,0,0,0,0,0,-1,2022,414,0,0
805,610,0,0,0,0,0,0,0,0,0,-1,2029,414,0,0
812,610,0,0,0,0,0,0,0,0,0,-1,2036,414,0,0
-700,603,0,0,0,0,0,0,0,0,0,-1,524,421,0,0
-693,603,0,0,0,0,0,0,0,0,0,-1,531,421,0,0
-686,603,0,0,0,0,0,0,0,0,0,-1,538,421,0,0
-679,603,0,0,0,0,0,0,0,0,0,-1,545,421,0,0
-672,603,0,0,0,0,0,0,0,0,0,-1,552,421,0,0
-665,603,0,0,0,0,0,0,0,0,0,-1,559,421,0,0
-658,603,0,0,0,0,0,0,0,0,0,-1,566,421,0,0
-651,603,0,0,0,0,0,0,0,0,0,-1,573,421,0,0
-644,603,0,0,0,0,0,0,0,0,0,-1,580,421,0,0
-637,603,0,0,0,0,0,0,0,0,0,-1,587,421,0,0
-630,603,0,0,0,0,0,0,0,0,0,-1,594,421,0,0
-623,603,0,0,0,0,0,0,0,0,0,-1,601,421,0,0
-616,603,0,0,0,0,0,0,0,0,0,-1,608,421,0,0
-609,603,0,0,0,0,0,0,0,0,0,-1,615,421,0,0
-602,603,0,0,0,0,0,0,0,0,0,-1,622,421,0,0
-595,603,0,0,0,0,0,0,0,0,0,-1,629,421,0,0
-588,603,0,0,0,0,0,0,0,0,0,-1,636,421,0,0
-581,603,0,0,0,0,0,0,0,0,0,-1,643,421,0,0
-574,603,0,0,0,0,0,0,0,0,0,-1,650,421,0,0
-567,603,0,0,0,0,0,0,0,0,0,-1,657,421,0,0
-560,603,0,0,0,0,0,0,0,0,0,-1,664,421,0,0
-553,603,0,0,0,0,0,0,0,0,0,-1,671,421,0,0
-546,603,0,0,0,0,0,0,0,0,0,-1,678,421,0,0
-539,603,0,0,0,0,0,0,0,0,0,-1,685,421,0,0
-532,603,0,0,0,0,0,0,0,0,0,-1,692,421,0,0
-525,603,0,0,0,0,0,0,0,0,0,-1,699,421,0,0
-518,603,0,0,0,0,0,0,0,0,0,-1,706,421,0,0
-511,603,0,0,0,0,0,0,0,0,0,-1,713,421,0,0
-504,603,0,0,0,0,0,0,0,0,0,-1,720,421,0,0
-497,603,0,0,0,0,0,0,0,0,0,-1,727,421,0,0
-490,603,0,0,0,0,0,0,0,0,0,-1,734,421,0,0
-483,603,0,0,0,0,0,0,0,0,0,-1,741,421,0,0
-476,603,0,0,0,0,0,0,0,0,0,-1,748,421,0,0
-469,603,0,0,0,0,0,0,0,0,0,-1,755,421,0,0
-462,603,0,0,0,0,0,0,0,0,0,-1,762,421,0,0
-455,603,0,0,0,0,0,0,0,0,0,-1,769,421,0,0
-448,603,0,0,0,0,0,0,0,0,0,-1,776,421,0,0
-441,603,0,0,0,0,0,0,0,0,0,-1,783,421,0,0
-434,603,0,0,0,0,0,0,0,0,0,-1,790,421,0,0
-427,603,0,0,0,0,0,0,0,0,0,-1,797,421,0,0
-420,603,0,0,0,0,0,0,0,0,0,-1,804,421,0,0
-413,603,0,0,0,0,0,0,0,0,0,-1,811,421,0,0
-406,603,0,0,0,0,0,0,0,0,0,-1,818,421,0,0
-399,603,0,0,0,0,0,0,0,0,0,-1,825,421,0,0
-392,603,0,0,0,0,0,0,0,0,0,-1,832,421,0,0
-385,603,0,0,0,0,0,0,0,0,0,-1,839,421,0,0
-378,603,0,0,0,0,0,0,0,0,0,-1,846,421,0,0
-371,603,0,0,0,0,0,0,0,0,0,-1,853,421,0,0
-364,603,0,0,0,0,0,0,0,0,0,-1,860,421,0,0
-357,603,0,0,0,0,0,0,0,0,0,-1,867,421,0,0
-350,603,0,0,0,0,0,0,0,0,0,-1,874,421,0,0
-343,603,0,0,0,0,0,0,0,0,0,-1,881,421,0,0
-336,603,0,0,0,0,0,0,0,0,0,-1,888,421,0,0
-329,603,-0.247681,0.753113,0,0,0,0,0,0,0,-1,895,421,-0.247662,-0.753118
-322,603,0.360107,1.34787,0,0,0,0,0,0,0,-1,902,421,0.360084,-1.34788
-315,603,0.427307,2.02136,0.0243884,0.0487388,-0.00407047,0.0494012,0.0237259,-1.40948,0.0285292,0.0470822,909,421,0.427304,-2.02137
-308,603,0.375183,2.14249,0.0175394,0.0452053,-0.00758707,0.0471494,0.0155953,-1.31996,0.0277366,0.0456914,916,421,0.375156,-2.14247
-301,603,-0.505615,1.3049,0,0,0,0,0,0,0,-1,923,421,-0.505617,-1.30491
-294,603,-0.657349,1.14551,0.00859874,0.0370379,-0.0107088,0.0406193,0.00501734,-1.24805,0.0255717,0.0456611,930,421,-0.657327,-1.14552
-287,603,-0.731445,0.457703,0.00493081,0.0322697,-0.0109064,0.0360875,0.00111302,-1.23408,0.023696,0.0452709,937,421,-0.73142,-0.457714
-280,603,0.21637,0.0372009,0,0,0,0,0,0,0,-1,944,421,0.216393,-0.0371938
-273,603,0.247864,-0.069519,0.00271918,0.0206312,-0.0095748,0.0247858,-0.00143537,-1.16141,0.0170225,0.0420458,951,421,0.24788,0.0695194
-266,603,0.305115,-0.118683,0.00158102,0.0151795,-0.00824587,0.0190678,-0.00230732,-1.13017,0.0135466,0.0429296,958,421,0.30514,0.118685
-259,603,0.0214233,-0.0238647,0.000948713,0.0103714,-0.00655481,0.0137323,-0.00241227,-1.097,0.0100559,0.0426527,965,421,0.0214222,0.0238579
-252,603,-0.154724,-0.0159912,0.000691085,0.00646003,-0.0049483,0.00930319,-0.00215208,-1.04928,0.00703016,0.0353713,972,421,-0.154745,0.0159912
-245,603,-0.012146,-0.0951843,0.000368948,0.00413929,-0.00358473,0.00630432,-0.00179608,-1.02747,0.00491227,0.0267099,979,421,-0.012164,0.0951717
-238,603,0.0228882,-0.0649414,-7.04192e-08,0.00209307,-0.00229753,0.00357118,-0.00147817,-0.999115,0.00299756,0.0163553,986,421,0.0228909,0.0649506
-231,603,-0.0239258,-0.0782776,-0.000220128,0.000637126,-0.00151849,0.00178632,-0.00136933,-0.922955,0.00182721,0.0114855,993,421,-0.0238981,0.0782686
-224,603,-0.0687256,-0.0805359,-0.000503307,-0.000428768,-0.00120335,0.000737885,-0.00166996,-0.800879,0.00142446,0.0119131,1000,421,-0.0687151,0.0805508
-217,603,-0.055481,-0.0613708,-0.00064082,-0.00127148,-0.00102959,0.00012065,-0.00203295,-0.6368,0.00139725,0.0109909,1007,421,-0.0554976,0.0613812
-210,603,-0.0357666,-0.0514221,-0.000336048,-0.00197943,-0.000937904,8.91919e-05,-0.00240467,-0.425673,0.00163366,0.00896568,1014,421,-0.0357684,0.051426
-203,603,-0.0115356,-0.0612488,6.66192e-05,-0.00218809,-0.000734358,0.000284705,-0.00240617,-0.288679,0.00170695,0.0148206,1021,421,-0.011538,0.06124
-196,603,0.000366211,-0.085144,-6.23581e-06,-0.0021955,-0.000578644,0.000137295,-0.00233903,-0.24314,0.00160708,0.0158552,1028,421,0.000308303,0.0851536
-189,603,0.000610352,-0.0839844,-0.000129471,-0.00196529,-0.000472382,-1.50515e-05,-0.00207971,-0.237641,0.00138148,0.0125624,1035,421,0.000659379,0.0839731
-182,603,-0.0117188,-0.0661926,-0.0001343,-0.00153072,-0.000332757,-5.90602e-05,-0.00160596,-0.22237,0.00105151,0.0100924,1042,421,-0.0117024,0.0661884
-175,603,-0.0269775,-0.0563049,-0.000366152,-0.000953669,-0.000119746,-0.000342684,-0.000977137,-0.193535,0.000572473,0.0101985,1049,421,-0.0269754,0.0563131
-168,603,-0.022583,-0.045105,-0.000714826,-0.000292199,0.000126725,-0.000257113,-0.000749912,1.3007,0.000440032,0.0122045,1056,421,-0.022611,0.0450902
-161,603,-0.036377,-0.0500793,-0.000700895,0.000590957,0.00025035,0.000637775,-0.000747713,1.38592,0.000800751,0.0118838,1063,421,-0.0363754,0.0500698
-154,603,-0.0455322,-0.0863953,-0.000732326,0.00121646,0.000260349,0.00125064,-0.000766508,1.44025,0.00117573,0.0120827,1070,421,-0.0454913,0.0863876
-147,603,-0.0373535,-0.106476,-0.00093901,0.00168789,0.000233067,0.00170841,-0.000959528,1.48299,0.00156043,0.0138552,1077,421,-0.0373665,0.106474
-140,603,-0.0177002,-0.091217,-0.000969829,0.00204823,0.000108089,0.00205209,-0.000973695,1.53504,0.00178354,0.0114455,1084,421,-0.0176627,0.091208
-133,603,-0.0394287,-0.0843506,-0.000612959,0.00225891,-0.000153218,0.00226706,-0.00062111,-1.51765,0.00175543,0.0105616,1091,421,-0.0393878,0.0843565
-126,603,-0.0463867,-0.0719299,-0.000235735,0.0023319,-0.000249687,0.00235595,-0.00025979,-1.47475,0.00166401,0.00958251,1098,421,-0.0463342,0.0719208
-119,603,-0.0355225,-0.0593567,-2.91297e-05,0.00229084,-0.000311868,0.00233203,-7.03218e-05,-1.43947,0.00157865,0.00999808,1105,421,-0.0355721,0.0593698
-112,603,-0.0308838,-0.048645,0.000350253,0.00189268,-0.000264316,0.00193672,0.000306216,-1.40571,0.00120214,0.0140666,1112,421,-0.0308277,0.0486596
-105,603,-0.0224609,-0.0910034,0.00069007,0.00156452,5.02261e-05,0.0015674,0.000687195,1.51361,0.000907223,0.0135094,1119,421,-0.0224349,0.0909896
-98,603,-0.0230713,-0.0875549,0.00098517,0.00100414,0.000410159,0.00140493,0.000584388,0.796961,0.000814945,0.0106347,1126,421,-0.0230829,0.0875479
-91,603,-0.0239258,-0.0776367,0.00147187,0.000409842,0.000698765,0.0018185,6.32188e-05,0.460483,0.00119182,0.00740574,1133,421,-0.0239367,0.0776354
-84,603,-0.0112305,-0.0811462,0.00177895,-0.000986447,0.00099364,0.00209895,-0.00130644,0.311558,0.00198377,0.00776006,1140,421,-0.0111753,0.0811321
-77,603,-0.0236816,-0.0852661,0.00181171,-0.00248699,0.00130143,0.00217501,-0.0028503,0.272226,0.00291008,0.00816759,1147,421,-0.0236755,0.0852592
-70,603,-0.0292969,-0.0723877,0.00171344,-0.00349436,0.00209269,0.00245015,-0.00423106,0.338489,0.00390281,0.0100079,1154,421,-0.02933,0.0724023
-63,603,-0.0231934,-0.0531921,0.00150524,-0.00549114,0.00280611,0.00249165,-0.00647755,0.338029,0.0053461,0.00993785,1161,421,-0.0232035,0.053182
-56,603,-0.0335693,-0.0602417,0.00127251,-0.00653845,0.00349706,0.00260938,-0.00787532,0.365141,0.00630271,0.00970244,1168,421,-0.0335134,0.0602344
-49,603,-0.0445557,-0.0836487,0.00180015,-0.00824941,0.00368549,0.00300684,-0.0094561,0.316417,0.00750976,0.01037,1175,421,-0.0446129,0.0836549
-42,603,-0.0322266,-0.0742493,0.00268577,-0.00919163,0.00335591,0.00356838,-0.0100742,0.257178,0.00816966,0.0140051,1182,421,-0.032279,0.0742513
-35,603,-0.0325928,-0.0594482,0.00283059,-0.00927794,0.00315044,0.00360123,-0.0100486,0.239904,0.00816851,0.0144109,1189,421,-0.0325504,0.0594626
-28,603,-0.0698242,-0.0714722,0.00249539,-0.00874744,0.00229799,0.00294695,-0.00919901,0.194032,0.00731559,0.0154688,1196,421,-0.0697659,0.0714724
-21,603,-0.0738525,-0.0658264,0.00204097,-0.0074888,0.00090669,0.00212647,-0.00757429,0.0940189,0.00588778,0.0178113,1203,421,-0.0737932,0.0658284
-14,603,-0.0422363,-0.0510559,0.00188739,-0.0058545,-0.000544975,0.00192557,-0.00589268,-0.0699333,0.00470358,0.0199254,1210,421,-0.042273,0.0510638
-7,603,-0.0133057,-0.0682068,0.00197986,-0.00295058,-0.00144601,0.00237266,-0.00334338,-0.265241,0.00331598,0.022264,1217,421,-0.0132691,0.0681969
0,603,-0.0345459,-0.0809631,0.00243129,-0.000323457,-0.00221779,0.00366462,-0.00155678,-0.507519,0.00309537,0.0248425,1224,421,-0.0344929,0.0809585
7,603,-0.0827637,-0.0535278,0.00321936,0.00222731,-0.0025042,0.00527619,0.000170478,-0.687625,0.00346204,0.0287129,1231,421,-0.0827444,0.0535363
14,603,-0.0161133,-0.071228,0.00411059,0.00421697,-0.00214292,0.00630736,0.0020202,-0.797806,0.00371913,0.026114,1238,421,-0.0161696,0.0712165
21,603,-0.0108643,-0.072998,0.00521195,0.00666732,-0.00135136,0.00747447,0.0044048,-1.03238,0.00433828,0.0197389,1245,421,-0.0108326,0.0729848
28,603,0.00646973,-0.0691528,0.00687542,0.00834786,-0.000243204,0.00838699,0.00683629,-1.41127,0.0051528,0.0221482,1252,421,0.0064306,0.0691645
35,603,-0.00622559,-0.0626221,0.00859612,0.00763817,0.000632712,0.00891071,0.00732358,0.461409,0.00548846,0.0296115,1259,421,-0.00621392,0.0626098
42,603,-0.0184326,-0.067749,0.0112476,0.00685121,0.00190992,0.0119614,0.00613739,0.35767,0.00690673,0.0276173,1266,421,-0.0184405,0.0677521
49,603,0.00305176,-0.080719,0.0143526,0.00478046,0.00275956,0.0150911,0.00404189,0.261511,0.00902054,0.0154532,1273,421,0.00306352,0.0807067
56,603,-0.0405273,-0.0700073,0.0167833,0.00326395,0.00329311,0.0175428,0.00250447,0.226665,0.0109562,0.0280353,1280,421,-0.0404697,0.0700097
63,603,-0.138062,-0.0767822,0.0193187,0.000352685,0.00224215,0.0195801,9.1223e-05,0.116088,0.0130231,0.0407779,1287,421,-0.138028,0.0767888
70,603,-0.262695,0.0152283,0.0216362,-0.00288477,-0.000463673,0.0216449,-0.00289353,-0.0189002,0.0154849,0.043573,1294,421,-0.262668,-0.0152294
77,603,-0.180054,-0.0958862,0.0234003,-0.00546889,-0.00308871,0.023727,-0.00579565,-0.105401,0.0180625,0.0451912,1301,421,-0.180042,0.0958929
84,603,-0.168213,-0.186737,0.0244434,-0.00778568,-0.00619702,0.0255939,-0.00893617,-0.183563,0.0206947,0.0455411,1308,421,-0.168195,0.186735
91,603,0.046875,-0.383362,0.0243161,-0.00933931,-0.00987884,0.0270016,-0.0120248,-0.265424,0.0230783,0.0462322,1315,421,0.0469233,0.383358
98,603,0.394653,-0.296417,0.0227173,-0.0111106,-0.0139658,0.0277379,-0.0161312,-0.345107,0.0256216,0.0446327,1322,421,0.394632,0.296415
105,603,0.274658,-0.144653,0.0205926,-0.0120102,-0.0173967,0.0281319,-0.0195495,-0.408945,0.0276771,0.037743,1329,421,0.274695,0.144649
112,603,0.0623779,-0.114594,0.0179645,-0.0121822,-0.0197716,0.0277533,-0.0219709,-0.459712,0.0287729,0.0294661,1336,421,0.06239,0.114594
119,603,-0.0244141,-0.127136,0.0148712,-0.0112434,-0.0210324,0.0265699,-0.022942,-0.507605,0.0286113,0.0309312,1343,421,-0.0244589,0.127134
126,603,-0.0057373,-0.118256,0.0119501,-0.0108748,-0.0204542,0.0239603,-0.022885,-0.530934,0.0270485,0.0373703,1350,421,-0.0057243,0.118256
133,603,0.0255127,-0.0922852,0.00931359,-0.0109434,-0.0189593,0.0206802,-0.0223101,-0.540073,0.0248264,0.0323696,1357,421,0.0255527,0.0922995
140,603,-0.0145264,-0.0626221,0.00705822,-0.00977691,-0.0170648,0.0176686,-0.0203873,-0.556273,0.0219903,0.0199072,1364,421,-0.0145358,0.0626153
147,603,-0.0611572,-0.0681458,0.00523728,-0.00783609,-0.0140771,0.0142213,-0.0168202,-0.568037,0.0179427,0.0154863,1371,421,-0.0611416,0.0681481
154,603,-0.0614014,-0.0797424,0.00366995,-0.00741504,-0.010965,0.0104137,-0.0141588,-0.551391,0.0142417,0.0238082,1378,421,-0.0613532,0.0797349
161,603,-0.0469971,-0.077179,0.00290473,-0.00653005,-0.00795661,0.00743728,-0.0110626,-0.517811,0.0107491,0.0275935,1385,421,-0.0470455,0.0771882
168,603,-0.0802002,-0.0565796,0.00252618,-0.00466221,-0.00478694,0.00491805,-0.00705409,-0.463381,0.00694869,0.0249342,1392,421,-0.0802173,0.0565778
175,603,-0.0533447,-0.0335693,0.00320871,-0.00332169,-0.00190804,0.00372533,-0.00383831,-0.264419,0.00436703,0.0205818,1399,421,-0.0533108,0.0335684
182,603,0.0032959,-0.0578308,0.00388643,-0.00185393,-0.000654074,0.00396001,-0.00192752,-0.11203,0.00346603,0.0173565,1406,421,0.00328701,0.0578235
189,603,0.00195313,-0.0706482,0.00471748,-0.000468025,-0.000169313,0.004723,-0.000473548,-0.0326048,0.0033178,0.0130908,1413,421,0.00197996,0.0706343
196,603,-0.0218506,-0.0714722,0.00512818,0.000798197,-6.43534e-05,0.00512913,0.00079724,-0.0148579,0.00318709,0.0121606,1420,421,-0.0219036,0.0714712
203,603,-0.0233154,-0.0643311,0.0052211,0.00194429,-4.21921e-05,0.00522164,0.00194374,-0.0128731,0.00304734,0.00836198,1427,421,-0.0232878,0.0643166
210,603,-0.0402832,-0.0648804,0.00500358,0.00260446,-0.000268899,0.00503334,0.00257469,-0.11026,0.00290626,0.00860202,1434,421,-0.0402235,0.0648832
217,603,-0.0375977,-0.0570984,0.00477384,0.00305533,-0.000697445,0.00502127,0.0028079,-0.340912,0.0029058,0.0122796,1441,421,-0.0375529,0.0571131
224,603,-0.050293,-0.0386047,0.00460582,0.00313856,-0.00101113,0.00512143,0.00262295,-0.471564,0.00295715,0.015112,1448,421,-0.0502592,0.0386143
231,603,-0.057373,-0.0353699,0.00424065,0.00349003,-0.00137196,0.0052877,0.00244298,-0.651886,0.00305579,0.0130041,1455,421,-0.0573252,0.035371
238,603,-0.0452881,-0.0481873,0.00367155,0.00355446,-0.00158193,0.00519602,0.00202999,-0.766903,0.00302373,0.0101622,1462,421,-0.0453405,0.0481807
245,603,-0.0233154,-0.0724182,0.00310446,0.00292416,-0.00158129,0.00459817,0.00143045,-0.756924,0.00271718,0.0111351,1469,421,-0.0233403,0.072431
252,603,-0.0153809,-0.0802612,0.00219208,0.00190439,-0.00177865,0.00383269,0.000263785,-0.745049,0.00247189,0.00975517,1476,421,-0.0153214,0.0802599
259,603,-0.0159912,-0.069397,0.00159635,0.00148629,-0.0015429,0.0030852,-2.56847e-06,-0.767573,0.00205766,0.0095855,1483,421,-0.016037,0.0693935
266,603,-0.0354004,-0.0655823,0.00118205,0.000893972,-0.00133553,0.00238128,-0.000305262,-0.731681,0.00169844,0.0111687,1490,421,-0.0354106,0.0655809
273,603,-0.0405273,-0.067627,0.000660614,0.000278747,-0.001172,0.00165713,-0.000717772,-0.704651,0.00140645,0.0101155,1497,421,-0.040485,0.0676338
280,603,-0.0339355,-0.058075,0.000164081,-0.00014183,-0.00111418,0.00113575,-0.0011135,-0.717184,0.00129863,0.0108105,1504,421,-0.0339833,0.0580831
287,603,-0.0404053,-0.0559082,-0.000357185,-0.000776389,-0.00105817,0.000511941,-0.00164551,-0.687624,0.00130166,0.0105572,1511,421,-0.0403672,0.0559201
294,603,-0.0518799,-0.0593872,-0.000989527,-0.00110234,-0.00120991,0.000165289,-0.00225715,-0.762105,0.00156278,0.00943418,1518,421,-0.0519373,0.0593983
301,603,-0.0328369,-0.063385,-0.00163447,-0.00127278,-0.00124172,-0.000198806,-0.00270844,-0.857712,0.00174314,0.0111314,1525,421,-0.0327953,0.063372
308,603,-0.0148926,-0.0672607,-0.00199618,-0.00133698,-0.00134111,-0.000285565,-0.00304759,-0.905895,0.00194355,0.0163867,1532,421,-0.0148417,0.0672482
315,603,-0.0447998,-0.0822144,-0.00217208,-0.00134408,-0.00137156,-0.0003254,-0.00319076,-0.931972,0.00202743,0.0141464,1539,421,-0.0448131,0.0822225
322,603,-0.0483398,-0.0649719,-0.00237162,-0.00125667,-0.0013155,-0.000385393,-0.0032429,-0.985814,0.0020456,0.0136278,1546,421,-0.0482979,0.0649747
329,603,-0.0386963,-0.0523071,-0.00238338,-0.00105775,-0.00130481,-0.000257059,-0.00318407,-1.0204,0.00204243,0.0103405,1553,421,-0.0386612,0.0523119
336,603,-0.0332031,-0.0635071,-0.00225623,-0.000824492,-0.00101418,-0.000298982,-0.00278174,-1.09272,0.0017633,0.00883168,1560,421,-0.0332559,0.0634954
343,603,-0.0301514,-0.0698853,-0.00233179,-0.000298953,-0.000600305,-0.000134917,-0.00249582,-1.30405,0.00162078,0.0101142,1567,421,-0.0301231,0.0698883
350,603,-0.012207,-0.0688171,-0.002108,7.80557e-05,-0.000446184,0.000165617,-0.00219556,-1.37701,0.00152192,0.0105978,1574,421,-0.0121668,0.0688163
357,603,-0.0216064,-0.0751648,-0.00204658,0.000696014,-0.00072864,0.000877577,-0.00222814,-1.32659,0.00184874,0.0105614,1581,421,-0.0215557,0.075162
364,603,-0.0385742,-0.0574036,-0.00221907,0.0010263,-0.000639327,0.00114771,-0.00234048,-1.38314,0.00205277,0.0125713,1588,421,-0.0386178,0.057396
371,603,-0.0318604,-0.0393372,-0.00209844,0.000905035,-0.000916613,0.00116267,-0.00235608,-1.29679,0.00207013,0.0168997,1595,421,-0.0318792,0.0393505
378,603,0.00183105,-0.0577087,-0.00204185,0.00035431,-0.0016676,0.00120959,-0.00289713,-1.0969,0.00243682,0.0266853,1602,421,0.00182174,0.0577114
385,603,0.158447,0.00289917,-0.00213683,-0.00121739,-0.00245372,0.000819301,-0.00417352,-0.878002,0.00309185,0.0387804,1609,421,0.158495,-0.00290547
392,603,0.222534,0.0830994,-0.00231486,-0.00203875,-0.00286396,0.000690485,-0.00504409,-0.809482,0.00361494,0.0424732,1616,421,0.222562,-0.083105
399,603,0.140869,0.158661,-0.00219255,-0.00255026,-0.00343488,0.00106813,-0.00581094,-0.759387,0.00427472,0.047558,1623,421,0.140913,-0.158653
406,603,0.876831,-0.442627,-0.00199873,-0.00461532,-0.0042537,0.00114332,-0.00775737,-0.636206,0.00559179,0.0426429,1630,421,0.876833,0.442638
413,603,0.165894,-0.206421,-0.00230928,-0.00603041,-0.00453948,0.000736132,-0.00907582,-0.590908,0.00631026,0.0402129,1637,421,0.165868,0.206431
420,603,-0.0947266,0.11322,-0.00251297,-0.00730959,-0.00422239,-5.53103e-05,-0.00976725,-0.52712,0.00649314,0.0408731,1644,421,-0.0947806,-0.113212
427,603,0.212646,0.299988,-0.0018136,-0.00846727,-0.00345242,-0.000345957,-0.00993491,-0.40196,0.00651102,0.0428829,1651,421,0.21269,-0.299974
434,603,0.215088,0.488373,-0.00079217,-0.00803968,-0.00207281,-0.000241221,-0.00859063,-0.259791,0.0056484,0.0412648,1658,421,0.215028,-0.488378
441,603,0.284546,0.857697,0,0,0,0,0,0,0,-1,1665,421,0.284524,-0.857694
448,603,0.627319,1.09885,0,0,0,0,0,0,0,-1,1672,421,0.627277,-1.09885
455,603,0,0,0,0,0,0,0,0,0,-1,1679,421,0,0
462,603,0,0,0,0,0,0,0,0,0,-1,1686,421,0,0
469,603,0,0,0,0,0,0,0,0,0,-1,1693,421,0,0
476,603,0,0,0,0,0,0,0,0,0,-1,1700,421,0,0
483,603,0,0,0,0,0,0,0,0,0,-1,1707,421,0,0
490,603,0,0,0,0,0,0,0,0,0,-1,1714,421,0,0
497,603,0,0,0,0,0,0,0,0,0,-1,1721,421,0,0
504,603,0,0,0,0,0,0,0,0,0,-1,1728,421,0,0
511,603,0,0,0,0,0,0,0,0,0,-1,1735,421,0,0
518,603,0,0,0,0,0,0,0,0,0,-1,1742,421,0,0
525,603,0,0,0,0,0,0,0,0,0,-1,1749,421,0,0
532,603,0,0,0,0,0,0,0,0,0,-1,1756,421,0,0
539,603,0,0,0,0,0,0,0,0,0,-1,1763,421,0,0
546,603,0,0,0,0,0,0,0,0,0,-1,1770,421,0,0
553,603,0,0,0,0,0,0,0,0,0,-1,1777,421,0,0
560,603,0,0,0,0,0,0,0,0,0,-1,1784,421,0,0
567,603,0,0,0,0,0,0,0,0,0,-1,1791,421,0,0
574,603,0,0,0,0,0,0,0,0,0,-1,1798,421,0,0
581,603,0,0,0,0,0,0,0,0,0,-1,1805,421,0,0
588,603,0,0,0,0,0,0,0,0,0,-1,1812,421,0,0
595,603,0,0,0,0,0,0,0,0,0,-1,1819,421,0,0
602,603,0,0,0,0,0,0,0,0,0,-1,1826,421,0,0
609,603,0,0,0,0,0,0,0,0,0,-1,1833,421,0,0
616,603,0,0,0,0,0,0,0,0,0,-1,1840,421,0,0
623,603,0,0,0,0,0,0,0,0,0,-1,1847,421,0,0
630,603,0,0,0,0,0,0,0,0,0,-1,1854,421,0,0
637,603,0,0,0,0,0,0,0,0,0,-1,1861,421,0,0
644,603,0,0,0,0,0,0,0,0,0,-1,1868,421,0,0
651,603,0,0,0,0,0,0,0,0,0,-1,1875,421,0,0
658,603,0,0,0,0,0,0,0,0,0,-1,1882,421,0,0
665,603,0,0,0,0,0,0,0,0,0,-1,1889,421,0,0
672,603,0,0,0,0,0,0,0,0,0,-1,1896,421,0,0
679,603,0,0,0,0,0,0,0,0,0,-1,1903,421,0,0
686,603,0,0,0,0,0,0,0,0,0,-1,1910,421,0,0
693,603,0,0,0,0,0,0,0,0,0,-1,1917,421,0,0
700,603,0,0,0,0,0,0,0,0,0,-1,1924,421,0,0
707,603,0,0,0,0,0,0,0,0,0,-1,1931,421,0,0
714,603,0,0,0,0,0,0,0,0,0,-1,1938,421,0,0
721,603,0,0,0,0,0,0,0,0,0,-1,1945,421,0,0
728,603,0,0,0,0,0,0,0,0,0,-1,1952,421,0,0
735,603,0,0,0,0,0,0,0,0,0,-1,1959,421,0,0
742,603,0,0,0,0,0,0,0,0,0,-1,1966,421,0,0
749,603,0,0,0,0,0,0,0,0,0,-1,1973,421,0,0
756,603,0,0,0,0,0,0,0,0,0,-1,1980,421,0,0
763,603,0,0,0,0,0,0,0,0,0,-1,1987,421,0,0
770,603,0,0,0,0,0,0,0,0,0,-1,1994,421,0,0
777,603,0,0,0,0,0,0,0,0,0,-1,2001,421,0,0
784,603,0,0,0,0,0,0,0,0,0,-1,2008,421,0,0
791,603,0,0,0,0,0,0,0,0,0,-1,2015,421,0,0
798,603,0,0,0,0,0,0,0,0,0,-1,2022,421,0,0
805,603,0,0,0,0,0,0,0,0,0,-1,2029,421,0,0
812,603,0,0,0,0,0,0,0,0,0,-1,2036,421,0,0
-700,596,0,0,0,0,0,0,0,0,0,-1,524,428,0,0
-693,596,0,0,0,0,0,0,0,0,0,-1,531,428,0,0
-686,596,0,0,0,0,0,0,0,0,0,-1,538,428,0,0
-679,596,0,0,0,0,0,0,0,0,0,-1,545,428,0,0
-672,596,0,0,0,0,0,0,0,0,0,-1,552,428,0,0
-665,596,0,0,0,0,0,0,0,0,0,-1,559,428,0,0
-658,596,0,0,0,0,0,0,0,0,0,-1,566,428,0,0
-651,596,0,0,0,0,0,0,0,0,0,-1,573,428,0,0
-644,596,0,0,0,0,0,0,0,0,0,-1,580,428,0,0
-637,596,0,0,0,0,0,0,0,0,0,-1,587,428,0,0
-630,596,0,0,0,0,0,0,0,0,0,-1,594,428,0,0
-623,596,0,0,0,0,0,0,0,0,0,-1,601,428,0,0
-616,596,0,0,0,0,0,0,0,0,0,-1,608,428,0,0
-609,596,0,0,0,0,0,0,0,0,0,-1,615,428,0,0
-602,596,0,0,0,0,0,0,0,0,0,-1,622,428,0,0
-595,596,0,0,0,0,0,0,0,0,0,-1,629,428,0,0
-588,596,0,0,0,0,0,0,0,0,0,-1,636,428,0,0
-581,596,0,0,0,0,0,0,0,0,0,-1,643,428,0,0
-574,596,0,0,0,0,0,0,0,0,0,-1,650,428,0,0
-567,596,0,0,0,0,0,0,0,0,0,-1,657,428,0,0
-560,596,0,0,0,0,0,0,0,0,0,-1,664,428,0,0
-553,596,0,0,0,0,0,0,0,0,0,-1,671,428,0,0
-546,596,0,0,0,0,0,0,0,0,0,-1,678,428,0,0
-539,596,0,0,0,0,0,0,0,0,0,-1,685,428,0,0
-532,596,0,0,0,0,0,0,0,0,0,-1,692,428,0,0
-525,596,0,0,0,0,0,0,0,0,0,-1,699,428,0,0
-518,596,0,0,0,0,0,0,0,0,0,-1,706,428,0,0
-511,596,0,0,0,0,0,0,0,0,0,-1,713,428,0,0
-504,596,0,0,0,0,0,0,0,0,0,-1,720,428,0,0
-497,596,0,0,0,0,0,0,0,0,0,-1,727,428,0,0
-490,596,0,0,0,0,0,0,0,0,0,-1,734,428,0,0
-483,596,0,0,0,0,0,0,0,0,0,-1,741,428,0,0
-476,596,0,0,0,0,0,0,0,0,0,-1,748,428,0,0
-469,596,0,0,0,0,0,0,0,0,0,-1,755,428,0,0
-462,596,0,0,0,0,0,0,0,0,0,-1,762,428,0,0
-455,596,0,0,0,0,0,0,0,0,0,-1,769,428,0,0
-448,596,0,0,0,0,0,0,0,0,0,-1,776,428,0,0
-441,596,0,0,0,0,0,0,0,0,0,-1,783,428,0,0
-434,596,0,0,0,0,0,0,0,0,0,-1,790,428,0,0
-427,596,0,0,0,0,0,0,0,0,0,-1,797,428,0,0
-420,596,0,0,0,0,0,0,0,0,0,-1,804,428,0,0
-413,596,0,0,0,0,0,0,0,0,0,-1,811,428,0,0
-406,596,0,0,0,0,0,0,0,0,0,-1,818,428,0,0
-399,596,0,0,0,0,0,0,0,0,0,-1,825,428,0,0
-392,596,0,0,0,0,0,0,0,0,0,-1,832,428,0,0
-385,596,0,0,0,0,0,0,0,0,0,-1,839,428,0,0
-378,596,0,0,0,0,0,0,0,0,0,-1,846,428,0,0
-371,596,0,0,0,0,0,0,0,0,0,-1,853,428,0,0
-364,596,0,0,0,0,0,0,0,0,0,-1,860,428,0,0
-357,596,0,0,0,0,0,0,0,0,0,-1,867,428,0,0
-350,596,0,0,0,0,0,0,0,0,0,-1,874,428,0,0
-343,596,0,0,0,0,0,0,0,0,0,-1,881,428,0,0
-336,596,-0.142761,0.436981,0,0,0,0,0,0,0,-1,888,428,-0.142768,-0.436983
-329,596,0.0120239,0.676453,0.0354928,0.0367874,0.00688679,0.0430572,0.0292229,0.832256,0.0253828,0.0391112,895,428,0.0120373,-0.676446
-322,596,0.401611,1.22006,0.028101,0.0398088,0.00141905,0.0399784,0.0279314,1.45188,0.0236811,0.0420283,902,428,0.401625,-1.22007
-315,596,0.436829,1.64438,0.0215505,0.0407176,-0.0029839,0.0411714,0.0210967,-1.41987,0.0237728,0.0462476,909,428,0.436804,-1.64436
-308,596,0.267883,1.40054,0.0151036,0.0383217,-0.00607373,0.0398146,0.0136107,-1.32978,0.0233671,0.0461737,916,428,0.267891,-1.40054
-301,596,-0.365784,0.958435,0,0,0,0,0,0,0,-1,923,428,-0.365795,-0.958441
-294,596,-0.501221,0.737579,0.00703744,0.0312704,-0.00888605,0.0341796,0.00412825,-1.25441,0.0215426,0.0433111,930,428,-0.501222,-0.737573
-287,596,-0.530762,0.156097,0.00393689,0.0271198,-0.00899688,0.0302016,0.000855044,-1.24078,0.0198555,0.0464959,937,428,-0.530778,-0.156084
-280,596,-0.148804,-0.316345,0.00308036,0.0220929,-0.00851827,0.025351,-0.000177773,-1.20548,0.0169603,0.049522,944,428,-0.148801,0.316348
-273,596,0.419434,0.115143,0.00235326,0.0174938,-0.0079525,0.0209031,-0.00105605,-1.16579,0.0143004,0.0390444,951,428,0.419421,-0.115157
-266,596,0.134583,-0.0637512,0.00153357,0.0129383,-0.00689482,0.0161833,-0.00171144,-1.13091,0.0114023,0.036471,958,428,0.134559,0.0637594
-259,596,-0.0245361,-0.0166321,0.00113106,0.00891966,-0.00550125,0.0117655,-0.00171477,-1.0934,0.00847328,0.0320067,965,428,-0.0245205,0.0166394
-252,596,-0.00805664,-0.0489807,0.00104868,0.00565572,-0.00415514,0.00810314,-0.00139874,-1.0385,0.00592364,0.0153936,972,428,-0.00805257,0.0489951
-245,596,-0.0120239,-0.0686646,0.000829267,0.00379496,-0.002993,0.0056523,-0.00102808,-1.01539,0.00415352,0.0110461,979,428,-0.0120413,0.0686733
-238,596,-0.024231,-0.0725098,0.000514072,0.00216652,-0.00186293,0.00337822,-0.000697631,-0.994119,0.00251713,0.0102535,986,428,-0.0242208,0.0725011
-231,596,-0.0401001,-0.0756226,0.000298762,0.00108455,-0.00115445,0.00191113,-0.000527815,-0.949417,0.0014817,0.0115142,993,428,-0.0401089,0.0756349
-224,596,-0.0469971,-0.0834656,5.14617e-05,0.000325468,-0.000903184,0.00110198,-0.000725051,-0.860669,0.00106229,0.0119566,1000,428,-0.0470095,0.0834635
-217,596,-0.0342407,-0.0714417,-2.84461e-05,-0.000296109,-0.000844251,0.000692515,-0.00101707,-0.706792,0.00099294,0.0129341,1007,428,-0.0342641,0.0714547
-210,596,-0.0198975,-0.0658264,0.00030444,-0.000884695,-0.000859589,0.000755054,-0.00133531,-0.482835,0.00122227,0.0102921,1014,428,-0.019909,0.0658204
-203,596,-0.027832,-0.063324,0.000807268,-0.00101272,-0.00076523,0.00108625,-0.00129171,-0.349598,0.00137462,0.0124244,1021,428,-0.0278238,0.0633154
-196,596,-0.0163574,-0.0861511,0.000851551,-0.00102686,-0.000711591,0.00109068,-0.00126598,-0.324191,0.00136187,0.0128345,1028,428,-0.0163965,0.0861471
-189,596,-0.0244141,-0.0973511,0.000813017,-0.00078441,-0.000696947,0.00107434,-0.00104573,-0.358731,0.00122406,0.00999081,1035,428,-0.0244387,0.0973387
-182,596,-0.0209961,-0.0707092,0.000866966,-0.000356646,-0.000624638,0.0011295,-0.000619185,-0.397888,0.00102384,0.0102281,1042,428,-0.0209855,0.0707028
-175,596,-0.0228271,-0.0526123,0.00072754,0.000178068,-0.000474772,0.00100134,-9.57287e-05,-0.523104,0.000701647,0.0121067,1049,428,-0.02285,0.0526007
-168,596,-0.00744629,-0.0558472,0.000461339,0.000799503,-0.000299527,0.000974376,0.000286466,-1.04235,0.000578252,0.0143075,1056,428,-0.00744989,0.0558404
-161,596,-0.0213623,-0.0483704,0.000470972,0.00166282,-0.0002228,0.0017031,0.000430684,-1.3919,0.00102254,0.0140808,1063,428,-0.021322,0.0483827
-154,596,-0.0379639,-0.069519,0.000341195,0.00228731,-0.000227785,0.00231361,0.000314889,-1.45582,0.0014489,0.012917,1070,428,-0.0379136,0.0695301
-147,596,-0.0180664,-0.0731506,-7.29035e-05,0.002757,-0.000248045,0.00277858,-9.44805e-05,-1.48403,0.00188467,0.0133215,1077,428,-0.018051,0.0731459
-140,596,-0.0161133,-0.0637512,-0.000237301,0.00313173,-0.000354525,0.00316863,-0.000274203,-1.46708,0.0022095,0.0131551,1084,428,-0.0160852,0.0637634
-133,596,-0.0230713,-0.0658264,-4.96662e-05,0.00334976,-0.000589445,0.00344906,-0.000148972,-1.40389,0.00235061,0.0127173,1091,428,-0.0230864,0.0658223
-126,596,-0.0354004,-0.0614014,0.000153222,0.00343682,-0.000672258,0.00356913,2.09197e-05,-1.37648,0.00237248,0.00970179,1098,428,-0.035441,0.0614075
-119,596,-0.0334473,-0.0618591,0.000139286,0.00345103,-0.000715017,0.00359881,-8.49471e-06,-1.36699,0.00240204,0.0120244,1105,428,-0.0333943,0.0618655
-112,596,-0.0280762,-0.0691223,0.000367409,0.00301271,-0.000601324,0.00314298,0.000237134,-1.35745,0.00202092,0.0132115,1112,428,-0.0281087,0.069118
-105,596,-0.0286865,-0.0744324,0.000625442,0.00272597,-0.000178439,0.00274102,0.000610392,-1.48665,0.00166168,0.0131137,1119,428,-0.028724,0.0744468
-98,596,-0.0217285,-0.0684204,0.000837966,0.00209985,0.000298562,0.00216692,0.000770892,1.34981,0.00126831,0.00885488,1126,428,-0.0217529,0.0684107
-91,596,-0.0159912,-0.0696106,0.00138425,0.00144166,0.000698923,0.00211247,0.000713443,0.80592,0.00124086,0.00837498,1133,428,-0.0159936,0.0696122
-84,596,-0.0172119,-0.0894775,0.00176783,-0.000236246,0.00112908,0.0022754,-0.000743812,0.422471,0.00181636,0.0130466,1140,428,-0.0172524,0.0894838
-77,596,-0.0230713,-0.0902405,0.00184933,-0.0020761,0.0015832,0.00240827,-0.00263505,0.339387,0.00291274,0.0136996,1147,428,-0.0230891,0.0902501
-70,596,-0.0163574,-0.0802002,0.00179635,-0.00324288,0.00261276,0.00290648,-0.004353,0.401772,0.00421891,0.0133063,1154,428,-0.0163632,0.0802027
-63,596,0.00268555,-0.0767517,0.00162828,-0.00546965,0.00349791,0.00306235,-0.00690372,0.389077,0.00589466,0.0171063,1161,428,0.00270067,0.0767646
-56,596,-0.0308838,-0.079071,0.0014041,-0.00644995,0.00433756,0.00332823,-0.00837407,0.417515,0.00696254,0.0189141,1168,428,-0.0309262,0.0790644
-49,596,-0.0800781,-0.0433044,0.00204782,-0.00828181,0.00459486,0.0037959,-0.0100299,0.363533,0.00824836,0.0199143,1175,428,-0.0800768,0.043315
-42,596,-0.00964355,-0.0358276,0.0031061,-0.00916169,0.00423498,0.00442604,-0.0104816,0.302134,0.00884048,0.023666,1182,428,-0.00969305,0.0358192
-35,596,0.0533447,-0.0498352,0.00322615,-0.00884709,0.0039231,0.00438894,-0.0100099,0.288147,0.00852169,0.0293212,1189,428,0.0533504,0.0498452
-28,596,-0.0778809,-0.0544434,0.00274658,-0.00768879,0.00276711,0.00343492,-0.00837713,0.243809,0.00701585,0.0370499,1196,428,-0.077897,0.0544528
-21,596,-0.166504,0.0151672,0.00207441,-0.00572236,0.000894242,0.00217566,-0.0058236,0.112743,0.00477578,0.0393738,1203,428,-0.166527,-0.0151812
-14,596,-0.24292,0.0841064,0.00174432,-0.00349551,-0.00108441,0.00195988,-0.00371107,-0.19622,0.00332575,0.0393136,1210,428,-0.242918,-0.0841159
-7,596,-0.0333252,-0.0884399,0.00174334,0.00027039,-0.00232518,0.0034459,-0.00143216,-0.632027,0.00289524,0.0455905,1217,428,-0.0333,0.0884266
0,596,-0.0200195,-0.0953369,0.00222362,0.00350969,-0.00338459,0.00631179,-0.000578478,-0.879274,0.00441334,0.0486621,1224,428,-0.0199669,0.0953269
7,596,-0.0186768,-0.0170898,0.00311689,0.00654627,-0.00386532,0.00906016,0.000603003,-0.994161,0.00584948,0.0447134,1231,428,-0.0186733,0.0171027
14,596,0.0126953,-0.0426025,0.00415964,0.00886548,-0.00357777,0.0107947,0.00223043,-1.07627,0.00658022,0.0444634,1238,428,0.0126471,0.042598
21,596,-0.00146484,-0.0452271,0.00556355,0.0117388,-0.00275608,0.0127899,0.0045124,-1.20643,0.00749017,0.0428443,1245,428,-0.00141765,0.0452374
28,596,-0.232178,-0.0890198,0.00776047,0.0135387,-0.0014395,0.0138774,0.00742171,-1.33967,0.0080186,0.0391185,1252,428,-0.232194,0.0890336
35,596,-0.376953,-0.200348,0.010183,0.0122547,-0.000257767,0.0122863,0.0101514,-1.44885,0.00758013,0.0409883,1259,428,-0.376954,0.200361
42,596,-0.504883,-0.287109,0.013728,0.0107868,0.00153638,0.0143842,0.0101307,0.403637,0.00853266,0.0438787,1266,428,-0.50486,0.287108
49,596,-0.452515,-0.232697,0.0179438,0.0075798,0.00290418,0.0187022,0.00682148,0.255409,0.0109286,0.042792,1273,428,-0.45255,0.232695
56,596,-0.320068,-0.183472,0.021511,0.00526778,0.00384584,0.0223755,0.00440323,0.221125,0.0136874,0.0436914,1280,428,-0.320013,0.183457
63,596,0.509033,0.186981,0.0251894,0.00132048,0.00280822,0.0255153,0.000994541,0.11555,0.0166886,0.0463301,1287,428,0.508985,-0.186979
70,596,1.09607,0.51651,0,0,0,0,0,0,0,-1,1294,428,1.09604,-0.516499
77,596,-0.244019,-0.0669556,0,0,0,0,0,0,0,-1,1301,428,-0.243975,0.0669483
84,596,-0.410889,-0.881134,0.0320549,-0.00974418,-0.00679267,0.033131,-0.0108203,-0.157123,0.0264427,0.0450263,1308,428,-0.410907,0.881144
91,596,-0.969727,-1.16699,0.0319475,-0.0118045,-0.0112313,0.0346621,-0.0145192,-0.237158,0.0291779,0.0396586,1315,428,-0.969766,1.167
98,596,1.5155,-0.226196,0.02972,-0.0143245,-0.0164463,0.0351834,-0.0197878,-0.320726,0.0321499,0.0468586,1322,428,1.51554,0.2262
105,596,0.782227,-0.119934,0.0268406,-0.0159758,-0.0209546,0.0353891,-0.0245243,-0.387345,0.0347801,0.0470491,1329,428,0.782227,0.119939
112,596,0.188232,-0.0780334,0.0233504,-0.0166452,-0.0241768,0.0347282,-0.0280231,-0.43986,0.0362984,0.0418219,1336,428,0.188238,0.0780239
119,596,0.110107,-0.0888672,0.0192828,-0.0152937,-0.0255383,0.0328343,-0.0288452,-0.487853,0.0356355,0.0443764,1343,428,0.110156,0.0888681
126,596,-0.390015,-0.271057,0.0155106,-0.014581,-0.0243902,0.0291224,-0.0281928,-0.509028,0.0330924,0.044694,1350,428,-0.390073,0.271045
133,596,0.648438,-0.167023,0,0,0,0,0,0,0,-1,1357,428,0.648445,0.16702
140,596,0.0942383,0.0887756,0,0,0,0,0,0,0,-1,1364,428,0.0942394,-0.0887884
147,596,-0.0900879,-0.0266113,0.00737688,-0.0103322,-0.0159741,0.0167863,-0.0197417,-0.532326,0.0211125,0.0349774,1371,428,-0.0900741,0.0266107
154,596,-0.0744629,-0.0783081,0.00570189,-0.00929538,-0.0119769,0.0123339,-0.0159274,-0.505706,0.0163606,0.0424736,1378,428,-0.0744379,0.0782998
161,596,0.118652,-0.105774,0.00483985,-0.00757431,-0.00820598,0.00892189,-0.0116564,-0.461603,0.0119158,0.0445405,1385,428,0.118669,0.105761
168,596,0.0288086,-0.0365295,0.00442079,-0.00485665,-0.00432183,0.00612209,-0.00655796,-0.375024,0.00732227,0.0396771,1392,428,0.0288321,0.0365213
175,596,-0.0452881,-0.0536804,0.00536579,-0.00278656,-0.000837451,0.00545093,-0.0028717,-0.101315,0.00488138,0.0264999,1399,428,-0.0452836,0.05368
182,596,0.00305176,-0.107452,0.00641138,-0.00059834,0.000737361,0.0064881,-0.000675063,0.103679,0.00456708,0.0232136,1406,428,0.00307208,0.10744
189,596,0.0202637,-0.0789185,0.00759734,0.0013342,0.00116093,0.00780561,0.00112593,0.177506,0.00487199,0.0212817,1413,428,0.020246,0.0789172
196,596,0.0158691,-0.035675,0.00802664,0.00283831,0.000834361,0.00815752,0.00270743,0.15559,0.00479766,0.0186256,1420,428,0.0159222,0.0356602
203,596,-0.0111084,-0.0555115,0.00803661,0.00422471,0.000554878,0.00811574,0.00414558,0.141649,0.00468599,0.0121704,1427,428,-0.0111265,0.0555237
210,596,-0.0428467,-0.0611572,0.00767723,0.00498066,-3.43737e-05,0.00767767,0.00498022,-0.0127444,0.00449754,0.0101311,1434,428,-0.0428173,0.0611469
217,596,-0.0548096,-0.049408,0.00729794,0.00516362,-0.00103043,0.00771423,0.00474733,-0.383946,0.00449318,0.0103302,1441,428,-0.0548548,0.0494173
224,596,-0.0488281,-0.0556335,0.00692123,0.00466464,-0.00194956,0.00804545,0.00354041,-0.523077,0.00465616,0.0108947,1448,428,-0.0488107,0.0556449
231,596,-0.0489502,-0.0595093,0.00632297,0.00487439,-0.00273169,0.00842476,0.0027726,-0.655808,0.00495784,0.010678,1455,428,-0.0489975,0.0595071
238,596,-0.0563965,-0.0541687,0.00547045,0.00487955,-0.00294093,0.00813073,0.00221926,-0.735336,0.00485294,0.0131346,1462,428,-0.0564091,0.054155
245,596,-0.0368652,-0.0685425,0.00460531,0.00388611,-0.00283335,0.00710178,0.00138963,-0.722277,0.00434601,0.0123088,1469,428,-0.0368463,0.0685272
252,596,-0.0133057,-0.0793152,0.00333647,0.00250155,-0.00298538,0.00593344,-9.54196e-05,-0.715931,0.00398782,0.00935099,1476,428,-0.0132965,0.079322
259,596,-0.0158691,-0.0791931,0.00249954,0.00187406,-0.00258219,0.00478787,-0.000414263,-0.725134,0.00333858,0.00828864,1483,428,-0.0158088,0.0791816
266,596,-0.0274658,-0.0680847,0.00193569,0.00108314,-0.00214197,0.00369339,-0.000674562,-0.687177,0.00271519,0.00976441,1490,428,-0.0274133,0.0680849
273,596,-0.0279541,-0.0654297,0.00125943,0.000393284,-0.00181818,0.0026954,-0.00104268,-0.668481,0.00222739,0.0113514,1497,428,-0.0279425,0.0654151
280,596,-0.0314941,-0.0582581,0.000608562,-5.6694e-05,-0.00165105,0.00196016,-0.00140829,-0.685997,0.00195346,0.0114626,1504,428,-0.0315153,0.0582495
287,596,-0.0325928,-0.0626526,-2.73504e-05,-0.000669032,-0.00143495,0.00112219,-0.00181857,-0.675412,0.00171364,0.0106238,1511,428,-0.0326441,0.06264
294,596,-0.0570068,-0.0690002,-0.000705934,-0.00103313,-0.00149807,0.000637448,-0.00237651,-0.731011,0.00183413,0.00870525,1518,428,-0.0569609,0.068986
301,596,-0.0592041,-0.0721436,-0.00131637,-0.001268,-0.00151934,0.000227343,-0.00281172,-0.793357,0.00195467,0.00997353,1525,428,-0.0591915,0.0721507
308,596,-0.0285645,-0.0707092,-0.00163852,-0.00133207,-0.00160068,0.000122698,-0.00309329,-0.833115,0.00210428,0.0149874,1532,428,-0.0285645,0.070722
315,596,-0.0489502,-0.0565491,-0.00180607,-0.00130912,-0.00160563,6.71459e-05,-0.00318234,-0.862166,0.00214429,0.0139803,1539,428,-0.0489052,0.0565415
322,596,-0.0404053,-0.0513,-0.00198886,-0.00127126,-0.00152958,-5.89566e-05,-0.00320116,-0.900603,0.00211473,0.0114352,1546,428,-0.0404389,0.0512856
329,596,-0.0429688,-0.0505066,-0.00197482,-0.00117253,-0.00153632,1.4152e-05,-0.0031615,-0.913102,0.0021124,0.00920788,1553,428,-0.0429483,0.0505016
336,596,-0.041626,-0.0682983,-0.00177523,-0.00100943,-0.00129829,-3.87509e-05,-0.00274591,-0.928795,0.00181783,0.00862682,1560,428,-0.041653,0.0683018
343,596,-0.0301514,-0.0874023,-0.00172279,-0.000579697,-0.000959874,-3.40934e-05,-0.00226839,-1.05393,0.00150103,0.0105789,1567,428,-0.0301247,0.0873993
350,596,-0.0057373,-0.0797119,-0.0014524,-0.000283957,-0.000813861,0.000133663,-0.00187002,-1.0967,0.00129354,0.0103129,1574,428,-0.00575024,0.0797111
357,596,-0.0144043,-0.0755005,-0.00131124,0.000188917,-0.00101289,0.000699217,-0.00182154,-1.10411,0.00150267,0.00855389,1581,428,-0.0144603,0.0754975
364,596,-0.0302734,-0.0699158,-0.00137909,0.000444818,-0.00088483,0.000803527,-0.0017378,-1.18564,0.00149992,0.00840457,1588,428,-0.030235,0.0699118
371,596,-0.0355225,-0.0643005,-0.00120448,0.000332572,-0.00106831,0.000880072,-0.00175198,-1.09721,0.00154716,0.00822248,1595,428,-0.0355711,0.064294
378,596,-0.0268555,-0.0525513,-0.00107494,-0.000105007,-0.00160583,0.00108749,-0.00226743,-0.932045,0.00197649,0.0116243,1602,428,-0.0269039,0.0525566
385,596,-0.034668,-0.0388184,-0.00107903,-0.0013189,-0.00208488,0.000889363,-0.00328729,-0.756667,0.00254041,0.0202404,1609,428,-0.0347007,0.0388229
392,596,-0.0458984,0.00012207,-0.00121884,-0.00186556,-0.0021997,0.000681142,-0.00376554,-0.712421,0.00276551,0.030582,1616,428,-0.0459536,-0.000128455
399,596,-0.0675049,0.0278015,-0.00107735,-0.0017144,-0.00239473,0.00101995,-0.0038117,-0.719281,0.00294068,0.038218,1623,428,-0.0674619,-0.0277947
406,596,-0.102295,0.0404968,0,0,0,0,0,0,0,-1,1630,428,-0.102265,-0.0404878
413,596,0.153198,-0.308044,-0.0012391,-0.00382004,-0.00256551,0.000342221,-0.00540135,-0.552373,0.00372023,0.0429665,1637,428,0.153157,0.308052
420,596,0.400757,0.205719,-0.00134031,-0.00438553,-0.00193837,-0.00039804,-0.0053278,-0.452476,0.0034269,0.0427981,1644,428,0.400735,-0.205728
427,596,0.606201,0.402435,-0.000729365,-0.00474277,-0.000957483,-0.00051264,-0.0049595,-0.222597,0.00314939,0.0442778,1651,428,0.606198,-0.402446
434,596,0.415771,0.624268,9.35294e-05,-0.00361346,0.000499819,0.000159738,-0.00367967,0.131699,0.00250806,0.0439194,1658,428,0.415784,-0.624266
441,596,0.238647,0.867371,0,0,0,0,0,0,0,-1,1665,428,0.23868,-0.867374
448,596,0.480225,2.03217,0,0,0,0,0,0,0,-1,1672,428,0.480255,-2.03218
455,596,0.313599,2.6474,0,0,0,0,0,0,0,-1,1679,428,0.313546,-2.64741
462,596,0,0,0,0,0,0,0,0,0,-1,1686,428,0,0
469,596,0,0,0,0,0,0,0,0,0,-1,1693,428,0,0
476,596,0,0,0,0,0,0,0,0,0,-1,1700,428,0,0
483,596,0,0,0,0,0,0,0,0,0,-1,1707,428,0,0
490,596,0,0,0,0,0,0,0,0,0,-1,1714,428,0,0
497,596,0,0,0,0,0,0,0,0,0,-1,1721,428,0,0
504,596,0,0,0,0,0,0,0,0,0,-1,1728,428,0,0
511,596,0,0,0,0,0,0,0,0,0,-1,1735,428,0,0
518,596,0,0,0,0,0,0,0,0,0,-1,1742,428,0,0
525,596,0,0,0,0,0,0,0,0,0,-1,1749,428,0,0
532,596,0,0,0,0,0,0,0,0,0,-1,1756,428,0,0
539,596,0,0,0,0,0,0,0,0,0,-1,1763,428,0,0
546,596,0,0,0,0,0,0,0,0,0,-1,1770,428,0,0
553,596,0,0,0,0,0,0,0,0,0,-1,1777,428,0,0
560,596,0,0,0,0,0,0,0,0,0,-1,1784,428,0,0
567,596,0,0,0,0,0,0,0,0,0,-1,1791,428,0,0
574,596,0,0,0,0,0,0,0,0,0,-1,1798,428,0,0
581,596,0,0,0,0,0,0,0,0,0,-1,1805,428,0,0
588,596,0,0,0,0,0,0,0,0,0,-1,1812,428,0,0
595,596,0,0,0,0,0,0,0,0,0,-1,1819,428,0,0
602,596,0,0,0,0,0,0,0,0,0,-1,1826,428,0,0
609,596,0,0,0,0,0,0,0,0,0,-1,1833,428,0,0
616,596,0,0,0,0,0,0,0,0,0,-1,1840,428,0,0
623,596,0,0,0,0,0,0,0,0,0,-1,1847,428,0,0
630,596,0,0,0,0,0,0,0,0,0,-1,1854,428,0,0
637,596,0,0,0,0,0,0,0,0,0,-1,1861,428,0,0
644,596,0,0,0,0,0,0,0,0,0,-1,1868,428,0,0
651,596,0,0,0,0,0,0,0,0,0,-1,1875,428,0,0
658,596,0,0,0,0,0,0,0,0,0,-1,1882,428,0,0
665,596,0,0,0,0,0,0,0,0,0,-1,1889,428,0,0
672,596,0,0,0,0,0,0,0,0,0,-1,1896,428,0,0
679,596,0,0,0,0,0,0,0,0,0,-1,1903,428,0,0
686,596,0,0,0,0,0,0,0,0,0,-1,1910,428,0,0
693,596,0,0,0,0,0,0,0,0,0,-1,1917,428,0,0
700,596,0,0,0,0,0,0,0,0,0,-1,1924,428,0,0
707,596,0,0,0,0,0,0,0,0,0,-1,1931,428,0,0
714,596,0,0,0,0,0,0,0,0,0,-1,1938,428,0,0
721,596,0,0,0,0,0,0,0,0,0,-1,1945,428,0,0
728,596,0,0,0,0,0,0,0,0,0,-1,1952,428,0,0
735,596,0,0,0,0,0,0,0,0,0,-1,1959,428,0,0
742,596,0,0,0,0,0,0,0,0,0,-1,1966,428,0,0
749,596,0,0,0,0,0,0,0,0,0,-1,1973,428,0,0
756,596,0,0,0,0,0,0,0,0,0,-1,1980,428,0,0
763,596,0,0,0,0,0,0,0,0,0,-1,1987,428,0,0
770,596,0,0,0,0,0,0,0,0,0,-1,1994,428,0,0
777,596,0,0,0,0,0,0,0,0,0,-1,2001,428,0,0
784,596,0,0,0,0,0,0,0,0,0,-1,2008,428,0,0
791,596,0,0,0,0,0,0,0,0,0,-1,2015,428,0,0
798,596,0,0,0,0,0,0,0,0,0,-1,2022,428,0,0
805,596,0,0,0,0,0,0,0,0,0,-1,2029,428,0,0
812,596,0,0,0,0,0,0,0,0,0,-1,2036,428,0,0
-700,589,0,0,0,0,0,0,0,0,0,-1,524,435,0,0
-693,589,0,0,0,0,0,0,0,0,0,-1,531,435,0,0
-686,589,0,0,0,0,0,0,0,0,0,-1,538,435,0,0
-679,589,0,0,0,0,0,0,0,0,0,-1,545,435,0,0
-672,589,0,0,0,0,0,0,0,0,0,-1,552,435,0,0
-665,589,0,0,0,0,0,0,0,0,0,-1,559,435,0,0
-658,589,0,0,0,0,0,0,0,0,0,-1,566,435,0,0
-651,589,0,0,0,0,0,0,0,0,0,-1,573,435,0,0
-644,589,0,0,0,0,0,0,0,0,0,-1,580,435,0,0
-637,589,0,0,0,0,0,0,0,0,0,-1,587,435,0,0
-630,589,0,0,0,0,0,0,0,0,0,-1,594,435,0,0
-623,589,0,0,0,0,0,0,0,0,0,-1,601,435,0,0
-616,589,0,0,0,0,0,0,0,0,0,-1,608,435,0,0
-609,589,0,0,0,0,0,0,0,0,0,-1,615,435,0,0
-602,589,0,0,0,0,0,0,0,0,0,-1,622,435,0,0
-595,589,0,0,0,0,0,0,0,0,0,-1,629,435,0,0
-588,589,0,0,0,0,0,0,0,0,0,-1,636,435,0,0
-581,589,0,0,0,0,0,0,0,0,0,-1,643,435,0,0
-574,589,0,0,0,0,0,0,0,0,0,-1,650,435,0,0
-567,589,0,0,0,0,0,0,0,0,0,-1,657,435,0,0
-560,589,0,0,0,0,0,0,0,0,0,-1,664,435,0,0
-553,589,0,0,0,0,0,0,0,0,0,-1,671,435,0,0
-546,589,0,0,0,0,0,0,0,0,0,-1,678,435,0,0
-539,589,0,0,0,0,0,0,0,0,0,-1,685,435,0,0
-532,589,0,0,0,0,0,0,0,0,0,-1,692,435,0,0
-525,589,0,0,0,0,0,0,0,0,0,-1,699,435,0,0
-518,589,0,0,0,0,0,0,0,0,0,-1,706,435,0,0
-511,589,0,0,0,0,0,0,0,0,0,-1,713,435,0,0
-504,589,0,0,0,0,0,0,0,0,0,-1,720,435,0,0
-497,589,0,0,0,0,0,0,0,0,0,-1,727,435,0,0
-490,589,0,0,0,0,0,0,0,0,0,-1,734,435,0,0
-483,589,0,0,0,0,0,0,0,0,0,-1,741,435,0,0
-476,589,0,0,0,0,0,0,0,0,0,-1,748,435,0,0
-469,589,0,0,0,0,0,0,0,0,0,-1,755,435,0,0
-462,589,0,0,0,0,0,0,0,0,0,-1,762,435,0,0
-455,589,0,0,0,0,0,0,0,0,0,-1,769,435,0,0
-448,589,0,0,0,0,0,0,0,0,0,-1,776,435,0,0
-441,589,0,0,0,0,0,0,0,0,0,-1,783,435,0,0
-434,589,0,0,0,0,0,0,0,0,0,-1,790,435,0,0
-427,589,0,0,0,0,0,0,0,0,0,-1,797,435,0,0
-420,589,0,0,0,0,0,0,0,0,0,-1,804,435,0,0
-413,589,0,0,0,0,0,0,0,0,0,-1,811,435,0,0
-406,589,0,0,0,0,0,0,0,0,0,-1,818,435,0,0
-399,589,0,0,0,0,0,0,0,0,0,-1,825,435,0,0
-392,589,0,0,0,0,0,0,0,0,0,-1,832,435,0,0
-385,589,0,0,0,0,0,0,0,0,0,-1,839,435,0,0
-378,589,0,0,0,0,0,0,0,0,0,-1,846,435,0,0
-371,589,0,0,0,0,0,0,0,0,0,-1,853,435,0,0
-364,589,0,0,0,0,0,0,0,0,0,-1,860,435,0,0
-357,589,0,0,0,0,0,0,0,0,0,-1,867,435,0,0
-350,589,-1.89771,0.335236,0,0,0,0,0,0,0,-1,874,435,-1.89773,-0.335225
-343,589,0.14978,-0.287964,0.0544074,0.0183528,0.0164365,0.0607756,0.0119846,0.369636,0.0371719,0.0397101,881,435,0.149791,0.287962
-336,589,0.0620117,0.32605,0.0430409,0.0253103,0.0102965,0.0477628,0.0205885,0.429976,0.0276631,0.0394694,888,435,0.0620404,-0.326044
-329,589,0.14624,0.813782,0.0333393,0.0300611,0.00532552,0.0372723,0.0261281,0.636109,0.0220912,0.0405292,895,435,0.146266,-0.813775
-322,589,0.316528,1.1026,0.0255939,0.0327918,0.00124603,0.0330014,0.0253843,1.40415,0.0199526,0.0419921,902,435,0.3165,-1.10261
-315,589,0.527832,0.83075,0.018992,0.0333711,-0.00213102,0.0336803,0.0186828,-1.42672,0.0194841,0.0446267,909,435,0.527833,-0.830745
-308,589,0.195862,0.704987,0.0129967,0.0316976,-0.00470578,0.032815,0.0118793,-1.33767,0.0191847,0.043855,916,435,0.195879,-0.704998
-301,589,-0.238037,0.529297,0.00922226,0.0293179,-0.00663197,0.0313092,0.0072309,-1.2791,0.0189286,0.0432978,923,435,-0.238011,-0.529287
-294,589,-0.22406,0.465851,0.00570976,0.0258012,-0.00710551,0.0280602,0.00345082,-1.26299,0.0176692,0.0433764,930,435,-0.22405,-0.465853
-287,589,-0.0722656,-0.0731506,0.00311672,0.0223091,-0.00717066,0.0246923,0.000733543,-1.24993,0.0162225,0.041209,937,435,-0.0722542,0.0731443
-280,589,-0.0678711,-0.133301,0.00250673,0.0181856,-0.00677855,0.0207098,-1.74958e-05,-1.21432,0.0138124,0.031939,944,435,-0.0678851,0.1333
-273,589,-0.00280762,-0.102295,0.00203919,0.0143784,-0.00632845,0.017047,-0.000629374,-1.17174,0.0115801,0.0186032,951,435,-0.00278237,0.102306
-266,589,-0.00616455,-0.0716858,0.00148313,0.0106394,-0.00550832,0.0132237,-0.0011012,-1.13212,0.00920487,0.0155975,958,435,-0.00615632,0.0716715
-259,589,-0.0327759,-0.0771179,0.00125084,0.00736246,-0.00438349,0.00965015,-0.00103685,-1.08979,0.00680543,0.0136352,965,435,-0.032781,0.0771177
-252,589,-0.0176392,-0.0727844,0.00127199,0.00472026,-0.00327979,0.00670148,-0.000709239,-1.02739,0.00472186,0.00937717,972,435,-0.0176692,0.0727973
-245,589,-0.0239258,-0.0708313,0.00111722,0.00331043,-0.00230307,0.00476464,-0.000336994,-1.00759,0.00329451,0.00929477,979,435,-0.0239068,0.0708234
-238,589,-0.0480957,-0.0592041,0.00083823,0.00211325,-0.001344,0.00296327,-1.1795e-05,-1.00685,0.00197946,0.0118345,986,435,-0.0481086,0.059213
-231,589,-0.0345459,-0.0619507,0.000615853,0.00143094,-0.000735889,0.0018646,0.000182192,-1.03828,0.00118701,0.0126365,993,435,-0.0345634,0.0619632
-224,589,-0.0321045,-0.0800171,0.000386832,0.000990437,-0.000560991,0.00132566,5.1614e-05,-1.03218,0.000867078,0.0129643,1000,435,-0.0320869,0.0800029
-217,589,-0.0263672,-0.083313,0.000330747,0.000631101,-0.000616358,0.00111531,-0.000153465,-0.904896,0.000799621,0.0140549,1007,435,-0.0263915,0.0833185
-210,589,-0.0224609,-0.0820923,0.000639292,0.000178046,-0.000738149,0.00118201,-0.000364668,-0.633986,0.00093361,0.0128659,1014,435,-0.0224483,0.0820913
-203,589,-0.0331421,-0.0862732,0.00112949,9.38071e-05,-0.000726426,0.00150376,-0.000280458,-0.475744,0.00110789,0.00954106,1021,435,-0.0331194,0.0862653
-196,589,-0.0340576,-0.10965,0.00122442,5.53639e-05,-0.000769137,0.00160594,-0.000326154,-0.460469,0.00119428,0.0115496,1028,435,-0.0340543,0.109653
-189,589,-0.0412598,-0.107269,0.00122057,0.000275824,-0.000860067,0.00172945,-0.000233051,-0.534272,0.00123798,0.0145795,1035,435,-0.0412613,0.107273
-182,589,-0.0250244,-0.0742798,0.00130452,0.000592698,-0.000849214,0.00186939,2.7827e-05,-0.586965,0.00123709,0.0108188,1042,435,-0.0250736,0.0742812
-175,589,-0.0178223,-0.0609741,0.00123769,0.00101455,-0.00076222,0.00189646,0.000355777,-0.712724,0.00116398,0.013451,1049,435,-0.0178447,0.0609734
-168,589,0.00549316,-0.074646,0.00106878,0.00148529,-0.000634018,0.00194438,0.000609689,-0.944081,0.0011483,0.0119898,1056,435,0.00545012,0.0746452
-161,589,-0.00952148,-0.065918,0.00112763,0.00221244,-0.000578051,0.00246272,0.000877353,-1.1622,0.0014413,0.0118534,1063,435,-0.00956589,0.0659078
-154,589,-0.0275879,-0.0613403,0.00098604,0.00277473,-0.000590637,0.00295216,0.000808608,-1.27897,0.00176156,0.011879,1070,435,-0.0275279,0.0613448
-147,589,-0.0113525,-0.0699158,0.000493766,0.00321398,-0.000602304,0.00334137,0.000366371,-1.36236,0.00211605,0.011894,1077,435,-0.0113961,0.0699116
-140,589,-0.00256348,-0.0681458,0.000309039,0.00361459,-0.000713988,0.00376222,0.000161413,-1.36691,0.00245611,0.012778,1084,435,-0.0025231,0.0681367
-133,589,-0.00671387,-0.0714722,0.000448311,0.00386706,-0.000932759,0.00410499,0.000210379,-1.32104,0.0026693,0.0118611,1091,435,-0.00671281,0.0714679
-126,589,-0.0213623,-0.0705872,0.000592483,0.00404353,-0.00100654,0.00431564,0.000320371,-1.30676,0.00277647,0.00914511,1098,435,-0.0213962,0.0705951
-119,589,-0.0446777,-0.0784302,0.00045574,0.00429415,-0.00103705,0.00455642,0.000193474,-1.32309,0.00297522,0.0142744,1105,435,-0.0446229,0.0784318
-112,589,-0.0280762,-0.0772705,0.000608856,0.0039958,-0.000858118,0.00420081,0.000403852,-1.33629,0.0026761,0.0155396,1112,435,-0.0281053,0.0772578
-105,589,0.00537109,-0.0631104,0.000821853,0.00393911,-0.000301468,0.003968,0.000792966,-1.47527,0.00242463,0.0153052,1119,435,0.00539696,0.0631222
-98,589,0.00585938,-0.0458069,0.00096646,0.00344783,0.000309242,0.00348579,0.000928501,1.44866,0.00208447,0.0161246,1126,435,0.00588188,0.0458122
-91,589,-0.00598145,-0.0445862,0.00151273,0.00284393,0.000853945,0.00326103,0.00109562,1.11644,0.00191623,0.0204587,1133,435,-0.0059399,0.044575
-84,589,-0.0469971,-0.0671692,0.00189345,0.00101325,0.00146771,0.00298562,-7.89164e-05,0.639736,0.00201723,0.029933,1140,435,-0.0469813,0.0671787
-77,589,0.00537109,-0.0381165,0.00195426,-0.00102439,0.00210026,0.00303966,-0.00210979,0.47699,0.00298915,0.0340549,1147,435,0.00537655,0.0381225
-70,589,0.0821533,0.0458984,0.00189514,-0.0023415,0.00339375,0.00377742,-0.00422378,0.506392,0.00462189,0.0372535,1154,435,0.0821011,-0.0458888
-63,589,-0.258301,-0.150421,0.00170026,-0.00479788,0.00448482,0.00398925,-0.00708687,0.471921,0.00647763,0.0375985,1161,435,-0.258263,0.150418
-56,589,-0.170044,0.03479,0.00143189,-0.00582156,0.00553868,0.0044256,-0.00881526,0.495527,0.00778339,0.0379738,1168,435,-0.170024,-0.0347976
-49,589,-0.197266,0.263458,0.00214555,-0.00788535,0.00591813,0.00488762,-0.0106274,0.433886,0.00915966,0.036197,1175,435,-0.197274,-0.263456
-42,589,0.0161133,0.298401,0.00333207,-0.00877498,0.00556285,0.00549989,-0.0109428,0.371592,0.00966501,0.0374889,1182,435,0.0161343,-0.298391
-35,589,0.16748,-0.0249939,0,0,0,0,0,0,0,-1,1189,435,0.167511,0.0249805
-28,589,-0.072876,-0.0290527,0,0,0,0,0,0,0,-1,1196,435,-0.0729216,0.0290671
-21,589,-0.399292,-0.083313,0.00168386,-0.00314625,0.00117178,0.00195312,-0.00341551,0.225867,0.00313768,0.0430892,1203,435,-0.39935,0.083308
-14,589,-0.447144,0.218018,0.00107542,-0.000192694,-0.00146073,0.00203377,-0.00115104,-0.580634,0.00186214,0.0429541,1210,435,-0.447089,-0.218022
-7,589,-0.0783691,-0.102325,0,0,0,0,0,0,0,-1,1217,435,-0.0783695,0.102311
0,589,-0.395874,0.89386,0.00139326,0.00867864,-0.00460732,0.0109093,-0.000837426,-1.1199,0.00756749,0.0478603,1224,435,-0.395934,-0.893866
7,589,0.568115,-0.0325623,0.00236724,0.0123601,-0.00541562,0.0147321,-4.726e-06,-1.15798,0.00982297,0.0426917,1231,435,0.568083,0.0325615
14,589,0.0367432,-0.0414734,0,0,0,0,0,0,0,-1,1238,435,0.0367237,0.0414743
21,589,-0.262207,0.132141,0.00525185,0.018528,-0.00457106,0.0199496,0.00383023,-1.26927,0.0122247,0.0428909,1245,435,-0.262155,-0.13214
28,589,-0.665405,-0.30368,0.00804612,0.0204238,-0.00313074,0.0211706,0.0072993,-1.33663,0.0124176,0.0441572,1252,435,-0.665394,0.303675
35,589,-0.953247,-0.43573,0.0113209,0.0185124,-0.00163821,0.018868,0.0109653,-1.35705,0.0109412,0.0464124,1259,435,-0.953303,0.435716
42,589,-0.89978,-0.471649,0.015936,0.0162027,0.000742357,0.0168236,0.0153151,0.874277,0.0107483,0.0485654,1266,435,-0.899724,0.471636
49,589,-0.796021,-0.404846,0.0214784,0.0116651,0.00272503,0.0221843,0.0109591,0.25348,0.0128084,0.0482736,1273,435,-0.795967,0.40484
56,589,0.0581055,-0.312927,0.0265487,0.00826078,0.00422806,0.0274788,0.00733059,0.216554,0.0164302,0.0450844,1280,435,0.0580578,0.312934
63,589,0.388428,0.263855,0.0317002,0.00306432,0.00332422,0.0320811,0.00268349,0.114065,0.0205514,0.0452408,1287,435,0.388464,-0.263856
70,589,0.692993,0.708832,0,0,0,0,0,0,0,-1,1294,435,0.692945,-0.708847
77,589,0.860229,1.04123,0.0392506,-0.00740803,-0.00286443,0.0394258,-0.00758323,-0.0610855,0.0291423,0.0430314,1301,435,0.860176,-1.04122
84,589,0.717896,1.51218,0.0408247,-0.011356,-0.00683598,0.0417054,-0.0122367,-0.128126,0.0326559,0.0410956,1308,435,0.717946,-1.51216
91,589,0.639771,1.90607,0.040877,-0.0139147,-0.0119124,0.0433548,-0.0163926,-0.205082,0.0356467,0.0454993,1315,435,0.639781,-1.90606
98,589,1.37476,2.71042,0,0,0,0,0,0,0,-1,1322,435,1.37478,-2.7104
105,589,1.07019,-0.132629,0,0,0,0,0,0,0,-1,1329,435,1.07024,0.132638
112,589,4.84827,2.47763,0.0299372,-0.0209996,-0.0282547,0.0425078,-0.0335703,-0.418608,0.0440246,0.0464954,1336,435,4.84823,-2.47763
119,589,4.62317,2.25467,0.0245884,-0.0191061,-0.0298748,0.0397521,-0.0342697,-0.469687,0.0427756,0.0461756,1343,435,4.62319,-2.25468
126,589,0.377441,0.628113,0,0,0,0,0,0,0,-1,1350,435,0.377474,-0.628117
133,589,0.20459,0.428406,0,0,0,0,0,0,0,-1,1357,435,0.204614,-0.428412
140,589,0.191284,0.353668,0.0117845,-0.0143284,-0.0230834,0.0252481,-0.027792,-0.528019,0.0306344,0.0476485,1364,435,0.191298,-0.353669
147,589,0.142578,0.151703,0.00931572,-0.0106925,-0.0184973,0.0203409,-0.0217177,-0.537505,0.0242869,0.0471673,1371,435,0.142616,-0.151692
154,589,0.0670166,-0.0959473,0.00731012,-0.00872,-0.0138329,0.0152822,-0.0166921,-0.522823,0.0184664,0.0460228,1378,435,0.0670612,0.0959454
161,589,0.390503,-0.0830078,0.00615155,-0.0059703,-0.00944588,0.0113138,-0.0111325,-0.500158,0.0129595,0.0456459,1385,435,0.390558,0.0829991
168,589,0.388672,0.248566,0.00550403,-0.00224008,-0.00498833,0.00794674,-0.00468279,-0.455362,0.00737239,0.0414932,1392,435,0.388709,-0.248566
175,589,0.0499268,-0.0188904,0.00656088,0.000546613,-0.000943251,0.00670535,0.000402148,-0.151976,0.00434239,0.0424847,1399,435,0.0499444,0.0188809
182,589,0.0340576,-0.0238342,0.00781817,0.00323056,0.000986396,0.00802126,0.00302747,0.20306,0.00467723,0.0418543,1406,435,0.0340352,0.0238453
189,589,0.0117188,-0.0259399,0.00932888,0.00526539,0.00155962,0.00985846,0.00473581,0.327343,0.00569325,0.0418268,1413,435,0.0117742,0.0259494
196,589,-0.0236816,0.090271,0.00978499,0.00641635,0.00102519,0.0100725,0.00612888,0.273384,0.00586078,0.0361887,1420,435,-0.02366,-0.0902694
203,589,0.00585938,-0.0378723,0.00974229,0.00751456,0.000677894,0.00993236,0.00732449,0.273358,0.00594607,0.0306412,1427,435,0.00580371,0.0378609
210,589,-0.0136719,-0.0542603,0.00933036,0.00790125,-4.64912e-05,0.00933187,0.00789974,-0.0324858,0.00580308,0.0247302,1434,435,-0.0137045,0.0542508
217,589,-0.0405273,-0.0184937,0.00890946,0.00745103,-0.00140554,0.00976369,0.0065968,-0.546104,0.00575184,0.0211358,1441,435,-0.0405443,0.0184962
224,589,-0.0635986,-0.0460205,0.00851418,0.00611476,-0.0026926,0.0102622,0.0043667,-0.575821,0.00594679,0.0180323,1448,435,-0.0636174,0.0460082
231,589,-0.0266113,-0.0822449,0.00785144,0.00562068,-0.00377455,0.010672,0.00280017,-0.641736,0.00638917,0.0144766,1455,435,-0.0266503,0.0822483
238,589,-0.0367432,-0.0744629,0.0068549,0.00557521,-0.00405966,0.0103248,0.00210528,-0.707236,0.00629983,0.0155712,1462,435,-0.03672,0.0744567
245,589,-0.0529785,-0.0559082,0.00580186,0.00431361,-0.00391502,0.00904285,0.00107262,-0.691484,0.00570474,0.0171733,1469,435,-0.053001,0.0559048
252,589,-0.0291748,-0.0679321,0.0042775,0.00265087,-0.00406097,0.0076058,-0.000677427,-0.686568,0.00531076,0.0125417,1476,435,-0.0291964,0.0679369
259,589,-0.0250244,-0.0832214,0.00325238,0.00187909,-0.00355275,0.00618422,-0.00105276,-0.68994,0.00451484,0.00857256,1483,435,-0.0250204,0.0832219
266,589,-0.03479,-0.0718994,0.00255945,0.000974197,-0.00295626,0.0048275,-0.00129385,-0.65442,0.00372528,0.0095025,1490,435,-0.03478,0.0718979
273,589,-0.0357666,-0.0763855,0.00173505,0.00029578,-0.0025075,0.00362414,-0.00159331,-0.645658,0.00308742,0.0118607,1497,435,-0.0357301,0.0763945
280,589,-0.0321045,-0.0762634,0.000939038,-0.000100297,-0.00222986,0.00270899,-0.00187025,-0.670917,0.00265856,0.0116252,1504,435,-0.0321213,0.0762542
287,589,-0.0307617,-0.0737,0.000166045,-0.000607977,-0.00186288,0.00168168,-0.00212362,-0.68298,0.00220193,0.0102178,1511,435,-0.0307363,0.0736909
294,589,-0.0438232,-0.0700684,-0.000608725,-0.000907943,-0.00182613,0.00107391,-0.00259058,-0.744526,0.00217526,0.0089124,1518,435,-0.0438078,0.0700831
301,589,-0.0432129,-0.0710144,-0.00124177,-0.00109643,-0.00177752,0.000609906,-0.0029481,-0.805829,0.0021971,0.00948637,1525,435,-0.0432481,0.0710022
308,589,-0.0375977,-0.0758972,-0.00154691,-0.00110813,-0.00180855,0.000494285,-0.00314933,-0.845756,0.00228222,0.00967302,1532,435,-0.0375857,0.0758901
315,589,-0.0269775,-0.0758972,-0.00171685,-0.000999501,-0.00176425,0.000442166,-0.00315852,-0.885682,0.00226748,0.00952534,1539,435,-0.0269558,0.0759068
322,589,-0.017334,-0.0713501,-0.00189806,-0.000963781,-0.00163934,0.000273677,-0.00313552,-0.924197,0.00218728,0.0102589,1546,435,-0.0172982,0.0713486
329,589,-0.0219727,-0.0643616,-0.00186392,-0.000908233,-0.00163408,0.000316438,-0.00308859,-0.927644,0.00217223,0.00951404,1553,435,-0.021925,0.0643652
336,589,-0.0184326,-0.0718079,-0.00158569,-0.000802573,-0.00142305,0.00028181,-0.00267007,-0.919653,0.00188103,0.00906462,1560,435,-0.0184893,0.0718144
343,589,-0.026001,-0.0878906,-0.00140435,-0.000449306,-0.00113151,0.000301314,-0.00215497,-0.985071,0.0015469,0.0100998,1567,435,-0.0260206,0.0878953
350,589,-0.0351563,-0.0741882,-0.00106124,-0.000253251,-0.000992322,0.000414161,-0.00172865,-0.978714,0.00131246,0.015353,1574,435,-0.0351007,0.0741808
357,589,-0.0241699,-0.0862732,-0.000845373,7.65734e-05,-0.00110334,0.00081137,-0.00158017,-0.983275,0.00140434,0.0127102,1581,435,-0.024201,0.086273
364,589,-0.0102539,-0.0808411,-0.000816179,0.000237878,-0.000946719,0.000794379,-0.00137268,-1.03938,0.00126591,0.0103177,1588,435,-0.0102516,0.0808561
371,589,-0.0126953,-0.057373,-0.000625559,0.000116047,-0.00104557,0.000854622,-0.00136413,-0.9558,0.00129221,0.0100359,1595,435,-0.0126488,0.0573667
378,589,-0.0178223,-0.0697327,-0.000475482,-0.000257309,-0.00141379,0.00105159,-0.00178438,-0.823901,0.00165547,0.0109387,1602,435,-0.0178701,0.0697452
385,589,-0.0305176,-0.0722656,-0.000446354,-0.00120257,-0.00168023,0.000897785,-0.00254671,-0.674725,0.00206324,0.0127139,1609,435,-0.0305709,0.0722724
392,589,-0.0394287,-0.0611267,-0.000533133,-0.00156279,-0.00156727,0.000601701,-0.00269762,-0.626707,0.00202894,0.0146199,1616,435,-0.0394769,0.0611274
399,589,-0.0430908,-0.0469971,-0.000343109,-0.000992452,-0.00152003,0.000886541,-0.0022221,-0.680182,0.00184917,0.0176968,1623,435,-0.0431361,0.046992
406,589,0.120361,-0.195251,-0.000268404,-0.00192431,-0.00148154,0.00060084,-0.00279356,-0.530594,0.00209162,0.0313168,1630,435,0.120357,0.195243
413,589,-0.0692139,-0.254242,-0.00055957,-0.00218864,-0.0011323,2.0734e-05,-0.00276894,-0.473597,0.00185291,0.0390369,1637,435,-0.0692493,0.25423
420,589,0.866211,0.366364,0,0,0,0,0,0,0,-1,1644,435,0.866244,-0.366367
427,589,1.14258,0.453827,0,0,0,0,0,0,0,-1,1651,435,1.14255,-0.453815
434,589,0.494873,0.739105,0.000648446,-0.000825988,0.00199723,0.00204017,-0.00221772,0.608595,0.00245901,0.0423001,1658,435,0.494923,-0.739099
441,589,0.451416,1.46524,0.00135345,0.000561691,0.00344406,0.00442431,-0.00250916,0.728176,0.00405362,0.0447281,1665,435,0.451475,-1.46523
448,589,0.258911,1.98154,0.0026808,0.00214917,0.00507839,0.00750033,-0.00267036,0.759251,0.00608876,0.0487965,1672,435,0.258889,-1.98154
455,589,0.15918,2.54785,0,0,0,0,0,0,0,-1,1679,435,0.159138,-2.54786
462,589,-0.465698,-0.439148,0,0,0,0,0,0,0,-1,1686,435,-0.465719,0.439163
469,589,-0.467529,-0.212555,0,0,0,0,0,0,0,-1,1693,435,-0.467552,0.212553
476,589,0,0,0,0,0,0,0,0,0,-1,1700,435,0,0
483,589,0,0,0,0,0,0,0,0,0,-1,1707,435,0,0
490,589,0,0,0,0,0,0,0,0,0,-1,1714,435,0,0
497,589,0,0,0,0,0,0,0,0,0,-1,1721,435,0,0
504,589,0,0,0,0,0,0,0,0,0,-1,1728,435,0,0
511,589,0,0,0,0,0,0,0,0,0,-1,1735,435,0,0
518,589,0,0,0,0,0,0,0,0,0,-1,1742,435,0,0
525,589,0,0,0,0,0,0,0,0,0,-1,1749,435,0,0
532,589,0,0,0,0,0,0,0,0,0,-1,1756,435,0,0
539,589,0,0,0,0,0,0,0,0,0,-1,1763,435,0,0
546,589,0,0,0,0,0,0,0,0,0,-1,1770,435,0,0
553,589,0,0,0,0,0,0,0,0,0,-1,1777,435,0,0
560,589,0,0,0,0,0,0,0,0,0,-1,1784,435,0,0
567,589,0,0,0,0,0,0,0,0,0,-1,1791,435,0,0
574,589,0,0,0,0,0,0,0,0,0,-1,1798,435,0,0
581,589,0,0,0,0,0,0,0,0,0,-1,1805,435,0,0
588,589,0,0,0,0,0,0,0,0,0,-1,1812,435,0,0
595,589,0,0,0,0,0,0,0,0,0,-1,1819,435,0,0
602,589,0,0,0,0,0,0,0,0,0,-1,1826,435,0,0
609,589,0,0,0,0,0,0,0,0,0,-1,1833,435,0,0
616,589,0,0,0,0,0,0,0,0,0,-1,1840,435,0,0
623,589,0,0,0,0,0,0,0,0,0,-1,1847,435,0,0
630,589,0,0,0,0,0,0,0,0,0,-1,1854,435,0,0
637,589,0,0,0,0,0,0,0,0,0,-1,1861,435,0,0
644,589,0,0,0,0,0,0,0,0,0,-1,1868,435,0,0
651,589,0,0,0,0,0,0,0,0,0,-1,1875,435,0,0
658,589,0,0,0,0,0,0,0,0,0,-1,1882,435,0,0
665,589,0,0,0,0,0,0,0,0,0,-1,1889,435,0,0
672,589,0,0,0,0,0,0,0,0,0,-1,1896,435,0,0
679,589,0,0,0,0,0,0,0,0,0,-1,1903,435,0,0
686,589,0,0,0,0,0,0,0,0,0,-1,1910,435,0,0
693,589,0,0,0,0,0,0,0,0,0,-1,1917,435,0,0
700,589,0,0,0,0,0,0,0,0,0,-1,1924,435,0,0
707,589,0,0,0,0,0,0,0,0,0,-1,1931,435,0,0
714,589,0,0,0,0,0,0,0,0,0,-1,1938,435,0,0
721,589,0,0,0,0,0,0,0,0,0,-1,1945,435,0,0
728,589,0,0,0,0,0,0,0,0,0,-1,1952,435,0,0
735,589,0,0,0,0,0,0,0,0,0,-1,1959,435,0,0
742,589,0,0,0,0,0,0,0,0,0,-1,1966,435,0,0
749,589,0,0,0,0,0,0,0,0,0,-1,1973,435,0,0
756,589,0,0,0,0,0,0,0,0,0,-1,1980,435,0,0
763,589,0,0,0,0,0,0,0,0,0,-1,1987,435,0,0
770,589,0,0,0,0,0,0,0,0,0,-1,1994,435,0,0
777,589,0,0,0,0,0,0,0,0,0,-1,2001,435,0,0
784,589,0,0,0,0,0,0,0,0,0,-1,2008,435,0,0
791,589,0,0,0,0,0,0,0,0,0,-1,2015,435,0,0
798,589,0,0,0,0,0,0,0,0,0,-1,2022,435,0,0
805,589,0,0,0,0,0,0,0,0,0,-1,2029,435,0,0
812,589,0,0,0,0,0,0,0,0,0,-1,2036,435,0,0
-700,582,0,0,0,0,0,0,0,0,0,-1,524,442,0,0
-693,582,0,0,0,0,0,0,0,0,0,-1,531,442,0,0
-686,582,0,0,0,0,0,0,0,0,0,-1,538,442,0,0
-679,582,0,0,0,0,0,0,0,0,0,-1,545,442,0,0
-672,582,0,0,0,0,0,0,0,0,0,-1,552,442,0,0
-665,582,0,0,0,0,0,0,0,0,0,-1,559,442,0,0
-658,582,0,0,0,0,0,0,0,0,0,-1,566,442,0,0
-651,582,0,0,0,0,0,0,0,0,0,-1,573,442,0,0
-644,582,0,0,0,0,0,0,0,0,0,-1,580,442,0,0
-637,582,0,0,0,0,0,0,0,0,0,-1,587,442,0,0
-630,582,0,0,0,0,0,0,0,0,0,-1,594,442,0,0
-623,582,0,0,0,0,0,0,0,0,0,-1,601,442,0,0
-616,582,0,0,0,0,0,0,0,0,0,-1,608,442,0,0
-609,582,0,0,0,0,0,0,0,0,0,-1,615,442,0,0
-602,582,0,0,0,0,0,0,0,0,0,-1,622,442,0,0
-595,582,0,0,0,0,0,0,0,0,0,-1,629,442,0,0
-588,582,0,0,0,0,0,0,0,0,0,-1,636,442,0,0
-581,582,0,0,0,0,0,0,0,0,0,-1,643,442,0,0
-574,582,0,0,0,0,0,0,0,0,0,-1,650,442,0,0
-567,582,0,0,0,0,0,0,0,0,0,-1,657,442,0,0
-560,582,0,0,0,0,0,0,0,0,0,-1,664,442,0,0
-553,582,0,0,0,0,0,0,0,0,0,-1,671,442,0,0
-546,582,0,0,0,0,0,0,0,0,0,-1,678,442,0,0
-539,582,0,0,0,0,0,0,0,0,0,-1,685,442,0,0
-532,582,0,0,0,0,0,0,0,0,0,-1,692,442,0,0
-525,582,0,0,0,0,0,0,0,0,0,-1,699,442,0,0
-518,582,0,0,0,0,0,0,0,0,0,-1,706,442,0,0
-511,582,0,0,0,0,0,0,0,0,0,-1,713,442,0,0
-504,582,0,0,0,0,0,0,0,0,0,-1,720,442,0,0
-497,582,0,0,0,0,0,0,0,0,0,-1,727,442,0,0
-490,582,0,0,0,0,0,0,0,0,0,-1,734,442,0,0
-483,582,0,0,0,0,0,0,0,0,0,-1,741,442,0,0
-476,582,0,0,0,0,0,0,0,0,0,-1,748,442,0,0
-469,582,0,0,0,0,0,0,0,0,0,-1,755,442,0,0
-462,582,0,0,0,0,0,0,0,0,0,-1,762,442,0,0
-455,582,0,0,0,0,0,0,0,0,0,-1,769,442,0,0
-448,582,0,0,0,0,0,0,0,0,0,-1,776,442,0,0
-441,582,0,0,0,0,0,0,0,0,0,-1,783,442,0,0
-434,582,0,0,0,0,0,0,0,0,0,-1,790,442,0,0
-427,582,0,0,0,0,0,0,0,0,0,-1,797,442,0,0
-420,582,0,0,0,0,0,0,0,0,0,-1,804,442,0,0
-413,582,0,0,0,0,0,0,0,0,0,-1,811,442,0,0
-406,582,0,0,0,0,0,0,0,0,0,-1,818,442,0,0
-399,582,0,0,0,0,0,0,0,0,0,-1,825,442,0,0
-392,582,0,0,0,0,0,0,0,0,0,-1,832,442,0,0
-385,582,0,0,0,0,0,0,0,0,0,-1,839,442,0,0
-378,582,0,0,0,0,0,0,0,0,0,-1,846,442,0,0
-371,582,0,0,0,0,0,0,0,0,0,-1,853,442,0,0
-364,582,0,0,0,0,0,0,0,0,0,-1,860,442,0,0
-357,582,-1.98853,-0.279266,0.0728486,0.00568336,0.0263378,0.0819447,-0.00341273,0.332538,0.0558021,0.0494371,867,442,-1.98852,0.279262
-350,582,-1.70868,0.566803,0.0613274,0.0103653,0.0195858,0.0679849,0.00370779,0.327662,0.0441393,0.0476502,874,442,-1.70865,-0.56681
-343,582,0.245056,-0.124664,0.049536,0.0156595,0.0133251,0.0541492,0.0110463,0.333285,0.0330387,0.0443332,881,442,0.245057,0.124672
-336,582,0.233337,0.0605164,0.0394403,0.0205937,0.00795986,0.0423523,0.0176817,0.350704,0.0245628,0.0439671,888,442,0.233311,-0.0605048
-329,582,0.110413,0.480469,0.0304601,0.0242066,0.00400864,0.0324172,0.0222495,0.454184,0.0191445,0.0442061,895,442,0.110418,-0.480479
-322,582,0.0800781,0.57135,0.0229416,0.0265211,0.000971469,0.0267678,0.0226949,1.32215,0.0166544,0.0453074,902,442,0.0800636,-0.57136
-315,582,0.212036,0.402618,0.0166395,0.0268273,-0.00154293,0.0270559,0.016411,-1.42374,0.0157385,0.0441479,909,442,0.21205,-0.40262
-308,582,0.217224,0.196899,0.0111611,0.0257192,-0.00359175,0.0265571,0.0103232,-1.3416,0.0154588,0.042839,916,442,0.217246,-0.196908
-301,582,-0.0837402,0.0661316,0.00767047,0.0238844,-0.00520248,0.0254101,0.00614475,-1.28553,0.0153086,0.0404495,923,442,-0.0837437,-0.0661343
-294,582,-0.142456,0.158081,0.00455932,0.0209819,-0.00556643,0.0226908,0.00285041,-1.27293,0.0142723,0.0365361,930,442,-0.142474,-0.158091
-287,582,-0.0974731,0.0397339,0.00234276,0.0181105,-0.00560156,0.0198978,0.000555385,-1.26192,0.013084,0.0296146,937,442,-0.0974927,-0.0397457
-280,582,-0.0534668,-0.0611572,0.00192004,0.0147637,-0.00528639,0.0166597,2.40756e-05,-1.22644,0.0110984,0.013941,944,442,-0.053443,0.0611634
-273,582,-0.0187378,-0.0574036,0.00166054,0.0116703,-0.00496565,0.0137157,-0.00038487,-1.18006,0.00927474,0.00930441,951,442,-0.0187588,0.057392
-266,582,-0.0126343,-0.0639954,0.00131107,0.00866266,-0.00437501,0.0107011,-0.000727342,-1.13478,0.00738844,0.00931618,958,442,-0.0126354,0.0640011
-259,582,-0.020813,-0.0742798,0.00120672,0.00604157,-0.00350119,0.00787882,-0.000630525,-1.08755,0.00547484,0.00844746,965,442,-0.0207913,0.0742723
-252,582,-0.0305176,-0.0786743,0.00128948,0.00396403,-0.00262494,0.0055727,-0.00031919,-1.02099,0.00382597,0.00807699,972,442,-0.0305327,0.0786619
-245,582,-0.0255737,-0.0903931,0.00116637,0.00293933,-0.00184951,0.00410384,1.86311e-06,-1.00888,0.00273527,0.0104016,979,442,-0.0255589,0.090398
-238,582,-0.0197144,-0.0718689,0.00093615,0.00217119,-0.00107311,0.00279177,0.000315564,-1.04648,0.00176542,0.0135927,986,442,-0.0197329,0.0718603
-231,582,-0.0172119,-0.068573,0.00071951,0.00190046,-0.000567815,0.00212918,0.000490794,-1.18788,0.00128742,0.0112112,993,442,-0.0172353,0.0685781
-224,582,-0.0175171,-0.0760803,0.000512104,0.0017849,-0.000463499,0.00193579,0.000361206,-1.25606,0.00118857,0.00964578,1000,442,-0.017515,0.0760812
-217,582,-0.0203247,-0.0758362,0.000511493,0.00171352,-0.000614725,0.00197222,0.000252794,-1.17246,0.00123917,0.0113635,1007,442,-0.020353,0.0758392
-210,582,-0.0249023,-0.0785828,0.00082371,0.0014796,-0.000809935,0.00202546,0.000277845,-0.977761,0.00126788,0.0115437,1014,442,-0.0248865,0.0785969
-203,582,-0.0223389,-0.0896912,0.00133442,0.00155946,-0.000860128,0.00231439,0.000579481,-0.850439,0.00139062,0.00961104,1021,442,-0.0223437,0.0896887
-196,582,-0.0152588,-0.107727,0.00149193,0.00156973,-0.000995454,0.00252704,0.000534616,-0.804927,0.00153779,0.0139017,1028,442,-0.0152752,0.107716
-189,582,-0.0334473,-0.0928955,0.00156009,0.00184455,-0.00118213,0.00289298,0.000511665,-0.84527,0.00178274,0.0197662,1035,442,-0.0334024,0.0929041
-182,582,-0.0214844,-0.0601501,0.00167771,0.00208825,-0.00124047,0.00314032,0.000625643,-0.867395,0.00191929,0.0131456,1042,442,-0.0214263,0.0601641
-175,582,-0.00964355,-0.0676575,0.00167676,0.00244925,-0.00123428,0.00335631,0.000769701,-0.937038,0.0020302,0.0105643,1049,442,-0.00959234,0.0676473
-168,582,0.00305176,-0.0724182,0.00156997,0.00277229,-0.0011608,0.00347835,0.000863903,-1.02433,0.00209129,0.0102213,1056,442,0.00301063,0.0724055
-161,582,-0.0196533,-0.0638428,0.00164854,0.00337974,-0.00115925,0.0039609,0.00106738,-1.10609,0.00236645,0.0119915,1063,442,-0.0196297,0.0638324
-154,582,-0.0378418,-0.0545654,0.00145742,0.00386823,-0.00122561,0.00438187,0.000943782,-1.17394,0.00266299,0.0110027,1070,442,-0.037833,0.0545803
-147,582,-0.0117188,-0.0585022,0.000824378,0.00423371,-0.0012763,0.00465856,0.000399532,-1.24946,0.00298146,0.010378,1077,442,-0.0116585,0.0585147
-140,582,0.00769043,-0.0600281,0.000570547,0.0046395,-0.00141316,0.00508214,0.000127908,-1.26725,0.00334627,0.0106196,1084,442,0.00763836,0.0600334
-133,582,-0.00732422,-0.0732422,0.0006057,0.00483138,-0.00165459,0.00540214,3.49323e-05,-1.23862,0.00358984,0.0107043,1091,442,-0.00727752,0.0732459
-126,582,-0.0174561,-0.0790405,0.000663696,0.00502888,-0.00174881,0.00564308,4.94949e-05,-1.23304,0.00374566,0.0101654,1098,442,-0.0174653,0.0790449
-119,582,-0.0299072,-0.0864258,0.000399196,0.0055099,-0.00174547,0.00604914,-0.000140041,-1.27116,0.00408024,0.0148778,1105,442,-0.0299028,0.0864257
-112,582,-0.0244141,-0.0866089,0.000452824,0.00534418,-0.00146662,0.00575023,4.67789e-05,-1.3007,0.00381799,0.0231915,1112,442,-0.024457,0.086612
-105,582,0.0117188,-0.0544128,0.000635672,0.00548458,-0.000739771,0.00559493,0.00052532,-1.42272,0.00356776,0.031129,1119,442,0.0116879,0.0544229
-98,582,-0.250854,-0.029541,0.000736828,0.00508747,4.2782e-05,0.00508789,0.000736407,1.56096,0.00317505,0.0320376,1126,442,-0.250888,0.0295492
-91,582,-0.205933,0.0476379,0.00134987,0.00458424,0.000799354,0.00477101,0.0011631,1.34126,0.00287257,0.0344185,1133,442,-0.205966,-0.0476334
-84,582,-0.262695,-0.0435486,0.00178399,0.00260475,0.0016652,0.00390939,0.000479344,0.906213,0.00246208,0.0388863,1140,442,-0.262635,0.0435481
-77,582,0.113403,0.067688,0.00188586,0.000414366,0.00253329,0.00378808,-0.00148785,0.64407,0.00314108,0.0425837,1147,442,0.113414,-0.0676735
-70,582,0.139404,0.191681,0.00186544,-0.00105959,0.00411969,0.00477451,-0.00396867,0.614835,0.00505502,0.0454806,1154,442,0.139463,-0.191677
-63,582,-0.480591,-0.202881,0,0,0,0,0,0,0,-1,1161,442,-0.480637,0.202879
-56,582,-0.342651,0.102264,0.0014146,-0.00461692,0.00671609,0.00576096,-0.00896327,0.574373,0.00856779,0.0432615,1168,442,-0.342605,-0.102254
-49,582,-0.314453,0.526672,0.00217956,-0.00680462,0.00726442,0.00622858,-0.0108536,0.50849,0.0099822,0.0435166,1175,442,-0.314503,-0.52666
-42,582,-0.375732,0.930939,0.00344381,-0.00753064,0.00696461,0.00682312,-0.0109099,0.451747,0.0103284,0.0414971,1182,442,-0.375705,-0.930941
-35,582,-0.170898,-1.50711,0.00335374,-0.00596026,0.00645261,0.00665437,-0.00926089,0.47282,0.00922966,0.0435386,1189,442,-0.170947,1.50711
-28,582,-0.697144,-0.946869,0.00233647,-0.00272263,0.00453423,0.00499902,-0.00538518,0.530962,0.0059967,0.0423083,1196,442,-0.697124,0.946884
-21,582,-1.15955,-0.423431,0.000898638,0.0014087,0.00139839,0.00257512,-0.000267786,0.875594,0.00181262,0.0434655,1203,442,-1.15956,0.423422
-14,582,-1.74292,0.152893,-0.000103186,0.00536206,-0.00197204,0.00599933,-0.000740455,-1.25824,0.00426784,0.0435305,1210,442,-1.74294,-0.152879
-7,582,-0.908325,2.28888,0,0,0,0,0,0,0,-1,1217,442,-0.908374,-2.28888
0,582,0.160767,1.3316,-0.00013518,0.0165181,-0.00607106,0.0184964,-0.00211343,-1.2558,0.0130924,0.0484172,1224,442,0.160802,-1.3316
7,582,1.18542,0.33313,0.000832061,0.0208925,-0.00724743,0.0232369,-0.00151231,-1.25794,0.0160192,0.0461638,1231,442,1.18542,-0.333125
14,582,2.25598,-0.485321,0,0,0,0,0,0,0,-1,1238,442,2.25603,0.48533
21,582,-0.243774,0.171295,0,0,0,0,0,0,0,-1,1245,442,-0.243821,-0.171294
28,582,-0.890991,-0.395844,0,0,0,0,0,0,0,-1,1252,442,-0.891049,0.395845
35,582,-1.08093,-1.17023,0,0,0,0,0,0,0,-1,1259,442,-1.08088,1.17023
42,582,-1.01868,-0.927277,0.0175338,0.0236034,-0.000621078,0.0236663,0.0174709,-1.46987,0.0141713,0.0489194,1266,442,-1.0187,0.927262
49,582,-0.684692,-0.356812,0.024613,0.0174203,0.00208731,0.0251748,0.0168585,0.262941,0.014811,0.0457443,1273,442,-0.68475,0.356812
56,582,-0.205322,0.0224609,0.0316031,0.0125682,0.00431601,0.032536,0.0116353,0.212873,0.0190369,0.0465964,1280,442,-0.205346,-0.0224463
63,582,0.244141,0.467896,0.0385829,0.00590913,0.00368395,0.0389931,0.00549891,0.110895,0.0243701,0.0458514,1287,442,0.244191,-0.467883
70,582,0.705811,0.867889,0,0,0,0,0,0,0,-1,1294,442,0.705793,-0.867891
77,582,1.82434,0.542908,0,0,0,0,0,0,0,-1,1301,442,1.82431,-0.542914
84,582,1.52966,1.17715,0,0,0,0,0,0,0,-1,1308,442,1.52966,-1.17715
91,582,2.229,2.49097,0,0,0,0,0,0,0,-1,1315,442,2.22903,-2.49095
98,582,2.09595,2.832,0.0465864,-0.0198297,-0.0193784,0.0518269,-0.0250703,-0.264116,0.0452836,0.0466341,1322,442,2.09592,-2.83199
105,582,2.58203,3.2597,0.0420763,-0.0234684,-0.0263979,0.0513858,-0.0327779,-0.339041,0.0489862,0.0467326,1329,442,2.58206,-3.2597
112,582,4.57031,2.9024,0.0366197,-0.0256111,-0.0318009,0.0499955,-0.0389869,-0.398147,0.0515049,0.0422217,1336,442,4.57034,-2.90241
119,582,4.69495,2.48669,0.0298609,-0.0230568,-0.0337496,0.0462869,-0.0394828,-0.452952,0.0495711,0.0412821,1343,442,4.69489,-2.48669
126,582,4.44861,2.09872,0.0237495,-0.0203069,-0.0319234,0.0405072,-0.0370646,-0.483395,0.0448008,0.0454551,1350,442,4.44862,-2.09872
133,582,0.618774,0.472656,0,0,0,0,0,0,0,-1,1357,442,0.618812,-0.47266
140,582,0.535034,0.352814,0,0,0,0,0,0,0,-1,1364,442,0.534981,-0.352803
147,582,0.259644,0.398193,0,0,0,0,0,0,0,-1,1371,442,0.259585,-0.39818
154,582,0.138916,0.192505,0,0,0,0,0,0,0,-1,1378,442,0.138953,-0.192491
161,582,0.421753,0.0726929,0,0,0,0,0,0,0,-1,1385,442,0.421734,-0.0727034
168,582,0.63623,0.582642,0,0,0,0,0,0,0,-1,1392,442,0.636244,-0.582656
175,582,0.174194,0.022644,0,0,0,0,0,0,0,-1,1399,442,0.174243,-0.0226502
182,582,0.235107,0.454742,0,0,0,0,0,0,0,-1,1406,442,0.235078,-0.454735
189,582,0.00244141,0.0622559,0,0,0,0,0,0,0,-1,1413,442,0.00239953,-0.062258
196,582,-1.22302,-1.159,0.0116316,0.00911095,0.00161506,0.0124199,0.00832265,0.454078,0.00730763,0.0470627,1420,442,-1.22301,1.15898
203,582,0.144653,0.0704651,0.0114516,0.0100254,0.00116553,0.0121049,0.00937217,0.510868,0.00733081,0.039696,1427,442,0.144659,-0.0704719
210,582,-0.0671387,-0.172424,0.0109864,0.0102299,0.00028068,0.0110792,0.0101371,0.319189,0.00709299,0.036821,1434,442,-0.0671759,0.172418
217,582,0.0340576,-0.219666,0.0104833,0.00921527,-0.00155824,0.0115316,0.00816699,-0.592187,0.0068475,0.0350438,1441,442,0.0340631,0.219658
224,582,0.122681,0.0236816,0.00999111,0.00704985,-0.00336614,0.0121939,0.00484711,-0.579449,0.00708926,0.0352885,1448,442,0.122712,-0.0236966
231,582,-0.020752,-0.0358582,0.00919249,0.00618157,-0.00489171,0.0128052,0.0025689,-0.636119,0.00782237,0.0333967,1455,442,-0.0207971,0.035866
238,582,-0.053833,-0.023407,0.00804517,0.00616893,-0.00533132,0.0125203,0.00169382,-0.698308,0.00784345,0.0300743,1462,442,-0.0538686,0.0233967
245,582,-0.0874023,-0.00576782,0.00682817,0.00475406,-0.00515007,0.0110446,0.000537673,-0.686043,0.00719052,0.0271082,1469,442,-0.0873799,0.00576095
252,582,-0.020874,-0.0457153,0.00507159,0.00299394,-0.00524876,0.00938333,-0.00131781,-0.687701,0.00673792,0.0163959,1476,442,-0.0208411,0.0457274
259,582,-0.00793457,-0.0602112,0.00380797,0.00214124,-0.00464479,0.00769356,-0.00174435,-0.696633,0.00579862,0.0115135,1483,442,-0.00789212,0.0602263
266,582,-0.0284424,-0.0629578,0.00293516,0.00119586,-0.00387139,0.00603337,-0.00190235,-0.674915,0.00478414,0.0101724,1490,442,-0.0283926,0.0629693
273,582,-0.0378418,-0.0648193,0.001951,0.00059723,-0.00326153,0.00460515,-0.00205692,-0.683083,0.00393902,0.0103701,1497,442,-0.0378798,0.0648182
280,582,-0.0321045,-0.0744934,0.00100862,0.000287044,-0.0028041,0.00347504,-0.00217938,-0.721418,0.00329303,0.0099533,1504,442,-0.0321381,0.0744864
287,582,-0.0263672,-0.0717468,0.000122387,-0.000108995,-0.00221088,0.00222061,-0.00220721,-0.759258,0.00255641,0.00984654,1511,442,-0.026307,0.0717393
294,582,-0.0286865,-0.0667114,-0.000753076,-0.000357263,-0.00196009,0.00141489,-0.00252523,-0.835712,0.00230474,0.00763106,1518,442,-0.0286745,0.0667249
301,582,-0.0230713,-0.0646667,-0.00141191,-0.000538257,-0.00175939,0.000837728,-0.00278789,-0.907078,0.00219187,0.00843119,1525,442,-0.0231114,0.0646605
308,582,-0.0203857,-0.0681458,-0.00169806,-0.0005368,-0.00166716,0.000647945,-0.00288281,-0.952967,0.00217034,0.0114578,1532,442,-0.0203599,0.068137
315,582,-0.0336914,-0.070282,-0.0019005,-0.000389237,-0.00154646,0.000576325,-0.00286606,-1.01265,0.00212898,0.0120929,1539,442,-0.0336381,0.0702752
322,582,-0.0239258,-0.069458,-0.00209667,-0.000394342,-0.00135142,0.000351624,-0.00284263,-1.06643,0.00202251,0.00965189,1546,442,-0.0239505,0.0694638
329,582,-0.0142822,-0.0706787,-0.00208692,-0.000435817,-0.00133719,0.000310131,-0.00283286,-1.06195,0.00199998,0.00967242,1553,442,-0.0142298,0.0706884
336,582,-0.0195313,-0.0666504,-0.00178208,-0.000429249,-0.00115789,0.000235323,-0.00244665,-1.04975,0.00171493,0.0103646,1560,442,-0.0195616,0.0666523
343,582,-0.0343018,-0.0510864,-0.00154236,-0.000142758,-0.000953336,0.000340052,-0.00202517,-1.10201,0.00147658,0.0122275,1567,442,-0.0342681,0.0510927
350,582,-0.0479736,-0.067749,-0.00124004,-6.7969e-05,-0.00088588,0.000408173,-0.00171618,-1.07762,0.00130169,0.0153878,1574,442,-0.0479577,0.0677381
357,582,-0.0324707,-0.0802307,-0.00100291,0.000134031,-0.000963092,0.000683909,-0.00155279,-1.05201,0.00132344,0.0131277,1581,442,-0.0324621,0.0802187
364,582,-0.0235596,-0.0619507,-0.000875504,0.000264745,-0.000806031,0.000681904,-0.00129266,-1.09321,0.00115805,0.00988134,1588,442,-0.0235925,0.0619637
371,582,-0.0303955,-0.0516052,-0.000678672,0.0001518,-0.000863173,0.00069442,-0.00122129,-1.00959,0.00111989,0.0130206,1595,442,-0.0304264,0.0516038
378,582,-0.0465088,-0.0679016,-0.000498416,-0.000160967,-0.00112518,0.000808072,-0.00146745,-0.85982,0.00133203,0.0141872,1602,442,-0.0465681,0.0679123
385,582,-0.0354004,-0.0802002,-0.000413839,-0.000877249,-0.00126121,0.000636774,-0.00192786,-0.694553,0.00154197,0.010631,1609,442,-0.0354208,0.0801921
392,582,-0.0350342,-0.0699768,-0.000428229,-0.0011078,-0.00102699,0.000313722,-0.00184975,-0.625638,0.00134995,0.00960951,1616,442,-0.0349914,0.0699744
399,582,-0.038208,-0.0536194,-0.000144442,-0.000349272,-0.000862336,0.000621539,-0.00111525,-0.726293,0.00101615,0.0105094,1623,442,-0.0382189,0.0536265
406,582,-0.0362549,-0.0575867,-1.43275e-05,-0.001017,-0.000635851,0.000294055,-0.00132538,-0.451569,0.00099618,0.0141867,1630,442,-0.0362744,0.057594
413,582,-0.0303955,-0.0508728,-0.000206561,-0.00104934,-0.000184336,-0.000168006,-0.00108789,-0.206184,0.000676253,0.0226608,1637,442,-0.0303725,0.0508619
420,582,-0.0584717,-0.0498352,-0.000140479,-0.000978857,0.000576994,0.000153523,-0.00127286,0.471251,0.000904102,0.0277901,1644,442,-0.058476,0.0498235
427,582,-0.125977,-0.0541382,0.000351633,-0.000665946,0.00152524,0.00145071,-0.00176502,0.624412,0.00185955,0.031942,1651,442,-0.125929,0.0541337
434,582,0.349243,0.776672,0,0,0,0,0,0,0,-1,1658,442,0.349206,-0.776676
441,582,0.0688477,1.04184,0.00150526,0.00211997,0.00399701,0.00582143,-0.00219619,0.823771,0.00478411,0.0415539,1665,442,0.0688048,-1.04184
448,582,0.0349121,1.57935,0.00253077,0.00360633,0.00538583,0.00848116,-0.00234406,0.835159,0.00657622,0.0466771,1672,442,0.0349597,-1.57935
455,582,-0.387451,-0.486969,0,0,0,0,0,0,0,-1,1679,442,-0.387392,0.48698
462,582,-0.38208,-0.31604,0.0048804,0.00837813,0.00917254,0.015967,-0.00270851,0.879599,0.0116529,0.0428269,1686,442,-0.382086,0.316033
469,582,-0.353394,-0.104065,0.00765849,0.0116461,0.0108547,0.0206886,-0.00138395,0.876227,0.0142761,0.0424114,1693,442,-0.353436,0.104053
476,582,-0.282837,0.143524,0.0114383,0.016295,0.013702,0.0277822,-4.88954e-05,0.873102,0.0185378,0.0419,1700,442,-0.282828,-0.143521
483,582,0,0,0,0,0,0,0,0,0,-1,1707,442,0,0
490,582,0,0,0,0,0,0,0,0,0,-1,1714,442,0,0
497,582,0,0,0,0,0,0,0,0,0,-1,1721,442,0,0
504,582,0,0,0,0,0,0,0,0,0,-1,1728,442,0,0
511,582,0,0,0,0,0,0,0,0,0,-1,1735,442,0,0
518,582,0,0,0,0,0,0,0,0,0,-1,1742,442,0,0
525,582,0,0,0,0,0,0,0,0,0,-1,1749,442,0,0
532,582,0,0,0,0,0,0,0,0,0,-1,1756,442,0,0
539,582,0,0,0,0,0,0,0,0,0,-1,1763,442,0,0
546,582,0,0,0,0,0,0,0,0,0,-1,1770,442,0,0
553,582,0,0,0,0,0,0,0,0,0,-1,1777,442,0,0
560,582,0,0,0,0,0,0,0,0,0,-1,1784,442,0,0
567,582,0,0,0,0,0,0,0,0,0,-1,1791,442,0,0
574,582,0,0,0,0,0,0,0,0,0,-1,1798,442,0,0
581,582,0,0,0,0,0,0,0,0,0,-1,1805,442,0,0
588,582,0,0,0,0,0,0,0,0,0,-1,1812,442,0,0
595,582,0,0,0,0,0,0,0,0,0,-1,1819,442,0,0
602,582,0,0,0,0,0,0,0,0,0,-1,1826,442,0,0
609,582,0,0,0,0,0,0,0,0,0,-1,1833,442,0,0
616,582,0,0,0,0,0,0,0,0,0,-1,1840,442,0,0
623,582,0,0,0,0,0,0,0,0,0,-1,1847,442,0,0
630,582,0,0,0,0,0,0,0,0,0,-1,1854,442,0,0
637,582,0,0,0,0,0,0,0,0,0,-1,1861,442,0,0
644,582,0,0,0,0,0,0,0,0,0,-1,1868,442,0,0
651,582,0,0,0,0,0,0,0,0,0,-1,1875,442,0,0
658,582,0,0,0,0,0,0,0,0,0,-1,1882,442,0,0
665,582,0,0,0,0,0,0,0,0,0,-1,1889,442,0,0
672,582,0,0,0,0,0,0,0,0,0,-1,1896,442,0,0
679,582,0,0,0,0,0,0,0,0,0,-1,1903,442,0,0
686,582,0,0,0,0,0,0,0,0,0,-1,1910,442,0,0
693,582,0,0,0,0,0,0,0,0,0,-1,1917,442,0,0
700,582,0,0,0,0,0,0,0,0,0,-1,1924,442,0,0
707,582,0,0,0,0,0,0,0,0,0,-1,1931,442,0,0
714,582,0,0,0,0,0,0,0,0,0,-1,1938,442,0,0
721,582,0,0,0,0,0,0,0,0,0,-1,1945,442,0,0
728,582,0,0,0,0,0,0,0,0,0,-1,1952,442,0,0
735,582,0,0,0,0,0,0,0,0,0,-1,1959,442,0,0
742,582,0,0,0,0,0,0,0,0,0,-1,1966,442,0,0
749,582,0,0,0,0,0,0,0,0,0,-1,1973,442,0,0
756,582,0,0,0,0,0,0,0,0,0,-1,1980,442,0,0
763,582,0,0,0,0,0,0,0,0,0,-1,1987,442,0,0
770,582,0,0,0,0,0,0,0,0,0,-1,1994,442,0,0
777,582,0,0,0,0,0,0,0,0,0,-1,2001,442,0,0
784,582,0,0,0,0,0,0,0,0,0,-1,2008,442,0,0
791,582,0,0,0,0,0,0,0,0,0,-1,2015,442,0,0
798,582,0,0,0,0,0,0,0,0,0,-1,2022,442,0,0
805,582,0,0,0,0,0,0,0,0,0,-1,2029,442,0,0
812,582,0,0,0,0,0,0,0,0,0,-1,2036,442,0,0
-700,575,0,0,0,0,0,0,0,0,0,-1,524,449,0,0
-693,575,0,0,0,0,0,0,0,0,0,-1,531,449,0,0
-686,575,0,0,0,0,0,0,0,0,0,-1,538,449,0,0
-679,575,0,0,0,0,0,0,0,0,0,-1,545,449,0,0
-672,575,0,0,0,0,0,0,0,0,0,-1,552,449,0,0
-665,575,0,0,0,0,0,0,0,0,0,-1,559,449,0,0
-658,575,0,0,0,0,0,0,0,0,0,-1,566,449,0,0
-651,575,0,0,0,0,0,0,0,0,0,-1,573,449,0,0
-644,575,0,0,0,0,0,0,0,0,0,-1,580,449,0,0
-637,575,0,0,0,0,0,0,0,0,0,-1,587,449,0,0
-630,575,0,0,0,0,0,0,0,0,0,-1,594,449,0,0
-623,575,0,0,0,0,0,0,0,0,0,-1,601,449,0,0
-616,575,0,0,0,0,0,0,0,0,0,-1,608,449,0,0
-609,575,0,0,0,0,0,0,0,0,0,-1,615,449,0,0
-602,575,0,0,0,0,0,0,0,0,0,-1,622,449,0,0
-595,575,0,0,0,0,0,0,0,0,0,-1,629,449,0,0
-588,575,0,0,0,0,0,0,0,0,0,-1,636,449,0,0
-581,575,0,0,0,0,0,0,0,0,0,-1,643,449,0,0
-574,575,0,0,0,0,0,0,0,0,0,-1,650,449,0,0
-567,575,0,0,0,0,0,0,0,0,0,-1,657,449,0,0
-560,575,0,0,0,0,0,0,0,0,0,-1,664,449,0,0
-553,575,0,0,0,0,0,0,0,0,0,-1,671,449,0,0
-546,575,0,0,0,0,0,0,0,0,0,-1,678,449,0,0
-539,575,0,0,0,0,0,0,0,0,0,-1,685,449,0,0
-532,575,0,0,0,0,0,0,0,0,0,-1,692,449,0,0
-525,575,0,0,0,0,0,0,0,0,0,-1,699,449,0,0
-518,575,0,0,0,0,0,0,0,0,0,-1,706,449,0,0
-511,575,0,0,0,0,0,0,0,0,0,-1,713,449,0,0
-504,575,0,0,0,0,0,0,0,0,0,-1,720,449,0,0
-497,575,0,0,0,0,0,0,0,0,0,-1,727,449,0,0
-490,575,0,0,0,0,0,0,0,0,0,-1,734,449,0,0
-483,575,0,0,0,0,0,0,0,0,0,-1,741,449,0,0
-476,575,0,0,0,0,0,0,0,0,0,-1,748,449,0,0
-469,575,0,0,0,0,0,0,0,0,0,-1,755,449,0,0
-462,575,0,0,0,0,0,0,0,0,0,-1,762,449,0,0
-455,575,0,0,0,0,0,0,0,0,0,-1,769,449,0,0
-448,575,0,0,0,0,0,0,0,0,0,-1,776,449,0,0
-441,575,0,0,0,0,0,0,0,0,0,-1,783,449,0,0
-434,575,0,0,0,0,0,0,0,0,0,-1,790,449,0,0
-427,575,0,0,0,0,0,0,0,0,0,-1,797,449,0,0
-420,575,0,0,0,0,0,0,0,0,0,-1,804,449,0,0
-413,575,0,0,0,0,0,0,0,0,0,-1,811,449,0,0
-406,575,0,0,0,0,0,0,0,0,0,-1,818,449,0,0
-399,575,0,0,0,0,0,0,0,0,0,-1,825,449,0,0
-392,575,0,0,0,0,0,0,0,0,0,-1,832,449,0,0
-385,575,0,0,0,0,0,0,0,0,0,-1,839,449,0,0
-378,575,0,0,0,0,0,0,0,0,0,-1,846,449,0,0
-371,575,-3.27509,-1.75272,0,0,0,0,0,0,0,-1,853,449,-3.2751,1.75271
-364,575,-2.54102,-0.996704,0.0759971,0.00410834,0.0301552,0.0869711,-0.0068657,0.34902,0.0603995,0.0464623,860,449,-2.54101,0.996719
-357,575,-1.63721,0.152618,0.0655813,0.00772274,0.0226833,0.0734139,-0.000109855,0.332484,0.0489792,0.0475702,867,449,-1.63722,-0.152614
-350,575,-1.56311,0.726471,0.0546957,0.0100349,0.0163377,0.0600342,0.00469638,0.315822,0.0385528,0.047822,874,449,-1.56309,-0.726486
-343,575,0.324036,-0.0125427,0.0439573,0.013317,0.0106828,0.0473141,0.00996014,0.304458,0.0288026,0.0493994,881,449,0.324052,0.0125341
-336,575,0.022583,-0.160431,0.0350357,0.016674,0.00600695,0.0368262,0.0148834,0.289693,0.0213915,0.0456141,888,449,0.0225566,0.160435
-329,575,-0.0667725,-0.226654,0.0270532,0.0193045,0.00287142,0.0280013,0.0183564,0.318903,0.0164253,0.0460801,895,449,-0.066778,0.226654
-322,575,0.140137,0.310181,0.0201478,0.0211343,0.000646033,0.0214539,0.0198282,1.11146,0.0137927,0.0458842,902,449,0.140159,-0.310173
-315,575,0.151123,0.276001,0.0143901,0.021186,-0.00115253,0.0213761,0.0142,-1.40729,0.0125616,0.0442328,909,449,0.151142,-0.276004
-308,575,0.113464,0.0690613,0.00949361,0.0203695,-0.00269584,0.021001,0.00886206,-1.34068,0.012174,0.0426238,916,449,0.11347,-0.0690672
-301,575,-0.00634766,-0.106232,0.00632651,0.0189037,-0.00396559,0.0200496,0.00518057,-1.28949,0.0120177,0.0309999,923,449,-0.00636117,0.106218
-294,575,-0.0670166,-0.0498047,0.00357532,0.0165455,-0.00420781,0.017791,0.00232982,-1.28302,0.0111654,0.020605,930,449,-0.0670043,0.0498091
-287,575,-0.0403442,-0.0446472,0.00167225,0.0142245,-0.00422253,0.0155127,0.000384022,-1.27468,0.0102162,0.0142015,937,449,-0.0403357,0.0446486
-280,575,-0.0153809,-0.0686035,0.00140495,0.0116022,-0.004009,0.0129896,1.75848e-05,-1.23763,0.00865385,0.0107694,944,449,-0.0153854,0.068594
-273,575,-0.00494385,-0.0601807,0.0013447,0.0092218,-0.00386369,0.0108005,-0.000234027,-1.18289,0.00727961,0.0101061,951,449,-0.00496559,0.0601927
-266,575,-0.0118408,-0.0683289,0.00120294,0.00689687,-0.0035157,0.00857377,-0.000473962,-1.12574,0.00588021,0.0114974,958,449,-0.011841,0.0683298
-259,575,-0.0219727,-0.0822144,0.00124307,0.00489639,-0.00292111,0.00651496,-0.000375499,-1.06482,0.00447373,0.0120023,965,449,-0.0219537,0.0822084
-252,575,-0.0408325,-0.084137,0.00153156,0.00342931,-0.00231899,0.00498604,-2.51739e-05,-0.979594,0.00333245,0.0107598,972,449,-0.0408168,0.0841359
-245,575,-0.0304565,-0.0926208,0.00158507,0.00282199,-0.00180169,0.00410841,0.000298646,-0.950729,0.00264502,0.0127918,979,449,-0.0304466,0.0926127
-238,575,-0.00823975,-0.0844421,0.00155605,0.00258045,-0.00126116,0.00342946,0.000707043,-0.978289,0.00209086,0.0131665,986,449,-0.0082532,0.0844371
-231,575,-0.0131836,-0.0761414,0.0015591,0.0028152,-0.000869656,0.00325988,0.00111442,-1.09813,0.00191322,0.0113398,993,449,-0.0131798,0.0761491
-224,575,-0.0228882,-0.0619812,0.00158384,0.00309158,-0.000841304,0.00346736,0.00120806,-1.15072,0.00203232,0.0105729,1000,449,-0.0229081,0.0619863
-217,575,-0.0302124,-0.0578613,0.00176696,0.00337274,-0.00106059,0.00390007,0.00123963,-1.10939,0.00230097,0.009478,1007,449,-0.0302317,0.0578661
-210,575,-0.0252075,-0.0688477,0.00219588,0.00343094,-0.00128424,0.00423841,0.00138841,-1.0095,0.00249508,0.00850206,1014,449,-0.0252212,0.0688518
-203,575,-0.017334,-0.0794678,0.00282992,0.00374137,-0.00128308,0.00464725,0.00192403,-0.956039,0.00269629,0.0102463,1021,449,-0.017348,0.0794611
-196,575,0.00109863,-0.096405,0.00308082,0.00386346,-0.00139774,0.00492362,0.00202065,-0.921886,0.00285783,0.0115892,1028,449,0.00105788,0.0964177
-189,575,0.00378418,-0.0858459,0.0031635,0.00420205,-0.00157146,0.00533781,0.00202774,-0.944971,0.00311129,0.0127442,1035,449,0.0038443,0.0858591
-182,575,-0.00915527,-0.0568237,0.00319882,0.00436615,-0.00157867,0.0054656,0.00209938,-0.962465,0.00318369,0.0126497,1042,449,-0.00914319,0.0568359
-175,575,-0.00268555,-0.0665283,0.00311037,0.00463092,-0.00153937,0.00558752,0.00215376,-1.01477,0.00325405,0.0107328,1049,449,-0.00265192,0.0665289
-168,575,-0.0142822,-0.0684509,0.00287674,0.00473987,-0.00143219,0.00551681,0.0020998,-1.07374,0.00321525,0.010242,1056,449,-0.0142304,0.068464
-161,575,-0.0389404,-0.0750732,0.00281194,0.00517843,-0.00146454,0.00587799,0.00211238,-1.12518,0.00343811,0.0131905,1063,449,-0.0389035,0.0750742
-154,575,-0.0423584,-0.0791931,0.00242141,0.00552989,-0.00158268,0.00619388,0.00175742,-1.17356,0.00368585,0.0122654,1070,449,-0.0424055,0.0791869
-147,575,-0.0332031,-0.0752563,0.00139336,0.00570481,-0.00169786,0.00629314,0.00080502,-1.23723,0.0039545,0.0105608,1077,449,-0.033203,0.0752636
-140,575,-0.02771,-0.0780945,0.000951351,0.00604753,-0.00190032,0.00667812,0.000320766,-1.2504,0.0043491,0.015463,1084,449,-0.0277516,0.0780979
-133,575,-0.0283203,-0.031311,0.000796817,0.00605826,-0.00223767,0.00688121,-2.61373e-05,-1.21838,0.00459621,0.0244581,1091,449,-0.0283436,0.0313119
-126,575,-0.057373,0.0281982,0.000645818,0.00617852,-0.00246357,0.00711647,-0.000292135,-1.20701,0.00484463,0.0299185,1098,449,-0.0574006,-0.0282095
-119,575,-0.041626,0.131531,0.000173282,0.00688468,-0.00247156,0.00769663,-0.000638674,-1.25338,0.00535669,0.0348024,1105,449,-0.041573,-0.131537
-112,575,-0.0158691,0.427643,0,0,0,0,0,0,0,-1,1112,449,-0.0158133,-0.427637
-105,575,-0.0249023,0.123566,0.000209834,0.00732897,-0.00123739,0.00753791,8.91741e-07,-1.40352,0.00502498,0.0389492,1119,449,-0.0248754,-0.123561
-98,575,-0.249146,0.0559387,0.000165295,0.00712686,-0.000338201,0.00714325,0.000148903,-1.52237,0.00471332,0.0403325,1126,449,-0.249156,-0.0559408
-91,575,-0.433838,0.149078,0.000807846,0.00683236,0.000649089,0.0069015,0.000738706,1.46468,0.0043756,0.0394857,1133,449,-0.433884,-0.149074
-84,575,0.0800781,-0.490753,0.00131509,0.00486585,0.00183438,0.00564329,0.000537641,1.16993,0.0035964,0.0423201,1140,449,0.0801004,0.490758
-77,575,0.452271,-0.310822,0.00147915,0.00272969,0.00298251,0.00515176,-0.000942928,0.888724,0.00378814,0.0413218,1147,449,0.452318,0.310831
-70,575,-1.19324,-2.3158,0,0,0,0,0,0,0,-1,1154,449,-1.19329,2.3158
-63,575,-0.77063,-1.06442,0.00140621,-0.00130497,0.0064544,0.00664584,-0.0065446,0.68189,0.00761558,0.0426445,1161,449,-0.770592,1.06442
-56,575,-0.23645,0.0556946,0.00113861,-0.00203587,0.0079768,0.00768455,-0.00858182,0.68719,0.00939615,0.0433902,1168,449,-0.236444,-0.0556862
-49,575,-0.316406,0.457611,0.001933,-0.0041895,0.00874976,0.00814156,-0.0103981,0.61712,0.0107303,0.040953,1175,449,-0.316375,-0.457611
-42,575,-0.293457,0.665863,0.00321649,-0.00457492,0.00855902,0.00872469,-0.0100831,0.571831,0.0108681,0.0425512,1182,449,-0.293399,-0.66586
-35,575,-0.272705,0.93158,0.00292946,-0.00189991,0.00791845,0.00879322,-0.00776366,0.637405,0.00956528,0.0463309,1189,449,-0.272644,-0.931573
-28,575,-0.461304,0.027771,0.00153659,0.00302747,0.00555244,0.00788428,-0.00332022,0.852126,0.00664541,0.043416,1196,449,-0.461356,-0.0277759
-21,575,-0.23584,0.83905,0,0,0,0,0,0,0,-1,1203,449,-0.235856,-0.839058
-14,575,-0.707886,3.13043,-0.00192202,0.0139303,-0.00249833,0.0143147,-0.00230643,-1.41812,0.0103976,0.0445238,1210,449,-0.707919,-3.13044
-7,575,-0.302368,3.63339,-0.00275722,0.0217924,-0.00533089,0.0229,-0.00386484,-1.36594,0.0167047,0.0426289,1217,449,-0.302372,-3.6334
0,575,0.745728,1.67822,0,0,0,0,0,0,0,-1,1224,449,0.745765,-1.67823
7,575,1.71948,0.718597,0,0,0,0,0,0,0,-1,1231,449,1.71953,-0.718599
14,575,2.69324,-0.241028,0,0,0,0,0,0,0,-1,1238,449,2.6933,0.241036
21,575,-0.145752,0.413208,0.00172804,0.0407352,-0.00981824,0.0430671,-0.000603838,-1.33761,0.0289148,0.0439095,1245,449,-0.145782,-0.413211
28,575,-0.81665,-0.164551,0.00567971,0.042299,-0.00847271,0.0441643,0.00381438,-1.3541,0.0282574,0.0428169,1252,449,-0.81659,0.164559
35,575,-1.69495,-2.01898,0.0109561,0.0385807,-0.00638138,0.0399836,0.00955323,-1.3544,0.0241107,0.0441863,1259,449,-1.69499,2.01897
42,575,-1.33179,-1.37881,0.0181567,0.033463,-0.00266018,0.0339121,0.0177075,-1.40353,0.0195856,0.0438248,1266,449,-1.33176,1.37882
49,575,-1.08435,-0.773865,0.0269347,0.0253213,0.000849913,0.0272998,0.0249562,0.405734,0.0174712,0.0440987,1273,449,-1.08438,0.773873
56,575,-0.397461,0.247375,0.0362957,0.0186094,0.00395977,0.0371418,0.0177634,0.210503,0.0214506,0.0427947,1280,449,-0.397453,-0.247381
63,575,0.097168,0.729614,0.0454613,0.0102875,0.00373599,0.0458537,0.00989505,0.104659,0.0278628,0.0433486,1287,449,0.0971467,-0.729606
70,575,0.60144,1.18359,0.0533523,0.000898854,0.00140426,0.0533898,0.000861285,0.026746,0.0353096,0.0453748,1294,449,0.601491,-1.18359
77,575,1.09814,1.64481,0.0572407,-0.00677675,-0.00109668,0.0572594,-0.00679553,-0.0171243,0.040628,0.0479778,1301,449,1.09814,-1.64481
84,575,1.96802,2.21631,0.0589845,-0.0125829,-0.00477199,0.0593013,-0.0128997,-0.0662871,0.0444623,0.0469104,1308,449,1.96804,-2.21632
91,575,2.4447,2.56308,0.0594801,-0.0161359,-0.0102385,0.0608419,-0.0174977,-0.132229,0.047481,0.0445842,1315,449,2.44466,-2.56307
98,575,3.04065,2.98441,0.0547569,-0.0217405,-0.019214,0.0593117,-0.0262954,-0.23276,0.0506357,0.0439663,1322,449,3.0406,-2.98439
105,575,3.6427,3.32599,0.0493641,-0.0269495,-0.0276486,0.0583283,-0.0359137,-0.313524,0.0549212,0.0442276,1329,449,3.6427,-3.32599
112,575,4.54138,3.41711,0.0428353,-0.0303664,-0.0344922,0.0565269,-0.0440581,-0.377874,0.0582213,0.0436422,1336,449,4.54141,-3.41712
119,575,5.53271,3.50583,0,0,0,0,0,0,0,-1,1343,449,5.53271,-3.50584
126,575,6.93762,3.40076,0.0273663,-0.0230903,-0.0347873,0.0451104,-0.0408344,-0.471673,0.0496407,0.047421,1350,449,6.93761,-3.40076
133,575,7.58337,3.49747,0,0,0,0,0,0,0,-1,1357,449,7.58339,-3.49747
140,575,0.608765,0.57962,0,0,0,0,0,0,0,-1,1364,449,0.60871,-0.579618
147,575,0.340332,1.78217,0,0,0,0,0,0,0,-1,1371,449,0.340342,-1.78217
154,575,0.0948486,-0.165924,0,0,0,0,0,0,0,-1,1378,449,0.0948761,0.165917
161,575,0.00683594,0.122223,0,0,0,0,0,0,0,-1,1385,449,0.00686414,-0.122212
168,575,0.657837,0.908295,0,0,0,0,0,0,0,-1,1392,449,0.657794,-0.908283
175,575,0.163208,0.797211,0.00929352,0.00665128,-0.00019924,0.00930846,0.00663634,-0.0748414,0.00553431,0.048877,1399,449,0.163264,-0.797224
182,575,0.198486,0.94928,0.0112236,0.00997236,0.0023699,0.0130491,0.00814691,0.656345,0.00761114,0.0499195,1406,449,0.198512,-0.949268
189,575,0.227905,1.16171,0,0,0,0,0,0,0,-1,1413,449,0.227904,-1.16171
196,575,-0.791016,-1.54715,0,0,0,0,0,0,0,-1,1420,449,-0.790977,1.54714
203,575,-1.17419,-0.0269775,0,0,0,0,0,0,0,-1,1427,449,-1.1742,0.0269665
210,575,-2.49939,0.747467,0,0,0,0,0,0,0,-1,1434,449,-2.49935,-0.747454
217,575,-2.63525,1.25909,0,0,0,0,0,0,0,-1,1441,449,-2.63528,-1.25909
224,575,-2.44604,0.944977,0,0,0,0,0,0,0,-1,1448,449,-2.44599,-0.944982
231,575,-1.8772,0.510223,0,0,0,0,0,0,0,-1,1455,449,-1.87721,-0.510234
238,575,-0.685303,0.0726013,0.0100523,0.00662032,-0.00707467,0.0156161,0.00105652,-0.666417,0.0100771,0.0438446,1462,449,-0.685339,-0.0726113
245,575,-0.357544,0.0211792,0.00844284,0.00506856,-0.00685946,0.0138196,-0.000308193,-0.664812,0.00931749,0.0404819,1469,449,-0.357483,-0.0211842
252,575,-0.0406494,-0.0414734,0.0062843,0.00338859,-0.00685676,0.0118444,-0.00217152,-0.681348,0.0087108,0.0348542,1476,449,-0.0406729,0.0414784
259,575,-0.0131836,-0.0645447,0.00464073,0.00252983,-0.00615827,0.00983335,-0.00266278,-0.700529,0.00760027,0.0292808,1483,449,-0.0132344,0.0645373
266,575,0.0227051,-0.0518799,0.00342116,0.00163928,-0.00521313,0.00781893,-0.0027585,-0.700764,0.00633556,0.022904,1490,449,0.0226936,0.0518881
273,575,-0.00439453,-0.0526733,0.00215433,0.00122398,-0.00445091,0.0061643,-0.002786,-0.733331,0.00528874,0.0163018,1497,449,-0.00435614,0.0526777
280,575,-0.0407715,-0.0656738,0.000968432,0.00108439,-0.00380922,0.00483607,-0.00278325,-0.793008,0.00445192,0.0130584,1504,449,-0.0408112,0.0656651
287,575,-0.0355225,-0.0791321,-0.00018465,0.000887719,-0.00299339,0.00339257,-0.0026895,-0.87402,0.0035193,0.0105573,1511,449,-0.0355585,0.0791253
294,575,-0.0291748,-0.0763245,-0.00119341,0.000743485,-0.00244524,0.00240507,-0.00285499,-0.973948,0.0030406,0.00857284,1518,449,-0.0291461,0.0763261
301,575,-0.0174561,-0.0727844,-0.00186643,0.000577506,-0.00203912,0.00173277,-0.00302169,-1.05534,0.00277841,0.00824329,1525,449,-0.017446,0.0727841
308,575,-0.0202637,-0.0727234,-0.00211213,0.000606957,-0.00174777,0.0014617,-0.00296687,-1.11595,0.0026056,0.00910565,1532,449,-0.0202887,0.0727347
315,575,-0.0397949,-0.0716248,-0.00225122,0.000748401,-0.00147156,0.00134976,-0.00285258,-1.18285,0.0024774,0.00961769,1539,449,-0.0397356,0.0716238
322,575,-0.0258789,-0.0622864,-0.00241122,0.000677014,-0.00112084,0.00104093,-0.00277514,-1.25685,0.00227778,0.00905825,1546,449,-0.0259054,0.0622892
329,575,-0.0256348,-0.0628662,-0.00238039,0.000479438,-0.000996883,0.000792633,-0.00269358,-1.26639,0.00211015,0.00986078,1553,449,-0.0256816,0.0628536
336,575,-0.0352783,-0.0628967,-0.00196564,0.000310602,-0.000782814,0.000553827,-0.00220887,-1.26955,0.00168775,0.0119338,1560,449,-0.0352239,0.0628862
343,575,-0.0137939,-0.060791,-0.00157494,0.000479866,-0.000649309,0.000667847,-0.00176293,-1.28899,0.0014501,0.0113313,1567,449,-0.0137461,0.0607966
350,575,-0.0296631,-0.0785217,-0.00122538,0.00035023,-0.000638514,0.000576494,-0.00145165,-1.23024,0.00120674,0.0103681,1574,449,-0.0296702,0.0785163
357,575,-0.0423584,-0.0742798,-0.000893234,0.000309571,-0.000711608,0.000639872,-0.00122354,-1.13623,0.00109329,0.0103118,1581,449,-0.0423186,0.0742787
364,575,-0.0427246,-0.0512695,-0.000624822,0.000430911,-0.000573616,0.000682582,-0.000876493,-1.15734,0.00090245,0.00961699,1588,449,-0.0427404,0.0512706
371,575,-0.0473633,-0.0707397,-0.000402193,0.000314915,-0.000621978,0.000674287,-0.000761565,-1.04687,0.0008295,0.0168868,1595,449,-0.0473471,0.0707306
378,575,-0.0391846,-0.0745544,-0.000209601,3.41763e-05,-0.00083039,0.000751575,-0.000927,-0.85827,0.000970888,0.0166951,1602,449,-0.0392223,0.0745637
385,575,-0.0472412,-0.0574341,-0.000110915,-0.000519358,-0.000915166,0.000622538,-0.00125281,-0.675621,0.00110293,0.0106269,1609,449,-0.0472585,0.0574395
392,575,-0.0362549,-0.0550537,-0.0001069,-0.000700501,-0.000664713,0.000324265,-0.00113167,-0.575424,0.000882616,0.00859629,1616,449,-0.0362121,0.0550419
399,575,-0.0253906,-0.0582886,0.000197767,6.15438e-05,-0.000488113,0.000622497,-0.000363187,-0.716076,0.000575612,0.00885281,1623,449,-0.0253431,0.058287
406,575,-0.0325928,-0.0484619,0.000327886,-0.000475013,-0.000185669,0.000368742,-0.000515869,-0.216599,0.00051308,0.00934948,1630,449,-0.0325669,0.0484517
413,575,-0.0356445,-0.0545959,0.00015438,-0.000429706,0.000274681,0.00026326,-0.000538585,0.377386,0.000471955,0.00977639,1637,449,-0.0355927,0.0546042
420,575,-0.0318604,-0.0666199,0.000212003,-0.000276841,0.000980617,0.0009782,-0.00104304,0.66326,0.00116716,0.00960975,1644,449,-0.0318056,0.0666254
427,575,-0.0308838,-0.0925903,0.000639455,0.000103208,0.00182324,0.00221418,-0.00147152,0.712392,0.00214229,0.0130368,1651,449,-0.0308841,0.0925892
434,575,-0.00793457,-0.12207,0.00115375,0.00139537,0.0028249,0.00410205,-0.00155292,0.806768,0.00337366,0.0178901,1658,449,-0.00788766,0.122059
441,575,-0.165894,0.347107,0,0,0,0,0,0,0,-1,1665,449,-0.165835,-0.347101
448,575,-0.0214844,-0.536804,0.00231063,0.00387382,0.00505032,0.00820267,-0.00201822,0.86217,0.00625075,0.0463517,1672,449,-0.0214436,0.536819
455,575,0.554199,-1.16971,0.00305925,0.0056379,0.00641342,0.0108903,-0.00219316,0.884594,0.00809095,0.0448661,1679,449,0.554206,1.16971
462,575,0.0811768,-0.683838,0.00419028,0.00750429,0.00780182,0.0138231,-0.00212856,0.890037,0.0100007,0.0423386,1686,449,0.0812292,0.683851
469,575,-0.250732,-0.0498352,0.00660018,0.00989923,0.00920345,0.0175998,-0.0011004,0.874071,0.0121167,0.0449917,1693,449,-0.250782,0.0498382
476,575,-0.119995,0.222534,0.0103184,0.0131262,0.011722,0.0235281,-8.33971e-05,0.844997,0.0157132,0.0443729,1700,449,-0.119958,-0.222538
483,575,0.147583,0.583771,0.0147975,0.0166094,0.0143989,0.0301308,0.00127611,0.816815,0.0196756,0.0419458,1707,449,0.147575,-0.583757
490,575,-0.0529785,0.742645,0,0,0,0,0,0,0,-1,1714,449,-0.0530242,-0.742645
497,575,0,0,0,0,0,0,0,0,0,-1,1721,449,0,0
504,575,0,0,0,0,0,0,0,0,0,-1,1728,449,0,0
511,575,0,0,0,0,0,0,0,0,0,-1,1735,449,0,0
518,575,0,0,0,0,0,0,0,0,0,-1,1742,449,0,0
525,575,0,0,0,0,0,0,0,0,0,-1,1749,449,0,0
532,575,0,0,0,0,0,0,0,0,0,-1,1756,449,0,0
539,575,0,0,0,0,0,0,0,0,0,-1,1763,449,0,0
546,575,0,0,0,0,0,0,0,0,0,-1,1770,449,0,0
553,575,0,0,0,0,0,0,0,0,0,-1,1777,449,0,0
560,575,0,0,0,0,0,0,0,0,0,-1,1784,449,0,0
567,575,0,0,0,0,0,0,0,0,0,-1,1791,449,0,0
574,575,0,0,0,0,0,0,0,0,0,-1,1798,449,0,0
581,575,0,0,0,0,0,0,0,0,0,-1,1805,449,0,0
588,575,0,0,0,0,0,0,0,0,0,-1,1812,449,0,0
595,575,0,0,0,0,0,0,0,0,0,-1,1819,449,0,0
602,575,0,0,0,0,0,0,0,0,0,-1,1826,449,0,0
609,575,0,0,0,0,0,0,0,0,0,-1,1833,449,0,0
616,575,0,0,0,0,0,0,0,0,0,-1,1840,449,0,0
623,575,0,0,0,0,0,0,0,0,0,-1,1847,449,0,0
630,575,0,0,0,0,0,0,0,0,0,-1,1854,449,0,0
637,575,0,0,0,0,0,0,0,0,0,-1,1861,449,0,0
644,575,0,0,0,0,0,0,0,0,0,-1,1868,449,0,0
651,575,0,0,0,0,0,0,0,0,0,-1,1875,449,0,0
658,575,0,0,0,0,0,0,0,0,0,-1,1882,449,0,0
665,575,0,0,0,0,0,0,0,0,0,-1,1889,449,0,0
672,575,0,0,0,0,0,0,0,0,0,-1,1896,449,0,0
679,575,0,0,0,0,0,0,0,0,0,-1,1903,449,0,0
686,575,0,0,0,0,0,0,0,0,0,-1,1910,449,0,0
693,575,0,0,0,0,0,0,0,0,0,-1,1917,449,0,0
700,575,0,0,0,0,0,0,0,0,0,-1,1924,449,0,0
707,575,0,0,0,0,0,0,0,0,0,-1,1931,449,0,0
714,575,0,0,0,0,0,0,0,0,0,-1,1938,449,0,0
721,575,0,0,0,0,0,0,0,0,0,-1,1945,449,0,0
728,575,0,0,0,0,0,0,0,0,0,-1,1952,449,0,0
735,575,0,0,0,0,0,0,0,0,0,-1,1959,449,0,0
742,575,0,0,0,0,0,0,0,0,0,-1,1966,449,0,0
749,575,0,0,0,0,0,0,0,0,0,-1,1973,449,0,0
756,575,0,0,0,0,0,0,0,0,0,-1,1980,449,0,0
763,575,0,0,0,0,0,0,0,0,0,-1,1987,449,0,0
770,575,0,0,0,0,0,0,0,0,0,-1,1994,449,0,0
777,575,0,0,0,0,0,0,0,0,0,-1,2001,449,0,0
784,575,0,0,0,0,0,0,0,0,0,-1,2008,449,0,0
791,575,0,0,0,0,0,0,0,0,0,-1,2015,449,0,0
798,575,0,0,0,0,0,0,0,0,0,-1,2022,449,0,0
805,575,0,0,0,0,0,0,0,0,0,-1,2029,449,0,0
812,575,0,0,0,0,0,0,0,0,0,-1,2036,449,0,0
-700,568,0,0,0,0,0,0,0,0,0,-1,524,456,0,0
-693,568,0,0,0,0,0,0,0,0,0,-1,531,456,0,0
-686,568,0,0,0,0,0,0,0,0,0,-1,538,456,0,0
-679,568,0,0,0,0,0,0,0,0,0,-1,545,456,0,0
-672,568,0,0,0,0,0,0,0,0,0,-1,552,456,0,0
-665,568,0,0,0,0,0,0,0,0,0,-1,559,456,0,0
-658,568,0,0,0,0,0,0,0,0,0,-1,566,456,0,0
-651,568,0,0,0,0,0,0,0,0,0,-1,573,456,0,0
-644,568,0,0,0,0,0,0,0,0,0,-1,580,456,0,0
-637,568,0,0,0,0,0,0,0,0,0,-1,587,456,0,0
-630,568,0,0,0,0,0,0,0,0,0,-1,594,456,0,0
-623,568,0,0,0,0,0,0,0,0,0,-1,601,456,0,0
-616,568,0,0,0,0,0,0,0,0,0,-1,608,456,0,0
-609,568,0,0,0,0,0,0,0,0,0,-1,615,456,0,0
-602,568,0,0,0,0,0,0,0,0,0,-1,622,456,0,0
-595,568,0,0,0,0,0,0,0,0,0,-1,629,456,0,0
-588,568,0,0,0,0,0,0,0,0,0,-1,636,456,0,0
-581,568,0,0,0,0,0,0,0,0,0,-1,643,456,0,0
-574,568,0,0,0,0,0,0,0,0,0,-1,650,456,0,0
-567,568,0,0,0,0,0,0,0,0,0,-1,657,456,0,0
-560,568,0,0,0,0,0,0,0,0,0,-1,664,456,0,0
-553,568,0,0,0,0,0,0,0,0,0,-1,671,456,0,0
-546,568,0,0,0,0,0,0,0,0,0,-1,678,456,0,0
-539,568,0,0,0,0,0,0,0,0,0,-1,685,456,0,0
-532,568,0,0,0,0,0,0,0,0,0,-1,692,456,0,0
-525,568,0,0,0,0,0,0,0,0,0,-1,699,456,0,0
-518,568,0,0,0,0,0,0,0,0,0,-1,706,456,0,0
-511,568,0,0,0,0,0,0,0,0,0,-1,713,456,0,0
-504,568,0,0,0,0,0,0,0,0,0,-1,720,456,0,0
-497,568,0,0,0,0,0,0,0,0,0,-1,727,456,0,0
-490,568,0,0,0,0,0,0,0,0,0,-1,734,456,0,0
-483,568,0,0,0,0,0,0,0,0,0,-1,741,456,0,0
-476,568,0,0,0,0,0,0,0,0,0,-1,748,456,0,0
-469,568,0,0,0,0,0,0,0,0,0,-1,755,456,0,0
-462,568,0,0,0,0,0,0,0,0,0,-1,762,456,0,0
-455,568,0,0,0,0,0,0,0,0,0,-1,769,456,0,0
-448,568,0,0,0,0,0,0,0,0,0,-1,776,456,0,0
-441,568,0,0,0,0,0,0,0,0,0,-1,783,456,0,0
-434,568,0,0,0,0,0,0,0,0,0,-1,790,456,0,0
-427,568,0,0,0,0,0,0,0,0,0,-1,797,456,0,0
-420,568,0,0,0,0,0,0,0,0,0,-1,804,456,0,0
-413,568,0,0,0,0,0,0,0,0,0,-1,811,456,0,0
-406,568,0,0,0,0,0,0,0,0,0,-1,818,456,0,0
-399,568,0,0,0,0,0,0,0,0,0,-1,825,456,0,0
-392,568,0,0,0,0,0,0,0,0,0,-1,832,456,0,0
-385,568,0,0,0,0,0,0,0,0,0,-1,839,456,0,0
-378,568,1.74323,-1.21906,0,0,0,0,0,0,0,-1,846,456,1.74324,1.21905
-371,568,-2.02728,-1.75162,0,0,0,0,0,0,0,-1,853,456,-2.02727,1.75162
-364,568,-1.79425,-1.02972,0.0673871,0.00729936,0.0254971,0.0767481,-0.00206157,0.351859,0.0518662,0.0474488,860,456,-1.79424,1.02972
-357,568,-1.39893,-0.0195923,0.0577205,0.00890489,0.0190047,0.0642468,0.00237861,0.330787,0.0420608,0.0438966,867,456,-1.39891,0.0196057
-350,568,-1.37872,0.596039,0.0477954,0.0094288,0.0135462,0.0520961,0.0051281,0.307419,0.0331538,0.0478771,874,456,-1.37871,-0.596031
-343,568,-1.28516,1.20425,0.0380595,0.0112284,0.0084855,0.0405178,0.00877002,0.281991,0.0246149,0.047037,881,456,-1.28518,-1.20424
-336,568,0.146362,0.12735,0.0302583,0.0133704,0.00443011,0.0313499,0.0122789,0.241586,0.0182409,0.0428319,888,456,0.146348,-0.127336
-329,568,0.0358887,-0.153442,0.0233542,0.0152192,0.00193408,0.0237906,0.0147828,0.221926,0.0138698,0.0410793,895,456,0.0358727,0.153428
-322,568,0.00177002,-0.200409,0.0172748,0.0165923,0.000327495,0.0174065,0.0164606,0.382432,0.0113022,0.0400066,902,456,0.00178198,0.200422
-315,568,0.050293,0.0733337,0.0122188,0.0164365,-0.000897477,0.0166195,0.0120358,-1.36962,0.0099116,0.037622,909,456,0.0502788,-0.0733402
-308,568,-0.0453491,-0.061676,0.0079651,0.0157697,-0.00201415,0.0162588,0.00747595,-1.33256,0.00939713,0.0262305,916,456,-0.0453557,0.0616764
-301,568,-0.00708008,-0.0844421,0.00518853,0.0145933,-0.00298199,0.0154591,0.00432273,-1.28822,0.00920974,0.0140358,923,456,-0.00708029,0.0844369
-294,568,-0.00848389,-0.06604,0.00283527,0.0127238,-0.00313212,0.0136324,0.00192668,-1.28846,0.00851897,0.0109236,930,456,-0.00846456,0.066032
-287,568,-0.0103149,-0.0686646,0.00125251,0.0109138,-0.00315869,0.0118548,0.000311457,-1.28124,0.00780148,0.00959036,937,456,-0.0102945,0.0686516
-280,568,-0.00402832,-0.0808716,0.00113028,0.0089647,-0.00308472,0.0100335,6.15078e-05,-1.23727,0.00666857,0.00952538,944,456,-0.00400803,0.080872
-273,568,-6.10352e-05,-0.071167,0.00125159,0.0072213,-0.00313458,0.00856483,-9.19416e-05,-1.16587,0.00574078,0.0104665,951,456,-9.12064e-05,0.0711644
-266,568,-0.0108643,-0.0670166,0.00130357,0.00544487,-0.00300507,0.00702361,-0.000275171,-1.08707,0.00477677,0.010515,958,456,-0.0108346,0.0670056
-259,568,-0.0177612,-0.0818481,0.00148114,0.00395518,-0.00267524,0.00566555,-0.00022923,-1.00196,0.00385571,0.0123349,965,456,-0.0177532,0.0818402
-252,568,-0.0359497,-0.0796509,0.00193988,0.00294445,-0.00233015,0.00482584,5.84975e-05,-0.891553,0.0031979,0.0115858,972,456,-0.0359792,0.0796491
-245,568,-0.0388794,-0.0765686,0.00216137,0.00261262,-0.00204251,0.00444193,0.000332061,-0.840408,0.00285704,0.0118345,979,456,-0.0389064,0.0765621
-238,568,-0.0199585,-0.0752563,0.00230196,0.00272513,-0.00170219,0.00422883,0.000798257,-0.847232,0.0025944,0.0116589,986,456,-0.0199669,0.0752441
-231,568,-0.0313721,-0.0637817,0.00245923,0.00329244,-0.00141419,0.00435012,0.00140156,-0.92864,0.00256393,0.0104822,993,456,-0.0313606,0.0637838
-224,568,-0.0250244,-0.0501404,0.00266191,0.00379701,-0.0014314,0.00476928,0.00168964,-0.974142,0.00279225,0.0114229,1000,456,-0.0250175,0.0501319
-217,568,-0.0158081,-0.0611267,0.00299763,0.00433222,-0.00170252,0.00549355,0.0018363,-0.97217,0.00322926,0.0104437,1007,456,-0.0158382,0.0611271
-210,568,-0.0195923,-0.0705566,0.00351291,0.00461315,-0.00194895,0.00608813,0.00203793,-0.922952,0.00357841,0.0103242,1014,456,-0.0196187,0.0705424
-203,568,-0.0167847,-0.0902405,0.00426863,0.00514085,-0.00184459,0.00660018,0.0028093,-0.90148,0.00382464,0.00847052,1021,456,-0.0168071,0.0902459
-196,568,-0.00390625,-0.085022,0.00459014,0.00539099,-0.00188678,0.00691937,0.00306176,-0.88996,0.0040037,0.00976071,1028,456,-0.00385272,0.0850308
-189,568,-0.0102539,-0.0744629,0.00463769,0.00585567,-0.00201703,0.00735364,0.00313971,-0.932008,0.0042607,0.0108745,1035,456,-0.010314,0.0744657
-182,568,-0.00683594,-0.0584412,0.00453623,0.00601765,-0.00194124,0.0073547,0.00319919,-0.967655,0.00425818,0.0143499,1042,456,-0.00680161,0.058443
-175,568,0.00231934,-0.0655823,0.00435502,0.00630208,-0.00183094,0.00740222,0.00325488,-1.02974,0.00428401,0.0126181,1049,456,0.00234847,0.0655886
-168,568,-0.0280762,-0.0708313,0.00399632,0.00634271,-0.00167229,0.0072123,0.00312674,-1.09128,0.00417627,0.0155423,1056,456,-0.0281147,0.0708204
-161,568,-0.0662842,-0.0714417,0.00378084,0.00677121,-0.00175145,0.00757888,0.00297317,-1.13871,0.00440938,0.0204411,1063,456,-0.0662527,0.0714355
-154,568,-0.0465088,-0.057312,0.00319524,0.00702096,-0.00190142,0.00780521,0.00241098,-1.1796,0.00461476,0.0231254,1070,456,-0.046453,0.0572988
-147,568,-0.00695801,-0.0457458,0.00181119,0.00706228,-0.00207171,0.0077812,0.00109227,-1.23678,0.00486443,0.0270667,1077,456,-0.00700288,0.0457405
-140,568,0.0240479,-0.130188,0.00113948,0.00736143,-0.00234853,0.00814838,0.000352541,-1.24748,0.00531863,0.0323994,1084,456,0.0240129,0.130175
-133,568,0.0667725,-0.116089,0.000773512,0.00721591,-0.00280192,0.00826401,-0.000274584,-1.21285,0.00560311,0.0382641,1091,456,0.0668314,0.116101
-126,568,-0.0975342,0.114288,0.000418975,0.00726368,-0.00318081,0.00851359,-0.000830933,-1.19638,0.005972,0.0399965,1098,456,-0.0975721,-0.114294
-119,568,-0.18042,0.18396,-0.000275757,0.00821874,-0.00324127,0.00931424,-0.00137126,-1.24487,0.00671342,0.0421203,1105,456,-0.180437,-0.183961
-112,568,-0.123535,0.205109,-0.000525807,0.00851115,-0.0028416,0.0093304,-0.00134506,-1.2901,0.00671368,0.0442676,1112,456,-0.123565,-0.205101
-105,568,-0.0507813,0.114868,-0.000554339,0.00931665,-0.00178793,0.00963051,-0.000868206,-1.39702,0.00672844,0.0407335,1119,456,-0.0507508,-0.114875
-98,568,-0.0664063,-0.0151062,-0.000844506,0.00946981,-0.000814823,0.00953378,-0.000908479,-1.49244,0.00667931,0.0384371,1126,456,-0.0664445,0.0151192
-91,568,-0.133789,0.0747986,-0.000242056,0.00954909,0.000400178,0.00956541,-0.000258385,1.53002,0.00646479,0.0409757,1133,456,-0.133744,-0.074796
-84,568,0.230713,-0.416107,0.000335464,0.00785118,0.00197307,0.00833767,-0.000151029,1.32905,0.00560947,0.0445419,1140,456,0.230697,0.41611
-77,568,0.264771,-0.283569,0.000596732,0.00611963,0.00345791,0.00778342,-0.00106706,1.12234,0.00557875,0.0414194,1147,456,0.264819,0.283559
-70,568,0.0805664,-0.0396118,0.000713908,0.00465867,0.00571302,0.0087302,-0.00335762,0.951614,0.00720502,0.0427429,1154,456,0.0805591,0.0395993
-63,568,0.00158691,-0.0473022,0.00068775,0.00261411,0.00754741,0.00925956,-0.0059577,0.848864,0.00885435,0.0464268,1161,456,0.00157831,0.0473141
-56,568,-0.137573,0.0940247,0.000466486,0.00233182,0.00931428,0.01076,-0.0079617,0.835298,0.0108492,0.0426807,1168,456,-0.137598,-0.0940307
-49,568,-0.161377,0.305908,0.00127618,0.000421803,0.0103682,0.011226,-0.00952801,0.764809,0.0119957,0.0395714,1175,456,-0.161431,-0.305906
-42,568,-0.188354,0.332611,0.0025187,0.000595882,0.0103369,0.0119388,-0.00882422,0.739028,0.0120324,0.0427508,1182,456,-0.188313,-0.332597
-35,568,-0.00280762,0.35257,0.00199279,0.00473296,0.00953122,0.0129921,-0.00626631,0.856783,0.0113426,0.0424384,1189,456,-0.00280342,-0.352583
-28,568,-0.199707,0.811554,0.000184188,0.0118481,0.00667826,0.0148824,-0.00285014,1.14432,0.0109955,0.0396816,1196,456,-0.199647,-0.81155
-21,568,-0.14563,1.41315,-0.00236583,0.0195748,0.00203712,0.0197624,-0.00255337,1.479,0.0141033,0.0423736,1203,456,-0.145643,-1.41316
-14,568,-0.0391846,1.7272,0,0,0,0,0,0,0,-1,1210,456,-0.0391692,-1.7272
-7,568,-0.359619,2.94449,-0.0058323,0.0359888,-0.00659297,0.0370036,-0.00684703,-1.41808,0.0272398,0.0436187,1217,456,-0.359585,-2.9445
0,568,-0.421875,3.36691,0,0,0,0,0,0,0,-1,1224,456,-0.421857,-3.36692
7,568,2.22656,1.13242,0,0,0,0,0,0,0,-1,1231,456,2.22653,-1.1324
14,568,0.660767,1.16245,-0.00434006,0.0535115,-0.0129528,0.0562792,-0.00710774,-1.36029,0.0400993,0.0429664,1238,456,0.660803,-1.16245
21,568,-0.0136719,0.582092,-0.00198624,0.0575991,-0.0133362,0.0604478,-0.00483491,-1.36035,0.042003,0.0411948,1245,456,-0.0136866,-0.582095
28,568,-0.543457,0.0644226,0.00241191,0.0586067,-0.0122591,0.0611646,-0.000146033,-1.36509,0.0408252,0.0426825,1252,456,-0.543415,-0.0644166
35,568,-1.88928,-1.89902,0.00873191,0.0536692,-0.00991064,0.0557579,0.00664326,-1.36309,0.0351673,0.0412983,1259,456,-1.8893,1.89902
42,568,-1.41162,-1.89273,0.0173571,0.0463802,-0.00550801,0.0473903,0.016347,-1.38941,0.0277959,0.0419144,1266,456,-1.41162,1.89272
49,568,-0.515869,-0.774658,0.0279103,0.0359822,-0.00116705,0.0361476,0.027745,-1.43005,0.0218431,0.0411015,1273,456,-0.515868,0.774671
56,568,-0.210205,0.0605164,0.0400939,0.0269482,0.00294735,0.0407245,0.0263176,0.210765,0.0238451,0.0416973,1280,456,-0.210253,-0.0605074
63,568,-0.0633545,0.945251,0.0517652,0.0167906,0.00325029,0.0520647,0.0164911,0.0918845,0.0307252,0.0441717,1287,456,-0.0633061,-0.945248
70,568,0.513428,1.16324,0.0615087,0.00515424,0.0019102,0.0615734,0.00508957,0.0338443,0.039462,0.0444475,1294,456,0.513434,-1.16323
77,568,1.10718,1.62164,0.0651744,-0.00459603,0.000338823,0.065176,-0.00459767,0.00485611,0.0450615,0.0481689,1301,456,1.10716,-1.62165
84,568,1.85022,2.17938,0.0664318,-0.0114323,-0.00240751,0.0665062,-0.0115067,-0.0308801,0.048629,0.0483702,1308,456,1.85024,-2.17937
91,568,2.61682,2.53162,0.0672192,-0.0154197,-0.00720164,0.0678421,-0.0160426,-0.0862792,0.0514167,0.0435925,1315,456,2.6168,-2.53162
98,568,3.35205,2.85986,0.061383,-0.0226367,-0.0174036,0.0648452,-0.026099,-0.196375,0.0540718,0.044209,1322,456,3.35209,-2.85987
105,568,4.01135,3.23386,0.0553142,-0.0299471,-0.0272862,0.0632989,-0.0379318,-0.284678,0.0590541,0.0475618,1329,456,4.01139,-3.23385
112,568,4.66211,3.61151,0.0479009,-0.0351658,-0.0358867,0.0612572,-0.0485221,-0.356296,0.0635231,0.0477746,1336,456,4.66207,-3.61151
119,568,5.55493,3.63892,0.0382707,-0.0310315,-0.0388252,0.0556589,-0.0484198,-0.421073,0.0601383,0.0452739,1343,456,5.55494,-3.63891
126,568,6.30554,3.401,0.030123,-0.0254873,-0.0368113,0.0484503,-0.0438145,-0.461943,0.0532915,0.0463288,1350,456,6.30557,-3.40099
133,568,7.047,3.55032,0,0,0,0,0,0,0,-1,1357,456,7.04696,-3.55034
140,568,-0.276001,2.03394,0,0,0,0,0,0,0,-1,1364,456,-0.276045,-2.03393
147,568,0.20813,-0.274017,0,0,0,0,0,0,0,-1,1371,456,0.208089,0.274015
154,568,0.196289,0.000274658,0,0,0,0,0,0,0,-1,1378,456,0.196306,-0.000270876
161,568,0.177612,0.29599,0.0102722,0.00059159,-0.0104819,0.0169774,-0.00611357,-0.569095,0.0138146,0.0488377,1385,456,0.177566,-0.295982
168,568,0.121826,0.649628,0,0,0,0,0,0,0,-1,1392,456,0.121774,-0.649641
175,568,0.0522461,1.04648,0.0105309,0.0122097,0.000517343,0.0123563,0.0103843,1.29462,0.00766523,0.0468017,1399,456,0.0522282,-1.04649
182,568,0.101807,1.3829,0.0128068,0.015486,0.0032517,0.0176632,0.0106296,0.980785,0.0102681,0.0477871,1406,456,0.101803,-1.38291
189,568,0.274414,1.59097,0,0,0,0,0,0,0,-1,1413,456,0.274461,-1.59096
196,568,-0.67395,-1.55304,0,0,0,0,0,0,0,-1,1420,456,-0.673944,1.55304
203,568,-1.98401,-0.0377502,0,0,0,0,0,0,0,-1,1427,456,-1.98406,0.0377374
210,568,-2.00549,0.373077,0,0,0,0,0,0,0,-1,1434,456,-2.00547,-0.373072
217,568,-1.77002,0.920288,0.0145123,0.013597,-0.00205609,0.016161,0.0119483,-0.6759,0.00968031,0.0448173,1441,456,-1.76996,-0.920278
224,568,-1.50574,0.754913,0,0,0,0,0,0,0,-1,1448,456,-1.50574,-0.754919
231,568,-0.930908,0.347412,0.0126289,0.00673784,-0.00791571,0.0181293,0.00123737,-0.607281,0.0116956,0.0445723,1455,456,-0.930959,-0.347402
238,568,-0.579468,-0.0637817,0.0110173,0.00680619,-0.00865347,0.0178177,5.80586e-06,-0.666057,0.0118765,0.0475572,1462,456,-0.579519,0.063773
245,568,-0.15918,-0.0892334,0.0090902,0.00502783,-0.00842417,0.0157246,-0.00160658,-0.667099,0.0110576,0.0465865,1469,456,-0.159206,0.0892401
252,568,-0.0438232,-0.0472107,0.00664877,0.00332636,-0.00832819,0.0134798,-0.00350469,-0.686956,0.0103544,0.0416594,1476,456,-0.0438272,0.0472064
259,568,-0.0396729,-0.141937,0.00470984,0.00239138,-0.00755448,0.0111935,-0.00409229,-0.709267,0.00913719,0.0386063,1483,456,-0.039684,0.141924
266,568,0.0220947,-0.369965,0.00322404,0.00149672,-0.0064528,0.00887073,-0.00414996,-0.718872,0.00768043,0.036845,1490,456,0.022103,0.36997
273,568,0.188354,-0.288971,0.0017694,0.00125109,-0.00557376,0.00709003,-0.00406954,-0.762167,0.00652117,0.039789,1497,456,0.188345,0.288963
280,568,0.137817,-0.176514,0.000407587,0.00125392,-0.00477369,0.00562316,-0.00396165,-0.829605,0.00556144,0.0324223,1504,456,0.137761,0.176526
287,568,-0.0140381,-0.077301,-0.00092826,0.00126914,-0.00376669,0.0040941,-0.00375321,-0.927306,0.00453207,0.0212655,1511,456,-0.0139828,0.0773033
294,568,-0.00866699,-0.0828247,-0.00205469,0.00128006,-0.00291736,0.00297291,-0.00374754,-1.04501,0.00388864,0.016716,1518,456,-0.00867136,0.0828246
301,568,-0.00390625,-0.0776978,-0.00279047,0.00123475,-0.00225737,0.00224643,-0.00380215,-1.14947,0.00353044,0.0125635,1525,456,-0.00391546,0.0776918
308,568,-0.0141602,-0.0745239,-0.00298455,0.00139389,-0.00171163,0.00198359,-0.00357425,-1.23901,0.00325233,0.00921517,1532,456,-0.0141423,0.0745167
315,568,-0.0407715,-0.0664978,-0.00302034,0.00165355,-0.00125429,0.00196887,-0.00333567,-1.3245,0.00309628,0.00684306,1539,456,-0.0407144,0.0664837
322,568,-0.0413818,-0.059906,-0.00315105,0.00162865,-0.000717515,0.00173403,-0.00325644,-1.42496,0.0029256,0.00877724,1546,456,-0.0413316,0.0599024
329,568,-0.043457,-0.0516357,-0.00314429,0.00140609,-0.000463761,0.00145287,-0.00319107,-1.47026,0.00274307,0.0101903,1553,456,-0.0434895,0.0516284
336,568,-0.0316162,-0.0559998,-0.00263829,0.00116732,-0.000183836,0.00117618,-0.00264715,-1.52264,0.0022612,0.011715,1560,456,-0.0316079,0.0559962
343,568,0.000488281,-0.0680542,-0.00210494,0.00133389,-7.75947e-05,0.00133564,-0.00210669,-1.54825,0.00200398,0.0106003,1567,456,0.000439328,0.0680583
350,568,-0.0153809,-0.0922241,-0.00169173,0.00107137,-0.000103105,0.00107522,-0.00169557,-1.53355,0.00161302,0.00911101,1574,456,-0.0154187,0.0922192
357,568,-0.036499,-0.0917053,-0.00122813,0.000879979,-0.000164939,0.000892805,-0.00124096,-1.49319,0.00123738,0.00860818,1581,456,-0.0365522,0.0916942
364,568,-0.0330811,-0.0765686,-0.000782105,0.00100853,-5.5865e-05,0.00101027,-0.000783846,-1.53964,0.00103858,0.0102488,1588,456,-0.0330497,0.076563
371,568,-0.0169678,-0.0734253,-0.000497516,0.000876669,-0.000120652,0.000887182,-0.000508028,-1.48388,0.000815379,0.0184846,1595,456,-0.0169421,0.0734197
378,568,0.0209961,-0.0897522,-0.000243706,0.000597472,-0.000310919,0.000699918,-0.000346152,-1.25251,0.000615354,0.0176939,1602,456,0.0209584,0.0897574
385,568,-0.0350342,-0.0765991,-8.71841e-05,0.000155146,-0.000397991,0.000450007,-0.000382045,-0.933161,0.000480919,0.00846448,1609,456,-0.035045,0.0766125
392,568,-0.0393066,-0.0577393,-3.84491e-05,-5.36799e-05,-0.000206815,0.000160891,-0.00025302,-0.766995,0.000240937,0.00885578,1616,456,-0.0392633,0.0577311
399,568,-0.0446777,-0.0627747,0.000303523,0.000561311,-0.000105205,0.000598796,0.000266038,-1.22852,0.00034643,0.0143227,1623,456,-0.0446252,0.0627696
406,568,-0.0366211,-0.0796509,0.000461259,3.96674e-05,0.000159144,0.000514588,-1.36609e-05,0.323336,0.000347702,0.0137517,1630,456,-0.0366239,0.0796636
413,568,-0.0344238,-0.0779114,0.000306624,5.63617e-05,0.000546573,0.000742206,-0.000379221,0.672869,0.000658665,0.0114113,1637,456,-0.0344084,0.0779021
420,568,-0.0343018,-0.0669556,0.000348689,0.000172165,0.00114248,0.00140631,-0.000885461,0.746848,0.0013345,0.00900709,1644,456,-0.0342407,0.0669544
427,568,-0.0427246,-0.0769958,0.000727562,0.000502747,0.00184354,0.00246212,-0.00123181,0.754949,0.00217177,0.00927747,1651,456,-0.0426721,0.0769928
434,568,-0.0236816,-0.109528,0.00117267,0.0015667,0.00262953,0.00400659,-0.00126722,0.822789,0.00317881,0.0118586,1658,456,-0.0237399,0.109541
441,568,-0.0057373,-0.107574,0.00147838,0.00251638,0.00348862,0.00552439,-0.00152964,0.859241,0.0042848,0.0197168,1665,456,-0.00570661,0.107572
448,568,-0.000732422,-0.139984,0.00202664,0.00346333,0.00433951,0.00714355,-0.00165358,0.867422,0.00539865,0.0370546,1672,456,-0.00078967,0.139981
455,568,0.147949,-0.480316,0.00261852,0.00473212,0.00531783,0.00909714,-0.00174651,0.883484,0.00672298,0.0432827,1679,456,0.147912,0.480317
462,568,-0.234619,-0.144409,0.00349056,0.00605686,0.00624096,0.0111452,-0.00159779,0.886786,0.00801599,0.043814,1686,456,-0.234602,0.144394
469,568,-0.167603,-0.0559082,0.00553867,0.00773839,0.0074195,0.0141391,-0.000862044,0.858982,0.00972616,0.0404229,1693,456,-0.167637,0.0559143
476,568,-0.067627,0.0474548,0.00906234,0.00999538,0.00965697,0.0191971,-0.000139375,0.809534,0.0128448,0.0443692,1700,456,-0.0675838,-0.0474621
483,568,0.3302,-0.112213,0.0131234,0.0124026,0.0119799,0.0247483,0.000777654,0.770362,0.0162459,0.0422183,1707,456,0.330236,0.112222
490,568,0.604614,-0.240234,0,0,0,0,0,0,0,-1,1714,456,0.604664,0.240242
497,568,-0.377808,-0.0907593,0,0,0,0,0,0,0,-1,1721,456,-0.377817,0.0907663
504,568,0,0,0,0,0,0,0,0,0,-1,1728,456,0,0
511,568,0,0,0,0,0,0,0,0,0,-1,1735,456,0,0
518,568,0,0,0,0,0,0,0,0,0,-1,1742,456,0,0
525,568,0,0,0,0,0,0,0,0,0,-1,1749,456,0,0
532,568,0,0,0,0,0,0,0,0,0,-1,1756,456,0,0
539,568,0,0,0,0,0,0,0,0,0,-1,1763,456,0,0
546,568,0,0,0,0,0,0,0,0,0,-1,1770,456,0,0
553,568,0,0,0,0,0,0,0,0,0,-1,1777,456,0,0
560,568,0,0,0,0,0,0,0,0,0,-1,1784,456,0,0
567,568,0,0,0,0,0,0,0,0,0,-1,1791,456,0,0
574,568,0,0,0,0,0,0,0,0,0,-1,1798,456,0,0
581,568,0,0,0,0,0,0,0,0,0,-1,1805,456,0,0
588,568,0,0,0,0,0,0,0,0,0,-1,1812,456,0,0
595,568,0,0,0,0,0,0,0,0,0,-1,1819,456,0,0
602,568,0,0,0,0,0,0,0,0,0,-1,1826,456,0,0
609,568,0,0,0,0,0,0,0,0,0,-1,1833,456,0,0
616,568,0,0,0,0,0,0,0,0,0,-1,1840,456,0,0
623,568,0,0,0,0,0,0,0,0,0,-1,1847,456,0,0
630,568,0,0,0,0,0,0,0,0,0,-1,1854,456,0,0
637,568,0,0,0,0,0,0,0,0,0,-1,1861,456,0,0
644,568,0,0,0,0,0,0,0,0,0,-1,1868,456,0,0
651,568,0,0,0,0,0,0,0,0,0,-1,1875,456,0,0
658,568,0,0,0,0,0,0,0,0,0,-1,1882,456,0,0
665,568,0,0,0,0,0,0,0,0,0,-1,1889,456,0,0
672,568,0,0,0,0,0,0,0,0,0,-1,1896,456,0,0
679,568,0,0,0,0,0,0,0,0,0,-1,1903,456,0,0
686,568,0,0,0,0,0,0,0,0,0,-1,1910,456,0,0
693,568,0,0,0,0,0,0,0,0,0,-1,1917,456,0,0
700,568,0,0,0,0,0,0,0,0,0,-1,1924,456,0,0
707,568,0,0,0,0,0,0,0,0,0,-1,1931,456,0,0
714,568,0,0,0,0,0,0,0,0,0,-1,1938,456,0,0
721,568,0,0,0,0,0,0,0,0,0,-1,1945,456,0,0
728,568,0,0,0,0,0,0,0,0,0,-1,1952,456,0,0
735,568,0,0,0,0,0,0,0,0,0,-1,1959,456,0,0
742,568,0,0,0,0,0,0,0,0,0,-1,1966,456,0,0
749,568,0,0,0,0,0,0,0,0,0,-1,1973,456,0,0
756,568,0,0,0,0,0,0,0,0,0,-1,1980,456,0,0
763,568,0,0,0,0,0,0,0,0,0,-1,1987,456,0,0
770,568,0,0,0,0,0,0,0,0,0,-1,1994,456,0,0
777,568,0,0,0,0,0,0,0,0,0,-1,2001,456,0,0
784,568,0,0,0,0,0,0,0,0,0,-1,2008,456,0,0
791,568,0,0,0,0,0,0,0,0,0,-1,2015,456,0,0
798,568,0,0,0,0,0,0,0,0,0,-1,2022,456,0,0
805,568,0,0,0,0,0,0,0,0,0,-1,2029,456,0,0
812,568,0,0,0,0,0,0,0,0,0,-1,2036,456,0,0
-700,561,0,0,0,0,0,0,0,0,0,-1,524,463,0,0
-693,561,0,0,0,0,0,0,0,0,0,-1,531,463,0,0
-686,561,0,0,0,0,0,0,0,0,0,-1,538,463,0,0
-679,561,0,0,0,0,0,0,0,0,0,-1,545,463,0,0
-672,561,0,0,0,0,0,0,0,0,0,-1,552,463,0,0
-665,561,0,0,0,0,0,0,0,0,0,-1,559,463,0,0
-658,561,0,0,0,0,0,0,0,0,0,-1,566,463,0,0
-651,561,0,0,0,0,0,0,0,0,0,-1,573,463,0,0
-644,561,0,0,0,0,0,0,0,0,0,-1,580,463,0,0
-637,561,0,0,0,0,0,0,0,0,0,-1,587,463,0,0
-630,561,0,0,0,0,0,0,0,0,0,-1,594,463,0,0
-623,561,0,0,0,0,0,0,0,0,0,-1,601,463,0,0
-616,561,0,0,0,0,0,0,0,0,0,-1,608,463,0,0
-609,561,0,0,0,0,0,0,0,0,0,-1,615,463,0,0
-602,561,0,0,0,0,0,0,0,0,0,-1,622,463,0,0
-595,561,0,0,0,0,0,0,0,0,0,-1,629,463,0,0
-588,561,0,0,0,0,0,0,0,0,0,-1,636,463,0,0
-581,561,0,0,0,0,0,0,0,0,0,-1,643,463,0,0
-574,561,0,0,0,0,0,0,0,0,0,-1,650,463,0,0
-567,561,0,0,0,0,0,0,0,0,0,-1,657,463,0,0
-560,561,0,0,0,0,0,0,0,0,0,-1,664,463,0,0
-553,561,0,0,0,0,0,0,0,0,0,-1,671,463,0,0
-546,561,0,0,0,0,0,0,0,0,0,-1,678,463,0,0
-539,561,0,0,0,0,0,0,0,0,0,-1,685,463,0,0
-532,561,0,0,0,0,0,0,0,0,0,-1,692,463,0,0
-525,561,0,0,0,0,0,0,0,0,0,-1,699,463,0,0
-518,561,0,0,0,0,0,0,0,0,0,-1,706,463,0,0
-511,561,0,0,0,0,0,0,0,0,0,-1,713,463,0,0
-504,561,0,0,0,0,0,0,0,0,0,-1,720,463,0,0
-497,561,0,0,0,0,0,0,0,0,0,-1,727,463,0,0
-490,561,0,0,0,0,0,0,0,0,0,-1,734,463,0,0
-483,561,0,0,0,0,0,0,0,0,0,-1,741,463,0,0
-476,561,0,0,0,0,0,0,0,0,0,-1,748,463,0,0
-469,561,0,0,0,0,0,0,0,0,0,-1,755,463,0,0
-462,561,0,0,0,0,0,0,0,0,0,-1,762,463,0,0
-455,561,0,0,0,0,0,0,0,0,0,-1,769,463,0,0
-448,561,0,0,0,0,0,0,0,0,0,-1,776,463,0,0
-441,561,0,0,0,0,0,0,0,0,0,-1,783,463,0,0
-434,561,0,0,0,0,0,0,0,0,0,-1,790,463,0,0
-427,561,0,0,0,0,0,0,0,0,0,-1,797,463,0,0
-420,561,0,0,0,0,0,0,0,0,0,-1,804,463,0,0
-413,561,0,0,0,0,0,0,0,0,0,-1,811,463,0,0
-406,561,0,0,0,0,0,0,0,0,0,-1,818,463,0,0
-399,561,0,0,0,0,0,0,0,0,0,-1,825,463,0,0
-392,561,1.70166,-0.492188,0.0953558,0.0244297,0.0565982,0.126683,-0.00689784,0.505533,0.0868462,0.0497679,832,463,1.70169,0.492198
-385,561,1.33746,-0.525391,0.0854513,0.0166492,0.0450882,0.107763,-0.0056629,0.459523,0.0738023,0.0462766,839,463,1.33749,0.525386
-378,561,1.4516,-0.96344,0.0762216,0.0122815,0.0357773,0.0922318,-0.00372867,0.420768,0.0627677,0.0423632,846,463,1.45158,0.963454
-371,561,-1.18713,-1.72501,0,0,0,0,0,0,0,-1,853,463,-1.18712,1.72502
-364,561,-1.01483,-1.01016,0.0587197,0.00908103,0.0212859,0.0665973,0.00120347,0.354454,0.0440025,0.0421378,860,463,-1.01482,1.01016
-357,561,-0.927551,-0.202362,0.0499737,0.0093562,0.0158181,0.055407,0.00392281,0.330865,0.0357023,0.0407303,867,463,-0.927569,0.202353
-350,561,-0.738831,0.555481,0.0409279,0.0086862,0.0111357,0.0444001,0.00521404,0.302251,0.0280242,0.0420312,874,463,-0.738826,-0.555483
-343,561,0.0721436,0.612152,0.0322171,0.00941214,0.00668278,0.0340311,0.00759811,0.265061,0.0206266,0.0413702,881,463,0.0721466,-0.612166
-336,561,0.119873,0.327057,0.0254511,0.0106452,0.00319227,0.0261101,0.00998629,0.203562,0.0152128,0.0377931,888,463,0.119885,-0.327051
-329,561,0.106262,-0.118958,0.0195805,0.0118918,0.00122687,0.0197715,0.0117008,0.15446,0.011479,0.0297537,895,463,0.106239,0.118964
-322,561,-0.00872803,-0.16272,0.0143489,0.0128577,9.4046e-05,0.0143548,0.0128518,0.0627372,0.00911031,0.0247068,902,463,-0.00874498,0.162705
-315,561,-0.0181885,-0.123932,0.0100095,0.012527,-0.000675311,0.0126968,0.00983982,-1.32459,0.00769115,0.018533,909,463,-0.0181824,0.123931
-308,561,-0.0216675,-0.0854797,0.00635746,0.0119616,-0.0014396,0.0123098,0.00600929,-1.3335,0.00710774,0.0131164,916,463,-0.0216882,0.0854699
-301,561,-0.020874,-0.0723572,0.00393272,0.0110441,-0.00215555,0.0116465,0.00333037,-1.2983,0.00692643,0.0100465,923,463,-0.0208511,0.0723459
-294,561,-0.0189819,-0.0611877,0.00193021,0.00960401,-0.00223635,0.0102082,0.00132604,-1.30694,0.00640932,0.00965668,930,463,-0.0189712,0.0611902
-287,561,-0.0139771,-0.0726013,0.00061542,0.0082501,-0.00226837,0.00887321,-7.68946e-06,-1.30271,0.00591804,0.00846398,937,463,-0.0139706,0.0725863
-280,561,-0.0088501,-0.0813293,0.000571263,0.00686975,-0.00229648,0.00761814,-0.000177131,-1.25576,0.00513882,0.0102215,944,463,-0.0088625,0.0813267
-273,561,-0.0149536,-0.0818176,0.000781194,0.00565762,-0.00249851,0.00671045,-0.000271644,-1.17199,0.00456688,0.0128642,951,463,-0.0149736,0.0818317
-266,561,-0.0181274,-0.0758362,0.0009446,0.00430357,-0.00254669,0.00567471,-0.000426534,-1.0769,0.00393303,0.00879068,958,463,-0.0181529,0.0758348
-259,561,-0.0195313,-0.0686951,0.00122611,0.00323701,-0.00245131,0.00488106,-0.000417936,-0.980018,0.00340192,0.00986691,965,463,-0.0195398,0.0686921
-252,561,-0.0358276,-0.0630493,0.00185863,0.00259847,-0.0023366,0.00459425,-0.000137154,-0.863904,0.00310956,0.0128483,972,463,-0.0358556,0.0630364
-245,561,-0.0493164,-0.0654297,0.00227046,0.00248672,-0.00225843,0.00463961,0.000117579,-0.809319,0.00305463,0.0137902,979,463,-0.0492972,0.0654315
-238,561,-0.0425415,-0.0593262,0.00262352,0.00291434,-0.00209568,0.00486964,0.000668215,-0.820035,0.0030482,0.0114541,986,463,-0.0425661,0.0593168
-231,561,-0.0455322,-0.0571289,0.00302539,0.00386124,-0.00188069,0.00536988,0.00151675,-0.894731,0.00319662,0.00973885,993,463,-0.0455076,0.0571248
-224,561,-0.0297241,-0.0682068,0.00353021,0.0047008,-0.00190483,0.00610823,0.00212278,-0.934454,0.00358083,0.00971327,1000,463,-0.0297305,0.0682116
-217,561,-0.00164795,-0.061554,0.00414735,0.00557085,-0.00219555,0.00716714,0.00255107,-0.942143,0.00419481,0.0104548,1007,463,-0.00166767,0.0615402
-210,561,0.00531006,-0.0617371,0.00488268,0.00619062,-0.00242875,0.0080519,0.0030214,-0.916909,0.00469676,0.0112611,1014,463,0.00531849,0.0617451
-203,561,-0.00341797,-0.0744324,0.00587561,0.0070085,-0.00218549,0.00869976,0.00418435,-0.9122,0.00502402,0.0115953,1021,463,-0.00338975,0.0744356
-196,561,-0.041748,-0.0757141,0.0063574,0.00747893,-0.00211897,0.00911008,0.00472625,-0.914753,0.00526095,0.0109896,1028,463,-0.0417499,0.0757109
-189,561,-0.0531006,-0.0613708,0.0064376,0.008157,-0.0021873,0.00964748,0.00494711,-0.972645,0.00557058,0.0136745,1035,463,-0.0530935,0.0613799
-182,561,-0.0185547,-0.0627441,0.00624839,0.00834166,-0.00204145,0.00958914,0.00500091,-1.02227,0.005538,0.0167318,1042,463,-0.0185284,0.0627582
-175,561,0.057251,-0.0831604,0.00601306,0.00866704,-0.00188261,0.00964333,0.00503677,-1.09239,0.00556943,0.0262995,1049,463,0.0572665,0.0831621
-168,561,0.0101318,-0.143219,0.0055538,0.008611,-0.00169342,0.0093637,0.00480111,-1.15254,0.00540672,0.0379144,1056,463,0.0101285,0.143234
-161,561,-0.0715332,-0.0532227,0.0051914,0.00894953,-0.00186027,0.00971461,0.00442632,-1.18061,0.00561609,0.0401008,1063,463,-0.071501,0.0532285
-154,561,0.131592,0.084198,0.0043386,0.00892761,-0.00209474,0.00973999,0.00352623,-1.20084,0.00569429,0.0394696,1070,463,0.131619,-0.0841831
-147,561,0.142456,-0.0277405,0.00248999,0.00866339,-0.00238637,0.00947829,0.00167509,-1.24173,0.00584112,0.040829,1077,463,0.142422,0.0277484
-140,561,0.150391,-0.0892639,0.00150898,0.00876414,-0.00280638,0.00972297,0.000550156,-1.24157,0.0063066,0.0416285,1084,463,0.150348,0.0892617
-133,561,0.0443115,-0.290314,0.000848286,0.00829072,-0.00344185,0.0096384,-0.000499399,-1.19759,0.00659837,0.0422956,1091,463,0.0442937,0.290325
-126,561,-0.0466309,-0.185425,0.000160014,0.00804348,-0.00407071,0.00976813,-0.00156464,-1.17005,0.0070914,0.0404166,1098,463,-0.0466823,0.185424
-119,561,-0.339233,-0.256256,-0.000886001,0.00916075,-0.00423345,0.0107067,-0.00243198,-1.22066,0.00807154,0.0397156,1105,463,-0.339268,0.256242
-112,561,-0.274902,-0.125885,-0.00141426,0.00988349,-0.00373525,0.0110068,-0.00253753,-1.27868,0.00831378,0.0462477,1112,463,-0.274926,0.125898
-105,561,-0.0965576,-0.172363,-0.00165438,0.0112756,-0.0024635,0.0117291,-0.00210784,-1.38876,0.00860846,0.0428444,1119,463,-0.096563,0.172351
-98,561,-0.33667,-0.586945,0,0,0,0,0,0,0,-1,1126,463,-0.336682,0.586955
-91,561,-0.119019,-0.188171,-0.00182976,0.0127122,0.000102445,0.0127129,-0.00183048,1.56375,0.00914671,0.0427652,1133,463,-0.119043,0.18818
-84,561,-0.0274658,-0.254639,-0.00123159,0.0116329,0.00212555,0.011975,-0.00157369,1.41122,0.00855628,0.0464153,1140,463,-0.0274818,0.254649
-77,561,-0.0931396,-0.276306,-0.000895644,0.0107958,0.00398865,0.0120269,-0.00212677,1.27142,0.00881284,0.0433415,1147,463,-0.0930915,0.276321
-70,561,-0.105591,-0.272064,-0.000692112,0.00963233,0.00661052,0.0128574,-0.00391723,1.11689,0.010133,0.0410584,1154,463,-0.10555,0.272056
-63,561,-0.200195,-0.196838,-0.000612347,0.00850978,0.00873898,0.0138064,-0.00590892,1.02591,0.0116831,0.0432715,1161,463,-0.20023,0.19685
-56,561,-0.221191,0.141632,-0.000757584,0.00897535,0.0107438,0.0159035,-0.0076857,0.998052,0.013892,0.0398342,1168,463,-0.221152,-0.141625
-49,561,-0.15332,0.414703,7.09088e-05,0.00757755,0.0121259,0.0165178,-0.0088693,0.935486,0.0148773,0.0411636,1175,463,-0.153277,-0.414692
-42,561,-0.0997314,0.487854,0.00121722,0.00857483,0.012287,0.017722,-0.00792992,0.930854,0.0151655,0.045216,1182,463,-0.0996839,-0.487867
-35,561,-0.110474,0.627808,0.000426781,0.0145784,0.011254,0.0207962,-0.00579101,1.06604,0.0161444,0.044064,1189,463,-0.110514,-0.627798
-28,561,-0.232788,1.0925,-0.00181329,0.0244626,0.00787653,0.0266428,-0.00399348,1.30076,0.0192317,0.0430683,1196,463,-0.232742,-1.09251
-21,561,-0.122803,1.57703,-0.00500075,0.0346657,0.00244329,0.0348156,-0.00515068,1.50951,0.0251041,0.0419878,1203,463,-0.122837,-1.57703
-14,561,-0.19104,2.1503,-0.00778024,0.0431561,-0.00348919,0.043394,-0.00801815,-1.50272,0.0319393,0.0402698,1210,463,-0.19105,-2.15028
-7,561,-0.285156,2.48285,-0.00988453,0.0552101,-0.00796086,0.0561696,-0.010844,-1.45085,0.0415356,0.0458815,1217,463,-0.285153,-2.48284
0,561,-0.291382,2.84225,0,0,0,0,0,0,0,-1,1224,463,-0.291442,-2.84225
7,561,0.86853,-0.529877,-0.0103157,0.0706629,-0.0144342,0.0731588,-0.0128117,-1.39957,0.0535563,0.0455514,1231,463,0.868505,0.529885
14,561,0.524902,1.55566,-0.00975336,0.0759251,-0.0164881,0.0789885,-0.0128168,-1.38709,0.0574102,0.0408552,1238,463,0.524891,-1.55566
21,561,0.297241,0.961273,-0.00745826,0.079757,-0.0175883,0.0831703,-0.0108716,-1.37911,0.0594033,0.0405658,1245,463,0.297259,-0.961285
28,561,-0.749878,-1.37744,-0.00280618,0.079797,-0.0169565,0.0831423,-0.00615148,-1.37601,0.0575883,0.0440643,1252,463,-0.74982,1.37746
35,561,-0.846802,-1.35135,0.0044754,0.0733827,-0.0143887,0.0762665,0.00159154,-1.37299,0.0503222,0.0396222,1259,463,-0.846831,1.35134
42,561,-0.820801,-1.04294,0,0,0,0,0,0,0,-1,1266,463,-0.82086,1.04294
49,561,0.0649414,-0.877808,0.0267394,0.0502809,-0.00422248,0.0510153,0.0260049,-1.39858,0.0294556,0.0416442,1273,463,0.0649968,0.877795
56,561,0.180054,-0.26355,0.0421295,0.0384083,0.000945977,0.0423562,0.0381817,0.235182,0.0269539,0.0409849,1280,463,0.180084,0.26356
63,561,-0.249634,1.14673,0,0,0,0,0,0,0,-1,1287,463,-0.249586,-1.14672
70,561,0.178345,1.05246,0,0,0,0,0,0,0,-1,1294,463,0.178359,-1.05245
77,561,0.754517,1.50101,0,0,0,0,0,0,0,-1,1301,463,0.754548,-1.501
84,561,1.69385,2.12674,0,0,0,0,0,0,0,-1,1308,463,1.69387,-2.12673
91,561,2.60632,2.65112,0,0,0,0,0,0,0,-1,1315,463,2.60627,-2.65112
98,561,3.45654,2.77786,0,0,0,0,0,0,0,-1,1322,463,3.45651,-2.77786
105,561,4.17224,3.1369,0,0,0,0,0,0,0,-1,1329,463,4.17228,-3.1369
112,561,5.32825,3.91763,0.0508203,-0.0398227,-0.0351975,0.0628826,-0.051885,-0.33016,0.0663625,0.0482797,1336,463,5.3282,-3.91762
119,561,5.8103,3.86389,0.0402764,-0.0350514,-0.0391433,0.0569335,-0.0517085,-0.402328,0.0627486,0.0442077,1343,463,5.8103,-3.86388
126,561,5.45044,3.0798,0.0314753,-0.0274649,-0.0377469,0.0498938,-0.0458834,-0.453958,0.0553131,0.0433773,1350,463,5.45042,-3.07979
133,561,4.84216,2.09882,0.0238406,-0.0246243,-0.0356328,0.0427,-0.0434837,-0.486789,0.0497589,0.0490572,1357,463,4.84212,-2.09882
140,561,4.51721,1.26694,0,0,0,0,0,0,0,-1,1364,463,4.51727,-1.26693
147,561,4.7428,-0.72641,0,0,0,0,0,0,0,-1,1371,463,4.74282,0.726423
154,561,0.330444,0.151886,0,0,0,0,0,0,0,-1,1378,463,0.330452,-0.15188
161,561,0.376099,0.46637,0,0,0,0,0,0,0,-1,1385,463,0.376058,-0.466381
168,561,0.0878906,1.83023,0,0,0,0,0,0,0,-1,1392,463,0.0878684,-1.83023
175,561,0.0550537,1.98431,0.0115403,0.0199712,0.00155342,0.0202483,0.0112632,1.39426,0.011715,0.0487521,1399,463,0.0550425,-1.9843
182,561,0.141968,2.00131,0.0142089,0.0226382,0.00435604,0.0244848,0.0123623,1.16985,0.0141365,0.0442579,1406,463,0.141938,-2.00131
189,561,0.328125,2.20715,0,0,0,0,0,0,0,-1,1413,463,0.328153,-2.20716
196,561,-0.5979,-1.35022,0,0,0,0,0,0,0,-1,1420,463,-0.597861,1.35022
203,561,-0.9823,-0.280182,0,0,0,0,0,0,0,-1,1427,463,-0.982254,0.280188
210,561,-1.5116,-0.00131226,0,0,0,0,0,0,0,-1,1434,463,-1.51159,0.00131058
217,561,-1.02893,0.498535,0,0,0,0,0,0,0,-1,1441,463,-1.02888,-0.49852
224,561,-0.0288086,-0.0809021,0,0,0,0,0,0,0,-1,1448,463,-0.0288309,0.0808933
231,561,0.00195313,-0.0739441,0.0139673,0.00644115,-0.00920895,0.0201524,0.000256099,-0.591435,0.0133504,0.0433057,1455,463,0.0019108,0.0739517
238,561,-0.00769043,-0.234009,0.012158,0.00648872,-0.0101458,0.0198577,-0.00121094,-0.649176,0.01366,0.0456971,1462,463,-0.00764252,0.234022
245,561,0.30188,-0.0808716,0.00989569,0.00453184,-0.00996344,0.0175318,-0.00310432,-0.653926,0.0128483,0.0465706,1469,463,0.301897,0.0808859
252,561,0.0712891,-0.0273438,0.00717876,0.00297752,-0.0097855,0.0150866,-0.00493028,-0.679669,0.0120424,0.0443354,1476,463,0.0712405,0.0273372
259,561,-0.0651855,-0.17453,0.004898,0.00206501,-0.00898646,0.0125789,-0.00561591,-0.707229,0.0107581,0.0419152,1483,463,-0.0652282,0.17454
266,561,0.0969238,-0.676849,0.00308166,0.00130926,-0.00775571,0.0100016,-0.00561072,-0.728513,0.00913186,0.0430026,1490,463,0.0969583,0.676835
273,561,0.40271,-0.585663,0.00150349,0.00143376,-0.00667063,0.00813935,-0.0052021,-0.782785,0.00776466,0.0442417,1497,463,0.402743,0.585664
280,561,0.606445,-0.233948,-3.9538e-05,0.00170611,-0.00565213,0.00655242,-0.00488584,-0.862005,0.00662721,0.0427062,1504,463,0.606398,0.233954
287,561,0.404785,-0.104767,-0.0015711,0.00208995,-0.00440297,0.00502775,-0.0045089,-0.982402,0.0055087,0.0377108,1511,463,0.404724,0.104756
294,561,0.0841064,-0.0654602,-0.0028307,0.00234342,-0.00316521,0.00384432,-0.0043316,-1.12801,0.00472317,0.0321463,1518,463,0.0840948,0.0654727
301,561,0.0778809,-0.11554,-0.00362157,0.00247218,-0.00216055,0.00316047,-0.00430986,-1.26239,0.00432998,0.0259406,1525,463,0.0778759,0.115541
308,561,0.000610352,-0.0974426,-0.00376681,0.00274545,-0.00129514,0.00299357,-0.00401493,-1.38151,0.00406066,0.017839,1532,463,0.000574829,0.0974516
315,561,-0.0310059,-0.0736389,-0.00374495,0.00306731,-0.00065008,0.00312879,-0.00380643,-1.4765,0.00401042,0.0124296,1539,463,-0.0309494,0.0736268
322,561,-0.0379639,-0.062439,-0.0038769,0.00305836,7.99123e-05,0.00305928,-0.00387782,1.55928,0.00401442,0.0127843,1546,463,-0.0379842,0.0624354
329,561,-0.0415039,-0.063324,-0.00392503,0.00276061,0.000437898,0.00278917,-0.00395359,1.50567,0.00391223,0.0110545,1553,463,-0.0414621,0.0633372
336,561,-0.0255127,-0.0595398,-0.00338225,0.00234347,0.000724338,0.00243368,-0.00347246,1.44689,0.00342745,0.0113595,1560,463,-0.0255005,0.0595356
343,561,-0.0114746,-0.0600891,-0.00277878,0.00245263,0.00072972,0.00255251,-0.00287866,1.43477,0.00313757,0.0100153,1567,463,-0.0115168,0.0600927
350,561,-0.0201416,-0.0718994,-0.00232592,0.00197659,0.000606974,0.00206057,-0.00240991,1.4333,0.00258366,0.00895424,1574,463,-0.0201884,0.0719029
357,561,-0.0231934,-0.0836182,-0.00172906,0.0015829,0.000508144,0.00165911,-0.00180527,1.42193,0.00200075,0.00889159,1581,463,-0.0232213,0.0836139
364,561,-0.0252686,-0.0928345,-0.00109614,0.00171991,0.00057522,0.00183287,-0.0012091,1.37688,0.00176855,0.00847216,1588,463,-0.0252859,0.0928487
371,561,-0.0421143,-0.0853271,-0.000722901,0.0015681,0.000488611,0.00166796,-0.000822757,1.36921,0.00146535,0.0150792,1595,463,-0.0421742,0.0853129
378,561,-0.026123,-0.0835571,-0.000417101,0.00126161,0.000277899,0.00130642,-0.000461909,1.41093,0.00105905,0.0109497,1602,463,-0.026179,0.0835559
385,561,-0.00976563,-0.0692139,-0.000155137,0.000904018,0.00020843,0.000943559,-0.000194677,1.38332,0.000702975,0.0084296,1609,463,-0.00972657,0.0692252
392,561,-0.0285645,-0.0468445,-2.83215e-05,0.000647799,0.000358255,0.000802315,-0.000182837,1.1636,0.000605101,0.0108716,1616,463,-0.0285377,0.0468515
399,561,-0.036377,-0.0456543,0.000372426,0.00108227,0.000401313,0.00126309,0.000191604,1.14746,0.000786016,0.017633,1623,463,-0.0363784,0.0456483
406,561,-0.020874,-0.0575867,0.00055586,0.000539665,0.000592237,0.00114006,-4.45297e-05,0.778562,0.000775307,0.0166601,1630,463,-0.0208508,0.0575821
413,561,-0.0311279,-0.0675354,0.000413577,0.000487873,0.000868974,0.00132049,-0.000419043,0.80676,0.00104831,0.01393,1637,463,-0.0310921,0.0675267
420,561,-0.045166,-0.0610657,0.000418896,0.000520747,0.00132936,0.00180016,-0.000860513,0.804543,0.00156774,0.0110161,1644,463,-0.0451577,0.0610541
427,561,-0.0461426,-0.0609741,0.000726873,0.000748019,0.00186123,0.00259871,-0.00112381,0.788238,0.00220471,0.00885047,1651,463,-0.0461897,0.0609887
434,561,-0.0435791,-0.0835266,0.00110098,0.00155727,0.00242608,0.00376591,-0.00110766,0.832279,0.00294998,0.0100088,1658,463,-0.0435277,0.0835255
441,561,-0.0349121,-0.0814514,0.00133808,0.00223198,0.00304754,0.00486517,-0.00129511,0.858209,0.00375044,0.0125107,1665,463,-0.0349661,0.0814373
448,561,0.00170898,-0.0969543,0.00172725,0.00287086,0.00363012,0.00597393,-0.00137582,0.863514,0.0045117,0.0175746,1672,463,0.00169464,0.0969634
455,561,0.0738525,-0.129822,0.00215318,0.00373329,0.00425427,0.00727024,-0.00138377,0.877206,0.00536787,0.033613,1679,463,0.0738947,0.129808
462,561,-0.11499,-0.0494385,0.0028061,0.0046152,0.00479751,0.00859269,-0.00117139,0.878577,0.00615619,0.0309942,1686,463,-0.11496,0.0494315
469,561,-0.086792,-0.0439453,0.00453596,0.00573585,0.00577555,0.0109425,-0.000670716,0.837151,0.00752856,0.0219105,1693,463,-0.0868038,0.0439429
476,561,-0.00842285,0.0787964,0.00778273,0.00728465,0.00773622,0.0152739,-0.000206538,0.769308,0.0102522,0.040066,1700,463,-0.00845967,-0.0787885
483,561,0.163818,0.032196,0.0113383,0.00899105,0.00974569,0.0199808,0.000348564,0.725475,0.0132059,0.0432243,1707,463,0.163794,-0.0322024
490,561,0.111206,-0.0163574,0.0167937,0.00965043,0.0125253,0.0262466,0.000197536,0.646506,0.0174323,0.0407495,1714,463,0.111217,0.0163503
497,561,0.0880127,0.0978699,0,0,0,0,0,0,0,-1,1721,463,0.0880141,-0.0978703
504,561,0.134399,0.0341797,0,0,0,0,0,0,0,-1,1728,463,0.134378,-0.0341737
511,561,0,0,0,0,0,0,0,0,0,-1,1735,463,0,0
518,561,0,0,0,0,0,0,0,0,0,-1,1742,463,0,0
525,561,0,0,0,0,0,0,0,0,0,-1,1749,463,0,0
532,561,0,0,0,0,0,0,0,0,0,-1,1756,463,0,0
539,561,0,0,0,0,0,0,0,0,0,-1,1763,463,0,0
546,561,0,0,0,0,0,0,0,0,0,-1,1770,463,0,0
553,561,0,0,0,0,0,0,0,0,0,-1,1777,463,0,0
560,561,0,0,0,0,0,0,0,0,0,-1,1784,463,0,0
567,561,0,0,0,0,0,0,0,0,0,-1,1791,463,0,0
574,561,0,0,0,0,0,0,0,0,0,-1,1798,463,0,0
581,561,0,0,0,0,0,0,0,0,0,-1,1805,463,0,0
588,561,0,0,0,0,0,0,0,0,0,-1,1812,463,0,0
595,561,0,0,0,0,0,0,0,0,0,-1,1819,463,0,0
602,561,0,0,0,0,0,0,0,0,0,-1,1826,463,0,0
609,561,0,0,0,0,0,0,0,0,0,-1,1833,463,0,0
616,561,0,0,0,0,0,0,0,0,0,-1,1840,463,0,0
623,561,0,0,0,0,0,0,0,0,0,-1,1847,463,0,0
630,561,0,0,0,0,0,0,0,0,0,-1,1854,463,0,0
637,561,0,0,0,0,0,0,0,0,0,-1,1861,463,0,0
644,561,0,0,0,0,0,0,0,0,0,-1,1868,463,0,0
651,561,0,0,0,0,0,0,0,0,0,-1,1875,463,0,0
658,561,0,0,0,0,0,0,0,0,0,-1,1882,463,0,0
665,561,0,0,0,0,0,0,0,0,0,-1,1889,463,0,0
672,561,0,0,0,0,0,0,0,0,0,-1,1896,463,0,0
679,561,0,0,0,0,0,0,0,0,0,-1,1903,463,0,0
686,561,0,0,0,0,0,0,0,0,0,-1,1910,463,0,0
693,561,0,0,0,0,0,0,0,0,0,-1,1917,463,0,0
700,561,0,0,0,0,0,0,0,0,0,-1,1924,463,0,0
707,561,0,0,0,0,0,0,0,0,0,-1,1931,463,0,0
714,561,0,0,0,0,0,0,0,0,0,-1,1938,463,0,0
721,561,0,0,0,0,0,0,0,0,0,-1,1945,463,0,0
728,561,0,0,0,0,0,0,0,0,0,-1,1952,463,0,0
735,561,0,0,0,0,0,0,0,0,0,-1,1959,463,0,0
742,561,0,0,0,0,0,0,0,0,0,-1,1966,463,0,0
749,561,0,0,0,0,0,0,0,0,0,-1,1973,463,0,0
756,561,0,0,0,0,0,0,0,0,0,-1,1980,463,0,0
763,561,0,0,0,0,0,0,0,0,0,-1,1987,463,0,0
770,561,0,0,0,0,0,0,0,0,0,-1,1994,463,0,0
777,561,0,0,0,0,0,0,0,0,0,-1,2001,463,0,0
784,561,0,0,0,0,0,0,0,0,0,-1,2008,463,0,0
791,561,0,0,0,0,0,0,0,0,0,-1,2015,463,0,0
798,561,0,0,0,0,0,0,0,0,0,-1,2022,463,0,0
805,561,0,0,0,0,0,0,0,0,0,-1,2029,463,0,0
812,561,0,0,0,0,0,0,0,0,0,-1,2036,463,0,0
-700,554,0,0,0,0,0,0,0,0,0,-1,524,470,0,0
-693,554,0,0,0,0,0,0,0,0,0,-1,531,470,0,0
-686,554,0,0,0,0,0,0,0,0,0,-1,538,470,0,0
-679,554,0,0,0,0,0,0,0,0,0,-1,545,470,0,0
-672,554,0,0,0,0,0,0,0,0,0,-1,552,470,0,0
-665,554,0,0,0,0,0,0,0,0,0,-1,559,470,0,0
-658,554,0,0,0,0,0,0,0,0,0,-1,566,470,0,0
-651,554,0,0,0,0,0,0,0,0,0,-1,573,470,0,0
-644,554,0,0,0,0,0,0,0,0,0,-1,580,470,0,0
-637,554,0,0,0,0,0,0,0,0,0,-1,587,470,0,0
-630,554,0,0,0,0,0,0,0,0,0,-1,594,470,0,0
-623,554,0,0,0,0,0,0,0,0,0,-1,601,470,0,0
-616,554,0,0,0,0,0,0,0,0,0,-1,608,470,0,0
-609,554,0,0,0,0,0,0,0,0,0,-1,615,470,0,0
-602,554,0,0,0,0,0,0,0,0,0,-1,622,470,0,0
-595,554,0,0,0,0,0,0,0,0,0,-1,629,470,0,0
-588,554,0,0,0,0,0,0,0,0,0,-1,636,470,0,0
-581,554,0,0,0,0,0,0,0,0,0,-1,643,470,0,0
-574,554,0,0,0,0,0,0,0,0,0,-1,650,470,0,0
-567,554,0,0,0,0,0,0,0,0,0,-1,657,470,0,0
-560,554,0,0,0,0,0,0,0,0,0,-1,664,470,0,0
-553,554,0,0,0,0,0,0,0,0,0,-1,671,470,0,0
-546,554,0,0,0,0,0,0,0,0,0,-1,678,470,0,0
-539,554,0,0,0,0,0,0,0,0,0,-1,685,470,0,0
-532,554,0,0,0,0,0,0,0,0,0,-1,692,470,0,0
-525,554,0,0,0,0,0,0,0,0,0,-1,699,470,0,0
-518,554,0,0,0,0,0,0,0,0,0,-1,706,470,0,0
-511,554,0,0,0,0,0,0,0,0,0,-1,713,470,0,0
-504,554,0,0,0,0,0,0,0,0,0,-1,720,470,0,0
-497,554,0,0,0,0,0,0,0,0,0,-1,727,470,0,0
-490,554,0,0,0,0,0,0,0,0,0,-1,734,470,0,0
-483,554,0,0,0,0,0,0,0,0,0,-1,741,470,0,0
-476,554,0,0,0,0,0,0,0,0,0,-1,748,470,0,0
-469,554,0,0,0,0,0,0,0,0,0,-1,755,470,0,0
-462,554,0,0,0,0,0,0,0,0,0,-1,762,470,0,0
-455,554,0,0,0,0,0,0,0,0,0,-1,769,470,0,0
-448,554,0,0,0,0,0,0,0,0,0,-1,776,470,0,0
-441,554,0,0,0,0,0,0,0,0,0,-1,783,470,0,0
-434,554,0,0,0,0,0,0,0,0,0,-1,790,470,0,0
-427,554,0,0,0,0,0,0,0,0,0,-1,797,470,0,0
-420,554,0,0,0,0,0,0,0,0,0,-1,804,470,0,0
-413,554,0,0,0,0,0,0,0,0,0,-1,811,470,0,0
-406,554,0,0,0,0,0,0,0,0,0,-1,818,470,0,0
-399,554,-0.186951,-0.357819,0.0944926,0.0401918,0.0556206,0.129236,0.00544877,0.558342,0.0843995,0.0469741,825,470,-0.186924,0.357823
-392,554,0.663086,-0.525696,0.0837298,0.0285646,0.0454984,0.109353,0.00294098,0.512903,0.071942,0.0453703,832,470,0.663069,0.525705
-385,554,0.703979,-0.522827,0.0745686,0.0194639,0.0359874,0.0923398,0.00169276,0.458689,0.0610035,0.0458059,839,470,0.703998,0.522814
-378,554,1.32092,-0.37674,0.0658196,0.0145861,0.0287802,0.0787323,0.00167337,0.421744,0.0519394,0.046468,846,470,1.3209,0.376754
-371,554,-1.0556,-1.58481,0,0,0,0,0,0,0,-1,853,470,-1.05562,1.58482
-364,554,-0.930969,-0.885834,0.049925,0.00995697,0.0172978,0.0563716,0.00351042,0.356735,0.0364673,0.0453553,860,470,-0.930941,0.885834
-357,554,-0.720398,-0.165009,0.0423438,0.00930836,0.0128742,0.0467684,0.0048838,0.331031,0.0296852,0.0426764,867,470,-0.720428,0.165001
-350,554,-0.331909,0.31366,0.0343547,0.00780327,0.00902546,0.0371321,0.00502584,0.298536,0.0232612,0.043027,874,470,-0.331915,-0.313662
-343,554,-0.166809,0.286133,0.0266732,0.00778453,0.00519004,0.0280054,0.00645241,0.251245,0.0169343,0.0389552,881,470,-0.166788,-0.286129
-336,554,0.00604248,-0.0673523,0.0208589,0.00836857,0.00222916,0.0212448,0.00798265,0.171423,0.0123913,0.0290342,888,470,0.00601256,0.0673573
-329,554,-0.00897217,-0.107147,0.0159752,0.00916843,0.000687928,0.0160441,0.0090996,0.0997211,0.00929086,0.0144629,895,470,-0.00897205,0.107136
-322,554,-0.0180054,-0.102081,0.0116332,0.0097942,-9.96426e-05,0.0116385,0.00978882,-0.0539734,0.00722185,0.00913377,902,470,-0.0180074,0.102091
-315,554,-0.0240479,-0.0946045,0.00804615,0.00938241,-0.000532833,0.00956886,0.0078597,-1.23419,0.00589273,0.00923421,909,470,-0.0240354,0.0945965
-308,554,-0.0357056,-0.0897522,0.00503283,0.0089322,-0.00101886,0.00918237,0.00478267,-1.33002,0.00530298,0.0108499,916,470,-0.0357343,0.0897592
-301,554,-0.0408325,-0.0697021,0.0030506,0.00825345,-0.00153008,0.00867006,0.00263398,-1.30496,0.00513251,0.0110917,923,470,-0.0408062,0.069691
-294,554,-0.0378418,-0.0663757,0.00145516,0.00721274,-0.00157123,0.00761362,0.00105428,-1.32099,0.00476337,0.00957609,930,470,-0.0378494,0.0663765
-287,554,-0.0282593,-0.0778809,0.000454177,0.00627488,-0.00161742,0.00669412,3.49351e-05,-1.31717,0.00445115,0.00962417,937,470,-0.0282298,0.0778895
-280,554,-0.0179443,-0.0809631,0.00054018,0.00542014,-0.00174165,0.00597796,-1.76444e-05,-1.26083,0.0039912,0.00954255,944,470,-0.0179156,0.0809764
-273,554,-0.0175781,-0.0908508,0.000886643,0.00472808,-0.00209558,0.00565001,-3.52848e-05,-1.15634,0.00377849,0.0136781,951,470,-0.0176068,0.0908401
-266,554,-0.0233765,-0.0896606,0.00117953,0.0037602,-0.00230746,0.0051136,-0.000173875,-1.04034,0.00346848,0.0113307,958,470,-0.02336,0.0896517
-259,554,-0.0272217,-0.0586243,0.00157965,0.00308732,-0.00243958,0.00488688,-0.000219909,-0.935246,0.00333364,0.0109517,965,470,-0.0272185,0.0586116
-252,554,-0.0334473,-0.038147,0.00239538,0.00278903,-0.0025588,0.00515856,2.58496e-05,-0.823783,0.00343046,0.0128486,972,470,-0.0334513,0.0381512
-245,554,-0.0428467,-0.0475159,0.00298609,0.00286662,-0.00270209,0.00562911,0.000223602,-0.774347,0.00368047,0.0136153,979,470,-0.0428327,0.0475286
-238,554,-0.0296631,-0.0628357,0.00354119,0.00358875,-0.00271809,0.00628316,0.000846778,-0.789773,0.00393699,0.0104078,986,470,-0.0296637,0.0628205
-231,554,-0.0348511,-0.0702209,0.00417613,0.00493763,-0.00255473,0.00713982,0.00197394,-0.859372,0.00425728,0.00925866,993,470,-0.0348356,0.0702198
-224,554,-0.0344238,-0.0665283,0.00495257,0.00615463,-0.00255697,0.00818026,0.00292694,-0.90083,0.00478612,0.00918234,1000,470,-0.0344002,0.0665291
-217,554,-0.0187988,-0.0555725,0.00582045,0.00737941,-0.00282595,0.00953141,0.00366845,-0.919967,0.00555137,0.00939812,1007,470,-0.0187837,0.0555579
-210,554,0.00457764,-0.0576172,0.00677522,0.00837191,-0.00300738,0.0106851,0.00446203,-0.915137,0.00619691,0.0125908,1014,470,0.00459685,0.0576088
-203,554,-0.0193481,-0.0784607,0.00799277,0.00952755,-0.002559,0.0114317,0.00608857,-0.931071,0.0066048,0.0179743,1021,470,-0.0193531,0.0784589
-196,554,-0.013916,-0.0728149,0.0085885,0.010293,-0.0023079,0.011901,0.00698053,-0.962273,0.00690528,0.0227596,1028,470,-0.0138617,0.0728167
-189,554,0.0484619,-0.0978088,0.0086654,0.011218,-0.00224207,0.0125216,0.0073618,-1.04415,0.00726649,0.0271982,1035,470,0.0484627,0.0978085
-182,554,0.106445,-0.127136,0.00834504,0.0114222,-0.00197762,0.0123892,0.00737798,-1.11599,0.00719631,0.0342094,1042,470,0.106434,0.127151
-175,554,0.1604,-0.0910034,0.00800263,0.0117324,-0.00172687,0.0124092,0.00732589,-1.1973,0.00720333,0.0412262,1049,470,0.160431,0.0909983
-168,554,-1.30273,-0.184113,0,0,0,0,0,0,0,-1,1056,470,-1.3027,0.184128
-161,554,-0.869873,-0.49704,0,0,0,0,0,0,0,-1,1063,470,-0.869854,0.497049
-154,554,-0.160034,-0.808136,0.00557378,0.011163,-0.00207519,0.0118493,0.00488755,-1.25143,0.00687603,0.0445195,1070,470,-0.159978,0.808122
-147,554,0.0338135,-0.0726929,0.00315227,0.0104063,-0.0025164,0.0111937,0.00236482,-1.26752,0.00681242,0.0411798,1077,470,0.0338729,0.0726981
-140,554,-0.269043,-0.85791,0.00175632,0.0101202,-0.00311422,0.0111524,0.000724143,-1.25075,0.00720566,0.0425246,1084,470,-0.269059,0.857897
-133,554,-0.100586,-0.617828,0.000700836,0.00914355,-0.00397071,0.0107176,-0.000873184,-1.19339,0.00745318,0.0414547,1091,470,-0.100559,0.617829
-126,554,0.12793,-0.58548,-0.000442839,0.00835088,-0.00492748,0.010558,-0.00264995,-1.14967,0.00806836,0.0397889,1098,470,0.127901,0.585481
-119,554,0.220093,-0.495941,-0.00194452,0.0094392,-0.00523466,0.0114803,-0.00398563,-1.19901,0.00927216,0.0394272,1105,470,0.220039,0.495928
-112,554,-0.24292,-0.331909,-0.00280526,0.0107302,-0.00463501,0.0121652,-0.0042403,-1.27055,0.00983322,0.0438514,1112,470,-0.24298,0.331922
-105,554,0.306519,-0.511169,-0.00329844,0.0128845,-0.00310681,0.0134605,-0.00387439,-1.38749,0.010506,0.0423279,1119,470,0.306573,0.511155
-98,554,-0.227417,-0.512238,-0.00442328,0.0144766,-0.00194969,0.0146756,-0.00462231,-1.46906,0.0116347,0.0380693,1126,470,-0.227381,0.512249
-91,554,-0.623901,-0.687775,0,0,0,0,0,0,0,-1,1133,470,-0.623906,0.68777
-84,554,0.0020752,-0.311584,-0.00358198,0.0161082,0.00235129,0.0163851,-0.00385886,1.45358,0.0124113,0.0468179,1140,470,0.00207571,0.31157
-77,554,0.0321045,-0.398926,-0.00316074,0.0169235,0.00462502,0.0179374,-0.00417462,1.355,0.0135656,0.0468698,1147,470,0.0320923,0.398939
-70,554,-0.123291,-0.674408,-0.00288018,0.0163827,0.00763833,0.0190439,-0.00554137,1.23555,0.0148908,0.0458062,1154,470,-0.123274,0.674408
-63,554,-0.240234,-0.32251,-0.00269663,0.0168193,0.0100836,0.0210933,-0.00697063,1.16989,0.0168727,0.0425019,1161,470,-0.240241,0.322505
-56,554,-0.223145,0.119385,-0.00274315,0.0184499,0.0123078,0.0240942,-0.00838754,1.14081,0.0194705,0.0423715,1168,470,-0.223106,-0.119371
-49,554,-0.190186,0.47818,-0.00187099,0.0179335,0.0140517,0.0252215,-0.00915903,1.09233,0.0205591,0.0443919,1175,470,-0.190141,-0.478188
-42,554,-0.195435,0.637085,-0.000868866,0.0201032,0.0144147,0.0274425,-0.00820813,1.09986,0.0215584,0.0451444,1182,470,-0.195433,-0.637074
-35,554,-0.244385,0.749207,-0.00192731,0.0284779,0.0130559,0.0333146,-0.00676402,1.21601,0.0247742,0.0440222,1189,470,-0.244406,-0.74922
-28,554,-0.207031,0.950226,-0.00457242,0.0418593,0.00911235,0.0435836,-0.00629671,1.38378,0.031366,0.0459541,1196,470,-0.206977,-0.950225
-21,554,-0.115356,1.52588,-0.00841322,0.0552029,0.00289687,0.0553346,-0.00854486,1.52538,0.0400431,0.0449717,1203,470,-0.115403,-1.52586
-14,554,-0.344849,1.70581,-0.0119773,0.0661069,-0.00389162,0.0663004,-0.0121708,-1.52112,0.0487661,0.0448008,1210,470,-0.344862,-1.70582
-7,554,-0.4021,2.17154,-0.0150486,0.0810097,-0.00942361,0.0819255,-0.0159644,-1.47392,0.060643,0.0477547,1217,470,-0.402048,-2.17153
0,554,-0.417725,2.57587,0,0,0,0,0,0,0,-1,1224,470,-0.417759,-2.57585
7,554,1.81641,-1.31769,-0.0170716,0.0998006,-0.0175416,0.102377,-0.0196477,-1.42498,0.0756556,0.0479351,1231,470,1.81637,1.31769
14,554,1.2168,-1.37198,-0.0172264,0.106027,-0.020722,0.109417,-0.020617,-1.40861,0.0806999,0.0435153,1238,470,1.21676,1.37199
21,554,0.651123,-1.65082,-0.0152854,0.10913,-0.0227628,0.113164,-0.0193192,-1.3954,0.0826386,0.0405247,1245,470,0.65117,1.65082
28,554,0.226929,-1.42453,-0.0107312,0.107548,-0.0227852,0.111786,-0.0149687,-1.38692,0.0799816,0.041491,1252,470,0.226902,1.42454
35,554,0.197266,-1.19595,-0.0027437,0.0993139,-0.0200189,0.1031,-0.00652999,-1.38387,0.0710103,0.0380853,1259,470,0.197295,1.19594
42,554,0.160522,-1.017,0,0,0,0,0,0,0,-1,1266,470,0.160517,1.01699
49,554,0.229492,-1.04916,0.0219434,0.0696766,-0.00866836,0.071202,0.020418,-1.3966,0.0423363,0.0474504,1273,470,0.229522,1.04917
56,554,0.454956,-0.542053,0.040703,0.0544847,-0.00256594,0.0549469,0.0402407,-1.39257,0.0328456,0.0455476,1280,470,0.454945,0.542064
63,554,0.526611,-0.286957,0,0,0,0,0,0,0,-1,1287,470,0.526656,0.286963
70,554,-0.184326,1.29214,0,0,0,0,0,0,0,-1,1294,470,-0.18427,-1.29215
77,554,0.807373,1.4299,0,0,0,0,0,0,0,-1,1301,470,0.807411,-1.4299
84,554,1.73022,1.74741,0,0,0,0,0,0,0,-1,1308,470,1.73023,-1.7474
91,554,2.29114,2.9097,0,0,0,0,0,0,0,-1,1315,470,2.29118,-2.9097
98,554,-4.71484,1.52991,0,0,0,0,0,0,0,-1,1322,470,-4.71483,-1.52992
105,554,4.92151,3.40146,0,0,0,0,0,0,0,-1,1329,470,4.92146,-3.40145
112,554,6.04675,4.0867,0,0,0,0,0,0,0,-1,1336,470,6.04676,-4.08671
119,554,7.172,4.77197,0,0,0,0,0,0,0,-1,1343,470,7.17206,-4.77198
126,554,5.38025,3.25632,0.0302979,-0.0287802,-0.0370769,0.048164,-0.0466463,-0.449036,0.0547411,0.0410507,1350,470,5.38026,-3.25632
133,554,4.90027,2.32117,0.0222451,-0.0243985,-0.0360709,0.041877,-0.0440303,-0.498423,0.0496038,0.0451611,1357,470,4.90028,-2.32115
140,554,4.4917,1.35922,0,0,0,0,0,0,0,-1,1364,470,4.49175,-1.35922
147,554,4.58032,-0.260864,0.0123764,-0.00558872,-0.0236705,0.0287114,-0.0219237,-0.60405,0.0293216,0.0472102,1371,470,4.58029,0.260851
154,554,4.31042,-2.12979,0.0113164,0.0048723,-0.0152763,0.0237067,-0.00751804,-0.681463,0.0188179,0.0442734,1378,470,4.31041,2.1298
161,554,0.226074,2.00626,0,0,0,0,0,0,0,-1,1385,470,0.226121,-2.00625
168,554,0.122314,2.18671,0.0109684,0.0256252,-0.00182923,0.02585,0.0107436,-1.44849,0.0149952,0.0499299,1392,470,0.122326,-2.1867
175,554,0.0979004,2.34918,0.0121692,0.0306074,0.0029802,0.0310771,0.0116995,1.41447,0.018124,0.0470592,1399,470,0.0978784,-2.34919
182,554,0.122314,2.37701,0.0153439,0.0317643,0.00575797,0.0335821,0.0135261,1.26499,0.0195104,0.0469578,1406,470,0.122265,-2.37701
189,554,-0.190063,-1.57721,0,0,0,0,0,0,0,-1,1413,470,-0.190098,1.5772
196,554,-0.401978,-1.11453,0,0,0,0,0,0,0,-1,1420,470,-0.401996,1.11453
203,554,-0.40625,-0.555267,0.0189003,0.0268091,0.00466429,0.0289696,0.0167397,1.13701,0.016793,0.0451131,1427,470,-0.406202,0.555254
210,554,-0.447876,-0.220398,0.018369,0.0244891,0.00330989,0.0259368,0.0169214,1.1585,0.0152047,0.0440664,1434,470,-0.447861,0.220387
217,554,-0.384399,-0.0380859,0,0,0,0,0,0,0,-1,1441,470,-0.384443,0.0380981
224,554,-0.356201,0.422852,0,0,0,0,0,0,0,-1,1448,470,-0.356163,-0.422839
231,554,0.683472,-0.748535,0,0,0,0,0,0,0,-1,1455,470,0.683471,0.748548
238,554,0.551392,-0.539001,0.0130002,0.00547277,-0.0113963,0.0212382,-0.00276527,-0.625909,0.0151648,0.0412654,1462,470,0.551437,0.538996
245,554,0.552246,-0.693909,0.0103462,0.00342553,-0.0113559,0.0187573,-0.00498556,-0.63751,0.0144562,0.0455385,1469,470,0.552258,0.693921
252,554,0.0743408,-0.00686646,0.00734914,0.00224354,-0.0111331,0.0162184,-0.0066257,-0.672698,0.0135711,0.0460665,1476,470,0.0743445,0.00685646
259,554,-0.230957,0.488953,0.00469362,0.00151999,-0.010375,0.0136024,-0.00738883,-0.709513,0.012295,0.0440095,1483,470,-0.230912,-0.488958
266,554,-0.145508,-0.271027,0.00251154,0.00112975,-0.00906859,0.0109155,-0.00727423,-0.747379,0.0105718,0.0440448,1490,470,-0.145526,0.271014
273,554,0.27124,-0.374329,0.000804121,0.00182128,-0.0078248,0.00915401,-0.00652861,-0.81785,0.00909656,0.0449606,1497,470,0.271209,0.374331
280,554,0.752197,-0.106323,-0.000907344,0.00250617,-0.00658481,0.00760181,-0.00600299,-0.912206,0.0078728,0.0481044,1504,470,0.752193,0.106311
287,554,0.433594,-0.00405884,-0.00264322,0.00343765,-0.00511016,0.00634347,-0.00554904,-1.05376,0.00687125,0.0470675,1511,470,0.433558,0.00405813
294,554,0.185303,0.00253296,-0.00400296,0.00402911,-0.00343449,0.00529742,-0.00527126,-1.21705,0.00610184,0.0421207,1518,470,0.185257,-0.00253592
301,554,0.200439,-0.0432739,-0.004766,0.00433498,-0.00201459,0.00476098,-0.00519201,-1.3624,0.00574816,0.0381895,1525,470,0.200411,0.0432797
308,554,0.0888672,-0.0913086,-0.00473632,0.00468907,-0.000780328,0.00475324,-0.00480048,-1.48875,0.00551587,0.0366985,1532,470,0.0888076,0.0912987
315,554,0.0288086,-0.0935974,-0.00449678,0.00497654,6.95564e-05,0.00497705,-0.00449729,1.56345,0.00547235,0.0335971,1539,470,0.0288217,0.0936022
322,554,0.0368652,-0.0557251,-0.00450965,0.00491749,0.00100628,0.00502371,-0.00461587,1.46563,0.00556707,0.0275452,1546,470,0.0368945,0.0557398
329,554,-0.0180664,-0.0718689,-0.00452361,0.00445454,0.00147931,0.00469201,-0.00476108,1.41163,0.00545779,0.017438,1553,470,-0.0180134,0.071875
336,554,-0.0219727,-0.0714722,-0.00386876,0.00370243,0.00178531,0.0041023,-0.00426862,1.35046,0.00483327,0.0108216,1560,470,-0.021949,0.0714858
343,554,-0.0273438,-0.0635681,-0.00318603,0.00368177,0.00166469,0.004064,-0.00356826,1.3451,0.00440959,0.0096116,1567,470,-0.0273068,0.0635829
350,554,-0.0124512,-0.0830994,-0.00270348,0.00291993,0.00140681,0.00325224,-0.00303579,1.33884,0.00363111,0.00898089,1574,470,-0.0124537,0.0830965
357,554,-0.00390625,-0.0881348,-0.00197877,0.00227597,0.00124115,0.00261156,-0.00231436,1.30673,0.0028457,0.0100909,1581,470,-0.003893,0.0881341
364,554,-0.0146484,-0.0935059,-0.00119129,0.00242983,0.00126832,0.00282987,-0.00159133,1.26526,0.00258575,0.00861661,1588,470,-0.014703,0.0935103
371,554,-0.0323486,-0.0844421,-0.000802745,0.00224796,0.00114916,0.00263238,-0.00118717,1.24797,0.00225723,0.00815555,1595,470,-0.0323165,0.0844356
378,554,-0.0233154,-0.0533752,-0.00049444,0.00193651,0.000929153,0.00225097,-0.000808902,1.24446,0.00183085,0.00933886,1602,470,-0.0232586,0.0533688
385,554,-0.00439453,-0.0572205,-0.000202853,0.00169435,0.000868104,0.00203161,-0.000540117,1.20024,0.00156581,0.00840042,1609,470,-0.00444259,0.0572152
392,554,-0.0187988,-0.0670471,-6.48221e-05,0.00140896,0.000961329,0.00188333,-0.000539196,1.1124,0.00146866,0.0105999,1616,470,-0.0188116,0.0670481
399,554,-0.0162354,-0.039856,0.000341926,0.00166512,0.000937944,0.00215132,-0.00014428,1.09256,0.00148465,0.0161921,1623,470,-0.0162692,0.0398598
406,554,-0.0130615,-0.0383606,0.000523646,0.00113941,0.00103812,0.00191434,-0.000251286,0.929554,0.00136771,0.0150682,1630,470,-0.0130502,0.0383523
413,554,-0.0321045,-0.0515442,0.000380986,0.00104593,0.00120997,0.00196827,-0.000541362,0.919477,0.00152501,0.0125868,1637,470,-0.0320918,0.0515509
420,554,-0.041626,-0.0450134,0.000340275,0.00103115,0.00154881,0.00227257,-0.00090115,0.89512,0.00188851,0.0136278,1644,470,-0.0416385,0.045
427,554,-0.0302734,-0.0549011,0.000591293,0.00118107,0.00193282,0.00284137,-0.001069,0.8611,0.00233367,0.0103509,1651,470,-0.0302442,0.054893
434,554,-0.0285645,-0.0834045,0.000929439,0.00177397,0.00230158,0.0036917,-0.000988289,0.876123,0.0028483,0.00924178,1658,470,-0.0285797,0.0834036
441,554,-0.0368652,-0.0857239,0.00115772,0.00223408,0.00271494,0.00446367,-0.00107187,0.883244,0.00339003,0.0101018,1665,470,-0.036843,0.0857248
448,554,-0.0388184,-0.07547,0.00143837,0.00263578,0.00309493,0.00518938,-0.00111523,0.880942,0.00388506,0.0112717,1672,470,-0.038828,0.0754561
455,554,-0.0178223,-0.0726013,0.00172752,0.00314997,0.00345932,0.00597042,-0.00109293,0.886783,0.00439017,0.0129053,1679,470,-0.0177842,0.0726165
462,554,-0.0129395,-0.0802612,0.00216771,0.00367433,0.00372641,0.00672281,-0.000880773,0.885132,0.00480246,0.0151411,1686,470,-0.0128939,0.0802633
469,554,-0.0338135,-0.0485229,0.00359543,0.00436193,0.00451513,0.00851005,-0.000552685,0.827737,0.00586628,0.0209779,1693,470,-0.0338711,0.0485124
476,554,-0.0197754,0.0368958,0.00651822,0.00539186,0.00619911,0.0121797,-0.000269594,0.740098,0.00821113,0.0388687,1700,470,-0.0198042,-0.0368815
483,554,-0.0235596,0.0876465,0.00955214,0.00648355,0.0078243,0.0159912,4.45331e-05,0.68858,0.010646,0.0448048,1707,470,-0.0235207,-0.0876381
490,554,-0.0845947,-0.0638428,0.0141719,0.00635448,0.0101364,0.0211271,-0.000600732,0.601378,0.0142892,0.0412677,1714,470,-0.084573,0.0638391
497,554,-0.0969238,-0.115967,0.0197836,0.00664632,0.013085,0.0278562,-0.00142624,0.552776,0.019064,0.0400347,1721,470,-0.0969573,0.115975
504,554,-0.0963135,-0.203552,0,0,0,0,0,0,0,-1,1728,470,-0.0963224,0.203564
511,554,-0.0911865,-0.267029,0,0,0,0,0,0,0,-1,1735,470,-0.0911942,0.267029
518,554,-0.366943,-0.645721,0,0,0,0,0,0,0,-1,1742,470,-0.366942,0.645721
525,554,0,0,0,0,0,0,0,0,0,-1,1749,470,0,0
532,554,0,0,0,0,0,0,0,0,0,-1,1756,470,0,0
539,554,0,0,0,0,0,0,0,0,0,-1,1763,470,0,0
546,554,0,0,0,0,0,0,0,0,0,-1,1770,470,0,0
553,554,0,0,0,0,0,0,0,0,0,-1,1777,470,0,0
560,554,0,0,0,0,0,0,0,0,0,-1,1784,470,0,0
567,554,0,0,0,0,0,0,0,0,0,-1,1791,470,0,0
574,554,0,0,0,0,0,0,0,0,0,-1,1798,470,0,0
581,554,0,0,0,0,0,0,0,0,0,-1,1805,470,0,0
588,554,0,0,0,0,0,0,0,0,0,-1,1812,470,0,0
595,554,0,0,0,0,0,0,0,0,0,-1,1819,470,0,0
602,554,0,0,0,0,0,0,0,0,0,-1,1826,470,0,0
609,554,0,0,0,0,0,0,0,0,0,-1,1833,470,0,0
616,554,0,0,0,0,0,0,0,0,0,-1,1840,470,0,0
623,554,0,0,0,0,0,0,0,0,0,-1,1847,470,0,0
630,554,0,0,0,0,0,0,0,0,0,-1,1854,470,0,0
637,554,0,0,0,0,0,0,0,0,0,-1,1861,470,0,0
644,554,0,0,0,0,0,0,0,0,0,-1,1868,470,0,0
651,554,0,0,0,0,0,0,0,0,0,-1,1875,470,0,0
658,554,0,0,0,0,0,0,0,0,0,-1,1882,470,0,0
665,554,0,0,0,0,0,0,0,0,0,-1,1889,470,0,0
672,554,0,0,0,0,0,0,0,0,0,-1,1896,470,0,0
679,554,0,0,0,0,0,0,0,0,0,-1,1903,470,0,0
686,554,0,0,0,0,0,0,0,0,0,-1,1910,470,0,0
693,554,0,0,0,0,0,0,0,0,0,-1,1917,470,0,0
700,554,0,0,0,0,0,0,0,0,0,-1,1924,470,0,0
707,554,0,0,0,0,0,0,0,0,0,-1,1931,470,0,0
714,554,0,0,0,0,0,0,0,0,0,-1,1938,470,0,0
721,554,0,0,0,0,0,0,0,0,0,-1,1945,470,0,0
728,554,0,0,0,0,0,0,0,0,0,-1,1952,470,0,0
735,554,0,0,0,0,0,0,0,0,0,-1,1959,470,0,0
742,554,0,0,0,0,0,0,0,0,0,-1,1966,470,0,0
749,554,0,0,0,0,0,0,0,0,0,-1,1973,470,0,0
756,554,0,0,0,0,0,0,0,0,0,-1,1980,470,0,0
763,554,0,0,0,0,0,0,0,0,0,-1,1987,470,0,0
770,554,0,0,0,0,0,0,0,0,0,-1,1994,470,0,0
777,554,0,0,0,0,0,0,0,0,0,-1,2001,470,0,0
784,554,0,0,0,0,0,0,0,0,0,-1,2008,470,0,0
791,554,0,0,0,0,0,0,0,0,0,-1,2015,470,0,0
798,554,0,0,0,0,0,0,0,0,0,-1,2022,470,0,0
805,554,0,0,0,0,0,0,0,0,0,-1,2029,470,0,0
812,554,0,0,0,0,0,0,0,0,0,-1,2036,470,0,0
-700,547,0,0,0,0,0,0,0,0,0,-1,524,477,0,0
-693,547,0,0,0,0,0,0,0,0,0,-1,531,477,0,0
-686,547,0,0,0,0,0,0,0,0,0,-1,538,477,0,0
-679,547,0,0,0,0,0,0,0,0,0,-1,545,477,0,0
-672,547,0,0,0,0,0,0,0,0,0,-1,552,477,0,0
-665,547,0,0,0,0,0,0,0,0,0,-1,559,477,0,0
-658,547,0,0,0,0,0,0,0,0,0,-1,566,477,0,0
-651,547,0,0,0,0,0,0,0,0,0,-1,573,477,0,0
-644,547,0,0,0,0,0,0,0,0,0,-1,580,477,0,0
-637,547,0,0,0,0,0,0,0,0,0,-1,587,477,0,0
-630,547,0,0,0,0,0,0,0,0,0,-1,594,477,0,0
-623,547,0,0,0,0,0,0,0,0,0,-1,601,477,0,0
-616,547,0,0,0,0,0,0,0,0,0,-1,608,477,0,0
-609,547,0,0,0,0,0,0,0,0,0,-1,615,477,0,0
-602,547,0,0,0,0,0,0,0,0,0,-1,622,477,0,0
-595,547,0,0,0,0,0,0,0,0,0,-1,629,477,0,0
-588,547,0,0,0,0,0,0,0,0,0,-1,636,477,0,0
-581,547,0,0,0,0,0,0,0,0,0,-1,643,477,0,0
-574,547,0,0,0,0,0,0,0,0,0,-1,650,477,0,0
-567,547,0,0,0,0,0,0,0,0,0,-1,657,477,0,0
-560,547,0,0,0,0,0,0,0,0,0,-1,664,477,0,0
-553,547,0,0,0,0,0,0,0,0,0,-1,671,477,0,0
-546,547,0,0,0,0,0,0,0,0,0,-1,678,477,0,0
-539,547,0,0,0,0,0,0,0,0,0,-1,685,477,0,0
-532,547,0,0,0,0,0,0,0,0,0,-1,692,477,0,0
-525,547,0,0,0,0,0,0,0,0,0,-1,699,477,0,0
-518,547,0,0,0,0,0,0,0,0,0,-1,706,477,0,0
-511,547,0,0,0,0,0,0,0,0,0,-1,713,477,0,0
-504,547,0,0,0,0,0,0,0,0,0,-1,720,477,0,0
-497,547,0,0,0,0,0,0,0,0,0,-1,727,477,0,0
-490,547,0,0,0,0,0,0,0,0,0,-1,734,477,0,0
-483,547,0,0,0,0,0,0,0,0,0,-1,741,477,0,0
-476,547,0,0,0,0,0,0,0,0,0,-1,748,477,0,0
-469,547,0,0,0,0,0,0,0,0,0,-1,755,477,0,0
-462,547,0,0,0,0,0,0,0,0,0,-1,762,477,0,0
-455,547,0,0,0,0,0,0,0,0,0,-1,769,477,0,0
-448,547,0,0,0,0,0,0,0,0,0,-1,776,477,0,0
-441,547,0,0,0,0,0,0,0,0,0,-1,783,477,0,0
-434,547,0,0,0,0,0,0,0,0,0,-1,790,477,0,0
-427,547,0,0,0,0,0,0,0,0,0,-1,797,477,0,0
-420,547,0,0,0,0,0,0,0,0,0,-1,804,477,0,0
-413,547,0,0,0,0,0,0,0,0,0,-1,811,477,0,0
-406,547,-2.28265,-0.508331,0.0903734,0.0549591,0.0504883,0.12617,0.0191629,0.616741,0.0785089,0.0485545,818,477,-2.28263,0.508337
-399,547,-1.45935,-0.503265,0.0803894,0.0405587,0.0423406,0.107265,0.0136836,0.56557,0.067413,0.0476339,825,477,-1.45936,0.503255
-392,547,-0.64502,-0.461487,0.0707433,0.0296769,0.0348508,0.09066,0.00976019,0.519187,0.0574636,0.0429831,832,477,-0.645029,0.461499
-385,547,-0.109009,-0.484406,0.0629245,0.0203759,0.027488,0.0764092,0.00689128,0.456071,0.0488048,0.0429566,839,477,-0.108979,0.484403
-378,547,-0.177185,0.203278,0,0,0,0,0,0,0,-1,846,477,-0.177213,-0.203284
-371,547,0.370239,1.46753,0,0,0,0,0,0,0,-1,853,477,0.37025,-1.46753
-364,547,-0.942932,-0.778778,0,0,0,0,0,0,0,-1,860,477,-0.942962,0.778764
-357,547,-0.0234985,-0.0455017,0,0,0,0,0,0,0,-1,867,477,-0.0235235,0.0455111
-350,547,-0.0133057,-0.0376587,0.0283468,0.00664385,0.00716233,0.0304974,0.00449327,0.291698,0.0190116,0.0461861,874,477,-0.0132859,0.0376599
-343,547,0.000305176,-0.0561218,0.0217051,0.00611097,0.00395484,0.0226507,0.00516532,0.234705,0.013707,0.0333643,881,477,0.000327073,0.0561262
-336,547,-0.0274658,-0.0678711,0.0167948,0.00622627,0.00152824,0.0170113,0.00600972,0.140763,0.00996145,0.0135963,888,477,-0.0274825,0.0678568
-329,547,-0.0320435,-0.076355,0.0128407,0.00669279,0.000338543,0.0128593,0.00667421,0.0548454,0.0074261,0.00793754,895,477,-0.0320626,0.0763446
-322,547,-0.0317993,-0.0812378,0.00934956,0.00705949,-0.00019938,0.00936679,0.00704227,-0.086199,0.00563193,0.0091918,902,477,-0.0318172,0.0812371
-315,547,-0.0291748,-0.0842285,0.0064795,0.00663874,-0.000390126,0.00695729,0.00616095,-0.886054,0.00439685,0.00905993,909,477,-0.0291622,0.0842261
-308,547,-0.0403442,-0.0856323,0.00411047,0.00629277,-0.000677102,0.00648578,0.00391746,-1.2931,0.00377148,0.00996372,916,477,-0.0403213,0.08562
-301,547,-0.0377197,-0.0750732,0.00261664,0.00582603,-0.00105777,0.0061433,0.00229938,-1.2794,0.00358401,0.00924893,923,477,-0.0377155,0.0750651
-294,547,-0.0352783,-0.0649719,0.00145087,0.00515421,-0.0011143,0.00546364,0.00114144,-1.29993,0.00332785,0.00829913,930,477,-0.0352928,0.0649592
-287,547,-0.0253296,-0.0689697,0.00077776,0.00459177,-0.00120608,0.00494115,0.000428376,-1.28883,0.003161,0.00991716,937,477,-0.0253071,0.0689739
-280,547,-0.0197144,-0.0740356,0.00103256,0.0042049,-0.00145045,0.00476808,0.000469374,-1.20043,0.00303439,0.0109557,944,477,-0.0197181,0.074041
-273,547,-0.0240479,-0.0891418,0.00153303,0.00397905,-0.00196501,0.00507057,0.00044151,-1.06376,0.00324324,0.0114006,951,477,-0.0240358,0.0891426
-266,547,-0.0362549,-0.0825806,0.00196068,0.00336279,-0.00233883,0.00510338,0.0002201,-0.93101,0.00333131,0.0110919,958,477,-0.0362544,0.0825888
-259,547,-0.0314331,-0.0785828,0.00247755,0.00307708,-0.00270505,0.00549893,5.57059e-05,-0.840581,0.00364753,0.00996866,965,477,-0.0314035,0.0785911
-252,547,-0.0194092,-0.0684509,0.00346978,0.00312404,-0.00306496,0.00636674,0.000227077,-0.757227,0.00417086,0.0103844,972,477,-0.0194047,0.0684585
-245,547,-0.0143433,-0.0677185,0.00421249,0.00336261,-0.00343776,0.00725147,0.000323622,-0.723906,0.00473013,0.0112361,979,477,-0.0143592,0.0677074
-238,547,-0.0120239,-0.0705261,0.00495378,0.00438843,-0.00363554,0.00831762,0.00102459,-0.746599,0.00523706,0.00808648,986,477,-0.0120243,0.0705335
-231,547,-0.0189209,-0.079071,0.00581157,0.00616025,-0.00349051,0.00948077,0.00249105,-0.810351,0.00567542,0.00768594,993,477,-0.0189204,0.0790763
-224,547,-0.0411987,-0.0644836,0.00682709,0.00774979,-0.00341024,0.0107297,0.00384713,-0.852632,0.00627691,0.00905614,1000,477,-0.0411743,0.0644863
-217,547,-0.0379639,-0.0566101,0.00796619,0.00933008,-0.0035992,0.0123114,0.0049849,-0.879024,0.0071507,0.0122374,1007,477,-0.0379907,0.0566052
-210,547,-0.0281982,-0.0809937,0.00917745,0.0107381,-0.00368307,0.0137226,0.00619296,-0.889791,0.00793528,0.0214708,1014,477,-0.0282126,0.0810087
-203,547,-0.0466919,-0.0916748,0.0106137,0.0122732,-0.00293083,0.0144895,0.00839747,-0.923342,0.00840074,0.0357125,1021,477,-0.0466788,0.0916793
-196,547,0.174927,-0.132446,0.0112864,0.0133723,-0.00238524,0.0149327,0.00972609,-0.991496,0.00875201,0.0399653,1028,477,0.174905,0.132448
-189,547,0.178711,-0.190125,0.0113127,0.0145461,-0.00209513,0.0155757,0.010283,-1.114,0.0091452,0.0411113,1035,477,0.178654,0.190131
-182,547,0.0567627,-0.326935,0.0108133,0.0147799,-0.00167405,0.0153919,0.0102012,-1.22027,0.00904212,0.046096,1042,477,0.0568146,0.326923
-175,547,-0.110229,-0.805267,0,0,0,0,0,0,0,-1,1049,477,-0.110241,0.80528
-168,547,-0.506714,-0.624084,0.00939384,0.0144876,-0.000926645,0.0146509,0.0092305,-1.39632,0.00855353,0.0466355,1056,477,-0.506754,0.62409
-161,547,-0.203369,-1.01984,0.00848846,0.0143868,-0.00129891,0.0146601,0.00821509,-1.36336,0.00848457,0.0479794,1063,477,-0.203346,1.01983
-154,547,0.304443,-1.43146,0.00672425,0.0132376,-0.00176104,0.0136832,0.0062786,-1.32294,0.00790892,0.0449223,1070,477,0.30442,1.43147
-147,547,0.816406,-1.83701,0,0,0,0,0,0,0,-1,1077,477,0.816372,1.83699
-140,547,-0.0710449,-0.834167,0,0,0,0,0,0,0,-1,1084,477,-0.0710659,0.834165
-133,547,-0.086792,-0.910065,0,0,0,0,0,0,0,-1,1091,477,-0.0868168,0.910051
-126,547,0.361938,-0.792175,0,0,0,0,0,0,0,-1,1098,477,0.361991,0.792182
-119,547,0.480835,-0.572449,-0.0036514,0.00881748,-0.00611151,0.0113134,-0.0061473,-1.18308,0.0102269,0.0416497,1105,477,0.48085,0.57244
-112,547,0.575439,-0.401367,-0.00486996,0.0107842,-0.00541616,0.0124755,-0.00656117,-1.26814,0.0111662,0.0412542,1112,477,0.575379,0.401374
-105,547,0.598755,-0.417847,-0.00563199,0.0138455,-0.00357622,0.0144814,-0.00626786,-1.39483,0.0122885,0.0407276,1119,477,0.598729,0.417856
-98,547,0.13855,-0.412201,-0.00737192,0.0165495,-0.00234279,0.0167768,-0.00759921,-1.47408,0.0144021,0.0426136,1126,477,0.138512,0.412215
-91,547,-0.194458,-0.381989,0,0,0,0,0,0,0,-1,1133,477,-0.194407,0.381978
-84,547,0.0706787,0.098999,0,0,0,0,0,0,0,-1,1140,477,0.070671,-0.0989896
-77,547,0.209717,-1.03888,0,0,0,0,0,0,0,-1,1147,477,0.209736,1.03889
-70,547,0.0985107,-0.948395,-0.00609631,0.0253004,0.0088448,0.0276206,-0.00841653,1.31425,0.0217685,0.047787,1154,477,0.0985105,0.948393
-63,547,-0.0454102,-0.623871,-0.00584088,0.0281311,0.0116189,0.0317248,-0.00943456,1.27083,0.0248979,0.0434067,1161,477,-0.0454671,0.623883
-56,547,-0.154541,-0.378174,-0.00578055,0.031483,0.0140197,0.0361685,-0.010466,1.24826,0.0282547,0.0439282,1168,477,-0.154592,0.378171
-49,547,-0.251587,0.195068,-0.00482935,0.0323556,0.0161309,0.0383779,-0.0108517,1.21348,0.029867,0.0459227,1175,477,-0.251629,-0.195071
-42,547,-0.188843,0.620392,-0.00401873,0.0361683,0.0166605,0.0421769,-0.0100274,1.22466,0.0319886,0.0433807,1182,477,-0.188865,-0.620402
-35,547,-0.167725,0.981934,-0.00530729,0.0475743,0.014814,0.0514414,-0.00917444,1.31545,0.0377261,0.0392986,1189,477,-0.167738,-0.981923
-28,547,-0.115601,1.16187,-0.0082635,0.0654132,0.0102488,0.0668123,-0.00966259,1.43512,0.0480871,0.0401201,1196,477,-0.115608,-1.16188
-21,547,-0.118286,1.02396,-0.0127246,0.0828824,0.00331812,0.0829974,-0.0128397,1.53615,0.0600706,0.0421188,1203,477,-0.118307,-1.02397
-14,547,0.0125732,0.948517,-0.0171711,0.097161,-0.00417278,0.0973131,-0.0173232,-1.53436,0.0713542,0.0431258,1210,477,0.0126263,-0.948503
-7,547,0.20752,0.876831,-0.0215368,0.115836,-0.0108885,0.116693,-0.0223945,-1.49219,0.0862352,0.0449554,1217,477,0.207576,-0.876844
0,547,-0.0457764,0.509094,0,0,0,0,0,0,0,-1,1224,477,-0.0457638,-0.509095
7,547,-0.219238,0.345673,0,0,0,0,0,0,0,-1,1231,477,-0.219277,-0.345661
14,547,0,0,0,0,0,0,0,0,0,-1,1238,477,0,0
21,547,0,0,0,0,0,0,0,0,0,-1,1245,477,0,0
28,547,0,0,0,0,0,0,0,0,0,-1,1252,477,0,0
35,547,0,0,0,0,0,0,0,0,0,-1,1259,477,0,0
42,547,0,0,0,0,0,0,0,0,0,-1,1266,477,0,0
49,547,0,0,0,0,0,0,0,0,0,-1,1273,477,0,0
56,547,0,0,0,0,0,0,0,0,0,-1,1280,477,0,0
63,547,0,0,0,0,0,0,0,0,0,-1,1287,477,0,0
70,547,0,0,0,0,0,0,0,0,0,-1,1294,477,0,0
77,547,0,0,0,0,0,0,0,0,0,-1,1301,477,0,0
84,547,0,0,0,0,0,0,0,0,0,-1,1308,477,0,0
91,547,0,0,0,0,0,0,0,0,0,-1,1315,477,0,0
98,547,0,0,0,0,0,0,0,0,0,-1,1322,477,0,0
105,547,-2.21143,1.7019,0,0,0,0,0,0,0,-1,1329,477,-2.2114,-1.7019
112,547,6.71655,4.21729,0,0,0,0,0,0,0,-1,1336,477,6.71651,-4.21728
119,547,5.74048,4.26978,0,0,0,0,0,0,0,-1,1343,477,5.74042,-4.26977
126,547,5.35693,3.89658,0.0233428,-0.0282219,-0.033012,0.0394475,-0.0443266,-0.453874,0.0483943,0.0428146,1350,477,5.35697,-3.89656
133,547,4.97107,2.98322,0.0158259,-0.0214746,-0.0344996,0.0363937,-0.0420424,-0.537601,0.0453242,0.0421323,1357,477,4.97104,-2.98321
140,547,4.62256,1.68436,0,0,0,0,0,0,0,-1,1364,477,4.62256,-1.68436
147,547,4.32922,0.396118,0.00816347,0.00243437,-0.022261,0.0277435,-0.0171457,-0.72141,0.0261564,0.0445583,1371,477,4.32924,-0.396118
154,547,4.401,-1.02325,0.00873797,0.0169565,-0.0128457,0.0263342,-0.000639724,-0.940201,0.0177732,0.0468361,1378,477,4.40099,1.02325
161,547,0.335571,0.0524902,0,0,0,0,0,0,0,-1,1385,477,0.33559,-0.052494
168,547,0.138306,-0.121399,0.0109823,0.0421239,0.00103812,0.0421585,0.0109477,1.53751,0.02526,0.0481961,1392,477,0.138303,0.1214
175,547,0.109619,2.66528,0.0120424,0.0456331,0.00492909,0.0463414,0.0113341,1.42806,0.0278947,0.0446737,1399,477,0.109647,-2.66527
182,547,0.0402832,2.69009,0,0,0,0,0,0,0,-1,1406,477,0.0402294,-2.6901
189,547,0.0333252,-0.899933,0,0,0,0,0,0,0,-1,1413,477,0.0333305,0.899945
196,547,-0.228027,-1.16763,0,0,0,0,0,0,0,-1,1420,477,-0.228052,1.16762
203,547,0.221069,-0.829742,0.0199954,0.0323444,0.0068168,0.0353673,0.0169724,1.1534,0.0204248,0.0445438,1427,477,0.221122,0.829731
210,547,0.519531,-0.737244,0.0195566,0.0287134,0.00542057,0.0312304,0.0170396,1.13608,0.0180559,0.0469649,1434,477,0.519588,0.73725
217,547,0.454224,-0.634216,0,0,0,0,0,0,0,-1,1441,477,0.454222,0.634203
224,547,0.265015,0.0842285,0.0173473,0.010634,-0.00588177,0.0207629,0.00721852,-0.526104,0.0121715,0.0477563,1448,477,0.264961,-0.0842317
231,547,0.60791,-0.384247,0.0158556,0.0037138,-0.01074,0.0221217,-0.00255237,-0.528156,0.0156681,0.0465097,1455,477,0.607942,0.384247
238,547,0.889648,-0.816498,0,0,0,0,0,0,0,-1,1462,477,0.889615,0.816483
245,547,0.883423,-0.956787,0,0,0,0,0,0,0,-1,1469,477,0.883461,0.956787
252,547,0.187744,-0.218109,0,0,0,0,0,0,0,-1,1476,477,0.187793,0.218097
259,547,-0.312744,0.991302,0,0,0,0,0,0,0,-1,1483,477,-0.312733,-0.991317
266,547,-0.338501,0.0725708,0.00137293,0.00111685,-0.0103475,0.0115932,-0.0091034,-0.779212,0.011978,0.0434595,1490,477,-0.338522,-0.07258
273,547,-0.299194,-0.723633,-0.000271043,0.00251833,-0.00884059,0.0100736,-0.00782628,-0.863633,0.0103616,0.0470323,1497,477,-0.299231,0.723637
280,547,-0.252563,-1.49957,0,0,0,0,0,0,0,-1,1504,477,-0.252584,1.49956
287,547,0.308838,-0.0345154,-0.00369919,0.00504567,-0.00539207,0.00761532,-0.00626884,-1.12607,0.00802858,0.0474817,1511,477,0.308879,0.034524
294,547,0.211792,0.140839,-0.00500096,0.00589165,-0.00312845,0.00672622,-0.00583554,-1.3101,0.00725861,0.0446215,1518,477,0.211749,-0.140852
301,547,0.27771,0.0746765,-0.00553326,0.00615048,-0.00121368,0.00627522,-0.005658,-1.46838,0.00689272,0.044342,1525,477,0.277654,-0.0746865
308,547,0.0571289,0.0325317,-0.00517641,0.00638417,0.000467558,0.00640305,-0.00519529,1.53044,0.00670839,0.0430078,1532,477,0.0571281,-0.0325168
315,547,-0.328369,-0.0682068,0,0,0,0,0,0,0,-1,1539,477,-0.328413,0.068217
322,547,0.148926,-0.0834045,-0.00452428,0.00623683,0.00271322,0.00688221,-0.00516966,1.33727,0.00698153,0.0413317,1546,477,0.148884,0.083401
329,547,0.0948486,-0.0694885,-0.00455993,0.00557187,0.00326575,0.00653328,-0.00552134,1.28449,0.00696791,0.0363927,1553,477,0.0948817,0.0695001
336,547,0.0339355,-0.0562439,-0.00392017,0.00447679,0.00354294,0.00577192,-0.00521529,1.22034,0.00634618,0.0254985,1560,477,0.0339853,0.0562311
343,547,0.00964355,-0.0823059,-0.0033171,0.0043477,0.00323446,0.00553018,-0.00449958,1.2203,0.00580087,0.0175624,1567,477,0.00960385,0.0823027
350,547,-0.00500488,-0.0836792,-0.00292104,0.00335007,0.00275508,0.0043885,-0.00395947,1.21035,0.00482182,0.0128038,1574,477,-0.0049627,0.0836762
357,547,-0.0136719,-0.0732422,-0.00219017,0.0025299,0.00242711,0.00355523,-0.00321549,1.17109,0.00391072,0.0097303,1581,477,-0.0136789,0.073248
364,547,-0.0186768,-0.0767822,-0.00135941,0.00277003,0.0023289,0.00381768,-0.00240705,1.14807,0.00362448,0.00874201,1588,477,-0.0186828,0.0767933
371,547,-0.036377,-0.0721741,-0.00102102,0.00259798,0.00208564,0.00354967,-0.00197271,1.14271,0.00323139,0.00824841,1595,477,-0.0364263,0.0721848
378,547,-0.0401611,-0.0655823,-0.000789036,0.00230214,0.00174429,0.00308708,-0.00157398,1.14793,0.00273792,0.00943901,1602,477,-0.0401735,0.0655829
385,547,-0.0201416,-0.0764771,-0.000509932,0.00214017,0.00157647,0.00287449,-0.00124425,1.13488,0.00243926,0.0102576,1609,477,-0.0201433,0.0764845
392,547,-0.0183105,-0.0757751,-0.000361616,0.00175495,0.00153505,0.00256116,-0.00116783,1.08719,0.00220246,0.0105354,1616,477,-0.0182823,0.0757681
399,547,-0.0159912,-0.0456543,5.2376e-05,0.00175924,0.0013776,0.00252634,-0.000714727,1.06272,0.00196626,0.0126634,1623,477,-0.0159561,0.0456632
406,547,-0.0157471,-0.0358887,0.000241733,0.00120339,0.00131345,0.00212126,-0.00067613,0.960863,0.00168538,0.0124275,1630,477,-0.0157361,0.0358907
413,547,-0.0288086,-0.0614624,0.000122703,0.00101627,0.00130703,0.00195077,-0.000811798,0.950087,0.00163953,0.0113653,1637,477,-0.0288181,0.0614581
420,547,-0.0332031,-0.0619507,6.3681e-05,0.000910712,0.00146634,0.00201347,-0.00103908,0.925985,0.00179207,0.013321,1644,477,-0.0331677,0.0619447
427,547,-0.0174561,-0.0636597,0.000297073,0.000962821,0.00168194,0.00234451,-0.00108461,0.883091,0.00202385,0.0120612,1651,477,-0.0174741,0.0636723
434,547,-0.0130615,-0.0791321,0.000619812,0.00135083,0.0018655,0.00288629,-0.000915645,0.882138,0.00229123,0.00836235,1658,477,-0.0131029,0.079129
441,547,-0.0300293,-0.0825195,0.000843857,0.00166156,0.00208549,0.0033779,-0.000872481,0.882194,0.00259218,0.00904704,1665,477,-0.0300758,0.0825259
448,547,-0.0234375,-0.0848083,0.00107444,0.00191362,0.00230038,0.00383236,-0.000844307,0.875607,0.00287793,0.00988493,1672,477,-0.0234917,0.0848128
455,547,-0.00195313,-0.0812073,0.00130343,0.00221771,0.00249919,0.00430122,-0.000780083,0.875856,0.00315977,0.0101775,1679,477,-0.00196718,0.0812149
462,547,-0.0274658,-0.0779724,0.00161088,0.0025371,0.00260189,0.00471678,-0.000568789,0.873471,0.00335025,0.00994944,1686,477,-0.027416,0.077982
469,547,-0.0272217,-0.0873718,0.00276254,0.00297473,0.00328155,0.0061519,-0.000414629,0.801558,0.00424623,0.0165576,1693,477,-0.0272418,0.0873651
476,547,-0.0177002,-0.0271912,0.00533313,0.00370543,0.00473387,0.00932259,-0.000284037,0.70027,0.00631187,0.0279031,1700,477,-0.0176509,0.0272037
483,547,-0.112549,-0.143402,0.00785792,0.00445071,0.006061,0.0124502,-0.000141556,0.648395,0.00834771,0.0382201,1707,477,-0.112492,0.143388
490,547,-0.0836182,-0.148743,0.0116968,0.00396461,0.00797231,0.0166909,-0.00102958,0.559635,0.0114859,0.0392794,1714,477,-0.0836235,0.148751
497,547,-0.00927734,-0.00686646,0.0162901,0.00419266,0.0104069,0.0222785,-0.00179567,0.522149,0.0154856,0.041908,1721,477,-0.00927872,0.00687309
504,547,-0.28479,-0.390594,0,0,0,0,0,0,0,-1,1728,477,-0.284753,0.39058
511,547,-1.33435,-1.64584,0,0,0,0,0,0,0,-1,1735,477,-1.33436,1.64584
518,547,-0.808105,-0.735413,0.0338101,0.00391094,0.0208611,0.0445252,-0.00680419,0.4745,0.0321921,0.0469719,1742,477,-0.808093,0.735427
525,547,-0.347046,0.128662,0.0408876,0.0024451,0.0251955,0.0533566,-0.0100238,0.45955,0.0393403,0.0468694,1749,477,-0.347099,-0.128667
532,547,0,0,0,0,0,0,0,0,0,-1,1756,477,0,0
539,547,0,0,0,0,0,0,0,0,0,-1,1763,477,0,0
546,547,0,0,0,0,0,0,0,0,0,-1,1770,477,0,0
553,547,0,0,0,0,0,0,0,0,0,-1,1777,477,0,0
560,547,0,0,0,0,0,0,0,0,0,-1,1784,477,0,0
567,547,0,0,0,0,0,0,0,0,0,-1,1791,477,0,0
574,547,0,0,0,0,0,0,0,0,0,-1,1798,477,0,0
581,547,0,0,0,0,0,0,0,0,0,-1,1805,477,0,0
588,547,0,0,0,0,0,0,0,0,0,-1,1812,477,0,0
595,547,0,0,0,0,0,0,0,0,0,-1,1819,477,0,0
602,547,0,0,0,0,0,0,0,0,0,-1,1826,477,0,0
609,547,0,0,0,0,0,0,0,0,0,-1,1833,477,0,0
616,547,0,0,0,0,0,0,0,0,0,-1,1840,477,0,0
623,547,0,0,0,0,0,0,0,0,0,-1,1847,477,0,0
630,547,0,0,0,0,0,0,0,0,0,-1,1854,477,0,0
637,547,0,0,0,0,0,0,0,0,0,-1,1861,477,0,0
644,547,0,0,0,0,0,0,0,0,0,-1,1868,477,0,0
651,547,0,0,0,0,0,0,0,0,0,-1,1875,477,0,0
658,547,0,0,0,0,0,0,0,0,0,-1,1882,477,0,0
665,547,0,0,0,0,0,0,0,0,0,-1,1889,477,0,0
672,547,0,0,0,0,0,0,0,0,0,-1,1896,477,0,0
679,547,0,0,0,0,0,0,0,0,0,-1,1903,477,0,0
686,547,0,0,0,0,0,0,0,0,0,-1,1910,477,0,0
693,547,0,0,0,0,0,0,0,0,0,-1,1917,477,0,0
700,547,0,0,0,0,0,0,0,0,0,-1,1924,477,0,0
707,547,0,0,0,0,0,0,0,0,0,-1,1931,477,0,0
714,547,0,0,0,0,0,0,0,0,0,-1,1938,477,0,0
721,547,0,0,0,0,0,0,0,0,0,-1,1945,477,0,0
728,547,0,0,0,0,0,0,0,0,0,-1,1952,477,0,0
735,547,0,0,0,0,0,0,0,0,0,-1,1959,477,0,0
742,547,0,0,0,0,0,0,0,0,0,-1,1966,477,0,0
749,547,0,0,0,0,0,0,0,0,0,-1,1973,477,0,0
756,547,0,0,0,0,0,0,0,0,0,-1,1980,477,0,0
763,547,0,0,0,0,0,0,0,0,0,-1,1987,477,0,0
770,547,0,0,0,0,0,0,0,0,0,-1,1994,477,0,0
777,547,0,0,0,0,0,0,0,0,0,-1,2001,477,0,0
784,547,0,0,0,0,0,0,0,0,0,-1,2008,477,0,0
791,547,0,0,0,0,0,0,0,0,0,-1,2015,477,0,0
798,547,0,0,0,0,0,0,0,0,0,-1,2022,477,0,0
805,547,0,0,0,0,0,0,0,0,0,-1,2029,477,0,0
812,547,0,0,0,0,0,0,0,0,0,-1,2036,477,0,0
-700,540,0,0,0,0,0,0,0,0,0,-1,524,484,0,0
-693,540,0,0,0,0,0,0,0,0,0,-1,531,484,0,0
-686,540,0,0,0,0,0,0,0,0,0,-1,538,484,0,0
-679,540,0,0,0,0,0,0,0,0,0,-1,545,484,0,0
-672,540,0,0,0,0,0,0,0,0,0,-1,552,484,0,0
-665,540,0,0,0,0,0,0,0,0,0,-1,559,484,0,0
-658,540,0,0,0,0,0,0,0,0,0,-1,566,484,0,0
-651,540,0,0,0,0,0,0,0,0,0,-1,573,484,0,0
-644,540,0,0,0,0,0,0,0,0,0,-1,580,484,0,0
-637,540,0,0,0,0,0,0,0,0,0,-1,587,484,0,0
-630,540,0,0,0,0,0,0,0,0,0,-1,594,484,0,0
-623,540,0,0,0,0,0,0,0,0,0,-1,601,484,0,0
-616,540,0,0,0,0,0,0,0,0,0,-1,608,484,0,0
-609,540,0,0,0,0,0,0,0,0,0,-1,615,484,0,0
-602,540,0,0,0,0,0,0,0,0,0,-1,622,484,0,0
-595,540,0,0,0,0,0,0,0,0,0,-1,629,484,0,0
-588,540,0,0,0,0,0,0,0,0,0,-1,636,484,0,0
-581,540,0,0,0,0,0,0,0,0,0,-1,643,484,0,0
-574,540,0,0,0,0,0,0,0,0,0,-1,650,484,0,0
-567,540,0,0,0,0,0,0,0,0,0,-1,657,484,0,0
-560,540,0,0,0,0,0,0,0,0,0,-1,664,484,0,0
-553,540,0,0,0,0,0,0,0,0,0,-1,671,484,0,0
-546,540,0,0,0,0,0,0,0,0,0,-1,678,484,0,0
-539,540,0,0,0,0,0,0,0,0,0,-1,685,484,0,0
-532,540,0,0,0,0,0,0,0,0,0,-1,692,484,0,0
-525,540,0,0,0,0,0,0,0,0,0,-1,699,484,0,0
-518,540,0,0,0,0,0,0,0,0,0,-1,706,484,0,0
-511,540,0,0,0,0,0,0,0,0,0,-1,713,484,0,0
-504,540,0,0,0,0,0,0,0,0,0,-1,720,484,0,0
-497,540,0,0,0,0,0,0,0,0,0,-1,727,484,0,0
-490,540,0,0,0,0,0,0,0,0,0,-1,734,484,0,0
-483,540,0,0,0,0,0,0,0,0,0,-1,741,484,0,0
-476,540,0,0,0,0,0,0,0,0,0,-1,748,484,0,0
-469,540,0,0,0,0,0,0,0,0,0,-1,755,484,0,0
-462,540,0,0,0,0,0,0,0,0,0,-1,762,484,0,0
-455,540,0,0,0,0,0,0,0,0,0,-1,769,484,0,0
-448,540,0,0,0,0,0,0,0,0,0,-1,776,484,0,0
-441,540,0,0,0,0,0,0,0,0,0,-1,783,484,0,0
-434,540,0,0,0,0,0,0,0,0,0,-1,790,484,0,0
-427,540,0,0,0,0,0,0,0,0,0,-1,797,484,0,0
-420,540,-4.47382,-0.467072,0,0,0,0,0,0,0,-1,804,484,-4.47383,0.467077
-413,540,-4.1853,-0.308594,0,0,0,0,0,0,0,-1,811,484,-4.18531,0.308603
-406,540,-3.58673,-0.616547,0.0734288,0.0517473,0.0367254,0.10088,0.0242961,0.641881,0.0607951,0.0474928,818,484,-3.58674,0.616543
-399,540,-2.47864,-0.642975,0.065405,0.0387283,0.0307773,0.0856099,0.0185233,0.580923,0.0520102,0.0430932,825,484,-2.47864,0.642971
-392,540,-1.44873,-0.641968,0.0572776,0.0287613,0.0253259,0.0720831,0.0139558,0.529018,0.044145,0.045607,832,484,-1.44876,0.641973
-385,540,-0.671692,-0.602692,0.0510933,0.0196619,0.0197619,0.0606266,0.0101285,0.449479,0.0375003,0.0459554,839,484,-0.671693,0.60269
-378,540,-0.412781,0.0283203,0.0449908,0.0150687,0.0164006,0.0522292,0.00783031,0.415634,0.0325251,0.049164,846,484,-0.412775,-0.0283116
-371,540,-0.77179,0.0601501,0,0,0,0,0,0,0,-1,853,484,-0.771802,-0.0601446
-364,540,-0.426392,-0.0235901,0.0338112,0.00946271,0.010347,0.0376142,0.0056597,0.352221,0.0234186,0.0420929,860,484,-0.426366,0.0235891
-357,540,-0.0771484,-0.0345154,0.0286592,0.00777222,0.00779187,0.0312457,0.00518576,0.320499,0.0193351,0.0373583,867,484,-0.0771317,0.0345115
-350,540,-0.0497437,-0.057312,0.0228377,0.00550487,0.00548632,0.0244283,0.00391426,0.282185,0.0151503,0.0251046,874,484,-0.0497688,0.0573116
-343,540,-0.0360107,-0.0759277,0.0171837,0.00468907,0.00285453,0.0178049,0.00406781,0.214298,0.0107731,0.0126281,881,484,-0.0360324,0.0759222
-336,540,-0.0485229,-0.0836792,0.0130772,0.00451183,0.000899913,0.0131707,0.0044183,0.103558,0.00774014,0.0105693,888,484,-0.0485119,0.0836835
-329,540,-0.0401001,-0.0654297,0.00990215,0.00477576,2.57373e-05,0.00990228,0.00477563,0.00502038,0.00571828,0.00883043,895,484,-0.0400915,0.0654307
-322,540,-0.0320435,-0.0780945,0.00711032,0.00494674,-0.000316884,0.00715578,0.00490128,-0.142477,0.00422454,0.0120885,902,484,-0.032055,0.0780987
-315,540,-0.0341187,-0.0714417,0.00484172,0.0045245,-0.000320005,0.00504027,0.00432596,-0.555317,0.0031492,0.0112211,909,484,-0.0341075,0.0714491
-308,540,-0.0335083,-0.0635986,0.00305278,0.00423958,-0.000457444,0.00439543,0.00289693,-1.24243,0.00258016,0.010431,916,484,-0.0334896,0.0635925
-301,540,-0.045166,-0.0608521,0.00204749,0.00391111,-0.000760203,0.00418187,0.00177673,-1.22864,0.00242347,0.00952454,923,484,-0.0451767,0.0608529
-294,540,-0.0338135,-0.0561218,0.00129874,0.003487,-0.000865912,0.00378819,0.000997548,-1.23605,0.00226731,0.00968417,930,484,-0.0338175,0.0561153
-287,540,-0.0194092,-0.0630493,0.000938056,0.00318084,-0.00102167,0.00357646,0.000542431,-1.20135,0.00222564,0.00767366,937,484,-0.0194037,0.0630452
-280,540,-0.00543213,-0.0877991,0.00137923,0.0031887,-0.0014095,0.00395885,0.00060908,-1.07072,0.00246145,0.00835417,944,484,-0.00543693,0.0877943
-273,540,-0.0192261,-0.081543,0.00207791,0.00331595,-0.002088,0.00487476,0.000519098,-0.929503,0.00309137,0.0103879,951,484,-0.0192486,0.0815462
-266,540,-0.0338745,-0.0819702,0.00267526,0.00298095,-0.00262808,0.00546062,0.000195588,-0.814445,0.003577,0.0109236,958,484,-0.0338552,0.0819786
-259,540,-0.0309448,-0.090332,0.00334259,0.00303063,-0.00324988,0.00644024,-6.70129e-05,-0.761419,0.004316,0.00978857,965,484,-0.030918,0.0903275
-252,540,-0.0236816,-0.0880127,0.00453108,0.00336956,-0.0038693,0.00786296,3.76771e-05,-0.710907,0.00522946,0.0104472,972,484,-0.0236932,0.0880056
-245,540,-0.0188599,-0.0847778,0.00544277,0.0037745,-0.00447459,0.0091603,5.69611e-05,-0.693248,0.00608797,0.011356,979,484,-0.0188685,0.0847845
-238,540,-0.0213013,-0.0770264,0.00637133,0.00509583,-0.004825,0.0106005,0.000866618,-0.719691,0.0067966,0.00859795,986,484,-0.0213064,0.0770232
-231,540,-0.0305176,-0.0782166,0.00744641,0.0073417,-0.00463653,0.0120309,0.00275723,-0.779753,0.00727775,0.0107846,993,484,-0.0305028,0.0782024
-224,540,-0.0377808,-0.0716858,0.00869183,0.0094314,-0.00444322,0.0135202,0.00460303,-0.826915,0.00793724,0.0141109,1000,484,-0.0378042,0.071682
-217,540,-0.0259399,-0.0891418,0.0101098,0.0114518,-0.00450172,0.0153323,0.00622935,-0.859383,0.00890376,0.0227824,1007,484,-0.0259128,0.0891319
-210,540,0.0128784,-0.153381,0.0116098,0.0134095,-0.00439622,0.016997,0.00802229,-0.886346,0.00981837,0.0365741,1014,484,0.0128902,0.153376
-203,540,-0.0180664,-0.150726,0.0132572,0.0154094,-0.00321671,0.0177253,0.0109414,-0.946812,0.0103271,0.0442015,1021,484,-0.0180702,0.150718
-196,540,-0.0465088,-0.331421,0.0139744,0.0169514,-0.00222607,0.0181408,0.012785,-1.0801,0.0107624,0.0441289,1028,484,-0.0464924,0.33142
-189,540,0.0258789,-0.461761,0.014023,0.0184976,-0.0015825,0.0190007,0.0135199,-1.26299,0.0112926,0.043384,1035,484,0.0259115,0.461757
-182,540,0.0880127,-0.542755,0.0134757,0.0188812,-0.000942903,0.0190409,0.0133159,-1.40296,0.0112807,0.0469081,1042,484,0.0880311,0.542748
-175,540,0.0174561,-0.784027,0.0128076,0.0189476,-0.000271987,0.0189596,0.0127955,-1.52661,0.0111673,0.0478263,1049,484,0.0174179,0.784042
-168,540,0.242188,-0.809174,0.0116192,0.0181771,0.000208403,0.0181837,0.0116126,1.53906,0.010632,0.0478014,1056,484,0.242141,0.809184
-161,540,0.19812,-0.699738,0.0102778,0.0177832,-0.000287293,0.0177942,0.0102668,-1.53259,0.010314,0.0438669,1063,484,0.198091,0.699727
-154,540,0.0882568,-0.511047,0.00777548,0.0156748,-0.000901925,0.0157765,0.00767381,-1.45854,0.00910967,0.0432406,1070,484,0.0882419,0.511033
-147,540,-0.0147705,-0.33313,0,0,0,0,0,0,0,-1,1077,484,-0.0147951,0.333143
-140,540,-0.206787,-0.646759,0,0,0,0,0,0,0,-1,1084,484,-0.206813,0.646768
-133,540,0.520386,-0.42981,-0.00116984,0.00923443,-0.00419775,0.0107169,-0.00265226,-1.23132,0.00817338,0.0463275,1091,484,0.520407,0.429811
-126,540,0.539429,-0.438263,0,0,0,0,0,0,0,-1,1098,484,0.539374,0.438252
-119,540,0.548462,-0.384613,-0.006269,0.00719087,-0.00670507,0.00996093,-0.00903906,-1.17902,0.010974,0.0459345,1105,484,0.548471,0.384623
-112,540,0.810791,-0.265106,-0.00782858,0.00988325,-0.00593445,0.0116878,-0.0096331,-1.2756,0.0123287,0.0465787,1112,484,0.810829,0.265098
-105,540,1.03259,-0.29245,0,0,0,0,0,0,0,-1,1119,484,1.03264,0.292444
-98,540,0.221313,-0.160522,0,0,0,0,0,0,0,-1,1126,484,0.221366,0.160529
-91,540,-0.163208,0.093689,0,0,0,0,0,0,0,-1,1133,484,-0.163231,-0.0936876
-84,540,0.556396,-1.62921,0,0,0,0,0,0,0,-1,1140,484,0.55639,1.6292
-77,540,0.387451,-1.61932,0,0,0,0,0,0,0,-1,1147,484,0.3875,1.61931
-70,540,0.120972,-1.3288,-0.0107313,0.0365126,0.0104364,0.0387153,-0.012934,1.36279,0.0310334,0.0417536,1154,484,0.120941,1.32879
-63,540,0.029541,-1.19189,-0.0105171,0.0428578,0.0135516,0.0461014,-0.0137606,1.33587,0.0362036,0.0405513,1161,484,0.0295437,1.19189
-56,540,-0.0543213,-0.715607,-0.0103564,0.0486983,0.0160449,0.052776,-0.0144342,1.32192,0.0408544,0.0434814,1168,484,-0.0542703,0.715612
-49,540,-0.187134,0.0375671,-0.00928454,0.0515311,0.018528,0.0567311,-0.0144846,1.29717,0.0434611,0.043422,1175,484,-0.187112,-0.0375726
-42,540,0,0,0,0,0,0,0,0,0,-1,1182,484,0,0
-35,540,0,0,0,0,0,0,0,0,0,-1,1189,484,0,0
-28,540,0,0,0,0,0,0,0,0,0,-1,1196,484,0,0
-21,540,0,0,0,0,0,0,0,0,0,-1,1203,484,0,0
-14,540,0,0,0,0,0,0,0,0,0,-1,1210,484,0,0
-7,540,0,0,0,0,0,0,0,0,0,-1,1217,484,0,0
0,540,0,0,0,0,0,0,0,0,0,-1,1224,484,0,0
7,540,0,0,0,0,0,0,0,0,0,-1,1231,484,0,0
14,540,0,0,0,0,0,0,0,0,0,-1,1238,484,0,0
21,540,0,0,0,0,0,0,0,0,0,-1,1245,484,0,0
28,540,0,0,0,0,0,0,0,0,0,-1,1252,484,0,0
35,540,0,0,0,0,0,0,0,0,0,-1,1259,484,0,0
42,540,0,0,0,0,0,0,0,0,0,-1,1266,484,0,0
49,540,0,0,0,0,0,0,0,0,0,-1,1273,484,0,0
56,540,0,0,0,0,0,0,0,0,0,-1,1280,484,0,0
63,540,0,0,0,0,0,0,0,0,0,-1,1287,484,0,0
70,540,0,0,0,0,0,0,0,0,0,-1,1294,484,0,0
77,540,0,0,0,0,0,0,0,0,0,-1,1301,484,0,0
84,540,0,0,0,0,0,0,0,0,0,-1,1308,484,0,0
91,540,0,0,0,0,0,0,0,0,0,-1,1315,484,0,0
98,540,0,0,0,0,0,0,0,0,0,-1,1322,484,0,0
105,540,0,0,0,0,0,0,0,0,0,-1,1329,484,0,0
112,540,0,0,0,0,0,0,0,0,0,-1,1336,484,0,0
119,540,0,0,0,0,0,0,0,0,0,-1,1343,484,0,0
126,540,0,0,0,0,0,0,0,0,0,-1,1350,484,0,0
133,540,0,0,0,0,0,0,0,0,0,-1,1357,484,0,0
140,540,0,0,0,0,0,0,0,0,0,-1,1364,484,0,0
147,540,0,0,0,0,0,0,0,0,0,-1,1371,484,0,0
154,540,0,0,0,0,0,0,0,0,0,-1,1378,484,0,0
161,540,0,0,0,0,0,0,0,0,0,-1,1385,484,0,0
168,540,0.249512,0.023407,0.00881019,0.0673643,0.00380639,0.0676107,0.00856378,1.50615,0.0425077,0.0467368,1392,484,0.249529,-0.0234039
175,540,0.168457,-0.113983,0.00986057,0.0674686,0.00685308,0.0682726,0.00905654,1.45401,0.0428167,0.0450158,1399,484,0.168445,0.113996
182,540,0.113403,-0.402802,0,0,0,0,0,0,0,-1,1406,484,0.113418,0.402807
189,540,0.114624,-0.633667,0,0,0,0,0,0,0,-1,1413,484,0.114628,0.633655
196,540,-0.127197,-0.744324,0,0,0,0,0,0,0,-1,1420,484,-0.127199,0.744311
203,540,-0.111084,-0.702057,0,0,0,0,0,0,0,-1,1427,484,-0.111136,0.70206
210,540,1.3374,-1.19022,0,0,0,0,0,0,0,-1,1434,484,1.33741,1.19022
217,540,0.122681,0.0701294,0.0191237,0.0221259,0.002237,0.0233188,0.0179308,1.08091,0.0140974,0.0442652,1441,484,0.122665,-0.0701319
224,540,0.0859375,0.0671692,0.0179031,0.00997391,-0.00496847,0.0202949,0.00758212,-0.448654,0.0118414,0.0448085,1448,484,0.0859636,-0.0671627
231,540,0.0900879,-0.0558472,0.0162651,0.000880937,-0.0106961,0.0217477,-0.00460175,-0.473667,0.0162511,0.0438484,1455,484,0.0900443,0.0558479
238,540,-0.0595703,-0.158966,0.0133898,0.000601983,-0.0127771,0.0212835,-0.00729172,-0.553407,0.0171445,0.0400655,1462,484,-0.0595801,0.158975
245,540,-0.0366211,0.0186768,0.00968701,-0.00100952,-0.013398,0.0187648,-0.0100873,-0.595497,0.016907,0.0419992,1469,484,-0.0365726,-0.018689
252,540,0.0775146,-0.0317078,0.00603166,-0.000380222,-0.013267,0.0164746,-0.0108232,-0.666847,0.0158726,0.0423457,1476,484,0.0775312,0.0317123
259,540,-0.0947266,0.670593,0,0,0,0,0,0,0,-1,1483,484,-0.0946725,-0.670584
266,540,-0.268799,0.11261,-0.000516664,0.00155382,-0.0115654,0.0121302,-0.0110931,-0.830035,0.0134124,0.0463835,1490,484,-0.268786,-0.112601
273,540,-0.198486,-0.180206,-0.00188277,0.00373983,-0.00958569,0.010918,-0.00906091,-0.928039,0.0115514,0.046907,1497,484,-0.198535,0.180207
280,540,-0.111328,-0.102997,0,0,0,0,0,0,0,-1,1504,484,-0.111328,0.102997
287,540,0.232544,0.535248,-0.00506575,0.00661581,-0.0048871,0.0083907,-0.00684064,-1.22243,0.00880899,0.0433027,1511,484,0.232488,-0.535253
294,540,0.494629,0.243134,-0.00626597,0.00744465,-0.00186874,0.00769479,-0.00651612,-1.43773,0.00821407,0.0464295,1518,484,0.494571,-0.24312
301,540,0.401733,0.105347,-0.00652494,0.00722998,0.000577706,0.0072542,-0.00654916,1.52889,0.00797284,0.0490239,1525,484,0.40169,-0.10535
308,540,0.101807,0.0495911,-0.00583733,0.00696586,0.00271372,0.0075173,-0.00638877,1.37032,0.00803748,0.0456502,1532,484,0.101771,-0.0495921
315,540,-0.237915,0.0027771,0,0,0,0,0,0,0,-1,1539,484,-0.237922,-0.00276749
322,540,0.446655,-0.224945,-0.00481937,0.00610551,0.00539393,0.00831983,-0.0070337,1.18125,0.00887473,0.0441824,1546,484,0.446652,0.224956
329,540,0.287109,0.0408936,-0.0049202,0.00520069,0.00603395,0.00801531,-0.00773482,1.13434,0.00909383,0.0430691,1553,484,0.287166,-0.0408949
336,540,0.108154,-0.0181274,-0.00432897,0.00388093,0.00624589,0.00725005,-0.00769809,1.07612,0.0086316,0.0409921,1560,484,0.108195,0.0181158
343,540,0.154297,-0.0510559,-0.00382533,0.00377594,0.00570015,0.00682633,-0.00687573,1.07943,0.0079109,0.0376644,1567,484,0.154323,0.0510509
350,540,0.0838623,-0.0421448,-0.00347757,0.00271202,0.00495075,0.0054557,-0.00622125,1.06474,0.00674651,0.0284015,1574,484,0.0838308,0.0421566
357,540,-0.0289307,-0.0487366,-0.00269483,0.00191983,0.00438456,0.0045671,-0.00534211,1.02761,0.00572691,0.0164884,1581,484,-0.0289501,0.0487343
364,540,-0.0498047,-0.0613098,-0.00180342,0.00244918,0.00409018,0.00493273,-0.00428697,1.0251,0.00532734,0.00966788,1588,484,-0.0498657,0.0613148
371,540,-0.0599365,-0.0544739,-0.00145971,0.00248386,0.00364085,0.00465258,-0.00362843,1.03357,0.00479321,0.00969645,1595,484,-0.0599949,0.054468
378,540,-0.0606689,-0.0609131,-0.00126661,0.00235431,0.00308293,0.00411908,-0.00303138,1.05089,0.00414421,0.0107179,1602,484,-0.0606567,0.0609253
385,540,-0.0325928,-0.0709229,-0.000959363,0.00235942,0.0026946,0.00386459,-0.00246453,1.06138,0.0036838,0.0129598,1609,484,-0.0325983,0.0709106
392,540,-0.0321045,-0.0586548,-0.000772692,0.00196837,0.00239118,0.00335394,-0.00215826,1.04562,0.00320733,0.0118909,1616,484,-0.0320627,0.0586664
399,540,-0.0328369,-0.0473022,-0.000349592,0.00173579,0.00201431,0.00296128,-0.00157509,1.02423,0.00265952,0.0154922,1623,484,-0.0328575,0.0473117
406,540,-0.0405273,-0.059906,-0.000145001,0.0011718,0.00169897,0.00233548,-0.00130868,0.970253,0.00213161,0.0155819,1630,484,-0.0404946,0.0599042
413,540,-0.0423584,-0.0749817,-0.000240845,0.000907331,0.00143524,0.00187904,-0.00121256,0.975649,0.00179871,0.0111485,1637,484,-0.0423083,0.07499
420,540,-0.0426025,-0.0652771,-0.000323111,0.000677452,0.00136273,0.00162883,-0.00127449,0.961318,0.00168039,0.00919406,1644,484,-0.0426214,0.065274
427,540,-0.0336914,-0.0689087,-9.1586e-05,0.000606742,0.0013807,0.00168174,-0.00116658,0.909246,0.00165342,0.00961281,1651,484,-0.0336376,0.06891
434,540,-0.0203857,-0.06073,0.000240691,0.000798837,0.00135571,0.0019039,-0.000864376,0.886905,0.0016354,0.0133073,1658,484,-0.0204023,0.0607326
441,540,-0.00598145,-0.0653687,0.000484718,0.000992179,0.00139402,0.00215537,-0.00067847,0.87542,0.00170858,0.0174475,1665,484,-0.00599543,0.0653726
448,540,-0.0268555,-0.0830383,0.000710144,0.00116182,0.00148116,0.00243426,-0.000562293,0.861053,0.00183915,0.0111692,1672,484,-0.0268797,0.0830447
455,540,-0.0155029,-0.0717773,0.000879783,0.00135916,0.00161523,0.00275239,-0.000513446,0.859057,0.00202786,0.00997532,1679,484,-0.0154674,0.0717775
462,540,-0.0305176,-0.0777893,0.001107,0.0015488,0.00168348,0.0030258,-0.000370012,0.850634,0.00215117,0.00960691,1686,484,-0.030497,0.0777794
469,540,-0.0469971,-0.103302,0.00208588,0.00184317,0.00228352,0.00425127,-0.000322225,0.758851,0.00294746,0.0116674,1693,484,-0.0470577,0.103316
476,540,-0.0543213,-0.113037,0.00429685,0.00240266,0.00350124,0.00697684,-0.000277322,0.653308,0.00474637,0.0137894,1700,484,-0.0543389,0.113042
483,540,-0.0649414,-0.092041,0.00632046,0.00294561,0.00454762,0.00948363,-0.000217558,0.607744,0.00639617,0.0201012,1707,484,-0.0649718,0.0920492
490,540,0.010376,-0.0690613,0.00941587,0.00232757,0.00606736,0.0128984,-0.00115493,0.521062,0.00900861,0.0345695,1714,484,0.0104115,0.0690734
497,540,-0.0427246,0.0673523,0.0131103,0.0024961,0.00800508,0.0174077,-0.00180131,0.49268,0.0122498,0.0450995,1721,484,-0.04269,-0.0673548
504,540,-0.229126,-0.0798645,0,0,0,0,0,0,0,-1,1728,484,-0.229156,0.0798742
511,540,-0.0709229,-0.197418,0,0,0,0,0,0,0,-1,1735,484,-0.0709199,0.19743
518,540,-0.922363,-0.839294,0.0266895,0.00210208,0.01571,0.0343442,-0.00555262,0.453396,0.0249538,0.0461373,1742,484,-0.922338,0.839291
525,540,-0.367065,-0.0355225,0.0320087,0.0006128,0.018528,0.0405947,-0.00797321,0.433948,0.0300753,0.0467424,1749,484,-0.36711,0.0355314
532,540,0.204468,0.786926,0,0,0,0,0,0,0,-1,1756,484,0.204514,-0.786915
539,540,0,0,0,0,0,0,0,0,0,-1,1763,484,0,0
546,540,0,0,0,0,0,0,0,0,0,-1,1770,484,0,0
553,540,0,0,0,0,0,0,0,0,0,-1,1777,484,0,0
560,540,0,0,0,0,0,0,0,0,0,-1,1784,484,0,0
567,540,0,0,0,0,0,0,0,0,0,-1,1791,484,0,0
574,540,0,0,0,0,0,0,0,0,0,-1,1798,484,0,0
581,540,0,0,0,0,0,0,0,0,0,-1,1805,484,0,0
588,540,0,0,0,0,0,0,0,0,0,-1,1812,484,0,0
595,540,0,0,0,0,0,0,0,0,0,-1,1819,484,0,0
602,540,0,0,0,0,0,0,0,0,0,-1,1826,484,0,0
609,540,0,0,0,0,0,0,0,0,0,-1,1833,484,0,0
616,540,0,0,0,0,0,0,0,0,0,-1,1840,484,0,0
623,540,0,0,0,0,0,0,0,0,0,-1,1847,484,0,0
630,540,0,0,0,0,0,0,0,0,0,-1,1854,484,0,0
637,540,0,0,0,0,0,0,0,0,0,-1,1861,484,0,0
644,540,0,0,0,0,0,0,0,0,0,-1,1868,484,0,0
651,540,0,0,0,0,0,0,0,0,0,-1,1875,484,0,0
658,540,0,0,0,0,0,0,0,0,0,-1,1882,484,0,0
665,540,0,0,0,0,0,0,0,0,0,-1,1889,484,0,0
672,540,0,0,0,0,0,0,0,0,0,-1,1896,484,0,0
679,540,0,0,0,0,0,0,0,0,0,-1,1903,484,0,0
686,540,0,0,0,0,0,0,0,0,0,-1,1910,484,0,0
693,540,0,0,0,0,0,0,0,0,0,-1,1917,484,0,0
700,540,0,0,0,0,0,0,0,0,0,-1,1924,484,0,0
707,540,0,0,0,0,0,0,0,0,0,-1,1931,484,0,0
714,540,0,0,0,0,0,0,0,0,0,-1,1938,484,0,0
721,540,0,0,0,0,0,0,0,0,0,-1,1945,484,0,0
728,540,0,0,0,0,0,0,0,0,0,-1,1952,484,0,0
735,540,0,0,0,0,0,0,0,0,0,-1,1959,484,0,0
742,540,0,0,0,0,0,0,0,0,0,-1,1966,484,0,0
749,540,0,0,0,0,0,0,0,0,0,-1,1973,484,0,0
756,540,0,0,0,0,0,0,0,0,0,-1,1980,484,0,0
763,540,0,0,0,0,0,0,0,0,0,-1,1987,484,0,0
770,540,0,0,0,0,0,0,0,0,0,-1,1994,484,0,0
777,540,0,0,0,0,0,0,0,0,0,-1,2001,484,0,0
784,540,0,0,0,0,0,0,0,0,0,-1,2008,484,0,0
791,540,0,0,0,0,0,0,0,0,0,-1,2015,484,0,0
798,540,0,0,0,0,0,0,0,0,0,-1,2022,484,0,0
805,540,0,0,0,0,0,0,0,0,0,-1,2029,484,0,0
812,540,0,0,0,0,0,0,0,0,0,-1,2036,484,0,0
-700,533,0,0,0,0,0,0,0,0,0,-1,524,491,0,0
-693,533,0,0,0,0,0,0,0,0,0,-1,531,491,0,0
-686,533,0,0,0,0,0,0,0,0,0,-1,538,491,0,0
-679,533,0,0,0,0,0,0,0,0,0,-1,545,491,0,0
-672,533,0,0,0,0,0,0,0,0,0,-1,552,491,0,0
-665,533,0,0,0,0,0,0,0,0,0,-1,559,491,0,0
-658,533,0,0,0,0,0,0,0,0,0,-1,566,491,0,0
-651,533,0,0,0,0,0,0,0,0,0,-1,573,491,0,0
-644,533,0,0,0,0,0,0,0,0,0,-1,580,491,0,0
-637,533,0,0,0,0,0,0,0,0,0,-1,587,491,0,0
-630,533,0,0,0,0,0,0,0,0,0,-1,594,491,0,0
-623,533,0,0,0,0,0,0,0,0,0,-1,601,491,0,0
-616,533,0,0,0,0,0,0,0,0,0,-1,608,491,0,0
-609,533,0,0,0,0,0,0,0,0,0,-1,615,491,0,0
-602,533,0,0,0,0,0,0,0,0,0,-1,622,491,0,0
-595,533,0,0,0,0,0,0,0,0,0,-1,629,491,0,0
-588,533,0,0,0,0,0,0,0,0,0,-1,636,491,0,0
-581,533,0,0,0,0,0,0,0,0,0,-1,643,491,0,0
-574,533,0,0,0,0,0,0,0,0,0,-1,650,491,0,0
-567,533,0,0,0,0,0,0,0,0,0,-1,657,491,0,0
-560,533,0,0,0,0,0,0,0,0,0,-1,664,491,0,0
-553,533,0,0,0,0,0,0,0,0,0,-1,671,491,0,0
-546,533,0,0,0,0,0,0,0,0,0,-1,678,491,0,0
-539,533,0,0,0,0,0,0,0,0,0,-1,685,491,0,0
-532,533,0,0,0,0,0,0,0,0,0,-1,692,491,0,0
-525,533,0,0,0,0,0,0,0,0,0,-1,699,491,0,0
-518,533,0,0,0,0,0,0,0,0,0,-1,706,491,0,0
-511,533,0,0,0,0,0,0,0,0,0,-1,713,491,0,0
-504,533,0,0,0,0,0,0,0,0,0,-1,720,491,0,0
-497,533,0,0,0,0,0,0,0,0,0,-1,727,491,0,0
-490,533,0,0,0,0,0,0,0,0,0,-1,734,491,0,0
-483,533,0,0,0,0,0,0,0,0,0,-1,741,491,0,0
-476,533,0,0,0,0,0,0,0,0,0,-1,748,491,0,0
-469,533,0,0,0,0,0,0,0,0,0,-1,755,491,0,0
-462,533,0,0,0,0,0,0,0,0,0,-1,762,491,0,0
-455,533,0,0,0,0,0,0,0,0,0,-1,769,491,0,0
-448,533,0,0,0,0,0,0,0,0,0,-1,776,491,0,0
-441,533,0,0,0,0,0,0,0,0,0,-1,783,491,0,0
-434,533,0,0,0,0,0,0,0,0,0,-1,790,491,0,0
-427,533,-0.32843,0.603668,0,0,0,0,0,0,0,-1,797,491,-0.328411,-0.603671
-420,533,-5.91919,-1.15921,0,0,0,0,0,0,0,-1,804,491,-5.91921,1.1592
-413,533,-4.61133,-2.6373,0,0,0,0,0,0,0,-1,811,491,-4.61136,2.63729
-406,533,-3.67358,-2.21747,0.0577968,0.0463431,0.0258439,0.0785408,0.0255991,0.676363,0.0462524,0.045184,818,491,-3.67359,2.21748
-399,533,-2.75244,-1.60928,0.0510268,0.0352335,0.0213372,0.0658817,0.0203786,0.60817,0.0389479,0.0414357,825,491,-2.75241,1.60928
-392,533,-1.79443,-1.12982,0.044457,0.0263822,0.0173103,0.0549471,0.0158921,0.544821,0.0326498,0.0438094,832,491,-1.79441,1.12983
-385,533,-0.957886,-0.718842,0.0399911,0.0178464,0.0131638,0.04612,0.0117175,0.435739,0.0276802,0.0466437,839,491,-0.9579,0.718839
-378,533,-0.662415,-0.122986,0.0354616,0.0137755,0.011261,0.0402512,0.00898582,0.402152,0.0243969,0.0472694,846,491,-0.66243,0.122995
-371,533,-0.45166,0.0995483,0.0308399,0.0106329,0.00910263,0.0343356,0.00713718,0.366667,0.0209211,0.0430984,853,491,-0.451657,-0.0995481
-364,533,-0.121033,0.0634766,0.0269195,0.00844403,0.00743857,0.0295421,0.00582141,0.338963,0.0180696,0.0323812,860,491,-0.121003,-0.063466
-357,533,-0.0171509,-0.0508118,0.0229674,0.00664555,0.00568052,0.0247498,0.00486318,0.304039,0.0151414,0.0162777,867,491,-0.0171265,0.0508067
-350,533,-0.0224609,-0.0777588,0.0182372,0.0043069,0.00405373,0.019331,0.00321314,0.26354,0.011961,0.00910434,874,491,-0.0224346,0.0777717
-343,533,-0.00250244,-0.0879211,0.0135084,0.00335162,0.00194516,0.0138682,0.00299184,0.182895,0.00842709,0.00976484,881,491,-0.00252244,0.0879084
-336,533,-0.0223389,-0.100891,0.0101146,0.00300268,0.000408682,0.010138,0.00297928,0.0572133,0.0060167,0.0140627,888,491,-0.0223112,0.100893
-329,533,-0.0214233,-0.0655518,0.00766429,0.003106,-0.000180047,0.00767139,0.0030989,-0.039417,0.00445623,0.0123581,895,491,-0.0214036,0.065564
-322,533,-0.0239258,-0.0689697,0.00554084,0.00310055,-0.000360792,0.00559307,0.00304833,-0.143752,0.00323352,0.0100385,902,491,-0.0239409,0.0689614
-315,533,-0.024292,-0.0734863,0.00388358,0.0026594,-0.000246195,0.00393124,0.00261174,-0.191209,0.00231022,0.0109838,909,491,-0.0242829,0.0734746
-308,533,-0.0253906,-0.0549622,0.00274368,0.00238076,-0.00029478,0.00290838,0.00221607,-0.5095,0.00175429,0.0102537,916,491,-0.0253813,0.0549571
-301,533,-0.0418701,-0.0584412,0.00233758,0.0021257,-0.000591107,0.00283217,0.00163111,-0.696726,0.00164142,0.0107142,923,491,-0.0418823,0.0584366
-294,533,-0.0410156,-0.0620117,0.0020768,0.00184676,-0.000774415,0.00274469,0.00117887,-0.711674,0.00158989,0.0100742,930,491,-0.0410201,0.0620217
-287,533,-0.0259399,-0.0724182,0.00207447,0.00171072,-0.00104646,0.00295475,0.000830443,-0.699357,0.0017596,0.0080692,937,491,-0.0259326,0.0724124
-280,533,-0.0199585,-0.0842896,0.0027533,0.00200241,-0.00163928,0.00405958,0.00069613,-0.672825,0.00250677,0.00775649,944,491,-0.0199314,0.0842866
-273,533,-0.0256958,-0.0824585,0.00363315,0.00238745,-0.00252401,0.00561002,0.000410574,-0.66443,0.00361094,0.0103947,951,491,-0.0256805,0.0824713
-266,533,-0.0272217,-0.075592,0.00436021,0.00224979,-0.00327868,0.0067493,-0.000139295,-0.629713,0.00454668,0.00941956,958,491,-0.0272407,0.075599
-259,533,-0.024353,-0.0858765,0.00510779,0.00253479,-0.00419031,0.00820464,-0.000562064,-0.636457,0.00566642,0.00960215,965,491,-0.0243261,0.0858902
-252,533,-0.0252686,-0.0891113,0.00636573,0.00307128,-0.0050988,0.0100768,-0.000639773,-0.629159,0.00694095,0.0115834,972,491,-0.0252481,0.089125
-245,533,-0.0205078,-0.0731506,0.00729775,0.00360227,-0.00597707,0.0117062,-0.00080615,-0.635489,0.00808624,0.0148454,979,491,-0.020486,0.0731608
-238,533,-0.0134277,-0.0735474,0.0082296,0.00513903,-0.00648021,0.0133462,2.2403e-05,-0.668353,0.00889003,0.0167628,986,491,-0.0134455,0.0735494
-231,533,0.000549316,-0.0836182,0.00935967,0.00786193,-0.00620714,0.014863,0.00235865,-0.725365,0.0092235,0.0255111,993,491,0.000535186,0.0836111
-224,533,0.0467529,-0.0656738,0.0106674,0.0105622,-0.00586344,0.0164785,0.00475116,-0.780912,0.00979394,0.0311992,1000,491,0.046755,0.0656612
-217,533,0.0775757,-0.156982,0.0122017,0.0131096,-0.00574183,0.0184154,0.00689589,-0.824847,0.0107433,0.0342525,1007,491,0.0775568,0.156968
-210,533,0.0578613,-0.227966,0,0,0,0,0,0,0,-1,1014,491,0.0578659,0.227954
-203,533,-0.0182495,-0.185059,0,0,0,0,0,0,0,-1,1021,491,-0.0182772,0.18505
-196,533,-0.298584,-0.419495,0,0,0,0,0,0,0,-1,1028,491,-0.298595,0.419507
-189,533,-0.019165,-0.926941,0.016577,0.0227436,-0.000914888,0.0228765,0.0164442,-1.42657,0.0136229,0.0471776,1035,491,-0.0192076,0.926947
-182,533,0.15979,-0.946289,0.016228,0.0235502,0.000183288,0.0235548,0.0162235,1.54579,0.0139186,0.0467835,1042,491,0.159818,0.946299
-175,533,-0.0172119,-0.581573,0.0155378,0.0237401,0.00143993,0.0239855,0.0152924,1.40197,0.0140217,0.0465566,1049,491,-0.0172217,0.581563
-168,533,0.327393,-0.593323,0.0140185,0.0228348,0.00211211,0.0233146,0.0135386,1.34739,0.013519,0.0434476,1056,491,0.327342,0.59332
-161,533,0.48645,-0.537109,0,0,0,0,0,0,0,-1,1063,491,0.486509,0.53711
-154,533,-0.169189,0.391144,0,0,0,0,0,0,0,-1,1070,491,-0.16915,-0.391139
-147,533,0.761108,0.393402,0.00357764,0.0151885,-0.000359646,0.0151997,0.00356651,-1.53986,0.00917823,0.0413595,1077,491,0.761055,-0.393404
-140,533,0.563721,0.270782,-5.50967e-05,0.0123725,-0.00172225,0.0126067,-0.000289357,-1.43561,0.00850258,0.0449636,1084,491,0.563711,-0.270778
-133,533,0.296021,-0.142883,-0.00326138,0.00892463,-0.00348992,0.00985332,-0.00419007,-1.31072,0.00832482,0.0456367,1091,491,0.29608,0.142876
-126,533,0.654175,-0.368439,0,0,0,0,0,0,0,-1,1098,491,0.654154,0.368453
-119,533,0.687744,-0.326447,0,0,0,0,0,0,0,-1,1105,491,0.687802,0.326441
-112,533,1.02234,-0.168274,0,0,0,0,0,0,0,-1,1112,491,1.02238,0.16828
-105,533,-0.0352783,-0.0561218,0,0,0,0,0,0,0,-1,1119,491,-0.0352207,0.0561147
-98,533,-0.0576172,0.18161,0,0,0,0,0,0,0,-1,1126,491,-0.0576237,-0.181624
-91,533,-0.265625,0.322418,0,0,0,0,0,0,0,-1,1133,491,-0.26562,-0.322403
-84,533,-0.152222,0.202576,0,0,0,0,0,0,0,-1,1140,491,-0.152249,-0.202578
-77,533,0,0,0,0,0,0,0,0,0,-1,1147,491,0,0
-70,533,0,0,0,0,0,0,0,0,0,-1,1154,491,0,0
-63,533,0,0,0,0,0,0,0,0,0,-1,1161,491,0,0
-56,533,0,0,0,0,0,0,0,0,0,-1,1168,491,0,0
-49,533,0,0,0,0,0,0,0,0,0,-1,1175,491,0,0
-42,533,0,0,0,0,0,0,0,0,0,-1,1182,491,0,0
-35,533,0,0,0,0,0,0,0,0,0,-1,1189,491,0,0
-28,533,0,0,0,0,0,0,0,0,0,-1,1196,491,0,0
-21,533,0,0,0,0,0,0,0,0,0,-1,1203,491,0,0
-14,533,0,0,0,0,0,0,0,0,0,-1,1210,491,0,0
-7,533,0,0,0,0,0,0,0,0,0,-1,1217,491,0,0
0,533,0,0,0,0,0,0,0,0,0,-1,1224,491,0,0
7,533,0,0,0,0,0,0,0,0,0,-1,1231,491,0,0
14,533,0,0,0,0,0,0,0,0,0,-1,1238,491,0,0
21,533,0,0,0,0,0,0,0,0,0,-1,1245,491,0,0
28,533,0,0,0,0,0,0,0,0,0,-1,1252,491,0,0
35,533,0,0,0,0,0,0,0,0,0,-1,1259,491,0,0
42,533,0,0,0,0,0,0,0,0,0,-1,1266,491,0,0
49,533,0,0,0,0,0,0,0,0,0,-1,1273,491,0,0
56,533,0,0,0,0,0,0,0,0,0,-1,1280,491,0,0
63,533,0,0,0,0,0,0,0,0,0,-1,1287,491,0,0
70,533,0,0,0,0,0,0,0,0,0,-1,1294,491,0,0
77,533,0,0,0,0,0,0,0,0,0,-1,1301,491,0,0
84,533,0,0,0,0,0,0,0,0,0,-1,1308,491,0,0
91,533,0,0,0,0,0,0,0,0,0,-1,1315,491,0,0
98,533,0,0,0,0,0,0,0,0,0,-1,1322,491,0,0
105,533,0,0,0,0,0,0,0,0,0,-1,1329,491,0,0
112,533,0,0,0,0,0,0,0,0,0,-1,1336,491,0,0
119,533,0,0,0,0,0,0,0,0,0,-1,1343,491,0,0
126,533,0,0,0,0,0,0,0,0,0,-1,1350,491,0,0
133,533,0,0,0,0,0,0,0,0,0,-1,1357,491,0,0
140,533,0,0,0,0,0,0,0,0,0,-1,1364,491,0,0
147,533,0,0,0,0,0,0,0,0,0,-1,1371,491,0,0
154,533,0,0,0,0,0,0,0,0,0,-1,1378,491,0,0
161,533,0,0,0,0,0,0,0,0,0,-1,1385,491,0,0
168,533,0,0,0,0,0,0,0,0,0,-1,1392,491,0,0
175,533,0,0,0,0,0,0,0,0,0,-1,1399,491,0,0
182,533,0,0,0,0,0,0,0,0,0,-1,1406,491,0,0
189,533,0,0,0,0,0,0,0,0,0,-1,1413,491,0,0
196,533,0,0,0,0,0,0,0,0,0,-1,1420,491,0,0
203,533,-0.246582,-0.526306,0,0,0,0,0,0,0,-1,1427,491,-0.246553,0.526317
210,533,-0.351563,-0.158081,0,0,0,0,0,0,0,-1,1434,491,-0.351573,0.158083
217,533,-0.17334,0.0206299,0.0189632,0.0219703,0.00543007,0.0261011,0.0148324,0.920463,0.0151162,0.0404276,1441,491,-0.173325,-0.0206408
224,533,-0.263428,0.113525,0.0177795,0.00791618,-0.00312511,0.0186863,0.00700938,-0.28241,0.0109001,0.0394785,1448,491,-0.26338,-0.113521
231,533,-0.25415,0.17337,0.0159974,-0.0034985,-0.00986628,0.020119,-0.00762016,-0.395716,0.0165483,0.041305,1455,491,-0.254171,-0.173381
238,533,-0.323608,0.0575256,0.0124417,-0.00373997,-0.0127199,0.0194259,-0.0107242,-0.502135,0.0176472,0.0405358,1462,491,-0.323586,-0.05753
245,533,0.397583,0.44162,0.00809088,-0.00444067,-0.013935,0.017104,-0.0134538,-0.57412,0.0176845,0.04291,1469,491,0.397612,-0.441632
252,533,0.239746,-0.0410156,0.00405517,-0.00207927,-0.0139882,0.0153084,-0.0133325,-0.67747,0.016549,0.0420134,1476,491,0.239783,0.0410182
259,533,0.0693359,0.506989,0,0,0,0,0,0,0,-1,1483,491,0.0692899,-0.506984
266,533,-0.1521,0.233276,-0.00343298,0.00280318,-0.0126997,0.012762,-0.0133918,-0.905779,0.0151014,0.0474874,1490,491,-0.152144,-0.233272
273,533,-0.367188,-0.0444641,-0.00409344,0.00586267,-0.0100266,0.012079,-0.0103098,-1.01581,0.0129396,0.0449099,1497,491,-0.367221,0.0444555
280,533,-0.641357,-0.253998,-0.00499264,0.0070799,-0.00702529,0.010306,-0.00821873,-1.14031,0.0107179,0.0421477,1504,491,-0.641388,0.254009
287,533,-0.951294,-0.515442,0,0,0,0,0,0,0,-1,1511,491,-0.951327,0.515446
294,533,0.0759277,-0.477966,-0.0075163,0.00926143,-2.04094e-05,0.00926145,-0.00751632,-1.56958,0.0097041,0.045494,1518,491,0.0759578,0.477981
301,533,0.498901,0.328491,-0.00736962,0.00816307,0.00281592,0.00865781,-0.00786436,1.39688,0.00954274,0.0455483,1525,491,0.498918,-0.328496
308,533,0.123657,0.230011,-0.00601386,0.00780161,0.00506053,0.00945692,-0.00766917,1.25466,0.0099057,0.045558,1532,491,0.123642,-0.230003
315,533,-0.312256,0.0948181,0,0,0,0,0,0,0,-1,1539,491,-0.312212,-0.0948059
322,533,0.790649,-0.190338,-0.00425294,0.00627019,0.00790661,0.0105059,-0.00848867,1.07898,0.0109871,0.0436608,1546,491,0.790635,0.190351
329,533,0.682739,0.503967,-0.00438596,0.00516265,0.00856379,0.0101931,-0.00941637,1.03969,0.0113245,0.0423031,1553,491,0.6828,-0.503978
336,533,0.498413,0.94519,0,0,0,0,0,0,0,-1,1560,491,0.49838,-0.94518
343,533,0.239014,-0.140442,-0.00342894,0.00365934,0.00780465,0.00868686,-0.00845646,0.99853,0.009898,0.0453119,1567,491,0.239053,0.140451
350,533,0.109497,-0.122375,-0.00313489,0.00258383,0.00677515,0.00707829,-0.00762934,0.985077,0.00849344,0.0429466,1574,491,0.109442,0.122388
357,533,-0.0389404,-0.0934753,-0.00234827,0.00186448,0.00600652,0.00612326,-0.00660705,0.954039,0.00735161,0.0326879,1581,491,-0.0389386,0.093487
364,533,-0.0871582,-0.0881958,-0.0014776,0.00266884,0.0056016,0.00656857,-0.00537733,0.962638,0.00690839,0.0225885,1588,491,-0.087178,0.0882073
371,533,-0.059082,-0.0661011,-0.00120599,0.00287031,0.00506011,0.00628731,-0.004623,0.976852,0.00632346,0.0168911,1595,491,-0.0590507,0.0661056
378,533,-0.039917,-0.0573425,-0.00110275,0.00283727,0.00440965,0.00569695,-0.00396244,0.995472,0.00560674,0.0130753,1602,491,-0.0398974,0.0573493
385,533,-0.0375977,-0.0644531,-0.000842853,0.00291219,0.00390274,0.00536555,-0.00329621,1.0096,0.00504821,0.0156117,1609,491,-0.0375644,0.0644537
392,533,-0.0552979,-0.0656433,-0.000658219,0.00247192,0.00340873,0.0046577,-0.002844,1.00061,0.0043731,0.0128394,1616,491,-0.0552555,0.0656485
399,533,-0.0633545,-0.0786438,-0.000260345,0.0019502,0.00284384,0.003896,-0.00220615,0.970742,0.00356783,0.0111756,1623,491,-0.0634083,0.078654
406,533,-0.0664063,-0.0947266,-6.42244e-05,0.00134852,0.00230855,0.00305635,-0.00177205,0.933866,0.00282036,0.0133457,1630,491,-0.0663874,0.0947263
413,533,-0.0604248,-0.0806274,-0.000212049,0.000832997,0.00184438,0.00222744,-0.0016065,0.923434,0.00222318,0.0109705,1637,491,-0.0604296,0.0806416
420,533,-0.0522461,-0.0740967,-0.000363862,0.000432076,0.00151397,0.00159951,-0.00153129,0.913923,0.00180771,0.00924505,1644,491,-0.0522464,0.0740893
427,533,-0.0375977,-0.0551147,-0.000112232,0.000226154,0.00124624,0.00131464,-0.00120072,0.852867,0.00145274,0.010701,1651,491,-0.037598,0.0551197
434,533,-0.0377197,-0.0566101,0.000231468,0.000210464,0.000958144,0.00117917,-0.000737235,0.779918,0.0011162,0.0122795,1658,491,-0.0377321,0.0566007
441,533,-0.038208,-0.075531,0.000481951,0.000264116,0.000772596,0.00115327,-0.000407202,0.715372,0.000934631,0.0141406,1665,491,-0.0381535,0.0755399
448,533,-0.0321045,-0.0891724,0.000668169,0.000379567,0.000715267,0.00125355,-0.00020581,0.685862,0.000912074,0.0152835,1672,491,-0.0320611,0.089171
455,533,-0.0202637,-0.0622864,0.000745681,0.000511684,0.00077155,0.00140905,-0.000151688,0.710151,0.000993797,0.0153213,1679,491,-0.0202855,0.0622829
462,533,-0.0285645,-0.0667725,0.000856924,0.000632709,0.000808694,0.00156124,-7.16114e-05,0.716523,0.0010655,0.0141987,1686,491,-0.0285067,0.0667636
469,533,-0.0316162,-0.0995178,0.00160252,0.000861023,0.00131231,0.00259545,-0.0001319,0.647727,0.0017759,0.00923163,1693,491,-0.0316018,0.0995226
476,533,-0.0402832,-0.103638,0.00341233,0.0013413,0.00232832,0.00492503,-0.000171397,0.57616,0.00334195,0.00894349,1700,491,-0.0403109,0.103646
483,533,-0.0452881,-0.0933533,0.0049726,0.00177565,0.0031424,0.00689971,-0.000151471,0.550115,0.00465112,0.0099877,1707,491,-0.045325,0.0933419
490,533,0.0057373,-0.0769348,0.00741491,0.00115592,0.0043483,0.00964279,-0.00107195,0.473484,0.00681401,0.0224041,1714,491,0.00570639,0.0769288
497,533,-0.0466309,-0.0895691,0.0102875,0.00133393,0.00590109,0.0132177,-0.00159635,0.460896,0.00938928,0.0387356,1721,491,-0.04664,0.0895637
504,533,-0.107056,-0.105377,0.0133753,0.000838679,0.00788916,0.0171832,-0.00296924,0.449694,0.0125628,0.040337,1728,491,-0.107117,0.105371
511,533,-0.0446777,-0.187683,0.0166201,0.00135058,0.00966129,0.0212992,-0.00332848,0.451017,0.0154291,0.0427258,1735,491,-0.0446861,0.18768
518,533,-1.21375,-1.33527,0,0,0,0,0,0,0,-1,1742,491,-1.21372,1.33527
525,533,-0.539551,-0.256561,0.0244875,-0.000499959,0.0130423,0.0300547,-0.0060671,0.403438,0.0223352,0.0431236,1749,491,-0.539567,0.256553
532,533,0.383545,0.6586,0,0,0,0,0,0,0,-1,1756,491,0.383581,-0.658614
539,533,-0.036377,-0.1651,0.0307128,-0.00429731,0.0156363,0.0366795,-0.010264,0.364536,0.0284972,0.0460504,1763,491,-0.0363787,0.165089
546,533,0.228638,0.262543,0.0324362,-0.00628155,0.0150109,0.0375741,-0.0114195,0.329781,0.0295995,0.0461042,1770,491,0.228677,-0.262529
553,533,0,0,0,0,0,0,0,0,0,-1,1777,491,0,0
560,533,0,0,0,0,0,0,0,0,0,-1,1784,491,0,0
567,533,0,0,0,0,0,0,0,0,0,-1,1791,491,0,0
574,533,0,0,0,0,0,0,0,0,0,-1,1798,491,0,0
581,533,0,0,0,0,0,0,0,0,0,-1,1805,491,0,0
588,533,0,0,0,0,0,0,0,0,0,-1,1812,491,0,0
595,533,0,0,0,0,0,0,0,0,0,-1,1819,491,0,0
602,533,0,0,0,0,0,0,0,0,0,-1,1826,491,0,0
609,533,0,0,0,0,0,0,0,0,0,-1,1833,491,0,0
616,533,0,0,0,0,0,0,0,0,0,-1,1840,491,0,0
623,533,0,0,0,0,0,0,0,0,0,-1,1847,491,0,0
630,533,0,0,0,0,0,0,0,0,0,-1,1854,491,0,0
637,533,0,0,0,0,0,0,0,0,0,-1,1861,491,0,0
644,533,0,0,0,0,0,0,0,0,0,-1,1868,491,0,0
651,533,0,0,0,0,0,0,0,0,0,-1,1875,491,0,0
658,533,0,0,0,0,0,0,0,0,0,-1,1882,491,0,0
665,533,0,0,0,0,0,0,0,0,0,-1,1889,491,0,0
672,533,0,0,0,0,0,0,0,0,0,-1,1896,491,0,0
679,533,0,0,0,0,0,0,0,0,0,-1,1903,491,0,0
686,533,0,0,0,0,0,0,0,0,0,-1,1910,491,0,0
693,533,0,0,0,0,0,0,0,0,0,-1,1917,491,0,0
700,533,0,0,0,0,0,0,0,0,0,-1,1924,491,0,0
707,533,0,0,0,0,0,0,0,0,0,-1,1931,491,0,0
714,533,0,0,0,0,0,0,0,0,0,-1,1938,491,0,0
721,533,0,0,0,0,0,0,0,0,0,-1,1945,491,0,0
728,533,0,0,0,0,0,0,0,0,0,-1,1952,491,0,0
735,533,0,0,0,0,0,0,0,0,0,-1,1959,491,0,0
742,533,0,0,0,0,0,0,0,0,0,-1,1966,491,0,0
749,533,0,0,0,0,0,0,0,0,0,-1,1973,491,0,0
756,533,0,0,0,0,0,0,0,0,0,-1,1980,491,0,0
763,533,0,0,0,0,0,0,0,0,0,-1,1987,491,0,0
770,533,0,0,0,0,0,0,0,0,0,-1,1994,491,0,0
777,533,0,0,0,0,0,0,0,0,0,-1,2001,491,0,0
784,533,0,0,0,0,0,0,0,0,0,-1,2008,491,0,0
791,533,0,0,0,0,0,0,0,0,0,-1,2015,491,0,0
798,533,0,0,0,0,0,0,0,0,0,-1,2022,491,0,0
805,533,0,0,0,0,0,0,0,0,0,-1,2029,491,0,0
812,533,0,0,0,0,0,0,0,0,0,-1,2036,491,0,0
-700,526,0,0,0,0,0,0,0,0,0,-1,524,498,0,0
-693,526,0,0,0,0,0,0,0,0,0,-1,531,498,0,0
-686,526,0,0,0,0,0,0,0,0,0,-1,538,498,0,0
-679,526,0,0,0,0,0,0,0,0,0,-1,545,498,0,0
-672,526,0,0,0,0,0,0,0,0,0,-1,552,498,0,0
-665,526,0,0,0,0,0,0,0,0,0,-1,559,498,0,0
-658,526,0,0,0,0,0,0,0,0,0,-1,566,498,0,0
-651,526,0,0,0,0,0,0,0,0,0,-1,573,498,0,0
-644,526,0,0,0,0,0,0,0,0,0,-1,580,498,0,0
-637,526,0,0,0,0,0,0,0,0,0,-1,587,498,0,0
-630,526,0,0,0,0,0,0,0,0,0,-1,594,498,0,0
-623,526,0,0,0,0,0,0,0,0,0,-1,601,498,0,0
-616,526,0,0,0,0,0,0,0,0,0,-1,608,498,0,0
-609,526,0,0,0,0,0,0,0,0,0,-1,615,498,0,0
-602,526,0,0,0,0,0,0,0,0,0,-1,622,498,0,0
-595,526,0,0,0,0,0,0,0,0,0,-1,629,498,0,0
-588,526,0,0,0,0,0,0,0,0,0,-1,636,498,0,0
-581,526,0,0,0,0,0,0,0,0,0,-1,643,498,0,0
-574,526,0,0,0,0,0,0,0,0,0,-1,650,498,0,0
-567,526,0,0,0,0,0,0,0,0,0,-1,657,498,0,0
-560,526,0,0,0,0,0,0,0,0,0,-1,664,498,0,0
-553,526,0,0,0,0,0,0,0,0,0,-1,671,498,0,0
-546,526,0,0,0,0,0,0,0,0,0,-1,678,498,0,0
-539,526,0,0,0,0,0,0,0,0,0,-1,685,498,0,0
-532,526,0,0,0,0,0,0,0,0,0,-1,692,498,0,0
-525,526,0,0,0,0,0,0,0,0,0,-1,699,498,0,0
-518,526,0,0,0,0,0,0,0,0,0,-1,706,498,0,0
-511,526,0,0,0,0,0,0,0,0,0,-1,713,498,0,0
-504,526,0,0,0,0,0,0,0,0,0,-1,720,498,0,0
-497,526,0,0,0,0,0,0,0,0,0,-1,727,498,0,0
-490,526,0,0,0,0,0,0,0,0,0,-1,734,498,0,0
-483,526,0,0,0,0,0,0,0,0,0,-1,741,498,0,0
-476,526,0,0,0,0,0,0,0,0,0,-1,748,498,0,0
-469,526,0,0,0,0,0,0,0,0,0,-1,755,498,0,0
-462,526,0,0,0,0,0,0,0,0,0,-1,762,498,0,0
-455,526,0,0,0,0,0,0,0,0,0,-1,769,498,0,0
-448,526,0,0,0,0,0,0,0,0,0,-1,776,498,0,0
-441,526,0,0,0,0,0,0,0,0,0,-1,783,498,0,0
-434,526,1.69629,0.953003,0,0,0,0,0,0,0,-1,790,498,1.69628,-0.953007
-427,526,0.599487,0.681335,0,0,0,0,0,0,0,-1,797,498,0.599477,-0.681339
-420,526,-0.455627,0.444519,0,0,0,0,0,0,0,-1,804,498,-0.455631,-0.444519
-413,526,-3.78741,-3.40292,0,0,0,0,0,0,0,-1,811,498,-3.78744,3.40292
-406,526,-2.88947,-2.67999,0.04366,0.0402366,0.0172784,0.0593113,0.0245853,0.736026,0.0344098,0.0448344,818,498,-2.88945,2.67998
-399,526,-2.27234,-1.93127,0.0379583,0.0310073,0.0139893,0.0488974,0.0200682,0.663644,0.0283816,0.0484967,825,498,-2.27231,1.93129
-392,526,0.131836,-0.42395,0,0,0,0,0,0,0,-1,832,498,0.131809,0.423944
-385,526,-0.176514,-0.40451,0.0294959,0.015645,0.00797135,0.03313,0.0120109,0.427745,0.0193671,0.0451807,839,498,-0.176511,0.404499
-378,526,-0.439514,-0.374512,0.0262968,0.0121886,0.00718016,0.0293083,0.00917719,0.397127,0.0173106,0.0416122,846,498,-0.439515,0.374523
-371,526,-0.266296,-0.175568,0.0228859,0.00942236,0.00600501,0.0251751,0.00713322,0.364199,0.0149828,0.0306022,853,498,-0.266289,0.175555
-364,526,-0.0466919,-0.0528564,0.0200762,0.00741639,0.00516648,0.021917,0.0055756,0.342272,0.0131528,0.0145315,860,498,-0.0467222,0.0528628
-357,526,-0.0264282,-0.0697021,0.0171628,0.00565599,0.00406781,0.0184556,0.00436321,0.307713,0.0111379,0.00974799,867,498,-0.0264184,0.0696947
-350,526,-0.012207,-0.0744934,0.0134123,0.00338396,0.00299915,0.0142408,0.00255546,0.269524,0.00876709,0.00994178,874,498,-0.012218,0.0744963
-343,526,0.0133667,-0.0926208,0.00964507,0.00233429,0.00131942,0.00987591,0.00210346,0.173198,0.00600683,0.0140967,881,498,0.0133898,0.0926234
-336,526,-0.00427246,-0.101654,0.00698792,0.0018605,0.000106518,0.00699014,0.00185829,0.0207623,0.00418067,0.014032,888,498,-0.00429112,0.101652
-329,526,-0.0188599,-0.0819092,0.00533588,0.00179209,-0.000305726,0.00536206,0.0017659,-0.0854298,0.00315533,0.0127963,895,498,-0.0188888,0.0819219
-322,526,-0.0199585,-0.048645,0.00398965,0.00160676,-0.000439486,0.00406813,0.00152829,-0.176692,0.00237281,0.00842026,902,498,-0.0199792,0.0486439
-315,526,-0.0205078,-0.0646973,0.00307644,0.00109514,-0.000330777,0.00313021,0.00104138,-0.16113,0.00184064,0.00770778,909,498,-0.0205341,0.0646911
-308,526,-0.0166626,-0.0654602,0.00270776,0.000754717,-0.000393458,0.00278404,0.000678431,-0.19151,0.00167629,0.00771279,916,498,-0.0166632,0.0654461
-301,526,-0.0245361,-0.0627747,0.00300902,0.000483475,-0.000749106,0.00321449,0.000277998,-0.267711,0.0020566,0.00880272,923,498,-0.0245265,0.0627781
-294,526,-0.0383301,-0.0712891,0.00338856,0.000265789,-0.00106926,0.00371959,-6.52417e-05,-0.30023,0.00250176,0.00819526,930,498,-0.0383495,0.0712837
-287,526,-0.0402222,-0.0812683,0.00384576,0.000250747,-0.00152235,0.00440379,-0.000307287,-0.351352,0.00304347,0.00817307,937,498,-0.0401943,0.0812633
-280,526,-0.0389404,-0.0746765,0.00474356,0.000695329,-0.002302,0.00578477,-0.000345884,-0.424772,0.00397683,0.0107927,944,498,-0.0389403,0.074678
-273,526,-0.0375366,-0.0857239,0.00577791,0.00124845,-0.00335508,0.00756109,-0.000534733,-0.488518,0.00522809,0.00893306,951,498,-0.0375651,0.0857364
-266,526,-0.0332031,-0.0798035,0.00658753,0.00122521,-0.00428112,0.00895777,-0.00114503,-0.50564,0.00638782,0.00762222,958,498,-0.0332127,0.0798123
-259,526,-0.0241699,-0.0752258,0.00736032,0.00164582,-0.00541972,0.0106298,-0.00162369,-0.542815,0.00768518,0.0117388,965,498,-0.0241694,0.0752278
-252,526,-0.022583,-0.0757141,0.00858776,0.00229414,-0.00656043,0.0127171,-0.00183515,-0.561774,0.0091513,0.0216839,972,498,-0.022604,0.0757184
-245,526,0.0179443,-0.0405579,0.00938858,0.00287592,-0.00765414,0.0144503,-0.00218577,-0.584279,0.0104387,0.0295232,979,498,0.017914,0.0405551
-238,526,0.102173,-0.0527039,0.0101267,0.00455971,-0.00826393,0.0160633,-0.0013769,-0.622953,0.0111961,0.0351458,986,498,0.102183,0.0527101
-231,526,0.28772,-0.200317,0.0112129,0.00769583,-0.00785335,0.0175022,0.00140655,-0.675253,0.0112287,0.0402101,993,498,0.287729,0.200331
-224,526,0.647522,-0.763641,0.0124754,0.0110246,-0.00726675,0.0190528,0.00444711,-0.735651,0.0115096,0.0440205,1000,498,0.647506,0.763633
-217,526,1.17957,-1.66635,0,0,0,0,0,0,0,-1,1007,498,1.17959,1.66637
-210,526,-3.71838,-0.550903,0,0,0,0,0,0,0,-1,1014,498,-3.71841,0.550916
-203,526,-2.61658,-0.930634,0.0176641,0.0208572,-0.00382932,0.0234095,0.0151119,-0.982903,0.013705,0.0469034,1021,498,-2.61656,0.930644
-196,526,-1.4386,-1.27353,0,0,0,0,0,0,0,-1,1028,498,-1.43862,1.27352
-189,526,-0.327393,-1.68848,0.018605,0.026832,6.56184e-05,0.0268325,0.0186045,1.56282,0.0158732,0.0497488,1035,498,-0.327369,1.68848
-182,526,-0.174438,-1.57092,0.0186559,0.0284594,0.00187875,0.0288071,0.0183082,1.38779,0.0168343,0.0471851,1042,498,-0.174413,1.57094
-175,526,0.67334,-0.762238,0.0183518,0.0295351,0.00403592,0.0308395,0.0170474,1.2582,0.0178382,0.0432848,1049,498,0.673336,0.762241
-168,526,0.53894,-0.527527,0.0165319,0.0287713,0.00498739,0.0305462,0.014757,1.22889,0.0176392,0.0416482,1056,498,0.538929,0.527514
-161,526,0.522949,-0.31897,0,0,0,0,0,0,0,-1,1063,498,0.522898,0.318965
-154,526,0.591675,0.167358,0.00922724,0.0229116,0.00329106,0.0236619,0.00847689,1.34663,0.013843,0.0456382,1070,498,0.591727,-0.167364
-147,526,0.923218,0.550537,0.00287997,0.0177055,0.00197119,0.0179631,0.00262236,1.44084,0.011204,0.0474508,1077,498,0.923266,-0.550531
-140,526,0.467163,0.221985,-0.00204088,0.0132924,0.000275966,0.0132974,-0.00204585,1.55281,0.00961965,0.0450829,1084,498,0.467115,-0.221983
-133,526,0.164185,-0.0513306,-0.00655006,0.00854474,-0.00184886,0.0087679,-0.00677321,-1.45068,0.00899727,0.0443462,1091,498,0.16415,0.0513447
-126,526,-0.0946045,-0.0223999,0,0,0,0,0,0,0,-1,1098,498,-0.0945857,0.0223925
-119,526,-0.42395,0.250519,0,0,0,0,0,0,0,-1,1105,498,-0.423997,-0.250521
-112,526,-0.681274,0.372498,0,0,0,0,0,0,0,-1,1112,498,-0.681306,-0.372494
-105,526,0,0,0,0,0,0,0,0,0,-1,1119,498,0,0
-98,526,0,0,0,0,0,0,0,0,0,-1,1126,498,0,0
-91,526,0,0,0,0,0,0,0,0,0,-1,1133,498,0,0
-84,526,0,0,0,0,0,0,0,0,0,-1,1140,498,0,0
-77,526,0,0,0,0,0,0,0,0,0,-1,1147,498,0,0
-70,526,0,0,0,0,0,0,0,0,0,-1,1154,498,0,0
-63,526,0,0,0,0,0,0,0,0,0,-1,1161,498,0,0
-56,526,0,0,0,0,0,0,0,0,0,-1,1168,498,0,0
-49,526,0,0,0,0,0,0,0,0,0,-1,1175,498,0,0
-42,526,0,0,0,0,0,0,0,0,0,-1,1182,498,0,0
-35,526,0,0,0,0,0,0,0,0,0,-1,1189,498,0,0
-28,526,0,0,0,0,0,0,0,0,0,-1,1196,498,0,0
-21,526,0,0,0,0,0,0,0,0,0,-1,1203,498,0,0
-14,526,0,0,0,0,0,0,0,0,0,-1,1210,498,0,0
-7,526,0,0,0,0,0,0,0,0,0,-1,1217,498,0,0
0,526,0,0,0,0,0,0,0,0,0,-1,1224,498,0,0
7,526,0,0,0,0,0,0,0,0,0,-1,1231,498,0,0
14,526,0,0,0,0,0,0,0,0,0,-1,1238,498,0,0
21,526,0,0,0,0,0,0,0,0,0,-1,1245,498,0,0
28,526,0,0,0,0,0,0,0,0,0,-1,1252,498,0,0
35,526,0,0,0,0,0,0,0,0,0,-1,1259,498,0,0
42,526,0,0,0,0,0,0,0,0,0,-1,1266,498,0,0
49,526,0,0,0,0,0,0,0,0,0,-1,1273,498,0,0
56,526,0,0,0,0,0,0,0,0,0,-1,1280,498,0,0
63,526,0,0,0,0,0,0,0,0,0,-1,1287,498,0,0
70,526,0,0,0,0,0,0,0,0,0,-1,1294,498,0,0
77,526,0,0,0,0,0,0,0,0,0,-1,1301,498,0,0
84,526,0,0,0,0,0,0,0,0,0,-1,1308,498,0,0
91,526,0,0,0,0,0,0,0,0,0,-1,1315,498,0,0
98,526,0,0,0,0,0,0,0,0,0,-1,1322,498,0,0
105,526,0,0,0,0,0,0,0,0,0,-1,1329,498,0,0
112,526,0,0,0,0,0,0,0,0,0,-1,1336,498,0,0
119,526,0,0,0,0,0,0,0,0,0,-1,1343,498,0,0
126,526,0,0,0,0,0,0,0,0,0,-1,1350,498,0,0
133,526,0,0,0,0,0,0,0,0,0,-1,1357,498,0,0
140,526,0,0,0,0,0,0,0,0,0,-1,1364,498,0,0
147,526,0,0,0,0,0,0,0,0,0,-1,1371,498,0,0
154,526,0,0,0,0,0,0,0,0,0,-1,1378,498,0,0
161,526,0,0,0,0,0,0,0,0,0,-1,1385,498,0,0
168,526,0,0,0,0,0,0,0,0,0,-1,1392,498,0,0
175,526,0,0,0,0,0,0,0,0,0,-1,1399,498,0,0
182,526,0,0,0,0,0,0,0,0,0,-1,1406,498,0,0
189,526,0,0,0,0,0,0,0,0,0,-1,1413,498,0,0
196,526,0,0,0,0,0,0,0,0,0,-1,1420,498,0,0
203,526,0,0,0,0,0,0,0,0,0,-1,1427,498,0,0
210,526,0,0,0,0,0,0,0,0,0,-1,1434,498,0,0
217,526,0,0,0,0,0,0,0,0,0,-1,1441,498,0,0
224,526,0,0,0,0,0,0,0,0,0,-1,1448,498,0,0
231,526,-0.613892,0.453857,0.0146967,-0.00983,-0.00724231,0.0166756,-0.0118089,-0.266727,0.0165253,0.0404412,1455,498,-0.61385,-0.453863
238,526,0.457153,0.0899048,0.0102377,-0.00958159,-0.0114704,0.0154863,-0.0148302,-0.429135,0.0175046,0.0406948,1462,498,0.457182,-0.0899107
245,526,0.436279,0.271454,0.00526077,-0.0086249,-0.0136397,0.013623,-0.0169871,-0.549981,0.0177083,0.0437426,1469,498,0.436247,-0.271467
252,526,0.399292,0.228821,0.000638304,-0.00386784,-0.0141873,0.0127503,-0.0159798,-0.706651,0.0166222,0.0431224,1476,498,0.399277,-0.228824
259,526,0.354614,0.360291,-0.00401535,-0.000132454,-0.0144386,0.0124946,-0.0166424,-0.852229,0.016879,0.0389887,1483,498,0.354578,-0.360305
266,526,0.178101,0.41925,-0.0078658,0.00534378,-0.0135366,0.013801,-0.016323,-1.01237,0.0174124,0.0425132,1490,498,0.178058,-0.419253
273,526,0.0196533,-0.0831604,-0.00696329,0.00882888,-0.0097629,0.0134892,-0.0116236,-1.12544,0.0145122,0.0420812,1497,498,0.0196412,0.0831474
280,526,-0.160034,-0.565765,-0.00675538,0.00939237,-0.00578096,0.0112486,-0.00861161,-1.2601,0.0114999,0.0421317,1504,498,-0.160069,0.565775
287,526,-0.329224,-0.961395,0,0,0,0,0,0,0,-1,1511,498,-0.329172,0.961392
294,526,-0.279541,-1.14764,-0.00847515,0.0104142,0.00276374,0.0108102,-0.00887122,1.42846,0.0113815,0.0422471,1518,498,-0.279593,1.14765
301,526,-0.335327,-1.18332,-0.00782141,0.00833928,0.00574759,0.0101749,-0.00965705,1.26166,0.0114513,0.0429342,1525,498,-0.33528,1.18331
308,526,0.177368,0.426422,0,0,0,0,0,0,0,-1,1532,498,0.17732,-0.426421
315,526,-0.969971,-0.24472,0,0,0,0,0,0,0,-1,1539,498,-0.969931,0.244719
322,526,1.10437,-0.140259,0,0,0,0,0,0,0,-1,1546,498,1.10434,0.140258
329,526,1.11304,0.858826,0,0,0,0,0,0,0,-1,1553,498,1.11303,-0.858837
336,526,0.963867,1.25909,0,0,0,0,0,0,0,-1,1560,498,0.963835,-1.25909
343,526,0.185547,-0.228638,-0.00277722,0.00456901,0.0108224,0.0123246,-0.0105328,0.948998,0.0132103,0.0433519,1567,498,0.185486,0.228642
350,526,0.0640869,-0.249481,-0.00260187,0.00349071,0.0095084,0.0104289,-0.00954005,0.940421,0.0115329,0.0419513,1574,498,0.0641429,0.249484
357,526,-0.0722656,-0.171509,-0.00188062,0.00278856,0.00852786,0.00929561,-0.00838768,0.919005,0.0102139,0.0411539,1581,498,-0.0722961,0.171495
364,526,-0.046875,-0.297455,-0.00111196,0.00370497,0.00797986,0.0096319,-0.0070389,0.93196,0.00966362,0.0398776,1588,498,-0.0468253,0.297455
371,526,0.185913,-0.252808,-0.00100161,0.00382189,0.00727422,0.00907374,-0.00625346,0.945469,0.00889896,0.0360772,1595,498,0.185896,0.252808
378,526,0.0753174,-0.102936,-0.00110065,0.00366401,0.0064488,0.00815646,-0.0055931,0.962334,0.00798416,0.0313996,1602,498,0.075363,0.102927
385,526,-0.00317383,-0.0769653,-0.000972797,0.00358391,0.00575394,0.00749415,-0.00488304,0.973909,0.00719879,0.0240536,1609,498,-0.00322851,0.0769604
392,526,-0.0578613,-0.0673523,-0.000832995,0.00290153,0.00499872,0.00637036,-0.00430183,0.964147,0.00620005,0.0152722,1616,498,-0.0578141,0.0673597
399,526,-0.0712891,-0.0795898,-0.000483579,0.00198211,0.00416753,0.00509532,-0.0035968,0.929207,0.0050432,0.0117578,1623,498,-0.0712891,0.0795924
406,526,-0.0460205,-0.0726013,-0.000317618,0.00127188,0.00335293,0.00392296,-0.0029687,0.901766,0.0039916,0.0112214,1630,498,-0.0460244,0.072607
413,526,-0.0377197,-0.0624695,-0.000544086,0.000236739,0.00262572,0.00250091,-0.00280826,0.859201,0.00306696,0.0115033,1637,498,-0.0376711,0.0624735
420,526,-0.0496826,-0.0825806,-0.000731954,-0.000190509,0.00196343,0.00152077,-0.00244324,0.853907,0.00230919,0.0106538,1644,498,-0.0496379,0.0825945
427,526,-0.034668,-0.0676575,-0.000405158,-0.000462583,0.00138183,0.000948259,-0.001816,0.77501,0.00162195,0.0110967,1651,498,-0.0346635,0.0676431
434,526,-0.0328369,-0.0353394,8.71947e-06,-0.000634914,0.000831476,0.000578485,-0.00120468,0.600755,0.00105046,0.0110562,1658,498,-0.0328628,0.0353536
441,526,-0.0500488,-0.064209,0.000313997,-0.000659746,0.000441081,0.000484085,-0.000829835,0.368046,0.000767297,0.00972977,1665,498,-0.0500201,0.0642105
448,526,-0.0499268,-0.0823059,0.000519642,-0.000547166,0.000251964,0.000576158,-0.000603682,0.22065,0.000681243,0.00900701,1672,498,-0.0499558,0.0823161
455,526,-0.0471191,-0.0936584,0.000553548,-0.000419889,0.000254692,0.000616159,-0.0004825,0.24105,0.000635874,0.0121209,1679,498,-0.0471374,0.0936575
462,526,-0.0386963,-0.0885925,0.000603576,-0.000288315,0.000270262,0.000679079,-0.000363818,0.272426,0.000611218,0.00987712,1686,498,-0.0386708,0.0885927
469,526,-0.0322266,-0.0823364,0.00118163,-5.16407e-05,0.000679404,0.00148251,-0.000352517,0.416895,0.00112442,0.0072496,1693,498,-0.0322098,0.0823384
476,526,-0.022583,-0.0809937,0.00264228,0.000420143,0.00150352,0.00340072,-0.000338289,0.467192,0.00238791,0.00897278,1700,498,-0.022642,0.0809881
483,526,-0.0235596,-0.0856018,0.00380538,0.000805667,0.0021033,0.00488882,-0.000277775,0.475667,0.00335564,0.00940188,1707,498,-0.0236113,0.0856151
490,526,-0.0200195,-0.0776062,0.00568054,0.000267107,0.00301791,0.00702773,-0.00108008,0.419853,0.00508357,0.0121296,1714,498,-0.0199706,0.077613
497,526,0.00476074,-0.0908203,0.00788023,0.000472571,0.00422058,0.0097917,-0.0014389,0.425258,0.00705651,0.0183998,1721,498,0.00470094,0.0908238
504,526,-0.0123291,-0.0848999,0.0102438,0.000238887,0.00570064,0.0128256,-0.00234298,0.42527,0.00942895,0.0243296,1728,498,-0.0123269,0.0849143
511,526,-0.0284424,-0.172943,0.0126308,0.000612392,0.00691048,0.0157794,-0.0025362,0.427522,0.0114589,0.0324117,1735,498,-0.0284661,0.172945
518,526,-0.587036,-0.800629,0,0,0,0,0,0,0,-1,1742,498,-0.587017,0.800617
525,526,-0.403564,-0.110229,0,0,0,0,0,0,0,-1,1749,498,-0.403564,0.110216
532,526,-0.0638428,-0.0624084,0,0,0,0,0,0,0,-1,1756,498,-0.0638715,0.062404
539,526,-0.0596924,0.500702,0.0226193,-0.00394579,0.00955646,0.0256999,-0.00702637,0.311839,0.0198934,0.0444908,1763,498,-0.0597095,-0.500703
546,526,0.230713,0.219391,0.0238775,-0.00551077,0.00851771,0.0261678,-0.00780101,0.262667,0.0205453,0.0466821,1770,498,0.230683,-0.219405
553,526,0.234863,0.0918884,0.0238819,-0.00743137,0.00630197,0.0251026,-0.00865209,0.191335,0.0202451,0.0474769,1777,498,0.234819,-0.0918786
560,526,0,0,0,0,0,0,0,0,0,-1,1784,498,0,0
567,526,0,0,0,0,0,0,0,0,0,-1,1791,498,0,0
574,526,0,0,0,0,0,0,0,0,0,-1,1798,498,0,0
581,526,0,0,0,0,0,0,0,0,0,-1,1805,498,0,0
588,526,0,0,0,0,0,0,0,0,0,-1,1812,498,0,0
595,526,0,0,0,0,0,0,0,0,0,-1,1819,498,0,0
602,526,0,0,0,0,0,0,0,0,0,-1,1826,498,0,0
609,526,0,0,0,0,0,0,0,0,0,-1,1833,498,0,0
616,526,0,0,0,0,0,0,0,0,0,-1,1840,498,0,0
623,526,0,0,0,0,0,0,0,0,0,-1,1847,498,0,0
630,526,0,0,0,0,0,0,0,0,0,-1,1854,498,0,0
637,526,0,0,0,0,0,0,0,0,0,-1,1861,498,0,0
644,526,0,0,0,0,0,0,0,0,0,-1,1868,498,0,0
651,526,0,0,0,0,0,0,0,0,0,-1,1875,498,0,0
658,526,0,0,0,0,0,0,0,0,0,-1,1882,498,0,0
665,526,0,0,0,0,0,0,0,0,0,-1,1889,498,0,0
672,526,0,0,0,0,0,0,0,0,0,-1,1896,498,0,0
679,526,0,0,0,0,0,0,0,0,0,-1,1903,498,0,0
686,526,0,0,0,0,0,0,0,0,0,-1,1910,498,0,0
693,526,0,0,0,0,0,0,0,0,0,-1,1917,498,0,0
700,526,0,0,0,0,0,0,0,0,0,-1,1924,498,0,0
707,526,0,0,0,0,0,0,0,0,0,-1,1931,498,0,0
714,526,0,0,0,0,0,0,0,0,0,-1,1938,498,0,0
721,526,0,0,0,0,0,0,0,0,0,-1,1945,498,0,0
728,526,0,0,0,0,0,0,0,0,0,-1,1952,498,0,0
735,526,0,0,0,0,0,0,0,0,0,-1,1959,498,0,0
742,526,0,0,0,0,0,0,0,0,0,-1,1966,498,0,0
749,526,0,0,0,0,0,0,0,0,0,-1,1973,498,0,0
756,526,0,0,0,0,0,0,0,0,0,-1,1980,498,0,0
763,526,0,0,0,0,0,0,0,0,0,-1,1987,498,0,0
770,526,0,0,0,0,0,0,0,0,0,-1,1994,498,0,0
777,526,0,0,0,0,0,0,0,0,0,-1,2001,498,0,0
784,526,0,0,0,0,0,0,0,0,0,-1,2008,498,0,0
791,526,0,0,0,0,0,0,0,0,0,-1,2015,498,0,0
798,526,0,0,0,0,0,0,0,0,0,-1,2022,498,0,0
805,526,0,0,0,0,0,0,0,0,0,-1,2029,498,0,0
812,526,0,0,0,0,0,0,0,0,0,-1,2036,498,0,0
-700,519,0,0,0,0,0,0,0,0,0,-1,524,505,0,0
-693,519,0,0,0,0,0,0,0,0,0,-1,531,505,0,0
-686,519,0,0,0,0,0,0,0,0,0,-1,538,505,0,0
-679,519,0,0,0,0,0,0,0,0,0,-1,545,505,0,0
-672,519,0,0,0,0,0,0,0,0,0,-1,552,505,0,0
-665,519,0,0,0,0,0,0,0,0,0,-1,559,505,0,0
-658,519,0,0,0,0,0,0,0,0,0,-1,566,505,0,0
-651,519,0,0,0,0,0,0,0,0,0,-1,573,505,0,0
-644,519,0,0,0,0,0,0,0,0,0,-1,580,505,0,0
-637,519,0,0,0,0,0,0,0,0,0,-1,587,505,0,0
-630,519,0,0,0,0,0,0,0,0,0,-1,594,505,0,0
-623,519,0,0,0,0,0,0,0,0,0,-1,601,505,0,0
-616,519,0,0,0,0,0,0,0,0,0,-1,608,505,0,0
-609,519,0,0,0,0,0,0,0,0,0,-1,615,505,0,0
-602,519,0,0,0,0,0,0,0,0,0,-1,622,505,0,0
-595,519,0,0,0,0,0,0,0,0,0,-1,629,505,0,0
-588,519,0,0,0,0,0,0,0,0,0,-1,636,505,0,0
-581,519,0,0,0,0,0,0,0,0,0,-1,643,505,0,0
-574,519,0,0,0,0,0,0,0,0,0,-1,650,505,0,0
-567,519,0,0,0,0,0,0,0,0,0,-1,657,505,0,0
-560,519,0,0,0,0,0,0,0,0,0,-1,664,505,0,0
-553,519,0,0,0,0,0,0,0,0,0,-1,671,505,0,0
-546,519,0,0,0,0,0,0,0,0,0,-1,678,505,0,0
-539,519,0,0,0,0,0,0,0,0,0,-1,685,505,0,0
-532,519,0,0,0,0,0,0,0,0,0,-1,692,505,0,0
-525,519,0,0,0,0,0,0,0,0,0,-1,699,505,0,0
-518,519,0,0,0,0,0,0,0,0,0,-1,706,505,0,0
-511,519,0,0,0,0,0,0,0,0,0,-1,713,505,0,0
-504,519,0,0,0,0,0,0,0,0,0,-1,720,505,0,0
-497,519,0,0,0,0,0,0,0,0,0,-1,727,505,0,0
-490,519,0,0,0,0,0,0,0,0,0,-1,734,505,0,0
-483,519,0,0,0,0,0,0,0,0,0,-1,741,505,0,0
-476,519,0,0,0,0,0,0,0,0,0,-1,748,505,0,0
-469,519,0,0,0,0,0,0,0,0,0,-1,755,505,0,0
-462,519,0,0,0,0,0,0,0,0,0,-1,762,505,0,0
-455,519,0,0,0,0,0,0,0,0,0,-1,769,505,0,0
-448,519,0,0,0,0,0,0,0,0,0,-1,776,505,0,0
-441,519,3.06561,2.44455,0,0,0,0,0,0,0,-1,783,505,3.06564,-2.44455
-434,519,2.30957,1.72391,0,0,0,0,0,0,0,-1,790,505,2.30956,-1.72392
-427,519,1.46985,1.13437,0,0,0,0,0,0,0,-1,797,505,1.46988,-1.13438
-420,519,0.523254,0.554352,0.0526829,0.0516878,0.0186201,0.0708121,0.0335586,0.772041,0.040902,0.0480258,804,505,0.523247,-0.554339
-413,519,0.288757,0.305603,0.0395039,0.0425697,0.0141235,0.0552432,0.0268304,0.839454,0.0318991,0.0455261,811,505,0.288756,-0.305614
-406,519,-2.2912,-3.18188,0.0311735,0.0337078,0.0108318,0.0433463,0.021535,0.843626,0.0250262,0.0443806,818,505,-2.29122,3.1819
-399,519,0.0491333,-0.128113,0,0,0,0,0,0,0,-1,825,505,0.0491132,0.128125
-392,519,0.0586548,-0.0974426,0.0222267,0.0197887,0.00625761,0.0273829,0.0146324,0.689202,0.015822,0.0465286,832,505,0.058667,0.0974522
-385,519,0.0391235,-0.0747681,0.020238,0.0130386,0.00395434,0.0219857,0.0112909,0.416154,0.012695,0.0389335,839,505,0.0390965,0.0747709
-378,519,-0.0551758,-0.0709534,0.0181583,0.0102472,0.00391092,0.0197652,0.00864024,0.389864,0.0114415,0.0273441,846,505,-0.055163,0.0709612
-371,519,-0.0574341,-0.0508423,0.0158224,0.00794194,0.00343711,0.0171109,0.00665349,0.358652,0.00996,0.0151752,853,505,-0.0574436,0.0508344
-364,519,-0.022522,-0.0624695,0.0140052,0.00622592,0.00320974,0.0151586,0.00507258,0.344959,0.00890993,0.00864991,860,505,-0.022515,0.0624773
-357,519,-0.0131226,-0.0708008,0.0120194,0.00463022,0.00261347,0.0128503,0.0037993,0.307831,0.00762285,0.00836141,867,505,-0.013114,0.0708007
-350,519,-0.00799561,-0.0676575,0.0091676,0.00258048,0.00199168,0.00972298,0.0020251,0.271941,0.00592349,0.0106653,874,505,-0.00802582,0.0676701
-343,519,0.000915527,-0.075592,0.00626821,0.0015866,0.000697014,0.00636978,0.00148503,0.144703,0.00384824,0.0139331,881,505,0.000924132,0.0755968
-336,519,-0.0212402,-0.0904236,0.00427054,0.0011006,-0.000215729,0.00428515,0.00108598,-0.0676388,0.00257236,0.0124156,888,505,-0.0212622,0.0904228
-329,519,-0.0324707,-0.0704956,0.00327686,0.000941184,-0.000449602,0.00336042,0.000857627,-0.183748,0.00201615,0.0102032,895,505,-0.0324997,0.0704814
-322,519,-0.0230103,-0.0609131,0.00253881,0.00064995,-0.00050891,0.0026672,0.000521563,-0.247123,0.00163229,0.00885371,902,505,-0.0230302,0.0609272
-315,519,-0.0219727,-0.0681763,0.00223328,9.76941e-05,-0.00040896,0.00230892,2.20579e-05,-0.182881,0.00153198,0.00790601,909,505,-0.0219495,0.0681653
-308,519,-0.0253296,-0.0733948,0.0026081,-0.000308589,-0.000489202,0.00268796,-0.000388453,-0.161827,0.00193451,0.00736172,916,505,-0.025314,0.0733905
-301,519,-0.0253296,-0.0898743,0.00358446,-0.00061314,-0.000922266,0.00377815,-0.000806835,-0.207013,0.00282636,0.0112611,923,505,-0.0253122,0.0898756
-294,519,-0.0339966,-0.052063,0.00453011,-0.000836194,-0.00139693,0.00487198,-0.00117806,-0.240008,0.00370366,0.0133435,930,505,-0.0339977,0.0520616
-287,519,-0.0458984,-0.0730896,0.00541212,-0.000852077,-0.00201503,0.00600432,-0.00144428,-0.285842,0.00456117,0.00871137,937,505,-0.0458938,0.0730888
-280,519,-0.0509033,-0.0788879,0.00659018,-0.000359076,-0.00301091,0.00771323,-0.00148213,-0.35701,0.00570079,0.0100351,944,505,-0.0509075,0.0789019
-273,519,-0.0413818,-0.0832214,0.00785525,0.000211937,-0.00425206,0.00975069,-0.0016835,-0.419329,0.0071282,0.0115529,951,505,-0.041394,0.0832063
-266,519,0.00848389,-0.077179,0.00881128,0.000200287,-0.00536942,0.0113882,-0.00237666,-0.447463,0.00849591,0.0144435,958,505,0.00849138,0.0771914
-259,519,-0.0325928,-0.106781,0.00964903,0.000663963,-0.00675614,0.01327,-0.00295696,-0.491989,0.00997941,0.0280247,965,505,-0.0325716,0.106782
-252,519,-0.0296021,-0.167419,0.0108376,0.00136566,-0.00815223,0.0155297,-0.00332644,-0.522255,0.0116217,0.0374814,972,505,-0.0296316,0.167423
-245,519,0.121399,-0.367249,0.0114509,0.00196446,-0.00948589,0.0173133,-0.003898,-0.553563,0.0130373,0.0377337,979,505,0.121392,0.367255
-238,519,0.348267,-0.331665,0.0119292,0.00371292,-0.0102255,0.0188409,-0.00319879,-0.594389,0.0137514,0.0394499,986,505,0.348287,0.331656
-231,519,0.632385,-0.557373,0.0128957,0.0072867,-0.00963398,0.0201251,5.7308e-05,-0.643761,0.0133977,0.042718,993,505,0.632401,0.557362
-224,519,0.763855,-1.16586,0.0140885,0.0113361,-0.00872203,0.0215423,0.00388237,-0.707149,0.0132582,0.0460095,1000,505,0.76383,1.16585
-217,519,0.942932,-1.50217,0.0155643,0.0149694,-0.00798719,0.0232596,0.00727413,-0.766787,0.0137393,0.0471084,1007,505,0.942955,1.50216
-210,519,1.08698,-1.73291,0,0,0,0,0,0,0,-1,1014,505,1.08696,1.7329
-203,519,-2.87286,-1.41895,0,0,0,0,0,0,0,-1,1021,505,-2.87288,1.41896
-196,519,-1.73291,-1.96326,0,0,0,0,0,0,0,-1,1028,505,-1.73295,1.96325
-189,519,-0.36145,-2.28406,0,0,0,0,0,0,0,-1,1035,505,-0.361445,2.28407
-182,519,0.717773,-2.72318,0,0,0,0,0,0,0,-1,1042,505,0.717749,2.72319
-175,519,1.13306,-0.950134,0,0,0,0,0,0,0,-1,1049,505,1.13304,0.95014
-168,519,0.908203,-0.631226,0,0,0,0,0,0,0,-1,1056,505,0.908231,0.63123
-161,519,0.731201,-0.766235,0,0,0,0,0,0,0,-1,1063,505,0.731172,0.766226
-154,519,0.358887,-0.00442505,0.00931281,0.0286003,0.0072207,0.031004,0.00690914,1.24945,0.0187945,0.048455,1070,505,0.358838,0.00442167
-147,519,0.625122,0.404175,0.00139177,0.0213256,0.00563238,0.022807,-8.95895e-05,1.31361,0.0152346,0.0486372,1077,505,0.625063,-0.404183
-140,519,0.415894,0.0655518,-0.00526945,0.014783,0.00360351,0.0154109,-0.00589735,1.39828,0.0127045,0.0450942,1084,505,0.41587,-0.0655593
-133,519,0.100098,-0.12204,-0.0116326,0.00845137,0.0011326,0.00851504,-0.0116963,1.51464,0.0117171,0.0429723,1091,505,0.10004,0.122041
-126,519,0,0,0,0,0,0,0,0,0,-1,1098,505,0,0
-119,519,0,0,0,0,0,0,0,0,0,-1,1105,505,0,0
-112,519,0,0,0,0,0,0,0,0,0,-1,1112,505,0,0
-105,519,0,0,0,0,0,0,0,0,0,-1,1119,505,0,0
-98,519,0,0,0,0,0,0,0,0,0,-1,1126,505,0,0
-91,519,0,0,0,0,0,0,0,0,0,-1,1133,505,0,0
-84,519,0,0,0,0,0,0,0,0,0,-1,1140,505,0,0
-77,519,0,0,0,0,0,0,0,0,0,-1,1147,505,0,0
-70,519,0,0,0,0,0,0,0,0,0,-1,1154,505,0,0
-63,519,0,0,0,0,0,0,0,0,0,-1,1161,505,0,0
-56,519,0,0,0,0,0,0,0,0,0,-1,1168,505,0,0
-49,519,0,0,0,0,0,0,0,0,0,-1,1175,505,0,0
-42,519,0,0,0,0,0,0,0,0,0,-1,1182,505,0,0
-35,519,0,0,0,0,0,0,0,0,0,-1,1189,505,0,0
-28,519,0,0,0,0,0,0,0,0,0,-1,1196,505,0,0
-21,519,0,0,0,0,0,0,0,0,0,-1,1203,505,0,0
-14,519,0,0,0,0,0,0,0,0,0,-1,1210,505,0,0
-7,519,0,0,0,0,0,0,0,0,0,-1,1217,505,0,0
0,519,0,0,0,0,0,0,0,0,0,-1,1224,505,0,0
7,519,0,0,0,0,0,0,0,0,0,-1,1231,505,0,0
14,519,0,0,0,0,0,0,0,0,0,-1,1238,505,0,0
21,519,0,0,0,0,0,0,0,0,0,-1,1245,505,0,0
28,519,0,0,0,0,0,0,0,0,0,-1,1252,505,0,0
35,519,0,0,0,0,0,0,0,0,0,-1,1259,505,0,0
42,519,0,0,0,0,0,0,0,0,0,-1,1266,505,0,0
49,519,0,0,0,0,0,0,0,0,0,-1,1273,505,0,0
56,519,0,0,0,0,0,0,0,0,0,-1,1280,505,0,0
63,519,0,0,0,0,0,0,0,0,0,-1,1287,505,0,0
70,519,0,0,0,0,0,0,0,0,0,-1,1294,505,0,0
77,519,0,0,0,0,0,0,0,0,0,-1,1301,505,0,0
84,519,0,0,0,0,0,0,0,0,0,-1,1308,505,0,0
91,519,0,0,0,0,0,0,0,0,0,-1,1315,505,0,0
98,519,0,0,0,0,0,0,0,0,0,-1,1322,505,0,0
105,519,0,0,0,0,0,0,0,0,0,-1,1329,505,0,0
112,519,0,0,0,0,0,0,0,0,0,-1,1336,505,0,0
119,519,0,0,0,0,0,0,0,0,0,-1,1343,505,0,0
126,519,0,0,0,0,0,0,0,0,0,-1,1350,505,0,0
133,519,0,0,0,0,0,0,0,0,0,-1,1357,505,0,0
140,519,0,0,0,0,0,0,0,0,0,-1,1364,505,0,0
147,519,0,0,0,0,0,0,0,0,0,-1,1371,505,0,0
154,519,0,0,0,0,0,0,0,0,0,-1,1378,505,0,0
161,519,0,0,0,0,0,0,0,0,0,-1,1385,505,0,0
168,519,0,0,0,0,0,0,0,0,0,-1,1392,505,0,0
175,519,0,0,0,0,0,0,0,0,0,-1,1399,505,0,0
182,519,0,0,0,0,0,0,0,0,0,-1,1406,505,0,0
189,519,0,0,0,0,0,0,0,0,0,-1,1413,505,0,0
196,519,0,0,0,0,0,0,0,0,0,-1,1420,505,0,0
203,519,0,0,0,0,0,0,0,0,0,-1,1427,505,0,0
210,519,0,0,0,0,0,0,0,0,0,-1,1434,505,0,0
217,519,0,0,0,0,0,0,0,0,0,-1,1441,505,0,0
224,519,0,0,0,0,0,0,0,0,0,-1,1448,505,0,0
231,519,0,0,0,0,0,0,0,0,0,-1,1455,505,0,0
238,519,0,0,0,0,0,0,0,0,0,-1,1462,505,0,0
245,519,0,0,0,0,0,0,0,0,0,-1,1469,505,0,0
252,519,0.80835,0.358307,-0.00270573,-0.00462848,-0.0141517,0.0105172,-0.0178514,-0.751483,0.0165601,0.0438945,1476,505,0.808376,-0.358305
259,519,0.59082,0.421967,-0.0083082,0.00171892,-0.0149252,0.0124501,-0.0190394,-0.947433,0.0183127,0.0393387,1483,505,0.590822,-0.42197
266,519,0.158569,0.361664,-0.0128181,0.0104196,-0.0143078,0.017232,-0.0196305,-1.12642,0.0212976,0.0373604,1490,505,0.15851,-0.36166
273,519,0.271118,-0.111908,0,0,0,0,0,0,0,-1,1497,505,0.271169,0.111899
280,519,0.0921631,-0.708527,0,0,0,0,0,0,0,-1,1504,505,0.0921819,0.708536
287,519,-0.0825195,-1.24683,0,0,0,0,0,0,0,-1,1511,505,-0.0825011,1.24683
294,519,-0.368896,-1.66302,0,0,0,0,0,0,0,-1,1518,505,-0.368846,1.66302
301,519,-0.471313,-1.72284,0,0,0,0,0,0,0,-1,1525,505,-0.471291,1.72285
308,519,0.217163,0.4729,0,0,0,0,0,0,0,-1,1532,505,0.217187,-0.472903
315,519,0.744995,-1.57373,0,0,0,0,0,0,0,-1,1539,505,0.745045,1.57373
322,519,1.47498,-0.471466,0,0,0,0,0,0,0,-1,1546,505,1.47493,0.471466
329,519,1.53687,1.20529,0,0,0,0,0,0,0,-1,1553,505,1.53684,-1.20531
336,519,0.409058,-0.226074,0,0,0,0,0,0,0,-1,1560,505,0.409041,0.226064
343,519,-0.112183,-0.488586,-0.00240715,0.00293213,0.0137184,0.0142383,-0.0137133,0.881498,0.0161388,0.0442985,1567,505,-0.112225,0.488601
350,519,-0.334595,-0.464325,-0.00239004,0.00206762,0.0120855,0.0121281,-0.0124505,0.876585,0.0141909,0.0428526,1574,505,-0.334649,0.46432
357,519,-0.483765,-0.406342,-0.00178121,0.00167437,0.0108846,0.0109674,-0.0110743,0.86411,0.0127258,0.0445819,1581,505,-0.48381,0.406356
364,519,-0.0280762,-0.439056,-0.00115195,0.00297827,0.0101618,0.0112827,-0.00945639,0.885644,0.0119892,0.041787,1588,505,-0.0281329,0.439069
371,519,-0.000366211,-0.146942,0,0,0,0,0,0,0,-1,1595,505,-0.000307203,0.146951
378,519,0.176147,-0.0967712,-0.00144665,0.00334704,0.00823233,0.00952435,-0.00762397,0.927057,0.00992083,0.0385197,1602,505,0.176126,0.0967585
385,519,-0.0157471,-0.132202,-0.00138302,0.00339507,0.00725597,0.00864518,-0.00663312,0.944435,0.00884639,0.0372789,1609,505,-0.0157651,0.132196
392,519,-0.0686035,-0.0936279,-0.00118905,0.00282154,0.00621639,0.00734807,-0.00571558,0.94142,0.00756191,0.0273476,1616,505,-0.0685737,0.0936328
399,519,-0.0559082,-0.0746765,-0.000797676,0.00184198,0.00510759,0.00579751,-0.00475321,0.911835,0.0061014,0.0176475,1623,505,-0.0559442,0.074681
406,519,0.00927734,-0.0608521,-0.00058667,0.00124485,0.00399477,0.00442748,-0.0037693,0.898071,0.0047375,0.0154223,1630,505,0.00931214,0.0608668
413,519,-0.000732422,-0.0659485,-0.000828242,1.84571e-05,0.00301745,0.00264211,-0.0034519,0.855093,0.00352872,0.0119101,1637,505,-0.000688299,0.065949
420,519,-0.0429688,-0.09021,-0.000967548,-0.000197162,0.00207941,0.00153243,-0.00269714,0.876981,0.00247262,0.0125733,1644,505,-0.04294,0.0901994
427,519,-0.0203857,-0.083313,-0.000556336,-0.000461855,0.00122588,0.000717691,-0.00173588,0.804657,0.00145666,0.0109252,1651,505,-0.020366,0.083299
434,519,-0.0212402,-0.0615845,-8.44343e-05,-0.000748761,0.000433075,0.000129192,-0.000962387,0.458255,0.000688706,0.010715,1658,505,-0.0212866,0.0615774
441,519,-0.0501709,-0.0621643,0.000251742,-0.000823038,-9.34025e-05,0.000259799,-0.000831094,-0.0860443,0.000657987,0.0107829,1665,505,-0.0502259,0.0621764
448,519,-0.0587158,-0.0758362,0.000447659,-0.00077068,-0.000324414,0.000528657,-0.000851678,-0.244674,0.000804178,0.00811959,1672,505,-0.0586641,0.0758455
455,519,-0.067627,-0.0916138,0.000419088,-0.000619139,-0.000308949,0.000504068,-0.000704119,-0.268422,0.000700727,0.00971876,1679,505,-0.0676746,0.0916256
462,519,-0.0565186,-0.0885925,0.000403826,-0.000498699,-0.000270512,0.000478695,-0.000573568,-0.27001,0.000608347,0.0100151,1686,505,-0.0565475,0.0886043
469,519,-0.0233154,-0.0857239,0.000829503,-0.000321268,8.4654e-05,0.000835697,-0.000327462,0.0730389,0.000692589,0.00988959,1693,505,-0.0233235,0.0857245
476,519,-0.0057373,-0.0907288,0.00198025,5.16144e-05,0.000755735,0.0022411,-0.000209239,0.332361,0.00156847,0.012396,1700,505,-0.00568434,0.0907349
483,519,-0.0305176,-0.0752563,0.00282595,0.000290169,0.00118914,0.00329633,-0.000180217,0.376679,0.00226002,0.0137875,1707,505,-0.0305459,0.0752514
490,519,-0.0394287,-0.0502014,0.00423084,-0.0002554,0.00187019,0.00490819,-0.00093276,0.347491,0.00362329,0.0110769,1714,505,-0.0394376,0.0502091
497,519,-0.0291748,-0.073761,0.00587331,-0.000137976,0.00274868,0.00694064,-0.00120531,0.370387,0.00507679,0.0112904,1721,505,-0.0292118,0.0737482
504,519,-0.0317383,-0.0804443,0.0076865,-0.000290945,0.00377884,0.00919228,-0.00179672,0.379192,0.00680661,0.010691,1728,505,-0.0317149,0.0804434
511,519,-0.0369873,-0.106262,0.00938377,-0.000101325,0.00461198,0.0112565,-0.00197407,0.385721,0.00824155,0.0146925,1735,505,-0.0369946,0.106266
518,519,-0.119873,-0.144623,0.0113751,-0.000352164,0.00520476,0.0133518,-0.00232893,0.362971,0.00977049,0.0296957,1742,505,-0.119841,0.144614
525,519,-0.13916,-0.00424194,0.0134279,-0.00148789,0.00558639,0.0152881,-0.00334815,0.321449,0.0114722,0.0405521,1749,505,-0.139203,0.00424304
532,519,-0.0527344,-0.109344,0.0150369,-0.00261414,0.00546563,0.0165922,-0.00416951,0.277245,0.0126819,0.0452641,1756,505,-0.052746,0.10933
539,519,-0.00366211,-0.148376,0,0,0,0,0,0,0,-1,1763,505,-0.0036518,0.14838
546,519,0.178589,0.0821533,0.0174692,-0.00459162,0.00430631,0.01828,-0.00540242,0.186103,0.014331,0.0436856,1770,505,0.178621,-0.0821665
553,519,0.0228271,0.142029,0.0177772,-0.00613624,0.00253589,0.0180431,-0.0064022,0.104496,0.0146372,0.0431988,1777,505,0.0227673,-0.142021
560,519,-0.281616,0.239685,0.0173001,-0.00790637,-9.57989e-05,0.0173005,-0.00790674,-0.00380049,0.0148865,0.0427602,1784,505,-0.281659,-0.239671
567,519,0,0,0,0,0,0,0,0,0,-1,1791,505,0,0
574,519,0,0,0,0,0,0,0,0,0,-1,1798,505,0,0
581,519,0,0,0,0,0,0,0,0,0,-1,1805,505,0,0
588,519,0,0,0,0,0,0,0,0,0,-1,1812,505,0,0
595,519,0,0,0,0,0,0,0,0,0,-1,1819,505,0,0
602,519,0,0,0,0,0,0,0,0,0,-1,1826,505,0,0
609,519,0,0,0,0,0,0,0,0,0,-1,1833,505,0,0
616,519,0,0,0,0,0,0,0,0,0,-1,1840,505,0,0
623,519,0,0,0,0,0,0,0,0,0,-1,1847,505,0,0
630,519,0,0,0,0,0,0,0,0,0,-1,1854,505,0,0
637,519,0,0,0,0,0,0,0,0,0,-1,1861,505,0,0
644,519,0,0,0,0,0,0,0,0,0,-1,1868,505,0,0
651,519,0,0,0,0,0,0,0,0,0,-1,1875,505,0,0
658,519,0,0,0,0,0,0,0,0,0,-1,1882,505,0,0
665,519,0,0,0,0,0,0,0,0,0,-1,1889,505,0,0
672,519,0,0,0,0,0,0,0,0,0,-1,1896,505,0,0
679,519,0,0,0,0,0,0,0,0,0,-1,1903,505,0,0
686,519,0,0,0,0,0,0,0,0,0,-1,1910,505,0,0
693,519,0,0,0,0,0,0,0,0,0,-1,1917,505,0,0
700,519,0,0,0,0,0,0,0,0,0,-1,1924,505,0,0
707,519,0,0,0,0,0,0,0,0,0,-1,1931,505,0,0
714,519,0,0,0,0,0,0,0,0,0,-1,1938,505,0,0
721,519,0,0,0,0,0,0,0,0,0,-1,1945,505,0,0
728,519,0,0,0,0,0,0,0,0,0,-1,1952,505,0,0
735,519,0,0,0,0,0,0,0,0,0,-1,1959,505,0,0
742,519,0,0,0,0,0,0,0,0,0,-1,1966,505,0,0
749,519,0,0,0,0,0,0,0,0,0,-1,1973,505,0,0
756,519,0,0,0,0,0,0,0,0,0,-1,1980,505,0,0
763,519,0,0,0,0,0,0,0,0,0,-1,1987,505,0,0
770,519,0,0,0,0,0,0,0,0,0,-1,1994,505,0,0
777,519,0,0,0,0,0,0,0,0,0,-1,2001,505,0,0
784,519,0,0,0,0,0,0,0,0,0,-1,2008,505,0,0
791,519,0,0,0,0,0,0,0,0,0,-1,2015,505,0,0
798,519,0,0,0,0,0,0,0,0,0,-1,2022,505,0,0
805,519,0,0,0,0,0,0,0,0,0,-1,2029,505,0,0
812,519,0,0,0,0,0,0,0,0,0,-1,2036,505,0,0
-700,512,0,0,0,0,0,0,0,0,0,-1,524,512,0,0
-693,512,0,0,0,0,0,0,0,0,0,-1,531,512,0,0
-686,512,0,0,0,0,0,0,0,0,0,-1,538,512,0,0
-679,512,0,0,0,0,0,0,0,0,0,-1,545,512,0,0
-672,512,0,0,0,0,0,0,0,0,0,-1,552,512,0,0
-665,512,0,0,0,0,0,0,0,0,0,-1,559,512,0,0
-658,512,0,0,0,0,0,0,0,0,0,-1,566,512,0,0
-651,512,0,0,0,0,0,0,0,0,0,-1,573,512,0,0
-644,512,0,0,0,0,0,0,0,0,0,-1,580,512,0,0
-637,512,0,0,0,0,0,0,0,0,0,-1,587,512,0,0
-630,512,0,0,0,0,0,0,0,0,0,-1,594,512,0,0
-623,512,0,0,0,0,0,0,0,0,0,-1,601,512,0,0
-616,512,0,0,0,0,0,0,0,0,0,-1,608,512,0,0
-609,512,0,0,0,0,0,0,0,0,0,-1,615,512,0,0
-602,512,0,0,0,0,0,0,0,0,0,-1,622,512,0,0
-595,512,0,0,0,0,0,0,0,0,0,-1,629,512,0,0
-588,512,0,0,0,0,0,0,0,0,0,-1,636,512,0,0
-581,512,0,0,0,0,0,0,0,0,0,-1,643,512,0,0
-574,512,0,0,0,0,0,0,0,0,0,-1,650,512,0,0
-567,512,0,0,0,0,0,0,0,0,0,-1,657,512,0,0
-560,512,0,0,0,0,0,0,0,0,0,-1,664,512,0,0
-553,512,0,0,0,0,0,0,0,0,0,-1,671,512,0,0
-546,512,0,0,0,0,0,0,0,0,0,-1,678,512,0,0
-539,512,0,0,0,0,0,0,0,0,0,-1,685,512,0,0
-532,512,0,0,0,0,0,0,0,0,0,-1,692,512,0,0
-525,512,0,0,0,0,0,0,0,0,0,-1,699,512,0,0
-518,512,0,0,0,0,0,0,0,0,0,-1,706,512,0,0
-511,512,0,0,0,0,0,0,0,0,0,-1,713,512,0,0
-504,512,0,0,0,0,0,0,0,0,0,-1,720,512,0,0
-497,512,0,0,0,0,0,0,0,0,0,-1,727,512,0,0
-490,512,0,0,0,0,0,0,0,0,0,-1,734,512,0,0
-483,512,0,0,0,0,0,0,0,0,0,-1,741,512,0,0
-476,512,0,0,0,0,0,0,0,0,0,-1,748,512,0,0
-469,512,0,0,0,0,0,0,0,0,0,-1,755,512,0,0
-462,512,0,0,0,0,0,0,0,0,0,-1,762,512,0,0
-455,512,0,0,0,0,0,0,0,0,0,-1,769,512,0,0
-448,512,1.0011,1.22433,0.121344,0.0896904,0.0347541,0.143705,0.0673291,0.571732,0.0830231,0.0422231,776,512,1.00109,-1.22433
-441,512,3.24695,2.54272,0.0951598,0.0752334,0.0288062,0.115677,0.0547161,0.618903,0.0668186,0.045483,783,512,3.24698,-2.54271
-434,512,2.55914,1.91144,0,0,0,0,0,0,0,-1,790,512,2.55912,-1.91142
-427,512,1.85815,1.25211,0,0,0,0,0,0,0,-1,797,512,1.85814,-1.25209
-420,512,1.30542,0.868103,0.0394951,0.0410695,0.0118321,0.0521406,0.028424,0.818614,0.0301442,0.0465344,804,512,1.30542,-0.868107
-413,512,0.784729,0.460449,0.0282089,0.0341734,0.00872674,0.0404134,0.0219689,0.950045,0.0233622,0.04398,811,512,0.784729,-0.460458
-406,512,0.0133667,0.142609,0,0,0,0,0,0,0,-1,818,512,0.0133945,-0.14261
-399,512,0.0836182,-0.12616,0.0174602,0.0212863,0.00456809,0.0243257,0.0144208,0.983692,0.0141249,0.042561,825,512,0.0835963,0.126132
-392,512,0.0237427,-0.125244,0.0142177,0.0159923,0.00288644,0.0181247,0.0120853,0.934514,0.0106566,0.0322312,832,512,0.0237235,0.125231
-385,512,0.00604248,-0.0786743,0.0130848,0.0102248,0.00116182,0.0134973,0.00981236,0.341151,0.00805589,0.0157986,839,512,0.00604646,0.0786599
-378,512,-0.0116577,-0.0604248,0.0119322,0.00803783,0.0016051,0.0125085,0.00746155,0.344696,0.0072665,0.0121869,846,512,-0.0116393,0.0604193
-371,512,-0.0123901,-0.0683594,0.0104907,0.00617144,0.00162113,0.0110315,0.00563069,0.321959,0.00636948,0.010033,853,512,-0.012387,0.0683598
-364,512,-0.0157471,-0.0787964,0.00945024,0.00473167,0.00181274,0.0100662,0.00411568,0.327569,0.00584383,0.00829364,860,512,-0.0157209,0.0788268
-357,512,0.00109863,-0.0775757,0.00816281,0.0033308,0.00158178,0.00863456,0.00285905,0.28984,0.00507907,0.00967355,867,512,0.00112294,0.0775557
-350,512,0.00134277,-0.0777588,0.00603783,0.00158816,0.0013103,0.006395,0.00123099,0.266124,0.003918,0.0105913,874,512,0.00136038,0.0777397
-343,512,-0.00976563,-0.0767212,0.00387946,0.00070903,0.000367508,0.0039215,0.000666988,0.113905,0.0024228,0.0110226,881,512,-0.00974843,0.0767137
-336,512,-0.0218506,-0.0717773,0.00247127,0.000238562,-0.000300531,0.00251101,0.000198817,-0.131487,0.00161183,0.00978518,888,512,-0.0218556,0.0717755
-329,512,-0.0315552,-0.0758057,0.00209402,9.02545e-06,-0.000395486,0.00216651,-6.34704e-05,-0.181296,0.00146596,0.00958939,895,512,-0.031525,0.0758152
-322,512,-0.0320435,-0.0799561,0.00192687,-0.000348084,-0.000451949,0.00201336,-0.000434581,-0.1891,0.00150812,0.00888341,902,512,-0.0320616,0.0799595
-315,512,-0.0320435,-0.0751953,0.00220027,-0.000949869,-0.000481915,0.00227234,-0.00102194,-0.14846,0.00194709,0.0093423,909,512,-0.0320478,0.0751851
-308,512,-0.0297852,-0.0895386,0.00326199,-0.00144106,-0.000687135,0.00336033,-0.0015394,-0.142146,0.00289324,0.0101183,916,512,-0.0297873,0.0895101
-301,512,-0.0227661,-0.0882568,0.00490716,-0.00181095,-0.00128576,0.00514483,-0.00204862,-0.182785,0.00427946,0.014723,923,512,-0.0227541,0.0882805
-294,512,-0.0358887,-0.0617676,0.00634416,-0.00210862,-0.00194627,0.00677076,-0.00253523,-0.215778,0.00555522,0.0141683,930,512,-0.0358784,0.061749
-287,512,-0.0334473,-0.0599976,0.00760213,-0.00216192,-0.00277837,0.00833736,-0.00289714,-0.258695,0.00673497,0.0128522,937,512,-0.0334379,0.060002
-280,512,-0.0493774,-0.103088,0.00906963,-0.00171781,-0.00401113,0.0103976,-0.0030458,-0.319718,0.00813925,0.0129723,944,512,-0.04937,0.103085
-273,512,-0.0164185,-0.0829468,0.0104933,-0.00123915,-0.0054433,0.0126297,-0.00337556,-0.37401,0.00974192,0.0237366,951,512,-0.0164233,0.0829707
-266,512,-0.0618286,-0.151428,0.0115004,-0.00127826,-0.00676059,0.0144132,-0.00419104,-0.406812,0.0112686,0.0330419,958,512,-0.0618385,0.151455
-259,512,-0.101196,-0.240356,0.0122661,-0.000807811,-0.00838192,0.0163588,-0.00490044,-0.454219,0.0128546,0.0402772,965,512,-0.101169,0.240379
-252,512,-0.0375366,-0.509521,0.0132158,-9.77946e-05,-0.0100242,0.0185922,-0.00547416,-0.492295,0.0145665,0.0411711,972,512,-0.0375436,0.509495
-245,512,0.169922,-0.669067,0.0134121,0.000499356,-0.0115926,0.020225,-0.00631354,-0.531321,0.0160083,0.0424209,979,512,0.169905,0.669042
-238,512,0.295654,-0.589355,0.0133727,0.00223567,-0.0124743,0.0214649,-0.00585657,-0.57547,0.01661,0.0441549,986,512,0.295667,0.589351
-231,512,0.52478,-0.549255,0.0139818,0.00622911,-0.0116664,0.022399,-0.00218806,-0.625003,0.0157129,0.0437911,993,512,0.524755,0.549286
-224,512,0.460083,-0.516602,0.0149694,0.0110084,-0.0103801,0.0235562,0.00242157,-0.691133,0.0149624,0.0455661,1000,512,0.460111,0.516576
-217,512,0.2547,-0.560974,0.0162281,0.015199,-0.00922268,0.0249506,0.00647657,-0.757531,0.0149501,0.0481359,1007,512,0.254719,0.560958
-210,512,0.268005,-0.174438,0,0,0,0,0,0,0,-1,1014,512,0.268009,0.174428
-203,512,-3.17737,-1.61572,0,0,0,0,0,0,0,-1,1021,512,-3.17739,1.61571
-196,512,-1.45935,-1.88318,0,0,0,0,0,0,0,-1,1028,512,-1.4593,1.88317
-189,512,-0.253052,-2.60834,0,0,0,0,0,0,0,-1,1035,512,-0.253067,2.60832
-182,512,-0.407471,-0.362793,0.021532,0.0400249,0.00691805,0.0423265,0.0192305,1.24963,0.0244711,0.0425524,1042,512,-0.407452,0.362782
-175,512,-0.156494,-0.562805,0.0232327,0.0449799,0.0125962,0.0507466,0.017466,1.14146,0.029769,0.0432028,1049,512,-0.156449,0.562817
-168,512,0.0616455,-0.443481,0,0,0,0,0,0,0,-1,1056,512,0.0617044,0.443462
-161,512,0.0736084,-0.32251,0,0,0,0,0,0,0,-1,1063,512,0.0735731,0.322499
-154,512,0.144897,-0.211609,0,0,0,0,0,0,0,-1,1070,512,0.144878,0.211613
-147,512,0,0,0,0,0,0,0,0,0,-1,1077,512,0,0
-140,512,0,0,0,0,0,0,0,0,0,-1,1084,512,0,0
-133,512,0,0,0,0,0,0,0,0,0,-1,1091,512,0,0
-126,512,0,0,0,0,0,0,0,0,0,-1,1098,512,0,0
-119,512,0,0,0,0,0,0,0,0,0,-1,1105,512,0,0
-112,512,0,0,0,0,0,0,0,0,0,-1,1112,512,0,0
-105,512,0,0,0,0,0,0,0,0,0,-1,1119,512,0,0
-98,512,0,0,0,0,0,0,0,0,0,-1,1126,512,0,0
-91,512,0,0,0,0,0,0,0,0,0,-1,1133,512,0,0
-84,512,0,0,0,0,0,0,0,0,0,-1,1140,512,0,0
-77,512,0,0,0,0,0,0,0,0,0,-1,1147,512,0,0
-70,512,0,0,0,0,0,0,0,0,0,-1,1154,512,0,0
-63,512,0,0,0,0,0,0,0,0,0,-1,1161,512,0,0
-56,512,0,0,0,0,0,0,0,0,0,-1,1168,512,0,0
-49,512,0,0,0,0,0,0,0,0,0,-1,1175,512,0,0
-42,512,0,0,0,0,0,0,0,0,0,-1,1182,512,0,0
-35,512,0,0,0,0,0,0,0,0,0,-1,1189,512,0,0
-28,512,0,0,0,0,0,0,0,0,0,-1,1196,512,0,0
-21,512,0,0,0,0,0,0,0,0,0,-1,1203,512,0,0
-14,512,0,0,0,0,0,0,0,0,0,-1,1210,512,0,0
-7,512,0,0,0,0,0,0,0,0,0,-1,1217,512,0,0
0,512,0,0,0,0,0,0,0,0,0,-1,1224,512,0,0
7,512,0,0,0,0,0,0,0,0,0,-1,1231,512,0,0
14,512,0,0,0,0,0,0,0,0,0,-1,1238,512,0,0
21,512,0,0,0,0,0,0,0,0,0,-1,1245,512,0,0
28,512,0,0,0,0,0,0,0,0,0,-1,1252,512,0,0
35,512,0,0,0,0,0,0,0,0,0,-1,1259,512,0,0
42,512,0,0,0,0,0,0,0,0,0,-1,1266,512,0,0
49,512,0,0,0,0,0,0,0,0,0,-1,1273,512,0,0
56,512,0,0,0,0,0,0,0,0,0,-1,1280,512,0,0
63,512,0,0,0,0,0,0,0,0,0,-1,1287,512,0,0
70,512,0,0,0,0,0,0,0,0,0,-1,1294,512,0,0
77,512,0,0,0,0,0,0,0,0,0,-1,1301,512,0,0
84,512,0,0,0,0,0,0,0,0,0,-1,1308,512,0,0
91,512,0,0,0,0,0,0,0,0,0,-1,1315,512,0,0
98,512,0,0,0,0,0,0,0,0,0,-1,1322,512,0,0
105,512,0,0,0,0,0,0,0,0,0,-1,1329,512,0,0
112,512,0,0,0,0,0,0,0,0,0,-1,1336,512,0,0
119,512,0,0,0,0,0,0,0,0,0,-1,1343,512,0,0
126,512,0,0,0,0,0,0,0,0,0,-1,1350,512,0,0
133,512,0,0,0,0,0,0,0,0,0,-1,1357,512,0,0
140,512,0,0,0,0,0,0,0,0,0,-1,1364,512,0,0
147,512,0,0,0,0,0,0,0,0,0,-1,1371,512,0,0
154,512,0,0,0,0,0,0,0,0,0,-1,1378,512,0,0
161,512,0,0,0,0,0,0,0,0,0,-1,1385,512,0,0
168,512,0,0,0,0,0,0,0,0,0,-1,1392,512,0,0
175,512,0,0,0,0,0,0,0,0,0,-1,1399,512,0,0
182,512,0,0,0,0,0,0,0,0,0,-1,1406,512,0,0
189,512,0,0,0,0,0,0,0,0,0,-1,1413,512,0,0
196,512,0,0,0,0,0,0,0,0,0,-1,1420,512,0,0
203,512,0,0,0,0,0,0,0,0,0,-1,1427,512,0,0
210,512,0,0,0,0,0,0,0,0,0,-1,1434,512,0,0
217,512,0,0,0,0,0,0,0,0,0,-1,1441,512,0,0
224,512,0,0,0,0,0,0,0,0,0,-1,1448,512,0,0
231,512,0,0,0,0,0,0,0,0,0,-1,1455,512,0,0
238,512,0,0,0,0,0,0,0,0,0,-1,1462,512,0,0
245,512,0,0,0,0,0,0,0,0,0,-1,1469,512,0,0
252,512,0,0,0,0,0,0,0,0,0,-1,1476,512,0,0
259,512,0,0,0,0,0,0,0,0,0,-1,1483,512,0,0
266,512,0,0,0,0,0,0,0,0,0,-1,1490,512,0,0
273,512,0.0395508,-0.461975,0,0,0,0,0,0,0,-1,1497,512,0.0395783,0.461979
280,512,-0.985229,1.0506,0,0,0,0,0,0,0,-1,1504,512,-0.985199,-1.05058
287,512,-1.64343,2.08661,0,0,0,0,0,0,0,-1,1511,512,-1.64338,-2.08662
294,512,0.136963,0.123169,0,0,0,0,0,0,0,-1,1518,512,0.137008,-0.123167
301,512,1.047,-0.0950317,0,0,0,0,0,0,0,-1,1525,512,1.04705,0.0950493
308,512,0.685913,-0.0811768,0,0,0,0,0,0,0,-1,1532,512,0.685945,0.0811673
315,512,0.847534,-1.4328,0,0,0,0,0,0,0,-1,1539,512,0.847546,1.43278
322,512,1.28235,-0.67572,-0.000928341,0.00248363,0.0185946,0.0194503,-0.017895,0.831143,0.0215676,0.0440316,1546,512,1.28233,0.67573
329,512,1.77698,0.148651,0,0,0,0,0,0,0,-1,1553,512,1.777,-0.148658
336,512,-0.342041,-0.316772,0,0,0,0,0,0,0,-1,1560,512,-0.342049,0.316789
343,512,-0.542114,-0.576599,-0.00156535,0.00105138,0.0168081,0.016602,-0.017116,0.82424,0.0194678,0.0437193,1567,512,-0.542126,0.576626
350,512,-0.882324,-0.690918,-0.00171006,0.000673782,0.0148771,0.0144066,-0.0154429,0.825372,0.0172371,0.0425491,1574,512,-0.882287,0.690918
357,512,-0.88269,-0.473267,-0.0012739,0.000795857,0.0134973,0.0132979,-0.013776,0.82366,0.0156319,0.0423712,1581,512,-0.882696,0.473264
364,512,-0.105591,-0.250854,0,0,0,0,0,0,0,-1,1588,512,-0.105638,0.250879
371,512,-0.147827,-0.252258,-0.00112372,0.00301209,0.0115417,0.0126697,-0.0107813,0.874041,0.0135541,0.0432349,1595,512,-0.147852,0.252229
378,512,-0.209106,-0.300171,-0.0015576,0.00313798,0.0102356,0.0112916,-0.00971125,0.898135,0.0121375,0.0427817,1602,512,-0.209088,0.300142
385,512,-0.17688,-0.228271,-0.00161426,0.00322639,0.00885705,0.00998786,-0.00837573,0.918774,0.0106158,0.0428948,1609,512,-0.176837,0.228268
392,512,-0.173096,-0.121277,-0.00147063,0.00275813,0.00739977,0.00833967,-0.00705217,0.924558,0.00889684,0.0404106,1616,512,-0.173115,0.121262
399,512,-0.14209,-0.0767822,-0.00107688,0.00173968,0.00593059,0.0064269,-0.0057641,0.901969,0.00704195,0.0321053,1623,512,-0.142069,0.0767707
406,512,0.00439453,-0.0865479,-0.000886242,0.00122642,0.00444379,0.0047377,-0.00439753,0.902087,0.00527544,0.0256722,1630,512,0.0043847,0.0865755
413,512,0.0125732,-0.0843506,-0.00124689,-0.000264224,0.00316782,0.00245014,-0.00396126,0.862336,0.00373574,0.0199431,1637,512,0.0126252,0.0843348
420,512,-0.0350342,-0.0980835,-0.00142381,-0.000246144,0.00190258,0.00115664,-0.0028266,0.935469,0.00236613,0.0150838,1644,512,-0.0350128,0.0980948
427,512,-0.0296631,-0.0913696,-0.000949336,-0.00039717,0.000750777,0.000126677,-0.00147318,0.961589,0.00102696,0.0125458,1651,512,-0.0296832,0.0913704
434,512,-0.0294189,-0.0748901,-0.000442942,-0.000658732,-0.000266016,-0.000263773,-0.000837901,-0.592737,0.0004947,0.00958934,1658,512,-0.0294279,0.0749167
441,512,-0.057373,-0.0727539,-9.00148e-05,-0.000685396,-0.000890704,0.000551429,-0.00132684,-0.624124,0.0011148,0.0116234,1665,512,-0.0573522,0.0727575
448,512,-0.0605469,-0.0765381,9.34567e-05,-0.000568914,-0.00110057,0.00091159,-0.00138705,-0.639247,0.00133655,0.00842063,1672,512,-0.0605796,0.0765185
455,512,-0.0476074,-0.0670166,1.59867e-05,-0.000339538,-0.000969979,0.000824357,-0.00114791,-0.694772,0.00114378,0.00812488,1679,512,-0.0476476,0.0669934
462,512,-0.0401611,-0.0574341,-4.11871e-05,-0.00019559,-0.000810149,0.000695431,-0.000932208,-0.737895,0.000943026,0.00893282,1686,512,-0.0401643,0.0574446
469,512,-0.0380859,-0.0698242,0.000263021,-5.39507e-05,-0.000417789,0.000551375,-0.000342304,-0.604111,0.000520651,0.0103767,1693,512,-0.0381165,0.0698015
476,512,-0.0300293,-0.0875854,0.00115126,0.000240751,0.000190462,0.00118949,0.000202515,0.198119,0.00073485,0.0137517,1700,512,-0.0299789,0.0875625
483,512,-0.0341797,-0.0634766,0.00176096,0.000360541,0.000555682,0.00195466,0.000166841,0.335411,0.00125121,0.0130163,1707,512,-0.0341951,0.0634693
490,512,-0.027832,-0.0476074,0.0028088,-0.000172122,0.00110645,0.00317461,-0.000537923,0.319295,0.00231662,0.00973952,1714,512,-0.0278843,0.0475848
497,512,-0.0124512,-0.0702515,0.00402463,-0.000164004,0.00174576,0.00465682,-0.000796195,0.347439,0.00340115,0.0105145,1721,512,-0.0125043,0.070246
504,512,-0.0239258,-0.0584717,0.00535468,-0.000370007,0.00246062,0.00626695,-0.00128227,0.355035,0.00466451,0.011466,1728,512,-0.0238671,0.0584712
511,512,-0.0325928,-0.0592041,0.00654216,-0.000290849,0.00301562,0.00768268,-0.00143137,0.361577,0.00565957,0.0116536,1735,512,-0.0325408,0.0592029
518,512,-0.0195313,-0.0569458,0.0079829,-0.000541009,0.00329968,0.00911095,-0.00166906,0.32941,0.00669998,0.0134028,1742,512,-0.0194955,0.056926
525,512,-0.00439453,-0.100342,0.00951266,-0.00148667,0.0033435,0.0104492,-0.00242326,0.273121,0.00789881,0.0325681,1749,512,-0.00441947,0.10035
532,512,-0.020874,-0.196594,0.0106742,-0.00242095,0.00294132,0.0113045,-0.00305126,0.211104,0.00873295,0.0428956,1756,512,-0.0208703,0.196585
539,512,0.0012207,-0.178955,0.0118321,-0.00284979,0.00277446,0.0123389,-0.00335659,0.180674,0.00954366,0.0432776,1763,512,0.00119266,0.178934
546,512,0.0473633,-0.156006,0.0128121,-0.00368625,0.00179367,0.0130049,-0.003879,0.107052,0.0102115,0.042519,1770,512,0.0474007,0.156001
553,512,0.0864258,-0.185059,0,0,0,0,0,0,0,-1,1777,512,0.0864086,0.185078
560,512,-0.134766,0.0830078,0.0136305,-0.00597767,-0.000970498,0.0136785,-0.00602558,-0.0493337,0.0116586,0.0422658,1784,512,-0.134777,-0.0830132
567,512,-0.263916,-0.299133,0.0140204,-0.00697714,-0.00275959,0.014377,-0.00733376,-0.128517,0.0127527,0.041333,1791,512,-0.263967,0.299104
574,512,0,0,0,0,0,0,0,0,0,-1,1798,512,0,0
581,512,0,0,0,0,0,0,0,0,0,-1,1805,512,0,0
588,512,0,0,0,0,0,0,0,0,0,-1,1812,512,0,0
595,512,0,0,0,0,0,0,0,0,0,-1,1819,512,0,0
602,512,0,0,0,0,0,0,0,0,0,-1,1826,512,0,0
609,512,0,0,0,0,0,0,0,0,0,-1,1833,512,0,0
616,512,0,0,0,0,0,0,0,0,0,-1,1840,512,0,0
623,512,0,0,0,0,0,0,0,0,0,-1,1847,512,0,0
630,512,0,0,0,0,0,0,0,0,0,-1,1854,512,0,0
637,512,0,0,0,0,0,0,0,0,0,-1,1861,512,0,0
644,512,0,0,0,0,0,0,0,0,0,-1,1868,512,0,0
651,512,0,0,0,0,0,0,0,0,0,-1,1875,512,0,0
658,512,0,0,0,0,0,0,0,0,0,-1,1882,512,0,0
665,512,0,0,0,0,0,0,0,0,0,-1,1889,512,0,0
672,512,0,0,0,0,0,0,0,0,0,-1,1896,512,0,0
679,512,0,0,0,0,0,0,0,0,0,-1,1903,512,0,0
686,512,0,0,0,0,0,0,0,0,0,-1,1910,512,0,0
693,512,0,0,0,0,0,0,0,0,0,-1,1917,512,0,0
700,512,0,0,0,0,0,0,0,0,0,-1,1924,512,0,0
707,512,0,0,0,0,0,0,0,0,0,-1,1931,512,0,0
714,512,0,0,0,0,0,0,0,0,0,-1,1938,512,0,0
721,512,0,0,0,0,0,0,0,0,0,-1,1945,512,0,0
728,512,0,0,0,0,0,0,0,0,0,-1,1952,512,0,0
735,512,0,0,0,0,0,0,0,0,0,-1,1959,512,0,0
742,512,0,0,0,0,0,0,0,0,0,-1,1966,512,0,0
749,512,0,0,0,0,0,0,0,0,0,-1,1973,512,0,0
756,512,0,0,0,0,0,0,0,0,0,-1,1980,512,0,0
763,512,0,0,0,0,0,0,0,0,0,-1,1987,512,0,0
770,512,0,0,0,0,0,0,0,0,0,-1,1994,512,0,0
777,512,0,0,0,0,0,0,0,0,0,-1,2001,512,0,0
784,512,0,0,0,0,0,0,0,0,0,-1,2008,512,0,0
791,512,0,0,0,0,0,0,0,0,0,-1,2015,512,0,0
798,512,0,0,0,0,0,0,0,0,0,-1,2022,512,0,0
805,512,0,0,0,0,0,0,0,0,0,-1,2029,512,0,0
812,512,0,0,0,0,0,0,0,0,0,-1,2036,512,0,0
-700,505,0,0,0,0,0,0,0,0,0,-1,524,519,0,0
-693,505,0,0,0,0,0,0,0,0,0,-1,531,519,0,0
-686,505,0,0,0,0,0,0,0,0,0,-1,538,519,0,0
-679,505,0,0,0,0,0,0,0,0,0,-1,545,519,0,0
-672,505,0,0,0,0,0,0,0,0,0,-1,552,519,0,0
-665,505,0,0,0,0,0,0,0,0,0,-1,559,519,0,0
-658,505,0,0,0,0,0,0,0,0,0,-1,566,519,0,0
-651,505,0,0,0,0,0,0,0,0,0,-1,573,519,0,0
-644,505,0,0,0,0,0,0,0,0,0,-1,580,519,0,0
-637,505,0,0,0,0,0,0,0,0,0,-1,587,519,0,0
-630,505,0,0,0,0,0,0,0,0,0,-1,594,519,0,0
-623,505,0,0,0,0,0,0,0,0,0,-1,601,519,0,0
-616,505,0,0,0,0,0,0,0,0,0,-1,608,519,0,0
-609,505,0,0,0,0,0,0,0,0,0,-1,615,519,0,0
-602,505,0,0,0,0,0,0,0,0,0,-1,622,519,0,0
-595,505,0,0,0,0,0,0,0,0,0,-1,629,519,0,0
-588,505,0,0,0,0,0,0,0,0,0,-1,636,519,0,0
-581,505,0,0,0,0,0,0,0,0,0,-1,643,519,0,0
-574,505,0,0,0,0,0,0,0,0,0,-1,650,519,0,0
-567,505,0,0,0,0,0,0,0,0,0,-1,657,519,0,0
-560,505,0,0,0,0,0,0,0,0,0,-1,664,519,0,0
-553,505,0,0,0,0,0,0,0,0,0,-1,671,519,0,0
-546,505,0,0,0,0,0,0,0,0,0,-1,678,519,0,0
-539,505,0,0,0,0,0,0,0,0,0,-1,685,519,0,0
-532,505,0,0,0,0,0,0,0,0,0,-1,692,519,0,0
-525,505,0,0,0,0,0,0,0,0,0,-1,699,519,0,0
-518,505,0,0,0,0,0,0,0,0,0,-1,706,519,0,0
-511,505,0,0,0,0,0,0,0,0,0,-1,713,519,0,0
-504,505,0,0,0,0,0,0,0,0,0,-1,720,519,0,0
-497,505,0,0,0,0,0,0,0,0,0,-1,727,519,0,0
-490,505,0,0,0,0,0,0,0,0,0,-1,734,519,0,0
-483,505,0,0,0,0,0,0,0,0,0,-1,741,519,0,0
-476,505,0,0,0,0,0,0,0,0,0,-1,748,519,0,0
-469,505,0,0,0,0,0,0,0,0,0,-1,755,519,0,0
-462,505,0,0,0,0,0,0,0,0,0,-1,762,519,0,0
-455,505,1.07977,0.583984,0,0,0,0,0,0,0,-1,769,519,1.07976,-0.583967
-448,505,0.865479,0.76178,0.0981837,0.0677085,0.020832,0.108756,0.0571361,0.469636,0.0628173,0.0454275,776,519,0.865461,-0.761795
-441,505,0.547546,0.975708,0.0764839,0.0572235,0.01777,0.0870654,0.046642,0.537082,0.05031,0.0465909,783,519,0.547562,-0.975723
-434,505,-0.119751,-0.150208,0,0,0,0,0,0,0,-1,790,519,-0.119775,0.150203
-427,505,2.83038,1.01343,0,0,0,0,0,0,0,-1,797,519,2.83036,-1.01342
-420,505,1.99731,0.755432,0.0299049,0.0318892,0.00697201,0.0379393,0.0238548,0.856076,0.0221451,0.045249,804,519,1.99733,-0.755403
-413,505,1.12384,0.451233,0.0202961,0.027008,0.0049133,0.0296021,0.017702,1.08502,0.0171999,0.0448282,811,519,1.12385,-0.451239
-406,505,0.423584,0.1875,0.0142689,0.021746,0.00315453,0.0228991,0.0131158,1.22036,0.0132674,0.0417166,818,519,0.423577,-0.18749
-399,505,0.0255127,-0.0917969,0.0112221,0.0171991,0.00191362,0.0177593,0.0106619,1.28602,0.010322,0.0401256,825,519,0.0254997,0.0918256
-392,505,-0.0188599,-0.0912476,0.00875202,0.0128421,0.000649155,0.0129426,0.00865146,1.41711,0.00761247,0.0187969,832,519,-0.0188677,0.0912546
-385,505,-0.0145264,-0.0848999,0.00819685,0.00791631,-0.000656509,0.00872791,0.00738526,-0.68015,0.00542671,0.00782313,839,519,-0.0145539,0.0849013
-378,505,-0.0239258,-0.0881348,0.00762962,0.00614414,6.19993e-05,0.0076322,0.00614156,0.0416405,0.00467122,0.00938868,846,519,-0.0239172,0.0881341
-371,505,-0.0170288,-0.107544,0.00679026,0.00458099,0.000398894,0.00686008,0.00451118,0.173269,0.00402572,0.0125067,853,519,-0.0170435,0.107539
-364,505,-0.02771,-0.0949097,0.0062628,0.00330375,0.000862072,0.00649563,0.00307092,0.263789,0.00375211,0.0139449,860,519,-0.0276862,0.0949384
-357,505,-0.00701904,-0.0812378,0.0055058,0.00199812,0.000879531,0.00571398,0.00178994,0.232419,0.0033748,0.0114715,867,519,-0.00702607,0.0812289
-350,505,0.00970459,-0.0800781,0.00402869,0.000463643,0.000863003,0.00422661,0.000265722,0.225443,0.00273347,0.0107267,874,519,0.00971025,0.0800984
-343,505,-0.00695801,-0.0753174,0.00259588,-0.000370346,0.000186852,0.0026076,-0.00038207,0.062663,0.00187875,0.00845617,881,519,-0.00696674,0.0752882
-336,505,-0.012085,-0.0606689,0.00173028,-0.000896189,-0.000320583,0.00176884,-0.000934753,-0.119717,0.00158549,0.00908828,888,519,-0.0120919,0.0606724
-329,505,-0.0181274,-0.0583496,0.00195593,-0.0012312,-0.00036228,0.0019966,-0.00127186,-0.11177,0.00190245,0.0108985,895,519,-0.0181493,0.0583437
-322,505,-0.0536499,-0.0544434,0.00242594,-0.00167232,-0.000489501,0.00248359,-0.00172998,-0.117244,0.00244564,0.0122096,902,519,-0.0536225,0.0544346
-315,505,-0.059021,-0.0765991,0.00337299,-0.00235198,-0.00073092,0.00346484,-0.00244382,-0.125001,0.0034283,0.0118807,909,519,-0.0589929,0.0765971
-308,505,-0.0372925,-0.0894165,0.00510178,-0.00294079,-0.00110682,0.00525132,-0.00309033,-0.134295,0.00486962,0.0114462,916,519,-0.0372772,0.089421
-301,505,-0.0325317,-0.0692139,0.0074172,-0.00340151,-0.00190329,0.00774227,-0.00372658,-0.169162,0.00675548,0.0137016,923,519,-0.032507,0.0692248
-294,505,-0.0534058,-0.0578613,0.00936485,-0.00379667,-0.00275775,0.00991932,-0.00435115,-0.198415,0.00844553,0.0155017,930,519,-0.0533775,0.0578741
-287,505,-0.0686646,-0.115051,0.0109817,-0.00386853,-0.00380502,0.0118999,-0.0047867,-0.236779,0.0099215,0.0199047,937,519,-0.0686471,0.115065
-280,505,-0.0366211,-0.127014,0.012729,-0.00349794,-0.0052446,0.0142764,-0.00504543,-0.286923,0.0115721,0.031509,944,519,-0.0366064,0.126996
-273,505,0.0193481,-0.0618896,0.0143038,-0.00315594,-0.00685449,0.0166733,-0.00552538,-0.332818,0.0133442,0.0391415,951,519,0.0193577,0.0618692
-266,505,-0.144897,-0.222473,0.015315,-0.0032577,-0.00837961,0.0185368,-0.00647952,-0.367058,0.014992,0.0421427,958,519,-0.144895,0.222478
-259,505,-0.121094,-0.282898,0.0159026,-0.00282088,-0.0102308,0.0204085,-0.00732681,-0.414864,0.0165961,0.0411784,965,519,-0.121069,0.282928
-252,505,0.302795,-0.386108,0.0163944,-0.00212954,-0.012119,0.0223854,-0.00812061,-0.459119,0.0182432,0.0398184,972,519,0.302819,0.386113
-245,505,0.469666,-0.467407,0.0158638,-0.00153871,-0.0139375,0.0235931,-0.00926806,-0.506348,0.0195641,0.0440458,979,519,0.469671,0.467433
-238,505,0.470825,-0.706055,0.014949,9.18634e-05,-0.014988,0.0242484,-0.00920749,-0.555323,0.0199558,0.0494384,986,519,0.470842,0.706076
-231,505,0.580444,-0.738953,0.0149319,0.00445755,-0.0139558,0.0246008,-0.00521137,-0.605895,0.0183855,0.0498442,993,519,0.580455,0.738929
-224,505,0.627869,-0.53302,0.0155193,0.00995999,-0.0122236,0.0252753,0.00020401,-0.673598,0.0167826,0.046613,1000,519,0.62788,0.53302
-217,505,0.527893,-0.385498,0.0161402,0.0146863,-0.0106132,0.0260514,0.00477516,-0.751205,0.016015,0.0465837,1007,519,0.527878,0.385486
-210,505,0.480774,-0.174011,0,0,0,0,0,0,0,-1,1014,519,0.480803,0.174013
-203,505,0.409424,-0.0812988,0,0,0,0,0,0,0,-1,1021,519,0.40942,0.081273
-196,505,-1.75696,-1.67584,0,0,0,0,0,0,0,-1,1028,519,-1.75692,1.67587
-189,505,0.168823,-2.05273,0,0,0,0,0,0,0,-1,1035,519,0.168765,2.05276
-182,505,-0.857666,-0.957214,0.0204495,0.0465378,0.00977645,0.0497949,0.0171925,1.24921,0.0292044,0.0436553,1042,519,-0.857709,0.957218
-175,505,-0.638184,-1.245,0.0243249,0.0569203,0.0190193,0.0656695,0.0155757,1.13964,0.0396217,0.0444264,1049,519,-0.638203,1.24498
-168,505,0,0,0,0,0,0,0,0,0,-1,1056,519,0,0
-161,505,0,0,0,0,0,0,0,0,0,-1,1063,519,0,0
-154,505,0,0,0,0,0,0,0,0,0,-1,1070,519,0,0
-147,505,0,0,0,0,0,0,0,0,0,-1,1077,519,0,0
-140,505,0,0,0,0,0,0,0,0,0,-1,1084,519,0,0
-133,505,0,0,0,0,0,0,0,0,0,-1,1091,519,0,0
-126,505,0,0,0,0,0,0,0,0,0,-1,1098,519,0,0
-119,505,0,0,0,0,0,0,0,0,0,-1,1105,519,0,0
-112,505,0,0,0,0,0,0,0,0,0,-1,1112,519,0,0
-105,505,0,0,0,0,0,0,0,0,0,-1,1119,519,0,0
-98,505,0,0,0,0,0,0,0,0,0,-1,1126,519,0,0
-91,505,0,0,0,0,0,0,0,0,0,-1,1133,519,0,0
-84,505,0,0,0,0,0,0,0,0,0,-1,1140,519,0,0
-77,505,0,0,0,0,0,0,0,0,0,-1,1147,519,0,0
-70,505,0,0,0,0,0,0,0,0,0,-1,1154,519,0,0
-63,505,0,0,0,0,0,0,0,0,0,-1,1161,519,0,0
-56,505,0,0,0,0,0,0,0,0,0,-1,1168,519,0,0
-49,505,0,0,0,0,0,0,0,0,0,-1,1175,519,0,0
-42,505,0,0,0,0,0,0,0,0,0,-1,1182,519,0,0
-35,505,0,0,0,0,0,0,0,0,0,-1,1189,519,0,0
-28,505,0,0,0,0,0,0,0,0,0,-1,1196,519,0,0
-21,505,0,0,0,0,0,0,0,0,0,-1,1203,519,0,0
-14,505,0,0,0,0,0,0,0,0,0,-1,1210,519,0,0
-7,505,0,0,0,0,0,0,0,0,0,-1,1217,519,0,0
0,505,0,0,0,0,0,0,0,0,0,-1,1224,519,0,0
7,505,0,0,0,0,0,0,0,0,0,-1,1231,519,0,0
14,505,0,0,0,0,0,0,0,0,0,-1,1238,519,0,0
21,505,0,0,0,0,0,0,0,0,0,-1,1245,519,0,0
28,505,0,0,0,0,0,0,0,0,0,-1,1252,519,0,0
35,505,0,0,0,0,0,0,0,0,0,-1,1259,519,0,0
42,505,0,0,0,0,0,0,0,0,0,-1,1266,519,0,0
49,505,0,0,0,0,0,0,0,0,0,-1,1273,519,0,0
56,505,0,0,0,0,0,0,0,0,0,-1,1280,519,0,0
63,505,0,0,0,0,0,0,0,0,0,-1,1287,519,0,0
70,505,0,0,0,0,0,0,0,0,0,-1,1294,519,0,0
77,505,0,0,0,0,0,0,0,0,0,-1,1301,519,0,0
84,505,0,0,0,0,0,0,0,0,0,-1,1308,519,0,0
91,505,0,0,0,0,0,0,0,0,0,-1,1315,519,0,0
98,505,0,0,0,0,0,0,0,0,0,-1,1322,519,0,0
105,505,0,0,0,0,0,0,0,0,0,-1,1329,519,0,0
112,505,0,0,0,0,0,0,0,0,0,-1,1336,519,0,0
119,505,0,0,0,0,0,0,0,0,0,-1,1343,519,0,0
126,505,0,0,0,0,0,0,0,0,0,-1,1350,519,0,0
133,505,0,0,0,0,0,0,0,0,0,-1,1357,519,0,0
140,505,0,0,0,0,0,0,0,0,0,-1,1364,519,0,0
147,505,0,0,0,0,0,0,0,0,0,-1,1371,519,0,0
154,505,0,0,0,0,0,0,0,0,0,-1,1378,519,0,0
161,505,0,0,0,0,0,0,0,0,0,-1,1385,519,0,0
168,505,0,0,0,0,0,0,0,0,0,-1,1392,519,0,0
175,505,0,0,0,0,0,0,0,0,0,-1,1399,519,0,0
182,505,0,0,0,0,0,0,0,0,0,-1,1406,519,0,0
189,505,0,0,0,0,0,0,0,0,0,-1,1413,519,0,0
196,505,0,0,0,0,0,0,0,0,0,-1,1420,519,0,0
203,505,0,0,0,0,0,0,0,0,0,-1,1427,519,0,0
210,505,0,0,0,0,0,0,0,0,0,-1,1434,519,0,0
217,505,0,0,0,0,0,0,0,0,0,-1,1441,519,0,0
224,505,0,0,0,0,0,0,0,0,0,-1,1448,519,0,0
231,505,0,0,0,0,0,0,0,0,0,-1,1455,519,0,0
238,505,0,0,0,0,0,0,0,0,0,-1,1462,519,0,0
245,505,0,0,0,0,0,0,0,0,0,-1,1469,519,0,0
252,505,0,0,0,0,0,0,0,0,0,-1,1476,519,0,0
259,505,0,0,0,0,0,0,0,0,0,-1,1483,519,0,0
266,505,0,0,0,0,0,0,0,0,0,-1,1490,519,0,0
273,505,0,0,0,0,0,0,0,0,0,-1,1497,519,0,0
280,505,0,0,0,0,0,0,0,0,0,-1,1504,519,0,0
287,505,-0.0167236,-0.189331,0,0,0,0,0,0,0,-1,1511,519,-0.0166653,0.189344
294,505,1.98621,-0.977112,0,0,0,0,0,0,0,-1,1518,519,1.98616,0.977094
301,505,1.52771,-0.622742,0,0,0,0,0,0,0,-1,1525,519,1.52768,0.622769
308,505,1.13501,-0.559082,0,0,0,0,0,0,0,-1,1532,519,1.13497,0.559111
315,505,0.908325,-1.11786,0,0,0,0,0,0,0,-1,1539,519,0.908371,1.11784
322,505,0.966797,-0.938843,0,0,0,0,0,0,0,-1,1546,519,0.966846,0.93884
329,505,1.34912,-1.45306,0,0,0,0,0,0,0,-1,1553,519,1.34917,1.45304
336,505,1.34265,0.0487061,0,0,0,0,0,0,0,-1,1560,519,1.3427,-0.0487052
343,505,-1.01147,-0.794739,0,0,0,0,0,0,0,-1,1567,519,-1.01143,0.794758
350,505,-0.786621,-0.753174,-0.000898629,-0.00129764,0.0176196,0.0165226,-0.0187189,0.779737,0.0203598,0.0431981,1574,519,-0.786588,0.75317
357,505,-0.6698,-0.312805,-0.000710423,-0.000403746,0.0161091,0.0155527,-0.0166669,0.790157,0.0186057,0.0389788,1581,519,-0.66984,0.312805
364,505,-0.342407,-0.253967,-0.000623799,0.00177275,0.0151153,0.0157372,-0.0145883,0.824953,0.0175126,0.041186,1588,519,-0.342461,0.253981
371,505,-0.298462,-0.343628,-0.00115429,0.00249805,0.0138987,0.01469,-0.0133462,0.85072,0.0161929,0.0450955,1595,519,-0.298488,0.343616
378,505,-0.239136,-0.463501,-0.00179646,0.00275801,0.0123915,0.0130798,-0.0121182,0.876271,0.0145516,0.0454777,1602,519,-0.239079,0.463519
385,505,-0.0997314,-0.0249023,-0.00199485,0.00290287,0.0106436,0.0113757,-0.0104676,0.89847,0.0126149,0.0428616,1609,519,-0.0997113,0.0248763
392,505,-0.296631,-0.116821,0,0,0,0,0,0,0,-1,1616,519,-0.29657,0.116807
399,505,-0.57666,0.974426,0,0,0,0,0,0,0,-1,1623,519,-0.576637,-0.97445
406,505,-0.00866699,-0.086792,-0.00125168,0.00212579,0.00528147,0.00598194,-0.00510783,0.940135,0.00640931,0.039288,1630,519,-0.00864602,0.0868061
413,505,0.0511475,-0.0800781,-0.00172898,0.000453848,0.00378808,0.00330461,-0.00457974,0.925659,0.00457183,0.0333204,1637,519,0.0511366,0.0800893
420,505,0.00378418,-0.0922852,-0.00192627,0.00104225,0.00220811,0.00221858,-0.0031026,1.0813,0.00308629,0.0255858,1644,519,0.00382321,0.0922804
427,505,-0.0352783,-0.0871582,-0.00133733,0.00118294,0.00074087,0.00138459,-0.00153898,1.30505,0.00168871,0.0128654,1651,519,-0.0352676,0.0871846
434,505,-0.0330811,-0.0900879,-0.000722011,0.00102311,-0.000526408,0.0011696,-0.000868502,-1.29938,0.00118097,0.00877922,1658,519,-0.0331417,0.0900953
441,505,-0.041748,-0.0670776,-0.000302358,0.00101519,-0.00126597,0.00178353,-0.0010707,-1.0253,0.00166493,0.00960902,1665,519,-0.0417393,0.0670533
448,505,-0.0314941,-0.053833,-9.90009e-05,0.00108699,-0.00147255,0.00208146,-0.00109347,-0.976814,0.0018624,0.00969297,1672,519,-0.0315381,0.053844
455,505,-0.0181885,-0.0568848,-0.000195566,0.00121484,-0.00127133,0.00196346,-0.00094418,-1.03862,0.00171276,0.00926336,1679,519,-0.0182335,0.0568935
462,505,-0.0377197,-0.0525513,-0.000265612,0.00117754,-0.00104906,0.00172923,-0.000817296,-1.08666,0.00150133,0.00920271,1686,519,-0.0377216,0.0525283
469,505,-0.0579834,-0.0583496,-4.5763e-05,0.00108516,-0.000675073,0.00140031,-0.000360909,-1.13403,0.00107425,0.00970672,1693,519,-0.0580423,0.0583246
476,505,-0.0496826,-0.0731812,0.000635026,0.00111982,-0.000166156,0.0011713,0.000583546,-1.27035,0.000676255,0.0104422,1700,519,-0.0496645,0.0731873
483,505,-0.0343018,-0.0786743,0.00107745,0.000961706,0.000106598,0.00114087,0.000898284,0.53671,0.000693998,0.01184,1707,519,-0.0342773,0.0786583
490,505,-0.0175781,-0.0720215,0.00185154,0.00029739,0.000540684,0.00202113,0.000127794,0.30395,0.00130691,0.0111666,1714,519,-0.0175941,0.0720428
497,505,-0.0153809,-0.0845947,0.00274458,9.67895e-05,0.000992592,0.00307535,-0.000233987,0.321671,0.00213251,0.0112114,1721,519,-0.0153388,0.0845692
504,505,-0.0216064,-0.0747681,0.00370154,-0.000338764,0.0014636,0.00417601,-0.000813231,0.313489,0.00309095,0.0122194,1728,519,-0.0216439,0.0747939
511,505,-0.0228271,-0.0750122,0.00453223,-0.000300895,0.00185768,0.00516374,-0.000932404,0.32769,0.0037917,0.0131912,1735,519,-0.0227874,0.075032
518,505,-0.0117188,-0.0991821,0.00559546,-0.000528817,0.00195727,0.00616755,-0.00110091,0.284368,0.00452355,0.0169196,1742,519,-0.0117479,0.099192
525,505,0.00793457,-0.130493,0.00674211,-0.00130963,0.00182743,0.00713745,-0.00170498,0.213055,0.00541682,0.0236612,1749,519,0.00789248,0.130504
532,505,0.0012207,-0.183899,0.00755679,-0.00209373,0.00133794,0.00773885,-0.00227579,0.135242,0.00606194,0.0375483,1756,519,0.00122211,0.183903
539,505,-0.0450439,-0.21167,0.00849818,-0.00229049,0.00122917,0.00863645,-0.00242876,0.112019,0.00671526,0.0405433,1763,519,-0.045046,0.21168
546,505,-0.221558,-0.151733,0.00943126,-0.00281776,0.000466228,0.00944898,-0.00283548,0.0379892,0.00742715,0.0420915,1770,519,-0.221576,0.15175
553,505,-0.107666,-0.13501,0.0101507,-0.00364847,-0.000262596,0.0101557,-0.00365346,-0.0190207,0.00826209,0.0447379,1777,519,-0.107657,0.135
560,505,0.270996,-0.130005,0.0108261,-0.00414668,-0.000970349,0.0108887,-0.0042093,-0.0644482,0.0089967,0.0436786,1784,519,0.271054,0.129984
567,505,0.366699,-0.360779,0.0117337,-0.00417672,-0.0017832,0.0119312,-0.00437413,-0.110255,0.00974505,0.042535,1791,519,0.366668,0.360753
574,505,0.415283,-0.664368,0.012591,-0.00444404,-0.00302975,0.0131138,-0.00496685,-0.170876,0.0107863,0.0429591,1798,519,0.415245,0.664352
581,505,0,0,0,0,0,0,0,0,0,-1,1805,519,0,0
588,505,0,0,0,0,0,0,0,0,0,-1,1812,519,0,0
595,505,0,0,0,0,0,0,0,0,0,-1,1819,519,0,0
602,505,0,0,0,0,0,0,0,0,0,-1,1826,519,0,0
609,505,0,0,0,0,0,0,0,0,0,-1,1833,519,0,0
616,505,0,0,0,0,0,0,0,0,0,-1,1840,519,0,0
623,505,0,0,0,0,0,0,0,0,0,-1,1847,519,0,0
630,505,0,0,0,0,0,0,0,0,0,-1,1854,519,0,0
637,505,0,0,0,0,0,0,0,0,0,-1,1861,519,0,0
644,505,0,0,0,0,0,0,0,0,0,-1,1868,519,0,0
651,505,0,0,0,0,0,0,0,0,0,-1,1875,519,0,0
658,505,0,0,0,0,0,0,0,0,0,-1,1882,519,0,0
665,505,0,0,0,0,0,0,0,0,0,-1,1889,519,0,0
672,505,0,0,0,0,0,0,0,0,0,-1,1896,519,0,0
679,505,0,0,0,0,0,0,0,0,0,-1,1903,519,0,0
686,505,0,0,0,0,0,0,0,0,0,-1,1910,519,0,0
693,505,0,0,0,0,0,0,0,0,0,-1,1917,519,0,0
700,505,0,0,0,0,0,0,0,0,0,-1,1924,519,0,0
707,505,0,0,0,0,0,0,0,0,0,-1,1931,519,0,0
714,505,0,0,0,0,0,0,0,0,0,-1,1938,519,0,0
721,505,0,0,0,0,0,0,0,0,0,-1,1945,519,0,0
728,505,0,0,0,0,0,0,0,0,0,-1,1952,519,0,0
735,505,0,0,0,0,0,0,0,0,0,-1,1959,519,0,0
742,505,0,0,0,0,0,0,0,0,0,-1,1966,519,0,0
749,505,0,0,0,0,0,0,0,0,0,-1,1973,519,0,0
756,505,0,0,0,0,0,0,0,0,0,-1,1980,519,0,0
763,505,0,0,0,0,0,0,0,0,0,-1,1987,519,0,0
770,505,0,0,0,0,0,0,0,0,0,-1,1994,519,0,0
777,505,0,0,0,0,0,0,0,0,0,-1,2001,519,0,0
784,505,0,0,0,0,0,0,0,0,0,-1,2008,519,0,0
791,505,0,0,0,0,0,0,0,0,0,-1,2015,519,0,0
798,505,0,0,0,0,0,0,0,0,0,-1,2022,519,0,0
805,505,0,0,0,0,0,0,0,0,0,-1,2029,519,0,0
812,505,0,0,0,0,0,0,0,0,0,-1,2036,519,0,0
-700,498,0,0,0,0,0,0,0,0,0,-1,524,526,0,0
-693,498,0,0,0,0,0,0,0,0,0,-1,531,526,0,0
-686,498,0,0,0,0,0,0,0,0,0,-1,538,526,0,0
-679,498,0,0,0,0,0,0,0,0,0,-1,545,526,0,0
-672,498,0,0,0,0,0,0,0,0,0,-1,552,526,0,0
-665,498,0,0,0,0,0,0,0,0,0,-1,559,526,0,0
-658,498,0,0,0,0,0,0,0,0,0,-1,566,526,0,0
-651,498,0,0,0,0,0,0,0,0,0,-1,573,526,0,0
-644,498,0,0,0,0,0,0,0,0,0,-1,580,526,0,0
-637,498,0,0,0,0,0,0,0,0,0,-1,587,526,0,0
-630,498,0,0,0,0,0,0,0,0,0,-1,594,526,0,0
-623,498,0,0,0,0,0,0,0,0,0,-1,601,526,0,0
-616,498,0,0,0,0,0,0,0,0,0,-1,608,526,0,0
-609,498,0,0,0,0,0,0,0,0,0,-1,615,526,0,0
-602,498,0,0,0,0,0,0,0,0,0,-1,622,526,0,0
-595,498,0,0,0,0,0,0,0,0,0,-1,629,526,0,0
-588,498,0,0,0,0,0,0,0,0,0,-1,636,526,0,0
-581,498,0,0,0,0,0,0,0,0,0,-1,643,526,0,0
-574,498,0,0,0,0,0,0,0,0,0,-1,650,526,0,0
-567,498,0,0,0,0,0,0,0,0,0,-1,657,526,0,0
-560,498,0,0,0,0,0,0,0,0,0,-1,664,526,0,0
-553,498,0,0,0,0,0,0,0,0,0,-1,671,526,0,0
-546,498,0,0,0,0,0,0,0,0,0,-1,678,526,0,0
-539,498,0,0,0,0,0,0,0,0,0,-1,685,526,0,0
-532,498,0,0,0,0,0,0,0,0,0,-1,692,526,0,0
-525,498,0,0,0,0,0,0,0,0,0,-1,699,526,0,0
-518,498,0,0,0,0,0,0,0,0,0,-1,706,526,0,0
-511,498,0,0,0,0,0,0,0,0,0,-1,713,526,0,0
-504,498,0,0,0,0,0,0,0,0,0,-1,720,526,0,0
-497,498,0,0,0,0,0,0,0,0,0,-1,727,526,0,0
-490,498,0,0,0,0,0,0,0,0,0,-1,734,526,0,0
-483,498,0,0,0,0,0,0,0,0,0,-1,741,526,0,0
-476,498,0,0,0,0,0,0,0,0,0,-1,748,526,0,0
-469,498,0,0,0,0,0,0,0,0,0,-1,755,526,0,0
-462,498,-2.74951,-0.974731,0,0,0,0,0,0,0,-1,762,526,-2.74953,0.97474
-455,498,-1.64691,-0.782959,0,0,0,0,0,0,0,-1,769,526,-1.64689,0.782957
-448,498,0.644287,0.246399,0,0,0,0,0,0,0,-1,776,526,0.644299,-0.246389
-441,498,-0.0514526,-0.108765,0,0,0,0,0,0,0,-1,783,526,-0.0514239,0.108768
-434,498,-0.127319,-0.113342,0.0452021,0.0342287,0.00762495,0.0491092,0.0303216,0.473527,0.0286127,0.0466173,790,526,-0.127307,0.113337
-427,498,-0.0432739,-0.345215,0.0314921,0.0288794,0.0050302,0.0353828,0.0249887,0.658355,0.0209995,0.0497597,797,526,-0.0432724,0.345208
-420,498,0.0809326,0.250122,0,0,0,0,0,0,0,-1,804,526,0.0809111,-0.250142
-413,498,0.176758,0.0650024,0.0131103,0.0204335,0.00197858,0.0209339,0.0126099,1.32309,0.0121703,0.0430733,811,526,0.176759,-0.0650249
-406,498,0.165833,-0.0765991,0.00789716,0.0166707,0.00071601,0.0167288,0.00783911,1.4899,0.00966472,0.0374149,818,526,0.165859,0.0766168
-399,498,0.00390625,-0.0620728,0.0054123,0.0133378,-0.000142803,0.0133404,0.00540973,-1.55279,0.00774778,0.0231209,825,526,0.00388151,0.0620687
-392,498,-0.0136108,-0.0719604,0.0036579,0.00986865,-0.00109843,0.0100572,0.00346936,-1.4008,0.00589884,0.0110951,832,526,-0.0136158,0.0719579
-385,498,-0.0285034,-0.0834961,0.00362154,0.00579852,-0.00204896,0.00703017,0.00238989,-1.02956,0.00412761,0.00789984,839,526,-0.0284821,0.083498
-378,498,-0.0314941,-0.0823975,0.00364275,0.00441548,-0.00116696,0.00525837,0.00279986,-0.945264,0.00303805,0.00907988,846,526,-0.0314861,0.0824016
-371,498,0.00317383,-0.0780029,0.00344518,0.00314547,-0.00059307,0.00390703,0.00268362,-0.661653,0.00230764,0.0146166,853,526,0.0031925,0.0779977
-364,498,0.00866699,-0.0916138,0.00349715,0.00204007,4.88053e-05,0.00349878,0.00203844,0.0334454,0.00202919,0.015662,860,526,0.00864775,0.0916287
-357,498,-0.0177002,-0.0980835,0.00333562,0.000839376,0.000244739,0.00335939,0.000815608,0.0968148,0.00202328,0.0110981,867,526,-0.0176876,0.0980992
-350,498,-0.015625,-0.0738525,0.00261648,-0.000503921,0.000417382,0.00267134,-0.000558785,0.130699,0.00199344,0.0101132,874,526,-0.0156154,0.0738603
-343,498,-0.0123291,-0.0718994,0.00211079,-0.00130773,-3.69931e-05,0.00211119,-0.00130813,-0.0108197,0.00199221,0.010006,881,526,-0.012314,0.0718943
-336,498,0.00201416,-0.0606079,0.00193805,-0.00192632,-0.000449128,0.00198956,-0.00197783,-0.114195,0.00229058,0.0124657,888,526,0.00202985,0.0605942
-329,498,-0.0316162,-0.0471802,0.00283912,-0.00240971,-0.000488409,0.00288418,-0.00245477,-0.0919986,0.00308576,0.0169831,895,526,-0.0316018,0.0471882
-322,498,-0.0518188,-0.053833,0.00397072,-0.00296043,-0.000713339,0.00404337,-0.00303308,-0.1015,0.00409945,0.0161448,902,526,-0.0518182,0.05382
-315,498,-0.0579224,-0.0702515,0.00555306,-0.00377129,-0.00119153,0.00570291,-0.00392114,-0.125108,0.0055881,0.014624,909,526,-0.0579423,0.0702322
-308,498,-0.0371704,-0.0847168,0.00791017,-0.00451314,-0.00176727,0.00815668,-0.00475965,-0.138592,0.00754272,0.0106841,916,526,-0.0371511,0.0847308
-301,498,-0.00994873,-0.0821533,0.010865,-0.00513416,-0.00278348,0.0113354,-0.00560459,-0.167426,0.00996511,0.0128066,923,526,-0.00991908,0.0821564
-294,498,-0.0259399,-0.0791016,0.0132595,-0.00568567,-0.00383399,0.014006,-0.00643215,-0.192296,0.012067,0.0252353,930,526,-0.0259529,0.0791273
-287,498,-0.103088,-0.133728,0.0151501,-0.00582044,-0.0051021,0.0163256,-0.00699588,-0.226434,0.0138191,0.035817,937,526,-0.103083,0.133716
-280,498,-0.0229492,-0.158997,0.0171059,-0.00559638,-0.00672729,0.0189496,-0.00744012,-0.2675,0.0157117,0.0429211,944,526,-0.0229625,0.159005
-273,498,0.230286,-0.0576172,0.0187595,-0.00546065,-0.00849544,0.0214422,-0.00814335,-0.305872,0.0176471,0.0467137,951,526,0.230274,0.0576402
-266,498,-0.5448,-0.373657,0.019668,-0.00567211,-0.0102295,0.0232821,-0.00928616,-0.339611,0.0193734,0.0412674,958,526,-0.544782,0.373666
-259,498,-0.010498,-0.193604,0.0199151,-0.00534387,-0.0122963,0.0249123,-0.0103411,-0.386015,0.0209251,0.0403595,965,526,-0.0105066,0.193617
-252,498,0.535278,-0.394714,0.019697,-0.00472692,-0.0144367,0.026394,-0.0114239,-0.434345,0.0223971,0.0400541,972,526,0.535268,0.394735
-245,498,0.732849,-0.598938,0.0180609,-0.00415563,-0.0165205,0.0268604,-0.0129551,-0.48942,0.0234502,0.0469733,979,526,0.732836,0.598909
-238,498,0.590942,-0.597351,0.0157829,-0.00273356,-0.0177746,0.0265659,-0.0135166,-0.545297,0.0235469,0.0484363,986,526,0.590938,0.597375
-231,498,0.646545,-0.868835,0,0,0,0,0,0,0,-1,993,526,0.64653,0.868849
-224,498,0.852173,-0.510193,0,0,0,0,0,0,0,-1,1000,526,0.852168,0.510172
-217,498,0.765076,-0.363647,0,0,0,0,0,0,0,-1,1007,526,0.765068,0.363629
-210,498,0.693604,-0.173584,0,0,0,0,0,0,0,-1,1014,526,0.693597,0.173599
-203,498,-2.88898,-0.572815,0,0,0,0,0,0,0,-1,1021,526,-2.88896,0.57283
-196,498,-2.07642,-1.50385,0,0,0,0,0,0,0,-1,1028,526,-2.07645,1.50384
-189,498,-2.3634,-1.38831,0,0,0,0,0,0,0,-1,1035,526,-2.36336,1.3883
-182,498,0,0,0,0,0,0,0,0,0,-1,1042,526,0,0
-175,498,0,0,0,0,0,0,0,0,0,-1,1049,526,0,0
-168,498,0,0,0,0,0,0,0,0,0,-1,1056,526,0,0
-161,498,0,0,0,0,0,0,0,0,0,-1,1063,526,0,0
-154,498,0,0,0,0,0,0,0,0,0,-1,1070,526,0,0
-147,498,0,0,0,0,0,0,0,0,0,-1,1077,526,0,0
-140,498,0,0,0,0,0,0,0,0,0,-1,1084,526,0,0
-133,498,0,0,0,0,0,0,0,0,0,-1,1091,526,0,0
-126,498,0,0,0,0,0,0,0,0,0,-1,1098,526,0,0
-119,498,0,0,0,0,0,0,0,0,0,-1,1105,526,0,0
-112,498,0,0,0,0,0,0,0,0,0,-1,1112,526,0,0
-105,498,0,0,0,0,0,0,0,0,0,-1,1119,526,0,0
-98,498,0,0,0,0,0,0,0,0,0,-1,1126,526,0,0
-91,498,0,0,0,0,0,0,0,0,0,-1,1133,526,0,0
-84,498,0,0,0,0,0,0,0,0,0,-1,1140,526,0,0
-77,498,0,0,0,0,0,0,0,0,0,-1,1147,526,0,0
-70,498,0,0,0,0,0,0,0,0,0,-1,1154,526,0,0
-63,498,0,0,0,0,0,0,0,0,0,-1,1161,526,0,0
-56,498,0,0,0,0,0,0,0,0,0,-1,1168,526,0,0
-49,498,0,0,0,0,0,0,0,0,0,-1,1175,526,0,0
-42,498,0,0,0,0,0,0,0,0,0,-1,1182,526,0,0
-35,498,0,0,0,0,0,0,0,0,0,-1,1189,526,0,0
-28,498,0,0,0,0,0,0,0,0,0,-1,1196,526,0,0
-21,498,0,0,0,0,0,0,0,0,0,-1,1203,526,0,0
-14,498,0,0,0,0,0,0,0,0,0,-1,1210,526,0,0
-7,498,0,0,0,0,0,0,0,0,0,-1,1217,526,0,0
0,498,0,0,0,0,0,0,0,0,0,-1,1224,526,0,0
7,498,0,0,0,0,0,0,0,0,0,-1,1231,526,0,0
14,498,0,0,0,0,0,0,0,0,0,-1,1238,526,0,0
21,498,0,0,0,0,0,0,0,0,0,-1,1245,526,0,0
28,498,0,0,0,0,0,0,0,0,0,-1,1252,526,0,0
35,498,0,0,0,0,0,0,0,0,0,-1,1259,526,0,0
42,498,0,0,0,0,0,0,0,0,0,-1,1266,526,0,0
49,498,0,0,0,0,0,0,0,0,0,-1,1273,526,0,0
56,498,0,0,0,0,0,0,0,0,0,-1,1280,526,0,0
63,498,0,0,0,0,0,0,0,0,0,-1,1287,526,0,0
70,498,0,0,0,0,0,0,0,0,0,-1,1294,526,0,0
77,498,0,0,0,0,0,0,0,0,0,-1,1301,526,0,0
84,498,0,0,0,0,0,0,0,0,0,-1,1308,526,0,0
91,498,0,0,0,0,0,0,0,0,0,-1,1315,526,0,0
98,498,0,0,0,0,0,0,0,0,0,-1,1322,526,0,0
105,498,0,0,0,0,0,0,0,0,0,-1,1329,526,0,0
112,498,0,0,0,0,0,0,0,0,0,-1,1336,526,0,0
119,498,0,0,0,0,0,0,0,0,0,-1,1343,526,0,0
126,498,0,0,0,0,0,0,0,0,0,-1,1350,526,0,0
133,498,0,0,0,0,0,0,0,0,0,-1,1357,526,0,0
140,498,0,0,0,0,0,0,0,0,0,-1,1364,526,0,0
147,498,0,0,0,0,0,0,0,0,0,-1,1371,526,0,0
154,498,0,0,0,0,0,0,0,0,0,-1,1378,526,0,0
161,498,0,0,0,0,0,0,0,0,0,-1,1385,526,0,0
168,498,0,0,0,0,0,0,0,0,0,-1,1392,526,0,0
175,498,0,0,0,0,0,0,0,0,0,-1,1399,526,0,0
182,498,0,0,0,0,0,0,0,0,0,-1,1406,526,0,0
189,498,0,0,0,0,0,0,0,0,0,-1,1413,526,0,0
196,498,0,0,0,0,0,0,0,0,0,-1,1420,526,0,0
203,498,0,0,0,0,0,0,0,0,0,-1,1427,526,0,0
210,498,0,0,0,0,0,0,0,0,0,-1,1434,526,0,0
217,498,0,0,0,0,0,0,0,0,0,-1,1441,526,0,0
224,498,0,0,0,0,0,0,0,0,0,-1,1448,526,0,0
231,498,0,0,0,0,0,0,0,0,0,-1,1455,526,0,0
238,498,0,0,0,0,0,0,0,0,0,-1,1462,526,0,0
245,498,0,0,0,0,0,0,0,0,0,-1,1469,526,0,0
252,498,0,0,0,0,0,0,0,0,0,-1,1476,526,0,0
259,498,0,0,0,0,0,0,0,0,0,-1,1483,526,0,0
266,498,0,0,0,0,0,0,0,0,0,-1,1490,526,0,0
273,498,0,0,0,0,0,0,0,0,0,-1,1497,526,0,0
280,498,0,0,0,0,0,0,0,0,0,-1,1504,526,0,0
287,498,0,0,0,0,0,0,0,0,0,-1,1511,526,0,0
294,498,0,0,0,0,0,0,0,0,0,-1,1518,526,0,0
301,498,0,0,0,0,0,0,0,0,0,-1,1525,526,0,0
308,498,1.34924,-1.0838,0,0,0,0,0,0,0,-1,1532,526,1.34929,1.08382
315,498,0.873047,-1.23792,0,0,0,0,0,0,0,-1,1539,526,0.873073,1.2379
322,498,0.859009,-1.18652,0.00137125,-0.00861273,0.0262488,0.0230985,-0.03034,0.691431,0.030947,0.0410662,1546,526,0.858956,1.18654
329,498,1.04175,-0.99231,0.00101619,-0.00842809,0.0269526,0.0236572,-0.031069,0.698677,0.0316926,0.0439184,1553,526,1.04169,0.992282
336,498,-0.893433,-0.582031,0,0,0,0,0,0,0,-1,1560,526,-0.893463,0.582025
343,498,-0.733398,-0.62207,0,0,0,0,0,0,0,-1,1567,526,-0.733398,0.622071
350,498,-0.555664,-0.605896,-4.89944e-05,-0.00376706,0.0201733,0.0183507,-0.0221668,0.739451,0.0234274,0.0448905,1574,526,-0.555672,0.605875
357,498,-0.449829,-0.522339,-0.000188733,-0.00184607,0.0185984,0.0175995,-0.0196343,0.763135,0.0215076,0.0466375,1581,526,-0.449855,0.522353
364,498,-0.483521,-0.266663,-0.000608761,0.000797933,0.0174262,0.017535,-0.0173458,0.805568,0.0201385,0.0469644,1588,526,-0.483468,0.266672
371,498,-0.485596,-0.504761,0,0,0,0,0,0,0,-1,1595,526,-0.485653,0.504762
378,498,-0.224487,-0.731567,0,0,0,0,0,0,0,-1,1602,526,-0.224516,0.731545
385,498,0.122192,0.0529785,-0.00276386,0.00301792,0.0124664,0.0129243,-0.0126702,0.899331,0.0147772,0.0451659,1609,526,0.122158,-0.0529548
392,498,-0.103271,0.720154,-0.00277755,0.00409417,0.0103977,0.011609,-0.0102924,0.944972,0.0126524,0.0482977,1616,526,-0.103223,-0.72014
399,498,-0.366943,1.32678,0,0,0,0,0,0,0,-1,1623,526,-0.366927,-1.32679
406,498,-0.582275,1.99243,0,0,0,0,0,0,0,-1,1630,526,-0.582275,-1.99244
413,498,0.0852051,-0.0238647,-0.00342776,0.00441312,0.00444524,0.00641974,-0.00543438,1.14677,0.00685186,0.0451317,1637,526,0.0851484,0.0238932
420,498,0.0389404,-0.0372925,-0.00379991,0.00598196,0.00258398,0.00662259,-0.00444054,1.32777,0.00642858,0.0432144,1644,526,0.0389032,0.0372723
427,498,0.00512695,-0.0820923,-0.00321299,0.00659402,0.000787388,0.00665683,-0.0032758,1.49119,0.00584431,0.0290385,1651,526,0.0050945,0.0820792
434,498,-0.032959,-0.0808105,-0.00252534,0.00652993,-0.000777024,0.00659612,-0.00259153,-1.48582,0.00546987,0.0128464,1658,526,-0.0329824,0.0807922
441,498,-0.0389404,-0.0579224,-0.00200063,0.00626279,-0.0016808,0.00659159,-0.00232942,-1.37762,0.0053429,0.00799369,1665,526,-0.0389263,0.0579344
448,498,-0.0115967,-0.0575562,-0.0016974,0.00584354,-0.00192894,0.00630831,-0.00216217,-1.33436,0.00508196,0.00911635,1672,526,-0.0116323,0.0575746
455,498,-0.0137939,-0.0643311,-0.00164699,0.00528508,-0.00169267,0.00567631,-0.00203822,-1.34365,0.00461613,0.0112701,1679,526,-0.0138345,0.0643317
462,498,-0.0408936,-0.0668945,-0.00154538,0.00450553,-0.00140626,0.00481638,-0.00185623,-1.35325,0.00397679,0.0126184,1686,526,-0.0409273,0.0668987
469,498,-0.0534668,-0.0704956,-0.00118768,0.00373167,-0.00100598,0.00392944,-0.00138545,-1.37668,0.00318357,0.0117299,1693,526,-0.0534712,0.0705102
476,498,-0.0380859,-0.072876,-0.000477403,0.00311261,-0.000540177,0.00319213,-0.000556921,-1.42464,0.00233596,0.00909452,1700,526,-0.0380779,0.0728474
483,498,-0.0157471,-0.0685425,2.86832e-06,0.00235285,-0.000267586,0.00238294,-2.72158e-05,-1.45884,0.00159777,0.00767151,1707,526,-0.0156989,0.0685129
490,498,-0.0205078,-0.072876,0.000686694,0.00116574,8.27778e-05,0.00117964,0.000672794,1.40443,0.000683311,0.00938074,1714,526,-0.0204776,0.0728524
497,498,-0.0284424,-0.0772705,0.00150554,0.000451127,0.000461857,0.00167923,0.000277435,0.35971,0.00103943,0.0111612,1721,526,-0.0284915,0.0772966
504,498,-0.0349121,-0.0834961,0.00236059,-0.000315616,0.00087557,0.0026216,-0.00057662,0.289709,0.0019683,0.0129556,1728,526,-0.0348787,0.0834884
511,498,-0.0390625,-0.0817261,0.00299903,-0.000299387,0.00117647,0.00337564,-0.000676002,0.309816,0.00250634,0.0139741,1735,526,-0.0391026,0.0817308
518,498,-0.0272217,-0.0897217,0.0038428,-0.000508334,0.0011767,0.00414063,-0.000806167,0.247903,0.00306469,0.0142516,1742,526,-0.0272732,0.0897327
525,498,-0.00634766,-0.101929,0.00475925,-0.00114543,0.000961792,0.00491196,-0.00129814,0.157465,0.00378236,0.015657,1749,526,-0.00636605,0.101912
532,498,-0.00268555,-0.125488,0.00533092,-0.00177669,0.000472948,0.00536226,-0.00180802,0.0661524,0.00430595,0.0239677,1756,526,-0.00263176,0.125501
539,498,-0.0255127,-0.141602,0.00610224,-0.00175415,0.000456038,0.00612862,-0.00178054,0.0577881,0.00479085,0.0340318,1763,526,-0.0255475,0.141612
546,498,0.0894775,-0.273193,0.00700801,-0.00202648,-8.96237e-05,0.00700889,-0.00202737,-0.00991887,0.00547497,0.0411866,1770,526,0.0894644,0.273221
553,498,0.146729,-0.199097,0.00777459,-0.00254271,-0.000414383,0.00779121,-0.00255933,-0.0400779,0.00622516,0.0462027,1777,526,0.146705,0.199089
560,498,0.533325,-0.274963,0.00865392,-0.0025471,-0.000524801,0.00867846,-0.00257164,-0.0467165,0.00680676,0.044706,1784,526,0.533279,0.274956
567,498,-0.0718994,0.483643,0.00984278,-0.00189582,-0.000653922,0.00987909,-0.00193214,-0.0554782,0.00731566,0.0466778,1791,526,-0.0718466,-0.483636
574,498,0.628784,0.730103,0.0112467,-0.00143885,-0.00102808,0.0113294,-0.00152163,-0.0803447,0.0081079,0.0434202,1798,526,0.628814,-0.730073
581,498,0.500732,-0.604736,0.0126167,-0.000383504,-0.000836938,0.0126704,-0.000437163,-0.0640264,0.00859636,0.0434115,1805,526,0.50071,0.60472
588,498,0,0,0,0,0,0,0,0,0,-1,1812,526,0,0
595,498,0,0,0,0,0,0,0,0,0,-1,1819,526,0,0
602,498,0,0,0,0,0,0,0,0,0,-1,1826,526,0,0
609,498,0,0,0,0,0,0,0,0,0,-1,1833,526,0,0
616,498,0,0,0,0,0,0,0,0,0,-1,1840,526,0,0
623,498,0,0,0,0,0,0,0,0,0,-1,1847,526,0,0
630,498,0,0,0,0,0,0,0,0,0,-1,1854,526,0,0
637,498,0,0,0,0,0,0,0,0,0,-1,1861,526,0,0
644,498,0,0,0,0,0,0,0,0,0,-1,1868,526,0,0
651,498,0,0,0,0,0,0,0,0,0,-1,1875,526,0,0
658,498,0,0,0,0,0,0,0,0,0,-1,1882,526,0,0
665,498,0,0,0,0,0,0,0,0,0,-1,1889,526,0,0
672,498,0,0,0,0,0,0,0,0,0,-1,1896,526,0,0
679,498,0,0,0,0,0,0,0,0,0,-1,1903,526,0,0
686,498,0,0,0,0,0,0,0,0,0,-1,1910,526,0,0
693,498,0,0,0,0,0,0,0,0,0,-1,1917,526,0,0
700,498,0,0,0,0,0,0,0,0,0,-1,1924,526,0,0
707,498,0,0,0,0,0,0,0,0,0,-1,1931,526,0,0
714,498,0,0,0,0,0,0,0,0,0,-1,1938,526,0,0
721,498,0,0,0,0,0,0,0,0,0,-1,1945,526,0,0
728,498,0,0,0,0,0,0,0,0,0,-1,1952,526,0,0
735,498,0,0,0,0,0,0,0,0,0,-1,1959,526,0,0
742,498,0,0,0,0,0,0,0,0,0,-1,1966,526,0,0
749,498,0,0,0,0,0,0,0,0,0,-1,1973,526,0,0
756,498,0,0,0,0,0,0,0,0,0,-1,1980,526,0,0
763,498,0,0,0,0,0,0,0,0,0,-1,1987,526,0,0
770,498,0,0,0,0,0,0,0,0,0,-1,1994,526,0,0
777,498,0,0,0,0,0,0,0,0,0,-1,2001,526,0,0
784,498,0,0,0,0,0,0,0,0,0,-1,2008,526,0,0
791,498,0,0,0,0,0,0,0,0,0,-1,2015,526,0,0
798,498,0,0,0,0,0,0,0,0,0,-1,2022,526,0,0
805,498,0,0,0,0,0,0,0,0,0,-1,2029,526,0,0
812,498,0,0,0,0,0,0,0,0,0,-1,2036,526,0,0
-700,491,0,0,0,0,0,0,0,0,0,-1,524,533,0,0
-693,491,0,0,0,0,0,0,0,0,0,-1,531,533,0,0
-686,491,0,0,0,0,0,0,0,0,0,-1,538,533,0,0
-679,491,0,0,0,0,0,0,0,0,0,-1,545,533,0,0
-672,491,0,0,0,0,0,0,0,0,0,-1,552,533,0,0
-665,491,0,0,0,0,0,0,0,0,0,-1,559,533,0,0
-658,491,0,0,0,0,0,0,0,0,0,-1,566,533,0,0
-651,491,0,0,0,0,0,0,0,0,0,-1,573,533,0,0
-644,491,0,0,0,0,0,0,0,0,0,-1,580,533,0,0
-637,491,0,0,0,0,0,0,0,0,0,-1,587,533,0,0
-630,491,0,0,0,0,0,0,0,0,0,-1,594,533,0,0
-623,491,0,0,0,0,0,0,0,0,0,-1,601,533,0,0
-616,491,0,0,0,0,0,0,0,0,0,-1,608,533,0,0
-609,491,0,0,0,0,0,0,0,0,0,-1,615,533,0,0
-602,491,0,0,0,0,0,0,0,0,0,-1,622,533,0,0
-595,491,0,0,0,0,0,0,0,0,0,-1,629,533,0,0
-588,491,0,0,0,0,0,0,0,0,0,-1,636,533,0,0
-581,491,0,0,0,0,0,0,0,0,0,-1,643,533,0,0
-574,491,0,0,0,0,0,0,0,0,0,-1,650,533,0,0
-567,491,0,0,0,0,0,0,0,0,0,-1,657,533,0,0
-560,491,0,0,0,0,0,0,0,0,0,-1,664,533,0,0
-553,491,0,0,0,0,0,0,0,0,0,-1,671,533,0,0
-546,491,0,0,0,0,0,0,0,0,0,-1,678,533,0,0
-539,491,0,0,0,0,0,0,0,0,0,-1,685,533,0,0
-532,491,0,0,0,0,0,0,0,0,0,-1,692,533,0,0
-525,491,0,0,0,0,0,0,0,0,0,-1,699,533,0,0
-518,491,0,0,0,0,0,0,0,0,0,-1,706,533,0,0
-511,491,0,0,0,0,0,0,0,0,0,-1,713,533,0,0
-504,491,0,0,0,0,0,0,0,0,0,-1,720,533,0,0
-497,491,0,0,0,0,0,0,0,0,0,-1,727,533,0,0
-490,491,0,0,0,0,0,0,0,0,0,-1,734,533,0,0
-483,491,0,0,0,0,0,0,0,0,0,-1,741,533,0,0
-476,491,0,0,0,0,0,0,0,0,0,-1,748,533,0,0
-469,491,-3.6806,-1.04492,0.128223,0.0527274,-0.00118808,0.128242,0.0527087,-0.015732,0.0744302,0.0483607,755,533,-3.6806,1.04494
-462,491,-2.59955,-0.875183,0.105693,0.0437663,0.00239328,0.105786,0.043674,0.0385702,0.0613838,0.0454972,762,533,-2.59955,0.875173
-455,491,-1.13757,-1.13324,0,0,0,0,0,0,0,-1,769,533,-1.1376,1.13324
-448,491,0.441711,-0.104736,0,0,0,0,0,0,0,-1,776,533,0.441731,0.104708
-441,491,-0.170837,-0.128235,0,0,0,0,0,0,0,-1,783,533,-0.170815,0.128234
-434,491,-0.178833,-0.128601,0.0357265,0.023324,0.00330938,0.0365543,0.0224962,0.245107,0.0212913,0.0433002,790,533,-0.178859,0.128591
-427,491,-0.0758667,-0.307617,0.02391,0.0199065,0.00176537,0.0245772,0.0192392,0.361369,0.0149271,0.0481491,797,533,-0.0758642,0.307597
-420,491,-0.13855,-0.195374,0.0152723,0.0162327,0.000894003,0.0167673,0.0147377,1.03184,0.0105668,0.0453438,804,533,-0.138567,0.195385
-413,491,-0.128662,0.0750122,0,0,0,0,0,0,0,-1,811,533,-0.128674,-0.0749872
-406,491,-0.015686,-0.0878296,0.00346079,0.0118805,-0.000725977,0.0119426,0.00339865,-1.48541,0.00710517,0.0180026,818,533,-0.0156851,0.0878472
-399,491,-0.0182495,-0.059021,0.00144563,0.00959212,-0.00123124,0.00977414,0.00126361,-1.42402,0.0061384,0.00999563,825,533,-0.0182702,0.0590359
-392,491,-0.0189819,-0.0552368,0.000300356,0.00691923,-0.00188232,0.00741709,-0.000197505,-1.31222,0.00501186,0.00889439,832,533,-0.0189975,0.0552368
-385,491,-0.026062,-0.0687256,0.000666925,0.003685,-0.00242451,0.00503173,-0.000679809,-1.06377,0.00360254,0.00829104,839,533,-0.0260849,0.0687533
-378,491,-0.00915527,-0.0604248,0.00116779,0.00263996,-0.00135144,0.00344277,0.000364975,-1.03477,0.00218371,0.011412,846,533,-0.0091715,0.0604044
-371,491,-0.00921631,-0.0557251,0.00152757,0.00163828,-0.000519107,0.00210497,0.00106087,-0.838516,0.00121532,0.0125721,853,533,-0.00919734,0.055712
-364,491,0.00384521,-0.0767822,0.00206485,0.00068799,0.000299136,0.00212703,0.000625808,0.204953,0.00126223,0.0127482,860,533,0.00386927,0.0768125
-357,491,-0.0176392,-0.0599365,0.0024209,-0.000412977,0.000660492,0.00256728,-0.000559356,0.218097,0.00192525,0.0122733,867,533,-0.017641,0.0599088
-350,491,-0.0200806,-0.0350952,0.00237988,-0.00159146,0.00102702,0.00262975,-0.00184133,0.238662,0.00259473,0.0129566,874,533,-0.020098,0.0351136
-343,491,-0.0109253,-0.0204468,0.00263203,-0.00242433,0.000737346,0.00273736,-0.00252966,0.14189,0.0030417,0.0188594,881,533,-0.0109454,0.0204576
-336,491,0.00946045,-0.0261841,0.00304281,-0.003191,0.000331915,0.00306044,-0.00320862,0.0530444,0.00361978,0.0198395,888,533,0.00943596,0.026203
-329,491,-0.0332031,-0.0474243,0.00450269,-0.0038506,0.000192266,0.00450711,-0.00385503,0.0230006,0.00483277,0.0229622,895,533,-0.0332024,0.0474423
-322,491,-0.0421753,-0.0533447,0.00618493,-0.00450678,-0.000240058,0.00619032,-0.00451216,-0.0224376,0.00620435,0.0207141,902,533,-0.0421468,0.0533593
-315,491,-0.0380249,-0.0614624,0.00835385,-0.00549285,-0.00108207,0.0084379,-0.0055769,-0.0775192,0.00814746,0.012767,909,533,-0.0380074,0.0614662
-308,491,-0.00921631,-0.0786743,0.0112504,-0.00640233,-0.00199483,0.011473,-0.00662495,-0.111137,0.0105731,0.0181204,916,533,-0.00923236,0.0786465
-301,491,0.0474243,-0.110413,0.0147652,-0.00722787,-0.00338317,0.0152739,-0.00773653,-0.149234,0.0135205,0.0315666,923,533,0.0474102,0.110435
-294,491,-0.0255737,-0.0474243,0.0175657,-0.00791584,-0.00485055,0.0184578,-0.00880794,-0.181884,0.0160671,0.0381417,930,533,-0.0255586,0.0473961
-287,491,-0.164551,-0.121887,0.0197568,-0.00814894,-0.00640862,0.0211581,-0.00955033,-0.215283,0.0181468,0.0419354,937,533,-0.164572,0.121914
-280,491,-0.015564,-0.181091,0.0219593,-0.00808788,-0.00838483,0.0241407,-0.0102693,-0.254525,0.0203976,0.0458795,944,533,-0.0155397,0.181094
-273,491,0.168579,-0.357727,0.0237064,-0.00819519,-0.0104004,0.0267976,-0.0112863,-0.2889,0.0225875,0.046569,951,533,0.168561,0.357723
-266,491,-0.480225,-0.282471,0.0244853,-0.00855794,-0.0123581,0.0285958,-0.0126685,-0.321108,0.0244084,0.0426914,958,533,-0.480222,0.282492
-259,491,0.0717773,-0.111084,0.0243035,-0.00838592,-0.0146211,0.0298888,-0.0139712,-0.364897,0.0258725,0.0430031,965,533,0.0717627,0.111091
-252,491,0.755127,-0.312561,0.0231627,-0.00788206,-0.0169987,0.0306599,-0.0153792,-0.415381,0.0270643,0.0434549,972,533,0.755143,0.312535
-245,491,1.33331,-0.66925,0.0200835,-0.00732927,-0.0193676,0.0301041,-0.0173498,-0.477462,0.0277254,0.0456541,979,533,1.33333,0.669279
-238,491,0.581116,-0.403442,0.0160316,-0.0061774,-0.0209076,0.0286007,-0.0187465,-0.541282,0.0275326,0.0435757,986,533,0.581105,0.403445
-231,491,0.450562,-0.547546,0.0136312,-0.001356,-0.0196303,0.0271496,-0.0148744,-0.603067,0.0246052,0.0455319,993,533,0.450573,0.547522
-224,491,0.340942,-0.752075,0,0,0,0,0,0,0,-1,1000,533,0.340955,0.752062
-217,491,0.567383,-2.992,0,0,0,0,0,0,0,-1,1007,533,0.567364,2.99201
-210,491,-3.80029,-0.759949,0,0,0,0,0,0,0,-1,1014,533,-3.80027,0.75997
-203,491,-3.74994,-0.969421,0,0,0,0,0,0,0,-1,1021,533,-3.74995,0.969407
-196,491,0,0,0,0,0,0,0,0,0,-1,1028,533,0,0
-189,491,0,0,0,0,0,0,0,0,0,-1,1035,533,0,0
-182,491,0,0,0,0,0,0,0,0,0,-1,1042,533,0,0
-175,491,0,0,0,0,0,0,0,0,0,-1,1049,533,0,0
-168,491,0,0,0,0,0,0,0,0,0,-1,1056,533,0,0
-161,491,0,0,0,0,0,0,0,0,0,-1,1063,533,0,0
-154,491,0,0,0,0,0,0,0,0,0,-1,1070,533,0,0
-147,491,0,0,0,0,0,0,0,0,0,-1,1077,533,0,0
-140,491,0,0,0,0,0,0,0,0,0,-1,1084,533,0,0
-133,491,0,0,0,0,0,0,0,0,0,-1,1091,533,0,0
-126,491,0,0,0,0,0,0,0,0,0,-1,1098,533,0,0
-119,491,0,0,0,0,0,0,0,0,0,-1,1105,533,0,0
-112,491,0,0,0,0,0,0,0,0,0,-1,1112,533,0,0
-105,491,0,0,0,0,0,0,0,0,0,-1,1119,533,0,0
-98,491,0,0,0,0,0,0,0,0,0,-1,1126,533,0,0
-91,491,0,0,0,0,0,0,0,0,0,-1,1133,533,0,0
-84,491,0,0,0,0,0,0,0,0,0,-1,1140,533,0,0
-77,491,0,0,0,0,0,0,0,0,0,-1,1147,533,0,0
-70,491,0,0,0,0,0,0,0,0,0,-1,1154,533,0,0
-63,491,0,0,0,0,0,0,0,0,0,-1,1161,533,0,0
-56,491,0,0,0,0,0,0,0,0,0,-1,1168,533,0,0
-49,491,0,0,0,0,0,0,0,0,0,-1,1175,533,0,0
-42,491,0,0,0,0,0,0,0,0,0,-1,1182,533,0,0
-35,491,0,0,0,0,0,0,0,0,0,-1,1189,533,0,0
-28,491,0,0,0,0,0,0,0,0,0,-1,1196,533,0,0
-21,491,0,0,0,0,0,0,0,0,0,-1,1203,533,0,0
-14,491,0,0,0,0,0,0,0,0,0,-1,1210,533,0,0
-7,491,0,0,0,0,0,0,0,0,0,-1,1217,533,0,0
0,491,0,0,0,0,0,0,0,0,0,-1,1224,533,0,0
7,491,0,0,0,0,0,0,0,0,0,-1,1231,533,0,0
14,491,0,0,0,0,0,0,0,0,0,-1,1238,533,0,0
21,491,0,0,0,0,0,0,0,0,0,-1,1245,533,0,0
28,491,0,0,0,0,0,0,0,0,0,-1,1252,533,0,0
35,491,0,0,0,0,0,0,0,0,0,-1,1259,533,0,0
42,491,0,0,0,0,0,0,0,0,0,-1,1266,533,0,0
49,491,0,0,0,0,0,0,0,0,0,-1,1273,533,0,0
56,491,0,0,0,0,0,0,0,0,0,-1,1280,533,0,0
63,491,0,0,0,0,0,0,0,0,0,-1,1287,533,0,0
70,491,0,0,0,0,0,0,0,0,0,-1,1294,533,0,0
77,491,0,0,0,0,0,0,0,0,0,-1,1301,533,0,0
84,491,0,0,0,0,0,0,0,0,0,-1,1308,533,0,0
91,491,0,0,0,0,0,0,0,0,0,-1,1315,533,0,0
98,491,0,0,0,0,0,0,0,0,0,-1,1322,533,0,0
105,491,0,0,0,0,0,0,0,0,0,-1,1329,533,0,0
112,491,0,0,0,0,0,0,0,0,0,-1,1336,533,0,0
119,491,0,0,0,0,0,0,0,0,0,-1,1343,533,0,0
126,491,0,0,0,0,0,0,0,0,0,-1,1350,533,0,0
133,491,0,0,0,0,0,0,0,0,0,-1,1357,533,0,0
140,491,0,0,0,0,0,0,0,0,0,-1,1364,533,0,0
147,491,0,0,0,0,0,0,0,0,0,-1,1371,533,0,0
154,491,0,0,0,0,0,0,0,0,0,-1,1378,533,0,0
161,491,0,0,0,0,0,0,0,0,0,-1,1385,533,0,0
168,491,0,0,0,0,0,0,0,0,0,-1,1392,533,0,0
175,491,0,0,0,0,0,0,0,0,0,-1,1399,533,0,0
182,491,0,0,0,0,0,0,0,0,0,-1,1406,533,0,0
189,491,0,0,0,0,0,0,0,0,0,-1,1413,533,0,0
196,491,0,0,0,0,0,0,0,0,0,-1,1420,533,0,0
203,491,0,0,0,0,0,0,0,0,0,-1,1427,533,0,0
210,491,0,0,0,0,0,0,0,0,0,-1,1434,533,0,0
217,491,0,0,0,0,0,0,0,0,0,-1,1441,533,0,0
224,491,0,0,0,0,0,0,0,0,0,-1,1448,533,0,0
231,491,0,0,0,0,0,0,0,0,0,-1,1455,533,0,0
238,491,0,0,0,0,0,0,0,0,0,-1,1462,533,0,0
245,491,0,0,0,0,0,0,0,0,0,-1,1469,533,0,0
252,491,0,0,0,0,0,0,0,0,0,-1,1476,533,0,0
259,491,0,0,0,0,0,0,0,0,0,-1,1483,533,0,0
266,491,0,0,0,0,0,0,0,0,0,-1,1490,533,0,0
273,491,0,0,0,0,0,0,0,0,0,-1,1497,533,0,0
280,491,0,0,0,0,0,0,0,0,0,-1,1504,533,0,0
287,491,0,0,0,0,0,0,0,0,0,-1,1511,533,0,0
294,491,0,0,0,0,0,0,0,0,0,-1,1518,533,0,0
301,491,0,0,0,0,0,0,0,0,0,-1,1525,533,0,0
308,491,0,0,0,0,0,0,0,0,0,-1,1532,533,0,0
315,491,0,0,0,0,0,0,0,0,0,-1,1539,533,0,0
322,491,0.732422,-0.832153,0.0017738,-0.0177537,0.0299671,0.0235277,-0.0395076,0.627913,0.0367812,0.0444637,1546,533,0.732453,0.832152
329,491,0.640625,-0.464783,0.00180814,-0.0161703,0.0302451,0.0243716,-0.0387338,0.640949,0.0367471,0.0412703,1553,533,0.640607,0.464778
336,491,0.453369,-0.239136,0.00194243,-0.0142604,0.0283243,0.0233011,-0.0356191,0.646105,0.0342645,0.0439425,1560,533,0.453351,0.239118
343,491,-0.55188,-0.551208,0,0,0,0,0,0,0,-1,1567,533,-0.551859,0.551232
350,491,-0.510864,-0.371521,0.000708153,-0.00668869,0.0223164,0.0196306,-0.0256111,0.703281,0.0261962,0.0466955,1574,533,-0.510898,0.371492
357,491,-0.600586,-0.279175,0.000145207,-0.00344741,0.0207822,0.0192086,-0.0225108,0.742288,0.0241118,0.0498643,1581,533,-0.600634,0.279158
364,491,-0.495605,0.0499268,0,0,0,0,0,0,0,-1,1588,533,-0.495587,-0.0499081
371,491,0.657227,-1.24182,0,0,0,0,0,0,0,-1,1595,533,0.657287,1.24179
378,491,0.423096,-0.593079,-0.00459987,0.00123685,0.0156876,0.0142752,-0.0176382,0.877362,0.0184593,0.0456223,1602,533,0.423042,0.593049
385,491,0.204834,0.0896606,-0.00503724,0.00307841,0.013682,0.0132917,-0.0152505,0.929557,0.0164918,0.0447494,1609,533,0.204844,-0.0896589
392,491,-0.0771484,0.843445,-0.00535232,0.00568455,0.0114796,0.0129033,-0.012571,1.00945,0.014708,0.0433847,1616,533,-0.077192,-0.84343
399,491,-0.210815,1.68097,0,0,0,0,0,0,0,-1,1623,533,-0.210839,-1.681
406,491,-0.351074,-0.232239,0,0,0,0,0,0,0,-1,1630,533,-0.351073,0.232224
413,491,0.0922852,0.0375977,0,0,0,0,0,0,0,-1,1637,533,0.0922589,-0.0375751
420,491,0.0649414,0.019165,0,0,0,0,0,0,0,-1,1644,533,0.0649299,-0.0191661
427,491,0.0435791,-0.0385742,-0.00647453,0.0113444,0.00123051,0.011429,-0.00655911,1.50217,0.0105115,0.0446072,1651,533,0.0435866,0.0385726
434,491,-0.0460205,-0.0490112,-0.00552033,0.0114122,-0.000493567,0.0114265,-0.00553471,-1.54168,0.00998758,0.0270075,1658,533,-0.046005,0.0490356
441,491,-0.0454102,-0.0716553,-0.00470624,0.0109776,-0.00143748,0.0111083,-0.0048369,-1.48015,0.0094403,0.0147421,1665,533,-0.0454573,0.0716618
448,491,-0.0114746,-0.0758057,-0.0041469,0.0101758,-0.0016483,0.0103631,-0.00433414,-1.45768,0.00872016,0.0100096,1672,533,-0.011433,0.0758312
455,491,-0.0141602,-0.0732422,-0.00380953,0.00908513,-0.00137272,0.00922965,-0.00395405,-1.46591,0.00781211,0.00954875,1679,533,-0.0141815,0.0732425
462,491,-0.0201416,-0.0809326,-0.00343306,0.0076877,-0.00105694,0.00778726,-0.00353262,-1.47687,0.00668764,0.0119499,1686,533,-0.0201362,0.0809555
469,491,-0.0474854,-0.09375,-0.00282861,0.00636256,-0.000692581,0.00641446,-0.0028805,-1.49601,0.00549421,0.0122881,1693,533,-0.0474867,0.0937665
476,491,-0.0280762,-0.0813599,-0.00200361,0.00515937,-0.000369098,0.00517834,-0.00202258,-1.51945,0.00428847,0.0094449,1700,533,-0.0280248,0.081369
483,491,-0.0178223,-0.0580444,-0.00146694,0.00384797,-0.000202235,0.00385565,-0.00147462,-1.53282,0.00317813,0.0104245,1707,533,-0.0178399,0.0580415
490,491,-0.0175781,-0.0754395,-0.000819311,0.00214254,-3.87399e-05,0.00214305,-0.000819817,-1.55772,0.00176656,0.00898521,1714,533,-0.0175272,0.0754621
497,491,-0.0267334,-0.0795288,-5.27254e-06,0.000875304,0.000147141,0.00089924,-2.92086e-05,1.40953,0.000609463,0.0105506,1721,533,-0.0267851,0.079529
504,491,-0.0469971,-0.083374,0.000827092,-0.000237047,0.000409333,0.000966328,-0.000376283,0.327877,0.00079972,0.0121181,1728,533,-0.0469789,0.0833477
511,491,-0.0517578,-0.0809326,0.0013882,-0.000290789,0.000575343,0.00156643,-0.000469023,0.300412,0.00123079,0.0116225,1735,533,-0.0517136,0.080944
518,491,-0.0396729,-0.0708008,0.00211933,-0.000509602,0.000464606,0.00219903,-0.000589295,0.169875,0.00169691,0.00917053,1742,533,-0.0397133,0.0707893
525,491,-0.026123,-0.0725708,0.00296247,-0.00103599,0.000149061,0.00296802,-0.00104154,0.0372108,0.00240234,0.00800046,1749,533,-0.0261814,0.0725406
532,491,-0.00256348,-0.0913086,0.00340204,-0.00155237,-0.00031295,0.00342173,-0.00157206,-0.0628331,0.00294835,0.011953,1756,533,-0.00259627,0.0913156
539,491,0.00683594,-0.11377,0.00404966,-0.00138787,-0.000222432,0.00405874,-0.00139696,-0.0408159,0.00327243,0.0195315,1763,533,0.00684894,0.113773
546,491,0.0998535,-0.197327,0.00494543,-0.00148161,-0.000541338,0.0049907,-0.00152689,-0.0834447,0.00393609,0.031638,1770,533,0.0998232,0.197331
553,491,0.284424,-0.253113,0.00574501,-0.00176629,-0.000506077,0.00577896,-0.00180023,-0.066972,0.00457241,0.0403139,1777,533,0.28448,0.25309
560,491,-0.121948,0.169434,0.00671497,-0.00142931,-0.000161835,0.00671819,-0.00143252,-0.0198605,0.00502483,0.0413195,1784,533,-0.121931,-0.169408
567,491,0.0534668,0.279846,0.00805539,-0.000333123,0.000197407,0.00806003,-0.000337766,0.0235156,0.00548941,0.0439356,1791,533,0.0535094,-0.279816
574,491,0.454102,0.122986,0.00982668,0.000602711,0.000441393,0.00984775,0.000581637,0.0477076,0.00638013,0.0424186,1798,533,0.454129,-0.122984
581,491,0.493774,-0.382813,0.011632,0.00227879,0.00135816,0.0118252,0.00208557,0.14132,0.00728846,0.040462,1805,533,0.493816,0.382829
588,491,0.686279,-0.161072,0.0143086,0.00505214,0.00326112,0.0153421,0.00401862,0.306908,0.00918637,0.0444161,1812,533,0.686258,0.16109
595,491,0,0,0,0,0,0,0,0,0,-1,1819,533,0,0
602,491,0,0,0,0,0,0,0,0,0,-1,1826,533,0,0
609,491,0,0,0,0,0,0,0,0,0,-1,1833,533,0,0
616,491,0,0,0,0,0,0,0,0,0,-1,1840,533,0,0
623,491,0,0,0,0,0,0,0,0,0,-1,1847,533,0,0
630,491,0,0,0,0,0,0,0,0,0,-1,1854,533,0,0
637,491,0,0,0,0,0,0,0,0,0,-1,1861,533,0,0
644,491,0,0,0,0,0,0,0,0,0,-1,1868,533,0,0
651,491,0,0,0,0,0,0,0,0,0,-1,1875,533,0,0
658,491,0,0,0,0,0,0,0,0,0,-1,1882,533,0,0
665,491,0,0,0,0,0,0,0,0,0,-1,1889,533,0,0
672,491,0,0,0,0,0,0,0,0,0,-1,1896,533,0,0
679,491,0,0,0,0,0,0,0,0,0,-1,1903,533,0,0
686,491,0,0,0,0,0,0,0,0,0,-1,1910,533,0,0
693,491,0,0,0,0,0,0,0,0,0,-1,1917,533,0,0
700,491,0,0,0,0,0,0,0,0,0,-1,1924,533,0,0
707,491,0,0,0,0,0,0,0,0,0,-1,1931,533,0,0
714,491,0,0,0,0,0,0,0,0,0,-1,1938,533,0,0
721,491,0,0,0,0,0,0,0,0,0,-1,1945,533,0,0
728,491,0,0,0,0,0,0,0,0,0,-1,1952,533,0,0
735,491,0,0,0,0,0,0,0,0,0,-1,1959,533,0,0
742,491,0,0,0,0,0,0,0,0,0,-1,1966,533,0,0
749,491,0,0,0,0,0,0,0,0,0,-1,1973,533,0,0
756,491,0,0,0,0,0,0,0,0,0,-1,1980,533,0,0
763,491,0,0,0,0,0,0,0,0,0,-1,1987,533,0,0
770,491,0,0,0,0,0,0,0,0,0,-1,1994,533,0,0
777,491,0,0,0,0,0,0,0,0,0,-1,2001,533,0,0
784,491,0,0,0,0,0,0,0,0,0,-1,2008,533,0,0
791,491,0,0,0,0,0,0,0,0,0,-1,2015,533,0,0
798,491,0,0,0,0,0,0,0,0,0,-1,2022,533,0,0
805,491,0,0,0,0,0,0,0,0,0,-1,2029,533,0,0
812,491,0,0,0,0,0,0,0,0,0,-1,2036,533,0,0
-700,484,0,0,0,0,0,0,0,0,0,-1,524,540,0,0
-693,484,0,0,0,0,0,0,0,0,0,-1,531,540,0,0
-686,484,0,0,0,0,0,0,0,0,0,-1,538,540,0,0
-679,484,0,0,0,0,0,0,0,0,0,-1,545,540,0,0
-672,484,0,0,0,0,0,0,0,0,0,-1,552,540,0,0
-665,484,0,0,0,0,0,0,0,0,0,-1,559,540,0,0
-658,484,0,0,0,0,0,0,0,0,0,-1,566,540,0,0
-651,484,0,0,0,0,0,0,0,0,0,-1,573,540,0,0
-644,484,0,0,0,0,0,0,0,0,0,-1,580,540,0,0
-637,484,0,0,0,0,0,0,0,0,0,-1,587,540,0,0
-630,484,0,0,0,0,0,0,0,0,0,-1,594,540,0,0
-623,484,0,0,0,0,0,0,0,0,0,-1,601,540,0,0
-616,484,0,0,0,0,0,0,0,0,0,-1,608,540,0,0
-609,484,0,0,0,0,0,0,0,0,0,-1,615,540,0,0
-602,484,0,0,0,0,0,0,0,0,0,-1,622,540,0,0
-595,484,0,0,0,0,0,0,0,0,0,-1,629,540,0,0
-588,484,0,0,0,0,0,0,0,0,0,-1,636,540,0,0
-581,484,0,0,0,0,0,0,0,0,0,-1,643,540,0,0
-574,484,0,0,0,0,0,0,0,0,0,-1,650,540,0,0
-567,484,0,0,0,0,0,0,0,0,0,-1,657,540,0,0
-560,484,0,0,0,0,0,0,0,0,0,-1,664,540,0,0
-553,484,0,0,0,0,0,0,0,0,0,-1,671,540,0,0
-546,484,0,0,0,0,0,0,0,0,0,-1,678,540,0,0
-539,484,0,0,0,0,0,0,0,0,0,-1,685,540,0,0
-532,484,0,0,0,0,0,0,0,0,0,-1,692,540,0,0
-525,484,0,0,0,0,0,0,0,0,0,-1,699,540,0,0
-518,484,0,0,0,0,0,0,0,0,0,-1,706,540,0,0
-511,484,0,0,0,0,0,0,0,0,0,-1,713,540,0,0
-504,484,0,0,0,0,0,0,0,0,0,-1,720,540,0,0
-497,484,0,0,0,0,0,0,0,0,0,-1,727,540,0,0
-490,484,0,0,0,0,0,0,0,0,0,-1,734,540,0,0
-483,484,0,0,0,0,0,0,0,0,0,-1,741,540,0,0
-476,484,-4.48767,-1.52631,0,0,0,0,0,0,0,-1,748,540,-4.48768,1.52629
-469,484,-3.27905,-1.24109,0.103598,0.0369714,-0.00826113,0.104607,0.0359624,-0.12154,0.0613696,0.0478487,755,540,-3.27904,1.24109
-462,484,-2.08728,-1.07813,0.0861816,0.0293632,-0.00399758,0.0864614,0.0290833,-0.0698983,0.0508017,0.0453663,762,540,-2.08725,1.07812
-455,484,-0.98114,-1.08661,0.0690765,0.0247294,-0.00179963,0.0691495,0.0246565,-0.0404918,0.0404673,0.0447158,769,540,-0.981115,1.08661
-448,484,-0.00750732,-0.348999,0.0538792,0.0205084,-1.00552e-05,0.0538793,0.0205084,-0.000301317,0.0314013,0.0415819,776,540,-0.00752514,0.349027
-441,484,-0.1427,-0.107849,0.040304,0.0171114,0.00105424,0.0403518,0.0170636,0.0453313,0.0233894,0.04006,783,540,-0.142721,0.107872
-434,484,-0.160339,-0.143921,0.0283682,0.0138723,0.0010805,0.0284483,0.0137922,0.0739934,0.0164272,0.0402857,790,540,-0.160366,0.143932
-427,484,-0.120056,-0.156799,0.0182681,0.0120007,0.000284166,0.0182809,0.0119879,0.0452172,0.0107238,0.0360794,797,540,-0.120044,0.156785
-420,484,-0.0808105,-0.119019,0.0108597,0.00964035,2.65004e-06,0.0108597,0.00964035,0.00217338,0.0068695,0.0274365,804,540,-0.0807979,0.119042
-413,484,-0.0255127,-0.0736694,0.00446464,0.00894213,-0.000398575,0.00897733,0.00442944,-1.4827,0.00518322,0.0164714,811,540,-0.0255304,0.0736543
-406,484,0.0123291,-0.0593262,0.00053297,0.00747811,-0.00103152,0.00762807,0.000383003,-1.42642,0.00496264,0.0109595,818,540,0.0123381,0.0593074
-399,484,-0.0098877,-0.0611572,-0.00113737,0.00607114,-0.00126171,0.0062856,-0.00135183,-1.40243,0.00470618,0.0142557,825,540,-0.00991442,0.0611866
-392,484,-0.0262451,-0.0667114,-0.00184673,0.00412581,-0.00169009,0.0045709,-0.00229182,-1.31329,0.00403436,0.0166978,832,540,-0.0262365,0.0667363
-385,484,-0.00860596,-0.0743408,-0.00123412,0.00165495,-0.00186644,0.00257055,-0.00214973,-1.11473,0.00272886,0.0112353,839,540,-0.00861976,0.0743409
-378,484,-0.0220337,-0.0733032,-0.000362284,0.00089369,-0.000684394,0.00119455,-0.000663147,-1.15662,0.00108707,0.0114349,846,540,-0.0220455,0.0733323
-371,484,-0.0215454,-0.053772,0.000505097,0.000100904,0.000337472,0.000696358,-9.0357e-05,0.51561,0.000497103,0.013065,853,540,-0.0215237,0.053791
-364,484,-0.0175171,-0.0380859,0.00153389,-0.000740808,0.00128015,0.00210895,-0.00131587,0.422199,0.00199491,0.0110297,860,540,-0.0174907,0.0380817
-357,484,-0.00531006,-0.0402832,0.00247698,-0.0017895,0.00175374,0.00310533,-0.00241784,0.344037,0.00319703,0.0133311,867,540,-0.0053142,0.0402564
-350,484,0.0102539,-0.0238647,0.00322154,-0.0028763,0.00224419,0.00395842,-0.00361318,0.31726,0.00437298,0.013452,874,540,0.0102824,0.0238478
-343,484,-0.00683594,-0.0259399,0.00435896,-0.00378003,0.00201926,0.00483239,-0.00425346,0.230299,0.00524927,0.0191396,881,540,-0.00684098,0.0259166
-336,484,-0.010376,-0.0581665,0.00552627,-0.00472749,0.00150643,0.00574301,-0.00494422,0.142893,0.00617602,0.0221851,888,540,-0.0103613,0.0581727
-329,484,-0.0300293,-0.0717163,0.0076556,-0.00554317,0.00115207,0.00775541,-0.00564298,0.0864152,0.00776754,0.0237663,895,540,-0.0300234,0.0717017
-322,484,-0.0170898,-0.0626831,0.010005,-0.00628014,0.000408971,0.0100153,-0.00629041,0.0250921,0.00949561,0.0191735,902,540,-0.017114,0.0626586
-315,484,-0.0182495,-0.0766602,0.012778,-0.00741568,-0.000895253,0.0128176,-0.00745529,-0.0442177,0.0118403,0.0186747,909,540,-0.0182298,0.0766375
-308,484,0.0482788,-0.0834961,0.0161404,-0.00846293,-0.00223094,0.016341,-0.00866359,-0.0897015,0.0146615,0.033049,916,540,0.0482821,0.0835186
-301,484,-0.0842285,-0.0830688,0.020128,-0.00942641,-0.00406833,0.0206778,-0.00997621,-0.134328,0.018054,0.044558,923,540,-0.0842457,0.0830562
-294,484,-2.96057,-0.323975,0,0,0,0,0,0,0,-1,930,540,-2.96058,0.323989
-287,484,-1.96313,0.120667,0,0,0,0,0,0,0,-1,937,540,-1.96315,-0.120659
-280,484,-1.26483,0.177246,0.0278333,-0.0105982,-0.0104537,0.0304928,-0.0132576,-0.249119,0.0259044,0.0495064,944,540,-1.26484,-0.177249
-273,484,-0.780457,0.0656738,0.0294432,-0.011033,-0.0126776,0.0330861,-0.0146759,-0.27981,0.02825,0.0477799,951,540,-0.780471,-0.0656927
-266,484,-0.129761,0.00543213,0.0298819,-0.0116052,-0.0148282,0.0346368,-0.0163601,-0.310306,0.0300667,0.0447729,958,540,-0.129771,-0.00543488
-259,484,0.510986,-0.0245972,0.0290967,-0.0116698,-0.0172531,0.0354183,-0.0179914,-0.351211,0.0313785,0.0460849,965,540,0.510971,0.0245982
-252,484,1.12878,-0.180481,0.026806,-0.0113503,-0.0198297,0.035245,-0.0197893,-0.402356,0.032189,0.0469905,972,540,1.12881,0.18047
-245,484,1.74048,-0.337769,0.0219357,-0.0108431,-0.0224804,0.0333668,-0.0222743,-0.470419,0.0323365,0.0475154,979,540,1.74047,0.337747
-238,484,0.666138,-0.284363,0.0156128,-0.010124,-0.0243726,0.0303056,-0.0248168,-0.542505,0.0318774,0.0418101,986,540,0.666151,0.284336
-231,484,0.634338,-1.14185,0.0112643,-0.00530593,-0.0231148,0.027534,-0.0215756,-0.613315,0.0284229,0.0429929,993,540,0.634308,1.14182
-224,484,0.507446,-1.88531,0,0,0,0,0,0,0,-1,1000,540,0.507439,1.88531
-217,484,0.606995,-2.50232,0,0,0,0,0,0,0,-1,1007,540,0.607014,2.50235
-210,484,0,0,0,0,0,0,0,0,0,-1,1014,540,0,0
-203,484,0,0,0,0,0,0,0,0,0,-1,1021,540,0,0
-196,484,0,0,0,0,0,0,0,0,0,-1,1028,540,0,0
-189,484,0,0,0,0,0,0,0,0,0,-1,1035,540,0,0
-182,484,0,0,0,0,0,0,0,0,0,-1,1042,540,0,0
-175,484,0,0,0,0,0,0,0,0,0,-1,1049,540,0,0
-168,484,0,0,0,0,0,0,0,0,0,-1,1056,540,0,0
-161,484,0,0,0,0,0,0,0,0,0,-1,1063,540,0,0
-154,484,0,0,0,0,0,0,0,0,0,-1,1070,540,0,0
-147,484,0,0,0,0,0,0,0,0,0,-1,1077,540,0,0
-140,484,0,0,0,0,0,0,0,0,0,-1,1084,540,0,0
-133,484,0,0,0,0,0,0,0,0,0,-1,1091,540,0,0
-126,484,0,0,0,0,0,0,0,0,0,-1,1098,540,0,0
-119,484,0,0,0,0,0,0,0,0,0,-1,1105,540,0,0
-112,484,0,0,0,0,0,0,0,0,0,-1,1112,540,0,0
-105,484,0,0,0,0,0,0,0,0,0,-1,1119,540,0,0
-98,484,0,0,0,0,0,0,0,0,0,-1,1126,540,0,0
-91,484,0,0,0,0,0,0,0,0,0,-1,1133,540,0,0
-84,484,0,0,0,0,0,0,0,0,0,-1,1140,540,0,0
-77,484,0,0,0,0,0,0,0,0,0,-1,1147,540,0,0
-70,484,0,0,0,0,0,0,0,0,0,-1,1154,540,0,0
-63,484,0,0,0,0,0,0,0,0,0,-1,1161,540,0,0
-56,484,0,0,0,0,0,0,0,0,0,-1,1168,540,0,0
-49,484,0,0,0,0,0,0,0,0,0,-1,1175,540,0,0
-42,484,0,0,0,0,0,0,0,0,0,-1,1182,540,0,0
-35,484,0,0,0,0,0,0,0,0,0,-1,1189,540,0,0
-28,484,0,0,0,0,0,0,0,0,0,-1,1196,540,0,0
-21,484,0,0,0,0,0,0,0,0,0,-1,1203,540,0,0
-14,484,0,0,0,0,0,0,0,0,0,-1,1210,540,0,0
-7,484,0,0,0,0,0,0,0,0,0,-1,1217,540,0,0
0,484,0,0,0,0,0,0,0,0,0,-1,1224,540,0,0
7,484,0,0,0,0,0,0,0,0,0,-1,1231,540,0,0
14,484,0,0,0,0,0,0,0,0,0,-1,1238,540,0,0
21,484,0,0,0,0,0,0,0,0,0,-1,1245,540,0,0
28,484,0,0,0,0,0,0,0,0,0,-1,1252,540,0,0
35,484,0,0,0,0,0,0,0,0,0,-1,1259,540,0,0
42,484,0,0,0,0,0,0,0,0,0,-1,1266,540,0,0
49,484,0,0,0,0,0,0,0,0,0,-1,1273,540,0,0
56,484,0,0,0,0,0,0,0,0,0,-1,1280,540,0,0
63,484,0,0,0,0,0,0,0,0,0,-1,1287,540,0,0
70,484,0,0,0,0,0,0,0,0,0,-1,1294,540,0,0
77,484,0,0,0,0,0,0,0,0,0,-1,1301,540,0,0
84,484,0,0,0,0,0,0,0,0,0,-1,1308,540,0,0
91,484,0,0,0,0,0,0,0,0,0,-1,1315,540,0,0
98,484,0,0,0,0,0,0,0,0,0,-1,1322,540,0,0
105,484,0,0,0,0,0,0,0,0,0,-1,1329,540,0,0
112,484,0,0,0,0,0,0,0,0,0,-1,1336,540,0,0
119,484,0,0,0,0,0,0,0,0,0,-1,1343,540,0,0
126,484,0,0,0,0,0,0,0,0,0,-1,1350,540,0,0
133,484,0,0,0,0,0,0,0,0,0,-1,1357,540,0,0
140,484,0,0,0,0,0,0,0,0,0,-1,1364,540,0,0
147,484,0,0,0,0,0,0,0,0,0,-1,1371,540,0,0
154,484,0,0,0,0,0,0,0,0,0,-1,1378,540,0,0
161,484,0,0,0,0,0,0,0,0,0,-1,1385,540,0,0
168,484,0,0,0,0,0,0,0,0,0,-1,1392,540,0,0
175,484,0,0,0,0,0,0,0,0,0,-1,1399,540,0,0
182,484,0,0,0,0,0,0,0,0,0,-1,1406,540,0,0
189,484,0,0,0,0,0,0,0,0,0,-1,1413,540,0,0
196,484,0,0,0,0,0,0,0,0,0,-1,1420,540,0,0
203,484,0,0,0,0,0,0,0,0,0,-1,1427,540,0,0
210,484,0,0,0,0,0,0,0,0,0,-1,1434,540,0,0
217,484,0,0,0,0,0,0,0,0,0,-1,1441,540,0,0
224,484,0,0,0,0,0,0,0,0,0,-1,1448,540,0,0
231,484,0,0,0,0,0,0,0,0,0,-1,1455,540,0,0
238,484,0,0,0,0,0,0,0,0,0,-1,1462,540,0,0
245,484,0,0,0,0,0,0,0,0,0,-1,1469,540,0,0
252,484,0,0,0,0,0,0,0,0,0,-1,1476,540,0,0
259,484,0,0,0,0,0,0,0,0,0,-1,1483,540,0,0
266,484,0,0,0,0,0,0,0,0,0,-1,1490,540,0,0
273,484,0,0,0,0,0,0,0,0,0,-1,1497,540,0,0
280,484,0,0,0,0,0,0,0,0,0,-1,1504,540,0,0
287,484,0,0,0,0,0,0,0,0,0,-1,1511,540,0,0
294,484,0,0,0,0,0,0,0,0,0,-1,1518,540,0,0
301,484,0,0,0,0,0,0,0,0,0,-1,1525,540,0,0
308,484,0,0,0,0,0,0,0,0,0,-1,1532,540,0,0
315,484,0,0,0,0,0,0,0,0,0,-1,1539,540,0,0
322,484,0,0,0,0,0,0,0,0,0,-1,1546,540,0,0
329,484,0,0,0,0,0,0,0,0,0,-1,1553,540,0,0
336,484,-0.0112305,0.224854,0.00199313,-0.0216989,0.0301175,0.0225105,-0.0422163,0.598028,0.037943,0.0464963,1560,540,-0.0112091,-0.224841
343,484,-0.244995,0.255798,0,0,0,0,0,0,0,-1,1567,540,-0.244979,-0.255776
350,484,-0.454834,0.122559,0.000989777,-0.00993742,0.023653,0.019802,-0.0287496,0.671894,0.0281895,0.0482823,1574,540,-0.454823,-0.122535
357,484,-0.555786,0.370544,-5.26396e-05,-0.00515008,0.0223299,0.0198735,-0.0250763,0.728574,0.0260097,0.0474743,1581,540,-0.555771,-0.37055
364,484,0.374268,-1.20758,-0.0023054,-0.00171068,0.0206326,0.0186267,-0.0226428,0.792604,0.0238646,0.0453871,1588,540,0.374321,1.2076
371,484,0.338257,-0.857483,-0.0050894,-0.000490262,0.018679,0.0160302,-0.0216098,0.846645,0.0218109,0.0424209,1595,540,0.338249,0.857493
378,484,0.24939,-0.561218,-0.00673975,0.000234474,0.0164013,0.0135152,-0.0200205,0.890145,0.0194829,0.0424658,1602,540,0.249412,0.56122
385,484,0.0698242,-0.30365,-0.00712602,0.00304143,0.0141852,0.0130264,-0.017111,0.957459,0.017453,0.042017,1609,540,0.0698262,0.30368
392,484,0.0177002,0.786316,0,0,0,0,0,0,0,-1,1616,540,0.0176986,-0.786323
399,484,-0.297852,-0.207764,0,0,0,0,0,0,0,-1,1623,540,-0.297842,0.20777
406,484,-1.98853,0.794312,0,0,0,0,0,0,0,-1,1630,540,-1.98848,-0.794323
413,484,0.311523,-0.147644,0,0,0,0,0,0,0,-1,1637,540,0.311529,0.147627
420,484,-0.990479,-0.216553,0,0,0,0,0,0,0,-1,1644,540,-0.990524,0.216555
427,484,-0.320801,-0.154724,-0.00903056,0.0151703,0.000590118,0.0151846,-0.00904494,1.54643,0.0141379,0.0498097,1651,540,-0.320862,0.154738
434,484,-0.071167,-0.0287476,-0.00777228,0.0154556,-0.00126808,0.0155246,-0.0078413,-1.51642,0.0137313,0.045657,1658,540,-0.0711729,0.0287293
441,484,-0.0498047,-0.0620728,-0.00664095,0.0149985,-0.00215282,0.0152106,-0.00685304,-1.47259,0.0130395,0.0401793,1665,540,-0.0497595,0.0620566
448,484,-0.0426025,-0.0715942,-0.00579761,0.013988,-0.00220439,0.0142306,-0.00604023,-1.46117,0.0120176,0.0289444,1672,540,-0.0425566,0.0715774
455,484,-0.0415039,-0.0490112,-0.0051329,0.0125654,-0.00175234,0.0127373,-0.00530474,-1.47305,0.0107071,0.0152798,1679,540,-0.0415481,0.048987
462,484,-0.0352783,-0.0926514,-0.00444707,0.0107069,-0.00127219,0.010813,-0.00455313,-1.48762,0.0091137,0.0110276,1686,540,-0.0352761,0.0926732
469,484,-0.0317383,-0.0928345,-0.00358414,0.00895078,-0.000805507,0.00900233,-0.00363569,-1.50689,0.00751265,0.0139388,1693,540,-0.0317755,0.0928091
476,484,-0.0256348,-0.0719604,-0.0026212,0.00729511,-0.000452771,0.00731574,-0.00264183,-1.52526,0.00595637,0.0128692,1700,540,-0.0256754,0.0719477
483,484,-0.0244141,-0.0794678,-0.00203908,0.00549426,-0.000256745,0.005503,-0.00204782,-1.53677,0.00450904,0.0100379,1707,540,-0.02442,0.0794741
490,484,-0.0264893,-0.0827637,-0.0014589,0.00334113,-0.000132991,0.00334482,-0.00146258,-1.54312,0.00284558,0.0102864,1714,540,-0.0264425,0.082737
497,484,-0.0274658,-0.0899658,-0.000684096,0.00156542,-1.77946e-05,0.00156556,-0.000684237,-1.56289,0.00133173,0.0121215,1721,540,-0.0274781,0.0899517
504,484,-0.03479,-0.0939331,8.19439e-05,6.68493e-05,0.000213641,0.000288171,-0.000139377,0.767742,0.000251778,0.0140669,1728,540,-0.0347382,0.0939385
511,484,-0.0404053,-0.0831909,0.000515138,-8.99804e-05,0.000325297,0.000656831,-0.000231674,0.410799,0.000532195,0.0156678,1735,540,-0.0404246,0.0831748
518,484,-0.0450439,-0.0831299,0.00108232,-0.000335999,0.000150909,0.0010982,-0.000351878,0.104836,0.000873382,0.0129878,1742,540,-0.0450401,0.0831393
525,484,-0.02771,-0.0913086,0.00179172,-0.000773169,-0.000235997,0.00181325,-0.000794702,-0.0909927,0.00154351,0.0112243,1749,540,-0.0276813,0.0912954
532,484,-0.0186768,-0.100525,0.00208757,-0.00120568,-0.000639667,0.00220746,-0.00132556,-0.185264,0.00206086,0.0142077,1756,540,-0.0187061,0.10051
539,484,-0.0239258,-0.0794678,0.00258514,-0.000979906,-0.000455336,0.00264238,-0.00103714,-0.125048,0.00219072,0.0182139,1763,540,-0.0238803,0.0794631
546,484,0.00170898,-0.0813599,0.00342727,-0.000958092,-0.000589121,0.00350504,-0.00103585,-0.131239,0.00274785,0.0192844,1770,540,0.00168708,0.0813746
553,484,-0.0482178,-0.00567627,0.00420357,-0.00108789,-0.000301274,0.00422067,-0.00110499,-0.0566917,0.00324543,0.0315296,1777,540,-0.0482278,0.00567694
560,484,-0.105347,0.0585938,0.00517615,-0.000539746,0.000321417,0.00519416,-0.000557763,0.0559968,0.00366288,0.0381671,1784,540,-0.10535,-0.0585842
567,484,-0.0598145,0.0877075,0.00655738,0.000830378,0.000942845,0.00670861,0.00067915,0.159042,0.00426409,0.0379391,1791,540,-0.0598582,-0.0877069
574,484,-0.010498,-0.234192,0.00850115,0.00197598,0.00146794,0.00881617,0.00166096,0.211398,0.00540947,0.0384047,1798,540,-0.0104491,0.234186
581,484,-0.072876,-0.575562,0.0105011,0.00391423,0.00266863,0.0114466,0.00296876,0.340491,0.00685908,0.0402784,1805,540,-0.0728349,0.575589
588,484,0.027832,-0.564941,0.0131053,0.0067899,0.00449833,0.0154436,0.0044516,0.479374,0.00917904,0.0461363,1812,540,0.0277733,0.564939
595,484,0.167725,-0.516785,0.0160625,0.0111117,0.00685342,0.0208739,0.00630034,0.612092,0.0123631,0.0445412,1819,540,0.167745,0.516767
602,484,0,0,0,0,0,0,0,0,0,-1,1826,540,0,0
609,484,0,0,0,0,0,0,0,0,0,-1,1833,540,0,0
616,484,0,0,0,0,0,0,0,0,0,-1,1840,540,0,0
623,484,0,0,0,0,0,0,0,0,0,-1,1847,540,0,0
630,484,0,0,0,0,0,0,0,0,0,-1,1854,540,0,0
637,484,0,0,0,0,0,0,0,0,0,-1,1861,540,0,0
644,484,0,0,0,0,0,0,0,0,0,-1,1868,540,0,0
651,484,0,0,0,0,0,0,0,0,0,-1,1875,540,0,0
658,484,0,0,0,0,0,0,0,0,0,-1,1882,540,0,0
665,484,0,0,0,0,0,0,0,0,0,-1,1889,540,0,0
672,484,0,0,0,0,0,0,0,0,0,-1,1896,540,0,0
679,484,0,0,0,0,0,0,0,0,0,-1,1903,540,0,0
686,484,0,0,0,0,0,0,0,0,0,-1,1910,540,0,0
693,484,0,0,0,0,0,0,0,0,0,-1,1917,540,0,0
700,484,0,0,0,0,0,0,0,0,0,-1,1924,540,0,0
707,484,0,0,0,0,0,0,0,0,0,-1,1931,540,0,0
714,484,0,0,0,0,0,0,0,0,0,-1,1938,540,0,0
721,484,0,0,0,0,0,0,0,0,0,-1,1945,540,0,0
728,484,0,0,0,0,0,0,0,0,0,-1,1952,540,0,0
735,484,0,0,0,0,0,0,0,0,0,-1,1959,540,0,0
742,484,0,0,0,0,0,0,0,0,0,-1,1966,540,0,0
749,484,0,0,0,0,0,0,0,0,0,-1,1973,540,0,0
756,484,0,0,0,0,0,0,0,0,0,-1,1980,540,0,0
763,484,0,0,0,0,0,0,0,0,0,-1,1987,540,0,0
770,484,0,0,0,0,0,0,0,0,0,-1,1994,540,0,0
777,484,0,0,0,0,0,0,0,0,0,-1,2001,540,0,0
784,484,0,0,0,0,0,0,0,0,0,-1,2008,540,0,0
791,484,0,0,0,0,0,0,0,0,0,-1,2015,540,0,0
798,484,0,0,0,0,0,0,0,0,0,-1,2022,540,0,0
805,484,0,0,0,0,0,0,0,0,0,-1,2029,540,0,0
812,484,0,0,0,0,0,0,0,0,0,-1,2036,540,0,0
-700,477,0,0,0,0,0,0,0,0,0,-1,524,547,0,0
-693,477,0,0,0,0,0,0,0,0,0,-1,531,547,0,0
-686,477,0,0,0,0,0,0,0,0,0,-1,538,547,0,0
-679,477,0,0,0,0,0,0,0,0,0,-1,545,547,0,0
-672,477,0,0,0,0,0,0,0,0,0,-1,552,547,0,0
-665,477,0,0,0,0,0,0,0,0,0,-1,559,547,0,0
-658,477,0,0,0,0,0,0,0,0,0,-1,566,547,0,0
-651,477,0,0,0,0,0,0,0,0,0,-1,573,547,0,0
-644,477,0,0,0,0,0,0,0,0,0,-1,580,547,0,0
-637,477,0,0,0,0,0,0,0,0,0,-1,587,547,0,0
-630,477,0,0,0,0,0,0,0,0,0,-1,594,547,0,0
-623,477,0,0,0,0,0,0,0,0,0,-1,601,547,0,0
-616,477,0,0,0,0,0,0,0,0,0,-1,608,547,0,0
-609,477,0,0,0,0,0,0,0,0,0,-1,615,547,0,0
-602,477,0,0,0,0,0,0,0,0,0,-1,622,547,0,0
-595,477,0,0,0,0,0,0,0,0,0,-1,629,547,0,0
-588,477,0,0,0,0,0,0,0,0,0,-1,636,547,0,0
-581,477,0,0,0,0,0,0,0,0,0,-1,643,547,0,0
-574,477,0,0,0,0,0,0,0,0,0,-1,650,547,0,0
-567,477,0,0,0,0,0,0,0,0,0,-1,657,547,0,0
-560,477,0,0,0,0,0,0,0,0,0,-1,664,547,0,0
-553,477,0,0,0,0,0,0,0,0,0,-1,671,547,0,0
-546,477,0,0,0,0,0,0,0,0,0,-1,678,547,0,0
-539,477,0,0,0,0,0,0,0,0,0,-1,685,547,0,0
-532,477,0,0,0,0,0,0,0,0,0,-1,692,547,0,0
-525,477,0,0,0,0,0,0,0,0,0,-1,699,547,0,0
-518,477,0,0,0,0,0,0,0,0,0,-1,706,547,0,0
-511,477,0,0,0,0,0,0,0,0,0,-1,713,547,0,0
-504,477,0,0,0,0,0,0,0,0,0,-1,720,547,0,0
-497,477,0,0,0,0,0,0,0,0,0,-1,727,547,0,0
-490,477,0,0,0,0,0,0,0,0,0,-1,734,547,0,0
-483,477,0.903687,-1.12555,0,0,0,0,0,0,0,-1,741,547,0.903682,1.12553
-476,477,-3.5824,0.0255127,0,0,0,0,0,0,0,-1,748,547,-3.58241,-0.0255289
-469,477,-2.79865,-0.218994,0.0822708,0.0256695,-0.0114679,0.0845061,0.0234342,-0.192498,0.0503768,0.0467339,755,547,-2.79862,0.219013
-462,477,-1.867,-0.58429,0.0690124,0.019124,-0.00722874,0.0700388,0.0180977,-0.141035,0.041981,0.0464191,762,547,-1.86699,0.584277
-455,477,-0.792725,-0.875122,0.0555751,0.0149758,-0.00453123,0.0560746,0.0144762,-0.109809,0.0336134,0.0426643,769,547,-0.792729,0.875097
-448,477,-0.120605,-0.740601,0.0434821,0.0114448,-0.00240442,0.0436616,0.0112654,-0.0744946,0.0261736,0.0414768,776,547,-0.120594,0.740625
-441,477,-0.106323,-0.246094,0.0325414,0.00900489,-0.000806984,0.032569,0.00897725,-0.0342329,0.0194245,0.039809,783,547,-0.106342,0.246104
-434,477,-0.0275879,-0.120789,0.0228408,0.00694117,-8.08572e-05,0.0228412,0.00694076,-0.00508532,0.0135213,0.0346725,790,547,-0.0275984,0.120761
-427,477,-0.0454712,-0.103271,0.0144392,0.00616147,-0.000291915,0.0144495,0.00615119,-0.0352067,0.00837307,0.0178422,797,547,-0.0454736,0.103302
-420,477,-0.052124,-0.0857544,0.00815568,0.00480481,-0.00015685,0.00816301,0.00479748,-0.0466727,0.00473702,0.0148949,804,547,-0.0521042,0.0857305
-413,477,-0.0393066,-0.0578613,0.00264128,0.00490494,-0.000307728,0.00494603,0.00260019,-1.43806,0.00285685,0.0144013,811,547,-0.0393339,0.0578909
-406,477,0.000427246,-0.0499268,-0.000754065,0.00427512,-0.000758733,0.00438709,-0.000866039,-1.42427,0.00325208,0.0106603,818,547,0.000447314,0.049904
-399,477,-0.0117188,-0.0719604,-0.00216921,0.00352782,-0.000739978,0.00362237,-0.00226376,-1.44372,0.0034284,0.0169939,825,547,-0.0116932,0.0719675
-392,477,-0.0179443,-0.0758057,-0.00257831,0.00218497,-0.000987766,0.00238168,-0.00277502,-1.37422,0.00298011,0.0167728,832,547,-0.017919,0.0758258
-385,477,0.00244141,-0.0594482,-0.00186544,0.000367666,-0.0008724,0.000668071,-0.00216585,-1.23917,0.00171064,0.0137015,839,547,0.00244183,0.0594502
-378,477,-0.0125122,-0.0651855,-0.00074845,-0.000134917,0.000297563,-1.43087e-05,-0.000869059,1.18571,0.000574662,0.0115221,846,547,-0.0125037,0.0652035
-371,477,-0.0314331,-0.0559692,0.000502457,-0.000690285,0.00135691,0.00138826,-0.00157609,0.578351,0.00171262,0.0113584,853,547,-0.0314347,0.0559964
-364,477,-0.0302124,-0.0423584,0.00193427,-0.00136926,0.00225029,0.00307394,-0.00250894,0.4688,0.00322877,0.0122372,860,547,-0.0302133,0.0423473
-357,477,-0.0293579,-0.0531616,0.00336396,-0.00232675,0.00270335,0.00444342,-0.00340621,0.379905,0.00454515,0.0107553,867,547,-0.0293836,0.0531758
-350,477,-0.0137939,-0.053833,0.00480845,-0.00330383,0.00315863,0.00589325,-0.00438863,0.330817,0.00595739,0.00933546,874,547,-0.0138026,0.0538027
-343,477,-0.0194092,-0.0577393,0.00677137,-0.00421472,0.0028471,0.00746537,-0.00490872,0.239094,0.00719484,0.0160559,881,547,-0.0194166,0.0577528
-336,477,-0.0308838,-0.0824585,0.00867631,-0.00528469,0.00210285,0.00898618,-0.00559455,0.1463,0.00849376,0.0197533,888,547,-0.0309032,0.0824321
-329,477,-0.0529175,-0.0958252,0.011461,-0.00620757,0.00145267,0.0115797,-0.00632621,0.0814885,0.0104852,0.0245353,895,547,-0.0529366,0.0958175
-322,477,-0.00592041,-0.0470581,0.0144868,-0.00702347,0.000361008,0.0144928,-0.00702953,0.0167768,0.0126725,0.030045,902,547,-0.0058964,0.0470436
-315,477,-0.0469971,-0.0351563,0.0178858,-0.00834635,-0.00137879,0.017958,-0.00841862,-0.0523689,0.015557,0.0368408,909,547,-0.0469836,0.0351299
-308,477,-0.152466,-0.148743,0.0216722,-0.00958555,-0.00310196,0.0219771,-0.00989041,-0.097965,0.0188347,0.0413411,916,547,-0.15247,0.148738
-301,477,-3.40833,0.106628,0,0,0,0,0,0,0,-1,923,547,-3.40834,-0.10661
-294,477,-2.65515,0.384033,0.0295038,-0.0116229,-0.00803237,0.0310169,-0.013136,-0.186195,0.0261792,0.0452289,930,547,-2.65517,-0.384003
-287,477,-1.84637,0.31842,0,0,0,0,0,0,0,-1,937,547,-1.84638,-0.318391
-280,477,-0.98114,0.413086,0.0342623,-0.0125191,-0.0129471,0.0376064,-0.0158633,-0.25277,0.0317101,0.0464635,944,547,-0.981152,-0.413082
-273,477,-0.337952,0.301392,0.0356509,-0.0134933,-0.015345,0.0400487,-0.0178911,-0.279116,0.0342572,0.0440076,951,547,-0.337953,-0.30142
-266,477,0.256592,0.346008,0.0356472,-0.0145089,-0.0176682,0.041246,-0.0201078,-0.306879,0.0361166,0.0466072,958,547,0.256591,-0.346023
-259,477,0.51239,0.298523,0.0341299,-0.0149967,-0.0201866,0.0413605,-0.0222274,-0.343952,0.0372623,0.0499788,965,547,0.512371,-0.298493
-252,477,1.46375,-0.0926514,0,0,0,0,0,0,0,-1,972,547,1.46377,0.0926584
-245,477,0.831299,0.00946045,0.0235108,-0.014485,-0.0257932,0.0365474,-0.0275216,-0.46798,0.0371124,0.0446641,979,547,0.83132,-0.0094425
-238,477,1.05518,-0.476013,0.0144808,-0.0144683,-0.0280836,0.0316005,-0.0315881,-0.547448,0.0364819,0.04382,986,547,1.05517,0.476035
-231,477,0.859985,-0.66095,0.00754251,-0.00993657,-0.0272819,0.0274505,-0.0298446,-0.630392,0.033089,0.0440936,993,547,0.860003,0.660952
-224,477,0,0,0,0,0,0,0,0,0,-1,1000,547,0,0
-217,477,0,0,0,0,0,0,0,0,0,-1,1007,547,0,0
-210,477,0,0,0,0,0,0,0,0,0,-1,1014,547,0,0
-203,477,0,0,0,0,0,0,0,0,0,-1,1021,547,0,0
-196,477,0,0,0,0,0,0,0,0,0,-1,1028,547,0,0
-189,477,0,0,0,0,0,0,0,0,0,-1,1035,547,0,0
-182,477,0,0,0,0,0,0,0,0,0,-1,1042,547,0,0
-175,477,0,0,0,0,0,0,0,0,0,-1,1049,547,0,0
-168,477,0,0,0,0,0,0,0,0,0,-1,1056,547,0,0
-161,477,0,0,0,0,0,0,0,0,0,-1,1063,547,0,0
-154,477,0,0,0,0,0,0,0,0,0,-1,1070,547,0,0
-147,477,0,0,0,0,0,0,0,0,0,-1,1077,547,0,0
-140,477,0,0,0,0,0,0,0,0,0,-1,1084,547,0,0
-133,477,0,0,0,0,0,0,0,0,0,-1,1091,547,0,0
-126,477,0,0,0,0,0,0,0,0,0,-1,1098,547,0,0
-119,477,0,0,0,0,0,0,0,0,0,-1,1105,547,0,0
-112,477,0,0,0,0,0,0,0,0,0,-1,1112,547,0,0
-105,477,0,0,0,0,0,0,0,0,0,-1,1119,547,0,0
-98,477,0,0,0,0,0,0,0,0,0,-1,1126,547,0,0
-91,477,0,0,0,0,0,0,0,0,0,-1,1133,547,0,0
-84,477,0,0,0,0,0,0,0,0,0,-1,1140,547,0,0
-77,477,0,0,0,0,0,0,0,0,0,-1,1147,547,0,0
-70,477,0,0,0,0,0,0,0,0,0,-1,1154,547,0,0
-63,477,0,0,0,0,0,0,0,0,0,-1,1161,547,0,0
-56,477,0,0,0,0,0,0,0,0,0,-1,1168,547,0,0
-49,477,0,0,0,0,0,0,0,0,0,-1,1175,547,0,0
-42,477,0,0,0,0,0,0,0,0,0,-1,1182,547,0,0
-35,477,0,0,0,0,0,0,0,0,0,-1,1189,547,0,0
-28,477,0,0,0,0,0,0,0,0,0,-1,1196,547,0,0
-21,477,0,0,0,0,0,0,0,0,0,-1,1203,547,0,0
-14,477,0,0,0,0,0,0,0,0,0,-1,1210,547,0,0
-7,477,0,0,0,0,0,0,0,0,0,-1,1217,547,0,0
0,477,0,0,0,0,0,0,0,0,0,-1,1224,547,0,0
7,477,0,0,0,0,0,0,0,0,0,-1,1231,547,0,0
14,477,0,0,0,0,0,0,0,0,0,-1,1238,547,0,0
21,477,0,0,0,0,0,0,0,0,0,-1,1245,547,0,0
28,477,0,0,0,0,0,0,0,0,0,-1,1252,547,0,0
35,477,0,0,0,0,0,0,0,0,0,-1,1259,547,0,0
42,477,0,0,0,0,0,0,0,0,0,-1,1266,547,0,0
49,477,0,0,0,0,0,0,0,0,0,-1,1273,547,0,0
56,477,0,0,0,0,0,0,0,0,0,-1,1280,547,0,0
63,477,0,0,0,0,0,0,0,0,0,-1,1287,547,0,0
70,477,0,0,0,0,0,0,0,0,0,-1,1294,547,0,0
77,477,0,0,0,0,0,0,0,0,0,-1,1301,547,0,0
84,477,0,0,0,0,0,0,0,0,0,-1,1308,547,0,0
91,477,0,0,0,0,0,0,0,0,0,-1,1315,547,0,0
98,477,0,0,0,0,0,0,0,0,0,-1,1322,547,0,0
105,477,0,0,0,0,0,0,0,0,0,-1,1329,547,0,0
112,477,0,0,0,0,0,0,0,0,0,-1,1336,547,0,0
119,477,0,0,0,0,0,0,0,0,0,-1,1343,547,0,0
126,477,0,0,0,0,0,0,0,0,0,-1,1350,547,0,0
133,477,0,0,0,0,0,0,0,0,0,-1,1357,547,0,0
140,477,0,0,0,0,0,0,0,0,0,-1,1364,547,0,0
147,477,0,0,0,0,0,0,0,0,0,-1,1371,547,0,0
154,477,0,0,0,0,0,0,0,0,0,-1,1378,547,0,0
161,477,0,0,0,0,0,0,0,0,0,-1,1385,547,0,0
168,477,0,0,0,0,0,0,0,0,0,-1,1392,547,0,0
175,477,0,0,0,0,0,0,0,0,0,-1,1399,547,0,0
182,477,0,0,0,0,0,0,0,0,0,-1,1406,547,0,0
189,477,0,0,0,0,0,0,0,0,0,-1,1413,547,0,0
196,477,0,0,0,0,0,0,0,0,0,-1,1420,547,0,0
203,477,0,0,0,0,0,0,0,0,0,-1,1427,547,0,0
210,477,0,0,0,0,0,0,0,0,0,-1,1434,547,0,0
217,477,0,0,0,0,0,0,0,0,0,-1,1441,547,0,0
224,477,0,0,0,0,0,0,0,0,0,-1,1448,547,0,0
231,477,0,0,0,0,0,0,0,0,0,-1,1455,547,0,0
238,477,0,0,0,0,0,0,0,0,0,-1,1462,547,0,0
245,477,0,0,0,0,0,0,0,0,0,-1,1469,547,0,0
252,477,0,0,0,0,0,0,0,0,0,-1,1476,547,0,0
259,477,0,0,0,0,0,0,0,0,0,-1,1483,547,0,0
266,477,0,0,0,0,0,0,0,0,0,-1,1490,547,0,0
273,477,0,0,0,0,0,0,0,0,0,-1,1497,547,0,0
280,477,0,0,0,0,0,0,0,0,0,-1,1504,547,0,0
287,477,0,0,0,0,0,0,0,0,0,-1,1511,547,0,0
294,477,0,0,0,0,0,0,0,0,0,-1,1518,547,0,0
301,477,0,0,0,0,0,0,0,0,0,-1,1525,547,0,0
308,477,0,0,0,0,0,0,0,0,0,-1,1532,547,0,0
315,477,0,0,0,0,0,0,0,0,0,-1,1539,547,0,0
322,477,0,0,0,0,0,0,0,0,0,-1,1546,547,0,0
329,477,0,0,0,0,0,0,0,0,0,-1,1553,547,0,0
336,477,0,0,0,0,0,0,0,0,0,-1,1560,547,0,0
343,477,0,0,0,0,0,0,0,0,0,-1,1567,547,0,0
350,477,-0.341309,0.543335,0,0,0,0,0,0,0,-1,1574,547,-0.341249,-0.543347
357,477,-0.0897217,-1.91241,-0.00135939,-0.00663219,0.0228816,0.0190372,-0.0270288,0.728041,0.0267293,0.0421703,1581,547,-0.0896836,1.9124
364,477,0.199341,-1.33533,-0.00456596,-0.00312497,0.0208898,0.0170567,-0.0247477,0.802637,0.0242715,0.0412233,1588,547,0.199361,1.33532
371,477,0.0505371,-0.5672,-0.00809252,-0.00182028,0.0188132,0.0141164,-0.0240292,0.867988,0.0222699,0.0414592,1595,547,0.0505583,0.56722
378,477,-0.0762939,-0.564941,-0.00994954,-0.000874854,0.0163456,0.0115515,-0.0223759,0.920783,0.0199175,0.0401619,1602,547,-0.0763444,0.564959
385,477,0.127686,-0.866211,0,0,0,0,0,0,0,-1,1609,547,0.127694,0.866239
392,477,-0.983398,1.08716,0,0,0,0,0,0,0,-1,1616,547,-0.983358,-1.08719
399,477,-1.32495,0.739136,0,0,0,0,0,0,0,-1,1623,547,-1.32497,-0.739119
406,477,-1.33691,0.628845,0,0,0,0,0,0,0,-1,1630,547,-1.33695,-0.628824
413,477,-0.40979,-0.214661,0,0,0,0,0,0,0,-1,1637,547,-0.409815,0.214655
420,477,-0.481079,-0.0543213,-0.0135565,0.0190287,0.00267628,0.019247,-0.0137749,1.48939,0.0191522,0.0460882,1644,547,-0.481085,0.0543441
427,477,-0.737549,0.0881958,-0.0122352,0.0211027,0.000336552,0.0211061,-0.0122386,1.5607,0.0194772,0.0485759,1651,547,-0.737511,-0.0882162
434,477,-0.0828857,-0.00231934,0,0,0,0,0,0,0,-1,1658,547,-0.0828946,0.00231802
441,477,-0.307739,0.0513916,-0.00894524,0.0211281,-0.00244187,0.0213251,-0.00914222,-1.4903,0.018053,0.0436666,1665,547,-0.30772,-0.0513702
448,477,-0.0756836,-0.0454712,-0.00766084,0.0196825,-0.00234374,0.0198819,-0.00786028,-1.48591,0.0165106,0.0417684,1672,547,-0.0757091,0.0454935
455,477,0.0314941,-0.100159,-0.00648615,0.017612,-0.00175253,0.0177388,-0.00661294,-1.49858,0.0145404,0.0334851,1679,547,0.0315335,0.100182
462,477,-0.00146484,-0.0811157,-0.00534158,0.0149563,-0.00114855,0.015021,-0.00540637,-1.51445,0.0122215,0.0205505,1686,547,-0.00143964,0.0811314
469,477,-0.0179443,-0.0651245,-0.00404824,0.0125476,-0.000577857,0.0125676,-0.00406833,-1.53603,0.0100139,0.0140659,1693,547,-0.0179914,0.0651036
476,477,-0.0212402,-0.0453491,-0.00282682,0.010229,-0.000200295,0.0102321,-0.00282989,-1.55546,0.0079347,0.012796,1700,547,-0.0212195,0.0453387
483,477,-0.0228271,-0.0830688,-0.00214042,0.00774665,3.5198e-05,0.00774677,-0.00214055,1.56724,0.00600654,0.00933463,1707,547,-0.0227775,0.0830574
490,477,-0.0241699,-0.0820923,-0.0015924,0.00499367,9.99245e-05,0.00499519,-0.00159392,1.55563,0.00396957,0.0101779,1714,547,-0.0241763,0.0821196
497,477,-0.0234375,-0.0778198,-0.000835733,0.00261108,0.00015066,0.00261765,-0.000842306,1.5272,0.00208342,0.012326,1721,547,-0.0234117,0.0777949
504,477,-0.0245361,-0.088562,-0.000124714,0.000715644,0.000369381,0.000854923,-0.000263993,1.21022,0.000675369,0.0161463,1728,547,-0.0244773,0.088581
511,477,-0.0267334,-0.0986938,0.000152403,0.000483644,0.000416065,0.000765841,-0.000129794,0.974817,0.000558872,0.0184778,1735,547,-0.0267765,0.0986698
518,477,-0.0324707,-0.0991821,0.000510262,0.000214373,0.00017109,0.000588502,0.000136134,0.42891,0.000355748,0.0160808,1742,547,-0.0325137,0.0991918
525,477,-0.0239258,-0.0975952,0.00104812,-0.000162845,-0.000299398,0.0011181,-0.000232824,-0.22961,0.000833912,0.0148259,1749,547,-0.0239579,0.0975686
532,477,-0.0438232,-0.0922852,0.00115222,-0.000537082,-0.000689729,0.00139805,-0.000782918,-0.342386,0.00127577,0.0191814,1756,547,-0.0437714,0.0922865
539,477,-0.0404053,-0.0412598,0.00142041,-0.000311194,-0.000486593,0.00154778,-0.000438562,-0.25601,0.00120495,0.0164907,1763,547,-0.0403781,0.0412474
546,477,-0.0223389,-0.0608521,0.00214488,-0.000243299,-0.000529344,0.00225695,-0.00035537,-0.208635,0.00163601,0.0167106,1770,547,-0.0223127,0.0608404
553,477,-0.0340576,-0.0656738,0.00286653,-0.00030205,-0.000131602,0.00287198,-0.000307507,-0.0414383,0.00202496,0.0162888,1777,547,-0.0340751,0.065697
560,477,-0.0280762,-0.0379028,0.00379019,0.000332356,0.00060229,0.00389209,0.000230451,0.167608,0.00252142,0.0287202,1784,547,-0.0280704,0.0378787
567,477,-0.0178223,-0.0305786,0.00513716,0.00179611,0.00131923,0.00559526,0.00133801,0.334218,0.0033738,0.0336477,1791,547,-0.0178627,0.0306069
574,477,-0.196167,-0.244446,0.00704065,0.00292675,0.0019028,0.00778579,0.00218161,0.373245,0.00463764,0.0365444,1798,547,-0.196227,0.244439
581,477,-0.126221,0.0195313,0.00906182,0.00483825,0.00316493,0.0107548,0.00314525,0.491197,0.00638513,0.0425592,1805,547,-0.12618,-0.0195427
588,477,-0.562744,-0.857117,0.0114434,0.00750313,0.0047974,0.0146594,0.00428708,0.590566,0.0087033,0.0497094,1812,547,-0.562769,0.857132
595,477,0.421997,-0.653931,0.0142453,0.0112643,0.00684043,0.0197557,0.00575386,0.678126,0.0117327,0.0440715,1819,547,0.422021,0.653955
602,477,0.354004,-0.206238,0.0174982,0.0158619,0.00918602,0.0259025,0.0074577,0.740983,0.0153967,0.0428318,1826,547,0.354029,0.206234
609,477,0,0,0,0,0,0,0,0,0,-1,1833,547,0,0
616,477,0,0,0,0,0,0,0,0,0,-1,1840,547,0,0
623,477,0,0,0,0,0,0,0,0,0,-1,1847,547,0,0
630,477,0,0,0,0,0,0,0,0,0,-1,1854,547,0,0
637,477,0,0,0,0,0,0,0,0,0,-1,1861,547,0,0
644,477,0,0,0,0,0,0,0,0,0,-1,1868,547,0,0
651,477,0,0,0,0,0,0,0,0,0,-1,1875,547,0,0
658,477,0,0,0,0,0,0,0,0,0,-1,1882,547,0,0
665,477,0,0,0,0,0,0,0,0,0,-1,1889,547,0,0
672,477,0,0,0,0,0,0,0,0,0,-1,1896,547,0,0
679,477,0,0,0,0,0,0,0,0,0,-1,1903,547,0,0
686,477,0,0,0,0,0,0,0,0,0,-1,1910,547,0,0
693,477,0,0,0,0,0,0,0,0,0,-1,1917,547,0,0
700,477,0,0,0,0,0,0,0,0,0,-1,1924,547,0,0
707,477,0,0,0,0,0,0,0,0,0,-1,1931,547,0,0
714,477,0,0,0,0,0,0,0,0,0,-1,1938,547,0,0
721,477,0,0,0,0,0,0,0,0,0,-1,1945,547,0,0
728,477,0,0,0,0,0,0,0,0,0,-1,1952,547,0,0
735,477,0,0,0,0,0,0,0,0,0,-1,1959,547,0,0
742,477,0,0,0,0,0,0,0,0,0,-1,1966,547,0,0
749,477,0,0,0,0,0,0,0,0,0,-1,1973,547,0,0
756,477,0,0,0,0,0,0,0,0,0,-1,1980,547,0,0
763,477,0,0,0,0,0,0,0,0,0,-1,1987,547,0,0
770,477,0,0,0,0,0,0,0,0,0,-1,1994,547,0,0
777,477,0,0,0,0,0,0,0,0,0,-1,2001,547,0,0
784,477,0,0,0,0,0,0,0,0,0,-1,2008,547,0,0
791,477,0,0,0,0,0,0,0,0,0,-1,2015,547,0,0
798,477,0,0,0,0,0,0,0,0,0,-1,2022,547,0,0
805,477,0,0,0,0,0,0,0,0,0,-1,2029,547,0,0
812,477,0,0,0,0,0,0,0,0,0,-1,2036,547,0,0
-700,470,0,0,0,0,0,0,0,0,0,-1,524,554,0,0
-693,470,0,0,0,0,0,0,0,0,0,-1,531,554,0,0
-686,470,0,0,0,0,0,0,0,0,0,-1,538,554,0,0
-679,470,0,0,0,0,0,0,0,0,0,-1,545,554,0,0
-672,470,0,0,0,0,0,0,0,0,0,-1,552,554,0,0
-665,470,0,0,0,0,0,0,0,0,0,-1,559,554,0,0
-658,470,0,0,0,0,0,0,0,0,0,-1,566,554,0,0
-651,470,0,0,0,0,0,0,0,0,0,-1,573,554,0,0
-644,470,0,0,0,0,0,0,0,0,0,-1,580,554,0,0
-637,470,0,0,0,0,0,0,0,0,0,-1,587,554,0,0
-630,470,0,0,0,0,0,0,0,0,0,-1,594,554,0,0
-623,470,0,0,0,0,0,0,0,0,0,-1,601,554,0,0
-616,470,0,0,0,0,0,0,0,0,0,-1,608,554,0,0
-609,470,0,0,0,0,0,0,0,0,0,-1,615,554,0,0
-602,470,0,0,0,0,0,0,0,0,0,-1,622,554,0,0
-595,470,0,0,0,0,0,0,0,0,0,-1,629,554,0,0
-588,470,0,0,0,0,0,0,0,0,0,-1,636,554,0,0
-581,470,0,0,0,0,0,0,0,0,0,-1,643,554,0,0
-574,470,0,0,0,0,0,0,0,0,0,-1,650,554,0,0
-567,470,0,0,0,0,0,0,0,0,0,-1,657,554,0,0
-560,470,0,0,0,0,0,0,0,0,0,-1,664,554,0,0
-553,470,0,0,0,0,0,0,0,0,0,-1,671,554,0,0
-546,470,0,0,0,0,0,0,0,0,0,-1,678,554,0,0
-539,470,0,0,0,0,0,0,0,0,0,-1,685,554,0,0
-532,470,0,0,0,0,0,0,0,0,0,-1,692,554,0,0
-525,470,0,0,0,0,0,0,0,0,0,-1,699,554,0,0
-518,470,0,0,0,0,0,0,0,0,0,-1,706,554,0,0
-511,470,0,0,0,0,0,0,0,0,0,-1,713,554,0,0
-504,470,0,0,0,0,0,0,0,0,0,-1,720,554,0,0
-497,470,0,0,0,0,0,0,0,0,0,-1,727,554,0,0
-490,470,-0.180176,1.04865,0,0,0,0,0,0,0,-1,734,554,-0.180181,-1.04864
-483,470,-0.610229,0.195862,0,0,0,0,0,0,0,-1,741,554,-0.610199,-0.195874
-476,470,-2.89313,0.63916,0.0734395,0.0263612,-0.0165256,0.0786612,0.0211395,-0.306049,0.0470064,0.0487202,748,554,-2.89312,-0.639136
-469,470,-2.18707,0.39093,0.064172,0.0178596,-0.0123659,0.067267,0.0147645,-0.245247,0.040823,0.0491795,755,554,-2.18707,-0.390926
-462,470,-0.734741,-0.123962,0,0,0,0,0,0,0,-1,762,554,-0.73477,0.123949
-455,470,-0.455139,-0.468628,0.0438248,0.00851128,-0.00566005,0.0447098,0.00762627,-0.155105,0.0276177,0.0415207,769,554,-0.455157,0.468652
-448,470,-0.114014,-0.534729,0.0345142,0.00555831,-0.0035398,0.0349407,0.00513186,-0.119896,0.0217856,0.0409764,776,554,-0.114012,0.534757
-441,470,-0.0576172,-0.256775,0.0260982,0.00386515,-0.00170411,0.026228,0.00373529,-0.0760556,0.0163828,0.034616,783,554,-0.057604,0.256801
-434,470,-0.013916,-0.113037,0.0186544,0.00262994,-0.000543094,0.0186727,0.00261155,-0.0338399,0.0116757,0.0187619,790,554,-0.0139346,0.113025
-427,470,-0.0286255,-0.0734253,0.0120136,0.00266053,-0.000329501,0.0120251,0.00264894,-0.0351713,0.00729588,0.0102027,797,554,-0.0286287,0.0734125
-420,470,-0.0330811,-0.0610962,0.00692698,0.00213024,8.41879e-05,0.00692846,0.00212876,0.0175439,0.00409803,0.0120938,804,554,-0.0330653,0.0610712
-413,470,-0.0245972,-0.0510864,0.00239238,0.00284803,0.000126574,0.00288083,0.00235958,1.31724,0.00177254,0.0127017,811,554,-0.0246215,0.0510783
-406,470,-0.0338135,-0.0471802,-0.00040405,0.00291451,-0.000135751,0.00292006,-0.000409594,-1.52998,0.00209661,0.00882925,818,554,-0.0337863,0.0472103
-399,470,-0.0166016,-0.0628052,-0.00153416,0.00274138,0.000216051,0.00275227,-0.00154505,1.52044,0.00251348,0.0112518,825,554,-0.0166115,0.0628052
-392,470,-0.0045166,-0.0692749,-0.00171446,0.00193492,0.000202428,0.00194612,-0.00172565,1.51555,0.00212117,0.0128227,832,554,-0.00454428,0.0692465
-385,470,0.012085,-0.0426636,-0.000986984,0.000674867,0.000665049,0.000908238,-0.00122036,1.23331,0.00123334,0.0101702,839,554,0.0120627,0.04266
-378,470,0.00140381,-0.0609741,0.000235565,0.000361431,0.00191648,0.00221601,-0.00161901,0.801811,0.00222308,0.0139821,846,554,0.00138186,0.0609498
-371,470,-0.0269165,-0.0697632,0.00175388,2.03863e-05,0.00308035,0.0040871,-0.00231284,0.648254,0.00374204,0.0116904,853,554,-0.0269099,0.0697849
-364,470,-0.0261841,-0.0565796,0.00351676,-0.000502222,0.00396456,0.00595202,-0.00293748,0.550836,0.0052298,0.011789,860,554,-0.0262126,0.0565893
-357,470,-0.0236206,-0.0475464,0.00536334,-0.00140811,0.00442892,0.00755243,-0.00359719,0.459053,0.00657086,0.0124412,867,554,-0.0235956,0.0475691
-350,470,-0.0264893,-0.0625,0.00743019,-0.0023582,0.00486121,0.00943415,-0.00436215,0.391008,0.00814275,0.00903908,874,554,-0.0265154,0.0625149
-343,470,-0.0230103,-0.0738525,0.0101649,-0.00329456,0.00443252,0.0114935,-0.00462315,0.291214,0.00958265,0.0159022,881,554,-0.0230184,0.0738308
-336,470,-0.0194702,-0.0668335,0.0128008,-0.0045078,0.00339987,0.0134446,-0.00515167,0.187166,0.0110867,0.0232339,888,554,-0.0194947,0.0668571
-329,470,-0.0779419,-0.0971069,0.0162591,-0.00554586,0.00238495,0.0165169,-0.00580367,0.10768,0.0133724,0.032752,895,554,-0.0779466,0.0971132
-322,470,0.0273438,-0.00506592,0.0199923,-0.00647353,0.000859765,0.0200202,-0.00650143,0.0324403,0.0159616,0.0380251,902,554,0.0273312,0.00505876
-315,470,-0.104309,0.0978394,0.0240181,-0.00800924,-0.00140075,0.0240792,-0.00807038,-0.0436251,0.0193134,0.0418727,909,554,-0.104319,-0.0978592
-308,470,-0.188049,-0.0111694,0.0282118,-0.0094624,-0.00361824,0.0285562,-0.00980674,-0.0948846,0.0230137,0.0440192,916,554,-0.188076,0.0111905
-301,470,-3.07153,0.809082,0,0,0,0,0,0,0,-1,923,554,-3.07156,-0.809106
-294,470,-2.31714,1.09106,0,0,0,0,0,0,0,-1,930,554,-2.31711,-1.09109
-287,470,-0.283997,1.4585,0,0,0,0,0,0,0,-1,937,554,-0.283985,-1.45853
-280,470,0.692932,1.70856,0,0,0,0,0,0,0,-1,944,554,0.692958,-1.70859
-273,470,0.27417,0.907715,0,0,0,0,0,0,0,-1,951,554,0.274161,-0.907701
-266,470,0.325867,0.593262,0.0416588,-0.0166776,-0.0208744,0.0483587,-0.0233775,-0.310578,0.0422457,0.0462377,958,554,0.325866,-0.59327
-259,470,0.560059,0.452454,0.0391919,-0.0178305,-0.0235245,0.0476441,-0.0262826,-0.344929,0.0432715,0.0465891,965,554,0.560045,-0.452473
-252,470,0.631348,0.35675,0,0,0,0,0,0,0,-1,972,554,0.631346,-0.356777
-245,470,0.629028,0.0692139,0,0,0,0,0,0,0,-1,979,554,0.629001,-0.0691983
-238,470,0,0,0,0,0,0,0,0,0,-1,986,554,0,0
-231,470,0,0,0,0,0,0,0,0,0,-1,993,554,0,0
-224,470,0,0,0,0,0,0,0,0,0,-1,1000,554,0,0
-217,470,0,0,0,0,0,0,0,0,0,-1,1007,554,0,0
-210,470,0,0,0,0,0,0,0,0,0,-1,1014,554,0,0
-203,470,0,0,0,0,0,0,0,0,0,-1,1021,554,0,0
-196,470,0,0,0,0,0,0,0,0,0,-1,1028,554,0,0
-189,470,0,0,0,0,0,0,0,0,0,-1,1035,554,0,0
-182,470,0,0,0,0,0,0,0,0,0,-1,1042,554,0,0
-175,470,0,0,0,0,0,0,0,0,0,-1,1049,554,0,0
-168,470,0,0,0,0,0,0,0,0,0,-1,1056,554,0,0
-161,470,0,0,0,0,0,0,0,0,0,-1,1063,554,0,0
-154,470,0,0,0,0,0,0,0,0,0,-1,1070,554,0,0
-147,470,0,0,0,0,0,0,0,0,0,-1,1077,554,0,0
-140,470,0,0,0,0,0,0,0,0,0,-1,1084,554,0,0
-133,470,0,0,0,0,0,0,0,0,0,-1,1091,554,0,0
-126,470,0,0,0,0,0,0,0,0,0,-1,1098,554,0,0
-119,470,0,0,0,0,0,0,0,0,0,-1,1105,554,0,0
-112,470,0,0,0,0,0,0,0,0,0,-1,1112,554,0,0
-105,470,0,0,0,0,0,0,0,0,0,-1,1119,554,0,0
-98,470,0,0,0,0,0,0,0,0,0,-1,1126,554,0,0
-91,470,0,0,0,0,0,0,0,0,0,-1,1133,554,0,0
-84,470,0,0,0,0,0,0,0,0,0,-1,1140,554,0,0
-77,470,0,0,0,0,0,0,0,0,0,-1,1147,554,0,0
-70,470,0,0,0,0,0,0,0,0,0,-1,1154,554,0,0
-63,470,0,0,0,0,0,0,0,0,0,-1,1161,554,0,0
-56,470,0,0,0,0,0,0,0,0,0,-1,1168,554,0,0
-49,470,0,0,0,0,0,0,0,0,0,-1,1175,554,0,0
-42,470,0,0,0,0,0,0,0,0,0,-1,1182,554,0,0
-35,470,0,0,0,0,0,0,0,0,0,-1,1189,554,0,0
-28,470,0,0,0,0,0,0,0,0,0,-1,1196,554,0,0
-21,470,0,0,0,0,0,0,0,0,0,-1,1203,554,0,0
-14,470,0,0,0,0,0,0,0,0,0,-1,1210,554,0,0
-7,470,0,0,0,0,0,0,0,0,0,-1,1217,554,0,0
0,470,0,0,0,0,0,0,0,0,0,-1,1224,554,0,0
7,470,0,0,0,0,0,0,0,0,0,-1,1231,554,0,0
14,470,0,0,0,0,0,0,0,0,0,-1,1238,554,0,0
21,470,0,0,0,0,0,0,0,0,0,-1,1245,554,0,0
28,470,0,0,0,0,0,0,0,0,0,-1,1252,554,0,0
35,470,0,0,0,0,0,0,0,0,0,-1,1259,554,0,0
42,470,0,0,0,0,0,0,0,0,0,-1,1266,554,0,0
49,470,0,0,0,0,0,0,0,0,0,-1,1273,554,0,0
56,470,0,0,0,0,0,0,0,0,0,-1,1280,554,0,0
63,470,0,0,0,0,0,0,0,0,0,-1,1287,554,0,0
70,470,0,0,0,0,0,0,0,0,0,-1,1294,554,0,0
77,470,0,0,0,0,0,0,0,0,0,-1,1301,554,0,0
84,470,0,0,0,0,0,0,0,0,0,-1,1308,554,0,0
91,470,0,0,0,0,0,0,0,0,0,-1,1315,554,0,0
98,470,0,0,0,0,0,0,0,0,0,-1,1322,554,0,0
105,470,0,0,0,0,0,0,0,0,0,-1,1329,554,0,0
112,470,0,0,0,0,0,0,0,0,0,-1,1336,554,0,0
119,470,0,0,0,0,0,0,0,0,0,-1,1343,554,0,0
126,470,0,0,0,0,0,0,0,0,0,-1,1350,554,0,0
133,470,0,0,0,0,0,0,0,0,0,-1,1357,554,0,0
140,470,0,0,0,0,0,0,0,0,0,-1,1364,554,0,0
147,470,0,0,0,0,0,0,0,0,0,-1,1371,554,0,0
154,470,0,0,0,0,0,0,0,0,0,-1,1378,554,0,0
161,470,0,0,0,0,0,0,0,0,0,-1,1385,554,0,0
168,470,0,0,0,0,0,0,0,0,0,-1,1392,554,0,0
175,470,0,0,0,0,0,0,0,0,0,-1,1399,554,0,0
182,470,0,0,0,0,0,0,0,0,0,-1,1406,554,0,0
189,470,0,0,0,0,0,0,0,0,0,-1,1413,554,0,0
196,470,0,0,0,0,0,0,0,0,0,-1,1420,554,0,0
203,470,0,0,0,0,0,0,0,0,0,-1,1427,554,0,0
210,470,0,0,0,0,0,0,0,0,0,-1,1434,554,0,0
217,470,0,0,0,0,0,0,0,0,0,-1,1441,554,0,0
224,470,0,0,0,0,0,0,0,0,0,-1,1448,554,0,0
231,470,0,0,0,0,0,0,0,0,0,-1,1455,554,0,0
238,470,0,0,0,0,0,0,0,0,0,-1,1462,554,0,0
245,470,0,0,0,0,0,0,0,0,0,-1,1469,554,0,0
252,470,0,0,0,0,0,0,0,0,0,-1,1476,554,0,0
259,470,0,0,0,0,0,0,0,0,0,-1,1483,554,0,0
266,470,0,0,0,0,0,0,0,0,0,-1,1490,554,0,0
273,470,0,0,0,0,0,0,0,0,0,-1,1497,554,0,0
280,470,0,0,0,0,0,0,0,0,0,-1,1504,554,0,0
287,470,0,0,0,0,0,0,0,0,0,-1,1511,554,0,0
294,470,0,0,0,0,0,0,0,0,0,-1,1518,554,0,0
301,470,0,0,0,0,0,0,0,0,0,-1,1525,554,0,0
308,470,0,0,0,0,0,0,0,0,0,-1,1532,554,0,0
315,470,0,0,0,0,0,0,0,0,0,-1,1539,554,0,0
322,470,0,0,0,0,0,0,0,0,0,-1,1546,554,0,0
329,470,0,0,0,0,0,0,0,0,0,-1,1553,554,0,0
336,470,0,0,0,0,0,0,0,0,0,-1,1560,554,0,0
343,470,0,0,0,0,0,0,0,0,0,-1,1567,554,0,0
350,470,0,0,0,0,0,0,0,0,0,-1,1574,554,0,0
357,470,0,0,0,0,0,0,0,0,0,-1,1581,554,0,0
364,470,-0.0773926,0.0534668,-0.00834297,-0.00414717,0.0195623,0.0134294,-0.0259196,0.838815,0.0230965,0.0412301,1588,554,-0.0773638,-0.0534963
371,470,-0.480469,-0.177307,-0.0126004,-0.0030292,0.0175881,0.0104127,-0.0260423,0.918229,0.0216825,0.0396194,1595,554,-0.480516,0.177291
378,470,-0.404419,-0.544434,-0.0147259,-0.00188792,0.0150611,0.00806504,-0.0246788,0.98684,0.0196991,0.040047,1602,554,-0.404389,0.544427
385,470,-0.685669,0.396545,0,0,0,0,0,0,0,-1,1609,554,-0.685612,-0.396545
392,470,-0.47998,0.636963,-0.0151355,0.0121323,0.0119057,0.0165989,-0.0196021,1.21188,0.0209247,0.0444272,1616,554,-0.479939,-0.636974
399,470,-0.433838,0.627991,0,0,0,0,0,0,0,-1,1623,554,-0.433791,-0.62799
406,470,-0.407104,0.49054,0,0,0,0,0,0,0,-1,1630,554,-0.407123,-0.490519
413,470,-0.238892,0.241638,-0.0178812,0.019339,0.00478936,0.0199454,-0.0184876,1.44485,0.0221946,0.0448076,1637,554,-0.23892,-0.241651
420,470,-0.241455,0.272339,-0.0176168,0.0241513,0.0028362,0.024343,-0.0178085,1.50331,0.0244335,0.0435864,1644,554,-0.241464,-0.272329
427,470,-0.351563,0.327454,-0.0157543,0.0267756,0.000350294,0.0267785,-0.0157572,1.56256,0.0248312,0.0455404,1651,554,-0.351534,-0.327484
434,470,-0.298462,0.301758,-0.0134885,0.0276169,-0.00166459,0.0276842,-0.0135558,-1.53039,0.0242712,0.0432679,1658,554,-0.298465,-0.301742
441,470,-0.171509,0.182495,-0.0112312,0.026911,-0.00232662,0.0270524,-0.0113726,-1.5101,0.022792,0.042061,1665,554,-0.171463,-0.182525
448,470,0.117065,-0.0675659,-0.00930349,0.0249125,-0.00209389,0.0250402,-0.00943115,-1.5099,0.0205709,0.0423477,1672,554,0.117081,0.0675694
455,470,0.403809,-0.257385,-0.00743866,0.0221539,-0.00141715,0.0222216,-0.00750637,-1.52305,0.0178506,0.0424417,1679,554,0.403862,0.257386
462,470,0.176514,-0.264893,-0.00571759,0.018709,-0.000769839,0.0187333,-0.00574183,-1.53932,0.0147794,0.0405456,1686,554,0.176524,0.264902
469,470,0.0297852,-0.123352,-0.00392333,0.0156979,-0.000172756,0.0156995,-0.00392485,-1.56199,0.0119907,0.0264131,1693,554,0.0298275,0.123324
476,470,-0.0311279,-0.0497437,-0.00233687,0.0128059,0.00019097,0.0128083,-0.00233928,1.55819,0.009416,0.0129997,1700,554,-0.0311235,0.049733
483,470,-0.0227051,-0.0809937,-0.0015206,0.00972093,0.000422001,0.00973675,-0.00153642,1.53333,0.00705926,0.0107423,1707,554,-0.0227355,0.0809769
490,470,-0.0238037,-0.0866699,-0.000971951,0.00642668,0.000413382,0.00644971,-0.000994976,1.51515,0.00466695,0.0113428,1714,554,-0.0238464,0.0866875
497,470,-0.0141602,-0.0829468,-0.000204852,0.0035014,0.000423161,0.0035491,-0.000252553,1.45855,0.00245458,0.01167,1721,554,-0.0141067,0.0829368
504,470,-0.0100098,-0.0968018,0.000467398,0.00127451,0.000663857,0.00164784,9.40593e-05,1.0585,0.00106859,0.0176606,1728,554,-0.0100327,0.0968172
511,470,-0.00842285,-0.0985718,0.000575872,0.00102061,0.000662566,0.00149713,9.93541e-05,0.9473,0.00096667,0.0225789,1735,554,-0.00837506,0.0985504
518,470,0.0123291,-0.0681763,0.00069472,0.000742035,0.000396283,0.00111537,0.000321389,0.815212,0.000662945,0.0218967,1742,554,0.0123275,0.0681607
525,470,-0.0137939,-0.0703735,0.00104058,0.00039574,-0.000114084,0.00106016,0.000376151,-0.170045,0.000620629,0.0149393,1749,554,-0.0138399,0.0703824
532,470,-0.0366211,-0.0410767,0.000908702,3.39291e-05,-0.000437015,0.00108961,-0.00014698,-0.392487,0.00078003,0.0137161,1756,554,-0.0366205,0.0410751
539,470,-0.0233154,-0.0496216,0.000882666,0.000194984,-0.000207513,0.000940432,0.000137218,-0.2715,0.00058659,0.0142277,1763,554,-0.0232661,0.0496188
546,470,-0.0281982,-0.0691528,0.00143717,0.00025128,-0.000183181,0.00146482,0.00022363,-0.149816,0.000911198,0.0130377,1770,554,-0.0282431,0.0691737
553,470,-0.0352783,-0.0789795,0.00207223,0.000222099,0.000266986,0.00210999,0.000184341,0.140489,0.00134942,0.0102137,1777,554,-0.0352205,0.0789861
560,470,-0.0194092,-0.0800781,0.00290545,0.000862673,0.00101068,0.00332097,0.000447153,0.390064,0.00208101,0.0111195,1784,554,-0.0194702,0.0800787
567,470,-0.027832,-0.0892944,0.00416218,0.00230288,0.00170268,0.00517248,0.00129259,0.535518,0.00310837,0.0129323,1791,554,-0.0278048,0.0893173
574,470,-0.0159912,-0.114441,0.00595542,0.0033359,0.00221242,0.0072167,0.00207462,0.518139,0.00429019,0.0320188,1798,554,-0.0160516,0.114425
581,470,-0.0852051,0.146973,0.00779886,0.00509274,0.00331203,0.0100236,0.00286805,0.59148,0.00596096,0.0453351,1805,554,-0.0851779,-0.146947
588,470,-0.0860596,0.295227,0,0,0,0,0,0,0,-1,1812,554,-0.0861084,-0.295199
595,470,0.364136,-0.716187,0,0,0,0,0,0,0,-1,1819,554,0.364086,0.716159
602,470,0.297729,-0.0267944,0.0156366,0.0145315,0.00796456,0.0230678,0.00710034,0.750766,0.0136422,0.0437807,1826,554,0.297787,0.0267894
609,470,0.305786,0.750488,0.0190271,0.0194732,0.00967026,0.028923,0.00957733,0.79693,0.0170132,0.0408816,1833,554,0.30575,-0.750473
616,470,0,0,0,0,0,0,0,0,0,-1,1840,554,0,0
623,470,0,0,0,0,0,0,0,0,0,-1,1847,554,0,0
630,470,0,0,0,0,0,0,0,0,0,-1,1854,554,0,0
637,470,0,0,0,0,0,0,0,0,0,-1,1861,554,0,0
644,470,0,0,0,0,0,0,0,0,0,-1,1868,554,0,0
651,470,0,0,0,0,0,0,0,0,0,-1,1875,554,0,0
658,470,0,0,0,0,0,0,0,0,0,-1,1882,554,0,0
665,470,0,0,0,0,0,0,0,0,0,-1,1889,554,0,0
672,470,0,0,0,0,0,0,0,0,0,-1,1896,554,0,0
679,470,0,0,0,0,0,0,0,0,0,-1,1903,554,0,0
686,470,0,0,0,0,0,0,0,0,0,-1,1910,554,0,0
693,470,0,0,0,0,0,0,0,0,0,-1,1917,554,0,0
700,470,0,0,0,0,0,0,0,0,0,-1,1924,554,0,0
707,470,0,0,0,0,0,0,0,0,0,-1,1931,554,0,0
714,470,0,0,0,0,0,0,0,0,0,-1,1938,554,0,0
721,470,0,0,0,0,0,0,0,0,0,-1,1945,554,0,0
728,470,0,0,0,0,0,0,0,0,0,-1,1952,554,0,0
735,470,0,0,0,0,0,0,0,0,0,-1,1959,554,0,0
742,470,0,0,0,0,0,0,0,0,0,-1,1966,554,0,0
749,470,0,0,0,0,0,0,0,0,0,-1,1973,554,0,0
756,470,0,0,0,0,0,0,0,0,0,-1,1980,554,0,0
763,470,0,0,0,0,0,0,0,0,0,-1,1987,554,0,0
770,470,0,0,0,0,0,0,0,0,0,-1,1994,554,0,0
777,470,0,0,0,0,0,0,0,0,0,-1,2001,554,0,0
784,470,0,0,0,0,0,0,0,0,0,-1,2008,554,0,0
791,470,0,0,0,0,0,0,0,0,0,-1,2015,554,0,0
798,470,0,0,0,0,0,0,0,0,0,-1,2022,554,0,0
805,470,0,0,0,0,0,0,0,0,0,-1,2029,554,0,0
812,470,0,0,0,0,0,0,0,0,0,-1,2036,554,0,0
-700,463,0,0,0,0,0,0,0,0,0,-1,524,561,0,0
-693,463,0,0,0,0,0,0,0,0,0,-1,531,561,0,0
-686,463,0,0,0,0,0,0,0,0,0,-1,538,561,0,0
-679,463,0,0,0,0,0,0,0,0,0,-1,545,561,0,0
-672,463,0,0,0,0,0,0,0,0,0,-1,552,561,0,0
-665,463,0,0,0,0,0,0,0,0,0,-1,559,561,0,0
-658,463,0,0,0,0,0,0,0,0,0,-1,566,561,0,0
-651,463,0,0,0,0,0,0,0,0,0,-1,573,561,0,0
-644,463,0,0,0,0,0,0,0,0,0,-1,580,561,0,0
-637,463,0,0,0,0,0,0,0,0,0,-1,587,561,0,0
-630,463,0,0,0,0,0,0,0,0,0,-1,594,561,0,0
-623,463,0,0,0,0,0,0,0,0,0,-1,601,561,0,0
-616,463,0,0,0,0,0,0,0,0,0,-1,608,561,0,0
-609,463,0,0,0,0,0,0,0,0,0,-1,615,561,0,0
-602,463,0,0,0,0,0,0,0,0,0,-1,622,561,0,0
-595,463,0,0,0,0,0,0,0,0,0,-1,629,561,0,0
-588,463,0,0,0,0,0,0,0,0,0,-1,636,561,0,0
-581,463,0,0,0,0,0,0,0,0,0,-1,643,561,0,0
-574,463,0,0,0,0,0,0,0,0,0,-1,650,561,0,0
-567,463,0,0,0,0,0,0,0,0,0,-1,657,561,0,0
-560,463,0,0,0,0,0,0,0,0,0,-1,664,561,0,0
-553,463,0,0,0,0,0,0,0,0,0,-1,671,561,0,0
-546,463,0,0,0,0,0,0,0,0,0,-1,678,561,0,0
-539,463,0,0,0,0,0,0,0,0,0,-1,685,561,0,0
-532,463,0,0,0,0,0,0,0,0,0,-1,692,561,0,0
-525,463,0,0,0,0,0,0,0,0,0,-1,699,561,0,0
-518,463,0,0,0,0,0,0,0,0,0,-1,706,561,0,0
-511,463,0,0,0,0,0,0,0,0,0,-1,713,561,0,0
-504,463,0,0,0,0,0,0,0,0,0,-1,720,561,0,0
-497,463,0.098999,0.286438,0.0693123,0.0568819,-0.0256559,0.0894951,0.0366991,-0.666562,0.0519479,0.0449867,727,561,0.0989858,-0.286451
-490,463,0.0974121,0.0222778,0.0655496,0.0426893,-0.0222031,0.0790919,0.029147,-0.547689,0.046187,0.0444749,734,561,0.0974181,-0.0222962
-483,463,-0.274292,0.0592041,0,0,0,0,0,0,0,-1,741,561,-0.274293,-0.0592047
-476,463,-0.355591,-0.272522,0,0,0,0,0,0,0,-1,748,561,-0.355619,0.272511
-469,463,-0.51355,-0.718506,0,0,0,0,0,0,0,-1,755,561,-0.513566,0.718478
-462,463,-0.316467,-0.648499,0.0418335,0.00746019,-0.00799495,0.0436021,0.00569163,-0.217704,0.0273689,0.0448004,762,561,-0.316489,0.64847
-455,463,-0.218628,-0.444763,0.0343741,0.00440858,-0.00518243,0.0352451,0.00353761,-0.166505,0.0224108,0.0408418,769,561,-0.21865,0.444758
-448,463,-0.138855,-0.362976,0.0274872,0.00194548,-0.00311911,0.0278626,0.00157009,-0.119773,0.0180744,0.0371833,776,561,-0.138863,0.362979
-441,463,-0.0232544,-0.115845,0.021268,0.000846738,-0.0011517,0.0213328,0.000781991,-0.0561596,0.0139685,0.0237546,783,561,-0.0232776,0.115861
-434,463,-0.0159912,-0.0792236,0.0158027,0.000166931,0.000253961,0.0158069,0.000162806,0.0162365,0.0104841,0.00906987,790,561,-0.0159717,0.0792263
-427,463,-0.0116577,-0.0654907,0.0107611,0.000708123,0.00072613,0.0108133,0.000655946,0.0717341,0.00700045,0.00878642,797,561,-0.0116759,0.065499
-420,463,0.00891113,-0.0499878,0.00678624,0.00072793,0.00125835,0.00703721,0.00047696,0.196861,0.00454085,0.0100281,804,561,0.00892014,0.0499974
-413,463,-0.00372314,-0.0537109,0.00316408,0.00179786,0.00136777,0.00400983,0.000952104,0.553799,0.00241914,0.00854984,811,561,-0.00374394,0.0536918
-406,463,-0.034729,-0.0645142,0.000871318,0.00235442,0.00115705,0.00298715,0.000238586,1.07037,0.00191686,0.00682138,818,561,-0.034702,0.0645396
-399,463,-0.0206909,-0.067688,-9.12233e-05,0.00258737,0.00167553,0.0033931,-0.000896945,1.12256,0.00261288,0.00789483,825,561,-0.0206797,0.0676886
-392,463,-0.0088501,-0.0684814,-0.000197953,0.00224768,0.00175113,0.00316069,-0.00111096,1.09019,0.00255913,0.00801175,832,561,-0.0088311,0.0684601
-385,463,-0.00305176,-0.0696411,0.000439402,0.00162907,0.00250246,0.00360642,-0.00153795,0.902083,0.00304908,0.00873367,839,561,-0.00305191,0.0696691
-378,463,-0.00390625,-0.0827026,0.00162945,0.00167687,0.00379264,0.00544588,-0.00213956,0.788524,0.004516,0.0102615,846,561,-0.00389676,0.0827323
-371,463,-0.0126953,-0.0839844,0.00325529,0.00176956,0.005077,0.00764349,-0.00261864,0.712754,0.00615704,0.0106694,853,561,-0.0126845,0.0839751
-364,463,0.000305176,-0.0457764,0.00523249,0.00162735,0.00605654,0.00974901,-0.00288917,0.64076,0.00764655,0.0126952,860,561,0.000281902,0.045771
-357,463,0.0194702,-0.0306396,0.00739692,0.00105566,0.00665629,0.0115992,-0.00314657,0.563129,0.00896757,0.0139456,867,561,0.0194489,0.0306523
-350,463,-0.0309448,-0.0693359,0.00993272,0.000437633,0.0072212,0.0138272,-0.00345687,0.494603,0.0105607,0.0140801,874,561,-0.0309419,0.0693321
-343,463,0.10907,0.0118408,0.0132889,-0.000237865,0.00687887,0.0161724,-0.00312135,0.396931,0.0119586,0.0268867,881,561,0.109072,-0.0118568
-336,463,0.0578613,0.0766602,0.0165686,-0.00135434,0.00574824,0.0182538,-0.00303948,0.285166,0.0132986,0.0377927,888,561,0.0578728,-0.0766381
-329,463,-0.0352173,-0.0675659,0,0,0,0,0,0,0,-1,895,561,-0.0352155,0.0675768
-322,463,0.792664,0.179016,0,0,0,0,0,0,0,-1,902,561,0.792636,-0.178991
-315,463,0.074707,-0.12207,0,0,0,0,0,0,0,-1,909,561,0.0747254,0.122089
-308,463,0.0116577,-0.145691,0,0,0,0,0,0,0,-1,916,561,0.011674,0.145716
-301,463,-0.74469,1.88733,0,0,0,0,0,0,0,-1,923,561,-0.744716,-1.88734
-294,463,-0.552795,2.43964,0,0,0,0,0,0,0,-1,930,561,-0.552786,-2.43966
-287,463,-0.0874023,1.91327,0.0462168,-0.0117891,-0.0140637,0.0494467,-0.0150191,-0.22575,0.0389484,0.0447337,937,561,-0.0874066,-1.91327
-280,463,0.462646,1.61182,0.0480818,-0.0133761,-0.0183654,0.0531517,-0.018446,-0.269348,0.0429252,0.0444562,944,561,0.462663,-1.61185
-273,463,0.546326,1.18701,0.048891,-0.0153451,-0.0214502,0.0553952,-0.0218493,-0.294413,0.0459776,0.0420612,951,561,0.546329,-1.18699
-266,463,0.660645,0.715576,0.0476915,-0.0177552,-0.024587,0.0558991,-0.0259627,-0.322185,0.0483048,0.0432848,958,561,0.660641,-0.715561
-259,463,0.632996,0.535156,0.0440983,-0.0192159,-0.027424,0.0543249,-0.0294426,-0.356935,0.0490692,0.0441111,965,561,0.633022,-0.535174
-252,463,0,0,0,0,0,0,0,0,0,-1,972,561,0,0
-245,463,0,0,0,0,0,0,0,0,0,-1,979,561,0,0
-238,463,0,0,0,0,0,0,0,0,0,-1,986,561,0,0
-231,463,0,0,0,0,0,0,0,0,0,-1,993,561,0,0
-224,463,0,0,0,0,0,0,0,0,0,-1,1000,561,0,0
-217,463,0,0,0,0,0,0,0,0,0,-1,1007,561,0,0
-210,463,0,0,0,0,0,0,0,0,0,-1,1014,561,0,0
-203,463,0,0,0,0,0,0,0,0,0,-1,1021,561,0,0
-196,463,0,0,0,0,0,0,0,0,0,-1,1028,561,0,0
-189,463,0,0,0,0,0,0,0,0,0,-1,1035,561,0,0
-182,463,0,0,0,0,0,0,0,0,0,-1,1042,561,0,0
-175,463,0,0,0,0,0,0,0,0,0,-1,1049,561,0,0
-168,463,0,0,0,0,0,0,0,0,0,-1,1056,561,0,0
-161,463,0,0,0,0,0,0,0,0,0,-1,1063,561,0,0
-154,463,0,0,0,0,0,0,0,0,0,-1,1070,561,0,0
-147,463,0,0,0,0,0,0,0,0,0,-1,1077,561,0,0
-140,463,0,0,0,0,0,0,0,0,0,-1,1084,561,0,0
-133,463,0,0,0,0,0,0,0,0,0,-1,1091,561,0,0
-126,463,0,0,0,0,0,0,0,0,0,-1,1098,561,0,0
-119,463,0,0,0,0,0,0,0,0,0,-1,1105,561,0,0
-112,463,0,0,0,0,0,0,0,0,0,-1,1112,561,0,0
-105,463,0,0,0,0,0,0,0,0,0,-1,1119,561,0,0
-98,463,0,0,0,0,0,0,0,0,0,-1,1126,561,0,0
-91,463,0,0,0,0,0,0,0,0,0,-1,1133,561,0,0
-84,463,0,0,0,0,0,0,0,0,0,-1,1140,561,0,0
-77,463,0,0,0,0,0,0,0,0,0,-1,1147,561,0,0
-70,463,0,0,0,0,0,0,0,0,0,-1,1154,561,0,0
-63,463,0,0,0,0,0,0,0,0,0,-1,1161,561,0,0
-56,463,0,0,0,0,0,0,0,0,0,-1,1168,561,0,0
-49,463,0,0,0,0,0,0,0,0,0,-1,1175,561,0,0
-42,463,0,0,0,0,0,0,0,0,0,-1,1182,561,0,0
-35,463,0,0,0,0,0,0,0,0,0,-1,1189,561,0,0
-28,463,0,0,0,0,0,0,0,0,0,-1,1196,561,0,0
-21,463,0,0,0,0,0,0,0,0,0,-1,1203,561,0,0
-14,463,0,0,0,0,0,0,0,0,0,-1,1210,561,0,0
-7,463,0,0,0,0,0,0,0,0,0,-1,1217,561,0,0
0,463,0,0,0,0,0,0,0,0,0,-1,1224,561,0,0
7,463,0,0,0,0,0,0,0,0,0,-1,1231,561,0,0
14,463,0,0,0,0,0,0,0,0,0,-1,1238,561,0,0
21,463,0,0,0,0,0,0,0,0,0,-1,1245,561,0,0
28,463,0,0,0,0,0,0,0,0,0,-1,1252,561,0,0
35,463,0,0,0,0,0,0,0,0,0,-1,1259,561,0,0
42,463,0,0,0,0,0,0,0,0,0,-1,1266,561,0,0
49,463,0,0,0,0,0,0,0,0,0,-1,1273,561,0,0
56,463,0,0,0,0,0,0,0,0,0,-1,1280,561,0,0
63,463,0,0,0,0,0,0,0,0,0,-1,1287,561,0,0
70,463,0,0,0,0,0,0,0,0,0,-1,1294,561,0,0
77,463,0,0,0,0,0,0,0,0,0,-1,1301,561,0,0
84,463,0,0,0,0,0,0,0,0,0,-1,1308,561,0,0
91,463,0,0,0,0,0,0,0,0,0,-1,1315,561,0,0
98,463,0,0,0,0,0,0,0,0,0,-1,1322,561,0,0
105,463,0,0,0,0,0,0,0,0,0,-1,1329,561,0,0
112,463,0,0,0,0,0,0,0,0,0,-1,1336,561,0,0
119,463,0,0,0,0,0,0,0,0,0,-1,1343,561,0,0
126,463,0,0,0,0,0,0,0,0,0,-1,1350,561,0,0
133,463,0,0,0,0,0,0,0,0,0,-1,1357,561,0,0
140,463,0,0,0,0,0,0,0,0,0,-1,1364,561,0,0
147,463,0,0,0,0,0,0,0,0,0,-1,1371,561,0,0
154,463,0,0,0,0,0,0,0,0,0,-1,1378,561,0,0
161,463,0,0,0,0,0,0,0,0,0,-1,1385,561,0,0
168,463,0,0,0,0,0,0,0,0,0,-1,1392,561,0,0
175,463,0,0,0,0,0,0,0,0,0,-1,1399,561,0,0
182,463,0,0,0,0,0,0,0,0,0,-1,1406,561,0,0
189,463,0,0,0,0,0,0,0,0,0,-1,1413,561,0,0
196,463,0,0,0,0,0,0,0,0,0,-1,1420,561,0,0
203,463,0,0,0,0,0,0,0,0,0,-1,1427,561,0,0
210,463,0,0,0,0,0,0,0,0,0,-1,1434,561,0,0
217,463,0,0,0,0,0,0,0,0,0,-1,1441,561,0,0
224,463,0,0,0,0,0,0,0,0,0,-1,1448,561,0,0
231,463,0,0,0,0,0,0,0,0,0,-1,1455,561,0,0
238,463,0,0,0,0,0,0,0,0,0,-1,1462,561,0,0
245,463,0,0,0,0,0,0,0,0,0,-1,1469,561,0,0
252,463,0,0,0,0,0,0,0,0,0,-1,1476,561,0,0
259,463,0,0,0,0,0,0,0,0,0,-1,1483,561,0,0
266,463,0,0,0,0,0,0,0,0,0,-1,1490,561,0,0
273,463,0,0,0,0,0,0,0,0,0,-1,1497,561,0,0
280,463,0,0,0,0,0,0,0,0,0,-1,1504,561,0,0
287,463,0,0,0,0,0,0,0,0,0,-1,1511,561,0,0
294,463,0,0,0,0,0,0,0,0,0,-1,1518,561,0,0
301,463,0,0,0,0,0,0,0,0,0,-1,1525,561,0,0
308,463,0,0,0,0,0,0,0,0,0,-1,1532,561,0,0
315,463,0,0,0,0,0,0,0,0,0,-1,1539,561,0,0
322,463,0,0,0,0,0,0,0,0,0,-1,1546,561,0,0
329,463,0,0,0,0,0,0,0,0,0,-1,1553,561,0,0
336,463,0,0,0,0,0,0,0,0,0,-1,1560,561,0,0
343,463,0,0,0,0,0,0,0,0,0,-1,1567,561,0,0
350,463,0,0,0,0,0,0,0,0,0,-1,1574,561,0,0
357,463,0,0,0,0,0,0,0,0,0,-1,1581,561,0,0
364,463,0,0,0,0,0,0,0,0,0,-1,1588,561,0,0
371,463,-1.07703,0.00262451,0,0,0,0,0,0,0,-1,1595,561,-1.07705,-0.0026246
378,463,-1.41809,0.19458,0,0,0,0,0,0,0,-1,1602,561,-1.41808,-0.194553
385,463,-0.178223,-0.0583496,0,0,0,0,0,0,0,-1,1609,561,-0.178238,0.0583467
392,463,-0.0777588,-0.218018,0,0,0,0,0,0,0,-1,1616,561,-0.0778096,0.218022
399,463,0.426392,0.446655,0,0,0,0,0,0,0,-1,1623,561,0.426354,-0.446636
406,463,-0.110107,0.11145,0,0,0,0,0,0,0,-1,1630,561,-0.110119,-0.111452
413,463,-0.0430908,0.265381,-0.0231228,0.0233293,0.00491229,0.0238431,-0.0236366,1.46658,0.0274125,0.0444555,1637,561,-0.0430314,-0.265408
420,463,-0.00341797,0.430298,-0.0220878,0.0289579,0.0030178,0.0291357,-0.0222656,1.51195,0.0297648,0.042479,1644,561,-0.00347091,-0.430322
427,463,0.105225,0.391113,-0.0195998,0.0321804,0.000474497,0.0321848,-0.0196041,1.56163,0.030193,0.0463648,1651,561,0.105178,-0.391099
434,463,0.287598,0.372131,-0.0167398,0.0334185,-0.00147539,0.0334619,-0.0167831,-1.54142,0.0295369,0.0467069,1658,561,0.287635,-0.372125
441,463,-0.175293,-0.167664,-0.0137413,0.0326021,-0.00190666,0.0326805,-0.0138196,-1.52975,0.0275731,0.0426709,1665,561,-0.17531,0.167649
448,463,0.20166,-0.00323486,0,0,0,0,0,0,0,-1,1672,561,0.201611,0.00325155
455,463,0.4729,-0.0150146,-0.00852242,0.0264169,-0.000834311,0.0264368,-0.00854233,-1.54694,0.0210577,0.0415864,1679,561,0.472884,0.0150422
462,463,0.300659,-0.407898,-0.00625819,0.0221329,-0.000213671,0.0221345,-0.0062598,-1.56327,0.0172263,0.0445836,1686,561,0.300645,0.407868
469,463,0.0723877,-0.198975,-0.00400628,0.0184836,0.000335787,0.0184887,-0.00401129,1.55587,0.0138578,0.0387922,1693,561,0.0724121,0.198955
476,463,-0.046875,-0.0780029,-0.00211704,0.0149698,0.000613553,0.0149918,-0.00213904,1.53495,0.0107785,0.0229264,1700,561,-0.0469267,0.0779773
483,463,-0.0510254,-0.071228,-0.00123744,0.011224,0.00077438,0.011272,-0.00128538,1.50897,0.0079777,0.0125119,1707,561,-0.0510486,0.0712278
490,463,-0.0316162,-0.0721436,-0.000724837,0.00732991,0.000617273,0.00737694,-0.000771867,1.49475,0.0051944,0.0116055,1714,561,-0.0316666,0.0721237
497,463,-0.0231934,-0.0825195,4.61011e-05,0.00384964,0.000527804,0.00392152,-2.57819e-05,1.43544,0.00262298,0.0109565,1721,561,-0.0232363,0.082527
504,463,-0.0133057,-0.0748901,0.000706767,0.00132018,0.000758796,0.00183191,0.000195036,0.97746,0.00116173,0.0146078,1728,561,-0.0132618,0.0748942
511,463,-0.000854492,-0.0374756,0.000683731,0.00105484,0.000672241,0.00156667,0.000171906,0.920058,0.000992119,0.0200528,1735,561,-0.000813627,0.0374834
518,463,0.0217285,-0.0367432,0.000636858,0.000775633,0.000367391,0.00108013,0.00033236,0.878732,0.000638803,0.0204834,1742,561,0.0217822,0.0367319
525,463,-0.00708008,-0.0759888,0.000894501,0.000434322,-0.00018948,0.000962478,0.000366345,-0.344455,0.000560941,0.017083,1749,561,-0.0070454,0.0759593
532,463,-0.0206299,-0.0670166,0.000659404,8.24948e-05,-0.00045548,0.000910086,-0.000168187,-0.503126,0.000669861,0.0146859,1756,561,-0.0206024,0.0669924
539,463,-0.0141602,-0.0587769,0.000474907,0.000170821,-0.000205148,0.000578212,6.75154e-05,-0.466496,0.000365057,0.0121496,1763,561,-0.0141713,0.0587475
546,463,-0.0206299,-0.0679321,0.000963059,0.000216739,-0.000123312,0.000982905,0.000196892,-0.159578,0.000600497,0.0102009,1770,561,-0.0205726,0.0679401
553,463,-0.0284424,-0.0639648,0.00159219,0.000232822,0.000359808,0.00168155,0.00014346,0.243436,0.0010764,0.0100298,1777,561,-0.0284279,0.0639404
560,463,-0.0196533,-0.0653076,0.00240036,0.000850992,0.00106359,0.00294149,0.000309864,0.470642,0.0018663,0.00996418,1784,561,-0.0196238,0.0652941
567,463,-0.0206299,-0.0762329,0.00359887,0.00221629,0.00169088,0.00473431,0.00108084,0.591349,0.00286472,0.00904362,1791,561,-0.0206294,0.076236
574,463,-0.0522461,-0.0808716,0.00527722,0.00313318,0.00210417,0.00656672,0.00184369,0.549799,0.00391089,0.0217135,1798,561,-0.0522718,0.0808439
581,463,-0.0693359,0.0839233,0.00693287,0.00470404,0.0030111,0.00902916,0.00260775,0.608163,0.00536575,0.0392807,1805,561,-0.0693911,-0.0839201
588,463,-0.0596924,0.0161743,0.00889543,0.0066629,0.00405343,0.0119835,0.00357484,0.651035,0.00710382,0.0459891,1812,561,-0.0597209,-0.0161944
595,463,-0.0314941,-0.0598755,0.0113891,0.00915873,0.00524645,0.0156376,0.00491026,0.680675,0.00923425,0.0440391,1819,561,-0.0315288,0.0599044
602,463,0.178101,0.10376,0.0142645,0.0122752,0.00647833,0.0198241,0.00671565,0.709225,0.0116421,0.0424734,1826,561,0.178046,-0.103773
609,463,-0.083374,0.498169,0.0175851,0.0159411,0.00757397,0.0243815,0.00914464,0.731344,0.0142224,0.0407806,1833,561,-0.0833296,-0.498195
616,463,-0.0682373,1.02954,0.0214058,0.0200551,0.0082767,0.0290347,0.0124263,0.744689,0.016821,0.0396876,1840,561,-0.0682784,-1.02956
623,463,0,0,0,0,0,0,0,0,0,-1,1847,561,0,0
630,463,0,0,0,0,0,0,0,0,0,-1,1854,561,0,0
637,463,0,0,0,0,0,0,0,0,0,-1,1861,561,0,0
644,463,0,0,0,0,0,0,0,0,0,-1,1868,561,0,0
651,463,0,0,0,0,0,0,0,0,0,-1,1875,561,0,0
658,463,0,0,0,0,0,0,0,0,0,-1,1882,561,0,0
665,463,0,0,0,0,0,0,0,0,0,-1,1889,561,0,0
672,463,0,0,0,0,0,0,0,0,0,-1,1896,561,0,0
679,463,0,0,0,0,0,0,0,0,0,-1,1903,561,0,0
686,463,0,0,0,0,0,0,0,0,0,-1,1910,561,0,0
693,463,0,0,0,0,0,0,0,0,0,-1,1917,561,0,0
700,463,0,0,0,0,0,0,0,0,0,-1,1924,561,0,0
707,463,0,0,0,0,0,0,0,0,0,-1,1931,561,0,0
714,463,0,0,0,0,0,0,0,0,0,-1,1938,561,0,0
721,463,0,0,0,0,0,0,0,0,0,-1,1945,561,0,0
728,463,0,0,0,0,0,0,0,0,0,-1,1952,561,0,0
735,463,0,0,0,0,0,0,0,0,0,-1,1959,561,0,0
742,463,0,0,0,0,0,0,0,0,0,-1,1966,561,0,0
749,463,0,0,0,0,0,0,0,0,0,-1,1973,561,0,0
756,463,0,0,0,0,0,0,0,0,0,-1,1980,561,0,0
763,463,0,0,0,0,0,0,0,0,0,-1,1987,561,0,0
770,463,0,0,0,0,0,0,0,0,0,-1,1994,561,0,0
777,463,0,0,0,0,0,0,0,0,0,-1,2001,561,0,0
784,463,0,0,0,0,0,0,0,0,0,-1,2008,561,0,0
791,463,0,0,0,0,0,0,0,0,0,-1,2015,561,0,0
798,463,0,0,0,0,0,0,0,0,0,-1,2022,561,0,0
805,463,0,0,0,0,0,0,0,0,0,-1,2029,561,0,0
812,463,0,0,0,0,0,0,0,0,0,-1,2036,561,0,0
-700,456,0,0,0,0,0,0,0,0,0,-1,524,568,0,0
-693,456,0,0,0,0,0,0,0,0,0,-1,531,568,0,0
-686,456,0,0,0,0,0,0,0,0,0,-1,538,568,0,0
-679,456,0,0,0,0,0,0,0,0,0,-1,545,568,0,0
-672,456,0,0,0,0,0,0,0,0,0,-1,552,568,0,0
-665,456,0,0,0,0,0,0,0,0,0,-1,559,568,0,0
-658,456,0,0,0,0,0,0,0,0,0,-1,566,568,0,0
-651,456,0,0,0,0,0,0,0,0,0,-1,573,568,0,0
-644,456,0,0,0,0,0,0,0,0,0,-1,580,568,0,0
-637,456,0,0,0,0,0,0,0,0,0,-1,587,568,0,0
-630,456,0,0,0,0,0,0,0,0,0,-1,594,568,0,0
-623,456,0,0,0,0,0,0,0,0,0,-1,601,568,0,0
-616,456,0,0,0,0,0,0,0,0,0,-1,608,568,0,0
-609,456,0,0,0,0,0,0,0,0,0,-1,615,568,0,0
-602,456,0,0,0,0,0,0,0,0,0,-1,622,568,0,0
-595,456,0,0,0,0,0,0,0,0,0,-1,629,568,0,0
-588,456,0,0,0,0,0,0,0,0,0,-1,636,568,0,0
-581,456,0,0,0,0,0,0,0,0,0,-1,643,568,0,0
-574,456,0,0,0,0,0,0,0,0,0,-1,650,568,0,0
-567,456,0,0,0,0,0,0,0,0,0,-1,657,568,0,0
-560,456,0,0,0,0,0,0,0,0,0,-1,664,568,0,0
-553,456,0,0,0,0,0,0,0,0,0,-1,671,568,0,0
-546,456,0,0,0,0,0,0,0,0,0,-1,678,568,0,0
-539,456,0,0,0,0,0,0,0,0,0,-1,685,568,0,0
-532,456,0,0,0,0,0,0,0,0,0,-1,692,568,0,0
-525,456,0,0,0,0,0,0,0,0,0,-1,699,568,0,0
-518,456,0,0,0,0,0,0,0,0,0,-1,706,568,0,0
-511,456,0,0,0,0,0,0,0,0,0,-1,713,568,0,0
-504,456,-0.0143433,-0.248108,0.0509466,0.0600955,-0.0217104,0.0777081,0.033334,-0.88923,0.0450155,0.0425678,720,568,-0.0143311,0.24809
-497,456,0.135986,-0.573242,0.0497312,0.0452711,-0.0215194,0.0691358,0.0258665,-0.733768,0.0403349,0.0448853,727,568,0.135982,0.573254
-490,456,0.289734,-0.955383,0.0474687,0.0331539,-0.019771,0.061338,0.0192846,-0.611729,0.0362177,0.0471874,734,568,0.289718,0.955405
-483,456,-0.382446,-0.34082,0,0,0,0,0,0,0,-1,741,568,-0.382437,0.340836
-476,456,0.0324707,-0.385193,0.040026,0.0136947,-0.0144506,0.0464091,0.00731156,-0.415946,0.0288131,0.0466243,748,568,0.0324883,0.385187
-469,456,-0.265564,-0.537659,0.0350629,0.00739961,-0.0115051,0.0392224,0.0032401,-0.346915,0.025138,0.0467259,755,568,-0.265553,0.537688
-462,456,-0.47821,-0.632568,0.0299642,0.00307149,-0.00839586,0.0323701,0.000665551,-0.279083,0.0213617,0.0449922,762,568,-0.478218,0.632558
-455,456,-0.136841,-0.0671387,0.0245085,0.000544652,-0.00600992,0.0259312,-0.000878111,-0.232456,0.0175875,0.0410049,769,568,-0.136867,0.0671364
-448,456,-0.0474854,-0.0542603,0.019607,-0.00145137,-0.00422353,0.0204225,-0.00226687,-0.190738,0.0144301,0.0265135,776,568,-0.0474582,0.0542607
-441,456,-0.0159302,-0.0889282,0.0151933,-0.00204747,-0.00236745,0.0155125,-0.00236665,-0.134013,0.0112141,0.0122669,783,568,-0.0159529,0.0889031
-434,456,-0.00933838,-0.0890503,0.011449,-0.00221356,-0.000898378,0.0115078,-0.00227238,-0.0653795,0.00853084,0.00817138,790,568,-0.00934537,0.0890352
-427,456,-0.0150146,-0.0794067,0.00791897,-0.00119868,-0.000258557,0.00792629,-0.00120601,-0.0283275,0.00572867,0.00828632,797,568,-0.0150061,0.0793834
-420,456,-0.00799561,-0.0700073,0.00509589,-0.000602851,0.000390097,0.00512247,-0.00062943,0.0680302,0.00364296,0.0089357,804,568,-0.00797602,0.0700355
-413,456,-0.00866699,-0.0634155,0.00248116,0.000839299,0.000615374,0.0026862,0.00063426,0.321625,0.00162127,0.00757596,811,568,-0.00866475,0.0634085
-406,456,-0.026001,-0.0617065,0.000888016,0.0019199,0.000611068,0.0022037,0.000604207,1.13599,0.00131485,0.00719127,818,568,-0.0259866,0.0617207
-399,456,-0.0126953,-0.0536499,0.000324265,0.00264883,0.00151801,0.00339842,-0.000425327,1.11212,0.00241988,0.00858317,825,568,-0.0126769,0.0536438
-392,456,0.000427246,-0.0582275,0.000578891,0.00292568,0.00198951,0.00406205,-0.000557479,1.05184,0.0029117,0.00763471,832,568,0.000401599,0.058244
-385,456,-0.000366211,-0.0673218,0.0014179,0.00320792,0.00344599,0.00587323,-0.00124741,0.912453,0.00439076,0.00800048,839,568,-0.000377101,0.0673126
-378,456,-0.0144043,-0.0858154,0.00301978,0.00375651,0.00514823,0.00854954,-0.00177325,0.821113,0.00637354,0.00938611,846,568,-0.014382,0.085788
-371,456,-0.0283813,-0.0840454,0.0050752,0.00440253,0.00687727,0.0116244,-0.00214663,0.760965,0.00855536,0.0104207,853,568,-0.0283585,0.0840378
-364,456,0.0067749,-0.0548706,0.00759682,0.00478557,0.00824452,0.0145547,-0.00217229,0.700964,0.0105024,0.01389,860,568,0.00679645,0.0548814
-357,456,0.0230713,-0.0540161,0.0104294,0.00468288,0.00926344,0.0172549,-0.00214266,0.635017,0.01228,0.0152249,867,568,0.0230446,0.0540032
-350,456,0.0714722,-0.0101318,0.0138262,0.00450665,0.0102387,0.0204156,-0.00208278,0.571849,0.0143551,0.0267754,874,568,0.071475,0.0101042
-343,456,0.321289,0.2995,0.0181168,0.00422105,0.0101275,0.0234506,-0.00111277,0.484752,0.0160175,0.0383406,881,568,0.321294,-0.29948
-336,456,0.0222778,0.329529,0.0223466,0.00330546,0.00901752,0.0259393,-0.000287205,0.379134,0.0173894,0.0450119,888,568,0.0222895,-0.329554
-329,456,-0.205872,0.276062,0,0,0,0,0,0,0,-1,895,568,-0.205889,-0.276043
-322,456,-0.664673,-0.622803,0,0,0,0,0,0,0,-1,902,568,-0.6647,0.622818
-315,456,-1.37152,1.9151,0,0,0,0,0,0,0,-1,909,568,-1.37151,-1.91513
-308,456,-1.1217,2.09186,0.0426923,-0.00224765,-0.00130458,0.0427302,-0.00228549,-0.0289969,0.0292784,0.0438178,916,568,-1.12172,-2.09186
-301,456,-0.6521,2.33862,0.0482945,-0.00452552,-0.00566299,0.0488948,-0.00512585,-0.105614,0.0344326,0.0461835,923,568,-0.65209,-2.33859
-294,456,-0.069458,2.43866,0.0527948,-0.00682223,-0.0107991,0.0546906,-0.0087181,-0.173787,0.0396869,0.0458212,930,568,-0.0694411,-2.43864
-287,456,0.156433,2.30573,0.0554766,-0.00877589,-0.0149873,0.0588005,-0.0120998,-0.21825,0.0437944,0.0440321,937,568,0.156435,-2.30573
-280,456,-0.0625,1.59601,0.0563511,-0.0117548,-0.0210083,0.0623101,-0.0177137,-0.276388,0.0485344,0.0441162,944,568,-0.0625191,-1.59603
-273,456,0.333618,1.09991,0.0555097,-0.0141062,-0.0250776,0.0636025,-0.0221991,-0.312162,0.0514242,0.0434799,951,568,0.333642,-1.09989
-266,456,1.10083,0.982422,0.0533433,-0.0170667,-0.0288426,0.0636497,-0.0273731,-0.343192,0.0539253,0.0405531,958,568,1.10082,-0.982431
-259,456,0,0,0,0,0,0,0,0,0,-1,965,568,0,0
-252,456,0,0,0,0,0,0,0,0,0,-1,972,568,0,0
-245,456,0,0,0,0,0,0,0,0,0,-1,979,568,0,0
-238,456,0,0,0,0,0,0,0,0,0,-1,986,568,0,0
-231,456,0,0,0,0,0,0,0,0,0,-1,993,568,0,0
-224,456,0,0,0,0,0,0,0,0,0,-1,1000,568,0,0
-217,456,0,0,0,0,0,0,0,0,0,-1,1007,568,0,0
-210,456,0,0,0,0,0,0,0,0,0,-1,1014,568,0,0
-203,456,0,0,0,0,0,0,0,0,0,-1,1021,568,0,0
-196,456,0,0,0,0,0,0,0,0,0,-1,1028,568,0,0
-189,456,0,0,0,0,0,0,0,0,0,-1,1035,568,0,0
-182,456,0,0,0,0,0,0,0,0,0,-1,1042,568,0,0
-175,456,0,0,0,0,0,0,0,0,0,-1,1049,568,0,0
-168,456,0,0,0,0,0,0,0,0,0,-1,1056,568,0,0
-161,456,0,0,0,0,0,0,0,0,0,-1,1063,568,0,0
-154,456,0,0,0,0,0,0,0,0,0,-1,1070,568,0,0
-147,456,0,0,0,0,0,0,0,0,0,-1,1077,568,0,0
-140,456,0,0,0,0,0,0,0,0,0,-1,1084,568,0,0
-133,456,0,0,0,0,0,0,0,0,0,-1,1091,568,0,0
-126,456,0,0,0,0,0,0,0,0,0,-1,1098,568,0,0
-119,456,0,0,0,0,0,0,0,0,0,-1,1105,568,0,0
-112,456,0,0,0,0,0,0,0,0,0,-1,1112,568,0,0
-105,456,0,0,0,0,0,0,0,0,0,-1,1119,568,0,0
-98,456,0,0,0,0,0,0,0,0,0,-1,1126,568,0,0
-91,456,0,0,0,0,0,0,0,0,0,-1,1133,568,0,0
-84,456,0,0,0,0,0,0,0,0,0,-1,1140,568,0,0
-77,456,0,0,0,0,0,0,0,0,0,-1,1147,568,0,0
-70,456,0,0,0,0,0,0,0,0,0,-1,1154,568,0,0
-63,456,0,0,0,0,0,0,0,0,0,-1,1161,568,0,0
-56,456,0,0,0,0,0,0,0,0,0,-1,1168,568,0,0
-49,456,0,0,0,0,0,0,0,0,0,-1,1175,568,0,0
-42,456,0,0,0,0,0,0,0,0,0,-1,1182,568,0,0
-35,456,0,0,0,0,0,0,0,0,0,-1,1189,568,0,0
-28,456,0,0,0,0,0,0,0,0,0,-1,1196,568,0,0
-21,456,0,0,0,0,0,0,0,0,0,-1,1203,568,0,0
-14,456,0,0,0,0,0,0,0,0,0,-1,1210,568,0,0
-7,456,0,0,0,0,0,0,0,0,0,-1,1217,568,0,0
0,456,0,0,0,0,0,0,0,0,0,-1,1224,568,0,0
7,456,0,0,0,0,0,0,0,0,0,-1,1231,568,0,0
14,456,0,0,0,0,0,0,0,0,0,-1,1238,568,0,0
21,456,0,0,0,0,0,0,0,0,0,-1,1245,568,0,0
28,456,0,0,0,0,0,0,0,0,0,-1,1252,568,0,0
35,456,0,0,0,0,0,0,0,0,0,-1,1259,568,0,0
42,456,0,0,0,0,0,0,0,0,0,-1,1266,568,0,0
49,456,0,0,0,0,0,0,0,0,0,-1,1273,568,0,0
56,456,0,0,0,0,0,0,0,0,0,-1,1280,568,0,0
63,456,0,0,0,0,0,0,0,0,0,-1,1287,568,0,0
70,456,0,0,0,0,0,0,0,0,0,-1,1294,568,0,0
77,456,0,0,0,0,0,0,0,0,0,-1,1301,568,0,0
84,456,0,0,0,0,0,0,0,0,0,-1,1308,568,0,0
91,456,0,0,0,0,0,0,0,0,0,-1,1315,568,0,0
98,456,0,0,0,0,0,0,0,0,0,-1,1322,568,0,0
105,456,0,0,0,0,0,0,0,0,0,-1,1329,568,0,0
112,456,0,0,0,0,0,0,0,0,0,-1,1336,568,0,0
119,456,0,0,0,0,0,0,0,0,0,-1,1343,568,0,0
126,456,0,0,0,0,0,0,0,0,0,-1,1350,568,0,0
133,456,0,0,0,0,0,0,0,0,0,-1,1357,568,0,0
140,456,0,0,0,0,0,0,0,0,0,-1,1364,568,0,0
147,456,0,0,0,0,0,0,0,0,0,-1,1371,568,0,0
154,456,0,0,0,0,0,0,0,0,0,-1,1378,568,0,0
161,456,0,0,0,0,0,0,0,0,0,-1,1385,568,0,0
168,456,0,0,0,0,0,0,0,0,0,-1,1392,568,0,0
175,456,0,0,0,0,0,0,0,0,0,-1,1399,568,0,0
182,456,0,0,0,0,0,0,0,0,0,-1,1406,568,0,0
189,456,0,0,0,0,0,0,0,0,0,-1,1413,568,0,0
196,456,0,0,0,0,0,0,0,0,0,-1,1420,568,0,0
203,456,0,0,0,0,0,0,0,0,0,-1,1427,568,0,0
210,456,0,0,0,0,0,0,0,0,0,-1,1434,568,0,0
217,456,0,0,0,0,0,0,0,0,0,-1,1441,568,0,0
224,456,0,0,0,0,0,0,0,0,0,-1,1448,568,0,0
231,456,0,0,0,0,0,0,0,0,0,-1,1455,568,0,0
238,456,0,0,0,0,0,0,0,0,0,-1,1462,568,0,0
245,456,0,0,0,0,0,0,0,0,0,-1,1469,568,0,0
252,456,0,0,0,0,0,0,0,0,0,-1,1476,568,0,0
259,456,0,0,0,0,0,0,0,0,0,-1,1483,568,0,0
266,456,0,0,0,0,0,0,0,0,0,-1,1490,568,0,0
273,456,0,0,0,0,0,0,0,0,0,-1,1497,568,0,0
280,456,0,0,0,0,0,0,0,0,0,-1,1504,568,0,0
287,456,0,0,0,0,0,0,0,0,0,-1,1511,568,0,0
294,456,0,0,0,0,0,0,0,0,0,-1,1518,568,0,0
301,456,0,0,0,0,0,0,0,0,0,-1,1525,568,0,0
308,456,0,0,0,0,0,0,0,0,0,-1,1532,568,0,0
315,456,0,0,0,0,0,0,0,0,0,-1,1539,568,0,0
322,456,0,0,0,0,0,0,0,0,0,-1,1546,568,0,0
329,456,0,0,0,0,0,0,0,0,0,-1,1553,568,0,0
336,456,0,0,0,0,0,0,0,0,0,-1,1560,568,0,0
343,456,0,0,0,0,0,0,0,0,0,-1,1567,568,0,0
350,456,0,0,0,0,0,0,0,0,0,-1,1574,568,0,0
357,456,0,0,0,0,0,0,0,0,0,-1,1581,568,0,0
364,456,0,0,0,0,0,0,0,0,0,-1,1588,568,0,0
371,456,0,0,0,0,0,0,0,0,0,-1,1595,568,0,0
378,456,0,0,0,0,0,0,0,0,0,-1,1602,568,0,0
385,456,0.889526,-1.28107,0,0,0,0,0,0,0,-1,1609,568,0.889568,1.28108
392,456,0.638062,-1.38696,0,0,0,0,0,0,0,-1,1616,568,0.638077,1.38694
399,456,0.447876,-1.51129,0,0,0,0,0,0,0,-1,1623,568,0.447837,1.51129
406,456,0.310669,-1.60266,0,0,0,0,0,0,0,-1,1630,568,0.310724,1.60266
413,456,0.188843,0.457825,0,0,0,0,0,0,0,-1,1637,568,0.188864,-0.457849
420,456,0.161865,0.599976,0,0,0,0,0,0,0,-1,1644,568,0.161848,-0.599991
427,456,0.555786,0.407043,0,0,0,0,0,0,0,-1,1651,568,0.555757,-0.407022
434,456,0.873657,0.481018,0,0,0,0,0,0,0,-1,1658,568,0.873605,-0.481039
441,456,-0.513428,-0.65033,0,0,0,0,0,0,0,-1,1665,568,-0.513451,0.650341
448,456,0.501831,0.464172,-0.0128974,0.0353272,-0.000735783,0.0353384,-0.0129086,-1.55554,0.0288414,0.0453087,1672,568,0.501796,-0.464145
455,456,0.443115,0.0899048,-0.00942735,0.0309349,-5.69062e-06,0.0309349,-0.00942736,-1.57066,0.024381,0.0447301,1679,568,0.443154,-0.0899108
462,456,0.394165,-0.512756,0,0,0,0,0,0,0,-1,1686,568,0.39412,0.512764
469,456,0.0670166,-0.180786,-0.00376653,0.0214597,0.00101944,0.0215008,-0.00380766,1.53047,0.0157572,0.0430091,1693,568,0.0670351,0.180783
476,456,-0.189087,-0.0403442,-0.00158806,0.0173293,0.00117472,0.0174019,-0.00166073,1.50902,0.0121926,0.0344601,1700,568,-0.189095,0.0403554
483,456,-0.123901,-0.0330811,-0.000702639,0.0128649,0.0012232,0.0129743,-0.000812036,1.4816,0.00893253,0.0300809,1707,568,-0.12386,0.0330961
490,456,-0.0587158,-0.0446777,-0.0003084,0.00832755,0.000878337,0.00841598,-0.000396828,1.47046,0.0057475,0.0183133,1714,568,-0.0587286,0.0447063
497,456,-0.0457764,-0.0682373,0.000363931,0.00427985,0.000661954,0.00438872,0.00025506,1.40779,0.00284461,0.010664,1721,568,-0.045769,0.0682528
504,456,-0.0186768,-0.0769043,0.000909006,0.00146708,0.000877565,0.0021089,0.000267183,0.939326,0.00132588,0.00894912,1728,568,-0.0186652,0.0768752
511,456,-0.0161133,-0.0518799,0.000649378,0.00115908,0.000697988,0.00164729,0.000161172,0.960441,0.00104861,0.0124792,1735,568,-0.0161214,0.0518853
518,456,-0.000854492,-0.0455322,0.000357982,0.000855478,0.000372711,0.00105482,0.000158635,1.07965,0.000656755,0.0144263,1742,568,-0.000828671,0.045515
525,456,-0.00109863,-0.076416,0.000461866,0.000505705,-0.000218558,0.00070344,0.000264132,-0.835376,0.000410307,0.0141691,1749,568,-0.00114786,0.0764167
532,456,-0.0257568,-0.0784912,9.20868e-05,0.000144019,-0.000407637,0.000526516,-0.000290411,-0.817205,0.000478174,0.0133153,1756,568,-0.0257863,0.078497
539,456,-0.0235596,-0.0758057,-0.0002518,0.000135762,-0.000116955,0.00016832,-0.000284358,-1.29929,0.000264201,0.0119003,1763,568,-0.0235314,0.0757795
546,456,-0.0186768,-0.074585,0.000183844,0.000149933,4.08987e-05,0.000211163,0.000122614,0.588895,0.000122442,0.0132845,1770,568,-0.0187131,0.0745815
553,456,-0.024292,-0.0679321,0.000835465,0.00017952,0.00055674,0.00115366,-0.00013867,0.519217,0.000819248,0.011574,1777,568,-0.0242541,0.0679141
560,456,-0.0186768,-0.0610962,0.00165962,0.000732628,0.00122098,0.00250212,-0.000109873,0.603996,0.00170588,0.00956551,1784,568,-0.0186339,0.0611243
567,456,-0.0144043,-0.0652466,0.00284455,0.00196023,0.00179034,0.00424652,0.000558262,0.664335,0.00266449,0.00865435,1791,568,-0.0143895,0.0652756
574,456,-0.0274658,-0.0830078,0.00445636,0.00272503,0.00212537,0.00588559,0.00129579,0.592006,0.00357104,0.0134199,1798,568,-0.0274768,0.0830037
581,456,-0.0407715,-0.0690308,0.00597628,0.00404607,0.00285338,0.00802335,0.001999,0.622321,0.0048227,0.0300423,1805,568,-0.0407837,0.069041
588,456,-0.0302734,-0.0367432,0.00775896,0.00562702,0.00365918,0.0105043,0.0028817,0.643664,0.00626716,0.041585,1812,568,-0.0302857,0.0367141
595,456,-0.0800781,0.0147095,0.0100736,0.00757376,0.00459253,0.0135832,0.00406408,0.652537,0.00805033,0.044956,1819,568,-0.0801336,-0.0147299
602,456,-0.072876,0.0318604,0.0127565,0.00997662,0.00549727,0.0170368,0.0056963,0.661571,0.0100145,0.042858,1826,568,-0.0728813,-0.0318484
609,456,-0.097168,-0.00604248,0.0158924,0.0126913,0.00627181,0.0207647,0.00781904,0.660466,0.0121097,0.0408495,1833,568,-0.0971191,0.00604901
616,456,-0.0496826,0.148438,0.019483,0.0155921,0.00671007,0.0245239,0.0105512,0.644304,0.0142048,0.0407917,1840,568,-0.0496428,-0.148419
623,456,-0.00671387,-0.486084,0.0233337,0.0185622,0.00656387,0.0279319,0.013964,0.61109,0.0161265,0.0425668,1847,568,-0.00671793,0.486081
630,456,0,0,0,0,0,0,0,0,0,-1,1854,568,0,0
637,456,0,0,0,0,0,0,0,0,0,-1,1861,568,0,0
644,456,0,0,0,0,0,0,0,0,0,-1,1868,568,0,0
651,456,0,0,0,0,0,0,0,0,0,-1,1875,568,0,0
658,456,0,0,0,0,0,0,0,0,0,-1,1882,568,0,0
665,456,0,0,0,0,0,0,0,0,0,-1,1889,568,0,0
672,456,0,0,0,0,0,0,0,0,0,-1,1896,568,0,0
679,456,0,0,0,0,0,0,0,0,0,-1,1903,568,0,0
686,456,0,0,0,0,0,0,0,0,0,-1,1910,568,0,0
693,456,0,0,0,0,0,0,0,0,0,-1,1917,568,0,0
700,456,0,0,0,0,0,0,0,0,0,-1,1924,568,0,0
707,456,0,0,0,0,0,0,0,0,0,-1,1931,568,0,0
714,456,0,0,0,0,0,0,0,0,0,-1,1938,568,0,0
721,456,0,0,0,0,0,0,0,0,0,-1,1945,568,0,0
728,456,0,0,0,0,0,0,0,0,0,-1,1952,568,0,0
735,456,0,0,0,0,0,0,0,0,0,-1,1959,568,0,0
742,456,0,0,0,0,0,0,0,0,0,-1,1966,568,0,0
749,456,0,0,0,0,0,0,0,0,0,-1,1973,568,0,0
756,456,0,0,0,0,0,0,0,0,0,-1,1980,568,0,0
763,456,0,0,0,0,0,0,0,0,0,-1,1987,568,0,0
770,456,0,0,0,0,0,0,0,0,0,-1,1994,568,0,0
777,456,0,0,0,0,0,0,0,0,0,-1,2001,568,0,0
784,456,0,0,0,0,0,0,0,0,0,-1,2008,568,0,0
791,456,0,0,0,0,0,0,0,0,0,-1,2015,568,0,0
798,456,0,0,0,0,0,0,0,0,0,-1,2022,568,0,0
805,456,0,0,0,0,0,0,0,0,0,-1,2029,568,0,0
812,456,0,0,0,0,0,0,0,0,0,-1,2036,568,0,0
-700,449,0,0,0,0,0,0,0,0,0,-1,524,575,0,0
-693,449,0,0,0,0,0,0,0,0,0,-1,531,575,0,0
-686,449,0,0,0,0,0,0,0,0,0,-1,538,575,0,0
-679,449,0,0,0,0,0,0,0,0,0,-1,545,575,0,0
-672,449,0,0,0,0,0,0,0,0,0,-1,552,575,0,0
-665,449,0,0,0,0,0,0,0,0,0,-1,559,575,0,0
-658,449,0,0,0,0,0,0,0,0,0,-1,566,575,0,0
-651,449,0,0,0,0,0,0,0,0,0,-1,573,575,0,0
-644,449,0,0,0,0,0,0,0,0,0,-1,580,575,0,0
-637,449,0,0,0,0,0,0,0,0,0,-1,587,575,0,0
-630,449,0,0,0,0,0,0,0,0,0,-1,594,575,0,0
-623,449,0,0,0,0,0,0,0,0,0,-1,601,575,0,0
-616,449,0,0,0,0,0,0,0,0,0,-1,608,575,0,0
-609,449,0,0,0,0,0,0,0,0,0,-1,615,575,0,0
-602,449,0,0,0,0,0,0,0,0,0,-1,622,575,0,0
-595,449,0,0,0,0,0,0,0,0,0,-1,629,575,0,0
-588,449,0,0,0,0,0,0,0,0,0,-1,636,575,0,0
-581,449,0,0,0,0,0,0,0,0,0,-1,643,575,0,0
-574,449,0,0,0,0,0,0,0,0,0,-1,650,575,0,0
-567,449,0,0,0,0,0,0,0,0,0,-1,657,575,0,0
-560,449,0,0,0,0,0,0,0,0,0,-1,664,575,0,0
-553,449,0,0,0,0,0,0,0,0,0,-1,671,575,0,0
-546,449,0,0,0,0,0,0,0,0,0,-1,678,575,0,0
-539,449,0,0,0,0,0,0,0,0,0,-1,685,575,0,0
-532,449,0,0,0,0,0,0,0,0,0,-1,692,575,0,0
-525,449,0,0,0,0,0,0,0,0,0,-1,699,575,0,0
-518,449,0,0,0,0,0,0,0,0,0,-1,706,575,0,0
-511,449,-1.17645,-0.752991,0.0324719,0.0576165,-0.0176026,0.0666755,0.0234129,-1.09551,0.0390596,0.0438254,713,575,-1.17648,0.75299
-504,449,-0.404968,-0.697021,0.0350729,0.0462446,-0.0182211,0.0597169,0.0216007,-0.934129,0.0349143,0.0468527,720,575,-0.404963,0.696993
-497,449,0.393494,-1.08215,0.0354084,0.0350643,-0.0175571,0.0527943,0.0176784,-0.780499,0.0310301,0.0469443,727,575,0.393523,1.08218
-490,449,-0.732056,-0.21875,0,0,0,0,0,0,0,-1,734,575,-0.732031,0.218739
-483,449,-0.551941,-0.318604,0.0327356,0.016637,-0.0144742,0.0412481,0.00812454,-0.531635,0.0252304,0.0484867,741,575,-0.551934,0.318616
-476,449,-0.235657,-0.278259,0.0298597,0.00950311,-0.0120791,0.0354771,0.00388576,-0.435296,0.0224684,0.0450677,748,575,-0.235669,0.278285
-469,449,-0.208801,-0.289673,0.0263469,0.00420004,-0.00977749,0.0300457,0.000501191,-0.361663,0.0198655,0.0426809,755,575,-0.208792,0.289661
-462,449,-0.151062,-0.161133,0.0227916,0.00050701,-0.00732226,0.0249822,-0.0016836,-0.290696,0.0172434,0.0405807,762,575,-0.151065,0.161127
-455,449,-0.0789185,-0.0585938,0.0189162,-0.00158802,-0.00547159,0.0202849,-0.00295676,-0.245123,0.014609,0.0325663,769,575,-0.0789348,0.0585674
-448,449,-0.0252686,-0.0834961,0.0154449,-0.00326302,-0.00409523,0.016302,-0.0041202,-0.206334,0.0124704,0.0171496,776,575,-0.0252945,0.083468
-441,449,0.000366211,-0.0955811,0.012275,-0.0035723,-0.00256256,0.0126791,-0.00397637,-0.156395,0.0100441,0.011729,783,575,0.000369187,0.0956007
-434,449,-0.0174561,-0.0935059,0.00961657,-0.00343469,-0.00130019,0.00974484,-0.00356296,-0.0983341,0.00795479,0.0111699,790,575,-0.017444,0.093534
-427,449,-0.0326538,-0.0865479,0.00698878,-0.00217696,-0.000760061,0.00705138,-0.00223956,-0.0821761,0.0055988,0.011576,797,575,-0.0326727,0.0865429
-420,449,-0.0355225,-0.0802002,0.00486167,-0.00109295,-0.00018626,0.00486749,-0.00109877,-0.0312392,0.00366655,0.0114686,804,575,-0.0355252,0.0802191
-413,449,-0.0334473,-0.076355,0.00296482,0.00065695,2.85302e-05,0.00296517,0.000656598,0.0123596,0.00179833,0.00883258,811,575,-0.0334603,0.076327
-406,449,-0.0384521,-0.0678711,0.00179249,0.00223975,0.00013014,0.00227486,0.00175738,1.30728,0.00137688,0.00802785,818,575,-0.0384667,0.0678427
-399,449,-0.0288086,-0.0575562,0.0014588,0.00350609,0.00133526,0.00416493,0.000799953,1.11243,0.00255211,0.00827998,825,575,-0.0287857,0.0575486
-392,449,-0.00891113,-0.0547485,0.00180174,0.00449186,0.00212964,0.00566564,0.000627961,1.06706,0.00358615,0.00836944,832,575,-0.00892301,0.0547709
-385,449,-0.0115356,-0.0561523,0.00280648,0.00568013,0.00420937,0.00869115,-0.000204536,0.949868,0.00586346,0.00879897,839,575,-0.011548,0.0561518
-378,449,-0.0288086,-0.0646362,0.00481563,0.00684322,0.00636625,0.0122759,-0.000617046,0.864358,0.00839717,0.00877593,846,575,-0.0287864,0.0646227
-371,449,-0.0407715,-0.0717163,0.00735527,0.00811854,0.00858269,0.0163281,-0.000854266,0.807616,0.011181,0.0095482,853,575,-0.0407575,0.0716993
-364,449,-0.022522,-0.0875244,0.0104542,0.00904594,0.0103614,0.0201354,-0.000635271,0.751472,0.0136403,0.0176,860,575,-0.0225378,0.0874997
-357,449,0.0335693,-0.06427,0.0139522,0.00939322,0.0118042,0.023695,-0.000349572,0.690018,0.0159145,0.0285986,867,575,0.0335637,0.0642933
-350,449,0.170593,0.00970459,0.0181679,0.00959413,0.0131559,0.0277178,4.42602e-05,0.627897,0.0184638,0.0412168,874,575,0.17062,-0.0097222
-343,449,0.475403,0.709778,0.0233204,0.00961789,0.0132383,0.0313752,0.00156305,0.54661,0.0204157,0.0462872,881,575,0.475427,-0.7098
-336,449,-1.04053,1.91248,0,0,0,0,0,0,0,-1,888,575,-1.04053,-1.91245
-329,449,-1.41284,2.34949,0,0,0,0,0,0,0,-1,895,575,-1.41282,-2.34949
-322,449,-1.28595,2.23175,0,0,0,0,0,0,0,-1,902,575,-1.28594,-2.23177
-315,449,-1.04395,2.27698,0.045726,0.00496144,0.00364916,0.0460501,0.00463735,0.0885796,0.0292769,0.0453814,909,575,-1.04396,-2.27698
-308,449,-0.785522,2.30371,0.0510871,0.00329479,-0.000234225,0.0510882,0.00329365,-0.00490074,0.0330157,0.0431388,916,575,-0.785526,-2.30371
-301,449,-0.538757,2.57538,0.056996,0.000996494,-0.00543952,0.0575194,0.000473017,-0.0959402,0.0381896,0.0464368,923,575,-0.538783,-2.5754
-294,449,0.206665,2.38458,0.061915,-0.00153864,-0.0112518,0.0638511,-0.00347475,-0.170403,0.0437717,0.0465675,930,575,0.206642,-2.38459
-287,449,0.449524,2.35242,0,0,0,0,0,0,0,-1,937,575,0.449543,-2.35241
-280,449,-0.45929,1.28314,0,0,0,0,0,0,0,-1,944,575,-0.459296,-1.28314
-273,449,0,0,0,0,0,0,0,0,0,-1,951,575,0,0
-266,449,0,0,0,0,0,0,0,0,0,-1,958,575,0,0
-259,449,0,0,0,0,0,0,0,0,0,-1,965,575,0,0
-252,449,0,0,0,0,0,0,0,0,0,-1,972,575,0,0
-245,449,0,0,0,0,0,0,0,0,0,-1,979,575,0,0
-238,449,0,0,0,0,0,0,0,0,0,-1,986,575,0,0
-231,449,0,0,0,0,0,0,0,0,0,-1,993,575,0,0
-224,449,0,0,0,0,0,0,0,0,0,-1,1000,575,0,0
-217,449,0,0,0,0,0,0,0,0,0,-1,1007,575,0,0
-210,449,0,0,0,0,0,0,0,0,0,-1,1014,575,0,0
-203,449,0,0,0,0,0,0,0,0,0,-1,1021,575,0,0
-196,449,0,0,0,0,0,0,0,0,0,-1,1028,575,0,0
-189,449,0,0,0,0,0,0,0,0,0,-1,1035,575,0,0
-182,449,0,0,0,0,0,0,0,0,0,-1,1042,575,0,0
-175,449,0,0,0,0,0,0,0,0,0,-1,1049,575,0,0
-168,449,0,0,0,0,0,0,0,0,0,-1,1056,575,0,0
-161,449,0,0,0,0,0,0,0,0,0,-1,1063,575,0,0
-154,449,0,0,0,0,0,0,0,0,0,-1,1070,575,0,0
-147,449,0,0,0,0,0,0,0,0,0,-1,1077,575,0,0
-140,449,0,0,0,0,0,0,0,0,0,-1,1084,575,0,0
-133,449,0,0,0,0,0,0,0,0,0,-1,1091,575,0,0
-126,449,0,0,0,0,0,0,0,0,0,-1,1098,575,0,0
-119,449,0,0,0,0,0,0,0,0,0,-1,1105,575,0,0
-112,449,0,0,0,0,0,0,0,0,0,-1,1112,575,0,0
-105,449,0,0,0,0,0,0,0,0,0,-1,1119,575,0,0
-98,449,0,0,0,0,0,0,0,0,0,-1,1126,575,0,0
-91,449,0,0,0,0,0,0,0,0,0,-1,1133,575,0,0
-84,449,0,0,0,0,0,0,0,0,0,-1,1140,575,0,0
-77,449,0,0,0,0,0,0,0,0,0,-1,1147,575,0,0
-70,449,0,0,0,0,0,0,0,0,0,-1,1154,575,0,0
-63,449,0,0,0,0,0,0,0,0,0,-1,1161,575,0,0
-56,449,0,0,0,0,0,0,0,0,0,-1,1168,575,0,0
-49,449,0,0,0,0,0,0,0,0,0,-1,1175,575,0,0
-42,449,0,0,0,0,0,0,0,0,0,-1,1182,575,0,0
-35,449,0,0,0,0,0,0,0,0,0,-1,1189,575,0,0
-28,449,0,0,0,0,0,0,0,0,0,-1,1196,575,0,0
-21,449,0,0,0,0,0,0,0,0,0,-1,1203,575,0,0
-14,449,0,0,0,0,0,0,0,0,0,-1,1210,575,0,0
-7,449,0,0,0,0,0,0,0,0,0,-1,1217,575,0,0
0,449,0,0,0,0,0,0,0,0,0,-1,1224,575,0,0
7,449,0,0,0,0,0,0,0,0,0,-1,1231,575,0,0
14,449,0,0,0,0,0,0,0,0,0,-1,1238,575,0,0
21,449,0,0,0,0,0,0,0,0,0,-1,1245,575,0,0
28,449,0,0,0,0,0,0,0,0,0,-1,1252,575,0,0
35,449,0,0,0,0,0,0,0,0,0,-1,1259,575,0,0
42,449,0,0,0,0,0,0,0,0,0,-1,1266,575,0,0
49,449,0,0,0,0,0,0,0,0,0,-1,1273,575,0,0
56,449,0,0,0,0,0,0,0,0,0,-1,1280,575,0,0
63,449,0,0,0,0,0,0,0,0,0,-1,1287,575,0,0
70,449,0,0,0,0,0,0,0,0,0,-1,1294,575,0,0
77,449,0,0,0,0,0,0,0,0,0,-1,1301,575,0,0
84,449,0,0,0,0,0,0,0,0,0,-1,1308,575,0,0
91,449,0,0,0,0,0,0,0,0,0,-1,1315,575,0,0
98,449,0,0,0,0,0,0,0,0,0,-1,1322,575,0,0
105,449,0,0,0,0,0,0,0,0,0,-1,1329,575,0,0
112,449,0,0,0,0,0,0,0,0,0,-1,1336,575,0,0
119,449,0,0,0,0,0,0,0,0,0,-1,1343,575,0,0
126,449,0,0,0,0,0,0,0,0,0,-1,1350,575,0,0
133,449,0,0,0,0,0,0,0,0,0,-1,1357,575,0,0
140,449,0,0,0,0,0,0,0,0,0,-1,1364,575,0,0
147,449,0,0,0,0,0,0,0,0,0,-1,1371,575,0,0
154,449,0,0,0,0,0,0,0,0,0,-1,1378,575,0,0
161,449,0,0,0,0,0,0,0,0,0,-1,1385,575,0,0
168,449,0,0,0,0,0,0,0,0,0,-1,1392,575,0,0
175,449,0,0,0,0,0,0,0,0,0,-1,1399,575,0,0
182,449,0,0,0,0,0,0,0,0,0,-1,1406,575,0,0
189,449,0,0,0,0,0,0,0,0,0,-1,1413,575,0,0
196,449,0,0,0,0,0,0,0,0,0,-1,1420,575,0,0
203,449,0,0,0,0,0,0,0,0,0,-1,1427,575,0,0
210,449,0,0,0,0,0,0,0,0,0,-1,1434,575,0,0
217,449,0,0,0,0,0,0,0,0,0,-1,1441,575,0,0
224,449,0,0,0,0,0,0,0,0,0,-1,1448,575,0,0
231,449,0,0,0,0,0,0,0,0,0,-1,1455,575,0,0
238,449,0,0,0,0,0,0,0,0,0,-1,1462,575,0,0
245,449,0,0,0,0,0,0,0,0,0,-1,1469,575,0,0
252,449,0,0,0,0,0,0,0,0,0,-1,1476,575,0,0
259,449,0,0,0,0,0,0,0,0,0,-1,1483,575,0,0
266,449,0,0,0,0,0,0,0,0,0,-1,1490,575,0,0
273,449,0,0,0,0,0,0,0,0,0,-1,1497,575,0,0
280,449,0,0,0,0,0,0,0,0,0,-1,1504,575,0,0
287,449,0,0,0,0,0,0,0,0,0,-1,1511,575,0,0
294,449,0,0,0,0,0,0,0,0,0,-1,1518,575,0,0
301,449,0,0,0,0,0,0,0,0,0,-1,1525,575,0,0
308,449,0,0,0,0,0,0,0,0,0,-1,1532,575,0,0
315,449,0,0,0,0,0,0,0,0,0,-1,1539,575,0,0
322,449,0,0,0,0,0,0,0,0,0,-1,1546,575,0,0
329,449,0,0,0,0,0,0,0,0,0,-1,1553,575,0,0
336,449,0,0,0,0,0,0,0,0,0,-1,1560,575,0,0
343,449,0,0,0,0,0,0,0,0,0,-1,1567,575,0,0
350,449,0,0,0,0,0,0,0,0,0,-1,1574,575,0,0
357,449,0,0,0,0,0,0,0,0,0,-1,1581,575,0,0
364,449,0,0,0,0,0,0,0,0,0,-1,1588,575,0,0
371,449,0,0,0,0,0,0,0,0,0,-1,1595,575,0,0
378,449,0,0,0,0,0,0,0,0,0,-1,1602,575,0,0
385,449,0,0,0,0,0,0,0,0,0,-1,1609,575,0,0
392,449,1.14551,-2.57764,0,0,0,0,0,0,0,-1,1616,575,1.14552,2.57765
399,449,0.980225,-2.67133,0,0,0,0,0,0,0,-1,1623,575,0.980269,2.67132
406,449,0.880981,0.319153,0,0,0,0,0,0,0,-1,1630,575,0.88099,-0.319149
413,449,0.449219,0.453979,-0.0374787,0.02849,0.0055247,0.0289495,-0.0379382,1.48782,0.0387337,0.046229,1637,575,0.449162,-0.453995
420,449,0.0484619,0.484924,-0.0338007,0.0365492,0.00368754,0.0367419,-0.0339935,1.51857,0.0408494,0.0452907,1644,575,0.048417,-0.484903
427,449,-0.396851,0.494385,0,0,0,0,0,0,0,-1,1651,575,-0.396844,-0.49441
434,449,1.04297,0.441467,-0.0239977,0.0440094,-0.000194762,0.04401,-0.0239982,-1.56793,0.0398272,0.0477711,1658,575,1.04303,-0.441449
441,449,1.63867,0.593933,-0.018493,0.042825,3.26873e-05,0.042825,-0.018493,1.57026,0.0363192,0.0489301,1665,575,1.63872,-0.593952
448,449,-1.19617,-2.29791,-0.0137527,0.0390232,0.000561269,0.0390292,-0.0137587,1.56016,0.0316198,0.0469682,1672,575,-1.19619,2.29794
455,449,0.56543,0.121704,0,0,0,0,0,0,0,-1,1679,575,0.565412,-0.121696
462,449,0.728149,-0.638062,0,0,0,0,0,0,0,-1,1686,575,0.728111,0.638076
469,449,0.446655,-0.570007,-0.0027007,0.0235147,0.00200934,0.0236678,-0.00285381,1.49474,0.0168107,0.0475707,1693,575,0.446608,0.569991
476,449,-0.333008,0.0227661,-0.00037356,0.0190351,0.00197579,0.0192342,-0.000572654,1.47037,0.0130179,0.0436091,1700,575,-0.33303,-0.0227385
483,449,-0.380859,0.176758,0.000359611,0.0140793,0.00184067,0.014322,0.000116953,1.43972,0.00950924,0.0428498,1707,575,-0.380877,-0.176782
490,449,-0.0552979,-0.0236816,0.000495519,0.00912032,0.0012585,0.0093002,0.000315635,1.42882,0.00609764,0.0363732,1714,575,-0.0552819,0.0236632
497,449,-0.0651855,-0.0418701,0.000919595,0.00470271,0.000863478,0.00489047,0.000731829,1.35668,0.00304582,0.0204105,1721,575,-0.0652347,0.0418768
504,449,-0.0268555,-0.0598755,0.00120307,0.00175812,0.00100583,0.00252401,0.000437177,0.920006,0.00155754,0.0121701,1728,575,-0.0269144,0.0598476
511,449,-0.00756836,-0.0615845,0.000594735,0.00144236,0.000678761,0.00181875,0.000218338,1.06448,0.00114667,0.0100322,1735,575,-0.0075117,0.0616028
518,449,-0.00878906,-0.0604248,-2.87862e-05,0.00115011,0.000275782,0.00121144,-9.01104e-05,1.35199,0.000839276,0.0126332,1742,575,-0.00874868,0.060451
525,449,-0.0135498,-0.0808105,-0.000141271,0.000859288,-0.000354422,0.000972111,-0.000254094,-1.26261,0.000747313,0.0116993,1749,575,-0.0135952,0.0808215
532,449,-0.0438232,-0.0985107,-0.000666056,0.000515694,-0.000486543,0.000690233,-0.000840594,-1.22636,0.000885243,0.00888136,1756,575,-0.0437855,0.0985085
539,449,-0.046875,-0.0958862,-0.00116905,0.000445902,-0.00019324,0.000468702,-0.00119185,-1.45335,0.000988561,0.00862483,1763,575,-0.0468668,0.095886
546,449,-0.0375977,-0.0639648,-0.000780511,0.000471279,8.45299e-06,0.000471336,-0.000780568,1.56404,0.0007301,0.0139876,1770,575,-0.037567,0.063942
553,449,-0.0306396,-0.0698853,-8.99961e-05,0.000573065,0.000542248,0.000877101,-0.000394032,1.05978,0.000751347,0.0125417,1777,575,-0.0306752,0.0698895
560,449,-0.0202637,-0.0925903,0.000767543,0.00109502,0.00114705,0.00208996,-0.000227393,0.856294,0.00147496,0.0120042,1784,575,-0.0202654,0.0926157
567,449,-0.026123,-0.0692139,0.00196496,0.00220438,0.00164564,0.00373466,0.000434676,0.821707,0.00235827,0.00885392,1791,575,-0.0260674,0.069234
574,449,-0.0310059,-0.0670166,0.00352621,0.0028455,0.00192015,0.00513594,0.00123577,0.697682,0.00309538,0.0106499,1798,575,-0.0309894,0.0670334
581,449,-0.0300293,-0.0688477,0.00491817,0.00390083,0.00249609,0.0069569,0.00186211,0.684882,0.0041586,0.0162711,1805,575,-0.0300108,0.0688217
588,449,-0.0117188,-0.0800171,0.00649494,0.00512234,0.0031127,0.0089961,0.00262118,0.676892,0.00534249,0.0292701,1812,575,-0.0117647,0.0799963
595,449,-0.0202637,-0.150024,0.00862901,0.00662114,0.0037834,0.0115394,0.00371074,0.655711,0.00680222,0.038457,1819,575,-0.0202251,0.150038
602,449,0.0456543,-0.336426,0.0111952,0.00828584,0.00424438,0.0142273,0.00525379,0.620304,0.00830718,0.0420946,1826,575,0.0456102,0.336418
609,449,-0.013916,-0.369629,0.0141903,0.0101345,0.00461288,0.0172013,0.0071234,0.578305,0.0099799,0.04209,1833,575,-0.013974,0.369618
616,449,0.258423,-0.286072,0.0176698,0.0119814,0.00461974,0.0202507,0.00940055,0.509472,0.0117017,0.0428677,1840,575,0.25846,0.286047
623,449,0.577759,-0.205627,0.0215311,0.0136205,0.00403622,0.0232269,0.0119246,0.397763,0.0134117,0.0448492,1847,575,0.577701,0.205616
630,449,1.3092,-0.126892,0,0,0,0,0,0,0,-1,1854,575,1.30922,0.12688
637,449,0,0,0,0,0,0,0,0,0,-1,1861,575,0,0
644,449,0,0,0,0,0,0,0,0,0,-1,1868,575,0,0
651,449,0,0,0,0,0,0,0,0,0,-1,1875,575,0,0
658,449,0,0,0,0,0,0,0,0,0,-1,1882,575,0,0
665,449,0,0,0,0,0,0,0,0,0,-1,1889,575,0,0
672,449,0,0,0,0,0,0,0,0,0,-1,1896,575,0,0
679,449,0,0,0,0,0,0,0,0,0,-1,1903,575,0,0
686,449,0,0,0,0,0,0,0,0,0,-1,1910,575,0,0
693,449,0,0,0,0,0,0,0,0,0,-1,1917,575,0,0
700,449,0,0,0,0,0,0,0,0,0,-1,1924,575,0,0
707,449,0,0,0,0,0,0,0,0,0,-1,1931,575,0,0
714,449,0,0,0,0,0,0,0,0,0,-1,1938,575,0,0
721,449,0,0,0,0,0,0,0,0,0,-1,1945,575,0,0
728,449,0,0,0,0,0,0,0,0,0,-1,1952,575,0,0
735,449,0,0,0,0,0,0,0,0,0,-1,1959,575,0,0
742,449,0,0,0,0,0,0,0,0,0,-1,1966,575,0,0
749,449,0,0,0,0,0,0,0,0,0,-1,1973,575,0,0
756,449,0,0,0,0,0,0,0,0,0,-1,1980,575,0,0
763,449,0,0,0,0,0,0,0,0,0,-1,1987,575,0,0
770,449,0,0,0,0,0,0,0,0,0,-1,1994,575,0,0
777,449,0,0,0,0,0,0,0,0,0,-1,2001,575,0,0
784,449,0,0,0,0,0,0,0,0,0,-1,2008,575,0,0
791,449,0,0,0,0,0,0,0,0,0,-1,2015,575,0,0
798,449,0,0,0,0,0,0,0,0,0,-1,2022,575,0,0
805,449,0,0,0,0,0,0,0,0,0,-1,2029,575,0,0
812,449,0,0,0,0,0,0,0,0,0,-1,2036,575,0,0
-700,442,0,0,0,0,0,0,0,0,0,-1,524,582,0,0
-693,442,0,0,0,0,0,0,0,0,0,-1,531,582,0,0
-686,442,0,0,0,0,0,0,0,0,0,-1,538,582,0,0
-679,442,0,0,0,0,0,0,0,0,0,-1,545,582,0,0
-672,442,0,0,0,0,0,0,0,0,0,-1,552,582,0,0
-665,442,0,0,0,0,0,0,0,0,0,-1,559,582,0,0
-658,442,0,0,0,0,0,0,0,0,0,-1,566,582,0,0
-651,442,0,0,0,0,0,0,0,0,0,-1,573,582,0,0
-644,442,0,0,0,0,0,0,0,0,0,-1,580,582,0,0
-637,442,0,0,0,0,0,0,0,0,0,-1,587,582,0,0
-630,442,0,0,0,0,0,0,0,0,0,-1,594,582,0,0
-623,442,0,0,0,0,0,0,0,0,0,-1,601,582,0,0
-616,442,0,0,0,0,0,0,0,0,0,-1,608,582,0,0
-609,442,0,0,0,0,0,0,0,0,0,-1,615,582,0,0
-602,442,0,0,0,0,0,0,0,0,0,-1,622,582,0,0
-595,442,0,0,0,0,0,0,0,0,0,-1,629,582,0,0
-588,442,0,0,0,0,0,0,0,0,0,-1,636,582,0,0
-581,442,0,0,0,0,0,0,0,0,0,-1,643,582,0,0
-574,442,0,0,0,0,0,0,0,0,0,-1,650,582,0,0
-567,442,0,0,0,0,0,0,0,0,0,-1,657,582,0,0
-560,442,0,0,0,0,0,0,0,0,0,-1,664,582,0,0
-553,442,0,0,0,0,0,0,0,0,0,-1,671,582,0,0
-546,442,0,0,0,0,0,0,0,0,0,-1,678,582,0,0
-539,442,0,0,0,0,0,0,0,0,0,-1,685,582,0,0
-532,442,0,0,0,0,0,0,0,0,0,-1,692,582,0,0
-525,442,0,0,0,0,0,0,0,0,0,-1,699,582,0,0
-518,442,-2.20721,-1.05066,0,0,0,0,0,0,0,-1,706,582,-2.20721,1.05066
-511,442,-1.56677,-0.966125,0,0,0,0,0,0,0,-1,713,582,-1.56677,0.966121
-504,442,-0.949524,-0.938293,0,0,0,0,0,0,0,-1,720,582,-0.949547,0.93827
-497,442,-0.520386,-0.487488,0.0234647,0.0273077,-0.0140319,0.0395491,0.0112234,-0.853445,0.0235346,0.0483064,727,582,-0.520364,0.487518
-490,442,-0.45282,-0.443604,0.0237454,0.0201165,-0.012932,0.0349896,0.00887225,-0.7157,0.0210032,0.0496675,734,582,-0.452838,0.443602
-483,442,-0.569519,-0.391113,0.0228974,0.0131431,-0.0112712,0.0303014,0.0057391,-0.581208,0.0185857,0.046039,741,582,-0.569525,0.391117
-476,442,-0.367432,-0.203308,0.0210717,0.00744713,-0.00924495,0.0257432,0.00277567,-0.467877,0.0163158,0.0416048,748,582,-0.367405,0.203324
-469,442,-0.150269,-0.168396,0.018564,0.00320367,-0.00745228,0.0215853,0.000182373,-0.385169,0.0143298,0.036457,755,582,-0.150284,0.168389
-462,442,-0.100891,-0.120544,0.0160882,0.000158269,-0.00553784,0.0178242,-0.00157771,-0.303774,0.0124421,0.0290466,762,582,-0.100884,0.12053
-455,442,-0.0466309,-0.0896606,0.013356,-0.00153842,-0.00417062,0.0144443,-0.00262673,-0.255253,0.010614,0.018474,769,582,-0.0466457,0.0896855
-448,442,-0.0142822,-0.0839233,0.0109421,-0.00298729,-0.00324245,0.0116599,-0.00370507,-0.217857,0.00925877,0.0128353,776,582,-0.0142532,0.0839137
-441,442,-0.000732422,-0.0820923,0.00872027,-0.00315321,-0.00215559,0.0090995,-0.00353244,-0.174146,0.00752544,0.0127056,783,582,-0.000703993,0.0820923
-434,442,-0.00836182,-0.0898438,0.0069123,-0.00289014,-0.00129656,0.0070809,-0.00305873,-0.129307,0.00600568,0.0120311,790,582,-0.00835248,0.0898171
-427,442,-0.0341797,-0.0916138,0.00505962,-0.00164582,-0.00106485,0.00522466,-0.00181086,-0.153765,0.00421834,0.0118338,797,582,-0.0342073,0.0916403
-420,442,-0.0244141,-0.0938721,0.00355533,-0.000369609,-0.0007778,0.00370385,-0.000518125,-0.188672,0.00265882,0.0122839,804,582,-0.0244283,0.0938462
-413,442,-0.0236206,-0.0806885,0.0022181,0.00144504,-0.000794849,0.00271542,0.00094772,-0.559087,0.0015914,0.0103829,811,582,-0.0236234,0.0806844
-406,442,-0.024231,-0.0725708,0.00144284,0.00328403,-0.00077305,0.00356556,0.00116131,-1.22155,0.00209986,0.00839151,818,582,-0.0242034,0.0725468
-399,442,-0.0231323,-0.0737305,0.00133102,0.00492798,0.000544249,0.00500852,0.00125047,1.42387,0.00301005,0.00773837,825,582,-0.0231516,0.073753
-392,442,-0.0254517,-0.0665283,0.00177356,0.00647287,0.00151935,0.00692131,0.00132512,1.2838,0.00424206,0.00871844,832,582,-0.02546,0.0665285
-385,442,-0.026062,-0.0664063,0.00297056,0.00846092,0.00409598,0.0106466,0.00078491,1.08063,0.00685108,0.0100263,839,582,-0.0260847,0.0664045
-378,442,-0.0302734,-0.0734253,0.00541872,0.0103597,0.00675265,0.0150796,0.000698831,0.960764,0.00982841,0.0110773,846,582,-0.0302525,0.0734045
-371,442,-0.0479126,-0.104126,0.00847565,0.0124166,0.00953152,0.0201792,0.000713052,0.887328,0.0132215,0.0212941,853,582,-0.0478897,0.10414
-364,442,-0.126892,-0.249451,0.0122473,0.0140604,0.011841,0.0250296,0.00127817,0.823605,0.0162771,0.0342657,860,582,-0.126921,0.249458
-357,442,-0.141541,-0.356262,0.0165201,0.0150725,0.0138499,0.0296652,0.00192752,0.759292,0.0191666,0.0417416,867,582,-0.141541,0.356271
-350,442,0.254028,-0.00164795,0.021673,0.0159472,0.0157616,0.0348295,0.00279062,0.695559,0.0223476,0.0463673,874,582,0.254003,0.00164488
-343,442,-1.33728,1.77039,0,0,0,0,0,0,0,-1,881,582,-1.33728,-1.7704
-336,442,-1.26685,2.07208,0.034049,0.016198,0.0153938,0.0429177,0.00732928,0.522677,0.0265086,0.0480788,888,582,-1.26685,-2.0721
-329,442,-1.20911,2.2843,0.0405983,0.0156965,0.0135707,0.0465645,0.00973028,0.414203,0.0283615,0.0472307,895,582,-1.20912,-2.28428
-322,442,-1.01764,2.42078,0.0474304,0.0149697,0.0104445,0.0505007,0.0118995,0.285902,0.0304849,0.045436,902,582,-1.01763,-2.42076
-315,442,-0.726563,2.40692,0.0540515,0.0130988,0.00578584,0.0548532,0.012297,0.137691,0.0332369,0.0466767,909,582,-0.72659,-2.40694
-308,442,-0.405945,2.40833,0.0601473,0.0118878,0.00134132,0.0601846,0.0118505,0.0277653,0.0368143,0.04541,916,582,-0.405917,-2.40833
-301,442,-0.303711,2.74945,0,0,0,0,0,0,0,-1,923,582,-0.303723,-2.74945
-294,442,0.572266,2.11328,0,0,0,0,0,0,0,-1,930,582,0.572275,-2.11326
-287,442,0.922913,1.8197,0,0,0,0,0,0,0,-1,937,582,0.922907,-1.81973
-280,442,0,0,0,0,0,0,0,0,0,-1,944,582,0,0
-273,442,0,0,0,0,0,0,0,0,0,-1,951,582,0,0
-266,442,0,0,0,0,0,0,0,0,0,-1,958,582,0,0
-259,442,0,0,0,0,0,0,0,0,0,-1,965,582,0,0
-252,442,0,0,0,0,0,0,0,0,0,-1,972,582,0,0
-245,442,0,0,0,0,0,0,0,0,0,-1,979,582,0,0
-238,442,0,0,0,0,0,0,0,0,0,-1,986,582,0,0
-231,442,0,0,0,0,0,0,0,0,0,-1,993,582,0,0
-224,442,0,0,0,0,0,0,0,0,0,-1,1000,582,0,0
-217,442,0,0,0,0,0,0,0,0,0,-1,1007,582,0,0
-210,442,0,0,0,0,0,0,0,0,0,-1,1014,582,0,0
-203,442,0,0,0,0,0,0,0,0,0,-1,1021,582,0,0
-196,442,0,0,0,0,0,0,0,0,0,-1,1028,582,0,0
-189,442,0,0,0,0,0,0,0,0,0,-1,1035,582,0,0
-182,442,0,0,0,0,0,0,0,0,0,-1,1042,582,0,0
-175,442,0,0,0,0,0,0,0,0,0,-1,1049,582,0,0
-168,442,0,0,0,0,0,0,0,0,0,-1,1056,582,0,0
-161,442,0,0,0,0,0,0,0,0,0,-1,1063,582,0,0
-154,442,0,0,0,0,0,0,0,0,0,-1,1070,582,0,0
-147,442,0,0,0,0,0,0,0,0,0,-1,1077,582,0,0
-140,442,0,0,0,0,0,0,0,0,0,-1,1084,582,0,0
-133,442,0,0,0,0,0,0,0,0,0,-1,1091,582,0,0
-126,442,0,0,0,0,0,0,0,0,0,-1,1098,582,0,0
-119,442,0,0,0,0,0,0,0,0,0,-1,1105,582,0,0
-112,442,0,0,0,0,0,0,0,0,0,-1,1112,582,0,0
-105,442,0,0,0,0,0,0,0,0,0,-1,1119,582,0,0
-98,442,0,0,0,0,0,0,0,0,0,-1,1126,582,0,0
-91,442,0,0,0,0,0,0,0,0,0,-1,1133,582,0,0
-84,442,0,0,0,0,0,0,0,0,0,-1,1140,582,0,0
-77,442,0,0,0,0,0,0,0,0,0,-1,1147,582,0,0
-70,442,0,0,0,0,0,0,0,0,0,-1,1154,582,0,0
-63,442,0,0,0,0,0,0,0,0,0,-1,1161,582,0,0
-56,442,0,0,0,0,0,0,0,0,0,-1,1168,582,0,0
-49,442,0,0,0,0,0,0,0,0,0,-1,1175,582,0,0
-42,442,0,0,0,0,0,0,0,0,0,-1,1182,582,0,0
-35,442,0,0,0,0,0,0,0,0,0,-1,1189,582,0,0
-28,442,0,0,0,0,0,0,0,0,0,-1,1196,582,0,0
-21,442,0,0,0,0,0,0,0,0,0,-1,1203,582,0,0
-14,442,0,0,0,0,0,0,0,0,0,-1,1210,582,0,0
-7,442,0,0,0,0,0,0,0,0,0,-1,1217,582,0,0
0,442,0,0,0,0,0,0,0,0,0,-1,1224,582,0,0
7,442,0,0,0,0,0,0,0,0,0,-1,1231,582,0,0
14,442,0,0,0,0,0,0,0,0,0,-1,1238,582,0,0
21,442,0,0,0,0,0,0,0,0,0,-1,1245,582,0,0
28,442,0,0,0,0,0,0,0,0,0,-1,1252,582,0,0
35,442,0,0,0,0,0,0,0,0,0,-1,1259,582,0,0
42,442,0,0,0,0,0,0,0,0,0,-1,1266,582,0,0
49,442,0,0,0,0,0,0,0,0,0,-1,1273,582,0,0
56,442,0,0,0,0,0,0,0,0,0,-1,1280,582,0,0
63,442,0,0,0,0,0,0,0,0,0,-1,1287,582,0,0
70,442,0,0,0,0,0,0,0,0,0,-1,1294,582,0,0
77,442,0,0,0,0,0,0,0,0,0,-1,1301,582,0,0
84,442,0,0,0,0,0,0,0,0,0,-1,1308,582,0,0
91,442,0,0,0,0,0,0,0,0,0,-1,1315,582,0,0
98,442,0,0,0,0,0,0,0,0,0,-1,1322,582,0,0
105,442,0,0,0,0,0,0,0,0,0,-1,1329,582,0,0
112,442,0,0,0,0,0,0,0,0,0,-1,1336,582,0,0
119,442,0,0,0,0,0,0,0,0,0,-1,1343,582,0,0
126,442,0,0,0,0,0,0,0,0,0,-1,1350,582,0,0
133,442,0,0,0,0,0,0,0,0,0,-1,1357,582,0,0
140,442,0,0,0,0,0,0,0,0,0,-1,1364,582,0,0
147,442,0,0,0,0,0,0,0,0,0,-1,1371,582,0,0
154,442,0,0,0,0,0,0,0,0,0,-1,1378,582,0,0
161,442,0,0,0,0,0,0,0,0,0,-1,1385,582,0,0
168,442,0,0,0,0,0,0,0,0,0,-1,1392,582,0,0
175,442,0,0,0,0,0,0,0,0,0,-1,1399,582,0,0
182,442,0,0,0,0,0,0,0,0,0,-1,1406,582,0,0
189,442,0,0,0,0,0,0,0,0,0,-1,1413,582,0,0
196,442,0,0,0,0,0,0,0,0,0,-1,1420,582,0,0
203,442,0,0,0,0,0,0,0,0,0,-1,1427,582,0,0
210,442,0,0,0,0,0,0,0,0,0,-1,1434,582,0,0
217,442,0,0,0,0,0,0,0,0,0,-1,1441,582,0,0
224,442,0,0,0,0,0,0,0,0,0,-1,1448,582,0,0
231,442,0,0,0,0,0,0,0,0,0,-1,1455,582,0,0
238,442,0,0,0,0,0,0,0,0,0,-1,1462,582,0,0
245,442,0,0,0,0,0,0,0,0,0,-1,1469,582,0,0
252,442,0,0,0,0,0,0,0,0,0,-1,1476,582,0,0
259,442,0,0,0,0,0,0,0,0,0,-1,1483,582,0,0
266,442,0,0,0,0,0,0,0,0,0,-1,1490,582,0,0
273,442,0,0,0,0,0,0,0,0,0,-1,1497,582,0,0
280,442,0,0,0,0,0,0,0,0,0,-1,1504,582,0,0
287,442,0,0,0,0,0,0,0,0,0,-1,1511,582,0,0
294,442,0,0,0,0,0,0,0,0,0,-1,1518,582,0,0
301,442,0,0,0,0,0,0,0,0,0,-1,1525,582,0,0
308,442,0,0,0,0,0,0,0,0,0,-1,1532,582,0,0
315,442,0,0,0,0,0,0,0,0,0,-1,1539,582,0,0
322,442,0,0,0,0,0,0,0,0,0,-1,1546,582,0,0
329,442,0,0,0,0,0,0,0,0,0,-1,1553,582,0,0
336,442,0,0,0,0,0,0,0,0,0,-1,1560,582,0,0
343,442,0,0,0,0,0,0,0,0,0,-1,1567,582,0,0
350,442,0,0,0,0,0,0,0,0,0,-1,1574,582,0,0
357,442,0,0,0,0,0,0,0,0,0,-1,1581,582,0,0
364,442,0,0,0,0,0,0,0,0,0,-1,1588,582,0,0
371,442,0,0,0,0,0,0,0,0,0,-1,1595,582,0,0
378,442,0,0,0,0,0,0,0,0,0,-1,1602,582,0,0
385,442,0,0,0,0,0,0,0,0,0,-1,1609,582,0,0
392,442,0,0,0,0,0,0,0,0,0,-1,1616,582,0,0
399,442,0,0,0,0,0,0,0,0,0,-1,1623,582,0,0
406,442,1.04834,0.422302,0,0,0,0,0,0,0,-1,1630,582,1.04835,-0.422288
413,442,0.629883,0.630981,-0.0457152,0.0249901,0.00645017,0.0255737,-0.0462988,1.48056,0.0420668,0.0498544,1637,582,0.629923,-0.63098
420,442,-0.394043,0.49176,-0.0395288,0.0353638,0.00446061,0.0356285,-0.0397935,1.51152,0.043567,0.0454593,1644,582,-0.394005,-0.491756
427,442,-0.919434,-0.184814,0,0,0,0,0,0,0,-1,1651,582,-0.919481,0.184841
434,442,-0.931885,-1.29816,-0.0263334,0.0450386,0.00112222,0.0450562,-0.026351,1.55508,0.0416958,0.0454631,1658,582,-0.931891,1.29816
441,442,-0.929565,-1.90204,-0.0193335,0.0440552,0.0017414,0.044103,-0.0193813,1.54335,0.0375676,0.0494741,1665,582,-0.929546,1.90201
448,442,-1.3927,-2.43469,-0.0133943,0.0401274,0.00230699,0.0402267,-0.0134936,1.5278,0.0322701,0.0469898,1672,582,-1.39266,2.43466
455,442,-1.64661,-2.41272,-0.00810726,0.0350535,0.0028923,0.0352464,-0.00830021,1.50418,0.026698,0.04681,1679,582,-1.64656,2.41269
462,442,0.87915,-0.846069,0,0,0,0,0,0,0,-1,1686,582,0.879182,0.846087
469,442,0.598755,-0.783203,-0.000758425,0.0244153,0.0033102,0.0248433,-0.00118642,1.44221,0.0169715,0.0496454,1693,582,0.598702,0.783178
476,442,-0.485962,0.0670166,0.00156118,0.0199162,0.00308762,0.0204217,0.00105571,1.40853,0.0132765,0.0454991,1700,582,-0.486021,-0.0670249
483,442,-0.238281,0.0975952,0.00198152,0.0147813,0.00272964,0.0153391,0.00142372,1.36922,0.00978606,0.0440981,1707,582,-0.238228,-0.0975718
490,442,0.423706,-0.218384,0,0,0,0,0,0,0,-1,1714,582,0.423665,0.218377
497,442,0.0274658,-0.129028,0.00174873,0.00512298,0.00130487,0.00556871,0.001303,1.24163,0.00336335,0.0361255,1721,582,0.0274932,0.12903
504,442,-0.038208,-0.0487061,0.00164464,0.00220036,0.00133805,0.00328909,0.000555906,0.887774,0.00203292,0.0215233,1728,582,-0.0381761,0.0487021
511,442,-0.020752,-0.0599976,0.000624698,0.00191226,0.000823968,0.00231413,0.000222833,1.11702,0.0014741,0.0125236,1735,582,-0.0207794,0.0599785
518,442,-0.0164795,-0.081604,-0.0003785,0.00161926,0.000292111,0.00166109,-0.000420336,1.42854,0.00127089,0.0106325,1742,582,-0.0164658,0.0815739
525,442,-0.0100098,-0.0877686,-0.000752749,0.0012826,-0.000418073,0.00136513,-0.000835277,-1.3759,0.00128263,0.00948749,1749,582,-0.00998228,0.0877575
532,442,-0.00622559,-0.0791626,-0.00143762,0.000899795,-0.000513428,0.0010076,-0.00154543,-1.36383,0.00148485,0.00868369,1756,582,-0.00619593,0.0791889
539,442,-0.0317383,-0.0814209,-0.00207598,0.000695805,-0.000274834,0.000722793,-0.00210296,-1.47291,0.00169508,0.00820468,1763,582,-0.0317543,0.0814169
546,442,-0.0339355,-0.0487671,-0.00171494,0.00064599,-9.10552e-05,0.000649497,-0.00171844,-1.53231,0.0014128,0.0100453,1770,582,-0.0339221,0.0487655
553,442,-0.0318604,-0.0650024,-0.000959672,0.000763072,0.000426286,0.000862784,-0.00105938,1.34102,0.0011117,0.0126045,1777,582,-0.0318041,0.0650214
560,442,-0.0308838,-0.0778809,-4.44434e-05,0.00117868,0.000944583,0.00169239,-0.000558157,1.07269,0.00135324,0.0131203,1784,582,-0.0308922,0.0778633
567,442,-0.0396729,-0.0644531,0.00117462,0.0020906,0.0013753,0.00308216,0.000183062,0.946129,0.00199655,0.00938195,1791,582,-0.0396545,0.064474
574,442,-0.0316162,-0.0653076,0.00268969,0.0025607,0.00161665,0.00424313,0.00100726,0.765462,0.00255993,0.0114054,1798,582,-0.0316015,0.0653215
581,442,-0.0209961,-0.0664063,0.00397108,0.00331099,0.00208421,0.00575121,0.00153085,0.706872,0.00343936,0.0120935,1805,582,-0.0210366,0.0664222
588,442,-0.0169678,-0.0651245,0.00536042,0.00415837,0.00257374,0.00740239,0.00211641,0.670693,0.00440242,0.0139437,1812,582,-0.0169133,0.0651498
595,442,0.000610352,-0.0881348,0.00732442,0.00522764,0.00307806,0.00952773,0.00302433,0.62126,0.00562175,0.0290702,1819,582,0.000583207,0.0881506
602,442,0.108521,-0.30896,0.00969341,0.00624689,0.00330555,0.0116979,0.00424238,0.545118,0.0068382,0.0416289,1826,582,0.108463,0.308974
609,442,0.151245,-0.358276,0.012348,0.00728991,0.00350486,0.014141,0.00549691,0.472864,0.00823146,0.041343,1833,582,0.151252,0.35829
616,442,0.338745,-0.108032,0.0153154,0.00820827,0.00344315,0.0167099,0.00681379,0.384809,0.00970201,0.042426,1840,582,0.338739,0.10806
623,442,0.820313,-0.214722,0.0184916,0.00877626,0.00298771,0.0193369,0.007931,0.275707,0.0112241,0.0471041,1847,582,0.820272,0.214733
630,442,1.33582,-0.247131,0,0,0,0,0,0,0,-1,1854,582,1.33577,0.247112
637,442,0.58728,-0.563416,0,0,0,0,0,0,0,-1,1861,582,0.587275,0.563398
644,442,0,0,0,0,0,0,0,0,0,-1,1868,582,0,0
651,442,0,0,0,0,0,0,0,0,0,-1,1875,582,0,0
658,442,0,0,0,0,0,0,0,0,0,-1,1882,582,0,0
665,442,0,0,0,0,0,0,0,0,0,-1,1889,582,0,0
672,442,0,0,0,0,0,0,0,0,0,-1,1896,582,0,0
679,442,0,0,0,0,0,0,0,0,0,-1,1903,582,0,0
686,442,0,0,0,0,0,0,0,0,0,-1,1910,582,0,0
693,442,0,0,0,0,0,0,0,0,0,-1,1917,582,0,0
700,442,0,0,0,0,0,0,0,0,0,-1,1924,582,0,0
707,442,0,0,0,0,0,0,0,0,0,-1,1931,582,0,0
714,442,0,0,0,0,0,0,0,0,0,-1,1938,582,0,0
721,442,0,0,0,0,0,0,0,0,0,-1,1945,582,0,0
728,442,0,0,0,0,0,0,0,0,0,-1,1952,582,0,0
735,442,0,0,0,0,0,0,0,0,0,-1,1959,582,0,0
742,442,0,0,0,0,0,0,0,0,0,-1,1966,582,0,0
749,442,0,0,0,0,0,0,0,0,0,-1,1973,582,0,0
756,442,0,0,0,0,0,0,0,0,0,-1,1980,582,0,0
763,442,0,0,0,0,0,0,0,0,0,-1,1987,582,0,0
770,442,0,0,0,0,0,0,0,0,0,-1,1994,582,0,0
777,442,0,0,0,0,0,0,0,0,0,-1,2001,582,0,0
784,442,0,0,0,0,0,0,0,0,0,-1,2008,582,0,0
791,442,0,0,0,0,0,0,0,0,0,-1,2015,582,0,0
798,442,0,0,0,0,0,0,0,0,0,-1,2022,582,0,0
805,442,0,0,0,0,0,0,0,0,0,-1,2029,582,0,0
812,442,0,0,0,0,0,0,0,0,0,-1,2036,582,0,0
-700,435,0,0,0,0,0,0,0,0,0,-1,524,589,0,0
-693,435,0,0,0,0,0,0,0,0,0,-1,531,589,0,0
-686,435,0,0,0,0,0,0,0,0,0,-1,538,589,0,0
-679,435,0,0,0,0,0,0,0,0,0,-1,545,589,0,0
-672,435,0,0,0,0,0,0,0,0,0,-1,552,589,0,0
-665,435,0,0,0,0,0,0,0,0,0,-1,559,589,0,0
-658,435,0,0,0,0,0,0,0,0,0,-1,566,589,0,0
-651,435,0,0,0,0,0,0,0,0,0,-1,573,589,0,0
-644,435,0,0,0,0,0,0,0,0,0,-1,580,589,0,0
-637,435,0,0,0,0,0,0,0,0,0,-1,587,589,0,0
-630,435,0,0,0,0,0,0,0,0,0,-1,594,589,0,0
-623,435,0,0,0,0,0,0,0,0,0,-1,601,589,0,0
-616,435,0,0,0,0,0,0,0,0,0,-1,608,589,0,0
-609,435,0,0,0,0,0,0,0,0,0,-1,615,589,0,0
-602,435,0,0,0,0,0,0,0,0,0,-1,622,589,0,0
-595,435,0,0,0,0,0,0,0,0,0,-1,629,589,0,0
-588,435,0,0,0,0,0,0,0,0,0,-1,636,589,0,0
-581,435,0,0,0,0,0,0,0,0,0,-1,643,589,0,0
-574,435,0,0,0,0,0,0,0,0,0,-1,650,589,0,0
-567,435,0,0,0,0,0,0,0,0,0,-1,657,589,0,0
-560,435,0,0,0,0,0,0,0,0,0,-1,664,589,0,0
-553,435,0,0,0,0,0,0,0,0,0,-1,671,589,0,0
-546,435,0,0,0,0,0,0,0,0,0,-1,678,589,0,0
-539,435,0,0,0,0,0,0,0,0,0,-1,685,589,0,0
-532,435,0,0,0,0,0,0,0,0,0,-1,692,589,0,0
-525,435,-2.2478,1.30951,0,0,0,0,0,0,0,-1,699,589,-2.24781,-1.30952
-518,435,-2.14545,1.18811,0,0,0,0,0,0,0,-1,706,589,-2.14543,-1.18808
-511,435,-1.93842,-1.18457,0,0,0,0,0,0,0,-1,713,589,-1.93842,1.18458
-504,435,0.396484,0.809082,0.0114608,0.0273996,-0.0123628,0.034139,0.00472135,-1.07169,0.0213602,0.0482602,720,589,0.396482,-0.809055
-497,435,0.0911255,0.976685,0.0135654,0.0209709,-0.011175,0.0290406,0.00549567,-0.945377,0.0178134,0.0468523,727,589,0.0911453,-0.976666
-490,435,0.180237,-0.408569,0.0146227,0.015644,-0.0100953,0.0252416,0.00502522,-0.810668,0.0154279,0.0451885,734,589,0.180214,0.408555
-483,435,-0.055603,-0.2099,0.0146329,0.0102245,-0.0086584,0.0213633,0.00349413,-0.660759,0.0132322,0.0448125,741,589,-0.0556192,0.209916
-476,435,-0.0761108,-0.158691,0.0136773,0.00574557,-0.00695492,0.0177176,0.00170525,-0.526279,0.0112864,0.0407901,748,589,-0.0761312,0.158672
-469,435,-0.0632935,-0.0814209,0.0120186,0.00235905,-0.00558098,0.0145695,-0.000191832,-0.428715,0.00977755,0.0251057,755,589,-0.0632931,0.0813981
-462,435,-0.0357666,-0.0739136,0.0104098,-8.79053e-05,-0.00404524,0.0117877,-0.00146585,-0.328306,0.0083899,0.0127879,762,589,-0.0357602,0.0739244
-455,435,-0.0251465,-0.0797119,0.00864469,-0.00141762,-0.00304013,0.00949188,-0.00226481,-0.271773,0.00720254,0.0115803,769,589,-0.0251636,0.0797281
-448,435,-0.0144043,-0.078125,0.00711721,-0.00263883,-0.00248101,0.0077119,-0.00323352,-0.235256,0.00649326,0.0121756,776,589,-0.014427,0.0781071
-441,435,-0.00897217,-0.0706787,0.00571301,-0.00263417,-0.0018144,0.00609034,-0.00301151,-0.205043,0.00535423,0.0102906,783,589,-0.00896025,0.0707012
-434,435,-0.00787354,-0.0808105,0.00464638,-0.00217626,-0.00137238,0.00491209,-0.00244197,-0.191245,0.00432496,0.0111139,790,589,-0.00785831,0.0808187
-427,435,-0.0189819,-0.106079,0.00347543,-0.000883932,-0.00145276,0.0039152,-0.0013237,-0.293944,0.00314562,0.00895713,797,589,-0.0189537,0.10605
-420,435,-0.0157471,-0.09198,0.0025452,0.000633174,-0.00147191,0.00334432,-0.000165946,-0.497386,0.00228687,0.00955577,804,589,-0.01575,0.0919766
-413,435,-0.0224609,-0.0802612,0.00179289,0.00256478,-0.00176362,0.0039842,0.000373477,-0.893118,0.0025408,0.00995217,811,589,-0.0224452,0.0802742
-406,435,-0.0206299,-0.0726318,0.00144093,0.00469187,-0.00190324,0.0055693,0.000563509,-1.13882,0.00354001,0.00962792,818,589,-0.0206467,0.0726047
-399,435,-0.0203857,-0.0706787,0.00153916,0.0067757,-0.000578726,0.00683889,0.00147596,-1.46203,0.00415559,0.00832029,825,589,-0.0203791,0.0707027
-392,435,-0.0275269,-0.0730591,0.00210391,0.00895593,0.000524102,0.00899579,0.00206406,1.4949,0.00544127,0.00871135,832,589,-0.0275433,0.0730853
-385,435,-0.0262451,-0.0831299,0.00355392,0.0119178,0.00361424,0.0132632,0.00220853,1.21444,0.00820564,0.0105629,839,589,-0.026221,0.0831444
-378,435,-0.0139771,-0.0744629,0.0065217,0.0147192,0.00681603,0.0185739,0.00266696,1.0561,0.0115963,0.0171968,846,589,-0.0139989,0.0744335
-371,435,-0.119873,-0.228027,0.0101326,0.0177601,0.0102254,0.0248598,0.00303285,0.963892,0.0156604,0.0353604,853,589,-0.119879,0.228032
-364,435,-0.0279541,-0.304382,0.0146132,0.0203671,0.0131631,0.030964,0.00401626,0.892988,0.0194427,0.0416576,860,589,-0.0279294,0.304369
-357,435,-2.72693,1.18182,0,0,0,0,0,0,0,-1,867,589,-2.7269,-1.18184
-350,435,-2.79968,1.75354,0.0258004,0.0242377,0.0185558,0.0435913,0.0064468,0.764357,0.0271681,0.0497584,874,589,-2.79969,-1.75355
-343,435,-2.63818,2.25708,0,0,0,0,0,0,0,-1,881,589,-2.63818,-2.25709
-336,435,-2.32257,2.50195,0.0403617,0.0262737,0.0194236,0.0539791,0.0126563,0.611448,0.0325969,0.0466643,888,589,-2.32254,-2.50198
-329,435,-1.79529,2.53552,0.047992,0.0264365,0.0177287,0.0579619,0.0164665,0.512285,0.0344887,0.0446247,895,589,-1.79528,-2.53555
-322,435,-0.962524,2.48047,0.0558278,0.0262634,0.0141548,0.0615119,0.0205793,0.381859,0.0361562,0.0448082,902,589,-0.962531,-2.48049
-315,435,-0.433594,2.5036,0.0632082,0.0249128,0.00866741,0.0650786,0.0230424,0.212532,0.0381028,0.0491922,909,589,-0.433589,-2.50358
-308,435,-0.0296021,2.5257,0.0699026,0.0246816,0.0034448,0.0701635,0.0244207,0.0755957,0.0411277,0.0476955,916,589,-0.0296179,-2.52571
-301,435,0.410767,2.53839,0,0,0,0,0,0,0,-1,923,589,0.410786,-2.53837
-294,435,0.832153,2.56738,0,0,0,0,0,0,0,-1,930,589,0.832132,-2.56738
-287,435,0,0,0,0,0,0,0,0,0,-1,937,589,0,0
-280,435,0,0,0,0,0,0,0,0,0,-1,944,589,0,0
-273,435,0,0,0,0,0,0,0,0,0,-1,951,589,0,0
-266,435,0,0,0,0,0,0,0,0,0,-1,958,589,0,0
-259,435,0,0,0,0,0,0,0,0,0,-1,965,589,0,0
-252,435,0,0,0,0,0,0,0,0,0,-1,972,589,0,0
-245,435,0,0,0,0,0,0,0,0,0,-1,979,589,0,0
-238,435,0,0,0,0,0,0,0,0,0,-1,986,589,0,0
-231,435,0,0,0,0,0,0,0,0,0,-1,993,589,0,0
-224,435,0,0,0,0,0,0,0,0,0,-1,1000,589,0,0
-217,435,0,0,0,0,0,0,0,0,0,-1,1007,589,0,0
-210,435,0,0,0,0,0,0,0,0,0,-1,1014,589,0,0
-203,435,0,0,0,0,0,0,0,0,0,-1,1021,589,0,0
-196,435,0,0,0,0,0,0,0,0,0,-1,1028,589,0,0
-189,435,0,0,0,0,0,0,0,0,0,-1,1035,589,0,0
-182,435,0,0,0,0,0,0,0,0,0,-1,1042,589,0,0
-175,435,0,0,0,0,0,0,0,0,0,-1,1049,589,0,0
-168,435,0,0,0,0,0,0,0,0,0,-1,1056,589,0,0
-161,435,0,0,0,0,0,0,0,0,0,-1,1063,589,0,0
-154,435,0,0,0,0,0,0,0,0,0,-1,1070,589,0,0
-147,435,0,0,0,0,0,0,0,0,0,-1,1077,589,0,0
-140,435,0,0,0,0,0,0,0,0,0,-1,1084,589,0,0
-133,435,0,0,0,0,0,0,0,0,0,-1,1091,589,0,0
-126,435,0,0,0,0,0,0,0,0,0,-1,1098,589,0,0
-119,435,0,0,0,0,0,0,0,0,0,-1,1105,589,0,0
-112,435,0,0,0,0,0,0,0,0,0,-1,1112,589,0,0
-105,435,0,0,0,0,0,0,0,0,0,-1,1119,589,0,0
-98,435,0,0,0,0,0,0,0,0,0,-1,1126,589,0,0
-91,435,0,0,0,0,0,0,0,0,0,-1,1133,589,0,0
-84,435,0,0,0,0,0,0,0,0,0,-1,1140,589,0,0
-77,435,0,0,0,0,0,0,0,0,0,-1,1147,589,0,0
-70,435,0,0,0,0,0,0,0,0,0,-1,1154,589,0,0
-63,435,0,0,0,0,0,0,0,0,0,-1,1161,589,0,0
-56,435,0,0,0,0,0,0,0,0,0,-1,1168,589,0,0
-49,435,0,0,0,0,0,0,0,0,0,-1,1175,589,0,0
-42,435,0,0,0,0,0,0,0,0,0,-1,1182,589,0,0
-35,435,0,0,0,0,0,0,0,0,0,-1,1189,589,0,0
-28,435,0,0,0,0,0,0,0,0,0,-1,1196,589,0,0
-21,435,0,0,0,0,0,0,0,0,0,-1,1203,589,0,0
-14,435,0,0,0,0,0,0,0,0,0,-1,1210,589,0,0
-7,435,0,0,0,0,0,0,0,0,0,-1,1217,589,0,0
0,435,0,0,0,0,0,0,0,0,0,-1,1224,589,0,0
7,435,0,0,0,0,0,0,0,0,0,-1,1231,589,0,0
14,435,0,0,0,0,0,0,0,0,0,-1,1238,589,0,0
21,435,0,0,0,0,0,0,0,0,0,-1,1245,589,0,0
28,435,0,0,0,0,0,0,0,0,0,-1,1252,589,0,0
35,435,0,0,0,0,0,0,0,0,0,-1,1259,589,0,0
42,435,0,0,0,0,0,0,0,0,0,-1,1266,589,0,0
49,435,0,0,0,0,0,0,0,0,0,-1,1273,589,0,0
56,435,0,0,0,0,0,0,0,0,0,-1,1280,589,0,0
63,435,0,0,0,0,0,0,0,0,0,-1,1287,589,0,0
70,435,0,0,0,0,0,0,0,0,0,-1,1294,589,0,0
77,435,0,0,0,0,0,0,0,0,0,-1,1301,589,0,0
84,435,0,0,0,0,0,0,0,0,0,-1,1308,589,0,0
91,435,0,0,0,0,0,0,0,0,0,-1,1315,589,0,0
98,435,0,0,0,0,0,0,0,0,0,-1,1322,589,0,0
105,435,0,0,0,0,0,0,0,0,0,-1,1329,589,0,0
112,435,0,0,0,0,0,0,0,0,0,-1,1336,589,0,0
119,435,0,0,0,0,0,0,0,0,0,-1,1343,589,0,0
126,435,0,0,0,0,0,0,0,0,0,-1,1350,589,0,0
133,435,0,0,0,0,0,0,0,0,0,-1,1357,589,0,0
140,435,0,0,0,0,0,0,0,0,0,-1,1364,589,0,0
147,435,0,0,0,0,0,0,0,0,0,-1,1371,589,0,0
154,435,0,0,0,0,0,0,0,0,0,-1,1378,589,0,0
161,435,0,0,0,0,0,0,0,0,0,-1,1385,589,0,0
168,435,0,0,0,0,0,0,0,0,0,-1,1392,589,0,0
175,435,0,0,0,0,0,0,0,0,0,-1,1399,589,0,0
182,435,0,0,0,0,0,0,0,0,0,-1,1406,589,0,0
189,435,0,0,0,0,0,0,0,0,0,-1,1413,589,0,0
196,435,0,0,0,0,0,0,0,0,0,-1,1420,589,0,0
203,435,0,0,0,0,0,0,0,0,0,-1,1427,589,0,0
210,435,0,0,0,0,0,0,0,0,0,-1,1434,589,0,0
217,435,0,0,0,0,0,0,0,0,0,-1,1441,589,0,0
224,435,0,0,0,0,0,0,0,0,0,-1,1448,589,0,0
231,435,0,0,0,0,0,0,0,0,0,-1,1455,589,0,0
238,435,0,0,0,0,0,0,0,0,0,-1,1462,589,0,0
245,435,0,0,0,0,0,0,0,0,0,-1,1469,589,0,0
252,435,0,0,0,0,0,0,0,0,0,-1,1476,589,0,0
259,435,0,0,0,0,0,0,0,0,0,-1,1483,589,0,0
266,435,0,0,0,0,0,0,0,0,0,-1,1490,589,0,0
273,435,0,0,0,0,0,0,0,0,0,-1,1497,589,0,0
280,435,0,0,0,0,0,0,0,0,0,-1,1504,589,0,0
287,435,0,0,0,0,0,0,0,0,0,-1,1511,589,0,0
294,435,0,0,0,0,0,0,0,0,0,-1,1518,589,0,0
301,435,0,0,0,0,0,0,0,0,0,-1,1525,589,0,0
308,435,0,0,0,0,0,0,0,0,0,-1,1532,589,0,0
315,435,0,0,0,0,0,0,0,0,0,-1,1539,589,0,0
322,435,0,0,0,0,0,0,0,0,0,-1,1546,589,0,0
329,435,0,0,0,0,0,0,0,0,0,-1,1553,589,0,0
336,435,0,0,0,0,0,0,0,0,0,-1,1560,589,0,0
343,435,0,0,0,0,0,0,0,0,0,-1,1567,589,0,0
350,435,0,0,0,0,0,0,0,0,0,-1,1574,589,0,0
357,435,0,0,0,0,0,0,0,0,0,-1,1581,589,0,0
364,435,0,0,0,0,0,0,0,0,0,-1,1588,589,0,0
371,435,0,0,0,0,0,0,0,0,0,-1,1595,589,0,0
378,435,0,0,0,0,0,0,0,0,0,-1,1602,589,0,0
385,435,0,0,0,0,0,0,0,0,0,-1,1609,589,0,0
392,435,0,0,0,0,0,0,0,0,0,-1,1616,589,0,0
399,435,0,0,0,0,0,0,0,0,0,-1,1623,589,0,0
406,435,0,0,0,0,0,0,0,0,0,-1,1630,589,0,0
413,435,0.80127,0.788147,0,0,0,0,0,0,0,-1,1637,589,0.801213,-0.788164
420,435,-0.827515,0.493347,-0.0445299,0.026778,0.00571435,0.027233,-0.0449849,1.49134,0.0421129,0.0442191,1644,589,-0.827566,-0.493362
427,435,-1.04883,-0.187622,0,0,0,0,0,0,0,-1,1651,589,-1.0488,0.187625
434,435,-1.2135,-0.899231,-0.0270201,0.0404117,0.00296369,0.0405417,-0.0271501,1.52696,0.039336,0.0453871,1658,589,-1.21352,0.899231
441,435,-1.38098,-1.57806,-0.01845,0.0408736,0.00385881,0.0411236,-0.0186999,1.50611,0.0353386,0.0480032,1665,589,-1.38095,1.57807
448,435,-1.63794,-2.16748,-0.0113144,0.0380146,0.00437702,0.0383999,-0.0116997,1.48298,0.0302634,0.0475409,1672,589,-1.63799,2.16748
455,435,-1.82764,-2.8399,-0.00531671,0.0337757,0.00480476,0.0343576,-0.00589859,1.45028,0.0251033,0.0494058,1679,589,-1.82767,2.83991
462,435,-1.78625,0.428345,0,0,0,0,0,0,0,-1,1686,589,-1.7862,-0.428359
469,435,-1.24182,0.268127,0.00217746,0.0245766,0.00474662,0.0255409,0.00121312,1.37036,0.0166377,0.0472908,1693,589,-1.24188,-0.268111
476,435,-0.65979,0.0614014,0.0042955,0.0205697,0.00429807,0.021635,0.00323011,1.32782,0.0134763,0.0419137,1700,589,-0.659776,-0.0614249
483,435,-0.0717773,-0.0842285,0.00424288,0.0155891,0.00368471,0.0166807,0.00315129,1.28278,0.0102331,0.041289,1707,589,-0.0718376,0.0842095
490,435,0.432617,-0.229004,0.00348029,0.0105812,0.00260166,0.0114323,0.00262911,1.2546,0.00691388,0.0433615,1714,589,0.432671,0.229017
497,435,0.235596,-0.335999,0.00298618,0.00602038,0.00176432,0.00683017,0.00217639,1.1405,0.00402894,0.0411909,1721,589,0.235551,0.335982
504,435,0.129639,-0.187988,0.00238698,0.00315608,0.00162186,0.00443835,0.0011047,0.901802,0.00266802,0.0333751,1728,589,0.129689,0.187996
511,435,-0.0375977,-0.0866089,0.000908538,0.00281354,0.000897401,0.0031697,0.00055238,1.19299,0.00195519,0.0189548,1735,589,-0.0375853,0.0865934
518,435,-0.0251465,-0.098938,-0.00050473,0.00238491,0.000234936,0.00240388,-0.000523706,1.4902,0.00180269,0.0101154,1742,589,-0.0251676,0.0989221
525,435,0.00561523,-0.0714722,-0.00116235,0.00185,-0.000563766,0.00195206,-0.0012644,-1.39172,0.00187111,0.0105008,1749,589,0.00566204,0.0714753
532,435,0.00219727,-0.0557251,-0.00201169,0.00127986,-0.000691548,0.00141925,-0.00215108,-1.3719,0.00207572,0.0119288,1756,589,0.00222315,0.055698
539,435,-0.0196533,-0.0600586,-0.00275615,0.000821356,-0.000556796,0.000906011,-0.00284081,-1.41991,0.00225732,0.0127445,1763,589,-0.0196611,0.060062
546,435,-0.0351563,-0.0622559,-0.00244269,0.000545989,-0.000449315,0.000612077,-0.00250878,-1.42476,0.00190953,0.0116523,1770,589,-0.0351355,0.0622859
553,435,-0.034668,-0.0619507,-0.00165968,0.000529228,-9.32895e-06,0.000529268,-0.00165972,-1.56653,0.00131879,0.00945469,1777,589,-0.0346849,0.06198
560,435,-0.0339355,-0.0765381,-0.000699111,0.000769552,0.000393335,0.00086826,-0.000797819,1.32492,0.000962198,0.00844248,1784,589,-0.0339875,0.0765088
567,435,-0.0253906,-0.0682373,0.000513889,0.00142177,0.000727747,0.00182554,0.000110112,1.06425,0.00118204,0.00817525,1791,589,-0.0253745,0.0682206
574,435,-0.02771,-0.0685425,0.0019543,0.00170541,0.000934895,0.00277299,0.000886713,0.719231,0.00163529,0.00969431,1798,589,-0.0277186,0.0685586
581,435,-0.0314941,-0.0679932,0.00311176,0.0021602,0.00129278,0.00401353,0.00125842,0.609076,0.00237031,0.0163076,1805,589,-0.0315254,0.0680182
588,435,-0.0357666,-0.0776367,0.0043008,0.00269577,0.00166737,0.00534873,0.00164784,0.561107,0.00316301,0.0158635,1812,589,-0.035809,0.0776471
595,435,-0.0303955,-0.0637207,0.00606326,0.00342201,0.00205067,0.00718175,0.00230352,0.499326,0.00423427,0.0179294,1819,589,-0.0303442,0.0636966
602,435,-0.0233154,-0.0238037,0.00820505,0.00395954,0.00213482,0.00909287,0.00307173,0.394116,0.00534103,0.0367461,1826,589,-0.0233523,0.0238204
609,435,0.0545654,-0.0319824,0.0104899,0.00444578,0.00228607,0.0112571,0.00367851,0.323813,0.00662805,0.0416278,1833,589,0.0546006,0.0319961
616,435,0.349487,-0.125977,0.0129657,0.00478048,0.00224729,0.0135421,0.00420406,0.25108,0.00800362,0.0436211,1840,589,0.34947,0.125962
623,435,0.724121,-0.301819,0.0155271,0.00467725,0.00200351,0.0158853,0.00431911,0.176889,0.00948416,0.0460045,1847,589,0.724117,0.301836
630,435,1.08813,-0.299072,0,0,0,0,0,0,0,-1,1854,589,1.08813,0.299064
637,435,0.230835,-0.241333,0,0,0,0,0,0,0,-1,1861,589,0.230892,0.241309
644,435,0,0,0,0,0,0,0,0,0,-1,1868,589,0,0
651,435,0,0,0,0,0,0,0,0,0,-1,1875,589,0,0
658,435,0,0,0,0,0,0,0,0,0,-1,1882,589,0,0
665,435,0,0,0,0,0,0,0,0,0,-1,1889,589,0,0
672,435,0,0,0,0,0,0,0,0,0,-1,1896,589,0,0
679,435,0,0,0,0,0,0,0,0,0,-1,1903,589,0,0
686,435,0,0,0,0,0,0,0,0,0,-1,1910,589,0,0
693,435,0,0,0,0,0,0,0,0,0,-1,1917,589,0,0
700,435,0,0,0,0,0,0,0,0,0,-1,1924,589,0,0
707,435,0,0,0,0,0,0,0,0,0,-1,1931,589,0,0
714,435,0,0,0,0,0,0,0,0,0,-1,1938,589,0,0
721,435,0,0,0,0,0,0,0,0,0,-1,1945,589,0,0
728,435,0,0,0,0,0,0,0,0,0,-1,1952,589,0,0
735,435,0,0,0,0,0,0,0,0,0,-1,1959,589,0,0
742,435,0,0,0,0,0,0,0,0,0,-1,1966,589,0,0
749,435,0,0,0,0,0,0,0,0,0,-1,1973,589,0,0
756,435,0,0,0,0,0,0,0,0,0,-1,1980,589,0,0
763,435,0,0,0,0,0,0,0,0,0,-1,1987,589,0,0
770,435,0,0,0,0,0,0,0,0,0,-1,1994,589,0,0
777,435,0,0,0,0,0,0,0,0,0,-1,2001,589,0,0
784,435,0,0,0,0,0,0,0,0,0,-1,2008,589,0,0
791,435,0,0,0,0,0,0,0,0,0,-1,2015,589,0,0
798,435,0,0,0,0,0,0,0,0,0,-1,2022,589,0,0
805,435,0,0,0,0,0,0,0,0,0,-1,2029,589,0,0
812,435,0,0,0,0,0,0,0,0,0,-1,2036,589,0,0
-700,428,0,0,0,0,0,0,0,0,0,-1,524,596,0,0
-693,428,0,0,0,0,0,0,0,0,0,-1,531,596,0,0
-686,428,0,0,0,0,0,0,0,0,0,-1,538,596,0,0
-679,428,0,0,0,0,0,0,0,0,0,-1,545,596,0,0
-672,428,0,0,0,0,0,0,0,0,0,-1,552,596,0,0
-665,428,0,0,0,0,0,0,0,0,0,-1,559,596,0,0
-658,428,0,0,0,0,0,0,0,0,0,-1,566,596,0,0
-651,428,0,0,0,0,0,0,0,0,0,-1,573,596,0,0
-644,428,0,0,0,0,0,0,0,0,0,-1,580,596,0,0
-637,428,0,0,0,0,0,0,0,0,0,-1,587,596,0,0
-630,428,0,0,0,0,0,0,0,0,0,-1,594,596,0,0
-623,428,0,0,0,0,0,0,0,0,0,-1,601,596,0,0
-616,428,0,0,0,0,0,0,0,0,0,-1,608,596,0,0
-609,428,0,0,0,0,0,0,0,0,0,-1,615,596,0,0
-602,428,0,0,0,0,0,0,0,0,0,-1,622,596,0,0
-595,428,0,0,0,0,0,0,0,0,0,-1,629,596,0,0
-588,428,0,0,0,0,0,0,0,0,0,-1,636,596,0,0
-581,428,0,0,0,0,0,0,0,0,0,-1,643,596,0,0
-574,428,0,0,0,0,0,0,0,0,0,-1,650,596,0,0
-567,428,0,0,0,0,0,0,0,0,0,-1,657,596,0,0
-560,428,0,0,0,0,0,0,0,0,0,-1,664,596,0,0
-553,428,0,0,0,0,0,0,0,0,0,-1,671,596,0,0
-546,428,0,0,0,0,0,0,0,0,0,-1,678,596,0,0
-539,428,0,0,0,0,0,0,0,0,0,-1,685,596,0,0
-532,428,0,0,0,0,0,0,0,0,0,-1,692,596,0,0
-525,428,-1.54675,0.833984,0,0,0,0,0,0,0,-1,699,596,-1.54674,-0.833996
-518,428,-1.4751,0.644104,0,0,0,0,0,0,0,-1,706,596,-1.47508,-0.644085
-511,428,-0.0639648,0.0973511,0,0,0,0,0,0,0,-1,713,596,-0.0639689,-0.0973601
-504,428,0.0162964,0.171509,0.00289921,0.0211619,-0.00997753,0.0255558,-0.00149469,-1.15597,0.0175567,0.0476966,720,596,0.0162881,-0.171501
-497,428,0.095459,0.280273,0.00571794,0.0163381,-0.00882052,0.0213236,0.000732452,-1.05635,0.0139779,0.043165,727,596,0.095478,-0.280277
-490,428,0.0863037,0.342468,0.00754688,0.0124161,-0.00787457,0.0182238,0.00173914,-0.935323,0.011613,0.0422775,734,596,0.0863027,-0.342481
-483,428,0.106323,0.231323,0.00829029,0.00824844,-0.00669261,0.014962,0.00157672,-0.783835,0.00949285,0.041817,741,596,0.106315,-0.231315
-476,428,0.0214233,-0.0718384,0.00800718,0.00473351,-0.00528794,0.0119058,0.00083486,-0.635305,0.00767408,0.0332634,748,596,0.0214322,0.0718164
-469,428,-0.0305786,-0.0725098,0.00696156,0.00202282,-0.00425517,0.00941197,-0.000427591,-0.522485,0.00642193,0.0173409,755,596,-0.0305897,0.0725173
-462,428,-0.0135498,-0.0619507,0.00599856,2.80174e-05,-0.00303377,0.00726954,-0.00124295,-0.396728,0.0053094,0.0152627,762,596,-0.0135558,0.0619316
-455,428,-0.032959,-0.067688,0.0049642,-0.00106093,-0.00229884,0.00574112,-0.00183785,-0.325911,0.00456506,0.0118898,769,596,-0.0329623,0.0676629
-448,428,-0.0340576,-0.0713501,0.00412022,-0.0021593,-0.00199914,0.00470264,-0.00274173,-0.28349,0.00434743,0.00969367,776,596,-0.0340573,0.0713718
-441,428,-0.0223999,-0.0811768,0.00334851,-0.00209182,-0.00163756,0.00380339,-0.0025467,-0.270947,0.00369008,0.0118085,783,596,-0.0223831,0.0811769
-434,428,-0.00500488,-0.088623,0.00285974,-0.00153954,-0.00148554,0.00331438,-0.00199419,-0.296996,0.00309634,0.00906275,790,596,-0.00498158,0.0886195
-427,428,0.00268555,-0.0925903,0.00225693,-0.000256206,-0.00176823,0.0031696,-0.00116888,-0.476484,0.00259208,0.00941134,797,596,0.00269076,0.0925817
-420,428,-0.0126343,-0.0762939,0.00184158,0.0014542,-0.00198745,0.00364476,-0.000348981,-0.736823,0.00255412,0.0104279,804,596,-0.0126514,0.0762635
-413,428,-0.0203247,-0.0733032,0.00159483,0.00347163,-0.0024863,0.00519073,-0.000124268,-0.965847,0.00350264,0.0116295,811,596,-0.0203458,0.0733225
-406,428,-0.015625,-0.0786743,0.00162003,0.00587597,-0.00275562,0.00722962,0.000266372,-1.11419,0.00473346,0.0135785,818,596,-0.0156263,0.0786672
-399,428,-0.0267944,-0.0754395,0.00194227,0.00849048,-0.00147823,0.00880872,0.00162403,-1.35875,0.00541296,0.0128076,825,596,-0.026783,0.0754134
-392,428,-0.0245361,-0.0685425,0.00260922,0.0114541,-0.000279392,0.0114629,0.0026004,-1.53925,0.00693949,0.0104884,832,596,-0.0245339,0.0685661
-385,428,-0.0202026,-0.071228,0.00429564,0.0156491,0.00329653,0.0165369,0.00340789,1.30774,0.0100825,0.0149596,839,596,-0.0201929,0.0712556
-378,428,-0.00195313,-0.0740967,0.00777466,0.0196041,0.00699026,0.0228462,0.00453254,1.13652,0.0139673,0.0313441,846,596,-0.00194271,0.0740874
-371,428,-0.0373535,-0.317261,0.011883,0.0239298,0.0109666,0.0304183,0.00539454,1.03653,0.0187413,0.0433183,853,596,-0.0373376,0.317244
-364,428,0.010376,-0.503174,0.0170233,0.0278652,0.014516,0.0379394,0.00694911,0.964103,0.0233242,0.0429468,860,596,0.0103988,0.503193
-357,428,0.263977,-0.24408,0.0228716,0.0311893,0.0179987,0.0455034,0.00855749,0.898937,0.0279237,0.0448309,867,596,0.263947,0.244055
-350,428,-1.61798,3.12134,0,0,0,0,0,0,0,-1,874,596,-1.61798,-3.12135
-343,428,-1.68329,3.31024,0,0,0,0,0,0,0,-1,881,596,-1.68328,-3.31021
-336,428,-1.51666,2.58771,0,0,0,0,0,0,0,-1,888,596,-1.51669,-2.58769
-329,428,-1.0564,2.23993,0.0554824,0.0411159,0.0228963,0.0722958,0.0243025,0.633395,0.0424805,0.0477121,895,596,-1.05638,-2.23992
-322,428,-0.509583,2.52148,0.0643405,0.0421062,0.0191708,0.0753843,0.0310624,0.522643,0.043747,0.0478716,902,596,-0.50958,-2.52151
-315,428,-0.083313,2.53503,0.0724183,0.0417756,0.0128377,0.0770857,0.0371082,0.348713,0.0445157,0.0479598,909,596,-0.0832936,-2.53503
-308,428,0.340759,2.6485,0,0,0,0,0,0,0,-1,916,596,0.340753,-2.64848
-301,428,0,0,0,0,0,0,0,0,0,-1,923,596,0,0
-294,428,0,0,0,0,0,0,0,0,0,-1,930,596,0,0
-287,428,0,0,0,0,0,0,0,0,0,-1,937,596,0,0
-280,428,0,0,0,0,0,0,0,0,0,-1,944,596,0,0
-273,428,0,0,0,0,0,0,0,0,0,-1,951,596,0,0
-266,428,0,0,0,0,0,0,0,0,0,-1,958,596,0,0
-259,428,0,0,0,0,0,0,0,0,0,-1,965,596,0,0
-252,428,0,0,0,0,0,0,0,0,0,-1,972,596,0,0
-245,428,0,0,0,0,0,0,0,0,0,-1,979,596,0,0
-238,428,0,0,0,0,0,0,0,0,0,-1,986,596,0,0
-231,428,0,0,0,0,0,0,0,0,0,-1,993,596,0,0
-224,428,0,0,0,0,0,0,0,0,0,-1,1000,596,0,0
-217,428,0,0,0,0,0,0,0,0,0,-1,1007,596,0,0
-210,428,0,0,0,0,0,0,0,0,0,-1,1014,596,0,0
-203,428,0,0,0,0,0,0,0,0,0,-1,1021,596,0,0
-196,428,0,0,0,0,0,0,0,0,0,-1,1028,596,0,0
-189,428,0,0,0,0,0,0,0,0,0,-1,1035,596,0,0
-182,428,0,0,0,0,0,0,0,0,0,-1,1042,596,0,0
-175,428,0,0,0,0,0,0,0,0,0,-1,1049,596,0,0
-168,428,0,0,0,0,0,0,0,0,0,-1,1056,596,0,0
-161,428,0,0,0,0,0,0,0,0,0,-1,1063,596,0,0
-154,428,0,0,0,0,0,0,0,0,0,-1,1070,596,0,0
-147,428,0,0,0,0,0,0,0,0,0,-1,1077,596,0,0
-140,428,0,0,0,0,0,0,0,0,0,-1,1084,596,0,0
-133,428,0,0,0,0,0,0,0,0,0,-1,1091,596,0,0
-126,428,0,0,0,0,0,0,0,0,0,-1,1098,596,0,0
-119,428,0,0,0,0,0,0,0,0,0,-1,1105,596,0,0
-112,428,0,0,0,0,0,0,0,0,0,-1,1112,596,0,0
-105,428,0,0,0,0,0,0,0,0,0,-1,1119,596,0,0
-98,428,0,0,0,0,0,0,0,0,0,-1,1126,596,0,0
-91,428,0,0,0,0,0,0,0,0,0,-1,1133,596,0,0
-84,428,0,0,0,0,0,0,0,0,0,-1,1140,596,0,0
-77,428,0,0,0,0,0,0,0,0,0,-1,1147,596,0,0
-70,428,0,0,0,0,0,0,0,0,0,-1,1154,596,0,0
-63,428,0,0,0,0,0,0,0,0,0,-1,1161,596,0,0
-56,428,0,0,0,0,0,0,0,0,0,-1,1168,596,0,0
-49,428,0,0,0,0,0,0,0,0,0,-1,1175,596,0,0
-42,428,0,0,0,0,0,0,0,0,0,-1,1182,596,0,0
-35,428,0,0,0,0,0,0,0,0,0,-1,1189,596,0,0
-28,428,0,0,0,0,0,0,0,0,0,-1,1196,596,0,0
-21,428,0,0,0,0,0,0,0,0,0,-1,1203,596,0,0
-14,428,0,0,0,0,0,0,0,0,0,-1,1210,596,0,0
-7,428,0,0,0,0,0,0,0,0,0,-1,1217,596,0,0
0,428,0,0,0,0,0,0,0,0,0,-1,1224,596,0,0
7,428,0,0,0,0,0,0,0,0,0,-1,1231,596,0,0
14,428,0,0,0,0,0,0,0,0,0,-1,1238,596,0,0
21,428,0,0,0,0,0,0,0,0,0,-1,1245,596,0,0
28,428,0,0,0,0,0,0,0,0,0,-1,1252,596,0,0
35,428,0,0,0,0,0,0,0,0,0,-1,1259,596,0,0
42,428,0,0,0,0,0,0,0,0,0,-1,1266,596,0,0
49,428,0,0,0,0,0,0,0,0,0,-1,1273,596,0,0
56,428,0,0,0,0,0,0,0,0,0,-1,1280,596,0,0
63,428,0,0,0,0,0,0,0,0,0,-1,1287,596,0,0
70,428,0,0,0,0,0,0,0,0,0,-1,1294,596,0,0
77,428,0,0,0,0,0,0,0,0,0,-1,1301,596,0,0
84,428,0,0,0,0,0,0,0,0,0,-1,1308,596,0,0
91,428,0,0,0,0,0,0,0,0,0,-1,1315,596,0,0
98,428,0,0,0,0,0,0,0,0,0,-1,1322,596,0,0
105,428,0,0,0,0,0,0,0,0,0,-1,1329,596,0,0
112,428,0,0,0,0,0,0,0,0,0,-1,1336,596,0,0
119,428,0,0,0,0,0,0,0,0,0,-1,1343,596,0,0
126,428,0,0,0,0,0,0,0,0,0,-1,1350,596,0,0
133,428,0,0,0,0,0,0,0,0,0,-1,1357,596,0,0
140,428,0,0,0,0,0,0,0,0,0,-1,1364,596,0,0
147,428,0,0,0,0,0,0,0,0,0,-1,1371,596,0,0
154,428,0,0,0,0,0,0,0,0,0,-1,1378,596,0,0
161,428,0,0,0,0,0,0,0,0,0,-1,1385,596,0,0
168,428,0,0,0,0,0,0,0,0,0,-1,1392,596,0,0
175,428,0,0,0,0,0,0,0,0,0,-1,1399,596,0,0
182,428,0,0,0,0,0,0,0,0,0,-1,1406,596,0,0
189,428,0,0,0,0,0,0,0,0,0,-1,1413,596,0,0
196,428,0,0,0,0,0,0,0,0,0,-1,1420,596,0,0
203,428,0,0,0,0,0,0,0,0,0,-1,1427,596,0,0
210,428,0,0,0,0,0,0,0,0,0,-1,1434,596,0,0
217,428,0,0,0,0,0,0,0,0,0,-1,1441,596,0,0
224,428,0,0,0,0,0,0,0,0,0,-1,1448,596,0,0
231,428,0,0,0,0,0,0,0,0,0,-1,1455,596,0,0
238,428,0,0,0,0,0,0,0,0,0,-1,1462,596,0,0
245,428,0,0,0,0,0,0,0,0,0,-1,1469,596,0,0
252,428,0,0,0,0,0,0,0,0,0,-1,1476,596,0,0
259,428,0,0,0,0,0,0,0,0,0,-1,1483,596,0,0
266,428,0,0,0,0,0,0,0,0,0,-1,1490,596,0,0
273,428,0,0,0,0,0,0,0,0,0,-1,1497,596,0,0
280,428,0,0,0,0,0,0,0,0,0,-1,1504,596,0,0
287,428,0,0,0,0,0,0,0,0,0,-1,1511,596,0,0
294,428,0,0,0,0,0,0,0,0,0,-1,1518,596,0,0
301,428,0,0,0,0,0,0,0,0,0,-1,1525,596,0,0
308,428,0,0,0,0,0,0,0,0,0,-1,1532,596,0,0
315,428,0,0,0,0,0,0,0,0,0,-1,1539,596,0,0
322,428,0,0,0,0,0,0,0,0,0,-1,1546,596,0,0
329,428,0,0,0,0,0,0,0,0,0,-1,1553,596,0,0
336,428,0,0,0,0,0,0,0,0,0,-1,1560,596,0,0
343,428,0,0,0,0,0,0,0,0,0,-1,1567,596,0,0
350,428,0,0,0,0,0,0,0,0,0,-1,1574,596,0,0
357,428,0,0,0,0,0,0,0,0,0,-1,1581,596,0,0
364,428,0,0,0,0,0,0,0,0,0,-1,1588,596,0,0
371,428,0,0,0,0,0,0,0,0,0,-1,1595,596,0,0
378,428,0,0,0,0,0,0,0,0,0,-1,1602,596,0,0
385,428,0,0,0,0,0,0,0,0,0,-1,1609,596,0,0
392,428,0,0,0,0,0,0,0,0,0,-1,1616,596,0,0
399,428,0,0,0,0,0,0,0,0,0,-1,1623,596,0,0
406,428,0,0,0,0,0,0,0,0,0,-1,1630,596,0,0
413,428,0,0,0,0,0,0,0,0,0,-1,1637,596,0,0
420,428,-1.00146,0.61322,0,0,0,0,0,0,0,-1,1644,596,-1.00143,-0.6132
427,428,-1.07739,0.0918579,0,0,0,0,0,0,0,-1,1651,596,-1.07734,-0.0918784
434,428,-1.03223,-0.757568,0,0,0,0,0,0,0,-1,1658,596,-1.0322,0.757545
441,428,-1.40723,-1.19849,0,0,0,0,0,0,0,-1,1665,596,-1.40728,1.19846
448,428,-1.49097,-2.04102,0,0,0,0,0,0,0,-1,1672,596,-1.49094,2.04102
455,428,-1.76257,-2.53149,0,0,0,0,0,0,0,-1,1679,596,-1.76257,2.53147
462,428,-1.74219,-0.241333,0,0,0,0,0,0,0,-1,1686,596,-1.74217,0.241329
469,428,-1.42004,0.0641479,0.00606481,0.02614,0.00374263,0.026815,0.00538977,1.39235,0.0163784,0.0451945,1693,596,-1.42003,-0.064126
476,428,-1.01599,-0.0197144,0.00792958,0.0227448,0.0032403,0.0234225,0.00725188,1.36462,0.0138459,0.0440004,1700,596,-1.01596,0.0197086
483,428,-0.354614,-0.324158,0.00739041,0.017901,0.00264246,0.0185279,0.00676347,1.33785,0.0108262,0.0401948,1707,596,-0.354618,0.324162
490,428,0.411133,-0.266174,0.00612317,0.0129006,0.00160263,0.0132605,0.00576331,1.34992,0.00767771,0.0406413,1714,596,0.411124,0.266183
497,428,0.263184,-0.466919,0.00501514,0.00818929,0.000830319,0.00839337,0.00481106,1.32979,0.00486319,0.0400206,1721,596,0.263161,0.466892
504,428,0.275024,-0.31842,0.00378604,0.00513809,0.000778532,0.00549314,0.00343098,1.14292,0.00320412,0.0378392,1728,596,0.27499,0.318421
511,428,0.00939941,-0.140381,0.00177037,0.00444631,0.00012313,0.00445196,0.00176472,1.52491,0.00258867,0.0328288,1735,596,0.00936835,0.140383
518,428,-0.00793457,-0.119446,-0.000124816,0.0036073,-0.000401822,0.00365007,-0.000167588,-1.46475,0.00249113,0.0198496,1742,596,-0.0079238,0.119427
525,428,-0.00427246,-0.0714111,-0.00115405,0.00268893,-0.00106249,0.00296312,-0.00142824,-1.31824,0.00258646,0.0123847,1749,596,-0.00425462,0.0713943
532,428,-0.00842285,-0.0517578,-0.00222272,0.00179824,-0.00106544,0.00206311,-0.00248758,-1.32714,0.00263115,0.01488,1756,596,-0.00843064,0.0517536
539,428,-0.019043,-0.098877,-0.00311254,0.000934332,-0.000829652,0.00109782,-0.00327603,-1.37624,0.00262755,0.0182104,1763,596,-0.019036,0.0988845
546,428,-0.0223389,-0.116882,-0.00288808,0.000421072,-0.000702389,0.000563987,-0.00303099,-1.37007,0.00223253,0.0145845,1770,596,-0.0222805,0.116888
553,428,-0.0291748,-0.0848999,-0.00211304,0.000318059,-0.000265356,0.000346686,-0.00214166,-1.46333,0.00155626,0.010105,1777,596,-0.0291224,0.0848743
560,428,-0.0189209,-0.0668335,-0.00111885,0.000449945,6.15305e-05,0.000452354,-0.00112126,1.53166,0.00093549,0.0105077,1784,596,-0.0189184,0.0668514
567,428,-0.0334473,-0.0668335,4.1877e-05,0.000911963,0.00033396,0.00102536,-7.15246e-05,1.24345,0.000708622,0.00998053,1791,596,-0.0334254,0.0668532
574,428,-0.0386963,-0.0801392,0.00139189,0.00109907,0.000552917,0.00181745,0.000673504,0.65597,0.00106096,0.0117192,1798,596,-0.0387235,0.0801489
581,428,-0.0402832,-0.0768433,0.00245459,0.00135004,0.000856492,0.00292143,0.000883207,0.49904,0.00173007,0.0107621,1805,596,-0.0402407,0.0768608
588,428,-0.0540771,-0.0768433,0.00346925,0.00167817,0.00117341,0.00404981,0.00109761,0.459452,0.00241851,0.0135675,1812,596,-0.0540731,0.07687
595,428,-0.0411377,-0.0825806,0.00502966,0.00218507,0.00149005,0.00566726,0.00154747,0.40433,0.00338248,0.00900438,1819,596,-0.0411799,0.0826013
602,428,-0.0137939,-0.0795288,0.00691636,0.00237811,0.00147807,0.0073553,0.00193917,0.288673,0.0044019,0.0176676,1826,596,-0.0138374,0.0795077
609,428,0.0629883,-0.0814819,0.00880648,0.00246446,0.00159096,0.00918321,0.00208773,0.232512,0.00555849,0.0359168,1833,596,0.0629335,0.0814678
616,428,0.195923,-0.112,0.0108386,0.0024059,0.00154361,0.0111123,0.00213222,0.175473,0.00680967,0.0407822,1840,596,0.195934,0.112002
623,428,0.23877,-0.0870361,0.0130462,0.00177152,0.00155038,0.0132555,0.00156221,0.134192,0.00836504,0.042486,1847,596,0.238769,0.087014
630,428,0.165039,0.076416,0.0153882,-8.23612e-06,0.00118448,0.0154788,-9.88273e-05,0.0763335,0.0103523,0.0460548,1854,596,0.165046,-0.0763925
637,428,0.0324707,-0.0727539,0.0176406,-0.00267738,0.000632186,0.0176602,-0.00269703,0.0310746,0.0127678,0.0491345,1861,596,0.0324706,0.072756
644,428,-0.0671387,-0.0645142,0,0,0,0,0,0,0,-1,1868,596,-0.0671341,0.0645367
651,428,0,0,0,0,0,0,0,0,0,-1,1875,596,0,0
658,428,0,0,0,0,0,0,0,0,0,-1,1882,596,0,0
665,428,0,0,0,0,0,0,0,0,0,-1,1889,596,0,0
672,428,0,0,0,0,0,0,0,0,0,-1,1896,596,0,0
679,428,0,0,0,0,0,0,0,0,0,-1,1903,596,0,0
686,428,0,0,0,0,0,0,0,0,0,-1,1910,596,0,0
693,428,0,0,0,0,0,0,0,0,0,-1,1917,596,0,0
700,428,0,0,0,0,0,0,0,0,0,-1,1924,596,0,0
707,428,0,0,0,0,0,0,0,0,0,-1,1931,596,0,0
714,428,0,0,0,0,0,0,0,0,0,-1,1938,596,0,0
721,428,0,0,0,0,0,0,0,0,0,-1,1945,596,0,0
728,428,0,0,0,0,0,0,0,0,0,-1,1952,596,0,0
735,428,0,0,0,0,0,0,0,0,0,-1,1959,596,0,0
742,428,0,0,0,0,0,0,0,0,0,-1,1966,596,0,0
749,428,0,0,0,0,0,0,0,0,0,-1,1973,596,0,0
756,428,0,0,0,0,0,0,0,0,0,-1,1980,596,0,0
763,428,0,0,0,0,0,0,0,0,0,-1,1987,596,0,0
770,428,0,0,0,0,0,0,0,0,0,-1,1994,596,0,0
777,428,0,0,0,0,0,0,0,0,0,-1,2001,596,0,0
784,428,0,0,0,0,0,0,0,0,0,-1,2008,596,0,0
791,428,0,0,0,0,0,0,0,0,0,-1,2015,596,0,0
798,428,0,0,0,0,0,0,0,0,0,-1,2022,596,0,0
805,428,0,0,0,0,0,0,0,0,0,-1,2029,596,0,0
812,428,0,0,0,0,0,0,0,0,0,-1,2036,596,0,0
-700,421,0,0,0,0,0,0,0,0,0,-1,524,603,0,0
-693,421,0,0,0,0,0,0,0,0,0,-1,531,603,0,0
-686,421,0,0,0,0,0,0,0,0,0,-1,538,603,0,0
-679,421,0,0,0,0,0,0,0,0,0,-1,545,603,0,0
-672,421,0,0,0,0,0,0,0,0,0,-1,552,603,0,0
-665,421,0,0,0,0,0,0,0,0,0,-1,559,603,0,0
-658,421,0,0,0,0,0,0,0,0,0,-1,566,603,0,0
-651,421,0,0,0,0,0,0,0,0,0,-1,573,603,0,0
-644,421,0,0,0,0,0,0,0,0,0,-1,580,603,0,0
-637,421,0,0,0,0,0,0,0,0,0,-1,587,603,0,0
-630,421,0,0,0,0,0,0,0,0,0,-1,594,603,0,0
-623,421,0,0,0,0,0,0,0,0,0,-1,601,603,0,0
-616,421,0,0,0,0,0,0,0,0,0,-1,608,603,0,0
-609,421,0,0,0,0,0,0,0,0,0,-1,615,603,0,0
-602,421,0,0,0,0,0,0,0,0,0,-1,622,603,0,0
-595,421,0,0,0,0,0,0,0,0,0,-1,629,603,0,0
-588,421,0,0,0,0,0,0,0,0,0,-1,636,603,0,0
-581,421,0,0,0,0,0,0,0,0,0,-1,643,603,0,0
-574,421,0,0,0,0,0,0,0,0,0,-1,650,603,0,0
-567,421,0,0,0,0,0,0,0,0,0,-1,657,603,0,0
-560,421,0,0,0,0,0,0,0,0,0,-1,664,603,0,0
-553,421,0,0,0,0,0,0,0,0,0,-1,671,603,0,0
-546,421,0,0,0,0,0,0,0,0,0,-1,678,603,0,0
-539,421,0,0,0,0,0,0,0,0,0,-1,685,603,0,0
-532,421,-1.34851,1.5274,0,0,0,0,0,0,0,-1,692,603,-1.3485,-1.52738
-525,421,-1.04553,0.823303,0,0,0,0,0,0,0,-1,699,603,-1.04552,-0.8233
-518,421,-0.809265,0.258179,-0.0176141,0.0221368,-0.00966615,0.0243627,-0.01984,-1.34447,0.0255649,0.0445141,706,603,-0.809268,-0.258193
-511,421,-0.479492,-0.0813599,-0.00872994,0.0197263,-0.0086719,0.0221608,-0.0111644,-1.29711,0.0195863,0.0447916,713,603,-0.479502,0.0813332
-504,421,-0.0557861,-0.230591,-0.00286923,0.0162948,-0.00763875,0.018967,-0.00554142,-1.23428,0.0148408,0.0467756,720,603,-0.055781,0.230613
-497,421,0.148071,-0.0587769,0.000450282,0.012805,-0.00657496,0.0156493,-0.00239399,-1.16251,0.0113156,0.0426861,727,603,0.1481,0.0587698
-490,421,0.0576782,0.151733,0.00280099,0.0100283,-0.00578295,0.0132338,-0.000404513,-1.06466,0.00896044,0.0389472,734,603,0.0576964,-0.151738
-483,421,0.0390625,0.0720825,0.00406071,0.0069029,-0.00482831,0.0105149,0.000448701,-0.92852,0.00686526,0.0322495,741,603,0.0390487,-0.0720974
-476,421,-0.0161743,-0.046814,0.00424207,0.00418828,-0.00369717,0.00791244,0.000517909,-0.781761,0.00511108,0.0179651,748,603,-0.0161585,0.0468308
-469,421,-0.0339966,-0.0668335,0.00364499,0.00206485,-0.00294713,0.00590611,-0.000196269,-0.654437,0.00400443,0.0146566,755,603,-0.0339914,0.0668189
-462,421,-0.00610352,-0.0645142,0.00313136,0.000467501,-0.00199518,0.00419834,-0.000599484,-0.491084,0.00301863,0.0174495,762,603,-0.00607677,0.0645023
-455,421,-0.0172729,-0.052002,0.00259681,-0.000453575,-0.0014998,0.00321068,-0.00106745,-0.388501,0.00257122,0.0186416,769,603,-0.0172861,0.0519729
-448,421,-0.0517578,-0.0608521,0.00220188,-0.00145937,-0.0014378,0.00269901,-0.0019565,-0.332892,0.00269923,0.0166431,776,603,-0.0517566,0.0608263
-441,421,-0.0323486,-0.0907593,0.00185218,-0.0013807,-0.00139877,0.00237337,-0.00190189,-0.356666,0.00247332,0.0124172,783,603,-0.0323637,0.0907488
-434,421,-0.0210571,-0.0927734,0.00172408,-0.000778307,-0.00158598,0.00249299,-0.00154722,-0.451427,0.00235382,0.00906363,790,603,-0.0210672,0.0927766
-427,421,-0.0130005,-0.0857544,0.00149813,0.000462641,-0.00212504,0.00316759,-0.00120681,-0.665906,0.00260876,0.00898082,797,603,-0.0130104,0.0857356
-420,421,-0.0211792,-0.0687256,0.00146431,0.00235328,-0.00259144,0.00453808,-0.000720493,-0.870332,0.00329194,0.0108491,804,603,-0.021159,0.0686997
-413,421,-0.0212402,-0.0736694,0.00156878,0.00447074,-0.00336226,0.00668174,-0.000642229,-0.989101,0.00468327,0.0117179,811,603,-0.021256,0.0736939
-406,421,-0.0256348,-0.0855103,0.00186163,0.00717895,-0.00383922,0.0091902,-0.000149617,-1.08824,0.00617728,0.0151459,818,603,-0.0256382,0.0855382
-399,421,-0.0350952,-0.0992432,0.00231094,0.010435,-0.00274168,0.0112737,0.00147227,-1.27394,0.00707629,0.013969,825,603,-0.0350948,0.0992557
-392,421,-0.0413208,-0.0952759,0.00302483,0.0143075,-0.00155531,0.014518,0.00281436,-1.43629,0.00889026,0.0136613,832,603,-0.041351,0.0952761
-385,421,-0.0719604,-0.120728,0.00494121,0.0199966,0.00244248,0.020383,0.00455488,1.41392,0.0123535,0.0293388,839,603,-0.0719347,0.120733
-378,421,-0.212585,-0.38678,0.00893863,0.0253519,0.00656848,0.0276568,0.00663366,1.23331,0.0166725,0.0417851,846,603,-0.212583,0.386806
-371,421,-0.174927,-0.594238,0.0134802,0.0312429,0.0110616,0.0365474,0.00817581,1.12365,0.0221485,0.0467211,853,603,-0.174942,0.59424
-364,421,-0.108826,-0.667603,0.0192243,0.0368947,0.0152472,0.0456815,0.0104374,1.04799,0.0276401,0.0443963,860,603,-0.108842,0.667601
-357,421,-0.0266724,-0.37793,0.0258184,0.0420936,0.0196256,0.0552018,0.0127102,0.981931,0.0333811,0.0425527,867,603,-0.0266659,0.377944
-350,421,0.268921,0.0593872,0.0337272,0.0476531,0.0241826,0.0658552,0.0155251,0.925573,0.0397522,0.043621,874,603,0.268947,-0.059413
-343,421,0.565918,0.427002,0,0,0,0,0,0,0,-1,881,603,0.565923,-0.426975
-336,421,0.181091,0.576355,0,0,0,0,0,0,0,-1,888,603,0.181075,-0.57635
-329,421,-0.730652,2.11401,0,0,0,0,0,0,0,-1,895,603,-0.730636,-2.11401
-322,421,-0.0521851,1.72119,0.073039,0.0632636,0.0257951,0.0944054,0.0418972,0.691767,0.0546196,0.0459308,902,603,-0.0521684,-1.72121
-315,421,0.562805,2.09503,0.0822011,0.0644135,0.0185086,0.0938419,0.0527727,0.561426,0.0543199,0.046685,909,603,0.562791,-2.09504
-308,421,0,0,0,0,0,0,0,0,0,-1,916,603,0,0
-301,421,0,0,0,0,0,0,0,0,0,-1,923,603,0,0
-294,421,0,0,0,0,0,0,0,0,0,-1,930,603,0,0
-287,421,0,0,0,0,0,0,0,0,0,-1,937,603,0,0
-280,421,0,0,0,0,0,0,0,0,0,-1,944,603,0,0
-273,421,0,0,0,0,0,0,0,0,0,-1,951,603,0,0
-266,421,0,0,0,0,0,0,0,0,0,-1,958,603,0,0
-259,421,0,0,0,0,0,0,0,0,0,-1,965,603,0,0
-252,421,0,0,0,0,0,0,0,0,0,-1,972,603,0,0
-245,421,0,0,0,0,0,0,0,0,0,-1,979,603,0,0
-238,421,0,0,0,0,0,0,0,0,0,-1,986,603,0,0
-231,421,0,0,0,0,0,0,0,0,0,-1,993,603,0,0
-224,421,0,0,0,0,0,0,0,0,0,-1,1000,603,0,0
-217,421,0,0,0,0,0,0,0,0,0,-1,1007,603,0,0
-210,421,0,0,0,0,0,0,0,0,0,-1,1014,603,0,0
-203,421,0,0,0,0,0,0,0,0,0,-1,1021,603,0,0
-196,421,0,0,0,0,0,0,0,0,0,-1,1028,603,0,0
-189,421,0,0,0,0,0,0,0,0,0,-1,1035,603,0,0
-182,421,0,0,0,0,0,0,0,0,0,-1,1042,603,0,0
-175,421,0,0,0,0,0,0,0,0,0,-1,1049,603,0,0
-168,421,0,0,0,0,0,0,0,0,0,-1,1056,603,0,0
-161,421,0,0,0,0,0,0,0,0,0,-1,1063,603,0,0
-154,421,0,0,0,0,0,0,0,0,0,-1,1070,603,0,0
-147,421,0,0,0,0,0,0,0,0,0,-1,1077,603,0,0
-140,421,0,0,0,0,0,0,0,0,0,-1,1084,603,0,0
-133,421,0,0,0,0,0,0,0,0,0,-1,1091,603,0,0
-126,421,0,0,0,0,0,0,0,0,0,-1,1098,603,0,0
-119,421,0,0,0,0,0,0,0,0,0,-1,1105,603,0,0
-112,421,0,0,0,0,0,0,0,0,0,-1,1112,603,0,0
-105,421,0,0,0,0,0,0,0,0,0,-1,1119,603,0,0
-98,421,0,0,0,0,0,0,0,0,0,-1,1126,603,0,0
-91,421,0,0,0,0,0,0,0,0,0,-1,1133,603,0,0
-84,421,0,0,0,0,0,0,0,0,0,-1,1140,603,0,0
-77,421,0,0,0,0,0,0,0,0,0,-1,1147,603,0,0
-70,421,0,0,0,0,0,0,0,0,0,-1,1154,603,0,0
-63,421,0,0,0,0,0,0,0,0,0,-1,1161,603,0,0
-56,421,0,0,0,0,0,0,0,0,0,-1,1168,603,0,0
-49,421,0,0,0,0,0,0,0,0,0,-1,1175,603,0,0
-42,421,0,0,0,0,0,0,0,0,0,-1,1182,603,0,0
-35,421,0,0,0,0,0,0,0,0,0,-1,1189,603,0,0
-28,421,0,0,0,0,0,0,0,0,0,-1,1196,603,0,0
-21,421,0,0,0,0,0,0,0,0,0,-1,1203,603,0,0
-14,421,0,0,0,0,0,0,0,0,0,-1,1210,603,0,0
-7,421,0,0,0,0,0,0,0,0,0,-1,1217,603,0,0
0,421,0,0,0,0,0,0,0,0,0,-1,1224,603,0,0
7,421,0,0,0,0,0,0,0,0,0,-1,1231,603,0,0
14,421,0,0,0,0,0,0,0,0,0,-1,1238,603,0,0
21,421,0,0,0,0,0,0,0,0,0,-1,1245,603,0,0
28,421,0,0,0,0,0,0,0,0,0,-1,1252,603,0,0
35,421,0,0,0,0,0,0,0,0,0,-1,1259,603,0,0
42,421,0,0,0,0,0,0,0,0,0,-1,1266,603,0,0
49,421,0,0,0,0,0,0,0,0,0,-1,1273,603,0,0
56,421,0,0,0,0,0,0,0,0,0,-1,1280,603,0,0
63,421,0,0,0,0,0,0,0,0,0,-1,1287,603,0,0
70,421,0,0,0,0,0,0,0,0,0,-1,1294,603,0,0
77,421,0,0,0,0,0,0,0,0,0,-1,1301,603,0,0
84,421,0,0,0,0,0,0,0,0,0,-1,1308,603,0,0
91,421,0,0,0,0,0,0,0,0,0,-1,1315,603,0,0
98,421,0,0,0,0,0,0,0,0,0,-1,1322,603,0,0
105,421,0,0,0,0,0,0,0,0,0,-1,1329,603,0,0
112,421,0,0,0,0,0,0,0,0,0,-1,1336,603,0,0
119,421,0,0,0,0,0,0,0,0,0,-1,1343,603,0,0
126,421,0,0,0,0,0,0,0,0,0,-1,1350,603,0,0
133,421,0,0,0,0,0,0,0,0,0,-1,1357,603,0,0
140,421,0,0,0,0,0,0,0,0,0,-1,1364,603,0,0
147,421,0,0,0,0,0,0,0,0,0,-1,1371,603,0,0
154,421,0,0,0,0,0,0,0,0,0,-1,1378,603,0,0
161,421,0,0,0,0,0,0,0,0,0,-1,1385,603,0,0
168,421,0,0,0,0,0,0,0,0,0,-1,1392,603,0,0
175,421,0,0,0,0,0,0,0,0,0,-1,1399,603,0,0
182,421,0,0,0,0,0,0,0,0,0,-1,1406,603,0,0
189,421,0,0,0,0,0,0,0,0,0,-1,1413,603,0,0
196,421,0,0,0,0,0,0,0,0,0,-1,1420,603,0,0
203,421,0,0,0,0,0,0,0,0,0,-1,1427,603,0,0
210,421,0,0,0,0,0,0,0,0,0,-1,1434,603,0,0
217,421,0,0,0,0,0,0,0,0,0,-1,1441,603,0,0
224,421,0,0,0,0,0,0,0,0,0,-1,1448,603,0,0
231,421,0,0,0,0,0,0,0,0,0,-1,1455,603,0,0
238,421,0,0,0,0,0,0,0,0,0,-1,1462,603,0,0
245,421,0,0,0,0,0,0,0,0,0,-1,1469,603,0,0
252,421,0,0,0,0,0,0,0,0,0,-1,1476,603,0,0
259,421,0,0,0,0,0,0,0,0,0,-1,1483,603,0,0
266,421,0,0,0,0,0,0,0,0,0,-1,1490,603,0,0
273,421,0,0,0,0,0,0,0,0,0,-1,1497,603,0,0
280,421,0,0,0,0,0,0,0,0,0,-1,1504,603,0,0
287,421,0,0,0,0,0,0,0,0,0,-1,1511,603,0,0
294,421,0,0,0,0,0,0,0,0,0,-1,1518,603,0,0
301,421,0,0,0,0,0,0,0,0,0,-1,1525,603,0,0
308,421,0,0,0,0,0,0,0,0,0,-1,1532,603,0,0
315,421,0,0,0,0,0,0,0,0,0,-1,1539,603,0,0
322,421,0,0,0,0,0,0,0,0,0,-1,1546,603,0,0
329,421,0,0,0,0,0,0,0,0,0,-1,1553,603,0,0
336,421,0,0,0,0,0,0,0,0,0,-1,1560,603,0,0
343,421,0,0,0,0,0,0,0,0,0,-1,1567,603,0,0
350,421,0,0,0,0,0,0,0,0,0,-1,1574,603,0,0
357,421,0,0,0,0,0,0,0,0,0,-1,1581,603,0,0
364,421,0,0,0,0,0,0,0,0,0,-1,1588,603,0,0
371,421,0,0,0,0,0,0,0,0,0,-1,1595,603,0,0
378,421,0,0,0,0,0,0,0,0,0,-1,1602,603,0,0
385,421,0,0,0,0,0,0,0,0,0,-1,1609,603,0,0
392,421,0,0,0,0,0,0,0,0,0,-1,1616,603,0,0
399,421,0,0,0,0,0,0,0,0,0,-1,1623,603,0,0
406,421,0,0,0,0,0,0,0,0,0,-1,1630,603,0,0
413,421,0,0,0,0,0,0,0,0,0,-1,1637,603,0,0
420,421,0,0,0,0,0,0,0,0,0,-1,1644,603,0,0
427,421,0,0,0,0,0,0,0,0,0,-1,1651,603,0,0
434,421,-0.922607,-0.516724,0,0,0,0,0,0,0,-1,1658,603,-0.922604,0.516727
441,421,-1.2345,-0.872559,0,0,0,0,0,0,0,-1,1665,603,-1.2345,0.872576
448,421,-1.4043,-1.75519,0,0,0,0,0,0,0,-1,1672,603,-1.40435,1.75517
455,421,-1.69104,-0.51709,0.00214718,0.0324472,0.0015921,0.0325306,0.00206375,1.51844,0.0210329,0.0429562,1679,603,-1.69103,0.517076
462,421,-1.66443,-0.110718,0.00637485,0.0308716,0.00161158,0.0309772,0.00626929,1.50538,0.0189113,0.0431345,1686,603,-1.66442,0.110723
469,421,-1.60022,0.153076,0.00965846,0.0286819,0.0015647,0.0288098,0.00953062,1.48928,0.0169478,0.047105,1693,603,-1.60018,-0.153105
476,421,-1.23938,-0.214539,0.0113163,0.0255148,0.00128001,0.0256292,0.0112019,1.4816,0.0148361,0.0456819,1700,603,-1.23936,0.214562
483,421,-0.459717,-0.562073,0.0102726,0.0206587,0.000860301,0.0207294,0.0102018,1.48871,0.0119686,0.0409823,1707,603,-0.459749,0.562053
490,421,0.232544,-0.530579,0.00852692,0.0155837,6.66057e-05,0.0155843,0.00852629,1.56136,0.00901091,0.0405047,1714,603,0.232529,0.530585
497,421,0.337769,-0.493713,0.00681819,0.0106456,-0.000491815,0.0107078,0.00675601,-1.44502,0.00625243,0.0415624,1721,603,0.337712,0.493698
504,421,0.270996,-0.315369,0,0,0,0,0,0,0,-1,1728,603,0.270959,0.315373
511,421,0.18042,-0.201294,0.00241147,0.00612974,-0.000820754,0.00630285,0.00223836,-1.36293,0.00368951,0.039961,1735,603,0.180359,0.20129
518,421,0.0478516,-0.123779,7.52229e-05,0.00478968,-0.00110462,0.00503566,-0.000170759,-1.35169,0.00341545,0.0344553,1742,603,0.0478729,0.123758
525,421,0.0109863,-0.115173,-0.00131263,0.00343527,-0.00153049,0.00388586,-0.00176322,-1.28448,0.00333736,0.0210961,1749,603,0.0110322,0.115196
532,421,-0.0245361,-0.0662842,-0.00255807,0.00221255,-0.00135039,0.00256827,-0.00291379,-1.31323,0.00316716,0.015888,1756,603,-0.0245826,0.0662762
539,421,-0.0310059,-0.108032,-0.00354812,0.000924519,-0.000952405,0.00111888,-0.00374248,-1.36949,0.0029398,0.0183151,1763,603,-0.0309905,0.108062
546,421,-0.0158691,-0.111572,-0.00341989,0.000242786,-0.000782223,0.000402848,-0.00357995,-1.36896,0.00253162,0.0121515,1770,603,-0.0158608,0.111543
553,421,-0.0224609,-0.0856934,-0.00266394,0.000136351,-0.0003502,0.000179482,-0.00270707,-1.44825,0.00186742,0.0110461,1777,603,-0.0224922,0.0856738
560,421,-0.0222168,-0.0582886,-0.00163708,0.000236929,-9.02657e-05,0.000241267,-0.00164142,-1.52278,0.00118293,0.0130237,1784,603,-0.0222672,0.0582726
567,421,-0.0429688,-0.0618286,-0.000519154,0.000587373,0.000129316,0.000602284,-0.000534066,1.45599,0.000656466,0.0145466,1791,603,-0.0429796,0.0618041
574,421,-0.0429688,-0.0894775,0.000726952,0.000753756,0.000347178,0.00108779,0.000392918,0.804689,0.00063605,0.0162075,1798,603,-0.0429807,0.0894742
581,421,-0.0373535,-0.0787964,0.00168902,0.000884878,0.000595501,0.00200548,0.000568421,0.488462,0.00119352,0.0155398,1805,603,-0.0373172,0.0787827
588,421,-0.0522461,-0.0583496,0.00254432,0.00108485,0.000858485,0.00294131,0.000687864,0.433143,0.00177655,0.0111169,1812,603,-0.0522878,0.0583636
595,421,-0.0360107,-0.0533447,0.00392039,0.00146989,0.00110399,0.00434439,0.00104589,0.366692,0.00261821,0.0138965,1819,603,-0.0360368,0.0533626
602,421,-0.0250244,-0.0681152,0.00558039,0.00143393,0.000997335,0.0058078,0.00120652,0.224188,0.00353893,0.0127197,1826,603,-0.0250341,0.068104
609,421,-0.00878906,-0.0656128,0.00711766,0.00124566,0.00105059,0.00729996,0.00106336,0.171816,0.00455376,0.018557,1833,603,-0.00876835,0.0655967
616,421,0.0236816,-0.0341187,0.00871144,0.000914842,0.00096131,0.00882822,0.000798064,0.120887,0.00563832,0.0325938,1840,603,0.0237086,0.0340942
623,421,0.0273438,-0.00689697,0.0104903,-8.73644e-06,0.00102653,0.0105898,-0.000108162,0.0965548,0.00709616,0.0397737,1847,603,0.02737,0.0069018
630,421,-0.0211182,0.0143433,0.0123955,-0.00180507,0.000715802,0.0124315,-0.00184106,0.0502367,0.0089646,0.0463081,1854,603,-0.0211265,-0.014329
637,421,-0.0957031,-0.0379639,0.0142019,-0.00408857,0.00021048,0.0142043,-0.004091,0.0115056,0.0110877,0.0482505,1861,603,-0.0956442,0.0379461
644,421,-0.174194,-0.0106201,0,0,0,0,0,0,0,-1,1868,603,-0.174198,0.0106384
651,421,0.565796,-0.102112,0,0,0,0,0,0,0,-1,1875,603,0.565803,0.102126
658,421,0,0,0,0,0,0,0,0,0,-1,1882,603,0,0
665,421,0,0,0,0,0,0,0,0,0,-1,1889,603,0,0
672,421,0,0,0,0,0,0,0,0,0,-1,1896,603,0,0
679,421,0,0,0,0,0,0,0,0,0,-1,1903,603,0,0
686,421,0,0,0,0,0,0,0,0,0,-1,1910,603,0,0
693,421,0,0,0,0,0,0,0,0,0,-1,1917,603,0,0
700,421,0,0,0,0,0,0,0,0,0,-1,1924,603,0,0
707,421,0,0,0,0,0,0,0,0,0,-1,1931,603,0,0
714,421,0,0,0,0,0,0,0,0,0,-1,1938,603,0,0
721,421,0,0,0,0,0,0,0,0,0,-1,1945,603,0,0
728,421,0,0,0,0,0,0,0,0,0,-1,1952,603,0,0
735,421,0,0,0,0,0,0,0,0,0,-1,1959,603,0,0
742,421,0,0,0,0,0,0,0,0,0,-1,1966,603,0,0
749,421,0,0,0,0,0,0,0,0,0,-1,1973,603,0,0
756,421,0,0,0,0,0,0,0,0,0,-1,1980,603,0,0
763,421,0,0,0,0,0,0,0,0,0,-1,1987,603,0,0
770,421,0,0,0,0,0,0,0,0,0,-1,1994,603,0,0
777,421,0,0,0,0,0,0,0,0,0,-1,2001,603,0,0
784,421,0,0,0,0,0,0,0,0,0,-1,2008,603,0,0
791,421,0,0,0,0,0,0,0,0,0,-1,2015,603,0,0
798,421,0,0,0,0,0,0,0,0,0,-1,2022,603,0,0
805,421,0,0,0,0,0,0,0,0,0,-1,2029,603,0,0
812,421,0,0,0,0,0,0,0,0,0,-1,2036,603,0,0
-700,414,0,0,0,0,0,0,0,0,0,-1,524,610,0,0
-693,414,0,0,0,0,0,0,0,0,0,-1,531,610,0,0
-686,414,0,0,0,0,0,0,0,0,0,-1,538,610,0,0
-679,414,0,0,0,0,0,0,0,0,0,-1,545,610,0,0
-672,414,0,0,0,0,0,0,0,0,0,-1,552,610,0,0
-665,414,0,0,0,0,0,0,0,0,0,-1,559,610,0,0
-658,414,0,0,0,0,0,0,0,0,0,-1,566,610,0,0
-651,414,0,0,0,0,0,0,0,0,0,-1,573,610,0,0
-644,414,0,0,0,0,0,0,0,0,0,-1,580,610,0,0
-637,414,0,0,0,0,0,0,0,0,0,-1,587,610,0,0
-630,414,0,0,0,0,0,0,0,0,0,-1,594,610,0,0
-623,414,0,0,0,0,0,0,0,0,0,-1,601,610,0,0
-616,414,0,0,0,0,0,0,0,0,0,-1,608,610,0,0
-609,414,0,0,0,0,0,0,0,0,0,-1,615,610,0,0
-602,414,0,0,0,0,0,0,0,0,0,-1,622,610,0,0
-595,414,0,0,0,0,0,0,0,0,0,-1,629,610,0,0
-588,414,0,0,0,0,0,0,0,0,0,-1,636,610,0,0
-581,414,0,0,0,0,0,0,0,0,0,-1,643,610,0,0
-574,414,0,0,0,0,0,0,0,0,0,-1,650,610,0,0
-567,414,0,0,0,0,0,0,0,0,0,-1,657,610,0,0
-560,414,0,0,0,0,0,0,0,0,0,-1,664,610,0,0
-553,414,0,0,0,0,0,0,0,0,0,-1,671,610,0,0
-546,414,0,0,0,0,0,0,0,0,0,-1,678,610,0,0
-539,414,2.65192,-0.345093,0,0,0,0,0,0,0,-1,685,610,2.65195,0.345077
-532,414,0.0559082,-0.253052,0,0,0,0,0,0,0,-1,692,610,0.0559341,0.253031
-525,414,0.165833,0.200989,0,0,0,0,0,0,0,-1,699,610,0.165838,-0.20096
-518,414,0.509888,-0.473999,-0.0205895,0.0168085,-0.00620428,0.0178109,-0.0215919,-1.41061,0.0227841,0.0446856,706,610,0.50986,0.473997
-511,414,-0.430786,-0.100464,-0.0124866,0.0147741,-0.00578757,0.0159519,-0.0136645,-1.37003,0.017116,0.0449695,713,610,-0.430761,0.100456
-504,414,-0.0490112,-0.408936,-0.00657772,0.0120358,-0.00495649,0.0132734,-0.00781527,-1.32612,0.0123107,0.0489795,720,610,-0.0490267,0.408912
-497,414,0.247009,-0.150024,0,0,0,0,0,0,0,-1,727,610,0.246999,0.150041
-490,414,0.0111694,-0.105774,-0.000359789,0.00737608,-0.00360929,0.0087985,-0.00178221,-1.19539,0.00654118,0.0319028,734,610,0.0111619,0.105787
-483,414,-0.00793457,-0.0695801,0.00133127,0.0050314,-0.00290435,0.00662488,-0.000262208,-1.06899,0.00450653,0.0137632,741,610,-0.00791966,0.0696082
-476,414,-0.0236206,-0.052002,0.00193495,0.00301217,-0.00203143,0.00457518,0.00037194,-0.914985,0.00293401,0.00945248,748,610,-0.0236201,0.052023
-469,414,-0.0353394,-0.052002,0.00173201,0.00143599,-0.00156234,0.00315333,1.46634e-05,-0.738171,0.00209735,0.0102372,755,610,-0.0353303,0.0520181
-462,414,-0.0299683,-0.0544434,0.00155356,0.000287102,-0.000892187,0.0020144,-0.000173733,-0.476778,0.00140443,0.0196441,762,610,-0.0299451,0.0544347
-455,414,-0.0418701,-0.0673828,0.00136644,-0.000334372,-0.000645413,0.00158363,-0.000551555,-0.324601,0.00127985,0.0232378,769,610,-0.0418656,0.0673852
-448,414,-0.0812988,-0.0703125,0.00124709,-0.00106545,-0.000813608,0.00150465,-0.00132301,-0.306585,0.00163368,0.0216637,776,610,-0.0813174,0.0702952
-441,414,-0.0355835,-0.078064,0.00114661,-0.000824222,-0.00110737,0.00164352,-0.00132114,-0.421803,0.00171502,0.0144347,783,610,-0.0356051,0.0780544
-434,414,-0.0206909,-0.0943604,0.00118552,-2.72856e-05,-0.00164685,0.00233407,-0.00117583,-0.608992,0.00206289,0.00799351,790,610,-0.0206751,0.0943602
-427,414,-0.0197144,-0.0900269,0.0011357,0.00132181,-0.00245254,0.00368306,-0.00122555,-0.80436,0.00295001,0.00875201,797,610,-0.0197217,0.0900553
-420,414,-0.0218506,-0.0712891,0.00132498,0.00355327,-0.00321147,0.00583836,-0.000960117,-0.952366,0.0042486,0.00947141,804,610,-0.0218281,0.0712615
-413,414,-0.0224609,-0.0811768,0.00156711,0.00589347,-0.00421905,0.00847157,-0.00101098,-1.02228,0.0060131,0.00952209,811,610,-0.0224589,0.0811618
-406,414,-0.0524292,-0.0939331,0.00193086,0.00899153,-0.00490896,0.0115078,-0.000585387,-1.09713,0.00787424,0.0117511,818,610,-0.0524558,0.093908
-399,414,-0.0635376,-0.118286,0.00237531,0.0129586,-0.00407879,0.0143481,0.000985787,-1.24246,0.00925435,0.0159929,825,610,-0.0635179,0.118256
-392,414,-0.0559082,-0.169617,0.00306235,0.0177912,-0.00299695,0.0183777,0.0024759,-1.37755,0.0115156,0.0246167,832,610,-0.0559131,0.169629
-385,414,-0.188538,-0.472046,0.00516857,0.0250733,0.00131092,0.0251593,0.0050826,1.50531,0.0153615,0.0395449,839,610,-0.188523,0.47207
-378,414,-0.319275,-0.726563,0.00968264,0.0319215,0.00576474,0.033327,0.00827714,1.33165,0.0200372,0.0455709,846,610,-0.319297,0.726547
-371,414,-0.308105,-0.772461,0.0146174,0.0394965,0.0106905,0.0434591,0.0106548,1.21583,0.0261548,0.044397,853,610,-0.308089,0.77245
-364,414,-0.322205,-0.907288,0.0208966,0.0471525,0.0154191,0.0542753,0.0137739,1.13805,0.0325777,0.0439981,860,610,-0.322178,0.907274
-357,414,-0.310669,-0.874695,0.0281566,0.0547101,0.0206353,0.0659709,0.0168959,1.07126,0.0395699,0.0441136,867,610,-0.310687,0.874673
-350,414,-0.500183,-0.936279,0.0368674,0.0629746,0.0262474,0.0792352,0.0206068,1.01615,0.0474696,0.0436713,874,610,-0.500168,0.936307
-343,414,-0.5802,-0.825684,0.0469892,0.0717243,0.031127,0.0928507,0.0258628,0.974497,0.0553324,0.0443881,881,610,-0.580183,0.825674
-336,414,0.295349,0.342834,0.0581948,0.0784076,0.0348264,0.104564,0.032038,0.926617,0.0618604,0.0460598,888,610,0.295321,-0.34283
-329,414,0.143677,0.903809,0.0701157,0.0848832,0.0365355,0.114774,0.0402253,0.885104,0.067245,0.0459725,895,610,0.143651,-0.903822
-322,414,0.151978,1.34119,0.0820719,0.0907341,0.0339578,0.120636,0.0521701,0.848828,0.0698607,0.0430416,902,610,0.151964,-1.34116
-315,414,0,0,0,0,0,0,0,0,0,-1,909,610,0,0
-308,414,0,0,0,0,0,0,0,0,0,-1,916,610,0,0
-301,414,0,0,0,0,0,0,0,0,0,-1,923,610,0,0
-294,414,0,0,0,0,0,0,0,0,0,-1,930,610,0,0
-287,414,0,0,0,0,0,0,0,0,0,-1,937,610,0,0
-280,414,0,0,0,0,0,0,0,0,0,-1,944,610,0,0
-273,414,0,0,0,0,0,0,0,0,0,-1,951,610,0,0
-266,414,0,0,0,0,0,0,0,0,0,-1,958,610,0,0
-259,414,0,0,0,0,0,0,0,0,0,-1,965,610,0,0
-252,414,0,0,0,0,0,0,0,0,0,-1,972,610,0,0
-245,414,0,0,0,0,0,0,0,0,0,-1,979,610,0,0
-238,414,0,0,0,0,0,0,0,0,0,-1,986,610,0,0
-231,414,0,0,0,0,0,0,0,0,0,-1,993,610,0,0
-224,414,0,0,0,0,0,0,0,0,0,-1,1000,610,0,0
-217,414,0,0,0,0,0,0,0,0,0,-1,1007,610,0,0
-210,414,0,0,0,0,0,0,0,0,0,-1,1014,610,0,0
-203,414,0,0,0,0,0,0,0,0,0,-1,1021,610,0,0
-196,414,0,0,0,0,0,0,0,0,0,-1,1028,610,0,0
-189,414,0,0,0,0,0,0,0,0,0,-1,1035,610,0,0
-182,414,0,0,0,0,0,0,0,0,0,-1,1042,610,0,0
-175,414,0,0,0,0,0,0,0,0,0,-1,1049,610,0,0
-168,414,0,0,0,0,0,0,0,0,0,-1,1056,610,0,0
-161,414,0,0,0,0,0,0,0,0,0,-1,1063,610,0,0
-154,414,0,0,0,0,0,0,0,0,0,-1,1070,610,0,0
-147,414,0,0,0,0,0,0,0,0,0,-1,1077,610,0,0
-140,414,0,0,0,0,0,0,0,0,0,-1,1084,610,0,0
-133,414,0,0,0,0,0,0,0,0,0,-1,1091,610,0,0
-126,414,0,0,0,0,0,0,0,0,0,-1,1098,610,0,0
-119,414,0,0,0,0,0,0,0,0,0,-1,1105,610,0,0
-112,414,0,0,0,0,0,0,0,0,0,-1,1112,610,0,0
-105,414,0,0,0,0,0,0,0,0,0,-1,1119,610,0,0
-98,414,0,0,0,0,0,0,0,0,0,-1,1126,610,0,0
-91,414,0,0,0,0,0,0,0,0,0,-1,1133,610,0,0
-84,414,0,0,0,0,0,0,0,0,0,-1,1140,610,0,0
-77,414,0,0,0,0,0,0,0,0,0,-1,1147,610,0,0
-70,414,0,0,0,0,0,0,0,0,0,-1,1154,610,0,0
-63,414,0,0,0,0,0,0,0,0,0,-1,1161,610,0,0
-56,414,0,0,0,0,0,0,0,0,0,-1,1168,610,0,0
-49,414,0,0,0,0,0,0,0,0,0,-1,1175,610,0,0
-42,414,0,0,0,0,0,0,0,0,0,-1,1182,610,0,0
-35,414,0,0,0,0,0,0,0,0,0,-1,1189,610,0,0
-28,414,0,0,0,0,0,0,0,0,0,-1,1196,610,0,0
-21,414,0,0,0,0,0,0,0,0,0,-1,1203,610,0,0
-14,414,0,0,0,0,0,0,0,0,0,-1,1210,610,0,0
-7,414,0,0,0,0,0,0,0,0,0,-1,1217,610,0,0
0,414,0,0,0,0,0,0,0,0,0,-1,1224,610,0,0
7,414,0,0,0,0,0,0,0,0,0,-1,1231,610,0,0
14,414,0,0,0,0,0,0,0,0,0,-1,1238,610,0,0
21,414,0,0,0,0,0,0,0,0,0,-1,1245,610,0,0
28,414,0,0,0,0,0,0,0,0,0,-1,1252,610,0,0
35,414,0,0,0,0,0,0,0,0,0,-1,1259,610,0,0
42,414,0,0,0,0,0,0,0,0,0,-1,1266,610,0,0
49,414,0,0,0,0,0,0,0,0,0,-1,1273,610,0,0
56,414,0,0,0,0,0,0,0,0,0,-1,1280,610,0,0
63,414,0,0,0,0,0,0,0,0,0,-1,1287,610,0,0
70,414,0,0,0,0,0,0,0,0,0,-1,1294,610,0,0
77,414,0,0,0,0,0,0,0,0,0,-1,1301,610,0,0
84,414,0,0,0,0,0,0,0,0,0,-1,1308,610,0,0
91,414,0,0,0,0,0,0,0,0,0,-1,1315,610,0,0
98,414,0,0,0,0,0,0,0,0,0,-1,1322,610,0,0
105,414,0,0,0,0,0,0,0,0,0,-1,1329,610,0,0
112,414,0,0,0,0,0,0,0,0,0,-1,1336,610,0,0
119,414,0,0,0,0,0,0,0,0,0,-1,1343,610,0,0
126,414,0,0,0,0,0,0,0,0,0,-1,1350,610,0,0
133,414,0,0,0,0,0,0,0,0,0,-1,1357,610,0,0
140,414,0,0,0,0,0,0,0,0,0,-1,1364,610,0,0
147,414,0,0,0,0,0,0,0,0,0,-1,1371,610,0,0
154,414,0,0,0,0,0,0,0,0,0,-1,1378,610,0,0
161,414,0,0,0,0,0,0,0,0,0,-1,1385,610,0,0
168,414,0,0,0,0,0,0,0,0,0,-1,1392,610,0,0
175,414,0,0,0,0,0,0,0,0,0,-1,1399,610,0,0
182,414,0,0,0,0,0,0,0,0,0,-1,1406,610,0,0
189,414,0,0,0,0,0,0,0,0,0,-1,1413,610,0,0
196,414,0,0,0,0,0,0,0,0,0,-1,1420,610,0,0
203,414,0,0,0,0,0,0,0,0,0,-1,1427,610,0,0
210,414,0,0,0,0,0,0,0,0,0,-1,1434,610,0,0
217,414,0,0,0,0,0,0,0,0,0,-1,1441,610,0,0
224,414,0,0,0,0,0,0,0,0,0,-1,1448,610,0,0
231,414,0,0,0,0,0,0,0,0,0,-1,1455,610,0,0
238,414,0,0,0,0,0,0,0,0,0,-1,1462,610,0,0
245,414,0,0,0,0,0,0,0,0,0,-1,1469,610,0,0
252,414,0,0,0,0,0,0,0,0,0,-1,1476,610,0,0
259,414,0,0,0,0,0,0,0,0,0,-1,1483,610,0,0
266,414,0,0,0,0,0,0,0,0,0,-1,1490,610,0,0
273,414,0,0,0,0,0,0,0,0,0,-1,1497,610,0,0
280,414,0,0,0,0,0,0,0,0,0,-1,1504,610,0,0
287,414,0,0,0,0,0,0,0,0,0,-1,1511,610,0,0
294,414,0,0,0,0,0,0,0,0,0,-1,1518,610,0,0
301,414,0,0,0,0,0,0,0,0,0,-1,1525,610,0,0
308,414,0,0,0,0,0,0,0,0,0,-1,1532,610,0,0
315,414,0,0,0,0,0,0,0,0,0,-1,1539,610,0,0
322,414,0,0,0,0,0,0,0,0,0,-1,1546,610,0,0
329,414,0,0,0,0,0,0,0,0,0,-1,1553,610,0,0
336,414,0,0,0,0,0,0,0,0,0,-1,1560,610,0,0
343,414,0,0,0,0,0,0,0,0,0,-1,1567,610,0,0
350,414,0,0,0,0,0,0,0,0,0,-1,1574,610,0,0
357,414,0,0,0,0,0,0,0,0,0,-1,1581,610,0,0
364,414,0,0,0,0,0,0,0,0,0,-1,1588,610,0,0
371,414,0,0,0,0,0,0,0,0,0,-1,1595,610,0,0
378,414,0,0,0,0,0,0,0,0,0,-1,1602,610,0,0
385,414,0,0,0,0,0,0,0,0,0,-1,1609,610,0,0
392,414,0,0,0,0,0,0,0,0,0,-1,1616,610,0,0
399,414,0,0,0,0,0,0,0,0,0,-1,1623,610,0,0
406,414,0,0,0,0,0,0,0,0,0,-1,1630,610,0,0
413,414,0,0,0,0,0,0,0,0,0,-1,1637,610,0,0
420,414,0,0,0,0,0,0,0,0,0,-1,1644,610,0,0
427,414,0,0,0,0,0,0,0,0,0,-1,1651,610,0,0
434,414,0,0,0,0,0,0,0,0,0,-1,1658,610,0,0
441,414,0.884888,0.437622,0,0,0,0,0,0,0,-1,1665,610,0.884862,-0.437602
448,414,-1.33606,-1.13751,0,0,0,0,0,0,0,-1,1672,610,-1.33602,1.1375
455,414,-1.83972,0.036438,0.00218195,0.0319418,-0.00145773,0.032013,0.00211072,-1.52197,0.0206744,0.0434573,1679,610,-1.83975,-0.0364228
462,414,-1.60901,0.254578,0.00667851,0.0322286,-0.000759572,0.0322512,0.00665595,-1.5411,0.0196613,0.0476251,1686,610,-1.60895,-0.254586
469,414,-1.5,0.350037,0,0,0,0,0,0,0,-1,1693,610,-1.50004,-0.350038
476,414,-0.970093,-0.474731,0,0,0,0,0,0,0,-1,1700,610,-0.970132,0.474742
483,414,-0.247192,-1.21124,0,0,0,0,0,0,0,-1,1707,610,-0.247179,1.21123
490,414,0.898804,0.205811,0,0,0,0,0,0,0,-1,1714,610,0.898836,-0.20583
497,414,0.879883,-0.0690308,0.00723807,0.0126191,-0.00156351,0.0130404,0.00681676,-1.30758,0.00753147,0.0430419,1721,610,0.879908,0.0690048
504,414,0.80249,-0.182434,0.0049423,0.00907388,-0.00127555,0.00943595,0.00458023,-1.29422,0.00544862,0.0425572,1728,610,0.802534,0.182456
511,414,0.478516,-0.139526,0.00214845,0.00751975,-0.00157128,0.00794563,0.00172257,-1.30611,0.00482647,0.0424983,1735,610,0.478565,0.139515
518,414,0.299561,-0.118835,-0.000364524,0.00576042,-0.00162824,0.00616637,-0.000770466,-1.32646,0.00439033,0.0399613,1742,610,0.299541,0.118818
525,414,0.0362549,-0.161987,-0.00189965,0.0040294,-0.00181867,0.0045428,-0.00241305,-1.29566,0.00407823,0.0335659,1749,610,0.0362523,0.162009
532,414,-0.0441895,-0.067749,-0.00315093,0.00250724,-0.00149872,0.0028797,-0.00352339,-1.32721,0.00370305,0.0243972,1756,610,-0.0442451,0.0677404
539,414,-0.0460205,-0.06604,-0.00408723,0.000903015,-0.00098911,0.00109191,-0.00427613,-1.38209,0.00327595,0.0153421,1763,610,-0.0460038,0.0660693
546,414,-0.038208,-0.0971069,-0.00394216,8.1524e-05,-0.000786228,0.000229696,-0.00409033,-1.38452,0.00280659,0.0116114,1770,610,-0.0382194,0.0971176
553,414,-0.0283203,-0.0958862,-0.00316859,-6.14677e-05,-0.00038893,-1.35237e-05,-0.00321653,-1.44814,0.00213986,0.0112045,1777,610,-0.0283072,0.0958716
560,414,-0.0170898,-0.0602417,-0.00207888,-2.06777e-05,-0.000243113,7.64884e-06,-0.00210721,-1.4548,0.00140736,0.0125012,1784,610,-0.01709,0.0602281
567,414,-0.0217285,-0.0680542,-0.000982132,0.000213585,-9.44723e-05,0.000221003,-0.00098955,-1.49244,0.000744385,0.0196775,1791,610,-0.0217132,0.0680681
574,414,-0.0283203,-0.0900879,0.000157458,0.000383624,9.62286e-05,0.000419026,0.000122056,1.21827,0.000248851,0.0189408,1798,610,-0.0282798,0.0900903
581,414,-0.0288086,-0.0794678,0.00102404,0.000449254,0.000263239,0.00112638,0.000346917,0.370779,0.000666107,0.0160021,1805,610,-0.0287671,0.0794442
588,414,-0.0472412,-0.0740967,0.00176771,0.000583627,0.000441661,0.0019143,0.000437037,0.320466,0.00115834,0.0152775,1812,610,-0.0471836,0.0741168
595,414,-0.0203857,-0.0584717,0.00301024,0.000905756,0.000588081,0.00316342,0.000752572,0.254819,0.00190822,0.0205816,1819,610,-0.0204011,0.0584906
602,414,-0.0203857,-0.079834,0.00450072,0.000717778,0.000373966,0.00453733,0.000681164,0.0975971,0.00282534,0.0229549,1826,610,-0.0203674,0.079839
609,414,-0.00976563,-0.0737305,0.00574275,0.000351534,0.000343222,0.00576451,0.000329771,0.0633224,0.00373794,0.0116285,1833,610,-0.00981191,0.0737276
616,414,-0.0286865,-0.0304565,0.00696149,-0.000149318,0.000175263,0.00696581,-0.000153636,0.0246275,0.00469592,0.0161372,1840,610,-0.028684,0.0304715
623,414,-0.0794678,-0.017395,0.00840089,-0.0012232,0.000242155,0.00840698,-0.00122929,0.0251401,0.00605615,0.0274916,1847,610,-0.0794758,0.0173975
630,414,-0.0919189,-0.0102539,0.00998232,-0.0029744,-4.38927e-05,0.00998247,-0.00297455,-0.00338759,0.00783698,0.0367687,1854,610,-0.0919112,0.0102508
637,414,-0.0489502,0.199463,0.0115202,-0.00485694,-0.000538513,0.0115379,-0.00487463,-0.0328347,0.00973259,0.0421672,1861,610,-0.048937,-0.19944
644,414,0.276978,0.34137,0.0130274,-0.00742002,-0.00101945,0.0130781,-0.00747072,-0.0496928,0.0120102,0.0464985,1868,610,0.276967,-0.341372
651,414,0.914307,-0.067627,0,0,0,0,0,0,0,-1,1875,610,0.914337,0.0676098
658,414,1.5177,-0.368225,0,0,0,0,0,0,0,-1,1882,610,1.51771,0.368198
665,414,0,0,0,0,0,0,0,0,0,-1,1889,610,0,0
672,414,0,0,0,0,0,0,0,0,0,-1,1896,610,0,0
679,414,0,0,0,0,0,0,0,0,0,-1,1903,610,0,0
686,414,0,0,0,0,0,0,0,0,0,-1,1910,610,0,0
693,414,0,0,0,0,0,0,0,0,0,-1,1917,610,0,0
700,414,0,0,0,0,0,0,0,0,0,-1,1924,610,0,0
707,414,0,0,0,0,0,0,0,0,0,-1,1931,610,0,0
714,414,0,0,0,0,0,0,0,0,0,-1,1938,610,0,0
721,414,0,0,0,0,0,0,0,0,0,-1,1945,610,0,0
728,414,0,0,0,0,0,0,0,0,0,-1,1952,610,0,0
735,414,0,0,0,0,0,0,0,0,0,-1,1959,610,0,0
742,414,0,0,0,0,0,0,0,0,0,-1,1966,610,0,0
749,414,0,0,0,0,0,0,0,0,0,-1,1973,610,0,0
756,414,0,0,0,0,0,0,0,0,0,-1,1980,610,0,0
763,414,0,0,0,0,0,0,0,0,0,-1,1987,610,0,0
770,414,0,0,0,0,0,0,0,0,0,-1,1994,610,0,0
777,414,0,0,0,0,0,0,0,0,0,-1,2001,610,0,0
784,414,0,0,0,0,0,0,0,0,0,-1,2008,610,0,0
791,414,0,0,0,0,0,0,0,0,0,-1,2015,610,0,0
798,414,0,0,0,0,0,0,0,0,0,-1,2022,610,0,0
805,414,0,0,0,0,0,0,0,0,0,-1,2029,610,0,0
812,414,0,0,0,0,0,0,0,0,0,-1,2036,610,0,0
-700,407,0,0,0,0,0,0,0,0,0,-1,524,617,0,0
-693,407,0,0,0,0,0,0,0,0,0,-1,531,617,0,0
-686,407,0,0,0,0,0,0,0,0,0,-1,538,617,0,0
-679,407,0,0,0,0,0,0,0,0,0,-1,545,617,0,0
-672,407,0,0,0,0,0,0,0,0,0,-1,552,617,0,0
-665,407,0,0,0,0,0,0,0,0,0,-1,559,617,0,0
-658,407,0,0,0,0,0,0,0,0,0,-1,566,617,0,0
-651,407,0,0,0,0,0,0,0,0,0,-1,573,617,0,0
-644,407,0,0,0,0,0,0,0,0,0,-1,580,617,0,0
-637,407,0,0,0,0,0,0,0,0,0,-1,587,617,0,0
-630,407,0,0,0,0,0,0,0,0,0,-1,594,617,0,0
-623,407,0,0,0,0,0,0,0,0,0,-1,601,617,0,0
-616,407,0,0,0,0,0,0,0,0,0,-1,608,617,0,0
-609,407,0,0,0,0,0,0,0,0,0,-1,615,617,0,0
-602,407,0,0,0,0,0,0,0,0,0,-1,622,617,0,0
-595,407,0,0,0,0,0,0,0,0,0,-1,629,617,0,0
-588,407,0,0,0,0,0,0,0,0,0,-1,636,617,0,0
-581,407,0,0,0,0,0,0,0,0,0,-1,643,617,0,0
-574,407,0,0,0,0,0,0,0,0,0,-1,650,617,0,0
-567,407,0,0,0,0,0,0,0,0,0,-1,657,617,0,0
-560,407,0,0,0,0,0,0,0,0,0,-1,664,617,0,0
-553,407,0,0,0,0,0,0,0,0,0,-1,671,617,0,0
-546,407,3.27039,-0.0620117,-0.066037,0.00968856,0.00605993,0.0101704,-0.0665189,1.49144,0.0480958,0.0476237,678,617,3.27036,0.0620174
-539,407,2.23022,-0.298706,-0.0519777,0.0133338,0.0016882,0.0133774,-0.0520213,1.54497,0.0398947,0.045553,685,617,2.2302,0.298695
-532,407,-0.0255127,-0.449951,-0.03937,0.0145032,-0.000992965,0.0145215,-0.0393883,-1.55237,0.0322097,0.0447667,692,617,-0.025495,0.449952
-525,407,-0.0368652,-0.28009,0,0,0,0,0,0,0,-1,699,617,-0.0368748,0.280116
-518,407,0.410278,-0.424316,-0.0203878,0.0129622,-0.00356585,0.0133392,-0.0207648,-1.46546,0.0198449,0.0453244,706,617,0.410286,0.424346
-511,407,0.915649,-0.556641,-0.0135296,0.010971,-0.00377638,0.0115398,-0.0140985,-1.42128,0.0148269,0.0491771,713,617,0.915632,0.556655
-504,407,-0.111084,-0.533752,-0.00806463,0.0085654,-0.00333696,0.00921,-0.00870923,-1.37998,0.010347,0.048582,720,617,-0.111105,0.533762
-497,407,0.173157,-0.00732422,-0.00461101,0.00655187,-0.00292077,0.00726991,-0.00532905,-1.32974,0.00730272,0.0349643,727,617,0.17318,0.00730313
-490,407,-0.0289307,-0.0961914,-0.00182938,0.00508329,-0.00261196,0.00595923,-0.00270532,-1.24723,0.00511872,0.0174762,734,617,-0.0289295,0.0961798
-483,407,-0.039856,-0.0548096,4.97053e-05,0.00339769,-0.00214769,0.00444672,-0.000999323,-1.11644,0.00334768,0.00952175,741,617,-0.0398672,0.054786
-476,407,-0.0174561,-0.062561,0.000881037,0.00200331,-0.00148624,0.00303082,-0.000146471,-0.965902,0.00207109,0.00888927,748,617,-0.0174837,0.0625898
-469,407,-0.0148315,-0.0632935,0.000894067,0.000969377,-0.0011953,0.00212761,-0.00026417,-0.801144,0.00151417,0.0111418,755,617,-0.0148484,0.0632888
-462,407,-0.0545654,-0.0447388,0.000868495,0.000299383,-0.000701867,0.0013413,-0.000173418,-0.59281,0.000957254,0.0183066,762,617,-0.0545926,0.0447384
-455,407,-0.0692749,-0.0512695,0.000824282,1.8841e-05,-0.00058502,0.0011318,-0.000288672,-0.483953,0.000866926,0.0208134,769,617,-0.0692705,0.0512472
-448,407,-0.0608521,-0.0609131,0.000789666,-0.00036648,-0.000854956,0.00124364,-0.000820453,-0.488131,0.00120002,0.0173917,776,617,-0.0608811,0.0609339
-441,407,-0.0304565,-0.0639648,0.000760709,0.000133345,-0.00135578,0.00183862,-0.000944569,-0.671715,0.00163428,0.012447,783,617,-0.0304842,0.0639912
-434,407,-0.0187988,-0.067749,0.000794785,0.0011935,-0.00213955,0.00314296,-0.00115467,-0.831853,0.00256823,0.00839893,790,617,-0.0187872,0.0677249
-427,407,-0.0158691,-0.0817871,0.000764814,0.00268544,-0.00312666,0.00499594,-0.00154568,-0.934394,0.00394803,0.00883105,797,617,-0.0158602,0.0817996
-420,407,-0.0198975,-0.0751953,0.000996909,0.00520462,-0.00404188,0.0076574,-0.00145588,-1.02536,0.00565307,0.00968246,804,617,-0.0198871,0.0751788
-413,407,-0.0126343,-0.0699463,0.00123218,0.00787442,-0.00526818,0.0107809,-0.00167435,-1.06664,0.00780551,0.00980801,811,617,-0.0126514,0.0699763
-406,407,-0.0323486,-0.0690918,0.00158287,0.0114242,-0.00622184,0.014436,-0.00142894,-1.11997,0.010134,0.0165632,818,617,-0.0323771,0.0691194
-399,407,-0.0522461,-0.101868,0.00192576,0.0161434,-0.00573647,0.0181692,-0.000100104,-1.23131,0.0121463,0.0330948,825,617,-0.0522641,0.101851
-392,407,-0.0888062,-0.215149,0.00250978,0.0219604,-0.00484076,0.0230985,0.00137164,-1.33987,0.0149628,0.0440124,832,617,-0.0887941,0.215165
-385,407,-0.0703735,-0.561768,0.00474822,0.0308592,-0.00032366,0.0308632,0.00474421,-1.5584,0.0191906,0.0454895,839,617,-0.0703911,0.561763
-378,407,0.153687,-0.58429,0.00975637,0.0391773,0.00436394,0.0398109,0.00912273,1.4266,0.0240827,0.0445037,846,617,0.153666,0.58431
-371,407,0.324097,-0.240784,0.0150036,0.0484328,0.00961946,0.0510033,0.0124332,1.30969,0.0307085,0.0457544,853,617,0.324072,0.240789
-364,407,0.282471,-0.210999,0.0217018,0.0581651,0.0147208,0.0633662,0.0165007,1.23117,0.0379588,0.044604,860,617,0.282484,0.211
-357,407,0.381165,-0.300476,0,0,0,0,0,0,0,-1,867,617,0.381165,0.300485
-350,407,-0.749512,-1.55444,0.0390524,0.0801315,0.0273098,0.0937636,0.0254204,1.10782,0.0559932,0.0477534,874,617,-0.749494,1.55442
-343,407,-1.08185,-1.48303,0.05041,0.0932422,0.033996,0.112005,0.0316468,1.06648,0.0666737,0.045091,881,617,-1.08183,1.48301
-336,407,-1.24634,-1.21375,0.0633744,0.103322,0.0403225,0.128347,0.0383498,1.01536,0.0760745,0.0477749,888,617,-1.24635,1.21377
-329,407,0.56604,0.512268,0.0776974,0.113184,0.0446153,0.143455,0.0474265,0.974656,0.0843931,0.0474412,895,617,0.566057,-0.512249
-322,407,0,0,0,0,0,0,0,0,0,-1,902,617,0,0
-315,407,0,0,0,0,0,0,0,0,0,-1,909,617,0,0
-308,407,0,0,0,0,0,0,0,0,0,-1,916,617,0,0
-301,407,0,0,0,0,0,0,0,0,0,-1,923,617,0,0
-294,407,0,0,0,0,0,0,0,0,0,-1,930,617,0,0
-287,407,0,0,0,0,0,0,0,0,0,-1,937,617,0,0
-280,407,0,0,0,0,0,0,0,0,0,-1,944,617,0,0
-273,407,0,0,0,0,0,0,0,0,0,-1,951,617,0,0
-266,407,0,0,0,0,0,0,0,0,0,-1,958,617,0,0
-259,407,0,0,0,0,0,0,0,0,0,-1,965,617,0,0
-252,407,0,0,0,0,0,0,0,0,0,-1,972,617,0,0
-245,407,0,0,0,0,0,0,0,0,0,-1,979,617,0,0
-238,407,0,0,0,0,0,0,0,0,0,-1,986,617,0,0
-231,407,0,0,0,0,0,0,0,0,0,-1,993,617,0,0
-224,407,0,0,0,0,0,0,0,0,0,-1,1000,617,0,0
-217,407,0,0,0,0,0,0,0,0,0,-1,1007,617,0,0
-210,407,0,0,0,0,0,0,0,0,0,-1,1014,617,0,0
-203,407,0,0,0,0,0,0,0,0,0,-1,1021,617,0,0
-196,407,0,0,0,0,0,0,0,0,0,-1,1028,617,0,0
-189,407,0,0,0,0,0,0,0,0,0,-1,1035,617,0,0
-182,407,0,0,0,0,0,0,0,0,0,-1,1042,617,0,0
-175,407,0,0,0,0,0,0,0,0,0,-1,1049,617,0,0
-168,407,0,0,0,0,0,0,0,0,0,-1,1056,617,0,0
-161,407,0,0,0,0,0,0,0,0,0,-1,1063,617,0,0
-154,407,0,0,0,0,0,0,0,0,0,-1,1070,617,0,0
-147,407,0,0,0,0,0,0,0,0,0,-1,1077,617,0,0
-140,407,0,0,0,0,0,0,0,0,0,-1,1084,617,0,0
-133,407,0,0,0,0,0,0,0,0,0,-1,1091,617,0,0
-126,407,0,0,0,0,0,0,0,0,0,-1,1098,617,0,0
-119,407,0,0,0,0,0,0,0,0,0,-1,1105,617,0,0
-112,407,0,0,0,0,0,0,0,0,0,-1,1112,617,0,0
-105,407,0,0,0,0,0,0,0,0,0,-1,1119,617,0,0
-98,407,0,0,0,0,0,0,0,0,0,-1,1126,617,0,0
-91,407,0,0,0,0,0,0,0,0,0,-1,1133,617,0,0
-84,407,0,0,0,0,0,0,0,0,0,-1,1140,617,0,0
-77,407,0,0,0,0,0,0,0,0,0,-1,1147,617,0,0
-70,407,0,0,0,0,0,0,0,0,0,-1,1154,617,0,0
-63,407,0,0,0,0,0,0,0,0,0,-1,1161,617,0,0
-56,407,0,0,0,0,0,0,0,0,0,-1,1168,617,0,0
-49,407,0,0,0,0,0,0,0,0,0,-1,1175,617,0,0
-42,407,0,0,0,0,0,0,0,0,0,-1,1182,617,0,0
-35,407,0,0,0,0,0,0,0,0,0,-1,1189,617,0,0
-28,407,0,0,0,0,0,0,0,0,0,-1,1196,617,0,0
-21,407,0,0,0,0,0,0,0,0,0,-1,1203,617,0,0
-14,407,0,0,0,0,0,0,0,0,0,-1,1210,617,0,0
-7,407,0,0,0,0,0,0,0,0,0,-1,1217,617,0,0
0,407,0,0,0,0,0,0,0,0,0,-1,1224,617,0,0
7,407,0,0,0,0,0,0,0,0,0,-1,1231,617,0,0
14,407,0,0,0,0,0,0,0,0,0,-1,1238,617,0,0
21,407,0,0,0,0,0,0,0,0,0,-1,1245,617,0,0
28,407,0,0,0,0,0,0,0,0,0,-1,1252,617,0,0
35,407,0,0,0,0,0,0,0,0,0,-1,1259,617,0,0
42,407,0,0,0,0,0,0,0,0,0,-1,1266,617,0,0
49,407,0,0,0,0,0,0,0,0,0,-1,1273,617,0,0
56,407,0,0,0,0,0,0,0,0,0,-1,1280,617,0,0
63,407,0,0,0,0,0,0,0,0,0,-1,1287,617,0,0
70,407,0,0,0,0,0,0,0,0,0,-1,1294,617,0,0
77,407,0,0,0,0,0,0,0,0,0,-1,1301,617,0,0
84,407,0,0,0,0,0,0,0,0,0,-1,1308,617,0,0
91,407,0,0,0,0,0,0,0,0,0,-1,1315,617,0,0
98,407,0,0,0,0,0,0,0,0,0,-1,1322,617,0,0
105,407,0,0,0,0,0,0,0,0,0,-1,1329,617,0,0
112,407,0,0,0,0,0,0,0,0,0,-1,1336,617,0,0
119,407,0,0,0,0,0,0,0,0,0,-1,1343,617,0,0
126,407,0,0,0,0,0,0,0,0,0,-1,1350,617,0,0
133,407,0,0,0,0,0,0,0,0,0,-1,1357,617,0,0
140,407,0,0,0,0,0,0,0,0,0,-1,1364,617,0,0
147,407,0,0,0,0,0,0,0,0,0,-1,1371,617,0,0
154,407,0,0,0,0,0,0,0,0,0,-1,1378,617,0,0
161,407,0,0,0,0,0,0,0,0,0,-1,1385,617,0,0
168,407,0,0,0,0,0,0,0,0,0,-1,1392,617,0,0
175,407,0,0,0,0,0,0,0,0,0,-1,1399,617,0,0
182,407,0,0,0,0,0,0,0,0,0,-1,1406,617,0,0
189,407,0,0,0,0,0,0,0,0,0,-1,1413,617,0,0
196,407,0,0,0,0,0,0,0,0,0,-1,1420,617,0,0
203,407,0,0,0,0,0,0,0,0,0,-1,1427,617,0,0
210,407,0,0,0,0,0,0,0,0,0,-1,1434,617,0,0
217,407,0,0,0,0,0,0,0,0,0,-1,1441,617,0,0
224,407,0,0,0,0,0,0,0,0,0,-1,1448,617,0,0
231,407,0,0,0,0,0,0,0,0,0,-1,1455,617,0,0
238,407,0,0,0,0,0,0,0,0,0,-1,1462,617,0,0
245,407,0,0,0,0,0,0,0,0,0,-1,1469,617,0,0
252,407,0,0,0,0,0,0,0,0,0,-1,1476,617,0,0
259,407,0,0,0,0,0,0,0,0,0,-1,1483,617,0,0
266,407,0,0,0,0,0,0,0,0,0,-1,1490,617,0,0
273,407,0,0,0,0,0,0,0,0,0,-1,1497,617,0,0
280,407,0,0,0,0,0,0,0,0,0,-1,1504,617,0,0
287,407,0,0,0,0,0,0,0,0,0,-1,1511,617,0,0
294,407,0,0,0,0,0,0,0,0,0,-1,1518,617,0,0
301,407,0,0,0,0,0,0,0,0,0,-1,1525,617,0,0
308,407,0,0,0,0,0,0,0,0,0,-1,1532,617,0,0
315,407,0,0,0,0,0,0,0,0,0,-1,1539,617,0,0
322,407,0,0,0,0,0,0,0,0,0,-1,1546,617,0,0
329,407,0,0,0,0,0,0,0,0,0,-1,1553,617,0,0
336,407,0,0,0,0,0,0,0,0,0,-1,1560,617,0,0
343,407,0,0,0,0,0,0,0,0,0,-1,1567,617,0,0
350,407,0,0,0,0,0,0,0,0,0,-1,1574,617,0,0
357,407,0,0,0,0,0,0,0,0,0,-1,1581,617,0,0
364,407,0,0,0,0,0,0,0,0,0,-1,1588,617,0,0
371,407,0,0,0,0,0,0,0,0,0,-1,1595,617,0,0
378,407,0,0,0,0,0,0,0,0,0,-1,1602,617,0,0
385,407,0,0,0,0,0,0,0,0,0,-1,1609,617,0,0
392,407,0,0,0,0,0,0,0,0,0,-1,1616,617,0,0
399,407,0,0,0,0,0,0,0,0,0,-1,1623,617,0,0
406,407,0,0,0,0,0,0,0,0,0,-1,1630,617,0,0
413,407,0,0,0,0,0,0,0,0,0,-1,1637,617,0,0
420,407,0,0,0,0,0,0,0,0,0,-1,1644,617,0,0
427,407,0,0,0,0,0,0,0,0,0,-1,1651,617,0,0
434,407,0,0,0,0,0,0,0,0,0,-1,1658,617,0,0
441,407,0,0,0,0,0,0,0,0,0,-1,1665,617,0,0
448,407,1.59021,-0.17926,0,0,0,0,0,0,0,-1,1672,617,1.5902,0.179234
455,407,-2.17383,0.585632,0,0,0,0,0,0,0,-1,1679,617,-2.17378,-0.58563
462,407,-1.64392,0.631653,0,0,0,0,0,0,0,-1,1686,617,-1.64396,-0.631677
469,407,-1.33813,0.0032959,0,0,0,0,0,0,0,-1,1693,617,-1.33817,-0.00328387
476,407,-0.696045,-0.756958,0,0,0,0,0,0,0,-1,1700,617,-0.696078,0.756977
483,407,-0.0539551,-1.51721,0,0,0,0,0,0,0,-1,1707,617,-0.0539875,1.51724
490,407,0.40979,0.431458,0,0,0,0,0,0,0,-1,1714,617,0.409775,-0.431451
497,407,0.93103,-0.128113,0,0,0,0,0,0,0,-1,1721,617,0.931023,0.12809
504,407,0.862549,-0.0864258,0.00506703,0.011561,-0.00239355,0.0123479,0.00428016,-1.25318,0.00724,0.0457615,1728,617,0.862503,0.0864108
511,407,0.66687,-0.0297852,0.00202203,0.00931697,-0.00242121,0.0100474,0.00129157,-1.27779,0.00631197,0.0438069,1735,617,0.666832,0.029789
518,407,0.488892,0.0618896,-0.000599459,0.00690373,-0.00218344,0.00749286,-0.00118859,-1.30726,0.00543493,0.0439957,1742,617,0.488875,-0.0618626
525,407,0.0250244,-0.00872803,-0.00221992,0.00462667,-0.00207907,0.00520855,-0.0028018,-1.2979,0.00469385,0.0420672,1749,617,0.0250278,0.00872451
532,407,-0.0571289,-0.057251,-0.0034122,0.00269799,-0.00158449,0.00308443,-0.00379864,-1.33157,0.00398107,0.0318568,1756,617,-0.0571132,0.0572543
539,407,-0.0374756,-0.0664063,-0.00424211,0.000698205,-0.000926431,0.00086622,-0.00441012,-1.39139,0.00326732,0.0162653,1763,617,-0.0374366,0.0664259
546,407,-0.0606689,-0.09552,-0.00407709,-0.000299473,-0.000686059,-0.000178736,-0.00419782,-1.39659,0.00274091,0.0106242,1770,617,-0.0607262,0.0955106
553,407,-0.0467529,-0.0823364,-0.00331618,-0.000506126,-0.000300873,-0.000474273,-0.00334803,-1.46532,0.00209193,0.0123768,1777,617,-0.046725,0.0823211
560,407,-0.019165,-0.0431519,-0.00218957,-0.000509374,-0.000214866,-0.000482332,-0.00221661,-1.4456,0.00134608,0.0124902,1784,617,-0.0191465,0.0431534
567,407,-0.0325928,-0.0559692,-0.00115097,-0.000415192,-0.000121598,-0.000395617,-0.00117054,-1.41118,0.000687538,0.0230122,1791,617,-0.0325412,0.0559653
574,407,-0.0220947,-0.0580444,-0.00014392,-0.000239268,5.72182e-05,-0.000117117,-0.000266071,0.438067,0.000153982,0.0223849,1798,617,-0.0220933,0.0580745
581,407,-0.0275879,-0.0718994,0.000597263,-0.000192434,0.000160931,0.0006288,-0.00022397,0.19351,0.000510505,0.0151496,1805,617,-0.0276331,0.0718878
588,407,-0.0484619,-0.0799561,0.00120154,-8.92798e-05,0.000272114,0.00125656,-0.000144298,0.1995,0.000889714,0.00937402,1812,617,-0.0484185,0.0799607
595,407,-0.0183105,-0.0580444,0.00228793,0.00018451,0.00034025,0.0023416,0.00013084,0.156446,0.00151933,0.0173568,1819,617,-0.0183667,0.0580567
602,407,-0.00354004,-0.0697021,0.00360487,-0.000129559,5.83644e-05,0.00360578,-0.000130471,0.0156237,0.0024485,0.0165659,1826,617,-0.00348591,0.0696795
609,407,-0.0125732,-0.0735474,0.00459609,-0.00063338,-3.27398e-05,0.0045963,-0.000633585,-0.00626031,0.00329576,0.0110708,1833,617,-0.0125487,0.0735635
616,407,-0.045166,-0.0498657,0.00549848,-0.00126876,-0.000271312,0.00550934,-0.00127962,-0.0400064,0.00416547,0.0119077,1840,617,-0.0451206,0.0498814
623,407,-0.0296631,-0.0460815,0.00665468,-0.00246462,-0.000217979,0.00665988,-0.00246983,-0.0238849,0.00545295,0.0189356,1847,617,-0.0296713,0.0460834
630,407,0.064209,0.000366211,0.00795048,-0.00422157,-0.000495079,0.00797058,-0.00424168,-0.0405841,0.00715947,0.0330706,1854,617,0.0641611,-0.000342686
637,407,0.16272,0.336792,0.00920871,-0.00597218,-0.000972674,0.00927078,-0.00603425,-0.0637249,0.00890198,0.0421026,1861,617,0.162757,-0.336778
644,407,0.18396,0.769287,0.0104832,-0.00826279,-0.00143845,0.0105929,-0.00837253,-0.0761396,0.0109747,0.0457301,1868,617,0.184,-0.769284
651,407,0.166992,1.10602,0,0,0,0,0,0,0,-1,1875,617,0.167004,-1.106
658,407,1.94202,-0.410278,0,0,0,0,0,0,0,-1,1882,617,1.94198,0.410258
665,407,-0.298584,-0.992065,0,0,0,0,0,0,0,-1,1889,617,-0.298588,0.992074
672,407,0,0,0,0,0,0,0,0,0,-1,1896,617,0,0
679,407,0,0,0,0,0,0,0,0,0,-1,1903,617,0,0
686,407,0,0,0,0,0,0,0,0,0,-1,1910,617,0,0
693,407,0,0,0,0,0,0,0,0,0,-1,1917,617,0,0
700,407,0,0,0,0,0,0,0,0,0,-1,1924,617,0,0
707,407,0,0,0,0,0,0,0,0,0,-1,1931,617,0,0
714,407,0,0,0,0,0,0,0,0,0,-1,1938,617,0,0
721,407,0,0,0,0,0,0,0,0,0,-1,1945,617,0,0
728,407,0,0,0,0,0,0,0,0,0,-1,1952,617,0,0
735,407,0,0,0,0,0,0,0,0,0,-1,1959,617,0,0
742,407,0,0,0,0,0,0,0,0,0,-1,1966,617,0,0
749,407,0,0,0,0,0,0,0,0,0,-1,1973,617,0,0
756,407,0,0,0,0,0,0,0,0,0,-1,1980,617,0,0
763,407,0,0,0,0,0,0,0,0,0,-1,1987,617,0,0
770,407,0,0,0,0,0,0,0,0,0,-1,1994,617,0,0
777,407,0,0,0,0,0,0,0,0,0,-1,2001,617,0,0
784,407,0,0,0,0,0,0,0,0,0,-1,2008,617,0,0
791,407,0,0,0,0,0,0,0,0,0,-1,2015,617,0,0
798,407,0,0,0,0,0,0,0,0,0,-1,2022,617,0,0
805,407,0,0,0,0,0,0,0,0,0,-1,2029,617,0,0
812,407,0,0,0,0,0,0,0,0,0,-1,2036,617,0,0
-700,400,0,0,0,0,0,0,0,0,0,-1,524,624,0,0
-693,400,0,0,0,0,0,0,0,0,0,-1,531,624,0,0
-686,400,0,0,0,0,0,0,0,0,0,-1,538,624,0,0
-679,400,0,0,0,0,0,0,0,0,0,-1,545,624,0,0
-672,400,0,0,0,0,0,0,0,0,0,-1,552,624,0,0
-665,400,0,0,0,0,0,0,0,0,0,-1,559,624,0,0
-658,400,0,0,0,0,0,0,0,0,0,-1,566,624,0,0
-651,400,0,0,0,0,0,0,0,0,0,-1,573,624,0,0
-644,400,0,0,0,0,0,0,0,0,0,-1,580,624,0,0
-637,400,0,0,0,0,0,0,0,0,0,-1,587,624,0,0
-630,400,0,0,0,0,0,0,0,0,0,-1,594,624,0,0
-623,400,0,0,0,0,0,0,0,0,0,-1,601,624,0,0
-616,400,0,0,0,0,0,0,0,0,0,-1,608,624,0,0
-609,400,0,0,0,0,0,0,0,0,0,-1,615,624,0,0
-602,400,0,0,0,0,0,0,0,0,0,-1,622,624,0,0
-595,400,0,0,0,0,0,0,0,0,0,-1,629,624,0,0
-588,400,0,0,0,0,0,0,0,0,0,-1,636,624,0,0
-581,400,0,0,0,0,0,0,0,0,0,-1,643,624,0,0
-574,400,0,0,0,0,0,0,0,0,0,-1,650,624,0,0
-567,400,0,0,0,0,0,0,0,0,0,-1,657,624,0,0
-560,400,0,0,0,0,0,0,0,0,0,-1,664,624,0,0
-553,400,0,0,0,0,0,0,0,0,0,-1,671,624,0,0
-546,400,2.16638,0.659729,-0.0527927,0.0121045,0.00989531,0.0135797,-0.0542679,1.4228,0.0414534,0.0446193,678,624,2.16639,-0.659744
-539,400,1.64526,-0.25177,-0.0432333,0.013278,0.00533958,0.0137781,-0.0437334,1.47741,0.0346732,0.042808,685,624,1.64524,0.251787
-532,400,0.820618,-0.4729,-0.0340617,0.013071,0.0022678,0.0131798,-0.0341705,1.52283,0.0282189,0.0427711,692,624,0.820603,0.472917
-525,400,0.734924,0.414734,0,0,0,0,0,0,0,-1,699,624,0.734899,-0.414711
-518,400,0.272949,-0.240356,-0.0193556,0.0104608,-0.00131034,0.0105182,-0.0194131,-1.52696,0.0175334,0.0449665,706,624,0.272966,0.240367
-511,400,0.445984,-0.235596,-0.0137036,0.00848775,-0.00198259,0.00866349,-0.0138793,-1.48239,0.0131307,0.0466257,713,624,0.445965,0.235616
-504,400,0.322266,0.0198975,-0.00881443,0.00628741,-0.00188784,0.00651983,-0.00904685,-1.4483,0.00902682,0.0442844,720,624,0.322236,-0.0199061
-497,400,0.00610352,0.0314331,-0.00559892,0.00468228,-0.00177959,0.0049816,-0.00589824,-1.40416,0.0062889,0.0279412,727,624,0.00609582,-0.0314339
-490,400,-0.0213013,-0.0805054,-0.00284518,0.00358082,-0.00166532,0.00398675,-0.00325111,-1.3317,0.00418597,0.012986,734,624,-0.0213172,0.0805263
-483,400,-0.0420532,-0.0524292,-0.000894745,0.00236775,-0.00139666,0.00288398,-0.00141097,-1.21676,0.00252783,0.0128294,741,624,-0.0420255,0.0524302
-476,400,-0.0067749,-0.0493164,7.50086e-05,0.00140817,-0.000920868,0.0018784,-0.000395216,-1.09868,0.00140269,0.0121853,748,624,-0.00675245,0.0493366
-469,400,-0.00177002,-0.0628662,0.000278877,0.000766494,-0.000771554,0.00133184,-0.000286473,-0.938432,0.000997199,0.0133399,755,624,-0.00177438,0.0628822
-462,400,-0.0510254,-0.0438843,0.000403938,0.000451098,-0.000411898,0.00084009,1.49457e-05,-0.813991,0.000555145,0.018417,762,624,-0.0510423,0.0438855
-455,400,-0.0582275,-0.0424194,0.000492453,0.000405962,-0.000372317,0.000824027,7.43874e-05,-0.727581,0.000526311,0.0201518,769,624,-0.0582078,0.0424189
-448,400,-0.0357666,-0.0637207,0.000566831,0.000282264,-0.000694878,0.00113384,-0.000284748,-0.684414,0.000866549,0.0153124,776,624,-0.0357582,0.0637164
-441,400,-0.0315552,-0.0609131,0.000639054,0.00094211,-0.00133389,0.00213305,-0.000551885,-0.841955,0.0016373,0.0136831,783,624,-0.0315542,0.0609082
-434,400,-0.0333252,-0.0522461,0.000723132,0.00218348,-0.00229637,0.00386297,-0.00095636,-0.939327,0.0029463,0.0101595,790,624,-0.0333484,0.0522546
-427,400,-0.0230103,-0.0593872,0.000744198,0.00380092,-0.00342316,0.00602142,-0.0014763,-0.995358,0.00458628,0.00933946,797,624,-0.0230037,0.0593787
-420,400,-0.0316772,-0.0779419,0.00103592,0.00658945,-0.00447726,0.00908111,-0.00145574,-1.06297,0.00659311,0.0096951,804,624,-0.0316986,0.0779604
-413,400,-0.0178833,-0.0823364,0.00126659,0.00961592,-0.00590895,0.0126761,-0.00179363,-1.09294,0.0091077,0.0158974,811,624,-0.0178645,0.0823288
-406,400,-0.0228882,-0.065918,0.00159169,0.0136515,-0.00713334,0.0169621,-0.00171886,-1.13628,0.0119224,0.0275197,818,624,-0.0228866,0.0658896
-399,400,-0.0241089,-0.0668335,0.00179367,0.0191594,-0.00702072,0.0216427,-0.000689599,-1.23082,0.0146637,0.0411138,825,624,-0.0241164,0.0668181
-392,400,-0.0836182,-0.267517,0.00221581,0.0260125,-0.00636111,0.0276062,0.000622148,-1.32532,0.0182003,0.0449756,832,624,-0.0836079,0.267528
-385,400,-0.1427,-0.819031,0.00449632,0.0365729,-0.001703,0.036663,0.00440616,-1.5179,0.0231137,0.0430095,839,624,-0.142689,0.819011
-378,400,-0.206787,-1.26422,0.00991443,0.0464007,0.00315669,0.0466718,0.00964333,1.48513,0.0284502,0.0435378,846,624,-0.20681,1.26422
-371,400,-0.370361,-1.69055,0.0153629,0.0573946,0.00860471,0.0590879,0.0136696,1.37649,0.0357183,0.0468078,853,624,-0.370384,1.69058
-364,400,0.637512,-0.707336,0.022256,0.069127,0.0138992,0.0729387,0.0184443,1.30314,0.0437922,0.0433638,860,624,0.637507,0.707337
-357,400,0.659424,-1.12854,0,0,0,0,0,0,0,-1,867,624,0.6594,1.12852
-350,400,-0.84021,-1.85065,0,0,0,0,0,0,0,-1,874,624,-0.840219,1.85067
-343,400,-1.40857,-2.26294,0,0,0,0,0,0,0,-1,881,624,-1.4086,2.26295
-336,400,0,0,0,0,0,0,0,0,0,-1,888,624,0,0
-329,400,0,0,0,0,0,0,0,0,0,-1,895,624,0,0
-322,400,0,0,0,0,0,0,0,0,0,-1,902,624,0,0
-315,400,0,0,0,0,0,0,0,0,0,-1,909,624,0,0
-308,400,0,0,0,0,0,0,0,0,0,-1,916,624,0,0
-301,400,0,0,0,0,0,0,0,0,0,-1,923,624,0,0
-294,400,0,0,0,0,0,0,0,0,0,-1,930,624,0,0
-287,400,0,0,0,0,0,0,0,0,0,-1,937,624,0,0
-280,400,0,0,0,0,0,0,0,0,0,-1,944,624,0,0
-273,400,0,0,0,0,0,0,0,0,0,-1,951,624,0,0
-266,400,0,0,0,0,0,0,0,0,0,-1,958,624,0,0
-259,400,0,0,0,0,0,0,0,0,0,-1,965,624,0,0
-252,400,0,0,0,0,0,0,0,0,0,-1,972,624,0,0
-245,400,0,0,0,0,0,0,0,0,0,-1,979,624,0,0
-238,400,0,0,0,0,0,0,0,0,0,-1,986,624,0,0
-231,400,0,0,0,0,0,0,0,0,0,-1,993,624,0,0
-224,400,0,0,0,0,0,0,0,0,0,-1,1000,624,0,0
-217,400,0,0,0,0,0,0,0,0,0,-1,1007,624,0,0
-210,400,0,0,0,0,0,0,0,0,0,-1,1014,624,0,0
-203,400,0,0,0,0,0,0,0,0,0,-1,1021,624,0,0
-196,400,0,0,0,0,0,0,0,0,0,-1,1028,624,0,0
-189,400,0,0,0,0,0,0,0,0,0,-1,1035,624,0,0
-182,400,0,0,0,0,0,0,0,0,0,-1,1042,624,0,0
-175,400,0,0,0,0,0,0,0,0,0,-1,1049,624,0,0
-168,400,0,0,0,0,0,0,0,0,0,-1,1056,624,0,0
-161,400,0,0,0,0,0,0,0,0,0,-1,1063,624,0,0
-154,400,0,0,0,0,0,0,0,0,0,-1,1070,624,0,0
-147,400,0,0,0,0,0,0,0,0,0,-1,1077,624,0,0
-140,400,0,0,0,0,0,0,0,0,0,-1,1084,624,0,0
-133,400,0,0,0,0,0,0,0,0,0,-1,1091,624,0,0
-126,400,0,0,0,0,0,0,0,0,0,-1,1098,624,0,0
-119,400,0,0,0,0,0,0,0,0,0,-1,1105,624,0,0
-112,400,0,0,0,0,0,0,0,0,0,-1,1112,624,0,0
-105,400,0,0,0,0,0,0,0,0,0,-1,1119,624,0,0
-98,400,0,0,0,0,0,0,0,0,0,-1,1126,624,0,0
-91,400,0,0,0,0,0,0,0,0,0,-1,1133,624,0,0
-84,400,0,0,0,0,0,0,0,0,0,-1,1140,624,0,0
-77,400,0,0,0,0,0,0,0,0,0,-1,1147,624,0,0
-70,400,0,0,0,0,0,0,0,0,0,-1,1154,624,0,0
-63,400,0,0,0,0,0,0,0,0,0,-1,1161,624,0,0
-56,400,0,0,0,0,0,0,0,0,0,-1,1168,624,0,0
-49,400,0,0,0,0,0,0,0,0,0,-1,1175,624,0,0
-42,400,0,0,0,0,0,0,0,0,0,-1,1182,624,0,0
-35,400,0,0,0,0,0,0,0,0,0,-1,1189,624,0,0
-28,400,0,0,0,0,0,0,0,0,0,-1,1196,624,0,0
-21,400,0,0,0,0,0,0,0,0,0,-1,1203,624,0,0
-14,400,0,0,0,0,0,0,0,0,0,-1,1210,624,0,0
-7,400,0,0,0,0,0,0,0,0,0,-1,1217,624,0,0
0,400,0,0,0,0,0,0,0,0,0,-1,1224,624,0,0
7,400,0,0,0,0,0,0,0,0,0,-1,1231,624,0,0
14,400,0,0,0,0,0,0,0,0,0,-1,1238,624,0,0
21,400,0,0,0,0,0,0,0,0,0,-1,1245,624,0,0
28,400,0,0,0,0,0,0,0,0,0,-1,1252,624,0,0
35,400,0,0,0,0,0,0,0,0,0,-1,1259,624,0,0
42,400,0,0,0,0,0,0,0,0,0,-1,1266,624,0,0
49,400,0,0,0,0,0,0,0,0,0,-1,1273,624,0,0
56,400,0,0,0,0,0,0,0,0,0,-1,1280,624,0,0
63,400,0,0,0,0,0,0,0,0,0,-1,1287,624,0,0
70,400,0,0,0,0,0,0,0,0,0,-1,1294,624,0,0
77,400,0,0,0,0,0,0,0,0,0,-1,1301,624,0,0
84,400,0,0,0,0,0,0,0,0,0,-1,1308,624,0,0
91,400,0,0,0,0,0,0,0,0,0,-1,1315,624,0,0
98,400,0,0,0,0,0,0,0,0,0,-1,1322,624,0,0
105,400,0,0,0,0,0,0,0,0,0,-1,1329,624,0,0
112,400,0,0,0,0,0,0,0,0,0,-1,1336,624,0,0
119,400,0,0,0,0,0,0,0,0,0,-1,1343,624,0,0
126,400,0,0,0,0,0,0,0,0,0,-1,1350,624,0,0
133,400,0,0,0,0,0,0,0,0,0,-1,1357,624,0,0
140,400,0,0,0,0,0,0,0,0,0,-1,1364,624,0,0
147,400,0,0,0,0,0,0,0,0,0,-1,1371,624,0,0
154,400,0,0,0,0,0,0,0,0,0,-1,1378,624,0,0
161,400,0,0,0,0,0,0,0,0,0,-1,1385,624,0,0
168,400,0,0,0,0,0,0,0,0,0,-1,1392,624,0,0
175,400,0,0,0,0,0,0,0,0,0,-1,1399,624,0,0
182,400,0,0,0,0,0,0,0,0,0,-1,1406,624,0,0
189,400,0,0,0,0,0,0,0,0,0,-1,1413,624,0,0
196,400,0,0,0,0,0,0,0,0,0,-1,1420,624,0,0
203,400,0,0,0,0,0,0,0,0,0,-1,1427,624,0,0
210,400,0,0,0,0,0,0,0,0,0,-1,1434,624,0,0
217,400,0,0,0,0,0,0,0,0,0,-1,1441,624,0,0
224,400,0,0,0,0,0,0,0,0,0,-1,1448,624,0,0
231,400,0,0,0,0,0,0,0,0,0,-1,1455,624,0,0
238,400,0,0,0,0,0,0,0,0,0,-1,1462,624,0,0
245,400,0,0,0,0,0,0,0,0,0,-1,1469,624,0,0
252,400,0,0,0,0,0,0,0,0,0,-1,1476,624,0,0
259,400,0,0,0,0,0,0,0,0,0,-1,1483,624,0,0
266,400,0,0,0,0,0,0,0,0,0,-1,1490,624,0,0
273,400,0,0,0,0,0,0,0,0,0,-1,1497,624,0,0
280,400,0,0,0,0,0,0,0,0,0,-1,1504,624,0,0
287,400,0,0,0,0,0,0,0,0,0,-1,1511,624,0,0
294,400,0,0,0,0,0,0,0,0,0,-1,1518,624,0,0
301,400,0,0,0,0,0,0,0,0,0,-1,1525,624,0,0
308,400,0,0,0,0,0,0,0,0,0,-1,1532,624,0,0
315,400,0,0,0,0,0,0,0,0,0,-1,1539,624,0,0
322,400,0,0,0,0,0,0,0,0,0,-1,1546,624,0,0
329,400,0,0,0,0,0,0,0,0,0,-1,1553,624,0,0
336,400,0,0,0,0,0,0,0,0,0,-1,1560,624,0,0
343,400,0,0,0,0,0,0,0,0,0,-1,1567,624,0,0
350,400,0,0,0,0,0,0,0,0,0,-1,1574,624,0,0
357,400,0,0,0,0,0,0,0,0,0,-1,1581,624,0,0
364,400,0,0,0,0,0,0,0,0,0,-1,1588,624,0,0
371,400,0,0,0,0,0,0,0,0,0,-1,1595,624,0,0
378,400,0,0,0,0,0,0,0,0,0,-1,1602,624,0,0
385,400,0,0,0,0,0,0,0,0,0,-1,1609,624,0,0
392,400,0,0,0,0,0,0,0,0,0,-1,1616,624,0,0
399,400,0,0,0,0,0,0,0,0,0,-1,1623,624,0,0
406,400,0,0,0,0,0,0,0,0,0,-1,1630,624,0,0
413,400,0,0,0,0,0,0,0,0,0,-1,1637,624,0,0
420,400,0,0,0,0,0,0,0,0,0,-1,1644,624,0,0
427,400,0,0,0,0,0,0,0,0,0,-1,1651,624,0,0
434,400,0,0,0,0,0,0,0,0,0,-1,1658,624,0,0
441,400,0,0,0,0,0,0,0,0,0,-1,1665,624,0,0
448,400,0,0,0,0,0,0,0,0,0,-1,1672,624,0,0
455,400,0.511353,0.0927734,0,0,0,0,0,0,0,-1,1679,624,0.511299,-0.0928016
462,400,-1.39246,1.15076,0,0,0,0,0,0,0,-1,1686,624,-1.39246,-1.15076
469,400,0.196289,-0.101563,0,0,0,0,0,0,0,-1,1693,624,0.196333,0.101532
476,400,-0.465088,-1.0152,0,0,0,0,0,0,0,-1,1700,624,-0.465113,1.01519
483,400,-0.0828857,0.207825,0.0139757,0.0293082,-0.00576863,0.0312361,0.0120477,-1.24826,0.0181906,0.0439937,1707,624,-0.0829447,-0.207829
490,400,0.0543213,0.485474,0.0112052,0.0239488,-0.00541197,0.025937,0.009217,-1.21874,0.0151822,0.0419872,1714,624,0.0543147,-0.485485
497,400,-0.00610352,0.383057,0,0,0,0,0,0,0,-1,1721,624,-0.00606037,-0.383044
504,400,0.87561,-0.0751953,0,0,0,0,0,0,0,-1,1728,624,0.875621,0.0751735
511,400,0.782227,0.15271,0.00163089,0.0114489,-0.00347382,0.0125537,0.000526101,-1.26288,0.00819939,0.0464816,1735,624,0.782239,-0.152688
518,400,0.509399,0.309387,-0.000991394,0.00830835,-0.00285139,0.00911299,-0.00179604,-1.29575,0.00675408,0.0463007,1742,624,0.509403,-0.309403
525,400,0.0617676,-0.395691,-0.0026355,0.00544998,-0.0024043,0.0061109,-0.00329642,-1.30253,0.00551175,0.0418273,1749,624,0.0617417,0.395669
532,400,-0.00585938,-0.0928345,-0.00371791,0.00309371,-0.0017111,0.00349939,-0.00412359,-1.33801,0.00440604,0.0358603,1756,624,-0.00584831,0.0928591
539,400,-0.00512695,-0.0717163,-0.00441052,0.000694159,-0.000887258,0.000843979,-0.00456034,-1.40352,0.0033571,0.0199758,1763,624,-0.00513867,0.0717315
546,400,-0.0367432,-0.0801392,-0.00421493,-0.000474088,-0.000597786,-0.000380884,-0.00430813,-1.41613,0.00275392,0.0111098,1770,624,-0.0367604,0.0801525
553,400,-0.0419922,-0.0679321,-0.00347268,-0.000783813,-0.000217375,-0.000766353,-0.00349014,-1.49065,0.00211804,0.0104273,1777,624,-0.0419977,0.0679593
560,400,-0.0371094,-0.0422974,-0.00233604,-0.000859066,-0.000151724,-0.000843641,-0.00235147,-1.46948,0.00137555,0.0112674,1784,624,-0.0371521,0.0422947
567,400,-0.0294189,-0.0439453,-0.00134912,-0.000881253,-4.80011e-05,-0.000876379,-0.00135399,-1.4696,0.000792948,0.0149549,1791,624,-0.0294747,0.0439363
574,400,-0.0286865,-0.0543213,-0.000443596,-0.000697247,0.00017259,-0.000356244,-0.000784599,0.468534,0.000453626,0.0175171,1798,624,-0.0286758,0.0543279
581,400,-0.0469971,-0.0638428,0.000199399,-0.000670447,0.000273359,0.000278172,-0.000749219,0.280564,0.000613594,0.0145722,1805,624,-0.0470522,0.063839
588,400,-0.0244141,-0.0785522,0.00069495,-0.000546788,0.000394956,0.000809926,-0.000661765,0.283283,0.000851115,0.00928263,1812,624,-0.0243967,0.0785586
595,400,-0.00952148,-0.0695801,0.00164254,-0.000273893,0.000466298,0.00174998,-0.000381328,0.226447,0.00131236,0.00902278,1819,624,-0.00947034,0.0695687
602,400,-0.00976563,-0.0548096,0.00280471,-0.000637874,0.000232322,0.00282031,-0.000653481,0.0670794,0.00213169,0.0100608,1826,624,-0.00974971,0.0547956
609,400,-0.0360107,-0.0556641,0.00357356,-0.00118419,0.000200039,0.00358196,-0.00119258,0.0419462,0.00286934,0.0110221,1833,624,-0.0360415,0.0556415
616,400,-0.0734863,-0.0435791,0.00418982,-0.00181812,2.04951e-06,0.00418982,-0.00181812,0.000341133,0.00355764,0.0143172,1840,624,-0.0735176,0.0436074
623,400,-0.0343018,-0.057373,0.00508916,-0.0029762,0.000132764,0.00509134,-0.00297839,0.016455,0.00471199,0.0190961,1847,624,-0.034287,0.0573642
630,400,-0.00561523,-0.0869141,0.00612121,-0.00457463,-5.54425e-05,0.0061215,-0.00457491,-0.00518337,0.00619706,0.023801,1854,624,-0.00561761,0.0869393
637,400,-0.155518,0.00952148,0.00709495,-0.00615388,-0.00048474,0.00711266,-0.00617159,-0.0365223,0.00767608,0.0386082,1861,624,-0.155483,-0.00951767
644,400,-0.34082,0.231384,0.00814003,-0.00811899,-0.00092546,0.00819254,-0.0081715,-0.0566758,0.00944778,0.0412062,1868,624,-0.340846,-0.231405
651,400,0.123657,-1.25214,0.00898973,-0.0105671,-0.00118186,0.0090609,-0.0106382,-0.0601407,0.0113854,0.0401077,1875,624,0.123612,1.25213
658,400,0.55896,-2.18719,0,0,0,0,0,0,0,-1,1882,624,0.558912,2.18722
665,400,-0.332886,-0.677551,0,0,0,0,0,0,0,-1,1889,624,-0.332829,0.67753
672,400,0,0,0,0,0,0,0,0,0,-1,1896,624,0,0
679,400,0,0,0,0,0,0,0,0,0,-1,1903,624,0,0
686,400,0,0,0,0,0,0,0,0,0,-1,1910,624,0,0
693,400,0,0,0,0,0,0,0,0,0,-1,1917,624,0,0
700,400,0,0,0,0,0,0,0,0,0,-1,1924,624,0,0
707,400,0,0,0,0,0,0,0,0,0,-1,1931,624,0,0
714,400,0,0,0,0,0,0,0,0,0,-1,1938,624,0,0
721,400,0,0,0,0,0,0,0,0,0,-1,1945,624,0,0
728,400,0,0,0,0,0,0,0,0,0,-1,1952,624,0,0
735,400,0,0,0,0,0,0,0,0,0,-1,1959,624,0,0
742,400,0,0,0,0,0,0,0,0,0,-1,1966,624,0,0
749,400,0,0,0,0,0,0,0,0,0,-1,1973,624,0,0
756,400,0,0,0,0,0,0,0,0,0,-1,1980,624,0,0
763,400,0,0,0,0,0,0,0,0,0,-1,1987,624,0,0
770,400,0,0,0,0,0,0,0,0,0,-1,1994,624,0,0
777,400,0,0,0,0,0,0,0,0,0,-1,2001,624,0,0
784,400,0,0,0,0,0,0,0,0,0,-1,2008,624,0,0
791,400,0,0,0,0,0,0,0,0,0,-1,2015,624,0,0
798,400,0,0,0,0,0,0,0,0,0,-1,2022,624,0,0
805,400,0,0,0,0,0,0,0,0,0,-1,2029,624,0,0
812,400,0,0,0,0,0,0,0,0,0,-1,2036,624,0,0
-700,393,0,0,0,0,0,0,0,0,0,-1,524,631,0,0
-693,393,0,0,0,0,0,0,0,0,0,-1,531,631,0,0
-686,393,0,0,0,0,0,0,0,0,0,-1,538,631,0,0
-679,393,0,0,0,0,0,0,0,0,0,-1,545,631,0,0
-672,393,0,0,0,0,0,0,0,0,0,-1,552,631,0,0
-665,393,0,0,0,0,0,0,0,0,0,-1,559,631,0,0
-658,393,0,0,0,0,0,0,0,0,0,-1,566,631,0,0
-651,393,0,0,0,0,0,0,0,0,0,-1,573,631,0,0
-644,393,0,0,0,0,0,0,0,0,0,-1,580,631,0,0
-637,393,0,0,0,0,0,0,0,0,0,-1,587,631,0,0
-630,393,0,0,0,0,0,0,0,0,0,-1,594,631,0,0
-623,393,0,0,0,0,0,0,0,0,0,-1,601,631,0,0
-616,393,0,0,0,0,0,0,0,0,0,-1,608,631,0,0
-609,393,0,0,0,0,0,0,0,0,0,-1,615,631,0,0
-602,393,0,0,0,0,0,0,0,0,0,-1,622,631,0,0
-595,393,0,0,0,0,0,0,0,0,0,-1,629,631,0,0
-588,393,0,0,0,0,0,0,0,0,0,-1,636,631,0,0
-581,393,0,0,0,0,0,0,0,0,0,-1,643,631,0,0
-574,393,0,0,0,0,0,0,0,0,0,-1,650,631,0,0
-567,393,0,0,0,0,0,0,0,0,0,-1,657,631,0,0
-560,393,0,0,0,0,0,0,0,0,0,-1,664,631,0,0
-553,393,-0.0441895,0.67688,0,0,0,0,0,0,0,-1,671,631,-0.0441764,-0.676883
-546,393,1.44177,0.664734,0,0,0,0,0,0,0,-1,678,631,1.44175,-0.664739
-539,393,1.06537,0.121887,0,0,0,0,0,0,0,-1,685,631,1.06539,-0.121865
-532,393,0.924438,0.310486,0,0,0,0,0,0,0,-1,692,631,0.92446,-0.310484
-525,393,0.476318,0.22113,-0.0234757,0.011422,0.00254821,0.0116071,-0.0236608,1.49829,0.0207546,0.0471365,699,631,0.476335,-0.221158
-518,393,0.104919,0.0314331,-0.0184724,0.00933076,0.000133074,0.0093314,-0.018473,1.56601,0.0163396,0.0465137,706,631,0.104922,-0.0314205
-511,393,-0.0247803,0.0471191,-0.0140228,0.00746778,-0.000898892,0.00750532,-0.0140603,-1.52907,0.0126412,0.0449133,713,631,-0.0247726,-0.0471122
-504,393,-0.0090332,0.0982056,-0.00978617,0.00537728,-0.00106311,0.00545145,-0.00986034,-1.50114,0.00896159,0.0348772,720,631,-0.00900335,-0.0982018
-497,393,-0.022583,-0.0137329,-0.0068911,0.00396822,-0.0011916,0.00409743,-0.00702031,-1.46278,0.00649236,0.0173533,727,631,-0.0226085,0.0137331
-490,393,-0.0136108,-0.0717773,-0.0042733,0.00298459,-0.00121714,0.00318326,-0.00447198,-1.40899,0.00444058,0.0115506,734,631,-0.0136044,0.0718038
-483,393,-0.00726318,-0.09021,-0.00229667,0.00194442,-0.0010681,0.00219823,-0.00255048,-1.3375,0.00274418,0.0165045,741,631,-0.00726477,0.0901966
-476,393,0.000183105,-0.0550537,-0.00112893,0.00116175,-0.000769044,0.00139598,-0.00136317,-1.27514,0.00159303,0.0150907,748,631,0.000206688,0.0550234
-469,393,-0.00543213,-0.0466309,-0.000648047,0.000653678,-0.000751258,0.000996803,-0.000991172,-1.14236,0.00114776,0.0120362,755,631,-0.00541024,0.0466441
-462,393,-0.0294189,-0.0534058,-0.000386898,0.000486548,-0.000524541,0.000732372,-0.000632722,-1.13254,0.000788837,0.0142523,762,631,-0.0294303,0.0534179
-455,393,-0.0349731,-0.0726929,-0.000201678,0.000543256,-0.000547319,0.000832824,-0.000491246,-1.08417,0.000772885,0.0135173,769,631,-0.0349501,0.0727042
-448,393,-0.0259399,-0.0822144,-0.000137502,0.000603594,-0.00092537,0.00122985,-0.000763757,-0.975838,0.00116145,0.0131736,776,631,-0.0259402,0.0821954
-441,393,-0.0349731,-0.069519,-7.64814e-05,0.00133009,-0.0016776,0.00244586,-0.00119225,-0.983881,0.00214163,0.0115602,783,631,-0.0349441,0.069519
-434,393,-0.0391846,-0.0565186,-0.000133825,0.00269008,-0.00277509,0.00439176,-0.00183551,-1.02073,0.00369491,0.0101483,790,631,-0.0392108,0.0565089
-427,393,-0.0292358,-0.0632324,-0.000301336,0.00449557,-0.00401687,0.00677556,-0.00258132,-1.05454,0.00558018,0.0121355,797,631,-0.0292288,0.0632073
-420,393,-0.029541,-0.0744019,-0.000276511,0.00759523,-0.00517205,0.0101587,-0.00283996,-1.11065,0.00789133,0.0156549,804,631,-0.0295349,0.0744028
-413,393,0.113403,0.226318,0,0,0,0,0,0,0,-1,811,631,0.11341,-0.226331
-406,393,-0.0432129,-0.0983276,-0.000603381,0.0156637,-0.00811968,0.0190229,-0.0039626,-1.17852,0.0141885,0.036387,818,631,-0.0432011,0.0983526
-399,393,0.123657,-0.103455,-0.00100475,0.0219871,-0.00826018,0.024647,-0.00366463,-1.25927,0.0177792,0.0395876,825,631,0.123657,0.103448
-392,393,0.253052,-0.668274,-0.00121626,0.0299031,-0.00769778,0.0317031,-0.00301629,-1.34109,0.0222092,0.0409585,832,631,0.253053,0.668293
-385,393,-0.12207,-1.00079,0.000649362,0.0420039,-0.00275231,0.0421863,0.000466989,-1.50463,0.0279699,0.0435251,839,631,-0.122057,1.00082
-378,393,-0.229736,-1.46881,0.0061704,0.0532824,0.00255336,0.0534203,0.00603242,1.51681,0.0337828,0.0453826,846,631,-0.229739,1.46881
-371,393,-0.355408,-1.90363,0,0,0,0,0,0,0,-1,853,631,-0.355394,1.90364
-364,393,1.14392,-1.30444,0.0186743,0.0791556,0.0145726,0.0824836,0.0153463,1.34627,0.0506546,0.0438127,860,631,1.14393,1.30443
-357,393,0.0437622,-1.6568,0,0,0,0,0,0,0,-1,867,631,0.0437527,1.65681
-350,393,-0.888489,-2.08313,0,0,0,0,0,0,0,-1,874,631,-0.888509,2.08315
-343,393,0,0,0,0,0,0,0,0,0,-1,881,631,0,0
-336,393,0,0,0,0,0,0,0,0,0,-1,888,631,0,0
-329,393,0,0,0,0,0,0,0,0,0,-1,895,631,0,0
-322,393,0,0,0,0,0,0,0,0,0,-1,902,631,0,0
-315,393,0,0,0,0,0,0,0,0,0,-1,909,631,0,0
-308,393,0,0,0,0,0,0,0,0,0,-1,916,631,0,0
-301,393,0,0,0,0,0,0,0,0,0,-1,923,631,0,0
-294,393,0,0,0,0,0,0,0,0,0,-1,930,631,0,0
-287,393,0,0,0,0,0,0,0,0,0,-1,937,631,0,0
-280,393,0,0,0,0,0,0,0,0,0,-1,944,631,0,0
-273,393,0,0,0,0,0,0,0,0,0,-1,951,631,0,0
-266,393,0,0,0,0,0,0,0,0,0,-1,958,631,0,0
-259,393,0,0,0,0,0,0,0,0,0,-1,965,631,0,0
-252,393,0,0,0,0,0,0,0,0,0,-1,972,631,0,0
-245,393,0,0,0,0,0,0,0,0,0,-1,979,631,0,0
-238,393,0,0,0,0,0,0,0,0,0,-1,986,631,0,0
-231,393,0,0,0,0,0,0,0,0,0,-1,993,631,0,0
-224,393,0,0,0,0,0,0,0,0,0,-1,1000,631,0,0
-217,393,0,0,0,0,0,0,0,0,0,-1,1007,631,0,0
-210,393,0,0,0,0,0,0,0,0,0,-1,1014,631,0,0
-203,393,0,0,0,0,0,0,0,0,0,-1,1021,631,0,0
-196,393,0,0,0,0,0,0,0,0,0,-1,1028,631,0,0
-189,393,0,0,0,0,0,0,0,0,0,-1,1035,631,0,0
-182,393,0,0,0,0,0,0,0,0,0,-1,1042,631,0,0
-175,393,0,0,0,0,0,0,0,0,0,-1,1049,631,0,0
-168,393,0,0,0,0,0,0,0,0,0,-1,1056,631,0,0
-161,393,0,0,0,0,0,0,0,0,0,-1,1063,631,0,0
-154,393,0,0,0,0,0,0,0,0,0,-1,1070,631,0,0
-147,393,0,0,0,0,0,0,0,0,0,-1,1077,631,0,0
-140,393,0,0,0,0,0,0,0,0,0,-1,1084,631,0,0
-133,393,0,0,0,0,0,0,0,0,0,-1,1091,631,0,0
-126,393,0,0,0,0,0,0,0,0,0,-1,1098,631,0,0
-119,393,0,0,0,0,0,0,0,0,0,-1,1105,631,0,0
-112,393,0,0,0,0,0,0,0,0,0,-1,1112,631,0,0
-105,393,0,0,0,0,0,0,0,0,0,-1,1119,631,0,0
-98,393,0,0,0,0,0,0,0,0,0,-1,1126,631,0,0
-91,393,0,0,0,0,0,0,0,0,0,-1,1133,631,0,0
-84,393,0,0,0,0,0,0,0,0,0,-1,1140,631,0,0
-77,393,0,0,0,0,0,0,0,0,0,-1,1147,631,0,0
-70,393,0,0,0,0,0,0,0,0,0,-1,1154,631,0,0
-63,393,0,0,0,0,0,0,0,0,0,-1,1161,631,0,0
-56,393,0,0,0,0,0,0,0,0,0,-1,1168,631,0,0
-49,393,0,0,0,0,0,0,0,0,0,-1,1175,631,0,0
-42,393,0,0,0,0,0,0,0,0,0,-1,1182,631,0,0
-35,393,0,0,0,0,0,0,0,0,0,-1,1189,631,0,0
-28,393,0,0,0,0,0,0,0,0,0,-1,1196,631,0,0
-21,393,0,0,0,0,0,0,0,0,0,-1,1203,631,0,0
-14,393,0,0,0,0,0,0,0,0,0,-1,1210,631,0,0
-7,393,0,0,0,0,0,0,0,0,0,-1,1217,631,0,0
0,393,0,0,0,0,0,0,0,0,0,-1,1224,631,0,0
7,393,0,0,0,0,0,0,0,0,0,-1,1231,631,0,0
14,393,0,0,0,0,0,0,0,0,0,-1,1238,631,0,0
21,393,0,0,0,0,0,0,0,0,0,-1,1245,631,0,0
28,393,0,0,0,0,0,0,0,0,0,-1,1252,631,0,0
35,393,0,0,0,0,0,0,0,0,0,-1,1259,631,0,0
42,393,0,0,0,0,0,0,0,0,0,-1,1266,631,0,0
49,393,0,0,0,0,0,0,0,0,0,-1,1273,631,0,0
56,393,0,0,0,0,0,0,0,0,0,-1,1280,631,0,0
63,393,0,0,0,0,0,0,0,0,0,-1,1287,631,0,0
70,393,0,0,0,0,0,0,0,0,0,-1,1294,631,0,0
77,393,0,0,0,0,0,0,0,0,0,-1,1301,631,0,0
84,393,0,0,0,0,0,0,0,0,0,-1,1308,631,0,0
91,393,0,0,0,0,0,0,0,0,0,-1,1315,631,0,0
98,393,0,0,0,0,0,0,0,0,0,-1,1322,631,0,0
105,393,0,0,0,0,0,0,0,0,0,-1,1329,631,0,0
112,393,0,0,0,0,0,0,0,0,0,-1,1336,631,0,0
119,393,0,0,0,0,0,0,0,0,0,-1,1343,631,0,0
126,393,0,0,0,0,0,0,0,0,0,-1,1350,631,0,0
133,393,0,0,0,0,0,0,0,0,0,-1,1357,631,0,0
140,393,0,0,0,0,0,0,0,0,0,-1,1364,631,0,0
147,393,0,0,0,0,0,0,0,0,0,-1,1371,631,0,0
154,393,0,0,0,0,0,0,0,0,0,-1,1378,631,0,0
161,393,0,0,0,0,0,0,0,0,0,-1,1385,631,0,0
168,393,0,0,0,0,0,0,0,0,0,-1,1392,631,0,0
175,393,0,0,0,0,0,0,0,0,0,-1,1399,631,0,0
182,393,0,0,0,0,0,0,0,0,0,-1,1406,631,0,0
189,393,0,0,0,0,0,0,0,0,0,-1,1413,631,0,0
196,393,0,0,0,0,0,0,0,0,0,-1,1420,631,0,0
203,393,0,0,0,0,0,0,0,0,0,-1,1427,631,0,0
210,393,0,0,0,0,0,0,0,0,0,-1,1434,631,0,0
217,393,0,0,0,0,0,0,0,0,0,-1,1441,631,0,0
224,393,0,0,0,0,0,0,0,0,0,-1,1448,631,0,0
231,393,0,0,0,0,0,0,0,0,0,-1,1455,631,0,0
238,393,0,0,0,0,0,0,0,0,0,-1,1462,631,0,0
245,393,0,0,0,0,0,0,0,0,0,-1,1469,631,0,0
252,393,0,0,0,0,0,0,0,0,0,-1,1476,631,0,0
259,393,0,0,0,0,0,0,0,0,0,-1,1483,631,0,0
266,393,0,0,0,0,0,0,0,0,0,-1,1490,631,0,0
273,393,0,0,0,0,0,0,0,0,0,-1,1497,631,0,0
280,393,0,0,0,0,0,0,0,0,0,-1,1504,631,0,0
287,393,0,0,0,0,0,0,0,0,0,-1,1511,631,0,0
294,393,0,0,0,0,0,0,0,0,0,-1,1518,631,0,0
301,393,0,0,0,0,0,0,0,0,0,-1,1525,631,0,0
308,393,0,0,0,0,0,0,0,0,0,-1,1532,631,0,0
315,393,0,0,0,0,0,0,0,0,0,-1,1539,631,0,0
322,393,0,0,0,0,0,0,0,0,0,-1,1546,631,0,0
329,393,0,0,0,0,0,0,0,0,0,-1,1553,631,0,0
336,393,0,0,0,0,0,0,0,0,0,-1,1560,631,0,0
343,393,0,0,0,0,0,0,0,0,0,-1,1567,631,0,0
350,393,0,0,0,0,0,0,0,0,0,-1,1574,631,0,0
357,393,0,0,0,0,0,0,0,0,0,-1,1581,631,0,0
364,393,0,0,0,0,0,0,0,0,0,-1,1588,631,0,0
371,393,0,0,0,0,0,0,0,0,0,-1,1595,631,0,0
378,393,0,0,0,0,0,0,0,0,0,-1,1602,631,0,0
385,393,0,0,0,0,0,0,0,0,0,-1,1609,631,0,0
392,393,0,0,0,0,0,0,0,0,0,-1,1616,631,0,0
399,393,0,0,0,0,0,0,0,0,0,-1,1623,631,0,0
406,393,0,0,0,0,0,0,0,0,0,-1,1630,631,0,0
413,393,0,0,0,0,0,0,0,0,0,-1,1637,631,0,0
420,393,0,0,0,0,0,0,0,0,0,-1,1644,631,0,0
427,393,0,0,0,0,0,0,0,0,0,-1,1651,631,0,0
434,393,0,0,0,0,0,0,0,0,0,-1,1658,631,0,0
441,393,0,0,0,0,0,0,0,0,0,-1,1665,631,0,0
448,393,0,0,0,0,0,0,0,0,0,-1,1672,631,0,0
455,393,0,0,0,0,0,0,0,0,0,-1,1679,631,0,0
462,393,0.404175,-0.270752,0,0,0,0,0,0,0,-1,1686,631,0.404141,0.270744
469,393,0.324585,-0.246399,0,0,0,0,0,0,0,-1,1693,631,0.324578,0.246392
476,393,0.0977783,-0.224121,0,0,0,0,0,0,0,-1,1700,631,0.0977752,0.224135
483,393,-0.20105,0.0112305,0.0153981,0.0317455,-0.00971513,0.036268,0.0108756,-1.13512,0.0214912,0.0413231,1707,631,-0.201065,-0.0112124
490,393,-0.190552,0.287231,0.0117984,0.0274336,-0.00825487,0.0309852,0.00824684,-1.1645,0.01853,0.0448909,1714,631,-0.190611,-0.287241
497,393,0.170776,0.360596,0,0,0,0,0,0,0,-1,1721,631,0.170774,-0.36062
504,393,-0.195313,-0.892822,0,0,0,0,0,0,0,-1,1728,631,-0.19535,0.892796
511,393,0.844971,0.272888,0,0,0,0,0,0,0,-1,1735,631,0.84497,-0.272873
518,393,0.230591,-0.94165,0,0,0,0,0,0,0,-1,1742,631,0.230641,0.941655
525,393,0.223267,-0.635254,-0.00332415,0.00628963,-0.00270191,0.00699695,-0.00403147,-1.31476,0.00644354,0.0416058,1749,631,0.22325,0.635281
532,393,0.102539,-0.302002,-0.00414555,0.00350697,-0.00178767,0.00390398,-0.00454256,-1.35226,0.00488126,0.0413334,1756,631,0.102578,0.302007
539,393,0.0235596,-0.0836182,-0.00457754,0.000739863,-0.000803419,0.000858602,-0.00469628,-1.42407,0.00345282,0.0359601,1763,631,0.0235692,0.0836127
546,393,-0.0065918,-0.0830078,-0.00426563,-0.000567615,-0.000466873,-0.000509583,-0.00432366,-1.44713,0.00272849,0.0209379,1770,631,-0.00654955,0.0829992
553,393,-0.00695801,-0.081665,-0.00350045,-0.00096811,-0.000107623,-0.000963544,-0.00350501,-1.5284,0.00209086,0.0120499,1777,631,-0.00693574,0.0816724
560,393,-0.0292969,-0.0721436,-0.00234619,-0.0010817,-7.40986e-05,-0.00107737,-0.00235052,-1.51246,0.00135864,0.0115499,1784,631,-0.0292538,0.0721552
567,393,-0.0350342,-0.06073,-0.0014015,-0.00115257,2.37158e-05,-0.00115033,-0.00140374,1.47666,0.000863838,0.0128682,1791,631,-0.0350196,0.0607217
574,393,-0.039917,-0.0650635,-0.000631651,-0.00093711,0.000232359,-0.000506321,-0.00106244,0.494653,0.000613625,0.0137984,1798,631,-0.0398573,0.0650501
581,393,-0.0341797,-0.0686035,-0.000123228,-0.000889077,0.000281351,-3.09788e-05,-0.000981326,0.316833,0.000644139,0.0119504,1805,631,-0.0342112,0.0685967
588,393,-0.00964355,-0.0742798,0.000225206,-0.000666828,0.000333478,0.00033609,-0.000777712,0.321007,0.000659688,0.0114908,1812,631,-0.00964191,0.0742642
595,393,-0.0284424,-0.0688477,0.000983597,-0.000359075,0.000379252,0.00108332,-0.000458793,0.257113,0.00091435,0.00949834,1819,631,-0.0284862,0.0688685
602,393,-0.0296631,-0.0753174,0.00189828,-0.000698525,0.000178525,0.00191049,-0.00071074,0.0683195,0.00156532,0.0117924,1826,631,-0.029612,0.0753305
609,393,-0.0447998,-0.0804443,0.00243741,-0.00122408,0.000145661,0.00244319,-0.00122987,0.0396983,0.00215886,0.0138394,1833,631,-0.0447934,0.0804654
616,393,-0.0657959,-0.0596924,0.00278149,-0.00181025,-8.53446e-05,0.00278307,-0.00181184,-0.018578,0.00267256,0.0130837,1840,631,-0.0657358,0.059666
623,393,-0.0479736,-0.0330811,0.00343082,-0.00287817,2.04416e-05,0.00343088,-0.00287823,0.00324003,0.00364723,0.0144204,1847,631,-0.0479544,0.033066
630,393,-0.0418701,-0.0739136,0.00422682,-0.00425612,-0.000159563,0.00422982,-0.00425912,-0.018801,0.0049011,0.0178015,1854,631,-0.0418879,0.07389
637,393,-0.137085,-0.0396118,0.00493134,-0.00559922,-0.000570028,0.00496211,-0.00562999,-0.0539208,0.0061194,0.027535,1861,631,-0.137061,0.0395945
644,393,-0.0632324,-0.304626,0.00578588,-0.0072014,-0.0010444,0.00586933,-0.00728485,-0.079734,0.00760921,0.0362891,1868,631,-0.0632656,0.304627
651,393,0.349243,-0.752686,0.00661497,-0.00902479,-0.00138777,0.00673716,-0.00914697,-0.0878191,0.00920582,0.0395016,1875,631,0.349273,0.752656
658,393,0.242554,-0.938721,0.00750103,-0.0106194,-0.001576,0.00763708,-0.0107555,-0.0861119,0.0106697,0.040841,1882,631,0.242526,0.93875
665,393,-0.166138,-0.503662,0.00828211,-0.0117976,-0.00169459,0.00842412,-0.0119396,-0.0836053,0.0118153,0.0426999,1889,631,-0.166132,0.503646
672,393,-0.286499,-0.194275,0.00917527,-0.0119531,-0.00171125,0.00931297,-0.0120908,-0.0802952,0.0123921,0.0433817,1896,631,-0.286534,0.194298
679,393,0,0,0,0,0,0,0,0,0,-1,1903,631,0,0
686,393,0,0,0,0,0,0,0,0,0,-1,1910,631,0,0
693,393,0,0,0,0,0,0,0,0,0,-1,1917,631,0,0
700,393,0,0,0,0,0,0,0,0,0,-1,1924,631,0,0
707,393,0,0,0,0,0,0,0,0,0,-1,1931,631,0,0
714,393,0,0,0,0,0,0,0,0,0,-1,1938,631,0,0
721,393,0,0,0,0,0,0,0,0,0,-1,1945,631,0,0
728,393,0,0,0,0,0,0,0,0,0,-1,1952,631,0,0
735,393,0,0,0,0,0,0,0,0,0,-1,1959,631,0,0
742,393,0,0,0,0,0,0,0,0,0,-1,1966,631,0,0
749,393,0,0,0,0,0,0,0,0,0,-1,1973,631,0,0
756,393,0,0,0,0,0,0,0,0,0,-1,1980,631,0,0
763,393,0,0,0,0,0,0,0,0,0,-1,1987,631,0,0
770,393,0,0,0,0,0,0,0,0,0,-1,1994,631,0,0
777,393,0,0,0,0,0,0,0,0,0,-1,2001,631,0,0
784,393,0,0,0,0,0,0,0,0,0,-1,2008,631,0,0
791,393,0,0,0,0,0,0,0,0,0,-1,2015,631,0,0
798,393,0,0,0,0,0,0,0,0,0,-1,2022,631,0,0
805,393,0,0,0,0,0,0,0,0,0,-1,2029,631,0,0
812,393,0,0,0,0,0,0,0,0,0,-1,2036,631,0,0
-700,386,0,0,0,0,0,0,0,0,0,-1,524,638,0,0
-693,386,0,0,0,0,0,0,0,0,0,-1,531,638,0,0
-686,386,0,0,0,0,0,0,0,0,0,-1,538,638,0,0
-679,386,0,0,0,0,0,0,0,0,0,-1,545,638,0,0
-672,386,0,0,0,0,0,0,0,0,0,-1,552,638,0,0
-665,386,0,0,0,0,0,0,0,0,0,-1,559,638,0,0
-658,386,0,0,0,0,0,0,0,0,0,-1,566,638,0,0
-651,386,0,0,0,0,0,0,0,0,0,-1,573,638,0,0
-644,386,0,0,0,0,0,0,0,0,0,-1,580,638,0,0
-637,386,0,0,0,0,0,0,0,0,0,-1,587,638,0,0
-630,386,0,0,0,0,0,0,0,0,0,-1,594,638,0,0
-623,386,0,0,0,0,0,0,0,0,0,-1,601,638,0,0
-616,386,0,0,0,0,0,0,0,0,0,-1,608,638,0,0
-609,386,0,0,0,0,0,0,0,0,0,-1,615,638,0,0
-602,386,0,0,0,0,0,0,0,0,0,-1,622,638,0,0
-595,386,0,0,0,0,0,0,0,0,0,-1,629,638,0,0
-588,386,0,0,0,0,0,0,0,0,0,-1,636,638,0,0
-581,386,0,0,0,0,0,0,0,0,0,-1,643,638,0,0
-574,386,0,0,0,0,0,0,0,0,0,-1,650,638,0,0
-567,386,0,0,0,0,0,0,0,0,0,-1,657,638,0,0
-560,386,2.11774,0.450867,0,0,0,0,0,0,0,-1,664,638,2.11776,-0.450837
-553,386,0.435303,0.72113,0,0,0,0,0,0,0,-1,671,638,0.435322,-0.721132
-546,386,0.573303,0.47345,-0.0264573,0.0145242,0.0144054,0.0190812,-0.0310142,1.26442,0.0291948,0.0484142,678,638,0.573316,-0.473422
-539,386,0.557068,0.217529,-0.023968,0.0138094,0.00997563,0.0162818,-0.0264404,1.32785,0.024897,0.0426656,685,638,0.557087,-0.217535
-532,386,0.484436,0.0770874,-0.0209009,0.0125437,0.00673517,0.0138491,-0.0222063,1.37935,0.0210021,0.0421347,692,638,0.484421,-0.0771103
-525,386,0.149353,0.00311279,-0.0177174,0.0113342,0.00460798,0.0120476,-0.0184307,1.4172,0.0177248,0.0441905,699,638,0.149366,-0.00313249
-518,386,0.100525,0.0209351,-0.0145481,0.0091013,0.00178415,0.00923514,-0.0146819,1.49592,0.0139274,0.0477238,706,638,0.100534,-0.0209089
-511,386,-0.0656738,-0.00866699,-0.0115312,0.00734429,0.000444468,0.00735475,-0.0115417,1.54727,0.0109988,0.0397997,713,638,-0.0656665,0.00869045
-504,386,-0.0267944,-0.0188599,-0.00830904,0.00527815,1.5524e-05,0.00527816,-0.00830906,1.56965,0.00790938,0.0182418,720,638,-0.0268136,0.01885
-497,386,-0.036377,-0.0775146,-0.0061231,0.00392248,-0.000367399,0.0039359,-0.00613652,-1.53429,0.0058614,0.00905137,727,638,-0.0363511,0.0775242
-490,386,-0.0267334,-0.0941162,-0.00400966,0.00290503,-0.000551214,0.00294869,-0.00405332,-1.49175,0.00405935,0.00983246,734,638,-0.0267234,0.0941284
-483,386,0.0108032,-0.101135,-0.00227254,0.00184883,-0.000574064,0.00192729,-0.002351,-1.43495,0.00247411,0.0139649,741,638,0.0108121,0.101128
-476,386,0.0106201,-0.0795288,-0.0011232,0.00110687,-0.000562366,0.00124065,-0.00125699,-1.33724,0.00144202,0.0144157,748,638,0.0106435,0.0795535
-469,386,-0.00256348,-0.0562134,-0.000640386,0.000621272,-0.000736752,0.000960365,-0.000979479,-1.13945,0.00111999,0.010811,755,638,-0.00259073,0.0562109
-462,386,-0.00512695,-0.0661011,-0.000442477,0.000504658,-0.000717803,0.000891037,-0.000828856,-1.077,0.000993197,0.0102502,762,638,-0.00513682,0.0661283
-455,386,-0.0274048,-0.0770264,-0.000421581,0.000596514,-0.000906774,0.00112736,-0.000952422,-1.04117,0.00120218,0.0111531,769,638,-0.0273932,0.0770513
-448,386,-0.0241699,-0.0750122,-0.000632377,0.000803925,-0.00140509,0.00166375,-0.0014922,-1.02165,0.00182299,0.0111733,776,638,-0.0241452,0.074987
-441,386,-0.0303345,-0.0625,-0.00081916,0.00156625,-0.00231262,0.00297561,-0.00222852,-1.02348,0.00301491,0.0112097,783,638,-0.030361,0.0625118
-434,386,-0.0531006,-0.0699463,-0.00123876,0.00306579,-0.00358068,0.00509126,-0.00326423,-1.05601,0.00486234,0.0147822,790,638,-0.0531122,0.0699665
-427,386,-0.0511475,-0.0882568,-0.00190201,0.00508005,-0.0049541,0.00764958,-0.00447154,-1.09233,0.00707785,0.0222281,797,638,-0.0511378,0.0882439
-420,386,-0.0205078,-0.0721436,-0.00252793,0.00848635,-0.00622415,0.01129,-0.00533154,-1.14758,0.00979981,0.0280047,804,638,-0.0205107,0.0721706
-413,386,0.232117,0.283386,-0.00350099,0.0124118,-0.0078678,0.015645,-0.00673416,-1.1809,0.0132576,0.0388867,811,638,0.232089,-0.283378
-406,386,0.466614,0.373352,-0.00471903,0.0175862,-0.00939564,0.0210165,-0.00814924,-1.22075,0.0173765,0.04177,818,638,0.466621,-0.373365
-399,386,0.549805,0.0587769,-0.0063414,0.0247453,-0.0098348,0.0275954,-0.0091915,-1.28873,0.0221071,0.0418431,825,638,0.549832,-0.0587932
-392,386,0.519958,-1.02985,-0.00781685,0.0336028,-0.00930314,0.0355964,-0.00981044,-1.3597,0.0275888,0.0457342,832,638,0.519983,1.02982
-385,386,0.510681,-1.49921,-0.00705122,0.0472391,-0.00409633,0.0475465,-0.00735855,-1.49591,0.0344138,0.0479534,839,638,0.510652,1.49922
-378,386,0.351929,-1.95166,0,0,0,0,0,0,0,-1,846,638,0.351949,1.95164
-371,386,2.89838,-0.979736,0,0,0,0,0,0,0,-1,853,638,2.89839,0.979722
-364,386,1.31134,-1.64368,0,0,0,0,0,0,0,-1,860,638,1.31136,1.64369
-357,386,0.085144,-1.85706,0,0,0,0,0,0,0,-1,867,638,0.0851625,1.85707
-350,386,0,0,0,0,0,0,0,0,0,-1,874,638,0,0
-343,386,0,0,0,0,0,0,0,0,0,-1,881,638,0,0
-336,386,0,0,0,0,0,0,0,0,0,-1,888,638,0,0
-329,386,0,0,0,0,0,0,0,0,0,-1,895,638,0,0
-322,386,0,0,0,0,0,0,0,0,0,-1,902,638,0,0
-315,386,0,0,0,0,0,0,0,0,0,-1,909,638,0,0
-308,386,0,0,0,0,0,0,0,0,0,-1,916,638,0,0
-301,386,0,0,0,0,0,0,0,0,0,-1,923,638,0,0
-294,386,0,0,0,0,0,0,0,0,0,-1,930,638,0,0
-287,386,0,0,0,0,0,0,0,0,0,-1,937,638,0,0
-280,386,0,0,0,0,0,0,0,0,0,-1,944,638,0,0
-273,386,0,0,0,0,0,0,0,0,0,-1,951,638,0,0
-266,386,0,0,0,0,0,0,0,0,0,-1,958,638,0,0
-259,386,0,0,0,0,0,0,0,0,0,-1,965,638,0,0
-252,386,0,0,0,0,0,0,0,0,0,-1,972,638,0,0
-245,386,0,0,0,0,0,0,0,0,0,-1,979,638,0,0
-238,386,0,0,0,0,0,0,0,0,0,-1,986,638,0,0
-231,386,0,0,0,0,0,0,0,0,0,-1,993,638,0,0
-224,386,0,0,0,0,0,0,0,0,0,-1,1000,638,0,0
-217,386,0,0,0,0,0,0,0,0,0,-1,1007,638,0,0
-210,386,0,0,0,0,0,0,0,0,0,-1,1014,638,0,0
-203,386,0,0,0,0,0,0,0,0,0,-1,1021,638,0,0
-196,386,0,0,0,0,0,0,0,0,0,-1,1028,638,0,0
-189,386,0,0,0,0,0,0,0,0,0,-1,1035,638,0,0
-182,386,0,0,0,0,0,0,0,0,0,-1,1042,638,0,0
-175,386,0,0,0,0,0,0,0,0,0,-1,1049,638,0,0
-168,386,0,0,0,0,0,0,0,0,0,-1,1056,638,0,0
-161,386,0,0,0,0,0,0,0,0,0,-1,1063,638,0,0
-154,386,0,0,0,0,0,0,0,0,0,-1,1070,638,0,0
-147,386,0,0,0,0,0,0,0,0,0,-1,1077,638,0,0
-140,386,0,0,0,0,0,0,0,0,0,-1,1084,638,0,0
-133,386,0,0,0,0,0,0,0,0,0,-1,1091,638,0,0
-126,386,0,0,0,0,0,0,0,0,0,-1,1098,638,0,0
-119,386,0,0,0,0,0,0,0,0,0,-1,1105,638,0,0
-112,386,0,0,0,0,0,0,0,0,0,-1,1112,638,0,0
-105,386,0,0,0,0,0,0,0,0,0,-1,1119,638,0,0
-98,386,0,0,0,0,0,0,0,0,0,-1,1126,638,0,0
-91,386,0,0,0,0,0,0,0,0,0,-1,1133,638,0,0
-84,386,0,0,0,0,0,0,0,0,0,-1,1140,638,0,0
-77,386,0,0,0,0,0,0,0,0,0,-1,1147,638,0,0
-70,386,0,0,0,0,0,0,0,0,0,-1,1154,638,0,0
-63,386,0,0,0,0,0,0,0,0,0,-1,1161,638,0,0
-56,386,0,0,0,0,0,0,0,0,0,-1,1168,638,0,0
-49,386,0,0,0,0,0,0,0,0,0,-1,1175,638,0,0
-42,386,0,0,0,0,0,0,0,0,0,-1,1182,638,0,0
-35,386,0,0,0,0,0,0,0,0,0,-1,1189,638,0,0
-28,386,0,0,0,0,0,0,0,0,0,-1,1196,638,0,0
-21,386,0,0,0,0,0,0,0,0,0,-1,1203,638,0,0
-14,386,0,0,0,0,0,0,0,0,0,-1,1210,638,0,0
-7,386,0,0,0,0,0,0,0,0,0,-1,1217,638,0,0
0,386,0,0,0,0,0,0,0,0,0,-1,1224,638,0,0
7,386,0,0,0,0,0,0,0,0,0,-1,1231,638,0,0
14,386,0,0,0,0,0,0,0,0,0,-1,1238,638,0,0
21,386,0,0,0,0,0,0,0,0,0,-1,1245,638,0,0
28,386,0,0,0,0,0,0,0,0,0,-1,1252,638,0,0
35,386,0,0,0,0,0,0,0,0,0,-1,1259,638,0,0
42,386,0,0,0,0,0,0,0,0,0,-1,1266,638,0,0
49,386,0,0,0,0,0,0,0,0,0,-1,1273,638,0,0
56,386,0,0,0,0,0,0,0,0,0,-1,1280,638,0,0
63,386,0,0,0,0,0,0,0,0,0,-1,1287,638,0,0
70,386,0,0,0,0,0,0,0,0,0,-1,1294,638,0,0
77,386,0,0,0,0,0,0,0,0,0,-1,1301,638,0,0
84,386,0,0,0,0,0,0,0,0,0,-1,1308,638,0,0
91,386,0,0,0,0,0,0,0,0,0,-1,1315,638,0,0
98,386,0,0,0,0,0,0,0,0,0,-1,1322,638,0,0
105,386,0,0,0,0,0,0,0,0,0,-1,1329,638,0,0
112,386,0,0,0,0,0,0,0,0,0,-1,1336,638,0,0
119,386,0,0,0,0,0,0,0,0,0,-1,1343,638,0,0
126,386,0,0,0,0,0,0,0,0,0,-1,1350,638,0,0
133,386,0,0,0,0,0,0,0,0,0,-1,1357,638,0,0
140,386,0,0,0,0,0,0,0,0,0,-1,1364,638,0,0
147,386,0,0,0,0,0,0,0,0,0,-1,1371,638,0,0
154,386,0,0,0,0,0,0,0,0,0,-1,1378,638,0,0
161,386,0,0,0,0,0,0,0,0,0,-1,1385,638,0,0
168,386,0,0,0,0,0,0,0,0,0,-1,1392,638,0,0
175,386,0,0,0,0,0,0,0,0,0,-1,1399,638,0,0
182,386,0,0,0,0,0,0,0,0,0,-1,1406,638,0,0
189,386,0,0,0,0,0,0,0,0,0,-1,1413,638,0,0
196,386,0,0,0,0,0,0,0,0,0,-1,1420,638,0,0
203,386,0,0,0,0,0,0,0,0,0,-1,1427,638,0,0
210,386,0,0,0,0,0,0,0,0,0,-1,1434,638,0,0
217,386,0,0,0,0,0,0,0,0,0,-1,1441,638,0,0
224,386,0,0,0,0,0,0,0,0,0,-1,1448,638,0,0
231,386,0,0,0,0,0,0,0,0,0,-1,1455,638,0,0
238,386,0,0,0,0,0,0,0,0,0,-1,1462,638,0,0
245,386,0,0,0,0,0,0,0,0,0,-1,1469,638,0,0
252,386,0,0,0,0,0,0,0,0,0,-1,1476,638,0,0
259,386,0,0,0,0,0,0,0,0,0,-1,1483,638,0,0
266,386,0,0,0,0,0,0,0,0,0,-1,1490,638,0,0
273,386,0,0,0,0,0,0,0,0,0,-1,1497,638,0,0
280,386,0,0,0,0,0,0,0,0,0,-1,1504,638,0,0
287,386,0,0,0,0,0,0,0,0,0,-1,1511,638,0,0
294,386,0,0,0,0,0,0,0,0,0,-1,1518,638,0,0
301,386,0,0,0,0,0,0,0,0,0,-1,1525,638,0,0
308,386,0,0,0,0,0,0,0,0,0,-1,1532,638,0,0
315,386,0,0,0,0,0,0,0,0,0,-1,1539,638,0,0
322,386,0,0,0,0,0,0,0,0,0,-1,1546,638,0,0
329,386,0,0,0,0,0,0,0,0,0,-1,1553,638,0,0
336,386,0,0,0,0,0,0,0,0,0,-1,1560,638,0,0
343,386,0,0,0,0,0,0,0,0,0,-1,1567,638,0,0
350,386,0,0,0,0,0,0,0,0,0,-1,1574,638,0,0
357,386,0,0,0,0,0,0,0,0,0,-1,1581,638,0,0
364,386,0,0,0,0,0,0,0,0,0,-1,1588,638,0,0
371,386,0,0,0,0,0,0,0,0,0,-1,1595,638,0,0
378,386,0,0,0,0,0,0,0,0,0,-1,1602,638,0,0
385,386,0,0,0,0,0,0,0,0,0,-1,1609,638,0,0
392,386,0,0,0,0,0,0,0,0,0,-1,1616,638,0,0
399,386,0,0,0,0,0,0,0,0,0,-1,1623,638,0,0
406,386,0,0,0,0,0,0,0,0,0,-1,1630,638,0,0
413,386,0,0,0,0,0,0,0,0,0,-1,1637,638,0,0
420,386,0,0,0,0,0,0,0,0,0,-1,1644,638,0,0
427,386,0,0,0,0,0,0,0,0,0,-1,1651,638,0,0
434,386,0,0,0,0,0,0,0,0,0,-1,1658,638,0,0
441,386,0,0,0,0,0,0,0,0,0,-1,1665,638,0,0
448,386,0,0,0,0,0,0,0,0,0,-1,1672,638,0,0
455,386,0,0,0,0,0,0,0,0,0,-1,1679,638,0,0
462,386,0,0,0,0,0,0,0,0,0,-1,1686,638,0,0
469,386,0.420654,-0.401672,0,0,0,0,0,0,0,-1,1693,638,0.420664,0.401681
476,386,0.136108,-0.435974,0,0,0,0,0,0,0,-1,1700,638,0.136141,0.435949
483,386,-0.532959,0.149292,0,0,0,0,0,0,0,-1,1707,638,-0.532918,-0.149315
490,386,-0.332031,-0.158691,0.0113903,0.0333714,-0.0134146,0.0397227,0.00503888,-1.1286,0.0249722,0.0437983,1714,638,-0.331997,0.158689
497,386,-0.115356,-0.209473,0.00674769,0.0271913,-0.0107562,0.031808,0.00213099,-1.16536,0.0205319,0.0424855,1721,638,-0.115381,0.209443
504,386,0.00280762,-0.83905,0,0,0,0,0,0,0,-1,1728,638,0.00275086,0.839073
511,386,0.0336914,-0.529968,-0.000501752,0.015736,-0.00661279,0.0180883,-0.00285403,-1.22904,0.0131141,0.0440393,1735,638,0.0336792,0.529984
518,386,0.0601807,-0.479248,-0.0026979,0.010852,-0.00490544,0.0124414,-0.00428736,-1.25745,0.0100335,0.0436462,1742,638,0.0602045,0.479259
525,386,0.0953369,-0.421997,-0.00399662,0.00668623,-0.00352676,0.00774549,-0.00505588,-1.27902,0.00744506,0.0451002,1749,638,0.0953719,0.421985
532,386,0.133179,-0.323425,-0.00448054,0.00349954,-0.00239675,0.00416405,-0.00514505,-1.30034,0.00538455,0.0451838,1756,638,0.133142,0.323439
539,386,0.109619,-0.136902,-0.0046283,0.000421758,-0.00124833,0.000713482,-0.00492002,-1.34122,0.00354188,0.0434806,1763,638,0.109655,0.136905
546,386,0.012207,-0.122192,-0.00421207,-0.000976578,-0.000826353,-0.000777745,-0.0044109,-1.33467,0.00271869,0.0385036,1770,638,0.0122118,0.122168
553,386,-0.00109863,-0.122375,-0.00342423,-0.00140846,-0.0004426,-0.00131556,-0.00351713,-1.3639,0.00205198,0.0309095,1777,638,-0.00113565,0.122354
560,386,-0.00585938,-0.0980225,-0.00225833,-0.00148824,-0.000383463,-0.00132986,-0.0024167,-1.17913,0.00139763,0.0209291,1784,638,-0.00585409,0.098033
567,386,-0.0185547,-0.0444946,-0.00136323,-0.00151781,-0.000245729,-0.00118292,-0.00169812,-0.633028,0.00100535,0.0146162,1791,638,-0.0186007,0.0444853
574,386,-0.0275879,-0.0541382,-0.000681435,-0.00120613,-4.09313e-06,-0.000681403,-0.00120617,-0.00780028,0.000698335,0.012024,1798,638,-0.0275595,0.0541197
581,386,-0.0332031,-0.0778809,-0.000270895,-0.0010311,4.99804e-05,-0.000267623,-0.00103437,0.0653709,0.000619938,0.0117423,1805,638,-0.0332148,0.0778964
588,386,-0.0314941,-0.0697632,-5.39009e-05,-0.000647411,7.38499e-05,-4.48498e-05,-0.000656462,0.121952,0.000423484,0.0108231,1812,638,-0.0315353,0.069735
595,386,-0.0366211,-0.0797119,0.000505482,-0.000242682,0.000130926,0.000527732,-0.000264931,0.168334,0.000465953,0.0110566,1819,638,-0.0366464,0.079689
602,386,-0.0270996,-0.0878296,0.00120718,-0.000486843,-1.75123e-05,0.00120737,-0.000487024,-0.0103362,0.00100729,0.0127508,1826,638,-0.0270567,0.0878402
609,386,-0.0284424,-0.0947266,0.00158313,-0.00094245,-5.54791e-05,0.00158435,-0.000943669,-0.0219527,0.00147509,0.0138511,1833,638,-0.028425,0.0947286
616,386,-0.0522461,-0.0778198,0.00174222,-0.0014663,-0.000319246,0.00177368,-0.00149776,-0.0982161,0.001891,0.0102736,1840,638,-0.0522374,0.0778438
623,386,-0.0561523,-0.0577393,0.00221577,-0.00245268,-0.000255908,0.00222975,-0.00246667,-0.0545985,0.00271263,0.00916385,1847,638,-0.0561245,0.0577545
630,386,-0.0445557,-0.0708618,0.00283505,-0.00364504,-0.000426684,0.00286302,-0.00367301,-0.0654687,0.00378323,0.0148522,1854,638,-0.0445611,0.0708443
637,386,-0.0310059,-0.0704956,0.00334414,-0.00475814,-0.00080225,0.00342281,-0.00483681,-0.0977508,0.00479193,0.0187515,1861,638,-0.0309708,0.0705172
644,386,-0.0739746,-0.120789,0.00406576,-0.00604946,-0.00128108,0.00422548,-0.00620919,-0.12404,0.00606064,0.028769,1868,638,-0.0739767,0.120784
651,386,0.158325,-0.421326,0.00482066,-0.00733768,-0.00165443,0.00504176,-0.00755878,-0.132856,0.00732315,0.0421324,1875,638,0.158274,0.421327
658,386,0.222656,-0.509644,0.00572008,-0.00815951,-0.00186252,0.00596567,-0.0084051,-0.131102,0.00833672,0.0461474,1882,638,0.222715,0.509664
665,386,0.00292969,-0.452576,0.00666783,-0.0084833,-0.00210047,0.00695364,-0.00876911,-0.135237,0.00909768,0.0433631,1889,638,0.00297851,0.452589
672,386,-0.253052,-0.205505,0.00793541,-0.00752619,-0.00234368,0.00828286,-0.00787364,-0.147178,0.00932896,0.042786,1896,638,-0.253049,0.205498
679,386,-0.443848,-0.06604,0.00980765,-0.00449382,-0.00276928,0.0103252,-0.00501133,-0.184743,0.00902995,0.0456464,1903,638,-0.443838,0.0660426
686,386,0,0,0,0,0,0,0,0,0,-1,1910,638,0,0
693,386,0,0,0,0,0,0,0,0,0,-1,1917,638,0,0
700,386,0,0,0,0,0,0,0,0,0,-1,1924,638,0,0
707,386,0,0,0,0,0,0,0,0,0,-1,1931,638,0,0
714,386,0,0,0,0,0,0,0,0,0,-1,1938,638,0,0
721,386,0,0,0,0,0,0,0,0,0,-1,1945,638,0,0
728,386,0,0,0,0,0,0,0,0,0,-1,1952,638,0,0
735,386,0,0,0,0,0,0,0,0,0,-1,1959,638,0,0
742,386,0,0,0,0,0,0,0,0,0,-1,1966,638,0,0
749,386,0,0,0,0,0,0,0,0,0,-1,1973,638,0,0
756,386,0,0,0,0,0,0,0,0,0,-1,1980,638,0,0
763,386,0,0,0,0,0,0,0,0,0,-1,1987,638,0,0
770,386,0,0,0,0,0,0,0,0,0,-1,1994,638,0,0
777,386,0,0,0,0,0,0,0,0,0,-1,2001,638,0,0
784,386,0,0,0,0,0,0,0,0,0,-1,2008,638,0,0
791,386,0,0,0,0,0,0,0,0,0,-1,2015,638,0,0
798,386,0,0,0,0,0,0,0,0,0,-1,2022,638,0,0
805,386,0,0,0,0,0,0,0,0,0,-1,2029,638,0,0
812,386,0,0,0,0,0,0,0,0,0,-1,2036,638,0,0
-700,379,0,0,0,0,0,0,0,0,0,-1,524,645,0,0
-693,379,0,0,0,0,0,0,0,0,0,-1,531,645,0,0
-686,379,0,0,0,0,0,0,0,0,0,-1,538,645,0,0
-679,379,0,0,0,0,0,0,0,0,0,-1,545,645,0,0
-672,379,0,0,0,0,0,0,0,0,0,-1,552,645,0,0
-665,379,0,0,0,0,0,0,0,0,0,-1,559,645,0,0
-658,379,0,0,0,0,0,0,0,0,0,-1,566,645,0,0
-651,379,0,0,0,0,0,0,0,0,0,-1,573,645,0,0
-644,379,0,0,0,0,0,0,0,0,0,-1,580,645,0,0
-637,379,0,0,0,0,0,0,0,0,0,-1,587,645,0,0
-630,379,0,0,0,0,0,0,0,0,0,-1,594,645,0,0
-623,379,0,0,0,0,0,0,0,0,0,-1,601,645,0,0
-616,379,0,0,0,0,0,0,0,0,0,-1,608,645,0,0
-609,379,0,0,0,0,0,0,0,0,0,-1,615,645,0,0
-602,379,0,0,0,0,0,0,0,0,0,-1,622,645,0,0
-595,379,0,0,0,0,0,0,0,0,0,-1,629,645,0,0
-588,379,0,0,0,0,0,0,0,0,0,-1,636,645,0,0
-581,379,0,0,0,0,0,0,0,0,0,-1,643,645,0,0
-574,379,0,0,0,0,0,0,0,0,0,-1,650,645,0,0
-567,379,2.77454,0.0722046,0,0,0,0,0,0,0,-1,657,645,2.77451,-0.0721784
-560,379,2.21423,0.194702,-0.00786185,0.0122318,0.0251659,0.0292823,-0.0249123,0.975317,0.0313231,0.0472915,664,645,2.21424,-0.194708
-553,379,1.42517,0.159363,0,0,0,0,0,0,0,-1,671,645,1.42515,-0.15936
-546,379,0.844116,0.00256348,-0.0136655,0.0141161,0.0153279,0.020911,-0.0204604,1.15352,0.0238862,0.0458631,678,645,0.844121,-0.00256041
-539,379,0.521606,0.0720215,-0.0142953,0.0135014,0.0116691,0.0177506,-0.0185444,1.22158,0.0209566,0.0424637,685,645,0.521592,-0.0720399
-532,379,0.110474,0.166992,-0.0137042,0.0120923,0.00838428,0.0145779,-0.0161897,1.2826,0.0177718,0.0436225,692,645,0.110485,-0.167014
-525,379,-0.0614014,-0.0795898,-0.012327,0.0107436,0.0061303,0.0122714,-0.0138547,1.32656,0.0150931,0.0457295,699,645,-0.0614289,0.0795837
-518,379,-0.149292,-0.145142,-0.0106435,0.00841921,0.00305845,0.0088979,-0.0111221,1.41554,0.0115823,0.0393369,706,645,-0.149274,0.14513
-511,379,-0.0588989,-0.0627441,-0.00881963,0.00673493,0.00150784,0.00687975,-0.00896445,1.47505,0.00917401,0.0210437,713,645,-0.0589109,0.0627702
-504,379,-0.0274048,-0.0863037,-0.00650641,0.00475813,0.000902102,0.00482992,-0.00657819,1.49139,0.00661221,0.0101934,720,645,-0.0274127,0.0862885
-497,379,-0.0267334,-0.0996094,-0.00496852,0.00351353,0.000349355,0.0035279,-0.00498289,1.5297,0.00493758,0.00864738,727,645,-0.0267619,0.0996301
-490,379,-0.0152588,-0.0892334,-0.00333437,0.0025516,7.39656e-05,0.00255253,-0.0033353,1.55823,0.00340934,0.00861197,734,645,-0.0152796,0.0892295
-483,379,0.00628662,-0.0834961,-0.00187905,0.00157046,-5.75529e-05,0.00157143,-0.00188001,-1.55412,0.00199534,0.0103191,741,645,0.00630902,0.0835144
-476,379,0.0122681,-0.0648193,-0.000975963,0.000962672,-0.000256389,0.000996007,-0.0010093,-1.44151,0.00115777,0.0114562,748,645,0.0122787,0.064825
-469,379,0.00665283,-0.0498657,-0.000725912,0.000620178,-0.000554999,0.000819494,-0.000925228,-1.22601,0.00100793,0.0106228,755,645,0.00664777,0.0498569
-462,379,-0.00976563,-0.0622559,-0.00084601,0.000636854,-0.000682258,0.000902992,-0.00111215,-1.19887,0.00116553,0.00836163,762,645,-0.00977333,0.0622601
-455,379,-0.038208,-0.0665283,-0.00128732,0.000839891,-0.000973399,0.00121808,-0.0016655,-1.20022,0.0016715,0.0088191,769,645,-0.0382104,0.0665486
-448,379,-0.024353,-0.0506592,-0.00202862,0.00127246,-0.00152656,0.00187018,-0.00262635,-1.1976,0.00260828,0.0105481,776,645,-0.0243558,0.0506551
-441,379,-0.0325317,-0.0530396,-0.00279431,0.00213286,-0.00253472,0.00320397,-0.00386542,-1.17098,0.00408747,0.0121013,783,645,-0.0325449,0.0530096
-434,379,-0.0593262,-0.0662842,-0.00389923,0.00373767,-0.00388113,0.00536383,-0.00552539,-1.17403,0.00628712,0.0206278,790,645,-0.0593419,0.0662672
-427,379,-0.0279541,-0.0478516,-0.00538106,0.00591867,-0.00530286,0.00801743,-0.00747983,-1.19393,0.00894914,0.031369,797,645,-0.0279838,0.047841
-420,379,0.0055542,-0.0436401,-0.00698204,0.00954274,-0.00662223,0.0118691,-0.00930837,-1.23297,0.0122566,0.0378562,804,645,0.00555534,0.0436648
-413,379,0.243164,0.0339355,-0.00906932,0.013836,-0.00829516,0.0165245,-0.0117578,-1.25737,0.016406,0.0417093,811,645,0.243177,-0.0339212
-406,379,0.528137,0.322021,-0.0115835,0.019471,-0.00986803,0.0223414,-0.0144539,-1.28773,0.0214059,0.044797,818,645,0.528164,-0.322024
-399,379,0.714478,0.462585,-0.0146619,0.0274036,-0.010732,0.0299834,-0.0172417,-1.33489,0.0275943,0.0458663,825,645,0.714485,-0.462592
-392,379,0.696106,-1.37903,0,0,0,0,0,0,0,-1,832,645,0.696082,1.37904
-385,379,0.685425,-1.61517,0,0,0,0,0,0,0,-1,839,645,0.685416,1.61518
-378,379,-0.96228,0.326172,0,0,0,0,0,0,0,-1,846,645,-0.962307,-0.326198
-371,379,2.72052,-1.93512,0,0,0,0,0,0,0,-1,853,645,2.7205,1.93511
-364,379,1.37476,-2.15979,0,0,0,0,0,0,0,-1,860,645,1.37477,2.15977
-357,379,0,0,0,0,0,0,0,0,0,-1,867,645,0,0
-350,379,0,0,0,0,0,0,0,0,0,-1,874,645,0,0
-343,379,0,0,0,0,0,0,0,0,0,-1,881,645,0,0
-336,379,0,0,0,0,0,0,0,0,0,-1,888,645,0,0
-329,379,0,0,0,0,0,0,0,0,0,-1,895,645,0,0
-322,379,0,0,0,0,0,0,0,0,0,-1,902,645,0,0
-315,379,0,0,0,0,0,0,0,0,0,-1,909,645,0,0
-308,379,0,0,0,0,0,0,0,0,0,-1,916,645,0,0
-301,379,0,0,0,0,0,0,0,0,0,-1,923,645,0,0
-294,379,0,0,0,0,0,0,0,0,0,-1,930,645,0,0
-287,379,0,0,0,0,0,0,0,0,0,-1,937,645,0,0
-280,379,0,0,0,0,0,0,0,0,0,-1,944,645,0,0
-273,379,0,0,0,0,0,0,0,0,0,-1,951,645,0,0
-266,379,0,0,0,0,0,0,0,0,0,-1,958,645,0,0
-259,379,0,0,0,0,0,0,0,0,0,-1,965,645,0,0
-252,379,0,0,0,0,0,0,0,0,0,-1,972,645,0,0
-245,379,0,0,0,0,0,0,0,0,0,-1,979,645,0,0
-238,379,0,0,0,0,0,0,0,0,0,-1,986,645,0,0
-231,379,0,0,0,0,0,0,0,0,0,-1,993,645,0,0
-224,379,0,0,0,0,0,0,0,0,0,-1,1000,645,0,0
-217,379,0,0,0,0,0,0,0,0,0,-1,1007,645,0,0
-210,379,0,0,0,0,0,0,0,0,0,-1,1014,645,0,0
-203,379,0,0,0,0,0,0,0,0,0,-1,1021,645,0,0
-196,379,0,0,0,0,0,0,0,0,0,-1,1028,645,0,0
-189,379,0,0,0,0,0,0,0,0,0,-1,1035,645,0,0
-182,379,0,0,0,0,0,0,0,0,0,-1,1042,645,0,0
-175,379,0,0,0,0,0,0,0,0,0,-1,1049,645,0,0
-168,379,0,0,0,0,0,0,0,0,0,-1,1056,645,0,0
-161,379,0,0,0,0,0,0,0,0,0,-1,1063,645,0,0
-154,379,0,0,0,0,0,0,0,0,0,-1,1070,645,0,0
-147,379,0,0,0,0,0,0,0,0,0,-1,1077,645,0,0
-140,379,0,0,0,0,0,0,0,0,0,-1,1084,645,0,0
-133,379,0,0,0,0,0,0,0,0,0,-1,1091,645,0,0
-126,379,0,0,0,0,0,0,0,0,0,-1,1098,645,0,0
-119,379,0,0,0,0,0,0,0,0,0,-1,1105,645,0,0
-112,379,0,0,0,0,0,0,0,0,0,-1,1112,645,0,0
-105,379,0,0,0,0,0,0,0,0,0,-1,1119,645,0,0
-98,379,0,0,0,0,0,0,0,0,0,-1,1126,645,0,0
-91,379,0,0,0,0,0,0,0,0,0,-1,1133,645,0,0
-84,379,0,0,0,0,0,0,0,0,0,-1,1140,645,0,0
-77,379,0,0,0,0,0,0,0,0,0,-1,1147,645,0,0
-70,379,0,0,0,0,0,0,0,0,0,-1,1154,645,0,0
-63,379,0,0,0,0,0,0,0,0,0,-1,1161,645,0,0
-56,379,0,0,0,0,0,0,0,0,0,-1,1168,645,0,0
-49,379,0,0,0,0,0,0,0,0,0,-1,1175,645,0,0
-42,379,0,0,0,0,0,0,0,0,0,-1,1182,645,0,0
-35,379,0,0,0,0,0,0,0,0,0,-1,1189,645,0,0
-28,379,0,0,0,0,0,0,0,0,0,-1,1196,645,0,0
-21,379,0,0,0,0,0,0,0,0,0,-1,1203,645,0,0
-14,379,0,0,0,0,0,0,0,0,0,-1,1210,645,0,0
-7,379,0,0,0,0,0,0,0,0,0,-1,1217,645,0,0
0,379,0,0,0,0,0,0,0,0,0,-1,1224,645,0,0
7,379,0,0,0,0,0,0,0,0,0,-1,1231,645,0,0
14,379,0,0,0,0,0,0,0,0,0,-1,1238,645,0,0
21,379,0,0,0,0,0,0,0,0,0,-1,1245,645,0,0
28,379,0,0,0,0,0,0,0,0,0,-1,1252,645,0,0
35,379,0,0,0,0,0,0,0,0,0,-1,1259,645,0,0
42,379,0,0,0,0,0,0,0,0,0,-1,1266,645,0,0
49,379,0,0,0,0,0,0,0,0,0,-1,1273,645,0,0
56,379,0,0,0,0,0,0,0,0,0,-1,1280,645,0,0
63,379,0,0,0,0,0,0,0,0,0,-1,1287,645,0,0
70,379,0,0,0,0,0,0,0,0,0,-1,1294,645,0,0
77,379,0,0,0,0,0,0,0,0,0,-1,1301,645,0,0
84,379,0,0,0,0,0,0,0,0,0,-1,1308,645,0,0
91,379,0,0,0,0,0,0,0,0,0,-1,1315,645,0,0
98,379,0,0,0,0,0,0,0,0,0,-1,1322,645,0,0
105,379,0,0,0,0,0,0,0,0,0,-1,1329,645,0,0
112,379,0,0,0,0,0,0,0,0,0,-1,1336,645,0,0
119,379,0,0,0,0,0,0,0,0,0,-1,1343,645,0,0
126,379,0,0,0,0,0,0,0,0,0,-1,1350,645,0,0
133,379,0,0,0,0,0,0,0,0,0,-1,1357,645,0,0
140,379,0,0,0,0,0,0,0,0,0,-1,1364,645,0,0
147,379,0,0,0,0,0,0,0,0,0,-1,1371,645,0,0
154,379,0,0,0,0,0,0,0,0,0,-1,1378,645,0,0
161,379,0,0,0,0,0,0,0,0,0,-1,1385,645,0,0
168,379,0,0,0,0,0,0,0,0,0,-1,1392,645,0,0
175,379,0,0,0,0,0,0,0,0,0,-1,1399,645,0,0
182,379,0,0,0,0,0,0,0,0,0,-1,1406,645,0,0
189,379,0,0,0,0,0,0,0,0,0,-1,1413,645,0,0
196,379,0,0,0,0,0,0,0,0,0,-1,1420,645,0,0
203,379,0,0,0,0,0,0,0,0,0,-1,1427,645,0,0
210,379,0,0,0,0,0,0,0,0,0,-1,1434,645,0,0
217,379,0,0,0,0,0,0,0,0,0,-1,1441,645,0,0
224,379,0,0,0,0,0,0,0,0,0,-1,1448,645,0,0
231,379,0,0,0,0,0,0,0,0,0,-1,1455,645,0,0
238,379,0,0,0,0,0,0,0,0,0,-1,1462,645,0,0
245,379,0,0,0,0,0,0,0,0,0,-1,1469,645,0,0
252,379,0,0,0,0,0,0,0,0,0,-1,1476,645,0,0
259,379,0,0,0,0,0,0,0,0,0,-1,1483,645,0,0
266,379,0,0,0,0,0,0,0,0,0,-1,1490,645,0,0
273,379,0,0,0,0,0,0,0,0,0,-1,1497,645,0,0
280,379,0,0,0,0,0,0,0,0,0,-1,1504,645,0,0
287,379,0,0,0,0,0,0,0,0,0,-1,1511,645,0,0
294,379,0,0,0,0,0,0,0,0,0,-1,1518,645,0,0
301,379,0,0,0,0,0,0,0,0,0,-1,1525,645,0,0
308,379,0,0,0,0,0,0,0,0,0,-1,1532,645,0,0
315,379,0,0,0,0,0,0,0,0,0,-1,1539,645,0,0
322,379,0,0,0,0,0,0,0,0,0,-1,1546,645,0,0
329,379,0,0,0,0,0,0,0,0,0,-1,1553,645,0,0
336,379,0,0,0,0,0,0,0,0,0,-1,1560,645,0,0
343,379,0,0,0,0,0,0,0,0,0,-1,1567,645,0,0
350,379,0,0,0,0,0,0,0,0,0,-1,1574,645,0,0
357,379,0,0,0,0,0,0,0,0,0,-1,1581,645,0,0
364,379,0,0,0,0,0,0,0,0,0,-1,1588,645,0,0
371,379,0,0,0,0,0,0,0,0,0,-1,1595,645,0,0
378,379,0,0,0,0,0,0,0,0,0,-1,1602,645,0,0
385,379,0,0,0,0,0,0,0,0,0,-1,1609,645,0,0
392,379,0,0,0,0,0,0,0,0,0,-1,1616,645,0,0
399,379,0,0,0,0,0,0,0,0,0,-1,1623,645,0,0
406,379,0,0,0,0,0,0,0,0,0,-1,1630,645,0,0
413,379,0,0,0,0,0,0,0,0,0,-1,1637,645,0,0
420,379,0,0,0,0,0,0,0,0,0,-1,1644,645,0,0
427,379,0,0,0,0,0,0,0,0,0,-1,1651,645,0,0
434,379,0,0,0,0,0,0,0,0,0,-1,1658,645,0,0
441,379,0,0,0,0,0,0,0,0,0,-1,1665,645,0,0
448,379,0,0,0,0,0,0,0,0,0,-1,1672,645,0,0
455,379,0,0,0,0,0,0,0,0,0,-1,1679,645,0,0
462,379,0,0,0,0,0,0,0,0,0,-1,1686,645,0,0
469,379,0,0,0,0,0,0,0,0,0,-1,1693,645,0,0
476,379,-1.32947,-0.289551,0,0,0,0,0,0,0,-1,1700,645,-1.32951,0.289552
483,379,-1.10706,-0.487427,0.0134514,0.0498997,-0.0228277,0.0608855,0.00246555,-1.12226,0.039794,0.0439254,1707,645,-1.10706,0.487405
490,379,-0.866577,-0.67218,0.00788243,0.0411335,-0.0183529,0.0492716,-0.000255644,-1.15343,0.0329333,0.0440411,1714,645,-0.86655,0.672161
497,379,-0.578613,-0.84845,0.00347626,0.0323043,-0.0143476,0.0382279,-0.00244727,-1.17925,0.0263389,0.0411821,1721,645,-0.578556,0.848464
504,379,-0.339111,-0.939697,0,0,0,0,0,0,0,-1,1728,645,-0.339147,0.939703
511,379,-0.110596,-0.686951,-0.00238243,0.0175984,-0.00854553,0.0207547,-0.00553867,-1.21699,0.0160054,0.0462021,1735,645,-0.110645,0.686968
518,379,0.393677,-0.514526,-0.0038404,0.0117104,-0.00631917,0.0139545,-0.00608441,-1.22957,0.0118631,0.0436064,1742,645,0.393649,0.51455
525,379,0.554565,-0.651062,-0.00447121,0.00682118,-0.00455512,0.00842955,-0.00607957,-1.23137,0.00841339,0.0447907,1749,645,0.554615,0.651082
532,379,0.251587,-0.239014,-0.00449687,0.00322611,-0.00326171,0.00441931,-0.00569007,-1.2201,0.005852,0.043449,1756,645,0.251556,0.239
539,379,0.286865,-0.129517,-0.00438058,-0.000146492,-0.00196,0.00062151,-0.00514858,-1.19735,0.0036572,0.0429639,1763,645,0.286907,0.129503
546,379,0.212402,-0.00671387,-0.00388398,-0.00161691,-0.00145686,-0.000904553,-0.00459634,-1.11601,0.00281164,0.049516,1770,645,0.212384,0.00670567
553,379,0.0830078,-0.0178833,-0.00313926,-0.00207049,-0.00105393,-0.00142321,-0.00378654,-1.02003,0.00220851,0.0451662,1777,645,0.0830453,0.0179076
560,379,0.0327148,-0.0915527,-0.00203492,-0.00211707,-0.000958367,-0.00111675,-0.00303524,-0.763982,0.00177266,0.0256258,1784,645,0.0327465,0.0915249
567,379,-0.0108643,-0.0529175,-0.00121524,-0.00209856,-0.000757465,-0.000780077,-0.00253372,-0.521458,0.00149841,0.0124954,1791,645,-0.0108208,0.0529475
574,379,-0.0339355,-0.0546265,-0.000630477,-0.00167751,-0.0004873,-0.000438779,-0.00186921,-0.374793,0.00112867,0.00934921,1798,645,-0.0339875,0.0546168
581,379,-0.0285645,-0.0770874,-0.000322901,-0.00135616,-0.000415905,-0.000176294,-0.00150276,-0.338903,0.000948554,0.0118265,1805,645,-0.0285845,0.0770641
588,379,-0.0336914,-0.086792,-0.000235106,-0.00080238,-0.000365247,-5.62978e-05,-0.000981188,-0.455256,0.00063619,0.0149335,1812,645,-0.0336966,0.0868098
595,379,-0.0357666,-0.0828857,0.000163819,-0.000281485,-0.000262307,0.00028523,-0.000402895,-0.433494,0.000399221,0.0126162,1819,645,-0.0357777,0.0828969
602,379,-0.010498,-0.0856934,0.000711469,-0.000402757,-0.000322449,0.000798055,-0.000489343,-0.262338,0.000750369,0.0121198,1826,645,-0.0105092,0.0857141
609,379,-0.0192871,-0.0895996,0.00100941,-0.00076406,-0.000337647,0.00107152,-0.000826168,-0.181912,0.00109868,0.011681,1833,645,-0.019271,0.089619
616,379,-0.0452881,-0.0818481,0.00106315,-0.00120831,-0.000599366,0.0012116,-0.00135676,-0.242795,0.00148363,0.0095454,1840,645,-0.0453386,0.0818317
623,379,-0.0462646,-0.0703125,0.00141169,-0.00208871,-0.00055176,0.0014966,-0.00217362,-0.152697,0.00213099,0.0104367,1847,645,-0.0462184,0.0703211
630,379,-0.0478516,-0.0799561,0.0018907,-0.00309202,-0.000686992,0.00198368,-0.003185,-0.134532,0.00301089,0.0124433,1854,645,-0.0477977,0.0799848
637,379,-0.0303955,-0.0939331,0.0022304,-0.0039816,-0.0010069,0.00238953,-0.00414073,-0.156745,0.00381517,0.0125292,1861,645,-0.0303587,0.093954
644,379,0.00109863,-0.102234,0.00283442,-0.00492491,-0.00145123,0.00309696,-0.00518745,-0.178973,0.0048335,0.0185288,1868,645,0.00107487,0.102219
651,379,0.0866699,-0.291199,0.00353606,-0.00566075,-0.00181246,0.00388036,-0.00600506,-0.187726,0.00575113,0.0407042,1875,645,0.086657,0.291202
658,379,-0.036499,-0.433105,0.0044076,-0.00565898,-0.00200737,0.00479312,-0.0060445,-0.189744,0.00627099,0.0454338,1882,645,-0.0364999,0.433105
665,379,-0.388306,-0.422119,0,0,0,0,0,0,0,-1,1889,645,-0.38834,0.422112
672,379,-0.657227,0.263733,0.0067045,-0.00247352,-0.00270416,0.00744198,-0.003211,-0.266246,0.00631013,0.0460007,1896,645,-0.657287,-0.263707
679,379,-0.188477,0.884216,0.00861998,0.00218656,-0.00326675,0.0099879,0.000818629,-0.396558,0.00640319,0.0462045,1903,645,-0.188523,-0.884193
686,379,0,0,0,0,0,0,0,0,0,-1,1910,645,0,0
693,379,0,0,0,0,0,0,0,0,0,-1,1917,645,0,0
700,379,0,0,0,0,0,0,0,0,0,-1,1924,645,0,0
707,379,0,0,0,0,0,0,0,0,0,-1,1931,645,0,0
714,379,0,0,0,0,0,0,0,0,0,-1,1938,645,0,0
721,379,0,0,0,0,0,0,0,0,0,-1,1945,645,0,0
728,379,0,0,0,0,0,0,0,0,0,-1,1952,645,0,0
735,379,0,0,0,0,0,0,0,0,0,-1,1959,645,0,0
742,379,0,0,0,0,0,0,0,0,0,-1,1966,645,0,0
749,379,0,0,0,0,0,0,0,0,0,-1,1973,645,0,0
756,379,0,0,0,0,0,0,0,0,0,-1,1980,645,0,0
763,379,0,0,0,0,0,0,0,0,0,-1,1987,645,0,0
770,379,0,0,0,0,0,0,0,0,0,-1,1994,645,0,0
777,379,0,0,0,0,0,0,0,0,0,-1,2001,645,0,0
784,379,0,0,0,0,0,0,0,0,0,-1,2008,645,0,0
791,379,0,0,0,0,0,0,0,0,0,-1,2015,645,0,0
798,379,0,0,0,0,0,0,0,0,0,-1,2022,645,0,0
805,379,0,0,0,0,0,0,0,0,0,-1,2029,645,0,0
812,379,0,0,0,0,0,0,0,0,0,-1,2036,645,0,0
-700,372,0,0,0,0,0,0,0,0,0,-1,524,652,0,0
-693,372,0,0,0,0,0,0,0,0,0,-1,531,652,0,0
-686,372,0,0,0,0,0,0,0,0,0,-1,538,652,0,0
-679,372,0,0,0,0,0,0,0,0,0,-1,545,652,0,0
-672,372,0,0,0,0,0,0,0,0,0,-1,552,652,0,0
-665,372,0,0,0,0,0,0,0,0,0,-1,559,652,0,0
-658,372,0,0,0,0,0,0,0,0,0,-1,566,652,0,0
-651,372,0,0,0,0,0,0,0,0,0,-1,573,652,0,0
-644,372,0,0,0,0,0,0,0,0,0,-1,580,652,0,0
-637,372,0,0,0,0,0,0,0,0,0,-1,587,652,0,0
-630,372,0,0,0,0,0,0,0,0,0,-1,594,652,0,0
-623,372,0,0,0,0,0,0,0,0,0,-1,601,652,0,0
-616,372,0,0,0,0,0,0,0,0,0,-1,608,652,0,0
-609,372,0,0,0,0,0,0,0,0,0,-1,615,652,0,0
-602,372,0,0,0,0,0,0,0,0,0,-1,622,652,0,0
-595,372,0,0,0,0,0,0,0,0,0,-1,629,652,0,0
-588,372,0,0,0,0,0,0,0,0,0,-1,636,652,0,0
-581,372,0,0,0,0,0,0,0,0,0,-1,643,652,0,0
-574,372,0,0,0,0,0,0,0,0,0,-1,650,652,0,0
-567,372,0.581238,-0.549988,0,0,0,0,0,0,0,-1,657,652,0.581264,0.549979
-560,372,2.10486,-0.427063,0,0,0,0,0,0,0,-1,664,652,2.10484,0.427041
-553,372,0.677979,0.869385,0,0,0,0,0,0,0,-1,671,652,0.677999,-0.869405
-546,372,0.792542,1.44696,0,0,0,0,0,0,0,-1,678,652,0.792531,-1.44698
-539,372,0.503479,1.82635,0,0,0,0,0,0,0,-1,685,652,0.503478,-1.82633
-532,372,-0.195129,-0.190125,-0.00819845,0.0110906,0.00886049,0.0145428,-0.0116507,1.19927,0.0151535,0.0462724,692,652,-0.195155,0.190143
-525,372,0.0775146,-0.0436401,-0.00795166,0.00973371,0.00671777,0.011996,-0.010214,1.24596,0.0128367,0.0439846,699,652,0.0775255,0.0436251
-518,372,-0.00598145,-0.0689697,-0.00735258,0.00741035,0.00360962,0.00824566,-0.00818789,1.34339,0.00948793,0.0253692,706,652,-0.00599962,0.0689741
-511,372,-0.0408936,-0.0794067,-0.00649238,0.00586044,0.00195633,0.00616286,-0.00679481,1.41742,0.00748408,0.0107865,713,652,-0.0409159,0.0794266
-504,372,-0.0281982,-0.0946045,-0.00496099,0.00401147,0.0012303,0.00417711,-0.00512663,1.43697,0.00538083,0.00917361,720,652,-0.0282037,0.0945823
-497,372,-0.0182495,-0.106873,-0.00398347,0.00288017,0.000577105,0.00292835,-0.00403166,1.48749,0.00403516,0.0104128,727,652,-0.0182262,0.106901
-490,372,-0.0125732,-0.081543,-0.00279685,0.00200187,0.000257153,0.00201561,-0.00281059,1.51741,0.00279898,0.0107114,734,652,-0.012549,0.0815169
-483,372,-0.00964355,-0.0625,-0.00158782,0.00108867,6.94437e-05,0.00109047,-0.00158962,1.54487,0.00155627,0.0104348,741,652,-0.00962852,0.0624873
-476,372,-0.00634766,-0.0487671,-0.00102243,0.000613842,-0.000316812,0.000673041,-0.00108163,-1.38607,0.00102217,0.011499,748,652,-0.00634344,0.0487623
-469,372,-0.00518799,-0.0456543,-0.00112849,0.000447242,-0.00070786,0.000718526,-0.00139977,-1.20482,0.0012439,0.0096737,755,652,-0.0051767,0.0456836
-462,372,-0.0098877,-0.0723877,-0.00169258,0.000606611,-0.000950188,0.000948467,-0.00203444,-1.22544,0.00175981,0.00889052,762,652,-0.00985958,0.0723932
-455,372,-0.0229492,-0.069519,-0.00269392,0.000951106,-0.00131972,0.00137875,-0.00312156,-1.25743,0.00266241,0.00919255,769,652,-0.0229502,0.0695134
-448,372,-0.0220337,-0.0483398,-0.00411924,0.00162875,-0.00191951,0.00221081,-0.00470131,-1.27637,0.00407615,0.00898424,776,652,-0.0220334,0.0483572
-441,372,-0.026123,-0.0673218,-0.0056835,0.00265488,-0.00297333,0.00360651,-0.00663513,-1.26104,0.00599858,0.013708,783,652,-0.0261483,0.0673509
-434,372,-0.0380859,-0.0726929,-0.00772738,0.00438662,-0.00435003,0.00578683,-0.00912759,-1.25938,0.00868255,0.0259966,790,652,-0.0381092,0.0726752
-427,372,-0.0536499,-0.0314331,-0.0103107,0.00674352,-0.00579301,0.00852517,-0.0120924,-1.27243,0.0119628,0.0400864,797,652,-0.0536475,0.0314584
-420,372,0.0100708,0.0615845,-0.0132057,0.0105622,-0.00712084,0.0125323,-0.0151758,-1.30088,0.0160215,0.0445442,804,652,0.0100889,-0.0615697
-413,372,0.0340576,-0.0510254,-0.0167478,0.015213,-0.00877625,0.0174643,-0.0189992,-1.31969,0.0210584,0.0484446,811,652,0.0340521,0.0510301
-406,372,0.00592041,-0.0336304,0,0,0,0,0,0,0,-1,818,652,0.00594252,0.0336573
-399,372,0.188416,0.0680542,0,0,0,0,0,0,0,-1,825,652,0.188424,-0.0680359
-392,372,-0.634155,0.280579,0,0,0,0,0,0,0,-1,832,652,-0.634167,-0.280584
-385,372,-0.622437,0.324036,0,0,0,0,0,0,0,-1,839,652,-0.622462,-0.324042
-378,372,-1.17444,0.260193,0,0,0,0,0,0,0,-1,846,652,-1.17445,-0.260217
-371,372,-1.43134,-0.112244,0,0,0,0,0,0,0,-1,853,652,-1.43133,0.112247
-364,372,0,0,0,0,0,0,0,0,0,-1,860,652,0,0
-357,372,0,0,0,0,0,0,0,0,0,-1,867,652,0,0
-350,372,0,0,0,0,0,0,0,0,0,-1,874,652,0,0
-343,372,0,0,0,0,0,0,0,0,0,-1,881,652,0,0
-336,372,0,0,0,0,0,0,0,0,0,-1,888,652,0,0
-329,372,0,0,0,0,0,0,0,0,0,-1,895,652,0,0
-322,372,0,0,0,0,0,0,0,0,0,-1,902,652,0,0
-315,372,0,0,0,0,0,0,0,0,0,-1,909,652,0,0
-308,372,0,0,0,0,0,0,0,0,0,-1,916,652,0,0
-301,372,0,0,0,0,0,0,0,0,0,-1,923,652,0,0
-294,372,0,0,0,0,0,0,0,0,0,-1,930,652,0,0
-287,372,0,0,0,0,0,0,0,0,0,-1,937,652,0,0
-280,372,0,0,0,0,0,0,0,0,0,-1,944,652,0,0
-273,372,0,0,0,0,0,0,0,0,0,-1,951,652,0,0
-266,372,0,0,0,0,0,0,0,0,0,-1,958,652,0,0
-259,372,0,0,0,0,0,0,0,0,0,-1,965,652,0,0
-252,372,0,0,0,0,0,0,0,0,0,-1,972,652,0,0
-245,372,0,0,0,0,0,0,0,0,0,-1,979,652,0,0
-238,372,0,0,0,0,0,0,0,0,0,-1,986,652,0,0
-231,372,0,0,0,0,0,0,0,0,0,-1,993,652,0,0
-224,372,0,0,0,0,0,0,0,0,0,-1,1000,652,0,0
-217,372,0,0,0,0,0,0,0,0,0,-1,1007,652,0,0
-210,372,0,0,0,0,0,0,0,0,0,-1,1014,652,0,0
-203,372,0,0,0,0,0,0,0,0,0,-1,1021,652,0,0
-196,372,0,0,0,0,0,0,0,0,0,-1,1028,652,0,0
-189,372,0,0,0,0,0,0,0,0,0,-1,1035,652,0,0
-182,372,0,0,0,0,0,0,0,0,0,-1,1042,652,0,0
-175,372,0,0,0,0,0,0,0,0,0,-1,1049,652,0,0
-168,372,0,0,0,0,0,0,0,0,0,-1,1056,652,0,0
-161,372,0,0,0,0,0,0,0,0,0,-1,1063,652,0,0
-154,372,0,0,0,0,0,0,0,0,0,-1,1070,652,0,0
-147,372,0,0,0,0,0,0,0,0,0,-1,1077,652,0,0
-140,372,0,0,0,0,0,0,0,0,0,-1,1084,652,0,0
-133,372,0,0,0,0,0,0,0,0,0,-1,1091,652,0,0
-126,372,0,0,0,0,0,0,0,0,0,-1,1098,652,0,0
-119,372,0,0,0,0,0,0,0,0,0,-1,1105,652,0,0
-112,372,0,0,0,0,0,0,0,0,0,-1,1112,652,0,0
-105,372,0,0,0,0,0,0,0,0,0,-1,1119,652,0,0
-98,372,0,0,0,0,0,0,0,0,0,-1,1126,652,0,0
-91,372,0,0,0,0,0,0,0,0,0,-1,1133,652,0,0
-84,372,0,0,0,0,0,0,0,0,0,-1,1140,652,0,0
-77,372,0,0,0,0,0,0,0,0,0,-1,1147,652,0,0
-70,372,0,0,0,0,0,0,0,0,0,-1,1154,652,0,0
-63,372,0,0,0,0,0,0,0,0,0,-1,1161,652,0,0
-56,372,0,0,0,0,0,0,0,0,0,-1,1168,652,0,0
-49,372,0,0,0,0,0,0,0,0,0,-1,1175,652,0,0
-42,372,0,0,0,0,0,0,0,0,0,-1,1182,652,0,0
-35,372,0,0,0,0,0,0,0,0,0,-1,1189,652,0,0
-28,372,0,0,0,0,0,0,0,0,0,-1,1196,652,0,0
-21,372,0,0,0,0,0,0,0,0,0,-1,1203,652,0,0
-14,372,0,0,0,0,0,0,0,0,0,-1,1210,652,0,0
-7,372,0,0,0,0,0,0,0,0,0,-1,1217,652,0,0
0,372,0,0,0,0,0,0,0,0,0,-1,1224,652,0,0
7,372,0,0,0,0,0,0,0,0,0,-1,1231,652,0,0
14,372,0,0,0,0,0,0,0,0,0,-1,1238,652,0,0
21,372,0,0,0,0,0,0,0,0,0,-1,1245,652,0,0
28,372,0,0,0,0,0,0,0,0,0,-1,1252,652,0,0
35,372,0,0,0,0,0,0,0,0,0,-1,1259,652,0,0
42,372,0,0,0,0,0,0,0,0,0,-1,1266,652,0,0
49,372,0,0,0,0,0,0,0,0,0,-1,1273,652,0,0
56,372,0,0,0,0,0,0,0,0,0,-1,1280,652,0,0
63,372,0,0,0,0,0,0,0,0,0,-1,1287,652,0,0
70,372,0,0,0,0,0,0,0,0,0,-1,1294,652,0,0
77,372,0,0,0,0,0,0,0,0,0,-1,1301,652,0,0
84,372,0,0,0,0,0,0,0,0,0,-1,1308,652,0,0
91,372,0,0,0,0,0,0,0,0,0,-1,1315,652,0,0
98,372,0,0,0,0,0,0,0,0,0,-1,1322,652,0,0
105,372,0,0,0,0,0,0,0,0,0,-1,1329,652,0,0
112,372,0,0,0,0,0,0,0,0,0,-1,1336,652,0,0
119,372,0,0,0,0,0,0,0,0,0,-1,1343,652,0,0
126,372,0,0,0,0,0,0,0,0,0,-1,1350,652,0,0
133,372,0,0,0,0,0,0,0,0,0,-1,1357,652,0,0
140,372,0,0,0,0,0,0,0,0,0,-1,1364,652,0,0
147,372,0,0,0,0,0,0,0,0,0,-1,1371,652,0,0
154,372,0,0,0,0,0,0,0,0,0,-1,1378,652,0,0
161,372,0,0,0,0,0,0,0,0,0,-1,1385,652,0,0
168,372,0,0,0,0,0,0,0,0,0,-1,1392,652,0,0
175,372,0,0,0,0,0,0,0,0,0,-1,1399,652,0,0
182,372,0,0,0,0,0,0,0,0,0,-1,1406,652,0,0
189,372,0,0,0,0,0,0,0,0,0,-1,1413,652,0,0
196,372,0,0,0,0,0,0,0,0,0,-1,1420,652,0,0
203,372,0,0,0,0,0,0,0,0,0,-1,1427,652,0,0
210,372,0,0,0,0,0,0,0,0,0,-1,1434,652,0,0
217,372,0,0,0,0,0,0,0,0,0,-1,1441,652,0,0
224,372,0,0,0,0,0,0,0,0,0,-1,1448,652,0,0
231,372,0,0,0,0,0,0,0,0,0,-1,1455,652,0,0
238,372,0,0,0,0,0,0,0,0,0,-1,1462,652,0,0
245,372,0,0,0,0,0,0,0,0,0,-1,1469,652,0,0
252,372,0,0,0,0,0,0,0,0,0,-1,1476,652,0,0
259,372,0,0,0,0,0,0,0,0,0,-1,1483,652,0,0
266,372,0,0,0,0,0,0,0,0,0,-1,1490,652,0,0
273,372,0,0,0,0,0,0,0,0,0,-1,1497,652,0,0
280,372,0,0,0,0,0,0,0,0,0,-1,1504,652,0,0
287,372,0,0,0,0,0,0,0,0,0,-1,1511,652,0,0
294,372,0,0,0,0,0,0,0,0,0,-1,1518,652,0,0
301,372,0,0,0,0,0,0,0,0,0,-1,1525,652,0,0
308,372,0,0,0,0,0,0,0,0,0,-1,1532,652,0,0
315,372,0,0,0,0,0,0,0,0,0,-1,1539,652,0,0
322,372,0,0,0,0,0,0,0,0,0,-1,1546,652,0,0
329,372,0,0,0,0,0,0,0,0,0,-1,1553,652,0,0
336,372,0,0,0,0,0,0,0,0,0,-1,1560,652,0,0
343,372,0,0,0,0,0,0,0,0,0,-1,1567,652,0,0
350,372,0,0,0,0,0,0,0,0,0,-1,1574,652,0,0
357,372,0,0,0,0,0,0,0,0,0,-1,1581,652,0,0
364,372,0,0,0,0,0,0,0,0,0,-1,1588,652,0,0
371,372,0,0,0,0,0,0,0,0,0,-1,1595,652,0,0
378,372,0,0,0,0,0,0,0,0,0,-1,1602,652,0,0
385,372,0,0,0,0,0,0,0,0,0,-1,1609,652,0,0
392,372,0,0,0,0,0,0,0,0,0,-1,1616,652,0,0
399,372,0,0,0,0,0,0,0,0,0,-1,1623,652,0,0
406,372,0,0,0,0,0,0,0,0,0,-1,1630,652,0,0
413,372,0,0,0,0,0,0,0,0,0,-1,1637,652,0,0
420,372,0,0,0,0,0,0,0,0,0,-1,1644,652,0,0
427,372,0,0,0,0,0,0,0,0,0,-1,1651,652,0,0
434,372,0,0,0,0,0,0,0,0,0,-1,1658,652,0,0
441,372,0,0,0,0,0,0,0,0,0,-1,1665,652,0,0
448,372,0,0,0,0,0,0,0,0,0,-1,1672,652,0,0
455,372,0,0,0,0,0,0,0,0,0,-1,1679,652,0,0
462,372,0,0,0,0,0,0,0,0,0,-1,1686,652,0,0
469,372,0,0,0,0,0,0,0,0,0,-1,1693,652,0,0
476,372,0,0,0,0,0,0,0,0,0,-1,1700,652,0,0
483,372,0.617065,-1.55786,0.00649723,0.0594887,-0.0306495,0.0735073,-0.00752142,-1.14182,0.0516947,0.0437117,1707,652,0.617103,1.55785
490,372,0.688599,-1.24786,0.00198419,0.0477528,-0.0239754,0.0580124,-0.00827531,-1.16646,0.0417079,0.0424118,1714,652,0.68859,1.24784
497,372,0.889648,-0.738831,-0.00116066,0.0366815,-0.0183206,0.0440977,-0.00857688,-1.18616,0.0326353,0.0428952,1721,652,0.88962,0.738824
504,372,0.664795,-0.273254,0,0,0,0,0,0,0,-1,1728,652,0.664845,0.27327
511,372,-0.0625,0.164917,0,0,0,0,0,0,0,-1,1735,652,-0.0624701,-0.164909
518,372,0.371216,-0.364197,-0.00531336,0.0121659,-0.00786893,0.0151864,-0.00833389,-1.20429,0.0137702,0.0453919,1742,652,0.371161,0.364183
525,372,0.471802,-0.443481,-0.00521492,0.00669053,-0.00578979,0.00904182,-0.00756621,-1.18503,0.00960125,0.0420727,1749,652,0.471823,0.443496
532,372,0.483398,-0.309692,-0.00475546,0.00275464,-0.0043285,0.00472989,-0.00673071,-1.14269,0.00665031,0.0412806,1756,652,0.483425,0.30971
539,372,0.421387,-0.116821,-0.00433619,-0.000835877,-0.00288104,0.000784938,-0.005957,-1.05835,0.00425717,0.0448047,1763,652,0.421425,0.116827
546,372,0.354492,0.093811,-0.00371873,-0.00232253,-0.00229089,-0.000625728,-0.00541553,-0.933293,0.0034209,0.0494151,1770,652,0.354543,-0.0937886
553,372,0.129028,0.0899048,-0.00299091,-0.00278361,-0.0018612,-0.00102318,-0.00475134,-0.813215,0.00288757,0.0447573,1777,652,0.128976,-0.0899292
560,372,0.0765381,-0.0012207,0,0,0,0,0,0,0,-1,1784,652,0.0765022,0.00121947
567,372,0.0078125,-0.0579834,-0.00115612,-0.00272969,-0.00145165,-0.000291745,-0.00359407,-0.53706,0.00230496,0.0136563,1791,652,0.00777377,0.058
574,372,-0.0322266,-0.0641479,-0.000602814,-0.00220622,-0.00115036,-2.35357e-06,-0.00280668,-0.481072,0.00187034,0.0103362,1798,652,-0.0321728,0.0641246
581,372,-0.0241699,-0.0911255,-0.000343593,-0.00174302,-0.00105154,0.00021976,-0.00230637,-0.491829,0.00161582,0.0119223,1805,652,-0.0241259,0.0911248
588,372,-0.0319824,-0.0938721,-0.000329208,-0.00102791,-0.00096154,0.000344479,-0.00170159,-0.611151,0.00126496,0.0135611,1812,652,-0.0319929,0.0938448
595,372,-0.029541,-0.0787964,-2.08622e-05,-0.000385001,-0.000783335,0.000601284,-0.00100715,-0.671211,0.000938432,0.011721,1819,652,-0.0295553,0.078803
602,372,-0.0134277,-0.0924072,0.000463398,-0.000386255,-0.000733276,0.000886021,-0.000808879,-0.522848,0.000978889,0.0102756,1826,652,-0.0134112,0.0924323
609,372,-0.0186768,-0.0913086,0.000784312,-0.00065467,-0.000698935,0.0010679,-0.000938263,-0.385453,0.00115907,0.00970581,1833,652,-0.0186967,0.0912829
616,372,-0.03125,-0.0718384,0.000818737,-0.00101275,-0.000928192,0.00120688,-0.00140089,-0.396075,0.00150699,0.00980308,1840,652,-0.0312442,0.0718313
623,372,-0.0239258,-0.0735474,0.00110336,-0.00177643,-0.000868886,0.0013452,-0.00201828,-0.271472,0.00195482,0.0111121,1847,652,-0.0238676,0.0735297
630,372,-0.0432129,-0.0753784,0.00150876,-0.00260451,-0.0009455,0.00171569,-0.00281143,-0.215459,0.00263913,0.015534,1854,652,-0.0432627,0.0753786
637,372,-0.0430908,-0.0830078,0.00172871,-0.00331172,-0.00119052,0.00199575,-0.00357877,-0.220658,0.00326142,0.0187242,1861,652,-0.0430735,0.0830376
644,372,-0.00939941,-0.0787964,0.0021872,-0.00396696,-0.00158546,0.00257164,-0.0043514,-0.237886,0.0040408,0.0150464,1868,652,-0.00938922,0.078817
651,372,0.00292969,-0.137207,0.00277027,-0.00424458,-0.00194259,0.0032723,-0.0047466,-0.252898,0.00465572,0.0281972,1875,652,0.00290369,0.137215
658,372,-0.0463867,-0.219177,0.00358353,-0.00361499,-0.00215473,0.00417921,-0.00421067,-0.269717,0.00484391,0.0399374,1882,652,-0.0464007,0.219172
665,372,-0.178711,-0.286316,0.00456187,-0.00190259,-0.00257899,0.00546467,-0.00280539,-0.336728,0.00485631,0.0487564,1889,652,-0.178667,0.286342
672,372,-0.0925293,-0.352966,0,0,0,0,0,0,0,-1,1896,652,-0.0925273,0.352967
679,372,0.00976563,0.189453,0.00784491,0.00663773,-0.00375012,0.0110397,0.00344294,-0.705607,0.00652243,0.0448629,1903,652,0.00979546,-0.189456
686,372,0.0461426,-0.045105,0.0105807,0.0153578,-0.00480824,0.018338,0.00760038,-1.01593,0.010639,0.0435278,1910,652,0.0461675,0.0450933
693,372,0,0,0,0,0,0,0,0,0,-1,1917,652,0,0
700,372,0,0,0,0,0,0,0,0,0,-1,1924,652,0,0
707,372,0,0,0,0,0,0,0,0,0,-1,1931,652,0,0
714,372,0,0,0,0,0,0,0,0,0,-1,1938,652,0,0
721,372,0,0,0,0,0,0,0,0,0,-1,1945,652,0,0
728,372,0,0,0,0,0,0,0,0,0,-1,1952,652,0,0
735,372,0,0,0,0,0,0,0,0,0,-1,1959,652,0,0
742,372,0,0,0,0,0,0,0,0,0,-1,1966,652,0,0
749,372,0,0,0,0,0,0,0,0,0,-1,1973,652,0,0
756,372,0,0,0,0,0,0,0,0,0,-1,1980,652,0,0
763,372,0,0,0,0,0,0,0,0,0,-1,1987,652,0,0
770,372,0,0,0,0,0,0,0,0,0,-1,1994,652,0,0
777,372,0,0,0,0,0,0,0,0,0,-1,2001,652,0,0
784,372,0,0,0,0,0,0,0,0,0,-1,2008,652,0,0
791,372,0,0,0,0,0,0,0,0,0,-1,2015,652,0,0
798,372,0,0,0,0,0,0,0,0,0,-1,2022,652,0,0
805,372,0,0,0,0,0,0,0,0,0,-1,2029,652,0,0
812,372,0,0,0,0,0,0,0,0,0,-1,2036,652,0,0
-700,365,0,0,0,0,0,0,0,0,0,-1,524,659,0,0
-693,365,0,0,0,0,0,0,0,0,0,-1,531,659,0,0
-686,365,0,0,0,0,0,0,0,0,0,-1,538,659,0,0
-679,365,0,0,0,0,0,0,0,0,0,-1,545,659,0,0
-672,365,0,0,0,0,0,0,0,0,0,-1,552,659,0,0
-665,365,0,0,0,0,0,0,0,0,0,-1,559,659,0,0
-658,365,0,0,0,0,0,0,0,0,0,-1,566,659,0,0
-651,365,0,0,0,0,0,0,0,0,0,-1,573,659,0,0
-644,365,0,0,0,0,0,0,0,0,0,-1,580,659,0,0
-637,365,0,0,0,0,0,0,0,0,0,-1,587,659,0,0
-630,365,0,0,0,0,0,0,0,0,0,-1,594,659,0,0
-623,365,0,0,0,0,0,0,0,0,0,-1,601,659,0,0
-616,365,0,0,0,0,0,0,0,0,0,-1,608,659,0,0
-609,365,0,0,0,0,0,0,0,0,0,-1,615,659,0,0
-602,365,0,0,0,0,0,0,0,0,0,-1,622,659,0,0
-595,365,0,0,0,0,0,0,0,0,0,-1,629,659,0,0
-588,365,0,0,0,0,0,0,0,0,0,-1,636,659,0,0
-581,365,0,0,0,0,0,0,0,0,0,-1,643,659,0,0
-574,365,-0.765259,-1.5061,0.0245641,0.0027146,0.021036,0.0373431,-0.0100643,0.5459,0.0288416,0.041214,650,659,-0.76528,1.50608
-567,365,-0.366821,-0.728088,0.0155074,0.00746178,0.0207631,0.0326339,-0.00966466,0.68971,0.0255931,0.0427797,657,659,-0.366817,0.72807
-560,365,-0.608276,-0.078125,0,0,0,0,0,0,0,-1,664,659,-0.608304,0.078116
-553,365,0.149414,0.391174,0.00315664,0.0112091,0.0164799,0.0241475,-0.00978169,0.905208,0.0201658,0.0453162,671,659,0.149435,-0.391156
-546,365,0.30072,0.841309,-0.000248779,0.0111682,0.0139438,0.0205268,-0.00960738,0.979686,0.0177746,0.0448376,678,659,0.300748,-0.841287
-539,365,0.235474,0.937622,-0.00290953,0.0108312,0.0118921,0.0176949,-0.00977325,1.04734,0.0160771,0.0464166,685,659,0.235459,-0.937617
-532,365,0.250977,1.0329,0,0,0,0,0,0,0,-1,692,659,0.250978,-1.03288
-525,365,0.0664063,0.0473022,-0.00497997,0.0082582,0.00722976,0.0114412,-0.00816301,1.15606,0.0113711,0.0352599,699,659,0.0664014,-0.0473316
-518,365,-0.0142822,-0.0701904,-0.00506036,0.00611668,0.00423076,0.00753751,-0.00648118,1.2468,0.00810135,0.019305,706,659,-0.0142825,0.0702088
-511,365,-0.0269165,-0.0799561,-0.00487052,0.00479371,0.00253591,0.00541872,-0.00549552,1.32915,0.00630139,0.0159951,713,659,-0.0269206,0.0799565
-504,365,-0.0188599,-0.0794678,-0.00391878,0.00313892,0.00170298,0.00352835,-0.00430821,1.34599,0.0045319,0.0118906,720,659,-0.0188839,0.0794447
-497,365,0.00457764,-0.097229,-0.00334397,0.00214523,0.000971817,0.0023122,-0.00351095,1.40064,0.00338566,0.0117186,727,659,0.00458746,0.0972386
-490,365,-0.003479,-0.0765381,-0.00248748,0.00136702,0.000600032,0.00145827,-0.00257872,1.41988,0.00236049,0.0121021,734,659,-0.0034728,0.0765522
-483,365,-0.0154419,-0.0688477,-0.00142935,0.000508788,0.000344739,0.000568281,-0.00148884,1.39991,0.00122668,0.0114282,741,659,-0.0154284,0.068875
-476,365,-0.00683594,-0.0602417,-0.00105344,0.00015124,-0.000229028,0.000193312,-0.00109552,-1.38912,0.00080258,0.0113156,748,659,-0.00684413,0.0602494
-469,365,0.0010376,-0.0588989,-0.00139488,0.000128287,-0.000719891,0.00041468,-0.00168127,-1.19216,0.00128163,0.0108938,755,659,0.00105215,0.0589206
-462,365,-0.000854492,-0.072876,-0.00229962,0.000423272,-0.00112298,0.000826655,-0.00270301,-1.22594,0.00213167,0.0123102,762,659,-0.000844425,0.0728535
-455,365,-0.010437,-0.0722046,-0.00381228,0.000877116,-0.0015764,0.00135777,-0.00429294,-1.27484,0.00340599,0.0129561,769,659,-0.0104499,0.0722156
-448,365,-0.0144653,-0.0640259,-0.00592308,0.00177661,-0.00223326,0.00237747,-0.00652394,-1.30797,0.00532184,0.0102379,776,659,-0.0144374,0.0640486
-441,365,-0.000244141,-0.0750122,-0.00830799,0.00295438,-0.00332576,0.00386314,-0.00921675,-1.30406,0.00775967,0.0194399,783,659,-0.000243902,0.0749903
-434,365,-0.0345459,-0.0758057,-0.0113806,0.00483536,-0.00471243,0.00610535,-0.0126506,-1.30755,0.0110463,0.0356598,790,659,-0.0345178,0.0758174
-427,365,-0.0705566,-0.0239868,0,0,0,0,0,0,0,-1,797,659,-0.0705491,0.0239917
-420,365,0.034729,0.322083,-0.0196759,0.0113827,-0.00745269,0.0130785,-0.0213716,-1.34707,0.0200809,0.046473,804,659,0.0347529,-0.322083
-413,365,0.00201416,0.127441,-0.025003,0.0163984,-0.00904683,0.0182889,-0.0268935,-1.36479,0.0262433,0.0473701,811,659,0.00202472,-0.127425
-406,365,-0.17334,0.109009,-0.0313197,0.0230305,-0.0106706,0.0250504,-0.0333396,-1.38372,0.0338245,0.0443829,818,659,-0.17334,-0.109037
-399,365,-0.465698,0.400452,-0.0386731,0.0319113,-0.0118026,0.0338325,-0.0405944,-1.40943,0.0430295,0.0419131,825,659,-0.465719,-0.400463
-392,365,-0.650818,0.756592,0,0,0,0,0,0,0,-1,832,659,-0.650806,-0.756563
-385,365,-1.11292,-0.68689,0,0,0,0,0,0,0,-1,839,659,-1.11292,0.686917
-378,365,-1.02423,0.455872,0,0,0,0,0,0,0,-1,846,659,-1.02424,-0.45585
-371,365,0,0,0,0,0,0,0,0,0,-1,853,659,0,0
-364,365,0,0,0,0,0,0,0,0,0,-1,860,659,0,0
-357,365,0,0,0,0,0,0,0,0,0,-1,867,659,0,0
-350,365,0,0,0,0,0,0,0,0,0,-1,874,659,0,0
-343,365,0,0,0,0,0,0,0,0,0,-1,881,659,0,0
-336,365,0,0,0,0,0,0,0,0,0,-1,888,659,0,0
-329,365,0,0,0,0,0,0,0,0,0,-1,895,659,0,0
-322,365,0,0,0,0,0,0,0,0,0,-1,902,659,0,0
-315,365,0,0,0,0,0,0,0,0,0,-1,909,659,0,0
-308,365,0,0,0,0,0,0,0,0,0,-1,916,659,0,0
-301,365,0,0,0,0,0,0,0,0,0,-1,923,659,0,0
-294,365,0,0,0,0,0,0,0,0,0,-1,930,659,0,0
-287,365,0,0,0,0,0,0,0,0,0,-1,937,659,0,0
-280,365,0,0,0,0,0,0,0,0,0,-1,944,659,0,0
-273,365,0,0,0,0,0,0,0,0,0,-1,951,659,0,0
-266,365,0,0,0,0,0,0,0,0,0,-1,958,659,0,0
-259,365,0,0,0,0,0,0,0,0,0,-1,965,659,0,0
-252,365,0,0,0,0,0,0,0,0,0,-1,972,659,0,0
-245,365,0,0,0,0,0,0,0,0,0,-1,979,659,0,0
-238,365,0,0,0,0,0,0,0,0,0,-1,986,659,0,0
-231,365,0,0,0,0,0,0,0,0,0,-1,993,659,0,0
-224,365,0,0,0,0,0,0,0,0,0,-1,1000,659,0,0
-217,365,0,0,0,0,0,0,0,0,0,-1,1007,659,0,0
-210,365,0,0,0,0,0,0,0,0,0,-1,1014,659,0,0
-203,365,0,0,0,0,0,0,0,0,0,-1,1021,659,0,0
-196,365,0,0,0,0,0,0,0,0,0,-1,1028,659,0,0
-189,365,0,0,0,0,0,0,0,0,0,-1,1035,659,0,0
-182,365,0,0,0,0,0,0,0,0,0,-1,1042,659,0,0
-175,365,0,0,0,0,0,0,0,0,0,-1,1049,659,0,0
-168,365,0,0,0,0,0,0,0,0,0,-1,1056,659,0,0
-161,365,0,0,0,0,0,0,0,0,0,-1,1063,659,0,0
-154,365,0,0,0,0,0,0,0,0,0,-1,1070,659,0,0
-147,365,0,0,0,0,0,0,0,0,0,-1,1077,659,0,0
-140,365,0,0,0,0,0,0,0,0,0,-1,1084,659,0,0
-133,365,0,0,0,0,0,0,0,0,0,-1,1091,659,0,0
-126,365,0,0,0,0,0,0,0,0,0,-1,1098,659,0,0
-119,365,0,0,0,0,0,0,0,0,0,-1,1105,659,0,0
-112,365,0,0,0,0,0,0,0,0,0,-1,1112,659,0,0
-105,365,0,0,0,0,0,0,0,0,0,-1,1119,659,0,0
-98,365,0,0,0,0,0,0,0,0,0,-1,1126,659,0,0
-91,365,0,0,0,0,0,0,0,0,0,-1,1133,659,0,0
-84,365,0,0,0,0,0,0,0,0,0,-1,1140,659,0,0
-77,365,0,0,0,0,0,0,0,0,0,-1,1147,659,0,0
-70,365,0,0,0,0,0,0,0,0,0,-1,1154,659,0,0
-63,365,0,0,0,0,0,0,0,0,0,-1,1161,659,0,0
-56,365,0,0,0,0,0,0,0,0,0,-1,1168,659,0,0
-49,365,0,0,0,0,0,0,0,0,0,-1,1175,659,0,0
-42,365,0,0,0,0,0,0,0,0,0,-1,1182,659,0,0
-35,365,0,0,0,0,0,0,0,0,0,-1,1189,659,0,0
-28,365,0,0,0,0,0,0,0,0,0,-1,1196,659,0,0
-21,365,0,0,0,0,0,0,0,0,0,-1,1203,659,0,0
-14,365,0,0,0,0,0,0,0,0,0,-1,1210,659,0,0
-7,365,0,0,0,0,0,0,0,0,0,-1,1217,659,0,0
0,365,0,0,0,0,0,0,0,0,0,-1,1224,659,0,0
7,365,0,0,0,0,0,0,0,0,0,-1,1231,659,0,0
14,365,0,0,0,0,0,0,0,0,0,-1,1238,659,0,0
21,365,0,0,0,0,0,0,0,0,0,-1,1245,659,0,0
28,365,0,0,0,0,0,0,0,0,0,-1,1252,659,0,0
35,365,0,0,0,0,0,0,0,0,0,-1,1259,659,0,0
42,365,0,0,0,0,0,0,0,0,0,-1,1266,659,0,0
49,365,0,0,0,0,0,0,0,0,0,-1,1273,659,0,0
56,365,0,0,0,0,0,0,0,0,0,-1,1280,659,0,0
63,365,0,0,0,0,0,0,0,0,0,-1,1287,659,0,0
70,365,0,0,0,0,0,0,0,0,0,-1,1294,659,0,0
77,365,0,0,0,0,0,0,0,0,0,-1,1301,659,0,0
84,365,0,0,0,0,0,0,0,0,0,-1,1308,659,0,0
91,365,0,0,0,0,0,0,0,0,0,-1,1315,659,0,0
98,365,0,0,0,0,0,0,0,0,0,-1,1322,659,0,0
105,365,0,0,0,0,0,0,0,0,0,-1,1329,659,0,0
112,365,0,0,0,0,0,0,0,0,0,-1,1336,659,0,0
119,365,0,0,0,0,0,0,0,0,0,-1,1343,659,0,0
126,365,0,0,0,0,0,0,0,0,0,-1,1350,659,0,0
133,365,0,0,0,0,0,0,0,0,0,-1,1357,659,0,0
140,365,0,0,0,0,0,0,0,0,0,-1,1364,659,0,0
147,365,0,0,0,0,0,0,0,0,0,-1,1371,659,0,0
154,365,0,0,0,0,0,0,0,0,0,-1,1378,659,0,0
161,365,0,0,0,0,0,0,0,0,0,-1,1385,659,0,0
168,365,0,0,0,0,0,0,0,0,0,-1,1392,659,0,0
175,365,0,0,0,0,0,0,0,0,0,-1,1399,659,0,0
182,365,0,0,0,0,0,0,0,0,0,-1,1406,659,0,0
189,365,0,0,0,0,0,0,0,0,0,-1,1413,659,0,0
196,365,0,0,0,0,0,0,0,0,0,-1,1420,659,0,0
203,365,0,0,0,0,0,0,0,0,0,-1,1427,659,0,0
210,365,0,0,0,0,0,0,0,0,0,-1,1434,659,0,0
217,365,0,0,0,0,0,0,0,0,0,-1,1441,659,0,0
224,365,0,0,0,0,0,0,0,0,0,-1,1448,659,0,0
231,365,0,0,0,0,0,0,0,0,0,-1,1455,659,0,0
238,365,0,0,0,0,0,0,0,0,0,-1,1462,659,0,0
245,365,0,0,0,0,0,0,0,0,0,-1,1469,659,0,0
252,365,0,0,0,0,0,0,0,0,0,-1,1476,659,0,0
259,365,0,0,0,0,0,0,0,0,0,-1,1483,659,0,0
266,365,0,0,0,0,0,0,0,0,0,-1,1490,659,0,0
273,365,0,0,0,0,0,0,0,0,0,-1,1497,659,0,0
280,365,0,0,0,0,0,0,0,0,0,-1,1504,659,0,0
287,365,0,0,0,0,0,0,0,0,0,-1,1511,659,0,0
294,365,0,0,0,0,0,0,0,0,0,-1,1518,659,0,0
301,365,0,0,0,0,0,0,0,0,0,-1,1525,659,0,0
308,365,0,0,0,0,0,0,0,0,0,-1,1532,659,0,0
315,365,0,0,0,0,0,0,0,0,0,-1,1539,659,0,0
322,365,0,0,0,0,0,0,0,0,0,-1,1546,659,0,0
329,365,0,0,0,0,0,0,0,0,0,-1,1553,659,0,0
336,365,0,0,0,0,0,0,0,0,0,-1,1560,659,0,0
343,365,0,0,0,0,0,0,0,0,0,-1,1567,659,0,0
350,365,0,0,0,0,0,0,0,0,0,-1,1574,659,0,0
357,365,0,0,0,0,0,0,0,0,0,-1,1581,659,0,0
364,365,0,0,0,0,0,0,0,0,0,-1,1588,659,0,0
371,365,0,0,0,0,0,0,0,0,0,-1,1595,659,0,0
378,365,0,0,0,0,0,0,0,0,0,-1,1602,659,0,0
385,365,0,0,0,0,0,0,0,0,0,-1,1609,659,0,0
392,365,0,0,0,0,0,0,0,0,0,-1,1616,659,0,0
399,365,0,0,0,0,0,0,0,0,0,-1,1623,659,0,0
406,365,0,0,0,0,0,0,0,0,0,-1,1630,659,0,0
413,365,0,0,0,0,0,0,0,0,0,-1,1637,659,0,0
420,365,0,0,0,0,0,0,0,0,0,-1,1644,659,0,0
427,365,0,0,0,0,0,0,0,0,0,-1,1651,659,0,0
434,365,0,0,0,0,0,0,0,0,0,-1,1658,659,0,0
441,365,0,0,0,0,0,0,0,0,0,-1,1665,659,0,0
448,365,0,0,0,0,0,0,0,0,0,-1,1672,659,0,0
455,365,0,0,0,0,0,0,0,0,0,-1,1679,659,0,0
462,365,0,0,0,0,0,0,0,0,0,-1,1686,659,0,0
469,365,0,0,0,0,0,0,0,0,0,-1,1693,659,0,0
476,365,0,0,0,0,0,0,0,0,0,-1,1700,659,0,0
483,365,0,0,0,0,0,0,0,0,0,-1,1707,659,0,0
490,365,1.52441,-0.939453,-0.00508889,0.0563112,-0.0308894,0.0691617,-0.0179393,-1.17656,0.0531073,0.0444409,1714,659,1.52437,0.939425
497,365,1.27539,-0.633667,-0.00709584,0.0419591,-0.0229214,0.0510022,-0.016139,-1.19501,0.0404685,0.043742,1721,659,1.27537,0.633654
504,365,0.903076,-0.424194,-0.00788703,0.0298719,-0.0170506,0.0364317,-0.0144469,-1.20353,0.0302751,0.047432,1728,659,0.903045,0.424201
511,365,0.269287,-0.188843,-0.00815156,0.0202215,-0.0128119,0.0251505,-0.0130806,-1.20353,0.0224364,0.0476206,1735,659,0.269242,0.188814
518,365,-0.132202,-0.193481,-0.00767323,0.0124195,-0.00956746,0.0162463,-0.0115001,-1.1903,0.0160973,0.0453884,1742,659,-0.132201,0.193505
525,365,0.328735,-0.331055,-0.00682331,0.00646378,-0.00721552,0.00962841,-0.00998794,-1.15747,0.0113261,0.0439007,1749,659,0.328716,0.331058
532,365,0.634155,-0.2854,-0.00587991,0.00226655,-0.0056167,0.00513151,-0.00874487,-1.09912,0.00810156,0.0435444,1756,659,0.634208,0.285423
539,365,0.5979,-0.0971069,-0.00513533,-0.00146576,-0.00403328,0.00113047,-0.00773155,-0.998863,0.00556956,0.0442021,1763,659,0.597907,0.0971058
546,365,0.568848,0.12146,-0.00437849,-0.00292231,-0.00332114,-0.000250389,-0.00705041,-0.893306,0.00461907,0.0451698,1770,659,0.568841,-0.121467
553,365,0.0893555,0.199646,-0.00363944,-0.0033955,-0.00282039,-0.000694442,-0.0063405,-0.807008,0.00401558,0.0412975,1777,659,0.0893998,-0.19965
560,365,-0.0793457,-0.106812,-0.00262383,-0.003397,-0.00258357,-0.000398082,-0.00562275,-0.711133,0.0036231,0.0390171,1784,659,-0.0793708,0.106797
567,365,0.0223389,-0.0852661,-0.00182745,-0.00326846,-0.0021933,-0.000239349,-0.00485656,-0.6267,0.00316095,0.0333566,1791,659,0.0222836,0.0852957
574,365,-0.0102539,-0.0488892,-0.00124826,-0.00265773,-0.00180427,-1.59752e-05,-0.00389001,-0.599212,0.00258803,0.0182491,1798,659,-0.010232,0.0488833
581,365,-0.0328369,-0.0881348,-0.00097063,-0.00205739,-0.00162719,0.000201513,-0.00322953,-0.624252,0.00222324,0.0112856,1805,659,-0.0328202,0.0881396
588,365,-0.0477295,-0.0866089,-0.000955399,-0.00117602,-0.00145796,0.000396424,-0.00252784,-0.74764,0.00183172,0.0101551,1812,659,-0.0477748,0.0866237
595,365,-0.0388184,-0.0667114,-0.00066222,-0.000433491,-0.00116041,0.000618174,-0.00171388,-0.834517,0.00139507,0.0105428,1819,659,-0.0387592,0.0667077
602,365,-0.0280762,-0.0756226,-0.000142546,-0.000313678,-0.000963222,0.000738904,-0.00119513,-0.741098,0.00112692,0.010292,1826,659,-0.0280857,0.0756289
609,365,-0.0356445,-0.0718384,0.000307481,-0.000477098,-0.00084358,0.000845524,-0.00101514,-0.567757,0.00107574,0.0102836,1833,659,-0.0356013,0.0718575
616,365,-0.0256348,-0.0598755,0.000411343,-0.000742877,-0.00102573,0.00101117,-0.0013427,-0.529152,0.00136349,0.0114931,1840,659,-0.0256831,0.0598939
623,365,-0.00146484,-0.0737305,0.00069533,-0.00138283,-0.000960449,0.00107122,-0.00175873,-0.373046,0.00164987,0.00998553,1847,659,-0.0015191,0.0737268
630,365,-0.0196533,-0.0664673,0.00109539,-0.00205468,-0.000974827,0.00137266,-0.00233194,-0.277109,0.00216262,0.0141727,1854,659,-0.0195943,0.0664844
637,365,-0.0402832,-0.0806274,0.0012451,-0.002613,-0.00114329,0.00155845,-0.00292635,-0.267505,0.00262914,0.0185372,1861,659,-0.0403435,0.0806342
644,365,-0.017334,-0.0756226,0.00155658,-0.00306481,-0.00149284,0.00199687,-0.0035051,-0.2868,0.0032161,0.0130715,1868,659,-0.0172827,0.0756474
651,365,-0.0227051,-0.0687866,0.00202081,-0.00302682,-0.00185551,0.00262949,-0.0036355,-0.316981,0.00363261,0.016714,1875,659,-0.0227547,0.0687851
658,365,-0.0369873,-0.0947266,0.0027554,-0.00202334,-0.0021038,0.00354959,-0.00281753,-0.360963,0.00368415,0.0313979,1882,659,-0.03695,0.0947037
665,365,-0.120117,-0.21167,0.0036829,6.54491e-05,-0.00261491,0.00505367,-0.00130533,-0.482832,0.00387815,0.0434515,1889,659,-0.120072,0.211649
672,365,-0.050415,-0.316895,0.00498774,0.00322916,-0.00319362,0.00742091,0.000795989,-0.651063,0.00470444,0.0492337,1896,659,-0.050362,0.316923
679,365,0.190796,-0.420166,0.00684767,0.0085984,-0.00399706,0.0118148,0.00363124,-0.893198,0.00698804,0.0444479,1903,659,0.190756,0.420164
686,365,0.246704,-0.555359,0.00951572,0.0167002,-0.00515492,0.0193911,0.00682487,-1.08971,0.0113579,0.0412998,1910,659,0.246729,0.555387
693,365,0.540894,-0.951416,0.0131392,0.0282132,-0.00675646,0.0307983,0.0105542,-1.20537,0.0180724,0.042256,1917,659,0.540846,0.951415
700,365,0,0,0,0,0,0,0,0,0,-1,1924,659,0,0
707,365,0,0,0,0,0,0,0,0,0,-1,1931,659,0,0
714,365,0,0,0,0,0,0,0,0,0,-1,1938,659,0,0
721,365,0,0,0,0,0,0,0,0,0,-1,1945,659,0,0
728,365,0,0,0,0,0,0,0,0,0,-1,1952,659,0,0
735,365,0,0,0,0,0,0,0,0,0,-1,1959,659,0,0
742,365,0,0,0,0,0,0,0,0,0,-1,1966,659,0,0
749,365,0,0,0,0,0,0,0,0,0,-1,1973,659,0,0
756,365,0,0,0,0,0,0,0,0,0,-1,1980,659,0,0
763,365,0,0,0,0,0,0,0,0,0,-1,1987,659,0,0
770,365,0,0,0,0,0,0,0,0,0,-1,1994,659,0,0
777,365,0,0,0,0,0,0,0,0,0,-1,2001,659,0,0
784,365,0,0,0,0,0,0,0,0,0,-1,2008,659,0,0
791,365,0,0,0,0,0,0,0,0,0,-1,2015,659,0,0
798,365,0,0,0,0,0,0,0,0,0,-1,2022,659,0,0
805,365,0,0,0,0,0,0,0,0,0,-1,2029,659,0,0
812,365,0,0,0,0,0,0,0,0,0,-1,2036,659,0,0
-700,358,0,0,0,0,0,0,0,0,0,-1,524,666,0,0
-693,358,0,0,0,0,0,0,0,0,0,-1,531,666,0,0
-686,358,0,0,0,0,0,0,0,0,0,-1,538,666,0,0
-679,358,0,0,0,0,0,0,0,0,0,-1,545,666,0,0
-672,358,0,0,0,0,0,0,0,0,0,-1,552,666,0,0
-665,358,0,0,0,0,0,0,0,0,0,-1,559,666,0,0
-658,358,0,0,0,0,0,0,0,0,0,-1,566,666,0,0
-651,358,0,0,0,0,0,0,0,0,0,-1,573,666,0,0
-644,358,0,0,0,0,0,0,0,0,0,-1,580,666,0,0
-637,358,0,0,0,0,0,0,0,0,0,-1,587,666,0,0
-630,358,0,0,0,0,0,0,0,0,0,-1,594,666,0,0
-623,358,0,0,0,0,0,0,0,0,0,-1,601,666,0,0
-616,358,0,0,0,0,0,0,0,0,0,-1,608,666,0,0
-609,358,0,0,0,0,0,0,0,0,0,-1,615,666,0,0
-602,358,0,0,0,0,0,0,0,0,0,-1,622,666,0,0
-595,358,0,0,0,0,0,0,0,0,0,-1,629,666,0,0
-588,358,0,0,0,0,0,0,0,0,0,-1,636,666,0,0
-581,358,-2.34558,-2.48798,0.036329,-0.00701075,0.0087067,0.0380128,-0.00869446,0.191023,0.0286827,0.0478629,643,666,-2.34559,2.48797
-574,358,-1.9165,-1.64728,0.0263453,0.000296827,0.0135148,0.0320902,-0.00544812,0.401942,0.0234217,0.0428916,650,666,-1.91653,1.64729
-567,358,-1.28845,-0.76178,0.0183371,0.00486137,0.0151175,0.0281503,-0.00495182,0.575762,0.0206166,0.0439082,657,666,-1.28843,0.761805
-560,358,-0.687439,0.00976563,0.0118763,0.00758806,0.0149289,0.0248143,-0.00534988,0.714075,0.0185846,0.0499606,664,666,-0.687429,-0.0097774
-553,358,-0.34082,0.286194,0.00689038,0.00883062,0.0136228,0.0215178,-0.00579679,0.820945,0.016618,0.0471959,671,666,-0.340826,-0.286167
-546,358,-0.173096,0.532104,0.00357775,0.00900935,0.012011,0.0186078,-0.00602065,0.896583,0.0148253,0.0440431,678,666,-0.173087,-0.532118
-539,358,-0.0427856,0.486816,0.000707448,0.00901737,0.0107503,0.0163877,-0.00666287,0.969805,0.0136973,0.0439176,685,666,-0.0427971,-0.48683
-532,358,0.288391,0.37207,0,0,0,0,0,0,0,-1,692,666,0.288366,-0.372096
-525,358,-0.00115967,-0.0437012,-0.00199319,0.00697323,0.00688245,0.0107039,-0.00572383,1.07408,0.00962871,0.0223152,699,666,-0.00116301,0.0437301
-518,358,-0.0231323,-0.0640259,-0.00249963,0.00516575,0.00418331,0.00700665,-0.00434053,1.15624,0.0066113,0.0165678,706,666,-0.0231042,0.0640198
-511,358,-0.0230103,-0.0588989,-0.00283941,0.00415155,0.00263178,0.00503153,-0.00371939,1.24812,0.00507124,0.0153259,713,666,-0.0230399,0.0588942
-504,358,-0.0279541,-0.0613403,-0.00248381,0.00278061,0.00186064,0.00337183,-0.00307503,1.26313,0.00372341,0.0114083,720,666,-0.0279278,0.0613106
-497,358,-0.0151367,-0.0879517,-0.00235065,0.00194265,0.0012299,0.00227001,-0.00267801,1.31065,0.00285998,0.010296,727,666,-0.0151197,0.0879538
-490,358,-0.00994873,-0.0812988,-0.00182986,0.0012772,0.000940658,0.00153979,-0.00209245,1.29857,0.00210515,0.00921272,734,666,-0.00992756,0.0812854
-483,358,-0.0130005,-0.0702515,-0.000972956,0.000458385,0.000750034,0.000779409,-0.00129398,1.16638,0.0012093,0.00893789,741,666,-0.0129927,0.0702688
-476,358,0.00830078,-0.0570068,-0.000854714,0.000162743,0.000115298,0.000175644,-0.000867616,1.45936,0.000644981,0.0100199,748,666,0.00832338,0.0570238
-469,358,0.0215454,-0.062439,-0.00149326,0.000208184,-0.000379858,0.000289138,-0.00157421,-1.36082,0.00115795,0.0123699,755,666,0.0215279,0.0624282
-462,358,0.00482178,-0.0682983,-0.00282944,0.000512768,-0.000826505,0.000705987,-0.00302266,-1.34114,0.00228705,0.015559,762,666,0.00481788,0.0682706
-455,358,-0.0167847,-0.0668335,-0.00490109,0.000996972,-0.00134195,0.00128794,-0.00519206,-1.35727,0.00396111,0.0143803,769,666,-0.0168142,0.0668341
-448,358,-0.0261841,-0.0789795,-0.00774645,0.00201036,-0.00205707,0.00242633,-0.00816242,-1.37127,0.00640544,0.0194214,776,666,-0.0261549,0.0789776
-441,358,-0.050415,-0.165161,-0.0110503,0.00322237,-0.00319457,0.00390477,-0.0117327,-1.36035,0.00939782,0.0351949,783,666,-0.0504411,0.165146
-434,358,-0.175842,-0.326172,-0.0153507,0.00515956,-0.00460393,0.0061456,-0.0163367,-1.35981,0.0134173,0.0392293,790,666,-0.175815,0.326166
-427,358,-0.278015,-0.363525,0,0,0,0,0,0,0,-1,797,666,-0.278011,0.363509
-420,358,0.26001,0.402588,-0.0271927,0.0120429,-0.00731787,0.0133633,-0.0285131,-1.39228,0.0246991,0.0426351,804,666,0.260023,-0.402589
-413,358,0.125671,0.0285645,-0.0348202,0.0175249,-0.00875547,0.0189505,-0.0362459,-1.40938,0.0323849,0.0423444,811,666,0.125699,-0.0285492
-406,358,-0.210327,-0.415039,-0.0437927,0.0247992,-0.0101897,0.0262809,-0.0452744,-1.42639,0.0417948,0.0428686,818,666,-0.210317,0.415054
-399,358,-0.549866,-0.2146,-0.0540558,0.0344829,-0.0112432,0.0358883,-0.0554612,-1.44644,0.0531427,0.041914,825,666,-0.549892,0.214605
-392,358,-0.889771,-0.283325,0,0,0,0,0,0,0,-1,832,666,-0.889796,0.283327
-385,358,-1.10516,-0.565735,0,0,0,0,0,0,0,-1,839,666,-1.10514,0.565714
-378,358,0,0,0,0,0,0,0,0,0,-1,846,666,0,0
-371,358,0,0,0,0,0,0,0,0,0,-1,853,666,0,0
-364,358,0,0,0,0,0,0,0,0,0,-1,860,666,0,0
-357,358,0,0,0,0,0,0,0,0,0,-1,867,666,0,0
-350,358,0,0,0,0,0,0,0,0,0,-1,874,666,0,0
-343,358,0,0,0,0,0,0,0,0,0,-1,881,666,0,0
-336,358,0,0,0,0,0,0,0,0,0,-1,888,666,0,0
-329,358,0,0,0,0,0,0,0,0,0,-1,895,666,0,0
-322,358,0,0,0,0,0,0,0,0,0,-1,902,666,0,0
-315,358,0,0,0,0,0,0,0,0,0,-1,909,666,0,0
-308,358,0,0,0,0,0,0,0,0,0,-1,916,666,0,0
-301,358,0,0,0,0,0,0,0,0,0,-1,923,666,0,0
-294,358,0,0,0,0,0,0,0,0,0,-1,930,666,0,0
-287,358,0,0,0,0,0,0,0,0,0,-1,937,666,0,0
-280,358,0,0,0,0,0,0,0,0,0,-1,944,666,0,0
-273,358,0,0,0,0,0,0,0,0,0,-1,951,666,0,0
-266,358,0,0,0,0,0,0,0,0,0,-1,958,666,0,0
-259,358,0,0,0,0,0,0,0,0,0,-1,965,666,0,0
-252,358,0,0,0,0,0,0,0,0,0,-1,972,666,0,0
-245,358,0,0,0,0,0,0,0,0,0,-1,979,666,0,0
-238,358,0,0,0,0,0,0,0,0,0,-1,986,666,0,0
-231,358,0,0,0,0,0,0,0,0,0,-1,993,666,0,0
-224,358,0,0,0,0,0,0,0,0,0,-1,1000,666,0,0
-217,358,0,0,0,0,0,0,0,0,0,-1,1007,666,0,0
-210,358,0,0,0,0,0,0,0,0,0,-1,1014,666,0,0
-203,358,0,0,0,0,0,0,0,0,0,-1,1021,666,0,0
-196,358,0,0,0,0,0,0,0,0,0,-1,1028,666,0,0
-189,358,0,0,0,0,0,0,0,0,0,-1,1035,666,0,0
-182,358,0,0,0,0,0,0,0,0,0,-1,1042,666,0,0
-175,358,0,0,0,0,0,0,0,0,0,-1,1049,666,0,0
-168,358,0,0,0,0,0,0,0,0,0,-1,1056,666,0,0
-161,358,0,0,0,0,0,0,0,0,0,-1,1063,666,0,0
-154,358,0,0,0,0,0,0,0,0,0,-1,1070,666,0,0
-147,358,0,0,0,0,0,0,0,0,0,-1,1077,666,0,0
-140,358,0,0,0,0,0,0,0,0,0,-1,1084,666,0,0
-133,358,0,0,0,0,0,0,0,0,0,-1,1091,666,0,0
-126,358,0,0,0,0,0,0,0,0,0,-1,1098,666,0,0
-119,358,0,0,0,0,0,0,0,0,0,-1,1105,666,0,0
-112,358,0,0,0,0,0,0,0,0,0,-1,1112,666,0,0
-105,358,0,0,0,0,0,0,0,0,0,-1,1119,666,0,0
-98,358,0,0,0,0,0,0,0,0,0,-1,1126,666,0,0
-91,358,0,0,0,0,0,0,0,0,0,-1,1133,666,0,0
-84,358,0,0,0,0,0,0,0,0,0,-1,1140,666,0,0
-77,358,0,0,0,0,0,0,0,0,0,-1,1147,666,0,0
-70,358,0,0,0,0,0,0,0,0,0,-1,1154,666,0,0
-63,358,0,0,0,0,0,0,0,0,0,-1,1161,666,0,0
-56,358,0,0,0,0,0,0,0,0,0,-1,1168,666,0,0
-49,358,0,0,0,0,0,0,0,0,0,-1,1175,666,0,0
-42,358,0,0,0,0,0,0,0,0,0,-1,1182,666,0,0
-35,358,0,0,0,0,0,0,0,0,0,-1,1189,666,0,0
-28,358,0,0,0,0,0,0,0,0,0,-1,1196,666,0,0
-21,358,0,0,0,0,0,0,0,0,0,-1,1203,666,0,0
-14,358,0,0,0,0,0,0,0,0,0,-1,1210,666,0,0
-7,358,0,0,0,0,0,0,0,0,0,-1,1217,666,0,0
0,358,0,0,0,0,0,0,0,0,0,-1,1224,666,0,0
7,358,0,0,0,0,0,0,0,0,0,-1,1231,666,0,0
14,358,0,0,0,0,0,0,0,0,0,-1,1238,666,0,0
21,358,0,0,0,0,0,0,0,0,0,-1,1245,666,0,0
28,358,0,0,0,0,0,0,0,0,0,-1,1252,666,0,0
35,358,0,0,0,0,0,0,0,0,0,-1,1259,666,0,0
42,358,0,0,0,0,0,0,0,0,0,-1,1266,666,0,0
49,358,0,0,0,0,0,0,0,0,0,-1,1273,666,0,0
56,358,0,0,0,0,0,0,0,0,0,-1,1280,666,0,0
63,358,0,0,0,0,0,0,0,0,0,-1,1287,666,0,0
70,358,0,0,0,0,0,0,0,0,0,-1,1294,666,0,0
77,358,0,0,0,0,0,0,0,0,0,-1,1301,666,0,0
84,358,0,0,0,0,0,0,0,0,0,-1,1308,666,0,0
91,358,0,0,0,0,0,0,0,0,0,-1,1315,666,0,0
98,358,0,0,0,0,0,0,0,0,0,-1,1322,666,0,0
105,358,0,0,0,0,0,0,0,0,0,-1,1329,666,0,0
112,358,0,0,0,0,0,0,0,0,0,-1,1336,666,0,0
119,358,0,0,0,0,0,0,0,0,0,-1,1343,666,0,0
126,358,0,0,0,0,0,0,0,0,0,-1,1350,666,0,0
133,358,0,0,0,0,0,0,0,0,0,-1,1357,666,0,0
140,358,0,0,0,0,0,0,0,0,0,-1,1364,666,0,0
147,358,0,0,0,0,0,0,0,0,0,-1,1371,666,0,0
154,358,0,0,0,0,0,0,0,0,0,-1,1378,666,0,0
161,358,0,0,0,0,0,0,0,0,0,-1,1385,666,0,0
168,358,0,0,0,0,0,0,0,0,0,-1,1392,666,0,0
175,358,0,0,0,0,0,0,0,0,0,-1,1399,666,0,0
182,358,0,0,0,0,0,0,0,0,0,-1,1406,666,0,0
189,358,0,0,0,0,0,0,0,0,0,-1,1413,666,0,0
196,358,0,0,0,0,0,0,0,0,0,-1,1420,666,0,0
203,358,0,0,0,0,0,0,0,0,0,-1,1427,666,0,0
210,358,0,0,0,0,0,0,0,0,0,-1,1434,666,0,0
217,358,0,0,0,0,0,0,0,0,0,-1,1441,666,0,0
224,358,0,0,0,0,0,0,0,0,0,-1,1448,666,0,0
231,358,0,0,0,0,0,0,0,0,0,-1,1455,666,0,0
238,358,0,0,0,0,0,0,0,0,0,-1,1462,666,0,0
245,358,0,0,0,0,0,0,0,0,0,-1,1469,666,0,0
252,358,0,0,0,0,0,0,0,0,0,-1,1476,666,0,0
259,358,0,0,0,0,0,0,0,0,0,-1,1483,666,0,0
266,358,0,0,0,0,0,0,0,0,0,-1,1490,666,0,0
273,358,0,0,0,0,0,0,0,0,0,-1,1497,666,0,0
280,358,0,0,0,0,0,0,0,0,0,-1,1504,666,0,0
287,358,0,0,0,0,0,0,0,0,0,-1,1511,666,0,0
294,358,0,0,0,0,0,0,0,0,0,-1,1518,666,0,0
301,358,0,0,0,0,0,0,0,0,0,-1,1525,666,0,0
308,358,0,0,0,0,0,0,0,0,0,-1,1532,666,0,0
315,358,0,0,0,0,0,0,0,0,0,-1,1539,666,0,0
322,358,0,0,0,0,0,0,0,0,0,-1,1546,666,0,0
329,358,0,0,0,0,0,0,0,0,0,-1,1553,666,0,0
336,358,0,0,0,0,0,0,0,0,0,-1,1560,666,0,0
343,358,0,0,0,0,0,0,0,0,0,-1,1567,666,0,0
350,358,0,0,0,0,0,0,0,0,0,-1,1574,666,0,0
357,358,0,0,0,0,0,0,0,0,0,-1,1581,666,0,0
364,358,0,0,0,0,0,0,0,0,0,-1,1588,666,0,0
371,358,0,0,0,0,0,0,0,0,0,-1,1595,666,0,0
378,358,0,0,0,0,0,0,0,0,0,-1,1602,666,0,0
385,358,0,0,0,0,0,0,0,0,0,-1,1609,666,0,0
392,358,0,0,0,0,0,0,0,0,0,-1,1616,666,0,0
399,358,0,0,0,0,0,0,0,0,0,-1,1623,666,0,0
406,358,0,0,0,0,0,0,0,0,0,-1,1630,666,0,0
413,358,0,0,0,0,0,0,0,0,0,-1,1637,666,0,0
420,358,0,0,0,0,0,0,0,0,0,-1,1644,666,0,0
427,358,0,0,0,0,0,0,0,0,0,-1,1651,666,0,0
434,358,0,0,0,0,0,0,0,0,0,-1,1658,666,0,0
441,358,0,0,0,0,0,0,0,0,0,-1,1665,666,0,0
448,358,0,0,0,0,0,0,0,0,0,-1,1672,666,0,0
455,358,0,0,0,0,0,0,0,0,0,-1,1679,666,0,0
462,358,0,0,0,0,0,0,0,0,0,-1,1686,666,0,0
469,358,0,0,0,0,0,0,0,0,0,-1,1693,666,0,0
476,358,0,0,0,0,0,0,0,0,0,-1,1700,666,0,0
483,358,0,0,0,0,0,0,0,0,0,-1,1707,666,0,0
490,358,0,0,0,0,0,0,0,0,0,-1,1714,666,0,0
497,358,1.24634,-0.787964,0,0,0,0,0,0,0,-1,1721,666,1.24639,0.787964
504,358,0.98584,-0.667114,-0.0121545,0.031638,-0.020359,0.0396405,-0.0201571,-1.19628,0.0351297,0.0467999,1728,666,0.985828,0.667138
511,358,0.583252,-0.495483,-0.0108817,0.0208021,-0.0152587,0.0269555,-0.0170351,-1.18747,0.0256123,0.0433478,1735,666,0.583298,0.495464
518,358,0.238647,-0.317505,-0.00923195,0.0123999,-0.0115634,0.0174173,-0.0142494,-1.1614,0.0183133,0.0438493,1742,666,0.238653,0.317494
525,358,0.217529,-0.0860596,-0.00764609,0.0062115,-0.00895748,0.0106072,-0.0120418,-1.11459,0.0130852,0.0451241,1749,666,0.21759,0.0860889
532,358,0.406982,-0.0241089,-0.0062651,0.00181864,-0.00718017,0.0060164,-0.0104629,-1.04175,0.00962907,0.0459353,1756,666,0.406944,0.0241325
539,358,0.572632,0.043457,-0.00522459,-0.00199555,-0.00547097,0.00209415,-0.00931429,-0.928879,0.00701259,0.0441784,1763,666,0.572638,-0.0434332
546,358,0.605347,0.0756836,-0.00431679,-0.00343921,-0.00462965,0.000772403,-0.0085284,-0.832646,0.00595978,0.0443676,1770,666,0.605367,-0.0756783
553,358,-0.123657,0.307251,0,0,0,0,0,0,0,-1,1777,666,-0.123683,-0.307228
560,358,-0.277954,-0.0862427,-0.0025581,-0.00392043,-0.0036383,0.000462256,-0.00694078,-0.692859,0.00478871,0.0450639,1784,666,-0.277951,0.0862664
567,358,0.000976563,0.0750732,-0.00177491,-0.00373887,-0.00307129,0.000467565,-0.00598134,-0.63067,0.0041522,0.042979,1791,666,0.00103434,-0.0750712
574,358,-0.0407715,-0.0174561,-0.00119554,-0.00306594,-0.00254301,0.000578781,-0.00484026,-0.609198,0.00343606,0.0349315,1798,666,-0.0408081,0.0174279
581,358,-0.0621338,-0.0717163,-0.000949063,-0.00235403,-0.00223179,0.000688188,-0.00399128,-0.632926,0.00291743,0.0175817,1805,666,-0.062143,0.0717324
588,358,-0.0479736,-0.0745239,-0.00102181,-0.00132742,-0.00192881,0.000760237,-0.00310946,-0.74587,0.00236743,0.0106016,1812,666,-0.0479721,0.074502
595,358,-0.0428467,-0.069458,-0.00085298,-0.000463926,-0.00145403,0.000808529,-0.00212543,-0.851896,0.00174988,0.0101861,1819,666,-0.0429029,0.0694285
602,358,-0.0500488,-0.0604858,-0.000429988,-0.000215227,-0.00108507,0.000767766,-0.00141298,-0.834718,0.00127729,0.0101145,1826,666,-0.0501033,0.060502
609,358,-0.0626221,-0.0626221,4.42855e-05,-0.000251444,-0.000853674,0.000762806,-0.000969964,-0.699644,0.0010028,0.0118308,1833,666,-0.0626129,0.0626314
616,358,-0.0423584,-0.0628052,0.000156933,-0.000399438,-0.000967635,0.000885576,-0.00112808,-0.645428,0.00116539,0.0119324,1840,666,-0.0423524,0.0628028
623,358,-0.0211182,-0.0736084,0.00035462,-0.000889858,-0.000887367,0.000816171,-0.00135141,-0.479626,0.00126411,0.0128379,1847,666,-0.0211564,0.0735964
630,358,-0.0344238,-0.0863647,0.000660725,-0.00141451,-0.000839605,0.000957868,-0.00171166,-0.340152,0.0015616,0.0162104,1854,666,-0.0343725,0.0863373
637,358,-0.0606689,-0.083252,0.000687084,-0.00184228,-0.000933025,0.000994011,-0.00214921,-0.317809,0.00185514,0.0217349,1861,666,-0.0606857,0.083271
644,358,-0.0445557,-0.0839844,0.000813474,-0.00213556,-0.00124549,0.0012691,-0.00259119,-0.350698,0.00227189,0.0174785,1868,666,-0.0445859,0.0839688
651,358,-0.0349121,-0.0700073,0.00113466,-0.00187895,-0.00162463,0.00184368,-0.00258797,-0.411503,0.00257061,0.0142191,1875,666,-0.0349519,0.0700374
658,358,-0.0423584,-0.0345459,0.00176537,-0.000645894,-0.00191454,0.00282227,-0.00170279,-0.504403,0.00263906,0.0192802,1882,666,-0.0423393,0.0345215
665,358,-0.0610352,-0.142761,0.00261282,0.00160914,-0.00247934,0.0046406,-0.000418635,-0.685543,0.0032423,0.031573,1889,666,-0.0609851,0.142731
672,358,-0.0306396,-0.370544,0.00380572,0.00465257,-0.00306651,0.00732476,0.00113354,-0.854005,0.00455261,0.0404352,1896,666,-0.0306812,0.370559
679,358,-0.0202637,-0.50708,0.00550104,0.00970032,-0.00387398,0.0120071,0.0031943,-1.03373,0.00718081,0.0413458,1903,666,-0.0202414,0.507061
686,358,0.436279,-1.03687,0,0,0,0,0,0,0,-1,1910,666,0.436315,1.03688
693,358,0.771851,-1.48401,0,0,0,0,0,0,0,-1,1917,666,0.771877,1.48402
700,358,0,0,0,0,0,0,0,0,0,-1,1924,666,0,0
707,358,0,0,0,0,0,0,0,0,0,-1,1931,666,0,0
714,358,0,0,0,0,0,0,0,0,0,-1,1938,666,0,0
721,358,0,0,0,0,0,0,0,0,0,-1,1945,666,0,0
728,358,0,0,0,0,0,0,0,0,0,-1,1952,666,0,0
735,358,0,0,0,0,0,0,0,0,0,-1,1959,666,0,0
742,358,0,0,0,0,0,0,0,0,0,-1,1966,666,0,0
749,358,0,0,0,0,0,0,0,0,0,-1,1973,666,0,0
756,358,0,0,0,0,0,0,0,0,0,-1,1980,666,0,0
763,358,0,0,0,0,0,0,0,0,0,-1,1987,666,0,0
770,358,0,0,0,0,0,0,0,0,0,-1,1994,666,0,0
777,358,0,0,0,0,0,0,0,0,0,-1,2001,666,0,0
784,358,0,0,0,0,0,0,0,0,0,-1,2008,666,0,0
791,358,0,0,0,0,0,0,0,0,0,-1,2015,666,0,0
798,358,0,0,0,0,0,0,0,0,0,-1,2022,666,0,0
805,358,0,0,0,0,0,0,0,0,0,-1,2029,666,0,0
812,358,0,0,0,0,0,0,0,0,0,-1,2036,666,0,0
-700,351,0,0,0,0,0,0,0,0,0,-1,524,673,0,0
-693,351,0,0,0,0,0,0,0,0,0,-1,531,673,0,0
-686,351,0,0,0,0,0,0,0,0,0,-1,538,673,0,0
-679,351,0,0,0,0,0,0,0,0,0,-1,545,673,0,0
-672,351,0,0,0,0,0,0,0,0,0,-1,552,673,0,0
-665,351,0,0,0,0,0,0,0,0,0,-1,559,673,0,0
-658,351,0,0,0,0,0,0,0,0,0,-1,566,673,0,0
-651,351,0,0,0,0,0,0,0,0,0,-1,573,673,0,0
-644,351,0,0,0,0,0,0,0,0,0,-1,580,673,0,0
-637,351,0,0,0,0,0,0,0,0,0,-1,587,673,0,0
-630,351,0,0,0,0,0,0,0,0,0,-1,594,673,0,0
-623,351,0,0,0,0,0,0,0,0,0,-1,601,673,0,0
-616,351,0,0,0,0,0,0,0,0,0,-1,608,673,0,0
-609,351,0,0,0,0,0,0,0,0,0,-1,615,673,0,0
-602,351,0,0,0,0,0,0,0,0,0,-1,622,673,0,0
-595,351,0,0,0,0,0,0,0,0,0,-1,629,673,0,0
-588,351,0,0,0,0,0,0,0,0,0,-1,636,673,0,0
-581,351,-0.488525,-1.32477,0,0,0,0,0,0,0,-1,643,673,-0.488505,1.32476
-574,351,-2.98828,-1.83386,0,0,0,0,0,0,0,-1,650,673,-2.98828,1.83385
-567,351,-0.796753,-1.23279,0.0196935,0.00280539,0.00979376,0.0241808,-0.00168191,0.429635,0.0167094,0.0450831,657,673,-0.796765,1.23276
-560,351,-0.595154,-0.548767,0.0142907,0.00565533,0.0109441,0.0217381,-0.00179204,0.597511,0.0151248,0.0468829,664,673,-0.595163,0.54877
-553,351,-0.200867,-0.215698,0.00993829,0.00714733,0.0106788,0.0193124,-0.00222682,0.720428,0.0136778,0.0452142,671,673,-0.200887,0.215679
-546,351,0.232361,0.00360107,0,0,0,0,0,0,0,-1,678,673,0.232348,-0.00359285
-539,351,-0.29895,0.0631104,0,0,0,0,0,0,0,-1,685,673,-0.298953,-0.0630903
-532,351,0.0319214,-0.0964966,0.0016658,0.00703141,0.00750329,0.0123171,-0.00361988,0.957091,0.00964712,0.0272912,692,673,0.0319325,0.0964879
-525,351,-0.0114136,-0.083252,0.000745796,0.00627264,0.00615376,0.010255,-0.00323654,0.996435,0.00813307,0.0149454,699,673,-0.0114275,0.083262
-518,351,-0.0189209,-0.0609131,-0.000156261,0.00475178,0.00379164,0.00681426,-0.00221874,1.07261,0.00543552,0.0106498,706,673,-0.0189473,0.0609313
-511,351,-0.0148315,-0.0479126,-0.00103804,0.00399009,0.00243283,0.00497448,-0.00202243,1.18631,0.00415779,0.0104715,713,673,-0.0148321,0.0479005
-504,351,-0.022583,-0.0668335,-0.00131013,0.00288753,0.00179364,0.00354954,-0.00197214,1.21722,0.00323101,0.00955321,720,673,-0.0226119,0.066863
-497,351,-0.0318604,-0.0753174,-0.00164938,0.00217517,0.00129879,0.00257453,-0.00204874,1.27249,0.00267499,0.00942275,727,673,-0.0318497,0.075298
-490,351,-0.0297852,-0.0854492,-0.00158043,0.00159211,0.00114675,0.0019632,-0.00195153,1.25782,0.00226018,0.00834278,734,673,-0.0297609,0.0854693
-483,351,-0.0163574,-0.079895,-0.00104045,0.000865161,0.0010679,0.00134353,-0.00151882,1.14965,0.00165361,0.00962616,741,673,-0.0163277,0.0798906
-476,351,-0.00500488,-0.0579224,-0.00129208,0.000639673,0.000413473,0.000724453,-0.00137686,1.36856,0.00123253,0.00996548,748,673,-0.00501873,0.0579177
-469,351,-0.000610352,-0.0499268,-0.00231276,0.000758913,-3.77907e-05,0.000759378,-0.00231322,-1.5585,0.00184803,0.0126108,755,673,-0.000608714,0.0499556
-462,351,-0.00439453,-0.0533447,-0.00410396,0.00106084,-0.000477682,0.00110465,-0.00414777,-1.47934,0.00319764,0.0141696,762,673,-0.0044033,0.0533527
-455,351,-0.0286255,-0.0766602,-0.00683775,0.00157732,-0.00100795,0.00169637,-0.00695679,-1.45323,0.00529469,0.0131012,769,673,-0.0286236,0.0766686
-448,351,-0.187866,-0.23053,-0.0105595,0.00270331,-0.00174852,0.00292996,-0.0107862,-1.44189,0.00834079,0.030818,776,673,-0.187886,0.230513
-441,351,-0.329407,-0.316406,-0.0149331,0.003963,-0.00291773,0.00440327,-0.0153734,-1.42103,0.0119893,0.0414727,783,673,-0.329386,0.316406
-434,351,-0.196411,-0.466797,-0.0206559,0.00593898,-0.00434957,0.00663228,-0.0213492,-1.41273,0.0168835,0.0429499,790,673,-0.196414,0.466795
-427,351,-0.2547,-0.506592,-0.0279077,0.00869821,-0.005809,0.00959793,-0.0288074,-1.41713,0.0230794,0.0419839,797,673,-0.254671,0.506597
-420,351,-0.237671,-0.493225,-0.036656,0.0128608,-0.00713981,0.0138697,-0.0376649,-1.43042,0.0307926,0.0453881,804,673,-0.237668,0.493243
-413,351,0.103699,-0.314453,-0.0470643,0.0185587,-0.00844761,0.0196287,-0.0481343,-1.4448,0.0402603,0.0439881,811,673,0.103696,0.314461
-406,351,0.0513306,-0.572266,-0.0593003,0.0262177,-0.00962217,0.027287,-0.0603696,-1.46012,0.0517961,0.044887,818,673,0.0513435,0.572239
-399,351,-2.09161,-0.28656,0,0,0,0,0,0,0,-1,825,673,-2.09162,0.286539
-392,351,-0.864624,-0.171082,0,0,0,0,0,0,0,-1,832,673,-0.864638,0.171086
-385,351,-1.09735,-0.444519,0,0,0,0,0,0,0,-1,839,673,-1.09737,0.444512
-378,351,0,0,0,0,0,0,0,0,0,-1,846,673,0,0
-371,351,0,0,0,0,0,0,0,0,0,-1,853,673,0,0
-364,351,0,0,0,0,0,0,0,0,0,-1,860,673,0,0
-357,351,0,0,0,0,0,0,0,0,0,-1,867,673,0,0
-350,351,0,0,0,0,0,0,0,0,0,-1,874,673,0,0
-343,351,0,0,0,0,0,0,0,0,0,-1,881,673,0,0
-336,351,0,0,0,0,0,0,0,0,0,-1,888,673,0,0
-329,351,0,0,0,0,0,0,0,0,0,-1,895,673,0,0
-322,351,0,0,0,0,0,0,0,0,0,-1,902,673,0,0
-315,351,0,0,0,0,0,0,0,0,0,-1,909,673,0,0
-308,351,0,0,0,0,0,0,0,0,0,-1,916,673,0,0
-301,351,0,0,0,0,0,0,0,0,0,-1,923,673,0,0
-294,351,0,0,0,0,0,0,0,0,0,-1,930,673,0,0
-287,351,0,0,0,0,0,0,0,0,0,-1,937,673,0,0
-280,351,0,0,0,0,0,0,0,0,0,-1,944,673,0,0
-273,351,0,0,0,0,0,0,0,0,0,-1,951,673,0,0
-266,351,0,0,0,0,0,0,0,0,0,-1,958,673,0,0
-259,351,0,0,0,0,0,0,0,0,0,-1,965,673,0,0
-252,351,0,0,0,0,0,0,0,0,0,-1,972,673,0,0
-245,351,0,0,0,0,0,0,0,0,0,-1,979,673,0,0
-238,351,0,0,0,0,0,0,0,0,0,-1,986,673,0,0
-231,351,0,0,0,0,0,0,0,0,0,-1,993,673,0,0
-224,351,0,0,0,0,0,0,0,0,0,-1,1000,673,0,0
-217,351,0,0,0,0,0,0,0,0,0,-1,1007,673,0,0
-210,351,0,0,0,0,0,0,0,0,0,-1,1014,673,0,0
-203,351,0,0,0,0,0,0,0,0,0,-1,1021,673,0,0
-196,351,0,0,0,0,0,0,0,0,0,-1,1028,673,0,0
-189,351,0,0,0,0,0,0,0,0,0,-1,1035,673,0,0
-182,351,0,0,0,0,0,0,0,0,0,-1,1042,673,0,0
-175,351,0,0,0,0,0,0,0,0,0,-1,1049,673,0,0
-168,351,0,0,0,0,0,0,0,0,0,-1,1056,673,0,0
-161,351,0,0,0,0,0,0,0,0,0,-1,1063,673,0,0
-154,351,0,0,0,0,0,0,0,0,0,-1,1070,673,0,0
-147,351,0,0,0,0,0,0,0,0,0,-1,1077,673,0,0
-140,351,0,0,0,0,0,0,0,0,0,-1,1084,673,0,0
-133,351,0,0,0,0,0,0,0,0,0,-1,1091,673,0,0
-126,351,0,0,0,0,0,0,0,0,0,-1,1098,673,0,0
-119,351,0,0,0,0,0,0,0,0,0,-1,1105,673,0,0
-112,351,0,0,0,0,0,0,0,0,0,-1,1112,673,0,0
-105,351,0,0,0,0,0,0,0,0,0,-1,1119,673,0,0
-98,351,0,0,0,0,0,0,0,0,0,-1,1126,673,0,0
-91,351,0,0,0,0,0,0,0,0,0,-1,1133,673,0,0
-84,351,0,0,0,0,0,0,0,0,0,-1,1140,673,0,0
-77,351,0,0,0,0,0,0,0,0,0,-1,1147,673,0,0
-70,351,0,0,0,0,0,0,0,0,0,-1,1154,673,0,0
-63,351,0,0,0,0,0,0,0,0,0,-1,1161,673,0,0
-56,351,0,0,0,0,0,0,0,0,0,-1,1168,673,0,0
-49,351,0,0,0,0,0,0,0,0,0,-1,1175,673,0,0
-42,351,0,0,0,0,0,0,0,0,0,-1,1182,673,0,0
-35,351,0,0,0,0,0,0,0,0,0,-1,1189,673,0,0
-28,351,0,0,0,0,0,0,0,0,0,-1,1196,673,0,0
-21,351,0,0,0,0,0,0,0,0,0,-1,1203,673,0,0
-14,351,0,0,0,0,0,0,0,0,0,-1,1210,673,0,0
-7,351,0,0,0,0,0,0,0,0,0,-1,1217,673,0,0
0,351,0,0,0,0,0,0,0,0,0,-1,1224,673,0,0
7,351,0,0,0,0,0,0,0,0,0,-1,1231,673,0,0
14,351,0,0,0,0,0,0,0,0,0,-1,1238,673,0,0
21,351,0,0,0,0,0,0,0,0,0,-1,1245,673,0,0
28,351,0,0,0,0,0,0,0,0,0,-1,1252,673,0,0
35,351,0,0,0,0,0,0,0,0,0,-1,1259,673,0,0
42,351,0,0,0,0,0,0,0,0,0,-1,1266,673,0,0
49,351,0,0,0,0,0,0,0,0,0,-1,1273,673,0,0
56,351,0,0,0,0,0,0,0,0,0,-1,1280,673,0,0
63,351,0,0,0,0,0,0,0,0,0,-1,1287,673,0,0
70,351,0,0,0,0,0,0,0,0,0,-1,1294,673,0,0
77,351,0,0,0,0,0,0,0,0,0,-1,1301,673,0,0
84,351,0,0,0,0,0,0,0,0,0,-1,1308,673,0,0
91,351,0,0,0,0,0,0,0,0,0,-1,1315,673,0,0
98,351,0,0,0,0,0,0,0,0,0,-1,1322,673,0,0
105,351,0,0,0,0,0,0,0,0,0,-1,1329,673,0,0
112,351,0,0,0,0,0,0,0,0,0,-1,1336,673,0,0
119,351,0,0,0,0,0,0,0,0,0,-1,1343,673,0,0
126,351,0,0,0,0,0,0,0,0,0,-1,1350,673,0,0
133,351,0,0,0,0,0,0,0,0,0,-1,1357,673,0,0
140,351,0,0,0,0,0,0,0,0,0,-1,1364,673,0,0
147,351,0,0,0,0,0,0,0,0,0,-1,1371,673,0,0
154,351,0,0,0,0,0,0,0,0,0,-1,1378,673,0,0
161,351,0,0,0,0,0,0,0,0,0,-1,1385,673,0,0
168,351,0,0,0,0,0,0,0,0,0,-1,1392,673,0,0
175,351,0,0,0,0,0,0,0,0,0,-1,1399,673,0,0
182,351,0,0,0,0,0,0,0,0,0,-1,1406,673,0,0
189,351,0,0,0,0,0,0,0,0,0,-1,1413,673,0,0
196,351,0,0,0,0,0,0,0,0,0,-1,1420,673,0,0
203,351,0,0,0,0,0,0,0,0,0,-1,1427,673,0,0
210,351,0,0,0,0,0,0,0,0,0,-1,1434,673,0,0
217,351,0,0,0,0,0,0,0,0,0,-1,1441,673,0,0
224,351,0,0,0,0,0,0,0,0,0,-1,1448,673,0,0
231,351,0,0,0,0,0,0,0,0,0,-1,1455,673,0,0
238,351,0,0,0,0,0,0,0,0,0,-1,1462,673,0,0
245,351,0,0,0,0,0,0,0,0,0,-1,1469,673,0,0
252,351,0,0,0,0,0,0,0,0,0,-1,1476,673,0,0
259,351,0,0,0,0,0,0,0,0,0,-1,1483,673,0,0
266,351,0,0,0,0,0,0,0,0,0,-1,1490,673,0,0
273,351,0,0,0,0,0,0,0,0,0,-1,1497,673,0,0
280,351,0,0,0,0,0,0,0,0,0,-1,1504,673,0,0
287,351,0,0,0,0,0,0,0,0,0,-1,1511,673,0,0
294,351,0,0,0,0,0,0,0,0,0,-1,1518,673,0,0
301,351,0,0,0,0,0,0,0,0,0,-1,1525,673,0,0
308,351,0,0,0,0,0,0,0,0,0,-1,1532,673,0,0
315,351,0,0,0,0,0,0,0,0,0,-1,1539,673,0,0
322,351,0,0,0,0,0,0,0,0,0,-1,1546,673,0,0
329,351,0,0,0,0,0,0,0,0,0,-1,1553,673,0,0
336,351,0,0,0,0,0,0,0,0,0,-1,1560,673,0,0
343,351,0,0,0,0,0,0,0,0,0,-1,1567,673,0,0
350,351,0,0,0,0,0,0,0,0,0,-1,1574,673,0,0
357,351,0,0,0,0,0,0,0,0,0,-1,1581,673,0,0
364,351,0,0,0,0,0,0,0,0,0,-1,1588,673,0,0
371,351,0,0,0,0,0,0,0,0,0,-1,1595,673,0,0
378,351,0,0,0,0,0,0,0,0,0,-1,1602,673,0,0
385,351,0,0,0,0,0,0,0,0,0,-1,1609,673,0,0
392,351,0,0,0,0,0,0,0,0,0,-1,1616,673,0,0
399,351,0,0,0,0,0,0,0,0,0,-1,1623,673,0,0
406,351,0,0,0,0,0,0,0,0,0,-1,1630,673,0,0
413,351,0,0,0,0,0,0,0,0,0,-1,1637,673,0,0
420,351,0,0,0,0,0,0,0,0,0,-1,1644,673,0,0
427,351,0,0,0,0,0,0,0,0,0,-1,1651,673,0,0
434,351,0,0,0,0,0,0,0,0,0,-1,1658,673,0,0
441,351,0,0,0,0,0,0,0,0,0,-1,1665,673,0,0
448,351,0,0,0,0,0,0,0,0,0,-1,1672,673,0,0
455,351,0,0,0,0,0,0,0,0,0,-1,1679,673,0,0
462,351,0,0,0,0,0,0,0,0,0,-1,1686,673,0,0
469,351,0,0,0,0,0,0,0,0,0,-1,1693,673,0,0
476,351,0,0,0,0,0,0,0,0,0,-1,1700,673,0,0
483,351,0,0,0,0,0,0,0,0,0,-1,1707,673,0,0
490,351,0,0,0,0,0,0,0,0,0,-1,1714,673,0,0
497,351,0,0,0,0,0,0,0,0,0,-1,1721,673,0,0
504,351,1.10449,-0.827209,-0.0177931,0.0313412,-0.0242599,0.0413007,-0.0277526,-1.18124,0.0401229,0.0459938,1728,673,1.10454,0.827183
511,351,1.08936,-0.741333,-0.0143433,0.0205947,-0.0185529,0.0286086,-0.0223572,-1.16306,0.0294988,0.041973,1735,673,1.0894,0.741327
518,351,0.655151,-0.426697,-0.011113,0.0120877,-0.0144296,0.0190017,-0.018027,-1.12396,0.021381,0.0425732,1742,673,0.655135,0.426672
525,351,0.331787,0.350281,-0.00845886,0.00584361,-0.0114685,0.0122078,-0.0148231,-1.06418,0.0156306,0.0446094,1749,673,0.331787,-0.350298
532,351,0.415405,0.350952,-0.0064439,0.0013954,-0.0094085,0.00766808,-0.0127166,-0.982768,0.0118888,0.0456202,1756,673,0.415457,-0.350925
539,351,0.419556,0.338745,-0.00501569,-0.00244561,-0.00755278,0.00393067,-0.011392,-0.869662,0.00918949,0.0436731,1763,673,0.419544,-0.338721
546,351,-0.230591,-0.112976,0,0,0,0,0,0,0,-1,1770,673,-0.230594,0.112991
553,351,-0.219727,-0.0103149,-0.00305615,-0.00433997,-0.00581924,0.00215648,-0.0095526,-0.730466,0.00719576,0.0462494,1777,673,-0.21972,0.010341
560,351,-0.173584,0.0559082,-0.00217385,-0.00434979,-0.00529924,0.00214795,-0.00867159,-0.684152,0.00661434,0.0471481,1784,673,-0.173579,-0.0558784
567,351,-0.106323,0.103516,-0.00145114,-0.00414412,-0.00455008,0.00194749,-0.00754276,-0.64154,0.00578793,0.0462971,1791,673,-0.106329,-0.103531
574,351,-0.137085,0.0634155,-0.00092851,-0.00345852,-0.00387085,0.0018788,-0.00626582,-0.627468,0.00492443,0.0432628,1798,673,-0.137031,-0.0634009
581,351,-0.114868,0.0421753,-0.000769741,-0.00268355,-0.00340744,0.00181261,-0.0052659,-0.64851,0.0042458,0.0330274,1805,673,-0.114818,-0.0421981
588,351,-0.0418701,-0.0271606,-0.000975234,-0.00158737,-0.00294565,0.00168021,-0.00424281,-0.733632,0.00352473,0.016111,1812,673,-0.0419265,0.0271465
595,351,-0.026123,-0.0672607,-0.000927763,-0.000664783,-0.00227255,0.00148008,-0.00307262,-0.814296,0.00268157,0.0118345,1819,673,-0.0261177,0.0672345
602,351,-0.0478516,-0.0734253,-0.000578334,-0.000315799,-0.00170407,0.00126205,-0.00215618,-0.823838,0.0019959,0.0157286,1826,673,-0.0478396,0.0734383
609,351,-0.0499268,-0.0795288,-0.000105808,-0.00025598,-0.00131652,0.00113777,-0.00149956,-0.756912,0.00152743,0.0139746,1833,673,-0.0499365,0.0795336
616,351,-0.0443115,-0.067627,1.67054e-05,-0.000325446,-0.00128567,0.00114263,-0.00145138,-0.719255,0.00150118,0.0125763,1840,673,-0.0442723,0.0676201
623,351,-0.022583,-0.0752563,0.00019069,-0.000670256,-0.00112728,0.000966897,-0.00144646,-0.603009,0.00140249,0.0140628,1847,673,-0.0225428,0.0752719
630,351,-0.0164795,-0.105957,0.000469421,-0.00107453,-0.000967159,0.000934921,-0.00154003,-0.448581,0.00144308,0.0225209,1854,673,-0.0164472,0.105928
637,351,-0.00585938,-0.0673218,0.000447058,-0.00140391,-0.000945149,0.000844384,-0.00180124,-0.397955,0.0015604,0.0257243,1861,673,-0.00590272,0.0673333
644,351,-0.0621338,-0.0768433,0.000443941,-0.00155594,-0.00115994,0.000975455,-0.00208745,-0.429672,0.0018068,0.0185845,1868,673,-0.0621057,0.0768633
651,351,-0.0540771,-0.119019,0.000642282,-0.00117804,-0.00150806,0.00149355,-0.00202931,-0.513892,0.00204175,0.0134552,1875,673,-0.0540437,0.119031
658,351,-0.0644531,-0.0505371,0.00115482,0.000153089,-0.00182525,0.00254667,-0.00123877,-0.65149,0.00222858,0.0132291,1882,673,-0.064439,0.0505242
665,351,-0.03479,-0.0495605,0.00187314,0.00238858,-0.0023984,0.00454307,-0.00028135,-0.838921,0.00312672,0.0170605,1889,673,-0.0347986,0.0495714
672,351,-0.0219727,-0.140015,0.00285657,0.00515564,-0.00294445,0.00716699,0.000845219,-0.971504,0.00452266,0.023517,1896,673,-0.0219388,0.139992
679,351,-0.0164795,-0.176514,0.00422984,0.00960452,-0.003664,0.011461,0.00237331,-1.10181,0.0069853,0.0340179,1903,673,-0.0164943,0.176529
686,351,-0.180298,-0.283875,0.00622959,0.0159413,-0.00460349,0.0177766,0.00439429,-1.19143,0.0106916,0.0415698,1910,673,-0.180326,0.283893
693,351,1.02979,-1.97968,0,0,0,0,0,0,0,-1,1917,673,1.02982,1.97971
700,351,-0.590942,1.27209,0,0,0,0,0,0,0,-1,1924,673,-0.590958,-1.27211
707,351,0,0,0,0,0,0,0,0,0,-1,1931,673,0,0
714,351,0,0,0,0,0,0,0,0,0,-1,1938,673,0,0
721,351,0,0,0,0,0,0,0,0,0,-1,1945,673,0,0
728,351,0,0,0,0,0,0,0,0,0,-1,1952,673,0,0
735,351,0,0,0,0,0,0,0,0,0,-1,1959,673,0,0
742,351,0,0,0,0,0,0,0,0,0,-1,1966,673,0,0
749,351,0,0,0,0,0,0,0,0,0,-1,1973,673,0,0
756,351,0,0,0,0,0,0,0,0,0,-1,1980,673,0,0
763,351,0,0,0,0,0,0,0,0,0,-1,1987,673,0,0
770,351,0,0,0,0,0,0,0,0,0,-1,1994,673,0,0
777,351,0,0,0,0,0,0,0,0,0,-1,2001,673,0,0
784,351,0,0,0,0,0,0,0,0,0,-1,2008,673,0,0
791,351,0,0,0,0,0,0,0,0,0,-1,2015,673,0,0
798,351,0,0,0,0,0,0,0,0,0,-1,2022,673,0,0
805,351,0,0,0,0,0,0,0,0,0,-1,2029,673,0,0
812,351,0,0,0,0,0,0,0,0,0,-1,2036,673,0,0
-700,344,0,0,0,0,0,0,0,0,0,-1,524,680,0,0
-693,344,0,0,0,0,0,0,0,0,0,-1,531,680,0,0
-686,344,0,0,0,0,0,0,0,0,0,-1,538,680,0,0
-679,344,0,0,0,0,0,0,0,0,0,-1,545,680,0,0
-672,344,0,0,0,0,0,0,0,0,0,-1,552,680,0,0
-665,344,0,0,0,0,0,0,0,0,0,-1,559,680,0,0
-658,344,0,0,0,0,0,0,0,0,0,-1,566,680,0,0
-651,344,0,0,0,0,0,0,0,0,0,-1,573,680,0,0
-644,344,0,0,0,0,0,0,0,0,0,-1,580,680,0,0
-637,344,0,0,0,0,0,0,0,0,0,-1,587,680,0,0
-630,344,0,0,0,0,0,0,0,0,0,-1,594,680,0,0
-623,344,0,0,0,0,0,0,0,0,0,-1,601,680,0,0
-616,344,0,0,0,0,0,0,0,0,0,-1,608,680,0,0
-609,344,0,0,0,0,0,0,0,0,0,-1,615,680,0,0
-602,344,0,0,0,0,0,0,0,0,0,-1,622,680,0,0
-595,344,0,0,0,0,0,0,0,0,0,-1,629,680,0,0
-588,344,-0.849548,-1.11615,0.0317796,-0.0194588,-0.0197127,0.0384858,-0.026165,-0.327917,0.0375515,0.0462795,636,680,-0.849533,1.11617
-581,344,-0.604614,-1.23566,0.0261536,-0.0110806,-0.00773846,0.0276979,-0.0126248,-0.196968,0.0238163,0.0464751,643,680,-0.604616,1.23567
-574,344,-0.505554,-1.24371,0,0,0,0,0,0,0,-1,650,680,-0.505569,1.24371
-567,344,-0.31842,-0.961243,0.0166724,0.000138375,0.00466384,0.0178973,-0.00108644,0.256821,0.0123096,0.0459351,657,680,-0.318401,0.961231
-560,344,-0.238098,-0.54425,0.012842,0.00325267,0.0069407,0.0164831,-0.000388439,0.483135,0.0111205,0.0461432,664,680,-0.238092,0.54427
-553,344,-0.174561,-0.33313,0.00961844,0.00509353,0.00762928,0.0153137,-0.00060169,0.641254,0.0104155,0.0461283,671,680,-0.174535,0.333158
-546,344,0.0631104,-0.108093,0.00727228,0.00582621,0.00760252,0.0141861,-0.00108758,0.737989,0.00983996,0.0408761,678,680,0.0631036,0.108086
-539,344,-0.0234985,0.00561523,0.00472847,0.00652935,0.00769491,0.0133763,-0.00211851,0.843642,0.00970114,0.0352418,685,680,-0.0234787,-0.00563315
-532,344,0.0043335,-0.0753784,0.00267059,0.00600986,0.00629637,0.0108542,-0.00217375,0.915003,0.00805904,0.0176663,692,680,0.00433742,0.0753862
-525,344,-0.00402832,-0.0771484,0.00188136,0.00551971,0.00520261,0.00921203,-0.00181096,0.953587,0.00682556,0.014372,699,680,-0.00404325,0.0771523
-518,344,-0.0170288,-0.0820313,0.000924243,0.00432848,0.00326199,0.00630574,-0.00105301,1.02587,0.00459522,0.0183081,706,680,-0.0170127,0.082055
-511,344,-0.010376,-0.0718994,-0.000230563,0.00383275,0.00213302,0.00474683,-0.00114465,1.16593,0.00360716,0.0147268,713,680,-0.0103527,0.0718914
-504,344,-0.003479,-0.0925903,-0.00101072,0.00305438,0.00164179,0.00363463,-0.00159098,1.23107,0.00309296,0.0141036,720,680,-0.00346314,0.0925882
-497,344,0.00012207,-0.0748901,-0.00170884,0.00248865,0.00131551,0.00286685,-0.00208705,1.29085,0.00287192,0.0128643,727,680,0.000135197,0.0748992
-490,344,-0.0247192,-0.0848999,-0.00202944,0.00201639,0.00131252,0.00240488,-0.00241794,1.28302,0.00278446,0.0115022,734,680,-0.0247496,0.084881
-483,344,-0.0294189,-0.0899658,-0.00184033,0.00139425,0.00136524,0.00189344,-0.00233953,1.22025,0.00244842,0.0109391,741,680,-0.0294079,0.0899383
-476,344,-0.0276489,-0.0599976,-0.00258247,0.00123477,0.000748292,0.00137622,-0.00272392,1.38398,0.00240946,0.0124427,748,680,-0.02764,0.0600265
-469,344,-0.0230713,-0.0644531,-0.0041247,0.0014157,0.000378986,0.0014415,-0.00415051,1.50281,0.00335245,0.0105562,755,680,-0.0230565,0.0644666
-462,344,-0.027832,-0.078125,-0.00650344,0.00171171,-1.47643e-05,0.00171174,-0.00650346,-1.569,0.00500477,0.00983486,762,680,-0.0278529,0.0781235
-455,344,-0.0457764,-0.0935669,-0.0099526,0.00222727,-0.000516267,0.00224911,-0.00997445,-1.52851,0.00751241,0.0207589,769,680,-0.0457608,0.0935854
-448,344,-0.246704,-0.170471,-0.0145868,0.00343071,-0.00126383,0.00351893,-0.0146751,-1.50111,0.0111431,0.0385188,776,680,-0.24668,0.170454
-441,344,-0.467773,-0.205322,-0.0200842,0.00468795,-0.00243591,0.0049252,-0.0203214,-1.4737,0.0154532,0.0429198,783,680,-0.467788,0.205297
-434,344,-0.526245,-0.0355835,-0.0272473,0.00663273,-0.00385238,0.00706525,-0.0276799,-1.45899,0.0212044,0.0450218,790,680,-0.526228,0.0355641
-427,344,-0.437988,-0.358154,-0.0363246,0.00935008,-0.00528933,0.00995461,-0.0369291,-1.457,0.0285227,0.0451551,797,680,-0.437974,0.358153
-420,344,0.65625,-0.453064,-0.0475539,0.0131753,-0.0066866,0.0139028,-0.0482814,-1.46242,0.0376866,0.0448757,804,680,0.656231,0.453088
-413,344,-0.229431,-0.470337,-0.0613963,0.0185702,-0.00801528,0.0193657,-0.0621918,-1.47187,0.0492036,0.0441083,811,680,-0.229426,0.470353
-406,344,-1.27942,-0.36322,-0.0777597,0.0258949,-0.00906056,0.0266809,-0.0785458,-1.48426,0.0631646,0.0421228,818,680,-1.27942,0.363224
-399,344,-2.29425,-0.549744,-0.0972384,0.0358628,-0.00963932,0.0365572,-0.0979328,-1.49888,0.0802978,0.0423217,825,680,-2.29428,0.549774
-392,344,-3.24078,-0.670288,0,0,0,0,0,0,0,-1,832,680,-3.24078,0.67026
-385,344,0,0,0,0,0,0,0,0,0,-1,839,680,0,0
-378,344,0,0,0,0,0,0,0,0,0,-1,846,680,0,0
-371,344,0,0,0,0,0,0,0,0,0,-1,853,680,0,0
-364,344,0,0,0,0,0,0,0,0,0,-1,860,680,0,0
-357,344,0,0,0,0,0,0,0,0,0,-1,867,680,0,0
-350,344,0,0,0,0,0,0,0,0,0,-1,874,680,0,0
-343,344,0,0,0,0,0,0,0,0,0,-1,881,680,0,0
-336,344,0,0,0,0,0,0,0,0,0,-1,888,680,0,0
-329,344,0,0,0,0,0,0,0,0,0,-1,895,680,0,0
-322,344,0,0,0,0,0,0,0,0,0,-1,902,680,0,0
-315,344,0,0,0,0,0,0,0,0,0,-1,909,680,0,0
-308,344,0,0,0,0,0,0,0,0,0,-1,916,680,0,0
-301,344,0,0,0,0,0,0,0,0,0,-1,923,680,0,0
-294,344,0,0,0,0,0,0,0,0,0,-1,930,680,0,0
-287,344,0,0,0,0,0,0,0,0,0,-1,937,680,0,0
-280,344,0,0,0,0,0,0,0,0,0,-1,944,680,0,0
-273,344,0,0,0,0,0,0,0,0,0,-1,951,680,0,0
-266,344,0,0,0,0,0,0,0,0,0,-1,958,680,0,0
-259,344,0,0,0,0,0,0,0,0,0,-1,965,680,0,0
-252,344,0,0,0,0,0,0,0,0,0,-1,972,680,0,0
-245,344,0,0,0,0,0,0,0,0,0,-1,979,680,0,0
-238,344,0,0,0,0,0,0,0,0,0,-1,986,680,0,0
-231,344,0,0,0,0,0,0,0,0,0,-1,993,680,0,0
-224,344,0,0,0,0,0,0,0,0,0,-1,1000,680,0,0
-217,344,0,0,0,0,0,0,0,0,0,-1,1007,680,0,0
-210,344,0,0,0,0,0,0,0,0,0,-1,1014,680,0,0
-203,344,0,0,0,0,0,0,0,0,0,-1,1021,680,0,0
-196,344,0,0,0,0,0,0,0,0,0,-1,1028,680,0,0
-189,344,0,0,0,0,0,0,0,0,0,-1,1035,680,0,0
-182,344,0,0,0,0,0,0,0,0,0,-1,1042,680,0,0
-175,344,0,0,0,0,0,0,0,0,0,-1,1049,680,0,0
-168,344,0,0,0,0,0,0,0,0,0,-1,1056,680,0,0
-161,344,0,0,0,0,0,0,0,0,0,-1,1063,680,0,0
-154,344,0,0,0,0,0,0,0,0,0,-1,1070,680,0,0
-147,344,0,0,0,0,0,0,0,0,0,-1,1077,680,0,0
-140,344,0,0,0,0,0,0,0,0,0,-1,1084,680,0,0
-133,344,0,0,0,0,0,0,0,0,0,-1,1091,680,0,0
-126,344,0,0,0,0,0,0,0,0,0,-1,1098,680,0,0
-119,344,0,0,0,0,0,0,0,0,0,-1,1105,680,0,0
-112,344,0,0,0,0,0,0,0,0,0,-1,1112,680,0,0
-105,344,0,0,0,0,0,0,0,0,0,-1,1119,680,0,0
-98,344,0,0,0,0,0,0,0,0,0,-1,1126,680,0,0
-91,344,0,0,0,0,0,0,0,0,0,-1,1133,680,0,0
-84,344,0,0,0,0,0,0,0,0,0,-1,1140,680,0,0
-77,344,0,0,0,0,0,0,0,0,0,-1,1147,680,0,0
-70,344,0,0,0,0,0,0,0,0,0,-1,1154,680,0,0
-63,344,0,0,0,0,0,0,0,0,0,-1,1161,680,0,0
-56,344,0,0,0,0,0,0,0,0,0,-1,1168,680,0,0
-49,344,0,0,0,0,0,0,0,0,0,-1,1175,680,0,0
-42,344,0,0,0,0,0,0,0,0,0,-1,1182,680,0,0
-35,344,0,0,0,0,0,0,0,0,0,-1,1189,680,0,0
-28,344,0,0,0,0,0,0,0,0,0,-1,1196,680,0,0
-21,344,0,0,0,0,0,0,0,0,0,-1,1203,680,0,0
-14,344,0,0,0,0,0,0,0,0,0,-1,1210,680,0,0
-7,344,0,0,0,0,0,0,0,0,0,-1,1217,680,0,0
0,344,0,0,0,0,0,0,0,0,0,-1,1224,680,0,0
7,344,0,0,0,0,0,0,0,0,0,-1,1231,680,0,0
14,344,0,0,0,0,0,0,0,0,0,-1,1238,680,0,0
21,344,0,0,0,0,0,0,0,0,0,-1,1245,680,0,0
28,344,0,0,0,0,0,0,0,0,0,-1,1252,680,0,0
35,344,0,0,0,0,0,0,0,0,0,-1,1259,680,0,0
42,344,0,0,0,0,0,0,0,0,0,-1,1266,680,0,0
49,344,0,0,0,0,0,0,0,0,0,-1,1273,680,0,0
56,344,0,0,0,0,0,0,0,0,0,-1,1280,680,0,0
63,344,0,0,0,0,0,0,0,0,0,-1,1287,680,0,0
70,344,0,0,0,0,0,0,0,0,0,-1,1294,680,0,0
77,344,0,0,0,0,0,0,0,0,0,-1,1301,680,0,0
84,344,0,0,0,0,0,0,0,0,0,-1,1308,680,0,0
91,344,0,0,0,0,0,0,0,0,0,-1,1315,680,0,0
98,344,0,0,0,0,0,0,0,0,0,-1,1322,680,0,0
105,344,0,0,0,0,0,0,0,0,0,-1,1329,680,0,0
112,344,0,0,0,0,0,0,0,0,0,-1,1336,680,0,0
119,344,0,0,0,0,0,0,0,0,0,-1,1343,680,0,0
126,344,0,0,0,0,0,0,0,0,0,-1,1350,680,0,0
133,344,0,0,0,0,0,0,0,0,0,-1,1357,680,0,0
140,344,0,0,0,0,0,0,0,0,0,-1,1364,680,0,0
147,344,0,0,0,0,0,0,0,0,0,-1,1371,680,0,0
154,344,0,0,0,0,0,0,0,0,0,-1,1378,680,0,0
161,344,0,0,0,0,0,0,0,0,0,-1,1385,680,0,0
168,344,0,0,0,0,0,0,0,0,0,-1,1392,680,0,0
175,344,0,0,0,0,0,0,0,0,0,-1,1399,680,0,0
182,344,0,0,0,0,0,0,0,0,0,-1,1406,680,0,0
189,344,0,0,0,0,0,0,0,0,0,-1,1413,680,0,0
196,344,0,0,0,0,0,0,0,0,0,-1,1420,680,0,0
203,344,0,0,0,0,0,0,0,0,0,-1,1427,680,0,0
210,344,0,0,0,0,0,0,0,0,0,-1,1434,680,0,0
217,344,0,0,0,0,0,0,0,0,0,-1,1441,680,0,0
224,344,0,0,0,0,0,0,0,0,0,-1,1448,680,0,0
231,344,0,0,0,0,0,0,0,0,0,-1,1455,680,0,0
238,344,0,0,0,0,0,0,0,0,0,-1,1462,680,0,0
245,344,0,0,0,0,0,0,0,0,0,-1,1469,680,0,0
252,344,0,0,0,0,0,0,0,0,0,-1,1476,680,0,0
259,344,0,0,0,0,0,0,0,0,0,-1,1483,680,0,0
266,344,0,0,0,0,0,0,0,0,0,-1,1490,680,0,0
273,344,0,0,0,0,0,0,0,0,0,-1,1497,680,0,0
280,344,0,0,0,0,0,0,0,0,0,-1,1504,680,0,0
287,344,0,0,0,0,0,0,0,0,0,-1,1511,680,0,0
294,344,0,0,0,0,0,0,0,0,0,-1,1518,680,0,0
301,344,0,0,0,0,0,0,0,0,0,-1,1525,680,0,0
308,344,0,0,0,0,0,0,0,0,0,-1,1532,680,0,0
315,344,0,0,0,0,0,0,0,0,0,-1,1539,680,0,0
322,344,0,0,0,0,0,0,0,0,0,-1,1546,680,0,0
329,344,0,0,0,0,0,0,0,0,0,-1,1553,680,0,0
336,344,0,0,0,0,0,0,0,0,0,-1,1560,680,0,0
343,344,0,0,0,0,0,0,0,0,0,-1,1567,680,0,0
350,344,0,0,0,0,0,0,0,0,0,-1,1574,680,0,0
357,344,0,0,0,0,0,0,0,0,0,-1,1581,680,0,0
364,344,0,0,0,0,0,0,0,0,0,-1,1588,680,0,0
371,344,0,0,0,0,0,0,0,0,0,-1,1595,680,0,0
378,344,0,0,0,0,0,0,0,0,0,-1,1602,680,0,0
385,344,0,0,0,0,0,0,0,0,0,-1,1609,680,0,0
392,344,0,0,0,0,0,0,0,0,0,-1,1616,680,0,0
399,344,0,0,0,0,0,0,0,0,0,-1,1623,680,0,0
406,344,0,0,0,0,0,0,0,0,0,-1,1630,680,0,0
413,344,0,0,0,0,0,0,0,0,0,-1,1637,680,0,0
420,344,0,0,0,0,0,0,0,0,0,-1,1644,680,0,0
427,344,0,0,0,0,0,0,0,0,0,-1,1651,680,0,0
434,344,0,0,0,0,0,0,0,0,0,-1,1658,680,0,0
441,344,0,0,0,0,0,0,0,0,0,-1,1665,680,0,0
448,344,0,0,0,0,0,0,0,0,0,-1,1672,680,0,0
455,344,0,0,0,0,0,0,0,0,0,-1,1679,680,0,0
462,344,0,0,0,0,0,0,0,0,0,-1,1686,680,0,0
469,344,0,0,0,0,0,0,0,0,0,-1,1693,680,0,0
476,344,0,0,0,0,0,0,0,0,0,-1,1700,680,0,0
483,344,0,0,0,0,0,0,0,0,0,-1,1707,680,0,0
490,344,0,0,0,0,0,0,0,0,0,-1,1714,680,0,0
497,344,0,0,0,0,0,0,0,0,0,-1,1721,680,0,0
504,344,0,0,0,0,0,0,0,0,0,-1,1728,680,0,0
511,344,1.78308,-0.798889,-0.0190613,0.0206098,-0.0228633,0.0310427,-0.0294942,-1.1427,0.0349548,0.0446566,1735,680,1.78314,0.798891
518,344,1.23169,-0.606506,-0.0138764,0.0117722,-0.0181801,0.0211961,-0.0233002,-1.09257,0.0256995,0.0415219,1742,680,1.23173,0.606491
525,344,0.685791,-0.401428,-0.00995306,0.00534672,-0.0147201,0.0142861,-0.0188924,-1.02504,0.0192171,0.0457916,1749,680,0.685749,0.401441
532,344,0.534424,0.766418,-0.00721707,0.000777425,-0.0122579,0.0096734,-0.016113,-0.943009,0.0150418,0.0463959,1756,680,0.534383,-0.766442
539,344,-0.953735,-0.435913,0,0,0,0,0,0,0,-1,1763,680,-0.95372,0.435923
546,344,-0.570068,-0.396545,-0.00402392,-0.00452219,-0.00916469,0.00489502,-0.0134411,-0.771809,0.010963,0.0440793,1770,680,-0.570085,0.396559
553,344,0.0695801,-0.317017,-0.00312306,-0.00496719,-0.00821853,0.00422497,-0.0123152,-0.729535,0.00992296,0.0430236,1777,680,0.0696387,0.317007
560,344,-0.223633,-0.37323,-0.00230706,-0.0049413,-0.00751555,0.00400591,-0.0112543,-0.698653,0.00913575,0.0419994,1784,680,-0.223648,0.373259
567,344,-0.349365,-0.162903,-0.00161097,-0.00465672,-0.00654176,0.00358284,-0.00985052,-0.671038,0.00803222,0.0434393,1791,680,-0.349322,0.162893
574,344,-0.219849,0.216736,0,0,0,0,0,0,0,-1,1798,680,-0.219901,-0.216706
581,344,-0.161865,0.221985,-0.000915379,-0.00301745,-0.0050042,0.00314697,-0.0070798,-0.681887,0.00604821,0.0405466,1805,680,-0.161869,-0.221974
588,344,-0.0405273,0.0480347,-0.00117456,-0.0018078,-0.00431177,0.0028322,-0.00581455,-0.748748,0.00509023,0.0290826,1812,680,-0.0405546,-0.0480646
595,344,-0.00109863,-0.0614624,-0.00117004,-0.00078489,-0.00334013,0.00236821,-0.00432314,-0.814193,0.00391783,0.0146016,1819,680,-0.00107323,0.061445
602,344,0.0280762,-0.0314331,-0.000824891,-0.000287713,-0.00247505,0.00193328,-0.00304588,-0.839446,0.00289854,0.0153184,1826,680,0.0281323,0.0314615
609,344,-0.00195313,-0.0371094,-0.000278369,-0.000104989,-0.00183178,0.00164215,-0.00202551,-0.809043,0.00212138,0.0136435,1833,680,-0.00193628,0.037128
616,344,-0.0427246,-0.0600586,-0.000103327,-8.555e-05,-0.00153405,0.00143964,-0.00162852,-0.788295,0.00177252,0.0188134,1840,680,-0.0427377,0.0600857
623,344,-0.0300293,-0.0627441,4.62768e-05,-0.000313752,-0.00115771,0.00103788,-0.00130535,-0.70827,0.0013558,0.0172902,1847,680,-0.0300557,0.0627699
630,344,-0.00598145,-0.0869751,0.00029444,-0.000640693,-0.000780247,0.000736491,-0.00108274,-0.515463,0.00105666,0.0224425,1854,680,-0.00600402,0.0869815
637,344,0.0194092,-0.0982056,0.000225062,-0.000911725,-0.000558782,0.00045373,-0.00114039,-0.388436,0.000948403,0.0216452,1861,680,0.019365,0.0982055
644,344,-0.0410156,-0.0959473,7.01193e-05,-0.000951604,-0.000572908,0.000326853,-0.00120834,-0.421293,0.000933777,0.0144782,1868,680,-0.0409799,0.0959272
651,344,-0.0385742,-0.0975952,0.000130918,-0.000550428,-0.000822886,0.000680863,-0.00110037,-0.589141,0.00103786,0.0104276,1875,680,-0.0385646,0.0976239
658,344,-0.0522461,-0.0504761,0.000498618,0.000791138,-0.00114619,0.00180036,-0.000510607,-0.848858,0.00140179,0.0138343,1882,680,-0.0523007,0.0504805
665,344,-0.0345459,-0.0377197,0.00106718,0.00290268,-0.00174614,0.00395756,1.22937e-05,-1.02735,0.00263429,0.0164233,1889,680,-0.0345639,0.0376966
672,344,-0.0313721,-0.0569458,0.00183891,0.00529193,-0.0023149,0.00645325,0.000677588,-1.10581,0.00409503,0.0119239,1896,680,-0.0313195,0.056929
679,344,-0.00146484,-0.055603,0.00289147,0.00905432,-0.00307083,0.0103232,0.00162258,-1.17896,0.0064101,0.0264314,1903,680,-0.00151228,0.0555967
686,344,0.118286,0.376709,0.00448571,0.0143584,-0.00402682,0.0157925,0.00305158,-1.22866,0.00967293,0.0394206,1910,680,0.118289,-0.376704
693,344,-0.517822,1.15454,0,0,0,0,0,0,0,-1,1917,680,-0.517819,-1.15453
700,344,-0.167114,0.987549,0.00941287,0.0298841,-0.00643303,0.0317378,0.00755916,-1.29024,0.0191429,0.043801,1924,680,-0.167122,-0.987527
707,344,0.222778,0.971008,0.0129884,0.0404363,-0.00777451,0.0424854,0.0109392,-1.31309,0.0254726,0.043868,1931,680,0.22279,-0.971003
714,344,0,0,0,0,0,0,0,0,0,-1,1938,680,0,0
721,344,0,0,0,0,0,0,0,0,0,-1,1945,680,0,0
728,344,0,0,0,0,0,0,0,0,0,-1,1952,680,0,0
735,344,0,0,0,0,0,0,0,0,0,-1,1959,680,0,0
742,344,0,0,0,0,0,0,0,0,0,-1,1966,680,0,0
749,344,0,0,0,0,0,0,0,0,0,-1,1973,680,0,0
756,344,0,0,0,0,0,0,0,0,0,-1,1980,680,0,0
763,344,0,0,0,0,0,0,0,0,0,-1,1987,680,0,0
770,344,0,0,0,0,0,0,0,0,0,-1,1994,680,0,0
777,344,0,0,0,0,0,0,0,0,0,-1,2001,680,0,0
784,344,0,0,0,0,0,0,0,0,0,-1,2008,680,0,0
791,344,0,0,0,0,0,0,0,0,0,-1,2015,680,0,0
798,344,0,0,0,0,0,0,0,0,0,-1,2022,680,0,0
805,344,0,0,0,0,0,0,0,0,0,-1,2029,680,0,0
812,344,0,0,0,0,0,0,0,0,0,-1,2036,680,0,0
-700,337,0,0,0,0,0,0,0,0,0,-1,524,687,0,0
-693,337,0,0,0,0,0,0,0,0,0,-1,531,687,0,0
-686,337,0,0,0,0,0,0,0,0,0,-1,538,687,0,0
-679,337,0,0,0,0,0,0,0,0,0,-1,545,687,0,0
-672,337,0,0,0,0,0,0,0,0,0,-1,552,687,0,0
-665,337,0,0,0,0,0,0,0,0,0,-1,559,687,0,0
-658,337,0,0,0,0,0,0,0,0,0,-1,566,687,0,0
-651,337,0,0,0,0,0,0,0,0,0,-1,573,687,0,0
-644,337,0,0,0,0,0,0,0,0,0,-1,580,687,0,0
-637,337,0,0,0,0,0,0,0,0,0,-1,587,687,0,0
-630,337,0,0,0,0,0,0,0,0,0,-1,594,687,0,0
-623,337,0,0,0,0,0,0,0,0,0,-1,601,687,0,0
-616,337,0,0,0,0,0,0,0,0,0,-1,608,687,0,0
-609,337,0,0,0,0,0,0,0,0,0,-1,615,687,0,0
-602,337,0,0,0,0,0,0,0,0,0,-1,622,687,0,0
-595,337,0,0,0,0,0,0,0,0,0,-1,629,687,0,0
-588,337,-0.658508,-1.15686,0.020101,-0.0194216,-0.0253155,0.0324549,-0.0317755,-0.453999,0.0370841,0.0495599,636,687,-0.658536,1.15683
-581,337,-0.505981,-1.15546,0.016572,-0.0126403,-0.0138827,0.022117,-0.0181853,-0.380004,0.0233054,0.0469816,643,687,-0.505986,1.15546
-574,337,-0.171509,-0.0790405,0,0,0,0,0,0,0,-1,650,687,-0.171515,0.0790372
-567,337,-0.00488281,-0.111023,0.0111838,-0.00279858,-0.000459234,0.0111989,-0.00281364,-0.0327966,0.00855937,0.0490656,657,687,-0.00486413,0.111046
-560,337,-0.0709229,-0.200989,0.00896565,0.000196917,0.0026352,0.00969665,-0.000534083,0.270594,0.00664961,0.0452094,664,687,-0.0709179,0.200989
-553,337,-0.162048,-0.231995,0.00705146,0.00220431,0.00414476,0.00942922,-0.000173443,0.520839,0.00634475,0.0430049,671,687,-0.162018,0.231978
-546,337,-0.0786133,-0.0753784,0.00571623,0.00323687,0.00489812,0.00952911,-0.00057601,0.661454,0.00655319,0.0366854,678,687,-0.0786106,0.0753825
-539,337,-0.0271606,-0.0603638,0.00388862,0.00432177,0.00563767,0.00974702,-0.00153663,0.804597,0.00706614,0.0226649,685,687,-0.0271646,0.0603574
-532,337,-0.0272217,-0.0618896,0.00229373,0.00418293,0.00473267,0.00806434,-0.00158768,0.8839,0.00597617,0.0121275,692,687,-0.0272265,0.0619109
-525,337,-0.0236816,-0.0724487,0.00184792,0.00402539,0.00396889,0.00705217,-0.00117886,0.919264,0.00513966,0.013795,699,687,-0.0236518,0.0724676
-518,337,-0.0377808,-0.0834351,0.00103686,0.00327527,0.00253983,0.00493156,-0.00061943,0.992929,0.00351244,0.0216992,706,687,-0.0377982,0.0834546
-511,337,-0.020874,-0.0784912,-0.000194049,0.00313412,0.00171515,0.00385979,-0.000919713,1.17054,0.00292831,0.0206857,713,687,-0.0208579,0.0785075
-504,337,-0.00933838,-0.100159,-0.00126406,0.00277134,0.00143212,0.00322792,-0.00172064,1.26217,0.0029009,0.0192908,720,687,-0.00935798,0.100148
-497,337,-0.0169067,-0.0915527,-0.00216184,0.00242869,0.00131329,0.00277785,-0.002511,1.31094,0.00305481,0.0138239,727,687,-0.0169004,0.0915572
-490,337,-0.0490112,-0.0958862,-0.00269469,0.00215978,0.00146384,0.00256703,-0.00310194,1.29945,0.00327783,0.0118366,734,687,-0.048983,0.0958963
-483,337,-0.0444946,-0.0900269,-0.00269957,0.0017007,0.00165435,0.00225328,-0.00325215,1.24843,0.00319596,0.0120304,741,687,-0.0445163,0.0900501
-476,337,-0.0264282,-0.0734253,-0.00378952,0.00161344,0.00113305,0.00184143,-0.00401751,1.37223,0.00345956,0.0110315,748,687,-0.0264585,0.0734246
-469,337,-0.0212402,-0.0822144,-0.00576977,0.00184852,0.000858565,0.00194408,-0.00586533,1.45995,0.0046944,0.0094637,755,687,-0.0212402,0.0822067
-462,337,-0.0205078,-0.10675,-0.00862789,0.00212533,0.000522705,0.00215068,-0.00865324,1.52234,0.00660351,0.0170158,762,687,-0.0204944,0.106725
-455,337,0.00592041,-0.111816,-0.0126671,0.00261462,5.80363e-05,0.00261484,-0.0126673,1.567,0.00943799,0.0344885,769,687,0.00593678,0.111809
-448,337,0.0474854,-0.0432739,-0.0180851,0.0038194,-0.000668056,0.00383975,-0.0181055,-1.54034,0.013533,0.0437926,776,687,0.0474805,0.0432874
-441,337,0.00170898,0.509033,-0.0246006,0.00498386,-0.0018123,0.00509446,-0.0247112,-1.50984,0.0184088,0.0455452,783,687,0.00173878,-0.50901
-434,337,-0.112671,0.863525,-0.0331276,0.00680226,-0.00318287,0.00705438,-0.0333797,-1.49175,0.0249394,0.0436633,790,687,-0.112668,-0.863497
-427,337,1.9444,-0.278198,-0.0440549,0.00942265,-0.00457999,0.00981206,-0.0444443,-1.48598,0.0333844,0.0452213,797,687,1.94439,0.278171
-420,337,0.693115,-0.431213,-0.0577071,0.0132095,-0.00585143,0.013689,-0.0581867,-1.48902,0.0440686,0.0468343,804,687,0.693114,0.43123
-413,337,-0.367859,-0.586243,-0.0744588,0.0185806,-0.00680791,0.0190761,-0.0749543,-1.49814,0.0573948,0.0465155,811,687,-0.367844,0.586256
-406,337,-1.2818,-0.751831,-0.0945458,0.0261233,-0.00710141,0.0265398,-0.0949623,-1.51222,0.0737638,0.0429075,818,687,-1.28181,0.751837
-399,337,-2.50891,-0.935303,-0.118458,0.0369183,-0.00599076,0.037149,-0.118688,-1.53232,0.0939885,0.0412908,825,687,-2.50888,0.935283
-392,337,0,0,0,0,0,0,0,0,0,-1,832,687,0,0
-385,337,0,0,0,0,0,0,0,0,0,-1,839,687,0,0
-378,337,0,0,0,0,0,0,0,0,0,-1,846,687,0,0
-371,337,0,0,0,0,0,0,0,0,0,-1,853,687,0,0
-364,337,0,0,0,0,0,0,0,0,0,-1,860,687,0,0
-357,337,0,0,0,0,0,0,0,0,0,-1,867,687,0,0
-350,337,0,0,0,0,0,0,0,0,0,-1,874,687,0,0
-343,337,0,0,0,0,0,0,0,0,0,-1,881,687,0,0
-336,337,0,0,0,0,0,0,0,0,0,-1,888,687,0,0
-329,337,0,0,0,0,0,0,0,0,0,-1,895,687,0,0
-322,337,0,0,0,0,0,0,0,0,0,-1,902,687,0,0
-315,337,0,0,0,0,0,0,0,0,0,-1,909,687,0,0
-308,337,0,0,0,0,0,0,0,0,0,-1,916,687,0,0
-301,337,0,0,0,0,0,0,0,0,0,-1,923,687,0,0
-294,337,0,0,0,0,0,0,0,0,0,-1,930,687,0,0
-287,337,0,0,0,0,0,0,0,0,0,-1,937,687,0,0
-280,337,0,0,0,0,0,0,0,0,0,-1,944,687,0,0
-273,337,0,0,0,0,0,0,0,0,0,-1,951,687,0,0
-266,337,0,0,0,0,0,0,0,0,0,-1,958,687,0,0
-259,337,0,0,0,0,0,0,0,0,0,-1,965,687,0,0
-252,337,0,0,0,0,0,0,0,0,0,-1,972,687,0,0
-245,337,0,0,0,0,0,0,0,0,0,-1,979,687,0,0
-238,337,0,0,0,0,0,0,0,0,0,-1,986,687,0,0
-231,337,0,0,0,0,0,0,0,0,0,-1,993,687,0,0
-224,337,0,0,0,0,0,0,0,0,0,-1,1000,687,0,0
-217,337,0,0,0,0,0,0,0,0,0,-1,1007,687,0,0
-210,337,0,0,0,0,0,0,0,0,0,-1,1014,687,0,0
-203,337,0,0,0,0,0,0,0,0,0,-1,1021,687,0,0
-196,337,0,0,0,0,0,0,0,0,0,-1,1028,687,0,0
-189,337,0,0,0,0,0,0,0,0,0,-1,1035,687,0,0
-182,337,0,0,0,0,0,0,0,0,0,-1,1042,687,0,0
-175,337,0,0,0,0,0,0,0,0,0,-1,1049,687,0,0
-168,337,0,0,0,0,0,0,0,0,0,-1,1056,687,0,0
-161,337,0,0,0,0,0,0,0,0,0,-1,1063,687,0,0
-154,337,0,0,0,0,0,0,0,0,0,-1,1070,687,0,0
-147,337,0,0,0,0,0,0,0,0,0,-1,1077,687,0,0
-140,337,0,0,0,0,0,0,0,0,0,-1,1084,687,0,0
-133,337,0,0,0,0,0,0,0,0,0,-1,1091,687,0,0
-126,337,0,0,0,0,0,0,0,0,0,-1,1098,687,0,0
-119,337,0,0,0,0,0,0,0,0,0,-1,1105,687,0,0
-112,337,0,0,0,0,0,0,0,0,0,-1,1112,687,0,0
-105,337,0,0,0,0,0,0,0,0,0,-1,1119,687,0,0
-98,337,0,0,0,0,0,0,0,0,0,-1,1126,687,0,0
-91,337,0,0,0,0,0,0,0,0,0,-1,1133,687,0,0
-84,337,0,0,0,0,0,0,0,0,0,-1,1140,687,0,0
-77,337,0,0,0,0,0,0,0,0,0,-1,1147,687,0,0
-70,337,0,0,0,0,0,0,0,0,0,-1,1154,687,0,0
-63,337,0,0,0,0,0,0,0,0,0,-1,1161,687,0,0
-56,337,0,0,0,0,0,0,0,0,0,-1,1168,687,0,0
-49,337,0,0,0,0,0,0,0,0,0,-1,1175,687,0,0
-42,337,0,0,0,0,0,0,0,0,0,-1,1182,687,0,0
-35,337,0,0,0,0,0,0,0,0,0,-1,1189,687,0,0
-28,337,0,0,0,0,0,0,0,0,0,-1,1196,687,0,0
-21,337,0,0,0,0,0,0,0,0,0,-1,1203,687,0,0
-14,337,0,0,0,0,0,0,0,0,0,-1,1210,687,0,0
-7,337,0,0,0,0,0,0,0,0,0,-1,1217,687,0,0
0,337,0,0,0,0,0,0,0,0,0,-1,1224,687,0,0
7,337,0,0,0,0,0,0,0,0,0,-1,1231,687,0,0
14,337,0,0,0,0,0,0,0,0,0,-1,1238,687,0,0
21,337,0,0,0,0,0,0,0,0,0,-1,1245,687,0,0
28,337,0,0,0,0,0,0,0,0,0,-1,1252,687,0,0
35,337,0,0,0,0,0,0,0,0,0,-1,1259,687,0,0
42,337,0,0,0,0,0,0,0,0,0,-1,1266,687,0,0
49,337,0,0,0,0,0,0,0,0,0,-1,1273,687,0,0
56,337,0,0,0,0,0,0,0,0,0,-1,1280,687,0,0
63,337,0,0,0,0,0,0,0,0,0,-1,1287,687,0,0
70,337,0,0,0,0,0,0,0,0,0,-1,1294,687,0,0
77,337,0,0,0,0,0,0,0,0,0,-1,1301,687,0,0
84,337,0,0,0,0,0,0,0,0,0,-1,1308,687,0,0
91,337,0,0,0,0,0,0,0,0,0,-1,1315,687,0,0
98,337,0,0,0,0,0,0,0,0,0,-1,1322,687,0,0
105,337,0,0,0,0,0,0,0,0,0,-1,1329,687,0,0
112,337,0,0,0,0,0,0,0,0,0,-1,1336,687,0,0
119,337,0,0,0,0,0,0,0,0,0,-1,1343,687,0,0
126,337,0,0,0,0,0,0,0,0,0,-1,1350,687,0,0
133,337,0,0,0,0,0,0,0,0,0,-1,1357,687,0,0
140,337,0,0,0,0,0,0,0,0,0,-1,1364,687,0,0
147,337,0,0,0,0,0,0,0,0,0,-1,1371,687,0,0
154,337,0,0,0,0,0,0,0,0,0,-1,1378,687,0,0
161,337,0,0,0,0,0,0,0,0,0,-1,1385,687,0,0
168,337,0,0,0,0,0,0,0,0,0,-1,1392,687,0,0
175,337,0,0,0,0,0,0,0,0,0,-1,1399,687,0,0
182,337,0,0,0,0,0,0,0,0,0,-1,1406,687,0,0
189,337,0,0,0,0,0,0,0,0,0,-1,1413,687,0,0
196,337,0,0,0,0,0,0,0,0,0,-1,1420,687,0,0
203,337,0,0,0,0,0,0,0,0,0,-1,1427,687,0,0
210,337,0,0,0,0,0,0,0,0,0,-1,1434,687,0,0
217,337,0,0,0,0,0,0,0,0,0,-1,1441,687,0,0
224,337,0,0,0,0,0,0,0,0,0,-1,1448,687,0,0
231,337,0,0,0,0,0,0,0,0,0,-1,1455,687,0,0
238,337,0,0,0,0,0,0,0,0,0,-1,1462,687,0,0
245,337,0,0,0,0,0,0,0,0,0,-1,1469,687,0,0
252,337,0,0,0,0,0,0,0,0,0,-1,1476,687,0,0
259,337,0,0,0,0,0,0,0,0,0,-1,1483,687,0,0
266,337,0,0,0,0,0,0,0,0,0,-1,1490,687,0,0
273,337,0,0,0,0,0,0,0,0,0,-1,1497,687,0,0
280,337,0,0,0,0,0,0,0,0,0,-1,1504,687,0,0
287,337,0,0,0,0,0,0,0,0,0,-1,1511,687,0,0
294,337,0,0,0,0,0,0,0,0,0,-1,1518,687,0,0
301,337,0,0,0,0,0,0,0,0,0,-1,1525,687,0,0
308,337,0,0,0,0,0,0,0,0,0,-1,1532,687,0,0
315,337,0,0,0,0,0,0,0,0,0,-1,1539,687,0,0
322,337,0,0,0,0,0,0,0,0,0,-1,1546,687,0,0
329,337,0,0,0,0,0,0,0,0,0,-1,1553,687,0,0
336,337,0,0,0,0,0,0,0,0,0,-1,1560,687,0,0
343,337,0,0,0,0,0,0,0,0,0,-1,1567,687,0,0
350,337,0,0,0,0,0,0,0,0,0,-1,1574,687,0,0
357,337,0,0,0,0,0,0,0,0,0,-1,1581,687,0,0
364,337,0,0,0,0,0,0,0,0,0,-1,1588,687,0,0
371,337,0,0,0,0,0,0,0,0,0,-1,1595,687,0,0
378,337,0,0,0,0,0,0,0,0,0,-1,1602,687,0,0
385,337,0,0,0,0,0,0,0,0,0,-1,1609,687,0,0
392,337,0,0,0,0,0,0,0,0,0,-1,1616,687,0,0
399,337,0,0,0,0,0,0,0,0,0,-1,1623,687,0,0
406,337,0,0,0,0,0,0,0,0,0,-1,1630,687,0,0
413,337,0,0,0,0,0,0,0,0,0,-1,1637,687,0,0
420,337,0,0,0,0,0,0,0,0,0,-1,1644,687,0,0
427,337,0,0,0,0,0,0,0,0,0,-1,1651,687,0,0
434,337,0,0,0,0,0,0,0,0,0,-1,1658,687,0,0
441,337,0,0,0,0,0,0,0,0,0,-1,1665,687,0,0
448,337,0,0,0,0,0,0,0,0,0,-1,1672,687,0,0
455,337,0,0,0,0,0,0,0,0,0,-1,1679,687,0,0
462,337,0,0,0,0,0,0,0,0,0,-1,1686,687,0,0
469,337,0,0,0,0,0,0,0,0,0,-1,1693,687,0,0
476,337,0,0,0,0,0,0,0,0,0,-1,1700,687,0,0
483,337,0,0,0,0,0,0,0,0,0,-1,1707,687,0,0
490,337,0,0,0,0,0,0,0,0,0,-1,1714,687,0,0
497,337,0,0,0,0,0,0,0,0,0,-1,1721,687,0,0
504,337,0,0,0,0,0,0,0,0,0,-1,1728,687,0,0
511,337,0,0,0,0,0,0,0,0,0,-1,1735,687,0,0
518,337,1.93005,-0.577454,-0.0164524,0.0120653,-0.0223086,0.0242827,-0.0286698,-1.06976,0.0306071,0.0470888,1742,687,1.93005,0.577451
525,337,1.41626,-0.378967,-0.0112417,0.00530081,-0.0184358,0.0172358,-0.0231767,-0.996264,0.023416,0.0459796,1749,687,1.4163,0.378972
532,337,0.887573,-0.136719,0,0,0,0,0,0,0,-1,1756,687,0.887567,0.13669
539,337,-0.412109,-0.316528,-0.0055418,-0.00357134,-0.0134582,0.00893763,-0.0180508,-0.821936,0.0158751,0.0409273,1763,687,-0.412159,0.316536
546,337,-0.039917,-0.298767,-0.00409586,-0.00502087,-0.0122204,0.00767077,-0.0167875,-0.766484,0.0144443,0.0403672,1770,687,-0.0398716,0.298775
553,337,0.245605,-0.28656,-0.00314032,-0.00547659,-0.0110166,0.00676993,-0.0153868,-0.732579,0.0131107,0.0408989,1777,687,0.245576,0.28655
560,337,0.0460205,-0.220764,-0.00240268,-0.00544337,-0.0100249,0.0062165,-0.0140625,-0.710143,0.0119967,0.0396126,1784,687,0.0460689,0.220772
567,337,-0.306885,-0.0268555,-0.00171926,-0.0051057,-0.00872145,0.00547181,-0.0122968,-0.689519,0.0105079,0.0430528,1791,687,-0.306904,0.0268619
574,337,-0.232056,0.216064,-0.00112873,-0.0043273,-0.00754221,0.00498189,-0.0104379,-0.680924,0.0090865,0.0476301,1798,687,-0.232115,-0.216068
581,337,-0.107056,0.297424,-0.000933914,-0.00338974,-0.00656621,0.00451821,-0.00884186,-0.692963,0.00784693,0.0445627,1805,687,-0.107083,-0.297397
588,337,0.0189209,-0.0841675,-0.0012445,-0.00209809,-0.00556167,0.00390673,-0.00724932,-0.747104,0.00653661,0.0401717,1812,687,0.0189094,0.084146
595,337,-0.0158691,-0.118713,-0.0012616,-0.000931838,-0.00425803,0.0031645,-0.00535794,-0.80475,0.00497446,0.0277546,1819,687,-0.0159176,0.118727
602,337,-0.0012207,-0.0692139,-0.000858956,-0.000280861,-0.00313909,0.00258246,-0.00372228,-0.831309,0.00365982,0.0119734,1826,687,-0.00119935,0.0692285
609,337,-0.010498,-0.0457153,-0.000228379,7.26293e-05,-0.00225407,0.00218122,-0.00233697,-0.818734,0.00260909,0.0161057,1833,687,-0.0104801,0.0457118
616,337,-0.0412598,-0.0626831,9.22628e-06,0.000227697,-0.00172609,0.001848,-0.00161108,-0.816999,0.00199866,0.015864,1840,687,-0.0412536,0.0627033
623,337,-0.0402832,-0.0599976,0.000164985,0.000159086,-0.00118667,0.00134871,-0.00102464,-0.784155,0.0013745,0.0136314,1847,687,-0.0402943,0.0600212
630,337,-0.02771,-0.0704956,0.000418908,-6.21359e-05,-0.000677694,0.000897496,-0.000540724,-0.614876,0.00083883,0.0182182,1854,687,-0.0276967,0.0704733
637,337,0.00744629,-0.0964966,0.000351002,-0.000251342,-0.000361481,0.000520333,-0.000420673,-0.43808,0.000544305,0.0160282,1861,687,0.00740158,0.0965158
644,337,-0.0211182,-0.0861206,0.000107923,-0.000186513,-0.000294349,0.000289817,-0.000368407,-0.553515,0.000380927,0.0103326,1868,687,-0.0210817,0.0861162
651,337,-0.0192871,-0.0758667,7.0924e-05,0.00024345,-0.000521965,0.000686232,-0.000371858,-0.867291,0.000619811,0.00914477,1875,687,-0.0193332,0.0758733
658,337,-0.0301514,-0.0704956,0.000318808,0.00151343,-0.000915824,0.00200951,-0.000177277,-1.07436,0.00140251,0.0103938,1882,687,-0.030109,0.0705261
665,337,-0.0302734,-0.0726929,0.000762668,0.0034341,-0.00157864,0.00416629,3.04757e-05,-1.13652,0.00276743,0.0123775,1889,687,-0.030258,0.0727181
672,337,-0.0388184,-0.0602417,0.00136711,0.00542087,-0.00219426,0.00638113,0.000406846,-1.15828,0.00412517,0.011012,1896,687,-0.038763,0.0602458
679,337,-0.0314941,-0.00756836,0.0021773,0.00850774,-0.00300238,0.0097052,0.000979853,-1.1913,0.0061695,0.0275367,1903,687,-0.0314922,0.00757011
686,337,-0.0966797,0.352478,0.00342679,0.0126632,-0.00397487,0.0141383,0.00195177,-1.21546,0.00884697,0.0400215,1910,687,-0.09666,-0.35246
693,337,-0.186401,0.533936,0,0,0,0,0,0,0,-1,1917,687,-0.186421,-0.533955
700,337,-0.0408936,0.489014,0.00738942,0.0244363,-0.00638537,0.0265629,0.00526289,-1.24932,0.0162411,0.0410918,1924,687,-0.0408486,-0.488998
707,337,-0.138428,0.552002,0.0102626,0.0319022,-0.00772648,0.0343777,0.007787,-1.26073,0.0208142,0.0409642,1931,687,-0.138467,-0.552014
714,337,0,0,0,0,0,0,0,0,0,-1,1938,687,0,0
721,337,0,0,0,0,0,0,0,0,0,-1,1945,687,0,0
728,337,0,0,0,0,0,0,0,0,0,-1,1952,687,0,0
735,337,0,0,0,0,0,0,0,0,0,-1,1959,687,0,0
742,337,0,0,0,0,0,0,0,0,0,-1,1966,687,0,0
749,337,0,0,0,0,0,0,0,0,0,-1,1973,687,0,0
756,337,0,0,0,0,0,0,0,0,0,-1,1980,687,0,0
763,337,0,0,0,0,0,0,0,0,0,-1,1987,687,0,0
770,337,0,0,0,0,0,0,0,0,0,-1,1994,687,0,0
777,337,0,0,0,0,0,0,0,0,0,-1,2001,687,0,0
784,337,0,0,0,0,0,0,0,0,0,-1,2008,687,0,0
791,337,0,0,0,0,0,0,0,0,0,-1,2015,687,0,0
798,337,0,0,0,0,0,0,0,0,0,-1,2022,687,0,0
805,337,0,0,0,0,0,0,0,0,0,-1,2029,687,0,0
812,337,0,0,0,0,0,0,0,0,0,-1,2036,687,0,0
-700,330,0,0,0,0,0,0,0,0,0,-1,524,694,0,0
-693,330,0,0,0,0,0,0,0,0,0,-1,531,694,0,0
-686,330,0,0,0,0,0,0,0,0,0,-1,538,694,0,0
-679,330,0,0,0,0,0,0,0,0,0,-1,545,694,0,0
-672,330,0,0,0,0,0,0,0,0,0,-1,552,694,0,0
-665,330,0,0,0,0,0,0,0,0,0,-1,559,694,0,0
-658,330,0,0,0,0,0,0,0,0,0,-1,566,694,0,0
-651,330,0,0,0,0,0,0,0,0,0,-1,573,694,0,0
-644,330,0,0,0,0,0,0,0,0,0,-1,580,694,0,0
-637,330,0,0,0,0,0,0,0,0,0,-1,587,694,0,0
-630,330,0,0,0,0,0,0,0,0,0,-1,594,694,0,0
-623,330,0,0,0,0,0,0,0,0,0,-1,601,694,0,0
-616,330,0,0,0,0,0,0,0,0,0,-1,608,694,0,0
-609,330,0,0,0,0,0,0,0,0,0,-1,615,694,0,0
-602,330,0,0,0,0,0,0,0,0,0,-1,622,694,0,0
-595,330,-1.92877,-1.16205,0.0124645,-0.0237719,-0.0372925,0.0358071,-0.0471145,-0.55927,0.0480229,0.0438023,629,694,-1.92878,1.16206
-588,330,-0.673035,-0.829468,0.00966932,-0.0183713,-0.0251107,0.0244087,-0.0331106,-0.530787,0.0333352,0.0439528,636,694,-0.673061,0.829442
-581,330,-0.67157,-0.907593,0,0,0,0,0,0,0,-1,643,694,-0.671578,0.907622
-574,330,0.0725708,-0.0529175,0,0,0,0,0,0,0,-1,650,694,0.0725526,0.052947
-567,330,0.02948,-0.179382,0,0,0,0,0,0,0,-1,657,694,0.02945,0.179358
-560,330,-0.124634,-0.133789,0.00515467,-0.00214836,3.37802e-05,0.00515483,-0.00214851,0.00462538,0.00433403,0.0370701,664,694,-0.124658,0.133781
-553,330,-0.113098,-0.171204,0.00440243,-0.000160947,0.0018236,0.00504163,-0.000800149,0.337136,0.0036571,0.0307897,671,694,-0.113098,0.171219
-546,330,-0.0244141,-0.131958,0.00396972,0.00102542,0.00295193,0.00579622,-0.000801079,0.554092,0.00415698,0.0206667,678,694,-0.0244107,0.131966
-539,330,-0.0124512,-0.0726318,0.00283309,0.00235375,0.00405045,0.00665096,-0.00146412,0.755848,0.00499407,0.00948164,685,694,-0.0124426,0.0726468
-532,330,-0.0245361,-0.0773315,0.00169369,0.00250989,0.00349389,0.00561943,-0.00141585,0.843537,0.00429671,0.0087764,692,694,-0.0245383,0.0773055
-525,330,-0.0365601,-0.0950317,0.00156957,0.00259951,0.00295192,0.00508104,-0.000911961,0.871755,0.00372871,0.0101235,699,694,-0.0365622,0.0950493
-518,330,-0.0352783,-0.0834961,0.000915125,0.00220099,0.00191834,0.00358126,-0.000465152,0.947091,0.0025567,0.0136865,706,694,-0.0353056,0.0835258
-511,330,-0.0192871,-0.0769653,-0.000365233,0.00231373,0.00132118,0.00285567,-0.00090717,1.18154,0.00226749,0.0177023,713,694,-0.0192989,0.0769377
-504,330,-0.0145264,-0.0827637,-0.00169407,0.0023088,0.00120119,0.00264159,-0.00202686,1.30053,0.00270311,0.01588,720,694,-0.0145441,0.0827674
-497,330,-0.0348511,-0.0647583,-0.00274714,0.00216283,0.00123927,0.00245789,-0.00304219,1.33706,0.00318144,0.0115435,727,694,-0.0348706,0.0647822
-490,330,-0.0466309,-0.0847168,-0.00345866,0.00206516,0.00148132,0.00243733,-0.00383083,1.32465,0.00364861,0.0110885,734,694,-0.046604,0.0847246
-483,330,-0.0330811,-0.090271,-0.00367502,0.00178173,0.0017828,0.00231256,-0.00420585,1.28141,0.00381596,0.012122,741,694,-0.0330835,0.090277
-476,330,-0.0167236,-0.0891724,-0.00511116,0.00174909,0.00137378,0.00201397,-0.00537604,1.38033,0.00441135,0.0124768,748,694,-0.0167228,0.0891448
-469,330,0.00817871,-0.0838013,-0.00748712,0.00200888,0.00119593,0.00215718,-0.00763542,1.44742,0.00594134,0.0156856,755,694,0.00815293,0.0838195
-462,330,-0.0285034,-0.182068,-0.0107842,0.0022371,0.000915081,0.0023011,-0.0108482,1.50098,0.00810872,0.0314219,762,694,-0.0285073,0.182096
-455,330,0.0150757,-0.195984,-0.0153442,0.0026609,0.000486098,0.00267401,-0.0153573,1.54382,0.0112361,0.0389296,769,694,0.015082,0.195998
-448,330,0.216187,-0.0689087,-0.0214504,0.00381651,-0.000202701,0.00381813,-0.021452,-1.56277,0.0157293,0.045645,776,694,0.216181,0.0689042
-441,330,0.195618,0.457214,-0.0289085,0.00486398,-0.00129272,0.0049134,-0.0289579,-1.53259,0.0211343,0.0453202,783,694,0.195639,-0.457227
-434,330,0.0845337,0.641541,0,0,0,0,0,0,0,-1,790,694,0.0845179,-0.641553
-427,330,2.17181,-0.381165,-0.0513864,0.00902959,-0.00391783,0.00928259,-0.0516394,-1.50631,0.0379013,0.0454254,797,694,2.17181,0.381138
-420,330,0.42749,-0.470581,-0.0673643,0.0127387,-0.00502078,0.0130522,-0.0676778,-1.50844,0.0500399,0.0485414,804,694,0.427504,0.470586
-413,330,-0.445557,-0.555603,-0.0872426,0.0180616,-0.00565358,0.0183643,-0.0875453,-1.51731,0.0653508,0.0488998,811,694,-0.445573,0.555591
-406,330,-1.2962,-0.682556,-0.111489,0.025605,-0.00527187,0.0258074,-0.111692,-1.53242,0.0843893,0.0451247,818,694,-1.29617,0.682542
-399,330,0,0,0,0,0,0,0,0,0,-1,825,694,0,0
-392,330,0,0,0,0,0,0,0,0,0,-1,832,694,0,0
-385,330,0,0,0,0,0,0,0,0,0,-1,839,694,0,0
-378,330,0,0,0,0,0,0,0,0,0,-1,846,694,0,0
-371,330,0,0,0,0,0,0,0,0,0,-1,853,694,0,0
-364,330,0,0,0,0,0,0,0,0,0,-1,860,694,0,0
-357,330,0,0,0,0,0,0,0,0,0,-1,867,694,0,0
-350,330,0,0,0,0,0,0,0,0,0,-1,874,694,0,0
-343,330,0,0,0,0,0,0,0,0,0,-1,881,694,0,0
-336,330,0,0,0,0,0,0,0,0,0,-1,888,694,0,0
-329,330,0,0,0,0,0,0,0,0,0,-1,895,694,0,0
-322,330,0,0,0,0,0,0,0,0,0,-1,902,694,0,0
-315,330,0,0,0,0,0,0,0,0,0,-1,909,694,0,0
-308,330,0,0,0,0,0,0,0,0,0,-1,916,694,0,0
-301,330,0,0,0,0,0,0,0,0,0,-1,923,694,0,0
-294,330,0,0,0,0,0,0,0,0,0,-1,930,694,0,0
-287,330,0,0,0,0,0,0,0,0,0,-1,937,694,0,0
-280,330,0,0,0,0,0,0,0,0,0,-1,944,694,0,0
-273,330,0,0,0,0,0,0,0,0,0,-1,951,694,0,0
-266,330,0,0,0,0,0,0,0,0,0,-1,958,694,0,0
-259,330,0,0,0,0,0,0,0,0,0,-1,965,694,0,0
-252,330,0,0,0,0,0,0,0,0,0,-1,972,694,0,0
-245,330,0,0,0,0,0,0,0,0,0,-1,979,694,0,0
-238,330,0,0,0,0,0,0,0,0,0,-1,986,694,0,0
-231,330,0,0,0,0,0,0,0,0,0,-1,993,694,0,0
-224,330,0,0,0,0,0,0,0,0,0,-1,1000,694,0,0
-217,330,0,0,0,0,0,0,0,0,0,-1,1007,694,0,0
-210,330,0,0,0,0,0,0,0,0,0,-1,1014,694,0,0
-203,330,0,0,0,0,0,0,0,0,0,-1,1021,694,0,0
-196,330,0,0,0,0,0,0,0,0,0,-1,1028,694,0,0
-189,330,0,0,0,0,0,0,0,0,0,-1,1035,694,0,0
-182,330,0,0,0,0,0,0,0,0,0,-1,1042,694,0,0
-175,330,0,0,0,0,0,0,0,0,0,-1,1049,694,0,0
-168,330,0,0,0,0,0,0,0,0,0,-1,1056,694,0,0
-161,330,0,0,0,0,0,0,0,0,0,-1,1063,694,0,0
-154,330,0,0,0,0,0,0,0,0,0,-1,1070,694,0,0
-147,330,0,0,0,0,0,0,0,0,0,-1,1077,694,0,0
-140,330,0,0,0,0,0,0,0,0,0,-1,1084,694,0,0
-133,330,0,0,0,0,0,0,0,0,0,-1,1091,694,0,0
-126,330,0,0,0,0,0,0,0,0,0,-1,1098,694,0,0
-119,330,0,0,0,0,0,0,0,0,0,-1,1105,694,0,0
-112,330,0,0,0,0,0,0,0,0,0,-1,1112,694,0,0
-105,330,0,0,0,0,0,0,0,0,0,-1,1119,694,0,0
-98,330,0,0,0,0,0,0,0,0,0,-1,1126,694,0,0
-91,330,0,0,0,0,0,0,0,0,0,-1,1133,694,0,0
-84,330,0,0,0,0,0,0,0,0,0,-1,1140,694,0,0
-77,330,0,0,0,0,0,0,0,0,0,-1,1147,694,0,0
-70,330,0,0,0,0,0,0,0,0,0,-1,1154,694,0,0
-63,330,0,0,0,0,0,0,0,0,0,-1,1161,694,0,0
-56,330,0,0,0,0,0,0,0,0,0,-1,1168,694,0,0
-49,330,0,0,0,0,0,0,0,0,0,-1,1175,694,0,0
-42,330,0,0,0,0,0,0,0,0,0,-1,1182,694,0,0
-35,330,0,0,0,0,0,0,0,0,0,-1,1189,694,0,0
-28,330,0,0,0,0,0,0,0,0,0,-1,1196,694,0,0
-21,330,0,0,0,0,0,0,0,0,0,-1,1203,694,0,0
-14,330,0,0,0,0,0,0,0,0,0,-1,1210,694,0,0
-7,330,0,0,0,0,0,0,0,0,0,-1,1217,694,0,0
0,330,0,0,0,0,0,0,0,0,0,-1,1224,694,0,0
7,330,0,0,0,0,0,0,0,0,0,-1,1231,694,0,0
14,330,0,0,0,0,0,0,0,0,0,-1,1238,694,0,0
21,330,0,0,0,0,0,0,0,0,0,-1,1245,694,0,0
28,330,0,0,0,0,0,0,0,0,0,-1,1252,694,0,0
35,330,0,0,0,0,0,0,0,0,0,-1,1259,694,0,0
42,330,0,0,0,0,0,0,0,0,0,-1,1266,694,0,0
49,330,0,0,0,0,0,0,0,0,0,-1,1273,694,0,0
56,330,0,0,0,0,0,0,0,0,0,-1,1280,694,0,0
63,330,0,0,0,0,0,0,0,0,0,-1,1287,694,0,0
70,330,0,0,0,0,0,0,0,0,0,-1,1294,694,0,0
77,330,0,0,0,0,0,0,0,0,0,-1,1301,694,0,0
84,330,0,0,0,0,0,0,0,0,0,-1,1308,694,0,0
91,330,0,0,0,0,0,0,0,0,0,-1,1315,694,0,0
98,330,0,0,0,0,0,0,0,0,0,-1,1322,694,0,0
105,330,0,0,0,0,0,0,0,0,0,-1,1329,694,0,0
112,330,0,0,0,0,0,0,0,0,0,-1,1336,694,0,0
119,330,0,0,0,0,0,0,0,0,0,-1,1343,694,0,0
126,330,0,0,0,0,0,0,0,0,0,-1,1350,694,0,0
133,330,0,0,0,0,0,0,0,0,0,-1,1357,694,0,0
140,330,0,0,0,0,0,0,0,0,0,-1,1364,694,0,0
147,330,0,0,0,0,0,0,0,0,0,-1,1371,694,0,0
154,330,0,0,0,0,0,0,0,0,0,-1,1378,694,0,0
161,330,0,0,0,0,0,0,0,0,0,-1,1385,694,0,0
168,330,0,0,0,0,0,0,0,0,0,-1,1392,694,0,0
175,330,0,0,0,0,0,0,0,0,0,-1,1399,694,0,0
182,330,0,0,0,0,0,0,0,0,0,-1,1406,694,0,0
189,330,0,0,0,0,0,0,0,0,0,-1,1413,694,0,0
196,330,0,0,0,0,0,0,0,0,0,-1,1420,694,0,0
203,330,0,0,0,0,0,0,0,0,0,-1,1427,694,0,0
210,330,0,0,0,0,0,0,0,0,0,-1,1434,694,0,0
217,330,0,0,0,0,0,0,0,0,0,-1,1441,694,0,0
224,330,0,0,0,0,0,0,0,0,0,-1,1448,694,0,0
231,330,0,0,0,0,0,0,0,0,0,-1,1455,694,0,0
238,330,0,0,0,0,0,0,0,0,0,-1,1462,694,0,0
245,330,0,0,0,0,0,0,0,0,0,-1,1469,694,0,0
252,330,0,0,0,0,0,0,0,0,0,-1,1476,694,0,0
259,330,0,0,0,0,0,0,0,0,0,-1,1483,694,0,0
266,330,0,0,0,0,0,0,0,0,0,-1,1490,694,0,0
273,330,0,0,0,0,0,0,0,0,0,-1,1497,694,0,0
280,330,0,0,0,0,0,0,0,0,0,-1,1504,694,0,0
287,330,0,0,0,0,0,0,0,0,0,-1,1511,694,0,0
294,330,0,0,0,0,0,0,0,0,0,-1,1518,694,0,0
301,330,0,0,0,0,0,0,0,0,0,-1,1525,694,0,0
308,330,0,0,0,0,0,0,0,0,0,-1,1532,694,0,0
315,330,0,0,0,0,0,0,0,0,0,-1,1539,694,0,0
322,330,0,0,0,0,0,0,0,0,0,-1,1546,694,0,0
329,330,0,0,0,0,0,0,0,0,0,-1,1553,694,0,0
336,330,0,0,0,0,0,0,0,0,0,-1,1560,694,0,0
343,330,0,0,0,0,0,0,0,0,0,-1,1567,694,0,0
350,330,0,0,0,0,0,0,0,0,0,-1,1574,694,0,0
357,330,0,0,0,0,0,0,0,0,0,-1,1581,694,0,0
364,330,0,0,0,0,0,0,0,0,0,-1,1588,694,0,0
371,330,0,0,0,0,0,0,0,0,0,-1,1595,694,0,0
378,330,0,0,0,0,0,0,0,0,0,-1,1602,694,0,0
385,330,0,0,0,0,0,0,0,0,0,-1,1609,694,0,0
392,330,0,0,0,0,0,0,0,0,0,-1,1616,694,0,0
399,330,0,0,0,0,0,0,0,0,0,-1,1623,694,0,0
406,330,0,0,0,0,0,0,0,0,0,-1,1630,694,0,0
413,330,0,0,0,0,0,0,0,0,0,-1,1637,694,0,0
420,330,0,0,0,0,0,0,0,0,0,-1,1644,694,0,0
427,330,0,0,0,0,0,0,0,0,0,-1,1651,694,0,0
434,330,0,0,0,0,0,0,0,0,0,-1,1658,694,0,0
441,330,0,0,0,0,0,0,0,0,0,-1,1665,694,0,0
448,330,0,0,0,0,0,0,0,0,0,-1,1672,694,0,0
455,330,0,0,0,0,0,0,0,0,0,-1,1679,694,0,0
462,330,0,0,0,0,0,0,0,0,0,-1,1686,694,0,0
469,330,0,0,0,0,0,0,0,0,0,-1,1693,694,0,0
476,330,0,0,0,0,0,0,0,0,0,-1,1700,694,0,0
483,330,0,0,0,0,0,0,0,0,0,-1,1707,694,0,0
490,330,0,0,0,0,0,0,0,0,0,-1,1714,694,0,0
497,330,0,0,0,0,0,0,0,0,0,-1,1721,694,0,0
504,330,0,0,0,0,0,0,0,0,0,-1,1728,694,0,0
511,330,0,0,0,0,0,0,0,0,0,-1,1735,694,0,0
518,330,0,0,0,0,0,0,0,0,0,-1,1742,694,0,0
525,330,2.10303,-0.353088,0,0,0,0,0,0,0,-1,1749,694,2.10308,0.353062
532,330,-0.0528564,-0.157532,-0.00779999,0.000271441,-0.0189084,0.01557,-0.0230986,-0.890538,0.0224659,0.0442493,1756,694,-0.0528421,0.157504
539,330,0.348877,-0.228821,-0.00539571,-0.00417953,-0.0165929,0.0118164,-0.0213916,-0.803714,0.0194365,0.0428767,1763,694,0.348857,0.228835
546,330,0.642578,-0.0808716,-0.0040963,-0.00596724,-0.0155084,0.0105048,-0.0205683,-0.755275,0.018251,0.0408271,1770,694,0.642518,0.0808962
553,330,0.357056,0.0216675,-0.00332509,-0.00669391,-0.0144001,0.00948873,-0.0195077,-0.727176,0.017071,0.0390968,1777,694,0.35705,-0.0216977
560,330,0.0872803,0.150452,-0.00280298,-0.0067912,-0.0133444,0.00869547,-0.0182896,-0.71123,0.0159047,0.0404133,1784,694,0.0873409,-0.150433
567,330,-0.119629,0.235229,-0.00223627,-0.00645625,-0.0118673,0.00770713,-0.0163996,-0.697418,0.0142165,0.0428267,1791,694,-0.119642,-0.235226
574,330,0.026123,0.100952,-0.00165363,-0.00566494,-0.010496,0.00702659,-0.0143452,-0.690992,0.0125778,0.0447852,1798,694,0.0261712,-0.100952
581,330,-0.0836182,0.225525,-0.00142999,-0.00467594,-0.0092848,0.00637262,-0.0124785,-0.698873,0.0110724,0.0454353,1805,694,-0.083564,-0.225555
588,330,-0.182007,-0.205688,-0.00176292,-0.00329542,-0.00799291,0.00550038,-0.0105587,-0.737611,0.00942379,0.0447864,1812,694,-0.182041,0.20569
595,330,-0.0168457,-0.200134,-0.00174126,-0.00190387,-0.00634436,0.00452232,-0.00816745,-0.778991,0.00742651,0.0375936,1819,694,-0.0167963,0.200111
602,330,-0.0134277,-0.136108,-0.0012163,-0.00102933,-0.00492072,0.00379879,-0.00604442,-0.794896,0.00573207,0.0212688,1826,694,-0.0133734,0.13612
609,330,-0.0332031,-0.0823975,-0.000472944,-0.000419831,-0.00367379,0.0032275,-0.00412027,-0.789012,0.00425267,0.0133851,1833,694,-0.0332053,0.0823845
616,330,-0.0437012,-0.0712891,-0.000123273,-1.2385e-05,-0.00273484,0.00266757,-0.00280323,-0.795533,0.00315889,0.0110701,1840,694,-0.0437078,0.0712863
623,330,-0.0330811,-0.0605469,0.000127258,0.000248428,-0.00185631,0.00204514,-0.00166946,-0.801711,0.00214828,0.0118448,1847,694,-0.0331282,0.0605342
630,330,-0.0112305,-0.0774536,0.000457455,0.000254178,-0.00106285,0.00142351,-0.00071188,-0.737729,0.00125548,0.0126607,1854,694,-0.0112426,0.0774545
637,330,0.0183105,-0.0945435,0.000448029,0.000233282,-0.000535719,0.000887029,-0.000205718,-0.686494,0.000670528,0.0117592,1861,694,0.018335,0.0945461
644,330,-0.020874,-0.0905151,0.00016875,0.000480185,-0.00027805,0.000643152,5.78258e-06,-1.04065,0.000426854,0.00745887,1868,694,-0.0208512,0.0905019
651,330,-0.0366211,-0.0840454,9.20251e-05,0.000985481,-0.000346408,0.00110405,-2.65475e-05,-1.24101,0.000745043,0.00995842,1875,694,-0.036581,0.0840209
658,330,-0.0330811,-0.0802002,0.00024527,0.00221432,-0.000727928,0.0024542,5.3891e-06,-1.25246,0.00163434,0.0102927,1882,694,-0.0330453,0.0801709
665,330,-0.0407715,-0.0703735,0.000559412,0.00393254,-0.00145111,0.00447089,2.10661e-05,-1.21555,0.00297359,0.009716,1889,694,-0.0408261,0.0703714
672,330,-0.0550537,-0.0562744,0.00100847,0.00556762,-0.00212366,0.00640356,0.000172544,-1.1958,0.0042127,0.0110272,1896,694,-0.0550147,0.056275
679,330,-0.0650635,-0.0379028,0.00159058,0.00808228,-0.00295532,0.00922613,0.000446732,-1.20151,0.00600738,0.0232811,1903,694,-0.0650831,0.0379049
686,330,-0.130127,0.0988159,0.00249838,0.0112973,-0.003886,0.0127678,0.0010279,-1.20904,0.00819076,0.0406454,1910,694,-0.130175,-0.0988432
693,330,-0.183472,0.256226,0.00379715,0.0153358,-0.00497336,0.0171835,0.00194943,-1.21508,0.0108643,0.0455702,1917,694,-0.183493,-0.256227
700,330,-0.00817871,0.147156,0.00549379,0.0199567,-0.00616349,0.0222269,0.00322353,-1.21788,0.0138689,0.0435417,1924,694,-0.00820083,-0.14714
707,330,-0.133423,-0.0916748,0.00763894,0.0249695,-0.00737502,0.0276831,0.00492538,-1.21823,0.0170524,0.0389818,1931,694,-0.133392,0.0916574
714,330,-0.356079,-0.0574341,0.0102973,0.0299743,-0.00847194,0.0331192,0.00715238,-1.21534,0.0201236,0.0421077,1938,694,-0.356073,0.0574175
721,330,0,0,0,0,0,0,0,0,0,-1,1945,694,0,0
728,330,0,0,0,0,0,0,0,0,0,-1,1952,694,0,0
735,330,0,0,0,0,0,0,0,0,0,-1,1959,694,0,0
742,330,0,0,0,0,0,0,0,0,0,-1,1966,694,0,0
749,330,0,0,0,0,0,0,0,0,0,-1,1973,694,0,0
756,330,0,0,0,0,0,0,0,0,0,-1,1980,694,0,0
763,330,0,0,0,0,0,0,0,0,0,-1,1987,694,0,0
770,330,0,0,0,0,0,0,0,0,0,-1,1994,694,0,0
777,330,0,0,0,0,0,0,0,0,0,-1,2001,694,0,0
784,330,0,0,0,0,0,0,0,0,0,-1,2008,694,0,0
791,330,0,0,0,0,0,0,0,0,0,-1,2015,694,0,0
798,330,0,0,0,0,0,0,0,0,0,-1,2022,694,0,0
805,330,0,0,0,0,0,0,0,0,0,-1,2029,694,0,0
812,330,0,0,0,0,0,0,0,0,0,-1,2036,694,0,0
-700,323,0,0,0,0,0,0,0,0,0,-1,524,701,0,0
-693,323,0,0,0,0,0,0,0,0,0,-1,531,701,0,0
-686,323,0,0,0,0,0,0,0,0,0,-1,538,701,0,0
-679,323,0,0,0,0,0,0,0,0,0,-1,545,701,0,0
-672,323,0,0,0,0,0,0,0,0,0,-1,552,701,0,0
-665,323,0,0,0,0,0,0,0,0,0,-1,559,701,0,0
-658,323,0,0,0,0,0,0,0,0,0,-1,566,701,0,0
-651,323,0,0,0,0,0,0,0,0,0,-1,573,701,0,0
-644,323,0,0,0,0,0,0,0,0,0,-1,580,701,0,0
-637,323,0,0,0,0,0,0,0,0,0,-1,587,701,0,0
-630,323,0,0,0,0,0,0,0,0,0,-1,594,701,0,0
-623,323,0,0,0,0,0,0,0,0,0,-1,601,701,0,0
-616,323,0,0,0,0,0,0,0,0,0,-1,608,701,0,0
-609,323,0,0,0,0,0,0,0,0,0,-1,615,701,0,0
-602,323,1.33435,1.3623,0.00599185,-0.0254472,-0.0430111,0.036066,-0.0555214,-0.610201,0.0532742,0.0432316,622,701,1.33432,-1.36231
-595,323,0.903503,0.758911,0.00297128,-0.0215666,-0.032103,0.0250699,-0.0436653,-0.602875,0.0401655,0.0465566,629,701,0.903528,-0.758914
-588,323,0.603638,0.41864,0,0,0,0,0,0,0,-1,636,701,0.603653,-0.41867
-581,323,0.56781,0.243408,0.00152737,-0.0131768,-0.0150147,0.0108934,-0.0225428,-0.557728,0.019691,0.0465881,643,701,0.567828,-0.243391
-574,323,-0.174255,-0.0394287,0.00175856,-0.0094136,-0.00904446,0.00680294,-0.014458,-0.508759,0.0125374,0.0442089,650,701,-0.174228,0.0394349
-567,323,-0.146484,-0.123169,0.00210974,-0.00625312,-0.00466858,0.00419568,-0.00833907,-0.420194,0.00736755,0.0426428,657,701,-0.146463,0.123181
-560,323,-0.127625,-0.14093,0.00233419,-0.00389441,-0.00174343,0.00278898,-0.0043492,-0.255174,0.00415391,0.0375497,664,701,-0.127597,0.14095
-553,323,-0.0700073,-0.111389,0.00245988,-0.00199791,1.90804e-06,0.00245988,-0.00199792,0.000428022,0.00257831,0.021977,671,701,-0.0700087,0.111366
-546,323,-0.0118408,-0.0891724,0.00270777,-0.000726069,0.00128127,0.00313315,-0.00115145,0.320552,0.0025604,0.00950676,678,701,-0.0118554,0.0891526
-539,323,-0.0166016,-0.0844727,0.00210386,0.000759552,0.00257047,0.0040886,-0.00122519,0.657516,0.00321296,0.00977279,685,701,-0.0165799,0.0844724
-532,323,-0.0192871,-0.0895386,0.00129499,0.00114859,0.00231676,0.0035397,-0.00109612,0.769606,0.00279769,0.00922008,692,701,-0.0193157,0.089545
-525,323,-0.0296631,-0.0997314,0.00134991,0.00143228,0.00195871,0.00335024,-0.000568051,0.795909,0.00244494,0.00740929,699,701,-0.0296704,0.0997311
-518,323,-0.0304565,-0.0767212,0.00074624,0.00129867,0.0012914,0.00234306,-0.000298149,0.890755,0.00167032,0.00934269,706,701,-0.0304807,0.076728
-511,323,-0.0333252,-0.0734863,-0.000645528,0.001545,0.000923845,0.0018826,-0.000983125,1.22045,0.00168147,0.0128562,713,701,-0.0332972,0.0735009
-504,323,-0.0401001,-0.0663452,-0.00229434,0.0018052,0.00098509,0.00202962,-0.00251876,1.3468,0.00263107,0.0132185,720,701,-0.0401157,0.066332
-497,323,-0.0326538,-0.0665894,-0.00348204,0.00174952,0.00118882,0.00200699,-0.00373952,1.35751,0.00336764,0.0111115,727,701,-0.0326293,0.0665843
-490,323,-0.0471191,-0.0748291,-0.00438399,0.00170304,0.00155274,0.00207625,-0.0047572,1.33492,0.00404524,0.0124561,734,701,-0.0471269,0.0748188
-483,323,-0.0314331,-0.0834961,-0.00483359,0.00151155,0.00199041,0.00208423,-0.00540627,1.29064,0.00446417,0.0129432,741,701,-0.0314347,0.0835172
-476,323,0.0124512,-0.083252,-0.00655507,0.00145183,0.00175732,0.00182054,-0.00692378,1.36398,0.00532742,0.0138291,748,701,0.012421,0.0832436
-469,323,0.0287476,-0.0786743,-0.00920093,0.00164786,0.00173987,0.00192006,-0.00947313,1.41561,0.00704323,0.0307417,755,701,0.0287771,0.0786578
-462,323,0.0801392,-0.152283,-0.0127682,0.00178418,0.00157976,0.0019537,-0.0129377,1.4639,0.00934472,0.0422033,762,701,0.0801581,0.152307
-455,323,0.00695801,-0.335449,-0.017648,0.00208827,0.00121742,0.00216309,-0.0177228,1.50942,0.0125983,0.0441126,769,701,0.00694143,0.335424
-448,323,0.168823,-0.230835,-0.0242106,0.00316411,0.000548984,0.00317511,-0.0242216,1.55075,0.0173035,0.0460345,776,701,0.168806,0.230824
-441,323,0.0331421,0.0078125,-0.0323042,0.00416021,-0.000553334,0.0041686,-0.0323126,-1.55563,0.0230572,0.0441649,783,701,0.0331551,-0.00780549
-434,323,-0.243164,0.109802,0,0,0,0,0,0,0,-1,790,701,-0.243159,-0.109831
-427,323,2.4856,-0.115845,-0.0569627,0.00833055,-0.00338625,0.0085057,-0.0571379,-1.51912,0.0412207,0.0454248,797,701,2.48558,0.115865
-420,323,0.187195,-0.587708,-0.0746835,0.0121522,-0.00459079,0.0123943,-0.0749255,-1.51812,0.0545531,0.0466634,804,701,0.187213,0.587732
-413,323,-0.502075,-0.603882,-0.0969482,0.0176586,-0.00534786,0.0179076,-0.0971972,-1.52427,0.0715186,0.0485807,811,701,-0.502069,0.603901
-406,323,0,0,0,0,0,0,0,0,0,-1,818,701,0,0
-399,323,0,0,0,0,0,0,0,0,0,-1,825,701,0,0
-392,323,0,0,0,0,0,0,0,0,0,-1,832,701,0,0
-385,323,0,0,0,0,0,0,0,0,0,-1,839,701,0,0
-378,323,0,0,0,0,0,0,0,0,0,-1,846,701,0,0
-371,323,0,0,0,0,0,0,0,0,0,-1,853,701,0,0
-364,323,0,0,0,0,0,0,0,0,0,-1,860,701,0,0
-357,323,0,0,0,0,0,0,0,0,0,-1,867,701,0,0
-350,323,0,0,0,0,0,0,0,0,0,-1,874,701,0,0
-343,323,0,0,0,0,0,0,0,0,0,-1,881,701,0,0
-336,323,0,0,0,0,0,0,0,0,0,-1,888,701,0,0
-329,323,0,0,0,0,0,0,0,0,0,-1,895,701,0,0
-322,323,0,0,0,0,0,0,0,0,0,-1,902,701,0,0
-315,323,0,0,0,0,0,0,0,0,0,-1,909,701,0,0
-308,323,0,0,0,0,0,0,0,0,0,-1,916,701,0,0
-301,323,0,0,0,0,0,0,0,0,0,-1,923,701,0,0
-294,323,0,0,0,0,0,0,0,0,0,-1,930,701,0,0
-287,323,0,0,0,0,0,0,0,0,0,-1,937,701,0,0
-280,323,0,0,0,0,0,0,0,0,0,-1,944,701,0,0
-273,323,0,0,0,0,0,0,0,0,0,-1,951,701,0,0
-266,323,0,0,0,0,0,0,0,0,0,-1,958,701,0,0
-259,323,0,0,0,0,0,0,0,0,0,-1,965,701,0,0
-252,323,0,0,0,0,0,0,0,0,0,-1,972,701,0,0
-245,323,0,0,0,0,0,0,0,0,0,-1,979,701,0,0
-238,323,0,0,0,0,0,0,0,0,0,-1,986,701,0,0
-231,323,0,0,0,0,0,0,0,0,0,-1,993,701,0,0
-224,323,0,0,0,0,0,0,0,0,0,-1,1000,701,0,0
-217,323,0,0,0,0,0,0,0,0,0,-1,1007,701,0,0
-210,323,0,0,0,0,0,0,0,0,0,-1,1014,701,0,0
-203,323,0,0,0,0,0,0,0,0,0,-1,1021,701,0,0
-196,323,0,0,0,0,0,0,0,0,0,-1,1028,701,0,0
-189,323,0,0,0,0,0,0,0,0,0,-1,1035,701,0,0
-182,323,0,0,0,0,0,0,0,0,0,-1,1042,701,0,0
-175,323,0,0,0,0,0,0,0,0,0,-1,1049,701,0,0
-168,323,0,0,0,0,0,0,0,0,0,-1,1056,701,0,0
-161,323,0,0,0,0,0,0,0,0,0,-1,1063,701,0,0
-154,323,0,0,0,0,0,0,0,0,0,-1,1070,701,0,0
-147,323,0,0,0,0,0,0,0,0,0,-1,1077,701,0,0
-140,323,0,0,0,0,0,0,0,0,0,-1,1084,701,0,0
-133,323,0,0,0,0,0,0,0,0,0,-1,1091,701,0,0
-126,323,0,0,0,0,0,0,0,0,0,-1,1098,701,0,0
-119,323,0,0,0,0,0,0,0,0,0,-1,1105,701,0,0
-112,323,0,0,0,0,0,0,0,0,0,-1,1112,701,0,0
-105,323,0,0,0,0,0,0,0,0,0,-1,1119,701,0,0
-98,323,0,0,0,0,0,0,0,0,0,-1,1126,701,0,0
-91,323,0,0,0,0,0,0,0,0,0,-1,1133,701,0,0
-84,323,0,0,0,0,0,0,0,0,0,-1,1140,701,0,0
-77,323,0,0,0,0,0,0,0,0,0,-1,1147,701,0,0
-70,323,0,0,0,0,0,0,0,0,0,-1,1154,701,0,0
-63,323,0,0,0,0,0,0,0,0,0,-1,1161,701,0,0
-56,323,0,0,0,0,0,0,0,0,0,-1,1168,701,0,0
-49,323,0,0,0,0,0,0,0,0,0,-1,1175,701,0,0
-42,323,0,0,0,0,0,0,0,0,0,-1,1182,701,0,0
-35,323,0,0,0,0,0,0,0,0,0,-1,1189,701,0,0
-28,323,0,0,0,0,0,0,0,0,0,-1,1196,701,0,0
-21,323,0,0,0,0,0,0,0,0,0,-1,1203,701,0,0
-14,323,0,0,0,0,0,0,0,0,0,-1,1210,701,0,0
-7,323,0,0,0,0,0,0,0,0,0,-1,1217,701,0,0
0,323,0,0,0,0,0,0,0,0,0,-1,1224,701,0,0
7,323,0,0,0,0,0,0,0,0,0,-1,1231,701,0,0
14,323,0,0,0,0,0,0,0,0,0,-1,1238,701,0,0
21,323,0,0,0,0,0,0,0,0,0,-1,1245,701,0,0
28,323,0,0,0,0,0,0,0,0,0,-1,1252,701,0,0
35,323,0,0,0,0,0,0,0,0,0,-1,1259,701,0,0
42,323,0,0,0,0,0,0,0,0,0,-1,1266,701,0,0
49,323,0,0,0,0,0,0,0,0,0,-1,1273,701,0,0
56,323,0,0,0,0,0,0,0,0,0,-1,1280,701,0,0
63,323,0,0,0,0,0,0,0,0,0,-1,1287,701,0,0
70,323,0,0,0,0,0,0,0,0,0,-1,1294,701,0,0
77,323,0,0,0,0,0,0,0,0,0,-1,1301,701,0,0
84,323,0,0,0,0,0,0,0,0,0,-1,1308,701,0,0
91,323,0,0,0,0,0,0,0,0,0,-1,1315,701,0,0
98,323,0,0,0,0,0,0,0,0,0,-1,1322,701,0,0
105,323,0,0,0,0,0,0,0,0,0,-1,1329,701,0,0
112,323,0,0,0,0,0,0,0,0,0,-1,1336,701,0,0
119,323,0,0,0,0,0,0,0,0,0,-1,1343,701,0,0
126,323,0,0,0,0,0,0,0,0,0,-1,1350,701,0,0
133,323,0,0,0,0,0,0,0,0,0,-1,1357,701,0,0
140,323,0,0,0,0,0,0,0,0,0,-1,1364,701,0,0
147,323,0,0,0,0,0,0,0,0,0,-1,1371,701,0,0
154,323,0,0,0,0,0,0,0,0,0,-1,1378,701,0,0
161,323,0,0,0,0,0,0,0,0,0,-1,1385,701,0,0
168,323,0,0,0,0,0,0,0,0,0,-1,1392,701,0,0
175,323,0,0,0,0,0,0,0,0,0,-1,1399,701,0,0
182,323,0,0,0,0,0,0,0,0,0,-1,1406,701,0,0
189,323,0,0,0,0,0,0,0,0,0,-1,1413,701,0,0
196,323,0,0,0,0,0,0,0,0,0,-1,1420,701,0,0
203,323,0,0,0,0,0,0,0,0,0,-1,1427,701,0,0
210,323,0,0,0,0,0,0,0,0,0,-1,1434,701,0,0
217,323,0,0,0,0,0,0,0,0,0,-1,1441,701,0,0
224,323,0,0,0,0,0,0,0,0,0,-1,1448,701,0,0
231,323,0,0,0,0,0,0,0,0,0,-1,1455,701,0,0
238,323,0,0,0,0,0,0,0,0,0,-1,1462,701,0,0
245,323,0,0,0,0,0,0,0,0,0,-1,1469,701,0,0
252,323,0,0,0,0,0,0,0,0,0,-1,1476,701,0,0
259,323,0,0,0,0,0,0,0,0,0,-1,1483,701,0,0
266,323,0,0,0,0,0,0,0,0,0,-1,1490,701,0,0
273,323,0,0,0,0,0,0,0,0,0,-1,1497,701,0,0
280,323,0,0,0,0,0,0,0,0,0,-1,1504,701,0,0
287,323,0,0,0,0,0,0,0,0,0,-1,1511,701,0,0
294,323,0,0,0,0,0,0,0,0,0,-1,1518,701,0,0
301,323,0,0,0,0,0,0,0,0,0,-1,1525,701,0,0
308,323,0,0,0,0,0,0,0,0,0,-1,1532,701,0,0
315,323,0,0,0,0,0,0,0,0,0,-1,1539,701,0,0
322,323,0,0,0,0,0,0,0,0,0,-1,1546,701,0,0
329,323,0,0,0,0,0,0,0,0,0,-1,1553,701,0,0
336,323,0,0,0,0,0,0,0,0,0,-1,1560,701,0,0
343,323,0,0,0,0,0,0,0,0,0,-1,1567,701,0,0
350,323,0,0,0,0,0,0,0,0,0,-1,1574,701,0,0
357,323,0,0,0,0,0,0,0,0,0,-1,1581,701,0,0
364,323,0,0,0,0,0,0,0,0,0,-1,1588,701,0,0
371,323,0,0,0,0,0,0,0,0,0,-1,1595,701,0,0
378,323,0,0,0,0,0,0,0,0,0,-1,1602,701,0,0
385,323,0,0,0,0,0,0,0,0,0,-1,1609,701,0,0
392,323,0,0,0,0,0,0,0,0,0,-1,1616,701,0,0
399,323,0,0,0,0,0,0,0,0,0,-1,1623,701,0,0
406,323,0,0,0,0,0,0,0,0,0,-1,1630,701,0,0
413,323,0,0,0,0,0,0,0,0,0,-1,1637,701,0,0
420,323,0,0,0,0,0,0,0,0,0,-1,1644,701,0,0
427,323,0,0,0,0,0,0,0,0,0,-1,1651,701,0,0
434,323,0,0,0,0,0,0,0,0,0,-1,1658,701,0,0
441,323,0,0,0,0,0,0,0,0,0,-1,1665,701,0,0
448,323,0,0,0,0,0,0,0,0,0,-1,1672,701,0,0
455,323,0,0,0,0,0,0,0,0,0,-1,1679,701,0,0
462,323,0,0,0,0,0,0,0,0,0,-1,1686,701,0,0
469,323,0,0,0,0,0,0,0,0,0,-1,1693,701,0,0
476,323,0,0,0,0,0,0,0,0,0,-1,1700,701,0,0
483,323,0,0,0,0,0,0,0,0,0,-1,1707,701,0,0
490,323,0,0,0,0,0,0,0,0,0,-1,1714,701,0,0
497,323,0,0,0,0,0,0,0,0,0,-1,1721,701,0,0
504,323,0,0,0,0,0,0,0,0,0,-1,1728,701,0,0
511,323,0,0,0,0,0,0,0,0,0,-1,1735,701,0,0
518,323,0,0,0,0,0,0,0,0,0,-1,1742,701,0,0
525,323,0,0,0,0,0,0,0,0,0,-1,1749,701,0,0
532,323,0.64209,-0.236084,-0.00658335,0.000566344,-0.0220192,0.019299,-0.025316,-0.865872,0.0258365,0.0445983,1756,701,0.642048,0.236107
539,323,0.982422,0.129456,-0.00425275,-0.00416904,-0.0198436,0.0156328,-0.0240546,-0.786453,0.0230848,0.0417549,1763,701,0.982436,-0.129483
546,323,1.04871,0.122437,-0.00329968,-0.00617917,-0.01883,0.0141455,-0.0236244,-0.747242,0.0220342,0.0410491,1770,701,1.04874,-0.122428
553,323,0.414063,0.214783,-0.00277821,-0.0073366,-0.0176997,0.0127885,-0.0229033,-0.721366,0.0208807,0.0411162,1777,701,0.414026,-0.214769
560,323,0.122192,0.224182,-0.00245547,-0.00741064,-0.0164337,0.0116863,-0.0215525,-0.71058,0.0194702,0.0438887,1784,701,0.122136,-0.224208
567,323,0.348267,0.334778,-0.00201748,-0.00707893,-0.0147108,0.0103787,-0.0194751,-0.700216,0.0175008,0.044138,1791,701,0.34825,-0.334805
574,323,0.432373,0.326599,-0.0014722,-0.00627822,-0.0130845,0.00942813,-0.0171786,-0.694584,0.0155771,0.0450715,1798,701,0.432403,-0.326612
581,323,-0.0349121,0.148804,-0.00125771,-0.00523658,-0.0115737,0.00849634,-0.0149906,-0.700284,0.0137319,0.0460162,1805,701,-0.034886,-0.148794
588,323,-0.17981,-0.141174,-0.00164184,-0.00379295,-0.00996069,0.00730119,-0.012736,-0.731617,0.0117095,0.0466833,1812,701,-0.179844,0.141185
595,323,0.0129395,-0.275208,-0.00160696,-0.00222711,-0.00798102,0.00607001,-0.00990407,-0.765982,0.00931077,0.0413335,1819,701,0.0129123,0.275199
602,323,0.0285645,-0.259705,-0.000998641,-0.00120307,-0.00628984,0.00518982,-0.00739153,-0.777273,0.00730082,0.0298246,1826,701,0.0285601,0.259705
609,323,-0.0224609,-0.100586,-0.00023439,-0.000432066,-0.00472469,0.00439249,-0.00505895,-0.77494,0.00546131,0.0171691,1833,701,-0.0224376,0.100563
616,323,-0.0264893,-0.0689087,0.000120577,0.000107846,-0.0034408,0.00355502,-0.00332659,-0.784473,0.00397383,0.0116682,1840,701,-0.0264447,0.0689048
623,323,-0.0219727,-0.0702515,0.000353799,0.00056163,-0.00229863,0.0027587,-0.00184327,-0.807986,0.00267441,0.0121523,1847,701,-0.0220245,0.0702766
630,323,-0.0186768,-0.0652466,0.000630147,0.000635844,-0.00131944,0.00195244,-0.000686448,-0.786478,0.00158092,0.0130188,1854,701,-0.0186412,0.0652654
637,323,-0.00646973,-0.0786133,0.000571546,0.00065749,-0.000671633,0.00128752,-5.84881e-05,-0.817345,0.000878495,0.00958959,1861,701,-0.00649977,0.078594
644,323,-0.0020752,-0.0796509,0.000146801,0.000942242,-0.000295046,0.00103973,4.93104e-05,-1.25167,0.000677316,0.00661308,1868,701,-0.00208154,0.0796801
651,323,-0.0317383,-0.0735474,-9.235e-05,0.00131535,-0.000279966,0.00136899,-0.000145986,-1.38151,0.00096501,0.00810099,1875,701,-0.0317312,0.0735672
658,323,-0.0300293,-0.0761108,-0.000146255,0.00234276,-0.000681746,0.00251725,-0.000320753,-1.32022,0.00179467,0.00930741,1882,701,-0.0299977,0.0761049
665,323,-0.0300293,-0.0649414,-6.00254e-05,0.00365024,-0.00146721,0.00416031,-0.000570102,-1.23622,0.0029818,0.00877236,1889,701,-0.0300082,0.0649483
672,323,-0.0454102,-0.0460815,0.000151317,0.00479771,-0.00222674,0.00569252,-0.000743497,-1.1887,0.00406557,0.00872316,1896,701,-0.045374,0.0460612
679,323,-0.0489502,-0.0593262,0.000426822,0.00661299,-0.00312127,0.00791417,-0.000874349,-1.17583,0.0055904,0.0167076,1903,701,-0.0488943,0.0593019
686,323,-0.0406494,-0.111084,0.00093471,0.00883598,-0.00410392,0.0105818,-0.000811119,-1.16858,0.00733987,0.038811,1910,701,-0.0406854,0.111112
693,323,-0.153931,-0.175415,0.00173067,0.0115127,-0.00530903,0.0138403,-0.000596888,-1.15762,0.0094321,0.0480621,1917,701,-0.153895,0.1754
700,323,-0.430176,-0.463928,0.00284333,0.0144124,-0.00659112,0.0173974,-0.000141606,-1.14556,0.0116457,0.0444964,1924,701,-0.430121,0.463929
707,323,-0.426025,-1.01074,0.00423024,0.0172615,-0.00794768,0.021023,0.000468769,-1.12875,0.0138617,0.041687,1931,701,-0.426084,1.01073
714,323,0.013916,-1.21332,0.00588885,0.0196613,-0.00929185,0.0243405,0.00120968,-1.10429,0.0158392,0.0425291,1938,701,0.0139058,1.21333
721,323,0,0,0,0,0,0,0,0,0,-1,1945,701,0,0
728,323,0,0,0,0,0,0,0,0,0,-1,1952,701,0,0
735,323,0,0,0,0,0,0,0,0,0,-1,1959,701,0,0
742,323,0,0,0,0,0,0,0,0,0,-1,1966,701,0,0
749,323,0,0,0,0,0,0,0,0,0,-1,1973,701,0,0
756,323,0,0,0,0,0,0,0,0,0,-1,1980,701,0,0
763,323,0,0,0,0,0,0,0,0,0,-1,1987,701,0,0
770,323,0,0,0,0,0,0,0,0,0,-1,1994,701,0,0
777,323,0,0,0,0,0,0,0,0,0,-1,2001,701,0,0
784,323,0,0,0,0,0,0,0,0,0,-1,2008,701,0,0
791,323,0,0,0,0,0,0,0,0,0,-1,2015,701,0,0
798,323,0,0,0,0,0,0,0,0,0,-1,2022,701,0,0
805,323,0,0,0,0,0,0,0,0,0,-1,2029,701,0,0
812,323,0,0,0,0,0,0,0,0,0,-1,2036,701,0,0
-700,316,0,0,0,0,0,0,0,0,0,-1,524,708,0,0
-693,316,0,0,0,0,0,0,0,0,0,-1,531,708,0,0
-686,316,0,0,0,0,0,0,0,0,0,-1,538,708,0,0
-679,316,0,0,0,0,0,0,0,0,0,-1,545,708,0,0
-672,316,0,0,0,0,0,0,0,0,0,-1,552,708,0,0
-665,316,0,0,0,0,0,0,0,0,0,-1,559,708,0,0
-658,316,0,0,0,0,0,0,0,0,0,-1,566,708,0,0
-651,316,0,0,0,0,0,0,0,0,0,-1,573,708,0,0
-644,316,0,0,0,0,0,0,0,0,0,-1,580,708,0,0
-637,316,0,0,0,0,0,0,0,0,0,-1,587,708,0,0
-630,316,0,0,0,0,0,0,0,0,0,-1,594,708,0,0
-623,316,0,0,0,0,0,0,0,0,0,-1,601,708,0,0
-616,316,0,0,0,0,0,0,0,0,0,-1,608,708,0,0
-609,316,0,0,0,0,0,0,0,0,0,-1,615,708,0,0
-602,316,1.61206,1.30951,-0.00194453,-0.0219038,-0.0312141,0.0208464,-0.0446948,-0.630676,0.0386662,0.046183,622,708,1.61206,-1.30952
-595,316,1.2453,0.813477,-0.00360714,-0.0185617,-0.0245554,0.0145842,-0.036753,-0.637605,0.0305469,0.0485698,629,708,1.24529,-0.813446
-588,316,0.972839,0.380493,-0.0039601,-0.0150918,-0.018453,0.0097482,-0.0288001,-0.638926,0.0231442,0.0461452,636,708,0.972866,-0.380504
-581,316,0.826965,0.198669,-0.00351476,-0.0117095,-0.0131477,0.00615923,-0.0213835,-0.634347,0.0166919,0.0471235,643,708,0.826936,-0.198655
-574,316,-0.135681,-0.281677,-0.00266547,-0.00863819,-0.00886981,0.00370722,-0.0150109,-0.623015,0.0114449,0.0457612,650,708,-0.13568,0.281678
-567,316,-0.175537,-0.135742,-0.00165035,-0.00604851,-0.00544565,0.00202348,-0.00972234,-0.5935,0.00725079,0.0455013,657,708,-0.175539,0.135751
-560,316,-0.0886841,-0.102905,-0.000772015,-0.004119,-0.00297298,0.000966117,-0.00585713,-0.529051,0.00426344,0.0398825,664,708,-0.0886729,0.102907
-553,316,-0.0233765,-0.0662231,-2.12062e-05,-0.00248876,-0.00141558,0.000622801,-0.00313277,-0.426956,0.0023241,0.0240333,671,708,-0.0233934,0.066217
-546,316,-0.00549316,-0.0627441,0.000752831,-0.0013284,-9.49502e-05,0.000757154,-0.00133272,-0.0454961,0.00122175,0.014315,678,708,-0.00546948,0.0627192
-539,316,-0.0162964,-0.0889282,0.000604551,5.10244e-05,0.00125664,0.00161455,-0.000958973,0.677009,0.00150181,0.0116622,685,708,-0.016282,0.0889011
-532,316,-0.0321655,-0.0895996,0.000141357,0.000508494,0.00126328,0.00160147,-0.000951618,0.857549,0.00148986,0.00943976,692,708,-0.0321416,0.0896185
-525,316,-0.0336304,-0.0665283,0.000356763,0.000816414,0.00103872,0.00165043,-0.000477257,0.894273,0.00128917,0.00834927,699,708,-0.0336204,0.0665445
-518,316,-0.0250244,-0.0632324,-0.000182096,0.000743736,0.000716725,0.00113404,-0.000572401,1.07213,0.00100284,0.00884745,706,708,-0.025039,0.0632538
-511,316,-0.027832,-0.0704346,-0.00163576,0.000918224,0.000573207,0.00104097,-0.00175851,1.35984,0.00163388,0.0102459,713,708,-0.0278061,0.0704556
-504,316,-0.0320435,-0.0774536,-0.00348646,0.00122318,0.000810935,0.0013589,-0.00362218,1.40497,0.00297314,0.0125769,720,708,-0.0320616,0.0774668
-497,316,-0.0302124,-0.0703125,-0.00482953,0.00111472,0.00116414,0.00133458,-0.00504939,1.38414,0.00388823,0.0116998,727,708,-0.030197,0.0703226
-490,316,-0.0438232,-0.071106,-0.00591285,0.000942662,0.00163419,0.00131228,-0.00628248,1.34836,0.00468738,0.0127109,734,708,-0.0438145,0.0710941
-483,316,-0.0209961,-0.0705566,-0.00662349,0.000725207,0.00218564,0.00132612,-0.0072244,1.30249,0.00531376,0.013677,741,708,-0.0209893,0.0705737
-476,316,-0.00891113,-0.103271,-0.00860389,0.000517436,0.00214336,0.000995985,-0.00908244,1.35113,0.00641279,0.0244346,748,708,-0.0089075,0.103257
-469,316,-0.0587769,-0.143372,-0.0114394,0.000530318,0.00229197,0.000954177,-0.0118633,1.38793,0.00824533,0.0428929,755,708,-0.0587744,0.143343
-462,316,-0.0664673,-0.158508,-0.0151195,0.000492401,0.00226551,0.000814513,-0.0154416,1.42956,0.0105764,0.0477196,762,708,-0.0664666,0.158484
-455,316,-0.00256348,-0.284851,0,0,0,0,0,0,0,-1,769,708,-0.00253389,0.284861
-448,316,0.0575562,-0.212036,-0.0266806,0.00145686,0.00134153,0.00152067,-0.0267444,1.52326,0.0183575,0.0462711,776,708,0.0575429,0.212062
-441,316,0.116577,-0.211426,-0.0349384,0.00232536,0.000224911,0.00232671,-0.0349398,1.56476,0.0241062,0.0474378,783,708,0.116598,0.211419
-434,316,0.192932,-0.186707,0,0,0,0,0,0,0,-1,790,708,0.19294,0.18669
-427,316,0.239868,0.449158,0,0,0,0,0,0,0,-1,797,708,0.239874,-0.449164
-420,316,0.038208,-0.755676,0,0,0,0,0,0,0,-1,804,708,0.0382203,0.755668
-413,316,0,0,0,0,0,0,0,0,0,-1,811,708,0,0
-406,316,0,0,0,0,0,0,0,0,0,-1,818,708,0,0
-399,316,0,0,0,0,0,0,0,0,0,-1,825,708,0,0
-392,316,0,0,0,0,0,0,0,0,0,-1,832,708,0,0
-385,316,0,0,0,0,0,0,0,0,0,-1,839,708,0,0
-378,316,0,0,0,0,0,0,0,0,0,-1,846,708,0,0
-371,316,0,0,0,0,0,0,0,0,0,-1,853,708,0,0
-364,316,0,0,0,0,0,0,0,0,0,-1,860,708,0,0
-357,316,0,0,0,0,0,0,0,0,0,-1,867,708,0,0
-350,316,0,0,0,0,0,0,0,0,0,-1,874,708,0,0
-343,316,0,0,0,0,0,0,0,0,0,-1,881,708,0,0
-336,316,0,0,0,0,0,0,0,0,0,-1,888,708,0,0
-329,316,0,0,0,0,0,0,0,0,0,-1,895,708,0,0
-322,316,0,0,0,0,0,0,0,0,0,-1,902,708,0,0
-315,316,0,0,0,0,0,0,0,0,0,-1,909,708,0,0
-308,316,0,0,0,0,0,0,0,0,0,-1,916,708,0,0
-301,316,0,0,0,0,0,0,0,0,0,-1,923,708,0,0
-294,316,0,0,0,0,0,0,0,0,0,-1,930,708,0,0
-287,316,0,0,0,0,0,0,0,0,0,-1,937,708,0,0
-280,316,0,0,0,0,0,0,0,0,0,-1,944,708,0,0
-273,316,0,0,0,0,0,0,0,0,0,-1,951,708,0,0
-266,316,0,0,0,0,0,0,0,0,0,-1,958,708,0,0
-259,316,0,0,0,0,0,0,0,0,0,-1,965,708,0,0
-252,316,0,0,0,0,0,0,0,0,0,-1,972,708,0,0
-245,316,0,0,0,0,0,0,0,0,0,-1,979,708,0,0
-238,316,0,0,0,0,0,0,0,0,0,-1,986,708,0,0
-231,316,0,0,0,0,0,0,0,0,0,-1,993,708,0,0
-224,316,0,0,0,0,0,0,0,0,0,-1,1000,708,0,0
-217,316,0,0,0,0,0,0,0,0,0,-1,1007,708,0,0
-210,316,0,0,0,0,0,0,0,0,0,-1,1014,708,0,0
-203,316,0,0,0,0,0,0,0,0,0,-1,1021,708,0,0
-196,316,0,0,0,0,0,0,0,0,0,-1,1028,708,0,0
-189,316,0,0,0,0,0,0,0,0,0,-1,1035,708,0,0
-182,316,0,0,0,0,0,0,0,0,0,-1,1042,708,0,0
-175,316,0,0,0,0,0,0,0,0,0,-1,1049,708,0,0
-168,316,0,0,0,0,0,0,0,0,0,-1,1056,708,0,0
-161,316,0,0,0,0,0,0,0,0,0,-1,1063,708,0,0
-154,316,0,0,0,0,0,0,0,0,0,-1,1070,708,0,0
-147,316,0,0,0,0,0,0,0,0,0,-1,1077,708,0,0
-140,316,0,0,0,0,0,0,0,0,0,-1,1084,708,0,0
-133,316,0,0,0,0,0,0,0,0,0,-1,1091,708,0,0
-126,316,0,0,0,0,0,0,0,0,0,-1,1098,708,0,0
-119,316,0,0,0,0,0,0,0,0,0,-1,1105,708,0,0
-112,316,0,0,0,0,0,0,0,0,0,-1,1112,708,0,0
-105,316,0,0,0,0,0,0,0,0,0,-1,1119,708,0,0
-98,316,0,0,0,0,0,0,0,0,0,-1,1126,708,0,0
-91,316,0,0,0,0,0,0,0,0,0,-1,1133,708,0,0
-84,316,0,0,0,0,0,0,0,0,0,-1,1140,708,0,0
-77,316,0,0,0,0,0,0,0,0,0,-1,1147,708,0,0
-70,316,0,0,0,0,0,0,0,0,0,-1,1154,708,0,0
-63,316,0,0,0,0,0,0,0,0,0,-1,1161,708,0,0
-56,316,0,0,0,0,0,0,0,0,0,-1,1168,708,0,0
-49,316,0,0,0,0,0,0,0,0,0,-1,1175,708,0,0
-42,316,0,0,0,0,0,0,0,0,0,-1,1182,708,0,0
-35,316,0,0,0,0,0,0,0,0,0,-1,1189,708,0,0
-28,316,0,0,0,0,0,0,0,0,0,-1,1196,708,0,0
-21,316,0,0,0,0,0,0,0,0,0,-1,1203,708,0,0
-14,316,0,0,0,0,0,0,0,0,0,-1,1210,708,0,0
-7,316,0,0,0,0,0,0,0,0,0,-1,1217,708,0,0
0,316,0,0,0,0,0,0,0,0,0,-1,1224,708,0,0
7,316,0,0,0,0,0,0,0,0,0,-1,1231,708,0,0
14,316,0,0,0,0,0,0,0,0,0,-1,1238,708,0,0
21,316,0,0,0,0,0,0,0,0,0,-1,1245,708,0,0
28,316,0,0,0,0,0,0,0,0,0,-1,1252,708,0,0
35,316,0,0,0,0,0,0,0,0,0,-1,1259,708,0,0
42,316,0,0,0,0,0,0,0,0,0,-1,1266,708,0,0
49,316,0,0,0,0,0,0,0,0,0,-1,1273,708,0,0
56,316,0,0,0,0,0,0,0,0,0,-1,1280,708,0,0
63,316,0,0,0,0,0,0,0,0,0,-1,1287,708,0,0
70,316,0,0,0,0,0,0,0,0,0,-1,1294,708,0,0
77,316,0,0,0,0,0,0,0,0,0,-1,1301,708,0,0
84,316,0,0,0,0,0,0,0,0,0,-1,1308,708,0,0
91,316,0,0,0,0,0,0,0,0,0,-1,1315,708,0,0
98,316,0,0,0,0,0,0,0,0,0,-1,1322,708,0,0
105,316,0,0,0,0,0,0,0,0,0,-1,1329,708,0,0
112,316,0,0,0,0,0,0,0,0,0,-1,1336,708,0,0
119,316,0,0,0,0,0,0,0,0,0,-1,1343,708,0,0
126,316,0,0,0,0,0,0,0,0,0,-1,1350,708,0,0
133,316,0,0,0,0,0,0,0,0,0,-1,1357,708,0,0
140,316,0,0,0,0,0,0,0,0,0,-1,1364,708,0,0
147,316,0,0,0,0,0,0,0,0,0,-1,1371,708,0,0
154,316,0,0,0,0,0,0,0,0,0,-1,1378,708,0,0
161,316,0,0,0,0,0,0,0,0,0,-1,1385,708,0,0
168,316,0,0,0,0,0,0,0,0,0,-1,1392,708,0,0
175,316,0,0,0,0,0,0,0,0,0,-1,1399,708,0,0
182,316,0,0,0,0,0,0,0,0,0,-1,1406,708,0,0
189,316,0,0,0,0,0,0,0,0,0,-1,1413,708,0,0
196,316,0,0,0,0,0,0,0,0,0,-1,1420,708,0,0
203,316,0,0,0,0,0,0,0,0,0,-1,1427,708,0,0
210,316,0,0,0,0,0,0,0,0,0,-1,1434,708,0,0
217,316,0,0,0,0,0,0,0,0,0,-1,1441,708,0,0
224,316,0,0,0,0,0,0,0,0,0,-1,1448,708,0,0
231,316,0,0,0,0,0,0,0,0,0,-1,1455,708,0,0
238,316,0,0,0,0,0,0,0,0,0,-1,1462,708,0,0
245,316,0,0,0,0,0,0,0,0,0,-1,1469,708,0,0
252,316,0,0,0,0,0,0,0,0,0,-1,1476,708,0,0
259,316,0,0,0,0,0,0,0,0,0,-1,1483,708,0,0
266,316,0,0,0,0,0,0,0,0,0,-1,1490,708,0,0
273,316,0,0,0,0,0,0,0,0,0,-1,1497,708,0,0
280,316,0,0,0,0,0,0,0,0,0,-1,1504,708,0,0
287,316,0,0,0,0,0,0,0,0,0,-1,1511,708,0,0
294,316,0,0,0,0,0,0,0,0,0,-1,1518,708,0,0
301,316,0,0,0,0,0,0,0,0,0,-1,1525,708,0,0
308,316,0,0,0,0,0,0,0,0,0,-1,1532,708,0,0
315,316,0,0,0,0,0,0,0,0,0,-1,1539,708,0,0
322,316,0,0,0,0,0,0,0,0,0,-1,1546,708,0,0
329,316,0,0,0,0,0,0,0,0,0,-1,1553,708,0,0
336,316,0,0,0,0,0,0,0,0,0,-1,1560,708,0,0
343,316,0,0,0,0,0,0,0,0,0,-1,1567,708,0,0
350,316,0,0,0,0,0,0,0,0,0,-1,1574,708,0,0
357,316,0,0,0,0,0,0,0,0,0,-1,1581,708,0,0
364,316,0,0,0,0,0,0,0,0,0,-1,1588,708,0,0
371,316,0,0,0,0,0,0,0,0,0,-1,1595,708,0,0
378,316,0,0,0,0,0,0,0,0,0,-1,1602,708,0,0
385,316,0,0,0,0,0,0,0,0,0,-1,1609,708,0,0
392,316,0,0,0,0,0,0,0,0,0,-1,1616,708,0,0
399,316,0,0,0,0,0,0,0,0,0,-1,1623,708,0,0
406,316,0,0,0,0,0,0,0,0,0,-1,1630,708,0,0
413,316,0,0,0,0,0,0,0,0,0,-1,1637,708,0,0
420,316,0,0,0,0,0,0,0,0,0,-1,1644,708,0,0
427,316,0,0,0,0,0,0,0,0,0,-1,1651,708,0,0
434,316,0,0,0,0,0,0,0,0,0,-1,1658,708,0,0
441,316,0,0,0,0,0,0,0,0,0,-1,1665,708,0,0
448,316,0,0,0,0,0,0,0,0,0,-1,1672,708,0,0
455,316,0,0,0,0,0,0,0,0,0,-1,1679,708,0,0
462,316,0,0,0,0,0,0,0,0,0,-1,1686,708,0,0
469,316,0,0,0,0,0,0,0,0,0,-1,1693,708,0,0
476,316,0,0,0,0,0,0,0,0,0,-1,1700,708,0,0
483,316,0,0,0,0,0,0,0,0,0,-1,1707,708,0,0
490,316,0,0,0,0,0,0,0,0,0,-1,1714,708,0,0
497,316,0,0,0,0,0,0,0,0,0,-1,1721,708,0,0
504,316,0,0,0,0,0,0,0,0,0,-1,1728,708,0,0
511,316,0,0,0,0,0,0,0,0,0,-1,1735,708,0,0
518,316,0,0,0,0,0,0,0,0,0,-1,1742,708,0,0
525,316,0,0,0,0,0,0,0,0,0,-1,1749,708,0,0
532,316,1.40125,-0.354004,0,0,0,0,0,0,0,-1,1756,708,1.40128,0.35403
539,316,1.01587,-0.0977173,0,0,0,0,0,0,0,-1,1763,708,1.01591,0.0976889
546,316,1.16809,0.17865,-0.00135222,-0.00584381,-0.0199724,0.0165003,-0.0236963,-0.729411,0.0233311,0.041872,1770,708,1.16814,-0.178642
553,316,0.589722,0.18335,-0.000905419,-0.00731062,-0.018921,0.0150821,-0.0232982,-0.701562,0.0223275,0.04396,1777,708,0.589743,-0.183377
560,316,0.462158,0.193176,0,0,0,0,0,0,0,-1,1784,708,0.462109,-0.193153
567,316,2.21423,0.863953,0,0,0,0,0,0,0,-1,1791,708,2.21422,-0.863982
574,316,0.506226,0.365723,-0.000225777,-0.00577324,-0.0143392,0.0116055,-0.0176046,-0.68986,0.0169826,0.0480989,1798,708,0.50621,-0.365704
581,316,-0.0720215,0.337891,-0.00017461,-0.00461585,-0.0127866,0.0105828,-0.0153732,-0.699422,0.0150706,0.0457825,1805,708,-0.0720378,-0.33792
588,316,-0.0792236,-0.0458984,0,0,0,0,0,0,0,-1,1812,708,-0.0792,0.0458717
595,316,0.172119,-0.409912,-0.000777231,-0.00136483,-0.00901597,0.00794973,-0.0100918,-0.769111,0.0104407,0.0421396,1819,708,0.172131,0.40992
602,316,0.0505371,-0.414001,-0.000235617,-0.00022755,-0.00722532,0.00699373,-0.0074569,-0.785677,0.00834451,0.0402048,1826,708,0.0505875,0.413985
609,316,0.0101318,-0.22522,0.000374314,0.000632938,-0.0054725,0.00597765,-0.0049704,-0.797211,0.00632977,0.0283412,1833,708,0.0100943,0.225192
616,316,-0.0151367,-0.0792847,0.000599984,0.00118476,-0.00394761,0.0048508,-0.00306605,-0.822364,0.00460935,0.0118577,1840,708,-0.0151751,0.0792791
623,316,-0.0175781,-0.0880737,0.000758541,0.00165392,-0.0025904,0.00383503,-0.00142257,-0.870966,0.00314019,0.0101673,1847,708,-0.0175518,0.0880798
630,316,-0.0206299,-0.0852051,0.000963862,0.00160665,-0.00145183,0.00277223,-0.000201717,-0.894328,0.00191893,0.0117379,1854,708,-0.0206881,0.08521
637,316,-0.00488281,-0.0612793,0.000856239,0.00143035,-0.00066821,0.00187055,0.000416036,-0.988274,0.00113409,0.0106494,1861,708,-0.00490289,0.0612637
644,316,0.00109863,-0.0639038,0.000356967,0.00152159,-0.000135605,0.00153717,0.000341386,-1.4564,0.000932062,0.0101251,1868,708,0.00113116,0.0638963
651,316,-0.0274658,-0.0674438,5.47992e-05,0.00157725,3.81888e-05,0.0015782,5.38419e-05,1.54573,0.00103465,0.0107742,1875,708,-0.0274568,0.0674216
658,316,-0.027832,-0.0856934,-0.000137363,0.00217518,-0.000309832,0.00221598,-0.000178154,-1.43989,0.00154014,0.0144061,1882,708,-0.0278088,0.0857076
665,316,-0.00585938,-0.0706177,-0.000152239,0.00288893,-0.00106201,0.00322308,-0.000486391,-1.26596,0.00232785,0.012261,1889,708,-0.00582305,0.070588
672,316,-0.0302734,-0.0354614,-4.64222e-06,0.00338782,-0.00181193,0.00417358,-0.000790401,-1.16161,0.00307985,0.0110773,1896,708,-0.0302859,0.035479
679,316,-0.0388184,-0.0509644,0.000160618,0.00448063,-0.00273279,0.00580398,-0.00116273,-1.11983,0.0043095,0.0161095,1903,708,-0.0388372,0.0509856
686,316,-0.00622559,-0.129395,0.000453223,0.00575813,-0.00369642,0.00765529,-0.00144394,-1.09661,0.00564672,0.0279324,1910,708,-0.00617244,0.129387
693,316,-0.175537,-0.426636,0.000957964,0.00726358,-0.00491947,0.00995383,-0.00173229,-1.07037,0.00728232,0.0432106,1917,708,-0.175508,0.426649
700,316,-0.340942,-0.604187,0.00169211,0.00874299,-0.00623852,0.0123833,-0.0019482,-1.04258,0.00897568,0.0439569,1924,708,-0.340888,0.604194
707,316,-0.131348,-0.761597,0.00256841,0.00990106,-0.00769081,0.0147547,-0.00228527,-1.00782,0.0106801,0.0431016,1931,708,-0.131309,0.761613
714,316,0.13269,-0.911865,0.00353513,0.0103535,-0.00921857,0.0167731,-0.00288443,-0.962509,0.0122572,0.0414668,1938,708,0.132702,0.911893
721,316,0.333374,-1.18701,0.00442158,0.00954,-0.0107684,0.0180491,-0.00408752,-0.902064,0.0136015,0.0416804,1945,708,0.333406,1.18699
728,316,0,0,0,0,0,0,0,0,0,-1,1952,708,0,0
735,316,0,0,0,0,0,0,0,0,0,-1,1959,708,0,0
742,316,0,0,0,0,0,0,0,0,0,-1,1966,708,0,0
749,316,0,0,0,0,0,0,0,0,0,-1,1973,708,0,0
756,316,0,0,0,0,0,0,0,0,0,-1,1980,708,0,0
763,316,0,0,0,0,0,0,0,0,0,-1,1987,708,0,0
770,316,0,0,0,0,0,0,0,0,0,-1,1994,708,0,0
777,316,0,0,0,0,0,0,0,0,0,-1,2001,708,0,0
784,316,0,0,0,0,0,0,0,0,0,-1,2008,708,0,0
791,316,0,0,0,0,0,0,0,0,0,-1,2015,708,0,0
798,316,0,0,0,0,0,0,0,0,0,-1,2022,708,0,0
805,316,0,0,0,0,0,0,0,0,0,-1,2029,708,0,0
812,316,0,0,0,0,0,0,0,0,0,-1,2036,708,0,0
-700,309,0,0,0,0,0,0,0,0,0,-1,524,715,0,0
-693,309,0,0,0,0,0,0,0,0,0,-1,531,715,0,0
-686,309,0,0,0,0,0,0,0,0,0,-1,538,715,0,0
-679,309,0,0,0,0,0,0,0,0,0,-1,545,715,0,0
-672,309,0,0,0,0,0,0,0,0,0,-1,552,715,0,0
-665,309,0,0,0,0,0,0,0,0,0,-1,559,715,0,0
-658,309,0,0,0,0,0,0,0,0,0,-1,566,715,0,0
-651,309,0,0,0,0,0,0,0,0,0,-1,573,715,0,0
-644,309,0,0,0,0,0,0,0,0,0,-1,580,715,0,0
-637,309,0,0,0,0,0,0,0,0,0,-1,587,715,0,0
-630,309,0,0,0,0,0,0,0,0,0,-1,594,715,0,0
-623,309,0,0,0,0,0,0,0,0,0,-1,601,715,0,0
-616,309,0,0,0,0,0,0,0,0,0,-1,608,715,0,0
-609,309,-0.535156,3.17505,0,0,0,0,0,0,0,-1,615,715,-0.535133,-3.17504
-602,309,1.90527,1.41522,0,0,0,0,0,0,0,-1,622,715,1.9053,-1.4152
-595,309,1.71741,0.432556,0,0,0,0,0,0,0,-1,629,715,1.71738,-0.43253
-588,309,1.3031,0.324524,-0.00784907,-0.0136254,-0.0153705,0.0049023,-0.0263767,-0.69253,0.0194259,0.0423955,636,715,1.30312,-0.324522
-581,309,0.910461,0.224426,-0.00692085,-0.0107596,-0.0119106,0.00322403,-0.0209045,-0.705511,0.015126,0.0463175,643,715,0.910457,-0.224404
-574,309,0.378784,0.187012,-0.00567024,-0.00812073,-0.00899457,0.00218215,-0.0159731,-0.717705,0.0114457,0.0474739,650,715,0.378778,-0.187007
-567,309,-0.125244,-0.117065,-0.00424458,-0.00593852,-0.00640249,0.00136672,-0.0115498,-0.719636,0.00819354,0.0418927,657,715,-0.125216,0.117093
-560,309,-0.177673,-0.27124,-0.0029501,-0.00433815,-0.0043356,0.000746672,-0.00803491,-0.706034,0.00562205,0.0336474,664,715,-0.177694,0.271237
-553,309,-0.0296631,-0.0805054,-0.00178922,-0.00293397,-0.00291518,0.00060924,-0.00533243,-0.68846,0.00377446,0.0201973,671,715,-0.0296526,0.0805043
-546,309,-0.0166016,-0.0779419,-0.000700856,-0.00188976,-0.00155527,0.00036969,-0.00296031,-0.602856,0.00210761,0.0130769,678,715,-0.0166243,0.0779415
-539,309,-0.0212402,-0.0857544,-0.000490413,-0.000648663,-9.57513e-05,-0.000445324,-0.000693752,-0.440095,0.000405879,0.012838,685,715,-0.0212267,0.085729
-532,309,-0.0171509,-0.0733643,-0.000632401,-0.000128527,0.000262818,-1.63957e-05,-0.000744532,1.16753,0.000490981,0.010372,692,715,-0.0171697,0.0733412
-525,309,-0.0199585,-0.0736084,-0.000288404,0.00019462,0.000262969,0.000310152,-0.000403937,1.15684,0.000413463,0.0136295,699,715,-0.0199416,0.0735838
-518,309,-0.0227051,-0.0686646,-0.00074396,0.000169186,0.000357892,0.000292739,-0.000867512,1.23838,0.000696732,0.0135782,706,715,-0.0226915,0.0686444
-511,309,-0.0303955,-0.0750122,-0.00222135,0.000268587,0.00050254,0.000366188,-0.00231895,1.37897,0.00168138,0.010839,713,715,-0.0304019,0.075013
-504,309,-0.0200195,-0.0776978,-0.00424558,0.00060938,0.000950357,0.000788783,-0.00442499,1.38422,0.00324503,0.00913615,720,715,-0.0199897,0.0776764
-497,309,-0.0175171,-0.0750732,-0.00572062,0.000471736,0.00148636,0.000810029,-0.00605891,1.34701,0.00433459,0.0129158,727,715,-0.0175117,0.0750658
-490,309,-0.0257568,-0.0648193,-0.00698123,0.000193712,0.00206981,0.000747987,-0.0075355,1.30915,0.00529065,0.0130446,734,715,-0.0257349,0.0648414
-483,309,-0.0182495,-0.0464478,-0.0079729,-1.31625e-05,0.00271451,0.000824427,-0.00881049,1.2715,0.00616686,0.0195987,741,715,-0.0182203,0.0464625
-476,309,-0.138428,-0.147644,-0.0102065,-0.000370506,0.00283111,0.000386166,-0.0109632,1.30963,0.00744084,0.0342137,748,715,-0.138435,0.147617
-469,309,-0.34729,-0.291321,-0.0131931,-0.000534282,0.00312675,0.000195912,-0.0139233,1.34138,0.00934819,0.0447218,755,715,-0.347276,0.291302
-462,309,-0.457886,-0.324341,-0.0168908,-0.00075063,0.0032172,-0.000132987,-0.0175084,1.38112,0.0116282,0.0464079,762,715,-0.457899,0.324364
-455,309,-0.566467,-0.226013,-0.0217174,-0.000910477,0.00297269,-0.0004941,-0.0221337,1.43163,0.0145939,0.0466818,769,715,-0.566489,0.226036
-448,309,-0.715332,0.125488,-0.0281748,-0.000417107,0.00226098,-0.000234148,-0.0283578,1.49005,0.0188276,0.0445717,776,715,-0.715324,-0.125463
-441,309,0.0290527,0.0180054,-0.0363152,0.000191309,0.00101103,0.000219287,-0.0363432,1.54313,0.0243022,0.0478587,783,715,0.0290817,-0.0179767
-434,309,0.128906,0.0632324,0,0,0,0,0,0,0,-1,790,715,0.128878,-0.063207
-427,309,0.270264,0.171448,0,0,0,0,0,0,0,-1,797,715,0.270247,-0.171467
-420,309,0.477478,-0.0355835,0,0,0,0,0,0,0,-1,804,715,0.47746,0.0355599
-413,309,0,0,0,0,0,0,0,0,0,-1,811,715,0,0
-406,309,0,0,0,0,0,0,0,0,0,-1,818,715,0,0
-399,309,0,0,0,0,0,0,0,0,0,-1,825,715,0,0
-392,309,0,0,0,0,0,0,0,0,0,-1,832,715,0,0
-385,309,0,0,0,0,0,0,0,0,0,-1,839,715,0,0
-378,309,0,0,0,0,0,0,0,0,0,-1,846,715,0,0
-371,309,0,0,0,0,0,0,0,0,0,-1,853,715,0,0
-364,309,0,0,0,0,0,0,0,0,0,-1,860,715,0,0
-357,309,0,0,0,0,0,0,0,0,0,-1,867,715,0,0
-350,309,0,0,0,0,0,0,0,0,0,-1,874,715,0,0
-343,309,0,0,0,0,0,0,0,0,0,-1,881,715,0,0
-336,309,0,0,0,0,0,0,0,0,0,-1,888,715,0,0
-329,309,0,0,0,0,0,0,0,0,0,-1,895,715,0,0
-322,309,0,0,0,0,0,0,0,0,0,-1,902,715,0,0
-315,309,0,0,0,0,0,0,0,0,0,-1,909,715,0,0
-308,309,0,0,0,0,0,0,0,0,0,-1,916,715,0,0
-301,309,0,0,0,0,0,0,0,0,0,-1,923,715,0,0
-294,309,0,0,0,0,0,0,0,0,0,-1,930,715,0,0
-287,309,0,0,0,0,0,0,0,0,0,-1,937,715,0,0
-280,309,0,0,0,0,0,0,0,0,0,-1,944,715,0,0
-273,309,0,0,0,0,0,0,0,0,0,-1,951,715,0,0
-266,309,0,0,0,0,0,0,0,0,0,-1,958,715,0,0
-259,309,0,0,0,0,0,0,0,0,0,-1,965,715,0,0
-252,309,0,0,0,0,0,0,0,0,0,-1,972,715,0,0
-245,309,0,0,0,0,0,0,0,0,0,-1,979,715,0,0
-238,309,0,0,0,0,0,0,0,0,0,-1,986,715,0,0
-231,309,0,0,0,0,0,0,0,0,0,-1,993,715,0,0
-224,309,0,0,0,0,0,0,0,0,0,-1,1000,715,0,0
-217,309,0,0,0,0,0,0,0,0,0,-1,1007,715,0,0
-210,309,0,0,0,0,0,0,0,0,0,-1,1014,715,0,0
-203,309,0,0,0,0,0,0,0,0,0,-1,1021,715,0,0
-196,309,0,0,0,0,0,0,0,0,0,-1,1028,715,0,0
-189,309,0,0,0,0,0,0,0,0,0,-1,1035,715,0,0
-182,309,0,0,0,0,0,0,0,0,0,-1,1042,715,0,0
-175,309,0,0,0,0,0,0,0,0,0,-1,1049,715,0,0
-168,309,0,0,0,0,0,0,0,0,0,-1,1056,715,0,0
-161,309,0,0,0,0,0,0,0,0,0,-1,1063,715,0,0
-154,309,0,0,0,0,0,0,0,0,0,-1,1070,715,0,0
-147,309,0,0,0,0,0,0,0,0,0,-1,1077,715,0,0
-140,309,0,0,0,0,0,0,0,0,0,-1,1084,715,0,0
-133,309,0,0,0,0,0,0,0,0,0,-1,1091,715,0,0
-126,309,0,0,0,0,0,0,0,0,0,-1,1098,715,0,0
-119,309,0,0,0,0,0,0,0,0,0,-1,1105,715,0,0
-112,309,0,0,0,0,0,0,0,0,0,-1,1112,715,0,0
-105,309,0,0,0,0,0,0,0,0,0,-1,1119,715,0,0
-98,309,0,0,0,0,0,0,0,0,0,-1,1126,715,0,0
-91,309,0,0,0,0,0,0,0,0,0,-1,1133,715,0,0
-84,309,0,0,0,0,0,0,0,0,0,-1,1140,715,0,0
-77,309,0,0,0,0,0,0,0,0,0,-1,1147,715,0,0
-70,309,0,0,0,0,0,0,0,0,0,-1,1154,715,0,0
-63,309,0,0,0,0,0,0,0,0,0,-1,1161,715,0,0
-56,309,0,0,0,0,0,0,0,0,0,-1,1168,715,0,0
-49,309,0,0,0,0,0,0,0,0,0,-1,1175,715,0,0
-42,309,0,0,0,0,0,0,0,0,0,-1,1182,715,0,0
-35,309,0,0,0,0,0,0,0,0,0,-1,1189,715,0,0
-28,309,0,0,0,0,0,0,0,0,0,-1,1196,715,0,0
-21,309,0,0,0,0,0,0,0,0,0,-1,1203,715,0,0
-14,309,0,0,0,0,0,0,0,0,0,-1,1210,715,0,0
-7,309,0,0,0,0,0,0,0,0,0,-1,1217,715,0,0
0,309,0,0,0,0,0,0,0,0,0,-1,1224,715,0,0
7,309,0,0,0,0,0,0,0,0,0,-1,1231,715,0,0
14,309,0,0,0,0,0,0,0,0,0,-1,1238,715,0,0
21,309,0,0,0,0,0,0,0,0,0,-1,1245,715,0,0
28,309,0,0,0,0,0,0,0,0,0,-1,1252,715,0,0
35,309,0,0,0,0,0,0,0,0,0,-1,1259,715,0,0
42,309,0,0,0,0,0,0,0,0,0,-1,1266,715,0,0
49,309,0,0,0,0,0,0,0,0,0,-1,1273,715,0,0
56,309,0,0,0,0,0,0,0,0,0,-1,1280,715,0,0
63,309,0,0,0,0,0,0,0,0,0,-1,1287,715,0,0
70,309,0,0,0,0,0,0,0,0,0,-1,1294,715,0,0
77,309,0,0,0,0,0,0,0,0,0,-1,1301,715,0,0
84,309,0,0,0,0,0,0,0,0,0,-1,1308,715,0,0
91,309,0,0,0,0,0,0,0,0,0,-1,1315,715,0,0
98,309,0,0,0,0,0,0,0,0,0,-1,1322,715,0,0
105,309,0,0,0,0,0,0,0,0,0,-1,1329,715,0,0
112,309,0,0,0,0,0,0,0,0,0,-1,1336,715,0,0
119,309,0,0,0,0,0,0,0,0,0,-1,1343,715,0,0
126,309,0,0,0,0,0,0,0,0,0,-1,1350,715,0,0
133,309,0,0,0,0,0,0,0,0,0,-1,1357,715,0,0
140,309,0,0,0,0,0,0,0,0,0,-1,1364,715,0,0
147,309,0,0,0,0,0,0,0,0,0,-1,1371,715,0,0
154,309,0,0,0,0,0,0,0,0,0,-1,1378,715,0,0
161,309,0,0,0,0,0,0,0,0,0,-1,1385,715,0,0
168,309,0,0,0,0,0,0,0,0,0,-1,1392,715,0,0
175,309,0,0,0,0,0,0,0,0,0,-1,1399,715,0,0
182,309,0,0,0,0,0,0,0,0,0,-1,1406,715,0,0
189,309,0,0,0,0,0,0,0,0,0,-1,1413,715,0,0
196,309,0,0,0,0,0,0,0,0,0,-1,1420,715,0,0
203,309,0,0,0,0,0,0,0,0,0,-1,1427,715,0,0
210,309,0,0,0,0,0,0,0,0,0,-1,1434,715,0,0
217,309,0,0,0,0,0,0,0,0,0,-1,1441,715,0,0
224,309,0,0,0,0,0,0,0,0,0,-1,1448,715,0,0
231,309,0,0,0,0,0,0,0,0,0,-1,1455,715,0,0
238,309,0,0,0,0,0,0,0,0,0,-1,1462,715,0,0
245,309,0,0,0,0,0,0,0,0,0,-1,1469,715,0,0
252,309,0,0,0,0,0,0,0,0,0,-1,1476,715,0,0
259,309,0,0,0,0,0,0,0,0,0,-1,1483,715,0,0
266,309,0,0,0,0,0,0,0,0,0,-1,1490,715,0,0
273,309,0,0,0,0,0,0,0,0,0,-1,1497,715,0,0
280,309,0,0,0,0,0,0,0,0,0,-1,1504,715,0,0
287,309,0,0,0,0,0,0,0,0,0,-1,1511,715,0,0
294,309,0,0,0,0,0,0,0,0,0,-1,1518,715,0,0
301,309,0,0,0,0,0,0,0,0,0,-1,1525,715,0,0
308,309,0,0,0,0,0,0,0,0,0,-1,1532,715,0,0
315,309,0,0,0,0,0,0,0,0,0,-1,1539,715,0,0
322,309,0,0,0,0,0,0,0,0,0,-1,1546,715,0,0
329,309,0,0,0,0,0,0,0,0,0,-1,1553,715,0,0
336,309,0,0,0,0,0,0,0,0,0,-1,1560,715,0,0
343,309,0,0,0,0,0,0,0,0,0,-1,1567,715,0,0
350,309,0,0,0,0,0,0,0,0,0,-1,1574,715,0,0
357,309,0,0,0,0,0,0,0,0,0,-1,1581,715,0,0
364,309,0,0,0,0,0,0,0,0,0,-1,1588,715,0,0
371,309,0,0,0,0,0,0,0,0,0,-1,1595,715,0,0
378,309,0,0,0,0,0,0,0,0,0,-1,1602,715,0,0
385,309,0,0,0,0,0,0,0,0,0,-1,1609,715,0,0
392,309,0,0,0,0,0,0,0,0,0,-1,1616,715,0,0
399,309,0,0,0,0,0,0,0,0,0,-1,1623,715,0,0
406,309,0,0,0,0,0,0,0,0,0,-1,1630,715,0,0
413,309,0,0,0,0,0,0,0,0,0,-1,1637,715,0,0
420,309,0,0,0,0,0,0,0,0,0,-1,1644,715,0,0
427,309,0,0,0,0,0,0,0,0,0,-1,1651,715,0,0
434,309,0,0,0,0,0,0,0,0,0,-1,1658,715,0,0
441,309,0,0,0,0,0,0,0,0,0,-1,1665,715,0,0
448,309,0,0,0,0,0,0,0,0,0,-1,1672,715,0,0
455,309,0,0,0,0,0,0,0,0,0,-1,1679,715,0,0
462,309,0,0,0,0,0,0,0,0,0,-1,1686,715,0,0
469,309,0,0,0,0,0,0,0,0,0,-1,1693,715,0,0
476,309,0,0,0,0,0,0,0,0,0,-1,1700,715,0,0
483,309,0,0,0,0,0,0,0,0,0,-1,1707,715,0,0
490,309,0,0,0,0,0,0,0,0,0,-1,1714,715,0,0
497,309,0,0,0,0,0,0,0,0,0,-1,1721,715,0,0
504,309,0,0,0,0,0,0,0,0,0,-1,1728,715,0,0
511,309,0,0,0,0,0,0,0,0,0,-1,1735,715,0,0
518,309,0,0,0,0,0,0,0,0,0,-1,1742,715,0,0
525,309,0,0,0,0,0,0,0,0,0,-1,1749,715,0,0
532,309,0,0,0,0,0,0,0,0,0,-1,1756,715,0,0
539,309,1.04773,-0.224792,0,0,0,0,0,0,0,-1,1763,715,1.0477,0.224774
546,309,1.26514,0.0709839,0.00136074,-0.00502403,-0.0188541,0.0172908,-0.0209541,-0.701533,0.0221145,0.0451124,1770,715,1.26514,-0.0709998
553,309,1.50195,0.345825,0.00125587,-0.00681973,-0.0182044,0.0158649,-0.0214287,-0.676263,0.0216112,0.0418315,1777,715,1.50195,-0.345834
560,309,1.75256,0.654175,0,0,0,0,0,0,0,-1,1784,715,1.7526,-0.654182
567,309,2.5459,0.666687,0,0,0,0,0,0,0,-1,1791,715,2.54586,-0.666684
574,309,3.37634,0.56958,0,0,0,0,0,0,0,-1,1798,715,3.37639,-0.569602
581,309,0.00427246,0.702332,0,0,0,0,0,0,0,-1,1805,715,0.00421204,-0.702307
588,309,-0.562256,0.181641,0,0,0,0,0,0,0,-1,1812,715,-0.562214,-0.181647
595,309,0.222412,-0.431152,0,0,0,0,0,0,0,-1,1819,715,0.222429,0.431142
602,309,-0.233032,-0.360413,0.000429837,0.00201733,-0.00819595,0.00945788,-0.00701071,-0.833671,0.00954307,0.0428473,1826,715,-0.233069,0.360411
609,309,0.0598145,-0.329346,0.000893459,0.00293006,-0.00631409,0.00830743,-0.00448391,-0.865347,0.00749425,0.0364813,1833,715,0.0597777,0.329358
616,309,0.00012207,-0.115112,0.00101763,0.00340085,-0.00456268,0.00692495,-0.00250648,-0.913127,0.00564091,0.017713,1840,715,0.000160616,0.115122
623,309,-0.0078125,-0.0893555,0.00112357,0.00373798,-0.00298971,0.00569378,-0.000832224,-0.991492,0.0041015,0.00961383,1847,715,-0.00783758,0.0893624
630,309,-0.0174561,-0.0747681,0.0012495,0.0034491,-0.00169439,0.00436933,0.000329268,-1.07326,0.00280957,0.0097103,1854,715,-0.0174121,0.0747583
637,309,-0.0413818,-0.0447998,0.001073,0.00293136,-0.000775286,0.00321232,0.000792041,-1.22312,0.00193242,0.012111,1861,715,-0.0413223,0.0447934
644,309,-0.0294189,-0.0543213,0.000492931,0.00264288,-7.42372e-05,0.00264544,0.00049037,-1.53632,0.00162502,0.013139,1868,715,-0.0294277,0.0543181
651,309,-0.00976563,-0.0639038,0.000122841,0.00227361,0.000272303,0.00230755,8.8901e-05,1.4468,0.0015096,0.0121006,1875,715,-0.00977117,0.063881
658,309,-0.0126953,-0.0661011,-0.000230219,0.00236272,-1.71064e-06,0.00236272,-0.00023022,-1.57014,0.00165723,0.0165734,1882,715,-0.0126543,0.0660885
665,309,-0.00170898,-0.0687256,-0.000413642,0.00238764,-0.000681636,0.0025447,-0.000570699,-1.34434,0.00191525,0.0152356,1889,715,-0.00170236,0.0687066
672,309,-0.0200195,-0.0519409,-0.000346178,0.00226363,-0.00142422,0.00289035,-0.000972898,-1.15625,0.00232022,0.0137788,1896,715,-0.020063,0.0519113
679,309,-0.027832,-0.0500488,-0.000307964,0.00269715,-0.00236958,0.00400041,-0.00161122,-1.06796,0.00333632,0.0148004,1903,715,-0.0278643,0.0500531
686,309,-0.00402832,-0.085083,-0.000169571,0.00322697,-0.00332489,0.0052622,-0.0022048,-1.02151,0.00442989,0.0184135,1910,715,-0.00405719,0.0850882
693,309,-0.0533447,-0.177246,0.000165054,0.00382129,-0.00453777,0.00688535,-0.00289901,-0.976886,0.00580318,0.0298779,1917,715,-0.0533298,0.177256
700,309,-0.092041,-0.389465,0.00071582,0.00426858,-0.00583964,0.00859604,-0.00361164,-0.933048,0.00724129,0.0423094,1924,715,-0.0920227,0.389475
707,309,0.0869141,-0.624084,0.00138463,0.00425956,-0.00732534,0.0102871,-0.00464295,-0.882283,0.00882283,0.0428381,1931,715,0.0868631,0.624112
714,309,0.184082,-0.645447,0.00215325,0.00350541,-0.00894249,0.0117973,-0.00613869,-0.823128,0.0105258,0.0412317,1938,715,0.184053,0.64545
721,309,0.244751,-0.682861,0.0029144,0.00161698,-0.0106543,0.0129398,-0.00840839,-0.754992,0.0124176,0.0419091,1945,715,0.244722,0.682872
728,309,0,0,0,0,0,0,0,0,0,-1,1952,715,0,0
735,309,0,0,0,0,0,0,0,0,0,-1,1959,715,0,0
742,309,0,0,0,0,0,0,0,0,0,-1,1966,715,0,0
749,309,0,0,0,0,0,0,0,0,0,-1,1973,715,0,0
756,309,0,0,0,0,0,0,0,0,0,-1,1980,715,0,0
763,309,0,0,0,0,0,0,0,0,0,-1,1987,715,0,0
770,309,0,0,0,0,0,0,0,0,0,-1,1994,715,0,0
777,309,0,0,0,0,0,0,0,0,0,-1,2001,715,0,0
784,309,0,0,0,0,0,0,0,0,0,-1,2008,715,0,0
791,309,0,0,0,0,0,0,0,0,0,-1,2015,715,0,0
798,309,0,0,0,0,0,0,0,0,0,-1,2022,715,0,0
805,309,0,0,0,0,0,0,0,0,0,-1,2029,715,0,0
812,309,0,0,0,0,0,0,0,0,0,-1,2036,715,0,0
-700,302,0,0,0,0,0,0,0,0,0,-1,524,722,0,0
-693,302,0,0,0,0,0,0,0,0,0,-1,531,722,0,0
-686,302,0,0,0,0,0,0,0,0,0,-1,538,722,0,0
-679,302,0,0,0,0,0,0,0,0,0,-1,545,722,0,0
-672,302,0,0,0,0,0,0,0,0,0,-1,552,722,0,0
-665,302,0,0,0,0,0,0,0,0,0,-1,559,722,0,0
-658,302,0,0,0,0,0,0,0,0,0,-1,566,722,0,0
-651,302,0,0,0,0,0,0,0,0,0,-1,573,722,0,0
-644,302,0,0,0,0,0,0,0,0,0,-1,580,722,0,0
-637,302,0,0,0,0,0,0,0,0,0,-1,587,722,0,0
-630,302,0,0,0,0,0,0,0,0,0,-1,594,722,0,0
-623,302,0,0,0,0,0,0,0,0,0,-1,601,722,0,0
-616,302,0,0,0,0,0,0,0,0,0,-1,608,722,0,0
-609,302,-1.2851,-0.0100098,0,0,0,0,0,0,0,-1,615,722,-1.28509,0.0100007
-602,302,-0.745728,2.83435,0,0,0,0,0,0,0,-1,622,722,-0.745716,-2.83433
-595,302,-0.413391,2.22485,0,0,0,0,0,0,0,-1,629,722,-0.413361,-2.22486
-588,302,1.3266,0.316223,0,0,0,0,0,0,0,-1,636,722,1.32659,-0.316214
-581,302,0.936584,0.239502,-0.00972005,-0.00943973,-0.00932221,-0.000256631,-0.0189032,-0.792915,0.0125174,0.0465957,643,722,0.936609,-0.2395
-574,302,-0.215576,0.347351,-0.00810107,-0.00730838,-0.00759384,-0.000100553,-0.0153089,-0.811471,0.0101726,0.045373,650,722,-0.21558,-0.347349
-567,302,-0.184509,-0.0650635,-0.00639274,-0.00557814,-0.00589756,-7.38357e-05,-0.011897,-0.819875,0.00790687,0.0411829,657,722,-0.184499,0.0650536
-560,302,-0.098938,-0.11615,-0.00480412,-0.0043229,-0.0043965,-0.000160437,-0.00896659,-0.812735,0.00592497,0.0254315,664,722,-0.0989681,0.116151
-553,302,-0.0283203,-0.0794678,-0.00335511,-0.00319302,-0.00331415,4.10727e-05,-0.0065892,-0.797623,0.00440656,0.0118199,671,722,-0.0283427,0.0794837
-546,302,-0.0450439,-0.0795288,-0.00207864,-0.00229215,-0.00211015,-7.25407e-05,-0.00429824,-0.760124,0.00284162,0.0130855,678,722,-0.0450232,0.0795489
-539,302,-0.0449219,-0.0615845,-0.00164054,-0.00120052,-0.000729513,-0.000658564,-0.0021825,-0.93185,0.00129266,0.0132093,685,722,-0.0449188,0.0616149
-532,302,-0.0354614,-0.0526123,-0.00157028,-0.000632822,-0.00014857,-0.00060984,-0.00159326,-1.41732,0.00092826,0.0126742,692,722,-0.0354515,0.052611
-525,302,-0.0407104,-0.0762939,-0.0011715,-0.000357418,-4.99648e-05,-0.000354363,-0.00117456,-1.50973,0.000695681,0.0179926,699,722,-0.0407035,0.0763099
-518,302,-0.0406494,-0.0751343,-0.00162257,-0.000377137,0.000337256,-0.000291675,-0.00170803,1.32262,0.00105499,0.0184329,706,722,-0.0406287,0.0751357
-511,302,-0.0349121,-0.074646,-0.00314178,-0.000388472,0.000677936,-0.000230599,-0.00329965,1.342,0.00212707,0.00910221,713,722,-0.0349369,0.0746514
-504,302,-0.0175781,-0.0853882,-0.00530943,-7.4482e-05,0.00129871,0.00023,-0.00561391,1.34051,0.00382158,0.00872866,720,722,-0.0176,0.0853998
-497,302,-0.0322876,-0.067627,-0.00692265,-0.000308064,0.00194568,0.000221809,-0.00745252,1.30491,0.00504391,0.012786,727,722,-0.0322932,0.067605
-490,302,-0.0455933,-0.0551147,-0.00835683,-0.000790433,0.00259083,1.16713e-05,-0.00915893,1.27056,0.00610985,0.0144262,734,722,-0.0455671,0.0551058
-483,302,-0.0698242,-0.102539,-0.00959999,-0.00110231,0.00328891,2.18912e-05,-0.0107242,1.24143,0.00715677,0.0281029,741,722,-0.0698387,0.102513
-476,302,-0.277466,-0.3172,-0.0119913,-0.00171004,0.00354128,-0.000608333,-0.013093,1.26918,0.00853312,0.0361705,748,722,-0.277479,0.31721
-469,302,-0.52478,-0.58252,-0.0149646,-0.00222282,0.00393509,-0.00110551,-0.0160819,1.29414,0.0103724,0.0409415,755,722,-0.524788,0.582532
-462,302,-0.901184,-0.700684,-0.0184462,-0.00278582,0.00411,-0.00177271,-0.0194593,1.32912,0.0124242,0.0471659,762,722,-0.90119,0.700713
-455,302,-1.4201,-0.380127,-0.0228248,-0.00331797,0.00389119,-0.00257041,-0.0235724,1.38099,0.014932,0.0462649,769,722,-1.42009,0.380113
-448,302,-1.37457,0.115967,0,0,0,0,0,0,0,-1,776,722,-1.37458,-0.115937
-441,302,-0.0145874,0.219238,0,0,0,0,0,0,0,-1,783,722,-0.0146141,-0.219228
-434,302,0.137146,-0.0428467,-0.0465409,-0.00213606,-0.000320971,-0.00213374,-0.0465432,-1.56357,0.0303426,0.0475282,790,722,0.137132,0.0428544
-427,302,0.293518,-0.129639,0,0,0,0,0,0,0,-1,797,722,0.293541,0.129642
-420,302,0,0,0,0,0,0,0,0,0,-1,804,722,0,0
-413,302,0,0,0,0,0,0,0,0,0,-1,811,722,0,0
-406,302,0,0,0,0,0,0,0,0,0,-1,818,722,0,0
-399,302,0,0,0,0,0,0,0,0,0,-1,825,722,0,0
-392,302,0,0,0,0,0,0,0,0,0,-1,832,722,0,0
-385,302,0,0,0,0,0,0,0,0,0,-1,839,722,0,0
-378,302,0,0,0,0,0,0,0,0,0,-1,846,722,0,0
-371,302,0,0,0,0,0,0,0,0,0,-1,853,722,0,0
-364,302,0,0,0,0,0,0,0,0,0,-1,860,722,0,0
-357,302,0,0,0,0,0,0,0,0,0,-1,867,722,0,0
-350,302,0,0,0,0,0,0,0,0,0,-1,874,722,0,0
-343,302,0,0,0,0,0,0,0,0,0,-1,881,722,0,0
-336,302,0,0,0,0,0,0,0,0,0,-1,888,722,0,0
-329,302,0,0,0,0,0,0,0,0,0,-1,895,722,0,0
-322,302,0,0,0,0,0,0,0,0,0,-1,902,722,0,0
-315,302,0,0,0,0,0,0,0,0,0,-1,909,722,0,0
-308,302,0,0,0,0,0,0,0,0,0,-1,916,722,0,0
-301,302,0,0,0,0,0,0,0,0,0,-1,923,722,0,0
-294,302,0,0,0,0,0,0,0,0,0,-1,930,722,0,0
-287,302,0,0,0,0,0,0,0,0,0,-1,937,722,0,0
-280,302,0,0,0,0,0,0,0,0,0,-1,944,722,0,0
-273,302,0,0,0,0,0,0,0,0,0,-1,951,722,0,0
-266,302,0,0,0,0,0,0,0,0,0,-1,958,722,0,0
-259,302,0,0,0,0,0,0,0,0,0,-1,965,722,0,0
-252,302,0,0,0,0,0,0,0,0,0,-1,972,722,0,0
-245,302,0,0,0,0,0,0,0,0,0,-1,979,722,0,0
-238,302,0,0,0,0,0,0,0,0,0,-1,986,722,0,0
-231,302,0,0,0,0,0,0,0,0,0,-1,993,722,0,0
-224,302,0,0,0,0,0,0,0,0,0,-1,1000,722,0,0
-217,302,0,0,0,0,0,0,0,0,0,-1,1007,722,0,0
-210,302,0,0,0,0,0,0,0,0,0,-1,1014,722,0,0
-203,302,0,0,0,0,0,0,0,0,0,-1,1021,722,0,0
-196,302,0,0,0,0,0,0,0,0,0,-1,1028,722,0,0
-189,302,0,0,0,0,0,0,0,0,0,-1,1035,722,0,0
-182,302,0,0,0,0,0,0,0,0,0,-1,1042,722,0,0
-175,302,0,0,0,0,0,0,0,0,0,-1,1049,722,0,0
-168,302,0,0,0,0,0,0,0,0,0,-1,1056,722,0,0
-161,302,0,0,0,0,0,0,0,0,0,-1,1063,722,0,0
-154,302,0,0,0,0,0,0,0,0,0,-1,1070,722,0,0
-147,302,0,0,0,0,0,0,0,0,0,-1,1077,722,0,0
-140,302,0,0,0,0,0,0,0,0,0,-1,1084,722,0,0
-133,302,0,0,0,0,0,0,0,0,0,-1,1091,722,0,0
-126,302,0,0,0,0,0,0,0,0,0,-1,1098,722,0,0
-119,302,0,0,0,0,0,0,0,0,0,-1,1105,722,0,0
-112,302,0,0,0,0,0,0,0,0,0,-1,1112,722,0,0
-105,302,0,0,0,0,0,0,0,0,0,-1,1119,722,0,0
-98,302,0,0,0,0,0,0,0,0,0,-1,1126,722,0,0
-91,302,0,0,0,0,0,0,0,0,0,-1,1133,722,0,0
-84,302,0,0,0,0,0,0,0,0,0,-1,1140,722,0,0
-77,302,0,0,0,0,0,0,0,0,0,-1,1147,722,0,0
-70,302,0,0,0,0,0,0,0,0,0,-1,1154,722,0,0
-63,302,0,0,0,0,0,0,0,0,0,-1,1161,722,0,0
-56,302,0,0,0,0,0,0,0,0,0,-1,1168,722,0,0
-49,302,0,0,0,0,0,0,0,0,0,-1,1175,722,0,0
-42,302,0,0,0,0,0,0,0,0,0,-1,1182,722,0,0
-35,302,0,0,0,0,0,0,0,0,0,-1,1189,722,0,0
-28,302,0,0,0,0,0,0,0,0,0,-1,1196,722,0,0
-21,302,0,0,0,0,0,0,0,0,0,-1,1203,722,0,0
-14,302,0,0,0,0,0,0,0,0,0,-1,1210,722,0,0
-7,302,0,0,0,0,0,0,0,0,0,-1,1217,722,0,0
0,302,0,0,0,0,0,0,0,0,0,-1,1224,722,0,0
7,302,0,0,0,0,0,0,0,0,0,-1,1231,722,0,0
14,302,0,0,0,0,0,0,0,0,0,-1,1238,722,0,0
21,302,0,0,0,0,0,0,0,0,0,-1,1245,722,0,0
28,302,0,0,0,0,0,0,0,0,0,-1,1252,722,0,0
35,302,0,0,0,0,0,0,0,0,0,-1,1259,722,0,0
42,302,0,0,0,0,0,0,0,0,0,-1,1266,722,0,0
49,302,0,0,0,0,0,0,0,0,0,-1,1273,722,0,0
56,302,0,0,0,0,0,0,0,0,0,-1,1280,722,0,0
63,302,0,0,0,0,0,0,0,0,0,-1,1287,722,0,0
70,302,0,0,0,0,0,0,0,0,0,-1,1294,722,0,0
77,302,0,0,0,0,0,0,0,0,0,-1,1301,722,0,0
84,302,0,0,0,0,0,0,0,0,0,-1,1308,722,0,0
91,302,0,0,0,0,0,0,0,0,0,-1,1315,722,0,0
98,302,0,0,0,0,0,0,0,0,0,-1,1322,722,0,0
105,302,0,0,0,0,0,0,0,0,0,-1,1329,722,0,0
112,302,0,0,0,0,0,0,0,0,0,-1,1336,722,0,0
119,302,0,0,0,0,0,0,0,0,0,-1,1343,722,0,0
126,302,0,0,0,0,0,0,0,0,0,-1,1350,722,0,0
133,302,0,0,0,0,0,0,0,0,0,-1,1357,722,0,0
140,302,0,0,0,0,0,0,0,0,0,-1,1364,722,0,0
147,302,0,0,0,0,0,0,0,0,0,-1,1371,722,0,0
154,302,0,0,0,0,0,0,0,0,0,-1,1378,722,0,0
161,302,0,0,0,0,0,0,0,0,0,-1,1385,722,0,0
168,302,0,0,0,0,0,0,0,0,0,-1,1392,722,0,0
175,302,0,0,0,0,0,0,0,0,0,-1,1399,722,0,0
182,302,0,0,0,0,0,0,0,0,0,-1,1406,722,0,0
189,302,0,0,0,0,0,0,0,0,0,-1,1413,722,0,0
196,302,0,0,0,0,0,0,0,0,0,-1,1420,722,0,0
203,302,0,0,0,0,0,0,0,0,0,-1,1427,722,0,0
210,302,0,0,0,0,0,0,0,0,0,-1,1434,722,0,0
217,302,0,0,0,0,0,0,0,0,0,-1,1441,722,0,0
224,302,0,0,0,0,0,0,0,0,0,-1,1448,722,0,0
231,302,0,0,0,0,0,0,0,0,0,-1,1455,722,0,0
238,302,0,0,0,0,0,0,0,0,0,-1,1462,722,0,0
245,302,0,0,0,0,0,0,0,0,0,-1,1469,722,0,0
252,302,0,0,0,0,0,0,0,0,0,-1,1476,722,0,0
259,302,0,0,0,0,0,0,0,0,0,-1,1483,722,0,0
266,302,0,0,0,0,0,0,0,0,0,-1,1490,722,0,0
273,302,0,0,0,0,0,0,0,0,0,-1,1497,722,0,0
280,302,0,0,0,0,0,0,0,0,0,-1,1504,722,0,0
287,302,0,0,0,0,0,0,0,0,0,-1,1511,722,0,0
294,302,0,0,0,0,0,0,0,0,0,-1,1518,722,0,0
301,302,0,0,0,0,0,0,0,0,0,-1,1525,722,0,0
308,302,0,0,0,0,0,0,0,0,0,-1,1532,722,0,0
315,302,0,0,0,0,0,0,0,0,0,-1,1539,722,0,0
322,302,0,0,0,0,0,0,0,0,0,-1,1546,722,0,0
329,302,0,0,0,0,0,0,0,0,0,-1,1553,722,0,0
336,302,0,0,0,0,0,0,0,0,0,-1,1560,722,0,0
343,302,0,0,0,0,0,0,0,0,0,-1,1567,722,0,0
350,302,0,0,0,0,0,0,0,0,0,-1,1574,722,0,0
357,302,0,0,0,0,0,0,0,0,0,-1,1581,722,0,0
364,302,0,0,0,0,0,0,0,0,0,-1,1588,722,0,0
371,302,0,0,0,0,0,0,0,0,0,-1,1595,722,0,0
378,302,0,0,0,0,0,0,0,0,0,-1,1602,722,0,0
385,302,0,0,0,0,0,0,0,0,0,-1,1609,722,0,0
392,302,0,0,0,0,0,0,0,0,0,-1,1616,722,0,0
399,302,0,0,0,0,0,0,0,0,0,-1,1623,722,0,0
406,302,0,0,0,0,0,0,0,0,0,-1,1630,722,0,0
413,302,0,0,0,0,0,0,0,0,0,-1,1637,722,0,0
420,302,0,0,0,0,0,0,0,0,0,-1,1644,722,0,0
427,302,0,0,0,0,0,0,0,0,0,-1,1651,722,0,0
434,302,0,0,0,0,0,0,0,0,0,-1,1658,722,0,0
441,302,0,0,0,0,0,0,0,0,0,-1,1665,722,0,0
448,302,0,0,0,0,0,0,0,0,0,-1,1672,722,0,0
455,302,0,0,0,0,0,0,0,0,0,-1,1679,722,0,0
462,302,0,0,0,0,0,0,0,0,0,-1,1686,722,0,0
469,302,0,0,0,0,0,0,0,0,0,-1,1693,722,0,0
476,302,0,0,0,0,0,0,0,0,0,-1,1700,722,0,0
483,302,0,0,0,0,0,0,0,0,0,-1,1707,722,0,0
490,302,0,0,0,0,0,0,0,0,0,-1,1714,722,0,0
497,302,0,0,0,0,0,0,0,0,0,-1,1721,722,0,0
504,302,0,0,0,0,0,0,0,0,0,-1,1728,722,0,0
511,302,0,0,0,0,0,0,0,0,0,-1,1735,722,0,0
518,302,0,0,0,0,0,0,0,0,0,-1,1742,722,0,0
525,302,0,0,0,0,0,0,0,0,0,-1,1749,722,0,0
532,302,0,0,0,0,0,0,0,0,0,-1,1756,722,0,0
539,302,0,0,0,0,0,0,0,0,0,-1,1763,722,0,0
546,302,1.43115,0.0010376,0,0,0,0,0,0,0,-1,1770,722,1.43114,-0.0010429
553,302,1.64185,0.222046,0.00424286,-0.00593481,-0.0157572,0.0157126,-0.0174045,-0.629208,0.0191285,0.0450621,1777,722,1.6419,-0.22204
560,302,2.1936,0.268738,0.00298617,-0.00501167,-0.0161377,0.015613,-0.0176385,-0.663945,0.0192097,0.0460497,1784,722,2.19361,-0.268766
567,302,2.75525,0.341187,0,0,0,0,0,0,0,-1,1791,722,2.75522,-0.341165
574,302,3.37646,0.525024,0,0,0,0,0,0,0,-1,1798,722,3.37649,-0.524998
581,302,-0.407471,0.874695,0,0,0,0,0,0,0,-1,1805,722,-0.407413,-0.874687
588,302,-0.438965,0.430115,0.000118845,0.00170743,-0.013102,0.0140392,-0.0122129,-0.815673,0.0151689,0.0452536,1812,722,-0.438921,-0.430089
595,302,-0.632324,0.0718384,-8.47915e-05,0.00381064,-0.0112788,0.0133087,-0.00958283,-0.870899,0.0132746,0.0404487,1819,722,-0.632318,-0.0718096
602,302,-0.387939,-0.195251,0.000344228,0.00524463,-0.00956539,0.0126686,-0.00707979,-0.910779,0.011553,0.0424389,1826,722,-0.3879,0.195229
609,302,-0.00292969,-0.489868,0,0,0,0,0,0,0,-1,1833,722,-0.00287546,0.489852
616,302,-0.0460205,-0.190674,0.000765174,0.00657633,-0.00570284,0.0100711,-0.00272962,-1.02101,0.00778513,0.0308376,1840,722,-0.045989,0.190676
623,302,-0.0118408,-0.101074,0.000879122,0.00669748,-0.00392954,0.00867754,-0.00110093,-1.10404,0.00618475,0.0118068,1847,722,-0.01179,0.101081
630,302,-0.0384521,-0.0601807,0.0010029,0.00609407,-0.00246928,0.00709494,2.03121e-06,-1.1857,0.00472928,0.00931277,1854,722,-0.0384537,0.0601808
637,302,-0.0705566,-0.0387573,0.000873229,0.0051591,-0.00138544,0.00556795,0.000464377,-1.28384,0.00356727,0.0118904,1861,722,-0.0704977,0.0387841
644,302,-0.0354004,-0.0522461,0.000374711,0.00444433,-0.000495814,0.00450387,0.000315176,-1.45129,0.00290323,0.0138483,1868,722,-0.0354043,0.0522167
651,302,-0.000976563,-0.0593262,6.40129e-05,0.00361944,7.6051e-05,0.00362107,6.23869e-05,1.54942,0.00239352,0.0131477,1875,722,-0.000990144,0.0593188
658,302,0.00708008,-0.0620117,-0.000314383,0.00319765,-6.26231e-05,0.00319877,-0.000315499,-1.55297,0.00224508,0.0135909,1882,722,0.00711134,0.0620121
665,302,-0.012207,-0.0772705,-0.000488656,0.00247939,-0.00060354,0.00259743,-0.000606689,-1.37767,0.00196531,0.0128332,1889,722,-0.012155,0.0772442
672,302,-0.0253906,-0.0882568,-0.000367834,0.00184443,-0.00131935,0.00245999,-0.000983395,-1.13426,0.00204806,0.0105825,1896,722,-0.0253737,0.088229
679,302,-0.0321045,-0.0611572,-0.000332009,0.00176582,-0.00227075,0.00321821,-0.0017844,-1.00176,0.00292753,0.00902394,1903,722,-0.0320661,0.0611692
686,302,-0.0180664,-0.076416,-0.000280304,0.00178935,-0.00325411,0.00416921,-0.00266017,-0.939345,0.0039749,0.0115843,1910,722,-0.0180818,0.0764348
693,302,-0.0223389,-0.114441,-4.56975e-05,0.0017474,-0.00447618,0.00541594,-0.00371424,-0.884237,0.00530174,0.0212536,1917,722,-0.0222867,0.114454
700,302,-0.0734863,-0.223877,0.000396414,0.00146861,-0.00576607,0.00672345,-0.00485843,-0.831752,0.00671563,0.0399399,1924,722,-0.0734911,0.223851
707,302,-0.0129395,-0.489197,0.000913319,0.000665169,-0.00727667,0.00806697,-0.00648849,-0.776873,0.00842006,0.0436801,1931,722,-0.0128856,0.489169
714,302,0.00317383,-0.459839,0.00152021,-0.000893531,-0.00894039,0.00933482,-0.00870814,-0.718308,0.0104192,0.0431888,1938,722,0.00317846,0.459812
721,302,-0.22583,-0.519287,0.00214915,-0.00348869,-0.0107252,0.0104197,-0.0117593,-0.656889,0.0128128,0.0423124,1945,722,-0.225883,0.519286
728,302,-0.348022,-0.75,0.00270634,-0.00747458,-0.0125448,0.0111541,-0.0159224,-0.592657,0.0157132,0.0451308,1952,722,-0.348075,0.750008
735,302,0,0,0,0,0,0,0,0,0,-1,1959,722,0,0
742,302,0,0,0,0,0,0,0,0,0,-1,1966,722,0,0
749,302,0,0,0,0,0,0,0,0,0,-1,1973,722,0,0
756,302,0,0,0,0,0,0,0,0,0,-1,1980,722,0,0
763,302,0,0,0,0,0,0,0,0,0,-1,1987,722,0,0
770,302,0,0,0,0,0,0,0,0,0,-1,1994,722,0,0
777,302,0,0,0,0,0,0,0,0,0,-1,2001,722,0,0
784,302,0,0,0,0,0,0,0,0,0,-1,2008,722,0,0
791,302,0,0,0,0,0,0,0,0,0,-1,2015,722,0,0
798,302,0,0,0,0,0,0,0,0,0,-1,2022,722,0,0
805,302,0,0,0,0,0,0,0,0,0,-1,2029,722,0,0
812,302,0,0,0,0,0,0,0,0,0,-1,2036,722,0,0
-700,295,0,0,0,0,0,0,0,0,0,-1,524,729,0,0
-693,295,0,0,0,0,0,0,0,0,0,-1,531,729,0,0
-686,295,0,0,0,0,0,0,0,0,0,-1,538,729,0,0
-679,295,0,0,0,0,0,0,0,0,0,-1,545,729,0,0
-672,295,0,0,0,0,0,0,0,0,0,-1,552,729,0,0
-665,295,0,0,0,0,0,0,0,0,0,-1,559,729,0,0
-658,295,0,0,0,0,0,0,0,0,0,-1,566,729,0,0
-651,295,0,0,0,0,0,0,0,0,0,-1,573,729,0,0
-644,295,0,0,0,0,0,0,0,0,0,-1,580,729,0,0
-637,295,0,0,0,0,0,0,0,0,0,-1,587,729,0,0
-630,295,0,0,0,0,0,0,0,0,0,-1,594,729,0,0
-623,295,0,0,0,0,0,0,0,0,0,-1,601,729,0,0
-616,295,0.543518,-1.21228,0,0,0,0,0,0,0,-1,608,729,0.543513,1.21226
-609,295,1.07391,-0.839172,0,0,0,0,0,0,0,-1,615,729,1.07391,0.839151
-602,295,-0.62677,-0.367859,0,0,0,0,0,0,0,-1,622,729,-0.62674,0.367852
-595,295,-0.636414,-0.361816,0,0,0,0,0,0,0,-1,629,729,-0.636425,0.361796
-588,295,0.949951,-0.475342,0,0,0,0,0,0,0,-1,636,729,0.949941,0.475336
-581,295,-0.149353,0.471924,-0.00975504,-0.00752661,-0.00561893,-0.00291249,-0.0143692,-0.883277,0.0087713,0.0460703,643,729,-0.149327,-0.471911
-574,295,-0.261108,0.218384,-0.00806928,-0.00588211,-0.00502557,-0.00183251,-0.0121189,-0.89253,0.00754298,0.0432193,650,729,-0.261111,-0.21837
-567,295,-0.178101,-0.116882,-0.00639254,-0.00455818,-0.0042408,-0.00113651,-0.00981421,-0.891896,0.00619879,0.0359833,657,729,-0.178106,0.116856
-560,295,-0.0515747,-0.0799561,-0.00487667,-0.00360005,-0.00339457,-0.000784302,-0.00769242,-0.878332,0.00488786,0.0149667,664,729,-0.0516006,0.0799319
-553,295,-0.0272217,-0.0686035,-0.00351415,-0.00272631,-0.00278228,-0.000310206,-0.00593026,-0.855721,0.00385427,0.0133358,671,729,-0.0272188,0.0685999
-546,295,-0.041687,-0.0708008,-0.0023923,-0.00199241,-0.00188255,-0.000299215,-0.00408549,-0.838304,0.00262961,0.018111,678,729,-0.041669,0.0707768
-539,295,-0.065918,-0.0458374,-0.00201979,-0.00111617,-0.00077784,-0.000668444,-0.00246752,-1.04851,0.00147363,0.0170145,685,729,-0.0659179,0.045863
-532,295,-0.0631104,-0.0552979,-0.00197468,-0.000561112,-0.000144693,-0.000546453,-0.00198934,-1.46983,0.00118678,0.0140281,692,729,-0.0630936,0.0552907
-525,295,-0.0542603,-0.0630493,-0.00177616,-0.00031486,-2.94598e-05,-0.000314266,-0.00177675,-1.55065,0.00109489,0.0135997,699,729,-0.0542738,0.0630193
-518,295,-0.0330811,-0.0762939,-0.00241514,-0.000375526,0.000419477,-0.000292624,-0.00249805,1.37568,0.0015769,0.0100559,706,729,-0.0330542,0.0762673
-511,295,-0.0358887,-0.0755005,-0.00410226,-0.000563788,0.000783937,-0.000397887,-0.00426816,1.36225,0.00272252,0.00816262,713,729,-0.0358589,0.0754828
-504,295,-0.0249634,-0.0752563,-0.00642665,-0.000366071,0.00144971,-3.71481e-05,-0.00675557,1.34768,0.00449138,0.00988796,720,729,-0.024947,0.0752402
-497,295,-0.0378418,-0.0597534,-0.00820561,-0.000710017,0.00208713,-0.000168049,-0.00874758,1.31674,0.00577652,0.0132615,727,729,-0.037845,0.0597763
-490,295,-0.0641479,-0.0918579,-0.00987153,-0.00139642,0.00268009,-0.000620016,-0.0106479,1.28882,0.00690123,0.023456,734,729,-0.0641266,0.0918356
-483,295,-0.144043,-0.159424,-0.0114218,-0.00181726,0.0033272,-0.000777268,-0.0124618,1.26785,0.0080613,0.0416625,741,729,-0.144041,0.159435
-476,295,-0.565369,-0.380188,-0.0139733,-0.00262035,0.00361029,-0.00156953,-0.0150241,1.28756,0.00953607,0.0394945,748,729,-0.565361,0.380169
-469,295,-0.588806,-0.42511,-0.0169451,-0.00343033,0.00397295,-0.00234892,-0.0180265,1.30504,0.0113162,0.0450996,755,729,-0.58882,0.425098
-462,295,-0.589233,-0.267822,-0.020232,-0.00430365,0.00406563,-0.00332593,-0.0212097,1.33479,0.0131719,0.0489521,762,729,-0.58922,0.267852
-455,295,-2.43298,-0.855835,-0.0241613,-0.00514481,0.003689,-0.00445426,-0.0248518,1.38575,0.0153008,0.0489739,769,729,-2.43298,0.855864
-448,295,-2.78003,-0.805481,0,0,0,0,0,0,0,-1,776,729,-2.78004,0.80546
-441,295,0.137024,-0.460815,-0.0358749,-0.0055809,0.000935738,-0.00555202,-0.0359038,1.53995,0.0223166,0.0437471,783,729,0.136993,0.460793
-434,295,-0.0533447,-0.57312,-0.0452622,-0.00490896,-0.00158947,-0.00484645,-0.0453247,-1.53149,0.0287375,0.0447416,790,729,-0.0533522,0.573102
-427,295,0,0,0,0,0,0,0,0,0,-1,797,729,0,0
-420,295,0,0,0,0,0,0,0,0,0,-1,804,729,0,0
-413,295,0,0,0,0,0,0,0,0,0,-1,811,729,0,0
-406,295,0,0,0,0,0,0,0,0,0,-1,818,729,0,0
-399,295,0,0,0,0,0,0,0,0,0,-1,825,729,0,0
-392,295,0,0,0,0,0,0,0,0,0,-1,832,729,0,0
-385,295,0,0,0,0,0,0,0,0,0,-1,839,729,0,0
-378,295,0,0,0,0,0,0,0,0,0,-1,846,729,0,0
-371,295,0,0,0,0,0,0,0,0,0,-1,853,729,0,0
-364,295,0,0,0,0,0,0,0,0,0,-1,860,729,0,0
-357,295,0,0,0,0,0,0,0,0,0,-1,867,729,0,0
-350,295,0,0,0,0,0,0,0,0,0,-1,874,729,0,0
-343,295,0,0,0,0,0,0,0,0,0,-1,881,729,0,0
-336,295,0,0,0,0,0,0,0,0,0,-1,888,729,0,0
-329,295,0,0,0,0,0,0,0,0,0,-1,895,729,0,0
-322,295,0,0,0,0,0,0,0,0,0,-1,902,729,0,0
-315,295,0,0,0,0,0,0,0,0,0,-1,909,729,0,0
-308,295,0,0,0,0,0,0,0,0,0,-1,916,729,0,0
-301,295,0,0,0,0,0,0,0,0,0,-1,923,729,0,0
-294,295,0,0,0,0,0,0,0,0,0,-1,930,729,0,0
-287,295,0,0,0,0,0,0,0,0,0,-1,937,729,0,0
-280,295,0,0,0,0,0,0,0,0,0,-1,944,729,0,0
-273,295,0,0,0,0,0,0,0,0,0,-1,951,729,0,0
-266,295,0,0,0,0,0,0,0,0,0,-1,958,729,0,0
-259,295,0,0,0,0,0,0,0,0,0,-1,965,729,0,0
-252,295,0,0,0,0,0,0,0,0,0,-1,972,729,0,0
-245,295,0,0,0,0,0,0,0,0,0,-1,979,729,0,0
-238,295,0,0,0,0,0,0,0,0,0,-1,986,729,0,0
-231,295,0,0,0,0,0,0,0,0,0,-1,993,729,0,0
-224,295,0,0,0,0,0,0,0,0,0,-1,1000,729,0,0
-217,295,0,0,0,0,0,0,0,0,0,-1,1007,729,0,0
-210,295,0,0,0,0,0,0,0,0,0,-1,1014,729,0,0
-203,295,0,0,0,0,0,0,0,0,0,-1,1021,729,0,0
-196,295,0,0,0,0,0,0,0,0,0,-1,1028,729,0,0
-189,295,0,0,0,0,0,0,0,0,0,-1,1035,729,0,0
-182,295,0,0,0,0,0,0,0,0,0,-1,1042,729,0,0
-175,295,0,0,0,0,0,0,0,0,0,-1,1049,729,0,0
-168,295,0,0,0,0,0,0,0,0,0,-1,1056,729,0,0
-161,295,0,0,0,0,0,0,0,0,0,-1,1063,729,0,0
-154,295,0,0,0,0,0,0,0,0,0,-1,1070,729,0,0
-147,295,0,0,0,0,0,0,0,0,0,-1,1077,729,0,0
-140,295,0,0,0,0,0,0,0,0,0,-1,1084,729,0,0
-133,295,0,0,0,0,0,0,0,0,0,-1,1091,729,0,0
-126,295,0,0,0,0,0,0,0,0,0,-1,1098,729,0,0
-119,295,0,0,0,0,0,0,0,0,0,-1,1105,729,0,0
-112,295,0,0,0,0,0,0,0,0,0,-1,1112,729,0,0
-105,295,0,0,0,0,0,0,0,0,0,-1,1119,729,0,0
-98,295,0,0,0,0,0,0,0,0,0,-1,1126,729,0,0
-91,295,0,0,0,0,0,0,0,0,0,-1,1133,729,0,0
-84,295,0,0,0,0,0,0,0,0,0,-1,1140,729,0,0
-77,295,0,0,0,0,0,0,0,0,0,-1,1147,729,0,0
-70,295,0,0,0,0,0,0,0,0,0,-1,1154,729,0,0
-63,295,0,0,0,0,0,0,0,0,0,-1,1161,729,0,0
-56,295,0,0,0,0,0,0,0,0,0,-1,1168,729,0,0
-49,295,0,0,0,0,0,0,0,0,0,-1,1175,729,0,0
-42,295,0,0,0,0,0,0,0,0,0,-1,1182,729,0,0
-35,295,0,0,0,0,0,0,0,0,0,-1,1189,729,0,0
-28,295,0,0,0,0,0,0,0,0,0,-1,1196,729,0,0
-21,295,0,0,0,0,0,0,0,0,0,-1,1203,729,0,0
-14,295,0,0,0,0,0,0,0,0,0,-1,1210,729,0,0
-7,295,0,0,0,0,0,0,0,0,0,-1,1217,729,0,0
0,295,0,0,0,0,0,0,0,0,0,-1,1224,729,0,0
7,295,0,0,0,0,0,0,0,0,0,-1,1231,729,0,0
14,295,0,0,0,0,0,0,0,0,0,-1,1238,729,0,0
21,295,0,0,0,0,0,0,0,0,0,-1,1245,729,0,0
28,295,0,0,0,0,0,0,0,0,0,-1,1252,729,0,0
35,295,0,0,0,0,0,0,0,0,0,-1,1259,729,0,0
42,295,0,0,0,0,0,0,0,0,0,-1,1266,729,0,0
49,295,0,0,0,0,0,0,0,0,0,-1,1273,729,0,0
56,295,0,0,0,0,0,0,0,0,0,-1,1280,729,0,0
63,295,0,0,0,0,0,0,0,0,0,-1,1287,729,0,0
70,295,0,0,0,0,0,0,0,0,0,-1,1294,729,0,0
77,295,0,0,0,0,0,0,0,0,0,-1,1301,729,0,0
84,295,0,0,0,0,0,0,0,0,0,-1,1308,729,0,0
91,295,0,0,0,0,0,0,0,0,0,-1,1315,729,0,0
98,295,0,0,0,0,0,0,0,0,0,-1,1322,729,0,0
105,295,0,0,0,0,0,0,0,0,0,-1,1329,729,0,0
112,295,0,0,0,0,0,0,0,0,0,-1,1336,729,0,0
119,295,0,0,0,0,0,0,0,0,0,-1,1343,729,0,0
126,295,0,0,0,0,0,0,0,0,0,-1,1350,729,0,0
133,295,0,0,0,0,0,0,0,0,0,-1,1357,729,0,0
140,295,0,0,0,0,0,0,0,0,0,-1,1364,729,0,0
147,295,0,0,0,0,0,0,0,0,0,-1,1371,729,0,0
154,295,0,0,0,0,0,0,0,0,0,-1,1378,729,0,0
161,295,0,0,0,0,0,0,0,0,0,-1,1385,729,0,0
168,295,0,0,0,0,0,0,0,0,0,-1,1392,729,0,0
175,295,0,0,0,0,0,0,0,0,0,-1,1399,729,0,0
182,295,0,0,0,0,0,0,0,0,0,-1,1406,729,0,0
189,295,0,0,0,0,0,0,0,0,0,-1,1413,729,0,0
196,295,0,0,0,0,0,0,0,0,0,-1,1420,729,0,0
203,295,0,0,0,0,0,0,0,0,0,-1,1427,729,0,0
210,295,0,0,0,0,0,0,0,0,0,-1,1434,729,0,0
217,295,0,0,0,0,0,0,0,0,0,-1,1441,729,0,0
224,295,0,0,0,0,0,0,0,0,0,-1,1448,729,0,0
231,295,0,0,0,0,0,0,0,0,0,-1,1455,729,0,0
238,295,0,0,0,0,0,0,0,0,0,-1,1462,729,0,0
245,295,0,0,0,0,0,0,0,0,0,-1,1469,729,0,0
252,295,0,0,0,0,0,0,0,0,0,-1,1476,729,0,0
259,295,0,0,0,0,0,0,0,0,0,-1,1483,729,0,0
266,295,0,0,0,0,0,0,0,0,0,-1,1490,729,0,0
273,295,0,0,0,0,0,0,0,0,0,-1,1497,729,0,0
280,295,0,0,0,0,0,0,0,0,0,-1,1504,729,0,0
287,295,0,0,0,0,0,0,0,0,0,-1,1511,729,0,0
294,295,0,0,0,0,0,0,0,0,0,-1,1518,729,0,0
301,295,0,0,0,0,0,0,0,0,0,-1,1525,729,0,0
308,295,0,0,0,0,0,0,0,0,0,-1,1532,729,0,0
315,295,0,0,0,0,0,0,0,0,0,-1,1539,729,0,0
322,295,0,0,0,0,0,0,0,0,0,-1,1546,729,0,0
329,295,0,0,0,0,0,0,0,0,0,-1,1553,729,0,0
336,295,0,0,0,0,0,0,0,0,0,-1,1560,729,0,0
343,295,0,0,0,0,0,0,0,0,0,-1,1567,729,0,0
350,295,0,0,0,0,0,0,0,0,0,-1,1574,729,0,0
357,295,0,0,0,0,0,0,0,0,0,-1,1581,729,0,0
364,295,0,0,0,0,0,0,0,0,0,-1,1588,729,0,0
371,295,0,0,0,0,0,0,0,0,0,-1,1595,729,0,0
378,295,0,0,0,0,0,0,0,0,0,-1,1602,729,0,0
385,295,0,0,0,0,0,0,0,0,0,-1,1609,729,0,0
392,295,0,0,0,0,0,0,0,0,0,-1,1616,729,0,0
399,295,0,0,0,0,0,0,0,0,0,-1,1623,729,0,0
406,295,0,0,0,0,0,0,0,0,0,-1,1630,729,0,0
413,295,0,0,0,0,0,0,0,0,0,-1,1637,729,0,0
420,295,0,0,0,0,0,0,0,0,0,-1,1644,729,0,0
427,295,0,0,0,0,0,0,0,0,0,-1,1651,729,0,0
434,295,0,0,0,0,0,0,0,0,0,-1,1658,729,0,0
441,295,0,0,0,0,0,0,0,0,0,-1,1665,729,0,0
448,295,0,0,0,0,0,0,0,0,0,-1,1672,729,0,0
455,295,0,0,0,0,0,0,0,0,0,-1,1679,729,0,0
462,295,0,0,0,0,0,0,0,0,0,-1,1686,729,0,0
469,295,0,0,0,0,0,0,0,0,0,-1,1693,729,0,0
476,295,0,0,0,0,0,0,0,0,0,-1,1700,729,0,0
483,295,0,0,0,0,0,0,0,0,0,-1,1707,729,0,0
490,295,0,0,0,0,0,0,0,0,0,-1,1714,729,0,0
497,295,0,0,0,0,0,0,0,0,0,-1,1721,729,0,0
504,295,0,0,0,0,0,0,0,0,0,-1,1728,729,0,0
511,295,0,0,0,0,0,0,0,0,0,-1,1735,729,0,0
518,295,0,0,0,0,0,0,0,0,0,-1,1742,729,0,0
525,295,0,0,0,0,0,0,0,0,0,-1,1749,729,0,0
532,295,0,0,0,0,0,0,0,0,0,-1,1756,729,0,0
539,295,0,0,0,0,0,0,0,0,0,-1,1763,729,0,0
546,295,-0.44751,0.071106,0,0,0,0,0,0,0,-1,1770,729,-0.447527,-0.0710923
553,295,1.72864,0.122864,0,0,0,0,0,0,0,-1,1777,729,1.72868,-0.122856
560,295,2.5437,-0.102783,0,0,0,0,0,0,0,-1,1784,729,2.54374,0.102764
567,295,2.84351,0.0738525,0,0,0,0,0,0,0,-1,1791,729,2.84348,-0.0738368
574,295,-0.99292,1.01074,0,0,0,0,0,0,0,-1,1798,729,-0.99292,-1.01074
581,295,-0.298218,1.52612,0,0,0,0,0,0,0,-1,1805,729,-0.298166,-1.52613
588,295,-0.0113525,1.02209,0.000869719,0.00282637,-0.0132119,0.0150961,-0.0114001,-0.822355,0.0153471,0.0456373,1812,729,-0.0112963,-1.0221
595,295,0.0551758,0.214783,0.000570331,0.00530714,-0.0115924,0.0147706,-0.00889313,-0.886165,0.013802,0.0419365,1819,729,0.0551687,-0.21478
602,295,-0.291992,-0.341187,0.000856131,0.00706344,-0.00998064,0.0144119,-0.00649229,-0.936142,0.0123543,0.0403599,1826,729,-0.29195,0.341197
609,295,-0.21936,-0.410828,0.000982249,0.00831438,-0.00803248,0.0134779,-0.00418122,-0.999482,0.010656,0.0383277,1833,729,-0.219401,0.410818
616,295,-0.130371,-0.29303,0.000854255,0.0087596,-0.00598867,0.0119824,-0.00236857,-1.07709,0.00888369,0.0378354,1840,729,-0.130339,0.293012
623,295,-0.0480957,-0.160034,0.000833146,0.00884026,-0.00411852,0.0105805,-0.000907046,-1.17102,0.0073746,0.0211913,1847,729,-0.0480555,0.160047
630,295,-0.036377,-0.0665283,0.00083987,0.00807144,-0.00259844,0.00890828,3.03891e-06,-1.25923,0.00593784,0.010311,1854,729,-0.0363513,0.0665137
637,295,-0.0422363,-0.0524292,0.000671887,0.00690282,-0.00145513,0.00722589,0.000348816,-1.35232,0.0047053,0.0116345,1861,729,-0.042266,0.0524483
644,295,-0.029541,-0.0529785,0.000206594,0.00590712,-0.000497643,0.00595023,0.000163477,-1.48437,0.00391347,0.011933,1868,729,-0.0295327,0.05298
651,295,-0.0307617,-0.053894,-6.67458e-05,0.0047639,0.000202039,0.00477234,-7.51815e-05,1.52907,0.00320691,0.0116661,1875,729,-0.0307884,0.0539062
658,295,-0.0291748,-0.0648193,-0.000477276,0.00396221,0.000134461,0.00396628,-0.000481345,1.54055,0.00281837,0.0108153,1882,729,-0.0291667,0.0648454
665,295,-0.0314941,-0.086853,-0.000638165,0.00268789,-0.000336093,0.00272151,-0.000671786,-1.47109,0.00207484,0.0101234,1889,729,-0.0314469,0.0868549
672,295,-0.0338135,-0.101196,-0.000421761,0.00168164,-0.00105639,0.00212058,-0.000860707,-1.17699,0.00177174,0.0100378,1896,729,-0.033781,0.101174
679,295,-0.0462646,-0.0786743,-0.000311342,0.00126307,-0.00204086,0.00266328,-0.00171156,-0.969467,0.00254566,0.0071669,1903,729,-0.0463066,0.0786482
686,295,-0.0324707,-0.0823364,-0.000266548,0.000923332,-0.00304061,0.00342666,-0.00276987,-0.88201,0.00358426,0.00763812,1910,729,-0.0324431,0.0823207
693,295,-0.0152588,-0.0667725,-6.35369e-05,0.000452168,-0.00420599,0.0044082,-0.00401957,-0.816013,0.0048675,0.0154669,1917,729,-0.0152878,0.0667743
700,295,-0.052124,-0.0376587,0.000341081,-0.000314026,-0.00537939,0.00540288,-0.00537582,-0.75499,0.00622309,0.0300745,1924,729,-0.0521708,0.0376496
707,295,-0.0369873,-0.233582,0,0,0,0,0,0,0,-1,1931,729,-0.0369676,0.23358
714,295,-0.416504,0.155273,0.00130029,-0.00363474,-0.00835727,0.00754671,-0.00988116,-0.64185,0.010092,0.0385852,1938,729,-0.416518,-0.155253
721,295,-0.452881,-0.190002,0.00187301,-0.00661597,-0.0100207,0.00851109,-0.0132541,-0.585068,0.0126652,0.0418534,1945,729,-0.452847,0.189985
728,295,-0.667603,-0.519653,0.0024385,-0.0108025,-0.0116968,0.00925847,-0.0176225,-0.527873,0.0157682,0.0457443,1952,729,-0.667592,0.519648
735,295,0,0,0,0,0,0,0,0,0,-1,1959,729,0,0
742,295,0,0,0,0,0,0,0,0,0,-1,1966,729,0,0
749,295,0,0,0,0,0,0,0,0,0,-1,1973,729,0,0
756,295,0,0,0,0,0,0,0,0,0,-1,1980,729,0,0
763,295,0,0,0,0,0,0,0,0,0,-1,1987,729,0,0
770,295,0,0,0,0,0,0,0,0,0,-1,1994,729,0,0
777,295,0,0,0,0,0,0,0,0,0,-1,2001,729,0,0
784,295,0,0,0,0,0,0,0,0,0,-1,2008,729,0,0
791,295,0,0,0,0,0,0,0,0,0,-1,2015,729,0,0
798,295,0,0,0,0,0,0,0,0,0,-1,2022,729,0,0
805,295,0,0,0,0,0,0,0,0,0,-1,2029,729,0,0
812,295,0,0,0,0,0,0,0,0,0,-1,2036,729,0,0
-700,288,0,0,0,0,0,0,0,0,0,-1,524,736,0,0
-693,288,0,0,0,0,0,0,0,0,0,-1,531,736,0,0
-686,288,0,0,0,0,0,0,0,0,0,-1,538,736,0,0
-679,288,0,0,0,0,0,0,0,0,0,-1,545,736,0,0
-672,288,0,0,0,0,0,0,0,0,0,-1,552,736,0,0
-665,288,0,0,0,0,0,0,0,0,0,-1,559,736,0,0
-658,288,0,0,0,0,0,0,0,0,0,-1,566,736,0,0
-651,288,0,0,0,0,0,0,0,0,0,-1,573,736,0,0
-644,288,0,0,0,0,0,0,0,0,0,-1,580,736,0,0
-637,288,0,0,0,0,0,0,0,0,0,-1,587,736,0,0
-630,288,0,0,0,0,0,0,0,0,0,-1,594,736,0,0
-623,288,0,0,0,0,0,0,0,0,0,-1,601,736,0,0
-616,288,0.683289,-0.770386,-0.0170371,-0.0124227,0.00467488,-0.00951665,-0.0199431,1.01463,0.0115181,0.0449159,608,736,0.683305,0.770416
-609,288,0.843811,-0.817749,-0.0159221,-0.0108397,0.00217148,-0.0100383,-0.0167235,1.21724,0.00971978,0.0479792,615,736,0.843785,0.817737
-602,288,0.81604,-0.539185,0,0,0,0,0,0,0,-1,622,736,0.816029,0.539188
-595,288,0.540466,-0.504333,0,0,0,0,0,0,0,-1,629,736,0.540477,0.504357
-588,288,0.388977,-0.419495,0,0,0,0,0,0,0,-1,636,736,0.388971,0.419504
-581,288,-0.0143433,-0.0518188,0,0,0,0,0,0,0,-1,643,736,-0.0143405,0.051843
-574,288,-0.0928955,-0.0701904,-0.00749005,-0.00408184,-0.00272154,-0.00257491,-0.00899697,-1.06511,0.00535036,0.0322821,650,736,-0.0928719,0.0701892
-567,288,-0.0742798,-0.134033,-0.00586069,-0.00311694,-0.00267738,-0.00148043,-0.00749721,-1.02215,0.00458504,0.0179316,657,736,-0.07425,0.134021
-560,288,-0.0373535,-0.0795898,-0.00443915,-0.00242621,-0.00237971,-0.000848888,-0.00601647,-0.985459,0.00376009,0.0106969,664,736,-0.0373663,0.0795998
-553,288,-0.00189209,-0.0808716,-0.0032238,-0.0017968,-0.00221178,-0.00018629,-0.00483431,-0.941424,0.00316261,0.0162163,671,736,-0.00191192,0.080844
-546,288,-0.00842285,-0.0734253,-0.00230386,-0.00128807,-0.0015747,-0.000141382,-0.00345055,-0.941398,0.00225472,0.0171054,678,736,-0.00840817,0.0734439
-539,288,-0.0281982,-0.0568848,-0.00198663,-0.000637056,-0.000726771,-0.00032011,-0.00230357,-1.15956,0.00144091,0.0142917,685,736,-0.0281728,0.0568674
-532,288,-0.022644,-0.0700684,-0.00195967,-8.13724e-05,-6.37458e-05,-7.92115e-05,-0.00196183,-1.53691,0.0012823,0.0109759,692,736,-0.022646,0.0700525
-525,288,-0.0249023,-0.0784302,-0.001921,0.000155791,7.70575e-05,0.000158646,-0.00192386,1.53376,0.00133859,0.0108822,699,736,-0.024929,0.0784382
-518,288,-0.0332642,-0.0820313,-0.00268386,9.27387e-05,0.00059301,0.000214087,-0.0028052,1.36895,0.00194543,0.0113085,706,736,-0.0332339,0.0820415
-511,288,-0.0422974,-0.0733643,-0.00441467,-0.000235923,0.00100226,-7.9684e-06,-0.00464262,1.34716,0.00309243,0.00844123,713,736,-0.0423139,0.0733611
-504,288,-0.036438,-0.0692749,-0.00674145,-0.000129974,0.00171112,0.000286632,-0.00715806,1.33197,0.00487039,0.0100823,720,736,-0.0364568,0.0692807
-497,288,-0.0304565,-0.0883179,-0.00856854,-0.000511049,0.00236189,0.000130251,-0.00920984,1.30567,0.00618377,0.0176677,727,736,-0.0304413,0.0883459
-490,288,-0.201111,-0.192627,-0.0103383,-0.00128785,0.00294167,-0.000415757,-0.0112104,1.28259,0.00733896,0.0373403,734,736,-0.201108,0.19264
-483,288,-0.447388,-0.279297,-0.0120642,-0.00174817,0.00356047,-0.000638646,-0.0131737,1.26871,0.00857755,0.0415338,741,736,-0.447388,0.279294
-476,288,-0.63739,-0.401245,-0.0146894,-0.00270448,0.003942,-0.00152414,-0.0158697,1.27987,0.0101101,0.0426268,748,736,-0.637412,0.401217
-469,288,-0.779663,-0.462463,-0.0175689,-0.00371579,0.00432694,-0.00247537,-0.0188093,1.29161,0.0118013,0.0491376,755,736,-0.779676,0.462462
-462,288,-0.871338,-0.408386,-0.0204445,-0.00484544,0.00438317,-0.0036982,-0.0215918,1.3148,0.0133339,0.0496146,762,736,-0.871316,0.408372
-455,288,-1.11023,-0.530151,0,0,0,0,0,0,0,-1,769,736,-1.11021,0.53018
-448,288,0.0484009,0.173645,-0.0273557,-0.00691083,0.00269978,-0.00656033,-0.0277062,1.44169,0.0167187,0.0432582,776,736,0.0483734,-0.173674
-441,288,-0.223877,-0.387207,-0.0323365,-0.00750896,0.000443818,-0.00750103,-0.0323444,1.55293,0.0195483,0.040401,783,736,-0.223864,0.387185
-434,288,-0.185852,-0.55896,-0.0396221,-0.00750349,-0.00293245,-0.00723795,-0.0398877,-1.48049,0.0245376,0.0404501,790,736,-0.18583,0.558932
-427,288,0,0,0,0,0,0,0,0,0,-1,797,736,0,0
-420,288,0,0,0,0,0,0,0,0,0,-1,804,736,0,0
-413,288,0,0,0,0,0,0,0,0,0,-1,811,736,0,0
-406,288,0,0,0,0,0,0,0,0,0,-1,818,736,0,0
-399,288,0,0,0,0,0,0,0,0,0,-1,825,736,0,0
-392,288,0,0,0,0,0,0,0,0,0,-1,832,736,0,0
-385,288,0,0,0,0,0,0,0,0,0,-1,839,736,0,0
-378,288,0,0,0,0,0,0,0,0,0,-1,846,736,0,0
-371,288,0,0,0,0,0,0,0,0,0,-1,853,736,0,0
-364,288,0,0,0,0,0,0,0,0,0,-1,860,736,0,0
-357,288,0,0,0,0,0,0,0,0,0,-1,867,736,0,0
-350,288,0,0,0,0,0,0,0,0,0,-1,874,736,0,0
-343,288,0,0,0,0,0,0,0,0,0,-1,881,736,0,0
-336,288,0,0,0,0,0,0,0,0,0,-1,888,736,0,0
-329,288,0,0,0,0,0,0,0,0,0,-1,895,736,0,0
-322,288,0,0,0,0,0,0,0,0,0,-1,902,736,0,0
-315,288,0,0,0,0,0,0,0,0,0,-1,909,736,0,0
-308,288,0,0,0,0,0,0,0,0,0,-1,916,736,0,0
-301,288,0,0,0,0,0,0,0,0,0,-1,923,736,0,0
-294,288,0,0,0,0,0,0,0,0,0,-1,930,736,0,0
-287,288,0,0,0,0,0,0,0,0,0,-1,937,736,0,0
-280,288,0,0,0,0,0,0,0,0,0,-1,944,736,0,0
-273,288,0,0,0,0,0,0,0,0,0,-1,951,736,0,0
-266,288,0,0,0,0,0,0,0,0,0,-1,958,736,0,0
-259,288,0,0,0,0,0,0,0,0,0,-1,965,736,0,0
-252,288,0,0,0,0,0,0,0,0,0,-1,972,736,0,0
-245,288,0,0,0,0,0,0,0,0,0,-1,979,736,0,0
-238,288,0,0,0,0,0,0,0,0,0,-1,986,736,0,0
-231,288,0,0,0,0,0,0,0,0,0,-1,993,736,0,0
-224,288,0,0,0,0,0,0,0,0,0,-1,1000,736,0,0
-217,288,0,0,0,0,0,0,0,0,0,-1,1007,736,0,0
-210,288,0,0,0,0,0,0,0,0,0,-1,1014,736,0,0
-203,288,0,0,0,0,0,0,0,0,0,-1,1021,736,0,0
-196,288,0,0,0,0,0,0,0,0,0,-1,1028,736,0,0
-189,288,0,0,0,0,0,0,0,0,0,-1,1035,736,0,0
-182,288,0,0,0,0,0,0,0,0,0,-1,1042,736,0,0
-175,288,0,0,0,0,0,0,0,0,0,-1,1049,736,0,0
-168,288,0,0,0,0,0,0,0,0,0,-1,1056,736,0,0
-161,288,0,0,0,0,0,0,0,0,0,-1,1063,736,0,0
-154,288,0,0,0,0,0,0,0,0,0,-1,1070,736,0,0
-147,288,0,0,0,0,0,0,0,0,0,-1,1077,736,0,0
-140,288,0,0,0,0,0,0,0,0,0,-1,1084,736,0,0
-133,288,0,0,0,0,0,0,0,0,0,-1,1091,736,0,0
-126,288,0,0,0,0,0,0,0,0,0,-1,1098,736,0,0
-119,288,0,0,0,0,0,0,0,0,0,-1,1105,736,0,0
-112,288,0,0,0,0,0,0,0,0,0,-1,1112,736,0,0
-105,288,0,0,0,0,0,0,0,0,0,-1,1119,736,0,0
-98,288,0,0,0,0,0,0,0,0,0,-1,1126,736,0,0
-91,288,0,0,0,0,0,0,0,0,0,-1,1133,736,0,0
-84,288,0,0,0,0,0,0,0,0,0,-1,1140,736,0,0
-77,288,0,0,0,0,0,0,0,0,0,-1,1147,736,0,0
-70,288,0,0,0,0,0,0,0,0,0,-1,1154,736,0,0
-63,288,0,0,0,0,0,0,0,0,0,-1,1161,736,0,0
-56,288,0,0,0,0,0,0,0,0,0,-1,1168,736,0,0
-49,288,0,0,0,0,0,0,0,0,0,-1,1175,736,0,0
-42,288,0,0,0,0,0,0,0,0,0,-1,1182,736,0,0
-35,288,0,0,0,0,0,0,0,0,0,-1,1189,736,0,0
-28,288,0,0,0,0,0,0,0,0,0,-1,1196,736,0,0
-21,288,0,0,0,0,0,0,0,0,0,-1,1203,736,0,0
-14,288,0,0,0,0,0,0,0,0,0,-1,1210,736,0,0
-7,288,0,0,0,0,0,0,0,0,0,-1,1217,736,0,0
0,288,0,0,0,0,0,0,0,0,0,-1,1224,736,0,0
7,288,0,0,0,0,0,0,0,0,0,-1,1231,736,0,0
14,288,0,0,0,0,0,0,0,0,0,-1,1238,736,0,0
21,288,0,0,0,0,0,0,0,0,0,-1,1245,736,0,0
28,288,0,0,0,0,0,0,0,0,0,-1,1252,736,0,0
35,288,0,0,0,0,0,0,0,0,0,-1,1259,736,0,0
42,288,0,0,0,0,0,0,0,0,0,-1,1266,736,0,0
49,288,0,0,0,0,0,0,0,0,0,-1,1273,736,0,0
56,288,0,0,0,0,0,0,0,0,0,-1,1280,736,0,0
63,288,0,0,0,0,0,0,0,0,0,-1,1287,736,0,0
70,288,0,0,0,0,0,0,0,0,0,-1,1294,736,0,0
77,288,0,0,0,0,0,0,0,0,0,-1,1301,736,0,0
84,288,0,0,0,0,0,0,0,0,0,-1,1308,736,0,0
91,288,0,0,0,0,0,0,0,0,0,-1,1315,736,0,0
98,288,0,0,0,0,0,0,0,0,0,-1,1322,736,0,0
105,288,0,0,0,0,0,0,0,0,0,-1,1329,736,0,0
112,288,0,0,0,0,0,0,0,0,0,-1,1336,736,0,0
119,288,0,0,0,0,0,0,0,0,0,-1,1343,736,0,0
126,288,0,0,0,0,0,0,0,0,0,-1,1350,736,0,0
133,288,0,0,0,0,0,0,0,0,0,-1,1357,736,0,0
140,288,0,0,0,0,0,0,0,0,0,-1,1364,736,0,0
147,288,0,0,0,0,0,0,0,0,0,-1,1371,736,0,0
154,288,0,0,0,0,0,0,0,0,0,-1,1378,736,0,0
161,288,0,0,0,0,0,0,0,0,0,-1,1385,736,0,0
168,288,0,0,0,0,0,0,0,0,0,-1,1392,736,0,0
175,288,0,0,0,0,0,0,0,0,0,-1,1399,736,0,0
182,288,0,0,0,0,0,0,0,0,0,-1,1406,736,0,0
189,288,0,0,0,0,0,0,0,0,0,-1,1413,736,0,0
196,288,0,0,0,0,0,0,0,0,0,-1,1420,736,0,0
203,288,0,0,0,0,0,0,0,0,0,-1,1427,736,0,0
210,288,0,0,0,0,0,0,0,0,0,-1,1434,736,0,0
217,288,0,0,0,0,0,0,0,0,0,-1,1441,736,0,0
224,288,0,0,0,0,0,0,0,0,0,-1,1448,736,0,0
231,288,0,0,0,0,0,0,0,0,0,-1,1455,736,0,0
238,288,0,0,0,0,0,0,0,0,0,-1,1462,736,0,0
245,288,0,0,0,0,0,0,0,0,0,-1,1469,736,0,0
252,288,0,0,0,0,0,0,0,0,0,-1,1476,736,0,0
259,288,0,0,0,0,0,0,0,0,0,-1,1483,736,0,0
266,288,0,0,0,0,0,0,0,0,0,-1,1490,736,0,0
273,288,0,0,0,0,0,0,0,0,0,-1,1497,736,0,0
280,288,0,0,0,0,0,0,0,0,0,-1,1504,736,0,0
287,288,0,0,0,0,0,0,0,0,0,-1,1511,736,0,0
294,288,0,0,0,0,0,0,0,0,0,-1,1518,736,0,0
301,288,0,0,0,0,0,0,0,0,0,-1,1525,736,0,0
308,288,0,0,0,0,0,0,0,0,0,-1,1532,736,0,0
315,288,0,0,0,0,0,0,0,0,0,-1,1539,736,0,0
322,288,0,0,0,0,0,0,0,0,0,-1,1546,736,0,0
329,288,0,0,0,0,0,0,0,0,0,-1,1553,736,0,0
336,288,0,0,0,0,0,0,0,0,0,-1,1560,736,0,0
343,288,0,0,0,0,0,0,0,0,0,-1,1567,736,0,0
350,288,0,0,0,0,0,0,0,0,0,-1,1574,736,0,0
357,288,0,0,0,0,0,0,0,0,0,-1,1581,736,0,0
364,288,0,0,0,0,0,0,0,0,0,-1,1588,736,0,0
371,288,0,0,0,0,0,0,0,0,0,-1,1595,736,0,0
378,288,0,0,0,0,0,0,0,0,0,-1,1602,736,0,0
385,288,0,0,0,0,0,0,0,0,0,-1,1609,736,0,0
392,288,0,0,0,0,0,0,0,0,0,-1,1616,736,0,0
399,288,0,0,0,0,0,0,0,0,0,-1,1623,736,0,0
406,288,0,0,0,0,0,0,0,0,0,-1,1630,736,0,0
413,288,0,0,0,0,0,0,0,0,0,-1,1637,736,0,0
420,288,0,0,0,0,0,0,0,0,0,-1,1644,736,0,0
427,288,0,0,0,0,0,0,0,0,0,-1,1651,736,0,0
434,288,0,0,0,0,0,0,0,0,0,-1,1658,736,0,0
441,288,0,0,0,0,0,0,0,0,0,-1,1665,736,0,0
448,288,0,0,0,0,0,0,0,0,0,-1,1672,736,0,0
455,288,0,0,0,0,0,0,0,0,0,-1,1679,736,0,0
462,288,0,0,0,0,0,0,0,0,0,-1,1686,736,0,0
469,288,0,0,0,0,0,0,0,0,0,-1,1693,736,0,0
476,288,0,0,0,0,0,0,0,0,0,-1,1700,736,0,0
483,288,0,0,0,0,0,0,0,0,0,-1,1707,736,0,0
490,288,0,0,0,0,0,0,0,0,0,-1,1714,736,0,0
497,288,0,0,0,0,0,0,0,0,0,-1,1721,736,0,0
504,288,0,0,0,0,0,0,0,0,0,-1,1728,736,0,0
511,288,0,0,0,0,0,0,0,0,0,-1,1735,736,0,0
518,288,0,0,0,0,0,0,0,0,0,-1,1742,736,0,0
525,288,0,0,0,0,0,0,0,0,0,-1,1749,736,0,0
532,288,0,0,0,0,0,0,0,0,0,-1,1756,736,0,0
539,288,0,0,0,0,0,0,0,0,0,-1,1763,736,0,0
546,288,0,0,0,0,0,0,0,0,0,-1,1770,736,0,0
553,288,2.14209,-0.784729,0,0,0,0,0,0,0,-1,1777,736,2.14207,0.784719
560,288,2.32312,-0.829224,0,0,0,0,0,0,0,-1,1784,736,2.32312,0.829194
567,288,2.50415,-0.873657,0,0,0,0,0,0,0,-1,1791,736,2.50417,0.873668
574,288,0.168701,-1.45947,0,0,0,0,0,0,0,-1,1798,736,0.168759,1.45946
581,288,0.205811,-1.00012,0,0,0,0,0,0,0,-1,1805,736,0.205808,1.00009
588,288,0.0579834,1.59534,0,0,0,0,0,0,0,-1,1812,736,0.0579777,-1.59532
595,288,-0.375,-0.395935,0.000941105,0.00641125,-0.0113635,0.0153641,-0.00801179,-0.903497,0.0137168,0.0440717,1819,736,-0.374957,0.395922
602,288,-0.223389,-0.467163,0.00116341,0.00865786,-0.00989728,0.0154935,-0.00567226,-0.966365,0.012651,0.0398587,1826,736,-0.223439,0.467142
609,288,-0.151855,-0.506287,0.00104065,0.0102416,-0.00798745,0.0148587,-0.00357645,-1.04668,0.0112884,0.0391818,1833,736,-0.151899,0.50629
616,288,-0.197876,-0.361572,0.000655382,0.0108323,-0.0059385,0.0135642,-0.00207653,-1.13963,0.00980852,0.0410849,1840,736,-0.19791,0.361559
623,288,-0.0809326,-0.176086,0.000469866,0.0108807,-0.00406597,0.0122804,-0.000929906,-1.23924,0.00851387,0.0348377,1847,736,-0.0809517,0.176078
630,288,-0.0290527,-0.074585,0.000355108,0.00998081,-0.00257662,0.0106271,-0.000291209,-1.32503,0.00718379,0.0168615,1854,736,-0.0290108,0.0746067
637,288,-0.0300293,-0.0631714,0.000160768,0.00859492,-0.00145765,0.00883974,-8.40463e-05,-1.4044,0.00592137,0.00933274,1861,736,-0.0300015,0.063181
644,288,-0.0206299,-0.0692139,-0.000245592,0.00730643,-0.000493066,0.00733848,-0.000277648,-1.50587,0.00498745,0.00901518,1868,736,-0.0206313,0.0692378
651,288,-0.0294189,-0.0786133,-0.000469527,0.00580234,0.00028873,0.00581561,-0.000482791,1.52489,0.00404761,0.0103954,1875,736,-0.0294186,0.0785861
658,288,-0.0355225,-0.0663452,-0.000893259,0.00456371,0.000256037,0.00457569,-0.000905246,1.52401,0.00339271,0.0144068,1882,736,-0.0355093,0.0663327
665,288,-0.0513916,-0.0853882,-0.00101814,0.00271039,-0.000156096,0.00271691,-0.00102466,-1.52903,0.00223263,0.0141829,1889,736,-0.051331,0.0854136
672,288,-0.0389404,-0.0997925,-0.000700489,0.00131574,-0.000894718,0.00165552,-0.00104027,-1.20786,0.00156987,0.0104851,1896,736,-0.0388804,0.0997964
679,288,-0.0413818,-0.0737305,-0.000514215,0.000590482,-0.00191449,0.00203071,-0.00195444,-0.925839,0.00230097,0.00802293,1903,736,-0.0414317,0.0737122
686,288,-0.0325928,-0.081665,-0.000483873,-7.82668e-05,-0.00294041,0.00266633,-0.00322847,-0.819829,0.00340852,0.0072112,1910,736,-0.0325992,0.0816705
693,288,-0.0183105,-0.0823364,-0.000330982,-0.000895635,-0.0040446,0.00344113,-0.00466775,-0.750553,0.00469948,0.0101833,1917,736,-0.0183526,0.0823428
700,288,-0.03479,-0.0403442,1.99427e-05,-0.00200697,-0.0050956,0.00420189,-0.00618892,-0.687235,0.00603559,0.0196235,1924,736,-0.0347737,0.04033
707,288,-0.21814,-0.0160522,0.000355604,-0.00358937,-0.00636442,0.00504619,-0.00827996,-0.63513,0.007769,0.032699,1931,736,-0.218199,0.0160517
714,288,-0.466309,0.027832,0.000773828,-0.00581937,-0.00773916,0.00588925,-0.0109348,-0.584055,0.0098579,0.041704,1938,736,-0.466317,-0.0278139
721,288,-0.576172,0.0267944,0.00125967,-0.00887362,-0.0091744,0.00667351,-0.0142875,-0.53311,0.0123651,0.0465855,1945,736,-0.57616,-0.0267833
728,288,-0.327026,-0.127502,0.00177646,-0.0129237,-0.0105832,0.00731153,-0.0184587,-0.481883,0.0153354,0.0466094,1952,736,-0.327064,0.127483
735,288,-0.345459,-0.441223,0.0023474,-0.0181455,-0.0118569,0.00777184,-0.02357,-0.429065,0.0188459,0.0457082,1959,736,-0.345513,0.441244
742,288,0,0,0,0,0,0,0,0,0,-1,1966,736,0,0
749,288,0,0,0,0,0,0,0,0,0,-1,1973,736,0,0
756,288,0,0,0,0,0,0,0,0,0,-1,1980,736,0,0
763,288,0,0,0,0,0,0,0,0,0,-1,1987,736,0,0
770,288,0,0,0,0,0,0,0,0,0,-1,1994,736,0,0
777,288,0,0,0,0,0,0,0,0,0,-1,2001,736,0,0
784,288,0,0,0,0,0,0,0,0,0,-1,2008,736,0,0
791,288,0,0,0,0,0,0,0,0,0,-1,2015,736,0,0
798,288,0,0,0,0,0,0,0,0,0,-1,2022,736,0,0
805,288,0,0,0,0,0,0,0,0,0,-1,2029,736,0,0
812,288,0,0,0,0,0,0,0,0,0,-1,2036,736,0,0
-700,281,0,0,0,0,0,0,0,0,0,-1,524,743,0,0
-693,281,0,0,0,0,0,0,0,0,0,-1,531,743,0,0
-686,281,0,0,0,0,0,0,0,0,0,-1,538,743,0,0
-679,281,0,0,0,0,0,0,0,0,0,-1,545,743,0,0
-672,281,0,0,0,0,0,0,0,0,0,-1,552,743,0,0
-665,281,0,0,0,0,0,0,0,0,0,-1,559,743,0,0
-658,281,0,0,0,0,0,0,0,0,0,-1,566,743,0,0
-651,281,0,0,0,0,0,0,0,0,0,-1,573,743,0,0
-644,281,0,0,0,0,0,0,0,0,0,-1,580,743,0,0
-637,281,0,0,0,0,0,0,0,0,0,-1,587,743,0,0
-630,281,0,0,0,0,0,0,0,0,0,-1,594,743,0,0
-623,281,0.911743,-1.11902,0,0,0,0,0,0,0,-1,601,743,0.911757,1.119
-616,281,0.773743,-0.950623,-0.0172057,-0.00716939,0.0115668,0.000420931,-0.024796,0.990066,0.0166728,0.0486545,608,743,0.773773,0.950652
-609,281,0.581299,-0.78595,-0.0156365,-0.00658496,0.00838014,-0.0015866,-0.0206349,1.03299,0.0132594,0.0443287,615,743,0.581281,0.785974
-602,281,0.477783,-0.390869,-0.0137556,-0.0058302,0.00563455,-0.00290441,-0.0166813,1.09186,0.0102903,0.0457272,622,743,0.477761,0.390863
-595,281,0.232788,-0.0671387,-0.0118055,-0.00496727,0.0033868,-0.00357382,-0.013199,1.18047,0.00788287,0.0495975,629,743,0.232792,0.06716
-588,281,-0.0108643,-0.0899048,-0.00991405,-0.00421787,0.00167085,-0.00376394,-0.010368,1.30552,0.00606036,0.0475823,636,743,-0.0108852,0.089879
-581,281,0.00811768,0.0244141,-0.00812298,-0.00349599,0.000373067,-0.0034661,-0.00815286,1.49086,0.00472461,0.0448197,643,743,0.00814726,-0.024419
-574,281,-0.0217896,-0.0566406,-0.00641205,-0.00257279,-0.000629941,-0.00247207,-0.00651277,-1.41225,0.00379633,0.0246299,650,743,-0.0217957,0.0566225
-567,281,-0.0454102,-0.0908813,-0.0048746,-0.00189499,-0.00120187,-0.00147064,-0.00529895,-1.23138,0.00315868,0.0101304,657,743,-0.0454387,0.090886
-560,281,-0.02948,-0.0755005,-0.00356,-0.00137055,-0.00140937,-0.000680696,-0.00424986,-1.1156,0.0026358,0.00786699,664,743,-0.029478,0.0755095
-553,281,0.00378418,-0.072998,-0.00248006,-0.000954891,-0.0016555,0.000105222,-0.00354017,-1.00123,0.00239596,0.0130635,671,743,0.00376299,0.0729718
-546,281,0.00158691,-0.0648804,-0.00180845,-0.000659485,-0.00126645,0.000156694,-0.00262463,-0.998325,0.00180425,0.0136654,678,743,0.00157303,0.0648843
-539,281,-0.000976563,-0.0635376,-0.00162183,-0.000204777,-0.000680145,6.88409e-05,-0.00189545,-1.18831,0.00128719,0.0114085,685,743,-0.000964234,0.0635493
-532,281,-0.00396729,-0.0697021,-0.00166695,0.000343302,-3.55739e-05,0.000343931,-0.00166758,-1.55311,0.00124234,0.00961354,692,743,-0.00393998,0.0697274
-525,281,-0.0199585,-0.0707397,-0.00180727,0.000589448,9.63502e-05,0.000593315,-0.00181114,1.53068,0.00144635,0.0112392,699,743,-0.0199741,0.0707566
-518,281,-0.0186157,-0.0756836,-0.00269764,0.000549799,0.000622341,0.000664979,-0.00281283,1.38779,0.00213173,0.0119156,706,743,-0.0186047,0.0757106
-511,281,-0.0327759,-0.0770264,-0.00447358,0.000130979,0.00103243,0.000351872,-0.00469447,1.36002,0.00325329,0.0102162,713,743,-0.0327649,0.0770439
-504,281,-0.0217285,-0.0910645,-0.00678724,0.000177537,0.00174668,0.000591035,-0.00720074,1.33834,0.00500914,0.0118206,720,743,-0.0217062,0.0910674
-497,281,0.0157471,-0.148804,-0.00869091,-0.000193497,0.00238643,0.000430842,-0.00931524,1.31491,0.00635864,0.0298592,727,743,0.015765,0.1488
-490,281,-0.043335,-0.195435,-0.0105917,-0.00100662,0.00293933,-0.00017705,-0.0114213,1.29572,0.00755585,0.0411757,734,743,-0.043365,0.19544
-483,281,-0.149292,-0.238953,0,0,0,0,0,0,0,-1,741,743,-0.149263,0.238958
-476,281,-0.555176,-0.312134,-0.0153784,-0.0025571,0.00406082,-0.00137916,-0.0165563,1.28847,0.0106078,0.0448335,748,743,-0.555151,0.312146
-469,281,-0.612244,-0.377136,-0.0180915,-0.00375882,0.00445548,-0.0024867,-0.0193636,1.29268,0.0121652,0.0488005,755,743,-0.612214,0.377106
-462,281,-0.703186,-0.427795,-0.0205422,-0.00512946,0.00452937,-0.00389696,-0.0217747,1.30512,0.0134076,0.0474135,762,743,-0.703162,0.427817
-455,281,-0.842041,-0.47699,0,0,0,0,0,0,0,-1,769,743,-0.842024,0.47699
-448,281,-0.255127,0.376953,-0.024694,-0.00802197,0.00288577,-0.00753659,-0.0251793,1.40416,0.0149225,0.0440873,776,743,-0.255129,-0.376977
-441,281,-0.245972,-0.0374146,-0.0269554,-0.0091678,0.000505389,-0.00915345,-0.0269697,1.54241,0.0158365,0.0411644,783,743,-0.245942,0.0374167
-434,281,0,0,0,0,0,0,0,0,0,-1,790,743,0,0
-427,281,0,0,0,0,0,0,0,0,0,-1,797,743,0,0
-420,281,0,0,0,0,0,0,0,0,0,-1,804,743,0,0
-413,281,0,0,0,0,0,0,0,0,0,-1,811,743,0,0
-406,281,0,0,0,0,0,0,0,0,0,-1,818,743,0,0
-399,281,0,0,0,0,0,0,0,0,0,-1,825,743,0,0
-392,281,0,0,0,0,0,0,0,0,0,-1,832,743,0,0
-385,281,0,0,0,0,0,0,0,0,0,-1,839,743,0,0
-378,281,0,0,0,0,0,0,0,0,0,-1,846,743,0,0
-371,281,0,0,0,0,0,0,0,0,0,-1,853,743,0,0
-364,281,0,0,0,0,0,0,0,0,0,-1,860,743,0,0
-357,281,0,0,0,0,0,0,0,0,0,-1,867,743,0,0
-350,281,0,0,0,0,0,0,0,0,0,-1,874,743,0,0
-343,281,0,0,0,0,0,0,0,0,0,-1,881,743,0,0
-336,281,0,0,0,0,0,0,0,0,0,-1,888,743,0,0
-329,281,0,0,0,0,0,0,0,0,0,-1,895,743,0,0
-322,281,0,0,0,0,0,0,0,0,0,-1,902,743,0,0
-315,281,0,0,0,0,0,0,0,0,0,-1,909,743,0,0
-308,281,0,0,0,0,0,0,0,0,0,-1,916,743,0,0
-301,281,0,0,0,0,0,0,0,0,0,-1,923,743,0,0
-294,281,0,0,0,0,0,0,0,0,0,-1,930,743,0,0
-287,281,0,0,0,0,0,0,0,0,0,-1,937,743,0,0
-280,281,0,0,0,0,0,0,0,0,0,-1,944,743,0,0
-273,281,0,0,0,0,0,0,0,0,0,-1,951,743,0,0
-266,281,0,0,0,0,0,0,0,0,0,-1,958,743,0,0
-259,281,0,0,0,0,0,0,0,0,0,-1,965,743,0,0
-252,281,0,0,0,0,0,0,0,0,0,-1,972,743,0,0
-245,281,0,0,0,0,0,0,0,0,0,-1,979,743,0,0
-238,281,0,0,0,0,0,0,0,0,0,-1,986,743,0,0
-231,281,0,0,0,0,0,0,0,0,0,-1,993,743,0,0
-224,281,0,0,0,0,0,0,0,0,0,-1,1000,743,0,0
-217,281,0,0,0,0,0,0,0,0,0,-1,1007,743,0,0
-210,281,0,0,0,0,0,0,0,0,0,-1,1014,743,0,0
-203,281,0,0,0,0,0,0,0,0,0,-1,1021,743,0,0
-196,281,0,0,0,0,0,0,0,0,0,-1,1028,743,0,0
-189,281,0,0,0,0,0,0,0,0,0,-1,1035,743,0,0
-182,281,0,0,0,0,0,0,0,0,0,-1,1042,743,0,0
-175,281,0,0,0,0,0,0,0,0,0,-1,1049,743,0,0
-168,281,0,0,0,0,0,0,0,0,0,-1,1056,743,0,0
-161,281,0,0,0,0,0,0,0,0,0,-1,1063,743,0,0
-154,281,0,0,0,0,0,0,0,0,0,-1,1070,743,0,0
-147,281,0,0,0,0,0,0,0,0,0,-1,1077,743,0,0
-140,281,0,0,0,0,0,0,0,0,0,-1,1084,743,0,0
-133,281,0,0,0,0,0,0,0,0,0,-1,1091,743,0,0
-126,281,0,0,0,0,0,0,0,0,0,-1,1098,743,0,0
-119,281,0,0,0,0,0,0,0,0,0,-1,1105,743,0,0
-112,281,0,0,0,0,0,0,0,0,0,-1,1112,743,0,0
-105,281,0,0,0,0,0,0,0,0,0,-1,1119,743,0,0
-98,281,0,0,0,0,0,0,0,0,0,-1,1126,743,0,0
-91,281,0,0,0,0,0,0,0,0,0,-1,1133,743,0,0
-84,281,0,0,0,0,0,0,0,0,0,-1,1140,743,0,0
-77,281,0,0,0,0,0,0,0,0,0,-1,1147,743,0,0
-70,281,0,0,0,0,0,0,0,0,0,-1,1154,743,0,0
-63,281,0,0,0,0,0,0,0,0,0,-1,1161,743,0,0
-56,281,0,0,0,0,0,0,0,0,0,-1,1168,743,0,0
-49,281,0,0,0,0,0,0,0,0,0,-1,1175,743,0,0
-42,281,0,0,0,0,0,0,0,0,0,-1,1182,743,0,0
-35,281,0,0,0,0,0,0,0,0,0,-1,1189,743,0,0
-28,281,0,0,0,0,0,0,0,0,0,-1,1196,743,0,0
-21,281,0,0,0,0,0,0,0,0,0,-1,1203,743,0,0
-14,281,0,0,0,0,0,0,0,0,0,-1,1210,743,0,0
-7,281,0,0,0,0,0,0,0,0,0,-1,1217,743,0,0
0,281,0,0,0,0,0,0,0,0,0,-1,1224,743,0,0
7,281,0,0,0,0,0,0,0,0,0,-1,1231,743,0,0
14,281,0,0,0,0,0,0,0,0,0,-1,1238,743,0,0
21,281,0,0,0,0,0,0,0,0,0,-1,1245,743,0,0
28,281,0,0,0,0,0,0,0,0,0,-1,1252,743,0,0
35,281,0,0,0,0,0,0,0,0,0,-1,1259,743,0,0
42,281,0,0,0,0,0,0,0,0,0,-1,1266,743,0,0
49,281,0,0,0,0,0,0,0,0,0,-1,1273,743,0,0
56,281,0,0,0,0,0,0,0,0,0,-1,1280,743,0,0
63,281,0,0,0,0,0,0,0,0,0,-1,1287,743,0,0
70,281,0,0,0,0,0,0,0,0,0,-1,1294,743,0,0
77,281,0,0,0,0,0,0,0,0,0,-1,1301,743,0,0
84,281,0,0,0,0,0,0,0,0,0,-1,1308,743,0,0
91,281,0,0,0,0,0,0,0,0,0,-1,1315,743,0,0
98,281,0,0,0,0,0,0,0,0,0,-1,1322,743,0,0
105,281,0,0,0,0,0,0,0,0,0,-1,1329,743,0,0
112,281,0,0,0,0,0,0,0,0,0,-1,1336,743,0,0
119,281,0,0,0,0,0,0,0,0,0,-1,1343,743,0,0
126,281,0,0,0,0,0,0,0,0,0,-1,1350,743,0,0
133,281,0,0,0,0,0,0,0,0,0,-1,1357,743,0,0
140,281,0,0,0,0,0,0,0,0,0,-1,1364,743,0,0
147,281,0,0,0,0,0,0,0,0,0,-1,1371,743,0,0
154,281,0,0,0,0,0,0,0,0,0,-1,1378,743,0,0
161,281,0,0,0,0,0,0,0,0,0,-1,1385,743,0,0
168,281,0,0,0,0,0,0,0,0,0,-1,1392,743,0,0
175,281,0,0,0,0,0,0,0,0,0,-1,1399,743,0,0
182,281,0,0,0,0,0,0,0,0,0,-1,1406,743,0,0
189,281,0,0,0,0,0,0,0,0,0,-1,1413,743,0,0
196,281,0,0,0,0,0,0,0,0,0,-1,1420,743,0,0
203,281,0,0,0,0,0,0,0,0,0,-1,1427,743,0,0
210,281,0,0,0,0,0,0,0,0,0,-1,1434,743,0,0
217,281,0,0,0,0,0,0,0,0,0,-1,1441,743,0,0
224,281,0,0,0,0,0,0,0,0,0,-1,1448,743,0,0
231,281,0,0,0,0,0,0,0,0,0,-1,1455,743,0,0
238,281,0,0,0,0,0,0,0,0,0,-1,1462,743,0,0
245,281,0,0,0,0,0,0,0,0,0,-1,1469,743,0,0
252,281,0,0,0,0,0,0,0,0,0,-1,1476,743,0,0
259,281,0,0,0,0,0,0,0,0,0,-1,1483,743,0,0
266,281,0,0,0,0,0,0,0,0,0,-1,1490,743,0,0
273,281,0,0,0,0,0,0,0,0,0,-1,1497,743,0,0
280,281,0,0,0,0,0,0,0,0,0,-1,1504,743,0,0
287,281,0,0,0,0,0,0,0,0,0,-1,1511,743,0,0
294,281,0,0,0,0,0,0,0,0,0,-1,1518,743,0,0
301,281,0,0,0,0,0,0,0,0,0,-1,1525,743,0,0
308,281,0,0,0,0,0,0,0,0,0,-1,1532,743,0,0
315,281,0,0,0,0,0,0,0,0,0,-1,1539,743,0,0
322,281,0,0,0,0,0,0,0,0,0,-1,1546,743,0,0
329,281,0,0,0,0,0,0,0,0,0,-1,1553,743,0,0
336,281,0,0,0,0,0,0,0,0,0,-1,1560,743,0,0
343,281,0,0,0,0,0,0,0,0,0,-1,1567,743,0,0
350,281,0,0,0,0,0,0,0,0,0,-1,1574,743,0,0
357,281,0,0,0,0,0,0,0,0,0,-1,1581,743,0,0
364,281,0,0,0,0,0,0,0,0,0,-1,1588,743,0,0
371,281,0,0,0,0,0,0,0,0,0,-1,1595,743,0,0
378,281,0,0,0,0,0,0,0,0,0,-1,1602,743,0,0
385,281,0,0,0,0,0,0,0,0,0,-1,1609,743,0,0
392,281,0,0,0,0,0,0,0,0,0,-1,1616,743,0,0
399,281,0,0,0,0,0,0,0,0,0,-1,1623,743,0,0
406,281,0,0,0,0,0,0,0,0,0,-1,1630,743,0,0
413,281,0,0,0,0,0,0,0,0,0,-1,1637,743,0,0
420,281,0,0,0,0,0,0,0,0,0,-1,1644,743,0,0
427,281,0,0,0,0,0,0,0,0,0,-1,1651,743,0,0
434,281,0,0,0,0,0,0,0,0,0,-1,1658,743,0,0
441,281,0,0,0,0,0,0,0,0,0,-1,1665,743,0,0
448,281,0,0,0,0,0,0,0,0,0,-1,1672,743,0,0
455,281,0,0,0,0,0,0,0,0,0,-1,1679,743,0,0
462,281,0,0,0,0,0,0,0,0,0,-1,1686,743,0,0
469,281,0,0,0,0,0,0,0,0,0,-1,1693,743,0,0
476,281,0,0,0,0,0,0,0,0,0,-1,1700,743,0,0
483,281,0,0,0,0,0,0,0,0,0,-1,1707,743,0,0
490,281,0,0,0,0,0,0,0,0,0,-1,1714,743,0,0
497,281,0,0,0,0,0,0,0,0,0,-1,1721,743,0,0
504,281,0,0,0,0,0,0,0,0,0,-1,1728,743,0,0
511,281,0,0,0,0,0,0,0,0,0,-1,1735,743,0,0
518,281,0,0,0,0,0,0,0,0,0,-1,1742,743,0,0
525,281,0,0,0,0,0,0,0,0,0,-1,1749,743,0,0
532,281,0,0,0,0,0,0,0,0,0,-1,1756,743,0,0
539,281,0,0,0,0,0,0,0,0,0,-1,1763,743,0,0
546,281,0,0,0,0,0,0,0,0,0,-1,1770,743,0,0
553,281,0,0,0,0,0,0,0,0,0,-1,1777,743,0,0
560,281,2.16199,-1.50085,0,0,0,0,0,0,0,-1,1784,743,2.16205,1.50083
567,281,0.257935,-0.755127,0.00504523,-0.00581963,-0.00861999,0.0098018,-0.0105762,-0.504229,0.0117681,0.0415759,1791,743,0.257958,0.755099
574,281,0.119873,-0.94043,0,0,0,0,0,0,0,-1,1798,743,0.119833,0.940446
581,281,0.085083,-0.503723,0,0,0,0,0,0,0,-1,1805,743,0.085073,0.503729
588,281,0.757568,1.15991,0,0,0,0,0,0,0,-1,1812,743,0.757595,-1.15992
595,281,0.503662,1.22333,0.00186691,0.00748372,-0.0110765,0.0161023,-0.00675167,-0.909555,0.0135579,0.0483192,1819,743,0.503659,-1.22331
602,281,-0.0571289,-0.608398,0.00196014,0.0102428,-0.00975672,0.0167007,-0.00449777,-0.986105,0.0128972,0.0455185,1826,743,-0.0570753,0.608406
609,281,-0.385254,-0.479919,0,0,0,0,0,0,0,-1,1833,743,-0.385204,0.479944
616,281,-0.242676,-0.401978,0.000965335,0.0127599,-0.00586379,0.0151789,-0.00145376,-1.17952,0.010637,0.0456681,1840,743,-0.242722,0.401967
623,281,-0.197021,-0.257324,0.00059135,0.0127275,-0.00402266,0.0139398,-0.00062091,-1.27809,0.00950692,0.0422455,1847,743,-0.196975,0.257308
630,281,-0.0533447,-0.0869751,0.000319313,0.0117169,-0.00256647,0.0122682,-0.000231935,-1.35922,0.00825719,0.0274006,1854,743,-0.0533333,0.0869824
637,281,-0.0296631,-0.0693359,1.52393e-05,0.0101192,-0.00145545,0.0103247,-0.000190237,-1.43055,0.00694743,0.0109996,1861,743,-0.0297069,0.0693543
644,281,-0.0101318,-0.0826416,-0.000421427,0.00857188,-0.000474299,0.00859682,-0.000446371,-1.51825,0.00588565,0.00896855,1868,743,-0.0100979,0.0826346
651,281,-0.0170898,-0.105774,-0.000638105,0.00676928,0.000387854,0.00678953,-0.000658357,1.51863,0.004761,0.0105681,1875,743,-0.017075,0.105773
658,281,-0.0404053,-0.0795288,-0.00107164,0.00514719,0.000422443,0.00517576,-0.00110021,1.50328,0.00386973,0.0176299,1882,743,-0.0403658,0.0795323
665,281,-0.0386963,-0.0997925,-0.00115378,0.00277496,0.000117388,0.00277847,-0.00115729,1.54095,0.00233568,0.017516,1889,743,-0.0387217,0.0998186
672,281,-0.0662842,-0.0836792,-0.000747065,0.0010485,-0.000580089,0.0012196,-0.000918168,-1.28397,0.00123832,0.00944159,1896,743,-0.0662488,0.0836546
679,281,-0.045166,-0.0690308,-0.000487641,0.000125034,-0.0015889,0.00143686,-0.00179946,-0.880629,0.0018724,0.0125057,1903,743,-0.0451267,0.069048
686,281,-0.0273438,-0.0741577,-0.00036068,-0.000750998,-0.00264024,0.0020916,-0.00320328,-0.748507,0.00307938,0.00973993,1910,743,-0.0272923,0.0741323
693,281,-0.0263672,-0.0905151,-0.000119342,-0.00177464,-0.00368416,0.00282899,-0.00472297,-0.674907,0.00440559,0.00879835,1917,743,-0.026428,0.0904859
700,281,-0.0303955,-0.0873413,0.000329791,-0.00307359,-0.0046114,0.00354346,-0.00628725,-0.60864,0.00574898,0.01448,1924,743,-0.0303763,0.0873627
707,281,-0.0562744,-0.067749,0.000724123,-0.00475969,-0.00571963,0.00432511,-0.00836067,-0.561888,0.00744664,0.0297681,1931,743,-0.0563326,0.0677611
714,281,-0.303833,-0.139099,0.00120634,-0.0069858,-0.00689715,0.00513202,-0.0109115,-0.517445,0.00946094,0.0427286,1938,743,-0.303811,0.139085
721,281,-0.437012,-0.268799,0.00177447,-0.00991512,-0.00808935,0.00590962,-0.0140503,-0.472554,0.011839,0.0464785,1945,743,-0.43703,0.268782
728,281,-0.159302,-0.233704,0.00241044,-0.0136726,-0.0092179,0.00660149,-0.0178637,-0.426725,0.0146153,0.0429145,1952,743,-0.159357,0.233707
735,281,-0.428345,0.163696,0.0031415,-0.0183605,-0.0101824,0.00719814,-0.0224171,-0.379122,0.0178351,0.0437203,1959,743,-0.428369,-0.163722
742,281,0,0,0,0,0,0,0,0,0,-1,1966,743,0,0
749,281,0,0,0,0,0,0,0,0,0,-1,1973,743,0,0
756,281,0,0,0,0,0,0,0,0,0,-1,1980,743,0,0
763,281,0,0,0,0,0,0,0,0,0,-1,1987,743,0,0
770,281,0,0,0,0,0,0,0,0,0,-1,1994,743,0,0
777,281,0,0,0,0,0,0,0,0,0,-1,2001,743,0,0
784,281,0,0,0,0,0,0,0,0,0,-1,2008,743,0,0
791,281,0,0,0,0,0,0,0,0,0,-1,2015,743,0,0
798,281,0,0,0,0,0,0,0,0,0,-1,2022,743,0,0
805,281,0,0,0,0,0,0,0,0,0,-1,2029,743,0,0
812,281,0,0,0,0,0,0,0,0,0,-1,2036,743,0,0
-700,274,0,0,0,0,0,0,0,0,0,-1,524,750,0,0
-693,274,0,0,0,0,0,0,0,0,0,-1,531,750,0,0
-686,274,0,0,0,0,0,0,0,0,0,-1,538,750,0,0
-679,274,0,0,0,0,0,0,0,0,0,-1,545,750,0,0
-672,274,0,0,0,0,0,0,0,0,0,-1,552,750,0,0
-665,274,0,0,0,0,0,0,0,0,0,-1,559,750,0,0
-658,274,0,0,0,0,0,0,0,0,0,-1,566,750,0,0
-651,274,0,0,0,0,0,0,0,0,0,-1,573,750,0,0
-644,274,0,0,0,0,0,0,0,0,0,-1,580,750,0,0
-637,274,0,0,0,0,0,0,0,0,0,-1,587,750,0,0
-630,274,0,0,0,0,0,0,0,0,0,-1,594,750,0,0
-623,274,0.629089,-1.45807,0,0,0,0,0,0,0,-1,601,750,0.629116,1.45804
-616,274,0.498291,-0.958496,0,0,0,0,0,0,0,-1,608,750,0.498312,0.958505
-609,274,0.321411,-0.757996,-0.016936,-0.00225615,0.0146666,0.00680462,-0.0259967,1.0174,0.0199892,0.0454751,615,750,0.321439,0.757967
-602,274,0.104553,-0.196289,-0.0144948,-0.00216895,0.0109495,0.00423292,-0.0208967,1.04173,0.0155355,0.0429101,622,750,0.10456,0.196298
-595,274,-0.102234,0.28479,-0.0120874,-0.00194668,0.00773266,0.00222971,-0.0162638,1.07559,0.0116571,0.0471977,629,750,-0.102222,-0.284806
-588,274,-0.155579,0.2547,-0.00980735,-0.00178176,0.0051254,0.000714844,-0.012304,1.11752,0.008451,0.0444761,636,750,-0.155553,-0.254729
-581,274,-0.00787354,0.0656738,-0.00778855,-0.00167582,0.00298633,-0.000459064,-0.0090053,1.18389,0.00585652,0.0353987,643,750,-0.00784682,-0.065667
-574,274,-0.0144653,-0.0465698,-0.00596969,-0.00123255,0.00129374,-0.000902253,-0.00629999,1.32083,0.00393389,0.0175893,650,750,-0.0144428,0.0465728
-567,274,-0.0275879,-0.0446167,-0.00437555,-0.000911543,0.000137616,-0.000906084,-0.00438101,1.53115,0.00267039,0.0145853,657,750,-0.0275879,0.0446214
-560,274,-0.00964355,-0.0770874,-0.00303861,-0.000627543,-0.000557924,-0.000504698,-0.00316146,-1.35407,0.00196117,0.0147979,664,750,-0.0096192,0.0771141
-553,274,-0.00665283,-0.0740967,-0.00204059,-0.000477348,-0.00115723,0.000137494,-0.00265543,-1.08242,0.00181785,0.00961677,671,750,-0.0066284,0.0740717
-546,274,-0.00799561,-0.0759277,-0.00156869,-0.000484571,-0.000976395,9.01389e-05,-0.0021434,-1.0388,0.00145991,0.010419,678,750,-0.00796534,0.0759305
-539,274,-0.00518799,-0.076355,-0.0014151,-0.000314798,-0.000684387,1.3147e-05,-0.00174304,-1.12394,0.00116644,0.0101445,685,750,-0.00518089,0.0763566
-532,274,-0.00286865,-0.067688,-0.00150117,0.000180371,-3.21933e-05,0.000180987,-0.00150179,-1.55166,0.00106665,0.00967815,692,750,-0.00286523,0.0676631
-525,274,-0.0140991,-0.0706787,-0.00184332,0.000404565,0.000115181,0.000410451,-0.00184921,1.51973,0.00138997,0.0102764,699,750,-0.0141167,0.0706811
-518,274,-0.010376,-0.0792236,-0.00285752,0.000384388,0.000653797,0.000511273,-0.0029844,1.3791,0.0021801,0.0116652,706,750,-0.0103665,0.0792045
-511,274,-0.0166016,-0.0843506,-0.00465134,-7.08356e-05,0.00107508,0.00016894,-0.00489112,1.35136,0.00331849,0.0102339,713,750,-0.0166181,0.0843476
-504,274,0.00872803,-0.0944824,-0.00690736,-9.10681e-05,0.00178247,0.000346909,-0.00734534,1.32986,0.00501653,0.0174294,720,750,0.00873731,0.0944955
-497,274,0.00213623,-0.145935,-0.00886669,-0.000433712,0.00239917,0.00020107,-0.00950147,1.31214,0.00640239,0.0398739,727,750,0.00213782,0.145928
-490,274,0.00366211,-0.238953,-0.0108777,-0.00126222,0.00290016,-0.000455222,-0.0116847,1.2994,0.00764257,0.0433786,734,750,0.00367154,0.238965
-483,274,0.0236816,-0.0679932,0,0,0,0,0,0,0,-1,741,750,0.0236793,0.0679817
-476,274,-0.253418,-0.0883789,-0.0154424,-0.00290272,0.00383885,-0.00182086,-0.0165243,1.2961,0.0104622,0.047477,748,750,-0.253415,0.0883797
-469,274,-0.417297,-0.0705566,-0.0176127,-0.00425184,0.00402575,-0.0031326,-0.0187319,1.29962,0.0115858,0.0490793,755,750,-0.417317,0.0705556
-462,274,-0.657776,0.129028,-0.019134,-0.00582492,0.00383069,-0.00480111,-0.0201578,1.30964,0.0121584,0.0453963,762,750,-0.657769,-0.129048
-455,274,-0.6073,0.287476,-0.0196994,-0.00748921,0.00306384,-0.00676354,-0.0204251,1.33823,0.0120145,0.0423276,769,750,-0.60733,-0.287505
-448,274,-0.337158,0.231018,-0.0190784,-0.0091144,0.00138205,-0.00892625,-0.0192665,1.43549,0.0111335,0.041859,776,750,-0.337161,-0.23101
-441,274,0,0,0,0,0,0,0,0,0,-1,783,750,0,0
-434,274,0,0,0,0,0,0,0,0,0,-1,790,750,0,0
-427,274,0,0,0,0,0,0,0,0,0,-1,797,750,0,0
-420,274,0,0,0,0,0,0,0,0,0,-1,804,750,0,0
-413,274,0,0,0,0,0,0,0,0,0,-1,811,750,0,0
-406,274,0,0,0,0,0,0,0,0,0,-1,818,750,0,0
-399,274,0,0,0,0,0,0,0,0,0,-1,825,750,0,0
-392,274,0,0,0,0,0,0,0,0,0,-1,832,750,0,0
-385,274,0,0,0,0,0,0,0,0,0,-1,839,750,0,0
-378,274,0,0,0,0,0,0,0,0,0,-1,846,750,0,0
-371,274,0,0,0,0,0,0,0,0,0,-1,853,750,0,0
-364,274,0,0,0,0,0,0,0,0,0,-1,860,750,0,0
-357,274,0,0,0,0,0,0,0,0,0,-1,867,750,0,0
-350,274,0,0,0,0,0,0,0,0,0,-1,874,750,0,0
-343,274,0,0,0,0,0,0,0,0,0,-1,881,750,0,0
-336,274,0,0,0,0,0,0,0,0,0,-1,888,750,0,0
-329,274,0,0,0,0,0,0,0,0,0,-1,895,750,0,0
-322,274,0,0,0,0,0,0,0,0,0,-1,902,750,0,0
-315,274,0,0,0,0,0,0,0,0,0,-1,909,750,0,0
-308,274,0,0,0,0,0,0,0,0,0,-1,916,750,0,0
-301,274,0,0,0,0,0,0,0,0,0,-1,923,750,0,0
-294,274,0,0,0,0,0,0,0,0,0,-1,930,750,0,0
-287,274,0,0,0,0,0,0,0,0,0,-1,937,750,0,0
-280,274,0,0,0,0,0,0,0,0,0,-1,944,750,0,0
-273,274,0,0,0,0,0,0,0,0,0,-1,951,750,0,0
-266,274,0,0,0,0,0,0,0,0,0,-1,958,750,0,0
-259,274,0,0,0,0,0,0,0,0,0,-1,965,750,0,0
-252,274,0,0,0,0,0,0,0,0,0,-1,972,750,0,0
-245,274,0,0,0,0,0,0,0,0,0,-1,979,750,0,0
-238,274,0,0,0,0,0,0,0,0,0,-1,986,750,0,0
-231,274,0,0,0,0,0,0,0,0,0,-1,993,750,0,0
-224,274,0,0,0,0,0,0,0,0,0,-1,1000,750,0,0
-217,274,0,0,0,0,0,0,0,0,0,-1,1007,750,0,0
-210,274,0,0,0,0,0,0,0,0,0,-1,1014,750,0,0
-203,274,0,0,0,0,0,0,0,0,0,-1,1021,750,0,0
-196,274,0,0,0,0,0,0,0,0,0,-1,1028,750,0,0
-189,274,0,0,0,0,0,0,0,0,0,-1,1035,750,0,0
-182,274,0,0,0,0,0,0,0,0,0,-1,1042,750,0,0
-175,274,0,0,0,0,0,0,0,0,0,-1,1049,750,0,0
-168,274,0,0,0,0,0,0,0,0,0,-1,1056,750,0,0
-161,274,0,0,0,0,0,0,0,0,0,-1,1063,750,0,0
-154,274,0,0,0,0,0,0,0,0,0,-1,1070,750,0,0
-147,274,0,0,0,0,0,0,0,0,0,-1,1077,750,0,0
-140,274,0,0,0,0,0,0,0,0,0,-1,1084,750,0,0
-133,274,0,0,0,0,0,0,0,0,0,-1,1091,750,0,0
-126,274,0,0,0,0,0,0,0,0,0,-1,1098,750,0,0
-119,274,0,0,0,0,0,0,0,0,0,-1,1105,750,0,0
-112,274,0,0,0,0,0,0,0,0,0,-1,1112,750,0,0
-105,274,0,0,0,0,0,0,0,0,0,-1,1119,750,0,0
-98,274,0,0,0,0,0,0,0,0,0,-1,1126,750,0,0
-91,274,0,0,0,0,0,0,0,0,0,-1,1133,750,0,0
-84,274,0,0,0,0,0,0,0,0,0,-1,1140,750,0,0
-77,274,0,0,0,0,0,0,0,0,0,-1,1147,750,0,0
-70,274,0,0,0,0,0,0,0,0,0,-1,1154,750,0,0
-63,274,0,0,0,0,0,0,0,0,0,-1,1161,750,0,0
-56,274,0,0,0,0,0,0,0,0,0,-1,1168,750,0,0
-49,274,0,0,0,0,0,0,0,0,0,-1,1175,750,0,0
-42,274,0,0,0,0,0,0,0,0,0,-1,1182,750,0,0
-35,274,0,0,0,0,0,0,0,0,0,-1,1189,750,0,0
-28,274,0,0,0,0,0,0,0,0,0,-1,1196,750,0,0
-21,274,0,0,0,0,0,0,0,0,0,-1,1203,750,0,0
-14,274,0,0,0,0,0,0,0,0,0,-1,1210,750,0,0
-7,274,0,0,0,0,0,0,0,0,0,-1,1217,750,0,0
0,274,0,0,0,0,0,0,0,0,0,-1,1224,750,0,0
7,274,0,0,0,0,0,0,0,0,0,-1,1231,750,0,0
14,274,0,0,0,0,0,0,0,0,0,-1,1238,750,0,0
21,274,0,0,0,0,0,0,0,0,0,-1,1245,750,0,0
28,274,0,0,0,0,0,0,0,0,0,-1,1252,750,0,0
35,274,0,0,0,0,0,0,0,0,0,-1,1259,750,0,0
42,274,0,0,0,0,0,0,0,0,0,-1,1266,750,0,0
49,274,0,0,0,0,0,0,0,0,0,-1,1273,750,0,0
56,274,0,0,0,0,0,0,0,0,0,-1,1280,750,0,0
63,274,0,0,0,0,0,0,0,0,0,-1,1287,750,0,0
70,274,0,0,0,0,0,0,0,0,0,-1,1294,750,0,0
77,274,0,0,0,0,0,0,0,0,0,-1,1301,750,0,0
84,274,0,0,0,0,0,0,0,0,0,-1,1308,750,0,0
91,274,0,0,0,0,0,0,0,0,0,-1,1315,750,0,0
98,274,0,0,0,0,0,0,0,0,0,-1,1322,750,0,0
105,274,0,0,0,0,0,0,0,0,0,-1,1329,750,0,0
112,274,0,0,0,0,0,0,0,0,0,-1,1336,750,0,0
119,274,0,0,0,0,0,0,0,0,0,-1,1343,750,0,0
126,274,0,0,0,0,0,0,0,0,0,-1,1350,750,0,0
133,274,0,0,0,0,0,0,0,0,0,-1,1357,750,0,0
140,274,0,0,0,0,0,0,0,0,0,-1,1364,750,0,0
147,274,0,0,0,0,0,0,0,0,0,-1,1371,750,0,0
154,274,0,0,0,0,0,0,0,0,0,-1,1378,750,0,0
161,274,0,0,0,0,0,0,0,0,0,-1,1385,750,0,0
168,274,0,0,0,0,0,0,0,0,0,-1,1392,750,0,0
175,274,0,0,0,0,0,0,0,0,0,-1,1399,750,0,0
182,274,0,0,0,0,0,0,0,0,0,-1,1406,750,0,0
189,274,0,0,0,0,0,0,0,0,0,-1,1413,750,0,0
196,274,0,0,0,0,0,0,0,0,0,-1,1420,750,0,0
203,274,0,0,0,0,0,0,0,0,0,-1,1427,750,0,0
210,274,0,0,0,0,0,0,0,0,0,-1,1434,750,0,0
217,274,0,0,0,0,0,0,0,0,0,-1,1441,750,0,0
224,274,0,0,0,0,0,0,0,0,0,-1,1448,750,0,0
231,274,0,0,0,0,0,0,0,0,0,-1,1455,750,0,0
238,274,0,0,0,0,0,0,0,0,0,-1,1462,750,0,0
245,274,0,0,0,0,0,0,0,0,0,-1,1469,750,0,0
252,274,0,0,0,0,0,0,0,0,0,-1,1476,750,0,0
259,274,0,0,0,0,0,0,0,0,0,-1,1483,750,0,0
266,274,0,0,0,0,0,0,0,0,0,-1,1490,750,0,0
273,274,0,0,0,0,0,0,0,0,0,-1,1497,750,0,0
280,274,0,0,0,0,0,0,0,0,0,-1,1504,750,0,0
287,274,0,0,0,0,0,0,0,0,0,-1,1511,750,0,0
294,274,0,0,0,0,0,0,0,0,0,-1,1518,750,0,0
301,274,0,0,0,0,0,0,0,0,0,-1,1525,750,0,0
308,274,0,0,0,0,0,0,0,0,0,-1,1532,750,0,0
315,274,0,0,0,0,0,0,0,0,0,-1,1539,750,0,0
322,274,0,0,0,0,0,0,0,0,0,-1,1546,750,0,0
329,274,0,0,0,0,0,0,0,0,0,-1,1553,750,0,0
336,274,0,0,0,0,0,0,0,0,0,-1,1560,750,0,0
343,274,0,0,0,0,0,0,0,0,0,-1,1567,750,0,0
350,274,0,0,0,0,0,0,0,0,0,-1,1574,750,0,0
357,274,0,0,0,0,0,0,0,0,0,-1,1581,750,0,0
364,274,0,0,0,0,0,0,0,0,0,-1,1588,750,0,0
371,274,0,0,0,0,0,0,0,0,0,-1,1595,750,0,0
378,274,0,0,0,0,0,0,0,0,0,-1,1602,750,0,0
385,274,0,0,0,0,0,0,0,0,0,-1,1609,750,0,0
392,274,0,0,0,0,0,0,0,0,0,-1,1616,750,0,0
399,274,0,0,0,0,0,0,0,0,0,-1,1623,750,0,0
406,274,0,0,0,0,0,0,0,0,0,-1,1630,750,0,0
413,274,0,0,0,0,0,0,0,0,0,-1,1637,750,0,0
420,274,0,0,0,0,0,0,0,0,0,-1,1644,750,0,0
427,274,0,0,0,0,0,0,0,0,0,-1,1651,750,0,0
434,274,0,0,0,0,0,0,0,0,0,-1,1658,750,0,0
441,274,0,0,0,0,0,0,0,0,0,-1,1665,750,0,0
448,274,0,0,0,0,0,0,0,0,0,-1,1672,750,0,0
455,274,0,0,0,0,0,0,0,0,0,-1,1679,750,0,0
462,274,0,0,0,0,0,0,0,0,0,-1,1686,750,0,0
469,274,0,0,0,0,0,0,0,0,0,-1,1693,750,0,0
476,274,0,0,0,0,0,0,0,0,0,-1,1700,750,0,0
483,274,0,0,0,0,0,0,0,0,0,-1,1707,750,0,0
490,274,0,0,0,0,0,0,0,0,0,-1,1714,750,0,0
497,274,0,0,0,0,0,0,0,0,0,-1,1721,750,0,0
504,274,0,0,0,0,0,0,0,0,0,-1,1728,750,0,0
511,274,0,0,0,0,0,0,0,0,0,-1,1735,750,0,0
518,274,0,0,0,0,0,0,0,0,0,-1,1742,750,0,0
525,274,0,0,0,0,0,0,0,0,0,-1,1749,750,0,0
532,274,0,0,0,0,0,0,0,0,0,-1,1756,750,0,0
539,274,0,0,0,0,0,0,0,0,0,-1,1763,750,0,0
546,274,0,0,0,0,0,0,0,0,0,-1,1770,750,0,0
553,274,0,0,0,0,0,0,0,0,0,-1,1777,750,0,0
560,274,-0.141235,-0.0241089,0,0,0,0,0,0,0,-1,1784,750,-0.141278,0.0241354
567,274,-0.00219727,-0.220642,0,0,0,0,0,0,0,-1,1791,750,-0.00219886,0.220613
574,274,-0.041748,-0.688477,0,0,0,0,0,0,0,-1,1798,750,-0.0417118,0.68849
581,274,0.0385742,0.0108643,0,0,0,0,0,0,0,-1,1805,750,0.0385357,-0.0108539
588,274,0.46228,0.883484,0,0,0,0,0,0,0,-1,1812,750,0.462317,-0.883514
595,274,0.24585,0.804016,0.00279786,0.00838276,-0.0103483,0.0163088,-0.00512814,-0.917182,0.0129256,0.0486917,1819,750,0.245841,-0.804025
602,274,0.379639,0.887756,0.00254217,0.0115475,-0.00915967,0.0172514,-0.00316171,-1.01384,0.0126868,0.0460266,1826,750,0.379601,-0.887785
609,274,0.54834,0.841003,0.00182269,0.0134817,-0.00737424,0.0170523,-0.00174794,-1.11987,0.0119934,0.0426545,1833,750,0.548313,-0.840997
616,274,-0.289917,-0.488892,0,0,0,0,0,0,0,-1,1840,750,-0.289958,0.488869
623,274,-0.305908,-0.328613,0,0,0,0,0,0,0,-1,1847,750,-0.305903,0.328593
630,274,-0.0804443,-0.0712891,2.06814e-05,0.0125991,-0.00233509,0.0130186,-0.000398819,-1.39304,0.00881501,0.0355793,1854,750,-0.0804828,0.0713053
637,274,-0.0377197,-0.079895,-0.000365954,0.0108405,-0.00125607,0.0109796,-0.000505014,-1.46053,0.00749373,0.0121925,1861,750,-0.0377683,0.0799191
644,274,-0.0217285,-0.0913086,-0.000800057,0.00909805,-0.000296289,0.00910691,-0.000808918,-1.5409,0.00635809,0.0106034,1868,750,-0.0217101,0.0913193
651,274,-0.0262451,-0.10968,-0.000986162,0.0071374,0.000588731,0.00717984,-0.00102861,1.49883,0.00516369,0.0115461,1875,750,-0.0262221,0.109658
658,274,-0.0313721,-0.0947266,-0.00138571,0.00528762,0.00067325,0.00535487,-0.00145296,1.47125,0.00414011,0.014059,1882,750,-0.0314009,0.094738
665,274,-0.0430908,-0.0643311,-0.00137289,0.00251151,0.000489748,0.00257231,-0.00143368,1.44729,0.0023438,0.0149005,1889,750,-0.0430401,0.0643268
672,274,-0.0570068,-0.0750732,-0.000848468,0.000554971,-0.000138871,0.000568581,-0.000862077,-1.47311,0.000831764,0.0123487,1896,750,-0.0570015,0.0750789
679,274,-0.0250244,-0.0830688,-0.000513584,-0.00049076,-0.00109976,0.000597648,-0.00160199,-0.790586,0.00131335,0.01218,1903,750,-0.0250028,0.0830472
686,274,-0.0113525,-0.0871582,-0.000342647,-0.00150621,-0.00214291,0.00129606,-0.00314491,-0.652848,0.00263702,0.0118573,1910,750,-0.0113947,0.087138
693,274,-0.0181885,-0.0791626,-9.76756e-05,-0.00269706,-0.00310919,0.00197254,-0.00476727,-0.587428,0.00400119,0.0104256,1917,750,-0.0181396,0.079135
700,274,-0.0336914,-0.0792236,0.000386319,-0.00417446,-0.00391706,0.00263843,-0.00642657,-0.521796,0.00538385,0.0124506,1924,750,-0.0336638,0.0792416
707,274,-0.00744629,-0.0917358,0.000764416,-0.00596585,-0.00488251,0.00332913,-0.00853056,-0.483671,0.0070633,0.018876,1931,750,-0.00747883,0.0917487
714,274,-0.00244141,-0.141602,0.00120272,-0.00819143,-0.00587869,0.00403037,-0.0110191,-0.448333,0.00899568,0.0376174,1938,750,-0.00246109,0.14158
721,274,0.0108643,-0.323853,0.00173275,-0.0110146,-0.00685028,0.00471589,-0.0139978,-0.410711,0.0112386,0.043808,1945,750,0.0108327,0.323849
728,274,0.0458984,-0.303284,0.00238213,-0.0145321,-0.00772625,0.00538005,-0.01753,-0.370133,0.0138333,0.0423671,1952,750,0.0458375,0.30328
735,274,-0.130371,0.0713501,0.00323009,-0.0188123,-0.00839503,0.00606326,-0.0216454,-0.325479,0.0168197,0.0474271,1959,750,-0.130364,-0.071355
742,274,-0.476929,-0.780518,0.00423569,-0.0239297,-0.00872213,0.00671795,-0.026412,-0.277264,0.0202227,0.0477014,1966,750,-0.476913,0.780543
749,274,0,0,0,0,0,0,0,0,0,-1,1973,750,0,0
756,274,0,0,0,0,0,0,0,0,0,-1,1980,750,0,0
763,274,0,0,0,0,0,0,0,0,0,-1,1987,750,0,0
770,274,0,0,0,0,0,0,0,0,0,-1,1994,750,0,0
777,274,0,0,0,0,0,0,0,0,0,-1,2001,750,0,0
784,274,0,0,0,0,0,0,0,0,0,-1,2008,750,0,0
791,274,0,0,0,0,0,0,0,0,0,-1,2015,750,0,0
798,274,0,0,0,0,0,0,0,0,0,-1,2022,750,0,0
805,274,0,0,0,0,0,0,0,0,0,-1,2029,750,0,0
812,274,0,0,0,0,0,0,0,0,0,-1,2036,750,0,0
-700,267,0,0,0,0,0,0,0,0,0,-1,524,757,0,0
-693,267,0,0,0,0,0,0,0,0,0,-1,531,757,0,0
-686,267,0,0,0,0,0,0,0,0,0,-1,538,757,0,0
-679,267,0,0,0,0,0,0,0,0,0,-1,545,757,0,0
-672,267,0,0,0,0,0,0,0,0,0,-1,552,757,0,0
-665,267,0,0,0,0,0,0,0,0,0,-1,559,757,0,0
-658,267,0,0,0,0,0,0,0,0,0,-1,566,757,0,0
-651,267,0,0,0,0,0,0,0,0,0,-1,573,757,0,0
-644,267,0,0,0,0,0,0,0,0,0,-1,580,757,0,0
-637,267,0,0,0,0,0,0,0,0,0,-1,587,757,0,0
-630,267,0.647278,-1.65802,-0.0202438,0.00184264,0.0306299,0.0233592,-0.0417604,0.958414,0.0380939,0.0450713,594,757,0.647275,1.658
-623,267,0.469666,-1.26526,-0.0181024,0.000634502,0.0269422,0.0197906,-0.0372585,0.952721,0.0334481,0.0461725,601,757,0.46966,1.26527
-616,267,0.244446,-0.940491,-0.0157278,-3.64946e-05,0.0225611,0.0160042,-0.0317685,0.952733,0.0280777,0.0480925,608,757,0.244451,0.940475
-609,267,0.0355835,-0.71814,-0.0132454,-0.000409211,0.0181653,0.0124384,-0.026093,0.955211,0.022707,0.0442358,615,757,0.0355664,0.718122
-602,267,-0.152893,-0.520691,0,0,0,0,0,0,0,-1,622,757,-0.152905,0.520675
-595,267,-0.576355,0.588928,-0.00859825,-0.000596823,0.0103929,0.0065388,-0.0157339,0.96913,0.0132194,0.0449284,629,757,-0.576337,-0.588915
-588,267,0.019043,0.0466309,-0.00663774,-0.000618685,0.00734462,0.00430909,-0.0115655,0.979844,0.00947901,0.0391749,636,757,0.0190207,-0.0466397
-581,267,0.0263672,-0.0230713,-0.0050898,-0.000825401,0.00472969,0.00223049,-0.00814569,0.997162,0.00630683,0.0222562,643,757,0.026353,0.0230496
-574,267,-0.0169678,-0.0652466,-0.00368396,-0.000638564,0.00264937,0.000894515,-0.00521704,1.04622,0.00381135,0.0117448,650,757,-0.01695,0.0652609
-567,267,-0.032959,-0.0244141,-0.00241014,-0.000467599,0.00118684,9.47416e-05,-0.00297248,1.12832,0.00201398,0.0193821,657,757,-0.0329784,0.024387
-560,267,-0.0234985,-0.0689697,-0.00132481,-0.000291928,0.000190447,-0.000257932,-0.00135881,1.39415,0.000833309,0.0226465,664,757,-0.02348,0.0689599
-553,267,0.0127563,-0.0794678,-0.00055136,-0.000249059,-0.000601836,0.000220317,-0.00102074,-0.908428,0.000764585,0.0182773,671,757,0.0127358,0.0794844
-546,267,0.00335693,-0.0784912,-0.000327646,-0.000431174,-0.000508216,0.000131435,-0.000890255,-0.734646,0.000641817,0.0110391,678,757,0.00333044,0.0784888
-539,267,-0.0123901,-0.0831909,-0.000291664,-0.000381749,-0.000336854,3.1456e-06,-0.000676559,-0.718935,0.000452092,0.00920719,685,757,-0.0123694,0.0831873
-532,267,-0.0128784,-0.0751343,-0.000414166,0.000141516,0.000336958,0.000300409,-0.000573059,1.13017,0.000512421,0.00860364,692,757,-0.0129037,0.0751493
-525,267,-0.0117188,-0.0813599,-0.000853744,0.000413022,0.000525987,0.000602947,-0.00104367,1.22428,0.000961958,0.00889351,699,757,-0.0117129,0.0813497
-518,267,-0.0110474,-0.0916138,-0.00192848,0.000504685,0.00107851,0.000913912,-0.0023377,1.20814,0.00193638,0.0100589,706,757,-0.0110651,0.0916064
-511,267,-0.00292969,-0.0863647,-0.00370196,0.000102956,0.00149416,0.000619561,-0.00421857,1.23791,0.00304002,0.0126922,713,757,-0.00295714,0.0863762
-504,267,0.0133667,-0.113647,-0.00588396,9.57965e-05,0.00216179,0.000795457,-0.00658363,1.25779,0.00467684,0.0251246,720,757,0.0133471,0.113649
-497,267,0.0078125,-0.138733,-0.00793271,-0.000138281,0.00271471,0.000714026,-0.00878502,1.26658,0.00610861,0.0431696,727,757,0.00780396,0.138712
-490,267,-0.0055542,-0.185425,0,0,0,0,0,0,0,-1,734,757,-0.00555647,0.185455
-483,267,0.575867,0.624329,-0.0123618,-0.00138077,0.00353055,-0.000343611,-0.0133989,1.28507,0.00882031,0.0435073,741,757,0.575889,-0.62433
-476,267,0.0750732,0.249023,-0.0146529,-0.00246109,0.0037876,-0.00138023,-0.0157338,1.29282,0.0100607,0.0464578,748,757,0.0750598,-0.249042
-469,267,-0.658203,0.633057,-0.0164345,-0.00389062,0.00373991,-0.00286022,-0.0174649,1.30195,0.0108166,0.0450679,755,757,-0.658213,-0.633028
-462,267,-0.954102,0.858459,-0.0171125,-0.005678,0.00321887,-0.00483415,-0.0179564,1.31441,0.0107289,0.0428936,762,757,-0.95409,-0.858455
-455,267,-0.688843,0.595276,-0.016059,-0.00758274,0.00205238,-0.00711194,-0.0165298,1.34531,0.00957438,0.0466376,769,757,-0.688864,-0.595275
-448,267,-0.0882568,0.0855713,0,0,0,0,0,0,0,-1,776,757,-0.0882555,-0.0855784
-441,267,0,0,0,0,0,0,0,0,0,-1,783,757,0,0
-434,267,0,0,0,0,0,0,0,0,0,-1,790,757,0,0
-427,267,0,0,0,0,0,0,0,0,0,-1,797,757,0,0
-420,267,0,0,0,0,0,0,0,0,0,-1,804,757,0,0
-413,267,0,0,0,0,0,0,0,0,0,-1,811,757,0,0
-406,267,0,0,0,0,0,0,0,0,0,-1,818,757,0,0
-399,267,0,0,0,0,0,0,0,0,0,-1,825,757,0,0
-392,267,0,0,0,0,0,0,0,0,0,-1,832,757,0,0
-385,267,0,0,0,0,0,0,0,0,0,-1,839,757,0,0
-378,267,0,0,0,0,0,0,0,0,0,-1,846,757,0,0
-371,267,0,0,0,0,0,0,0,0,0,-1,853,757,0,0
-364,267,0,0,0,0,0,0,0,0,0,-1,860,757,0,0
-357,267,0,0,0,0,0,0,0,0,0,-1,867,757,0,0
-350,267,0,0,0,0,0,0,0,0,0,-1,874,757,0,0
-343,267,0,0,0,0,0,0,0,0,0,-1,881,757,0,0
-336,267,0,0,0,0,0,0,0,0,0,-1,888,757,0,0
-329,267,0,0,0,0,0,0,0,0,0,-1,895,757,0,0
-322,267,0,0,0,0,0,0,0,0,0,-1,902,757,0,0
-315,267,0,0,0,0,0,0,0,0,0,-1,909,757,0,0
-308,267,0,0,0,0,0,0,0,0,0,-1,916,757,0,0
-301,267,0,0,0,0,0,0,0,0,0,-1,923,757,0,0
-294,267,0,0,0,0,0,0,0,0,0,-1,930,757,0,0
-287,267,0,0,0,0,0,0,0,0,0,-1,937,757,0,0
-280,267,0,0,0,0,0,0,0,0,0,-1,944,757,0,0
-273,267,0,0,0,0,0,0,0,0,0,-1,951,757,0,0
-266,267,0,0,0,0,0,0,0,0,0,-1,958,757,0,0
-259,267,0,0,0,0,0,0,0,0,0,-1,965,757,0,0
-252,267,0,0,0,0,0,0,0,0,0,-1,972,757,0,0
-245,267,0,0,0,0,0,0,0,0,0,-1,979,757,0,0
-238,267,0,0,0,0,0,0,0,0,0,-1,986,757,0,0
-231,267,0,0,0,0,0,0,0,0,0,-1,993,757,0,0
-224,267,0,0,0,0,0,0,0,0,0,-1,1000,757,0,0
-217,267,0,0,0,0,0,0,0,0,0,-1,1007,757,0,0
-210,267,0,0,0,0,0,0,0,0,0,-1,1014,757,0,0
-203,267,0,0,0,0,0,0,0,0,0,-1,1021,757,0,0
-196,267,0,0,0,0,0,0,0,0,0,-1,1028,757,0,0
-189,267,0,0,0,0,0,0,0,0,0,-1,1035,757,0,0
-182,267,0,0,0,0,0,0,0,0,0,-1,1042,757,0,0
-175,267,0,0,0,0,0,0,0,0,0,-1,1049,757,0,0
-168,267,0,0,0,0,0,0,0,0,0,-1,1056,757,0,0
-161,267,0,0,0,0,0,0,0,0,0,-1,1063,757,0,0
-154,267,0,0,0,0,0,0,0,0,0,-1,1070,757,0,0
-147,267,0,0,0,0,0,0,0,0,0,-1,1077,757,0,0
-140,267,0,0,0,0,0,0,0,0,0,-1,1084,757,0,0
-133,267,0,0,0,0,0,0,0,0,0,-1,1091,757,0,0
-126,267,0,0,0,0,0,0,0,0,0,-1,1098,757,0,0
-119,267,0,0,0,0,0,0,0,0,0,-1,1105,757,0,0
-112,267,0,0,0,0,0,0,0,0,0,-1,1112,757,0,0
-105,267,0,0,0,0,0,0,0,0,0,-1,1119,757,0,0
-98,267,0,0,0,0,0,0,0,0,0,-1,1126,757,0,0
-91,267,0,0,0,0,0,0,0,0,0,-1,1133,757,0,0
-84,267,0,0,0,0,0,0,0,0,0,-1,1140,757,0,0
-77,267,0,0,0,0,0,0,0,0,0,-1,1147,757,0,0
-70,267,0,0,0,0,0,0,0,0,0,-1,1154,757,0,0
-63,267,0,0,0,0,0,0,0,0,0,-1,1161,757,0,0
-56,267,0,0,0,0,0,0,0,0,0,-1,1168,757,0,0
-49,267,0,0,0,0,0,0,0,0,0,-1,1175,757,0,0
-42,267,0,0,0,0,0,0,0,0,0,-1,1182,757,0,0
-35,267,0,0,0,0,0,0,0,0,0,-1,1189,757,0,0
-28,267,0,0,0,0,0,0,0,0,0,-1,1196,757,0,0
-21,267,0,0,0,0,0,0,0,0,0,-1,1203,757,0,0
-14,267,0,0,0,0,0,0,0,0,0,-1,1210,757,0,0
-7,267,0,0,0,0,0,0,0,0,0,-1,1217,757,0,0
0,267,0,0,0,0,0,0,0,0,0,-1,1224,757,0,0
7,267,0,0,0,0,0,0,0,0,0,-1,1231,757,0,0
14,267,0,0,0,0,0,0,0,0,0,-1,1238,757,0,0
21,267,0,0,0,0,0,0,0,0,0,-1,1245,757,0,0
28,267,0,0,0,0,0,0,0,0,0,-1,1252,757,0,0
35,267,0,0,0,0,0,0,0,0,0,-1,1259,757,0,0
42,267,0,0,0,0,0,0,0,0,0,-1,1266,757,0,0
49,267,0,0,0,0,0,0,0,0,0,-1,1273,757,0,0
56,267,0,0,0,0,0,0,0,0,0,-1,1280,757,0,0
63,267,0,0,0,0,0,0,0,0,0,-1,1287,757,0,0
70,267,0,0,0,0,0,0,0,0,0,-1,1294,757,0,0
77,267,0,0,0,0,0,0,0,0,0,-1,1301,757,0,0
84,267,0,0,0,0,0,0,0,0,0,-1,1308,757,0,0
91,267,0,0,0,0,0,0,0,0,0,-1,1315,757,0,0
98,267,0,0,0,0,0,0,0,0,0,-1,1322,757,0,0
105,267,0,0,0,0,0,0,0,0,0,-1,1329,757,0,0
112,267,0,0,0,0,0,0,0,0,0,-1,1336,757,0,0
119,267,0,0,0,0,0,0,0,0,0,-1,1343,757,0,0
126,267,0,0,0,0,0,0,0,0,0,-1,1350,757,0,0
133,267,0,0,0,0,0,0,0,0,0,-1,1357,757,0,0
140,267,0,0,0,0,0,0,0,0,0,-1,1364,757,0,0
147,267,0,0,0,0,0,0,0,0,0,-1,1371,757,0,0
154,267,0,0,0,0,0,0,0,0,0,-1,1378,757,0,0
161,267,0,0,0,0,0,0,0,0,0,-1,1385,757,0,0
168,267,0,0,0,0,0,0,0,0,0,-1,1392,757,0,0
175,267,0,0,0,0,0,0,0,0,0,-1,1399,757,0,0
182,267,0,0,0,0,0,0,0,0,0,-1,1406,757,0,0
189,267,0,0,0,0,0,0,0,0,0,-1,1413,757,0,0
196,267,0,0,0,0,0,0,0,0,0,-1,1420,757,0,0
203,267,0,0,0,0,0,0,0,0,0,-1,1427,757,0,0
210,267,0,0,0,0,0,0,0,0,0,-1,1434,757,0,0
217,267,0,0,0,0,0,0,0,0,0,-1,1441,757,0,0
224,267,0,0,0,0,0,0,0,0,0,-1,1448,757,0,0
231,267,0,0,0,0,0,0,0,0,0,-1,1455,757,0,0
238,267,0,0,0,0,0,0,0,0,0,-1,1462,757,0,0
245,267,0,0,0,0,0,0,0,0,0,-1,1469,757,0,0
252,267,0,0,0,0,0,0,0,0,0,-1,1476,757,0,0
259,267,0,0,0,0,0,0,0,0,0,-1,1483,757,0,0
266,267,0,0,0,0,0,0,0,0,0,-1,1490,757,0,0
273,267,0,0,0,0,0,0,0,0,0,-1,1497,757,0,0
280,267,0,0,0,0,0,0,0,0,0,-1,1504,757,0,0
287,267,0,0,0,0,0,0,0,0,0,-1,1511,757,0,0
294,267,0,0,0,0,0,0,0,0,0,-1,1518,757,0,0
301,267,0,0,0,0,0,0,0,0,0,-1,1525,757,0,0
308,267,0,0,0,0,0,0,0,0,0,-1,1532,757,0,0
315,267,0,0,0,0,0,0,0,0,0,-1,1539,757,0,0
322,267,0,0,0,0,0,0,0,0,0,-1,1546,757,0,0
329,267,0,0,0,0,0,0,0,0,0,-1,1553,757,0,0
336,267,0,0,0,0,0,0,0,0,0,-1,1560,757,0,0
343,267,0,0,0,0,0,0,0,0,0,-1,1567,757,0,0
350,267,0,0,0,0,0,0,0,0,0,-1,1574,757,0,0
357,267,0,0,0,0,0,0,0,0,0,-1,1581,757,0,0
364,267,0,0,0,0,0,0,0,0,0,-1,1588,757,0,0
371,267,0,0,0,0,0,0,0,0,0,-1,1595,757,0,0
378,267,0,0,0,0,0,0,0,0,0,-1,1602,757,0,0
385,267,0,0,0,0,0,0,0,0,0,-1,1609,757,0,0
392,267,0,0,0,0,0,0,0,0,0,-1,1616,757,0,0
399,267,0,0,0,0,0,0,0,0,0,-1,1623,757,0,0
406,267,0,0,0,0,0,0,0,0,0,-1,1630,757,0,0
413,267,0,0,0,0,0,0,0,0,0,-1,1637,757,0,0
420,267,0,0,0,0,0,0,0,0,0,-1,1644,757,0,0
427,267,0,0,0,0,0,0,0,0,0,-1,1651,757,0,0
434,267,0,0,0,0,0,0,0,0,0,-1,1658,757,0,0
441,267,0,0,0,0,0,0,0,0,0,-1,1665,757,0,0
448,267,0,0,0,0,0,0,0,0,0,-1,1672,757,0,0
455,267,0,0,0,0,0,0,0,0,0,-1,1679,757,0,0
462,267,0,0,0,0,0,0,0,0,0,-1,1686,757,0,0
469,267,0,0,0,0,0,0,0,0,0,-1,1693,757,0,0
476,267,0,0,0,0,0,0,0,0,0,-1,1700,757,0,0
483,267,0,0,0,0,0,0,0,0,0,-1,1707,757,0,0
490,267,0,0,0,0,0,0,0,0,0,-1,1714,757,0,0
497,267,0,0,0,0,0,0,0,0,0,-1,1721,757,0,0
504,267,0,0,0,0,0,0,0,0,0,-1,1728,757,0,0
511,267,0,0,0,0,0,0,0,0,0,-1,1735,757,0,0
518,267,0,0,0,0,0,0,0,0,0,-1,1742,757,0,0
525,267,0,0,0,0,0,0,0,0,0,-1,1749,757,0,0
532,267,0,0,0,0,0,0,0,0,0,-1,1756,757,0,0
539,267,0,0,0,0,0,0,0,0,0,-1,1763,757,0,0
546,267,0,0,0,0,0,0,0,0,0,-1,1770,757,0,0
553,267,0,0,0,0,0,0,0,0,0,-1,1777,757,0,0
560,267,0,0,0,0,0,0,0,0,0,-1,1784,757,0,0
567,267,0.00195313,-0.0986938,0,0,0,0,0,0,0,-1,1791,757,0.00197485,0.0986923
574,267,0.0264893,-0.1828,0.00583376,-0.00927867,-0.00541786,0.00757537,-0.0110203,-0.311025,0.0107974,0.0356283,1798,757,0.0265027,0.182792
581,267,0.0389404,0.026062,0.00512433,-0.00216089,-0.00865683,0.0108737,-0.00791026,-0.586253,0.0108898,0.0389555,1805,757,0.0389135,-0.0260422
588,267,0.191284,0.13501,0.00442655,0.00431155,-0.0095575,0.0139267,-0.00518862,-0.78239,0.0114141,0.0437129,1812,757,0.191248,-0.135001
595,267,-0.568726,0.356262,0,0,0,0,0,0,0,-1,1819,757,-0.56868,-0.356256
602,267,-0.0944824,0.303284,0.00305834,0.0127972,-0.00824332,0.0175019,-0.00164635,-1.05218,0.0122536,0.0451003,1826,757,-0.0944951,-0.30326
609,267,0.582764,0.390503,0.00198238,0.0145966,-0.00662611,0.0174374,-0.000858461,-1.16577,0.0119214,0.0419485,1833,757,0.582823,-0.390489
616,267,0.446167,-0.0157471,0.000951558,0.0148352,-0.00486287,0.016369,-0.000582252,-1.26526,0.0111119,0.0398998,1840,757,0.446133,0.0157199
623,267,0.152222,-0.150574,0.000267749,0.0142502,-0.00328725,0.0149845,-0.000466517,-1.35104,0.0101487,0.0434097,1847,757,0.152211,0.15057
630,267,-0.0332031,-0.117249,-0.000267298,0.0128412,-0.00201472,0.0131438,-0.000569966,-1.42168,0.00895859,0.0374491,1854,757,-0.0332058,0.117249
637,267,-0.0395508,-0.0915527,-0.000731917,0.010927,-0.0009868,0.0110099,-0.000814849,-1.48695,0.00762609,0.0244396,1861,757,-0.0395966,0.0915801
644,267,-0.0391846,-0.0852661,-0.00115495,0.00903295,-6.82181e-05,0.00903341,-0.00115541,-1.5641,0.00644204,0.0117854,1868,757,-0.0392421,0.0852777
651,267,-0.0456543,-0.0895996,-0.00131248,0.0070336,0.000811297,0.00711173,-0.00139061,1.47479,0.00526625,0.0134627,1875,757,-0.0456366,0.089612
658,267,-0.036499,-0.0736084,-0.00169224,0.00513401,0.000958972,0.00526617,-0.0018244,1.43384,0.00425146,0.013399,1882,757,-0.036499,0.0736259
665,267,-0.0241699,-0.0548096,-0.00163005,0.00223413,0.000920192,0.00244207,-0.00183799,1.34856,0.00247928,0.0137453,1889,757,-0.0242229,0.0547989
672,267,-0.0301514,-0.074585,-0.00103386,0.00026622,0.000403443,0.000381241,-0.00114888,1.29307,0.000919725,0.0123117,1896,757,-0.0301625,0.074599
679,267,-0.0318604,-0.0897217,-0.000657081,-0.000695764,-0.000454708,-0.000221304,-0.00113154,-0.764143,0.000692483,0.0122749,1903,757,-0.0318882,0.0897041
686,267,-0.0227051,-0.0857544,-0.000461916,-0.00161745,-0.00143819,0.000510218,-0.00258958,-0.594398,0.0019192,0.0111563,1910,757,-0.0227179,0.08576
693,267,-0.0167236,-0.0648193,-0.000246713,-0.00268424,-0.0022653,0.00110687,-0.00403783,-0.538601,0.00312684,0.0106899,1917,757,-0.0167635,0.0648198
700,267,-0.041748,-0.0529175,0.000229347,-0.00407663,-0.00291555,0.00170069,-0.00554797,-0.467364,0.0043771,0.0131396,1924,757,-0.0417866,0.0529166
707,267,-0.0404053,-0.0654907,0.000559514,-0.00572028,-0.00369551,0.00226892,-0.00742968,-0.433252,0.00585778,0.013672,1931,757,-0.0404092,0.0654717
714,267,0.0435791,-0.108521,0.000906637,-0.0077038,-0.00446082,0.00280092,-0.00959808,-0.401573,0.00750856,0.0272633,1938,757,0.0435802,0.10852
721,267,0.172852,-0.256104,0.00132512,-0.0102045,-0.00515817,0.00329592,-0.0121753,-0.364958,0.00940994,0.0439015,1945,757,0.172874,0.256116
728,267,0.427979,-0.427979,0.00187981,-0.01331,-0.0057255,0.00379616,-0.0152263,-0.322985,0.0116247,0.0491253,1952,757,0.428023,0.427952
735,267,-0.71814,-0.439331,0,0,0,0,0,0,0,-1,1959,757,-0.718102,0.43932
742,267,-0.176147,-0.497009,0,0,0,0,0,0,0,-1,1966,757,-0.176134,0.496993
749,267,0,0,0,0,0,0,0,0,0,-1,1973,757,0,0
756,267,0,0,0,0,0,0,0,0,0,-1,1980,757,0,0
763,267,0,0,0,0,0,0,0,0,0,-1,1987,757,0,0
770,267,0,0,0,0,0,0,0,0,0,-1,1994,757,0,0
777,267,0,0,0,0,0,0,0,0,0,-1,2001,757,0,0
784,267,0,0,0,0,0,0,0,0,0,-1,2008,757,0,0
791,267,0,0,0,0,0,0,0,0,0,-1,2015,757,0,0
798,267,0,0,0,0,0,0,0,0,0,-1,2022,757,0,0
805,267,0,0,0,0,0,0,0,0,0,-1,2029,757,0,0
812,267,0,0,0,0,0,0,0,0,0,-1,2036,757,0,0
-700,260,0,0,0,0,0,0,0,0,0,-1,524,764,0,0
-693,260,0,0,0,0,0,0,0,0,0,-1,531,764,0,0
-686,260,0,0,0,0,0,0,0,0,0,-1,538,764,0,0
-679,260,0,0,0,0,0,0,0,0,0,-1,545,764,0,0
-672,260,0,0,0,0,0,0,0,0,0,-1,552,764,0,0
-665,260,0,0,0,0,0,0,0,0,0,-1,559,764,0,0
-658,260,0,0,0,0,0,0,0,0,0,-1,566,764,0,0
-651,260,0,0,0,0,0,0,0,0,0,-1,573,764,0,0
-644,260,0,0,0,0,0,0,0,0,0,-1,580,764,0,0
-637,260,0,0,0,0,0,0,0,0,0,-1,587,764,0,0
-630,260,0.416565,-1.33832,-0.0204303,0.00503014,0.0324805,0.0271861,-0.0425862,0.972165,0.0406088,0.0472365,594,764,0.416535,1.33829
-623,260,0.332275,-1.06934,-0.0173173,0.00334388,0.0287917,0.0236022,-0.0375756,0.957647,0.0356268,0.045975,601,764,0.332255,1.06932
-616,260,0.190063,-0.733154,-0.0142864,0.00217035,0.0243696,0.0196632,-0.0317793,0.948213,0.0299737,0.0439753,608,764,0.190061,0.733182
-609,260,-0.232117,-0.630432,0,0,0,0,0,0,0,-1,615,764,-0.232106,0.630434
-602,260,-0.428101,-0.0387573,-0.00882766,0.000840722,0.0156002,0.0123385,-0.0203255,0.935647,0.0190456,0.0420041,622,764,-0.428119,0.0387592
-595,260,-0.163818,-0.072876,-0.00650436,0.000561089,0.0117945,0.00934058,-0.0152839,0.930908,0.0143543,0.0444941,629,764,-0.163794,0.0728542
-588,260,0.0588379,-0.0421143,-0.00462586,0.000298823,0.00853369,0.00671832,-0.0110454,0.925855,0.0103568,0.0374743,636,764,0.0588237,0.0421351
-581,260,0.0129395,-0.0437012,-0.00327257,-0.000163249,0.005669,0.0041604,-0.00759623,0.919227,0.00688364,0.0183418,643,764,0.0129192,0.0437003
-574,260,-0.022583,-0.0567627,-0.00201143,-0.000186402,0.00342161,0.00244228,-0.00464011,0.915711,0.00415414,0.0128233,650,764,-0.0226092,0.056791
-567,260,-0.0446777,-0.0366211,-0.000855181,-8.41702e-05,0.00185108,0.00142112,-0.00236047,0.888061,0.00220564,0.0148319,657,764,-0.0446536,0.0366288
-560,260,-0.03479,-0.0440674,0.000100286,8.77008e-05,0.000708489,0.00080251,-0.000614524,0.780958,0.000820521,0.0176271,664,764,-0.034807,0.0440603
-553,260,-0.00982666,-0.0685425,0.000688007,0.000161742,-0.000177096,0.000742052,0.000107697,-0.296197,0.000462996,0.0159153,671,764,-0.00984195,0.0685691
-546,260,0.0114746,-0.071228,0.000701829,-7.14582e-05,-9.71071e-05,0.000713837,-8.34661e-05,-0.123032,0.000506013,0.0104909,678,764,0.0115032,0.0712498
-539,260,-0.00708008,-0.0696411,0.000648716,2.59477e-05,3.59121e-05,0.000650781,2.38837e-05,0.0574115,0.000426116,0.00988709,685,764,-0.00705262,0.069668
-532,260,-0.0237427,-0.06427,0.000461022,0.000682619,0.000693622,0.00127424,-0.000130595,0.864599,0.0008962,0.0113384,692,764,-0.0237549,0.0642496
-525,260,-0.0195313,-0.0784302,-7.33224e-05,0.0011079,0.000922388,0.00161256,-0.000577983,1.07016,0.00131089,0.0113023,699,764,-0.0195053,0.0784255
-518,260,0.000427246,-0.0898438,-0.0012296,0.00140452,0.00145523,0.0020502,-0.00187527,1.1532,0.00226712,0.0116,706,764,0.000453528,0.089863
-511,260,0.0193481,-0.0810547,-0.00301528,0.00117546,0.00182583,0.00185934,-0.00369916,1.21241,0.00326727,0.0175574,713,764,0.0193335,0.0810668
-504,260,-0.072937,-0.0357666,-0.0051348,0.00129926,0.00241284,0.00210355,-0.0059391,1.24904,0.00481622,0.0347977,720,764,-0.0729653,0.0357529
-497,260,-0.193054,0.0753174,-0.00728235,0.00126593,0.0028639,0.00213671,-0.00815313,1.27562,0.00627021,0.04528,727,764,-0.193083,-0.0753187
-490,260,-0.223572,0.182495,-0.00963998,0.000713345,0.00317583,0.00160988,-0.0105365,1.29566,0.00761789,0.0465095,734,764,-0.223592,-0.182524
-483,260,0.16217,0.46344,-0.0120566,0.000331271,0.00341728,0.00121142,-0.0129367,1.31872,0.00905533,0.0423181,741,764,0.162158,-0.463411
-476,260,0.459778,0.591614,0,0,0,0,0,0,0,-1,748,764,0.459761,-0.591639
-469,260,-0.921692,1.24542,0,0,0,0,0,0,0,-1,755,764,-0.921697,-1.24543
-462,260,-1.42133,1.34711,0,0,0,0,0,0,0,-1,762,764,-1.42133,-1.34708
-455,260,-0.559509,0.744141,0,0,0,0,0,0,0,-1,769,764,-0.559484,-0.744153
-448,260,0,0,0,0,0,0,0,0,0,-1,776,764,0,0
-441,260,0,0,0,0,0,0,0,0,0,-1,783,764,0,0
-434,260,0,0,0,0,0,0,0,0,0,-1,790,764,0,0
-427,260,0,0,0,0,0,0,0,0,0,-1,797,764,0,0
-420,260,0,0,0,0,0,0,0,0,0,-1,804,764,0,0
-413,260,0,0,0,0,0,0,0,0,0,-1,811,764,0,0
-406,260,0,0,0,0,0,0,0,0,0,-1,818,764,0,0
-399,260,0,0,0,0,0,0,0,0,0,-1,825,764,0,0
-392,260,0,0,0,0,0,0,0,0,0,-1,832,764,0,0
-385,260,0,0,0,0,0,0,0,0,0,-1,839,764,0,0
-378,260,0,0,0,0,0,0,0,0,0,-1,846,764,0,0
-371,260,0,0,0,0,0,0,0,0,0,-1,853,764,0,0
-364,260,0,0,0,0,0,0,0,0,0,-1,860,764,0,0
-357,260,0,0,0,0,0,0,0,0,0,-1,867,764,0,0
-350,260,0,0,0,0,0,0,0,0,0,-1,874,764,0,0
-343,260,0,0,0,0,0,0,0,0,0,-1,881,764,0,0
-336,260,0,0,0,0,0,0,0,0,0,-1,888,764,0,0
-329,260,0,0,0,0,0,0,0,0,0,-1,895,764,0,0
-322,260,0,0,0,0,0,0,0,0,0,-1,902,764,0,0
-315,260,0,0,0,0,0,0,0,0,0,-1,909,764,0,0
-308,260,0,0,0,0,0,0,0,0,0,-1,916,764,0,0
-301,260,0,0,0,0,0,0,0,0,0,-1,923,764,0,0
-294,260,0,0,0,0,0,0,0,0,0,-1,930,764,0,0
-287,260,0,0,0,0,0,0,0,0,0,-1,937,764,0,0
-280,260,0,0,0,0,0,0,0,0,0,-1,944,764,0,0
-273,260,0,0,0,0,0,0,0,0,0,-1,951,764,0,0
-266,260,0,0,0,0,0,0,0,0,0,-1,958,764,0,0
-259,260,0,0,0,0,0,0,0,0,0,-1,965,764,0,0
-252,260,0,0,0,0,0,0,0,0,0,-1,972,764,0,0
-245,260,0,0,0,0,0,0,0,0,0,-1,979,764,0,0
-238,260,0,0,0,0,0,0,0,0,0,-1,986,764,0,0
-231,260,0,0,0,0,0,0,0,0,0,-1,993,764,0,0
-224,260,0,0,0,0,0,0,0,0,0,-1,1000,764,0,0
-217,260,0,0,0,0,0,0,0,0,0,-1,1007,764,0,0
-210,260,0,0,0,0,0,0,0,0,0,-1,1014,764,0,0
-203,260,0,0,0,0,0,0,0,0,0,-1,1021,764,0,0
-196,260,0,0,0,0,0,0,0,0,0,-1,1028,764,0,0
-189,260,0,0,0,0,0,0,0,0,0,-1,1035,764,0,0
-182,260,0,0,0,0,0,0,0,0,0,-1,1042,764,0,0
-175,260,0,0,0,0,0,0,0,0,0,-1,1049,764,0,0
-168,260,0,0,0,0,0,0,0,0,0,-1,1056,764,0,0
-161,260,0,0,0,0,0,0,0,0,0,-1,1063,764,0,0
-154,260,0,0,0,0,0,0,0,0,0,-1,1070,764,0,0
-147,260,0,0,0,0,0,0,0,0,0,-1,1077,764,0,0
-140,260,0,0,0,0,0,0,0,0,0,-1,1084,764,0,0
-133,260,0,0,0,0,0,0,0,0,0,-1,1091,764,0,0
-126,260,0,0,0,0,0,0,0,0,0,-1,1098,764,0,0
-119,260,0,0,0,0,0,0,0,0,0,-1,1105,764,0,0
-112,260,0,0,0,0,0,0,0,0,0,-1,1112,764,0,0
-105,260,0,0,0,0,0,0,0,0,0,-1,1119,764,0,0
-98,260,0,0,0,0,0,0,0,0,0,-1,1126,764,0,0
-91,260,0,0,0,0,0,0,0,0,0,-1,1133,764,0,0
-84,260,0,0,0,0,0,0,0,0,0,-1,1140,764,0,0
-77,260,0,0,0,0,0,0,0,0,0,-1,1147,764,0,0
-70,260,0,0,0,0,0,0,0,0,0,-1,1154,764,0,0
-63,260,0,0,0,0,0,0,0,0,0,-1,1161,764,0,0
-56,260,0,0,0,0,0,0,0,0,0,-1,1168,764,0,0
-49,260,0,0,0,0,0,0,0,0,0,-1,1175,764,0,0
-42,260,0,0,0,0,0,0,0,0,0,-1,1182,764,0,0
-35,260,0,0,0,0,0,0,0,0,0,-1,1189,764,0,0
-28,260,0,0,0,0,0,0,0,0,0,-1,1196,764,0,0
-21,260,0,0,0,0,0,0,0,0,0,-1,1203,764,0,0
-14,260,0,0,0,0,0,0,0,0,0,-1,1210,764,0,0
-7,260,0,0,0,0,0,0,0,0,0,-1,1217,764,0,0
0,260,0,0,0,0,0,0,0,0,0,-1,1224,764,0,0
7,260,0,0,0,0,0,0,0,0,0,-1,1231,764,0,0
14,260,0,0,0,0,0,0,0,0,0,-1,1238,764,0,0
21,260,0,0,0,0,0,0,0,0,0,-1,1245,764,0,0
28,260,0,0,0,0,0,0,0,0,0,-1,1252,764,0,0
35,260,0,0,0,0,0,0,0,0,0,-1,1259,764,0,0
42,260,0,0,0,0,0,0,0,0,0,-1,1266,764,0,0
49,260,0,0,0,0,0,0,0,0,0,-1,1273,764,0,0
56,260,0,0,0,0,0,0,0,0,0,-1,1280,764,0,0
63,260,0,0,0,0,0,0,0,0,0,-1,1287,764,0,0
70,260,0,0,0,0,0,0,0,0,0,-1,1294,764,0,0
77,260,0,0,0,0,0,0,0,0,0,-1,1301,764,0,0
84,260,0,0,0,0,0,0,0,0,0,-1,1308,764,0,0
91,260,0,0,0,0,0,0,0,0,0,-1,1315,764,0,0
98,260,0,0,0,0,0,0,0,0,0,-1,1322,764,0,0
105,260,0,0,0,0,0,0,0,0,0,-1,1329,764,0,0
112,260,0,0,0,0,0,0,0,0,0,-1,1336,764,0,0
119,260,0,0,0,0,0,0,0,0,0,-1,1343,764,0,0
126,260,0,0,0,0,0,0,0,0,0,-1,1350,764,0,0
133,260,0,0,0,0,0,0,0,0,0,-1,1357,764,0,0
140,260,0,0,0,0,0,0,0,0,0,-1,1364,764,0,0
147,260,0,0,0,0,0,0,0,0,0,-1,1371,764,0,0
154,260,0,0,0,0,0,0,0,0,0,-1,1378,764,0,0
161,260,0,0,0,0,0,0,0,0,0,-1,1385,764,0,0
168,260,0,0,0,0,0,0,0,0,0,-1,1392,764,0,0
175,260,0,0,0,0,0,0,0,0,0,-1,1399,764,0,0
182,260,0,0,0,0,0,0,0,0,0,-1,1406,764,0,0
189,260,0,0,0,0,0,0,0,0,0,-1,1413,764,0,0
196,260,0,0,0,0,0,0,0,0,0,-1,1420,764,0,0
203,260,0,0,0,0,0,0,0,0,0,-1,1427,764,0,0
210,260,0,0,0,0,0,0,0,0,0,-1,1434,764,0,0
217,260,0,0,0,0,0,0,0,0,0,-1,1441,764,0,0
224,260,0,0,0,0,0,0,0,0,0,-1,1448,764,0,0
231,260,0,0,0,0,0,0,0,0,0,-1,1455,764,0,0
238,260,0,0,0,0,0,0,0,0,0,-1,1462,764,0,0
245,260,0,0,0,0,0,0,0,0,0,-1,1469,764,0,0
252,260,0,0,0,0,0,0,0,0,0,-1,1476,764,0,0
259,260,0,0,0,0,0,0,0,0,0,-1,1483,764,0,0
266,260,0,0,0,0,0,0,0,0,0,-1,1490,764,0,0
273,260,0,0,0,0,0,0,0,0,0,-1,1497,764,0,0
280,260,0,0,0,0,0,0,0,0,0,-1,1504,764,0,0
287,260,0,0,0,0,0,0,0,0,0,-1,1511,764,0,0
294,260,0,0,0,0,0,0,0,0,0,-1,1518,764,0,0
301,260,0,0,0,0,0,0,0,0,0,-1,1525,764,0,0
308,260,0,0,0,0,0,0,0,0,0,-1,1532,764,0,0
315,260,0,0,0,0,0,0,0,0,0,-1,1539,764,0,0
322,260,0,0,0,0,0,0,0,0,0,-1,1546,764,0,0
329,260,0,0,0,0,0,0,0,0,0,-1,1553,764,0,0
336,260,0,0,0,0,0,0,0,0,0,-1,1560,764,0,0
343,260,0,0,0,0,0,0,0,0,0,-1,1567,764,0,0
350,260,0,0,0,0,0,0,0,0,0,-1,1574,764,0,0
357,260,0,0,0,0,0,0,0,0,0,-1,1581,764,0,0
364,260,0,0,0,0,0,0,0,0,0,-1,1588,764,0,0
371,260,0,0,0,0,0,0,0,0,0,-1,1595,764,0,0
378,260,0,0,0,0,0,0,0,0,0,-1,1602,764,0,0
385,260,0,0,0,0,0,0,0,0,0,-1,1609,764,0,0
392,260,0,0,0,0,0,0,0,0,0,-1,1616,764,0,0
399,260,0,0,0,0,0,0,0,0,0,-1,1623,764,0,0
406,260,0,0,0,0,0,0,0,0,0,-1,1630,764,0,0
413,260,0,0,0,0,0,0,0,0,0,-1,1637,764,0,0
420,260,0,0,0,0,0,0,0,0,0,-1,1644,764,0,0
427,260,0,0,0,0,0,0,0,0,0,-1,1651,764,0,0
434,260,0,0,0,0,0,0,0,0,0,-1,1658,764,0,0
441,260,0,0,0,0,0,0,0,0,0,-1,1665,764,0,0
448,260,0,0,0,0,0,0,0,0,0,-1,1672,764,0,0
455,260,0,0,0,0,0,0,0,0,0,-1,1679,764,0,0
462,260,0,0,0,0,0,0,0,0,0,-1,1686,764,0,0
469,260,0,0,0,0,0,0,0,0,0,-1,1693,764,0,0
476,260,0,0,0,0,0,0,0,0,0,-1,1700,764,0,0
483,260,0,0,0,0,0,0,0,0,0,-1,1707,764,0,0
490,260,0,0,0,0,0,0,0,0,0,-1,1714,764,0,0
497,260,0,0,0,0,0,0,0,0,0,-1,1721,764,0,0
504,260,0,0,0,0,0,0,0,0,0,-1,1728,764,0,0
511,260,0,0,0,0,0,0,0,0,0,-1,1735,764,0,0
518,260,0,0,0,0,0,0,0,0,0,-1,1742,764,0,0
525,260,0,0,0,0,0,0,0,0,0,-1,1749,764,0,0
532,260,0,0,0,0,0,0,0,0,0,-1,1756,764,0,0
539,260,0,0,0,0,0,0,0,0,0,-1,1763,764,0,0
546,260,0,0,0,0,0,0,0,0,0,-1,1770,764,0,0
553,260,0,0,0,0,0,0,0,0,0,-1,1777,764,0,0
560,260,0,0,0,0,0,0,0,0,0,-1,1784,764,0,0
567,260,0,0,0,0,0,0,0,0,0,-1,1791,764,0,0
574,260,-0.0223389,-0.0927124,0.0101294,-0.0122306,-0.00244402,0.0103934,-0.0124946,-0.107611,0.0132329,0.0322109,1798,764,-0.0223022,0.0927385
581,260,-0.0310059,-0.107422,0.00831411,-0.00288457,-0.00661425,0.0113808,-0.00595131,-0.434152,0.0101691,0.0350498,1805,764,-0.0309856,0.107427
588,260,0.0847168,0.055481,0.00662264,0.00473927,-0.00794971,0.0136862,-0.00232434,-0.726445,0.00998948,0.0414436,1812,764,0.0847311,-0.0555037
595,260,-0.0869141,-0.053833,0.00522779,0.0101148,-0.0080381,0.0160726,-0.000729995,-0.932956,0.0109665,0.0432149,1819,764,-0.0868945,0.0538622
602,260,-0.299683,0.0238037,0.00380321,0.0134041,-0.0072209,0.0172746,-6.73039e-05,-1.07875,0.0115389,0.04192,1826,764,-0.299659,-0.0237922
609,260,0.322388,0.0656738,0.00233213,0.0148707,-0.00583707,0.0171674,3.54713e-05,-1.19594,0.0114331,0.0375542,1833,764,0.322367,-0.065674
616,260,0.667603,-1.09003,0.00110568,0.0147746,-0.00426905,0.0159984,-0.000118058,-1.29163,0.0107051,0.0386482,1840,764,0.667624,1.09005
623,260,-0.354248,-0.289612,0.00024353,0.0138929,-0.00282852,0.0144558,-0.000319398,-1.37434,0.00974543,0.040694,1847,764,-0.354221,0.289598
630,260,-0.196533,-0.162781,-0.000448453,0.012317,-0.00164655,0.0125259,-0.000657415,-1.44456,0.00857816,0.0475281,1854,764,-0.196525,0.162782
637,260,-0.0311279,-0.0670166,-0.0010015,0.010328,-0.000670404,0.0103675,-0.00104103,-1.5119,0.00728352,0.043053,1861,764,-0.0311164,0.0669924
644,260,-0.0394287,-0.0760498,-0.00143324,0.0084175,0.000191576,0.00842122,-0.00143697,1.55136,0.00614936,0.0240494,1868,764,-0.039395,0.0760772
651,260,-0.0444336,-0.078125,-0.00161739,0.00650573,0.00102906,0.00663407,-0.00174573,1.44672,0.00510511,0.0130055,1875,764,-0.0443855,0.0781507
658,260,-0.0407715,-0.0598145,-0.00198441,0.00471613,0.00121441,0.00492944,-0.00219772,1.39692,0.00421442,0.0143214,1882,764,-0.040805,0.0598277
665,260,-0.0187988,-0.0561523,-0.00186594,0.00195361,0.00127878,0.00234221,-0.00225454,1.27578,0.0026541,0.0137136,1889,764,-0.0187745,0.0561763
672,260,-0.0192871,-0.0814209,-0.00124041,0.000196587,0.000864517,0.000602202,-0.00164602,1.13211,0.00134384,0.0117012,1896,764,-0.0193374,0.0814089
679,260,-0.0506592,-0.086731,-0.000846328,-0.000500992,0.000110011,-0.000468924,-0.000878396,1.28716,0.000507529,0.0118374,1903,764,-0.0506154,0.0867385
686,260,-0.0457764,-0.0724487,-0.000614411,-0.00116385,-0.00081183,-3.20774e-05,-0.00174618,-0.622249,0.00115358,0.0109917,1910,764,-0.0457246,0.0724363
693,260,-0.0285645,-0.0587769,-0.00039819,-0.00191006,-0.0015192,0.000542757,-0.002851,-0.554541,0.00210504,0.0106681,1917,764,-0.0285954,0.0587487
700,260,-0.0445557,-0.048645,8.85055e-05,-0.00305979,-0.00203785,0.00108939,-0.00406068,-0.456539,0.00313401,0.0113995,1924,764,-0.0445606,0.0486725
707,260,-0.0667725,-0.0648804,0.000401067,-0.00441453,-0.00265408,0.00157679,-0.00559026,-0.417007,0.00434879,0.0124003,1931,764,-0.0668273,0.0648764
714,260,-0.00646973,-0.0828857,0.000698845,-0.00605626,-0.00321109,0.00198165,-0.00733907,-0.380069,0.00566989,0.0220003,1938,764,-0.00650411,0.0828846
721,260,0.072998,-0.155701,0.001029,-0.00819108,-0.00366381,0.00230759,-0.00946967,-0.335764,0.00720653,0.0399481,1945,764,0.0729673,0.155687
728,260,0.122803,-0.226257,0,0,0,0,0,0,0,-1,1952,764,0.122775,0.226241
735,260,-0.458252,-0.538269,0.00214539,-0.0142857,-0.00394581,0.00304382,-0.0151841,-0.223876,0.0112752,0.0453504,1959,764,-0.458209,0.538253
742,260,0.145996,-0.388733,0.00306817,-0.0184263,-0.00346719,0.0036136,-0.0189717,-0.156036,0.0140086,0.0443642,1966,764,0.146008,0.388727
749,260,0.3125,-0.193665,0.00411556,-0.0234508,-0.00226008,0.00429963,-0.0236349,-0.0812635,0.0173681,0.0421211,1973,764,0.312534,0.193637
756,260,0,0,0,0,0,0,0,0,0,-1,1980,764,0,0
763,260,0,0,0,0,0,0,0,0,0,-1,1987,764,0,0
770,260,0,0,0,0,0,0,0,0,0,-1,1994,764,0,0
777,260,0,0,0,0,0,0,0,0,0,-1,2001,764,0,0
784,260,0,0,0,0,0,0,0,0,0,-1,2008,764,0,0
791,260,0,0,0,0,0,0,0,0,0,-1,2015,764,0,0
798,260,0,0,0,0,0,0,0,0,0,-1,2022,764,0,0
805,260,0,0,0,0,0,0,0,0,0,-1,2029,764,0,0
812,260,0,0,0,0,0,0,0,0,0,-1,2036,764,0,0
-700,253,0,0,0,0,0,0,0,0,0,-1,524,771,0,0
-693,253,0,0,0,0,0,0,0,0,0,-1,531,771,0,0
-686,253,0,0,0,0,0,0,0,0,0,-1,538,771,0,0
-679,253,0,0,0,0,0,0,0,0,0,-1,545,771,0,0
-672,253,0,0,0,0,0,0,0,0,0,-1,552,771,0,0
-665,253,0,0,0,0,0,0,0,0,0,-1,559,771,0,0
-658,253,0,0,0,0,0,0,0,0,0,-1,566,771,0,0
-651,253,0,0,0,0,0,0,0,0,0,-1,573,771,0,0
-644,253,0,0,0,0,0,0,0,0,0,-1,580,771,0,0
-637,253,0.215942,-1.84033,0,0,0,0,0,0,0,-1,587,771,0.21597,1.84034
-630,253,0.295593,-1.10559,0,0,0,0,0,0,0,-1,594,771,0.295574,1.10562
-623,253,0.169373,-0.807312,-0.0168362,0.00623811,0.0290338,0.0259431,-0.0365411,0.974516,0.0362478,0.0466536,601,771,0.169349,0.807321
-616,253,0.249023,-0.515747,-0.013369,0.00456189,0.0245233,0.0217072,-0.0305143,0.960645,0.0302927,0.0431956,608,771,0.249035,0.515718
-609,253,-0.0814819,-0.185181,-0.0102425,0.00331004,0.019967,0.0176193,-0.0245517,0.948986,0.0244569,0.0407715,615,771,-0.081463,0.185153
-602,253,-0.350708,0.0932617,-0.00754141,0.00240909,0.015664,0.0138689,-0.0190013,0.939171,0.0190546,0.0413783,622,771,-0.350722,-0.093278
-595,253,-0.043457,0.106018,-0.00516023,0.00182161,0.0118788,0.0107118,-0.0140505,0.928313,0.0143398,0.0418231,629,771,-0.0434599,-0.105995
-588,253,0.139099,0.0289307,-0.00332906,0.00129934,0.0086081,0.00789889,-0.00992861,0.916713,0.0103149,0.0341484,636,771,0.139123,-0.0289583
-581,253,0.0187378,-0.0341187,-0.00208705,0.000575596,0.00572363,0.0051207,-0.00663215,0.899667,0.00680419,0.0183022,643,771,0.0187477,0.0341347
-574,253,-0.0302124,-0.0714111,-0.000840452,0.0003544,0.00351559,0.00332297,-0.00380902,0.869562,0.00412084,0.0160116,650,771,-0.0301904,0.0714042
-567,253,-0.017395,-0.0895386,0.000335249,0.000428222,0.00205451,0.00243677,-0.0016733,0.79671,0.00238656,0.0140088,657,771,-0.0174057,0.0895204
-560,253,-0.0175171,-0.062561,0.00126959,0.000642577,0.000934918,0.00194216,-3.00002e-05,0.623626,0.00130489,0.0113184,664,771,-0.0175006,0.0625682
-553,253,-0.0264282,-0.0568848,0.00176614,0.000811412,0.000107097,0.001778,0.000799546,0.110349,0.00102826,0.0113538,671,771,-0.0264473,0.0568679
-546,253,-0.0142822,-0.053833,0.0016795,0.000574208,0.000305054,0.0017581,0.000495604,0.252185,0.00104673,0.00989344,678,771,-0.0142538,0.0538225
-539,253,-0.0055542,-0.0718994,0.00160852,0.000761848,0.000476542,0.00182261,0.000547763,0.422227,0.00107983,0.0103704,685,771,-0.00552656,0.071885
-532,253,-0.0187378,-0.0563354,0.00138375,0.0015413,0.00112867,0.00259394,0.000331112,0.82024,0.00163017,0.0139929,692,771,-0.018745,0.0563392
-525,253,-0.015564,-0.0743408,0.000809079,0.00211772,0.00141021,0.00301801,-9.12129e-05,1.00261,0.00204309,0.0118321,699,771,-0.0155493,0.0743335
-518,253,0.00531006,-0.0585938,-0.00038092,0.00260293,0.00191836,0.00354122,-0.00131921,1.1159,0.00290227,0.0139131,706,771,0.00532116,0.0585985
-511,253,-0.0628662,-0.038208,-0.00216068,0.00253548,0.00221347,0.00341431,-0.00303951,1.19285,0.00372821,0.0292894,713,771,-0.0628414,0.0381965
-504,253,-0.36853,0.16687,-0.00422384,0.0027427,0.00264621,0.00363385,-0.00511499,1.24596,0.00507522,0.0394365,720,771,-0.368509,-0.166883
-497,253,-0.464722,0.297913,-0.0064896,0.00285948,0.00291298,0.00369283,-0.00732294,1.29216,0.00647404,0.0440877,727,771,-0.464696,-0.297886
-490,253,-0.528137,0.277161,-0.0091439,0.00248417,0.00302216,0.00322272,-0.00988246,1.33111,0.00788521,0.0439112,734,771,-0.528119,-0.277149
-483,253,-0.664063,0.247986,-0.0118553,0.00217599,0.00298435,0.00278436,-0.0124637,1.3697,0.00937608,0.0470531,741,771,-0.664075,-0.247992
-476,253,1.17059,1.0376,0,0,0,0,0,0,0,-1,748,771,1.17057,-1.03757
-469,253,0.974976,0.984924,0,0,0,0,0,0,0,-1,755,771,0.974995,-0.984915
-462,253,-0.120056,-0.214966,0,0,0,0,0,0,0,-1,762,771,-0.120078,0.214953
-455,253,-0.0235596,0.0010376,0,0,0,0,0,0,0,-1,769,771,-0.0235852,-0.00102034
-448,253,0,0,0,0,0,0,0,0,0,-1,776,771,0,0
-441,253,0,0,0,0,0,0,0,0,0,-1,783,771,0,0
-434,253,0,0,0,0,0,0,0,0,0,-1,790,771,0,0
-427,253,0,0,0,0,0,0,0,0,0,-1,797,771,0,0
-420,253,0,0,0,0,0,0,0,0,0,-1,804,771,0,0
-413,253,0,0,0,0,0,0,0,0,0,-1,811,771,0,0
-406,253,0,0,0,0,0,0,0,0,0,-1,818,771,0,0
-399,253,0,0,0,0,0,0,0,0,0,-1,825,771,0,0
-392,253,0,0,0,0,0,0,0,0,0,-1,832,771,0,0
-385,253,0,0,0,0,0,0,0,0,0,-1,839,771,0,0
-378,253,0,0,0,0,0,0,0,0,0,-1,846,771,0,0
-371,253,0,0,0,0,0,0,0,0,0,-1,853,771,0,0
-364,253,0,0,0,0,0,0,0,0,0,-1,860,771,0,0
-357,253,0,0,0,0,0,0,0,0,0,-1,867,771,0,0
-350,253,0,0,0,0,0,0,0,0,0,-1,874,771,0,0
-343,253,0,0,0,0,0,0,0,0,0,-1,881,771,0,0
-336,253,0,0,0,0,0,0,0,0,0,-1,888,771,0,0
-329,253,0,0,0,0,0,0,0,0,0,-1,895,771,0,0
-322,253,0,0,0,0,0,0,0,0,0,-1,902,771,0,0
-315,253,0,0,0,0,0,0,0,0,0,-1,909,771,0,0
-308,253,0,0,0,0,0,0,0,0,0,-1,916,771,0,0
-301,253,0,0,0,0,0,0,0,0,0,-1,923,771,0,0
-294,253,0,0,0,0,0,0,0,0,0,-1,930,771,0,0
-287,253,0,0,0,0,0,0,0,0,0,-1,937,771,0,0
-280,253,0,0,0,0,0,0,0,0,0,-1,944,771,0,0
-273,253,0,0,0,0,0,0,0,0,0,-1,951,771,0,0
-266,253,0,0,0,0,0,0,0,0,0,-1,958,771,0,0
-259,253,0,0,0,0,0,0,0,0,0,-1,965,771,0,0
-252,253,0,0,0,0,0,0,0,0,0,-1,972,771,0,0
-245,253,0,0,0,0,0,0,0,0,0,-1,979,771,0,0
-238,253,0,0,0,0,0,0,0,0,0,-1,986,771,0,0
-231,253,0,0,0,0,0,0,0,0,0,-1,993,771,0,0
-224,253,0,0,0,0,0,0,0,0,0,-1,1000,771,0,0
-217,253,0,0,0,0,0,0,0,0,0,-1,1007,771,0,0
-210,253,0,0,0,0,0,0,0,0,0,-1,1014,771,0,0
-203,253,0,0,0,0,0,0,0,0,0,-1,1021,771,0,0
-196,253,0,0,0,0,0,0,0,0,0,-1,1028,771,0,0
-189,253,0,0,0,0,0,0,0,0,0,-1,1035,771,0,0
-182,253,0,0,0,0,0,0,0,0,0,-1,1042,771,0,0
-175,253,0,0,0,0,0,0,0,0,0,-1,1049,771,0,0
-168,253,0,0,0,0,0,0,0,0,0,-1,1056,771,0,0
-161,253,0,0,0,0,0,0,0,0,0,-1,1063,771,0,0
-154,253,0,0,0,0,0,0,0,0,0,-1,1070,771,0,0
-147,253,0,0,0,0,0,0,0,0,0,-1,1077,771,0,0
-140,253,0,0,0,0,0,0,0,0,0,-1,1084,771,0,0
-133,253,0,0,0,0,0,0,0,0,0,-1,1091,771,0,0
-126,253,0,0,0,0,0,0,0,0,0,-1,1098,771,0,0
-119,253,0,0,0,0,0,0,0,0,0,-1,1105,771,0,0
-112,253,0,0,0,0,0,0,0,0,0,-1,1112,771,0,0
-105,253,0,0,0,0,0,0,0,0,0,-1,1119,771,0,0
-98,253,0,0,0,0,0,0,0,0,0,-1,1126,771,0,0
-91,253,0,0,0,0,0,0,0,0,0,-1,1133,771,0,0
-84,253,0,0,0,0,0,0,0,0,0,-1,1140,771,0,0
-77,253,0,0,0,0,0,0,0,0,0,-1,1147,771,0,0
-70,253,0,0,0,0,0,0,0,0,0,-1,1154,771,0,0
-63,253,0,0,0,0,0,0,0,0,0,-1,1161,771,0,0
-56,253,0,0,0,0,0,0,0,0,0,-1,1168,771,0,0
-49,253,0,0,0,0,0,0,0,0,0,-1,1175,771,0,0
-42,253,0,0,0,0,0,0,0,0,0,-1,1182,771,0,0
-35,253,0,0,0,0,0,0,0,0,0,-1,1189,771,0,0
-28,253,0,0,0,0,0,0,0,0,0,-1,1196,771,0,0
-21,253,0,0,0,0,0,0,0,0,0,-1,1203,771,0,0
-14,253,0,0,0,0,0,0,0,0,0,-1,1210,771,0,0
-7,253,0,0,0,0,0,0,0,0,0,-1,1217,771,0,0
0,253,0,0,0,0,0,0,0,0,0,-1,1224,771,0,0
7,253,0,0,0,0,0,0,0,0,0,-1,1231,771,0,0
14,253,0,0,0,0,0,0,0,0,0,-1,1238,771,0,0
21,253,0,0,0,0,0,0,0,0,0,-1,1245,771,0,0
28,253,0,0,0,0,0,0,0,0,0,-1,1252,771,0,0
35,253,0,0,0,0,0,0,0,0,0,-1,1259,771,0,0
42,253,0,0,0,0,0,0,0,0,0,-1,1266,771,0,0
49,253,0,0,0,0,0,0,0,0,0,-1,1273,771,0,0
56,253,0,0,0,0,0,0,0,0,0,-1,1280,771,0,0
63,253,0,0,0,0,0,0,0,0,0,-1,1287,771,0,0
70,253,0,0,0,0,0,0,0,0,0,-1,1294,771,0,0
77,253,0,0,0,0,0,0,0,0,0,-1,1301,771,0,0
84,253,0,0,0,0,0,0,0,0,0,-1,1308,771,0,0
91,253,0,0,0,0,0,0,0,0,0,-1,1315,771,0,0
98,253,0,0,0,0,0,0,0,0,0,-1,1322,771,0,0
105,253,0,0,0,0,0,0,0,0,0,-1,1329,771,0,0
112,253,0,0,0,0,0,0,0,0,0,-1,1336,771,0,0
119,253,0,0,0,0,0,0,0,0,0,-1,1343,771,0,0
126,253,0,0,0,0,0,0,0,0,0,-1,1350,771,0,0
133,253,0,0,0,0,0,0,0,0,0,-1,1357,771,0,0
140,253,0,0,0,0,0,0,0,0,0,-1,1364,771,0,0
147,253,0,0,0,0,0,0,0,0,0,-1,1371,771,0,0
154,253,0,0,0,0,0,0,0,0,0,-1,1378,771,0,0
161,253,0,0,0,0,0,0,0,0,0,-1,1385,771,0,0
168,253,0,0,0,0,0,0,0,0,0,-1,1392,771,0,0
175,253,0,0,0,0,0,0,0,0,0,-1,1399,771,0,0
182,253,0,0,0,0,0,0,0,0,0,-1,1406,771,0,0
189,253,0,0,0,0,0,0,0,0,0,-1,1413,771,0,0
196,253,0,0,0,0,0,0,0,0,0,-1,1420,771,0,0
203,253,0,0,0,0,0,0,0,0,0,-1,1427,771,0,0
210,253,0,0,0,0,0,0,0,0,0,-1,1434,771,0,0
217,253,0,0,0,0,0,0,0,0,0,-1,1441,771,0,0
224,253,0,0,0,0,0,0,0,0,0,-1,1448,771,0,0
231,253,0,0,0,0,0,0,0,0,0,-1,1455,771,0,0
238,253,0,0,0,0,0,0,0,0,0,-1,1462,771,0,0
245,253,0,0,0,0,0,0,0,0,0,-1,1469,771,0,0
252,253,0,0,0,0,0,0,0,0,0,-1,1476,771,0,0
259,253,0,0,0,0,0,0,0,0,0,-1,1483,771,0,0
266,253,0,0,0,0,0,0,0,0,0,-1,1490,771,0,0
273,253,0,0,0,0,0,0,0,0,0,-1,1497,771,0,0
280,253,0,0,0,0,0,0,0,0,0,-1,1504,771,0,0
287,253,0,0,0,0,0,0,0,0,0,-1,1511,771,0,0
294,253,0,0,0,0,0,0,0,0,0,-1,1518,771,0,0
301,253,0,0,0,0,0,0,0,0,0,-1,1525,771,0,0
308,253,0,0,0,0,0,0,0,0,0,-1,1532,771,0,0
315,253,0,0,0,0,0,0,0,0,0,-1,1539,771,0,0
322,253,0,0,0,0,0,0,0,0,0,-1,1546,771,0,0
329,253,0,0,0,0,0,0,0,0,0,-1,1553,771,0,0
336,253,0,0,0,0,0,0,0,0,0,-1,1560,771,0,0
343,253,0,0,0,0,0,0,0,0,0,-1,1567,771,0,0
350,253,0,0,0,0,0,0,0,0,0,-1,1574,771,0,0
357,253,0,0,0,0,0,0,0,0,0,-1,1581,771,0,0
364,253,0,0,0,0,0,0,0,0,0,-1,1588,771,0,0
371,253,0,0,0,0,0,0,0,0,0,-1,1595,771,0,0
378,253,0,0,0,0,0,0,0,0,0,-1,1602,771,0,0
385,253,0,0,0,0,0,0,0,0,0,-1,1609,771,0,0
392,253,0,0,0,0,0,0,0,0,0,-1,1616,771,0,0
399,253,0,0,0,0,0,0,0,0,0,-1,1623,771,0,0
406,253,0,0,0,0,0,0,0,0,0,-1,1630,771,0,0
413,253,0,0,0,0,0,0,0,0,0,-1,1637,771,0,0
420,253,0,0,0,0,0,0,0,0,0,-1,1644,771,0,0
427,253,0,0,0,0,0,0,0,0,0,-1,1651,771,0,0
434,253,0,0,0,0,0,0,0,0,0,-1,1658,771,0,0
441,253,0,0,0,0,0,0,0,0,0,-1,1665,771,0,0
448,253,0,0,0,0,0,0,0,0,0,-1,1672,771,0,0
455,253,0,0,0,0,0,0,0,0,0,-1,1679,771,0,0
462,253,0,0,0,0,0,0,0,0,0,-1,1686,771,0,0
469,253,0,0,0,0,0,0,0,0,0,-1,1693,771,0,0
476,253,0,0,0,0,0,0,0,0,0,-1,1700,771,0,0
483,253,0,0,0,0,0,0,0,0,0,-1,1707,771,0,0
490,253,0,0,0,0,0,0,0,0,0,-1,1714,771,0,0
497,253,0,0,0,0,0,0,0,0,0,-1,1721,771,0,0
504,253,0,0,0,0,0,0,0,0,0,-1,1728,771,0,0
511,253,0,0,0,0,0,0,0,0,0,-1,1735,771,0,0
518,253,0,0,0,0,0,0,0,0,0,-1,1742,771,0,0
525,253,0,0,0,0,0,0,0,0,0,-1,1749,771,0,0
532,253,0,0,0,0,0,0,0,0,0,-1,1756,771,0,0
539,253,0,0,0,0,0,0,0,0,0,-1,1763,771,0,0
546,253,0,0,0,0,0,0,0,0,0,-1,1770,771,0,0
553,253,0,0,0,0,0,0,0,0,0,-1,1777,771,0,0
560,253,0,0,0,0,0,0,0,0,0,-1,1784,771,0,0
567,253,0,0,0,0,0,0,0,0,0,-1,1791,771,0,0
574,253,-0.0554199,-0.0495605,0.00747504,-0.0156927,0.000478609,0.00748492,-0.0157026,0.0206467,0.0136647,0.0340316,1798,771,-0.0554119,0.0495692
581,253,-0.0717773,-0.0863037,0.00646457,-0.00422295,-0.00437073,0.00802436,-0.00578275,-0.342784,0.00800648,0.0354578,1805,771,-0.0717544,0.0863082
588,253,-0.0670166,-0.0700073,0.00527037,0.00424709,-0.00605869,0.010839,-0.00132153,-0.743274,0.00770437,0.039594,1812,771,-0.0670522,0.070019
595,253,0.0463867,-0.0870972,0.00425444,0.00967185,-0.00654118,0.014043,-0.000116693,-0.9817,0.00940113,0.0436726,1819,771,0.0464079,0.087127
602,253,1.81616,-1.36713,0,0,0,0,0,0,0,-1,1826,771,1.8161,1.36715
609,253,1.2616,-1.56836,0.00182627,0.0139691,-0.00486973,0.0156808,0.00011461,-1.23279,0.0104159,0.0403752,1833,771,1.26156,1.56837
616,253,0.648193,-1.82495,0.000701585,0.0136847,-0.00355272,0.0145933,-0.000207004,-1.32042,0.00979858,0.0399236,1840,771,0.648244,1.82492
623,253,0.341064,-2.1593,-0.000121574,0.0126577,-0.00229326,0.0130567,-0.000520644,-1.3985,0.00888312,0.0462364,1847,771,0.341119,2.15929
630,253,-0.0649414,-0.0171509,0,0,0,0,0,0,0,-1,1854,771,-0.0649139,0.0171798
637,253,-0.0123291,-0.0419922,-0.00128545,0.00915765,-0.000354614,0.00916968,-0.00129748,-1.53689,0.00658834,0.0499605,1861,771,-0.0123413,0.0419642
644,253,-0.039917,-0.0808105,-0.00170036,0.00732318,0.00042553,0.00734321,-0.00172038,1.52378,0.0055584,0.03831,1868,771,-0.0399301,0.0808396
651,253,-0.0628662,-0.0726929,-0.00188893,0.0055627,0.00118317,0.00574605,-0.00207228,1.41705,0.00467708,0.0211327,1875,771,-0.0628982,0.0726987
658,253,-0.052124,-0.0655518,-0.00220609,0.00394118,0.00136195,0.00422941,-0.00249432,1.36224,0.0039248,0.0170285,1882,771,-0.0520631,0.0655739
665,253,-0.074585,-0.0797729,-0.00203883,0.00143022,0.00146783,0.00196794,-0.00257655,1.21964,0.0026316,0.0183645,1889,771,-0.0745884,0.079763
672,253,-0.0601807,-0.0994873,-0.00142123,-6.76389e-05,0.00111964,0.000563867,-0.00205274,1.05725,0.00159013,0.0143572,1896,771,-0.0601208,0.0994587
679,253,-0.0393066,-0.0701294,-0.00103973,-0.000487657,0.000453858,-0.000232483,-0.0012949,1.05861,0.000797155,0.0127742,1903,771,-0.039255,0.0701524
686,253,-0.0169678,-0.0857544,-0.000776117,-0.000911695,-0.00041309,-0.00042529,-0.00126252,-0.704072,0.000741738,0.0152407,1910,771,-0.0169598,0.0857622
693,253,-0.0148926,-0.0699463,-0.000553671,-0.00138796,-0.00101645,0.000127907,-0.00206953,-0.590683,0.00142424,0.0139928,1917,771,-0.0149432,0.0699598
700,253,-0.0267334,-0.0652466,-4.97407e-05,-0.0023663,-0.00142467,0.000628086,-0.00304412,-0.444084,0.00226796,0.0129739,1924,771,-0.0267482,0.0652678
707,253,-0.0526123,-0.0748901,0.00026411,-0.00351743,-0.00189639,0.00105127,-0.00430459,-0.393441,0.00327685,0.0129135,1931,771,-0.0526349,0.0748797
714,253,-0.0422363,-0.0876465,0.000532628,-0.00495214,-0.00211857,0.00125565,-0.00567516,-0.328882,0.00426407,0.0174899,1938,771,-0.042184,0.0876576
721,253,0.0577393,-0.158386,0.000774816,-0.00678709,-0.00199767,0.00127011,-0.00728238,-0.243035,0.00532899,0.0287371,1945,771,0.0577289,0.158401
728,253,0.167725,-0.205627,0.00109102,-0.009223,-0.00164836,0.00134805,-0.00948003,-0.154686,0.00681397,0.0373216,1952,771,0.167715,0.205601
735,253,0.0559082,-0.5,0.00157264,-0.0122651,-0.000712409,0.00160922,-0.0123017,-0.0513022,0.0087868,0.0404104,1959,771,0.0559317,0.500022
742,253,0.267944,-0.316956,0.00225848,-0.0159687,0.00114512,0.00233015,-0.0160404,0.0624975,0.0115489,0.0452229,1966,771,0.268002,0.31696
749,253,0.481445,-0.274963,0.00305108,-0.0203693,0.00442631,0.00385971,-0.0211779,0.180694,0.0155655,0.0426931,1973,771,0.481386,0.274965
756,253,0,0,0,0,0,0,0,0,0,-1,1980,771,0,0
763,253,0,0,0,0,0,0,0,0,0,-1,1987,771,0,0
770,253,0,0,0,0,0,0,0,0,0,-1,1994,771,0,0
777,253,0,0,0,0,0,0,0,0,0,-1,2001,771,0,0
784,253,0,0,0,0,0,0,0,0,0,-1,2008,771,0,0
791,253,0,0,0,0,0,0,0,0,0,-1,2015,771,0,0
798,253,0,0,0,0,0,0,0,0,0,-1,2022,771,0,0
805,253,0,0,0,0,0,0,0,0,0,-1,2029,771,0,0
812,253,0,0,0,0,0,0,0,0,0,-1,2036,771,0,0
-700,246,0,0,0,0,0,0,0,0,0,-1,524,778,0,0
-693,246,0,0,0,0,0,0,0,0,0,-1,531,778,0,0
-686,246,0,0,0,0,0,0,0,0,0,-1,538,778,0,0
-679,246,0,0,0,0,0,0,0,0,0,-1,545,778,0,0
-672,246,0,0,0,0,0,0,0,0,0,-1,552,778,0,0
-665,246,0,0,0,0,0,0,0,0,0,-1,559,778,0,0
-658,246,0,0,0,0,0,0,0,0,0,-1,566,778,0,0
-651,246,0,0,0,0,0,0,0,0,0,-1,573,778,0,0
-644,246,0,0,0,0,0,0,0,0,0,-1,580,778,0,0
-637,246,0.39679,-2.00861,-0.0250795,0.0102718,0.0352361,0.0320171,-0.0468249,1.01787,0.0457863,0.0472215,587,778,0.396779,2.00859
-630,246,0.304504,-1.48547,-0.0204854,0.00816811,0.0326291,0.0294772,-0.0417945,0.992265,0.0413531,0.0495544,594,778,0.304528,1.48549
-623,246,0.295959,-1.08868,-0.0163847,0.00644865,0.0286568,0.0258792,-0.0358153,0.974959,0.0357729,0.0474482,601,778,0.295963,1.08868
-616,246,0.175354,-0.61792,-0.0127301,0.00502457,0.0241456,0.021873,-0.0295785,0.961557,0.0298164,0.0442992,608,778,0.175374,0.617919
-609,246,0.163818,-0.372192,-0.0095105,0.00388852,0.0195991,0.0179015,-0.0235235,0.950086,0.02399,0.0432419,615,778,0.163845,0.372214
-602,246,-0.295044,-0.0325317,-0.00677483,0.00300215,0.0153192,0.0141939,-0.0179666,0.939845,0.0186104,0.0436185,622,778,-0.295018,0.0325199
-595,246,-0.121338,0.106506,-0.00438714,0.00254588,0.011621,0.0112064,-0.0130476,0.930345,0.0140165,0.0423774,629,778,-0.121318,-0.106482
-588,246,0.0366211,0.0861816,-0.00258955,0.00190106,0.00839381,0.00834468,-0.00903318,0.916086,0.0100357,0.0269885,636,778,0.0365956,-0.0861844
-581,246,-0.0126343,-0.0440063,-0.00140597,0.00103217,0.00552824,0.00547416,-0.00584796,0.89392,0.00653802,0.013226,643,778,-0.0126255,0.0440064
-574,246,-0.0101929,-0.0969849,-0.00012088,0.000707959,0.00339131,0.00371008,-0.003123,0.846197,0.00394993,0.0150603,650,778,-0.010212,0.0970135
-567,246,0.00695801,-0.105286,0.00112175,0.000819562,0.00209833,0.00307442,-0.00113311,0.749457,0.00251393,0.0139542,657,778,0.00698164,0.105292
-560,246,0.010376,-0.0921021,0.00208846,0.00109924,0.00104606,0.00275095,0.000436752,0.564557,0.00170711,0.0112133,664,778,0.0103818,0.0920883
-553,246,-0.0160522,-0.0622559,0.00255544,0.00139097,0.000318978,0.00263709,0.00130932,0.250596,0.00152254,0.0124689,671,778,-0.0160548,0.0622359
-546,246,-0.0112305,-0.0600586,0.00244043,0.00117544,0.00066386,0.00272486,0.000891006,0.404795,0.00160429,0.0106279,678,778,-0.0112235,0.0600401
-539,246,-0.0067749,-0.0776367,0.00241595,0.00145977,0.000895057,0.0029526,0.000923119,0.540104,0.00174412,0.00994195,685,778,-0.00675737,0.0776543
-532,246,-0.0137329,-0.081543,0.0022285,0.00231563,0.00154509,0.00381777,0.000726367,0.799492,0.00234093,0.0107748,692,778,-0.0137387,0.0815442
-525,246,-0.0272827,-0.06427,0.00165371,0.00302418,0.00189155,0.00435078,0.000327109,0.959176,0.00279787,0.0115992,699,778,-0.0272648,0.0642482
-518,246,-0.0410156,-0.043457,0.000515537,0.00370833,0.00237952,0.00497734,-0.000753478,1.08086,0.0035958,0.01761,706,778,-0.041019,0.0434434
-511,246,-0.214294,0.0128174,-0.00116049,0.00383774,0.00261685,0.00495712,-0.00227986,1.16659,0.00427251,0.034843,713,778,-0.21428,-0.0128003
-504,246,-0.491699,0.213196,-0.00309352,0.0041338,0.00290876,0.00515904,-0.00411877,1.23193,0.00536776,0.0417409,720,778,-0.491685,-0.213204
-497,246,-0.717651,0.377625,-0.00533187,0.00437434,0.00306347,0.00526035,-0.00621789,1.28926,0.00663464,0.0469157,727,778,-0.717623,-0.377635
-490,246,-0.601257,0.188782,-0.00797818,0.00415602,0.00301943,0.00486584,-0.00868801,1.3399,0.00792835,0.0492835,734,778,-0.601252,-0.188782
-483,246,0.709351,0.858765,0,0,0,0,0,0,0,-1,741,778,0.70935,-0.85875
-476,246,0.841064,0.726624,-0.0137764,0.00285301,0.00209563,0.00311303,-0.0140364,1.44735,0.0105495,0.0475338,748,778,0.841072,-0.726628
-469,246,0.6073,0.568848,-0.0160616,0.00138347,0.000896052,0.00142937,-0.0161075,1.51961,0.0112451,0.0430052,755,778,0.607324,-0.568818
-462,246,-0.105896,-0.167908,-0.0171219,-0.000193381,-0.000857589,-0.000150047,-0.0171652,-1.52031,0.0113938,0.0464191,762,778,-0.105877,0.167927
-455,246,0,0,0,0,0,0,0,0,0,-1,769,778,0,0
-448,246,0,0,0,0,0,0,0,0,0,-1,776,778,0,0
-441,246,0,0,0,0,0,0,0,0,0,-1,783,778,0,0
-434,246,0,0,0,0,0,0,0,0,0,-1,790,778,0,0
-427,246,0,0,0,0,0,0,0,0,0,-1,797,778,0,0
-420,246,0,0,0,0,0,0,0,0,0,-1,804,778,0,0
-413,246,0,0,0,0,0,0,0,0,0,-1,811,778,0,0
-406,246,0,0,0,0,0,0,0,0,0,-1,818,778,0,0
-399,246,0,0,0,0,0,0,0,0,0,-1,825,778,0,0
-392,246,0,0,0,0,0,0,0,0,0,-1,832,778,0,0
-385,246,0,0,0,0,0,0,0,0,0,-1,839,778,0,0
-378,246,0,0,0,0,0,0,0,0,0,-1,846,778,0,0
-371,246,0,0,0,0,0,0,0,0,0,-1,853,778,0,0
-364,246,0,0,0,0,0,0,0,0,0,-1,860,778,0,0
-357,246,0,0,0,0,0,0,0,0,0,-1,867,778,0,0
-350,246,0,0,0,0,0,0,0,0,0,-1,874,778,0,0
-343,246,0,0,0,0,0,0,0,0,0,-1,881,778,0,0
-336,246,0,0,0,0,0,0,0,0,0,-1,888,778,0,0
-329,246,0,0,0,0,0,0,0,0,0,-1,895,778,0,0
-322,246,0,0,0,0,0,0,0,0,0,-1,902,778,0,0
-315,246,0,0,0,0,0,0,0,0,0,-1,909,778,0,0
-308,246,0,0,0,0,0,0,0,0,0,-1,916,778,0,0
-301,246,0,0,0,0,0,0,0,0,0,-1,923,778,0,0
-294,246,0,0,0,0,0,0,0,0,0,-1,930,778,0,0
-287,246,0,0,0,0,0,0,0,0,0,-1,937,778,0,0
-280,246,0,0,0,0,0,0,0,0,0,-1,944,778,0,0
-273,246,0,0,0,0,0,0,0,0,0,-1,951,778,0,0
-266,246,0,0,0,0,0,0,0,0,0,-1,958,778,0,0
-259,246,0,0,0,0,0,0,0,0,0,-1,965,778,0,0
-252,246,0,0,0,0,0,0,0,0,0,-1,972,778,0,0
-245,246,0,0,0,0,0,0,0,0,0,-1,979,778,0,0
-238,246,0,0,0,0,0,0,0,0,0,-1,986,778,0,0
-231,246,0,0,0,0,0,0,0,0,0,-1,993,778,0,0
-224,246,0,0,0,0,0,0,0,0,0,-1,1000,778,0,0
-217,246,0,0,0,0,0,0,0,0,0,-1,1007,778,0,0
-210,246,0,0,0,0,0,0,0,0,0,-1,1014,778,0,0
-203,246,0,0,0,0,0,0,0,0,0,-1,1021,778,0,0
-196,246,0,0,0,0,0,0,0,0,0,-1,1028,778,0,0
-189,246,0,0,0,0,0,0,0,0,0,-1,1035,778,0,0
-182,246,0,0,0,0,0,0,0,0,0,-1,1042,778,0,0
-175,246,0,0,0,0,0,0,0,0,0,-1,1049,778,0,0
-168,246,0,0,0,0,0,0,0,0,0,-1,1056,778,0,0
-161,246,0,0,0,0,0,0,0,0,0,-1,1063,778,0,0
-154,246,0,0,0,0,0,0,0,0,0,-1,1070,778,0,0
-147,246,0,0,0,0,0,0,0,0,0,-1,1077,778,0,0
-140,246,0,0,0,0,0,0,0,0,0,-1,1084,778,0,0
-133,246,0,0,0,0,0,0,0,0,0,-1,1091,778,0,0
-126,246,0,0,0,0,0,0,0,0,0,-1,1098,778,0,0
-119,246,0,0,0,0,0,0,0,0,0,-1,1105,778,0,0
-112,246,0,0,0,0,0,0,0,0,0,-1,1112,778,0,0
-105,246,0,0,0,0,0,0,0,0,0,-1,1119,778,0,0
-98,246,0,0,0,0,0,0,0,0,0,-1,1126,778,0,0
-91,246,0,0,0,0,0,0,0,0,0,-1,1133,778,0,0
-84,246,0,0,0,0,0,0,0,0,0,-1,1140,778,0,0
-77,246,0,0,0,0,0,0,0,0,0,-1,1147,778,0,0
-70,246,0,0,0,0,0,0,0,0,0,-1,1154,778,0,0
-63,246,0,0,0,0,0,0,0,0,0,-1,1161,778,0,0
-56,246,0,0,0,0,0,0,0,0,0,-1,1168,778,0,0
-49,246,0,0,0,0,0,0,0,0,0,-1,1175,778,0,0
-42,246,0,0,0,0,0,0,0,0,0,-1,1182,778,0,0
-35,246,0,0,0,0,0,0,0,0,0,-1,1189,778,0,0
-28,246,0,0,0,0,0,0,0,0,0,-1,1196,778,0,0
-21,246,0,0,0,0,0,0,0,0,0,-1,1203,778,0,0
-14,246,0,0,0,0,0,0,0,0,0,-1,1210,778,0,0
-7,246,0,0,0,0,0,0,0,0,0,-1,1217,778,0,0
0,246,0,0,0,0,0,0,0,0,0,-1,1224,778,0,0
7,246,0,0,0,0,0,0,0,0,0,-1,1231,778,0,0
14,246,0,0,0,0,0,0,0,0,0,-1,1238,778,0,0
21,246,0,0,0,0,0,0,0,0,0,-1,1245,778,0,0
28,246,0,0,0,0,0,0,0,0,0,-1,1252,778,0,0
35,246,0,0,0,0,0,0,0,0,0,-1,1259,778,0,0
42,246,0,0,0,0,0,0,0,0,0,-1,1266,778,0,0
49,246,0,0,0,0,0,0,0,0,0,-1,1273,778,0,0
56,246,0,0,0,0,0,0,0,0,0,-1,1280,778,0,0
63,246,0,0,0,0,0,0,0,0,0,-1,1287,778,0,0
70,246,0,0,0,0,0,0,0,0,0,-1,1294,778,0,0
77,246,0,0,0,0,0,0,0,0,0,-1,1301,778,0,0
84,246,0,0,0,0,0,0,0,0,0,-1,1308,778,0,0
91,246,0,0,0,0,0,0,0,0,0,-1,1315,778,0,0
98,246,0,0,0,0,0,0,0,0,0,-1,1322,778,0,0
105,246,0,0,0,0,0,0,0,0,0,-1,1329,778,0,0
112,246,0,0,0,0,0,0,0,0,0,-1,1336,778,0,0
119,246,0,0,0,0,0,0,0,0,0,-1,1343,778,0,0
126,246,0,0,0,0,0,0,0,0,0,-1,1350,778,0,0
133,246,0,0,0,0,0,0,0,0,0,-1,1357,778,0,0
140,246,0,0,0,0,0,0,0,0,0,-1,1364,778,0,0
147,246,0,0,0,0,0,0,0,0,0,-1,1371,778,0,0
154,246,0,0,0,0,0,0,0,0,0,-1,1378,778,0,0
161,246,0,0,0,0,0,0,0,0,0,-1,1385,778,0,0
168,246,0,0,0,0,0,0,0,0,0,-1,1392,778,0,0
175,246,0,0,0,0,0,0,0,0,0,-1,1399,778,0,0
182,246,0,0,0,0,0,0,0,0,0,-1,1406,778,0,0
189,246,0,0,0,0,0,0,0,0,0,-1,1413,778,0,0
196,246,0,0,0,0,0,0,0,0,0,-1,1420,778,0,0
203,246,0,0,0,0,0,0,0,0,0,-1,1427,778,0,0
210,246,0,0,0,0,0,0,0,0,0,-1,1434,778,0,0
217,246,0,0,0,0,0,0,0,0,0,-1,1441,778,0,0
224,246,0,0,0,0,0,0,0,0,0,-1,1448,778,0,0
231,246,0,0,0,0,0,0,0,0,0,-1,1455,778,0,0
238,246,0,0,0,0,0,0,0,0,0,-1,1462,778,0,0
245,246,0,0,0,0,0,0,0,0,0,-1,1469,778,0,0
252,246,0,0,0,0,0,0,0,0,0,-1,1476,778,0,0
259,246,0,0,0,0,0,0,0,0,0,-1,1483,778,0,0
266,246,0,0,0,0,0,0,0,0,0,-1,1490,778,0,0
273,246,0,0,0,0,0,0,0,0,0,-1,1497,778,0,0
280,246,0,0,0,0,0,0,0,0,0,-1,1504,778,0,0
287,246,0,0,0,0,0,0,0,0,0,-1,1511,778,0,0
294,246,0,0,0,0,0,0,0,0,0,-1,1518,778,0,0
301,246,0,0,0,0,0,0,0,0,0,-1,1525,778,0,0
308,246,0,0,0,0,0,0,0,0,0,-1,1532,778,0,0
315,246,0,0,0,0,0,0,0,0,0,-1,1539,778,0,0
322,246,0,0,0,0,0,0,0,0,0,-1,1546,778,0,0
329,246,0,0,0,0,0,0,0,0,0,-1,1553,778,0,0
336,246,0,0,0,0,0,0,0,0,0,-1,1560,778,0,0
343,246,0,0,0,0,0,0,0,0,0,-1,1567,778,0,0
350,246,0,0,0,0,0,0,0,0,0,-1,1574,778,0,0
357,246,0,0,0,0,0,0,0,0,0,-1,1581,778,0,0
364,246,0,0,0,0,0,0,0,0,0,-1,1588,778,0,0
371,246,0,0,0,0,0,0,0,0,0,-1,1595,778,0,0
378,246,0,0,0,0,0,0,0,0,0,-1,1602,778,0,0
385,246,0,0,0,0,0,0,0,0,0,-1,1609,778,0,0
392,246,0,0,0,0,0,0,0,0,0,-1,1616,778,0,0
399,246,0,0,0,0,0,0,0,0,0,-1,1623,778,0,0
406,246,0,0,0,0,0,0,0,0,0,-1,1630,778,0,0
413,246,0,0,0,0,0,0,0,0,0,-1,1637,778,0,0
420,246,0,0,0,0,0,0,0,0,0,-1,1644,778,0,0
427,246,0,0,0,0,0,0,0,0,0,-1,1651,778,0,0
434,246,0,0,0,0,0,0,0,0,0,-1,1658,778,0,0
441,246,0,0,0,0,0,0,0,0,0,-1,1665,778,0,0
448,246,0,0,0,0,0,0,0,0,0,-1,1672,778,0,0
455,246,0,0,0,0,0,0,0,0,0,-1,1679,778,0,0
462,246,0,0,0,0,0,0,0,0,0,-1,1686,778,0,0
469,246,0,0,0,0,0,0,0,0,0,-1,1693,778,0,0
476,246,0,0,0,0,0,0,0,0,0,-1,1700,778,0,0
483,246,0,0,0,0,0,0,0,0,0,-1,1707,778,0,0
490,246,0,0,0,0,0,0,0,0,0,-1,1714,778,0,0
497,246,0,0,0,0,0,0,0,0,0,-1,1721,778,0,0
504,246,0,0,0,0,0,0,0,0,0,-1,1728,778,0,0
511,246,0,0,0,0,0,0,0,0,0,-1,1735,778,0,0
518,246,0,0,0,0,0,0,0,0,0,-1,1742,778,0,0
525,246,0,0,0,0,0,0,0,0,0,-1,1749,778,0,0
532,246,0,0,0,0,0,0,0,0,0,-1,1756,778,0,0
539,246,0,0,0,0,0,0,0,0,0,-1,1763,778,0,0
546,246,0,0,0,0,0,0,0,0,0,-1,1770,778,0,0
553,246,0,0,0,0,0,0,0,0,0,-1,1777,778,0,0
560,246,0,0,0,0,0,0,0,0,0,-1,1784,778,0,0
567,246,0,0,0,0,0,0,0,0,0,-1,1791,778,0,0
574,246,0,0,0,0,0,0,0,0,0,-1,1798,778,0,0
581,246,-0.0662842,-0.0771484,0.00395915,-0.00636954,-0.00187432,0.00428876,-0.00669915,-0.174076,0.00639455,0.034911,1805,778,-0.066283,0.0771777
588,246,-0.0595703,-0.145813,0.00369678,0.00283412,-0.00380251,0.00709235,-0.000561443,-0.728923,0.00492606,0.0368661,1812,778,-0.0595124,0.145805
595,246,0.0286865,-0.134216,0.00331292,0.00828363,-0.00468642,0.0111029,0.000493604,-1.02921,0.00724304,0.0362603,1819,778,0.0286795,0.134229
602,246,0.171387,-0.231689,0.00254952,0.0112236,-0.00446758,0.0131131,0.000660076,-1.17069,0.00853055,0.0379193,1826,778,0.17135,0.231685
609,246,1.3092,-2.20673,0,0,0,0,0,0,0,-1,1833,778,1.30918,2.20673
616,246,0.640869,-2.58295,0,0,0,0,0,0,0,-1,1840,778,0.640906,2.58292
623,246,1.04663,-1.9873,-0.000135228,0.0107309,-0.00146207,0.0109242,-0.000328514,-1.43936,0.00739474,0.0440141,1847,778,1.04669,1.98733
630,246,0.883179,-1.35345,-0.000737496,0.00920007,-0.00055076,0.0092305,-0.000767928,-1.5156,0.00642496,0.043098,1854,778,0.883118,1.35344
637,246,0.00524902,-0.046875,0,0,0,0,0,0,0,-1,1861,778,0.00527181,0.0469053
644,246,0.242676,-0.292969,-0.00162444,0.00568289,0.00088542,0.00578864,-0.0017302,1.45192,0.00454691,0.0390536,1868,778,0.242708,0.292985
651,246,-0.0206299,-0.0721436,-0.00181065,0.00413339,0.00150335,0.00449198,-0.00216924,1.33664,0.00392302,0.0272668,1875,778,-0.0206367,0.0721329
658,246,-0.0667725,-0.0462646,-0.00207312,0.00277007,0.00163331,0.00326941,-0.00257246,1.2741,0.00338079,0.018826,1882,778,-0.0667662,0.0462708
665,246,-0.0750732,-0.0839844,-0.00189082,0.000642549,0.00172986,0.00151991,-0.00276818,1.10142,0.00251045,0.0194586,1889,778,-0.0751072,0.0839957
672,246,-0.0645752,-0.0769043,-0.00132188,-0.000539963,0.00141401,0.000536142,-0.00239799,0.920274,0.00180413,0.0185453,1896,778,-0.064609,0.0769141
679,246,-0.0302734,-0.0664673,-0.000990685,-0.000648854,0.000804658,2.8396e-06,-0.00164238,0.890047,0.00109587,0.0199191,1903,778,-0.0302255,0.0664396
686,246,0.0078125,-0.0640259,-0.000732283,-0.000829178,-3.01132e-05,-0.000723687,-0.000837774,-0.278062,0.000524639,0.020657,1910,778,0.00786206,0.0640099
693,246,-0.0134277,-0.0776367,-0.000541624,-0.00103671,-0.000571106,-0.000166721,-0.00141161,-0.580897,0.000890718,0.0150897,1917,778,-0.0134793,0.0776267
700,246,-0.0268555,-0.0859375,-6.62884e-05,-0.00185122,-0.000911958,0.000317241,-0.00223475,-0.3981,0.00160606,0.0122714,1924,778,-0.0269063,0.0859247
707,246,-0.0411377,-0.0875854,0.000214299,-0.00281084,-0.0012856,0.000686832,-0.00328338,-0.352231,0.00245016,0.011613,1931,778,-0.0411351,0.087567
714,246,-0.052002,-0.069519,0.000361717,-0.0040552,-0.00126987,0.000700777,-0.00439426,-0.260918,0.00318887,0.0115171,1938,778,-0.051943,0.0694907
721,246,-0.0167236,-0.0874023,0.000363107,-0.00557521,-0.000649385,0.000433291,-0.00564539,-0.10766,0.00391602,0.0150195,1945,778,-0.0166915,0.0874132
728,246,0.0927734,-0.141052,0.00035817,-0.00771622,0.000211991,0.000363732,-0.00772178,0.0262307,0.00527328,0.03038,1952,778,0.0928317,0.141068
735,246,0.0684814,-0.167053,0.000353453,-0.0104003,0.0018419,0.000660183,-0.010707,0.165016,0.00736793,0.0412421,1959,778,0.0684513,0.167038
742,246,0.0794678,-0.00720215,0.000330822,-0.0136388,0.00465441,0.00173953,-0.0150475,0.293896,0.0106589,0.0428222,1966,778,0.0794128,0.00721281
749,246,0.158691,0.152954,0.000139662,-0.0174048,0.00923271,0.00410301,-0.0213682,0.405484,0.0157918,0.042693,1973,778,0.158641,-0.152929
756,246,-0.00793457,0.420837,0,0,0,0,0,0,0,-1,1980,778,-0.00790187,-0.420824
763,246,0,0,0,0,0,0,0,0,0,-1,1987,778,0,0
770,246,0,0,0,0,0,0,0,0,0,-1,1994,778,0,0
777,246,0,0,0,0,0,0,0,0,0,-1,2001,778,0,0
784,246,0,0,0,0,0,0,0,0,0,-1,2008,778,0,0
791,246,0,0,0,0,0,0,0,0,0,-1,2015,778,0,0
798,246,0,0,0,0,0,0,0,0,0,-1,2022,778,0,0
805,246,0,0,0,0,0,0,0,0,0,-1,2029,778,0,0
812,246,0,0,0,0,0,0,0,0,0,-1,2036,778,0,0
-700,239,0,0,0,0,0,0,0,0,0,-1,524,785,0,0
-693,239,0,0,0,0,0,0,0,0,0,-1,531,785,0,0
-686,239,0,0,0,0,0,0,0,0,0,-1,538,785,0,0
-679,239,0,0,0,0,0,0,0,0,0,-1,545,785,0,0
-672,239,0,0,0,0,0,0,0,0,0,-1,552,785,0,0
-665,239,0,0,0,0,0,0,0,0,0,-1,559,785,0,0
-658,239,0,0,0,0,0,0,0,0,0,-1,566,785,0,0
-651,239,0,0,0,0,0,0,0,0,0,-1,573,785,0,0
-644,239,0,0,0,0,0,0,0,0,0,-1,580,785,0,0
-637,239,0.530273,-2.26263,-0.0239191,0.00676037,0.0326052,0.027454,-0.0446127,1.00527,0.041999,0.0449112,587,785,0.530261,2.26263
-630,239,0.56012,-1.80798,-0.0194803,0.00576505,0.0304028,0.0260614,-0.0397766,0.98216,0.0382856,0.0461996,594,785,0.56013,1.80796
-623,239,0.417786,-1.38245,-0.0155733,0.00483608,0.0268909,0.0233935,-0.0341307,0.966746,0.0334039,0.0428318,601,785,0.417812,1.38242
-616,239,0.088623,-0.820374,0,0,0,0,0,0,0,-1,608,785,0.0886081,0.820379
-609,239,0.10437,-0.661438,-0.00911344,0.0032672,0.0185902,0.0166706,-0.0225169,0.946118,0.0227087,0.043159,615,785,0.104394,0.661454
-602,239,-0.0699463,-0.452576,-0.00655478,0.00265677,0.014584,0.013345,-0.017243,0.938347,0.0177077,0.0456991,622,785,-0.0699298,0.452582
-595,239,-0.0430298,-0.0789795,-0.00432454,0.00252484,0.0112223,0.0108334,-0.0126331,0.933493,0.0135617,0.0383225,629,785,-0.0430593,0.0789767
-588,239,-0.0109253,-0.0298462,-0.00263776,0.00200856,0.00818229,0.0081911,-0.0088203,0.92372,0.00982377,0.0166619,636,785,-0.010915,0.0298468
-581,239,-0.00860596,-0.0536499,-0.0014839,0.00110987,0.00535567,0.00532344,-0.00569747,0.904188,0.00636415,0.0100479,643,785,-0.00857799,0.0536198
-574,239,-0.0110474,-0.0774536,-0.000112759,0.000784541,0.00332476,0.00369078,-0.003019,0.852464,0.00388036,0.0109187,650,785,-0.0110393,0.0774307
-567,239,0.0057373,-0.0944214,0.00128157,0.00100608,0.00221682,0.00336492,-0.00107727,0.754371,0.00267566,0.0112202,657,785,0.00574481,0.094406
-560,239,0.0181885,-0.0756226,0.0023719,0.0013682,0.00123941,0.00320721,0.000532891,0.593031,0.0019845,0.0112409,664,785,0.0182102,0.0756112
-553,239,-0.003479,-0.0599976,0.00291778,0.001775,0.000610476,0.00318255,0.00151023,0.409229,0.00183824,0.0130443,671,785,-0.00350634,0.0599937
-546,239,-0.0128174,-0.0750122,0.00289753,0.00159311,0.00106565,0.00349472,0.000995929,0.510789,0.00207894,0.0140449,678,785,-0.0128415,0.07503
-539,239,-0.0323486,-0.0799561,0.00301871,0.00195949,0.00134277,0.00393254,0.00104566,0.597557,0.00235194,0.0150256,685,785,-0.032324,0.0799843
-532,239,-0.0179443,-0.0672607,0.00295817,0.00286887,0.00197036,0.00488439,0.000942659,0.77407,0.00299195,0.0105506,692,785,-0.0179525,0.0672758
-525,239,-0.0342407,-0.0547485,0.00250618,0.00368965,0.00236368,0.00553453,0.000661292,0.90805,0.0034902,0.0107656,699,785,-0.0342563,0.054732
-518,239,-0.0594482,-0.105957,0.0014586,0.00456736,0.00279748,0.00621329,-0.000187327,1.03898,0.00420603,0.0287927,706,785,-0.0594635,0.10594
-511,239,-0.0287476,-0.219849,-9.41574e-05,0.00491559,0.00298639,0.00630852,-0.00148709,1.13437,0.00477913,0.0368311,713,785,-0.0287384,0.219854
-504,239,0.554626,-0.305603,-0.00182194,0.00533861,0.00319798,0.0065589,-0.00304223,1.20627,0.0056658,0.0418442,720,785,0.554615,0.305601
-497,239,-1.10974,0.319458,-0.00398662,0.00574432,0.00326264,0.00673697,-0.00497927,1.27545,0.0067897,0.0478974,727,785,-1.10976,-0.319465
-490,239,0.352112,0.832458,-0.0065588,0.00574237,0.00309218,0.00647591,-0.00729235,1.33788,0.00795376,0.0456881,734,785,0.352084,-0.832463
-483,239,0.392334,0.54834,-0.00936153,0.00543826,0.00265696,0.0059008,-0.00982407,1.39844,0.00917247,0.045355,741,785,0.392347,-0.548368
-476,239,0.383179,0.313904,-0.0121809,0.00459391,0.00178747,0.00478226,-0.0123692,1.46581,0.0102203,0.040467,748,785,0.383188,-0.313908
-469,239,0.02948,-0.0186157,-0.0140396,0.00303023,0.000303779,0.00303564,-0.014045,1.55301,0.0105222,0.0439072,755,785,0.0294601,0.0186153
-462,239,-0.0700073,-0.081604,-0.0145667,0.00156274,-0.00157436,0.00171498,-0.0147189,-1.4744,0.0104314,0.0464676,762,785,-0.0699953,0.0815948
-455,239,0,0,0,0,0,0,0,0,0,-1,769,785,0,0
-448,239,0,0,0,0,0,0,0,0,0,-1,776,785,0,0
-441,239,0,0,0,0,0,0,0,0,0,-1,783,785,0,0
-434,239,0,0,0,0,0,0,0,0,0,-1,790,785,0,0
-427,239,0,0,0,0,0,0,0,0,0,-1,797,785,0,0
-420,239,0,0,0,0,0,0,0,0,0,-1,804,785,0,0
-413,239,0,0,0,0,0,0,0,0,0,-1,811,785,0,0
-406,239,0,0,0,0,0,0,0,0,0,-1,818,785,0,0
-399,239,0,0,0,0,0,0,0,0,0,-1,825,785,0,0
-392,239,0,0,0,0,0,0,0,0,0,-1,832,785,0,0
-385,239,0,0,0,0,0,0,0,0,0,-1,839,785,0,0
-378,239,0,0,0,0,0,0,0,0,0,-1,846,785,0,0
-371,239,0,0,0,0,0,0,0,0,0,-1,853,785,0,0
-364,239,0,0,0,0,0,0,0,0,0,-1,860,785,0,0
-357,239,0,0,0,0,0,0,0,0,0,-1,867,785,0,0
-350,239,0,0,0,0,0,0,0,0,0,-1,874,785,0,0
-343,239,0,0,0,0,0,0,0,0,0,-1,881,785,0,0
-336,239,0,0,0,0,0,0,0,0,0,-1,888,785,0,0
-329,239,0,0,0,0,0,0,0,0,0,-1,895,785,0,0
-322,239,0,0,0,0,0,0,0,0,0,-1,902,785,0,0
-315,239,0,0,0,0,0,0,0,0,0,-1,909,785,0,0
-308,239,0,0,0,0,0,0,0,0,0,-1,916,785,0,0
-301,239,0,0,0,0,0,0,0,0,0,-1,923,785,0,0
-294,239,0,0,0,0,0,0,0,0,0,-1,930,785,0,0
-287,239,0,0,0,0,0,0,0,0,0,-1,937,785,0,0
-280,239,0,0,0,0,0,0,0,0,0,-1,944,785,0,0
-273,239,0,0,0,0,0,0,0,0,0,-1,951,785,0,0
-266,239,0,0,0,0,0,0,0,0,0,-1,958,785,0,0
-259,239,0,0,0,0,0,0,0,0,0,-1,965,785,0,0
-252,239,0,0,0,0,0,0,0,0,0,-1,972,785,0,0
-245,239,0,0,0,0,0,0,0,0,0,-1,979,785,0,0
-238,239,0,0,0,0,0,0,0,0,0,-1,986,785,0,0
-231,239,0,0,0,0,0,0,0,0,0,-1,993,785,0,0
-224,239,0,0,0,0,0,0,0,0,0,-1,1000,785,0,0
-217,239,0,0,0,0,0,0,0,0,0,-1,1007,785,0,0
-210,239,0,0,0,0,0,0,0,0,0,-1,1014,785,0,0
-203,239,0,0,0,0,0,0,0,0,0,-1,1021,785,0,0
-196,239,0,0,0,0,0,0,0,0,0,-1,1028,785,0,0
-189,239,0,0,0,0,0,0,0,0,0,-1,1035,785,0,0
-182,239,0,0,0,0,0,0,0,0,0,-1,1042,785,0,0
-175,239,0,0,0,0,0,0,0,0,0,-1,1049,785,0,0
-168,239,0,0,0,0,0,0,0,0,0,-1,1056,785,0,0
-161,239,0,0,0,0,0,0,0,0,0,-1,1063,785,0,0
-154,239,0,0,0,0,0,0,0,0,0,-1,1070,785,0,0
-147,239,0,0,0,0,0,0,0,0,0,-1,1077,785,0,0
-140,239,0,0,0,0,0,0,0,0,0,-1,1084,785,0,0
-133,239,0,0,0,0,0,0,0,0,0,-1,1091,785,0,0
-126,239,0,0,0,0,0,0,0,0,0,-1,1098,785,0,0
-119,239,0,0,0,0,0,0,0,0,0,-1,1105,785,0,0
-112,239,0,0,0,0,0,0,0,0,0,-1,1112,785,0,0
-105,239,0,0,0,0,0,0,0,0,0,-1,1119,785,0,0
-98,239,0,0,0,0,0,0,0,0,0,-1,1126,785,0,0
-91,239,0,0,0,0,0,0,0,0,0,-1,1133,785,0,0
-84,239,0,0,0,0,0,0,0,0,0,-1,1140,785,0,0
-77,239,0,0,0,0,0,0,0,0,0,-1,1147,785,0,0
-70,239,0,0,0,0,0,0,0,0,0,-1,1154,785,0,0
-63,239,0,0,0,0,0,0,0,0,0,-1,1161,785,0,0
-56,239,0,0,0,0,0,0,0,0,0,-1,1168,785,0,0
-49,239,0,0,0,0,0,0,0,0,0,-1,1175,785,0,0
-42,239,0,0,0,0,0,0,0,0,0,-1,1182,785,0,0
-35,239,0,0,0,0,0,0,0,0,0,-1,1189,785,0,0
-28,239,0,0,0,0,0,0,0,0,0,-1,1196,785,0,0
-21,239,0,0,0,0,0,0,0,0,0,-1,1203,785,0,0
-14,239,0,0,0,0,0,0,0,0,0,-1,1210,785,0,0
-7,239,0,0,0,0,0,0,0,0,0,-1,1217,785,0,0
0,239,0,0,0,0,0,0,0,0,0,-1,1224,785,0,0
7,239,0,0,0,0,0,0,0,0,0,-1,1231,785,0,0
14,239,0,0,0,0,0,0,0,0,0,-1,1238,785,0,0
21,239,0,0,0,0,0,0,0,0,0,-1,1245,785,0,0
28,239,0,0,0,0,0,0,0,0,0,-1,1252,785,0,0
35,239,0,0,0,0,0,0,0,0,0,-1,1259,785,0,0
42,239,0,0,0,0,0,0,0,0,0,-1,1266,785,0,0
49,239,0,0,0,0,0,0,0,0,0,-1,1273,785,0,0
56,239,0,0,0,0,0,0,0,0,0,-1,1280,785,0,0
63,239,0,0,0,0,0,0,0,0,0,-1,1287,785,0,0
70,239,0,0,0,0,0,0,0,0,0,-1,1294,785,0,0
77,239,0,0,0,0,0,0,0,0,0,-1,1301,785,0,0
84,239,0,0,0,0,0,0,0,0,0,-1,1308,785,0,0
91,239,0,0,0,0,0,0,0,0,0,-1,1315,785,0,0
98,239,0,0,0,0,0,0,0,0,0,-1,1322,785,0,0
105,239,0,0,0,0,0,0,0,0,0,-1,1329,785,0,0
112,239,0,0,0,0,0,0,0,0,0,-1,1336,785,0,0
119,239,0,0,0,0,0,0,0,0,0,-1,1343,785,0,0
126,239,0,0,0,0,0,0,0,0,0,-1,1350,785,0,0
133,239,0,0,0,0,0,0,0,0,0,-1,1357,785,0,0
140,239,0,0,0,0,0,0,0,0,0,-1,1364,785,0,0
147,239,0,0,0,0,0,0,0,0,0,-1,1371,785,0,0
154,239,0,0,0,0,0,0,0,0,0,-1,1378,785,0,0
161,239,0,0,0,0,0,0,0,0,0,-1,1385,785,0,0
168,239,0,0,0,0,0,0,0,0,0,-1,1392,785,0,0
175,239,0,0,0,0,0,0,0,0,0,-1,1399,785,0,0
182,239,0,0,0,0,0,0,0,0,0,-1,1406,785,0,0
189,239,0,0,0,0,0,0,0,0,0,-1,1413,785,0,0
196,239,0,0,0,0,0,0,0,0,0,-1,1420,785,0,0
203,239,0,0,0,0,0,0,0,0,0,-1,1427,785,0,0
210,239,0,0,0,0,0,0,0,0,0,-1,1434,785,0,0
217,239,0,0,0,0,0,0,0,0,0,-1,1441,785,0,0
224,239,0,0,0,0,0,0,0,0,0,-1,1448,785,0,0
231,239,0,0,0,0,0,0,0,0,0,-1,1455,785,0,0
238,239,0,0,0,0,0,0,0,0,0,-1,1462,785,0,0
245,239,0,0,0,0,0,0,0,0,0,-1,1469,785,0,0
252,239,0,0,0,0,0,0,0,0,0,-1,1476,785,0,0
259,239,0,0,0,0,0,0,0,0,0,-1,1483,785,0,0
266,239,0,0,0,0,0,0,0,0,0,-1,1490,785,0,0
273,239,0,0,0,0,0,0,0,0,0,-1,1497,785,0,0
280,239,0,0,0,0,0,0,0,0,0,-1,1504,785,0,0
287,239,0,0,0,0,0,0,0,0,0,-1,1511,785,0,0
294,239,0,0,0,0,0,0,0,0,0,-1,1518,785,0,0
301,239,0,0,0,0,0,0,0,0,0,-1,1525,785,0,0
308,239,0,0,0,0,0,0,0,0,0,-1,1532,785,0,0
315,239,0,0,0,0,0,0,0,0,0,-1,1539,785,0,0
322,239,0,0,0,0,0,0,0,0,0,-1,1546,785,0,0
329,239,0,0,0,0,0,0,0,0,0,-1,1553,785,0,0
336,239,0,0,0,0,0,0,0,0,0,-1,1560,785,0,0
343,239,0,0,0,0,0,0,0,0,0,-1,1567,785,0,0
350,239,0,0,0,0,0,0,0,0,0,-1,1574,785,0,0
357,239,0,0,0,0,0,0,0,0,0,-1,1581,785,0,0
364,239,0,0,0,0,0,0,0,0,0,-1,1588,785,0,0
371,239,0,0,0,0,0,0,0,0,0,-1,1595,785,0,0
378,239,0,0,0,0,0,0,0,0,0,-1,1602,785,0,0
385,239,0,0,0,0,0,0,0,0,0,-1,1609,785,0,0
392,239,0,0,0,0,0,0,0,0,0,-1,1616,785,0,0
399,239,0,0,0,0,0,0,0,0,0,-1,1623,785,0,0
406,239,0,0,0,0,0,0,0,0,0,-1,1630,785,0,0
413,239,0,0,0,0,0,0,0,0,0,-1,1637,785,0,0
420,239,0,0,0,0,0,0,0,0,0,-1,1644,785,0,0
427,239,0,0,0,0,0,0,0,0,0,-1,1651,785,0,0
434,239,0,0,0,0,0,0,0,0,0,-1,1658,785,0,0
441,239,0,0,0,0,0,0,0,0,0,-1,1665,785,0,0
448,239,0,0,0,0,0,0,0,0,0,-1,1672,785,0,0
455,239,0,0,0,0,0,0,0,0,0,-1,1679,785,0,0
462,239,0,0,0,0,0,0,0,0,0,-1,1686,785,0,0
469,239,0,0,0,0,0,0,0,0,0,-1,1693,785,0,0
476,239,0,0,0,0,0,0,0,0,0,-1,1700,785,0,0
483,239,0,0,0,0,0,0,0,0,0,-1,1707,785,0,0
490,239,0,0,0,0,0,0,0,0,0,-1,1714,785,0,0
497,239,0,0,0,0,0,0,0,0,0,-1,1721,785,0,0
504,239,0,0,0,0,0,0,0,0,0,-1,1728,785,0,0
511,239,0,0,0,0,0,0,0,0,0,-1,1735,785,0,0
518,239,0,0,0,0,0,0,0,0,0,-1,1742,785,0,0
525,239,0,0,0,0,0,0,0,0,0,-1,1749,785,0,0
532,239,0,0,0,0,0,0,0,0,0,-1,1756,785,0,0
539,239,0,0,0,0,0,0,0,0,0,-1,1763,785,0,0
546,239,0,0,0,0,0,0,0,0,0,-1,1770,785,0,0
553,239,0,0,0,0,0,0,0,0,0,-1,1777,785,0,0
560,239,0,0,0,0,0,0,0,0,0,-1,1784,785,0,0
567,239,0,0,0,0,0,0,0,0,0,-1,1791,785,0,0
574,239,0,0,0,0,0,0,0,0,0,-1,1798,785,0,0
581,239,-0.0477295,-0.0196533,0.00330604,-0.00881329,-0.000319107,0.00331443,-0.00882168,-0.0263061,0.00724328,0.0337346,1805,785,-0.047764,0.0196365
588,239,-0.0576172,-0.0626221,0.00316988,0.000463066,-0.00217726,0.00438009,-0.00074715,-0.507319,0.00319834,0.0343058,1812,785,-0.0576164,0.0626465
595,239,0.0123291,-0.127808,0.00298151,0.00573748,-0.00327546,0.00791302,0.000805978,-0.984509,0.00502827,0.0302246,1819,785,0.01233,0.127794
602,239,0.064209,-0.185852,0.00238696,0.00853617,-0.00327451,0.00995329,0.000969837,-1.16236,0.00633703,0.0342569,1826,785,0.0641534,0.185871
609,239,-0.0125732,-0.0891113,0.0015445,0.00950509,-0.00259602,0.0102769,0.000772736,-1.28183,0.00660874,0.042459,1833,785,-0.0125928,0.0891297
616,239,1.34753,-1.41199,0,0,0,0,0,0,0,-1,1840,785,1.34756,1.41201
623,239,0.899048,-1.38885,-7.63944e-05,0.00816276,-0.000749735,0.00823042,-0.000144062,-1.48078,0.00553559,0.0442649,1847,785,0.899027,1.38883
630,239,0.720215,-1.4635,-0.00065659,0.00683163,5.40058e-05,0.00683202,-0.000656979,1.56358,0.00478872,0.04233,1854,785,0.720207,1.46352
637,239,0.44812,-1.09045,0,0,0,0,0,0,0,-1,1861,785,0.4481,1.09044
644,239,0.232788,-0.494324,-0.00152399,0.00381688,0.0012888,0.00411162,-0.00181872,1.34597,0.00350815,0.0426488,1868,785,0.232834,0.494318
651,239,0.0810547,-0.207031,-0.00173328,0.00258597,0.00178247,0.00322656,-0.00237387,1.22579,0.00324588,0.0334458,1875,785,0.0810174,0.207056
658,239,-0.0384521,-0.0574341,-0.00196485,0.00152923,0.00185917,0.0023334,-0.00276902,1.16256,0.00294946,0.0171983,1882,785,-0.038434,0.057431
665,239,-0.0496826,-0.0593872,-0.00177901,-0.000162878,0.00193394,0.00112502,-0.00306691,0.983291,0.00250528,0.0133466,1889,785,-0.0497024,0.0594109
672,239,-0.0545654,-0.0515747,-0.00129184,-0.00101147,0.00165142,0.000505708,-0.00280902,0.827742,0.00206202,0.0185671,1896,785,-0.0545214,0.0515671
679,239,-0.0384521,-0.0611572,-0.00102934,-0.000843444,0.00111763,0.000185095,-0.00205788,0.826885,0.00143759,0.0191936,1903,785,-0.0384589,0.0611727
686,239,0.000488281,-0.0588379,-0.000795126,-0.000825463,0.000353245,-0.000456724,-0.00116387,0.763941,0.000677123,0.0190581,1910,785,0.000447749,0.0588568
693,239,-0.00305176,-0.0826416,-0.000661687,-0.000807924,-9.96939e-05,-0.000611172,-0.000858439,-0.468992,0.000510248,0.0123142,1917,785,-0.00306926,0.082665
700,239,-0.0362549,-0.0949097,-0.000267906,-0.00147626,-0.000347544,-0.000175078,-0.00156908,-0.261006,0.000992856,0.00971135,1924,785,-0.036269,0.0949106
707,239,-0.0369873,-0.0740967,-9.87138e-05,-0.00226258,-0.00059778,5.54435e-05,-0.00241674,-0.252384,0.00162996,0.0094522,1931,785,-0.036994,0.0740877
714,239,-0.0321045,-0.0689087,-0.000153666,-0.00333073,-0.000351901,-0.000115155,-0.00336924,-0.109003,0.00220878,0.00957678,1938,785,-0.0320546,0.068935
721,239,-0.0198975,-0.0926514,-0.000425304,-0.00455843,0.000670018,-0.000319401,-0.00466433,0.156763,0.00300874,0.0165679,1945,785,-0.01993,0.092644
728,239,0.0725098,-0.0560913,-0.000820847,-0.00638578,0.0019139,-0.000226163,-0.00698046,0.301261,0.00458011,0.0302318,1952,785,0.0725267,0.0561197
735,239,-0.105713,0.0939941,-0.00135789,-0.00870544,0.00398131,0.000385665,-0.010449,0.412775,0.00709805,0.0417439,1959,785,-0.105666,-0.0939797
742,239,-0.178711,0.224548,-0.0020778,-0.0115122,0.00729989,0.00189639,-0.0154864,0.498548,0.011011,0.0433402,1966,785,-0.178734,-0.224539
749,239,-0.226196,0.341858,-0.00312645,-0.0147692,0.0124472,0.00479344,-0.0226891,0.566667,0.0169513,0.0432855,1973,785,-0.22616,-0.341877
756,239,-0.298706,0.516357,-0.00453052,-0.0183428,0.0202168,0.00992718,-0.0328005,0.620811,0.0258202,0.0408482,1980,785,-0.298682,-0.516383
763,239,0,0,0,0,0,0,0,0,0,-1,1987,785,0,0
770,239,0,0,0,0,0,0,0,0,0,-1,1994,785,0,0
777,239,0,0,0,0,0,0,0,0,0,-1,2001,785,0,0
784,239,0,0,0,0,0,0,0,0,0,-1,2008,785,0,0
791,239,0,0,0,0,0,0,0,0,0,-1,2015,785,0,0
798,239,0,0,0,0,0,0,0,0,0,-1,2022,785,0,0
805,239,0,0,0,0,0,0,0,0,0,-1,2029,785,0,0
812,239,0,0,0,0,0,0,0,0,0,-1,2036,785,0,0
-700,232,0,0,0,0,0,0,0,0,0,-1,524,792,0,0
-693,232,0,0,0,0,0,0,0,0,0,-1,531,792,0,0
-686,232,0,0,0,0,0,0,0,0,0,-1,538,792,0,0
-679,232,0,0,0,0,0,0,0,0,0,-1,545,792,0,0
-672,232,0,0,0,0,0,0,0,0,0,-1,552,792,0,0
-665,232,0,0,0,0,0,0,0,0,0,-1,559,792,0,0
-658,232,0,0,0,0,0,0,0,0,0,-1,566,792,0,0
-651,232,0,0,0,0,0,0,0,0,0,-1,573,792,0,0
-644,232,0.674988,-2.9942,-0.0278145,0.00200918,0.0314939,0.0219432,-0.0477484,1.0065,0.0411456,0.0461003,580,792,0.675015,2.99417
-637,232,0.71521,-2.66223,-0.0231353,0.00227994,0.0314419,0.0234851,-0.0443405,0.977443,0.0397714,0.0426604,587,792,0.715239,2.66222
-630,232,0.692078,-2.06372,-0.0187738,0.0023463,0.0292217,0.0228575,-0.039285,0.958785,0.0362935,0.0437456,594,792,0.692063,2.06375
-623,232,0.509888,-1.58868,-0.0149875,0.0022854,0.0258538,0.0209071,-0.0336093,0.946596,0.0317586,0.0439593,601,792,0.509893,1.58866
-616,232,0.134705,-1.17603,-0.0116843,0.00214493,0.0219529,0.0182465,-0.0277859,0.937967,0.0267663,0.0437612,608,792,0.134723,1.17605
-609,232,-0.606812,-0.261108,-0.0088205,0.00196855,0.0179374,0.015305,-0.022157,0.931467,0.021749,0.0438706,615,792,-0.606807,0.261111
-602,232,-0.138977,0.219177,0,0,0,0,0,0,0,-1,622,792,-0.138966,-0.219156
-595,232,-0.0597534,-0.0736084,-0.00428543,0.00202833,0.0109592,0.0102763,-0.0125334,0.92563,0.0131907,0.0318951,629,792,-0.0597809,0.0736325
-588,232,-0.0211182,-0.0601196,-0.00269255,0.00183477,0.00802806,0.00791221,-0.00876999,0.922815,0.00963572,0.011097,636,792,-0.0211124,0.0601134
-581,232,-0.000793457,-0.0664673,-0.00157448,0.00100027,0.00523098,0.00509996,-0.00567417,0.906053,0.00622339,0.0084385,643,792,-0.000795655,0.0664877
-574,232,-0.00921631,-0.0769653,-0.000131411,0.000736566,0.00328837,0.00361947,-0.00301431,0.851007,0.00383532,0.00858444,650,792,-0.0092136,0.0769872
-567,232,-0.032959,-0.0578003,0.0013975,0.00110142,0.00235466,0.00360877,-0.00110985,0.754004,0.0028488,0.00887176,657,792,-0.0329405,0.0577812
-560,232,-0.022644,-0.0455933,0.0026084,0.00156987,0.00147236,0.00365037,0.000527891,0.615869,0.0022781,0.00983634,664,792,-0.0226612,0.0455898
-553,232,-0.00219727,-0.06427,0.00323345,0.00210348,0.000958667,0.00378123,0.0015557,0.519124,0.00219448,0.0118627,671,792,-0.00217764,0.0642873
-546,232,-0.0358276,-0.0703125,0.00331822,0.00198484,0.0014796,0.0042744,0.00102866,0.573727,0.0025761,0.0194156,678,792,-0.0358579,0.0703277
-539,232,-0.0529785,-0.0668945,0.00360444,0.0024314,0.00179109,0.0049026,0.00113324,0.627168,0.00296377,0.0236693,685,792,-0.0529835,0.0668806
-532,232,-0.0322876,-0.0534668,0.00367282,0.00336701,0.00237497,0.0058998,0.00114003,0.753251,0.00361364,0.0135155,692,792,-0.0322913,0.0534513
-525,232,0.00372314,-0.0480347,0.00335235,0.00427579,0.00277944,0.0066316,0.000996538,0.867706,0.00412917,0.0180122,699,792,0.00374164,0.0480608
-518,232,0.0908813,-0.10675,0.00242411,0.00528478,0.00317187,0.0073339,0.000374984,0.997217,0.00476919,0.0376693,706,792,0.0908758,0.10677
-511,232,0.248291,-0.317322,0.000933276,0.00579045,0.00329599,0.00745595,-0.000732231,1.10291,0.00523182,0.0436518,713,792,0.248268,0.317294
-504,232,0.558228,-0.64447,-0.000821344,0.00636379,0.00340408,0.00772039,-0.00217795,1.19156,0.00600602,0.04578,720,792,0.558241,0.644494
-497,232,0.877319,-1.03687,0,0,0,0,0,0,0,-1,727,792,0.877349,1.03689
-490,232,0.132874,0.203247,-0.00584988,0.00718285,0.00305214,0.00786221,-0.00652925,1.35178,0.00832079,0.0456856,734,792,0.132846,-0.203226
-483,232,0.086853,0.0790405,-0.00903744,0.00712943,0.00244673,0.00749161,-0.00939962,1.42384,0.00977287,0.043436,741,792,0.0868712,-0.0790264
-476,232,0.00158691,-0.0706177,-0.0122765,0.00657859,0.0014049,0.00668269,-0.0123806,1.49683,0.0111689,0.0332026,748,792,0.00158827,0.0705951
-469,232,-0.071228,-0.1203,-0.0141872,0.005249,-0.00025672,0.00525239,-0.0141906,-1.55759,0.0116141,0.0331083,755,792,-0.071247,0.120281
-462,232,0,0,0,0,0,0,0,0,0,-1,762,792,0,0
-455,232,0,0,0,0,0,0,0,0,0,-1,769,792,0,0
-448,232,0,0,0,0,0,0,0,0,0,-1,776,792,0,0
-441,232,0,0,0,0,0,0,0,0,0,-1,783,792,0,0
-434,232,0,0,0,0,0,0,0,0,0,-1,790,792,0,0
-427,232,0,0,0,0,0,0,0,0,0,-1,797,792,0,0
-420,232,0,0,0,0,0,0,0,0,0,-1,804,792,0,0
-413,232,0,0,0,0,0,0,0,0,0,-1,811,792,0,0
-406,232,0,0,0,0,0,0,0,0,0,-1,818,792,0,0
-399,232,0,0,0,0,0,0,0,0,0,-1,825,792,0,0
-392,232,0,0,0,0,0,0,0,0,0,-1,832,792,0,0
-385,232,0,0,0,0,0,0,0,0,0,-1,839,792,0,0
-378,232,0,0,0,0,0,0,0,0,0,-1,846,792,0,0
-371,232,0,0,0,0,0,0,0,0,0,-1,853,792,0,0
-364,232,0,0,0,0,0,0,0,0,0,-1,860,792,0,0
-357,232,0,0,0,0,0,0,0,0,0,-1,867,792,0,0
-350,232,0,0,0,0,0,0,0,0,0,-1,874,792,0,0
-343,232,0,0,0,0,0,0,0,0,0,-1,881,792,0,0
-336,232,0,0,0,0,0,0,0,0,0,-1,888,792,0,0
-329,232,0,0,0,0,0,0,0,0,0,-1,895,792,0,0
-322,232,0,0,0,0,0,0,0,0,0,-1,902,792,0,0
-315,232,0,0,0,0,0,0,0,0,0,-1,909,792,0,0
-308,232,0,0,0,0,0,0,0,0,0,-1,916,792,0,0
-301,232,0,0,0,0,0,0,0,0,0,-1,923,792,0,0
-294,232,0,0,0,0,0,0,0,0,0,-1,930,792,0,0
-287,232,0,0,0,0,0,0,0,0,0,-1,937,792,0,0
-280,232,0,0,0,0,0,0,0,0,0,-1,944,792,0,0
-273,232,0,0,0,0,0,0,0,0,0,-1,951,792,0,0
-266,232,0,0,0,0,0,0,0,0,0,-1,958,792,0,0
-259,232,0,0,0,0,0,0,0,0,0,-1,965,792,0,0
-252,232,0,0,0,0,0,0,0,0,0,-1,972,792,0,0
-245,232,0,0,0,0,0,0,0,0,0,-1,979,792,0,0
-238,232,0,0,0,0,0,0,0,0,0,-1,986,792,0,0
-231,232,0,0,0,0,0,0,0,0,0,-1,993,792,0,0
-224,232,0,0,0,0,0,0,0,0,0,-1,1000,792,0,0
-217,232,0,0,0,0,0,0,0,0,0,-1,1007,792,0,0
-210,232,0,0,0,0,0,0,0,0,0,-1,1014,792,0,0
-203,232,0,0,0,0,0,0,0,0,0,-1,1021,792,0,0
-196,232,0,0,0,0,0,0,0,0,0,-1,1028,792,0,0
-189,232,0,0,0,0,0,0,0,0,0,-1,1035,792,0,0
-182,232,0,0,0,0,0,0,0,0,0,-1,1042,792,0,0
-175,232,0,0,0,0,0,0,0,0,0,-1,1049,792,0,0
-168,232,0,0,0,0,0,0,0,0,0,-1,1056,792,0,0
-161,232,0,0,0,0,0,0,0,0,0,-1,1063,792,0,0
-154,232,0,0,0,0,0,0,0,0,0,-1,1070,792,0,0
-147,232,0,0,0,0,0,0,0,0,0,-1,1077,792,0,0
-140,232,0,0,0,0,0,0,0,0,0,-1,1084,792,0,0
-133,232,0,0,0,0,0,0,0,0,0,-1,1091,792,0,0
-126,232,0,0,0,0,0,0,0,0,0,-1,1098,792,0,0
-119,232,0,0,0,0,0,0,0,0,0,-1,1105,792,0,0
-112,232,0,0,0,0,0,0,0,0,0,-1,1112,792,0,0
-105,232,0,0,0,0,0,0,0,0,0,-1,1119,792,0,0
-98,232,0,0,0,0,0,0,0,0,0,-1,1126,792,0,0
-91,232,0,0,0,0,0,0,0,0,0,-1,1133,792,0,0
-84,232,0,0,0,0,0,0,0,0,0,-1,1140,792,0,0
-77,232,0,0,0,0,0,0,0,0,0,-1,1147,792,0,0
-70,232,0,0,0,0,0,0,0,0,0,-1,1154,792,0,0
-63,232,0,0,0,0,0,0,0,0,0,-1,1161,792,0,0
-56,232,0,0,0,0,0,0,0,0,0,-1,1168,792,0,0
-49,232,0,0,0,0,0,0,0,0,0,-1,1175,792,0,0
-42,232,0,0,0,0,0,0,0,0,0,-1,1182,792,0,0
-35,232,0,0,0,0,0,0,0,0,0,-1,1189,792,0,0
-28,232,0,0,0,0,0,0,0,0,0,-1,1196,792,0,0
-21,232,0,0,0,0,0,0,0,0,0,-1,1203,792,0,0
-14,232,0,0,0,0,0,0,0,0,0,-1,1210,792,0,0
-7,232,0,0,0,0,0,0,0,0,0,-1,1217,792,0,0
0,232,0,0,0,0,0,0,0,0,0,-1,1224,792,0,0
7,232,0,0,0,0,0,0,0,0,0,-1,1231,792,0,0
14,232,0,0,0,0,0,0,0,0,0,-1,1238,792,0,0
21,232,0,0,0,0,0,0,0,0,0,-1,1245,792,0,0
28,232,0,0,0,0,0,0,0,0,0,-1,1252,792,0,0
35,232,0,0,0,0,0,0,0,0,0,-1,1259,792,0,0
42,232,0,0,0,0,0,0,0,0,0,-1,1266,792,0,0
49,232,0,0,0,0,0,0,0,0,0,-1,1273,792,0,0
56,232,0,0,0,0,0,0,0,0,0,-1,1280,792,0,0
63,232,0,0,0,0,0,0,0,0,0,-1,1287,792,0,0
70,232,0,0,0,0,0,0,0,0,0,-1,1294,792,0,0
77,232,0,0,0,0,0,0,0,0,0,-1,1301,792,0,0
84,232,0,0,0,0,0,0,0,0,0,-1,1308,792,0,0
91,232,0,0,0,0,0,0,0,0,0,-1,1315,792,0,0
98,232,0,0,0,0,0,0,0,0,0,-1,1322,792,0,0
105,232,0,0,0,0,0,0,0,0,0,-1,1329,792,0,0
112,232,0,0,0,0,0,0,0,0,0,-1,1336,792,0,0
119,232,0,0,0,0,0,0,0,0,0,-1,1343,792,0,0
126,232,0,0,0,0,0,0,0,0,0,-1,1350,792,0,0
133,232,0,0,0,0,0,0,0,0,0,-1,1357,792,0,0
140,232,0,0,0,0,0,0,0,0,0,-1,1364,792,0,0
147,232,0,0,0,0,0,0,0,0,0,-1,1371,792,0,0
154,232,0,0,0,0,0,0,0,0,0,-1,1378,792,0,0
161,232,0,0,0,0,0,0,0,0,0,-1,1385,792,0,0
168,232,0,0,0,0,0,0,0,0,0,-1,1392,792,0,0
175,232,0,0,0,0,0,0,0,0,0,-1,1399,792,0,0
182,232,0,0,0,0,0,0,0,0,0,-1,1406,792,0,0
189,232,0,0,0,0,0,0,0,0,0,-1,1413,792,0,0
196,232,0,0,0,0,0,0,0,0,0,-1,1420,792,0,0
203,232,0,0,0,0,0,0,0,0,0,-1,1427,792,0,0
210,232,0,0,0,0,0,0,0,0,0,-1,1434,792,0,0
217,232,0,0,0,0,0,0,0,0,0,-1,1441,792,0,0
224,232,0,0,0,0,0,0,0,0,0,-1,1448,792,0,0
231,232,0,0,0,0,0,0,0,0,0,-1,1455,792,0,0
238,232,0,0,0,0,0,0,0,0,0,-1,1462,792,0,0
245,232,0,0,0,0,0,0,0,0,0,-1,1469,792,0,0
252,232,0,0,0,0,0,0,0,0,0,-1,1476,792,0,0
259,232,0,0,0,0,0,0,0,0,0,-1,1483,792,0,0
266,232,0,0,0,0,0,0,0,0,0,-1,1490,792,0,0
273,232,0,0,0,0,0,0,0,0,0,-1,1497,792,0,0
280,232,0,0,0,0,0,0,0,0,0,-1,1504,792,0,0
287,232,0,0,0,0,0,0,0,0,0,-1,1511,792,0,0
294,232,0,0,0,0,0,0,0,0,0,-1,1518,792,0,0
301,232,0,0,0,0,0,0,0,0,0,-1,1525,792,0,0
308,232,0,0,0,0,0,0,0,0,0,-1,1532,792,0,0
315,232,0,0,0,0,0,0,0,0,0,-1,1539,792,0,0
322,232,0,0,0,0,0,0,0,0,0,-1,1546,792,0,0
329,232,0,0,0,0,0,0,0,0,0,-1,1553,792,0,0
336,232,0,0,0,0,0,0,0,0,0,-1,1560,792,0,0
343,232,0,0,0,0,0,0,0,0,0,-1,1567,792,0,0
350,232,0,0,0,0,0,0,0,0,0,-1,1574,792,0,0
357,232,0,0,0,0,0,0,0,0,0,-1,1581,792,0,0
364,232,0,0,0,0,0,0,0,0,0,-1,1588,792,0,0
371,232,0,0,0,0,0,0,0,0,0,-1,1595,792,0,0
378,232,0,0,0,0,0,0,0,0,0,-1,1602,792,0,0
385,232,0,0,0,0,0,0,0,0,0,-1,1609,792,0,0
392,232,0,0,0,0,0,0,0,0,0,-1,1616,792,0,0
399,232,0,0,0,0,0,0,0,0,0,-1,1623,792,0,0
406,232,0,0,0,0,0,0,0,0,0,-1,1630,792,0,0
413,232,0,0,0,0,0,0,0,0,0,-1,1637,792,0,0
420,232,0,0,0,0,0,0,0,0,0,-1,1644,792,0,0
427,232,0,0,0,0,0,0,0,0,0,-1,1651,792,0,0
434,232,0,0,0,0,0,0,0,0,0,-1,1658,792,0,0
441,232,0,0,0,0,0,0,0,0,0,-1,1665,792,0,0
448,232,0,0,0,0,0,0,0,0,0,-1,1672,792,0,0
455,232,0,0,0,0,0,0,0,0,0,-1,1679,792,0,0
462,232,0,0,0,0,0,0,0,0,0,-1,1686,792,0,0
469,232,0,0,0,0,0,0,0,0,0,-1,1693,792,0,0
476,232,0,0,0,0,0,0,0,0,0,-1,1700,792,0,0
483,232,0,0,0,0,0,0,0,0,0,-1,1707,792,0,0
490,232,0,0,0,0,0,0,0,0,0,-1,1714,792,0,0
497,232,0,0,0,0,0,0,0,0,0,-1,1721,792,0,0
504,232,0,0,0,0,0,0,0,0,0,-1,1728,792,0,0
511,232,0,0,0,0,0,0,0,0,0,-1,1735,792,0,0
518,232,0,0,0,0,0,0,0,0,0,-1,1742,792,0,0
525,232,0,0,0,0,0,0,0,0,0,-1,1749,792,0,0
532,232,0,0,0,0,0,0,0,0,0,-1,1756,792,0,0
539,232,0,0,0,0,0,0,0,0,0,-1,1763,792,0,0
546,232,0,0,0,0,0,0,0,0,0,-1,1770,792,0,0
553,232,0,0,0,0,0,0,0,0,0,-1,1777,792,0,0
560,232,0,0,0,0,0,0,0,0,0,-1,1784,792,0,0
567,232,0,0,0,0,0,0,0,0,0,-1,1791,792,0,0
574,232,0,0,0,0,0,0,0,0,0,-1,1798,792,0,0
581,232,0,0,0,0,0,0,0,0,0,-1,1805,792,0,0
588,232,0.00012207,-0.0333252,0.00233704,-0.00279308,-0.00148861,0.0027377,-0.00319374,-0.262919,0.00342789,0.0343524,1812,792,0.00017231,0.0333235
595,232,0.0134277,-0.124756,0.00237773,0.00248567,-0.0027183,0.00515054,-0.00028714,-0.795324,0.0035333,0.0330614,1819,792,0.0133811,0.124726
602,232,0.0335693,-0.159424,0.00202641,0.00526808,-0.00280653,0.00688819,0.000406304,-1.04726,0.00446286,0.0320646,1826,792,0.033548,0.159406
609,232,-0.045166,-0.0540771,0.00137318,0.00630724,-0.00216547,0.00712281,0.0005576,-1.2106,0.00457402,0.0361026,1833,792,-0.0451474,0.0540832
616,232,-0.122681,0.0206909,0.000618866,0.00612203,-0.00127763,0.00640418,0.000336715,-1.35345,0.00416176,0.0391864,1840,792,-0.122685,-0.0206636
623,232,0.581909,-0.748108,-3.61636e-05,0.00530643,-0.000382205,0.00533363,-6.33679e-05,-1.49974,0.00357706,0.0409364,1847,792,0.58193,0.748099
630,232,0.665771,-1.72522,0,0,0,0,0,0,0,-1,1854,792,0.665783,1.7252
637,232,0.29541,-0.970764,0,0,0,0,0,0,0,-1,1861,792,0.29542,0.97078
644,232,0.231689,-0.731506,-0.00136536,0.00188831,0.00156551,0.00251922,-0.00199627,1.1877,0.00261284,0.0450319,1868,792,0.231677,0.731476
651,232,0.081543,-0.324402,-0.00155917,0.000952074,0.00197521,0.00203697,-0.00264407,1.06852,0.00271017,0.0360058,1875,792,0.0815689,0.324427
658,232,-0.0212402,-0.0778198,-0.00172626,0.000228823,0.00201981,0.00149521,-0.00299265,1.01077,0.00263871,0.0205045,1882,792,-0.0212001,0.0778186
665,232,-0.0484619,-0.0648804,-0.00153987,-0.0010175,0.00205952,0.000797336,-0.00335471,0.848471,0.00254424,0.0109349,1889,792,-0.0485005,0.0648952
672,232,-0.0799561,-0.0456543,-0.00115448,-0.00155162,0.00179976,0.000457632,-0.00316373,0.730456,0.00227708,0.0165115,1896,792,-0.0799479,0.045625
679,232,-0.0534668,-0.0571899,-0.000988444,-0.00117202,0.00134049,0.000263399,-0.00242386,0.751215,0.00171048,0.0171999,1903,792,-0.0534402,0.0571769
686,232,-0.0147705,-0.0753174,-0.000806151,-0.00097318,0.000663243,-0.000221186,-0.00155815,0.722769,0.000973448,0.0151675,1910,792,-0.0147778,0.0753443
693,232,-0.0301514,-0.0881348,-0.000756039,-0.000769041,0.000285837,-0.000476629,-0.00104845,0.774028,0.000606155,0.00877574,1917,792,-0.0302097,0.0881617
700,232,-0.0351563,-0.0807495,-0.00048614,-0.00127889,0.000111735,-0.000470693,-0.00129434,0.137381,0.000756492,0.0112433,1924,792,-0.0351676,0.0807518
707,232,-0.0253906,-0.067749,-0.000477235,-0.00186436,-4.15123e-05,-0.000475994,-0.0018656,-0.0298912,0.00111933,0.0117778,1931,792,-0.0254495,0.0677229
714,232,-0.015625,-0.0785522,-0.000704536,-0.00256932,0.00034084,-0.000644191,-0.00262966,0.175232,0.0015827,0.0122925,1938,792,-0.0155833,0.0785633
721,232,-0.0218506,-0.0679321,-0.00115817,-0.00328182,0.00162776,-0.000276527,-0.00416346,0.496394,0.00268821,0.0155176,1945,792,-0.0218245,0.0679079
728,232,-0.079834,0.0592651,-0.00180398,-0.00448413,0.00310153,0.000234602,-0.00652271,0.581476,0.00442874,0.028556,1952,792,-0.0797921,-0.0592567
735,232,-0.28186,0.312927,0,0,0,0,0,0,0,-1,1959,792,-0.281836,-0.312912
742,232,-0.355225,0.392639,0,0,0,0,0,0,0,-1,1966,792,-0.35519,-0.392666
749,232,-0.155151,0.458069,-0.00478324,-0.00949104,0.0138442,0.00690579,-0.0211801,0.70119,0.0168991,0.0418776,1973,792,-0.155174,-0.458048
756,232,-0.204468,0.713013,-0.00608101,-0.0113773,0.0211543,0.0125903,-0.0300486,0.723131,0.0252961,0.0403992,1980,792,-0.204455,-0.713008
763,232,-0.264893,0.947144,0,0,0,0,0,0,0,-1,1987,792,-0.264924,-0.947164
770,232,0,0,0,0,0,0,0,0,0,-1,1994,792,0,0
777,232,0,0,0,0,0,0,0,0,0,-1,2001,792,0,0
784,232,0,0,0,0,0,0,0,0,0,-1,2008,792,0,0
791,232,0,0,0,0,0,0,0,0,0,-1,2015,792,0,0
798,232,0,0,0,0,0,0,0,0,0,-1,2022,792,0,0
805,232,0,0,0,0,0,0,0,0,0,-1,2029,792,0,0
812,232,0,0,0,0,0,0,0,0,0,-1,2036,792,0,0
-700,225,0,0,0,0,0,0,0,0,0,-1,524,799,0,0
-693,225,0,0,0,0,0,0,0,0,0,-1,531,799,0,0
-686,225,0,0,0,0,0,0,0,0,0,-1,538,799,0,0
-679,225,0,0,0,0,0,0,0,0,0,-1,545,799,0,0
-672,225,0,0,0,0,0,0,0,0,0,-1,552,799,0,0
-665,225,0,0,0,0,0,0,0,0,0,-1,559,799,0,0
-658,225,0,0,0,0,0,0,0,0,0,-1,566,799,0,0
-651,225,0,0,0,0,0,0,0,0,0,-1,573,799,0,0
-644,225,0.971008,-3.88904,-0.0233973,-0.00257595,0.0318404,0.0205125,-0.0464858,0.943402,0.0396386,0.0462517,580,799,0.971036,3.88905
-637,225,0.556763,-3.13495,-0.0193648,-0.00154274,0.0311023,0.0218999,-0.0428074,0.924915,0.0380033,0.0450289,587,799,0.556786,3.13493
-630,225,0.592102,-2.44806,-0.0157165,-0.000640181,0.0285848,0.0213837,-0.0377404,0.914319,0.034568,0.0460748,594,799,0.592077,2.44803
-623,225,0.52124,-1.70325,-0.012557,6.4893e-05,0.0251178,0.0196525,-0.0321445,0.908477,0.0301935,0.046307,601,799,0.521257,1.70327
-616,225,0.0209961,-0.710205,-0.00979965,0.000578738,0.0212203,0.0172351,-0.026456,0.905314,0.0254117,0.0424629,608,799,0.0209815,0.710205
-609,225,-0.1521,-0.204834,-0.0074324,0.00086452,0.0172529,0.0144607,-0.0210286,0.903383,0.0206064,0.0465772,615,799,-0.152081,0.204832
-602,225,-0.0686035,0.150146,-0.00542762,0.0010198,0.0135023,0.0116778,-0.0160857,0.902581,0.0160965,0.0478445,622,799,-0.068591,-0.15015
-595,225,-0.0662842,0.0119629,-0.00363767,0.0017198,0.0105162,0.00989307,-0.0118109,0.910108,0.0125471,0.0271592,629,799,-0.0662576,-0.0119903
-588,225,-0.0420532,-0.0733643,-0.00230364,0.00184262,0.00766256,0.00770755,-0.00816856,0.917512,0.00916736,0.011721,636,799,-0.0420297,0.0733487
-581,225,-0.0114136,-0.0700684,-0.00134603,0.00104741,0.00484364,0.00483998,-0.0051386,0.906508,0.00576199,0.0100558,643,799,-0.0114086,0.0700933
-574,225,-0.00897217,-0.0841675,7.98191e-05,0.000843951,0.00301566,0.00350165,-0.00257788,0.84841,0.0035235,0.00821481,650,799,-0.00898553,0.0841845
-567,225,-0.0334473,-0.0827637,0.00163082,0.00130704,0.00226541,0.00374012,-0.000802254,0.749728,0.00279942,0.00933038,657,799,-0.033428,0.0827795
-560,225,-0.0374756,-0.0639038,0.00284005,0.0018426,0.00152218,0.00394312,0.000739531,0.62709,0.0024202,0.0089516,664,799,-0.0374667,0.0639304
-553,225,-0.0141602,-0.0778809,0.0034781,0.00247162,0.00116121,0.00424043,0.0017093,0.580926,0.00246349,0.0101876,671,799,-0.0141598,0.0778949
-546,225,-0.0388794,-0.0734253,0.00363498,0.00241761,0.00176073,0.00488926,0.00116333,0.618978,0.00294923,0.0181631,678,799,-0.0388757,0.0734504
-539,225,-0.0461426,-0.0531006,0.00402856,0.00292237,0.00213702,0.0056829,0.00126803,0.658768,0.00344462,0.0208647,685,799,-0.0461384,0.0531195
-532,225,-0.0319214,-0.0473633,0.00417606,0.00386913,0.00270406,0.006731,0.00131418,0.757052,0.00411975,0.0143652,692,799,-0.0319217,0.0473671
-525,225,0.013855,-0.0134888,0.00395282,0.00486111,0.00313871,0.00757837,0.00123557,0.857246,0.0046949,0.0313621,699,799,0.0138648,0.0134881
-518,225,1.97058,2.20099,0,0,0,0,0,0,0,-1,706,799,1.97061,-2.20098
-511,225,0.622681,-0.160156,0.00169097,0.00665616,0.00362381,0.0085662,-0.000219075,1.08572,0.00578521,0.0459763,713,799,0.622652,0.160139
-504,225,0.888123,-0.388062,-8.72297e-05,0.00736424,0.00365766,0.00885958,-0.00158257,1.18271,0.00649846,0.0476931,720,799,0.888126,0.388086
-497,225,0.389404,-0.431702,-0.00245636,0.00803987,0.00350498,0.00910267,-0.00351915,1.27638,0.00752113,0.0454424,727,799,0.389402,0.431708
-490,225,-0.0122681,-0.00976563,-0.00542206,0.0084981,0.00309834,0.00915658,-0.00608054,1.36139,0.00885671,0.040702,734,799,-0.0122797,0.00975886
-483,225,-0.0587769,-0.102051,-0.00889927,0.00864285,0.0023263,0.00894611,-0.00920253,1.44117,0.0104785,0.0347131,741,799,-0.0587534,0.102029
-476,225,-0.0612183,-0.132324,-0.0124439,0.00832941,0.0011274,0.00839042,-0.0125049,1.51674,0.0121416,0.0302904,748,799,-0.0611887,0.132324
-469,225,-0.0728149,-0.182922,-0.0140846,0.00719343,-0.000657885,0.00721375,-0.0141049,-1.53992,0.0125209,0.0333066,755,799,-0.0728222,0.182943
-462,225,0,0,0,0,0,0,0,0,0,-1,762,799,0,0
-455,225,0,0,0,0,0,0,0,0,0,-1,769,799,0,0
-448,225,0,0,0,0,0,0,0,0,0,-1,776,799,0,0
-441,225,0,0,0,0,0,0,0,0,0,-1,783,799,0,0
-434,225,0,0,0,0,0,0,0,0,0,-1,790,799,0,0
-427,225,0,0,0,0,0,0,0,0,0,-1,797,799,0,0
-420,225,0,0,0,0,0,0,0,0,0,-1,804,799,0,0
-413,225,0,0,0,0,0,0,0,0,0,-1,811,799,0,0
-406,225,0,0,0,0,0,0,0,0,0,-1,818,799,0,0
-399,225,0,0,0,0,0,0,0,0,0,-1,825,799,0,0
-392,225,0,0,0,0,0,0,0,0,0,-1,832,799,0,0
-385,225,0,0,0,0,0,0,0,0,0,-1,839,799,0,0
-378,225,0,0,0,0,0,0,0,0,0,-1,846,799,0,0
-371,225,0,0,0,0,0,0,0,0,0,-1,853,799,0,0
-364,225,0,0,0,0,0,0,0,0,0,-1,860,799,0,0
-357,225,0,0,0,0,0,0,0,0,0,-1,867,799,0,0
-350,225,0,0,0,0,0,0,0,0,0,-1,874,799,0,0
-343,225,0,0,0,0,0,0,0,0,0,-1,881,799,0,0
-336,225,0,0,0,0,0,0,0,0,0,-1,888,799,0,0
-329,225,0,0,0,0,0,0,0,0,0,-1,895,799,0,0
-322,225,0,0,0,0,0,0,0,0,0,-1,902,799,0,0
-315,225,0,0,0,0,0,0,0,0,0,-1,909,799,0,0
-308,225,0,0,0,0,0,0,0,0,0,-1,916,799,0,0
-301,225,0,0,0,0,0,0,0,0,0,-1,923,799,0,0
-294,225,0,0,0,0,0,0,0,0,0,-1,930,799,0,0
-287,225,0,0,0,0,0,0,0,0,0,-1,937,799,0,0
-280,225,0,0,0,0,0,0,0,0,0,-1,944,799,0,0
-273,225,0,0,0,0,0,0,0,0,0,-1,951,799,0,0
-266,225,0,0,0,0,0,0,0,0,0,-1,958,799,0,0
-259,225,0,0,0,0,0,0,0,0,0,-1,965,799,0,0
-252,225,0,0,0,0,0,0,0,0,0,-1,972,799,0,0
-245,225,0,0,0,0,0,0,0,0,0,-1,979,799,0,0
-238,225,0,0,0,0,0,0,0,0,0,-1,986,799,0,0
-231,225,0,0,0,0,0,0,0,0,0,-1,993,799,0,0
-224,225,0,0,0,0,0,0,0,0,0,-1,1000,799,0,0
-217,225,0,0,0,0,0,0,0,0,0,-1,1007,799,0,0
-210,225,0,0,0,0,0,0,0,0,0,-1,1014,799,0,0
-203,225,0,0,0,0,0,0,0,0,0,-1,1021,799,0,0
-196,225,0,0,0,0,0,0,0,0,0,-1,1028,799,0,0
-189,225,0,0,0,0,0,0,0,0,0,-1,1035,799,0,0
-182,225,0,0,0,0,0,0,0,0,0,-1,1042,799,0,0
-175,225,0,0,0,0,0,0,0,0,0,-1,1049,799,0,0
-168,225,0,0,0,0,0,0,0,0,0,-1,1056,799,0,0
-161,225,0,0,0,0,0,0,0,0,0,-1,1063,799,0,0
-154,225,0,0,0,0,0,0,0,0,0,-1,1070,799,0,0
-147,225,0,0,0,0,0,0,0,0,0,-1,1077,799,0,0
-140,225,0,0,0,0,0,0,0,0,0,-1,1084,799,0,0
-133,225,0,0,0,0,0,0,0,0,0,-1,1091,799,0,0
-126,225,0,0,0,0,0,0,0,0,0,-1,1098,799,0,0
-119,225,0,0,0,0,0,0,0,0,0,-1,1105,799,0,0
-112,225,0,0,0,0,0,0,0,0,0,-1,1112,799,0,0
-105,225,0,0,0,0,0,0,0,0,0,-1,1119,799,0,0
-98,225,0,0,0,0,0,0,0,0,0,-1,1126,799,0,0
-91,225,0,0,0,0,0,0,0,0,0,-1,1133,799,0,0
-84,225,0,0,0,0,0,0,0,0,0,-1,1140,799,0,0
-77,225,0,0,0,0,0,0,0,0,0,-1,1147,799,0,0
-70,225,0,0,0,0,0,0,0,0,0,-1,1154,799,0,0
-63,225,0,0,0,0,0,0,0,0,0,-1,1161,799,0,0
-56,225,0,0,0,0,0,0,0,0,0,-1,1168,799,0,0
-49,225,0,0,0,0,0,0,0,0,0,-1,1175,799,0,0
-42,225,0,0,0,0,0,0,0,0,0,-1,1182,799,0,0
-35,225,0,0,0,0,0,0,0,0,0,-1,1189,799,0,0
-28,225,0,0,0,0,0,0,0,0,0,-1,1196,799,0,0
-21,225,0,0,0,0,0,0,0,0,0,-1,1203,799,0,0
-14,225,0,0,0,0,0,0,0,0,0,-1,1210,799,0,0
-7,225,0,0,0,0,0,0,0,0,0,-1,1217,799,0,0
0,225,0,0,0,0,0,0,0,0,0,-1,1224,799,0,0
7,225,0,0,0,0,0,0,0,0,0,-1,1231,799,0,0
14,225,0,0,0,0,0,0,0,0,0,-1,1238,799,0,0
21,225,0,0,0,0,0,0,0,0,0,-1,1245,799,0,0
28,225,0,0,0,0,0,0,0,0,0,-1,1252,799,0,0
35,225,0,0,0,0,0,0,0,0,0,-1,1259,799,0,0
42,225,0,0,0,0,0,0,0,0,0,-1,1266,799,0,0
49,225,0,0,0,0,0,0,0,0,0,-1,1273,799,0,0
56,225,0,0,0,0,0,0,0,0,0,-1,1280,799,0,0
63,225,0,0,0,0,0,0,0,0,0,-1,1287,799,0,0
70,225,0,0,0,0,0,0,0,0,0,-1,1294,799,0,0
77,225,0,0,0,0,0,0,0,0,0,-1,1301,799,0,0
84,225,0,0,0,0,0,0,0,0,0,-1,1308,799,0,0
91,225,0,0,0,0,0,0,0,0,0,-1,1315,799,0,0
98,225,0,0,0,0,0,0,0,0,0,-1,1322,799,0,0
105,225,0,0,0,0,0,0,0,0,0,-1,1329,799,0,0
112,225,0,0,0,0,0,0,0,0,0,-1,1336,799,0,0
119,225,0,0,0,0,0,0,0,0,0,-1,1343,799,0,0
126,225,0,0,0,0,0,0,0,0,0,-1,1350,799,0,0
133,225,0,0,0,0,0,0,0,0,0,-1,1357,799,0,0
140,225,0,0,0,0,0,0,0,0,0,-1,1364,799,0,0
147,225,0,0,0,0,0,0,0,0,0,-1,1371,799,0,0
154,225,0,0,0,0,0,0,0,0,0,-1,1378,799,0,0
161,225,0,0,0,0,0,0,0,0,0,-1,1385,799,0,0
168,225,0,0,0,0,0,0,0,0,0,-1,1392,799,0,0
175,225,0,0,0,0,0,0,0,0,0,-1,1399,799,0,0
182,225,0,0,0,0,0,0,0,0,0,-1,1406,799,0,0
189,225,0,0,0,0,0,0,0,0,0,-1,1413,799,0,0
196,225,0,0,0,0,0,0,0,0,0,-1,1420,799,0,0
203,225,0,0,0,0,0,0,0,0,0,-1,1427,799,0,0
210,225,0,0,0,0,0,0,0,0,0,-1,1434,799,0,0
217,225,0,0,0,0,0,0,0,0,0,-1,1441,799,0,0
224,225,0,0,0,0,0,0,0,0,0,-1,1448,799,0,0
231,225,0,0,0,0,0,0,0,0,0,-1,1455,799,0,0
238,225,0,0,0,0,0,0,0,0,0,-1,1462,799,0,0
245,225,0,0,0,0,0,0,0,0,0,-1,1469,799,0,0
252,225,0,0,0,0,0,0,0,0,0,-1,1476,799,0,0
259,225,0,0,0,0,0,0,0,0,0,-1,1483,799,0,0
266,225,0,0,0,0,0,0,0,0,0,-1,1490,799,0,0
273,225,0,0,0,0,0,0,0,0,0,-1,1497,799,0,0
280,225,0,0,0,0,0,0,0,0,0,-1,1504,799,0,0
287,225,0,0,0,0,0,0,0,0,0,-1,1511,799,0,0
294,225,0,0,0,0,0,0,0,0,0,-1,1518,799,0,0
301,225,0,0,0,0,0,0,0,0,0,-1,1525,799,0,0
308,225,0,0,0,0,0,0,0,0,0,-1,1532,799,0,0
315,225,0,0,0,0,0,0,0,0,0,-1,1539,799,0,0
322,225,0,0,0,0,0,0,0,0,0,-1,1546,799,0,0
329,225,0,0,0,0,0,0,0,0,0,-1,1553,799,0,0
336,225,0,0,0,0,0,0,0,0,0,-1,1560,799,0,0
343,225,0,0,0,0,0,0,0,0,0,-1,1567,799,0,0
350,225,0,0,0,0,0,0,0,0,0,-1,1574,799,0,0
357,225,0,0,0,0,0,0,0,0,0,-1,1581,799,0,0
364,225,0,0,0,0,0,0,0,0,0,-1,1588,799,0,0
371,225,0,0,0,0,0,0,0,0,0,-1,1595,799,0,0
378,225,0,0,0,0,0,0,0,0,0,-1,1602,799,0,0
385,225,0,0,0,0,0,0,0,0,0,-1,1609,799,0,0
392,225,0,0,0,0,0,0,0,0,0,-1,1616,799,0,0
399,225,0,0,0,0,0,0,0,0,0,-1,1623,799,0,0
406,225,0,0,0,0,0,0,0,0,0,-1,1630,799,0,0
413,225,0,0,0,0,0,0,0,0,0,-1,1637,799,0,0
420,225,0,0,0,0,0,0,0,0,0,-1,1644,799,0,0
427,225,0,0,0,0,0,0,0,0,0,-1,1651,799,0,0
434,225,0,0,0,0,0,0,0,0,0,-1,1658,799,0,0
441,225,0,0,0,0,0,0,0,0,0,-1,1665,799,0,0
448,225,0,0,0,0,0,0,0,0,0,-1,1672,799,0,0
455,225,0,0,0,0,0,0,0,0,0,-1,1679,799,0,0
462,225,0,0,0,0,0,0,0,0,0,-1,1686,799,0,0
469,225,0,0,0,0,0,0,0,0,0,-1,1693,799,0,0
476,225,0,0,0,0,0,0,0,0,0,-1,1700,799,0,0
483,225,0,0,0,0,0,0,0,0,0,-1,1707,799,0,0
490,225,0,0,0,0,0,0,0,0,0,-1,1714,799,0,0
497,225,0,0,0,0,0,0,0,0,0,-1,1721,799,0,0
504,225,0,0,0,0,0,0,0,0,0,-1,1728,799,0,0
511,225,0,0,0,0,0,0,0,0,0,-1,1735,799,0,0
518,225,0,0,0,0,0,0,0,0,0,-1,1742,799,0,0
525,225,0,0,0,0,0,0,0,0,0,-1,1749,799,0,0
532,225,0,0,0,0,0,0,0,0,0,-1,1756,799,0,0
539,225,0,0,0,0,0,0,0,0,0,-1,1763,799,0,0
546,225,0,0,0,0,0,0,0,0,0,-1,1770,799,0,0
553,225,0,0,0,0,0,0,0,0,0,-1,1777,799,0,0
560,225,0,0,0,0,0,0,0,0,0,-1,1784,799,0,0
567,225,0,0,0,0,0,0,0,0,0,-1,1791,799,0,0
574,225,0,0,0,0,0,0,0,0,0,-1,1798,799,0,0
581,225,0,0,0,0,0,0,0,0,0,-1,1805,799,0,0
588,225,0.0111084,-0.0305786,0.00160182,-0.00466198,-0.000896606,0.00172763,-0.0047878,-0.139412,0.00389753,0.0337889,1812,799,0.0111535,0.0305959
595,225,0.0119629,-0.127136,0.00203051,0.00031141,-0.00179952,0.00316523,-0.000823307,-0.562592,0.0024315,0.0307249,1819,799,0.0119385,0.127113
602,225,-0.022583,-0.140625,0.00201177,0.00279285,-0.00181848,0.00426226,0.000542366,-0.891172,0.00267908,0.0294901,1826,799,-0.0226109,0.140645
609,225,-0.00915527,-0.0317993,0.00158946,0.00367555,-0.00119619,0.00421958,0.00104543,-1.14395,0.00253741,0.0285261,1833,799,-0.00915957,0.0318289
616,225,-0.0639648,-0.015564,0.000945463,0.00348066,-0.000391503,0.00353974,0.000886381,-1.42102,0.00212685,0.0331688,1840,799,-0.0639522,0.0155608
623,225,0.0250244,-0.0872192,0.00032215,0.00269604,0.000376932,0.00275446,0.000263737,1.41705,0.00175501,0.036699,1847,799,0.0250797,0.087219
630,225,0.287109,-0.577393,-0.000177759,0.00183889,0.00100772,0.00225612,-0.000594995,1.17825,0.00173673,0.0399891,1854,799,0.287059,0.577421
637,225,0.150024,-0.89093,-0.000615346,0.000938221,0.0015349,0.00188171,-0.00155883,1.01965,0.00198931,0.0437255,1861,799,0.150022,0.890913
644,225,0.224487,-0.865845,-0.00100457,0.000120518,0.00192869,0.00156703,-0.00245108,0.927298,0.0023385,0.0443299,1868,799,0.224544,0.865846
651,225,0.0987549,-0.37207,-0.00124973,-0.000508291,0.00214624,0.00129901,-0.00305703,0.870919,0.00258233,0.037073,1875,799,0.0987835,0.372077
658,225,-0.0174561,-0.14801,-0.00140821,-0.000931858,0.00208564,0.000929167,-0.00326923,0.842251,0.00254636,0.0298203,1882,799,-0.017412,0.147992
665,225,-0.0368652,-0.101746,-0.00125609,-0.00171476,0.00208163,0.000608803,-0.00357965,0.730534,0.00261311,0.0114163,1889,799,-0.036913,0.101727
672,225,-0.0487061,-0.0716553,-0.000986569,-0.00193083,0.00184589,0.000446612,-0.00336401,0.660195,0.0024054,0.0154405,1896,799,-0.0486527,0.0716479
679,225,-0.0301514,-0.0878906,-0.00091495,-0.00137792,0.00144943,0.000321363,-0.00261423,0.706213,0.00185922,0.015324,1903,799,-0.0301801,0.0878853
686,225,-0.0316162,-0.09552,-0.000785808,-0.00105029,0.000858385,-4.95372e-05,-0.00178656,0.70897,0.00117488,0.00923871,1910,799,-0.031598,0.0955473
693,225,-0.0405273,-0.0787354,-0.000808374,-0.000703173,0.000536252,-0.000216949,-0.0012946,0.834286,0.000800609,0.00883902,1917,799,-0.0405099,0.0787507
700,225,-0.0413818,-0.069458,-0.000658923,-0.00107538,0.000401939,-0.000414478,-0.00131983,0.546402,0.000779372,0.010353,1924,799,-0.0413935,0.0694863
707,225,-0.0303955,-0.0723877,-0.000770916,-0.00147577,0.000233998,-0.000700307,-0.00154638,0.293064,0.000894123,0.010368,1931,799,-0.0303967,0.0723672
714,225,-0.0124512,-0.0817871,-0.00109154,-0.00165848,0.000603288,-0.000708441,-0.00204157,0.565771,0.00119695,0.0112971,1938,799,-0.0124137,0.0817609
721,225,-0.0142822,-0.0693359,-0.0016317,-0.00186606,0.00206185,0.000316296,-0.00381406,0.757011,0.00265442,0.0126237,1945,799,-0.0143242,0.0693238
728,225,-0.0314941,0.00396729,-0.0023962,-0.00240928,0.00365453,0.0012518,-0.00605728,0.784504,0.00451369,0.0218474,1952,799,-0.0315117,-0.00394924
735,225,-0.540527,0.160706,-0.00334298,-0.00293978,0.00596237,0.00282439,-0.00910716,0.802298,0.00719999,0.0401767,1959,799,-0.540558,-0.16068
742,225,-1.13428,0.452454,-0.00442268,-0.00345066,0.00941081,0.00548668,-0.01336,0.811197,0.0111932,0.0476884,1966,799,-1.13422,-0.452473
749,225,-1.66626,0.829529,0,0,0,0,0,0,0,-1,1973,799,-1.6662,-0.829523
756,225,-0.22644,1.75708,0,0,0,0,0,0,0,-1,1980,799,-0.226419,-1.7571
763,225,-0.198242,1.203,0,0,0,0,0,0,0,-1,1987,799,-0.198213,-1.20302
770,225,0,0,0,0,0,0,0,0,0,-1,1994,799,0,0
777,225,0,0,0,0,0,0,0,0,0,-1,2001,799,0,0
784,225,0,0,0,0,0,0,0,0,0,-1,2008,799,0,0
791,225,0,0,0,0,0,0,0,0,0,-1,2015,799,0,0
798,225,0,0,0,0,0,0,0,0,0,-1,2022,799,0,0
805,225,0,0,0,0,0,0,0,0,0,-1,2029,799,0,0
812,225,0,0,0,0,0,0,0,0,0,-1,2036,799,0,0
-700,218,0,0,0,0,0,0,0,0,0,-1,524,806,0,0
-693,218,0,0,0,0,0,0,0,0,0,-1,531,806,0,0
-686,218,0,0,0,0,0,0,0,0,0,-1,538,806,0,0
-679,218,0,0,0,0,0,0,0,0,0,-1,545,806,0,0
-672,218,0,0,0,0,0,0,0,0,0,-1,552,806,0,0
-665,218,0,0,0,0,0,0,0,0,0,-1,559,806,0,0
-658,218,0,0,0,0,0,0,0,0,0,-1,566,806,0,0
-651,218,2.15533,-2.05103,-0.0209944,-0.00911493,0.0308353,0.0163475,-0.0464568,0.880547,0.0376235,0.0454021,573,806,2.15534,2.05102
-644,218,1.50281,-2.04694,-0.0179493,-0.00748424,0.0310417,0.0187629,-0.0441964,0.868895,0.0373251,0.0434484,580,806,1.5028,2.04694
-637,218,0.968628,-1.80133,0,0,0,0,0,0,0,-1,587,806,0.968641,1.80131
-630,218,0.24585,-1.19073,0,0,0,0,0,0,0,-1,594,806,0.245875,1.19074
-623,218,-0.279785,-0.751648,0,0,0,0,0,0,0,-1,601,806,-0.279789,0.751647
-616,218,-0.0532227,-0.532654,-0.00785829,-0.00136178,0.0192396,0.0149019,-0.024122,0.869025,0.0227391,0.0431283,608,806,-0.0532187,0.532649
-609,218,0.0151978,-0.176819,-0.00607399,-0.00062389,0.0155514,0.0124394,-0.0191373,0.872132,0.018367,0.0438676,615,806,0.0151916,0.176806
-602,218,-0.0285034,0.0280762,-0.00452278,-8.01418e-05,0.0121216,0.010022,-0.0146249,0.876019,0.0143124,0.0402591,622,806,-0.0285269,-0.0280562
-595,218,-0.0647583,-0.039978,-0.00309943,0.00105229,0.00948101,0.00868203,-0.0107292,0.893172,0.0112278,0.0168768,629,806,-0.0647317,0.0399722
-588,218,-0.036377,-0.0769043,-0.00201296,0.00149295,0.00689312,0.00685252,-0.00737253,0.909911,0.00821466,0.0105175,636,806,-0.0363985,0.0769014
-581,218,-0.0213013,-0.0661011,-0.00118822,0.000785884,0.00431989,0.00423006,-0.00463239,0.897715,0.0051185,0.00944023,643,806,-0.0213317,0.0660966
-574,218,-0.0244751,-0.0814209,0.000183167,0.0007026,0.00272285,0.00317809,-0.00229232,0.832946,0.00317212,0.0083658,650,806,-0.0244829,0.0814265
-567,218,-0.00897217,-0.0909424,0.00170303,0.00130527,0.00217168,0.00368492,-0.000676614,0.739736,0.00271045,0.0142243,657,806,-0.00897937,0.0909437
-560,218,-0.0150146,-0.0768433,0.00287837,0.00192524,0.00157498,0.00404731,0.000756309,0.638484,0.00248477,0.0159959,664,806,-0.0150082,0.0768585
-553,218,-0.0136719,-0.0802002,0.00351108,0.00265859,0.0013616,0.00451159,0.00165807,0.633706,0.00263507,0.0173655,671,806,-0.0136808,0.0802243
-546,218,-0.0162354,-0.0759888,0.00373502,0.00270923,0.00200166,0.00528845,0.00115579,0.659979,0.00321049,0.0136209,678,806,-0.0162237,0.0759936
-539,218,-0.0311279,-0.0631104,0.00421259,0.00328876,0.00242871,0.00622292,0.00127842,0.691426,0.00379494,0.0138251,685,806,-0.0310976,0.0631306
-532,218,-0.0492554,-0.0565796,0.00442174,0.0042549,0.00296084,0.00730034,0.0013763,0.771315,0.00447917,0.0153638,692,806,-0.0492354,0.056576
-525,218,-0.134583,-0.00921631,0.00427851,0.00530592,0.00340766,0.00823839,0.00134605,0.86021,0.0051031,0.0418093,699,806,-0.134557,0.00922559
-518,218,1.67523,1.38055,0.00353605,0.00648996,0.00375689,0.00904979,0.00097622,0.972684,0.00573555,0.0436927,706,806,1.67521,-1.38054
-511,218,1.74939,1.58801,0.002173,0.00731809,0.00380618,0.00933956,0.000151533,1.08258,0.00617648,0.0447657,713,806,1.74937,-1.58799
-504,218,1.09558,0.383301,0,0,0,0,0,0,0,-1,720,806,1.0956,-0.383272
-497,218,0.034729,0.0122681,-0.00212174,0.00886986,0.00337833,0.00982518,-0.00307707,1.29521,0.00778132,0.0475443,727,806,0.0347533,-0.0122776
-490,218,0.0358276,-0.0542603,-0.00522669,0.00938123,0.00269505,0.00986258,-0.00570804,1.39405,0.00909574,0.0369926,734,806,0.0358326,0.0542897
-483,218,-0.0247803,-0.101868,-0.00897716,0.00958293,0.00153199,0.00970854,-0.00910276,1.48899,0.0108626,0.0348185,741,806,-0.0247974,0.101843
-476,218,-0.00146484,-0.0767822,-0.0127726,0.00931594,-0.000143668,0.00931687,-0.0127735,-1.56429,0.0128058,0.0360699,748,806,-0.00147486,0.0767606
-469,218,0,0,0,0,0,0,0,0,0,-1,755,806,0,0
-462,218,0,0,0,0,0,0,0,0,0,-1,762,806,0,0
-455,218,0,0,0,0,0,0,0,0,0,-1,769,806,0,0
-448,218,0,0,0,0,0,0,0,0,0,-1,776,806,0,0
-441,218,0,0,0,0,0,0,0,0,0,-1,783,806,0,0
-434,218,0,0,0,0,0,0,0,0,0,-1,790,806,0,0
-427,218,0,0,0,0,0,0,0,0,0,-1,797,806,0,0
-420,218,0,0,0,0,0,0,0,0,0,-1,804,806,0,0
-413,218,0,0,0,0,0,0,0,0,0,-1,811,806,0,0
-406,218,0,0,0,0,0,0,0,0,0,-1,818,806,0,0
-399,218,0,0,0,0,0,0,0,0,0,-1,825,806,0,0
-392,218,0,0,0,0,0,0,0,0,0,-1,832,806,0,0
-385,218,0,0,0,0,0,0,0,0,0,-1,839,806,0,0
-378,218,0,0,0,0,0,0,0,0,0,-1,846,806,0,0
-371,218,0,0,0,0,0,0,0,0,0,-1,853,806,0,0
-364,218,0,0,0,0,0,0,0,0,0,-1,860,806,0,0
-357,218,0,0,0,0,0,0,0,0,0,-1,867,806,0,0
-350,218,0,0,0,0,0,0,0,0,0,-1,874,806,0,0
-343,218,0,0,0,0,0,0,0,0,0,-1,881,806,0,0
-336,218,0,0,0,0,0,0,0,0,0,-1,888,806,0,0
-329,218,0,0,0,0,0,0,0,0,0,-1,895,806,0,0
-322,218,0,0,0,0,0,0,0,0,0,-1,902,806,0,0
-315,218,0,0,0,0,0,0,0,0,0,-1,909,806,0,0
-308,218,0,0,0,0,0,0,0,0,0,-1,916,806,0,0
-301,218,0,0,0,0,0,0,0,0,0,-1,923,806,0,0
-294,218,0,0,0,0,0,0,0,0,0,-1,930,806,0,0
-287,218,0,0,0,0,0,0,0,0,0,-1,937,806,0,0
-280,218,0,0,0,0,0,0,0,0,0,-1,944,806,0,0
-273,218,0,0,0,0,0,0,0,0,0,-1,951,806,0,0
-266,218,0,0,0,0,0,0,0,0,0,-1,958,806,0,0
-259,218,0,0,0,0,0,0,0,0,0,-1,965,806,0,0
-252,218,0,0,0,0,0,0,0,0,0,-1,972,806,0,0
-245,218,0,0,0,0,0,0,0,0,0,-1,979,806,0,0
-238,218,0,0,0,0,0,0,0,0,0,-1,986,806,0,0
-231,218,0,0,0,0,0,0,0,0,0,-1,993,806,0,0
-224,218,0,0,0,0,0,0,0,0,0,-1,1000,806,0,0
-217,218,0,0,0,0,0,0,0,0,0,-1,1007,806,0,0
-210,218,0,0,0,0,0,0,0,0,0,-1,1014,806,0,0
-203,218,0,0,0,0,0,0,0,0,0,-1,1021,806,0,0
-196,218,0,0,0,0,0,0,0,0,0,-1,1028,806,0,0
-189,218,0,0,0,0,0,0,0,0,0,-1,1035,806,0,0
-182,218,0,0,0,0,0,0,0,0,0,-1,1042,806,0,0
-175,218,0,0,0,0,0,0,0,0,0,-1,1049,806,0,0
-168,218,0,0,0,0,0,0,0,0,0,-1,1056,806,0,0
-161,218,0,0,0,0,0,0,0,0,0,-1,1063,806,0,0
-154,218,0,0,0,0,0,0,0,0,0,-1,1070,806,0,0
-147,218,0,0,0,0,0,0,0,0,0,-1,1077,806,0,0
-140,218,0,0,0,0,0,0,0,0,0,-1,1084,806,0,0
-133,218,0,0,0,0,0,0,0,0,0,-1,1091,806,0,0
-126,218,0,0,0,0,0,0,0,0,0,-1,1098,806,0,0
-119,218,0,0,0,0,0,0,0,0,0,-1,1105,806,0,0
-112,218,0,0,0,0,0,0,0,0,0,-1,1112,806,0,0
-105,218,0,0,0,0,0,0,0,0,0,-1,1119,806,0,0
-98,218,0,0,0,0,0,0,0,0,0,-1,1126,806,0,0
-91,218,0,0,0,0,0,0,0,0,0,-1,1133,806,0,0
-84,218,0,0,0,0,0,0,0,0,0,-1,1140,806,0,0
-77,218,0,0,0,0,0,0,0,0,0,-1,1147,806,0,0
-70,218,0,0,0,0,0,0,0,0,0,-1,1154,806,0,0
-63,218,0,0,0,0,0,0,0,0,0,-1,1161,806,0,0
-56,218,0,0,0,0,0,0,0,0,0,-1,1168,806,0,0
-49,218,0,0,0,0,0,0,0,0,0,-1,1175,806,0,0
-42,218,0,0,0,0,0,0,0,0,0,-1,1182,806,0,0
-35,218,0,0,0,0,0,0,0,0,0,-1,1189,806,0,0
-28,218,0,0,0,0,0,0,0,0,0,-1,1196,806,0,0
-21,218,0,0,0,0,0,0,0,0,0,-1,1203,806,0,0
-14,218,0,0,0,0,0,0,0,0,0,-1,1210,806,0,0
-7,218,0,0,0,0,0,0,0,0,0,-1,1217,806,0,0
0,218,0,0,0,0,0,0,0,0,0,-1,1224,806,0,0
7,218,0,0,0,0,0,0,0,0,0,-1,1231,806,0,0
14,218,0,0,0,0,0,0,0,0,0,-1,1238,806,0,0
21,218,0,0,0,0,0,0,0,0,0,-1,1245,806,0,0
28,218,0,0,0,0,0,0,0,0,0,-1,1252,806,0,0
35,218,0,0,0,0,0,0,0,0,0,-1,1259,806,0,0
42,218,0,0,0,0,0,0,0,0,0,-1,1266,806,0,0
49,218,0,0,0,0,0,0,0,0,0,-1,1273,806,0,0
56,218,0,0,0,0,0,0,0,0,0,-1,1280,806,0,0
63,218,0,0,0,0,0,0,0,0,0,-1,1287,806,0,0
70,218,0,0,0,0,0,0,0,0,0,-1,1294,806,0,0
77,218,0,0,0,0,0,0,0,0,0,-1,1301,806,0,0
84,218,0,0,0,0,0,0,0,0,0,-1,1308,806,0,0
91,218,0,0,0,0,0,0,0,0,0,-1,1315,806,0,0
98,218,0,0,0,0,0,0,0,0,0,-1,1322,806,0,0
105,218,0,0,0,0,0,0,0,0,0,-1,1329,806,0,0
112,218,0,0,0,0,0,0,0,0,0,-1,1336,806,0,0
119,218,0,0,0,0,0,0,0,0,0,-1,1343,806,0,0
126,218,0,0,0,0,0,0,0,0,0,-1,1350,806,0,0
133,218,0,0,0,0,0,0,0,0,0,-1,1357,806,0,0
140,218,0,0,0,0,0,0,0,0,0,-1,1364,806,0,0
147,218,0,0,0,0,0,0,0,0,0,-1,1371,806,0,0
154,218,0,0,0,0,0,0,0,0,0,-1,1378,806,0,0
161,218,0,0,0,0,0,0,0,0,0,-1,1385,806,0,0
168,218,0,0,0,0,0,0,0,0,0,-1,1392,806,0,0
175,218,0,0,0,0,0,0,0,0,0,-1,1399,806,0,0
182,218,0,0,0,0,0,0,0,0,0,-1,1406,806,0,0
189,218,0,0,0,0,0,0,0,0,0,-1,1413,806,0,0
196,218,0,0,0,0,0,0,0,0,0,-1,1420,806,0,0
203,218,0,0,0,0,0,0,0,0,0,-1,1427,806,0,0
210,218,0,0,0,0,0,0,0,0,0,-1,1434,806,0,0
217,218,0,0,0,0,0,0,0,0,0,-1,1441,806,0,0
224,218,0,0,0,0,0,0,0,0,0,-1,1448,806,0,0
231,218,0,0,0,0,0,0,0,0,0,-1,1455,806,0,0
238,218,0,0,0,0,0,0,0,0,0,-1,1462,806,0,0
245,218,0,0,0,0,0,0,0,0,0,-1,1469,806,0,0
252,218,0,0,0,0,0,0,0,0,0,-1,1476,806,0,0
259,218,0,0,0,0,0,0,0,0,0,-1,1483,806,0,0
266,218,0,0,0,0,0,0,0,0,0,-1,1490,806,0,0
273,218,0,0,0,0,0,0,0,0,0,-1,1497,806,0,0
280,218,0,0,0,0,0,0,0,0,0,-1,1504,806,0,0
287,218,0,0,0,0,0,0,0,0,0,-1,1511,806,0,0
294,218,0,0,0,0,0,0,0,0,0,-1,1518,806,0,0
301,218,0,0,0,0,0,0,0,0,0,-1,1525,806,0,0
308,218,0,0,0,0,0,0,0,0,0,-1,1532,806,0,0
315,218,0,0,0,0,0,0,0,0,0,-1,1539,806,0,0
322,218,0,0,0,0,0,0,0,0,0,-1,1546,806,0,0
329,218,0,0,0,0,0,0,0,0,0,-1,1553,806,0,0
336,218,0,0,0,0,0,0,0,0,0,-1,1560,806,0,0
343,218,0,0,0,0,0,0,0,0,0,-1,1567,806,0,0
350,218,0,0,0,0,0,0,0,0,0,-1,1574,806,0,0
357,218,0,0,0,0,0,0,0,0,0,-1,1581,806,0,0
364,218,0,0,0,0,0,0,0,0,0,-1,1588,806,0,0
371,218,0,0,0,0,0,0,0,0,0,-1,1595,806,0,0
378,218,0,0,0,0,0,0,0,0,0,-1,1602,806,0,0
385,218,0,0,0,0,0,0,0,0,0,-1,1609,806,0,0
392,218,0,0,0,0,0,0,0,0,0,-1,1616,806,0,0
399,218,0,0,0,0,0,0,0,0,0,-1,1623,806,0,0
406,218,0,0,0,0,0,0,0,0,0,-1,1630,806,0,0
413,218,0,0,0,0,0,0,0,0,0,-1,1637,806,0,0
420,218,0,0,0,0,0,0,0,0,0,-1,1644,806,0,0
427,218,0,0,0,0,0,0,0,0,0,-1,1651,806,0,0
434,218,0,0,0,0,0,0,0,0,0,-1,1658,806,0,0
441,218,0,0,0,0,0,0,0,0,0,-1,1665,806,0,0
448,218,0,0,0,0,0,0,0,0,0,-1,1672,806,0,0
455,218,0,0,0,0,0,0,0,0,0,-1,1679,806,0,0
462,218,0,0,0,0,0,0,0,0,0,-1,1686,806,0,0
469,218,0,0,0,0,0,0,0,0,0,-1,1693,806,0,0
476,218,0,0,0,0,0,0,0,0,0,-1,1700,806,0,0
483,218,0,0,0,0,0,0,0,0,0,-1,1707,806,0,0
490,218,0,0,0,0,0,0,0,0,0,-1,1714,806,0,0
497,218,0,0,0,0,0,0,0,0,0,-1,1721,806,0,0
504,218,0,0,0,0,0,0,0,0,0,-1,1728,806,0,0
511,218,0,0,0,0,0,0,0,0,0,-1,1735,806,0,0
518,218,0,0,0,0,0,0,0,0,0,-1,1742,806,0,0
525,218,0,0,0,0,0,0,0,0,0,-1,1749,806,0,0
532,218,0,0,0,0,0,0,0,0,0,-1,1756,806,0,0
539,218,0,0,0,0,0,0,0,0,0,-1,1763,806,0,0
546,218,0,0,0,0,0,0,0,0,0,-1,1770,806,0,0
553,218,0,0,0,0,0,0,0,0,0,-1,1777,806,0,0
560,218,0,0,0,0,0,0,0,0,0,-1,1784,806,0,0
567,218,0,0,0,0,0,0,0,0,0,-1,1791,806,0,0
574,218,0,0,0,0,0,0,0,0,0,-1,1798,806,0,0
581,218,0,0,0,0,0,0,0,0,0,-1,1805,806,0,0
588,218,0,0,0,0,0,0,0,0,0,-1,1812,806,0,0
595,218,-0.019043,-0.0597534,0.000863528,-0.00191434,-0.00193602,0.00185731,-0.00290811,-0.474239,0.00277352,0.0322788,1819,806,-0.0189837,0.0597356
602,218,-0.0698242,-0.0558472,0.00123904,4.38202e-05,-0.00201443,0.00274264,-0.00145978,-0.641201,0.00246366,0.0298634,1826,806,-0.0698425,0.0558481
609,218,-0.0246582,-0.0496826,0.00120154,0.000732698,-0.00134656,0.00233394,-0.000399696,-0.699217,0.00170488,0.026665,1833,806,-0.0246119,0.049679
616,218,-0.0209961,-0.055603,0.00083528,0.000579781,-0.000449199,0.00117454,0.000240519,-0.646859,0.000716442,0.0278542,1840,806,-0.0209568,0.055604
623,218,-0.00268555,-0.121582,0.000407275,2.2089e-05,0.00037295,0.000634425,-0.00020506,0.547056,0.000505366,0.0321458,1847,806,-0.00272149,0.121601
630,218,0.0455322,-0.179504,3.48543e-05,-0.000541534,0.00103556,0.000821577,-0.00132826,0.649684,0.00125265,0.0367434,1854,806,0.045483,0.179501
637,218,0.0131836,-0.456482,-0.000322045,-0.00107174,0.00157464,0.00092175,-0.00231553,0.668547,0.00192592,0.0402969,1861,806,0.0132348,0.456496
644,218,0.263916,-0.550415,-0.000663054,-0.00148059,0.00196027,0.000930613,-0.00307426,0.682608,0.00242011,0.0425599,1868,806,0.263976,0.550417
651,218,0.344238,-0.497803,-0.000889241,-0.00167698,0.00215737,0.000909921,-0.00347614,0.695108,0.00267287,0.0401633,1875,806,0.344181,0.497785
658,218,-0.00231934,-0.151001,-0.00101725,-0.00175719,0.00209214,0.000737383,-0.00351182,0.697884,0.0026218,0.0378445,1882,806,-0.00233449,0.150986
665,218,-0.0473633,-0.0970459,-0.000926305,-0.00206185,0.00202987,0.000613699,-0.00360185,0.649029,0.00262978,0.0227954,1889,806,-0.0473289,0.0970445
672,218,-0.0203857,-0.0924683,-0.000788305,-0.00199323,0.00180187,0.000509153,-0.00329069,0.624063,0.00238172,0.010858,1896,806,-0.0204352,0.0924607
679,218,-0.0228271,-0.0982056,-0.000823847,-0.00132698,0.00146098,0.000407063,-0.00255789,0.700139,0.00185589,0.0103964,1903,806,-0.0228401,0.0982146
686,218,-0.0269775,-0.0788574,-0.000779351,-0.000912383,0.000986946,0.000143318,-0.00183505,0.751751,0.00127383,0.00938155,1910,806,-0.0269524,0.0788627
693,218,-0.0294189,-0.0623779,-0.00085192,-0.000448192,0.000760873,0.00013714,-0.00143725,0.915064,0.001007,0.0100994,1917,806,-0.0294547,0.0624043
700,218,-0.043335,-0.0644531,-0.000802132,-0.000705477,0.00069426,-5.78648e-05,-0.00144974,0.820147,0.000947797,0.00887932,1924,806,-0.0433473,0.0644541
707,218,-0.0369873,-0.074707,-0.00100147,-0.000957425,0.000572603,-0.000406421,-0.00155247,0.804619,0.000929611,0.00680675,1931,806,-0.03701,0.0747348
714,218,-0.0167236,-0.0716553,-0.00138507,-0.000843743,0.00101411,-6.47967e-05,-0.00216401,0.915806,0.00142157,0.00855362,1938,806,-0.0167231,0.0716786
721,218,-0.00952148,-0.0800781,-0.00192939,-0.000755456,0.00271007,0.00143048,-0.00411533,0.892045,0.0033246,0.0106722,1945,806,-0.00950031,0.0800765
728,218,0.00915527,-0.0634766,-0.00270494,-0.000942576,0.00453071,0.00279185,-0.00643937,0.881445,0.00546657,0.016061,1952,806,0.0092051,0.0634933
735,218,-0.0887451,0.145142,-0.00367397,-0.000972535,0.00703799,0.00484318,-0.00948969,0.880205,0.00841878,0.033055,1959,806,-0.0887685,-0.145161
742,218,-0.42395,0.565979,-0.00476071,-0.000906062,0.0106862,0.00802527,-0.013692,0.874617,0.01268,0.0461243,1966,806,-0.423933,-0.566008
749,218,-0.628174,1.16388,0,0,0,0,0,0,0,-1,1973,806,-0.628223,-1.1639
756,218,-0.791992,1.55658,0,0,0,0,0,0,0,-1,1980,806,-0.791988,-1.55657
763,218,-1.05359,1.86664,0,0,0,0,0,0,0,-1,1987,806,-1.05356,-1.86666
770,218,0,0,0,0,0,0,0,0,0,-1,1994,806,0,0
777,218,0,0,0,0,0,0,0,0,0,-1,2001,806,0,0
784,218,0,0,0,0,0,0,0,0,0,-1,2008,806,0,0
791,218,0,0,0,0,0,0,0,0,0,-1,2015,806,0,0
798,218,0,0,0,0,0,0,0,0,0,-1,2022,806,0,0
805,218,0,0,0,0,0,0,0,0,0,-1,2029,806,0,0
812,218,0,0,0,0,0,0,0,0,0,-1,2036,806,0,0
-700,211,0,0,0,0,0,0,0,0,0,-1,524,813,0,0
-693,211,0,0,0,0,0,0,0,0,0,-1,531,813,0,0
-686,211,0,0,0,0,0,0,0,0,0,-1,538,813,0,0
-679,211,0,0,0,0,0,0,0,0,0,-1,545,813,0,0
-672,211,0,0,0,0,0,0,0,0,0,-1,552,813,0,0
-665,211,0,0,0,0,0,0,0,0,0,-1,559,813,0,0
-658,211,0,0,0,0,0,0,0,0,0,-1,566,813,0,0
-651,211,2.08716,-1.95868,-0.0151028,-0.0133178,0.0322927,0.0180947,-0.0465154,0.799214,0.0384868,0.0427779,573,813,2.08715,1.95871
-644,211,1.4541,-1.84064,-0.0127649,-0.0114325,0.0309797,0.0188881,-0.0430855,0.796149,0.0366784,0.0427132,580,813,1.4541,1.84062
-637,211,0.95459,-1.65063,-0.0107309,-0.00919773,0.0284273,0.0184734,-0.038402,0.798878,0.0335022,0.0426858,587,813,0.954591,1.65065
-630,211,0.49469,-1.23016,-0.00893672,-0.00702418,0.0252226,0.0172603,-0.0332212,0.804346,0.0296271,0.0439401,594,813,0.494684,1.23014
-623,211,-0.0740967,-0.806885,-0.007363,-0.00508941,0.0217062,0.0155097,-0.0279621,0.81156,0.0254394,0.0438384,601,813,-0.07407,0.806912
-616,211,-0.390686,-0.684509,-0.00595324,-0.00346298,0.0181137,0.0134483,-0.0228645,0.819714,0.0211989,0.0396805,608,813,-0.39068,0.68452
-609,211,-0.108643,-0.183777,-0.00478417,-0.00235419,0.0145608,0.0110422,-0.0181805,0.827023,0.0170387,0.0344255,615,813,-0.10863,0.183771
-602,211,-0.0211792,-0.0852661,-0.003725,-0.00145852,0.0113041,0.00876899,-0.0139525,0.835356,0.0132316,0.0188577,622,813,-0.0212052,0.0852829
-595,211,-0.0298462,-0.0675659,-0.0026959,0.00011441,0.00888372,0.00770341,-0.0102849,0.863834,0.0104211,0.0099438,629,813,-0.0298441,0.067585
-588,211,-0.0102539,-0.0720215,-0.00188423,0.000881587,0.00645607,0.0061012,-0.00710384,0.890905,0.00763125,0.00942,636,813,-0.0102522,0.0720436
-581,211,-0.00488281,-0.0758057,-0.00121269,0.000321576,0.00402576,0.00365265,-0.00454376,0.879548,0.00474151,0.00994176,643,813,-0.00490993,0.0758172
-574,211,-0.0258179,-0.0656738,6.97982e-05,0.000398103,0.00259544,0.00283458,-0.00236668,0.816979,0.003007,0.0111996,650,813,-0.0258221,0.0656891
-567,211,-0.0140991,-0.0900269,0.00152759,0.00115914,0.00218049,0.00353163,-0.000844895,0.743254,0.0026808,0.0164258,657,813,-0.0140734,0.0900071
-560,211,-0.0356445,-0.0762329,0.00264854,0.00190332,0.0017002,0.00401648,0.000535372,0.677525,0.00251824,0.0194604,664,813,-0.0356618,0.0762089
-553,211,-0.0654907,-0.071106,0.00327519,0.00277835,0.00158036,0.00462653,0.00142701,0.707441,0.0027357,0.017776,671,813,-0.0655082,0.0710884
-546,211,-0.0294189,-0.0671387,0.00357276,0.00299269,0.00218712,0.00548899,0.00107646,0.719479,0.00335852,0.0159539,678,813,-0.0294042,0.0671267
-539,211,-0.0298462,-0.0629883,0.00414817,0.00368385,0.00261202,0.00653833,0.0012937,0.741074,0.00399804,0.010289,685,813,-0.0298365,0.063006
-532,211,-0.0767212,-0.0618896,0.0044423,0.00466272,0.00311099,0.00766545,0.00143957,0.803103,0.00470444,0.0296698,692,813,-0.0767426,0.0618781
-525,211,0.678711,0.583557,0.00439677,0.00573638,0.00356895,0.00869783,0.00143532,0.878157,0.00538427,0.0454088,699,813,0.678695,-0.583553
-518,211,1.1806,0.895508,0.00379109,0.00693001,0.00387583,0.00954209,0.00117901,0.977775,0.00600708,0.0429475,706,813,1.18058,-0.895481
-511,211,1.18597,1.0874,0.0025566,0.00781469,0.00387277,0.00986648,0.000504808,1.08359,0.00641601,0.0440937,713,813,1.18596,-1.08743
-504,211,0.85907,0.828186,0.000814778,0.00863462,0.00368385,0.0100967,-0.000647289,1.19298,0.00695693,0.0463761,720,813,0.859062,-0.828204
-497,211,0.0152588,-0.0979004,-0.00155878,0.00925781,0.00315813,0.0101124,-0.00241335,1.30653,0.0076736,0.0459704,727,813,0.0152541,0.0978916
-490,211,-0.0177002,-0.163086,-0.00457536,0.00961496,0.00220722,0.00995035,-0.00491075,1.42,0.00874296,0.0347216,734,813,-0.0177031,0.163062
-483,211,-0.0203857,-0.235046,-0.00831055,0.00963187,0.00066664,0.00965661,-0.00833528,1.53371,0.010397,0.0338836,741,813,-0.0203639,0.235046
-476,211,0.0209961,-0.071167,-0.0119264,0.00915358,-0.00143867,0.00925131,-0.0120241,-1.50297,0.0123181,0.0360327,748,813,0.0209907,0.0711682
-469,211,0,0,0,0,0,0,0,0,0,-1,755,813,0,0
-462,211,0,0,0,0,0,0,0,0,0,-1,762,813,0,0
-455,211,0,0,0,0,0,0,0,0,0,-1,769,813,0,0
-448,211,0,0,0,0,0,0,0,0,0,-1,776,813,0,0
-441,211,0,0,0,0,0,0,0,0,0,-1,783,813,0,0
-434,211,0,0,0,0,0,0,0,0,0,-1,790,813,0,0
-427,211,0,0,0,0,0,0,0,0,0,-1,797,813,0,0
-420,211,0,0,0,0,0,0,0,0,0,-1,804,813,0,0
-413,211,0,0,0,0,0,0,0,0,0,-1,811,813,0,0
-406,211,0,0,0,0,0,0,0,0,0,-1,818,813,0,0
-399,211,0,0,0,0,0,0,0,0,0,-1,825,813,0,0
-392,211,0,0,0,0,0,0,0,0,0,-1,832,813,0,0
-385,211,0,0,0,0,0,0,0,0,0,-1,839,813,0,0
-378,211,0,0,0,0,0,0,0,0,0,-1,846,813,0,0
-371,211,0,0,0,0,0,0,0,0,0,-1,853,813,0,0
-364,211,0,0,0,0,0,0,0,0,0,-1,860,813,0,0
-357,211,0,0,0,0,0,0,0,0,0,-1,867,813,0,0
-350,211,0,0,0,0,0,0,0,0,0,-1,874,813,0,0
-343,211,0,0,0,0,0,0,0,0,0,-1,881,813,0,0
-336,211,0,0,0,0,0,0,0,0,0,-1,888,813,0,0
-329,211,0,0,0,0,0,0,0,0,0,-1,895,813,0,0
-322,211,0,0,0,0,0,0,0,0,0,-1,902,813,0,0
-315,211,0,0,0,0,0,0,0,0,0,-1,909,813,0,0
-308,211,0,0,0,0,0,0,0,0,0,-1,916,813,0,0
-301,211,0,0,0,0,0,0,0,0,0,-1,923,813,0,0
-294,211,0,0,0,0,0,0,0,0,0,-1,930,813,0,0
-287,211,0,0,0,0,0,0,0,0,0,-1,937,813,0,0
-280,211,0,0,0,0,0,0,0,0,0,-1,944,813,0,0
-273,211,0,0,0,0,0,0,0,0,0,-1,951,813,0,0
-266,211,0,0,0,0,0,0,0,0,0,-1,958,813,0,0
-259,211,0,0,0,0,0,0,0,0,0,-1,965,813,0,0
-252,211,0,0,0,0,0,0,0,0,0,-1,972,813,0,0
-245,211,0,0,0,0,0,0,0,0,0,-1,979,813,0,0
-238,211,0,0,0,0,0,0,0,0,0,-1,986,813,0,0
-231,211,0,0,0,0,0,0,0,0,0,-1,993,813,0,0
-224,211,0,0,0,0,0,0,0,0,0,-1,1000,813,0,0
-217,211,0,0,0,0,0,0,0,0,0,-1,1007,813,0,0
-210,211,0,0,0,0,0,0,0,0,0,-1,1014,813,0,0
-203,211,0,0,0,0,0,0,0,0,0,-1,1021,813,0,0
-196,211,0,0,0,0,0,0,0,0,0,-1,1028,813,0,0
-189,211,0,0,0,0,0,0,0,0,0,-1,1035,813,0,0
-182,211,0,0,0,0,0,0,0,0,0,-1,1042,813,0,0
-175,211,0,0,0,0,0,0,0,0,0,-1,1049,813,0,0
-168,211,0,0,0,0,0,0,0,0,0,-1,1056,813,0,0
-161,211,0,0,0,0,0,0,0,0,0,-1,1063,813,0,0
-154,211,0,0,0,0,0,0,0,0,0,-1,1070,813,0,0
-147,211,0,0,0,0,0,0,0,0,0,-1,1077,813,0,0
-140,211,0,0,0,0,0,0,0,0,0,-1,1084,813,0,0
-133,211,0,0,0,0,0,0,0,0,0,-1,1091,813,0,0
-126,211,0,0,0,0,0,0,0,0,0,-1,1098,813,0,0
-119,211,0,0,0,0,0,0,0,0,0,-1,1105,813,0,0
-112,211,0,0,0,0,0,0,0,0,0,-1,1112,813,0,0
-105,211,0,0,0,0,0,0,0,0,0,-1,1119,813,0,0
-98,211,0,0,0,0,0,0,0,0,0,-1,1126,813,0,0
-91,211,0,0,0,0,0,0,0,0,0,-1,1133,813,0,0
-84,211,0,0,0,0,0,0,0,0,0,-1,1140,813,0,0
-77,211,0,0,0,0,0,0,0,0,0,-1,1147,813,0,0
-70,211,0,0,0,0,0,0,0,0,0,-1,1154,813,0,0
-63,211,0,0,0,0,0,0,0,0,0,-1,1161,813,0,0
-56,211,0,0,0,0,0,0,0,0,0,-1,1168,813,0,0
-49,211,0,0,0,0,0,0,0,0,0,-1,1175,813,0,0
-42,211,0,0,0,0,0,0,0,0,0,-1,1182,813,0,0
-35,211,0,0,0,0,0,0,0,0,0,-1,1189,813,0,0
-28,211,0,0,0,0,0,0,0,0,0,-1,1196,813,0,0
-21,211,0,0,0,0,0,0,0,0,0,-1,1203,813,0,0
-14,211,0,0,0,0,0,0,0,0,0,-1,1210,813,0,0
-7,211,0,0,0,0,0,0,0,0,0,-1,1217,813,0,0
0,211,0,0,0,0,0,0,0,0,0,-1,1224,813,0,0
7,211,0,0,0,0,0,0,0,0,0,-1,1231,813,0,0
14,211,0,0,0,0,0,0,0,0,0,-1,1238,813,0,0
21,211,0,0,0,0,0,0,0,0,0,-1,1245,813,0,0
28,211,0,0,0,0,0,0,0,0,0,-1,1252,813,0,0
35,211,0,0,0,0,0,0,0,0,0,-1,1259,813,0,0
42,211,0,0,0,0,0,0,0,0,0,-1,1266,813,0,0
49,211,0,0,0,0,0,0,0,0,0,-1,1273,813,0,0
56,211,0,0,0,0,0,0,0,0,0,-1,1280,813,0,0
63,211,0,0,0,0,0,0,0,0,0,-1,1287,813,0,0
70,211,0,0,0,0,0,0,0,0,0,-1,1294,813,0,0
77,211,0,0,0,0,0,0,0,0,0,-1,1301,813,0,0
84,211,0,0,0,0,0,0,0,0,0,-1,1308,813,0,0
91,211,0,0,0,0,0,0,0,0,0,-1,1315,813,0,0
98,211,0,0,0,0,0,0,0,0,0,-1,1322,813,0,0
105,211,0,0,0,0,0,0,0,0,0,-1,1329,813,0,0
112,211,0,0,0,0,0,0,0,0,0,-1,1336,813,0,0
119,211,0,0,0,0,0,0,0,0,0,-1,1343,813,0,0
126,211,0,0,0,0,0,0,0,0,0,-1,1350,813,0,0
133,211,0,0,0,0,0,0,0,0,0,-1,1357,813,0,0
140,211,0,0,0,0,0,0,0,0,0,-1,1364,813,0,0
147,211,0,0,0,0,0,0,0,0,0,-1,1371,813,0,0
154,211,0,0,0,0,0,0,0,0,0,-1,1378,813,0,0
161,211,0,0,0,0,0,0,0,0,0,-1,1385,813,0,0
168,211,0,0,0,0,0,0,0,0,0,-1,1392,813,0,0
175,211,0,0,0,0,0,0,0,0,0,-1,1399,813,0,0
182,211,0,0,0,0,0,0,0,0,0,-1,1406,813,0,0
189,211,0,0,0,0,0,0,0,0,0,-1,1413,813,0,0
196,211,0,0,0,0,0,0,0,0,0,-1,1420,813,0,0
203,211,0,0,0,0,0,0,0,0,0,-1,1427,813,0,0
210,211,0,0,0,0,0,0,0,0,0,-1,1434,813,0,0
217,211,0,0,0,0,0,0,0,0,0,-1,1441,813,0,0
224,211,0,0,0,0,0,0,0,0,0,-1,1448,813,0,0
231,211,0,0,0,0,0,0,0,0,0,-1,1455,813,0,0
238,211,0,0,0,0,0,0,0,0,0,-1,1462,813,0,0
245,211,0,0,0,0,0,0,0,0,0,-1,1469,813,0,0
252,211,0,0,0,0,0,0,0,0,0,-1,1476,813,0,0
259,211,0,0,0,0,0,0,0,0,0,-1,1483,813,0,0
266,211,0,0,0,0,0,0,0,0,0,-1,1490,813,0,0
273,211,0,0,0,0,0,0,0,0,0,-1,1497,813,0,0
280,211,0,0,0,0,0,0,0,0,0,-1,1504,813,0,0
287,211,0,0,0,0,0,0,0,0,0,-1,1511,813,0,0
294,211,0,0,0,0,0,0,0,0,0,-1,1518,813,0,0
301,211,0,0,0,0,0,0,0,0,0,-1,1525,813,0,0
308,211,0,0,0,0,0,0,0,0,0,-1,1532,813,0,0
315,211,0,0,0,0,0,0,0,0,0,-1,1539,813,0,0
322,211,0,0,0,0,0,0,0,0,0,-1,1546,813,0,0
329,211,0,0,0,0,0,0,0,0,0,-1,1553,813,0,0
336,211,0,0,0,0,0,0,0,0,0,-1,1560,813,0,0
343,211,0,0,0,0,0,0,0,0,0,-1,1567,813,0,0
350,211,0,0,0,0,0,0,0,0,0,-1,1574,813,0,0
357,211,0,0,0,0,0,0,0,0,0,-1,1581,813,0,0
364,211,0,0,0,0,0,0,0,0,0,-1,1588,813,0,0
371,211,0,0,0,0,0,0,0,0,0,-1,1595,813,0,0
378,211,0,0,0,0,0,0,0,0,0,-1,1602,813,0,0
385,211,0,0,0,0,0,0,0,0,0,-1,1609,813,0,0
392,211,0,0,0,0,0,0,0,0,0,-1,1616,813,0,0
399,211,0,0,0,0,0,0,0,0,0,-1,1623,813,0,0
406,211,0,0,0,0,0,0,0,0,0,-1,1630,813,0,0
413,211,0,0,0,0,0,0,0,0,0,-1,1637,813,0,0
420,211,0,0,0,0,0,0,0,0,0,-1,1644,813,0,0
427,211,0,0,0,0,0,0,0,0,0,-1,1651,813,0,0
434,211,0,0,0,0,0,0,0,0,0,-1,1658,813,0,0
441,211,0,0,0,0,0,0,0,0,0,-1,1665,813,0,0
448,211,0,0,0,0,0,0,0,0,0,-1,1672,813,0,0
455,211,0,0,0,0,0,0,0,0,0,-1,1679,813,0,0
462,211,0,0,0,0,0,0,0,0,0,-1,1686,813,0,0
469,211,0,0,0,0,0,0,0,0,0,-1,1693,813,0,0
476,211,0,0,0,0,0,0,0,0,0,-1,1700,813,0,0
483,211,0,0,0,0,0,0,0,0,0,-1,1707,813,0,0
490,211,0,0,0,0,0,0,0,0,0,-1,1714,813,0,0
497,211,0,0,0,0,0,0,0,0,0,-1,1721,813,0,0
504,211,0,0,0,0,0,0,0,0,0,-1,1728,813,0,0
511,211,0,0,0,0,0,0,0,0,0,-1,1735,813,0,0
518,211,0,0,0,0,0,0,0,0,0,-1,1742,813,0,0
525,211,0,0,0,0,0,0,0,0,0,-1,1749,813,0,0
532,211,0,0,0,0,0,0,0,0,0,-1,1756,813,0,0
539,211,0,0,0,0,0,0,0,0,0,-1,1763,813,0,0
546,211,0,0,0,0,0,0,0,0,0,-1,1770,813,0,0
553,211,0,0,0,0,0,0,0,0,0,-1,1777,813,0,0
560,211,0,0,0,0,0,0,0,0,0,-1,1784,813,0,0
567,211,0,0,0,0,0,0,0,0,0,-1,1791,813,0,0
574,211,0,0,0,0,0,0,0,0,0,-1,1798,813,0,0
581,211,0,0,0,0,0,0,0,0,0,-1,1805,813,0,0
588,211,0,0,0,0,0,0,0,0,0,-1,1812,813,0,0
595,211,-0.0354004,-0.0180664,-0.000873191,-0.00158132,-0.00217278,0.000974178,-0.00342869,-0.70463,0.00267042,0.0344516,1819,813,-0.0353606,0.0180537
602,211,0.00012207,-0.0726318,-3.00049e-06,-0.00104281,-0.00233894,0.00187312,-0.00291893,-0.676035,0.00278857,0.0332924,1826,813,8.80221e-05,0.0726264
609,211,-0.00402832,-0.137512,0.000505224,-0.0011322,-0.00164218,0.00152146,-0.00214844,-0.554154,0.0021291,0.0335994,1833,813,-0.00400242,0.137539
616,211,-0.012085,-0.0874023,0.00056651,-0.00158538,-0.000647221,0.000746173,-0.00176504,-0.270775,0.0014891,0.027891,1840,813,-0.0121317,0.0873938
623,211,-0.0118408,-0.0667725,0.000438098,-0.00213021,0.000238597,0.000460076,-0.00215219,0.091853,0.00161021,0.0278938,1847,813,-0.011804,0.0667839
630,211,0.0178223,-0.0999146,0.000264223,-0.00253545,0.000949406,0.000555811,-0.00282703,0.297982,0.00209469,0.0332468,1854,813,0.0177731,0.0999197
637,211,0.0397949,-0.135803,3.26613e-05,-0.0027633,0.00150721,0.000690413,-0.00342105,0.41149,0.00254228,0.0375437,1861,813,0.039735,0.13582
644,211,0.0892334,-0.176758,-0.00023305,-0.00282231,0.0018909,0.000763947,-0.0038193,0.485219,0.00283537,0.0379332,1868,813,0.0892024,0.176768
651,211,0.175903,-0.141541,-0.000452522,-0.00267568,0.00206362,0.000779859,-0.00390806,0.538353,0.00290049,0.0404883,1875,813,0.175865,0.141517
658,211,0.183838,-0.019104,-0.000544876,-0.00241696,0.00201637,0.000742125,-0.00370396,0.56809,0.00275026,0.0419555,1882,813,0.183806,0.0191256
665,211,-0.0192871,-0.0155029,-0.00053879,-0.00235287,0.00191151,0.000669962,-0.00356162,0.563872,0.00262638,0.0344711,1889,813,-0.0192678,0.015492
672,211,-0.00915527,-0.0802002,-0.000556061,-0.0020143,0.00167206,0.000538932,-0.00310929,0.579797,0.0022739,0.0139208,1896,813,-0.0091537,0.0801901
679,211,-0.0297852,-0.085083,-0.00072282,-0.00129895,0.00140262,0.000421009,-0.00244278,0.684118,0.00178548,0.0108902,1903,813,-0.0297815,0.0851081
686,211,-0.0369873,-0.0777588,-0.000798195,-0.000824981,0.0010193,0.000207799,-0.00183097,0.778829,0.00129548,0.00925716,1910,813,-0.037039,0.0777665
693,211,-0.0351563,-0.081543,-0.000960571,-0.000301956,0.00082258,0.000254785,-0.00151731,0.975796,0.00110629,0.0103237,1917,813,-0.0351016,0.0815255
700,211,-0.0737305,-0.0839844,-0.0010495,-0.000447398,0.000777472,8.52746e-05,-0.00158217,0.970117,0.00108432,0.0128934,1924,813,-0.0737138,0.0839563
707,211,-0.0263672,-0.0740356,-0.00139215,-0.000553731,0.000631593,-0.000214886,-0.00173099,1.07838,0.00108945,0.018877,1931,813,-0.0263089,0.0740571
714,211,-0.0507813,-0.0620117,-0.0018748,-0.000130159,0.000998254,0.000323211,-0.00232817,1.14449,0.0016703,0.0199352,1938,813,-0.0507858,0.0620389
721,211,-0.0447998,-0.0761108,-0.00248454,0.000263831,0.00270459,0.00192332,-0.00414403,1.02045,0.00358034,0.0138879,1945,813,-0.0448065,0.0760973
728,211,-0.00585938,-0.0737915,-0.00339664,0.000471767,0.00453806,0.00347063,-0.0063955,0.986849,0.00577905,0.0131618,1952,813,-0.00588665,0.073794
735,211,-0.0020752,-0.0536499,-0.00450746,0.000951029,0.00695693,0.00569492,-0.00925134,0.972326,0.00871028,0.0235701,1959,813,-0.00209777,0.05365
742,211,0.0643311,-0.0856934,-0.00576593,0.00163082,0.0104448,0.00901272,-0.0131478,0.955554,0.0128684,0.0455675,1966,813,0.0643274,0.0856858
749,211,-0.931885,1.00238,0,0,0,0,0,0,0,-1,1973,813,-0.931848,-1.00238
756,211,0.270386,-0.343994,0,0,0,0,0,0,0,-1,1980,813,0.270365,0.344019
763,211,0.428711,-0.312683,0,0,0,0,0,0,0,-1,1987,813,0.428712,0.312683
770,211,0.190918,0.219421,0,0,0,0,0,0,0,-1,1994,813,0.19088,-0.21945
777,211,0,0,0,0,0,0,0,0,0,-1,2001,813,0,0
784,211,0,0,0,0,0,0,0,0,0,-1,2008,813,0,0
791,211,0,0,0,0,0,0,0,0,0,-1,2015,813,0,0
798,211,0,0,0,0,0,0,0,0,0,-1,2022,813,0,0
805,211,0,0,0,0,0,0,0,0,0,-1,2029,813,0,0
812,211,0,0,0,0,0,0,0,0,0,-1,2036,813,0,0
-700,204,0,0,0,0,0,0,0,0,0,-1,524,820,0,0
-693,204,0,0,0,0,0,0,0,0,0,-1,531,820,0,0
-686,204,0,0,0,0,0,0,0,0,0,-1,538,820,0,0
-679,204,0,0,0,0,0,0,0,0,0,-1,545,820,0,0
-672,204,0,0,0,0,0,0,0,0,0,-1,552,820,0,0
-665,204,0,0,0,0,0,0,0,0,0,-1,559,820,0,0
-658,204,0,0,0,0,0,0,0,0,0,-1,566,820,0,0
-651,204,-0.391052,-2.4892,0,0,0,0,0,0,0,-1,573,820,-0.391052,2.48919
-644,204,-0.272339,-2.07813,-0.00746139,-0.0164318,0.0303466,0.0187296,-0.0426228,0.71203,0.0363062,0.0446033,580,820,-0.272323,2.07809
-637,204,-0.250671,-1.68219,-0.006369,-0.013384,0.0269994,0.0173498,-0.0371028,0.720805,0.0321203,0.0454126,587,820,-0.250648,1.68216
-630,204,0.239624,-1.26385,-0.00544549,-0.0104442,0.0234551,0.015643,-0.0315327,0.732318,0.0277471,0.0404391,594,820,0.23961,1.26388
-623,204,-0.0169067,-0.743286,-0.00464096,-0.00781153,0.0198891,0.0137259,-0.0261784,0.745629,0.0234097,0.0396361,601,820,-0.0169307,0.743315
-616,204,0.00579834,-0.39624,-0.0038956,-0.00558011,0.0164273,0.0117111,-0.0211868,0.759785,0.0192544,0.0394109,608,820,0.00581908,0.396235
-609,204,0.0785522,0.159973,0,0,0,0,0,0,0,-1,615,820,0.0785557,-0.159969
-602,204,-0.0139771,-0.0669556,-0.0027066,-0.00269215,0.0100016,0.00730221,-0.012701,0.785759,0.0116882,0.01336,622,820,-0.0140008,0.0669487
-595,204,-0.0139771,-0.0742798,-0.00208214,-0.000726576,0.00786664,0.00649143,-0.00930014,0.828371,0.00916521,0.0128296,629,820,-0.0139469,0.0742552
-588,204,-0.0172729,-0.0791626,-0.00156217,0.000362113,0.00568437,0.0051652,-0.00636526,0.869234,0.00666912,0.0104145,636,820,-0.0172877,0.0791878
-581,204,-0.00665283,-0.0707397,-0.00106445,-5.21741e-05,0.00348585,0.00296409,-0.00408071,0.857493,0.00408431,0.0111865,643,820,-0.006676,0.0707122
-574,204,-0.0187988,-0.053772,6.20125e-05,0.00016788,0.00228291,0.00239847,-0.00216858,0.79699,0.0026379,0.0126326,650,820,-0.018802,0.0537533
-567,204,-0.0216675,-0.0706177,0.00137577,0.00102919,0.00199731,0.0032073,-0.000802335,0.742127,0.00244984,0.0119355,657,820,-0.0216453,0.0706316
-560,204,-0.0151367,-0.100647,0.00238818,0.00185088,0.00163369,0.00377517,0.000463899,0.703906,0.00237728,0.0114902,664,820,-0.0151529,0.100629
-553,204,-0.00238037,-0.0980225,0.00297455,0.00281384,0.00158461,0.00448085,0.00130755,0.760065,0.00266072,0.00918647,671,820,-0.0023534,0.0980111
-546,204,-0.0220337,-0.0748291,0.00332581,0.00317221,0.00214425,0.00539463,0.00110339,0.767496,0.00329087,0.0093985,678,820,-0.0220359,0.0748536
-539,204,-0.0205078,-0.0609741,0.0039294,0.00395512,0.00255313,0.00649542,0.0013891,0.787916,0.00394953,0.0145489,685,820,-0.020513,0.0610024
-532,204,0.0134277,-0.0585327,0.00420678,0.00493145,0.00298212,0.00757317,0.00156506,0.845853,0.00461639,0.0394413,692,820,0.0134301,0.0585069
-525,204,0.636353,0.0314331,0.00416288,0.00598358,0.0033908,0.00858411,0.00156235,0.916543,0.00527958,0.0456207,699,820,0.636326,-0.0314157
-518,204,0.612488,0.401306,0.0035775,0.0070785,0.00362871,0.00935687,0.00129913,1.01013,0.00585313,0.042538,706,820,0.612508,-0.401278
-511,204,0.567261,0.596069,0.00237896,0.00782551,0.00355129,0.00957749,0.000626983,1.11249,0.0061866,0.0451545,713,820,0.567259,-0.596075
-504,204,0.262329,0.23291,0.000659052,0.00835172,0.00323232,0.00952955,-0.000518773,1.22136,0.00653283,0.0451842,720,820,0.262305,-0.232891
-497,204,0.0133667,-0.0148926,-0.00166703,0.00847587,0.00254092,0.0090768,-0.00226796,1.33856,0.00693198,0.0381487,727,820,0.0133456,0.0149019
-490,204,-0.0570068,-0.150269,-0.00459734,0.00805358,0.00138833,0.00820414,-0.00474791,1.46277,0.0075661,0.0338811,734,820,-0.0569858,0.150267
-483,204,-0.0496216,-0.295288,-0.00816891,0.00692914,-0.000378534,0.00693863,-0.00817839,-1.54575,0.00873759,0.0387878,741,820,-0.0496127,0.295258
-476,204,0,0,0,0,0,0,0,0,0,-1,748,820,0,0
-469,204,0,0,0,0,0,0,0,0,0,-1,755,820,0,0
-462,204,0,0,0,0,0,0,0,0,0,-1,762,820,0,0
-455,204,0,0,0,0,0,0,0,0,0,-1,769,820,0,0
-448,204,0,0,0,0,0,0,0,0,0,-1,776,820,0,0
-441,204,0,0,0,0,0,0,0,0,0,-1,783,820,0,0
-434,204,0,0,0,0,0,0,0,0,0,-1,790,820,0,0
-427,204,0,0,0,0,0,0,0,0,0,-1,797,820,0,0
-420,204,0,0,0,0,0,0,0,0,0,-1,804,820,0,0
-413,204,0,0,0,0,0,0,0,0,0,-1,811,820,0,0
-406,204,0,0,0,0,0,0,0,0,0,-1,818,820,0,0
-399,204,0,0,0,0,0,0,0,0,0,-1,825,820,0,0
-392,204,0,0,0,0,0,0,0,0,0,-1,832,820,0,0
-385,204,0,0,0,0,0,0,0,0,0,-1,839,820,0,0
-378,204,0,0,0,0,0,0,0,0,0,-1,846,820,0,0
-371,204,0,0,0,0,0,0,0,0,0,-1,853,820,0,0
-364,204,0,0,0,0,0,0,0,0,0,-1,860,820,0,0
-357,204,0,0,0,0,0,0,0,0,0,-1,867,820,0,0
-350,204,0,0,0,0,0,0,0,0,0,-1,874,820,0,0
-343,204,0,0,0,0,0,0,0,0,0,-1,881,820,0,0
-336,204,0,0,0,0,0,0,0,0,0,-1,888,820,0,0
-329,204,0,0,0,0,0,0,0,0,0,-1,895,820,0,0
-322,204,0,0,0,0,0,0,0,0,0,-1,902,820,0,0
-315,204,0,0,0,0,0,0,0,0,0,-1,909,820,0,0
-308,204,0,0,0,0,0,0,0,0,0,-1,916,820,0,0
-301,204,0,0,0,0,0,0,0,0,0,-1,923,820,0,0
-294,204,0,0,0,0,0,0,0,0,0,-1,930,820,0,0
-287,204,0,0,0,0,0,0,0,0,0,-1,937,820,0,0
-280,204,0,0,0,0,0,0,0,0,0,-1,944,820,0,0
-273,204,0,0,0,0,0,0,0,0,0,-1,951,820,0,0
-266,204,0,0,0,0,0,0,0,0,0,-1,958,820,0,0
-259,204,0,0,0,0,0,0,0,0,0,-1,965,820,0,0
-252,204,0,0,0,0,0,0,0,0,0,-1,972,820,0,0
-245,204,0,0,0,0,0,0,0,0,0,-1,979,820,0,0
-238,204,0,0,0,0,0,0,0,0,0,-1,986,820,0,0
-231,204,0,0,0,0,0,0,0,0,0,-1,993,820,0,0
-224,204,0,0,0,0,0,0,0,0,0,-1,1000,820,0,0
-217,204,0,0,0,0,0,0,0,0,0,-1,1007,820,0,0
-210,204,0,0,0,0,0,0,0,0,0,-1,1014,820,0,0
-203,204,0,0,0,0,0,0,0,0,0,-1,1021,820,0,0
-196,204,0,0,0,0,0,0,0,0,0,-1,1028,820,0,0
-189,204,0,0,0,0,0,0,0,0,0,-1,1035,820,0,0
-182,204,0,0,0,0,0,0,0,0,0,-1,1042,820,0,0
-175,204,0,0,0,0,0,0,0,0,0,-1,1049,820,0,0
-168,204,0,0,0,0,0,0,0,0,0,-1,1056,820,0,0
-161,204,0,0,0,0,0,0,0,0,0,-1,1063,820,0,0
-154,204,0,0,0,0,0,0,0,0,0,-1,1070,820,0,0
-147,204,0,0,0,0,0,0,0,0,0,-1,1077,820,0,0
-140,204,0,0,0,0,0,0,0,0,0,-1,1084,820,0,0
-133,204,0,0,0,0,0,0,0,0,0,-1,1091,820,0,0
-126,204,0,0,0,0,0,0,0,0,0,-1,1098,820,0,0
-119,204,0,0,0,0,0,0,0,0,0,-1,1105,820,0,0
-112,204,0,0,0,0,0,0,0,0,0,-1,1112,820,0,0
-105,204,0,0,0,0,0,0,0,0,0,-1,1119,820,0,0
-98,204,0,0,0,0,0,0,0,0,0,-1,1126,820,0,0
-91,204,0,0,0,0,0,0,0,0,0,-1,1133,820,0,0
-84,204,0,0,0,0,0,0,0,0,0,-1,1140,820,0,0
-77,204,0,0,0,0,0,0,0,0,0,-1,1147,820,0,0
-70,204,0,0,0,0,0,0,0,0,0,-1,1154,820,0,0
-63,204,0,0,0,0,0,0,0,0,0,-1,1161,820,0,0
-56,204,0,0,0,0,0,0,0,0,0,-1,1168,820,0,0
-49,204,0,0,0,0,0,0,0,0,0,-1,1175,820,0,0
-42,204,0,0,0,0,0,0,0,0,0,-1,1182,820,0,0
-35,204,0,0,0,0,0,0,0,0,0,-1,1189,820,0,0
-28,204,0,0,0,0,0,0,0,0,0,-1,1196,820,0,0
-21,204,0,0,0,0,0,0,0,0,0,-1,1203,820,0,0
-14,204,0,0,0,0,0,0,0,0,0,-1,1210,820,0,0
-7,204,0,0,0,0,0,0,0,0,0,-1,1217,820,0,0
0,204,0,0,0,0,0,0,0,0,0,-1,1224,820,0,0
7,204,0,0,0,0,0,0,0,0,0,-1,1231,820,0,0
14,204,0,0,0,0,0,0,0,0,0,-1,1238,820,0,0
21,204,0,0,0,0,0,0,0,0,0,-1,1245,820,0,0
28,204,0,0,0,0,0,0,0,0,0,-1,1252,820,0,0
35,204,0,0,0,0,0,0,0,0,0,-1,1259,820,0,0
42,204,0,0,0,0,0,0,0,0,0,-1,1266,820,0,0
49,204,0,0,0,0,0,0,0,0,0,-1,1273,820,0,0
56,204,0,0,0,0,0,0,0,0,0,-1,1280,820,0,0
63,204,0,0,0,0,0,0,0,0,0,-1,1287,820,0,0
70,204,0,0,0,0,0,0,0,0,0,-1,1294,820,0,0
77,204,0,0,0,0,0,0,0,0,0,-1,1301,820,0,0
84,204,0,0,0,0,0,0,0,0,0,-1,1308,820,0,0
91,204,0,0,0,0,0,0,0,0,0,-1,1315,820,0,0
98,204,0,0,0,0,0,0,0,0,0,-1,1322,820,0,0
105,204,0,0,0,0,0,0,0,0,0,-1,1329,820,0,0
112,204,0,0,0,0,0,0,0,0,0,-1,1336,820,0,0
119,204,0,0,0,0,0,0,0,0,0,-1,1343,820,0,0
126,204,0,0,0,0,0,0,0,0,0,-1,1350,820,0,0
133,204,0,0,0,0,0,0,0,0,0,-1,1357,820,0,0
140,204,0,0,0,0,0,0,0,0,0,-1,1364,820,0,0
147,204,0,0,0,0,0,0,0,0,0,-1,1371,820,0,0
154,204,0,0,0,0,0,0,0,0,0,-1,1378,820,0,0
161,204,0,0,0,0,0,0,0,0,0,-1,1385,820,0,0
168,204,0,0,0,0,0,0,0,0,0,-1,1392,820,0,0
175,204,0,0,0,0,0,0,0,0,0,-1,1399,820,0,0
182,204,0,0,0,0,0,0,0,0,0,-1,1406,820,0,0
189,204,0,0,0,0,0,0,0,0,0,-1,1413,820,0,0
196,204,0,0,0,0,0,0,0,0,0,-1,1420,820,0,0
203,204,0,0,0,0,0,0,0,0,0,-1,1427,820,0,0
210,204,0,0,0,0,0,0,0,0,0,-1,1434,820,0,0
217,204,0,0,0,0,0,0,0,0,0,-1,1441,820,0,0
224,204,0,0,0,0,0,0,0,0,0,-1,1448,820,0,0
231,204,0,0,0,0,0,0,0,0,0,-1,1455,820,0,0
238,204,0,0,0,0,0,0,0,0,0,-1,1462,820,0,0
245,204,0,0,0,0,0,0,0,0,0,-1,1469,820,0,0
252,204,0,0,0,0,0,0,0,0,0,-1,1476,820,0,0
259,204,0,0,0,0,0,0,0,0,0,-1,1483,820,0,0
266,204,0,0,0,0,0,0,0,0,0,-1,1490,820,0,0
273,204,0,0,0,0,0,0,0,0,0,-1,1497,820,0,0
280,204,0,0,0,0,0,0,0,0,0,-1,1504,820,0,0
287,204,0,0,0,0,0,0,0,0,0,-1,1511,820,0,0
294,204,0,0,0,0,0,0,0,0,0,-1,1518,820,0,0
301,204,0,0,0,0,0,0,0,0,0,-1,1525,820,0,0
308,204,0,0,0,0,0,0,0,0,0,-1,1532,820,0,0
315,204,0,0,0,0,0,0,0,0,0,-1,1539,820,0,0
322,204,0,0,0,0,0,0,0,0,0,-1,1546,820,0,0
329,204,0,0,0,0,0,0,0,0,0,-1,1553,820,0,0
336,204,0,0,0,0,0,0,0,0,0,-1,1560,820,0,0
343,204,0,0,0,0,0,0,0,0,0,-1,1567,820,0,0
350,204,0,0,0,0,0,0,0,0,0,-1,1574,820,0,0
357,204,0,0,0,0,0,0,0,0,0,-1,1581,820,0,0
364,204,0,0,0,0,0,0,0,0,0,-1,1588,820,0,0
371,204,0,0,0,0,0,0,0,0,0,-1,1595,820,0,0
378,204,0,0,0,0,0,0,0,0,0,-1,1602,820,0,0
385,204,0,0,0,0,0,0,0,0,0,-1,1609,820,0,0
392,204,0,0,0,0,0,0,0,0,0,-1,1616,820,0,0
399,204,0,0,0,0,0,0,0,0,0,-1,1623,820,0,0
406,204,0,0,0,0,0,0,0,0,0,-1,1630,820,0,0
413,204,0,0,0,0,0,0,0,0,0,-1,1637,820,0,0
420,204,0,0,0,0,0,0,0,0,0,-1,1644,820,0,0
427,204,0,0,0,0,0,0,0,0,0,-1,1651,820,0,0
434,204,0,0,0,0,0,0,0,0,0,-1,1658,820,0,0
441,204,0,0,0,0,0,0,0,0,0,-1,1665,820,0,0
448,204,0,0,0,0,0,0,0,0,0,-1,1672,820,0,0
455,204,0,0,0,0,0,0,0,0,0,-1,1679,820,0,0
462,204,0,0,0,0,0,0,0,0,0,-1,1686,820,0,0
469,204,0,0,0,0,0,0,0,0,0,-1,1693,820,0,0
476,204,0,0,0,0,0,0,0,0,0,-1,1700,820,0,0
483,204,0,0,0,0,0,0,0,0,0,-1,1707,820,0,0
490,204,0,0,0,0,0,0,0,0,0,-1,1714,820,0,0
497,204,0,0,0,0,0,0,0,0,0,-1,1721,820,0,0
504,204,0,0,0,0,0,0,0,0,0,-1,1728,820,0,0
511,204,0,0,0,0,0,0,0,0,0,-1,1735,820,0,0
518,204,0,0,0,0,0,0,0,0,0,-1,1742,820,0,0
525,204,0,0,0,0,0,0,0,0,0,-1,1749,820,0,0
532,204,0,0,0,0,0,0,0,0,0,-1,1756,820,0,0
539,204,0,0,0,0,0,0,0,0,0,-1,1763,820,0,0
546,204,0,0,0,0,0,0,0,0,0,-1,1770,820,0,0
553,204,0,0,0,0,0,0,0,0,0,-1,1777,820,0,0
560,204,0,0,0,0,0,0,0,0,0,-1,1784,820,0,0
567,204,0,0,0,0,0,0,0,0,0,-1,1791,820,0,0
574,204,0,0,0,0,0,0,0,0,0,-1,1798,820,0,0
581,204,0,0,0,0,0,0,0,0,0,-1,1805,820,0,0
588,204,0,0,0,0,0,0,0,0,0,-1,1812,820,0,0
595,204,0,0,0,0,0,0,0,0,0,-1,1819,820,0,0
602,204,0.0384521,-0.0394897,-0.00106383,-0.000421849,-0.00211812,0.00139946,-0.00288514,-0.860598,0.0025228,0.0357138,1826,820,0.0384139,0.0394964
609,204,-0.012085,-0.103394,-7.42425e-05,-0.00184425,-0.00150837,0.000789587,-0.00270808,-0.520096,0.00211822,0.0384365,1833,820,-0.0120561,0.10338
616,204,0.00146484,-0.0875854,0.000353522,-0.00293779,-0.000519901,0.000433693,-0.00301796,-0.153,0.00217103,0.0355552,1840,820,0.00142455,0.087572
623,204,-0.0449219,-0.00970459,0.000453942,-0.00367953,0.000343917,0.000482362,-0.00370795,0.0824475,0.00264744,0.0254958,1847,820,-0.0449719,0.00970199
630,204,-0.0333252,-0.0497437,0.000432404,-0.00403532,0.00101053,0.000650338,-0.00425325,0.212411,0.00307529,0.024566,1854,820,-0.0332734,0.0497139
637,204,-0.0118408,-0.0942383,0.000301901,-0.00405469,0.00151602,0.000777528,-0.00453031,0.304008,0.00330997,0.0297775,1861,820,-0.0117847,0.0942672
644,204,-0.0057373,-0.169067,9.12408e-05,-0.00383936,0.00185016,0.000825104,-0.00457322,0.377615,0.00335781,0.0345614,1868,820,-0.00574952,0.169073
651,204,0.250366,-0.160217,-0.00011745,-0.00342603,0.00197297,0.000802997,-0.00434648,0.436515,0.00319909,0.0403946,1875,820,0.250329,0.160236
658,204,0.278564,0.156433,-0.000199428,-0.00292343,0.00192187,0.000794122,-0.00391698,0.477132,0.00291235,0.0449123,1882,820,0.278569,-0.156452
665,204,0.0842285,0.22876,-0.000227096,-0.00254551,0.00175791,0.000719403,-0.00349201,0.493912,0.00260118,0.0412051,1889,820,0.0842857,-0.228761
672,204,-0.0151367,-0.046814,-0.000334901,-0.00204579,0.00151264,0.000547433,-0.00292812,0.528054,0.00215783,0.0175304,1896,820,-0.0150778,0.0468405
679,204,-0.0349121,-0.085144,-0.000552128,-0.00126645,0.0012741,0.000413922,-0.0022325,0.648744,0.00164377,0.0104143,1903,820,-0.0348871,0.0851644
686,204,-0.0406494,-0.0952759,-0.00071071,-0.000774295,0.000978216,0.00023623,-0.00172123,0.769154,0.00123379,0.00884404,1910,820,-0.0406582,0.0952899
693,204,-0.0395508,-0.102051,-0.000947703,-0.000229108,0.000800364,0.000288907,-0.00146572,0.996375,0.00108633,0.014192,1917,820,-0.0395126,0.102063
700,204,-0.0333252,-0.0825806,-0.00117138,-0.00027514,0.000760822,0.000159724,-0.00160625,1.05154,0.00112785,0.0154366,1924,820,-0.0333465,0.0825894
707,204,-0.0357666,-0.0765381,-0.00165416,-0.000237597,0.000570466,-3.6431e-05,-0.00185532,1.23178,0.00122492,0.0141197,1931,820,-0.0357162,0.0765635
714,204,-0.0378418,-0.0609741,-0.00223973,0.000499226,0.00082208,0.000727022,-0.00246753,1.30048,0.00193347,0.0226166,1938,820,-0.0378252,0.0609781
721,204,-0.0513916,-0.0740967,-0.002928,0.00116697,0.00246884,0.00232688,-0.00408791,1.13158,0.00374981,0.0199419,1945,820,-0.0514301,0.0740852
728,204,-0.0257568,-0.0758057,-0.00399518,0.00175893,0.00425172,0.00401554,-0.00625179,1.08285,0.00597453,0.0118586,1952,820,-0.025809,0.0758188
735,204,-0.0196533,-0.0723877,-0.00530835,0.00270223,0.00652061,0.00634944,-0.00895556,1.06081,0.00887894,0.0138624,1959,820,-0.0197095,0.072366
742,204,0.0900879,-0.176941,-0.0067926,0.00392549,0.00977261,0.009712,-0.0125791,1.0362,0.0129052,0.0278727,1966,820,0.0901484,0.176966
749,204,0.189697,-0.212036,-0.00846211,0.00540688,0.014386,0.0144425,-0.0174977,1.00998,0.0184687,0.0425611,1973,820,0.189651,0.212047
756,204,0.288696,-0.208252,0,0,0,0,0,0,0,-1,1980,820,0.288745,0.208227
763,204,0.557007,-0.194946,-0.0121618,0.00877109,0.0294595,0.0295682,-0.0329588,0.956085,0.0361177,0.0435466,1987,820,0.556981,0.194963
770,204,0.525269,0.074646,-0.014046,0.0102325,0.0411477,0.0409942,-0.0448077,0.928838,0.0495541,0.0480604,1994,820,0.525327,-0.0746281
777,204,0,0,0,0,0,0,0,0,0,-1,2001,820,0,0
784,204,0,0,0,0,0,0,0,0,0,-1,2008,820,0,0
791,204,0,0,0,0,0,0,0,0,0,-1,2015,820,0,0
798,204,0,0,0,0,0,0,0,0,0,-1,2022,820,0,0
805,204,0,0,0,0,0,0,0,0,0,-1,2029,820,0,0
812,204,0,0,0,0,0,0,0,0,0,-1,2036,820,0,0
-700,197,0,0,0,0,0,0,0,0,0,-1,524,827,0,0
-693,197,0,0,0,0,0,0,0,0,0,-1,531,827,0,0
-686,197,0,0,0,0,0,0,0,0,0,-1,538,827,0,0
-679,197,0,0,0,0,0,0,0,0,0,-1,545,827,0,0
-672,197,0,0,0,0,0,0,0,0,0,-1,552,827,0,0
-665,197,0,0,0,0,0,0,0,0,0,-1,559,827,0,0
-658,197,-0.724182,-2.90289,0,0,0,0,0,0,0,-1,566,827,-0.724158,2.90287
-651,197,-0.495911,-2.44318,-0.00282694,-0.0245269,0.0323927,0.0204846,-0.0478384,0.623795,0.0404864,0.0444832,573,827,-0.495908,2.44317
-644,197,-0.422363,-1.99133,-0.00237091,-0.0207705,0.0285749,0.0184486,-0.04159,0.629661,0.0355112,0.0459816,580,827,-0.422386,1.99131
-637,197,-0.368591,-1.6167,-0.0021447,-0.0169307,0.024752,0.0162948,-0.0353702,0.640274,0.030499,0.0453917,587,827,-0.368608,1.61668
-630,197,-0.251709,-1.22382,-0.00199968,-0.0133309,0.0210704,0.0141535,-0.0294841,0.65406,0.0257072,0.0426318,594,827,-0.251737,1.22381
-623,197,-0.0252075,-0.803711,-0.00188462,-0.0101312,0.0175918,0.0120607,-0.0240765,0.670283,0.0212448,0.0400864,601,827,-0.0251904,0.803705
-616,197,0.0936279,-0.443787,-0.00174327,-0.00741144,0.014361,0.0100607,-0.0192154,0.687977,0.0171758,0.0414544,608,827,0.0936488,0.44376
-609,197,0.00494385,-0.0698853,-0.00165918,-0.00527801,0.011243,0.00791908,-0.0148563,0.705614,0.0133511,0.0306196,615,827,0.00495147,0.0698762
-602,197,-0.0264893,-0.0828857,-0.0015158,-0.00373391,0.00849352,0.00594077,-0.0111905,0.720477,0.0100443,0.0147862,622,827,-0.0264906,0.0828634
-595,197,-0.0253906,-0.0708008,-0.00129706,-0.00150212,0.00665156,0.00525276,-0.00805194,0.777692,0.00773793,0.0159093,629,827,-0.0253978,0.0707704
-588,197,-0.0179443,-0.086853,-0.00108423,-0.00015537,0.00475404,0.00415688,-0.00539647,0.834089,0.00553109,0.0159125,636,827,-0.017952,0.0868354
-581,197,-0.0125732,-0.0697021,-0.00078082,-0.000420336,0.00284731,0.00225243,-0.00345359,0.817007,0.00331862,0.00993607,643,827,-0.0125993,0.0696957
-574,197,-0.0202637,-0.0419922,0.000133197,-5.81597e-05,0.00189273,0.00193266,-0.00185762,0.760144,0.00218846,0.0117819,650,827,-0.0202861,0.0419646
-567,197,-0.0289917,-0.0688477,0.0012438,0.000850844,0.00170612,0.00276471,-0.000670076,0.728071,0.0021024,0.0129435,657,827,-0.028994,0.0688459
-560,197,-0.0496216,-0.0866089,0.00211024,0.00169069,0.00144101,0.00335666,0.000444266,0.713118,0.00210537,0.011503,664,827,-0.0496472,0.0866159
-553,197,-0.019165,-0.0580444,0.00262315,0.00266071,0.0014526,0.00409465,0.00118921,0.791862,0.00243228,0.00964539,671,827,-0.019144,0.0580639
-546,197,-0.0509644,-0.0371704,0.00299357,0.00309614,0.00195523,0.00500076,0.00108896,0.79851,0.00303665,0.0146139,678,827,-0.0509709,0.0371469
-539,197,-0.0799561,-0.0795898,0.00363731,0.00387481,0.00235065,0.00610971,0.00140241,0.810635,0.00369546,0.0276744,685,827,-0.0799256,0.0795957
-532,197,-0.111206,-0.156738,0.00396657,0.00479495,0.00272444,0.00713651,0.00162502,0.860834,0.00431913,0.0435015,692,827,-0.111213,0.156739
-525,197,-0.129028,-0.222656,0,0,0,0,0,0,0,-1,699,827,-0.129007,0.222661
-518,197,0.0999146,0.0549316,0.00352326,0.00673933,0.00329242,0.00879542,0.00146717,1.01256,0.0054409,0.0438873,706,827,0.0999216,-0.0549106
-511,197,0.0747681,0.0294189,0.00248278,0.00731914,0.00318779,0.00890216,0.000899761,1.10988,0.00565875,0.0395368,713,827,0.0747944,-0.0294459
-504,197,-0.00616455,-0.0192871,0.000926441,0.00753971,0.00281009,0.00857248,-0.000106327,1.2186,0.00575076,0.035336,720,827,-0.00613574,0.0192663
-497,197,-0.0730591,0.0627441,-0.00121369,0.00717452,0.00204029,0.00764446,-0.00168363,1.34442,0.00574041,0.0370607,727,827,-0.0730702,-0.06272
-490,197,-0.0776978,0.0906372,-0.00397078,0.00599579,0.000769293,0.00605482,-0.00402981,1.49421,0.00586136,0.0363496,734,827,-0.0776678,-0.0906153
-483,197,-0.0393066,-0.0532837,-0.00740364,0.00374608,-0.00116909,0.00386735,-0.0075249,-1.46744,0.00668936,0.0364708,741,827,-0.0393314,0.0532878
-476,197,0,0,0,0,0,0,0,0,0,-1,748,827,0,0
-469,197,0,0,0,0,0,0,0,0,0,-1,755,827,0,0
-462,197,0,0,0,0,0,0,0,0,0,-1,762,827,0,0
-455,197,0,0,0,0,0,0,0,0,0,-1,769,827,0,0
-448,197,0,0,0,0,0,0,0,0,0,-1,776,827,0,0
-441,197,0,0,0,0,0,0,0,0,0,-1,783,827,0,0
-434,197,0,0,0,0,0,0,0,0,0,-1,790,827,0,0
-427,197,0,0,0,0,0,0,0,0,0,-1,797,827,0,0
-420,197,0,0,0,0,0,0,0,0,0,-1,804,827,0,0
-413,197,0,0,0,0,0,0,0,0,0,-1,811,827,0,0
-406,197,0,0,0,0,0,0,0,0,0,-1,818,827,0,0
-399,197,0,0,0,0,0,0,0,0,0,-1,825,827,0,0
-392,197,0,0,0,0,0,0,0,0,0,-1,832,827,0,0
-385,197,0,0,0,0,0,0,0,0,0,-1,839,827,0,0
-378,197,0,0,0,0,0,0,0,0,0,-1,846,827,0,0
-371,197,0,0,0,0,0,0,0,0,0,-1,853,827,0,0
-364,197,0,0,0,0,0,0,0,0,0,-1,860,827,0,0
-357,197,0,0,0,0,0,0,0,0,0,-1,867,827,0,0
-350,197,0,0,0,0,0,0,0,0,0,-1,874,827,0,0
-343,197,0,0,0,0,0,0,0,0,0,-1,881,827,0,0
-336,197,0,0,0,0,0,0,0,0,0,-1,888,827,0,0
-329,197,0,0,0,0,0,0,0,0,0,-1,895,827,0,0
-322,197,0,0,0,0,0,0,0,0,0,-1,902,827,0,0
-315,197,0,0,0,0,0,0,0,0,0,-1,909,827,0,0
-308,197,0,0,0,0,0,0,0,0,0,-1,916,827,0,0
-301,197,0,0,0,0,0,0,0,0,0,-1,923,827,0,0
-294,197,0,0,0,0,0,0,0,0,0,-1,930,827,0,0
-287,197,0,0,0,0,0,0,0,0,0,-1,937,827,0,0
-280,197,0,0,0,0,0,0,0,0,0,-1,944,827,0,0
-273,197,0,0,0,0,0,0,0,0,0,-1,951,827,0,0
-266,197,0,0,0,0,0,0,0,0,0,-1,958,827,0,0
-259,197,0,0,0,0,0,0,0,0,0,-1,965,827,0,0
-252,197,0,0,0,0,0,0,0,0,0,-1,972,827,0,0
-245,197,0,0,0,0,0,0,0,0,0,-1,979,827,0,0
-238,197,0,0,0,0,0,0,0,0,0,-1,986,827,0,0
-231,197,0,0,0,0,0,0,0,0,0,-1,993,827,0,0
-224,197,0,0,0,0,0,0,0,0,0,-1,1000,827,0,0
-217,197,0,0,0,0,0,0,0,0,0,-1,1007,827,0,0
-210,197,0,0,0,0,0,0,0,0,0,-1,1014,827,0,0
-203,197,0,0,0,0,0,0,0,0,0,-1,1021,827,0,0
-196,197,0,0,0,0,0,0,0,0,0,-1,1028,827,0,0
-189,197,0,0,0,0,0,0,0,0,0,-1,1035,827,0,0
-182,197,0,0,0,0,0,0,0,0,0,-1,1042,827,0,0
-175,197,0,0,0,0,0,0,0,0,0,-1,1049,827,0,0
-168,197,0,0,0,0,0,0,0,0,0,-1,1056,827,0,0
-161,197,0,0,0,0,0,0,0,0,0,-1,1063,827,0,0
-154,197,0,0,0,0,0,0,0,0,0,-1,1070,827,0,0
-147,197,0,0,0,0,0,0,0,0,0,-1,1077,827,0,0
-140,197,0,0,0,0,0,0,0,0,0,-1,1084,827,0,0
-133,197,0,0,0,0,0,0,0,0,0,-1,1091,827,0,0
-126,197,0,0,0,0,0,0,0,0,0,-1,1098,827,0,0
-119,197,0,0,0,0,0,0,0,0,0,-1,1105,827,0,0
-112,197,0,0,0,0,0,0,0,0,0,-1,1112,827,0,0
-105,197,0,0,0,0,0,0,0,0,0,-1,1119,827,0,0
-98,197,0,0,0,0,0,0,0,0,0,-1,1126,827,0,0
-91,197,0,0,0,0,0,0,0,0,0,-1,1133,827,0,0
-84,197,0,0,0,0,0,0,0,0,0,-1,1140,827,0,0
-77,197,0,0,0,0,0,0,0,0,0,-1,1147,827,0,0
-70,197,0,0,0,0,0,0,0,0,0,-1,1154,827,0,0
-63,197,0,0,0,0,0,0,0,0,0,-1,1161,827,0,0
-56,197,0,0,0,0,0,0,0,0,0,-1,1168,827,0,0
-49,197,0,0,0,0,0,0,0,0,0,-1,1175,827,0,0
-42,197,0,0,0,0,0,0,0,0,0,-1,1182,827,0,0
-35,197,0,0,0,0,0,0,0,0,0,-1,1189,827,0,0
-28,197,0,0,0,0,0,0,0,0,0,-1,1196,827,0,0
-21,197,0,0,0,0,0,0,0,0,0,-1,1203,827,0,0
-14,197,0,0,0,0,0,0,0,0,0,-1,1210,827,0,0
-7,197,0,0,0,0,0,0,0,0,0,-1,1217,827,0,0
0,197,0,0,0,0,0,0,0,0,0,-1,1224,827,0,0
7,197,0,0,0,0,0,0,0,0,0,-1,1231,827,0,0
14,197,0,0,0,0,0,0,0,0,0,-1,1238,827,0,0
21,197,0,0,0,0,0,0,0,0,0,-1,1245,827,0,0
28,197,0,0,0,0,0,0,0,0,0,-1,1252,827,0,0
35,197,0,0,0,0,0,0,0,0,0,-1,1259,827,0,0
42,197,0,0,0,0,0,0,0,0,0,-1,1266,827,0,0
49,197,0,0,0,0,0,0,0,0,0,-1,1273,827,0,0
56,197,0,0,0,0,0,0,0,0,0,-1,1280,827,0,0
63,197,0,0,0,0,0,0,0,0,0,-1,1287,827,0,0
70,197,0,0,0,0,0,0,0,0,0,-1,1294,827,0,0
77,197,0,0,0,0,0,0,0,0,0,-1,1301,827,0,0
84,197,0,0,0,0,0,0,0,0,0,-1,1308,827,0,0
91,197,0,0,0,0,0,0,0,0,0,-1,1315,827,0,0
98,197,0,0,0,0,0,0,0,0,0,-1,1322,827,0,0
105,197,0,0,0,0,0,0,0,0,0,-1,1329,827,0,0
112,197,0,0,0,0,0,0,0,0,0,-1,1336,827,0,0
119,197,0,0,0,0,0,0,0,0,0,-1,1343,827,0,0
126,197,0,0,0,0,0,0,0,0,0,-1,1350,827,0,0
133,197,0,0,0,0,0,0,0,0,0,-1,1357,827,0,0
140,197,0,0,0,0,0,0,0,0,0,-1,1364,827,0,0
147,197,0,0,0,0,0,0,0,0,0,-1,1371,827,0,0
154,197,0,0,0,0,0,0,0,0,0,-1,1378,827,0,0
161,197,0,0,0,0,0,0,0,0,0,-1,1385,827,0,0
168,197,0,0,0,0,0,0,0,0,0,-1,1392,827,0,0
175,197,0,0,0,0,0,0,0,0,0,-1,1399,827,0,0
182,197,0,0,0,0,0,0,0,0,0,-1,1406,827,0,0
189,197,0,0,0,0,0,0,0,0,0,-1,1413,827,0,0
196,197,0,0,0,0,0,0,0,0,0,-1,1420,827,0,0
203,197,0,0,0,0,0,0,0,0,0,-1,1427,827,0,0
210,197,0,0,0,0,0,0,0,0,0,-1,1434,827,0,0
217,197,0,0,0,0,0,0,0,0,0,-1,1441,827,0,0
224,197,0,0,0,0,0,0,0,0,0,-1,1448,827,0,0
231,197,0,0,0,0,0,0,0,0,0,-1,1455,827,0,0
238,197,0,0,0,0,0,0,0,0,0,-1,1462,827,0,0
245,197,0,0,0,0,0,0,0,0,0,-1,1469,827,0,0
252,197,0,0,0,0,0,0,0,0,0,-1,1476,827,0,0
259,197,0,0,0,0,0,0,0,0,0,-1,1483,827,0,0
266,197,0,0,0,0,0,0,0,0,0,-1,1490,827,0,0
273,197,0,0,0,0,0,0,0,0,0,-1,1497,827,0,0
280,197,0,0,0,0,0,0,0,0,0,-1,1504,827,0,0
287,197,0,0,0,0,0,0,0,0,0,-1,1511,827,0,0
294,197,0,0,0,0,0,0,0,0,0,-1,1518,827,0,0
301,197,0,0,0,0,0,0,0,0,0,-1,1525,827,0,0
308,197,0,0,0,0,0,0,0,0,0,-1,1532,827,0,0
315,197,0,0,0,0,0,0,0,0,0,-1,1539,827,0,0
322,197,0,0,0,0,0,0,0,0,0,-1,1546,827,0,0
329,197,0,0,0,0,0,0,0,0,0,-1,1553,827,0,0
336,197,0,0,0,0,0,0,0,0,0,-1,1560,827,0,0
343,197,0,0,0,0,0,0,0,0,0,-1,1567,827,0,0
350,197,0,0,0,0,0,0,0,0,0,-1,1574,827,0,0
357,197,0,0,0,0,0,0,0,0,0,-1,1581,827,0,0
364,197,0,0,0,0,0,0,0,0,0,-1,1588,827,0,0
371,197,0,0,0,0,0,0,0,0,0,-1,1595,827,0,0
378,197,0,0,0,0,0,0,0,0,0,-1,1602,827,0,0
385,197,0,0,0,0,0,0,0,0,0,-1,1609,827,0,0
392,197,0,0,0,0,0,0,0,0,0,-1,1616,827,0,0
399,197,0,0,0,0,0,0,0,0,0,-1,1623,827,0,0
406,197,0,0,0,0,0,0,0,0,0,-1,1630,827,0,0
413,197,0,0,0,0,0,0,0,0,0,-1,1637,827,0,0
420,197,0,0,0,0,0,0,0,0,0,-1,1644,827,0,0
427,197,0,0,0,0,0,0,0,0,0,-1,1651,827,0,0
434,197,0,0,0,0,0,0,0,0,0,-1,1658,827,0,0
441,197,0,0,0,0,0,0,0,0,0,-1,1665,827,0,0
448,197,0,0,0,0,0,0,0,0,0,-1,1672,827,0,0
455,197,0,0,0,0,0,0,0,0,0,-1,1679,827,0,0
462,197,0,0,0,0,0,0,0,0,0,-1,1686,827,0,0
469,197,0,0,0,0,0,0,0,0,0,-1,1693,827,0,0
476,197,0,0,0,0,0,0,0,0,0,-1,1700,827,0,0
483,197,0,0,0,0,0,0,0,0,0,-1,1707,827,0,0
490,197,0,0,0,0,0,0,0,0,0,-1,1714,827,0,0
497,197,0,0,0,0,0,0,0,0,0,-1,1721,827,0,0
504,197,0,0,0,0,0,0,0,0,0,-1,1728,827,0,0
511,197,0,0,0,0,0,0,0,0,0,-1,1735,827,0,0
518,197,0,0,0,0,0,0,0,0,0,-1,1742,827,0,0
525,197,0,0,0,0,0,0,0,0,0,-1,1749,827,0,0
532,197,0,0,0,0,0,0,0,0,0,-1,1756,827,0,0
539,197,0,0,0,0,0,0,0,0,0,-1,1763,827,0,0
546,197,0,0,0,0,0,0,0,0,0,-1,1770,827,0,0
553,197,0,0,0,0,0,0,0,0,0,-1,1777,827,0,0
560,197,0,0,0,0,0,0,0,0,0,-1,1784,827,0,0
567,197,0,0,0,0,0,0,0,0,0,-1,1791,827,0,0
574,197,0,0,0,0,0,0,0,0,0,-1,1798,827,0,0
581,197,0,0,0,0,0,0,0,0,0,-1,1805,827,0,0
588,197,0,0,0,0,0,0,0,0,0,-1,1812,827,0,0
595,197,0,0,0,0,0,0,0,0,0,-1,1819,827,0,0
602,197,0.00219727,-0.0454102,-0.0024807,0.00108668,-0.00213325,0.00208369,-0.00347772,-1.13359,0.00324433,0.0365103,1826,827,0.00218721,0.0454388
609,197,-0.0976563,-0.0976563,-0.000652038,-0.00164851,-0.00138515,0.000321761,-0.00262231,-0.612754,0.00186474,0.0381242,1833,827,-0.0975995,0.0976279
616,197,-0.0124512,-0.131958,0.000334549,-0.00336718,-0.000279524,0.000355537,-0.00338817,-0.0749453,0.00238614,0.0379912,1840,827,-0.0125107,0.131931
623,197,-0.0358887,-0.00830078,0.000730335,-0.00431637,0.000620235,0.000805444,-0.00439148,0.12051,0.00322978,0.0332922,1847,827,-0.0358936,0.00833127
630,197,-0.0422363,-0.00219727,0.000856143,-0.0046445,0.00124089,0.00112312,-0.00491148,0.211917,0.00370586,0.0281845,1854,827,-0.0422208,0.00221056
637,197,-0.0251465,-0.0765381,0.000788225,-0.00452976,0.00166638,0.00126723,-0.00500877,0.279908,0.00383208,0.0249796,1861,827,-0.0251355,0.0765325
644,197,0.0251465,-0.163879,0.000593656,-0.0041401,0.00191553,0.00127167,-0.00481811,0.340195,0.00370935,0.0285675,1868,827,0.0251628,0.163893
651,197,0.339233,-0.139709,0.000366697,-0.00357239,0.00196189,0.0011771,-0.00438279,0.391726,0.00338319,0.0397772,1875,827,0.339203,0.139727
658,197,0.44812,0.381042,0.000229632,-0.00296434,0.0018688,0.00109086,-0.00382556,0.431834,0.00298128,0.0444444,1882,827,0.448171,-0.381041
665,197,0.560425,0.887817,0,0,0,0,0,0,0,-1,1889,827,0.560402,-0.887824
672,197,-0.0352783,0.0452271,-0.000109589,-0.00181273,0.00136758,0.000649884,-0.0025722,0.506933,0.00196754,0.024391,1896,827,-0.0352792,-0.0452359
679,197,-0.0325928,-0.0709839,-0.000350873,-0.00105651,0.00111232,0.000463245,-0.00187063,0.631821,0.00142679,0.0109176,1903,827,-0.0326118,0.0709628
686,197,-0.041626,-0.0945435,-0.000544307,-0.000588952,0.000889349,0.000323,-0.00145626,0.772851,0.00109451,0.00899871,1910,827,-0.0416319,0.0945478
693,197,-0.0405273,-0.0780029,-0.000796745,-6.06533e-05,0.000735359,0.000393621,-0.00125102,1.01742,0.000991613,0.0139254,1917,827,-0.0405858,0.0779841
700,197,-0.0406494,-0.0668335,-0.00107816,-1.42481e-05,0.000703441,0.000335728,-0.00142814,1.10913,0.00108151,0.0197699,1924,827,-0.0406858,0.0668199
707,197,-0.0131836,-0.0715942,-0.00161178,0.000144511,0.000475528,0.000264998,-0.00173227,1.32264,0.00125256,0.0084871,1931,827,-0.0131367,0.0715777
714,197,-0.03479,-0.0797729,-0.00219513,0.00116023,0.000588829,0.00126057,-0.00229547,1.40202,0.00208186,0.0108237,1938,827,-0.0348508,0.0797744
721,197,-0.0393066,-0.0839844,-0.00282983,0.00205869,0.00207768,0.00282241,-0.00359355,1.21854,0.00371317,0.0113898,1945,827,-0.0393372,0.0839582
728,197,-0.0345459,-0.0852051,-0.00388079,0.00296915,0.00372822,0.00460679,-0.00551843,1.15691,0.00585369,0.0100878,1952,827,-0.0345737,0.0851771
735,197,-0.0389404,-0.0759888,-0.00520091,0.00449773,0.00574148,0.00716377,-0.00786694,1.13608,0.00868115,0.0105948,1959,827,-0.0389454,0.0759807
742,197,0.0012207,-0.072937,-0.00670766,0.00703887,0.00854324,0.0111305,-0.0107993,1.12415,0.0126616,0.0184383,1966,827,0.0012031,0.0729561
749,197,0.0606689,-0.020752,-0.00841897,0.0098382,0.0125614,0.0162377,-0.0148184,1.09961,0.0179365,0.039734,1973,827,0.0606167,0.0207392
756,197,0.101929,0.0407715,0,0,0,0,0,0,0,-1,1980,827,0.101952,-0.0407585
763,197,-0.886353,0.251343,-0.0123509,0.017756,0.0255663,0.0323714,-0.0269663,1.05147,0.034306,0.0447534,1987,827,-0.886398,-0.251339
770,197,-1.33911,0.0453491,-0.0144677,0.0231776,0.0354802,0.0445188,-0.0358089,1.02928,0.046468,0.0454019,1994,827,-1.3391,-0.0453267
777,197,0,0,0,0,0,0,0,0,0,-1,2001,827,0,0
784,197,0,0,0,0,0,0,0,0,0,-1,2008,827,0,0
791,197,0,0,0,0,0,0,0,0,0,-1,2015,827,0,0
798,197,0,0,0,0,0,0,0,0,0,-1,2022,827,0,0
805,197,0,0,0,0,0,0,0,0,0,-1,2029,827,0,0
812,197,0,0,0,0,0,0,0,0,0,-1,2036,827,0,0
-700,190,0,0,0,0,0,0,0,0,0,-1,524,834,0,0
-693,190,0,0,0,0,0,0,0,0,0,-1,531,834,0,0
-686,190,0,0,0,0,0,0,0,0,0,-1,538,834,0,0
-679,190,0,0,0,0,0,0,0,0,0,-1,545,834,0,0
-672,190,0,0,0,0,0,0,0,0,0,-1,552,834,0,0
-665,190,0,0,0,0,0,0,0,0,0,-1,559,834,0,0
-658,190,0.73584,-0.211731,0,0,0,0,0,0,0,-1,566,834,0.735823,0.21174
-651,190,-0.217285,-0.219177,0.00248521,-0.0272561,0.0332235,0.0240142,-0.0487851,0.574972,0.0428341,0.0427887,573,834,-0.217274,0.219194
-644,190,-0.0122681,-2.08734,0.00206255,-0.0231209,0.0282063,0.0203601,-0.0414184,0.575464,0.036352,0.0474636,580,834,-0.0122741,2.08733
-637,190,-0.439209,-1.56354,0,0,0,0,0,0,0,-1,587,834,-0.439224,1.56353
-630,190,-0.106995,-0.237793,0.00103815,-0.0151934,0.0194706,0.0140167,-0.028172,0.587936,0.0248105,0.0455132,594,834,-0.106994,0.237781
-623,190,0.00537109,-0.496887,0.000576676,-0.0117762,0.0157976,0.0113623,-0.0225619,0.599048,0.0199387,0.0438824,601,834,0.00534568,0.496912
-616,190,0.0627441,-0.301575,0.000208264,-0.00883529,0.0125717,0.00904661,-0.0176736,0.612762,0.0156927,0.0419671,608,834,0.0627401,0.301596
-609,190,-0.0179443,-0.132202,-0.000152117,-0.00642684,0.00955117,0.00676377,-0.0133427,0.62671,0.0118138,0.0224272,615,834,-0.0179696,0.132199
-602,190,-0.0244141,-0.0874634,-0.000394845,-0.00472334,0.00690755,0.00467956,-0.00979775,0.633584,0.00853082,0.0141283,622,834,-0.0244133,0.0874893
-595,190,-0.0315552,-0.0693359,-0.000540305,-0.00231557,0.00527806,0.00392424,-0.00678012,0.702091,0.00625305,0.0172813,629,834,-0.0315471,0.0693491
-588,190,-0.024353,-0.0686035,-0.000605051,-0.000782061,0.0036818,0.0029893,-0.00437642,0.773381,0.00427766,0.0137862,636,834,-0.0243682,0.068595
-581,190,-0.0239258,-0.0584106,-0.00049861,-0.000878013,0.00212255,0.0014427,-0.00281933,0.740829,0.0025031,0.00976369,643,834,-0.0239114,0.0583837
-574,190,-0.0246582,-0.0581055,0.000178284,-0.000375137,0.0014501,0.00137784,-0.00157469,0.691121,0.00170591,0.00969561,650,834,-0.0246317,0.0580799
-567,190,-0.0314331,-0.0650635,0.00105141,0.000561999,0.00134595,0.00217472,-0.000561305,0.695475,0.00166868,0.0109696,657,834,-0.0314282,0.0650863
-560,190,-0.0436401,-0.072998,0.00176278,0.00138347,0.0011628,0.0027513,0.000394958,0.704558,0.00171775,0.0106585,664,834,-0.0436565,0.0729774
-553,190,-0.0410156,-0.0479736,0.00219516,0.00228824,0.00124307,0.00348564,0.000997761,0.804108,0.00207283,0.009541,671,834,-0.0409957,0.047957
-546,190,-0.0252075,-0.0304565,0.00255397,0.00274943,0.00168609,0.00434062,0.000962782,0.814348,0.00263218,0.0201313,678,834,-0.0252223,0.030458
-539,190,-0.130249,-0.155823,0.00318915,0.00348552,0.00208869,0.00543127,0.0012434,0.820812,0.00328576,0.0367473,685,834,-0.130276,0.15581
-532,190,-0.26532,-0.29071,0.00353022,0.00431327,0.00245659,0.00640933,0.00143415,0.864422,0.00388412,0.0447562,692,834,-0.265306,0.290699
-525,190,-0.28418,-0.388184,0.00363179,0.00516008,0.00281863,0.00731631,0.00147556,0.917769,0.00446766,0.0460874,699,834,-0.284189,0.388188
-518,190,-0.148926,-0.234985,0.0033287,0.00590389,0.00302948,0.00790805,0.00132454,0.986342,0.00489068,0.047142,706,834,-0.148907,0.235015
-511,190,-0.0755005,-0.192139,0.00256833,0.00629808,0.00300578,0.0079705,0.000895905,1.06305,0.00504164,0.0390777,713,834,-0.0754827,0.192159
-504,190,-0.0658569,-0.0570068,0.00131362,0.00621087,0.00266275,0.0073797,0.00014479,1.15716,0.00487226,0.037587,720,834,-0.0658717,0.0569795
-497,190,-0.242554,0.141235,-0.000420673,0.00538597,0.00190132,0.00595314,-0.000987842,1.2809,0.00433572,0.039247,727,834,-0.24256,-0.141249
-490,190,-0.132385,0.171814,-0.00268569,0.00351001,0.000556642,0.00355962,-0.0027353,1.4819,0.00364475,0.0370039,734,834,-0.132416,-0.171793
-483,190,0,0,0,0,0,0,0,0,0,-1,741,834,0,0
-476,190,0,0,0,0,0,0,0,0,0,-1,748,834,0,0
-469,190,0,0,0,0,0,0,0,0,0,-1,755,834,0,0
-462,190,0,0,0,0,0,0,0,0,0,-1,762,834,0,0
-455,190,0,0,0,0,0,0,0,0,0,-1,769,834,0,0
-448,190,0,0,0,0,0,0,0,0,0,-1,776,834,0,0
-441,190,0,0,0,0,0,0,0,0,0,-1,783,834,0,0
-434,190,0,0,0,0,0,0,0,0,0,-1,790,834,0,0
-427,190,0,0,0,0,0,0,0,0,0,-1,797,834,0,0
-420,190,0,0,0,0,0,0,0,0,0,-1,804,834,0,0
-413,190,0,0,0,0,0,0,0,0,0,-1,811,834,0,0
-406,190,0,0,0,0,0,0,0,0,0,-1,818,834,0,0
-399,190,0,0,0,0,0,0,0,0,0,-1,825,834,0,0
-392,190,0,0,0,0,0,0,0,0,0,-1,832,834,0,0
-385,190,0,0,0,0,0,0,0,0,0,-1,839,834,0,0
-378,190,0,0,0,0,0,0,0,0,0,-1,846,834,0,0
-371,190,0,0,0,0,0,0,0,0,0,-1,853,834,0,0
-364,190,0,0,0,0,0,0,0,0,0,-1,860,834,0,0
-357,190,0,0,0,0,0,0,0,0,0,-1,867,834,0,0
-350,190,0,0,0,0,0,0,0,0,0,-1,874,834,0,0
-343,190,0,0,0,0,0,0,0,0,0,-1,881,834,0,0
-336,190,0,0,0,0,0,0,0,0,0,-1,888,834,0,0
-329,190,0,0,0,0,0,0,0,0,0,-1,895,834,0,0
-322,190,0,0,0,0,0,0,0,0,0,-1,902,834,0,0
-315,190,0,0,0,0,0,0,0,0,0,-1,909,834,0,0
-308,190,0,0,0,0,0,0,0,0,0,-1,916,834,0,0
-301,190,0,0,0,0,0,0,0,0,0,-1,923,834,0,0
-294,190,0,0,0,0,0,0,0,0,0,-1,930,834,0,0
-287,190,0,0,0,0,0,0,0,0,0,-1,937,834,0,0
-280,190,0,0,0,0,0,0,0,0,0,-1,944,834,0,0
-273,190,0,0,0,0,0,0,0,0,0,-1,951,834,0,0
-266,190,0,0,0,0,0,0,0,0,0,-1,958,834,0,0
-259,190,0,0,0,0,0,0,0,0,0,-1,965,834,0,0
-252,190,0,0,0,0,0,0,0,0,0,-1,972,834,0,0
-245,190,0,0,0,0,0,0,0,0,0,-1,979,834,0,0
-238,190,0,0,0,0,0,0,0,0,0,-1,986,834,0,0
-231,190,0,0,0,0,0,0,0,0,0,-1,993,834,0,0
-224,190,0,0,0,0,0,0,0,0,0,-1,1000,834,0,0
-217,190,0,0,0,0,0,0,0,0,0,-1,1007,834,0,0
-210,190,0,0,0,0,0,0,0,0,0,-1,1014,834,0,0
-203,190,0,0,0,0,0,0,0,0,0,-1,1021,834,0,0
-196,190,0,0,0,0,0,0,0,0,0,-1,1028,834,0,0
-189,190,0,0,0,0,0,0,0,0,0,-1,1035,834,0,0
-182,190,0,0,0,0,0,0,0,0,0,-1,1042,834,0,0
-175,190,0,0,0,0,0,0,0,0,0,-1,1049,834,0,0
-168,190,0,0,0,0,0,0,0,0,0,-1,1056,834,0,0
-161,190,0,0,0,0,0,0,0,0,0,-1,1063,834,0,0
-154,190,0,0,0,0,0,0,0,0,0,-1,1070,834,0,0
-147,190,0,0,0,0,0,0,0,0,0,-1,1077,834,0,0
-140,190,0,0,0,0,0,0,0,0,0,-1,1084,834,0,0
-133,190,0,0,0,0,0,0,0,0,0,-1,1091,834,0,0
-126,190,0,0,0,0,0,0,0,0,0,-1,1098,834,0,0
-119,190,0,0,0,0,0,0,0,0,0,-1,1105,834,0,0
-112,190,0,0,0,0,0,0,0,0,0,-1,1112,834,0,0
-105,190,0,0,0,0,0,0,0,0,0,-1,1119,834,0,0
-98,190,0,0,0,0,0,0,0,0,0,-1,1126,834,0,0
-91,190,0,0,0,0,0,0,0,0,0,-1,1133,834,0,0
-84,190,0,0,0,0,0,0,0,0,0,-1,1140,834,0,0
-77,190,0,0,0,0,0,0,0,0,0,-1,1147,834,0,0
-70,190,0,0,0,0,0,0,0,0,0,-1,1154,834,0,0
-63,190,0,0,0,0,0,0,0,0,0,-1,1161,834,0,0
-56,190,0,0,0,0,0,0,0,0,0,-1,1168,834,0,0
-49,190,0,0,0,0,0,0,0,0,0,-1,1175,834,0,0
-42,190,0,0,0,0,0,0,0,0,0,-1,1182,834,0,0
-35,190,0,0,0,0,0,0,0,0,0,-1,1189,834,0,0
-28,190,0,0,0,0,0,0,0,0,0,-1,1196,834,0,0
-21,190,0,0,0,0,0,0,0,0,0,-1,1203,834,0,0
-14,190,0,0,0,0,0,0,0,0,0,-1,1210,834,0,0
-7,190,0,0,0,0,0,0,0,0,0,-1,1217,834,0,0
0,190,0,0,0,0,0,0,0,0,0,-1,1224,834,0,0
7,190,0,0,0,0,0,0,0,0,0,-1,1231,834,0,0
14,190,0,0,0,0,0,0,0,0,0,-1,1238,834,0,0
21,190,0,0,0,0,0,0,0,0,0,-1,1245,834,0,0
28,190,0,0,0,0,0,0,0,0,0,-1,1252,834,0,0
35,190,0,0,0,0,0,0,0,0,0,-1,1259,834,0,0
42,190,0,0,0,0,0,0,0,0,0,-1,1266,834,0,0
49,190,0,0,0,0,0,0,0,0,0,-1,1273,834,0,0
56,190,0,0,0,0,0,0,0,0,0,-1,1280,834,0,0
63,190,0,0,0,0,0,0,0,0,0,-1,1287,834,0,0
70,190,0,0,0,0,0,0,0,0,0,-1,1294,834,0,0
77,190,0,0,0,0,0,0,0,0,0,-1,1301,834,0,0
84,190,0,0,0,0,0,0,0,0,0,-1,1308,834,0,0
91,190,0,0,0,0,0,0,0,0,0,-1,1315,834,0,0
98,190,0,0,0,0,0,0,0,0,0,-1,1322,834,0,0
105,190,0,0,0,0,0,0,0,0,0,-1,1329,834,0,0
112,190,0,0,0,0,0,0,0,0,0,-1,1336,834,0,0
119,190,0,0,0,0,0,0,0,0,0,-1,1343,834,0,0
126,190,0,0,0,0,0,0,0,0,0,-1,1350,834,0,0
133,190,0,0,0,0,0,0,0,0,0,-1,1357,834,0,0
140,190,0,0,0,0,0,0,0,0,0,-1,1364,834,0,0
147,190,0,0,0,0,0,0,0,0,0,-1,1371,834,0,0
154,190,0,0,0,0,0,0,0,0,0,-1,1378,834,0,0
161,190,0,0,0,0,0,0,0,0,0,-1,1385,834,0,0
168,190,0,0,0,0,0,0,0,0,0,-1,1392,834,0,0
175,190,0,0,0,0,0,0,0,0,0,-1,1399,834,0,0
182,190,0,0,0,0,0,0,0,0,0,-1,1406,834,0,0
189,190,0,0,0,0,0,0,0,0,0,-1,1413,834,0,0
196,190,0,0,0,0,0,0,0,0,0,-1,1420,834,0,0
203,190,0,0,0,0,0,0,0,0,0,-1,1427,834,0,0
210,190,0,0,0,0,0,0,0,0,0,-1,1434,834,0,0
217,190,0,0,0,0,0,0,0,0,0,-1,1441,834,0,0
224,190,0,0,0,0,0,0,0,0,0,-1,1448,834,0,0
231,190,0,0,0,0,0,0,0,0,0,-1,1455,834,0,0
238,190,0,0,0,0,0,0,0,0,0,-1,1462,834,0,0
245,190,0,0,0,0,0,0,0,0,0,-1,1469,834,0,0
252,190,0,0,0,0,0,0,0,0,0,-1,1476,834,0,0
259,190,0,0,0,0,0,0,0,0,0,-1,1483,834,0,0
266,190,0,0,0,0,0,0,0,0,0,-1,1490,834,0,0
273,190,0,0,0,0,0,0,0,0,0,-1,1497,834,0,0
280,190,0,0,0,0,0,0,0,0,0,-1,1504,834,0,0
287,190,0,0,0,0,0,0,0,0,0,-1,1511,834,0,0
294,190,0,0,0,0,0,0,0,0,0,-1,1518,834,0,0
301,190,0,0,0,0,0,0,0,0,0,-1,1525,834,0,0
308,190,0,0,0,0,0,0,0,0,0,-1,1532,834,0,0
315,190,0,0,0,0,0,0,0,0,0,-1,1539,834,0,0
322,190,0,0,0,0,0,0,0,0,0,-1,1546,834,0,0
329,190,0,0,0,0,0,0,0,0,0,-1,1553,834,0,0
336,190,0,0,0,0,0,0,0,0,0,-1,1560,834,0,0
343,190,0,0,0,0,0,0,0,0,0,-1,1567,834,0,0
350,190,0,0,0,0,0,0,0,0,0,-1,1574,834,0,0
357,190,0,0,0,0,0,0,0,0,0,-1,1581,834,0,0
364,190,0,0,0,0,0,0,0,0,0,-1,1588,834,0,0
371,190,0,0,0,0,0,0,0,0,0,-1,1595,834,0,0
378,190,0,0,0,0,0,0,0,0,0,-1,1602,834,0,0
385,190,0,0,0,0,0,0,0,0,0,-1,1609,834,0,0
392,190,0,0,0,0,0,0,0,0,0,-1,1616,834,0,0
399,190,0,0,0,0,0,0,0,0,0,-1,1623,834,0,0
406,190,0,0,0,0,0,0,0,0,0,-1,1630,834,0,0
413,190,0,0,0,0,0,0,0,0,0,-1,1637,834,0,0
420,190,0,0,0,0,0,0,0,0,0,-1,1644,834,0,0
427,190,0,0,0,0,0,0,0,0,0,-1,1651,834,0,0
434,190,0,0,0,0,0,0,0,0,0,-1,1658,834,0,0
441,190,0,0,0,0,0,0,0,0,0,-1,1665,834,0,0
448,190,0,0,0,0,0,0,0,0,0,-1,1672,834,0,0
455,190,0,0,0,0,0,0,0,0,0,-1,1679,834,0,0
462,190,0,0,0,0,0,0,0,0,0,-1,1686,834,0,0
469,190,0,0,0,0,0,0,0,0,0,-1,1693,834,0,0
476,190,0,0,0,0,0,0,0,0,0,-1,1700,834,0,0
483,190,0,0,0,0,0,0,0,0,0,-1,1707,834,0,0
490,190,0,0,0,0,0,0,0,0,0,-1,1714,834,0,0
497,190,0,0,0,0,0,0,0,0,0,-1,1721,834,0,0
504,190,0,0,0,0,0,0,0,0,0,-1,1728,834,0,0
511,190,0,0,0,0,0,0,0,0,0,-1,1735,834,0,0
518,190,0,0,0,0,0,0,0,0,0,-1,1742,834,0,0
525,190,0,0,0,0,0,0,0,0,0,-1,1749,834,0,0
532,190,0,0,0,0,0,0,0,0,0,-1,1756,834,0,0
539,190,0,0,0,0,0,0,0,0,0,-1,1763,834,0,0
546,190,0,0,0,0,0,0,0,0,0,-1,1770,834,0,0
553,190,0,0,0,0,0,0,0,0,0,-1,1777,834,0,0
560,190,0,0,0,0,0,0,0,0,0,-1,1784,834,0,0
567,190,0,0,0,0,0,0,0,0,0,-1,1791,834,0,0
574,190,0,0,0,0,0,0,0,0,0,-1,1798,834,0,0
581,190,0,0,0,0,0,0,0,0,0,-1,1805,834,0,0
588,190,0,0,0,0,0,0,0,0,0,-1,1812,834,0,0
595,190,0,0,0,0,0,0,0,0,0,-1,1819,834,0,0
602,190,0.067749,-0.0634155,-0.00426503,0.00289387,-0.00154243,0.00321205,-0.00458322,-1.36736,0.00452375,0.0370298,1826,834,0.0677799,0.0634363
609,190,-0.0118408,-0.0324097,-0.00186182,-6.12151e-05,-0.00135964,0.000669177,-0.00259221,-1.07784,0.00198908,0.0354636,1833,834,-0.011849,0.0323851
616,190,0.0136719,-0.121948,-0.000364567,-0.00195874,-0.000534438,-0.000201981,-0.00212132,-0.295323,0.00135193,0.0351352,1840,834,0.0136138,0.121965
623,190,0.0344238,0.0670166,0.000384295,-0.00305848,0.000228411,0.000399383,-0.00307357,0.0659598,0.00219432,0.0356251,1847,834,0.0344797,-0.0669887
630,190,-0.029541,0.0869141,0.000765089,-0.00352811,0.00076661,0.000897871,-0.0036609,0.171505,0.0027885,0.0370604,1854,834,-0.0295056,-0.0868887
637,190,-0.0252686,-0.0521851,0.00087682,-0.00354235,0.001152,0.0011591,-0.00382462,0.240298,0.00301141,0.0300975,1861,834,-0.025247,0.0521988
644,190,0.00744629,-0.0996094,0.000803513,-0.00327598,0.00140088,0.00123824,-0.00371071,0.300904,0.00297377,0.0234451,1868,834,0.00738661,0.0996336
651,190,0.0402832,-0.0708008,0.000644521,-0.00282771,0.00147831,0.00118865,-0.00337184,0.352683,0.00273171,0.0341201,1875,834,0.0402428,0.0707907
658,190,0.0760498,0.271545,0.000526761,-0.00233865,0.0014395,0.00112501,-0.0029369,0.393881,0.00242167,0.0406201,1882,834,0.0760506,-0.271546
665,190,0.0916748,0.313721,0.000354158,-0.00185676,0.00127596,0.000936926,-0.00243953,0.428436,0.00201271,0.0398541,1889,834,0.0917158,-0.313706
672,190,-0.0645752,0.10614,0.000138982,-0.00140213,0.00106105,0.000679751,-0.0019429,0.471343,0.00157164,0.0306387,1896,834,-0.0645149,-0.106166
679,190,-0.0252686,-0.0384521,-0.000112554,-0.000801717,0.000876726,0.000484876,-0.00139915,0.598156,0.00112963,0.0153016,1903,834,-0.0252141,0.0384224
686,190,-0.0422363,-0.0718384,-0.000338286,-0.000366368,0.000736061,0.000383868,-0.00108852,0.775861,0.000881938,0.00907957,1910,834,-0.0422419,0.0718676
693,190,-0.0533447,-0.0601196,-0.000583582,0.00012481,0.000604794,0.000471492,-0.000930265,1.0503,0.000823626,0.0117097,1917,834,-0.0533827,0.0600994
700,190,-0.0357666,-0.0466919,-0.000896402,0.000246231,0.000567701,0.000480325,-0.0011305,1.17968,0.000954927,0.011114,1924,834,-0.0357847,0.0466989
707,190,-0.0257568,-0.0649414,-0.00143871,0.000492744,0.000291195,0.000535691,-0.00148166,1.42437,0.00120665,0.0124949,1931,834,-0.025813,0.0649471
714,190,-0.0268555,-0.0872803,-0.00194794,0.00170514,0.000227789,0.00171929,-0.00196208,1.50876,0.00212698,0.0110187,1938,834,-0.0269124,0.0872848
721,190,-0.0322266,-0.0874023,-0.00244615,0.00274096,0.00143632,0.00311212,-0.00281731,1.31792,0.00342477,0.0102087,1945,834,-0.0322404,0.0873885
728,190,-0.0445557,-0.0857544,-0.00337303,0.00387949,0.00282205,0.0048482,-0.00434174,1.24014,0.0053085,0.0122537,1952,834,-0.0445896,0.0857838
735,190,-0.0411377,-0.0805054,-0.00449779,0.00604894,0.00435834,0.00761688,-0.00606573,1.22546,0.00791657,0.011545,1959,834,-0.0411293,0.0805304
742,190,-0.0362549,-0.0536499,-0.00568534,0.00954349,0.00642588,0.0118926,-0.00803442,1.22032,0.0115765,0.0150022,1966,834,-0.0363036,0.0536571
749,190,-0.0629883,0.242065,-0.00707662,0.0133653,0.0095183,0.0171109,-0.0108223,1.19589,0.0162629,0.0353442,1973,834,-0.0629512,-0.242063
756,190,-0.301758,0.477905,-0.00858083,0.0183028,0.0137919,0.0241197,-0.0143978,1.17167,0.022473,0.0439003,1980,834,-0.301743,-0.477917
763,190,-0.715454,0.39325,-0.0101148,0.0246256,0.0195357,0.0333967,-0.0188859,1.14879,0.0305705,0.0444038,1987,834,-0.715402,-0.393229
770,190,-0.954224,0.416077,0,0,0,0,0,0,0,-1,1994,834,-0.954235,-0.416105
777,190,-0.189453,-0.0391846,0,0,0,0,0,0,0,-1,2001,834,-0.189463,0.0391719
784,190,0,0,0,0,0,0,0,0,0,-1,2008,834,0,0
791,190,0,0,0,0,0,0,0,0,0,-1,2015,834,0,0
798,190,0,0,0,0,0,0,0,0,0,-1,2022,834,0,0
805,190,0,0,0,0,0,0,0,0,0,-1,2029,834,0,0
812,190,0,0,0,0,0,0,0,0,0,-1,2036,834,0,0
-700,183,0,0,0,0,0,0,0,0,0,-1,524,841,0,0
-693,183,0,0,0,0,0,0,0,0,0,-1,531,841,0,0
-686,183,0,0,0,0,0,0,0,0,0,-1,538,841,0,0
-679,183,0,0,0,0,0,0,0,0,0,-1,545,841,0,0
-672,183,0,0,0,0,0,0,0,0,0,-1,552,841,0,0
-665,183,0,0,0,0,0,0,0,0,0,-1,559,841,0,0
-658,183,0.272522,-0.284668,0.0113442,-0.0321794,0.0409398,0.0359466,-0.0567818,0.541112,0.0539854,0.0455751,566,841,0.272539,0.284649
-651,183,0.169067,-0.0651245,0.0100326,-0.0278111,0.0339258,0.0299565,-0.047735,0.531014,0.045245,0.0450298,573,841,0.169084,0.0651154
-644,183,0.0507202,0.364685,0.0083631,-0.0233303,0.0277481,0.0244707,-0.0394379,0.525952,0.0372334,0.0440617,580,841,0.0507219,-0.364699
-637,183,0.96106,2.97656,0,0,0,0,0,0,0,-1,587,841,0.961035,-2.97657
-630,183,-0.164001,-0.0840454,0.00511236,-0.0152573,0.0177815,0.0154193,-0.0255642,0.525318,0.0239023,0.0447501,594,841,-0.163992,0.0840264
-623,183,-0.0422974,-0.169617,0.00372958,-0.0118709,0.0139036,0.0118715,-0.0200129,0.529764,0.0186074,0.0462216,601,841,-0.0423179,0.169595
-616,183,-0.0431519,-0.0979614,0.00258538,-0.00897238,0.0106757,0.00894596,-0.015333,0.537324,0.0141782,0.03924,608,841,-0.043182,0.0979564
-609,183,-0.0361328,-0.0940552,0.0016257,-0.00650259,0.00775815,0.00631976,-0.0111966,0.544124,0.0102429,0.0165373,615,841,-0.0361089,0.0940705
-602,183,-0.0267944,-0.0858765,0.000752038,-0.00486364,0.00519639,0.00385067,-0.00796227,0.537698,0.00695655,0.0106745,622,841,-0.0267761,0.0858742
-595,183,-0.0302124,-0.0823975,0.000101073,-0.00253835,0.00376475,0.00277072,-0.005208,0.616818,0.00467761,0.00981939,629,841,-0.0301944,0.0823955
-588,183,-0.024292,-0.0700684,-0.000193947,-0.00100427,0.00250549,0.00193893,-0.00313715,0.705237,0.00295777,0.00917576,636,841,-0.0242733,0.070097
-581,183,-0.0274048,-0.0610962,-0.000252767,-0.0010834,0.00136197,0.0007558,-0.00209197,0.637408,0.00170342,0.0101786,643,841,-0.0273838,0.0610802
-574,183,-0.0297852,-0.0646362,0.000197031,-0.000550445,0.000976909,0.000869253,-0.00122267,0.602702,0.0012135,0.0110472,650,841,-0.029802,0.0646179
-567,183,-0.0284424,-0.0698242,0.000837064,0.000322686,0.000943077,0.00155739,-0.000397642,0.652279,0.00119311,0.0109932,657,841,-0.0284519,0.0698426
-560,183,-0.0284424,-0.0817871,0.00137832,0.00104876,0.000821403,0.00205131,0.000375773,0.686409,0.00126108,0.0102803,664,841,-0.0284155,0.0818063
-553,183,-0.0388184,-0.0776367,0.00173389,0.00181528,0.000954052,0.00272951,0.000819666,0.806711,0.00161724,0.00945973,671,841,-0.0388465,0.0776114
-546,183,-0.0164795,-0.0298462,0.0020552,0.00224588,0.0013098,0.0034638,0.000837275,0.821729,0.00208687,0.0221024,678,841,-0.0165006,0.0298686
-539,183,-0.235413,-0.137146,0.00259787,0.00285691,0.00167338,0.00440578,0.001049,0.824023,0.00265745,0.0399299,685,841,-0.235401,0.13714
-532,183,-0.389893,-0.181641,0.00291958,0.00349991,0.00200036,0.00523104,0.00118845,0.857423,0.00316645,0.040948,692,841,-0.389909,0.181612
-525,183,-0.156677,-0.212646,0.00306324,0.00413757,0.00231952,0.00598131,0.00121949,0.899185,0.0036496,0.0442517,699,841,-0.15669,0.212619
-518,183,-0.0906372,-0.169067,0.00287731,0.00463221,0.00249402,0.00639863,0.00111089,0.954546,0.0039479,0.0421922,706,841,-0.0906261,0.169079
-511,183,-0.0194092,-0.00628662,0.00230342,0.00479551,0.00244612,0.00629467,0.000804264,1.02097,0.00395571,0.0373219,713,841,-0.019417,0.00628213
-504,183,0.0583496,0.285156,0.00132375,0.00440846,0.00205262,0.00543361,0.000298599,1.1076,0.00352709,0.0370375,720,841,0.0583695,-0.285144
-497,183,-0.247681,0.121277,-7.29672e-06,0.00320161,0.00120461,0.00360349,-0.000409173,1.24879,0.00254968,0.0386576,727,841,-0.247672,-0.12126
-490,183,-0.0125732,0.167542,-0.00175279,0.000812222,-0.000337265,0.000855827,-0.0017964,-1.44222,0.00156303,0.0364988,734,841,-0.0125899,-0.16753
-483,183,0,0,0,0,0,0,0,0,0,-1,741,841,0,0
-476,183,0,0,0,0,0,0,0,0,0,-1,748,841,0,0
-469,183,0,0,0,0,0,0,0,0,0,-1,755,841,0,0
-462,183,0,0,0,0,0,0,0,0,0,-1,762,841,0,0
-455,183,0,0,0,0,0,0,0,0,0,-1,769,841,0,0
-448,183,0,0,0,0,0,0,0,0,0,-1,776,841,0,0
-441,183,0,0,0,0,0,0,0,0,0,-1,783,841,0,0
-434,183,0,0,0,0,0,0,0,0,0,-1,790,841,0,0
-427,183,0,0,0,0,0,0,0,0,0,-1,797,841,0,0
-420,183,0,0,0,0,0,0,0,0,0,-1,804,841,0,0
-413,183,0,0,0,0,0,0,0,0,0,-1,811,841,0,0
-406,183,0,0,0,0,0,0,0,0,0,-1,818,841,0,0
-399,183,0,0,0,0,0,0,0,0,0,-1,825,841,0,0
-392,183,0,0,0,0,0,0,0,0,0,-1,832,841,0,0
-385,183,0,0,0,0,0,0,0,0,0,-1,839,841,0,0
-378,183,0,0,0,0,0,0,0,0,0,-1,846,841,0,0
-371,183,0,0,0,0,0,0,0,0,0,-1,853,841,0,0
-364,183,0,0,0,0,0,0,0,0,0,-1,860,841,0,0
-357,183,0,0,0,0,0,0,0,0,0,-1,867,841,0,0
-350,183,0,0,0,0,0,0,0,0,0,-1,874,841,0,0
-343,183,0,0,0,0,0,0,0,0,0,-1,881,841,0,0
-336,183,0,0,0,0,0,0,0,0,0,-1,888,841,0,0
-329,183,0,0,0,0,0,0,0,0,0,-1,895,841,0,0
-322,183,0,0,0,0,0,0,0,0,0,-1,902,841,0,0
-315,183,0,0,0,0,0,0,0,0,0,-1,909,841,0,0
-308,183,0,0,0,0,0,0,0,0,0,-1,916,841,0,0
-301,183,0,0,0,0,0,0,0,0,0,-1,923,841,0,0
-294,183,0,0,0,0,0,0,0,0,0,-1,930,841,0,0
-287,183,0,0,0,0,0,0,0,0,0,-1,937,841,0,0
-280,183,0,0,0,0,0,0,0,0,0,-1,944,841,0,0
-273,183,0,0,0,0,0,0,0,0,0,-1,951,841,0,0
-266,183,0,0,0,0,0,0,0,0,0,-1,958,841,0,0
-259,183,0,0,0,0,0,0,0,0,0,-1,965,841,0,0
-252,183,0,0,0,0,0,0,0,0,0,-1,972,841,0,0
-245,183,0,0,0,0,0,0,0,0,0,-1,979,841,0,0
-238,183,0,0,0,0,0,0,0,0,0,-1,986,841,0,0
-231,183,0,0,0,0,0,0,0,0,0,-1,993,841,0,0
-224,183,0,0,0,0,0,0,0,0,0,-1,1000,841,0,0
-217,183,0,0,0,0,0,0,0,0,0,-1,1007,841,0,0
-210,183,0,0,0,0,0,0,0,0,0,-1,1014,841,0,0
-203,183,0,0,0,0,0,0,0,0,0,-1,1021,841,0,0
-196,183,0,0,0,0,0,0,0,0,0,-1,1028,841,0,0
-189,183,0,0,0,0,0,0,0,0,0,-1,1035,841,0,0
-182,183,0,0,0,0,0,0,0,0,0,-1,1042,841,0,0
-175,183,0,0,0,0,0,0,0,0,0,-1,1049,841,0,0
-168,183,0,0,0,0,0,0,0,0,0,-1,1056,841,0,0
-161,183,0,0,0,0,0,0,0,0,0,-1,1063,841,0,0
-154,183,0,0,0,0,0,0,0,0,0,-1,1070,841,0,0
-147,183,0,0,0,0,0,0,0,0,0,-1,1077,841,0,0
-140,183,0,0,0,0,0,0,0,0,0,-1,1084,841,0,0
-133,183,0,0,0,0,0,0,0,0,0,-1,1091,841,0,0
-126,183,0,0,0,0,0,0,0,0,0,-1,1098,841,0,0
-119,183,0,0,0,0,0,0,0,0,0,-1,1105,841,0,0
-112,183,0,0,0,0,0,0,0,0,0,-1,1112,841,0,0
-105,183,0,0,0,0,0,0,0,0,0,-1,1119,841,0,0
-98,183,0,0,0,0,0,0,0,0,0,-1,1126,841,0,0
-91,183,0,0,0,0,0,0,0,0,0,-1,1133,841,0,0
-84,183,0,0,0,0,0,0,0,0,0,-1,1140,841,0,0
-77,183,0,0,0,0,0,0,0,0,0,-1,1147,841,0,0
-70,183,0,0,0,0,0,0,0,0,0,-1,1154,841,0,0
-63,183,0,0,0,0,0,0,0,0,0,-1,1161,841,0,0
-56,183,0,0,0,0,0,0,0,0,0,-1,1168,841,0,0
-49,183,0,0,0,0,0,0,0,0,0,-1,1175,841,0,0
-42,183,0,0,0,0,0,0,0,0,0,-1,1182,841,0,0
-35,183,0,0,0,0,0,0,0,0,0,-1,1189,841,0,0
-28,183,0,0,0,0,0,0,0,0,0,-1,1196,841,0,0
-21,183,0,0,0,0,0,0,0,0,0,-1,1203,841,0,0
-14,183,0,0,0,0,0,0,0,0,0,-1,1210,841,0,0
-7,183,0,0,0,0,0,0,0,0,0,-1,1217,841,0,0
0,183,0,0,0,0,0,0,0,0,0,-1,1224,841,0,0
7,183,0,0,0,0,0,0,0,0,0,-1,1231,841,0,0
14,183,0,0,0,0,0,0,0,0,0,-1,1238,841,0,0
21,183,0,0,0,0,0,0,0,0,0,-1,1245,841,0,0
28,183,0,0,0,0,0,0,0,0,0,-1,1252,841,0,0
35,183,0,0,0,0,0,0,0,0,0,-1,1259,841,0,0
42,183,0,0,0,0,0,0,0,0,0,-1,1266,841,0,0
49,183,0,0,0,0,0,0,0,0,0,-1,1273,841,0,0
56,183,0,0,0,0,0,0,0,0,0,-1,1280,841,0,0
63,183,0,0,0,0,0,0,0,0,0,-1,1287,841,0,0
70,183,0,0,0,0,0,0,0,0,0,-1,1294,841,0,0
77,183,0,0,0,0,0,0,0,0,0,-1,1301,841,0,0
84,183,0,0,0,0,0,0,0,0,0,-1,1308,841,0,0
91,183,0,0,0,0,0,0,0,0,0,-1,1315,841,0,0
98,183,0,0,0,0,0,0,0,0,0,-1,1322,841,0,0
105,183,0,0,0,0,0,0,0,0,0,-1,1329,841,0,0
112,183,0,0,0,0,0,0,0,0,0,-1,1336,841,0,0
119,183,0,0,0,0,0,0,0,0,0,-1,1343,841,0,0
126,183,0,0,0,0,0,0,0,0,0,-1,1350,841,0,0
133,183,0,0,0,0,0,0,0,0,0,-1,1357,841,0,0
140,183,0,0,0,0,0,0,0,0,0,-1,1364,841,0,0
147,183,0,0,0,0,0,0,0,0,0,-1,1371,841,0,0
154,183,0,0,0,0,0,0,0,0,0,-1,1378,841,0,0
161,183,0,0,0,0,0,0,0,0,0,-1,1385,841,0,0
168,183,0,0,0,0,0,0,0,0,0,-1,1392,841,0,0
175,183,0,0,0,0,0,0,0,0,0,-1,1399,841,0,0
182,183,0,0,0,0,0,0,0,0,0,-1,1406,841,0,0
189,183,0,0,0,0,0,0,0,0,0,-1,1413,841,0,0
196,183,0,0,0,0,0,0,0,0,0,-1,1420,841,0,0
203,183,0,0,0,0,0,0,0,0,0,-1,1427,841,0,0
210,183,0,0,0,0,0,0,0,0,0,-1,1434,841,0,0
217,183,0,0,0,0,0,0,0,0,0,-1,1441,841,0,0
224,183,0,0,0,0,0,0,0,0,0,-1,1448,841,0,0
231,183,0,0,0,0,0,0,0,0,0,-1,1455,841,0,0
238,183,0,0,0,0,0,0,0,0,0,-1,1462,841,0,0
245,183,0,0,0,0,0,0,0,0,0,-1,1469,841,0,0
252,183,0,0,0,0,0,0,0,0,0,-1,1476,841,0,0
259,183,0,0,0,0,0,0,0,0,0,-1,1483,841,0,0
266,183,0,0,0,0,0,0,0,0,0,-1,1490,841,0,0
273,183,0,0,0,0,0,0,0,0,0,-1,1497,841,0,0
280,183,0,0,0,0,0,0,0,0,0,-1,1504,841,0,0
287,183,0,0,0,0,0,0,0,0,0,-1,1511,841,0,0
294,183,0,0,0,0,0,0,0,0,0,-1,1518,841,0,0
301,183,0,0,0,0,0,0,0,0,0,-1,1525,841,0,0
308,183,0,0,0,0,0,0,0,0,0,-1,1532,841,0,0
315,183,0,0,0,0,0,0,0,0,0,-1,1539,841,0,0
322,183,0,0,0,0,0,0,0,0,0,-1,1546,841,0,0
329,183,0,0,0,0,0,0,0,0,0,-1,1553,841,0,0
336,183,0,0,0,0,0,0,0,0,0,-1,1560,841,0,0
343,183,0,0,0,0,0,0,0,0,0,-1,1567,841,0,0
350,183,0,0,0,0,0,0,0,0,0,-1,1574,841,0,0
357,183,0,0,0,0,0,0,0,0,0,-1,1581,841,0,0
364,183,0,0,0,0,0,0,0,0,0,-1,1588,841,0,0
371,183,0,0,0,0,0,0,0,0,0,-1,1595,841,0,0
378,183,0,0,0,0,0,0,0,0,0,-1,1602,841,0,0
385,183,0,0,0,0,0,0,0,0,0,-1,1609,841,0,0
392,183,0,0,0,0,0,0,0,0,0,-1,1616,841,0,0
399,183,0,0,0,0,0,0,0,0,0,-1,1623,841,0,0
406,183,0,0,0,0,0,0,0,0,0,-1,1630,841,0,0
413,183,0,0,0,0,0,0,0,0,0,-1,1637,841,0,0
420,183,0,0,0,0,0,0,0,0,0,-1,1644,841,0,0
427,183,0,0,0,0,0,0,0,0,0,-1,1651,841,0,0
434,183,0,0,0,0,0,0,0,0,0,-1,1658,841,0,0
441,183,0,0,0,0,0,0,0,0,0,-1,1665,841,0,0
448,183,0,0,0,0,0,0,0,0,0,-1,1672,841,0,0
455,183,0,0,0,0,0,0,0,0,0,-1,1679,841,0,0
462,183,0,0,0,0,0,0,0,0,0,-1,1686,841,0,0
469,183,0,0,0,0,0,0,0,0,0,-1,1693,841,0,0
476,183,0,0,0,0,0,0,0,0,0,-1,1700,841,0,0
483,183,0,0,0,0,0,0,0,0,0,-1,1707,841,0,0
490,183,0,0,0,0,0,0,0,0,0,-1,1714,841,0,0
497,183,0,0,0,0,0,0,0,0,0,-1,1721,841,0,0
504,183,0,0,0,0,0,0,0,0,0,-1,1728,841,0,0
511,183,0,0,0,0,0,0,0,0,0,-1,1735,841,0,0
518,183,0,0,0,0,0,0,0,0,0,-1,1742,841,0,0
525,183,0,0,0,0,0,0,0,0,0,-1,1749,841,0,0
532,183,0,0,0,0,0,0,0,0,0,-1,1756,841,0,0
539,183,0,0,0,0,0,0,0,0,0,-1,1763,841,0,0
546,183,0,0,0,0,0,0,0,0,0,-1,1770,841,0,0
553,183,0,0,0,0,0,0,0,0,0,-1,1777,841,0,0
560,183,0,0,0,0,0,0,0,0,0,-1,1784,841,0,0
567,183,0,0,0,0,0,0,0,0,0,-1,1791,841,0,0
574,183,0,0,0,0,0,0,0,0,0,-1,1798,841,0,0
581,183,0,0,0,0,0,0,0,0,0,-1,1805,841,0,0
588,183,0,0,0,0,0,0,0,0,0,-1,1812,841,0,0
595,183,0,0,0,0,0,0,0,0,0,-1,1819,841,0,0
602,183,0,0,0,0,0,0,0,0,0,-1,1826,841,0,0
609,183,0.120361,-0.0144043,-0.00297524,0.00153209,-0.0011525,0.00180968,-0.00325283,-1.33444,0.00296217,0.0352107,1833,841,0.12042,0.0144209
616,183,0.0407715,-0.0579224,-0.00103251,-0.000497754,-0.000604913,-0.000103762,-0.0014265,-0.993494,0.000918371,0.0345664,1840,841,0.0408273,0.0579238
623,183,0.017334,0.117981,6.1701e-06,-0.00171311,1.11212e-05,6.24207e-06,-0.00171318,0.00646814,0.00114421,0.0371175,1847,841,0.0173639,-0.117963
630,183,-0.0649414,0.102661,0.000593825,-0.00230219,0.000445166,0.00066071,-0.00236907,0.149131,0.0018396,0.0350814,1854,841,-0.0649055,-0.10264
637,183,-0.0579834,-0.0224609,0.000856214,-0.00244528,0.000763203,0.00102411,-0.00261318,0.216533,0.00216576,0.0295581,1861,841,-0.057989,0.0224519
644,183,-0.0227051,-0.0379028,0.000888632,-0.00231216,0.00098147,0.00116561,-0.00258915,0.275059,0.00221914,0.0243105,1868,841,-0.0226499,0.0378824
651,183,0.0157471,-0.0762939,0.00079236,-0.00199644,0.00106468,0.00115236,-0.00235644,0.326056,0.00206518,0.023105,1875,841,0.0157958,0.0763137
658,183,0.0478516,-0.0982056,0.000691994,-0.00163667,0.00105965,0.00110199,-0.00204667,0.369181,0.00184495,0.0402294,1882,841,0.0479122,0.0982047
665,183,-0.0980225,0.0569458,0.000514753,-0.00127909,0.000947007,0.000922167,-0.0016865,0.406277,0.00152751,0.039083,1889,841,-0.0980235,-0.0569241
672,183,-0.148193,0.16217,0.000298651,-0.000943845,0.000774678,0.000670416,-0.00131561,0.447436,0.00116663,0.0383975,1896,841,-0.148148,-0.162196
679,183,-0.0244141,-0.00378418,6.80647e-05,-0.000514847,0.000642669,0.000482278,-0.000929061,0.572514,0.000828335,0.0252802,1903,841,-0.0244604,0.00379119
686,183,-0.0195313,-0.0735474,-0.000161211,-0.00014408,0.000549678,0.0003971,-0.00070239,0.793189,0.000642896,0.0116105,1910,841,-0.0195805,0.0735714
693,183,-0.0213623,-0.0673828,-0.000377332,0.000276014,0.000449568,0.000505063,-0.000606381,1.09959,0.00064258,0.010452,1917,841,-0.0213932,0.0673624
700,183,-0.0275879,-0.0546265,-0.00067135,0.000416308,0.000432882,0.000567559,-0.000822601,1.23465,0.0008071,0.0139671,1924,841,-0.0275669,0.0546081
707,183,-0.0354004,-0.0592651,-0.00117411,0.000707104,0.000132663,0.000716413,-0.00118342,1.50074,0.00110786,0.0120395,1931,841,-0.0353441,0.0592909
714,183,-0.0217285,-0.0844116,-0.00157157,0.002027,-6.7131e-05,0.00202825,-0.00157282,-1.55215,0.00208461,0.015809,1938,841,-0.0217352,0.0844287
721,183,-0.0262451,-0.0844727,-0.00191304,0.00311742,0.000887833,0.00326952,-0.00206514,1.40113,0.00310602,0.014235,1945,841,-0.0261859,0.0844737
728,183,-0.0445557,-0.0619507,-0.00268512,0.0043901,0.00205714,0.00494474,-0.00323976,1.30744,0.00475938,0.0118922,1952,841,-0.0445743,0.0619578
735,183,-0.052002,-0.0675049,-0.00360534,0.00691012,0.00323602,0.00782618,-0.00452139,1.29493,0.00721348,0.0112526,1959,841,-0.05196,0.0675099
742,183,-0.0410156,-0.0578003,-0.00453159,0.0110416,0.00477061,0.0123868,-0.0058768,1.29596,0.0107655,0.0114365,1966,841,-0.0410425,0.057807
749,183,-0.0246582,0.182983,-0.00565971,0.0155322,0.00716415,0.0177268,-0.00785435,1.27354,0.0151315,0.0306942,1973,841,-0.0246819,-0.182961
756,183,-0.292114,0.473755,-0.00688579,0.0214177,0.0104789,0.024875,-0.0103431,1.25211,0.0209022,0.0416027,1980,841,-0.292135,-0.473736
763,183,-0.677856,0.472534,-0.00813868,0.029081,0.0149157,0.0343207,-0.0133784,1.23297,0.0284101,0.0452248,1987,841,-0.677854,-0.472509
770,183,-0.0595703,-0.365662,-0.00933297,0.0390884,0.020703,0.0467332,-0.0169778,1.21707,0.0380973,0.0440045,1994,841,-0.0595185,0.365679
777,183,-0.0733643,-0.00512695,-0.0103031,0.0523335,0.0281072,0.0630967,-0.0210663,1.20509,0.050571,0.0431843,2001,841,-0.0733715,0.00512337
784,183,0,0,0,0,0,0,0,0,0,-1,2008,841,0,0
791,183,0,0,0,0,0,0,0,0,0,-1,2015,841,0,0
798,183,0,0,0,0,0,0,0,0,0,-1,2022,841,0,0
805,183,0,0,0,0,0,0,0,0,0,-1,2029,841,0,0
812,183,0,0,0,0,0,0,0,0,0,-1,2036,841,0,0
-700,176,0,0,0,0,0,0,0,0,0,-1,524,848,0,0
-693,176,0,0,0,0,0,0,0,0,0,-1,531,848,0,0
-686,176,0,0,0,0,0,0,0,0,0,-1,538,848,0,0
-679,176,0,0,0,0,0,0,0,0,0,-1,545,848,0,0
-672,176,0,0,0,0,0,0,0,0,0,-1,552,848,0,0
-665,176,-0.221985,-1.13794,0.0213983,-0.0355418,0.0500243,0.0504867,-0.0646302,0.526694,0.0666298,0.0448649,559,848,-0.221959,1.13793
-658,176,-0.131714,-0.563354,0.0205159,-0.0305959,0.0400707,0.0424865,-0.0525665,0.501533,0.0549817,0.0446055,566,848,-0.131694,0.563342
-651,176,0.195435,-0.0481567,0.018303,-0.0258067,0.0320369,0.0351426,-0.0426463,0.483942,0.044981,0.0440203,573,848,0.195424,0.0481271
-644,176,0.399475,1.14197,0.0155706,-0.0213181,0.0253169,0.0284494,-0.0341969,0.470587,0.0362196,0.0435638,580,848,0.399453,-1.14196
-637,176,0.637268,2.63922,0.0127665,-0.0172688,0.019712,0.0225298,-0.0270321,0.459877,0.0286539,0.0446271,587,848,0.637254,-2.6392
-630,176,0.808533,4,0,0,0,0,0,0,0,-1,594,848,0.808553,-4
-623,176,-0.0517578,-0.142151,0.00769944,-0.0105877,0.0113428,0.0131252,-0.0160135,0.446169,0.0168507,0.0438041,601,848,-0.0517664,0.142137
-616,176,-0.0509644,-0.0949707,0.00564892,-0.00795777,0.00835073,0.00961685,-0.0119257,0.443578,0.0124614,0.0283801,608,848,-0.0509903,0.0949835
-609,176,-0.0306396,-0.0778198,0.00398776,-0.00559651,0.00569361,0.00663752,-0.00824627,0.43558,0.00860987,0.0117319,615,848,-0.0306337,0.0778188
-602,176,-0.0308228,-0.0822144,0.00234252,-0.00429649,0.00345877,0.00381699,-0.00577096,0.40297,0.00557379,0.0112959,622,848,-0.0308172,0.0821953
-595,176,-0.0407104,-0.0953369,0.00106411,-0.00223387,0.00224694,0.00220221,-0.00337197,0.468845,0.00324179,0.00953538,629,848,-0.0407142,0.0953608
-588,176,-0.0164795,-0.0794067,0.000365842,-0.000792201,0.00136048,0.00126539,-0.00169175,0.584208,0.00171321,0.00927792,636,848,-0.0165083,0.0794201
-581,176,-0.0180664,-0.05896,6.80059e-05,-0.000950122,0.000636496,0.000373972,-0.00125609,0.448092,0.00098598,0.00961167,643,848,-0.0180613,0.0589346
-574,176,-0.0219727,-0.0528564,0.000278837,-0.00050803,0.000540096,0.000553605,-0.000782798,0.470615,0.000775346,0.0122227,650,848,-0.0219829,0.052855
-567,176,-0.0269165,-0.0648804,0.000678009,0.000191085,0.000580091,0.00106366,-0.000194562,0.586713,0.000782068,0.0120239,657,848,-0.0268906,0.0648708
-560,176,-0.0388794,-0.0792236,0.00107155,0.000725311,0.000537312,0.00146294,0.000333919,0.629551,0.000885238,0.00916236,664,848,-0.0388633,0.0792052
-553,176,-0.0496826,-0.0708618,0.00130262,0.00133135,0.000725605,0.00204273,0.000591239,0.795296,0.00121373,0.0155613,671,848,-0.0496993,0.0708669
-546,176,-0.0751953,-0.0372925,0.0015996,0.00166777,0.0010395,0.00267375,0.00059362,0.801788,0.00162126,0.0287406,678,848,-0.075206,0.0372695
-539,176,-0.133789,-0.238953,0.00213837,0.0021053,0.00136565,0.00348758,0.000756086,0.779345,0.00211849,0.0341478,685,848,-0.133814,0.238955
-532,176,-0.200439,-0.241882,0.00251266,0.00256017,0.00167378,0.00421036,0.000862467,0.792494,0.00256816,0.0375849,692,848,-0.200435,0.241898
-525,176,-0.0251465,-0.0824585,0.00279091,0.00299656,0.0019783,0.00487471,0.000912764,0.811363,0.00299232,0.041952,699,848,-0.0251488,0.0824328
-518,176,-0.00872803,-0.0358276,0.00285015,0.00327969,0.00215616,0.00523175,0.000898096,0.835039,0.00323035,0.0364167,706,848,-0.00871304,0.0358296
-511,176,-0.0913696,0.0184326,0.00264552,0.0032083,0.00210111,0.00504677,0.00080704,0.851965,0.00313037,0.0349107,713,848,-0.0913745,-0.018436
-504,176,-0.0985718,0.0695801,0.0021985,0.00254738,0.00167413,0.00405613,0.000689752,0.83731,0.00250601,0.0369687,720,848,-0.0985779,-0.0695838
-497,176,-0.126038,0.0388794,0.00157863,0.000992384,0.000728137,0.00207043,0.000500584,0.594039,0.00124737,0.0374885,727,848,-0.126008,-0.0388496
-490,176,0.0838623,0.16095,0.000699673,-0.00187121,-0.00108558,0.00109674,-0.00226828,-0.350651,0.00198165,0.0343658,734,848,0.0838747,-0.16097
-483,176,0,0,0,0,0,0,0,0,0,-1,741,848,0,0
-476,176,0,0,0,0,0,0,0,0,0,-1,748,848,0,0
-469,176,0,0,0,0,0,0,0,0,0,-1,755,848,0,0
-462,176,0,0,0,0,0,0,0,0,0,-1,762,848,0,0
-455,176,0,0,0,0,0,0,0,0,0,-1,769,848,0,0
-448,176,0,0,0,0,0,0,0,0,0,-1,776,848,0,0
-441,176,0,0,0,0,0,0,0,0,0,-1,783,848,0,0
-434,176,0,0,0,0,0,0,0,0,0,-1,790,848,0,0
-427,176,0,0,0,0,0,0,0,0,0,-1,797,848,0,0
-420,176,0,0,0,0,0,0,0,0,0,-1,804,848,0,0
-413,176,0,0,0,0,0,0,0,0,0,-1,811,848,0,0
-406,176,0,0,0,0,0,0,0,0,0,-1,818,848,0,0
-399,176,0,0,0,0,0,0,0,0,0,-1,825,848,0,0
-392,176,0,0,0,0,0,0,0,0,0,-1,832,848,0,0
-385,176,0,0,0,0,0,0,0,0,0,-1,839,848,0,0
-378,176,0,0,0,0,0,0,0,0,0,-1,846,848,0,0
-371,176,0,0,0,0,0,0,0,0,0,-1,853,848,0,0
-364,176,0,0,0,0,0,0,0,0,0,-1,860,848,0,0
-357,176,0,0,0,0,0,0,0,0,0,-1,867,848,0,0
-350,176,0,0,0,0,0,0,0,0,0,-1,874,848,0,0
-343,176,0,0,0,0,0,0,0,0,0,-1,881,848,0,0
-336,176,0,0,0,0,0,0,0,0,0,-1,888,848,0,0
-329,176,0,0,0,0,0,0,0,0,0,-1,895,848,0,0
-322,176,0,0,0,0,0,0,0,0,0,-1,902,848,0,0
-315,176,0,0,0,0,0,0,0,0,0,-1,909,848,0,0
-308,176,0,0,0,0,0,0,0,0,0,-1,916,848,0,0
-301,176,0,0,0,0,0,0,0,0,0,-1,923,848,0,0
-294,176,0,0,0,0,0,0,0,0,0,-1,930,848,0,0
-287,176,0,0,0,0,0,0,0,0,0,-1,937,848,0,0
-280,176,0,0,0,0,0,0,0,0,0,-1,944,848,0,0
-273,176,0,0,0,0,0,0,0,0,0,-1,951,848,0,0
-266,176,0,0,0,0,0,0,0,0,0,-1,958,848,0,0
-259,176,0,0,0,0,0,0,0,0,0,-1,965,848,0,0
-252,176,0,0,0,0,0,0,0,0,0,-1,972,848,0,0
-245,176,0,0,0,0,0,0,0,0,0,-1,979,848,0,0
-238,176,0,0,0,0,0,0,0,0,0,-1,986,848,0,0
-231,176,0,0,0,0,0,0,0,0,0,-1,993,848,0,0
-224,176,0,0,0,0,0,0,0,0,0,-1,1000,848,0,0
-217,176,0,0,0,0,0,0,0,0,0,-1,1007,848,0,0
-210,176,0,0,0,0,0,0,0,0,0,-1,1014,848,0,0
-203,176,0,0,0,0,0,0,0,0,0,-1,1021,848,0,0
-196,176,0,0,0,0,0,0,0,0,0,-1,1028,848,0,0
-189,176,0,0,0,0,0,0,0,0,0,-1,1035,848,0,0
-182,176,0,0,0,0,0,0,0,0,0,-1,1042,848,0,0
-175,176,0,0,0,0,0,0,0,0,0,-1,1049,848,0,0
-168,176,0,0,0,0,0,0,0,0,0,-1,1056,848,0,0
-161,176,0,0,0,0,0,0,0,0,0,-1,1063,848,0,0
-154,176,0,0,0,0,0,0,0,0,0,-1,1070,848,0,0
-147,176,0,0,0,0,0,0,0,0,0,-1,1077,848,0,0
-140,176,0,0,0,0,0,0,0,0,0,-1,1084,848,0,0
-133,176,0,0,0,0,0,0,0,0,0,-1,1091,848,0,0
-126,176,0,0,0,0,0,0,0,0,0,-1,1098,848,0,0
-119,176,0,0,0,0,0,0,0,0,0,-1,1105,848,0,0
-112,176,0,0,0,0,0,0,0,0,0,-1,1112,848,0,0
-105,176,0,0,0,0,0,0,0,0,0,-1,1119,848,0,0
-98,176,0,0,0,0,0,0,0,0,0,-1,1126,848,0,0
-91,176,0,0,0,0,0,0,0,0,0,-1,1133,848,0,0
-84,176,0,0,0,0,0,0,0,0,0,-1,1140,848,0,0
-77,176,0,0,0,0,0,0,0,0,0,-1,1147,848,0,0
-70,176,0,0,0,0,0,0,0,0,0,-1,1154,848,0,0
-63,176,0,0,0,0,0,0,0,0,0,-1,1161,848,0,0
-56,176,0,0,0,0,0,0,0,0,0,-1,1168,848,0,0
-49,176,0,0,0,0,0,0,0,0,0,-1,1175,848,0,0
-42,176,0,0,0,0,0,0,0,0,0,-1,1182,848,0,0
-35,176,0,0,0,0,0,0,0,0,0,-1,1189,848,0,0
-28,176,0,0,0,0,0,0,0,0,0,-1,1196,848,0,0
-21,176,0,0,0,0,0,0,0,0,0,-1,1203,848,0,0
-14,176,0,0,0,0,0,0,0,0,0,-1,1210,848,0,0
-7,176,0,0,0,0,0,0,0,0,0,-1,1217,848,0,0
0,176,0,0,0,0,0,0,0,0,0,-1,1224,848,0,0
7,176,0,0,0,0,0,0,0,0,0,-1,1231,848,0,0
14,176,0,0,0,0,0,0,0,0,0,-1,1238,848,0,0
21,176,0,0,0,0,0,0,0,0,0,-1,1245,848,0,0
28,176,0,0,0,0,0,0,0,0,0,-1,1252,848,0,0
35,176,0,0,0,0,0,0,0,0,0,-1,1259,848,0,0
42,176,0,0,0,0,0,0,0,0,0,-1,1266,848,0,0
49,176,0,0,0,0,0,0,0,0,0,-1,1273,848,0,0
56,176,0,0,0,0,0,0,0,0,0,-1,1280,848,0,0
63,176,0,0,0,0,0,0,0,0,0,-1,1287,848,0,0
70,176,0,0,0,0,0,0,0,0,0,-1,1294,848,0,0
77,176,0,0,0,0,0,0,0,0,0,-1,1301,848,0,0
84,176,0,0,0,0,0,0,0,0,0,-1,1308,848,0,0
91,176,0,0,0,0,0,0,0,0,0,-1,1315,848,0,0
98,176,0,0,0,0,0,0,0,0,0,-1,1322,848,0,0
105,176,0,0,0,0,0,0,0,0,0,-1,1329,848,0,0
112,176,0,0,0,0,0,0,0,0,0,-1,1336,848,0,0
119,176,0,0,0,0,0,0,0,0,0,-1,1343,848,0,0
126,176,0,0,0,0,0,0,0,0,0,-1,1350,848,0,0
133,176,0,0,0,0,0,0,0,0,0,-1,1357,848,0,0
140,176,0,0,0,0,0,0,0,0,0,-1,1364,848,0,0
147,176,0,0,0,0,0,0,0,0,0,-1,1371,848,0,0
154,176,0,0,0,0,0,0,0,0,0,-1,1378,848,0,0
161,176,0,0,0,0,0,0,0,0,0,-1,1385,848,0,0
168,176,0,0,0,0,0,0,0,0,0,-1,1392,848,0,0
175,176,0,0,0,0,0,0,0,0,0,-1,1399,848,0,0
182,176,0,0,0,0,0,0,0,0,0,-1,1406,848,0,0
189,176,0,0,0,0,0,0,0,0,0,-1,1413,848,0,0
196,176,0,0,0,0,0,0,0,0,0,-1,1420,848,0,0
203,176,0,0,0,0,0,0,0,0,0,-1,1427,848,0,0
210,176,0,0,0,0,0,0,0,0,0,-1,1434,848,0,0
217,176,0,0,0,0,0,0,0,0,0,-1,1441,848,0,0
224,176,0,0,0,0,0,0,0,0,0,-1,1448,848,0,0
231,176,0,0,0,0,0,0,0,0,0,-1,1455,848,0,0
238,176,0,0,0,0,0,0,0,0,0,-1,1462,848,0,0
245,176,0,0,0,0,0,0,0,0,0,-1,1469,848,0,0
252,176,0,0,0,0,0,0,0,0,0,-1,1476,848,0,0
259,176,0,0,0,0,0,0,0,0,0,-1,1483,848,0,0
266,176,0,0,0,0,0,0,0,0,0,-1,1490,848,0,0
273,176,0,0,0,0,0,0,0,0,0,-1,1497,848,0,0
280,176,0,0,0,0,0,0,0,0,0,-1,1504,848,0,0
287,176,0,0,0,0,0,0,0,0,0,-1,1511,848,0,0
294,176,0,0,0,0,0,0,0,0,0,-1,1518,848,0,0
301,176,0,0,0,0,0,0,0,0,0,-1,1525,848,0,0
308,176,0,0,0,0,0,0,0,0,0,-1,1532,848,0,0
315,176,0,0,0,0,0,0,0,0,0,-1,1539,848,0,0
322,176,0,0,0,0,0,0,0,0,0,-1,1546,848,0,0
329,176,0,0,0,0,0,0,0,0,0,-1,1553,848,0,0
336,176,0,0,0,0,0,0,0,0,0,-1,1560,848,0,0
343,176,0,0,0,0,0,0,0,0,0,-1,1567,848,0,0
350,176,0,0,0,0,0,0,0,0,0,-1,1574,848,0,0
357,176,0,0,0,0,0,0,0,0,0,-1,1581,848,0,0
364,176,0,0,0,0,0,0,0,0,0,-1,1588,848,0,0
371,176,0,0,0,0,0,0,0,0,0,-1,1595,848,0,0
378,176,0,0,0,0,0,0,0,0,0,-1,1602,848,0,0
385,176,0,0,0,0,0,0,0,0,0,-1,1609,848,0,0
392,176,0,0,0,0,0,0,0,0,0,-1,1616,848,0,0
399,176,0,0,0,0,0,0,0,0,0,-1,1623,848,0,0
406,176,0,0,0,0,0,0,0,0,0,-1,1630,848,0,0
413,176,0,0,0,0,0,0,0,0,0,-1,1637,848,0,0
420,176,0,0,0,0,0,0,0,0,0,-1,1644,848,0,0
427,176,0,0,0,0,0,0,0,0,0,-1,1651,848,0,0
434,176,0,0,0,0,0,0,0,0,0,-1,1658,848,0,0
441,176,0,0,0,0,0,0,0,0,0,-1,1665,848,0,0
448,176,0,0,0,0,0,0,0,0,0,-1,1672,848,0,0
455,176,0,0,0,0,0,0,0,0,0,-1,1679,848,0,0
462,176,0,0,0,0,0,0,0,0,0,-1,1686,848,0,0
469,176,0,0,0,0,0,0,0,0,0,-1,1693,848,0,0
476,176,0,0,0,0,0,0,0,0,0,-1,1700,848,0,0
483,176,0,0,0,0,0,0,0,0,0,-1,1707,848,0,0
490,176,0,0,0,0,0,0,0,0,0,-1,1714,848,0,0
497,176,0,0,0,0,0,0,0,0,0,-1,1721,848,0,0
504,176,0,0,0,0,0,0,0,0,0,-1,1728,848,0,0
511,176,0,0,0,0,0,0,0,0,0,-1,1735,848,0,0
518,176,0,0,0,0,0,0,0,0,0,-1,1742,848,0,0
525,176,0,0,0,0,0,0,0,0,0,-1,1749,848,0,0
532,176,0,0,0,0,0,0,0,0,0,-1,1756,848,0,0
539,176,0,0,0,0,0,0,0,0,0,-1,1763,848,0,0
546,176,0,0,0,0,0,0,0,0,0,-1,1770,848,0,0
553,176,0,0,0,0,0,0,0,0,0,-1,1777,848,0,0
560,176,0,0,0,0,0,0,0,0,0,-1,1784,848,0,0
567,176,0,0,0,0,0,0,0,0,0,-1,1791,848,0,0
574,176,0,0,0,0,0,0,0,0,0,-1,1798,848,0,0
581,176,0,0,0,0,0,0,0,0,0,-1,1805,848,0,0
588,176,0,0,0,0,0,0,0,0,0,-1,1812,848,0,0
595,176,0,0,0,0,0,0,0,0,0,-1,1819,848,0,0
602,176,0,0,0,0,0,0,0,0,0,-1,1826,848,0,0
609,176,0.00732422,-0.098938,-0.00362515,0.00285898,-0.000660141,0.00292551,-0.00369168,-1.47036,0.00382896,0.0327231,1833,848,0.00732245,0.0989616
616,176,0.0164795,0.00921631,-0.0016893,0.000814923,-0.000376354,0.000870261,-0.00174464,-1.4248,0.00153759,0.0344465,1840,848,0.0164915,-0.00922534
623,176,-0.0206299,0.148499,-0.000608141,-0.00044299,6.71207e-05,-0.000419152,-0.00063198,1.22954,0.000371299,0.0383527,1847,848,-0.0205756,-0.148523
630,176,-0.0611572,0.0518188,7.95958e-05,-0.00110453,0.000356209,0.000178491,-0.00120343,0.270813,0.000867921,0.0338365,1854,848,-0.0612078,-0.0518331
637,176,-0.0328369,-0.00933838,0.000475225,-0.001355,0.000565046,0.000635616,-0.00151539,0.27658,0.00127604,0.02722,1861,848,-0.0328051,0.00931624
644,176,-0.0563965,0.00189209,0.000633766,-0.00134397,0.000710464,0.000862527,-0.00157273,0.311505,0.00142579,0.0272544,1868,848,-0.0564303,-0.00186546
651,176,-0.0559082,0.0151367,0.000639043,-0.00116401,0.000766923,0.000921122,-0.00144609,0.352449,0.00137786,0.0281324,1875,848,-0.0559652,-0.0151256
658,176,0.00830078,-0.0889893,0.000604553,-0.000938197,0.000768159,0.000921795,-0.00125544,0.391655,0.00126194,0.0325242,1882,848,0.00834686,0.0890095
665,176,-0.055542,-0.0696411,0.000477293,-0.000711364,0.000684139,0.000789205,-0.00102328,0.427766,0.00104934,0.0428705,1889,848,-0.0555275,0.0696477
672,176,-0.212402,0.179871,0.000325868,-0.000499126,0.000530959,0.000585734,-0.000758992,0.455153,0.000778523,0.0479441,1896,848,-0.212385,-0.179876
679,176,-0.0957031,-0.00317383,0.000186891,-0.000237292,0.000435425,0.000459132,-0.000509533,0.558764,0.000559511,0.0364682,1903,848,-0.095698,0.00314367
686,176,-0.0100098,-0.088501,-3.51053e-05,2.39576e-05,0.000388438,0.000383985,-0.000395132,0.823338,0.000449839,0.0149838,1910,848,-0.0100002,0.0884822
693,176,-0.00390625,-0.0697632,-0.0002276,0.000328514,0.000339902,0.000489603,-0.000388688,1.12822,0.000508196,0.00962724,1917,848,-0.00394045,0.0697591
700,176,-0.00927734,-0.0753784,-0.00049406,0.000435637,0.000363756,0.000561045,-0.000619468,1.2388,0.000681847,0.0139926,1924,848,-0.00930402,0.0753858
707,176,-0.0279541,-0.0705566,-0.000948773,0.00070444,7.60762e-05,0.000707933,-0.000952267,1.52491,0.000961971,0.0133997,1931,848,-0.0279105,0.0705848
714,176,-0.022583,-0.0734863,-0.0012481,0.00200522,-0.000220747,0.00202013,-0.00126301,-1.50336,0.00191225,0.0123839,1938,848,-0.0226326,0.0735162
721,176,-0.0222168,-0.0777588,-0.0014705,0.00301977,0.000438865,0.00306227,-0.00151299,1.47428,0.00269154,0.0106838,1945,848,-0.022225,0.0777694
728,176,-0.0268555,-0.0441284,-0.00203332,0.00413144,0.00142126,0.00444332,-0.00234521,1.35478,0.00398127,0.0121488,1952,848,-0.0268334,0.0441006
735,176,-0.0471191,-0.0521851,-0.00253443,0.00680068,0.00252135,0.00743815,-0.0031719,1.32316,0.00628862,0.0124158,1959,848,-0.0470853,0.0521764
742,176,-0.0456543,-0.0870972,-0.0030398,0.0112611,0.00369666,0.0121602,-0.00393884,1.33223,0.00969033,0.0166171,1966,848,-0.0457129,0.0871175
749,176,0.0366211,-0.108765,-0.00365581,0.0160633,0.00565463,0.0175698,-0.00516224,1.31044,0.0137606,0.0265271,1973,848,0.0366398,0.108766
756,176,-0.262573,0.0621338,-0.00424997,0.022505,0.00839398,0.0249205,-0.0066654,1.29061,0.0192245,0.0394111,1980,848,-0.262609,-0.0621388
763,176,-0.239502,-1.53845,-0.0047375,0.0311076,0.0120783,0.0347976,-0.00842751,1.27429,0.0264588,0.0417699,1987,848,-0.239473,1.53848
770,176,-0.0270996,-0.619568,-0.00501562,0.0426264,0.0168803,0.048001,-0.0103903,1.26255,0.0359679,0.0406237,1994,848,-0.0270796,0.619573
777,176,-0.0830078,0.162292,-0.00492915,0.0582289,0.0229769,0.0657034,-0.0124036,1.25629,0.0484687,0.0407554,2001,848,-0.0829955,-0.162273
784,176,0,0,0,0,0,0,0,0,0,-1,2008,848,0,0
791,176,0,0,0,0,0,0,0,0,0,-1,2015,848,0,0
798,176,0,0,0,0,0,0,0,0,0,-1,2022,848,0,0
805,176,0,0,0,0,0,0,0,0,0,-1,2029,848,0,0
812,176,0,0,0,0,0,0,0,0,0,-1,2036,848,0,0
-700,169,0,0,0,0,0,0,0,0,0,-1,524,855,0,0
-693,169,0,0,0,0,0,0,0,0,0,-1,531,855,0,0
-686,169,0,0,0,0,0,0,0,0,0,-1,538,855,0,0
-679,169,0,0,0,0,0,0,0,0,0,-1,545,855,0,0
-672,169,0,0,0,0,0,0,0,0,0,-1,552,855,0,0
-665,169,-0.450012,-1.60571,0.0258694,-0.0292684,0.0458955,0.0518397,-0.0552386,0.514935,0.0618321,0.0427572,559,855,-0.450038,1.60573
-658,169,-0.150513,-0.819458,0.0251756,-0.0248634,0.0362148,0.044173,-0.0438608,0.483114,0.0508264,0.0436133,566,855,-0.150543,0.819438
-651,169,0.148376,-0.0697632,0.0227769,-0.020818,0.0283789,0.0367634,-0.0348045,0.457909,0.0413249,0.0472005,573,855,0.148397,0.0697507
-644,169,-0.248657,0.954224,0,0,0,0,0,0,0,-1,580,855,-0.248633,-0.954233
-637,169,0.181885,2.21149,0.016309,-0.0138763,0.016546,0.0236118,-0.0211791,0.41565,0.0258728,0.0411569,587,855,0.181886,-2.21149
-630,169,-0.228149,0.371033,0.0130605,-0.0110115,0.0122309,0.0181843,-0.0161354,0.396714,0.0198262,0.0467898,594,855,-0.228159,-0.371008
-623,169,-0.0819702,0.039978,0.0100904,-0.0085936,0.00882045,0.0135965,-0.0120997,0.378345,0.0148441,0.0385715,601,855,-0.0819437,-0.0400007
-616,169,-0.055603,-0.108765,0.00749349,-0.0064922,0.00620666,0.00985064,-0.00884935,0.362953,0.0108016,0.0205654,608,855,-0.0555809,0.108735
-609,169,-0.0236206,-0.0560913,0.00542437,-0.00438242,0.00390362,0.00678847,-0.00574652,0.336181,0.00724541,0.0132378,615,855,-0.0235909,0.056111
-602,169,-0.0230713,-0.0586548,0.00332121,-0.00357287,0.00201595,0.00386743,-0.00411909,0.264597,0.00461178,0.0121743,622,855,-0.0230798,0.0586576
-595,169,-0.0422974,-0.0907593,0.00160596,-0.00187303,0.00100269,0.00187426,-0.00214133,0.261453,0.00232011,0.0101929,629,855,-0.0423215,0.0907453
-588,169,-0.0181885,-0.0790405,0.000595807,-0.000712138,0.000477636,0.00075166,-0.000867991,0.315407,0.000935909,0.00857596,636,855,-0.018167,0.0790153
-581,169,-0.0189819,-0.0583496,0.000139092,-0.000931938,0.000130947,0.00015487,-0.000947715,0.11991,0.000689258,0.00884664,643,855,-0.0189767,0.0583222
-574,169,-0.0339966,-0.053833,0.000188946,-0.000579873,0.000270371,0.000274506,-0.000665432,0.306482,0.000558099,0.0110054,650,855,-0.0340027,0.0538445
-567,169,-0.0405273,-0.0759277,0.000427752,-3.53886e-05,0.000349976,0.000615834,-0.000223471,0.493129,0.000501913,0.010217,657,855,-0.0405094,0.075909
-560,169,-0.0372314,-0.0860596,0.000736673,0.000391225,0.00035447,0.000958261,0.000169636,0.55869,0.000590475,0.00826558,664,855,-0.0372069,0.086067
-553,169,-0.0465698,-0.0718994,0.000951029,0.000902305,0.000534749,0.00146197,0.000391364,0.762635,0.000873908,0.015427,671,855,-0.0465993,0.0719262
-546,169,-0.0828247,-0.0389404,0.00127505,0.00122566,0.000787851,0.00203859,0.000462117,0.769732,0.00123421,0.0289724,678,855,-0.082826,0.0389303
-539,169,-0.0952148,-0.0691528,0.00184258,0.00160192,0.00105787,0.00278694,0.000657563,0.728769,0.00168217,0.0335095,685,855,-0.0951892,0.0691457
-532,169,0.0112915,-0.0172729,0.0023116,0.00200759,0.00133867,0.00350687,0.000812322,0.728866,0.00211968,0.0338523,692,855,0.0113197,0.0172568
-525,169,0.0494385,0.0604858,0.00277031,0.0024165,0.00163474,0.00423769,0.000949124,0.7315,0.0025679,0.0389324,699,855,0.049464,-0.0605088
-518,169,0.0905762,0.0678101,0.00312133,0.00268046,0.00183947,0.00475353,0.00104826,0.725765,0.00288382,0.0364671,706,855,0.0905569,-0.0678024
-511,169,-0.074646,-0.0908203,0.00333259,0.00258237,0.00183851,0.00483386,0.00108109,0.684765,0.00292948,0.0354342,713,855,-0.0746402,0.0908474
-504,169,-0.123596,-0.0682983,0.00343238,0.00184425,0.00149888,0.00433454,0.000942094,0.541807,0.00263246,0.0363329,720,855,-0.12362,0.0683096
-497,169,-0.0472412,0.00958252,0.00345604,8.01328e-05,0.000654571,0.00357851,-4.23418e-05,0.184968,0.00239991,0.0366675,727,855,-0.0472392,-0.00956683
-490,169,0,0,0,0,0,0,0,0,0,-1,734,855,0,0
-483,169,0,0,0,0,0,0,0,0,0,-1,741,855,0,0
-476,169,0,0,0,0,0,0,0,0,0,-1,748,855,0,0
-469,169,0,0,0,0,0,0,0,0,0,-1,755,855,0,0
-462,169,0,0,0,0,0,0,0,0,0,-1,762,855,0,0
-455,169,0,0,0,0,0,0,0,0,0,-1,769,855,0,0
-448,169,0,0,0,0,0,0,0,0,0,-1,776,855,0,0
-441,169,0,0,0,0,0,0,0,0,0,-1,783,855,0,0
-434,169,0,0,0,0,0,0,0,0,0,-1,790,855,0,0
-427,169,0,0,0,0,0,0,0,0,0,-1,797,855,0,0
-420,169,0,0,0,0,0,0,0,0,0,-1,804,855,0,0
-413,169,0,0,0,0,0,0,0,0,0,-1,811,855,0,0
-406,169,0,0,0,0,0,0,0,0,0,-1,818,855,0,0
-399,169,0,0,0,0,0,0,0,0,0,-1,825,855,0,0
-392,169,0,0,0,0,0,0,0,0,0,-1,832,855,0,0
-385,169,0,0,0,0,0,0,0,0,0,-1,839,855,0,0
-378,169,0,0,0,0,0,0,0,0,0,-1,846,855,0,0
-371,169,0,0,0,0,0,0,0,0,0,-1,853,855,0,0
-364,169,0,0,0,0,0,0,0,0,0,-1,860,855,0,0
-357,169,0,0,0,0,0,0,0,0,0,-1,867,855,0,0
-350,169,0,0,0,0,0,0,0,0,0,-1,874,855,0,0
-343,169,0,0,0,0,0,0,0,0,0,-1,881,855,0,0
-336,169,0,0,0,0,0,0,0,0,0,-1,888,855,0,0
-329,169,0,0,0,0,0,0,0,0,0,-1,895,855,0,0
-322,169,0,0,0,0,0,0,0,0,0,-1,902,855,0,0
-315,169,0,0,0,0,0,0,0,0,0,-1,909,855,0,0
-308,169,0,0,0,0,0,0,0,0,0,-1,916,855,0,0
-301,169,0,0,0,0,0,0,0,0,0,-1,923,855,0,0
-294,169,0,0,0,0,0,0,0,0,0,-1,930,855,0,0
-287,169,0,0,0,0,0,0,0,0,0,-1,937,855,0,0
-280,169,0,0,0,0,0,0,0,0,0,-1,944,855,0,0
-273,169,0,0,0,0,0,0,0,0,0,-1,951,855,0,0
-266,169,0,0,0,0,0,0,0,0,0,-1,958,855,0,0
-259,169,0,0,0,0,0,0,0,0,0,-1,965,855,0,0
-252,169,0,0,0,0,0,0,0,0,0,-1,972,855,0,0
-245,169,0,0,0,0,0,0,0,0,0,-1,979,855,0,0
-238,169,0,0,0,0,0,0,0,0,0,-1,986,855,0,0
-231,169,0,0,0,0,0,0,0,0,0,-1,993,855,0,0
-224,169,0,0,0,0,0,0,0,0,0,-1,1000,855,0,0
-217,169,0,0,0,0,0,0,0,0,0,-1,1007,855,0,0
-210,169,0,0,0,0,0,0,0,0,0,-1,1014,855,0,0
-203,169,0,0,0,0,0,0,0,0,0,-1,1021,855,0,0
-196,169,0,0,0,0,0,0,0,0,0,-1,1028,855,0,0
-189,169,0,0,0,0,0,0,0,0,0,-1,1035,855,0,0
-182,169,0,0,0,0,0,0,0,0,0,-1,1042,855,0,0
-175,169,0,0,0,0,0,0,0,0,0,-1,1049,855,0,0
-168,169,0,0,0,0,0,0,0,0,0,-1,1056,855,0,0
-161,169,0,0,0,0,0,0,0,0,0,-1,1063,855,0,0
-154,169,0,0,0,0,0,0,0,0,0,-1,1070,855,0,0
-147,169,0,0,0,0,0,0,0,0,0,-1,1077,855,0,0
-140,169,0,0,0,0,0,0,0,0,0,-1,1084,855,0,0
-133,169,0,0,0,0,0,0,0,0,0,-1,1091,855,0,0
-126,169,0,0,0,0,0,0,0,0,0,-1,1098,855,0,0
-119,169,0,0,0,0,0,0,0,0,0,-1,1105,855,0,0
-112,169,0,0,0,0,0,0,0,0,0,-1,1112,855,0,0
-105,169,0,0,0,0,0,0,0,0,0,-1,1119,855,0,0
-98,169,0,0,0,0,0,0,0,0,0,-1,1126,855,0,0
-91,169,0,0,0,0,0,0,0,0,0,-1,1133,855,0,0
-84,169,0,0,0,0,0,0,0,0,0,-1,1140,855,0,0
-77,169,0,0,0,0,0,0,0,0,0,-1,1147,855,0,0
-70,169,0,0,0,0,0,0,0,0,0,-1,1154,855,0,0
-63,169,0,0,0,0,0,0,0,0,0,-1,1161,855,0,0
-56,169,0,0,0,0,0,0,0,0,0,-1,1168,855,0,0
-49,169,0,0,0,0,0,0,0,0,0,-1,1175,855,0,0
-42,169,0,0,0,0,0,0,0,0,0,-1,1182,855,0,0
-35,169,0,0,0,0,0,0,0,0,0,-1,1189,855,0,0
-28,169,0,0,0,0,0,0,0,0,0,-1,1196,855,0,0
-21,169,0,0,0,0,0,0,0,0,0,-1,1203,855,0,0
-14,169,0,0,0,0,0,0,0,0,0,-1,1210,855,0,0
-7,169,0,0,0,0,0,0,0,0,0,-1,1217,855,0,0
0,169,0,0,0,0,0,0,0,0,0,-1,1224,855,0,0
7,169,0,0,0,0,0,0,0,0,0,-1,1231,855,0,0
14,169,0,0,0,0,0,0,0,0,0,-1,1238,855,0,0
21,169,0,0,0,0,0,0,0,0,0,-1,1245,855,0,0
28,169,0,0,0,0,0,0,0,0,0,-1,1252,855,0,0
35,169,0,0,0,0,0,0,0,0,0,-1,1259,855,0,0
42,169,0,0,0,0,0,0,0,0,0,-1,1266,855,0,0
49,169,0,0,0,0,0,0,0,0,0,-1,1273,855,0,0
56,169,0,0,0,0,0,0,0,0,0,-1,1280,855,0,0
63,169,0,0,0,0,0,0,0,0,0,-1,1287,855,0,0
70,169,0,0,0,0,0,0,0,0,0,-1,1294,855,0,0
77,169,0,0,0,0,0,0,0,0,0,-1,1301,855,0,0
84,169,0,0,0,0,0,0,0,0,0,-1,1308,855,0,0
91,169,0,0,0,0,0,0,0,0,0,-1,1315,855,0,0
98,169,0,0,0,0,0,0,0,0,0,-1,1322,855,0,0
105,169,0,0,0,0,0,0,0,0,0,-1,1329,855,0,0
112,169,0,0,0,0,0,0,0,0,0,-1,1336,855,0,0
119,169,0,0,0,0,0,0,0,0,0,-1,1343,855,0,0
126,169,0,0,0,0,0,0,0,0,0,-1,1350,855,0,0
133,169,0,0,0,0,0,0,0,0,0,-1,1357,855,0,0
140,169,0,0,0,0,0,0,0,0,0,-1,1364,855,0,0
147,169,0,0,0,0,0,0,0,0,0,-1,1371,855,0,0
154,169,0,0,0,0,0,0,0,0,0,-1,1378,855,0,0
161,169,0,0,0,0,0,0,0,0,0,-1,1385,855,0,0
168,169,0,0,0,0,0,0,0,0,0,-1,1392,855,0,0
175,169,0,0,0,0,0,0,0,0,0,-1,1399,855,0,0
182,169,0,0,0,0,0,0,0,0,0,-1,1406,855,0,0
189,169,0,0,0,0,0,0,0,0,0,-1,1413,855,0,0
196,169,0,0,0,0,0,0,0,0,0,-1,1420,855,0,0
203,169,0,0,0,0,0,0,0,0,0,-1,1427,855,0,0
210,169,0,0,0,0,0,0,0,0,0,-1,1434,855,0,0
217,169,0,0,0,0,0,0,0,0,0,-1,1441,855,0,0
224,169,0,0,0,0,0,0,0,0,0,-1,1448,855,0,0
231,169,0,0,0,0,0,0,0,0,0,-1,1455,855,0,0
238,169,0,0,0,0,0,0,0,0,0,-1,1462,855,0,0
245,169,0,0,0,0,0,0,0,0,0,-1,1469,855,0,0
252,169,0,0,0,0,0,0,0,0,0,-1,1476,855,0,0
259,169,0,0,0,0,0,0,0,0,0,-1,1483,855,0,0
266,169,0,0,0,0,0,0,0,0,0,-1,1490,855,0,0
273,169,0,0,0,0,0,0,0,0,0,-1,1497,855,0,0
280,169,0,0,0,0,0,0,0,0,0,-1,1504,855,0,0
287,169,0,0,0,0,0,0,0,0,0,-1,1511,855,0,0
294,169,0,0,0,0,0,0,0,0,0,-1,1518,855,0,0
301,169,0,0,0,0,0,0,0,0,0,-1,1525,855,0,0
308,169,0,0,0,0,0,0,0,0,0,-1,1532,855,0,0
315,169,0,0,0,0,0,0,0,0,0,-1,1539,855,0,0
322,169,0,0,0,0,0,0,0,0,0,-1,1546,855,0,0
329,169,0,0,0,0,0,0,0,0,0,-1,1553,855,0,0
336,169,0,0,0,0,0,0,0,0,0,-1,1560,855,0,0
343,169,0,0,0,0,0,0,0,0,0,-1,1567,855,0,0
350,169,0,0,0,0,0,0,0,0,0,-1,1574,855,0,0
357,169,0,0,0,0,0,0,0,0,0,-1,1581,855,0,0
364,169,0,0,0,0,0,0,0,0,0,-1,1588,855,0,0
371,169,0,0,0,0,0,0,0,0,0,-1,1595,855,0,0
378,169,0,0,0,0,0,0,0,0,0,-1,1602,855,0,0
385,169,0,0,0,0,0,0,0,0,0,-1,1609,855,0,0
392,169,0,0,0,0,0,0,0,0,0,-1,1616,855,0,0
399,169,0,0,0,0,0,0,0,0,0,-1,1623,855,0,0
406,169,0,0,0,0,0,0,0,0,0,-1,1630,855,0,0
413,169,0,0,0,0,0,0,0,0,0,-1,1637,855,0,0
420,169,0,0,0,0,0,0,0,0,0,-1,1644,855,0,0
427,169,0,0,0,0,0,0,0,0,0,-1,1651,855,0,0
434,169,0,0,0,0,0,0,0,0,0,-1,1658,855,0,0
441,169,0,0,0,0,0,0,0,0,0,-1,1665,855,0,0
448,169,0,0,0,0,0,0,0,0,0,-1,1672,855,0,0
455,169,0,0,0,0,0,0,0,0,0,-1,1679,855,0,0
462,169,0,0,0,0,0,0,0,0,0,-1,1686,855,0,0
469,169,0,0,0,0,0,0,0,0,0,-1,1693,855,0,0
476,169,0,0,0,0,0,0,0,0,0,-1,1700,855,0,0
483,169,0,0,0,0,0,0,0,0,0,-1,1707,855,0,0
490,169,0,0,0,0,0,0,0,0,0,-1,1714,855,0,0
497,169,0,0,0,0,0,0,0,0,0,-1,1721,855,0,0
504,169,0,0,0,0,0,0,0,0,0,-1,1728,855,0,0
511,169,0,0,0,0,0,0,0,0,0,-1,1735,855,0,0
518,169,0,0,0,0,0,0,0,0,0,-1,1742,855,0,0
525,169,0,0,0,0,0,0,0,0,0,-1,1749,855,0,0
532,169,0,0,0,0,0,0,0,0,0,-1,1756,855,0,0
539,169,0,0,0,0,0,0,0,0,0,-1,1763,855,0,0
546,169,0,0,0,0,0,0,0,0,0,-1,1770,855,0,0
553,169,0,0,0,0,0,0,0,0,0,-1,1777,855,0,0
560,169,0,0,0,0,0,0,0,0,0,-1,1784,855,0,0
567,169,0,0,0,0,0,0,0,0,0,-1,1791,855,0,0
574,169,0,0,0,0,0,0,0,0,0,-1,1798,855,0,0
581,169,0,0,0,0,0,0,0,0,0,-1,1805,855,0,0
588,169,0,0,0,0,0,0,0,0,0,-1,1812,855,0,0
595,169,0,0,0,0,0,0,0,0,0,-1,1819,855,0,0
602,169,0,0,0,0,0,0,0,0,0,-1,1826,855,0,0
609,169,0,0,0,0,0,0,0,0,0,-1,1833,855,0,0
616,169,0.00927734,0.135864,-0.00208087,0.00163712,-0.00028031,0.00165813,-0.00210188,-1.49597,0.00217588,0.0383153,1840,855,0.00921674,-0.13586
623,169,-0.050415,0.185913,-0.000933697,0.000471941,3.52265e-06,0.00047195,-0.000933706,1.56829,0.000826023,0.0420894,1847,855,-0.0503765,-0.185904
630,169,-0.0111084,0.072998,-0.00017924,-0.00015412,0.000176464,1.02305e-05,-0.000343591,0.820926,0.000232546,0.0351011,1854,855,-0.0111184,-0.0730112
637,169,0.0948486,-0.0178833,0.000292441,-0.000434035,0.000310752,0.000407228,-0.000548823,0.35384,0.000553991,0.0314641,1861,855,0.0948613,0.0178767
644,169,-0.03125,0.0192871,0.000515706,-0.000497508,0.000419373,0.000666765,-0.000648567,0.345734,0.000759432,0.0311482,1868,855,-0.0313023,-0.0193135
651,169,-0.0498047,0.0480957,0.000569053,-0.000425288,0.000476027,0.000760199,-0.000616434,0.381838,0.000796243,0.0299675,1875,855,-0.0498287,-0.048114
658,169,-0.0405273,0.003479,0.000563794,-0.00031335,0.000499793,0.000790157,-0.000539713,0.425274,0.000772326,0.0289638,1882,855,-0.0405248,-0.00344997
665,169,0.0219727,-0.17926,0,0,0,0,0,0,0,-1,1889,855,0.0219438,0.179242
672,169,-0.0440674,-0.235657,0.000330533,-0.000106477,0.000338357,0.000514806,-0.00029075,0.498696,0.000471046,0.0488643,1896,855,-0.0441027,0.235652
679,169,0.0114746,-0.21875,0.000243519,1.66327e-05,0.000288455,0.000440037,-0.000179885,0.598049,0.000368268,0.0415776,1903,855,0.0114727,0.218742
686,169,-0.0255127,-0.0888062,8.88103e-05,0.000146772,0.000280483,0.000399767,-0.000164185,0.836878,0.000334933,0.0201212,1910,855,-0.0255542,0.0888267
693,169,-0.00561523,-0.0548096,-2.55675e-05,0.000330967,0.000287464,0.000490952,-0.000185553,1.06295,0.000403629,0.0114144,1917,855,-0.00559571,0.0547885
700,169,-0.0124512,-0.0535278,-0.000220593,0.000392879,0.0003523,0.000553264,-0.000380978,1.14358,0.000542433,0.0112776,1924,855,-0.0124215,0.0535024
707,169,-0.0234375,-0.074707,-0.000576483,0.000615397,0.000105349,0.000624637,-0.000585723,1.48331,0.000698922,0.0129764,1931,855,-0.0233848,0.0747302
714,169,-0.0319824,-0.097168,-0.000737617,0.00181322,-0.000236822,0.00183502,-0.000759417,-1.479,0.00154021,0.0132444,1938,855,-0.0320431,0.0971741
721,169,-0.0264893,-0.0924072,-0.000831671,0.00268066,0.000191061,0.00269102,-0.000842034,1.51661,0.00213089,0.0118981,1945,855,-0.0264355,0.0924354
728,169,-0.0257568,-0.0586548,-0.00120118,0.0035615,0.00103538,0.00377685,-0.00141653,1.36573,0.0030999,0.00971347,1952,855,-0.0257709,0.0586408
735,169,-0.0523682,-0.0368042,-0.00140541,0.00635633,0.00206905,0.00687342,-0.0019225,1.32589,0.00533975,0.0166874,1959,855,-0.0523185,0.0368193
742,169,-0.0299072,-0.0831299,-0.00165519,0.0110637,0.00301622,0.0117428,-0.00233422,1.34936,0.00871145,0.0142762,1966,855,-0.0299424,0.0831435
749,169,0.0288086,-0.162476,-0.00205257,0.0160637,0.00473595,0.0172271,-0.00321593,1.32992,0.0126932,0.023611,1973,855,0.0288074,0.162455
756,169,0.0595703,-0.206604,-0.00239214,0.022912,0.00710147,0.0247687,-0.00424889,1.31506,0.0180958,0.044855,1980,855,0.0596173,0.206574
763,169,0.0708008,-0.234924,0,0,0,0,0,0,0,-1,1987,855,0.0707696,0.234915
770,169,-0.291138,-0.0673828,-0.00284008,0.0449533,0.014574,0.0490468,-0.00693362,1.29697,0.0352372,0.0413254,1994,855,-0.291195,0.0673624
777,169,-0.155396,0.402649,-0.00285648,0.0623005,0.0200352,0.0679681,-0.00852411,1.29512,0.0484043,0.0401469,2001,855,-0.155441,-0.402673
784,169,-0.197998,0.57489,0,0,0,0,0,0,0,-1,2008,855,-0.197977,-0.5749
791,169,0,0,0,0,0,0,0,0,0,-1,2015,855,0,0
798,169,0,0,0,0,0,0,0,0,0,-1,2022,855,0,0
805,169,0,0,0,0,0,0,0,0,0,-1,2029,855,0,0
812,169,0,0,0,0,0,0,0,0,0,-1,2036,855,0,0
-700,162,0,0,0,0,0,0,0,0,0,-1,524,862,0,0
-693,162,0,0,0,0,0,0,0,0,0,-1,531,862,0,0
-686,162,0,0,0,0,0,0,0,0,0,-1,538,862,0,0
-679,162,0,0,0,0,0,0,0,0,0,-1,545,862,0,0
-672,162,0,0,0,0,0,0,0,0,0,-1,552,862,0,0
-665,162,-0.375671,-1.55609,0.0308691,-0.0227029,0.0423094,0.0541588,-0.0459926,0.503198,0.0578865,0.0431831,559,862,-0.375689,1.55609
-658,162,-0.289429,-0.67395,0.029743,-0.0185478,0.0331774,0.046631,-0.0354358,0.470838,0.047528,0.0448897,566,862,-0.289402,0.673973
-651,162,-0.19104,0.157959,0.026843,-0.0150354,0.0256676,0.039029,-0.0272214,0.443253,0.0384516,0.047804,573,862,-0.191017,-0.157985
-644,162,-0.290344,1.05084,0.0231487,-0.0120566,0.0194318,0.0317653,-0.0206732,0.417375,0.0305003,0.0429747,580,862,-0.290366,-1.05085
-637,162,-0.291748,0.765198,0,0,0,0,0,0,0,-1,587,862,-0.291762,-0.765183
-630,162,-0.183899,0.337524,0,0,0,0,0,0,0,-1,594,862,-0.183881,-0.337507
-623,162,-0.0759888,-0.0901489,0,0,0,0,0,0,0,-1,601,862,-0.0760001,0.090169
-616,162,-0.050354,-0.0864868,0.00881895,-0.00439415,0.00473826,0.0103424,-0.00591764,0.31109,0.00950292,0.0169059,608,862,-0.0503632,0.0864626
-609,162,-0.0224609,-0.0592041,0.00642249,-0.00268499,0.00270959,0.00716766,-0.00343016,0.268377,0.0062442,0.0122383,615,862,-0.0224621,0.0591765
-602,162,-0.0175781,-0.0593872,0.00397277,-0.00242659,0.00106517,0.00414541,-0.00259923,0.16068,0.00392798,0.010878,622,862,-0.0175519,0.0593954
-595,162,-0.0261841,-0.0514526,0.00189402,-0.00125533,0.000171784,0.00190336,-0.00126467,0.0543312,0.00184141,0.00978727,629,862,-0.0262096,0.051443
-588,162,-0.0131836,-0.0494995,0.000675503,-0.000515783,-0.000101333,0.000684061,-0.000524341,-0.0842555,0.0006997,0.00999086,636,862,-0.0132112,0.0495261
-581,162,-0.0199585,-0.0790405,0.000146556,-0.000861096,-0.000192173,0.000181962,-0.000896502,-0.182197,0.000666652,0.0114333,643,862,-0.0199298,0.0790403
-574,162,-0.0539551,-0.105286,2.74558e-05,-0.000615328,7.38715e-05,3.58362e-05,-0.000623708,0.112962,0.000428251,0.0156461,650,862,-0.0539632,0.105265
-567,162,-0.0509033,-0.0932617,7.86249e-05,-0.000224773,9.32003e-05,0.000104968,-0.000251116,0.275462,0.000211278,0.0159621,657,862,-0.0509226,0.0932847
-560,162,-0.043335,-0.0788574,0.000315726,0.000110602,4.72694e-05,0.000326095,0.000100233,0.215935,0.000192872,0.0107591,664,862,-0.0433063,0.0788503
-553,162,-0.0498047,-0.0881958,0.000459031,0.000509562,0.000145121,0.0006316,0.000336993,0.871584,0.000364928,0.0206837,671,862,-0.049807,0.0882148
-546,162,-0.0643311,-0.0717773,0.000704568,0.000774434,0.000281405,0.00102307,0.000455936,0.847151,0.000591829,0.0332078,678,862,-0.0643606,0.0717727
-539,162,-0.0630493,-0.0482788,0.00120406,0.00108146,0.000434682,0.00158174,0.000703778,0.71535,0.000915064,0.037776,685,862,-0.063072,0.0482786
-532,162,0.0167236,-0.00152588,0.00169042,0.00142957,0.000614522,0.0021882,0.00093178,0.68083,0.00126798,0.0336936,692,862,0.0167143,0.00155267
-525,162,0.00628662,0.00622559,0.00227551,0.00181783,0.000842641,0.00291983,0.00117351,0.652809,0.00169655,0.0362171,699,862,0.00630599,-0.00623252
-518,162,0.0519409,-0.103638,0.00291816,0.00210263,0.00104655,0.00363357,0.00138721,0.599631,0.0021173,0.0367868,706,862,0.0519592,0.103663
-511,162,0.015625,-0.191467,0.00365834,0.00210499,0.00116359,0.00428065,0.00148268,0.491115,0.00251002,0.0396275,713,862,0.0156183,0.191466
-504,162,-0.0136108,-0.0361328,0.00459054,0.00155892,0.0011057,0.00495097,0.0011985,0.315109,0.00298253,0.0399925,720,862,-0.0136139,0.0361369
-497,162,-0.0578613,0.0787964,0.00579229,7.47918e-05,0.000747434,0.00588838,-2.13033e-05,0.127865,0.00393271,0.037164,727,862,-0.0578461,-0.0788214
-490,162,0,0,0,0,0,0,0,0,0,-1,734,862,0,0
-483,162,0,0,0,0,0,0,0,0,0,-1,741,862,0,0
-476,162,0,0,0,0,0,0,0,0,0,-1,748,862,0,0
-469,162,0,0,0,0,0,0,0,0,0,-1,755,862,0,0
-462,162,0,0,0,0,0,0,0,0,0,-1,762,862,0,0
-455,162,0,0,0,0,0,0,0,0,0,-1,769,862,0,0
-448,162,0,0,0,0,0,0,0,0,0,-1,776,862,0,0
-441,162,0,0,0,0,0,0,0,0,0,-1,783,862,0,0
-434,162,0,0,0,0,0,0,0,0,0,-1,790,862,0,0
-427,162,0,0,0,0,0,0,0,0,0,-1,797,862,0,0
-420,162,0,0,0,0,0,0,0,0,0,-1,804,862,0,0
-413,162,0,0,0,0,0,0,0,0,0,-1,811,862,0,0
-406,162,0,0,0,0,0,0,0,0,0,-1,818,862,0,0
-399,162,0,0,0,0,0,0,0,0,0,-1,825,862,0,0
-392,162,0,0,0,0,0,0,0,0,0,-1,832,862,0,0
-385,162,0,0,0,0,0,0,0,0,0,-1,839,862,0,0
-378,162,0,0,0,0,0,0,0,0,0,-1,846,862,0,0
-371,162,0,0,0,0,0,0,0,0,0,-1,853,862,0,0
-364,162,0,0,0,0,0,0,0,0,0,-1,860,862,0,0
-357,162,0,0,0,0,0,0,0,0,0,-1,867,862,0,0
-350,162,0,0,0,0,0,0,0,0,0,-1,874,862,0,0
-343,162,0,0,0,0,0,0,0,0,0,-1,881,862,0,0
-336,162,0,0,0,0,0,0,0,0,0,-1,888,862,0,0
-329,162,0,0,0,0,0,0,0,0,0,-1,895,862,0,0
-322,162,0,0,0,0,0,0,0,0,0,-1,902,862,0,0
-315,162,0,0,0,0,0,0,0,0,0,-1,909,862,0,0
-308,162,0,0,0,0,0,0,0,0,0,-1,916,862,0,0
-301,162,0,0,0,0,0,0,0,0,0,-1,923,862,0,0
-294,162,0,0,0,0,0,0,0,0,0,-1,930,862,0,0
-287,162,0,0,0,0,0,0,0,0,0,-1,937,862,0,0
-280,162,0,0,0,0,0,0,0,0,0,-1,944,862,0,0
-273,162,0,0,0,0,0,0,0,0,0,-1,951,862,0,0
-266,162,0,0,0,0,0,0,0,0,0,-1,958,862,0,0
-259,162,0,0,0,0,0,0,0,0,0,-1,965,862,0,0
-252,162,0,0,0,0,0,0,0,0,0,-1,972,862,0,0
-245,162,0,0,0,0,0,0,0,0,0,-1,979,862,0,0
-238,162,0,0,0,0,0,0,0,0,0,-1,986,862,0,0
-231,162,0,0,0,0,0,0,0,0,0,-1,993,862,0,0
-224,162,0,0,0,0,0,0,0,0,0,-1,1000,862,0,0
-217,162,0,0,0,0,0,0,0,0,0,-1,1007,862,0,0
-210,162,0,0,0,0,0,0,0,0,0,-1,1014,862,0,0
-203,162,0,0,0,0,0,0,0,0,0,-1,1021,862,0,0
-196,162,0,0,0,0,0,0,0,0,0,-1,1028,862,0,0
-189,162,0,0,0,0,0,0,0,0,0,-1,1035,862,0,0
-182,162,0,0,0,0,0,0,0,0,0,-1,1042,862,0,0
-175,162,0,0,0,0,0,0,0,0,0,-1,1049,862,0,0
-168,162,0,0,0,0,0,0,0,0,0,-1,1056,862,0,0
-161,162,0,0,0,0,0,0,0,0,0,-1,1063,862,0,0
-154,162,0,0,0,0,0,0,0,0,0,-1,1070,862,0,0
-147,162,0,0,0,0,0,0,0,0,0,-1,1077,862,0,0
-140,162,0,0,0,0,0,0,0,0,0,-1,1084,862,0,0
-133,162,0,0,0,0,0,0,0,0,0,-1,1091,862,0,0
-126,162,0,0,0,0,0,0,0,0,0,-1,1098,862,0,0
-119,162,0,0,0,0,0,0,0,0,0,-1,1105,862,0,0
-112,162,0,0,0,0,0,0,0,0,0,-1,1112,862,0,0
-105,162,0,0,0,0,0,0,0,0,0,-1,1119,862,0,0
-98,162,0,0,0,0,0,0,0,0,0,-1,1126,862,0,0
-91,162,0,0,0,0,0,0,0,0,0,-1,1133,862,0,0
-84,162,0,0,0,0,0,0,0,0,0,-1,1140,862,0,0
-77,162,0,0,0,0,0,0,0,0,0,-1,1147,862,0,0
-70,162,0,0,0,0,0,0,0,0,0,-1,1154,862,0,0
-63,162,0,0,0,0,0,0,0,0,0,-1,1161,862,0,0
-56,162,0,0,0,0,0,0,0,0,0,-1,1168,862,0,0
-49,162,0,0,0,0,0,0,0,0,0,-1,1175,862,0,0
-42,162,0,0,0,0,0,0,0,0,0,-1,1182,862,0,0
-35,162,0,0,0,0,0,0,0,0,0,-1,1189,862,0,0
-28,162,0,0,0,0,0,0,0,0,0,-1,1196,862,0,0
-21,162,0,0,0,0,0,0,0,0,0,-1,1203,862,0,0
-14,162,0,0,0,0,0,0,0,0,0,-1,1210,862,0,0
-7,162,0,0,0,0,0,0,0,0,0,-1,1217,862,0,0
0,162,0,0,0,0,0,0,0,0,0,-1,1224,862,0,0
7,162,0,0,0,0,0,0,0,0,0,-1,1231,862,0,0
14,162,0,0,0,0,0,0,0,0,0,-1,1238,862,0,0
21,162,0,0,0,0,0,0,0,0,0,-1,1245,862,0,0
28,162,0,0,0,0,0,0,0,0,0,-1,1252,862,0,0
35,162,0,0,0,0,0,0,0,0,0,-1,1259,862,0,0
42,162,0,0,0,0,0,0,0,0,0,-1,1266,862,0,0
49,162,0,0,0,0,0,0,0,0,0,-1,1273,862,0,0
56,162,0,0,0,0,0,0,0,0,0,-1,1280,862,0,0
63,162,0,0,0,0,0,0,0,0,0,-1,1287,862,0,0
70,162,0,0,0,0,0,0,0,0,0,-1,1294,862,0,0
77,162,0,0,0,0,0,0,0,0,0,-1,1301,862,0,0
84,162,0,0,0,0,0,0,0,0,0,-1,1308,862,0,0
91,162,0,0,0,0,0,0,0,0,0,-1,1315,862,0,0
98,162,0,0,0,0,0,0,0,0,0,-1,1322,862,0,0
105,162,0,0,0,0,0,0,0,0,0,-1,1329,862,0,0
112,162,0,0,0,0,0,0,0,0,0,-1,1336,862,0,0
119,162,0,0,0,0,0,0,0,0,0,-1,1343,862,0,0
126,162,0,0,0,0,0,0,0,0,0,-1,1350,862,0,0
133,162,0,0,0,0,0,0,0,0,0,-1,1357,862,0,0
140,162,0,0,0,0,0,0,0,0,0,-1,1364,862,0,0
147,162,0,0,0,0,0,0,0,0,0,-1,1371,862,0,0
154,162,0,0,0,0,0,0,0,0,0,-1,1378,862,0,0
161,162,0,0,0,0,0,0,0,0,0,-1,1385,862,0,0
168,162,0,0,0,0,0,0,0,0,0,-1,1392,862,0,0
175,162,0,0,0,0,0,0,0,0,0,-1,1399,862,0,0
182,162,0,0,0,0,0,0,0,0,0,-1,1406,862,0,0
189,162,0,0,0,0,0,0,0,0,0,-1,1413,862,0,0
196,162,0,0,0,0,0,0,0,0,0,-1,1420,862,0,0
203,162,0,0,0,0,0,0,0,0,0,-1,1427,862,0,0
210,162,0,0,0,0,0,0,0,0,0,-1,1434,862,0,0
217,162,0,0,0,0,0,0,0,0,0,-1,1441,862,0,0
224,162,0,0,0,0,0,0,0,0,0,-1,1448,862,0,0
231,162,0,0,0,0,0,0,0,0,0,-1,1455,862,0,0
238,162,0,0,0,0,0,0,0,0,0,-1,1462,862,0,0
245,162,0,0,0,0,0,0,0,0,0,-1,1469,862,0,0
252,162,0,0,0,0,0,0,0,0,0,-1,1476,862,0,0
259,162,0,0,0,0,0,0,0,0,0,-1,1483,862,0,0
266,162,0,0,0,0,0,0,0,0,0,-1,1490,862,0,0
273,162,0,0,0,0,0,0,0,0,0,-1,1497,862,0,0
280,162,0,0,0,0,0,0,0,0,0,-1,1504,862,0,0
287,162,0,0,0,0,0,0,0,0,0,-1,1511,862,0,0
294,162,0,0,0,0,0,0,0,0,0,-1,1518,862,0,0
301,162,0,0,0,0,0,0,0,0,0,-1,1525,862,0,0
308,162,0,0,0,0,0,0,0,0,0,-1,1532,862,0,0
315,162,0,0,0,0,0,0,0,0,0,-1,1539,862,0,0
322,162,0,0,0,0,0,0,0,0,0,-1,1546,862,0,0
329,162,0,0,0,0,0,0,0,0,0,-1,1553,862,0,0
336,162,0,0,0,0,0,0,0,0,0,-1,1560,862,0,0
343,162,0,0,0,0,0,0,0,0,0,-1,1567,862,0,0
350,162,0,0,0,0,0,0,0,0,0,-1,1574,862,0,0
357,162,0,0,0,0,0,0,0,0,0,-1,1581,862,0,0
364,162,0,0,0,0,0,0,0,0,0,-1,1588,862,0,0
371,162,0,0,0,0,0,0,0,0,0,-1,1595,862,0,0
378,162,0,0,0,0,0,0,0,0,0,-1,1602,862,0,0
385,162,0,0,0,0,0,0,0,0,0,-1,1609,862,0,0
392,162,0,0,0,0,0,0,0,0,0,-1,1616,862,0,0
399,162,0,0,0,0,0,0,0,0,0,-1,1623,862,0,0
406,162,0,0,0,0,0,0,0,0,0,-1,1630,862,0,0
413,162,0,0,0,0,0,0,0,0,0,-1,1637,862,0,0
420,162,0,0,0,0,0,0,0,0,0,-1,1644,862,0,0
427,162,0,0,0,0,0,0,0,0,0,-1,1651,862,0,0
434,162,0,0,0,0,0,0,0,0,0,-1,1658,862,0,0
441,162,0,0,0,0,0,0,0,0,0,-1,1665,862,0,0
448,162,0,0,0,0,0,0,0,0,0,-1,1672,862,0,0
455,162,0,0,0,0,0,0,0,0,0,-1,1679,862,0,0
462,162,0,0,0,0,0,0,0,0,0,-1,1686,862,0,0
469,162,0,0,0,0,0,0,0,0,0,-1,1693,862,0,0
476,162,0,0,0,0,0,0,0,0,0,-1,1700,862,0,0
483,162,0,0,0,0,0,0,0,0,0,-1,1707,862,0,0
490,162,0,0,0,0,0,0,0,0,0,-1,1714,862,0,0
497,162,0,0,0,0,0,0,0,0,0,-1,1721,862,0,0
504,162,0,0,0,0,0,0,0,0,0,-1,1728,862,0,0
511,162,0,0,0,0,0,0,0,0,0,-1,1735,862,0,0
518,162,0,0,0,0,0,0,0,0,0,-1,1742,862,0,0
525,162,0,0,0,0,0,0,0,0,0,-1,1749,862,0,0
532,162,0,0,0,0,0,0,0,0,0,-1,1756,862,0,0
539,162,0,0,0,0,0,0,0,0,0,-1,1763,862,0,0
546,162,0,0,0,0,0,0,0,0,0,-1,1770,862,0,0
553,162,0,0,0,0,0,0,0,0,0,-1,1777,862,0,0
560,162,0,0,0,0,0,0,0,0,0,-1,1784,862,0,0
567,162,0,0,0,0,0,0,0,0,0,-1,1791,862,0,0
574,162,0,0,0,0,0,0,0,0,0,-1,1798,862,0,0
581,162,0,0,0,0,0,0,0,0,0,-1,1805,862,0,0
588,162,0,0,0,0,0,0,0,0,0,-1,1812,862,0,0
595,162,0,0,0,0,0,0,0,0,0,-1,1819,862,0,0
602,162,0,0,0,0,0,0,0,0,0,-1,1826,862,0,0
609,162,0,0,0,0,0,0,0,0,0,-1,1833,862,0,0
616,162,-0.0395508,0.0543213,-0.00225925,0.00187735,-0.00011808,0.00188072,-0.00226261,-1.54228,0.00239554,0.0417875,1840,862,-0.0395372,-0.05432
623,162,-0.0313721,0.0617676,-0.00113844,0.000849125,6.36565e-06,0.000849145,-0.00113846,1.56759,0.00115159,0.0429786,1847,862,-0.0313844,-0.061784
630,162,-0.015625,0.0852661,-0.000378478,0.000328725,5.82242e-05,0.000333487,-0.00038324,1.4892,0.000414135,0.0360144,1854,862,-0.0156802,-0.0852616
637,162,0.0366211,-0.0455322,0.000125638,9.83005e-05,0.00011114,0.000223947,-8.73115e-09,0.724213,0.000149301,0.0355925,1861,862,0.0365651,0.0455493
644,162,-0.00952148,-0.0952759,0.000385871,3.40208e-05,0.000181344,0.000462602,-4.27104e-05,0.400282,0.000323579,0.0332948,1868,862,-0.00952197,0.0952669
651,162,-0.00561523,-0.0621338,0.000472094,6.69073e-05,0.000228795,0.0005751,-3.60991e-05,0.423031,0.000395982,0.028721,1875,862,-0.00565947,0.0621066
658,162,-0.0098877,-0.0678101,0.000490166,0.000125142,0.000260852,0.000626016,-1.07081e-05,0.480143,0.000420959,0.0284036,1882,862,-0.00992056,0.0678095
665,162,0.026001,-0.185425,0.00041586,0.00017469,0.000241587,0.000565284,2.52656e-05,0.553919,0.000368723,0.0362721,1889,862,0.0260256,0.185428
672,162,0.145142,-0.339783,0.000305997,0.00018966,0.000162371,0.000420305,7.53526e-05,0.613397,0.000258769,0.0422789,1896,862,0.145139,0.33979
679,162,0.150269,-0.346924,0.000241804,0.00022647,0.000148922,0.000383256,8.50182e-05,0.759678,0.000232407,0.0395245,1903,862,0.150293,0.346943
686,162,-0.0299072,-0.0974121,0.000109495,0.000256252,0.000161052,0.000359854,5.89323e-06,0.999158,0.000237963,0.0234194,1910,862,-0.0299299,0.0973907
693,162,-0.0194092,-0.0548706,2.31263e-05,0.000322382,0.000191044,0.000415419,-6.99105e-05,1.11761,0.00030295,0.0141403,1917,862,-0.0193976,0.054886
700,162,-0.0231934,-0.0523071,-0.000135918,0.000326166,0.000274229,0.000453707,-0.00026346,1.13546,0.000418885,0.013684,1924,862,-0.0231712,0.0523007
707,162,-0.0302734,-0.0835571,-0.000446129,0.000475163,6.30794e-05,0.000479462,-0.000450428,1.50275,0.00053696,0.0107102,1931,862,-0.0302328,0.0835705
714,162,-0.0236816,-0.116028,-0.000547398,0.00149934,-0.000305662,0.00154401,-0.000592071,-1.42567,0.00127344,0.014426,1938,862,-0.0236219,0.116048
721,162,-0.050293,-0.0667725,-0.000603695,0.00217504,-9.98202e-05,0.00217863,-0.000607277,-1.53494,0.00169158,0.0217212,1945,862,-0.050301,0.0667935
728,162,-0.0498047,-0.0450439,-0.000851812,0.00280586,0.000573283,0.0028936,-0.00093956,1.41891,0.00230694,0.0182165,1952,862,-0.0498097,0.0450728
735,162,-0.0330811,-0.0413818,-0.000827504,0.00578906,0.00158363,0.00614856,-0.001187,1.34757,0.00454665,0.0104689,1959,862,-0.0331288,0.0413649
742,162,-0.0355225,-0.0665283,-0.000908488,0.0106859,0.00244246,0.0111794,-0.00140201,1.37142,0.00796154,0.011948,1966,862,-0.0355203,0.0665052
749,162,-0.0461426,-0.0888672,-0.00118748,0.0158546,0.00412593,0.016801,-0.00213382,1.34533,0.0119755,0.017125,1973,862,-0.0460875,0.0888562
756,162,-0.0561523,-0.0629883,-0.00133809,0.0230662,0.00639924,0.0246424,-0.00291428,1.32929,0.0174809,0.0376517,1980,862,-0.0561016,0.0630025
763,162,-0.207397,-0.109802,-0.00146415,0.0330377,0.00957548,0.0355171,-0.00394351,1.31743,0.0250961,0.0455709,1987,862,-0.207405,0.109811
770,162,-0.0617676,-0.254578,-0.00157159,0.0467028,0.0138692,0.0504036,-0.00527247,1.31003,0.0354907,0.0444265,1994,862,-0.0618179,0.254605
777,162,-0.465332,0.325867,-0.00170593,0.0653328,0.0194948,0.0705897,-0.0069628,1.30741,0.0495441,0.0440402,2001,862,-0.465299,-0.32586
784,162,-0.978516,0.494934,0,0,0,0,0,0,0,-1,2008,862,-0.978517,-0.494912
791,162,0,0,0,0,0,0,0,0,0,-1,2015,862,0,0
798,162,0,0,0,0,0,0,0,0,0,-1,2022,862,0,0
805,162,0,0,0,0,0,0,0,0,0,-1,2029,862,0,0
812,162,0,0,0,0,0,0,0,0,0,-1,2036,862,0,0
-700,155,0,0,0,0,0,0,0,0,0,-1,524,869,0,0
-693,155,0,0,0,0,0,0,0,0,0,-1,531,869,0,0
-686,155,0,0,0,0,0,0,0,0,0,-1,538,869,0,0
-679,155,0,0,0,0,0,0,0,0,0,-1,545,869,0,0
-672,155,0,0,0,0,0,0,0,0,0,-1,552,869,0,0
-665,155,-0.426514,-1.43219,0.0345809,-0.0164149,0.036424,0.0535448,-0.0353787,0.480025,0.0516959,0.0475824,559,869,-0.426506,1.43217
-658,155,-0.50116,-0.482056,0.0333457,-0.0128994,0.0283042,0.0467715,-0.0263252,0.442908,0.0427492,0.0451901,566,869,-0.501172,0.48207
-651,155,-0.182251,0.198486,0,0,0,0,0,0,0,-1,573,869,-0.182222,-0.198465
-644,155,-0.366821,0.784485,0,0,0,0,0,0,0,-1,580,869,-0.366826,-0.784472
-637,155,-0.225464,0.707092,0,0,0,0,0,0,0,-1,587,869,-0.225478,-0.707072
-630,155,-0.142639,0.318909,0.0176518,-0.00453332,0.00771069,0.0200685,-0.00695,0.303723,0.0162004,0.0415147,594,869,-0.14262,-0.318901
-623,155,-0.0326538,-0.0628662,0.013725,-0.00352485,0.00496639,0.0150527,-0.00485254,0.261225,0.0119847,0.0237792,601,869,-0.0326364,0.0628429
-616,155,-0.0375366,-0.0829468,0.010208,-0.00263378,0.00302804,0.0108862,-0.00331196,0.220331,0.00857733,0.012729,608,869,-0.037523,0.0829553
-609,155,-0.0183716,-0.0653687,0.00751234,-0.00124548,0.0013653,0.00772025,-0.00145339,0.151119,0.00569347,0.0117403,615,869,-0.0183498,0.0653541
-602,155,-0.0150757,-0.0601196,0.00471494,-0.00145087,4.45586e-05,0.00471526,-0.00145119,0.00722622,0.00372275,0.0104738,622,869,-0.0150457,0.0601363
-595,155,-0.0252075,-0.0654907,0.00228479,-0.000707974,-0.000668725,0.00242741,-0.000850602,-0.210134,0.00196419,0.00916355,629,869,-0.025225,0.0655119
-588,155,-0.0098877,-0.0537109,0.000861993,-0.000257737,-0.000635882,0.00114936,-0.000545099,-0.424443,0.000998814,0.0102574,636,869,-0.00989438,0.053727
-581,155,-0.00439453,-0.0876465,0.000194186,-0.000704156,-0.000464106,0.000390886,-0.000900855,-0.400875,0.000764915,0.0136345,643,869,-0.00439017,0.0876596
-574,155,-0.0274658,-0.107605,-6.49834e-05,-0.000582779,-8.21868e-05,-5.22514e-05,-0.000595511,-0.153693,0.000380787,0.0190098,650,869,-0.0274725,0.107619
-567,155,-0.0263062,-0.0674438,-0.000103554,-0.000341648,-8.01976e-05,-7.90602e-05,-0.000366141,-0.296415,0.000222474,0.0210323,657,869,-0.0263079,0.0674372
-560,155,-0.0160522,-0.0294189,0.000141196,-0.000192536,-0.00018191,0.000221181,-0.000272521,-0.414253,0.000285552,0.020784,664,869,-0.0160655,0.0294319
-553,155,-0.0393066,-0.129333,0.000339097,1.68543e-05,-0.000136092,0.000388881,-3.29297e-05,-0.350691,0.000270899,0.0310734,671,869,-0.0393279,0.129311
-546,155,-0.0883179,-0.203491,0.000637476,0.000124075,-7.04715e-05,0.000646973,0.000114578,-0.133964,0.00039865,0.0326176,678,869,-0.0883421,0.203482
-539,155,-0.0638428,-0.142944,0.00118478,0.000259849,-2.2687e-06,0.00118478,0.000259843,-0.00245282,0.000719065,0.040703,685,869,-0.0638381,0.142972
-532,155,-0.0210571,-0.0531616,0.00180658,0.000421258,9.93911e-05,0.00181367,0.000414163,0.0712595,0.00109743,0.0326127,692,869,-0.021087,0.0531783
-525,155,-0.0296021,-0.0379639,0.00262276,0.000642916,0.000267219,0.00265819,0.000607483,0.131828,0.00160834,0.0346055,699,869,-0.0296318,0.0379533
-518,155,-0.0265503,-0.212524,0.00362384,0.000827582,0.000473732,0.00370191,0.000749504,0.163346,0.00225992,0.037396,706,869,-0.0265324,0.212513
-511,155,0.0648193,-0.339661,0.00487785,0.000873543,0.000694064,0.00499474,0.000756653,0.166847,0.00310846,0.0377485,713,869,0.06482,0.339638
-504,155,0.0827637,-0.25293,0.00649464,0.000597992,0.000882994,0.00662403,0.000468607,0.145495,0.0042684,0.0380408,720,869,0.0827445,0.252915
-497,155,0,0,0,0,0,0,0,0,0,-1,727,869,0,0
-490,155,0,0,0,0,0,0,0,0,0,-1,734,869,0,0
-483,155,0,0,0,0,0,0,0,0,0,-1,741,869,0,0
-476,155,0,0,0,0,0,0,0,0,0,-1,748,869,0,0
-469,155,0,0,0,0,0,0,0,0,0,-1,755,869,0,0
-462,155,0,0,0,0,0,0,0,0,0,-1,762,869,0,0
-455,155,0,0,0,0,0,0,0,0,0,-1,769,869,0,0
-448,155,0,0,0,0,0,0,0,0,0,-1,776,869,0,0
-441,155,0,0,0,0,0,0,0,0,0,-1,783,869,0,0
-434,155,0,0,0,0,0,0,0,0,0,-1,790,869,0,0
-427,155,0,0,0,0,0,0,0,0,0,-1,797,869,0,0
-420,155,0,0,0,0,0,0,0,0,0,-1,804,869,0,0
-413,155,0,0,0,0,0,0,0,0,0,-1,811,869,0,0
-406,155,0,0,0,0,0,0,0,0,0,-1,818,869,0,0
-399,155,0,0,0,0,0,0,0,0,0,-1,825,869,0,0
-392,155,0,0,0,0,0,0,0,0,0,-1,832,869,0,0
-385,155,0,0,0,0,0,0,0,0,0,-1,839,869,0,0
-378,155,0,0,0,0,0,0,0,0,0,-1,846,869,0,0
-371,155,0,0,0,0,0,0,0,0,0,-1,853,869,0,0
-364,155,0,0,0,0,0,0,0,0,0,-1,860,869,0,0
-357,155,0,0,0,0,0,0,0,0,0,-1,867,869,0,0
-350,155,0,0,0,0,0,0,0,0,0,-1,874,869,0,0
-343,155,0,0,0,0,0,0,0,0,0,-1,881,869,0,0
-336,155,0,0,0,0,0,0,0,0,0,-1,888,869,0,0
-329,155,0,0,0,0,0,0,0,0,0,-1,895,869,0,0
-322,155,0,0,0,0,0,0,0,0,0,-1,902,869,0,0
-315,155,0,0,0,0,0,0,0,0,0,-1,909,869,0,0
-308,155,0,0,0,0,0,0,0,0,0,-1,916,869,0,0
-301,155,0,0,0,0,0,0,0,0,0,-1,923,869,0,0
-294,155,0,0,0,0,0,0,0,0,0,-1,930,869,0,0
-287,155,0,0,0,0,0,0,0,0,0,-1,937,869,0,0
-280,155,0,0,0,0,0,0,0,0,0,-1,944,869,0,0
-273,155,0,0,0,0,0,0,0,0,0,-1,951,869,0,0
-266,155,0,0,0,0,0,0,0,0,0,-1,958,869,0,0
-259,155,0,0,0,0,0,0,0,0,0,-1,965,869,0,0
-252,155,0,0,0,0,0,0,0,0,0,-1,972,869,0,0
-245,155,0,0,0,0,0,0,0,0,0,-1,979,869,0,0
-238,155,0,0,0,0,0,0,0,0,0,-1,986,869,0,0
-231,155,0,0,0,0,0,0,0,0,0,-1,993,869,0,0
-224,155,0,0,0,0,0,0,0,0,0,-1,1000,869,0,0
-217,155,0,0,0,0,0,0,0,0,0,-1,1007,869,0,0
-210,155,0,0,0,0,0,0,0,0,0,-1,1014,869,0,0
-203,155,0,0,0,0,0,0,0,0,0,-1,1021,869,0,0
-196,155,0,0,0,0,0,0,0,0,0,-1,1028,869,0,0
-189,155,0,0,0,0,0,0,0,0,0,-1,1035,869,0,0
-182,155,0,0,0,0,0,0,0,0,0,-1,1042,869,0,0
-175,155,0,0,0,0,0,0,0,0,0,-1,1049,869,0,0
-168,155,0,0,0,0,0,0,0,0,0,-1,1056,869,0,0
-161,155,0,0,0,0,0,0,0,0,0,-1,1063,869,0,0
-154,155,0,0,0,0,0,0,0,0,0,-1,1070,869,0,0
-147,155,0,0,0,0,0,0,0,0,0,-1,1077,869,0,0
-140,155,0,0,0,0,0,0,0,0,0,-1,1084,869,0,0
-133,155,0,0,0,0,0,0,0,0,0,-1,1091,869,0,0
-126,155,0,0,0,0,0,0,0,0,0,-1,1098,869,0,0
-119,155,0,0,0,0,0,0,0,0,0,-1,1105,869,0,0
-112,155,0,0,0,0,0,0,0,0,0,-1,1112,869,0,0
-105,155,0,0,0,0,0,0,0,0,0,-1,1119,869,0,0
-98,155,0,0,0,0,0,0,0,0,0,-1,1126,869,0,0
-91,155,0,0,0,0,0,0,0,0,0,-1,1133,869,0,0
-84,155,0,0,0,0,0,0,0,0,0,-1,1140,869,0,0
-77,155,0,0,0,0,0,0,0,0,0,-1,1147,869,0,0
-70,155,0,0,0,0,0,0,0,0,0,-1,1154,869,0,0
-63,155,0,0,0,0,0,0,0,0,0,-1,1161,869,0,0
-56,155,0,0,0,0,0,0,0,0,0,-1,1168,869,0,0
-49,155,0,0,0,0,0,0,0,0,0,-1,1175,869,0,0
-42,155,0,0,0,0,0,0,0,0,0,-1,1182,869,0,0
-35,155,0,0,0,0,0,0,0,0,0,-1,1189,869,0,0
-28,155,0,0,0,0,0,0,0,0,0,-1,1196,869,0,0
-21,155,0,0,0,0,0,0,0,0,0,-1,1203,869,0,0
-14,155,0,0,0,0,0,0,0,0,0,-1,1210,869,0,0
-7,155,0,0,0,0,0,0,0,0,0,-1,1217,869,0,0
0,155,0,0,0,0,0,0,0,0,0,-1,1224,869,0,0
7,155,0,0,0,0,0,0,0,0,0,-1,1231,869,0,0
14,155,0,0,0,0,0,0,0,0,0,-1,1238,869,0,0
21,155,0,0,0,0,0,0,0,0,0,-1,1245,869,0,0
28,155,0,0,0,0,0,0,0,0,0,-1,1252,869,0,0
35,155,0,0,0,0,0,0,0,0,0,-1,1259,869,0,0
42,155,0,0,0,0,0,0,0,0,0,-1,1266,869,0,0
49,155,0,0,0,0,0,0,0,0,0,-1,1273,869,0,0
56,155,0,0,0,0,0,0,0,0,0,-1,1280,869,0,0
63,155,0,0,0,0,0,0,0,0,0,-1,1287,869,0,0
70,155,0,0,0,0,0,0,0,0,0,-1,1294,869,0,0
77,155,0,0,0,0,0,0,0,0,0,-1,1301,869,0,0
84,155,0,0,0,0,0,0,0,0,0,-1,1308,869,0,0
91,155,0,0,0,0,0,0,0,0,0,-1,1315,869,0,0
98,155,0,0,0,0,0,0,0,0,0,-1,1322,869,0,0
105,155,0,0,0,0,0,0,0,0,0,-1,1329,869,0,0
112,155,0,0,0,0,0,0,0,0,0,-1,1336,869,0,0
119,155,0,0,0,0,0,0,0,0,0,-1,1343,869,0,0
126,155,0,0,0,0,0,0,0,0,0,-1,1350,869,0,0
133,155,0,0,0,0,0,0,0,0,0,-1,1357,869,0,0
140,155,0,0,0,0,0,0,0,0,0,-1,1364,869,0,0
147,155,0,0,0,0,0,0,0,0,0,-1,1371,869,0,0
154,155,0,0,0,0,0,0,0,0,0,-1,1378,869,0,0
161,155,0,0,0,0,0,0,0,0,0,-1,1385,869,0,0
168,155,0,0,0,0,0,0,0,0,0,-1,1392,869,0,0
175,155,0,0,0,0,0,0,0,0,0,-1,1399,869,0,0
182,155,0,0,0,0,0,0,0,0,0,-1,1406,869,0,0
189,155,0,0,0,0,0,0,0,0,0,-1,1413,869,0,0
196,155,0,0,0,0,0,0,0,0,0,-1,1420,869,0,0
203,155,0,0,0,0,0,0,0,0,0,-1,1427,869,0,0
210,155,0,0,0,0,0,0,0,0,0,-1,1434,869,0,0
217,155,0,0,0,0,0,0,0,0,0,-1,1441,869,0,0
224,155,0,0,0,0,0,0,0,0,0,-1,1448,869,0,0
231,155,0,0,0,0,0,0,0,0,0,-1,1455,869,0,0
238,155,0,0,0,0,0,0,0,0,0,-1,1462,869,0,0
245,155,0,0,0,0,0,0,0,0,0,-1,1469,869,0,0
252,155,0,0,0,0,0,0,0,0,0,-1,1476,869,0,0
259,155,0,0,0,0,0,0,0,0,0,-1,1483,869,0,0
266,155,0,0,0,0,0,0,0,0,0,-1,1490,869,0,0
273,155,0,0,0,0,0,0,0,0,0,-1,1497,869,0,0
280,155,0,0,0,0,0,0,0,0,0,-1,1504,869,0,0
287,155,0,0,0,0,0,0,0,0,0,-1,1511,869,0,0
294,155,0,0,0,0,0,0,0,0,0,-1,1518,869,0,0
301,155,0,0,0,0,0,0,0,0,0,-1,1525,869,0,0
308,155,0,0,0,0,0,0,0,0,0,-1,1532,869,0,0
315,155,0,0,0,0,0,0,0,0,0,-1,1539,869,0,0
322,155,0,0,0,0,0,0,0,0,0,-1,1546,869,0,0
329,155,0,0,0,0,0,0,0,0,0,-1,1553,869,0,0
336,155,0,0,0,0,0,0,0,0,0,-1,1560,869,0,0
343,155,0,0,0,0,0,0,0,0,0,-1,1567,869,0,0
350,155,0,0,0,0,0,0,0,0,0,-1,1574,869,0,0
357,155,0,0,0,0,0,0,0,0,0,-1,1581,869,0,0
364,155,0,0,0,0,0,0,0,0,0,-1,1588,869,0,0
371,155,0,0,0,0,0,0,0,0,0,-1,1595,869,0,0
378,155,0,0,0,0,0,0,0,0,0,-1,1602,869,0,0
385,155,0,0,0,0,0,0,0,0,0,-1,1609,869,0,0
392,155,0,0,0,0,0,0,0,0,0,-1,1616,869,0,0
399,155,0,0,0,0,0,0,0,0,0,-1,1623,869,0,0
406,155,0,0,0,0,0,0,0,0,0,-1,1630,869,0,0
413,155,0,0,0,0,0,0,0,0,0,-1,1637,869,0,0
420,155,0,0,0,0,0,0,0,0,0,-1,1644,869,0,0
427,155,0,0,0,0,0,0,0,0,0,-1,1651,869,0,0
434,155,0,0,0,0,0,0,0,0,0,-1,1658,869,0,0
441,155,0,0,0,0,0,0,0,0,0,-1,1665,869,0,0
448,155,0,0,0,0,0,0,0,0,0,-1,1672,869,0,0
455,155,0,0,0,0,0,0,0,0,0,-1,1679,869,0,0
462,155,0,0,0,0,0,0,0,0,0,-1,1686,869,0,0
469,155,0,0,0,0,0,0,0,0,0,-1,1693,869,0,0
476,155,0,0,0,0,0,0,0,0,0,-1,1700,869,0,0
483,155,0,0,0,0,0,0,0,0,0,-1,1707,869,0,0
490,155,0,0,0,0,0,0,0,0,0,-1,1714,869,0,0
497,155,0,0,0,0,0,0,0,0,0,-1,1721,869,0,0
504,155,0,0,0,0,0,0,0,0,0,-1,1728,869,0,0
511,155,0,0,0,0,0,0,0,0,0,-1,1735,869,0,0
518,155,0,0,0,0,0,0,0,0,0,-1,1742,869,0,0
525,155,0,0,0,0,0,0,0,0,0,-1,1749,869,0,0
532,155,0,0,0,0,0,0,0,0,0,-1,1756,869,0,0
539,155,0,0,0,0,0,0,0,0,0,-1,1763,869,0,0
546,155,0,0,0,0,0,0,0,0,0,-1,1770,869,0,0
553,155,0,0,0,0,0,0,0,0,0,-1,1777,869,0,0
560,155,0,0,0,0,0,0,0,0,0,-1,1784,869,0,0
567,155,0,0,0,0,0,0,0,0,0,-1,1791,869,0,0
574,155,0,0,0,0,0,0,0,0,0,-1,1798,869,0,0
581,155,0,0,0,0,0,0,0,0,0,-1,1805,869,0,0
588,155,0,0,0,0,0,0,0,0,0,-1,1812,869,0,0
595,155,0,0,0,0,0,0,0,0,0,-1,1819,869,0,0
602,155,0,0,0,0,0,0,0,0,0,-1,1826,869,0,0
609,155,0,0,0,0,0,0,0,0,0,-1,1833,869,0,0
616,155,-0.026001,-0.1203,-0.00244908,0.00207634,0.000290593,0.00209493,-0.00246766,1.50693,0.00263714,0.0427253,1840,869,-0.0260127,0.12029
623,155,0.00769043,0.06604,-0.00132998,0.00108276,0.000137491,0.00109057,-0.00133779,1.51406,0.00140443,0.0423304,1847,869,0.00770599,-0.0660172
630,155,-0.0799561,0.118042,-0.000549888,0.000604325,5.78078e-06,0.000604354,-0.000549916,1.56579,0.000666666,0.0392084,1854,869,-0.0799544,-0.118046
637,155,-0.081543,-0.0217896,-1.52485e-05,0.000384448,-5.20536e-05,0.000391116,-2.19163e-05,-1.44339,0.000268348,0.0368423,1861,869,-0.0814879,0.0217686
644,155,-0.0385742,-0.0863647,0.000272892,0.000305303,-3.26411e-05,0.00032554,0.000252655,-1.01581,0.000197272,0.0324097,1868,869,-0.038544,0.0863637
651,155,-0.0238037,-0.0791626,0.000388418,0.000301568,1.25844e-06,0.000388437,0.000301549,0.0144855,0.000235403,0.0281873,1875,869,-0.0238247,0.0791706
658,155,-0.032959,-0.0667114,0.000419804,0.000320707,4.05026e-05,0.000434252,0.000306259,0.342641,0.000257661,0.0234891,1882,869,-0.0330084,0.0667231
665,155,-0.0219727,-0.114502,0.000365168,0.000327946,5.14739e-05,0.000401292,0.000291822,0.611931,0.000239527,0.0269167,1889,869,-0.0219235,0.114519
672,155,-0.00463867,-0.11261,0.000273506,0.000294592,1.30366e-05,0.000300815,0.000267283,1.12542,0.000190353,0.0338304,1896,869,-0.00468736,0.112634
679,155,-0.029541,-0.0224609,0.000223484,0.000280566,3.85043e-05,0.000299954,0.000204096,1.10434,0.000176897,0.0350414,1903,869,-0.029544,0.0224405
686,155,-0.00915527,-0.036438,9.30172e-05,0.000261929,6.60614e-05,0.000284697,7.02495e-05,1.2389,0.000171254,0.0244913,1910,869,-0.00919836,0.0364103
693,155,-0.0192871,-0.0615845,-6.07736e-06,0.000262894,0.000122274,0.00031017,-5.33535e-05,1.20186,0.000226667,0.0144865,1917,869,-0.0193043,0.0615542
700,155,-0.0290527,-0.0583496,-0.000155297,0.000237806,0.000226754,0.000341338,-0.000258828,1.14248,0.000347596,0.0129754,1924,869,-0.0290685,0.0583731
707,155,-0.0216064,-0.0641479,-0.00042784,0.000331979,6.42504e-05,0.000337374,-0.000433235,1.48703,0.000446057,0.0100878,1931,869,-0.0216411,0.0641741
714,155,-0.0471191,-0.0751343,-0.000496291,0.00117439,-0.000297226,0.0012257,-0.000547594,-1.39987,0.00104846,0.0176872,1938,869,-0.0471705,0.0751093
721,155,-0.0693359,-0.057312,-0.000556639,0.00168348,-0.000273205,0.00171632,-0.000589478,-1.45117,0.00138323,0.0239074,1945,869,-0.0693216,0.0573179
728,155,-0.0565186,-0.0405884,-0.000708702,0.00205588,0.000251004,0.00207848,-0.000731307,1.48098,0.00168324,0.0188104,1952,869,-0.0565204,0.0406092
735,155,-0.0244141,-0.0475464,-0.000482434,0.00506739,0.00127225,0.00534514,-0.000760184,1.35585,0.00384197,0.0139343,1959,869,-0.0243688,0.0475751
742,155,-0.0322266,-0.0546875,-0.00046444,0.00996755,0.00214908,0.0103929,-0.000889822,1.37539,0.00724347,0.0152119,1966,869,-0.0322515,0.0546872
749,155,-0.0484619,-0.0689697,-0.00069868,0.0150557,0.00393454,0.0159837,-0.00162664,1.33918,0.0112373,0.0132162,1973,869,-0.0484068,0.0689455
756,155,-0.0874023,-0.0498657,-0.000728288,0.0222629,0.00627786,0.0238654,-0.00233079,1.32087,0.0167414,0.0226339,1980,869,-0.0874392,0.0498589
763,155,-0.130249,-0.0668945,-0.000783159,0.032329,0.00962168,0.0349218,-0.00337598,1.30757,0.0244842,0.0406361,1987,869,-0.130226,0.0669085
770,155,-0.147827,-0.226807,-0.000922412,0.0461781,0.0142206,0.0501385,-0.00488286,1.29918,0.0351665,0.04595,1994,869,-0.147812,0.226825
777,155,-0.343018,-0.101074,-0.00126912,0.0650061,0.0203297,0.0707452,-0.00700823,1.29566,0.0496647,0.0450076,2001,869,-0.34302,0.101068
784,155,-0.579346,0.391846,-0.00208059,0.0904068,0.0281493,0.0983005,-0.00997431,1.29739,0.0690988,0.0455643,2008,869,-0.5794,-0.391866
791,155,0,0,0,0,0,0,0,0,0,-1,2015,869,0,0
798,155,0,0,0,0,0,0,0,0,0,-1,2022,869,0,0
805,155,0,0,0,0,0,0,0,0,0,-1,2029,869,0,0
812,155,0,0,0,0,0,0,0,0,0,-1,2036,869,0,0
-700,148,0,0,0,0,0,0,0,0,0,-1,524,876,0,0
-693,148,0,0,0,0,0,0,0,0,0,-1,531,876,0,0
-686,148,0,0,0,0,0,0,0,0,0,-1,538,876,0,0
-679,148,0,0,0,0,0,0,0,0,0,-1,545,876,0,0
-672,148,-0.309509,0.768738,0,0,0,0,0,0,0,-1,552,876,-0.309527,-0.768755
-665,148,-0.395386,0.518433,0.0368059,-0.00881122,0.0293105,0.0511367,-0.0231421,0.454755,0.0438884,0.0468953,559,876,-0.395394,-0.518461
-658,148,-0.44165,0.286011,0.0350881,-0.00631838,0.0225233,0.0449777,-0.016208,0.41374,0.0366042,0.0458381,566,876,-0.441659,-0.286019
-651,148,-0.39624,0.197937,0.0316434,-0.00446579,0.0168135,0.0382599,-0.0110823,0.37491,0.0298935,0.0408237,573,876,-0.396259,-0.197927
-644,148,-0.444214,0.528076,0.0273689,-0.00309856,0.0120633,0.0315668,-0.0072965,0.334886,0.0238517,0.0419821,580,876,-0.444197,-0.528058
-637,148,-0.224976,0.621765,0,0,0,0,0,0,0,-1,587,876,-0.22497,-0.621787
-630,148,-0.0789185,0.327148,0.0183369,-0.0014064,0.00523117,0.0196373,-0.00270679,0.243647,0.0140808,0.0381914,594,876,-0.0789304,-0.327143
-623,148,-0.0162354,-0.0667114,0.0142115,-0.0011042,0.00301945,0.0147853,-0.00167798,0.187789,0.0104611,0.0194348,601,876,-0.0162052,0.0667315
-616,148,-0.0106812,-0.0739136,0.0105367,-0.000812263,0.00154122,0.0107422,-0.00101784,0.132605,0.00752376,0.0111139,608,876,-0.0107002,0.0739278
-609,148,-0.00762939,-0.0639648,0.00776531,0.000190267,0.000284428,0.00777597,0.000179602,0.0374777,0.00512516,0.010209,615,876,-0.00763154,0.0639548
-602,148,-0.0124512,-0.0712891,0.0048328,-0.000467701,-0.000678672,0.00491832,-0.000553218,-0.125346,0.00347798,0.00996524,622,876,-0.0124213,0.071276
-595,148,-0.0261841,-0.0805664,0.00230941,-0.000128337,-0.00122303,0.00281723,-0.000636155,-0.393551,0.00212223,0.00857748,629,876,-0.0261592,0.0805527
-588,148,-0.0238037,-0.0739136,0.000862777,3.39137e-05,-0.000938987,0.00147472,-0.000578032,-0.577575,0.00122227,0.011306,636,876,-0.0238266,0.0739269
-581,148,-0.0106201,-0.0779419,0.000194887,-0.000498955,-0.000588406,0.000531029,-0.000835098,-0.519032,0.00079522,0.0150441,643,876,-0.0106201,0.077934
-574,148,0.000488281,-0.0792236,-8.42996e-05,-0.000525734,-0.000143231,-4.18986e-05,-0.000568135,-0.287813,0.000365592,0.0196593,650,876,0.000502635,0.0792271
-567,148,-0.010376,-0.0703735,-0.000129024,-0.000418911,-0.000151186,-6.45263e-05,-0.000483409,-0.403238,0.000303062,0.0242013,657,876,-0.0103724,0.0703567
-560,148,-0.0112915,-0.03479,0.00015058,-0.000439658,-0.000290091,0.000269282,-0.00055836,-0.388403,0.000487458,0.0263591,664,876,-0.0113028,0.0348125
-553,148,-0.0151978,-0.0765991,0.000385496,-0.000388173,-0.000293922,0.000484491,-0.000487168,-0.324876,0.000560989,0.0330898,671,876,-0.0151932,0.0765865
-546,148,-0.0384521,-0.155518,0.000727439,-0.000422398,-0.000290824,0.000796811,-0.00049177,-0.23416,0.000750879,0.0354315,678,876,-0.0384279,0.155509
-539,148,-0.0391846,-0.107666,0.00131966,-0.000427336,-0.000286497,0.00136545,-0.000473119,-0.158466,0.00110238,0.0323423,685,876,-0.0391827,0.107692
-532,148,-0.0426025,-0.0377808,0.00205558,-0.000401064,-0.000244266,0.00207963,-0.000425116,-0.0981506,0.00154771,0.0313764,692,876,-0.0426301,0.0377516
-525,148,-0.0344238,-0.0255127,0.00305025,-0.000292146,-0.000127078,0.00305508,-0.00029697,-0.0379468,0.00214258,0.0331511,699,876,-0.0344252,0.0255383
-518,148,-0.0681763,-0.260071,0.00431771,-0.000117601,7.91612e-05,0.00431913,-0.000119013,0.0178404,0.0029199,0.0388902,706,876,-0.0681644,0.260059
-511,148,0.0481567,-0.39563,0.00595587,0.000105155,0.000399918,0.00598308,7.79459e-05,0.0679327,0.00396299,0.0371478,713,876,0.0481616,0.395656
-504,148,0.183838,-0.299316,0.00808781,0.000307304,0.000856369,0.00818096,0.000214162,0.108338,0.005384,0.0368479,720,876,0.183844,0.299332
-497,148,0,0,0,0,0,0,0,0,0,-1,727,876,0,0
-490,148,0,0,0,0,0,0,0,0,0,-1,734,876,0,0
-483,148,0,0,0,0,0,0,0,0,0,-1,741,876,0,0
-476,148,0,0,0,0,0,0,0,0,0,-1,748,876,0,0
-469,148,0,0,0,0,0,0,0,0,0,-1,755,876,0,0
-462,148,0,0,0,0,0,0,0,0,0,-1,762,876,0,0
-455,148,0,0,0,0,0,0,0,0,0,-1,769,876,0,0
-448,148,0,0,0,0,0,0,0,0,0,-1,776,876,0,0
-441,148,0,0,0,0,0,0,0,0,0,-1,783,876,0,0
-434,148,0,0,0,0,0,0,0,0,0,-1,790,876,0,0
-427,148,0,0,0,0,0,0,0,0,0,-1,797,876,0,0
-420,148,0,0,0,0,0,0,0,0,0,-1,804,876,0,0
-413,148,0,0,0,0,0,0,0,0,0,-1,811,876,0,0
-406,148,0,0,0,0,0,0,0,0,0,-1,818,876,0,0
-399,148,0,0,0,0,0,0,0,0,0,-1,825,876,0,0
-392,148,0,0,0,0,0,0,0,0,0,-1,832,876,0,0
-385,148,0,0,0,0,0,0,0,0,0,-1,839,876,0,0
-378,148,0,0,0,0,0,0,0,0,0,-1,846,876,0,0
-371,148,0,0,0,0,0,0,0,0,0,-1,853,876,0,0
-364,148,0,0,0,0,0,0,0,0,0,-1,860,876,0,0
-357,148,0,0,0,0,0,0,0,0,0,-1,867,876,0,0
-350,148,0,0,0,0,0,0,0,0,0,-1,874,876,0,0
-343,148,0,0,0,0,0,0,0,0,0,-1,881,876,0,0
-336,148,0,0,0,0,0,0,0,0,0,-1,888,876,0,0
-329,148,0,0,0,0,0,0,0,0,0,-1,895,876,0,0
-322,148,0,0,0,0,0,0,0,0,0,-1,902,876,0,0
-315,148,0,0,0,0,0,0,0,0,0,-1,909,876,0,0
-308,148,0,0,0,0,0,0,0,0,0,-1,916,876,0,0
-301,148,0,0,0,0,0,0,0,0,0,-1,923,876,0,0
-294,148,0,0,0,0,0,0,0,0,0,-1,930,876,0,0
-287,148,0,0,0,0,0,0,0,0,0,-1,937,876,0,0
-280,148,0,0,0,0,0,0,0,0,0,-1,944,876,0,0
-273,148,0,0,0,0,0,0,0,0,0,-1,951,876,0,0
-266,148,0,0,0,0,0,0,0,0,0,-1,958,876,0,0
-259,148,0,0,0,0,0,0,0,0,0,-1,965,876,0,0
-252,148,0,0,0,0,0,0,0,0,0,-1,972,876,0,0
-245,148,0,0,0,0,0,0,0,0,0,-1,979,876,0,0
-238,148,0,0,0,0,0,0,0,0,0,-1,986,876,0,0
-231,148,0,0,0,0,0,0,0,0,0,-1,993,876,0,0
-224,148,0,0,0,0,0,0,0,0,0,-1,1000,876,0,0
-217,148,0,0,0,0,0,0,0,0,0,-1,1007,876,0,0
-210,148,0,0,0,0,0,0,0,0,0,-1,1014,876,0,0
-203,148,0,0,0,0,0,0,0,0,0,-1,1021,876,0,0
-196,148,0,0,0,0,0,0,0,0,0,-1,1028,876,0,0
-189,148,0,0,0,0,0,0,0,0,0,-1,1035,876,0,0
-182,148,0,0,0,0,0,0,0,0,0,-1,1042,876,0,0
-175,148,0,0,0,0,0,0,0,0,0,-1,1049,876,0,0
-168,148,0,0,0,0,0,0,0,0,0,-1,1056,876,0,0
-161,148,0,0,0,0,0,0,0,0,0,-1,1063,876,0,0
-154,148,0,0,0,0,0,0,0,0,0,-1,1070,876,0,0
-147,148,0,0,0,0,0,0,0,0,0,-1,1077,876,0,0
-140,148,0,0,0,0,0,0,0,0,0,-1,1084,876,0,0
-133,148,0,0,0,0,0,0,0,0,0,-1,1091,876,0,0
-126,148,0,0,0,0,0,0,0,0,0,-1,1098,876,0,0
-119,148,0,0,0,0,0,0,0,0,0,-1,1105,876,0,0
-112,148,0,0,0,0,0,0,0,0,0,-1,1112,876,0,0
-105,148,0,0,0,0,0,0,0,0,0,-1,1119,876,0,0
-98,148,0,0,0,0,0,0,0,0,0,-1,1126,876,0,0
-91,148,0,0,0,0,0,0,0,0,0,-1,1133,876,0,0
-84,148,0,0,0,0,0,0,0,0,0,-1,1140,876,0,0
-77,148,0,0,0,0,0,0,0,0,0,-1,1147,876,0,0
-70,148,0,0,0,0,0,0,0,0,0,-1,1154,876,0,0
-63,148,0,0,0,0,0,0,0,0,0,-1,1161,876,0,0
-56,148,0,0,0,0,0,0,0,0,0,-1,1168,876,0,0
-49,148,0,0,0,0,0,0,0,0,0,-1,1175,876,0,0
-42,148,0,0,0,0,0,0,0,0,0,-1,1182,876,0,0
-35,148,0,0,0,0,0,0,0,0,0,-1,1189,876,0,0
-28,148,0,0,0,0,0,0,0,0,0,-1,1196,876,0,0
-21,148,0,0,0,0,0,0,0,0,0,-1,1203,876,0,0
-14,148,0,0,0,0,0,0,0,0,0,-1,1210,876,0,0
-7,148,0,0,0,0,0,0,0,0,0,-1,1217,876,0,0
0,148,0,0,0,0,0,0,0,0,0,-1,1224,876,0,0
7,148,0,0,0,0,0,0,0,0,0,-1,1231,876,0,0
14,148,0,0,0,0,0,0,0,0,0,-1,1238,876,0,0
21,148,0,0,0,0,0,0,0,0,0,-1,1245,876,0,0
28,148,0,0,0,0,0,0,0,0,0,-1,1252,876,0,0
35,148,0,0,0,0,0,0,0,0,0,-1,1259,876,0,0
42,148,0,0,0,0,0,0,0,0,0,-1,1266,876,0,0
49,148,0,0,0,0,0,0,0,0,0,-1,1273,876,0,0
56,148,0,0,0,0,0,0,0,0,0,-1,1280,876,0,0
63,148,0,0,0,0,0,0,0,0,0,-1,1287,876,0,0
70,148,0,0,0,0,0,0,0,0,0,-1,1294,876,0,0
77,148,0,0,0,0,0,0,0,0,0,-1,1301,876,0,0
84,148,0,0,0,0,0,0,0,0,0,-1,1308,876,0,0
91,148,0,0,0,0,0,0,0,0,0,-1,1315,876,0,0
98,148,0,0,0,0,0,0,0,0,0,-1,1322,876,0,0
105,148,0,0,0,0,0,0,0,0,0,-1,1329,876,0,0
112,148,0,0,0,0,0,0,0,0,0,-1,1336,876,0,0
119,148,0,0,0,0,0,0,0,0,0,-1,1343,876,0,0
126,148,0,0,0,0,0,0,0,0,0,-1,1350,876,0,0
133,148,0,0,0,0,0,0,0,0,0,-1,1357,876,0,0
140,148,0,0,0,0,0,0,0,0,0,-1,1364,876,0,0
147,148,0,0,0,0,0,0,0,0,0,-1,1371,876,0,0
154,148,0,0,0,0,0,0,0,0,0,-1,1378,876,0,0
161,148,0,0,0,0,0,0,0,0,0,-1,1385,876,0,0
168,148,0,0,0,0,0,0,0,0,0,-1,1392,876,0,0
175,148,0,0,0,0,0,0,0,0,0,-1,1399,876,0,0
182,148,0,0,0,0,0,0,0,0,0,-1,1406,876,0,0
189,148,0,0,0,0,0,0,0,0,0,-1,1413,876,0,0
196,148,0,0,0,0,0,0,0,0,0,-1,1420,876,0,0
203,148,0,0,0,0,0,0,0,0,0,-1,1427,876,0,0
210,148,0,0,0,0,0,0,0,0,0,-1,1434,876,0,0
217,148,0,0,0,0,0,0,0,0,0,-1,1441,876,0,0
224,148,0,0,0,0,0,0,0,0,0,-1,1448,876,0,0
231,148,0,0,0,0,0,0,0,0,0,-1,1455,876,0,0
238,148,0,0,0,0,0,0,0,0,0,-1,1462,876,0,0
245,148,0,0,0,0,0,0,0,0,0,-1,1469,876,0,0
252,148,0,0,0,0,0,0,0,0,0,-1,1476,876,0,0
259,148,0,0,0,0,0,0,0,0,0,-1,1483,876,0,0
266,148,0,0,0,0,0,0,0,0,0,-1,1490,876,0,0
273,148,0,0,0,0,0,0,0,0,0,-1,1497,876,0,0
280,148,0,0,0,0,0,0,0,0,0,-1,1504,876,0,0
287,148,0,0,0,0,0,0,0,0,0,-1,1511,876,0,0
294,148,0,0,0,0,0,0,0,0,0,-1,1518,876,0,0
301,148,0,0,0,0,0,0,0,0,0,-1,1525,876,0,0
308,148,0,0,0,0,0,0,0,0,0,-1,1532,876,0,0
315,148,0,0,0,0,0,0,0,0,0,-1,1539,876,0,0
322,148,0,0,0,0,0,0,0,0,0,-1,1546,876,0,0
329,148,0,0,0,0,0,0,0,0,0,-1,1553,876,0,0
336,148,0,0,0,0,0,0,0,0,0,-1,1560,876,0,0
343,148,0,0,0,0,0,0,0,0,0,-1,1567,876,0,0
350,148,0,0,0,0,0,0,0,0,0,-1,1574,876,0,0
357,148,0,0,0,0,0,0,0,0,0,-1,1581,876,0,0
364,148,0,0,0,0,0,0,0,0,0,-1,1588,876,0,0
371,148,0,0,0,0,0,0,0,0,0,-1,1595,876,0,0
378,148,0,0,0,0,0,0,0,0,0,-1,1602,876,0,0
385,148,0,0,0,0,0,0,0,0,0,-1,1609,876,0,0
392,148,0,0,0,0,0,0,0,0,0,-1,1616,876,0,0
399,148,0,0,0,0,0,0,0,0,0,-1,1623,876,0,0
406,148,0,0,0,0,0,0,0,0,0,-1,1630,876,0,0
413,148,0,0,0,0,0,0,0,0,0,-1,1637,876,0,0
420,148,0,0,0,0,0,0,0,0,0,-1,1644,876,0,0
427,148,0,0,0,0,0,0,0,0,0,-1,1651,876,0,0
434,148,0,0,0,0,0,0,0,0,0,-1,1658,876,0,0
441,148,0,0,0,0,0,0,0,0,0,-1,1665,876,0,0
448,148,0,0,0,0,0,0,0,0,0,-1,1672,876,0,0
455,148,0,0,0,0,0,0,0,0,0,-1,1679,876,0,0
462,148,0,0,0,0,0,0,0,0,0,-1,1686,876,0,0
469,148,0,0,0,0,0,0,0,0,0,-1,1693,876,0,0
476,148,0,0,0,0,0,0,0,0,0,-1,1700,876,0,0
483,148,0,0,0,0,0,0,0,0,0,-1,1707,876,0,0
490,148,0,0,0,0,0,0,0,0,0,-1,1714,876,0,0
497,148,0,0,0,0,0,0,0,0,0,-1,1721,876,0,0
504,148,0,0,0,0,0,0,0,0,0,-1,1728,876,0,0
511,148,0,0,0,0,0,0,0,0,0,-1,1735,876,0,0
518,148,0,0,0,0,0,0,0,0,0,-1,1742,876,0,0
525,148,0,0,0,0,0,0,0,0,0,-1,1749,876,0,0
532,148,0,0,0,0,0,0,0,0,0,-1,1756,876,0,0
539,148,0,0,0,0,0,0,0,0,0,-1,1763,876,0,0
546,148,0,0,0,0,0,0,0,0,0,-1,1770,876,0,0
553,148,0,0,0,0,0,0,0,0,0,-1,1777,876,0,0
560,148,0,0,0,0,0,0,0,0,0,-1,1784,876,0,0
567,148,0,0,0,0,0,0,0,0,0,-1,1791,876,0,0
574,148,0,0,0,0,0,0,0,0,0,-1,1798,876,0,0
581,148,0,0,0,0,0,0,0,0,0,-1,1805,876,0,0
588,148,0,0,0,0,0,0,0,0,0,-1,1812,876,0,0
595,148,0,0,0,0,0,0,0,0,0,-1,1819,876,0,0
602,148,0,0,0,0,0,0,0,0,0,-1,1826,876,0,0
609,148,0,0,0,0,0,0,0,0,0,-1,1833,876,0,0
616,148,0,0,0,0,0,0,0,0,0,-1,1840,876,0,0
623,148,-0.0601807,0.0625,-0.0012083,0.00127036,0.000145781,0.00127891,-0.00121684,1.51225,0.00144107,0.0405654,1847,876,-0.060135,-0.0624705
630,148,-0.100708,-0.000183105,-0.000500896,0.000734874,-0.000121819,0.000746768,-0.00051279,-1.47347,0.000731377,0.0374905,1854,876,-0.100721,0.00019764
637,148,-0.0338135,-0.0455322,-5.27306e-06,0.000467811,-0.000247855,0.000573883,-0.000111345,-1.16642,0.000424598,0.0327614,1861,876,-0.0338096,0.0455469
644,148,0.00183105,-0.0477905,0.000259999,0.000350237,-0.000248848,0.000558023,5.22123e-05,-0.87508,0.00035589,0.0331252,1868,876,0.00182647,0.0478072
651,148,0.00317383,-0.00628662,0.00036596,0.000316886,-0.000205918,0.000548797,0.000134049,-0.726098,0.000330375,0.0342281,1875,876,0.00313597,0.00627678
658,148,-0.0396729,-0.00646973,0.00038439,0.000314796,-0.000145774,0.000499463,0.000199723,-0.668238,0.000290286,0.0283786,1882,876,-0.0396757,0.00644033
665,148,-0.0404053,-0.0692749,0.000333121,0.000307716,-9.92259e-05,0.000420454,0.000220383,-0.721736,0.000242844,0.0189964,1889,876,-0.0404039,0.06929
672,148,-0.0238037,-0.0714111,0.000250879,0.000263742,-9.48882e-05,0.000352417,0.000162205,-0.819236,0.000203682,0.0214953,1896,876,-0.0238505,0.0713859
679,148,-0.0181885,-0.0499268,0.000209137,0.000238088,-3.35528e-05,0.000260155,0.000187071,-0.989048,0.000154932,0.0283548,1903,876,-0.0182065,0.0499309
686,148,0.0238037,-0.036499,7.96971e-05,0.000215485,3.53652e-06,0.000215577,7.9605e-05,1.54478,0.000125874,0.0231431,1910,876,0.0237679,0.0365092
693,148,-0.0142822,-0.036499,-3.5334e-05,0.000226798,6.70047e-05,0.000242932,-5.14682e-05,1.3345,0.000181559,0.0191079,1917,876,-0.0142463,0.0365146
700,148,-0.0415039,-0.0749512,-0.00017893,0.000224013,0.000174823,0.000289288,-0.000244206,1.21345,0.000308379,0.0120262,1924,876,-0.041507,0.0749795
707,148,-0.0294189,-0.0719604,-0.000408107,0.000308635,4.94794e-05,0.000312035,-0.000411506,1.5022,0.00041905,0.00966549,1931,876,-0.0294562,0.0719384
714,148,-0.0473633,-0.0717773,-0.000443426,0.0010193,-0.000350007,0.00109874,-0.000522863,-1.34762,0.000955707,0.00972601,1938,876,-0.0473139,0.0717906
721,148,-0.0491943,-0.074707,-0.000504051,0.00139916,-0.000571583,0.00155763,-0.000662517,-1.30035,0.00131607,0.015201,1945,876,-0.049146,0.0747343
728,148,-0.0328369,-0.0543823,-0.00054914,0.00153647,-0.000224556,0.00156037,-0.000573044,-1.46475,0.00127494,0.0190243,1952,876,-0.0328118,0.0543871
735,148,-0.0252686,-0.0426636,-0.000126835,0.00459234,0.00077876,0.00471753,-0.000252025,1.4114,0.0032323,0.0159347,1959,876,-0.0252102,0.0426655
742,148,-0.0268555,-0.0368652,2.00909e-06,0.0094449,0.00160925,0.00971162,-0.000264706,1.40655,0.00656443,0.0175429,1966,876,-0.0268594,0.0368694
749,148,-0.0250244,-0.0483398,-0.000151748,0.0144309,0.00339387,0.0151821,-0.000902919,1.35298,0.0104354,0.0145684,1973,876,-0.0250717,0.0483277
756,148,-0.0460205,-0.0615845,-2.74284e-05,0.0215558,0.0057205,0.0229783,-0.00144987,1.32708,0.0158243,0.0189113,1980,876,-0.0459786,0.0615984
763,148,-0.171509,-0.238037,5.06593e-05,0.0315828,0.00913433,0.0340377,-0.00240428,1.30824,0.0235342,0.0387771,1987,876,-0.171514,0.238043
770,148,-0.224854,-0.472778,-1.70775e-05,0.0454219,0.0139311,0.049353,-0.00394812,1.29577,0.0342938,0.042539,1994,876,-0.224894,0.472773
777,148,-0.140503,-1.40778,0,0,0,0,0,0,0,-1,2001,876,-0.140503,1.40779
784,148,-0.196533,0.270996,-0.00146831,0.089344,0.0288341,0.0977256,-0.00984995,1.28791,0.0686696,0.0438262,2008,876,-0.196486,-0.270994
791,148,-0.382202,0.713379,-0.00372093,0.122712,0.0394042,0.133988,-0.0149961,1.2921,0.0947203,0.0471833,2015,876,-0.382219,-0.713402
798,148,0,0,0,0,0,0,0,0,0,-1,2022,876,0,0
805,148,0,0,0,0,0,0,0,0,0,-1,2029,876,0,0
812,148,0,0,0,0,0,0,0,0,0,-1,2036,876,0,0
-700,141,0,0,0,0,0,0,0,0,0,-1,524,883,0,0
-693,141,0,0,0,0,0,0,0,0,0,-1,531,883,0,0
-686,141,0,0,0,0,0,0,0,0,0,-1,538,883,0,0
-679,141,0,0,0,0,0,0,0,0,0,-1,545,883,0,0
-672,141,-0.255249,0.700195,0,0,0,0,0,0,0,-1,552,883,-0.255267,-0.700222
-665,141,-0.429138,-0.305115,0,0,0,0,0,0,0,-1,559,883,-0.429168,0.305105
-658,141,-0.430298,-0.119263,0.0362816,0.00271143,0.018038,0.0441361,-0.00514307,0.410681,0.0312797,0.0464218,566,883,-0.430288,0.119262
-651,141,-0.419312,0.0791626,0.03266,0.00326257,0.0132953,0.037781,-0.00185834,0.367654,0.025829,0.0427198,573,883,-0.41934,-0.079161
-644,141,-0.424622,0.361206,0.0282247,0.00335191,0.00931524,0.0313265,0.000250033,0.321441,0.0208015,0.0422007,580,883,-0.424611,-0.361213
-637,141,-0.171082,0.740417,0,0,0,0,0,0,0,-1,587,883,-0.171058,-0.740426
-630,141,-0.0826416,0.339966,0.0188481,0.00273865,0.00358634,0.0196104,0.00197632,0.209447,0.0124672,0.034273,594,883,-0.0826346,-0.33998
-623,141,0.00170898,-0.0681763,0.0145917,0.00204586,0.00177587,0.0148382,0.00179933,0.13794,0.00935028,0.0180336,601,883,0.00168502,0.0681825
-616,141,0.00378418,-0.0824585,0.0107896,0.00149323,0.000612896,0.0108299,0.00145299,0.0655502,0.00678761,0.00994605,608,883,0.00380601,0.0824614
-609,141,-0.0181274,-0.0719604,0.00793848,0.00189196,-0.000361495,0.00796002,0.00187043,-0.0595032,0.00480609,0.0113164,615,883,-0.0181425,0.0719363
-602,141,-0.024292,-0.0790405,0.00489336,0.000610075,-0.00109684,0.0051579,0.00034554,-0.23666,0.0033294,0.0106781,622,883,-0.0242838,0.0790616
-595,141,-0.034668,-0.0830688,0.00231645,0.000429316,-0.00152062,0.00316247,-0.000416695,-0.507714,0.00226005,0.00926871,629,883,-0.0346662,0.0830934
-588,141,-0.0302124,-0.0824585,0.000858867,0.000313399,-0.00109642,0.00171597,-0.000543702,-0.663498,0.00136188,0.0130007,636,883,-0.0302321,0.0824842
-581,141,-0.0372925,-0.0899658,0.000214354,-0.000289265,-0.000653139,0.000662544,-0.000737455,-0.60141,0.000808675,0.017223,643,883,-0.0372902,0.0899661
-574,141,-0.0342407,-0.0725098,-3.37493e-05,-0.000401336,-0.000182194,4.12517e-05,-0.000476337,-0.390513,0.000332164,0.019771,650,883,-0.034271,0.0725273
-567,141,-0.0411987,-0.0807495,-4.31402e-05,-0.000359615,-0.000174818,3.44199e-05,-0.000437175,-0.417571,0.000303574,0.0240598,657,883,-0.0411694,0.0807364
-560,141,-0.0209961,-0.0939331,0.000275338,-0.000450714,-0.000305,0.000386457,-0.000561832,-0.349377,0.000550607,0.0286778,664,883,-0.0209906,0.0939061
-553,141,0.00421143,-0.076416,0.000536455,-0.000449553,-0.000326005,0.000634494,-0.000547592,-0.292126,0.000683092,0.0350504,671,883,0.0042254,0.0764018
-546,141,-0.00408936,-0.038147,0.000901627,-0.000528191,-0.000369956,0.000991679,-0.000618243,-0.23877,0.000937787,0.0305767,678,883,-0.00406253,0.0381753
-539,141,-0.0105591,-0.0438232,0.00150252,-0.000572869,-0.000420218,0.00158437,-0.000654724,-0.192385,0.00132937,0.0280223,685,883,-0.0105705,0.0438533
-532,141,-0.0604858,-0.0664673,0.00228698,-0.000566656,-0.000444771,0.00235469,-0.000634372,-0.151088,0.00181852,0.0267148,692,883,-0.060496,0.0664696
-525,141,-0.036377,-0.026001,0.00335381,-0.000469879,-0.000414421,0.00339821,-0.000514279,-0.106731,0.00245492,0.032572,699,883,-0.0363881,0.0260173
-518,141,-0.0785522,-0.186462,0.00473353,-0.00024032,-0.000294934,0.00475095,-0.000257747,-0.0590213,0.00325662,0.0382247,706,883,-0.0785278,0.186481
-511,141,-0.0391846,-0.325317,0.00655737,0.000170368,-2.78694e-05,0.0065575,0.000170247,-0.00436334,0.00431603,0.0378124,713,883,-0.0392091,0.325287
-504,141,0.0055542,-0.303711,0.00895789,0.000797885,0.000458657,0.00898359,0.000772185,0.0559729,0.00574898,0.0380896,720,883,0.00557043,0.303692
-497,141,0,0,0,0,0,0,0,0,0,-1,727,883,0,0
-490,141,0,0,0,0,0,0,0,0,0,-1,734,883,0,0
-483,141,0,0,0,0,0,0,0,0,0,-1,741,883,0,0
-476,141,0,0,0,0,0,0,0,0,0,-1,748,883,0,0
-469,141,0,0,0,0,0,0,0,0,0,-1,755,883,0,0
-462,141,0,0,0,0,0,0,0,0,0,-1,762,883,0,0
-455,141,0,0,0,0,0,0,0,0,0,-1,769,883,0,0
-448,141,0,0,0,0,0,0,0,0,0,-1,776,883,0,0
-441,141,0,0,0,0,0,0,0,0,0,-1,783,883,0,0
-434,141,0,0,0,0,0,0,0,0,0,-1,790,883,0,0
-427,141,0,0,0,0,0,0,0,0,0,-1,797,883,0,0
-420,141,0,0,0,0,0,0,0,0,0,-1,804,883,0,0
-413,141,0,0,0,0,0,0,0,0,0,-1,811,883,0,0
-406,141,0,0,0,0,0,0,0,0,0,-1,818,883,0,0
-399,141,0,0,0,0,0,0,0,0,0,-1,825,883,0,0
-392,141,0,0,0,0,0,0,0,0,0,-1,832,883,0,0
-385,141,0,0,0,0,0,0,0,0,0,-1,839,883,0,0
-378,141,0,0,0,0,0,0,0,0,0,-1,846,883,0,0
-371,141,0,0,0,0,0,0,0,0,0,-1,853,883,0,0
-364,141,0,0,0,0,0,0,0,0,0,-1,860,883,0,0
-357,141,0,0,0,0,0,0,0,0,0,-1,867,883,0,0
-350,141,0,0,0,0,0,0,0,0,0,-1,874,883,0,0
-343,141,0,0,0,0,0,0,0,0,0,-1,881,883,0,0
-336,141,0,0,0,0,0,0,0,0,0,-1,888,883,0,0
-329,141,0,0,0,0,0,0,0,0,0,-1,895,883,0,0
-322,141,0,0,0,0,0,0,0,0,0,-1,902,883,0,0
-315,141,0,0,0,0,0,0,0,0,0,-1,909,883,0,0
-308,141,0,0,0,0,0,0,0,0,0,-1,916,883,0,0
-301,141,0,0,0,0,0,0,0,0,0,-1,923,883,0,0
-294,141,0,0,0,0,0,0,0,0,0,-1,930,883,0,0
-287,141,0,0,0,0,0,0,0,0,0,-1,937,883,0,0
-280,141,0,0,0,0,0,0,0,0,0,-1,944,883,0,0
-273,141,0,0,0,0,0,0,0,0,0,-1,951,883,0,0
-266,141,0,0,0,0,0,0,0,0,0,-1,958,883,0,0
-259,141,0,0,0,0,0,0,0,0,0,-1,965,883,0,0
-252,141,0,0,0,0,0,0,0,0,0,-1,972,883,0,0
-245,141,0,0,0,0,0,0,0,0,0,-1,979,883,0,0
-238,141,0,0,0,0,0,0,0,0,0,-1,986,883,0,0
-231,141,0,0,0,0,0,0,0,0,0,-1,993,883,0,0
-224,141,0,0,0,0,0,0,0,0,0,-1,1000,883,0,0
-217,141,0,0,0,0,0,0,0,0,0,-1,1007,883,0,0
-210,141,0,0,0,0,0,0,0,0,0,-1,1014,883,0,0
-203,141,0,0,0,0,0,0,0,0,0,-1,1021,883,0,0
-196,141,0,0,0,0,0,0,0,0,0,-1,1028,883,0,0
-189,141,0,0,0,0,0,0,0,0,0,-1,1035,883,0,0
-182,141,0,0,0,0,0,0,0,0,0,-1,1042,883,0,0
-175,141,0,0,0,0,0,0,0,0,0,-1,1049,883,0,0
-168,141,0,0,0,0,0,0,0,0,0,-1,1056,883,0,0
-161,141,0,0,0,0,0,0,0,0,0,-1,1063,883,0,0
-154,141,0,0,0,0,0,0,0,0,0,-1,1070,883,0,0
-147,141,0,0,0,0,0,0,0,0,0,-1,1077,883,0,0
-140,141,0,0,0,0,0,0,0,0,0,-1,1084,883,0,0
-133,141,0,0,0,0,0,0,0,0,0,-1,1091,883,0,0
-126,141,0,0,0,0,0,0,0,0,0,-1,1098,883,0,0
-119,141,0,0,0,0,0,0,0,0,0,-1,1105,883,0,0
-112,141,0,0,0,0,0,0,0,0,0,-1,1112,883,0,0
-105,141,0,0,0,0,0,0,0,0,0,-1,1119,883,0,0
-98,141,0,0,0,0,0,0,0,0,0,-1,1126,883,0,0
-91,141,0,0,0,0,0,0,0,0,0,-1,1133,883,0,0
-84,141,0,0,0,0,0,0,0,0,0,-1,1140,883,0,0
-77,141,0,0,0,0,0,0,0,0,0,-1,1147,883,0,0
-70,141,0,0,0,0,0,0,0,0,0,-1,1154,883,0,0
-63,141,0,0,0,0,0,0,0,0,0,-1,1161,883,0,0
-56,141,0,0,0,0,0,0,0,0,0,-1,1168,883,0,0
-49,141,0,0,0,0,0,0,0,0,0,-1,1175,883,0,0
-42,141,0,0,0,0,0,0,0,0,0,-1,1182,883,0,0
-35,141,0,0,0,0,0,0,0,0,0,-1,1189,883,0,0
-28,141,0,0,0,0,0,0,0,0,0,-1,1196,883,0,0
-21,141,0,0,0,0,0,0,0,0,0,-1,1203,883,0,0
-14,141,0,0,0,0,0,0,0,0,0,-1,1210,883,0,0
-7,141,0,0,0,0,0,0,0,0,0,-1,1217,883,0,0
0,141,0,0,0,0,0,0,0,0,0,-1,1224,883,0,0
7,141,0,0,0,0,0,0,0,0,0,-1,1231,883,0,0
14,141,0,0,0,0,0,0,0,0,0,-1,1238,883,0,0
21,141,0,0,0,0,0,0,0,0,0,-1,1245,883,0,0
28,141,0,0,0,0,0,0,0,0,0,-1,1252,883,0,0
35,141,0,0,0,0,0,0,0,0,0,-1,1259,883,0,0
42,141,0,0,0,0,0,0,0,0,0,-1,1266,883,0,0
49,141,0,0,0,0,0,0,0,0,0,-1,1273,883,0,0
56,141,0,0,0,0,0,0,0,0,0,-1,1280,883,0,0
63,141,0,0,0,0,0,0,0,0,0,-1,1287,883,0,0
70,141,0,0,0,0,0,0,0,0,0,-1,1294,883,0,0
77,141,0,0,0,0,0,0,0,0,0,-1,1301,883,0,0
84,141,0,0,0,0,0,0,0,0,0,-1,1308,883,0,0
91,141,0,0,0,0,0,0,0,0,0,-1,1315,883,0,0
98,141,0,0,0,0,0,0,0,0,0,-1,1322,883,0,0
105,141,0,0,0,0,0,0,0,0,0,-1,1329,883,0,0
112,141,0,0,0,0,0,0,0,0,0,-1,1336,883,0,0
119,141,0,0,0,0,0,0,0,0,0,-1,1343,883,0,0
126,141,0,0,0,0,0,0,0,0,0,-1,1350,883,0,0
133,141,0,0,0,0,0,0,0,0,0,-1,1357,883,0,0
140,141,0,0,0,0,0,0,0,0,0,-1,1364,883,0,0
147,141,0,0,0,0,0,0,0,0,0,-1,1371,883,0,0
154,141,0,0,0,0,0,0,0,0,0,-1,1378,883,0,0
161,141,0,0,0,0,0,0,0,0,0,-1,1385,883,0,0
168,141,0,0,0,0,0,0,0,0,0,-1,1392,883,0,0
175,141,0,0,0,0,0,0,0,0,0,-1,1399,883,0,0
182,141,0,0,0,0,0,0,0,0,0,-1,1406,883,0,0
189,141,0,0,0,0,0,0,0,0,0,-1,1413,883,0,0
196,141,0,0,0,0,0,0,0,0,0,-1,1420,883,0,0
203,141,0,0,0,0,0,0,0,0,0,-1,1427,883,0,0
210,141,0,0,0,0,0,0,0,0,0,-1,1434,883,0,0
217,141,0,0,0,0,0,0,0,0,0,-1,1441,883,0,0
224,141,0,0,0,0,0,0,0,0,0,-1,1448,883,0,0
231,141,0,0,0,0,0,0,0,0,0,-1,1455,883,0,0
238,141,0,0,0,0,0,0,0,0,0,-1,1462,883,0,0
245,141,0,0,0,0,0,0,0,0,0,-1,1469,883,0,0
252,141,0,0,0,0,0,0,0,0,0,-1,1476,883,0,0
259,141,0,0,0,0,0,0,0,0,0,-1,1483,883,0,0
266,141,0,0,0,0,0,0,0,0,0,-1,1490,883,0,0
273,141,0,0,0,0,0,0,0,0,0,-1,1497,883,0,0
280,141,0,0,0,0,0,0,0,0,0,-1,1504,883,0,0
287,141,0,0,0,0,0,0,0,0,0,-1,1511,883,0,0
294,141,0,0,0,0,0,0,0,0,0,-1,1518,883,0,0
301,141,0,0,0,0,0,0,0,0,0,-1,1525,883,0,0
308,141,0,0,0,0,0,0,0,0,0,-1,1532,883,0,0
315,141,0,0,0,0,0,0,0,0,0,-1,1539,883,0,0
322,141,0,0,0,0,0,0,0,0,0,-1,1546,883,0,0
329,141,0,0,0,0,0,0,0,0,0,-1,1553,883,0,0
336,141,0,0,0,0,0,0,0,0,0,-1,1560,883,0,0
343,141,0,0,0,0,0,0,0,0,0,-1,1567,883,0,0
350,141,0,0,0,0,0,0,0,0,0,-1,1574,883,0,0
357,141,0,0,0,0,0,0,0,0,0,-1,1581,883,0,0
364,141,0,0,0,0,0,0,0,0,0,-1,1588,883,0,0
371,141,0,0,0,0,0,0,0,0,0,-1,1595,883,0,0
378,141,0,0,0,0,0,0,0,0,0,-1,1602,883,0,0
385,141,0,0,0,0,0,0,0,0,0,-1,1609,883,0,0
392,141,0,0,0,0,0,0,0,0,0,-1,1616,883,0,0
399,141,0,0,0,0,0,0,0,0,0,-1,1623,883,0,0
406,141,0,0,0,0,0,0,0,0,0,-1,1630,883,0,0
413,141,0,0,0,0,0,0,0,0,0,-1,1637,883,0,0
420,141,0,0,0,0,0,0,0,0,0,-1,1644,883,0,0
427,141,0,0,0,0,0,0,0,0,0,-1,1651,883,0,0
434,141,0,0,0,0,0,0,0,0,0,-1,1658,883,0,0
441,141,0,0,0,0,0,0,0,0,0,-1,1665,883,0,0
448,141,0,0,0,0,0,0,0,0,0,-1,1672,883,0,0
455,141,0,0,0,0,0,0,0,0,0,-1,1679,883,0,0
462,141,0,0,0,0,0,0,0,0,0,-1,1686,883,0,0
469,141,0,0,0,0,0,0,0,0,0,-1,1693,883,0,0
476,141,0,0,0,0,0,0,0,0,0,-1,1700,883,0,0
483,141,0,0,0,0,0,0,0,0,0,-1,1707,883,0,0
490,141,0,0,0,0,0,0,0,0,0,-1,1714,883,0,0
497,141,0,0,0,0,0,0,0,0,0,-1,1721,883,0,0
504,141,0,0,0,0,0,0,0,0,0,-1,1728,883,0,0
511,141,0,0,0,0,0,0,0,0,0,-1,1735,883,0,0
518,141,0,0,0,0,0,0,0,0,0,-1,1742,883,0,0
525,141,0,0,0,0,0,0,0,0,0,-1,1749,883,0,0
532,141,0,0,0,0,0,0,0,0,0,-1,1756,883,0,0
539,141,0,0,0,0,0,0,0,0,0,-1,1763,883,0,0
546,141,0,0,0,0,0,0,0,0,0,-1,1770,883,0,0
553,141,0,0,0,0,0,0,0,0,0,-1,1777,883,0,0
560,141,0,0,0,0,0,0,0,0,0,-1,1784,883,0,0
567,141,0,0,0,0,0,0,0,0,0,-1,1791,883,0,0
574,141,0,0,0,0,0,0,0,0,0,-1,1798,883,0,0
581,141,0,0,0,0,0,0,0,0,0,-1,1805,883,0,0
588,141,0,0,0,0,0,0,0,0,0,-1,1812,883,0,0
595,141,0,0,0,0,0,0,0,0,0,-1,1819,883,0,0
602,141,0,0,0,0,0,0,0,0,0,-1,1826,883,0,0
609,141,0,0,0,0,0,0,0,0,0,-1,1833,883,0,0
616,141,0,0,0,0,0,0,0,0,0,-1,1840,883,0,0
623,141,-0.0793457,0.0696411,-0.00067894,0.00163013,0.000262656,0.00165963,-0.000708441,1.45895,0.00140349,0.04058,1847,883,-0.0793632,-0.0696705
630,141,-0.0898438,-0.034668,-0.000206562,0.000974993,-0.000254715,0.00102756,-0.000259133,-1.36726,0.000785795,0.0383718,1854,883,-0.0898333,0.0346638
637,141,-0.0600586,0.0106201,0.000124702,0.000612156,-0.000517784,0.000940708,-0.000203849,-1.00537,0.000704982,0.0369863,1861,883,-0.0600828,-0.0106375
644,141,-0.0283203,-0.0311279,0.000275991,0.000420635,-0.000584218,0.00093699,-0.000240364,-0.846981,0.000718314,0.0368722,1868,883,-0.0283198,0.0311367
651,141,0.0806885,-0.000183105,0.000309717,0.000335265,-0.000558395,0.000881033,-0.000236051,-0.796834,0.000679839,0.0369841,1875,883,0.0807188,0.000210498
658,141,0.060791,-0.0057373,0.00027521,0.000302191,-0.000485296,0.000774185,-0.000196783,-0.799294,0.000592708,0.0323777,1882,883,0.0607879,0.00571732
665,141,-0.0241699,-0.0411377,0.000208255,0.000280002,-0.000400315,0.000646048,-0.00015779,-0.830086,0.000491806,0.0199843,1889,883,-0.0241651,0.0411677
672,141,-0.0133057,-0.0550537,0.000130607,0.000234551,-0.000339016,0.000525556,-0.000160397,-0.861457,0.000414318,0.0130215,1896,883,-0.0132498,0.0550679
679,141,-0.0113525,-0.0744019,9.98314e-05,0.000209914,-0.000225061,0.000386567,-7.6821e-05,-0.905325,0.000286769,0.0123803,1903,883,-0.0112945,0.0744237
686,141,-0.00427246,-0.0796509,-9.95703e-06,0.000197471,-0.00016,0.000284431,-9.6917e-05,-1.07296,0.000228872,0.0266123,1910,883,-0.00425274,0.0796406
693,141,-0.0345459,-0.0256958,-0.000117399,0.000226355,-6.52686e-05,0.00023833,-0.000129375,-1.38934,0.000215379,0.0265601,1917,883,-0.03455,0.0257248
700,141,-0.0310059,-0.0593872,-0.000231744,0.000245577,6.41749e-05,0.000254055,-0.000240222,1.43946,0.000285408,0.0124397,1924,883,-0.0310432,0.0593974
707,141,-0.0339355,-0.0822144,-0.000392079,0.000324418,-5.68787e-06,0.000324463,-0.000392125,-1.56286,0.000414336,0.00978162,1931,883,-0.0338811,0.082212
714,141,-0.0390625,-0.0842896,-0.000339755,0.000893333,-0.000342427,0.000982042,-0.000428465,-1.31731,0.000835001,0.0100704,1938,883,-0.0390749,0.0842968
721,141,-0.0163574,-0.0755005,-0.00034022,0.00114517,-0.000673265,0.00140492,-0.000599962,-1.2026,0.00118821,0.0112112,1945,883,-0.0163382,0.0755247
728,141,-0.0294189,-0.088623,-0.000238697,0.00102768,-0.000405963,0.00114664,-0.000357662,-1.28573,0.000907455,0.0134899,1952,883,-0.0293843,0.0886266
735,141,-0.0439453,-0.0733643,0.000398988,0.00403085,0.000696313,0.00415978,0.000270066,1.38772,0.00268769,0.0118312,1959,883,-0.0439418,0.0733616
742,141,-0.0307617,-0.0476074,0.000593076,0.00866206,0.00174376,0.00902277,0.000232361,1.36681,0.00593924,0.012969,1966,883,-0.030722,0.0476318
749,141,-0.0349121,-0.0477905,0.000435138,0.013382,0.00384437,0.0144375,-0.000620342,1.30285,0.00983827,0.0122379,1973,883,-0.0348914,0.0478026
756,141,-0.0568848,-0.0423584,0.000617821,0.020153,0.00651787,0.022128,-0.00135718,1.27658,0.0152246,0.0184569,1980,883,-0.0568422,0.0423403
763,141,-0.0419922,-0.127747,0.000665805,0.0297202,0.0104408,0.0330829,-0.00269691,1.25921,0.023007,0.0396904,1987,883,-0.0419766,0.127777
770,141,0.057373,-0.45874,0.000417937,0.0429169,0.0159463,0.0482348,-0.00489995,1.24891,0.0339081,0.040122,1994,883,0.0573305,0.458735
777,141,0.0881348,-1.06494,-0.000376221,0.0607269,0.023369,0.0686397,-0.00828904,1.24431,0.0487583,0.0417304,2001,883,0.0881591,1.06496
784,141,0.131592,-1.65344,-0.00214618,0.0843205,0.0329922,0.0954711,-0.0132967,1.24487,0.0685111,0.0460929,2008,883,0.131633,1.65346
791,141,0.697998,-2.09576,-0.00552256,0.115159,0.0450597,0.130127,-0.0204904,1.25009,0.0943264,0.0429689,2015,883,0.697951,2.09574
798,141,0,0,0,0,0,0,0,0,0,-1,2022,883,0,0
805,141,0,0,0,0,0,0,0,0,0,-1,2029,883,0,0
812,141,0,0,0,0,0,0,0,0,0,-1,2036,883,0,0
-700,134,0,0,0,0,0,0,0,0,0,-1,524,890,0,0
-693,134,0,0,0,0,0,0,0,0,0,-1,531,890,0,0
-686,134,0,0,0,0,0,0,0,0,0,-1,538,890,0,0
-679,134,0,0,0,0,0,0,0,0,0,-1,545,890,0,0
-672,134,-0.759888,3.27618,0,0,0,0,0,0,0,-1,552,890,-0.759905,-3.27616
-665,134,-5.40875,1.39203,0,0,0,0,0,0,0,-1,559,890,-5.40873,-1.39202
-658,134,-3.76221,1.10217,0.0356326,0.0104049,0.0149468,0.0425768,0.00346074,0.434923,0.0273041,0.045091,566,890,-3.76221,-1.10219
-651,134,-2.28485,0.771729,0.0319757,0.00976216,0.0111158,0.0365827,0.00515517,0.392903,0.0228646,0.0410068,573,890,-2.28487,-0.771733
-644,134,-0.0933838,0.735596,0,0,0,0,0,0,0,-1,580,890,-0.0933578,-0.735607
-637,134,-0.0824585,0.48291,0.022988,0.0074949,0.00513935,0.0245378,0.00594511,0.292882,0.0147809,0.043468,587,890,-0.0824466,-0.482898
-630,134,-0.0250854,0.132568,0.018414,0.00617227,0.00301909,0.0191181,0.00546819,0.229115,0.0113698,0.0336828,594,890,-0.0250864,-0.132542
-623,134,0.024231,-0.0673828,0.0142433,0.00464017,0.00146295,0.0144613,0.00442225,0.147873,0.00855656,0.0169301,601,890,0.0242105,0.0673617
-616,134,-0.0161743,-0.0852661,0.0105342,0.00339034,0.000466134,0.0105645,0.00336005,0.0648826,0.0062326,0.00970981,608,890,-0.0161805,0.0852378
-609,134,-0.0309448,-0.0765991,0.00777651,0.00324601,-0.000340366,0.00780194,0.00322058,-0.0745698,0.00452723,0.0103916,615,890,-0.0309449,0.0766049
-602,134,-0.036438,-0.0823975,0.00479493,0.00149537,-0.000939465,0.00504367,0.00124663,-0.258826,0.00303352,0.0112326,622,890,-0.036444,0.0824206
-595,134,-0.0408936,-0.0845947,0.00229156,0.000958314,-0.0013993,0.00317491,7.49611e-05,-0.563104,0.00209207,0.00963527,629,890,-0.0409094,0.0845683
-588,134,-0.00518799,-0.0993042,0.000888708,0.000557466,-0.00100526,0.0017419,-0.000295721,-0.703754,0.00127135,0.0159603,636,890,-0.00520015,0.0992965
-581,134,-0.0186768,-0.0944824,0.000265989,-7.42811e-05,-0.000576199,0.000696646,-0.000504938,-0.641842,0.000696672,0.0204065,643,890,-0.0186741,0.0944611
-574,134,-0.0276489,-0.0703125,3.48717e-05,-0.00024244,-0.000154481,0.000103797,-0.000311365,-0.419666,0.00024948,0.0205988,650,890,-0.0276372,0.070286
-567,134,-0.0439453,-0.0726318,3.6337e-05,-0.000238493,-0.000152441,0.000104156,-0.000306312,-0.418596,0.000246378,0.0202442,657,890,-0.0439368,0.072608
-560,134,-0.00964355,-0.0305176,0.000367849,-0.000337634,-0.000269814,0.000459209,-0.000428994,-0.326487,0.000512903,0.0318659,664,890,-0.00962259,0.0305477
-553,134,0.0109863,-0.0236206,0.000632312,-0.000320725,-0.000303901,0.000720971,-0.000409384,-0.283859,0.000660824,0.0421796,671,890,0.0109823,0.0236337
-546,134,-0.0192261,-0.032959,0.000988552,-0.000377439,-0.000385894,0.00109003,-0.000478916,-0.257144,0.000928453,0.0249879,678,890,-0.0192167,0.0329847
-539,134,-0.0245972,-0.0443726,0.00155143,-0.000398824,-0.000489742,0.0016675,-0.000514898,-0.232717,0.00131728,0.0180655,685,890,-0.0245835,0.0443918
-532,134,-0.0473022,-0.0881958,0.00232229,-0.00037271,-0.000595994,0.00244821,-0.00049863,-0.208214,0.00182125,0.0217281,692,890,-0.0473246,0.0882165
-525,134,-0.0469971,-0.0759277,0.00338114,-0.000258366,-0.000680319,0.00350416,-0.000381378,-0.178882,0.00247305,0.0316045,699,890,-0.0470199,0.0759566
-518,134,0.00335693,-0.127197,0.00477966,-9.67659e-06,-0.000710153,0.00488274,-0.000112758,-0.144147,0.00329339,0.0401213,706,890,0.0033397,0.127201
-511,134,0.138733,-0.178528,0.00669107,0.000434855,-0.000615164,0.00675098,0.000374941,-0.0970896,0.00438102,0.044158,713,890,0.138717,0.17853
-504,134,0,0,0,0,0,0,0,0,0,-1,720,890,0,0
-497,134,0,0,0,0,0,0,0,0,0,-1,727,890,0,0
-490,134,0,0,0,0,0,0,0,0,0,-1,734,890,0,0
-483,134,0,0,0,0,0,0,0,0,0,-1,741,890,0,0
-476,134,0,0,0,0,0,0,0,0,0,-1,748,890,0,0
-469,134,0,0,0,0,0,0,0,0,0,-1,755,890,0,0
-462,134,0,0,0,0,0,0,0,0,0,-1,762,890,0,0
-455,134,0,0,0,0,0,0,0,0,0,-1,769,890,0,0
-448,134,0,0,0,0,0,0,0,0,0,-1,776,890,0,0
-441,134,0,0,0,0,0,0,0,0,0,-1,783,890,0,0
-434,134,0,0,0,0,0,0,0,0,0,-1,790,890,0,0
-427,134,0,0,0,0,0,0,0,0,0,-1,797,890,0,0
-420,134,0,0,0,0,0,0,0,0,0,-1,804,890,0,0
-413,134,0,0,0,0,0,0,0,0,0,-1,811,890,0,0
-406,134,0,0,0,0,0,0,0,0,0,-1,818,890,0,0
-399,134,0,0,0,0,0,0,0,0,0,-1,825,890,0,0
-392,134,0,0,0,0,0,0,0,0,0,-1,832,890,0,0
-385,134,0,0,0,0,0,0,0,0,0,-1,839,890,0,0
-378,134,0,0,0,0,0,0,0,0,0,-1,846,890,0,0
-371,134,0,0,0,0,0,0,0,0,0,-1,853,890,0,0
-364,134,0,0,0,0,0,0,0,0,0,-1,860,890,0,0
-357,134,0,0,0,0,0,0,0,0,0,-1,867,890,0,0
-350,134,0,0,0,0,0,0,0,0,0,-1,874,890,0,0
-343,134,0,0,0,0,0,0,0,0,0,-1,881,890,0,0
-336,134,0,0,0,0,0,0,0,0,0,-1,888,890,0,0
-329,134,0,0,0,0,0,0,0,0,0,-1,895,890,0,0
-322,134,0,0,0,0,0,0,0,0,0,-1,902,890,0,0
-315,134,0,0,0,0,0,0,0,0,0,-1,909,890,0,0
-308,134,0,0,0,0,0,0,0,0,0,-1,916,890,0,0
-301,134,0,0,0,0,0,0,0,0,0,-1,923,890,0,0
-294,134,0,0,0,0,0,0,0,0,0,-1,930,890,0,0
-287,134,0,0,0,0,0,0,0,0,0,-1,937,890,0,0
-280,134,0,0,0,0,0,0,0,0,0,-1,944,890,0,0
-273,134,0,0,0,0,0,0,0,0,0,-1,951,890,0,0
-266,134,0,0,0,0,0,0,0,0,0,-1,958,890,0,0
-259,134,0,0,0,0,0,0,0,0,0,-1,965,890,0,0
-252,134,0,0,0,0,0,0,0,0,0,-1,972,890,0,0
-245,134,0,0,0,0,0,0,0,0,0,-1,979,890,0,0
-238,134,0,0,0,0,0,0,0,0,0,-1,986,890,0,0
-231,134,0,0,0,0,0,0,0,0,0,-1,993,890,0,0
-224,134,0,0,0,0,0,0,0,0,0,-1,1000,890,0,0
-217,134,0,0,0,0,0,0,0,0,0,-1,1007,890,0,0
-210,134,0,0,0,0,0,0,0,0,0,-1,1014,890,0,0
-203,134,0,0,0,0,0,0,0,0,0,-1,1021,890,0,0
-196,134,0,0,0,0,0,0,0,0,0,-1,1028,890,0,0
-189,134,0,0,0,0,0,0,0,0,0,-1,1035,890,0,0
-182,134,0,0,0,0,0,0,0,0,0,-1,1042,890,0,0
-175,134,0,0,0,0,0,0,0,0,0,-1,1049,890,0,0
-168,134,0,0,0,0,0,0,0,0,0,-1,1056,890,0,0
-161,134,0,0,0,0,0,0,0,0,0,-1,1063,890,0,0
-154,134,0,0,0,0,0,0,0,0,0,-1,1070,890,0,0
-147,134,0,0,0,0,0,0,0,0,0,-1,1077,890,0,0
-140,134,0,0,0,0,0,0,0,0,0,-1,1084,890,0,0
-133,134,0,0,0,0,0,0,0,0,0,-1,1091,890,0,0
-126,134,0,0,0,0,0,0,0,0,0,-1,1098,890,0,0
-119,134,0,0,0,0,0,0,0,0,0,-1,1105,890,0,0
-112,134,0,0,0,0,0,0,0,0,0,-1,1112,890,0,0
-105,134,0,0,0,0,0,0,0,0,0,-1,1119,890,0,0
-98,134,0,0,0,0,0,0,0,0,0,-1,1126,890,0,0
-91,134,0,0,0,0,0,0,0,0,0,-1,1133,890,0,0
-84,134,0,0,0,0,0,0,0,0,0,-1,1140,890,0,0
-77,134,0,0,0,0,0,0,0,0,0,-1,1147,890,0,0
-70,134,0,0,0,0,0,0,0,0,0,-1,1154,890,0,0
-63,134,0,0,0,0,0,0,0,0,0,-1,1161,890,0,0
-56,134,0,0,0,0,0,0,0,0,0,-1,1168,890,0,0
-49,134,0,0,0,0,0,0,0,0,0,-1,1175,890,0,0
-42,134,0,0,0,0,0,0,0,0,0,-1,1182,890,0,0
-35,134,0,0,0,0,0,0,0,0,0,-1,1189,890,0,0
-28,134,0,0,0,0,0,0,0,0,0,-1,1196,890,0,0
-21,134,0,0,0,0,0,0,0,0,0,-1,1203,890,0,0
-14,134,0,0,0,0,0,0,0,0,0,-1,1210,890,0,0
-7,134,0,0,0,0,0,0,0,0,0,-1,1217,890,0,0
0,134,0,0,0,0,0,0,0,0,0,-1,1224,890,0,0
7,134,0,0,0,0,0,0,0,0,0,-1,1231,890,0,0
14,134,0,0,0,0,0,0,0,0,0,-1,1238,890,0,0
21,134,0,0,0,0,0,0,0,0,0,-1,1245,890,0,0
28,134,0,0,0,0,0,0,0,0,0,-1,1252,890,0,0
35,134,0,0,0,0,0,0,0,0,0,-1,1259,890,0,0
42,134,0,0,0,0,0,0,0,0,0,-1,1266,890,0,0
49,134,0,0,0,0,0,0,0,0,0,-1,1273,890,0,0
56,134,0,0,0,0,0,0,0,0,0,-1,1280,890,0,0
63,134,0,0,0,0,0,0,0,0,0,-1,1287,890,0,0
70,134,0,0,0,0,0,0,0,0,0,-1,1294,890,0,0
77,134,0,0,0,0,0,0,0,0,0,-1,1301,890,0,0
84,134,0,0,0,0,0,0,0,0,0,-1,1308,890,0,0
91,134,0,0,0,0,0,0,0,0,0,-1,1315,890,0,0
98,134,0,0,0,0,0,0,0,0,0,-1,1322,890,0,0
105,134,0,0,0,0,0,0,0,0,0,-1,1329,890,0,0
112,134,0,0,0,0,0,0,0,0,0,-1,1336,890,0,0
119,134,0,0,0,0,0,0,0,0,0,-1,1343,890,0,0
126,134,0,0,0,0,0,0,0,0,0,-1,1350,890,0,0
133,134,0,0,0,0,0,0,0,0,0,-1,1357,890,0,0
140,134,0,0,0,0,0,0,0,0,0,-1,1364,890,0,0
147,134,0,0,0,0,0,0,0,0,0,-1,1371,890,0,0
154,134,0,0,0,0,0,0,0,0,0,-1,1378,890,0,0
161,134,0,0,0,0,0,0,0,0,0,-1,1385,890,0,0
168,134,0,0,0,0,0,0,0,0,0,-1,1392,890,0,0
175,134,0,0,0,0,0,0,0,0,0,-1,1399,890,0,0
182,134,0,0,0,0,0,0,0,0,0,-1,1406,890,0,0
189,134,0,0,0,0,0,0,0,0,0,-1,1413,890,0,0
196,134,0,0,0,0,0,0,0,0,0,-1,1420,890,0,0
203,134,0,0,0,0,0,0,0,0,0,-1,1427,890,0,0
210,134,0,0,0,0,0,0,0,0,0,-1,1434,890,0,0
217,134,0,0,0,0,0,0,0,0,0,-1,1441,890,0,0
224,134,0,0,0,0,0,0,0,0,0,-1,1448,890,0,0
231,134,0,0,0,0,0,0,0,0,0,-1,1455,890,0,0
238,134,0,0,0,0,0,0,0,0,0,-1,1462,890,0,0
245,134,0,0,0,0,0,0,0,0,0,-1,1469,890,0,0
252,134,0,0,0,0,0,0,0,0,0,-1,1476,890,0,0
259,134,0,0,0,0,0,0,0,0,0,-1,1483,890,0,0
266,134,0,0,0,0,0,0,0,0,0,-1,1490,890,0,0
273,134,0,0,0,0,0,0,0,0,0,-1,1497,890,0,0
280,134,0,0,0,0,0,0,0,0,0,-1,1504,890,0,0
287,134,0,0,0,0,0,0,0,0,0,-1,1511,890,0,0
294,134,0,0,0,0,0,0,0,0,0,-1,1518,890,0,0
301,134,0,0,0,0,0,0,0,0,0,-1,1525,890,0,0
308,134,0,0,0,0,0,0,0,0,0,-1,1532,890,0,0
315,134,0,0,0,0,0,0,0,0,0,-1,1539,890,0,0
322,134,0,0,0,0,0,0,0,0,0,-1,1546,890,0,0
329,134,0,0,0,0,0,0,0,0,0,-1,1553,890,0,0
336,134,0,0,0,0,0,0,0,0,0,-1,1560,890,0,0
343,134,0,0,0,0,0,0,0,0,0,-1,1567,890,0,0
350,134,0,0,0,0,0,0,0,0,0,-1,1574,890,0,0
357,134,0,0,0,0,0,0,0,0,0,-1,1581,890,0,0
364,134,0,0,0,0,0,0,0,0,0,-1,1588,890,0,0
371,134,0,0,0,0,0,0,0,0,0,-1,1595,890,0,0
378,134,0,0,0,0,0,0,0,0,0,-1,1602,890,0,0
385,134,0,0,0,0,0,0,0,0,0,-1,1609,890,0,0
392,134,0,0,0,0,0,0,0,0,0,-1,1616,890,0,0
399,134,0,0,0,0,0,0,0,0,0,-1,1623,890,0,0
406,134,0,0,0,0,0,0,0,0,0,-1,1630,890,0,0
413,134,0,0,0,0,0,0,0,0,0,-1,1637,890,0,0
420,134,0,0,0,0,0,0,0,0,0,-1,1644,890,0,0
427,134,0,0,0,0,0,0,0,0,0,-1,1651,890,0,0
434,134,0,0,0,0,0,0,0,0,0,-1,1658,890,0,0
441,134,0,0,0,0,0,0,0,0,0,-1,1665,890,0,0
448,134,0,0,0,0,0,0,0,0,0,-1,1672,890,0,0
455,134,0,0,0,0,0,0,0,0,0,-1,1679,890,0,0
462,134,0,0,0,0,0,0,0,0,0,-1,1686,890,0,0
469,134,0,0,0,0,0,0,0,0,0,-1,1693,890,0,0
476,134,0,0,0,0,0,0,0,0,0,-1,1700,890,0,0
483,134,0,0,0,0,0,0,0,0,0,-1,1707,890,0,0
490,134,0,0,0,0,0,0,0,0,0,-1,1714,890,0,0
497,134,0,0,0,0,0,0,0,0,0,-1,1721,890,0,0
504,134,0,0,0,0,0,0,0,0,0,-1,1728,890,0,0
511,134,0,0,0,0,0,0,0,0,0,-1,1735,890,0,0
518,134,0,0,0,0,0,0,0,0,0,-1,1742,890,0,0
525,134,0,0,0,0,0,0,0,0,0,-1,1749,890,0,0
532,134,0,0,0,0,0,0,0,0,0,-1,1756,890,0,0
539,134,0,0,0,0,0,0,0,0,0,-1,1763,890,0,0
546,134,0,0,0,0,0,0,0,0,0,-1,1770,890,0,0
553,134,0,0,0,0,0,0,0,0,0,-1,1777,890,0,0
560,134,0,0,0,0,0,0,0,0,0,-1,1784,890,0,0
567,134,0,0,0,0,0,0,0,0,0,-1,1791,890,0,0
574,134,0,0,0,0,0,0,0,0,0,-1,1798,890,0,0
581,134,0,0,0,0,0,0,0,0,0,-1,1805,890,0,0
588,134,0,0,0,0,0,0,0,0,0,-1,1812,890,0,0
595,134,0,0,0,0,0,0,0,0,0,-1,1819,890,0,0
602,134,0,0,0,0,0,0,0,0,0,-1,1826,890,0,0
609,134,0,0,0,0,0,0,0,0,0,-1,1833,890,0,0
616,134,0,0,0,0,0,0,0,0,0,-1,1840,890,0,0
623,134,0.00231934,0.0010376,-0.00036865,0.00243505,0.000390721,0.00248848,-0.000422082,1.43489,0.0018161,0.041641,1847,890,0.00230377,-0.00104828
630,134,-0.110596,-0.0252686,4.14568e-05,0.00146358,-0.000363555,0.00155113,-4.60931e-05,-1.33448,0.00104979,0.0428191,1854,890,-0.110559,0.0252962
637,134,-0.0595703,0.206787,0.000316127,0.000870846,-0.000740319,0.00138406,-0.000197083,-0.964629,0.000994926,0.0419531,1861,890,-0.0595263,-0.206813
644,134,-0.0344238,0.0375366,0.000418589,0.000511984,-0.000853038,0.0013196,-0.000389029,-0.812742,0.0010341,0.0367147,1868,890,-0.0344139,-0.037532
651,134,0.00280762,-0.0827026,0.000413094,0.000312644,-0.000834619,0.001199,-0.000473259,-0.755346,0.000995324,0.0368223,1875,890,0.00278151,0.0826753
658,134,0.0313721,-0.0402222,0.000339979,0.00021115,-0.000745002,0.00102335,-0.000472217,-0.742275,0.00088279,0.034647,1882,890,0.031371,0.0402387
665,134,0.0151367,-0.0343018,0.000248834,0.000156269,-0.000628281,0.000832535,-0.000427432,-0.748632,0.000739869,0.024959,1889,890,0.0151164,0.0343136
672,134,0.00524902,-0.0626221,0.000158801,0.000105889,-0.000517433,0.000650454,-0.000385763,-0.759856,0.000604731,0.0143044,1896,890,0.00527731,0.062598
679,134,-0.0174561,-0.0632324,0.000115574,9.0787e-05,-0.000360618,0.000464012,-0.000257651,-0.768221,0.000422292,0.00964318,1903,890,-0.0174399,0.0632264
686,134,-0.0229492,-0.0454102,2.40374e-06,0.000102947,-0.000276603,0.00033381,-0.000228459,-0.87529,0.00032652,0.0267021,1910,890,-0.0229983,0.0454134
693,134,-0.0333252,-0.0246582,-0.000110795,0.00014895,-0.000157695,0.000223368,-0.000185213,-1.12987,0.000236237,0.0189589,1917,890,-0.0333263,0.0246686
700,134,-0.0239258,-0.0733032,-0.000209386,0.000190577,-1.90142e-05,0.000191479,-0.000210288,-1.5234,0.000232045,0.0151818,1924,890,-0.0238818,0.0732894
707,134,-0.0352783,-0.0861206,-0.000303874,0.000281975,-5.30988e-05,0.000286748,-0.000308648,-1.48113,0.00034383,0.0134892,1931,890,-0.0352492,0.0860921
714,134,-0.0297852,-0.0817871,-0.000182572,0.000728898,-0.000314313,0.000826776,-0.00028045,-1.26891,0.00066469,0.0125155,1938,890,-0.029747,0.0818061
721,134,-0.0195313,-0.0932617,-0.000160411,0.000891056,-0.000640653,0.00119408,-0.00046343,-1.12899,0.000987467,0.0132616,1945,890,-0.019552,0.0932362
728,134,-0.0335693,-0.103271,3.36758e-05,0.000564509,-0.000376192,0.00075949,-0.000161306,-1.09261,0.000567785,0.0134227,1952,890,-0.0335091,0.103289
735,134,-0.0493164,-0.0926514,0.00077709,0.00349917,0.000930442,0.00378681,0.000489448,1.27097,0.00237824,0.0150499,1959,890,-0.0493141,0.0926405
742,134,-0.0401611,-0.0803223,0.00093479,0.00781207,0.00234277,0.0085343,0.000212565,1.27176,0.00562002,0.0122349,1966,890,-0.0401986,0.0803142
749,134,-0.0344238,-0.067688,0.000659367,0.0122086,0.00489764,0.0140059,-0.00113788,1.21909,0.00973871,0.0120703,1973,890,-0.0344371,0.0676819
756,134,-0.0529785,-0.0321045,0.000729493,0.0184994,0.00809273,0.0216325,-0.00240365,1.20141,0.015286,0.0159853,1980,890,-0.0530289,0.0320764
763,134,0.0718994,0.0484009,0.000553491,0.0273903,0.0127069,0.0324521,-0.00450831,1.19171,0.0232834,0.0349084,1987,890,0.071875,-0.0484275
770,134,0.319824,-0.115479,0,0,0,0,0,0,0,-1,1994,890,0.319836,0.115456
777,134,-0.128662,-1.17499,0,0,0,0,0,0,0,-1,2001,890,-0.128675,1.17499
784,134,0.341553,-1.27765,0,0,0,0,0,0,0,-1,2008,890,0.341492,1.27763
791,134,0.678833,-1.05536,0,0,0,0,0,0,0,-1,2015,890,0.678855,1.05537
798,134,0,0,0,0,0,0,0,0,0,-1,2022,890,0,0
805,134,0,0,0,0,0,0,0,0,0,-1,2029,890,0,0
812,134,0,0,0,0,0,0,0,0,0,-1,2036,890,0,0
-700,127,0,0,0,0,0,0,0,0,0,-1,524,897,0,0
-693,127,0,0,0,0,0,0,0,0,0,-1,531,897,0,0
-686,127,0,0,0,0,0,0,0,0,0,-1,538,897,0,0
-679,127,0.571716,0.992798,0,0,0,0,0,0,0,-1,545,897,0.571738,-0.992816
-672,127,0.222778,0.444092,0,0,0,0,0,0,0,-1,552,897,0.222754,-0.44407
-665,127,-0.234009,-1.04474,0,0,0,0,0,0,0,-1,559,897,-0.234022,1.04477
-658,127,-3.78601,0.733398,0.0418501,0.0146197,0.0103303,0.0453255,0.0111443,0.324535,0.0272721,0.0478086,566,897,-3.786,-0.733418
-651,127,-2.50653,0.421082,0.0357585,0.0133173,0.00768326,0.038137,0.0109388,0.300207,0.0226756,0.0426644,573,897,-2.50653,-0.421094
-644,127,-1.15094,0.076416,0.0298487,0.0116612,0.00533579,0.0312986,0.0102114,0.265311,0.0184303,0.0432814,580,897,-1.15094,-0.0763973
-637,127,0.233032,-0.127258,0.0242506,0.00983714,0.00336878,0.0249991,0.00908864,0.218635,0.0146113,0.0394962,587,897,0.233058,0.127251
-630,127,0.0176392,-0.11792,0.0185697,0.0080496,0.00196438,0.0189245,0.00769476,0.178707,0.0109894,0.0280098,594,897,0.0176513,0.117924
-623,127,0.0107422,-0.0930176,0.0140337,0.00603181,0.000724779,0.0140988,0.00596669,0.0896043,0.00817189,0.0121374,601,897,0.0107151,0.0929979
-616,127,-0.00976563,-0.0679321,0.0103629,0.00435238,9.066e-06,0.0103629,0.00435236,0.00150835,0.0060085,0.00906827,608,897,-0.00976935,0.0679562
-609,127,-0.0210571,-0.0714722,0.00766359,0.003851,-0.000552718,0.00774211,0.00377249,-0.141102,0.00447039,0.0124465,615,897,-0.0210839,0.0714702
-602,127,-0.0432129,-0.0806885,0.00471643,0.0019023,-0.000929133,0.00499552,0.00162321,-0.291803,0.00294251,0.0135318,622,897,-0.0432124,0.080682
-595,127,-0.0203857,-0.0949097,0.00225355,0.00120556,-0.00128952,0.00312147,0.000337635,-0.592414,0.00197807,0.0111629,629,897,-0.0203942,0.0949045
-588,127,0.0116577,-0.0903931,0.000897419,0.000622517,-0.00084391,0.001615,-9.5062e-05,-0.70467,0.00110971,0.0154055,636,897,0.0116589,0.0904179
-581,127,-0.0115356,-0.0836182,0.000310002,1.11044e-05,-0.000449669,0.000634407,-0.0003133,-0.624964,0.00055753,0.0207172,643,897,-0.011528,0.083624
-574,127,-0.0282593,-0.0689087,9.23015e-05,-0.000178951,-9.0949e-05,0.000119973,-0.000206623,-0.295355,0.00019076,0.0199715,650,897,-0.0282669,0.0688967
-567,127,-0.0203247,-0.10083,9.62619e-05,-0.000188252,-0.000102611,0.000129408,-0.000221397,-0.312442,0.000204845,0.0265008,657,897,-0.0203389,0.100822
-560,127,-0.00933838,-0.0838013,0.000421209,-0.000284584,-0.000217499,0.000482851,-0.000346225,-0.276168,0.000480829,0.0292498,664,897,-0.00934644,0.0837813
-553,127,0.00244141,-0.0269775,0.000670946,-0.000275536,-0.000269133,0.000742121,-0.000346711,-0.258544,0.000642307,0.0371806,671,897,0.0024213,0.0269952
-546,127,-0.00366211,-0.0305176,0.000991652,-0.000330843,-0.000376649,0.0010914,-0.00043059,-0.258885,0.000905908,0.0222063,678,897,-0.00367457,0.030519
-539,127,0.0109253,-0.046814,0.00147141,-0.000353498,-0.000528025,0.00161318,-0.000495265,-0.2623,0.00127307,0.0197502,685,897,0.010946,0.0468085
-532,127,0.0100708,-0.0585327,0.00216712,-0.000334343,-0.000711679,0.00235542,-0.000522645,-0.258661,0.0017704,0.0160969,692,897,0.0100933,0.0585458
-525,127,-0.0410767,-0.0112305,0.00313589,-0.000240031,-0.000911045,0.00336606,-0.000470198,-0.247462,0.00241607,0.0298368,699,897,-0.0410846,0.0112014
-518,127,-0.0806274,0.235352,0.00444735,-2.76747e-05,-0.00110105,0.00470358,-0.000283907,-0.228648,0.00323451,0.0394136,706,897,-0.0806138,-0.235323
-511,127,0.309631,0.0283203,0.00631466,0.000362937,-0.00120389,0.00654896,0.000128641,-0.192212,0.00432373,0.0454257,713,897,0.30961,-0.0283369
-504,127,0,0,0,0,0,0,0,0,0,-1,720,897,0,0
-497,127,0,0,0,0,0,0,0,0,0,-1,727,897,0,0
-490,127,0,0,0,0,0,0,0,0,0,-1,734,897,0,0
-483,127,0,0,0,0,0,0,0,0,0,-1,741,897,0,0
-476,127,0,0,0,0,0,0,0,0,0,-1,748,897,0,0
-469,127,0,0,0,0,0,0,0,0,0,-1,755,897,0,0
-462,127,0,0,0,0,0,0,0,0,0,-1,762,897,0,0
-455,127,0,0,0,0,0,0,0,0,0,-1,769,897,0,0
-448,127,0,0,0,0,0,0,0,0,0,-1,776,897,0,0
-441,127,0,0,0,0,0,0,0,0,0,-1,783,897,0,0
-434,127,0,0,0,0,0,0,0,0,0,-1,790,897,0,0
-427,127,0,0,0,0,0,0,0,0,0,-1,797,897,0,0
-420,127,0,0,0,0,0,0,0,0,0,-1,804,897,0,0
-413,127,0,0,0,0,0,0,0,0,0,-1,811,897,0,0
-406,127,0,0,0,0,0,0,0,0,0,-1,818,897,0,0
-399,127,0,0,0,0,0,0,0,0,0,-1,825,897,0,0
-392,127,0,0,0,0,0,0,0,0,0,-1,832,897,0,0
-385,127,0,0,0,0,0,0,0,0,0,-1,839,897,0,0
-378,127,0,0,0,0,0,0,0,0,0,-1,846,897,0,0
-371,127,0,0,0,0,0,0,0,0,0,-1,853,897,0,0
-364,127,0,0,0,0,0,0,0,0,0,-1,860,897,0,0
-357,127,0,0,0,0,0,0,0,0,0,-1,867,897,0,0
-350,127,0,0,0,0,0,0,0,0,0,-1,874,897,0,0
-343,127,0,0,0,0,0,0,0,0,0,-1,881,897,0,0
-336,127,0,0,0,0,0,0,0,0,0,-1,888,897,0,0
-329,127,0,0,0,0,0,0,0,0,0,-1,895,897,0,0
-322,127,0,0,0,0,0,0,0,0,0,-1,902,897,0,0
-315,127,0,0,0,0,0,0,0,0,0,-1,909,897,0,0
-308,127,0,0,0,0,0,0,0,0,0,-1,916,897,0,0
-301,127,0,0,0,0,0,0,0,0,0,-1,923,897,0,0
-294,127,0,0,0,0,0,0,0,0,0,-1,930,897,0,0
-287,127,0,0,0,0,0,0,0,0,0,-1,937,897,0,0
-280,127,0,0,0,0,0,0,0,0,0,-1,944,897,0,0
-273,127,0,0,0,0,0,0,0,0,0,-1,951,897,0,0
-266,127,0,0,0,0,0,0,0,0,0,-1,958,897,0,0
-259,127,0,0,0,0,0,0,0,0,0,-1,965,897,0,0
-252,127,0,0,0,0,0,0,0,0,0,-1,972,897,0,0
-245,127,0,0,0,0,0,0,0,0,0,-1,979,897,0,0
-238,127,0,0,0,0,0,0,0,0,0,-1,986,897,0,0
-231,127,0,0,0,0,0,0,0,0,0,-1,993,897,0,0
-224,127,0,0,0,0,0,0,0,0,0,-1,1000,897,0,0
-217,127,0,0,0,0,0,0,0,0,0,-1,1007,897,0,0
-210,127,0,0,0,0,0,0,0,0,0,-1,1014,897,0,0
-203,127,0,0,0,0,0,0,0,0,0,-1,1021,897,0,0
-196,127,0,0,0,0,0,0,0,0,0,-1,1028,897,0,0
-189,127,0,0,0,0,0,0,0,0,0,-1,1035,897,0,0
-182,127,0,0,0,0,0,0,0,0,0,-1,1042,897,0,0
-175,127,0,0,0,0,0,0,0,0,0,-1,1049,897,0,0
-168,127,0,0,0,0,0,0,0,0,0,-1,1056,897,0,0
-161,127,0,0,0,0,0,0,0,0,0,-1,1063,897,0,0
-154,127,0,0,0,0,0,0,0,0,0,-1,1070,897,0,0
-147,127,0,0,0,0,0,0,0,0,0,-1,1077,897,0,0
-140,127,0,0,0,0,0,0,0,0,0,-1,1084,897,0,0
-133,127,0,0,0,0,0,0,0,0,0,-1,1091,897,0,0
-126,127,0,0,0,0,0,0,0,0,0,-1,1098,897,0,0
-119,127,0,0,0,0,0,0,0,0,0,-1,1105,897,0,0
-112,127,0,0,0,0,0,0,0,0,0,-1,1112,897,0,0
-105,127,0,0,0,0,0,0,0,0,0,-1,1119,897,0,0
-98,127,0,0,0,0,0,0,0,0,0,-1,1126,897,0,0
-91,127,0,0,0,0,0,0,0,0,0,-1,1133,897,0,0
-84,127,0,0,0,0,0,0,0,0,0,-1,1140,897,0,0
-77,127,0,0,0,0,0,0,0,0,0,-1,1147,897,0,0
-70,127,0,0,0,0,0,0,0,0,0,-1,1154,897,0,0
-63,127,0,0,0,0,0,0,0,0,0,-1,1161,897,0,0
-56,127,0,0,0,0,0,0,0,0,0,-1,1168,897,0,0
-49,127,0,0,0,0,0,0,0,0,0,-1,1175,897,0,0
-42,127,0,0,0,0,0,0,0,0,0,-1,1182,897,0,0
-35,127,0,0,0,0,0,0,0,0,0,-1,1189,897,0,0
-28,127,0,0,0,0,0,0,0,0,0,-1,1196,897,0,0
-21,127,0,0,0,0,0,0,0,0,0,-1,1203,897,0,0
-14,127,0,0,0,0,0,0,0,0,0,-1,1210,897,0,0
-7,127,0,0,0,0,0,0,0,0,0,-1,1217,897,0,0
0,127,0,0,0,0,0,0,0,0,0,-1,1224,897,0,0
7,127,0,0,0,0,0,0,0,0,0,-1,1231,897,0,0
14,127,0,0,0,0,0,0,0,0,0,-1,1238,897,0,0
21,127,0,0,0,0,0,0,0,0,0,-1,1245,897,0,0
28,127,0,0,0,0,0,0,0,0,0,-1,1252,897,0,0
35,127,0,0,0,0,0,0,0,0,0,-1,1259,897,0,0
42,127,0,0,0,0,0,0,0,0,0,-1,1266,897,0,0
49,127,0,0,0,0,0,0,0,0,0,-1,1273,897,0,0
56,127,0,0,0,0,0,0,0,0,0,-1,1280,897,0,0
63,127,0,0,0,0,0,0,0,0,0,-1,1287,897,0,0
70,127,0,0,0,0,0,0,0,0,0,-1,1294,897,0,0
77,127,0,0,0,0,0,0,0,0,0,-1,1301,897,0,0
84,127,0,0,0,0,0,0,0,0,0,-1,1308,897,0,0
91,127,0,0,0,0,0,0,0,0,0,-1,1315,897,0,0
98,127,0,0,0,0,0,0,0,0,0,-1,1322,897,0,0
105,127,0,0,0,0,0,0,0,0,0,-1,1329,897,0,0
112,127,0,0,0,0,0,0,0,0,0,-1,1336,897,0,0
119,127,0,0,0,0,0,0,0,0,0,-1,1343,897,0,0
126,127,0,0,0,0,0,0,0,0,0,-1,1350,897,0,0
133,127,0,0,0,0,0,0,0,0,0,-1,1357,897,0,0
140,127,0,0,0,0,0,0,0,0,0,-1,1364,897,0,0
147,127,0,0,0,0,0,0,0,0,0,-1,1371,897,0,0
154,127,0,0,0,0,0,0,0,0,0,-1,1378,897,0,0
161,127,0,0,0,0,0,0,0,0,0,-1,1385,897,0,0
168,127,0,0,0,0,0,0,0,0,0,-1,1392,897,0,0
175,127,0,0,0,0,0,0,0,0,0,-1,1399,897,0,0
182,127,0,0,0,0,0,0,0,0,0,-1,1406,897,0,0
189,127,0,0,0,0,0,0,0,0,0,-1,1413,897,0,0
196,127,0,0,0,0,0,0,0,0,0,-1,1420,897,0,0
203,127,0,0,0,0,0,0,0,0,0,-1,1427,897,0,0
210,127,0,0,0,0,0,0,0,0,0,-1,1434,897,0,0
217,127,0,0,0,0,0,0,0,0,0,-1,1441,897,0,0
224,127,0,0,0,0,0,0,0,0,0,-1,1448,897,0,0
231,127,0,0,0,0,0,0,0,0,0,-1,1455,897,0,0
238,127,0,0,0,0,0,0,0,0,0,-1,1462,897,0,0
245,127,0,0,0,0,0,0,0,0,0,-1,1469,897,0,0
252,127,0,0,0,0,0,0,0,0,0,-1,1476,897,0,0
259,127,0,0,0,0,0,0,0,0,0,-1,1483,897,0,0
266,127,0,0,0,0,0,0,0,0,0,-1,1490,897,0,0
273,127,0,0,0,0,0,0,0,0,0,-1,1497,897,0,0
280,127,0,0,0,0,0,0,0,0,0,-1,1504,897,0,0
287,127,0,0,0,0,0,0,0,0,0,-1,1511,897,0,0
294,127,0,0,0,0,0,0,0,0,0,-1,1518,897,0,0
301,127,0,0,0,0,0,0,0,0,0,-1,1525,897,0,0
308,127,0,0,0,0,0,0,0,0,0,-1,1532,897,0,0
315,127,0,0,0,0,0,0,0,0,0,-1,1539,897,0,0
322,127,0,0,0,0,0,0,0,0,0,-1,1546,897,0,0
329,127,0,0,0,0,0,0,0,0,0,-1,1553,897,0,0
336,127,0,0,0,0,0,0,0,0,0,-1,1560,897,0,0
343,127,0,0,0,0,0,0,0,0,0,-1,1567,897,0,0
350,127,0,0,0,0,0,0,0,0,0,-1,1574,897,0,0
357,127,0,0,0,0,0,0,0,0,0,-1,1581,897,0,0
364,127,0,0,0,0,0,0,0,0,0,-1,1588,897,0,0
371,127,0,0,0,0,0,0,0,0,0,-1,1595,897,0,0
378,127,0,0,0,0,0,0,0,0,0,-1,1602,897,0,0
385,127,0,0,0,0,0,0,0,0,0,-1,1609,897,0,0
392,127,0,0,0,0,0,0,0,0,0,-1,1616,897,0,0
399,127,0,0,0,0,0,0,0,0,0,-1,1623,897,0,0
406,127,0,0,0,0,0,0,0,0,0,-1,1630,897,0,0
413,127,0,0,0,0,0,0,0,0,0,-1,1637,897,0,0
420,127,0,0,0,0,0,0,0,0,0,-1,1644,897,0,0
427,127,0,0,0,0,0,0,0,0,0,-1,1651,897,0,0
434,127,0,0,0,0,0,0,0,0,0,-1,1658,897,0,0
441,127,0,0,0,0,0,0,0,0,0,-1,1665,897,0,0
448,127,0,0,0,0,0,0,0,0,0,-1,1672,897,0,0
455,127,0,0,0,0,0,0,0,0,0,-1,1679,897,0,0
462,127,0,0,0,0,0,0,0,0,0,-1,1686,897,0,0
469,127,0,0,0,0,0,0,0,0,0,-1,1693,897,0,0
476,127,0,0,0,0,0,0,0,0,0,-1,1700,897,0,0
483,127,0,0,0,0,0,0,0,0,0,-1,1707,897,0,0
490,127,0,0,0,0,0,0,0,0,0,-1,1714,897,0,0
497,127,0,0,0,0,0,0,0,0,0,-1,1721,897,0,0
504,127,0,0,0,0,0,0,0,0,0,-1,1728,897,0,0
511,127,0,0,0,0,0,0,0,0,0,-1,1735,897,0,0
518,127,0,0,0,0,0,0,0,0,0,-1,1742,897,0,0
525,127,0,0,0,0,0,0,0,0,0,-1,1749,897,0,0
532,127,0,0,0,0,0,0,0,0,0,-1,1756,897,0,0
539,127,0,0,0,0,0,0,0,0,0,-1,1763,897,0,0
546,127,0,0,0,0,0,0,0,0,0,-1,1770,897,0,0
553,127,0,0,0,0,0,0,0,0,0,-1,1777,897,0,0
560,127,0,0,0,0,0,0,0,0,0,-1,1784,897,0,0
567,127,0,0,0,0,0,0,0,0,0,-1,1791,897,0,0
574,127,0,0,0,0,0,0,0,0,0,-1,1798,897,0,0
581,127,0,0,0,0,0,0,0,0,0,-1,1805,897,0,0
588,127,0,0,0,0,0,0,0,0,0,-1,1812,897,0,0
595,127,0,0,0,0,0,0,0,0,0,-1,1819,897,0,0
602,127,0,0,0,0,0,0,0,0,0,-1,1826,897,0,0
609,127,0,0,0,0,0,0,0,0,0,-1,1833,897,0,0
616,127,0,0,0,0,0,0,0,0,0,-1,1840,897,0,0
623,127,0,0,0,0,0,0,0,0,0,-1,1847,897,0,0
630,127,-0.0881348,-0.00665283,0.000292728,0.00168149,-0.000305765,0.00174583,0.000228388,-1.3634,0.00109572,0.0409239,1854,897,-0.088171,0.00665165
637,127,0.0213623,0.152405,0.0005142,0.000952434,-0.00075405,0.00151856,-5.19243e-05,-0.926798,0.00103012,0.0375449,1861,897,0.0213162,-0.152432
644,127,-0.010498,-0.0418701,0.000563048,0.00049972,-0.000902318,0.00143426,-0.00037149,-0.767859,0.00110109,0.0347428,1868,897,-0.0105349,0.041848
651,127,-0.0651855,-0.188354,0.000513419,0.000242659,-0.000903638,0.00129176,-0.000535683,-0.711043,0.00108476,0.0399794,1875,897,-0.0651787,0.188358
658,127,-0.0400391,-0.0793457,0.000404085,0.000110809,-0.000822174,0.0010926,-0.000577701,-0.697149,0.000979501,0.0406514,1882,897,-0.0400524,0.0793686
665,127,-0.00476074,-0.0643311,0.000278785,5.15365e-05,-0.000703396,0.000877675,-0.000547354,-0.705322,0.000830076,0.0333213,1889,897,-0.00477374,0.064345
672,127,-0.0301514,-0.0828247,0.000169559,7.20418e-06,-0.000576202,0.000670274,-0.00049351,-0.715417,0.00067449,0.0250008,1896,897,-0.0301197,0.0828457
679,127,-0.0327148,-0.0585938,0.000110971,5.13244e-06,-0.000407867,0.000469337,-0.000353234,-0.720886,0.000476486,0.015803,1903,897,-0.0327296,0.0586078
686,127,-0.0257568,-0.0436401,-2.8423e-06,3.93045e-05,-0.000326603,0.000345513,-0.000309051,-0.817615,0.000378108,0.0139733,1910,897,-0.0257244,0.0436675
693,127,-0.0078125,-0.0734253,-0.000115172,9.24192e-05,-0.00020301,0.000216629,-0.000239382,-1.02172,0.000263388,0.0175354,1917,897,-0.0077596,0.0734324
700,127,-0.0272217,-0.0947876,-0.000196615,0.000134268,-7.10448e-05,0.000148877,-0.000211224,-1.36799,0.000208941,0.0181496,1924,897,-0.0271652,0.0948095
707,127,-0.0505371,-0.0883179,-0.000240506,0.00020727,-8.99822e-05,0.000224676,-0.000257911,-1.37972,0.000278842,0.0169866,1931,897,-0.0504889,0.0883032
714,127,-0.0351563,-0.0788574,-0.00011496,0.000447541,-0.000265057,0.000552758,-0.000220177,-1.19291,0.000459818,0.0141739,1938,897,-0.0352111,0.0788574
721,127,-0.0273438,-0.0745239,-0.000114278,0.000462093,-0.000546062,0.000791349,-0.000443535,-1.0282,0.000722326,0.0121563,1945,897,-0.027379,0.0745269
728,127,-0.0305176,-0.100037,0.000103655,-7.67641e-05,-0.000274647,0.000302528,-0.000275637,-0.62672,0.000333924,0.0119272,1952,897,-0.0305081,0.100024
735,127,-0.0316162,-0.0917969,0.000807773,0.00266002,0.00119219,0.00324354,0.000224253,1.11562,0.00209162,0.0170886,1959,897,-0.0316404,0.0918142
742,127,-0.0335693,-0.0728149,0.000814695,0.00652216,0.00291667,0.00774896,-0.000412107,1.17264,0.00530868,0.0162847,1966,897,-0.0336175,0.0728272
749,127,-0.0352783,-0.0761719,0.000296719,0.0104959,0.0058489,0.0131562,-0.00236354,1.14393,0.00965556,0.012008,1973,897,-0.0353201,0.0761577
756,127,-0.0343018,-0.0643311,9.18262e-05,0.0162155,0.00947616,0.0205952,-0.00428783,1.13786,0.0153602,0.0139702,1980,897,-0.0342666,0.064318
763,127,0.0126953,-0.0916748,-0.000474984,0.0243691,0.0146644,0.0311656,-0.00727144,1.1368,0.0235776,0.0207574,1987,897,0.0126417,0.0916577
770,127,0.06604,-0.410095,-0.00163526,0.0356114,0.0217973,0.0456578,-0.0116816,1.13892,0.0349886,0.0362959,1994,897,0.0660648,0.410113
777,127,-0.185303,-1.50189,-0.00369644,0.0506499,0.0312589,0.0648953,-0.0179418,1.14319,0.0503219,0.045395,2001,897,-0.18525,1.50187
784,127,0.297852,2.28229,-0.00713189,0.0702168,0.0433837,0.0896618,-0.0265768,1.14943,0.0703278,0.0493182,2008,897,0.297855,-2.2823
791,127,0.586182,-0.124146,0,0,0,0,0,0,0,-1,2015,897,0.586136,0.124148
798,127,0,0,0,0,0,0,0,0,0,-1,2022,897,0,0
805,127,0,0,0,0,0,0,0,0,0,-1,2029,897,0,0
812,127,0,0,0,0,0,0,0,0,0,-1,2036,897,0,0
-700,120,0,0,0,0,0,0,0,0,0,-1,524,904,0,0
-693,120,0,0,0,0,0,0,0,0,0,-1,531,904,0,0
-686,120,0,0,0,0,0,0,0,0,0,-1,538,904,0,0
-679,120,-0.0217285,0.16748,0.0686004,0.0153344,0.00739309,0.0696075,0.0143273,0.135387,0.0424431,0.0430173,545,904,-0.0217012,-0.167461
-672,120,0.106689,-0.0541992,0.0590603,0.0172508,0.00766845,0.0604224,0.0158887,0.175793,0.0361681,0.042299,552,904,0.106684,0.0541856
-665,120,0.11792,-0.707825,0.0507033,0.0172712,0.00668703,0.0519912,0.0159833,0.190269,0.0307503,0.0419923,559,904,0.117941,0.707825
-658,120,-0.375305,-0.660706,0.0430878,0.0162382,0.00529811,0.0440954,0.0152306,0.187944,0.025861,0.0425472,566,904,-0.375294,0.660676
-651,120,-0.91156,0.00915527,0,0,0,0,0,0,0,-1,573,904,-0.911574,-0.00914256
-644,120,-0.723755,-0.0234375,0.0296025,0.0126262,0.00241167,0.0299385,0.0122903,0.138414,0.017377,0.04488,580,904,-0.723733,0.0234526
-637,120,-0.0639648,-0.173279,0.0237144,0.0105214,0.00122688,0.0238275,0.0104082,0.091944,0.0137934,0.0367769,587,904,-0.0639705,0.173268
-630,120,-0.0523682,-0.09375,0.0177119,0.00859517,0.000592793,0.0177503,0.00855678,0.0646597,0.0102503,0.0208528,594,904,-0.0523898,0.0937421
-623,120,-0.0175781,-0.0859985,0.0131484,0.006391,-0.000248942,0.0131576,0.00638184,-0.0367733,0.00759767,0.0102688,601,904,-0.0175745,0.0859921
-616,120,-0.000793457,-0.0635986,0.00966564,0.00449763,-0.000626158,0.00974042,0.00442284,-0.118869,0.00563154,0.00907696,608,904,-0.000784358,0.0636039
-609,120,-0.0265503,-0.0631104,0.00710707,0.00382528,-0.000908966,0.00734201,0.00359034,-0.252934,0.00423925,0.0117973,615,904,-0.0265399,0.063081
-602,120,-0.0447388,-0.057373,0.00436656,0.00183737,-0.00104335,0.00474141,0.00146252,-0.344913,0.00280361,0.0121197,622,904,-0.044726,0.0573433
-595,120,-0.00872803,-0.0708618,0.00209978,0.00112661,-0.00122989,0.00293585,0.000290547,-0.59703,0.00186793,0.0142027,629,904,-0.00870352,0.0708379
-588,120,0.0153198,-0.0881348,0.000870108,0.000542253,-0.000706211,0.00143117,-1.88062e-05,-0.671356,0.000960442,0.0183338,636,904,0.0153341,0.0881492
-581,120,-0.0314941,-0.0686035,0.000356535,3.11448e-05,-0.00028328,0.000520516,-0.000132836,-0.524734,0.000398734,0.0208815,643,904,-0.0315091,0.0686249
-574,120,-0.0464478,-0.0645142,0.000146338,-0.00014131,8.76019e-06,0.000146605,-0.000141577,0.030417,0.00016639,0.0176899,650,904,-0.0464746,0.0645012
-567,120,-0.0365601,-0.0666504,0.000154418,-0.000133585,-8.15361e-06,0.000154649,-0.000133815,-0.0282806,0.00016669,0.028945,657,904,-0.0365385,0.0666401
-560,120,-0.0205078,-0.0480347,0.000471259,-0.000210916,-0.000103812,0.000486707,-0.000226364,-0.147723,0.000420739,0.0358474,664,904,-0.0204902,0.0480288
-553,120,-0.0169067,0.000671387,0.000699075,-0.000216929,-0.000156646,0.000725122,-0.000242976,-0.164775,0.000581579,0.035708,671,904,-0.0168809,-0.000691024
-546,120,0.00646973,0.00396729,0.00097681,-0.000273688,-0.000272747,0.00103371,-0.000330588,-0.205669,0.000821808,0.0293856,678,904,0.00644477,-0.00395099
-539,120,0.0357666,-0.0640869,0.00137993,-0.000310905,-0.000457082,0.00149559,-0.000426557,-0.247821,0.00116556,0.0231413,685,904,0.0357593,0.0641014
-532,120,0.0098877,-0.057373,0.00199229,-0.000325429,-0.000706477,0.00219066,-0.000523796,-0.273736,0.00166277,0.0254599,692,904,0.00986917,0.0573715
-525,120,-0.199219,0.170227,0.00285239,-0.000294923,-0.0010225,0.0031554,-0.00059794,-0.288104,0.00232865,0.0328081,699,904,-0.199211,-0.170219
-518,120,-0.245361,0.344116,0.00404119,-0.000185591,-0.00140009,0.00446289,-0.000607288,-0.292551,0.00319697,0.0370446,706,904,-0.245357,-0.344106
-511,120,-0.141296,0.385193,0.00580847,5.89984e-05,-0.00177254,0.00631102,-0.000443545,-0.276266,0.00436272,0.0392502,713,904,-0.141305,-0.385206
-504,120,0,0,0,0,0,0,0,0,0,-1,720,904,0,0
-497,120,0,0,0,0,0,0,0,0,0,-1,727,904,0,0
-490,120,0,0,0,0,0,0,0,0,0,-1,734,904,0,0
-483,120,0,0,0,0,0,0,0,0,0,-1,741,904,0,0
-476,120,0,0,0,0,0,0,0,0,0,-1,748,904,0,0
-469,120,0,0,0,0,0,0,0,0,0,-1,755,904,0,0
-462,120,0,0,0,0,0,0,0,0,0,-1,762,904,0,0
-455,120,0,0,0,0,0,0,0,0,0,-1,769,904,0,0
-448,120,0,0,0,0,0,0,0,0,0,-1,776,904,0,0
-441,120,0,0,0,0,0,0,0,0,0,-1,783,904,0,0
-434,120,0,0,0,0,0,0,0,0,0,-1,790,904,0,0
-427,120,0,0,0,0,0,0,0,0,0,-1,797,904,0,0
-420,120,0,0,0,0,0,0,0,0,0,-1,804,904,0,0
-413,120,0,0,0,0,0,0,0,0,0,-1,811,904,0,0
-406,120,0,0,0,0,0,0,0,0,0,-1,818,904,0,0
-399,120,0,0,0,0,0,0,0,0,0,-1,825,904,0,0
-392,120,0,0,0,0,0,0,0,0,0,-1,832,904,0,0
-385,120,0,0,0,0,0,0,0,0,0,-1,839,904,0,0
-378,120,0,0,0,0,0,0,0,0,0,-1,846,904,0,0
-371,120,0,0,0,0,0,0,0,0,0,-1,853,904,0,0
-364,120,0,0,0,0,0,0,0,0,0,-1,860,904,0,0
-357,120,0,0,0,0,0,0,0,0,0,-1,867,904,0,0
-350,120,0,0,0,0,0,0,0,0,0,-1,874,904,0,0
-343,120,0,0,0,0,0,0,0,0,0,-1,881,904,0,0
-336,120,0,0,0,0,0,0,0,0,0,-1,888,904,0,0
-329,120,0,0,0,0,0,0,0,0,0,-1,895,904,0,0
-322,120,0,0,0,0,0,0,0,0,0,-1,902,904,0,0
-315,120,0,0,0,0,0,0,0,0,0,-1,909,904,0,0
-308,120,0,0,0,0,0,0,0,0,0,-1,916,904,0,0
-301,120,0,0,0,0,0,0,0,0,0,-1,923,904,0,0
-294,120,0,0,0,0,0,0,0,0,0,-1,930,904,0,0
-287,120,0,0,0,0,0,0,0,0,0,-1,937,904,0,0
-280,120,0,0,0,0,0,0,0,0,0,-1,944,904,0,0
-273,120,0,0,0,0,0,0,0,0,0,-1,951,904,0,0
-266,120,0,0,0,0,0,0,0,0,0,-1,958,904,0,0
-259,120,0,0,0,0,0,0,0,0,0,-1,965,904,0,0
-252,120,0,0,0,0,0,0,0,0,0,-1,972,904,0,0
-245,120,0,0,0,0,0,0,0,0,0,-1,979,904,0,0
-238,120,0,0,0,0,0,0,0,0,0,-1,986,904,0,0
-231,120,0,0,0,0,0,0,0,0,0,-1,993,904,0,0
-224,120,0,0,0,0,0,0,0,0,0,-1,1000,904,0,0
-217,120,0,0,0,0,0,0,0,0,0,-1,1007,904,0,0
-210,120,0,0,0,0,0,0,0,0,0,-1,1014,904,0,0
-203,120,0,0,0,0,0,0,0,0,0,-1,1021,904,0,0
-196,120,0,0,0,0,0,0,0,0,0,-1,1028,904,0,0
-189,120,0,0,0,0,0,0,0,0,0,-1,1035,904,0,0
-182,120,0,0,0,0,0,0,0,0,0,-1,1042,904,0,0
-175,120,0,0,0,0,0,0,0,0,0,-1,1049,904,0,0
-168,120,0,0,0,0,0,0,0,0,0,-1,1056,904,0,0
-161,120,0,0,0,0,0,0,0,0,0,-1,1063,904,0,0
-154,120,0,0,0,0,0,0,0,0,0,-1,1070,904,0,0
-147,120,0,0,0,0,0,0,0,0,0,-1,1077,904,0,0
-140,120,0,0,0,0,0,0,0,0,0,-1,1084,904,0,0
-133,120,0,0,0,0,0,0,0,0,0,-1,1091,904,0,0
-126,120,0,0,0,0,0,0,0,0,0,-1,1098,904,0,0
-119,120,0,0,0,0,0,0,0,0,0,-1,1105,904,0,0
-112,120,0,0,0,0,0,0,0,0,0,-1,1112,904,0,0
-105,120,0,0,0,0,0,0,0,0,0,-1,1119,904,0,0
-98,120,0,0,0,0,0,0,0,0,0,-1,1126,904,0,0
-91,120,0,0,0,0,0,0,0,0,0,-1,1133,904,0,0
-84,120,0,0,0,0,0,0,0,0,0,-1,1140,904,0,0
-77,120,0,0,0,0,0,0,0,0,0,-1,1147,904,0,0
-70,120,0,0,0,0,0,0,0,0,0,-1,1154,904,0,0
-63,120,0,0,0,0,0,0,0,0,0,-1,1161,904,0,0
-56,120,0,0,0,0,0,0,0,0,0,-1,1168,904,0,0
-49,120,0,0,0,0,0,0,0,0,0,-1,1175,904,0,0
-42,120,0,0,0,0,0,0,0,0,0,-1,1182,904,0,0
-35,120,0,0,0,0,0,0,0,0,0,-1,1189,904,0,0
-28,120,0,0,0,0,0,0,0,0,0,-1,1196,904,0,0
-21,120,0,0,0,0,0,0,0,0,0,-1,1203,904,0,0
-14,120,0,0,0,0,0,0,0,0,0,-1,1210,904,0,0
-7,120,0,0,0,0,0,0,0,0,0,-1,1217,904,0,0
0,120,0,0,0,0,0,0,0,0,0,-1,1224,904,0,0
7,120,0,0,0,0,0,0,0,0,0,-1,1231,904,0,0
14,120,0,0,0,0,0,0,0,0,0,-1,1238,904,0,0
21,120,0,0,0,0,0,0,0,0,0,-1,1245,904,0,0
28,120,0,0,0,0,0,0,0,0,0,-1,1252,904,0,0
35,120,0,0,0,0,0,0,0,0,0,-1,1259,904,0,0
42,120,0,0,0,0,0,0,0,0,0,-1,1266,904,0,0
49,120,0,0,0,0,0,0,0,0,0,-1,1273,904,0,0
56,120,0,0,0,0,0,0,0,0,0,-1,1280,904,0,0
63,120,0,0,0,0,0,0,0,0,0,-1,1287,904,0,0
70,120,0,0,0,0,0,0,0,0,0,-1,1294,904,0,0
77,120,0,0,0,0,0,0,0,0,0,-1,1301,904,0,0
84,120,0,0,0,0,0,0,0,0,0,-1,1308,904,0,0
91,120,0,0,0,0,0,0,0,0,0,-1,1315,904,0,0
98,120,0,0,0,0,0,0,0,0,0,-1,1322,904,0,0
105,120,0,0,0,0,0,0,0,0,0,-1,1329,904,0,0
112,120,0,0,0,0,0,0,0,0,0,-1,1336,904,0,0
119,120,0,0,0,0,0,0,0,0,0,-1,1343,904,0,0
126,120,0,0,0,0,0,0,0,0,0,-1,1350,904,0,0
133,120,0,0,0,0,0,0,0,0,0,-1,1357,904,0,0
140,120,0,0,0,0,0,0,0,0,0,-1,1364,904,0,0
147,120,0,0,0,0,0,0,0,0,0,-1,1371,904,0,0
154,120,0,0,0,0,0,0,0,0,0,-1,1378,904,0,0
161,120,0,0,0,0,0,0,0,0,0,-1,1385,904,0,0
168,120,0,0,0,0,0,0,0,0,0,-1,1392,904,0,0
175,120,0,0,0,0,0,0,0,0,0,-1,1399,904,0,0
182,120,0,0,0,0,0,0,0,0,0,-1,1406,904,0,0
189,120,0,0,0,0,0,0,0,0,0,-1,1413,904,0,0
196,120,0,0,0,0,0,0,0,0,0,-1,1420,904,0,0
203,120,0,0,0,0,0,0,0,0,0,-1,1427,904,0,0
210,120,0,0,0,0,0,0,0,0,0,-1,1434,904,0,0
217,120,0,0,0,0,0,0,0,0,0,-1,1441,904,0,0
224,120,0,0,0,0,0,0,0,0,0,-1,1448,904,0,0
231,120,0,0,0,0,0,0,0,0,0,-1,1455,904,0,0
238,120,0,0,0,0,0,0,0,0,0,-1,1462,904,0,0
245,120,0,0,0,0,0,0,0,0,0,-1,1469,904,0,0
252,120,0,0,0,0,0,0,0,0,0,-1,1476,904,0,0
259,120,0,0,0,0,0,0,0,0,0,-1,1483,904,0,0
266,120,0,0,0,0,0,0,0,0,0,-1,1490,904,0,0
273,120,0,0,0,0,0,0,0,0,0,-1,1497,904,0,0
280,120,0,0,0,0,0,0,0,0,0,-1,1504,904,0,0
287,120,0,0,0,0,0,0,0,0,0,-1,1511,904,0,0
294,120,0,0,0,0,0,0,0,0,0,-1,1518,904,0,0
301,120,0,0,0,0,0,0,0,0,0,-1,1525,904,0,0
308,120,0,0,0,0,0,0,0,0,0,-1,1532,904,0,0
315,120,0,0,0,0,0,0,0,0,0,-1,1539,904,0,0
322,120,0,0,0,0,0,0,0,0,0,-1,1546,904,0,0
329,120,0,0,0,0,0,0,0,0,0,-1,1553,904,0,0
336,120,0,0,0,0,0,0,0,0,0,-1,1560,904,0,0
343,120,0,0,0,0,0,0,0,0,0,-1,1567,904,0,0
350,120,0,0,0,0,0,0,0,0,0,-1,1574,904,0,0
357,120,0,0,0,0,0,0,0,0,0,-1,1581,904,0,0
364,120,0,0,0,0,0,0,0,0,0,-1,1588,904,0,0
371,120,0,0,0,0,0,0,0,0,0,-1,1595,904,0,0
378,120,0,0,0,0,0,0,0,0,0,-1,1602,904,0,0
385,120,0,0,0,0,0,0,0,0,0,-1,1609,904,0,0
392,120,0,0,0,0,0,0,0,0,0,-1,1616,904,0,0
399,120,0,0,0,0,0,0,0,0,0,-1,1623,904,0,0
406,120,0,0,0,0,0,0,0,0,0,-1,1630,904,0,0
413,120,0,0,0,0,0,0,0,0,0,-1,1637,904,0,0
420,120,0,0,0,0,0,0,0,0,0,-1,1644,904,0,0
427,120,0,0,0,0,0,0,0,0,0,-1,1651,904,0,0
434,120,0,0,0,0,0,0,0,0,0,-1,1658,904,0,0
441,120,0,0,0,0,0,0,0,0,0,-1,1665,904,0,0
448,120,0,0,0,0,0,0,0,0,0,-1,1672,904,0,0
455,120,0,0,0,0,0,0,0,0,0,-1,1679,904,0,0
462,120,0,0,0,0,0,0,0,0,0,-1,1686,904,0,0
469,120,0,0,0,0,0,0,0,0,0,-1,1693,904,0,0
476,120,0,0,0,0,0,0,0,0,0,-1,1700,904,0,0
483,120,0,0,0,0,0,0,0,0,0,-1,1707,904,0,0
490,120,0,0,0,0,0,0,0,0,0,-1,1714,904,0,0
497,120,0,0,0,0,0,0,0,0,0,-1,1721,904,0,0
504,120,0,0,0,0,0,0,0,0,0,-1,1728,904,0,0
511,120,0,0,0,0,0,0,0,0,0,-1,1735,904,0,0
518,120,0,0,0,0,0,0,0,0,0,-1,1742,904,0,0
525,120,0,0,0,0,0,0,0,0,0,-1,1749,904,0,0
532,120,0,0,0,0,0,0,0,0,0,-1,1756,904,0,0
539,120,0,0,0,0,0,0,0,0,0,-1,1763,904,0,0
546,120,0,0,0,0,0,0,0,0,0,-1,1770,904,0,0
553,120,0,0,0,0,0,0,0,0,0,-1,1777,904,0,0
560,120,0,0,0,0,0,0,0,0,0,-1,1784,904,0,0
567,120,0,0,0,0,0,0,0,0,0,-1,1791,904,0,0
574,120,0,0,0,0,0,0,0,0,0,-1,1798,904,0,0
581,120,0,0,0,0,0,0,0,0,0,-1,1805,904,0,0
588,120,0,0,0,0,0,0,0,0,0,-1,1812,904,0,0
595,120,0,0,0,0,0,0,0,0,0,-1,1819,904,0,0
602,120,0,0,0,0,0,0,0,0,0,-1,1826,904,0,0
609,120,0,0,0,0,0,0,0,0,0,-1,1833,904,0,0
616,120,0,0,0,0,0,0,0,0,0,-1,1840,904,0,0
623,120,0,0,0,0,0,0,0,0,0,-1,1847,904,0,0
630,120,0.00109863,0.0288086,0.000248675,0.0018216,-0.000316324,0.00188283,0.000187444,-1.37959,0.00119764,0.0373815,1854,904,0.00112581,-0.0288384
637,120,-0.0653076,0.0891113,0.000534544,0.00101388,-0.000773245,0.00158374,-3.53252e-05,-0.935677,0.0010678,0.037654,1861,904,-0.0652767,-0.0891069
644,120,-0.0611572,-0.113708,0.000598618,0.000499319,-0.000923298,0.0014736,-0.000375663,-0.758537,0.00112866,0.0367366,1868,904,-0.0611303,0.113694
651,120,-0.0479736,-0.100281,0.000551953,0.000199226,-0.000929745,0.00132191,-0.000570735,-0.691667,0.00112104,0.0423717,1875,904,-0.0479713,0.100292
658,120,-0.0423584,-0.134399,0.000437596,3.9704e-05,-0.000852337,0.0011139,-0.000636597,-0.670745,0.00102309,0.0434679,1882,904,-0.0423298,0.1344
665,120,-0.0744629,-0.0875244,0.000302568,-2.79408e-05,-0.000726549,0.000882419,-0.000607792,-0.673575,0.00086523,0.0345855,1889,904,-0.0744958,0.0875363
672,120,-0.0657959,-0.0917969,0.000183359,-7.62091e-05,-0.00059017,0.000657847,-0.000550697,-0.677166,0.000698667,0.0289708,1896,904,-0.0657656,0.0918086
679,120,-0.0419922,-0.0545044,0.000111924,-7.59282e-05,-0.000421052,0.000449399,-0.000413403,-0.675658,0.000498283,0.0237701,1903,904,-0.0419642,0.0544789
686,120,-0.0373535,-0.0651855,1.37991e-06,-3.18666e-05,-0.000345902,0.000331058,-0.000361545,-0.761388,0.000400004,0.0131845,1910,904,-0.0373013,0.0651576
693,120,-0.0109863,-0.0842896,-0.000105124,2.47788e-05,-0.000220849,0.000190029,-0.000270374,-0.928415,0.00026716,0.0208501,1917,904,-0.0109558,0.0842694
700,120,-0.0415039,-0.078186,-0.000174869,6.60319e-05,-8.83389e-05,9.49536e-05,-0.000203791,-1.2544,0.000176255,0.0163421,1924,904,-0.0414467,0.0781806
707,120,-0.0510254,-0.0738525,-0.00020548,0.000113504,-5.2979e-05,0.000122073,-0.000214049,-1.41044,0.000196467,0.0165768,1931,904,-0.050995,0.0738346
714,120,-0.0401611,-0.0611572,-9.73523e-05,0.000122454,-0.000129206,0.000182177,-0.000157075,-1.13782,0.000196046,0.0141574,1938,904,-0.0401895,0.0611387
721,120,-0.0408936,-0.0506592,-0.000111017,2.5375e-05,-0.000368121,0.000331563,-0.000417206,-0.876987,0.000433244,0.0121338,1945,904,-0.0409246,0.0506612
728,120,-0.0244141,-0.0684814,8.89108e-05,-0.000667274,-8.15163e-05,9.75984e-05,-0.000675962,-0.106174,0.000486449,0.00870722,1952,904,-0.0243913,0.0684634
735,120,-0.0231934,-0.0847168,0.000676691,0.00177361,0.00147513,0.00279895,-0.00034864,0.963382,0.00199237,0.0115979,1959,904,-0.0231978,0.0846953
742,120,-0.0253906,-0.0759277,0.000435165,0.00504505,0.00340995,0.00685599,-0.00137578,1.0826,0.00509159,0.0129739,1966,904,-0.0253899,0.0759163
749,120,-0.0402832,-0.0776367,-0.000378772,0.00849147,0.00656919,0.0119825,-0.00386985,1.08232,0.00954353,0.0100009,1973,904,-0.0402281,0.0776365
756,120,-0.0395508,-0.0719604,-0.000950843,0.0134676,0.0104164,0.0189262,-0.00640946,1.0881,0.0152109,0.0114397,1980,904,-0.0395726,0.0719645
763,120,-0.0159912,-0.120667,-0.00201,0.0206471,0.0158737,0.0288201,-0.010183,1.09532,0.0233596,0.0192187,1987,904,-0.015989,0.120697
770,120,0.0369873,-0.32428,-0.00381341,0.0306047,0.0233369,0.0423915,-0.0156002,1.1031,0.0346521,0.0380285,1994,904,0.0369417,0.324304
777,120,-0.234741,-0.0164185,-0.00668149,0.0439377,0.0332122,0.0603848,-0.0231286,1.11099,0.0497901,0.048764,2001,904,-0.234706,0.0164422
784,120,-0.0563965,1.66766,-0.0110879,0.0612216,0.0458716,0.0834738,-0.03334,1.11914,0.069482,0.049298,2008,904,-0.0563719,-1.66767
791,120,-0.653931,2.79419,-0.0176751,0.0830255,0.0616669,0.112286,-0.0469361,1.12776,0.0944729,0.0447404,2015,904,-0.653898,-2.79416
798,120,-1.24902,3.82843,-0.0273228,0.109847,0.0809425,0.147354,-0.0648303,1.13687,0.125555,0.0463003,2022,904,-1.24908,-3.82846
805,120,0,0,0,0,0,0,0,0,0,-1,2029,904,0,0
812,120,0,0,0,0,0,0,0,0,0,-1,2036,904,0,0
-700,113,0,0,0,0,0,0,0,0,0,-1,524,911,0,0
-693,113,0,0,0,0,0,0,0,0,0,-1,531,911,0,0
-686,113,0,0,0,0,0,0,0,0,0,-1,538,911,0,0
-679,113,-0.424805,-0.2677,0.0769071,0.0163707,-0.00384216,0.07715,0.0161279,-0.063131,0.0469892,0.0431639,545,911,-0.424802,0.267725
-672,113,-0.14679,-0.23053,0.0639754,0.017693,-0.000771491,0.0639883,0.0176801,-0.016663,0.0381562,0.0444634,552,911,-0.146766,0.230549
-665,113,0.390198,-0.427673,0.0533684,0.017391,0.000580205,0.0533778,0.0173817,0.0161213,0.0314361,0.044321,559,911,0.390204,0.427657
-658,113,-0.026123,-0.543152,0.0442884,0.0161557,0.0010506,0.0443276,0.0161165,0.0372751,0.0259081,0.0439444,566,911,-0.0261068,0.543145
-651,113,-0.494141,-0.214783,0.0363403,0.0143848,0.00102319,0.0363879,0.0143372,0.0464686,0.0211653,0.0431484,573,911,-0.494127,0.214786
-644,113,-0.394104,-0.0533447,0.0293355,0.0123342,0.000747348,0.0293683,0.0123014,0.0438457,0.01703,0.0385077,580,911,-0.39413,0.0533401
-637,113,-0.142029,-0.0962524,0.0231654,0.0101915,0.000389073,0.0231771,0.0101799,0.0299531,0.0134142,0.0316541,587,911,-0.142043,0.0962537
-630,113,-0.0632935,-0.0853271,0.0168252,0.008385,0.000492357,0.0168539,0.00835638,0.058072,0.00973069,0.0144475,594,911,-0.0632728,0.0853242
-623,113,-0.0213623,-0.0757446,0.0122281,0.00619212,-2.85673e-05,0.0122283,0.00619198,-0.00473266,0.00706019,0.00951842,601,911,-0.0213924,0.0757319
-616,113,-0.0162354,-0.071228,0.00892658,0.00428992,-0.000222323,0.00893722,0.00427928,-0.0478028,0.00516145,0.00859346,608,911,-0.016258,0.0712403
-609,113,-0.0255127,-0.0657959,0.00652653,0.00353995,-0.000425878,0.00658607,0.00348041,-0.13891,0.00380452,0.0101529,615,911,-0.0255418,0.0658095
-602,113,-0.0371094,-0.0609131,0.00401955,0.00158283,-0.000555159,0.00414008,0.00146231,-0.213776,0.00242437,0.013263,622,911,-0.0371004,0.0609382
-595,113,-0.0158081,-0.0542603,0.00196517,0.000917069,-0.000762892,0.00236666,0.000515574,-0.48445,0.00143708,0.0150822,629,911,-0.0157985,0.054264
-588,113,-0.00891113,-0.0618286,0.000845758,0.000416779,-0.000348174,0.00104021,0.000222329,-0.509333,0.000632523,0.0153371,636,911,-0.00888637,0.0618287
-581,113,-0.0236816,-0.0579834,0.000370366,7.37966e-06,-8.02449e-05,0.000387314,-9.56866e-06,-0.208148,0.000261457,0.0171046,643,911,-0.0237001,0.0579591
-574,113,-0.0278931,-0.0668945,0.000163307,-0.000131124,0.000102277,0.000195349,-0.000163166,0.303595,0.000207266,0.0159192,650,911,-0.0278683,0.0669204
-567,113,-0.0330811,-0.0783691,0.000165034,-0.000109669,6.72367e-05,0.000180608,-0.000125243,0.227616,0.000177545,0.0254884,657,911,-0.0330852,0.0783981
-560,113,-0.0237427,-0.0227051,0.000444927,-0.000155601,-4.23742e-06,0.000444957,-0.000155631,-0.00705569,0.000359911,0.0367343,664,911,-0.0237144,0.0226883
-553,113,-0.00671387,0.0699463,0.000618254,-0.000141564,-4.69155e-05,0.00062114,-0.00014445,-0.0614346,0.000469706,0.0353886,671,911,-0.00669085,-0.0699305
-546,113,-0.0153809,0.0679321,0.000820303,-0.000156843,-0.000161437,0.000846284,-0.000182823,-0.159565,0.000633979,0.0312636,678,911,-0.0153717,-0.067953
-539,113,0.0119629,-0.043335,0.00112954,-0.000154072,-0.000356306,0.00122181,-0.000246343,-0.253398,0.000907866,0.0311611,685,911,0.0119714,0.043328
-532,113,0.0584106,-0.0927124,0.00162035,-0.000128711,-0.000643172,0.00183139,-0.000339756,-0.317061,0.00134852,0.0352447,692,911,0.0584005,0.0926922
-525,113,-0.0843506,0.0541382,0.00233138,-6.64257e-05,-0.00104143,0.00272054,-0.000455587,-0.357612,0.00198308,0.0370378,699,911,-0.0843529,-0.0541268
-518,113,-0.106384,0.122986,0.00335756,6.36797e-05,-0.00157309,0.00398813,-0.000566882,-0.381233,0.00286646,0.0378235,706,911,-0.106404,-0.123007
-511,113,-0.0494995,0.109375,0.00498856,0.000321582,-0.00219726,0.00586024,-0.000550098,-0.377669,0.0041025,0.0386266,713,911,-0.0495291,-0.109361
-504,113,0,0,0,0,0,0,0,0,0,-1,720,911,0,0
-497,113,0,0,0,0,0,0,0,0,0,-1,727,911,0,0
-490,113,0,0,0,0,0,0,0,0,0,-1,734,911,0,0
-483,113,0,0,0,0,0,0,0,0,0,-1,741,911,0,0
-476,113,0,0,0,0,0,0,0,0,0,-1,748,911,0,0
-469,113,0,0,0,0,0,0,0,0,0,-1,755,911,0,0
-462,113,0,0,0,0,0,0,0,0,0,-1,762,911,0,0
-455,113,0,0,0,0,0,0,0,0,0,-1,769,911,0,0
-448,113,0,0,0,0,0,0,0,0,0,-1,776,911,0,0
-441,113,0,0,0,0,0,0,0,0,0,-1,783,911,0,0
-434,113,0,0,0,0,0,0,0,0,0,-1,790,911,0,0
-427,113,0,0,0,0,0,0,0,0,0,-1,797,911,0,0
-420,113,0,0,0,0,0,0,0,0,0,-1,804,911,0,0
-413,113,0,0,0,0,0,0,0,0,0,-1,811,911,0,0
-406,113,0,0,0,0,0,0,0,0,0,-1,818,911,0,0
-399,113,0,0,0,0,0,0,0,0,0,-1,825,911,0,0
-392,113,0,0,0,0,0,0,0,0,0,-1,832,911,0,0
-385,113,0,0,0,0,0,0,0,0,0,-1,839,911,0,0
-378,113,0,0,0,0,0,0,0,0,0,-1,846,911,0,0
-371,113,0,0,0,0,0,0,0,0,0,-1,853,911,0,0
-364,113,0,0,0,0,0,0,0,0,0,-1,860,911,0,0
-357,113,0,0,0,0,0,0,0,0,0,-1,867,911,0,0
-350,113,0,0,0,0,0,0,0,0,0,-1,874,911,0,0
-343,113,0,0,0,0,0,0,0,0,0,-1,881,911,0,0
-336,113,0,0,0,0,0,0,0,0,0,-1,888,911,0,0
-329,113,0,0,0,0,0,0,0,0,0,-1,895,911,0,0
-322,113,0,0,0,0,0,0,0,0,0,-1,902,911,0,0
-315,113,0,0,0,0,0,0,0,0,0,-1,909,911,0,0
-308,113,0,0,0,0,0,0,0,0,0,-1,916,911,0,0
-301,113,0,0,0,0,0,0,0,0,0,-1,923,911,0,0
-294,113,0,0,0,0,0,0,0,0,0,-1,930,911,0,0
-287,113,0,0,0,0,0,0,0,0,0,-1,937,911,0,0
-280,113,0,0,0,0,0,0,0,0,0,-1,944,911,0,0
-273,113,0,0,0,0,0,0,0,0,0,-1,951,911,0,0
-266,113,0,0,0,0,0,0,0,0,0,-1,958,911,0,0
-259,113,0,0,0,0,0,0,0,0,0,-1,965,911,0,0
-252,113,0,0,0,0,0,0,0,0,0,-1,972,911,0,0
-245,113,0,0,0,0,0,0,0,0,0,-1,979,911,0,0
-238,113,0,0,0,0,0,0,0,0,0,-1,986,911,0,0
-231,113,0,0,0,0,0,0,0,0,0,-1,993,911,0,0
-224,113,0,0,0,0,0,0,0,0,0,-1,1000,911,0,0
-217,113,0,0,0,0,0,0,0,0,0,-1,1007,911,0,0
-210,113,0,0,0,0,0,0,0,0,0,-1,1014,911,0,0
-203,113,0,0,0,0,0,0,0,0,0,-1,1021,911,0,0
-196,113,0,0,0,0,0,0,0,0,0,-1,1028,911,0,0
-189,113,0,0,0,0,0,0,0,0,0,-1,1035,911,0,0
-182,113,0,0,0,0,0,0,0,0,0,-1,1042,911,0,0
-175,113,0,0,0,0,0,0,0,0,0,-1,1049,911,0,0
-168,113,0,0,0,0,0,0,0,0,0,-1,1056,911,0,0
-161,113,0,0,0,0,0,0,0,0,0,-1,1063,911,0,0
-154,113,0,0,0,0,0,0,0,0,0,-1,1070,911,0,0
-147,113,0,0,0,0,0,0,0,0,0,-1,1077,911,0,0
-140,113,0,0,0,0,0,0,0,0,0,-1,1084,911,0,0
-133,113,0,0,0,0,0,0,0,0,0,-1,1091,911,0,0
-126,113,0,0,0,0,0,0,0,0,0,-1,1098,911,0,0
-119,113,0,0,0,0,0,0,0,0,0,-1,1105,911,0,0
-112,113,0,0,0,0,0,0,0,0,0,-1,1112,911,0,0
-105,113,0,0,0,0,0,0,0,0,0,-1,1119,911,0,0
-98,113,0,0,0,0,0,0,0,0,0,-1,1126,911,0,0
-91,113,0,0,0,0,0,0,0,0,0,-1,1133,911,0,0
-84,113,0,0,0,0,0,0,0,0,0,-1,1140,911,0,0
-77,113,0,0,0,0,0,0,0,0,0,-1,1147,911,0,0
-70,113,0,0,0,0,0,0,0,0,0,-1,1154,911,0,0
-63,113,0,0,0,0,0,0,0,0,0,-1,1161,911,0,0
-56,113,0,0,0,0,0,0,0,0,0,-1,1168,911,0,0
-49,113,0,0,0,0,0,0,0,0,0,-1,1175,911,0,0
-42,113,0,0,0,0,0,0,0,0,0,-1,1182,911,0,0
-35,113,0,0,0,0,0,0,0,0,0,-1,1189,911,0,0
-28,113,0,0,0,0,0,0,0,0,0,-1,1196,911,0,0
-21,113,0,0,0,0,0,0,0,0,0,-1,1203,911,0,0
-14,113,0,0,0,0,0,0,0,0,0,-1,1210,911,0,0
-7,113,0,0,0,0,0,0,0,0,0,-1,1217,911,0,0
0,113,0,0,0,0,0,0,0,0,0,-1,1224,911,0,0
7,113,0,0,0,0,0,0,0,0,0,-1,1231,911,0,0
14,113,0,0,0,0,0,0,0,0,0,-1,1238,911,0,0
21,113,0,0,0,0,0,0,0,0,0,-1,1245,911,0,0
28,113,0,0,0,0,0,0,0,0,0,-1,1252,911,0,0
35,113,0,0,0,0,0,0,0,0,0,-1,1259,911,0,0
42,113,0,0,0,0,0,0,0,0,0,-1,1266,911,0,0
49,113,0,0,0,0,0,0,0,0,0,-1,1273,911,0,0
56,113,0,0,0,0,0,0,0,0,0,-1,1280,911,0,0
63,113,0,0,0,0,0,0,0,0,0,-1,1287,911,0,0
70,113,0,0,0,0,0,0,0,0,0,-1,1294,911,0,0
77,113,0,0,0,0,0,0,0,0,0,-1,1301,911,0,0
84,113,0,0,0,0,0,0,0,0,0,-1,1308,911,0,0
91,113,0,0,0,0,0,0,0,0,0,-1,1315,911,0,0
98,113,0,0,0,0,0,0,0,0,0,-1,1322,911,0,0
105,113,0,0,0,0,0,0,0,0,0,-1,1329,911,0,0
112,113,0,0,0,0,0,0,0,0,0,-1,1336,911,0,0
119,113,0,0,0,0,0,0,0,0,0,-1,1343,911,0,0
126,113,0,0,0,0,0,0,0,0,0,-1,1350,911,0,0
133,113,0,0,0,0,0,0,0,0,0,-1,1357,911,0,0
140,113,0,0,0,0,0,0,0,0,0,-1,1364,911,0,0
147,113,0,0,0,0,0,0,0,0,0,-1,1371,911,0,0
154,113,0,0,0,0,0,0,0,0,0,-1,1378,911,0,0
161,113,0,0,0,0,0,0,0,0,0,-1,1385,911,0,0
168,113,0,0,0,0,0,0,0,0,0,-1,1392,911,0,0
175,113,0,0,0,0,0,0,0,0,0,-1,1399,911,0,0
182,113,0,0,0,0,0,0,0,0,0,-1,1406,911,0,0
189,113,0,0,0,0,0,0,0,0,0,-1,1413,911,0,0
196,113,0,0,0,0,0,0,0,0,0,-1,1420,911,0,0
203,113,0,0,0,0,0,0,0,0,0,-1,1427,911,0,0
210,113,0,0,0,0,0,0,0,0,0,-1,1434,911,0,0
217,113,0,0,0,0,0,0,0,0,0,-1,1441,911,0,0
224,113,0,0,0,0,0,0,0,0,0,-1,1448,911,0,0
231,113,0,0,0,0,0,0,0,0,0,-1,1455,911,0,0
238,113,0,0,0,0,0,0,0,0,0,-1,1462,911,0,0
245,113,0,0,0,0,0,0,0,0,0,-1,1469,911,0,0
252,113,0,0,0,0,0,0,0,0,0,-1,1476,911,0,0
259,113,0,0,0,0,0,0,0,0,0,-1,1483,911,0,0
266,113,0,0,0,0,0,0,0,0,0,-1,1490,911,0,0
273,113,0,0,0,0,0,0,0,0,0,-1,1497,911,0,0
280,113,0,0,0,0,0,0,0,0,0,-1,1504,911,0,0
287,113,0,0,0,0,0,0,0,0,0,-1,1511,911,0,0
294,113,0,0,0,0,0,0,0,0,0,-1,1518,911,0,0
301,113,0,0,0,0,0,0,0,0,0,-1,1525,911,0,0
308,113,0,0,0,0,0,0,0,0,0,-1,1532,911,0,0
315,113,0,0,0,0,0,0,0,0,0,-1,1539,911,0,0
322,113,0,0,0,0,0,0,0,0,0,-1,1546,911,0,0
329,113,0,0,0,0,0,0,0,0,0,-1,1553,911,0,0
336,113,0,0,0,0,0,0,0,0,0,-1,1560,911,0,0
343,113,0,0,0,0,0,0,0,0,0,-1,1567,911,0,0
350,113,0,0,0,0,0,0,0,0,0,-1,1574,911,0,0
357,113,0,0,0,0,0,0,0,0,0,-1,1581,911,0,0
364,113,0,0,0,0,0,0,0,0,0,-1,1588,911,0,0
371,113,0,0,0,0,0,0,0,0,0,-1,1595,911,0,0
378,113,0,0,0,0,0,0,0,0,0,-1,1602,911,0,0
385,113,0,0,0,0,0,0,0,0,0,-1,1609,911,0,0
392,113,0,0,0,0,0,0,0,0,0,-1,1616,911,0,0
399,113,0,0,0,0,0,0,0,0,0,-1,1623,911,0,0
406,113,0,0,0,0,0,0,0,0,0,-1,1630,911,0,0
413,113,0,0,0,0,0,0,0,0,0,-1,1637,911,0,0
420,113,0,0,0,0,0,0,0,0,0,-1,1644,911,0,0
427,113,0,0,0,0,0,0,0,0,0,-1,1651,911,0,0
434,113,0,0,0,0,0,0,0,0,0,-1,1658,911,0,0
441,113,0,0,0,0,0,0,0,0,0,-1,1665,911,0,0
448,113,0,0,0,0,0,0,0,0,0,-1,1672,911,0,0
455,113,0,0,0,0,0,0,0,0,0,-1,1679,911,0,0
462,113,0,0,0,0,0,0,0,0,0,-1,1686,911,0,0
469,113,0,0,0,0,0,0,0,0,0,-1,1693,911,0,0
476,113,0,0,0,0,0,0,0,0,0,-1,1700,911,0,0
483,113,0,0,0,0,0,0,0,0,0,-1,1707,911,0,0
490,113,0,0,0,0,0,0,0,0,0,-1,1714,911,0,0
497,113,0,0,0,0,0,0,0,0,0,-1,1721,911,0,0
504,113,0,0,0,0,0,0,0,0,0,-1,1728,911,0,0
511,113,0,0,0,0,0,0,0,0,0,-1,1735,911,0,0
518,113,0,0,0,0,0,0,0,0,0,-1,1742,911,0,0
525,113,0,0,0,0,0,0,0,0,0,-1,1749,911,0,0
532,113,0,0,0,0,0,0,0,0,0,-1,1756,911,0,0
539,113,0,0,0,0,0,0,0,0,0,-1,1763,911,0,0
546,113,0,0,0,0,0,0,0,0,0,-1,1770,911,0,0
553,113,0,0,0,0,0,0,0,0,0,-1,1777,911,0,0
560,113,0,0,0,0,0,0,0,0,0,-1,1784,911,0,0
567,113,0,0,0,0,0,0,0,0,0,-1,1791,911,0,0
574,113,0,0,0,0,0,0,0,0,0,-1,1798,911,0,0
581,113,0,0,0,0,0,0,0,0,0,-1,1805,911,0,0
588,113,0,0,0,0,0,0,0,0,0,-1,1812,911,0,0
595,113,0,0,0,0,0,0,0,0,0,-1,1819,911,0,0
602,113,0,0,0,0,0,0,0,0,0,-1,1826,911,0,0
609,113,0,0,0,0,0,0,0,0,0,-1,1833,911,0,0
616,113,0,0,0,0,0,0,0,0,0,-1,1840,911,0,0
623,113,0,0,0,0,0,0,0,0,0,-1,1847,911,0,0
630,113,0.0178223,0.017334,0.000387247,0.0022005,-0.00029747,0.00224805,0.000339693,-1.41228,0.00139928,0.0364285,1854,911,0.0177901,-0.0173284
637,113,0.00939941,0.106995,0.00067611,0.00126171,-0.000794811,0.00181594,0.000121882,-0.961879,0.00117211,0.0361759,1861,911,0.00940515,-0.107025
644,113,-0.0229492,0.164368,0.000714752,0.00064208,-0.000971063,0.00165016,-0.000293326,-0.766698,0.00120979,0.0332942,1868,911,-0.0229238,-0.164353
651,113,-0.0316162,0.0213623,0.000644654,0.000262432,-0.000996987,0.00146868,-0.000561596,-0.690703,0.00121055,0.0377515,1875,911,-0.0315696,-0.0213697
658,113,-0.0576172,-0.0993042,0.000508771,4.61306e-05,-0.000930001,0.00123579,-0.000680887,-0.663506,0.00112195,0.0411699,1882,911,-0.0576597,0.0992961
665,113,-0.127686,-0.141357,0.000351677,-6.16065e-05,-0.000808709,0.000979727,-0.000689657,-0.660314,0.000968657,0.0330802,1889,911,-0.127677,0.141362
672,113,-0.0490723,-0.0927124,0.000211391,-0.000124779,-0.000662267,0.00072657,-0.000639958,-0.661121,0.000789493,0.0287779,1896,911,-0.0490173,0.092682
679,113,-0.0111084,-0.0996094,0.000124362,-0.000131969,-0.000490698,0.000503356,-0.000510964,-0.657657,0.000585624,0.026741,1903,911,-0.0110804,0.0996211
686,113,-0.0157471,-0.111389,1.8446e-05,-9.47796e-05,-0.000411655,0.000377363,-0.000453696,-0.717064,0.000480486,0.0198645,1910,911,-0.0157744,0.111399
693,113,-0.0284424,-0.0723267,-8.72624e-05,-4.72694e-05,-0.000274429,0.000207891,-0.000342423,-0.821767,0.000320873,0.0162296,1917,911,-0.0284929,0.0723235
700,113,-0.019165,-0.0618896,-0.000159457,-5.66419e-07,-0.000134978,7.66111e-05,-0.000236635,-1.05139,0.000188555,0.0151226,1924,911,-0.0191689,0.0618967
707,113,-0.0432129,-0.0530396,-0.000191258,5.85794e-05,-7.89587e-05,8.14415e-05,-0.00021412,-1.28896,0.000176281,0.01579,1931,911,-0.0432739,0.0530374
714,113,-0.0526123,-0.0598145,-9.11845e-05,8.61077e-05,-0.000108836,0.00013783,-0.000142907,-1.12716,0.000162093,0.0145147,1938,911,-0.0526265,0.0598418
721,113,-0.0421143,-0.0447998,-0.000111985,7.01341e-06,-0.000294359,0.000247827,-0.000352798,-0.88512,0.000348532,0.0139805,1945,911,-0.0421252,0.0448173
728,113,-0.0113525,-0.052002,4.48112e-05,-0.000638559,7.66785e-06,4.48973e-05,-0.000638645,0.0112188,0.000441491,0.0135344,1952,911,-0.0113767,0.0520215
735,113,-0.0296631,-0.0644531,0.000472011,0.00161152,0.00157425,0.00271595,-0.00063241,0.959027,0.00205414,0.0134463,1959,911,-0.0296912,0.0644804
742,113,-0.0262451,-0.0695801,2.82394e-06,0.00441502,0.00363322,0.00645947,-0.00204163,1.05825,0.00512427,0.0116806,1966,911,-0.0262698,0.0695591
749,113,-0.0301514,-0.067627,-0.00107127,0.00747818,0.0068969,0.0113177,-0.00491076,1.06282,0.0096098,0.00856311,1973,911,-0.0301276,0.0676115
756,113,-0.0288086,-0.0681763,-0.00198789,0.0118203,0.0108382,0.0177666,-0.00793422,1.06899,0.015196,0.0100705,1980,911,-0.0288393,0.0682055
763,113,-0.0338135,-0.0721436,-0.00349905,0.0180652,0.0164128,0.0269207,-0.0123545,1.07602,0.0231896,0.019635,1987,911,-0.0337767,0.0721534
770,113,-0.0639648,-0.0645752,-0.00588456,0.0266879,0.024024,0.0394256,-0.0186223,1.08327,0.0342239,0.0402625,1994,911,-0.0639231,0.0645582
777,113,-0.188843,-0.0830688,-0.00947627,0.0381656,0.034089,0.0559318,-0.0272426,1.09035,0.0489637,0.0469879,2001,911,-0.18886,0.083092
784,113,0.0484619,-0.114197,-0.0147426,0.0529282,0.0470001,0.0770052,-0.0388197,1.09738,0.0680721,0.0447444,2008,911,0.0484166,0.114197
791,113,-0.578125,2.10779,-0.0223142,0.0713489,0.0631327,0.103124,-0.0540889,1.10451,0.0922265,0.0453034,2015,911,-0.578133,-2.1078
798,113,-1.32959,3.47894,-0.0330436,0.0936649,0.0828796,0.134631,-0.07401,1.11173,0.122142,0.0463504,2022,911,-1.32959,-3.47896
805,113,0,0,0,0,0,0,0,0,0,-1,2029,911,0,0
812,113,0,0,0,0,0,0,0,0,0,-1,2036,911,0,0
-700,106,0,0,0,0,0,0,0,0,0,-1,524,918,0,0
-693,106,0,0,0,0,0,0,0,0,0,-1,531,918,0,0
-686,106,0,0,0,0,0,0,0,0,0,-1,538,918,0,0
-679,106,-0.503296,-0.428711,0.0860542,0.0147069,-0.014922,0.0890493,0.0117117,-0.198088,0.055873,0.0455736,545,918,-0.503305,0.428686
-672,106,-0.193726,-0.41272,0.0695647,0.0159057,-0.00945082,0.0711806,0.0142898,-0.169341,0.0434804,0.0447751,552,918,-0.193718,0.412744
-665,106,0.00628662,-0.519836,0.0564864,0.0156411,-0.00606033,0.0573666,0.0147609,-0.144234,0.0343966,0.0450052,559,918,0.0062617,0.519827
-658,106,-0.0368652,-0.789978,0.0457057,0.0145347,-0.00390225,0.0461868,0.0140536,-0.122667,0.0273385,0.0464388,566,918,-0.0368857,0.789965
-651,106,-0.219971,-0.329956,0.0366273,0.0129373,-0.00255192,0.0368991,0.0126655,-0.1061,0.0216499,0.0433838,573,918,-0.219955,0.32995
-644,106,-0.159851,-0.139893,0.0289206,0.0110808,-0.00172586,0.029086,0.0109154,-0.0955614,0.0169661,0.0382294,580,918,-0.15988,0.139909
-637,106,-0.0861206,-0.110779,0.0223758,0.00913548,-0.00122942,0.022489,0.00902229,-0.0918088,0.0130682,0.0254585,587,918,-0.086112,0.110796
-630,106,-0.0488892,-0.0714111,0.0156176,0.00765844,-0.000263967,0.0156264,0.0076497,-0.0331165,0.00902255,0.0106813,594,918,-0.0488933,0.0714287
-623,106,-0.024353,-0.0736084,0.010979,0.00566338,-0.000366264,0.0110041,0.00563826,-0.0684725,0.00635386,0.00915282,601,918,-0.0243808,0.0735882
-616,106,-0.017395,-0.0754395,0.0079117,0.00387903,-0.000301332,0.00793409,0.00385664,-0.0741736,0.00458134,0.00941946,608,918,-0.017407,0.0754648
-609,106,-0.0197754,-0.0593262,0.00570205,0.00313261,-0.000357211,0.00575079,0.00308387,-0.135597,0.00332313,0.00970634,615,918,-0.0197608,0.0593536
-602,106,-0.0198975,-0.0609741,0.00349998,0.00129014,-0.000443446,0.00358564,0.00120447,-0.19083,0.002107,0.0103955,622,918,-0.0198705,0.0609751
-595,106,-0.0388184,-0.0585938,0.00173186,0.000674422,-0.000576611,0.00198546,0.000420822,-0.414349,0.00120805,0.0126368,629,918,-0.0387958,0.0586013
-588,106,-0.0342407,-0.0617676,0.00078663,0.000253934,-0.000174657,0.000838788,0.000201776,-0.290202,0.000505539,0.0139566,636,918,-0.0342298,0.0617457
-581,106,-0.0117798,-0.0552368,0.000388006,-9.16653e-05,4.00207e-05,0.000391322,-9.49814e-05,0.0826718,0.000297637,0.0139081,643,918,-0.0117528,0.0552342
-574,106,-0.00897217,-0.0754395,0.000186435,-0.000196598,0.00016568,0.000248154,-0.000258317,0.356596,0.000292431,0.0135156,650,918,-0.00894395,0.0754618
-567,106,-0.00598145,-0.0797729,0.000165375,-0.000164804,0.000114452,0.000201167,-0.000200597,0.303098,0.000231959,0.0235284,657,918,-0.0059604,0.0797467
-560,106,0.0122681,-0.0574341,0.000385409,-0.000188008,5.25579e-05,0.000390186,-0.000192785,0.090651,0.00034295,0.0322827,664,918,0.0122735,0.0574118
-553,106,-0.0328979,0.078186,0.000492945,-0.000157614,-1.33542e-06,0.000492948,-0.000157616,-0.00205272,0.000391883,0.0308951,671,918,-0.0329134,-0.0781859
-546,106,-0.0554199,0.0952148,0.000612854,-0.000121971,-0.000142136,0.000639389,-0.000148506,-0.184562,0.000483425,0.0336923,678,918,-0.0554428,-0.0951904
-539,106,-0.0152588,-0.118896,0.000806228,-5.24702e-05,-0.000380693,0.000950697,-0.00019694,-0.362702,0.000708626,0.0372063,685,918,-0.0152783,0.118912
-532,106,0.168701,0.0175171,0.00114374,6.6634e-05,-0.000744338,0.00152393,-0.000313549,-0.472224,0.001135,0.0373464,692,918,0.168686,-0.0175075
-525,106,0.112488,-0.0596313,0.00166497,0.00025329,-0.00127262,0.00241439,-0.000496127,-0.5322,0.00179793,0.0353531,699,918,0.112515,0.0596438
-518,106,0.0577393,-0.174011,0.00247642,0.000554647,-0.00202194,0.00375418,-0.000723111,-0.56358,0.0027754,0.036522,706,918,0.0577285,0.174009
-511,106,0,0,0,0,0,0,0,0,0,-1,713,918,0,0
-504,106,0,0,0,0,0,0,0,0,0,-1,720,918,0,0
-497,106,0,0,0,0,0,0,0,0,0,-1,727,918,0,0
-490,106,0,0,0,0,0,0,0,0,0,-1,734,918,0,0
-483,106,0,0,0,0,0,0,0,0,0,-1,741,918,0,0
-476,106,0,0,0,0,0,0,0,0,0,-1,748,918,0,0
-469,106,0,0,0,0,0,0,0,0,0,-1,755,918,0,0
-462,106,0,0,0,0,0,0,0,0,0,-1,762,918,0,0
-455,106,0,0,0,0,0,0,0,0,0,-1,769,918,0,0
-448,106,0,0,0,0,0,0,0,0,0,-1,776,918,0,0
-441,106,0,0,0,0,0,0,0,0,0,-1,783,918,0,0
-434,106,0,0,0,0,0,0,0,0,0,-1,790,918,0,0
-427,106,0,0,0,0,0,0,0,0,0,-1,797,918,0,0
-420,106,0,0,0,0,0,0,0,0,0,-1,804,918,0,0
-413,106,0,0,0,0,0,0,0,0,0,-1,811,918,0,0
-406,106,0,0,0,0,0,0,0,0,0,-1,818,918,0,0
-399,106,0,0,0,0,0,0,0,0,0,-1,825,918,0,0
-392,106,0,0,0,0,0,0,0,0,0,-1,832,918,0,0
-385,106,0,0,0,0,0,0,0,0,0,-1,839,918,0,0
-378,106,0,0,0,0,0,0,0,0,0,-1,846,918,0,0
-371,106,0,0,0,0,0,0,0,0,0,-1,853,918,0,0
-364,106,0,0,0,0,0,0,0,0,0,-1,860,918,0,0
-357,106,0,0,0,0,0,0,0,0,0,-1,867,918,0,0
-350,106,0,0,0,0,0,0,0,0,0,-1,874,918,0,0
-343,106,0,0,0,0,0,0,0,0,0,-1,881,918,0,0
-336,106,0,0,0,0,0,0,0,0,0,-1,888,918,0,0
-329,106,0,0,0,0,0,0,0,0,0,-1,895,918,0,0
-322,106,0,0,0,0,0,0,0,0,0,-1,902,918,0,0
-315,106,0,0,0,0,0,0,0,0,0,-1,909,918,0,0
-308,106,0,0,0,0,0,0,0,0,0,-1,916,918,0,0
-301,106,0,0,0,0,0,0,0,0,0,-1,923,918,0,0
-294,106,0,0,0,0,0,0,0,0,0,-1,930,918,0,0
-287,106,0,0,0,0,0,0,0,0,0,-1,937,918,0,0
-280,106,0,0,0,0,0,0,0,0,0,-1,944,918,0,0
-273,106,0,0,0,0,0,0,0,0,0,-1,951,918,0,0
-266,106,0,0,0,0,0,0,0,0,0,-1,958,918,0,0
-259,106,0,0,0,0,0,0,0,0,0,-1,965,918,0,0
-252,106,0,0,0,0,0,0,0,0,0,-1,972,918,0,0
-245,106,0,0,0,0,0,0,0,0,0,-1,979,918,0,0
-238,106,0,0,0,0,0,0,0,0,0,-1,986,918,0,0
-231,106,0,0,0,0,0,0,0,0,0,-1,993,918,0,0
-224,106,0,0,0,0,0,0,0,0,0,-1,1000,918,0,0
-217,106,0,0,0,0,0,0,0,0,0,-1,1007,918,0,0
-210,106,0,0,0,0,0,0,0,0,0,-1,1014,918,0,0
-203,106,0,0,0,0,0,0,0,0,0,-1,1021,918,0,0
-196,106,0,0,0,0,0,0,0,0,0,-1,1028,918,0,0
-189,106,0,0,0,0,0,0,0,0,0,-1,1035,918,0,0
-182,106,0,0,0,0,0,0,0,0,0,-1,1042,918,0,0
-175,106,0,0,0,0,0,0,0,0,0,-1,1049,918,0,0
-168,106,0,0,0,0,0,0,0,0,0,-1,1056,918,0,0
-161,106,0,0,0,0,0,0,0,0,0,-1,1063,918,0,0
-154,106,0,0,0,0,0,0,0,0,0,-1,1070,918,0,0
-147,106,0,0,0,0,0,0,0,0,0,-1,1077,918,0,0
-140,106,0,0,0,0,0,0,0,0,0,-1,1084,918,0,0
-133,106,0,0,0,0,0,0,0,0,0,-1,1091,918,0,0
-126,106,0,0,0,0,0,0,0,0,0,-1,1098,918,0,0
-119,106,0,0,0,0,0,0,0,0,0,-1,1105,918,0,0
-112,106,0,0,0,0,0,0,0,0,0,-1,1112,918,0,0
-105,106,0,0,0,0,0,0,0,0,0,-1,1119,918,0,0
-98,106,0,0,0,0,0,0,0,0,0,-1,1126,918,0,0
-91,106,0,0,0,0,0,0,0,0,0,-1,1133,918,0,0
-84,106,0,0,0,0,0,0,0,0,0,-1,1140,918,0,0
-77,106,0,0,0,0,0,0,0,0,0,-1,1147,918,0,0
-70,106,0,0,0,0,0,0,0,0,0,-1,1154,918,0,0
-63,106,0,0,0,0,0,0,0,0,0,-1,1161,918,0,0
-56,106,0,0,0,0,0,0,0,0,0,-1,1168,918,0,0
-49,106,0,0,0,0,0,0,0,0,0,-1,1175,918,0,0
-42,106,0,0,0,0,0,0,0,0,0,-1,1182,918,0,0
-35,106,0,0,0,0,0,0,0,0,0,-1,1189,918,0,0
-28,106,0,0,0,0,0,0,0,0,0,-1,1196,918,0,0
-21,106,0,0,0,0,0,0,0,0,0,-1,1203,918,0,0
-14,106,0,0,0,0,0,0,0,0,0,-1,1210,918,0,0
-7,106,0,0,0,0,0,0,0,0,0,-1,1217,918,0,0
0,106,0,0,0,0,0,0,0,0,0,-1,1224,918,0,0
7,106,0,0,0,0,0,0,0,0,0,-1,1231,918,0,0
14,106,0,0,0,0,0,0,0,0,0,-1,1238,918,0,0
21,106,0,0,0,0,0,0,0,0,0,-1,1245,918,0,0
28,106,0,0,0,0,0,0,0,0,0,-1,1252,918,0,0
35,106,0,0,0,0,0,0,0,0,0,-1,1259,918,0,0
42,106,0,0,0,0,0,0,0,0,0,-1,1266,918,0,0
49,106,0,0,0,0,0,0,0,0,0,-1,1273,918,0,0
56,106,0,0,0,0,0,0,0,0,0,-1,1280,918,0,0
63,106,0,0,0,0,0,0,0,0,0,-1,1287,918,0,0
70,106,0,0,0,0,0,0,0,0,0,-1,1294,918,0,0
77,106,0,0,0,0,0,0,0,0,0,-1,1301,918,0,0
84,106,0,0,0,0,0,0,0,0,0,-1,1308,918,0,0
91,106,0,0,0,0,0,0,0,0,0,-1,1315,918,0,0
98,106,0,0,0,0,0,0,0,0,0,-1,1322,918,0,0
105,106,0,0,0,0,0,0,0,0,0,-1,1329,918,0,0
112,106,0,0,0,0,0,0,0,0,0,-1,1336,918,0,0
119,106,0,0,0,0,0,0,0,0,0,-1,1343,918,0,0
126,106,0,0,0,0,0,0,0,0,0,-1,1350,918,0,0
133,106,0,0,0,0,0,0,0,0,0,-1,1357,918,0,0
140,106,0,0,0,0,0,0,0,0,0,-1,1364,918,0,0
147,106,0,0,0,0,0,0,0,0,0,-1,1371,918,0,0
154,106,0,0,0,0,0,0,0,0,0,-1,1378,918,0,0
161,106,0,0,0,0,0,0,0,0,0,-1,1385,918,0,0
168,106,0,0,0,0,0,0,0,0,0,-1,1392,918,0,0
175,106,0,0,0,0,0,0,0,0,0,-1,1399,918,0,0
182,106,0,0,0,0,0,0,0,0,0,-1,1406,918,0,0
189,106,0,0,0,0,0,0,0,0,0,-1,1413,918,0,0
196,106,0,0,0,0,0,0,0,0,0,-1,1420,918,0,0
203,106,0,0,0,0,0,0,0,0,0,-1,1427,918,0,0
210,106,0,0,0,0,0,0,0,0,0,-1,1434,918,0,0
217,106,0,0,0,0,0,0,0,0,0,-1,1441,918,0,0
224,106,0,0,0,0,0,0,0,0,0,-1,1448,918,0,0
231,106,0,0,0,0,0,0,0,0,0,-1,1455,918,0,0
238,106,0,0,0,0,0,0,0,0,0,-1,1462,918,0,0
245,106,0,0,0,0,0,0,0,0,0,-1,1469,918,0,0
252,106,0,0,0,0,0,0,0,0,0,-1,1476,918,0,0
259,106,0,0,0,0,0,0,0,0,0,-1,1483,918,0,0
266,106,0,0,0,0,0,0,0,0,0,-1,1490,918,0,0
273,106,0,0,0,0,0,0,0,0,0,-1,1497,918,0,0
280,106,0,0,0,0,0,0,0,0,0,-1,1504,918,0,0
287,106,0,0,0,0,0,0,0,0,0,-1,1511,918,0,0
294,106,0,0,0,0,0,0,0,0,0,-1,1518,918,0,0
301,106,0,0,0,0,0,0,0,0,0,-1,1525,918,0,0
308,106,0,0,0,0,0,0,0,0,0,-1,1532,918,0,0
315,106,0,0,0,0,0,0,0,0,0,-1,1539,918,0,0
322,106,0,0,0,0,0,0,0,0,0,-1,1546,918,0,0
329,106,0,0,0,0,0,0,0,0,0,-1,1553,918,0,0
336,106,0,0,0,0,0,0,0,0,0,-1,1560,918,0,0
343,106,0,0,0,0,0,0,0,0,0,-1,1567,918,0,0
350,106,0,0,0,0,0,0,0,0,0,-1,1574,918,0,0
357,106,0,0,0,0,0,0,0,0,0,-1,1581,918,0,0
364,106,0,0,0,0,0,0,0,0,0,-1,1588,918,0,0
371,106,0,0,0,0,0,0,0,0,0,-1,1595,918,0,0
378,106,0,0,0,0,0,0,0,0,0,-1,1602,918,0,0
385,106,0,0,0,0,0,0,0,0,0,-1,1609,918,0,0
392,106,0,0,0,0,0,0,0,0,0,-1,1616,918,0,0
399,106,0,0,0,0,0,0,0,0,0,-1,1623,918,0,0
406,106,0,0,0,0,0,0,0,0,0,-1,1630,918,0,0
413,106,0,0,0,0,0,0,0,0,0,-1,1637,918,0,0
420,106,0,0,0,0,0,0,0,0,0,-1,1644,918,0,0
427,106,0,0,0,0,0,0,0,0,0,-1,1651,918,0,0
434,106,0,0,0,0,0,0,0,0,0,-1,1658,918,0,0
441,106,0,0,0,0,0,0,0,0,0,-1,1665,918,0,0
448,106,0,0,0,0,0,0,0,0,0,-1,1672,918,0,0
455,106,0,0,0,0,0,0,0,0,0,-1,1679,918,0,0
462,106,0,0,0,0,0,0,0,0,0,-1,1686,918,0,0
469,106,0,0,0,0,0,0,0,0,0,-1,1693,918,0,0
476,106,0,0,0,0,0,0,0,0,0,-1,1700,918,0,0
483,106,0,0,0,0,0,0,0,0,0,-1,1707,918,0,0
490,106,0,0,0,0,0,0,0,0,0,-1,1714,918,0,0
497,106,0,0,0,0,0,0,0,0,0,-1,1721,918,0,0
504,106,0,0,0,0,0,0,0,0,0,-1,1728,918,0,0
511,106,0,0,0,0,0,0,0,0,0,-1,1735,918,0,0
518,106,0,0,0,0,0,0,0,0,0,-1,1742,918,0,0
525,106,0,0,0,0,0,0,0,0,0,-1,1749,918,0,0
532,106,0,0,0,0,0,0,0,0,0,-1,1756,918,0,0
539,106,0,0,0,0,0,0,0,0,0,-1,1763,918,0,0
546,106,0,0,0,0,0,0,0,0,0,-1,1770,918,0,0
553,106,0,0,0,0,0,0,0,0,0,-1,1777,918,0,0
560,106,0,0,0,0,0,0,0,0,0,-1,1784,918,0,0
567,106,0,0,0,0,0,0,0,0,0,-1,1791,918,0,0
574,106,0,0,0,0,0,0,0,0,0,-1,1798,918,0,0
581,106,0,0,0,0,0,0,0,0,0,-1,1805,918,0,0
588,106,0,0,0,0,0,0,0,0,0,-1,1812,918,0,0
595,106,0,0,0,0,0,0,0,0,0,-1,1819,918,0,0
602,106,0,0,0,0,0,0,0,0,0,-1,1826,918,0,0
609,106,0,0,0,0,0,0,0,0,0,-1,1833,918,0,0
616,106,0,0,0,0,0,0,0,0,0,-1,1840,918,0,0
623,106,0,0,0,0,0,0,0,0,0,-1,1847,918,0,0
630,106,0.0113525,0.00378418,0.000404839,0.00227098,-0.000243741,0.00230229,0.000373529,-1.44304,0.00142674,0.0373675,1854,918,0.011359,-0.00375568
637,106,-0.00292969,0.120239,0.000706907,0.00141271,-0.000783064,0.00191872,0.000200899,-0.997104,0.00121772,0.0358966,1861,918,-0.00291428,-0.120258
644,106,-0.0361328,0.196289,0.000736313,0.000839919,-0.000985647,0.00177512,-0.000198892,-0.811653,0.00125498,0.0307227,1868,918,-0.0360839,-0.196273
651,106,-0.0427246,0.0852661,0.000660296,0.000478826,-0.00103651,0.00161003,-0.000470909,-0.74174,0.00126001,0.0327398,1875,918,-0.042698,-0.0852385
658,106,-0.0499268,-0.0785522,0.00052207,0.00026456,-0.000986001,0.00138769,-0.000601057,-0.720474,0.00117776,0.035534,1882,918,-0.0499428,0.0785823
665,106,-0.0690918,-0.167236,0.000360369,0.000147223,-0.000876432,0.00113668,-0.000629091,-0.724896,0.00103342,0.0347038,1889,918,-0.0691093,0.167264
672,106,0.00500488,-0.06073,0.000218387,8.28003e-05,-0.000732276,0.000886001,-0.000584814,-0.73924,0.000855089,0.0323567,1896,918,0.00499395,0.0607572
679,106,0.0422363,-0.0666504,0.000124751,5.67894e-05,-0.000564538,0.00065633,-0.00047479,-0.755338,0.00065585,0.0290448,1903,918,0.0422305,0.0666239
686,106,0.0130615,-0.098938,2.64823e-05,6.42879e-05,-0.000479882,0.000525639,-0.000434869,-0.805083,0.000555375,0.0221375,1910,918,0.013031,0.0989658
693,106,-0.0256348,-0.0968018,-6.72581e-05,7.36856e-05,-0.000335235,0.000345776,-0.000339348,-0.888998,0.000395562,0.0113746,1917,918,-0.0256551,0.0968053
700,106,-0.0159912,-0.079834,-0.000130734,9.19473e-05,-0.000198372,0.000208089,-0.000246876,-1.04113,0.000262992,0.0147459,1924,918,-0.0160364,0.0798291
707,106,-0.0362549,-0.0388794,-0.000152922,0.000139244,-0.000136171,0.000192868,-0.000206546,-1.19565,0.000230646,0.0161593,1931,918,-0.0362719,0.0388686
714,106,-0.0474854,-0.0629272,-5.89899e-05,0.000162452,-0.000123669,0.000217722,-0.00011426,-1.1505,0.000194748,0.0127526,1938,918,-0.0474867,0.0629359
721,106,-0.0212402,-0.0621338,-5.78302e-05,6.51381e-05,-0.000240243,0.00025164,-0.000244332,-0.910672,0.00028636,0.0131247,1945,918,-0.0212874,0.0621205
728,106,-0.00671387,-0.0480347,8.50972e-05,-0.000555541,8.56937e-05,9.63617e-05,-0.000566806,0.130702,0.000413749,0.012795,1952,918,-0.00671606,0.0480601
735,106,-0.0362549,-0.0685425,0.00035186,0.00143863,0.00163099,0.00261437,-0.000823881,0.946197,0.00207286,0.011876,1959,918,-0.0362464,0.0685433
742,106,-0.0467529,-0.0705566,-0.00029416,0.00388448,0.00377957,0.00611377,-0.00252346,1.03789,0.0051283,0.0100364,1966,918,-0.0467487,0.0705276
749,106,-0.0310059,-0.069519,-0.00154734,0.0066092,0.00707453,0.0106968,-0.00563493,1.04687,0.0095789,0.0081701,1973,918,-0.0309928,0.069527
756,106,-0.0297852,-0.0734253,-0.00272739,0.0103964,0.0110271,0.0166663,-0.00899727,1.05379,0.0150358,0.00914416,1980,918,-0.0297629,0.0734131
763,106,-0.0496826,-0.0418701,-0.00458801,0.0158272,0.0165924,0.0251004,-0.0138613,1.06116,0.0228044,0.0165981,1987,918,-0.049664,0.0418806
770,106,-0.045166,0.0111694,-0.00742905,0.0233015,0.0241663,0.0365736,-0.0207012,1.06857,0.0334882,0.0350515,1994,918,-0.0451733,-0.011191
777,106,-0.0224609,-0.109497,-0.0115943,0.0332091,0.0341578,0.0516558,-0.030041,1.07563,0.0477148,0.0424397,2001,918,-0.0224966,0.109493
784,106,0.00158691,-0.143005,0,0,0,0,0,0,0,-1,2008,918,0.00154477,0.143003
791,106,-0.639282,1.74139,-0.0259357,0.0615595,0.0629557,0.0944753,-0.0588514,1.08904,0.0893161,0.0454869,2015,918,-0.639256,-1.74137
798,106,-1.30872,3.20502,-0.0375726,0.0803454,0.0825383,0.12282,-0.080047,1.09554,0.11799,0.0477371,2022,918,-1.30874,-3.20502
805,106,0,0,0,0,0,0,0,0,0,-1,2029,918,0,0
812,106,0,0,0,0,0,0,0,0,0,-1,2036,918,0,0
-700,99,0,0,0,0,0,0,0,0,0,-1,524,925,0,0
-693,99,0,0,0,0,0,0,0,0,0,-1,531,925,0,0
-686,99,0,0,0,0,0,0,0,0,0,-1,538,925,0,0
-679,99,-0.622559,-0.675293,0.0968676,0.00962858,-0.0246181,0.103335,0.00316104,-0.256909,0.067861,0.0458254,545,925,-0.622562,0.675276
-672,99,-0.0882568,-0.713989,0.0764285,0.011603,-0.0164515,0.0803646,0.00766687,-0.23484,0.0512124,0.0458978,552,925,-0.0882753,0.713979
-665,99,0.0389404,-0.668701,0.0604533,0.0120808,-0.0109097,0.0627999,0.00973418,-0.211871,0.0390287,0.0472165,559,925,0.0389629,0.668699
-658,99,-0.00463867,-1.04993,0,0,0,0,0,0,0,-1,566,925,-0.00465424,1.04992
-651,99,-0.148071,-0.567566,0,0,0,0,0,0,0,-1,573,925,-0.148079,0.567568
-644,99,0.00366211,-0.218201,0.0285839,0.0092516,-0.00277366,0.028974,0.00886153,-0.139718,0.0171434,0.0419584,580,925,0.00368044,0.218218
-637,99,-0.0195313,-0.139893,0.021578,0.00771481,-0.00166097,0.0217742,0.00751859,-0.117594,0.0127704,0.0246366,587,925,-0.0195377,0.139874
-630,99,-0.024292,-0.0696411,0.0143043,0.00672906,-4.05467e-05,0.0143045,0.00672884,-0.00535231,0.00826355,0.0115437,594,925,-0.0243047,0.0696229
-623,99,-0.0219727,-0.0717163,0.00955301,0.00507734,9.31649e-05,0.00955495,0.0050754,0.0208039,0.00552013,0.00736433,601,925,-0.0219964,0.0717151
-616,99,-0.0247192,-0.0714722,0.00677661,0.00343217,0.000177053,0.00678596,0.00342282,0.0527431,0.00391792,0.00857984,608,925,-0.024697,0.071488
-609,99,-0.019165,-0.06427,0.00478966,0.00267639,6.64912e-05,0.00479175,0.0026743,0.0314221,0.00277274,0.00860272,615,925,-0.0191507,0.0642687
-602,99,-0.0205688,-0.0577393,0.00290031,0.00100624,-0.000110763,0.00290676,0.000999789,-0.0582146,0.00170525,0.00810106,622,925,-0.0205966,0.0577124
-595,99,-0.0354004,-0.0574341,0.00144618,0.000481398,-0.000294558,0.001529,0.000398576,-0.274097,0.000915856,0.0106054,629,925,-0.035422,0.0574477
-588,99,-0.034668,-0.0593262,0.000698461,0.000142558,8.41038e-06,0.000698588,0.000142431,0.0151246,0.000426255,0.0111076,636,925,-0.0346873,0.0593327
-581,99,-0.0145874,-0.0645752,0.000384814,-0.000101296,0.000145155,0.00042486,-0.000141341,0.269183,0.000340283,0.0107069,643,925,-0.0146117,0.0645889
-574,99,-0.0131836,-0.0673218,0.000199319,-0.000146605,0.000183942,0.000278846,-0.000226132,0.408077,0.000292078,0.0101038,650,925,-0.013202,0.0672983
-567,99,0.0140991,-0.0692139,0.000156016,-7.25345e-05,9.51993e-05,0.000190475,-0.000106993,0.347291,0.000173983,0.0220042,657,925,0.0140729,0.0692214
-560,99,0.0698242,-0.0769043,0.000300042,-2.98206e-05,1.26951e-05,0.00030053,-3.03085e-05,0.0384102,0.000211183,0.0319674,664,925,0.0698041,0.0768786
-553,99,0.0195313,-0.0195923,0.000324947,6.39051e-05,-8.5613e-05,0.00035052,3.83322e-05,-0.290267,0.000222008,0.0340395,671,925,0.0195111,0.0196018
-546,99,-0.0424805,-0.0758667,0.000329918,0.000191093,-0.000284364,0.000553218,-3.22077e-05,-0.66569,0.000380003,0.038034,678,925,-0.0425087,0.0758521
-539,99,-0.0718994,-0.19696,0.000357669,0.000369731,-0.000606352,0.000970082,-0.000242681,-0.790371,0.000740982,0.0387901,685,925,-0.0718888,0.196974
-532,99,0.109253,0.0840454,0.000460228,0.00061406,-0.00108668,0.00162654,-0.000552257,-0.82073,0.00130791,0.0386358,692,925,0.109256,-0.0840599
-525,99,0.0340576,0.0720215,0.0006594,0.000940078,-0.00178329,0.00258854,-0.000989066,-0.824666,0.00213323,0.0364968,699,925,0.0340845,-0.0720164
-518,99,0.0301514,-0.136902,0.00104261,0.00139944,-0.0027796,0.00400635,-0.00156429,-0.817448,0.00331762,0.0386267,706,925,0.0301481,0.136879
-511,99,0,0,0,0,0,0,0,0,0,-1,713,925,0,0
-504,99,0,0,0,0,0,0,0,0,0,-1,720,925,0,0
-497,99,0,0,0,0,0,0,0,0,0,-1,727,925,0,0
-490,99,0,0,0,0,0,0,0,0,0,-1,734,925,0,0
-483,99,0,0,0,0,0,0,0,0,0,-1,741,925,0,0
-476,99,0,0,0,0,0,0,0,0,0,-1,748,925,0,0
-469,99,0,0,0,0,0,0,0,0,0,-1,755,925,0,0
-462,99,0,0,0,0,0,0,0,0,0,-1,762,925,0,0
-455,99,0,0,0,0,0,0,0,0,0,-1,769,925,0,0
-448,99,0,0,0,0,0,0,0,0,0,-1,776,925,0,0
-441,99,0,0,0,0,0,0,0,0,0,-1,783,925,0,0
-434,99,0,0,0,0,0,0,0,0,0,-1,790,925,0,0
-427,99,0,0,0,0,0,0,0,0,0,-1,797,925,0,0
-420,99,0,0,0,0,0,0,0,0,0,-1,804,925,0,0
-413,99,0,0,0,0,0,0,0,0,0,-1,811,925,0,0
-406,99,0,0,0,0,0,0,0,0,0,-1,818,925,0,0
-399,99,0,0,0,0,0,0,0,0,0,-1,825,925,0,0
-392,99,0,0,0,0,0,0,0,0,0,-1,832,925,0,0
-385,99,0,0,0,0,0,0,0,0,0,-1,839,925,0,0
-378,99,0,0,0,0,0,0,0,0,0,-1,846,925,0,0
-371,99,0,0,0,0,0,0,0,0,0,-1,853,925,0,0
-364,99,0,0,0,0,0,0,0,0,0,-1,860,925,0,0
-357,99,0,0,0,0,0,0,0,0,0,-1,867,925,0,0
-350,99,0,0,0,0,0,0,0,0,0,-1,874,925,0,0
-343,99,0,0,0,0,0,0,0,0,0,-1,881,925,0,0
-336,99,0,0,0,0,0,0,0,0,0,-1,888,925,0,0
-329,99,0,0,0,0,0,0,0,0,0,-1,895,925,0,0
-322,99,0,0,0,0,0,0,0,0,0,-1,902,925,0,0
-315,99,0,0,0,0,0,0,0,0,0,-1,909,925,0,0
-308,99,0,0,0,0,0,0,0,0,0,-1,916,925,0,0
-301,99,0,0,0,0,0,0,0,0,0,-1,923,925,0,0
-294,99,0,0,0,0,0,0,0,0,0,-1,930,925,0,0
-287,99,0,0,0,0,0,0,0,0,0,-1,937,925,0,0
-280,99,0,0,0,0,0,0,0,0,0,-1,944,925,0,0
-273,99,0,0,0,0,0,0,0,0,0,-1,951,925,0,0
-266,99,0,0,0,0,0,0,0,0,0,-1,958,925,0,0
-259,99,0,0,0,0,0,0,0,0,0,-1,965,925,0,0
-252,99,0,0,0,0,0,0,0,0,0,-1,972,925,0,0
-245,99,0,0,0,0,0,0,0,0,0,-1,979,925,0,0
-238,99,0,0,0,0,0,0,0,0,0,-1,986,925,0,0
-231,99,0,0,0,0,0,0,0,0,0,-1,993,925,0,0
-224,99,0,0,0,0,0,0,0,0,0,-1,1000,925,0,0
-217,99,0,0,0,0,0,0,0,0,0,-1,1007,925,0,0
-210,99,0,0,0,0,0,0,0,0,0,-1,1014,925,0,0
-203,99,0,0,0,0,0,0,0,0,0,-1,1021,925,0,0
-196,99,0,0,0,0,0,0,0,0,0,-1,1028,925,0,0
-189,99,0,0,0,0,0,0,0,0,0,-1,1035,925,0,0
-182,99,0,0,0,0,0,0,0,0,0,-1,1042,925,0,0
-175,99,0,0,0,0,0,0,0,0,0,-1,1049,925,0,0
-168,99,0,0,0,0,0,0,0,0,0,-1,1056,925,0,0
-161,99,0,0,0,0,0,0,0,0,0,-1,1063,925,0,0
-154,99,0,0,0,0,0,0,0,0,0,-1,1070,925,0,0
-147,99,0,0,0,0,0,0,0,0,0,-1,1077,925,0,0
-140,99,0,0,0,0,0,0,0,0,0,-1,1084,925,0,0
-133,99,0,0,0,0,0,0,0,0,0,-1,1091,925,0,0
-126,99,0,0,0,0,0,0,0,0,0,-1,1098,925,0,0
-119,99,0,0,0,0,0,0,0,0,0,-1,1105,925,0,0
-112,99,0,0,0,0,0,0,0,0,0,-1,1112,925,0,0
-105,99,0,0,0,0,0,0,0,0,0,-1,1119,925,0,0
-98,99,0,0,0,0,0,0,0,0,0,-1,1126,925,0,0
-91,99,0,0,0,0,0,0,0,0,0,-1,1133,925,0,0
-84,99,0,0,0,0,0,0,0,0,0,-1,1140,925,0,0
-77,99,0,0,0,0,0,0,0,0,0,-1,1147,925,0,0
-70,99,0,0,0,0,0,0,0,0,0,-1,1154,925,0,0
-63,99,0,0,0,0,0,0,0,0,0,-1,1161,925,0,0
-56,99,0,0,0,0,0,0,0,0,0,-1,1168,925,0,0
-49,99,0,0,0,0,0,0,0,0,0,-1,1175,925,0,0
-42,99,0,0,0,0,0,0,0,0,0,-1,1182,925,0,0
-35,99,0,0,0,0,0,0,0,0,0,-1,1189,925,0,0
-28,99,0,0,0,0,0,0,0,0,0,-1,1196,925,0,0
-21,99,0,0,0,0,0,0,0,0,0,-1,1203,925,0,0
-14,99,0,0,0,0,0,0,0,0,0,-1,1210,925,0,0
-7,99,0,0,0,0,0,0,0,0,0,-1,1217,925,0,0
0,99,0,0,0,0,0,0,0,0,0,-1,1224,925,0,0
7,99,0,0,0,0,0,0,0,0,0,-1,1231,925,0,0
14,99,0,0,0,0,0,0,0,0,0,-1,1238,925,0,0
21,99,0,0,0,0,0,0,0,0,0,-1,1245,925,0,0
28,99,0,0,0,0,0,0,0,0,0,-1,1252,925,0,0
35,99,0,0,0,0,0,0,0,0,0,-1,1259,925,0,0
42,99,0,0,0,0,0,0,0,0,0,-1,1266,925,0,0
49,99,0,0,0,0,0,0,0,0,0,-1,1273,925,0,0
56,99,0,0,0,0,0,0,0,0,0,-1,1280,925,0,0
63,99,0,0,0,0,0,0,0,0,0,-1,1287,925,0,0
70,99,0,0,0,0,0,0,0,0,0,-1,1294,925,0,0
77,99,0,0,0,0,0,0,0,0,0,-1,1301,925,0,0
84,99,0,0,0,0,0,0,0,0,0,-1,1308,925,0,0
91,99,0,0,0,0,0,0,0,0,0,-1,1315,925,0,0
98,99,0,0,0,0,0,0,0,0,0,-1,1322,925,0,0
105,99,0,0,0,0,0,0,0,0,0,-1,1329,925,0,0
112,99,0,0,0,0,0,0,0,0,0,-1,1336,925,0,0
119,99,0,0,0,0,0,0,0,0,0,-1,1343,925,0,0
126,99,0,0,0,0,0,0,0,0,0,-1,1350,925,0,0
133,99,0,0,0,0,0,0,0,0,0,-1,1357,925,0,0
140,99,0,0,0,0,0,0,0,0,0,-1,1364,925,0,0
147,99,0,0,0,0,0,0,0,0,0,-1,1371,925,0,0
154,99,0,0,0,0,0,0,0,0,0,-1,1378,925,0,0
161,99,0,0,0,0,0,0,0,0,0,-1,1385,925,0,0
168,99,0,0,0,0,0,0,0,0,0,-1,1392,925,0,0
175,99,0,0,0,0,0,0,0,0,0,-1,1399,925,0,0
182,99,0,0,0,0,0,0,0,0,0,-1,1406,925,0,0
189,99,0,0,0,0,0,0,0,0,0,-1,1413,925,0,0
196,99,0,0,0,0,0,0,0,0,0,-1,1420,925,0,0
203,99,0,0,0,0,0,0,0,0,0,-1,1427,925,0,0
210,99,0,0,0,0,0,0,0,0,0,-1,1434,925,0,0
217,99,0,0,0,0,0,0,0,0,0,-1,1441,925,0,0
224,99,0,0,0,0,0,0,0,0,0,-1,1448,925,0,0
231,99,0,0,0,0,0,0,0,0,0,-1,1455,925,0,0
238,99,0,0,0,0,0,0,0,0,0,-1,1462,925,0,0
245,99,0,0,0,0,0,0,0,0,0,-1,1469,925,0,0
252,99,0,0,0,0,0,0,0,0,0,-1,1476,925,0,0
259,99,0,0,0,0,0,0,0,0,0,-1,1483,925,0,0
266,99,0,0,0,0,0,0,0,0,0,-1,1490,925,0,0
273,99,0,0,0,0,0,0,0,0,0,-1,1497,925,0,0
280,99,0,0,0,0,0,0,0,0,0,-1,1504,925,0,0
287,99,0,0,0,0,0,0,0,0,0,-1,1511,925,0,0
294,99,0,0,0,0,0,0,0,0,0,-1,1518,925,0,0
301,99,0,0,0,0,0,0,0,0,0,-1,1525,925,0,0
308,99,0,0,0,0,0,0,0,0,0,-1,1532,925,0,0
315,99,0,0,0,0,0,0,0,0,0,-1,1539,925,0,0
322,99,0,0,0,0,0,0,0,0,0,-1,1546,925,0,0
329,99,0,0,0,0,0,0,0,0,0,-1,1553,925,0,0
336,99,0,0,0,0,0,0,0,0,0,-1,1560,925,0,0
343,99,0,0,0,0,0,0,0,0,0,-1,1567,925,0,0
350,99,0,0,0,0,0,0,0,0,0,-1,1574,925,0,0
357,99,0,0,0,0,0,0,0,0,0,-1,1581,925,0,0
364,99,0,0,0,0,0,0,0,0,0,-1,1588,925,0,0
371,99,0,0,0,0,0,0,0,0,0,-1,1595,925,0,0
378,99,0,0,0,0,0,0,0,0,0,-1,1602,925,0,0
385,99,0,0,0,0,0,0,0,0,0,-1,1609,925,0,0
392,99,0,0,0,0,0,0,0,0,0,-1,1616,925,0,0
399,99,0,0,0,0,0,0,0,0,0,-1,1623,925,0,0
406,99,0,0,0,0,0,0,0,0,0,-1,1630,925,0,0
413,99,0,0,0,0,0,0,0,0,0,-1,1637,925,0,0
420,99,0,0,0,0,0,0,0,0,0,-1,1644,925,0,0
427,99,0,0,0,0,0,0,0,0,0,-1,1651,925,0,0
434,99,0,0,0,0,0,0,0,0,0,-1,1658,925,0,0
441,99,0,0,0,0,0,0,0,0,0,-1,1665,925,0,0
448,99,0,0,0,0,0,0,0,0,0,-1,1672,925,0,0
455,99,0,0,0,0,0,0,0,0,0,-1,1679,925,0,0
462,99,0,0,0,0,0,0,0,0,0,-1,1686,925,0,0
469,99,0,0,0,0,0,0,0,0,0,-1,1693,925,0,0
476,99,0,0,0,0,0,0,0,0,0,-1,1700,925,0,0
483,99,0,0,0,0,0,0,0,0,0,-1,1707,925,0,0
490,99,0,0,0,0,0,0,0,0,0,-1,1714,925,0,0
497,99,0,0,0,0,0,0,0,0,0,-1,1721,925,0,0
504,99,0,0,0,0,0,0,0,0,0,-1,1728,925,0,0
511,99,0,0,0,0,0,0,0,0,0,-1,1735,925,0,0
518,99,0,0,0,0,0,0,0,0,0,-1,1742,925,0,0
525,99,0,0,0,0,0,0,0,0,0,-1,1749,925,0,0
532,99,0,0,0,0,0,0,0,0,0,-1,1756,925,0,0
539,99,0,0,0,0,0,0,0,0,0,-1,1763,925,0,0
546,99,0,0,0,0,0,0,0,0,0,-1,1770,925,0,0
553,99,0,0,0,0,0,0,0,0,0,-1,1777,925,0,0
560,99,0,0,0,0,0,0,0,0,0,-1,1784,925,0,0
567,99,0,0,0,0,0,0,0,0,0,-1,1791,925,0,0
574,99,0,0,0,0,0,0,0,0,0,-1,1798,925,0,0
581,99,0,0,0,0,0,0,0,0,0,-1,1805,925,0,0
588,99,0,0,0,0,0,0,0,0,0,-1,1812,925,0,0
595,99,0,0,0,0,0,0,0,0,0,-1,1819,925,0,0
602,99,0,0,0,0,0,0,0,0,0,-1,1826,925,0,0
609,99,0,0,0,0,0,0,0,0,0,-1,1833,925,0,0
616,99,0,0,0,0,0,0,0,0,0,-1,1840,925,0,0
623,99,0,0,0,0,0,0,0,0,0,-1,1847,925,0,0
630,99,0,0,0,0,0,0,0,0,0,-1,1854,925,0,0
637,99,-0.0894775,0.107605,0.000665512,0.00143189,-0.000645113,0.00179903,0.000298364,-1.05339,0.00111331,0.0390572,1861,925,-0.0895235,-0.107618
644,99,-0.0367432,0.0842285,0.000700903,0.001009,-0.000856538,0.00172523,-1.53315e-05,-0.874371,0.0011553,0.0324169,1868,925,-0.0366827,-0.0842002
651,99,0.00756836,0.0449829,0.000633046,0.000731042,-0.00092986,0.00161319,-0.000249106,-0.811721,0.00116739,0.0335641,1875,925,0.00755262,-0.0449806
658,99,0.000244141,0.0354004,0.00050315,0.000551523,-0.000902591,0.00143025,-0.000375578,-0.798793,0.00110027,0.0341823,1882,925,0.000274353,-0.035378
665,99,0.0112305,-0.0177002,0.000344409,0.000438079,-0.000815266,0.00120785,-0.000425366,-0.81409,0.00097835,0.0350805,1889,925,0.0112861,0.0176744
672,99,0.0203857,-0.0349731,0.000204163,0.000370624,-0.000681294,0.000973753,-0.000398966,-0.84618,0.00081537,0.0338999,1896,925,0.0204237,0.0349479
679,99,0.0251465,-0.0202026,0.00010194,0.000313686,-0.00052698,0.000745323,-0.000329697,-0.884531,0.000635937,0.0304518,1903,925,0.025198,0.0202297
686,99,-0.00732422,-0.0439453,8.33888e-06,0.000284709,-0.000448632,0.000615955,-0.000322907,-0.934795,0.000550783,0.0229674,1910,925,-0.00734333,0.0439463
693,99,-0.0335693,-0.0665894,-6.86443e-05,0.000245394,-0.000311025,0.000436788,-0.000260038,-1.01916,0.000406604,0.0130591,1917,925,-0.0336297,0.066575
700,99,-0.0169678,-0.0845947,-0.000116054,0.000220536,-0.000193171,0.000308441,-0.000203958,-1.14374,0.000297877,0.0146702,1924,925,-0.0169885,0.0845649
707,99,-0.0101318,-0.0454102,-0.000132827,0.000228039,-0.000136653,0.000273947,-0.000178734,-1.2467,0.000263276,0.015885,1931,925,-0.0101871,0.0454404
714,99,-0.0202637,-0.0735474,-5.03715e-05,0.000215981,-9.41528e-05,0.000245902,-8.02923e-05,-1.2631,0.000196252,0.0117675,1938,925,-0.0202268,0.0735415
721,99,-0.0178223,-0.0770264,-3.88837e-05,9.20817e-05,-0.000147094,0.00018761,-0.000134412,-0.994816,0.000186763,0.0140163,1945,925,-0.017812,0.077048
728,99,-0.0065918,-0.0601807,4.9854e-05,-0.000495599,0.00021756,0.000126,-0.000571745,0.336675,0.000429371,0.0120266,1952,925,-0.00662586,0.0601547
735,99,-0.0145264,-0.0791016,0.000131594,0.00121521,0.00165653,0.00241628,-0.00106948,0.943452,0.00206197,0.0106095,1959,925,-0.0145592,0.079095
742,99,-0.036499,-0.0794678,-0.000686211,0.00334832,0.00372114,0.00556381,-0.0029017,1.03378,0.00496747,0.00989658,1966,925,-0.0364997,0.0794779
749,99,-0.0411377,-0.0730591,-0.00207643,0.00566866,0.0068503,0.00966525,-0.00607302,1.04266,0.00916505,0.00844329,1973,925,-0.0411277,0.0730567
756,99,-0.0498047,-0.0847778,-0.0034565,0.00873369,0.0105242,0.0148004,-0.00952319,1.04787,0.014153,0.00937701,1980,925,-0.0497915,0.0847558
763,99,-0.0429688,-0.0836792,-0.00556159,0.013229,0.0156895,0.0221212,-0.0144538,1.05518,0.0212707,0.0120209,1987,925,-0.0429391,0.0837066
770,99,0.0452881,-0.0753784,-0.00865087,0.0193574,0.0226549,0.0319871,-0.0212806,1.06223,0.0309605,0.024189,1994,925,0.0452845,0.075369
777,99,0.19043,-0.0769653,-0.0130179,0.0273782,0.0317517,0.0448116,-0.0304514,1.06868,0.043716,0.038336,2001,925,0.190473,0.0769582
784,99,0.260498,0.345459,0,0,0,0,0,0,0,-1,2008,925,0.26053,-0.345438
791,99,0.529907,0.832764,0,0,0,0,0,0,0,-1,2015,925,0.529923,-0.832782
798,99,-1.12769,3.11761,0,0,0,0,0,0,0,-1,2022,925,-1.12774,-3.11759
805,99,0,0,0,0,0,0,0,0,0,-1,2029,925,0,0
812,99,0,0,0,0,0,0,0,0,0,-1,2036,925,0,0
-700,92,0,0,0,0,0,0,0,0,0,-1,524,932,0,0
-693,92,0,0,0,0,0,0,0,0,0,-1,531,932,0,0
-686,92,-0.418518,-0.755554,0,0,0,0,0,0,0,-1,538,932,-0.418491,0.755536
-679,92,-0.288147,-0.903381,0.105854,0.00135159,-0.0323527,0.115059,-0.00785359,-0.277201,0.0794533,0.0436172,545,932,-0.288161,0.903375
-672,92,-0.152893,-1.07111,0.0818635,0.00470811,-0.0217288,0.087562,-0.00099038,-0.256479,0.0587076,0.042812,552,932,-0.152866,1.0711
-665,92,0.0418091,-0.926453,0.0633308,0.0064266,-0.0143395,0.06674,0.00301739,-0.233416,0.0435224,0.0455945,559,932,0.0418023,0.926456
-658,92,0.464722,-0.732666,0.0487285,0.00705739,-0.00917801,0.0506604,0.00512551,-0.207462,0.0322014,0.0424745,566,932,0.464718,0.732663
-651,92,0.942749,-0.494812,0,0,0,0,0,0,0,-1,573,932,0.94273,0.494822
-644,92,0.0444336,-0.298584,0,0,0,0,0,0,0,-1,580,932,0.0444099,0.29859
-637,92,-0.00268555,-0.118103,0.0205178,0.00546075,-0.00173919,0.0207161,0.00526247,-0.113515,0.0124335,0.0231783,587,932,-0.0026559,0.118081
-630,92,-0.0119629,-0.0701904,0.0128882,0.00511905,0.000331121,0.0129023,0.00510496,0.0425174,0.00750298,0.0113663,594,932,-0.0119425,0.0701614
-623,92,-0.00671387,-0.0704956,0.00811468,0.00394373,0.000592123,0.00819711,0.00386129,0.138323,0.00473524,0.00801251,601,932,-0.00673306,0.0704753
-616,92,-0.0154419,-0.0758057,0.00562188,0.00261594,0.000663989,0.00576202,0.0024758,0.208,0.00333765,0.00776731,608,932,-0.0154543,0.0758036
-609,92,-0.0172729,-0.079834,0.00385925,0.00198129,0.000443878,0.00395888,0.00188166,0.220794,0.00228659,0.00774457,615,932,-0.0172429,0.0798615
-602,92,-0.0192871,-0.0800171,0.00230815,0.000654425,0.000123672,0.00231735,0.000645227,0.0742334,0.00138102,0.00752626,622,932,-0.019287,0.0799948
-595,92,-0.0160522,-0.0599365,0.00118006,0.000264526,-9.67386e-05,0.00119017,0.000254416,-0.104132,0.000723703,0.0120777,629,932,-0.016074,0.0599158
-588,92,-0.0106201,-0.0581055,0.00065378,2.98138e-05,0.000107257,0.000671702,1.18915e-05,0.165567,0.000443891,0.0147398,636,932,-0.0106208,0.0580841
-581,92,-0.0135498,-0.0765991,0.000429808,-0.000107247,0.000167886,0.000477971,-0.000155409,0.279375,0.000381162,0.0123644,643,932,-0.0135451,0.0766233
-574,92,-0.0187988,-0.0758057,0.000259517,-9.55266e-05,0.000138232,0.000306989,-0.000142998,0.330801,0.000265488,0.0137986,650,932,-0.0187802,0.0757795
-567,92,0.0113525,-0.0762939,0.000204787,2.42071e-05,1.55986e-05,0.000206124,2.28696e-05,0.0855361,0.000130463,0.025031,657,932,0.0113555,0.0762654
-560,92,0.0715942,-0.0874023,0.000279119,0.000143935,-9.38784e-05,0.000327207,9.58469e-05,-0.473388,0.000194238,0.0341933,664,932,0.0715816,0.0874318
-553,92,0.0703735,-0.125183,0.000217914,0.000324486,-0.000239775,0.000516825,2.55757e-05,-0.894738,0.000336349,0.0353717,671,932,0.0703477,0.125175
-546,92,-0.0126953,-0.227295,9.79156e-05,0.000564459,-0.000490951,0.000874739,-0.000212364,-1.00718,0.000665342,0.0372623,678,932,-0.0126844,0.227323
-539,92,-0.0811157,-0.0579224,-7.20564e-05,0.000879617,-0.000883751,0.00140749,-0.000599931,-1.03236,0.00118984,0.0374192,685,932,-0.0811173,0.0579061
-532,92,-0.0303345,0.180542,-0.000267947,0.00128398,-0.00146067,0.00216201,-0.00114598,-1.02956,0.00193966,0.0397444,692,932,-0.0303192,-0.18056
-525,92,-0.052063,0.0494995,-0.000506003,0.00179274,-0.00230251,0.00321681,-0.00193007,-1.01689,0.00300235,0.0349887,699,932,-0.0520841,-0.0494962
-518,92,-0.0701294,-0.189697,-0.000748474,0.00246307,-0.00352534,0.00473112,-0.00301653,-0.999105,0.00450947,0.0369378,706,932,-0.0701337,0.189694
-511,92,0,0,0,0,0,0,0,0,0,-1,713,932,0,0
-504,92,0,0,0,0,0,0,0,0,0,-1,720,932,0,0
-497,92,0,0,0,0,0,0,0,0,0,-1,727,932,0,0
-490,92,0,0,0,0,0,0,0,0,0,-1,734,932,0,0
-483,92,0,0,0,0,0,0,0,0,0,-1,741,932,0,0
-476,92,0,0,0,0,0,0,0,0,0,-1,748,932,0,0
-469,92,0,0,0,0,0,0,0,0,0,-1,755,932,0,0
-462,92,0,0,0,0,0,0,0,0,0,-1,762,932,0,0
-455,92,0,0,0,0,0,0,0,0,0,-1,769,932,0,0
-448,92,0,0,0,0,0,0,0,0,0,-1,776,932,0,0
-441,92,0,0,0,0,0,0,0,0,0,-1,783,932,0,0
-434,92,0,0,0,0,0,0,0,0,0,-1,790,932,0,0
-427,92,0,0,0,0,0,0,0,0,0,-1,797,932,0,0
-420,92,0,0,0,0,0,0,0,0,0,-1,804,932,0,0
-413,92,0,0,0,0,0,0,0,0,0,-1,811,932,0,0
-406,92,0,0,0,0,0,0,0,0,0,-1,818,932,0,0
-399,92,0,0,0,0,0,0,0,0,0,-1,825,932,0,0
-392,92,0,0,0,0,0,0,0,0,0,-1,832,932,0,0
-385,92,0,0,0,0,0,0,0,0,0,-1,839,932,0,0
-378,92,0,0,0,0,0,0,0,0,0,-1,846,932,0,0
-371,92,0,0,0,0,0,0,0,0,0,-1,853,932,0,0
-364,92,0,0,0,0,0,0,0,0,0,-1,860,932,0,0
-357,92,0,0,0,0,0,0,0,0,0,-1,867,932,0,0
-350,92,0,0,0,0,0,0,0,0,0,-1,874,932,0,0
-343,92,0,0,0,0,0,0,0,0,0,-1,881,932,0,0
-336,92,0,0,0,0,0,0,0,0,0,-1,888,932,0,0
-329,92,0,0,0,0,0,0,0,0,0,-1,895,932,0,0
-322,92,0,0,0,0,0,0,0,0,0,-1,902,932,0,0
-315,92,0,0,0,0,0,0,0,0,0,-1,909,932,0,0
-308,92,0,0,0,0,0,0,0,0,0,-1,916,932,0,0
-301,92,0,0,0,0,0,0,0,0,0,-1,923,932,0,0
-294,92,0,0,0,0,0,0,0,0,0,-1,930,932,0,0
-287,92,0,0,0,0,0,0,0,0,0,-1,937,932,0,0
-280,92,0,0,0,0,0,0,0,0,0,-1,944,932,0,0
-273,92,0,0,0,0,0,0,0,0,0,-1,951,932,0,0
-266,92,0,0,0,0,0,0,0,0,0,-1,958,932,0,0
-259,92,0,0,0,0,0,0,0,0,0,-1,965,932,0,0
-252,92,0,0,0,0,0,0,0,0,0,-1,972,932,0,0
-245,92,0,0,0,0,0,0,0,0,0,-1,979,932,0,0
-238,92,0,0,0,0,0,0,0,0,0,-1,986,932,0,0
-231,92,0,0,0,0,0,0,0,0,0,-1,993,932,0,0
-224,92,0,0,0,0,0,0,0,0,0,-1,1000,932,0,0
-217,92,0,0,0,0,0,0,0,0,0,-1,1007,932,0,0
-210,92,0,0,0,0,0,0,0,0,0,-1,1014,932,0,0
-203,92,0,0,0,0,0,0,0,0,0,-1,1021,932,0,0
-196,92,0,0,0,0,0,0,0,0,0,-1,1028,932,0,0
-189,92,0,0,0,0,0,0,0,0,0,-1,1035,932,0,0
-182,92,0,0,0,0,0,0,0,0,0,-1,1042,932,0,0
-175,92,0,0,0,0,0,0,0,0,0,-1,1049,932,0,0
-168,92,0,0,0,0,0,0,0,0,0,-1,1056,932,0,0
-161,92,0,0,0,0,0,0,0,0,0,-1,1063,932,0,0
-154,92,0,0,0,0,0,0,0,0,0,-1,1070,932,0,0
-147,92,0,0,0,0,0,0,0,0,0,-1,1077,932,0,0
-140,92,0,0,0,0,0,0,0,0,0,-1,1084,932,0,0
-133,92,0,0,0,0,0,0,0,0,0,-1,1091,932,0,0
-126,92,0,0,0,0,0,0,0,0,0,-1,1098,932,0,0
-119,92,0,0,0,0,0,0,0,0,0,-1,1105,932,0,0
-112,92,0,0,0,0,0,0,0,0,0,-1,1112,932,0,0
-105,92,0,0,0,0,0,0,0,0,0,-1,1119,932,0,0
-98,92,0,0,0,0,0,0,0,0,0,-1,1126,932,0,0
-91,92,0,0,0,0,0,0,0,0,0,-1,1133,932,0,0
-84,92,0,0,0,0,0,0,0,0,0,-1,1140,932,0,0
-77,92,0,0,0,0,0,0,0,0,0,-1,1147,932,0,0
-70,92,0,0,0,0,0,0,0,0,0,-1,1154,932,0,0
-63,92,0,0,0,0,0,0,0,0,0,-1,1161,932,0,0
-56,92,0,0,0,0,0,0,0,0,0,-1,1168,932,0,0
-49,92,0,0,0,0,0,0,0,0,0,-1,1175,932,0,0
-42,92,0,0,0,0,0,0,0,0,0,-1,1182,932,0,0
-35,92,0,0,0,0,0,0,0,0,0,-1,1189,932,0,0
-28,92,0,0,0,0,0,0,0,0,0,-1,1196,932,0,0
-21,92,0,0,0,0,0,0,0,0,0,-1,1203,932,0,0
-14,92,0,0,0,0,0,0,0,0,0,-1,1210,932,0,0
-7,92,0,0,0,0,0,0,0,0,0,-1,1217,932,0,0
0,92,0,0,0,0,0,0,0,0,0,-1,1224,932,0,0
7,92,0,0,0,0,0,0,0,0,0,-1,1231,932,0,0
14,92,0,0,0,0,0,0,0,0,0,-1,1238,932,0,0
21,92,0,0,0,0,0,0,0,0,0,-1,1245,932,0,0
28,92,0,0,0,0,0,0,0,0,0,-1,1252,932,0,0
35,92,0,0,0,0,0,0,0,0,0,-1,1259,932,0,0
42,92,0,0,0,0,0,0,0,0,0,-1,1266,932,0,0
49,92,0,0,0,0,0,0,0,0,0,-1,1273,932,0,0
56,92,0,0,0,0,0,0,0,0,0,-1,1280,932,0,0
63,92,0,0,0,0,0,0,0,0,0,-1,1287,932,0,0
70,92,0,0,0,0,0,0,0,0,0,-1,1294,932,0,0
77,92,0,0,0,0,0,0,0,0,0,-1,1301,932,0,0
84,92,0,0,0,0,0,0,0,0,0,-1,1308,932,0,0
91,92,0,0,0,0,0,0,0,0,0,-1,1315,932,0,0
98,92,0,0,0,0,0,0,0,0,0,-1,1322,932,0,0
105,92,0,0,0,0,0,0,0,0,0,-1,1329,932,0,0
112,92,0,0,0,0,0,0,0,0,0,-1,1336,932,0,0
119,92,0,0,0,0,0,0,0,0,0,-1,1343,932,0,0
126,92,0,0,0,0,0,0,0,0,0,-1,1350,932,0,0
133,92,0,0,0,0,0,0,0,0,0,-1,1357,932,0,0
140,92,0,0,0,0,0,0,0,0,0,-1,1364,932,0,0
147,92,0,0,0,0,0,0,0,0,0,-1,1371,932,0,0
154,92,0,0,0,0,0,0,0,0,0,-1,1378,932,0,0
161,92,0,0,0,0,0,0,0,0,0,-1,1385,932,0,0
168,92,0,0,0,0,0,0,0,0,0,-1,1392,932,0,0
175,92,0,0,0,0,0,0,0,0,0,-1,1399,932,0,0
182,92,0,0,0,0,0,0,0,0,0,-1,1406,932,0,0
189,92,0,0,0,0,0,0,0,0,0,-1,1413,932,0,0
196,92,0,0,0,0,0,0,0,0,0,-1,1420,932,0,0
203,92,0,0,0,0,0,0,0,0,0,-1,1427,932,0,0
210,92,0,0,0,0,0,0,0,0,0,-1,1434,932,0,0
217,92,0,0,0,0,0,0,0,0,0,-1,1441,932,0,0
224,92,0,0,0,0,0,0,0,0,0,-1,1448,932,0,0
231,92,0,0,0,0,0,0,0,0,0,-1,1455,932,0,0
238,92,0,0,0,0,0,0,0,0,0,-1,1462,932,0,0
245,92,0,0,0,0,0,0,0,0,0,-1,1469,932,0,0
252,92,0,0,0,0,0,0,0,0,0,-1,1476,932,0,0
259,92,0,0,0,0,0,0,0,0,0,-1,1483,932,0,0
266,92,0,0,0,0,0,0,0,0,0,-1,1490,932,0,0
273,92,0,0,0,0,0,0,0,0,0,-1,1497,932,0,0
280,92,0,0,0,0,0,0,0,0,0,-1,1504,932,0,0
287,92,0,0,0,0,0,0,0,0,0,-1,1511,932,0,0
294,92,0,0,0,0,0,0,0,0,0,-1,1518,932,0,0
301,92,0,0,0,0,0,0,0,0,0,-1,1525,932,0,0
308,92,0,0,0,0,0,0,0,0,0,-1,1532,932,0,0
315,92,0,0,0,0,0,0,0,0,0,-1,1539,932,0,0
322,92,0,0,0,0,0,0,0,0,0,-1,1546,932,0,0
329,92,0,0,0,0,0,0,0,0,0,-1,1553,932,0,0
336,92,0,0,0,0,0,0,0,0,0,-1,1560,932,0,0
343,92,0,0,0,0,0,0,0,0,0,-1,1567,932,0,0
350,92,0,0,0,0,0,0,0,0,0,-1,1574,932,0,0
357,92,0,0,0,0,0,0,0,0,0,-1,1581,932,0,0
364,92,0,0,0,0,0,0,0,0,0,-1,1588,932,0,0
371,92,0,0,0,0,0,0,0,0,0,-1,1595,932,0,0
378,92,0,0,0,0,0,0,0,0,0,-1,1602,932,0,0
385,92,0,0,0,0,0,0,0,0,0,-1,1609,932,0,0
392,92,0,0,0,0,0,0,0,0,0,-1,1616,932,0,0
399,92,0,0,0,0,0,0,0,0,0,-1,1623,932,0,0
406,92,0,0,0,0,0,0,0,0,0,-1,1630,932,0,0
413,92,0,0,0,0,0,0,0,0,0,-1,1637,932,0,0
420,92,0,0,0,0,0,0,0,0,0,-1,1644,932,0,0
427,92,0,0,0,0,0,0,0,0,0,-1,1651,932,0,0
434,92,0,0,0,0,0,0,0,0,0,-1,1658,932,0,0
441,92,0,0,0,0,0,0,0,0,0,-1,1665,932,0,0
448,92,0,0,0,0,0,0,0,0,0,-1,1672,932,0,0
455,92,0,0,0,0,0,0,0,0,0,-1,1679,932,0,0
462,92,0,0,0,0,0,0,0,0,0,-1,1686,932,0,0
469,92,0,0,0,0,0,0,0,0,0,-1,1693,932,0,0
476,92,0,0,0,0,0,0,0,0,0,-1,1700,932,0,0
483,92,0,0,0,0,0,0,0,0,0,-1,1707,932,0,0
490,92,0,0,0,0,0,0,0,0,0,-1,1714,932,0,0
497,92,0,0,0,0,0,0,0,0,0,-1,1721,932,0,0
504,92,0,0,0,0,0,0,0,0,0,-1,1728,932,0,0
511,92,0,0,0,0,0,0,0,0,0,-1,1735,932,0,0
518,92,0,0,0,0,0,0,0,0,0,-1,1742,932,0,0
525,92,0,0,0,0,0,0,0,0,0,-1,1749,932,0,0
532,92,0,0,0,0,0,0,0,0,0,-1,1756,932,0,0
539,92,0,0,0,0,0,0,0,0,0,-1,1763,932,0,0
546,92,0,0,0,0,0,0,0,0,0,-1,1770,932,0,0
553,92,0,0,0,0,0,0,0,0,0,-1,1777,932,0,0
560,92,0,0,0,0,0,0,0,0,0,-1,1784,932,0,0
567,92,0,0,0,0,0,0,0,0,0,-1,1791,932,0,0
574,92,0,0,0,0,0,0,0,0,0,-1,1798,932,0,0
581,92,0,0,0,0,0,0,0,0,0,-1,1805,932,0,0
588,92,0,0,0,0,0,0,0,0,0,-1,1812,932,0,0
595,92,0,0,0,0,0,0,0,0,0,-1,1819,932,0,0
602,92,0,0,0,0,0,0,0,0,0,-1,1826,932,0,0
609,92,0,0,0,0,0,0,0,0,0,-1,1833,932,0,0
616,92,0,0,0,0,0,0,0,0,0,-1,1840,932,0,0
623,92,0,0,0,0,0,0,0,0,0,-1,1847,932,0,0
630,92,0,0,0,0,0,0,0,0,0,-1,1854,932,0,0
637,92,-0.150269,0.139038,0.000573699,0.00154904,-0.000412624,0.00170018,0.000422557,-1.21968,0.00102214,0.0425749,1861,932,-0.150301,-0.139035
644,92,-0.0333252,-0.03125,0.000630729,0.00116225,-0.000665389,0.00161299,0.000179991,-0.975395,0.00102063,0.0357199,1868,932,-0.033369,0.0312768
651,92,0.0488281,0.0125732,0.000590672,0.000901605,-0.000773695,0.0015353,-4.30215e-05,-0.884548,0.00103817,0.0346722,1875,932,0.048792,-0.012569
658,92,0.0151367,0.115967,0.000486434,0.000721215,-0.000769841,0.00138256,-0.000174915,-0.861059,0.000985204,0.036809,1882,932,0.0151231,-0.115943
665,92,0.00952148,-0.012146,0.000343865,0.000594391,-0.00070191,0.00118213,-0.000243871,-0.873699,0.000880703,0.0364302,1889,932,0.00953341,0.0121566
672,92,-0.0196533,-0.132935,0.000211101,0.000508438,-0.000583426,0.000961839,-0.0002423,-0.910153,0.00073542,0.0336428,1896,932,-0.0196226,0.132921
679,92,-0.0350342,-0.0756226,0.000107787,0.000434497,-0.000442709,0.000743028,-0.000200744,-0.962144,0.000574087,0.0301688,1903,932,-0.0350357,0.0755927
686,92,-0.0201416,-0.0267334,2.4808e-05,0.000385372,-0.00036818,0.000615039,-0.000204859,-1.01307,0.000492719,0.0230504,1910,932,-0.0201414,0.0267518
693,92,-0.0357666,-0.0380249,-3.56528e-05,0.000316715,-0.000239041,0.000437484,-0.000156422,-1.10298,0.000355461,0.0137727,1917,932,-0.0357681,0.0380261
700,92,-0.0270996,-0.0853271,-7.14461e-05,0.000270774,-0.000141806,0.000321897,-0.000122569,-1.22479,0.000265075,0.0143469,1924,932,-0.0270822,0.0853309
707,92,-0.00708008,-0.0866089,-9.05127e-05,0.000256282,-9.5032e-05,0.000280616,-0.000114847,-1.32012,0.000234912,0.0149937,1931,932,-0.00707747,0.0866276
714,92,-0.0136719,-0.109863,-2.50783e-05,0.000226418,-2.99462e-05,0.000229934,-2.85948e-05,-1.4539,0.000163656,0.0161495,1938,932,-0.0137038,0.109859
721,92,-0.0186768,-0.0812988,-1.31331e-05,0.000101416,-1.79107e-05,0.000104151,-1.58682e-05,-1.41925,7.52828e-05,0.0192671,1945,932,-0.0187304,0.0812743
728,92,-0.0318604,-0.0479736,-1.67257e-05,-0.000379351,0.000372935,0.000216636,-0.000612712,0.559134,0.000496693,0.0144577,1952,932,-0.0318209,0.0479488
735,92,-0.0251465,-0.0703735,-0.000164549,0.00101268,0.00166692,0.00219186,-0.00134373,0.955122,0.00206076,0.0130733,1959,932,-0.0250995,0.0703605
742,92,-0.0144043,-0.0820313,-0.00114371,0.00253558,0.00359494,0.00473424,-0.00334236,1.02189,0.00468605,0.0133918,1966,932,-0.0144398,0.0820465
749,92,-0.0310059,-0.0773926,-0.00263723,0.00426881,0.00647917,0.00815766,-0.00652608,1.03022,0.00849509,0.0117394,1973,932,-0.0309706,0.0774018
756,92,-0.0605469,-0.0856934,-0.00417944,0.00627667,0.00981208,0.0121666,-0.0100694,1.03018,0.012857,0.0114935,1980,932,-0.0605171,0.0856656
763,92,-0.0197754,-0.0777588,-0.00646648,0.00939911,0.0144928,0.0179881,-0.0150555,1.03581,0.0191028,0.0136366,1987,932,-0.0197713,0.0777883
770,92,0.0214844,-0.039856,-0.00968938,0.0135777,0.0207627,0.0257439,-0.0218556,1.04076,0.0275121,0.0227318,1994,932,0.0215283,0.0398546
777,92,0.111694,0.0823975,-0.0140719,0.0189224,0.0288989,0.0357014,-0.030851,1.04476,0.038458,0.0386242,2001,932,0.111693,-0.0823887
784,92,0.184204,0.188538,0,0,0,0,0,0,0,-1,2008,932,0.184215,-0.188566
791,92,-0.527954,2.04797,-0.0273403,0.0328954,0.0516335,0.062553,-0.0569979,1.04942,0.0690476,0.0445824,2015,932,-0.527964,-2.04795
798,92,-1.07458,3.09131,-0.0367661,0.0408668,0.0664428,0.0790008,-0.0749001,1.04976,0.0888652,0.0429833,2022,932,-1.07458,-3.09132
805,92,0,0,0,0,0,0,0,0,0,-1,2029,932,0,0
812,92,0,0,0,0,0,0,0,0,0,-1,2036,932,0,0
-700,85,0,0,0,0,0,0,0,0,0,-1,524,939,0,0
-693,85,0,0,0,0,0,0,0,0,0,-1,531,939,0,0
-686,85,-0.451599,-1.14539,0,0,0,0,0,0,0,-1,538,939,-0.451612,1.14541
-679,85,-0.442383,-1.29181,0.113416,0.00931202,-0.0344755,0.123798,-0.00106967,-0.292495,0.082891,0.0448591,545,939,-0.442362,1.29181
-672,85,-0.248352,-1.39117,0.0866552,0.0117438,-0.0235771,0.0934579,0.00494106,-0.280902,0.0607253,0.0439024,552,939,-0.24838,1.39119
-665,85,-0.400269,-1.40582,0.0659757,0.0120667,-0.0158233,0.070277,0.00776547,-0.265417,0.0444893,0.0431618,559,939,-0.400286,1.4058
-658,85,-0.477844,-1.68054,0.0498137,0.0112303,-0.0103018,0.052392,0.00865201,-0.245238,0.032431,0.0470541,566,939,-0.47785,1.68052
-651,85,-0.496704,-1.94116,0,0,0,0,0,0,0,-1,573,939,-0.496732,1.94114
-644,85,0.0184326,-0.136963,0.027232,0.0081037,-0.00378756,0.0279546,0.00738104,-0.188534,0.016728,0.0320691,580,939,0.0184218,0.136935
-637,85,0.00140381,-0.0840454,0.0195847,0.00645273,-0.00203833,0.0198938,0.00614362,-0.150503,0.0117622,0.0172229,587,939,0.00141991,0.0840758
-630,85,-0.012207,-0.0792847,0.0115108,0.00575895,0.000280329,0.0115244,0.00574532,0.0485838,0.00665364,0.0108208,594,939,-0.0122313,0.0792849
-623,85,-0.0110474,-0.0770874,0.00666039,0.00360055,0.000518311,0.00674581,0.00351514,0.163324,0.00389585,0.00859759,601,939,-0.0110562,0.0771054
-616,85,-0.0184937,-0.0712891,0.00454115,0.00171686,0.000779123,0.00474182,0.00151619,0.252086,0.00279636,0.00843013,608,939,-0.0185165,0.0712992
-609,85,-0.0269165,-0.074707,0.00300561,0.00138044,0.000568728,0.00318487,0.00120119,0.30533,0.00185719,0.0107156,615,939,-0.0268989,0.0747157
-602,85,-0.0175781,-0.0771484,0.00176132,0.000382012,0.000244933,0.00180352,0.000339809,0.170629,0.00110661,0.0140847,622,939,-0.0175811,0.0771518
-595,85,0.00268555,-0.0493164,0.000944255,8.59958e-05,4.72005e-05,0.000946843,8.34078e-05,0.0547754,0.000605344,0.0155933,629,939,0.00269553,0.0492877
-588,85,-0.00646973,-0.0477295,0.000630139,-6.42245e-05,0.000175736,0.000672082,-0.000106168,0.234289,0.000487314,0.0150004,636,939,-0.00646648,0.0477226
-581,85,-0.00909424,-0.0818481,0.000493936,-0.000115661,0.000183422,0.00054487,-0.000166595,0.270864,0.000429682,0.0122594,643,939,-0.00910239,0.081845
-574,85,-0.0293579,-0.1073,0.000336936,-5.20665e-05,0.000110759,0.000366261,-8.13916e-05,0.258827,0.000275344,0.0177035,650,939,-0.0293673,0.1073
-567,85,-0.0100708,-0.0952759,0.000282699,9.34808e-05,-2.75326e-05,0.000286624,8.95561e-05,-0.141596,0.000169318,0.028188,657,939,-0.0100737,0.0952727
-560,85,0.020752,-0.117676,0.000308673,0.000267525,-0.000145162,0.000434712,0.000141486,-0.715001,0.000256027,0.0333846,664,939,0.0207466,0.117691
-553,85,0.0201416,-0.203552,0.000193157,0.000508974,-0.000317617,0.000705771,-3.63964e-06,-1.01609,0.000471732,0.0350578,671,939,0.0201236,0.203531
-546,85,-0.00537109,-0.229431,-1.88585e-05,0.000834425,-0.000593899,0.00113904,-0.000323475,-1.09687,0.000887069,0.0358883,678,939,-0.00536235,0.229405
-539,85,0.00390625,0.0637817,-0.000348451,0.00126527,-0.0010208,0.00175959,-0.000842769,-1.11983,0.00153324,0.0370048,685,939,0.00387608,-0.0637642
-532,85,0.0421143,0.0263062,-0.000798844,0.00182344,-0.00164445,0.00261547,-0.00159087,-1.12195,0.00245243,0.0370902,692,939,0.0421389,-0.0263152
-525,85,-0.00860596,-0.151245,-0.00142595,0.00253633,-0.00256599,0.00379699,-0.0026866,-1.11414,0.00376156,0.0331284,699,939,-0.00859417,0.151221
-518,85,-0.0513916,-0.210571,-0.00225945,0.0034751,-0.00393411,0.00547594,-0.00426029,-1.1003,0.0056358,0.0327215,706,939,-0.0513928,0.210585
-511,85,0,0,0,0,0,0,0,0,0,-1,713,939,0,0
-504,85,0,0,0,0,0,0,0,0,0,-1,720,939,0,0
-497,85,0,0,0,0,0,0,0,0,0,-1,727,939,0,0
-490,85,0,0,0,0,0,0,0,0,0,-1,734,939,0,0
-483,85,0,0,0,0,0,0,0,0,0,-1,741,939,0,0
-476,85,0,0,0,0,0,0,0,0,0,-1,748,939,0,0
-469,85,0,0,0,0,0,0,0,0,0,-1,755,939,0,0
-462,85,0,0,0,0,0,0,0,0,0,-1,762,939,0,0
-455,85,0,0,0,0,0,0,0,0,0,-1,769,939,0,0
-448,85,0,0,0,0,0,0,0,0,0,-1,776,939,0,0
-441,85,0,0,0,0,0,0,0,0,0,-1,783,939,0,0
-434,85,0,0,0,0,0,0,0,0,0,-1,790,939,0,0
-427,85,0,0,0,0,0,0,0,0,0,-1,797,939,0,0
-420,85,0,0,0,0,0,0,0,0,0,-1,804,939,0,0
-413,85,0,0,0,0,0,0,0,0,0,-1,811,939,0,0
-406,85,0,0,0,0,0,0,0,0,0,-1,818,939,0,0
-399,85,0,0,0,0,0,0,0,0,0,-1,825,939,0,0
-392,85,0,0,0,0,0,0,0,0,0,-1,832,939,0,0
-385,85,0,0,0,0,0,0,0,0,0,-1,839,939,0,0
-378,85,0,0,0,0,0,0,0,0,0,-1,846,939,0,0
-371,85,0,0,0,0,0,0,0,0,0,-1,853,939,0,0
-364,85,0,0,0,0,0,0,0,0,0,-1,860,939,0,0
-357,85,0,0,0,0,0,0,0,0,0,-1,867,939,0,0
-350,85,0,0,0,0,0,0,0,0,0,-1,874,939,0,0
-343,85,0,0,0,0,0,0,0,0,0,-1,881,939,0,0
-336,85,0,0,0,0,0,0,0,0,0,-1,888,939,0,0
-329,85,0,0,0,0,0,0,0,0,0,-1,895,939,0,0
-322,85,0,0,0,0,0,0,0,0,0,-1,902,939,0,0
-315,85,0,0,0,0,0,0,0,0,0,-1,909,939,0,0
-308,85,0,0,0,0,0,0,0,0,0,-1,916,939,0,0
-301,85,0,0,0,0,0,0,0,0,0,-1,923,939,0,0
-294,85,0,0,0,0,0,0,0,0,0,-1,930,939,0,0
-287,85,0,0,0,0,0,0,0,0,0,-1,937,939,0,0
-280,85,0,0,0,0,0,0,0,0,0,-1,944,939,0,0
-273,85,0,0,0,0,0,0,0,0,0,-1,951,939,0,0
-266,85,0,0,0,0,0,0,0,0,0,-1,958,939,0,0
-259,85,0,0,0,0,0,0,0,0,0,-1,965,939,0,0
-252,85,0,0,0,0,0,0,0,0,0,-1,972,939,0,0
-245,85,0,0,0,0,0,0,0,0,0,-1,979,939,0,0
-238,85,0,0,0,0,0,0,0,0,0,-1,986,939,0,0
-231,85,0,0,0,0,0,0,0,0,0,-1,993,939,0,0
-224,85,0,0,0,0,0,0,0,0,0,-1,1000,939,0,0
-217,85,0,0,0,0,0,0,0,0,0,-1,1007,939,0,0
-210,85,0,0,0,0,0,0,0,0,0,-1,1014,939,0,0
-203,85,0,0,0,0,0,0,0,0,0,-1,1021,939,0,0
-196,85,0,0,0,0,0,0,0,0,0,-1,1028,939,0,0
-189,85,0,0,0,0,0,0,0,0,0,-1,1035,939,0,0
-182,85,0,0,0,0,0,0,0,0,0,-1,1042,939,0,0
-175,85,0,0,0,0,0,0,0,0,0,-1,1049,939,0,0
-168,85,0,0,0,0,0,0,0,0,0,-1,1056,939,0,0
-161,85,0,0,0,0,0,0,0,0,0,-1,1063,939,0,0
-154,85,0,0,0,0,0,0,0,0,0,-1,1070,939,0,0
-147,85,0,0,0,0,0,0,0,0,0,-1,1077,939,0,0
-140,85,0,0,0,0,0,0,0,0,0,-1,1084,939,0,0
-133,85,0,0,0,0,0,0,0,0,0,-1,1091,939,0,0
-126,85,0,0,0,0,0,0,0,0,0,-1,1098,939,0,0
-119,85,0,0,0,0,0,0,0,0,0,-1,1105,939,0,0
-112,85,0,0,0,0,0,0,0,0,0,-1,1112,939,0,0
-105,85,0,0,0,0,0,0,0,0,0,-1,1119,939,0,0
-98,85,0,0,0,0,0,0,0,0,0,-1,1126,939,0,0
-91,85,0,0,0,0,0,0,0,0,0,-1,1133,939,0,0
-84,85,0,0,0,0,0,0,0,0,0,-1,1140,939,0,0
-77,85,0,0,0,0,0,0,0,0,0,-1,1147,939,0,0
-70,85,0,0,0,0,0,0,0,0,0,-1,1154,939,0,0
-63,85,0,0,0,0,0,0,0,0,0,-1,1161,939,0,0
-56,85,0,0,0,0,0,0,0,0,0,-1,1168,939,0,0
-49,85,0,0,0,0,0,0,0,0,0,-1,1175,939,0,0
-42,85,0,0,0,0,0,0,0,0,0,-1,1182,939,0,0
-35,85,0,0,0,0,0,0,0,0,0,-1,1189,939,0,0
-28,85,0,0,0,0,0,0,0,0,0,-1,1196,939,0,0
-21,85,0,0,0,0,0,0,0,0,0,-1,1203,939,0,0
-14,85,0,0,0,0,0,0,0,0,0,-1,1210,939,0,0
-7,85,0,0,0,0,0,0,0,0,0,-1,1217,939,0,0
0,85,0,0,0,0,0,0,0,0,0,-1,1224,939,0,0
7,85,0,0,0,0,0,0,0,0,0,-1,1231,939,0,0
14,85,0,0,0,0,0,0,0,0,0,-1,1238,939,0,0
21,85,0,0,0,0,0,0,0,0,0,-1,1245,939,0,0
28,85,0,0,0,0,0,0,0,0,0,-1,1252,939,0,0
35,85,0,0,0,0,0,0,0,0,0,-1,1259,939,0,0
42,85,0,0,0,0,0,0,0,0,0,-1,1266,939,0,0
49,85,0,0,0,0,0,0,0,0,0,-1,1273,939,0,0
56,85,0,0,0,0,0,0,0,0,0,-1,1280,939,0,0
63,85,0,0,0,0,0,0,0,0,0,-1,1287,939,0,0
70,85,0,0,0,0,0,0,0,0,0,-1,1294,939,0,0
77,85,0,0,0,0,0,0,0,0,0,-1,1301,939,0,0
84,85,0,0,0,0,0,0,0,0,0,-1,1308,939,0,0
91,85,0,0,0,0,0,0,0,0,0,-1,1315,939,0,0
98,85,0,0,0,0,0,0,0,0,0,-1,1322,939,0,0
105,85,0,0,0,0,0,0,0,0,0,-1,1329,939,0,0
112,85,0,0,0,0,0,0,0,0,0,-1,1336,939,0,0
119,85,0,0,0,0,0,0,0,0,0,-1,1343,939,0,0
126,85,0,0,0,0,0,0,0,0,0,-1,1350,939,0,0
133,85,0,0,0,0,0,0,0,0,0,-1,1357,939,0,0
140,85,0,0,0,0,0,0,0,0,0,-1,1364,939,0,0
147,85,0,0,0,0,0,0,0,0,0,-1,1371,939,0,0
154,85,0,0,0,0,0,0,0,0,0,-1,1378,939,0,0
161,85,0,0,0,0,0,0,0,0,0,-1,1385,939,0,0
168,85,0,0,0,0,0,0,0,0,0,-1,1392,939,0,0
175,85,0,0,0,0,0,0,0,0,0,-1,1399,939,0,0
182,85,0,0,0,0,0,0,0,0,0,-1,1406,939,0,0
189,85,0,0,0,0,0,0,0,0,0,-1,1413,939,0,0
196,85,0,0,0,0,0,0,0,0,0,-1,1420,939,0,0
203,85,0,0,0,0,0,0,0,0,0,-1,1427,939,0,0
210,85,0,0,0,0,0,0,0,0,0,-1,1434,939,0,0
217,85,0,0,0,0,0,0,0,0,0,-1,1441,939,0,0
224,85,0,0,0,0,0,0,0,0,0,-1,1448,939,0,0
231,85,0,0,0,0,0,0,0,0,0,-1,1455,939,0,0
238,85,0,0,0,0,0,0,0,0,0,-1,1462,939,0,0
245,85,0,0,0,0,0,0,0,0,0,-1,1469,939,0,0
252,85,0,0,0,0,0,0,0,0,0,-1,1476,939,0,0
259,85,0,0,0,0,0,0,0,0,0,-1,1483,939,0,0
266,85,0,0,0,0,0,0,0,0,0,-1,1490,939,0,0
273,85,0,0,0,0,0,0,0,0,0,-1,1497,939,0,0
280,85,0,0,0,0,0,0,0,0,0,-1,1504,939,0,0
287,85,0,0,0,0,0,0,0,0,0,-1,1511,939,0,0
294,85,0,0,0,0,0,0,0,0,0,-1,1518,939,0,0
301,85,0,0,0,0,0,0,0,0,0,-1,1525,939,0,0
308,85,0,0,0,0,0,0,0,0,0,-1,1532,939,0,0
315,85,0,0,0,0,0,0,0,0,0,-1,1539,939,0,0
322,85,0,0,0,0,0,0,0,0,0,-1,1546,939,0,0
329,85,0,0,0,0,0,0,0,0,0,-1,1553,939,0,0
336,85,0,0,0,0,0,0,0,0,0,-1,1560,939,0,0
343,85,0,0,0,0,0,0,0,0,0,-1,1567,939,0,0
350,85,0,0,0,0,0,0,0,0,0,-1,1574,939,0,0
357,85,0,0,0,0,0,0,0,0,0,-1,1581,939,0,0
364,85,0,0,0,0,0,0,0,0,0,-1,1588,939,0,0
371,85,0,0,0,0,0,0,0,0,0,-1,1595,939,0,0
378,85,0,0,0,0,0,0,0,0,0,-1,1602,939,0,0
385,85,0,0,0,0,0,0,0,0,0,-1,1609,939,0,0
392,85,0,0,0,0,0,0,0,0,0,-1,1616,939,0,0
399,85,0,0,0,0,0,0,0,0,0,-1,1623,939,0,0
406,85,0,0,0,0,0,0,0,0,0,-1,1630,939,0,0
413,85,0,0,0,0,0,0,0,0,0,-1,1637,939,0,0
420,85,0,0,0,0,0,0,0,0,0,-1,1644,939,0,0
427,85,0,0,0,0,0,0,0,0,0,-1,1651,939,0,0
434,85,0,0,0,0,0,0,0,0,0,-1,1658,939,0,0
441,85,0,0,0,0,0,0,0,0,0,-1,1665,939,0,0
448,85,0,0,0,0,0,0,0,0,0,-1,1672,939,0,0
455,85,0,0,0,0,0,0,0,0,0,-1,1679,939,0,0
462,85,0,0,0,0,0,0,0,0,0,-1,1686,939,0,0
469,85,0,0,0,0,0,0,0,0,0,-1,1693,939,0,0
476,85,0,0,0,0,0,0,0,0,0,-1,1700,939,0,0
483,85,0,0,0,0,0,0,0,0,0,-1,1707,939,0,0
490,85,0,0,0,0,0,0,0,0,0,-1,1714,939,0,0
497,85,0,0,0,0,0,0,0,0,0,-1,1721,939,0,0
504,85,0,0,0,0,0,0,0,0,0,-1,1728,939,0,0
511,85,0,0,0,0,0,0,0,0,0,-1,1735,939,0,0
518,85,0,0,0,0,0,0,0,0,0,-1,1742,939,0,0
525,85,0,0,0,0,0,0,0,0,0,-1,1749,939,0,0
532,85,0,0,0,0,0,0,0,0,0,-1,1756,939,0,0
539,85,0,0,0,0,0,0,0,0,0,-1,1763,939,0,0
546,85,0,0,0,0,0,0,0,0,0,-1,1770,939,0,0
553,85,0,0,0,0,0,0,0,0,0,-1,1777,939,0,0
560,85,0,0,0,0,0,0,0,0,0,-1,1784,939,0,0
567,85,0,0,0,0,0,0,0,0,0,-1,1791,939,0,0
574,85,0,0,0,0,0,0,0,0,0,-1,1798,939,0,0
581,85,0,0,0,0,0,0,0,0,0,-1,1805,939,0,0
588,85,0,0,0,0,0,0,0,0,0,-1,1812,939,0,0
595,85,0,0,0,0,0,0,0,0,0,-1,1819,939,0,0
602,85,0,0,0,0,0,0,0,0,0,-1,1826,939,0,0
609,85,0,0,0,0,0,0,0,0,0,-1,1833,939,0,0
616,85,0,0,0,0,0,0,0,0,0,-1,1840,939,0,0
623,85,0,0,0,0,0,0,0,0,0,-1,1847,939,0,0
630,85,0,0,0,0,0,0,0,0,0,-1,1854,939,0,0
637,85,-0.0146484,0.0134277,0.00032858,0.00187349,-0.000212333,0.00190214,0.000299928,-1.43667,0.00118089,0.0435291,1861,939,-0.0146916,-0.0134235
644,85,0.0101318,-0.126892,0.000457873,0.00139968,-0.0005184,0.00162912,0.000228427,-1.15411,0.00101851,0.0393372,1868,939,0.010171,0.126872
651,85,0.0527344,0.043335,0.000480982,0.00106519,-0.000671064,0.00150497,4.12027e-05,-0.990672,0.000989863,0.0376392,1875,939,0.0527193,-0.0433398
658,85,0.0423584,0.104614,0.000423901,0.000826757,-0.000692091,0.00134614,-9.54776e-05,-0.927008,0.000930883,0.0361024,1882,939,0.0424013,-0.104634
665,85,0.0108643,-0.0732422,0.000314321,0.000654373,-0.000640027,0.00114657,-0.000177879,-0.915227,0.000830052,0.0381975,1889,939,0.0108782,0.073223
672,85,-0.0175781,-0.248108,0.000200658,0.0005358,-0.000533229,0.000927169,-0.000190711,-0.937641,0.000690518,0.036877,1896,939,-0.0176286,0.248084
679,85,-0.00683594,-0.193237,0.000107693,0.000446949,-0.000401641,0.000713313,-0.000158671,-0.985204,0.000536314,0.0323538,1903,939,-0.00689635,0.193215
686,85,-0.0371094,-0.0305786,3.74168e-05,0.000383433,-0.000319394,0.000573666,-0.000152817,-1.03361,0.000442273,0.0271039,1910,939,-0.0371488,0.0305664
693,85,-0.0473633,-0.0457764,-6.31093e-06,0.000297698,-0.000191436,0.000390138,-9.87509e-05,-1.12094,0.000298504,0.0171833,1917,939,-0.0473486,0.0457774
700,85,-0.03479,-0.0848389,-2.19719e-05,0.000240631,-0.000108286,0.000279523,-6.08643e-05,-1.22598,0.000209603,0.0118594,1924,939,-0.0347793,0.0848333
707,85,-0.0142822,-0.10675,-4.59683e-05,0.00022128,-6.60814e-05,0.000236727,-6.14152e-05,-1.34116,0.000181781,0.0143127,1931,939,-0.0142876,0.106769
714,85,-0.0179443,-0.142273,-1.80366e-05,0.000205398,2.0636e-05,0.000207288,-1.99265e-05,1.47947,0.00014529,0.021151,1938,939,-0.0179448,0.142269
721,85,-0.0290527,-0.12616,-2.53964e-05,0.000115726,9.83027e-05,0.00016617,-7.58406e-05,1.09668,0.000142932,0.019584,1945,939,-0.0290988,0.12615
728,85,-0.0494385,-0.0744629,-0.000130927,-0.000250611,0.000516481,0.000329167,-0.000710705,0.727723,0.000613693,0.0157381,1952,939,-0.0494868,0.0744717
735,85,-0.0472412,-0.0688477,-0.00054552,0.000805663,0.00168606,0.00194645,-0.00168631,0.97595,0.00209916,0.0150806,1959,939,-0.0472234,0.0688341
742,85,-0.0263672,-0.0678101,-0.00175362,0.00204083,0.00344654,0.00407783,-0.00379062,1.037,0.00454386,0.0132834,1966,939,-0.0264088,0.0677972
749,85,-0.0240479,-0.0741577,-0.00339546,0.00337584,0.00603695,0.00691171,-0.00693132,1.04095,0.00799228,0.0120272,1973,939,-0.024028,0.0741609
756,85,-0.0274658,-0.0762939,-0.00518768,0.00471327,0.00901791,0.0100502,-0.0105246,1.03642,0.0118799,0.0112925,1980,939,-0.0274638,0.0763126
763,85,-0.0101318,-0.0545044,-0.00776565,0.00696701,0.0131927,0.0147106,-0.0155093,1.04002,0.0174495,0.011673,1987,939,-0.0100834,0.0545198
770,85,-0.0266113,-0.055542,-0.0112667,0.0099223,0.0187482,0.0208623,-0.0222068,1.04258,0.02487,0.0171103,1994,939,-0.0266428,0.055566
777,85,-0.0981445,0.0690918,-0.0158617,0.0136017,0.0259074,0.028673,-0.030933,1.04391,0.0344218,0.0368887,2001,939,-0.0981622,-0.0691106
784,85,-0.52478,0.832214,-0.021707,0.0179109,0.0348624,0.0381991,-0.0419952,1.04375,0.0463174,0.0458186,2008,939,-0.524799,-0.83224
791,85,-0.801147,1.91217,-0.0289327,0.0225481,0.0456886,0.0492483,-0.0556329,1.04193,0.0605906,0.0486875,2015,939,-0.801103,-1.91216
798,85,-1.03955,2.81085,-0.0375921,0.0269239,0.0583707,0.0613571,-0.0720253,1.03783,0.0770904,0.0485671,2022,939,-1.03952,-2.81088
805,85,-1.33484,3.95044,0,0,0,0,0,0,0,-1,2029,939,-1.3349,-3.95041
812,85,0,0,0,0,0,0,0,0,0,-1,2036,939,0,0
-700,78,0,0,0,0,0,0,0,0,0,-1,524,946,0,0
-693,78,0,0,0,0,0,0,0,0,0,-1,531,946,0,0
-686,78,-5.03802,-0.984802,0.151693,0.00922411,-0.0549275,0.170411,-0.00949356,-0.328429,0.1169,0.0439542,538,946,-5.03803,0.984782
-679,78,-0.658569,-1.77649,0.115972,0.0153931,-0.0380982,0.128773,0.00259128,-0.324168,0.0849983,0.0497272,545,946,-0.658593,1.77649
-672,78,-0.506287,-1.68695,0.0882954,0.0169142,-0.0260947,0.0968174,0.00839221,-0.31566,0.0619374,0.0492375,552,946,-0.506306,1.68698
-665,78,-0.564331,-1.27985,0.0666336,0.0160525,-0.0174605,0.0720754,0.0106107,-0.302126,0.044933,0.0479838,559,946,-0.564308,1.27987
-658,78,-0.812805,-1.11224,0.0496349,0.0140339,-0.0112737,0.0529046,0.0107642,-0.282284,0.0322855,0.0466298,566,946,-0.8128,1.11224
-651,78,-0.118774,-0.157654,0.0363478,0.0115637,-0.00692596,0.0381519,0.00975955,-0.254827,0.0228859,0.0454003,573,946,-0.118803,0.15766
-644,78,-0.0372314,-0.0928345,0.0260803,0.00906071,-0.00395251,0.0269534,0.00818759,-0.21741,0.015956,0.0256663,580,946,-0.0372532,0.0928276
-637,78,-0.0032959,-0.0601196,0.0183078,0.00693652,-0.00196939,0.0186392,0.0066051,-0.166722,0.0109125,0.0129778,587,946,-0.00329987,0.0601426
-630,78,-0.00408936,-0.0799561,0.0100992,0.00604951,0.000597412,0.0101855,0.00596322,0.143452,0.00590914,0.0119899,594,946,-0.00408888,0.0799598
-623,78,-0.0216064,-0.0865479,0.00527731,0.00309563,0.00090069,0.0056011,0.00277185,0.345104,0.00323385,0.0111171,601,946,-0.0216307,0.0865193
-616,78,-0.0286255,-0.0788574,0.00336086,0.000898022,0.00109808,0.00377935,0.00047954,0.36411,0.0023759,0.00969428,608,946,-0.0286548,0.0788384
-609,78,-0.019104,-0.0806885,0.00198659,0.000825344,0.000748696,0.00235342,0.000458513,0.455584,0.00144064,0.0104354,615,946,-0.019104,0.0806905
-602,78,-0.0153809,-0.09198,0.00117911,0.000131554,0.00041211,0.0013218,-1.11347e-05,0.333321,0.000884935,0.0135682,622,946,-0.0153759,0.0919693
-595,78,-0.0117798,-0.0750122,0.00074269,-6.38419e-05,0.000209076,0.000793666,-0.000114818,0.239152,0.000571243,0.0142774,629,946,-0.0117558,0.0750337
-588,78,-0.00372314,-0.0523071,0.000608164,-0.00014063,0.000253382,0.000685846,-0.000218313,0.297484,0.000544783,0.0122928,636,946,-0.00374754,0.0523011
-581,78,0.000427246,-0.085083,0.000548431,-8.36748e-05,0.000205082,0.000609138,-0.000144382,0.287796,0.000461805,0.0120817,643,946,0.000441383,0.0850556
-574,78,-0.0203857,-0.112854,0.00040048,3.55187e-05,0.000111806,0.000432008,3.99064e-06,0.274853,0.000286685,0.0174458,650,946,-0.0203778,0.112872
-567,78,-0.0341797,-0.0908203,0.000345425,0.000205944,-3.20866e-05,0.000352452,0.000198917,-0.215605,0.00020405,0.0269483,657,946,-0.0341971,0.0907995
-560,78,-0.027832,-0.074646,0.000325291,0.000429275,-0.00015203,0.000537957,0.000216609,-0.950157,0.000312546,0.0300701,664,946,-0.0278524,0.074655
-553,78,-0.00634766,-0.213928,0.000164743,0.000731478,-0.000333801,0.00088597,1.02514e-05,-1.13733,0.000587259,0.036743,671,946,-0.00637379,0.213955
-546,78,-0.0432129,-0.182739,-0.000133149,0.00114905,-0.000617855,0.00139832,-0.000382416,-1.18733,0.00108244,0.0364716,678,946,-0.0432112,0.182735
-539,78,0.0385132,0.0269165,-0.000621212,0.00171458,-0.00104766,0.00211563,-0.00102226,-1.2052,0.00184795,0.0342412,685,946,0.0384977,-0.0269323
-532,78,0.153564,0.127502,-0.00133438,0.00246463,-0.00166585,0.00309162,-0.00196137,-1.21082,0.00294157,0.0359668,692,946,0.153548,-0.127484
-525,78,0.059021,-0.0527954,-0.00237129,0.00344993,-0.00257799,0.00442746,-0.00334883,-1.20836,0.00450401,0.0357831,699,946,0.0589912,0.0528033
-518,78,-0.0368652,-0.170898,-0.00384895,0.0047576,-0.00393701,0.00628684,-0.00537819,-1.20031,0.00674161,0.0373389,706,946,-0.0368419,0.170887
-511,78,0,0,0,0,0,0,0,0,0,-1,713,946,0,0
-504,78,0,0,0,0,0,0,0,0,0,-1,720,946,0,0
-497,78,0,0,0,0,0,0,0,0,0,-1,727,946,0,0
-490,78,0,0,0,0,0,0,0,0,0,-1,734,946,0,0
-483,78,0,0,0,0,0,0,0,0,0,-1,741,946,0,0
-476,78,0,0,0,0,0,0,0,0,0,-1,748,946,0,0
-469,78,0,0,0,0,0,0,0,0,0,-1,755,946,0,0
-462,78,0,0,0,0,0,0,0,0,0,-1,762,946,0,0
-455,78,0,0,0,0,0,0,0,0,0,-1,769,946,0,0
-448,78,0,0,0,0,0,0,0,0,0,-1,776,946,0,0
-441,78,0,0,0,0,0,0,0,0,0,-1,783,946,0,0
-434,78,0,0,0,0,0,0,0,0,0,-1,790,946,0,0
-427,78,0,0,0,0,0,0,0,0,0,-1,797,946,0,0
-420,78,0,0,0,0,0,0,0,0,0,-1,804,946,0,0
-413,78,0,0,0,0,0,0,0,0,0,-1,811,946,0,0
-406,78,0,0,0,0,0,0,0,0,0,-1,818,946,0,0
-399,78,0,0,0,0,0,0,0,0,0,-1,825,946,0,0
-392,78,0,0,0,0,0,0,0,0,0,-1,832,946,0,0
-385,78,0,0,0,0,0,0,0,0,0,-1,839,946,0,0
-378,78,0,0,0,0,0,0,0,0,0,-1,846,946,0,0
-371,78,0,0,0,0,0,0,0,0,0,-1,853,946,0,0
-364,78,0,0,0,0,0,0,0,0,0,-1,860,946,0,0
-357,78,0,0,0,0,0,0,0,0,0,-1,867,946,0,0
-350,78,0,0,0,0,0,0,0,0,0,-1,874,946,0,0
-343,78,0,0,0,0,0,0,0,0,0,-1,881,946,0,0
-336,78,0,0,0,0,0,0,0,0,0,-1,888,946,0,0
-329,78,0,0,0,0,0,0,0,0,0,-1,895,946,0,0
-322,78,0,0,0,0,0,0,0,0,0,-1,902,946,0,0
-315,78,0,0,0,0,0,0,0,0,0,-1,909,946,0,0
-308,78,0,0,0,0,0,0,0,0,0,-1,916,946,0,0
-301,78,0,0,0,0,0,0,0,0,0,-1,923,946,0,0
-294,78,0,0,0,0,0,0,0,0,0,-1,930,946,0,0
-287,78,0,0,0,0,0,0,0,0,0,-1,937,946,0,0
-280,78,0,0,0,0,0,0,0,0,0,-1,944,946,0,0
-273,78,0,0,0,0,0,0,0,0,0,-1,951,946,0,0
-266,78,0,0,0,0,0,0,0,0,0,-1,958,946,0,0
-259,78,0,0,0,0,0,0,0,0,0,-1,965,946,0,0
-252,78,0,0,0,0,0,0,0,0,0,-1,972,946,0,0
-245,78,0,0,0,0,0,0,0,0,0,-1,979,946,0,0
-238,78,0,0,0,0,0,0,0,0,0,-1,986,946,0,0
-231,78,0,0,0,0,0,0,0,0,0,-1,993,946,0,0
-224,78,0,0,0,0,0,0,0,0,0,-1,1000,946,0,0
-217,78,0,0,0,0,0,0,0,0,0,-1,1007,946,0,0
-210,78,0,0,0,0,0,0,0,0,0,-1,1014,946,0,0
-203,78,0,0,0,0,0,0,0,0,0,-1,1021,946,0,0
-196,78,0,0,0,0,0,0,0,0,0,-1,1028,946,0,0
-189,78,0,0,0,0,0,0,0,0,0,-1,1035,946,0,0
-182,78,0,0,0,0,0,0,0,0,0,-1,1042,946,0,0
-175,78,0,0,0,0,0,0,0,0,0,-1,1049,946,0,0
-168,78,0,0,0,0,0,0,0,0,0,-1,1056,946,0,0
-161,78,0,0,0,0,0,0,0,0,0,-1,1063,946,0,0
-154,78,0,0,0,0,0,0,0,0,0,-1,1070,946,0,0
-147,78,0,0,0,0,0,0,0,0,0,-1,1077,946,0,0
-140,78,0,0,0,0,0,0,0,0,0,-1,1084,946,0,0
-133,78,0,0,0,0,0,0,0,0,0,-1,1091,946,0,0
-126,78,0,0,0,0,0,0,0,0,0,-1,1098,946,0,0
-119,78,0,0,0,0,0,0,0,0,0,-1,1105,946,0,0
-112,78,0,0,0,0,0,0,0,0,0,-1,1112,946,0,0
-105,78,0,0,0,0,0,0,0,0,0,-1,1119,946,0,0
-98,78,0,0,0,0,0,0,0,0,0,-1,1126,946,0,0
-91,78,0,0,0,0,0,0,0,0,0,-1,1133,946,0,0
-84,78,0,0,0,0,0,0,0,0,0,-1,1140,946,0,0
-77,78,0,0,0,0,0,0,0,0,0,-1,1147,946,0,0
-70,78,0,0,0,0,0,0,0,0,0,-1,1154,946,0,0
-63,78,0,0,0,0,0,0,0,0,0,-1,1161,946,0,0
-56,78,0,0,0,0,0,0,0,0,0,-1,1168,946,0,0
-49,78,0,0,0,0,0,0,0,0,0,-1,1175,946,0,0
-42,78,0,0,0,0,0,0,0,0,0,-1,1182,946,0,0
-35,78,0,0,0,0,0,0,0,0,0,-1,1189,946,0,0
-28,78,0,0,0,0,0,0,0,0,0,-1,1196,946,0,0
-21,78,0,0,0,0,0,0,0,0,0,-1,1203,946,0,0
-14,78,0,0,0,0,0,0,0,0,0,-1,1210,946,0,0
-7,78,0,0,0,0,0,0,0,0,0,-1,1217,946,0,0
0,78,0,0,0,0,0,0,0,0,0,-1,1224,946,0,0
7,78,0,0,0,0,0,0,0,0,0,-1,1231,946,0,0
14,78,0,0,0,0,0,0,0,0,0,-1,1238,946,0,0
21,78,0,0,0,0,0,0,0,0,0,-1,1245,946,0,0
28,78,0,0,0,0,0,0,0,0,0,-1,1252,946,0,0
35,78,0,0,0,0,0,0,0,0,0,-1,1259,946,0,0
42,78,0,0,0,0,0,0,0,0,0,-1,1266,946,0,0
49,78,0,0,0,0,0,0,0,0,0,-1,1273,946,0,0
56,78,0,0,0,0,0,0,0,0,0,-1,1280,946,0,0
63,78,0,0,0,0,0,0,0,0,0,-1,1287,946,0,0
70,78,0,0,0,0,0,0,0,0,0,-1,1294,946,0,0
77,78,0,0,0,0,0,0,0,0,0,-1,1301,946,0,0
84,78,0,0,0,0,0,0,0,0,0,-1,1308,946,0,0
91,78,0,0,0,0,0,0,0,0,0,-1,1315,946,0,0
98,78,0,0,0,0,0,0,0,0,0,-1,1322,946,0,0
105,78,0,0,0,0,0,0,0,0,0,-1,1329,946,0,0
112,78,0,0,0,0,0,0,0,0,0,-1,1336,946,0,0
119,78,0,0,0,0,0,0,0,0,0,-1,1343,946,0,0
126,78,0,0,0,0,0,0,0,0,0,-1,1350,946,0,0
133,78,0,0,0,0,0,0,0,0,0,-1,1357,946,0,0
140,78,0,0,0,0,0,0,0,0,0,-1,1364,946,0,0
147,78,0,0,0,0,0,0,0,0,0,-1,1371,946,0,0
154,78,0,0,0,0,0,0,0,0,0,-1,1378,946,0,0
161,78,0,0,0,0,0,0,0,0,0,-1,1385,946,0,0
168,78,0,0,0,0,0,0,0,0,0,-1,1392,946,0,0
175,78,0,0,0,0,0,0,0,0,0,-1,1399,946,0,0
182,78,0,0,0,0,0,0,0,0,0,-1,1406,946,0,0
189,78,0,0,0,0,0,0,0,0,0,-1,1413,946,0,0
196,78,0,0,0,0,0,0,0,0,0,-1,1420,946,0,0
203,78,0,0,0,0,0,0,0,0,0,-1,1427,946,0,0
210,78,0,0,0,0,0,0,0,0,0,-1,1434,946,0,0
217,78,0,0,0,0,0,0,0,0,0,-1,1441,946,0,0
224,78,0,0,0,0,0,0,0,0,0,-1,1448,946,0,0
231,78,0,0,0,0,0,0,0,0,0,-1,1455,946,0,0
238,78,0,0,0,0,0,0,0,0,0,-1,1462,946,0,0
245,78,0,0,0,0,0,0,0,0,0,-1,1469,946,0,0
252,78,0,0,0,0,0,0,0,0,0,-1,1476,946,0,0
259,78,0,0,0,0,0,0,0,0,0,-1,1483,946,0,0
266,78,0,0,0,0,0,0,0,0,0,-1,1490,946,0,0
273,78,0,0,0,0,0,0,0,0,0,-1,1497,946,0,0
280,78,0,0,0,0,0,0,0,0,0,-1,1504,946,0,0
287,78,0,0,0,0,0,0,0,0,0,-1,1511,946,0,0
294,78,0,0,0,0,0,0,0,0,0,-1,1518,946,0,0
301,78,0,0,0,0,0,0,0,0,0,-1,1525,946,0,0
308,78,0,0,0,0,0,0,0,0,0,-1,1532,946,0,0
315,78,0,0,0,0,0,0,0,0,0,-1,1539,946,0,0
322,78,0,0,0,0,0,0,0,0,0,-1,1546,946,0,0
329,78,0,0,0,0,0,0,0,0,0,-1,1553,946,0,0
336,78,0,0,0,0,0,0,0,0,0,-1,1560,946,0,0
343,78,0,0,0,0,0,0,0,0,0,-1,1567,946,0,0
350,78,0,0,0,0,0,0,0,0,0,-1,1574,946,0,0
357,78,0,0,0,0,0,0,0,0,0,-1,1581,946,0,0
364,78,0,0,0,0,0,0,0,0,0,-1,1588,946,0,0
371,78,0,0,0,0,0,0,0,0,0,-1,1595,946,0,0
378,78,0,0,0,0,0,0,0,0,0,-1,1602,946,0,0
385,78,0,0,0,0,0,0,0,0,0,-1,1609,946,0,0
392,78,0,0,0,0,0,0,0,0,0,-1,1616,946,0,0
399,78,0,0,0,0,0,0,0,0,0,-1,1623,946,0,0
406,78,0,0,0,0,0,0,0,0,0,-1,1630,946,0,0
413,78,0,0,0,0,0,0,0,0,0,-1,1637,946,0,0
420,78,0,0,0,0,0,0,0,0,0,-1,1644,946,0,0
427,78,0,0,0,0,0,0,0,0,0,-1,1651,946,0,0
434,78,0,0,0,0,0,0,0,0,0,-1,1658,946,0,0
441,78,0,0,0,0,0,0,0,0,0,-1,1665,946,0,0
448,78,0,0,0,0,0,0,0,0,0,-1,1672,946,0,0
455,78,0,0,0,0,0,0,0,0,0,-1,1679,946,0,0
462,78,0,0,0,0,0,0,0,0,0,-1,1686,946,0,0
469,78,0,0,0,0,0,0,0,0,0,-1,1693,946,0,0
476,78,0,0,0,0,0,0,0,0,0,-1,1700,946,0,0
483,78,0,0,0,0,0,0,0,0,0,-1,1707,946,0,0
490,78,0,0,0,0,0,0,0,0,0,-1,1714,946,0,0
497,78,0,0,0,0,0,0,0,0,0,-1,1721,946,0,0
504,78,0,0,0,0,0,0,0,0,0,-1,1728,946,0,0
511,78,0,0,0,0,0,0,0,0,0,-1,1735,946,0,0
518,78,0,0,0,0,0,0,0,0,0,-1,1742,946,0,0
525,78,0,0,0,0,0,0,0,0,0,-1,1749,946,0,0
532,78,0,0,0,0,0,0,0,0,0,-1,1756,946,0,0
539,78,0,0,0,0,0,0,0,0,0,-1,1763,946,0,0
546,78,0,0,0,0,0,0,0,0,0,-1,1770,946,0,0
553,78,0,0,0,0,0,0,0,0,0,-1,1777,946,0,0
560,78,0,0,0,0,0,0,0,0,0,-1,1784,946,0,0
567,78,0,0,0,0,0,0,0,0,0,-1,1791,946,0,0
574,78,0,0,0,0,0,0,0,0,0,-1,1798,946,0,0
581,78,0,0,0,0,0,0,0,0,0,-1,1805,946,0,0
588,78,0,0,0,0,0,0,0,0,0,-1,1812,946,0,0
595,78,0,0,0,0,0,0,0,0,0,-1,1819,946,0,0
602,78,0,0,0,0,0,0,0,0,0,-1,1826,946,0,0
609,78,0,0,0,0,0,0,0,0,0,-1,1833,946,0,0
616,78,0,0,0,0,0,0,0,0,0,-1,1840,946,0,0
623,78,0,0,0,0,0,0,0,0,0,-1,1847,946,0,0
630,78,0,0,0,0,0,0,0,0,0,-1,1854,946,0,0
637,78,0.0184326,-0.126282,0.000113749,0.00213397,0.000153319,0.00214554,0.00010218,1.49548,0.00139755,0.0412425,1861,946,0.0184765,0.126282
644,78,-0.0219727,-0.147461,0.000278177,0.00154507,-0.00021578,0.00158081,0.000242433,-1.40664,0.000983079,0.0397682,1868,946,-0.0219746,0.147473
651,78,-0.0720215,0.151917,0.000349263,0.00111769,-0.000436613,0.00131507,0.000151882,-1.14622,0.000830726,0.0385452,1875,946,-0.0720478,-0.151945
658,78,-0.00683594,0.0322266,0.000330049,0.000808627,-0.000511578,0.00113411,4.56255e-06,-1.00416,0.000754559,0.0342515,1882,946,-0.00683745,-0.0322154
665,78,0.0303955,-0.0859985,0.000253643,0.000586148,-0.000503008,0.000949666,-0.000109875,-0.945005,0.000672733,0.0366281,1889,946,0.0304353,0.0860227
672,78,0.0565186,-0.260864,0.000163646,0.000434668,-0.000434521,0.000754319,-0.000156005,-0.93655,0.000562143,0.0372642,1896,946,0.056536,0.260877
679,78,0.000732422,-0.164978,8.16796e-05,0.000336242,-0.000332382,0.00056488,-0.000146958,-0.968254,0.000433948,0.0346543,1903,946,0.000761336,0.164976
686,78,-0.0822754,-0.013916,2.8686e-05,0.000267533,-0.000255428,0.000430077,-0.000133857,-1.00407,0.00034023,0.0299819,1910,946,-0.0822892,0.013935
693,78,-0.0444336,-0.0533447,7.2574e-06,0.000185324,-0.000142444,0.00026427,-7.16888e-05,-1.06471,0.000204313,0.0214663,1917,946,-0.0444312,0.0533611
700,78,-0.0311279,-0.079895,1.63619e-05,0.000132902,-8.44526e-05,0.000177236,-2.79724e-05,-1.08738,0.0001285,0.0135356,1924,946,-0.0310823,0.0798677
707,78,-0.0268555,-0.0860596,-1.01387e-05,0.000115542,-5.22294e-05,0.000134413,-2.90102e-05,-1.22407,0.000100682,0.0150857,1931,946,-0.0267998,0.0860704
714,78,-0.0412598,-0.121399,-1.6574e-05,0.00011324,3.54383e-05,0.000122285,-2.56183e-05,1.32092,9.1269e-05,0.0163233,1938,946,-0.0412307,0.121371
721,78,-0.0302734,-0.129272,-3.74807e-05,6.89242e-05,0.000129609,0.000155825,-0.000124382,0.980154,0.000162116,0.0156227,1945,946,-0.0303129,0.129274
728,78,-0.0290527,-0.0973511,-0.000219417,-0.000171923,0.000519307,0.00032418,-0.00071552,0.808246,0.000614281,0.0161727,1952,946,-0.0290182,0.0973251
735,78,-0.0426025,-0.0691528,-0.000815831,0.000768244,0.0014406,0.00162018,-0.00166777,1.03674,0.00189836,0.0115809,1959,946,-0.0425901,0.0691599
742,78,-0.024292,-0.0617065,-0.00209761,0.00195046,0.00280773,0.00338765,-0.0035348,1.0977,0.00399698,0.011787,1966,946,-0.0242768,0.0617118
749,78,-0.00927734,-0.0698242,-0.00372074,0.00307926,0.00484455,0.00559784,-0.00623933,1.09137,0.00683754,0.0121468,1973,946,-0.00928692,0.0698296
756,78,0.000244141,-0.0755005,-0.00553331,0.00404786,0.00712771,0.00784529,-0.00933074,1.08128,0.00992894,0.0125762,1980,946,0.000270417,0.0755296
763,78,-0.000610352,-0.0699463,-0.00809124,0.00583874,0.010323,0.0113267,-0.0135792,1.08217,0.014399,0.0112552,1987,946,-0.000574662,0.0699535
770,78,-0.000366211,-0.0829468,-0.0114615,0.00809201,0.014553,0.0158474,-0.0192168,1.08117,0.0202755,0.0147338,1994,946,-0.000341017,0.0829225
777,78,-0.0574951,-0.111389,-0.0157518,0.0107456,0.0199794,0.0214699,-0.0264761,1.07817,0.0277319,0.0350054,2001,946,-0.0574403,0.111388
784,78,-0.669434,0.350647,-0.0210306,0.013613,0.0267598,0.028168,-0.0355857,1.07264,0.0368912,0.0466333,2008,946,-0.66948,-0.350635
791,78,-1.08997,0.737854,0,0,0,0,0,0,0,-1,2015,946,-1.08995,-0.737856
798,78,-0.834595,2.45721,0,0,0,0,0,0,0,-1,2022,946,-0.834613,-2.45721
805,78,-1.05676,3.60681,0,0,0,0,0,0,0,-1,2029,946,-1.05678,-3.60682
812,78,0,0,0,0,0,0,0,0,0,-1,2036,946,0,0
-700,71,0,0,0,0,0,0,0,0,0,-1,524,953,0,0
-693,71,0,0,0,0,0,0,0,0,0,-1,531,953,0,0
-686,71,-3.61053,-0.354187,0.151345,0.00946851,-0.0580464,0.172067,-0.0112536,-0.34289,0.118641,0.0438114,538,953,-3.61055,0.354214
-679,71,-3.07776,-0.720093,0.115955,0.0152528,-0.0405356,0.130245,0.000963703,-0.338908,0.0865103,0.0490974,545,953,-3.07775,0.720112
-672,71,-0.70813,-1.82751,0,0,0,0,0,0,0,-1,552,953,-0.70812,1.8275
-665,71,-0.977356,-1.25824,0.0658922,0.0153053,-0.0185823,0.0719844,0.00921303,-0.316808,0.0452324,0.0458015,559,953,-0.977351,1.25825
-658,71,-0.557373,-0.506592,0.0484386,0.0130891,-0.011899,0.0520708,0.00945696,-0.296263,0.0320303,0.0481155,566,953,-0.557367,0.506579
-651,71,-0.284546,-0.362732,0.0348167,0.0105154,-0.00718442,0.0367818,0.00855032,-0.266991,0.0222262,0.0432979,573,953,-0.284574,0.362729
-644,71,-0.0344849,-0.162231,0.02438,0.00800539,-0.00396535,0.0252898,0.00709566,-0.225516,0.0150624,0.0301371,580,953,-0.0344911,0.162233
-637,71,-0.00219727,-0.071106,0.016621,0.00607533,-0.00178244,0.0169141,0.00578221,-0.162991,0.00992687,0.0130923,587,953,-0.0021741,0.0711177
-630,71,-0.0115967,-0.0731201,0.00842662,0.00540625,0.000928944,0.00868946,0.00514342,0.275731,0.00504504,0.0120192,594,953,-0.0115887,0.0731449
-623,71,-0.0280762,-0.086731,0.00367277,0.00220953,0.00123304,0.00437491,0.0015074,0.517643,0.00256622,0.0114144,601,953,-0.0280699,0.0867332
-616,71,-0.0377197,-0.0939941,0.00204267,0.000174708,0.00142892,0.00281577,-0.000598393,0.495938,0.00210519,0.0114259,608,953,-0.037716,0.0939869
-609,71,-0.0210571,-0.0831299,0.000924554,0.000333248,0.000989037,0.00166118,-0.000403381,0.640161,0.00126356,0.0130125,615,953,-0.0210793,0.0831574
-602,71,-0.0240479,-0.0997314,0.000513648,-1.75387e-05,0.000518338,0.000830475,-0.000334366,0.548641,0.000692555,0.0141443,622,953,-0.0240574,0.0997123
-595,71,-0.0355225,-0.0906372,0.000436482,-0.00012688,0.00030564,0.000570445,-0.000260843,0.413084,0.000490914,0.0147468,629,953,-0.0354923,0.0906576
-588,71,-0.0145264,-0.0812988,0.000557629,-0.000168903,0.000275982,0.000650574,-0.000261848,0.324848,0.000542489,0.0141728,636,953,-0.0145061,0.0813057
-581,71,0.00775146,-0.0466919,0.000587723,-8.17563e-05,0.000208027,0.000647097,-0.00014113,0.278024,0.00048533,0.0178476,643,953,0.00774306,0.0467165
-574,71,-0.00817871,-0.0614624,0.000444561,5.57563e-05,0.000106488,0.000471816,2.85012e-05,0.250566,0.000305487,0.0240048,650,953,-0.00819703,0.0614576
-567,71,-0.0413208,-0.0872803,0.000389192,0.000217985,-4.73115e-05,0.000401397,0.000205781,-0.252449,0.000231771,0.0198224,657,953,-0.0413364,0.0873095
-560,71,-0.0507202,-0.050354,0.000315421,0.000457461,-0.000195931,0.000594847,0.000178036,-0.959271,0.000352537,0.0261183,664,953,-0.0507095,0.0503783
-553,71,-0.0145264,-0.0993042,0.000105688,0.000786822,-0.000416462,0.000984239,-9.1729e-05,-1.12814,0.000688775,0.0376516,671,953,-0.0144998,0.0993315
-546,71,-0.0462646,-0.108459,-0.00028901,0.00126417,-0.000747826,0.0015657,-0.000590537,-1.18753,0.00128664,0.0369235,678,953,-0.0462597,0.108473
-539,71,0.0551758,0.0733032,-0.000956426,0.00193763,-0.00123133,0.00239062,-0.00140941,-1.21828,0.00221819,0.0346554,685,953,0.0551559,-0.0733203
-532,71,0.170532,0.220459,-0.00197074,0.00286551,-0.00190928,0.0035284,-0.00263363,-1.23662,0.00357013,0.040535,692,953,0.170515,-0.220449
-525,71,0.0987549,0.168213,-0.00349216,0.00413019,-0.00289302,0.00510385,-0.00446581,-1.24615,0.00552914,0.0415797,699,953,0.0987704,-0.168205
-518,71,0,0,0,0,0,0,0,0,0,-1,706,953,0,0
-511,71,0,0,0,0,0,0,0,0,0,-1,713,953,0,0
-504,71,0,0,0,0,0,0,0,0,0,-1,720,953,0,0
-497,71,0,0,0,0,0,0,0,0,0,-1,727,953,0,0
-490,71,0,0,0,0,0,0,0,0,0,-1,734,953,0,0
-483,71,0,0,0,0,0,0,0,0,0,-1,741,953,0,0
-476,71,0,0,0,0,0,0,0,0,0,-1,748,953,0,0
-469,71,0,0,0,0,0,0,0,0,0,-1,755,953,0,0
-462,71,0,0,0,0,0,0,0,0,0,-1,762,953,0,0
-455,71,0,0,0,0,0,0,0,0,0,-1,769,953,0,0
-448,71,0,0,0,0,0,0,0,0,0,-1,776,953,0,0
-441,71,0,0,0,0,0,0,0,0,0,-1,783,953,0,0
-434,71,0,0,0,0,0,0,0,0,0,-1,790,953,0,0
-427,71,0,0,0,0,0,0,0,0,0,-1,797,953,0,0
-420,71,0,0,0,0,0,0,0,0,0,-1,804,953,0,0
-413,71,0,0,0,0,0,0,0,0,0,-1,811,953,0,0
-406,71,0,0,0,0,0,0,0,0,0,-1,818,953,0,0
-399,71,0,0,0,0,0,0,0,0,0,-1,825,953,0,0
-392,71,0,0,0,0,0,0,0,0,0,-1,832,953,0,0
-385,71,0,0,0,0,0,0,0,0,0,-1,839,953,0,0
-378,71,0,0,0,0,0,0,0,0,0,-1,846,953,0,0
-371,71,0,0,0,0,0,0,0,0,0,-1,853,953,0,0
-364,71,0,0,0,0,0,0,0,0,0,-1,860,953,0,0
-357,71,0,0,0,0,0,0,0,0,0,-1,867,953,0,0
-350,71,0,0,0,0,0,0,0,0,0,-1,874,953,0,0
-343,71,0,0,0,0,0,0,0,0,0,-1,881,953,0,0
-336,71,0,0,0,0,0,0,0,0,0,-1,888,953,0,0
-329,71,0,0,0,0,0,0,0,0,0,-1,895,953,0,0
-322,71,0,0,0,0,0,0,0,0,0,-1,902,953,0,0
-315,71,0,0,0,0,0,0,0,0,0,-1,909,953,0,0
-308,71,0,0,0,0,0,0,0,0,0,-1,916,953,0,0
-301,71,0,0,0,0,0,0,0,0,0,-1,923,953,0,0
-294,71,0,0,0,0,0,0,0,0,0,-1,930,953,0,0
-287,71,0,0,0,0,0,0,0,0,0,-1,937,953,0,0
-280,71,0,0,0,0,0,0,0,0,0,-1,944,953,0,0
-273,71,0,0,0,0,0,0,0,0,0,-1,951,953,0,0
-266,71,0,0,0,0,0,0,0,0,0,-1,958,953,0,0
-259,71,0,0,0,0,0,0,0,0,0,-1,965,953,0,0
-252,71,0,0,0,0,0,0,0,0,0,-1,972,953,0,0
-245,71,0,0,0,0,0,0,0,0,0,-1,979,953,0,0
-238,71,0,0,0,0,0,0,0,0,0,-1,986,953,0,0
-231,71,0,0,0,0,0,0,0,0,0,-1,993,953,0,0
-224,71,0,0,0,0,0,0,0,0,0,-1,1000,953,0,0
-217,71,0,0,0,0,0,0,0,0,0,-1,1007,953,0,0
-210,71,0,0,0,0,0,0,0,0,0,-1,1014,953,0,0
-203,71,0,0,0,0,0,0,0,0,0,-1,1021,953,0,0
-196,71,0,0,0,0,0,0,0,0,0,-1,1028,953,0,0
-189,71,0,0,0,0,0,0,0,0,0,-1,1035,953,0,0
-182,71,0,0,0,0,0,0,0,0,0,-1,1042,953,0,0
-175,71,0,0,0,0,0,0,0,0,0,-1,1049,953,0,0
-168,71,0,0,0,0,0,0,0,0,0,-1,1056,953,0,0
-161,71,0,0,0,0,0,0,0,0,0,-1,1063,953,0,0
-154,71,0,0,0,0,0,0,0,0,0,-1,1070,953,0,0
-147,71,0,0,0,0,0,0,0,0,0,-1,1077,953,0,0
-140,71,0,0,0,0,0,0,0,0,0,-1,1084,953,0,0
-133,71,0,0,0,0,0,0,0,0,0,-1,1091,953,0,0
-126,71,0,0,0,0,0,0,0,0,0,-1,1098,953,0,0
-119,71,0,0,0,0,0,0,0,0,0,-1,1105,953,0,0
-112,71,0,0,0,0,0,0,0,0,0,-1,1112,953,0,0
-105,71,0,0,0,0,0,0,0,0,0,-1,1119,953,0,0
-98,71,0,0,0,0,0,0,0,0,0,-1,1126,953,0,0
-91,71,0,0,0,0,0,0,0,0,0,-1,1133,953,0,0
-84,71,0,0,0,0,0,0,0,0,0,-1,1140,953,0,0
-77,71,0,0,0,0,0,0,0,0,0,-1,1147,953,0,0
-70,71,0,0,0,0,0,0,0,0,0,-1,1154,953,0,0
-63,71,0,0,0,0,0,0,0,0,0,-1,1161,953,0,0
-56,71,0,0,0,0,0,0,0,0,0,-1,1168,953,0,0
-49,71,0,0,0,0,0,0,0,0,0,-1,1175,953,0,0
-42,71,0,0,0,0,0,0,0,0,0,-1,1182,953,0,0
-35,71,0,0,0,0,0,0,0,0,0,-1,1189,953,0,0
-28,71,0,0,0,0,0,0,0,0,0,-1,1196,953,0,0
-21,71,0,0,0,0,0,0,0,0,0,-1,1203,953,0,0
-14,71,0,0,0,0,0,0,0,0,0,-1,1210,953,0,0
-7,71,0,0,0,0,0,0,0,0,0,-1,1217,953,0,0
0,71,0,0,0,0,0,0,0,0,0,-1,1224,953,0,0
7,71,0,0,0,0,0,0,0,0,0,-1,1231,953,0,0
14,71,0,0,0,0,0,0,0,0,0,-1,1238,953,0,0
21,71,0,0,0,0,0,0,0,0,0,-1,1245,953,0,0
28,71,0,0,0,0,0,0,0,0,0,-1,1252,953,0,0
35,71,0,0,0,0,0,0,0,0,0,-1,1259,953,0,0
42,71,0,0,0,0,0,0,0,0,0,-1,1266,953,0,0
49,71,0,0,0,0,0,0,0,0,0,-1,1273,953,0,0
56,71,0,0,0,0,0,0,0,0,0,-1,1280,953,0,0
63,71,0,0,0,0,0,0,0,0,0,-1,1287,953,0,0
70,71,0,0,0,0,0,0,0,0,0,-1,1294,953,0,0
77,71,0,0,0,0,0,0,0,0,0,-1,1301,953,0,0
84,71,0,0,0,0,0,0,0,0,0,-1,1308,953,0,0
91,71,0,0,0,0,0,0,0,0,0,-1,1315,953,0,0
98,71,0,0,0,0,0,0,0,0,0,-1,1322,953,0,0
105,71,0,0,0,0,0,0,0,0,0,-1,1329,953,0,0
112,71,0,0,0,0,0,0,0,0,0,-1,1336,953,0,0
119,71,0,0,0,0,0,0,0,0,0,-1,1343,953,0,0
126,71,0,0,0,0,0,0,0,0,0,-1,1350,953,0,0
133,71,0,0,0,0,0,0,0,0,0,-1,1357,953,0,0
140,71,0,0,0,0,0,0,0,0,0,-1,1364,953,0,0
147,71,0,0,0,0,0,0,0,0,0,-1,1371,953,0,0
154,71,0,0,0,0,0,0,0,0,0,-1,1378,953,0,0
161,71,0,0,0,0,0,0,0,0,0,-1,1385,953,0,0
168,71,0,0,0,0,0,0,0,0,0,-1,1392,953,0,0
175,71,0,0,0,0,0,0,0,0,0,-1,1399,953,0,0
182,71,0,0,0,0,0,0,0,0,0,-1,1406,953,0,0
189,71,0,0,0,0,0,0,0,0,0,-1,1413,953,0,0
196,71,0,0,0,0,0,0,0,0,0,-1,1420,953,0,0
203,71,0,0,0,0,0,0,0,0,0,-1,1427,953,0,0
210,71,0,0,0,0,0,0,0,0,0,-1,1434,953,0,0
217,71,0,0,0,0,0,0,0,0,0,-1,1441,953,0,0
224,71,0,0,0,0,0,0,0,0,0,-1,1448,953,0,0
231,71,0,0,0,0,0,0,0,0,0,-1,1455,953,0,0
238,71,0,0,0,0,0,0,0,0,0,-1,1462,953,0,0
245,71,0,0,0,0,0,0,0,0,0,-1,1469,953,0,0
252,71,0,0,0,0,0,0,0,0,0,-1,1476,953,0,0
259,71,0,0,0,0,0,0,0,0,0,-1,1483,953,0,0
266,71,0,0,0,0,0,0,0,0,0,-1,1490,953,0,0
273,71,0,0,0,0,0,0,0,0,0,-1,1497,953,0,0
280,71,0,0,0,0,0,0,0,0,0,-1,1504,953,0,0
287,71,0,0,0,0,0,0,0,0,0,-1,1511,953,0,0
294,71,0,0,0,0,0,0,0,0,0,-1,1518,953,0,0
301,71,0,0,0,0,0,0,0,0,0,-1,1525,953,0,0
308,71,0,0,0,0,0,0,0,0,0,-1,1532,953,0,0
315,71,0,0,0,0,0,0,0,0,0,-1,1539,953,0,0
322,71,0,0,0,0,0,0,0,0,0,-1,1546,953,0,0
329,71,0,0,0,0,0,0,0,0,0,-1,1553,953,0,0
336,71,0,0,0,0,0,0,0,0,0,-1,1560,953,0,0
343,71,0,0,0,0,0,0,0,0,0,-1,1567,953,0,0
350,71,0,0,0,0,0,0,0,0,0,-1,1574,953,0,0
357,71,0,0,0,0,0,0,0,0,0,-1,1581,953,0,0
364,71,0,0,0,0,0,0,0,0,0,-1,1588,953,0,0
371,71,0,0,0,0,0,0,0,0,0,-1,1595,953,0,0
378,71,0,0,0,0,0,0,0,0,0,-1,1602,953,0,0
385,71,0,0,0,0,0,0,0,0,0,-1,1609,953,0,0
392,71,0,0,0,0,0,0,0,0,0,-1,1616,953,0,0
399,71,0,0,0,0,0,0,0,0,0,-1,1623,953,0,0
406,71,0,0,0,0,0,0,0,0,0,-1,1630,953,0,0
413,71,0,0,0,0,0,0,0,0,0,-1,1637,953,0,0
420,71,0,0,0,0,0,0,0,0,0,-1,1644,953,0,0
427,71,0,0,0,0,0,0,0,0,0,-1,1651,953,0,0
434,71,0,0,0,0,0,0,0,0,0,-1,1658,953,0,0
441,71,0,0,0,0,0,0,0,0,0,-1,1665,953,0,0
448,71,0,0,0,0,0,0,0,0,0,-1,1672,953,0,0
455,71,0,0,0,0,0,0,0,0,0,-1,1679,953,0,0
462,71,0,0,0,0,0,0,0,0,0,-1,1686,953,0,0
469,71,0,0,0,0,0,0,0,0,0,-1,1693,953,0,0
476,71,0,0,0,0,0,0,0,0,0,-1,1700,953,0,0
483,71,0,0,0,0,0,0,0,0,0,-1,1707,953,0,0
490,71,0,0,0,0,0,0,0,0,0,-1,1714,953,0,0
497,71,0,0,0,0,0,0,0,0,0,-1,1721,953,0,0
504,71,0,0,0,0,0,0,0,0,0,-1,1728,953,0,0
511,71,0,0,0,0,0,0,0,0,0,-1,1735,953,0,0
518,71,0,0,0,0,0,0,0,0,0,-1,1742,953,0,0
525,71,0,0,0,0,0,0,0,0,0,-1,1749,953,0,0
532,71,0,0,0,0,0,0,0,0,0,-1,1756,953,0,0
539,71,0,0,0,0,0,0,0,0,0,-1,1763,953,0,0
546,71,0,0,0,0,0,0,0,0,0,-1,1770,953,0,0
553,71,0,0,0,0,0,0,0,0,0,-1,1777,953,0,0
560,71,0,0,0,0,0,0,0,0,0,-1,1784,953,0,0
567,71,0,0,0,0,0,0,0,0,0,-1,1791,953,0,0
574,71,0,0,0,0,0,0,0,0,0,-1,1798,953,0,0
581,71,0,0,0,0,0,0,0,0,0,-1,1805,953,0,0
588,71,0,0,0,0,0,0,0,0,0,-1,1812,953,0,0
595,71,0,0,0,0,0,0,0,0,0,-1,1819,953,0,0
602,71,0,0,0,0,0,0,0,0,0,-1,1826,953,0,0
609,71,0,0,0,0,0,0,0,0,0,-1,1833,953,0,0
616,71,0,0,0,0,0,0,0,0,0,-1,1840,953,0,0
623,71,0,0,0,0,0,0,0,0,0,-1,1847,953,0,0
630,71,0,0,0,0,0,0,0,0,0,-1,1854,953,0,0
637,71,-0.0266113,-0.0579224,-0.000225069,0.00214739,0.000489957,0.00224459,-0.000322272,1.37495,0.00161457,0.0360215,1861,953,-0.0265633,0.0579273
644,71,-0.141724,0.043335,7.75945e-05,0.00151624,9.79154e-05,0.00152287,7.09609e-05,1.50315,0.000992439,0.0361596,1868,953,-0.141667,-0.0433477
651,71,-0.213379,0.0563354,0.000249785,0.00104972,-0.000173061,0.00108555,0.00021395,-1.36661,0.000663978,0.0341519,1875,953,-0.213343,-0.0563132
658,71,-0.078125,-0.0132446,0.000286091,0.000707579,-0.000300978,0.000864259,0.000129411,-1.09083,0.000538247,0.0317367,1882,953,-0.0781185,0.0132223
665,71,0.0032959,-0.0662842,0.00024685,0.000462465,-0.000341582,0.000712849,-3.53338e-06,-0.938257,0.000476415,0.0332802,1889,953,0.00326423,0.066279
672,71,0.0678711,-0.180176,0.00017705,0.000296843,-0.000321241,0.000563724,-8.98304e-05,-0.877567,0.000409061,0.0353384,1896,953,0.0679134,0.180197
679,71,-0.0158691,-0.132263,0.000105172,0.000195887,-0.000257193,0.000411691,-0.000110632,-0.872679,0.000317823,0.0356035,1903,953,-0.0158472,0.132266
686,71,-0.105469,-0.0872803,6.22399e-05,0.000131867,-0.000198216,0.000298303,-0.000104196,-0.872328,0.000241222,0.0305284,1910,953,-0.105424,0.0872654
693,71,-0.0385742,-0.11731,4.81936e-05,7.01779e-05,-0.000108426,0.000168168,-4.97963e-05,-0.835915,0.000131882,0.0261824,1917,953,-0.038593,0.117305
700,71,-0.0112305,-0.115845,6.09942e-05,3.54225e-05,-7.392e-05,0.000123226,-2.68093e-05,-0.699761,9.23928e-05,0.0208406,1924,953,-0.0112583,0.115865
707,71,-0.0238037,-0.0991211,2.31539e-05,2.09932e-05,-5.17511e-05,7.3836e-05,-2.96889e-05,-0.774962,6.1555e-05,0.0127051,1931,953,-0.0237491,0.0991226
714,71,-0.0471191,-0.102539,-8.19913e-06,2.1623e-05,3.61103e-05,4.57797e-05,-3.23559e-05,0.9812,4.5333e-05,0.0130968,1938,953,-0.0471331,0.102568
721,71,-0.0501709,-0.0997314,-3.26301e-05,2.16304e-05,0.000164789,0.000161508,-0.000172508,0.866984,0.000192879,0.0133737,1945,953,-0.0502171,0.0997351
728,71,-0.0316162,-0.0744019,-0.000307415,-2.44899e-05,0.000499925,0.000353602,-0.000685507,0.923277,0.000610046,0.0138483,1952,953,-0.0316566,0.0743864
735,71,-0.02771,-0.0752563,-0.00115171,0.000807315,0.00104856,0.00126269,-0.00160709,1.16108,0.00166084,0.00858335,1959,953,-0.0276782,0.0752285
742,71,-0.0123291,-0.078186,-0.00254387,0.00197619,0.00196806,0.00271299,-0.00328067,1.21257,0.00346561,0.0101949,1966,953,-0.0122942,0.0781769
749,71,0.0112305,-0.0672607,-0.00417313,0.0029218,0.00339386,0.0042838,-0.00553513,1.18916,0.00568428,0.0141385,1973,953,0.0112386,0.0672884
756,71,0.00463867,-0.0673828,-0.00601759,0.00357044,0.00492411,0.0056488,-0.00809594,1.1714,0.00797734,0.0141876,1980,953,0.00462107,0.067381
763,71,-0.00305176,-0.0691528,-0.00859796,0.00496364,0.00705624,0.00796904,-0.0116034,1.16815,0.0113649,0.0117965,1987,953,-0.00304307,0.0691261
770,71,-0.00842285,-0.0748901,-0.0118796,0.00659952,0.00988973,0.0108942,-0.0161743,1.16111,0.0157268,0.0135417,1994,953,-0.00838676,0.0749136
777,71,-0.0812988,-0.0557251,-0.0158865,0.00833687,0.0135318,0.0143856,-0.0219353,1.15044,0.0211203,0.0326542,2001,953,-0.0812843,0.0557393
784,71,-0.620605,0.399597,-0.0205769,0.00990818,0.0181234,0.0183467,-0.0290155,1.13503,0.0275749,0.040348,2008,953,-0.620611,-0.399625
791,71,-1.1676,0.605347,-0.025803,0.0108168,0.0237516,0.0224968,-0.0374829,1.11377,0.0349877,0.0417444,2015,953,-1.16759,-0.605334
798,71,-0.640503,2.09558,0,0,0,0,0,0,0,-1,2022,953,-0.640491,-2.09557
805,71,-0.240479,-0.818359,0,0,0,0,0,0,0,-1,2029,953,-0.240443,0.818383
812,71,0,0,0,0,0,0,0,0,0,-1,2036,953,0,0
-700,64,0,0,0,0,0,0,0,0,0,-1,524,960,0,0
-693,64,0,0,0,0,0,0,0,0,0,-1,531,960,0,0
-686,64,-2.46631,0.721008,0.150114,0.0124525,-0.0595211,0.17228,-0.00971357,-0.356496,0.118225,0.0474232,538,960,-2.46632,-0.721008
-679,64,-1.94904,0.0518188,0.116719,0.0185228,-0.0419454,0.132196,0.00304497,-0.353499,0.0871337,0.0450585,545,960,-1.94906,-0.0518411
-672,64,-1.37378,-0.477783,0.0895126,0.0195364,-0.0289915,0.0999632,0.00908582,-0.345972,0.0638294,0.043976,552,960,-1.37379,0.47776
-665,64,-0.818481,-0.618042,0.0674192,0.0179501,-0.0194289,0.0741375,0.0112318,-0.332918,0.046139,0.042178,559,960,-0.818475,0.618058
-658,64,-0.408875,-0.697144,0.0496613,0.0151619,-0.0124477,0.0536836,0.0111396,-0.312544,0.0327143,0.0416038,566,960,-0.408873,0.697165
-651,64,-0.179138,-0.497498,0.0356136,0.012009,-0.00748952,0.0377894,0.0098332,-0.28273,0.0226386,0.0420824,573,960,-0.179142,0.497498
-644,64,-0.00146484,-0.206604,0.0247661,0.00899182,-0.00409705,0.0257668,0.00799117,-0.239547,0.0152298,0.0288951,580,960,-0.00143981,0.20659
-637,64,-0.00439453,-0.0613403,0.016731,0.00683415,-0.00171664,0.0170203,0.00654485,-0.166958,0.00991364,0.0143106,587,960,-0.00441677,0.0613285
-630,64,-0.0297852,-0.0540771,0.00825763,0.00597404,0.00106474,0.00867705,0.00555462,0.375245,0.00507487,0.0118686,594,960,-0.0297785,0.0540467
-623,64,-0.0484009,-0.0801392,0.00327727,0.00217499,0.00136416,0.00419741,0.00125484,0.593418,0.00248782,0.0116637,601,960,-0.0484285,0.08014
-616,64,-0.0480957,-0.0691528,0.0016664,-0.000124413,0.00154231,0.00255438,-0.0010124,0.522397,0.00212246,0.0146597,608,960,-0.0481029,0.0691308
-609,64,-0.0435791,-0.0649414,0.000537558,0.000128605,0.00103536,0.00138844,-0.000722276,0.687906,0.00123869,0.0145598,615,960,-0.0436046,0.0649249
-602,64,-0.0314941,-0.0828857,0.000200441,-5.41381e-05,0.000532983,0.000621124,-0.000474821,0.668181,0.00063462,0.01565,622,960,-0.0315224,0.0828768
-595,64,-0.0425415,-0.0946045,0.000263678,-0.00014114,0.000338753,0.000455887,-0.000333348,0.516104,0.000457492,0.0156967,629,960,-0.0425169,0.0945915
-588,64,-0.0223389,-0.0744629,0.000512267,-0.000169926,0.000266197,0.000603845,-0.000261504,0.331342,0.000512476,0.0175264,636,960,-0.0223583,0.0744691
-581,64,0.000366211,0.00866699,0.000589199,-9.25556e-05,0.000190558,0.000638846,-0.000142203,0.254872,0.000480367,0.0210639,643,960,0.0003808,-0.00865135
-574,64,-0.00726318,0.0218506,0.000469855,4.7548e-05,9.27246e-05,0.000489317,2.80857e-05,0.206891,0.000317264,0.0280427,650,960,-0.00728796,-0.0218735
-567,64,-0.0223999,-0.0528564,0.00044015,0.00017942,-6.21925e-05,0.000454225,0.000165345,-0.222566,0.00026546,0.0252679,657,960,-0.02243,0.052858
-560,64,-0.0737305,-0.0739746,0.000370626,0.000396446,-0.000244448,0.000628324,0.000138748,-0.81178,0.000381147,0.0327468,664,960,-0.0737054,0.0739828
-553,64,-0.0426025,-0.131226,0.000164749,0.000711849,-0.000505316,0.00101291,-0.000136308,-1.03348,0.000724991,0.0367086,671,960,-0.0426213,0.13123
-546,64,0.00457764,-0.159363,-0.00024658,0.00118235,-0.00088992,0.00160912,-0.00067335,-1.12363,0.0013542,0.0361218,678,960,0.00456466,0.159353
-539,64,0.0585327,0.0184326,-0.000978395,0.00186078,-0.0014397,0.00246306,-0.00158068,-1.17458,0.00235311,0.0363434,685,960,0.05851,-0.0184127
-532,64,0.0435181,0.217041,-0.00212874,0.00281566,-0.00219727,0.00365099,-0.00296407,-1.2075,0.00382607,0.040585,692,960,0.0435167,-0.217055
-525,64,-0.100281,0.162659,-0.0039044,0.00414085,-0.00327879,0.00530782,-0.00507137,-1.22886,0.00599295,0.0406955,699,960,-0.10031,-0.162662
-518,64,0,0,0,0,0,0,0,0,0,-1,706,960,0,0
-511,64,0,0,0,0,0,0,0,0,0,-1,713,960,0,0
-504,64,0,0,0,0,0,0,0,0,0,-1,720,960,0,0
-497,64,0,0,0,0,0,0,0,0,0,-1,727,960,0,0
-490,64,0,0,0,0,0,0,0,0,0,-1,734,960,0,0
-483,64,0,0,0,0,0,0,0,0,0,-1,741,960,0,0
-476,64,0,0,0,0,0,0,0,0,0,-1,748,960,0,0
-469,64,0,0,0,0,0,0,0,0,0,-1,755,960,0,0
-462,64,0,0,0,0,0,0,0,0,0,-1,762,960,0,0
-455,64,0,0,0,0,0,0,0,0,0,-1,769,960,0,0
-448,64,0,0,0,0,0,0,0,0,0,-1,776,960,0,0
-441,64,0,0,0,0,0,0,0,0,0,-1,783,960,0,0
-434,64,0,0,0,0,0,0,0,0,0,-1,790,960,0,0
-427,64,0,0,0,0,0,0,0,0,0,-1,797,960,0,0
-420,64,0,0,0,0,0,0,0,0,0,-1,804,960,0,0
-413,64,0,0,0,0,0,0,0,0,0,-1,811,960,0,0
-406,64,0,0,0,0,0,0,0,0,0,-1,818,960,0,0
-399,64,0,0,0,0,0,0,0,0,0,-1,825,960,0,0
-392,64,0,0,0,0,0,0,0,0,0,-1,832,960,0,0
-385,64,0,0,0,0,0,0,0,0,0,-1,839,960,0,0
-378,64,0,0,0,0,0,0,0,0,0,-1,846,960,0,0
-371,64,0,0,0,0,0,0,0,0,0,-1,853,960,0,0
-364,64,0,0,0,0,0,0,0,0,0,-1,860,960,0,0
-357,64,0,0,0,0,0,0,0,0,0,-1,867,960,0,0
-350,64,0,0,0,0,0,0,0,0,0,-1,874,960,0,0
-343,64,0,0,0,0,0,0,0,0,0,-1,881,960,0,0
-336,64,0,0,0,0,0,0,0,0,0,-1,888,960,0,0
-329,64,0,0,0,0,0,0,0,0,0,-1,895,960,0,0
-322,64,0,0,0,0,0,0,0,0,0,-1,902,960,0,0
-315,64,0,0,0,0,0,0,0,0,0,-1,909,960,0,0
-308,64,0,0,0,0,0,0,0,0,0,-1,916,960,0,0
-301,64,0,0,0,0,0,0,0,0,0,-1,923,960,0,0
-294,64,0,0,0,0,0,0,0,0,0,-1,930,960,0,0
-287,64,0,0,0,0,0,0,0,0,0,-1,937,960,0,0
-280,64,0,0,0,0,0,0,0,0,0,-1,944,960,0,0
-273,64,0,0,0,0,0,0,0,0,0,-1,951,960,0,0
-266,64,0,0,0,0,0,0,0,0,0,-1,958,960,0,0
-259,64,0,0,0,0,0,0,0,0,0,-1,965,960,0,0
-252,64,0,0,0,0,0,0,0,0,0,-1,972,960,0,0
-245,64,0,0,0,0,0,0,0,0,0,-1,979,960,0,0
-238,64,0,0,0,0,0,0,0,0,0,-1,986,960,0,0
-231,64,0,0,0,0,0,0,0,0,0,-1,993,960,0,0
-224,64,0,0,0,0,0,0,0,0,0,-1,1000,960,0,0
-217,64,0,0,0,0,0,0,0,0,0,-1,1007,960,0,0
-210,64,0,0,0,0,0,0,0,0,0,-1,1014,960,0,0
-203,64,0,0,0,0,0,0,0,0,0,-1,1021,960,0,0
-196,64,0,0,0,0,0,0,0,0,0,-1,1028,960,0,0
-189,64,0,0,0,0,0,0,0,0,0,-1,1035,960,0,0
-182,64,0,0,0,0,0,0,0,0,0,-1,1042,960,0,0
-175,64,0,0,0,0,0,0,0,0,0,-1,1049,960,0,0
-168,64,0,0,0,0,0,0,0,0,0,-1,1056,960,0,0
-161,64,0,0,0,0,0,0,0,0,0,-1,1063,960,0,0
-154,64,0,0,0,0,0,0,0,0,0,-1,1070,960,0,0
-147,64,0,0,0,0,0,0,0,0,0,-1,1077,960,0,0
-140,64,0,0,0,0,0,0,0,0,0,-1,1084,960,0,0
-133,64,0,0,0,0,0,0,0,0,0,-1,1091,960,0,0
-126,64,0,0,0,0,0,0,0,0,0,-1,1098,960,0,0
-119,64,0,0,0,0,0,0,0,0,0,-1,1105,960,0,0
-112,64,0,0,0,0,0,0,0,0,0,-1,1112,960,0,0
-105,64,0,0,0,0,0,0,0,0,0,-1,1119,960,0,0
-98,64,0,0,0,0,0,0,0,0,0,-1,1126,960,0,0
-91,64,0,0,0,0,0,0,0,0,0,-1,1133,960,0,0
-84,64,0,0,0,0,0,0,0,0,0,-1,1140,960,0,0
-77,64,0,0,0,0,0,0,0,0,0,-1,1147,960,0,0
-70,64,0,0,0,0,0,0,0,0,0,-1,1154,960,0,0
-63,64,0,0,0,0,0,0,0,0,0,-1,1161,960,0,0
-56,64,0,0,0,0,0,0,0,0,0,-1,1168,960,0,0
-49,64,0,0,0,0,0,0,0,0,0,-1,1175,960,0,0
-42,64,0,0,0,0,0,0,0,0,0,-1,1182,960,0,0
-35,64,0,0,0,0,0,0,0,0,0,-1,1189,960,0,0
-28,64,0,0,0,0,0,0,0,0,0,-1,1196,960,0,0
-21,64,0,0,0,0,0,0,0,0,0,-1,1203,960,0,0
-14,64,0,0,0,0,0,0,0,0,0,-1,1210,960,0,0
-7,64,0,0,0,0,0,0,0,0,0,-1,1217,960,0,0
0,64,0,0,0,0,0,0,0,0,0,-1,1224,960,0,0
7,64,0,0,0,0,0,0,0,0,0,-1,1231,960,0,0
14,64,0,0,0,0,0,0,0,0,0,-1,1238,960,0,0
21,64,0,0,0,0,0,0,0,0,0,-1,1245,960,0,0
28,64,0,0,0,0,0,0,0,0,0,-1,1252,960,0,0
35,64,0,0,0,0,0,0,0,0,0,-1,1259,960,0,0
42,64,0,0,0,0,0,0,0,0,0,-1,1266,960,0,0
49,64,0,0,0,0,0,0,0,0,0,-1,1273,960,0,0
56,64,0,0,0,0,0,0,0,0,0,-1,1280,960,0,0
63,64,0,0,0,0,0,0,0,0,0,-1,1287,960,0,0
70,64,0,0,0,0,0,0,0,0,0,-1,1294,960,0,0
77,64,0,0,0,0,0,0,0,0,0,-1,1301,960,0,0
84,64,0,0,0,0,0,0,0,0,0,-1,1308,960,0,0
91,64,0,0,0,0,0,0,0,0,0,-1,1315,960,0,0
98,64,0,0,0,0,0,0,0,0,0,-1,1322,960,0,0
105,64,0,0,0,0,0,0,0,0,0,-1,1329,960,0,0
112,64,0,0,0,0,0,0,0,0,0,-1,1336,960,0,0
119,64,0,0,0,0,0,0,0,0,0,-1,1343,960,0,0
126,64,0,0,0,0,0,0,0,0,0,-1,1350,960,0,0
133,64,0,0,0,0,0,0,0,0,0,-1,1357,960,0,0
140,64,0,0,0,0,0,0,0,0,0,-1,1364,960,0,0
147,64,0,0,0,0,0,0,0,0,0,-1,1371,960,0,0
154,64,0,0,0,0,0,0,0,0,0,-1,1378,960,0,0
161,64,0,0,0,0,0,0,0,0,0,-1,1385,960,0,0
168,64,0,0,0,0,0,0,0,0,0,-1,1392,960,0,0
175,64,0,0,0,0,0,0,0,0,0,-1,1399,960,0,0
182,64,0,0,0,0,0,0,0,0,0,-1,1406,960,0,0
189,64,0,0,0,0,0,0,0,0,0,-1,1413,960,0,0
196,64,0,0,0,0,0,0,0,0,0,-1,1420,960,0,0
203,64,0,0,0,0,0,0,0,0,0,-1,1427,960,0,0
210,64,0,0,0,0,0,0,0,0,0,-1,1434,960,0,0
217,64,0,0,0,0,0,0,0,0,0,-1,1441,960,0,0
224,64,0,0,0,0,0,0,0,0,0,-1,1448,960,0,0
231,64,0,0,0,0,0,0,0,0,0,-1,1455,960,0,0
238,64,0,0,0,0,0,0,0,0,0,-1,1462,960,0,0
245,64,0,0,0,0,0,0,0,0,0,-1,1469,960,0,0
252,64,0,0,0,0,0,0,0,0,0,-1,1476,960,0,0
259,64,0,0,0,0,0,0,0,0,0,-1,1483,960,0,0
266,64,0,0,0,0,0,0,0,0,0,-1,1490,960,0,0
273,64,0,0,0,0,0,0,0,0,0,-1,1497,960,0,0
280,64,0,0,0,0,0,0,0,0,0,-1,1504,960,0,0
287,64,0,0,0,0,0,0,0,0,0,-1,1511,960,0,0
294,64,0,0,0,0,0,0,0,0,0,-1,1518,960,0,0
301,64,0,0,0,0,0,0,0,0,0,-1,1525,960,0,0
308,64,0,0,0,0,0,0,0,0,0,-1,1532,960,0,0
315,64,0,0,0,0,0,0,0,0,0,-1,1539,960,0,0
322,64,0,0,0,0,0,0,0,0,0,-1,1546,960,0,0
329,64,0,0,0,0,0,0,0,0,0,-1,1553,960,0,0
336,64,0,0,0,0,0,0,0,0,0,-1,1560,960,0,0
343,64,0,0,0,0,0,0,0,0,0,-1,1567,960,0,0
350,64,0,0,0,0,0,0,0,0,0,-1,1574,960,0,0
357,64,0,0,0,0,0,0,0,0,0,-1,1581,960,0,0
364,64,0,0,0,0,0,0,0,0,0,-1,1588,960,0,0
371,64,0,0,0,0,0,0,0,0,0,-1,1595,960,0,0
378,64,0,0,0,0,0,0,0,0,0,-1,1602,960,0,0
385,64,0,0,0,0,0,0,0,0,0,-1,1609,960,0,0
392,64,0,0,0,0,0,0,0,0,0,-1,1616,960,0,0
399,64,0,0,0,0,0,0,0,0,0,-1,1623,960,0,0
406,64,0,0,0,0,0,0,0,0,0,-1,1630,960,0,0
413,64,0,0,0,0,0,0,0,0,0,-1,1637,960,0,0
420,64,0,0,0,0,0,0,0,0,0,-1,1644,960,0,0
427,64,0,0,0,0,0,0,0,0,0,-1,1651,960,0,0
434,64,0,0,0,0,0,0,0,0,0,-1,1658,960,0,0
441,64,0,0,0,0,0,0,0,0,0,-1,1665,960,0,0
448,64,0,0,0,0,0,0,0,0,0,-1,1672,960,0,0
455,64,0,0,0,0,0,0,0,0,0,-1,1679,960,0,0
462,64,0,0,0,0,0,0,0,0,0,-1,1686,960,0,0
469,64,0,0,0,0,0,0,0,0,0,-1,1693,960,0,0
476,64,0,0,0,0,0,0,0,0,0,-1,1700,960,0,0
483,64,0,0,0,0,0,0,0,0,0,-1,1707,960,0,0
490,64,0,0,0,0,0,0,0,0,0,-1,1714,960,0,0
497,64,0,0,0,0,0,0,0,0,0,-1,1721,960,0,0
504,64,0,0,0,0,0,0,0,0,0,-1,1728,960,0,0
511,64,0,0,0,0,0,0,0,0,0,-1,1735,960,0,0
518,64,0,0,0,0,0,0,0,0,0,-1,1742,960,0,0
525,64,0,0,0,0,0,0,0,0,0,-1,1749,960,0,0
532,64,0,0,0,0,0,0,0,0,0,-1,1756,960,0,0
539,64,0,0,0,0,0,0,0,0,0,-1,1763,960,0,0
546,64,0,0,0,0,0,0,0,0,0,-1,1770,960,0,0
553,64,0,0,0,0,0,0,0,0,0,-1,1777,960,0,0
560,64,0,0,0,0,0,0,0,0,0,-1,1784,960,0,0
567,64,0,0,0,0,0,0,0,0,0,-1,1791,960,0,0
574,64,0,0,0,0,0,0,0,0,0,-1,1798,960,0,0
581,64,0,0,0,0,0,0,0,0,0,-1,1805,960,0,0
588,64,0,0,0,0,0,0,0,0,0,-1,1812,960,0,0
595,64,0,0,0,0,0,0,0,0,0,-1,1819,960,0,0
602,64,0,0,0,0,0,0,0,0,0,-1,1826,960,0,0
609,64,0,0,0,0,0,0,0,0,0,-1,1833,960,0,0
616,64,0,0,0,0,0,0,0,0,0,-1,1840,960,0,0
623,64,0,0,0,0,0,0,0,0,0,-1,1847,960,0,0
630,64,0,0,0,0,0,0,0,0,0,-1,1854,960,0,0
637,64,0,0,0,0,0,0,0,0,0,-1,1861,960,0,0
644,64,-0.0981445,-0.0292358,-5.5065e-06,0.00152025,0.000264696,0.00156487,-5.01224e-05,1.40381,0.00106035,0.036379,1868,960,-0.0981304,0.0292628
651,64,-0.142578,-0.0377808,0.000224048,0.00105479,-1.3564e-05,0.00105502,0.000223826,-1.55447,0.000641877,0.0335238,1875,960,-0.142575,0.0377675
658,64,-0.0415039,-0.0161133,0.000286168,0.000695813,-0.000162026,0.00075215,0.000229831,-1.23616,0.000445064,0.031256,1882,960,-0.0415028,0.0161396
665,64,-0.0119629,-0.0228882,0.000266688,0.000431868,-0.000227198,0.000591021,0.000107534,-0.95973,0.00036351,0.0351047,1889,960,-0.0119436,0.0229168
672,64,0.0809326,-0.0184937,0.00020949,0.000248438,-0.00023665,0.000466414,-8.48671e-06,-0.826451,0.00031381,0.0374375,1896,960,0.0808862,0.0184941
679,64,0.0263672,-0.0891113,0.000142592,0.000135313,-0.000199197,0.000338183,-6.02781e-05,-0.776263,0.000248002,0.0346349,1903,960,0.0263552,0.0891128
686,64,-0.0823975,-0.113159,9.62389e-05,6.62253e-05,-0.000155045,0.000237001,-7.4537e-05,-0.737153,0.000187842,0.0298861,1910,960,-0.0823839,0.113146
693,64,-0.0499268,-0.117493,8.52712e-05,1.3316e-05,-8.42765e-05,0.000140928,-4.23411e-05,-0.583659,0.000110796,0.0272825,1917,960,-0.0499563,0.117471
700,64,-0.0177002,-0.111511,0.000108297,-1.49817e-05,-6.07915e-05,0.000133232,-3.99161e-05,-0.389236,0.000104694,0.0209233,1924,960,-0.0177365,0.11151
707,64,-0.0205078,-0.0866699,6.36457e-05,-3.1376e-05,-4.35442e-05,8.05816e-05,-4.83118e-05,-0.370931,7.519e-05,0.0124534,1931,960,-0.0204501,0.0866866
714,64,-0.0423584,-0.0734253,6.25761e-06,-2.78814e-05,3.49324e-05,2.80679e-05,-4.96917e-05,0.558137,4.54695e-05,0.0113657,1938,960,-0.0423101,0.0734298
721,64,-0.0654297,-0.071167,-2.12135e-05,1.28076e-05,0.000153191,0.00014993,-0.000158336,0.840692,0.000178,0.0126859,1945,960,-0.0653705,0.0711746
728,64,-0.0539551,-0.069519,-0.000298438,6.73024e-05,0.000428861,0.000350654,-0.00058179,0.98693,0.000543832,0.011653,1952,960,-0.0539801,0.0695157
735,64,-0.0262451,-0.0881348,-0.00114747,0.000727669,0.000746782,0.000988732,-0.00140854,1.23449,0.00139112,0.01108,1959,960,-0.0261965,0.0881307
742,64,-0.0146484,-0.0734863,-0.00241214,0.00175475,0.00125147,0.00210172,-0.00275911,1.30034,0.00281495,0.0111316,1966,960,-0.0146079,0.0734877
749,64,-0.0125732,-0.0646362,-0.00378875,0.0023864,0.00212217,0.00304539,-0.00444774,1.26971,0.00435134,0.012107,1973,960,-0.0125651,0.0646623
756,64,-0.00866699,-0.0690308,-0.00538919,0.00258721,0.00303158,0.00360863,-0.00641061,1.24582,0.00585952,0.0137548,1980,960,-0.00871175,0.0690247
763,64,-0.0101318,-0.0762329,-0.00763744,0.00341515,0.00429392,0.00488726,-0.00910956,1.24052,0.00820271,0.012581,1987,960,-0.0101544,0.0762591
770,64,-0.0267334,-0.0749512,-0.0104308,0.00425106,0.00599879,0.00639036,-0.0125701,1.22824,0.011139,0.0123598,1994,960,-0.0267706,0.0749787
777,64,-0.0961914,0.0140991,-0.0137778,0.00490798,0.00822168,0.0080104,-0.0168802,1.20997,0.0146716,0.0278782,2001,960,-0.0962207,-0.0141005
784,64,-0.3125,0.469788,-0.017623,0.00507881,0.0111013,0.00960503,-0.0221492,1.18365,0.0188041,0.0388881,2008,960,-0.312464,-0.469781
791,64,-0.468628,0.86438,-0.0218121,0.00425784,0.0147598,0.0109145,-0.0284688,1.14711,0.0234788,0.0464627,2015,960,-0.468646,-0.864408
798,64,-0.641235,1.11755,0,0,0,0,0,0,0,-1,2022,960,-0.641252,-1.11756
805,64,-0.0187988,-3.15479,0,0,0,0,0,0,0,-1,2029,960,-0.0187582,3.15476
812,64,0,0,0,0,0,0,0,0,0,-1,2036,960,0,0
-700,57,0,0,0,0,0,0,0,0,0,-1,524,967,0,0
-693,57,0,0,0,0,0,0,0,0,0,-1,531,967,0,0
-686,57,-1.10602,1.68396,0.144685,0.0196668,-0.0588815,0.168051,-0.00369851,-0.377761,0.113287,0.0435501,538,967,-1.106,-1.68398
-679,57,-0.489258,0.64209,0.113326,0.0246997,-0.0419964,0.130065,0.00796081,-0.379281,0.084182,0.0427186,545,967,-0.48923,-0.642088
-672,57,-0.0174561,0.363892,0.0873395,0.0246676,-0.0293896,0.098965,0.0130421,-0.376679,0.0620876,0.0451544,552,967,-0.0174385,-0.363922
-665,57,0.392273,0.401123,0.0659645,0.0220538,-0.0199709,0.0736887,0.0143297,-0.369051,0.0451143,0.0471665,559,967,0.392275,-0.401093
-658,57,0.213379,-0.412659,0,0,0,0,0,0,0,-1,566,967,0.213369,0.412669
-651,57,0.120911,-0.343201,0.0348061,0.0142982,-0.00800765,0.0375624,0.0115419,-0.331503,0.0222172,0.0427948,573,967,0.120882,0.343198
-644,57,0.0341797,-0.217285,0.0240957,0.0105687,-0.00453909,0.0254777,0.00918673,-0.295538,0.0148989,0.0263672,580,967,0.0341642,0.217292
-637,57,-0.00665283,-0.0662842,0.0161669,0.00801097,-0.00200535,0.0166333,0.00754457,-0.228514,0.00961702,0.0137814,587,967,-0.00663758,0.0662831
-630,57,-0.0348511,-0.0531006,0.00779969,0.00677516,0.000798697,0.00823628,0.00633857,0.500255,0.0049803,0.0119964,594,967,-0.0348467,0.0531247
-623,57,-0.0371704,-0.0734253,0.0028867,0.00225514,0.00113183,0.00374597,0.00139587,0.649359,0.002186,0.0112716,601,967,-0.0371753,0.0734162
-616,57,-0.02771,-0.0707397,0.00137517,-0.000314736,0.00138671,0.00215407,-0.00109364,0.511775,0.00190809,0.0125078,608,967,-0.0276864,0.0707644
-609,57,-0.0292969,-0.0578003,0.000282448,2.23426e-06,0.00092458,0.00107748,-0.000792794,0.710202,0.00108396,0.012768,615,967,-0.0292808,0.0578081
-602,57,-0.0300293,-0.0770264,1.51032e-05,-0.000114862,0.000514747,0.000468953,-0.000568712,0.72261,0.000600018,0.0109615,622,967,-0.030039,0.0770014
-595,57,-0.0420532,-0.0876465,0.000172862,-0.000156708,0.000350269,0.000395172,-0.000379018,0.565532,0.000447012,0.0116924,629,967,-0.0420538,0.0876259
-588,57,-0.0281372,-0.0476685,0.000473268,-0.000158871,0.000252855,0.000561965,-0.000247568,0.33737,0.000478989,0.0143877,636,967,-0.0281473,0.0476949
-581,57,-0.0067749,0.00933838,0.000560643,-7.55853e-05,0.000165589,0.00060116,-0.000116102,0.23997,0.000444557,0.0199258,643,967,-0.00675456,-0.00935419
-574,57,-0.0233154,0.000305176,0.000458965,7.67513e-05,8.06068e-05,0.000475269,6.04473e-05,0.199574,0.000298742,0.0261547,650,967,-0.0232977,-0.000301414
-567,57,-0.0323486,0.0393677,0.000450809,0.000197726,-6.05487e-05,0.000464549,0.000183986,-0.223146,0.000270132,0.0313644,657,967,-0.0323404,-0.0393806
-560,57,-0.0574951,0.0777588,0.000390737,0.000394089,-0.000241658,0.000634077,0.000150749,-0.788866,0.000382502,0.0386328,664,967,-0.0574826,-0.0777675
-553,57,-0.0394287,-0.0125732,0.000193398,0.000701781,-0.000502981,0.00101115,-0.000115974,-1.01937,0.000715898,0.0388669,671,967,-0.0394433,0.0125656
-546,57,0.00653076,-0.117432,-0.000223753,0.00115356,-0.000879611,0.00158203,-0.000652219,-1.11751,0.00132665,0.0370415,678,967,0.00651373,0.117448
-539,57,0.00152588,0.0108643,-0.000999732,0.0017921,-0.00140496,0.00237671,-0.00158434,-1.17648,0.00230212,0.038027,685,967,0.00149972,-0.0108706
-532,57,-0.0455933,0.0632935,-0.00225311,0.00267429,-0.00210885,0.00345359,-0.00303241,-1.21682,0.00374732,0.0372278,692,967,-0.0455848,-0.06332
-525,57,-0.11554,-0.0363159,-0.00423176,0.00387262,-0.0030837,0.00491253,-0.00527167,-1.24555,0.00588107,0.0371889,699,967,-0.115564,0.0363083
-518,57,0,0,0,0,0,0,0,0,0,-1,706,967,0,0
-511,57,0,0,0,0,0,0,0,0,0,-1,713,967,0,0
-504,57,0,0,0,0,0,0,0,0,0,-1,720,967,0,0
-497,57,0,0,0,0,0,0,0,0,0,-1,727,967,0,0
-490,57,0,0,0,0,0,0,0,0,0,-1,734,967,0,0
-483,57,0,0,0,0,0,0,0,0,0,-1,741,967,0,0
-476,57,0,0,0,0,0,0,0,0,0,-1,748,967,0,0
-469,57,0,0,0,0,0,0,0,0,0,-1,755,967,0,0
-462,57,0,0,0,0,0,0,0,0,0,-1,762,967,0,0
-455,57,0,0,0,0,0,0,0,0,0,-1,769,967,0,0
-448,57,0,0,0,0,0,0,0,0,0,-1,776,967,0,0
-441,57,0,0,0,0,0,0,0,0,0,-1,783,967,0,0
-434,57,0,0,0,0,0,0,0,0,0,-1,790,967,0,0
-427,57,0,0,0,0,0,0,0,0,0,-1,797,967,0,0
-420,57,0,0,0,0,0,0,0,0,0,-1,804,967,0,0
-413,57,0,0,0,0,0,0,0,0,0,-1,811,967,0,0
-406,57,0,0,0,0,0,0,0,0,0,-1,818,967,0,0
-399,57,0,0,0,0,0,0,0,0,0,-1,825,967,0,0
-392,57,0,0,0,0,0,0,0,0,0,-1,832,967,0,0
-385,57,0,0,0,0,0,0,0,0,0,-1,839,967,0,0
-378,57,0,0,0,0,0,0,0,0,0,-1,846,967,0,0
-371,57,0,0,0,0,0,0,0,0,0,-1,853,967,0,0
-364,57,0,0,0,0,0,0,0,0,0,-1,860,967,0,0
-357,57,0,0,0,0,0,0,0,0,0,-1,867,967,0,0
-350,57,0,0,0,0,0,0,0,0,0,-1,874,967,0,0
-343,57,0,0,0,0,0,0,0,0,0,-1,881,967,0,0
-336,57,0,0,0,0,0,0,0,0,0,-1,888,967,0,0
-329,57,0,0,0,0,0,0,0,0,0,-1,895,967,0,0
-322,57,0,0,0,0,0,0,0,0,0,-1,902,967,0,0
-315,57,0,0,0,0,0,0,0,0,0,-1,909,967,0,0
-308,57,0,0,0,0,0,0,0,0,0,-1,916,967,0,0
-301,57,0,0,0,0,0,0,0,0,0,-1,923,967,0,0
-294,57,0,0,0,0,0,0,0,0,0,-1,930,967,0,0
-287,57,0,0,0,0,0,0,0,0,0,-1,937,967,0,0
-280,57,0,0,0,0,0,0,0,0,0,-1,944,967,0,0
-273,57,0,0,0,0,0,0,0,0,0,-1,951,967,0,0
-266,57,0,0,0,0,0,0,0,0,0,-1,958,967,0,0
-259,57,0,0,0,0,0,0,0,0,0,-1,965,967,0,0
-252,57,0,0,0,0,0,0,0,0,0,-1,972,967,0,0
-245,57,0,0,0,0,0,0,0,0,0,-1,979,967,0,0
-238,57,0,0,0,0,0,0,0,0,0,-1,986,967,0,0
-231,57,0,0,0,0,0,0,0,0,0,-1,993,967,0,0
-224,57,0,0,0,0,0,0,0,0,0,-1,1000,967,0,0
-217,57,0,0,0,0,0,0,0,0,0,-1,1007,967,0,0
-210,57,0,0,0,0,0,0,0,0,0,-1,1014,967,0,0
-203,57,0,0,0,0,0,0,0,0,0,-1,1021,967,0,0
-196,57,0,0,0,0,0,0,0,0,0,-1,1028,967,0,0
-189,57,0,0,0,0,0,0,0,0,0,-1,1035,967,0,0
-182,57,0,0,0,0,0,0,0,0,0,-1,1042,967,0,0
-175,57,0,0,0,0,0,0,0,0,0,-1,1049,967,0,0
-168,57,0,0,0,0,0,0,0,0,0,-1,1056,967,0,0
-161,57,0,0,0,0,0,0,0,0,0,-1,1063,967,0,0
-154,57,0,0,0,0,0,0,0,0,0,-1,1070,967,0,0
-147,57,0,0,0,0,0,0,0,0,0,-1,1077,967,0,0
-140,57,0,0,0,0,0,0,0,0,0,-1,1084,967,0,0
-133,57,0,0,0,0,0,0,0,0,0,-1,1091,967,0,0
-126,57,0,0,0,0,0,0,0,0,0,-1,1098,967,0,0
-119,57,0,0,0,0,0,0,0,0,0,-1,1105,967,0,0
-112,57,0,0,0,0,0,0,0,0,0,-1,1112,967,0,0
-105,57,0,0,0,0,0,0,0,0,0,-1,1119,967,0,0
-98,57,0,0,0,0,0,0,0,0,0,-1,1126,967,0,0
-91,57,0,0,0,0,0,0,0,0,0,-1,1133,967,0,0
-84,57,0,0,0,0,0,0,0,0,0,-1,1140,967,0,0
-77,57,0,0,0,0,0,0,0,0,0,-1,1147,967,0,0
-70,57,0,0,0,0,0,0,0,0,0,-1,1154,967,0,0
-63,57,0,0,0,0,0,0,0,0,0,-1,1161,967,0,0
-56,57,0,0,0,0,0,0,0,0,0,-1,1168,967,0,0
-49,57,0,0,0,0,0,0,0,0,0,-1,1175,967,0,0
-42,57,0,0,0,0,0,0,0,0,0,-1,1182,967,0,0
-35,57,0,0,0,0,0,0,0,0,0,-1,1189,967,0,0
-28,57,0,0,0,0,0,0,0,0,0,-1,1196,967,0,0
-21,57,0,0,0,0,0,0,0,0,0,-1,1203,967,0,0
-14,57,0,0,0,0,0,0,0,0,0,-1,1210,967,0,0
-7,57,0,0,0,0,0,0,0,0,0,-1,1217,967,0,0
0,57,0,0,0,0,0,0,0,0,0,-1,1224,967,0,0
7,57,0,0,0,0,0,0,0,0,0,-1,1231,967,0,0
14,57,0,0,0,0,0,0,0,0,0,-1,1238,967,0,0
21,57,0,0,0,0,0,0,0,0,0,-1,1245,967,0,0
28,57,0,0,0,0,0,0,0,0,0,-1,1252,967,0,0
35,57,0,0,0,0,0,0,0,0,0,-1,1259,967,0,0
42,57,0,0,0,0,0,0,0,0,0,-1,1266,967,0,0
49,57,0,0,0,0,0,0,0,0,0,-1,1273,967,0,0
56,57,0,0,0,0,0,0,0,0,0,-1,1280,967,0,0
63,57,0,0,0,0,0,0,0,0,0,-1,1287,967,0,0
70,57,0,0,0,0,0,0,0,0,0,-1,1294,967,0,0
77,57,0,0,0,0,0,0,0,0,0,-1,1301,967,0,0
84,57,0,0,0,0,0,0,0,0,0,-1,1308,967,0,0
91,57,0,0,0,0,0,0,0,0,0,-1,1315,967,0,0
98,57,0,0,0,0,0,0,0,0,0,-1,1322,967,0,0
105,57,0,0,0,0,0,0,0,0,0,-1,1329,967,0,0
112,57,0,0,0,0,0,0,0,0,0,-1,1336,967,0,0
119,57,0,0,0,0,0,0,0,0,0,-1,1343,967,0,0
126,57,0,0,0,0,0,0,0,0,0,-1,1350,967,0,0
133,57,0,0,0,0,0,0,0,0,0,-1,1357,967,0,0
140,57,0,0,0,0,0,0,0,0,0,-1,1364,967,0,0
147,57,0,0,0,0,0,0,0,0,0,-1,1371,967,0,0
154,57,0,0,0,0,0,0,0,0,0,-1,1378,967,0,0
161,57,0,0,0,0,0,0,0,0,0,-1,1385,967,0,0
168,57,0,0,0,0,0,0,0,0,0,-1,1392,967,0,0
175,57,0,0,0,0,0,0,0,0,0,-1,1399,967,0,0
182,57,0,0,0,0,0,0,0,0,0,-1,1406,967,0,0
189,57,0,0,0,0,0,0,0,0,0,-1,1413,967,0,0
196,57,0,0,0,0,0,0,0,0,0,-1,1420,967,0,0
203,57,0,0,0,0,0,0,0,0,0,-1,1427,967,0,0
210,57,0,0,0,0,0,0,0,0,0,-1,1434,967,0,0
217,57,0,0,0,0,0,0,0,0,0,-1,1441,967,0,0
224,57,0,0,0,0,0,0,0,0,0,-1,1448,967,0,0
231,57,0,0,0,0,0,0,0,0,0,-1,1455,967,0,0
238,57,0,0,0,0,0,0,0,0,0,-1,1462,967,0,0
245,57,0,0,0,0,0,0,0,0,0,-1,1469,967,0,0
252,57,0,0,0,0,0,0,0,0,0,-1,1476,967,0,0
259,57,0,0,0,0,0,0,0,0,0,-1,1483,967,0,0
266,57,0,0,0,0,0,0,0,0,0,-1,1490,967,0,0
273,57,0,0,0,0,0,0,0,0,0,-1,1497,967,0,0
280,57,0,0,0,0,0,0,0,0,0,-1,1504,967,0,0
287,57,0,0,0,0,0,0,0,0,0,-1,1511,967,0,0
294,57,0,0,0,0,0,0,0,0,0,-1,1518,967,0,0
301,57,0,0,0,0,0,0,0,0,0,-1,1525,967,0,0
308,57,0,0,0,0,0,0,0,0,0,-1,1532,967,0,0
315,57,0,0,0,0,0,0,0,0,0,-1,1539,967,0,0
322,57,0,0,0,0,0,0,0,0,0,-1,1546,967,0,0
329,57,0,0,0,0,0,0,0,0,0,-1,1553,967,0,0
336,57,0,0,0,0,0,0,0,0,0,-1,1560,967,0,0
343,57,0,0,0,0,0,0,0,0,0,-1,1567,967,0,0
350,57,0,0,0,0,0,0,0,0,0,-1,1574,967,0,0
357,57,0,0,0,0,0,0,0,0,0,-1,1581,967,0,0
364,57,0,0,0,0,0,0,0,0,0,-1,1588,967,0,0
371,57,0,0,0,0,0,0,0,0,0,-1,1595,967,0,0
378,57,0,0,0,0,0,0,0,0,0,-1,1602,967,0,0
385,57,0,0,0,0,0,0,0,0,0,-1,1609,967,0,0
392,57,0,0,0,0,0,0,0,0,0,-1,1616,967,0,0
399,57,0,0,0,0,0,0,0,0,0,-1,1623,967,0,0
406,57,0,0,0,0,0,0,0,0,0,-1,1630,967,0,0
413,57,0,0,0,0,0,0,0,0,0,-1,1637,967,0,0
420,57,0,0,0,0,0,0,0,0,0,-1,1644,967,0,0
427,57,0,0,0,0,0,0,0,0,0,-1,1651,967,0,0
434,57,0,0,0,0,0,0,0,0,0,-1,1658,967,0,0
441,57,0,0,0,0,0,0,0,0,0,-1,1665,967,0,0
448,57,0,0,0,0,0,0,0,0,0,-1,1672,967,0,0
455,57,0,0,0,0,0,0,0,0,0,-1,1679,967,0,0
462,57,0,0,0,0,0,0,0,0,0,-1,1686,967,0,0
469,57,0,0,0,0,0,0,0,0,0,-1,1693,967,0,0
476,57,0,0,0,0,0,0,0,0,0,-1,1700,967,0,0
483,57,0,0,0,0,0,0,0,0,0,-1,1707,967,0,0
490,57,0,0,0,0,0,0,0,0,0,-1,1714,967,0,0
497,57,0,0,0,0,0,0,0,0,0,-1,1721,967,0,0
504,57,0,0,0,0,0,0,0,0,0,-1,1728,967,0,0
511,57,0,0,0,0,0,0,0,0,0,-1,1735,967,0,0
518,57,0,0,0,0,0,0,0,0,0,-1,1742,967,0,0
525,57,0,0,0,0,0,0,0,0,0,-1,1749,967,0,0
532,57,0,0,0,0,0,0,0,0,0,-1,1756,967,0,0
539,57,0,0,0,0,0,0,0,0,0,-1,1763,967,0,0
546,57,0,0,0,0,0,0,0,0,0,-1,1770,967,0,0
553,57,0,0,0,0,0,0,0,0,0,-1,1777,967,0,0
560,57,0,0,0,0,0,0,0,0,0,-1,1784,967,0,0
567,57,0,0,0,0,0,0,0,0,0,-1,1791,967,0,0
574,57,0,0,0,0,0,0,0,0,0,-1,1798,967,0,0
581,57,0,0,0,0,0,0,0,0,0,-1,1805,967,0,0
588,57,0,0,0,0,0,0,0,0,0,-1,1812,967,0,0
595,57,0,0,0,0,0,0,0,0,0,-1,1819,967,0,0
602,57,0,0,0,0,0,0,0,0,0,-1,1826,967,0,0
609,57,0,0,0,0,0,0,0,0,0,-1,1833,967,0,0
616,57,0,0,0,0,0,0,0,0,0,-1,1840,967,0,0
623,57,0,0,0,0,0,0,0,0,0,-1,1847,967,0,0
630,57,0,0,0,0,0,0,0,0,0,-1,1854,967,0,0
637,57,0,0,0,0,0,0,0,0,0,-1,1861,967,0,0
644,57,0.0155029,-0.101196,-0.000255333,0.00139833,7.50432e-05,0.00140173,-0.000258732,1.52554,0.0010316,0.0384051,1868,967,0.0154833,0.101218
651,57,0.012207,-0.119934,7.14587e-05,0.000994179,-9.03683e-05,0.00100295,6.26915e-05,-1.47408,0.000648744,0.0325096,1875,967,0.0122111,0.119956
658,57,-0.00280762,-0.0672607,0.000186081,0.00066412,-0.000178309,0.000723302,0.000126899,-1.25033,0.000445961,0.0302387,1882,967,-0.00275213,0.0672869
665,57,0.0427246,-0.0740967,0.000208477,0.000415114,-0.000214165,0.000549579,7.40116e-05,-1.01014,0.000344377,0.0353787,1889,967,0.0427007,0.0741076
672,57,0.0718994,-0.00592041,0.000184486,0.0002371,-0.000216708,0.000429092,-7.5055e-06,-0.845799,0.000288596,0.0361321,1896,967,0.071861,0.00593345
679,57,-0.00256348,-0.00646973,0.000139653,0.000124102,-0.000182941,0.000314983,-5.12285e-05,-0.764159,0.000228983,0.0336247,1903,967,-0.00253717,0.00647073
686,57,-0.0213623,-0.0707397,0.00010684,5.49277e-05,-0.000139392,0.000222672,-6.09044e-05,-0.693348,0.000172374,0.0308364,1910,967,-0.0214149,0.0707402
693,57,-0.0167236,-0.0797729,0.000105563,5.56123e-06,-7.74391e-05,0.000147741,-3.66164e-05,-0.498731,0.0001127,0.0280187,1917,967,-0.0166771,0.0797741
700,57,-0.0247803,-0.103088,0.000143245,-1.74019e-05,-5.28553e-05,0.000159075,-3.32322e-05,-0.291,0.000118689,0.0189802,1924,967,-0.0247546,0.10308
707,57,-0.0175781,-0.0870972,9.97071e-05,-4.39612e-05,-3.78974e-05,0.000109091,-5.3345e-05,-0.242729,9.56056e-05,0.0136475,1931,967,-0.017544,0.0870955
714,57,-0.0299072,-0.0651245,2.51791e-05,-4.41541e-05,2.24225e-05,3.17986e-05,-5.07736e-05,0.287063,4.80908e-05,0.0129417,1938,967,-0.0298499,0.065102
721,57,-0.0402832,-0.0665283,-2.92511e-06,1.92546e-05,0.000122734,0.000131398,-0.000115069,0.830454,0.000142402,0.0135212,1945,967,-0.0402583,0.0665362
728,57,-0.0397949,-0.0817261,-0.000258376,9.01365e-05,0.000372339,0.000326978,-0.000495218,1.00426,0.000477996,0.0166243,1952,967,-0.0397451,0.0817164
735,57,-0.0367432,-0.083374,-0.00106422,0.000532838,0.000526905,0.00069101,-0.00122239,1.27916,0.00111881,0.015801,1959,967,-0.0367536,0.0833609
742,57,-0.0166016,-0.0689697,-0.00218214,0.00136689,0.000676703,0.00149154,-0.00230679,1.38864,0.00220974,0.0132033,1966,967,-0.0165781,0.0689753
749,57,-0.0266113,-0.0596924,-0.00330544,0.00167318,0.00110001,0.0019054,-0.00353765,1.36275,0.0031893,0.011672,1973,967,-0.026624,0.0597077
756,57,-0.0362549,-0.0820313,-0.00466013,0.00142238,0.00152773,0.00178454,-0.00502229,1.33804,0.00407542,0.0104328,1980,967,-0.0362437,0.0820468
763,57,-0.0280762,-0.0993652,-0.00660525,0.00168216,0.00210713,0.00218714,-0.00711024,1.33558,0.00561309,0.0112922,1987,967,-0.0280918,0.0993878
770,57,-0.0264893,-0.101135,-0.00895575,0.00175002,0.00290322,0.00248664,-0.00969237,1.32232,0.00743047,0.010436,1994,967,-0.0264322,0.101151
777,57,-0.0620117,-0.0147705,-0.0117398,0.00141686,0.00396509,0.00251945,-0.0128423,1.29958,0.00951324,0.0240231,2001,967,-0.0619508,0.0147782
784,57,-0.0897217,0.435364,-0.0149179,0.000363133,0.00540948,0.00208424,-0.016639,1.26276,0.0118487,0.0422822,2008,967,-0.089718,-0.435346
791,57,-0.188477,0.949158,-0.0183662,-0.0018911,0.00735872,0.000917069,-0.0211744,1.20624,0.0144317,0.0478662,2015,967,-0.188496,-0.949133
798,57,-0.1521,-2.07904,0,0,0,0,0,0,0,-1,2022,967,-0.152079,2.07906
805,57,-0.139893,-2.42993,0,0,0,0,0,0,0,-1,2029,967,-0.139878,2.42991
812,57,0,0,0,0,0,0,0,0,0,-1,2036,967,0,0
-700,50,0,0,0,0,0,0,0,0,0,-1,524,974,0,0
-693,50,-0.634521,3.08118,0,0,0,0,0,0,0,-1,531,974,-0.63454,-3.08115
-686,50,0.544983,2.54077,0.136345,0.029333,-0.0581716,0.161876,0.00380212,-0.413576,0.106672,0.0426371,538,974,0.545005,-2.54078
-679,50,1.86053,2.10156,0.107724,0.0322535,-0.0418642,0.126349,0.0136277,-0.418613,0.0800778,0.0412477,545,974,1.86055,-2.10158
-672,50,1.37555,1.17932,0,0,0,0,0,0,0,-1,552,974,1.37557,-1.17932
-665,50,1.58081,1.28516,0,0,0,0,0,0,0,-1,559,974,1.58084,-1.28518
-658,50,0.375854,-0.612122,0,0,0,0,0,0,0,-1,566,974,0.37587,0.612143
-651,50,0.191833,-0.402588,0.0334434,0.0166997,-0.00844998,0.0369665,0.0131766,-0.395022,0.0216338,0.0393799,573,974,0.19185,0.40256
-644,50,0.00958252,-0.203186,0.023077,0.0122014,-0.00494901,0.0249919,0.0102865,-0.369186,0.0145041,0.0216119,580,974,0.00959167,0.203201
-637,50,-0.0182495,-0.10022,0.0154064,0.00910696,-0.00217426,0.016084,0.00842939,-0.302093,0.00928969,0.0119743,587,974,-0.0182566,0.100233
-630,50,-0.0224609,-0.0724487,0.00732206,0.00746069,0.000522134,0.00791809,0.00686466,0.851385,0.00496498,0.00999562,594,974,-0.0224855,0.0724759
-623,50,-0.00378418,-0.076416,0.00252891,0.00230833,0.000843415,0.00326921,0.00156802,0.720385,0.001888,0.0104707,601,974,-0.00380508,0.0764359
-616,50,0.00152588,-0.0731201,0.00109195,-0.000454211,0.00117032,0.00172148,-0.00108374,0.493513,0.00163349,0.00995384,608,974,0.00152772,0.0731127
-609,50,-0.0120239,-0.0626831,5.21761e-05,-7.70145e-05,0.000785669,0.0007759,-0.000800739,0.744382,0.000910311,0.00951739,615,974,-0.0120147,0.0626631
-602,50,-0.0294189,-0.0780029,-0.000115421,-0.000147147,0.000486043,0.000355018,-0.000617585,0.769085,0.000568313,0.0107302,622,974,-0.0293915,0.0780007
-595,50,-0.0297241,-0.0709839,0.000129273,-0.000157287,0.000361077,0.000374459,-0.000402473,0.59652,0.000448659,0.0105952,629,974,-0.0297361,0.070956
-588,50,-0.0231934,-0.0319214,0.000448196,-0.000140164,0.000253571,0.000542398,-0.000234365,0.355698,0.000460068,0.0113637,636,974,-0.0232051,0.0319169
-581,50,-0.0184326,-0.00476074,0.000518388,-5.85584e-05,0.000163345,0.000561424,-0.000101594,0.257613,0.00041234,0.017834,643,974,-0.0184474,0.0047352
-574,50,-0.0194702,-0.0153198,0.000426314,0.000101952,9.46151e-05,0.000451896,7.63709e-05,0.264059,0.000279309,0.0243638,650,974,-0.0194411,0.0152954
-567,50,-0.0184326,0.0670166,0.000437065,0.000220351,-3.03415e-05,0.000441233,0.000216183,-0.136511,0.000254763,0.0337737,657,974,-0.0184344,-0.066998
-560,50,-0.00915527,0.0633545,0.000389606,0.00042582,-0.000208188,0.000616687,0.000198739,-0.828777,0.000363465,0.0385065,664,974,-0.00916366,-0.0633794
-553,50,-0.0328369,-0.0331421,0.000206416,0.000750827,-0.000461081,0.00101406,-5.68142e-05,-1.05205,0.00069575,0.0366987,671,974,-0.0328644,0.033122
-546,50,0.00360107,-0.0356445,-0.000200943,0.00123351,-0.000814551,0.00160159,-0.000569031,-1.14637,0.00129962,0.0358415,678,974,0.00357815,0.0356591
-539,50,-0.00805664,0.0374146,-0.000986357,0.00192154,-0.00128991,0.00241126,-0.00147608,-1.20795,0.0022659,0.0403228,685,974,-0.00804567,-0.037406
-532,50,-0.0696411,-0.120239,-0.00227822,0.00288134,-0.00190041,0.00350575,-0.00290263,-1.25334,0.00370533,0.0403584,692,974,-0.0696151,0.12022
-525,50,-0.124329,-0.279968,-0.00434271,0.00420515,-0.00269996,0.00498654,-0.0051241,-1.28909,0.00583756,0.0386433,699,974,-0.124302,0.279985
-518,50,0,0,0,0,0,0,0,0,0,-1,706,974,0,0
-511,50,0,0,0,0,0,0,0,0,0,-1,713,974,0,0
-504,50,0,0,0,0,0,0,0,0,0,-1,720,974,0,0
-497,50,0,0,0,0,0,0,0,0,0,-1,727,974,0,0
-490,50,0,0,0,0,0,0,0,0,0,-1,734,974,0,0
-483,50,0,0,0,0,0,0,0,0,0,-1,741,974,0,0
-476,50,0,0,0,0,0,0,0,0,0,-1,748,974,0,0
-469,50,0,0,0,0,0,0,0,0,0,-1,755,974,0,0
-462,50,0,0,0,0,0,0,0,0,0,-1,762,974,0,0
-455,50,0,0,0,0,0,0,0,0,0,-1,769,974,0,0
-448,50,0,0,0,0,0,0,0,0,0,-1,776,974,0,0
-441,50,0,0,0,0,0,0,0,0,0,-1,783,974,0,0
-434,50,0,0,0,0,0,0,0,0,0,-1,790,974,0,0
-427,50,0,0,0,0,0,0,0,0,0,-1,797,974,0,0
-420,50,0,0,0,0,0,0,0,0,0,-1,804,974,0,0
-413,50,0,0,0,0,0,0,0,0,0,-1,811,974,0,0
-406,50,0,0,0,0,0,0,0,0,0,-1,818,974,0,0
-399,50,0,0,0,0,0,0,0,0,0,-1,825,974,0,0
-392,50,0,0,0,0,0,0,0,0,0,-1,832,974,0,0
-385,50,0,0,0,0,0,0,0,0,0,-1,839,974,0,0
-378,50,0,0,0,0,0,0,0,0,0,-1,846,974,0,0
-371,50,0,0,0,0,0,0,0,0,0,-1,853,974,0,0
-364,50,0,0,0,0,0,0,0,0,0,-1,860,974,0,0
-357,50,0,0,0,0,0,0,0,0,0,-1,867,974,0,0
-350,50,0,0,0,0,0,0,0,0,0,-1,874,974,0,0
-343,50,0,0,0,0,0,0,0,0,0,-1,881,974,0,0
-336,50,0,0,0,0,0,0,0,0,0,-1,888,974,0,0
-329,50,0,0,0,0,0,0,0,0,0,-1,895,974,0,0
-322,50,0,0,0,0,0,0,0,0,0,-1,902,974,0,0
-315,50,0,0,0,0,0,0,0,0,0,-1,909,974,0,0
-308,50,0,0,0,0,0,0,0,0,0,-1,916,974,0,0
-301,50,0,0,0,0,0,0,0,0,0,-1,923,974,0,0
-294,50,0,0,0,0,0,0,0,0,0,-1,930,974,0,0
-287,50,0,0,0,0,0,0,0,0,0,-1,937,974,0,0
-280,50,0,0,0,0,0,0,0,0,0,-1,944,974,0,0
-273,50,0,0,0,0,0,0,0,0,0,-1,951,974,0,0
-266,50,0,0,0,0,0,0,0,0,0,-1,958,974,0,0
-259,50,0,0,0,0,0,0,0,0,0,-1,965,974,0,0
-252,50,0,0,0,0,0,0,0,0,0,-1,972,974,0,0
-245,50,0,0,0,0,0,0,0,0,0,-1,979,974,0,0
-238,50,0,0,0,0,0,0,0,0,0,-1,986,974,0,0
-231,50,0,0,0,0,0,0,0,0,0,-1,993,974,0,0
-224,50,0,0,0,0,0,0,0,0,0,-1,1000,974,0,0
-217,50,0,0,0,0,0,0,0,0,0,-1,1007,974,0,0
-210,50,0,0,0,0,0,0,0,0,0,-1,1014,974,0,0
-203,50,0,0,0,0,0,0,0,0,0,-1,1021,974,0,0
-196,50,0,0,0,0,0,0,0,0,0,-1,1028,974,0,0
-189,50,0,0,0,0,0,0,0,0,0,-1,1035,974,0,0
-182,50,0,0,0,0,0,0,0,0,0,-1,1042,974,0,0
-175,50,0,0,0,0,0,0,0,0,0,-1,1049,974,0,0
-168,50,0,0,0,0,0,0,0,0,0,-1,1056,974,0,0
-161,50,0,0,0,0,0,0,0,0,0,-1,1063,974,0,0
-154,50,0,0,0,0,0,0,0,0,0,-1,1070,974,0,0
-147,50,0,0,0,0,0,0,0,0,0,-1,1077,974,0,0
-140,50,0,0,0,0,0,0,0,0,0,-1,1084,974,0,0
-133,50,0,0,0,0,0,0,0,0,0,-1,1091,974,0,0
-126,50,0,0,0,0,0,0,0,0,0,-1,1098,974,0,0
-119,50,0,0,0,0,0,0,0,0,0,-1,1105,974,0,0
-112,50,0,0,0,0,0,0,0,0,0,-1,1112,974,0,0
-105,50,0,0,0,0,0,0,0,0,0,-1,1119,974,0,0
-98,50,0,0,0,0,0,0,0,0,0,-1,1126,974,0,0
-91,50,0,0,0,0,0,0,0,0,0,-1,1133,974,0,0
-84,50,0,0,0,0,0,0,0,0,0,-1,1140,974,0,0
-77,50,0,0,0,0,0,0,0,0,0,-1,1147,974,0,0
-70,50,0,0,0,0,0,0,0,0,0,-1,1154,974,0,0
-63,50,0,0,0,0,0,0,0,0,0,-1,1161,974,0,0
-56,50,0,0,0,0,0,0,0,0,0,-1,1168,974,0,0
-49,50,0,0,0,0,0,0,0,0,0,-1,1175,974,0,0
-42,50,0,0,0,0,0,0,0,0,0,-1,1182,974,0,0
-35,50,0,0,0,0,0,0,0,0,0,-1,1189,974,0,0
-28,50,0,0,0,0,0,0,0,0,0,-1,1196,974,0,0
-21,50,0,0,0,0,0,0,0,0,0,-1,1203,974,0,0
-14,50,0,0,0,0,0,0,0,0,0,-1,1210,974,0,0
-7,50,0,0,0,0,0,0,0,0,0,-1,1217,974,0,0
0,50,0,0,0,0,0,0,0,0,0,-1,1224,974,0,0
7,50,0,0,0,0,0,0,0,0,0,-1,1231,974,0,0
14,50,0,0,0,0,0,0,0,0,0,-1,1238,974,0,0
21,50,0,0,0,0,0,0,0,0,0,-1,1245,974,0,0
28,50,0,0,0,0,0,0,0,0,0,-1,1252,974,0,0
35,50,0,0,0,0,0,0,0,0,0,-1,1259,974,0,0
42,50,0,0,0,0,0,0,0,0,0,-1,1266,974,0,0
49,50,0,0,0,0,0,0,0,0,0,-1,1273,974,0,0
56,50,0,0,0,0,0,0,0,0,0,-1,1280,974,0,0
63,50,0,0,0,0,0,0,0,0,0,-1,1287,974,0,0
70,50,0,0,0,0,0,0,0,0,0,-1,1294,974,0,0
77,50,0,0,0,0,0,0,0,0,0,-1,1301,974,0,0
84,50,0,0,0,0,0,0,0,0,0,-1,1308,974,0,0
91,50,0,0,0,0,0,0,0,0,0,-1,1315,974,0,0
98,50,0,0,0,0,0,0,0,0,0,-1,1322,974,0,0
105,50,0,0,0,0,0,0,0,0,0,-1,1329,974,0,0
112,50,0,0,0,0,0,0,0,0,0,-1,1336,974,0,0
119,50,0,0,0,0,0,0,0,0,0,-1,1343,974,0,0
126,50,0,0,0,0,0,0,0,0,0,-1,1350,974,0,0
133,50,0,0,0,0,0,0,0,0,0,-1,1357,974,0,0
140,50,0,0,0,0,0,0,0,0,0,-1,1364,974,0,0
147,50,0,0,0,0,0,0,0,0,0,-1,1371,974,0,0
154,50,0,0,0,0,0,0,0,0,0,-1,1378,974,0,0
161,50,0,0,0,0,0,0,0,0,0,-1,1385,974,0,0
168,50,0,0,0,0,0,0,0,0,0,-1,1392,974,0,0
175,50,0,0,0,0,0,0,0,0,0,-1,1399,974,0,0
182,50,0,0,0,0,0,0,0,0,0,-1,1406,974,0,0
189,50,0,0,0,0,0,0,0,0,0,-1,1413,974,0,0
196,50,0,0,0,0,0,0,0,0,0,-1,1420,974,0,0
203,50,0,0,0,0,0,0,0,0,0,-1,1427,974,0,0
210,50,0,0,0,0,0,0,0,0,0,-1,1434,974,0,0
217,50,0,0,0,0,0,0,0,0,0,-1,1441,974,0,0
224,50,0,0,0,0,0,0,0,0,0,-1,1448,974,0,0
231,50,0,0,0,0,0,0,0,0,0,-1,1455,974,0,0
238,50,0,0,0,0,0,0,0,0,0,-1,1462,974,0,0
245,50,0,0,0,0,0,0,0,0,0,-1,1469,974,0,0
252,50,0,0,0,0,0,0,0,0,0,-1,1476,974,0,0
259,50,0,0,0,0,0,0,0,0,0,-1,1483,974,0,0
266,50,0,0,0,0,0,0,0,0,0,-1,1490,974,0,0
273,50,0,0,0,0,0,0,0,0,0,-1,1497,974,0,0
280,50,0,0,0,0,0,0,0,0,0,-1,1504,974,0,0
287,50,0,0,0,0,0,0,0,0,0,-1,1511,974,0,0
294,50,0,0,0,0,0,0,0,0,0,-1,1518,974,0,0
301,50,0,0,0,0,0,0,0,0,0,-1,1525,974,0,0
308,50,0,0,0,0,0,0,0,0,0,-1,1532,974,0,0
315,50,0,0,0,0,0,0,0,0,0,-1,1539,974,0,0
322,50,0,0,0,0,0,0,0,0,0,-1,1546,974,0,0
329,50,0,0,0,0,0,0,0,0,0,-1,1553,974,0,0
336,50,0,0,0,0,0,0,0,0,0,-1,1560,974,0,0
343,50,0,0,0,0,0,0,0,0,0,-1,1567,974,0,0
350,50,0,0,0,0,0,0,0,0,0,-1,1574,974,0,0
357,50,0,0,0,0,0,0,0,0,0,-1,1581,974,0,0
364,50,0,0,0,0,0,0,0,0,0,-1,1588,974,0,0
371,50,0,0,0,0,0,0,0,0,0,-1,1595,974,0,0
378,50,0,0,0,0,0,0,0,0,0,-1,1602,974,0,0
385,50,0,0,0,0,0,0,0,0,0,-1,1609,974,0,0
392,50,0,0,0,0,0,0,0,0,0,-1,1616,974,0,0
399,50,0,0,0,0,0,0,0,0,0,-1,1623,974,0,0
406,50,0,0,0,0,0,0,0,0,0,-1,1630,974,0,0
413,50,0,0,0,0,0,0,0,0,0,-1,1637,974,0,0
420,50,0,0,0,0,0,0,0,0,0,-1,1644,974,0,0
427,50,0,0,0,0,0,0,0,0,0,-1,1651,974,0,0
434,50,0,0,0,0,0,0,0,0,0,-1,1658,974,0,0
441,50,0,0,0,0,0,0,0,0,0,-1,1665,974,0,0
448,50,0,0,0,0,0,0,0,0,0,-1,1672,974,0,0
455,50,0,0,0,0,0,0,0,0,0,-1,1679,974,0,0
462,50,0,0,0,0,0,0,0,0,0,-1,1686,974,0,0
469,50,0,0,0,0,0,0,0,0,0,-1,1693,974,0,0
476,50,0,0,0,0,0,0,0,0,0,-1,1700,974,0,0
483,50,0,0,0,0,0,0,0,0,0,-1,1707,974,0,0
490,50,0,0,0,0,0,0,0,0,0,-1,1714,974,0,0
497,50,0,0,0,0,0,0,0,0,0,-1,1721,974,0,0
504,50,0,0,0,0,0,0,0,0,0,-1,1728,974,0,0
511,50,0,0,0,0,0,0,0,0,0,-1,1735,974,0,0
518,50,0,0,0,0,0,0,0,0,0,-1,1742,974,0,0
525,50,0,0,0,0,0,0,0,0,0,-1,1749,974,0,0
532,50,0,0,0,0,0,0,0,0,0,-1,1756,974,0,0
539,50,0,0,0,0,0,0,0,0,0,-1,1763,974,0,0
546,50,0,0,0,0,0,0,0,0,0,-1,1770,974,0,0
553,50,0,0,0,0,0,0,0,0,0,-1,1777,974,0,0
560,50,0,0,0,0,0,0,0,0,0,-1,1784,974,0,0
567,50,0,0,0,0,0,0,0,0,0,-1,1791,974,0,0
574,50,0,0,0,0,0,0,0,0,0,-1,1798,974,0,0
581,50,0,0,0,0,0,0,0,0,0,-1,1805,974,0,0
588,50,0,0,0,0,0,0,0,0,0,-1,1812,974,0,0
595,50,0,0,0,0,0,0,0,0,0,-1,1819,974,0,0
602,50,0,0,0,0,0,0,0,0,0,-1,1826,974,0,0
609,50,0,0,0,0,0,0,0,0,0,-1,1833,974,0,0
616,50,0,0,0,0,0,0,0,0,0,-1,1840,974,0,0
623,50,0,0,0,0,0,0,0,0,0,-1,1847,974,0,0
630,50,0,0,0,0,0,0,0,0,0,-1,1854,974,0,0
637,50,0,0,0,0,0,0,0,0,0,-1,1861,974,0,0
644,50,0.0472412,-0.170654,-0.000443428,0.00109249,-1.68646e-05,0.00109268,-0.000443614,-1.55982,0.000912985,0.0357932,1868,974,0.0471926,0.170648
651,50,0.0168457,-0.127625,-4.228e-05,0.000820528,-0.000101848,0.000832387,-5.41393e-05,-1.45488,0.000573823,0.0300261,1875,974,0.0168241,0.127596
658,50,-0.0584717,-0.0762329,0.00010686,0.000577531,-0.000158184,0.000625754,5.86373e-05,-1.2749,0.000399062,0.0319052,1882,974,-0.058477,0.0762221
665,50,-0.00476074,-0.151245,0.000159346,0.000383788,-0.000187423,0.000490018,5.31161e-05,-1.05515,0.000310492,0.0339822,1889,974,-0.00472849,0.151258
672,50,-0.00195313,-0.0872803,0.000163475,0.000236384,-0.000198287,0.00040154,-1.68043e-06,-0.876307,0.000268255,0.0350697,1896,974,-0.00189753,0.0872791
679,50,-0.105957,-0.0370483,0.000138951,0.000135933,-0.000178113,0.000315562,-4.06773e-05,-0.781162,0.000225162,0.0359209,1903,974,-0.105994,0.0370388
686,50,0.00756836,-0.0228271,0.000118515,6.93253e-05,-0.000141099,0.000237147,-4.93062e-05,-0.69911,0.00017684,0.0357409,1910,974,0.00762043,0.0228381
693,50,0.0506592,-0.00805664,0.000123803,1.98896e-05,-8.73415e-05,0.000173474,-2.97806e-05,-0.517079,0.000126748,0.0340629,1917,974,0.0506399,0.00805826
700,50,-0.0273438,-0.0764771,0.000170449,2.42854e-06,-6.2593e-05,0.000191204,-1.83257e-05,-0.320167,0.000133996,0.0168169,1924,974,-0.0273868,0.07645
707,50,-0.0246582,-0.0935669,0.00012882,-4.12178e-05,-4.81074e-05,0.000141487,-5.38847e-05,-0.257462,0.000116516,0.0143833,1931,974,-0.0246934,0.093538
714,50,-0.0209961,-0.0925903,4.2678e-05,-6.14513e-05,-6.28615e-06,4.30562e-05,-6.18294e-05,-0.0600779,6.08782e-05,0.0135467,1938,974,-0.0210444,0.0926111
721,50,-0.029541,-0.0834351,1.24383e-05,-1.45307e-05,7.97757e-05,7.98611e-05,-8.19535e-05,0.701674,9.34263e-05,0.0135604,1945,974,-0.0295292,0.0834584
728,50,-0.0427246,-0.0739136,-0.000210292,5.58012e-05,0.000308962,0.000259145,-0.000413636,0.988711,0.000391829,0.0168566,1952,974,-0.0427016,0.0739164
735,50,-0.043335,-0.0566406,-0.000950181,0.000449698,0.000370336,0.000541632,-0.00104211,1.32747,0.000929471,0.0158441,1959,974,-0.0432768,0.0566678
742,50,-0.0185547,-0.0643311,-0.00190388,0.00117916,0.000278244,0.00120407,-0.00192879,1.48151,0.00182482,0.012688,1966,974,-0.0185574,0.0643424
749,50,-0.0170898,-0.064209,-0.00278442,0.00132647,0.000366632,0.00135892,-0.00281686,1.48254,0.00245938,0.0132953,1973,974,-0.0171111,0.0641965
756,50,-0.0355225,-0.0706177,-0.00391355,0.000856303,0.000453457,0.000899029,-0.00395627,1.47685,0.0029827,0.0112436,1980,974,-0.0355327,0.0706021
763,50,-0.0393066,-0.0844727,-0.00559436,0.000868846,0.000532324,0.000912396,-0.00563791,1.48917,0.00409674,0.0111131,1987,974,-0.0393219,0.0845021
770,50,-0.0290527,-0.0908813,-0.00755192,0.000594285,0.000658032,0.000647097,-0.00760473,1.49071,0.00529871,0.010159,1994,974,-0.029014,0.0908548
777,50,-0.0281982,-0.0690918,-0.00985488,-0.000175422,0.000846588,-0.000101936,-0.00992836,1.48421,0.00658519,0.0206461,2001,974,-0.0282387,0.0690625
784,50,-0.0855713,0.36145,-0.0124917,-0.00175367,0.0011783,-0.00162589,-0.0126195,1.46278,0.00792679,0.0375792,2008,974,-0.0856162,-0.361472
791,50,-0.448242,-0.943542,-0.015385,-0.00458281,0.00174874,-0.00430676,-0.015661,1.41423,0.00934209,0.0410424,2015,974,-0.448242,0.943563
798,50,-0.354492,-1.58142,-0.0184,-0.00929155,0.00267923,-0.00856191,-0.0191296,1.30491,0.0110647,0.0443314,2022,974,-0.354499,1.58143
805,50,-0.296753,-1.88635,-0.0213677,-0.0167799,0.00415749,-0.0143255,-0.0238222,1.03749,0.0138476,0.0445856,2029,974,-0.296806,1.88633
812,50,0,0,0,0,0,0,0,0,0,-1,2036,974,0,0
-700,43,0,0,0,0,0,0,0,0,0,-1,524,981,0,0
-693,43,0.757507,3.85437,0,0,0,0,0,0,0,-1,531,981,0.757518,-3.85437
-686,43,1.92651,3.34003,0,0,0,0,0,0,0,-1,538,981,1.92654,-3.34003
-679,43,2.37524,2.92188,0,0,0,0,0,0,0,-1,545,981,2.37523,-2.92188
-672,43,2.95929,2.21313,0,0,0,0,0,0,0,-1,552,981,2.9593,-2.21314
-665,43,0.809143,0.172485,0,0,0,0,0,0,0,-1,559,981,0.809172,-0.172476
-658,43,0.606201,0.0335693,0.0434213,0.0241074,-0.0133136,0.0502115,0.0173172,-0.471631,0.0294509,0.0476414,566,981,0.606208,-0.0335522
-651,43,0.288696,-0.0773926,0.0309638,0.0184426,-0.00853328,0.0352868,0.0141196,-0.468915,0.0205078,0.0390624,573,981,0.288692,0.0773624
-644,43,-0.0153198,-0.10968,0.0212678,0.0133863,-0.00515817,0.0238183,0.0108358,-0.459202,0.0137701,0.016963,580,981,-0.0153271,0.109682
-637,43,-0.0270996,-0.0811157,0.0141087,0.00994635,-0.00231269,0.0151387,0.00891628,-0.419021,0.00878636,0.0104804,587,981,-0.0271024,0.0811256
-630,43,-0.0144653,-0.0735474,0.00660856,0.00791485,0.000166352,0.0079357,0.00658771,1.4461,0.0049033,0.0110641,594,981,-0.0144415,0.0735257
-623,43,-0.0100708,-0.078064,0.00212794,0.00237925,0.00048523,0.00275483,0.00175236,0.912094,0.00161003,0.0110911,601,981,-0.0100848,0.0780751
-616,43,-0.00134277,-0.0661621,0.000807608,-0.000499291,0.000889915,0.00125822,-0.0009499,0.468715,0.00127899,0.00951461,608,981,-0.00134779,0.0661644
-609,43,-0.00585938,-0.0537109,-0.000144818,-0.000111784,0.000610295,0.000482217,-0.000738819,0.798927,0.000710136,0.0115254,615,981,-0.00584906,0.0537066
-602,43,-0.0316162,-0.0603638,-0.000211837,-0.000161096,0.000456921,0.000271159,-0.000644092,0.813132,0.000542845,0.0153907,622,981,-0.0316396,0.0603693
-595,43,-0.0411377,-0.0570068,9.56706e-05,-0.000183863,0.000379159,0.000360003,-0.000448195,0.608814,0.000467538,0.0135143,629,981,-0.0411662,0.0570328
-588,43,-0.0321045,-0.0383911,0.000409999,-0.000176398,0.000278234,0.000521003,-0.000287402,0.379608,0.000473184,0.0121493,636,981,-0.032088,0.0383943
-581,43,-0.0259399,-0.0135498,0.000458142,-0.000123068,0.000193434,0.000516633,-0.000181559,0.293641,0.000418289,0.0170393,643,981,-0.0259431,0.0135496
-574,43,-0.0171509,-0.0390625,0.000378487,1.45898e-05,0.000139106,0.000425571,-3.24939e-05,0.326369,0.000295142,0.0240458,650,981,-0.0171611,0.0390522
-567,43,-0.00939941,-0.0441895,0.000408756,0.000102842,2.35225e-05,0.000410554,0.000101043,0.0762948,0.000247009,0.0337296,657,981,-0.00938459,0.0442197
-560,43,0.019104,0.0770264,0.00038444,0.000278184,-0.000160947,0.000500801,0.000161823,-0.625981,0.000295106,0.0380414,664,981,0.0190754,-0.0769964
-553,43,0.00402832,0.0231323,0.000230677,0.000578803,-0.000424817,0.000863834,-5.43542e-05,-0.979834,0.000594836,0.0369801,671,981,0.00404079,-0.023102
-546,43,0.110657,-0.0999756,-0.000148519,0.00105216,-0.000787107,0.00144174,-0.000538101,-1.11119,0.00118208,0.0384819,678,981,0.11067,0.0999664
-539,43,0.27417,-0.291931,-0.000922023,0.00175766,-0.00125807,0.00225573,-0.0014201,-1.19383,0.00214044,0.0434198,685,981,0.274196,0.291939
-532,43,0.206116,-0.493164,-0.00223155,0.00278196,-0.00183601,0.00338241,-0.00283201,-1.25472,0.00359258,0.0446513,692,981,0.206089,0.493166
-525,43,0.102966,-0.239868,-0.0043695,0.00425122,-0.00253346,0.00494062,-0.0050589,-1.30511,0.00577336,0.0423399,699,981,0.102959,0.239896
-518,43,0,0,0,0,0,0,0,0,0,-1,706,981,0,0
-511,43,0,0,0,0,0,0,0,0,0,-1,713,981,0,0
-504,43,0,0,0,0,0,0,0,0,0,-1,720,981,0,0
-497,43,0,0,0,0,0,0,0,0,0,-1,727,981,0,0
-490,43,0,0,0,0,0,0,0,0,0,-1,734,981,0,0
-483,43,0,0,0,0,0,0,0,0,0,-1,741,981,0,0
-476,43,0,0,0,0,0,0,0,0,0,-1,748,981,0,0
-469,43,0,0,0,0,0,0,0,0,0,-1,755,981,0,0
-462,43,0,0,0,0,0,0,0,0,0,-1,762,981,0,0
-455,43,0,0,0,0,0,0,0,0,0,-1,769,981,0,0
-448,43,0,0,0,0,0,0,0,0,0,-1,776,981,0,0
-441,43,0,0,0,0,0,0,0,0,0,-1,783,981,0,0
-434,43,0,0,0,0,0,0,0,0,0,-1,790,981,0,0
-427,43,0,0,0,0,0,0,0,0,0,-1,797,981,0,0
-420,43,0,0,0,0,0,0,0,0,0,-1,804,981,0,0
-413,43,0,0,0,0,0,0,0,0,0,-1,811,981,0,0
-406,43,0,0,0,0,0,0,0,0,0,-1,818,981,0,0
-399,43,0,0,0,0,0,0,0,0,0,-1,825,981,0,0
-392,43,0,0,0,0,0,0,0,0,0,-1,832,981,0,0
-385,43,0,0,0,0,0,0,0,0,0,-1,839,981,0,0
-378,43,0,0,0,0,0,0,0,0,0,-1,846,981,0,0
-371,43,0,0,0,0,0,0,0,0,0,-1,853,981,0,0
-364,43,0,0,0,0,0,0,0,0,0,-1,860,981,0,0
-357,43,0,0,0,0,0,0,0,0,0,-1,867,981,0,0
-350,43,0,0,0,0,0,0,0,0,0,-1,874,981,0,0
-343,43,0,0,0,0,0,0,0,0,0,-1,881,981,0,0
-336,43,0,0,0,0,0,0,0,0,0,-1,888,981,0,0
-329,43,0,0,0,0,0,0,0,0,0,-1,895,981,0,0
-322,43,0,0,0,0,0,0,0,0,0,-1,902,981,0,0
-315,43,0,0,0,0,0,0,0,0,0,-1,909,981,0,0
-308,43,0,0,0,0,0,0,0,0,0,-1,916,981,0,0
-301,43,0,0,0,0,0,0,0,0,0,-1,923,981,0,0
-294,43,0,0,0,0,0,0,0,0,0,-1,930,981,0,0
-287,43,0,0,0,0,0,0,0,0,0,-1,937,981,0,0
-280,43,0,0,0,0,0,0,0,0,0,-1,944,981,0,0
-273,43,0,0,0,0,0,0,0,0,0,-1,951,981,0,0
-266,43,0,0,0,0,0,0,0,0,0,-1,958,981,0,0
-259,43,0,0,0,0,0,0,0,0,0,-1,965,981,0,0
-252,43,0,0,0,0,0,0,0,0,0,-1,972,981,0,0
-245,43,0,0,0,0,0,0,0,0,0,-1,979,981,0,0
-238,43,0,0,0,0,0,0,0,0,0,-1,986,981,0,0
-231,43,0,0,0,0,0,0,0,0,0,-1,993,981,0,0
-224,43,0,0,0,0,0,0,0,0,0,-1,1000,981,0,0
-217,43,0,0,0,0,0,0,0,0,0,-1,1007,981,0,0
-210,43,0,0,0,0,0,0,0,0,0,-1,1014,981,0,0
-203,43,0,0,0,0,0,0,0,0,0,-1,1021,981,0,0
-196,43,0,0,0,0,0,0,0,0,0,-1,1028,981,0,0
-189,43,0,0,0,0,0,0,0,0,0,-1,1035,981,0,0
-182,43,0,0,0,0,0,0,0,0,0,-1,1042,981,0,0
-175,43,0,0,0,0,0,0,0,0,0,-1,1049,981,0,0
-168,43,0,0,0,0,0,0,0,0,0,-1,1056,981,0,0
-161,43,0,0,0,0,0,0,0,0,0,-1,1063,981,0,0
-154,43,0,0,0,0,0,0,0,0,0,-1,1070,981,0,0
-147,43,0,0,0,0,0,0,0,0,0,-1,1077,981,0,0
-140,43,0,0,0,0,0,0,0,0,0,-1,1084,981,0,0
-133,43,0,0,0,0,0,0,0,0,0,-1,1091,981,0,0
-126,43,0,0,0,0,0,0,0,0,0,-1,1098,981,0,0
-119,43,0,0,0,0,0,0,0,0,0,-1,1105,981,0,0
-112,43,0,0,0,0,0,0,0,0,0,-1,1112,981,0,0
-105,43,0,0,0,0,0,0,0,0,0,-1,1119,981,0,0
-98,43,0,0,0,0,0,0,0,0,0,-1,1126,981,0,0
-91,43,0,0,0,0,0,0,0,0,0,-1,1133,981,0,0
-84,43,0,0,0,0,0,0,0,0,0,-1,1140,981,0,0
-77,43,0,0,0,0,0,0,0,0,0,-1,1147,981,0,0
-70,43,0,0,0,0,0,0,0,0,0,-1,1154,981,0,0
-63,43,0,0,0,0,0,0,0,0,0,-1,1161,981,0,0
-56,43,0,0,0,0,0,0,0,0,0,-1,1168,981,0,0
-49,43,0,0,0,0,0,0,0,0,0,-1,1175,981,0,0
-42,43,0,0,0,0,0,0,0,0,0,-1,1182,981,0,0
-35,43,0,0,0,0,0,0,0,0,0,-1,1189,981,0,0
-28,43,0,0,0,0,0,0,0,0,0,-1,1196,981,0,0
-21,43,0,0,0,0,0,0,0,0,0,-1,1203,981,0,0
-14,43,0,0,0,0,0,0,0,0,0,-1,1210,981,0,0
-7,43,0,0,0,0,0,0,0,0,0,-1,1217,981,0,0
0,43,0,0,0,0,0,0,0,0,0,-1,1224,981,0,0
7,43,0,0,0,0,0,0,0,0,0,-1,1231,981,0,0
14,43,0,0,0,0,0,0,0,0,0,-1,1238,981,0,0
21,43,0,0,0,0,0,0,0,0,0,-1,1245,981,0,0
28,43,0,0,0,0,0,0,0,0,0,-1,1252,981,0,0
35,43,0,0,0,0,0,0,0,0,0,-1,1259,981,0,0
42,43,0,0,0,0,0,0,0,0,0,-1,1266,981,0,0
49,43,0,0,0,0,0,0,0,0,0,-1,1273,981,0,0
56,43,0,0,0,0,0,0,0,0,0,-1,1280,981,0,0
63,43,0,0,0,0,0,0,0,0,0,-1,1287,981,0,0
70,43,0,0,0,0,0,0,0,0,0,-1,1294,981,0,0
77,43,0,0,0,0,0,0,0,0,0,-1,1301,981,0,0
84,43,0,0,0,0,0,0,0,0,0,-1,1308,981,0,0
91,43,0,0,0,0,0,0,0,0,0,-1,1315,981,0,0
98,43,0,0,0,0,0,0,0,0,0,-1,1322,981,0,0
105,43,0,0,0,0,0,0,0,0,0,-1,1329,981,0,0
112,43,0,0,0,0,0,0,0,0,0,-1,1336,981,0,0
119,43,0,0,0,0,0,0,0,0,0,-1,1343,981,0,0
126,43,0,0,0,0,0,0,0,0,0,-1,1350,981,0,0
133,43,0,0,0,0,0,0,0,0,0,-1,1357,981,0,0
140,43,0,0,0,0,0,0,0,0,0,-1,1364,981,0,0
147,43,0,0,0,0,0,0,0,0,0,-1,1371,981,0,0
154,43,0,0,0,0,0,0,0,0,0,-1,1378,981,0,0
161,43,0,0,0,0,0,0,0,0,0,-1,1385,981,0,0
168,43,0,0,0,0,0,0,0,0,0,-1,1392,981,0,0
175,43,0,0,0,0,0,0,0,0,0,-1,1399,981,0,0
182,43,0,0,0,0,0,0,0,0,0,-1,1406,981,0,0
189,43,0,0,0,0,0,0,0,0,0,-1,1413,981,0,0
196,43,0,0,0,0,0,0,0,0,0,-1,1420,981,0,0
203,43,0,0,0,0,0,0,0,0,0,-1,1427,981,0,0
210,43,0,0,0,0,0,0,0,0,0,-1,1434,981,0,0
217,43,0,0,0,0,0,0,0,0,0,-1,1441,981,0,0
224,43,0,0,0,0,0,0,0,0,0,-1,1448,981,0,0
231,43,0,0,0,0,0,0,0,0,0,-1,1455,981,0,0
238,43,0,0,0,0,0,0,0,0,0,-1,1462,981,0,0
245,43,0,0,0,0,0,0,0,0,0,-1,1469,981,0,0
252,43,0,0,0,0,0,0,0,0,0,-1,1476,981,0,0
259,43,0,0,0,0,0,0,0,0,0,-1,1483,981,0,0
266,43,0,0,0,0,0,0,0,0,0,-1,1490,981,0,0
273,43,0,0,0,0,0,0,0,0,0,-1,1497,981,0,0
280,43,0,0,0,0,0,0,0,0,0,-1,1504,981,0,0
287,43,0,0,0,0,0,0,0,0,0,-1,1511,981,0,0
294,43,0,0,0,0,0,0,0,0,0,-1,1518,981,0,0
301,43,0,0,0,0,0,0,0,0,0,-1,1525,981,0,0
308,43,0,0,0,0,0,0,0,0,0,-1,1532,981,0,0
315,43,0,0,0,0,0,0,0,0,0,-1,1539,981,0,0
322,43,0,0,0,0,0,0,0,0,0,-1,1546,981,0,0
329,43,0,0,0,0,0,0,0,0,0,-1,1553,981,0,0
336,43,0,0,0,0,0,0,0,0,0,-1,1560,981,0,0
343,43,0,0,0,0,0,0,0,0,0,-1,1567,981,0,0
350,43,0,0,0,0,0,0,0,0,0,-1,1574,981,0,0
357,43,0,0,0,0,0,0,0,0,0,-1,1581,981,0,0
364,43,0,0,0,0,0,0,0,0,0,-1,1588,981,0,0
371,43,0,0,0,0,0,0,0,0,0,-1,1595,981,0,0
378,43,0,0,0,0,0,0,0,0,0,-1,1602,981,0,0
385,43,0,0,0,0,0,0,0,0,0,-1,1609,981,0,0
392,43,0,0,0,0,0,0,0,0,0,-1,1616,981,0,0
399,43,0,0,0,0,0,0,0,0,0,-1,1623,981,0,0
406,43,0,0,0,0,0,0,0,0,0,-1,1630,981,0,0
413,43,0,0,0,0,0,0,0,0,0,-1,1637,981,0,0
420,43,0,0,0,0,0,0,0,0,0,-1,1644,981,0,0
427,43,0,0,0,0,0,0,0,0,0,-1,1651,981,0,0
434,43,0,0,0,0,0,0,0,0,0,-1,1658,981,0,0
441,43,0,0,0,0,0,0,0,0,0,-1,1665,981,0,0
448,43,0,0,0,0,0,0,0,0,0,-1,1672,981,0,0
455,43,0,0,0,0,0,0,0,0,0,-1,1679,981,0,0
462,43,0,0,0,0,0,0,0,0,0,-1,1686,981,0,0
469,43,0,0,0,0,0,0,0,0,0,-1,1693,981,0,0
476,43,0,0,0,0,0,0,0,0,0,-1,1700,981,0,0
483,43,0,0,0,0,0,0,0,0,0,-1,1707,981,0,0
490,43,0,0,0,0,0,0,0,0,0,-1,1714,981,0,0
497,43,0,0,0,0,0,0,0,0,0,-1,1721,981,0,0
504,43,0,0,0,0,0,0,0,0,0,-1,1728,981,0,0
511,43,0,0,0,0,0,0,0,0,0,-1,1735,981,0,0
518,43,0,0,0,0,0,0,0,0,0,-1,1742,981,0,0
525,43,0,0,0,0,0,0,0,0,0,-1,1749,981,0,0
532,43,0,0,0,0,0,0,0,0,0,-1,1756,981,0,0
539,43,0,0,0,0,0,0,0,0,0,-1,1763,981,0,0
546,43,0,0,0,0,0,0,0,0,0,-1,1770,981,0,0
553,43,0,0,0,0,0,0,0,0,0,-1,1777,981,0,0
560,43,0,0,0,0,0,0,0,0,0,-1,1784,981,0,0
567,43,0,0,0,0,0,0,0,0,0,-1,1791,981,0,0
574,43,0,0,0,0,0,0,0,0,0,-1,1798,981,0,0
581,43,0,0,0,0,0,0,0,0,0,-1,1805,981,0,0
588,43,0,0,0,0,0,0,0,0,0,-1,1812,981,0,0
595,43,0,0,0,0,0,0,0,0,0,-1,1819,981,0,0
602,43,0,0,0,0,0,0,0,0,0,-1,1826,981,0,0
609,43,0,0,0,0,0,0,0,0,0,-1,1833,981,0,0
616,43,0,0,0,0,0,0,0,0,0,-1,1840,981,0,0
623,43,0,0,0,0,0,0,0,0,0,-1,1847,981,0,0
630,43,0,0,0,0,0,0,0,0,0,-1,1854,981,0,0
637,43,0,0,0,0,0,0,0,0,0,-1,1861,981,0,0
644,43,-0.0872803,0.00427246,-0.0007549,0.000977158,-6.57509e-05,0.00097965,-0.000757393,-1.53291,0.00100561,0.0334214,1868,981,-0.0872279,-0.00425229
651,43,-0.109619,-0.0296631,-0.00023791,0.000779962,-0.000112551,0.000792259,-0.000250207,-1.46197,0.000628404,0.0318376,1875,981,-0.109668,0.0296457
658,43,-0.0941162,-0.0966187,-2.6946e-05,0.000571911,-0.000152621,0.000608564,-6.35989e-05,-1.3351,0.000428485,0.0339067,1882,981,-0.0941728,0.0966339
665,43,-0.100464,-0.193237,7.06838e-05,0.0003852,-0.000179629,0.000466682,-1.07981e-05,-1.14494,0.000314783,0.0346425,1889,981,-0.100506,0.19323
672,43,-0.127075,-0.182678,0.00011274,0.000227174,-0.000196645,0.000374758,-3.48429e-05,-0.926972,0.000262226,0.0353913,1896,981,-0.127109,0.18267
679,43,-0.144531,-0.166626,0.000113402,0.000107969,-0.000185863,0.000296569,-7.51978e-05,-0.778092,0.000226969,0.0362733,1903,981,-0.144528,0.16662
686,43,-0.0457764,-0.0670166,0.00010736,2.23236e-05,-0.00015573,0.000226271,-9.65879e-05,-0.652134,0.000191349,0.0364414,1910,981,-0.0458094,0.0670403
693,43,-0.0194092,-0.0717773,0.000121809,-3.99316e-05,-0.000108157,0.000175987,-9.41088e-05,-0.464379,0.00015831,0.0351554,1917,981,-0.0193842,0.0718076
700,43,-0.0548096,-0.0426025,0.000177614,-5.27915e-05,-7.65985e-05,0.000200755,-7.59326e-05,-0.29339,0.000165075,0.0274571,1924,981,-0.0548583,0.0426121
707,43,-0.0400391,-0.0305176,0.000139241,-0.000112977,-5.48205e-05,0.000150641,-0.000124378,-0.205031,0.000159023,0.0179717,1931,981,-0.0400404,0.030531
714,43,-0.0118408,-0.0821533,4.3012e-05,-0.000150184,-2.49871e-05,4.61914e-05,-0.000153364,-0.126561,0.000120625,0.0139887,1938,981,-0.01186,0.0821796
721,43,-0.0174561,-0.104309,5.13798e-06,-0.000114315,3.98736e-05,1.72248e-05,-0.000126402,0.294325,9.05573e-05,0.0140708,1945,981,-0.0174285,0.104323
728,43,-0.0148926,-0.088501,-0.000184671,-2.66222e-05,0.000224928,0.00013276,-0.000344053,0.954328,0.000284155,0.0144505,1952,981,-0.0149305,0.0884723
735,43,-0.010376,-0.0592041,-0.000846809,0.000333873,0.000189624,0.00036358,-0.000876516,1.4154,0.000736103,0.0118759,1959,981,-0.0104239,0.059218
742,43,-0.0189209,-0.0625,-0.00168382,0.000991443,-7.29493e-05,0.000993431,-0.00168581,-1.54356,0.00156398,0.0136467,1966,981,-0.0189745,0.0624697
749,43,-0.0166016,-0.05896,-0.00242031,0.000990429,-0.000237917,0.00100695,-0.00243683,-1.50149,0.00204459,0.0157994,1973,981,-0.0166145,0.0589869
756,43,-0.0421143,-0.0566406,-0.00339708,0.000398339,-0.000389213,0.000437841,-0.00343658,-1.46965,0.00245008,0.0153017,1980,981,-0.0421089,0.0566707
763,43,-0.0462646,-0.0800171,-0.00490534,0.000245826,-0.000645814,0.000325559,-0.00498508,-1.44796,0.00343705,0.0164861,1987,981,-0.0462485,0.0799949
770,43,-0.0247803,-0.100037,-0.00661099,-0.000250507,-0.000956984,-0.000109641,-0.00675186,-1.42465,0.00446514,0.0139504,1994,981,-0.0248053,0.100047
777,43,-0.0131836,-0.104797,-0.00860916,-0.00127936,-0.00130806,-0.00105292,-0.0088356,-1.39938,0.00557268,0.0188932,2001,981,-0.0131915,0.104802
784,43,-0.23877,-0.197449,-0.0109103,-0.00312268,-0.00162665,-0.00279657,-0.0112364,-1.37294,0.00675455,0.0377398,2008,981,-0.238798,0.197455
791,43,-0.502808,-0.586609,-0.0134739,-0.00615907,-0.00181194,-0.00573484,-0.0138982,-1.34081,0.00806484,0.0423605,2015,981,-0.502856,0.586604
798,43,-0.44519,-0.835571,-0.0162179,-0.010905,-0.00173054,-0.010391,-0.0167319,-1.2821,0.00975405,0.041333,2022,981,-0.445171,0.835544
805,43,-0.246948,-0.729614,-0.0190418,-0.018067,-0.00116964,-0.0172873,-0.0198216,-0.98281,0.0124559,0.039029,2029,981,-0.246921,0.729614
812,43,-0.256714,-0.522217,0,0,0,0,0,0,0,-1,2036,981,-0.256752,0.52219
-700,36,0,0,0,0,0,0,0,0,0,-1,524,988,0,0
-693,36,-0.527222,-0.165344,0.136239,0.0307318,-0.0706079,0.171624,-0.00465326,-0.464566,0.115998,0.0459255,531,988,-0.527226,0.16537
-686,36,-0.198547,-0.930786,0.11108,0.0384642,-0.0523464,0.138477,0.0110664,-0.482188,0.0888595,0.0417272,538,988,-0.198537,0.930774
-679,36,2.48981,3.64069,0.0885232,0.0388328,-0.0384271,0.109437,0.0179186,-0.498424,0.0677796,0.0457585,545,988,2.48978,-3.64067
-672,36,0.314758,1.47162,0.0689058,0.0353876,-0.0277846,0.0845944,0.0196991,-0.514021,0.0511113,0.0498322,552,988,0.314765,-1.47159
-665,36,0.365662,1.22919,0.0522376,0.0300989,-0.0196568,0.0637275,0.018609,-0.528964,0.0378393,0.0473057,559,988,0.365657,-1.2292
-658,36,0.407959,0.869019,0.0384353,0.0241877,-0.0135095,0.0465842,0.0160388,-0.542768,0.0273266,0.0434634,566,988,0.407963,-0.869048
-651,36,0.195374,0.403687,0.0273131,0.0184373,-0.00896321,0.0328769,0.0128735,-0.555529,0.0191297,0.0337912,573,988,0.195349,-0.403714
-644,36,-0.0335693,-0.0580444,0.0186618,0.0133386,-0.00569686,0.0222881,0.00971222,-0.566863,0.0129034,0.0179112,580,988,-0.0335692,0.0580563
-637,36,-0.0438232,-0.0558472,0.0123364,0.00995083,-0.00273097,0.0141237,0.00816354,-0.579501,0.00818734,0.0120549,587,988,-0.0438266,0.0558196
-630,36,-0.031311,-0.0482178,0.00569373,0.00781933,-0.000467004,0.00791741,0.00559565,-1.36379,0.00469958,0.0111462,594,988,-0.0313018,0.0482273
-623,36,-0.0184326,-0.0683594,0.00164219,0.0022283,-8.5608e-05,0.00224055,0.00162994,-1.42869,0.00133746,0.0117564,601,988,-0.0184213,0.0683594
-616,36,-0.0159302,-0.0669556,0.000468329,-0.000567125,0.000465221,0.000646642,-0.000745438,0.366016,0.000804392,0.0100266,608,988,-0.0159103,0.0669642
-609,36,0.00640869,-0.038208,-0.000357151,-0.000170441,0.000338083,8.6939e-05,-0.000614531,0.920106,0.000441529,0.0144253,615,988,0.0064031,0.0381835
-602,36,0.0012207,-0.0265503,-0.000314203,-0.000166084,0.000389766,0.000156596,-0.000636883,0.879284,0.000485284,0.0195044,622,988,0.00124925,0.0265535
-595,36,-0.0143433,-0.0180054,4.32781e-05,-0.000191508,0.000394716,0.000337689,-0.000485918,0.640858,0.00047807,0.0204737,629,988,-0.0143408,0.0180087
-588,36,-0.0164795,-0.0518188,0.000343363,-0.000195438,0.000311414,0.000485733,-0.000337808,0.428804,0.000478021,0.0180376,636,988,-0.0165047,0.0518065
-581,36,-0.00543213,-0.0634766,0.000369608,-0.000180259,0.000227273,0.000451383,-0.000262034,0.34539,0.0004167,0.0194844,643,988,-0.00540532,0.0635045
-574,36,0.0112915,-0.112488,0.000303789,-7.88343e-05,0.000183319,0.000377442,-0.000152487,0.382033,0.000315009,0.0229342,650,988,0.0112697,0.112518
-567,36,-0.00714111,-0.11908,0.000353157,-2.63202e-05,6.55128e-05,0.000364149,-3.73119e-05,0.166231,0.000256111,0.0316497,657,988,-0.0071417,0.119092
-560,36,-0.00183105,0.0534058,0.000354014,0.000107117,-0.000139952,0.000417183,4.39483e-05,-0.423986,0.000264691,0.0371391,664,988,-0.00183592,-0.0533883
-553,36,0.0222168,0.166077,0.000235113,0.000358493,-0.000435068,0.000736223,-0.000142617,-0.855826,0.000544615,0.0392494,671,988,0.0222036,-0.166081
-546,36,0.0789795,0.053833,-0.000109237,0.000776604,-0.000834098,0.00127809,-0.00061072,-1.02947,0.00111296,0.0399167,678,988,0.078977,-0.0538117
-539,36,0.266541,-0.268311,-0.000864601,0.00142429,-0.00133918,0.00204143,-0.00148173,-1.13897,0.00204263,0.0415262,685,988,0.266567,0.268316
-532,36,0.337341,-0.392212,-0.00218317,0.00239636,-0.0019365,0.00310544,-0.00289224,-1.21979,0.00346349,0.0436558,692,988,0.337333,0.392226
-525,36,0.207642,-0.198792,-0.00439174,0.00382679,-0.00259293,0.00457647,-0.00514142,-1.28935,0.00561379,0.0452167,699,988,0.207668,0.198806
-518,36,0,0,0,0,0,0,0,0,0,-1,706,988,0,0
-511,36,0,0,0,0,0,0,0,0,0,-1,713,988,0,0
-504,36,0,0,0,0,0,0,0,0,0,-1,720,988,0,0
-497,36,0,0,0,0,0,0,0,0,0,-1,727,988,0,0
-490,36,0,0,0,0,0,0,0,0,0,-1,734,988,0,0
-483,36,0,0,0,0,0,0,0,0,0,-1,741,988,0,0
-476,36,0,0,0,0,0,0,0,0,0,-1,748,988,0,0
-469,36,0,0,0,0,0,0,0,0,0,-1,755,988,0,0
-462,36,0,0,0,0,0,0,0,0,0,-1,762,988,0,0
-455,36,0,0,0,0,0,0,0,0,0,-1,769,988,0,0
-448,36,0,0,0,0,0,0,0,0,0,-1,776,988,0,0
-441,36,0,0,0,0,0,0,0,0,0,-1,783,988,0,0
-434,36,0,0,0,0,0,0,0,0,0,-1,790,988,0,0
-427,36,0,0,0,0,0,0,0,0,0,-1,797,988,0,0
-420,36,0,0,0,0,0,0,0,0,0,-1,804,988,0,0
-413,36,0,0,0,0,0,0,0,0,0,-1,811,988,0,0
-406,36,0,0,0,0,0,0,0,0,0,-1,818,988,0,0
-399,36,0,0,0,0,0,0,0,0,0,-1,825,988,0,0
-392,36,0,0,0,0,0,0,0,0,0,-1,832,988,0,0
-385,36,0,0,0,0,0,0,0,0,0,-1,839,988,0,0
-378,36,0,0,0,0,0,0,0,0,0,-1,846,988,0,0
-371,36,0,0,0,0,0,0,0,0,0,-1,853,988,0,0
-364,36,0,0,0,0,0,0,0,0,0,-1,860,988,0,0
-357,36,0,0,0,0,0,0,0,0,0,-1,867,988,0,0
-350,36,0,0,0,0,0,0,0,0,0,-1,874,988,0,0
-343,36,0,0,0,0,0,0,0,0,0,-1,881,988,0,0
-336,36,0,0,0,0,0,0,0,0,0,-1,888,988,0,0
-329,36,0,0,0,0,0,0,0,0,0,-1,895,988,0,0
-322,36,0,0,0,0,0,0,0,0,0,-1,902,988,0,0
-315,36,0,0,0,0,0,0,0,0,0,-1,909,988,0,0
-308,36,0,0,0,0,0,0,0,0,0,-1,916,988,0,0
-301,36,0,0,0,0,0,0,0,0,0,-1,923,988,0,0
-294,36,0,0,0,0,0,0,0,0,0,-1,930,988,0,0
-287,36,0,0,0,0,0,0,0,0,0,-1,937,988,0,0
-280,36,0,0,0,0,0,0,0,0,0,-1,944,988,0,0
-273,36,0,0,0,0,0,0,0,0,0,-1,951,988,0,0
-266,36,0,0,0,0,0,0,0,0,0,-1,958,988,0,0
-259,36,0,0,0,0,0,0,0,0,0,-1,965,988,0,0
-252,36,0,0,0,0,0,0,0,0,0,-1,972,988,0,0
-245,36,0,0,0,0,0,0,0,0,0,-1,979,988,0,0
-238,36,0,0,0,0,0,0,0,0,0,-1,986,988,0,0
-231,36,0,0,0,0,0,0,0,0,0,-1,993,988,0,0
-224,36,0,0,0,0,0,0,0,0,0,-1,1000,988,0,0
-217,36,0,0,0,0,0,0,0,0,0,-1,1007,988,0,0
-210,36,0,0,0,0,0,0,0,0,0,-1,1014,988,0,0
-203,36,0,0,0,0,0,0,0,0,0,-1,1021,988,0,0
-196,36,0,0,0,0,0,0,0,0,0,-1,1028,988,0,0
-189,36,0,0,0,0,0,0,0,0,0,-1,1035,988,0,0
-182,36,0,0,0,0,0,0,0,0,0,-1,1042,988,0,0
-175,36,0,0,0,0,0,0,0,0,0,-1,1049,988,0,0
-168,36,0,0,0,0,0,0,0,0,0,-1,1056,988,0,0
-161,36,0,0,0,0,0,0,0,0,0,-1,1063,988,0,0
-154,36,0,0,0,0,0,0,0,0,0,-1,1070,988,0,0
-147,36,0,0,0,0,0,0,0,0,0,-1,1077,988,0,0
-140,36,0,0,0,0,0,0,0,0,0,-1,1084,988,0,0
-133,36,0,0,0,0,0,0,0,0,0,-1,1091,988,0,0
-126,36,0,0,0,0,0,0,0,0,0,-1,1098,988,0,0
-119,36,0,0,0,0,0,0,0,0,0,-1,1105,988,0,0
-112,36,0,0,0,0,0,0,0,0,0,-1,1112,988,0,0
-105,36,0,0,0,0,0,0,0,0,0,-1,1119,988,0,0
-98,36,0,0,0,0,0,0,0,0,0,-1,1126,988,0,0
-91,36,0,0,0,0,0,0,0,0,0,-1,1133,988,0,0
-84,36,0,0,0,0,0,0,0,0,0,-1,1140,988,0,0
-77,36,0,0,0,0,0,0,0,0,0,-1,1147,988,0,0
-70,36,0,0,0,0,0,0,0,0,0,-1,1154,988,0,0
-63,36,0,0,0,0,0,0,0,0,0,-1,1161,988,0,0
-56,36,0,0,0,0,0,0,0,0,0,-1,1168,988,0,0
-49,36,0,0,0,0,0,0,0,0,0,-1,1175,988,0,0
-42,36,0,0,0,0,0,0,0,0,0,-1,1182,988,0,0
-35,36,0,0,0,0,0,0,0,0,0,-1,1189,988,0,0
-28,36,0,0,0,0,0,0,0,0,0,-1,1196,988,0,0
-21,36,0,0,0,0,0,0,0,0,0,-1,1203,988,0,0
-14,36,0,0,0,0,0,0,0,0,0,-1,1210,988,0,0
-7,36,0,0,0,0,0,0,0,0,0,-1,1217,988,0,0
0,36,0,0,0,0,0,0,0,0,0,-1,1224,988,0,0
7,36,0,0,0,0,0,0,0,0,0,-1,1231,988,0,0
14,36,0,0,0,0,0,0,0,0,0,-1,1238,988,0,0
21,36,0,0,0,0,0,0,0,0,0,-1,1245,988,0,0
28,36,0,0,0,0,0,0,0,0,0,-1,1252,988,0,0
35,36,0,0,0,0,0,0,0,0,0,-1,1259,988,0,0
42,36,0,0,0,0,0,0,0,0,0,-1,1266,988,0,0
49,36,0,0,0,0,0,0,0,0,0,-1,1273,988,0,0
56,36,0,0,0,0,0,0,0,0,0,-1,1280,988,0,0
63,36,0,0,0,0,0,0,0,0,0,-1,1287,988,0,0
70,36,0,0,0,0,0,0,0,0,0,-1,1294,988,0,0
77,36,0,0,0,0,0,0,0,0,0,-1,1301,988,0,0
84,36,0,0,0,0,0,0,0,0,0,-1,1308,988,0,0
91,36,0,0,0,0,0,0,0,0,0,-1,1315,988,0,0
98,36,0,0,0,0,0,0,0,0,0,-1,1322,988,0,0
105,36,0,0,0,0,0,0,0,0,0,-1,1329,988,0,0
112,36,0,0,0,0,0,0,0,0,0,-1,1336,988,0,0
119,36,0,0,0,0,0,0,0,0,0,-1,1343,988,0,0
126,36,0,0,0,0,0,0,0,0,0,-1,1350,988,0,0
133,36,0,0,0,0,0,0,0,0,0,-1,1357,988,0,0
140,36,0,0,0,0,0,0,0,0,0,-1,1364,988,0,0
147,36,0,0,0,0,0,0,0,0,0,-1,1371,988,0,0
154,36,0,0,0,0,0,0,0,0,0,-1,1378,988,0,0
161,36,0,0,0,0,0,0,0,0,0,-1,1385,988,0,0
168,36,0,0,0,0,0,0,0,0,0,-1,1392,988,0,0
175,36,0,0,0,0,0,0,0,0,0,-1,1399,988,0,0
182,36,0,0,0,0,0,0,0,0,0,-1,1406,988,0,0
189,36,0,0,0,0,0,0,0,0,0,-1,1413,988,0,0
196,36,0,0,0,0,0,0,0,0,0,-1,1420,988,0,0
203,36,0,0,0,0,0,0,0,0,0,-1,1427,988,0,0
210,36,0,0,0,0,0,0,0,0,0,-1,1434,988,0,0
217,36,0,0,0,0,0,0,0,0,0,-1,1441,988,0,0
224,36,0,0,0,0,0,0,0,0,0,-1,1448,988,0,0
231,36,0,0,0,0,0,0,0,0,0,-1,1455,988,0,0
238,36,0,0,0,0,0,0,0,0,0,-1,1462,988,0,0
245,36,0,0,0,0,0,0,0,0,0,-1,1469,988,0,0
252,36,0,0,0,0,0,0,0,0,0,-1,1476,988,0,0
259,36,0,0,0,0,0,0,0,0,0,-1,1483,988,0,0
266,36,0,0,0,0,0,0,0,0,0,-1,1490,988,0,0
273,36,0,0,0,0,0,0,0,0,0,-1,1497,988,0,0
280,36,0,0,0,0,0,0,0,0,0,-1,1504,988,0,0
287,36,0,0,0,0,0,0,0,0,0,-1,1511,988,0,0
294,36,0,0,0,0,0,0,0,0,0,-1,1518,988,0,0
301,36,0,0,0,0,0,0,0,0,0,-1,1525,988,0,0
308,36,0,0,0,0,0,0,0,0,0,-1,1532,988,0,0
315,36,0,0,0,0,0,0,0,0,0,-1,1539,988,0,0
322,36,0,0,0,0,0,0,0,0,0,-1,1546,988,0,0
329,36,0,0,0,0,0,0,0,0,0,-1,1553,988,0,0
336,36,0,0,0,0,0,0,0,0,0,-1,1560,988,0,0
343,36,0,0,0,0,0,0,0,0,0,-1,1567,988,0,0
350,36,0,0,0,0,0,0,0,0,0,-1,1574,988,0,0
357,36,0,0,0,0,0,0,0,0,0,-1,1581,988,0,0
364,36,0,0,0,0,0,0,0,0,0,-1,1588,988,0,0
371,36,0,0,0,0,0,0,0,0,0,-1,1595,988,0,0
378,36,0,0,0,0,0,0,0,0,0,-1,1602,988,0,0
385,36,0,0,0,0,0,0,0,0,0,-1,1609,988,0,0
392,36,0,0,0,0,0,0,0,0,0,-1,1616,988,0,0
399,36,0,0,0,0,0,0,0,0,0,-1,1623,988,0,0
406,36,0,0,0,0,0,0,0,0,0,-1,1630,988,0,0
413,36,0,0,0,0,0,0,0,0,0,-1,1637,988,0,0
420,36,0,0,0,0,0,0,0,0,0,-1,1644,988,0,0
427,36,0,0,0,0,0,0,0,0,0,-1,1651,988,0,0
434,36,0,0,0,0,0,0,0,0,0,-1,1658,988,0,0
441,36,0,0,0,0,0,0,0,0,0,-1,1665,988,0,0
448,36,0,0,0,0,0,0,0,0,0,-1,1672,988,0,0
455,36,0,0,0,0,0,0,0,0,0,-1,1679,988,0,0
462,36,0,0,0,0,0,0,0,0,0,-1,1686,988,0,0
469,36,0,0,0,0,0,0,0,0,0,-1,1693,988,0,0
476,36,0,0,0,0,0,0,0,0,0,-1,1700,988,0,0
483,36,0,0,0,0,0,0,0,0,0,-1,1707,988,0,0
490,36,0,0,0,0,0,0,0,0,0,-1,1714,988,0,0
497,36,0,0,0,0,0,0,0,0,0,-1,1721,988,0,0
504,36,0,0,0,0,0,0,0,0,0,-1,1728,988,0,0
511,36,0,0,0,0,0,0,0,0,0,-1,1735,988,0,0
518,36,0,0,0,0,0,0,0,0,0,-1,1742,988,0,0
525,36,0,0,0,0,0,0,0,0,0,-1,1749,988,0,0
532,36,0,0,0,0,0,0,0,0,0,-1,1756,988,0,0
539,36,0,0,0,0,0,0,0,0,0,-1,1763,988,0,0
546,36,0,0,0,0,0,0,0,0,0,-1,1770,988,0,0
553,36,0,0,0,0,0,0,0,0,0,-1,1777,988,0,0
560,36,0,0,0,0,0,0,0,0,0,-1,1784,988,0,0
567,36,0,0,0,0,0,0,0,0,0,-1,1791,988,0,0
574,36,0,0,0,0,0,0,0,0,0,-1,1798,988,0,0
581,36,0,0,0,0,0,0,0,0,0,-1,1805,988,0,0
588,36,0,0,0,0,0,0,0,0,0,-1,1812,988,0,0
595,36,0,0,0,0,0,0,0,0,0,-1,1819,988,0,0
602,36,0,0,0,0,0,0,0,0,0,-1,1826,988,0,0
609,36,0,0,0,0,0,0,0,0,0,-1,1833,988,0,0
616,36,0,0,0,0,0,0,0,0,0,-1,1840,988,0,0
623,36,0,0,0,0,0,0,0,0,0,-1,1847,988,0,0
630,36,0,0,0,0,0,0,0,0,0,-1,1854,988,0,0
637,36,0,0,0,0,0,0,0,0,0,-1,1861,988,0,0
644,36,-0.076416,-0.0262451,-0.00113515,0.000807369,6.057e-05,0.000809256,-0.00113704,1.53966,0.00112899,0.0343884,1868,988,-0.0764749,0.026245
651,36,-0.134644,0.0435181,-0.000496428,0.000652893,3.2483e-05,0.00065381,-0.000497345,1.54256,0.000666663,0.0361895,1875,988,-0.134659,-0.0434938
658,36,-0.046875,-0.0479736,-0.000212227,0.000467751,-1.28835e-05,0.000467995,-0.000212471,-1.55186,0.000401994,0.0367798,1882,988,-0.0469032,0.0480026
665,36,0.0413818,-0.09375,-6.16254e-05,0.000289242,-5.88735e-05,0.000298857,-7.12406e-05,-1.40891,0.000226747,0.0343409,1889,988,0.0413442,0.0937439
672,36,-0.0687256,-0.165527,2.52043e-05,0.000130477,-0.000103356,0.000193828,-3.81469e-05,-1.02092,0.000143633,0.0347559,1896,988,-0.0687242,0.165506
679,36,-0.0924072,-0.204224,5.78532e-05,6.3374e-06,-0.000122937,0.000157702,-9.35109e-05,-0.682131,0.000146607,0.0350541,1903,988,-0.092375,0.204221
686,36,-0.0808105,-0.126038,7.11776e-05,-8.22219e-05,-0.000120094,0.000136975,-0.000148019,-0.501215,0.000164582,0.0327247,1910,988,-0.0807735,0.12601
693,36,-0.0289307,-0.11554,9.9129e-05,-0.000139995,-0.000103058,0.000137415,-0.000178282,-0.3557,0.000182776,0.0355407,1917,988,-0.0288854,0.11557
700,36,-0.060791,-0.0992432,0.000165709,-0.000138467,-7.60238e-05,0.000183651,-0.000156409,-0.231771,0.000196544,0.0337296,1924,988,-0.0607701,0.0992416
707,36,-0.0811768,-0.0554199,0.000132927,-0.000200525,-5.48259e-05,0.00014171,-0.000209308,-0.15885,0.000203909,0.0202764,1931,988,-0.0811772,0.0554143
714,36,-0.0235596,-0.0924072,3.42114e-05,-0.000232924,-4.74387e-05,4.23856e-05,-0.000241099,-0.170634,0.000176565,0.0142791,1938,988,-0.0235727,0.0924128
721,36,0.00195313,-0.12854,-1.06e-06,-0.000189126,-1.82584e-05,6.96215e-07,-0.000190882,-0.095892,0.000127487,0.0173807,1945,988,0.00200102,0.128548
728,36,0.00634766,-0.115417,-0.000145787,-8.61408e-05,0.000112732,6.46214e-07,-0.000232574,0.914711,0.000155265,0.0149816,1952,988,0.00637983,0.115396
735,36,-0.00354004,-0.0648804,-0.00070954,0.000236387,-8.85873e-06,0.00023647,-0.000709623,-1.56143,0.000568541,0.0146495,1959,988,-0.00349719,0.0648724
742,36,-0.0389404,-0.0586548,-0.00137785,0.000786137,-0.000444475,0.000873874,-0.00146559,-1.37591,0.00136502,0.0126255,1966,988,-0.0389362,0.058675
749,36,-0.0297852,-0.0518799,-0.00190938,0.000635485,-0.0008475,0.000891889,-0.00216578,-1.27701,0.0018157,0.0138795,1973,988,-0.029804,0.0518842
756,36,-0.0357666,-0.0596924,-0.00269245,-3.45136e-05,-0.00120384,0.000429672,-0.00315663,-1.20278,0.00226129,0.0123346,1980,988,-0.0357212,0.059692
763,36,-0.0281982,-0.078125,-0.00397297,-0.000287843,-0.00174881,0.00040994,-0.00467076,-1.19115,0.00325909,0.0136531,1987,988,-0.028189,0.0781537
770,36,-0.0130615,-0.0921021,-0.00536464,-0.000929582,-0.00243442,0.000145889,-0.00644011,-1.1548,0.00434286,0.0123125,1994,988,-0.0130037,0.0921124
777,36,-0.027832,-0.088501,-0.00700092,-0.00208645,-0.00323689,-0.000479765,-0.00860761,-1.11006,0.00558536,0.0202282,2001,988,-0.0277952,0.0884757
784,36,-0.28772,-0.309937,-0.0089178,-0.00399081,-0.00408875,-0.00168076,-0.0112278,-1.05653,0.00699264,0.038936,2008,988,-0.287699,0.309938
791,36,-0.467651,-0.56781,-0.0111173,-0.00693695,-0.00488557,-0.00371321,-0.014341,-0.987528,0.00859461,0.0432045,2015,988,-0.467684,0.567796
798,36,-0.589722,-0.732178,-0.0135771,-0.0113108,-0.00549211,-0.00683619,-0.0180517,-0.88713,0.0105239,0.0420592,2022,988,-0.589759,0.732161
805,36,-0.8479,-0.794006,0,0,0,0,0,0,0,-1,2029,988,-0.84793,0.794019
812,36,-0.0200195,0.713318,0,0,0,0,0,0,0,-1,2036,988,-0.0200569,-0.713324
-700,29,0,0,0,0,0,0,0,0,0,-1,524,995,0,0
-693,29,-0.938049,0.504028,0.109561,0.0259593,-0.0650064,0.145046,-0.00952595,-0.499669,0.100024,0.0428749,531,995,-0.938054,-0.504011
-686,29,-0.614624,-0.739624,0.0909759,0.034465,-0.0489401,0.119232,0.00620935,-0.5236,0.0775009,0.0428197,538,995,-0.614654,0.73962
-679,29,-0.446838,-2.61981,0.0733826,0.0357176,-0.0364986,0.0956208,0.0134793,-0.547224,0.059763,0.0459225,545,995,-0.446855,2.61981
-672,29,-0.704346,-4.39178,0.0575808,0.0330775,-0.0268514,0.0748436,0.0158147,-0.571368,0.0455487,0.0468166,552,995,-0.70433,4.39178
-665,29,-0.0768433,0.932678,0.0438769,0.0284678,-0.019389,0.057036,0.0153087,-0.596282,0.0340869,0.04286,559,995,-0.0768638,-0.932672
-658,29,-0.0802002,0.227234,0.032382,0.0231029,-0.0136685,0.042177,0.013308,-0.621783,0.0248972,0.0439857,566,995,-0.0801846,-0.227251
-651,29,-0.038269,0.0290527,0.0230381,0.0177722,-0.0093698,0.0301379,0.0106724,-0.648427,0.0176452,0.0352247,573,995,-0.0382702,-0.0290595
-644,29,-0.0233765,-0.0481567,0.01586,0.0131242,-0.0062504,0.0208905,0.00809379,-0.677673,0.0121626,0.0166854,580,995,-0.023384,0.0481457
-637,29,-0.0310059,-0.0475464,0.0105194,0.00992365,-0.0031736,0.0134091,0.00703397,-0.738607,0.00774483,0.0118066,587,995,-0.0310163,0.0475196
-630,29,-0.0336914,-0.0383301,0.0048325,0.00778201,-0.00107421,0.00813176,0.00448275,-1.25603,0.00470309,0.0107124,594,995,-0.0336758,0.0383211
-623,29,-0.0286255,-0.0426025,0.00126693,0.00228525,-0.000589557,0.00255507,0.0009971,-1.14158,0.00148697,0.0101461,601,995,-0.0286349,0.0425817
-616,29,-0.0339355,-0.0640259,0.000233023,-0.000373146,7.15854e-05,0.000241362,-0.000381485,0.115969,0.000362622,0.0124975,608,995,-0.0339292,0.0640483
-609,29,0.0109863,-0.0553589,-0.000493472,-7.79278e-05,9.04169e-05,-5.91067e-05,-0.000512293,1.36557,0.000323631,0.0189786,615,995,0.0109817,0.0553721
-602,29,0.0384521,-0.0339966,-0.000401205,-0.000146811,0.000291996,4.44895e-05,-0.000592506,0.990811,0.000410638,0.020157,622,995,0.0384622,0.0339977
-595,29,0.00927734,-0.0276489,-2.26249e-05,-0.00015982,0.000374412,0.000289421,-0.000471866,0.694796,0.000443717,0.0192709,629,995,0.00926468,0.0276312
-588,29,0.00244141,-0.071228,0.000249108,-0.000157353,0.000316784,0.000422249,-0.000330493,0.500195,0.000435671,0.022275,636,995,0.00245795,0.071208
-581,29,-0.0012207,-0.149536,0.000250611,-0.000161957,0.000237062,0.000358575,-0.00026992,0.427355,0.000364063,0.0299374,643,995,-0.00119427,0.149564
-574,29,0.0285034,-0.122314,0.000197675,-6.62412e-05,0.000196849,0.000302703,-0.000171269,0.490123,0.000277133,0.0273328,650,995,0.0285149,0.122293
-567,29,-0.0115967,-0.139648,0.000259817,-9.02721e-06,7.03295e-05,0.000277104,-2.63138e-05,0.241017,0.000194103,0.0299864,657,995,-0.0115965,0.139651
-560,29,-0.113159,-0.112488,0.00028017,0.000119559,-0.000153903,0.000373459,2.62694e-05,-0.544934,0.000240695,0.0343286,664,995,-0.113172,0.112473
-553,29,-0.104858,0.0328979,0.000193867,0.000352792,-0.000476074,0.000755989,-0.00020933,-0.868092,0.00058636,0.0357132,671,995,-0.10483,-0.0328711
-546,29,0.0543213,0.0671997,-0.000110359,0.000735345,-0.000907556,0.00131372,-0.000688737,-1.00341,0.00117474,0.0389291,678,995,0.0543309,-0.0671708
-539,29,0.174438,-0.136414,-0.00082854,0.00132464,-0.00144874,0.00205301,-0.00155691,-1.10494,0.00209074,0.039236,685,995,0.174412,0.136437
-532,29,0.209229,-0.372498,-0.00211077,0.00221185,-0.00207877,0.0030493,-0.00294821,-1.18783,0.00346283,0.0419304,692,995,0.209221,0.372509
-525,29,0.143372,-0.317566,-0.00431354,0.00351764,-0.00272096,0.00437022,-0.00516612,-1.26715,0.0055122,0.0421133,699,995,0.14336,0.317584
-518,29,0,0,0,0,0,0,0,0,0,-1,706,995,0,0
-511,29,0,0,0,0,0,0,0,0,0,-1,713,995,0,0
-504,29,0,0,0,0,0,0,0,0,0,-1,720,995,0,0
-497,29,0,0,0,0,0,0,0,0,0,-1,727,995,0,0
-490,29,0,0,0,0,0,0,0,0,0,-1,734,995,0,0
-483,29,0,0,0,0,0,0,0,0,0,-1,741,995,0,0
-476,29,0,0,0,0,0,0,0,0,0,-1,748,995,0,0
-469,29,0,0,0,0,0,0,0,0,0,-1,755,995,0,0
-462,29,0,0,0,0,0,0,0,0,0,-1,762,995,0,0
-455,29,0,0,0,0,0,0,0,0,0,-1,769,995,0,0
-448,29,0,0,0,0,0,0,0,0,0,-1,776,995,0,0
-441,29,0,0,0,0,0,0,0,0,0,-1,783,995,0,0
-434,29,0,0,0,0,0,0,0,0,0,-1,790,995,0,0
-427,29,0,0,0,0,0,0,0,0,0,-1,797,995,0,0
-420,29,0,0,0,0,0,0,0,0,0,-1,804,995,0,0
-413,29,0,0,0,0,0,0,0,0,0,-1,811,995,0,0
-406,29,0,0,0,0,0,0,0,0,0,-1,818,995,0,0
-399,29,0,0,0,0,0,0,0,0,0,-1,825,995,0,0
-392,29,0,0,0,0,0,0,0,0,0,-1,832,995,0,0
-385,29,0,0,0,0,0,0,0,0,0,-1,839,995,0,0
-378,29,0,0,0,0,0,0,0,0,0,-1,846,995,0,0
-371,29,0,0,0,0,0,0,0,0,0,-1,853,995,0,0
-364,29,0,0,0,0,0,0,0,0,0,-1,860,995,0,0
-357,29,0,0,0,0,0,0,0,0,0,-1,867,995,0,0
-350,29,0,0,0,0,0,0,0,0,0,-1,874,995,0,0
-343,29,0,0,0,0,0,0,0,0,0,-1,881,995,0,0
-336,29,0,0,0,0,0,0,0,0,0,-1,888,995,0,0
-329,29,0,0,0,0,0,0,0,0,0,-1,895,995,0,0
-322,29,0,0,0,0,0,0,0,0,0,-1,902,995,0,0
-315,29,0,0,0,0,0,0,0,0,0,-1,909,995,0,0
-308,29,0,0,0,0,0,0,0,0,0,-1,916,995,0,0
-301,29,0,0,0,0,0,0,0,0,0,-1,923,995,0,0
-294,29,0,0,0,0,0,0,0,0,0,-1,930,995,0,0
-287,29,0,0,0,0,0,0,0,0,0,-1,937,995,0,0
-280,29,0,0,0,0,0,0,0,0,0,-1,944,995,0,0
-273,29,0,0,0,0,0,0,0,0,0,-1,951,995,0,0
-266,29,0,0,0,0,0,0,0,0,0,-1,958,995,0,0
-259,29,0,0,0,0,0,0,0,0,0,-1,965,995,0,0
-252,29,0,0,0,0,0,0,0,0,0,-1,972,995,0,0
-245,29,0,0,0,0,0,0,0,0,0,-1,979,995,0,0
-238,29,0,0,0,0,0,0,0,0,0,-1,986,995,0,0
-231,29,0,0,0,0,0,0,0,0,0,-1,993,995,0,0
-224,29,0,0,0,0,0,0,0,0,0,-1,1000,995,0,0
-217,29,0,0,0,0,0,0,0,0,0,-1,1007,995,0,0
-210,29,0,0,0,0,0,0,0,0,0,-1,1014,995,0,0
-203,29,0,0,0,0,0,0,0,0,0,-1,1021,995,0,0
-196,29,0,0,0,0,0,0,0,0,0,-1,1028,995,0,0
-189,29,0,0,0,0,0,0,0,0,0,-1,1035,995,0,0
-182,29,0,0,0,0,0,0,0,0,0,-1,1042,995,0,0
-175,29,0,0,0,0,0,0,0,0,0,-1,1049,995,0,0
-168,29,0,0,0,0,0,0,0,0,0,-1,1056,995,0,0
-161,29,0,0,0,0,0,0,0,0,0,-1,1063,995,0,0
-154,29,0,0,0,0,0,0,0,0,0,-1,1070,995,0,0
-147,29,0,0,0,0,0,0,0,0,0,-1,1077,995,0,0
-140,29,0,0,0,0,0,0,0,0,0,-1,1084,995,0,0
-133,29,0,0,0,0,0,0,0,0,0,-1,1091,995,0,0
-126,29,0,0,0,0,0,0,0,0,0,-1,1098,995,0,0
-119,29,0,0,0,0,0,0,0,0,0,-1,1105,995,0,0
-112,29,0,0,0,0,0,0,0,0,0,-1,1112,995,0,0
-105,29,0,0,0,0,0,0,0,0,0,-1,1119,995,0,0
-98,29,0,0,0,0,0,0,0,0,0,-1,1126,995,0,0
-91,29,0,0,0,0,0,0,0,0,0,-1,1133,995,0,0
-84,29,0,0,0,0,0,0,0,0,0,-1,1140,995,0,0
-77,29,0,0,0,0,0,0,0,0,0,-1,1147,995,0,0
-70,29,0,0,0,0,0,0,0,0,0,-1,1154,995,0,0
-63,29,0,0,0,0,0,0,0,0,0,-1,1161,995,0,0
-56,29,0,0,0,0,0,0,0,0,0,-1,1168,995,0,0
-49,29,0,0,0,0,0,0,0,0,0,-1,1175,995,0,0
-42,29,0,0,0,0,0,0,0,0,0,-1,1182,995,0,0
-35,29,0,0,0,0,0,0,0,0,0,-1,1189,995,0,0
-28,29,0,0,0,0,0,0,0,0,0,-1,1196,995,0,0
-21,29,0,0,0,0,0,0,0,0,0,-1,1203,995,0,0
-14,29,0,0,0,0,0,0,0,0,0,-1,1210,995,0,0
-7,29,0,0,0,0,0,0,0,0,0,-1,1217,995,0,0
0,29,0,0,0,0,0,0,0,0,0,-1,1224,995,0,0
7,29,0,0,0,0,0,0,0,0,0,-1,1231,995,0,0
14,29,0,0,0,0,0,0,0,0,0,-1,1238,995,0,0
21,29,0,0,0,0,0,0,0,0,0,-1,1245,995,0,0
28,29,0,0,0,0,0,0,0,0,0,-1,1252,995,0,0
35,29,0,0,0,0,0,0,0,0,0,-1,1259,995,0,0
42,29,0,0,0,0,0,0,0,0,0,-1,1266,995,0,0
49,29,0,0,0,0,0,0,0,0,0,-1,1273,995,0,0
56,29,0,0,0,0,0,0,0,0,0,-1,1280,995,0,0
63,29,0,0,0,0,0,0,0,0,0,-1,1287,995,0,0
70,29,0,0,0,0,0,0,0,0,0,-1,1294,995,0,0
77,29,0,0,0,0,0,0,0,0,0,-1,1301,995,0,0
84,29,0,0,0,0,0,0,0,0,0,-1,1308,995,0,0
91,29,0,0,0,0,0,0,0,0,0,-1,1315,995,0,0
98,29,0,0,0,0,0,0,0,0,0,-1,1322,995,0,0
105,29,0,0,0,0,0,0,0,0,0,-1,1329,995,0,0
112,29,0,0,0,0,0,0,0,0,0,-1,1336,995,0,0
119,29,0,0,0,0,0,0,0,0,0,-1,1343,995,0,0
126,29,0,0,0,0,0,0,0,0,0,-1,1350,995,0,0
133,29,0,0,0,0,0,0,0,0,0,-1,1357,995,0,0
140,29,0,0,0,0,0,0,0,0,0,-1,1364,995,0,0
147,29,0,0,0,0,0,0,0,0,0,-1,1371,995,0,0
154,29,0,0,0,0,0,0,0,0,0,-1,1378,995,0,0
161,29,0,0,0,0,0,0,0,0,0,-1,1385,995,0,0
168,29,0,0,0,0,0,0,0,0,0,-1,1392,995,0,0
175,29,0,0,0,0,0,0,0,0,0,-1,1399,995,0,0
182,29,0,0,0,0,0,0,0,0,0,-1,1406,995,0,0
189,29,0,0,0,0,0,0,0,0,0,-1,1413,995,0,0
196,29,0,0,0,0,0,0,0,0,0,-1,1420,995,0,0
203,29,0,0,0,0,0,0,0,0,0,-1,1427,995,0,0
210,29,0,0,0,0,0,0,0,0,0,-1,1434,995,0,0
217,29,0,0,0,0,0,0,0,0,0,-1,1441,995,0,0
224,29,0,0,0,0,0,0,0,0,0,-1,1448,995,0,0
231,29,0,0,0,0,0,0,0,0,0,-1,1455,995,0,0
238,29,0,0,0,0,0,0,0,0,0,-1,1462,995,0,0
245,29,0,0,0,0,0,0,0,0,0,-1,1469,995,0,0
252,29,0,0,0,0,0,0,0,0,0,-1,1476,995,0,0
259,29,0,0,0,0,0,0,0,0,0,-1,1483,995,0,0
266,29,0,0,0,0,0,0,0,0,0,-1,1490,995,0,0
273,29,0,0,0,0,0,0,0,0,0,-1,1497,995,0,0
280,29,0,0,0,0,0,0,0,0,0,-1,1504,995,0,0
287,29,0,0,0,0,0,0,0,0,0,-1,1511,995,0,0
294,29,0,0,0,0,0,0,0,0,0,-1,1518,995,0,0
301,29,0,0,0,0,0,0,0,0,0,-1,1525,995,0,0
308,29,0,0,0,0,0,0,0,0,0,-1,1532,995,0,0
315,29,0,0,0,0,0,0,0,0,0,-1,1539,995,0,0
322,29,0,0,0,0,0,0,0,0,0,-1,1546,995,0,0
329,29,0,0,0,0,0,0,0,0,0,-1,1553,995,0,0
336,29,0,0,0,0,0,0,0,0,0,-1,1560,995,0,0
343,29,0,0,0,0,0,0,0,0,0,-1,1567,995,0,0
350,29,0,0,0,0,0,0,0,0,0,-1,1574,995,0,0
357,29,0,0,0,0,0,0,0,0,0,-1,1581,995,0,0
364,29,0,0,0,0,0,0,0,0,0,-1,1588,995,0,0
371,29,0,0,0,0,0,0,0,0,0,-1,1595,995,0,0
378,29,0,0,0,0,0,0,0,0,0,-1,1602,995,0,0
385,29,0,0,0,0,0,0,0,0,0,-1,1609,995,0,0
392,29,0,0,0,0,0,0,0,0,0,-1,1616,995,0,0
399,29,0,0,0,0,0,0,0,0,0,-1,1623,995,0,0
406,29,0,0,0,0,0,0,0,0,0,-1,1630,995,0,0
413,29,0,0,0,0,0,0,0,0,0,-1,1637,995,0,0
420,29,0,0,0,0,0,0,0,0,0,-1,1644,995,0,0
427,29,0,0,0,0,0,0,0,0,0,-1,1651,995,0,0
434,29,0,0,0,0,0,0,0,0,0,-1,1658,995,0,0
441,29,0,0,0,0,0,0,0,0,0,-1,1665,995,0,0
448,29,0,0,0,0,0,0,0,0,0,-1,1672,995,0,0
455,29,0,0,0,0,0,0,0,0,0,-1,1679,995,0,0
462,29,0,0,0,0,0,0,0,0,0,-1,1686,995,0,0
469,29,0,0,0,0,0,0,0,0,0,-1,1693,995,0,0
476,29,0,0,0,0,0,0,0,0,0,-1,1700,995,0,0
483,29,0,0,0,0,0,0,0,0,0,-1,1707,995,0,0
490,29,0,0,0,0,0,0,0,0,0,-1,1714,995,0,0
497,29,0,0,0,0,0,0,0,0,0,-1,1721,995,0,0
504,29,0,0,0,0,0,0,0,0,0,-1,1728,995,0,0
511,29,0,0,0,0,0,0,0,0,0,-1,1735,995,0,0
518,29,0,0,0,0,0,0,0,0,0,-1,1742,995,0,0
525,29,0,0,0,0,0,0,0,0,0,-1,1749,995,0,0
532,29,0,0,0,0,0,0,0,0,0,-1,1756,995,0,0
539,29,0,0,0,0,0,0,0,0,0,-1,1763,995,0,0
546,29,0,0,0,0,0,0,0,0,0,-1,1770,995,0,0
553,29,0,0,0,0,0,0,0,0,0,-1,1777,995,0,0
560,29,0,0,0,0,0,0,0,0,0,-1,1784,995,0,0
567,29,0,0,0,0,0,0,0,0,0,-1,1791,995,0,0
574,29,0,0,0,0,0,0,0,0,0,-1,1798,995,0,0
581,29,0,0,0,0,0,0,0,0,0,-1,1805,995,0,0
588,29,0,0,0,0,0,0,0,0,0,-1,1812,995,0,0
595,29,0,0,0,0,0,0,0,0,0,-1,1819,995,0,0
602,29,0,0,0,0,0,0,0,0,0,-1,1826,995,0,0
609,29,0,0,0,0,0,0,0,0,0,-1,1833,995,0,0
616,29,0,0,0,0,0,0,0,0,0,-1,1840,995,0,0
623,29,0,0,0,0,0,0,0,0,0,-1,1847,995,0,0
630,29,0,0,0,0,0,0,0,0,0,-1,1854,995,0,0
637,29,0,0,0,0,0,0,0,0,0,-1,1861,995,0,0
644,29,-0.0133057,-0.138123,-0.00135525,-4.18307e-06,3.98722e-05,-3.00736e-06,-0.00135642,1.54132,0.00090328,0.036752,1868,995,-0.0133002,0.138109
651,29,-0.0852051,-0.0824585,-0.000659313,5.9585e-05,6.6862e-05,6.57507e-05,-0.000665479,1.47884,0.000467114,0.0392565,1875,995,-0.0851665,0.0824522
658,29,-0.0222168,0.0267334,-0.000337436,4.90376e-05,4.51807e-05,5.42492e-05,-0.000342647,1.45595,0.000248496,0.0386118,1882,995,-0.0222281,-0.0267276
665,29,0.0407715,0.0934448,-0.000157696,5.24557e-06,1.80502e-06,5.26557e-06,-0.000157716,1.55972,0.000106942,0.0340813,1889,995,0.0407267,-0.0934262
672,29,-0.0373535,-0.0949707,-4.13549e-05,-5.13836e-05,-5.29554e-05,6.82304e-06,-9.95615e-05,-0.738194,6.87616e-05,0.0323559,1896,995,-0.0373604,0.0949482
679,29,-0.0758057,-0.108765,1.38647e-05,-0.000103087,-8.96028e-05,6.23847e-05,-0.000151607,-0.496294,0.000127077,0.0328876,1903,995,-0.0758369,0.108757
686,29,-0.0805664,-0.0232544,4.1449e-05,-0.000139751,-0.000103828,8.86481e-05,-0.00018695,-0.426664,0.000162456,0.0329393,1910,995,-0.0805427,0.0232565
693,29,-0.0213623,-0.106812,7.24054e-05,-0.000155542,-0.000107224,0.000114915,-0.000198052,-0.377447,0.000182804,0.0338339,1917,995,-0.0213584,0.106835
700,29,-0.0460205,-0.132263,0.000140633,-0.000128452,-7.76526e-05,0.000161434,-0.000149253,-0.261728,0.000179421,0.0307738,1924,995,-0.046038,0.132264
707,29,-0.0970459,-0.0853882,0.000117712,-0.000174698,-5.25549e-05,0.000126871,-0.000183856,-0.172539,0.000180401,0.0175498,1931,995,-0.0970587,0.0854111
714,29,-0.0389404,-0.0785522,2.5013e-05,-0.000195296,-6.48745e-05,4.26971e-05,-0.00021298,-0.266124,0.000158152,0.0121833,1938,995,-0.0389728,0.0785757
721,29,-0.00769043,-0.107361,3.47526e-07,-0.000159404,-6.53966e-05,2.37038e-05,-0.00018276,-0.343029,0.000130461,0.0150456,1945,995,-0.00770925,0.107364
728,29,-0.019043,-0.109741,-7.31069e-05,-7.96398e-05,1.48189e-05,-6.11987e-05,-9.15479e-05,0.676921,5.38463e-05,0.0140646,1952,995,-0.019067,0.10973
735,29,-0.0324707,-0.0741577,-0.000501531,0.000133529,-0.000203156,0.000192957,-0.000560959,-1.28621,0.000452228,0.0126015,1959,995,-0.0324653,0.0741391
742,29,-0.0557861,-0.0645142,-0.00100593,0.000504549,-0.000770184,0.000827998,-0.00132938,-1.1732,0.00125673,0.0105282,1966,995,-0.055793,0.0645416
749,29,-0.0410156,-0.0557251,-0.0013645,0.000168998,-0.00136338,0.000966442,-0.00216195,-1.04155,0.00184961,0.0110875,1973,995,-0.0409672,0.0557467
756,29,-0.0212402,-0.0630493,-0.00198014,-0.000601348,-0.00189002,0.000721084,-0.00330257,-0.960278,0.00247731,0.0103998,1980,995,-0.021181,0.0630497
763,29,-0.00354004,-0.0689697,-0.00307247,-0.000968649,-0.00265986,0.000839748,-0.00488086,-0.973698,0.00356693,0.0106747,1987,995,-0.00354359,0.0689731
770,29,-0.0267334,-0.0703735,-0.00422578,-0.00176454,-0.00362872,0.000836556,-0.00682688,-0.948878,0.00485419,0.0116511,1994,995,-0.0266875,0.0703594
777,29,-0.043457,-0.0644531,-0.00562239,-0.00302724,-0.00475746,0.000606423,-0.00925606,-0.918533,0.00638246,0.0197494,2001,995,-0.0433979,0.0644689
784,29,-0.136841,-0.424133,-0.00733181,-0.00492796,-0.00597542,-3.47854e-05,-0.012225,-0.884646,0.00813842,0.0382173,2008,995,-0.136871,0.424134
791,29,-0.338745,-0.652954,-0.00940424,-0.00766367,-0.0071669,-0.00131441,-0.0157535,-0.845818,0.0100928,0.0427347,2015,995,-0.338687,0.652962
798,29,-0.411011,-0.897949,-0.0118839,-0.0114739,-0.00818355,-0.00349278,-0.019865,-0.79792,0.0122463,0.0410554,2022,995,-0.411004,0.897979
805,29,-0.638672,-0.878174,0,0,0,0,0,0,0,-1,2029,995,-0.638629,0.878197
812,29,0.0429688,0.0388794,0,0,0,0,0,0,0,-1,2036,995,0.0429949,-0.0388689
-700,22,0,0,0,0,0,0,0,0,0,-1,524,1002,0,0
-693,22,-1.03302,1.16907,0.075066,0.0189075,-0.059529,0.112806,-0.0188323,-0.565026,0.0822035,0.0432424,531,1002,-1.03301,-1.16904
-686,22,-0.726074,-0.343506,0.0637677,0.0285923,-0.0457496,0.0951938,-0.00283378,-0.601891,0.0644279,0.0439363,538,1002,-0.72608,0.343495
-679,22,-0.423889,-1.9425,0.0522029,0.0311018,-0.0348455,0.07806,0.00524465,-0.638395,0.0503829,0.0495997,545,1002,-0.423916,1.94252
-672,22,0.184204,0.678345,0.0413475,0.0296055,-0.026221,0.0623468,0.00860623,-0.675262,0.0390135,0.0449957,552,1002,0.184215,-0.678315
-665,22,-0.110352,0.483887,0.0316725,0.0259685,-0.019422,0.0484508,0.00919019,-0.712498,0.0297147,0.0440418,559,1002,-0.110335,-0.483862
-658,22,-0.0512085,0.123474,0.0234179,0.0213954,-0.0141035,0.0365464,0.00826689,-0.749609,0.0221294,0.0441917,566,1002,-0.0511834,-0.123448
-651,22,-0.00860596,-0.0488892,0.0166309,0.0166828,-0.0100119,0.0266687,0.00664492,-0.786695,0.01603,0.036592,573,1002,-0.00858536,0.0489064
-644,22,-0.000976563,-0.0493164,0.0115066,0.0126767,-0.00699432,0.0191104,0.00507295,-0.827124,0.0114309,0.0154226,580,1002,-0.000981394,0.0492895
-637,22,-0.0140991,-0.0531616,0.00758794,0.00976543,-0.00376798,0.0125988,0.00475456,-0.926041,0.00734647,0.0109346,587,1002,-0.0140836,0.0531593
-630,22,-0.0285645,-0.0542603,0.00351597,0.00759241,-0.00185138,0.00830772,0.00280066,-1.2021,0.00488057,0.0100548,594,1002,-0.0285396,0.0542655
-623,22,-0.0324097,-0.0664673,0.000707429,0.00242811,-0.00116863,0.00301893,0.000116601,-1.1027,0.0019749,0.0093645,601,1002,-0.032404,0.0664507
-616,22,-0.0342407,-0.0761108,-0.000109958,-5.76565e-05,-0.000357261,0.00027441,-0.000442024,-0.821932,0.00041739,0.0155047,608,1002,-0.0342623,0.0761384
-609,22,-0.0318604,-0.0657349,-0.000672607,7.20643e-05,-0.000170743,0.000109347,-0.000709889,-1.35582,0.000513603,0.024942,615,1002,-0.0318612,0.0657574
-602,22,-0.0291138,-0.0791016,-0.000499131,-0.000118283,0.000166502,-5.57556e-05,-0.000561658,1.21156,0.000357306,0.0228986,622,1002,-0.0291432,0.0790954
-595,22,-0.0169678,-0.0668335,-8.41951e-05,-0.000113122,0.000334369,0.000236023,-0.000433341,0.763783,0.000392014,0.0198764,629,1002,-0.0169384,0.066835
-588,22,-0.0144653,-0.10614,0.000159976,-9.75002e-05,0.000298561,0.000356372,-0.000293896,0.581845,0.00037601,0.0264472,636,1002,-0.0144677,0.106147
-581,22,-0.0258789,-0.180115,0.000143979,-9.98541e-05,0.000217469,0.000271375,-0.00022725,0.52992,0.000288256,0.0360347,643,1002,-0.0258554,0.18013
-574,22,0.00146484,-0.156433,0.000110482,1.22891e-05,0.000174115,0.00024229,-0.000119519,0.647978,0.000212862,0.0304169,650,1002,0.0014902,0.156428
-567,22,0.0292969,-0.0863037,0.000190663,9.60766e-05,4.02022e-05,0.000205442,8.12984e-05,0.352264,0.000119468,0.0279237,657,1002,0.0292735,0.0863052
-560,22,-0.130859,-0.110046,0.000243405,0.000244178,-0.000196842,0.000440634,4.6949e-05,-0.78638,0.000279424,0.0325142,664,1002,-0.130876,0.110016
-553,22,-0.174194,-0.0465698,0.000215456,0.000484749,-0.00053606,0.000902814,-0.000202609,-0.908442,0.000679556,0.0357578,671,1002,-0.174175,0.0465871
-546,22,-0.0206909,0.0710449,-3.55129e-06,0.000859617,-0.000985525,0.00150392,-0.00064785,-0.991781,0.00127467,0.0374135,678,1002,-0.0207085,-0.0710537
-539,22,0.0510864,0.0366211,-0.000608763,0.00141929,-0.00154442,0.00225282,-0.00144229,-1.07589,0.00215041,0.0391829,685,1002,0.0510682,-0.0365949
-532,22,0.0119019,-0.157593,-0.00173342,0.00224471,-0.00218503,0.00321043,-0.00269914,-1.15464,0.00341614,0.0409898,692,1002,0.0118809,0.157581
-525,22,0,0,0,0,0,0,0,0,0,-1,699,1002,0,0
-518,22,0,0,0,0,0,0,0,0,0,-1,706,1002,0,0
-511,22,0,0,0,0,0,0,0,0,0,-1,713,1002,0,0
-504,22,0,0,0,0,0,0,0,0,0,-1,720,1002,0,0
-497,22,0,0,0,0,0,0,0,0,0,-1,727,1002,0,0
-490,22,0,0,0,0,0,0,0,0,0,-1,734,1002,0,0
-483,22,0,0,0,0,0,0,0,0,0,-1,741,1002,0,0
-476,22,0,0,0,0,0,0,0,0,0,-1,748,1002,0,0
-469,22,0,0,0,0,0,0,0,0,0,-1,755,1002,0,0
-462,22,0,0,0,0,0,0,0,0,0,-1,762,1002,0,0
-455,22,0,0,0,0,0,0,0,0,0,-1,769,1002,0,0
-448,22,0,0,0,0,0,0,0,0,0,-1,776,1002,0,0
-441,22,0,0,0,0,0,0,0,0,0,-1,783,1002,0,0
-434,22,0,0,0,0,0,0,0,0,0,-1,790,1002,0,0
-427,22,0,0,0,0,0,0,0,0,0,-1,797,1002,0,0
-420,22,0,0,0,0,0,0,0,0,0,-1,804,1002,0,0
-413,22,0,0,0,0,0,0,0,0,0,-1,811,1002,0,0
-406,22,0,0,0,0,0,0,0,0,0,-1,818,1002,0,0
-399,22,0,0,0,0,0,0,0,0,0,-1,825,1002,0,0
-392,22,0,0,0,0,0,0,0,0,0,-1,832,1002,0,0
-385,22,0,0,0,0,0,0,0,0,0,-1,839,1002,0,0
-378,22,0,0,0,0,0,0,0,0,0,-1,846,1002,0,0
-371,22,0,0,0,0,0,0,0,0,0,-1,853,1002,0,0
-364,22,0,0,0,0,0,0,0,0,0,-1,860,1002,0,0
-357,22,0,0,0,0,0,0,0,0,0,-1,867,1002,0,0
-350,22,0,0,0,0,0,0,0,0,0,-1,874,1002,0,0
-343,22,0,0,0,0,0,0,0,0,0,-1,881,1002,0,0
-336,22,0,0,0,0,0,0,0,0,0,-1,888,1002,0,0
-329,22,0,0,0,0,0,0,0,0,0,-1,895,1002,0,0
-322,22,0,0,0,0,0,0,0,0,0,-1,902,1002,0,0
-315,22,0,0,0,0,0,0,0,0,0,-1,909,1002,0,0
-308,22,0,0,0,0,0,0,0,0,0,-1,916,1002,0,0
-301,22,0,0,0,0,0,0,0,0,0,-1,923,1002,0,0
-294,22,0,0,0,0,0,0,0,0,0,-1,930,1002,0,0
-287,22,0,0,0,0,0,0,0,0,0,-1,937,1002,0,0
-280,22,0,0,0,0,0,0,0,0,0,-1,944,1002,0,0
-273,22,0,0,0,0,0,0,0,0,0,-1,951,1002,0,0
-266,22,0,0,0,0,0,0,0,0,0,-1,958,1002,0,0
-259,22,0,0,0,0,0,0,0,0,0,-1,965,1002,0,0
-252,22,0,0,0,0,0,0,0,0,0,-1,972,1002,0,0
-245,22,0,0,0,0,0,0,0,0,0,-1,979,1002,0,0
-238,22,0,0,0,0,0,0,0,0,0,-1,986,1002,0,0
-231,22,0,0,0,0,0,0,0,0,0,-1,993,1002,0,0
-224,22,0,0,0,0,0,0,0,0,0,-1,1000,1002,0,0
-217,22,0,0,0,0,0,0,0,0,0,-1,1007,1002,0,0
-210,22,0,0,0,0,0,0,0,0,0,-1,1014,1002,0,0
-203,22,0,0,0,0,0,0,0,0,0,-1,1021,1002,0,0
-196,22,0,0,0,0,0,0,0,0,0,-1,1028,1002,0,0
-189,22,0,0,0,0,0,0,0,0,0,-1,1035,1002,0,0
-182,22,0,0,0,0,0,0,0,0,0,-1,1042,1002,0,0
-175,22,0,0,0,0,0,0,0,0,0,-1,1049,1002,0,0
-168,22,0,0,0,0,0,0,0,0,0,-1,1056,1002,0,0
-161,22,0,0,0,0,0,0,0,0,0,-1,1063,1002,0,0
-154,22,0,0,0,0,0,0,0,0,0,-1,1070,1002,0,0
-147,22,0,0,0,0,0,0,0,0,0,-1,1077,1002,0,0
-140,22,0,0,0,0,0,0,0,0,0,-1,1084,1002,0,0
-133,22,0,0,0,0,0,0,0,0,0,-1,1091,1002,0,0
-126,22,0,0,0,0,0,0,0,0,0,-1,1098,1002,0,0
-119,22,0,0,0,0,0,0,0,0,0,-1,1105,1002,0,0
-112,22,0,0,0,0,0,0,0,0,0,-1,1112,1002,0,0
-105,22,0,0,0,0,0,0,0,0,0,-1,1119,1002,0,0
-98,22,0,0,0,0,0,0,0,0,0,-1,1126,1002,0,0
-91,22,0,0,0,0,0,0,0,0,0,-1,1133,1002,0,0
-84,22,0,0,0,0,0,0,0,0,0,-1,1140,1002,0,0
-77,22,0,0,0,0,0,0,0,0,0,-1,1147,1002,0,0
-70,22,0,0,0,0,0,0,0,0,0,-1,1154,1002,0,0
-63,22,0,0,0,0,0,0,0,0,0,-1,1161,1002,0,0
-56,22,0,0,0,0,0,0,0,0,0,-1,1168,1002,0,0
-49,22,0,0,0,0,0,0,0,0,0,-1,1175,1002,0,0
-42,22,0,0,0,0,0,0,0,0,0,-1,1182,1002,0,0
-35,22,0,0,0,0,0,0,0,0,0,-1,1189,1002,0,0
-28,22,0,0,0,0,0,0,0,0,0,-1,1196,1002,0,0
-21,22,0,0,0,0,0,0,0,0,0,-1,1203,1002,0,0
-14,22,0,0,0,0,0,0,0,0,0,-1,1210,1002,0,0
-7,22,0,0,0,0,0,0,0,0,0,-1,1217,1002,0,0
0,22,0,0,0,0,0,0,0,0,0,-1,1224,1002,0,0
7,22,0,0,0,0,0,0,0,0,0,-1,1231,1002,0,0
14,22,0,0,0,0,0,0,0,0,0,-1,1238,1002,0,0
21,22,0,0,0,0,0,0,0,0,0,-1,1245,1002,0,0
28,22,0,0,0,0,0,0,0,0,0,-1,1252,1002,0,0
35,22,0,0,0,0,0,0,0,0,0,-1,1259,1002,0,0
42,22,0,0,0,0,0,0,0,0,0,-1,1266,1002,0,0
49,22,0,0,0,0,0,0,0,0,0,-1,1273,1002,0,0
56,22,0,0,0,0,0,0,0,0,0,-1,1280,1002,0,0
63,22,0,0,0,0,0,0,0,0,0,-1,1287,1002,0,0
70,22,0,0,0,0,0,0,0,0,0,-1,1294,1002,0,0
77,22,0,0,0,0,0,0,0,0,0,-1,1301,1002,0,0
84,22,0,0,0,0,0,0,0,0,0,-1,1308,1002,0,0
91,22,0,0,0,0,0,0,0,0,0,-1,1315,1002,0,0
98,22,0,0,0,0,0,0,0,0,0,-1,1322,1002,0,0
105,22,0,0,0,0,0,0,0,0,0,-1,1329,1002,0,0
112,22,0,0,0,0,0,0,0,0,0,-1,1336,1002,0,0
119,22,0,0,0,0,0,0,0,0,0,-1,1343,1002,0,0
126,22,0,0,0,0,0,0,0,0,0,-1,1350,1002,0,0
133,22,0,0,0,0,0,0,0,0,0,-1,1357,1002,0,0
140,22,0,0,0,0,0,0,0,0,0,-1,1364,1002,0,0
147,22,0,0,0,0,0,0,0,0,0,-1,1371,1002,0,0
154,22,0,0,0,0,0,0,0,0,0,-1,1378,1002,0,0
161,22,0,0,0,0,0,0,0,0,0,-1,1385,1002,0,0
168,22,0,0,0,0,0,0,0,0,0,-1,1392,1002,0,0
175,22,0,0,0,0,0,0,0,0,0,-1,1399,1002,0,0
182,22,0,0,0,0,0,0,0,0,0,-1,1406,1002,0,0
189,22,0,0,0,0,0,0,0,0,0,-1,1413,1002,0,0
196,22,0,0,0,0,0,0,0,0,0,-1,1420,1002,0,0
203,22,0,0,0,0,0,0,0,0,0,-1,1427,1002,0,0
210,22,0,0,0,0,0,0,0,0,0,-1,1434,1002,0,0
217,22,0,0,0,0,0,0,0,0,0,-1,1441,1002,0,0
224,22,0,0,0,0,0,0,0,0,0,-1,1448,1002,0,0
231,22,0,0,0,0,0,0,0,0,0,-1,1455,1002,0,0
238,22,0,0,0,0,0,0,0,0,0,-1,1462,1002,0,0
245,22,0,0,0,0,0,0,0,0,0,-1,1469,1002,0,0
252,22,0,0,0,0,0,0,0,0,0,-1,1476,1002,0,0
259,22,0,0,0,0,0,0,0,0,0,-1,1483,1002,0,0
266,22,0,0,0,0,0,0,0,0,0,-1,1490,1002,0,0
273,22,0,0,0,0,0,0,0,0,0,-1,1497,1002,0,0
280,22,0,0,0,0,0,0,0,0,0,-1,1504,1002,0,0
287,22,0,0,0,0,0,0,0,0,0,-1,1511,1002,0,0
294,22,0,0,0,0,0,0,0,0,0,-1,1518,1002,0,0
301,22,0,0,0,0,0,0,0,0,0,-1,1525,1002,0,0
308,22,0,0,0,0,0,0,0,0,0,-1,1532,1002,0,0
315,22,0,0,0,0,0,0,0,0,0,-1,1539,1002,0,0
322,22,0,0,0,0,0,0,0,0,0,-1,1546,1002,0,0
329,22,0,0,0,0,0,0,0,0,0,-1,1553,1002,0,0
336,22,0,0,0,0,0,0,0,0,0,-1,1560,1002,0,0
343,22,0,0,0,0,0,0,0,0,0,-1,1567,1002,0,0
350,22,0,0,0,0,0,0,0,0,0,-1,1574,1002,0,0
357,22,0,0,0,0,0,0,0,0,0,-1,1581,1002,0,0
364,22,0,0,0,0,0,0,0,0,0,-1,1588,1002,0,0
371,22,0,0,0,0,0,0,0,0,0,-1,1595,1002,0,0
378,22,0,0,0,0,0,0,0,0,0,-1,1602,1002,0,0
385,22,0,0,0,0,0,0,0,0,0,-1,1609,1002,0,0
392,22,0,0,0,0,0,0,0,0,0,-1,1616,1002,0,0
399,22,0,0,0,0,0,0,0,0,0,-1,1623,1002,0,0
406,22,0,0,0,0,0,0,0,0,0,-1,1630,1002,0,0
413,22,0,0,0,0,0,0,0,0,0,-1,1637,1002,0,0
420,22,0,0,0,0,0,0,0,0,0,-1,1644,1002,0,0
427,22,0,0,0,0,0,0,0,0,0,-1,1651,1002,0,0
434,22,0,0,0,0,0,0,0,0,0,-1,1658,1002,0,0
441,22,0,0,0,0,0,0,0,0,0,-1,1665,1002,0,0
448,22,0,0,0,0,0,0,0,0,0,-1,1672,1002,0,0
455,22,0,0,0,0,0,0,0,0,0,-1,1679,1002,0,0
462,22,0,0,0,0,0,0,0,0,0,-1,1686,1002,0,0
469,22,0,0,0,0,0,0,0,0,0,-1,1693,1002,0,0
476,22,0,0,0,0,0,0,0,0,0,-1,1700,1002,0,0
483,22,0,0,0,0,0,0,0,0,0,-1,1707,1002,0,0
490,22,0,0,0,0,0,0,0,0,0,-1,1714,1002,0,0
497,22,0,0,0,0,0,0,0,0,0,-1,1721,1002,0,0
504,22,0,0,0,0,0,0,0,0,0,-1,1728,1002,0,0
511,22,0,0,0,0,0,0,0,0,0,-1,1735,1002,0,0
518,22,0,0,0,0,0,0,0,0,0,-1,1742,1002,0,0
525,22,0,0,0,0,0,0,0,0,0,-1,1749,1002,0,0
532,22,0,0,0,0,0,0,0,0,0,-1,1756,1002,0,0
539,22,0,0,0,0,0,0,0,0,0,-1,1763,1002,0,0
546,22,0,0,0,0,0,0,0,0,0,-1,1770,1002,0,0
553,22,0,0,0,0,0,0,0,0,0,-1,1777,1002,0,0
560,22,0,0,0,0,0,0,0,0,0,-1,1784,1002,0,0
567,22,0,0,0,0,0,0,0,0,0,-1,1791,1002,0,0
574,22,0,0,0,0,0,0,0,0,0,-1,1798,1002,0,0
581,22,0,0,0,0,0,0,0,0,0,-1,1805,1002,0,0
588,22,0,0,0,0,0,0,0,0,0,-1,1812,1002,0,0
595,22,0,0,0,0,0,0,0,0,0,-1,1819,1002,0,0
602,22,0,0,0,0,0,0,0,0,0,-1,1826,1002,0,0
609,22,0,0,0,0,0,0,0,0,0,-1,1833,1002,0,0
616,22,0,0,0,0,0,0,0,0,0,-1,1840,1002,0,0
623,22,0,0,0,0,0,0,0,0,0,-1,1847,1002,0,0
630,22,0,0,0,0,0,0,0,0,0,-1,1854,1002,0,0
637,22,0,0,0,0,0,0,0,0,0,-1,1861,1002,0,0
644,22,-0.160278,-0.122253,-0.0014997,-0.00056762,-0.000433565,-0.000397129,-0.00167019,-1.19614,0.00100752,0.0357604,1868,1002,-0.160321,0.122232
651,22,-0.109131,-0.17041,-0.00080469,-0.000342354,-0.000261841,-0.000224238,-0.000922806,-1.14703,0.000555748,0.03881,1875,1002,-0.10912,0.170415
658,22,-0.0350342,-0.0457153,-0.000472563,-0.000239381,-0.000183023,-0.000138968,-0.000572976,-1.069,0.000345117,0.0365496,1882,1002,-0.0350278,0.0456971
665,22,-0.048584,0.144043,-0.000275958,-0.000201327,-0.000159916,-7.44302e-05,-0.000402855,-0.900018,0.000247519,0.0334094,1889,1002,-0.0486208,-0.144021
672,22,-0.0904541,0.0465698,-0.000135864,-0.000198205,-0.000170755,6.54232e-06,-0.000340611,-0.69512,0.000229286,0.0323488,1896,1002,-0.0905147,-0.0465991
679,22,-0.0755615,-0.00787354,-6.10506e-05,-0.000208949,-0.000179008,5.86814e-05,-0.000328682,-0.589522,0.000241074,0.0326169,1903,1002,-0.0755974,0.00785597
686,22,0.0057373,-0.0210571,-1.94869e-05,-0.000216767,-0.000172745,8.07967e-05,-0.000317051,-0.52598,0.000242822,0.0336592,1910,1002,0.00573512,0.0210656
693,22,0.0593262,-0.111755,1.44402e-05,-0.000211255,-0.000159065,9.66217e-05,-0.000293436,-0.476881,0.000234562,0.0323467,1917,1002,0.0593488,0.111737
700,22,-0.0155029,-0.0955811,8.31696e-05,-0.000170304,-0.000105355,0.000121241,-0.000208375,-0.346765,0.000192508,0.0280385,1924,1002,-0.0155399,0.0955799
707,22,-0.0800781,-0.0914917,7.73721e-05,-0.0001968,-6.33738e-05,9.13119e-05,-0.00021074,-0.216514,0.000178876,0.0215223,1931,1002,-0.0800557,0.0914679
714,22,-0.0373535,-0.0728149,2.66719e-06,-0.000203482,-7.99415e-05,3.00343e-05,-0.000230849,-0.329833,0.000164825,0.0127531,1938,1002,-0.0373976,0.0727934
721,22,-0.0153809,-0.0791626,-1.18058e-05,-0.000172762,-9.24607e-05,3.02955e-05,-0.000214864,-0.427287,0.000154335,0.0115822,1945,1002,-0.0153405,0.0791833
728,22,-0.0400391,-0.0964966,-2.32281e-05,-0.000111685,-2.99789e-05,-1.40254e-05,-0.000120888,-0.297842,7.63473e-05,0.0122275,1952,1002,-0.0400339,0.0964787
735,22,-0.0452881,-0.0797119,-0.000307241,2.33238e-05,-0.000265186,0.000170518,-0.000454436,-1.06408,0.000373022,0.0133001,1959,1002,-0.045298,0.0796972
742,22,-0.0292969,-0.0662231,-0.000642703,0.000236722,-0.000830664,0.000736877,-0.00114286,-1.02882,0.00109367,0.0129648,1966,1002,-0.0292455,0.066223
749,22,-0.034668,-0.0689697,-0.000836316,-0.000229693,-0.00146373,0.000961821,-0.00202783,-0.887561,0.00176227,0.0101468,1973,1002,-0.0346255,0.0689696
756,22,-0.0250244,-0.0827637,-0.00129769,-0.00103904,-0.00202193,0.000857702,-0.00319443,-0.817335,0.00246576,0.0140021,1980,1002,-0.0249847,0.082774
763,22,-0.0447998,-0.0649414,-0.00221053,-0.00147865,-0.00281854,0.000997612,-0.00468679,-0.849954,0.00350471,0.0162384,1987,1002,-0.044843,0.064917
770,22,-0.0406494,-0.0687256,-0.00313856,-0.00235681,-0.00381281,0.00108511,-0.00658047,-0.836478,0.00478983,0.0109977,1994,1002,-0.0406664,0.0687507
777,22,-0.0426025,-0.0618286,-0.00431494,-0.00363225,-0.00496019,0.000998325,-0.00894551,-0.819753,0.00632278,0.0183736,2001,1002,-0.0425491,0.0618576
784,22,-0.0609131,-0.431396,-0.00584577,-0.00540896,-0.00618868,0.000565172,-0.0118199,-0.803037,0.00807492,0.0370485,2008,1002,-0.0609035,0.431368
791,22,-0.217407,-0.726318,-0.00783187,-0.00778691,-0.00737959,-0.000429765,-0.015189,-0.786921,0.00998584,0.043701,2015,1002,-0.21736,0.726303
798,22,-0.428711,-0.903015,-0.0103809,-0.0108619,-0.00838147,-0.00223648,-0.0190063,-0.771057,0.0119951,0.0425319,2022,1002,-0.428763,0.902997
805,22,0.126465,0.134521,-0.0136405,-0.014723,-0.00896101,-0.0052044,-0.0231591,-0.755234,0.0140301,0.0427472,2029,1002,0.126513,-0.134549
812,22,0.00756836,0.0323486,-0.0179023,-0.0194475,-0.00878732,-0.00985369,-0.0274961,-0.741548,0.0160858,0.0444753,2036,1002,0.00759137,-0.0323295
-700,15,0,0,0,0,0,0,0,0,0,-1,524,1009,0,0
-693,15,-0.751038,1.33575,0.0549471,0.0130034,-0.0559924,0.0937662,-0.0258158,-0.606211,0.0726612,0.0468237,531,1009,-0.751045,-1.33575
-686,15,-0.737366,-0.149597,0.0474217,0.023262,-0.0436709,0.0806527,-0.0099689,-0.650467,0.0573808,0.0453629,538,1009,-0.737385,0.149614
-679,15,0.394104,0.0551758,0.039098,0.0265887,-0.0337757,0.0671932,-0.0015066,-0.693844,0.045306,0.043122,545,1009,0.394096,-0.0551599
-672,15,0.249695,-0.26947,0,0,0,0,0,0,0,-1,552,1009,0.249717,0.269477
-665,15,-0.104004,-0.505676,0,0,0,0,0,0,0,-1,559,1009,-0.10401,0.505661
-658,15,-0.219177,-0.377075,0.0173576,0.0192785,-0.0144807,0.0328306,0.00380547,-0.818513,0.0207353,0.0449642,566,1009,-0.219201,0.377058
-651,15,-0.0767212,-0.161072,0.0121787,0.0151904,-0.0105428,0.0243343,0.00303472,-0.856335,0.0153119,0.035384,573,1009,-0.0767221,0.161083
-644,15,-0.00976563,-0.0632324,0.00839541,0.0117991,-0.00760176,0.0178872,0.00230732,-0.895519,0.0112349,0.0141708,580,1009,-0.00976468,0.0632317
-637,15,-0.0187988,-0.0560913,0.00545827,0.00918711,-0.00429108,0.0120013,0.00264408,-0.990338,0.00728133,0.010295,587,1009,-0.0187919,0.0560972
-630,15,-0.0162964,-0.0617676,0.0023559,0.00705324,-0.00247544,0.0081169,0.00129223,-1.16496,0.0050361,0.00854635,594,1009,-0.0163041,0.0617778
-623,15,-0.0241089,-0.0797729,0.000134423,0.00243027,-0.00162504,0.00327194,-0.000707245,-1.0929,0.00245129,0.0080858,601,1009,-0.0241305,0.0797958
-616,15,-0.0530396,-0.0776367,-0.000429279,0.000214629,-0.000707095,0.000669616,-0.000884266,-0.999033,0.000899983,0.0126106,608,1009,-0.0530401,0.0776551
-609,15,-0.0372314,-0.0637207,-0.000783167,0.000198407,-0.000366808,0.000320335,-0.000905095,-1.24988,0.000733862,0.0194283,615,1009,-0.0372492,0.0637203
-602,15,-0.0215454,-0.071167,-0.000561171,-6.37867e-05,6.80542e-05,-5.46433e-05,-0.000570314,1.43724,0.000363367,0.0185995,622,1009,-0.0215533,0.0711658
-595,15,-0.0477905,-0.0934448,-0.000149551,-5.76724e-05,0.000298576,0.000198478,-0.000405701,0.86173,0.000355597,0.0179826,629,1009,-0.0478107,0.0934708
-588,15,-0.0316772,-0.115601,7.08044e-05,-3.62923e-05,0.000291346,0.000313482,-0.00027897,0.694514,0.000342246,0.0246299,636,1009,-0.0317036,0.115574
-581,15,-0.0160522,-0.159363,4.77108e-05,-4.205e-05,0.000208049,0.000215665,-0.000210005,0.679166,0.000245768,0.0342749,643,1009,-0.0160589,0.159374
-574,15,-0.0181274,-0.120361,3.69422e-05,6.59284e-05,0.000151032,0.000203161,-0.000100291,0.833232,0.000178522,0.0282931,650,1009,-0.0181129,0.120346
-567,15,-0.0799561,-0.111328,0.0001318,0.000152163,-2.60707e-06,0.000152491,0.000131472,-1.44545,9.54291e-05,0.0277981,657,1009,-0.0799273,0.111304
-560,15,-0.131592,-0.0424194,0.000224683,0.000294343,-0.000265148,0.000526939,-7.91289e-06,-0.850705,0.00035396,0.0347619,664,1009,-0.131601,0.0424261
-553,15,-0.155701,0.10376,0.00026973,0.000512131,-0.000639789,0.0010421,-0.000260237,-0.879008,0.00079579,0.0368934,671,1009,-0.155693,-0.103734
-546,15,-0.0830688,0.160217,0.000162364,0.000840263,-0.00113645,0.00168723,-0.000684608,-0.930324,0.00140958,0.035925,678,1009,-0.0830628,-0.160242
-539,15,0.00323486,0.120667,-0.000283063,0.00131956,-0.00175507,0.00244759,-0.00141109,-0.999551,0.00225445,0.0390763,685,1009,0.00324082,-0.120683
-532,15,-0.0811768,0.0214844,-0.00117413,0.00200959,-0.0024718,0.00335777,-0.00252231,-1.07147,0.00340627,0.0404745,692,1009,-0.0811757,-0.0214782
-525,15,0,0,0,0,0,0,0,0,0,-1,699,1009,0,0
-518,15,0,0,0,0,0,0,0,0,0,-1,706,1009,0,0
-511,15,0,0,0,0,0,0,0,0,0,-1,713,1009,0,0
-504,15,0,0,0,0,0,0,0,0,0,-1,720,1009,0,0
-497,15,0,0,0,0,0,0,0,0,0,-1,727,1009,0,0
-490,15,0,0,0,0,0,0,0,0,0,-1,734,1009,0,0
-483,15,0,0,0,0,0,0,0,0,0,-1,741,1009,0,0
-476,15,0,0,0,0,0,0,0,0,0,-1,748,1009,0,0
-469,15,0,0,0,0,0,0,0,0,0,-1,755,1009,0,0
-462,15,0,0,0,0,0,0,0,0,0,-1,762,1009,0,0
-455,15,0,0,0,0,0,0,0,0,0,-1,769,1009,0,0
-448,15,0,0,0,0,0,0,0,0,0,-1,776,1009,0,0
-441,15,0,0,0,0,0,0,0,0,0,-1,783,1009,0,0
-434,15,0,0,0,0,0,0,0,0,0,-1,790,1009,0,0
-427,15,0,0,0,0,0,0,0,0,0,-1,797,1009,0,0
-420,15,0,0,0,0,0,0,0,0,0,-1,804,1009,0,0
-413,15,0,0,0,0,0,0,0,0,0,-1,811,1009,0,0
-406,15,0,0,0,0,0,0,0,0,0,-1,818,1009,0,0
-399,15,0,0,0,0,0,0,0,0,0,-1,825,1009,0,0
-392,15,0,0,0,0,0,0,0,0,0,-1,832,1009,0,0
-385,15,0,0,0,0,0,0,0,0,0,-1,839,1009,0,0
-378,15,0,0,0,0,0,0,0,0,0,-1,846,1009,0,0
-371,15,0,0,0,0,0,0,0,0,0,-1,853,1009,0,0
-364,15,0,0,0,0,0,0,0,0,0,-1,860,1009,0,0
-357,15,0,0,0,0,0,0,0,0,0,-1,867,1009,0,0
-350,15,0,0,0,0,0,0,0,0,0,-1,874,1009,0,0
-343,15,0,0,0,0,0,0,0,0,0,-1,881,1009,0,0
-336,15,0,0,0,0,0,0,0,0,0,-1,888,1009,0,0
-329,15,0,0,0,0,0,0,0,0,0,-1,895,1009,0,0
-322,15,0,0,0,0,0,0,0,0,0,-1,902,1009,0,0
-315,15,0,0,0,0,0,0,0,0,0,-1,909,1009,0,0
-308,15,0,0,0,0,0,0,0,0,0,-1,916,1009,0,0
-301,15,0,0,0,0,0,0,0,0,0,-1,923,1009,0,0
-294,15,0,0,0,0,0,0,0,0,0,-1,930,1009,0,0
-287,15,0,0,0,0,0,0,0,0,0,-1,937,1009,0,0
-280,15,0,0,0,0,0,0,0,0,0,-1,944,1009,0,0
-273,15,0,0,0,0,0,0,0,0,0,-1,951,1009,0,0
-266,15,0,0,0,0,0,0,0,0,0,-1,958,1009,0,0
-259,15,0,0,0,0,0,0,0,0,0,-1,965,1009,0,0
-252,15,0,0,0,0,0,0,0,0,0,-1,972,1009,0,0
-245,15,0,0,0,0,0,0,0,0,0,-1,979,1009,0,0
-238,15,0,0,0,0,0,0,0,0,0,-1,986,1009,0,0
-231,15,0,0,0,0,0,0,0,0,0,-1,993,1009,0,0
-224,15,0,0,0,0,0,0,0,0,0,-1,1000,1009,0,0
-217,15,0,0,0,0,0,0,0,0,0,-1,1007,1009,0,0
-210,15,0,0,0,0,0,0,0,0,0,-1,1014,1009,0,0
-203,15,0,0,0,0,0,0,0,0,0,-1,1021,1009,0,0
-196,15,0,0,0,0,0,0,0,0,0,-1,1028,1009,0,0
-189,15,0,0,0,0,0,0,0,0,0,-1,1035,1009,0,0
-182,15,0,0,0,0,0,0,0,0,0,-1,1042,1009,0,0
-175,15,0,0,0,0,0,0,0,0,0,-1,1049,1009,0,0
-168,15,0,0,0,0,0,0,0,0,0,-1,1056,1009,0,0
-161,15,0,0,0,0,0,0,0,0,0,-1,1063,1009,0,0
-154,15,0,0,0,0,0,0,0,0,0,-1,1070,1009,0,0
-147,15,0,0,0,0,0,0,0,0,0,-1,1077,1009,0,0
-140,15,0,0,0,0,0,0,0,0,0,-1,1084,1009,0,0
-133,15,0,0,0,0,0,0,0,0,0,-1,1091,1009,0,0
-126,15,0,0,0,0,0,0,0,0,0,-1,1098,1009,0,0
-119,15,0,0,0,0,0,0,0,0,0,-1,1105,1009,0,0
-112,15,0,0,0,0,0,0,0,0,0,-1,1112,1009,0,0
-105,15,0,0,0,0,0,0,0,0,0,-1,1119,1009,0,0
-98,15,0,0,0,0,0,0,0,0,0,-1,1126,1009,0,0
-91,15,0,0,0,0,0,0,0,0,0,-1,1133,1009,0,0
-84,15,0,0,0,0,0,0,0,0,0,-1,1140,1009,0,0
-77,15,0,0,0,0,0,0,0,0,0,-1,1147,1009,0,0
-70,15,0,0,0,0,0,0,0,0,0,-1,1154,1009,0,0
-63,15,0,0,0,0,0,0,0,0,0,-1,1161,1009,0,0
-56,15,0,0,0,0,0,0,0,0,0,-1,1168,1009,0,0
-49,15,0,0,0,0,0,0,0,0,0,-1,1175,1009,0,0
-42,15,0,0,0,0,0,0,0,0,0,-1,1182,1009,0,0
-35,15,0,0,0,0,0,0,0,0,0,-1,1189,1009,0,0
-28,15,0,0,0,0,0,0,0,0,0,-1,1196,1009,0,0
-21,15,0,0,0,0,0,0,0,0,0,-1,1203,1009,0,0
-14,15,0,0,0,0,0,0,0,0,0,-1,1210,1009,0,0
-7,15,0,0,0,0,0,0,0,0,0,-1,1217,1009,0,0
0,15,0,0,0,0,0,0,0,0,0,-1,1224,1009,0,0
7,15,0,0,0,0,0,0,0,0,0,-1,1231,1009,0,0
14,15,0,0,0,0,0,0,0,0,0,-1,1238,1009,0,0
21,15,0,0,0,0,0,0,0,0,0,-1,1245,1009,0,0
28,15,0,0,0,0,0,0,0,0,0,-1,1252,1009,0,0
35,15,0,0,0,0,0,0,0,0,0,-1,1259,1009,0,0
42,15,0,0,0,0,0,0,0,0,0,-1,1266,1009,0,0
49,15,0,0,0,0,0,0,0,0,0,-1,1273,1009,0,0
56,15,0,0,0,0,0,0,0,0,0,-1,1280,1009,0,0
63,15,0,0,0,0,0,0,0,0,0,-1,1287,1009,0,0
70,15,0,0,0,0,0,0,0,0,0,-1,1294,1009,0,0
77,15,0,0,0,0,0,0,0,0,0,-1,1301,1009,0,0
84,15,0,0,0,0,0,0,0,0,0,-1,1308,1009,0,0
91,15,0,0,0,0,0,0,0,0,0,-1,1315,1009,0,0
98,15,0,0,0,0,0,0,0,0,0,-1,1322,1009,0,0
105,15,0,0,0,0,0,0,0,0,0,-1,1329,1009,0,0
112,15,0,0,0,0,0,0,0,0,0,-1,1336,1009,0,0
119,15,0,0,0,0,0,0,0,0,0,-1,1343,1009,0,0
126,15,0,0,0,0,0,0,0,0,0,-1,1350,1009,0,0
133,15,0,0,0,0,0,0,0,0,0,-1,1357,1009,0,0
140,15,0,0,0,0,0,0,0,0,0,-1,1364,1009,0,0
147,15,0,0,0,0,0,0,0,0,0,-1,1371,1009,0,0
154,15,0,0,0,0,0,0,0,0,0,-1,1378,1009,0,0
161,15,0,0,0,0,0,0,0,0,0,-1,1385,1009,0,0
168,15,0,0,0,0,0,0,0,0,0,-1,1392,1009,0,0
175,15,0,0,0,0,0,0,0,0,0,-1,1399,1009,0,0
182,15,0,0,0,0,0,0,0,0,0,-1,1406,1009,0,0
189,15,0,0,0,0,0,0,0,0,0,-1,1413,1009,0,0
196,15,0,0,0,0,0,0,0,0,0,-1,1420,1009,0,0
203,15,0,0,0,0,0,0,0,0,0,-1,1427,1009,0,0
210,15,0,0,0,0,0,0,0,0,0,-1,1434,1009,0,0
217,15,0,0,0,0,0,0,0,0,0,-1,1441,1009,0,0
224,15,0,0,0,0,0,0,0,0,0,-1,1448,1009,0,0
231,15,0,0,0,0,0,0,0,0,0,-1,1455,1009,0,0
238,15,0,0,0,0,0,0,0,0,0,-1,1462,1009,0,0
245,15,0,0,0,0,0,0,0,0,0,-1,1469,1009,0,0
252,15,0,0,0,0,0,0,0,0,0,-1,1476,1009,0,0
259,15,0,0,0,0,0,0,0,0,0,-1,1483,1009,0,0
266,15,0,0,0,0,0,0,0,0,0,-1,1490,1009,0,0
273,15,0,0,0,0,0,0,0,0,0,-1,1497,1009,0,0
280,15,0,0,0,0,0,0,0,0,0,-1,1504,1009,0,0
287,15,0,0,0,0,0,0,0,0,0,-1,1511,1009,0,0
294,15,0,0,0,0,0,0,0,0,0,-1,1518,1009,0,0
301,15,0,0,0,0,0,0,0,0,0,-1,1525,1009,0,0
308,15,0,0,0,0,0,0,0,0,0,-1,1532,1009,0,0
315,15,0,0,0,0,0,0,0,0,0,-1,1539,1009,0,0
322,15,0,0,0,0,0,0,0,0,0,-1,1546,1009,0,0
329,15,0,0,0,0,0,0,0,0,0,-1,1553,1009,0,0
336,15,0,0,0,0,0,0,0,0,0,-1,1560,1009,0,0
343,15,0,0,0,0,0,0,0,0,0,-1,1567,1009,0,0
350,15,0,0,0,0,0,0,0,0,0,-1,1574,1009,0,0
357,15,0,0,0,0,0,0,0,0,0,-1,1581,1009,0,0
364,15,0,0,0,0,0,0,0,0,0,-1,1588,1009,0,0
371,15,0,0,0,0,0,0,0,0,0,-1,1595,1009,0,0
378,15,0,0,0,0,0,0,0,0,0,-1,1602,1009,0,0
385,15,0,0,0,0,0,0,0,0,0,-1,1609,1009,0,0
392,15,0,0,0,0,0,0,0,0,0,-1,1616,1009,0,0
399,15,0,0,0,0,0,0,0,0,0,-1,1623,1009,0,0
406,15,0,0,0,0,0,0,0,0,0,-1,1630,1009,0,0
413,15,0,0,0,0,0,0,0,0,0,-1,1637,1009,0,0
420,15,0,0,0,0,0,0,0,0,0,-1,1644,1009,0,0
427,15,0,0,0,0,0,0,0,0,0,-1,1651,1009,0,0
434,15,0,0,0,0,0,0,0,0,0,-1,1658,1009,0,0
441,15,0,0,0,0,0,0,0,0,0,-1,1665,1009,0,0
448,15,0,0,0,0,0,0,0,0,0,-1,1672,1009,0,0
455,15,0,0,0,0,0,0,0,0,0,-1,1679,1009,0,0
462,15,0,0,0,0,0,0,0,0,0,-1,1686,1009,0,0
469,15,0,0,0,0,0,0,0,0,0,-1,1693,1009,0,0
476,15,0,0,0,0,0,0,0,0,0,-1,1700,1009,0,0
483,15,0,0,0,0,0,0,0,0,0,-1,1707,1009,0,0
490,15,0,0,0,0,0,0,0,0,0,-1,1714,1009,0,0
497,15,0,0,0,0,0,0,0,0,0,-1,1721,1009,0,0
504,15,0,0,0,0,0,0,0,0,0,-1,1728,1009,0,0
511,15,0,0,0,0,0,0,0,0,0,-1,1735,1009,0,0
518,15,0,0,0,0,0,0,0,0,0,-1,1742,1009,0,0
525,15,0,0,0,0,0,0,0,0,0,-1,1749,1009,0,0
532,15,0,0,0,0,0,0,0,0,0,-1,1756,1009,0,0
539,15,0,0,0,0,0,0,0,0,0,-1,1763,1009,0,0
546,15,0,0,0,0,0,0,0,0,0,-1,1770,1009,0,0
553,15,0,0,0,0,0,0,0,0,0,-1,1777,1009,0,0
560,15,0,0,0,0,0,0,0,0,0,-1,1784,1009,0,0
567,15,0,0,0,0,0,0,0,0,0,-1,1791,1009,0,0
574,15,0,0,0,0,0,0,0,0,0,-1,1798,1009,0,0
581,15,0,0,0,0,0,0,0,0,0,-1,1805,1009,0,0
588,15,0,0,0,0,0,0,0,0,0,-1,1812,1009,0,0
595,15,0,0,0,0,0,0,0,0,0,-1,1819,1009,0,0
602,15,0,0,0,0,0,0,0,0,0,-1,1826,1009,0,0
609,15,0,0,0,0,0,0,0,0,0,-1,1833,1009,0,0
616,15,0,0,0,0,0,0,0,0,0,-1,1840,1009,0,0
623,15,0,0,0,0,0,0,0,0,0,-1,1847,1009,0,0
630,15,0,0,0,0,0,0,0,0,0,-1,1854,1009,0,0
637,15,0,0,0,0,0,0,0,0,0,-1,1861,1009,0,0
644,15,-0.0919189,-0.0556641,-0.00152692,-0.000772661,-0.000765039,-0.000296848,-0.00200273,-1.0144,0.00124803,0.0352638,1868,1009,-0.0919166,0.0556845
651,15,-0.102905,-0.0667114,-0.000903737,-0.000417434,-0.000452459,-0.00014693,-0.00117424,-1.03196,0.000738737,0.0347167,1875,1009,-0.102938,0.0667068
658,15,-0.0924072,-0.16925,-0.000603064,-0.000239073,-0.000294065,-7.52406e-05,-0.000766896,-1.0625,0.000488121,0.0347572,1882,1009,-0.0923726,0.169232
665,15,-0.0632324,0.0499268,-0.000412756,-0.000159169,-0.000230708,-2.27087e-05,-0.000549217,-1.03666,0.000358815,0.0346474,1889,1009,-0.0632756,-0.0499293
672,15,-0.0408936,0.150146,-0.000262009,-0.000136626,-0.000223009,3.23357e-05,-0.000430972,-0.92242,0.000298677,0.0327261,1896,1009,-0.0409163,-0.150134
679,15,-0.050415,0.0106201,-0.00017477,-0.000144542,-0.000225854,6.67034e-05,-0.000386015,-0.818809,0.000282218,0.0312899,1903,1009,-0.0503724,-0.010647
686,15,-0.00012207,-0.0452271,-0.000121204,-0.000160418,-0.000220138,8.01989e-05,-0.00036182,-0.740982,0.000271918,0.0344649,1910,1009,-0.000149795,0.045226
693,15,-0.0108643,-0.0430908,-8.28312e-05,-0.000171912,-0.000203945,8.1381e-05,-0.000336124,-0.67789,0.000255566,0.0351064,1917,1009,-0.0108954,0.0430747
700,15,-0.00634766,-0.0419312,-1.00618e-05,-0.000140039,-0.000146233,8.49731e-05,-0.000235074,-0.576297,0.000191433,0.028297,1924,1009,-0.00636002,0.0419326
707,15,-0.0321045,-0.0860596,7.72595e-06,-0.000170966,-0.000105995,5.70077e-05,-0.000220248,-0.435211,0.000169069,0.0214406,1931,1009,-0.032114,0.0860822
714,15,-0.0400391,-0.106079,-3.95889e-05,-0.000187826,-0.000128831,3.49227e-05,-0.000262337,-0.524362,0.000187619,0.0141518,1938,1009,-0.0400597,0.106102
721,15,-0.0153809,-0.0764771,-4.06279e-05,-0.000177797,-0.000151227,5.68398e-05,-0.000275265,-0.572509,0.000205099,0.0112052,1945,1009,-0.0153519,0.0764806
728,15,-0.0386963,-0.0759277,-4.48717e-06,-0.000138119,-9.87119e-05,4.7896e-05,-0.000190502,-0.487879,0.000145616,0.0130294,1952,1009,-0.0387264,0.0759498
735,15,-0.0405273,-0.0751953,-0.000173077,-4.92907e-05,-0.000313614,0.000208479,-0.000430847,-0.882824,0.000376484,0.0145386,1959,1009,-0.0405532,0.0751798
742,15,-0.0272217,-0.0767822,-0.000338768,6.36401e-05,-0.000823497,0.000710157,-0.000985284,-0.905215,0.00098315,0.0144399,1966,1009,-0.0272744,0.0767913
749,15,-0.03125,-0.0853882,-0.000392615,-0.000464986,-0.00142987,0.00100153,-0.00185913,-0.772748,0.00167616,0.00903505,1973,1009,-0.0313042,0.0853731
756,15,-0.0202637,-0.0753784,-0.000729705,-0.001227,-0.00195177,0.000989194,-0.0029459,-0.722042,0.0023637,0.0105601,1980,1009,-0.0202423,0.075352
763,15,-0.0380859,-0.0706177,-0.00149331,-0.00164757,-0.00269769,0.00112835,-0.00426924,-0.771106,0.00328747,0.010914,1987,1009,-0.0381182,0.0706173
770,15,-0.0441895,-0.0742188,-0.00223335,-0.00249779,-0.00362426,0.0012611,-0.00599224,-0.767165,0.00447483,0.0104811,1994,1009,-0.0441325,0.074216
777,15,-0.0219727,-0.0606689,-0.00322628,-0.00367513,-0.0046895,0.00124416,-0.00814557,-0.761488,0.00588907,0.0195615,2001,1009,-0.0219248,0.060666
784,15,0.151123,-0.25177,-0.00460673,-0.00523304,-0.00582609,0.00091462,-0.0107544,-0.758549,0.00749309,0.0387347,2008,1009,0.151148,0.251788
791,15,0.152954,-0.702637,-0.00651419,-0.00720424,-0.00692465,7.40262e-05,-0.0137925,-0.760506,0.00921975,0.0455509,2015,1009,0.152928,0.702615
798,15,0.806396,-0.340088,-0.00909905,-0.00958617,-0.00784643,-0.0014924,-0.0171928,-0.769883,0.0109982,0.0475114,2022,1009,0.806378,0.340068
805,15,0.246948,0.180115,-0.0125719,-0.0123335,-0.00838204,-0.00406983,-0.0208356,-0.792508,0.0127521,0.0442906,2029,1009,0.247008,-0.180136
812,15,-0.0390625,-0.00561523,-0.017316,-0.0153279,-0.00824303,-0.00801922,-0.0246247,-0.845403,0.0145023,0.0436624,2036,1009,-0.0390455,0.00561508
-700,8,0,0,0,0,0,0,0,0,0,-1,524,1016,0,0
-693,8,-0.557068,1.77173,0,0,0,0,0,0,0,-1,531,1016,-0.557085,-1.77174
-686,8,0.762451,1.10657,0,0,0,0,0,0,0,-1,538,1016,0.762431,-1.10659
-679,8,0.507385,0.773804,0.0254017,0.0248221,-0.032664,0.0577772,-0.00755343,-0.780962,0.041267,0.0458492,545,1016,0.507395,-0.773786
-672,8,0.241821,0.468689,0.0201873,0.0241574,-0.0251623,0.0474129,-0.00306813,-0.824762,0.0326793,0.0431225,552,1016,0.241839,-0.468671
-665,8,-0.0415039,0.0403442,0.0153011,0.0215224,-0.0191645,0.0378271,-0.00100358,-0.865854,0.0255591,0.0480629,559,1016,-0.0414776,-0.0403452
-658,8,-0.143738,-0.485352,0,0,0,0,0,0,0,-1,566,1016,-0.143755,0.485328
-651,8,-0.0106812,-0.0991821,0.00757079,0.0142063,-0.010634,0.0220281,-0.000250963,-0.936611,0.0147698,0.0194466,573,1016,-0.0107043,0.0992087
-644,8,-0.0167236,-0.0785522,0.00518385,0.0112443,-0.00783007,0.01661,-0.000181893,-0.970022,0.0111345,0.0110472,580,1016,-0.0167007,0.078574
-637,8,-0.0259399,-0.0708008,0.00329614,0.00855803,-0.00444037,0.0110884,0.00076581,-1.05284,0.00715065,0.00892249,587,1016,-0.0259382,0.0707752
-630,8,-0.0177002,-0.06073,0.00120437,0.00648639,-0.00276357,0.00766798,2.27888e-05,-1.16676,0.00510441,0.00928812,594,1016,-0.0176725,0.0607072
-623,8,-0.0198975,-0.0744019,-0.000413601,0.00247032,-0.00186406,0.00338504,-0.00132833,-1.1146,0.0028063,0.0120305,601,1016,-0.0199053,0.0743977
-616,8,-0.0212402,-0.0787964,-0.00068714,0.000481072,-0.000930838,0.000995892,-0.00120196,-1.0656,0.00127079,0.0119029,608,1016,-0.0212201,0.0787998
-609,8,-0.00921631,-0.05896,-0.000844494,0.000315452,-0.000510751,0.000508289,-0.00103733,-1.20979,0.000909622,0.0146478,615,1016,-0.00922881,0.0589434
-602,8,0.0319214,-0.071228,-0.000596933,1.12375e-05,-4.95827e-06,1.12779e-05,-0.000596973,-1.56264,0.000401794,0.019169,622,1016,0.0319357,0.0712157
-595,8,-0.026062,-0.1026,-0.000209752,-4.33441e-07,0.000279375,0.000193242,-0.000403428,0.964617,0.00035154,0.0164239,629,1016,-0.0260596,0.102592
-588,8,-0.0386963,-0.107178,-1.64731e-05,1.53198e-05,0.000305898,0.000305734,-0.000306887,0.811358,0.000353697,0.0177459,636,1016,-0.0387086,0.1072
-581,8,0.0187988,-0.0792847,-3.36175e-05,-6.50124e-06,0.000225814,0.000206162,-0.00024628,0.815383,0.00026156,0.025411,643,1016,0.0187827,0.0792773
-574,8,-0.00292969,-0.00506592,-1.1096e-05,7.12685e-05,0.000157487,0.000192869,-0.000132697,0.913282,0.000189033,0.0309621,650,1016,-0.00291404,0.00506939
-567,8,-0.111328,-0.000183105,0.000110399,0.000134408,-9.71883e-06,0.000137849,0.000106958,-1.23052,8.35286e-05,0.0346234,657,1016,-0.111298,0.000208348
-560,8,-0.0988159,-0.00115967,0.000256988,0.000233331,-0.000288452,0.000533854,-4.35349e-05,-0.764906,0.000371266,0.0367734,664,1016,-0.098828,0.0011775
-553,8,-0.0959473,0.0975342,0.000393507,0.000375762,-0.000684816,0.00106951,-0.000300239,-0.778921,0.000831357,0.038072,671,1016,-0.0959559,-0.0975061
-546,8,-0.0835571,0.0296021,0.000422775,0.000582565,-0.00120993,0.00171524,-0.000709898,-0.818367,0.0014397,0.0359837,678,1016,-0.0835822,-0.0295876
-539,8,-0.0390015,0.0220337,0.000177317,0.00087461,-0.00186347,0.00242177,-0.00136984,-0.877877,0.00221699,0.0365792,685,1016,-0.0389888,-0.0220106
-532,8,-0.0913086,0.0263672,-0.000414779,0.0012824,-0.00262272,0.0031904,-0.00232278,-0.94186,0.00319615,0.0377617,692,1016,-0.0913161,-0.0263936
-525,8,0,0,0,0,0,0,0,0,0,-1,699,1016,0,0
-518,8,0,0,0,0,0,0,0,0,0,-1,706,1016,0,0
-511,8,0,0,0,0,0,0,0,0,0,-1,713,1016,0,0
-504,8,0,0,0,0,0,0,0,0,0,-1,720,1016,0,0
-497,8,0,0,0,0,0,0,0,0,0,-1,727,1016,0,0
-490,8,0,0,0,0,0,0,0,0,0,-1,734,1016,0,0
-483,8,0,0,0,0,0,0,0,0,0,-1,741,1016,0,0
-476,8,0,0,0,0,0,0,0,0,0,-1,748,1016,0,0
-469,8,0,0,0,0,0,0,0,0,0,-1,755,1016,0,0
-462,8,0,0,0,0,0,0,0,0,0,-1,762,1016,0,0
-455,8,0,0,0,0,0,0,0,0,0,-1,769,1016,0,0
-448,8,0,0,0,0,0,0,0,0,0,-1,776,1016,0,0
-441,8,0,0,0,0,0,0,0,0,0,-1,783,1016,0,0
-434,8,0,0,0,0,0,0,0,0,0,-1,790,1016,0,0
-427,8,0,0,0,0,0,0,0,0,0,-1,797,1016,0,0
-420,8,0,0,0,0,0,0,0,0,0,-1,804,1016,0,0
-413,8,0,0,0,0,0,0,0,0,0,-1,811,1016,0,0
-406,8,0,0,0,0,0,0,0,0,0,-1,818,1016,0,0
-399,8,0,0,0,0,0,0,0,0,0,-1,825,1016,0,0
-392,8,0,0,0,0,0,0,0,0,0,-1,832,1016,0,0
-385,8,0,0,0,0,0,0,0,0,0,-1,839,1016,0,0
-378,8,0,0,0,0,0,0,0,0,0,-1,846,1016,0,0
-371,8,0,0,0,0,0,0,0,0,0,-1,853,1016,0,0
-364,8,0,0,0,0,0,0,0,0,0,-1,860,1016,0,0
-357,8,0,0,0,0,0,0,0,0,0,-1,867,1016,0,0
-350,8,0,0,0,0,0,0,0,0,0,-1,874,1016,0,0
-343,8,0,0,0,0,0,0,0,0,0,-1,881,1016,0,0
-336,8,0,0,0,0,0,0,0,0,0,-1,888,1016,0,0
-329,8,0,0,0,0,0,0,0,0,0,-1,895,1016,0,0
-322,8,0,0,0,0,0,0,0,0,0,-1,902,1016,0,0
-315,8,0,0,0,0,0,0,0,0,0,-1,909,1016,0,0
-308,8,0,0,0,0,0,0,0,0,0,-1,916,1016,0,0
-301,8,0,0,0,0,0,0,0,0,0,-1,923,1016,0,0
-294,8,0,0,0,0,0,0,0,0,0,-1,930,1016,0,0
-287,8,0,0,0,0,0,0,0,0,0,-1,937,1016,0,0
-280,8,0,0,0,0,0,0,0,0,0,-1,944,1016,0,0
-273,8,0,0,0,0,0,0,0,0,0,-1,951,1016,0,0
-266,8,0,0,0,0,0,0,0,0,0,-1,958,1016,0,0
-259,8,0,0,0,0,0,0,0,0,0,-1,965,1016,0,0
-252,8,0,0,0,0,0,0,0,0,0,-1,972,1016,0,0
-245,8,0,0,0,0,0,0,0,0,0,-1,979,1016,0,0
-238,8,0,0,0,0,0,0,0,0,0,-1,986,1016,0,0
-231,8,0,0,0,0,0,0,0,0,0,-1,993,1016,0,0
-224,8,0,0,0,0,0,0,0,0,0,-1,1000,1016,0,0
-217,8,0,0,0,0,0,0,0,0,0,-1,1007,1016,0,0
-210,8,0,0,0,0,0,0,0,0,0,-1,1014,1016,0,0
-203,8,0,0,0,0,0,0,0,0,0,-1,1021,1016,0,0
-196,8,0,0,0,0,0,0,0,0,0,-1,1028,1016,0,0
-189,8,0,0,0,0,0,0,0,0,0,-1,1035,1016,0,0
-182,8,0,0,0,0,0,0,0,0,0,-1,1042,1016,0,0
-175,8,0,0,0,0,0,0,0,0,0,-1,1049,1016,0,0
-168,8,0,0,0,0,0,0,0,0,0,-1,1056,1016,0,0
-161,8,0,0,0,0,0,0,0,0,0,-1,1063,1016,0,0
-154,8,0,0,0,0,0,0,0,0,0,-1,1070,1016,0,0
-147,8,0,0,0,0,0,0,0,0,0,-1,1077,1016,0,0
-140,8,0,0,0,0,0,0,0,0,0,-1,1084,1016,0,0
-133,8,0,0,0,0,0,0,0,0,0,-1,1091,1016,0,0
-126,8,0,0,0,0,0,0,0,0,0,-1,1098,1016,0,0
-119,8,0,0,0,0,0,0,0,0,0,-1,1105,1016,0,0
-112,8,0,0,0,0,0,0,0,0,0,-1,1112,1016,0,0
-105,8,0,0,0,0,0,0,0,0,0,-1,1119,1016,0,0
-98,8,0,0,0,0,0,0,0,0,0,-1,1126,1016,0,0
-91,8,0,0,0,0,0,0,0,0,0,-1,1133,1016,0,0
-84,8,0,0,0,0,0,0,0,0,0,-1,1140,1016,0,0
-77,8,0,0,0,0,0,0,0,0,0,-1,1147,1016,0,0
-70,8,0,0,0,0,0,0,0,0,0,-1,1154,1016,0,0
-63,8,0,0,0,0,0,0,0,0,0,-1,1161,1016,0,0
-56,8,0,0,0,0,0,0,0,0,0,-1,1168,1016,0,0
-49,8,0,0,0,0,0,0,0,0,0,-1,1175,1016,0,0
-42,8,0,0,0,0,0,0,0,0,0,-1,1182,1016,0,0
-35,8,0,0,0,0,0,0,0,0,0,-1,1189,1016,0,0
-28,8,0,0,0,0,0,0,0,0,0,-1,1196,1016,0,0
-21,8,0,0,0,0,0,0,0,0,0,-1,1203,1016,0,0
-14,8,0,0,0,0,0,0,0,0,0,-1,1210,1016,0,0
-7,8,0,0,0,0,0,0,0,0,0,-1,1217,1016,0,0
0,8,0,0,0,0,0,0,0,0,0,-1,1224,1016,0,0
7,8,0,0,0,0,0,0,0,0,0,-1,1231,1016,0,0
14,8,0,0,0,0,0,0,0,0,0,-1,1238,1016,0,0
21,8,0,0,0,0,0,0,0,0,0,-1,1245,1016,0,0
28,8,0,0,0,0,0,0,0,0,0,-1,1252,1016,0,0
35,8,0,0,0,0,0,0,0,0,0,-1,1259,1016,0,0
42,8,0,0,0,0,0,0,0,0,0,-1,1266,1016,0,0
49,8,0,0,0,0,0,0,0,0,0,-1,1273,1016,0,0
56,8,0,0,0,0,0,0,0,0,0,-1,1280,1016,0,0
63,8,0,0,0,0,0,0,0,0,0,-1,1287,1016,0,0
70,8,0,0,0,0,0,0,0,0,0,-1,1294,1016,0,0
77,8,0,0,0,0,0,0,0,0,0,-1,1301,1016,0,0
84,8,0,0,0,0,0,0,0,0,0,-1,1308,1016,0,0
91,8,0,0,0,0,0,0,0,0,0,-1,1315,1016,0,0
98,8,0,0,0,0,0,0,0,0,0,-1,1322,1016,0,0
105,8,0,0,0,0,0,0,0,0,0,-1,1329,1016,0,0
112,8,0,0,0,0,0,0,0,0,0,-1,1336,1016,0,0
119,8,0,0,0,0,0,0,0,0,0,-1,1343,1016,0,0
126,8,0,0,0,0,0,0,0,0,0,-1,1350,1016,0,0
133,8,0,0,0,0,0,0,0,0,0,-1,1357,1016,0,0
140,8,0,0,0,0,0,0,0,0,0,-1,1364,1016,0,0
147,8,0,0,0,0,0,0,0,0,0,-1,1371,1016,0,0
154,8,0,0,0,0,0,0,0,0,0,-1,1378,1016,0,0
161,8,0,0,0,0,0,0,0,0,0,-1,1385,1016,0,0
168,8,0,0,0,0,0,0,0,0,0,-1,1392,1016,0,0
175,8,0,0,0,0,0,0,0,0,0,-1,1399,1016,0,0
182,8,0,0,0,0,0,0,0,0,0,-1,1406,1016,0,0
189,8,0,0,0,0,0,0,0,0,0,-1,1413,1016,0,0
196,8,0,0,0,0,0,0,0,0,0,-1,1420,1016,0,0
203,8,0,0,0,0,0,0,0,0,0,-1,1427,1016,0,0
210,8,0,0,0,0,0,0,0,0,0,-1,1434,1016,0,0
217,8,0,0,0,0,0,0,0,0,0,-1,1441,1016,0,0
224,8,0,0,0,0,0,0,0,0,0,-1,1448,1016,0,0
231,8,0,0,0,0,0,0,0,0,0,-1,1455,1016,0,0
238,8,0,0,0,0,0,0,0,0,0,-1,1462,1016,0,0
245,8,0,0,0,0,0,0,0,0,0,-1,1469,1016,0,0
252,8,0,0,0,0,0,0,0,0,0,-1,1476,1016,0,0
259,8,0,0,0,0,0,0,0,0,0,-1,1483,1016,0,0
266,8,0,0,0,0,0,0,0,0,0,-1,1490,1016,0,0
273,8,0,0,0,0,0,0,0,0,0,-1,1497,1016,0,0
280,8,0,0,0,0,0,0,0,0,0,-1,1504,1016,0,0
287,8,0,0,0,0,0,0,0,0,0,-1,1511,1016,0,0
294,8,0,0,0,0,0,0,0,0,0,-1,1518,1016,0,0
301,8,0,0,0,0,0,0,0,0,0,-1,1525,1016,0,0
308,8,0,0,0,0,0,0,0,0,0,-1,1532,1016,0,0
315,8,0,0,0,0,0,0,0,0,0,-1,1539,1016,0,0
322,8,0,0,0,0,0,0,0,0,0,-1,1546,1016,0,0
329,8,0,0,0,0,0,0,0,0,0,-1,1553,1016,0,0
336,8,0,0,0,0,0,0,0,0,0,-1,1560,1016,0,0
343,8,0,0,0,0,0,0,0,0,0,-1,1567,1016,0,0
350,8,0,0,0,0,0,0,0,0,0,-1,1574,1016,0,0
357,8,0,0,0,0,0,0,0,0,0,-1,1581,1016,0,0
364,8,0,0,0,0,0,0,0,0,0,-1,1588,1016,0,0
371,8,0,0,0,0,0,0,0,0,0,-1,1595,1016,0,0
378,8,0,0,0,0,0,0,0,0,0,-1,1602,1016,0,0
385,8,0,0,0,0,0,0,0,0,0,-1,1609,1016,0,0
392,8,0,0,0,0,0,0,0,0,0,-1,1616,1016,0,0
399,8,0,0,0,0,0,0,0,0,0,-1,1623,1016,0,0
406,8,0,0,0,0,0,0,0,0,0,-1,1630,1016,0,0
413,8,0,0,0,0,0,0,0,0,0,-1,1637,1016,0,0
420,8,0,0,0,0,0,0,0,0,0,-1,1644,1016,0,0
427,8,0,0,0,0,0,0,0,0,0,-1,1651,1016,0,0
434,8,0,0,0,0,0,0,0,0,0,-1,1658,1016,0,0
441,8,0,0,0,0,0,0,0,0,0,-1,1665,1016,0,0
448,8,0,0,0,0,0,0,0,0,0,-1,1672,1016,0,0
455,8,0,0,0,0,0,0,0,0,0,-1,1679,1016,0,0
462,8,0,0,0,0,0,0,0,0,0,-1,1686,1016,0,0
469,8,0,0,0,0,0,0,0,0,0,-1,1693,1016,0,0
476,8,0,0,0,0,0,0,0,0,0,-1,1700,1016,0,0
483,8,0,0,0,0,0,0,0,0,0,-1,1707,1016,0,0
490,8,0,0,0,0,0,0,0,0,0,-1,1714,1016,0,0
497,8,0,0,0,0,0,0,0,0,0,-1,1721,1016,0,0
504,8,0,0,0,0,0,0,0,0,0,-1,1728,1016,0,0
511,8,0,0,0,0,0,0,0,0,0,-1,1735,1016,0,0
518,8,0,0,0,0,0,0,0,0,0,-1,1742,1016,0,0
525,8,0,0,0,0,0,0,0,0,0,-1,1749,1016,0,0
532,8,0,0,0,0,0,0,0,0,0,-1,1756,1016,0,0
539,8,0,0,0,0,0,0,0,0,0,-1,1763,1016,0,0
546,8,0,0,0,0,0,0,0,0,0,-1,1770,1016,0,0
553,8,0,0,0,0,0,0,0,0,0,-1,1777,1016,0,0
560,8,0,0,0,0,0,0,0,0,0,-1,1784,1016,0,0
567,8,0,0,0,0,0,0,0,0,0,-1,1791,1016,0,0
574,8,0,0,0,0,0,0,0,0,0,-1,1798,1016,0,0
581,8,0,0,0,0,0,0,0,0,0,-1,1805,1016,0,0
588,8,0,0,0,0,0,0,0,0,0,-1,1812,1016,0,0
595,8,0,0,0,0,0,0,0,0,0,-1,1819,1016,0,0
602,8,0,0,0,0,0,0,0,0,0,-1,1826,1016,0,0
609,8,0,0,0,0,0,0,0,0,0,-1,1833,1016,0,0
616,8,0,0,0,0,0,0,0,0,0,-1,1840,1016,0,0
623,8,0,0,0,0,0,0,0,0,0,-1,1847,1016,0,0
630,8,0,0,0,0,0,0,0,0,0,-1,1854,1016,0,0
637,8,0,0,0,0,0,0,0,0,0,-1,1861,1016,0,0
644,8,0.05896,0.0517578,-0.00179458,-0.00123803,-0.000622276,-0.000834638,-0.00219796,-0.995656,0.00128117,0.0375264,1868,1016,0.0589017,-0.0517755
651,8,0.0179443,-0.0522461,-0.0011105,-0.000635457,-0.000291942,-0.000496619,-0.00124934,-1.12688,0.000726338,0.0335181,1875,1016,0.0178958,0.0522263
658,8,-0.0344238,-0.211304,-0.000769184,-0.000282491,-0.000133712,-0.000248175,-0.0008035,-1.31958,0.000475065,0.0351206,1882,1016,-0.034483,0.211324
665,8,0.0135498,-0.00109863,-0.000546836,-8.89013e-05,-8.76483e-05,-7.26988e-05,-0.000563039,-1.388,0.000353626,0.0371631,1889,1016,0.0136019,0.00111743
672,8,0.0360107,0.164063,-0.000369311,-4.78538e-07,-0.000103573,2.66159e-05,-0.000396405,-1.31493,0.000273574,0.035,1896,1016,0.0359714,-0.164052
679,8,-0.0446777,-0.117004,-0.000266212,2.20893e-05,-0.000132205,7.35343e-05,-0.000317657,-1.1997,0.000240066,0.0313078,1903,1016,-0.0446334,0.117027
686,8,-0.0447998,-0.101807,-0.000203736,1.03564e-05,-0.000152988,9.00297e-05,-0.000283409,-1.09066,0.000225035,0.0334391,1910,1016,-0.0447729,0.101815
693,8,-0.0874023,-0.0140381,-0.000157404,-1.41444e-05,-0.000160552,9.00322e-05,-0.000261581,-0.99522,0.000210904,0.034938,1917,1016,-0.0874234,0.0140537
700,8,-0.012207,-0.0112305,-8.49746e-05,2.468e-06,-0.000119366,8.58679e-05,-0.000168374,-0.96095,0.000149341,0.0273769,1924,1016,-0.0121981,0.0112166
707,8,-0.00878906,-0.0839844,-5.44974e-05,-4.64756e-05,-9.55839e-05,4.51815e-05,-0.000146155,-0.806367,0.000115482,0.0173328,1931,1016,-0.00883293,0.0839995
714,8,-0.036499,-0.122437,-8.30289e-05,-9.02464e-05,-0.000133792,4.72027e-05,-0.000220478,-0.771915,0.000164986,0.0129911,1938,1016,-0.0365362,0.122434
721,8,-0.0230713,-0.088623,-7.51734e-05,-0.000120369,-0.000175468,7.91459e-05,-0.000274689,-0.721357,0.000214433,0.0115698,1945,1016,-0.0230611,0.0885988
728,8,-0.0328369,-0.0670166,-1.43442e-05,-0.000121014,-0.000140346,8.24594e-05,-0.000217817,-0.603814,0.00017914,0.0118327,1952,1016,-0.0327888,0.0669971
735,8,-0.0427246,-0.0744629,-0.000120057,-8.46279e-05,-0.000332846,0.000230975,-0.000435659,-0.811984,0.000390882,0.0135992,1959,1016,-0.0426935,0.074488
742,8,-0.0394287,-0.0875854,-0.000194051,-6.13303e-05,-0.000793435,0.000668515,-0.000923896,-0.827119,0.000923312,0.0108439,1966,1016,-0.0394166,0.0875844
749,8,-0.0273438,-0.0906372,-0.000160713,-0.000622166,-0.00138076,0.00100846,-0.00179134,-0.702612,0.0016374,0.00763163,1973,1016,-0.027365,0.0906235
756,8,0.000854492,-0.0755005,-0.000426409,-0.00129985,-0.00188792,0.00107465,-0.0028009,-0.671736,0.00231036,0.0105137,1980,1016,0.00088386,0.0754737
763,8,-0.0341797,-0.0791626,-0.00110983,-0.00166087,-0.00260785,0.00123701,-0.00400771,-0.732768,0.00316576,0.0123819,1987,1016,-0.0342058,0.0791529
770,8,-0.0452881,-0.0910645,-0.00174972,-0.00241951,-0.00349454,0.00142593,-0.00559517,-0.737627,0.00428525,0.0133461,1994,1016,-0.0453219,0.0910449
777,8,-0.012085,-0.081604,-0.00264479,-0.00343132,-0.00452114,0.00150015,-0.00757626,-0.742015,0.00561806,0.0183783,2001,1016,-0.0120359,0.0816016
784,8,0.115967,-0.149841,-0.00394121,-0.00471131,-0.00562923,0.00131612,-0.00996864,-0.751251,0.0071251,0.0395126,2008,1016,0.115967,0.149845
791,8,0.400879,-0.289246,-0.00579602,-0.00624497,-0.00672539,0.000708639,-0.0127496,-0.768716,0.00874555,0.0484182,2015,1016,0.400901,0.289237
798,8,0.569824,-0.300415,-0.00837085,-0.00796744,-0.00769056,-0.000475941,-0.0158624,-0.798509,0.0104199,0.0459273,2022,1016,0.569773,0.30039
805,8,0.251099,-0.0227051,-0.0118986,-0.0097528,-0.00834159,-0.00241539,-0.019236,-0.849357,0.0120995,0.0443763,2029,1016,0.25115,0.0227254
812,8,-0.12561,-0.0560913,-0.0167995,-0.0113765,-0.00843396,-0.0052289,-0.0229471,-0.940926,0.0138872,0.0418116,2036,1016,-0.125664,0.0560666
-700,1,0,0,0,0,0,0,0,0,0,-1,524,1023,0,0
-693,1,-0.585022,2.71985,0.00855119,0.0107332,-0.0481019,0.0577565,-0.0384721,-0.796737,0.0559282,0.0387673,531,1023,-0.585043,-2.71988
-686,1,-0.314453,1.6806,0,0,0,0,0,0,0,-1,538,1023,-0.314474,-1.68062
-679,1,-0.252747,1.18896,0.00908171,0.0216888,-0.030164,0.0462008,-0.0154303,-0.888404,0.0370316,0.0483418,545,1023,-0.252765,-1.18895
-672,1,0.0678101,0.969055,0.00761686,0.0213153,-0.0235827,0.0390233,-0.0100911,-0.926727,0.0299514,0.0425663,552,1023,0.0677866,-0.969083
-665,1,0.0448608,0.514038,0.00587445,0.019161,-0.0182435,0.0319331,-0.0068977,-0.960008,0.0239218,0.0440424,559,1023,0.0448609,-0.514066
-658,1,0.026001,0.155518,0,0,0,0,0,0,0,-1,566,1023,0.0259727,-0.155518
-651,1,-0.0222778,-0.0623169,0.00273477,0.0128891,-0.0104782,0.0194554,-0.00383152,-1.011,0.0144182,0.014538,573,1023,-0.0222612,0.0623314
-644,1,-0.0275269,-0.0849609,0.00193347,0.0104938,-0.00788339,0.015184,-0.00275674,-1.0341,0.0111557,0.0101418,580,1023,-0.0275108,0.0849542
-637,1,-0.0215454,-0.0941772,0.00130619,0.00781812,-0.00459001,0.0101897,-0.00106541,-1.09389,0.0071747,0.00878464,587,1023,-0.0215578,0.0941962
-630,1,-0.0222778,-0.0843506,0.000335522,0.0058447,-0.0030854,0.00722623,-0.00104601,-1.1498,0.00520133,0.011597,594,1023,-0.0222685,0.0843297
-623,1,-0.0272827,-0.0728149,-0.000746149,0.00247189,-0.00209061,0.00350097,-0.00177523,-1.11337,0.00310006,0.0126444,601,1023,-0.0273024,0.0728064
-616,1,-0.0200806,-0.0853271,-0.000814517,0.000727728,-0.00111173,0.00130959,-0.00139638,-1.08862,0.00156256,0.0149169,608,1023,-0.0200874,0.0853264
-609,1,-0.00457764,-0.0751343,-0.000839681,0.000396904,-0.000615898,0.000651318,-0.00109409,-1.17907,0.00101847,0.0152516,615,1023,-0.00459336,0.0751382
-602,1,0.00476074,-0.0824585,-0.000608152,2.40318e-05,-4.42965e-05,2.71205e-05,-0.00061124,-1.50118,0.000416828,0.0116994,622,1023,0.00477572,0.0824537
-595,1,-0.0338745,-0.0891113,-0.000270442,-1.97241e-05,0.000294069,0.000174591,-0.000464757,0.98688,0.00038159,0.0106799,629,1023,-0.0338736,0.0891004
-588,1,-0.0390625,-0.0701904,-0.000113975,-1.77852e-05,0.00036144,0.000298746,-0.000430507,0.851542,0.000423319,0.0156494,636,1023,-0.0390914,0.070202
-581,1,0.0164185,-0.0340576,-0.000123772,-6.36266e-05,0.000299344,0.000207152,-0.00039455,0.835461,0.000352964,0.0238995,643,1023,0.0164186,0.0340685
-574,1,0.0147095,0.0292358,-7.83897e-05,-3.02252e-05,0.000244659,0.000191534,-0.000300149,0.834456,0.000286173,0.0337304,650,1023,0.0146836,-0.0292464
-567,1,-0.0340576,0.026062,6.25966e-05,-5.12929e-06,9.57242e-05,0.000130271,-7.28036e-05,0.61539,0.0001188,0.0394622,657,1023,-0.0340643,-0.0260544
-560,1,-0.0553589,0.0871582,0.000251816,3.44115e-05,-0.000157018,0.000334087,-4.78594e-05,-0.482631,0.000240272,0.0380348,664,1023,-0.055359,-0.0871858
-553,1,-0.0991821,-0.0353394,0.000464189,8.35189e-05,-0.000523575,0.000830952,-0.000283244,-0.61106,0.000668687,0.0367063,671,1023,-0.0991948,0.0353537
-546,1,-0.0362549,-0.225525,0.000611439,0.000147895,-0.00101555,0.00142133,-0.000661992,-0.673208,0.00122915,0.0368599,678,1023,-0.0362677,0.225497
-539,1,0.0126953,-0.239502,0.000549251,0.000224425,-0.00163453,0.00202941,-0.00125574,-0.735879,0.00191414,0.0350863,685,1023,0.0126838,0.239488
-532,1,-0.0516968,-0.0479126,0.000239535,0.000310891,-0.00236088,0.00263636,-0.00208594,-0.792954,0.00273259,0.0372058,692,1023,-0.0516709,0.0478874
-525,1,0,0,0,0,0,0,0,0,0,-1,699,1023,0,0
-518,1,0,0,0,0,0,0,0,0,0,-1,706,1023,0,0
-511,1,0,0,0,0,0,0,0,0,0,-1,713,1023,0,0
-504,1,0,0,0,0,0,0,0,0,0,-1,720,1023,0,0
-497,1,0,0,0,0,0,0,0,0,0,-1,727,1023,0,0
-490,1,0,0,0,0,0,0,0,0,0,-1,734,1023,0,0
-483,1,0,0,0,0,0,0,0,0,0,-1,741,1023,0,0
-476,1,0,0,0,0,0,0,0,0,0,-1,748,1023,0,0
-469,1,0,0,0,0,0,0,0,0,0,-1,755,1023,0,0
-462,1,0,0,0,0,0,0,0,0,0,-1,762,1023,0,0
-455,1,0,0,0,0,0,0,0,0,0,-1,769,1023,0,0
-448,1,0,0,0,0,0,0,0,0,0,-1,776,1023,0,0
-441,1,0,0,0,0,0,0,0,0,0,-1,783,1023,0,0
-434,1,0,0,0,0,0,0,0,0,0,-1,790,1023,0,0
-427,1,0,0,0,0,0,0,0,0,0,-1,797,1023,0,0
-420,1,0,0,0,0,0,0,0,0,0,-1,804,1023,0,0
-413,1,0,0,0,0,0,0,0,0,0,-1,811,1023,0,0
-406,1,0,0,0,0,0,0,0,0,0,-1,818,1023,0,0
-399,1,0,0,0,0,0,0,0,0,0,-1,825,1023,0,0
-392,1,0,0,0,0,0,0,0,0,0,-1,832,1023,0,0
-385,1,0,0,0,0,0,0,0,0,0,-1,839,1023,0,0
-378,1,0,0,0,0,0,0,0,0,0,-1,846,1023,0,0
-371,1,0,0,0,0,0,0,0,0,0,-1,853,1023,0,0
-364,1,0,0,0,0,0,0,0,0,0,-1,860,1023,0,0
-357,1,0,0,0,0,0,0,0,0,0,-1,867,1023,0,0
-350,1,0,0,0,0,0,0,0,0,0,-1,874,1023,0,0
-343,1,0,0,0,0,0,0,0,0,0,-1,881,1023,0,0
-336,1,0,0,0,0,0,0,0,0,0,-1,888,1023,0,0
-329,1,0,0,0,0,0,0,0,0,0,-1,895,1023,0,0
-322,1,0,0,0,0,0,0,0,0,0,-1,902,1023,0,0
-315,1,0,0,0,0,0,0,0,0,0,-1,909,1023,0,0
-308,1,0,0,0,0,0,0,0,0,0,-1,916,1023,0,0
-301,1,0,0,0,0,0,0,0,0,0,-1,923,1023,0,0
-294,1,0,0,0,0,0,0,0,0,0,-1,930,1023,0,0
-287,1,0,0,0,0,0,0,0,0,0,-1,937,1023,0,0
-280,1,0,0,0,0,0,0,0,0,0,-1,944,1023,0,0
-273,1,0,0,0,0,0,0,0,0,0,-1,951,1023,0,0
-266,1,0,0,0,0,0,0,0,0,0,-1,958,1023,0,0
-259,1,0,0,0,0,0,0,0,0,0,-1,965,1023,0,0
-252,1,0,0,0,0,0,0,0,0,0,-1,972,1023,0,0
-245,1,0,0,0,0,0,0,0,0,0,-1,979,1023,0,0
-238,1,0,0,0,0,0,0,0,0,0,-1,986,1023,0,0
-231,1,0,0,0,0,0,0,0,0,0,-1,993,1023,0,0
-224,1,0,0,0,0,0,0,0,0,0,-1,1000,1023,0,0
-217,1,0,0,0,0,0,0,0,0,0,-1,1007,1023,0,0
-210,1,0,0,0,0,0,0,0,0,0,-1,1014,1023,0,0
-203,1,0,0,0,0,0,0,0,0,0,-1,1021,1023,0,0
-196,1,0,0,0,0,0,0,0,0,0,-1,1028,1023,0,0
-189,1,0,0,0,0,0,0,0,0,0,-1,1035,1023,0,0
-182,1,0,0,0,0,0,0,0,0,0,-1,1042,1023,0,0
-175,1,0,0,0,0,0,0,0,0,0,-1,1049,1023,0,0
-168,1,0,0,0,0,0,0,0,0,0,-1,1056,1023,0,0
-161,1,0,0,0,0,0,0,0,0,0,-1,1063,1023,0,0
-154,1,0,0,0,0,0,0,0,0,0,-1,1070,1023,0,0
-147,1,0,0,0,0,0,0,0,0,0,-1,1077,1023,0,0
-140,1,0,0,0,0,0,0,0,0,0,-1,1084,1023,0,0
-133,1,0,0,0,0,0,0,0,0,0,-1,1091,1023,0,0
-126,1,0,0,0,0,0,0,0,0,0,-1,1098,1023,0,0
-119,1,0,0,0,0,0,0,0,0,0,-1,1105,1023,0,0
-112,1,0,0,0,0,0,0,0,0,0,-1,1112,1023,0,0
-105,1,0,0,0,0,0,0,0,0,0,-1,1119,1023,0,0
-98,1,0,0,0,0,0,0,0,0,0,-1,1126,1023,0,0
-91,1,0,0,0,0,0,0,0,0,0,-1,1133,1023,0,0
-84,1,0,0,0,0,0,0,0,0,0,-1,1140,1023,0,0
-77,1,0,0,0,0,0,0,0,0,0,-1,1147,1023,0,0
-70,1,0,0,0,0,0,0,0,0,0,-1,1154,1023,0,0
-63,1,0,0,0,0,0,0,0,0,0,-1,1161,1023,0,0
-56,1,0,0,0,0,0,0,0,0,0,-1,1168,1023,0,0
-49,1,0,0,0,0,0,0,0,0,0,-1,1175,1023,0,0
-42,1,0,0,0,0,0,0,0,0,0,-1,1182,1023,0,0
-35,1,0,0,0,0,0,0,0,0,0,-1,1189,1023,0,0
-28,1,0,0,0,0,0,0,0,0,0,-1,1196,1023,0,0
-21,1,0,0,0,0,0,0,0,0,0,-1,1203,1023,0,0
-14,1,0,0,0,0,0,0,0,0,0,-1,1210,1023,0,0
-7,1,0,0,0,0,0,0,0,0,0,-1,1217,1023,0,0
0,1,0,0,0,0,0,0,0,0,0,-1,1224,1023,0,0
7,1,0,0,0,0,0,0,0,0,0,-1,1231,1023,0,0
14,1,0,0,0,0,0,0,0,0,0,-1,1238,1023,0,0
21,1,0,0,0,0,0,0,0,0,0,-1,1245,1023,0,0
28,1,0,0,0,0,0,0,0,0,0,-1,1252,1023,0,0
35,1,0,0,0,0,0,0,0,0,0,-1,1259,1023,0,0
42,1,0,0,0,0,0,0,0,0,0,-1,1266,1023,0,0
49,1,0,0,0,0,0,0,0,0,0,-1,1273,1023,0,0
56,1,0,0,0,0,0,0,0,0,0,-1,1280,1023,0,0
63,1,0,0,0,0,0,0,0,0,0,-1,1287,1023,0,0
70,1,0,0,0,0,0,0,0,0,0,-1,1294,1023,0,0
77,1,0,0,0,0,0,0,0,0,0,-1,1301,1023,0,0
84,1,0,0,0,0,0,0,0,0,0,-1,1308,1023,0,0
91,1,0,0,0,0,0,0,0,0,0,-1,1315,1023,0,0
98,1,0,0,0,0,0,0,0,0,0,-1,1322,1023,0,0
105,1,0,0,0,0,0,0,0,0,0,-1,1329,1023,0,0
112,1,0,0,0,0,0,0,0,0,0,-1,1336,1023,0,0
119,1,0,0,0,0,0,0,0,0,0,-1,1343,1023,0,0
126,1,0,0,0,0,0,0,0,0,0,-1,1350,1023,0,0
133,1,0,0,0,0,0,0,0,0,0,-1,1357,1023,0,0
140,1,0,0,0,0,0,0,0,0,0,-1,1364,1023,0,0
147,1,0,0,0,0,0,0,0,0,0,-1,1371,1023,0,0
154,1,0,0,0,0,0,0,0,0,0,-1,1378,1023,0,0
161,1,0,0,0,0,0,0,0,0,0,-1,1385,1023,0,0
168,1,0,0,0,0,0,0,0,0,0,-1,1392,1023,0,0
175,1,0,0,0,0,0,0,0,0,0,-1,1399,1023,0,0
182,1,0,0,0,0,0,0,0,0,0,-1,1406,1023,0,0
189,1,0,0,0,0,0,0,0,0,0,-1,1413,1023,0,0
196,1,0,0,0,0,0,0,0,0,0,-1,1420,1023,0,0
203,1,0,0,0,0,0,0,0,0,0,-1,1427,1023,0,0
210,1,0,0,0,0,0,0,0,0,0,-1,1434,1023,0,0
217,1,0,0,0,0,0,0,0,0,0,-1,1441,1023,0,0
224,1,0,0,0,0,0,0,0,0,0,-1,1448,1023,0,0
231,1,0,0,0,0,0,0,0,0,0,-1,1455,1023,0,0
238,1,0,0,0,0,0,0,0,0,0,-1,1462,1023,0,0
245,1,0,0,0,0,0,0,0,0,0,-1,1469,1023,0,0
252,1,0,0,0,0,0,0,0,0,0,-1,1476,1023,0,0
259,1,0,0,0,0,0,0,0,0,0,-1,1483,1023,0,0
266,1,0,0,0,0,0,0,0,0,0,-1,1490,1023,0,0
273,1,0,0,0,0,0,0,0,0,0,-1,1497,1023,0,0
280,1,0,0,0,0,0,0,0,0,0,-1,1504,1023,0,0
287,1,0,0,0,0,0,0,0,0,0,-1,1511,1023,0,0
294,1,0,0,0,0,0,0,0,0,0,-1,1518,1023,0,0
301,1,0,0,0,0,0,0,0,0,0,-1,1525,1023,0,0
308,1,0,0,0,0,0,0,0,0,0,-1,1532,1023,0,0
315,1,0,0,0,0,0,0,0,0,0,-1,1539,1023,0,0
322,1,0,0,0,0,0,0,0,0,0,-1,1546,1023,0,0
329,1,0,0,0,0,0,0,0,0,0,-1,1553,1023,0,0
336,1,0,0,0,0,0,0,0,0,0,-1,1560,1023,0,0
343,1,0,0,0,0,0,0,0,0,0,-1,1567,1023,0,0
350,1,0,0,0,0,0,0,0,0,0,-1,1574,1023,0,0
357,1,0,0,0,0,0,0,0,0,0,-1,1581,1023,0,0
364,1,0,0,0,0,0,0,0,0,0,-1,1588,1023,0,0
371,1,0,0,0,0,0,0,0,0,0,-1,1595,1023,0,0
378,1,0,0,0,0,0,0,0,0,0,-1,1602,1023,0,0
385,1,0,0,0,0,0,0,0,0,0,-1,1609,1023,0,0
392,1,0,0,0,0,0,0,0,0,0,-1,1616,1023,0,0
399,1,0,0,0,0,0,0,0,0,0,-1,1623,1023,0,0
406,1,0,0,0,0,0,0,0,0,0,-1,1630,1023,0,0
413,1,0,0,0,0,0,0,0,0,0,-1,1637,1023,0,0
420,1,0,0,0,0,0,0,0,0,0,-1,1644,1023,0,0
427,1,0,0,0,0,0,0,0,0,0,-1,1651,1023,0,0
434,1,0,0,0,0,0,0,0,0,0,-1,1658,1023,0,0
441,1,0,0,0,0,0,0,0,0,0,-1,1665,1023,0,0
448,1,0,0,0,0,0,0,0,0,0,-1,1672,1023,0,0
455,1,0,0,0,0,0,0,0,0,0,-1,1679,1023,0,0
462,1,0,0,0,0,0,0,0,0,0,-1,1686,1023,0,0
469,1,0,0,0,0,0,0,0,0,0,-1,1693,1023,0,0
476,1,0,0,0,0,0,0,0,0,0,-1,1700,1023,0,0
483,1,0,0,0,0,0,0,0,0,0,-1,1707,1023,0,0
490,1,0,0,0,0,0,0,0,0,0,-1,1714,1023,0,0
497,1,0,0,0,0,0,0,0,0,0,-1,1721,1023,0,0
504,1,0,0,0,0,0,0,0,0,0,-1,1728,1023,0,0
511,1,0,0,0,0,0,0,0,0,0,-1,1735,1023,0,0
518,1,0,0,0,0,0,0,0,0,0,-1,1742,1023,0,0
525,1,0,0,0,0,0,0,0,0,0,-1,1749,1023,0,0
532,1,0,0,0,0,0,0,0,0,0,-1,1756,1023,0,0
539,1,0,0,0,0,0,0,0,0,0,-1,1763,1023,0,0
546,1,0,0,0,0,0,0,0,0,0,-1,1770,1023,0,0
553,1,0,0,0,0,0,0,0,0,0,-1,1777,1023,0,0
560,1,0,0,0,0,0,0,0,0,0,-1,1784,1023,0,0
567,1,0,0,0,0,0,0,0,0,0,-1,1791,1023,0,0
574,1,0,0,0,0,0,0,0,0,0,-1,1798,1023,0,0
581,1,0,0,0,0,0,0,0,0,0,-1,1805,1023,0,0
588,1,0,0,0,0,0,0,0,0,0,-1,1812,1023,0,0
595,1,0,0,0,0,0,0,0,0,0,-1,1819,1023,0,0
602,1,0,0,0,0,0,0,0,0,0,-1,1826,1023,0,0
609,1,0,0,0,0,0,0,0,0,0,-1,1833,1023,0,0
616,1,0,0,0,0,0,0,0,0,0,-1,1840,1023,0,0
623,1,0,0,0,0,0,0,0,0,0,-1,1847,1023,0,0
630,1,0,0,0,0,0,0,0,0,0,-1,1854,1023,0,0
637,1,0,0,0,0,0,0,0,0,0,-1,1861,1023,0,0
644,1,0,0,0,0,0,0,0,0,0,-1,1868,1023,0,0
651,1,0.0308838,-0.122742,-0.00137081,-0.000866073,-0.000227888,-0.000778408,-0.00145847,-1.20356,0.000842689,0.0340933,1875,1023,0.0308594,0.122752
658,1,0.0358887,-0.136353,-0.000933918,-0.000419449,-4.46126e-05,-0.000415609,-0.000937758,-1.48493,0.000542578,0.0385042,1882,1023,0.0358513,0.136327
665,1,0.0605469,0.0280762,-0.000646416,-0.00016171,1.43655e-05,-0.000161285,-0.000646841,1.54119,0.000388782,0.0397587,1889,1023,0.0604948,-0.0280568
672,1,-0.00109863,0.072876,-0.000426942,-3.4448e-05,1.85689e-06,-3.44392e-05,-0.000426951,1.56607,0.000273877,0.0367467,1896,1023,-0.00107433,-0.0728794
679,1,-0.022583,-0.221741,-0.000302296,1.08456e-05,-3.04001e-05,1.37695e-05,-0.00030522,-1.47491,0.000208222,0.0332904,1903,1023,-0.0226033,0.221717
686,1,-0.0106201,-0.214355,-0.000231757,1.08556e-05,-6.13855e-05,2.55029e-05,-0.000246404,-1.33656,0.000173397,0.0328524,1910,1023,-0.0106402,0.214336
693,1,-0.0126953,-0.0101318,-0.000182633,-1.04592e-05,-8.25788e-05,2.27443e-05,-0.000215836,-1.1885,0.000152041,0.0320688,1917,1023,-0.0126468,0.0101211
700,1,-0.00366211,-0.0307007,-0.00011436,6.36836e-06,-5.47847e-05,2.75222e-05,-0.000135514,-1.20231,0.000100778,0.0263262,1924,1023,-0.00362416,0.0307176
707,1,-0.0220947,-0.0756226,-7.74031e-05,-3.94656e-05,-4.13879e-05,-1.29066e-05,-0.000103962,-1.00027,6.54315e-05,0.0183549,1931,1023,-0.0221546,0.0756247
714,1,-0.0352783,-0.105774,-9.28623e-05,-8.25793e-05,-9.1334e-05,3.75784e-06,-0.000179199,-0.813515,0.000120738,0.0133451,1938,1023,-0.0352826,0.105774
721,1,-0.0274658,-0.106873,-8.44192e-05,-0.000124954,-0.00015218,4.88378e-05,-0.00025821,-0.719198,0.000190518,0.0118059,1945,1023,-0.0274683,0.106891
728,1,-0.0323486,-0.0834351,-2.15907e-05,-0.000143547,-0.000135117,6.56705e-05,-0.000230808,-0.573431,0.000179805,0.0112114,1952,1023,-0.0324056,0.0834566
735,1,-0.0288086,-0.0907593,-9.0323e-05,-0.000139611,-0.000309532,0.000195545,-0.000425479,-0.745673,0.000366649,0.0122451,1959,1023,-0.0288695,0.090758
742,1,-0.0350342,-0.0853271,-0.00010872,-0.000272355,-0.0007309,0.000544928,-0.000926003,-0.72966,0.00085869,0.0104231,1966,1023,-0.0350105,0.0853062
749,1,-0.0314941,-0.0708618,-1.62263e-05,-0.0008729,-0.00129941,0.000923623,-0.00181275,-0.626187,0.00160741,0.00899459,1973,1023,-0.0314936,0.0708684
756,1,-0.0157471,-0.0645142,-0.000216756,-0.00151127,-0.00180173,0.00105045,-0.00277847,-0.612955,0.00228444,0.00969261,1980,1023,-0.015807,0.0645359
763,1,-0.0167236,-0.0551147,-0.00081237,-0.00187039,-0.00249936,0.00121335,-0.00389611,-0.681108,0.00308251,0.0122843,1987,1023,-0.0167651,0.0551199
770,1,-0.0211182,-0.0724487,-0.00135369,-0.00261199,-0.00335313,0.0014288,-0.00539449,-0.692661,0.0041553,0.0127896,1994,1023,-0.0211309,0.0724433
777,1,-0.0246582,-0.0949097,-0.00213524,-0.00354837,-0.00435264,0.00156781,-0.00725143,-0.704935,0.00543283,0.0147359,2001,1023,-0.0246663,0.0949172
784,1,0.0280762,-0.0202026,-0.00330061,-0.00465557,-0.00545005,0.00151391,-0.00947009,-0.723562,0.00687383,0.0355563,2008,1023,0.0280738,0.0201857
791,1,0.123779,0.057373,-0.0050051,-0.00586884,-0.00656784,0.00114506,-0.012019,-0.752568,0.00842034,0.049667,2015,1023,0.12379,-0.0573672
798,1,0.174561,0.0968018,0,0,0,0,0,0,0,-1,2022,1023,0.174557,-0.0968199
805,1,0.208008,0.288391,-0.0107143,-0.00803274,-0.00840546,-0.00086179,-0.0178852,-0.864488,0.0116469,0.0439855,2029,1023,0.207999,-0.288382
812,1,-0.192871,0.0383911,-0.0153594,-0.00844634,-0.00875726,-0.00248815,-0.0213176,-0.973366,0.0134593,0.0425367,2036,1023,-0.192883,-0.0384032
-700,-6,0,0,0,0,0,0,0,0,0,-1,524,1030,0,0
-693,-6,1.06055,1.38379,0,0,0,0,0,0,0,-1,531,1030,1.06054,-1.38378
-686,-6,0.0747681,2.37549,0,0,0,0,0,0,0,-1,538,1030,0.0747981,-2.3755
-679,-6,0.106812,1.93677,-0.00595831,0.0175418,-0.0301285,0.0381304,-0.0265469,-0.971325,0.0375406,0.0462552,545,1030,0.106824,-1.93677
-672,-6,0.261292,1.46228,-0.00413586,0.0177198,-0.0240101,0.0331719,-0.019588,-0.998956,0.0307957,0.0444315,552,1030,0.261277,-1.46227
-665,-6,0.291931,1.12671,-0.003,0.0162575,-0.0188845,0.0278264,-0.0145689,-1.02116,0.0248726,0.041132,559,1030,0.291908,-1.12668
-658,-6,0.160034,0.750488,-0.00228336,0.0139428,-0.0146322,0.0225606,-0.0109012,-1.03853,0.0197063,0.0392822,566,1030,0.160013,-0.750504
-651,-6,0.0124512,0.317261,0,0,0,0,0,0,0,-1,573,1030,0.0124811,-0.317203
-644,-6,-0.0320435,-0.0413818,-0.00115872,0.00958872,-0.00848135,0.0142554,-0.00582542,-1.06778,0.0119294,0.0217326,580,1030,-0.0320196,0.0413381
-637,-6,-0.0275269,-0.0924072,-0.000645939,0.00701295,-0.00511227,0.00957099,-0.00320398,-1.10685,0.00767491,0.0128856,587,1030,-0.0275524,0.092379
-630,-6,-0.0280151,-0.0932617,-0.000574271,0.00519327,-0.00356502,0.00689485,-0.00227586,-1.12547,0.00551403,0.0118712,594,1030,-0.0280259,0.0932364
-623,-6,-0.0223389,-0.0819092,-0.00108655,0.00240691,-0.0023689,0.00360344,-0.00228307,-1.10308,0.00342696,0.012331,601,1030,-0.0223114,0.081934
-616,-6,-0.0146484,-0.078125,-0.000989816,0.000921008,-0.00127586,0.00155953,-0.00162834,-1.10678,0.00184066,0.0130214,608,1030,-0.0146744,0.0781029
-609,-6,-0.0109253,-0.0742188,-0.000898296,0.000459191,-0.00067656,0.000738793,-0.0011779,-1.1789,0.00111624,0.0149636,615,1030,-0.0109207,0.0741925
-602,-6,-0.013916,-0.0777588,-0.000658074,8.44606e-06,-7.08659e-05,1.58974e-05,-0.000665526,-1.46603,0.000449077,0.0116595,622,1030,-0.0139411,0.0777681
-595,-6,-0.00482178,-0.0578613,-0.000360693,-7.30361e-05,0.000306698,0.000121883,-0.000555613,1.00465,0.000417017,0.0116133,629,1030,-0.00483139,0.0578208
-588,-6,-0.00543213,-0.052124,-0.00023767,-9.47334e-05,0.000410894,0.000250861,-0.000583265,0.871503,0.000494165,0.0129442,636,1030,-0.00544827,0.0521419
-581,-6,-0.0133667,-0.0437012,-0.000234497,-0.000163909,0.000368163,0.000170648,-0.000569054,0.833185,0.000447239,0.02022,643,1030,-0.0133501,0.0437036
-574,-6,-0.0332031,-0.0246582,-0.000165245,-0.00016289,0.000331796,0.000167731,-0.000495866,0.787172,0.000398435,0.0297884,650,1030,-0.0332148,0.024707
-567,-6,-0.0843506,-0.00183105,1.76735e-06,-0.000168589,0.00020763,0.000141012,-0.000307833,0.590747,0.00026504,0.0391329,657,1030,-0.0843457,0.00184311
-560,-6,-0.107361,0.00500488,0.000244919,-0.000171763,-7.41779e-06,0.000245051,-0.000171895,-0.0177945,0.000241956,0.0378227,664,1030,-0.107333,-0.0049953
-553,-6,-0.081543,0.0330811,0.000550168,-0.00018292,-0.000324345,0.000673067,-0.000305818,-0.362197,0.000578266,0.0366553,671,1030,-0.0815473,-0.033104
-546,-6,-0.0109863,-0.0583496,0.000838768,-0.000203853,-0.000752162,0.00123261,-0.0005977,-0.482364,0.00107772,0.0371807,678,1030,-0.0110007,0.0583573
-539,-6,-0.0233154,-0.162231,0.00099454,-0.000247462,-0.00129036,0.00180556,-0.00105848,-0.561126,0.0016722,0.0356491,685,1030,-0.0233286,0.162183
-532,-6,-0.057251,-0.112183,0.00101237,-0.000338719,-0.00191218,0.00236483,-0.00169118,-0.615598,0.00235248,0.0379864,692,1030,-0.0572235,0.112227
-525,-6,0,0,0,0,0,0,0,0,0,-1,699,1030,0,0
-518,-6,0,0,0,0,0,0,0,0,0,-1,706,1030,0,0
-511,-6,0,0,0,0,0,0,0,0,0,-1,713,1030,0,0
-504,-6,0,0,0,0,0,0,0,0,0,-1,720,1030,0,0
-497,-6,0,0,0,0,0,0,0,0,0,-1,727,1030,0,0
-490,-6,0,0,0,0,0,0,0,0,0,-1,734,1030,0,0
-483,-6,0,0,0,0,0,0,0,0,0,-1,741,1030,0,0
-476,-6,0,0,0,0,0,0,0,0,0,-1,748,1030,0,0
-469,-6,0,0,0,0,0,0,0,0,0,-1,755,1030,0,0
-462,-6,0,0,0,0,0,0,0,0,0,-1,762,1030,0,0
-455,-6,0,0,0,0,0,0,0,0,0,-1,769,1030,0,0
-448,-6,0,0,0,0,0,0,0,0,0,-1,776,1030,0,0
-441,-6,0,0,0,0,0,0,0,0,0,-1,783,1030,0,0
-434,-6,0,0,0,0,0,0,0,0,0,-1,790,1030,0,0
-427,-6,0,0,0,0,0,0,0,0,0,-1,797,1030,0,0
-420,-6,0,0,0,0,0,0,0,0,0,-1,804,1030,0,0
-413,-6,0,0,0,0,0,0,0,0,0,-1,811,1030,0,0
-406,-6,0,0,0,0,0,0,0,0,0,-1,818,1030,0,0
-399,-6,0,0,0,0,0,0,0,0,0,-1,825,1030,0,0
-392,-6,0,0,0,0,0,0,0,0,0,-1,832,1030,0,0
-385,-6,0,0,0,0,0,0,0,0,0,-1,839,1030,0,0
-378,-6,0,0,0,0,0,0,0,0,0,-1,846,1030,0,0
-371,-6,0,0,0,0,0,0,0,0,0,-1,853,1030,0,0
-364,-6,0,0,0,0,0,0,0,0,0,-1,860,1030,0,0
-357,-6,0,0,0,0,0,0,0,0,0,-1,867,1030,0,0
-350,-6,0,0,0,0,0,0,0,0,0,-1,874,1030,0,0
-343,-6,0,0,0,0,0,0,0,0,0,-1,881,1030,0,0
-336,-6,0,0,0,0,0,0,0,0,0,-1,888,1030,0,0
-329,-6,0,0,0,0,0,0,0,0,0,-1,895,1030,0,0
-322,-6,0,0,0,0,0,0,0,0,0,-1,902,1030,0,0
-315,-6,0,0,0,0,0,0,0,0,0,-1,909,1030,0,0
-308,-6,0,0,0,0,0,0,0,0,0,-1,916,1030,0,0
-301,-6,0,0,0,0,0,0,0,0,0,-1,923,1030,0,0
-294,-6,0,0,0,0,0,0,0,0,0,-1,930,1030,0,0
-287,-6,0,0,0,0,0,0,0,0,0,-1,937,1030,0,0
-280,-6,0,0,0,0,0,0,0,0,0,-1,944,1030,0,0
-273,-6,0,0,0,0,0,0,0,0,0,-1,951,1030,0,0
-266,-6,0,0,0,0,0,0,0,0,0,-1,958,1030,0,0
-259,-6,0,0,0,0,0,0,0,0,0,-1,965,1030,0,0
-252,-6,0,0,0,0,0,0,0,0,0,-1,972,1030,0,0
-245,-6,0,0,0,0,0,0,0,0,0,-1,979,1030,0,0
-238,-6,0,0,0,0,0,0,0,0,0,-1,986,1030,0,0
-231,-6,0,0,0,0,0,0,0,0,0,-1,993,1030,0,0
-224,-6,0,0,0,0,0,0,0,0,0,-1,1000,1030,0,0
-217,-6,0,0,0,0,0,0,0,0,0,-1,1007,1030,0,0
-210,-6,0,0,0,0,0,0,0,0,0,-1,1014,1030,0,0
-203,-6,0,0,0,0,0,0,0,0,0,-1,1021,1030,0,0
-196,-6,0,0,0,0,0,0,0,0,0,-1,1028,1030,0,0
-189,-6,0,0,0,0,0,0,0,0,0,-1,1035,1030,0,0
-182,-6,0,0,0,0,0,0,0,0,0,-1,1042,1030,0,0
-175,-6,0,0,0,0,0,0,0,0,0,-1,1049,1030,0,0
-168,-6,0,0,0,0,0,0,0,0,0,-1,1056,1030,0,0
-161,-6,0,0,0,0,0,0,0,0,0,-1,1063,1030,0,0
-154,-6,0,0,0,0,0,0,0,0,0,-1,1070,1030,0,0
-147,-6,0,0,0,0,0,0,0,0,0,-1,1077,1030,0,0
-140,-6,0,0,0,0,0,0,0,0,0,-1,1084,1030,0,0
-133,-6,0,0,0,0,0,0,0,0,0,-1,1091,1030,0,0
-126,-6,0,0,0,0,0,0,0,0,0,-1,1098,1030,0,0
-119,-6,0,0,0,0,0,0,0,0,0,-1,1105,1030,0,0
-112,-6,0,0,0,0,0,0,0,0,0,-1,1112,1030,0,0
-105,-6,0,0,0,0,0,0,0,0,0,-1,1119,1030,0,0
-98,-6,0,0,0,0,0,0,0,0,0,-1,1126,1030,0,0
-91,-6,0,0,0,0,0,0,0,0,0,-1,1133,1030,0,0
-84,-6,0,0,0,0,0,0,0,0,0,-1,1140,1030,0,0
-77,-6,0,0,0,0,0,0,0,0,0,-1,1147,1030,0,0
-70,-6,0,0,0,0,0,0,0,0,0,-1,1154,1030,0,0
-63,-6,0,0,0,0,0,0,0,0,0,-1,1161,1030,0,0
-56,-6,0,0,0,0,0,0,0,0,0,-1,1168,1030,0,0
-49,-6,0,0,0,0,0,0,0,0,0,-1,1175,1030,0,0
-42,-6,0,0,0,0,0,0,0,0,0,-1,1182,1030,0,0
-35,-6,0,0,0,0,0,0,0,0,0,-1,1189,1030,0,0
-28,-6,0,0,0,0,0,0,0,0,0,-1,1196,1030,0,0
-21,-6,0,0,0,0,0,0,0,0,0,-1,1203,1030,0,0
-14,-6,0,0,0,0,0,0,0,0,0,-1,1210,1030,0,0
-7,-6,0,0,0,0,0,0,0,0,0,-1,1217,1030,0,0
0,-6,0,0,0,0,0,0,0,0,0,-1,1224,1030,0,0
7,-6,0,0,0,0,0,0,0,0,0,-1,1231,1030,0,0
14,-6,0,0,0,0,0,0,0,0,0,-1,1238,1030,0,0
21,-6,0,0,0,0,0,0,0,0,0,-1,1245,1030,0,0
28,-6,0,0,0,0,0,0,0,0,0,-1,1252,1030,0,0
35,-6,0,0,0,0,0,0,0,0,0,-1,1259,1030,0,0
42,-6,0,0,0,0,0,0,0,0,0,-1,1266,1030,0,0
49,-6,0,0,0,0,0,0,0,0,0,-1,1273,1030,0,0
56,-6,0,0,0,0,0,0,0,0,0,-1,1280,1030,0,0
63,-6,0,0,0,0,0,0,0,0,0,-1,1287,1030,0,0
70,-6,0,0,0,0,0,0,0,0,0,-1,1294,1030,0,0
77,-6,0,0,0,0,0,0,0,0,0,-1,1301,1030,0,0
84,-6,0,0,0,0,0,0,0,0,0,-1,1308,1030,0,0
91,-6,0,0,0,0,0,0,0,0,0,-1,1315,1030,0,0
98,-6,0,0,0,0,0,0,0,0,0,-1,1322,1030,0,0
105,-6,0,0,0,0,0,0,0,0,0,-1,1329,1030,0,0
112,-6,0,0,0,0,0,0,0,0,0,-1,1336,1030,0,0
119,-6,0,0,0,0,0,0,0,0,0,-1,1343,1030,0,0
126,-6,0,0,0,0,0,0,0,0,0,-1,1350,1030,0,0
133,-6,0,0,0,0,0,0,0,0,0,-1,1357,1030,0,0
140,-6,0,0,0,0,0,0,0,0,0,-1,1364,1030,0,0
147,-6,0,0,0,0,0,0,0,0,0,-1,1371,1030,0,0
154,-6,0,0,0,0,0,0,0,0,0,-1,1378,1030,0,0
161,-6,0,0,0,0,0,0,0,0,0,-1,1385,1030,0,0
168,-6,0,0,0,0,0,0,0,0,0,-1,1392,1030,0,0
175,-6,0,0,0,0,0,0,0,0,0,-1,1399,1030,0,0
182,-6,0,0,0,0,0,0,0,0,0,-1,1406,1030,0,0
189,-6,0,0,0,0,0,0,0,0,0,-1,1413,1030,0,0
196,-6,0,0,0,0,0,0,0,0,0,-1,1420,1030,0,0
203,-6,0,0,0,0,0,0,0,0,0,-1,1427,1030,0,0
210,-6,0,0,0,0,0,0,0,0,0,-1,1434,1030,0,0
217,-6,0,0,0,0,0,0,0,0,0,-1,1441,1030,0,0
224,-6,0,0,0,0,0,0,0,0,0,-1,1448,1030,0,0
231,-6,0,0,0,0,0,0,0,0,0,-1,1455,1030,0,0
238,-6,0,0,0,0,0,0,0,0,0,-1,1462,1030,0,0
245,-6,0,0,0,0,0,0,0,0,0,-1,1469,1030,0,0
252,-6,0,0,0,0,0,0,0,0,0,-1,1476,1030,0,0
259,-6,0,0,0,0,0,0,0,0,0,-1,1483,1030,0,0
266,-6,0,0,0,0,0,0,0,0,0,-1,1490,1030,0,0
273,-6,0,0,0,0,0,0,0,0,0,-1,1497,1030,0,0
280,-6,0,0,0,0,0,0,0,0,0,-1,1504,1030,0,0
287,-6,0,0,0,0,0,0,0,0,0,-1,1511,1030,0,0
294,-6,0,0,0,0,0,0,0,0,0,-1,1518,1030,0,0
301,-6,0,0,0,0,0,0,0,0,0,-1,1525,1030,0,0
308,-6,0,0,0,0,0,0,0,0,0,-1,1532,1030,0,0
315,-6,0,0,0,0,0,0,0,0,0,-1,1539,1030,0,0
322,-6,0,0,0,0,0,0,0,0,0,-1,1546,1030,0,0
329,-6,0,0,0,0,0,0,0,0,0,-1,1553,1030,0,0
336,-6,0,0,0,0,0,0,0,0,0,-1,1560,1030,0,0
343,-6,0,0,0,0,0,0,0,0,0,-1,1567,1030,0,0
350,-6,0,0,0,0,0,0,0,0,0,-1,1574,1030,0,0
357,-6,0,0,0,0,0,0,0,0,0,-1,1581,1030,0,0
364,-6,0,0,0,0,0,0,0,0,0,-1,1588,1030,0,0
371,-6,0,0,0,0,0,0,0,0,0,-1,1595,1030,0,0
378,-6,0,0,0,0,0,0,0,0,0,-1,1602,1030,0,0
385,-6,0,0,0,0,0,0,0,0,0,-1,1609,1030,0,0
392,-6,0,0,0,0,0,0,0,0,0,-1,1616,1030,0,0
399,-6,0,0,0,0,0,0,0,0,0,-1,1623,1030,0,0
406,-6,0,0,0,0,0,0,0,0,0,-1,1630,1030,0,0
413,-6,0,0,0,0,0,0,0,0,0,-1,1637,1030,0,0
420,-6,0,0,0,0,0,0,0,0,0,-1,1644,1030,0,0
427,-6,0,0,0,0,0,0,0,0,0,-1,1651,1030,0,0
434,-6,0,0,0,0,0,0,0,0,0,-1,1658,1030,0,0
441,-6,0,0,0,0,0,0,0,0,0,-1,1665,1030,0,0
448,-6,0,0,0,0,0,0,0,0,0,-1,1672,1030,0,0
455,-6,0,0,0,0,0,0,0,0,0,-1,1679,1030,0,0
462,-6,0,0,0,0,0,0,0,0,0,-1,1686,1030,0,0
469,-6,0,0,0,0,0,0,0,0,0,-1,1693,1030,0,0
476,-6,0,0,0,0,0,0,0,0,0,-1,1700,1030,0,0
483,-6,0,0,0,0,0,0,0,0,0,-1,1707,1030,0,0
490,-6,0,0,0,0,0,0,0,0,0,-1,1714,1030,0,0
497,-6,0,0,0,0,0,0,0,0,0,-1,1721,1030,0,0
504,-6,0,0,0,0,0,0,0,0,0,-1,1728,1030,0,0
511,-6,0,0,0,0,0,0,0,0,0,-1,1735,1030,0,0
518,-6,0,0,0,0,0,0,0,0,0,-1,1742,1030,0,0
525,-6,0,0,0,0,0,0,0,0,0,-1,1749,1030,0,0
532,-6,0,0,0,0,0,0,0,0,0,-1,1756,1030,0,0
539,-6,0,0,0,0,0,0,0,0,0,-1,1763,1030,0,0
546,-6,0,0,0,0,0,0,0,0,0,-1,1770,1030,0,0
553,-6,0,0,0,0,0,0,0,0,0,-1,1777,1030,0,0
560,-6,0,0,0,0,0,0,0,0,0,-1,1784,1030,0,0
567,-6,0,0,0,0,0,0,0,0,0,-1,1791,1030,0,0
574,-6,0,0,0,0,0,0,0,0,0,-1,1798,1030,0,0
581,-6,0,0,0,0,0,0,0,0,0,-1,1805,1030,0,0
588,-6,0,0,0,0,0,0,0,0,0,-1,1812,1030,0,0
595,-6,0,0,0,0,0,0,0,0,0,-1,1819,1030,0,0
602,-6,0,0,0,0,0,0,0,0,0,-1,1826,1030,0,0
609,-6,0,0,0,0,0,0,0,0,0,-1,1833,1030,0,0
616,-6,0,0,0,0,0,0,0,0,0,-1,1840,1030,0,0
623,-6,0,0,0,0,0,0,0,0,0,-1,1847,1030,0,0
630,-6,0,0,0,0,0,0,0,0,0,-1,1854,1030,0,0
637,-6,0,0,0,0,0,0,0,0,0,-1,1861,1030,0,0
644,-6,0,0,0,0,0,0,0,0,0,-1,1868,1030,0,0
651,-6,0.0410156,-0.133301,-0.00152688,-0.000981963,-0.000493287,-0.000690894,-0.00181795,-1.03772,0.00105962,0.0329377,1875,1030,0.0409625,0.133259
658,-6,0.0373535,-0.147339,-0.00102299,-0.000543046,-0.000242324,-0.00044198,-0.00112406,-1.17566,0.000653893,0.0375568,1882,1030,0.0373449,0.147374
665,-6,0.0593262,-0.137817,-0.000690039,-0.000283157,-0.000125165,-0.000247737,-0.000725459,-1.29502,0.000425802,0.0387921,1889,1030,0.0593764,0.137781
672,-6,0.0554199,0.0234375,-0.000445111,-0.00015027,-9.30018e-05,-0.000123386,-0.000471995,-1.2894,0.000282659,0.0361834,1896,1030,0.0554401,-0.023483
679,-6,0.0230713,-0.106201,-0.000310989,-9.52105e-05,-9.34052e-05,-6.0395e-05,-0.000345804,-1.21401,0.000213274,0.0343062,1903,1030,0.0230118,0.106147
686,-6,0.0166016,-0.230835,-0.000239999,-8.22149e-05,-0.000102553,-3.17195e-05,-0.000290494,-1.11326,0.000184003,0.0322047,1910,1030,0.0166521,0.230811
693,-6,-0.00793457,-0.083252,-0.000193562,-9.03565e-05,-0.00010945,-2.09543e-05,-0.000262964,-1.00568,0.000168759,0.0313159,1917,1030,-0.0079368,0.0832473
700,-6,-0.0166016,-0.0499268,-0.00013549,-6.90771e-05,-7.12768e-05,-2.36513e-05,-0.000180916,-1.00339,0.000113551,0.0263625,1924,1030,-0.0166301,0.0499024
707,-6,-0.0223389,-0.0388184,-9.47021e-05,-9.72124e-05,-4.70721e-05,-4.88684e-05,-0.000143046,-0.772069,8.39573e-05,0.0208773,1931,1030,-0.0222876,0.0387696
714,-6,-0.0206299,-0.0413818,-9.46813e-05,-0.000121116,-9.07094e-05,-1.62312e-05,-0.000199566,-0.713052,0.000127977,0.0171019,1938,1030,-0.0205735,0.0413614
721,-6,-0.0301514,-0.072876,-8.52018e-05,-0.00015686,-0.000150575,3.37486e-05,-0.00027581,-0.668597,0.000196093,0.0123341,1945,1030,-0.030174,0.0728963
728,-6,-0.0267334,-0.0761719,-2.86892e-05,-0.000173776,-0.000134205,5.13236e-05,-0.000253789,-0.537621,0.000188642,0.0125844,1952,1030,-0.0267864,0.0761644
735,-6,-0.0253906,-0.0904541,-8.54906e-05,-0.000201082,-0.000234756,9.84797e-05,-0.000385053,-0.664701,0.000295058,0.0138015,1959,1030,-0.0253719,0.0904954
742,-6,-0.0332031,-0.085083,-6.16897e-05,-0.000448621,-0.000534757,0.000313522,-0.000823833,-0.611832,0.000678327,0.0109953,1966,1030,-0.0332488,0.0851091
749,-6,-0.0352783,-0.0656738,9.96366e-05,-0.00106352,-0.00102917,0.000700186,-0.00166407,-0.528219,0.00140231,0.0108201,1973,1030,-0.0353355,0.0656666
756,-6,-0.0302734,-0.0533447,-3.11719e-05,-0.00163076,-0.00145967,0.000833456,-0.00249539,-0.534773,0.00200015,0.0111793,1980,1030,-0.0303047,0.0533043
763,-6,-0.0222168,-0.0604248,-0.000525088,-0.00197631,-0.00205854,0.000931983,-0.00343338,-0.615954,0.00265468,0.0102054,1987,1030,-0.0221776,0.0604181
770,-6,-0.0178223,-0.0792236,-0.00095157,-0.00267374,-0.00278856,0.00110583,-0.00473114,-0.635647,0.00358009,0.00975911,1994,1030,-0.0178117,0.0792795
777,-6,-0.0266113,-0.0843506,-0.00158946,-0.00350489,-0.00366693,0.00124276,-0.00633711,-0.657664,0.00469415,0.0133269,2001,1030,-0.0266701,0.0843672
784,-6,0.000732422,0.0288086,-0.00257477,-0.00441551,-0.00466667,0.00126142,-0.00825171,-0.688037,0.00596623,0.0330101,2008,1030,0.000759999,-0.0288277
791,-6,-0.160889,-0.193848,-0.00405318,-0.00530094,-0.00573484,0.00109162,-0.0104457,-0.731218,0.00735475,0.0462788,2015,1030,-0.16094,0.193812
798,-6,-0.469482,-0.740479,-0.00616292,-0.0059924,-0.00680308,0.000725953,-0.0128813,-0.791664,0.00883944,0.0478138,2022,1030,-0.469438,0.740489
805,-6,-0.737061,-1.20728,0,0,0,0,0,0,0,-1,2029,1030,-0.737071,1.20729
812,-6,-0.0821533,-0.0112305,0,0,0,0,0,0,0,-1,2036,1030,-0.0821417,0.0112669
-700,-13,0,0,0,0,0,0,0,0,0,-1,524,1037,0,0
-693,-13,1.98254,1.95288,-0.0324924,0.00516943,-0.0457716,0.0358323,-0.0631553,-0.98055,0.0578717,0.0452597,531,1037,1.98252,-1.95285
-686,-13,1.31372,1.36877,-0.0244691,0.0125669,-0.0380403,0.0363571,-0.0482593,-1.01191,0.0490141,0.0426507,538,1037,1.31372,-1.36883
-679,-13,0.456177,2.66174,-0.018265,0.0156599,-0.0311357,0.0341539,-0.0367589,-1.03482,0.0409507,0.0447293,545,1037,0.456193,-2.66179
-672,-13,0.190857,0.949829,-0.0135272,0.016141,-0.0250814,0.0304468,-0.0278329,-1.05245,0.0336591,0.0451151,552,1037,0.190879,-0.949877
-665,-13,0.130249,1.02222,-0.00993667,0.0150553,-0.0198725,0.0260342,-0.0209155,-1.06606,0.0271601,0.0417495,559,1037,0.130263,-1.0222
-658,-13,0.378357,1.22974,-0.00724928,0.0131149,-0.0154663,0.0214499,-0.0155842,-1.07651,0.0214709,0.0459353,566,1037,0.378351,-1.22978
-651,-13,0.0331421,0.265015,-0.005275,0.0108138,-0.0117975,0.0170485,-0.0115097,-1.08463,0.0165912,0.0397775,573,1037,0.0331339,-0.265029
-644,-13,-0.0186768,-0.0020752,-0.00346033,0.00945958,-0.00898599,0.0140666,-0.0080674,-1.09704,0.0129346,0.0265668,580,1037,-0.0186613,0.00211069
-637,-13,-0.0322876,-0.0629883,-0.00203444,0.00677113,-0.00552817,0.00943554,-0.00469884,-1.12168,0.00831183,0.0187476,587,1037,-0.0322874,0.0629746
-630,-13,-0.0408325,-0.0843506,-0.00124171,0.00500374,-0.00384295,0.00683276,-0.00307072,-1.12658,0.00585367,0.0121129,594,1037,-0.0408247,0.0842932
-623,-13,-0.019104,-0.0805664,-0.00138141,0.0026356,-0.0024365,0.00378473,-0.00253053,-1.1301,0.00367001,0.0103978,601,1037,-0.0190774,0.0805151
-616,-13,0.00256348,-0.0784912,-0.00113207,0.00126059,-0.0012989,0.00183014,-0.00170163,-1.15755,0.00203952,0.0102138,608,1037,0.00255862,0.0784855
-609,-13,0.0192871,-0.092041,-0.000949422,0.000660475,-0.000660789,0.00089696,-0.00118591,-1.22712,0.0012064,0.0150341,615,1037,0.0193096,0.092062
-602,-13,-0.00238037,-0.0869141,-0.000707417,0.000103997,-7.76345e-05,0.000111358,-0.000714778,-1.47626,0.000517646,0.0105998,622,1037,-0.00236869,0.0868999
-595,-13,-0.00396729,-0.0693359,-0.000452901,3.37603e-06,0.00030402,0.000155337,-0.000604861,1.10728,0.000463774,0.0113575,629,1037,-0.00399475,0.0693483
-588,-13,0.0131836,-0.0611572,-0.00036711,-1.62487e-05,0.000427346,0.000270273,-0.000653632,0.980166,0.00054851,0.0120598,636,1037,0.0131672,0.061187
-581,-13,-0.0201416,-0.0428467,-0.000348799,-7.35106e-05,0.000385083,0.000197789,-0.000620098,0.957042,0.000492743,0.0137962,643,1037,-0.0201641,0.0428222
-574,-13,-0.0855103,0.0637207,-0.00026063,-6.00057e-05,0.000338432,0.000192667,-0.000513303,0.929475,0.000421372,0.0310733,650,1037,-0.0855113,-0.0637506
-567,-13,-0.229736,0.041748,-7.44779e-05,-5.49831e-05,0.000215842,0.000151332,-0.000280793,0.807963,0.000253192,0.0395154,657,1037,-0.229741,-0.0417
-560,-13,-0.132324,0.00952148,0.000214659,-5.69625e-05,9.87467e-06,0.000215018,-5.7321e-05,0.0362906,0.000165789,0.0390624,664,1037,-0.132299,-0.0095187
-553,-13,-0.0137329,0.130005,0.00060398,-8.14707e-05,-0.000291993,0.0007115,-0.000188991,-0.35282,0.000548297,0.0383466,671,1037,-0.0137066,-0.130002
-546,-13,0.0679321,0.147949,0.00102856,-0.000135536,-0.000698243,0.00135553,-0.000462512,-0.437954,0.00109104,0.0365089,678,1037,0.0679116,-0.147927
-539,-13,-0.0551147,0.0684814,0.00140895,-0.000241519,-0.0012093,0.00204775,-0.000880323,-0.485987,0.00173474,0.0355616,685,1037,-0.0551241,-0.0684822
-532,-13,-0.132874,-0.255737,0.0017763,-0.000445917,-0.00179212,0.00277381,-0.00144342,-0.507901,0.00247488,0.0370567,692,1037,-0.132851,0.25572
-525,-13,0,0,0,0,0,0,0,0,0,-1,699,1037,0,0
-518,-13,0,0,0,0,0,0,0,0,0,-1,706,1037,0,0
-511,-13,0,0,0,0,0,0,0,0,0,-1,713,1037,0,0
-504,-13,0,0,0,0,0,0,0,0,0,-1,720,1037,0,0
-497,-13,0,0,0,0,0,0,0,0,0,-1,727,1037,0,0
-490,-13,0,0,0,0,0,0,0,0,0,-1,734,1037,0,0
-483,-13,0,0,0,0,0,0,0,0,0,-1,741,1037,0,0
-476,-13,0,0,0,0,0,0,0,0,0,-1,748,1037,0,0
-469,-13,0,0,0,0,0,0,0,0,0,-1,755,1037,0,0
-462,-13,0,0,0,0,0,0,0,0,0,-1,762,1037,0,0
-455,-13,0,0,0,0,0,0,0,0,0,-1,769,1037,0,0
-448,-13,0,0,0,0,0,0,0,0,0,-1,776,1037,0,0
-441,-13,0,0,0,0,0,0,0,0,0,-1,783,1037,0,0
-434,-13,0,0,0,0,0,0,0,0,0,-1,790,1037,0,0
-427,-13,0,0,0,0,0,0,0,0,0,-1,797,1037,0,0
-420,-13,0,0,0,0,0,0,0,0,0,-1,804,1037,0,0
-413,-13,0,0,0,0,0,0,0,0,0,-1,811,1037,0,0
-406,-13,0,0,0,0,0,0,0,0,0,-1,818,1037,0,0
-399,-13,0,0,0,0,0,0,0,0,0,-1,825,1037,0,0
-392,-13,0,0,0,0,0,0,0,0,0,-1,832,1037,0,0
-385,-13,0,0,0,0,0,0,0,0,0,-1,839,1037,0,0
-378,-13,0,0,0,0,0,0,0,0,0,-1,846,1037,0,0
-371,-13,0,0,0,0,0,0,0,0,0,-1,853,1037,0,0
-364,-13,0,0,0,0,0,0,0,0,0,-1,860,1037,0,0
-357,-13,0,0,0,0,0,0,0,0,0,-1,867,1037,0,0
-350,-13,0,0,0,0,0,0,0,0,0,-1,874,1037,0,0
-343,-13,0,0,0,0,0,0,0,0,0,-1,881,1037,0,0
-336,-13,0,0,0,0,0,0,0,0,0,-1,888,1037,0,0
-329,-13,0,0,0,0,0,0,0,0,0,-1,895,1037,0,0
-322,-13,0,0,0,0,0,0,0,0,0,-1,902,1037,0,0
-315,-13,0,0,0,0,0,0,0,0,0,-1,909,1037,0,0
-308,-13,0,0,0,0,0,0,0,0,0,-1,916,1037,0,0
-301,-13,0,0,0,0,0,0,0,0,0,-1,923,1037,0,0
-294,-13,0,0,0,0,0,0,0,0,0,-1,930,1037,0,0
-287,-13,0,0,0,0,0,0,0,0,0,-1,937,1037,0,0
-280,-13,0,0,0,0,0,0,0,0,0,-1,944,1037,0,0
-273,-13,0,0,0,0,0,0,0,0,0,-1,951,1037,0,0
-266,-13,0,0,0,0,0,0,0,0,0,-1,958,1037,0,0
-259,-13,0,0,0,0,0,0,0,0,0,-1,965,1037,0,0
-252,-13,0,0,0,0,0,0,0,0,0,-1,972,1037,0,0
-245,-13,0,0,0,0,0,0,0,0,0,-1,979,1037,0,0
-238,-13,0,0,0,0,0,0,0,0,0,-1,986,1037,0,0
-231,-13,0,0,0,0,0,0,0,0,0,-1,993,1037,0,0
-224,-13,0,0,0,0,0,0,0,0,0,-1,1000,1037,0,0
-217,-13,0,0,0,0,0,0,0,0,0,-1,1007,1037,0,0
-210,-13,0,0,0,0,0,0,0,0,0,-1,1014,1037,0,0
-203,-13,0,0,0,0,0,0,0,0,0,-1,1021,1037,0,0
-196,-13,0,0,0,0,0,0,0,0,0,-1,1028,1037,0,0
-189,-13,0,0,0,0,0,0,0,0,0,-1,1035,1037,0,0
-182,-13,0,0,0,0,0,0,0,0,0,-1,1042,1037,0,0
-175,-13,0,0,0,0,0,0,0,0,0,-1,1049,1037,0,0
-168,-13,0,0,0,0,0,0,0,0,0,-1,1056,1037,0,0
-161,-13,0,0,0,0,0,0,0,0,0,-1,1063,1037,0,0
-154,-13,0,0,0,0,0,0,0,0,0,-1,1070,1037,0,0
-147,-13,0,0,0,0,0,0,0,0,0,-1,1077,1037,0,0
-140,-13,0,0,0,0,0,0,0,0,0,-1,1084,1037,0,0
-133,-13,0,0,0,0,0,0,0,0,0,-1,1091,1037,0,0
-126,-13,0,0,0,0,0,0,0,0,0,-1,1098,1037,0,0
-119,-13,0,0,0,0,0,0,0,0,0,-1,1105,1037,0,0
-112,-13,0,0,0,0,0,0,0,0,0,-1,1112,1037,0,0
-105,-13,0,0,0,0,0,0,0,0,0,-1,1119,1037,0,0
-98,-13,0,0,0,0,0,0,0,0,0,-1,1126,1037,0,0
-91,-13,0,0,0,0,0,0,0,0,0,-1,1133,1037,0,0
-84,-13,0,0,0,0,0,0,0,0,0,-1,1140,1037,0,0
-77,-13,0,0,0,0,0,0,0,0,0,-1,1147,1037,0,0
-70,-13,0,0,0,0,0,0,0,0,0,-1,1154,1037,0,0
-63,-13,0,0,0,0,0,0,0,0,0,-1,1161,1037,0,0
-56,-13,0,0,0,0,0,0,0,0,0,-1,1168,1037,0,0
-49,-13,0,0,0,0,0,0,0,0,0,-1,1175,1037,0,0
-42,-13,0,0,0,0,0,0,0,0,0,-1,1182,1037,0,0
-35,-13,0,0,0,0,0,0,0,0,0,-1,1189,1037,0,0
-28,-13,0,0,0,0,0,0,0,0,0,-1,1196,1037,0,0
-21,-13,0,0,0,0,0,0,0,0,0,-1,1203,1037,0,0
-14,-13,0,0,0,0,0,0,0,0,0,-1,1210,1037,0,0
-7,-13,0,0,0,0,0,0,0,0,0,-1,1217,1037,0,0
0,-13,0,0,0,0,0,0,0,0,0,-1,1224,1037,0,0
7,-13,0,0,0,0,0,0,0,0,0,-1,1231,1037,0,0
14,-13,0,0,0,0,0,0,0,0,0,-1,1238,1037,0,0
21,-13,0,0,0,0,0,0,0,0,0,-1,1245,1037,0,0
28,-13,0,0,0,0,0,0,0,0,0,-1,1252,1037,0,0
35,-13,0,0,0,0,0,0,0,0,0,-1,1259,1037,0,0
42,-13,0,0,0,0,0,0,0,0,0,-1,1266,1037,0,0
49,-13,0,0,0,0,0,0,0,0,0,-1,1273,1037,0,0
56,-13,0,0,0,0,0,0,0,0,0,-1,1280,1037,0,0
63,-13,0,0,0,0,0,0,0,0,0,-1,1287,1037,0,0
70,-13,0,0,0,0,0,0,0,0,0,-1,1294,1037,0,0
77,-13,0,0,0,0,0,0,0,0,0,-1,1301,1037,0,0
84,-13,0,0,0,0,0,0,0,0,0,-1,1308,1037,0,0
91,-13,0,0,0,0,0,0,0,0,0,-1,1315,1037,0,0
98,-13,0,0,0,0,0,0,0,0,0,-1,1322,1037,0,0
105,-13,0,0,0,0,0,0,0,0,0,-1,1329,1037,0,0
112,-13,0,0,0,0,0,0,0,0,0,-1,1336,1037,0,0
119,-13,0,0,0,0,0,0,0,0,0,-1,1343,1037,0,0
126,-13,0,0,0,0,0,0,0,0,0,-1,1350,1037,0,0
133,-13,0,0,0,0,0,0,0,0,0,-1,1357,1037,0,0
140,-13,0,0,0,0,0,0,0,0,0,-1,1364,1037,0,0
147,-13,0,0,0,0,0,0,0,0,0,-1,1371,1037,0,0
154,-13,0,0,0,0,0,0,0,0,0,-1,1378,1037,0,0
161,-13,0,0,0,0,0,0,0,0,0,-1,1385,1037,0,0
168,-13,0,0,0,0,0,0,0,0,0,-1,1392,1037,0,0
175,-13,0,0,0,0,0,0,0,0,0,-1,1399,1037,0,0
182,-13,0,0,0,0,0,0,0,0,0,-1,1406,1037,0,0
189,-13,0,0,0,0,0,0,0,0,0,-1,1413,1037,0,0
196,-13,0,0,0,0,0,0,0,0,0,-1,1420,1037,0,0
203,-13,0,0,0,0,0,0,0,0,0,-1,1427,1037,0,0
210,-13,0,0,0,0,0,0,0,0,0,-1,1434,1037,0,0
217,-13,0,0,0,0,0,0,0,0,0,-1,1441,1037,0,0
224,-13,0,0,0,0,0,0,0,0,0,-1,1448,1037,0,0
231,-13,0,0,0,0,0,0,0,0,0,-1,1455,1037,0,0
238,-13,0,0,0,0,0,0,0,0,0,-1,1462,1037,0,0
245,-13,0,0,0,0,0,0,0,0,0,-1,1469,1037,0,0
252,-13,0,0,0,0,0,0,0,0,0,-1,1476,1037,0,0
259,-13,0,0,0,0,0,0,0,0,0,-1,1483,1037,0,0
266,-13,0,0,0,0,0,0,0,0,0,-1,1490,1037,0,0
273,-13,0,0,0,0,0,0,0,0,0,-1,1497,1037,0,0
280,-13,0,0,0,0,0,0,0,0,0,-1,1504,1037,0,0
287,-13,0,0,0,0,0,0,0,0,0,-1,1511,1037,0,0
294,-13,0,0,0,0,0,0,0,0,0,-1,1518,1037,0,0
301,-13,0,0,0,0,0,0,0,0,0,-1,1525,1037,0,0
308,-13,0,0,0,0,0,0,0,0,0,-1,1532,1037,0,0
315,-13,0,0,0,0,0,0,0,0,0,-1,1539,1037,0,0
322,-13,0,0,0,0,0,0,0,0,0,-1,1546,1037,0,0
329,-13,0,0,0,0,0,0,0,0,0,-1,1553,1037,0,0
336,-13,0,0,0,0,0,0,0,0,0,-1,1560,1037,0,0
343,-13,0,0,0,0,0,0,0,0,0,-1,1567,1037,0,0
350,-13,0,0,0,0,0,0,0,0,0,-1,1574,1037,0,0
357,-13,0,0,0,0,0,0,0,0,0,-1,1581,1037,0,0
364,-13,0,0,0,0,0,0,0,0,0,-1,1588,1037,0,0
371,-13,0,0,0,0,0,0,0,0,0,-1,1595,1037,0,0
378,-13,0,0,0,0,0,0,0,0,0,-1,1602,1037,0,0
385,-13,0,0,0,0,0,0,0,0,0,-1,1609,1037,0,0
392,-13,0,0,0,0,0,0,0,0,0,-1,1616,1037,0,0
399,-13,0,0,0,0,0,0,0,0,0,-1,1623,1037,0,0
406,-13,0,0,0,0,0,0,0,0,0,-1,1630,1037,0,0
413,-13,0,0,0,0,0,0,0,0,0,-1,1637,1037,0,0
420,-13,0,0,0,0,0,0,0,0,0,-1,1644,1037,0,0
427,-13,0,0,0,0,0,0,0,0,0,-1,1651,1037,0,0
434,-13,0,0,0,0,0,0,0,0,0,-1,1658,1037,0,0
441,-13,0,0,0,0,0,0,0,0,0,-1,1665,1037,0,0
448,-13,0,0,0,0,0,0,0,0,0,-1,1672,1037,0,0
455,-13,0,0,0,0,0,0,0,0,0,-1,1679,1037,0,0
462,-13,0,0,0,0,0,0,0,0,0,-1,1686,1037,0,0
469,-13,0,0,0,0,0,0,0,0,0,-1,1693,1037,0,0
476,-13,0,0,0,0,0,0,0,0,0,-1,1700,1037,0,0
483,-13,0,0,0,0,0,0,0,0,0,-1,1707,1037,0,0
490,-13,0,0,0,0,0,0,0,0,0,-1,1714,1037,0,0
497,-13,0,0,0,0,0,0,0,0,0,-1,1721,1037,0,0
504,-13,0,0,0,0,0,0,0,0,0,-1,1728,1037,0,0
511,-13,0,0,0,0,0,0,0,0,0,-1,1735,1037,0,0
518,-13,0,0,0,0,0,0,0,0,0,-1,1742,1037,0,0
525,-13,0,0,0,0,0,0,0,0,0,-1,1749,1037,0,0
532,-13,0,0,0,0,0,0,0,0,0,-1,1756,1037,0,0
539,-13,0,0,0,0,0,0,0,0,0,-1,1763,1037,0,0
546,-13,0,0,0,0,0,0,0,0,0,-1,1770,1037,0,0
553,-13,0,0,0,0,0,0,0,0,0,-1,1777,1037,0,0
560,-13,0,0,0,0,0,0,0,0,0,-1,1784,1037,0,0
567,-13,0,0,0,0,0,0,0,0,0,-1,1791,1037,0,0
574,-13,0,0,0,0,0,0,0,0,0,-1,1798,1037,0,0
581,-13,0,0,0,0,0,0,0,0,0,-1,1805,1037,0,0
588,-13,0,0,0,0,0,0,0,0,0,-1,1812,1037,0,0
595,-13,0,0,0,0,0,0,0,0,0,-1,1819,1037,0,0
602,-13,0,0,0,0,0,0,0,0,0,-1,1826,1037,0,0
609,-13,0,0,0,0,0,0,0,0,0,-1,1833,1037,0,0
616,-13,0,0,0,0,0,0,0,0,0,-1,1840,1037,0,0
623,-13,0,0,0,0,0,0,0,0,0,-1,1847,1037,0,0
630,-13,0,0,0,0,0,0,0,0,0,-1,1854,1037,0,0
637,-13,0,0,0,0,0,0,0,0,0,-1,1861,1037,0,0
644,-13,0,0,0,0,0,0,0,0,0,-1,1868,1037,0,0
651,-13,0.0570068,-0.318848,-0.00197425,-0.000943845,-0.000730753,-0.000564937,-0.00235316,-1.09245,0.00141847,0.0365024,1875,1037,0.0569787,0.318902
658,-13,0.0476074,-0.284302,-0.00132514,-0.000554147,-0.000397771,-0.000385721,-0.00149356,-1.17026,0.000895274,0.039596,1882,1037,0.0476453,0.284341
665,-13,-0.000488281,-0.259521,-0.000890707,-0.000330076,-0.000221358,-0.000253213,-0.000967569,-1.23659,0.000579389,0.0367232,1889,1037,-0.000453944,0.259522
672,-13,0.0153809,-0.0910645,-0.000580673,-0.00022252,-0.000149049,-0.000168607,-0.000634586,-1.22373,0.00037955,0.0317124,1896,1037,0.0153319,0.0911127
679,-13,-0.0198975,-0.0155029,-0.000410702,-0.000184258,-0.000126721,-0.000127546,-0.000467414,-1.15,0.000278988,0.0323476,1903,1037,-0.0199168,0.0155542
686,-13,-0.0672607,-0.0198975,-0.000320736,-0.000179695,-0.000124679,-0.000106975,-0.000393457,-1.04278,0.000234911,0.0336947,1910,1037,-0.0672792,0.0198545
693,-13,-0.03479,0.0352783,-0.000262211,-0.00018995,-0.000127489,-9.35702e-05,-0.000358591,-0.923478,0.000214776,0.0353846,1917,1037,-0.0348339,-0.0352197
700,-13,-0.0200195,-0.0551758,-0.000204116,-0.000174786,-9.17842e-05,-9.65025e-05,-0.000282399,-0.864618,0.000165744,0.0319717,1924,1037,-0.0200118,0.0552013
707,-13,-0.00695801,-0.0499268,-0.000147661,-0.000191674,-6.33512e-05,-0.000102602,-0.000236732,-0.618232,0.000137081,0.0248062,1931,1037,-0.00694402,0.0499608
714,-13,-0.00183105,-0.00952148,-0.000124545,-0.000202923,-0.000103134,-5.34058e-05,-0.000274062,-0.603833,0.000167764,0.0165162,1938,1037,-0.00188479,0.00950819
721,-13,-0.0301514,-0.0397949,-0.00011384,-0.000234506,-0.00016297,-3.93629e-07,-0.000347952,-0.608117,0.000231837,0.0123398,1945,1037,-0.0301721,0.0397395
728,-13,-0.0369873,-0.0706787,-6.06434e-05,-0.00024245,-0.000139309,1.47978e-05,-0.000317891,-0.496323,0.000217028,0.013455,1952,1037,-0.0370331,0.0706984
735,-13,-0.0318604,-0.0656738,-9.58433e-05,-0.000283525,-0.000170297,4.75637e-06,-0.000384125,-0.533576,0.000257683,0.015889,1959,1037,-0.0318604,0.0657292
742,-13,-0.0284424,-0.0751953,-2.95218e-05,-0.000517117,-0.00036551,0.000166038,-0.000712676,-0.491279,0.000539056,0.00947264,1966,1037,-0.028479,0.0751471
749,-13,-0.0325928,-0.0699463,0.000207346,-0.00114423,-0.000791248,0.000572117,-0.001509,-0.431969,0.00124146,0.0139327,1973,1037,-0.0326239,0.069969
756,-13,-0.0286865,-0.0625,0.000173419,-0.0016952,-0.00119355,0.000754855,-0.00227664,-0.453315,0.00182226,0.0115962,1980,1037,-0.0287289,0.062457
763,-13,-0.0339355,-0.0820313,-0.000191412,-0.0020619,-0.00176014,0.000866526,-0.00311984,-0.541194,0.00242099,0.00870642,1987,1037,-0.0339549,0.0820361
770,-13,-0.0239258,-0.0915527,-0.000476034,-0.00276455,-0.00244303,0.00107743,-0.00431802,-0.566383,0.00329704,0.00777904,1994,1037,-0.0238771,0.0916027
777,-13,-0.0212402,-0.071167,-0.000931597,-0.00359343,-0.00330761,0.00130282,-0.00582785,-0.594119,0.00438451,0.010366,2001,1037,-0.0212202,0.0711443
784,-13,-0.0229492,-0.0401611,-0.00168424,-0.00449195,-0.00435661,0.00148911,-0.0076653,-0.629533,0.00567211,0.0244349,2008,1037,-0.0229442,0.0401153
791,-13,-0.222168,-0.202148,-0.00286742,-0.00535219,-0.00556966,0.00159674,-0.00981635,-0.675663,0.00713627,0.0418526,2015,1037,-0.22214,0.202171
798,-13,-0.15271,-0.263184,-0.00459804,-0.00600323,-0.0069165,0.00165146,-0.0122527,-0.734781,0.00877095,0.0441823,2022,1037,-0.152755,0.263138
805,-13,-0.0413818,-0.0878906,-0.00707398,-0.00618938,-0.00832601,0.00170607,-0.0149694,-0.811935,0.0105942,0.0396284,2029,1037,-0.041367,0.0879327
812,-13,-0.0601807,-0.0377197,-0.01066,-0.00550545,-0.00972204,0.00197511,-0.0181406,-0.914967,0.012803,0.0402976,2036,1037,-0.0601712,0.0376991
-700,-20,3.63208,2.81238,-0.0611004,-0.0135896,-0.0515494,0.0194147,-0.0941047,-1.00131,0.0701099,0.0465768,524,1044,3.63207,-2.81239
-693,-20,2.3988,2.48486,-0.0484935,-0.00152402,-0.0436144,0.0245266,-0.0745441,-1.03237,0.0595789,0.0455856,531,1044,2.39882,-2.48488
-686,-20,1.56592,1.96313,-0.0381521,0.00478785,-0.0365438,0.0257019,-0.0590662,-1.05099,0.0501886,0.0443717,538,1044,1.56589,-1.96312
-679,-20,1.01984,1.71326,-0.0295944,0.00779724,-0.0301647,0.02459,-0.0463872,-1.06282,0.0416178,0.0439245,545,1044,1.01982,-1.7133
-672,-20,0.463013,1.47815,-0.0226157,0.00882736,-0.0244938,0.022211,-0.0359993,-1.07071,0.0339206,0.044311,552,1044,0.46299,-1.47813
-665,-20,0.285217,1.31213,-0.0169888,0.00866909,-0.0195401,0.0192153,-0.027535,-1.07588,0.0271334,0.0446815,559,1044,0.285227,-1.31218
-658,-20,0.310364,0.985352,-0.0125376,0.00784176,-0.0152869,0.0160238,-0.0207197,-1.07936,0.0212715,0.0449282,566,1044,0.310352,-0.985343
-651,-20,0.123352,0.342651,-0.00909675,0.00668533,-0.0116949,0.0129024,-0.0153139,-1.08218,0.0163105,0.038024,573,1044,0.12335,-0.342669
-644,-20,-0.00775146,-0.0313721,-0.00614073,0.00643664,-0.00891224,0.0110556,-0.0107596,-1.09264,0.0125954,0.0244495,580,1044,-0.0077419,0.0313231
-637,-20,-0.0247803,-0.0899658,-0.00375504,0.00428647,-0.00557996,0.00714339,-0.00661196,-1.0976,0.00794363,0.0162453,587,1044,-0.0247674,0.0899098
-630,-20,-0.0340576,-0.0672607,-0.00206381,0.00320108,-0.00384467,0.00522817,-0.0040909,-1.08559,0.0053937,0.0132305,594,1044,-0.0340772,0.0673052
-623,-20,-0.0223999,-0.0740967,-0.00170729,0.00209207,-0.00223654,0.00312683,-0.00274205,-1.13747,0.00339082,0.0122739,601,1044,-0.0224038,0.0740804
-616,-20,-0.00720215,-0.0700684,-0.00130892,0.00141986,-0.00124721,0.00190401,-0.00179307,-1.20052,0.00213483,0.0123139,608,1044,-0.00719821,0.0701231
-609,-20,-0.00750732,-0.0671387,-0.00102789,0.000744661,-0.000606806,0.000932489,-0.00121571,-1.27061,0.00124385,0.0137775,615,1044,-0.00749234,0.0670933
-602,-20,-0.00292969,-0.0830078,-0.00076399,0.000180528,-7.10564e-05,0.000185843,-0.000769306,-1.49613,0.000584747,0.0104632,622,1044,-0.00291305,0.083037
-595,-20,-0.0223389,-0.0869141,-0.000533997,9.86972e-05,0.000292518,0.000213212,-0.000648512,1.19766,0.000518244,0.00964823,629,1044,-0.0223182,0.0869564
-588,-20,-0.026123,-0.081543,-0.000471443,0.000104358,0.000411494,0.000318666,-0.000685751,1.09064,0.00059267,0.0105557,636,1044,-0.0260999,0.0815075
-581,-20,-0.0123901,-0.015625,-0.000434216,7.44353e-05,0.000359749,0.000260679,-0.00062046,1.09309,0.00052267,0.0182064,643,1044,-0.0123944,0.0156474
-574,-20,-0.106934,0.074585,-0.000326895,0.000104419,0.000293988,0.000253367,-0.000475843,1.10185,0.000427491,0.0333659,650,1044,-0.106921,-0.0745642
-567,-20,-0.206848,0.0301514,-0.000121015,0.000128285,0.000164153,0.000209751,-0.000202482,1.11013,0.000238015,0.0388337,657,1044,-0.206831,-0.0301016
-560,-20,-0.140442,-0.0270996,0.000208097,0.000138058,-3.96071e-05,0.000225946,0.000120209,-0.423399,0.000130539,0.0395749,664,1044,-0.140457,0.0271483
-553,-20,0.022644,0.0498047,0.000666143,0.000114518,-0.00033151,0.000821575,-4.09132e-05,-0.438426,0.000561851,0.0388903,671,1044,0.022635,-0.049769
-546,-20,0.0310059,0.0560303,0.00120341,4.45456e-05,-0.000716827,0.0015457,-0.000297751,-0.445499,0.00114272,0.03747,678,1044,0.0310186,-0.056047
-539,-20,-0.0500488,-0.00317383,0.00178241,-0.000106427,-0.00119406,0.00236039,-0.000684412,-0.450806,0.00184455,0.0385776,685,1044,-0.0500637,0.00317347
-532,-20,-0.10144,-0.151978,0.00246386,-0.000399088,-0.00172183,0.00327154,-0.00120677,-0.438609,0.00267559,0.0386953,692,1044,-0.101461,0.151959
-525,-20,0,0,0,0,0,0,0,0,0,-1,699,1044,0,0
-518,-20,0,0,0,0,0,0,0,0,0,-1,706,1044,0,0
-511,-20,0,0,0,0,0,0,0,0,0,-1,713,1044,0,0
-504,-20,0,0,0,0,0,0,0,0,0,-1,720,1044,0,0
-497,-20,0,0,0,0,0,0,0,0,0,-1,727,1044,0,0
-490,-20,0,0,0,0,0,0,0,0,0,-1,734,1044,0,0
-483,-20,0,0,0,0,0,0,0,0,0,-1,741,1044,0,0
-476,-20,0,0,0,0,0,0,0,0,0,-1,748,1044,0,0
-469,-20,0,0,0,0,0,0,0,0,0,-1,755,1044,0,0
-462,-20,0,0,0,0,0,0,0,0,0,-1,762,1044,0,0
-455,-20,0,0,0,0,0,0,0,0,0,-1,769,1044,0,0
-448,-20,0,0,0,0,0,0,0,0,0,-1,776,1044,0,0
-441,-20,0,0,0,0,0,0,0,0,0,-1,783,1044,0,0
-434,-20,0,0,0,0,0,0,0,0,0,-1,790,1044,0,0
-427,-20,0,0,0,0,0,0,0,0,0,-1,797,1044,0,0
-420,-20,0,0,0,0,0,0,0,0,0,-1,804,1044,0,0
-413,-20,0,0,0,0,0,0,0,0,0,-1,811,1044,0,0
-406,-20,0,0,0,0,0,0,0,0,0,-1,818,1044,0,0
-399,-20,0,0,0,0,0,0,0,0,0,-1,825,1044,0,0
-392,-20,0,0,0,0,0,0,0,0,0,-1,832,1044,0,0
-385,-20,0,0,0,0,0,0,0,0,0,-1,839,1044,0,0
-378,-20,0,0,0,0,0,0,0,0,0,-1,846,1044,0,0
-371,-20,0,0,0,0,0,0,0,0,0,-1,853,1044,0,0
-364,-20,0,0,0,0,0,0,0,0,0,-1,860,1044,0,0
-357,-20,0,0,0,0,0,0,0,0,0,-1,867,1044,0,0
-350,-20,0,0,0,0,0,0,0,0,0,-1,874,1044,0,0
-343,-20,0,0,0,0,0,0,0,0,0,-1,881,1044,0,0
-336,-20,0,0,0,0,0,0,0,0,0,-1,888,1044,0,0
-329,-20,0,0,0,0,0,0,0,0,0,-1,895,1044,0,0
-322,-20,0,0,0,0,0,0,0,0,0,-1,902,1044,0,0
-315,-20,0,0,0,0,0,0,0,0,0,-1,909,1044,0,0
-308,-20,0,0,0,0,0,0,0,0,0,-1,916,1044,0,0
-301,-20,0,0,0,0,0,0,0,0,0,-1,923,1044,0,0
-294,-20,0,0,0,0,0,0,0,0,0,-1,930,1044,0,0
-287,-20,0,0,0,0,0,0,0,0,0,-1,937,1044,0,0
-280,-20,0,0,0,0,0,0,0,0,0,-1,944,1044,0,0
-273,-20,0,0,0,0,0,0,0,0,0,-1,951,1044,0,0
-266,-20,0,0,0,0,0,0,0,0,0,-1,958,1044,0,0
-259,-20,0,0,0,0,0,0,0,0,0,-1,965,1044,0,0
-252,-20,0,0,0,0,0,0,0,0,0,-1,972,1044,0,0
-245,-20,0,0,0,0,0,0,0,0,0,-1,979,1044,0,0
-238,-20,0,0,0,0,0,0,0,0,0,-1,986,1044,0,0
-231,-20,0,0,0,0,0,0,0,0,0,-1,993,1044,0,0
-224,-20,0,0,0,0,0,0,0,0,0,-1,1000,1044,0,0
-217,-20,0,0,0,0,0,0,0,0,0,-1,1007,1044,0,0
-210,-20,0,0,0,0,0,0,0,0,0,-1,1014,1044,0,0
-203,-20,0,0,0,0,0,0,0,0,0,-1,1021,1044,0,0
-196,-20,0,0,0,0,0,0,0,0,0,-1,1028,1044,0,0
-189,-20,0,0,0,0,0,0,0,0,0,-1,1035,1044,0,0
-182,-20,0,0,0,0,0,0,0,0,0,-1,1042,1044,0,0
-175,-20,0,0,0,0,0,0,0,0,0,-1,1049,1044,0,0
-168,-20,0,0,0,0,0,0,0,0,0,-1,1056,1044,0,0
-161,-20,0,0,0,0,0,0,0,0,0,-1,1063,1044,0,0
-154,-20,0,0,0,0,0,0,0,0,0,-1,1070,1044,0,0
-147,-20,0,0,0,0,0,0,0,0,0,-1,1077,1044,0,0
-140,-20,0,0,0,0,0,0,0,0,0,-1,1084,1044,0,0
-133,-20,0,0,0,0,0,0,0,0,0,-1,1091,1044,0,0
-126,-20,0,0,0,0,0,0,0,0,0,-1,1098,1044,0,0
-119,-20,0,0,0,0,0,0,0,0,0,-1,1105,1044,0,0
-112,-20,0,0,0,0,0,0,0,0,0,-1,1112,1044,0,0
-105,-20,0,0,0,0,0,0,0,0,0,-1,1119,1044,0,0
-98,-20,0,0,0,0,0,0,0,0,0,-1,1126,1044,0,0
-91,-20,0,0,0,0,0,0,0,0,0,-1,1133,1044,0,0
-84,-20,0,0,0,0,0,0,0,0,0,-1,1140,1044,0,0
-77,-20,0,0,0,0,0,0,0,0,0,-1,1147,1044,0,0
-70,-20,0,0,0,0,0,0,0,0,0,-1,1154,1044,0,0
-63,-20,0,0,0,0,0,0,0,0,0,-1,1161,1044,0,0
-56,-20,0,0,0,0,0,0,0,0,0,-1,1168,1044,0,0
-49,-20,0,0,0,0,0,0,0,0,0,-1,1175,1044,0,0
-42,-20,0,0,0,0,0,0,0,0,0,-1,1182,1044,0,0
-35,-20,0,0,0,0,0,0,0,0,0,-1,1189,1044,0,0
-28,-20,0,0,0,0,0,0,0,0,0,-1,1196,1044,0,0
-21,-20,0,0,0,0,0,0,0,0,0,-1,1203,1044,0,0
-14,-20,0,0,0,0,0,0,0,0,0,-1,1210,1044,0,0
-7,-20,0,0,0,0,0,0,0,0,0,-1,1217,1044,0,0
0,-20,0,0,0,0,0,0,0,0,0,-1,1224,1044,0,0
7,-20,0,0,0,0,0,0,0,0,0,-1,1231,1044,0,0
14,-20,0,0,0,0,0,0,0,0,0,-1,1238,1044,0,0
21,-20,0,0,0,0,0,0,0,0,0,-1,1245,1044,0,0
28,-20,0,0,0,0,0,0,0,0,0,-1,1252,1044,0,0
35,-20,0,0,0,0,0,0,0,0,0,-1,1259,1044,0,0
42,-20,0,0,0,0,0,0,0,0,0,-1,1266,1044,0,0
49,-20,0,0,0,0,0,0,0,0,0,-1,1273,1044,0,0
56,-20,0,0,0,0,0,0,0,0,0,-1,1280,1044,0,0
63,-20,0,0,0,0,0,0,0,0,0,-1,1287,1044,0,0
70,-20,0,0,0,0,0,0,0,0,0,-1,1294,1044,0,0
77,-20,0,0,0,0,0,0,0,0,0,-1,1301,1044,0,0
84,-20,0,0,0,0,0,0,0,0,0,-1,1308,1044,0,0
91,-20,0,0,0,0,0,0,0,0,0,-1,1315,1044,0,0
98,-20,0,0,0,0,0,0,0,0,0,-1,1322,1044,0,0
105,-20,0,0,0,0,0,0,0,0,0,-1,1329,1044,0,0
112,-20,0,0,0,0,0,0,0,0,0,-1,1336,1044,0,0
119,-20,0,0,0,0,0,0,0,0,0,-1,1343,1044,0,0
126,-20,0,0,0,0,0,0,0,0,0,-1,1350,1044,0,0
133,-20,0,0,0,0,0,0,0,0,0,-1,1357,1044,0,0
140,-20,0,0,0,0,0,0,0,0,0,-1,1364,1044,0,0
147,-20,0,0,0,0,0,0,0,0,0,-1,1371,1044,0,0
154,-20,0,0,0,0,0,0,0,0,0,-1,1378,1044,0,0
161,-20,0,0,0,0,0,0,0,0,0,-1,1385,1044,0,0
168,-20,0,0,0,0,0,0,0,0,0,-1,1392,1044,0,0
175,-20,0,0,0,0,0,0,0,0,0,-1,1399,1044,0,0
182,-20,0,0,0,0,0,0,0,0,0,-1,1406,1044,0,0
189,-20,0,0,0,0,0,0,0,0,0,-1,1413,1044,0,0
196,-20,0,0,0,0,0,0,0,0,0,-1,1420,1044,0,0
203,-20,0,0,0,0,0,0,0,0,0,-1,1427,1044,0,0
210,-20,0,0,0,0,0,0,0,0,0,-1,1434,1044,0,0
217,-20,0,0,0,0,0,0,0,0,0,-1,1441,1044,0,0
224,-20,0,0,0,0,0,0,0,0,0,-1,1448,1044,0,0
231,-20,0,0,0,0,0,0,0,0,0,-1,1455,1044,0,0
238,-20,0,0,0,0,0,0,0,0,0,-1,1462,1044,0,0
245,-20,0,0,0,0,0,0,0,0,0,-1,1469,1044,0,0
252,-20,0,0,0,0,0,0,0,0,0,-1,1476,1044,0,0
259,-20,0,0,0,0,0,0,0,0,0,-1,1483,1044,0,0
266,-20,0,0,0,0,0,0,0,0,0,-1,1490,1044,0,0
273,-20,0,0,0,0,0,0,0,0,0,-1,1497,1044,0,0
280,-20,0,0,0,0,0,0,0,0,0,-1,1504,1044,0,0
287,-20,0,0,0,0,0,0,0,0,0,-1,1511,1044,0,0
294,-20,0,0,0,0,0,0,0,0,0,-1,1518,1044,0,0
301,-20,0,0,0,0,0,0,0,0,0,-1,1525,1044,0,0
308,-20,0,0,0,0,0,0,0,0,0,-1,1532,1044,0,0
315,-20,0,0,0,0,0,0,0,0,0,-1,1539,1044,0,0
322,-20,0,0,0,0,0,0,0,0,0,-1,1546,1044,0,0
329,-20,0,0,0,0,0,0,0,0,0,-1,1553,1044,0,0
336,-20,0,0,0,0,0,0,0,0,0,-1,1560,1044,0,0
343,-20,0,0,0,0,0,0,0,0,0,-1,1567,1044,0,0
350,-20,0,0,0,0,0,0,0,0,0,-1,1574,1044,0,0
357,-20,0,0,0,0,0,0,0,0,0,-1,1581,1044,0,0
364,-20,0,0,0,0,0,0,0,0,0,-1,1588,1044,0,0
371,-20,0,0,0,0,0,0,0,0,0,-1,1595,1044,0,0
378,-20,0,0,0,0,0,0,0,0,0,-1,1602,1044,0,0
385,-20,0,0,0,0,0,0,0,0,0,-1,1609,1044,0,0
392,-20,0,0,0,0,0,0,0,0,0,-1,1616,1044,0,0
399,-20,0,0,0,0,0,0,0,0,0,-1,1623,1044,0,0
406,-20,0,0,0,0,0,0,0,0,0,-1,1630,1044,0,0
413,-20,0,0,0,0,0,0,0,0,0,-1,1637,1044,0,0
420,-20,0,0,0,0,0,0,0,0,0,-1,1644,1044,0,0
427,-20,0,0,0,0,0,0,0,0,0,-1,1651,1044,0,0
434,-20,0,0,0,0,0,0,0,0,0,-1,1658,1044,0,0
441,-20,0,0,0,0,0,0,0,0,0,-1,1665,1044,0,0
448,-20,0,0,0,0,0,0,0,0,0,-1,1672,1044,0,0
455,-20,0,0,0,0,0,0,0,0,0,-1,1679,1044,0,0
462,-20,0,0,0,0,0,0,0,0,0,-1,1686,1044,0,0
469,-20,0,0,0,0,0,0,0,0,0,-1,1693,1044,0,0
476,-20,0,0,0,0,0,0,0,0,0,-1,1700,1044,0,0
483,-20,0,0,0,0,0,0,0,0,0,-1,1707,1044,0,0
490,-20,0,0,0,0,0,0,0,0,0,-1,1714,1044,0,0
497,-20,0,0,0,0,0,0,0,0,0,-1,1721,1044,0,0
504,-20,0,0,0,0,0,0,0,0,0,-1,1728,1044,0,0
511,-20,0,0,0,0,0,0,0,0,0,-1,1735,1044,0,0
518,-20,0,0,0,0,0,0,0,0,0,-1,1742,1044,0,0
525,-20,0,0,0,0,0,0,0,0,0,-1,1749,1044,0,0
532,-20,0,0,0,0,0,0,0,0,0,-1,1756,1044,0,0
539,-20,0,0,0,0,0,0,0,0,0,-1,1763,1044,0,0
546,-20,0,0,0,0,0,0,0,0,0,-1,1770,1044,0,0
553,-20,0,0,0,0,0,0,0,0,0,-1,1777,1044,0,0
560,-20,0,0,0,0,0,0,0,0,0,-1,1784,1044,0,0
567,-20,0,0,0,0,0,0,0,0,0,-1,1791,1044,0,0
574,-20,0,0,0,0,0,0,0,0,0,-1,1798,1044,0,0
581,-20,0,0,0,0,0,0,0,0,0,-1,1805,1044,0,0
588,-20,0,0,0,0,0,0,0,0,0,-1,1812,1044,0,0
595,-20,0,0,0,0,0,0,0,0,0,-1,1819,1044,0,0
602,-20,0,0,0,0,0,0,0,0,0,-1,1826,1044,0,0
609,-20,0,0,0,0,0,0,0,0,0,-1,1833,1044,0,0
616,-20,0,0,0,0,0,0,0,0,0,-1,1840,1044,0,0
623,-20,0,0,0,0,0,0,0,0,0,-1,1847,1044,0,0
630,-20,0,0,0,0,0,0,0,0,0,-1,1854,1044,0,0
637,-20,0,0,0,0,0,0,0,0,0,-1,1861,1044,0,0
644,-20,0,0,0,0,0,0,0,0,0,-1,1868,1044,0,0
651,-20,0.0466309,-0.206787,-0.00261052,-0.000944757,-0.000910417,-0.000543722,-0.00301156,-1.15587,0.00185324,0.0386812,1875,1044,0.0466732,0.206821
658,-20,-0.0151367,-0.180908,-0.0017515,-0.00052623,-0.000462826,-0.000371056,-0.00190667,-1.2473,0.00116726,0.0403868,1882,1044,-0.0151524,0.180901
665,-20,-0.0662842,-0.184326,-0.00116167,-0.000299246,-0.000210911,-0.00025043,-0.00121048,-1.34335,0.000737818,0.0342459,1889,1044,-0.0663429,0.184358
672,-20,-0.0469971,-0.123169,-0.000746018,-0.000199921,-9.38773e-05,-0.000184233,-0.000761705,-1.40522,0.00045889,0.0221762,1896,1044,-0.047034,0.123108
679,-20,-0.0720215,-0.0385742,-0.000510801,-0.000174719,-5.36903e-05,-0.00016635,-0.00051917,-1.41617,0.00030612,0.025406,1903,1044,-0.0720082,0.0385911
686,-20,-0.0515137,-0.000610352,-0.000382352,-0.000184433,-5.36135e-05,-0.000170843,-0.000395942,-1.32254,0.000229312,0.0331596,1910,1044,-0.0515652,0.000600576
693,-20,0.00195313,-0.0941162,-0.000300975,-0.000207617,-6.91917e-05,-0.000170831,-0.000337761,-1.08215,0.000195011,0.0385985,1917,1044,0.00190745,0.0941746
700,-20,0.00354004,-0.113037,-0.000239874,-0.000203859,-5.48245e-05,-0.00016416,-0.000279572,-0.944077,0.000162227,0.0348033,1924,1044,0.0035725,0.113006
707,-20,-0.0115967,-0.0480957,-0.000169286,-0.00021981,-3.81261e-05,-0.000148813,-0.000240284,-0.492811,0.000140039,0.0240284,1931,1044,-0.0115358,0.0481435
714,-20,-0.012207,-0.0480957,-0.000124446,-0.000236102,-8.82134e-05,-7.58786e-05,-0.000284669,-0.503278,0.00017022,0.0151846,1938,1044,-0.0121856,0.0481441
721,-20,-0.0246582,-0.0541992,-0.000115752,-0.000279144,-0.000162102,-1.59225e-05,-0.000378973,-0.551986,0.000247512,0.00933785,1945,1044,-0.0246487,0.0541894
728,-20,-0.0452881,-0.0612793,-7.82445e-05,-0.000287395,-0.000149112,-6.91973e-07,-0.000364947,-0.479593,0.000243068,0.0105769,1952,1044,-0.0452897,0.0612951
735,-20,-0.0401611,-0.0610352,-0.000114293,-0.000316632,-0.000119553,-5.88481e-05,-0.000372077,-0.434246,0.000230948,0.013875,1959,1044,-0.0401288,0.0609908
742,-20,-0.0266113,-0.0697021,-8.13217e-06,-0.000523839,-0.0002043,6.29932e-05,-0.000594964,-0.335018,0.000419221,0.0130739,1966,1044,-0.0265788,0.069703
749,-20,-0.0357666,-0.0791016,0.000343547,-0.00110677,-0.000514436,0.000507489,-0.00127071,-0.308508,0.0010577,0.0144401,1973,1044,-0.0357281,0.0791265
756,-20,-0.0349121,-0.0792236,0.000440137,-0.00166422,-0.000838393,0.000733315,-0.0019574,-0.336399,0.00160617,0.0113182,1980,1044,-0.0348962,0.0791956
763,-20,-0.0252686,-0.0900879,0.000248166,-0.00204507,-0.00130929,0.000841943,-0.00263885,-0.425769,0.002097,0.0108067,1987,1044,-0.0252584,0.0900739
770,-20,-0.020874,-0.0963135,0.000170027,-0.00275287,-0.00186427,0.00107741,-0.00366025,-0.452967,0.00286758,0.0107696,1994,1044,-0.0208572,0.0962569
777,-20,-0.0157471,-0.0598145,-1.35793e-05,-0.00360293,-0.00261134,0.00136033,-0.00497684,-0.484335,0.00385225,0.0121654,2001,1044,-0.0157843,0.05984
784,-20,-0.0130615,-0.0645752,-0.000414248,-0.00454925,-0.00357989,0.00165227,-0.00661577,-0.523531,0.00505215,0.0164229,2008,1044,-0.0131125,0.0645404
791,-20,-0.0810547,-0.198975,-0.00114944,-0.00550178,-0.00478461,0.00193065,-0.00858187,-0.571968,0.00646166,0.0339424,2015,1044,-0.0810448,0.198952
798,-20,-0.116333,-0.365601,-0.00231413,-0.00631239,-0.00623639,0.00223571,-0.0108622,-0.630293,0.00809036,0.0425097,2022,1044,-0.116361,0.365581
805,-20,-0.0438232,-0.304321,-0.00409507,-0.00675646,-0.00791971,0.00260496,-0.0134565,-0.702164,0.00995359,0.0420951,2029,1044,-0.0438031,0.304321
812,-20,-0.0452881,-0.353394,-0.00684595,-0.00647279,-0.00984264,0.00318504,-0.0165038,-0.794875,0.0122035,0.043553,2036,1044,-0.0452977,0.353419
-700,-27,2.93604,4.33069,-0.0699255,-0.00795344,-0.0412557,0.0126568,-0.0905357,-1.10749,0.0649882,0.048219,524,1051,2.93601,-4.3307
-693,-27,2.53632,3.51038,-0.0577818,0.00223393,-0.0351979,0.0184793,-0.0740272,-1.13838,0.0565272,0.0458458,531,1051,2.53629,-3.51042
-686,-27,1.81458,2.65503,-0.0471212,0.00727204,-0.029854,0.02046,-0.0603092,-1.15482,0.0484871,0.0446254,538,1051,1.8146,-2.65498
-679,-27,0.824219,1.52991,0,0,0,0,0,0,0,-1,545,1051,0.82423,-1.5299
-672,-27,0.602844,1.10046,-0.0297435,0.00979831,-0.020631,0.0186023,-0.0385475,-1.16745,0.0336586,0.0463477,552,1051,0.60286,-1.10049
-665,-27,0.364197,0.672119,-0.0229392,0.00921091,-0.0167397,0.0163442,-0.0300724,-1.16797,0.0271865,0.047404,559,1051,0.364216,-0.672066
-658,-27,0.234802,0.414551,-0.0173073,0.008098,-0.0133219,0.0138027,-0.023012,-1.1662,0.0214755,0.0456136,566,1051,0.23483,-0.414591
-651,-27,0.0830688,0.135498,-0.012762,0.00676068,-0.0103577,0.0112319,-0.0172332,-1.16328,0.0165557,0.0337641,573,1051,0.083077,-0.135498
-644,-27,-0.0285645,-0.0762939,-0.00889115,0.00643101,-0.00799992,0.00984653,-0.0123067,-1.16728,0.0128164,0.0146907,580,1051,-0.0285369,0.0763169
-637,-27,-0.0268555,-0.0878906,-0.00568535,0.00405908,-0.00513497,0.00626545,-0.00789172,-1.16497,0.0081916,0.0116035,587,1051,-0.0268483,0.0878882
-630,-27,-0.0423584,-0.0484619,-0.00331151,0.00292801,-0.00365495,0.00461362,-0.00499712,-1.13868,0.00555023,0.0157616,594,1051,-0.042362,0.0485166
-623,-27,-0.0450439,-0.0456543,-0.00241702,0.00206273,-0.00217903,0.00294779,-0.00330208,-1.18498,0.00361029,0.0145805,601,1051,-0.0450454,0.0456272
-616,-27,-0.00128174,-0.0480957,-0.0015527,0.00144993,-0.00123388,0.00189191,-0.00199468,-1.22683,0.00224419,0.0137078,608,1051,-0.00128151,0.0481293
-609,-27,-0.00946045,-0.0681152,-0.00109952,0.000726093,-0.000539949,0.000873834,-0.00124726,-1.30371,0.00123092,0.0139887,615,1051,-0.00946893,0.068153
-602,-27,-0.000793457,-0.0638428,-0.000815165,0.000196185,-8.26777e-05,0.000202899,-0.000821879,-1.48976,0.0006266,0.0119906,622,1051,-0.000808846,0.06384
-595,-27,-0.0164795,-0.0767822,-0.000593497,0.000145231,0.000249882,0.000221817,-0.000670083,1.2734,0.000536179,0.0103717,629,1051,-0.0164828,0.0767308
-588,-27,-0.0283203,-0.0742188,-0.000534693,0.000177249,0.000365224,0.000331282,-0.000688725,1.17168,0.000600834,0.0120338,636,1051,-0.0283505,0.0742153
-581,-27,0.00500488,-0.027832,-0.000473182,0.000177917,0.000311961,0.000303257,-0.000598523,1.18875,0.000529864,0.0165345,643,1051,0.00498388,0.0278928
-574,-27,-0.00244141,0.0531006,-0.000349435,0.000219467,0.000237252,0.000305423,-0.000435391,1.22321,0.000429897,0.0290918,650,1051,-0.00247158,-0.0531588
-567,-27,-0.0454102,0.0534668,-0.000124866,0.000257532,0.000110497,0.000287164,-0.000154499,1.30878,0.0002588,0.0376659,657,1051,-0.045392,-0.0534576
-560,-27,-0.0413818,-0.0968018,0.000236909,0.000274769,-7.69325e-05,0.000335066,0.000176612,-0.90603,0.000193545,0.0422648,664,1051,-0.0413711,0.0968357
-553,-27,-0.0402832,-0.0717773,0.000745752,0.000251502,-0.000339113,0.000918232,7.90221e-05,-0.470521,0.000587588,0.040597,671,1051,-0.0402656,0.0718132
-546,-27,-0.0561523,-0.0878906,0.00136376,0.000168167,-0.000677186,0.00166925,-0.000137332,-0.423793,0.00116132,0.0408825,678,1051,-0.0561238,0.087951
-539,-27,0.0712891,-0.106445,0.00209267,-1.85451e-05,-0.00108423,0.0025503,-0.000476169,-0.399387,0.00187914,0.0420753,685,1051,0.0712776,0.106475
-532,-27,0.113831,-0.0675049,0.00301207,-0.000372986,-0.00150912,0.00358716,-0.000948076,-0.364087,0.00276225,0.0415629,692,1051,0.11385,0.0675304
-525,-27,0,0,0,0,0,0,0,0,0,-1,699,1051,0,0
-518,-27,0,0,0,0,0,0,0,0,0,-1,706,1051,0,0
-511,-27,0,0,0,0,0,0,0,0,0,-1,713,1051,0,0
-504,-27,0,0,0,0,0,0,0,0,0,-1,720,1051,0,0
-497,-27,0,0,0,0,0,0,0,0,0,-1,727,1051,0,0
-490,-27,0,0,0,0,0,0,0,0,0,-1,734,1051,0,0
-483,-27,0,0,0,0,0,0,0,0,0,-1,741,1051,0,0
-476,-27,0,0,0,0,0,0,0,0,0,-1,748,1051,0,0
-469,-27,0,0,0,0,0,0,0,0,0,-1,755,1051,0,0
-462,-27,0,0,0,0,0,0,0,0,0,-1,762,1051,0,0
-455,-27,0,0,0,0,0,0,0,0,0,-1,769,1051,0,0
-448,-27,0,0,0,0,0,0,0,0,0,-1,776,1051,0,0
-441,-27,0,0,0,0,0,0,0,0,0,-1,783,1051,0,0
-434,-27,0,0,0,0,0,0,0,0,0,-1,790,1051,0,0
-427,-27,0,0,0,0,0,0,0,0,0,-1,797,1051,0,0
-420,-27,0,0,0,0,0,0,0,0,0,-1,804,1051,0,0
-413,-27,0,0,0,0,0,0,0,0,0,-1,811,1051,0,0
-406,-27,0,0,0,0,0,0,0,0,0,-1,818,1051,0,0
-399,-27,0,0,0,0,0,0,0,0,0,-1,825,1051,0,0
-392,-27,0,0,0,0,0,0,0,0,0,-1,832,1051,0,0
-385,-27,0,0,0,0,0,0,0,0,0,-1,839,1051,0,0
-378,-27,0,0,0,0,0,0,0,0,0,-1,846,1051,0,0
-371,-27,0,0,0,0,0,0,0,0,0,-1,853,1051,0,0
-364,-27,0,0,0,0,0,0,0,0,0,-1,860,1051,0,0
-357,-27,0,0,0,0,0,0,0,0,0,-1,867,1051,0,0
-350,-27,0,0,0,0,0,0,0,0,0,-1,874,1051,0,0
-343,-27,0,0,0,0,0,0,0,0,0,-1,881,1051,0,0
-336,-27,0,0,0,0,0,0,0,0,0,-1,888,1051,0,0
-329,-27,0,0,0,0,0,0,0,0,0,-1,895,1051,0,0
-322,-27,0,0,0,0,0,0,0,0,0,-1,902,1051,0,0
-315,-27,0,0,0,0,0,0,0,0,0,-1,909,1051,0,0
-308,-27,0,0,0,0,0,0,0,0,0,-1,916,1051,0,0
-301,-27,0,0,0,0,0,0,0,0,0,-1,923,1051,0,0
-294,-27,0,0,0,0,0,0,0,0,0,-1,930,1051,0,0
-287,-27,0,0,0,0,0,0,0,0,0,-1,937,1051,0,0
-280,-27,0,0,0,0,0,0,0,0,0,-1,944,1051,0,0
-273,-27,0,0,0,0,0,0,0,0,0,-1,951,1051,0,0
-266,-27,0,0,0,0,0,0,0,0,0,-1,958,1051,0,0
-259,-27,0,0,0,0,0,0,0,0,0,-1,965,1051,0,0
-252,-27,0,0,0,0,0,0,0,0,0,-1,972,1051,0,0
-245,-27,0,0,0,0,0,0,0,0,0,-1,979,1051,0,0
-238,-27,0,0,0,0,0,0,0,0,0,-1,986,1051,0,0
-231,-27,0,0,0,0,0,0,0,0,0,-1,993,1051,0,0
-224,-27,0,0,0,0,0,0,0,0,0,-1,1000,1051,0,0
-217,-27,0,0,0,0,0,0,0,0,0,-1,1007,1051,0,0
-210,-27,0,0,0,0,0,0,0,0,0,-1,1014,1051,0,0
-203,-27,0,0,0,0,0,0,0,0,0,-1,1021,1051,0,0
-196,-27,0,0,0,0,0,0,0,0,0,-1,1028,1051,0,0
-189,-27,0,0,0,0,0,0,0,0,0,-1,1035,1051,0,0
-182,-27,0,0,0,0,0,0,0,0,0,-1,1042,1051,0,0
-175,-27,0,0,0,0,0,0,0,0,0,-1,1049,1051,0,0
-168,-27,0,0,0,0,0,0,0,0,0,-1,1056,1051,0,0
-161,-27,0,0,0,0,0,0,0,0,0,-1,1063,1051,0,0
-154,-27,0,0,0,0,0,0,0,0,0,-1,1070,1051,0,0
-147,-27,0,0,0,0,0,0,0,0,0,-1,1077,1051,0,0
-140,-27,0,0,0,0,0,0,0,0,0,-1,1084,1051,0,0
-133,-27,0,0,0,0,0,0,0,0,0,-1,1091,1051,0,0
-126,-27,0,0,0,0,0,0,0,0,0,-1,1098,1051,0,0
-119,-27,0,0,0,0,0,0,0,0,0,-1,1105,1051,0,0
-112,-27,0,0,0,0,0,0,0,0,0,-1,1112,1051,0,0
-105,-27,0,0,0,0,0,0,0,0,0,-1,1119,1051,0,0
-98,-27,0,0,0,0,0,0,0,0,0,-1,1126,1051,0,0
-91,-27,0,0,0,0,0,0,0,0,0,-1,1133,1051,0,0
-84,-27,0,0,0,0,0,0,0,0,0,-1,1140,1051,0,0
-77,-27,0,0,0,0,0,0,0,0,0,-1,1147,1051,0,0
-70,-27,0,0,0,0,0,0,0,0,0,-1,1154,1051,0,0
-63,-27,0,0,0,0,0,0,0,0,0,-1,1161,1051,0,0
-56,-27,0,0,0,0,0,0,0,0,0,-1,1168,1051,0,0
-49,-27,0,0,0,0,0,0,0,0,0,-1,1175,1051,0,0
-42,-27,0,0,0,0,0,0,0,0,0,-1,1182,1051,0,0
-35,-27,0,0,0,0,0,0,0,0,0,-1,1189,1051,0,0
-28,-27,0,0,0,0,0,0,0,0,0,-1,1196,1051,0,0
-21,-27,0,0,0,0,0,0,0,0,0,-1,1203,1051,0,0
-14,-27,0,0,0,0,0,0,0,0,0,-1,1210,1051,0,0
-7,-27,0,0,0,0,0,0,0,0,0,-1,1217,1051,0,0
0,-27,0,0,0,0,0,0,0,0,0,-1,1224,1051,0,0
7,-27,0,0,0,0,0,0,0,0,0,-1,1231,1051,0,0
14,-27,0,0,0,0,0,0,0,0,0,-1,1238,1051,0,0
21,-27,0,0,0,0,0,0,0,0,0,-1,1245,1051,0,0
28,-27,0,0,0,0,0,0,0,0,0,-1,1252,1051,0,0
35,-27,0,0,0,0,0,0,0,0,0,-1,1259,1051,0,0
42,-27,0,0,0,0,0,0,0,0,0,-1,1266,1051,0,0
49,-27,0,0,0,0,0,0,0,0,0,-1,1273,1051,0,0
56,-27,0,0,0,0,0,0,0,0,0,-1,1280,1051,0,0
63,-27,0,0,0,0,0,0,0,0,0,-1,1287,1051,0,0
70,-27,0,0,0,0,0,0,0,0,0,-1,1294,1051,0,0
77,-27,0,0,0,0,0,0,0,0,0,-1,1301,1051,0,0
84,-27,0,0,0,0,0,0,0,0,0,-1,1308,1051,0,0
91,-27,0,0,0,0,0,0,0,0,0,-1,1315,1051,0,0
98,-27,0,0,0,0,0,0,0,0,0,-1,1322,1051,0,0
105,-27,0,0,0,0,0,0,0,0,0,-1,1329,1051,0,0
112,-27,0,0,0,0,0,0,0,0,0,-1,1336,1051,0,0
119,-27,0,0,0,0,0,0,0,0,0,-1,1343,1051,0,0
126,-27,0,0,0,0,0,0,0,0,0,-1,1350,1051,0,0
133,-27,0,0,0,0,0,0,0,0,0,-1,1357,1051,0,0
140,-27,0,0,0,0,0,0,0,0,0,-1,1364,1051,0,0
147,-27,0,0,0,0,0,0,0,0,0,-1,1371,1051,0,0
154,-27,0,0,0,0,0,0,0,0,0,-1,1378,1051,0,0
161,-27,0,0,0,0,0,0,0,0,0,-1,1385,1051,0,0
168,-27,0,0,0,0,0,0,0,0,0,-1,1392,1051,0,0
175,-27,0,0,0,0,0,0,0,0,0,-1,1399,1051,0,0
182,-27,0,0,0,0,0,0,0,0,0,-1,1406,1051,0,0
189,-27,0,0,0,0,0,0,0,0,0,-1,1413,1051,0,0
196,-27,0,0,0,0,0,0,0,0,0,-1,1420,1051,0,0
203,-27,0,0,0,0,0,0,0,0,0,-1,1427,1051,0,0
210,-27,0,0,0,0,0,0,0,0,0,-1,1434,1051,0,0
217,-27,0,0,0,0,0,0,0,0,0,-1,1441,1051,0,0
224,-27,0,0,0,0,0,0,0,0,0,-1,1448,1051,0,0
231,-27,0,0,0,0,0,0,0,0,0,-1,1455,1051,0,0
238,-27,0,0,0,0,0,0,0,0,0,-1,1462,1051,0,0
245,-27,0,0,0,0,0,0,0,0,0,-1,1469,1051,0,0
252,-27,0,0,0,0,0,0,0,0,0,-1,1476,1051,0,0
259,-27,0,0,0,0,0,0,0,0,0,-1,1483,1051,0,0
266,-27,0,0,0,0,0,0,0,0,0,-1,1490,1051,0,0
273,-27,0,0,0,0,0,0,0,0,0,-1,1497,1051,0,0
280,-27,0,0,0,0,0,0,0,0,0,-1,1504,1051,0,0
287,-27,0,0,0,0,0,0,0,0,0,-1,1511,1051,0,0
294,-27,0,0,0,0,0,0,0,0,0,-1,1518,1051,0,0
301,-27,0,0,0,0,0,0,0,0,0,-1,1525,1051,0,0
308,-27,0,0,0,0,0,0,0,0,0,-1,1532,1051,0,0
315,-27,0,0,0,0,0,0,0,0,0,-1,1539,1051,0,0
322,-27,0,0,0,0,0,0,0,0,0,-1,1546,1051,0,0
329,-27,0,0,0,0,0,0,0,0,0,-1,1553,1051,0,0
336,-27,0,0,0,0,0,0,0,0,0,-1,1560,1051,0,0
343,-27,0,0,0,0,0,0,0,0,0,-1,1567,1051,0,0
350,-27,0,0,0,0,0,0,0,0,0,-1,1574,1051,0,0
357,-27,0,0,0,0,0,0,0,0,0,-1,1581,1051,0,0
364,-27,0,0,0,0,0,0,0,0,0,-1,1588,1051,0,0
371,-27,0,0,0,0,0,0,0,0,0,-1,1595,1051,0,0
378,-27,0,0,0,0,0,0,0,0,0,-1,1602,1051,0,0
385,-27,0,0,0,0,0,0,0,0,0,-1,1609,1051,0,0
392,-27,0,0,0,0,0,0,0,0,0,-1,1616,1051,0,0
399,-27,0,0,0,0,0,0,0,0,0,-1,1623,1051,0,0
406,-27,0,0,0,0,0,0,0,0,0,-1,1630,1051,0,0
413,-27,0,0,0,0,0,0,0,0,0,-1,1637,1051,0,0
420,-27,0,0,0,0,0,0,0,0,0,-1,1644,1051,0,0
427,-27,0,0,0,0,0,0,0,0,0,-1,1651,1051,0,0
434,-27,0,0,0,0,0,0,0,0,0,-1,1658,1051,0,0
441,-27,0,0,0,0,0,0,0,0,0,-1,1665,1051,0,0
448,-27,0,0,0,0,0,0,0,0,0,-1,1672,1051,0,0
455,-27,0,0,0,0,0,0,0,0,0,-1,1679,1051,0,0
462,-27,0,0,0,0,0,0,0,0,0,-1,1686,1051,0,0
469,-27,0,0,0,0,0,0,0,0,0,-1,1693,1051,0,0
476,-27,0,0,0,0,0,0,0,0,0,-1,1700,1051,0,0
483,-27,0,0,0,0,0,0,0,0,0,-1,1707,1051,0,0
490,-27,0,0,0,0,0,0,0,0,0,-1,1714,1051,0,0
497,-27,0,0,0,0,0,0,0,0,0,-1,1721,1051,0,0
504,-27,0,0,0,0,0,0,0,0,0,-1,1728,1051,0,0
511,-27,0,0,0,0,0,0,0,0,0,-1,1735,1051,0,0
518,-27,0,0,0,0,0,0,0,0,0,-1,1742,1051,0,0
525,-27,0,0,0,0,0,0,0,0,0,-1,1749,1051,0,0
532,-27,0,0,0,0,0,0,0,0,0,-1,1756,1051,0,0
539,-27,0,0,0,0,0,0,0,0,0,-1,1763,1051,0,0
546,-27,0,0,0,0,0,0,0,0,0,-1,1770,1051,0,0
553,-27,0,0,0,0,0,0,0,0,0,-1,1777,1051,0,0
560,-27,0,0,0,0,0,0,0,0,0,-1,1784,1051,0,0
567,-27,0,0,0,0,0,0,0,0,0,-1,1791,1051,0,0
574,-27,0,0,0,0,0,0,0,0,0,-1,1798,1051,0,0
581,-27,0,0,0,0,0,0,0,0,0,-1,1805,1051,0,0
588,-27,0,0,0,0,0,0,0,0,0,-1,1812,1051,0,0
595,-27,0,0,0,0,0,0,0,0,0,-1,1819,1051,0,0
602,-27,0,0,0,0,0,0,0,0,0,-1,1826,1051,0,0
609,-27,0,0,0,0,0,0,0,0,0,-1,1833,1051,0,0
616,-27,0,0,0,0,0,0,0,0,0,-1,1840,1051,0,0
623,-27,0,0,0,0,0,0,0,0,0,-1,1847,1051,0,0
630,-27,0,0,0,0,0,0,0,0,0,-1,1854,1051,0,0
637,-27,0,0,0,0,0,0,0,0,0,-1,1861,1051,0,0
644,-27,0,0,0,0,0,0,0,0,0,-1,1868,1051,0,0
651,-27,0.039917,0.0842285,-0.00314425,-0.00107001,-0.00127419,-0.000464211,-0.00375004,-1.12699,0.00236056,0.0358863,1875,1051,0.0398946,-0.0842872
658,-27,-0.0202637,0.0440674,-0.00209382,-0.000559108,-0.000664055,-0.000311672,-0.00234126,-1.21412,0.00146802,0.0351917,1882,1051,-0.0202118,-0.0440193
665,-27,-0.0979004,-0.0389404,-0.00136181,-0.000274789,-0.000295547,-0.000199631,-0.00143697,-1.32177,0.000898854,0.0315377,1889,1051,-0.0979353,0.0388992
672,-27,-0.0467529,-0.0697021,-0.000848511,-0.000139759,-0.000100403,-0.00012581,-0.00086246,-1.43275,0.000537963,0.0249339,1896,1051,-0.0467673,0.0696563
679,-27,-0.0395508,-0.0307617,-0.000552295,-9.26408e-05,-1.52082e-05,-9.21382e-05,-0.000552798,-1.53776,0.000341982,0.0251022,1903,1051,-0.0396026,0.0308164
686,-27,0.0197754,-0.0411377,-0.000389198,-9.26681e-05,4.30993e-06,-9.26055e-05,-0.000389261,1.55627,0.000234807,0.034739,1910,1051,0.0197683,0.0411608
693,-27,-0.00695801,-0.21167,-0.000289213,-0.000115668,-7.94854e-06,-0.000115305,-0.000289576,-1.52512,0.000168338,0.0379434,1917,1051,-0.0069546,0.211621
700,-27,-0.0319824,-0.182495,-0.000229533,-0.000122083,-3.58202e-06,-0.000121964,-0.000229653,-1.53751,0.000132675,0.0335625,1924,1051,-0.0320011,0.182461
707,-27,-0.0482178,-0.0662842,-0.000157424,-0.000134639,8.00815e-06,-0.000132106,-0.000159957,1.26445,9.86735e-05,0.0192093,1931,1051,-0.0482314,0.0662709
714,-27,-0.0250244,-0.0693359,-9.90818e-05,-0.00015759,-4.40089e-05,-7.54909e-05,-0.000181181,-0.492069,0.000105088,0.0123388,1938,1051,-0.0250333,0.0692804
721,-27,-0.0195313,-0.0666504,-9.34012e-05,-0.000217551,-0.000129172,-1.21624e-05,-0.00029879,-0.561411,0.000195265,0.00931502,1945,1051,-0.0195103,0.0666709
728,-27,-0.0394287,-0.071167,-8.07794e-05,-0.000244577,-0.000133871,-5.74211e-06,-0.000319615,-0.510883,0.000211188,0.0120562,1952,1051,-0.0394846,0.0711069
735,-27,-0.0739746,-0.0699463,-0.000136534,-0.000274627,-5.75906e-05,-0.000115669,-0.000295492,-0.347591,0.000171937,0.015477,1959,1051,-0.0739818,0.0698915
742,-27,-0.0593262,-0.0755615,-1.65419e-05,-0.000453848,-5.24467e-05,-1.03399e-05,-0.00046005,-0.117708,0.000303312,0.0159731,1966,1051,-0.0592823,0.0755062
749,-27,-0.0386963,-0.0737305,0.0004052,-0.000951077,-0.000262953,0.000454396,-0.00100027,-0.184954,0.000859339,0.0112191,1973,1051,-0.038756,0.073713
756,-27,-0.027832,-0.0675049,0.000598311,-0.00150358,-0.000516529,0.000718386,-0.00162365,-0.228408,0.00138544,0.0108107,1980,1051,-0.0278261,0.0674638
763,-27,-0.0170898,-0.0817871,0.000542336,-0.00188063,-0.000896026,0.000837688,-0.00217598,-0.318409,0.00179622,0.0121546,1987,1051,-0.017093,0.0817871
770,-27,-0.0335693,-0.0955811,0.00062195,-0.00255602,-0.00133171,0.00110621,-0.00304028,-0.34877,0.00247926,0.0142921,1994,1051,-0.0336241,0.0955305
777,-27,-0.0535889,-0.0544434,0.000653824,-0.00338333,-0.00196296,0.00145089,-0.0041804,-0.385714,0.00337613,0.0154225,2001,1051,-0.053627,0.0543996
784,-27,-0.0491943,-0.029541,0.000540545,-0.00433117,-0.00283933,0.0018457,-0.00563632,-0.430867,0.00450075,0.0226433,2008,1051,-0.0492539,0.0294892
791,-27,-0.0106201,0.130371,0.000179972,-0.00533459,-0.00400138,0.00228207,-0.00743669,-0.483717,0.00586831,0.0404654,2015,1051,-0.0106117,-0.130355
798,-27,0.202637,-0.0439453,-0.000502718,-0.0062831,-0.00549067,0.00281198,-0.0095978,-0.543133,0.00751336,0.0435205,2022,1051,0.202599,0.0439993
805,-27,0.21521,-0.149048,-0.00168454,-0.00700141,-0.00733338,0.00345739,-0.0121433,-0.61151,0.00946099,0.0437111,2029,1051,0.21525,0.149023
812,-27,0.200562,-0.209717,0,0,0,0,0,0,0,-1,2036,1051,0.200606,0.209718
-700,-34,3.41498,5.02405,0,0,0,0,0,0,0,-1,524,1058,3.41497,-5.02406
-693,-34,2.99164,4.19958,0,0,0,0,0,0,0,-1,531,1058,2.99162,-4.19956
-686,-34,0.778015,1.85327,-0.0533388,0.0161736,-0.0225897,0.0228696,-0.0600348,-1.28263,0.0494421,0.0455005,538,1058,0.778017,-1.85325
-679,-34,0.631714,0.980957,-0.0431764,0.0167386,-0.0189877,0.0222492,-0.048687,-1.28834,0.0418924,0.0485844,545,1058,0.631704,-0.980938
-672,-34,0.393005,0.550049,-0.0342564,0.0157539,-0.0157462,0.0202987,-0.0388012,-1.2898,0.0346742,0.0483904,552,1058,0.392982,-0.550033
-665,-34,0.14209,0.350464,-0.0265642,0.0139254,-0.0128587,0.0176639,-0.0303027,-1.28786,0.0280121,0.0463313,559,1058,0.142112,-0.350426
-658,-34,0.0897217,0.219971,-0.0201036,0.0117173,-0.0103129,0.0147673,-0.0231536,-1.28325,0.0220714,0.0419254,566,1058,0.0897448,-0.219996
-651,-34,0.00848389,-0.0478516,-0.0148251,0.00943474,-0.00808631,0.011883,-0.0172733,-1.2768,0.016929,0.0256729,573,1058,0.00850825,0.0478686
-644,-34,-0.0332031,-0.0765381,-0.0103996,0.00833299,-0.00629126,0.0102498,-0.0123163,-1.27506,0.0130467,0.00979983,580,1058,-0.0332144,0.0765553
-637,-34,-0.0293579,-0.0772705,-0.00667357,0.00527983,-0.00404753,0.0065214,-0.00791514,-1.27316,0.00834788,0.0104891,587,1058,-0.0293637,0.0773056
-630,-34,-0.0285645,-0.0510254,-0.00389121,0.0036675,-0.00295886,0.00468798,-0.00491168,-1.23868,0.00554287,0.013819,594,1058,-0.0285822,0.0509817
-623,-34,-0.0308228,-0.0550537,-0.0026352,0.00238273,-0.00175904,0.00293793,-0.0031904,-1.26506,0.0035392,0.0117678,601,1058,-0.0307961,0.0551117
-616,-34,-0.00720215,-0.0396729,-0.00157584,0.00144311,-0.00105398,0.00177467,-0.00190739,-1.26602,0.00212629,0.0190082,608,1058,-0.00719792,0.0397165
-609,-34,-0.0119629,-0.0706787,-0.00111291,0.000740101,-0.000466605,0.000850964,-0.00122377,-1.33753,0.00120428,0.0190754,615,1058,-0.0119524,0.0707028
-602,-34,-0.0133057,-0.0961914,-0.000816946,0.000243309,-0.000100409,0.000252734,-0.000826371,-1.4772,0.000651704,0.0151514,622,1058,-0.0133142,0.0962177
-595,-34,-0.0266113,-0.0773926,-0.00061401,0.000215473,0.000182598,0.00025389,-0.000652427,1.36343,0.000539862,0.0129513,629,1058,-0.0266396,0.077431
-588,-34,-0.0184937,-0.0722656,-0.000559341,0.000276555,0.00028732,0.000365788,-0.000648575,1.26967,0.00059318,0.0166186,636,1058,-0.0185168,0.0722796
-581,-34,0.0140991,-0.0275879,-0.000477227,0.00032026,0.000239589,0.000386704,-0.000543671,1.30027,0.000539695,0.0191985,643,1058,0.0141252,0.0275616
-574,-34,0.0410156,0.00244141,-0.000340865,0.000398157,0.000168608,0.000434808,-0.000377515,1.35676,0.000469383,0.0322924,650,1058,0.0410323,-0.00246139
-567,-34,-6.10352e-05,-0.0594482,-0.000101451,0.000472468,5.83971e-05,0.00047835,-0.000107333,1.47042,0.00036005,0.0379838,657,1058,-6.41731e-05,0.0594273
-560,-34,0.0115356,-0.09021,0.000280818,0.000525399,-9.45359e-05,0.000557679,0.000248538,-1.24175,0.000322609,0.0397604,664,1058,0.0115588,0.0901865
-553,-34,-0.0949707,-0.0964355,0.000816898,0.000540095,-0.00030103,0.00100982,0.000347175,-0.569928,0.000592426,0.0418778,671,1058,-0.0949903,0.0964209
-546,-34,-0.15564,-0.0650635,0.0014733,0.000496881,-0.000554302,0.00172374,0.000246443,-0.424356,0.00107645,0.0434909,678,1058,-0.155627,0.0650873
-539,-34,0.0491333,-0.0372314,0.00227587,0.000354228,-0.000839889,0.00259121,3.88868e-05,-0.35917,0.00171466,0.0417646,685,1058,0.0491047,0.0372904
-532,-34,0.181091,-0.0512695,0.00330424,6.17782e-05,-0.00109415,0.00363891,-0.000272895,-0.296837,0.00252183,0.0395438,692,1058,0.181103,0.0512462
-525,-34,0,0,0,0,0,0,0,0,0,-1,699,1058,0,0
-518,-34,0,0,0,0,0,0,0,0,0,-1,706,1058,0,0
-511,-34,0,0,0,0,0,0,0,0,0,-1,713,1058,0,0
-504,-34,0,0,0,0,0,0,0,0,0,-1,720,1058,0,0
-497,-34,0,0,0,0,0,0,0,0,0,-1,727,1058,0,0
-490,-34,0,0,0,0,0,0,0,0,0,-1,734,1058,0,0
-483,-34,0,0,0,0,0,0,0,0,0,-1,741,1058,0,0
-476,-34,0,0,0,0,0,0,0,0,0,-1,748,1058,0,0
-469,-34,0,0,0,0,0,0,0,0,0,-1,755,1058,0,0
-462,-34,0,0,0,0,0,0,0,0,0,-1,762,1058,0,0
-455,-34,0,0,0,0,0,0,0,0,0,-1,769,1058,0,0
-448,-34,0,0,0,0,0,0,0,0,0,-1,776,1058,0,0
-441,-34,0,0,0,0,0,0,0,0,0,-1,783,1058,0,0
-434,-34,0,0,0,0,0,0,0,0,0,-1,790,1058,0,0
-427,-34,0,0,0,0,0,0,0,0,0,-1,797,1058,0,0
-420,-34,0,0,0,0,0,0,0,0,0,-1,804,1058,0,0
-413,-34,0,0,0,0,0,0,0,0,0,-1,811,1058,0,0
-406,-34,0,0,0,0,0,0,0,0,0,-1,818,1058,0,0
-399,-34,0,0,0,0,0,0,0,0,0,-1,825,1058,0,0
-392,-34,0,0,0,0,0,0,0,0,0,-1,832,1058,0,0
-385,-34,0,0,0,0,0,0,0,0,0,-1,839,1058,0,0
-378,-34,0,0,0,0,0,0,0,0,0,-1,846,1058,0,0
-371,-34,0,0,0,0,0,0,0,0,0,-1,853,1058,0,0
-364,-34,0,0,0,0,0,0,0,0,0,-1,860,1058,0,0
-357,-34,0,0,0,0,0,0,0,0,0,-1,867,1058,0,0
-350,-34,0,0,0,0,0,0,0,0,0,-1,874,1058,0,0
-343,-34,0,0,0,0,0,0,0,0,0,-1,881,1058,0,0
-336,-34,0,0,0,0,0,0,0,0,0,-1,888,1058,0,0
-329,-34,0,0,0,0,0,0,0,0,0,-1,895,1058,0,0
-322,-34,0,0,0,0,0,0,0,0,0,-1,902,1058,0,0
-315,-34,0,0,0,0,0,0,0,0,0,-1,909,1058,0,0
-308,-34,0,0,0,0,0,0,0,0,0,-1,916,1058,0,0
-301,-34,0,0,0,0,0,0,0,0,0,-1,923,1058,0,0
-294,-34,0,0,0,0,0,0,0,0,0,-1,930,1058,0,0
-287,-34,0,0,0,0,0,0,0,0,0,-1,937,1058,0,0
-280,-34,0,0,0,0,0,0,0,0,0,-1,944,1058,0,0
-273,-34,0,0,0,0,0,0,0,0,0,-1,951,1058,0,0
-266,-34,0,0,0,0,0,0,0,0,0,-1,958,1058,0,0
-259,-34,0,0,0,0,0,0,0,0,0,-1,965,1058,0,0
-252,-34,0,0,0,0,0,0,0,0,0,-1,972,1058,0,0
-245,-34,0,0,0,0,0,0,0,0,0,-1,979,1058,0,0
-238,-34,0,0,0,0,0,0,0,0,0,-1,986,1058,0,0
-231,-34,0,0,0,0,0,0,0,0,0,-1,993,1058,0,0
-224,-34,0,0,0,0,0,0,0,0,0,-1,1000,1058,0,0
-217,-34,0,0,0,0,0,0,0,0,0,-1,1007,1058,0,0
-210,-34,0,0,0,0,0,0,0,0,0,-1,1014,1058,0,0
-203,-34,0,0,0,0,0,0,0,0,0,-1,1021,1058,0,0
-196,-34,0,0,0,0,0,0,0,0,0,-1,1028,1058,0,0
-189,-34,0,0,0,0,0,0,0,0,0,-1,1035,1058,0,0
-182,-34,0,0,0,0,0,0,0,0,0,-1,1042,1058,0,0
-175,-34,0,0,0,0,0,0,0,0,0,-1,1049,1058,0,0
-168,-34,0,0,0,0,0,0,0,0,0,-1,1056,1058,0,0
-161,-34,0,0,0,0,0,0,0,0,0,-1,1063,1058,0,0
-154,-34,0,0,0,0,0,0,0,0,0,-1,1070,1058,0,0
-147,-34,0,0,0,0,0,0,0,0,0,-1,1077,1058,0,0
-140,-34,0,0,0,0,0,0,0,0,0,-1,1084,1058,0,0
-133,-34,0,0,0,0,0,0,0,0,0,-1,1091,1058,0,0
-126,-34,0,0,0,0,0,0,0,0,0,-1,1098,1058,0,0
-119,-34,0,0,0,0,0,0,0,0,0,-1,1105,1058,0,0
-112,-34,0,0,0,0,0,0,0,0,0,-1,1112,1058,0,0
-105,-34,0,0,0,0,0,0,0,0,0,-1,1119,1058,0,0
-98,-34,0,0,0,0,0,0,0,0,0,-1,1126,1058,0,0
-91,-34,0,0,0,0,0,0,0,0,0,-1,1133,1058,0,0
-84,-34,0,0,0,0,0,0,0,0,0,-1,1140,1058,0,0
-77,-34,0,0,0,0,0,0,0,0,0,-1,1147,1058,0,0
-70,-34,0,0,0,0,0,0,0,0,0,-1,1154,1058,0,0
-63,-34,0,0,0,0,0,0,0,0,0,-1,1161,1058,0,0
-56,-34,0,0,0,0,0,0,0,0,0,-1,1168,1058,0,0
-49,-34,0,0,0,0,0,0,0,0,0,-1,1175,1058,0,0
-42,-34,0,0,0,0,0,0,0,0,0,-1,1182,1058,0,0
-35,-34,0,0,0,0,0,0,0,0,0,-1,1189,1058,0,0
-28,-34,0,0,0,0,0,0,0,0,0,-1,1196,1058,0,0
-21,-34,0,0,0,0,0,0,0,0,0,-1,1203,1058,0,0
-14,-34,0,0,0,0,0,0,0,0,0,-1,1210,1058,0,0
-7,-34,0,0,0,0,0,0,0,0,0,-1,1217,1058,0,0
0,-34,0,0,0,0,0,0,0,0,0,-1,1224,1058,0,0
7,-34,0,0,0,0,0,0,0,0,0,-1,1231,1058,0,0
14,-34,0,0,0,0,0,0,0,0,0,-1,1238,1058,0,0
21,-34,0,0,0,0,0,0,0,0,0,-1,1245,1058,0,0
28,-34,0,0,0,0,0,0,0,0,0,-1,1252,1058,0,0
35,-34,0,0,0,0,0,0,0,0,0,-1,1259,1058,0,0
42,-34,0,0,0,0,0,0,0,0,0,-1,1266,1058,0,0
49,-34,0,0,0,0,0,0,0,0,0,-1,1273,1058,0,0
56,-34,0,0,0,0,0,0,0,0,0,-1,1280,1058,0,0
63,-34,0,0,0,0,0,0,0,0,0,-1,1287,1058,0,0
70,-34,0,0,0,0,0,0,0,0,0,-1,1294,1058,0,0
77,-34,0,0,0,0,0,0,0,0,0,-1,1301,1058,0,0
84,-34,0,0,0,0,0,0,0,0,0,-1,1308,1058,0,0
91,-34,0,0,0,0,0,0,0,0,0,-1,1315,1058,0,0
98,-34,0,0,0,0,0,0,0,0,0,-1,1322,1058,0,0
105,-34,0,0,0,0,0,0,0,0,0,-1,1329,1058,0,0
112,-34,0,0,0,0,0,0,0,0,0,-1,1336,1058,0,0
119,-34,0,0,0,0,0,0,0,0,0,-1,1343,1058,0,0
126,-34,0,0,0,0,0,0,0,0,0,-1,1350,1058,0,0
133,-34,0,0,0,0,0,0,0,0,0,-1,1357,1058,0,0
140,-34,0,0,0,0,0,0,0,0,0,-1,1364,1058,0,0
147,-34,0,0,0,0,0,0,0,0,0,-1,1371,1058,0,0
154,-34,0,0,0,0,0,0,0,0,0,-1,1378,1058,0,0
161,-34,0,0,0,0,0,0,0,0,0,-1,1385,1058,0,0
168,-34,0,0,0,0,0,0,0,0,0,-1,1392,1058,0,0
175,-34,0,0,0,0,0,0,0,0,0,-1,1399,1058,0,0
182,-34,0,0,0,0,0,0,0,0,0,-1,1406,1058,0,0
189,-34,0,0,0,0,0,0,0,0,0,-1,1413,1058,0,0
196,-34,0,0,0,0,0,0,0,0,0,-1,1420,1058,0,0
203,-34,0,0,0,0,0,0,0,0,0,-1,1427,1058,0,0
210,-34,0,0,0,0,0,0,0,0,0,-1,1434,1058,0,0
217,-34,0,0,0,0,0,0,0,0,0,-1,1441,1058,0,0
224,-34,0,0,0,0,0,0,0,0,0,-1,1448,1058,0,0
231,-34,0,0,0,0,0,0,0,0,0,-1,1455,1058,0,0
238,-34,0,0,0,0,0,0,0,0,0,-1,1462,1058,0,0
245,-34,0,0,0,0,0,0,0,0,0,-1,1469,1058,0,0
252,-34,0,0,0,0,0,0,0,0,0,-1,1476,1058,0,0
259,-34,0,0,0,0,0,0,0,0,0,-1,1483,1058,0,0
266,-34,0,0,0,0,0,0,0,0,0,-1,1490,1058,0,0
273,-34,0,0,0,0,0,0,0,0,0,-1,1497,1058,0,0
280,-34,0,0,0,0,0,0,0,0,0,-1,1504,1058,0,0
287,-34,0,0,0,0,0,0,0,0,0,-1,1511,1058,0,0
294,-34,0,0,0,0,0,0,0,0,0,-1,1518,1058,0,0
301,-34,0,0,0,0,0,0,0,0,0,-1,1525,1058,0,0
308,-34,0,0,0,0,0,0,0,0,0,-1,1532,1058,0,0
315,-34,0,0,0,0,0,0,0,0,0,-1,1539,1058,0,0
322,-34,0,0,0,0,0,0,0,0,0,-1,1546,1058,0,0
329,-34,0,0,0,0,0,0,0,0,0,-1,1553,1058,0,0
336,-34,0,0,0,0,0,0,0,0,0,-1,1560,1058,0,0
343,-34,0,0,0,0,0,0,0,0,0,-1,1567,1058,0,0
350,-34,0,0,0,0,0,0,0,0,0,-1,1574,1058,0,0
357,-34,0,0,0,0,0,0,0,0,0,-1,1581,1058,0,0
364,-34,0,0,0,0,0,0,0,0,0,-1,1588,1058,0,0
371,-34,0,0,0,0,0,0,0,0,0,-1,1595,1058,0,0
378,-34,0,0,0,0,0,0,0,0,0,-1,1602,1058,0,0
385,-34,0,0,0,0,0,0,0,0,0,-1,1609,1058,0,0
392,-34,0,0,0,0,0,0,0,0,0,-1,1616,1058,0,0
399,-34,0,0,0,0,0,0,0,0,0,-1,1623,1058,0,0
406,-34,0,0,0,0,0,0,0,0,0,-1,1630,1058,0,0
413,-34,0,0,0,0,0,0,0,0,0,-1,1637,1058,0,0
420,-34,0,0,0,0,0,0,0,0,0,-1,1644,1058,0,0
427,-34,0,0,0,0,0,0,0,0,0,-1,1651,1058,0,0
434,-34,0,0,0,0,0,0,0,0,0,-1,1658,1058,0,0
441,-34,0,0,0,0,0,0,0,0,0,-1,1665,1058,0,0
448,-34,0,0,0,0,0,0,0,0,0,-1,1672,1058,0,0
455,-34,0,0,0,0,0,0,0,0,0,-1,1679,1058,0,0
462,-34,0,0,0,0,0,0,0,0,0,-1,1686,1058,0,0
469,-34,0,0,0,0,0,0,0,0,0,-1,1693,1058,0,0
476,-34,0,0,0,0,0,0,0,0,0,-1,1700,1058,0,0
483,-34,0,0,0,0,0,0,0,0,0,-1,1707,1058,0,0
490,-34,0,0,0,0,0,0,0,0,0,-1,1714,1058,0,0
497,-34,0,0,0,0,0,0,0,0,0,-1,1721,1058,0,0
504,-34,0,0,0,0,0,0,0,0,0,-1,1728,1058,0,0
511,-34,0,0,0,0,0,0,0,0,0,-1,1735,1058,0,0
518,-34,0,0,0,0,0,0,0,0,0,-1,1742,1058,0,0
525,-34,0,0,0,0,0,0,0,0,0,-1,1749,1058,0,0
532,-34,0,0,0,0,0,0,0,0,0,-1,1756,1058,0,0
539,-34,0,0,0,0,0,0,0,0,0,-1,1763,1058,0,0
546,-34,0,0,0,0,0,0,0,0,0,-1,1770,1058,0,0
553,-34,0,0,0,0,0,0,0,0,0,-1,1777,1058,0,0
560,-34,0,0,0,0,0,0,0,0,0,-1,1784,1058,0,0
567,-34,0,0,0,0,0,0,0,0,0,-1,1791,1058,0,0
574,-34,0,0,0,0,0,0,0,0,0,-1,1798,1058,0,0
581,-34,0,0,0,0,0,0,0,0,0,-1,1805,1058,0,0
588,-34,0,0,0,0,0,0,0,0,0,-1,1812,1058,0,0
595,-34,0,0,0,0,0,0,0,0,0,-1,1819,1058,0,0
602,-34,0,0,0,0,0,0,0,0,0,-1,1826,1058,0,0
609,-34,0,0,0,0,0,0,0,0,0,-1,1833,1058,0,0
616,-34,0,0,0,0,0,0,0,0,0,-1,1840,1058,0,0
623,-34,0,0,0,0,0,0,0,0,0,-1,1847,1058,0,0
630,-34,0,0,0,0,0,0,0,0,0,-1,1854,1058,0,0
637,-34,0,0,0,0,0,0,0,0,0,-1,1861,1058,0,0
644,-34,0,0,0,0,0,0,0,0,0,-1,1868,1058,0,0
651,-34,0.03125,0.0466309,-0.0037172,-0.000915456,-0.00139662,-0.000338201,-0.00429446,-1.17886,0.00275716,0.0344987,1875,1058,0.0312385,-0.0465842
658,-34,0.0130615,0.0354004,-0.00246953,-0.00044345,-0.000749938,-0.000196071,-0.00271691,-1.25217,0.00174958,0.0357373,1882,1058,0.0130543,-0.0354111
665,-34,-0.0507813,0.0325928,-0.00158685,-0.000177785,-0.000336027,-0.000101753,-0.00166288,-1.34828,0.00107627,0.0343596,1889,1058,-0.0507565,-0.0326016
672,-34,-0.00402832,-0.069458,-0.00096515,-5.20015e-05,-0.00010077,-4.10133e-05,-0.000976138,-1.46218,0.000637527,0.0312971,1896,1058,-0.00403697,0.0694727
679,-34,0.0405273,-0.0693359,-0.000596193,-8.08295e-06,1.25987e-05,-7.81319e-06,-0.000596462,1.54939,0.000395063,0.0316068,1903,1058,0.0404959,0.0692874
686,-34,0.0469971,0.0445557,-0.000388025,-1.02413e-05,4.76152e-05,-4.33241e-06,-0.000393934,1.44733,0.00026119,0.0367146,1910,1058,0.0470561,-0.0445808
693,-34,0.000854492,0.00842285,-0.00026297,-3.73198e-05,4.13542e-05,-2.99797e-05,-0.00027031,1.39513,0.000171091,0.0384214,1917,1058,0.000850682,-0.00844754
700,-34,-0.0684814,-0.0167236,-0.000195048,-5.35741e-05,3.65437e-05,-4.46922e-05,-0.00020393,1.33237,0.000123775,0.0346271,1924,1058,-0.0684633,0.0167373
707,-34,-0.0535889,-0.0351563,-0.000118019,-7.62569e-05,4.74138e-05,-4.53298e-05,-0.000148946,0.992819,8.81616e-05,0.019154,1931,1058,-0.0535984,0.0351649
714,-34,-0.0273438,-0.0561523,-5.2015e-05,-9.83402e-05,3.55066e-07,-5.20123e-05,-9.83429e-05,0.00766404,5.68099e-05,0.0102311,1938,1058,-0.0273967,0.0561533
721,-34,-0.0108643,-0.0777588,-5.30578e-05,-0.000155559,-8.47111e-05,-5.30032e-06,-0.000203317,-0.513352,0.000133813,0.00975408,1945,1058,-0.0108287,0.0777107
728,-34,-0.0368652,-0.0644531,-6.57918e-05,-0.000196075,-0.000102924,-9.12676e-06,-0.00025274,-0.503266,0.000165535,0.0111867,1952,1058,-0.0368269,0.064474
735,-34,-0.0742188,-0.0794678,-0.000147402,-0.000222961,1.06186e-05,-0.000145938,-0.000224425,0.136998,0.000131508,0.0139389,1959,1058,-0.0741942,0.0794944
742,-34,-0.0549316,-0.088623,-2.51479e-05,-0.000368367,9.4532e-05,-8.33737e-07,-0.000392682,0.251749,0.00026151,0.0147132,1966,1058,-0.0549706,0.0885938
749,-34,-0.0272217,-0.0686035,0.000427472,-0.000758639,-2.02346e-05,0.000427817,-0.000758984,-0.017053,0.000694035,0.0123177,1973,1058,-0.0271889,0.0686539
756,-34,-0.0166016,-0.0483398,0.000675944,-0.00127999,-0.000206782,0.000697566,-0.00130161,-0.104186,0.00117166,0.00994531,1980,1058,-0.0165794,0.0483285
763,-34,-0.026001,-0.0622559,0.000726189,-0.0016489,-0.000502527,0.000828139,-0.00175085,-0.200158,0.00152041,0.00992901,1987,1058,-0.0259792,0.0622925
770,-34,-0.0511475,-0.0690918,0.000912227,-0.00227137,-0.000827572,0.0011145,-0.00247364,-0.239719,0.00212058,0.0140183,1994,1058,-0.0511964,0.0690987
777,-34,-0.0776367,-0.0368652,0.00109268,-0.00305721,-0.00135081,0.00149364,-0.00345817,-0.288542,0.00293296,0.0153968,2001,1058,-0.0776487,0.0368437
784,-34,-0.060791,0.0430908,0.00118019,-0.00399213,-0.00214055,0.00195114,-0.00476308,-0.345701,0.00398816,0.0301595,2008,1058,-0.0608073,-0.0430737
791,-34,-0.13208,0.265381,0.00108462,-0.00503848,-0.0032607,0.0024958,-0.00644965,-0.408443,0.00533017,0.0439789,2015,1058,-0.13204,-0.265325
798,-34,-0.041626,0.268799,0.000744016,-0.00612685,-0.00478274,0.00319729,-0.00858012,-0.473948,0.00703244,0.0482512,2022,1058,-0.0416818,-0.268765
805,-34,0.167725,0.179932,0,0,0,0,0,0,0,-1,2029,1058,0.167749,-0.179907
812,-34,-0.088501,-0.510742,0,0,0,0,0,0,0,-1,2036,1058,-0.0884896,0.510717
-700,-41,1.06604,2.72046,0,0,0,0,0,0,0,-1,524,1065,1.06603,-2.72048
-693,-41,0.877625,2.06799,-0.0683566,0.0195147,-0.0173684,0.0228232,-0.0716651,-1.38257,0.0569304,0.045149,531,1065,0.877611,-2.06804
-686,-41,0.638,1.36145,-0.0572487,0.0213297,-0.0145577,0.0239399,-0.059859,-1.39338,0.0498408,0.0455677,538,1065,0.637985,-1.36148
-679,-41,0.498108,0.491455,-0.0468943,0.0207074,-0.0122085,0.0228446,-0.0490316,-1.39749,0.0424058,0.0487787,545,1065,0.498101,-0.491487
-672,-41,0.338989,-0.0200195,-0.0375588,0.018776,-0.0101933,0.0205636,-0.0393465,-1.39719,0.0351512,0.0439478,552,1065,0.33897,0.0200483
-665,-41,0.0510254,-0.0467529,-0.0293289,0.0161867,-0.0084479,0.0177041,-0.0308462,-1.39307,0.0283708,0.0430116,559,1065,0.0510172,0.0467839
-658,-41,0.072876,-0.067749,-0.0222925,0.0133647,-0.00691924,0.0146603,-0.0235881,-1.38569,0.0222823,0.0375971,566,1065,0.072869,0.0678007
-651,-41,0.0192871,-0.0673828,-0.0164596,0.0105924,-0.00555832,0.0116899,-0.0175572,-1.37585,0.0169987,0.0240067,573,1065,0.0192568,0.0673653
-644,-41,-0.020813,-0.0749512,-0.011616,0.00906251,-0.00441652,0.00996629,-0.0125198,-1.36895,0.0130102,0.00969381,580,1065,-0.020833,0.0749601
-637,-41,-0.0108032,-0.0753174,-0.00751539,0.00569665,-0.00288596,0.00629953,-0.00811827,-1.36486,0.00834617,0.0106553,587,1065,-0.0108166,0.07536
-630,-41,-0.00518799,-0.0654297,-0.00438013,0.00388164,-0.00220944,0.00443539,-0.00493389,-1.32522,0.00541191,0.0117386,594,1065,-0.00520561,0.0654738
-623,-41,-0.0155029,-0.0655518,-0.00277185,0.0024396,-0.0013355,0.00276191,-0.00309415,-1.33399,0.00338281,0.010829,601,1065,-0.0155171,0.0655491
-616,-41,-0.0182495,-0.0511475,-0.00157318,0.00151917,-0.000874669,0.00174942,-0.00180344,-1.31339,0.00205132,0.0148102,608,1065,-0.018261,0.051098
-609,-41,-0.00445557,-0.0460205,-0.00110692,0.000798968,-0.000382822,0.000872988,-0.00118094,-1.3798,0.00119027,0.0205593,615,1065,-0.0044853,0.0459983
-602,-41,-0.0435791,-0.0946045,-0.000800615,0.000357017,-9.08142e-05,0.000364098,-0.000807696,-1.49298,0.000692506,0.0120824,622,1065,-0.0435864,0.0946599
-595,-41,-0.0440674,-0.0930176,-0.000612786,0.000340055,0.000144184,0.000361395,-0.000634126,1.42386,0.000581909,0.0124731,629,1065,-0.0440744,0.0930705
-588,-41,-0.0273438,-0.071167,-0.000566974,0.000420097,0.000238815,0.00047484,-0.000621718,1.34546,0.000634989,0.0203034,636,1065,-0.0273227,0.0711562
-581,-41,0.00592041,-0.0102539,-0.000475946,0.000485173,0.000202226,0.00052599,-0.000516762,1.37164,0.000602041,0.0332338,643,1065,0.00590801,0.0102264
-574,-41,-0.00823975,0.010376,-0.000336828,0.000576127,0.000142463,0.000597841,-0.000358542,1.41954,0.0005579,0.0365311,650,1065,-0.0082319,-0.0103152
-567,-41,-0.0610962,-0.0393066,-9.80364e-05,0.000655302,5.68625e-05,0.00065957,-0.000102304,1.49588,0.000477482,0.0392348,657,1065,-0.0610663,0.0393394
-560,-41,-0.0178833,-0.0753174,0.000280323,0.000702778,-5.33837e-05,0.000709419,0.000273681,-1.44702,0.00041313,0.0374814,664,1065,-0.0179117,0.0752986
-553,-41,0.0140991,-0.184937,0.000807969,0.000700345,-0.000195446,0.000956876,0.000551439,-0.651062,0.000554592,0.0381762,671,1065,0.0141046,0.184929
-546,-41,-0.0626831,-0.130249,0.00145531,0.000626771,-0.000355074,0.00158666,0.000495424,-0.354303,0.000937339,0.0393828,678,1065,-0.0626564,0.130247
-539,-41,-0.050354,-0.0568848,0.00226922,0.000441352,-0.00051341,0.00240355,0.000307018,-0.255913,0.00151047,0.0386394,685,1065,-0.0503465,0.0569292
-532,-41,0.0465698,-0.0875244,0.00331099,0.000101275,-0.000605283,0.00342134,-9.07469e-06,-0.18033,0.00228393,0.0356084,692,1065,0.0465654,0.087501
-525,-41,0,0,0,0,0,0,0,0,0,-1,699,1065,0,0
-518,-41,0,0,0,0,0,0,0,0,0,-1,706,1065,0,0
-511,-41,0,0,0,0,0,0,0,0,0,-1,713,1065,0,0
-504,-41,0,0,0,0,0,0,0,0,0,-1,720,1065,0,0
-497,-41,0,0,0,0,0,0,0,0,0,-1,727,1065,0,0
-490,-41,0,0,0,0,0,0,0,0,0,-1,734,1065,0,0
-483,-41,0,0,0,0,0,0,0,0,0,-1,741,1065,0,0
-476,-41,0,0,0,0,0,0,0,0,0,-1,748,1065,0,0
-469,-41,0,0,0,0,0,0,0,0,0,-1,755,1065,0,0
-462,-41,0,0,0,0,0,0,0,0,0,-1,762,1065,0,0
-455,-41,0,0,0,0,0,0,0,0,0,-1,769,1065,0,0
-448,-41,0,0,0,0,0,0,0,0,0,-1,776,1065,0,0
-441,-41,0,0,0,0,0,0,0,0,0,-1,783,1065,0,0
-434,-41,0,0,0,0,0,0,0,0,0,-1,790,1065,0,0
-427,-41,0,0,0,0,0,0,0,0,0,-1,797,1065,0,0
-420,-41,0,0,0,0,0,0,0,0,0,-1,804,1065,0,0
-413,-41,0,0,0,0,0,0,0,0,0,-1,811,1065,0,0
-406,-41,0,0,0,0,0,0,0,0,0,-1,818,1065,0,0
-399,-41,0,0,0,0,0,0,0,0,0,-1,825,1065,0,0
-392,-41,0,0,0,0,0,0,0,0,0,-1,832,1065,0,0
-385,-41,0,0,0,0,0,0,0,0,0,-1,839,1065,0,0
-378,-41,0,0,0,0,0,0,0,0,0,-1,846,1065,0,0
-371,-41,0,0,0,0,0,0,0,0,0,-1,853,1065,0,0
-364,-41,0,0,0,0,0,0,0,0,0,-1,860,1065,0,0
-357,-41,0,0,0,0,0,0,0,0,0,-1,867,1065,0,0
-350,-41,0,0,0,0,0,0,0,0,0,-1,874,1065,0,0
-343,-41,0,0,0,0,0,0,0,0,0,-1,881,1065,0,0
-336,-41,0,0,0,0,0,0,0,0,0,-1,888,1065,0,0
-329,-41,0,0,0,0,0,0,0,0,0,-1,895,1065,0,0
-322,-41,0,0,0,0,0,0,0,0,0,-1,902,1065,0,0
-315,-41,0,0,0,0,0,0,0,0,0,-1,909,1065,0,0
-308,-41,0,0,0,0,0,0,0,0,0,-1,916,1065,0,0
-301,-41,0,0,0,0,0,0,0,0,0,-1,923,1065,0,0
-294,-41,0,0,0,0,0,0,0,0,0,-1,930,1065,0,0
-287,-41,0,0,0,0,0,0,0,0,0,-1,937,1065,0,0
-280,-41,0,0,0,0,0,0,0,0,0,-1,944,1065,0,0
-273,-41,0,0,0,0,0,0,0,0,0,-1,951,1065,0,0
-266,-41,0,0,0,0,0,0,0,0,0,-1,958,1065,0,0
-259,-41,0,0,0,0,0,0,0,0,0,-1,965,1065,0,0
-252,-41,0,0,0,0,0,0,0,0,0,-1,972,1065,0,0
-245,-41,0,0,0,0,0,0,0,0,0,-1,979,1065,0,0
-238,-41,0,0,0,0,0,0,0,0,0,-1,986,1065,0,0
-231,-41,0,0,0,0,0,0,0,0,0,-1,993,1065,0,0
-224,-41,0,0,0,0,0,0,0,0,0,-1,1000,1065,0,0
-217,-41,0,0,0,0,0,0,0,0,0,-1,1007,1065,0,0
-210,-41,0,0,0,0,0,0,0,0,0,-1,1014,1065,0,0
-203,-41,0,0,0,0,0,0,0,0,0,-1,1021,1065,0,0
-196,-41,0,0,0,0,0,0,0,0,0,-1,1028,1065,0,0
-189,-41,0,0,0,0,0,0,0,0,0,-1,1035,1065,0,0
-182,-41,0,0,0,0,0,0,0,0,0,-1,1042,1065,0,0
-175,-41,0,0,0,0,0,0,0,0,0,-1,1049,1065,0,0
-168,-41,0,0,0,0,0,0,0,0,0,-1,1056,1065,0,0
-161,-41,0,0,0,0,0,0,0,0,0,-1,1063,1065,0,0
-154,-41,0,0,0,0,0,0,0,0,0,-1,1070,1065,0,0
-147,-41,0,0,0,0,0,0,0,0,0,-1,1077,1065,0,0
-140,-41,0,0,0,0,0,0,0,0,0,-1,1084,1065,0,0
-133,-41,0,0,0,0,0,0,0,0,0,-1,1091,1065,0,0
-126,-41,0,0,0,0,0,0,0,0,0,-1,1098,1065,0,0
-119,-41,0,0,0,0,0,0,0,0,0,-1,1105,1065,0,0
-112,-41,0,0,0,0,0,0,0,0,0,-1,1112,1065,0,0
-105,-41,0,0,0,0,0,0,0,0,0,-1,1119,1065,0,0
-98,-41,0,0,0,0,0,0,0,0,0,-1,1126,1065,0,0
-91,-41,0,0,0,0,0,0,0,0,0,-1,1133,1065,0,0
-84,-41,0,0,0,0,0,0,0,0,0,-1,1140,1065,0,0
-77,-41,0,0,0,0,0,0,0,0,0,-1,1147,1065,0,0
-70,-41,0,0,0,0,0,0,0,0,0,-1,1154,1065,0,0
-63,-41,0,0,0,0,0,0,0,0,0,-1,1161,1065,0,0
-56,-41,0,0,0,0,0,0,0,0,0,-1,1168,1065,0,0
-49,-41,0,0,0,0,0,0,0,0,0,-1,1175,1065,0,0
-42,-41,0,0,0,0,0,0,0,0,0,-1,1182,1065,0,0
-35,-41,0,0,0,0,0,0,0,0,0,-1,1189,1065,0,0
-28,-41,0,0,0,0,0,0,0,0,0,-1,1196,1065,0,0
-21,-41,0,0,0,0,0,0,0,0,0,-1,1203,1065,0,0
-14,-41,0,0,0,0,0,0,0,0,0,-1,1210,1065,0,0
-7,-41,0,0,0,0,0,0,0,0,0,-1,1217,1065,0,0
0,-41,0,0,0,0,0,0,0,0,0,-1,1224,1065,0,0
7,-41,0,0,0,0,0,0,0,0,0,-1,1231,1065,0,0
14,-41,0,0,0,0,0,0,0,0,0,-1,1238,1065,0,0
21,-41,0,0,0,0,0,0,0,0,0,-1,1245,1065,0,0
28,-41,0,0,0,0,0,0,0,0,0,-1,1252,1065,0,0
35,-41,0,0,0,0,0,0,0,0,0,-1,1259,1065,0,0
42,-41,0,0,0,0,0,0,0,0,0,-1,1266,1065,0,0
49,-41,0,0,0,0,0,0,0,0,0,-1,1273,1065,0,0
56,-41,0,0,0,0,0,0,0,0,0,-1,1280,1065,0,0
63,-41,0,0,0,0,0,0,0,0,0,-1,1287,1065,0,0
70,-41,0,0,0,0,0,0,0,0,0,-1,1294,1065,0,0
77,-41,0,0,0,0,0,0,0,0,0,-1,1301,1065,0,0
84,-41,0,0,0,0,0,0,0,0,0,-1,1308,1065,0,0
91,-41,0,0,0,0,0,0,0,0,0,-1,1315,1065,0,0
98,-41,0,0,0,0,0,0,0,0,0,-1,1322,1065,0,0
105,-41,0,0,0,0,0,0,0,0,0,-1,1329,1065,0,0
112,-41,0,0,0,0,0,0,0,0,0,-1,1336,1065,0,0
119,-41,0,0,0,0,0,0,0,0,0,-1,1343,1065,0,0
126,-41,0,0,0,0,0,0,0,0,0,-1,1350,1065,0,0
133,-41,0,0,0,0,0,0,0,0,0,-1,1357,1065,0,0
140,-41,0,0,0,0,0,0,0,0,0,-1,1364,1065,0,0
147,-41,0,0,0,0,0,0,0,0,0,-1,1371,1065,0,0
154,-41,0,0,0,0,0,0,0,0,0,-1,1378,1065,0,0
161,-41,0,0,0,0,0,0,0,0,0,-1,1385,1065,0,0
168,-41,0,0,0,0,0,0,0,0,0,-1,1392,1065,0,0
175,-41,0,0,0,0,0,0,0,0,0,-1,1399,1065,0,0
182,-41,0,0,0,0,0,0,0,0,0,-1,1406,1065,0,0
189,-41,0,0,0,0,0,0,0,0,0,-1,1413,1065,0,0
196,-41,0,0,0,0,0,0,0,0,0,-1,1420,1065,0,0
203,-41,0,0,0,0,0,0,0,0,0,-1,1427,1065,0,0
210,-41,0,0,0,0,0,0,0,0,0,-1,1434,1065,0,0
217,-41,0,0,0,0,0,0,0,0,0,-1,1441,1065,0,0
224,-41,0,0,0,0,0,0,0,0,0,-1,1448,1065,0,0
231,-41,0,0,0,0,0,0,0,0,0,-1,1455,1065,0,0
238,-41,0,0,0,0,0,0,0,0,0,-1,1462,1065,0,0
245,-41,0,0,0,0,0,0,0,0,0,-1,1469,1065,0,0
252,-41,0,0,0,0,0,0,0,0,0,-1,1476,1065,0,0
259,-41,0,0,0,0,0,0,0,0,0,-1,1483,1065,0,0
266,-41,0,0,0,0,0,0,0,0,0,-1,1490,1065,0,0
273,-41,0,0,0,0,0,0,0,0,0,-1,1497,1065,0,0
280,-41,0,0,0,0,0,0,0,0,0,-1,1504,1065,0,0
287,-41,0,0,0,0,0,0,0,0,0,-1,1511,1065,0,0
294,-41,0,0,0,0,0,0,0,0,0,-1,1518,1065,0,0
301,-41,0,0,0,0,0,0,0,0,0,-1,1525,1065,0,0
308,-41,0,0,0,0,0,0,0,0,0,-1,1532,1065,0,0
315,-41,0,0,0,0,0,0,0,0,0,-1,1539,1065,0,0
322,-41,0,0,0,0,0,0,0,0,0,-1,1546,1065,0,0
329,-41,0,0,0,0,0,0,0,0,0,-1,1553,1065,0,0
336,-41,0,0,0,0,0,0,0,0,0,-1,1560,1065,0,0
343,-41,0,0,0,0,0,0,0,0,0,-1,1567,1065,0,0
350,-41,0,0,0,0,0,0,0,0,0,-1,1574,1065,0,0
357,-41,0,0,0,0,0,0,0,0,0,-1,1581,1065,0,0
364,-41,0,0,0,0,0,0,0,0,0,-1,1588,1065,0,0
371,-41,0,0,0,0,0,0,0,0,0,-1,1595,1065,0,0
378,-41,0,0,0,0,0,0,0,0,0,-1,1602,1065,0,0
385,-41,0,0,0,0,0,0,0,0,0,-1,1609,1065,0,0
392,-41,0,0,0,0,0,0,0,0,0,-1,1616,1065,0,0
399,-41,0,0,0,0,0,0,0,0,0,-1,1623,1065,0,0
406,-41,0,0,0,0,0,0,0,0,0,-1,1630,1065,0,0
413,-41,0,0,0,0,0,0,0,0,0,-1,1637,1065,0,0
420,-41,0,0,0,0,0,0,0,0,0,-1,1644,1065,0,0
427,-41,0,0,0,0,0,0,0,0,0,-1,1651,1065,0,0
434,-41,0,0,0,0,0,0,0,0,0,-1,1658,1065,0,0
441,-41,0,0,0,0,0,0,0,0,0,-1,1665,1065,0,0
448,-41,0,0,0,0,0,0,0,0,0,-1,1672,1065,0,0
455,-41,0,0,0,0,0,0,0,0,0,-1,1679,1065,0,0
462,-41,0,0,0,0,0,0,0,0,0,-1,1686,1065,0,0
469,-41,0,0,0,0,0,0,0,0,0,-1,1693,1065,0,0
476,-41,0,0,0,0,0,0,0,0,0,-1,1700,1065,0,0
483,-41,0,0,0,0,0,0,0,0,0,-1,1707,1065,0,0
490,-41,0,0,0,0,0,0,0,0,0,-1,1714,1065,0,0
497,-41,0,0,0,0,0,0,0,0,0,-1,1721,1065,0,0
504,-41,0,0,0,0,0,0,0,0,0,-1,1728,1065,0,0
511,-41,0,0,0,0,0,0,0,0,0,-1,1735,1065,0,0
518,-41,0,0,0,0,0,0,0,0,0,-1,1742,1065,0,0
525,-41,0,0,0,0,0,0,0,0,0,-1,1749,1065,0,0
532,-41,0,0,0,0,0,0,0,0,0,-1,1756,1065,0,0
539,-41,0,0,0,0,0,0,0,0,0,-1,1763,1065,0,0
546,-41,0,0,0,0,0,0,0,0,0,-1,1770,1065,0,0
553,-41,0,0,0,0,0,0,0,0,0,-1,1777,1065,0,0
560,-41,0,0,0,0,0,0,0,0,0,-1,1784,1065,0,0
567,-41,0,0,0,0,0,0,0,0,0,-1,1791,1065,0,0
574,-41,0,0,0,0,0,0,0,0,0,-1,1798,1065,0,0
581,-41,0,0,0,0,0,0,0,0,0,-1,1805,1065,0,0
588,-41,0,0,0,0,0,0,0,0,0,-1,1812,1065,0,0
595,-41,0,0,0,0,0,0,0,0,0,-1,1819,1065,0,0
602,-41,0,0,0,0,0,0,0,0,0,-1,1826,1065,0,0
609,-41,0,0,0,0,0,0,0,0,0,-1,1833,1065,0,0
616,-41,0,0,0,0,0,0,0,0,0,-1,1840,1065,0,0
623,-41,0,0,0,0,0,0,0,0,0,-1,1847,1065,0,0
630,-41,0,0,0,0,0,0,0,0,0,-1,1854,1065,0,0
637,-41,0,0,0,0,0,0,0,0,0,-1,1861,1065,0,0
644,-41,0,0,0,0,0,0,0,0,0,-1,1868,1065,0,0
651,-41,-0.0341797,-0.0228271,-0.00396594,-0.000944993,-0.00156787,-0.000278369,-0.00463256,-1.16878,0.00299989,0.0314031,1875,1065,-0.0341586,0.0228387
658,-41,-0.0178223,-0.0323486,-0.002624,-0.00051822,-0.000891973,-0.000191185,-0.00295103,-1.21937,0.00190682,0.0355915,1882,1065,-0.0178711,0.032401
665,-41,-0.0450439,-0.00439453,-0.00166427,-0.000267565,-0.000439012,-0.000141037,-0.0017908,-1.29019,0.00114974,0.0356971,1889,1065,-0.0449955,0.00442134
672,-41,-0.0506592,-0.0817871,-0.000984001,-0.000139144,-0.000166328,-0.000107578,-0.00101557,-1.38325,0.000644186,0.0334811,1896,1065,-0.0507145,0.0818288
679,-41,0.0239258,-0.0904541,-0.000574759,-8.18448e-05,-2.38118e-05,-8.06972e-05,-0.000575906,-1.52264,0.000360066,0.034518,1903,1065,0.0239273,0.090486
686,-41,0.145386,-0.144775,-0.000341378,-6.59282e-05,3.16744e-05,-6.23329e-05,-0.000344973,1.45777,0.000212277,0.0356637,1910,1065,0.145415,0.14481
693,-41,0.133911,-0.227905,-0.000205845,-7.46354e-05,3.8261e-05,-6.42936e-05,-0.000216187,1.30681,0.000128186,0.0396738,1917,1065,0.133959,0.227882
700,-41,-0.0367432,-0.0153809,-0.000142393,-7.3954e-05,3.60248e-05,-5.84869e-05,-0.00015786,1.16525,9.21539e-05,0.0364594,1924,1065,-0.0368015,0.0154202
707,-41,-0.0340576,-0.0389404,-6.86265e-05,-8.60205e-05,5.18484e-05,-2.47508e-05,-0.000129896,0.702302,7.96397e-05,0.0200079,1931,1065,-0.0340252,0.0389278
714,-41,-0.0292969,-0.0483398,-3.31018e-07,-9.28926e-05,1.1382e-05,1.04804e-06,-9.42717e-05,0.120574,6.32e-05,0.00808617,1938,1065,-0.0292734,0.0483625
721,-41,-0.00549316,-0.0646973,-6.84337e-06,-0.000129086,-6.47409e-05,2.10701e-05,-0.000157,-0.407074,0.00011235,0.0117307,1945,1065,-0.00544202,0.0646818
728,-41,-0.0354004,-0.0604248,-4.97807e-05,-0.000158681,-8.79813e-05,-7.63393e-07,-0.000207699,-0.508303,0.000138212,0.0146079,1952,1065,-0.0354176,0.0603706
735,-41,-0.0533447,-0.0662842,-0.000170846,-0.000160328,5.57654e-05,-0.000109574,-0.0002216,0.832411,0.000127943,0.0152712,1959,1065,-0.0533663,0.0663247
742,-41,-0.0308838,-0.0844727,-9.61201e-05,-0.000239414,0.000197968,4.27668e-05,-0.000378301,0.611775,0.000267598,0.013276,1966,1065,-0.0308766,0.0845247
749,-41,-0.00463867,-0.0633545,0.000351566,-0.00049845,0.000152851,0.000378216,-0.000525101,0.172619,0.000523823,0.0123654,1973,1065,-0.00463967,0.0633336
756,-41,-0.00292969,-0.045166,0.000662855,-0.000970304,2.90135e-05,0.00066337,-0.000970819,0.0177578,0.000949049,0.012383,1980,1065,-0.0029812,0.045159
763,-41,-0.0322266,-0.0601807,0.000822961,-0.00131869,-0.000171455,0.0008366,-0.00133232,-0.0793837,0.00126308,0.0101147,1987,1065,-0.0322081,0.0602163
770,-41,-0.048584,-0.0625,0.00111164,-0.00186574,-0.000385867,0.00116083,-0.00191493,-0.126809,0.0017935,0.0108494,1994,1065,-0.0485472,0.0625396
777,-41,-0.0496826,-0.0675049,0.00145963,-0.00258866,-0.000785396,0.00160666,-0.0027357,-0.185065,0.00253515,0.0121243,2001,1065,-0.0496908,0.0675281
784,-41,-0.0253906,-0.0616455,0.00180254,-0.00349642,-0.00144781,0.00217231,-0.00386619,-0.250057,0.00353176,0.0232454,2008,1065,-0.025368,0.061644
791,-41,-0.057373,0.0146484,0.00208284,-0.00458491,-0.00244635,0.0028841,-0.00538617,-0.316521,0.00484714,0.0430795,2015,1065,-0.0573848,-0.0146573
798,-41,-0.00744629,-0.0111084,0.00227267,-0.00583451,-0.00386587,0.00382056,-0.0073824,-0.380849,0.0065761,0.0465698,2022,1065,-0.0074338,0.0111087
805,-41,0.131592,-0.209839,0.00224153,-0.00719123,-0.00579061,0.00499344,-0.00994314,-0.443642,0.00878006,0.0436329,2029,1065,0.131543,0.209898
812,-41,0.041626,-0.433594,0.0017218,-0.00853178,-0.00839489,0.00643158,-0.0132416,-0.511272,0.0115829,0.0482396,2036,1065,0.0416047,0.433612
-700,-48,2.65051,-0.252197,0,0,0,0,0,0,0,-1,524,1072,2.65049,0.25222
-693,-48,2.62061,-0.564453,-0.0684614,0.0196087,-0.00827446,0.0203794,-0.0692321,-1.47793,0.0542394,0.0458548,531,1072,2.62062,0.564497
-686,-48,0.728882,0.580566,-0.0576692,0.0209556,-0.00669203,0.0215211,-0.0582347,-1.48649,0.0476455,0.0457817,538,1072,0.7289,-0.580616
-679,-48,0.279602,0.0252686,0,0,0,0,0,0,0,-1,545,1072,0.279592,-0.0252901
-672,-48,-0.144287,-0.0369873,0,0,0,0,0,0,0,-1,552,1072,-0.14426,0.0369781
-665,-48,0.0786133,-0.147095,-0.0297373,0.0157547,-0.00401655,0.0161066,-0.0300892,-1.48341,0.0270753,0.0470896,559,1072,0.0785893,0.147083
-658,-48,0.168579,-0.208008,-0.0225838,0.0130573,-0.00344771,0.0133878,-0.0229142,-1.47524,0.0211982,0.0431363,566,1072,0.168602,0.208067
-651,-48,0.0253296,-0.120483,-0.0166273,0.0103985,-0.00292245,0.0107109,-0.0169398,-1.4643,0.0160986,0.0277392,573,1072,0.0253192,0.12053
-644,-48,-0.0192261,-0.0682373,-0.0117225,0.00883863,-0.002426,0.009121,-0.0120048,-1.45493,0.0122348,0.0116339,580,1072,-0.0192282,0.0682449
-637,-48,0.00488281,-0.0789795,-0.00753414,0.0056507,-0.00160824,0.00584404,-0.00772747,-1.45116,0.00786063,0.0116607,587,1072,0.00488074,0.078948
-630,-48,0.0166626,-0.0692139,-0.00433694,0.00387136,-0.00136514,0.00409245,-0.00455802,-1.41024,0.00499676,0.0138984,594,1072,0.016676,0.0692159
-623,-48,-0.00231934,-0.0665283,-0.00260543,0.00245567,-0.00088945,0.00260743,-0.00275719,-1.4018,0.00309767,0.0100004,601,1072,-0.00229836,0.0664847
-616,-48,-0.00396729,-0.0656738,-0.00137279,0.0015739,-0.000695373,0.00172976,-0.00152865,-1.35031,0.00188244,0.00910708,608,1072,-0.00396837,0.0657007
-609,-48,-0.0161743,-0.0865479,-0.00101607,0.000863018,-0.000281129,0.000904176,-0.00105723,-1.42543,0.00113357,0.0110109,615,1072,-0.0161934,0.0865104
-602,-48,-0.0396118,-0.0965576,-0.000753767,0.000447633,-6.13948e-05,0.000450763,-0.000756896,-1.51987,0.00070467,0.0107566,622,1072,-0.0396074,0.0965042
-595,-48,-0.024292,-0.0864258,-0.000597923,0.00042962,0.000124772,0.000444554,-0.000612856,1.45167,0.000613068,0.0129722,629,1072,-0.0242888,0.0864191
-588,-48,-0.0146484,-0.102539,-0.000571683,0.000515372,0.000211712,0.000555148,-0.000611459,1.38508,0.000673803,0.025151,636,1072,-0.0146579,0.102598
-581,-48,-0.0150757,-0.113281,-0.000486241,0.000576414,0.000192127,0.000610084,-0.000519911,1.39731,0.000653095,0.038541,643,1072,-0.0150588,0.113338
-574,-48,-0.0632935,0.0351563,-0.000353898,0.000655328,0.000154877,0.000678561,-0.00037713,1.4219,0.00061773,0.039875,650,1072,-0.0632965,-0.0351082
-567,-48,-0.138123,0.157471,-0.000129675,0.000709873,0.00010382,0.00072252,-0.000142322,1.44957,0.000535463,0.0395682,657,1072,-0.138103,-0.157463
-560,-48,-0.0809326,-0.120239,0.000221413,0.00071896,4.28859e-05,0.000722629,0.000217744,1.48544,0.000428049,0.038023,664,1072,-0.0809169,0.1203
-553,-48,-0.0253296,-0.286987,0.000706797,0.000662735,-3.52882e-05,0.000726367,0.000643165,-0.506344,0.000459031,0.0385803,671,1072,-0.0253315,0.286936
-546,-48,-0.121643,-0.0550537,0.00129905,0.00051896,-0.000115664,0.00131584,0.000502172,-0.144139,0.000766765,0.036669,678,1072,-0.121624,0.055114
-539,-48,-0.213867,0.133667,0.00206121,0.000248487,-0.000180439,0.002079,0.0002307,-0.0982557,0.00131586,0.0369205,685,1072,-0.213842,-0.133621
-532,-48,-0.138733,0.0762939,0.00302353,-0.000184623,-0.000178082,0.00303339,-0.000194478,-0.0552826,0.0020901,0.0369904,692,1072,-0.138726,-0.0763005
-525,-48,0,0,0,0,0,0,0,0,0,-1,699,1072,0,0
-518,-48,0,0,0,0,0,0,0,0,0,-1,706,1072,0,0
-511,-48,0,0,0,0,0,0,0,0,0,-1,713,1072,0,0
-504,-48,0,0,0,0,0,0,0,0,0,-1,720,1072,0,0
-497,-48,0,0,0,0,0,0,0,0,0,-1,727,1072,0,0
-490,-48,0,0,0,0,0,0,0,0,0,-1,734,1072,0,0
-483,-48,0,0,0,0,0,0,0,0,0,-1,741,1072,0,0
-476,-48,0,0,0,0,0,0,0,0,0,-1,748,1072,0,0
-469,-48,0,0,0,0,0,0,0,0,0,-1,755,1072,0,0
-462,-48,0,0,0,0,0,0,0,0,0,-1,762,1072,0,0
-455,-48,0,0,0,0,0,0,0,0,0,-1,769,1072,0,0
-448,-48,0,0,0,0,0,0,0,0,0,-1,776,1072,0,0
-441,-48,0,0,0,0,0,0,0,0,0,-1,783,1072,0,0
-434,-48,0,0,0,0,0,0,0,0,0,-1,790,1072,0,0
-427,-48,0,0,0,0,0,0,0,0,0,-1,797,1072,0,0
-420,-48,0,0,0,0,0,0,0,0,0,-1,804,1072,0,0
-413,-48,0,0,0,0,0,0,0,0,0,-1,811,1072,0,0
-406,-48,0,0,0,0,0,0,0,0,0,-1,818,1072,0,0
-399,-48,0,0,0,0,0,0,0,0,0,-1,825,1072,0,0
-392,-48,0,0,0,0,0,0,0,0,0,-1,832,1072,0,0
-385,-48,0,0,0,0,0,0,0,0,0,-1,839,1072,0,0
-378,-48,0,0,0,0,0,0,0,0,0,-1,846,1072,0,0
-371,-48,0,0,0,0,0,0,0,0,0,-1,853,1072,0,0
-364,-48,0,0,0,0,0,0,0,0,0,-1,860,1072,0,0
-357,-48,0,0,0,0,0,0,0,0,0,-1,867,1072,0,0
-350,-48,0,0,0,0,0,0,0,0,0,-1,874,1072,0,0
-343,-48,0,0,0,0,0,0,0,0,0,-1,881,1072,0,0
-336,-48,0,0,0,0,0,0,0,0,0,-1,888,1072,0,0
-329,-48,0,0,0,0,0,0,0,0,0,-1,895,1072,0,0
-322,-48,0,0,0,0,0,0,0,0,0,-1,902,1072,0,0
-315,-48,0,0,0,0,0,0,0,0,0,-1,909,1072,0,0
-308,-48,0,0,0,0,0,0,0,0,0,-1,916,1072,0,0
-301,-48,0,0,0,0,0,0,0,0,0,-1,923,1072,0,0
-294,-48,0,0,0,0,0,0,0,0,0,-1,930,1072,0,0
-287,-48,0,0,0,0,0,0,0,0,0,-1,937,1072,0,0
-280,-48,0,0,0,0,0,0,0,0,0,-1,944,1072,0,0
-273,-48,0,0,0,0,0,0,0,0,0,-1,951,1072,0,0
-266,-48,0,0,0,0,0,0,0,0,0,-1,958,1072,0,0
-259,-48,0,0,0,0,0,0,0,0,0,-1,965,1072,0,0
-252,-48,0,0,0,0,0,0,0,0,0,-1,972,1072,0,0
-245,-48,0,0,0,0,0,0,0,0,0,-1,979,1072,0,0
-238,-48,0,0,0,0,0,0,0,0,0,-1,986,1072,0,0
-231,-48,0,0,0,0,0,0,0,0,0,-1,993,1072,0,0
-224,-48,0,0,0,0,0,0,0,0,0,-1,1000,1072,0,0
-217,-48,0,0,0,0,0,0,0,0,0,-1,1007,1072,0,0
-210,-48,0,0,0,0,0,0,0,0,0,-1,1014,1072,0,0
-203,-48,0,0,0,0,0,0,0,0,0,-1,1021,1072,0,0
-196,-48,0,0,0,0,0,0,0,0,0,-1,1028,1072,0,0
-189,-48,0,0,0,0,0,0,0,0,0,-1,1035,1072,0,0
-182,-48,0,0,0,0,0,0,0,0,0,-1,1042,1072,0,0
-175,-48,0,0,0,0,0,0,0,0,0,-1,1049,1072,0,0
-168,-48,0,0,0,0,0,0,0,0,0,-1,1056,1072,0,0
-161,-48,0,0,0,0,0,0,0,0,0,-1,1063,1072,0,0
-154,-48,0,0,0,0,0,0,0,0,0,-1,1070,1072,0,0
-147,-48,0,0,0,0,0,0,0,0,0,-1,1077,1072,0,0
-140,-48,0,0,0,0,0,0,0,0,0,-1,1084,1072,0,0
-133,-48,0,0,0,0,0,0,0,0,0,-1,1091,1072,0,0
-126,-48,0,0,0,0,0,0,0,0,0,-1,1098,1072,0,0
-119,-48,0,0,0,0,0,0,0,0,0,-1,1105,1072,0,0
-112,-48,0,0,0,0,0,0,0,0,0,-1,1112,1072,0,0
-105,-48,0,0,0,0,0,0,0,0,0,-1,1119,1072,0,0
-98,-48,0,0,0,0,0,0,0,0,0,-1,1126,1072,0,0
-91,-48,0,0,0,0,0,0,0,0,0,-1,1133,1072,0,0
-84,-48,0,0,0,0,0,0,0,0,0,-1,1140,1072,0,0
-77,-48,0,0,0,0,0,0,0,0,0,-1,1147,1072,0,0
-70,-48,0,0,0,0,0,0,0,0,0,-1,1154,1072,0,0
-63,-48,0,0,0,0,0,0,0,0,0,-1,1161,1072,0,0
-56,-48,0,0,0,0,0,0,0,0,0,-1,1168,1072,0,0
-49,-48,0,0,0,0,0,0,0,0,0,-1,1175,1072,0,0
-42,-48,0,0,0,0,0,0,0,0,0,-1,1182,1072,0,0
-35,-48,0,0,0,0,0,0,0,0,0,-1,1189,1072,0,0
-28,-48,0,0,0,0,0,0,0,0,0,-1,1196,1072,0,0
-21,-48,0,0,0,0,0,0,0,0,0,-1,1203,1072,0,0
-14,-48,0,0,0,0,0,0,0,0,0,-1,1210,1072,0,0
-7,-48,0,0,0,0,0,0,0,0,0,-1,1217,1072,0,0
0,-48,0,0,0,0,0,0,0,0,0,-1,1224,1072,0,0
7,-48,0,0,0,0,0,0,0,0,0,-1,1231,1072,0,0
14,-48,0,0,0,0,0,0,0,0,0,-1,1238,1072,0,0
21,-48,0,0,0,0,0,0,0,0,0,-1,1245,1072,0,0
28,-48,0,0,0,0,0,0,0,0,0,-1,1252,1072,0,0
35,-48,0,0,0,0,0,0,0,0,0,-1,1259,1072,0,0
42,-48,0,0,0,0,0,0,0,0,0,-1,1266,1072,0,0
49,-48,0,0,0,0,0,0,0,0,0,-1,1273,1072,0,0
56,-48,0,0,0,0,0,0,0,0,0,-1,1280,1072,0,0
63,-48,0,0,0,0,0,0,0,0,0,-1,1287,1072,0,0
70,-48,0,0,0,0,0,0,0,0,0,-1,1294,1072,0,0
77,-48,0,0,0,0,0,0,0,0,0,-1,1301,1072,0,0
84,-48,0,0,0,0,0,0,0,0,0,-1,1308,1072,0,0
91,-48,0,0,0,0,0,0,0,0,0,-1,1315,1072,0,0
98,-48,0,0,0,0,0,0,0,0,0,-1,1322,1072,0,0
105,-48,0,0,0,0,0,0,0,0,0,-1,1329,1072,0,0
112,-48,0,0,0,0,0,0,0,0,0,-1,1336,1072,0,0
119,-48,0,0,0,0,0,0,0,0,0,-1,1343,1072,0,0
126,-48,0,0,0,0,0,0,0,0,0,-1,1350,1072,0,0
133,-48,0,0,0,0,0,0,0,0,0,-1,1357,1072,0,0
140,-48,0,0,0,0,0,0,0,0,0,-1,1364,1072,0,0
147,-48,0,0,0,0,0,0,0,0,0,-1,1371,1072,0,0
154,-48,0,0,0,0,0,0,0,0,0,-1,1378,1072,0,0
161,-48,0,0,0,0,0,0,0,0,0,-1,1385,1072,0,0
168,-48,0,0,0,0,0,0,0,0,0,-1,1392,1072,0,0
175,-48,0,0,0,0,0,0,0,0,0,-1,1399,1072,0,0
182,-48,0,0,0,0,0,0,0,0,0,-1,1406,1072,0,0
189,-48,0,0,0,0,0,0,0,0,0,-1,1413,1072,0,0
196,-48,0,0,0,0,0,0,0,0,0,-1,1420,1072,0,0
203,-48,0,0,0,0,0,0,0,0,0,-1,1427,1072,0,0
210,-48,0,0,0,0,0,0,0,0,0,-1,1434,1072,0,0
217,-48,0,0,0,0,0,0,0,0,0,-1,1441,1072,0,0
224,-48,0,0,0,0,0,0,0,0,0,-1,1448,1072,0,0
231,-48,0,0,0,0,0,0,0,0,0,-1,1455,1072,0,0
238,-48,0,0,0,0,0,0,0,0,0,-1,1462,1072,0,0
245,-48,0,0,0,0,0,0,0,0,0,-1,1469,1072,0,0
252,-48,0,0,0,0,0,0,0,0,0,-1,1476,1072,0,0
259,-48,0,0,0,0,0,0,0,0,0,-1,1483,1072,0,0
266,-48,0,0,0,0,0,0,0,0,0,-1,1490,1072,0,0
273,-48,0,0,0,0,0,0,0,0,0,-1,1497,1072,0,0
280,-48,0,0,0,0,0,0,0,0,0,-1,1504,1072,0,0
287,-48,0,0,0,0,0,0,0,0,0,-1,1511,1072,0,0
294,-48,0,0,0,0,0,0,0,0,0,-1,1518,1072,0,0
301,-48,0,0,0,0,0,0,0,0,0,-1,1525,1072,0,0
308,-48,0,0,0,0,0,0,0,0,0,-1,1532,1072,0,0
315,-48,0,0,0,0,0,0,0,0,0,-1,1539,1072,0,0
322,-48,0,0,0,0,0,0,0,0,0,-1,1546,1072,0,0
329,-48,0,0,0,0,0,0,0,0,0,-1,1553,1072,0,0
336,-48,0,0,0,0,0,0,0,0,0,-1,1560,1072,0,0
343,-48,0,0,0,0,0,0,0,0,0,-1,1567,1072,0,0
350,-48,0,0,0,0,0,0,0,0,0,-1,1574,1072,0,0
357,-48,0,0,0,0,0,0,0,0,0,-1,1581,1072,0,0
364,-48,0,0,0,0,0,0,0,0,0,-1,1588,1072,0,0
371,-48,0,0,0,0,0,0,0,0,0,-1,1595,1072,0,0
378,-48,0,0,0,0,0,0,0,0,0,-1,1602,1072,0,0
385,-48,0,0,0,0,0,0,0,0,0,-1,1609,1072,0,0
392,-48,0,0,0,0,0,0,0,0,0,-1,1616,1072,0,0
399,-48,0,0,0,0,0,0,0,0,0,-1,1623,1072,0,0
406,-48,0,0,0,0,0,0,0,0,0,-1,1630,1072,0,0
413,-48,0,0,0,0,0,0,0,0,0,-1,1637,1072,0,0
420,-48,0,0,0,0,0,0,0,0,0,-1,1644,1072,0,0
427,-48,0,0,0,0,0,0,0,0,0,-1,1651,1072,0,0
434,-48,0,0,0,0,0,0,0,0,0,-1,1658,1072,0,0
441,-48,0,0,0,0,0,0,0,0,0,-1,1665,1072,0,0
448,-48,0,0,0,0,0,0,0,0,0,-1,1672,1072,0,0
455,-48,0,0,0,0,0,0,0,0,0,-1,1679,1072,0,0
462,-48,0,0,0,0,0,0,0,0,0,-1,1686,1072,0,0
469,-48,0,0,0,0,0,0,0,0,0,-1,1693,1072,0,0
476,-48,0,0,0,0,0,0,0,0,0,-1,1700,1072,0,0
483,-48,0,0,0,0,0,0,0,0,0,-1,1707,1072,0,0
490,-48,0,0,0,0,0,0,0,0,0,-1,1714,1072,0,0
497,-48,0,0,0,0,0,0,0,0,0,-1,1721,1072,0,0
504,-48,0,0,0,0,0,0,0,0,0,-1,1728,1072,0,0
511,-48,0,0,0,0,0,0,0,0,0,-1,1735,1072,0,0
518,-48,0,0,0,0,0,0,0,0,0,-1,1742,1072,0,0
525,-48,0,0,0,0,0,0,0,0,0,-1,1749,1072,0,0
532,-48,0,0,0,0,0,0,0,0,0,-1,1756,1072,0,0
539,-48,0,0,0,0,0,0,0,0,0,-1,1763,1072,0,0
546,-48,0,0,0,0,0,0,0,0,0,-1,1770,1072,0,0
553,-48,0,0,0,0,0,0,0,0,0,-1,1777,1072,0,0
560,-48,0,0,0,0,0,0,0,0,0,-1,1784,1072,0,0
567,-48,0,0,0,0,0,0,0,0,0,-1,1791,1072,0,0
574,-48,0,0,0,0,0,0,0,0,0,-1,1798,1072,0,0
581,-48,0,0,0,0,0,0,0,0,0,-1,1805,1072,0,0
588,-48,0,0,0,0,0,0,0,0,0,-1,1812,1072,0,0
595,-48,0,0,0,0,0,0,0,0,0,-1,1819,1072,0,0
602,-48,0,0,0,0,0,0,0,0,0,-1,1826,1072,0,0
609,-48,0,0,0,0,0,0,0,0,0,-1,1833,1072,0,0
616,-48,0,0,0,0,0,0,0,0,0,-1,1840,1072,0,0
623,-48,0,0,0,0,0,0,0,0,0,-1,1847,1072,0,0
630,-48,0,0,0,0,0,0,0,0,0,-1,1854,1072,0,0
637,-48,0,0,0,0,0,0,0,0,0,-1,1861,1072,0,0
644,-48,0,0,0,0,0,0,0,0,0,-1,1868,1072,0,0
651,-48,-0.0860596,-0.0323486,-0.00385237,-0.00118969,-0.00167974,-0.000377665,-0.00466439,-1.1205,0.00299166,0.0289941,1875,1072,-0.0861001,0.0323242
658,-48,-0.097168,-0.102051,-0.00252711,-0.00083151,-0.00101603,-0.000356024,-0.00300259,-1.13309,0.00189424,0.0331382,1882,1072,-0.0971974,0.102058
665,-48,-0.141235,-0.130493,-0.00157419,-0.000605056,-0.000550561,-0.00035619,-0.00182305,-1.14626,0.00111575,0.0355484,1889,1072,-0.141265,0.13044
672,-48,-0.183472,-0.158813,-0.00089681,-0.000465779,-0.000254188,-0.00034804,-0.00101455,-1.13702,0.000595292,0.0335581,1896,1072,-0.183503,0.158766
679,-48,-0.134521,-0.0731201,-0.000490316,-0.000375614,-8.8258e-05,-0.00032771,-0.00053822,-1.07352,0.000313187,0.0337579,1903,1072,-0.134498,0.0731081
686,-48,0.0695801,-0.0682373,-0.000260588,-0.000314075,-1.23551e-05,-0.000257872,-0.000316791,-0.216389,0.000194551,0.0340853,1910,1072,0.0696312,0.0682347
693,-48,0.10437,-0.212646,-0.000134397,-0.000272087,1.04553e-05,-0.000133607,-0.000272877,0.0753575,0.000157557,0.0354878,1917,1072,0.104366,0.212697
700,-48,0.00256348,-0.0551758,-9.18739e-05,-0.000218429,1.39945e-05,-9.03449e-05,-0.000219958,0.108829,0.000127666,0.0315409,1924,1072,0.00257668,0.0551919
707,-48,-0.0170898,-0.0557861,-3.00337e-05,-0.000183164,4.03278e-05,-2.00624e-05,-0.000193136,0.242394,0.000122618,0.0195354,1931,1072,-0.0170424,0.0558198
714,-48,-0.0236816,-0.0201416,3.60474e-05,-0.000149673,1.09948e-05,3.6696e-05,-0.000150322,0.0589266,0.000114425,0.0110855,1938,1072,-0.0236837,0.020191
721,-48,-0.020752,-0.0466309,2.25384e-05,-0.000145306,-5.11604e-05,3.69031e-05,-0.000159671,-0.27373,0.000120645,0.0128683,1945,1072,-0.0208055,0.0466598
728,-48,-0.0418701,-0.0666504,-4.34723e-05,-0.000135489,-7.63603e-05,-3.31042e-07,-0.000178631,-0.514263,0.000118977,0.0179777,1952,1072,-0.0418521,0.066661
735,-48,-0.0437012,-0.0592041,-0.000191547,-9.73272e-05,7.6048e-05,-5.49798e-05,-0.000233895,1.06271,0.000141217,0.0155107,1959,1072,-0.0436621,0.0591525
742,-48,-0.0362549,-0.069458,-0.000131512,-8.00146e-05,0.000242236,0.000137838,-0.000349365,0.838348,0.000289989,0.0122025,1966,1072,-0.0363089,0.069482
749,-48,-0.0164795,-0.0736084,0.000333267,-0.000204068,0.000220708,0.000412298,-0.0002831,0.343855,0.000403791,0.011314,1973,1072,-0.0165232,0.0736573
756,-48,-0.0065918,-0.0640869,0.000690052,-0.000620842,0.000123459,0.000701578,-0.000632368,0.0930888,0.0007705,0.0108344,1980,1072,-0.00662832,0.0640567
763,-48,-0.010498,-0.0682373,0.000920618,-0.000946457,-1.35975e-05,0.000920717,-0.000946556,-0.00728229,0.00107811,0.0112912,1987,1072,-0.0105507,0.0682286
770,-48,-0.00500488,-0.0788574,0.00128281,-0.00141565,-0.000169449,0.0012934,-0.00142625,-0.0624678,0.00157082,0.0116685,1994,1072,-0.005006,0.0788812
777,-48,-0.020752,-0.0830078,0.00174311,-0.00206791,-0.000496816,0.00180681,-0.00213161,-0.127524,0.00227643,0.0100337,2001,1072,-0.0208126,0.0829718
784,-48,0.020874,-0.104858,0.00224784,-0.00293791,-0.00107457,0.00246169,-0.00315175,-0.196443,0.00324907,0.0218738,2008,1072,0.0209149,0.104822
791,-48,0.0841064,-0.186401,0.00275612,-0.00405379,-0.00197424,0.00328707,-0.00458474,-0.262722,0.00456533,0.040395,2015,1072,0.0840781,0.186447
798,-48,0.0371094,-0.214966,0.00325391,-0.00544745,-0.0032774,0.00435023,-0.00654377,-0.322807,0.00633201,0.04571,2022,1072,0.0371509,0.215
805,-48,0.167236,-0.28418,0.00362766,-0.00713354,-0.00506888,0.00563924,-0.00914513,-0.377788,0.00861539,0.0420906,2029,1072,0.167222,0.28415
812,-48,0.200684,-0.359863,0.00364801,-0.00908663,-0.00752202,0.00713582,-0.0125744,-0.434172,0.0115232,0.0440172,2036,1072,0.200729,0.359816
-700,-55,2.74945,-0.127808,-0.0795706,0.00936608,0.0008372,0.00937397,-0.0795785,1.56138,0.0564371,0.0463265,524,1079,2.74944,0.127851
-693,-55,2.63666,-0.669189,-0.0692701,0.0152461,0.00161808,0.0152771,-0.069301,1.55166,0.0520459,0.0479005,531,1079,2.63665,0.669188
-686,-55,2.40649,-1.31348,0,0,0,0,0,0,0,-1,538,1079,2.40648,1.31349
-679,-55,0.0687866,1.04211,0,0,0,0,0,0,0,-1,545,1079,0.0687805,-1.04216
-672,-55,4.67072,-0.0262451,0,0,0,0,0,0,0,-1,552,1079,4.67074,0.0262362
-665,-55,0.443054,-0.56311,-0.0302099,0.0137152,0.000320508,0.0137175,-0.0302122,1.5635,0.025952,0.0456392,559,1079,0.443067,0.563156
-658,-55,0.234863,-0.359497,-0.0228849,0.0115061,-0.000110847,0.0115065,-0.0228853,-1.56757,0.0202151,0.0466079,566,1079,0.234843,0.359468
-651,-55,-0.0249023,-0.151245,-0.0167776,0.00926054,-0.000431214,0.00926768,-0.0167847,-1.55424,0.0152487,0.0338932,573,1079,-0.0249023,0.151245
-644,-55,-0.0184326,-0.0515137,-0.011802,0.00788944,-0.000577129,0.00790634,-0.0118189,-1.54152,0.0114628,0.0133864,580,1079,-0.0184087,0.0515458
-637,-55,0.00579834,-0.0826416,-0.00751276,0.00522611,-0.000529318,0.00524806,-0.00753472,-1.52934,0.0074194,0.0113491,587,1079,0.00578936,0.0825836
-630,-55,0.00793457,-0.0722656,-0.00427963,0.00361386,-0.000667075,0.00366984,-0.00433561,-1.48708,0.00462727,0.0142065,594,1079,0.00793329,0.0722383
-623,-55,-0.00372314,-0.0629883,-0.00239541,0.0023251,-0.000576677,0.00239453,-0.00246484,-1.45098,0.00280565,0.0139001,601,1079,-0.00372531,0.0630021
-616,-55,0.00982666,-0.0664063,-0.00113828,0.00150518,-0.000622638,0.0016445,-0.00127759,-1.35068,0.0016915,0.0123095,608,1079,0.00981875,0.0663512
-609,-55,-0.00341797,-0.0787354,-0.0008976,0.000844716,-0.000249609,0.000879771,-0.000932654,-1.43127,0.00104655,0.0124526,615,1079,-0.00343974,0.078786
-602,-55,-0.0362549,-0.0837402,-0.000695664,0.000473842,-7.53364e-05,0.000478675,-0.000700497,-1.50673,0.000684798,0.011852,622,1079,-0.0362296,0.0837935
-595,-55,-0.0146484,-0.0714111,-0.000581148,0.000479858,6.70691e-05,0.000484081,-0.000585371,1.50792,0.00061837,0.0137374,629,1079,-0.014632,0.0714059
-588,-55,-0.00720215,-0.101685,-0.000572364,0.000574162,0.000138747,0.000590714,-0.000588915,1.45206,0.000681059,0.0244663,636,1079,-0.00717517,0.101688
-581,-55,-0.0205688,-0.0828857,-0.000492344,0.000641538,0.000129199,0.000656073,-0.000506878,1.45877,0.000673269,0.0372617,643,1079,-0.0205448,0.0828542
-574,-55,-0.121277,0.128662,-0.00035762,0.000738913,0.000114235,0.000750687,-0.000369394,1.46809,0.000659051,0.0382016,650,1079,-0.121285,-0.128711
-567,-55,-0.198853,0.150513,-0.000137332,0.000804337,9.52959e-05,0.000813884,-0.00014688,1.47095,0.000597597,0.0379352,657,1079,-0.19883,-0.15053
-560,-55,-0.235962,-0.0239258,0.000203169,0.000828329,8.25344e-05,0.000839042,0.000192457,1.44172,0.000507522,0.0390923,664,1079,-0.235992,0.0238815
-553,-55,-0.242798,-0.0454102,0.000671467,0.000796533,6.81682e-05,0.000826506,0.000641494,1.15655,0.000500856,0.038233,671,1079,-0.24277,0.0453905
-546,-55,-0.184326,0.012085,0.00124417,0.000691793,6.79702e-05,0.00125241,0.000683552,0.120654,0.000724087,0.0349936,678,1079,-0.184321,-0.0121004
-539,-55,-0.197205,0.088501,0.00199536,0.000485928,9.98837e-05,0.00200194,0.000479347,0.0657908,0.001207,0.0340457,685,1079,-0.197229,-0.0885417
-532,-55,-0.174072,0.0703125,0.00293167,0.000156987,0.000204802,0.0029467,0.000141952,0.0732816,0.0019189,0.0367786,692,1079,-0.174059,-0.0702805
-525,-55,0,0,0,0,0,0,0,0,0,-1,699,1079,0,0
-518,-55,0,0,0,0,0,0,0,0,0,-1,706,1079,0,0
-511,-55,0,0,0,0,0,0,0,0,0,-1,713,1079,0,0
-504,-55,0,0,0,0,0,0,0,0,0,-1,720,1079,0,0
-497,-55,0,0,0,0,0,0,0,0,0,-1,727,1079,0,0
-490,-55,0,0,0,0,0,0,0,0,0,-1,734,1079,0,0
-483,-55,0,0,0,0,0,0,0,0,0,-1,741,1079,0,0
-476,-55,0,0,0,0,0,0,0,0,0,-1,748,1079,0,0
-469,-55,0,0,0,0,0,0,0,0,0,-1,755,1079,0,0
-462,-55,0,0,0,0,0,0,0,0,0,-1,762,1079,0,0
-455,-55,0,0,0,0,0,0,0,0,0,-1,769,1079,0,0
-448,-55,0,0,0,0,0,0,0,0,0,-1,776,1079,0,0
-441,-55,0,0,0,0,0,0,0,0,0,-1,783,1079,0,0
-434,-55,0,0,0,0,0,0,0,0,0,-1,790,1079,0,0
-427,-55,0,0,0,0,0,0,0,0,0,-1,797,1079,0,0
-420,-55,0,0,0,0,0,0,0,0,0,-1,804,1079,0,0
-413,-55,0,0,0,0,0,0,0,0,0,-1,811,1079,0,0
-406,-55,0,0,0,0,0,0,0,0,0,-1,818,1079,0,0
-399,-55,0,0,0,0,0,0,0,0,0,-1,825,1079,0,0
-392,-55,0,0,0,0,0,0,0,0,0,-1,832,1079,0,0
-385,-55,0,0,0,0,0,0,0,0,0,-1,839,1079,0,0
-378,-55,0,0,0,0,0,0,0,0,0,-1,846,1079,0,0
-371,-55,0,0,0,0,0,0,0,0,0,-1,853,1079,0,0
-364,-55,0,0,0,0,0,0,0,0,0,-1,860,1079,0,0
-357,-55,0,0,0,0,0,0,0,0,0,-1,867,1079,0,0
-350,-55,0,0,0,0,0,0,0,0,0,-1,874,1079,0,0
-343,-55,0,0,0,0,0,0,0,0,0,-1,881,1079,0,0
-336,-55,0,0,0,0,0,0,0,0,0,-1,888,1079,0,0
-329,-55,0,0,0,0,0,0,0,0,0,-1,895,1079,0,0
-322,-55,0,0,0,0,0,0,0,0,0,-1,902,1079,0,0
-315,-55,0,0,0,0,0,0,0,0,0,-1,909,1079,0,0
-308,-55,0,0,0,0,0,0,0,0,0,-1,916,1079,0,0
-301,-55,0,0,0,0,0,0,0,0,0,-1,923,1079,0,0
-294,-55,0,0,0,0,0,0,0,0,0,-1,930,1079,0,0
-287,-55,0,0,0,0,0,0,0,0,0,-1,937,1079,0,0
-280,-55,0,0,0,0,0,0,0,0,0,-1,944,1079,0,0
-273,-55,0,0,0,0,0,0,0,0,0,-1,951,1079,0,0
-266,-55,0,0,0,0,0,0,0,0,0,-1,958,1079,0,0
-259,-55,0,0,0,0,0,0,0,0,0,-1,965,1079,0,0
-252,-55,0,0,0,0,0,0,0,0,0,-1,972,1079,0,0
-245,-55,0,0,0,0,0,0,0,0,0,-1,979,1079,0,0
-238,-55,0,0,0,0,0,0,0,0,0,-1,986,1079,0,0
-231,-55,0,0,0,0,0,0,0,0,0,-1,993,1079,0,0
-224,-55,0,0,0,0,0,0,0,0,0,-1,1000,1079,0,0
-217,-55,0,0,0,0,0,0,0,0,0,-1,1007,1079,0,0
-210,-55,0,0,0,0,0,0,0,0,0,-1,1014,1079,0,0
-203,-55,0,0,0,0,0,0,0,0,0,-1,1021,1079,0,0
-196,-55,0,0,0,0,0,0,0,0,0,-1,1028,1079,0,0
-189,-55,0,0,0,0,0,0,0,0,0,-1,1035,1079,0,0
-182,-55,0,0,0,0,0,0,0,0,0,-1,1042,1079,0,0
-175,-55,0,0,0,0,0,0,0,0,0,-1,1049,1079,0,0
-168,-55,0,0,0,0,0,0,0,0,0,-1,1056,1079,0,0
-161,-55,0,0,0,0,0,0,0,0,0,-1,1063,1079,0,0
-154,-55,0,0,0,0,0,0,0,0,0,-1,1070,1079,0,0
-147,-55,0,0,0,0,0,0,0,0,0,-1,1077,1079,0,0
-140,-55,0,0,0,0,0,0,0,0,0,-1,1084,1079,0,0
-133,-55,0,0,0,0,0,0,0,0,0,-1,1091,1079,0,0
-126,-55,0,0,0,0,0,0,0,0,0,-1,1098,1079,0,0
-119,-55,0,0,0,0,0,0,0,0,0,-1,1105,1079,0,0
-112,-55,0,0,0,0,0,0,0,0,0,-1,1112,1079,0,0
-105,-55,0,0,0,0,0,0,0,0,0,-1,1119,1079,0,0
-98,-55,0,0,0,0,0,0,0,0,0,-1,1126,1079,0,0
-91,-55,0,0,0,0,0,0,0,0,0,-1,1133,1079,0,0
-84,-55,0,0,0,0,0,0,0,0,0,-1,1140,1079,0,0
-77,-55,0,0,0,0,0,0,0,0,0,-1,1147,1079,0,0
-70,-55,0,0,0,0,0,0,0,0,0,-1,1154,1079,0,0
-63,-55,0,0,0,0,0,0,0,0,0,-1,1161,1079,0,0
-56,-55,0,0,0,0,0,0,0,0,0,-1,1168,1079,0,0
-49,-55,0,0,0,0,0,0,0,0,0,-1,1175,1079,0,0
-42,-55,0,0,0,0,0,0,0,0,0,-1,1182,1079,0,0
-35,-55,0,0,0,0,0,0,0,0,0,-1,1189,1079,0,0
-28,-55,0,0,0,0,0,0,0,0,0,-1,1196,1079,0,0
-21,-55,0,0,0,0,0,0,0,0,0,-1,1203,1079,0,0
-14,-55,0,0,0,0,0,0,0,0,0,-1,1210,1079,0,0
-7,-55,0,0,0,0,0,0,0,0,0,-1,1217,1079,0,0
0,-55,0,0,0,0,0,0,0,0,0,-1,1224,1079,0,0
7,-55,0,0,0,0,0,0,0,0,0,-1,1231,1079,0,0
14,-55,0,0,0,0,0,0,0,0,0,-1,1238,1079,0,0
21,-55,0,0,0,0,0,0,0,0,0,-1,1245,1079,0,0
28,-55,0,0,0,0,0,0,0,0,0,-1,1252,1079,0,0
35,-55,0,0,0,0,0,0,0,0,0,-1,1259,1079,0,0
42,-55,0,0,0,0,0,0,0,0,0,-1,1266,1079,0,0
49,-55,0,0,0,0,0,0,0,0,0,-1,1273,1079,0,0
56,-55,0,0,0,0,0,0,0,0,0,-1,1280,1079,0,0
63,-55,0,0,0,0,0,0,0,0,0,-1,1287,1079,0,0
70,-55,0,0,0,0,0,0,0,0,0,-1,1294,1079,0,0
77,-55,0,0,0,0,0,0,0,0,0,-1,1301,1079,0,0
84,-55,0,0,0,0,0,0,0,0,0,-1,1308,1079,0,0
91,-55,0,0,0,0,0,0,0,0,0,-1,1315,1079,0,0
98,-55,0,0,0,0,0,0,0,0,0,-1,1322,1079,0,0
105,-55,0,0,0,0,0,0,0,0,0,-1,1329,1079,0,0
112,-55,0,0,0,0,0,0,0,0,0,-1,1336,1079,0,0
119,-55,0,0,0,0,0,0,0,0,0,-1,1343,1079,0,0
126,-55,0,0,0,0,0,0,0,0,0,-1,1350,1079,0,0
133,-55,0,0,0,0,0,0,0,0,0,-1,1357,1079,0,0
140,-55,0,0,0,0,0,0,0,0,0,-1,1364,1079,0,0
147,-55,0,0,0,0,0,0,0,0,0,-1,1371,1079,0,0
154,-55,0,0,0,0,0,0,0,0,0,-1,1378,1079,0,0
161,-55,0,0,0,0,0,0,0,0,0,-1,1385,1079,0,0
168,-55,0,0,0,0,0,0,0,0,0,-1,1392,1079,0,0
175,-55,0,0,0,0,0,0,0,0,0,-1,1399,1079,0,0
182,-55,0,0,0,0,0,0,0,0,0,-1,1406,1079,0,0
189,-55,0,0,0,0,0,0,0,0,0,-1,1413,1079,0,0
196,-55,0,0,0,0,0,0,0,0,0,-1,1420,1079,0,0
203,-55,0,0,0,0,0,0,0,0,0,-1,1427,1079,0,0
210,-55,0,0,0,0,0,0,0,0,0,-1,1434,1079,0,0
217,-55,0,0,0,0,0,0,0,0,0,-1,1441,1079,0,0
224,-55,0,0,0,0,0,0,0,0,0,-1,1448,1079,0,0
231,-55,0,0,0,0,0,0,0,0,0,-1,1455,1079,0,0
238,-55,0,0,0,0,0,0,0,0,0,-1,1462,1079,0,0
245,-55,0,0,0,0,0,0,0,0,0,-1,1469,1079,0,0
252,-55,0,0,0,0,0,0,0,0,0,-1,1476,1079,0,0
259,-55,0,0,0,0,0,0,0,0,0,-1,1483,1079,0,0
266,-55,0,0,0,0,0,0,0,0,0,-1,1490,1079,0,0
273,-55,0,0,0,0,0,0,0,0,0,-1,1497,1079,0,0
280,-55,0,0,0,0,0,0,0,0,0,-1,1504,1079,0,0
287,-55,0,0,0,0,0,0,0,0,0,-1,1511,1079,0,0
294,-55,0,0,0,0,0,0,0,0,0,-1,1518,1079,0,0
301,-55,0,0,0,0,0,0,0,0,0,-1,1525,1079,0,0
308,-55,0,0,0,0,0,0,0,0,0,-1,1532,1079,0,0
315,-55,0,0,0,0,0,0,0,0,0,-1,1539,1079,0,0
322,-55,0,0,0,0,0,0,0,0,0,-1,1546,1079,0,0
329,-55,0,0,0,0,0,0,0,0,0,-1,1553,1079,0,0
336,-55,0,0,0,0,0,0,0,0,0,-1,1560,1079,0,0
343,-55,0,0,0,0,0,0,0,0,0,-1,1567,1079,0,0
350,-55,0,0,0,0,0,0,0,0,0,-1,1574,1079,0,0
357,-55,0,0,0,0,0,0,0,0,0,-1,1581,1079,0,0
364,-55,0,0,0,0,0,0,0,0,0,-1,1588,1079,0,0
371,-55,0,0,0,0,0,0,0,0,0,-1,1595,1079,0,0
378,-55,0,0,0,0,0,0,0,0,0,-1,1602,1079,0,0
385,-55,0,0,0,0,0,0,0,0,0,-1,1609,1079,0,0
392,-55,0,0,0,0,0,0,0,0,0,-1,1616,1079,0,0
399,-55,0,0,0,0,0,0,0,0,0,-1,1623,1079,0,0
406,-55,0,0,0,0,0,0,0,0,0,-1,1630,1079,0,0
413,-55,0,0,0,0,0,0,0,0,0,-1,1637,1079,0,0
420,-55,0,0,0,0,0,0,0,0,0,-1,1644,1079,0,0
427,-55,0,0,0,0,0,0,0,0,0,-1,1651,1079,0,0
434,-55,0,0,0,0,0,0,0,0,0,-1,1658,1079,0,0
441,-55,0,0,0,0,0,0,0,0,0,-1,1665,1079,0,0
448,-55,0,0,0,0,0,0,0,0,0,-1,1672,1079,0,0
455,-55,0,0,0,0,0,0,0,0,0,-1,1679,1079,0,0
462,-55,0,0,0,0,0,0,0,0,0,-1,1686,1079,0,0
469,-55,0,0,0,0,0,0,0,0,0,-1,1693,1079,0,0
476,-55,0,0,0,0,0,0,0,0,0,-1,1700,1079,0,0
483,-55,0,0,0,0,0,0,0,0,0,-1,1707,1079,0,0
490,-55,0,0,0,0,0,0,0,0,0,-1,1714,1079,0,0
497,-55,0,0,0,0,0,0,0,0,0,-1,1721,1079,0,0
504,-55,0,0,0,0,0,0,0,0,0,-1,1728,1079,0,0
511,-55,0,0,0,0,0,0,0,0,0,-1,1735,1079,0,0
518,-55,0,0,0,0,0,0,0,0,0,-1,1742,1079,0,0
525,-55,0,0,0,0,0,0,0,0,0,-1,1749,1079,0,0
532,-55,0,0,0,0,0,0,0,0,0,-1,1756,1079,0,0
539,-55,0,0,0,0,0,0,0,0,0,-1,1763,1079,0,0
546,-55,0,0,0,0,0,0,0,0,0,-1,1770,1079,0,0
553,-55,0,0,0,0,0,0,0,0,0,-1,1777,1079,0,0
560,-55,0,0,0,0,0,0,0,0,0,-1,1784,1079,0,0
567,-55,0,0,0,0,0,0,0,0,0,-1,1791,1079,0,0
574,-55,0,0,0,0,0,0,0,0,0,-1,1798,1079,0,0
581,-55,0,0,0,0,0,0,0,0,0,-1,1805,1079,0,0
588,-55,0,0,0,0,0,0,0,0,0,-1,1812,1079,0,0
595,-55,0,0,0,0,0,0,0,0,0,-1,1819,1079,0,0
602,-55,0,0,0,0,0,0,0,0,0,-1,1826,1079,0,0
609,-55,0,0,0,0,0,0,0,0,0,-1,1833,1079,0,0
616,-55,0,0,0,0,0,0,0,0,0,-1,1840,1079,0,0
623,-55,0,0,0,0,0,0,0,0,0,-1,1847,1079,0,0
630,-55,0,0,0,0,0,0,0,0,0,-1,1854,1079,0,0
637,-55,0,0,0,0,0,0,0,0,0,-1,1861,1079,0,0
644,-55,0,0,0,0,0,0,0,0,0,-1,1868,1079,0,0
651,-55,-0.0935059,-0.0532227,-0.00368786,-0.00142999,-0.00210365,-0.000171487,-0.00494636,-1.03167,0.00324192,0.0324471,1875,1079,-0.0935492,0.0532062
658,-55,-0.0854492,-0.0821533,-0.0024195,-0.001121,-0.00132918,-0.000290984,-0.00324952,-1.01258,0.00207616,0.0307637,1882,1079,-0.0855037,0.082166
665,-55,-0.130859,-0.139771,-0.00149441,-0.000909426,-0.000777119,-0.000371577,-0.00203226,-0.965388,0.00124953,0.0336381,1889,1079,-0.130823,0.139795
672,-55,-0.172485,-0.111572,-0.000832291,-0.000756376,-0.000413066,-0.000379527,-0.00120914,-0.831216,0.000714036,0.0334471,1896,1079,-0.172494,0.111598
679,-55,-0.144775,-0.0045166,-0.000430172,-0.000634337,-0.000198319,-0.000309205,-0.000755305,-0.547713,0.000438456,0.0329042,1903,1079,-0.144818,0.00447631
686,-55,0.0212402,-0.0119629,-0.00020133,-0.000530245,-8.74054e-05,-0.000179546,-0.000552029,-0.244256,0.000325138,0.0348622,1910,1079,0.0212544,0.0120227
693,-55,0.0311279,-0.0756836,-8.05228e-05,-0.000441171,-4.09005e-05,-7.59425e-05,-0.000445751,-0.111521,0.000275366,0.0343841,1917,1079,0.0311516,0.0756371
700,-55,-0.0194092,-0.0335693,-5.35527e-05,-0.000335786,-2.06404e-05,-5.20512e-05,-0.000337287,-0.0726175,0.000209672,0.0291467,1924,1079,-0.0194573,0.0335412
707,-55,-0.0302734,-0.0432129,2.98677e-06,-0.000260434,1.80352e-05,4.21584e-06,-0.000261663,0.0680423,0.000175864,0.0185271,1931,1079,-0.0302268,0.043238
714,-55,-0.0218506,-0.0352783,6.64467e-05,-0.000192689,-9.14972e-07,6.64499e-05,-0.000192693,-0.0035308,0.000155421,0.0121968,1938,1079,-0.0219023,0.0353083
721,-55,-0.0314941,-0.0540771,4.06393e-05,-0.000148942,-5.25502e-05,5.42313e-05,-0.000162534,-0.253101,0.000130252,0.0116277,1945,1079,-0.0314853,0.0541367
728,-55,-0.0512695,-0.0777588,-3.60047e-05,-0.00010551,-8.17177e-05,1.80431e-05,-0.000159558,-0.584345,0.000112868,0.016835,1952,1079,-0.0512728,0.077732
735,-55,-0.0421143,-0.0727539,-0.000171832,-4.27427e-05,6.38362e-05,-1.65071e-05,-0.000198068,1.18086,0.000126901,0.0153113,1959,1079,-0.0421236,0.0728016
742,-55,-0.0234375,-0.0703125,-7.94975e-05,3.87033e-05,0.000227362,0.000214521,-0.000255315,0.912554,0.000271601,0.0137471,1966,1079,-0.023495,0.0702867
749,-55,-0.0294189,-0.0725098,0.000428108,7.63354e-06,0.000241074,0.00053774,-0.000101999,0.42681,0.000396886,0.0108555,1973,1079,-0.0293727,0.0725042
756,-55,-0.0179443,-0.0614014,0.000852962,-0.000352585,0.000191921,0.000882778,-0.000382401,0.154124,0.000749252,0.00999384,1980,1079,-0.017925,0.0614588
763,-55,0.00378418,-0.0615234,0.00119441,-0.000662329,0.000135747,0.00120428,-0.000672201,0.0725962,0.00109781,0.0130544,1987,1079,0.0038097,0.0614861
770,-55,0.0249023,-0.0788574,0.00168119,-0.00106901,6.21101e-05,0.00168259,-0.00107042,0.0225685,0.0016025,0.0139021,1994,1079,0.0249463,0.0788476
777,-55,0.000244141,-0.0770264,0.00230006,-0.00165536,-0.000148835,0.00230566,-0.00166095,-0.0375573,0.00230018,0.0113687,2001,1079,0.000243602,0.0770588
784,-55,-0.00769043,-0.0668945,0.00300335,-0.00247186,-0.000567319,0.00306151,-0.00253003,-0.10217,0.00323313,0.0263269,2008,1079,-0.0076598,0.066838
791,-55,-0.361328,0.312012,0.00375623,-0.00356957,-0.00125225,0.00396437,-0.00377771,-0.164708,0.00447033,0.0399261,2015,1079,-0.361368,-0.311957
798,-55,0.116943,-0.465332,0.00454309,-0.00501648,-0.00226946,0.0050545,-0.0055279,-0.221644,0.00611179,0.0467141,2022,1079,0.116885,0.465341
805,-55,0.236084,-0.389282,0.00525298,-0.00687811,-0.00369179,0.00628815,-0.00791328,-0.273377,0.00821708,0.04296,2029,1079,0.236135,0.389227
812,-55,0.255859,-0.312988,0.00566864,-0.00920403,-0.00567453,0.00758641,-0.0111218,-0.32591,0.0108653,0.0439899,2036,1079,0.255817,0.312971
-700,-62,2.77344,0.019043,0,0,0,0,0,0,0,-1,524,1086,2.77343,-0.0190017
-693,-62,2.51349,-0.359863,0,0,0,0,0,0,0,-1,531,1086,2.5135,0.359822
-686,-62,3.30884,-0.58606,0,0,0,0,0,0,0,-1,538,1086,3.30886,0.58607
-679,-62,2.8894,-0.60144,0,0,0,0,0,0,0,-1,545,1086,2.88938,0.601407
-672,-62,3.17505,-0.128296,0,0,0,0,0,0,0,-1,552,1086,3.17503,0.128284
-665,-62,3.13153,-0.937256,0,0,0,0,0,0,0,-1,559,1086,3.13155,0.937261
-658,-62,0.224121,-0.519409,-0.0223727,0.0104254,0.00245926,0.0106088,-0.0225561,1.49637,0.0195575,0.0443175,566,1086,0.224118,0.519458
-651,-62,-0.0405884,-0.0428467,-0.0163003,0.00844249,0.0014865,0.00853148,-0.0163893,1.511,0.0146245,0.0330435,573,1086,-0.0406067,0.0428908
-644,-62,-0.0197144,-0.0587158,-0.0114009,0.00714587,0.000845152,0.0071843,-0.0114393,1.52535,0.0108455,0.0106781,580,1086,-0.0197021,0.0587413
-637,-62,-0.00469971,-0.0788574,-0.00720611,0.00484801,0.000361368,0.00485883,-0.00721693,1.54085,0.00701611,0.00981268,587,1086,-0.00467817,0.0788133
-630,-62,-0.00457764,-0.0673828,-0.00403731,0.00339495,-9.19609e-05,0.00339609,-0.00403845,-1.55843,0.00429767,0.0117931,594,1086,-0.00458602,0.0674238
-623,-62,-0.0125732,-0.0581055,-0.0020544,0.00224813,-0.000364113,0.00227873,-0.002085,-1.48696,0.00252023,0.0127824,601,1086,-0.0125694,0.0580533
-616,-62,0.0102539,-0.0626221,-0.000828606,0.00145906,-0.000605726,0.00160955,-0.00097909,-1.32729,0.00150925,0.01256,608,1086,0.0102653,0.0626389
-609,-62,0.00238037,-0.0805664,-0.000728628,0.000861475,-0.000252951,0.000900744,-0.000767898,-1.41678,0.000964408,0.0125816,615,1086,0.00236441,0.0806038
-602,-62,-0.0230103,-0.0888672,-0.000595206,0.000514855,-0.000128461,0.000529527,-0.000609878,-1.45707,0.000658381,0.012609,622,1086,-0.0230218,0.0888304
-595,-62,-0.0181885,-0.110474,-0.000524993,0.000555719,-2.92743e-05,0.000556511,-0.000525785,-1.54373,0.000624948,0.0150249,629,1086,-0.0181775,0.110533
-588,-62,-0.0204468,-0.0797119,-0.000538901,0.00066691,2.0399e-05,0.000667255,-0.000539246,1.55389,0.000697879,0.0218065,636,1086,-0.0204629,0.0796657
-581,-62,-0.0389404,0.0223389,-0.000481447,0.000757328,1.14695e-05,0.000757434,-0.000481553,1.56154,0.000721216,0.0318981,643,1086,-0.038948,-0.0223796
-574,-62,-0.128113,0.09375,-0.000373521,0.000887605,5.61408e-06,0.00088763,-0.000373546,1.56634,0.000748032,0.0335522,650,1086,-0.128114,-0.0937432
-567,-62,-0.10376,-0.0478516,-0.00019007,0.000983527,6.83361e-06,0.000983567,-0.00019011,1.56497,0.00072741,0.0356604,657,1086,-0.103754,0.0478667
-560,-62,-0.163452,0.000244141,9.07892e-05,0.00104498,3.1144e-05,0.001046,8.97737e-05,1.5382,0.000669417,0.035727,664,1086,-0.163479,-0.000232256
-553,-62,-0.131775,-0.0179443,0.000473327,0.00106157,7.27666e-05,0.00107044,0.000464459,1.44953,0.000619815,0.0316148,671,1086,-0.131776,0.017964
-546,-62,-0.0504761,-0.0305176,0.000930938,0.00101779,0.000150821,0.00113131,0.000817415,0.925567,0.000674382,0.0284507,678,1086,-0.0504716,0.0305042
-539,-62,-0.0777588,-0.00439453,0.00153249,0.00089292,0.000284885,0.00164098,0.000784427,0.363873,0.000947726,0.0328443,685,1086,-0.0777511,0.00444173
-532,-62,-0.0646973,-0.00585938,0.00225912,0.000670567,0.000507323,0.00240731,0.000522372,0.284204,0.00146219,0.0365065,692,1086,-0.064719,0.00583973
-525,-62,0,0,0,0,0,0,0,0,0,-1,699,1086,0,0
-518,-62,0,0,0,0,0,0,0,0,0,-1,706,1086,0,0
-511,-62,0,0,0,0,0,0,0,0,0,-1,713,1086,0,0
-504,-62,0,0,0,0,0,0,0,0,0,-1,720,1086,0,0
-497,-62,0,0,0,0,0,0,0,0,0,-1,727,1086,0,0
-490,-62,0,0,0,0,0,0,0,0,0,-1,734,1086,0,0
-483,-62,0,0,0,0,0,0,0,0,0,-1,741,1086,0,0
-476,-62,0,0,0,0,0,0,0,0,0,-1,748,1086,0,0
-469,-62,0,0,0,0,0,0,0,0,0,-1,755,1086,0,0
-462,-62,0,0,0,0,0,0,0,0,0,-1,762,1086,0,0
-455,-62,0,0,0,0,0,0,0,0,0,-1,769,1086,0,0
-448,-62,0,0,0,0,0,0,0,0,0,-1,776,1086,0,0
-441,-62,0,0,0,0,0,0,0,0,0,-1,783,1086,0,0
-434,-62,0,0,0,0,0,0,0,0,0,-1,790,1086,0,0
-427,-62,0,0,0,0,0,0,0,0,0,-1,797,1086,0,0
-420,-62,0,0,0,0,0,0,0,0,0,-1,804,1086,0,0
-413,-62,0,0,0,0,0,0,0,0,0,-1,811,1086,0,0
-406,-62,0,0,0,0,0,0,0,0,0,-1,818,1086,0,0
-399,-62,0,0,0,0,0,0,0,0,0,-1,825,1086,0,0
-392,-62,0,0,0,0,0,0,0,0,0,-1,832,1086,0,0
-385,-62,0,0,0,0,0,0,0,0,0,-1,839,1086,0,0
-378,-62,0,0,0,0,0,0,0,0,0,-1,846,1086,0,0
-371,-62,0,0,0,0,0,0,0,0,0,-1,853,1086,0,0
-364,-62,0,0,0,0,0,0,0,0,0,-1,860,1086,0,0
-357,-62,0,0,0,0,0,0,0,0,0,-1,867,1086,0,0
-350,-62,0,0,0,0,0,0,0,0,0,-1,874,1086,0,0
-343,-62,0,0,0,0,0,0,0,0,0,-1,881,1086,0,0
-336,-62,0,0,0,0,0,0,0,0,0,-1,888,1086,0,0
-329,-62,0,0,0,0,0,0,0,0,0,-1,895,1086,0,0
-322,-62,0,0,0,0,0,0,0,0,0,-1,902,1086,0,0
-315,-62,0,0,0,0,0,0,0,0,0,-1,909,1086,0,0
-308,-62,0,0,0,0,0,0,0,0,0,-1,916,1086,0,0
-301,-62,0,0,0,0,0,0,0,0,0,-1,923,1086,0,0
-294,-62,0,0,0,0,0,0,0,0,0,-1,930,1086,0,0
-287,-62,0,0,0,0,0,0,0,0,0,-1,937,1086,0,0
-280,-62,0,0,0,0,0,0,0,0,0,-1,944,1086,0,0
-273,-62,0,0,0,0,0,0,0,0,0,-1,951,1086,0,0
-266,-62,0,0,0,0,0,0,0,0,0,-1,958,1086,0,0
-259,-62,0,0,0,0,0,0,0,0,0,-1,965,1086,0,0
-252,-62,0,0,0,0,0,0,0,0,0,-1,972,1086,0,0
-245,-62,0,0,0,0,0,0,0,0,0,-1,979,1086,0,0
-238,-62,0,0,0,0,0,0,0,0,0,-1,986,1086,0,0
-231,-62,0,0,0,0,0,0,0,0,0,-1,993,1086,0,0
-224,-62,0,0,0,0,0,0,0,0,0,-1,1000,1086,0,0
-217,-62,0,0,0,0,0,0,0,0,0,-1,1007,1086,0,0
-210,-62,0,0,0,0,0,0,0,0,0,-1,1014,1086,0,0
-203,-62,0,0,0,0,0,0,0,0,0,-1,1021,1086,0,0
-196,-62,0,0,0,0,0,0,0,0,0,-1,1028,1086,0,0
-189,-62,0,0,0,0,0,0,0,0,0,-1,1035,1086,0,0
-182,-62,0,0,0,0,0,0,0,0,0,-1,1042,1086,0,0
-175,-62,0,0,0,0,0,0,0,0,0,-1,1049,1086,0,0
-168,-62,0,0,0,0,0,0,0,0,0,-1,1056,1086,0,0
-161,-62,0,0,0,0,0,0,0,0,0,-1,1063,1086,0,0
-154,-62,0,0,0,0,0,0,0,0,0,-1,1070,1086,0,0
-147,-62,0,0,0,0,0,0,0,0,0,-1,1077,1086,0,0
-140,-62,0,0,0,0,0,0,0,0,0,-1,1084,1086,0,0
-133,-62,0,0,0,0,0,0,0,0,0,-1,1091,1086,0,0
-126,-62,0,0,0,0,0,0,0,0,0,-1,1098,1086,0,0
-119,-62,0,0,0,0,0,0,0,0,0,-1,1105,1086,0,0
-112,-62,0,0,0,0,0,0,0,0,0,-1,1112,1086,0,0
-105,-62,0,0,0,0,0,0,0,0,0,-1,1119,1086,0,0
-98,-62,0,0,0,0,0,0,0,0,0,-1,1126,1086,0,0
-91,-62,0,0,0,0,0,0,0,0,0,-1,1133,1086,0,0
-84,-62,0,0,0,0,0,0,0,0,0,-1,1140,1086,0,0
-77,-62,0,0,0,0,0,0,0,0,0,-1,1147,1086,0,0
-70,-62,0,0,0,0,0,0,0,0,0,-1,1154,1086,0,0
-63,-62,0,0,0,0,0,0,0,0,0,-1,1161,1086,0,0
-56,-62,0,0,0,0,0,0,0,0,0,-1,1168,1086,0,0
-49,-62,0,0,0,0,0,0,0,0,0,-1,1175,1086,0,0
-42,-62,0,0,0,0,0,0,0,0,0,-1,1182,1086,0,0
-35,-62,0,0,0,0,0,0,0,0,0,-1,1189,1086,0,0
-28,-62,0,0,0,0,0,0,0,0,0,-1,1196,1086,0,0
-21,-62,0,0,0,0,0,0,0,0,0,-1,1203,1086,0,0
-14,-62,0,0,0,0,0,0,0,0,0,-1,1210,1086,0,0
-7,-62,0,0,0,0,0,0,0,0,0,-1,1217,1086,0,0
0,-62,0,0,0,0,0,0,0,0,0,-1,1224,1086,0,0
7,-62,0,0,0,0,0,0,0,0,0,-1,1231,1086,0,0
14,-62,0,0,0,0,0,0,0,0,0,-1,1238,1086,0,0
21,-62,0,0,0,0,0,0,0,0,0,-1,1245,1086,0,0
28,-62,0,0,0,0,0,0,0,0,0,-1,1252,1086,0,0
35,-62,0,0,0,0,0,0,0,0,0,-1,1259,1086,0,0
42,-62,0,0,0,0,0,0,0,0,0,-1,1266,1086,0,0
49,-62,0,0,0,0,0,0,0,0,0,-1,1273,1086,0,0
56,-62,0,0,0,0,0,0,0,0,0,-1,1280,1086,0,0
63,-62,0,0,0,0,0,0,0,0,0,-1,1287,1086,0,0
70,-62,0,0,0,0,0,0,0,0,0,-1,1294,1086,0,0
77,-62,0,0,0,0,0,0,0,0,0,-1,1301,1086,0,0
84,-62,0,0,0,0,0,0,0,0,0,-1,1308,1086,0,0
91,-62,0,0,0,0,0,0,0,0,0,-1,1315,1086,0,0
98,-62,0,0,0,0,0,0,0,0,0,-1,1322,1086,0,0
105,-62,0,0,0,0,0,0,0,0,0,-1,1329,1086,0,0
112,-62,0,0,0,0,0,0,0,0,0,-1,1336,1086,0,0
119,-62,0,0,0,0,0,0,0,0,0,-1,1343,1086,0,0
126,-62,0,0,0,0,0,0,0,0,0,-1,1350,1086,0,0
133,-62,0,0,0,0,0,0,0,0,0,-1,1357,1086,0,0
140,-62,0,0,0,0,0,0,0,0,0,-1,1364,1086,0,0
147,-62,0,0,0,0,0,0,0,0,0,-1,1371,1086,0,0
154,-62,0,0,0,0,0,0,0,0,0,-1,1378,1086,0,0
161,-62,0,0,0,0,0,0,0,0,0,-1,1385,1086,0,0
168,-62,0,0,0,0,0,0,0,0,0,-1,1392,1086,0,0
175,-62,0,0,0,0,0,0,0,0,0,-1,1399,1086,0,0
182,-62,0,0,0,0,0,0,0,0,0,-1,1406,1086,0,0
189,-62,0,0,0,0,0,0,0,0,0,-1,1413,1086,0,0
196,-62,0,0,0,0,0,0,0,0,0,-1,1420,1086,0,0
203,-62,0,0,0,0,0,0,0,0,0,-1,1427,1086,0,0
210,-62,0,0,0,0,0,0,0,0,0,-1,1434,1086,0,0
217,-62,0,0,0,0,0,0,0,0,0,-1,1441,1086,0,0
224,-62,0,0,0,0,0,0,0,0,0,-1,1448,1086,0,0
231,-62,0,0,0,0,0,0,0,0,0,-1,1455,1086,0,0
238,-62,0,0,0,0,0,0,0,0,0,-1,1462,1086,0,0
245,-62,0,0,0,0,0,0,0,0,0,-1,1469,1086,0,0
252,-62,0,0,0,0,0,0,0,0,0,-1,1476,1086,0,0
259,-62,0,0,0,0,0,0,0,0,0,-1,1483,1086,0,0
266,-62,0,0,0,0,0,0,0,0,0,-1,1490,1086,0,0
273,-62,0,0,0,0,0,0,0,0,0,-1,1497,1086,0,0
280,-62,0,0,0,0,0,0,0,0,0,-1,1504,1086,0,0
287,-62,0,0,0,0,0,0,0,0,0,-1,1511,1086,0,0
294,-62,0,0,0,0,0,0,0,0,0,-1,1518,1086,0,0
301,-62,0,0,0,0,0,0,0,0,0,-1,1525,1086,0,0
308,-62,0,0,0,0,0,0,0,0,0,-1,1532,1086,0,0
315,-62,0,0,0,0,0,0,0,0,0,-1,1539,1086,0,0
322,-62,0,0,0,0,0,0,0,0,0,-1,1546,1086,0,0
329,-62,0,0,0,0,0,0,0,0,0,-1,1553,1086,0,0
336,-62,0,0,0,0,0,0,0,0,0,-1,1560,1086,0,0
343,-62,0,0,0,0,0,0,0,0,0,-1,1567,1086,0,0
350,-62,0,0,0,0,0,0,0,0,0,-1,1574,1086,0,0
357,-62,0,0,0,0,0,0,0,0,0,-1,1581,1086,0,0
364,-62,0,0,0,0,0,0,0,0,0,-1,1588,1086,0,0
371,-62,0,0,0,0,0,0,0,0,0,-1,1595,1086,0,0
378,-62,0,0,0,0,0,0,0,0,0,-1,1602,1086,0,0
385,-62,0,0,0,0,0,0,0,0,0,-1,1609,1086,0,0
392,-62,0,0,0,0,0,0,0,0,0,-1,1616,1086,0,0
399,-62,0,0,0,0,0,0,0,0,0,-1,1623,1086,0,0
406,-62,0,0,0,0,0,0,0,0,0,-1,1630,1086,0,0
413,-62,0,0,0,0,0,0,0,0,0,-1,1637,1086,0,0
420,-62,0,0,0,0,0,0,0,0,0,-1,1644,1086,0,0
427,-62,0,0,0,0,0,0,0,0,0,-1,1651,1086,0,0
434,-62,0,0,0,0,0,0,0,0,0,-1,1658,1086,0,0
441,-62,0,0,0,0,0,0,0,0,0,-1,1665,1086,0,0
448,-62,0,0,0,0,0,0,0,0,0,-1,1672,1086,0,0
455,-62,0,0,0,0,0,0,0,0,0,-1,1679,1086,0,0
462,-62,0,0,0,0,0,0,0,0,0,-1,1686,1086,0,0
469,-62,0,0,0,0,0,0,0,0,0,-1,1693,1086,0,0
476,-62,0,0,0,0,0,0,0,0,0,-1,1700,1086,0,0
483,-62,0,0,0,0,0,0,0,0,0,-1,1707,1086,0,0
490,-62,0,0,0,0,0,0,0,0,0,-1,1714,1086,0,0
497,-62,0,0,0,0,0,0,0,0,0,-1,1721,1086,0,0
504,-62,0,0,0,0,0,0,0,0,0,-1,1728,1086,0,0
511,-62,0,0,0,0,0,0,0,0,0,-1,1735,1086,0,0
518,-62,0,0,0,0,0,0,0,0,0,-1,1742,1086,0,0
525,-62,0,0,0,0,0,0,0,0,0,-1,1749,1086,0,0
532,-62,0,0,0,0,0,0,0,0,0,-1,1756,1086,0,0
539,-62,0,0,0,0,0,0,0,0,0,-1,1763,1086,0,0
546,-62,0,0,0,0,0,0,0,0,0,-1,1770,1086,0,0
553,-62,0,0,0,0,0,0,0,0,0,-1,1777,1086,0,0
560,-62,0,0,0,0,0,0,0,0,0,-1,1784,1086,0,0
567,-62,0,0,0,0,0,0,0,0,0,-1,1791,1086,0,0
574,-62,0,0,0,0,0,0,0,0,0,-1,1798,1086,0,0
581,-62,0,0,0,0,0,0,0,0,0,-1,1805,1086,0,0
588,-62,0,0,0,0,0,0,0,0,0,-1,1812,1086,0,0
595,-62,0,0,0,0,0,0,0,0,0,-1,1819,1086,0,0
602,-62,0,0,0,0,0,0,0,0,0,-1,1826,1086,0,0
609,-62,0,0,0,0,0,0,0,0,0,-1,1833,1086,0,0
616,-62,0,0,0,0,0,0,0,0,0,-1,1840,1086,0,0
623,-62,0,0,0,0,0,0,0,0,0,-1,1847,1086,0,0
630,-62,0,0,0,0,0,0,0,0,0,-1,1854,1086,0,0
637,-62,0,0,0,0,0,0,0,0,0,-1,1861,1086,0,0
644,-62,0,0,0,0,0,0,0,0,0,-1,1868,1086,0,0
651,-62,0.12085,0.00671387,-0.00349239,-0.00152953,-0.00237758,6.12207e-05,-0.00508314,-0.981137,0.00340935,0.0376439,1875,1086,0.120868,-0.00670212
658,-62,0.0324707,-0.0708008,-0.00232843,-0.00119656,-0.00156954,-9.40406e-05,-0.00343096,-0.958429,0.00225661,0.0375591,1882,1086,0.0325067,0.0708099
665,-62,-0.0726318,-0.121338,-0.00145553,-0.000950033,-0.000982149,-0.000188632,-0.00221693,-0.911336,0.00141926,0.0352019,1889,1086,-0.0726762,0.121349
672,-62,-0.0404053,-0.0388184,-0.000817712,-0.000757482,-0.000584331,-0.00020249,-0.0013727,-0.811144,0.000855663,0.0335928,1896,1086,-0.0404132,0.0387721
679,-62,-0.0119629,-0.0314941,-0.000417459,-0.000599015,-0.00034007,-0.000156259,-0.000860214,-0.654969,0.000529137,0.0339425,1903,1086,-0.0119618,0.0315049
686,-62,0.0500488,-0.0776367,-0.000180629,-0.000465208,-0.00020336,-7.47221e-05,-0.000571115,-0.480138,0.000358442,0.0350922,1910,1086,0.0500789,0.0776727
693,-62,0.0430908,-0.0334473,-5.5106e-05,-0.000354489,-0.000135828,-2.66659e-06,-0.000406929,-0.368441,0.000270401,0.0328369,1917,1086,0.0430528,0.0333937
700,-62,-0.00878906,0.0239258,-3.55159e-05,-0.000238368,-9.9282e-05,4.98813e-06,-0.000278872,-0.387357,0.0001876,0.0265202,1924,1086,-0.00876149,-0.023955
707,-62,-0.0257568,-0.0338135,2.37343e-05,-0.000160054,-4.64733e-05,3.48174e-05,-0.000171137,-0.23411,0.000127294,0.0157673,1931,1086,-0.0257294,0.0338461
714,-62,-0.0224609,-0.0537109,9.02534e-05,-9.23737e-05,-5.04087e-05,0.000103243,-0.000105364,-0.252204,0.000120441,0.00989795,1938,1086,-0.0224541,0.0537668
721,-62,-0.0118408,-0.0606689,5.73939e-05,-4.63638e-05,-8.67415e-05,0.000106587,-9.55567e-05,-0.515893,0.000116766,0.0104078,1945,1086,-0.0118742,0.0606655
728,-62,-0.036377,-0.0948486,-2.20736e-05,-6.93911e-06,-0.000114219,9.99635e-05,-0.000128976,-0.818476,0.000132532,0.0141855,1952,1086,-0.036386,0.0948488
735,-62,-0.0394287,-0.0883789,-0.000131368,4.43212e-05,2.62603e-05,4.81624e-05,-0.000135209,1.42555,0.000109774,0.0153635,1959,1086,-0.0394191,0.0883215
742,-62,-0.0256348,-0.0639648,4.75907e-07,0.000140985,0.000219758,0.000301445,-0.000159984,0.940109,0.000270547,0.0133094,1966,1086,-0.0255843,0.0639104
749,-62,-0.0196533,-0.0531006,0.000500703,0.000230855,0.000325324,0.000717972,1.35851e-05,0.588825,0.000474185,0.0117881,1973,1086,-0.0196835,0.0531039
756,-62,-0.0383301,-0.0523682,0.000859295,-4.03953e-05,0.000297758,0.000948913,-0.000130013,0.292352,0.000680102,0.0122418,1980,1086,-0.0383883,0.0523445
763,-62,-0.0367432,-0.0577393,0.00119317,-0.000288759,0.00033178,0.00126406,-0.000359648,0.210498,0.000984728,0.0129568,1987,1086,-0.0367013,0.0577828
770,-62,-0.0178223,-0.074707,0.00165032,-0.000568662,0.00035101,0.00170452,-0.000622863,0.153203,0.00139125,0.0106049,1994,1086,-0.0177833,0.0747369
777,-62,-0.0244141,-0.0997314,0.00220663,-0.000999781,0.000260449,0.00222765,-0.0010208,0.080524,0.00191815,0.012154,2001,1086,-0.0243778,0.099738
784,-62,-0.0268555,0.015625,0.00280291,-0.00164008,-6.67877e-06,0.00280292,-0.00164009,-0.00150321,0.0025943,0.0255972,2008,1086,-0.0268134,-0.015579
791,-62,-0.0169678,0.385986,0.00339066,-0.00256036,-0.0005045,0.00343313,-0.00260283,-0.0839767,0.00349584,0.0409827,2015,1086,-0.0169982,-0.386001
798,-62,0.0844727,0.692871,0.00392948,-0.00385581,-0.0012942,0.00413899,-0.00406531,-0.160488,0.00473682,0.0445679,2022,1086,0.0845297,-0.692903
805,-62,0.227783,0.510864,0.00428871,-0.00564046,-0.002448,0.00485945,-0.0062112,-0.229053,0.00640751,0.0426795,2029,1086,0.227762,-0.510865
812,-62,0.216675,-0.126587,0.00424112,-0.00804189,-0.00411576,0.00549269,-0.00929346,-0.295207,0.00863029,0.0444607,2036,1086,0.216638,0.126612
-700,-69,2.94659,0.124268,0,0,0,0,0,0,0,-1,524,1093,2.94661,-0.124257
-693,-69,2.66711,-0.242065,-0.0654296,0.0103781,0.0163488,0.0137537,-0.0688051,1.36719,0.0510756,0.047511,531,1093,2.66711,0.24205
-686,-69,2.63751,-0.433838,-0.0556661,0.0123319,0.0137678,0.0150137,-0.0583479,1.37841,0.0447507,0.045127,538,1093,2.63752,0.433883
-679,-69,2.216,-0.471924,-0.0459131,0.0124774,0.0111407,0.0145308,-0.0479665,1.38853,0.0377649,0.0441972,545,1093,2.21599,0.471985
-672,-69,1.71106,-0.500122,-0.0367923,0.0116419,0.00866788,0.0131464,-0.0382968,1.39894,0.0308612,0.0417074,552,1093,1.71108,0.500112
-665,-69,1.36658,-0.821045,0,0,0,0,0,0,0,-1,559,1093,1.36659,0.821011
-658,-69,1.04095,-1.09583,0,0,0,0,0,0,0,-1,566,1093,1.04094,1.09588
-651,-69,-0.0217896,-0.0057373,-0.0155505,0.00700246,0.00299404,0.00739317,-0.0159412,1.44103,0.0137701,0.0291353,573,1093,-0.0217737,0.00569612
-644,-69,-0.0391235,-0.0689697,-0.0108023,0.0058808,0.00192922,0.00610099,-0.0110225,1.45716,0.0100214,0.00856443,580,1093,-0.0391472,0.0689402
-637,-69,-0.0254517,-0.0640869,-0.0067889,0.00397164,0.000987515,0.00406152,-0.00687878,1.48003,0.00638581,0.0111714,587,1093,-0.0254472,0.0640385
-630,-69,0.00817871,-0.0750732,-0.00373856,0.00277129,0.000297096,0.00278482,-0.0037521,1.52528,0.00378784,0.0129495,594,1093,0.00816973,0.0750502
-623,-69,0.00695801,-0.0510254,-0.00171963,0.00193492,-0.000264381,0.00195395,-0.00173866,-1.49895,0.00213313,0.011743,601,1093,0.00696384,0.0510156
-616,-69,0.00439453,-0.0629883,-0.000540585,0.00126757,-0.000646574,0.00147498,-0.000747999,-1.26038,0.00130612,0.0122995,608,1093,0.00441739,0.062936
-609,-69,-0.0158691,-0.111694,-0.000543765,0.000786814,-0.000269568,0.000839352,-0.000596303,-1.37831,0.000832826,0.0119199,615,1093,-0.0158577,0.111673
-602,-69,-0.02948,-0.0844727,-0.000460934,0.000516317,-0.000161039,0.000542171,-0.000486788,-1.41161,0.000594356,0.0150672,622,1093,-0.0294733,0.0844642
-595,-69,-0.0193481,-0.0854492,-0.000433281,0.000570378,-0.000109106,0.000582102,-0.000445005,-1.46375,0.000594758,0.0171287,629,1093,-0.019347,0.0854641
-588,-69,-0.0116577,-0.097168,-0.000470191,0.000675977,-8.15009e-05,0.000681743,-0.000475957,-1.50016,0.000671909,0.0196861,636,1093,-0.0116846,0.0971274
-581,-69,-0.0402222,-0.0461426,-0.000444677,0.000767757,-7.95449e-05,0.000772953,-0.000449874,-1.50556,0.000714166,0.0261764,643,1093,-0.0402154,0.0461526
-574,-69,-0.113037,-0.090332,-0.000380018,0.00089554,-6.69739e-05,0.000899046,-0.000383525,-1.51848,0.00076017,0.0291387,650,1093,-0.113032,0.0902913
-567,-69,-0.0448608,-0.145874,-0.000251313,0.000985469,-3.67414e-05,0.00098656,-0.000252404,-1.54112,0.000756018,0.0346409,657,1093,-0.0448467,0.145841
-560,-69,-0.0269165,-0.131836,-5.68015e-05,0.00104439,3.14425e-05,0.00104529,-5.76985e-05,1.54227,0.000716866,0.0352624,664,1093,-0.0269466,0.131862
-553,-69,-0.0377808,-0.034668,0.000202424,0.00106559,0.000134108,0.00108595,0.000182068,1.42016,0.000671552,0.0335697,671,1093,-0.037781,0.0347168
-546,-69,-0.0377197,-0.0440674,0.000496224,0.00103858,0.000293127,0.00116673,0.000368076,1.15866,0.000688733,0.0327244,678,1093,-0.0377267,0.0440908
-539,-69,-0.0681763,-0.0288086,0.000883081,0.000952091,0.00052939,0.0014481,0.000387072,0.817942,0.000865717,0.0350513,685,1093,-0.0681978,0.0287819
-532,-69,-0.0255127,0.020752,0.00132275,0.000805004,0.000864377,0.00196619,0.000161569,0.639903,0.00126039,0.0379701,692,1093,-0.0255079,-0.0207787
-525,-69,0,0,0,0,0,0,0,0,0,-1,699,1093,0,0
-518,-69,0,0,0,0,0,0,0,0,0,-1,706,1093,0,0
-511,-69,0,0,0,0,0,0,0,0,0,-1,713,1093,0,0
-504,-69,0,0,0,0,0,0,0,0,0,-1,720,1093,0,0
-497,-69,0,0,0,0,0,0,0,0,0,-1,727,1093,0,0
-490,-69,0,0,0,0,0,0,0,0,0,-1,734,1093,0,0
-483,-69,0,0,0,0,0,0,0,0,0,-1,741,1093,0,0
-476,-69,0,0,0,0,0,0,0,0,0,-1,748,1093,0,0
-469,-69,0,0,0,0,0,0,0,0,0,-1,755,1093,0,0
-462,-69,0,0,0,0,0,0,0,0,0,-1,762,1093,0,0
-455,-69,0,0,0,0,0,0,0,0,0,-1,769,1093,0,0
-448,-69,0,0,0,0,0,0,0,0,0,-1,776,1093,0,0
-441,-69,0,0,0,0,0,0,0,0,0,-1,783,1093,0,0
-434,-69,0,0,0,0,0,0,0,0,0,-1,790,1093,0,0
-427,-69,0,0,0,0,0,0,0,0,0,-1,797,1093,0,0
-420,-69,0,0,0,0,0,0,0,0,0,-1,804,1093,0,0
-413,-69,0,0,0,0,0,0,0,0,0,-1,811,1093,0,0
-406,-69,0,0,0,0,0,0,0,0,0,-1,818,1093,0,0
-399,-69,0,0,0,0,0,0,0,0,0,-1,825,1093,0,0
-392,-69,0,0,0,0,0,0,0,0,0,-1,832,1093,0,0
-385,-69,0,0,0,0,0,0,0,0,0,-1,839,1093,0,0
-378,-69,0,0,0,0,0,0,0,0,0,-1,846,1093,0,0
-371,-69,0,0,0,0,0,0,0,0,0,-1,853,1093,0,0
-364,-69,0,0,0,0,0,0,0,0,0,-1,860,1093,0,0
-357,-69,0,0,0,0,0,0,0,0,0,-1,867,1093,0,0
-350,-69,0,0,0,0,0,0,0,0,0,-1,874,1093,0,0
-343,-69,0,0,0,0,0,0,0,0,0,-1,881,1093,0,0
-336,-69,0,0,0,0,0,0,0,0,0,-1,888,1093,0,0
-329,-69,0,0,0,0,0,0,0,0,0,-1,895,1093,0,0
-322,-69,0,0,0,0,0,0,0,0,0,-1,902,1093,0,0
-315,-69,0,0,0,0,0,0,0,0,0,-1,909,1093,0,0
-308,-69,0,0,0,0,0,0,0,0,0,-1,916,1093,0,0
-301,-69,0,0,0,0,0,0,0,0,0,-1,923,1093,0,0
-294,-69,0,0,0,0,0,0,0,0,0,-1,930,1093,0,0
-287,-69,0,0,0,0,0,0,0,0,0,-1,937,1093,0,0
-280,-69,0,0,0,0,0,0,0,0,0,-1,944,1093,0,0
-273,-69,0,0,0,0,0,0,0,0,0,-1,951,1093,0,0
-266,-69,0,0,0,0,0,0,0,0,0,-1,958,1093,0,0
-259,-69,0,0,0,0,0,0,0,0,0,-1,965,1093,0,0
-252,-69,0,0,0,0,0,0,0,0,0,-1,972,1093,0,0
-245,-69,0,0,0,0,0,0,0,0,0,-1,979,1093,0,0
-238,-69,0,0,0,0,0,0,0,0,0,-1,986,1093,0,0
-231,-69,0,0,0,0,0,0,0,0,0,-1,993,1093,0,0
-224,-69,0,0,0,0,0,0,0,0,0,-1,1000,1093,0,0
-217,-69,0,0,0,0,0,0,0,0,0,-1,1007,1093,0,0
-210,-69,0,0,0,0,0,0,0,0,0,-1,1014,1093,0,0
-203,-69,0,0,0,0,0,0,0,0,0,-1,1021,1093,0,0
-196,-69,0,0,0,0,0,0,0,0,0,-1,1028,1093,0,0
-189,-69,0,0,0,0,0,0,0,0,0,-1,1035,1093,0,0
-182,-69,0,0,0,0,0,0,0,0,0,-1,1042,1093,0,0
-175,-69,0,0,0,0,0,0,0,0,0,-1,1049,1093,0,0
-168,-69,0,0,0,0,0,0,0,0,0,-1,1056,1093,0,0
-161,-69,0,0,0,0,0,0,0,0,0,-1,1063,1093,0,0
-154,-69,0,0,0,0,0,0,0,0,0,-1,1070,1093,0,0
-147,-69,0,0,0,0,0,0,0,0,0,-1,1077,1093,0,0
-140,-69,0,0,0,0,0,0,0,0,0,-1,1084,1093,0,0
-133,-69,0,0,0,0,0,0,0,0,0,-1,1091,1093,0,0
-126,-69,0,0,0,0,0,0,0,0,0,-1,1098,1093,0,0
-119,-69,0,0,0,0,0,0,0,0,0,-1,1105,1093,0,0
-112,-69,0,0,0,0,0,0,0,0,0,-1,1112,1093,0,0
-105,-69,0,0,0,0,0,0,0,0,0,-1,1119,1093,0,0
-98,-69,0,0,0,0,0,0,0,0,0,-1,1126,1093,0,0
-91,-69,0,0,0,0,0,0,0,0,0,-1,1133,1093,0,0
-84,-69,0,0,0,0,0,0,0,0,0,-1,1140,1093,0,0
-77,-69,0,0,0,0,0,0,0,0,0,-1,1147,1093,0,0
-70,-69,0,0,0,0,0,0,0,0,0,-1,1154,1093,0,0
-63,-69,0,0,0,0,0,0,0,0,0,-1,1161,1093,0,0
-56,-69,0,0,0,0,0,0,0,0,0,-1,1168,1093,0,0
-49,-69,0,0,0,0,0,0,0,0,0,-1,1175,1093,0,0
-42,-69,0,0,0,0,0,0,0,0,0,-1,1182,1093,0,0
-35,-69,0,0,0,0,0,0,0,0,0,-1,1189,1093,0,0
-28,-69,0,0,0,0,0,0,0,0,0,-1,1196,1093,0,0
-21,-69,0,0,0,0,0,0,0,0,0,-1,1203,1093,0,0
-14,-69,0,0,0,0,0,0,0,0,0,-1,1210,1093,0,0
-7,-69,0,0,0,0,0,0,0,0,0,-1,1217,1093,0,0
0,-69,0,0,0,0,0,0,0,0,0,-1,1224,1093,0,0
7,-69,0,0,0,0,0,0,0,0,0,-1,1231,1093,0,0
14,-69,0,0,0,0,0,0,0,0,0,-1,1238,1093,0,0
21,-69,0,0,0,0,0,0,0,0,0,-1,1245,1093,0,0
28,-69,0,0,0,0,0,0,0,0,0,-1,1252,1093,0,0
35,-69,0,0,0,0,0,0,0,0,0,-1,1259,1093,0,0
42,-69,0,0,0,0,0,0,0,0,0,-1,1266,1093,0,0
49,-69,0,0,0,0,0,0,0,0,0,-1,1273,1093,0,0
56,-69,0,0,0,0,0,0,0,0,0,-1,1280,1093,0,0
63,-69,0,0,0,0,0,0,0,0,0,-1,1287,1093,0,0
70,-69,0,0,0,0,0,0,0,0,0,-1,1294,1093,0,0
77,-69,0,0,0,0,0,0,0,0,0,-1,1301,1093,0,0
84,-69,0,0,0,0,0,0,0,0,0,-1,1308,1093,0,0
91,-69,0,0,0,0,0,0,0,0,0,-1,1315,1093,0,0
98,-69,0,0,0,0,0,0,0,0,0,-1,1322,1093,0,0
105,-69,0,0,0,0,0,0,0,0,0,-1,1329,1093,0,0
112,-69,0,0,0,0,0,0,0,0,0,-1,1336,1093,0,0
119,-69,0,0,0,0,0,0,0,0,0,-1,1343,1093,0,0
126,-69,0,0,0,0,0,0,0,0,0,-1,1350,1093,0,0
133,-69,0,0,0,0,0,0,0,0,0,-1,1357,1093,0,0
140,-69,0,0,0,0,0,0,0,0,0,-1,1364,1093,0,0
147,-69,0,0,0,0,0,0,0,0,0,-1,1371,1093,0,0
154,-69,0,0,0,0,0,0,0,0,0,-1,1378,1093,0,0
161,-69,0,0,0,0,0,0,0,0,0,-1,1385,1093,0,0
168,-69,0,0,0,0,0,0,0,0,0,-1,1392,1093,0,0
175,-69,0,0,0,0,0,0,0,0,0,-1,1399,1093,0,0
182,-69,0,0,0,0,0,0,0,0,0,-1,1406,1093,0,0
189,-69,0,0,0,0,0,0,0,0,0,-1,1413,1093,0,0
196,-69,0,0,0,0,0,0,0,0,0,-1,1420,1093,0,0
203,-69,0,0,0,0,0,0,0,0,0,-1,1427,1093,0,0
210,-69,0,0,0,0,0,0,0,0,0,-1,1434,1093,0,0
217,-69,0,0,0,0,0,0,0,0,0,-1,1441,1093,0,0
224,-69,0,0,0,0,0,0,0,0,0,-1,1448,1093,0,0
231,-69,0,0,0,0,0,0,0,0,0,-1,1455,1093,0,0
238,-69,0,0,0,0,0,0,0,0,0,-1,1462,1093,0,0
245,-69,0,0,0,0,0,0,0,0,0,-1,1469,1093,0,0
252,-69,0,0,0,0,0,0,0,0,0,-1,1476,1093,0,0
259,-69,0,0,0,0,0,0,0,0,0,-1,1483,1093,0,0
266,-69,0,0,0,0,0,0,0,0,0,-1,1490,1093,0,0
273,-69,0,0,0,0,0,0,0,0,0,-1,1497,1093,0,0
280,-69,0,0,0,0,0,0,0,0,0,-1,1504,1093,0,0
287,-69,0,0,0,0,0,0,0,0,0,-1,1511,1093,0,0
294,-69,0,0,0,0,0,0,0,0,0,-1,1518,1093,0,0
301,-69,0,0,0,0,0,0,0,0,0,-1,1525,1093,0,0
308,-69,0,0,0,0,0,0,0,0,0,-1,1532,1093,0,0
315,-69,0,0,0,0,0,0,0,0,0,-1,1539,1093,0,0
322,-69,0,0,0,0,0,0,0,0,0,-1,1546,1093,0,0
329,-69,0,0,0,0,0,0,0,0,0,-1,1553,1093,0,0
336,-69,0,0,0,0,0,0,0,0,0,-1,1560,1093,0,0
343,-69,0,0,0,0,0,0,0,0,0,-1,1567,1093,0,0
350,-69,0,0,0,0,0,0,0,0,0,-1,1574,1093,0,0
357,-69,0,0,0,0,0,0,0,0,0,-1,1581,1093,0,0
364,-69,0,0,0,0,0,0,0,0,0,-1,1588,1093,0,0
371,-69,0,0,0,0,0,0,0,0,0,-1,1595,1093,0,0
378,-69,0,0,0,0,0,0,0,0,0,-1,1602,1093,0,0
385,-69,0,0,0,0,0,0,0,0,0,-1,1609,1093,0,0
392,-69,0,0,0,0,0,0,0,0,0,-1,1616,1093,0,0
399,-69,0,0,0,0,0,0,0,0,0,-1,1623,1093,0,0
406,-69,0,0,0,0,0,0,0,0,0,-1,1630,1093,0,0
413,-69,0,0,0,0,0,0,0,0,0,-1,1637,1093,0,0
420,-69,0,0,0,0,0,0,0,0,0,-1,1644,1093,0,0
427,-69,0,0,0,0,0,0,0,0,0,-1,1651,1093,0,0
434,-69,0,0,0,0,0,0,0,0,0,-1,1658,1093,0,0
441,-69,0,0,0,0,0,0,0,0,0,-1,1665,1093,0,0
448,-69,0,0,0,0,0,0,0,0,0,-1,1672,1093,0,0
455,-69,0,0,0,0,0,0,0,0,0,-1,1679,1093,0,0
462,-69,0,0,0,0,0,0,0,0,0,-1,1686,1093,0,0
469,-69,0,0,0,0,0,0,0,0,0,-1,1693,1093,0,0
476,-69,0,0,0,0,0,0,0,0,0,-1,1700,1093,0,0
483,-69,0,0,0,0,0,0,0,0,0,-1,1707,1093,0,0
490,-69,0,0,0,0,0,0,0,0,0,-1,1714,1093,0,0
497,-69,0,0,0,0,0,0,0,0,0,-1,1721,1093,0,0
504,-69,0,0,0,0,0,0,0,0,0,-1,1728,1093,0,0
511,-69,0,0,0,0,0,0,0,0,0,-1,1735,1093,0,0
518,-69,0,0,0,0,0,0,0,0,0,-1,1742,1093,0,0
525,-69,0,0,0,0,0,0,0,0,0,-1,1749,1093,0,0
532,-69,0,0,0,0,0,0,0,0,0,-1,1756,1093,0,0
539,-69,0,0,0,0,0,0,0,0,0,-1,1763,1093,0,0
546,-69,0,0,0,0,0,0,0,0,0,-1,1770,1093,0,0
553,-69,0,0,0,0,0,0,0,0,0,-1,1777,1093,0,0
560,-69,0,0,0,0,0,0,0,0,0,-1,1784,1093,0,0
567,-69,0,0,0,0,0,0,0,0,0,-1,1791,1093,0,0
574,-69,0,0,0,0,0,0,0,0,0,-1,1798,1093,0,0
581,-69,0,0,0,0,0,0,0,0,0,-1,1805,1093,0,0
588,-69,0,0,0,0,0,0,0,0,0,-1,1812,1093,0,0
595,-69,0,0,0,0,0,0,0,0,0,-1,1819,1093,0,0
602,-69,0,0,0,0,0,0,0,0,0,-1,1826,1093,0,0
609,-69,0,0,0,0,0,0,0,0,0,-1,1833,1093,0,0
616,-69,0,0,0,0,0,0,0,0,0,-1,1840,1093,0,0
623,-69,0,0,0,0,0,0,0,0,0,-1,1847,1093,0,0
630,-69,0,0,0,0,0,0,0,0,0,-1,1854,1093,0,0
637,-69,0,0,0,0,0,0,0,0,0,-1,1861,1093,0,0
644,-69,0,0,0,0,0,0,0,0,0,-1,1868,1093,0,0
651,-69,0.168091,-0.00964355,-0.00303939,-0.00115203,-0.00243793,0.000518486,-0.00470991,-0.970059,0.00332627,0.0372881,1875,1093,0.168127,0.00963063
658,-69,0.0788574,-0.095459,-0.00207828,-0.000878004,-0.00168085,0.000306632,-0.00326291,-0.956866,0.00228436,0.0397303,1882,1093,0.0788514,0.0954036
665,-69,-0.0610352,-0.151245,-0.00132823,-0.000674399,-0.00112049,0.000165889,-0.00216852,-0.927339,0.00150403,0.0372404,1889,1093,-0.0609852,0.151261
672,-69,-0.0554199,0.00732422,-0.000764364,-0.0005135,-0.00073019,0.000101953,-0.00137982,-0.870458,0.000955676,0.0337838,1896,1093,-0.0553631,-0.00728443
679,-69,-0.0378418,0.00524902,-0.000397746,-0.00038108,-0.000479889,9.05489e-05,-0.000869374,-0.79408,0.000612003,0.0330716,1903,1093,-0.0378205,-0.00526961
686,-69,-0.00378418,0.00476074,-0.000170963,-0.000270372,-0.000328428,0.0001115,-0.000552836,-0.710298,0.000410799,0.0340694,1910,1093,-0.00382793,-0.0047828
693,-69,-0.00427246,0.0314941,-5.00466e-05,-0.000180581,-0.000241268,0.000134626,-0.000365254,-0.653301,0.00029867,0.031016,1917,1093,-0.00432082,-0.0314514
700,-69,-0.0118408,0.00976563,-4.43249e-05,-8.70396e-05,-0.000188423,0.000123947,-0.000255312,-0.728965,0.000223301,0.0244339,1924,1093,-0.011819,-0.0097852
707,-69,-0.0184326,-0.0361328,1.83963e-05,-3.43315e-05,-0.000119267,0.000114179,-0.000130114,-0.676623,0.000141142,0.0147803,1931,1093,-0.0184562,0.0361737
714,-69,-0.015625,-0.0343018,8.99308e-05,1.44326e-05,-0.000103859,0.000162688,-5.83248e-05,-0.611088,0.000132259,0.010999,1938,1093,-0.0156718,0.0343018
721,-69,0.0098877,-0.0427246,5.41844e-05,4.5953e-05,-0.000121571,0.000171709,-7.15718e-05,-0.768477,0.00014437,0.0151597,1945,1093,0.00990018,0.0426922
728,-69,-0.000366211,-0.0418701,-1.88938e-05,7.47378e-05,-0.000139182,0.000174767,-0.000118923,-0.947636,0.00017058,0.0141505,1952,1093,-0.000372114,0.0419129
735,-69,-0.00256348,-0.0771484,-9.70414e-05,0.000117638,-3.50595e-06,0.000117695,-9.70986e-05,-1.55447,0.000124201,0.0143986,1959,1093,-0.0026233,0.0771644
742,-69,-0.00732422,-0.0679932,2.53472e-05,0.000242987,0.000187686,0.000351118,-8.27838e-05,1.04811,0.000266002,0.0122065,1966,1093,-0.00732295,0.0679349
749,-69,-0.00732422,-0.0515137,0.000452866,0.000460506,0.000300721,0.000757431,0.000155941,0.791749,0.000461835,0.0133744,1973,1093,-0.00738098,0.0514732
756,-69,-0.0228271,-0.0480957,0.000746827,0.000294463,0.000240414,0.000850732,0.000190559,0.407945,0.000515512,0.0131481,1980,1093,-0.0228062,0.0481493
763,-69,-0.0474854,-0.0626221,0.00105913,0.000129374,0.000287968,0.00114109,4.74092e-05,0.277299,0.000745428,0.013367,1987,1093,-0.0474568,0.0625697
770,-69,-0.0562744,-0.0744629,0.00145959,-2.32231e-06,0.000299656,0.00151863,-6.13603e-05,0.194528,0.00103348,0.0130163,1994,1093,-0.0562158,0.0744747
777,-69,-0.0286865,-0.0791016,0.00193801,-0.000253483,0.000204195,0.00195687,-0.000272347,0.0921196,0.0014042,0.0177983,2001,1093,-0.0287356,0.0790875
784,-69,0.000976563,0.0834961,0.0024378,-0.00069155,-6.00835e-05,0.00243895,-0.000692703,-0.0191905,0.00189945,0.0303732,2008,1093,0.000917416,-0.0835363
791,-69,0.0570068,0.476318,0.00291584,-0.00140562,-0.000542812,0.00298298,-0.00147276,-0.123062,0.00262132,0.0404298,2015,1093,0.0569486,-0.476299
798,-69,0.309448,0.987305,0.00333034,-0.00251838,-0.00129795,0.00360544,-0.00279348,-0.20886,0.00370432,0.0430106,2022,1093,0.309451,-0.987339
805,-69,0.181152,-0.0020752,0,0,0,0,0,0,0,-1,2029,1093,0.181118,0.00212118
812,-69,0.181885,0.167236,0,0,0,0,0,0,0,-1,2036,1093,0.181871,-0.167225
-700,-76,0,0,0,0,0,0,0,0,0,-1,524,1100,0,0
-693,-76,1.15381,0.492188,-0.061944,0.00873252,0.022388,0.0152274,-0.0684389,1.28844,0.0514583,0.0428272,531,1100,1.1538,-0.492183
-686,-76,1.3338,0.0836182,-0.0525646,0.00977961,0.0185329,0.0148728,-0.0576577,1.3026,0.0442375,0.0451986,538,1100,1.33381,-0.0836234
-679,-76,1.383,-0.530762,-0.0431768,0.00954101,0.0148079,0.0134156,-0.0470514,1.31488,0.0366669,0.0436694,545,1100,1.383,0.530719
-672,-76,-0.422119,0.0899658,-0.0344164,0.0086592,0.011409,0.0114944,-0.0372515,1.32723,0.029424,0.0439036,552,1100,-0.422147,-0.0899205
-665,-76,-0.203796,-0.40686,0,0,0,0,0,0,0,-1,559,1100,-0.203792,0.406901
-658,-76,-0.1745,-0.05896,-0.0198031,0.00617855,0.00591198,0.00746053,-0.0210851,1.35726,0.0170951,0.0460398,566,1100,-0.174505,0.0589016
-651,-76,-0.0311279,-0.0247803,-0.0142108,0.00490878,0.00390969,0.00567736,-0.0149794,1.37669,0.0123227,0.0279021,573,1100,-0.0311223,0.0248124
-644,-76,-0.0223999,-0.0672607,-0.00981739,0.003975,0.00252022,0.00442108,-0.0102635,1.39561,0.00869892,0.00977922,580,1100,-0.022412,0.0672187
-637,-76,-0.0148926,-0.0670166,-0.00609127,0.00264174,0.0012427,0.00281513,-0.00626466,1.43216,0.00536684,0.0128076,587,1100,-0.0149088,0.0670492
-630,-76,-0.0177002,-0.0808105,-0.00325614,0.00180918,0.000393967,0.00183964,-0.0032866,1.49364,0.00299868,0.0136779,594,1100,-0.017726,0.0808503
-623,-76,-0.0088501,-0.0687256,-0.00130289,0.00139624,-0.000343302,0.00143922,-0.00134587,-1.44625,0.00160827,0.0122001,601,1100,-0.00885693,0.0687581
-616,-76,-0.00244141,-0.0831299,-0.000253996,0.00087496,-0.000753984,0.00125236,-0.000631392,-1.10672,0.0011071,0.0109322,608,1100,-0.00244289,0.0831778
-609,-76,-0.0253906,-0.115601,-0.00038086,0.000568829,-0.000340637,0.000678374,-0.000490405,-1.25965,0.000677698,0.0120216,615,1100,-0.0253985,0.115603
-602,-76,-0.0336304,-0.0749512,-0.00034348,0.000430326,-0.000196823,0.000477512,-0.000390666,-1.3355,0.000502078,0.016135,622,1100,-0.0336416,0.0749087
-595,-76,-0.0293579,-0.0556641,-0.000331731,0.000490716,-0.000143085,0.000514898,-0.000355913,-1.40337,0.000505548,0.0185342,629,1100,-0.0293429,0.0556456
-588,-76,-0.012207,-0.0620117,-0.000385435,0.000572738,-0.000121368,0.000587872,-0.000400569,-1.44674,0.000574082,0.0194571,636,1100,-0.0122109,0.0620672
-581,-76,-0.0170288,-0.117432,-0.000399288,0.000655137,-0.000112774,0.000667064,-0.000411215,-1.46543,0.000628359,0.0245178,643,1100,-0.0170224,0.117434
-574,-76,-0.0580444,-0.188354,-0.000380812,0.000769058,-9.18589e-05,0.00077635,-0.000388104,-1.49158,0.000684641,0.0298634,650,1100,-0.0580702,0.188409
-567,-76,-0.0253296,-0.155273,-0.000309386,0.000846647,-4.94242e-05,0.000848756,-0.000311495,-1.52815,0.000693397,0.0350242,657,1100,-0.0253451,0.155241
-560,-76,-0.0263672,-0.0925293,-0.000205085,0.000903544,3.01575e-05,0.000904363,-0.000205904,1.54362,0.000681985,0.0379314,664,1100,-0.0263486,0.0925122
-553,-76,-0.0231934,-0.00366211,-7.57914e-05,0.000938264,0.000139566,0.000957122,-9.46492e-05,1.43649,0.000671857,0.0384213,671,1100,-0.0231652,0.00361344
-546,-76,-0.0218506,-0.0817871,4.02834e-05,0.000948266,0.00029521,0.00103581,-4.72577e-05,1.28252,0.000706817,0.0369692,678,1100,-0.0218664,0.0818328
-539,-76,-0.0507202,-0.0733643,0.000187857,0.000934394,0.000510407,0.00119346,-7.12075e-05,1.10112,0.000820405,0.035588,685,1100,-0.0507083,0.0733809
-532,-76,-0.02948,0.05896,0.000304454,0.000911852,0.000778695,0.00144398,-0.000227669,0.971331,0.00104683,0.0369644,692,1100,-0.0295036,-0.0589603
-525,-76,0,0,0,0,0,0,0,0,0,-1,699,1100,0,0
-518,-76,0,0,0,0,0,0,0,0,0,-1,706,1100,0,0
-511,-76,0,0,0,0,0,0,0,0,0,-1,713,1100,0,0
-504,-76,0,0,0,0,0,0,0,0,0,-1,720,1100,0,0
-497,-76,0,0,0,0,0,0,0,0,0,-1,727,1100,0,0
-490,-76,0,0,0,0,0,0,0,0,0,-1,734,1100,0,0
-483,-76,0,0,0,0,0,0,0,0,0,-1,741,1100,0,0
-476,-76,0,0,0,0,0,0,0,0,0,-1,748,1100,0,0
-469,-76,0,0,0,0,0,0,0,0,0,-1,755,1100,0,0
-462,-76,0,0,0,0,0,0,0,0,0,-1,762,1100,0,0
-455,-76,0,0,0,0,0,0,0,0,0,-1,769,1100,0,0
-448,-76,0,0,0,0,0,0,0,0,0,-1,776,1100,0,0
-441,-76,0,0,0,0,0,0,0,0,0,-1,783,1100,0,0
-434,-76,0,0,0,0,0,0,0,0,0,-1,790,1100,0,0
-427,-76,0,0,0,0,0,0,0,0,0,-1,797,1100,0,0
-420,-76,0,0,0,0,0,0,0,0,0,-1,804,1100,0,0
-413,-76,0,0,0,0,0,0,0,0,0,-1,811,1100,0,0
-406,-76,0,0,0,0,0,0,0,0,0,-1,818,1100,0,0
-399,-76,0,0,0,0,0,0,0,0,0,-1,825,1100,0,0
-392,-76,0,0,0,0,0,0,0,0,0,-1,832,1100,0,0
-385,-76,0,0,0,0,0,0,0,0,0,-1,839,1100,0,0
-378,-76,0,0,0,0,0,0,0,0,0,-1,846,1100,0,0
-371,-76,0,0,0,0,0,0,0,0,0,-1,853,1100,0,0
-364,-76,0,0,0,0,0,0,0,0,0,-1,860,1100,0,0
-357,-76,0,0,0,0,0,0,0,0,0,-1,867,1100,0,0
-350,-76,0,0,0,0,0,0,0,0,0,-1,874,1100,0,0
-343,-76,0,0,0,0,0,0,0,0,0,-1,881,1100,0,0
-336,-76,0,0,0,0,0,0,0,0,0,-1,888,1100,0,0
-329,-76,0,0,0,0,0,0,0,0,0,-1,895,1100,0,0
-322,-76,0,0,0,0,0,0,0,0,0,-1,902,1100,0,0
-315,-76,0,0,0,0,0,0,0,0,0,-1,909,1100,0,0
-308,-76,0,0,0,0,0,0,0,0,0,-1,916,1100,0,0
-301,-76,0,0,0,0,0,0,0,0,0,-1,923,1100,0,0
-294,-76,0,0,0,0,0,0,0,0,0,-1,930,1100,0,0
-287,-76,0,0,0,0,0,0,0,0,0,-1,937,1100,0,0
-280,-76,0,0,0,0,0,0,0,0,0,-1,944,1100,0,0
-273,-76,0,0,0,0,0,0,0,0,0,-1,951,1100,0,0
-266,-76,0,0,0,0,0,0,0,0,0,-1,958,1100,0,0
-259,-76,0,0,0,0,0,0,0,0,0,-1,965,1100,0,0
-252,-76,0,0,0,0,0,0,0,0,0,-1,972,1100,0,0
-245,-76,0,0,0,0,0,0,0,0,0,-1,979,1100,0,0
-238,-76,0,0,0,0,0,0,0,0,0,-1,986,1100,0,0
-231,-76,0,0,0,0,0,0,0,0,0,-1,993,1100,0,0
-224,-76,0,0,0,0,0,0,0,0,0,-1,1000,1100,0,0
-217,-76,0,0,0,0,0,0,0,0,0,-1,1007,1100,0,0
-210,-76,0,0,0,0,0,0,0,0,0,-1,1014,1100,0,0
-203,-76,0,0,0,0,0,0,0,0,0,-1,1021,1100,0,0
-196,-76,0,0,0,0,0,0,0,0,0,-1,1028,1100,0,0
-189,-76,0,0,0,0,0,0,0,0,0,-1,1035,1100,0,0
-182,-76,0,0,0,0,0,0,0,0,0,-1,1042,1100,0,0
-175,-76,0,0,0,0,0,0,0,0,0,-1,1049,1100,0,0
-168,-76,0,0,0,0,0,0,0,0,0,-1,1056,1100,0,0
-161,-76,0,0,0,0,0,0,0,0,0,-1,1063,1100,0,0
-154,-76,0,0,0,0,0,0,0,0,0,-1,1070,1100,0,0
-147,-76,0,0,0,0,0,0,0,0,0,-1,1077,1100,0,0
-140,-76,0,0,0,0,0,0,0,0,0,-1,1084,1100,0,0
-133,-76,0,0,0,0,0,0,0,0,0,-1,1091,1100,0,0
-126,-76,0,0,0,0,0,0,0,0,0,-1,1098,1100,0,0
-119,-76,0,0,0,0,0,0,0,0,0,-1,1105,1100,0,0
-112,-76,0,0,0,0,0,0,0,0,0,-1,1112,1100,0,0
-105,-76,0,0,0,0,0,0,0,0,0,-1,1119,1100,0,0
-98,-76,0,0,0,0,0,0,0,0,0,-1,1126,1100,0,0
-91,-76,0,0,0,0,0,0,0,0,0,-1,1133,1100,0,0
-84,-76,0,0,0,0,0,0,0,0,0,-1,1140,1100,0,0
-77,-76,0,0,0,0,0,0,0,0,0,-1,1147,1100,0,0
-70,-76,0,0,0,0,0,0,0,0,0,-1,1154,1100,0,0
-63,-76,0,0,0,0,0,0,0,0,0,-1,1161,1100,0,0
-56,-76,0,0,0,0,0,0,0,0,0,-1,1168,1100,0,0
-49,-76,0,0,0,0,0,0,0,0,0,-1,1175,1100,0,0
-42,-76,0,0,0,0,0,0,0,0,0,-1,1182,1100,0,0
-35,-76,0,0,0,0,0,0,0,0,0,-1,1189,1100,0,0
-28,-76,0,0,0,0,0,0,0,0,0,-1,1196,1100,0,0
-21,-76,0,0,0,0,0,0,0,0,0,-1,1203,1100,0,0
-14,-76,0,0,0,0,0,0,0,0,0,-1,1210,1100,0,0
-7,-76,0,0,0,0,0,0,0,0,0,-1,1217,1100,0,0
0,-76,0,0,0,0,0,0,0,0,0,-1,1224,1100,0,0
7,-76,0,0,0,0,0,0,0,0,0,-1,1231,1100,0,0
14,-76,0,0,0,0,0,0,0,0,0,-1,1238,1100,0,0
21,-76,0,0,0,0,0,0,0,0,0,-1,1245,1100,0,0
28,-76,0,0,0,0,0,0,0,0,0,-1,1252,1100,0,0
35,-76,0,0,0,0,0,0,0,0,0,-1,1259,1100,0,0
42,-76,0,0,0,0,0,0,0,0,0,-1,1266,1100,0,0
49,-76,0,0,0,0,0,0,0,0,0,-1,1273,1100,0,0
56,-76,0,0,0,0,0,0,0,0,0,-1,1280,1100,0,0
63,-76,0,0,0,0,0,0,0,0,0,-1,1287,1100,0,0
70,-76,0,0,0,0,0,0,0,0,0,-1,1294,1100,0,0
77,-76,0,0,0,0,0,0,0,0,0,-1,1301,1100,0,0
84,-76,0,0,0,0,0,0,0,0,0,-1,1308,1100,0,0
91,-76,0,0,0,0,0,0,0,0,0,-1,1315,1100,0,0
98,-76,0,0,0,0,0,0,0,0,0,-1,1322,1100,0,0
105,-76,0,0,0,0,0,0,0,0,0,-1,1329,1100,0,0
112,-76,0,0,0,0,0,0,0,0,0,-1,1336,1100,0,0
119,-76,0,0,0,0,0,0,0,0,0,-1,1343,1100,0,0
126,-76,0,0,0,0,0,0,0,0,0,-1,1350,1100,0,0
133,-76,0,0,0,0,0,0,0,0,0,-1,1357,1100,0,0
140,-76,0,0,0,0,0,0,0,0,0,-1,1364,1100,0,0
147,-76,0,0,0,0,0,0,0,0,0,-1,1371,1100,0,0
154,-76,0,0,0,0,0,0,0,0,0,-1,1378,1100,0,0
161,-76,0,0,0,0,0,0,0,0,0,-1,1385,1100,0,0
168,-76,0,0,0,0,0,0,0,0,0,-1,1392,1100,0,0
175,-76,0,0,0,0,0,0,0,0,0,-1,1399,1100,0,0
182,-76,0,0,0,0,0,0,0,0,0,-1,1406,1100,0,0
189,-76,0,0,0,0,0,0,0,0,0,-1,1413,1100,0,0
196,-76,0,0,0,0,0,0,0,0,0,-1,1420,1100,0,0
203,-76,0,0,0,0,0,0,0,0,0,-1,1427,1100,0,0
210,-76,0,0,0,0,0,0,0,0,0,-1,1434,1100,0,0
217,-76,0,0,0,0,0,0,0,0,0,-1,1441,1100,0,0
224,-76,0,0,0,0,0,0,0,0,0,-1,1448,1100,0,0
231,-76,0,0,0,0,0,0,0,0,0,-1,1455,1100,0,0
238,-76,0,0,0,0,0,0,0,0,0,-1,1462,1100,0,0
245,-76,0,0,0,0,0,0,0,0,0,-1,1469,1100,0,0
252,-76,0,0,0,0,0,0,0,0,0,-1,1476,1100,0,0
259,-76,0,0,0,0,0,0,0,0,0,-1,1483,1100,0,0
266,-76,0,0,0,0,0,0,0,0,0,-1,1490,1100,0,0
273,-76,0,0,0,0,0,0,0,0,0,-1,1497,1100,0,0
280,-76,0,0,0,0,0,0,0,0,0,-1,1504,1100,0,0
287,-76,0,0,0,0,0,0,0,0,0,-1,1511,1100,0,0
294,-76,0,0,0,0,0,0,0,0,0,-1,1518,1100,0,0
301,-76,0,0,0,0,0,0,0,0,0,-1,1525,1100,0,0
308,-76,0,0,0,0,0,0,0,0,0,-1,1532,1100,0,0
315,-76,0,0,0,0,0,0,0,0,0,-1,1539,1100,0,0
322,-76,0,0,0,0,0,0,0,0,0,-1,1546,1100,0,0
329,-76,0,0,0,0,0,0,0,0,0,-1,1553,1100,0,0
336,-76,0,0,0,0,0,0,0,0,0,-1,1560,1100,0,0
343,-76,0,0,0,0,0,0,0,0,0,-1,1567,1100,0,0
350,-76,0,0,0,0,0,0,0,0,0,-1,1574,1100,0,0
357,-76,0,0,0,0,0,0,0,0,0,-1,1581,1100,0,0
364,-76,0,0,0,0,0,0,0,0,0,-1,1588,1100,0,0
371,-76,0,0,0,0,0,0,0,0,0,-1,1595,1100,0,0
378,-76,0,0,0,0,0,0,0,0,0,-1,1602,1100,0,0
385,-76,0,0,0,0,0,0,0,0,0,-1,1609,1100,0,0
392,-76,0,0,0,0,0,0,0,0,0,-1,1616,1100,0,0
399,-76,0,0,0,0,0,0,0,0,0,-1,1623,1100,0,0
406,-76,0,0,0,0,0,0,0,0,0,-1,1630,1100,0,0
413,-76,0,0,0,0,0,0,0,0,0,-1,1637,1100,0,0
420,-76,0,0,0,0,0,0,0,0,0,-1,1644,1100,0,0
427,-76,0,0,0,0,0,0,0,0,0,-1,1651,1100,0,0
434,-76,0,0,0,0,0,0,0,0,0,-1,1658,1100,0,0
441,-76,0,0,0,0,0,0,0,0,0,-1,1665,1100,0,0
448,-76,0,0,0,0,0,0,0,0,0,-1,1672,1100,0,0
455,-76,0,0,0,0,0,0,0,0,0,-1,1679,1100,0,0
462,-76,0,0,0,0,0,0,0,0,0,-1,1686,1100,0,0
469,-76,0,0,0,0,0,0,0,0,0,-1,1693,1100,0,0
476,-76,0,0,0,0,0,0,0,0,0,-1,1700,1100,0,0
483,-76,0,0,0,0,0,0,0,0,0,-1,1707,1100,0,0
490,-76,0,0,0,0,0,0,0,0,0,-1,1714,1100,0,0
497,-76,0,0,0,0,0,0,0,0,0,-1,1721,1100,0,0
504,-76,0,0,0,0,0,0,0,0,0,-1,1728,1100,0,0
511,-76,0,0,0,0,0,0,0,0,0,-1,1735,1100,0,0
518,-76,0,0,0,0,0,0,0,0,0,-1,1742,1100,0,0
525,-76,0,0,0,0,0,0,0,0,0,-1,1749,1100,0,0
532,-76,0,0,0,0,0,0,0,0,0,-1,1756,1100,0,0
539,-76,0,0,0,0,0,0,0,0,0,-1,1763,1100,0,0
546,-76,0,0,0,0,0,0,0,0,0,-1,1770,1100,0,0
553,-76,0,0,0,0,0,0,0,0,0,-1,1777,1100,0,0
560,-76,0,0,0,0,0,0,0,0,0,-1,1784,1100,0,0
567,-76,0,0,0,0,0,0,0,0,0,-1,1791,1100,0,0
574,-76,0,0,0,0,0,0,0,0,0,-1,1798,1100,0,0
581,-76,0,0,0,0,0,0,0,0,0,-1,1805,1100,0,0
588,-76,0,0,0,0,0,0,0,0,0,-1,1812,1100,0,0
595,-76,0,0,0,0,0,0,0,0,0,-1,1819,1100,0,0
602,-76,0,0,0,0,0,0,0,0,0,-1,1826,1100,0,0
609,-76,0,0,0,0,0,0,0,0,0,-1,1833,1100,0,0
616,-76,0,0,0,0,0,0,0,0,0,-1,1840,1100,0,0
623,-76,0,0,0,0,0,0,0,0,0,-1,1847,1100,0,0
630,-76,0,0,0,0,0,0,0,0,0,-1,1854,1100,0,0
637,-76,0,0,0,0,0,0,0,0,0,-1,1861,1100,0,0
644,-76,0,0,0,0,0,0,0,0,0,-1,1868,1100,0,0
651,-76,0.145996,0.20459,0,0,0,0,0,0,0,-1,1875,1100,0.145962,-0.204531
658,-76,0.0296631,-0.0992432,-0.00167842,-0.000455717,-0.00155731,0.000605945,-0.00274009,-0.97244,0.00205865,0.03709,1882,1100,0.0296148,0.0992861
665,-76,-0.0311279,-0.240845,-0.00110663,-0.000374664,-0.00106146,0.000382139,-0.00186343,-0.951412,0.00138733,0.0330113,1889,1100,-0.0310821,0.240858
672,-76,-0.0576172,-0.0754395,-0.000661224,-0.000305625,-0.000715712,0.000254042,-0.00122089,-0.907145,0.000910499,0.0325054,1896,1100,-0.0576416,0.0754001
679,-76,-0.104004,0.0168457,-0.00035775,-0.000243009,-0.000493115,0.000196062,-0.000796821,-0.843309,0.000607212,0.0326525,1903,1100,-0.104035,-0.0169034
686,-76,-0.0842285,0.0526123,-0.00016098,-0.000183145,-0.000356314,0.000184424,-0.000528549,-0.769852,0.000427319,0.031818,1910,1100,-0.0841677,-0.0526561
693,-76,-0.0422363,0.0205078,-5.70938e-05,-0.000126267,-0.000273747,0.000184243,-0.000367603,-0.722559,0.000324418,0.0329371,1917,1100,-0.0422046,-0.0205144
700,-76,-0.00378418,-0.015625,-7.5454e-05,-4.96959e-05,-0.000223949,0.000161744,-0.000286894,-0.814121,0.000262359,0.0269743,1924,1100,-0.00382111,0.0155835
707,-76,-0.0168457,-0.0541992,-1.19517e-05,-1.57993e-05,-0.000153779,0.000139916,-0.000167667,-0.779143,0.000177823,0.0156559,1931,1100,-0.0168032,0.0542374
714,-76,-0.00231934,-0.0385742,6.964e-05,2.48608e-05,-0.000129618,0.000178788,-8.42872e-05,-0.699874,0.000155119,0.016811,1938,1100,-0.00227821,0.0385857
721,-76,-0.00170898,-0.0584717,3.15249e-05,5.71339e-05,-0.000137638,0.000182561,-9.39026e-05,-0.83178,0.000162329,0.0172403,1945,1100,-0.0017392,0.0584143
728,-76,-0.00146484,-0.0576172,-3.63252e-05,9.14245e-05,-0.000151163,0.000191654,-0.000136555,-0.985297,0.00019038,0.0161557,1952,1100,-0.0014394,0.0575803
735,-76,-0.0101318,-0.0731201,-8.481e-05,0.00015044,-3.24159e-05,0.000154825,-8.9195e-05,-1.43634,0.000142573,0.0164809,1959,1100,-0.0101194,0.0731588
742,-76,-0.00708008,-0.0673828,3.51552e-05,0.000330193,0.000138118,0.000384759,-1.94111e-05,1.19455,0.000263215,0.0117719,1966,1100,-0.00703493,0.0673384
749,-76,-0.00500488,-0.0534668,0.000392812,0.000658201,0.000216668,0.000779579,0.000271434,1.06015,0.000456954,0.012747,1973,1100,-0.00499499,0.0534622
756,-76,-0.0228271,-0.0441895,0.000602677,0.000624223,8.27708e-05,0.000696919,0.000529981,0.850111,0.00042017,0.0137262,1980,1100,-0.0227984,0.0441319
763,-76,-0.043335,-0.0667725,0.000872839,0.000547987,8.38085e-05,0.000893186,0.00052764,0.238175,0.000518504,0.0134601,1987,1100,-0.0433363,0.0667598
770,-76,-0.0352783,-0.0744629,0.00120415,0.000566385,1.26305e-05,0.0012044,0.000566135,0.0197939,0.000695776,0.0131576,1994,1100,-0.0352365,0.0744691
777,-76,-0.0262451,-0.0645752,0.00158136,0.000504029,-0.000180509,0.0016108,0.000474589,-0.161671,0.000955789,0.0167393,2001,1100,-0.026302,0.0645149
784,-76,0.00488281,-0.00805664,0.00195348,0.00028614,-0.000553214,0.00212033,0.000119284,-0.292935,0.00137552,0.030858,2008,1100,0.00491212,0.0080215
791,-76,0.0808105,0.177734,0.00228074,-0.000185441,-0.00115047,0.00273409,-0.000638791,-0.375374,0.0020688,0.0393328,2015,1100,0.0808444,-0.177743
798,-76,0.115234,0.192139,0.00251331,-0.00104984,-0.00201799,0.00342363,-0.00196015,-0.423769,0.00314638,0.0425095,2022,1100,0.115285,-0.192089
805,-76,0.0361328,-0.0123291,0.00254635,-0.00249912,-0.00321223,0.00410805,-0.00406082,-0.452525,0.00471632,0.0480846,2029,1100,0.0361379,0.0123185
812,-76,0.00402832,0.055542,0.00224334,-0.00478982,-0.0048493,0.00471692,-0.0072634,-0.471687,0.00696873,0.0472329,2036,1100,0.00400344,-0.0554968
-700,-83,0,0,0,0,0,0,0,0,0,-1,524,1107,0,0
-693,-83,1.34644,0.944458,0,0,0,0,0,0,0,-1,531,1107,1.34645,-0.944437
-686,-83,1.0351,0.319824,-0.051434,0.00648431,0.0220837,0.0139438,-0.0588935,1.24504,0.0446422,0.0483381,538,1107,1.03508,-0.319809
-679,-83,0.759766,-0.296997,-0.0416722,0.00625203,0.0172257,0.0118011,-0.0472212,1.25916,0.0360639,0.0438777,545,1107,0.759772,0.296976
-672,-83,-0.00750732,0.497314,-0.03278,0.00560227,0.0129673,0.00957254,-0.0367503,1.27368,0.0282372,0.040939,552,1107,-0.00748751,-0.497341
-665,-83,-0.129883,0.0108643,-0.0249678,0.00477612,0.00935399,0.00747323,-0.0276649,1.29007,0.0213744,0.0398962,559,1107,-0.129912,-0.0108666
-658,-83,-0.213074,-0.0289307,-0.0183548,0.00390767,0.00640051,0.00561664,-0.0200638,1.30988,0.0155891,0.0386782,566,1107,-0.213084,0.0289131
-651,-83,-0.0750122,0.00390625,-0.0129725,0.00307485,0.00411151,0.00406693,-0.0139646,1.33403,0.0109208,0.0303542,573,1107,-0.0749896,-0.00389569
-644,-83,-0.0106201,-0.100586,-0.0087981,0.00238457,0.00253091,0.0029307,-0.00934424,1.35827,0.00740237,0.0140664,580,1107,-0.0106467,0.100642
-637,-83,-0.00427246,-0.0733643,-0.00531311,0.00157438,0.00108813,0.0017422,-0.00548093,1.41777,0.00435251,0.0108667,587,1107,-0.00426368,0.0733205
-630,-83,-0.0272827,-0.0750732,-0.00271422,0.00109438,0.000224252,0.00110754,-0.00272738,1.51219,0.00227898,0.015989,594,1107,-0.0272971,0.0750716
-623,-83,-0.0236816,-0.0766602,-0.00083707,0.000924826,-0.000542253,0.00107834,-0.000990582,-1.29491,0.00119485,0.0152766,601,1107,-0.0236768,0.0767081
-616,-83,0.000549316,-0.0926514,4.76885e-05,0.000491383,-0.000911126,0.00120728,-0.00066821,-0.904818,0.00109762,0.0115143,608,1107,0.000525342,0.0926864
-609,-83,-0.0141602,-0.0938721,-0.000204982,0.000327367,-0.000426556,0.000563983,-0.000441599,-1.06434,0.000582004,0.0109332,615,1107,-0.0141368,0.0938912
-602,-83,-0.0240479,-0.0699463,-0.000216279,0.000264916,-0.000220471,0.000350654,-0.000302017,-1.19991,0.000377168,0.0126474,622,1107,-0.0240595,0.0699621
-595,-83,-0.020752,-0.0421143,-0.000225364,0.000320312,-0.000144278,0.000356111,-0.000261163,-1.32758,0.000357786,0.0144808,629,1107,-0.0207342,0.0420534
-588,-83,0.00183105,-0.0592041,-0.000300182,0.000385791,-0.000121356,0.000406627,-0.000321018,-1.40076,0.000421074,0.0197278,636,1107,0.0018116,0.0592339
-581,-83,-0.0214233,-0.107422,-0.000360646,0.0004653,-0.000116676,0.000481465,-0.000376811,-1.43312,0.000496753,0.0274132,643,1107,-0.0214148,0.107361
-574,-83,-0.0363159,-0.160767,-0.000398659,0.000582287,-9.74426e-05,0.000591873,-0.000408245,-1.47274,0.000580653,0.0325601,650,1107,-0.036304,0.160716
-567,-83,-0.0150757,-0.164551,-0.00039481,0.000676932,-5.76868e-05,0.000680028,-0.000397906,-1.51718,0.000629411,0.0372409,657,1107,-0.0150538,0.164567
-560,-83,-0.00604248,-0.128662,-0.000400422,0.000773393,1.26061e-05,0.000773529,-0.000400557,1.56006,0.000689165,0.0380739,664,1107,-0.00605411,0.128647
-553,-83,0.0455322,-0.0269775,-0.000432381,0.000875152,0.00010206,0.00088307,-0.000440299,1.49337,0.000778172,0.0362921,671,1107,0.0455078,0.026944
-546,-83,0.0488281,-0.0483398,-0.000541176,0.000982111,0.000219286,0.00101305,-0.000572115,1.43063,0.000926922,0.0354827,678,1107,0.0488188,0.0483598
-539,-83,0.0518799,-0.108643,-0.00070599,0.00110106,0.000367692,0.00117301,-0.000777942,1.37755,0.00113405,0.0359947,685,1107,0.0518611,0.108673
-532,-83,-0.0182495,-0.0765381,-0.00101928,0.00125182,0.000521235,0.00136573,-0.00113319,1.35563,0.00144483,0.0375621,692,1107,-0.0182293,0.0764933
-525,-83,0,0,0,0,0,0,0,0,0,-1,699,1107,0,0
-518,-83,0,0,0,0,0,0,0,0,0,-1,706,1107,0,0
-511,-83,0,0,0,0,0,0,0,0,0,-1,713,1107,0,0
-504,-83,0,0,0,0,0,0,0,0,0,-1,720,1107,0,0
-497,-83,0,0,0,0,0,0,0,0,0,-1,727,1107,0,0
-490,-83,0,0,0,0,0,0,0,0,0,-1,734,1107,0,0
-483,-83,0,0,0,0,0,0,0,0,0,-1,741,1107,0,0
-476,-83,0,0,0,0,0,0,0,0,0,-1,748,1107,0,0
-469,-83,0,0,0,0,0,0,0,0,0,-1,755,1107,0,0
-462,-83,0,0,0,0,0,0,0,0,0,-1,762,1107,0,0
-455,-83,0,0,0,0,0,0,0,0,0,-1,769,1107,0,0
-448,-83,0,0,0,0,0,0,0,0,0,-1,776,1107,0,0
-441,-83,0,0,0,0,0,0,0,0,0,-1,783,1107,0,0
-434,-83,0,0,0,0,0,0,0,0,0,-1,790,1107,0,0
-427,-83,0,0,0,0,0,0,0,0,0,-1,797,1107,0,0
-420,-83,0,0,0,0,0,0,0,0,0,-1,804,1107,0,0
-413,-83,0,0,0,0,0,0,0,0,0,-1,811,1107,0,0
-406,-83,0,0,0,0,0,0,0,0,0,-1,818,1107,0,0
-399,-83,0,0,0,0,0,0,0,0,0,-1,825,1107,0,0
-392,-83,0,0,0,0,0,0,0,0,0,-1,832,1107,0,0
-385,-83,0,0,0,0,0,0,0,0,0,-1,839,1107,0,0
-378,-83,0,0,0,0,0,0,0,0,0,-1,846,1107,0,0
-371,-83,0,0,0,0,0,0,0,0,0,-1,853,1107,0,0
-364,-83,0,0,0,0,0,0,0,0,0,-1,860,1107,0,0
-357,-83,0,0,0,0,0,0,0,0,0,-1,867,1107,0,0
-350,-83,0,0,0,0,0,0,0,0,0,-1,874,1107,0,0
-343,-83,0,0,0,0,0,0,0,0,0,-1,881,1107,0,0
-336,-83,0,0,0,0,0,0,0,0,0,-1,888,1107,0,0
-329,-83,0,0,0,0,0,0,0,0,0,-1,895,1107,0,0
-322,-83,0,0,0,0,0,0,0,0,0,-1,902,1107,0,0
-315,-83,0,0,0,0,0,0,0,0,0,-1,909,1107,0,0
-308,-83,0,0,0,0,0,0,0,0,0,-1,916,1107,0,0
-301,-83,0,0,0,0,0,0,0,0,0,-1,923,1107,0,0
-294,-83,0,0,0,0,0,0,0,0,0,-1,930,1107,0,0
-287,-83,0,0,0,0,0,0,0,0,0,-1,937,1107,0,0
-280,-83,0,0,0,0,0,0,0,0,0,-1,944,1107,0,0
-273,-83,0,0,0,0,0,0,0,0,0,-1,951,1107,0,0
-266,-83,0,0,0,0,0,0,0,0,0,-1,958,1107,0,0
-259,-83,0,0,0,0,0,0,0,0,0,-1,965,1107,0,0
-252,-83,0,0,0,0,0,0,0,0,0,-1,972,1107,0,0
-245,-83,0,0,0,0,0,0,0,0,0,-1,979,1107,0,0
-238,-83,0,0,0,0,0,0,0,0,0,-1,986,1107,0,0
-231,-83,0,0,0,0,0,0,0,0,0,-1,993,1107,0,0
-224,-83,0,0,0,0,0,0,0,0,0,-1,1000,1107,0,0
-217,-83,0,0,0,0,0,0,0,0,0,-1,1007,1107,0,0
-210,-83,0,0,0,0,0,0,0,0,0,-1,1014,1107,0,0
-203,-83,0,0,0,0,0,0,0,0,0,-1,1021,1107,0,0
-196,-83,0,0,0,0,0,0,0,0,0,-1,1028,1107,0,0
-189,-83,0,0,0,0,0,0,0,0,0,-1,1035,1107,0,0
-182,-83,0,0,0,0,0,0,0,0,0,-1,1042,1107,0,0
-175,-83,0,0,0,0,0,0,0,0,0,-1,1049,1107,0,0
-168,-83,0,0,0,0,0,0,0,0,0,-1,1056,1107,0,0
-161,-83,0,0,0,0,0,0,0,0,0,-1,1063,1107,0,0
-154,-83,0,0,0,0,0,0,0,0,0,-1,1070,1107,0,0
-147,-83,0,0,0,0,0,0,0,0,0,-1,1077,1107,0,0
-140,-83,0,0,0,0,0,0,0,0,0,-1,1084,1107,0,0
-133,-83,0,0,0,0,0,0,0,0,0,-1,1091,1107,0,0
-126,-83,0,0,0,0,0,0,0,0,0,-1,1098,1107,0,0
-119,-83,0,0,0,0,0,0,0,0,0,-1,1105,1107,0,0
-112,-83,0,0,0,0,0,0,0,0,0,-1,1112,1107,0,0
-105,-83,0,0,0,0,0,0,0,0,0,-1,1119,1107,0,0
-98,-83,0,0,0,0,0,0,0,0,0,-1,1126,1107,0,0
-91,-83,0,0,0,0,0,0,0,0,0,-1,1133,1107,0,0
-84,-83,0,0,0,0,0,0,0,0,0,-1,1140,1107,0,0
-77,-83,0,0,0,0,0,0,0,0,0,-1,1147,1107,0,0
-70,-83,0,0,0,0,0,0,0,0,0,-1,1154,1107,0,0
-63,-83,0,0,0,0,0,0,0,0,0,-1,1161,1107,0,0
-56,-83,0,0,0,0,0,0,0,0,0,-1,1168,1107,0,0
-49,-83,0,0,0,0,0,0,0,0,0,-1,1175,1107,0,0
-42,-83,0,0,0,0,0,0,0,0,0,-1,1182,1107,0,0
-35,-83,0,0,0,0,0,0,0,0,0,-1,1189,1107,0,0
-28,-83,0,0,0,0,0,0,0,0,0,-1,1196,1107,0,0
-21,-83,0,0,0,0,0,0,0,0,0,-1,1203,1107,0,0
-14,-83,0,0,0,0,0,0,0,0,0,-1,1210,1107,0,0
-7,-83,0,0,0,0,0,0,0,0,0,-1,1217,1107,0,0
0,-83,0,0,0,0,0,0,0,0,0,-1,1224,1107,0,0
7,-83,0,0,0,0,0,0,0,0,0,-1,1231,1107,0,0
14,-83,0,0,0,0,0,0,0,0,0,-1,1238,1107,0,0
21,-83,0,0,0,0,0,0,0,0,0,-1,1245,1107,0,0
28,-83,0,0,0,0,0,0,0,0,0,-1,1252,1107,0,0
35,-83,0,0,0,0,0,0,0,0,0,-1,1259,1107,0,0
42,-83,0,0,0,0,0,0,0,0,0,-1,1266,1107,0,0
49,-83,0,0,0,0,0,0,0,0,0,-1,1273,1107,0,0
56,-83,0,0,0,0,0,0,0,0,0,-1,1280,1107,0,0
63,-83,0,0,0,0,0,0,0,0,0,-1,1287,1107,0,0
70,-83,0,0,0,0,0,0,0,0,0,-1,1294,1107,0,0
77,-83,0,0,0,0,0,0,0,0,0,-1,1301,1107,0,0
84,-83,0,0,0,0,0,0,0,0,0,-1,1308,1107,0,0
91,-83,0,0,0,0,0,0,0,0,0,-1,1315,1107,0,0
98,-83,0,0,0,0,0,0,0,0,0,-1,1322,1107,0,0
105,-83,0,0,0,0,0,0,0,0,0,-1,1329,1107,0,0
112,-83,0,0,0,0,0,0,0,0,0,-1,1336,1107,0,0
119,-83,0,0,0,0,0,0,0,0,0,-1,1343,1107,0,0
126,-83,0,0,0,0,0,0,0,0,0,-1,1350,1107,0,0
133,-83,0,0,0,0,0,0,0,0,0,-1,1357,1107,0,0
140,-83,0,0,0,0,0,0,0,0,0,-1,1364,1107,0,0
147,-83,0,0,0,0,0,0,0,0,0,-1,1371,1107,0,0
154,-83,0,0,0,0,0,0,0,0,0,-1,1378,1107,0,0
161,-83,0,0,0,0,0,0,0,0,0,-1,1385,1107,0,0
168,-83,0,0,0,0,0,0,0,0,0,-1,1392,1107,0,0
175,-83,0,0,0,0,0,0,0,0,0,-1,1399,1107,0,0
182,-83,0,0,0,0,0,0,0,0,0,-1,1406,1107,0,0
189,-83,0,0,0,0,0,0,0,0,0,-1,1413,1107,0,0
196,-83,0,0,0,0,0,0,0,0,0,-1,1420,1107,0,0
203,-83,0,0,0,0,0,0,0,0,0,-1,1427,1107,0,0
210,-83,0,0,0,0,0,0,0,0,0,-1,1434,1107,0,0
217,-83,0,0,0,0,0,0,0,0,0,-1,1441,1107,0,0
224,-83,0,0,0,0,0,0,0,0,0,-1,1448,1107,0,0
231,-83,0,0,0,0,0,0,0,0,0,-1,1455,1107,0,0
238,-83,0,0,0,0,0,0,0,0,0,-1,1462,1107,0,0
245,-83,0,0,0,0,0,0,0,0,0,-1,1469,1107,0,0
252,-83,0,0,0,0,0,0,0,0,0,-1,1476,1107,0,0
259,-83,0,0,0,0,0,0,0,0,0,-1,1483,1107,0,0
266,-83,0,0,0,0,0,0,0,0,0,-1,1490,1107,0,0
273,-83,0,0,0,0,0,0,0,0,0,-1,1497,1107,0,0
280,-83,0,0,0,0,0,0,0,0,0,-1,1504,1107,0,0
287,-83,0,0,0,0,0,0,0,0,0,-1,1511,1107,0,0
294,-83,0,0,0,0,0,0,0,0,0,-1,1518,1107,0,0
301,-83,0,0,0,0,0,0,0,0,0,-1,1525,1107,0,0
308,-83,0,0,0,0,0,0,0,0,0,-1,1532,1107,0,0
315,-83,0,0,0,0,0,0,0,0,0,-1,1539,1107,0,0
322,-83,0,0,0,0,0,0,0,0,0,-1,1546,1107,0,0
329,-83,0,0,0,0,0,0,0,0,0,-1,1553,1107,0,0
336,-83,0,0,0,0,0,0,0,0,0,-1,1560,1107,0,0
343,-83,0,0,0,0,0,0,0,0,0,-1,1567,1107,0,0
350,-83,0,0,0,0,0,0,0,0,0,-1,1574,1107,0,0
357,-83,0,0,0,0,0,0,0,0,0,-1,1581,1107,0,0
364,-83,0,0,0,0,0,0,0,0,0,-1,1588,1107,0,0
371,-83,0,0,0,0,0,0,0,0,0,-1,1595,1107,0,0
378,-83,0,0,0,0,0,0,0,0,0,-1,1602,1107,0,0
385,-83,0,0,0,0,0,0,0,0,0,-1,1609,1107,0,0
392,-83,0,0,0,0,0,0,0,0,0,-1,1616,1107,0,0
399,-83,0,0,0,0,0,0,0,0,0,-1,1623,1107,0,0
406,-83,0,0,0,0,0,0,0,0,0,-1,1630,1107,0,0
413,-83,0,0,0,0,0,0,0,0,0,-1,1637,1107,0,0
420,-83,0,0,0,0,0,0,0,0,0,-1,1644,1107,0,0
427,-83,0,0,0,0,0,0,0,0,0,-1,1651,1107,0,0
434,-83,0,0,0,0,0,0,0,0,0,-1,1658,1107,0,0
441,-83,0,0,0,0,0,0,0,0,0,-1,1665,1107,0,0
448,-83,0,0,0,0,0,0,0,0,0,-1,1672,1107,0,0
455,-83,0,0,0,0,0,0,0,0,0,-1,1679,1107,0,0
462,-83,0,0,0,0,0,0,0,0,0,-1,1686,1107,0,0
469,-83,0,0,0,0,0,0,0,0,0,-1,1693,1107,0,0
476,-83,0,0,0,0,0,0,0,0,0,-1,1700,1107,0,0
483,-83,0,0,0,0,0,0,0,0,0,-1,1707,1107,0,0
490,-83,0,0,0,0,0,0,0,0,0,-1,1714,1107,0,0
497,-83,0,0,0,0,0,0,0,0,0,-1,1721,1107,0,0
504,-83,0,0,0,0,0,0,0,0,0,-1,1728,1107,0,0
511,-83,0,0,0,0,0,0,0,0,0,-1,1735,1107,0,0
518,-83,0,0,0,0,0,0,0,0,0,-1,1742,1107,0,0
525,-83,0,0,0,0,0,0,0,0,0,-1,1749,1107,0,0
532,-83,0,0,0,0,0,0,0,0,0,-1,1756,1107,0,0
539,-83,0,0,0,0,0,0,0,0,0,-1,1763,1107,0,0
546,-83,0,0,0,0,0,0,0,0,0,-1,1770,1107,0,0
553,-83,0,0,0,0,0,0,0,0,0,-1,1777,1107,0,0
560,-83,0,0,0,0,0,0,0,0,0,-1,1784,1107,0,0
567,-83,0,0,0,0,0,0,0,0,0,-1,1791,1107,0,0
574,-83,0,0,0,0,0,0,0,0,0,-1,1798,1107,0,0
581,-83,0,0,0,0,0,0,0,0,0,-1,1805,1107,0,0
588,-83,0,0,0,0,0,0,0,0,0,-1,1812,1107,0,0
595,-83,0,0,0,0,0,0,0,0,0,-1,1819,1107,0,0
602,-83,0,0,0,0,0,0,0,0,0,-1,1826,1107,0,0
609,-83,0,0,0,0,0,0,0,0,0,-1,1833,1107,0,0
616,-83,0,0,0,0,0,0,0,0,0,-1,1840,1107,0,0
623,-83,0,0,0,0,0,0,0,0,0,-1,1847,1107,0,0
630,-83,0,0,0,0,0,0,0,0,0,-1,1854,1107,0,0
637,-83,0,0,0,0,0,0,0,0,0,-1,1861,1107,0,0
644,-83,-0.0578613,-0.148193,-0.00210768,-0.000612134,-0.00243947,0.0011916,-0.00391141,-0.934117,0.00308256,0.0318576,1868,1107,-0.0578691,0.148165
651,-83,-0.0397949,-0.0916748,-0.00168296,-0.000496937,-0.00175798,0.000765357,-0.00294526,-0.948068,0.0022622,0.0362517,1875,1107,-0.0398446,0.0916618
658,-83,-0.083374,-0.0119629,-0.0012659,-0.000419887,-0.00121777,0.000446251,-0.00213204,-0.95256,0.00159111,0.0383447,1882,1107,-0.0833543,0.0120101
665,-83,-0.117554,-0.129028,-0.000868439,-0.00035716,-0.000835352,0.000260794,-0.00148639,-0.933886,0.00108833,0.0332698,1889,1107,-0.117518,0.129031
672,-83,-0.101807,-0.129517,-0.000545214,-0.000289061,-0.000575269,0.000172216,-0.00100649,-0.89493,0.000735155,0.0325908,1896,1107,-0.101766,0.129575
679,-83,-0.14624,-0.112549,-0.000309933,-0.00022056,-0.000414041,0.000151199,-0.000681692,-0.839153,0.000512353,0.0325989,1903,1107,-0.146298,0.112513
686,-83,-0.0906982,-0.0996094,-0.000148082,-0.000151496,-0.000319297,0.000169512,-0.00046909,-0.782725,0.000381981,0.028364,1910,1107,-0.0906713,0.0995919
693,-83,0.00231934,-0.0396729,-6.68036e-05,-8.16621e-05,-0.000263415,0.000189287,-0.000337752,-0.7713,0.000308284,0.0295197,1917,1107,0.00235931,0.0397005
700,-83,0.0197754,-0.0255127,-0.000114169,7.11955e-06,-0.000234677,0.000188861,-0.000295911,-0.91184,0.000282149,0.025327,1924,1107,0.0197946,0.0254588
707,-83,-0.0181885,-0.0501709,-4.98632e-05,5.11288e-05,-0.000178266,0.000185913,-0.000184647,-0.923413,0.000213944,0.0147339,1931,1107,-0.018191,0.050148
714,-83,-0.0196533,-0.0463867,4.2724e-05,9.90043e-05,-0.000152047,0.000225493,-8.3765e-05,-0.8769,0.000184695,0.0180302,1938,1107,-0.0197033,0.0464058
721,-83,-0.0321045,-0.067749,-8.17181e-07,0.000141717,-0.000154694,0.000240771,-9.98711e-05,-1.00126,0.0002022,0.0151993,1945,1107,-0.0320767,0.067691
728,-83,-0.0429688,-0.0823975,-6.54513e-05,0.000181106,-0.000169158,0.00026714,-0.000151486,-1.10029,0.000244749,0.015965,1952,1107,-0.0429697,0.0824042
735,-83,-0.0268555,-0.0822754,-8.42627e-05,0.000242726,-7.67159e-05,0.00025983,-0.000101367,-1.35143,0.000215123,0.0178421,1959,1107,-0.0268681,0.0822571
742,-83,-0.012085,-0.0701904,3.88119e-05,0.000426596,5.86112e-05,0.000435261,3.01468e-05,1.42402,0.000280665,0.0105351,1966,1107,-0.0120899,0.0701632
749,-83,-0.0192871,-0.0649414,0.000336407,0.000837688,6.48645e-05,0.000845945,0.00032815,1.44418,0.000492481,0.00967154,1973,1107,-0.0192643,0.0649183
756,-83,-0.0301514,-0.0515137,0.000463421,0.000926314,-0.000166494,0.000979978,0.000409758,-1.25899,0.000568313,0.0124989,1980,1107,-0.0301856,0.0514917
763,-83,-0.0407715,-0.0552979,0.000682536,0.000940251,-0.000253904,0.00109612,0.000526663,-1.02021,0.000633009,0.0105546,1987,1107,-0.0407779,0.0553099
770,-83,-0.0388184,-0.0654297,0.000944706,0.00110319,-0.000458326,0.00148907,0.000558822,-0.871,0.000868587,0.0124782,1994,1107,-0.0387841,0.0654348
777,-83,-0.0292969,-0.0653076,0.00121438,0.00123563,-0.000810266,0.00203534,0.000414671,-0.791956,0.00124197,0.0141058,2001,1107,-0.0292736,0.0652604
784,-83,-0.0100098,-0.0294189,0.00144568,0.0012638,-0.00136046,0.00271824,-8.75152e-06,-0.752025,0.00181508,0.0245676,2008,1107,-0.00995023,0.0294267
791,-83,0.0228271,0.0045166,0.00160049,0.00109333,-0.00214794,0.00350976,-0.000815941,-0.726641,0.00265397,0.0419347,2015,1107,0.0227672,-0.00449887
798,-83,-0.0172119,0.00476074,0.00161312,0.000587679,-0.00320546,0.0043466,-0.0021458,-0.706094,0.0038195,0.0448122,2022,1107,-0.0171853,-0.00479568
805,-83,-0.0705566,0.050415,0.0013778,-0.000450366,-0.00457097,0.00512519,-0.00419776,-0.686712,0.00539148,0.0464466,2029,1107,-0.0705055,-0.0504143
812,-83,-0.0806885,0.0406494,0.000790691,-0.00230352,-0.00632557,0.0057556,-0.00726843,-0.665463,0.00753632,0.0465111,2036,1107,-0.0807102,-0.0406721
-700,-90,0,0,0,0,0,0,0,0,0,-1,524,1114,0,0
-693,-90,1.18665,0.00817871,0,0,0,0,0,0,0,-1,531,1114,1.18665,-0.00812963
-686,-90,0.787109,-0.0718994,-0.0505743,0.00113757,0.0226749,0.00967178,-0.0591085,1.21082,0.0429937,0.0481717,538,1114,0.787123,0.0718592
-679,-90,0.352051,-0.172852,-0.0404929,0.00214893,0.0172929,0.00828026,-0.0466243,1.23007,0.0341789,0.0426861,545,1114,0.352061,0.172795
-672,-90,-0.934082,1.8595,0,0,0,0,0,0,0,-1,552,1114,-0.934101,-1.85953
-665,-90,-0.20813,0.591064,0,0,0,0,0,0,0,-1,559,1114,-0.208138,-0.591076
-658,-90,-0.052063,0.387451,0,0,0,0,0,0,0,-1,566,1114,-0.0520357,-0.387449
-651,-90,-0.0285645,-0.129028,-0.0119711,0.00191446,0.00349302,0.00274365,-0.0128003,1.33773,0.00957993,0.0284226,573,1114,-0.0285681,0.129061
-644,-90,-0.0253296,-0.106812,-0.00797147,0.00156731,0.00194452,0.00194847,-0.00835264,1.37723,0.00631886,0.0124729,580,1114,-0.0253428,0.106868
-637,-90,-0.00268555,-0.0794678,-0.00467109,0.00116932,0.000565311,0.00122354,-0.00472531,1.47519,0.0036275,0.010849,587,1114,-0.00271167,0.0794878
-630,-90,6.10352e-05,-0.0748291,-0.00225487,0.000892617,-0.00018965,0.000904003,-0.00226625,-1.51083,0.00188583,0.0105533,594,1114,9.09137e-05,0.0748535
-623,-90,0.00268555,-0.0709229,-0.000470485,0.000787707,-0.000882073,0.00124204,-0.000924816,-1.09516,0.00125549,0.00895113,601,1114,0.0027118,0.070945
-616,-90,-0.00653076,-0.0629883,0.000242654,0.000309767,-0.00113255,0.00140926,-0.000856836,-0.800208,0.00132122,0.00740017,608,1114,-0.00652529,0.0629438
-609,-90,-0.00512695,-0.0625,-7.30612e-05,0.000160814,-0.000562102,0.000618013,-0.00053026,-0.887953,0.000663601,0.0100865,615,1114,-0.0051326,0.0624878
-602,-90,-0.0142822,-0.0537109,-9.184e-05,0.000140127,-0.000249468,0.000299255,-0.000250968,-1.003,0.000318079,0.00983067,622,1114,-0.0142821,0.0537652
-595,-90,0.0043335,-0.0557861,-0.000122976,0.000175056,-0.000141495,0.000231531,-0.000179451,-1.19104,0.000237915,0.0113514,629,1114,0.00433856,0.0557582
-588,-90,0.0162354,-0.071167,-0.000215701,0.000226317,-0.000115498,0.000254677,-0.000244061,-1.33002,0.000287968,0.0170874,636,1114,0.0162532,0.0712137
-581,-90,-0.0264282,-0.106201,-0.000321287,0.000305349,-0.000117826,0.000326772,-0.00034271,-1.39095,0.000386562,0.026416,643,1114,-0.0264526,0.106172
-574,-90,-0.0464478,-0.0965576,-0.000413271,0.000428302,-0.000101859,0.000440455,-0.000425423,-1.45205,0.00049994,0.0321698,650,1114,-0.0464191,0.096515
-567,-90,-0.0251465,-0.0916748,-0.000475038,0.000537993,-6.65044e-05,0.00054234,-0.000479385,-1.50552,0.000590266,0.0322978,657,1114,-0.0251439,0.0917034
-560,-90,0.0701294,-0.0516357,-0.000587865,0.000668584,-5.05642e-06,0.000668605,-0.000587885,-1.56677,0.000725933,0.0343028,664,1114,0.0701134,0.0516174
-553,-90,0.0709839,-0.0246582,-0.000777411,0.000826991,6.93334e-05,0.000829982,-0.000780402,1.52769,0.000929902,0.0338197,671,1114,0.0709801,0.024719
-546,-90,0.0491943,-0.0750732,-0.00110371,0.00101688,0.000160718,0.00102899,-0.00111582,1.49558,0.00123865,0.0362301,678,1114,0.0492163,0.0750283
-539,-90,0.0160522,-0.0982666,-0.00157062,0.00125014,0.000263504,0.00127455,-0.00159503,1.47845,0.00166019,0.0369432,685,1114,0.0160797,0.0982298
-532,-90,-0.0822754,-0.11731,-0.00229655,0.00155007,0.000340673,0.00158,-0.00232648,1.48314,0.0022691,0.0366824,692,1114,-0.0822665,0.117315
-525,-90,0,0,0,0,0,0,0,0,0,-1,699,1114,0,0
-518,-90,0,0,0,0,0,0,0,0,0,-1,706,1114,0,0
-511,-90,0,0,0,0,0,0,0,0,0,-1,713,1114,0,0
-504,-90,0,0,0,0,0,0,0,0,0,-1,720,1114,0,0
-497,-90,0,0,0,0,0,0,0,0,0,-1,727,1114,0,0
-490,-90,0,0,0,0,0,0,0,0,0,-1,734,1114,0,0
-483,-90,0,0,0,0,0,0,0,0,0,-1,741,1114,0,0
-476,-90,0,0,0,0,0,0,0,0,0,-1,748,1114,0,0
-469,-90,0,0,0,0,0,0,0,0,0,-1,755,1114,0,0
-462,-90,0,0,0,0,0,0,0,0,0,-1,762,1114,0,0
-455,-90,0,0,0,0,0,0,0,0,0,-1,769,1114,0,0
-448,-90,0,0,0,0,0,0,0,0,0,-1,776,1114,0,0
-441,-90,0,0,0,0,0,0,0,0,0,-1,783,1114,0,0
-434,-90,0,0,0,0,0,0,0,0,0,-1,790,1114,0,0
-427,-90,0,0,0,0,0,0,0,0,0,-1,797,1114,0,0
-420,-90,0,0,0,0,0,0,0,0,0,-1,804,1114,0,0
-413,-90,0,0,0,0,0,0,0,0,0,-1,811,1114,0,0
-406,-90,0,0,0,0,0,0,0,0,0,-1,818,1114,0,0
-399,-90,0,0,0,0,0,0,0,0,0,-1,825,1114,0,0
-392,-90,0,0,0,0,0,0,0,0,0,-1,832,1114,0,0
-385,-90,0,0,0,0,0,0,0,0,0,-1,839,1114,0,0
-378,-90,0,0,0,0,0,0,0,0,0,-1,846,1114,0,0
-371,-90,0,0,0,0,0,0,0,0,0,-1,853,1114,0,0
-364,-90,0,0,0,0,0,0,0,0,0,-1,860,1114,0,0
-357,-90,0,0,0,0,0,0,0,0,0,-1,867,1114,0,0
-350,-90,0,0,0,0,0,0,0,0,0,-1,874,1114,0,0
-343,-90,0,0,0,0,0,0,0,0,0,-1,881,1114,0,0
-336,-90,0,0,0,0,0,0,0,0,0,-1,888,1114,0,0
-329,-90,0,0,0,0,0,0,0,0,0,-1,895,1114,0,0
-322,-90,0,0,0,0,0,0,0,0,0,-1,902,1114,0,0
-315,-90,0,0,0,0,0,0,0,0,0,-1,909,1114,0,0
-308,-90,0,0,0,0,0,0,0,0,0,-1,916,1114,0,0
-301,-90,0,0,0,0,0,0,0,0,0,-1,923,1114,0,0
-294,-90,0,0,0,0,0,0,0,0,0,-1,930,1114,0,0
-287,-90,0,0,0,0,0,0,0,0,0,-1,937,1114,0,0
-280,-90,0,0,0,0,0,0,0,0,0,-1,944,1114,0,0
-273,-90,0,0,0,0,0,0,0,0,0,-1,951,1114,0,0
-266,-90,0,0,0,0,0,0,0,0,0,-1,958,1114,0,0
-259,-90,0,0,0,0,0,0,0,0,0,-1,965,1114,0,0
-252,-90,0,0,0,0,0,0,0,0,0,-1,972,1114,0,0
-245,-90,0,0,0,0,0,0,0,0,0,-1,979,1114,0,0
-238,-90,0,0,0,0,0,0,0,0,0,-1,986,1114,0,0
-231,-90,0,0,0,0,0,0,0,0,0,-1,993,1114,0,0
-224,-90,0,0,0,0,0,0,0,0,0,-1,1000,1114,0,0
-217,-90,0,0,0,0,0,0,0,0,0,-1,1007,1114,0,0
-210,-90,0,0,0,0,0,0,0,0,0,-1,1014,1114,0,0
-203,-90,0,0,0,0,0,0,0,0,0,-1,1021,1114,0,0
-196,-90,0,0,0,0,0,0,0,0,0,-1,1028,1114,0,0
-189,-90,0,0,0,0,0,0,0,0,0,-1,1035,1114,0,0
-182,-90,0,0,0,0,0,0,0,0,0,-1,1042,1114,0,0
-175,-90,0,0,0,0,0,0,0,0,0,-1,1049,1114,0,0
-168,-90,0,0,0,0,0,0,0,0,0,-1,1056,1114,0,0
-161,-90,0,0,0,0,0,0,0,0,0,-1,1063,1114,0,0
-154,-90,0,0,0,0,0,0,0,0,0,-1,1070,1114,0,0
-147,-90,0,0,0,0,0,0,0,0,0,-1,1077,1114,0,0
-140,-90,0,0,0,0,0,0,0,0,0,-1,1084,1114,0,0
-133,-90,0,0,0,0,0,0,0,0,0,-1,1091,1114,0,0
-126,-90,0,0,0,0,0,0,0,0,0,-1,1098,1114,0,0
-119,-90,0,0,0,0,0,0,0,0,0,-1,1105,1114,0,0
-112,-90,0,0,0,0,0,0,0,0,0,-1,1112,1114,0,0
-105,-90,0,0,0,0,0,0,0,0,0,-1,1119,1114,0,0
-98,-90,0,0,0,0,0,0,0,0,0,-1,1126,1114,0,0
-91,-90,0,0,0,0,0,0,0,0,0,-1,1133,1114,0,0
-84,-90,0,0,0,0,0,0,0,0,0,-1,1140,1114,0,0
-77,-90,0,0,0,0,0,0,0,0,0,-1,1147,1114,0,0
-70,-90,0,0,0,0,0,0,0,0,0,-1,1154,1114,0,0
-63,-90,0,0,0,0,0,0,0,0,0,-1,1161,1114,0,0
-56,-90,0,0,0,0,0,0,0,0,0,-1,1168,1114,0,0
-49,-90,0,0,0,0,0,0,0,0,0,-1,1175,1114,0,0
-42,-90,0,0,0,0,0,0,0,0,0,-1,1182,1114,0,0
-35,-90,0,0,0,0,0,0,0,0,0,-1,1189,1114,0,0
-28,-90,0,0,0,0,0,0,0,0,0,-1,1196,1114,0,0
-21,-90,0,0,0,0,0,0,0,0,0,-1,1203,1114,0,0
-14,-90,0,0,0,0,0,0,0,0,0,-1,1210,1114,0,0
-7,-90,0,0,0,0,0,0,0,0,0,-1,1217,1114,0,0
0,-90,0,0,0,0,0,0,0,0,0,-1,1224,1114,0,0
7,-90,0,0,0,0,0,0,0,0,0,-1,1231,1114,0,0
14,-90,0,0,0,0,0,0,0,0,0,-1,1238,1114,0,0
21,-90,0,0,0,0,0,0,0,0,0,-1,1245,1114,0,0
28,-90,0,0,0,0,0,0,0,0,0,-1,1252,1114,0,0
35,-90,0,0,0,0,0,0,0,0,0,-1,1259,1114,0,0
42,-90,0,0,0,0,0,0,0,0,0,-1,1266,1114,0,0
49,-90,0,0,0,0,0,0,0,0,0,-1,1273,1114,0,0
56,-90,0,0,0,0,0,0,0,0,0,-1,1280,1114,0,0
63,-90,0,0,0,0,0,0,0,0,0,-1,1287,1114,0,0
70,-90,0,0,0,0,0,0,0,0,0,-1,1294,1114,0,0
77,-90,0,0,0,0,0,0,0,0,0,-1,1301,1114,0,0
84,-90,0,0,0,0,0,0,0,0,0,-1,1308,1114,0,0
91,-90,0,0,0,0,0,0,0,0,0,-1,1315,1114,0,0
98,-90,0,0,0,0,0,0,0,0,0,-1,1322,1114,0,0
105,-90,0,0,0,0,0,0,0,0,0,-1,1329,1114,0,0
112,-90,0,0,0,0,0,0,0,0,0,-1,1336,1114,0,0
119,-90,0,0,0,0,0,0,0,0,0,-1,1343,1114,0,0
126,-90,0,0,0,0,0,0,0,0,0,-1,1350,1114,0,0
133,-90,0,0,0,0,0,0,0,0,0,-1,1357,1114,0,0
140,-90,0,0,0,0,0,0,0,0,0,-1,1364,1114,0,0
147,-90,0,0,0,0,0,0,0,0,0,-1,1371,1114,0,0
154,-90,0,0,0,0,0,0,0,0,0,-1,1378,1114,0,0
161,-90,0,0,0,0,0,0,0,0,0,-1,1385,1114,0,0
168,-90,0,0,0,0,0,0,0,0,0,-1,1392,1114,0,0
175,-90,0,0,0,0,0,0,0,0,0,-1,1399,1114,0,0
182,-90,0,0,0,0,0,0,0,0,0,-1,1406,1114,0,0
189,-90,0,0,0,0,0,0,0,0,0,-1,1413,1114,0,0
196,-90,0,0,0,0,0,0,0,0,0,-1,1420,1114,0,0
203,-90,0,0,0,0,0,0,0,0,0,-1,1427,1114,0,0
210,-90,0,0,0,0,0,0,0,0,0,-1,1434,1114,0,0
217,-90,0,0,0,0,0,0,0,0,0,-1,1441,1114,0,0
224,-90,0,0,0,0,0,0,0,0,0,-1,1448,1114,0,0
231,-90,0,0,0,0,0,0,0,0,0,-1,1455,1114,0,0
238,-90,0,0,0,0,0,0,0,0,0,-1,1462,1114,0,0
245,-90,0,0,0,0,0,0,0,0,0,-1,1469,1114,0,0
252,-90,0,0,0,0,0,0,0,0,0,-1,1476,1114,0,0
259,-90,0,0,0,0,0,0,0,0,0,-1,1483,1114,0,0
266,-90,0,0,0,0,0,0,0,0,0,-1,1490,1114,0,0
273,-90,0,0,0,0,0,0,0,0,0,-1,1497,1114,0,0
280,-90,0,0,0,0,0,0,0,0,0,-1,1504,1114,0,0
287,-90,0,0,0,0,0,0,0,0,0,-1,1511,1114,0,0
294,-90,0,0,0,0,0,0,0,0,0,-1,1518,1114,0,0
301,-90,0,0,0,0,0,0,0,0,0,-1,1525,1114,0,0
308,-90,0,0,0,0,0,0,0,0,0,-1,1532,1114,0,0
315,-90,0,0,0,0,0,0,0,0,0,-1,1539,1114,0,0
322,-90,0,0,0,0,0,0,0,0,0,-1,1546,1114,0,0
329,-90,0,0,0,0,0,0,0,0,0,-1,1553,1114,0,0
336,-90,0,0,0,0,0,0,0,0,0,-1,1560,1114,0,0
343,-90,0,0,0,0,0,0,0,0,0,-1,1567,1114,0,0
350,-90,0,0,0,0,0,0,0,0,0,-1,1574,1114,0,0
357,-90,0,0,0,0,0,0,0,0,0,-1,1581,1114,0,0
364,-90,0,0,0,0,0,0,0,0,0,-1,1588,1114,0,0
371,-90,0,0,0,0,0,0,0,0,0,-1,1595,1114,0,0
378,-90,0,0,0,0,0,0,0,0,0,-1,1602,1114,0,0
385,-90,0,0,0,0,0,0,0,0,0,-1,1609,1114,0,0
392,-90,0,0,0,0,0,0,0,0,0,-1,1616,1114,0,0
399,-90,0,0,0,0,0,0,0,0,0,-1,1623,1114,0,0
406,-90,0,0,0,0,0,0,0,0,0,-1,1630,1114,0,0
413,-90,0,0,0,0,0,0,0,0,0,-1,1637,1114,0,0
420,-90,0,0,0,0,0,0,0,0,0,-1,1644,1114,0,0
427,-90,0,0,0,0,0,0,0,0,0,-1,1651,1114,0,0
434,-90,0,0,0,0,0,0,0,0,0,-1,1658,1114,0,0
441,-90,0,0,0,0,0,0,0,0,0,-1,1665,1114,0,0
448,-90,0,0,0,0,0,0,0,0,0,-1,1672,1114,0,0
455,-90,0,0,0,0,0,0,0,0,0,-1,1679,1114,0,0
462,-90,0,0,0,0,0,0,0,0,0,-1,1686,1114,0,0
469,-90,0,0,0,0,0,0,0,0,0,-1,1693,1114,0,0
476,-90,0,0,0,0,0,0,0,0,0,-1,1700,1114,0,0
483,-90,0,0,0,0,0,0,0,0,0,-1,1707,1114,0,0
490,-90,0,0,0,0,0,0,0,0,0,-1,1714,1114,0,0
497,-90,0,0,0,0,0,0,0,0,0,-1,1721,1114,0,0
504,-90,0,0,0,0,0,0,0,0,0,-1,1728,1114,0,0
511,-90,0,0,0,0,0,0,0,0,0,-1,1735,1114,0,0
518,-90,0,0,0,0,0,0,0,0,0,-1,1742,1114,0,0
525,-90,0,0,0,0,0,0,0,0,0,-1,1749,1114,0,0
532,-90,0,0,0,0,0,0,0,0,0,-1,1756,1114,0,0
539,-90,0,0,0,0,0,0,0,0,0,-1,1763,1114,0,0
546,-90,0,0,0,0,0,0,0,0,0,-1,1770,1114,0,0
553,-90,0,0,0,0,0,0,0,0,0,-1,1777,1114,0,0
560,-90,0,0,0,0,0,0,0,0,0,-1,1784,1114,0,0
567,-90,0,0,0,0,0,0,0,0,0,-1,1791,1114,0,0
574,-90,0,0,0,0,0,0,0,0,0,-1,1798,1114,0,0
581,-90,0,0,0,0,0,0,0,0,0,-1,1805,1114,0,0
588,-90,0,0,0,0,0,0,0,0,0,-1,1812,1114,0,0
595,-90,0,0,0,0,0,0,0,0,0,-1,1819,1114,0,0
602,-90,0,0,0,0,0,0,0,0,0,-1,1826,1114,0,0
609,-90,0,0,0,0,0,0,0,0,0,-1,1833,1114,0,0
616,-90,0,0,0,0,0,0,0,0,0,-1,1840,1114,0,0
623,-90,0,0,0,0,0,0,0,0,0,-1,1847,1114,0,0
630,-90,0,0,0,0,0,0,0,0,0,-1,1854,1114,0,0
637,-90,0,0,0,0,0,0,0,0,0,-1,1861,1114,0,0
644,-90,-0.088501,-0.0738525,-0.00109472,-0.000577785,-0.00185778,0.00103942,-0.00271192,-0.854518,0.00223644,0.0309692,1868,1114,-0.0885208,0.0738021
651,-90,-0.0709229,-0.205322,-0.00106983,-0.000520677,-0.00134723,0.00057967,-0.00217018,-0.885926,0.00167381,0.0337285,1875,1114,-0.0708901,0.205343
658,-90,-0.102295,-0.135742,-0.000887152,-0.000458563,-0.000947419,0.000298494,-0.00164421,-0.89662,0.00120799,0.0378096,1882,1114,-0.102275,0.135738
665,-90,-0.113037,-0.0272217,-0.000651644,-0.000394096,-0.000671285,0.000160655,-0.00120639,-0.880163,0.000862815,0.0371616,1889,1114,-0.113053,0.0271801
672,-90,-0.108643,-0.115112,-0.000443317,-0.000314839,-0.00048719,0.000112329,-0.000870485,-0.850948,0.000621161,0.0367979,1896,1114,-0.108585,0.115075
679,-90,-0.067749,-0.193237,-0.000273921,-0.000230812,-0.000377407,0.000125655,-0.000630388,-0.813923,0.000467803,0.0319017,1903,1114,-0.0677309,0.193248
686,-90,-0.0269775,-0.168335,-0.000148226,-0.000145786,-0.000313897,0.000166893,-0.000460905,-0.787341,0.000375475,0.0279496,1910,1114,-0.0269964,0.168303
693,-90,-0.00695801,-0.0588379,-9.06285e-05,-5.94319e-05,-0.000274647,0.000200059,-0.000350119,-0.813765,0.00032156,0.0276421,1917,1114,-0.00701708,0.0588211
700,-90,-0.00964355,-0.0229492,-0.000166453,3.49211e-05,-0.000257808,0.000211007,-0.000342538,-0.971565,0.000322583,0.0231061,1924,1114,-0.00959356,0.0229642
707,-90,-0.0279541,-0.0397949,-9.9314e-05,8.97323e-05,-0.000207364,0.000223101,-0.000232682,-0.999245,0.000263166,0.0134677,1931,1114,-0.0279821,0.0397696
714,-90,-0.0233154,-0.0322266,5.70351e-06,0.000147607,-0.000174639,0.000265157,-0.000111847,-0.978351,0.000223582,0.0177594,1938,1114,-0.0233607,0.032171
721,-90,-0.0428467,-0.0587158,-4.34418e-05,0.000201044,-0.000168788,0.000287206,-0.000129604,-1.0988,0.000246313,0.0158763,1945,1114,-0.0428192,0.0587461
728,-90,-0.0466309,-0.0623779,-0.000115817,0.000242428,-0.000176983,0.000315115,-0.000188503,-1.1811,0.000293811,0.0145399,1952,1114,-0.0465811,0.0623227
735,-90,-0.00769043,-0.0649414,-0.000131645,0.000285684,-9.39242e-05,0.000305848,-0.000151809,-1.35932,0.000269171,0.0159141,1959,1114,-0.0077408,0.0649628
742,-90,-0.00915527,-0.0721436,-5.54442e-05,0.000415766,3.90007e-05,0.000418972,-5.86504e-05,1.48877,0.000300777,0.0130504,1966,1114,-0.00912542,0.0721294
749,-90,-0.0336914,-0.0791016,0.000137698,0.000836748,-4.64658e-06,0.000836778,0.000137668,-1.56415,0.000518096,0.00973378,1973,1114,-0.0336661,0.0790826
756,-90,-0.0150146,-0.0773926,0.000140718,0.000986468,-0.000335751,0.00110355,2.36382e-05,-1.23527,0.000727947,0.0113036,1980,1114,-0.0149899,0.077393
763,-90,-0.0227051,-0.0744629,0.000265722,0.00104855,-0.000505883,0.00129676,1.75089e-05,-1.11465,0.000858732,0.0107699,1987,1114,-0.0226903,0.0744259
770,-90,-0.0505371,-0.0671387,0.000396372,0.00128321,-0.000835788,0.00178592,-0.00010634,-1.02929,0.0012276,0.0125686,1994,1114,-0.0505965,0.0670846
777,-90,-0.0317383,-0.0670166,0.00049534,0.00153412,-0.0013536,0.00246456,-0.000435096,-0.968591,0.00180563,0.0124184,2001,1114,-0.0317202,0.0670228
784,-90,-0.0161133,-0.0386963,0.000528481,0.00174456,-0.00211484,0.00333704,-0.001064,-0.925378,0.0026515,0.0262002,2008,1114,-0.0160933,0.0387435
791,-90,-0.00756836,-0.0469971,0.000470686,0.00183887,-0.00316741,0.00439522,-0.00208567,-0.891754,0.00382012,0.0416976,2015,1114,-0.00754573,0.0469521
798,-90,-0.146484,-0.110229,0.000255765,0.00170537,-0.00454792,0.00558588,-0.00362475,-0.864419,0.00535779,0.0426446,2022,1114,-0.146474,0.110196
805,-90,-0.37854,-0.306519,-0.00020264,0.00117525,-0.00629622,0.00682011,-0.0058475,-0.839892,0.00732083,0.0422016,2029,1114,-0.378561,0.306529
812,-90,-0.168579,0.0771484,-0.000943189,-1.07887e-05,-0.00849006,0.00802586,-0.00897984,-0.812826,0.0098234,0.0449038,2036,1114,-0.168593,-0.0771392
-700,-97,0,0,0,0,0,0,0,0,0,-1,524,1121,0,0
-693,-97,1.59851,-0.251099,-0.0596734,-0.00896812,0.0314495,0.00607511,-0.0747166,1.12463,0.0519546,0.0456037,531,1121,1.5985,0.251098
-686,-97,0.674133,-0.158325,-0.0485973,-0.00473648,0.0242848,0.00605459,-0.0593884,1.15265,0.041757,0.0457129,538,1121,0.674115,0.158271
-679,-97,0.159729,-0.0289307,-0.0384042,-0.00203749,0.0180618,0.00540853,-0.0458502,1.17977,0.0325199,0.0463567,545,1121,0.159716,0.0288744
-672,-97,-0.805542,1.71814,-0.0294568,-0.000339665,0.0128379,0.00451216,-0.0343086,1.20946,0.0245153,0.0457794,552,1121,-0.805561,-1.71811
-665,-97,-0.202515,0.96936,-0.0218584,0.000667196,0.00860497,0.00357818,-0.0247694,1.24459,0.0178258,0.0425792,559,1121,-0.202537,-0.969367
-658,-97,-0.0377808,0.431641,-0.0156214,0.00117803,0.00532471,0.00272355,-0.0171669,1.2883,0.0124521,0.0409997,566,1121,-0.0377628,-0.431625
-651,-97,-0.034668,-0.0822754,0,0,0,0,0,0,0,-1,573,1121,-0.0346394,0.0822743
-644,-97,-0.0303345,-0.090332,-0.00698331,0.00129041,0.00138706,0.00151675,-0.00720965,1.40904,0.00538372,0.0106193,580,1121,-0.0303371,0.0903438
-637,-97,-0.00372314,-0.0854492,-0.00394535,0.00137092,2.07498e-06,0.00137092,-0.00394535,1.57041,0.00318706,0.0117498,587,1121,-0.0037196,0.0854967
-630,-97,0.00714111,-0.0946045,-0.00179151,0.00117022,-0.000619999,0.00129477,-0.00191606,-1.37255,0.00186531,0.00862449,594,1121,0.0071343,0.0945613
-623,-97,-0.00274658,-0.0804443,-0.000169491,0.00092393,-0.00122177,0.00171573,-0.000961296,-0.995773,0.00156591,0.00981352,601,1121,-0.00277594,0.0804757
-616,-97,-0.0192871,-0.0609131,0.00039043,0.000332616,-0.00132688,0.00168872,-0.000965676,-0.774507,0.00155135,0.0101097,608,1121,-0.0192974,0.0608719
-609,-97,-0.00549316,-0.0565186,3.5306e-05,0.000120106,-0.000682652,0.000761673,-0.000606262,-0.816414,0.000791475,0.0120236,615,1121,-0.00549342,0.056545
-602,-97,-0.00952148,-0.0765381,-9.20023e-06,0.000118374,-0.000269717,0.000331744,-0.000222571,-0.901513,0.000322096,0.0112663,622,1121,-0.00952836,0.0765713
-595,-97,-0.00604248,-0.0791016,-4.52454e-05,0.000117539,-0.000122718,0.000183403,-0.000111109,-1.07821,0.000171736,0.014953,629,1121,-0.00601894,0.0790922
-588,-97,0.0125122,-0.0852051,-0.00014276,0.000158352,-0.000102155,0.000189737,-0.000174145,-1.27272,0.000210152,0.0177681,636,1121,0.0125038,0.0851489
-581,-97,-0.0271606,-0.0976563,-0.000280803,0.000245087,-0.000119161,0.000270828,-0.000306543,-1.35805,0.000333558,0.0276521,643,1121,-0.0271638,0.0976275
-574,-97,-0.0301514,-0.0775146,-0.000410323,0.000376036,-0.000109761,0.000391069,-0.000425357,-1.43468,0.000471502,0.0360371,650,1121,-0.0301552,0.0774928
-567,-97,-0.0198975,-0.0419922,-0.000515449,0.000496833,-8.62889e-05,0.000504136,-0.000522752,-1.48637,0.000592906,0.0335348,657,1121,-0.0198812,0.0420458
-560,-97,-0.0235596,-0.119385,-0.00069912,0.00065098,-4.37982e-05,0.000652399,-0.000700539,-1.5384,0.000781284,0.037056,664,1121,-0.0235723,0.119327
-553,-97,0.00280762,-0.196167,-0.000989814,0.000849054,2.45743e-06,0.000849057,-0.000989818,1.56946,0.00106271,0.040477,671,1121,0.00280797,0.196219
-546,-97,0.00793457,-0.0809326,-0.00144752,0.00110036,5.11243e-05,0.00110139,-0.00144855,1.55074,0.00147675,0.040618,678,1121,0.00795823,0.0808831
-539,-97,-0.0278931,-0.0986328,-0.00209225,0.00142729,9.18488e-05,0.00142969,-0.00209464,1.54472,0.00204681,0.0373584,685,1121,-0.0278873,0.098634
-532,-97,-0.100708,-0.10376,-0.00305045,0.00185872,8.05943e-05,0.00186004,-0.00305178,1.55439,0.00286353,0.0346899,692,1121,-0.100696,0.103793
-525,-97,0,0,0,0,0,0,0,0,0,-1,699,1121,0,0
-518,-97,0,0,0,0,0,0,0,0,0,-1,706,1121,0,0
-511,-97,0,0,0,0,0,0,0,0,0,-1,713,1121,0,0
-504,-97,0,0,0,0,0,0,0,0,0,-1,720,1121,0,0
-497,-97,0,0,0,0,0,0,0,0,0,-1,727,1121,0,0
-490,-97,0,0,0,0,0,0,0,0,0,-1,734,1121,0,0
-483,-97,0,0,0,0,0,0,0,0,0,-1,741,1121,0,0
-476,-97,0,0,0,0,0,0,0,0,0,-1,748,1121,0,0
-469,-97,0,0,0,0,0,0,0,0,0,-1,755,1121,0,0
-462,-97,0,0,0,0,0,0,0,0,0,-1,762,1121,0,0
-455,-97,0,0,0,0,0,0,0,0,0,-1,769,1121,0,0
-448,-97,0,0,0,0,0,0,0,0,0,-1,776,1121,0,0
-441,-97,0,0,0,0,0,0,0,0,0,-1,783,1121,0,0
-434,-97,0,0,0,0,0,0,0,0,0,-1,790,1121,0,0
-427,-97,0,0,0,0,0,0,0,0,0,-1,797,1121,0,0
-420,-97,0,0,0,0,0,0,0,0,0,-1,804,1121,0,0
-413,-97,0,0,0,0,0,0,0,0,0,-1,811,1121,0,0
-406,-97,0,0,0,0,0,0,0,0,0,-1,818,1121,0,0
-399,-97,0,0,0,0,0,0,0,0,0,-1,825,1121,0,0
-392,-97,0,0,0,0,0,0,0,0,0,-1,832,1121,0,0
-385,-97,0,0,0,0,0,0,0,0,0,-1,839,1121,0,0
-378,-97,0,0,0,0,0,0,0,0,0,-1,846,1121,0,0
-371,-97,0,0,0,0,0,0,0,0,0,-1,853,1121,0,0
-364,-97,0,0,0,0,0,0,0,0,0,-1,860,1121,0,0
-357,-97,0,0,0,0,0,0,0,0,0,-1,867,1121,0,0
-350,-97,0,0,0,0,0,0,0,0,0,-1,874,1121,0,0
-343,-97,0,0,0,0,0,0,0,0,0,-1,881,1121,0,0
-336,-97,0,0,0,0,0,0,0,0,0,-1,888,1121,0,0
-329,-97,0,0,0,0,0,0,0,0,0,-1,895,1121,0,0
-322,-97,0,0,0,0,0,0,0,0,0,-1,902,1121,0,0
-315,-97,0,0,0,0,0,0,0,0,0,-1,909,1121,0,0
-308,-97,0,0,0,0,0,0,0,0,0,-1,916,1121,0,0
-301,-97,0,0,0,0,0,0,0,0,0,-1,923,1121,0,0
-294,-97,0,0,0,0,0,0,0,0,0,-1,930,1121,0,0
-287,-97,0,0,0,0,0,0,0,0,0,-1,937,1121,0,0
-280,-97,0,0,0,0,0,0,0,0,0,-1,944,1121,0,0
-273,-97,0,0,0,0,0,0,0,0,0,-1,951,1121,0,0
-266,-97,0,0,0,0,0,0,0,0,0,-1,958,1121,0,0
-259,-97,0,0,0,0,0,0,0,0,0,-1,965,1121,0,0
-252,-97,0,0,0,0,0,0,0,0,0,-1,972,1121,0,0
-245,-97,0,0,0,0,0,0,0,0,0,-1,979,1121,0,0
-238,-97,0,0,0,0,0,0,0,0,0,-1,986,1121,0,0
-231,-97,0,0,0,0,0,0,0,0,0,-1,993,1121,0,0
-224,-97,0,0,0,0,0,0,0,0,0,-1,1000,1121,0,0
-217,-97,0,0,0,0,0,0,0,0,0,-1,1007,1121,0,0
-210,-97,0,0,0,0,0,0,0,0,0,-1,1014,1121,0,0
-203,-97,0,0,0,0,0,0,0,0,0,-1,1021,1121,0,0
-196,-97,0,0,0,0,0,0,0,0,0,-1,1028,1121,0,0
-189,-97,0,0,0,0,0,0,0,0,0,-1,1035,1121,0,0
-182,-97,0,0,0,0,0,0,0,0,0,-1,1042,1121,0,0
-175,-97,0,0,0,0,0,0,0,0,0,-1,1049,1121,0,0
-168,-97,0,0,0,0,0,0,0,0,0,-1,1056,1121,0,0
-161,-97,0,0,0,0,0,0,0,0,0,-1,1063,1121,0,0
-154,-97,0,0,0,0,0,0,0,0,0,-1,1070,1121,0,0
-147,-97,0,0,0,0,0,0,0,0,0,-1,1077,1121,0,0
-140,-97,0,0,0,0,0,0,0,0,0,-1,1084,1121,0,0
-133,-97,0,0,0,0,0,0,0,0,0,-1,1091,1121,0,0
-126,-97,0,0,0,0,0,0,0,0,0,-1,1098,1121,0,0
-119,-97,0,0,0,0,0,0,0,0,0,-1,1105,1121,0,0
-112,-97,0,0,0,0,0,0,0,0,0,-1,1112,1121,0,0
-105,-97,0,0,0,0,0,0,0,0,0,-1,1119,1121,0,0
-98,-97,0,0,0,0,0,0,0,0,0,-1,1126,1121,0,0
-91,-97,0,0,0,0,0,0,0,0,0,-1,1133,1121,0,0
-84,-97,0,0,0,0,0,0,0,0,0,-1,1140,1121,0,0
-77,-97,0,0,0,0,0,0,0,0,0,-1,1147,1121,0,0
-70,-97,0,0,0,0,0,0,0,0,0,-1,1154,1121,0,0
-63,-97,0,0,0,0,0,0,0,0,0,-1,1161,1121,0,0
-56,-97,0,0,0,0,0,0,0,0,0,-1,1168,1121,0,0
-49,-97,0,0,0,0,0,0,0,0,0,-1,1175,1121,0,0
-42,-97,0,0,0,0,0,0,0,0,0,-1,1182,1121,0,0
-35,-97,0,0,0,0,0,0,0,0,0,-1,1189,1121,0,0
-28,-97,0,0,0,0,0,0,0,0,0,-1,1196,1121,0,0
-21,-97,0,0,0,0,0,0,0,0,0,-1,1203,1121,0,0
-14,-97,0,0,0,0,0,0,0,0,0,-1,1210,1121,0,0
-7,-97,0,0,0,0,0,0,0,0,0,-1,1217,1121,0,0
0,-97,0,0,0,0,0,0,0,0,0,-1,1224,1121,0,0
7,-97,0,0,0,0,0,0,0,0,0,-1,1231,1121,0,0
14,-97,0,0,0,0,0,0,0,0,0,-1,1238,1121,0,0
21,-97,0,0,0,0,0,0,0,0,0,-1,1245,1121,0,0
28,-97,0,0,0,0,0,0,0,0,0,-1,1252,1121,0,0
35,-97,0,0,0,0,0,0,0,0,0,-1,1259,1121,0,0
42,-97,0,0,0,0,0,0,0,0,0,-1,1266,1121,0,0
49,-97,0,0,0,0,0,0,0,0,0,-1,1273,1121,0,0
56,-97,0,0,0,0,0,0,0,0,0,-1,1280,1121,0,0
63,-97,0,0,0,0,0,0,0,0,0,-1,1287,1121,0,0
70,-97,0,0,0,0,0,0,0,0,0,-1,1294,1121,0,0
77,-97,0,0,0,0,0,0,0,0,0,-1,1301,1121,0,0
84,-97,0,0,0,0,0,0,0,0,0,-1,1308,1121,0,0
91,-97,0,0,0,0,0,0,0,0,0,-1,1315,1121,0,0
98,-97,0,0,0,0,0,0,0,0,0,-1,1322,1121,0,0
105,-97,0,0,0,0,0,0,0,0,0,-1,1329,1121,0,0
112,-97,0,0,0,0,0,0,0,0,0,-1,1336,1121,0,0
119,-97,0,0,0,0,0,0,0,0,0,-1,1343,1121,0,0
126,-97,0,0,0,0,0,0,0,0,0,-1,1350,1121,0,0
133,-97,0,0,0,0,0,0,0,0,0,-1,1357,1121,0,0
140,-97,0,0,0,0,0,0,0,0,0,-1,1364,1121,0,0
147,-97,0,0,0,0,0,0,0,0,0,-1,1371,1121,0,0
154,-97,0,0,0,0,0,0,0,0,0,-1,1378,1121,0,0
161,-97,0,0,0,0,0,0,0,0,0,-1,1385,1121,0,0
168,-97,0,0,0,0,0,0,0,0,0,-1,1392,1121,0,0
175,-97,0,0,0,0,0,0,0,0,0,-1,1399,1121,0,0
182,-97,0,0,0,0,0,0,0,0,0,-1,1406,1121,0,0
189,-97,0,0,0,0,0,0,0,0,0,-1,1413,1121,0,0
196,-97,0,0,0,0,0,0,0,0,0,-1,1420,1121,0,0
203,-97,0,0,0,0,0,0,0,0,0,-1,1427,1121,0,0
210,-97,0,0,0,0,0,0,0,0,0,-1,1434,1121,0,0
217,-97,0,0,0,0,0,0,0,0,0,-1,1441,1121,0,0
224,-97,0,0,0,0,0,0,0,0,0,-1,1448,1121,0,0
231,-97,0,0,0,0,0,0,0,0,0,-1,1455,1121,0,0
238,-97,0,0,0,0,0,0,0,0,0,-1,1462,1121,0,0
245,-97,0,0,0,0,0,0,0,0,0,-1,1469,1121,0,0
252,-97,0,0,0,0,0,0,0,0,0,-1,1476,1121,0,0
259,-97,0,0,0,0,0,0,0,0,0,-1,1483,1121,0,0
266,-97,0,0,0,0,0,0,0,0,0,-1,1490,1121,0,0
273,-97,0,0,0,0,0,0,0,0,0,-1,1497,1121,0,0
280,-97,0,0,0,0,0,0,0,0,0,-1,1504,1121,0,0
287,-97,0,0,0,0,0,0,0,0,0,-1,1511,1121,0,0
294,-97,0,0,0,0,0,0,0,0,0,-1,1518,1121,0,0
301,-97,0,0,0,0,0,0,0,0,0,-1,1525,1121,0,0
308,-97,0,0,0,0,0,0,0,0,0,-1,1532,1121,0,0
315,-97,0,0,0,0,0,0,0,0,0,-1,1539,1121,0,0
322,-97,0,0,0,0,0,0,0,0,0,-1,1546,1121,0,0
329,-97,0,0,0,0,0,0,0,0,0,-1,1553,1121,0,0
336,-97,0,0,0,0,0,0,0,0,0,-1,1560,1121,0,0
343,-97,0,0,0,0,0,0,0,0,0,-1,1567,1121,0,0
350,-97,0,0,0,0,0,0,0,0,0,-1,1574,1121,0,0
357,-97,0,0,0,0,0,0,0,0,0,-1,1581,1121,0,0
364,-97,0,0,0,0,0,0,0,0,0,-1,1588,1121,0,0
371,-97,0,0,0,0,0,0,0,0,0,-1,1595,1121,0,0
378,-97,0,0,0,0,0,0,0,0,0,-1,1602,1121,0,0
385,-97,0,0,0,0,0,0,0,0,0,-1,1609,1121,0,0
392,-97,0,0,0,0,0,0,0,0,0,-1,1616,1121,0,0
399,-97,0,0,0,0,0,0,0,0,0,-1,1623,1121,0,0
406,-97,0,0,0,0,0,0,0,0,0,-1,1630,1121,0,0
413,-97,0,0,0,0,0,0,0,0,0,-1,1637,1121,0,0
420,-97,0,0,0,0,0,0,0,0,0,-1,1644,1121,0,0
427,-97,0,0,0,0,0,0,0,0,0,-1,1651,1121,0,0
434,-97,0,0,0,0,0,0,0,0,0,-1,1658,1121,0,0
441,-97,0,0,0,0,0,0,0,0,0,-1,1665,1121,0,0
448,-97,0,0,0,0,0,0,0,0,0,-1,1672,1121,0,0
455,-97,0,0,0,0,0,0,0,0,0,-1,1679,1121,0,0
462,-97,0,0,0,0,0,0,0,0,0,-1,1686,1121,0,0
469,-97,0,0,0,0,0,0,0,0,0,-1,1693,1121,0,0
476,-97,0,0,0,0,0,0,0,0,0,-1,1700,1121,0,0
483,-97,0,0,0,0,0,0,0,0,0,-1,1707,1121,0,0
490,-97,0,0,0,0,0,0,0,0,0,-1,1714,1121,0,0
497,-97,0,0,0,0,0,0,0,0,0,-1,1721,1121,0,0
504,-97,0,0,0,0,0,0,0,0,0,-1,1728,1121,0,0
511,-97,0,0,0,0,0,0,0,0,0,-1,1735,1121,0,0
518,-97,0,0,0,0,0,0,0,0,0,-1,1742,1121,0,0
525,-97,0,0,0,0,0,0,0,0,0,-1,1749,1121,0,0
532,-97,0,0,0,0,0,0,0,0,0,-1,1756,1121,0,0
539,-97,0,0,0,0,0,0,0,0,0,-1,1763,1121,0,0
546,-97,0,0,0,0,0,0,0,0,0,-1,1770,1121,0,0
553,-97,0,0,0,0,0,0,0,0,0,-1,1777,1121,0,0
560,-97,0,0,0,0,0,0,0,0,0,-1,1784,1121,0,0
567,-97,0,0,0,0,0,0,0,0,0,-1,1791,1121,0,0
574,-97,0,0,0,0,0,0,0,0,0,-1,1798,1121,0,0
581,-97,0,0,0,0,0,0,0,0,0,-1,1805,1121,0,0
588,-97,0,0,0,0,0,0,0,0,0,-1,1812,1121,0,0
595,-97,0,0,0,0,0,0,0,0,0,-1,1819,1121,0,0
602,-97,0,0,0,0,0,0,0,0,0,-1,1826,1121,0,0
609,-97,0,0,0,0,0,0,0,0,0,-1,1833,1121,0,0
616,-97,0,0,0,0,0,0,0,0,0,-1,1840,1121,0,0
623,-97,0,0,0,0,0,0,0,0,0,-1,1847,1121,0,0
630,-97,0,0,0,0,0,0,0,0,0,-1,1854,1121,0,0
637,-97,0,0,0,0,0,0,0,0,0,-1,1861,1121,0,0
644,-97,-0.0578613,0.0447998,-0.000292439,-0.000775558,-0.00120625,0.000696199,-0.0017642,-0.686577,0.00146444,0.0339286,1868,1121,-0.0578922,-0.0447823
651,-97,-0.0169678,-0.00952148,-0.000601593,-0.000652651,-0.000883651,0.000256898,-0.00151114,-0.770957,0.00110308,0.0321206,1875,1121,-0.0169839,0.0095619
658,-97,-0.0498047,-0.0162354,-0.000613846,-0.000546906,-0.000642559,6.30544e-05,-0.00122381,-0.811419,0.00083768,0.0345872,1882,1121,-0.0498406,0.0162548
665,-97,-0.0446777,-0.0285645,-0.000515637,-0.000463305,-0.000489746,9.72825e-07,-0.000979915,-0.812087,0.000653602,0.0383035,1889,1121,-0.0446489,0.0286147
672,-97,-0.00134277,-0.0544434,-0.000403168,-0.000373414,-0.000396114,8.10274e-06,-0.000784685,-0.804168,0.000525845,0.0378736,1896,1121,-0.00133102,0.0544159
679,-97,0.0603027,-0.103271,-0.000287107,-0.000284773,-0.000348227,6.22891e-05,-0.000634169,-0.787074,0.000444998,0.0345374,1903,1121,0.0603039,0.103246
686,-97,0.0523682,-0.134888,-0.000190129,-0.000199282,-0.000322942,0.000128268,-0.00051768,-0.778313,0.000394882,0.0319496,1910,1121,0.0523082,0.134919
693,-97,-0.0148926,-0.0700684,-0.000148681,-0.000105212,-0.000305766,0.000179591,-0.000433485,-0.82088,0.000363936,0.0280918,1917,1121,-0.0149432,0.0700965
700,-97,-0.0223389,-0.0593262,-0.000241747,-2.49153e-05,-0.000302309,0.00018783,-0.000454493,-0.957568,0.000381349,0.0199792,1924,1121,-0.0223958,0.0593849
707,-97,-0.0297852,-0.0478516,-0.000163221,2.60096e-05,-0.0002613,0.000209296,-0.000346508,-0.959103,0.000324137,0.0130916,1931,1121,-0.0297532,0.0478975
714,-97,-0.0151367,-0.0557861,-4.0865e-05,8.59042e-05,-0.000221074,0.000252501,-0.000207462,-0.925009,0.000265983,0.0191942,1938,1121,-0.0151164,0.0558289
721,-97,-0.0313721,-0.0743408,-9.74655e-05,0.000144398,-0.00020145,0.000258427,-0.000211495,-1.05572,0.00027176,0.0169658,1945,1121,-0.0313547,0.0743828
728,-97,-0.0292969,-0.0843506,-0.000189828,0.000184082,-0.000193215,0.000265984,-0.00027173,-1.16987,0.000310455,0.0168261,1952,1121,-0.0292735,0.0843931
735,-97,-0.0297852,-0.0699463,-0.000224179,0.000191896,-0.000104015,0.00021645,-0.000248733,-1.33898,0.000268789,0.0163754,1959,1121,-0.029836,0.0699079
742,-97,-0.0332031,-0.0792236,-0.000205409,0.000234774,4.00879e-05,0.000238395,-0.00020903,1.48071,0.000258507,0.0131236,1966,1121,-0.0331453,0.0791777
749,-97,-0.0505371,-0.0786133,-0.000113246,0.000620786,-4.06315e-05,0.000623029,-0.000115489,-1.51567,0.00045872,0.0142724,1973,1121,-0.050558,0.0786291
756,-97,-0.0404053,-0.101685,-0.000205922,0.000793619,-0.000458695,0.000972208,-0.000384511,-1.19951,0.000807427,0.0127053,1980,1121,-0.0404475,0.101705
763,-97,-0.0268555,-0.102417,-0.000156649,0.000862855,-0.000703599,0.00122195,-0.000515746,-1.09889,0.00103051,0.0104029,1987,1121,-0.0268999,0.102443
770,-97,-0.0378418,-0.0866699,-0.000120117,0.00109588,-0.00114623,0.00178538,-0.000809617,-1.02925,0.00153312,0.00817141,1994,1121,-0.0378117,0.0866632
777,-97,-0.0288086,-0.0804443,-0.000123773,0.00137768,-0.00181826,0.0025941,-0.00134019,-0.981179,0.0023096,0.0115115,2001,1121,-0.02881,0.0804608
784,-97,-0.00769043,-0.142578,-0.000177292,0.00167175,-0.00278283,0.00367961,-0.00218516,-0.945774,0.00342248,0.0306105,2008,1121,-0.00764149,0.142521
791,-97,0.0570068,-0.223389,-0.000285649,0.00192361,-0.00409856,0.00506379,-0.00342583,-0.917028,0.0049318,0.0405676,2015,1121,0.0569553,0.223346
798,-97,-0.012085,-0.280273,-0.000500292,0.00205244,-0.00581338,0.00672792,-0.00517577,-0.893462,0.00689205,0.0415418,2022,1121,-0.0121075,0.280295
805,-97,0.0129395,-0.245361,-0.000868843,0.00192461,-0.00798027,0.00862946,-0.00757369,-0.872032,0.00936151,0.0409113,2029,1121,0.0129393,0.245354
812,-97,-0.215454,0.19165,-0.0013492,0.00132751,-0.0106892,0.0107618,-0.0107835,-0.847677,0.0124392,0.0472716,2036,1121,-0.215464,-0.191646
-700,-104,0,0,0,0,0,0,0,0,0,-1,524,1128,0,0
-693,-104,1.01685,0.266479,-0.0536048,-0.0089855,0.0267476,0.00353524,-0.0661255,1.13299,0.0453081,0.046231,531,1128,1.01686,-0.266442
-686,-104,0.306946,0.0916748,-0.0430446,-0.00417379,0.0197658,0.00411126,-0.0513296,1.17388,0.0356693,0.0474602,538,1128,0.306942,-0.0917284
-679,-104,-0.1073,0.112915,-0.0336136,-0.00112697,0.0139784,0.00405964,-0.0388002,1.2155,0.0273207,0.0466683,545,1128,-0.107316,-0.112956
-672,-104,-0.625549,1.6438,-0.0255219,0.000743397,0.00931062,0.00370901,-0.0284875,1.26244,0.020341,0.0470659,552,1128,-0.625538,-1.64378
-665,-104,-0.16803,1.0553,-0.0187783,0.0017932,0.00568028,0.00325744,-0.0202426,1.31851,0.0147016,0.0427832,559,1128,-0.168053,-1.05526
-658,-104,-0.0723877,0.490234,-0.013322,0.0022539,0.00299498,0.00280994,-0.0138781,1.38723,0.010317,0.0406155,566,1128,-0.0724138,-0.490198
-651,-104,-0.0668945,-0.0786133,-0.00906983,0.00230454,0.00115613,0.00242086,-0.00918615,1.47052,0.00707057,0.0345832,573,1128,-0.0669245,0.078586
-644,-104,-0.0255737,-0.0905762,-0.00587841,0.00210495,5.8002e-05,0.00210537,-0.00587883,1.56353,0.00477821,0.0151341,580,1128,-0.0255835,0.0906108
-637,-104,-0.0148926,-0.0922852,-0.00332536,0.00212152,-0.000878622,0.00225974,-0.00346358,-1.41476,0.00332864,0.0112068,587,1128,-0.0148665,0.0922872
-630,-104,-0.0159302,-0.0888672,-0.00154391,0.00180712,-0.00116225,0.00217077,-0.00190756,-1.26756,0.00235625,0.0109215,594,1128,-0.0159142,0.088839
-623,-104,-0.020813,-0.0717773,-7.5211e-05,0.00132786,-0.00155214,0.00232964,-0.00107699,-0.997648,0.00201065,0.0127238,601,1128,-0.0208039,0.0717285
-616,-104,-0.022583,-0.0576172,0.000379763,0.000497125,-0.00147968,0.00191928,-0.0010424,-0.805217,0.00173473,0.0132782,608,1128,-0.0225694,0.0575943
-609,-104,0.00390625,-0.0882568,5.57474e-05,0.000176877,-0.000761755,0.000880471,-0.000647846,-0.825068,0.000885775,0.0148601,615,1128,0.0038895,0.0882148
-602,-104,-0.00280762,-0.0915527,2.91287e-05,0.000123008,-0.000268279,0.000348423,-0.000196286,-0.872005,0.00031855,0.0129486,622,1128,-0.00279755,0.0915724
-595,-104,-0.0116577,-0.0710449,1.56288e-05,4.07046e-05,-9.89476e-05,0.000127905,-7.15721e-05,-0.848419,0.000116689,0.0150098,629,1128,-0.0116291,0.0710344
-588,-104,0.0111694,-0.0756836,-6.6506e-05,3.96665e-05,-9.53545e-05,9.57161e-05,-0.000122556,-1.03939,0.000126336,0.0198746,636,1128,0.0111618,0.0756803
-581,-104,-0.015686,-0.0546875,-0.000223983,0.000128587,-0.000133258,0.000173286,-0.000268683,-1.24716,0.000257145,0.0288246,643,1128,-0.0156941,0.0546629
-574,-104,-0.0336914,-0.0239258,-0.000378152,0.000264114,-0.000137891,0.000292467,-0.000406505,-1.368,0.000405338,0.0377426,650,1128,-0.0336788,0.0239391
-567,-104,-0.0334473,-0.0189209,-0.000511831,0.000400708,-0.000137678,0.000421027,-0.00053215,-1.42427,0.000551562,0.0354984,657,1128,-0.0334747,0.0189577
-560,-104,-0.10321,-0.171875,-0.000745815,0.000589952,-0.00012734,0.000601983,-0.000757846,-1.4766,0.000786815,0.0417855,664,1128,-0.103232,0.171912
-553,-104,-0.0977173,-0.165283,-0.00110878,0.000846477,-0.000121345,0.000853979,-0.00111628,-1.50905,0.00114088,0.0478999,671,1128,-0.0977177,0.165272
-546,-104,-0.0863037,-0.0684814,-0.00166103,0.00118137,-0.000123807,0.00118675,-0.00166641,-1.52735,0.00165501,0.0439056,678,1128,-0.0863218,0.0684302
-539,-104,0.0501099,-0.250244,-0.00243591,0.0016207,-0.000145951,0.00162594,-0.00244115,-1.53488,0.00236381,0.0368346,685,1128,0.0501316,0.250275
-532,-104,0.0466309,-0.00354004,-0.00355918,0.00219069,-0.000225248,0.0021995,-0.00356799,-1.5317,0.00336096,0.0356623,692,1128,0.0466499,0.00354694
-525,-104,0.107544,-0.0672607,-0.00536466,0.00292847,-0.000423089,0.00295,-0.00538618,-1.51996,0.00488093,0.033479,699,1128,0.107555,0.0673029
-518,-104,0,0,0,0,0,0,0,0,0,-1,706,1128,0,0
-511,-104,0,0,0,0,0,0,0,0,0,-1,713,1128,0,0
-504,-104,0,0,0,0,0,0,0,0,0,-1,720,1128,0,0
-497,-104,0,0,0,0,0,0,0,0,0,-1,727,1128,0,0
-490,-104,0,0,0,0,0,0,0,0,0,-1,734,1128,0,0
-483,-104,0,0,0,0,0,0,0,0,0,-1,741,1128,0,0
-476,-104,0,0,0,0,0,0,0,0,0,-1,748,1128,0,0
-469,-104,0,0,0,0,0,0,0,0,0,-1,755,1128,0,0
-462,-104,0,0,0,0,0,0,0,0,0,-1,762,1128,0,0
-455,-104,0,0,0,0,0,0,0,0,0,-1,769,1128,0,0
-448,-104,0,0,0,0,0,0,0,0,0,-1,776,1128,0,0
-441,-104,0,0,0,0,0,0,0,0,0,-1,783,1128,0,0
-434,-104,0,0,0,0,0,0,0,0,0,-1,790,1128,0,0
-427,-104,0,0,0,0,0,0,0,0,0,-1,797,1128,0,0
-420,-104,0,0,0,0,0,0,0,0,0,-1,804,1128,0,0
-413,-104,0,0,0,0,0,0,0,0,0,-1,811,1128,0,0
-406,-104,0,0,0,0,0,0,0,0,0,-1,818,1128,0,0
-399,-104,0,0,0,0,0,0,0,0,0,-1,825,1128,0,0
-392,-104,0,0,0,0,0,0,0,0,0,-1,832,1128,0,0
-385,-104,0,0,0,0,0,0,0,0,0,-1,839,1128,0,0
-378,-104,0,0,0,0,0,0,0,0,0,-1,846,1128,0,0
-371,-104,0,0,0,0,0,0,0,0,0,-1,853,1128,0,0
-364,-104,0,0,0,0,0,0,0,0,0,-1,860,1128,0,0
-357,-104,0,0,0,0,0,0,0,0,0,-1,867,1128,0,0
-350,-104,0,0,0,0,0,0,0,0,0,-1,874,1128,0,0
-343,-104,0,0,0,0,0,0,0,0,0,-1,881,1128,0,0
-336,-104,0,0,0,0,0,0,0,0,0,-1,888,1128,0,0
-329,-104,0,0,0,0,0,0,0,0,0,-1,895,1128,0,0
-322,-104,0,0,0,0,0,0,0,0,0,-1,902,1128,0,0
-315,-104,0,0,0,0,0,0,0,0,0,-1,909,1128,0,0
-308,-104,0,0,0,0,0,0,0,0,0,-1,916,1128,0,0
-301,-104,0,0,0,0,0,0,0,0,0,-1,923,1128,0,0
-294,-104,0,0,0,0,0,0,0,0,0,-1,930,1128,0,0
-287,-104,0,0,0,0,0,0,0,0,0,-1,937,1128,0,0
-280,-104,0,0,0,0,0,0,0,0,0,-1,944,1128,0,0
-273,-104,0,0,0,0,0,0,0,0,0,-1,951,1128,0,0
-266,-104,0,0,0,0,0,0,0,0,0,-1,958,1128,0,0
-259,-104,0,0,0,0,0,0,0,0,0,-1,965,1128,0,0
-252,-104,0,0,0,0,0,0,0,0,0,-1,972,1128,0,0
-245,-104,0,0,0,0,0,0,0,0,0,-1,979,1128,0,0
-238,-104,0,0,0,0,0,0,0,0,0,-1,986,1128,0,0
-231,-104,0,0,0,0,0,0,0,0,0,-1,993,1128,0,0
-224,-104,0,0,0,0,0,0,0,0,0,-1,1000,1128,0,0
-217,-104,0,0,0,0,0,0,0,0,0,-1,1007,1128,0,0
-210,-104,0,0,0,0,0,0,0,0,0,-1,1014,1128,0,0
-203,-104,0,0,0,0,0,0,0,0,0,-1,1021,1128,0,0
-196,-104,0,0,0,0,0,0,0,0,0,-1,1028,1128,0,0
-189,-104,0,0,0,0,0,0,0,0,0,-1,1035,1128,0,0
-182,-104,0,0,0,0,0,0,0,0,0,-1,1042,1128,0,0
-175,-104,0,0,0,0,0,0,0,0,0,-1,1049,1128,0,0
-168,-104,0,0,0,0,0,0,0,0,0,-1,1056,1128,0,0
-161,-104,0,0,0,0,0,0,0,0,0,-1,1063,1128,0,0
-154,-104,0,0,0,0,0,0,0,0,0,-1,1070,1128,0,0
-147,-104,0,0,0,0,0,0,0,0,0,-1,1077,1128,0,0
-140,-104,0,0,0,0,0,0,0,0,0,-1,1084,1128,0,0
-133,-104,0,0,0,0,0,0,0,0,0,-1,1091,1128,0,0
-126,-104,0,0,0,0,0,0,0,0,0,-1,1098,1128,0,0
-119,-104,0,0,0,0,0,0,0,0,0,-1,1105,1128,0,0
-112,-104,0,0,0,0,0,0,0,0,0,-1,1112,1128,0,0
-105,-104,0,0,0,0,0,0,0,0,0,-1,1119,1128,0,0
-98,-104,0,0,0,0,0,0,0,0,0,-1,1126,1128,0,0
-91,-104,0,0,0,0,0,0,0,0,0,-1,1133,1128,0,0
-84,-104,0,0,0,0,0,0,0,0,0,-1,1140,1128,0,0
-77,-104,0,0,0,0,0,0,0,0,0,-1,1147,1128,0,0
-70,-104,0,0,0,0,0,0,0,0,0,-1,1154,1128,0,0
-63,-104,0,0,0,0,0,0,0,0,0,-1,1161,1128,0,0
-56,-104,0,0,0,0,0,0,0,0,0,-1,1168,1128,0,0
-49,-104,0,0,0,0,0,0,0,0,0,-1,1175,1128,0,0
-42,-104,0,0,0,0,0,0,0,0,0,-1,1182,1128,0,0
-35,-104,0,0,0,0,0,0,0,0,0,-1,1189,1128,0,0
-28,-104,0,0,0,0,0,0,0,0,0,-1,1196,1128,0,0
-21,-104,0,0,0,0,0,0,0,0,0,-1,1203,1128,0,0
-14,-104,0,0,0,0,0,0,0,0,0,-1,1210,1128,0,0
-7,-104,0,0,0,0,0,0,0,0,0,-1,1217,1128,0,0
0,-104,0,0,0,0,0,0,0,0,0,-1,1224,1128,0,0
7,-104,0,0,0,0,0,0,0,0,0,-1,1231,1128,0,0
14,-104,0,0,0,0,0,0,0,0,0,-1,1238,1128,0,0
21,-104,0,0,0,0,0,0,0,0,0,-1,1245,1128,0,0
28,-104,0,0,0,0,0,0,0,0,0,-1,1252,1128,0,0
35,-104,0,0,0,0,0,0,0,0,0,-1,1259,1128,0,0
42,-104,0,0,0,0,0,0,0,0,0,-1,1266,1128,0,0
49,-104,0,0,0,0,0,0,0,0,0,-1,1273,1128,0,0
56,-104,0,0,0,0,0,0,0,0,0,-1,1280,1128,0,0
63,-104,0,0,0,0,0,0,0,0,0,-1,1287,1128,0,0
70,-104,0,0,0,0,0,0,0,0,0,-1,1294,1128,0,0
77,-104,0,0,0,0,0,0,0,0,0,-1,1301,1128,0,0
84,-104,0,0,0,0,0,0,0,0,0,-1,1308,1128,0,0
91,-104,0,0,0,0,0,0,0,0,0,-1,1315,1128,0,0
98,-104,0,0,0,0,0,0,0,0,0,-1,1322,1128,0,0
105,-104,0,0,0,0,0,0,0,0,0,-1,1329,1128,0,0
112,-104,0,0,0,0,0,0,0,0,0,-1,1336,1128,0,0
119,-104,0,0,0,0,0,0,0,0,0,-1,1343,1128,0,0
126,-104,0,0,0,0,0,0,0,0,0,-1,1350,1128,0,0
133,-104,0,0,0,0,0,0,0,0,0,-1,1357,1128,0,0
140,-104,0,0,0,0,0,0,0,0,0,-1,1364,1128,0,0
147,-104,0,0,0,0,0,0,0,0,0,-1,1371,1128,0,0
154,-104,0,0,0,0,0,0,0,0,0,-1,1378,1128,0,0
161,-104,0,0,0,0,0,0,0,0,0,-1,1385,1128,0,0
168,-104,0,0,0,0,0,0,0,0,0,-1,1392,1128,0,0
175,-104,0,0,0,0,0,0,0,0,0,-1,1399,1128,0,0
182,-104,0,0,0,0,0,0,0,0,0,-1,1406,1128,0,0
189,-104,0,0,0,0,0,0,0,0,0,-1,1413,1128,0,0
196,-104,0,0,0,0,0,0,0,0,0,-1,1420,1128,0,0
203,-104,0,0,0,0,0,0,0,0,0,-1,1427,1128,0,0
210,-104,0,0,0,0,0,0,0,0,0,-1,1434,1128,0,0
217,-104,0,0,0,0,0,0,0,0,0,-1,1441,1128,0,0
224,-104,0,0,0,0,0,0,0,0,0,-1,1448,1128,0,0
231,-104,0,0,0,0,0,0,0,0,0,-1,1455,1128,0,0
238,-104,0,0,0,0,0,0,0,0,0,-1,1462,1128,0,0
245,-104,0,0,0,0,0,0,0,0,0,-1,1469,1128,0,0
252,-104,0,0,0,0,0,0,0,0,0,-1,1476,1128,0,0
259,-104,0,0,0,0,0,0,0,0,0,-1,1483,1128,0,0
266,-104,0,0,0,0,0,0,0,0,0,-1,1490,1128,0,0
273,-104,0,0,0,0,0,0,0,0,0,-1,1497,1128,0,0
280,-104,0,0,0,0,0,0,0,0,0,-1,1504,1128,0,0
287,-104,0,0,0,0,0,0,0,0,0,-1,1511,1128,0,0
294,-104,0,0,0,0,0,0,0,0,0,-1,1518,1128,0,0
301,-104,0,0,0,0,0,0,0,0,0,-1,1525,1128,0,0
308,-104,0,0,0,0,0,0,0,0,0,-1,1532,1128,0,0
315,-104,0,0,0,0,0,0,0,0,0,-1,1539,1128,0,0
322,-104,0,0,0,0,0,0,0,0,0,-1,1546,1128,0,0
329,-104,0,0,0,0,0,0,0,0,0,-1,1553,1128,0,0
336,-104,0,0,0,0,0,0,0,0,0,-1,1560,1128,0,0
343,-104,0,0,0,0,0,0,0,0,0,-1,1567,1128,0,0
350,-104,0,0,0,0,0,0,0,0,0,-1,1574,1128,0,0
357,-104,0,0,0,0,0,0,0,0,0,-1,1581,1128,0,0
364,-104,0,0,0,0,0,0,0,0,0,-1,1588,1128,0,0
371,-104,0,0,0,0,0,0,0,0,0,-1,1595,1128,0,0
378,-104,0,0,0,0,0,0,0,0,0,-1,1602,1128,0,0
385,-104,0,0,0,0,0,0,0,0,0,-1,1609,1128,0,0
392,-104,0,0,0,0,0,0,0,0,0,-1,1616,1128,0,0
399,-104,0,0,0,0,0,0,0,0,0,-1,1623,1128,0,0
406,-104,0,0,0,0,0,0,0,0,0,-1,1630,1128,0,0
413,-104,0,0,0,0,0,0,0,0,0,-1,1637,1128,0,0
420,-104,0,0,0,0,0,0,0,0,0,-1,1644,1128,0,0
427,-104,0,0,0,0,0,0,0,0,0,-1,1651,1128,0,0
434,-104,0,0,0,0,0,0,0,0,0,-1,1658,1128,0,0
441,-104,0,0,0,0,0,0,0,0,0,-1,1665,1128,0,0
448,-104,0,0,0,0,0,0,0,0,0,-1,1672,1128,0,0
455,-104,0,0,0,0,0,0,0,0,0,-1,1679,1128,0,0
462,-104,0,0,0,0,0,0,0,0,0,-1,1686,1128,0,0
469,-104,0,0,0,0,0,0,0,0,0,-1,1693,1128,0,0
476,-104,0,0,0,0,0,0,0,0,0,-1,1700,1128,0,0
483,-104,0,0,0,0,0,0,0,0,0,-1,1707,1128,0,0
490,-104,0,0,0,0,0,0,0,0,0,-1,1714,1128,0,0
497,-104,0,0,0,0,0,0,0,0,0,-1,1721,1128,0,0
504,-104,0,0,0,0,0,0,0,0,0,-1,1728,1128,0,0
511,-104,0,0,0,0,0,0,0,0,0,-1,1735,1128,0,0
518,-104,0,0,0,0,0,0,0,0,0,-1,1742,1128,0,0
525,-104,0,0,0,0,0,0,0,0,0,-1,1749,1128,0,0
532,-104,0,0,0,0,0,0,0,0,0,-1,1756,1128,0,0
539,-104,0,0,0,0,0,0,0,0,0,-1,1763,1128,0,0
546,-104,0,0,0,0,0,0,0,0,0,-1,1770,1128,0,0
553,-104,0,0,0,0,0,0,0,0,0,-1,1777,1128,0,0
560,-104,0,0,0,0,0,0,0,0,0,-1,1784,1128,0,0
567,-104,0,0,0,0,0,0,0,0,0,-1,1791,1128,0,0
574,-104,0,0,0,0,0,0,0,0,0,-1,1798,1128,0,0
581,-104,0,0,0,0,0,0,0,0,0,-1,1805,1128,0,0
588,-104,0,0,0,0,0,0,0,0,0,-1,1812,1128,0,0
595,-104,0,0,0,0,0,0,0,0,0,-1,1819,1128,0,0
602,-104,0,0,0,0,0,0,0,0,0,-1,1826,1128,0,0
609,-104,0,0,0,0,0,0,0,0,0,-1,1833,1128,0,0
616,-104,0,0,0,0,0,0,0,0,0,-1,1840,1128,0,0
623,-104,0,0,0,0,0,0,0,0,0,-1,1847,1128,0,0
630,-104,0,0,0,0,0,0,0,0,0,-1,1854,1128,0,0
637,-104,0,0,0,0,0,0,0,0,0,-1,1861,1128,0,0
644,-104,-0.00622559,0.024292,0.000512644,-0.00113877,-0.000445496,0.000625158,-0.00125129,-0.247386,0.00110329,0.0338319,1868,1128,-0.00622663,-0.0242414
651,-104,0.0450439,0.0524902,-8.69072e-05,-0.000874189,-0.000339697,3.94013e-05,-0.0010005,-0.355986,0.000680513,0.0333462,1875,1128,0.0449923,-0.0524645
658,-104,-0.0549316,0.0578613,-0.00029003,-0.000668823,-0.000270472,-0.000149235,-0.000809617,-0.479953,0.000497517,0.0354952,1882,1128,-0.0548729,-0.057831
665,-104,-0.0200195,0.0113525,-0.000338474,-0.000523223,-0.000254564,-0.000160043,-0.000701654,-0.61135,0.000424598,0.0385256,1889,1128,-0.0200592,-0.0113367
672,-104,0.0653076,0.0217285,-0.000334798,-0.000392,-0.000265141,-9.67195e-05,-0.000630079,-0.731671,0.000391812,0.0374056,1896,1128,0.0652791,-0.0217412
679,-104,0.0526123,0.0644531,-0.000288866,-0.000280551,-0.000290284,5.60531e-06,-0.000575022,-0.792559,0.00038523,0.0360517,1903,1128,0.0525715,-0.0644768
686,-104,-0.00830078,0.107666,-0.000235467,-0.00018633,-0.000313693,0.000103755,-0.000525552,-0.824478,0.000389586,0.0339485,1910,1128,-0.00833341,-0.10768
693,-104,-0.0109863,0.0112305,-0.000218726,-8.27005e-05,-0.000326401,0.000182698,-0.000484125,-0.888115,0.000397886,0.0289541,1917,1128,-0.011018,-0.0111784
700,-104,-0.0313721,-0.0723877,-0.000331784,-1.43498e-05,-0.000343979,0.000205764,-0.000551897,-1.00155,0.000452396,0.0192864,1924,1128,-0.0313899,0.0724365
707,-104,-0.0216064,-0.0189209,-0.000250045,2.98311e-05,-0.000320417,0.000239535,-0.000459749,-0.991284,0.000410351,0.0161962,1931,1128,-0.0215541,0.0189255
714,-104,-0.0109863,-0.0592041,-0.000114235,8.00745e-05,-0.000278003,0.000277411,-0.000311571,-0.953501,0.000340239,0.0199556,1938,1128,-0.0110453,0.0591464
721,-104,-0.02771,-0.076416,-0.000173823,0.000130573,-0.000245804,0.000267484,-0.000310734,-1.0626,0.000334145,0.0165715,1945,1128,-0.0276986,0.0764708
728,-104,0.0032959,-0.142212,-0.000287711,0.00015574,-0.000213587,0.00024188,-0.000373851,-1.18744,0.000358204,0.0211031,1952,1128,0.00328522,0.14218
735,-104,-0.022583,-0.0997314,-0.000362669,0.000121292,-0.000103625,0.000142546,-0.000383923,-1.36849,0.000314426,0.0199807,1959,1128,-0.0225262,0.0997291
742,-104,-0.0566406,-0.0736084,-0.00041435,7.60206e-05,4.16506e-05,7.95332e-05,-0.000417862,1.48666,0.000308522,0.0125864,1966,1128,-0.0566616,0.0736063
749,-104,-0.0740967,-0.0802002,-0.00040979,0.000411825,-9.77838e-05,0.000423303,-0.000421268,-1.45396,0.000487613,0.0146495,1973,1128,-0.0740557,0.0801545
756,-104,-0.0695801,-0.107666,-0.000586123,0.000604864,-0.000624422,0.000872224,-0.000853483,-1.16624,0.000996357,0.0144873,1980,1128,-0.0695549,0.10763
763,-104,-0.0512695,-0.10144,-0.000627105,0.000673283,-0.000989049,0.00120671,-0.00116054,-1.07618,0.00136682,0.0126035,1987,1128,-0.0512441,0.101479
770,-104,-0.0426025,-0.0678711,-0.00068666,0.000893264,-0.0015935,0.00188187,-0.00167526,-1.01551,0.00205486,0.00981639,1994,1128,-0.0426518,0.0679202
777,-104,-0.0302734,-0.0617676,-0.000785777,0.00118939,-0.00249531,0.00288544,-0.00248183,-0.973828,0.00310171,0.0165641,2001,1128,-0.0302585,0.0617116
784,-104,0.00927734,-0.0778809,-0.000905798,0.00154037,-0.0037676,0.00427844,-0.00364387,-0.942348,0.00457884,0.0352221,2008,1128,0.00930682,0.0779127
791,-104,0.140015,-0.372925,-0.00102857,0.00191246,-0.00548733,0.0061229,-0.00523901,-0.916314,0.00656641,0.0415714,2015,1128,0.140033,0.372985
798,-104,0.434448,-0.424805,-0.00118152,0.00225453,-0.00772327,0.00844855,-0.00737555,-0.89484,0.00914305,0.046043,2022,1128,0.434447,0.42479
805,-104,0.778198,-0.478638,0,0,0,0,0,0,0,-1,2029,1128,0.778189,0.478606
812,-104,-0.251587,0.356567,0,0,0,0,0,0,0,-1,2036,1128,-0.251594,-0.356619
-700,-111,0,0,0,0,0,0,0,0,0,-1,524,1135,0,0
-693,-111,0.324036,0.854614,0,0,0,0,0,0,0,-1,531,1135,0.324037,-0.854648
-686,-111,-0.0371704,0.283813,0,0,0,0,0,0,0,-1,538,1135,-0.0371657,-0.283768
-679,-111,-0.10199,0.355835,-0.0313256,0.00318098,0.0117647,0.0068103,-0.034955,1.27157,0.0258739,0.0455561,545,1135,-0.10196,-0.355881
-672,-111,-0.499207,0.622803,-0.0234217,0.0045474,0.00716486,0.006276,-0.0251503,1.33406,0.0192038,0.0473138,552,1135,-0.499234,-0.622831
-665,-111,0.0271606,0.593628,-0.0170159,0.00502007,0.00379061,0.0056539,-0.0176497,1.40512,0.0140359,0.0485222,559,1135,0.0271666,-0.593596
-658,-111,-0.0844727,0.380737,-0.0119488,0.00490558,0.00144884,0.00502922,-0.0120724,1.48567,0.0101489,0.0431052,566,1135,-0.0844944,-0.380722
-651,-111,-0.102539,0.0898438,-0.00807432,0.00442457,-3.05161e-05,0.00442465,-0.0080744,-1.56835,0.00731816,0.0376832,573,1135,-0.102565,-0.089802
-644,-111,-0.0117188,-0.0549316,-0.00519772,0.00374449,-0.000836737,0.00382211,-0.00527534,-1.47829,0.0052747,0.0233316,580,1135,-0.0117081,0.0549909
-637,-111,-0.0223389,-0.0688477,-0.00289771,0.00330848,-0.0014536,0.00363206,-0.0032213,-1.35176,0.00395916,0.00877522,587,1135,-0.0223283,0.0688766
-630,-111,-0.0143433,-0.0842285,-0.00134312,0.00273334,-0.00151264,0.00323331,-0.00184309,-1.25157,0.00296727,0.0122936,594,1135,-0.0143371,0.0842091
-623,-111,-0.0128174,-0.0787354,-5.08127e-05,0.00195181,-0.00171121,0.00293315,-0.00103214,-1.05011,0.00237544,0.0118807,601,1135,-0.012798,0.0787561
-616,-111,-0.0212402,-0.0944824,0.000312358,0.000847478,-0.00149242,0.00209614,-0.000936299,-0.874095,0.00179296,0.0124599,608,1135,-0.0212648,0.0944852
-609,-111,0.00354004,-0.106567,3.51512e-05,0.00036075,-0.000757161,0.000972416,-0.000576515,-0.891292,0.00090396,0.0137005,615,1135,0.00355519,0.106573
-602,-111,-0.00012207,-0.090332,3.57544e-05,0.000174058,-0.000199798,0.000316333,-0.00010652,-0.952001,0.000253954,0.0134723,622,1135,-0.000150379,0.0903189
-595,-111,-0.00360107,-0.0662842,5.1239e-05,-3.84386e-05,-1.82737e-05,5.48197e-05,-4.20193e-05,-0.193496,5.60726e-05,0.0124497,629,1135,-0.00360926,0.0662309
-588,-111,0.0147705,-0.0405273,-1.13767e-06,-9.84074e-05,-4.43375e-05,1.60391e-05,-0.000115584,-0.369605,8.29212e-05,0.0191533,636,1135,0.0147923,0.0405825
-581,-111,0.0120239,-0.0402832,-0.000164026,-2.57523e-05,-0.000105585,3.13176e-05,-0.000221096,-1.07527,0.000158869,0.0293604,643,1135,0.0120254,0.0402945
-574,-111,0.0145264,-0.117065,-0.000336316,9.12169e-05,-0.000110998,0.000118317,-0.000363416,-1.33133,0.00028988,0.0404251,650,1135,0.0145357,0.117093
-567,-111,0.0145264,-0.241821,-0.000487025,0.000217779,-0.000114297,0.000235851,-0.000505097,-1.41398,0.0004371,0.0371072,657,1135,0.0145327,0.241771
-560,-111,-0.0261841,-0.243286,-0.000758989,0.000404897,-0.000112389,0.00041565,-0.000769742,-1.47541,0.00069449,0.0401637,664,1135,-0.0261769,0.243243
-553,-111,-0.0779419,-0.0911865,-0.00117622,0.000667331,-0.000111092,0.000674002,-0.00118289,-1.51083,0.00108541,0.0446798,671,1135,-0.0779604,0.0912053
-546,-111,-0.0179443,-0.039917,-0.00179261,0.00101423,-0.000111184,0.00101863,-0.00179701,-1.53127,0.00164619,0.0384186,678,1135,-0.0179682,0.0398562
-539,-111,0.000793457,-0.0510254,-0.00264692,0.00146537,-0.000119067,0.00146881,-0.00265037,-1.54187,0.0024106,0.0366472,685,1135,0.000807278,0.0509844
-532,-111,0.0307617,-0.113892,-0.0038593,0.00203939,-0.000157927,0.00204361,-0.00386352,-1.54405,0.00346402,0.0353393,692,1135,0.0307871,0.113847
-525,-111,-0.055481,-0.217896,-0.00571589,0.00276105,-0.000263869,0.00276926,-0.0057241,-1.53971,0.00500158,0.034972,699,1135,-0.0555009,0.217856
-518,-111,0,0,0,0,0,0,0,0,0,-1,706,1135,0,0
-511,-111,0,0,0,0,0,0,0,0,0,-1,713,1135,0,0
-504,-111,0,0,0,0,0,0,0,0,0,-1,720,1135,0,0
-497,-111,0,0,0,0,0,0,0,0,0,-1,727,1135,0,0
-490,-111,0,0,0,0,0,0,0,0,0,-1,734,1135,0,0
-483,-111,0,0,0,0,0,0,0,0,0,-1,741,1135,0,0
-476,-111,0,0,0,0,0,0,0,0,0,-1,748,1135,0,0
-469,-111,0,0,0,0,0,0,0,0,0,-1,755,1135,0,0
-462,-111,0,0,0,0,0,0,0,0,0,-1,762,1135,0,0
-455,-111,0,0,0,0,0,0,0,0,0,-1,769,1135,0,0
-448,-111,0,0,0,0,0,0,0,0,0,-1,776,1135,0,0
-441,-111,0,0,0,0,0,0,0,0,0,-1,783,1135,0,0
-434,-111,0,0,0,0,0,0,0,0,0,-1,790,1135,0,0
-427,-111,0,0,0,0,0,0,0,0,0,-1,797,1135,0,0
-420,-111,0,0,0,0,0,0,0,0,0,-1,804,1135,0,0
-413,-111,0,0,0,0,0,0,0,0,0,-1,811,1135,0,0
-406,-111,0,0,0,0,0,0,0,0,0,-1,818,1135,0,0
-399,-111,0,0,0,0,0,0,0,0,0,-1,825,1135,0,0
-392,-111,0,0,0,0,0,0,0,0,0,-1,832,1135,0,0
-385,-111,0,0,0,0,0,0,0,0,0,-1,839,1135,0,0
-378,-111,0,0,0,0,0,0,0,0,0,-1,846,1135,0,0
-371,-111,0,0,0,0,0,0,0,0,0,-1,853,1135,0,0
-364,-111,0,0,0,0,0,0,0,0,0,-1,860,1135,0,0
-357,-111,0,0,0,0,0,0,0,0,0,-1,867,1135,0,0
-350,-111,0,0,0,0,0,0,0,0,0,-1,874,1135,0,0
-343,-111,0,0,0,0,0,0,0,0,0,-1,881,1135,0,0
-336,-111,0,0,0,0,0,0,0,0,0,-1,888,1135,0,0
-329,-111,0,0,0,0,0,0,0,0,0,-1,895,1135,0,0
-322,-111,0,0,0,0,0,0,0,0,0,-1,902,1135,0,0
-315,-111,0,0,0,0,0,0,0,0,0,-1,909,1135,0,0
-308,-111,0,0,0,0,0,0,0,0,0,-1,916,1135,0,0
-301,-111,0,0,0,0,0,0,0,0,0,-1,923,1135,0,0
-294,-111,0,0,0,0,0,0,0,0,0,-1,930,1135,0,0
-287,-111,0,0,0,0,0,0,0,0,0,-1,937,1135,0,0
-280,-111,0,0,0,0,0,0,0,0,0,-1,944,1135,0,0
-273,-111,0,0,0,0,0,0,0,0,0,-1,951,1135,0,0
-266,-111,0,0,0,0,0,0,0,0,0,-1,958,1135,0,0
-259,-111,0,0,0,0,0,0,0,0,0,-1,965,1135,0,0
-252,-111,0,0,0,0,0,0,0,0,0,-1,972,1135,0,0
-245,-111,0,0,0,0,0,0,0,0,0,-1,979,1135,0,0
-238,-111,0,0,0,0,0,0,0,0,0,-1,986,1135,0,0
-231,-111,0,0,0,0,0,0,0,0,0,-1,993,1135,0,0
-224,-111,0,0,0,0,0,0,0,0,0,-1,1000,1135,0,0
-217,-111,0,0,0,0,0,0,0,0,0,-1,1007,1135,0,0
-210,-111,0,0,0,0,0,0,0,0,0,-1,1014,1135,0,0
-203,-111,0,0,0,0,0,0,0,0,0,-1,1021,1135,0,0
-196,-111,0,0,0,0,0,0,0,0,0,-1,1028,1135,0,0
-189,-111,0,0,0,0,0,0,0,0,0,-1,1035,1135,0,0
-182,-111,0,0,0,0,0,0,0,0,0,-1,1042,1135,0,0
-175,-111,0,0,0,0,0,0,0,0,0,-1,1049,1135,0,0
-168,-111,0,0,0,0,0,0,0,0,0,-1,1056,1135,0,0
-161,-111,0,0,0,0,0,0,0,0,0,-1,1063,1135,0,0
-154,-111,0,0,0,0,0,0,0,0,0,-1,1070,1135,0,0
-147,-111,0,0,0,0,0,0,0,0,0,-1,1077,1135,0,0
-140,-111,0,0,0,0,0,0,0,0,0,-1,1084,1135,0,0
-133,-111,0,0,0,0,0,0,0,0,0,-1,1091,1135,0,0
-126,-111,0,0,0,0,0,0,0,0,0,-1,1098,1135,0,0
-119,-111,0,0,0,0,0,0,0,0,0,-1,1105,1135,0,0
-112,-111,0,0,0,0,0,0,0,0,0,-1,1112,1135,0,0
-105,-111,0,0,0,0,0,0,0,0,0,-1,1119,1135,0,0
-98,-111,0,0,0,0,0,0,0,0,0,-1,1126,1135,0,0
-91,-111,0,0,0,0,0,0,0,0,0,-1,1133,1135,0,0
-84,-111,0,0,0,0,0,0,0,0,0,-1,1140,1135,0,0
-77,-111,0,0,0,0,0,0,0,0,0,-1,1147,1135,0,0
-70,-111,0,0,0,0,0,0,0,0,0,-1,1154,1135,0,0
-63,-111,0,0,0,0,0,0,0,0,0,-1,1161,1135,0,0
-56,-111,0,0,0,0,0,0,0,0,0,-1,1168,1135,0,0
-49,-111,0,0,0,0,0,0,0,0,0,-1,1175,1135,0,0
-42,-111,0,0,0,0,0,0,0,0,0,-1,1182,1135,0,0
-35,-111,0,0,0,0,0,0,0,0,0,-1,1189,1135,0,0
-28,-111,0,0,0,0,0,0,0,0,0,-1,1196,1135,0,0
-21,-111,0,0,0,0,0,0,0,0,0,-1,1203,1135,0,0
-14,-111,0,0,0,0,0,0,0,0,0,-1,1210,1135,0,0
-7,-111,0,0,0,0,0,0,0,0,0,-1,1217,1135,0,0
0,-111,0,0,0,0,0,0,0,0,0,-1,1224,1135,0,0
7,-111,0,0,0,0,0,0,0,0,0,-1,1231,1135,0,0
14,-111,0,0,0,0,0,0,0,0,0,-1,1238,1135,0,0
21,-111,0,0,0,0,0,0,0,0,0,-1,1245,1135,0,0
28,-111,0,0,0,0,0,0,0,0,0,-1,1252,1135,0,0
35,-111,0,0,0,0,0,0,0,0,0,-1,1259,1135,0,0
42,-111,0,0,0,0,0,0,0,0,0,-1,1266,1135,0,0
49,-111,0,0,0,0,0,0,0,0,0,-1,1273,1135,0,0
56,-111,0,0,0,0,0,0,0,0,0,-1,1280,1135,0,0
63,-111,0,0,0,0,0,0,0,0,0,-1,1287,1135,0,0
70,-111,0,0,0,0,0,0,0,0,0,-1,1294,1135,0,0
77,-111,0,0,0,0,0,0,0,0,0,-1,1301,1135,0,0
84,-111,0,0,0,0,0,0,0,0,0,-1,1308,1135,0,0
91,-111,0,0,0,0,0,0,0,0,0,-1,1315,1135,0,0
98,-111,0,0,0,0,0,0,0,0,0,-1,1322,1135,0,0
105,-111,0,0,0,0,0,0,0,0,0,-1,1329,1135,0,0
112,-111,0,0,0,0,0,0,0,0,0,-1,1336,1135,0,0
119,-111,0,0,0,0,0,0,0,0,0,-1,1343,1135,0,0
126,-111,0,0,0,0,0,0,0,0,0,-1,1350,1135,0,0
133,-111,0,0,0,0,0,0,0,0,0,-1,1357,1135,0,0
140,-111,0,0,0,0,0,0,0,0,0,-1,1364,1135,0,0
147,-111,0,0,0,0,0,0,0,0,0,-1,1371,1135,0,0
154,-111,0,0,0,0,0,0,0,0,0,-1,1378,1135,0,0
161,-111,0,0,0,0,0,0,0,0,0,-1,1385,1135,0,0
168,-111,0,0,0,0,0,0,0,0,0,-1,1392,1135,0,0
175,-111,0,0,0,0,0,0,0,0,0,-1,1399,1135,0,0
182,-111,0,0,0,0,0,0,0,0,0,-1,1406,1135,0,0
189,-111,0,0,0,0,0,0,0,0,0,-1,1413,1135,0,0
196,-111,0,0,0,0,0,0,0,0,0,-1,1420,1135,0,0
203,-111,0,0,0,0,0,0,0,0,0,-1,1427,1135,0,0
210,-111,0,0,0,0,0,0,0,0,0,-1,1434,1135,0,0
217,-111,0,0,0,0,0,0,0,0,0,-1,1441,1135,0,0
224,-111,0,0,0,0,0,0,0,0,0,-1,1448,1135,0,0
231,-111,0,0,0,0,0,0,0,0,0,-1,1455,1135,0,0
238,-111,0,0,0,0,0,0,0,0,0,-1,1462,1135,0,0
245,-111,0,0,0,0,0,0,0,0,0,-1,1469,1135,0,0
252,-111,0,0,0,0,0,0,0,0,0,-1,1476,1135,0,0
259,-111,0,0,0,0,0,0,0,0,0,-1,1483,1135,0,0
266,-111,0,0,0,0,0,0,0,0,0,-1,1490,1135,0,0
273,-111,0,0,0,0,0,0,0,0,0,-1,1497,1135,0,0
280,-111,0,0,0,0,0,0,0,0,0,-1,1504,1135,0,0
287,-111,0,0,0,0,0,0,0,0,0,-1,1511,1135,0,0
294,-111,0,0,0,0,0,0,0,0,0,-1,1518,1135,0,0
301,-111,0,0,0,0,0,0,0,0,0,-1,1525,1135,0,0
308,-111,0,0,0,0,0,0,0,0,0,-1,1532,1135,0,0
315,-111,0,0,0,0,0,0,0,0,0,-1,1539,1135,0,0
322,-111,0,0,0,0,0,0,0,0,0,-1,1546,1135,0,0
329,-111,0,0,0,0,0,0,0,0,0,-1,1553,1135,0,0
336,-111,0,0,0,0,0,0,0,0,0,-1,1560,1135,0,0
343,-111,0,0,0,0,0,0,0,0,0,-1,1567,1135,0,0
350,-111,0,0,0,0,0,0,0,0,0,-1,1574,1135,0,0
357,-111,0,0,0,0,0,0,0,0,0,-1,1581,1135,0,0
364,-111,0,0,0,0,0,0,0,0,0,-1,1588,1135,0,0
371,-111,0,0,0,0,0,0,0,0,0,-1,1595,1135,0,0
378,-111,0,0,0,0,0,0,0,0,0,-1,1602,1135,0,0
385,-111,0,0,0,0,0,0,0,0,0,-1,1609,1135,0,0
392,-111,0,0,0,0,0,0,0,0,0,-1,1616,1135,0,0
399,-111,0,0,0,0,0,0,0,0,0,-1,1623,1135,0,0
406,-111,0,0,0,0,0,0,0,0,0,-1,1630,1135,0,0
413,-111,0,0,0,0,0,0,0,0,0,-1,1637,1135,0,0
420,-111,0,0,0,0,0,0,0,0,0,-1,1644,1135,0,0
427,-111,0,0,0,0,0,0,0,0,0,-1,1651,1135,0,0
434,-111,0,0,0,0,0,0,0,0,0,-1,1658,1135,0,0
441,-111,0,0,0,0,0,0,0,0,0,-1,1665,1135,0,0
448,-111,0,0,0,0,0,0,0,0,0,-1,1672,1135,0,0
455,-111,0,0,0,0,0,0,0,0,0,-1,1679,1135,0,0
462,-111,0,0,0,0,0,0,0,0,0,-1,1686,1135,0,0
469,-111,0,0,0,0,0,0,0,0,0,-1,1693,1135,0,0
476,-111,0,0,0,0,0,0,0,0,0,-1,1700,1135,0,0
483,-111,0,0,0,0,0,0,0,0,0,-1,1707,1135,0,0
490,-111,0,0,0,0,0,0,0,0,0,-1,1714,1135,0,0
497,-111,0,0,0,0,0,0,0,0,0,-1,1721,1135,0,0
504,-111,0,0,0,0,0,0,0,0,0,-1,1728,1135,0,0
511,-111,0,0,0,0,0,0,0,0,0,-1,1735,1135,0,0
518,-111,0,0,0,0,0,0,0,0,0,-1,1742,1135,0,0
525,-111,0,0,0,0,0,0,0,0,0,-1,1749,1135,0,0
532,-111,0,0,0,0,0,0,0,0,0,-1,1756,1135,0,0
539,-111,0,0,0,0,0,0,0,0,0,-1,1763,1135,0,0
546,-111,0,0,0,0,0,0,0,0,0,-1,1770,1135,0,0
553,-111,0,0,0,0,0,0,0,0,0,-1,1777,1135,0,0
560,-111,0,0,0,0,0,0,0,0,0,-1,1784,1135,0,0
567,-111,0,0,0,0,0,0,0,0,0,-1,1791,1135,0,0
574,-111,0,0,0,0,0,0,0,0,0,-1,1798,1135,0,0
581,-111,0,0,0,0,0,0,0,0,0,-1,1805,1135,0,0
588,-111,0,0,0,0,0,0,0,0,0,-1,1812,1135,0,0
595,-111,0,0,0,0,0,0,0,0,0,-1,1819,1135,0,0
602,-111,0,0,0,0,0,0,0,0,0,-1,1826,1135,0,0
609,-111,0,0,0,0,0,0,0,0,0,-1,1833,1135,0,0
616,-111,0,0,0,0,0,0,0,0,0,-1,1840,1135,0,0
623,-111,0,0,0,0,0,0,0,0,0,-1,1847,1135,0,0
630,-111,0,0,0,0,0,0,0,0,0,-1,1854,1135,0,0
637,-111,0,0,0,0,0,0,0,0,0,-1,1861,1135,0,0
644,-111,0.114014,0.00769043,0.00112783,-0.00122489,0.00035902,0.0011814,-0.00127846,0.148108,0.00142057,0.0349166,1868,1135,0.114007,-0.00772749
651,-111,0.160522,0.0863037,0.000336814,-0.000883093,0.000276253,0.000396457,-0.000942735,0.212635,0.000794336,0.0354779,1875,1135,0.160492,-0.0863344
658,-111,0.0344238,0.0344238,-1.59855e-06,-0.000629206,0.000197637,5.54523e-05,-0.000686257,0.281026,0.000477064,0.0382569,1882,1135,0.0343754,-0.0344092
665,-111,0.0205078,0,-0.000166476,-0.000443781,8.9298e-05,-0.000140209,-0.000470048,0.286088,0.000278647,0.0383552,1889,1135,0.0204678,7.93187e-06
672,-111,0.0499268,-0.00793457,-0.000253044,-0.000289929,-2.03827e-05,-0.000243998,-0.000298974,-0.417663,0.000183753,0.0378412,1896,1135,0.0499161,0.00797134
679,-111,-0.00463867,0.0794678,-0.000270229,-0.000170521,-0.000120086,-9.03516e-05,-0.000350398,-0.982149,0.000210062,0.0360368,1903,1135,-0.00467823,-0.0794787
686,-111,-0.0550537,0.133179,-0.000260102,-7.87347e-05,-0.000200427,5.05692e-05,-0.000389406,-0.997844,0.000277998,0.0315552,1910,1135,-0.0550933,-0.133137
693,-111,-0.0598145,0.026001,-0.000271121,2.51653e-05,-0.000254211,0.000171249,-0.000417205,-1.04922,0.000349496,0.0272005,1917,1135,-0.0598097,-0.0259569
700,-111,-0.0330811,-0.0806885,-0.000403797,7.93998e-05,-0.000302903,0.000225254,-0.000549652,-1.12204,0.000460274,0.0179202,1924,1135,-0.033105,0.0806959
707,-111,-0.0145264,-0.0334473,-0.000323192,0.00010747,-0.00031127,0.000270631,-0.000486353,-1.08799,0.000442921,0.0226,1931,1135,-0.0145789,0.0334171
714,-111,-0.00854492,-0.0444336,-0.00018135,0.000138115,-0.000281233,0.000301812,-0.000345046,-1.04367,0.000373742,0.0126392,1938,1135,-0.00857701,0.0444136
721,-111,-0.0118408,-0.0817871,-0.000245217,0.000169609,-0.000247635,0.000285218,-0.000360826,-1.13402,0.000373844,0.0110138,1945,1135,-0.0118263,0.0817422
728,-111,-0.00317383,-0.108643,-0.000372781,0.000164443,-0.000200982,0.00023131,-0.000439648,-1.24961,0.000393553,0.0153957,1952,1135,-0.00320357,0.108701
735,-111,-0.013916,-0.0991211,-0.000462936,8.59604e-05,-8.12905e-05,9.77463e-05,-0.000474722,-1.42681,0.000353596,0.0151387,1959,1135,-0.0138846,0.0991776
742,-111,-0.034668,-0.0793457,-0.000585017,-5.07953e-05,5.4713e-05,-4.52493e-05,-0.000590563,1.46978,0.000379526,0.0102546,1966,1135,-0.0346428,0.0793724
749,-111,-0.052002,-0.0689697,-0.000681396,0.000263387,-0.000159301,0.000289524,-0.000707533,-1.40817,0.000592274,0.0125843,1973,1135,-0.0520178,0.0689194
756,-111,-0.0576172,-0.0853271,-0.000930489,0.0005214,-0.000802254,0.000877401,-0.00128649,-1.15315,0.00125674,0.0139472,1980,1135,-0.0576751,0.0853052
763,-111,-0.052002,-0.0849609,-0.00106448,0.000617592,-0.00131269,0.00133556,-0.00178245,-1.0703,0.00180634,0.0122143,1987,1135,-0.0520415,0.085001
770,-111,-0.0415039,-0.0482178,-0.00123356,0.000891841,-0.00210251,0.00218496,-0.00252668,-1.01939,0.00272265,0.00966137,1994,1135,-0.0414622,0.0482186
777,-111,-0.032959,-0.0770264,-0.00145262,0.00129154,-0.00327046,0.00346608,-0.00362716,-0.984015,0.00409564,0.0204916,2001,1135,-0.0329319,0.0770324
784,-111,-0.0198975,-0.155029,-0.00167712,0.00181538,-0.004902,0.00527287,-0.00513461,-0.956506,0.00600894,0.0368858,2008,1135,-0.0199573,0.155016
791,-111,0.0065918,-0.328247,-0.0018692,0.00245278,-0.00709996,0.00771333,-0.00712975,-0.933127,0.00857187,0.0420805,2015,1135,0.0065939,0.328303
798,-111,-0.00561523,0.207275,-0.00202941,0.00318306,-0.00996226,0.0108743,-0.0097207,-0.913336,0.0118968,0.0439982,2022,1135,-0.00567469,-0.207292
805,-111,-0.769287,-0.62854,-0.00211894,0.00394223,-0.0135908,0.0148362,-0.0130129,-0.895098,0.0160902,0.0425871,2029,1135,-0.76934,0.628493
812,-111,-0.345093,0.497925,0,0,0,0,0,0,0,-1,2036,1135,-0.345135,-0.49795
-700,-118,0,0,0,0,0,0,0,0,0,-1,524,1142,0,0
-693,-118,0.0465088,0.845459,-0.0478497,0.000403595,0.0220456,0.00895878,-0.0564049,1.20062,0.0409178,0.0481807,531,1142,0.0465261,-0.845453
-686,-118,0.0564575,0.521606,0,0,0,0,0,0,0,-1,538,1142,0.0564718,-0.52159
-679,-118,0.113708,0.42041,0,0,0,0,0,0,0,-1,545,1142,0.113718,-0.420396
-672,-118,0.314392,0.360352,0,0,0,0,0,0,0,-1,552,1142,0.314389,-0.36034
-665,-118,0.226013,0.263184,-0.0155599,0.00904137,0.00195064,0.00919507,-0.0157137,1.49216,0.0145443,0.0457617,559,1142,0.226023,-0.263239
-658,-118,0.0836182,0.152466,-0.0110156,0.00826901,0.000125523,0.00826983,-0.0110164,1.56429,0.0111725,0.0443322,566,1142,0.0836001,-0.152474
-651,-118,-0.0418701,-0.00793457,-0.00755071,0.00714614,-0.000914446,0.00720282,-0.00760739,-1.50889,0.00855174,0.0399856,573,1142,-0.0418537,0.00788483
-644,-118,-0.0186768,-0.0450439,-0.00497223,0.00587855,-0.00137361,0.00604974,-0.00514342,-1.44681,0.00646943,0.0249918,580,1142,-0.0186929,0.0450757
-637,-118,-0.015625,-0.06604,-0.00288703,0.00486401,-0.0016816,0.00521311,-0.00323613,-1.3661,0.00492248,0.013844,587,1142,-0.0156058,0.0660956
-630,-118,-0.00457764,-0.0695801,-0.00148016,0.00393546,-0.00157907,0.00436224,-0.00190695,-1.30683,0.00371089,0.0165111,594,1142,-0.00455842,0.0695296
-623,-118,0.00817871,-0.101929,-0.000296679,0.00276719,-0.00163799,0.00347798,-0.00100747,-1.16138,0.00271746,0.0142413,601,1142,0.0081697,0.101969
-616,-118,-0.0123901,-0.108032,5.12428e-05,0.00137167,-0.00132815,0.00219465,-0.000771738,-1.01606,0.00177711,0.0130585,608,1142,-0.0124059,0.108066
-609,-118,-0.00872803,-0.0969238,-0.000105248,0.000635784,-0.00062745,0.000993948,-0.000463413,-1.0521,0.000859791,0.012389,615,1142,-0.00871215,0.0968893
-602,-118,-0.0136719,-0.0760498,-4.03635e-05,0.000248884,-4.34936e-05,0.000255283,-4.6762e-05,-1.42473,0.000187727,0.0118872,622,1142,-0.0136455,0.0761106
-595,-118,-0.0263672,-0.0653076,2.14801e-05,-0.000129175,0.000112225,8.1314e-05,-0.000189009,0.489824,0.000160146,0.010497,629,1142,-0.0263451,0.0652829
-588,-118,0.00372314,-0.0584717,8.47498e-06,-0.000232916,3.23637e-05,1.27387e-05,-0.00023718,0.13099,0.000162533,0.0145682,636,1142,0.00371154,0.0585057
-581,-118,0.0209961,-0.0744629,-0.000151911,-0.000190783,-4.77194e-05,-0.000119821,-0.000222873,-0.59201,0.000128797,0.0328635,643,1142,0.0209952,0.0744173
-574,-118,0.043335,-0.203735,-0.00033988,-0.0001235,-4.6127e-05,-0.000114077,-0.000349302,-1.36929,0.000205673,0.041385,650,1142,0.0433177,0.203676
-567,-118,0.0488892,-0.252075,-0.000505902,-4.8877e-05,-4.33183e-05,-4.48074e-05,-0.000509971,-1.47712,0.000326073,0.0419962,657,1142,0.048859,0.25205
-560,-118,-0.0112915,-0.183838,-0.000805144,8.58453e-05,-3.96018e-05,8.7602e-05,-0.000806901,-1.52647,0.000569385,0.0358757,664,1142,-0.0113161,0.183888
-553,-118,-0.0111694,-0.0349121,-0.00125628,0.000286109,-3.31627e-05,0.000286822,-0.001257,-1.54931,0.000948177,0.0366884,671,1142,-0.0111826,0.034886
-546,-118,0.0678101,0.0717773,-0.00190311,0.000556079,-2.20044e-05,0.000556276,-0.0019033,-1.56185,0.00148934,0.0365913,678,1142,0.0678258,-0.0717714
-539,-118,-0.00494385,0.144775,-0.00278294,0.000909066,-6.40493e-06,0.000909077,-0.00278295,-1.56906,0.00222122,0.0375304,685,1142,-0.00493716,-0.14474
-532,-118,-0.0218506,-0.160034,-0.00400754,0.00134987,-9.26074e-07,0.00134987,-0.00400754,-1.57062,0.00321747,0.0347789,692,1142,-0.0218359,0.16009
-525,-118,-0.152222,-0.168457,-0.0058165,0.00187851,-1.6237e-05,0.00187855,-0.00581654,-1.56869,0.00463262,0.0371878,699,1142,-0.152226,0.168461
-518,-118,0,0,0,0,0,0,0,0,0,-1,706,1142,0,0
-511,-118,0,0,0,0,0,0,0,0,0,-1,713,1142,0,0
-504,-118,0,0,0,0,0,0,0,0,0,-1,720,1142,0,0
-497,-118,0,0,0,0,0,0,0,0,0,-1,727,1142,0,0
-490,-118,0,0,0,0,0,0,0,0,0,-1,734,1142,0,0
-483,-118,0,0,0,0,0,0,0,0,0,-1,741,1142,0,0
-476,-118,0,0,0,0,0,0,0,0,0,-1,748,1142,0,0
-469,-118,0,0,0,0,0,0,0,0,0,-1,755,1142,0,0
-462,-118,0,0,0,0,0,0,0,0,0,-1,762,1142,0,0
-455,-118,0,0,0,0,0,0,0,0,0,-1,769,1142,0,0
-448,-118,0,0,0,0,0,0,0,0,0,-1,776,1142,0,0
-441,-118,0,0,0,0,0,0,0,0,0,-1,783,1142,0,0
-434,-118,0,0,0,0,0,0,0,0,0,-1,790,1142,0,0
-427,-118,0,0,0,0,0,0,0,0,0,-1,797,1142,0,0
-420,-118,0,0,0,0,0,0,0,0,0,-1,804,1142,0,0
-413,-118,0,0,0,0,0,0,0,0,0,-1,811,1142,0,0
-406,-118,0,0,0,0,0,0,0,0,0,-1,818,1142,0,0
-399,-118,0,0,0,0,0,0,0,0,0,-1,825,1142,0,0
-392,-118,0,0,0,0,0,0,0,0,0,-1,832,1142,0,0
-385,-118,0,0,0,0,0,0,0,0,0,-1,839,1142,0,0
-378,-118,0,0,0,0,0,0,0,0,0,-1,846,1142,0,0
-371,-118,0,0,0,0,0,0,0,0,0,-1,853,1142,0,0
-364,-118,0,0,0,0,0,0,0,0,0,-1,860,1142,0,0
-357,-118,0,0,0,0,0,0,0,0,0,-1,867,1142,0,0
-350,-118,0,0,0,0,0,0,0,0,0,-1,874,1142,0,0
-343,-118,0,0,0,0,0,0,0,0,0,-1,881,1142,0,0
-336,-118,0,0,0,0,0,0,0,0,0,-1,888,1142,0,0
-329,-118,0,0,0,0,0,0,0,0,0,-1,895,1142,0,0
-322,-118,0,0,0,0,0,0,0,0,0,-1,902,1142,0,0
-315,-118,0,0,0,0,0,0,0,0,0,-1,909,1142,0,0
-308,-118,0,0,0,0,0,0,0,0,0,-1,916,1142,0,0
-301,-118,0,0,0,0,0,0,0,0,0,-1,923,1142,0,0
-294,-118,0,0,0,0,0,0,0,0,0,-1,930,1142,0,0
-287,-118,0,0,0,0,0,0,0,0,0,-1,937,1142,0,0
-280,-118,0,0,0,0,0,0,0,0,0,-1,944,1142,0,0
-273,-118,0,0,0,0,0,0,0,0,0,-1,951,1142,0,0
-266,-118,0,0,0,0,0,0,0,0,0,-1,958,1142,0,0
-259,-118,0,0,0,0,0,0,0,0,0,-1,965,1142,0,0
-252,-118,0,0,0,0,0,0,0,0,0,-1,972,1142,0,0
-245,-118,0,0,0,0,0,0,0,0,0,-1,979,1142,0,0
-238,-118,0,0,0,0,0,0,0,0,0,-1,986,1142,0,0
-231,-118,0,0,0,0,0,0,0,0,0,-1,993,1142,0,0
-224,-118,0,0,0,0,0,0,0,0,0,-1,1000,1142,0,0
-217,-118,0,0,0,0,0,0,0,0,0,-1,1007,1142,0,0
-210,-118,0,0,0,0,0,0,0,0,0,-1,1014,1142,0,0
-203,-118,0,0,0,0,0,0,0,0,0,-1,1021,1142,0,0
-196,-118,0,0,0,0,0,0,0,0,0,-1,1028,1142,0,0
-189,-118,0,0,0,0,0,0,0,0,0,-1,1035,1142,0,0
-182,-118,0,0,0,0,0,0,0,0,0,-1,1042,1142,0,0
-175,-118,0,0,0,0,0,0,0,0,0,-1,1049,1142,0,0
-168,-118,0,0,0,0,0,0,0,0,0,-1,1056,1142,0,0
-161,-118,0,0,0,0,0,0,0,0,0,-1,1063,1142,0,0
-154,-118,0,0,0,0,0,0,0,0,0,-1,1070,1142,0,0
-147,-118,0,0,0,0,0,0,0,0,0,-1,1077,1142,0,0
-140,-118,0,0,0,0,0,0,0,0,0,-1,1084,1142,0,0
-133,-118,0,0,0,0,0,0,0,0,0,-1,1091,1142,0,0
-126,-118,0,0,0,0,0,0,0,0,0,-1,1098,1142,0,0
-119,-118,0,0,0,0,0,0,0,0,0,-1,1105,1142,0,0
-112,-118,0,0,0,0,0,0,0,0,0,-1,1112,1142,0,0
-105,-118,0,0,0,0,0,0,0,0,0,-1,1119,1142,0,0
-98,-118,0,0,0,0,0,0,0,0,0,-1,1126,1142,0,0
-91,-118,0,0,0,0,0,0,0,0,0,-1,1133,1142,0,0
-84,-118,0,0,0,0,0,0,0,0,0,-1,1140,1142,0,0
-77,-118,0,0,0,0,0,0,0,0,0,-1,1147,1142,0,0
-70,-118,0,0,0,0,0,0,0,0,0,-1,1154,1142,0,0
-63,-118,0,0,0,0,0,0,0,0,0,-1,1161,1142,0,0
-56,-118,0,0,0,0,0,0,0,0,0,-1,1168,1142,0,0
-49,-118,0,0,0,0,0,0,0,0,0,-1,1175,1142,0,0
-42,-118,0,0,0,0,0,0,0,0,0,-1,1182,1142,0,0
-35,-118,0,0,0,0,0,0,0,0,0,-1,1189,1142,0,0
-28,-118,0,0,0,0,0,0,0,0,0,-1,1196,1142,0,0
-21,-118,0,0,0,0,0,0,0,0,0,-1,1203,1142,0,0
-14,-118,0,0,0,0,0,0,0,0,0,-1,1210,1142,0,0
-7,-118,0,0,0,0,0,0,0,0,0,-1,1217,1142,0,0
0,-118,0,0,0,0,0,0,0,0,0,-1,1224,1142,0,0
7,-118,0,0,0,0,0,0,0,0,0,-1,1231,1142,0,0
14,-118,0,0,0,0,0,0,0,0,0,-1,1238,1142,0,0
21,-118,0,0,0,0,0,0,0,0,0,-1,1245,1142,0,0
28,-118,0,0,0,0,0,0,0,0,0,-1,1252,1142,0,0
35,-118,0,0,0,0,0,0,0,0,0,-1,1259,1142,0,0
42,-118,0,0,0,0,0,0,0,0,0,-1,1266,1142,0,0
49,-118,0,0,0,0,0,0,0,0,0,-1,1273,1142,0,0
56,-118,0,0,0,0,0,0,0,0,0,-1,1280,1142,0,0
63,-118,0,0,0,0,0,0,0,0,0,-1,1287,1142,0,0
70,-118,0,0,0,0,0,0,0,0,0,-1,1294,1142,0,0
77,-118,0,0,0,0,0,0,0,0,0,-1,1301,1142,0,0
84,-118,0,0,0,0,0,0,0,0,0,-1,1308,1142,0,0
91,-118,0,0,0,0,0,0,0,0,0,-1,1315,1142,0,0
98,-118,0,0,0,0,0,0,0,0,0,-1,1322,1142,0,0
105,-118,0,0,0,0,0,0,0,0,0,-1,1329,1142,0,0
112,-118,0,0,0,0,0,0,0,0,0,-1,1336,1142,0,0
119,-118,0,0,0,0,0,0,0,0,0,-1,1343,1142,0,0
126,-118,0,0,0,0,0,0,0,0,0,-1,1350,1142,0,0
133,-118,0,0,0,0,0,0,0,0,0,-1,1357,1142,0,0
140,-118,0,0,0,0,0,0,0,0,0,-1,1364,1142,0,0
147,-118,0,0,0,0,0,0,0,0,0,-1,1371,1142,0,0
154,-118,0,0,0,0,0,0,0,0,0,-1,1378,1142,0,0
161,-118,0,0,0,0,0,0,0,0,0,-1,1385,1142,0,0
168,-118,0,0,0,0,0,0,0,0,0,-1,1392,1142,0,0
175,-118,0,0,0,0,0,0,0,0,0,-1,1399,1142,0,0
182,-118,0,0,0,0,0,0,0,0,0,-1,1406,1142,0,0
189,-118,0,0,0,0,0,0,0,0,0,-1,1413,1142,0,0
196,-118,0,0,0,0,0,0,0,0,0,-1,1420,1142,0,0
203,-118,0,0,0,0,0,0,0,0,0,-1,1427,1142,0,0
210,-118,0,0,0,0,0,0,0,0,0,-1,1434,1142,0,0
217,-118,0,0,0,0,0,0,0,0,0,-1,1441,1142,0,0
224,-118,0,0,0,0,0,0,0,0,0,-1,1448,1142,0,0
231,-118,0,0,0,0,0,0,0,0,0,-1,1455,1142,0,0
238,-118,0,0,0,0,0,0,0,0,0,-1,1462,1142,0,0
245,-118,0,0,0,0,0,0,0,0,0,-1,1469,1142,0,0
252,-118,0,0,0,0,0,0,0,0,0,-1,1476,1142,0,0
259,-118,0,0,0,0,0,0,0,0,0,-1,1483,1142,0,0
266,-118,0,0,0,0,0,0,0,0,0,-1,1490,1142,0,0
273,-118,0,0,0,0,0,0,0,0,0,-1,1497,1142,0,0
280,-118,0,0,0,0,0,0,0,0,0,-1,1504,1142,0,0
287,-118,0,0,0,0,0,0,0,0,0,-1,1511,1142,0,0
294,-118,0,0,0,0,0,0,0,0,0,-1,1518,1142,0,0
301,-118,0,0,0,0,0,0,0,0,0,-1,1525,1142,0,0
308,-118,0,0,0,0,0,0,0,0,0,-1,1532,1142,0,0
315,-118,0,0,0,0,0,0,0,0,0,-1,1539,1142,0,0
322,-118,0,0,0,0,0,0,0,0,0,-1,1546,1142,0,0
329,-118,0,0,0,0,0,0,0,0,0,-1,1553,1142,0,0
336,-118,0,0,0,0,0,0,0,0,0,-1,1560,1142,0,0
343,-118,0,0,0,0,0,0,0,0,0,-1,1567,1142,0,0
350,-118,0,0,0,0,0,0,0,0,0,-1,1574,1142,0,0
357,-118,0,0,0,0,0,0,0,0,0,-1,1581,1142,0,0
364,-118,0,0,0,0,0,0,0,0,0,-1,1588,1142,0,0
371,-118,0,0,0,0,0,0,0,0,0,-1,1595,1142,0,0
378,-118,0,0,0,0,0,0,0,0,0,-1,1602,1142,0,0
385,-118,0,0,0,0,0,0,0,0,0,-1,1609,1142,0,0
392,-118,0,0,0,0,0,0,0,0,0,-1,1616,1142,0,0
399,-118,0,0,0,0,0,0,0,0,0,-1,1623,1142,0,0
406,-118,0,0,0,0,0,0,0,0,0,-1,1630,1142,0,0
413,-118,0,0,0,0,0,0,0,0,0,-1,1637,1142,0,0
420,-118,0,0,0,0,0,0,0,0,0,-1,1644,1142,0,0
427,-118,0,0,0,0,0,0,0,0,0,-1,1651,1142,0,0
434,-118,0,0,0,0,0,0,0,0,0,-1,1658,1142,0,0
441,-118,0,0,0,0,0,0,0,0,0,-1,1665,1142,0,0
448,-118,0,0,0,0,0,0,0,0,0,-1,1672,1142,0,0
455,-118,0,0,0,0,0,0,0,0,0,-1,1679,1142,0,0
462,-118,0,0,0,0,0,0,0,0,0,-1,1686,1142,0,0
469,-118,0,0,0,0,0,0,0,0,0,-1,1693,1142,0,0
476,-118,0,0,0,0,0,0,0,0,0,-1,1700,1142,0,0
483,-118,0,0,0,0,0,0,0,0,0,-1,1707,1142,0,0
490,-118,0,0,0,0,0,0,0,0,0,-1,1714,1142,0,0
497,-118,0,0,0,0,0,0,0,0,0,-1,1721,1142,0,0
504,-118,0,0,0,0,0,0,0,0,0,-1,1728,1142,0,0
511,-118,0,0,0,0,0,0,0,0,0,-1,1735,1142,0,0
518,-118,0,0,0,0,0,0,0,0,0,-1,1742,1142,0,0
525,-118,0,0,0,0,0,0,0,0,0,-1,1749,1142,0,0
532,-118,0,0,0,0,0,0,0,0,0,-1,1756,1142,0,0
539,-118,0,0,0,0,0,0,0,0,0,-1,1763,1142,0,0
546,-118,0,0,0,0,0,0,0,0,0,-1,1770,1142,0,0
553,-118,0,0,0,0,0,0,0,0,0,-1,1777,1142,0,0
560,-118,0,0,0,0,0,0,0,0,0,-1,1784,1142,0,0
567,-118,0,0,0,0,0,0,0,0,0,-1,1791,1142,0,0
574,-118,0,0,0,0,0,0,0,0,0,-1,1798,1142,0,0
581,-118,0,0,0,0,0,0,0,0,0,-1,1805,1142,0,0
588,-118,0,0,0,0,0,0,0,0,0,-1,1812,1142,0,0
595,-118,0,0,0,0,0,0,0,0,0,-1,1819,1142,0,0
602,-118,0,0,0,0,0,0,0,0,0,-1,1826,1142,0,0
609,-118,0,0,0,0,0,0,0,0,0,-1,1833,1142,0,0
616,-118,0,0,0,0,0,0,0,0,0,-1,1840,1142,0,0
623,-118,0,0,0,0,0,0,0,0,0,-1,1847,1142,0,0
630,-118,0,0,0,0,0,0,0,0,0,-1,1854,1142,0,0
637,-118,0,0,0,0,0,0,0,0,0,-1,1861,1142,0,0
644,-118,0.0897217,-0.197021,0.00172455,-0.00119513,0.0010709,0.00207523,-0.00154581,0.316451,0.00209804,0.0364991,1868,1142,0.0897551,0.196984
651,-118,0.162231,-0.0930176,0.000800617,-0.000778894,0.000843395,0.0011663,-0.00114457,0.409115,0.0013342,0.0355915,1875,1142,0.162198,0.0930014
658,-118,0.0821533,-0.0467529,0.000356082,-0.000435672,0.000639045,0.000711934,-0.000791524,0.508087,0.000868428,0.0372733,1882,1142,0.0821628,0.04674
665,-118,0.0465088,-0.0429688,8.55702e-05,-0.000178939,0.000423861,0.000397331,-0.0004907,0.634173,0.000513648,0.0369935,1889,1142,0.046451,0.0429151
672,-118,0.0216064,-0.0648193,-8.87195e-05,1.7799e-05,0.000229816,0.000200447,-0.000271367,0.899262,0.000273426,0.0376454,1896,1142,0.0216101,0.0647884
679,-118,-0.0195313,-0.0130615,-0.000173553,0.00015648,6.61493e-05,0.000169245,-0.000186318,1.38017,0.000205363,0.0350463,1903,1142,-0.0195866,0.0130493
686,-118,-0.0357666,-0.0314941,-0.00021497,0.00024692,-6.42865e-05,0.000255701,-0.00022375,-1.43505,0.000277016,0.0293364,1910,1142,-0.0357873,0.0315542
693,-118,-0.0421143,-0.0650635,-0.000265732,0.000343644,-0.000154358,0.000380513,-0.000302601,-1.33634,0.00039525,0.0247227,1917,1142,-0.0421276,0.06509
700,-118,-0.0303955,-0.081543,-0.000416784,0.00036733,-0.000230279,0.000429956,-0.000479411,-1.30526,0.000525282,0.0128799,1924,1142,-0.0304094,0.0815284
707,-118,-0.00354004,-0.0870361,-0.000347639,0.000354951,-0.00026863,0.00044589,-0.000438577,-1.24438,0.000510653,0.0336094,1931,1142,-0.00357246,0.0870631
714,-118,0.0020752,-0.0732422,-0.00021828,0.000339929,-0.000251928,0.000436813,-0.000315163,-1.20366,0.000436043,0.021768,1938,1142,0.00208978,0.0732753
721,-118,0.00012207,-0.0914307,-0.000286334,0.000325422,-0.000213696,0.000392675,-0.000353588,-1.26589,0.000431052,0.00895745,1945,1142,7.76398e-05,0.0914869
728,-118,-0.00805664,-0.0793457,-0.00041172,0.00025904,-0.00014607,0.000289469,-0.000442149,-1.36542,0.000425455,0.0118243,1952,1142,-0.00810656,0.0792965
735,-118,-0.00524902,-0.0795898,-0.000514635,9.95756e-05,4.5485e-07,9.9576e-05,-0.000514636,1.57006,0.000380649,0.0119346,1959,1142,-0.00528749,0.0795443
742,-118,0.0090332,-0.0734863,-0.000688568,-0.00018059,0.000144579,-0.000142323,-0.000726834,1.31205,0.000444772,0.0184092,1966,1142,0.00903578,0.0734579
749,-118,-0.0270996,-0.0461426,-0.000862255,6.24677e-05,-0.000172947,9.37548e-05,-0.000893542,-1.39183,0.000629279,0.0187631,1973,1142,-0.0270972,0.0461289
756,-118,-0.0300293,-0.0352783,-0.00117865,0.000347847,-0.00094268,0.000797527,-0.00162833,-1.1257,0.00142768,0.0160586,1980,1142,-0.0300435,0.0352367
763,-118,-0.0299072,-0.0620117,-0.00139352,0.000448097,-0.00159569,0.0013696,-0.00231503,-1.04709,0.00215054,0.00922313,1987,1142,-0.0299164,0.0619999
770,-118,-0.0269775,-0.0620117,-0.00166476,0.000748871,-0.00258945,0.00239892,-0.00331481,-1.00346,0.00331292,0.0107115,1994,1142,-0.0269679,0.0620413
777,-118,-0.022583,-0.139893,-0.00200337,0.00122501,-0.00405305,0.00397349,-0.00475184,-0.974903,0.00504425,0.0217153,2001,1142,-0.0226432,0.139868
784,-118,-0.0135498,-0.252441,-0.00234755,0.00190227,-0.00608924,0.00622671,-0.00667199,-0.953273,0.00744855,0.0383139,2008,1142,-0.0135733,0.252457
791,-118,-0.0683594,-0.278442,-0.00264566,0.00280267,-0.00882861,0.00931785,-0.00916084,-0.935044,0.0106688,0.0454751,2015,1142,-0.0683782,0.278424
798,-118,-0.645508,-0.533936,-0.00288035,0.00394566,-0.012398,0.0133919,-0.0123266,-0.919714,0.0148528,0.0472197,2022,1142,-0.645551,0.533967
805,-118,-0.418701,-0.865845,-0.00297557,0.00531537,-0.0169213,0.0185916,-0.0162518,-0.905525,0.020132,0.0464743,2029,1142,-0.41871,0.865838
812,-118,-0.22644,-1.06995,-0.00267866,0.00681997,-0.0225856,0.0251502,-0.0210088,-0.889029,0.0266856,0.0455932,2036,1142,-0.226495,1.06989
-700,-125,0,0,0,0,0,0,0,0,0,-1,524,1149,0,0
-693,-125,-0.0808105,0.231445,0,0,0,0,0,0,0,-1,531,1149,-0.0807826,-0.231413
-686,-125,0.325378,0.544189,0,0,0,0,0,0,0,-1,538,1149,0.325404,-0.544165
-679,-125,0.24292,0.485229,-0.0271798,0.0130607,0.00537377,0.013766,-0.027885,1.4403,0.0245034,0.0451279,545,1149,0.242907,-0.485171
-672,-125,0.21051,0.420898,-0.0203526,0.0138269,0.00197168,0.0139402,-0.0204659,1.51336,0.0199832,0.0449025,552,1149,0.210502,-0.420956
-665,-125,0.2453,0.341797,-0.014964,0.013293,-0.000196356,0.0132944,-0.0149654,-1.56385,0.0163253,0.0422147,559,1149,0.24527,-0.341805
-658,-125,0.235596,0.492432,-0.010766,0.0119713,-0.00142787,0.0120606,-0.0108553,-1.50832,0.0132366,0.0426311,566,1149,0.235614,-0.492397
-651,-125,0.116577,0.197632,-0.00756396,0.0102317,-0.00196343,0.0104457,-0.00777802,-1.4622,0.010559,0.0400884,573,1149,0.116574,-0.197668
-644,-125,-0.0321045,-0.0286865,-0.0051608,0.00834943,-0.00202362,0.00864603,-0.00545739,-1.42527,0.00821169,0.0243408,580,1149,-0.0321315,0.0287133
-637,-125,-0.00598145,-0.0834961,-0.00319959,0.00667885,-0.00195645,0.00705222,-0.00357296,-1.38222,0.00624312,0.0125995,587,1149,-0.00596802,0.0834693
-630,-125,0.00512695,-0.0772705,-0.00185531,0.00533297,-0.00165486,0.00569565,-0.00221799,-1.35505,0.0047137,0.0140622,594,1149,0.00514968,0.0773165
-623,-125,0.0100708,-0.0843506,-0.000718362,0.00374514,-0.00156112,0.00423695,-0.00121018,-1.2656,0.00330278,0.0122435,601,1149,0.0100572,0.0843525
-616,-125,0.00244141,-0.0917969,-0.000343347,0.00203468,-0.00111826,0.00247792,-0.000786589,-1.19343,0.00196728,0.0119335,608,1149,0.00243736,0.0917984
-609,-125,-0.0057373,-0.0754395,-0.00033735,0.0010182,-0.000471568,0.00116611,-0.00048526,-1.26686,0.000980056,0.0121601,615,1149,-0.00572249,0.0754774
-602,-125,-0.0205688,-0.0737305,-0.000155167,0.000379119,0.000105743,0.000399286,-0.000175334,1.38234,0.000340053,0.0112881,622,1149,-0.0205886,0.0736893
-595,-125,-0.0283813,-0.0650635,-2.5e-05,-0.000195004,0.000233332,0.00013833,-0.000358334,0.610721,0.000295978,0.00990417,629,1149,-0.0283921,0.0650724
-588,-125,0.00183105,-0.0804443,-1.19463e-05,-0.000339635,0.000109746,2.14129e-05,-0.000372994,0.295091,0.000256099,0.0149579,636,1149,0.00185369,0.0804092
-581,-125,0.020752,-0.156494,-0.000165581,-0.000325595,1.2485e-05,-0.000164612,-0.000326563,0.0774003,0.000188543,0.0330619,643,1149,0.0207409,0.156527
-574,-125,0.036438,-0.241211,-0.000358653,-0.000308568,1.71056e-05,-0.000303283,-0.000363937,1.27116,0.000225147,0.0392976,650,1149,0.036419,0.2412
-567,-125,0.0020752,-0.0759277,-0.00053711,-0.000283585,1.33129e-05,-0.000282888,-0.000537807,1.51848,0.000310643,0.0380373,657,1149,0.00206737,0.0758958
-560,-125,-0.0405273,-0.0932617,-0.000851909,-0.000201288,5.67245e-06,-0.000201239,-0.000851959,1.56208,0.000514191,0.0352978,664,1149,-0.040506,0.0932162
-553,-125,-0.0493774,-0.125854,-0.00131907,-6.34772e-05,2.08309e-06,-6.34737e-05,-0.00131908,1.56914,0.000859009,0.0352173,671,1149,-0.0493935,0.125835
-546,-125,0.0446167,0.0402832,-0.00197594,0.000131394,7.28675e-06,0.000131419,-0.00197596,1.56734,0.00136323,0.0357476,678,1149,0.0446081,-0.0402335
-539,-125,0.103577,0.183228,-0.00285509,0.000393732,2.98059e-05,0.000394005,-0.00285537,1.56162,0.00204759,0.0371625,685,1149,0.103581,-0.183196
-532,-125,-0.0088501,-0.00964355,-0.00405882,0.000719016,6.85049e-05,0.000719998,-0.0040598,1.55646,0.00297571,0.0354091,692,1149,-0.00882265,0.00959504
-525,-125,-0.100342,-0.139038,-0.0057881,0.0010855,0.000140378,0.00108836,-0.00579097,1.55038,0.00426992,0.0406126,699,1149,-0.100336,0.139039
-518,-125,0,0,0,0,0,0,0,0,0,-1,706,1149,0,0
-511,-125,0,0,0,0,0,0,0,0,0,-1,713,1149,0,0
-504,-125,0,0,0,0,0,0,0,0,0,-1,720,1149,0,0
-497,-125,0,0,0,0,0,0,0,0,0,-1,727,1149,0,0
-490,-125,0,0,0,0,0,0,0,0,0,-1,734,1149,0,0
-483,-125,0,0,0,0,0,0,0,0,0,-1,741,1149,0,0
-476,-125,0,0,0,0,0,0,0,0,0,-1,748,1149,0,0
-469,-125,0,0,0,0,0,0,0,0,0,-1,755,1149,0,0
-462,-125,0,0,0,0,0,0,0,0,0,-1,762,1149,0,0
-455,-125,0,0,0,0,0,0,0,0,0,-1,769,1149,0,0
-448,-125,0,0,0,0,0,0,0,0,0,-1,776,1149,0,0
-441,-125,0,0,0,0,0,0,0,0,0,-1,783,1149,0,0
-434,-125,0,0,0,0,0,0,0,0,0,-1,790,1149,0,0
-427,-125,0,0,0,0,0,0,0,0,0,-1,797,1149,0,0
-420,-125,0,0,0,0,0,0,0,0,0,-1,804,1149,0,0
-413,-125,0,0,0,0,0,0,0,0,0,-1,811,1149,0,0
-406,-125,0,0,0,0,0,0,0,0,0,-1,818,1149,0,0
-399,-125,0,0,0,0,0,0,0,0,0,-1,825,1149,0,0
-392,-125,0,0,0,0,0,0,0,0,0,-1,832,1149,0,0
-385,-125,0,0,0,0,0,0,0,0,0,-1,839,1149,0,0
-378,-125,0,0,0,0,0,0,0,0,0,-1,846,1149,0,0
-371,-125,0,0,0,0,0,0,0,0,0,-1,853,1149,0,0
-364,-125,0,0,0,0,0,0,0,0,0,-1,860,1149,0,0
-357,-125,0,0,0,0,0,0,0,0,0,-1,867,1149,0,0
-350,-125,0,0,0,0,0,0,0,0,0,-1,874,1149,0,0
-343,-125,0,0,0,0,0,0,0,0,0,-1,881,1149,0,0
-336,-125,0,0,0,0,0,0,0,0,0,-1,888,1149,0,0
-329,-125,0,0,0,0,0,0,0,0,0,-1,895,1149,0,0
-322,-125,0,0,0,0,0,0,0,0,0,-1,902,1149,0,0
-315,-125,0,0,0,0,0,0,0,0,0,-1,909,1149,0,0
-308,-125,0,0,0,0,0,0,0,0,0,-1,916,1149,0,0
-301,-125,0,0,0,0,0,0,0,0,0,-1,923,1149,0,0
-294,-125,0,0,0,0,0,0,0,0,0,-1,930,1149,0,0
-287,-125,0,0,0,0,0,0,0,0,0,-1,937,1149,0,0
-280,-125,0,0,0,0,0,0,0,0,0,-1,944,1149,0,0
-273,-125,0,0,0,0,0,0,0,0,0,-1,951,1149,0,0
-266,-125,0,0,0,0,0,0,0,0,0,-1,958,1149,0,0
-259,-125,0,0,0,0,0,0,0,0,0,-1,965,1149,0,0
-252,-125,0,0,0,0,0,0,0,0,0,-1,972,1149,0,0
-245,-125,0,0,0,0,0,0,0,0,0,-1,979,1149,0,0
-238,-125,0,0,0,0,0,0,0,0,0,-1,986,1149,0,0
-231,-125,0,0,0,0,0,0,0,0,0,-1,993,1149,0,0
-224,-125,0,0,0,0,0,0,0,0,0,-1,1000,1149,0,0
-217,-125,0,0,0,0,0,0,0,0,0,-1,1007,1149,0,0
-210,-125,0,0,0,0,0,0,0,0,0,-1,1014,1149,0,0
-203,-125,0,0,0,0,0,0,0,0,0,-1,1021,1149,0,0
-196,-125,0,0,0,0,0,0,0,0,0,-1,1028,1149,0,0
-189,-125,0,0,0,0,0,0,0,0,0,-1,1035,1149,0,0
-182,-125,0,0,0,0,0,0,0,0,0,-1,1042,1149,0,0
-175,-125,0,0,0,0,0,0,0,0,0,-1,1049,1149,0,0
-168,-125,0,0,0,0,0,0,0,0,0,-1,1056,1149,0,0
-161,-125,0,0,0,0,0,0,0,0,0,-1,1063,1149,0,0
-154,-125,0,0,0,0,0,0,0,0,0,-1,1070,1149,0,0
-147,-125,0,0,0,0,0,0,0,0,0,-1,1077,1149,0,0
-140,-125,0,0,0,0,0,0,0,0,0,-1,1084,1149,0,0
-133,-125,0,0,0,0,0,0,0,0,0,-1,1091,1149,0,0
-126,-125,0,0,0,0,0,0,0,0,0,-1,1098,1149,0,0
-119,-125,0,0,0,0,0,0,0,0,0,-1,1105,1149,0,0
-112,-125,0,0,0,0,0,0,0,0,0,-1,1112,1149,0,0
-105,-125,0,0,0,0,0,0,0,0,0,-1,1119,1149,0,0
-98,-125,0,0,0,0,0,0,0,0,0,-1,1126,1149,0,0
-91,-125,0,0,0,0,0,0,0,0,0,-1,1133,1149,0,0
-84,-125,0,0,0,0,0,0,0,0,0,-1,1140,1149,0,0
-77,-125,0,0,0,0,0,0,0,0,0,-1,1147,1149,0,0
-70,-125,0,0,0,0,0,0,0,0,0,-1,1154,1149,0,0
-63,-125,0,0,0,0,0,0,0,0,0,-1,1161,1149,0,0
-56,-125,0,0,0,0,0,0,0,0,0,-1,1168,1149,0,0
-49,-125,0,0,0,0,0,0,0,0,0,-1,1175,1149,0,0
-42,-125,0,0,0,0,0,0,0,0,0,-1,1182,1149,0,0
-35,-125,0,0,0,0,0,0,0,0,0,-1,1189,1149,0,0
-28,-125,0,0,0,0,0,0,0,0,0,-1,1196,1149,0,0
-21,-125,0,0,0,0,0,0,0,0,0,-1,1203,1149,0,0
-14,-125,0,0,0,0,0,0,0,0,0,-1,1210,1149,0,0
-7,-125,0,0,0,0,0,0,0,0,0,-1,1217,1149,0,0
0,-125,0,0,0,0,0,0,0,0,0,-1,1224,1149,0,0
7,-125,0,0,0,0,0,0,0,0,0,-1,1231,1149,0,0
14,-125,0,0,0,0,0,0,0,0,0,-1,1238,1149,0,0
21,-125,0,0,0,0,0,0,0,0,0,-1,1245,1149,0,0
28,-125,0,0,0,0,0,0,0,0,0,-1,1252,1149,0,0
35,-125,0,0,0,0,0,0,0,0,0,-1,1259,1149,0,0
42,-125,0,0,0,0,0,0,0,0,0,-1,1266,1149,0,0
49,-125,0,0,0,0,0,0,0,0,0,-1,1273,1149,0,0
56,-125,0,0,0,0,0,0,0,0,0,-1,1280,1149,0,0
63,-125,0,0,0,0,0,0,0,0,0,-1,1287,1149,0,0
70,-125,0,0,0,0,0,0,0,0,0,-1,1294,1149,0,0
77,-125,0,0,0,0,0,0,0,0,0,-1,1301,1149,0,0
84,-125,0,0,0,0,0,0,0,0,0,-1,1308,1149,0,0
91,-125,0,0,0,0,0,0,0,0,0,-1,1315,1149,0,0
98,-125,0,0,0,0,0,0,0,0,0,-1,1322,1149,0,0
105,-125,0,0,0,0,0,0,0,0,0,-1,1329,1149,0,0
112,-125,0,0,0,0,0,0,0,0,0,-1,1336,1149,0,0
119,-125,0,0,0,0,0,0,0,0,0,-1,1343,1149,0,0
126,-125,0,0,0,0,0,0,0,0,0,-1,1350,1149,0,0
133,-125,0,0,0,0,0,0,0,0,0,-1,1357,1149,0,0
140,-125,0,0,0,0,0,0,0,0,0,-1,1364,1149,0,0
147,-125,0,0,0,0,0,0,0,0,0,-1,1371,1149,0,0
154,-125,0,0,0,0,0,0,0,0,0,-1,1378,1149,0,0
161,-125,0,0,0,0,0,0,0,0,0,-1,1385,1149,0,0
168,-125,0,0,0,0,0,0,0,0,0,-1,1392,1149,0,0
175,-125,0,0,0,0,0,0,0,0,0,-1,1399,1149,0,0
182,-125,0,0,0,0,0,0,0,0,0,-1,1406,1149,0,0
189,-125,0,0,0,0,0,0,0,0,0,-1,1413,1149,0,0
196,-125,0,0,0,0,0,0,0,0,0,-1,1420,1149,0,0
203,-125,0,0,0,0,0,0,0,0,0,-1,1427,1149,0,0
210,-125,0,0,0,0,0,0,0,0,0,-1,1434,1149,0,0
217,-125,0,0,0,0,0,0,0,0,0,-1,1441,1149,0,0
224,-125,0,0,0,0,0,0,0,0,0,-1,1448,1149,0,0
231,-125,0,0,0,0,0,0,0,0,0,-1,1455,1149,0,0
238,-125,0,0,0,0,0,0,0,0,0,-1,1462,1149,0,0
245,-125,0,0,0,0,0,0,0,0,0,-1,1469,1149,0,0
252,-125,0,0,0,0,0,0,0,0,0,-1,1476,1149,0,0
259,-125,0,0,0,0,0,0,0,0,0,-1,1483,1149,0,0
266,-125,0,0,0,0,0,0,0,0,0,-1,1490,1149,0,0
273,-125,0,0,0,0,0,0,0,0,0,-1,1497,1149,0,0
280,-125,0,0,0,0,0,0,0,0,0,-1,1504,1149,0,0
287,-125,0,0,0,0,0,0,0,0,0,-1,1511,1149,0,0
294,-125,0,0,0,0,0,0,0,0,0,-1,1518,1149,0,0
301,-125,0,0,0,0,0,0,0,0,0,-1,1525,1149,0,0
308,-125,0,0,0,0,0,0,0,0,0,-1,1532,1149,0,0
315,-125,0,0,0,0,0,0,0,0,0,-1,1539,1149,0,0
322,-125,0,0,0,0,0,0,0,0,0,-1,1546,1149,0,0
329,-125,0,0,0,0,0,0,0,0,0,-1,1553,1149,0,0
336,-125,0,0,0,0,0,0,0,0,0,-1,1560,1149,0,0
343,-125,0,0,0,0,0,0,0,0,0,-1,1567,1149,0,0
350,-125,0,0,0,0,0,0,0,0,0,-1,1574,1149,0,0
357,-125,0,0,0,0,0,0,0,0,0,-1,1581,1149,0,0
364,-125,0,0,0,0,0,0,0,0,0,-1,1588,1149,0,0
371,-125,0,0,0,0,0,0,0,0,0,-1,1595,1149,0,0
378,-125,0,0,0,0,0,0,0,0,0,-1,1602,1149,0,0
385,-125,0,0,0,0,0,0,0,0,0,-1,1609,1149,0,0
392,-125,0,0,0,0,0,0,0,0,0,-1,1616,1149,0,0
399,-125,0,0,0,0,0,0,0,0,0,-1,1623,1149,0,0
406,-125,0,0,0,0,0,0,0,0,0,-1,1630,1149,0,0
413,-125,0,0,0,0,0,0,0,0,0,-1,1637,1149,0,0
420,-125,0,0,0,0,0,0,0,0,0,-1,1644,1149,0,0
427,-125,0,0,0,0,0,0,0,0,0,-1,1651,1149,0,0
434,-125,0,0,0,0,0,0,0,0,0,-1,1658,1149,0,0
441,-125,0,0,0,0,0,0,0,0,0,-1,1665,1149,0,0
448,-125,0,0,0,0,0,0,0,0,0,-1,1672,1149,0,0
455,-125,0,0,0,0,0,0,0,0,0,-1,1679,1149,0,0
462,-125,0,0,0,0,0,0,0,0,0,-1,1686,1149,0,0
469,-125,0,0,0,0,0,0,0,0,0,-1,1693,1149,0,0
476,-125,0,0,0,0,0,0,0,0,0,-1,1700,1149,0,0
483,-125,0,0,0,0,0,0,0,0,0,-1,1707,1149,0,0
490,-125,0,0,0,0,0,0,0,0,0,-1,1714,1149,0,0
497,-125,0,0,0,0,0,0,0,0,0,-1,1721,1149,0,0
504,-125,0,0,0,0,0,0,0,0,0,-1,1728,1149,0,0
511,-125,0,0,0,0,0,0,0,0,0,-1,1735,1149,0,0
518,-125,0,0,0,0,0,0,0,0,0,-1,1742,1149,0,0
525,-125,0,0,0,0,0,0,0,0,0,-1,1749,1149,0,0
532,-125,0,0,0,0,0,0,0,0,0,-1,1756,1149,0,0
539,-125,0,0,0,0,0,0,0,0,0,-1,1763,1149,0,0
546,-125,0,0,0,0,0,0,0,0,0,-1,1770,1149,0,0
553,-125,0,0,0,0,0,0,0,0,0,-1,1777,1149,0,0
560,-125,0,0,0,0,0,0,0,0,0,-1,1784,1149,0,0
567,-125,0,0,0,0,0,0,0,0,0,-1,1791,1149,0,0
574,-125,0,0,0,0,0,0,0,0,0,-1,1798,1149,0,0
581,-125,0,0,0,0,0,0,0,0,0,-1,1805,1149,0,0
588,-125,0,0,0,0,0,0,0,0,0,-1,1812,1149,0,0
595,-125,0,0,0,0,0,0,0,0,0,-1,1819,1149,0,0
602,-125,0,0,0,0,0,0,0,0,0,-1,1826,1149,0,0
609,-125,0,0,0,0,0,0,0,0,0,-1,1833,1149,0,0
616,-125,0,0,0,0,0,0,0,0,0,-1,1840,1149,0,0
623,-125,0,0,0,0,0,0,0,0,0,-1,1847,1149,0,0
630,-125,0,0,0,0,0,0,0,0,0,-1,1854,1149,0,0
637,-125,0,0,0,0,0,0,0,0,0,-1,1861,1149,0,0
644,-125,0.0246582,-0.210815,0.00199579,-0.00119449,0.00131957,0.00247085,-0.00166955,0.345566,0.00240534,0.0384239,1868,1149,0.0246772,0.21078
651,-125,0.144287,-0.132813,0.0010725,-0.000665022,0.00100993,0.00153592,-0.00112844,0.4302,0.00154426,0.0365841,1875,1149,0.144324,0.132821
658,-125,0.0482178,-0.125854,0.000607311,-0.000203373,0.000755535,0.00105937,-0.000655432,0.53919,0.000999154,0.0376025,1882,1149,0.048263,0.125874
665,-125,-0.0334473,-0.172729,0.000288726,0.000141038,0.000506776,0.000727009,-0.000297245,0.713051,0.000608458,0.0385379,1889,1149,-0.0333932,0.17275
672,-125,0.0411377,-0.191528,6.28667e-05,0.000393605,0.000290232,0.000562274,-0.000105802,1.04435,0.000414641,0.0360432,1896,1149,0.0411666,0.19149
679,-125,0.00793457,-0.0556641,-7.08142e-05,0.000560271,0.00011331,0.000579998,-9.05419e-05,1.39842,0.000420111,0.0322044,1903,1149,0.00794577,0.0556349
686,-125,-0.0203857,-0.0151367,-0.000155042,0.000652673,-2.52846e-05,0.000653464,-0.000155833,-1.53953,0.000495818,0.0312738,1910,1149,-0.0203438,0.0151125
693,-125,-0.048584,-0.0567627,-0.000237589,0.000737344,-0.000112915,0.000750251,-0.000250495,-1.45699,0.000601317,0.024377,1917,1149,-0.0486386,0.0567231
700,-125,-0.015625,-0.0368652,-0.000399893,0.000720977,-0.000192238,0.00075303,-0.000431946,-1.40558,0.000692468,0.00930825,1924,1149,-0.0155705,0.0369134
707,-125,0.0736084,-0.120728,-0.000346839,0.000659802,-0.000239064,0.000713691,-0.000400729,-1.34908,0.000651813,0.0369514,1931,1149,0.0736244,0.120706
714,-125,-0.013916,-0.126831,-0.000240515,0.000587488,-0.000224036,0.000644219,-0.000297247,-1.32279,0.000555724,0.0299304,1938,1149,-0.0139408,0.126794
721,-125,-0.0235596,-0.0966797,-0.000313607,0.00051597,-0.000173324,0.000550727,-0.000348364,-1.37289,0.000523454,0.0143857,1945,1149,-0.0235744,0.096632
728,-125,-0.019165,-0.0789795,-0.000436664,0.000377146,-6.51568e-05,0.00038233,-0.000441848,-1.49141,0.000476252,0.0096916,1952,1149,-0.0191264,0.0789637
735,-125,-0.00744629,-0.0786133,-0.000550311,0.000112397,0.000140944,0.000141127,-0.000579041,1.36971,0.000440668,0.0126352,1959,1149,-0.00739068,0.0786503
742,-125,-0.0185547,-0.0712891,-0.000748625,-0.000324698,0.000339076,-0.000136785,-0.000936537,1.06474,0.000584126,0.0210792,1966,1149,-0.0185666,0.0713114
749,-125,-0.0352783,-0.0556641,-0.000970429,-0.000283292,-2.36503e-05,-0.000282479,-0.000971242,-1.53643,0.000576869,0.0244139,1973,1149,-0.0352454,0.0556301
756,-125,-0.0408936,-0.0428467,-0.00129282,-0.00011757,-0.00084545,0.000324411,-0.0017348,-1.08909,0.00127847,0.0193183,1980,1149,-0.0408896,0.0428412
763,-125,-0.0131836,-0.064209,-0.00153731,-0.000154706,-0.00158105,0.000879573,-0.00257159,-0.991495,0.00207082,0.0103508,1987,1149,-0.0131897,0.0642644
770,-125,-0.0108643,-0.0855713,-0.0018394,-3.20888e-05,-0.00268007,0.00189257,-0.00376407,-0.948001,0.00332491,0.0122131,1994,1149,-0.0109017,0.0855938
777,-125,-0.024292,-0.142334,-0.00220478,0.000245433,-0.00433149,0.00352173,-0.00548108,-0.923217,0.00523865,0.0234018,2001,1149,-0.0243121,0.142274
784,-125,-0.0703125,-0.192505,-0.0025527,0.000720903,-0.00666729,0.00594937,-0.00778117,-0.905766,0.00795081,0.041381,2008,1149,-0.0703277,0.192553
791,-125,-0.127563,-0.273193,-0.00281509,0.00144408,-0.00986139,0.00940321,-0.0107742,-0.891741,0.0116584,0.0455389,2015,1149,-0.127549,0.273154
798,-125,-0.137939,-0.605347,-0.00295073,0.00247252,-0.0140935,0.0141129,-0.0145911,-0.880438,0.016573,0.0439888,2022,1149,-0.137909,0.605336
805,-125,-0.0495605,-0.862915,-0.00284413,0.00384698,-0.0195468,0.0203324,-0.0193296,-0.870155,0.0229013,0.0460672,2029,1149,-0.0495627,0.862905
812,-125,-0.0697021,-1.28296,-0.00218708,0.00556795,-0.0264913,0.028464,-0.0250831,-0.858067,0.030936,0.0478774,2036,1149,-0.0696727,1.28301
-700,-132,0,0,0,0,0,0,0,0,0,-1,524,1156,0,0
-693,-132,0.00152588,-0.417114,0,0,0,0,0,0,0,-1,531,1156,0.00152004,0.417115
-686,-132,0.453064,0.615112,0,0,0,0,0,0,0,-1,538,1156,0.45308,-0.61515
-679,-132,0.336731,0.541748,-0.0265248,0.0163425,0.0041986,0.0167499,-0.0269321,1.47408,0.0254472,0.048475,545,1156,0.336726,-0.541714
-672,-132,0.236816,0.494873,-0.0201267,0.0170804,0.00140423,0.0171333,-0.0201796,1.53313,0.0215666,0.0431687,552,1156,0.236799,-0.494913
-665,-132,0.225098,0.495728,-0.0151114,0.0163118,-0.000278687,0.0163143,-0.0151138,-1.56193,0.0181494,0.0415894,559,1156,0.225104,-0.495732
-658,-132,-0.167786,0.0245361,0,0,0,0,0,0,0,-1,566,1156,-0.167783,-0.0244974
-651,-132,-0.111145,-0.0170898,-0.00815462,0.0124648,-0.00145967,0.0125676,-0.00825743,-1.50047,0.0121089,0.0417002,573,1156,-0.111159,0.0171106
-644,-132,-0.0540771,-0.0675049,-0.00582039,0.0101456,-0.00140374,0.0102681,-0.00594287,-1.48377,0.0094698,0.0209699,580,1156,-0.0541061,0.0675021
-637,-132,-0.012146,-0.0715332,-0.00388169,0.0079914,-0.0012405,0.00811962,-0.00400991,-1.4678,0.00713572,0.0109605,587,1156,-0.0121573,0.0715885
-630,-132,-0.000488281,-0.0596924,-0.00248664,0.00636868,-0.0009942,0.00647893,-0.00259689,-1.46036,0.00539734,0.00985148,594,1156,-0.000458832,0.0597198
-623,-132,-0.0255127,-0.0552979,-0.00133575,0.00446655,-0.000935503,0.00461366,-0.00148285,-1.41483,0.00367127,0.0142267,601,1156,-0.0255157,0.0553032
-616,-132,-0.0302734,-0.0594482,-0.000892669,0.00255085,-0.000554107,0.00263781,-0.000979635,-1.41512,0.00216044,0.0181284,608,1156,-0.030276,0.0594241
-609,-132,-0.0189819,-0.0671387,-0.000683638,0.00134711,-5.80285e-05,0.00134877,-0.000685295,-1.54225,0.00119501,0.011728,615,1156,-0.018971,0.0670939
-602,-132,-0.0289917,-0.0727539,-0.000339398,0.000508516,0.000429949,0.000688376,-0.000519258,1.17459,0.000699503,0.0102105,622,1156,-0.0290175,0.0727953
-595,-132,-0.0134277,-0.0689697,-0.000114229,-0.00013582,0.000418147,0.000293261,-0.000543311,0.772492,0.000490134,0.0096729,629,1156,-0.0134531,0.0689808
-588,-132,-0.00958252,-0.083374,-5.51963e-05,-0.000298925,0.00017874,3.927e-05,-0.000393391,0.486196,0.000276283,0.0141117,636,1156,-0.00957065,0.0833783
-581,-132,-0.0319214,-0.0649414,-0.000191608,-0.000292261,6.16636e-05,-0.00016234,-0.000321528,0.443143,0.000185637,0.0319127,643,1156,-0.0319208,0.0649328
-574,-132,-0.0148926,-0.0769043,-0.00037507,-0.000294965,6.85915e-05,-0.000255588,-0.000414447,1.04966,0.000241444,0.0366454,650,1156,-0.0148974,0.0768483
-567,-132,0.00653076,-0.0263672,-0.000540685,-0.000282029,5.09253e-05,-0.000272364,-0.00055035,1.38323,0.00031775,0.0325633,657,1156,0.00653849,0.0264078
-560,-132,0.00378418,-0.0821533,-0.000843968,-0.00022722,2.84017e-05,-0.000225914,-0.000845274,1.52488,0.000505334,0.0314623,664,1156,0.00379711,0.0821395
-553,-132,-0.0194092,-0.18042,-0.00129028,-0.000131324,9.09723e-06,-0.000131253,-0.00129035,1.56295,0.00081999,0.0342796,671,1156,-0.0194049,0.180466
-546,-132,0.0100708,-0.142212,-0.00191053,6.98657e-06,-6.27116e-07,6.98678e-06,-0.00191053,-1.57047,0.00127602,0.0382641,678,1156,0.0100497,0.142191
-539,-132,0.121826,0.0675049,-0.00272847,0.000194828,1.25811e-05,0.000194882,-0.00272853,1.56649,0.00188733,0.0409647,685,1156,0.121811,-0.0675173
-532,-132,0.0222778,-0.00170898,-0.00383307,0.000427806,5.81404e-05,0.000428599,-0.00383386,1.55715,0.00271009,0.0396163,692,1156,0.0223029,0.00165312
-525,-132,-0.0940552,-0.112915,-0.00538759,0.000683073,0.000171139,0.000687894,-0.00539241,1.54263,0.00384481,0.0398748,699,1156,-0.094071,0.112881
-518,-132,0,0,0,0,0,0,0,0,0,-1,706,1156,0,0
-511,-132,0,0,0,0,0,0,0,0,0,-1,713,1156,0,0
-504,-132,0,0,0,0,0,0,0,0,0,-1,720,1156,0,0
-497,-132,0,0,0,0,0,0,0,0,0,-1,727,1156,0,0
-490,-132,0,0,0,0,0,0,0,0,0,-1,734,1156,0,0
-483,-132,0,0,0,0,0,0,0,0,0,-1,741,1156,0,0
-476,-132,0,0,0,0,0,0,0,0,0,-1,748,1156,0,0
-469,-132,0,0,0,0,0,0,0,0,0,-1,755,1156,0,0
-462,-132,0,0,0,0,0,0,0,0,0,-1,762,1156,0,0
-455,-132,0,0,0,0,0,0,0,0,0,-1,769,1156,0,0
-448,-132,0,0,0,0,0,0,0,0,0,-1,776,1156,0,0
-441,-132,0,0,0,0,0,0,0,0,0,-1,783,1156,0,0
-434,-132,0,0,0,0,0,0,0,0,0,-1,790,1156,0,0
-427,-132,0,0,0,0,0,0,0,0,0,-1,797,1156,0,0
-420,-132,0,0,0,0,0,0,0,0,0,-1,804,1156,0,0
-413,-132,0,0,0,0,0,0,0,0,0,-1,811,1156,0,0
-406,-132,0,0,0,0,0,0,0,0,0,-1,818,1156,0,0
-399,-132,0,0,0,0,0,0,0,0,0,-1,825,1156,0,0
-392,-132,0,0,0,0,0,0,0,0,0,-1,832,1156,0,0
-385,-132,0,0,0,0,0,0,0,0,0,-1,839,1156,0,0
-378,-132,0,0,0,0,0,0,0,0,0,-1,846,1156,0,0
-371,-132,0,0,0,0,0,0,0,0,0,-1,853,1156,0,0
-364,-132,0,0,0,0,0,0,0,0,0,-1,860,1156,0,0
-357,-132,0,0,0,0,0,0,0,0,0,-1,867,1156,0,0
-350,-132,0,0,0,0,0,0,0,0,0,-1,874,1156,0,0
-343,-132,0,0,0,0,0,0,0,0,0,-1,881,1156,0,0
-336,-132,0,0,0,0,0,0,0,0,0,-1,888,1156,0,0
-329,-132,0,0,0,0,0,0,0,0,0,-1,895,1156,0,0
-322,-132,0,0,0,0,0,0,0,0,0,-1,902,1156,0,0
-315,-132,0,0,0,0,0,0,0,0,0,-1,909,1156,0,0
-308,-132,0,0,0,0,0,0,0,0,0,-1,916,1156,0,0
-301,-132,0,0,0,0,0,0,0,0,0,-1,923,1156,0,0
-294,-132,0,0,0,0,0,0,0,0,0,-1,930,1156,0,0
-287,-132,0,0,0,0,0,0,0,0,0,-1,937,1156,0,0
-280,-132,0,0,0,0,0,0,0,0,0,-1,944,1156,0,0
-273,-132,0,0,0,0,0,0,0,0,0,-1,951,1156,0,0
-266,-132,0,0,0,0,0,0,0,0,0,-1,958,1156,0,0
-259,-132,0,0,0,0,0,0,0,0,0,-1,965,1156,0,0
-252,-132,0,0,0,0,0,0,0,0,0,-1,972,1156,0,0
-245,-132,0,0,0,0,0,0,0,0,0,-1,979,1156,0,0
-238,-132,0,0,0,0,0,0,0,0,0,-1,986,1156,0,0
-231,-132,0,0,0,0,0,0,0,0,0,-1,993,1156,0,0
-224,-132,0,0,0,0,0,0,0,0,0,-1,1000,1156,0,0
-217,-132,0,0,0,0,0,0,0,0,0,-1,1007,1156,0,0
-210,-132,0,0,0,0,0,0,0,0,0,-1,1014,1156,0,0
-203,-132,0,0,0,0,0,0,0,0,0,-1,1021,1156,0,0
-196,-132,0,0,0,0,0,0,0,0,0,-1,1028,1156,0,0
-189,-132,0,0,0,0,0,0,0,0,0,-1,1035,1156,0,0
-182,-132,0,0,0,0,0,0,0,0,0,-1,1042,1156,0,0
-175,-132,0,0,0,0,0,0,0,0,0,-1,1049,1156,0,0
-168,-132,0,0,0,0,0,0,0,0,0,-1,1056,1156,0,0
-161,-132,0,0,0,0,0,0,0,0,0,-1,1063,1156,0,0
-154,-132,0,0,0,0,0,0,0,0,0,-1,1070,1156,0,0
-147,-132,0,0,0,0,0,0,0,0,0,-1,1077,1156,0,0
-140,-132,0,0,0,0,0,0,0,0,0,-1,1084,1156,0,0
-133,-132,0,0,0,0,0,0,0,0,0,-1,1091,1156,0,0
-126,-132,0,0,0,0,0,0,0,0,0,-1,1098,1156,0,0
-119,-132,0,0,0,0,0,0,0,0,0,-1,1105,1156,0,0
-112,-132,0,0,0,0,0,0,0,0,0,-1,1112,1156,0,0
-105,-132,0,0,0,0,0,0,0,0,0,-1,1119,1156,0,0
-98,-132,0,0,0,0,0,0,0,0,0,-1,1126,1156,0,0
-91,-132,0,0,0,0,0,0,0,0,0,-1,1133,1156,0,0
-84,-132,0,0,0,0,0,0,0,0,0,-1,1140,1156,0,0
-77,-132,0,0,0,0,0,0,0,0,0,-1,1147,1156,0,0
-70,-132,0,0,0,0,0,0,0,0,0,-1,1154,1156,0,0
-63,-132,0,0,0,0,0,0,0,0,0,-1,1161,1156,0,0
-56,-132,0,0,0,0,0,0,0,0,0,-1,1168,1156,0,0
-49,-132,0,0,0,0,0,0,0,0,0,-1,1175,1156,0,0
-42,-132,0,0,0,0,0,0,0,0,0,-1,1182,1156,0,0
-35,-132,0,0,0,0,0,0,0,0,0,-1,1189,1156,0,0
-28,-132,0,0,0,0,0,0,0,0,0,-1,1196,1156,0,0
-21,-132,0,0,0,0,0,0,0,0,0,-1,1203,1156,0,0
-14,-132,0,0,0,0,0,0,0,0,0,-1,1210,1156,0,0
-7,-132,0,0,0,0,0,0,0,0,0,-1,1217,1156,0,0
0,-132,0,0,0,0,0,0,0,0,0,-1,1224,1156,0,0
7,-132,0,0,0,0,0,0,0,0,0,-1,1231,1156,0,0
14,-132,0,0,0,0,0,0,0,0,0,-1,1238,1156,0,0
21,-132,0,0,0,0,0,0,0,0,0,-1,1245,1156,0,0
28,-132,0,0,0,0,0,0,0,0,0,-1,1252,1156,0,0
35,-132,0,0,0,0,0,0,0,0,0,-1,1259,1156,0,0
42,-132,0,0,0,0,0,0,0,0,0,-1,1266,1156,0,0
49,-132,0,0,0,0,0,0,0,0,0,-1,1273,1156,0,0
56,-132,0,0,0,0,0,0,0,0,0,-1,1280,1156,0,0
63,-132,0,0,0,0,0,0,0,0,0,-1,1287,1156,0,0
70,-132,0,0,0,0,0,0,0,0,0,-1,1294,1156,0,0
77,-132,0,0,0,0,0,0,0,0,0,-1,1301,1156,0,0
84,-132,0,0,0,0,0,0,0,0,0,-1,1308,1156,0,0
91,-132,0,0,0,0,0,0,0,0,0,-1,1315,1156,0,0
98,-132,0,0,0,0,0,0,0,0,0,-1,1322,1156,0,0
105,-132,0,0,0,0,0,0,0,0,0,-1,1329,1156,0,0
112,-132,0,0,0,0,0,0,0,0,0,-1,1336,1156,0,0
119,-132,0,0,0,0,0,0,0,0,0,-1,1343,1156,0,0
126,-132,0,0,0,0,0,0,0,0,0,-1,1350,1156,0,0
133,-132,0,0,0,0,0,0,0,0,0,-1,1357,1156,0,0
140,-132,0,0,0,0,0,0,0,0,0,-1,1364,1156,0,0
147,-132,0,0,0,0,0,0,0,0,0,-1,1371,1156,0,0
154,-132,0,0,0,0,0,0,0,0,0,-1,1378,1156,0,0
161,-132,0,0,0,0,0,0,0,0,0,-1,1385,1156,0,0
168,-132,0,0,0,0,0,0,0,0,0,-1,1392,1156,0,0
175,-132,0,0,0,0,0,0,0,0,0,-1,1399,1156,0,0
182,-132,0,0,0,0,0,0,0,0,0,-1,1406,1156,0,0
189,-132,0,0,0,0,0,0,0,0,0,-1,1413,1156,0,0
196,-132,0,0,0,0,0,0,0,0,0,-1,1420,1156,0,0
203,-132,0,0,0,0,0,0,0,0,0,-1,1427,1156,0,0
210,-132,0,0,0,0,0,0,0,0,0,-1,1434,1156,0,0
217,-132,0,0,0,0,0,0,0,0,0,-1,1441,1156,0,0
224,-132,0,0,0,0,0,0,0,0,0,-1,1448,1156,0,0
231,-132,0,0,0,0,0,0,0,0,0,-1,1455,1156,0,0
238,-132,0,0,0,0,0,0,0,0,0,-1,1462,1156,0,0
245,-132,0,0,0,0,0,0,0,0,0,-1,1469,1156,0,0
252,-132,0,0,0,0,0,0,0,0,0,-1,1476,1156,0,0
259,-132,0,0,0,0,0,0,0,0,0,-1,1483,1156,0,0
266,-132,0,0,0,0,0,0,0,0,0,-1,1490,1156,0,0
273,-132,0,0,0,0,0,0,0,0,0,-1,1497,1156,0,0
280,-132,0,0,0,0,0,0,0,0,0,-1,1504,1156,0,0
287,-132,0,0,0,0,0,0,0,0,0,-1,1511,1156,0,0
294,-132,0,0,0,0,0,0,0,0,0,-1,1518,1156,0,0
301,-132,0,0,0,0,0,0,0,0,0,-1,1525,1156,0,0
308,-132,0,0,0,0,0,0,0,0,0,-1,1532,1156,0,0
315,-132,0,0,0,0,0,0,0,0,0,-1,1539,1156,0,0
322,-132,0,0,0,0,0,0,0,0,0,-1,1546,1156,0,0
329,-132,0,0,0,0,0,0,0,0,0,-1,1553,1156,0,0
336,-132,0,0,0,0,0,0,0,0,0,-1,1560,1156,0,0
343,-132,0,0,0,0,0,0,0,0,0,-1,1567,1156,0,0
350,-132,0,0,0,0,0,0,0,0,0,-1,1574,1156,0,0
357,-132,0,0,0,0,0,0,0,0,0,-1,1581,1156,0,0
364,-132,0,0,0,0,0,0,0,0,0,-1,1588,1156,0,0
371,-132,0,0,0,0,0,0,0,0,0,-1,1595,1156,0,0
378,-132,0,0,0,0,0,0,0,0,0,-1,1602,1156,0,0
385,-132,0,0,0,0,0,0,0,0,0,-1,1609,1156,0,0
392,-132,0,0,0,0,0,0,0,0,0,-1,1616,1156,0,0
399,-132,0,0,0,0,0,0,0,0,0,-1,1623,1156,0,0
406,-132,0,0,0,0,0,0,0,0,0,-1,1630,1156,0,0
413,-132,0,0,0,0,0,0,0,0,0,-1,1637,1156,0,0
420,-132,0,0,0,0,0,0,0,0,0,-1,1644,1156,0,0
427,-132,0,0,0,0,0,0,0,0,0,-1,1651,1156,0,0
434,-132,0,0,0,0,0,0,0,0,0,-1,1658,1156,0,0
441,-132,0,0,0,0,0,0,0,0,0,-1,1665,1156,0,0
448,-132,0,0,0,0,0,0,0,0,0,-1,1672,1156,0,0
455,-132,0,0,0,0,0,0,0,0,0,-1,1679,1156,0,0
462,-132,0,0,0,0,0,0,0,0,0,-1,1686,1156,0,0
469,-132,0,0,0,0,0,0,0,0,0,-1,1693,1156,0,0
476,-132,0,0,0,0,0,0,0,0,0,-1,1700,1156,0,0
483,-132,0,0,0,0,0,0,0,0,0,-1,1707,1156,0,0
490,-132,0,0,0,0,0,0,0,0,0,-1,1714,1156,0,0
497,-132,0,0,0,0,0,0,0,0,0,-1,1721,1156,0,0
504,-132,0,0,0,0,0,0,0,0,0,-1,1728,1156,0,0
511,-132,0,0,0,0,0,0,0,0,0,-1,1735,1156,0,0
518,-132,0,0,0,0,0,0,0,0,0,-1,1742,1156,0,0
525,-132,0,0,0,0,0,0,0,0,0,-1,1749,1156,0,0
532,-132,0,0,0,0,0,0,0,0,0,-1,1756,1156,0,0
539,-132,0,0,0,0,0,0,0,0,0,-1,1763,1156,0,0
546,-132,0,0,0,0,0,0,0,0,0,-1,1770,1156,0,0
553,-132,0,0,0,0,0,0,0,0,0,-1,1777,1156,0,0
560,-132,0,0,0,0,0,0,0,0,0,-1,1784,1156,0,0
567,-132,0,0,0,0,0,0,0,0,0,-1,1791,1156,0,0
574,-132,0,0,0,0,0,0,0,0,0,-1,1798,1156,0,0
581,-132,0,0,0,0,0,0,0,0,0,-1,1805,1156,0,0
588,-132,0,0,0,0,0,0,0,0,0,-1,1812,1156,0,0
595,-132,0,0,0,0,0,0,0,0,0,-1,1819,1156,0,0
602,-132,0,0,0,0,0,0,0,0,0,-1,1826,1156,0,0
609,-132,0,0,0,0,0,0,0,0,0,-1,1833,1156,0,0
616,-132,0,0,0,0,0,0,0,0,0,-1,1840,1156,0,0
623,-132,0,0,0,0,0,0,0,0,0,-1,1847,1156,0,0
630,-132,0,0,0,0,0,0,0,0,0,-1,1854,1156,0,0
637,-132,0,0,0,0,0,0,0,0,0,-1,1861,1156,0,0
644,-132,-0.0238037,-0.0948486,0.00192011,-0.00126686,0.00123991,0.00234568,-0.00169243,0.330625,0.00234155,0.0389592,1868,1156,-0.0238375,0.0949085
651,-132,0.0628662,-0.00109863,0.00108918,-0.000630097,0.000949759,0.00151057,-0.00105148,0.417581,0.00148709,0.0385063,1875,1156,0.0628645,0.0011378
658,-132,-0.0240479,-0.0516357,0.000648886,-0.000104396,0.000731391,0.00109492,-0.000550428,0.547624,0.000967124,0.0373604,1882,1156,-0.024085,0.0516233
665,-132,-0.0899658,-0.133667,0.000315864,0.000282638,0.000517441,0.000816959,-0.000218457,0.769351,0.000630208,0.0372791,1889,1156,-0.0899174,0.133637
672,-132,0.0488281,-0.126953,6.74015e-05,0.000556165,0.000330441,0.000722774,-9.92082e-05,1.10379,0.000518095,0.0352487,1896,1156,0.0488393,0.126945
679,-132,0.0126953,-0.0440674,-9.33624e-05,0.000726453,0.000175158,0.000762308,-0.000129218,1.36888,0.000556303,0.035113,1903,1156,0.0126619,0.0440659
686,-132,-0.0352783,0.0264893,-0.000204451,0.000813061,5.14637e-05,0.000815657,-0.000207047,1.52039,0.000624338,0.0329524,1910,1156,-0.0353219,-0.0265031
693,-132,-0.0480957,-0.0090332,-0.000305152,0.000886382,-2.47721e-05,0.000886897,-0.000305666,-1.55002,0.000715266,0.0225287,1917,1156,-0.0480738,0.00905133
700,-132,0.0065918,-0.0129395,-0.000462668,0.000842761,-0.000105214,0.000851186,-0.000471094,-1.49089,0.000773861,0.0210714,1924,1156,0.00653489,0.0129954
707,-132,0.0560303,-0.0877686,-0.000411811,0.000748528,-0.000162181,0.00077077,-0.000434053,-1.43451,0.000704602,0.0288657,1931,1156,0.0560231,0.0877237
714,-132,-0.0397949,-0.142822,-0.000319879,0.000640397,-0.000160089,0.000666382,-0.000345865,-1.40988,0.000594106,0.0276637,1938,1156,-0.0398312,0.142842
721,-132,-0.0550537,-0.065918,-0.000390457,0.000535808,-0.000105435,0.000547658,-0.000402307,-1.45888,0.000550598,0.0185621,1945,1156,-0.0550565,0.0659268
728,-132,-0.0528564,-0.0618896,-0.000509454,0.000351147,4.98891e-05,0.00035403,-0.000512337,1.51308,0.000502973,0.0100089,1952,1156,-0.0528535,0.0618424
735,-132,-0.024292,-0.0915527,-0.000631944,1.89518e-05,0.000332837,0.000159011,-0.000772003,1.17249,0.000575048,0.0125894,1959,1156,-0.0242367,0.0914956
742,-132,-0.032959,-0.111938,-0.000846049,-0.000527815,0.000604477,-6.18632e-05,-0.001312,0.914094,0.000854793,0.0184864,1966,1156,-0.0329635,0.111934
749,-132,-0.043335,-0.0809326,-0.00108881,-0.000655126,0.000253131,-0.000538658,-0.00120528,1.13957,0.000697175,0.0222063,1973,1156,-0.0433888,0.0808947
756,-132,-0.0461426,-0.0883789,-0.00139457,-0.000580275,-0.000552177,-0.00030137,-0.00167347,-1.10308,0.00103,0.021301,1980,1156,-0.0461287,0.0883879
763,-132,-0.00744629,-0.0664063,-0.00165465,-0.000740242,-0.00129359,0.000174562,-0.00256945,-0.955265,0.00177402,0.0122172,1987,1156,-0.00747436,0.0664632
770,-132,-0.0181885,-0.0699463,-0.00197035,-0.000770859,-0.00240482,0.00110787,-0.00384908,-0.907602,0.00300422,0.0117894,1994,1156,-0.0182409,0.0700014
777,-132,-0.0563965,-0.103394,-0.00233405,-0.000656324,-0.00414394,0.00273281,-0.00572318,-0.885264,0.00498279,0.0211268,2001,1156,-0.0563819,0.103343
784,-132,-0.130981,-0.109619,-0.00264755,-0.000330276,-0.00668181,0.0052926,-0.00827043,-0.871245,0.00789328,0.0430667,2008,1156,-0.130957,0.109619
791,-132,-0.112061,-0.11084,-0.00282986,0.000290671,-0.0102476,0.00909613,-0.0116353,-0.860946,0.0119992,0.0487013,2015,1156,-0.112028,0.110883
798,-132,0.347778,-0.747925,-0.00281829,0.00131163,-0.0150873,0.0144746,-0.0159813,-0.853409,0.0175909,0.0479169,2022,1156,0.347785,0.747972
805,-132,0.44043,-0.966187,-0.00245905,0.00284131,-0.021467,0.0218211,-0.0214389,-0.846814,0.0249765,0.0457091,2029,1156,0.440417,0.966161
812,-132,0.287354,-0.973511,-0.00139902,0.00499043,-0.0297781,0.0317447,-0.0281533,-0.838836,0.0346028,0.0456808,2036,1156,0.287411,0.973487
-700,-139,0,0,0,0,0,0,0,0,0,-1,524,1163,0,0
-693,-139,0.095459,-0.996338,0,0,0,0,0,0,0,-1,531,1163,0.0954431,0.996391
-686,-139,0.55072,0.668457,0,0,0,0,0,0,0,-1,538,1163,0.550733,-0.668405
-679,-139,0.439392,0.59436,-0.0264234,0.0184477,0.00494493,0.0189862,-0.0269619,1.46233,0.026661,0.0494108,545,1163,0.439368,-0.594342
-672,-139,0.0743408,0.149536,-0.0207507,0.0192785,0.00245108,0.0194281,-0.0209002,1.50987,0.0232887,0.0457924,552,1163,0.0743462,-0.149505
-665,-139,0.397095,0.676514,-0.0161503,0.0184085,0.000937369,0.0184339,-0.0161757,1.5437,0.019996,0.0420099,559,1163,0.397109,-0.676517
-658,-139,-0.405396,-0.265137,-0.0124102,0.0165053,0.000117586,0.0165058,-0.0124107,1.56673,0.0167506,0.0445248,566,1163,-0.405388,0.265139
-651,-139,-0.125366,-0.0736084,-0.00938662,0.0140546,-0.000227139,0.0140568,-0.00938882,-1.56111,0.0136255,0.0395458,573,1163,-0.12539,0.0736412
-644,-139,-0.0461426,-0.0782471,-0.00695634,0.0114252,-0.000276832,0.0114294,-0.0069605,-1.55574,0.0107214,0.0211862,580,1163,-0.0461265,0.0782831
-637,-139,-0.00744629,-0.0557861,-0.00491945,0.00895096,-0.000236958,0.00895501,-0.00492349,-1.55372,0.00812467,0.0123587,587,1163,-0.00745905,0.0557612
-630,-139,0.00201416,-0.0601807,-0.00338508,0.0071311,-0.000159702,0.00713352,-0.00338751,-1.55561,0.00620133,0.0107802,594,1163,0.00202457,0.0601611
-623,-139,-0.0221558,-0.0626221,-0.00207226,0.00498674,-0.000227543,0.00499406,-0.00207958,-1.53861,0.00419793,0.0158578,601,1163,-0.022172,0.0626229
-616,-139,-0.0405884,-0.0782471,-0.00140694,0.00292364,-7.68338e-06,0.00292366,-0.00140696,-1.56902,0.00255088,0.0167785,608,1163,-0.0405616,0.0781979
-609,-139,-0.0452881,-0.0726318,-0.00101374,0.00158264,0.000320495,0.00162161,-0.00105272,1.44978,0.00155563,0.0196568,615,1163,-0.0452928,0.0726414
-602,-139,-0.0380859,-0.0578613,-0.000543566,0.000610128,0.000690389,0.000932942,-0.000866379,1.13342,0.00103908,0.0110779,622,1163,-0.0380936,0.0579173
-595,-139,-0.00323486,-0.0526123,-0.000230813,1.15423e-06,0.000529325,0.000427053,-0.000656712,0.893252,0.000630378,0.00946644,629,1163,-0.0032596,0.0525895
-588,-139,-0.00732422,-0.0646973,-0.000118147,-0.000160679,0.000187804,4.95913e-05,-0.000328418,0.729021,0.00023721,0.0139773,636,1163,-0.00734941,0.0646703
-581,-139,-0.0494385,0.0125732,-0.000225642,-0.000150647,4.67237e-05,-0.000128235,-0.000248054,1.12354,0.000143242,0.0295438,643,1163,-0.0494618,-0.0126105
-574,-139,-0.0777588,0.123169,-0.000391272,-0.000157792,4.96526e-05,-0.000147671,-0.000401393,1.36972,0.000234425,0.0376167,650,1163,-0.0777534,-0.123221
-567,-139,-0.0742798,0.0744629,-0.000531256,-0.000151288,1.76433e-05,-0.000150471,-0.000532074,1.5245,0.000316707,0.0358559,657,1163,-0.0742801,-0.0744242
-560,-139,0.00579834,-0.0717773,-0.000792728,-0.000134268,-2.27736e-05,-0.000133481,-0.000793515,-1.53627,0.000490607,0.0323613,664,1163,0.00580021,0.0717846
-553,-139,0.0316162,-0.15625,-0.00118086,-9.7139e-05,-4.97171e-05,-9.48629e-05,-0.00118314,-1.52505,0.000759118,0.035558,671,1163,0.0316299,0.156232
-546,-139,-0.0119019,-0.151245,-0.00171003,-5.37605e-05,-6.09084e-05,-5.15237e-05,-0.00171226,-1.53409,0.00112473,0.0387494,678,1163,-0.011906,0.1512
-539,-139,-0.0152588,-0.115601,-0.00238758,-1.01179e-05,-4.10442e-05,-9.4095e-06,-0.00238829,-1.55354,0.00158906,0.040069,685,1163,-0.0152552,0.115573
-532,-139,-0.0631714,-0.0697021,-0.00327809,1.57052e-05,2.08878e-05,1.58376e-05,-0.00327823,1.56446,0.00219078,0.037951,692,1163,-0.0631808,0.069668
-525,-139,-0.123779,-0.0385742,-0.00449312,-8.18637e-06,0.000156242,-2.74996e-06,-0.00449856,1.53602,0.00299812,0.0362057,699,1163,-0.123784,0.0385491
-518,-139,0,0,0,0,0,0,0,0,0,-1,706,1163,0,0
-511,-139,0,0,0,0,0,0,0,0,0,-1,713,1163,0,0
-504,-139,0,0,0,0,0,0,0,0,0,-1,720,1163,0,0
-497,-139,0,0,0,0,0,0,0,0,0,-1,727,1163,0,0
-490,-139,0,0,0,0,0,0,0,0,0,-1,734,1163,0,0
-483,-139,0,0,0,0,0,0,0,0,0,-1,741,1163,0,0
-476,-139,0,0,0,0,0,0,0,0,0,-1,748,1163,0,0
-469,-139,0,0,0,0,0,0,0,0,0,-1,755,1163,0,0
-462,-139,0,0,0,0,0,0,0,0,0,-1,762,1163,0,0
-455,-139,0,0,0,0,0,0,0,0,0,-1,769,1163,0,0
-448,-139,0,0,0,0,0,0,0,0,0,-1,776,1163,0,0
-441,-139,0,0,0,0,0,0,0,0,0,-1,783,1163,0,0
-434,-139,0,0,0,0,0,0,0,0,0,-1,790,1163,0,0
-427,-139,0,0,0,0,0,0,0,0,0,-1,797,1163,0,0
-420,-139,0,0,0,0,0,0,0,0,0,-1,804,1163,0,0
-413,-139,0,0,0,0,0,0,0,0,0,-1,811,1163,0,0
-406,-139,0,0,0,0,0,0,0,0,0,-1,818,1163,0,0
-399,-139,0,0,0,0,0,0,0,0,0,-1,825,1163,0,0
-392,-139,0,0,0,0,0,0,0,0,0,-1,832,1163,0,0
-385,-139,0,0,0,0,0,0,0,0,0,-1,839,1163,0,0
-378,-139,0,0,0,0,0,0,0,0,0,-1,846,1163,0,0
-371,-139,0,0,0,0,0,0,0,0,0,-1,853,1163,0,0
-364,-139,0,0,0,0,0,0,0,0,0,-1,860,1163,0,0
-357,-139,0,0,0,0,0,0,0,0,0,-1,867,1163,0,0
-350,-139,0,0,0,0,0,0,0,0,0,-1,874,1163,0,0
-343,-139,0,0,0,0,0,0,0,0,0,-1,881,1163,0,0
-336,-139,0,0,0,0,0,0,0,0,0,-1,888,1163,0,0
-329,-139,0,0,0,0,0,0,0,0,0,-1,895,1163,0,0
-322,-139,0,0,0,0,0,0,0,0,0,-1,902,1163,0,0
-315,-139,0,0,0,0,0,0,0,0,0,-1,909,1163,0,0
-308,-139,0,0,0,0,0,0,0,0,0,-1,916,1163,0,0
-301,-139,0,0,0,0,0,0,0,0,0,-1,923,1163,0,0
-294,-139,0,0,0,0,0,0,0,0,0,-1,930,1163,0,0
-287,-139,0,0,0,0,0,0,0,0,0,-1,937,1163,0,0
-280,-139,0,0,0,0,0,0,0,0,0,-1,944,1163,0,0
-273,-139,0,0,0,0,0,0,0,0,0,-1,951,1163,0,0
-266,-139,0,0,0,0,0,0,0,0,0,-1,958,1163,0,0
-259,-139,0,0,0,0,0,0,0,0,0,-1,965,1163,0,0
-252,-139,0,0,0,0,0,0,0,0,0,-1,972,1163,0,0
-245,-139,0,0,0,0,0,0,0,0,0,-1,979,1163,0,0
-238,-139,0,0,0,0,0,0,0,0,0,-1,986,1163,0,0
-231,-139,0,0,0,0,0,0,0,0,0,-1,993,1163,0,0
-224,-139,0,0,0,0,0,0,0,0,0,-1,1000,1163,0,0
-217,-139,0,0,0,0,0,0,0,0,0,-1,1007,1163,0,0
-210,-139,0,0,0,0,0,0,0,0,0,-1,1014,1163,0,0
-203,-139,0,0,0,0,0,0,0,0,0,-1,1021,1163,0,0
-196,-139,0,0,0,0,0,0,0,0,0,-1,1028,1163,0,0
-189,-139,0,0,0,0,0,0,0,0,0,-1,1035,1163,0,0
-182,-139,0,0,0,0,0,0,0,0,0,-1,1042,1163,0,0
-175,-139,0,0,0,0,0,0,0,0,0,-1,1049,1163,0,0
-168,-139,0,0,0,0,0,0,0,0,0,-1,1056,1163,0,0
-161,-139,0,0,0,0,0,0,0,0,0,-1,1063,1163,0,0
-154,-139,0,0,0,0,0,0,0,0,0,-1,1070,1163,0,0
-147,-139,0,0,0,0,0,0,0,0,0,-1,1077,1163,0,0
-140,-139,0,0,0,0,0,0,0,0,0,-1,1084,1163,0,0
-133,-139,0,0,0,0,0,0,0,0,0,-1,1091,1163,0,0
-126,-139,0,0,0,0,0,0,0,0,0,-1,1098,1163,0,0
-119,-139,0,0,0,0,0,0,0,0,0,-1,1105,1163,0,0
-112,-139,0,0,0,0,0,0,0,0,0,-1,1112,1163,0,0
-105,-139,0,0,0,0,0,0,0,0,0,-1,1119,1163,0,0
-98,-139,0,0,0,0,0,0,0,0,0,-1,1126,1163,0,0
-91,-139,0,0,0,0,0,0,0,0,0,-1,1133,1163,0,0
-84,-139,0,0,0,0,0,0,0,0,0,-1,1140,1163,0,0
-77,-139,0,0,0,0,0,0,0,0,0,-1,1147,1163,0,0
-70,-139,0,0,0,0,0,0,0,0,0,-1,1154,1163,0,0
-63,-139,0,0,0,0,0,0,0,0,0,-1,1161,1163,0,0
-56,-139,0,0,0,0,0,0,0,0,0,-1,1168,1163,0,0
-49,-139,0,0,0,0,0,0,0,0,0,-1,1175,1163,0,0
-42,-139,0,0,0,0,0,0,0,0,0,-1,1182,1163,0,0
-35,-139,0,0,0,0,0,0,0,0,0,-1,1189,1163,0,0
-28,-139,0,0,0,0,0,0,0,0,0,-1,1196,1163,0,0
-21,-139,0,0,0,0,0,0,0,0,0,-1,1203,1163,0,0
-14,-139,0,0,0,0,0,0,0,0,0,-1,1210,1163,0,0
-7,-139,0,0,0,0,0,0,0,0,0,-1,1217,1163,0,0
0,-139,0,0,0,0,0,0,0,0,0,-1,1224,1163,0,0
7,-139,0,0,0,0,0,0,0,0,0,-1,1231,1163,0,0
14,-139,0,0,0,0,0,0,0,0,0,-1,1238,1163,0,0
21,-139,0,0,0,0,0,0,0,0,0,-1,1245,1163,0,0
28,-139,0,0,0,0,0,0,0,0,0,-1,1252,1163,0,0
35,-139,0,0,0,0,0,0,0,0,0,-1,1259,1163,0,0
42,-139,0,0,0,0,0,0,0,0,0,-1,1266,1163,0,0
49,-139,0,0,0,0,0,0,0,0,0,-1,1273,1163,0,0
56,-139,0,0,0,0,0,0,0,0,0,-1,1280,1163,0,0
63,-139,0,0,0,0,0,0,0,0,0,-1,1287,1163,0,0
70,-139,0,0,0,0,0,0,0,0,0,-1,1294,1163,0,0
77,-139,0,0,0,0,0,0,0,0,0,-1,1301,1163,0,0
84,-139,0,0,0,0,0,0,0,0,0,-1,1308,1163,0,0
91,-139,0,0,0,0,0,0,0,0,0,-1,1315,1163,0,0
98,-139,0,0,0,0,0,0,0,0,0,-1,1322,1163,0,0
105,-139,0,0,0,0,0,0,0,0,0,-1,1329,1163,0,0
112,-139,0,0,0,0,0,0,0,0,0,-1,1336,1163,0,0
119,-139,0,0,0,0,0,0,0,0,0,-1,1343,1163,0,0
126,-139,0,0,0,0,0,0,0,0,0,-1,1350,1163,0,0
133,-139,0,0,0,0,0,0,0,0,0,-1,1357,1163,0,0
140,-139,0,0,0,0,0,0,0,0,0,-1,1364,1163,0,0
147,-139,0,0,0,0,0,0,0,0,0,-1,1371,1163,0,0
154,-139,0,0,0,0,0,0,0,0,0,-1,1378,1163,0,0
161,-139,0,0,0,0,0,0,0,0,0,-1,1385,1163,0,0
168,-139,0,0,0,0,0,0,0,0,0,-1,1392,1163,0,0
175,-139,0,0,0,0,0,0,0,0,0,-1,1399,1163,0,0
182,-139,0,0,0,0,0,0,0,0,0,-1,1406,1163,0,0
189,-139,0,0,0,0,0,0,0,0,0,-1,1413,1163,0,0
196,-139,0,0,0,0,0,0,0,0,0,-1,1420,1163,0,0
203,-139,0,0,0,0,0,0,0,0,0,-1,1427,1163,0,0
210,-139,0,0,0,0,0,0,0,0,0,-1,1434,1163,0,0
217,-139,0,0,0,0,0,0,0,0,0,-1,1441,1163,0,0
224,-139,0,0,0,0,0,0,0,0,0,-1,1448,1163,0,0
231,-139,0,0,0,0,0,0,0,0,0,-1,1455,1163,0,0
238,-139,0,0,0,0,0,0,0,0,0,-1,1462,1163,0,0
245,-139,0,0,0,0,0,0,0,0,0,-1,1469,1163,0,0
252,-139,0,0,0,0,0,0,0,0,0,-1,1476,1163,0,0
259,-139,0,0,0,0,0,0,0,0,0,-1,1483,1163,0,0
266,-139,0,0,0,0,0,0,0,0,0,-1,1490,1163,0,0
273,-139,0,0,0,0,0,0,0,0,0,-1,1497,1163,0,0
280,-139,0,0,0,0,0,0,0,0,0,-1,1504,1163,0,0
287,-139,0,0,0,0,0,0,0,0,0,-1,1511,1163,0,0
294,-139,0,0,0,0,0,0,0,0,0,-1,1518,1163,0,0
301,-139,0,0,0,0,0,0,0,0,0,-1,1525,1163,0,0
308,-139,0,0,0,0,0,0,0,0,0,-1,1532,1163,0,0
315,-139,0,0,0,0,0,0,0,0,0,-1,1539,1163,0,0
322,-139,0,0,0,0,0,0,0,0,0,-1,1546,1163,0,0
329,-139,0,0,0,0,0,0,0,0,0,-1,1553,1163,0,0
336,-139,0,0,0,0,0,0,0,0,0,-1,1560,1163,0,0
343,-139,0,0,0,0,0,0,0,0,0,-1,1567,1163,0,0
350,-139,0,0,0,0,0,0,0,0,0,-1,1574,1163,0,0
357,-139,0,0,0,0,0,0,0,0,0,-1,1581,1163,0,0
364,-139,0,0,0,0,0,0,0,0,0,-1,1588,1163,0,0
371,-139,0,0,0,0,0,0,0,0,0,-1,1595,1163,0,0
378,-139,0,0,0,0,0,0,0,0,0,-1,1602,1163,0,0
385,-139,0,0,0,0,0,0,0,0,0,-1,1609,1163,0,0
392,-139,0,0,0,0,0,0,0,0,0,-1,1616,1163,0,0
399,-139,0,0,0,0,0,0,0,0,0,-1,1623,1163,0,0
406,-139,0,0,0,0,0,0,0,0,0,-1,1630,1163,0,0
413,-139,0,0,0,0,0,0,0,0,0,-1,1637,1163,0,0
420,-139,0,0,0,0,0,0,0,0,0,-1,1644,1163,0,0
427,-139,0,0,0,0,0,0,0,0,0,-1,1651,1163,0,0
434,-139,0,0,0,0,0,0,0,0,0,-1,1658,1163,0,0
441,-139,0,0,0,0,0,0,0,0,0,-1,1665,1163,0,0
448,-139,0,0,0,0,0,0,0,0,0,-1,1672,1163,0,0
455,-139,0,0,0,0,0,0,0,0,0,-1,1679,1163,0,0
462,-139,0,0,0,0,0,0,0,0,0,-1,1686,1163,0,0
469,-139,0,0,0,0,0,0,0,0,0,-1,1693,1163,0,0
476,-139,0,0,0,0,0,0,0,0,0,-1,1700,1163,0,0
483,-139,0,0,0,0,0,0,0,0,0,-1,1707,1163,0,0
490,-139,0,0,0,0,0,0,0,0,0,-1,1714,1163,0,0
497,-139,0,0,0,0,0,0,0,0,0,-1,1721,1163,0,0
504,-139,0,0,0,0,0,0,0,0,0,-1,1728,1163,0,0
511,-139,0,0,0,0,0,0,0,0,0,-1,1735,1163,0,0
518,-139,0,0,0,0,0,0,0,0,0,-1,1742,1163,0,0
525,-139,0,0,0,0,0,0,0,0,0,-1,1749,1163,0,0
532,-139,0,0,0,0,0,0,0,0,0,-1,1756,1163,0,0
539,-139,0,0,0,0,0,0,0,0,0,-1,1763,1163,0,0
546,-139,0,0,0,0,0,0,0,0,0,-1,1770,1163,0,0
553,-139,0,0,0,0,0,0,0,0,0,-1,1777,1163,0,0
560,-139,0,0,0,0,0,0,0,0,0,-1,1784,1163,0,0
567,-139,0,0,0,0,0,0,0,0,0,-1,1791,1163,0,0
574,-139,0,0,0,0,0,0,0,0,0,-1,1798,1163,0,0
581,-139,0,0,0,0,0,0,0,0,0,-1,1805,1163,0,0
588,-139,0,0,0,0,0,0,0,0,0,-1,1812,1163,0,0
595,-139,0,0,0,0,0,0,0,0,0,-1,1819,1163,0,0
602,-139,0,0,0,0,0,0,0,0,0,-1,1826,1163,0,0
609,-139,0,0,0,0,0,0,0,0,0,-1,1833,1163,0,0
616,-139,0,0,0,0,0,0,0,0,0,-1,1840,1163,0,0
623,-139,0,0,0,0,0,0,0,0,0,-1,1847,1163,0,0
630,-139,0,0,0,0,0,0,0,0,0,-1,1854,1163,0,0
637,-139,0,0,0,0,0,0,0,0,0,-1,1861,1163,0,0
644,-139,-0.0194092,-0.0594482,0.00170681,-0.00159372,0.001096,0.0020376,-0.00192451,0.293124,0.00228783,0.0371655,1868,1163,-0.0194699,0.059399
651,-139,0.0300293,-0.0187988,0.000976503,-0.000814271,0.000836457,0.00130642,-0.00114419,0.375692,0.0014159,0.0389857,1875,1163,0.0299906,0.0187911
658,-139,0.00341797,-0.0736084,0.00057968,-0.000165507,0.00066693,0.000971037,-0.000556864,0.530661,0.000892872,0.0388567,1882,1163,0.00346819,0.0735865
665,-139,-0.0418701,0.0192871,0.00025757,0.000324089,0.000500742,0.000792675,-0.000211015,0.81856,0.000611056,0.0351911,1889,1163,-0.0418175,-0.019268
672,-139,0.0606689,0.0129395,1.32451e-05,0.000672437,0.000355855,0.000827884,-0.000142202,1.15895,0.00060492,0.0340971,1896,1163,0.0606737,-0.0129044
679,-139,0.0527344,0.0111084,-0.000150739,0.000890721,0.000233213,0.000940559,-0.000200577,1.36026,0.000703495,0.0327809,1903,1163,0.0526759,-0.0110745
686,-139,-0.0117188,0.00402832,-0.000267016,0.00100344,0.000130144,0.00101664,-0.000280211,1.46976,0.00078795,0.0270352,1910,1163,-0.0117266,-0.00408925
693,-139,-0.0285645,-0.0400391,-0.000368712,0.00108952,6.95944e-05,0.00109283,-0.000372026,1.52322,0.000879205,0.0143114,1917,1163,-0.0286049,0.040048
700,-139,0.00109863,-0.0166016,-0.000505404,0.00103329,-3.05437e-06,0.0010333,-0.00050541,-1.56881,0.000905633,0.0265451,1924,1163,0.0011395,0.0165409
707,-139,-0.00634766,-0.0687256,-0.00045447,0.00091667,-6.56267e-05,0.000919804,-0.000457604,-1.52308,0.000810033,0.0203719,1931,1163,-0.00636316,0.0686878
714,-139,-0.0153809,-0.120728,-0.000376791,0.000772275,-7.63547e-05,0.000777327,-0.000381842,-1.50473,0.000682107,0.0221208,1938,1163,-0.0153784,0.1207
721,-139,-0.053833,-0.0634766,-0.000443015,0.000623031,-1.77024e-05,0.000623325,-0.000443309,-1.5542,0.000618738,0.0160163,1945,1163,-0.0537835,0.0634548
728,-139,-0.0319824,-0.0705566,-0.000565599,0.00037397,0.000188469,0.000410366,-0.000601994,1.38003,0.000587966,0.0171707,1952,1163,-0.0320093,0.0705076
735,-139,-0.0288086,-0.107788,-0.000714261,-1.33406e-05,0.000549243,0.000287729,-0.00101533,1.06937,0.000790449,0.014902,1959,1163,-0.0288002,0.107825
742,-139,-0.0218506,-0.154663,-0.000952477,-0.000634696,0.000892799,0.000113242,-0.00170041,0.873461,0.00117318,0.0201105,1966,1163,-0.0218704,0.154617
749,-139,-0.0438232,-0.144287,-0.0012393,-0.000884312,0.000571994,-0.000462905,-0.0016607,0.93584,0.000989606,0.0175896,1973,1163,-0.0437921,0.144256
756,-139,-0.0356445,-0.0822754,-0.00155433,-0.000881628,-0.000189395,-0.00083197,-0.00160398,-1.31438,0.000926276,0.010604,1980,1163,-0.0357034,0.0823028
763,-139,-0.0234375,-0.0821533,-0.00185896,-0.00111825,-0.000894189,-0.000520751,-0.00245645,-0.981733,0.0014946,0.00995867,1987,1163,-0.0234801,0.0821756
770,-139,-0.0336914,-0.081543,-0.0022216,-0.00123887,-0.0019794,0.000309239,-0.00376971,-0.907059,0.00262231,0.0110775,1994,1163,-0.0336365,0.0815947
777,-139,-0.0771484,-0.0976563,-0.00261806,-0.00121687,-0.00375835,0.00190563,-0.00574056,-0.877545,0.00459588,0.0215381,2001,1163,-0.0771669,0.0976062
784,-139,-0.315918,0.0773926,-0.00293648,-0.000966935,-0.00644164,0.00456478,-0.00846819,-0.861249,0.00763625,0.0396687,2008,1163,-0.315952,-0.0773753
791,-139,-0.616577,0.344482,-0.00308488,-0.000379608,-0.0103138,0.00866991,-0.0121344,-0.8506,0.0120668,0.047312,2015,1163,-0.616538,-0.344525
798,-139,0.834106,-0.878906,0,0,0,0,0,0,0,-1,2022,1163,0.834123,0.87894
805,-139,0.476074,-0.736816,0,0,0,0,0,0,0,-1,2029,1163,0.476111,0.736775
812,-139,0,0,0,0,0,0,0,0,0,-1,2036,1163,0,0
-700,-146,0,0,0,0,0,0,0,0,0,-1,524,1170,0,0
-693,-146,0.215576,-1.55774,0,0,0,0,0,0,0,-1,531,1170,0.215565,1.55777
-686,-146,0.0892334,-0.753052,-0.0318235,0.0156922,0.00860451,0.0172023,-0.0333337,1.39706,0.0296683,0.0470628,538,1170,0.0892595,0.75308
-679,-146,0.160278,-0.51062,-0.0258835,0.0196291,0.00528943,0.0202358,-0.0264902,1.45661,0.0270577,0.0487917,545,1170,0.160248,0.510581
-672,-146,0.183105,-0.0809326,-0.0208319,0.020601,0.00318019,0.0208436,-0.0210746,1.49464,0.0242016,0.045684,552,1170,0.183085,0.0809577
-665,-146,-0.378296,-0.44165,-0.0165926,0.0197244,0.00190723,0.0198243,-0.0166924,1.51847,0.0211088,0.0426377,559,1170,-0.378296,0.441637
-658,-146,-0.0681763,-0.324585,-0.0130294,0.0177213,0.00120129,0.0177682,-0.0130763,1.53181,0.0178766,0.0436271,566,1170,-0.0681932,0.324606
-651,-146,0.00695801,-0.210815,-0.0100545,0.015113,0.000865962,0.0151428,-0.0100843,1.53644,0.0146621,0.0356656,573,1170,0.006959,0.210794
-644,-146,-0.0125122,-0.113403,-0.00759292,0.0122971,0.000748107,0.0123252,-0.00762102,1.53325,0.0116222,0.0189065,580,1170,-0.0125288,0.113413
-637,-146,0.00415039,-0.0712891,-0.005534,0.00960861,0.000689611,0.00963995,-0.00556534,1.52538,0.00888322,0.0105434,587,1170,0.00415753,0.0712915
-630,-146,0.0112915,-0.0638428,-0.00391967,0.00766617,0.00062162,0.00769943,-0.00395293,1.51735,0.00684242,0.0104883,594,1170,0.0112661,0.0638974
-623,-146,-0.0142212,-0.078125,-0.00251343,0.00537082,0.000415662,0.00539267,-0.00253529,1.51827,0.00467526,0.0126339,601,1170,-0.0142088,0.0781273
-616,-146,-0.057312,-0.0588379,-0.00170459,0.00323339,0.000507938,0.0032851,-0.0017563,1.46935,0.00295493,0.0174585,608,1170,-0.0573078,0.0588033
-609,-146,-0.0480957,-0.057251,-0.00119169,0.00181115,0.000679037,0.00195756,-0.0013381,1.35843,0.00191392,0.0168348,615,1170,-0.0480822,0.0572048
-602,-146,-0.0390015,-0.0648193,-0.000623253,0.000689315,0.000908731,0.00115397,-0.00108791,1.09813,0.00129453,0.0166178,622,1170,-0.0389756,0.0647672
-595,-146,-0.0249023,-0.0714111,-0.000280993,7.33906e-05,0.000597045,0.000518983,-0.000726585,0.929649,0.000722451,0.00948662,629,1170,-0.0248802,0.0714656
-588,-146,-0.012146,-0.0662842,-0.000144516,-8.82141e-05,0.000144633,3.09815e-05,-0.000263712,0.881516,0.000186993,0.0116185,636,1170,-0.0121227,0.0662703
-581,-146,-0.0464478,-0.0257568,-0.000222861,-8.89458e-05,-2.24601e-05,-8.52792e-05,-0.000226528,-1.40897,0.00013211,0.0240314,643,1170,-0.0464309,0.0258018
-574,-146,-0.116333,0.0554199,-0.000366457,-0.000122292,-2.48915e-05,-0.000119781,-0.000368969,-1.47023,0.000217348,0.039023,650,1170,-0.116336,-0.0554125
-567,-146,-0.10968,-0.00610352,-0.000479494,-0.000160235,-6.92999e-05,-0.000145841,-0.000493887,-1.36601,0.000293004,0.0386692,657,1170,-0.109706,0.00609863
-560,-146,0.00488281,-0.111816,-0.000685688,-0.000216033,-0.000122423,-0.000186037,-0.000715684,-1.33051,0.000428781,0.036918,664,1170,0.00486284,0.11179
-553,-146,-0.00543213,-0.111084,-0.00100503,-0.000270845,-0.000146382,-0.000242736,-0.00103314,-1.38108,0.000623794,0.036316,671,1170,-0.00544865,0.111056
-546,-146,-0.0651245,-0.0283203,-0.00142358,-0.000354182,-0.000142635,-0.000335484,-0.00144228,-1.44045,0.000871486,0.0375944,678,1170,-0.0651197,0.0283467
-539,-146,-0.113159,-0.150146,-0.00192199,-0.000480355,-9.39227e-05,-0.000474262,-0.00192809,-1.50601,0.00116008,0.0378664,685,1170,-0.113144,0.150191
-532,-146,-0.163635,-0.236328,-0.00252444,-0.00067565,8.54435e-06,-0.000675611,-0.00252447,1.56617,0.00150906,0.0362392,692,1170,-0.163629,0.236322
-525,-146,-0.137573,-0.122925,-0.00327857,-0.000971337,0.000185097,-0.000956582,-0.00329332,1.49125,0.00195626,0.0370686,699,1170,-0.137563,0.122911
-518,-146,0,0,0,0,0,0,0,0,0,-1,706,1170,0,0
-511,-146,0,0,0,0,0,0,0,0,0,-1,713,1170,0,0
-504,-146,0,0,0,0,0,0,0,0,0,-1,720,1170,0,0
-497,-146,0,0,0,0,0,0,0,0,0,-1,727,1170,0,0
-490,-146,0,0,0,0,0,0,0,0,0,-1,734,1170,0,0
-483,-146,0,0,0,0,0,0,0,0,0,-1,741,1170,0,0
-476,-146,0,0,0,0,0,0,0,0,0,-1,748,1170,0,0
-469,-146,0,0,0,0,0,0,0,0,0,-1,755,1170,0,0
-462,-146,0,0,0,0,0,0,0,0,0,-1,762,1170,0,0
-455,-146,0,0,0,0,0,0,0,0,0,-1,769,1170,0,0
-448,-146,0,0,0,0,0,0,0,0,0,-1,776,1170,0,0
-441,-146,0,0,0,0,0,0,0,0,0,-1,783,1170,0,0
-434,-146,0,0,0,0,0,0,0,0,0,-1,790,1170,0,0
-427,-146,0,0,0,0,0,0,0,0,0,-1,797,1170,0,0
-420,-146,0,0,0,0,0,0,0,0,0,-1,804,1170,0,0
-413,-146,0,0,0,0,0,0,0,0,0,-1,811,1170,0,0
-406,-146,0,0,0,0,0,0,0,0,0,-1,818,1170,0,0
-399,-146,0,0,0,0,0,0,0,0,0,-1,825,1170,0,0
-392,-146,0,0,0,0,0,0,0,0,0,-1,832,1170,0,0
-385,-146,0,0,0,0,0,0,0,0,0,-1,839,1170,0,0
-378,-146,0,0,0,0,0,0,0,0,0,-1,846,1170,0,0
-371,-146,0,0,0,0,0,0,0,0,0,-1,853,1170,0,0
-364,-146,0,0,0,0,0,0,0,0,0,-1,860,1170,0,0
-357,-146,0,0,0,0,0,0,0,0,0,-1,867,1170,0,0
-350,-146,0,0,0,0,0,0,0,0,0,-1,874,1170,0,0
-343,-146,0,0,0,0,0,0,0,0,0,-1,881,1170,0,0
-336,-146,0,0,0,0,0,0,0,0,0,-1,888,1170,0,0
-329,-146,0,0,0,0,0,0,0,0,0,-1,895,1170,0,0
-322,-146,0,0,0,0,0,0,0,0,0,-1,902,1170,0,0
-315,-146,0,0,0,0,0,0,0,0,0,-1,909,1170,0,0
-308,-146,0,0,0,0,0,0,0,0,0,-1,916,1170,0,0
-301,-146,0,0,0,0,0,0,0,0,0,-1,923,1170,0,0
-294,-146,0,0,0,0,0,0,0,0,0,-1,930,1170,0,0
-287,-146,0,0,0,0,0,0,0,0,0,-1,937,1170,0,0
-280,-146,0,0,0,0,0,0,0,0,0,-1,944,1170,0,0
-273,-146,0,0,0,0,0,0,0,0,0,-1,951,1170,0,0
-266,-146,0,0,0,0,0,0,0,0,0,-1,958,1170,0,0
-259,-146,0,0,0,0,0,0,0,0,0,-1,965,1170,0,0
-252,-146,0,0,0,0,0,0,0,0,0,-1,972,1170,0,0
-245,-146,0,0,0,0,0,0,0,0,0,-1,979,1170,0,0
-238,-146,0,0,0,0,0,0,0,0,0,-1,986,1170,0,0
-231,-146,0,0,0,0,0,0,0,0,0,-1,993,1170,0,0
-224,-146,0,0,0,0,0,0,0,0,0,-1,1000,1170,0,0
-217,-146,0,0,0,0,0,0,0,0,0,-1,1007,1170,0,0
-210,-146,0,0,0,0,0,0,0,0,0,-1,1014,1170,0,0
-203,-146,0,0,0,0,0,0,0,0,0,-1,1021,1170,0,0
-196,-146,0,0,0,0,0,0,0,0,0,-1,1028,1170,0,0
-189,-146,0,0,0,0,0,0,0,0,0,-1,1035,1170,0,0
-182,-146,0,0,0,0,0,0,0,0,0,-1,1042,1170,0,0
-175,-146,0,0,0,0,0,0,0,0,0,-1,1049,1170,0,0
-168,-146,0,0,0,0,0,0,0,0,0,-1,1056,1170,0,0
-161,-146,0,0,0,0,0,0,0,0,0,-1,1063,1170,0,0
-154,-146,0,0,0,0,0,0,0,0,0,-1,1070,1170,0,0
-147,-146,0,0,0,0,0,0,0,0,0,-1,1077,1170,0,0
-140,-146,0,0,0,0,0,0,0,0,0,-1,1084,1170,0,0
-133,-146,0,0,0,0,0,0,0,0,0,-1,1091,1170,0,0
-126,-146,0,0,0,0,0,0,0,0,0,-1,1098,1170,0,0
-119,-146,0,0,0,0,0,0,0,0,0,-1,1105,1170,0,0
-112,-146,0,0,0,0,0,0,0,0,0,-1,1112,1170,0,0
-105,-146,0,0,0,0,0,0,0,0,0,-1,1119,1170,0,0
-98,-146,0,0,0,0,0,0,0,0,0,-1,1126,1170,0,0
-91,-146,0,0,0,0,0,0,0,0,0,-1,1133,1170,0,0
-84,-146,0,0,0,0,0,0,0,0,0,-1,1140,1170,0,0
-77,-146,0,0,0,0,0,0,0,0,0,-1,1147,1170,0,0
-70,-146,0,0,0,0,0,0,0,0,0,-1,1154,1170,0,0
-63,-146,0,0,0,0,0,0,0,0,0,-1,1161,1170,0,0
-56,-146,0,0,0,0,0,0,0,0,0,-1,1168,1170,0,0
-49,-146,0,0,0,0,0,0,0,0,0,-1,1175,1170,0,0
-42,-146,0,0,0,0,0,0,0,0,0,-1,1182,1170,0,0
-35,-146,0,0,0,0,0,0,0,0,0,-1,1189,1170,0,0
-28,-146,0,0,0,0,0,0,0,0,0,-1,1196,1170,0,0
-21,-146,0,0,0,0,0,0,0,0,0,-1,1203,1170,0,0
-14,-146,0,0,0,0,0,0,0,0,0,-1,1210,1170,0,0
-7,-146,0,0,0,0,0,0,0,0,0,-1,1217,1170,0,0
0,-146,0,0,0,0,0,0,0,0,0,-1,1224,1170,0,0
7,-146,0,0,0,0,0,0,0,0,0,-1,1231,1170,0,0
14,-146,0,0,0,0,0,0,0,0,0,-1,1238,1170,0,0
21,-146,0,0,0,0,0,0,0,0,0,-1,1245,1170,0,0
28,-146,0,0,0,0,0,0,0,0,0,-1,1252,1170,0,0
35,-146,0,0,0,0,0,0,0,0,0,-1,1259,1170,0,0
42,-146,0,0,0,0,0,0,0,0,0,-1,1266,1170,0,0
49,-146,0,0,0,0,0,0,0,0,0,-1,1273,1170,0,0
56,-146,0,0,0,0,0,0,0,0,0,-1,1280,1170,0,0
63,-146,0,0,0,0,0,0,0,0,0,-1,1287,1170,0,0
70,-146,0,0,0,0,0,0,0,0,0,-1,1294,1170,0,0
77,-146,0,0,0,0,0,0,0,0,0,-1,1301,1170,0,0
84,-146,0,0,0,0,0,0,0,0,0,-1,1308,1170,0,0
91,-146,0,0,0,0,0,0,0,0,0,-1,1315,1170,0,0
98,-146,0,0,0,0,0,0,0,0,0,-1,1322,1170,0,0
105,-146,0,0,0,0,0,0,0,0,0,-1,1329,1170,0,0
112,-146,0,0,0,0,0,0,0,0,0,-1,1336,1170,0,0
119,-146,0,0,0,0,0,0,0,0,0,-1,1343,1170,0,0
126,-146,0,0,0,0,0,0,0,0,0,-1,1350,1170,0,0
133,-146,0,0,0,0,0,0,0,0,0,-1,1357,1170,0,0
140,-146,0,0,0,0,0,0,0,0,0,-1,1364,1170,0,0
147,-146,0,0,0,0,0,0,0,0,0,-1,1371,1170,0,0
154,-146,0,0,0,0,0,0,0,0,0,-1,1378,1170,0,0
161,-146,0,0,0,0,0,0,0,0,0,-1,1385,1170,0,0
168,-146,0,0,0,0,0,0,0,0,0,-1,1392,1170,0,0
175,-146,0,0,0,0,0,0,0,0,0,-1,1399,1170,0,0
182,-146,0,0,0,0,0,0,0,0,0,-1,1406,1170,0,0
189,-146,0,0,0,0,0,0,0,0,0,-1,1413,1170,0,0
196,-146,0,0,0,0,0,0,0,0,0,-1,1420,1170,0,0
203,-146,0,0,0,0,0,0,0,0,0,-1,1427,1170,0,0
210,-146,0,0,0,0,0,0,0,0,0,-1,1434,1170,0,0
217,-146,0,0,0,0,0,0,0,0,0,-1,1441,1170,0,0
224,-146,0,0,0,0,0,0,0,0,0,-1,1448,1170,0,0
231,-146,0,0,0,0,0,0,0,0,0,-1,1455,1170,0,0
238,-146,0,0,0,0,0,0,0,0,0,-1,1462,1170,0,0
245,-146,0,0,0,0,0,0,0,0,0,-1,1469,1170,0,0
252,-146,0,0,0,0,0,0,0,0,0,-1,1476,1170,0,0
259,-146,0,0,0,0,0,0,0,0,0,-1,1483,1170,0,0
266,-146,0,0,0,0,0,0,0,0,0,-1,1490,1170,0,0
273,-146,0,0,0,0,0,0,0,0,0,-1,1497,1170,0,0
280,-146,0,0,0,0,0,0,0,0,0,-1,1504,1170,0,0
287,-146,0,0,0,0,0,0,0,0,0,-1,1511,1170,0,0
294,-146,0,0,0,0,0,0,0,0,0,-1,1518,1170,0,0
301,-146,0,0,0,0,0,0,0,0,0,-1,1525,1170,0,0
308,-146,0,0,0,0,0,0,0,0,0,-1,1532,1170,0,0
315,-146,0,0,0,0,0,0,0,0,0,-1,1539,1170,0,0
322,-146,0,0,0,0,0,0,0,0,0,-1,1546,1170,0,0
329,-146,0,0,0,0,0,0,0,0,0,-1,1553,1170,0,0
336,-146,0,0,0,0,0,0,0,0,0,-1,1560,1170,0,0
343,-146,0,0,0,0,0,0,0,0,0,-1,1567,1170,0,0
350,-146,0,0,0,0,0,0,0,0,0,-1,1574,1170,0,0
357,-146,0,0,0,0,0,0,0,0,0,-1,1581,1170,0,0
364,-146,0,0,0,0,0,0,0,0,0,-1,1588,1170,0,0
371,-146,0,0,0,0,0,0,0,0,0,-1,1595,1170,0,0
378,-146,0,0,0,0,0,0,0,0,0,-1,1602,1170,0,0
385,-146,0,0,0,0,0,0,0,0,0,-1,1609,1170,0,0
392,-146,0,0,0,0,0,0,0,0,0,-1,1616,1170,0,0
399,-146,0,0,0,0,0,0,0,0,0,-1,1623,1170,0,0
406,-146,0,0,0,0,0,0,0,0,0,-1,1630,1170,0,0
413,-146,0,0,0,0,0,0,0,0,0,-1,1637,1170,0,0
420,-146,0,0,0,0,0,0,0,0,0,-1,1644,1170,0,0
427,-146,0,0,0,0,0,0,0,0,0,-1,1651,1170,0,0
434,-146,0,0,0,0,0,0,0,0,0,-1,1658,1170,0,0
441,-146,0,0,0,0,0,0,0,0,0,-1,1665,1170,0,0
448,-146,0,0,0,0,0,0,0,0,0,-1,1672,1170,0,0
455,-146,0,0,0,0,0,0,0,0,0,-1,1679,1170,0,0
462,-146,0,0,0,0,0,0,0,0,0,-1,1686,1170,0,0
469,-146,0,0,0,0,0,0,0,0,0,-1,1693,1170,0,0
476,-146,0,0,0,0,0,0,0,0,0,-1,1700,1170,0,0
483,-146,0,0,0,0,0,0,0,0,0,-1,1707,1170,0,0
490,-146,0,0,0,0,0,0,0,0,0,-1,1714,1170,0,0
497,-146,0,0,0,0,0,0,0,0,0,-1,1721,1170,0,0
504,-146,0,0,0,0,0,0,0,0,0,-1,1728,1170,0,0
511,-146,0,0,0,0,0,0,0,0,0,-1,1735,1170,0,0
518,-146,0,0,0,0,0,0,0,0,0,-1,1742,1170,0,0
525,-146,0,0,0,0,0,0,0,0,0,-1,1749,1170,0,0
532,-146,0,0,0,0,0,0,0,0,0,-1,1756,1170,0,0
539,-146,0,0,0,0,0,0,0,0,0,-1,1763,1170,0,0
546,-146,0,0,0,0,0,0,0,0,0,-1,1770,1170,0,0
553,-146,0,0,0,0,0,0,0,0,0,-1,1777,1170,0,0
560,-146,0,0,0,0,0,0,0,0,0,-1,1784,1170,0,0
567,-146,0,0,0,0,0,0,0,0,0,-1,1791,1170,0,0
574,-146,0,0,0,0,0,0,0,0,0,-1,1798,1170,0,0
581,-146,0,0,0,0,0,0,0,0,0,-1,1805,1170,0,0
588,-146,0,0,0,0,0,0,0,0,0,-1,1812,1170,0,0
595,-146,0,0,0,0,0,0,0,0,0,-1,1819,1170,0,0
602,-146,0,0,0,0,0,0,0,0,0,-1,1826,1170,0,0
609,-146,0,0,0,0,0,0,0,0,0,-1,1833,1170,0,0
616,-146,0,0,0,0,0,0,0,0,0,-1,1840,1170,0,0
623,-146,0,0,0,0,0,0,0,0,0,-1,1847,1170,0,0
630,-146,0,0,0,0,0,0,0,0,0,-1,1854,1170,0,0
637,-146,0.0229492,-0.187256,0.00228982,-0.00180447,0.00139736,0.00272126,-0.00223592,0.299472,0.0028666,0.03518,1861,1170,0.0228977,0.187294
644,-146,0.026123,-0.19873,0.00140929,-0.00151594,0.00118372,0.00182828,-0.00193493,0.340197,0.00217298,0.0335447,1868,1170,0.0261241,0.198695
651,-146,0.0378418,-0.193359,0.00081126,-0.000677396,0.000858171,0.00120293,-0.00106906,0.42816,0.00131249,0.0320624,1875,1170,0.0378531,0.193334
658,-146,-0.0231934,-0.11499,0.000474936,3.87611e-05,0.00067075,0.000962162,-0.000448465,0.628219,0.000832232,0.034809,1882,1170,-0.0231921,0.114962
665,-146,-0.0136719,-0.0592041,0.000181146,0.000588996,0.000510724,0.000935003,-0.00016486,0.975343,0.000684934,0.0341352,1889,1170,-0.0136356,0.059181
672,-146,0.0678711,0.0258789,-4.57473e-05,0.000981043,0.000384573,0.00110911,-0.000173812,1.24934,0.000803632,0.0325661,1896,1170,0.0678175,-0.0259352
679,-146,0.0535889,-0.0460205,-0.000204601,0.00122334,0.000283798,0.00127767,-0.000258937,1.38162,0.000949932,0.0264254,1903,1170,0.0535337,0.0459746
686,-146,-0.0361328,-0.0877686,-0.000320686,0.00134103,0.000194387,0.00136347,-0.000343122,1.45588,0.00104235,0.016497,1910,1170,-0.0360812,0.0877991
693,-146,-0.0262451,-0.0635986,-0.000418639,0.00141627,0.000150356,0.0014285,-0.000430878,1.48958,0.00112384,0.00865391,1917,1170,-0.0262163,0.0636577
700,-146,-0.00012207,-0.0407715,-0.0005312,0.00133505,8.97392e-05,0.00133936,-0.000535505,1.52286,0.00111513,0.0308135,1924,1170,-0.000182467,0.0407991
707,-146,0.0090332,-0.0444336,-0.000484114,0.00117622,2.79472e-05,0.00117669,-0.000484585,1.55397,0.000986494,0.0275493,1931,1170,0.0090497,0.0444941
714,-146,-0.0200195,-0.0704346,-0.000424439,0.000984723,8.7186e-06,0.000984777,-0.000424493,1.56461,0.000834801,0.0161577,1938,1170,-0.0200538,0.0703987
721,-146,-0.0219727,-0.0795898,-0.000478873,0.000787222,7.07004e-05,0.000791158,-0.000482809,1.51519,0.000742672,0.0200718,1945,1170,-0.0220307,0.0795493
728,-146,-0.0150146,-0.0679932,-0.000578194,0.000461209,0.000318946,0.000551275,-0.00066826,1.29558,0.000705178,0.0177929,1952,1170,-0.0149546,0.0679633
735,-146,-0.0427246,-0.0666504,-0.000715868,4.81629e-06,0.00074592,0.000472872,-0.00118392,1.01041,0.000985479,0.0173923,1959,1170,-0.0426945,0.0666333
742,-146,-0.0435791,-0.102295,-0.000940165,-0.000677866,0.00115984,0.000358216,-0.00197625,0.841697,0.00145171,0.016625,1966,1170,-0.0435817,0.102325
749,-146,-0.0440674,-0.0838623,-0.00122874,-0.00104548,0.000894435,-0.000237992,-0.00203622,0.836441,0.00128552,0.0149568,1973,1170,-0.044097,0.0838882
756,-146,-0.024292,-0.0772705,-0.00151479,-0.00109612,0.000206151,-0.00101166,-0.00159926,1.18193,0.000934089,0.0114668,1980,1170,-0.0243241,0.0772762
763,-146,-0.0264893,-0.0941162,-0.00183529,-0.00138061,-0.00043303,-0.00111887,-0.00209703,-1.02712,0.00121163,0.0101328,1987,1170,-0.0264363,0.094056
770,-146,-0.0284424,-0.0880127,-0.00221232,-0.00155576,-0.00144379,-0.000403396,-0.00336469,-0.897185,0.00212148,0.0108079,1994,1170,-0.0283817,0.0880494
777,-146,-0.0932617,-0.0632324,-0.00262207,-0.00158207,-0.0031928,0.0011328,-0.00533694,-0.866122,0.00398953,0.0190465,2001,1170,-0.0932944,0.0632635
784,-146,-0.409302,0.192139,-0.00295667,-0.00135179,-0.00593125,0.00383106,-0.00813952,-0.852635,0.00705885,0.0366422,2008,1170,-0.409309,-0.192165
791,-146,-0.719971,0.465332,-0.00312945,-0.000724454,-0.0100004,0.00814545,-0.0119994,-0.845234,0.0117013,0.0438584,2015,1170,-0.720029,-0.465275
798,-146,-0.706055,0.642212,-0.00304734,0.000483475,-0.0157855,0.0146019,-0.0171658,-0.841086,0.018361,0.0434619,2022,1170,-0.706011,-0.642236
805,-146,-0.401733,0.46875,-0.00251,0.00250104,-0.0237355,0.0238629,-0.0238718,-0.837983,0.0275597,0.0460066,2029,1170,-0.401748,-0.468735
812,-146,0,0,0,0,0,0,0,0,0,-1,2036,1170,0,0
-700,-153,0,0,0,0,0,0,0,0,0,-1,524,1177,0,0
-693,-153,0,0,0,0,0,0,0,0,0,-1,531,1177,0,0
-686,-153,0.325806,0.0343018,0,0,0,0,0,0,0,-1,538,1177,0.325795,-0.0343362
-679,-153,0.474731,-0.344727,0,0,0,0,0,0,0,-1,545,1177,0.474738,0.344757
-672,-153,0.411682,-0.366699,-0.020493,0.0233832,0.00337262,0.0236409,-0.0207507,1.49453,0.0256476,0.0459541,552,1177,0.411712,0.366702
-665,-153,0.360962,-0.445313,-0.0167506,0.0219761,0.00256888,0.0221458,-0.0169203,1.50485,0.022622,0.0441401,559,1177,0.360949,0.44527
-658,-153,0.314941,-0.503052,-0.0134472,0.0195037,0.00213398,0.0196414,-0.0135849,1.50639,0.0192891,0.046783,566,1177,0.314971,0.503078
-651,-153,0.210205,-0.473145,-0.0105765,0.0164873,0.00191214,0.0166217,-0.0107109,1.50061,0.015903,0.0434889,573,1177,0.210218,0.47316
-644,-153,0.00360107,-0.146362,-0.00811913,0.0133247,0.00178815,0.0134728,-0.00826721,1.48817,0.012671,0.0269794,580,1177,0.00361037,0.146309
-637,-153,0.00268555,-0.083252,-0.00609047,0.0102996,0.00167471,0.010469,-0.00625984,1.47001,0.00975976,0.0109294,587,1177,0.00267867,0.0832096
-630,-153,-0.00964355,-0.0837402,-0.00438415,0.00816308,0.00146064,0.00833088,-0.00455194,1.45642,0.00754381,0.00948683,594,1177,-0.0096531,0.0837084
-623,-153,-0.026123,-0.0748291,-0.00288388,0.00569219,0.00112263,0.00583671,-0.0030284,1.44277,0.00520317,0.00881959,601,1177,-0.0261332,0.0748244
-616,-153,-0.0195313,-0.0827637,-0.00193646,0.00346864,0.00106624,0.00367137,-0.00213919,1.38291,0.00339338,0.0108813,608,1177,-0.0195473,0.08276
-609,-153,-0.0139771,-0.0742188,-0.00129584,0.00198309,0.0010545,0.00229294,-0.00160569,1.28501,0.0022625,0.0167954,615,1177,-0.0139692,0.0742737
-602,-153,-0.0328369,-0.0820313,-0.00063919,0.000743729,0.00113279,0.00137942,-0.00127488,1.05942,0.00153286,0.0202732,622,1177,-0.0328114,0.0820306
-595,-153,-0.045105,-0.0892334,-0.000268519,0.000171839,0.000650312,0.000638235,-0.000734915,0.948628,0.000793443,0.014378,629,1177,-0.0450828,0.0891879
-588,-153,-0.0407104,-0.0841064,-0.000121219,3.78116e-05,7.47756e-05,6.74478e-05,-0.000150855,1.19345,0.000129068,0.00959561,636,1177,-0.0407059,0.0840717
-581,-153,-0.076355,-0.0787354,-0.000191688,4.91318e-05,-0.000112326,9.33905e-05,-0.000235947,-1.19546,0.000195991,0.0193821,643,1177,-0.076365,0.0787711
-574,-153,-0.0963135,-0.067749,-0.000318575,1.3322e-05,-0.000119411,5.1819e-05,-0.000357072,-1.25893,0.000257068,0.0391847,650,1177,-0.0962908,0.0676917
-567,-153,-0.0839233,-0.0407715,-0.000405523,-4.3768e-05,-0.000181651,3.17016e-05,-0.000480992,-1.17703,0.000331734,0.0407281,657,1177,-0.0839074,0.0407816
-560,-153,-0.0189819,-0.101196,-0.000555441,-0.000137694,-0.00026356,-1.02758e-05,-0.000682859,-1.12048,0.000451853,0.0386509,664,1177,-0.0189687,0.101215
-553,-153,-0.0314941,-0.0821533,-0.000812911,-0.00024819,-0.000302341,-0.000116863,-0.000944238,-1.16102,0.00059438,0.0351774,671,1177,-0.0314751,0.0821762
-546,-153,-0.0606689,0.0450439,-0.00113141,-0.000423016,-0.000307924,-0.000307881,-0.00124655,-1.21299,0.000749781,0.0351367,678,1177,-0.0606725,-0.0450781
-539,-153,-0.0690918,-0.151489,-0.00146351,-0.000686285,-0.000262701,-0.000605822,-0.00154397,-1.27358,0.000898268,0.0357825,685,1177,-0.0690915,0.15151
-532,-153,-0.15033,-0.290649,-0.00179214,-0.00107338,-0.000161515,-0.00103875,-0.00182677,-1.35961,0.00105799,0.0369956,692,1177,-0.150329,0.290652
-525,-153,-0.136536,-0.181396,-0.00210974,-0.00162489,2.0503e-06,-0.00162489,-0.00210975,1.56657,0.00127597,0.0371384,699,1177,-0.136538,0.181343
-518,-153,0,0,0,0,0,0,0,0,0,-1,706,1177,0,0
-511,-153,0,0,0,0,0,0,0,0,0,-1,713,1177,0,0
-504,-153,0,0,0,0,0,0,0,0,0,-1,720,1177,0,0
-497,-153,0,0,0,0,0,0,0,0,0,-1,727,1177,0,0
-490,-153,0,0,0,0,0,0,0,0,0,-1,734,1177,0,0
-483,-153,0,0,0,0,0,0,0,0,0,-1,741,1177,0,0
-476,-153,0,0,0,0,0,0,0,0,0,-1,748,1177,0,0
-469,-153,0,0,0,0,0,0,0,0,0,-1,755,1177,0,0
-462,-153,0,0,0,0,0,0,0,0,0,-1,762,1177,0,0
-455,-153,0,0,0,0,0,0,0,0,0,-1,769,1177,0,0
-448,-153,0,0,0,0,0,0,0,0,0,-1,776,1177,0,0
-441,-153,0,0,0,0,0,0,0,0,0,-1,783,1177,0,0
-434,-153,0,0,0,0,0,0,0,0,0,-1,790,1177,0,0
-427,-153,0,0,0,0,0,0,0,0,0,-1,797,1177,0,0
-420,-153,0,0,0,0,0,0,0,0,0,-1,804,1177,0,0
-413,-153,0,0,0,0,0,0,0,0,0,-1,811,1177,0,0
-406,-153,0,0,0,0,0,0,0,0,0,-1,818,1177,0,0
-399,-153,0,0,0,0,0,0,0,0,0,-1,825,1177,0,0
-392,-153,0,0,0,0,0,0,0,0,0,-1,832,1177,0,0
-385,-153,0,0,0,0,0,0,0,0,0,-1,839,1177,0,0
-378,-153,0,0,0,0,0,0,0,0,0,-1,846,1177,0,0
-371,-153,0,0,0,0,0,0,0,0,0,-1,853,1177,0,0
-364,-153,0,0,0,0,0,0,0,0,0,-1,860,1177,0,0
-357,-153,0,0,0,0,0,0,0,0,0,-1,867,1177,0,0
-350,-153,0,0,0,0,0,0,0,0,0,-1,874,1177,0,0
-343,-153,0,0,0,0,0,0,0,0,0,-1,881,1177,0,0
-336,-153,0,0,0,0,0,0,0,0,0,-1,888,1177,0,0
-329,-153,0,0,0,0,0,0,0,0,0,-1,895,1177,0,0
-322,-153,0,0,0,0,0,0,0,0,0,-1,902,1177,0,0
-315,-153,0,0,0,0,0,0,0,0,0,-1,909,1177,0,0
-308,-153,0,0,0,0,0,0,0,0,0,-1,916,1177,0,0
-301,-153,0,0,0,0,0,0,0,0,0,-1,923,1177,0,0
-294,-153,0,0,0,0,0,0,0,0,0,-1,930,1177,0,0
-287,-153,0,0,0,0,0,0,0,0,0,-1,937,1177,0,0
-280,-153,0,0,0,0,0,0,0,0,0,-1,944,1177,0,0
-273,-153,0,0,0,0,0,0,0,0,0,-1,951,1177,0,0
-266,-153,0,0,0,0,0,0,0,0,0,-1,958,1177,0,0
-259,-153,0,0,0,0,0,0,0,0,0,-1,965,1177,0,0
-252,-153,0,0,0,0,0,0,0,0,0,-1,972,1177,0,0
-245,-153,0,0,0,0,0,0,0,0,0,-1,979,1177,0,0
-238,-153,0,0,0,0,0,0,0,0,0,-1,986,1177,0,0
-231,-153,0,0,0,0,0,0,0,0,0,-1,993,1177,0,0
-224,-153,0,0,0,0,0,0,0,0,0,-1,1000,1177,0,0
-217,-153,0,0,0,0,0,0,0,0,0,-1,1007,1177,0,0
-210,-153,0,0,0,0,0,0,0,0,0,-1,1014,1177,0,0
-203,-153,0,0,0,0,0,0,0,0,0,-1,1021,1177,0,0
-196,-153,0,0,0,0,0,0,0,0,0,-1,1028,1177,0,0
-189,-153,0,0,0,0,0,0,0,0,0,-1,1035,1177,0,0
-182,-153,0,0,0,0,0,0,0,0,0,-1,1042,1177,0,0
-175,-153,0,0,0,0,0,0,0,0,0,-1,1049,1177,0,0
-168,-153,0,0,0,0,0,0,0,0,0,-1,1056,1177,0,0
-161,-153,0,0,0,0,0,0,0,0,0,-1,1063,1177,0,0
-154,-153,0,0,0,0,0,0,0,0,0,-1,1070,1177,0,0
-147,-153,0,0,0,0,0,0,0,0,0,-1,1077,1177,0,0
-140,-153,0,0,0,0,0,0,0,0,0,-1,1084,1177,0,0
-133,-153,0,0,0,0,0,0,0,0,0,-1,1091,1177,0,0
-126,-153,0,0,0,0,0,0,0,0,0,-1,1098,1177,0,0
-119,-153,0,0,0,0,0,0,0,0,0,-1,1105,1177,0,0
-112,-153,0,0,0,0,0,0,0,0,0,-1,1112,1177,0,0
-105,-153,0,0,0,0,0,0,0,0,0,-1,1119,1177,0,0
-98,-153,0,0,0,0,0,0,0,0,0,-1,1126,1177,0,0
-91,-153,0,0,0,0,0,0,0,0,0,-1,1133,1177,0,0
-84,-153,0,0,0,0,0,0,0,0,0,-1,1140,1177,0,0
-77,-153,0,0,0,0,0,0,0,0,0,-1,1147,1177,0,0
-70,-153,0,0,0,0,0,0,0,0,0,-1,1154,1177,0,0
-63,-153,0,0,0,0,0,0,0,0,0,-1,1161,1177,0,0
-56,-153,0,0,0,0,0,0,0,0,0,-1,1168,1177,0,0
-49,-153,0,0,0,0,0,0,0,0,0,-1,1175,1177,0,0
-42,-153,0,0,0,0,0,0,0,0,0,-1,1182,1177,0,0
-35,-153,0,0,0,0,0,0,0,0,0,-1,1189,1177,0,0
-28,-153,0,0,0,0,0,0,0,0,0,-1,1196,1177,0,0
-21,-153,0,0,0,0,0,0,0,0,0,-1,1203,1177,0,0
-14,-153,0,0,0,0,0,0,0,0,0,-1,1210,1177,0,0
-7,-153,0,0,0,0,0,0,0,0,0,-1,1217,1177,0,0
0,-153,0,0,0,0,0,0,0,0,0,-1,1224,1177,0,0
7,-153,0,0,0,0,0,0,0,0,0,-1,1231,1177,0,0
14,-153,0,0,0,0,0,0,0,0,0,-1,1238,1177,0,0
21,-153,0,0,0,0,0,0,0,0,0,-1,1245,1177,0,0
28,-153,0,0,0,0,0,0,0,0,0,-1,1252,1177,0,0
35,-153,0,0,0,0,0,0,0,0,0,-1,1259,1177,0,0
42,-153,0,0,0,0,0,0,0,0,0,-1,1266,1177,0,0
49,-153,0,0,0,0,0,0,0,0,0,-1,1273,1177,0,0
56,-153,0,0,0,0,0,0,0,0,0,-1,1280,1177,0,0
63,-153,0,0,0,0,0,0,0,0,0,-1,1287,1177,0,0
70,-153,0,0,0,0,0,0,0,0,0,-1,1294,1177,0,0
77,-153,0,0,0,0,0,0,0,0,0,-1,1301,1177,0,0
84,-153,0,0,0,0,0,0,0,0,0,-1,1308,1177,0,0
91,-153,0,0,0,0,0,0,0,0,0,-1,1315,1177,0,0
98,-153,0,0,0,0,0,0,0,0,0,-1,1322,1177,0,0
105,-153,0,0,0,0,0,0,0,0,0,-1,1329,1177,0,0
112,-153,0,0,0,0,0,0,0,0,0,-1,1336,1177,0,0
119,-153,0,0,0,0,0,0,0,0,0,-1,1343,1177,0,0
126,-153,0,0,0,0,0,0,0,0,0,-1,1350,1177,0,0
133,-153,0,0,0,0,0,0,0,0,0,-1,1357,1177,0,0
140,-153,0,0,0,0,0,0,0,0,0,-1,1364,1177,0,0
147,-153,0,0,0,0,0,0,0,0,0,-1,1371,1177,0,0
154,-153,0,0,0,0,0,0,0,0,0,-1,1378,1177,0,0
161,-153,0,0,0,0,0,0,0,0,0,-1,1385,1177,0,0
168,-153,0,0,0,0,0,0,0,0,0,-1,1392,1177,0,0
175,-153,0,0,0,0,0,0,0,0,0,-1,1399,1177,0,0
182,-153,0,0,0,0,0,0,0,0,0,-1,1406,1177,0,0
189,-153,0,0,0,0,0,0,0,0,0,-1,1413,1177,0,0
196,-153,0,0,0,0,0,0,0,0,0,-1,1420,1177,0,0
203,-153,0,0,0,0,0,0,0,0,0,-1,1427,1177,0,0
210,-153,0,0,0,0,0,0,0,0,0,-1,1434,1177,0,0
217,-153,0,0,0,0,0,0,0,0,0,-1,1441,1177,0,0
224,-153,0,0,0,0,0,0,0,0,0,-1,1448,1177,0,0
231,-153,0,0,0,0,0,0,0,0,0,-1,1455,1177,0,0
238,-153,0,0,0,0,0,0,0,0,0,-1,1462,1177,0,0
245,-153,0,0,0,0,0,0,0,0,0,-1,1469,1177,0,0
252,-153,0,0,0,0,0,0,0,0,0,-1,1476,1177,0,0
259,-153,0,0,0,0,0,0,0,0,0,-1,1483,1177,0,0
266,-153,0,0,0,0,0,0,0,0,0,-1,1490,1177,0,0
273,-153,0,0,0,0,0,0,0,0,0,-1,1497,1177,0,0
280,-153,0,0,0,0,0,0,0,0,0,-1,1504,1177,0,0
287,-153,0,0,0,0,0,0,0,0,0,-1,1511,1177,0,0
294,-153,0,0,0,0,0,0,0,0,0,-1,1518,1177,0,0
301,-153,0,0,0,0,0,0,0,0,0,-1,1525,1177,0,0
308,-153,0,0,0,0,0,0,0,0,0,-1,1532,1177,0,0
315,-153,0,0,0,0,0,0,0,0,0,-1,1539,1177,0,0
322,-153,0,0,0,0,0,0,0,0,0,-1,1546,1177,0,0
329,-153,0,0,0,0,0,0,0,0,0,-1,1553,1177,0,0
336,-153,0,0,0,0,0,0,0,0,0,-1,1560,1177,0,0
343,-153,0,0,0,0,0,0,0,0,0,-1,1567,1177,0,0
350,-153,0,0,0,0,0,0,0,0,0,-1,1574,1177,0,0
357,-153,0,0,0,0,0,0,0,0,0,-1,1581,1177,0,0
364,-153,0,0,0,0,0,0,0,0,0,-1,1588,1177,0,0
371,-153,0,0,0,0,0,0,0,0,0,-1,1595,1177,0,0
378,-153,0,0,0,0,0,0,0,0,0,-1,1602,1177,0,0
385,-153,0,0,0,0,0,0,0,0,0,-1,1609,1177,0,0
392,-153,0,0,0,0,0,0,0,0,0,-1,1616,1177,0,0
399,-153,0,0,0,0,0,0,0,0,0,-1,1623,1177,0,0
406,-153,0,0,0,0,0,0,0,0,0,-1,1630,1177,0,0
413,-153,0,0,0,0,0,0,0,0,0,-1,1637,1177,0,0
420,-153,0,0,0,0,0,0,0,0,0,-1,1644,1177,0,0
427,-153,0,0,0,0,0,0,0,0,0,-1,1651,1177,0,0
434,-153,0,0,0,0,0,0,0,0,0,-1,1658,1177,0,0
441,-153,0,0,0,0,0,0,0,0,0,-1,1665,1177,0,0
448,-153,0,0,0,0,0,0,0,0,0,-1,1672,1177,0,0
455,-153,0,0,0,0,0,0,0,0,0,-1,1679,1177,0,0
462,-153,0,0,0,0,0,0,0,0,0,-1,1686,1177,0,0
469,-153,0,0,0,0,0,0,0,0,0,-1,1693,1177,0,0
476,-153,0,0,0,0,0,0,0,0,0,-1,1700,1177,0,0
483,-153,0,0,0,0,0,0,0,0,0,-1,1707,1177,0,0
490,-153,0,0,0,0,0,0,0,0,0,-1,1714,1177,0,0
497,-153,0,0,0,0,0,0,0,0,0,-1,1721,1177,0,0
504,-153,0,0,0,0,0,0,0,0,0,-1,1728,1177,0,0
511,-153,0,0,0,0,0,0,0,0,0,-1,1735,1177,0,0
518,-153,0,0,0,0,0,0,0,0,0,-1,1742,1177,0,0
525,-153,0,0,0,0,0,0,0,0,0,-1,1749,1177,0,0
532,-153,0,0,0,0,0,0,0,0,0,-1,1756,1177,0,0
539,-153,0,0,0,0,0,0,0,0,0,-1,1763,1177,0,0
546,-153,0,0,0,0,0,0,0,0,0,-1,1770,1177,0,0
553,-153,0,0,0,0,0,0,0,0,0,-1,1777,1177,0,0
560,-153,0,0,0,0,0,0,0,0,0,-1,1784,1177,0,0
567,-153,0,0,0,0,0,0,0,0,0,-1,1791,1177,0,0
574,-153,0,0,0,0,0,0,0,0,0,-1,1798,1177,0,0
581,-153,0,0,0,0,0,0,0,0,0,-1,1805,1177,0,0
588,-153,0,0,0,0,0,0,0,0,0,-1,1812,1177,0,0
595,-153,0,0,0,0,0,0,0,0,0,-1,1819,1177,0,0
602,-153,0,0,0,0,0,0,0,0,0,-1,1826,1177,0,0
609,-153,0,0,0,0,0,0,0,0,0,-1,1833,1177,0,0
616,-153,0,0,0,0,0,0,0,0,0,-1,1840,1177,0,0
623,-153,0,0,0,0,0,0,0,0,0,-1,1847,1177,0,0
630,-153,0,0,0,0,0,0,0,0,0,-1,1854,1177,0,0
637,-153,-0.0318604,-0.0632324,0.00188,-0.00149678,0.00155035,0.00248382,-0.00210061,0.371403,0.0026499,0.03784,1861,1177,-0.0318826,0.0632332
644,-153,-0.0270996,-0.0968018,0.00118523,-0.00119659,0.00118565,0.00167481,-0.00168617,0.391592,0.00194046,0.0329256,1868,1177,-0.027071,0.0967938
651,-153,-0.00268555,-0.0883789,0.00069145,-0.000293688,0.000784997,0.00112562,-0.000727857,0.505208,0.00107829,0.0264056,1875,1177,-0.00269585,0.0883581
658,-153,-0.0263672,-0.0471191,0.000378271,0.00046895,0.000582196,0.00100757,-0.000160348,0.824258,0.000731048,0.0307419,1882,1177,-0.0263916,0.0470731
665,-153,-0.0201416,-0.0239258,8.67969e-05,0.00105143,0.000437104,0.00122002,-8.18009e-05,1.20266,0.000841943,0.032797,1889,1177,-0.0201086,0.023983
672,-153,0.0217285,-0.0209961,-0.000143527,0.00145718,0.000344432,0.00152815,-0.000214494,1.3676,0.00109727,0.0332786,1896,1177,0.0217679,0.0209788
679,-153,0.0212402,-0.0545654,-0.000310855,0.00169224,0.000283689,0.00173164,-0.000350257,1.43279,0.00128716,0.0255359,1903,1177,0.0211962,0.0545484
686,-153,-0.0147705,-0.0653076,-0.000438003,0.00178625,0.000224663,0.00180872,-0.000460468,1.47113,0.00138506,0.0131223,1910,1177,-0.0147222,0.0653561
693,-153,-0.0155029,-0.0770264,-0.00053719,0.00182276,0.000213157,0.00184185,-0.000556288,1.48144,0.00144937,0.0168278,1917,1177,-0.0155166,0.0770144
700,-153,0.0218506,-0.0251465,-0.000620254,0.00170103,0.000182336,0.00171526,-0.000634489,1.49288,0.00140365,0.0363284,1924,1177,0.0217896,0.0251286
707,-153,0.0206299,0.0938721,-0.000571448,0.00148288,0.000132471,0.00149139,-0.000579955,1.50667,0.00123388,0.0335144,1931,1177,0.0206129,-0.0938647
714,-153,-0.0161133,-0.0487061,-0.000522393,0.00122826,0.000106385,0.0012347,-0.000528834,1.51032,0.00104501,0.0171622,1938,1177,-0.0161093,0.048725
721,-153,-0.0299072,-0.0665283,-0.000554059,0.000975723,0.000164186,0.000993146,-0.000571482,1.46507,0.000914207,0.0135105,1945,1177,-0.0299576,0.0665177
728,-153,-0.0396729,-0.0628662,-0.000617974,0.000556029,0.000442164,0.000703928,-0.000765874,1.248,0.000848842,0.0175356,1952,1177,-0.0396486,0.0628918
735,-153,-0.0598145,-0.0378418,-0.000728131,2.26284e-05,0.000937903,0.000657482,-0.00136298,0.975752,0.00118999,0.0160796,1959,1177,-0.0598737,0.0378786
742,-153,-0.0447998,-0.0579834,-0.000924407,-0.000702275,0.00140795,0.000598979,-0.00222566,0.824759,0.00171859,0.0142757,1966,1177,-0.0448003,0.0579889
749,-153,-0.0308838,-0.0629883,-0.00121215,-0.00117015,0.00120994,1.89713e-05,-0.00240126,0.794076,0.0016072,0.0148735,1973,1177,-0.0308566,0.063028
756,-153,-0.0273438,-0.0673828,-0.00147045,-0.00124386,0.000633386,-0.000713718,-0.00200059,0.873897,0.00117074,0.0103229,1980,1177,-0.027335,0.0674293
763,-153,-0.0322266,-0.0908203,-0.00177701,-0.00154604,0.000120658,-0.00149451,-0.00182854,1.16714,0.00112434,0.0100922,1987,1177,-0.0322599,0.090816
770,-153,-0.0227051,-0.0855713,-0.00215951,-0.001735,-0.000741278,-0.00117619,-0.00271832,-0.924836,0.00157416,0.0100041,1994,1177,-0.0226807,0.0855938
777,-153,-0.0292969,-0.0522461,-0.00256687,-0.00175319,-0.00235532,0.000230172,-0.00455023,-0.87092,0.00311305,0.020372,2001,1177,-0.0292601,0.0522964
784,-153,-0.293335,0.459961,-0.00289401,-0.00146875,-0.00501429,0.0028833,-0.00724606,-0.855985,0.00602629,0.0393229,2008,1177,-0.293321,-0.459992
791,-153,-0.672363,0.841309,-0.00305141,-0.000703671,-0.00911962,0.00731731,-0.0110724,-0.849406,0.0106908,0.0459502,2015,1177,-0.672376,-0.841286
798,-153,-0.600586,0.692017,-0.00293304,0.000777953,-0.0151345,0.0141702,-0.0163253,-0.846394,0.0176213,0.0440045,2022,1177,-0.600589,-0.692075
805,-153,-0.354736,0.435181,-0.00231702,0.00328558,-0.0236174,0.0242672,-0.0232987,-0.844428,0.0274641,0.0390624,2029,1177,-0.354751,-0.435139
812,-153,0,0,0,0,0,0,0,0,0,-1,2036,1177,0,0
-700,-160,0,0,0,0,0,0,0,0,0,-1,524,1184,0,0
-693,-160,0,0,0,0,0,0,0,0,0,-1,531,1184,0,0
-686,-160,0.301147,0.275391,-0.0287796,0.0242036,0.00666094,0.0250282,-0.0296041,1.44763,0.0315788,0.0449268,538,1184,0.301137,-0.275401
-679,-160,0.285339,0.279297,-0.0248647,0.0267054,0.00522986,0.0272304,-0.0253898,1.47074,0.0303865,0.0459768,545,1184,0.285311,-0.279242
-672,-160,0.65863,-0.663086,0,0,0,0,0,0,0,-1,552,1184,0.658659,0.663091
-665,-160,0.59552,-0.784912,0,0,0,0,0,0,0,-1,559,1184,0.595542,0.784946
-658,-160,0.378174,-0.873413,-0.0141896,0.0211846,0.0035559,0.0215385,-0.0145435,1.4716,0.0209621,0.0498134,566,1184,0.378178,0.873369
-651,-160,0.29248,-0.937622,-0.0112967,0.0177233,0.00331692,0.0180975,-0.011671,1.45843,0.0173199,0.049579,573,1184,0.292455,0.937639
-644,-160,0.128479,-0.634399,-0.00876811,0.0142158,0.00307678,0.0146205,-0.00917286,1.44,0.0138566,0.0367964,580,1184,0.128473,0.634369
-637,-160,-0.00762939,-0.0661621,-0.00668557,0.0108877,0.0028031,0.011324,-0.00712186,1.41639,0.0107414,0.0130384,587,1184,-0.00761215,0.0661626
-630,-160,-0.0181274,-0.0914307,-0.00484642,0.00856846,0.0023773,0.00897729,-0.00525525,1.40049,0.0083103,0.00800441,594,1184,-0.0181468,0.0914074
-623,-160,-0.0297241,-0.0838623,-0.00321487,0.00593852,0.00184872,0.00629781,-0.00357416,1.37885,0.00577143,0.00819363,601,1184,-0.0297049,0.0838388
-616,-160,-0.0236206,-0.0800781,-0.00214037,0.00361375,0.00161104,0.0040341,-0.00256072,1.31557,0.00383907,0.00746921,608,1184,-0.0236509,0.0800556
-609,-160,-0.0223999,-0.086792,-0.00140321,0.00209907,0.00141096,0.00259678,-0.00190091,1.23168,0.00260708,0.0116988,615,1184,-0.0223941,0.0867822
-602,-160,-0.0206909,-0.0775146,-0.000624061,0.000796008,0.00132,0.00158482,-0.00141288,1.03215,0.00173167,0.017894,622,1184,-0.0207169,0.0775398
-595,-160,0.0162354,-0.0667725,-0.000193215,0.000353914,0.000653441,0.000788744,-0.000628045,0.983639,0.000819736,0.0181643,629,1184,0.0162333,0.0668129
-588,-160,-0.00701904,-0.0517578,-4.00658e-05,0.000283761,-2.02321e-05,0.00028502,-4.1325e-05,-1.50864,0.00020518,0.0162547,636,1184,-0.0070042,0.051745
-581,-160,-0.0705566,-0.0643311,-9.98771e-05,0.00034708,-0.000224011,0.000440024,-0.000192821,-1.1775,0.00037455,0.0145309,643,1184,-0.0705527,0.0642987
-574,-160,-0.12738,0.100098,-0.000219375,0.000354207,-0.000238431,0.000440375,-0.000305543,-1.22401,0.000432995,0.0357514,650,1184,-0.12738,-0.100119
-567,-160,-0.111572,0.262207,-0.000299907,0.000354833,-0.000323058,0.000487395,-0.000432469,-1.18141,0.000531399,0.0390423,657,1184,-0.111553,-0.262184
-560,-160,-0.0133057,-0.0904541,-0.0004268,0.000298817,-0.000444955,0.000510129,-0.000638112,-1.12742,0.000664309,0.0362021,664,1184,-0.0133276,0.0904108
-553,-160,-0.0264282,-0.050293,-0.000680115,0.000217509,-0.000508436,0.000446885,-0.000909491,-1.14699,0.000798142,0.0362713,671,1184,-0.0264134,0.0503376
-546,-160,-0.0560913,0.038208,-0.00098426,3.05075e-05,-0.000540623,0.000264549,-0.0012183,-1.16224,0.000913247,0.0356999,678,1184,-0.0560969,-0.0381577
-539,-160,-0.041626,-0.217651,-0.00126751,-0.000307225,-0.000529348,-7.27028e-05,-0.00150203,-1.15375,0.000978023,0.0362711,685,1184,-0.0416128,0.217642
-532,-160,-0.0828247,-0.347168,-0.0014768,-0.000858061,-0.00047752,-0.000598453,-0.00173641,-1.07283,0.00101852,0.03798,692,1184,-0.0828067,0.347183
-525,-160,-0.121521,-0.194336,-0.00155748,-0.0017055,-0.000401775,-0.00122296,-0.00204003,-0.69432,0.00118555,0.0373802,699,1184,-0.121496,0.194296
-518,-160,-0.0956421,-0.0563965,-0.00109515,-0.00293497,-0.00029505,-0.00104899,-0.00298113,-0.155186,0.00174615,0.0375951,706,1184,-0.095617,0.056356
-511,-160,0,0,0,0,0,0,0,0,0,-1,713,1184,0,0
-504,-160,0,0,0,0,0,0,0,0,0,-1,720,1184,0,0
-497,-160,0,0,0,0,0,0,0,0,0,-1,727,1184,0,0
-490,-160,0,0,0,0,0,0,0,0,0,-1,734,1184,0,0
-483,-160,0,0,0,0,0,0,0,0,0,-1,741,1184,0,0
-476,-160,0,0,0,0,0,0,0,0,0,-1,748,1184,0,0
-469,-160,0,0,0,0,0,0,0,0,0,-1,755,1184,0,0
-462,-160,0,0,0,0,0,0,0,0,0,-1,762,1184,0,0
-455,-160,0,0,0,0,0,0,0,0,0,-1,769,1184,0,0
-448,-160,0,0,0,0,0,0,0,0,0,-1,776,1184,0,0
-441,-160,0,0,0,0,0,0,0,0,0,-1,783,1184,0,0
-434,-160,0,0,0,0,0,0,0,0,0,-1,790,1184,0,0
-427,-160,0,0,0,0,0,0,0,0,0,-1,797,1184,0,0
-420,-160,0,0,0,0,0,0,0,0,0,-1,804,1184,0,0
-413,-160,0,0,0,0,0,0,0,0,0,-1,811,1184,0,0
-406,-160,0,0,0,0,0,0,0,0,0,-1,818,1184,0,0
-399,-160,0,0,0,0,0,0,0,0,0,-1,825,1184,0,0
-392,-160,0,0,0,0,0,0,0,0,0,-1,832,1184,0,0
-385,-160,0,0,0,0,0,0,0,0,0,-1,839,1184,0,0
-378,-160,0,0,0,0,0,0,0,0,0,-1,846,1184,0,0
-371,-160,0,0,0,0,0,0,0,0,0,-1,853,1184,0,0
-364,-160,0,0,0,0,0,0,0,0,0,-1,860,1184,0,0
-357,-160,0,0,0,0,0,0,0,0,0,-1,867,1184,0,0
-350,-160,0,0,0,0,0,0,0,0,0,-1,874,1184,0,0
-343,-160,0,0,0,0,0,0,0,0,0,-1,881,1184,0,0
-336,-160,0,0,0,0,0,0,0,0,0,-1,888,1184,0,0
-329,-160,0,0,0,0,0,0,0,0,0,-1,895,1184,0,0
-322,-160,0,0,0,0,0,0,0,0,0,-1,902,1184,0,0
-315,-160,0,0,0,0,0,0,0,0,0,-1,909,1184,0,0
-308,-160,0,0,0,0,0,0,0,0,0,-1,916,1184,0,0
-301,-160,0,0,0,0,0,0,0,0,0,-1,923,1184,0,0
-294,-160,0,0,0,0,0,0,0,0,0,-1,930,1184,0,0
-287,-160,0,0,0,0,0,0,0,0,0,-1,937,1184,0,0
-280,-160,0,0,0,0,0,0,0,0,0,-1,944,1184,0,0
-273,-160,0,0,0,0,0,0,0,0,0,-1,951,1184,0,0
-266,-160,0,0,0,0,0,0,0,0,0,-1,958,1184,0,0
-259,-160,0,0,0,0,0,0,0,0,0,-1,965,1184,0,0
-252,-160,0,0,0,0,0,0,0,0,0,-1,972,1184,0,0
-245,-160,0,0,0,0,0,0,0,0,0,-1,979,1184,0,0
-238,-160,0,0,0,0,0,0,0,0,0,-1,986,1184,0,0
-231,-160,0,0,0,0,0,0,0,0,0,-1,993,1184,0,0
-224,-160,0,0,0,0,0,0,0,0,0,-1,1000,1184,0,0
-217,-160,0,0,0,0,0,0,0,0,0,-1,1007,1184,0,0
-210,-160,0,0,0,0,0,0,0,0,0,-1,1014,1184,0,0
-203,-160,0,0,0,0,0,0,0,0,0,-1,1021,1184,0,0
-196,-160,0,0,0,0,0,0,0,0,0,-1,1028,1184,0,0
-189,-160,0,0,0,0,0,0,0,0,0,-1,1035,1184,0,0
-182,-160,0,0,0,0,0,0,0,0,0,-1,1042,1184,0,0
-175,-160,0,0,0,0,0,0,0,0,0,-1,1049,1184,0,0
-168,-160,0,0,0,0,0,0,0,0,0,-1,1056,1184,0,0
-161,-160,0,0,0,0,0,0,0,0,0,-1,1063,1184,0,0
-154,-160,0,0,0,0,0,0,0,0,0,-1,1070,1184,0,0
-147,-160,0,0,0,0,0,0,0,0,0,-1,1077,1184,0,0
-140,-160,0,0,0,0,0,0,0,0,0,-1,1084,1184,0,0
-133,-160,0,0,0,0,0,0,0,0,0,-1,1091,1184,0,0
-126,-160,0,0,0,0,0,0,0,0,0,-1,1098,1184,0,0
-119,-160,0,0,0,0,0,0,0,0,0,-1,1105,1184,0,0
-112,-160,0,0,0,0,0,0,0,0,0,-1,1112,1184,0,0
-105,-160,0,0,0,0,0,0,0,0,0,-1,1119,1184,0,0
-98,-160,0,0,0,0,0,0,0,0,0,-1,1126,1184,0,0
-91,-160,0,0,0,0,0,0,0,0,0,-1,1133,1184,0,0
-84,-160,0,0,0,0,0,0,0,0,0,-1,1140,1184,0,0
-77,-160,0,0,0,0,0,0,0,0,0,-1,1147,1184,0,0
-70,-160,0,0,0,0,0,0,0,0,0,-1,1154,1184,0,0
-63,-160,0,0,0,0,0,0,0,0,0,-1,1161,1184,0,0
-56,-160,0,0,0,0,0,0,0,0,0,-1,1168,1184,0,0
-49,-160,0,0,0,0,0,0,0,0,0,-1,1175,1184,0,0
-42,-160,0,0,0,0,0,0,0,0,0,-1,1182,1184,0,0
-35,-160,0,0,0,0,0,0,0,0,0,-1,1189,1184,0,0
-28,-160,0,0,0,0,0,0,0,0,0,-1,1196,1184,0,0
-21,-160,0,0,0,0,0,0,0,0,0,-1,1203,1184,0,0
-14,-160,0,0,0,0,0,0,0,0,0,-1,1210,1184,0,0
-7,-160,0,0,0,0,0,0,0,0,0,-1,1217,1184,0,0
0,-160,0,0,0,0,0,0,0,0,0,-1,1224,1184,0,0
7,-160,0,0,0,0,0,0,0,0,0,-1,1231,1184,0,0
14,-160,0,0,0,0,0,0,0,0,0,-1,1238,1184,0,0
21,-160,0,0,0,0,0,0,0,0,0,-1,1245,1184,0,0
28,-160,0,0,0,0,0,0,0,0,0,-1,1252,1184,0,0
35,-160,0,0,0,0,0,0,0,0,0,-1,1259,1184,0,0
42,-160,0,0,0,0,0,0,0,0,0,-1,1266,1184,0,0
49,-160,0,0,0,0,0,0,0,0,0,-1,1273,1184,0,0
56,-160,0,0,0,0,0,0,0,0,0,-1,1280,1184,0,0
63,-160,0,0,0,0,0,0,0,0,0,-1,1287,1184,0,0
70,-160,0,0,0,0,0,0,0,0,0,-1,1294,1184,0,0
77,-160,0,0,0,0,0,0,0,0,0,-1,1301,1184,0,0
84,-160,0,0,0,0,0,0,0,0,0,-1,1308,1184,0,0
91,-160,0,0,0,0,0,0,0,0,0,-1,1315,1184,0,0
98,-160,0,0,0,0,0,0,0,0,0,-1,1322,1184,0,0
105,-160,0,0,0,0,0,0,0,0,0,-1,1329,1184,0,0
112,-160,0,0,0,0,0,0,0,0,0,-1,1336,1184,0,0
119,-160,0,0,0,0,0,0,0,0,0,-1,1343,1184,0,0
126,-160,0,0,0,0,0,0,0,0,0,-1,1350,1184,0,0
133,-160,0,0,0,0,0,0,0,0,0,-1,1357,1184,0,0
140,-160,0,0,0,0,0,0,0,0,0,-1,1364,1184,0,0
147,-160,0,0,0,0,0,0,0,0,0,-1,1371,1184,0,0
154,-160,0,0,0,0,0,0,0,0,0,-1,1378,1184,0,0
161,-160,0,0,0,0,0,0,0,0,0,-1,1385,1184,0,0
168,-160,0,0,0,0,0,0,0,0,0,-1,1392,1184,0,0
175,-160,0,0,0,0,0,0,0,0,0,-1,1399,1184,0,0
182,-160,0,0,0,0,0,0,0,0,0,-1,1406,1184,0,0
189,-160,0,0,0,0,0,0,0,0,0,-1,1413,1184,0,0
196,-160,0,0,0,0,0,0,0,0,0,-1,1420,1184,0,0
203,-160,0,0,0,0,0,0,0,0,0,-1,1427,1184,0,0
210,-160,0,0,0,0,0,0,0,0,0,-1,1434,1184,0,0
217,-160,0,0,0,0,0,0,0,0,0,-1,1441,1184,0,0
224,-160,0,0,0,0,0,0,0,0,0,-1,1448,1184,0,0
231,-160,0,0,0,0,0,0,0,0,0,-1,1455,1184,0,0
238,-160,0,0,0,0,0,0,0,0,0,-1,1462,1184,0,0
245,-160,0,0,0,0,0,0,0,0,0,-1,1469,1184,0,0
252,-160,0,0,0,0,0,0,0,0,0,-1,1476,1184,0,0
259,-160,0,0,0,0,0,0,0,0,0,-1,1483,1184,0,0
266,-160,0,0,0,0,0,0,0,0,0,-1,1490,1184,0,0
273,-160,0,0,0,0,0,0,0,0,0,-1,1497,1184,0,0
280,-160,0,0,0,0,0,0,0,0,0,-1,1504,1184,0,0
287,-160,0,0,0,0,0,0,0,0,0,-1,1511,1184,0,0
294,-160,0,0,0,0,0,0,0,0,0,-1,1518,1184,0,0
301,-160,0,0,0,0,0,0,0,0,0,-1,1525,1184,0,0
308,-160,0,0,0,0,0,0,0,0,0,-1,1532,1184,0,0
315,-160,0,0,0,0,0,0,0,0,0,-1,1539,1184,0,0
322,-160,0,0,0,0,0,0,0,0,0,-1,1546,1184,0,0
329,-160,0,0,0,0,0,0,0,0,0,-1,1553,1184,0,0
336,-160,0,0,0,0,0,0,0,0,0,-1,1560,1184,0,0
343,-160,0,0,0,0,0,0,0,0,0,-1,1567,1184,0,0
350,-160,0,0,0,0,0,0,0,0,0,-1,1574,1184,0,0
357,-160,0,0,0,0,0,0,0,0,0,-1,1581,1184,0,0
364,-160,0,0,0,0,0,0,0,0,0,-1,1588,1184,0,0
371,-160,0,0,0,0,0,0,0,0,0,-1,1595,1184,0,0
378,-160,0,0,0,0,0,0,0,0,0,-1,1602,1184,0,0
385,-160,0,0,0,0,0,0,0,0,0,-1,1609,1184,0,0
392,-160,0,0,0,0,0,0,0,0,0,-1,1616,1184,0,0
399,-160,0,0,0,0,0,0,0,0,0,-1,1623,1184,0,0
406,-160,0,0,0,0,0,0,0,0,0,-1,1630,1184,0,0
413,-160,0,0,0,0,0,0,0,0,0,-1,1637,1184,0,0
420,-160,0,0,0,0,0,0,0,0,0,-1,1644,1184,0,0
427,-160,0,0,0,0,0,0,0,0,0,-1,1651,1184,0,0
434,-160,0,0,0,0,0,0,0,0,0,-1,1658,1184,0,0
441,-160,0,0,0,0,0,0,0,0,0,-1,1665,1184,0,0
448,-160,0,0,0,0,0,0,0,0,0,-1,1672,1184,0,0
455,-160,0,0,0,0,0,0,0,0,0,-1,1679,1184,0,0
462,-160,0,0,0,0,0,0,0,0,0,-1,1686,1184,0,0
469,-160,0,0,0,0,0,0,0,0,0,-1,1693,1184,0,0
476,-160,0,0,0,0,0,0,0,0,0,-1,1700,1184,0,0
483,-160,0,0,0,0,0,0,0,0,0,-1,1707,1184,0,0
490,-160,0,0,0,0,0,0,0,0,0,-1,1714,1184,0,0
497,-160,0,0,0,0,0,0,0,0,0,-1,1721,1184,0,0
504,-160,0,0,0,0,0,0,0,0,0,-1,1728,1184,0,0
511,-160,0,0,0,0,0,0,0,0,0,-1,1735,1184,0,0
518,-160,0,0,0,0,0,0,0,0,0,-1,1742,1184,0,0
525,-160,0,0,0,0,0,0,0,0,0,-1,1749,1184,0,0
532,-160,0,0,0,0,0,0,0,0,0,-1,1756,1184,0,0
539,-160,0,0,0,0,0,0,0,0,0,-1,1763,1184,0,0
546,-160,0,0,0,0,0,0,0,0,0,-1,1770,1184,0,0
553,-160,0,0,0,0,0,0,0,0,0,-1,1777,1184,0,0
560,-160,0,0,0,0,0,0,0,0,0,-1,1784,1184,0,0
567,-160,0,0,0,0,0,0,0,0,0,-1,1791,1184,0,0
574,-160,0,0,0,0,0,0,0,0,0,-1,1798,1184,0,0
581,-160,0,0,0,0,0,0,0,0,0,-1,1805,1184,0,0
588,-160,0,0,0,0,0,0,0,0,0,-1,1812,1184,0,0
595,-160,0,0,0,0,0,0,0,0,0,-1,1819,1184,0,0
602,-160,0,0,0,0,0,0,0,0,0,-1,1826,1184,0,0
609,-160,0,0,0,0,0,0,0,0,0,-1,1833,1184,0,0
616,-160,0,0,0,0,0,0,0,0,0,-1,1840,1184,0,0
623,-160,0,0,0,0,0,0,0,0,0,-1,1847,1184,0,0
630,-160,0,0,0,0,0,0,0,0,0,-1,1854,1184,0,0
637,-160,-0.0544434,0.00927734,0.00127034,-0.00138781,0.00146005,0.00191565,-0.00203312,0.416161,0.00228016,0.0387607,1861,1184,-0.0544634,-0.00930209
644,-160,-0.0336914,-0.0101318,0.000860735,-0.000992296,0.000964286,0.00127149,-0.00140305,0.402686,0.00154476,0.0384527,1868,1184,-0.0336768,0.0101182
651,-160,-0.0147705,0.00634766,0.000551799,-1.98896e-05,0.000509208,0.000849907,-0.000317997,0.52964,0.000697211,0.0359194,1875,1184,-0.0148039,-0.00634732
658,-160,-0.0401611,0.0496826,0.000321329,0.000797821,0.000294272,0.0009382,0.00018095,1.12569,0.000574725,0.0352522,1882,1184,-0.0401076,-0.0497021
665,-160,-0.0180664,0.00390625,7.5378e-05,0.00142324,0.00016685,0.00144359,5.50311e-05,1.44945,0.000944583,0.0329938,1889,1184,-0.0180399,-0.00385877
672,-160,-0.0209961,-0.0322266,-0.000133627,0.00185368,0.000116721,0.00186051,-0.000140459,1.51233,0.00128971,0.0313674,1896,1184,-0.0210297,0.0322513
679,-160,0.00976563,-0.0369873,-0.000293284,0.00208941,0.00011455,0.0020949,-0.000298779,1.52287,0.00150611,0.0233689,1903,1184,0.00978233,0.0369926
686,-160,-0.00354004,-0.0450439,-0.000425624,0.00217327,0.000104821,0.00217749,-0.000429845,1.53055,0.00161413,0.0121442,1910,1184,-0.00358559,0.0450031
693,-160,-0.0368652,-0.0975342,-0.000530633,0.00218251,0.000143407,0.00219007,-0.000538192,1.51814,0.00166863,0.0297696,1917,1184,-0.0369029,0.0975467
700,-160,0.0147705,0.0177002,-0.000599155,0.00203501,0.00016542,0.00204536,-0.000609502,1.50833,0.00160577,0.0377093,1924,1184,0.0147435,-0.0177546
707,-160,-0.00195313,0.0836182,-0.00056827,0.0017767,0.000154372,0.00178682,-0.000578389,1.50534,0.00142372,0.0348133,1931,1184,-0.00191244,-0.0835779
714,-160,-0.038208,-0.0881348,-0.000542103,0.00147306,0.00014321,0.00148318,-0.00055223,1.5002,0.00121543,0.0213268,1938,1184,-0.0381662,0.0881035
721,-160,-0.0257568,-0.0723877,-0.000553639,0.00116883,0.000213131,0.00119481,-0.000579619,1.4495,0.00104479,0.0102059,1945,1184,-0.0257278,0.0724225
728,-160,-0.0389404,-0.0788574,-0.000600328,0.00065176,0.000540444,0.000852765,-0.000801333,1.21472,0.000955148,0.00975004,1952,1184,-0.038909,0.0788772
735,-160,-0.0407715,-0.0654297,-0.00070661,3.62057e-05,0.00110714,0.000832578,-0.00150298,0.947232,0.00136683,0.0130156,1959,1184,-0.0408074,0.0653982
742,-160,-0.0303955,-0.0800781,-0.000879968,-0.00072662,0.00161165,0.000810179,-0.00241677,0.809168,0.00193852,0.0150302,1966,1184,-0.0303604,0.0800672
749,-160,-0.0388184,-0.0922852,-0.00119745,-0.00126121,0.00147499,0.000246009,-0.00270466,0.774593,0.00189045,0.015499,1973,1184,-0.0387961,0.092264
756,-160,-0.0362549,-0.0782471,-0.00146772,-0.00137776,0.00101371,-0.000408029,-0.00243744,0.807569,0.00150747,0.0103006,1980,1184,-0.0362382,0.0782133
763,-160,-0.0317383,-0.0675049,-0.00181866,-0.00172926,0.000667005,-0.00110546,-0.00244246,0.818856,0.00141227,0.0112615,1987,1184,-0.0317391,0.0674473
770,-160,-0.0421143,-0.0675049,-0.00227361,-0.00197067,-8.22422e-06,-0.00197045,-0.00227384,-1.54368,0.00142556,0.01815,1994,1184,-0.0421594,0.0675133
777,-160,-0.0152588,-0.0136719,-0.0027712,-0.00203897,-0.00141232,-0.000946081,-0.00386409,-0.912221,0.00232575,0.0310989,2001,1184,-0.0152517,0.0136596
784,-160,0.0565186,0.406494,-0.00321496,-0.00178882,-0.00386499,0.00142833,-0.00643211,-0.87662,0.00483502,0.040906,2008,1184,0.0564844,-0.406483
791,-160,0.0450439,0.89917,-0.00351118,-0.00101947,-0.00781064,0.00564405,-0.0101747,-0.864485,0.00925698,0.0454941,2015,1184,0.0450743,-0.899139
798,-160,-0.340698,0.673584,-0.00354359,0.000539514,-0.013766,0.0124145,-0.0154186,-0.859013,0.0161006,0.0455899,2022,1184,-0.340727,-0.673591
805,-160,-0.335571,0.341064,-0.00307143,0.00326543,-0.0223766,0.0226968,-0.0225028,-0.855729,0.0260961,0.0426667,2029,1184,-0.335514,-0.341095
812,-160,0,0,0,0,0,0,0,0,0,-1,2036,1184,0,0
-700,-167,0,0,0,0,0,0,0,0,0,-1,524,1191,0,0
-693,-167,0,0,0,0,0,0,0,0,0,-1,531,1191,0,0
-686,-167,0.225159,0.385986,-0.031742,0.0275025,0.0078008,0.0285124,-0.032752,1.44205,0.0353992,0.0435064,538,1191,0.225165,-0.385964
-679,-167,-0.0174561,0.419922,-0.0269071,0.029321,0.00657308,0.0300792,-0.0276653,1.45596,0.0333485,0.0443932,545,1191,-0.0174797,-0.419945
-672,-167,-0.18927,0.701904,0,0,0,0,0,0,0,-1,552,1191,-0.189263,-0.701921
-665,-167,0.814453,-1.94324,0,0,0,0,0,0,0,-1,559,1191,0.814426,1.9433
-658,-167,0.7229,-1.73633,-0.0143215,0.0221862,0.00509019,0.0228827,-0.015018,1.43482,0.0220384,0.0493375,566,1191,0.722911,1.73629
-651,-167,0.482239,-1.55811,-0.0110929,0.0183805,0.00476358,0.0191313,-0.0118436,1.41447,0.0180476,0.0482393,573,1191,0.482264,1.55806
-644,-167,0.155151,-0.55481,-0.00834857,0.0146223,0.0043816,0.0154297,-0.00915596,1.38857,0.0143478,0.0370837,580,1191,0.155172,0.554848
-637,-167,-0.00512695,-0.0687256,-0.00615035,0.011137,0.00392609,0.0119869,-0.00700021,1.35762,0.0110875,0.0144243,587,1191,-0.00513673,0.0687436
-630,-167,-0.0184326,-0.0803223,-0.00423055,0.00869571,0.00330197,0.00949034,-0.00502518,1.33463,0.00851168,0.00817079,594,1191,-0.0184543,0.0802773
-623,-167,-0.017334,-0.0871582,-0.002593,0.00593227,0.00259651,0.00666082,-0.00332154,1.29724,0.00586982,0.00834554,601,1191,-0.017334,0.0871485
-616,-167,-0.0302124,-0.0761719,-0.00156717,0.00353015,0.00219299,0.00434376,-0.00238078,1.21553,0.00393717,0.010996,608,1191,-0.0301848,0.076146
-609,-167,-0.0280151,-0.078125,-0.000933195,0.00207933,0.00182556,0.00293982,-0.00179368,1.13033,0.00275946,0.0123841,615,1191,-0.0279992,0.0780891
-602,-167,-0.0284424,-0.0917969,-0.000209357,0.000783509,0.00157112,0.00193476,-0.00136061,0.938421,0.00191218,0.013703,622,1191,-0.0284318,0.0918377
-595,-167,0.0122681,-0.0588379,0.000150588,0.000489115,0.000742282,0.00108119,-0.000441485,0.897497,0.000904606,0.0174087,629,1191,0.0122712,0.0588866
-588,-167,-0.017334,-0.0550537,0.000182279,0.000477812,-2.33506e-05,0.000479646,0.000180445,-1.49243,0.000279738,0.01384,636,1191,-0.0173523,0.0550876
-581,-167,-0.0462036,-0.0484619,2.50534e-05,0.000577298,-0.000240342,0.000667246,-6.48954e-05,-1.21268,0.000467965,0.0123128,643,1191,-0.0461967,0.0485218
-574,-167,-0.0588989,-0.0308838,-0.000126044,0.000629553,-0.000264345,0.000712851,-0.000209342,-1.26553,0.000558255,0.0315961,650,1191,-0.0589213,0.0308891
-567,-167,0.0162964,0.0216064,-0.000188318,0.000706373,-0.000359626,0.000833003,-0.000314949,-1.23224,0.000684897,0.0397605,657,1191,0.0163136,-0.0215522
-560,-167,0.0366821,-0.109741,-0.00027871,0.00070724,-0.000496111,0.000913659,-0.000485128,-1.17651,0.000820125,0.0354484,664,1191,0.0366726,0.10968
-553,-167,0.0328979,-0.15686,-0.000510549,0.000692167,-0.000558503,0.000911515,-0.000729896,-1.19656,0.000949601,0.0366438,671,1191,0.0329138,0.156832
-546,-167,-0.0722656,-0.0290527,-0.000773918,0.000558388,-0.000594943,0.000785386,-0.00100092,-1.2063,0.00103382,0.0340618,678,1191,-0.0722909,0.0290932
-539,-167,-0.0881348,-0.114258,-0.000983039,0.00024318,-0.000596936,0.000485778,-0.00122564,-1.18478,0.0010184,0.0352829,685,1191,-0.0881604,0.114274
-532,-167,-0.0458984,-0.244141,-0.00105512,-0.000336432,-0.000570137,-2.18445e-05,-0.00136971,-1.06659,0.000905948,0.0387942,692,1191,-0.04588,0.244095
-525,-167,-0.0527344,-0.136353,-0.000911779,-0.00129667,-0.00054576,-0.000525529,-0.00168292,-0.615894,0.000994201,0.0397935,699,1191,-0.0527602,0.13635
-518,-167,-0.067688,-0.065918,-0.00014585,-0.00276024,-0.000535702,-4.03398e-05,-0.00286575,-0.194467,0.0018972,0.0379078,706,1191,-0.0677158,0.0659738
-511,-167,0,0,0,0,0,0,0,0,0,-1,713,1191,0,0
-504,-167,0,0,0,0,0,0,0,0,0,-1,720,1191,0,0
-497,-167,0,0,0,0,0,0,0,0,0,-1,727,1191,0,0
-490,-167,0,0,0,0,0,0,0,0,0,-1,734,1191,0,0
-483,-167,0,0,0,0,0,0,0,0,0,-1,741,1191,0,0
-476,-167,0,0,0,0,0,0,0,0,0,-1,748,1191,0,0
-469,-167,0,0,0,0,0,0,0,0,0,-1,755,1191,0,0
-462,-167,0,0,0,0,0,0,0,0,0,-1,762,1191,0,0
-455,-167,0,0,0,0,0,0,0,0,0,-1,769,1191,0,0
-448,-167,0,0,0,0,0,0,0,0,0,-1,776,1191,0,0
-441,-167,0,0,0,0,0,0,0,0,0,-1,783,1191,0,0
-434,-167,0,0,0,0,0,0,0,0,0,-1,790,1191,0,0
-427,-167,0,0,0,0,0,0,0,0,0,-1,797,1191,0,0
-420,-167,0,0,0,0,0,0,0,0,0,-1,804,1191,0,0
-413,-167,0,0,0,0,0,0,0,0,0,-1,811,1191,0,0
-406,-167,0,0,0,0,0,0,0,0,0,-1,818,1191,0,0
-399,-167,0,0,0,0,0,0,0,0,0,-1,825,1191,0,0
-392,-167,0,0,0,0,0,0,0,0,0,-1,832,1191,0,0
-385,-167,0,0,0,0,0,0,0,0,0,-1,839,1191,0,0
-378,-167,0,0,0,0,0,0,0,0,0,-1,846,1191,0,0
-371,-167,0,0,0,0,0,0,0,0,0,-1,853,1191,0,0
-364,-167,0,0,0,0,0,0,0,0,0,-1,860,1191,0,0
-357,-167,0,0,0,0,0,0,0,0,0,-1,867,1191,0,0
-350,-167,0,0,0,0,0,0,0,0,0,-1,874,1191,0,0
-343,-167,0,0,0,0,0,0,0,0,0,-1,881,1191,0,0
-336,-167,0,0,0,0,0,0,0,0,0,-1,888,1191,0,0
-329,-167,0,0,0,0,0,0,0,0,0,-1,895,1191,0,0
-322,-167,0,0,0,0,0,0,0,0,0,-1,902,1191,0,0
-315,-167,0,0,0,0,0,0,0,0,0,-1,909,1191,0,0
-308,-167,0,0,0,0,0,0,0,0,0,-1,916,1191,0,0
-301,-167,0,0,0,0,0,0,0,0,0,-1,923,1191,0,0
-294,-167,0,0,0,0,0,0,0,0,0,-1,930,1191,0,0
-287,-167,0,0,0,0,0,0,0,0,0,-1,937,1191,0,0
-280,-167,0,0,0,0,0,0,0,0,0,-1,944,1191,0,0
-273,-167,0,0,0,0,0,0,0,0,0,-1,951,1191,0,0
-266,-167,0,0,0,0,0,0,0,0,0,-1,958,1191,0,0
-259,-167,0,0,0,0,0,0,0,0,0,-1,965,1191,0,0
-252,-167,0,0,0,0,0,0,0,0,0,-1,972,1191,0,0
-245,-167,0,0,0,0,0,0,0,0,0,-1,979,1191,0,0
-238,-167,0,0,0,0,0,0,0,0,0,-1,986,1191,0,0
-231,-167,0,0,0,0,0,0,0,0,0,-1,993,1191,0,0
-224,-167,0,0,0,0,0,0,0,0,0,-1,1000,1191,0,0
-217,-167,0,0,0,0,0,0,0,0,0,-1,1007,1191,0,0
-210,-167,0,0,0,0,0,0,0,0,0,-1,1014,1191,0,0
-203,-167,0,0,0,0,0,0,0,0,0,-1,1021,1191,0,0
-196,-167,0,0,0,0,0,0,0,0,0,-1,1028,1191,0,0
-189,-167,0,0,0,0,0,0,0,0,0,-1,1035,1191,0,0
-182,-167,0,0,0,0,0,0,0,0,0,-1,1042,1191,0,0
-175,-167,0,0,0,0,0,0,0,0,0,-1,1049,1191,0,0
-168,-167,0,0,0,0,0,0,0,0,0,-1,1056,1191,0,0
-161,-167,0,0,0,0,0,0,0,0,0,-1,1063,1191,0,0
-154,-167,0,0,0,0,0,0,0,0,0,-1,1070,1191,0,0
-147,-167,0,0,0,0,0,0,0,0,0,-1,1077,1191,0,0
-140,-167,0,0,0,0,0,0,0,0,0,-1,1084,1191,0,0
-133,-167,0,0,0,0,0,0,0,0,0,-1,1091,1191,0,0
-126,-167,0,0,0,0,0,0,0,0,0,-1,1098,1191,0,0
-119,-167,0,0,0,0,0,0,0,0,0,-1,1105,1191,0,0
-112,-167,0,0,0,0,0,0,0,0,0,-1,1112,1191,0,0
-105,-167,0,0,0,0,0,0,0,0,0,-1,1119,1191,0,0
-98,-167,0,0,0,0,0,0,0,0,0,-1,1126,1191,0,0
-91,-167,0,0,0,0,0,0,0,0,0,-1,1133,1191,0,0
-84,-167,0,0,0,0,0,0,0,0,0,-1,1140,1191,0,0
-77,-167,0,0,0,0,0,0,0,0,0,-1,1147,1191,0,0
-70,-167,0,0,0,0,0,0,0,0,0,-1,1154,1191,0,0
-63,-167,0,0,0,0,0,0,0,0,0,-1,1161,1191,0,0
-56,-167,0,0,0,0,0,0,0,0,0,-1,1168,1191,0,0
-49,-167,0,0,0,0,0,0,0,0,0,-1,1175,1191,0,0
-42,-167,0,0,0,0,0,0,0,0,0,-1,1182,1191,0,0
-35,-167,0,0,0,0,0,0,0,0,0,-1,1189,1191,0,0
-28,-167,0,0,0,0,0,0,0,0,0,-1,1196,1191,0,0
-21,-167,0,0,0,0,0,0,0,0,0,-1,1203,1191,0,0
-14,-167,0,0,0,0,0,0,0,0,0,-1,1210,1191,0,0
-7,-167,0,0,0,0,0,0,0,0,0,-1,1217,1191,0,0
0,-167,0,0,0,0,0,0,0,0,0,-1,1224,1191,0,0
7,-167,0,0,0,0,0,0,0,0,0,-1,1231,1191,0,0
14,-167,0,0,0,0,0,0,0,0,0,-1,1238,1191,0,0
21,-167,0,0,0,0,0,0,0,0,0,-1,1245,1191,0,0
28,-167,0,0,0,0,0,0,0,0,0,-1,1252,1191,0,0
35,-167,0,0,0,0,0,0,0,0,0,-1,1259,1191,0,0
42,-167,0,0,0,0,0,0,0,0,0,-1,1266,1191,0,0
49,-167,0,0,0,0,0,0,0,0,0,-1,1273,1191,0,0
56,-167,0,0,0,0,0,0,0,0,0,-1,1280,1191,0,0
63,-167,0,0,0,0,0,0,0,0,0,-1,1287,1191,0,0
70,-167,0,0,0,0,0,0,0,0,0,-1,1294,1191,0,0
77,-167,0,0,0,0,0,0,0,0,0,-1,1301,1191,0,0
84,-167,0,0,0,0,0,0,0,0,0,-1,1308,1191,0,0
91,-167,0,0,0,0,0,0,0,0,0,-1,1315,1191,0,0
98,-167,0,0,0,0,0,0,0,0,0,-1,1322,1191,0,0
105,-167,0,0,0,0,0,0,0,0,0,-1,1329,1191,0,0
112,-167,0,0,0,0,0,0,0,0,0,-1,1336,1191,0,0
119,-167,0,0,0,0,0,0,0,0,0,-1,1343,1191,0,0
126,-167,0,0,0,0,0,0,0,0,0,-1,1350,1191,0,0
133,-167,0,0,0,0,0,0,0,0,0,-1,1357,1191,0,0
140,-167,0,0,0,0,0,0,0,0,0,-1,1364,1191,0,0
147,-167,0,0,0,0,0,0,0,0,0,-1,1371,1191,0,0
154,-167,0,0,0,0,0,0,0,0,0,-1,1378,1191,0,0
161,-167,0,0,0,0,0,0,0,0,0,-1,1385,1191,0,0
168,-167,0,0,0,0,0,0,0,0,0,-1,1392,1191,0,0
175,-167,0,0,0,0,0,0,0,0,0,-1,1399,1191,0,0
182,-167,0,0,0,0,0,0,0,0,0,-1,1406,1191,0,0
189,-167,0,0,0,0,0,0,0,0,0,-1,1413,1191,0,0
196,-167,0,0,0,0,0,0,0,0,0,-1,1420,1191,0,0
203,-167,0,0,0,0,0,0,0,0,0,-1,1427,1191,0,0
210,-167,0,0,0,0,0,0,0,0,0,-1,1434,1191,0,0
217,-167,0,0,0,0,0,0,0,0,0,-1,1441,1191,0,0
224,-167,0,0,0,0,0,0,0,0,0,-1,1448,1191,0,0
231,-167,0,0,0,0,0,0,0,0,0,-1,1455,1191,0,0
238,-167,0,0,0,0,0,0,0,0,0,-1,1462,1191,0,0
245,-167,0,0,0,0,0,0,0,0,0,-1,1469,1191,0,0
252,-167,0,0,0,0,0,0,0,0,0,-1,1476,1191,0,0
259,-167,0,0,0,0,0,0,0,0,0,-1,1483,1191,0,0
266,-167,0,0,0,0,0,0,0,0,0,-1,1490,1191,0,0
273,-167,0,0,0,0,0,0,0,0,0,-1,1497,1191,0,0
280,-167,0,0,0,0,0,0,0,0,0,-1,1504,1191,0,0
287,-167,0,0,0,0,0,0,0,0,0,-1,1511,1191,0,0
294,-167,0,0,0,0,0,0,0,0,0,-1,1518,1191,0,0
301,-167,0,0,0,0,0,0,0,0,0,-1,1525,1191,0,0
308,-167,0,0,0,0,0,0,0,0,0,-1,1532,1191,0,0
315,-167,0,0,0,0,0,0,0,0,0,-1,1539,1191,0,0
322,-167,0,0,0,0,0,0,0,0,0,-1,1546,1191,0,0
329,-167,0,0,0,0,0,0,0,0,0,-1,1553,1191,0,0
336,-167,0,0,0,0,0,0,0,0,0,-1,1560,1191,0,0
343,-167,0,0,0,0,0,0,0,0,0,-1,1567,1191,0,0
350,-167,0,0,0,0,0,0,0,0,0,-1,1574,1191,0,0
357,-167,0,0,0,0,0,0,0,0,0,-1,1581,1191,0,0
364,-167,0,0,0,0,0,0,0,0,0,-1,1588,1191,0,0
371,-167,0,0,0,0,0,0,0,0,0,-1,1595,1191,0,0
378,-167,0,0,0,0,0,0,0,0,0,-1,1602,1191,0,0
385,-167,0,0,0,0,0,0,0,0,0,-1,1609,1191,0,0
392,-167,0,0,0,0,0,0,0,0,0,-1,1616,1191,0,0
399,-167,0,0,0,0,0,0,0,0,0,-1,1623,1191,0,0
406,-167,0,0,0,0,0,0,0,0,0,-1,1630,1191,0,0
413,-167,0,0,0,0,0,0,0,0,0,-1,1637,1191,0,0
420,-167,0,0,0,0,0,0,0,0,0,-1,1644,1191,0,0
427,-167,0,0,0,0,0,0,0,0,0,-1,1651,1191,0,0
434,-167,0,0,0,0,0,0,0,0,0,-1,1658,1191,0,0
441,-167,0,0,0,0,0,0,0,0,0,-1,1665,1191,0,0
448,-167,0,0,0,0,0,0,0,0,0,-1,1672,1191,0,0
455,-167,0,0,0,0,0,0,0,0,0,-1,1679,1191,0,0
462,-167,0,0,0,0,0,0,0,0,0,-1,1686,1191,0,0
469,-167,0,0,0,0,0,0,0,0,0,-1,1693,1191,0,0
476,-167,0,0,0,0,0,0,0,0,0,-1,1700,1191,0,0
483,-167,0,0,0,0,0,0,0,0,0,-1,1707,1191,0,0
490,-167,0,0,0,0,0,0,0,0,0,-1,1714,1191,0,0
497,-167,0,0,0,0,0,0,0,0,0,-1,1721,1191,0,0
504,-167,0,0,0,0,0,0,0,0,0,-1,1728,1191,0,0
511,-167,0,0,0,0,0,0,0,0,0,-1,1735,1191,0,0
518,-167,0,0,0,0,0,0,0,0,0,-1,1742,1191,0,0
525,-167,0,0,0,0,0,0,0,0,0,-1,1749,1191,0,0
532,-167,0,0,0,0,0,0,0,0,0,-1,1756,1191,0,0
539,-167,0,0,0,0,0,0,0,0,0,-1,1763,1191,0,0
546,-167,0,0,0,0,0,0,0,0,0,-1,1770,1191,0,0
553,-167,0,0,0,0,0,0,0,0,0,-1,1777,1191,0,0
560,-167,0,0,0,0,0,0,0,0,0,-1,1784,1191,0,0
567,-167,0,0,0,0,0,0,0,0,0,-1,1791,1191,0,0
574,-167,0,0,0,0,0,0,0,0,0,-1,1798,1191,0,0
581,-167,0,0,0,0,0,0,0,0,0,-1,1805,1191,0,0
588,-167,0,0,0,0,0,0,0,0,0,-1,1812,1191,0,0
595,-167,0,0,0,0,0,0,0,0,0,-1,1819,1191,0,0
602,-167,0,0,0,0,0,0,0,0,0,-1,1826,1191,0,0
609,-167,0,0,0,0,0,0,0,0,0,-1,1833,1191,0,0
616,-167,0,0,0,0,0,0,0,0,0,-1,1840,1191,0,0
623,-167,0,0,0,0,0,0,0,0,0,-1,1847,1191,0,0
630,-167,0,0,0,0,0,0,0,0,0,-1,1854,1191,0,0
637,-167,-0.0722656,0.0235596,0.000885896,-0.00152002,0.00144241,0.00156114,-0.00219526,0.437835,0.00217904,0.0400096,1861,1191,-0.0722794,-0.0236137
644,-167,-0.0216064,0.0194092,0.000679274,-0.000957304,0.000742436,0.000965887,-0.00124392,0.368418,0.00127919,0.0400187,1868,1191,-0.0216627,-0.0193667
651,-167,-0.123535,-0.0350342,0.000487404,0.000105053,0.000168289,0.000550923,4.1534e-05,0.360908,0.00035425,0.0382762,1875,1191,-0.123596,0.0349848
658,-167,-0.101196,-0.0372314,0.000291608,0.000989584,-0.000113952,0.00100772,0.000273476,-1.41299,0.000601737,0.0391437,1882,1191,-0.101188,0.0371711
665,-167,0.041626,0.0153809,5.91171e-05,0.00166237,-0.00026223,0.00170417,1.73163e-05,-1.41272,0.00113038,0.0339307,1889,1191,0.041619,-0.0153848
672,-167,0.00109863,-0.026001,-0.000150147,0.00211916,-0.000291572,0.00215602,-0.00018701,-1.44503,0.00150356,0.0246012,1896,1191,0.00115411,0.0259975
679,-167,0.000854492,-0.0699463,-0.00031542,0.00236065,-0.000244792,0.00238286,-0.000337628,-1.48032,0.00171225,0.017312,1903,1191,0.000848641,0.0699268
686,-167,-0.0367432,-0.0640869,-0.000458099,0.00244092,-0.000202321,0.00245497,-0.000472151,-1.50145,0.00181463,0.020668,1910,1191,-0.0367581,0.0640539
693,-167,-0.0933838,-0.0716553,-0.000567426,0.00242635,-9.96659e-05,0.00242966,-0.00057074,-1.53755,0.00183977,0.042302,1917,1191,-0.0933756,0.071606
700,-167,0.03479,-0.0854492,-0.000622774,0.00226225,8.29265e-07,0.00226225,-0.000622774,1.57051,0.00175303,0.0397448,1924,1191,0.0348184,0.0854799
707,-167,-0.0429688,-0.12793,-0.000607084,0.00198286,5.86543e-05,0.00198418,-0.000608412,1.54816,0.00156551,0.0313387,1931,1191,-0.0429583,0.127978
714,-167,-0.0336914,-0.0900879,-0.00059016,0.00164839,9.15369e-05,0.00165212,-0.000593897,1.53,0.00134386,0.0155944,1938,1191,-0.0336775,0.0900981
721,-167,-0.0327148,-0.0776367,-0.000582163,0.00130766,0.000206303,0.00132992,-0.000604421,1.46332,0.00114268,0.0127469,1945,1191,-0.0327153,0.0776573
728,-167,-0.0426025,-0.0646973,-0.000600193,0.000701926,0.000620345,0.000950147,-0.000848414,1.19017,0.00103895,0.0113028,1952,1191,-0.0426225,0.0647477
735,-167,-0.0289307,-0.0687256,-0.000651844,8.72169e-06,0.00125841,0.000979473,-0.0016226,0.913733,0.00151752,0.0134495,1959,1191,-0.0289268,0.0687269
742,-167,-0.0513916,-0.0751953,-0.0007441,-0.000742723,0.00178466,0.00104125,-0.00252808,0.785591,0.00211951,0.0144525,1966,1191,-0.0514235,0.0752283
749,-167,-0.0469971,-0.0911865,-0.000991303,-0.00134857,0.00171474,0.000554087,-0.00289396,0.733498,0.00213807,0.0129072,1973,1191,-0.0470405,0.0912183
756,-167,-0.03125,-0.0782471,-0.00115912,-0.00154709,0.00142355,8.36084e-05,-0.00278981,0.717681,0.00188836,0.0102017,1980,1191,-0.0313088,0.0782148
763,-167,-0.0410156,-0.0749512,-0.00142925,-0.00197889,0.00127027,-0.00040441,-0.00300373,0.678866,0.00188222,0.0121965,1987,1191,-0.0410345,0.0749679
770,-167,-0.0628662,-0.0172119,-0.0017895,-0.00232446,0.000822871,-0.00119173,-0.00292223,0.628254,0.00169668,0.0223422,1994,1191,-0.062913,0.0172535
777,-167,0.0352783,0.143433,-0.00217672,-0.00251263,-0.000307417,-0.00199437,-0.00269498,-0.535384,0.00161461,0.0364143,2001,1191,0.0352666,-0.143375
784,-167,0.303467,0.389404,-0.00251034,-0.0023815,-0.00246312,1.80416e-05,-0.00490988,-0.798472,0.00327928,0.0425756,2008,1191,0.303423,-0.389408
791,-167,0.639648,0.480835,0,0,0,0,0,0,0,-1,2015,1191,0.639681,-0.480844
798,-167,0.00292969,0.578247,-0.0026905,-0.000184825,-0.0118509,0.0104793,-0.0133546,-0.838061,0.0137939,0.0471006,2022,1191,0.00296823,-0.578291
805,-167,-0.383911,-0.162476,-0.00223599,0.00265725,-0.0203911,0.020748,-0.0203267,-0.845105,0.0237149,0.0494258,2029,1191,-0.383897,0.162527
812,-167,0,0,0,0,0,0,0,0,0,-1,2036,1191,0,0
-700,-174,0,0,0,0,0,0,0,0,0,-1,524,1198,0,0
-693,-174,0,0,0,0,0,0,0,0,0,-1,531,1198,0,0
-686,-174,0.067749,0.224609,-0.0347789,0.0310415,0.00935286,0.0323447,-0.0360822,1.43235,0.0395259,0.0441991,538,1198,0.0677558,-0.224568
-679,-174,-0.427185,0.502197,-0.028383,0.0322294,0.00804671,0.0332795,-0.029433,1.44103,0.0362298,0.0444829,545,1198,-0.427166,-0.502233
-672,-174,1.78479,-2.50037,0,0,0,0,0,0,0,-1,552,1198,1.78481,2.50034
-665,-174,1.46021,-2.4679,0,0,0,0,0,0,0,-1,559,1198,1.46018,2.46793
-658,-174,1.16162,-2.30762,-0.0132154,0.0230269,0.00629024,0.0240876,-0.0142761,1.40374,0.0223894,0.0429537,566,1198,1.16164,2.30767
-651,-174,0.810425,-2.2644,-0.00966773,0.0187939,0.00583145,0.0199424,-0.0108162,1.37634,0.0180171,0.0447637,573,1198,0.810454,2.26442
-644,-174,0.20459,-0.559814,0,0,0,0,0,0,0,-1,580,1198,0.204602,0.559755
-637,-174,-0.00134277,-0.0965576,-0.00458975,0.0110993,0.00469277,0.0123958,-0.00588626,1.30124,0.0107759,0.0198858,587,1198,-0.00136227,0.0966011
-630,-174,-0.0145264,-0.0737305,-0.00274385,0.00851343,0.00392427,0.00974639,-0.00397681,1.26638,0.00815316,0.0109758,594,1198,-0.014547,0.0737582
-623,-174,-0.00396729,-0.0645752,-0.00122102,0.00567168,0.00309199,0.00685542,-0.00240476,1.20517,0.00554839,0.0115778,601,1198,-0.00398858,0.0645343
-616,-174,0.00585938,-0.0574951,-0.00041698,0.00318627,0.00257153,0.00452449,-0.0017552,1.09096,0.00374125,0.0162688,608,1198,0.00586699,0.0575239
-609,-174,-0.0106812,-0.0811768,-5.34796e-05,0.00185045,0.00208933,0.00319446,-0.00139749,0.999162,0.00271799,0.0195934,615,1198,-0.010679,0.0811886
-602,-174,-0.0372925,-0.109619,0.000515672,0.000636256,0.00169476,0.00227179,-0.00111986,0.803178,0.00199547,0.0142375,622,1198,-0.0372908,0.109608
-595,-174,-0.015625,-0.086792,0.000737369,0.00051691,0.000724135,0.00135962,-0.000105337,0.709867,0.000943485,0.0120003,629,1198,-0.0156547,0.0868398
-588,-174,-0.0202637,-0.0565186,0.000585209,0.000541176,-8.35359e-05,0.000649581,0.000476804,-0.656549,0.000388487,0.0112708,636,1198,-0.0202721,0.0564596
-581,-174,-0.0337524,-0.0615234,0.000303146,0.000681644,-0.000313678,0.000858741,0.00012605,-1.05683,0.000535446,0.0120016,643,1198,-0.0337607,0.0615313
-574,-174,-0.0178223,-0.0911865,9.713e-05,0.000806321,-0.000357026,0.00095492,-5.14697e-05,-1.17639,0.000654445,0.0278394,650,1198,-0.0178099,0.0911651
-567,-174,0.0853882,-0.0664063,3.79574e-05,0.000933478,-0.000470999,0.00113559,-0.000164151,-1.16545,0.000817289,0.0392221,657,1198,0.0853728,0.0664493
-560,-174,-0.0136108,0.0209961,-1.91963e-05,0.000972111,-0.00061578,0.00126694,-0.000314022,-1.12426,0.000966456,0.0398452,664,1198,-0.0136267,-0.0210532
-553,-174,0.0562744,-0.123657,-0.000234463,0.00100717,-0.00066181,0.00129377,-0.000521064,-1.16212,0.00107899,0.0361919,671,1198,0.0562937,0.123605
-546,-174,-0.0371094,-0.0637207,-0.000482805,0.000932206,-0.000672181,0.00120061,-0.000751205,-1.1909,0.00113679,0.0280334,678,1198,-0.0371329,0.063669
-539,-174,-0.0734253,-0.0512695,-0.000666883,0.000680175,-0.000640769,0.000936283,-0.000922992,-1.19056,0.00107346,0.031935,685,1198,-0.0734352,0.0512853
-532,-174,-0.0708618,-0.0651855,-0.000678609,0.000167997,-0.000576055,0.000459554,-0.000970166,-1.10226,0.000842815,0.0420698,692,1198,-0.0708834,0.0652313
-525,-174,-0.0236816,0.160034,-0.000414714,-0.000723443,-0.000525868,-2.10229e-05,-0.00111713,-0.642637,0.000737848,0.0410427,699,1198,-0.0236839,-0.160036
-518,-174,-0.0845337,0.143188,0.000519493,-0.00211657,-0.000534791,0.000623857,-0.00222093,-0.192727,0.00172656,0.0368111,706,1198,-0.0845153,-0.143195
-511,-174,0,0,0,0,0,0,0,0,0,-1,713,1198,0,0
-504,-174,0,0,0,0,0,0,0,0,0,-1,720,1198,0,0
-497,-174,0,0,0,0,0,0,0,0,0,-1,727,1198,0,0
-490,-174,0,0,0,0,0,0,0,0,0,-1,734,1198,0,0
-483,-174,0,0,0,0,0,0,0,0,0,-1,741,1198,0,0
-476,-174,0,0,0,0,0,0,0,0,0,-1,748,1198,0,0
-469,-174,0,0,0,0,0,0,0,0,0,-1,755,1198,0,0
-462,-174,0,0,0,0,0,0,0,0,0,-1,762,1198,0,0
-455,-174,0,0,0,0,0,0,0,0,0,-1,769,1198,0,0
-448,-174,0,0,0,0,0,0,0,0,0,-1,776,1198,0,0
-441,-174,0,0,0,0,0,0,0,0,0,-1,783,1198,0,0
-434,-174,0,0,0,0,0,0,0,0,0,-1,790,1198,0,0
-427,-174,0,0,0,0,0,0,0,0,0,-1,797,1198,0,0
-420,-174,0,0,0,0,0,0,0,0,0,-1,804,1198,0,0
-413,-174,0,0,0,0,0,0,0,0,0,-1,811,1198,0,0
-406,-174,0,0,0,0,0,0,0,0,0,-1,818,1198,0,0
-399,-174,0,0,0,0,0,0,0,0,0,-1,825,1198,0,0
-392,-174,0,0,0,0,0,0,0,0,0,-1,832,1198,0,0
-385,-174,0,0,0,0,0,0,0,0,0,-1,839,1198,0,0
-378,-174,0,0,0,0,0,0,0,0,0,-1,846,1198,0,0
-371,-174,0,0,0,0,0,0,0,0,0,-1,853,1198,0,0
-364,-174,0,0,0,0,0,0,0,0,0,-1,860,1198,0,0
-357,-174,0,0,0,0,0,0,0,0,0,-1,867,1198,0,0
-350,-174,0,0,0,0,0,0,0,0,0,-1,874,1198,0,0
-343,-174,0,0,0,0,0,0,0,0,0,-1,881,1198,0,0
-336,-174,0,0,0,0,0,0,0,0,0,-1,888,1198,0,0
-329,-174,0,0,0,0,0,0,0,0,0,-1,895,1198,0,0
-322,-174,0,0,0,0,0,0,0,0,0,-1,902,1198,0,0
-315,-174,0,0,0,0,0,0,0,0,0,-1,909,1198,0,0
-308,-174,0,0,0,0,0,0,0,0,0,-1,916,1198,0,0
-301,-174,0,0,0,0,0,0,0,0,0,-1,923,1198,0,0
-294,-174,0,0,0,0,0,0,0,0,0,-1,930,1198,0,0
-287,-174,0,0,0,0,0,0,0,0,0,-1,937,1198,0,0
-280,-174,0,0,0,0,0,0,0,0,0,-1,944,1198,0,0
-273,-174,0,0,0,0,0,0,0,0,0,-1,951,1198,0,0
-266,-174,0,0,0,0,0,0,0,0,0,-1,958,1198,0,0
-259,-174,0,0,0,0,0,0,0,0,0,-1,965,1198,0,0
-252,-174,0,0,0,0,0,0,0,0,0,-1,972,1198,0,0
-245,-174,0,0,0,0,0,0,0,0,0,-1,979,1198,0,0
-238,-174,0,0,0,0,0,0,0,0,0,-1,986,1198,0,0
-231,-174,0,0,0,0,0,0,0,0,0,-1,993,1198,0,0
-224,-174,0,0,0,0,0,0,0,0,0,-1,1000,1198,0,0
-217,-174,0,0,0,0,0,0,0,0,0,-1,1007,1198,0,0
-210,-174,0,0,0,0,0,0,0,0,0,-1,1014,1198,0,0
-203,-174,0,0,0,0,0,0,0,0,0,-1,1021,1198,0,0
-196,-174,0,0,0,0,0,0,0,0,0,-1,1028,1198,0,0
-189,-174,0,0,0,0,0,0,0,0,0,-1,1035,1198,0,0
-182,-174,0,0,0,0,0,0,0,0,0,-1,1042,1198,0,0
-175,-174,0,0,0,0,0,0,0,0,0,-1,1049,1198,0,0
-168,-174,0,0,0,0,0,0,0,0,0,-1,1056,1198,0,0
-161,-174,0,0,0,0,0,0,0,0,0,-1,1063,1198,0,0
-154,-174,0,0,0,0,0,0,0,0,0,-1,1070,1198,0,0
-147,-174,0,0,0,0,0,0,0,0,0,-1,1077,1198,0,0
-140,-174,0,0,0,0,0,0,0,0,0,-1,1084,1198,0,0
-133,-174,0,0,0,0,0,0,0,0,0,-1,1091,1198,0,0
-126,-174,0,0,0,0,0,0,0,0,0,-1,1098,1198,0,0
-119,-174,0,0,0,0,0,0,0,0,0,-1,1105,1198,0,0
-112,-174,0,0,0,0,0,0,0,0,0,-1,1112,1198,0,0
-105,-174,0,0,0,0,0,0,0,0,0,-1,1119,1198,0,0
-98,-174,0,0,0,0,0,0,0,0,0,-1,1126,1198,0,0
-91,-174,0,0,0,0,0,0,0,0,0,-1,1133,1198,0,0
-84,-174,0,0,0,0,0,0,0,0,0,-1,1140,1198,0,0
-77,-174,0,0,0,0,0,0,0,0,0,-1,1147,1198,0,0
-70,-174,0,0,0,0,0,0,0,0,0,-1,1154,1198,0,0
-63,-174,0,0,0,0,0,0,0,0,0,-1,1161,1198,0,0
-56,-174,0,0,0,0,0,0,0,0,0,-1,1168,1198,0,0
-49,-174,0,0,0,0,0,0,0,0,0,-1,1175,1198,0,0
-42,-174,0,0,0,0,0,0,0,0,0,-1,1182,1198,0,0
-35,-174,0,0,0,0,0,0,0,0,0,-1,1189,1198,0,0
-28,-174,0,0,0,0,0,0,0,0,0,-1,1196,1198,0,0
-21,-174,0,0,0,0,0,0,0,0,0,-1,1203,1198,0,0
-14,-174,0,0,0,0,0,0,0,0,0,-1,1210,1198,0,0
-7,-174,0,0,0,0,0,0,0,0,0,-1,1217,1198,0,0
0,-174,0,0,0,0,0,0,0,0,0,-1,1224,1198,0,0
7,-174,0,0,0,0,0,0,0,0,0,-1,1231,1198,0,0
14,-174,0,0,0,0,0,0,0,0,0,-1,1238,1198,0,0
21,-174,0,0,0,0,0,0,0,0,0,-1,1245,1198,0,0
28,-174,0,0,0,0,0,0,0,0,0,-1,1252,1198,0,0
35,-174,0,0,0,0,0,0,0,0,0,-1,1259,1198,0,0
42,-174,0,0,0,0,0,0,0,0,0,-1,1266,1198,0,0
49,-174,0,0,0,0,0,0,0,0,0,-1,1273,1198,0,0
56,-174,0,0,0,0,0,0,0,0,0,-1,1280,1198,0,0
63,-174,0,0,0,0,0,0,0,0,0,-1,1287,1198,0,0
70,-174,0,0,0,0,0,0,0,0,0,-1,1294,1198,0,0
77,-174,0,0,0,0,0,0,0,0,0,-1,1301,1198,0,0
84,-174,0,0,0,0,0,0,0,0,0,-1,1308,1198,0,0
91,-174,0,0,0,0,0,0,0,0,0,-1,1315,1198,0,0
98,-174,0,0,0,0,0,0,0,0,0,-1,1322,1198,0,0
105,-174,0,0,0,0,0,0,0,0,0,-1,1329,1198,0,0
112,-174,0,0,0,0,0,0,0,0,0,-1,1336,1198,0,0
119,-174,0,0,0,0,0,0,0,0,0,-1,1343,1198,0,0
126,-174,0,0,0,0,0,0,0,0,0,-1,1350,1198,0,0
133,-174,0,0,0,0,0,0,0,0,0,-1,1357,1198,0,0
140,-174,0,0,0,0,0,0,0,0,0,-1,1364,1198,0,0
147,-174,0,0,0,0,0,0,0,0,0,-1,1371,1198,0,0
154,-174,0,0,0,0,0,0,0,0,0,-1,1378,1198,0,0
161,-174,0,0,0,0,0,0,0,0,0,-1,1385,1198,0,0
168,-174,0,0,0,0,0,0,0,0,0,-1,1392,1198,0,0
175,-174,0,0,0,0,0,0,0,0,0,-1,1399,1198,0,0
182,-174,0,0,0,0,0,0,0,0,0,-1,1406,1198,0,0
189,-174,0,0,0,0,0,0,0,0,0,-1,1413,1198,0,0
196,-174,0,0,0,0,0,0,0,0,0,-1,1420,1198,0,0
203,-174,0,0,0,0,0,0,0,0,0,-1,1427,1198,0,0
210,-174,0,0,0,0,0,0,0,0,0,-1,1434,1198,0,0
217,-174,0,0,0,0,0,0,0,0,0,-1,1441,1198,0,0
224,-174,0,0,0,0,0,0,0,0,0,-1,1448,1198,0,0
231,-174,0,0,0,0,0,0,0,0,0,-1,1455,1198,0,0
238,-174,0,0,0,0,0,0,0,0,0,-1,1462,1198,0,0
245,-174,0,0,0,0,0,0,0,0,0,-1,1469,1198,0,0
252,-174,0,0,0,0,0,0,0,0,0,-1,1476,1198,0,0
259,-174,0,0,0,0,0,0,0,0,0,-1,1483,1198,0,0
266,-174,0,0,0,0,0,0,0,0,0,-1,1490,1198,0,0
273,-174,0,0,0,0,0,0,0,0,0,-1,1497,1198,0,0
280,-174,0,0,0,0,0,0,0,0,0,-1,1504,1198,0,0
287,-174,0,0,0,0,0,0,0,0,0,-1,1511,1198,0,0
294,-174,0,0,0,0,0,0,0,0,0,-1,1518,1198,0,0
301,-174,0,0,0,0,0,0,0,0,0,-1,1525,1198,0,0
308,-174,0,0,0,0,0,0,0,0,0,-1,1532,1198,0,0
315,-174,0,0,0,0,0,0,0,0,0,-1,1539,1198,0,0
322,-174,0,0,0,0,0,0,0,0,0,-1,1546,1198,0,0
329,-174,0,0,0,0,0,0,0,0,0,-1,1553,1198,0,0
336,-174,0,0,0,0,0,0,0,0,0,-1,1560,1198,0,0
343,-174,0,0,0,0,0,0,0,0,0,-1,1567,1198,0,0
350,-174,0,0,0,0,0,0,0,0,0,-1,1574,1198,0,0
357,-174,0,0,0,0,0,0,0,0,0,-1,1581,1198,0,0
364,-174,0,0,0,0,0,0,0,0,0,-1,1588,1198,0,0
371,-174,0,0,0,0,0,0,0,0,0,-1,1595,1198,0,0
378,-174,0,0,0,0,0,0,0,0,0,-1,1602,1198,0,0
385,-174,0,0,0,0,0,0,0,0,0,-1,1609,1198,0,0
392,-174,0,0,0,0,0,0,0,0,0,-1,1616,1198,0,0
399,-174,0,0,0,0,0,0,0,0,0,-1,1623,1198,0,0
406,-174,0,0,0,0,0,0,0,0,0,-1,1630,1198,0,0
413,-174,0,0,0,0,0,0,0,0,0,-1,1637,1198,0,0
420,-174,0,0,0,0,0,0,0,0,0,-1,1644,1198,0,0
427,-174,0,0,0,0,0,0,0,0,0,-1,1651,1198,0,0
434,-174,0,0,0,0,0,0,0,0,0,-1,1658,1198,0,0
441,-174,0,0,0,0,0,0,0,0,0,-1,1665,1198,0,0
448,-174,0,0,0,0,0,0,0,0,0,-1,1672,1198,0,0
455,-174,0,0,0,0,0,0,0,0,0,-1,1679,1198,0,0
462,-174,0,0,0,0,0,0,0,0,0,-1,1686,1198,0,0
469,-174,0,0,0,0,0,0,0,0,0,-1,1693,1198,0,0
476,-174,0,0,0,0,0,0,0,0,0,-1,1700,1198,0,0
483,-174,0,0,0,0,0,0,0,0,0,-1,1707,1198,0,0
490,-174,0,0,0,0,0,0,0,0,0,-1,1714,1198,0,0
497,-174,0,0,0,0,0,0,0,0,0,-1,1721,1198,0,0
504,-174,0,0,0,0,0,0,0,0,0,-1,1728,1198,0,0
511,-174,0,0,0,0,0,0,0,0,0,-1,1735,1198,0,0
518,-174,0,0,0,0,0,0,0,0,0,-1,1742,1198,0,0
525,-174,0,0,0,0,0,0,0,0,0,-1,1749,1198,0,0
532,-174,0,0,0,0,0,0,0,0,0,-1,1756,1198,0,0
539,-174,0,0,0,0,0,0,0,0,0,-1,1763,1198,0,0
546,-174,0,0,0,0,0,0,0,0,0,-1,1770,1198,0,0
553,-174,0,0,0,0,0,0,0,0,0,-1,1777,1198,0,0
560,-174,0,0,0,0,0,0,0,0,0,-1,1784,1198,0,0
567,-174,0,0,0,0,0,0,0,0,0,-1,1791,1198,0,0
574,-174,0,0,0,0,0,0,0,0,0,-1,1798,1198,0,0
581,-174,0,0,0,0,0,0,0,0,0,-1,1805,1198,0,0
588,-174,0,0,0,0,0,0,0,0,0,-1,1812,1198,0,0
595,-174,0,0,0,0,0,0,0,0,0,-1,1819,1198,0,0
602,-174,0,0,0,0,0,0,0,0,0,-1,1826,1198,0,0
609,-174,0,0,0,0,0,0,0,0,0,-1,1833,1198,0,0
616,-174,0,0,0,0,0,0,0,0,0,-1,1840,1198,0,0
623,-174,0,0,0,0,0,0,0,0,0,-1,1847,1198,0,0
630,-174,0,0,0,0,0,0,0,0,0,-1,1854,1198,0,0
637,-174,-0.0632324,-0.00012207,0.000499047,-0.0014582,0.00108859,0.000984231,-0.00194338,0.419272,0.00172023,0.0366886,1861,1198,-0.0632724,0.000144721
644,-174,-0.0787354,-0.114258,0.000466761,-0.000763407,0.000336196,0.000552645,-0.000849291,0.250109,0.000815426,0.0350282,1868,1198,-0.0787622,0.114308
651,-174,-0.191895,-0.147461,0.000375811,0.000311275,-0.000239402,0.000585109,0.000101976,-0.718409,0.000360915,0.0365536,1875,1198,-0.191915,0.147403
658,-174,-0.151855,-0.136719,0.000219081,0.0011845,-0.000514357,0.00140717,-3.59764e-06,-1.16223,0.000939318,0.0365311,1882,1198,-0.151811,0.136682
665,-174,0.0185547,-0.083252,1.41056e-05,0.00183215,-0.00064161,0.00203578,-0.00018952,-1.26348,0.00142457,0.0307174,1889,1198,0.0185689,0.0832125
672,-174,0.00842285,-0.111084,-0.000181408,0.00225779,-0.000633101,0.00241232,-0.000335941,-1.33139,0.00173109,0.0216156,1896,1198,0.00842046,0.111029
679,-174,-0.0233154,-0.101807,-0.000336926,0.00246693,-0.000535812,0.00256584,-0.00043583,-1.38826,0.00187281,0.0165719,1903,1198,-0.0232555,0.101765
686,-174,-0.0814209,-0.0895996,-0.00048071,0.00252065,-0.000448801,0.00258632,-0.000546383,-1.4255,0.00193227,0.0360184,1910,1198,-0.0814192,0.0896047
693,-174,-0.119629,-0.568237,-0.000590215,0.00247121,-0.000296914,0.00249974,-0.000618746,-1.475,0.00190651,0.0435476,1917,1198,-0.119654,0.568255
700,-174,-0.00817871,-0.446533,-0.00063251,0.00229211,-0.000133592,0.0022982,-0.000638599,-1.52524,0.00178352,0.0414413,1924,1198,-0.0081318,0.446557
707,-174,-0.0197754,-0.12561,-0.000628658,0.00200593,-1.86881e-05,0.00200606,-0.000628791,-1.5637,0.001589,0.0274107,1931,1198,-0.0197779,0.125596
714,-174,-0.0284424,-0.0789795,-0.000618573,0.00166071,4.93018e-05,0.00166177,-0.000619639,1.54918,0.00136221,0.0168379,1938,1198,-0.028448,0.0789485
721,-174,-0.0306396,-0.0592041,-0.000591898,0.00130417,0.000197965,0.00132462,-0.000612346,1.46787,0.00114323,0.0133884,1945,1198,-0.0305999,0.0592477
728,-174,-0.0378418,-0.0571289,-0.000572826,0.000658991,0.000675078,0.000956906,-0.000870741,1.1552,0.00105558,0.0106926,1952,1198,-0.0377837,0.0571104
735,-174,-0.0374756,-0.0699463,-0.00056137,-7.44003e-05,0.00135289,0.00105674,-0.00169252,0.874432,0.00160137,0.0107371,1959,1198,-0.0375274,0.069959
742,-174,-0.0595703,-0.0872803,-0.000530576,-0.000761143,0.00190203,0.00125966,-0.00255138,0.75513,0.00224204,0.0178007,1966,1198,-0.0596047,0.0872346
749,-174,-0.0478516,-0.0821533,-0.000682369,-0.00141774,0.00193769,0.000922211,-0.00302232,0.691636,0.00238254,0.015929,1973,1198,-0.0478627,0.0821312
756,-174,-0.0419922,-0.0887451,-0.000797201,-0.00167503,0.00181429,0.000630515,-0.00310275,0.666718,0.00230756,0.0100749,1980,1198,-0.0420455,0.0887116
763,-174,-0.0588379,-0.09375,-0.00100841,-0.00218965,0.00188416,0.000375534,-0.00357359,0.633517,0.00251693,0.0129576,1987,1198,-0.058894,0.0937197
770,-174,-0.0427246,-0.0435791,-0.00130474,-0.00263958,0.00169255,-0.00015277,-0.00379155,0.597594,0.00247835,0.023544,1994,1198,-0.0427112,0.0435729
777,-174,0.052002,0.192627,-0.00165031,-0.00296367,0.000870098,-0.0012169,-0.00339708,0.462142,0.00198742,0.0407427,2001,1198,0.0520419,-0.192603
784,-174,0.129639,0.49707,-0.00199776,-0.0029927,-0.00095493,-0.00141849,-0.00357197,-0.545264,0.00207678,0.045164,2008,1198,0.12963,-0.497036
791,-174,0.400269,0.567627,-0.00230998,-0.00248554,-0.00430869,0.00191183,-0.00670735,-0.775213,0.00522672,0.0444482,2015,1198,0.400323,-0.567574
798,-174,0.563477,0.684937,0,0,0,0,0,0,0,-1,2022,1198,0.563499,-0.684973
805,-174,0.13855,0.00195313,0,0,0,0,0,0,0,-1,2029,1198,0.138534,-0.00198657
812,-174,0,0,0,0,0,0,0,0,0,-1,2036,1198,0,0
-700,-181,0,0,0,0,0,0,0,0,0,-1,524,1205,0,0
-693,-181,0,0,0,0,0,0,0,0,0,-1,531,1205,0,0
-686,-181,0.113342,0.193237,-0.0361345,0.0390755,0.00928693,0.0402053,-0.0372642,1.44974,0.0447378,0.0434156,538,1205,0.113352,-0.193205
-679,-181,-0.451965,0.722534,-0.0286352,0.0388507,0.00781274,0.0397434,-0.0295278,1.45703,0.0401385,0.044987,545,1205,-0.451939,-0.722473
-672,-181,-0.855164,1.2356,-0.0218786,0.0355529,0.00694646,0.0363812,-0.0227068,1.45212,0.0344176,0.0465779,552,1205,-0.855183,-1.23563
-665,-181,1.36981,-2.67334,0,0,0,0,0,0,0,-1,559,1205,1.3698,2.67337
-658,-181,1.25006,-2.65051,-0.0115607,0.0257966,0.00592853,0.0267149,-0.012479,1.41713,0.0231208,0.0407879,566,1205,1.25007,2.65048
-651,-181,0.796753,-2.83667,-0.00780992,0.0206692,0.00549769,0.0216937,-0.00883436,1.38657,0.0181391,0.04257,573,1205,0.796779,2.83664
-644,-181,0.0733643,-0.19812,-0.00488578,0.0159001,0.00501926,0.0170487,-0.00603434,1.34584,0.0138235,0.0408642,580,1205,0.0733635,0.198109
-637,-181,-0.0238647,-0.0734863,-0.00276029,0.0117231,0.00445892,0.0129857,-0.00402296,1.29484,0.0102644,0.0219166,587,1205,-0.0238839,0.0735435
-630,-181,-0.0203247,-0.06604,-0.00105434,0.00874128,0.00373126,0.0100006,-0.00231371,1.24528,0.00755733,0.0108688,594,1205,-0.0203271,0.0660152
-623,-181,-0.019165,-0.0600586,0.000311236,0.00562356,0.00292738,0.00692021,-0.000985418,1.15383,0.00497459,0.0122491,601,1205,-0.0191575,0.0599985
-616,-181,-0.00201416,-0.0714111,0.000867706,0.00293141,0.0024245,0.0045345,-0.000735384,0.986585,0.00329559,0.0124605,608,1205,-0.00203092,0.0713798
-609,-181,0.00830078,-0.0762939,0.000941591,0.00163154,0.00196972,0.00328626,-0.00071313,0.872089,0.00246321,0.0133218,615,1205,0.00829667,0.0762564
-602,-181,-0.0194702,-0.0809326,0.00132826,0.000400256,0.00157953,0.00251053,-0.000782018,0.642538,0.00198635,0.0121646,622,1205,-0.0194836,0.0809489
-595,-181,-0.013916,-0.0819092,0.0013862,0.000426215,0.000578931,0.00165824,0.000154174,0.439281,0.00105785,0.0115505,629,1205,-0.01394,0.0819425
-588,-181,-0.0321045,-0.0626221,0.00106755,0.000475794,-0.0002116,0.00113543,0.000407916,-0.310414,0.000664139,0.0105562,636,1205,-0.0321173,0.0626694
-581,-181,-0.0439453,-0.0758057,0.000634308,0.000656163,-0.000440911,0.00108628,0.00020419,-0.797788,0.000666632,0.0102997,643,1205,-0.0439527,0.0757799
-574,-181,-0.0471191,-0.140137,0.000339253,0.000882502,-0.000464522,0.00114899,7.27691e-05,-1.04996,0.000742923,0.0230844,650,1205,-0.0471015,0.140137
-567,-181,-0.0560913,-0.177979,0.000288979,0.00101833,-0.000561541,0.00132322,-1.59105e-05,-1.07338,0.000887495,0.038786,657,1205,-0.0560963,0.177997
-560,-181,-0.0404053,0.133911,0.000247475,0.00105694,-0.000700922,0.00146159,-0.000157175,-1.04723,0.00103079,0.0440319,664,1205,-0.0404196,-0.133888
-553,-181,0.0122681,-0.0266113,2.0773e-05,0.00110269,-0.000715634,0.00145882,-0.000335357,-1.10904,0.00110148,0.041128,671,1205,0.012294,0.0265559
-546,-181,-0.0148926,-0.0634766,-0.00025194,0.0010538,-0.00068625,0.00134813,-0.000546264,-1.16564,0.00112591,0.0319482,678,1205,-0.0148844,0.0635225
-539,-181,-0.012085,-0.0994873,-0.000469604,0.000850833,-0.00060893,0.00108877,-0.000707542,-1.19829,0.00104486,0.0354472,685,1205,-0.0120672,0.0994946
-532,-181,-0.0592651,0.0614014,-0.000504798,0.000424713,-0.000496497,0.000640036,-0.000720121,-1.16159,0.000785741,0.0423038,692,1205,-0.0592837,-0.0614543
-525,-181,-0.0820313,0.188721,-0.000236684,-0.000325669,-0.000411327,0.000132549,-0.000694903,-0.731524,0.00051319,0.0389607,699,1205,-0.0820291,-0.188675
-518,-181,-0.0283813,0.043335,0.000716171,-0.00150265,-0.000435279,0.000798507,-0.00158498,-0.186948,0.00140086,0.036263,706,1205,-0.0283726,-0.0433595
-511,-181,0,0,0,0,0,0,0,0,0,-1,713,1205,0,0
-504,-181,0,0,0,0,0,0,0,0,0,-1,720,1205,0,0
-497,-181,0,0,0,0,0,0,0,0,0,-1,727,1205,0,0
-490,-181,0,0,0,0,0,0,0,0,0,-1,734,1205,0,0
-483,-181,0,0,0,0,0,0,0,0,0,-1,741,1205,0,0
-476,-181,0,0,0,0,0,0,0,0,0,-1,748,1205,0,0
-469,-181,0,0,0,0,0,0,0,0,0,-1,755,1205,0,0
-462,-181,0,0,0,0,0,0,0,0,0,-1,762,1205,0,0
-455,-181,0,0,0,0,0,0,0,0,0,-1,769,1205,0,0
-448,-181,0,0,0,0,0,0,0,0,0,-1,776,1205,0,0
-441,-181,0,0,0,0,0,0,0,0,0,-1,783,1205,0,0
-434,-181,0,0,0,0,0,0,0,0,0,-1,790,1205,0,0
-427,-181,0,0,0,0,0,0,0,0,0,-1,797,1205,0,0
-420,-181,0,0,0,0,0,0,0,0,0,-1,804,1205,0,0
-413,-181,0,0,0,0,0,0,0,0,0,-1,811,1205,0,0
-406,-181,0,0,0,0,0,0,0,0,0,-1,818,1205,0,0
-399,-181,0,0,0,0,0,0,0,0,0,-1,825,1205,0,0
-392,-181,0,0,0,0,0,0,0,0,0,-1,832,1205,0,0
-385,-181,0,0,0,0,0,0,0,0,0,-1,839,1205,0,0
-378,-181,0,0,0,0,0,0,0,0,0,-1,846,1205,0,0
-371,-181,0,0,0,0,0,0,0,0,0,-1,853,1205,0,0
-364,-181,0,0,0,0,0,0,0,0,0,-1,860,1205,0,0
-357,-181,0,0,0,0,0,0,0,0,0,-1,867,1205,0,0
-350,-181,0,0,0,0,0,0,0,0,0,-1,874,1205,0,0
-343,-181,0,0,0,0,0,0,0,0,0,-1,881,1205,0,0
-336,-181,0,0,0,0,0,0,0,0,0,-1,888,1205,0,0
-329,-181,0,0,0,0,0,0,0,0,0,-1,895,1205,0,0
-322,-181,0,0,0,0,0,0,0,0,0,-1,902,1205,0,0
-315,-181,0,0,0,0,0,0,0,0,0,-1,909,1205,0,0
-308,-181,0,0,0,0,0,0,0,0,0,-1,916,1205,0,0
-301,-181,0,0,0,0,0,0,0,0,0,-1,923,1205,0,0
-294,-181,0,0,0,0,0,0,0,0,0,-1,930,1205,0,0
-287,-181,0,0,0,0,0,0,0,0,0,-1,937,1205,0,0
-280,-181,0,0,0,0,0,0,0,0,0,-1,944,1205,0,0
-273,-181,0,0,0,0,0,0,0,0,0,-1,951,1205,0,0
-266,-181,0,0,0,0,0,0,0,0,0,-1,958,1205,0,0
-259,-181,0,0,0,0,0,0,0,0,0,-1,965,1205,0,0
-252,-181,0,0,0,0,0,0,0,0,0,-1,972,1205,0,0
-245,-181,0,0,0,0,0,0,0,0,0,-1,979,1205,0,0
-238,-181,0,0,0,0,0,0,0,0,0,-1,986,1205,0,0
-231,-181,0,0,0,0,0,0,0,0,0,-1,993,1205,0,0
-224,-181,0,0,0,0,0,0,0,0,0,-1,1000,1205,0,0
-217,-181,0,0,0,0,0,0,0,0,0,-1,1007,1205,0,0
-210,-181,0,0,0,0,0,0,0,0,0,-1,1014,1205,0,0
-203,-181,0,0,0,0,0,0,0,0,0,-1,1021,1205,0,0
-196,-181,0,0,0,0,0,0,0,0,0,-1,1028,1205,0,0
-189,-181,0,0,0,0,0,0,0,0,0,-1,1035,1205,0,0
-182,-181,0,0,0,0,0,0,0,0,0,-1,1042,1205,0,0
-175,-181,0,0,0,0,0,0,0,0,0,-1,1049,1205,0,0
-168,-181,0,0,0,0,0,0,0,0,0,-1,1056,1205,0,0
-161,-181,0,0,0,0,0,0,0,0,0,-1,1063,1205,0,0
-154,-181,0,0,0,0,0,0,0,0,0,-1,1070,1205,0,0
-147,-181,0,0,0,0,0,0,0,0,0,-1,1077,1205,0,0
-140,-181,0,0,0,0,0,0,0,0,0,-1,1084,1205,0,0
-133,-181,0,0,0,0,0,0,0,0,0,-1,1091,1205,0,0
-126,-181,0,0,0,0,0,0,0,0,0,-1,1098,1205,0,0
-119,-181,0,0,0,0,0,0,0,0,0,-1,1105,1205,0,0
-112,-181,0,0,0,0,0,0,0,0,0,-1,1112,1205,0,0
-105,-181,0,0,0,0,0,0,0,0,0,-1,1119,1205,0,0
-98,-181,0,0,0,0,0,0,0,0,0,-1,1126,1205,0,0
-91,-181,0,0,0,0,0,0,0,0,0,-1,1133,1205,0,0
-84,-181,0,0,0,0,0,0,0,0,0,-1,1140,1205,0,0
-77,-181,0,0,0,0,0,0,0,0,0,-1,1147,1205,0,0
-70,-181,0,0,0,0,0,0,0,0,0,-1,1154,1205,0,0
-63,-181,0,0,0,0,0,0,0,0,0,-1,1161,1205,0,0
-56,-181,0,0,0,0,0,0,0,0,0,-1,1168,1205,0,0
-49,-181,0,0,0,0,0,0,0,0,0,-1,1175,1205,0,0
-42,-181,0,0,0,0,0,0,0,0,0,-1,1182,1205,0,0
-35,-181,0,0,0,0,0,0,0,0,0,-1,1189,1205,0,0
-28,-181,0,0,0,0,0,0,0,0,0,-1,1196,1205,0,0
-21,-181,0,0,0,0,0,0,0,0,0,-1,1203,1205,0,0
-14,-181,0,0,0,0,0,0,0,0,0,-1,1210,1205,0,0
-7,-181,0,0,0,0,0,0,0,0,0,-1,1217,1205,0,0
0,-181,0,0,0,0,0,0,0,0,0,-1,1224,1205,0,0
7,-181,0,0,0,0,0,0,0,0,0,-1,1231,1205,0,0
14,-181,0,0,0,0,0,0,0,0,0,-1,1238,1205,0,0
21,-181,0,0,0,0,0,0,0,0,0,-1,1245,1205,0,0
28,-181,0,0,0,0,0,0,0,0,0,-1,1252,1205,0,0
35,-181,0,0,0,0,0,0,0,0,0,-1,1259,1205,0,0
42,-181,0,0,0,0,0,0,0,0,0,-1,1266,1205,0,0
49,-181,0,0,0,0,0,0,0,0,0,-1,1273,1205,0,0
56,-181,0,0,0,0,0,0,0,0,0,-1,1280,1205,0,0
63,-181,0,0,0,0,0,0,0,0,0,-1,1287,1205,0,0
70,-181,0,0,0,0,0,0,0,0,0,-1,1294,1205,0,0
77,-181,0,0,0,0,0,0,0,0,0,-1,1301,1205,0,0
84,-181,0,0,0,0,0,0,0,0,0,-1,1308,1205,0,0
91,-181,0,0,0,0,0,0,0,0,0,-1,1315,1205,0,0
98,-181,0,0,0,0,0,0,0,0,0,-1,1322,1205,0,0
105,-181,0,0,0,0,0,0,0,0,0,-1,1329,1205,0,0
112,-181,0,0,0,0,0,0,0,0,0,-1,1336,1205,0,0
119,-181,0,0,0,0,0,0,0,0,0,-1,1343,1205,0,0
126,-181,0,0,0,0,0,0,0,0,0,-1,1350,1205,0,0
133,-181,0,0,0,0,0,0,0,0,0,-1,1357,1205,0,0
140,-181,0,0,0,0,0,0,0,0,0,-1,1364,1205,0,0
147,-181,0,0,0,0,0,0,0,0,0,-1,1371,1205,0,0
154,-181,0,0,0,0,0,0,0,0,0,-1,1378,1205,0,0
161,-181,0,0,0,0,0,0,0,0,0,-1,1385,1205,0,0
168,-181,0,0,0,0,0,0,0,0,0,-1,1392,1205,0,0
175,-181,0,0,0,0,0,0,0,0,0,-1,1399,1205,0,0
182,-181,0,0,0,0,0,0,0,0,0,-1,1406,1205,0,0
189,-181,0,0,0,0,0,0,0,0,0,-1,1413,1205,0,0
196,-181,0,0,0,0,0,0,0,0,0,-1,1420,1205,0,0
203,-181,0,0,0,0,0,0,0,0,0,-1,1427,1205,0,0
210,-181,0,0,0,0,0,0,0,0,0,-1,1434,1205,0,0
217,-181,0,0,0,0,0,0,0,0,0,-1,1441,1205,0,0
224,-181,0,0,0,0,0,0,0,0,0,-1,1448,1205,0,0
231,-181,0,0,0,0,0,0,0,0,0,-1,1455,1205,0,0
238,-181,0,0,0,0,0,0,0,0,0,-1,1462,1205,0,0
245,-181,0,0,0,0,0,0,0,0,0,-1,1469,1205,0,0
252,-181,0,0,0,0,0,0,0,0,0,-1,1476,1205,0,0
259,-181,0,0,0,0,0,0,0,0,0,-1,1483,1205,0,0
266,-181,0,0,0,0,0,0,0,0,0,-1,1490,1205,0,0
273,-181,0,0,0,0,0,0,0,0,0,-1,1497,1205,0,0
280,-181,0,0,0,0,0,0,0,0,0,-1,1504,1205,0,0
287,-181,0,0,0,0,0,0,0,0,0,-1,1511,1205,0,0
294,-181,0,0,0,0,0,0,0,0,0,-1,1518,1205,0,0
301,-181,0,0,0,0,0,0,0,0,0,-1,1525,1205,0,0
308,-181,0,0,0,0,0,0,0,0,0,-1,1532,1205,0,0
315,-181,0,0,0,0,0,0,0,0,0,-1,1539,1205,0,0
322,-181,0,0,0,0,0,0,0,0,0,-1,1546,1205,0,0
329,-181,0,0,0,0,0,0,0,0,0,-1,1553,1205,0,0
336,-181,0,0,0,0,0,0,0,0,0,-1,1560,1205,0,0
343,-181,0,0,0,0,0,0,0,0,0,-1,1567,1205,0,0
350,-181,0,0,0,0,0,0,0,0,0,-1,1574,1205,0,0
357,-181,0,0,0,0,0,0,0,0,0,-1,1581,1205,0,0
364,-181,0,0,0,0,0,0,0,0,0,-1,1588,1205,0,0
371,-181,0,0,0,0,0,0,0,0,0,-1,1595,1205,0,0
378,-181,0,0,0,0,0,0,0,0,0,-1,1602,1205,0,0
385,-181,0,0,0,0,0,0,0,0,0,-1,1609,1205,0,0
392,-181,0,0,0,0,0,0,0,0,0,-1,1616,1205,0,0
399,-181,0,0,0,0,0,0,0,0,0,-1,1623,1205,0,0
406,-181,0,0,0,0,0,0,0,0,0,-1,1630,1205,0,0
413,-181,0,0,0,0,0,0,0,0,0,-1,1637,1205,0,0
420,-181,0,0,0,0,0,0,0,0,0,-1,1644,1205,0,0
427,-181,0,0,0,0,0,0,0,0,0,-1,1651,1205,0,0
434,-181,0,0,0,0,0,0,0,0,0,-1,1658,1205,0,0
441,-181,0,0,0,0,0,0,0,0,0,-1,1665,1205,0,0
448,-181,0,0,0,0,0,0,0,0,0,-1,1672,1205,0,0
455,-181,0,0,0,0,0,0,0,0,0,-1,1679,1205,0,0
462,-181,0,0,0,0,0,0,0,0,0,-1,1686,1205,0,0
469,-181,0,0,0,0,0,0,0,0,0,-1,1693,1205,0,0
476,-181,0,0,0,0,0,0,0,0,0,-1,1700,1205,0,0
483,-181,0,0,0,0,0,0,0,0,0,-1,1707,1205,0,0
490,-181,0,0,0,0,0,0,0,0,0,-1,1714,1205,0,0
497,-181,0,0,0,0,0,0,0,0,0,-1,1721,1205,0,0
504,-181,0,0,0,0,0,0,0,0,0,-1,1728,1205,0,0
511,-181,0,0,0,0,0,0,0,0,0,-1,1735,1205,0,0
518,-181,0,0,0,0,0,0,0,0,0,-1,1742,1205,0,0
525,-181,0,0,0,0,0,0,0,0,0,-1,1749,1205,0,0
532,-181,0,0,0,0,0,0,0,0,0,-1,1756,1205,0,0
539,-181,0,0,0,0,0,0,0,0,0,-1,1763,1205,0,0
546,-181,0,0,0,0,0,0,0,0,0,-1,1770,1205,0,0
553,-181,0,0,0,0,0,0,0,0,0,-1,1777,1205,0,0
560,-181,0,0,0,0,0,0,0,0,0,-1,1784,1205,0,0
567,-181,0,0,0,0,0,0,0,0,0,-1,1791,1205,0,0
574,-181,0,0,0,0,0,0,0,0,0,-1,1798,1205,0,0
581,-181,0,0,0,0,0,0,0,0,0,-1,1805,1205,0,0
588,-181,0,0,0,0,0,0,0,0,0,-1,1812,1205,0,0
595,-181,0,0,0,0,0,0,0,0,0,-1,1819,1205,0,0
602,-181,0,0,0,0,0,0,0,0,0,-1,1826,1205,0,0
609,-181,0,0,0,0,0,0,0,0,0,-1,1833,1205,0,0
616,-181,0,0,0,0,0,0,0,0,0,-1,1840,1205,0,0
623,-181,0,0,0,0,0,0,0,0,0,-1,1847,1205,0,0
630,-181,0.039917,-0.0771484,-0.00078823,-0.00187021,0.000915643,-0.000265701,-0.00239274,0.518573,0.00151438,0.0328073,1854,1205,0.0398822,0.0770993
637,-181,0.050415,-0.121948,-9.52956e-05,-0.000976593,0.000588769,0.00019946,-0.00127135,0.464152,0.000921278,0.0337611,1861,1205,0.0504274,0.121924
644,-181,0.0212402,-0.176392,0.000243228,-0.000158431,-0.000119178,0.000275928,-0.000191131,-0.267788,0.000271134,0.0362224,1868,1205,0.0212895,0.176451
651,-181,-0.0196533,-0.189087,0.000377753,0.000880612,-0.00063396,0.00131118,-5.28164e-05,-0.974185,0.000892247,0.0371626,1875,1205,-0.0196639,0.189139
658,-181,-0.0611572,-0.173462,0.000343417,0.00169488,-0.000872308,0.00212257,-8.42707e-05,-1.11494,0.00144396,0.0323284,1882,1205,-0.0610974,0.173471
665,-181,0.0239258,-0.113525,0.000208741,0.00226878,-0.000968734,0.00265276,-0.000175236,-1.19342,0.00182972,0.0267873,1889,1205,0.0238916,0.113537
672,-181,-0.0057373,-0.0860596,3.55946e-05,0.00261571,-0.000925363,0.00291328,-0.00026197,-1.25967,0.00203514,0.0190661,1896,1205,-0.00576021,0.0860897
679,-181,-0.0218506,-0.0759277,-0.000125319,0.00274742,-0.000789256,0.00294998,-0.000327876,-1.31957,0.00208456,0.0227275,1903,1205,-0.0218517,0.0759135
686,-181,-0.0740967,-0.111206,-0.00029516,0.0027391,-0.000671629,0.00288111,-0.000437177,-1.36241,0.00208183,0.0436118,1910,1205,-0.0741441,0.111253
693,-181,0.0710449,-0.428955,0,0,0,0,0,0,0,-1,1917,1205,0.0710357,0.428968
700,-181,0.0506592,-0.275879,-0.000509577,0.0023949,-0.000284404,0.00242248,-0.000537163,-1.4741,0.00182065,0.0412841,1924,1205,0.0506253,0.275931
707,-181,-0.00549316,-0.0791016,-0.000552417,0.00206773,-0.000124276,0.00207361,-0.000558298,-1.52351,0.00160129,0.020212,1931,1205,-0.00554243,0.0791131
714,-181,-0.019165,-0.0666504,-0.000582558,0.00168893,-2.33921e-05,0.00168917,-0.000582799,-1.5605,0.00136258,0.015983,1938,1205,-0.0191933,0.0666436
721,-181,-0.0118408,-0.0623779,-0.000583319,0.00128796,0.00015112,0.00130008,-0.000595444,1.49073,0.00111931,0.0119603,1945,1205,-0.0117824,0.0623457
728,-181,-0.00585938,-0.0759277,-0.000575138,0.000611307,0.000647779,0.000896453,-0.000860284,1.15613,0.00101432,0.0105975,1952,1205,-0.00585196,0.0759569
735,-181,-0.0159912,-0.0836182,-0.000511246,-0.000178744,0.00132087,0.0009863,-0.00167629,0.848001,0.00155436,0.0104552,1959,1205,-0.0160506,0.0835892
742,-181,-0.0435791,-0.0708008,-0.000391744,-0.000832114,0.00182804,0.00122932,-0.00245318,0.725463,0.00216488,0.0148864,1966,1205,-0.0435728,0.0707819
749,-181,-0.0308838,-0.0797119,-0.000486421,-0.00150967,0.00193166,0.00100022,-0.00299631,0.65594,0.00240141,0.0137843,1973,1205,-0.0309281,0.0796886
756,-181,-0.034668,-0.100098,-0.000573958,-0.00184131,0.00192264,0.000816735,-0.00323201,0.62621,0.0024723,0.0104032,1980,1205,-0.0346758,0.100066
763,-181,-0.0463867,-0.0970459,-0.000753537,-0.00243389,0.00215017,0.000714779,-0.00390221,0.599145,0.00286956,0.0111862,1987,1205,-0.0463493,0.0970198
770,-181,-0.0189209,-0.0487061,-0.00102884,-0.00301035,0.00213913,0.000337834,-0.00437702,0.568526,0.0030369,0.0222411,1994,1205,-0.0189244,0.048734
777,-181,-0.0919189,0.327637,-0.00137435,-0.00350995,0.00155771,-0.000553588,-0.00433071,0.484936,0.00272145,0.0402023,2001,1205,-0.0919152,-0.327682
784,-181,-0.157837,0.591309,-0.00176702,-0.00377269,1.91463e-05,-0.00176684,-0.00377287,0.00954493,0.00217973,0.0468306,2008,1205,-0.157781,-0.591359
791,-181,-0.0961914,0.514282,-0.00219025,-0.00355918,-0.00303663,0.000238099,-0.00598752,-0.674549,0.00407337,0.0497811,2015,1205,-0.0962157,-0.51432
798,-181,-0.132568,0.26123,0,0,0,0,0,0,0,-1,2022,1205,-0.132525,-0.261214
805,-181,0,0,0,0,0,0,0,0,0,-1,2029,1205,0,0
812,-181,0,0,0,0,0,0,0,0,0,-1,2036,1205,0,0
-700,-188,0,0,0,0,0,0,0,0,0,-1,524,1212,0,0
-693,-188,0,0,0,0,0,0,0,0,0,-1,531,1212,0,0
-686,-188,0,0,0,0,0,0,0,0,0,-1,538,1212,0,0
-679,-188,-0.262024,0.64917,-0.0277706,0.0462643,0.00671687,0.0468688,-0.028375,1.48105,0.0438772,0.0435052,545,1212,-0.262042,-0.649205
-672,-188,-0.768372,1.06458,-0.0205462,0.040915,0.00598763,0.0414929,-0.0211241,1.47458,0.036784,0.0476535,552,1212,-0.768358,-1.06456
-665,-188,-0.717896,0.459351,0,0,0,0,0,0,0,-1,559,1212,-0.717917,-0.459309
-658,-188,0.290588,-0.536255,0,0,0,0,0,0,0,-1,566,1212,0.290565,0.536254
-651,-188,0.225342,-0.39624,-0.00603629,0.0222228,0.00490344,0.0230494,-0.00686294,1.40378,0.0180931,0.0471307,573,1212,0.225358,0.396234
-644,-188,0.124634,-0.257568,-0.00317551,0.0167644,0.00453246,0.0177463,-0.00415741,1.35746,0.0134329,0.0416243,580,1212,0.124639,0.257623
-637,-188,-0.0389404,-0.081665,-0.00117985,0.0121142,0.00407056,0.0132615,-0.00232721,1.29606,0.00971018,0.0207743,587,1212,-0.0389156,0.0816115
-630,-188,-0.0294189,-0.0681152,0.000354063,0.00878283,0.00342355,0.00999815,-0.00086126,1.22968,0.00697028,0.00949813,594,1212,-0.0294254,0.0681754
-623,-188,-0.0212402,-0.0662842,0.00154645,0.00544557,0.00269036,0.00681848,0.000173539,1.09894,0.00448893,0.00941013,601,1212,-0.0212626,0.0662894
-616,-188,-0.000244141,-0.0727539,0.00188445,0.00262956,0.00223015,0.00451806,-4.0459e-06,0.868162,0.00301339,0.00970136,608,1212,-0.000223823,0.0727921
-609,-188,0.00640869,-0.0682373,0.00172678,0.00139668,0.00181217,0.0033814,-0.00025794,0.739985,0.00234498,0.0124853,615,1212,0.00638955,0.0682474
-602,-188,-0.00158691,-0.0576172,0.00198598,0.000224092,0.00144102,0.002794,-0.000583926,0.511042,0.00208475,0.015412,622,1212,-0.00158155,0.0576549
-595,-188,-0.00872803,-0.0646973,0.00194479,0.000365391,0.000451056,0.00206453,0.000245653,0.259477,0.00130222,0.0122487,629,1212,-0.00873011,0.0647029
-588,-188,-0.0233154,-0.0690918,0.00149606,0.000395179,-0.000295409,0.00157032,0.000320918,-0.246278,0.000957997,0.00964726,636,1212,-0.0233367,0.0691494
-581,-188,-0.0543213,-0.0765381,0.000949803,0.00057569,-0.000506985,0.00130314,0.000222354,-0.608666,0.000804944,0.00853205,643,1212,-0.0543277,0.0765137
-574,-188,-0.0430298,-0.16394,0.000576564,0.000825258,-0.000516195,0.00123187,0.000169951,-0.903592,0.000770868,0.020042,650,1212,-0.0430143,0.163905
-567,-188,-0.0679932,-0.195923,0.000526325,0.00092658,-0.000591045,0.00135046,0.000102445,-0.94864,0.000868175,0.0390284,657,1212,-0.0679871,0.195939
-560,-188,-0.0249634,-0.0656738,0.000492186,0.000925947,-0.000715378,0.0014566,-3.84654e-05,-0.932579,0.000984138,0.0470196,664,1212,-0.0249437,0.0656862
-553,-188,0.0252686,-0.146606,0.000236623,0.000944639,-0.000697568,0.00137289,-0.000191624,-1.02021,0.000985362,0.0439743,671,1212,0.0252951,0.146581
-546,-188,-0.0297241,-0.0407715,-9.23895e-05,0.000891937,-0.000638062,0.00120559,-0.000406047,-1.11391,0.000967898,0.0365717,678,1212,-0.0297246,0.0407715
-539,-188,-0.0116577,-0.0933838,-0.000383199,0.000716832,-0.000535241,0.000934279,-0.000600647,-1.1849,0.000893141,0.033029,685,1212,-0.0116867,0.0934038
-532,-188,-0.0498657,-0.00915527,-0.000505656,0.000380011,-0.000411108,0.000541422,-0.000667067,-1.19666,0.000698977,0.037315,692,1212,-0.0498511,0.00918867
-525,-188,-0.102417,0.0438232,-0.000336426,-0.000184794,-0.000343052,9.07202e-05,-0.00061194,-0.894152,0.00044132,0.0378841,699,1212,-0.102392,-0.0438337
-518,-188,-0.00744629,-0.122314,0.000461906,-0.00103636,-0.000440417,0.000581776,-0.00115623,-0.265739,0.00102154,0.0398202,706,1212,-0.00744373,0.122295
-511,-188,0.0617676,-0.23999,0.00267447,-0.00225335,-0.000776613,0.00279397,-0.00237284,-0.152669,0.00298636,0.0368673,713,1212,0.0617879,0.240003
-504,-188,0,0,0,0,0,0,0,0,0,-1,720,1212,0,0
-497,-188,0,0,0,0,0,0,0,0,0,-1,727,1212,0,0
-490,-188,0,0,0,0,0,0,0,0,0,-1,734,1212,0,0
-483,-188,0,0,0,0,0,0,0,0,0,-1,741,1212,0,0
-476,-188,0,0,0,0,0,0,0,0,0,-1,748,1212,0,0
-469,-188,0,0,0,0,0,0,0,0,0,-1,755,1212,0,0
-462,-188,0,0,0,0,0,0,0,0,0,-1,762,1212,0,0
-455,-188,0,0,0,0,0,0,0,0,0,-1,769,1212,0,0
-448,-188,0,0,0,0,0,0,0,0,0,-1,776,1212,0,0
-441,-188,0,0,0,0,0,0,0,0,0,-1,783,1212,0,0
-434,-188,0,0,0,0,0,0,0,0,0,-1,790,1212,0,0
-427,-188,0,0,0,0,0,0,0,0,0,-1,797,1212,0,0
-420,-188,0,0,0,0,0,0,0,0,0,-1,804,1212,0,0
-413,-188,0,0,0,0,0,0,0,0,0,-1,811,1212,0,0
-406,-188,0,0,0,0,0,0,0,0,0,-1,818,1212,0,0
-399,-188,0,0,0,0,0,0,0,0,0,-1,825,1212,0,0
-392,-188,0,0,0,0,0,0,0,0,0,-1,832,1212,0,0
-385,-188,0,0,0,0,0,0,0,0,0,-1,839,1212,0,0
-378,-188,0,0,0,0,0,0,0,0,0,-1,846,1212,0,0
-371,-188,0,0,0,0,0,0,0,0,0,-1,853,1212,0,0
-364,-188,0,0,0,0,0,0,0,0,0,-1,860,1212,0,0
-357,-188,0,0,0,0,0,0,0,0,0,-1,867,1212,0,0
-350,-188,0,0,0,0,0,0,0,0,0,-1,874,1212,0,0
-343,-188,0,0,0,0,0,0,0,0,0,-1,881,1212,0,0
-336,-188,0,0,0,0,0,0,0,0,0,-1,888,1212,0,0
-329,-188,0,0,0,0,0,0,0,0,0,-1,895,1212,0,0
-322,-188,0,0,0,0,0,0,0,0,0,-1,902,1212,0,0
-315,-188,0,0,0,0,0,0,0,0,0,-1,909,1212,0,0
-308,-188,0,0,0,0,0,0,0,0,0,-1,916,1212,0,0
-301,-188,0,0,0,0,0,0,0,0,0,-1,923,1212,0,0
-294,-188,0,0,0,0,0,0,0,0,0,-1,930,1212,0,0
-287,-188,0,0,0,0,0,0,0,0,0,-1,937,1212,0,0
-280,-188,0,0,0,0,0,0,0,0,0,-1,944,1212,0,0
-273,-188,0,0,0,0,0,0,0,0,0,-1,951,1212,0,0
-266,-188,0,0,0,0,0,0,0,0,0,-1,958,1212,0,0
-259,-188,0,0,0,0,0,0,0,0,0,-1,965,1212,0,0
-252,-188,0,0,0,0,0,0,0,0,0,-1,972,1212,0,0
-245,-188,0,0,0,0,0,0,0,0,0,-1,979,1212,0,0
-238,-188,0,0,0,0,0,0,0,0,0,-1,986,1212,0,0
-231,-188,0,0,0,0,0,0,0,0,0,-1,993,1212,0,0
-224,-188,0,0,0,0,0,0,0,0,0,-1,1000,1212,0,0
-217,-188,0,0,0,0,0,0,0,0,0,-1,1007,1212,0,0
-210,-188,0,0,0,0,0,0,0,0,0,-1,1014,1212,0,0
-203,-188,0,0,0,0,0,0,0,0,0,-1,1021,1212,0,0
-196,-188,0,0,0,0,0,0,0,0,0,-1,1028,1212,0,0
-189,-188,0,0,0,0,0,0,0,0,0,-1,1035,1212,0,0
-182,-188,0,0,0,0,0,0,0,0,0,-1,1042,1212,0,0
-175,-188,0,0,0,0,0,0,0,0,0,-1,1049,1212,0,0
-168,-188,0,0,0,0,0,0,0,0,0,-1,1056,1212,0,0
-161,-188,0,0,0,0,0,0,0,0,0,-1,1063,1212,0,0
-154,-188,0,0,0,0,0,0,0,0,0,-1,1070,1212,0,0
-147,-188,0,0,0,0,0,0,0,0,0,-1,1077,1212,0,0
-140,-188,0,0,0,0,0,0,0,0,0,-1,1084,1212,0,0
-133,-188,0,0,0,0,0,0,0,0,0,-1,1091,1212,0,0
-126,-188,0,0,0,0,0,0,0,0,0,-1,1098,1212,0,0
-119,-188,0,0,0,0,0,0,0,0,0,-1,1105,1212,0,0
-112,-188,0,0,0,0,0,0,0,0,0,-1,1112,1212,0,0
-105,-188,0,0,0,0,0,0,0,0,0,-1,1119,1212,0,0
-98,-188,0,0,0,0,0,0,0,0,0,-1,1126,1212,0,0
-91,-188,0,0,0,0,0,0,0,0,0,-1,1133,1212,0,0
-84,-188,0,0,0,0,0,0,0,0,0,-1,1140,1212,0,0
-77,-188,0,0,0,0,0,0,0,0,0,-1,1147,1212,0,0
-70,-188,0,0,0,0,0,0,0,0,0,-1,1154,1212,0,0
-63,-188,0,0,0,0,0,0,0,0,0,-1,1161,1212,0,0
-56,-188,0,0,0,0,0,0,0,0,0,-1,1168,1212,0,0
-49,-188,0,0,0,0,0,0,0,0,0,-1,1175,1212,0,0
-42,-188,0,0,0,0,0,0,0,0,0,-1,1182,1212,0,0
-35,-188,0,0,0,0,0,0,0,0,0,-1,1189,1212,0,0
-28,-188,0,0,0,0,0,0,0,0,0,-1,1196,1212,0,0
-21,-188,0,0,0,0,0,0,0,0,0,-1,1203,1212,0,0
-14,-188,0,0,0,0,0,0,0,0,0,-1,1210,1212,0,0
-7,-188,0,0,0,0,0,0,0,0,0,-1,1217,1212,0,0
0,-188,0,0,0,0,0,0,0,0,0,-1,1224,1212,0,0
7,-188,0,0,0,0,0,0,0,0,0,-1,1231,1212,0,0
14,-188,0,0,0,0,0,0,0,0,0,-1,1238,1212,0,0
21,-188,0,0,0,0,0,0,0,0,0,-1,1245,1212,0,0
28,-188,0,0,0,0,0,0,0,0,0,-1,1252,1212,0,0
35,-188,0,0,0,0,0,0,0,0,0,-1,1259,1212,0,0
42,-188,0,0,0,0,0,0,0,0,0,-1,1266,1212,0,0
49,-188,0,0,0,0,0,0,0,0,0,-1,1273,1212,0,0
56,-188,0,0,0,0,0,0,0,0,0,-1,1280,1212,0,0
63,-188,0,0,0,0,0,0,0,0,0,-1,1287,1212,0,0
70,-188,0,0,0,0,0,0,0,0,0,-1,1294,1212,0,0
77,-188,0,0,0,0,0,0,0,0,0,-1,1301,1212,0,0
84,-188,0,0,0,0,0,0,0,0,0,-1,1308,1212,0,0
91,-188,0,0,0,0,0,0,0,0,0,-1,1315,1212,0,0
98,-188,0,0,0,0,0,0,0,0,0,-1,1322,1212,0,0
105,-188,0,0,0,0,0,0,0,0,0,-1,1329,1212,0,0
112,-188,0,0,0,0,0,0,0,0,0,-1,1336,1212,0,0
119,-188,0,0,0,0,0,0,0,0,0,-1,1343,1212,0,0
126,-188,0,0,0,0,0,0,0,0,0,-1,1350,1212,0,0
133,-188,0,0,0,0,0,0,0,0,0,-1,1357,1212,0,0
140,-188,0,0,0,0,0,0,0,0,0,-1,1364,1212,0,0
147,-188,0,0,0,0,0,0,0,0,0,-1,1371,1212,0,0
154,-188,0,0,0,0,0,0,0,0,0,-1,1378,1212,0,0
161,-188,0,0,0,0,0,0,0,0,0,-1,1385,1212,0,0
168,-188,0,0,0,0,0,0,0,0,0,-1,1392,1212,0,0
175,-188,0,0,0,0,0,0,0,0,0,-1,1399,1212,0,0
182,-188,0,0,0,0,0,0,0,0,0,-1,1406,1212,0,0
189,-188,0,0,0,0,0,0,0,0,0,-1,1413,1212,0,0
196,-188,0,0,0,0,0,0,0,0,0,-1,1420,1212,0,0
203,-188,0,0,0,0,0,0,0,0,0,-1,1427,1212,0,0
210,-188,0,0,0,0,0,0,0,0,0,-1,1434,1212,0,0
217,-188,0,0,0,0,0,0,0,0,0,-1,1441,1212,0,0
224,-188,0,0,0,0,0,0,0,0,0,-1,1448,1212,0,0
231,-188,0,0,0,0,0,0,0,0,0,-1,1455,1212,0,0
238,-188,0,0,0,0,0,0,0,0,0,-1,1462,1212,0,0
245,-188,0,0,0,0,0,0,0,0,0,-1,1469,1212,0,0
252,-188,0,0,0,0,0,0,0,0,0,-1,1476,1212,0,0
259,-188,0,0,0,0,0,0,0,0,0,-1,1483,1212,0,0
266,-188,0,0,0,0,0,0,0,0,0,-1,1490,1212,0,0
273,-188,0,0,0,0,0,0,0,0,0,-1,1497,1212,0,0
280,-188,0,0,0,0,0,0,0,0,0,-1,1504,1212,0,0
287,-188,0,0,0,0,0,0,0,0,0,-1,1511,1212,0,0
294,-188,0,0,0,0,0,0,0,0,0,-1,1518,1212,0,0
301,-188,0,0,0,0,0,0,0,0,0,-1,1525,1212,0,0
308,-188,0,0,0,0,0,0,0,0,0,-1,1532,1212,0,0
315,-188,0,0,0,0,0,0,0,0,0,-1,1539,1212,0,0
322,-188,0,0,0,0,0,0,0,0,0,-1,1546,1212,0,0
329,-188,0,0,0,0,0,0,0,0,0,-1,1553,1212,0,0
336,-188,0,0,0,0,0,0,0,0,0,-1,1560,1212,0,0
343,-188,0,0,0,0,0,0,0,0,0,-1,1567,1212,0,0
350,-188,0,0,0,0,0,0,0,0,0,-1,1574,1212,0,0
357,-188,0,0,0,0,0,0,0,0,0,-1,1581,1212,0,0
364,-188,0,0,0,0,0,0,0,0,0,-1,1588,1212,0,0
371,-188,0,0,0,0,0,0,0,0,0,-1,1595,1212,0,0
378,-188,0,0,0,0,0,0,0,0,0,-1,1602,1212,0,0
385,-188,0,0,0,0,0,0,0,0,0,-1,1609,1212,0,0
392,-188,0,0,0,0,0,0,0,0,0,-1,1616,1212,0,0
399,-188,0,0,0,0,0,0,0,0,0,-1,1623,1212,0,0
406,-188,0,0,0,0,0,0,0,0,0,-1,1630,1212,0,0
413,-188,0,0,0,0,0,0,0,0,0,-1,1637,1212,0,0
420,-188,0,0,0,0,0,0,0,0,0,-1,1644,1212,0,0
427,-188,0,0,0,0,0,0,0,0,0,-1,1651,1212,0,0
434,-188,0,0,0,0,0,0,0,0,0,-1,1658,1212,0,0
441,-188,0,0,0,0,0,0,0,0,0,-1,1665,1212,0,0
448,-188,0,0,0,0,0,0,0,0,0,-1,1672,1212,0,0
455,-188,0,0,0,0,0,0,0,0,0,-1,1679,1212,0,0
462,-188,0,0,0,0,0,0,0,0,0,-1,1686,1212,0,0
469,-188,0,0,0,0,0,0,0,0,0,-1,1693,1212,0,0
476,-188,0,0,0,0,0,0,0,0,0,-1,1700,1212,0,0
483,-188,0,0,0,0,0,0,0,0,0,-1,1707,1212,0,0
490,-188,0,0,0,0,0,0,0,0,0,-1,1714,1212,0,0
497,-188,0,0,0,0,0,0,0,0,0,-1,1721,1212,0,0
504,-188,0,0,0,0,0,0,0,0,0,-1,1728,1212,0,0
511,-188,0,0,0,0,0,0,0,0,0,-1,1735,1212,0,0
518,-188,0,0,0,0,0,0,0,0,0,-1,1742,1212,0,0
525,-188,0,0,0,0,0,0,0,0,0,-1,1749,1212,0,0
532,-188,0,0,0,0,0,0,0,0,0,-1,1756,1212,0,0
539,-188,0,0,0,0,0,0,0,0,0,-1,1763,1212,0,0
546,-188,0,0,0,0,0,0,0,0,0,-1,1770,1212,0,0
553,-188,0,0,0,0,0,0,0,0,0,-1,1777,1212,0,0
560,-188,0,0,0,0,0,0,0,0,0,-1,1784,1212,0,0
567,-188,0,0,0,0,0,0,0,0,0,-1,1791,1212,0,0
574,-188,0,0,0,0,0,0,0,0,0,-1,1798,1212,0,0
581,-188,0,0,0,0,0,0,0,0,0,-1,1805,1212,0,0
588,-188,0,0,0,0,0,0,0,0,0,-1,1812,1212,0,0
595,-188,0,0,0,0,0,0,0,0,0,-1,1819,1212,0,0
602,-188,0,0,0,0,0,0,0,0,0,-1,1826,1212,0,0
609,-188,0,0,0,0,0,0,0,0,0,-1,1833,1212,0,0
616,-188,0,0,0,0,0,0,0,0,0,-1,1840,1212,0,0
623,-188,0,0,0,0,0,0,0,0,0,-1,1847,1212,0,0
630,-188,0.0311279,-0.0510254,-0.00105947,-0.00122239,0.000454224,-0.000679458,-0.0016024,0.696674,0.000928699,0.0336057,1854,1212,0.031086,0.0509658
637,-188,0.0157471,-0.0078125,-0.000329709,-0.00036029,0.000172814,-0.00017151,-0.000518489,0.741274,0.00030501,0.0365523,1861,1212,0.0157999,0.00784841
644,-188,-0.00134277,-0.0633545,6.52966e-05,0.000511037,-0.000456549,0.00079621,-0.000219876,-1.01246,0.000617293,0.033931,1868,1212,-0.001389,0.0633221
651,-188,-0.0301514,-0.144653,0.000216539,0.00146546,-0.000892167,0.00192999,-0.000247998,-1.09074,0.00137679,0.029606,1875,1212,-0.0301665,0.144642
658,-188,-0.00109863,-0.166748,0.000189629,0.00219347,-0.00109248,0.0026739,-0.000290797,-1.15649,0.00188701,0.0287769,1882,1212,-0.00114029,0.16671
665,-188,-0.0167236,-0.102905,6.95507e-05,0.00268025,-0.00116434,0.00312408,-0.000374281,-1.20661,0.00221803,0.0253273,1889,1212,-0.0167303,0.10288
672,-188,-0.0187988,-0.0593262,-9.10133e-05,0.00294088,-0.00109887,0.00329727,-0.000447395,-1.25718,0.00236148,0.020347,1896,1212,-0.0188342,0.0593015
679,-188,-0.0842285,-0.190674,-0.000236423,0.00299454,-0.000941729,0.00324899,-0.00049087,-1.30691,0.00234679,0.0410582,1903,1212,-0.0841955,0.190698
686,-188,0.00268555,-0.253662,0,0,0,0,0,0,0,-1,1910,1212,0.00272535,0.253625
693,-188,-0.0115967,-0.204224,-0.000528295,0.00276954,-0.000613903,0.00288011,-0.000638867,-1.39259,0.00216469,0.0459281,1917,1212,-0.0115387,0.204196
700,-188,0.00390625,-0.102173,-0.00058616,0.00249087,-0.00038515,0.00253834,-0.000633637,-1.44815,0.00193828,0.0307692,1924,1212,0.00395861,0.102232
707,-188,-0.0273438,-0.0870361,-0.000627637,0.00212669,-0.000195587,0.00214051,-0.000641456,-1.50026,0.0016821,0.0107985,1931,1212,-0.0273456,0.0870891
714,-188,-0.026123,-0.0791016,-0.00064144,0.00172446,-7.39491e-05,0.00172677,-0.000643749,-1.53958,0.00141543,0.00919681,1938,1212,-0.0261332,0.0791194
721,-188,-0.0195313,-0.0672607,-0.00062321,0.00128422,0.000119876,0.00129172,-0.000630715,1.50828,0.00113158,0.0101185,1945,1212,-0.0194771,0.0672115
728,-188,-0.0134277,-0.0649414,-0.00058661,0.000576807,0.000624423,0.000848497,-0.0008583,1.1604,0.000985425,0.00929921,1952,1212,-0.0134478,0.0649745
735,-188,-0.0178223,-0.0723877,-0.000467322,-0.000274907,0.00125923,0.000891784,-0.00163401,0.823525,0.00147911,0.0121591,1959,1212,-0.0178825,0.0723582
742,-188,-0.0306396,-0.0751953,-0.000282844,-0.000927451,0.00167237,0.001098,-0.00230829,0.690204,0.00200758,0.0128258,1966,1212,-0.0306054,0.0752436
749,-188,-0.0236816,-0.0704346,-0.000341206,-0.00164203,0.00180352,0.0009256,-0.00290884,0.612339,0.00231041,0.0124868,1973,1212,-0.0237182,0.0704844
756,-188,-0.0223389,-0.0863037,-0.00040794,-0.00209473,0.00184587,0.000778082,-0.00328076,0.571105,0.00248743,0.0109106,1980,1212,-0.0223456,0.0863111
763,-188,-0.0288086,-0.0800781,-0.000551312,-0.00281389,0.0021299,0.000729101,-0.00409431,0.541272,0.00300223,0.0124657,1987,1212,-0.0288266,0.0800977
770,-188,-0.00524902,-0.024292,-0.000801383,-0.00360556,0.00219581,0.0004018,-0.00480874,0.501264,0.00334781,0.0202144,1994,1212,-0.00526227,0.0243152
777,-188,-0.176025,0.379272,-0.00113549,-0.00440111,0.00174477,-0.000378673,-0.00515793,0.409267,0.0033196,0.0404528,2001,1212,-0.17601,-0.379256
784,-188,-0.466064,0.436401,-0.00154469,-0.00505661,0.000388312,-0.00150227,-0.00509904,0.108818,0.00302558,0.0463367,2008,1212,-0.466063,-0.436389
791,-188,-0.457153,0.410767,0,0,0,0,0,0,0,-1,2015,1212,-0.457108,-0.410716
798,-188,-0.736572,-0.010498,0,0,0,0,0,0,0,-1,2022,1212,-0.736512,0.0104583
805,-188,0,0,0,0,0,0,0,0,0,-1,2029,1212,0,0
812,-188,0,0,0,0,0,0,0,0,0,-1,2036,1212,0,0
-700,-195,0,0,0,0,0,0,0,0,0,-1,524,1219,0,0
-693,-195,0,0,0,0,0,0,0,0,0,-1,531,1219,0,0
-686,-195,0,0,0,0,0,0,0,0,0,-1,538,1219,0,0
-679,-195,-0.88269,0.883179,0,0,0,0,0,0,0,-1,545,1219,-0.882673,-0.883147
-672,-195,-0.775818,0.634521,-0.0190705,0.0449364,0.00440839,0.0452386,-0.0193727,1.50235,0.0382868,0.0458697,552,1219,-0.775788,-0.634563
-665,-195,-0.565491,0.309814,-0.01298,0.0368617,0.00432368,0.0372339,-0.0133523,1.4849,0.0302714,0.0469453,559,1219,-0.565515,-0.309861
-658,-195,-0.434204,0.0623779,0,0,0,0,0,0,0,-1,566,1219,-0.434187,-0.0623914
-651,-195,-0.317383,0.0579834,-0.00429857,0.0223554,0.00418386,0.0229967,-0.00493988,1.4187,0.0172157,0.0455559,573,1219,-0.317409,-0.057961
-644,-195,0.0513916,-0.212158,-0.00148249,0.0164163,0.00398672,0.0172642,-0.00233031,1.36126,0.0123597,0.040888,580,1219,0.0513781,0.212202
-637,-195,-0.0380249,-0.107788,0.000413774,0.0115256,0.00366285,0.0126243,-0.000684981,1.27936,0.0086536,0.0214186,587,1219,-0.0380245,0.107837
-630,-195,-0.0293579,-0.074585,0.00179453,0.00804312,0.00312686,0.00933906,0.000498593,1.17789,0.00606668,0.00765764,594,1219,-0.0293875,0.0745948
-623,-195,-0.0235596,-0.067627,0.00279898,0.00468106,0.00248083,0.00639333,0.00108671,0.966677,0.00395013,0.00724173,601,1219,-0.02354,0.0675709
-616,-195,-0.00762939,-0.0695801,0.00293565,0.00190853,0.00207063,0.00455546,0.000288723,0.663841,0.00294545,0.00908702,608,1219,-0.00764184,0.0696014
-609,-195,-0.0142212,-0.0725098,0.00255203,0.000883232,0.0016889,0.00360141,-0.000166146,0.555961,0.00245819,0.0163013,615,1219,-0.0142401,0.0725487
-602,-195,-0.0313721,-0.0611572,0.00268483,-0.000119091,0.00132055,0.00320883,-0.000643097,0.377752,0.00238269,0.0213384,622,1219,-0.0313559,0.0611677
-595,-195,-0.0378418,-0.0699463,0.00255657,0.000142332,0.000377855,0.00261433,8.45754e-05,0.15168,0.00171539,0.0147836,629,1219,-0.0378225,0.069887
-588,-195,-0.0283813,-0.0704346,0.00198121,0.000164161,-0.000305694,0.00203126,0.00011411,-0.162287,0.00131779,0.00746001,636,1219,-0.0283848,0.0704735
-581,-195,-0.0350952,-0.0826416,0.00130647,0.000359507,-0.00051087,0.00152953,0.000136446,-0.411681,0.000977386,0.00714879,643,1219,-0.0351237,0.0826149
-574,-195,-0.0268555,-0.104492,0.000827279,0.000689678,-0.000521981,0.00128497,0.000231983,-0.719873,0.000790747,0.016906,650,1219,-0.0268701,0.104505
-567,-195,0.00854492,-0.0957031,0.0007551,0.000821149,-0.000585871,0.00137493,0.000201324,-0.813552,0.000857424,0.0349356,657,1219,0.00852339,0.0957411
-560,-195,0.160706,-0.192505,0.000720105,0.000857045,-0.000708693,0.00150057,7.65818e-05,-0.833556,0.000975853,0.0442485,664,1219,0.160677,0.19246
-553,-195,0.212036,-0.210449,0.000433131,0.000930337,-0.000683343,0.00140889,-4.54255e-05,-0.959858,0.000954764,0.0433811,671,1219,0.212007,0.210444
-546,-195,0.133667,-0.172852,3.96858e-05,0.000975944,-0.000630598,0.00129318,-0.000277551,-1.10469,0.000967993,0.0383811,678,1219,0.133666,0.172844
-539,-195,-0.00427246,-0.0819092,-0.000342335,0.000944878,-0.000548634,0.00114698,-0.000544441,-1.21784,0.000996984,0.0322209,685,1219,-0.00427107,0.0818839
-532,-195,-0.169861,0.0318604,-0.000582808,0.000802774,-0.000470143,0.000947237,-0.000727271,-1.27268,0.000969554,0.0327231,692,1219,-0.169886,-0.0319212
-525,-195,-0.149353,0.0440674,-0.000561295,0.000485545,-0.000479246,0.000671805,-0.000747555,-1.20011,0.000819857,0.0369468,699,1219,-0.149341,-0.0440189
-518,-195,-0.0483398,0.00769043,1.88044e-05,-8.39174e-05,-0.000700427,0.000669751,-0.000734864,-0.7488,0.000811246,0.0396249,706,1219,-0.0483564,-0.00768698
-511,-195,0.130432,-0.126831,0.0018329,-0.00100372,-0.00120153,0.00227343,-0.00144425,-0.35142,0.00216413,0.0379623,713,1219,0.130416,0.12687
-504,-195,0,0,0,0,0,0,0,0,0,-1,720,1219,0,0
-497,-195,0,0,0,0,0,0,0,0,0,-1,727,1219,0,0
-490,-195,0,0,0,0,0,0,0,0,0,-1,734,1219,0,0
-483,-195,0,0,0,0,0,0,0,0,0,-1,741,1219,0,0
-476,-195,0,0,0,0,0,0,0,0,0,-1,748,1219,0,0
-469,-195,0,0,0,0,0,0,0,0,0,-1,755,1219,0,0
-462,-195,0,0,0,0,0,0,0,0,0,-1,762,1219,0,0
-455,-195,0,0,0,0,0,0,0,0,0,-1,769,1219,0,0
-448,-195,0,0,0,0,0,0,0,0,0,-1,776,1219,0,0
-441,-195,0,0,0,0,0,0,0,0,0,-1,783,1219,0,0
-434,-195,0,0,0,0,0,0,0,0,0,-1,790,1219,0,0
-427,-195,0,0,0,0,0,0,0,0,0,-1,797,1219,0,0
-420,-195,0,0,0,0,0,0,0,0,0,-1,804,1219,0,0
-413,-195,0,0,0,0,0,0,0,0,0,-1,811,1219,0,0
-406,-195,0,0,0,0,0,0,0,0,0,-1,818,1219,0,0
-399,-195,0,0,0,0,0,0,0,0,0,-1,825,1219,0,0
-392,-195,0,0,0,0,0,0,0,0,0,-1,832,1219,0,0
-385,-195,0,0,0,0,0,0,0,0,0,-1,839,1219,0,0
-378,-195,0,0,0,0,0,0,0,0,0,-1,846,1219,0,0
-371,-195,0,0,0,0,0,0,0,0,0,-1,853,1219,0,0
-364,-195,0,0,0,0,0,0,0,0,0,-1,860,1219,0,0
-357,-195,0,0,0,0,0,0,0,0,0,-1,867,1219,0,0
-350,-195,0,0,0,0,0,0,0,0,0,-1,874,1219,0,0
-343,-195,0,0,0,0,0,0,0,0,0,-1,881,1219,0,0
-336,-195,0,0,0,0,0,0,0,0,0,-1,888,1219,0,0
-329,-195,0,0,0,0,0,0,0,0,0,-1,895,1219,0,0
-322,-195,0,0,0,0,0,0,0,0,0,-1,902,1219,0,0
-315,-195,0,0,0,0,0,0,0,0,0,-1,909,1219,0,0
-308,-195,0,0,0,0,0,0,0,0,0,-1,916,1219,0,0
-301,-195,0,0,0,0,0,0,0,0,0,-1,923,1219,0,0
-294,-195,0,0,0,0,0,0,0,0,0,-1,930,1219,0,0
-287,-195,0,0,0,0,0,0,0,0,0,-1,937,1219,0,0
-280,-195,0,0,0,0,0,0,0,0,0,-1,944,1219,0,0
-273,-195,0,0,0,0,0,0,0,0,0,-1,951,1219,0,0
-266,-195,0,0,0,0,0,0,0,0,0,-1,958,1219,0,0
-259,-195,0,0,0,0,0,0,0,0,0,-1,965,1219,0,0
-252,-195,0,0,0,0,0,0,0,0,0,-1,972,1219,0,0
-245,-195,0,0,0,0,0,0,0,0,0,-1,979,1219,0,0
-238,-195,0,0,0,0,0,0,0,0,0,-1,986,1219,0,0
-231,-195,0,0,0,0,0,0,0,0,0,-1,993,1219,0,0
-224,-195,0,0,0,0,0,0,0,0,0,-1,1000,1219,0,0
-217,-195,0,0,0,0,0,0,0,0,0,-1,1007,1219,0,0
-210,-195,0,0,0,0,0,0,0,0,0,-1,1014,1219,0,0
-203,-195,0,0,0,0,0,0,0,0,0,-1,1021,1219,0,0
-196,-195,0,0,0,0,0,0,0,0,0,-1,1028,1219,0,0
-189,-195,0,0,0,0,0,0,0,0,0,-1,1035,1219,0,0
-182,-195,0,0,0,0,0,0,0,0,0,-1,1042,1219,0,0
-175,-195,0,0,0,0,0,0,0,0,0,-1,1049,1219,0,0
-168,-195,0,0,0,0,0,0,0,0,0,-1,1056,1219,0,0
-161,-195,0,0,0,0,0,0,0,0,0,-1,1063,1219,0,0
-154,-195,0,0,0,0,0,0,0,0,0,-1,1070,1219,0,0
-147,-195,0,0,0,0,0,0,0,0,0,-1,1077,1219,0,0
-140,-195,0,0,0,0,0,0,0,0,0,-1,1084,1219,0,0
-133,-195,0,0,0,0,0,0,0,0,0,-1,1091,1219,0,0
-126,-195,0,0,0,0,0,0,0,0,0,-1,1098,1219,0,0
-119,-195,0,0,0,0,0,0,0,0,0,-1,1105,1219,0,0
-112,-195,0,0,0,0,0,0,0,0,0,-1,1112,1219,0,0
-105,-195,0,0,0,0,0,0,0,0,0,-1,1119,1219,0,0
-98,-195,0,0,0,0,0,0,0,0,0,-1,1126,1219,0,0
-91,-195,0,0,0,0,0,0,0,0,0,-1,1133,1219,0,0
-84,-195,0,0,0,0,0,0,0,0,0,-1,1140,1219,0,0
-77,-195,0,0,0,0,0,0,0,0,0,-1,1147,1219,0,0
-70,-195,0,0,0,0,0,0,0,0,0,-1,1154,1219,0,0
-63,-195,0,0,0,0,0,0,0,0,0,-1,1161,1219,0,0
-56,-195,0,0,0,0,0,0,0,0,0,-1,1168,1219,0,0
-49,-195,0,0,0,0,0,0,0,0,0,-1,1175,1219,0,0
-42,-195,0,0,0,0,0,0,0,0,0,-1,1182,1219,0,0
-35,-195,0,0,0,0,0,0,0,0,0,-1,1189,1219,0,0
-28,-195,0,0,0,0,0,0,0,0,0,-1,1196,1219,0,0
-21,-195,0,0,0,0,0,0,0,0,0,-1,1203,1219,0,0
-14,-195,0,0,0,0,0,0,0,0,0,-1,1210,1219,0,0
-7,-195,0,0,0,0,0,0,0,0,0,-1,1217,1219,0,0
0,-195,0,0,0,0,0,0,0,0,0,-1,1224,1219,0,0
7,-195,0,0,0,0,0,0,0,0,0,-1,1231,1219,0,0
14,-195,0,0,0,0,0,0,0,0,0,-1,1238,1219,0,0
21,-195,0,0,0,0,0,0,0,0,0,-1,1245,1219,0,0
28,-195,0,0,0,0,0,0,0,0,0,-1,1252,1219,0,0
35,-195,0,0,0,0,0,0,0,0,0,-1,1259,1219,0,0
42,-195,0,0,0,0,0,0,0,0,0,-1,1266,1219,0,0
49,-195,0,0,0,0,0,0,0,0,0,-1,1273,1219,0,0
56,-195,0,0,0,0,0,0,0,0,0,-1,1280,1219,0,0
63,-195,0,0,0,0,0,0,0,0,0,-1,1287,1219,0,0
70,-195,0,0,0,0,0,0,0,0,0,-1,1294,1219,0,0
77,-195,0,0,0,0,0,0,0,0,0,-1,1301,1219,0,0
84,-195,0,0,0,0,0,0,0,0,0,-1,1308,1219,0,0
91,-195,0,0,0,0,0,0,0,0,0,-1,1315,1219,0,0
98,-195,0,0,0,0,0,0,0,0,0,-1,1322,1219,0,0
105,-195,0,0,0,0,0,0,0,0,0,-1,1329,1219,0,0
112,-195,0,0,0,0,0,0,0,0,0,-1,1336,1219,0,0
119,-195,0,0,0,0,0,0,0,0,0,-1,1343,1219,0,0
126,-195,0,0,0,0,0,0,0,0,0,-1,1350,1219,0,0
133,-195,0,0,0,0,0,0,0,0,0,-1,1357,1219,0,0
140,-195,0,0,0,0,0,0,0,0,0,-1,1364,1219,0,0
147,-195,0,0,0,0,0,0,0,0,0,-1,1371,1219,0,0
154,-195,0,0,0,0,0,0,0,0,0,-1,1378,1219,0,0
161,-195,0,0,0,0,0,0,0,0,0,-1,1385,1219,0,0
168,-195,0,0,0,0,0,0,0,0,0,-1,1392,1219,0,0
175,-195,0,0,0,0,0,0,0,0,0,-1,1399,1219,0,0
182,-195,0,0,0,0,0,0,0,0,0,-1,1406,1219,0,0
189,-195,0,0,0,0,0,0,0,0,0,-1,1413,1219,0,0
196,-195,0,0,0,0,0,0,0,0,0,-1,1420,1219,0,0
203,-195,0,0,0,0,0,0,0,0,0,-1,1427,1219,0,0
210,-195,0,0,0,0,0,0,0,0,0,-1,1434,1219,0,0
217,-195,0,0,0,0,0,0,0,0,0,-1,1441,1219,0,0
224,-195,0,0,0,0,0,0,0,0,0,-1,1448,1219,0,0
231,-195,0,0,0,0,0,0,0,0,0,-1,1455,1219,0,0
238,-195,0,0,0,0,0,0,0,0,0,-1,1462,1219,0,0
245,-195,0,0,0,0,0,0,0,0,0,-1,1469,1219,0,0
252,-195,0,0,0,0,0,0,0,0,0,-1,1476,1219,0,0
259,-195,0,0,0,0,0,0,0,0,0,-1,1483,1219,0,0
266,-195,0,0,0,0,0,0,0,0,0,-1,1490,1219,0,0
273,-195,0,0,0,0,0,0,0,0,0,-1,1497,1219,0,0
280,-195,0,0,0,0,0,0,0,0,0,-1,1504,1219,0,0
287,-195,0,0,0,0,0,0,0,0,0,-1,1511,1219,0,0
294,-195,0,0,0,0,0,0,0,0,0,-1,1518,1219,0,0
301,-195,0,0,0,0,0,0,0,0,0,-1,1525,1219,0,0
308,-195,0,0,0,0,0,0,0,0,0,-1,1532,1219,0,0
315,-195,0,0,0,0,0,0,0,0,0,-1,1539,1219,0,0
322,-195,0,0,0,0,0,0,0,0,0,-1,1546,1219,0,0
329,-195,0,0,0,0,0,0,0,0,0,-1,1553,1219,0,0
336,-195,0,0,0,0,0,0,0,0,0,-1,1560,1219,0,0
343,-195,0,0,0,0,0,0,0,0,0,-1,1567,1219,0,0
350,-195,0,0,0,0,0,0,0,0,0,-1,1574,1219,0,0
357,-195,0,0,0,0,0,0,0,0,0,-1,1581,1219,0,0
364,-195,0,0,0,0,0,0,0,0,0,-1,1588,1219,0,0
371,-195,0,0,0,0,0,0,0,0,0,-1,1595,1219,0,0
378,-195,0,0,0,0,0,0,0,0,0,-1,1602,1219,0,0
385,-195,0,0,0,0,0,0,0,0,0,-1,1609,1219,0,0
392,-195,0,0,0,0,0,0,0,0,0,-1,1616,1219,0,0
399,-195,0,0,0,0,0,0,0,0,0,-1,1623,1219,0,0
406,-195,0,0,0,0,0,0,0,0,0,-1,1630,1219,0,0
413,-195,0,0,0,0,0,0,0,0,0,-1,1637,1219,0,0
420,-195,0,0,0,0,0,0,0,0,0,-1,1644,1219,0,0
427,-195,0,0,0,0,0,0,0,0,0,-1,1651,1219,0,0
434,-195,0,0,0,0,0,0,0,0,0,-1,1658,1219,0,0
441,-195,0,0,0,0,0,0,0,0,0,-1,1665,1219,0,0
448,-195,0,0,0,0,0,0,0,0,0,-1,1672,1219,0,0
455,-195,0,0,0,0,0,0,0,0,0,-1,1679,1219,0,0
462,-195,0,0,0,0,0,0,0,0,0,-1,1686,1219,0,0
469,-195,0,0,0,0,0,0,0,0,0,-1,1693,1219,0,0
476,-195,0,0,0,0,0,0,0,0,0,-1,1700,1219,0,0
483,-195,0,0,0,0,0,0,0,0,0,-1,1707,1219,0,0
490,-195,0,0,0,0,0,0,0,0,0,-1,1714,1219,0,0
497,-195,0,0,0,0,0,0,0,0,0,-1,1721,1219,0,0
504,-195,0,0,0,0,0,0,0,0,0,-1,1728,1219,0,0
511,-195,0,0,0,0,0,0,0,0,0,-1,1735,1219,0,0
518,-195,0,0,0,0,0,0,0,0,0,-1,1742,1219,0,0
525,-195,0,0,0,0,0,0,0,0,0,-1,1749,1219,0,0
532,-195,0,0,0,0,0,0,0,0,0,-1,1756,1219,0,0
539,-195,0,0,0,0,0,0,0,0,0,-1,1763,1219,0,0
546,-195,0,0,0,0,0,0,0,0,0,-1,1770,1219,0,0
553,-195,0,0,0,0,0,0,0,0,0,-1,1777,1219,0,0
560,-195,0,0,0,0,0,0,0,0,0,-1,1784,1219,0,0
567,-195,0,0,0,0,0,0,0,0,0,-1,1791,1219,0,0
574,-195,0,0,0,0,0,0,0,0,0,-1,1798,1219,0,0
581,-195,0,0,0,0,0,0,0,0,0,-1,1805,1219,0,0
588,-195,0,0,0,0,0,0,0,0,0,-1,1812,1219,0,0
595,-195,0,0,0,0,0,0,0,0,0,-1,1819,1219,0,0
602,-195,0,0,0,0,0,0,0,0,0,-1,1826,1219,0,0
609,-195,0,0,0,0,0,0,0,0,0,-1,1833,1219,0,0
616,-195,0,0,0,0,0,0,0,0,0,-1,1840,1219,0,0
623,-195,0,0,0,0,0,0,0,0,0,-1,1847,1219,0,0
630,-195,0.00756836,-0.0943604,-0.00124084,-0.000980024,5.83446e-05,-0.000967567,-0.00125329,1.36045,0.000758445,0.0348751,1854,1219,0.00756402,0.0943926
637,-195,0.00720215,0.00170898,-0.000559861,-3.3217e-05,-0.00014005,1.71011e-06,-0.000594788,-1.32639,0.000397097,0.03291,1861,1219,0.00717518,-0.00176966
644,-195,-0.0151367,0.0229492,-0.000169775,0.000943975,-0.000645993,0.00123999,-0.000465788,-1.14112,0.00101808,0.0296599,1868,1219,-0.0151452,-0.0229462
651,-195,-0.0137939,-0.0618896,-1.05184e-05,0.00185617,-0.000985703,0.0022803,-0.00043465,-1.16446,0.00168389,0.0238227,1875,1219,-0.0138238,0.061839
658,-195,-0.0218506,-0.0792236,-9.49875e-06,0.00252416,-0.00114661,0.00296601,-0.000451341,-1.20298,0.00214368,0.0218386,1882,1219,-0.0218579,0.0792545
665,-195,-0.0362549,-0.0340576,-9.01542e-05,0.00294082,-0.00120316,0.00336035,-0.000509689,-1.23529,0.00242803,0.0209853,1889,1219,-0.0361968,0.0340902
672,-195,-0.0224609,-0.0983887,-0.000210659,0.00312517,-0.00113208,0.00347308,-0.000558571,-1.27264,0.00252228,0.0318063,1896,1219,-0.0224865,0.0983597
679,-195,-0.0905762,-0.266602,-0.000321365,0.00311503,-0.000976873,0.00337332,-0.000579651,-1.31231,0.00246492,0.0477416,1903,1219,-0.0905877,0.266616
686,-195,0.0594482,-0.24585,0,0,0,0,0,0,0,-1,1910,1219,0.0594762,0.245877
693,-195,0.0299072,-0.199463,-0.000565983,0.00280828,-0.000659873,0.00293273,-0.000690438,-1.38438,0.00222136,0.0412746,1917,1219,0.0298672,0.199474
700,-195,-0.00292969,-0.138428,-0.000608401,0.0024892,-0.000432995,0.00254858,-0.000667788,-1.43449,0.00195995,0.0200991,1924,1219,-0.00298293,0.138367
707,-195,-0.0241699,-0.0758057,-0.0006469,0.00210271,-0.000240152,0.00212353,-0.000667718,-1.48433,0.00168301,0.00959273,1931,1219,-0.0242122,0.0758051
714,-195,-0.0235596,-0.0709229,-0.000646058,0.00171088,-0.000119044,0.00171687,-0.000652055,-1.52046,0.00141301,0.0116621,1938,1219,-0.0235956,0.0709193
721,-195,-0.029541,-0.0632324,-0.000634623,0.00125712,8.58682e-05,0.00126101,-0.000638512,1.52553,0.00111614,0.010947,1945,1219,-0.0295218,0.0631796
728,-195,-0.0302734,-0.0495605,-0.000595888,0.000554513,0.000574826,0.000792504,-0.000833879,1.17826,0.000939094,0.00991152,1952,1219,-0.0302379,0.0495081
735,-195,-0.0135498,-0.0705566,-0.000426787,-0.00031751,0.00115093,0.000780074,-0.00152437,0.809117,0.00135341,0.0115341,1959,1219,-0.013505,0.0706058
742,-195,-0.00756836,-0.0750732,-0.000142819,-0.000931537,0.00144101,0.000956821,-0.00203118,0.651834,0.0017619,0.0122307,1966,1219,-0.00751793,0.0750735
749,-195,-0.000488281,-0.0738525,-9.90964e-05,-0.0016284,0.00152322,0.000840624,-0.00256812,0.552775,0.00205055,0.0123577,1973,1219,-0.000437858,0.0738316
756,-195,-0.0178223,-0.0772705,-7.32655e-05,-0.00218095,0.00153931,0.000738385,-0.0029926,0.485234,0.00228138,0.0118269,1980,1219,-0.0178449,0.0773012
763,-195,-0.0285645,-0.0827637,-8.2815e-05,-0.0030428,0.00174698,0.0007268,-0.00385241,0.433973,0.00284169,0.0138515,1987,1219,-0.0286098,0.0827211
770,-195,0.00500488,-0.0812988,-0.000157043,-0.00406108,0.00174422,0.000508699,-0.00472682,0.364619,0.00333374,0.027247,1994,1219,0.00504667,0.0813271
777,-195,-0.74585,1.22534,0,0,0,0,0,0,0,-1,2001,1219,-0.745845,-1.22536
784,-195,-0.35144,0.303467,0,0,0,0,0,0,0,-1,2008,1219,-0.3515,-0.303464
791,-195,0.0428467,-0.618408,0,0,0,0,0,0,0,-1,2015,1219,0.0428442,0.618435
798,-195,-0.15686,-0.00720215,0,0,0,0,0,0,0,-1,2022,1219,-0.156807,0.00721331
805,-195,0,0,0,0,0,0,0,0,0,-1,2029,1219,0,0
812,-195,0,0,0,0,0,0,0,0,0,-1,2036,1219,0,0
-700,-202,0,0,0,0,0,0,0,0,0,-1,524,1226,0,0
-693,-202,0,0,0,0,0,0,0,0,0,-1,531,1226,0,0
-686,-202,0,0,0,0,0,0,0,0,0,-1,538,1226,0,0
-679,-202,-0.59137,0.10791,-0.0272421,0.0590864,0.00300743,0.059191,-0.0273467,1.53602,0.0510777,0.0431175,545,1226,-0.591361,-0.107905
-672,-202,-0.666809,0.213989,-0.0192159,0.0481814,0.00312056,0.0483256,-0.01936,1.52463,0.0402534,0.04318,552,1226,-0.666797,-0.214048
-665,-202,-0.463379,0.0440674,-0.0126825,0.0382352,0.00330791,0.0384492,-0.0128965,1.50619,0.0308439,0.0477228,559,1226,-0.463378,-0.0440531
-658,-202,-0.458435,-0.0361328,-0.00744807,0.0294292,0.00345737,0.0297506,-0.00776941,1.47812,0.0228678,0.0457556,566,1226,-0.458408,0.0360996
-651,-202,-0.409058,-0.0584717,-0.00341181,0.021858,0.0035083,0.0223361,-0.00388984,1.43537,0.0163424,0.0452582,573,1226,-0.409046,0.0584885
-644,-202,-0.235718,-0.118164,-0.000450397,0.0155716,0.00342807,0.0162742,-0.00115305,1.36862,0.0112535,0.0421422,580,1226,-0.235741,0.118108
-637,-202,-0.0332642,-0.123535,0.00150463,0.0105726,0.0032059,0.0115915,0.0004857,1.26306,0.00757097,0.0316082,587,1226,-0.0332657,0.123537
-630,-202,-0.0151367,-0.060791,0.0028603,0.00698672,0.00276004,0.00836948,0.00147755,1.10636,0.00515816,0.0124903,594,1226,-0.0151196,0.0607417
-623,-202,-0.0202637,-0.0605469,0.00376807,0.00375032,0.00224737,0.00600658,0.00151181,0.783424,0.00360763,0.00718223,601,1226,-0.0202848,0.0605924
-616,-202,-0.0252075,-0.0795898,0.00375358,0.00111736,0.00187917,0.00473084,0.000140104,0.479555,0.00310824,0.00752476,608,1226,-0.0251867,0.079543
-609,-202,-0.0407715,-0.0570068,0.00325735,0.000339505,0.00150194,0.0038923,-0.000295439,0.399963,0.00269874,0.0187108,615,1226,-0.0407431,0.0569817
-602,-202,-0.0438843,-0.0583496,0.00331294,-0.000486683,0.00117589,0.0036474,-0.000821149,0.277118,0.00274654,0.0204332,622,1226,-0.0439039,0.0583205
-595,-202,-0.0462036,-0.0578613,0.00310804,-0.000135289,0.000322919,0.00313988,-0.000167128,0.0982786,0.00215113,0.0150384,629,1226,-0.0462038,0.0578883
-588,-202,-0.0169678,-0.0596924,0.00243827,-0.000126144,-0.000271643,0.00246673,-0.000154602,-0.104384,0.00169837,0.0074616,636,1226,-0.0169645,0.0596754
-581,-202,-0.0182495,-0.0841064,0.00168395,5.10417e-05,-0.000479712,0.00181445,-7.94579e-05,-0.26561,0.00123697,0.0083011,643,1226,-0.0182479,0.0841629
-574,-202,-0.017334,-0.102295,0.00113645,0.000413126,-0.000491338,0.00138488,0.000164696,-0.468134,0.000873545,0.0113065,650,1226,-0.0173431,0.102253
-567,-202,0.00860596,-0.13623,0.00104015,0.00053906,-0.000526235,0.00137244,0.000206769,-0.563223,0.000854416,0.0297599,657,1226,0.00858786,0.136192
-560,-202,0.146118,-0.159424,0.000983784,0.000608857,-0.00062346,0.00144735,0.000145286,-0.639357,0.000920305,0.0427109,664,1226,0.146097,0.159436
-553,-202,0.196655,0.0778809,0.000663373,0.000699376,-0.000555849,0.00123751,0.000125234,-0.801585,0.000786595,0.0434526,671,1226,0.196647,-0.0778428
-546,-202,0.0386353,0.16626,0.000205489,0.000805527,-0.000471299,0.0010642,-5.31811e-05,-1.06884,0.00072784,0.0409977,678,1226,0.038612,-0.16621
-539,-202,0.0963135,-0.177368,-0.000289453,0.000889022,-0.000349446,0.000984849,-0.000385281,-1.30315,0.000815901,0.0351758,685,1226,0.0963332,0.177367
-532,-202,-0.0795288,-0.013916,-0.000704471,0.000920361,-0.000230068,0.000952309,-0.000736419,-1.43281,0.00097764,0.0264734,692,1226,-0.0795221,0.0139298
-525,-202,-0.21228,0.16626,-0.000940435,0.000847628,-0.000192511,0.000868119,-0.000960927,-1.46475,0.00105645,0.0317532,699,1226,-0.21226,-0.166299
-518,-202,-0.104431,0.254639,-0.000755959,0.000588469,-0.000366195,0.000681742,-0.000849232,-1.32139,0.00088567,0.037814,706,1226,-0.10445,-0.254592
-511,-202,0.072998,-0.0413818,0.0003926,4.49851e-05,-0.000824203,0.00106112,-0.000623538,-0.681481,0.000983515,0.0386948,713,1226,0.0730286,0.0414355
-504,-202,0,0,0,0,0,0,0,0,0,-1,720,1226,0,0
-497,-202,0,0,0,0,0,0,0,0,0,-1,727,1226,0,0
-490,-202,0,0,0,0,0,0,0,0,0,-1,734,1226,0,0
-483,-202,0,0,0,0,0,0,0,0,0,-1,741,1226,0,0
-476,-202,0,0,0,0,0,0,0,0,0,-1,748,1226,0,0
-469,-202,0,0,0,0,0,0,0,0,0,-1,755,1226,0,0
-462,-202,0,0,0,0,0,0,0,0,0,-1,762,1226,0,0
-455,-202,0,0,0,0,0,0,0,0,0,-1,769,1226,0,0
-448,-202,0,0,0,0,0,0,0,0,0,-1,776,1226,0,0
-441,-202,0,0,0,0,0,0,0,0,0,-1,783,1226,0,0
-434,-202,0,0,0,0,0,0,0,0,0,-1,790,1226,0,0
-427,-202,0,0,0,0,0,0,0,0,0,-1,797,1226,0,0
-420,-202,0,0,0,0,0,0,0,0,0,-1,804,1226,0,0
-413,-202,0,0,0,0,0,0,0,0,0,-1,811,1226,0,0
-406,-202,0,0,0,0,0,0,0,0,0,-1,818,1226,0,0
-399,-202,0,0,0,0,0,0,0,0,0,-1,825,1226,0,0
-392,-202,0,0,0,0,0,0,0,0,0,-1,832,1226,0,0
-385,-202,0,0,0,0,0,0,0,0,0,-1,839,1226,0,0
-378,-202,0,0,0,0,0,0,0,0,0,-1,846,1226,0,0
-371,-202,0,0,0,0,0,0,0,0,0,-1,853,1226,0,0
-364,-202,0,0,0,0,0,0,0,0,0,-1,860,1226,0,0
-357,-202,0,0,0,0,0,0,0,0,0,-1,867,1226,0,0
-350,-202,0,0,0,0,0,0,0,0,0,-1,874,1226,0,0
-343,-202,0,0,0,0,0,0,0,0,0,-1,881,1226,0,0
-336,-202,0,0,0,0,0,0,0,0,0,-1,888,1226,0,0
-329,-202,0,0,0,0,0,0,0,0,0,-1,895,1226,0,0
-322,-202,0,0,0,0,0,0,0,0,0,-1,902,1226,0,0
-315,-202,0,0,0,0,0,0,0,0,0,-1,909,1226,0,0
-308,-202,0,0,0,0,0,0,0,0,0,-1,916,1226,0,0
-301,-202,0,0,0,0,0,0,0,0,0,-1,923,1226,0,0
-294,-202,0,0,0,0,0,0,0,0,0,-1,930,1226,0,0
-287,-202,0,0,0,0,0,0,0,0,0,-1,937,1226,0,0
-280,-202,0,0,0,0,0,0,0,0,0,-1,944,1226,0,0
-273,-202,0,0,0,0,0,0,0,0,0,-1,951,1226,0,0
-266,-202,0,0,0,0,0,0,0,0,0,-1,958,1226,0,0
-259,-202,0,0,0,0,0,0,0,0,0,-1,965,1226,0,0
-252,-202,0,0,0,0,0,0,0,0,0,-1,972,1226,0,0
-245,-202,0,0,0,0,0,0,0,0,0,-1,979,1226,0,0
-238,-202,0,0,0,0,0,0,0,0,0,-1,986,1226,0,0
-231,-202,0,0,0,0,0,0,0,0,0,-1,993,1226,0,0
-224,-202,0,0,0,0,0,0,0,0,0,-1,1000,1226,0,0
-217,-202,0,0,0,0,0,0,0,0,0,-1,1007,1226,0,0
-210,-202,0,0,0,0,0,0,0,0,0,-1,1014,1226,0,0
-203,-202,0,0,0,0,0,0,0,0,0,-1,1021,1226,0,0
-196,-202,0,0,0,0,0,0,0,0,0,-1,1028,1226,0,0
-189,-202,0,0,0,0,0,0,0,0,0,-1,1035,1226,0,0
-182,-202,0,0,0,0,0,0,0,0,0,-1,1042,1226,0,0
-175,-202,0,0,0,0,0,0,0,0,0,-1,1049,1226,0,0
-168,-202,0,0,0,0,0,0,0,0,0,-1,1056,1226,0,0
-161,-202,0,0,0,0,0,0,0,0,0,-1,1063,1226,0,0
-154,-202,0,0,0,0,0,0,0,0,0,-1,1070,1226,0,0
-147,-202,0,0,0,0,0,0,0,0,0,-1,1077,1226,0,0
-140,-202,0,0,0,0,0,0,0,0,0,-1,1084,1226,0,0
-133,-202,0,0,0,0,0,0,0,0,0,-1,1091,1226,0,0
-126,-202,0,0,0,0,0,0,0,0,0,-1,1098,1226,0,0
-119,-202,0,0,0,0,0,0,0,0,0,-1,1105,1226,0,0
-112,-202,0,0,0,0,0,0,0,0,0,-1,1112,1226,0,0
-105,-202,0,0,0,0,0,0,0,0,0,-1,1119,1226,0,0
-98,-202,0,0,0,0,0,0,0,0,0,-1,1126,1226,0,0
-91,-202,0,0,0,0,0,0,0,0,0,-1,1133,1226,0,0
-84,-202,0,0,0,0,0,0,0,0,0,-1,1140,1226,0,0
-77,-202,0,0,0,0,0,0,0,0,0,-1,1147,1226,0,0
-70,-202,0,0,0,0,0,0,0,0,0,-1,1154,1226,0,0
-63,-202,0,0,0,0,0,0,0,0,0,-1,1161,1226,0,0
-56,-202,0,0,0,0,0,0,0,0,0,-1,1168,1226,0,0
-49,-202,0,0,0,0,0,0,0,0,0,-1,1175,1226,0,0
-42,-202,0,0,0,0,0,0,0,0,0,-1,1182,1226,0,0
-35,-202,0,0,0,0,0,0,0,0,0,-1,1189,1226,0,0
-28,-202,0,0,0,0,0,0,0,0,0,-1,1196,1226,0,0
-21,-202,0,0,0,0,0,0,0,0,0,-1,1203,1226,0,0
-14,-202,0,0,0,0,0,0,0,0,0,-1,1210,1226,0,0
-7,-202,0,0,0,0,0,0,0,0,0,-1,1217,1226,0,0
0,-202,0,0,0,0,0,0,0,0,0,-1,1224,1226,0,0
7,-202,0,0,0,0,0,0,0,0,0,-1,1231,1226,0,0
14,-202,0,0,0,0,0,0,0,0,0,-1,1238,1226,0,0
21,-202,0,0,0,0,0,0,0,0,0,-1,1245,1226,0,0
28,-202,0,0,0,0,0,0,0,0,0,-1,1252,1226,0,0
35,-202,0,0,0,0,0,0,0,0,0,-1,1259,1226,0,0
42,-202,0,0,0,0,0,0,0,0,0,-1,1266,1226,0,0
49,-202,0,0,0,0,0,0,0,0,0,-1,1273,1226,0,0
56,-202,0,0,0,0,0,0,0,0,0,-1,1280,1226,0,0
63,-202,0,0,0,0,0,0,0,0,0,-1,1287,1226,0,0
70,-202,0,0,0,0,0,0,0,0,0,-1,1294,1226,0,0
77,-202,0,0,0,0,0,0,0,0,0,-1,1301,1226,0,0
84,-202,0,0,0,0,0,0,0,0,0,-1,1308,1226,0,0
91,-202,0,0,0,0,0,0,0,0,0,-1,1315,1226,0,0
98,-202,0,0,0,0,0,0,0,0,0,-1,1322,1226,0,0
105,-202,0,0,0,0,0,0,0,0,0,-1,1329,1226,0,0
112,-202,0,0,0,0,0,0,0,0,0,-1,1336,1226,0,0
119,-202,0,0,0,0,0,0,0,0,0,-1,1343,1226,0,0
126,-202,0,0,0,0,0,0,0,0,0,-1,1350,1226,0,0
133,-202,0,0,0,0,0,0,0,0,0,-1,1357,1226,0,0
140,-202,0,0,0,0,0,0,0,0,0,-1,1364,1226,0,0
147,-202,0,0,0,0,0,0,0,0,0,-1,1371,1226,0,0
154,-202,0,0,0,0,0,0,0,0,0,-1,1378,1226,0,0
161,-202,0,0,0,0,0,0,0,0,0,-1,1385,1226,0,0
168,-202,0,0,0,0,0,0,0,0,0,-1,1392,1226,0,0
175,-202,0,0,0,0,0,0,0,0,0,-1,1399,1226,0,0
182,-202,0,0,0,0,0,0,0,0,0,-1,1406,1226,0,0
189,-202,0,0,0,0,0,0,0,0,0,-1,1413,1226,0,0
196,-202,0,0,0,0,0,0,0,0,0,-1,1420,1226,0,0
203,-202,0,0,0,0,0,0,0,0,0,-1,1427,1226,0,0
210,-202,0,0,0,0,0,0,0,0,0,-1,1434,1226,0,0
217,-202,0,0,0,0,0,0,0,0,0,-1,1441,1226,0,0
224,-202,0,0,0,0,0,0,0,0,0,-1,1448,1226,0,0
231,-202,0,0,0,0,0,0,0,0,0,-1,1455,1226,0,0
238,-202,0,0,0,0,0,0,0,0,0,-1,1462,1226,0,0
245,-202,0,0,0,0,0,0,0,0,0,-1,1469,1226,0,0
252,-202,0,0,0,0,0,0,0,0,0,-1,1476,1226,0,0
259,-202,0,0,0,0,0,0,0,0,0,-1,1483,1226,0,0
266,-202,0,0,0,0,0,0,0,0,0,-1,1490,1226,0,0
273,-202,0,0,0,0,0,0,0,0,0,-1,1497,1226,0,0
280,-202,0,0,0,0,0,0,0,0,0,-1,1504,1226,0,0
287,-202,0,0,0,0,0,0,0,0,0,-1,1511,1226,0,0
294,-202,0,0,0,0,0,0,0,0,0,-1,1518,1226,0,0
301,-202,0,0,0,0,0,0,0,0,0,-1,1525,1226,0,0
308,-202,0,0,0,0,0,0,0,0,0,-1,1532,1226,0,0
315,-202,0,0,0,0,0,0,0,0,0,-1,1539,1226,0,0
322,-202,0,0,0,0,0,0,0,0,0,-1,1546,1226,0,0
329,-202,0,0,0,0,0,0,0,0,0,-1,1553,1226,0,0
336,-202,0,0,0,0,0,0,0,0,0,-1,1560,1226,0,0
343,-202,0,0,0,0,0,0,0,0,0,-1,1567,1226,0,0
350,-202,0,0,0,0,0,0,0,0,0,-1,1574,1226,0,0
357,-202,0,0,0,0,0,0,0,0,0,-1,1581,1226,0,0
364,-202,0,0,0,0,0,0,0,0,0,-1,1588,1226,0,0
371,-202,0,0,0,0,0,0,0,0,0,-1,1595,1226,0,0
378,-202,0,0,0,0,0,0,0,0,0,-1,1602,1226,0,0
385,-202,0,0,0,0,0,0,0,0,0,-1,1609,1226,0,0
392,-202,0,0,0,0,0,0,0,0,0,-1,1616,1226,0,0
399,-202,0,0,0,0,0,0,0,0,0,-1,1623,1226,0,0
406,-202,0,0,0,0,0,0,0,0,0,-1,1630,1226,0,0
413,-202,0,0,0,0,0,0,0,0,0,-1,1637,1226,0,0
420,-202,0,0,0,0,0,0,0,0,0,-1,1644,1226,0,0
427,-202,0,0,0,0,0,0,0,0,0,-1,1651,1226,0,0
434,-202,0,0,0,0,0,0,0,0,0,-1,1658,1226,0,0
441,-202,0,0,0,0,0,0,0,0,0,-1,1665,1226,0,0
448,-202,0,0,0,0,0,0,0,0,0,-1,1672,1226,0,0
455,-202,0,0,0,0,0,0,0,0,0,-1,1679,1226,0,0
462,-202,0,0,0,0,0,0,0,0,0,-1,1686,1226,0,0
469,-202,0,0,0,0,0,0,0,0,0,-1,1693,1226,0,0
476,-202,0,0,0,0,0,0,0,0,0,-1,1700,1226,0,0
483,-202,0,0,0,0,0,0,0,0,0,-1,1707,1226,0,0
490,-202,0,0,0,0,0,0,0,0,0,-1,1714,1226,0,0
497,-202,0,0,0,0,0,0,0,0,0,-1,1721,1226,0,0
504,-202,0,0,0,0,0,0,0,0,0,-1,1728,1226,0,0
511,-202,0,0,0,0,0,0,0,0,0,-1,1735,1226,0,0
518,-202,0,0,0,0,0,0,0,0,0,-1,1742,1226,0,0
525,-202,0,0,0,0,0,0,0,0,0,-1,1749,1226,0,0
532,-202,0,0,0,0,0,0,0,0,0,-1,1756,1226,0,0
539,-202,0,0,0,0,0,0,0,0,0,-1,1763,1226,0,0
546,-202,0,0,0,0,0,0,0,0,0,-1,1770,1226,0,0
553,-202,0,0,0,0,0,0,0,0,0,-1,1777,1226,0,0
560,-202,0,0,0,0,0,0,0,0,0,-1,1784,1226,0,0
567,-202,0,0,0,0,0,0,0,0,0,-1,1791,1226,0,0
574,-202,0,0,0,0,0,0,0,0,0,-1,1798,1226,0,0
581,-202,0,0,0,0,0,0,0,0,0,-1,1805,1226,0,0
588,-202,0,0,0,0,0,0,0,0,0,-1,1812,1226,0,0
595,-202,0,0,0,0,0,0,0,0,0,-1,1819,1226,0,0
602,-202,0,0,0,0,0,0,0,0,0,-1,1826,1226,0,0
609,-202,0,0,0,0,0,0,0,0,0,-1,1833,1226,0,0
616,-202,0,0,0,0,0,0,0,0,0,-1,1840,1226,0,0
623,-202,0,0,0,0,0,0,0,0,0,-1,1847,1226,0,0
630,-202,-0.0413818,-0.113525,-0.00114979,-0.000438261,-0.000305644,-0.000324999,-0.00126305,-1.21591,0.000757315,0.0345251,1854,1226,-0.0414041,0.113581
637,-202,0.0167236,-0.0548096,-0.000708144,0.00065841,-0.000386621,0.000760208,-0.000809942,-1.31334,0.000906678,0.0308334,1861,1226,0.016714,0.0548157
644,-202,0.0128174,-0.0467529,-0.000462497,0.00170349,-0.000735523,0.00192965,-0.000688652,-1.2725,0.00156725,0.0282338,1868,1226,0.0128138,0.0467499
651,-202,0.00585938,-0.0861816,-0.000360527,0.00252626,-0.00096954,0.00282166,-0.000655924,-1.27505,0.00213362,0.023236,1875,1226,0.00591167,0.0861396
658,-202,-0.00415039,-0.0532227,-0.000351167,0.00307845,-0.00109128,0.00339624,-0.000668955,-1.28742,0.00251695,0.0191199,1882,1226,-0.00415732,0.0532038
665,-202,-0.0137939,-0.0500488,-0.000391609,0.00337018,-0.00114187,0.00368966,-0.000711086,-1.29799,0.00272787,0.0186018,1889,1226,-0.0137663,0.0500144
672,-202,0.0361328,-0.0783691,-0.000460455,0.00343253,-0.00107833,0.00371127,-0.000739187,-1.31785,0.00275384,0.0398544,1896,1226,0.0360777,0.0784165
679,-202,0.0179443,-0.29187,-0.000517129,0.00332062,-0.000943858,0.00354019,-0.0007367,-1.34223,0.00264018,0.0458057,1903,1226,0.0179087,0.291916
686,-202,0.335938,-0.50708,0,0,0,0,0,0,0,-1,1910,1226,0.335955,0.507019
693,-202,0.167236,-0.310669,-0.00066692,0.00285334,-0.000672913,0.00297758,-0.000791165,-1.38821,0.0022947,0.0387538,1917,1226,0.167257,0.31067
700,-202,0.000610352,-0.116821,-0.000665807,0.00247481,-0.00046264,0.00254154,-0.00073254,-1.42754,0.00198414,0.0143341,1924,1226,0.000628556,0.116826
707,-202,-0.0197754,-0.0599365,-0.000680643,0.00205858,-0.000295002,0.00208999,-0.000712053,-1.46472,0.0016817,0.0130771,1931,1226,-0.0197465,0.0599518
714,-202,-0.0224609,-0.0622559,-0.000645211,0.00166937,-0.000194571,0.00168562,-0.000661453,-1.48751,0.00139742,0.0119352,1938,1226,-0.0224976,0.0622227
721,-202,-0.0270996,-0.0579834,-0.000639714,0.00122778,1.78511e-05,0.00122795,-0.000639885,1.56124,0.00109606,0.0102518,1945,1226,-0.0271061,0.0579313
728,-202,-0.0340576,-0.0507813,-0.00059632,0.000570235,0.000475957,0.000739784,-0.000765869,1.22858,0.000869332,0.00938199,1952,1226,-0.0340079,0.0507722
735,-202,-0.0142822,-0.072876,-0.000379391,-0.000297463,0.000975791,0.000638224,-0.00131508,0.806376,0.00115009,0.00967815,1959,1226,-0.0142783,0.0728418
742,-202,-0.0045166,-0.0811768,-2.55938e-05,-0.000880862,0.00114358,0.000767688,-0.00167414,0.606476,0.00144181,0.00895946,1966,1226,-0.00456965,0.0812272
749,-202,-0.0141602,-0.0778809,9.45858e-05,-0.00156377,0.00118042,0.000707951,-0.00217713,0.479217,0.0017362,0.00840781,1973,1226,-0.0141605,0.0778849
756,-202,-0.0220947,-0.0876465,0.000170375,-0.00224061,0.00118011,0.000651854,-0.00272209,0.387379,0.00206657,0.00932325,1980,1226,-0.022052,0.0876372
763,-202,-0.0300293,-0.0837402,0.000250868,-0.00327994,0.00131486,0.000686718,-0.00371579,0.320081,0.00273499,0.0143705,1987,1226,-0.0300685,0.0836986
770,-202,0.0357666,-0.176758,0.000286383,-0.00458354,0.00125272,0.000589733,-0.00488689,0.237579,0.00347124,0.03617,1994,1226,0.0357389,0.17678
777,-202,0.00439453,-0.388306,0.000257195,-0.00614293,0.000751141,0.000344169,-0.0062299,0.115277,0.00427261,0.0434631,2001,1226,0.00439346,0.388354
784,-202,-0.0739746,-0.0601807,0.000126679,-0.00788713,-0.000538956,0.000162763,-0.00792321,-0.0668522,0.00533722,0.0435888,2008,1226,-0.0739309,0.0601202
791,-202,0.180786,-0.868774,0,0,0,0,0,0,0,-1,2015,1226,0.180839,0.868749
798,-202,-0.148926,0.178223,0,0,0,0,0,0,0,-1,2022,1226,-0.148895,-0.178192
805,-202,0,0,0,0,0,0,0,0,0,-1,2029,1226,0,0
812,-202,0,0,0,0,0,0,0,0,0,-1,2036,1226,0,0
-700,-209,0,0,0,0,0,0,0,0,0,-1,524,1233,0,0
-693,-209,0,0,0,0,0,0,0,0,0,-1,531,1233,0,0
-686,-209,0,0,0,0,0,0,0,0,0,-1,538,1233,0,0
-679,-209,-0.43689,-0.653198,-0.027124,0.0638983,0.00228154,0.0639554,-0.0271811,1.54575,0.0540267,0.0456385,545,1233,-0.436862,0.653193
-672,-209,-0.587036,-0.575439,-0.0187691,0.0506248,0.00258824,0.0507212,-0.0188655,1.53357,0.0415555,0.0448854,552,1233,-0.587062,0.575412
-665,-209,-0.428711,-0.255127,-0.0119862,0.0391783,0.00285599,0.0393372,-0.0121451,1.51521,0.0310747,0.0449133,559,1233,-0.428733,0.25514
-658,-209,-0.382751,-0.103516,-0.00657891,0.0294362,0.00302796,0.029689,-0.00683171,1.4875,0.0224196,0.0463506,566,1233,-0.382762,0.103575
-651,-209,-1.75342,-0.300781,0,0,0,0,0,0,0,-1,573,1233,-1.75341,0.300762
-644,-209,-1.09753,-0.23645,0,0,0,0,0,0,0,-1,580,1233,-1.09755,0.236435
-637,-209,-0.508362,-0.25415,0,0,0,0,0,0,0,-1,587,1233,-0.508378,0.254135
-630,-209,0.0088501,-0.0861816,0.00375268,0.00612016,0.0024163,0.0076271,0.00224575,1.01317,0.00452585,0.0213391,594,1233,0.00884041,0.0861619
-623,-209,-0.0246582,-0.0714111,0.00453878,0.00292346,0.00198733,0.0058763,0.00158595,0.59239,0.0035104,0.0104604,601,1233,-0.0246719,0.0714319
-616,-209,-0.0320435,-0.0687256,0.00440922,0.000482433,0.00165606,0.00501438,-0.000122723,0.350345,0.00338457,0.0105162,608,1233,-0.0320622,0.068679
-609,-209,-0.0454712,-0.0718994,0.00380721,-9.29085e-05,0.00125898,0.00417831,-0.000464005,0.286642,0.00295238,0.012825,615,1233,-0.0454508,0.0718468
-602,-209,-0.0454102,-0.0689697,0.00378654,-0.00076192,0.00101435,0.0040025,-0.000977877,0.209769,0.00304705,0.0145664,622,1233,-0.0454222,0.068913
-595,-209,-0.0252075,-0.090332,0.00354673,-0.000341701,0.000292409,0.0035686,-0.000363566,0.0746404,0.00250905,0.0109202,629,1233,-0.0252101,0.0903442
-588,-209,-0.0103149,-0.0949707,0.00281173,-0.000336982,-0.000190065,0.00282316,-0.000348413,-0.0600721,0.00200834,0.0125002,636,1233,-0.0103088,0.0949383
-581,-209,-0.00854492,-0.0909424,0.00198224,-0.00022924,-0.000360317,0.00203947,-0.000286466,-0.157505,0.0014645,0.0110957,643,1233,-0.00854837,0.0909238
-574,-209,-0.0213623,-0.090332,0.0013665,2.31083e-05,-0.000322489,0.0014399,-5.02961e-05,-0.223806,0.000977132,0.00988101,650,1233,-0.0213335,0.0902976
-567,-209,0.00354004,-0.097168,0.00124802,-2.70498e-06,-0.000291577,0.00131265,-6.73393e-05,-0.218144,0.000898388,0.0216839,657,1233,0.00352523,0.0971142
-560,-209,0.0979004,-0.0844727,0.00116765,-4.57636e-05,-0.000324209,0.00124884,-0.000126955,-0.245384,0.000877945,0.0430874,664,1233,0.0979262,0.0845196
-553,-209,0.179138,-0.0374756,0.000845104,-0.000108934,-0.000182664,0.000878881,-0.000142711,-0.182852,0.000638827,0.0447866,671,1233,0.179154,0.0374532
-546,-209,0.711182,-0.594238,0.000376348,-0.000131383,-3.73336e-05,0.000379079,-0.000134114,-0.0730069,0.000307338,0.0415911,678,1233,0.711211,0.594232
-539,-209,0.168518,-0.331787,-0.000143039,-0.000125969,0.000124723,-9.48917e-06,-0.000259519,0.819561,0.000169938,0.0337361,685,1233,0.168502,0.331739
-532,-209,0.0321045,-0.123779,-0.000616631,-9.45981e-05,0.000269683,1.9697e-05,-0.000730926,1.16993,0.00049398,0.0250064,692,1233,0.0321223,0.12372
-525,-209,-0.0844727,0.067749,-0.000952833,-1.75813e-05,0.000293123,6.6694e-05,-0.00103711,1.29084,0.000714675,0.0296692,699,1233,-0.0844809,-0.0677682
-518,-209,-0.136536,0.26062,-0.000955727,0.000100314,4.09105e-05,0.000101896,-0.000957309,1.53213,0.000674741,0.0392123,706,1233,-0.136563,-0.260596
-511,-209,-0.0175171,-0.0708008,-0.000200585,0.000280093,-0.000608205,0.000693723,-0.000614216,-0.973562,0.000755604,0.0392323,713,1233,-0.0175469,0.0707539
-504,-209,0,0,0,0,0,0,0,0,0,-1,720,1233,0,0
-497,-209,0,0,0,0,0,0,0,0,0,-1,727,1233,0,0
-490,-209,0,0,0,0,0,0,0,0,0,-1,734,1233,0,0
-483,-209,0,0,0,0,0,0,0,0,0,-1,741,1233,0,0
-476,-209,0,0,0,0,0,0,0,0,0,-1,748,1233,0,0
-469,-209,0,0,0,0,0,0,0,0,0,-1,755,1233,0,0
-462,-209,0,0,0,0,0,0,0,0,0,-1,762,1233,0,0
-455,-209,0,0,0,0,0,0,0,0,0,-1,769,1233,0,0
-448,-209,0,0,0,0,0,0,0,0,0,-1,776,1233,0,0
-441,-209,0,0,0,0,0,0,0,0,0,-1,783,1233,0,0
-434,-209,0,0,0,0,0,0,0,0,0,-1,790,1233,0,0
-427,-209,0,0,0,0,0,0,0,0,0,-1,797,1233,0,0
-420,-209,0,0,0,0,0,0,0,0,0,-1,804,1233,0,0
-413,-209,0,0,0,0,0,0,0,0,0,-1,811,1233,0,0
-406,-209,0,0,0,0,0,0,0,0,0,-1,818,1233,0,0
-399,-209,0,0,0,0,0,0,0,0,0,-1,825,1233,0,0
-392,-209,0,0,0,0,0,0,0,0,0,-1,832,1233,0,0
-385,-209,0,0,0,0,0,0,0,0,0,-1,839,1233,0,0
-378,-209,0,0,0,0,0,0,0,0,0,-1,846,1233,0,0
-371,-209,0,0,0,0,0,0,0,0,0,-1,853,1233,0,0
-364,-209,0,0,0,0,0,0,0,0,0,-1,860,1233,0,0
-357,-209,0,0,0,0,0,0,0,0,0,-1,867,1233,0,0
-350,-209,0,0,0,0,0,0,0,0,0,-1,874,1233,0,0
-343,-209,0,0,0,0,0,0,0,0,0,-1,881,1233,0,0
-336,-209,0,0,0,0,0,0,0,0,0,-1,888,1233,0,0
-329,-209,0,0,0,0,0,0,0,0,0,-1,895,1233,0,0
-322,-209,0,0,0,0,0,0,0,0,0,-1,902,1233,0,0
-315,-209,0,0,0,0,0,0,0,0,0,-1,909,1233,0,0
-308,-209,0,0,0,0,0,0,0,0,0,-1,916,1233,0,0
-301,-209,0,0,0,0,0,0,0,0,0,-1,923,1233,0,0
-294,-209,0,0,0,0,0,0,0,0,0,-1,930,1233,0,0
-287,-209,0,0,0,0,0,0,0,0,0,-1,937,1233,0,0
-280,-209,0,0,0,0,0,0,0,0,0,-1,944,1233,0,0
-273,-209,0,0,0,0,0,0,0,0,0,-1,951,1233,0,0
-266,-209,0,0,0,0,0,0,0,0,0,-1,958,1233,0,0
-259,-209,0,0,0,0,0,0,0,0,0,-1,965,1233,0,0
-252,-209,0,0,0,0,0,0,0,0,0,-1,972,1233,0,0
-245,-209,0,0,0,0,0,0,0,0,0,-1,979,1233,0,0
-238,-209,0,0,0,0,0,0,0,0,0,-1,986,1233,0,0
-231,-209,0,0,0,0,0,0,0,0,0,-1,993,1233,0,0
-224,-209,0,0,0,0,0,0,0,0,0,-1,1000,1233,0,0
-217,-209,0,0,0,0,0,0,0,0,0,-1,1007,1233,0,0
-210,-209,0,0,0,0,0,0,0,0,0,-1,1014,1233,0,0
-203,-209,0,0,0,0,0,0,0,0,0,-1,1021,1233,0,0
-196,-209,0,0,0,0,0,0,0,0,0,-1,1028,1233,0,0
-189,-209,0,0,0,0,0,0,0,0,0,-1,1035,1233,0,0
-182,-209,0,0,0,0,0,0,0,0,0,-1,1042,1233,0,0
-175,-209,0,0,0,0,0,0,0,0,0,-1,1049,1233,0,0
-168,-209,0,0,0,0,0,0,0,0,0,-1,1056,1233,0,0
-161,-209,0,0,0,0,0,0,0,0,0,-1,1063,1233,0,0
-154,-209,0,0,0,0,0,0,0,0,0,-1,1070,1233,0,0
-147,-209,0,0,0,0,0,0,0,0,0,-1,1077,1233,0,0
-140,-209,0,0,0,0,0,0,0,0,0,-1,1084,1233,0,0
-133,-209,0,0,0,0,0,0,0,0,0,-1,1091,1233,0,0
-126,-209,0,0,0,0,0,0,0,0,0,-1,1098,1233,0,0
-119,-209,0,0,0,0,0,0,0,0,0,-1,1105,1233,0,0
-112,-209,0,0,0,0,0,0,0,0,0,-1,1112,1233,0,0
-105,-209,0,0,0,0,0,0,0,0,0,-1,1119,1233,0,0
-98,-209,0,0,0,0,0,0,0,0,0,-1,1126,1233,0,0
-91,-209,0,0,0,0,0,0,0,0,0,-1,1133,1233,0,0
-84,-209,0,0,0,0,0,0,0,0,0,-1,1140,1233,0,0
-77,-209,0,0,0,0,0,0,0,0,0,-1,1147,1233,0,0
-70,-209,0,0,0,0,0,0,0,0,0,-1,1154,1233,0,0
-63,-209,0,0,0,0,0,0,0,0,0,-1,1161,1233,0,0
-56,-209,0,0,0,0,0,0,0,0,0,-1,1168,1233,0,0
-49,-209,0,0,0,0,0,0,0,0,0,-1,1175,1233,0,0
-42,-209,0,0,0,0,0,0,0,0,0,-1,1182,1233,0,0
-35,-209,0,0,0,0,0,0,0,0,0,-1,1189,1233,0,0
-28,-209,0,0,0,0,0,0,0,0,0,-1,1196,1233,0,0
-21,-209,0,0,0,0,0,0,0,0,0,-1,1203,1233,0,0
-14,-209,0,0,0,0,0,0,0,0,0,-1,1210,1233,0,0
-7,-209,0,0,0,0,0,0,0,0,0,-1,1217,1233,0,0
0,-209,0,0,0,0,0,0,0,0,0,-1,1224,1233,0,0
7,-209,0,0,0,0,0,0,0,0,0,-1,1231,1233,0,0
14,-209,0,0,0,0,0,0,0,0,0,-1,1238,1233,0,0
21,-209,0,0,0,0,0,0,0,0,0,-1,1245,1233,0,0
28,-209,0,0,0,0,0,0,0,0,0,-1,1252,1233,0,0
35,-209,0,0,0,0,0,0,0,0,0,-1,1259,1233,0,0
42,-209,0,0,0,0,0,0,0,0,0,-1,1266,1233,0,0
49,-209,0,0,0,0,0,0,0,0,0,-1,1273,1233,0,0
56,-209,0,0,0,0,0,0,0,0,0,-1,1280,1233,0,0
63,-209,0,0,0,0,0,0,0,0,0,-1,1287,1233,0,0
70,-209,0,0,0,0,0,0,0,0,0,-1,1294,1233,0,0
77,-209,0,0,0,0,0,0,0,0,0,-1,1301,1233,0,0
84,-209,0,0,0,0,0,0,0,0,0,-1,1308,1233,0,0
91,-209,0,0,0,0,0,0,0,0,0,-1,1315,1233,0,0
98,-209,0,0,0,0,0,0,0,0,0,-1,1322,1233,0,0
105,-209,0,0,0,0,0,0,0,0,0,-1,1329,1233,0,0
112,-209,0,0,0,0,0,0,0,0,0,-1,1336,1233,0,0
119,-209,0,0,0,0,0,0,0,0,0,-1,1343,1233,0,0
126,-209,0,0,0,0,0,0,0,0,0,-1,1350,1233,0,0
133,-209,0,0,0,0,0,0,0,0,0,-1,1357,1233,0,0
140,-209,0,0,0,0,0,0,0,0,0,-1,1364,1233,0,0
147,-209,0,0,0,0,0,0,0,0,0,-1,1371,1233,0,0
154,-209,0,0,0,0,0,0,0,0,0,-1,1378,1233,0,0
161,-209,0,0,0,0,0,0,0,0,0,-1,1385,1233,0,0
168,-209,0,0,0,0,0,0,0,0,0,-1,1392,1233,0,0
175,-209,0,0,0,0,0,0,0,0,0,-1,1399,1233,0,0
182,-209,0,0,0,0,0,0,0,0,0,-1,1406,1233,0,0
189,-209,0,0,0,0,0,0,0,0,0,-1,1413,1233,0,0
196,-209,0,0,0,0,0,0,0,0,0,-1,1420,1233,0,0
203,-209,0,0,0,0,0,0,0,0,0,-1,1427,1233,0,0
210,-209,0,0,0,0,0,0,0,0,0,-1,1434,1233,0,0
217,-209,0,0,0,0,0,0,0,0,0,-1,1441,1233,0,0
224,-209,0,0,0,0,0,0,0,0,0,-1,1448,1233,0,0
231,-209,0,0,0,0,0,0,0,0,0,-1,1455,1233,0,0
238,-209,0,0,0,0,0,0,0,0,0,-1,1462,1233,0,0
245,-209,0,0,0,0,0,0,0,0,0,-1,1469,1233,0,0
252,-209,0,0,0,0,0,0,0,0,0,-1,1476,1233,0,0
259,-209,0,0,0,0,0,0,0,0,0,-1,1483,1233,0,0
266,-209,0,0,0,0,0,0,0,0,0,-1,1490,1233,0,0
273,-209,0,0,0,0,0,0,0,0,0,-1,1497,1233,0,0
280,-209,0,0,0,0,0,0,0,0,0,-1,1504,1233,0,0
287,-209,0,0,0,0,0,0,0,0,0,-1,1511,1233,0,0
294,-209,0,0,0,0,0,0,0,0,0,-1,1518,1233,0,0
301,-209,0,0,0,0,0,0,0,0,0,-1,1525,1233,0,0
308,-209,0,0,0,0,0,0,0,0,0,-1,1532,1233,0,0
315,-209,0,0,0,0,0,0,0,0,0,-1,1539,1233,0,0
322,-209,0,0,0,0,0,0,0,0,0,-1,1546,1233,0,0
329,-209,0,0,0,0,0,0,0,0,0,-1,1553,1233,0,0
336,-209,0,0,0,0,0,0,0,0,0,-1,1560,1233,0,0
343,-209,0,0,0,0,0,0,0,0,0,-1,1567,1233,0,0
350,-209,0,0,0,0,0,0,0,0,0,-1,1574,1233,0,0
357,-209,0,0,0,0,0,0,0,0,0,-1,1581,1233,0,0
364,-209,0,0,0,0,0,0,0,0,0,-1,1588,1233,0,0
371,-209,0,0,0,0,0,0,0,0,0,-1,1595,1233,0,0
378,-209,0,0,0,0,0,0,0,0,0,-1,1602,1233,0,0
385,-209,0,0,0,0,0,0,0,0,0,-1,1609,1233,0,0
392,-209,0,0,0,0,0,0,0,0,0,-1,1616,1233,0,0
399,-209,0,0,0,0,0,0,0,0,0,-1,1623,1233,0,0
406,-209,0,0,0,0,0,0,0,0,0,-1,1630,1233,0,0
413,-209,0,0,0,0,0,0,0,0,0,-1,1637,1233,0,0
420,-209,0,0,0,0,0,0,0,0,0,-1,1644,1233,0,0
427,-209,0,0,0,0,0,0,0,0,0,-1,1651,1233,0,0
434,-209,0,0,0,0,0,0,0,0,0,-1,1658,1233,0,0
441,-209,0,0,0,0,0,0,0,0,0,-1,1665,1233,0,0
448,-209,0,0,0,0,0,0,0,0,0,-1,1672,1233,0,0
455,-209,0,0,0,0,0,0,0,0,0,-1,1679,1233,0,0
462,-209,0,0,0,0,0,0,0,0,0,-1,1686,1233,0,0
469,-209,0,0,0,0,0,0,0,0,0,-1,1693,1233,0,0
476,-209,0,0,0,0,0,0,0,0,0,-1,1700,1233,0,0
483,-209,0,0,0,0,0,0,0,0,0,-1,1707,1233,0,0
490,-209,0,0,0,0,0,0,0,0,0,-1,1714,1233,0,0
497,-209,0,0,0,0,0,0,0,0,0,-1,1721,1233,0,0
504,-209,0,0,0,0,0,0,0,0,0,-1,1728,1233,0,0
511,-209,0,0,0,0,0,0,0,0,0,-1,1735,1233,0,0
518,-209,0,0,0,0,0,0,0,0,0,-1,1742,1233,0,0
525,-209,0,0,0,0,0,0,0,0,0,-1,1749,1233,0,0
532,-209,0,0,0,0,0,0,0,0,0,-1,1756,1233,0,0
539,-209,0,0,0,0,0,0,0,0,0,-1,1763,1233,0,0
546,-209,0,0,0,0,0,0,0,0,0,-1,1770,1233,0,0
553,-209,0,0,0,0,0,0,0,0,0,-1,1777,1233,0,0
560,-209,0,0,0,0,0,0,0,0,0,-1,1784,1233,0,0
567,-209,0,0,0,0,0,0,0,0,0,-1,1791,1233,0,0
574,-209,0,0,0,0,0,0,0,0,0,-1,1798,1233,0,0
581,-209,0,0,0,0,0,0,0,0,0,-1,1805,1233,0,0
588,-209,0,0,0,0,0,0,0,0,0,-1,1812,1233,0,0
595,-209,0,0,0,0,0,0,0,0,0,-1,1819,1233,0,0
602,-209,0,0,0,0,0,0,0,0,0,-1,1826,1233,0,0
609,-209,0,0,0,0,0,0,0,0,0,-1,1833,1233,0,0
616,-209,0,0,0,0,0,0,0,0,0,-1,1840,1233,0,0
623,-209,-0.00622559,-0.00915527,-0.00197973,0.00055282,-0.00141922,0.00118856,-0.00261547,-1.14965,0.00224717,0.0313504,1847,1233,-0.00622403,0.00916448
630,-209,-0.0588379,-0.12915,-0.00139283,0.000706578,-0.000494533,0.000817237,-0.00150348,-1.35066,0.00135926,0.033617,1854,1233,-0.0588362,0.129175
637,-209,-0.0294189,-0.113892,-0.00103293,0.00182306,-0.000470555,0.00189859,-0.00110846,-1.41164,0.00175599,0.0328099,1861,1233,-0.029412,0.113859
644,-209,-0.0300293,-0.09729,-0.000811188,0.00276933,-0.000683137,0.00289524,-0.000937098,-1.38853,0.00230687,0.0280415,1868,1233,-0.0300714,0.0972425
651,-209,0.0148926,-0.109009,-0.000682327,0.00340106,-0.000836468,0.00356577,-0.000847031,-1.37638,0.00270411,0.0217501,1875,1233,0.0148769,0.108986
658,-209,0.0148926,-0.0517578,-0.000614824,0.00376196,-0.000935124,0.00395338,-0.000806247,-1.36888,0.0029414,0.0178844,1882,1233,0.0149072,0.0517535
665,-209,0.0336914,-0.0438232,-0.000594457,0.00387747,-0.000989273,0.00408654,-0.000803528,-1.36252,0.00302795,0.0299459,1889,1233,0.0336609,0.0438643
672,-209,0.060791,-0.0799561,-0.000604631,0.00378785,-0.000943729,0.00398202,-0.000798809,-1.36787,0.00295714,0.046639,1896,1233,0.0608511,0.0799547
679,-209,0.146118,-0.546265,-0.000617887,0.00355043,-0.000845578,0.00371543,-0.000782888,-1.37808,0.00277498,0.0465557,1903,1233,0.146058,0.546256
686,-209,0.0126953,-0.223877,0,0,0,0,0,0,0,-1,1910,1233,0.0127458,0.223896
693,-209,0.000610352,-0.161743,-0.000685238,0.00287325,-0.000640776,0.00298512,-0.000797105,-1.39796,0.00230225,0.0397473,1917,1233,0.000581576,0.161746
700,-209,-0.00671387,-0.0983887,-0.000664605,0.00243322,-0.000470202,0.00250302,-0.000734402,-1.42343,0.0019599,0.0140573,1924,1233,-0.00670506,0.0984233
707,-209,-0.0133057,-0.0689697,-0.000673808,0.00199434,-0.000348181,0.00203903,-0.000718496,-1.44315,0.00165179,0.0129219,1931,1233,-0.0132781,0.0689506
714,-209,-0.0169678,-0.0799561,-0.000636232,0.00161733,-0.000275351,0.00165048,-0.000669388,-1.45096,0.00137872,0.0111817,1938,1233,-0.0169568,0.0799985
721,-209,-0.0198975,-0.0635986,-0.000649045,0.00119824,-7.37384e-05,0.00120118,-0.000651984,-1.53096,0.00108547,0.011426,1945,1233,-0.0199577,0.063647
728,-209,-0.0263672,-0.0528564,-0.00061443,0.000622807,0.000322042,0.000701612,-0.000693235,1.33081,0.00080532,0.0112758,1952,1233,-0.0263205,0.0528842
735,-209,-0.00732422,-0.0734863,-0.000362784,-0.000210104,0.000718567,0.000436166,-0.00100905,0.83832,0.000855972,0.0112776,1959,1233,-0.00728993,0.0734807
742,-209,-0.00341797,-0.0775146,3.50593e-05,-0.000756065,0.000763277,0.000499184,-0.00122019,0.546331,0.00102136,0.00926595,1966,1233,-0.00345024,0.0775422
749,-209,-0.0150146,-0.0803223,0.000213371,-0.00140955,0.000748284,0.000505722,-0.0017019,0.372459,0.00133548,0.00802313,1973,1233,-0.0149715,0.0802702
756,-209,-0.0263672,-0.0756836,0.000346918,-0.00219614,0.000714881,0.000534101,-0.00238332,0.256089,0.00179362,0.00903551,1980,1233,-0.0263461,0.075734
763,-209,-0.0495605,-0.0609131,0.000525018,-0.00341161,0.000762878,0.000667686,-0.00355427,0.184877,0.00262058,0.0158742,1987,1233,-0.0495615,0.0609066
770,-209,0.0958252,-0.155273,0.0006962,-0.00503233,0.000635089,0.000765763,-0.0051019,0.109099,0.00368315,0.0394539,1994,1233,0.0958745,0.155279
777,-209,0.168945,-0.232422,0.000824801,-0.00709878,0.000127802,0.000826862,-0.00710084,0.0161237,0.00503221,0.0444047,2001,1233,0.16891,0.232433
784,-209,-0.14502,-0.00366211,0.00086276,-0.00960301,-0.00106999,0.000971032,-0.00971128,-0.100847,0.00682094,0.0404497,2008,1233,-0.144976,0.00367566
791,-209,-0.189331,0.287476,0.000730202,-0.0124597,-0.00340629,0.00155793,-0.0132875,-0.238379,0.00942066,0.0376609,2015,1233,-0.189273,-0.287473
798,-209,-0.13269,0.567017,0,0,0,0,0,0,0,-1,2022,1233,-0.132689,-0.567052
805,-209,0,0,0,0,0,0,0,0,0,-1,2029,1233,0,0
812,-209,0,0,0,0,0,0,0,0,0,-1,2036,1233,0,0
-700,-216,0,0,0,0,0,0,0,0,0,-1,524,1240,0,0
-693,-216,0,0,0,0,0,0,0,0,0,-1,531,1240,0,0
-686,-216,0,0,0,0,0,0,0,0,0,-1,538,1240,0,0
-679,-216,-0.386475,-1.3811,-0.0247538,0.0680514,0.00289631,0.0681417,-0.0248441,1.53963,0.0555915,0.0486753,545,1240,-0.386466,1.38113
-672,-216,-0.537476,-1.4574,-0.0167485,0.0526017,0.00267675,0.0527049,-0.0168517,1.53228,0.0418991,0.0486126,552,1240,-0.537495,1.45734
-665,-216,-0.671326,-1.54822,0,0,0,0,0,0,0,-1,559,1240,-0.671354,1.54817
-658,-216,-2.43121,-0.621948,0,0,0,0,0,0,0,-1,566,1240,-2.43119,0.621953
-651,-216,-2.06525,-0.519165,0,0,0,0,0,0,0,-1,573,1240,-2.06522,0.519192
-644,-216,-1.45709,-0.421387,0.0015629,0.0139881,0.00225756,0.0143856,0.00116544,1.39652,0.00922649,0.0464435,580,1240,-1.45712,0.421399
-637,-216,-0.804749,-0.43335,0.00330615,0.00894342,0.00205725,0.00961434,0.00263523,1.25555,0.00573659,0.041893,587,1240,-0.80473,0.43336
-630,-216,0.0418701,-0.212524,0.0043841,0.00541743,0.0017281,0.00670444,0.00309708,0.930657,0.00387455,0.0263154,594,1240,0.0418866,0.212524
-623,-216,-0.0112915,-0.0889893,0.00499628,0.00233722,0.00140598,0.0056018,0.0017317,0.406668,0.00331182,0.0119801,601,1240,-0.0113064,0.088953
-616,-216,-0.0256348,-0.0708008,0.00476974,0.000120738,0.00116737,0.0050464,-0.000155924,0.232703,0.00341743,0.013618,608,1240,-0.0256516,0.0707611
-609,-216,-0.0286255,-0.0661621,0.00402132,-0.000286814,0.00083547,0.00417767,-0.000443161,0.184997,0.00294397,0.0131859,615,1240,-0.0286074,0.0661388
-602,-216,-0.0257568,-0.0974121,0.00397477,-0.000856343,0.000685634,0.00407019,-0.000951764,0.138283,0.00308013,0.0120183,622,1240,-0.0257284,0.0974207
-595,-216,-0.0139771,-0.131348,0.00381633,-0.00047346,0.000139812,0.00382088,-0.000478011,0.0325458,0.00272063,0.0165516,629,1240,-0.0139952,0.131295
-588,-216,0.0127563,-0.112305,0.00310187,-0.000531825,-0.000177167,0.00311049,-0.000540443,-0.048603,0.0022753,0.0196176,636,1240,0.0127617,0.112358
-581,-216,0.0078125,-0.0828857,0.00225171,-0.00050794,-0.000279068,0.00227965,-0.000535878,-0.0997785,0.00172634,0.0171097,643,1240,0.0078298,0.0829444
-574,-216,-0.0145874,-0.0837402,0.00159746,-0.000360536,-0.000160092,0.00161046,-0.000373539,-0.0810459,0.00121741,0.0118939,650,1240,-0.0145573,0.0837446
-567,-216,-0.0171509,-0.0410156,0.00144203,-0.000492816,-5.91868e-05,0.00144384,-0.000494625,-0.0305519,0.00116304,0.0196497,657,1240,-0.017136,0.0409638
-560,-216,0.0640259,0.00732422,0.00132533,-0.000607775,-3.55016e-05,0.00132598,-0.000608427,-0.0183568,0.00114216,0.0370473,664,1240,0.0640312,-0.00729447
-553,-216,0.311707,-0.536743,0,0,0,0,0,0,0,-1,671,1240,0.311704,0.5367
-546,-216,0.593872,-1.05957,0,0,0,0,0,0,0,-1,678,1240,0.593868,1.05961
-539,-216,0.510315,-1.30383,0,0,0,0,0,0,0,-1,685,1240,0.510342,1.30383
-532,-216,0.223877,-0.431152,-0.000474594,-0.000772944,0.000646876,4.00838e-05,-0.00128762,0.672075,0.000872084,0.0345662,692,1240,0.223869,0.431178
-525,-216,0.036377,-0.148193,-0.000867881,-0.000546812,0.000630168,-5.70515e-05,-0.00135764,0.91012,0.000886689,0.0358249,699,1240,0.0363549,0.148245
-518,-216,-0.000549316,-0.072876,-0.000976418,-0.000137947,0.000289838,-4.75118e-05,-0.00106685,1.26835,0.000695939,0.0385154,706,1240,-0.000551114,0.0729038
-511,-216,0.0355225,-0.0325928,-0.000451033,0.00051291,-0.000526273,0.000744563,-0.000682686,-1.15614,0.000824281,0.0389566,713,1240,0.0355089,0.0326516
-504,-216,-0.0126953,-0.0351563,0.00134094,0.00151387,-0.00203513,0.00346437,-0.000609561,-0.806628,0.00253729,0.0395975,720,1240,-0.0126687,0.0351043
-497,-216,0,0,0,0,0,0,0,0,0,-1,727,1240,0,0
-490,-216,0,0,0,0,0,0,0,0,0,-1,734,1240,0,0
-483,-216,0,0,0,0,0,0,0,0,0,-1,741,1240,0,0
-476,-216,0,0,0,0,0,0,0,0,0,-1,748,1240,0,0
-469,-216,0,0,0,0,0,0,0,0,0,-1,755,1240,0,0
-462,-216,0,0,0,0,0,0,0,0,0,-1,762,1240,0,0
-455,-216,0,0,0,0,0,0,0,0,0,-1,769,1240,0,0
-448,-216,0,0,0,0,0,0,0,0,0,-1,776,1240,0,0
-441,-216,0,0,0,0,0,0,0,0,0,-1,783,1240,0,0
-434,-216,0,0,0,0,0,0,0,0,0,-1,790,1240,0,0
-427,-216,0,0,0,0,0,0,0,0,0,-1,797,1240,0,0
-420,-216,0,0,0,0,0,0,0,0,0,-1,804,1240,0,0
-413,-216,0,0,0,0,0,0,0,0,0,-1,811,1240,0,0
-406,-216,0,0,0,0,0,0,0,0,0,-1,818,1240,0,0
-399,-216,0,0,0,0,0,0,0,0,0,-1,825,1240,0,0
-392,-216,0,0,0,0,0,0,0,0,0,-1,832,1240,0,0
-385,-216,0,0,0,0,0,0,0,0,0,-1,839,1240,0,0
-378,-216,0,0,0,0,0,0,0,0,0,-1,846,1240,0,0
-371,-216,0,0,0,0,0,0,0,0,0,-1,853,1240,0,0
-364,-216,0,0,0,0,0,0,0,0,0,-1,860,1240,0,0
-357,-216,0,0,0,0,0,0,0,0,0,-1,867,1240,0,0
-350,-216,0,0,0,0,0,0,0,0,0,-1,874,1240,0,0
-343,-216,0,0,0,0,0,0,0,0,0,-1,881,1240,0,0
-336,-216,0,0,0,0,0,0,0,0,0,-1,888,1240,0,0
-329,-216,0,0,0,0,0,0,0,0,0,-1,895,1240,0,0
-322,-216,0,0,0,0,0,0,0,0,0,-1,902,1240,0,0
-315,-216,0,0,0,0,0,0,0,0,0,-1,909,1240,0,0
-308,-216,0,0,0,0,0,0,0,0,0,-1,916,1240,0,0
-301,-216,0,0,0,0,0,0,0,0,0,-1,923,1240,0,0
-294,-216,0,0,0,0,0,0,0,0,0,-1,930,1240,0,0
-287,-216,0,0,0,0,0,0,0,0,0,-1,937,1240,0,0
-280,-216,0,0,0,0,0,0,0,0,0,-1,944,1240,0,0
-273,-216,0,0,0,0,0,0,0,0,0,-1,951,1240,0,0
-266,-216,0,0,0,0,0,0,0,0,0,-1,958,1240,0,0
-259,-216,0,0,0,0,0,0,0,0,0,-1,965,1240,0,0
-252,-216,0,0,0,0,0,0,0,0,0,-1,972,1240,0,0
-245,-216,0,0,0,0,0,0,0,0,0,-1,979,1240,0,0
-238,-216,0,0,0,0,0,0,0,0,0,-1,986,1240,0,0
-231,-216,0,0,0,0,0,0,0,0,0,-1,993,1240,0,0
-224,-216,0,0,0,0,0,0,0,0,0,-1,1000,1240,0,0
-217,-216,0,0,0,0,0,0,0,0,0,-1,1007,1240,0,0
-210,-216,0,0,0,0,0,0,0,0,0,-1,1014,1240,0,0
-203,-216,0,0,0,0,0,0,0,0,0,-1,1021,1240,0,0
-196,-216,0,0,0,0,0,0,0,0,0,-1,1028,1240,0,0
-189,-216,0,0,0,0,0,0,0,0,0,-1,1035,1240,0,0
-182,-216,0,0,0,0,0,0,0,0,0,-1,1042,1240,0,0
-175,-216,0,0,0,0,0,0,0,0,0,-1,1049,1240,0,0
-168,-216,0,0,0,0,0,0,0,0,0,-1,1056,1240,0,0
-161,-216,0,0,0,0,0,0,0,0,0,-1,1063,1240,0,0
-154,-216,0,0,0,0,0,0,0,0,0,-1,1070,1240,0,0
-147,-216,0,0,0,0,0,0,0,0,0,-1,1077,1240,0,0
-140,-216,0,0,0,0,0,0,0,0,0,-1,1084,1240,0,0
-133,-216,0,0,0,0,0,0,0,0,0,-1,1091,1240,0,0
-126,-216,0,0,0,0,0,0,0,0,0,-1,1098,1240,0,0
-119,-216,0,0,0,0,0,0,0,0,0,-1,1105,1240,0,0
-112,-216,0,0,0,0,0,0,0,0,0,-1,1112,1240,0,0
-105,-216,0,0,0,0,0,0,0,0,0,-1,1119,1240,0,0
-98,-216,0,0,0,0,0,0,0,0,0,-1,1126,1240,0,0
-91,-216,0,0,0,0,0,0,0,0,0,-1,1133,1240,0,0
-84,-216,0,0,0,0,0,0,0,0,0,-1,1140,1240,0,0
-77,-216,0,0,0,0,0,0,0,0,0,-1,1147,1240,0,0
-70,-216,0,0,0,0,0,0,0,0,0,-1,1154,1240,0,0
-63,-216,0,0,0,0,0,0,0,0,0,-1,1161,1240,0,0
-56,-216,0,0,0,0,0,0,0,0,0,-1,1168,1240,0,0
-49,-216,0,0,0,0,0,0,0,0,0,-1,1175,1240,0,0
-42,-216,0,0,0,0,0,0,0,0,0,-1,1182,1240,0,0
-35,-216,0,0,0,0,0,0,0,0,0,-1,1189,1240,0,0
-28,-216,0,0,0,0,0,0,0,0,0,-1,1196,1240,0,0
-21,-216,0,0,0,0,0,0,0,0,0,-1,1203,1240,0,0
-14,-216,0,0,0,0,0,0,0,0,0,-1,1210,1240,0,0
-7,-216,0,0,0,0,0,0,0,0,0,-1,1217,1240,0,0
0,-216,0,0,0,0,0,0,0,0,0,-1,1224,1240,0,0
7,-216,0,0,0,0,0,0,0,0,0,-1,1231,1240,0,0
14,-216,0,0,0,0,0,0,0,0,0,-1,1238,1240,0,0
21,-216,0,0,0,0,0,0,0,0,0,-1,1245,1240,0,0
28,-216,0,0,0,0,0,0,0,0,0,-1,1252,1240,0,0
35,-216,0,0,0,0,0,0,0,0,0,-1,1259,1240,0,0
42,-216,0,0,0,0,0,0,0,0,0,-1,1266,1240,0,0
49,-216,0,0,0,0,0,0,0,0,0,-1,1273,1240,0,0
56,-216,0,0,0,0,0,0,0,0,0,-1,1280,1240,0,0
63,-216,0,0,0,0,0,0,0,0,0,-1,1287,1240,0,0
70,-216,0,0,0,0,0,0,0,0,0,-1,1294,1240,0,0
77,-216,0,0,0,0,0,0,0,0,0,-1,1301,1240,0,0
84,-216,0,0,0,0,0,0,0,0,0,-1,1308,1240,0,0
91,-216,0,0,0,0,0,0,0,0,0,-1,1315,1240,0,0
98,-216,0,0,0,0,0,0,0,0,0,-1,1322,1240,0,0
105,-216,0,0,0,0,0,0,0,0,0,-1,1329,1240,0,0
112,-216,0,0,0,0,0,0,0,0,0,-1,1336,1240,0,0
119,-216,0,0,0,0,0,0,0,0,0,-1,1343,1240,0,0
126,-216,0,0,0,0,0,0,0,0,0,-1,1350,1240,0,0
133,-216,0,0,0,0,0,0,0,0,0,-1,1357,1240,0,0
140,-216,0,0,0,0,0,0,0,0,0,-1,1364,1240,0,0
147,-216,0,0,0,0,0,0,0,0,0,-1,1371,1240,0,0
154,-216,0,0,0,0,0,0,0,0,0,-1,1378,1240,0,0
161,-216,0,0,0,0,0,0,0,0,0,-1,1385,1240,0,0
168,-216,0,0,0,0,0,0,0,0,0,-1,1392,1240,0,0
175,-216,0,0,0,0,0,0,0,0,0,-1,1399,1240,0,0
182,-216,0,0,0,0,0,0,0,0,0,-1,1406,1240,0,0
189,-216,0,0,0,0,0,0,0,0,0,-1,1413,1240,0,0
196,-216,0,0,0,0,0,0,0,0,0,-1,1420,1240,0,0
203,-216,0,0,0,0,0,0,0,0,0,-1,1427,1240,0,0
210,-216,0,0,0,0,0,0,0,0,0,-1,1434,1240,0,0
217,-216,0,0,0,0,0,0,0,0,0,-1,1441,1240,0,0
224,-216,0,0,0,0,0,0,0,0,0,-1,1448,1240,0,0
231,-216,0,0,0,0,0,0,0,0,0,-1,1455,1240,0,0
238,-216,0,0,0,0,0,0,0,0,0,-1,1462,1240,0,0
245,-216,0,0,0,0,0,0,0,0,0,-1,1469,1240,0,0
252,-216,0,0,0,0,0,0,0,0,0,-1,1476,1240,0,0
259,-216,0,0,0,0,0,0,0,0,0,-1,1483,1240,0,0
266,-216,0,0,0,0,0,0,0,0,0,-1,1490,1240,0,0
273,-216,0,0,0,0,0,0,0,0,0,-1,1497,1240,0,0
280,-216,0,0,0,0,0,0,0,0,0,-1,1504,1240,0,0
287,-216,0,0,0,0,0,0,0,0,0,-1,1511,1240,0,0
294,-216,0,0,0,0,0,0,0,0,0,-1,1518,1240,0,0
301,-216,0,0,0,0,0,0,0,0,0,-1,1525,1240,0,0
308,-216,0,0,0,0,0,0,0,0,0,-1,1532,1240,0,0
315,-216,0,0,0,0,0,0,0,0,0,-1,1539,1240,0,0
322,-216,0,0,0,0,0,0,0,0,0,-1,1546,1240,0,0
329,-216,0,0,0,0,0,0,0,0,0,-1,1553,1240,0,0
336,-216,0,0,0,0,0,0,0,0,0,-1,1560,1240,0,0
343,-216,0,0,0,0,0,0,0,0,0,-1,1567,1240,0,0
350,-216,0,0,0,0,0,0,0,0,0,-1,1574,1240,0,0
357,-216,0,0,0,0,0,0,0,0,0,-1,1581,1240,0,0
364,-216,0,0,0,0,0,0,0,0,0,-1,1588,1240,0,0
371,-216,0,0,0,0,0,0,0,0,0,-1,1595,1240,0,0
378,-216,0,0,0,0,0,0,0,0,0,-1,1602,1240,0,0
385,-216,0,0,0,0,0,0,0,0,0,-1,1609,1240,0,0
392,-216,0,0,0,0,0,0,0,0,0,-1,1616,1240,0,0
399,-216,0,0,0,0,0,0,0,0,0,-1,1623,1240,0,0
406,-216,0,0,0,0,0,0,0,0,0,-1,1630,1240,0,0
413,-216,0,0,0,0,0,0,0,0,0,-1,1637,1240,0,0
420,-216,0,0,0,0,0,0,0,0,0,-1,1644,1240,0,0
427,-216,0,0,0,0,0,0,0,0,0,-1,1651,1240,0,0
434,-216,0,0,0,0,0,0,0,0,0,-1,1658,1240,0,0
441,-216,0,0,0,0,0,0,0,0,0,-1,1665,1240,0,0
448,-216,0,0,0,0,0,0,0,0,0,-1,1672,1240,0,0
455,-216,0,0,0,0,0,0,0,0,0,-1,1679,1240,0,0
462,-216,0,0,0,0,0,0,0,0,0,-1,1686,1240,0,0
469,-216,0,0,0,0,0,0,0,0,0,-1,1693,1240,0,0
476,-216,0,0,0,0,0,0,0,0,0,-1,1700,1240,0,0
483,-216,0,0,0,0,0,0,0,0,0,-1,1707,1240,0,0
490,-216,0,0,0,0,0,0,0,0,0,-1,1714,1240,0,0
497,-216,0,0,0,0,0,0,0,0,0,-1,1721,1240,0,0
504,-216,0,0,0,0,0,0,0,0,0,-1,1728,1240,0,0
511,-216,0,0,0,0,0,0,0,0,0,-1,1735,1240,0,0
518,-216,0,0,0,0,0,0,0,0,0,-1,1742,1240,0,0
525,-216,0,0,0,0,0,0,0,0,0,-1,1749,1240,0,0
532,-216,0,0,0,0,0,0,0,0,0,-1,1756,1240,0,0
539,-216,0,0,0,0,0,0,0,0,0,-1,1763,1240,0,0
546,-216,0,0,0,0,0,0,0,0,0,-1,1770,1240,0,0
553,-216,0,0,0,0,0,0,0,0,0,-1,1777,1240,0,0
560,-216,0,0,0,0,0,0,0,0,0,-1,1784,1240,0,0
567,-216,0,0,0,0,0,0,0,0,0,-1,1791,1240,0,0
574,-216,0,0,0,0,0,0,0,0,0,-1,1798,1240,0,0
581,-216,0,0,0,0,0,0,0,0,0,-1,1805,1240,0,0
588,-216,0,0,0,0,0,0,0,0,0,-1,1812,1240,0,0
595,-216,0,0,0,0,0,0,0,0,0,-1,1819,1240,0,0
602,-216,0,0,0,0,0,0,0,0,0,-1,1826,1240,0,0
609,-216,0,0,0,0,0,0,0,0,0,-1,1833,1240,0,0
616,-216,0,0,0,0,0,0,0,0,0,-1,1840,1240,0,0
623,-216,-0.00488281,-0.0812988,-0.00221493,0.00144848,-0.00156462,0.00202575,-0.0027922,-1.21734,0.00279336,0.0347474,1847,1240,-0.00493191,0.081327
630,-216,-0.0111084,-0.15625,-0.00179117,0.00176084,-0.000675618,0.00188501,-0.00191533,-1.38904,0.00219415,0.0334459,1854,1240,-0.0110819,0.156292
637,-216,-0.0230713,-0.0880127,-0.001481,0.0027062,-0.000504213,0.00276606,-0.00154086,-1.45263,0.00251992,0.0301539,1861,1240,-0.0230617,0.0879836
644,-216,-0.0534668,-0.0805664,-0.00124743,0.00342963,-0.000555301,0.00349466,-0.00131246,-1.45423,0.00286913,0.0236088,1868,1240,-0.0534426,0.0806188
651,-216,-0.0231934,-0.0706787,-0.00105632,0.00384051,-0.0006138,0.00391627,-0.00113208,-1.44798,0.00305886,0.0184531,1875,1240,-0.0232449,0.0706224
658,-216,-0.00109863,-0.0266113,-0.000904005,0.00401821,-0.000674517,0.00410897,-0.000994764,-1.43705,0.00312415,0.0255979,1882,1240,-0.0011418,0.0265529
665,-216,-0.097168,-0.0150146,-0.000803322,0.00399249,-0.00072734,0.00410037,-0.000911204,-1.42355,0.00308254,0.0396478,1889,1240,-0.0972157,0.0149784
672,-216,0.265259,-0.318848,-0.000738637,0.00379566,-0.000700594,0.00390144,-0.000844418,-1.42094,0.00292337,0.0455943,1896,1240,0.265319,0.318821
679,-216,0.024292,-0.87146,-0.000692897,0.00347804,-0.000633846,0.00357223,-0.000787094,-1.42326,0.00268262,0.0498852,1903,1240,0.0243312,0.871475
686,-216,-0.0335693,-0.0155029,0,0,0,0,0,0,0,-1,1910,1240,-0.0336145,0.0155341
693,-216,-0.0258789,-0.0695801,-0.000678911,0.00268121,-0.00052754,0.00276209,-0.000759788,-1.41867,0.00214009,0.0320538,1917,1240,-0.0258222,0.0695974
700,-216,-0.0130615,-0.0969238,-0.000614075,0.00222816,-0.00042249,0.00228963,-0.000675548,-1.42631,0.0017945,0.0133354,1924,1240,-0.013038,0.0969805
707,-216,-0.0181885,-0.0854492,-0.000613686,0.00180677,-0.000375893,0.0018638,-0.000670718,-1.42022,0.00151639,0.013858,1931,1240,-0.0181337,0.0854343
714,-216,-0.0213623,-0.088501,-0.000591443,0.00146965,-0.000371812,0.00153467,-0.000656465,-1.39767,0.00129848,0.0132382,1938,1240,-0.021387,0.0885411
721,-216,-0.00317383,-0.0831299,-0.000622526,0.00108657,-0.00021798,0.00111394,-0.000649889,-1.44592,0.00103003,0.0130106,1945,1240,-0.0031534,0.0831399
728,-216,-0.00256348,-0.0758057,-0.000608517,0.000621532,7.17162e-05,0.0006257,-0.000612684,1.51275,0.000714994,0.0109201,1952,1240,-0.0025763,0.0758327
735,-216,0.0112305,-0.0769043,-0.000360152,-0.00015075,0.000320702,8.191e-05,-0.000592812,0.94318,0.000425149,0.00832512,1959,1240,0.0112222,0.0769102
742,-216,0.00415039,-0.0692139,4.71805e-05,-0.000665454,0.000216114,0.000107597,-0.000725871,0.272601,0.000523479,0.00839213,1966,1240,0.00419503,0.0692216
749,-216,-0.00683594,-0.0765381,0.000274983,-0.00130009,0.000108463,0.000282417,-0.00130753,0.0684312,0.000979492,0.00793502,1973,1240,-0.00689011,0.0765017
756,-216,-0.0352783,-0.0653076,0.000479485,-0.00222445,-1.40808e-05,0.000479558,-0.00222453,-0.00520734,0.00166604,0.00835924,1980,1240,-0.0352906,0.0653032
763,-216,-0.0380859,-0.0456543,0.000768874,-0.00365896,-0.000108005,0.000771507,-0.0036616,-0.0243729,0.00273475,0.0139137,1987,1240,-0.0380505,0.0456182
770,-216,0.0606689,-0.081543,0.0011251,-0.00568281,-0.000361639,0.00114426,-0.00570197,-0.0529219,0.00423458,0.0366868,1994,1240,0.0606673,0.0814932
777,-216,0.17627,-0.072998,0.00152683,-0.00840895,-0.000936122,0.00161426,-0.00849638,-0.0931253,0.00627197,0.0461811,2001,1240,0.176286,0.0729821
784,-216,-0.0162354,0.206421,0.00196462,-0.0119346,-0.00208299,0.00227008,-0.01224,-0.145604,0.00901251,0.0434618,2008,1240,-0.0162136,-0.206463
791,-216,0.146851,0.611694,0.00241843,-0.0163296,-0.00413806,0.00329115,-0.0172024,-0.207856,0.0127082,0.0394281,2015,1240,0.146817,-0.611659
798,-216,0,0,0,0,0,0,0,0,0,-1,2022,1240,0,0
805,-216,0,0,0,0,0,0,0,0,0,-1,2029,1240,0,0
812,-216,0,0,0,0,0,0,0,0,0,-1,2036,1240,0,0
-700,-223,0,0,0,0,0,0,0,0,0,-1,524,1247,0,0
-693,-223,0,0,0,0,0,0,0,0,0,-1,531,1247,0,0
-686,-223,0,0,0,0,0,0,0,0,0,-1,538,1247,0,0
-679,-223,0,0,0,0,0,0,0,0,0,-1,545,1247,0,0
-672,-223,-0.474121,-2.50806,0,0,0,0,0,0,0,-1,552,1247,-0.474103,2.50803
-665,-223,-0.647339,-2.52832,0,0,0,0,0,0,0,-1,559,1247,-0.647357,2.52828
-658,-223,-1.42792,-0.772827,0,0,0,0,0,0,0,-1,566,1247,-1.42795,0.772838
-651,-223,-2.37701,-0.737671,0,0,0,0,0,0,0,-1,573,1247,-2.37704,0.737622
-644,-223,-1.61365,-0.36853,0.00201051,0.0130807,0.00157765,0.0133012,0.00179007,1.43196,0.00833507,0.0423288,580,1247,-1.61363,0.368488
-637,-223,-0.913147,-0.507935,0.00359742,0.00828044,0.0012974,0.00861585,0.00326201,1.31781,0.005023,0.0431111,587,1247,-0.913143,0.507897
-630,-223,-0.362488,-0.451294,0.00448922,0.00496617,0.000994012,0.00574991,0.00370548,0.90313,0.00336557,0.0351805,594,1247,-0.362513,0.451269
-623,-223,-0.0633545,-0.116821,0.00495231,0.00210054,0.000765545,0.00514482,0.00190803,0.246362,0.0030032,0.0200258,601,1247,-0.0633439,0.116812
-616,-223,-0.0526733,-0.0727539,0.00468555,0.000118004,0.000615172,0.00476695,3.66017e-05,0.131561,0.00316584,0.0163471,608,1247,-0.0526898,0.0727995
-609,-223,-0.0330811,-0.0797119,0.0039063,-0.000188491,0.000352218,0.00393637,-0.000218567,0.0851825,0.00270005,0.0125126,615,1247,-0.0331006,0.0797494
-602,-223,-0.0380859,-0.098999,0.00386233,-0.000710022,0.000292413,0.00388096,-0.000728646,0.0636069,0.00286128,0.014127,622,1247,-0.0380913,0.0989702
-595,-223,0.000305176,-0.092041,0.00379864,-0.000460266,-5.75233e-05,0.00379942,-0.000461043,-0.0135033,0.00269978,0.0200654,629,1247,0.000329578,0.0920421
-588,-223,0.0020752,-0.0638428,0.00316419,-0.000649436,-0.000206828,0.00317538,-0.00066062,-0.0540228,0.00236804,0.0225185,636,1247,0.00210462,0.0638428
-581,-223,-0.0124512,-0.0511475,0.00233361,-0.000787322,-0.000245437,0.0023528,-0.000806506,-0.0780031,0.00189545,0.0207465,643,1247,-0.0124377,0.0512018
-574,-223,-0.00354004,-0.0924072,0.00171426,-0.00093685,-4.16244e-05,0.00171492,-0.000937503,-0.0156956,0.00155315,0.0175343,650,1247,-0.00356333,0.0923933
-567,-223,-0.020752,-0.0871582,0.00164102,-0.00127915,0.000117355,0.00164573,-0.00128386,0.0401013,0.00169569,0.0212392,657,1247,-0.020756,0.087182
-560,-223,-0.0109253,-0.0133057,0.00154615,-0.00155888,0.000184063,0.00155702,-0.00156976,0.0590037,0.00180525,0.0321464,664,1247,-0.0109541,0.0133438
-553,-223,0.156799,-0.16626,0.00125535,-0.00193396,0.000438156,0.00131445,-0.00199306,0.134074,0.00192294,0.0431143,671,1247,0.156799,0.16627
-546,-223,0.379456,-0.678711,0.000863508,-0.00220865,0.000654505,0.000997134,-0.00234228,0.201396,0.00197946,0.0425565,678,1247,0.379429,0.678694
-539,-223,0.436157,-0.949951,0.000403066,-0.00230712,0.000836488,0.000640452,-0.0025445,0.276519,0.00194528,0.0399001,685,1247,0.436141,0.949959
-532,-223,0.381042,-0.602661,-0.000121781,-0.00228157,0.00101759,0.000282124,-0.00268548,0.377851,0.00189139,0.0426694,692,1247,0.38103,0.602687
-525,-223,0.100159,-0.294067,-0.000597894,-0.00197477,0.00104576,-3.43096e-05,-0.00253836,0.494299,0.00168092,0.042173,699,1247,0.100168,0.294068
-518,-223,-0.00390625,-0.136597,-0.000925108,-0.00125882,0.000763732,-0.000310218,-0.00187371,0.677851,0.00115965,0.0370771,706,1247,-0.00389098,0.136644
-511,-223,-0.0576782,-0.0235596,-0.000878644,1.64067e-05,1.61631e-05,1.66985e-05,-0.000878936,1.55275,0.000591602,0.038912,713,1247,-0.0576899,0.0235346
-504,-223,-0.0310669,-0.0251465,-2.85758e-05,0.00211564,-0.00139129,0.00279998,-0.000712915,-1.11367,0.00214417,0.0408887,720,1247,-0.031055,0.0251988
-497,-223,0,0,0,0,0,0,0,0,0,-1,727,1247,0,0
-490,-223,0,0,0,0,0,0,0,0,0,-1,734,1247,0,0
-483,-223,0,0,0,0,0,0,0,0,0,-1,741,1247,0,0
-476,-223,0,0,0,0,0,0,0,0,0,-1,748,1247,0,0
-469,-223,0,0,0,0,0,0,0,0,0,-1,755,1247,0,0
-462,-223,0,0,0,0,0,0,0,0,0,-1,762,1247,0,0
-455,-223,0,0,0,0,0,0,0,0,0,-1,769,1247,0,0
-448,-223,0,0,0,0,0,0,0,0,0,-1,776,1247,0,0
-441,-223,0,0,0,0,0,0,0,0,0,-1,783,1247,0,0
-434,-223,0,0,0,0,0,0,0,0,0,-1,790,1247,0,0
-427,-223,0,0,0,0,0,0,0,0,0,-1,797,1247,0,0
-420,-223,0,0,0,0,0,0,0,0,0,-1,804,1247,0,0
-413,-223,0,0,0,0,0,0,0,0,0,-1,811,1247,0,0
-406,-223,0,0,0,0,0,0,0,0,0,-1,818,1247,0,0
-399,-223,0,0,0,0,0,0,0,0,0,-1,825,1247,0,0
-392,-223,0,0,0,0,0,0,0,0,0,-1,832,1247,0,0
-385,-223,0,0,0,0,0,0,0,0,0,-1,839,1247,0,0
-378,-223,0,0,0,0,0,0,0,0,0,-1,846,1247,0,0
-371,-223,0,0,0,0,0,0,0,0,0,-1,853,1247,0,0
-364,-223,0,0,0,0,0,0,0,0,0,-1,860,1247,0,0
-357,-223,0,0,0,0,0,0,0,0,0,-1,867,1247,0,0
-350,-223,0,0,0,0,0,0,0,0,0,-1,874,1247,0,0
-343,-223,0,0,0,0,0,0,0,0,0,-1,881,1247,0,0
-336,-223,0,0,0,0,0,0,0,0,0,-1,888,1247,0,0
-329,-223,0,0,0,0,0,0,0,0,0,-1,895,1247,0,0
-322,-223,0,0,0,0,0,0,0,0,0,-1,902,1247,0,0
-315,-223,0,0,0,0,0,0,0,0,0,-1,909,1247,0,0
-308,-223,0,0,0,0,0,0,0,0,0,-1,916,1247,0,0
-301,-223,0,0,0,0,0,0,0,0,0,-1,923,1247,0,0
-294,-223,0,0,0,0,0,0,0,0,0,-1,930,1247,0,0
-287,-223,0,0,0,0,0,0,0,0,0,-1,937,1247,0,0
-280,-223,0,0,0,0,0,0,0,0,0,-1,944,1247,0,0
-273,-223,0,0,0,0,0,0,0,0,0,-1,951,1247,0,0
-266,-223,0,0,0,0,0,0,0,0,0,-1,958,1247,0,0
-259,-223,0,0,0,0,0,0,0,0,0,-1,965,1247,0,0
-252,-223,0,0,0,0,0,0,0,0,0,-1,972,1247,0,0
-245,-223,0,0,0,0,0,0,0,0,0,-1,979,1247,0,0
-238,-223,0,0,0,0,0,0,0,0,0,-1,986,1247,0,0
-231,-223,0,0,0,0,0,0,0,0,0,-1,993,1247,0,0
-224,-223,0,0,0,0,0,0,0,0,0,-1,1000,1247,0,0
-217,-223,0,0,0,0,0,0,0,0,0,-1,1007,1247,0,0
-210,-223,0,0,0,0,0,0,0,0,0,-1,1014,1247,0,0
-203,-223,0,0,0,0,0,0,0,0,0,-1,1021,1247,0,0
-196,-223,0,0,0,0,0,0,0,0,0,-1,1028,1247,0,0
-189,-223,0,0,0,0,0,0,0,0,0,-1,1035,1247,0,0
-182,-223,0,0,0,0,0,0,0,0,0,-1,1042,1247,0,0
-175,-223,0,0,0,0,0,0,0,0,0,-1,1049,1247,0,0
-168,-223,0,0,0,0,0,0,0,0,0,-1,1056,1247,0,0
-161,-223,0,0,0,0,0,0,0,0,0,-1,1063,1247,0,0
-154,-223,0,0,0,0,0,0,0,0,0,-1,1070,1247,0,0
-147,-223,0,0,0,0,0,0,0,0,0,-1,1077,1247,0,0
-140,-223,0,0,0,0,0,0,0,0,0,-1,1084,1247,0,0
-133,-223,0,0,0,0,0,0,0,0,0,-1,1091,1247,0,0
-126,-223,0,0,0,0,0,0,0,0,0,-1,1098,1247,0,0
-119,-223,0,0,0,0,0,0,0,0,0,-1,1105,1247,0,0
-112,-223,0,0,0,0,0,0,0,0,0,-1,1112,1247,0,0
-105,-223,0,0,0,0,0,0,0,0,0,-1,1119,1247,0,0
-98,-223,0,0,0,0,0,0,0,0,0,-1,1126,1247,0,0
-91,-223,0,0,0,0,0,0,0,0,0,-1,1133,1247,0,0
-84,-223,0,0,0,0,0,0,0,0,0,-1,1140,1247,0,0
-77,-223,0,0,0,0,0,0,0,0,0,-1,1147,1247,0,0
-70,-223,0,0,0,0,0,0,0,0,0,-1,1154,1247,0,0
-63,-223,0,0,0,0,0,0,0,0,0,-1,1161,1247,0,0
-56,-223,0,0,0,0,0,0,0,0,0,-1,1168,1247,0,0
-49,-223,0,0,0,0,0,0,0,0,0,-1,1175,1247,0,0
-42,-223,0,0,0,0,0,0,0,0,0,-1,1182,1247,0,0
-35,-223,0,0,0,0,0,0,0,0,0,-1,1189,1247,0,0
-28,-223,0,0,0,0,0,0,0,0,0,-1,1196,1247,0,0
-21,-223,0,0,0,0,0,0,0,0,0,-1,1203,1247,0,0
-14,-223,0,0,0,0,0,0,0,0,0,-1,1210,1247,0,0
-7,-223,0,0,0,0,0,0,0,0,0,-1,1217,1247,0,0
0,-223,0,0,0,0,0,0,0,0,0,-1,1224,1247,0,0
7,-223,0,0,0,0,0,0,0,0,0,-1,1231,1247,0,0
14,-223,0,0,0,0,0,0,0,0,0,-1,1238,1247,0,0
21,-223,0,0,0,0,0,0,0,0,0,-1,1245,1247,0,0
28,-223,0,0,0,0,0,0,0,0,0,-1,1252,1247,0,0
35,-223,0,0,0,0,0,0,0,0,0,-1,1259,1247,0,0
42,-223,0,0,0,0,0,0,0,0,0,-1,1266,1247,0,0
49,-223,0,0,0,0,0,0,0,0,0,-1,1273,1247,0,0
56,-223,0,0,0,0,0,0,0,0,0,-1,1280,1247,0,0
63,-223,0,0,0,0,0,0,0,0,0,-1,1287,1247,0,0
70,-223,0,0,0,0,0,0,0,0,0,-1,1294,1247,0,0
77,-223,0,0,0,0,0,0,0,0,0,-1,1301,1247,0,0
84,-223,0,0,0,0,0,0,0,0,0,-1,1308,1247,0,0
91,-223,0,0,0,0,0,0,0,0,0,-1,1315,1247,0,0
98,-223,0,0,0,0,0,0,0,0,0,-1,1322,1247,0,0
105,-223,0,0,0,0,0,0,0,0,0,-1,1329,1247,0,0
112,-223,0,0,0,0,0,0,0,0,0,-1,1336,1247,0,0
119,-223,0,0,0,0,0,0,0,0,0,-1,1343,1247,0,0
126,-223,0,0,0,0,0,0,0,0,0,-1,1350,1247,0,0
133,-223,0,0,0,0,0,0,0,0,0,-1,1357,1247,0,0
140,-223,0,0,0,0,0,0,0,0,0,-1,1364,1247,0,0
147,-223,0,0,0,0,0,0,0,0,0,-1,1371,1247,0,0
154,-223,0,0,0,0,0,0,0,0,0,-1,1378,1247,0,0
161,-223,0,0,0,0,0,0,0,0,0,-1,1385,1247,0,0
168,-223,0,0,0,0,0,0,0,0,0,-1,1392,1247,0,0
175,-223,0,0,0,0,0,0,0,0,0,-1,1399,1247,0,0
182,-223,0,0,0,0,0,0,0,0,0,-1,1406,1247,0,0
189,-223,0,0,0,0,0,0,0,0,0,-1,1413,1247,0,0
196,-223,0,0,0,0,0,0,0,0,0,-1,1420,1247,0,0
203,-223,0,0,0,0,0,0,0,0,0,-1,1427,1247,0,0
210,-223,0,0,0,0,0,0,0,0,0,-1,1434,1247,0,0
217,-223,0,0,0,0,0,0,0,0,0,-1,1441,1247,0,0
224,-223,0,0,0,0,0,0,0,0,0,-1,1448,1247,0,0
231,-223,0,0,0,0,0,0,0,0,0,-1,1455,1247,0,0
238,-223,0,0,0,0,0,0,0,0,0,-1,1462,1247,0,0
245,-223,0,0,0,0,0,0,0,0,0,-1,1469,1247,0,0
252,-223,0,0,0,0,0,0,0,0,0,-1,1476,1247,0,0
259,-223,0,0,0,0,0,0,0,0,0,-1,1483,1247,0,0
266,-223,0,0,0,0,0,0,0,0,0,-1,1490,1247,0,0
273,-223,0,0,0,0,0,0,0,0,0,-1,1497,1247,0,0
280,-223,0,0,0,0,0,0,0,0,0,-1,1504,1247,0,0
287,-223,0,0,0,0,0,0,0,0,0,-1,1511,1247,0,0
294,-223,0,0,0,0,0,0,0,0,0,-1,1518,1247,0,0
301,-223,0,0,0,0,0,0,0,0,0,-1,1525,1247,0,0
308,-223,0,0,0,0,0,0,0,0,0,-1,1532,1247,0,0
315,-223,0,0,0,0,0,0,0,0,0,-1,1539,1247,0,0
322,-223,0,0,0,0,0,0,0,0,0,-1,1546,1247,0,0
329,-223,0,0,0,0,0,0,0,0,0,-1,1553,1247,0,0
336,-223,0,0,0,0,0,0,0,0,0,-1,1560,1247,0,0
343,-223,0,0,0,0,0,0,0,0,0,-1,1567,1247,0,0
350,-223,0,0,0,0,0,0,0,0,0,-1,1574,1247,0,0
357,-223,0,0,0,0,0,0,0,0,0,-1,1581,1247,0,0
364,-223,0,0,0,0,0,0,0,0,0,-1,1588,1247,0,0
371,-223,0,0,0,0,0,0,0,0,0,-1,1595,1247,0,0
378,-223,0,0,0,0,0,0,0,0,0,-1,1602,1247,0,0
385,-223,0,0,0,0,0,0,0,0,0,-1,1609,1247,0,0
392,-223,0,0,0,0,0,0,0,0,0,-1,1616,1247,0,0
399,-223,0,0,0,0,0,0,0,0,0,-1,1623,1247,0,0
406,-223,0,0,0,0,0,0,0,0,0,-1,1630,1247,0,0
413,-223,0,0,0,0,0,0,0,0,0,-1,1637,1247,0,0
420,-223,0,0,0,0,0,0,0,0,0,-1,1644,1247,0,0
427,-223,0,0,0,0,0,0,0,0,0,-1,1651,1247,0,0
434,-223,0,0,0,0,0,0,0,0,0,-1,1658,1247,0,0
441,-223,0,0,0,0,0,0,0,0,0,-1,1665,1247,0,0
448,-223,0,0,0,0,0,0,0,0,0,-1,1672,1247,0,0
455,-223,0,0,0,0,0,0,0,0,0,-1,1679,1247,0,0
462,-223,0,0,0,0,0,0,0,0,0,-1,1686,1247,0,0
469,-223,0,0,0,0,0,0,0,0,0,-1,1693,1247,0,0
476,-223,0,0,0,0,0,0,0,0,0,-1,1700,1247,0,0
483,-223,0,0,0,0,0,0,0,0,0,-1,1707,1247,0,0
490,-223,0,0,0,0,0,0,0,0,0,-1,1714,1247,0,0
497,-223,0,0,0,0,0,0,0,0,0,-1,1721,1247,0,0
504,-223,0,0,0,0,0,0,0,0,0,-1,1728,1247,0,0
511,-223,0,0,0,0,0,0,0,0,0,-1,1735,1247,0,0
518,-223,0,0,0,0,0,0,0,0,0,-1,1742,1247,0,0
525,-223,0,0,0,0,0,0,0,0,0,-1,1749,1247,0,0
532,-223,0,0,0,0,0,0,0,0,0,-1,1756,1247,0,0
539,-223,0,0,0,0,0,0,0,0,0,-1,1763,1247,0,0
546,-223,0,0,0,0,0,0,0,0,0,-1,1770,1247,0,0
553,-223,0,0,0,0,0,0,0,0,0,-1,1777,1247,0,0
560,-223,0,0,0,0,0,0,0,0,0,-1,1784,1247,0,0
567,-223,0,0,0,0,0,0,0,0,0,-1,1791,1247,0,0
574,-223,0,0,0,0,0,0,0,0,0,-1,1798,1247,0,0
581,-223,0,0,0,0,0,0,0,0,0,-1,1805,1247,0,0
588,-223,0,0,0,0,0,0,0,0,0,-1,1812,1247,0,0
595,-223,0,0,0,0,0,0,0,0,0,-1,1819,1247,0,0
602,-223,0,0,0,0,0,0,0,0,0,-1,1826,1247,0,0
609,-223,0,0,0,0,0,0,0,0,0,-1,1833,1247,0,0
616,-223,0,0,0,0,0,0,0,0,0,-1,1840,1247,0,0
623,-223,-0.0570068,-0.088501,-0.00225593,0.00232537,-0.00141633,0.00272788,-0.00265843,-1.29391,0.00310987,0.0343274,1847,1247,-0.0570264,0.0885412
630,-223,-0.0809326,-0.165771,-0.00209266,0.00251606,-0.000584532,0.00258904,-0.00216564,-1.44658,0.00274874,0.0318933,1854,1247,-0.0809226,0.165816
637,-223,-0.050415,-0.144409,-0.00195186,0.00312293,-0.000327057,0.00314392,-0.00197285,-1.5067,0.00297985,0.0272393,1861,1247,-0.050358,0.144431
644,-223,-0.0544434,-0.112915,-0.0018128,0.00353664,-0.000289003,0.0035522,-0.00182837,-1.51698,0.00315917,0.0194886,1868,1247,-0.0544778,0.112867
651,-223,-0.0577393,-0.0770264,-0.00163327,0.00370861,-0.000308095,0.00372632,-0.00165098,-1.51337,0.00318073,0.0198718,1875,1247,-0.0577834,0.0770097
658,-223,-0.0408936,-0.0297852,-0.001436,0.00372803,-0.000363598,0.0037535,-0.00146148,-1.50085,0.00310629,0.0355781,1882,1247,-0.0409531,0.0297524
665,-223,-0.0427246,-0.0012207,-0.00127086,0.00360346,-0.000436866,0.00364231,-0.00130971,-1.48211,0.00296289,0.0424232,1889,1247,-0.0427316,0.00124555
672,-223,-0.0544434,0.0534668,0,0,0,0,0,0,0,-1,1896,1247,-0.0543903,-0.0534817
679,-223,-0.0455322,-0.11731,0,0,0,0,0,0,0,-1,1903,1247,-0.0455869,0.1173
686,-223,-0.0407715,-0.104126,-0.000983501,0.00263518,-0.000449601,0.0026902,-0.00103852,-1.44902,0.00222207,0.0442327,1910,1247,-0.040716,0.104142
693,-223,-0.0330811,-0.0893555,-0.000859243,0.00221115,-0.000413291,0.00226581,-0.000913901,-1.43931,0.00189031,0.0206295,1917,1247,-0.0331135,0.0894113
700,-223,-0.0306396,-0.097168,-0.000701085,0.00181332,-0.000376736,0.00186856,-0.000756318,-1.42522,0.00156016,0.00993853,1924,1247,-0.0306087,0.0972117
707,-223,-0.0145264,-0.0849609,-0.000652202,0.00146409,-0.000400094,0.00153721,-0.000725316,-1.39005,0.00133401,0.0119166,1931,1247,-0.014514,0.0849076
714,-223,-0.00695801,-0.0823975,-0.000620281,0.00118439,-0.000458418,0.00129416,-0.00073005,-1.33577,0.00118371,0.010837,1938,1247,-0.00700172,0.0824107
721,-223,-0.00622559,-0.0839844,-0.000651147,0.000891563,-0.000346268,0.00096572,-0.000725303,-1.35982,0.000979596,0.0139436,1945,1247,-0.00620179,0.0840424
728,-223,-0.0266113,-0.074585,-0.000666743,0.000558273,-0.000164391,0.00057995,-0.00068842,-1.43969,0.000733186,0.0144815,1952,1247,-0.026615,0.0745615
735,-223,-0.0183105,-0.065918,-0.000462504,-0.000125249,-7.305e-05,-0.000110107,-0.000477647,-1.3664,0.000288812,0.0102664,1959,1247,-0.0182822,0.0658902
742,-223,-0.0140381,-0.06604,-0.000106648,-0.000608378,-0.000349028,7.23172e-05,-0.000787343,-0.473797,0.000550587,0.00881714,1966,1247,-0.0140889,0.0660638
749,-223,-0.0183105,-0.0731201,0.000117275,-0.00122634,-0.000563203,0.000322122,-0.00143119,-0.348843,0.00107767,0.00926289,1973,1247,-0.0183137,0.0731378
756,-223,-0.0322266,-0.0673828,0.000371922,-0.00225503,-0.00078595,0.000589112,-0.00247222,-0.269612,0.00187561,0.0101286,1980,1247,-0.0322552,0.0674096
763,-223,-0.0108643,-0.052124,0.000744848,-0.00387259,-0.0010572,0.000975393,-0.00410313,-0.214709,0.00311193,0.0129001,1987,1247,-0.0108585,0.0521162
770,-223,0.0131836,-0.0546875,0.00128158,-0.00622695,-0.00149224,0.00156727,-0.00651265,-0.189165,0.00494764,0.0343937,1994,1247,0.0132443,0.054718
777,-223,0.0490723,-0.0289307,0.0020042,-0.00950109,-0.00220703,0.00241304,-0.00990993,-0.183168,0.00754078,0.0491982,2001,1247,0.0490807,0.028934
784,-223,0.25,0.383057,0.00298647,-0.0138934,-0.00338145,0.00363865,-0.0145456,-0.190533,0.0111104,0.0481798,2008,1247,0.250039,-0.38309
791,-223,0.386719,0.464111,0.0043588,-0.0196357,-0.00519448,0.00543506,-0.020712,-0.204302,0.0159318,0.0463177,2015,1247,0.386669,-0.464141
798,-223,0,0,0,0,0,0,0,0,0,-1,2022,1247,0,0
805,-223,0,0,0,0,0,0,0,0,0,-1,2029,1247,0,0
812,-223,0,0,0,0,0,0,0,0,0,-1,2036,1247,0,0
-700,-230,0,0,0,0,0,0,0,0,0,-1,524,1254,0,0
-693,-230,0,0,0,0,0,0,0,0,0,-1,531,1254,0,0
-686,-230,0,0,0,0,0,0,0,0,0,-1,538,1254,0,0
-679,-230,0,0,0,0,0,0,0,0,0,-1,545,1254,0,0
-672,-230,-0.242798,-3.3877,0,0,0,0,0,0,0,-1,552,1254,-0.242826,3.38766
-665,-230,-0.752441,-0.599487,0,0,0,0,0,0,0,-1,559,1254,-0.752421,0.599466
-658,-230,-0.805115,-0.484985,-0.00359621,0.0255094,0.00338252,0.0258974,-0.00398414,1.45661,0.0187347,0.0454792,566,1254,-0.805121,0.484951
-651,-230,-0.900696,-0.497803,-0.000357093,0.0174321,0.00253017,0.017785,-0.000709961,1.43223,0.0121002,0.0417346,573,1254,-0.900667,0.497796
-644,-230,-0.794617,-0.516968,0.00189987,0.0114733,0.00189581,0.0118351,0.00153812,1.38225,0.0074306,0.0403686,580,1254,-0.79459,0.516969
-637,-230,-0.810608,-0.543213,0.00330133,0.00724709,0.0014176,0.00770358,0.00284483,1.25926,0.00449804,0.0442153,587,1254,-0.810592,0.543199
-630,-230,0.0600586,0.507813,0.00404282,0.00440242,0.0010162,0.00525461,0.00319063,0.872958,0.00305691,0.039954,594,1254,0.0600532,-0.507857
-623,-230,-0.0743408,-0.0350342,0.00443833,0.00194527,0.000740935,0.00464191,0.00174169,0.268146,0.00270769,0.0255838,601,1254,-0.0743606,0.035036
-616,-230,-0.0527344,-0.0695801,0.00425684,0.000308984,0.000542587,0.00433005,0.000235769,0.134126,0.00281141,0.0160722,608,1254,-0.0527447,0.0696
-609,-230,-0.0305786,-0.0877686,0.00355009,0.000138287,0.000218262,0.003564,0.000124381,0.063627,0.00233564,0.0118554,615,1254,-0.0305667,0.0877523
-602,-230,-0.0350342,-0.0806885,0.0035883,-0.00033443,0.00014859,0.00359392,-0.00034005,0.0378071,0.00251696,0.0111784,622,1254,-0.0350486,0.0806424
-595,-230,-0.015625,-0.0626221,0.00367401,-0.000203704,-0.000113741,0.00367735,-0.000207037,-0.0292982,0.00252341,0.0188049,629,1254,-0.0156452,0.0626617
-588,-230,-0.0098877,-0.0559082,0.00317143,-0.000518611,-0.000199446,0.00318218,-0.00052936,-0.0538406,0.00231814,0.0248192,636,1254,-0.009918,0.0558954
-581,-230,-0.0455933,-0.0550537,0.00240368,-0.000862849,-0.000225787,0.00241921,-0.000878382,-0.0686859,0.00197193,0.0224516,643,1254,-0.0456034,0.0550988
-574,-230,-0.0255737,-0.0749512,0.00179446,-0.00133987,1.87791e-06,0.00179446,-0.00133987,0.000599142,0.00181594,0.0164885,650,1254,-0.0255856,0.0749775
-567,-230,-0.00897217,-0.110962,0.00169386,-0.00198643,0.000154871,0.00170037,-0.00199293,0.0419824,0.00213456,0.0172589,657,1254,-0.00896128,0.110923
-560,-230,0.0267334,-0.12793,0.00156169,-0.00281933,0.000271331,0.00157843,-0.00283607,0.0616195,0.00258296,0.028449,664,1254,0.0267348,0.127925
-553,-230,0.0576172,-0.12915,0.00127414,-0.00362467,0.000544158,0.00133386,-0.00368439,0.109304,0.00300136,0.0437579,671,1254,0.0576205,0.129142
-546,-230,0.265747,-0.340698,0.000917019,-0.00436535,0.000768581,0.00102658,-0.00447491,0.141589,0.00337787,0.0444528,678,1254,0.265766,0.340688
-539,-230,0.428406,-0.658691,0.000472869,-0.00501146,0.000988476,0.000645589,-0.00518418,0.172987,0.00369019,0.0424628,685,1254,0.428424,0.65869
-532,-230,0.476929,-0.603271,-8.49254e-05,-0.00552023,0.00124024,0.000184702,-0.00578986,0.214068,0.00392292,0.0459795,692,1254,0.476957,0.603238
-525,-230,0.076355,-0.357178,-0.00061607,-0.00572895,0.00137407,-0.000270189,-0.00607483,0.246596,0.00396289,0.0459555,699,1254,0.0763337,0.357167
-518,-230,0.0162354,-0.185913,-0.00106295,-0.00536336,0.0012719,-0.000714931,-0.00571138,0.267083,0.00359306,0.0389585,706,1254,0.0162278,0.185932
-511,-230,0.0020752,-0.123047,-0.00126609,-0.00411032,0.000806908,-0.00105312,-0.00432329,0.258052,0.00260316,0.0404502,713,1254,0.0021052,0.123085
-504,-230,0.0100708,-0.0687256,-0.000917549,-0.00145714,-0.000160205,-0.000873568,-0.00150112,-0.267925,0.000870542,0.0383257,720,1254,0.0100944,0.0687668
-497,-230,0,0,0,0,0,0,0,0,0,-1,727,1254,0,0
-490,-230,0,0,0,0,0,0,0,0,0,-1,734,1254,0,0
-483,-230,0,0,0,0,0,0,0,0,0,-1,741,1254,0,0
-476,-230,0,0,0,0,0,0,0,0,0,-1,748,1254,0,0
-469,-230,0,0,0,0,0,0,0,0,0,-1,755,1254,0,0
-462,-230,0,0,0,0,0,0,0,0,0,-1,762,1254,0,0
-455,-230,0,0,0,0,0,0,0,0,0,-1,769,1254,0,0
-448,-230,0,0,0,0,0,0,0,0,0,-1,776,1254,0,0
-441,-230,0,0,0,0,0,0,0,0,0,-1,783,1254,0,0
-434,-230,0,0,0,0,0,0,0,0,0,-1,790,1254,0,0
-427,-230,0,0,0,0,0,0,0,0,0,-1,797,1254,0,0
-420,-230,0,0,0,0,0,0,0,0,0,-1,804,1254,0,0
-413,-230,0,0,0,0,0,0,0,0,0,-1,811,1254,0,0
-406,-230,0,0,0,0,0,0,0,0,0,-1,818,1254,0,0
-399,-230,0,0,0,0,0,0,0,0,0,-1,825,1254,0,0
-392,-230,0,0,0,0,0,0,0,0,0,-1,832,1254,0,0
-385,-230,0,0,0,0,0,0,0,0,0,-1,839,1254,0,0
-378,-230,0,0,0,0,0,0,0,0,0,-1,846,1254,0,0
-371,-230,0,0,0,0,0,0,0,0,0,-1,853,1254,0,0
-364,-230,0,0,0,0,0,0,0,0,0,-1,860,1254,0,0
-357,-230,0,0,0,0,0,0,0,0,0,-1,867,1254,0,0
-350,-230,0,0,0,0,0,0,0,0,0,-1,874,1254,0,0
-343,-230,0,0,0,0,0,0,0,0,0,-1,881,1254,0,0
-336,-230,0,0,0,0,0,0,0,0,0,-1,888,1254,0,0
-329,-230,0,0,0,0,0,0,0,0,0,-1,895,1254,0,0
-322,-230,0,0,0,0,0,0,0,0,0,-1,902,1254,0,0
-315,-230,0,0,0,0,0,0,0,0,0,-1,909,1254,0,0
-308,-230,0,0,0,0,0,0,0,0,0,-1,916,1254,0,0
-301,-230,0,0,0,0,0,0,0,0,0,-1,923,1254,0,0
-294,-230,0,0,0,0,0,0,0,0,0,-1,930,1254,0,0
-287,-230,0,0,0,0,0,0,0,0,0,-1,937,1254,0,0
-280,-230,0,0,0,0,0,0,0,0,0,-1,944,1254,0,0
-273,-230,0,0,0,0,0,0,0,0,0,-1,951,1254,0,0
-266,-230,0,0,0,0,0,0,0,0,0,-1,958,1254,0,0
-259,-230,0,0,0,0,0,0,0,0,0,-1,965,1254,0,0
-252,-230,0,0,0,0,0,0,0,0,0,-1,972,1254,0,0
-245,-230,0,0,0,0,0,0,0,0,0,-1,979,1254,0,0
-238,-230,0,0,0,0,0,0,0,0,0,-1,986,1254,0,0
-231,-230,0,0,0,0,0,0,0,0,0,-1,993,1254,0,0
-224,-230,0,0,0,0,0,0,0,0,0,-1,1000,1254,0,0
-217,-230,0,0,0,0,0,0,0,0,0,-1,1007,1254,0,0
-210,-230,0,0,0,0,0,0,0,0,0,-1,1014,1254,0,0
-203,-230,0,0,0,0,0,0,0,0,0,-1,1021,1254,0,0
-196,-230,0,0,0,0,0,0,0,0,0,-1,1028,1254,0,0
-189,-230,0,0,0,0,0,0,0,0,0,-1,1035,1254,0,0
-182,-230,0,0,0,0,0,0,0,0,0,-1,1042,1254,0,0
-175,-230,0,0,0,0,0,0,0,0,0,-1,1049,1254,0,0
-168,-230,0,0,0,0,0,0,0,0,0,-1,1056,1254,0,0
-161,-230,0,0,0,0,0,0,0,0,0,-1,1063,1254,0,0
-154,-230,0,0,0,0,0,0,0,0,0,-1,1070,1254,0,0
-147,-230,0,0,0,0,0,0,0,0,0,-1,1077,1254,0,0
-140,-230,0,0,0,0,0,0,0,0,0,-1,1084,1254,0,0
-133,-230,0,0,0,0,0,0,0,0,0,-1,1091,1254,0,0
-126,-230,0,0,0,0,0,0,0,0,0,-1,1098,1254,0,0
-119,-230,0,0,0,0,0,0,0,0,0,-1,1105,1254,0,0
-112,-230,0,0,0,0,0,0,0,0,0,-1,1112,1254,0,0
-105,-230,0,0,0,0,0,0,0,0,0,-1,1119,1254,0,0
-98,-230,0,0,0,0,0,0,0,0,0,-1,1126,1254,0,0
-91,-230,0,0,0,0,0,0,0,0,0,-1,1133,1254,0,0
-84,-230,0,0,0,0,0,0,0,0,0,-1,1140,1254,0,0
-77,-230,0,0,0,0,0,0,0,0,0,-1,1147,1254,0,0
-70,-230,0,0,0,0,0,0,0,0,0,-1,1154,1254,0,0
-63,-230,0,0,0,0,0,0,0,0,0,-1,1161,1254,0,0
-56,-230,0,0,0,0,0,0,0,0,0,-1,1168,1254,0,0
-49,-230,0,0,0,0,0,0,0,0,0,-1,1175,1254,0,0
-42,-230,0,0,0,0,0,0,0,0,0,-1,1182,1254,0,0
-35,-230,0,0,0,0,0,0,0,0,0,-1,1189,1254,0,0
-28,-230,0,0,0,0,0,0,0,0,0,-1,1196,1254,0,0
-21,-230,0,0,0,0,0,0,0,0,0,-1,1203,1254,0,0
-14,-230,0,0,0,0,0,0,0,0,0,-1,1210,1254,0,0
-7,-230,0,0,0,0,0,0,0,0,0,-1,1217,1254,0,0
0,-230,0,0,0,0,0,0,0,0,0,-1,1224,1254,0,0
7,-230,0,0,0,0,0,0,0,0,0,-1,1231,1254,0,0
14,-230,0,0,0,0,0,0,0,0,0,-1,1238,1254,0,0
21,-230,0,0,0,0,0,0,0,0,0,-1,1245,1254,0,0
28,-230,0,0,0,0,0,0,0,0,0,-1,1252,1254,0,0
35,-230,0,0,0,0,0,0,0,0,0,-1,1259,1254,0,0
42,-230,0,0,0,0,0,0,0,0,0,-1,1266,1254,0,0
49,-230,0,0,0,0,0,0,0,0,0,-1,1273,1254,0,0
56,-230,0,0,0,0,0,0,0,0,0,-1,1280,1254,0,0
63,-230,0,0,0,0,0,0,0,0,0,-1,1287,1254,0,0
70,-230,0,0,0,0,0,0,0,0,0,-1,1294,1254,0,0
77,-230,0,0,0,0,0,0,0,0,0,-1,1301,1254,0,0
84,-230,0,0,0,0,0,0,0,0,0,-1,1308,1254,0,0
91,-230,0,0,0,0,0,0,0,0,0,-1,1315,1254,0,0
98,-230,0,0,0,0,0,0,0,0,0,-1,1322,1254,0,0
105,-230,0,0,0,0,0,0,0,0,0,-1,1329,1254,0,0
112,-230,0,0,0,0,0,0,0,0,0,-1,1336,1254,0,0
119,-230,0,0,0,0,0,0,0,0,0,-1,1343,1254,0,0
126,-230,0,0,0,0,0,0,0,0,0,-1,1350,1254,0,0
133,-230,0,0,0,0,0,0,0,0,0,-1,1357,1254,0,0
140,-230,0,0,0,0,0,0,0,0,0,-1,1364,1254,0,0
147,-230,0,0,0,0,0,0,0,0,0,-1,1371,1254,0,0
154,-230,0,0,0,0,0,0,0,0,0,-1,1378,1254,0,0
161,-230,0,0,0,0,0,0,0,0,0,-1,1385,1254,0,0
168,-230,0,0,0,0,0,0,0,0,0,-1,1392,1254,0,0
175,-230,0,0,0,0,0,0,0,0,0,-1,1399,1254,0,0
182,-230,0,0,0,0,0,0,0,0,0,-1,1406,1254,0,0
189,-230,0,0,0,0,0,0,0,0,0,-1,1413,1254,0,0
196,-230,0,0,0,0,0,0,0,0,0,-1,1420,1254,0,0
203,-230,0,0,0,0,0,0,0,0,0,-1,1427,1254,0,0
210,-230,0,0,0,0,0,0,0,0,0,-1,1434,1254,0,0
217,-230,0,0,0,0,0,0,0,0,0,-1,1441,1254,0,0
224,-230,0,0,0,0,0,0,0,0,0,-1,1448,1254,0,0
231,-230,0,0,0,0,0,0,0,0,0,-1,1455,1254,0,0
238,-230,0,0,0,0,0,0,0,0,0,-1,1462,1254,0,0
245,-230,0,0,0,0,0,0,0,0,0,-1,1469,1254,0,0
252,-230,0,0,0,0,0,0,0,0,0,-1,1476,1254,0,0
259,-230,0,0,0,0,0,0,0,0,0,-1,1483,1254,0,0
266,-230,0,0,0,0,0,0,0,0,0,-1,1490,1254,0,0
273,-230,0,0,0,0,0,0,0,0,0,-1,1497,1254,0,0
280,-230,0,0,0,0,0,0,0,0,0,-1,1504,1254,0,0
287,-230,0,0,0,0,0,0,0,0,0,-1,1511,1254,0,0
294,-230,0,0,0,0,0,0,0,0,0,-1,1518,1254,0,0
301,-230,0,0,0,0,0,0,0,0,0,-1,1525,1254,0,0
308,-230,0,0,0,0,0,0,0,0,0,-1,1532,1254,0,0
315,-230,0,0,0,0,0,0,0,0,0,-1,1539,1254,0,0
322,-230,0,0,0,0,0,0,0,0,0,-1,1546,1254,0,0
329,-230,0,0,0,0,0,0,0,0,0,-1,1553,1254,0,0
336,-230,0,0,0,0,0,0,0,0,0,-1,1560,1254,0,0
343,-230,0,0,0,0,0,0,0,0,0,-1,1567,1254,0,0
350,-230,0,0,0,0,0,0,0,0,0,-1,1574,1254,0,0
357,-230,0,0,0,0,0,0,0,0,0,-1,1581,1254,0,0
364,-230,0,0,0,0,0,0,0,0,0,-1,1588,1254,0,0
371,-230,0,0,0,0,0,0,0,0,0,-1,1595,1254,0,0
378,-230,0,0,0,0,0,0,0,0,0,-1,1602,1254,0,0
385,-230,0,0,0,0,0,0,0,0,0,-1,1609,1254,0,0
392,-230,0,0,0,0,0,0,0,0,0,-1,1616,1254,0,0
399,-230,0,0,0,0,0,0,0,0,0,-1,1623,1254,0,0
406,-230,0,0,0,0,0,0,0,0,0,-1,1630,1254,0,0
413,-230,0,0,0,0,0,0,0,0,0,-1,1637,1254,0,0
420,-230,0,0,0,0,0,0,0,0,0,-1,1644,1254,0,0
427,-230,0,0,0,0,0,0,0,0,0,-1,1651,1254,0,0
434,-230,0,0,0,0,0,0,0,0,0,-1,1658,1254,0,0
441,-230,0,0,0,0,0,0,0,0,0,-1,1665,1254,0,0
448,-230,0,0,0,0,0,0,0,0,0,-1,1672,1254,0,0
455,-230,0,0,0,0,0,0,0,0,0,-1,1679,1254,0,0
462,-230,0,0,0,0,0,0,0,0,0,-1,1686,1254,0,0
469,-230,0,0,0,0,0,0,0,0,0,-1,1693,1254,0,0
476,-230,0,0,0,0,0,0,0,0,0,-1,1700,1254,0,0
483,-230,0,0,0,0,0,0,0,0,0,-1,1707,1254,0,0
490,-230,0,0,0,0,0,0,0,0,0,-1,1714,1254,0,0
497,-230,0,0,0,0,0,0,0,0,0,-1,1721,1254,0,0
504,-230,0,0,0,0,0,0,0,0,0,-1,1728,1254,0,0
511,-230,0,0,0,0,0,0,0,0,0,-1,1735,1254,0,0
518,-230,0,0,0,0,0,0,0,0,0,-1,1742,1254,0,0
525,-230,0,0,0,0,0,0,0,0,0,-1,1749,1254,0,0
532,-230,0,0,0,0,0,0,0,0,0,-1,1756,1254,0,0
539,-230,0,0,0,0,0,0,0,0,0,-1,1763,1254,0,0
546,-230,0,0,0,0,0,0,0,0,0,-1,1770,1254,0,0
553,-230,0,0,0,0,0,0,0,0,0,-1,1777,1254,0,0
560,-230,0,0,0,0,0,0,0,0,0,-1,1784,1254,0,0
567,-230,0,0,0,0,0,0,0,0,0,-1,1791,1254,0,0
574,-230,0,0,0,0,0,0,0,0,0,-1,1798,1254,0,0
581,-230,0,0,0,0,0,0,0,0,0,-1,1805,1254,0,0
588,-230,0,0,0,0,0,0,0,0,0,-1,1812,1254,0,0
595,-230,0,0,0,0,0,0,0,0,0,-1,1819,1254,0,0
602,-230,0,0,0,0,0,0,0,0,0,-1,1826,1254,0,0
609,-230,0,0,0,0,0,0,0,0,0,-1,1833,1254,0,0
616,-230,-0.00341797,0.0184326,-0.00162275,0.00265956,-0.00248551,0.003799,-0.00276219,-1.14095,0.00380384,0.03284,1840,1254,-0.00338766,-0.0184181
623,-230,-0.019165,-0.0338135,-0.00257434,0.00310455,-0.00130341,0.00338941,-0.00285921,-1.35563,0.00361197,0.0319302,1847,1254,-0.019133,0.0337702
630,-230,-0.0430908,-0.0844727,-0.00262999,0.00331983,-0.000499227,0.00336143,-0.00267159,-1.48766,0.00349075,0.0281329,1854,1254,-0.0430831,0.0845123
637,-230,-0.0411377,-0.0958252,-0.00262223,0.00368736,-0.000160687,0.00369145,-0.00262632,-1.54535,0.0036648,0.0228795,1861,1254,-0.0411005,0.0958584
644,-230,-0.055542,-0.107178,-0.00253374,0.00382899,-3.33947e-05,0.00382917,-0.00253391,-1.56555,0.00369901,0.0164868,1868,1254,-0.0555671,0.107205
651,-230,-0.0756836,-0.0913086,-0.00233191,0.0037863,-1.54842e-05,0.00378633,-0.00233195,-1.56827,0.00356551,0.0291047,1875,1254,-0.0756785,0.0913581
658,-230,-0.140137,-0.131226,-0.00207576,0.00365704,-5.59447e-05,0.00365758,-0.00207631,-1.56104,0.00335216,0.0386459,1882,1254,-0.140135,0.131228
665,-230,0.0552979,-0.28418,-0.00183197,0.00341501,-0.000135405,0.00341851,-0.00183546,-1.54501,0.00307893,0.0433724,1889,1254,0.0552967,0.284128
672,-230,0.494141,-0.0236816,-0.00158794,0.00306921,-0.000163185,0.00307492,-0.00159365,-1.53581,0.00274025,0.0442251,1896,1254,0.494195,0.0237368
679,-230,0.280762,0.0793457,0,0,0,0,0,0,0,-1,1903,1254,0.280726,-0.0793499
686,-230,0.108398,0.00976563,-0.00129688,0.00228578,-0.000266581,0.00230551,-0.00131661,-1.49693,0.00211705,0.0371279,1910,1254,0.108448,-0.00980426
693,-230,-0.03125,-0.0599365,-0.00107912,0.00185981,-0.000282264,0.00188667,-0.00110598,-1.47591,0.0017473,0.0159214,1917,1254,-0.0312419,0.0599785
700,-230,-0.0217285,-0.074707,-0.000837931,0.00149388,-0.0003156,0.00153584,-0.00087989,-1.43862,0.00141176,0.0110099,1924,1254,-0.0217327,0.0747011
707,-230,-0.00585938,-0.0788574,-0.000748007,0.00118927,-0.000421936,0.00127718,-0.000835916,-1.36539,0.00122883,0.00939241,1931,1254,-0.00584818,0.0788487
714,-230,-0.00500488,-0.0692139,-0.000698917,0.000945942,-0.000550205,0.00111302,-0.000865991,-1.27599,0.00114554,0.0115631,1938,1254,-0.00503013,0.0691836
721,-230,-0.00500488,-0.0695801,-0.000706541,0.00069944,-0.000481297,0.000848414,-0.000855515,-1.27062,0.000983767,0.012165,1945,1254,-0.00500408,0.0695987
728,-230,-0.019043,-0.0667725,-0.000726896,0.00045237,-0.000421821,0.000587719,-0.000862245,-1.2603,0.000842124,0.0128847,1952,1254,-0.0190486,0.066765
735,-230,-0.0332031,-0.052124,-0.000547422,-0.000173859,-0.000506151,0.000178874,-0.000900155,-0.962158,0.000667762,0.0126116,1959,1254,-0.0332475,0.0520667
742,-230,-0.0289307,-0.0510254,-0.000251588,-0.000687582,-0.000974858,0.00052935,-0.00146852,-0.675398,0.0011952,0.0100729,1966,1254,-0.0289658,0.0509706
749,-230,-0.0164795,-0.0883789,-6.5802e-05,-0.00134213,-0.00138709,0.000822885,-0.00223082,-0.569799,0.00182445,0.0101657,1973,1254,-0.0164513,0.088324
756,-230,-0.0313721,-0.0844727,0.000167902,-0.00248519,-0.00187462,0.00113786,-0.00345515,-0.477482,0.00276199,0.0117276,1980,1254,-0.0313492,0.0844363
763,-230,-0.0198975,-0.0927734,0.000547392,-0.00427519,-0.00251075,0.00161722,-0.00534502,-0.402801,0.00420733,0.0226089,1987,1254,-0.019938,0.0928236
770,-230,0.000244141,-0.0916748,0.00111747,-0.00689234,-0.00341793,0.00237769,-0.00815255,-0.353243,0.00637711,0.04078,1994,1254,0.000303215,0.0917304
777,-230,0.0180664,-0.0946045,0,0,0,0,0,0,0,-1,2001,1254,0.0180177,0.0946151
784,-230,0.460327,0.645386,0.00299593,-0.0154912,-0.00668365,0.00515915,-0.0176545,-0.313017,0.0138143,0.0471176,2008,1254,0.460373,-0.645336
791,-230,0.435181,0.246582,0.0045576,-0.021989,-0.00949483,0.00760399,-0.0250354,-0.310471,0.0197198,0.0468973,2015,1254,0.435173,-0.246612
798,-230,0,0,0,0,0,0,0,0,0,-1,2022,1254,0,0
805,-230,0,0,0,0,0,0,0,0,0,-1,2029,1254,0,0
812,-230,0,0,0,0,0,0,0,0,0,-1,2036,1254,0,0
-700,-237,0,0,0,0,0,0,0,0,0,-1,524,1261,0,0
-693,-237,0,0,0,0,0,0,0,0,0,-1,531,1261,0,0
-686,-237,0,0,0,0,0,0,0,0,0,-1,538,1261,0,0
-679,-237,0,0,0,0,0,0,0,0,0,-1,545,1261,0,0
-672,-237,-0.219421,-0.945068,0,0,0,0,0,0,0,-1,552,1261,-0.21943,0.945077
-665,-237,0.405945,-2.24695,0,0,0,0,0,0,0,-1,559,1261,0.405952,2.24698
-658,-237,0.142761,-1.65369,-0.00288635,0.0226371,0.00538004,0.0237248,-0.00397404,1.37131,0.0172941,0.0455406,566,1261,0.142757,1.65371
-651,-237,-0.0569458,-1.04944,-0.000405125,0.015358,0.00397962,0.0163057,-0.00135286,1.33701,0.0113483,0.0405573,573,1261,-0.0569505,1.04943
-644,-237,-0.291748,-0.798218,0.00140027,0.0101203,0.00296421,0.0110325,0.000488072,1.27226,0.00719785,0.0429453,580,1261,-0.291718,0.798206
-637,-237,-0.531982,-0.545044,0.00259641,0.0064814,0.00221604,0.00748579,0.00159202,1.14525,0.00455358,0.0462465,587,1261,-0.531997,0.545044
-630,-237,-0.758118,-0.137573,0,0,0,0,0,0,0,-1,594,1261,-0.758127,0.137569
-623,-237,-0.0290527,-0.0449219,0.00364721,0.0019606,0.0012313,0.00429631,0.0013115,0.485141,0.00254241,0.0272821,601,1261,-0.0290794,0.0448858
-616,-237,-0.0206299,-0.0758057,0.00357738,0.000596252,0.000917289,0.00383702,0.000336616,0.275832,0.00245351,0.0132983,608,1261,-0.0206508,0.075813
-609,-237,-0.0183716,-0.083252,0.00298849,0.000461192,0.000464713,0.00307123,0.000378451,0.176202,0.00193372,0.0148575,615,1261,-0.0183706,0.0832096
-602,-237,-0.0285645,-0.0800781,0.00313753,-2.96008e-05,0.000320856,0.00316971,-6.17792e-05,0.099955,0.00213403,0.0108968,622,1261,-0.0285613,0.0800372
-595,-237,-0.0107422,-0.0692139,0.00339419,-8.72019e-05,0.000112151,0.0033978,-9.08111e-05,0.0321699,0.00229607,0.0147828,629,1261,-0.0107212,0.0691706
-588,-237,-0.00604248,-0.0654297,0.00306614,-0.000446569,-2.05827e-05,0.00306626,-0.00044669,-0.00585925,0.00220818,0.0237415,636,1261,-0.00604395,0.0654716
-581,-237,-0.0322876,-0.0709229,0.0024259,-0.00104461,-0.000135972,0.00243122,-0.00104993,-0.0390992,0.00206191,0.0211782,643,1261,-0.0323037,0.0709207
-574,-237,-0.0179443,-0.0955811,0.00189369,-0.0018366,0.000105527,0.00189667,-0.00183958,0.028259,0.00215721,0.0135401,650,1261,-0.0179622,0.0956335
-567,-237,-0.00378418,-0.0921631,0.00174834,-0.00276474,0.000345093,0.00177458,-0.00279097,0.0758771,0.00265761,0.0123386,657,1261,-0.00376961,0.0921822
-560,-237,0.0142822,-0.117188,0.00160656,-0.00426284,0.00056491,0.00166044,-0.00431672,0.0950835,0.00356269,0.0186004,664,1261,0.0142575,0.117147
-553,-237,0.0178223,-0.106079,0.00144749,-0.00548511,0.000821274,0.00154346,-0.00558108,0.116321,0.00432794,0.0389545,671,1261,0.0178486,0.106018
-546,-237,0.217651,-0.185181,0.00120453,-0.0067748,0.00109061,0.00135091,-0.00692118,0.13342,0.00512413,0.0473609,678,1261,0.217653,0.185211
-539,-237,0.255432,-0.374268,0.00098894,-0.00806074,0.00127843,0.00116608,-0.00823788,0.13768,0.00591902,0.0461727,685,1261,0.255437,0.374241
-532,-237,0.169006,-0.347656,0.000647087,-0.00920894,0.0014744,0.000862923,-0.00942478,0.145356,0.00658969,0.0444457,692,1261,0.169032,0.347626
-525,-237,0.0162354,-0.189819,0.000311951,-0.0100323,0.00159596,0.000552586,-0.0102729,0.14965,0.00704004,0.0472246,699,1261,0.0162351,0.189817
-518,-237,-0.0244141,-0.0634766,8.03166e-05,-0.0101713,0.0014012,0.000268382,-0.0103594,0.133421,0.00699744,0.0448798,706,1261,-0.0244418,0.063417
-511,-237,0.0267944,-0.14856,3.46708e-05,-0.00916041,0.000779425,0.00010027,-0.00922601,0.0839671,0.00618437,0.0404521,713,1261,0.0268168,0.148582
-504,-237,-0.0251465,-0.0727539,0.000356958,-0.00634177,-0.000411078,0.00038209,-0.0063669,-0.0610613,0.00437752,0.0396122,720,1261,-0.0251345,0.0728122
-497,-237,-0.12384,-0.0509033,0.00148281,-0.000838575,-0.00251836,0.00309508,-0.00245085,-0.569461,0.00320913,0.0434279,727,1261,-0.123832,0.0509122
-490,-237,0,0,0,0,0,0,0,0,0,-1,734,1261,0,0
-483,-237,0,0,0,0,0,0,0,0,0,-1,741,1261,0,0
-476,-237,0,0,0,0,0,0,0,0,0,-1,748,1261,0,0
-469,-237,0,0,0,0,0,0,0,0,0,-1,755,1261,0,0
-462,-237,0,0,0,0,0,0,0,0,0,-1,762,1261,0,0
-455,-237,0,0,0,0,0,0,0,0,0,-1,769,1261,0,0
-448,-237,0,0,0,0,0,0,0,0,0,-1,776,1261,0,0
-441,-237,0,0,0,0,0,0,0,0,0,-1,783,1261,0,0
-434,-237,0,0,0,0,0,0,0,0,0,-1,790,1261,0,0
-427,-237,0,0,0,0,0,0,0,0,0,-1,797,1261,0,0
-420,-237,0,0,0,0,0,0,0,0,0,-1,804,1261,0,0
-413,-237,0,0,0,0,0,0,0,0,0,-1,811,1261,0,0
-406,-237,0,0,0,0,0,0,0,0,0,-1,818,1261,0,0
-399,-237,0,0,0,0,0,0,0,0,0,-1,825,1261,0,0
-392,-237,0,0,0,0,0,0,0,0,0,-1,832,1261,0,0
-385,-237,0,0,0,0,0,0,0,0,0,-1,839,1261,0,0
-378,-237,0,0,0,0,0,0,0,0,0,-1,846,1261,0,0
-371,-237,0,0,0,0,0,0,0,0,0,-1,853,1261,0,0
-364,-237,0,0,0,0,0,0,0,0,0,-1,860,1261,0,0
-357,-237,0,0,0,0,0,0,0,0,0,-1,867,1261,0,0
-350,-237,0,0,0,0,0,0,0,0,0,-1,874,1261,0,0
-343,-237,0,0,0,0,0,0,0,0,0,-1,881,1261,0,0
-336,-237,0,0,0,0,0,0,0,0,0,-1,888,1261,0,0
-329,-237,0,0,0,0,0,0,0,0,0,-1,895,1261,0,0
-322,-237,0,0,0,0,0,0,0,0,0,-1,902,1261,0,0
-315,-237,0,0,0,0,0,0,0,0,0,-1,909,1261,0,0
-308,-237,0,0,0,0,0,0,0,0,0,-1,916,1261,0,0
-301,-237,0,0,0,0,0,0,0,0,0,-1,923,1261,0,0
-294,-237,0,0,0,0,0,0,0,0,0,-1,930,1261,0,0
-287,-237,0,0,0,0,0,0,0,0,0,-1,937,1261,0,0
-280,-237,0,0,0,0,0,0,0,0,0,-1,944,1261,0,0
-273,-237,0,0,0,0,0,0,0,0,0,-1,951,1261,0,0
-266,-237,0,0,0,0,0,0,0,0,0,-1,958,1261,0,0
-259,-237,0,0,0,0,0,0,0,0,0,-1,965,1261,0,0
-252,-237,0,0,0,0,0,0,0,0,0,-1,972,1261,0,0
-245,-237,0,0,0,0,0,0,0,0,0,-1,979,1261,0,0
-238,-237,0,0,0,0,0,0,0,0,0,-1,986,1261,0,0
-231,-237,0,0,0,0,0,0,0,0,0,-1,993,1261,0,0
-224,-237,0,0,0,0,0,0,0,0,0,-1,1000,1261,0,0
-217,-237,0,0,0,0,0,0,0,0,0,-1,1007,1261,0,0
-210,-237,0,0,0,0,0,0,0,0,0,-1,1014,1261,0,0
-203,-237,0,0,0,0,0,0,0,0,0,-1,1021,1261,0,0
-196,-237,0,0,0,0,0,0,0,0,0,-1,1028,1261,0,0
-189,-237,0,0,0,0,0,0,0,0,0,-1,1035,1261,0,0
-182,-237,0,0,0,0,0,0,0,0,0,-1,1042,1261,0,0
-175,-237,0,0,0,0,0,0,0,0,0,-1,1049,1261,0,0
-168,-237,0,0,0,0,0,0,0,0,0,-1,1056,1261,0,0
-161,-237,0,0,0,0,0,0,0,0,0,-1,1063,1261,0,0
-154,-237,0,0,0,0,0,0,0,0,0,-1,1070,1261,0,0
-147,-237,0,0,0,0,0,0,0,0,0,-1,1077,1261,0,0
-140,-237,0,0,0,0,0,0,0,0,0,-1,1084,1261,0,0
-133,-237,0,0,0,0,0,0,0,0,0,-1,1091,1261,0,0
-126,-237,0,0,0,0,0,0,0,0,0,-1,1098,1261,0,0
-119,-237,0,0,0,0,0,0,0,0,0,-1,1105,1261,0,0
-112,-237,0,0,0,0,0,0,0,0,0,-1,1112,1261,0,0
-105,-237,0,0,0,0,0,0,0,0,0,-1,1119,1261,0,0
-98,-237,0,0,0,0,0,0,0,0,0,-1,1126,1261,0,0
-91,-237,0,0,0,0,0,0,0,0,0,-1,1133,1261,0,0
-84,-237,0,0,0,0,0,0,0,0,0,-1,1140,1261,0,0
-77,-237,0,0,0,0,0,0,0,0,0,-1,1147,1261,0,0
-70,-237,0,0,0,0,0,0,0,0,0,-1,1154,1261,0,0
-63,-237,0,0,0,0,0,0,0,0,0,-1,1161,1261,0,0
-56,-237,0,0,0,0,0,0,0,0,0,-1,1168,1261,0,0
-49,-237,0,0,0,0,0,0,0,0,0,-1,1175,1261,0,0
-42,-237,0,0,0,0,0,0,0,0,0,-1,1182,1261,0,0
-35,-237,0,0,0,0,0,0,0,0,0,-1,1189,1261,0,0
-28,-237,0,0,0,0,0,0,0,0,0,-1,1196,1261,0,0
-21,-237,0,0,0,0,0,0,0,0,0,-1,1203,1261,0,0
-14,-237,0,0,0,0,0,0,0,0,0,-1,1210,1261,0,0
-7,-237,0,0,0,0,0,0,0,0,0,-1,1217,1261,0,0
0,-237,0,0,0,0,0,0,0,0,0,-1,1224,1261,0,0
7,-237,0,0,0,0,0,0,0,0,0,-1,1231,1261,0,0
14,-237,0,0,0,0,0,0,0,0,0,-1,1238,1261,0,0
21,-237,0,0,0,0,0,0,0,0,0,-1,1245,1261,0,0
28,-237,0,0,0,0,0,0,0,0,0,-1,1252,1261,0,0
35,-237,0,0,0,0,0,0,0,0,0,-1,1259,1261,0,0
42,-237,0,0,0,0,0,0,0,0,0,-1,1266,1261,0,0
49,-237,0,0,0,0,0,0,0,0,0,-1,1273,1261,0,0
56,-237,0,0,0,0,0,0,0,0,0,-1,1280,1261,0,0
63,-237,0,0,0,0,0,0,0,0,0,-1,1287,1261,0,0
70,-237,0,0,0,0,0,0,0,0,0,-1,1294,1261,0,0
77,-237,0,0,0,0,0,0,0,0,0,-1,1301,1261,0,0
84,-237,0,0,0,0,0,0,0,0,0,-1,1308,1261,0,0
91,-237,0,0,0,0,0,0,0,0,0,-1,1315,1261,0,0
98,-237,0,0,0,0,0,0,0,0,0,-1,1322,1261,0,0
105,-237,0,0,0,0,0,0,0,0,0,-1,1329,1261,0,0
112,-237,0,0,0,0,0,0,0,0,0,-1,1336,1261,0,0
119,-237,0,0,0,0,0,0,0,0,0,-1,1343,1261,0,0
126,-237,0,0,0,0,0,0,0,0,0,-1,1350,1261,0,0
133,-237,0,0,0,0,0,0,0,0,0,-1,1357,1261,0,0
140,-237,0,0,0,0,0,0,0,0,0,-1,1364,1261,0,0
147,-237,0,0,0,0,0,0,0,0,0,-1,1371,1261,0,0
154,-237,0,0,0,0,0,0,0,0,0,-1,1378,1261,0,0
161,-237,0,0,0,0,0,0,0,0,0,-1,1385,1261,0,0
168,-237,0,0,0,0,0,0,0,0,0,-1,1392,1261,0,0
175,-237,0,0,0,0,0,0,0,0,0,-1,1399,1261,0,0
182,-237,0,0,0,0,0,0,0,0,0,-1,1406,1261,0,0
189,-237,0,0,0,0,0,0,0,0,0,-1,1413,1261,0,0
196,-237,0,0,0,0,0,0,0,0,0,-1,1420,1261,0,0
203,-237,0,0,0,0,0,0,0,0,0,-1,1427,1261,0,0
210,-237,0,0,0,0,0,0,0,0,0,-1,1434,1261,0,0
217,-237,0,0,0,0,0,0,0,0,0,-1,1441,1261,0,0
224,-237,0,0,0,0,0,0,0,0,0,-1,1448,1261,0,0
231,-237,0,0,0,0,0,0,0,0,0,-1,1455,1261,0,0
238,-237,0,0,0,0,0,0,0,0,0,-1,1462,1261,0,0
245,-237,0,0,0,0,0,0,0,0,0,-1,1469,1261,0,0
252,-237,0,0,0,0,0,0,0,0,0,-1,1476,1261,0,0
259,-237,0,0,0,0,0,0,0,0,0,-1,1483,1261,0,0
266,-237,0,0,0,0,0,0,0,0,0,-1,1490,1261,0,0
273,-237,0,0,0,0,0,0,0,0,0,-1,1497,1261,0,0
280,-237,0,0,0,0,0,0,0,0,0,-1,1504,1261,0,0
287,-237,0,0,0,0,0,0,0,0,0,-1,1511,1261,0,0
294,-237,0,0,0,0,0,0,0,0,0,-1,1518,1261,0,0
301,-237,0,0,0,0,0,0,0,0,0,-1,1525,1261,0,0
308,-237,0,0,0,0,0,0,0,0,0,-1,1532,1261,0,0
315,-237,0,0,0,0,0,0,0,0,0,-1,1539,1261,0,0
322,-237,0,0,0,0,0,0,0,0,0,-1,1546,1261,0,0
329,-237,0,0,0,0,0,0,0,0,0,-1,1553,1261,0,0
336,-237,0,0,0,0,0,0,0,0,0,-1,1560,1261,0,0
343,-237,0,0,0,0,0,0,0,0,0,-1,1567,1261,0,0
350,-237,0,0,0,0,0,0,0,0,0,-1,1574,1261,0,0
357,-237,0,0,0,0,0,0,0,0,0,-1,1581,1261,0,0
364,-237,0,0,0,0,0,0,0,0,0,-1,1588,1261,0,0
371,-237,0,0,0,0,0,0,0,0,0,-1,1595,1261,0,0
378,-237,0,0,0,0,0,0,0,0,0,-1,1602,1261,0,0
385,-237,0,0,0,0,0,0,0,0,0,-1,1609,1261,0,0
392,-237,0,0,0,0,0,0,0,0,0,-1,1616,1261,0,0
399,-237,0,0,0,0,0,0,0,0,0,-1,1623,1261,0,0
406,-237,0,0,0,0,0,0,0,0,0,-1,1630,1261,0,0
413,-237,0,0,0,0,0,0,0,0,0,-1,1637,1261,0,0
420,-237,0,0,0,0,0,0,0,0,0,-1,1644,1261,0,0
427,-237,0,0,0,0,0,0,0,0,0,-1,1651,1261,0,0
434,-237,0,0,0,0,0,0,0,0,0,-1,1658,1261,0,0
441,-237,0,0,0,0,0,0,0,0,0,-1,1665,1261,0,0
448,-237,0,0,0,0,0,0,0,0,0,-1,1672,1261,0,0
455,-237,0,0,0,0,0,0,0,0,0,-1,1679,1261,0,0
462,-237,0,0,0,0,0,0,0,0,0,-1,1686,1261,0,0
469,-237,0,0,0,0,0,0,0,0,0,-1,1693,1261,0,0
476,-237,0,0,0,0,0,0,0,0,0,-1,1700,1261,0,0
483,-237,0,0,0,0,0,0,0,0,0,-1,1707,1261,0,0
490,-237,0,0,0,0,0,0,0,0,0,-1,1714,1261,0,0
497,-237,0,0,0,0,0,0,0,0,0,-1,1721,1261,0,0
504,-237,0,0,0,0,0,0,0,0,0,-1,1728,1261,0,0
511,-237,0,0,0,0,0,0,0,0,0,-1,1735,1261,0,0
518,-237,0,0,0,0,0,0,0,0,0,-1,1742,1261,0,0
525,-237,0,0,0,0,0,0,0,0,0,-1,1749,1261,0,0
532,-237,0,0,0,0,0,0,0,0,0,-1,1756,1261,0,0
539,-237,0,0,0,0,0,0,0,0,0,-1,1763,1261,0,0
546,-237,0,0,0,0,0,0,0,0,0,-1,1770,1261,0,0
553,-237,0,0,0,0,0,0,0,0,0,-1,1777,1261,0,0
560,-237,0,0,0,0,0,0,0,0,0,-1,1784,1261,0,0
567,-237,0,0,0,0,0,0,0,0,0,-1,1791,1261,0,0
574,-237,0,0,0,0,0,0,0,0,0,-1,1798,1261,0,0
581,-237,0,0,0,0,0,0,0,0,0,-1,1805,1261,0,0
588,-237,0,0,0,0,0,0,0,0,0,-1,1812,1261,0,0
595,-237,0,0,0,0,0,0,0,0,0,-1,1819,1261,0,0
602,-237,0,0,0,0,0,0,0,0,0,-1,1826,1261,0,0
609,-237,0,0,0,0,0,0,0,0,0,-1,1833,1261,0,0
616,-237,0.0336914,0.00109863,-0.00216818,0.00331416,-0.00273249,0.00444346,-0.00329748,-1.17889,0.00448553,0.0337625,1840,1261,0.0337405,-0.00106451
623,-237,0.0283203,-0.067627,-0.0028662,0.00390527,-0.00146889,0.00421017,-0.0031711,-1.36613,0.00427563,0.0290075,1847,1261,0.0283797,0.0676434
630,-237,-0.0211182,-0.0679932,-0.00299211,0.0041739,-0.000603083,0.0042243,-0.00304251,-1.48742,0.00421395,0.0228972,1854,1261,-0.0210676,0.0680128
637,-237,-0.0379639,-0.0737305,-0.003051,0.00437064,-0.000127201,0.00437282,-0.00305318,-1.55366,0.00430991,0.0169407,1861,1261,-0.0379245,0.0737861
644,-237,-0.0699463,-0.079834,-0.00300266,0.00434434,0.000117797,0.00434623,-0.00300455,1.55477,0.00426747,0.0307487,1868,1261,-0.0699897,0.0798369
651,-237,-0.111328,-0.0856934,-0.00281815,0.00418669,0.000211732,0.00419308,-0.00282454,1.54061,0.00407723,0.0398561,1875,1261,-0.111357,0.0856556
658,-237,-0.182983,-0.148315,-0.00254785,0.00396651,0.000220483,0.00397397,-0.0025553,1.537,0.00379922,0.0456728,1882,1261,-0.183025,0.148269
665,-237,-0.223999,-0.268433,0,0,0,0,0,0,0,-1,1889,1261,-0.223987,0.268455
672,-237,0.270142,0.0100098,-0.00193488,0.00321621,0.000123522,0.00321917,-0.00193784,1.54683,0.00300788,0.044045,1896,1261,0.270161,-0.0100521
679,-237,0.161255,-0.00585938,-0.00167656,0.00280154,4.92349e-05,0.00280208,-0.0016771,1.5598,0.0026131,0.0417001,1903,1261,0.161255,0.00590585
686,-237,0.0328369,-0.0135498,-0.00153495,0.00234066,-7.72858e-05,0.0023422,-0.00153649,-1.55087,0.00225541,0.026576,1910,1261,0.0328238,0.0135633
693,-237,-0.0447998,-0.0496826,-0.00128198,0.0018961,-0.000140489,0.0019023,-0.00128817,-1.52671,0.00185336,0.0126433,1917,1261,-0.0448416,0.0496816
700,-237,-0.0206299,-0.0748291,-0.000932388,0.00152629,-0.000242743,0.00155003,-0.000956125,-1.47332,0.00146041,0.0107168,1924,1261,-0.0205951,0.0748173
707,-237,-0.00500488,-0.0784912,-0.000797498,0.00121365,-0.000438049,0.00130492,-0.000888767,-1.36538,0.0012741,0.00914178,1931,1261,-0.00504501,0.0785169
714,-237,-0.00891113,-0.0716553,-0.000733993,0.000904523,-0.000658799,0.00113655,-0.000966019,-1.23217,0.00121525,0.0110538,1938,1261,-0.00894989,0.0716267
721,-237,-0.0224609,-0.0574951,-0.000695254,0.000615161,-0.000661748,0.000891194,-0.000971286,-1.17561,0.00107563,0.0128587,1945,1261,-0.0224553,0.0575374
728,-237,-0.00744629,-0.0635986,-0.000696833,0.000363512,-0.000744108,0.000747002,-0.00108032,-1.09493,0.00106084,0.0130845,1952,1261,-0.00743723,0.0636272
735,-237,-0.0285645,-0.0831299,-0.000523184,-0.000287264,-0.00101701,0.000618604,-0.00142905,-0.843134,0.00121269,0.0176926,1959,1261,-0.028529,0.0831305
742,-237,-0.0266113,-0.0552979,-0.000245368,-0.000915055,-0.00166588,0.00111899,-0.00227941,-0.686219,0.00199983,0.0143359,1966,1261,-0.0266066,0.0553337
749,-237,-0.0253906,-0.0552979,-4.52982e-05,-0.00170727,-0.00229051,0.00156031,-0.00331287,-0.611384,0.00287354,0.00943526,1973,1261,-0.0253407,0.055324
756,-237,-0.0697021,-0.0826416,0.00025103,-0.00302949,-0.00305917,0.00208193,-0.00486039,-0.539313,0.00411376,0.0115571,1980,1261,-0.0696582,0.0826562
763,-237,-0.0723877,-0.136963,0.000747465,-0.00505774,-0.00405351,0.00283045,-0.00714072,-0.474683,0.00593344,0.0253878,1987,1261,-0.0723529,0.136983
770,-237,-0.053833,-0.104736,0.00147811,-0.00801097,-0.00539238,0.00391607,-0.0104489,-0.42461,0.00857476,0.0401716,1994,1261,-0.0538536,0.104744
777,-237,-0.045166,-0.0371094,0,0,0,0,0,0,0,-1,2001,1261,-0.0451295,0.0371065
784,-237,0.703979,1.04175,0.00383037,-0.0176971,-0.00978618,0.00761405,-0.0214808,-0.368932,0.0174223,0.0429662,2008,1261,0.703948,-1.0418
791,-237,0.722412,0.733521,0.00576083,-0.0250207,-0.0133305,0.0107313,-0.0299911,-0.356894,0.0243718,0.0420683,2015,1261,0.722442,-0.733558
798,-237,0,0,0,0,0,0,0,0,0,-1,2022,1261,0,0
805,-237,0,0,0,0,0,0,0,0,0,-1,2029,1261,0,0
812,-237,0,0,0,0,0,0,0,0,0,-1,2036,1261,0,0
-700,-244,0,0,0,0,0,0,0,0,0,-1,524,1268,0,0
-693,-244,0,0,0,0,0,0,0,0,0,-1,531,1268,0,0
-686,-244,0,0,0,0,0,0,0,0,0,-1,538,1268,0,0
-679,-244,0,0,0,0,0,0,0,0,0,-1,545,1268,0,0
-672,-244,0.122742,-1.36609,0,0,0,0,0,0,0,-1,552,1268,0.122726,1.36612
-665,-244,1.0672,-1.44946,0,0,0,0,0,0,0,-1,559,1268,1.06719,1.4494
-658,-244,0.673706,-1.26184,-0.00279841,0.0193117,0.0077254,0.0217435,-0.00523024,1.26583,0.0165175,0.0458,566,1268,0.673734,1.26188
-651,-244,0.281677,-1.03906,-0.00108842,0.013416,0.00555681,0.0153002,-0.00297255,1.2439,0.0113218,0.0444043,573,1268,0.281695,1.03906
-644,-244,-0.0361938,-0.733521,0.000352511,0.00917096,0.00397342,0.0106972,-0.0011737,1.20407,0.00755313,0.0446885,580,1268,-0.0361839,0.733519
-637,-244,-0.225525,-0.224243,0.00146556,0.00618123,0.00281241,0.00749341,0.000153378,1.13425,0.00494527,0.0455044,587,1268,-0.225531,0.224245
-630,-244,-0.170288,-0.0535889,0.00219844,0.00412222,0.00195996,0.0053436,0.000977052,1.01352,0.0032855,0.0431407,594,1268,-0.170263,0.0536481
-623,-244,-0.0838013,-0.038208,0.00269032,0.00230832,0.00136774,0.00388034,0.00111831,0.716024,0.00230634,0.0328121,601,1268,-0.0838187,0.0381631
-616,-244,-0.0186157,-0.0603027,0.00279041,0.00109245,0.000950931,0.0032162,0.000666658,0.42099,0.00196007,0.0166782,608,1268,-0.0186146,0.0602671
-609,-244,-0.0278931,-0.0670166,0.00236084,0.000866165,0.000411686,0.00246673,0.000760274,0.251755,0.00145867,0.0130105,615,1268,-0.0278828,0.0669829
-602,-244,-0.0467529,-0.0629883,0.00266207,0.000272766,0.000231014,0.0026842,0.000250635,0.0955079,0.00171205,0.0128251,622,1268,-0.0467596,0.0629719
-595,-244,-0.00854492,-0.0609131,0.00308215,-4.23716e-05,0.000105343,0.0030857,-4.59191e-05,0.033664,0.00207261,0.014112,629,1268,-0.00856921,0.0609264
-588,-244,-0.000610352,-0.0473633,0.00291129,-0.00042829,-2.2261e-05,0.00291144,-0.000428438,-0.00666541,0.0020984,0.0174456,636,1268,-0.000601922,0.0473237
-581,-244,-0.0159912,-0.0639648,0.00239386,-0.00126458,-0.000115417,0.0023975,-0.00126822,-0.0315064,0.00214962,0.0156269,643,1268,-0.0159819,0.063936
-574,-244,-0.0186768,-0.0671387,0.00193602,-0.00238221,0.000193893,0.0019447,-0.0023909,0.044781,0.00250758,0.0117358,650,1268,-0.0187014,0.0670876
-567,-244,-0.0155029,-0.0733643,0.00176424,-0.00350782,0.000482404,0.00180802,-0.0035516,0.0905004,0.00314849,0.0088285,657,1268,-0.0155135,0.0734005
-560,-244,-0.0128784,-0.0876465,0.00160537,-0.00549218,0.000771912,0.00168835,-0.00557516,0.107089,0.00438916,0.0100344,664,1268,-0.0128493,0.0876085
-553,-244,-0.00354004,-0.0771484,0.00156709,-0.0069802,0.000992684,0.00168087,-0.00709398,0.114116,0.00537789,0.0282148,671,1268,-0.00351891,0.0771339
-546,-244,0.0794067,-0.0181885,0.00148858,-0.00856654,0.001225,0.00163566,-0.00871363,0.1195,0.0064241,0.0466665,678,1268,0.0793986,0.0181635
-539,-244,0.110962,-0.0909424,0.00152897,-0.0101437,0.00128254,0.00166823,-0.010283,0.108156,0.00747373,0.0465096,685,1268,0.110953,0.090901
-532,-244,0.175415,-0.154053,0.00137009,-0.0115469,0.0013757,0.00151499,-0.0116917,0.104935,0.00834546,0.0470286,692,1268,0.175428,0.154022
-525,-244,0.0830688,-0.0428467,0.00105236,-0.0125235,0.00142415,0.00120015,-0.0126713,0.103403,0.00887467,0.0495109,699,1268,0.0830561,0.0429063
-518,-244,-0.191284,0.189819,0.000867973,-0.0126691,0.0011318,0.000961947,-0.0127631,0.0828405,0.00884683,0.0457013,706,1268,-0.191305,-0.189781
-511,-244,-0.0529785,0.0367432,0.000674892,-0.0114793,0.00045958,0.000692245,-0.0114966,0.0377407,0.00790528,0.0417754,713,1268,-0.0529542,-0.0367209
-504,-244,-0.0103149,-0.0750732,0.000477438,-0.00835299,-0.00067397,0.000528582,-0.00840414,-0.0757389,0.00578701,0.0402064,720,1268,-0.010286,0.0751288
-497,-244,-0.0601196,-0.122925,0.000394914,-0.00249709,-0.00243233,0.0017786,-0.00388078,-0.517218,0.00334174,0.0446278,727,1268,-0.0601018,0.122922
-490,-244,0,0,0,0,0,0,0,0,0,-1,734,1268,0,0
-483,-244,0,0,0,0,0,0,0,0,0,-1,741,1268,0,0
-476,-244,0,0,0,0,0,0,0,0,0,-1,748,1268,0,0
-469,-244,0,0,0,0,0,0,0,0,0,-1,755,1268,0,0
-462,-244,0,0,0,0,0,0,0,0,0,-1,762,1268,0,0
-455,-244,0,0,0,0,0,0,0,0,0,-1,769,1268,0,0
-448,-244,0,0,0,0,0,0,0,0,0,-1,776,1268,0,0
-441,-244,0,0,0,0,0,0,0,0,0,-1,783,1268,0,0
-434,-244,0,0,0,0,0,0,0,0,0,-1,790,1268,0,0
-427,-244,0,0,0,0,0,0,0,0,0,-1,797,1268,0,0
-420,-244,0,0,0,0,0,0,0,0,0,-1,804,1268,0,0
-413,-244,0,0,0,0,0,0,0,0,0,-1,811,1268,0,0
-406,-244,0,0,0,0,0,0,0,0,0,-1,818,1268,0,0
-399,-244,0,0,0,0,0,0,0,0,0,-1,825,1268,0,0
-392,-244,0,0,0,0,0,0,0,0,0,-1,832,1268,0,0
-385,-244,0,0,0,0,0,0,0,0,0,-1,839,1268,0,0
-378,-244,0,0,0,0,0,0,0,0,0,-1,846,1268,0,0
-371,-244,0,0,0,0,0,0,0,0,0,-1,853,1268,0,0
-364,-244,0,0,0,0,0,0,0,0,0,-1,860,1268,0,0
-357,-244,0,0,0,0,0,0,0,0,0,-1,867,1268,0,0
-350,-244,0,0,0,0,0,0,0,0,0,-1,874,1268,0,0
-343,-244,0,0,0,0,0,0,0,0,0,-1,881,1268,0,0
-336,-244,0,0,0,0,0,0,0,0,0,-1,888,1268,0,0
-329,-244,0,0,0,0,0,0,0,0,0,-1,895,1268,0,0
-322,-244,0,0,0,0,0,0,0,0,0,-1,902,1268,0,0
-315,-244,0,0,0,0,0,0,0,0,0,-1,909,1268,0,0
-308,-244,0,0,0,0,0,0,0,0,0,-1,916,1268,0,0
-301,-244,0,0,0,0,0,0,0,0,0,-1,923,1268,0,0
-294,-244,0,0,0,0,0,0,0,0,0,-1,930,1268,0,0
-287,-244,0,0,0,0,0,0,0,0,0,-1,937,1268,0,0
-280,-244,0,0,0,0,0,0,0,0,0,-1,944,1268,0,0
-273,-244,0,0,0,0,0,0,0,0,0,-1,951,1268,0,0
-266,-244,0,0,0,0,0,0,0,0,0,-1,958,1268,0,0
-259,-244,0,0,0,0,0,0,0,0,0,-1,965,1268,0,0
-252,-244,0,0,0,0,0,0,0,0,0,-1,972,1268,0,0
-245,-244,0,0,0,0,0,0,0,0,0,-1,979,1268,0,0
-238,-244,0,0,0,0,0,0,0,0,0,-1,986,1268,0,0
-231,-244,0,0,0,0,0,0,0,0,0,-1,993,1268,0,0
-224,-244,0,0,0,0,0,0,0,0,0,-1,1000,1268,0,0
-217,-244,0,0,0,0,0,0,0,0,0,-1,1007,1268,0,0
-210,-244,0,0,0,0,0,0,0,0,0,-1,1014,1268,0,0
-203,-244,0,0,0,0,0,0,0,0,0,-1,1021,1268,0,0
-196,-244,0,0,0,0,0,0,0,0,0,-1,1028,1268,0,0
-189,-244,0,0,0,0,0,0,0,0,0,-1,1035,1268,0,0
-182,-244,0,0,0,0,0,0,0,0,0,-1,1042,1268,0,0
-175,-244,0,0,0,0,0,0,0,0,0,-1,1049,1268,0,0
-168,-244,0,0,0,0,0,0,0,0,0,-1,1056,1268,0,0
-161,-244,0,0,0,0,0,0,0,0,0,-1,1063,1268,0,0
-154,-244,0,0,0,0,0,0,0,0,0,-1,1070,1268,0,0
-147,-244,0,0,0,0,0,0,0,0,0,-1,1077,1268,0,0
-140,-244,0,0,0,0,0,0,0,0,0,-1,1084,1268,0,0
-133,-244,0,0,0,0,0,0,0,0,0,-1,1091,1268,0,0
-126,-244,0,0,0,0,0,0,0,0,0,-1,1098,1268,0,0
-119,-244,0,0,0,0,0,0,0,0,0,-1,1105,1268,0,0
-112,-244,0,0,0,0,0,0,0,0,0,-1,1112,1268,0,0
-105,-244,0,0,0,0,0,0,0,0,0,-1,1119,1268,0,0
-98,-244,0,0,0,0,0,0,0,0,0,-1,1126,1268,0,0
-91,-244,0,0,0,0,0,0,0,0,0,-1,1133,1268,0,0
-84,-244,0,0,0,0,0,0,0,0,0,-1,1140,1268,0,0
-77,-244,0,0,0,0,0,0,0,0,0,-1,1147,1268,0,0
-70,-244,0,0,0,0,0,0,0,0,0,-1,1154,1268,0,0
-63,-244,0,0,0,0,0,0,0,0,0,-1,1161,1268,0,0
-56,-244,0,0,0,0,0,0,0,0,0,-1,1168,1268,0,0
-49,-244,0,0,0,0,0,0,0,0,0,-1,1175,1268,0,0
-42,-244,0,0,0,0,0,0,0,0,0,-1,1182,1268,0,0
-35,-244,0,0,0,0,0,0,0,0,0,-1,1189,1268,0,0
-28,-244,0,0,0,0,0,0,0,0,0,-1,1196,1268,0,0
-21,-244,0,0,0,0,0,0,0,0,0,-1,1203,1268,0,0
-14,-244,0,0,0,0,0,0,0,0,0,-1,1210,1268,0,0
-7,-244,0,0,0,0,0,0,0,0,0,-1,1217,1268,0,0
0,-244,0,0,0,0,0,0,0,0,0,-1,1224,1268,0,0
7,-244,0,0,0,0,0,0,0,0,0,-1,1231,1268,0,0
14,-244,0,0,0,0,0,0,0,0,0,-1,1238,1268,0,0
21,-244,0,0,0,0,0,0,0,0,0,-1,1245,1268,0,0
28,-244,0,0,0,0,0,0,0,0,0,-1,1252,1268,0,0
35,-244,0,0,0,0,0,0,0,0,0,-1,1259,1268,0,0
42,-244,0,0,0,0,0,0,0,0,0,-1,1266,1268,0,0
49,-244,0,0,0,0,0,0,0,0,0,-1,1273,1268,0,0
56,-244,0,0,0,0,0,0,0,0,0,-1,1280,1268,0,0
63,-244,0,0,0,0,0,0,0,0,0,-1,1287,1268,0,0
70,-244,0,0,0,0,0,0,0,0,0,-1,1294,1268,0,0
77,-244,0,0,0,0,0,0,0,0,0,-1,1301,1268,0,0
84,-244,0,0,0,0,0,0,0,0,0,-1,1308,1268,0,0
91,-244,0,0,0,0,0,0,0,0,0,-1,1315,1268,0,0
98,-244,0,0,0,0,0,0,0,0,0,-1,1322,1268,0,0
105,-244,0,0,0,0,0,0,0,0,0,-1,1329,1268,0,0
112,-244,0,0,0,0,0,0,0,0,0,-1,1336,1268,0,0
119,-244,0,0,0,0,0,0,0,0,0,-1,1343,1268,0,0
126,-244,0,0,0,0,0,0,0,0,0,-1,1350,1268,0,0
133,-244,0,0,0,0,0,0,0,0,0,-1,1357,1268,0,0
140,-244,0,0,0,0,0,0,0,0,0,-1,1364,1268,0,0
147,-244,0,0,0,0,0,0,0,0,0,-1,1371,1268,0,0
154,-244,0,0,0,0,0,0,0,0,0,-1,1378,1268,0,0
161,-244,0,0,0,0,0,0,0,0,0,-1,1385,1268,0,0
168,-244,0,0,0,0,0,0,0,0,0,-1,1392,1268,0,0
175,-244,0,0,0,0,0,0,0,0,0,-1,1399,1268,0,0
182,-244,0,0,0,0,0,0,0,0,0,-1,1406,1268,0,0
189,-244,0,0,0,0,0,0,0,0,0,-1,1413,1268,0,0
196,-244,0,0,0,0,0,0,0,0,0,-1,1420,1268,0,0
203,-244,0,0,0,0,0,0,0,0,0,-1,1427,1268,0,0
210,-244,0,0,0,0,0,0,0,0,0,-1,1434,1268,0,0
217,-244,0,0,0,0,0,0,0,0,0,-1,1441,1268,0,0
224,-244,0,0,0,0,0,0,0,0,0,-1,1448,1268,0,0
231,-244,0,0,0,0,0,0,0,0,0,-1,1455,1268,0,0
238,-244,0,0,0,0,0,0,0,0,0,-1,1462,1268,0,0
245,-244,0,0,0,0,0,0,0,0,0,-1,1469,1268,0,0
252,-244,0,0,0,0,0,0,0,0,0,-1,1476,1268,0,0
259,-244,0,0,0,0,0,0,0,0,0,-1,1483,1268,0,0
266,-244,0,0,0,0,0,0,0,0,0,-1,1490,1268,0,0
273,-244,0,0,0,0,0,0,0,0,0,-1,1497,1268,0,0
280,-244,0,0,0,0,0,0,0,0,0,-1,1504,1268,0,0
287,-244,0,0,0,0,0,0,0,0,0,-1,1511,1268,0,0
294,-244,0,0,0,0,0,0,0,0,0,-1,1518,1268,0,0
301,-244,0,0,0,0,0,0,0,0,0,-1,1525,1268,0,0
308,-244,0,0,0,0,0,0,0,0,0,-1,1532,1268,0,0
315,-244,0,0,0,0,0,0,0,0,0,-1,1539,1268,0,0
322,-244,0,0,0,0,0,0,0,0,0,-1,1546,1268,0,0
329,-244,0,0,0,0,0,0,0,0,0,-1,1553,1268,0,0
336,-244,0,0,0,0,0,0,0,0,0,-1,1560,1268,0,0
343,-244,0,0,0,0,0,0,0,0,0,-1,1567,1268,0,0
350,-244,0,0,0,0,0,0,0,0,0,-1,1574,1268,0,0
357,-244,0,0,0,0,0,0,0,0,0,-1,1581,1268,0,0
364,-244,0,0,0,0,0,0,0,0,0,-1,1588,1268,0,0
371,-244,0,0,0,0,0,0,0,0,0,-1,1595,1268,0,0
378,-244,0,0,0,0,0,0,0,0,0,-1,1602,1268,0,0
385,-244,0,0,0,0,0,0,0,0,0,-1,1609,1268,0,0
392,-244,0,0,0,0,0,0,0,0,0,-1,1616,1268,0,0
399,-244,0,0,0,0,0,0,0,0,0,-1,1623,1268,0,0
406,-244,0,0,0,0,0,0,0,0,0,-1,1630,1268,0,0
413,-244,0,0,0,0,0,0,0,0,0,-1,1637,1268,0,0
420,-244,0,0,0,0,0,0,0,0,0,-1,1644,1268,0,0
427,-244,0,0,0,0,0,0,0,0,0,-1,1651,1268,0,0
434,-244,0,0,0,0,0,0,0,0,0,-1,1658,1268,0,0
441,-244,0,0,0,0,0,0,0,0,0,-1,1665,1268,0,0
448,-244,0,0,0,0,0,0,0,0,0,-1,1672,1268,0,0
455,-244,0,0,0,0,0,0,0,0,0,-1,1679,1268,0,0
462,-244,0,0,0,0,0,0,0,0,0,-1,1686,1268,0,0
469,-244,0,0,0,0,0,0,0,0,0,-1,1693,1268,0,0
476,-244,0,0,0,0,0,0,0,0,0,-1,1700,1268,0,0
483,-244,0,0,0,0,0,0,0,0,0,-1,1707,1268,0,0
490,-244,0,0,0,0,0,0,0,0,0,-1,1714,1268,0,0
497,-244,0,0,0,0,0,0,0,0,0,-1,1721,1268,0,0
504,-244,0,0,0,0,0,0,0,0,0,-1,1728,1268,0,0
511,-244,0,0,0,0,0,0,0,0,0,-1,1735,1268,0,0
518,-244,0,0,0,0,0,0,0,0,0,-1,1742,1268,0,0
525,-244,0,0,0,0,0,0,0,0,0,-1,1749,1268,0,0
532,-244,0,0,0,0,0,0,0,0,0,-1,1756,1268,0,0
539,-244,0,0,0,0,0,0,0,0,0,-1,1763,1268,0,0
546,-244,0,0,0,0,0,0,0,0,0,-1,1770,1268,0,0
553,-244,0,0,0,0,0,0,0,0,0,-1,1777,1268,0,0
560,-244,0,0,0,0,0,0,0,0,0,-1,1784,1268,0,0
567,-244,0,0,0,0,0,0,0,0,0,-1,1791,1268,0,0
574,-244,0,0,0,0,0,0,0,0,0,-1,1798,1268,0,0
581,-244,0,0,0,0,0,0,0,0,0,-1,1805,1268,0,0
588,-244,0,0,0,0,0,0,0,0,0,-1,1812,1268,0,0
595,-244,0,0,0,0,0,0,0,0,0,-1,1819,1268,0,0
602,-244,0,0,0,0,0,0,0,0,0,-1,1826,1268,0,0
609,-244,0,0,0,0,0,0,0,0,0,-1,1833,1268,0,0
616,-244,0.0186768,-0.0473633,-0.00273798,0.00533407,-0.0026971,0.00615231,-0.00355622,-1.27625,0.00567162,0.0311038,1840,1268,0.0186674,0.0473852
623,-244,-0.0211182,-0.107666,-0.00337105,0.00528859,-0.00149231,0.00553854,-0.003621,-1.40484,0.00532676,0.0236341,1847,1268,-0.0210766,0.107659
630,-244,-0.0100098,-0.071167,-0.00361138,0.00503369,-0.000655647,0.00508314,-0.00366082,-1.49553,0.00507054,0.021311,1854,1268,-0.0099545,0.0711426
637,-244,0.0296631,-0.0250244,-0.0037368,0.00472964,-0.000134731,0.00473178,-0.00373894,-1.55489,0.00490176,0.0319386,1861,1268,0.02972,0.0250725
644,-244,-0.0789795,-0.0383301,-0.00370104,0.00435865,0.000164556,0.00436201,-0.00370439,1.55039,0.00466229,0.0374657,1868,1268,-0.0789197,0.038374
651,-244,-0.193726,-0.131958,-0.00351476,0.00400268,0.000317752,0.00401608,-0.00352816,1.52863,0.00435871,0.0432628,1875,1268,-0.193732,0.131967
658,-244,-0.360352,-0.0800781,-0.0031988,0.00362574,0.000376791,0.00364648,-0.00321954,1.51581,0.00396666,0.0492096,1882,1268,-0.360406,0.0800892
665,-244,-0.452026,0.026001,0,0,0,0,0,0,0,-1,1889,1268,-0.452083,-0.0260525
672,-244,0.0179443,-0.0776367,-0.002423,0.0028345,0.000323549,0.00285433,-0.00244284,1.50956,0.0030614,0.0456643,1896,1268,0.0179627,0.0776486
679,-244,0.0100098,-0.0640869,-0.00208176,0.002462,0.00022949,0.00247356,-0.00209333,1.52046,0.00263974,0.0366079,1903,1268,0.00997569,0.0640568
686,-244,-0.0393066,-0.0766602,-0.00187278,0.00202321,7.81183e-05,0.00202477,-0.00187435,1.55076,0.00225172,0.0179095,1910,1268,-0.0393058,0.0766871
693,-244,-0.0543213,-0.06604,-0.00153359,0.00162275,-8.73904e-06,0.00162278,-0.00153361,-1.56803,0.00182258,0.00873789,1917,1268,-0.0543295,0.0660921
700,-244,-0.0397949,-0.0737305,-0.00105941,0.00131933,-0.000158763,0.00132988,-0.00106996,-1.50445,0.00138826,0.00798574,1924,1268,-0.0398164,0.0737346
707,-244,-0.00842285,-0.06604,-0.000851909,0.00111554,-0.000414488,0.0011993,-0.000935665,-1.37141,0.00123575,0.00895432,1931,1268,-0.00839986,0.0660924
714,-244,0.00134277,-0.0604248,-0.000768392,0.000774667,-0.000727391,0.00106349,-0.00105722,-1.19282,0.0012244,0.00895311,1938,1268,0.00135191,0.0603972
721,-244,-0.0211182,-0.0599365,-0.000682741,0.000452394,-0.000825711,0.00088679,-0.00111714,-1.0865,0.00115951,0.00970906,1945,1268,-0.0211268,0.0599037
728,-244,-0.0245361,-0.0892334,-0.000647905,0.000194455,-0.00105234,0.000906767,-0.00136022,-0.975752,0.00131754,0.0133368,1952,1268,-0.0245961,0.0892079
735,-244,-0.0444336,-0.135376,-0.000458817,-0.000476605,-0.00149794,0.00103026,-0.00196568,-0.782429,0.00175759,0.0205742,1959,1268,-0.044431,0.13541
742,-244,-0.0201416,-0.0858154,-0.000193567,-0.00119792,-0.0022901,0.00164876,-0.00304025,-0.677465,0.00274665,0.015474,1966,1268,-0.0202011,0.085766
749,-244,-0.0301514,-0.0673828,2.23728e-05,-0.00211445,-0.00310933,0.00224173,-0.0043338,-0.619911,0.0038599,0.0173949,1973,1268,-0.0300986,0.0674189
756,-244,-0.121094,-0.117432,0.000368439,-0.00358781,-0.0041252,0.00296527,-0.00618464,-0.561832,0.0053906,0.0217502,1980,1268,-0.121153,0.117409
763,-244,-0.159912,-0.21106,0.000942942,-0.00581449,-0.00541622,0.00394789,-0.00881944,-0.506525,0.00754797,0.0350565,1987,1268,-0.159887,0.21109
770,-244,-0.136353,-0.0847168,0,0,0,0,0,0,0,-1,1994,1268,-0.136314,0.0847268
777,-244,0.759399,1.4657,0,0,0,0,0,0,0,-1,2001,1268,0.75935,-1.46567
784,-244,0.744873,1.25256,0,0,0,0,0,0,0,-1,2008,1268,0.744855,-1.25253
791,-244,0,0,0,0,0,0,0,0,0,-1,2015,1268,0,0
798,-244,0,0,0,0,0,0,0,0,0,-1,2022,1268,0,0
805,-244,0,0,0,0,0,0,0,0,0,-1,2029,1268,0,0
812,-244,0,0,0,0,0,0,0,0,0,-1,2036,1268,0,0
-700,-251,0,0,0,0,0,0,0,0,0,-1,524,1275,0,0
-693,-251,0,0,0,0,0,0,0,0,0,-1,531,1275,0,0
-686,-251,0,0,0,0,0,0,0,0,0,-1,538,1275,0,0
-679,-251,0,0,0,0,0,0,0,0,0,-1,545,1275,0,0
-672,-251,0,0,0,0,0,0,0,0,0,-1,552,1275,0,0
-665,-251,0.91095,-1.22241,-0.0054841,0.0209789,0.0157709,0.0283336,-0.0128389,1.13443,0.0243256,0.0410769,559,1275,0.910921,1.22237
-658,-251,0.677612,-0.696777,-0.00466371,0.0154775,0.0113169,0.0205558,-0.00974202,1.14899,0.01786,0.045283,566,1275,0.677603,0.69676
-651,-251,0.495605,-0.546631,-0.00331039,0.0114406,0.00805853,0.0149893,-0.00685908,1.15598,0.012902,0.0461224,573,1275,0.495589,0.546667
-644,-251,0.213379,-0.411499,-0.00185431,0.00850107,0.00563497,0.0109759,-0.00432915,1.15696,0.00910992,0.0429843,580,1275,0.213376,0.411512
-637,-251,-0.122437,-0.0799561,-0.00051244,0.00634957,0.00384686,0.00807319,-0.00223606,1.14956,0.006262,0.0425869,587,1275,-0.122427,0.0799362
-630,-251,-0.295654,-0.0758057,0.000551087,0.00475555,0.00254676,0.00595564,-0.000649008,1.13043,0.0042035,0.042477,594,1275,-0.295673,0.0758284
-623,-251,-0.182922,-0.0736084,0.00135249,0.00322899,0.00165369,0.00419206,0.000389423,1.04344,0.00267436,0.0371941,601,1275,-0.182895,0.0735889
-616,-251,-0.03125,-0.0548096,0.00177398,0.00212118,0.00103299,0.00299506,0.000900107,0.868649,0.00177447,0.0203769,608,1275,-0.031268,0.0548106
-609,-251,-0.0350952,-0.0900879,0.00155678,0.00178056,0.000367424,0.00205275,0.00128459,0.933196,0.00119759,0.0167414,615,1275,-0.0350739,0.0900836
-602,-251,-0.0322266,-0.0722656,0.00201755,0.00106132,0.000118856,0.0020321,0.00104677,0.121827,0.00117341,0.0125935,622,1275,-0.032236,0.0722706
-595,-251,-0.0273438,-0.0716553,0.00264322,0.000516938,2.94888e-05,0.00264363,0.000516529,0.0138652,0.00161796,0.011143,629,1275,-0.0273685,0.0716838
-588,-251,-0.0184937,-0.0738525,0.00266041,-7.11055e-07,-0.000100615,0.00266421,-4.50981e-06,-0.0377375,0.00177765,0.0126876,636,1275,-0.0184852,0.0737957
-581,-251,-0.0186768,-0.0601807,0.00227424,-0.00111204,-0.00017383,0.00228314,-0.00112094,-0.0511543,0.00200317,0.012816,643,1275,-0.0186515,0.0601907
-574,-251,-0.012085,-0.0501709,0.00188804,-0.00257177,0.000191713,0.00189627,-0.00258,0.0428815,0.0025944,0.0118504,650,1275,-0.0121097,0.0501522
-567,-251,-0.019104,-0.0665283,0.00169383,-0.00387486,0.000509214,0.00174001,-0.00392104,0.0904427,0.00334829,0.00954293,657,1275,-0.0190789,0.0665223
-560,-251,-0.0246582,-0.0772705,0.00153415,-0.00631157,0.000860919,0.00162751,-0.00640492,0.108019,0.00490333,0.00943782,664,1275,-0.0246344,0.0772813
-553,-251,0.00683594,-0.0803223,0.00160524,-0.00793335,0.00103235,0.0017157,-0.0080438,0.106585,0.00601653,0.0215629,671,1275,0.00682621,0.0802854
-546,-251,0.0411377,0.0152588,0.00167613,-0.00963087,0.00121066,0.00180431,-0.00975904,0.105478,0.0071834,0.042186,678,1275,0.0411657,-0.015236
-539,-251,-0.0366211,0.0383301,0.00186489,-0.0112773,0.00115623,0.00196584,-0.0113782,0.0870873,0.00831856,0.04553,685,1275,-0.0366225,-0.0383566
-532,-251,0.0286865,-0.309082,0.00175676,-0.01274,0.00120517,0.00185627,-0.0128395,0.0823801,0.0092408,0.0460014,692,1275,0.0286616,0.309052
-525,-251,0.383484,-1.01538,0.00143742,-0.0137143,0.00127286,0.00154361,-0.0138204,0.0832303,0.0097689,0.0482121,699,1275,0.383468,1.01544
-518,-251,0.359131,-0.459473,0.00123256,-0.0137993,0.00100269,0.00129915,-0.0138659,0.066313,0.00970602,0.0461333,706,1275,0.359139,0.459434
-511,-251,0.141296,-0.252808,0.000903215,-0.0125772,0.000439395,0.000917522,-0.0125915,0.032549,0.00871629,0.0408767,713,1275,0.141317,0.252868
-504,-251,-0.0744629,0.0943604,0.000390191,-0.00962996,-0.000454116,0.00041073,-0.0096505,-0.0451968,0.00657485,0.0394248,720,1275,-0.0744542,-0.0943323
-497,-251,-0.0761108,0.00720215,-0.000314027,-0.00445668,-0.00172741,0.000311746,-0.00508245,-0.347555,0.00349685,0.0430103,727,1275,-0.076125,-0.00717599
-490,-251,0,0,0,0,0,0,0,0,0,-1,734,1275,0,0
-483,-251,0,0,0,0,0,0,0,0,0,-1,741,1275,0,0
-476,-251,0,0,0,0,0,0,0,0,0,-1,748,1275,0,0
-469,-251,0,0,0,0,0,0,0,0,0,-1,755,1275,0,0
-462,-251,0,0,0,0,0,0,0,0,0,-1,762,1275,0,0
-455,-251,0,0,0,0,0,0,0,0,0,-1,769,1275,0,0
-448,-251,0,0,0,0,0,0,0,0,0,-1,776,1275,0,0
-441,-251,0,0,0,0,0,0,0,0,0,-1,783,1275,0,0
-434,-251,0,0,0,0,0,0,0,0,0,-1,790,1275,0,0
-427,-251,0,0,0,0,0,0,0,0,0,-1,797,1275,0,0
-420,-251,0,0,0,0,0,0,0,0,0,-1,804,1275,0,0
-413,-251,0,0,0,0,0,0,0,0,0,-1,811,1275,0,0
-406,-251,0,0,0,0,0,0,0,0,0,-1,818,1275,0,0
-399,-251,0,0,0,0,0,0,0,0,0,-1,825,1275,0,0
-392,-251,0,0,0,0,0,0,0,0,0,-1,832,1275,0,0
-385,-251,0,0,0,0,0,0,0,0,0,-1,839,1275,0,0
-378,-251,0,0,0,0,0,0,0,0,0,-1,846,1275,0,0
-371,-251,0,0,0,0,0,0,0,0,0,-1,853,1275,0,0
-364,-251,0,0,0,0,0,0,0,0,0,-1,860,1275,0,0
-357,-251,0,0,0,0,0,0,0,0,0,-1,867,1275,0,0
-350,-251,0,0,0,0,0,0,0,0,0,-1,874,1275,0,0
-343,-251,0,0,0,0,0,0,0,0,0,-1,881,1275,0,0
-336,-251,0,0,0,0,0,0,0,0,0,-1,888,1275,0,0
-329,-251,0,0,0,0,0,0,0,0,0,-1,895,1275,0,0
-322,-251,0,0,0,0,0,0,0,0,0,-1,902,1275,0,0
-315,-251,0,0,0,0,0,0,0,0,0,-1,909,1275,0,0
-308,-251,0,0,0,0,0,0,0,0,0,-1,916,1275,0,0
-301,-251,0,0,0,0,0,0,0,0,0,-1,923,1275,0,0
-294,-251,0,0,0,0,0,0,0,0,0,-1,930,1275,0,0
-287,-251,0,0,0,0,0,0,0,0,0,-1,937,1275,0,0
-280,-251,0,0,0,0,0,0,0,0,0,-1,944,1275,0,0
-273,-251,0,0,0,0,0,0,0,0,0,-1,951,1275,0,0
-266,-251,0,0,0,0,0,0,0,0,0,-1,958,1275,0,0
-259,-251,0,0,0,0,0,0,0,0,0,-1,965,1275,0,0
-252,-251,0,0,0,0,0,0,0,0,0,-1,972,1275,0,0
-245,-251,0,0,0,0,0,0,0,0,0,-1,979,1275,0,0
-238,-251,0,0,0,0,0,0,0,0,0,-1,986,1275,0,0
-231,-251,0,0,0,0,0,0,0,0,0,-1,993,1275,0,0
-224,-251,0,0,0,0,0,0,0,0,0,-1,1000,1275,0,0
-217,-251,0,0,0,0,0,0,0,0,0,-1,1007,1275,0,0
-210,-251,0,0,0,0,0,0,0,0,0,-1,1014,1275,0,0
-203,-251,0,0,0,0,0,0,0,0,0,-1,1021,1275,0,0
-196,-251,0,0,0,0,0,0,0,0,0,-1,1028,1275,0,0
-189,-251,0,0,0,0,0,0,0,0,0,-1,1035,1275,0,0
-182,-251,0,0,0,0,0,0,0,0,0,-1,1042,1275,0,0
-175,-251,0,0,0,0,0,0,0,0,0,-1,1049,1275,0,0
-168,-251,0,0,0,0,0,0,0,0,0,-1,1056,1275,0,0
-161,-251,0,0,0,0,0,0,0,0,0,-1,1063,1275,0,0
-154,-251,0,0,0,0,0,0,0,0,0,-1,1070,1275,0,0
-147,-251,0,0,0,0,0,0,0,0,0,-1,1077,1275,0,0
-140,-251,0,0,0,0,0,0,0,0,0,-1,1084,1275,0,0
-133,-251,0,0,0,0,0,0,0,0,0,-1,1091,1275,0,0
-126,-251,0,0,0,0,0,0,0,0,0,-1,1098,1275,0,0
-119,-251,0,0,0,0,0,0,0,0,0,-1,1105,1275,0,0
-112,-251,0,0,0,0,0,0,0,0,0,-1,1112,1275,0,0
-105,-251,0,0,0,0,0,0,0,0,0,-1,1119,1275,0,0
-98,-251,0,0,0,0,0,0,0,0,0,-1,1126,1275,0,0
-91,-251,0,0,0,0,0,0,0,0,0,-1,1133,1275,0,0
-84,-251,0,0,0,0,0,0,0,0,0,-1,1140,1275,0,0
-77,-251,0,0,0,0,0,0,0,0,0,-1,1147,1275,0,0
-70,-251,0,0,0,0,0,0,0,0,0,-1,1154,1275,0,0
-63,-251,0,0,0,0,0,0,0,0,0,-1,1161,1275,0,0
-56,-251,0,0,0,0,0,0,0,0,0,-1,1168,1275,0,0
-49,-251,0,0,0,0,0,0,0,0,0,-1,1175,1275,0,0
-42,-251,0,0,0,0,0,0,0,0,0,-1,1182,1275,0,0
-35,-251,0,0,0,0,0,0,0,0,0,-1,1189,1275,0,0
-28,-251,0,0,0,0,0,0,0,0,0,-1,1196,1275,0,0
-21,-251,0,0,0,0,0,0,0,0,0,-1,1203,1275,0,0
-14,-251,0,0,0,0,0,0,0,0,0,-1,1210,1275,0,0
-7,-251,0,0,0,0,0,0,0,0,0,-1,1217,1275,0,0
0,-251,0,0,0,0,0,0,0,0,0,-1,1224,1275,0,0
7,-251,0,0,0,0,0,0,0,0,0,-1,1231,1275,0,0
14,-251,0,0,0,0,0,0,0,0,0,-1,1238,1275,0,0
21,-251,0,0,0,0,0,0,0,0,0,-1,1245,1275,0,0
28,-251,0,0,0,0,0,0,0,0,0,-1,1252,1275,0,0
35,-251,0,0,0,0,0,0,0,0,0,-1,1259,1275,0,0
42,-251,0,0,0,0,0,0,0,0,0,-1,1266,1275,0,0
49,-251,0,0,0,0,0,0,0,0,0,-1,1273,1275,0,0
56,-251,0,0,0,0,0,0,0,0,0,-1,1280,1275,0,0
63,-251,0,0,0,0,0,0,0,0,0,-1,1287,1275,0,0
70,-251,0,0,0,0,0,0,0,0,0,-1,1294,1275,0,0
77,-251,0,0,0,0,0,0,0,0,0,-1,1301,1275,0,0
84,-251,0,0,0,0,0,0,0,0,0,-1,1308,1275,0,0
91,-251,0,0,0,0,0,0,0,0,0,-1,1315,1275,0,0
98,-251,0,0,0,0,0,0,0,0,0,-1,1322,1275,0,0
105,-251,0,0,0,0,0,0,0,0,0,-1,1329,1275,0,0
112,-251,0,0,0,0,0,0,0,0,0,-1,1336,1275,0,0
119,-251,0,0,0,0,0,0,0,0,0,-1,1343,1275,0,0
126,-251,0,0,0,0,0,0,0,0,0,-1,1350,1275,0,0
133,-251,0,0,0,0,0,0,0,0,0,-1,1357,1275,0,0
140,-251,0,0,0,0,0,0,0,0,0,-1,1364,1275,0,0
147,-251,0,0,0,0,0,0,0,0,0,-1,1371,1275,0,0
154,-251,0,0,0,0,0,0,0,0,0,-1,1378,1275,0,0
161,-251,0,0,0,0,0,0,0,0,0,-1,1385,1275,0,0
168,-251,0,0,0,0,0,0,0,0,0,-1,1392,1275,0,0
175,-251,0,0,0,0,0,0,0,0,0,-1,1399,1275,0,0
182,-251,0,0,0,0,0,0,0,0,0,-1,1406,1275,0,0
189,-251,0,0,0,0,0,0,0,0,0,-1,1413,1275,0,0
196,-251,0,0,0,0,0,0,0,0,0,-1,1420,1275,0,0
203,-251,0,0,0,0,0,0,0,0,0,-1,1427,1275,0,0
210,-251,0,0,0,0,0,0,0,0,0,-1,1434,1275,0,0
217,-251,0,0,0,0,0,0,0,0,0,-1,1441,1275,0,0
224,-251,0,0,0,0,0,0,0,0,0,-1,1448,1275,0,0
231,-251,0,0,0,0,0,0,0,0,0,-1,1455,1275,0,0
238,-251,0,0,0,0,0,0,0,0,0,-1,1462,1275,0,0
245,-251,0,0,0,0,0,0,0,0,0,-1,1469,1275,0,0
252,-251,0,0,0,0,0,0,0,0,0,-1,1476,1275,0,0
259,-251,0,0,0,0,0,0,0,0,0,-1,1483,1275,0,0
266,-251,0,0,0,0,0,0,0,0,0,-1,1490,1275,0,0
273,-251,0,0,0,0,0,0,0,0,0,-1,1497,1275,0,0
280,-251,0,0,0,0,0,0,0,0,0,-1,1504,1275,0,0
287,-251,0,0,0,0,0,0,0,0,0,-1,1511,1275,0,0
294,-251,0,0,0,0,0,0,0,0,0,-1,1518,1275,0,0
301,-251,0,0,0,0,0,0,0,0,0,-1,1525,1275,0,0
308,-251,0,0,0,0,0,0,0,0,0,-1,1532,1275,0,0
315,-251,0,0,0,0,0,0,0,0,0,-1,1539,1275,0,0
322,-251,0,0,0,0,0,0,0,0,0,-1,1546,1275,0,0
329,-251,0,0,0,0,0,0,0,0,0,-1,1553,1275,0,0
336,-251,0,0,0,0,0,0,0,0,0,-1,1560,1275,0,0
343,-251,0,0,0,0,0,0,0,0,0,-1,1567,1275,0,0
350,-251,0,0,0,0,0,0,0,0,0,-1,1574,1275,0,0
357,-251,0,0,0,0,0,0,0,0,0,-1,1581,1275,0,0
364,-251,0,0,0,0,0,0,0,0,0,-1,1588,1275,0,0
371,-251,0,0,0,0,0,0,0,0,0,-1,1595,1275,0,0
378,-251,0,0,0,0,0,0,0,0,0,-1,1602,1275,0,0
385,-251,0,0,0,0,0,0,0,0,0,-1,1609,1275,0,0
392,-251,0,0,0,0,0,0,0,0,0,-1,1616,1275,0,0
399,-251,0,0,0,0,0,0,0,0,0,-1,1623,1275,0,0
406,-251,0,0,0,0,0,0,0,0,0,-1,1630,1275,0,0
413,-251,0,0,0,0,0,0,0,0,0,-1,1637,1275,0,0
420,-251,0,0,0,0,0,0,0,0,0,-1,1644,1275,0,0
427,-251,0,0,0,0,0,0,0,0,0,-1,1651,1275,0,0
434,-251,0,0,0,0,0,0,0,0,0,-1,1658,1275,0,0
441,-251,0,0,0,0,0,0,0,0,0,-1,1665,1275,0,0
448,-251,0,0,0,0,0,0,0,0,0,-1,1672,1275,0,0
455,-251,0,0,0,0,0,0,0,0,0,-1,1679,1275,0,0
462,-251,0,0,0,0,0,0,0,0,0,-1,1686,1275,0,0
469,-251,0,0,0,0,0,0,0,0,0,-1,1693,1275,0,0
476,-251,0,0,0,0,0,0,0,0,0,-1,1700,1275,0,0
483,-251,0,0,0,0,0,0,0,0,0,-1,1707,1275,0,0
490,-251,0,0,0,0,0,0,0,0,0,-1,1714,1275,0,0
497,-251,0,0,0,0,0,0,0,0,0,-1,1721,1275,0,0
504,-251,0,0,0,0,0,0,0,0,0,-1,1728,1275,0,0
511,-251,0,0,0,0,0,0,0,0,0,-1,1735,1275,0,0
518,-251,0,0,0,0,0,0,0,0,0,-1,1742,1275,0,0
525,-251,0,0,0,0,0,0,0,0,0,-1,1749,1275,0,0
532,-251,0,0,0,0,0,0,0,0,0,-1,1756,1275,0,0
539,-251,0,0,0,0,0,0,0,0,0,-1,1763,1275,0,0
546,-251,0,0,0,0,0,0,0,0,0,-1,1770,1275,0,0
553,-251,0,0,0,0,0,0,0,0,0,-1,1777,1275,0,0
560,-251,0,0,0,0,0,0,0,0,0,-1,1784,1275,0,0
567,-251,0,0,0,0,0,0,0,0,0,-1,1791,1275,0,0
574,-251,0,0,0,0,0,0,0,0,0,-1,1798,1275,0,0
581,-251,0,0,0,0,0,0,0,0,0,-1,1805,1275,0,0
588,-251,0,0,0,0,0,0,0,0,0,-1,1812,1275,0,0
595,-251,0,0,0,0,0,0,0,0,0,-1,1819,1275,0,0
602,-251,0,0,0,0,0,0,0,0,0,-1,1826,1275,0,0
609,-251,0.00439453,-0.106201,-0.00234431,0.0086079,-0.00300638,0.00937888,-0.00311529,-1.31976,0.00750959,0.0284877,1833,1275,0.00439808,0.106178
616,-251,0.0144043,-0.0715332,-0.00241399,0.00777259,-0.00129313,0.00793418,-0.00257558,-1.44648,0.00632526,0.0248882,1840,1275,0.01446,0.0715589
623,-251,-0.0300293,-0.0864258,-0.00282145,0.00679178,-0.000375636,0.00680643,-0.0028361,-1.5318,0.00572227,0.0204796,1847,1275,-0.0299888,0.0864121
630,-251,0.0300293,-0.0402832,-0.00319022,0.00581668,0.000134171,0.00581868,-0.00319222,1.5559,0.0052756,0.0306152,1854,1275,0.0300534,0.0402357
637,-251,0.163208,0.027832,-0.00352631,0.00494584,0.000378487,0.00496272,-0.00354318,1.52624,0.00493363,0.0385475,1861,1275,0.163261,-0.0278185
644,-251,-0.131592,-0.307129,-0.0036983,0.00419989,0.000469062,0.00422765,-0.00372606,1.51168,0.00459512,0.0431966,1868,1275,-0.131593,0.307135
651,-251,-0.359497,-0.411377,-0.00369898,0.0036273,0.000488736,0.00365976,-0.00373144,1.50448,0.00426738,0.0456874,1875,1275,-0.359544,0.411384
658,-251,-0.56958,-0.0981445,-0.00350871,0.003015,0.000433351,0.00304366,-0.00353737,1.50476,0.00380312,0.0494113,1882,1275,-0.569634,0.0980909
665,-251,-0.650513,0.354736,0,0,0,0,0,0,0,-1,1889,1275,-0.650475,-0.354745
672,-251,0.0339355,-0.165039,-0.00289657,0.00222326,0.000292507,0.00223992,-0.00291322,1.51391,0.00298362,0.0428594,1896,1275,0.0339528,0.165028
679,-251,-0.0273438,-0.134888,-0.00250116,0.0019336,0.000222812,0.00194476,-0.00251233,1.52072,0.00258025,0.0348889,1903,1275,-0.0272883,0.134834
686,-251,-0.0672607,-0.0793457,-0.00226224,0.00157522,8.4509e-05,0.00157708,-0.0022641,1.54879,0.0022295,0.0151208,1910,1275,-0.0672378,0.0793521
693,-251,-0.0424805,-0.0507813,-0.00186052,0.00126449,1.02598e-05,0.00126452,-0.00186056,1.56751,0.00181517,0.0082173,1917,1275,-0.0425243,0.0508023
700,-251,-0.0280762,-0.0532227,-0.00123206,0.0010404,-0.000139446,0.00104892,-0.00124058,-1.50974,0.00132339,0.00749628,1924,1275,-0.0280681,0.0532701
707,-251,-0.00305176,-0.0576172,-0.000916578,0.000921773,-0.000406221,0.00100754,-0.00100234,-1.36273,0.0011604,0.00972259,1931,1275,-0.00307711,0.0575909
714,-251,0.000854492,-0.0561523,-0.000792615,0.000556361,-0.000769244,0.000904942,-0.0011412,-1.14533,0.00118396,0.0097001,1938,1275,0.000814242,0.0560998
721,-251,-0.0229492,-0.0673828,-0.000670537,0.000209067,-0.000940607,0.000807614,-0.00126908,-1.00408,0.00120881,0.00897587,1945,1275,-0.0229837,0.0674011
728,-251,-0.0379639,-0.0895996,-0.000637635,-6.86445e-05,-0.00128077,0.000958851,-0.00166513,-0.894688,0.00153314,0.00994779,1952,1275,-0.0380111,0.0895919
735,-251,-0.0339355,-0.112793,-0.000510315,-0.000738576,-0.00185785,0.00123691,-0.0024858,-0.754721,0.00218925,0.0126263,1959,1275,-0.0339849,0.1128
742,-251,-0.0251465,-0.0755615,-0.000346078,-0.00151964,-0.00275493,0.00188387,-0.00374959,-0.68047,0.0033114,0.014348,1966,1275,-0.0251423,0.0755033
749,-251,-0.0411377,-0.0915527,-0.000242177,-0.00251444,-0.00372792,0.00251889,-0.00527551,-0.637488,0.00459295,0.0210731,1973,1275,-0.0410804,0.091582
756,-251,-0.164795,-0.193726,-2.4488e-05,-0.00406546,-0.00493504,0.00328766,-0.00737761,-0.5911,0.00630671,0.0362223,1980,1275,-0.164738,0.193693
763,-251,-0.144287,-0.377197,0.000391147,-0.00637539,-0.00645258,0.00429364,-0.0102779,-0.543938,0.00864612,0.0429067,1987,1275,-0.144249,0.377175
770,-251,-0.074707,-0.329956,0.00100438,-0.00970776,-0.0083934,0.00560505,-0.0143084,-0.501406,0.0118574,0.0433278,1994,1275,-0.0747453,0.329906
777,-251,-0.0767822,-0.237305,0,0,0,0,0,0,0,-1,2001,1275,-0.076818,0.237343
784,-251,0.844116,1.22217,0,0,0,0,0,0,0,-1,2008,1275,0.844136,-1.22214
791,-251,0,0,0,0,0,0,0,0,0,-1,2015,1275,0,0
798,-251,0,0,0,0,0,0,0,0,0,-1,2022,1275,0,0
805,-251,0,0,0,0,0,0,0,0,0,-1,2029,1275,0,0
812,-251,0,0,0,0,0,0,0,0,0,-1,2036,1275,0,0
-700,-258,0,0,0,0,0,0,0,0,0,-1,524,1282,0,0
-693,-258,0,0,0,0,0,0,0,0,0,-1,531,1282,0,0
-686,-258,0,0,0,0,0,0,0,0,0,-1,538,1282,0,0
-679,-258,0,0,0,0,0,0,0,0,0,-1,545,1282,0,0
-672,-258,0,0,0,0,0,0,0,0,0,-1,552,1282,0,0
-665,-258,0.550476,-0.985229,-0.00504453,0.0136542,0.0204493,0.0267901,-0.0181804,0.99981,0.0261218,0.040898,559,1282,0.550486,0.985246
-658,-258,0.812012,-0.421753,-0.00557706,0.0111607,0.0147102,0.0197159,-0.0141323,1.04402,0.0196307,0.0482594,566,1282,0.81202,0.421715
-651,-258,0.565491,-0.224365,-0.00479694,0.00923154,0.0104583,0.01481,-0.0103754,1.08079,0.0146157,0.0481184,573,1282,0.565497,0.224326
-644,-258,0.119751,-0.225098,-0.00349779,0.00770105,0.00726119,0.0112711,-0.0070678,1.11385,0.0106802,0.0425109,580,1282,0.119758,0.225126
-637,-258,-0.112732,-0.103638,-0.00206558,0.00640837,0.00488729,0.00863959,-0.0042968,1.14252,0.00760782,0.0413167,587,1282,-0.112727,0.103684
-630,-258,-0.35437,-0.117065,-0.000781227,0.00526729,0.00315876,0.00661612,-0.00213006,1.16722,0.00526637,0.0435473,594,1282,-0.35439,0.117034
-623,-258,-0.284546,-0.155151,0.000250579,0.00405383,0.0019619,0.00488446,-0.000580055,1.1703,0.00346588,0.0419036,601,1282,-0.284548,0.155107
-616,-258,-0.0754395,-0.0859375,0.000927603,0.00301209,0.00114353,0.00351708,0.00042261,1.15494,0.00221732,0.0297822,608,1282,-0.0754295,0.0858865
-609,-258,-0.020752,-0.0700684,0.000880861,0.00254449,0.000349349,0.00261488,0.000810478,1.37199,0.00154563,0.0154037,615,1282,-0.0207263,0.0700192
-602,-258,-0.0102539,-0.0758057,0.00145995,0.0017226,-3.76771e-06,0.00172266,0.0014599,-1.55646,0.00107164,0.0127462,622,1282,-0.0102464,0.075772
-595,-258,-0.0257568,-0.0794678,0.0022257,0.000967032,-7.26325e-05,0.00222988,0.000962854,-0.0574514,0.00129141,0.0100787,629,1282,-0.0257673,0.079492
-588,-258,-0.0267944,-0.0943604,0.00240496,0.000354956,-0.000220962,0.00242851,0.00033141,-0.106162,0.00152062,0.0103644,636,1282,-0.0268014,0.0943244
-581,-258,-0.0172729,-0.0855713,0.00215587,-0.000985418,-0.000291509,0.00218269,-0.00101224,-0.0917551,0.00188541,0.0128553,643,1282,-0.0172889,0.0855392
-574,-258,0.000671387,-0.0797119,0.00184828,-0.00272522,0.000117848,0.00185131,-0.00272826,0.0257447,0.00266013,0.0131194,650,1282,0.000699846,0.0796672
-567,-258,-0.00933838,-0.0889893,0.00162944,-0.00417163,0.000457711,0.00166533,-0.00420752,0.0782558,0.00349498,0.0121171,657,1282,-0.0093288,0.088958
-560,-258,-0.027832,-0.0697021,0.00146285,-0.00705707,0.000873372,0.00155145,-0.00714568,0.101108,0.00535636,0.0159787,664,1282,-0.0278574,0.069642
-553,-258,-0.0244141,-0.0469971,0.00167682,-0.00878543,0.000966328,0.00176533,-0.00887394,0.0913337,0.00658377,0.0197625,671,1282,-0.0244035,0.0469786
-546,-258,-0.0115356,-0.0374756,0.00195502,-0.0105447,0.00104689,0.00204209,-0.0106318,0.0829822,0.00785754,0.0398732,678,1282,-0.0115389,0.0374268
-539,-258,-0.111145,0.0776367,0.00236276,-0.0123074,0.000852546,0.00241214,-0.0123568,0.0578547,0.00914853,0.047722,685,1282,-0.111123,-0.0776395
-532,-258,-0.271179,0.222778,0.00236302,-0.0137679,0.00073035,0.00239602,-0.0138009,0.0451532,0.0100945,0.0470033,692,1282,-0.271153,-0.222781
-525,-258,-0.184509,0.193237,0.00208089,-0.0147683,0.000699077,0.00210985,-0.0147972,0.0413955,0.0106381,0.0493868,699,1282,-0.184512,-0.193268
-518,-258,0.0407104,0.0360107,0.00194912,-0.0148572,0.000297287,0.00195438,-0.0148624,0.0176817,0.0106199,0.0482488,706,1282,0.0406976,-0.0360604
-511,-258,0.102356,-0.0869141,0,0,0,0,0,0,0,-1,713,1282,0.102373,0.0868771
-504,-258,-0.249512,0.310425,0.000932214,-0.0110204,-0.0012654,0.00106471,-0.0111529,-0.104327,0.0078144,0.038675,720,1282,-0.249498,-0.310394
-497,-258,-0.147705,0.0948486,-0.000194508,-0.00652615,-0.00238827,0.000605305,-0.00732596,-0.323153,0.00509774,0.0400574,727,1282,-0.147675,-0.0948995
-490,-258,-0.0861206,-0.026001,-0.00210936,4.3894e-05,-0.00356151,0.00268795,-0.00475342,-0.932178,0.00435109,0.0411892,734,1282,-0.0861282,0.0260366
-483,-258,0,0,0,0,0,0,0,0,0,-1,741,1282,0,0
-476,-258,0,0,0,0,0,0,0,0,0,-1,748,1282,0,0
-469,-258,0,0,0,0,0,0,0,0,0,-1,755,1282,0,0
-462,-258,0,0,0,0,0,0,0,0,0,-1,762,1282,0,0
-455,-258,0,0,0,0,0,0,0,0,0,-1,769,1282,0,0
-448,-258,0,0,0,0,0,0,0,0,0,-1,776,1282,0,0
-441,-258,0,0,0,0,0,0,0,0,0,-1,783,1282,0,0
-434,-258,0,0,0,0,0,0,0,0,0,-1,790,1282,0,0
-427,-258,0,0,0,0,0,0,0,0,0,-1,797,1282,0,0
-420,-258,0,0,0,0,0,0,0,0,0,-1,804,1282,0,0
-413,-258,0,0,0,0,0,0,0,0,0,-1,811,1282,0,0
-406,-258,0,0,0,0,0,0,0,0,0,-1,818,1282,0,0
-399,-258,0,0,0,0,0,0,0,0,0,-1,825,1282,0,0
-392,-258,0,0,0,0,0,0,0,0,0,-1,832,1282,0,0
-385,-258,0,0,0,0,0,0,0,0,0,-1,839,1282,0,0
-378,-258,0,0,0,0,0,0,0,0,0,-1,846,1282,0,0
-371,-258,0,0,0,0,0,0,0,0,0,-1,853,1282,0,0
-364,-258,0,0,0,0,0,0,0,0,0,-1,860,1282,0,0
-357,-258,0,0,0,0,0,0,0,0,0,-1,867,1282,0,0
-350,-258,0,0,0,0,0,0,0,0,0,-1,874,1282,0,0
-343,-258,0,0,0,0,0,0,0,0,0,-1,881,1282,0,0
-336,-258,0,0,0,0,0,0,0,0,0,-1,888,1282,0,0
-329,-258,0,0,0,0,0,0,0,0,0,-1,895,1282,0,0
-322,-258,0,0,0,0,0,0,0,0,0,-1,902,1282,0,0
-315,-258,0,0,0,0,0,0,0,0,0,-1,909,1282,0,0
-308,-258,0,0,0,0,0,0,0,0,0,-1,916,1282,0,0
-301,-258,0,0,0,0,0,0,0,0,0,-1,923,1282,0,0
-294,-258,0,0,0,0,0,0,0,0,0,-1,930,1282,0,0
-287,-258,0,0,0,0,0,0,0,0,0,-1,937,1282,0,0
-280,-258,0,0,0,0,0,0,0,0,0,-1,944,1282,0,0
-273,-258,0,0,0,0,0,0,0,0,0,-1,951,1282,0,0
-266,-258,0,0,0,0,0,0,0,0,0,-1,958,1282,0,0
-259,-258,0,0,0,0,0,0,0,0,0,-1,965,1282,0,0
-252,-258,0,0,0,0,0,0,0,0,0,-1,972,1282,0,0
-245,-258,0,0,0,0,0,0,0,0,0,-1,979,1282,0,0
-238,-258,0,0,0,0,0,0,0,0,0,-1,986,1282,0,0
-231,-258,0,0,0,0,0,0,0,0,0,-1,993,1282,0,0
-224,-258,0,0,0,0,0,0,0,0,0,-1,1000,1282,0,0
-217,-258,0,0,0,0,0,0,0,0,0,-1,1007,1282,0,0
-210,-258,0,0,0,0,0,0,0,0,0,-1,1014,1282,0,0
-203,-258,0,0,0,0,0,0,0,0,0,-1,1021,1282,0,0
-196,-258,0,0,0,0,0,0,0,0,0,-1,1028,1282,0,0
-189,-258,0,0,0,0,0,0,0,0,0,-1,1035,1282,0,0
-182,-258,0,0,0,0,0,0,0,0,0,-1,1042,1282,0,0
-175,-258,0,0,0,0,0,0,0,0,0,-1,1049,1282,0,0
-168,-258,0,0,0,0,0,0,0,0,0,-1,1056,1282,0,0
-161,-258,0,0,0,0,0,0,0,0,0,-1,1063,1282,0,0
-154,-258,0,0,0,0,0,0,0,0,0,-1,1070,1282,0,0
-147,-258,0,0,0,0,0,0,0,0,0,-1,1077,1282,0,0
-140,-258,0,0,0,0,0,0,0,0,0,-1,1084,1282,0,0
-133,-258,0,0,0,0,0,0,0,0,0,-1,1091,1282,0,0
-126,-258,0,0,0,0,0,0,0,0,0,-1,1098,1282,0,0
-119,-258,0,0,0,0,0,0,0,0,0,-1,1105,1282,0,0
-112,-258,0,0,0,0,0,0,0,0,0,-1,1112,1282,0,0
-105,-258,0,0,0,0,0,0,0,0,0,-1,1119,1282,0,0
-98,-258,0,0,0,0,0,0,0,0,0,-1,1126,1282,0,0
-91,-258,0,0,0,0,0,0,0,0,0,-1,1133,1282,0,0
-84,-258,0,0,0,0,0,0,0,0,0,-1,1140,1282,0,0
-77,-258,0,0,0,0,0,0,0,0,0,-1,1147,1282,0,0
-70,-258,0,0,0,0,0,0,0,0,0,-1,1154,1282,0,0
-63,-258,0,0,0,0,0,0,0,0,0,-1,1161,1282,0,0
-56,-258,0,0,0,0,0,0,0,0,0,-1,1168,1282,0,0
-49,-258,0,0,0,0,0,0,0,0,0,-1,1175,1282,0,0
-42,-258,0,0,0,0,0,0,0,0,0,-1,1182,1282,0,0
-35,-258,0,0,0,0,0,0,0,0,0,-1,1189,1282,0,0
-28,-258,0,0,0,0,0,0,0,0,0,-1,1196,1282,0,0
-21,-258,0,0,0,0,0,0,0,0,0,-1,1203,1282,0,0
-14,-258,0,0,0,0,0,0,0,0,0,-1,1210,1282,0,0
-7,-258,0,0,0,0,0,0,0,0,0,-1,1217,1282,0,0
0,-258,0,0,0,0,0,0,0,0,0,-1,1224,1282,0,0
7,-258,0,0,0,0,0,0,0,0,0,-1,1231,1282,0,0
14,-258,0,0,0,0,0,0,0,0,0,-1,1238,1282,0,0
21,-258,0,0,0,0,0,0,0,0,0,-1,1245,1282,0,0
28,-258,0,0,0,0,0,0,0,0,0,-1,1252,1282,0,0
35,-258,0,0,0,0,0,0,0,0,0,-1,1259,1282,0,0
42,-258,0,0,0,0,0,0,0,0,0,-1,1266,1282,0,0
49,-258,0,0,0,0,0,0,0,0,0,-1,1273,1282,0,0
56,-258,0,0,0,0,0,0,0,0,0,-1,1280,1282,0,0
63,-258,0,0,0,0,0,0,0,0,0,-1,1287,1282,0,0
70,-258,0,0,0,0,0,0,0,0,0,-1,1294,1282,0,0
77,-258,0,0,0,0,0,0,0,0,0,-1,1301,1282,0,0
84,-258,0,0,0,0,0,0,0,0,0,-1,1308,1282,0,0
91,-258,0,0,0,0,0,0,0,0,0,-1,1315,1282,0,0
98,-258,0,0,0,0,0,0,0,0,0,-1,1322,1282,0,0
105,-258,0,0,0,0,0,0,0,0,0,-1,1329,1282,0,0
112,-258,0,0,0,0,0,0,0,0,0,-1,1336,1282,0,0
119,-258,0,0,0,0,0,0,0,0,0,-1,1343,1282,0,0
126,-258,0,0,0,0,0,0,0,0,0,-1,1350,1282,0,0
133,-258,0,0,0,0,0,0,0,0,0,-1,1357,1282,0,0
140,-258,0,0,0,0,0,0,0,0,0,-1,1364,1282,0,0
147,-258,0,0,0,0,0,0,0,0,0,-1,1371,1282,0,0
154,-258,0,0,0,0,0,0,0,0,0,-1,1378,1282,0,0
161,-258,0,0,0,0,0,0,0,0,0,-1,1385,1282,0,0
168,-258,0,0,0,0,0,0,0,0,0,-1,1392,1282,0,0
175,-258,0,0,0,0,0,0,0,0,0,-1,1399,1282,0,0
182,-258,0,0,0,0,0,0,0,0,0,-1,1406,1282,0,0
189,-258,0,0,0,0,0,0,0,0,0,-1,1413,1282,0,0
196,-258,0,0,0,0,0,0,0,0,0,-1,1420,1282,0,0
203,-258,0,0,0,0,0,0,0,0,0,-1,1427,1282,0,0
210,-258,0,0,0,0,0,0,0,0,0,-1,1434,1282,0,0
217,-258,0,0,0,0,0,0,0,0,0,-1,1441,1282,0,0
224,-258,0,0,0,0,0,0,0,0,0,-1,1448,1282,0,0
231,-258,0,0,0,0,0,0,0,0,0,-1,1455,1282,0,0
238,-258,0,0,0,0,0,0,0,0,0,-1,1462,1282,0,0
245,-258,0,0,0,0,0,0,0,0,0,-1,1469,1282,0,0
252,-258,0,0,0,0,0,0,0,0,0,-1,1476,1282,0,0
259,-258,0,0,0,0,0,0,0,0,0,-1,1483,1282,0,0
266,-258,0,0,0,0,0,0,0,0,0,-1,1490,1282,0,0
273,-258,0,0,0,0,0,0,0,0,0,-1,1497,1282,0,0
280,-258,0,0,0,0,0,0,0,0,0,-1,1504,1282,0,0
287,-258,0,0,0,0,0,0,0,0,0,-1,1511,1282,0,0
294,-258,0,0,0,0,0,0,0,0,0,-1,1518,1282,0,0
301,-258,0,0,0,0,0,0,0,0,0,-1,1525,1282,0,0
308,-258,0,0,0,0,0,0,0,0,0,-1,1532,1282,0,0
315,-258,0,0,0,0,0,0,0,0,0,-1,1539,1282,0,0
322,-258,0,0,0,0,0,0,0,0,0,-1,1546,1282,0,0
329,-258,0,0,0,0,0,0,0,0,0,-1,1553,1282,0,0
336,-258,0,0,0,0,0,0,0,0,0,-1,1560,1282,0,0
343,-258,0,0,0,0,0,0,0,0,0,-1,1567,1282,0,0
350,-258,0,0,0,0,0,0,0,0,0,-1,1574,1282,0,0
357,-258,0,0,0,0,0,0,0,0,0,-1,1581,1282,0,0
364,-258,0,0,0,0,0,0,0,0,0,-1,1588,1282,0,0
371,-258,0,0,0,0,0,0,0,0,0,-1,1595,1282,0,0
378,-258,0,0,0,0,0,0,0,0,0,-1,1602,1282,0,0
385,-258,0,0,0,0,0,0,0,0,0,-1,1609,1282,0,0
392,-258,0,0,0,0,0,0,0,0,0,-1,1616,1282,0,0
399,-258,0,0,0,0,0,0,0,0,0,-1,1623,1282,0,0
406,-258,0,0,0,0,0,0,0,0,0,-1,1630,1282,0,0
413,-258,0,0,0,0,0,0,0,0,0,-1,1637,1282,0,0
420,-258,0,0,0,0,0,0,0,0,0,-1,1644,1282,0,0
427,-258,0,0,0,0,0,0,0,0,0,-1,1651,1282,0,0
434,-258,0,0,0,0,0,0,0,0,0,-1,1658,1282,0,0
441,-258,0,0,0,0,0,0,0,0,0,-1,1665,1282,0,0
448,-258,0,0,0,0,0,0,0,0,0,-1,1672,1282,0,0
455,-258,0,0,0,0,0,0,0,0,0,-1,1679,1282,0,0
462,-258,0,0,0,0,0,0,0,0,0,-1,1686,1282,0,0
469,-258,0,0,0,0,0,0,0,0,0,-1,1693,1282,0,0
476,-258,0,0,0,0,0,0,0,0,0,-1,1700,1282,0,0
483,-258,0,0,0,0,0,0,0,0,0,-1,1707,1282,0,0
490,-258,0,0,0,0,0,0,0,0,0,-1,1714,1282,0,0
497,-258,0,0,0,0,0,0,0,0,0,-1,1721,1282,0,0
504,-258,0,0,0,0,0,0,0,0,0,-1,1728,1282,0,0
511,-258,0,0,0,0,0,0,0,0,0,-1,1735,1282,0,0
518,-258,0,0,0,0,0,0,0,0,0,-1,1742,1282,0,0
525,-258,0,0,0,0,0,0,0,0,0,-1,1749,1282,0,0
532,-258,0,0,0,0,0,0,0,0,0,-1,1756,1282,0,0
539,-258,0,0,0,0,0,0,0,0,0,-1,1763,1282,0,0
546,-258,0,0,0,0,0,0,0,0,0,-1,1770,1282,0,0
553,-258,0,0,0,0,0,0,0,0,0,-1,1777,1282,0,0
560,-258,0,0,0,0,0,0,0,0,0,-1,1784,1282,0,0
567,-258,0,0,0,0,0,0,0,0,0,-1,1791,1282,0,0
574,-258,0,0,0,0,0,0,0,0,0,-1,1798,1282,0,0
581,-258,0,0,0,0,0,0,0,0,0,-1,1805,1282,0,0
588,-258,0,0,0,0,0,0,0,0,0,-1,1812,1282,0,0
595,-258,0,0,0,0,0,0,0,0,0,-1,1819,1282,0,0
602,-258,0,0,0,0,0,0,0,0,0,-1,1826,1282,0,0
609,-258,0.00463867,-0.0894775,-0.00193768,0.0104763,-0.00159063,0.0106768,-0.00213825,-1.44536,0.00792736,0.0223076,1833,1282,0.00464012,0.0894757
616,-258,-0.00939941,-0.0743408,-0.000922657,0.00929974,1.88865e-05,0.00929977,-0.000922692,1.56895,0.00652918,0.0213639,1840,1282,-0.00936529,0.0742896
623,-258,-0.117676,-0.168335,-0.000947907,0.00792266,0.00070006,0.00797757,-0.00100282,1.49252,0.00568222,0.0303193,1847,1282,-0.117651,0.168308
630,-258,0.0531006,-0.0163574,-0.00141477,0.00658153,0.000943005,0.00669123,-0.00152447,1.45498,0.00504633,0.0415866,1854,1282,0.0530557,0.0163666
637,-258,-0.233887,-0.442383,-0.00204782,0.0053829,0.000947728,0.00550187,-0.00216679,1.44592,0.00456494,0.0438809,1861,1282,-0.233932,0.442412
644,-258,-0.299072,-0.42041,-0.00258438,0.00438048,0.000838206,0.00447993,-0.00268384,1.4527,0.00417911,0.0445233,1868,1282,-0.299027,0.42043
651,-258,-0.480347,-0.456055,-0.00294606,0.0036304,0.000719937,0.00370829,-0.00302395,1.46303,0.00389355,0.0463784,1875,1282,-0.480299,0.456056
658,-258,-0.310913,-0.483276,-0.00303914,0.00282511,0.000560574,0.00287821,-0.00309224,1.47634,0.00344778,0.0488414,1882,1282,-0.310857,0.48322
665,-258,-0.0622559,-0.606934,0,0,0,0,0,0,0,-1,1889,1282,-0.0623019,0.606955
672,-258,0.00769043,-0.12439,-0.0029461,0.00185081,0.000233056,0.00186211,-0.0029574,1.52236,0.0028064,0.0404108,1896,1282,0.00772776,0.124404
679,-258,0.000366211,-0.113159,-0.00269082,0.00151972,0.00019607,0.00152883,-0.00269993,1.52436,0.00247249,0.0264893,1903,1282,0.000416035,0.113195
686,-258,-0.0463867,-0.0723877,-0.00247354,0.0012462,5.62048e-05,0.00124705,-0.00247439,1.55569,0.00218718,0.01509,1910,1282,-0.0463805,0.0723861
693,-258,-0.0194092,-0.0640869,-0.00205499,0.00103141,-1.15236e-05,0.00103145,-0.00205504,-1.56706,0.00181436,0.00934848,1917,1282,-0.0194382,0.0641321
700,-258,-0.0212402,-0.0617676,-0.00130631,0.000872324,-0.000157074,0.00088359,-0.00131758,-1.49919,0.00127905,0.00785302,1924,1282,-0.0212449,0.061813
707,-258,-0.0119629,-0.0556641,-0.000931514,0.000797852,-0.000434682,0.000900963,-0.00103462,-1.33789,0.0011184,0.0094827,1931,1282,-0.0119175,0.0556376
714,-258,-0.0153809,-0.0632324,-0.00079837,0.000390421,-0.00083803,0.00082345,-0.0012314,-1.09386,0.00119414,0.00970724,1938,1282,-0.0153322,0.0632329
721,-258,-0.0305176,-0.0773926,-0.00065015,2.44201e-05,-0.00106439,0.00080369,-0.00142942,-0.938833,0.00130605,0.00958802,1945,1282,-0.0304826,0.0773993
728,-258,-0.0456543,-0.0759277,-0.000638068,-0.00025986,-0.00149232,0.00105529,-0.00195322,-0.848421,0.00176256,0.00904658,1952,1282,-0.0456191,0.0758967
735,-258,-0.0384521,-0.0878906,-0.000597157,-0.000910327,-0.00219669,0.00144852,-0.00295601,-0.749817,0.00259213,0.0121878,1959,1282,-0.0384115,0.0879472
742,-258,-0.0223389,-0.0751953,-0.000548565,-0.0017388,-0.00319033,0.00210168,-0.00438904,-0.693189,0.0038242,0.0136989,1966,1282,-0.0223597,0.075159
749,-258,-0.0943604,-0.1427,-0.000557222,-0.00280621,-0.00431312,0.00277558,-0.00613901,-0.657879,0.00526753,0.0231832,1973,1282,-0.0943086,0.142701
756,-258,-0.172119,-0.274536,-0.000450971,-0.00442984,-0.00570997,0.00360621,-0.00848703,-0.617767,0.00716908,0.0374266,1980,1282,-0.172097,0.274567
763,-258,-0.0283203,-0.415161,-0.000160027,-0.00682517,-0.00744705,0.00466611,-0.0116513,-0.575011,0.00970434,0.0433122,1987,1282,-0.0283492,0.415212
770,-258,-0.0726318,-0.331787,0.000306807,-0.0102787,-0.0096318,0.00600428,-0.0159761,-0.534166,0.0131185,0.0450673,1994,1282,-0.072616,0.331826
777,-258,-0.826904,-0.670288,0,0,0,0,0,0,0,-1,2001,1282,-0.826963,0.670236
784,-258,0.938477,1.41174,0,0,0,0,0,0,0,-1,2008,1282,0.938456,-1.41179
791,-258,0,0,0,0,0,0,0,0,0,-1,2015,1282,0,0
798,-258,0,0,0,0,0,0,0,0,0,-1,2022,1282,0,0
805,-258,0,0,0,0,0,0,0,0,0,-1,2029,1282,0,0
812,-258,0,0,0,0,0,0,0,0,0,-1,2036,1282,0,0
-700,-265,0,0,0,0,0,0,0,0,0,-1,524,1289,0,0
-693,-265,0,0,0,0,0,0,0,0,0,-1,531,1289,0,0
-686,-265,0,0,0,0,0,0,0,0,0,-1,538,1289,0,0
-679,-265,0,0,0,0,0,0,0,0,0,-1,545,1289,0,0
-672,-265,0,0,0,0,0,0,0,0,0,-1,552,1289,0,0
-665,-265,0.189697,-0.743896,-0.00435551,0.00688751,0.0250046,0.0268947,-0.0243627,0.895969,0.0296056,0.0434093,559,1289,0.189701,0.743882
-658,-265,1.47192,-0.920166,-0.00618461,0.00782925,0.0179804,0.0201198,-0.0184752,0.971195,0.0222896,0.0431556,566,1289,1.47192,0.920197
-651,-265,0.729065,0.0227051,-0.00594101,0.00798238,0.0127073,0.01551,-0.0134687,1.03599,0.0167447,0.0469089,573,1289,0.72904,-0.0226961
-644,-265,0.0342407,-0.0939941,-0.00480471,0.00763188,0.00872147,0.0121248,-0.00929768,1.09509,0.0124042,0.0437524,580,1289,0.0342281,0.0940221
-637,-265,-0.0992432,-0.0849609,-0.0033257,0.00692444,0.0057574,0.00950742,-0.00590868,1.14908,0.00898096,0.0423429,587,1289,-0.0992288,0.0850146
-630,-265,-0.35907,-0.0882568,-0.0018908,0.00599736,0.00360049,0.00739363,-0.00328706,1.20085,0.0063166,0.0450228,594,1289,-0.359092,0.0882399
-623,-265,-0.336365,-0.209473,-0.000695905,0.00489388,0.00210172,0.00559594,-0.00139796,1.24841,0.00427352,0.0432559,601,1289,-0.33634,0.209471
-616,-265,-0.13269,-0.129272,0.000167075,0.00381054,0.0011015,0.00411766,-0.000140044,1.29888,0.00279296,0.033911,608,1289,-0.132665,0.129268
-609,-265,-0.0112305,-0.0769043,0.000262145,0.00315345,0.000220276,0.00317013,0.00024546,1.49519,0.00203654,0.015852,615,1289,-0.0112175,0.0768498
-602,-265,0.00976563,-0.0720215,0.00089051,0.00221369,-0.000206428,0.00224514,0.000859053,-1.41957,0.00130809,0.0142531,622,1289,0.00976485,0.072035
-595,-265,-0.00726318,-0.0635986,0.0017149,0.00124753,-0.000258113,0.0018294,0.00113304,-0.417515,0.00106619,0.0110632,629,1289,-0.00723396,0.0635948
-588,-265,-0.0180664,-0.088501,0.00204075,0.000564177,-0.000452567,0.00216842,0.000436505,-0.274961,0.00132431,0.00982438,636,1289,-0.0180946,0.0885027
-581,-265,-0.0106201,-0.0821533,0.00191241,-0.000950698,-0.000497376,0.00199635,-0.00103464,-0.167195,0.00177907,0.0120406,643,1289,-0.0105948,0.0820934
-574,-265,-0.0181274,-0.076416,0.00168496,-0.00288896,-2.29686e-05,0.00168508,-0.00288908,-0.00502146,0.00267121,0.0134057,650,1289,-0.0181356,0.0764714
-567,-265,-0.0475464,-0.0802002,0.00146265,-0.00444284,0.000356368,0.00148408,-0.00446427,0.0600547,0.00357507,0.0180076,657,1289,-0.0475578,0.0801927
-560,-265,-0.046936,-0.0809326,0.00134399,-0.00770135,0.000853715,0.00142386,-0.00778122,0.0932841,0.00572146,0.0181752,664,1289,-0.0469485,0.0809312
-553,-265,-0.0526733,-0.0611572,0.00174165,-0.00949699,0.000865598,0.00180793,-0.00956327,0.0764192,0.00705579,0.0178427,671,1289,-0.0526583,0.0612034
-546,-265,-0.0351563,-0.029541,0.00224523,-0.0112564,0.000850744,0.00229862,-0.0113098,0.0626801,0.00841142,0.028933,678,1289,-0.0351369,0.0295818
-539,-265,0.0360107,0.11145,0.00287884,-0.0130021,0.000517655,0.00289569,-0.013019,0.0325499,0.00978837,0.0456838,685,1289,0.0359849,-0.111398
-532,-265,-0.240173,-1.15991,0,0,0,0,0,0,0,-1,692,1289,-0.240173,1.15996
-525,-265,0.38855,-1.66333,0,0,0,0,0,0,0,-1,699,1289,0.388555,1.66336
-518,-265,1.21344,-1.54053,0,0,0,0,0,0,0,-1,706,1289,1.21344,1.54055
-511,-265,0.629395,-0.470581,0,0,0,0,0,0,0,-1,713,1289,0.629413,0.470588
-504,-265,-0.230469,0.179199,0,0,0,0,0,0,0,-1,720,1289,-0.23048,-0.179224
-497,-265,-0.194092,0.126709,-0.00130077,-0.00698187,-0.00250521,-0.000353867,-0.00792877,-0.361375,0.00517193,0.0453507,727,1289,-0.194098,-0.126677
-490,-265,0.0509033,-0.0969238,-0.00435692,-0.0012182,-0.00318709,0.000764966,-0.00634008,-1.01418,0.00450342,0.0409234,734,1289,0.0509156,0.0969648
-483,-265,0,0,0,0,0,0,0,0,0,-1,741,1289,0,0
-476,-265,0,0,0,0,0,0,0,0,0,-1,748,1289,0,0
-469,-265,0,0,0,0,0,0,0,0,0,-1,755,1289,0,0
-462,-265,0,0,0,0,0,0,0,0,0,-1,762,1289,0,0
-455,-265,0,0,0,0,0,0,0,0,0,-1,769,1289,0,0
-448,-265,0,0,0,0,0,0,0,0,0,-1,776,1289,0,0
-441,-265,0,0,0,0,0,0,0,0,0,-1,783,1289,0,0
-434,-265,0,0,0,0,0,0,0,0,0,-1,790,1289,0,0
-427,-265,0,0,0,0,0,0,0,0,0,-1,797,1289,0,0
-420,-265,0,0,0,0,0,0,0,0,0,-1,804,1289,0,0
-413,-265,0,0,0,0,0,0,0,0,0,-1,811,1289,0,0
-406,-265,0,0,0,0,0,0,0,0,0,-1,818,1289,0,0
-399,-265,0,0,0,0,0,0,0,0,0,-1,825,1289,0,0
-392,-265,0,0,0,0,0,0,0,0,0,-1,832,1289,0,0
-385,-265,0,0,0,0,0,0,0,0,0,-1,839,1289,0,0
-378,-265,0,0,0,0,0,0,0,0,0,-1,846,1289,0,0
-371,-265,0,0,0,0,0,0,0,0,0,-1,853,1289,0,0
-364,-265,0,0,0,0,0,0,0,0,0,-1,860,1289,0,0
-357,-265,0,0,0,0,0,0,0,0,0,-1,867,1289,0,0
-350,-265,0,0,0,0,0,0,0,0,0,-1,874,1289,0,0
-343,-265,0,0,0,0,0,0,0,0,0,-1,881,1289,0,0
-336,-265,0,0,0,0,0,0,0,0,0,-1,888,1289,0,0
-329,-265,0,0,0,0,0,0,0,0,0,-1,895,1289,0,0
-322,-265,0,0,0,0,0,0,0,0,0,-1,902,1289,0,0
-315,-265,0,0,0,0,0,0,0,0,0,-1,909,1289,0,0
-308,-265,0,0,0,0,0,0,0,0,0,-1,916,1289,0,0
-301,-265,0,0,0,0,0,0,0,0,0,-1,923,1289,0,0
-294,-265,0,0,0,0,0,0,0,0,0,-1,930,1289,0,0
-287,-265,0,0,0,0,0,0,0,0,0,-1,937,1289,0,0
-280,-265,0,0,0,0,0,0,0,0,0,-1,944,1289,0,0
-273,-265,0,0,0,0,0,0,0,0,0,-1,951,1289,0,0
-266,-265,0,0,0,0,0,0,0,0,0,-1,958,1289,0,0
-259,-265,0,0,0,0,0,0,0,0,0,-1,965,1289,0,0
-252,-265,0,0,0,0,0,0,0,0,0,-1,972,1289,0,0
-245,-265,0,0,0,0,0,0,0,0,0,-1,979,1289,0,0
-238,-265,0,0,0,0,0,0,0,0,0,-1,986,1289,0,0
-231,-265,0,0,0,0,0,0,0,0,0,-1,993,1289,0,0
-224,-265,0,0,0,0,0,0,0,0,0,-1,1000,1289,0,0
-217,-265,0,0,0,0,0,0,0,0,0,-1,1007,1289,0,0
-210,-265,0,0,0,0,0,0,0,0,0,-1,1014,1289,0,0
-203,-265,0,0,0,0,0,0,0,0,0,-1,1021,1289,0,0
-196,-265,0,0,0,0,0,0,0,0,0,-1,1028,1289,0,0
-189,-265,0,0,0,0,0,0,0,0,0,-1,1035,1289,0,0
-182,-265,0,0,0,0,0,0,0,0,0,-1,1042,1289,0,0
-175,-265,0,0,0,0,0,0,0,0,0,-1,1049,1289,0,0
-168,-265,0,0,0,0,0,0,0,0,0,-1,1056,1289,0,0
-161,-265,0,0,0,0,0,0,0,0,0,-1,1063,1289,0,0
-154,-265,0,0,0,0,0,0,0,0,0,-1,1070,1289,0,0
-147,-265,0,0,0,0,0,0,0,0,0,-1,1077,1289,0,0
-140,-265,0,0,0,0,0,0,0,0,0,-1,1084,1289,0,0
-133,-265,0,0,0,0,0,0,0,0,0,-1,1091,1289,0,0
-126,-265,0,0,0,0,0,0,0,0,0,-1,1098,1289,0,0
-119,-265,0,0,0,0,0,0,0,0,0,-1,1105,1289,0,0
-112,-265,0,0,0,0,0,0,0,0,0,-1,1112,1289,0,0
-105,-265,0,0,0,0,0,0,0,0,0,-1,1119,1289,0,0
-98,-265,0,0,0,0,0,0,0,0,0,-1,1126,1289,0,0
-91,-265,0,0,0,0,0,0,0,0,0,-1,1133,1289,0,0
-84,-265,0,0,0,0,0,0,0,0,0,-1,1140,1289,0,0
-77,-265,0,0,0,0,0,0,0,0,0,-1,1147,1289,0,0
-70,-265,0,0,0,0,0,0,0,0,0,-1,1154,1289,0,0
-63,-265,0,0,0,0,0,0,0,0,0,-1,1161,1289,0,0
-56,-265,0,0,0,0,0,0,0,0,0,-1,1168,1289,0,0
-49,-265,0,0,0,0,0,0,0,0,0,-1,1175,1289,0,0
-42,-265,0,0,0,0,0,0,0,0,0,-1,1182,1289,0,0
-35,-265,0,0,0,0,0,0,0,0,0,-1,1189,1289,0,0
-28,-265,0,0,0,0,0,0,0,0,0,-1,1196,1289,0,0
-21,-265,0,0,0,0,0,0,0,0,0,-1,1203,1289,0,0
-14,-265,0,0,0,0,0,0,0,0,0,-1,1210,1289,0,0
-7,-265,0,0,0,0,0,0,0,0,0,-1,1217,1289,0,0
0,-265,0,0,0,0,0,0,0,0,0,-1,1224,1289,0,0
7,-265,0,0,0,0,0,0,0,0,0,-1,1231,1289,0,0
14,-265,0,0,0,0,0,0,0,0,0,-1,1238,1289,0,0
21,-265,0,0,0,0,0,0,0,0,0,-1,1245,1289,0,0
28,-265,0,0,0,0,0,0,0,0,0,-1,1252,1289,0,0
35,-265,0,0,0,0,0,0,0,0,0,-1,1259,1289,0,0
42,-265,0,0,0,0,0,0,0,0,0,-1,1266,1289,0,0
49,-265,0,0,0,0,0,0,0,0,0,-1,1273,1289,0,0
56,-265,0,0,0,0,0,0,0,0,0,-1,1280,1289,0,0
63,-265,0,0,0,0,0,0,0,0,0,-1,1287,1289,0,0
70,-265,0,0,0,0,0,0,0,0,0,-1,1294,1289,0,0
77,-265,0,0,0,0,0,0,0,0,0,-1,1301,1289,0,0
84,-265,0,0,0,0,0,0,0,0,0,-1,1308,1289,0,0
91,-265,0,0,0,0,0,0,0,0,0,-1,1315,1289,0,0
98,-265,0,0,0,0,0,0,0,0,0,-1,1322,1289,0,0
105,-265,0,0,0,0,0,0,0,0,0,-1,1329,1289,0,0
112,-265,0,0,0,0,0,0,0,0,0,-1,1336,1289,0,0
119,-265,0,0,0,0,0,0,0,0,0,-1,1343,1289,0,0
126,-265,0,0,0,0,0,0,0,0,0,-1,1350,1289,0,0
133,-265,0,0,0,0,0,0,0,0,0,-1,1357,1289,0,0
140,-265,0,0,0,0,0,0,0,0,0,-1,1364,1289,0,0
147,-265,0,0,0,0,0,0,0,0,0,-1,1371,1289,0,0
154,-265,0,0,0,0,0,0,0,0,0,-1,1378,1289,0,0
161,-265,0,0,0,0,0,0,0,0,0,-1,1385,1289,0,0
168,-265,0,0,0,0,0,0,0,0,0,-1,1392,1289,0,0
175,-265,0,0,0,0,0,0,0,0,0,-1,1399,1289,0,0
182,-265,0,0,0,0,0,0,0,0,0,-1,1406,1289,0,0
189,-265,0,0,0,0,0,0,0,0,0,-1,1413,1289,0,0
196,-265,0,0,0,0,0,0,0,0,0,-1,1420,1289,0,0
203,-265,0,0,0,0,0,0,0,0,0,-1,1427,1289,0,0
210,-265,0,0,0,0,0,0,0,0,0,-1,1434,1289,0,0
217,-265,0,0,0,0,0,0,0,0,0,-1,1441,1289,0,0
224,-265,0,0,0,0,0,0,0,0,0,-1,1448,1289,0,0
231,-265,0,0,0,0,0,0,0,0,0,-1,1455,1289,0,0
238,-265,0,0,0,0,0,0,0,0,0,-1,1462,1289,0,0
245,-265,0,0,0,0,0,0,0,0,0,-1,1469,1289,0,0
252,-265,0,0,0,0,0,0,0,0,0,-1,1476,1289,0,0
259,-265,0,0,0,0,0,0,0,0,0,-1,1483,1289,0,0
266,-265,0,0,0,0,0,0,0,0,0,-1,1490,1289,0,0
273,-265,0,0,0,0,0,0,0,0,0,-1,1497,1289,0,0
280,-265,0,0,0,0,0,0,0,0,0,-1,1504,1289,0,0
287,-265,0,0,0,0,0,0,0,0,0,-1,1511,1289,0,0
294,-265,0,0,0,0,0,0,0,0,0,-1,1518,1289,0,0
301,-265,0,0,0,0,0,0,0,0,0,-1,1525,1289,0,0
308,-265,0,0,0,0,0,0,0,0,0,-1,1532,1289,0,0
315,-265,0,0,0,0,0,0,0,0,0,-1,1539,1289,0,0
322,-265,0,0,0,0,0,0,0,0,0,-1,1546,1289,0,0
329,-265,0,0,0,0,0,0,0,0,0,-1,1553,1289,0,0
336,-265,0,0,0,0,0,0,0,0,0,-1,1560,1289,0,0
343,-265,0,0,0,0,0,0,0,0,0,-1,1567,1289,0,0
350,-265,0,0,0,0,0,0,0,0,0,-1,1574,1289,0,0
357,-265,0,0,0,0,0,0,0,0,0,-1,1581,1289,0,0
364,-265,0,0,0,0,0,0,0,0,0,-1,1588,1289,0,0
371,-265,0,0,0,0,0,0,0,0,0,-1,1595,1289,0,0
378,-265,0,0,0,0,0,0,0,0,0,-1,1602,1289,0,0
385,-265,0,0,0,0,0,0,0,0,0,-1,1609,1289,0,0
392,-265,0,0,0,0,0,0,0,0,0,-1,1616,1289,0,0
399,-265,0,0,0,0,0,0,0,0,0,-1,1623,1289,0,0
406,-265,0,0,0,0,0,0,0,0,0,-1,1630,1289,0,0
413,-265,0,0,0,0,0,0,0,0,0,-1,1637,1289,0,0
420,-265,0,0,0,0,0,0,0,0,0,-1,1644,1289,0,0
427,-265,0,0,0,0,0,0,0,0,0,-1,1651,1289,0,0
434,-265,0,0,0,0,0,0,0,0,0,-1,1658,1289,0,0
441,-265,0,0,0,0,0,0,0,0,0,-1,1665,1289,0,0
448,-265,0,0,0,0,0,0,0,0,0,-1,1672,1289,0,0
455,-265,0,0,0,0,0,0,0,0,0,-1,1679,1289,0,0
462,-265,0,0,0,0,0,0,0,0,0,-1,1686,1289,0,0
469,-265,0,0,0,0,0,0,0,0,0,-1,1693,1289,0,0
476,-265,0,0,0,0,0,0,0,0,0,-1,1700,1289,0,0
483,-265,0,0,0,0,0,0,0,0,0,-1,1707,1289,0,0
490,-265,0,0,0,0,0,0,0,0,0,-1,1714,1289,0,0
497,-265,0,0,0,0,0,0,0,0,0,-1,1721,1289,0,0
504,-265,0,0,0,0,0,0,0,0,0,-1,1728,1289,0,0
511,-265,0,0,0,0,0,0,0,0,0,-1,1735,1289,0,0
518,-265,0,0,0,0,0,0,0,0,0,-1,1742,1289,0,0
525,-265,0,0,0,0,0,0,0,0,0,-1,1749,1289,0,0
532,-265,0,0,0,0,0,0,0,0,0,-1,1756,1289,0,0
539,-265,0,0,0,0,0,0,0,0,0,-1,1763,1289,0,0
546,-265,0,0,0,0,0,0,0,0,0,-1,1770,1289,0,0
553,-265,0,0,0,0,0,0,0,0,0,-1,1777,1289,0,0
560,-265,0,0,0,0,0,0,0,0,0,-1,1784,1289,0,0
567,-265,0,0,0,0,0,0,0,0,0,-1,1791,1289,0,0
574,-265,0,0,0,0,0,0,0,0,0,-1,1798,1289,0,0
581,-265,0,0,0,0,0,0,0,0,0,-1,1805,1289,0,0
588,-265,0,0,0,0,0,0,0,0,0,-1,1812,1289,0,0
595,-265,0,0,0,0,0,0,0,0,0,-1,1819,1289,0,0
602,-265,-0.0249023,-0.104492,-0.00588411,0.0142788,-0.000844783,0.0143141,-0.00591944,-1.529,0.0120123,0.0236907,1826,1289,-0.0248653,0.104532
609,-265,-0.0245361,-0.0950928,-0.00419538,0.0124205,0.00139349,0.0125366,-0.00431143,1.48771,0.0101062,0.0242896,1833,1289,-0.0245457,0.0950363
616,-265,-0.0672607,-0.112671,-0.00294447,0.0107929,0.00271589,0.0113103,-0.00346191,1.38253,0.00892099,0.0297118,1840,1289,-0.0672976,0.112692
623,-265,-0.202637,-0.308472,-0.00246237,0.00904885,0.00297806,0.00977367,-0.00318718,1.33205,0.00779838,0.0415567,1847,1289,-0.202657,0.308517
630,-265,-0.342651,-0.750732,-0.00244555,0.0073964,0.00276652,0.00812074,-0.00316989,1.31472,0.0067243,0.0439189,1854,1289,-0.342598,0.750765
637,-265,-0.240479,-0.487061,-0.00274992,0.0058859,0.00231296,0.00646637,-0.00333039,1.32491,0.00575195,0.0451766,1861,1289,-0.240448,0.487
644,-265,-0.408081,-0.329834,-0.00305728,0.0046701,0.00179148,0.00506522,-0.0034524,1.35371,0.00494695,0.0426204,1868,1289,-0.408096,0.329828
651,-265,-0.60083,-0.328369,-0.00325657,0.00376897,0.001395,0.00403582,-0.00352343,1.38178,0.00436768,0.0426071,1875,1289,-0.600837,0.328383
658,-265,-0.409668,-0.425415,-0.0030132,0.00278657,0.000960476,0.0029415,-0.00316812,1.41088,0.0035282,0.0438451,1882,1289,-0.409609,0.425356
665,-265,-0.0823975,-0.764893,0,0,0,0,0,0,0,-1,1889,1289,-0.0824366,0.764905
672,-265,-0.0687256,-0.0925293,-0.00299716,0.00157116,0.000320608,0.00159355,-0.00301955,1.50107,0.00270546,0.0441615,1896,1289,-0.0687121,0.0924912
679,-265,-0.0345459,-0.0588379,-0.00291368,0.00120163,0.000173536,0.00120893,-0.00292099,1.52873,0.00245175,0.0192354,1903,1289,-0.0345121,0.0588938
686,-265,-0.03125,-0.0789795,-0.00276247,0.000966537,-5.82784e-05,0.000967447,-0.00276338,-1.55517,0.00223564,0.0110031,1910,1289,-0.0312856,0.0789238
693,-265,-0.034668,-0.0878906,-0.00230484,0.000840115,-9.78035e-05,0.000843153,-0.00230788,-1.53974,0.00188363,0.00977039,1917,1289,-0.0346943,0.0879142
700,-265,-0.0319824,-0.078125,-0.00140957,0.000718025,-0.000190648,0.000734973,-0.00142652,-1.48213,0.00126905,0.00976509,1924,1289,-0.0320073,0.0780999
707,-265,-0.00585938,-0.0732422,-0.000943427,0.00071957,-0.000443301,0.000830359,-0.00105422,-1.32589,0.00109062,0.00938039,1931,1289,-0.00583876,0.0731945
714,-265,-0.00842285,-0.0737305,-0.000771914,0.000297743,-0.000858523,0.0007744,-0.00124857,-1.06396,0.00117861,0.00906577,1938,1289,-0.00839561,0.0737637
721,-265,-0.0185547,-0.0808105,-0.000560831,-5.89956e-05,-0.00112381,0.000841568,-0.0014614,-0.895234,0.00134557,0.00847135,1945,1289,-0.018511,0.0808457
728,-265,-0.0415039,-0.0617676,-0.0005156,-0.00032605,-0.00161207,0.00119403,-0.00203568,-0.81476,0.00188566,0.0111259,1952,1289,-0.0415424,0.0617431
735,-265,-0.0532227,-0.0474854,-0.00050142,-0.000925814,-0.00238284,0.00167866,-0.00310589,-0.740989,0.00280303,0.0143546,1959,1289,-0.0532405,0.0474822
742,-265,-0.0284424,-0.0897217,-0.000533527,-0.00173122,-0.00341775,0.00233745,-0.00460219,-0.698671,0.0040771,0.0166343,1966,1289,-0.0284154,0.0896993
749,-265,-0.0371094,-0.132935,-0.000639739,-0.00280508,-0.00462179,0.00302449,-0.00646931,-0.670346,0.00560023,0.0318982,1973,1289,-0.0370642,0.132899
756,-265,0.122925,-0.508667,-0.000668834,-0.00440772,-0.0061205,0.00386136,-0.00893791,-0.637178,0.00758094,0.0403069,1980,1289,0.122948,0.508726
763,-265,0.0286865,-0.881714,-0.000556563,-0.00675626,-0.00797208,0.00489714,-0.01221,-0.599975,0.0101731,0.0453785,1987,1289,0.0286491,0.881694
770,-265,-0.0246582,-0.928711,0,0,0,0,0,0,0,-1,1994,1289,-0.0247171,0.928702
777,-265,-0.512817,-0.517334,0,0,0,0,0,0,0,-1,2001,1289,-0.512768,0.517318
784,-265,0,0,0,0,0,0,0,0,0,-1,2008,1289,0,0
791,-265,0,0,0,0,0,0,0,0,0,-1,2015,1289,0,0
798,-265,0,0,0,0,0,0,0,0,0,-1,2022,1289,0,0
805,-265,0,0,0,0,0,0,0,0,0,-1,2029,1289,0,0
812,-265,0,0,0,0,0,0,0,0,0,-1,2036,1289,0,0
-700,-272,0,0,0,0,0,0,0,0,0,-1,524,1296,0,0
-693,-272,0,0,0,0,0,0,0,0,0,-1,531,1296,0,0
-686,-272,0,0,0,0,0,0,0,0,0,-1,538,1296,0,0
-679,-272,0,0,0,0,0,0,0,0,0,-1,545,1296,0,0
-672,-272,0,0,0,0,0,0,0,0,0,-1,552,1296,0,0
-665,-272,0,0,0,0,0,0,0,0,0,-1,559,1296,0,0
-658,-272,0.40509,-0.714966,-0.00637462,0.00735869,0.0215227,0.0230836,-0.0220995,0.939815,0.0260885,0.0427534,566,1296,0.405073,0.714979
-651,-272,0.436707,-0.401855,-0.00694922,0.00891249,0.0151117,0.0180481,-0.0160848,1.02705,0.0197175,0.0453043,573,1296,0.43671,0.401834
-644,-272,0.207092,-0.193237,-0.00617411,0.00910856,0.0103273,0.0143141,-0.0113797,1.10391,0.0148665,0.0453524,580,1296,0.207072,0.193228
-637,-272,0.0290527,-0.127563,-0.00478295,0.00850538,0.00679625,0.0113656,-0.0076432,1.17244,0.0110447,0.0454059,587,1296,0.029031,0.127583
-630,-272,1.10266,-0.731812,-0.00328105,0.00745429,0.0042305,0.00892102,-0.00474778,1.23706,0.00801335,0.046421,594,1296,1.10265,0.731752
-623,-272,0.298218,-0.243652,-0.00194803,0.0061983,0.00242988,0.00686802,-0.00261775,1.30185,0.0056569,0.043237,601,1296,0.298196,0.243666
-616,-272,-0.120911,-0.125244,-0.000901954,0.0049088,0.0012298,0.00515835,-0.00115151,1.37059,0.00388012,0.0351168,608,1296,-0.120927,0.125258
-609,-272,-0.0123901,-0.064209,-0.000622651,0.00395431,0.000251402,0.00396807,-0.000636418,1.51609,0.00288105,0.0176953,615,1296,-0.0123921,0.064265
-602,-272,-0.00640869,-0.0668945,0.00012096,0.0028532,-0.000276023,0.00288081,9.3354e-05,-1.47111,0.00189019,0.0127442,622,1296,-0.00640152,0.0669019
-595,-272,-0.0120239,-0.0526123,0.00105372,0.00169949,-0.00035882,0.00185931,0.000893898,-1.15176,0.00107374,0.0105122,629,1296,-0.0120046,0.052627
-588,-272,-0.00799561,-0.0635986,0.00156974,0.000955759,-0.000663602,0.00199392,0.000531578,-0.568752,0.00119227,0.00982082,636,1296,-0.00799529,0.0635827
-581,-272,-0.0205688,-0.0870361,0.00162989,-0.000657072,-0.000722417,0.00183897,-0.000866157,-0.281727,0.00159512,0.00941568,643,1296,-0.0205395,0.0870509
-574,-272,-0.026062,-0.0893555,0.00153072,-0.00264055,-0.000216538,0.00154193,-0.00265176,-0.0517265,0.00244933,0.0143528,650,1296,-0.0260475,0.0894029
-567,-272,-0.0463257,-0.0750732,0.00131711,-0.00416951,0.000152237,0.00132133,-0.00417373,0.0277185,0.00331199,0.0190389,657,1296,-0.0463031,0.075016
-560,-272,-0.0419922,-0.0667725,0.00125614,-0.00759887,0.000665268,0.00130584,-0.00764857,0.0745711,0.00558544,0.0176846,664,1296,-0.0420005,0.0668233
-553,-272,-0.0336304,-0.0726318,0.00185676,-0.00935422,0.00057001,0.00188567,-0.00938312,0.0506697,0.00696953,0.0123938,671,1296,-0.033635,0.0725858
-546,-272,-0.0176392,-0.0800781,0.00260831,-0.0109656,0.000422494,0.00262145,-0.0109787,0.0310854,0.00833159,0.0170418,678,1296,-0.0176482,0.0800379
-539,-272,-0.0319214,-0.681396,0,0,0,0,0,0,0,-1,685,1296,-0.0319284,0.681425
-532,-272,-0.205505,-0.870605,0.00362767,-0.0136515,-0.000475973,0.00364077,-0.0136646,-0.0275183,0.0105351,0.048574,692,1296,-0.205506,0.870646
-525,-272,-0.0380859,-1.23511,0.0031987,-0.0145203,-0.000539212,0.00321509,-0.0145367,-0.0303937,0.0109217,0.0426083,699,1296,-0.0380584,1.23516
-518,-272,0.176819,-1.37512,0.0030907,-0.0143918,-0.00107713,0.00315681,-0.0144579,-0.0613028,0.0108451,0.0437177,706,1296,0.176822,1.37517
-511,-272,0.323364,-1.3385,0,0,0,0,0,0,0,-1,713,1296,0.323391,1.33847
-504,-272,0.304199,-0.416504,0,0,0,0,0,0,0,-1,720,1296,0.304187,0.416553
-497,-272,-0.232422,0.205566,0,0,0,0,0,0,0,-1,727,1296,-0.232437,-0.205626
-490,-272,0.28418,-0.282715,-0.00444736,-0.00178392,-0.00383202,0.000941186,-0.00717246,-0.952632,0.00512426,0.0396623,734,1296,0.284166,0.282677
-483,-272,0.14856,-0.183105,-0.0103751,0.00371428,-0.00378699,0.00466765,-0.0113285,-1.32417,0.0094985,0.036215,741,1296,0.148586,0.183132
-476,-272,0,0,0,0,0,0,0,0,0,-1,748,1296,0,0
-469,-272,0,0,0,0,0,0,0,0,0,-1,755,1296,0,0
-462,-272,0,0,0,0,0,0,0,0,0,-1,762,1296,0,0
-455,-272,0,0,0,0,0,0,0,0,0,-1,769,1296,0,0
-448,-272,0,0,0,0,0,0,0,0,0,-1,776,1296,0,0
-441,-272,0,0,0,0,0,0,0,0,0,-1,783,1296,0,0
-434,-272,0,0,0,0,0,0,0,0,0,-1,790,1296,0,0
-427,-272,0,0,0,0,0,0,0,0,0,-1,797,1296,0,0
-420,-272,0,0,0,0,0,0,0,0,0,-1,804,1296,0,0
-413,-272,0,0,0,0,0,0,0,0,0,-1,811,1296,0,0
-406,-272,0,0,0,0,0,0,0,0,0,-1,818,1296,0,0
-399,-272,0,0,0,0,0,0,0,0,0,-1,825,1296,0,0
-392,-272,0,0,0,0,0,0,0,0,0,-1,832,1296,0,0
-385,-272,0,0,0,0,0,0,0,0,0,-1,839,1296,0,0
-378,-272,0,0,0,0,0,0,0,0,0,-1,846,1296,0,0
-371,-272,0,0,0,0,0,0,0,0,0,-1,853,1296,0,0
-364,-272,0,0,0,0,0,0,0,0,0,-1,860,1296,0,0
-357,-272,0,0,0,0,0,0,0,0,0,-1,867,1296,0,0
-350,-272,0,0,0,0,0,0,0,0,0,-1,874,1296,0,0
-343,-272,0,0,0,0,0,0,0,0,0,-1,881,1296,0,0
-336,-272,0,0,0,0,0,0,0,0,0,-1,888,1296,0,0
-329,-272,0,0,0,0,0,0,0,0,0,-1,895,1296,0,0
-322,-272,0,0,0,0,0,0,0,0,0,-1,902,1296,0,0
-315,-272,0,0,0,0,0,0,0,0,0,-1,909,1296,0,0
-308,-272,0,0,0,0,0,0,0,0,0,-1,916,1296,0,0
-301,-272,0,0,0,0,0,0,0,0,0,-1,923,1296,0,0
-294,-272,0,0,0,0,0,0,0,0,0,-1,930,1296,0,0
-287,-272,0,0,0,0,0,0,0,0,0,-1,937,1296,0,0
-280,-272,0,0,0,0,0,0,0,0,0,-1,944,1296,0,0
-273,-272,0,0,0,0,0,0,0,0,0,-1,951,1296,0,0
-266,-272,0,0,0,0,0,0,0,0,0,-1,958,1296,0,0
-259,-272,0,0,0,0,0,0,0,0,0,-1,965,1296,0,0
-252,-272,0,0,0,0,0,0,0,0,0,-1,972,1296,0,0
-245,-272,0,0,0,0,0,0,0,0,0,-1,979,1296,0,0
-238,-272,0,0,0,0,0,0,0,0,0,-1,986,1296,0,0
-231,-272,0,0,0,0,0,0,0,0,0,-1,993,1296,0,0
-224,-272,0,0,0,0,0,0,0,0,0,-1,1000,1296,0,0
-217,-272,0,0,0,0,0,0,0,0,0,-1,1007,1296,0,0
-210,-272,0,0,0,0,0,0,0,0,0,-1,1014,1296,0,0
-203,-272,0,0,0,0,0,0,0,0,0,-1,1021,1296,0,0
-196,-272,0,0,0,0,0,0,0,0,0,-1,1028,1296,0,0
-189,-272,0,0,0,0,0,0,0,0,0,-1,1035,1296,0,0
-182,-272,0,0,0,0,0,0,0,0,0,-1,1042,1296,0,0
-175,-272,0,0,0,0,0,0,0,0,0,-1,1049,1296,0,0
-168,-272,0,0,0,0,0,0,0,0,0,-1,1056,1296,0,0
-161,-272,0,0,0,0,0,0,0,0,0,-1,1063,1296,0,0
-154,-272,0,0,0,0,0,0,0,0,0,-1,1070,1296,0,0
-147,-272,0,0,0,0,0,0,0,0,0,-1,1077,1296,0,0
-140,-272,0,0,0,0,0,0,0,0,0,-1,1084,1296,0,0
-133,-272,0,0,0,0,0,0,0,0,0,-1,1091,1296,0,0
-126,-272,0,0,0,0,0,0,0,0,0,-1,1098,1296,0,0
-119,-272,0,0,0,0,0,0,0,0,0,-1,1105,1296,0,0
-112,-272,0,0,0,0,0,0,0,0,0,-1,1112,1296,0,0
-105,-272,0,0,0,0,0,0,0,0,0,-1,1119,1296,0,0
-98,-272,0,0,0,0,0,0,0,0,0,-1,1126,1296,0,0
-91,-272,0,0,0,0,0,0,0,0,0,-1,1133,1296,0,0
-84,-272,0,0,0,0,0,0,0,0,0,-1,1140,1296,0,0
-77,-272,0,0,0,0,0,0,0,0,0,-1,1147,1296,0,0
-70,-272,0,0,0,0,0,0,0,0,0,-1,1154,1296,0,0
-63,-272,0,0,0,0,0,0,0,0,0,-1,1161,1296,0,0
-56,-272,0,0,0,0,0,0,0,0,0,-1,1168,1296,0,0
-49,-272,0,0,0,0,0,0,0,0,0,-1,1175,1296,0,0
-42,-272,0,0,0,0,0,0,0,0,0,-1,1182,1296,0,0
-35,-272,0,0,0,0,0,0,0,0,0,-1,1189,1296,0,0
-28,-272,0,0,0,0,0,0,0,0,0,-1,1196,1296,0,0
-21,-272,0,0,0,0,0,0,0,0,0,-1,1203,1296,0,0
-14,-272,0,0,0,0,0,0,0,0,0,-1,1210,1296,0,0
-7,-272,0,0,0,0,0,0,0,0,0,-1,1217,1296,0,0
0,-272,0,0,0,0,0,0,0,0,0,-1,1224,1296,0,0
7,-272,0,0,0,0,0,0,0,0,0,-1,1231,1296,0,0
14,-272,0,0,0,0,0,0,0,0,0,-1,1238,1296,0,0
21,-272,0,0,0,0,0,0,0,0,0,-1,1245,1296,0,0
28,-272,0,0,0,0,0,0,0,0,0,-1,1252,1296,0,0
35,-272,0,0,0,0,0,0,0,0,0,-1,1259,1296,0,0
42,-272,0,0,0,0,0,0,0,0,0,-1,1266,1296,0,0
49,-272,0,0,0,0,0,0,0,0,0,-1,1273,1296,0,0
56,-272,0,0,0,0,0,0,0,0,0,-1,1280,1296,0,0
63,-272,0,0,0,0,0,0,0,0,0,-1,1287,1296,0,0
70,-272,0,0,0,0,0,0,0,0,0,-1,1294,1296,0,0
77,-272,0,0,0,0,0,0,0,0,0,-1,1301,1296,0,0
84,-272,0,0,0,0,0,0,0,0,0,-1,1308,1296,0,0
91,-272,0,0,0,0,0,0,0,0,0,-1,1315,1296,0,0
98,-272,0,0,0,0,0,0,0,0,0,-1,1322,1296,0,0
105,-272,0,0,0,0,0,0,0,0,0,-1,1329,1296,0,0
112,-272,0,0,0,0,0,0,0,0,0,-1,1336,1296,0,0
119,-272,0,0,0,0,0,0,0,0,0,-1,1343,1296,0,0
126,-272,0,0,0,0,0,0,0,0,0,-1,1350,1296,0,0
133,-272,0,0,0,0,0,0,0,0,0,-1,1357,1296,0,0
140,-272,0,0,0,0,0,0,0,0,0,-1,1364,1296,0,0
147,-272,0,0,0,0,0,0,0,0,0,-1,1371,1296,0,0
154,-272,0,0,0,0,0,0,0,0,0,-1,1378,1296,0,0
161,-272,0,0,0,0,0,0,0,0,0,-1,1385,1296,0,0
168,-272,0,0,0,0,0,0,0,0,0,-1,1392,1296,0,0
175,-272,0,0,0,0,0,0,0,0,0,-1,1399,1296,0,0
182,-272,0,0,0,0,0,0,0,0,0,-1,1406,1296,0,0
189,-272,0,0,0,0,0,0,0,0,0,-1,1413,1296,0,0
196,-272,0,0,0,0,0,0,0,0,0,-1,1420,1296,0,0
203,-272,0,0,0,0,0,0,0,0,0,-1,1427,1296,0,0
210,-272,0,0,0,0,0,0,0,0,0,-1,1434,1296,0,0
217,-272,0,0,0,0,0,0,0,0,0,-1,1441,1296,0,0
224,-272,0,0,0,0,0,0,0,0,0,-1,1448,1296,0,0
231,-272,0,0,0,0,0,0,0,0,0,-1,1455,1296,0,0
238,-272,0,0,0,0,0,0,0,0,0,-1,1462,1296,0,0
245,-272,0,0,0,0,0,0,0,0,0,-1,1469,1296,0,0
252,-272,0,0,0,0,0,0,0,0,0,-1,1476,1296,0,0
259,-272,0,0,0,0,0,0,0,0,0,-1,1483,1296,0,0
266,-272,0,0,0,0,0,0,0,0,0,-1,1490,1296,0,0
273,-272,0,0,0,0,0,0,0,0,0,-1,1497,1296,0,0
280,-272,0,0,0,0,0,0,0,0,0,-1,1504,1296,0,0
287,-272,0,0,0,0,0,0,0,0,0,-1,1511,1296,0,0
294,-272,0,0,0,0,0,0,0,0,0,-1,1518,1296,0,0
301,-272,0,0,0,0,0,0,0,0,0,-1,1525,1296,0,0
308,-272,0,0,0,0,0,0,0,0,0,-1,1532,1296,0,0
315,-272,0,0,0,0,0,0,0,0,0,-1,1539,1296,0,0
322,-272,0,0,0,0,0,0,0,0,0,-1,1546,1296,0,0
329,-272,0,0,0,0,0,0,0,0,0,-1,1553,1296,0,0
336,-272,0,0,0,0,0,0,0,0,0,-1,1560,1296,0,0
343,-272,0,0,0,0,0,0,0,0,0,-1,1567,1296,0,0
350,-272,0,0,0,0,0,0,0,0,0,-1,1574,1296,0,0
357,-272,0,0,0,0,0,0,0,0,0,-1,1581,1296,0,0
364,-272,0,0,0,0,0,0,0,0,0,-1,1588,1296,0,0
371,-272,0,0,0,0,0,0,0,0,0,-1,1595,1296,0,0
378,-272,0,0,0,0,0,0,0,0,0,-1,1602,1296,0,0
385,-272,0,0,0,0,0,0,0,0,0,-1,1609,1296,0,0
392,-272,0,0,0,0,0,0,0,0,0,-1,1616,1296,0,0
399,-272,0,0,0,0,0,0,0,0,0,-1,1623,1296,0,0
406,-272,0,0,0,0,0,0,0,0,0,-1,1630,1296,0,0
413,-272,0,0,0,0,0,0,0,0,0,-1,1637,1296,0,0
420,-272,0,0,0,0,0,0,0,0,0,-1,1644,1296,0,0
427,-272,0,0,0,0,0,0,0,0,0,-1,1651,1296,0,0
434,-272,0,0,0,0,0,0,0,0,0,-1,1658,1296,0,0
441,-272,0,0,0,0,0,0,0,0,0,-1,1665,1296,0,0
448,-272,0,0,0,0,0,0,0,0,0,-1,1672,1296,0,0
455,-272,0,0,0,0,0,0,0,0,0,-1,1679,1296,0,0
462,-272,0,0,0,0,0,0,0,0,0,-1,1686,1296,0,0
469,-272,0,0,0,0,0,0,0,0,0,-1,1693,1296,0,0
476,-272,0,0,0,0,0,0,0,0,0,-1,1700,1296,0,0
483,-272,0,0,0,0,0,0,0,0,0,-1,1707,1296,0,0
490,-272,0,0,0,0,0,0,0,0,0,-1,1714,1296,0,0
497,-272,0,0,0,0,0,0,0,0,0,-1,1721,1296,0,0
504,-272,0,0,0,0,0,0,0,0,0,-1,1728,1296,0,0
511,-272,0,0,0,0,0,0,0,0,0,-1,1735,1296,0,0
518,-272,0,0,0,0,0,0,0,0,0,-1,1742,1296,0,0
525,-272,0,0,0,0,0,0,0,0,0,-1,1749,1296,0,0
532,-272,0,0,0,0,0,0,0,0,0,-1,1756,1296,0,0
539,-272,0,0,0,0,0,0,0,0,0,-1,1763,1296,0,0
546,-272,0,0,0,0,0,0,0,0,0,-1,1770,1296,0,0
553,-272,0,0,0,0,0,0,0,0,0,-1,1777,1296,0,0
560,-272,0,0,0,0,0,0,0,0,0,-1,1784,1296,0,0
567,-272,0,0,0,0,0,0,0,0,0,-1,1791,1296,0,0
574,-272,0,0,0,0,0,0,0,0,0,-1,1798,1296,0,0
581,-272,0,0,0,0,0,0,0,0,0,-1,1805,1296,0,0
588,-272,0,0,0,0,0,0,0,0,0,-1,1812,1296,0,0
595,-272,0,0,0,0,0,0,0,0,0,-1,1819,1296,0,0
602,-272,-0.0124512,-0.0889893,-0.00621784,0.017869,0.00282379,0.0181956,-0.00654445,1.45564,0.0148022,0.0275715,1826,1296,-0.0124983,0.0889449
609,-272,-0.0808105,-0.137451,-0.00462099,0.014348,0.00387708,0.0151098,-0.00538283,1.37677,0.0122677,0.0324694,1833,1296,-0.0808683,0.137468
616,-272,-0.194702,-0.183838,-0.00335351,0.0115514,0.00435101,0.0127286,-0.00453068,1.30657,0.0103325,0.0403588,1840,1296,-0.194651,0.183875
623,-272,-0.209229,-0.323242,0,0,0,0,0,0,0,-1,1847,1296,-0.209275,0.323223
630,-272,-0.318726,-0.668823,-0.0026402,0.00703388,0.00362185,0.00823959,-0.0038459,1.24944,0.00712961,0.0458185,1854,1296,-0.318673,0.668881
637,-272,-0.00439453,-0.482178,-0.00291667,0.00526382,0.00292823,0.00620395,-0.0038568,1.26014,0.00586103,0.046527,1861,1296,-0.00437163,0.482152
644,-272,-0.347656,-0.0932617,-0.00309061,0.00398097,0.00219544,0.00460712,-0.00371676,1.29297,0.00481495,0.0474907,1868,1296,-0.34771,0.0933172
651,-272,-0.5271,0.0245361,-0.00328324,0.00308139,0.0017257,0.00351918,-0.00372103,1.32235,0.00418068,0.044409,1875,1296,-0.527149,-0.0245412
658,-272,-0.772583,-0.16626,0,0,0,0,0,0,0,-1,1882,1296,-0.772637,0.166282
665,-272,0.18689,0.158569,-0.00275258,0.00127513,0.000831983,0.00144022,-0.00291767,1.37491,0.00256377,0.0495824,1889,1296,0.186879,-0.15863
672,-272,0.00427246,-0.0336914,-0.00303847,0.000893389,0.000441423,0.000942338,-0.00308742,1.46036,0.00243398,0.0441733,1896,1296,0.00426063,0.0336808
679,-272,-0.010376,-0.0700684,-0.00302809,0.00067519,0.000209642,0.00068702,-0.00303992,1.51443,0.00229023,0.0165049,1903,1296,-0.0103872,0.0700775
686,-272,-0.00512695,-0.0933838,-0.00288809,0.00057036,-0.000106288,0.000573623,-0.00289135,-1.5401,0.0021445,0.01239,1910,1296,-0.00513369,0.0933271
693,-272,-0.0308838,-0.0983887,-0.00240247,0.000612892,-0.000159754,0.000621332,-0.00241091,-1.51801,0.0018495,0.0110496,1917,1296,-0.0309438,0.0984374
700,-272,-0.0367432,-0.083374,-0.00137442,0.000543213,-0.000226913,0.000569698,-0.00140091,-1.4546,0.00117098,0.0106054,1924,1296,-0.0367667,0.0834318
707,-272,-0.00939941,-0.0861816,-0.000825747,0.000629287,-0.000443182,0.000753645,-0.000950105,-1.29723,0.000985838,0.010495,1931,1296,-0.00937489,0.0861227
714,-272,-0.0129395,-0.0891113,-0.000629966,0.000208323,-0.00084728,0.000734465,-0.00115611,-1.01509,0.00110053,0.00991757,1938,1296,-0.0129162,0.0891568
721,-272,-0.0251465,-0.0758057,-0.000370207,-0.000126673,-0.00114585,0.000903861,-0.00140074,-0.838333,0.00134083,0.00988205,1945,1296,-0.0250879,0.0758197
728,-272,-0.032959,-0.0507813,-0.00031645,-0.000372279,-0.00167684,0.00133271,-0.00202144,-0.777075,0.00195008,0.0113533,1952,1296,-0.0329579,0.0508084
735,-272,-0.0209961,-0.0411377,-0.000375993,-0.000914276,-0.00247022,0.0018397,-0.00312997,-0.731135,0.0029013,0.0117904,1959,1296,-0.0210469,0.0411172
742,-272,-0.0197754,-0.0836182,-0.000546182,-0.00170822,-0.00352066,0.00244108,-0.00469548,-0.70362,0.00418827,0.0202492,1966,1296,-0.0197826,0.0835642
749,-272,0.00012207,-0.147339,-0.000843853,-0.00278832,-0.00476866,0.00305068,-0.00668285,-0.684837,0.00574859,0.0361259,1973,1296,9.48517e-05,0.147394
756,-272,-0.0770264,-0.324951,-0.00117095,-0.00437958,-0.00633223,0.00375704,-0.00930757,-0.66133,0.00776645,0.043155,1980,1296,-0.0769885,0.324991
763,-272,-0.190552,-0.636841,-0.00149178,-0.00669042,-0.00827501,0.00458255,-0.0127648,-0.633219,0.0103802,0.043853,1987,1296,-0.190548,0.636868
770,-272,-0.243042,-0.727783,0,0,0,0,0,0,0,-1,1994,1296,-0.242988,0.727775
777,-272,-0.237061,-0.382446,0,0,0,0,0,0,0,-1,2001,1296,-0.237087,0.38246
784,-272,0,0,0,0,0,0,0,0,0,-1,2008,1296,0,0
791,-272,0,0,0,0,0,0,0,0,0,-1,2015,1296,0,0
798,-272,0,0,0,0,0,0,0,0,0,-1,2022,1296,0,0
805,-272,0,0,0,0,0,0,0,0,0,-1,2029,1296,0,0
812,-272,0,0,0,0,0,0,0,0,0,-1,2036,1296,0,0
-700,-279,0,0,0,0,0,0,0,0,0,-1,524,1303,0,0
-693,-279,0,0,0,0,0,0,0,0,0,-1,531,1303,0,0
-686,-279,0,0,0,0,0,0,0,0,0,-1,538,1303,0,0
-679,-279,0,0,0,0,0,0,0,0,0,-1,545,1303,0,0
-672,-279,0,0,0,0,0,0,0,0,0,-1,552,1303,0,0
-665,-279,0,0,0,0,0,0,0,0,0,-1,559,1303,0,0
-658,-279,0.299377,-0.621826,-0.00672164,0.0120329,0.0233265,0.0277964,-0.0224852,0.976512,0.029084,0.0434731,566,1303,0.299405,0.621781
-651,-279,0.199036,-0.365601,-0.00769481,0.0130612,0.0164355,0.022121,-0.0167546,1.06701,0.022516,0.0444013,573,1303,0.199044,0.365561
-644,-279,0.134766,-0.138062,-0.00712957,0.0126068,0.0112405,0.0176963,-0.012219,1.14564,0.0173678,0.0441899,580,1303,0.134743,0.138075
-637,-279,0.126343,-0.141235,0,0,0,0,0,0,0,-1,587,1303,0.126334,0.141269
-630,-279,-0.338379,-0.335693,0,0,0,0,0,0,0,-1,594,1303,-0.33836,0.335646
-623,-279,-0.230164,-0.284058,-0.00284749,0.00791668,0.00252025,0.00847753,-0.00340834,1.35183,0.00706728,0.0443193,601,1303,-0.230171,0.284084
-616,-279,-0.127991,-0.200439,-0.00168014,0.00617883,0.0011696,0.0063492,-0.00185051,1.42615,0.00496593,0.0390168,608,1303,-0.128008,0.200445
-609,-279,0.00408936,-0.14624,-0.00126455,0.00485057,0.000125926,0.00485317,-0.00126714,1.55022,0.00373027,0.0245729,615,1303,0.00408993,0.146223
-602,-279,-0.0167847,-0.0737305,-0.000462671,0.00353065,-0.000468149,0.0035848,-0.000516819,-1.45564,0.00257946,0.0109356,622,1303,-0.0167824,0.0736846
-595,-279,-0.0144653,-0.059082,0.000514314,0.00215483,-0.000547077,0.00232053,0.000348612,-1.2767,0.00144491,0.00932767,629,1303,-0.0144644,0.0590664
-588,-279,-0.00177002,-0.0598145,0.00115846,0.00135307,-0.000926653,0.00218751,0.000324015,-0.837708,0.00136323,0.00961745,636,1303,-0.00179779,0.0598619
-581,-279,-0.00787354,-0.0802002,0.00133443,-0.00030794,-0.000961591,0.00177776,-0.000751271,-0.431996,0.00149969,0.0110537,643,1303,-0.0078491,0.080247
-574,-279,-0.0148315,-0.0908203,0.00131897,-0.00225824,-0.000405258,0.00136431,-0.00230358,-0.111408,0.00214067,0.0109845,650,1303,-0.0148402,0.0908252
-567,-279,-0.0210571,-0.0771484,0.00111642,-0.00366575,-1.86237e-05,0.00111649,-0.00366583,-0.00389432,0.00288888,0.0126576,657,1303,-0.0210807,0.0771271
-560,-279,-0.0194702,-0.0557861,0.00109101,-0.00707428,0.000525373,0.00112467,-0.00710795,0.0639906,0.00515458,0.0142321,664,1303,-0.0194849,0.0557563
-553,-279,-0.0289307,-0.0526123,0.00180958,-0.00865486,0.000365306,0.00182231,-0.0086676,0.0348527,0.00647193,0.0111995,671,1303,-0.0289127,0.0525748
-546,-279,-0.0223999,-0.0690918,0.00273446,-0.0100301,0.000126474,0.00273572,-0.0100313,0.0099069,0.00776187,0.0116249,678,1303,-0.022385,0.0690853
-539,-279,0.0372314,-0.0955811,0.00372648,-0.0114417,-0.000474055,0.00374128,-0.0114565,-0.0312127,0.00914355,0.0346723,685,1303,0.0372308,0.0956177
-532,-279,-0.105347,-0.568848,0.00390289,-0.0122887,-0.000973468,0.0039612,-0.012347,-0.0598346,0.00982172,0.0429985,692,1303,-0.105357,0.568881
-525,-279,0.171204,-0.276611,0.00342557,-0.0130723,-0.00101471,0.00348775,-0.0131345,-0.0611979,0.0101212,0.0426427,699,1303,0.171232,0.276613
-518,-279,-0.650757,-0.941406,0.00332644,-0.0128497,-0.00151493,0.0034671,-0.0129904,-0.0925793,0.010018,0.0457627,706,1303,-0.650763,0.94135
-511,-279,-0.630859,-0.789917,0.00270808,-0.0115953,-0.00207006,0.00300165,-0.0118889,-0.140875,0.00909314,0.0448969,713,1303,-0.630866,0.789978
-504,-279,-1.11719,2.57471,0,0,0,0,0,0,0,-1,720,1303,-1.11719,-2.57469
-497,-279,0.301025,-0.578735,0,0,0,0,0,0,0,-1,727,1303,0.301003,0.578795
-490,-279,0.322632,-0.427246,-0.00499925,-0.00163614,-0.00302129,0.000140025,-0.00677541,-1.03933,0.00456433,0.0403884,734,1303,0.322647,0.427206
-483,-279,0.182495,-0.168945,-0.0112924,0.00281319,-0.00210923,0.00312183,-0.011601,-1.4255,0.00895781,0.0370488,741,1303,0.182488,0.168973
-476,-279,0,0,0,0,0,0,0,0,0,-1,748,1303,0,0
-469,-279,0,0,0,0,0,0,0,0,0,-1,755,1303,0,0
-462,-279,0,0,0,0,0,0,0,0,0,-1,762,1303,0,0
-455,-279,0,0,0,0,0,0,0,0,0,-1,769,1303,0,0
-448,-279,0,0,0,0,0,0,0,0,0,-1,776,1303,0,0
-441,-279,0,0,0,0,0,0,0,0,0,-1,783,1303,0,0
-434,-279,0,0,0,0,0,0,0,0,0,-1,790,1303,0,0
-427,-279,0,0,0,0,0,0,0,0,0,-1,797,1303,0,0
-420,-279,0,0,0,0,0,0,0,0,0,-1,804,1303,0,0
-413,-279,0,0,0,0,0,0,0,0,0,-1,811,1303,0,0
-406,-279,0,0,0,0,0,0,0,0,0,-1,818,1303,0,0
-399,-279,0,0,0,0,0,0,0,0,0,-1,825,1303,0,0
-392,-279,0,0,0,0,0,0,0,0,0,-1,832,1303,0,0
-385,-279,0,0,0,0,0,0,0,0,0,-1,839,1303,0,0
-378,-279,0,0,0,0,0,0,0,0,0,-1,846,1303,0,0
-371,-279,0,0,0,0,0,0,0,0,0,-1,853,1303,0,0
-364,-279,0,0,0,0,0,0,0,0,0,-1,860,1303,0,0
-357,-279,0,0,0,0,0,0,0,0,0,-1,867,1303,0,0
-350,-279,0,0,0,0,0,0,0,0,0,-1,874,1303,0,0
-343,-279,0,0,0,0,0,0,0,0,0,-1,881,1303,0,0
-336,-279,0,0,0,0,0,0,0,0,0,-1,888,1303,0,0
-329,-279,0,0,0,0,0,0,0,0,0,-1,895,1303,0,0
-322,-279,0,0,0,0,0,0,0,0,0,-1,902,1303,0,0
-315,-279,0,0,0,0,0,0,0,0,0,-1,909,1303,0,0
-308,-279,0,0,0,0,0,0,0,0,0,-1,916,1303,0,0
-301,-279,0,0,0,0,0,0,0,0,0,-1,923,1303,0,0
-294,-279,0,0,0,0,0,0,0,0,0,-1,930,1303,0,0
-287,-279,0,0,0,0,0,0,0,0,0,-1,937,1303,0,0
-280,-279,0,0,0,0,0,0,0,0,0,-1,944,1303,0,0
-273,-279,0,0,0,0,0,0,0,0,0,-1,951,1303,0,0
-266,-279,0,0,0,0,0,0,0,0,0,-1,958,1303,0,0
-259,-279,0,0,0,0,0,0,0,0,0,-1,965,1303,0,0
-252,-279,0,0,0,0,0,0,0,0,0,-1,972,1303,0,0
-245,-279,0,0,0,0,0,0,0,0,0,-1,979,1303,0,0
-238,-279,0,0,0,0,0,0,0,0,0,-1,986,1303,0,0
-231,-279,0,0,0,0,0,0,0,0,0,-1,993,1303,0,0
-224,-279,0,0,0,0,0,0,0,0,0,-1,1000,1303,0,0
-217,-279,0,0,0,0,0,0,0,0,0,-1,1007,1303,0,0
-210,-279,0,0,0,0,0,0,0,0,0,-1,1014,1303,0,0
-203,-279,0,0,0,0,0,0,0,0,0,-1,1021,1303,0,0
-196,-279,0,0,0,0,0,0,0,0,0,-1,1028,1303,0,0
-189,-279,0,0,0,0,0,0,0,0,0,-1,1035,1303,0,0
-182,-279,0,0,0,0,0,0,0,0,0,-1,1042,1303,0,0
-175,-279,0,0,0,0,0,0,0,0,0,-1,1049,1303,0,0
-168,-279,0,0,0,0,0,0,0,0,0,-1,1056,1303,0,0
-161,-279,0,0,0,0,0,0,0,0,0,-1,1063,1303,0,0
-154,-279,0,0,0,0,0,0,0,0,0,-1,1070,1303,0,0
-147,-279,0,0,0,0,0,0,0,0,0,-1,1077,1303,0,0
-140,-279,0,0,0,0,0,0,0,0,0,-1,1084,1303,0,0
-133,-279,0,0,0,0,0,0,0,0,0,-1,1091,1303,0,0
-126,-279,0,0,0,0,0,0,0,0,0,-1,1098,1303,0,0
-119,-279,0,0,0,0,0,0,0,0,0,-1,1105,1303,0,0
-112,-279,0,0,0,0,0,0,0,0,0,-1,1112,1303,0,0
-105,-279,0,0,0,0,0,0,0,0,0,-1,1119,1303,0,0
-98,-279,0,0,0,0,0,0,0,0,0,-1,1126,1303,0,0
-91,-279,0,0,0,0,0,0,0,0,0,-1,1133,1303,0,0
-84,-279,0,0,0,0,0,0,0,0,0,-1,1140,1303,0,0
-77,-279,0,0,0,0,0,0,0,0,0,-1,1147,1303,0,0
-70,-279,0,0,0,0,0,0,0,0,0,-1,1154,1303,0,0
-63,-279,0,0,0,0,0,0,0,0,0,-1,1161,1303,0,0
-56,-279,0,0,0,0,0,0,0,0,0,-1,1168,1303,0,0
-49,-279,0,0,0,0,0,0,0,0,0,-1,1175,1303,0,0
-42,-279,0,0,0,0,0,0,0,0,0,-1,1182,1303,0,0
-35,-279,0,0,0,0,0,0,0,0,0,-1,1189,1303,0,0
-28,-279,0,0,0,0,0,0,0,0,0,-1,1196,1303,0,0
-21,-279,0,0,0,0,0,0,0,0,0,-1,1203,1303,0,0
-14,-279,0,0,0,0,0,0,0,0,0,-1,1210,1303,0,0
-7,-279,0,0,0,0,0,0,0,0,0,-1,1217,1303,0,0
0,-279,0,0,0,0,0,0,0,0,0,-1,1224,1303,0,0
7,-279,0,0,0,0,0,0,0,0,0,-1,1231,1303,0,0
14,-279,0,0,0,0,0,0,0,0,0,-1,1238,1303,0,0
21,-279,0,0,0,0,0,0,0,0,0,-1,1245,1303,0,0
28,-279,0,0,0,0,0,0,0,0,0,-1,1252,1303,0,0
35,-279,0,0,0,0,0,0,0,0,0,-1,1259,1303,0,0
42,-279,0,0,0,0,0,0,0,0,0,-1,1266,1303,0,0
49,-279,0,0,0,0,0,0,0,0,0,-1,1273,1303,0,0
56,-279,0,0,0,0,0,0,0,0,0,-1,1280,1303,0,0
63,-279,0,0,0,0,0,0,0,0,0,-1,1287,1303,0,0
70,-279,0,0,0,0,0,0,0,0,0,-1,1294,1303,0,0
77,-279,0,0,0,0,0,0,0,0,0,-1,1301,1303,0,0
84,-279,0,0,0,0,0,0,0,0,0,-1,1308,1303,0,0
91,-279,0,0,0,0,0,0,0,0,0,-1,1315,1303,0,0
98,-279,0,0,0,0,0,0,0,0,0,-1,1322,1303,0,0
105,-279,0,0,0,0,0,0,0,0,0,-1,1329,1303,0,0
112,-279,0,0,0,0,0,0,0,0,0,-1,1336,1303,0,0
119,-279,0,0,0,0,0,0,0,0,0,-1,1343,1303,0,0
126,-279,0,0,0,0,0,0,0,0,0,-1,1350,1303,0,0
133,-279,0,0,0,0,0,0,0,0,0,-1,1357,1303,0,0
140,-279,0,0,0,0,0,0,0,0,0,-1,1364,1303,0,0
147,-279,0,0,0,0,0,0,0,0,0,-1,1371,1303,0,0
154,-279,0,0,0,0,0,0,0,0,0,-1,1378,1303,0,0
161,-279,0,0,0,0,0,0,0,0,0,-1,1385,1303,0,0
168,-279,0,0,0,0,0,0,0,0,0,-1,1392,1303,0,0
175,-279,0,0,0,0,0,0,0,0,0,-1,1399,1303,0,0
182,-279,0,0,0,0,0,0,0,0,0,-1,1406,1303,0,0
189,-279,0,0,0,0,0,0,0,0,0,-1,1413,1303,0,0
196,-279,0,0,0,0,0,0,0,0,0,-1,1420,1303,0,0
203,-279,0,0,0,0,0,0,0,0,0,-1,1427,1303,0,0
210,-279,0,0,0,0,0,0,0,0,0,-1,1434,1303,0,0
217,-279,0,0,0,0,0,0,0,0,0,-1,1441,1303,0,0
224,-279,0,0,0,0,0,0,0,0,0,-1,1448,1303,0,0
231,-279,0,0,0,0,0,0,0,0,0,-1,1455,1303,0,0
238,-279,0,0,0,0,0,0,0,0,0,-1,1462,1303,0,0
245,-279,0,0,0,0,0,0,0,0,0,-1,1469,1303,0,0
252,-279,0,0,0,0,0,0,0,0,0,-1,1476,1303,0,0
259,-279,0,0,0,0,0,0,0,0,0,-1,1483,1303,0,0
266,-279,0,0,0,0,0,0,0,0,0,-1,1490,1303,0,0
273,-279,0,0,0,0,0,0,0,0,0,-1,1497,1303,0,0
280,-279,0,0,0,0,0,0,0,0,0,-1,1504,1303,0,0
287,-279,0,0,0,0,0,0,0,0,0,-1,1511,1303,0,0
294,-279,0,0,0,0,0,0,0,0,0,-1,1518,1303,0,0
301,-279,0,0,0,0,0,0,0,0,0,-1,1525,1303,0,0
308,-279,0,0,0,0,0,0,0,0,0,-1,1532,1303,0,0
315,-279,0,0,0,0,0,0,0,0,0,-1,1539,1303,0,0
322,-279,0,0,0,0,0,0,0,0,0,-1,1546,1303,0,0
329,-279,0,0,0,0,0,0,0,0,0,-1,1553,1303,0,0
336,-279,0,0,0,0,0,0,0,0,0,-1,1560,1303,0,0
343,-279,0,0,0,0,0,0,0,0,0,-1,1567,1303,0,0
350,-279,0,0,0,0,0,0,0,0,0,-1,1574,1303,0,0
357,-279,0,0,0,0,0,0,0,0,0,-1,1581,1303,0,0
364,-279,0,0,0,0,0,0,0,0,0,-1,1588,1303,0,0
371,-279,0,0,0,0,0,0,0,0,0,-1,1595,1303,0,0
378,-279,0,0,0,0,0,0,0,0,0,-1,1602,1303,0,0
385,-279,0,0,0,0,0,0,0,0,0,-1,1609,1303,0,0
392,-279,0,0,0,0,0,0,0,0,0,-1,1616,1303,0,0
399,-279,0,0,0,0,0,0,0,0,0,-1,1623,1303,0,0
406,-279,0,0,0,0,0,0,0,0,0,-1,1630,1303,0,0
413,-279,0,0,0,0,0,0,0,0,0,-1,1637,1303,0,0
420,-279,0,0,0,0,0,0,0,0,0,-1,1644,1303,0,0
427,-279,0,0,0,0,0,0,0,0,0,-1,1651,1303,0,0
434,-279,0,0,0,0,0,0,0,0,0,-1,1658,1303,0,0
441,-279,0,0,0,0,0,0,0,0,0,-1,1665,1303,0,0
448,-279,0,0,0,0,0,0,0,0,0,-1,1672,1303,0,0
455,-279,0,0,0,0,0,0,0,0,0,-1,1679,1303,0,0
462,-279,0,0,0,0,0,0,0,0,0,-1,1686,1303,0,0
469,-279,0,0,0,0,0,0,0,0,0,-1,1693,1303,0,0
476,-279,0,0,0,0,0,0,0,0,0,-1,1700,1303,0,0
483,-279,0,0,0,0,0,0,0,0,0,-1,1707,1303,0,0
490,-279,0,0,0,0,0,0,0,0,0,-1,1714,1303,0,0
497,-279,0,0,0,0,0,0,0,0,0,-1,1721,1303,0,0
504,-279,0,0,0,0,0,0,0,0,0,-1,1728,1303,0,0
511,-279,0,0,0,0,0,0,0,0,0,-1,1735,1303,0,0
518,-279,0,0,0,0,0,0,0,0,0,-1,1742,1303,0,0
525,-279,0,0,0,0,0,0,0,0,0,-1,1749,1303,0,0
532,-279,0,0,0,0,0,0,0,0,0,-1,1756,1303,0,0
539,-279,0,0,0,0,0,0,0,0,0,-1,1763,1303,0,0
546,-279,0,0,0,0,0,0,0,0,0,-1,1770,1303,0,0
553,-279,0,0,0,0,0,0,0,0,0,-1,1777,1303,0,0
560,-279,0,0,0,0,0,0,0,0,0,-1,1784,1303,0,0
567,-279,0,0,0,0,0,0,0,0,0,-1,1791,1303,0,0
574,-279,0,0,0,0,0,0,0,0,0,-1,1798,1303,0,0
581,-279,0,0,0,0,0,0,0,0,0,-1,1805,1303,0,0
588,-279,0,0,0,0,0,0,0,0,0,-1,1812,1303,0,0
595,-279,0,0,0,0,0,0,0,0,0,-1,1819,1303,0,0
602,-279,-0.0257568,-0.0762939,-0.0022453,0.0213176,0.0071045,0.0232939,-0.00422163,1.29948,0.017111,0.0392051,1826,1303,-0.0257461,0.0763165
609,-279,-0.0684814,-0.196533,-0.00253644,0.0155981,0.00718298,0.0180985,-0.00503682,1.23582,0.0140488,0.0446833,1833,1303,-0.0685342,0.196536
616,-279,-0.205933,-0.431152,-0.0023277,0.011379,0.00676521,0.0141557,-0.00510433,1.18133,0.0115218,0.0431656,1840,1303,-0.205884,0.431159
623,-279,-0.448364,-0.749634,0,0,0,0,0,0,0,-1,1847,1303,-0.448403,0.74967
630,-279,-0.359619,-0.357544,0,0,0,0,0,0,0,-1,1854,1303,-0.359578,0.357573
637,-279,0.240112,-0.379272,0,0,0,0,0,0,0,-1,1861,1303,0.240114,0.379228
644,-279,-0.195923,0.31958,0,0,0,0,0,0,0,-1,1868,1303,-0.195968,-0.319634
651,-279,-0.380981,0.271362,0,0,0,0,0,0,0,-1,1875,1303,-0.38099,-0.271395
658,-279,-0.720825,-0.147949,0,0,0,0,0,0,0,-1,1882,1303,-0.720785,0.147985
665,-279,0.226807,0.365356,-0.00255666,0.000281758,0.000880388,0.000532649,-0.00280755,1.29318,0.0020722,0.045494,1889,1303,0.226831,-0.365351
672,-279,0.0678711,0.0224609,-0.0029934,0.00019903,0.000320539,0.000230896,-0.00302526,1.47171,0.00209805,0.0334112,1896,1303,0.0679279,-0.0224034
679,-279,-0.0141602,-0.0952148,-0.00306107,0.000252573,-6.78144e-06,0.000252587,-0.00306108,-1.56875,0.00212992,0.0190376,1903,1303,-0.0141578,0.0952013
686,-279,-0.0234375,-0.11145,-0.00293384,0.000366468,-0.000369732,0.000407382,-0.00297475,-1.46059,0.00213197,0.01822,1910,1303,-0.0234259,0.111401
693,-279,-0.0290527,-0.104736,-0.00242965,0.000580638,-0.000391915,0.000630826,-0.00247983,-1.44343,0.00189876,0.0147981,1917,1303,-0.0290357,0.104743
700,-279,-0.0219727,-0.0925293,-0.00132273,0.000537353,-0.000383635,0.00061337,-0.00139875,-1.37518,0.00119083,0.0107837,1924,1303,-0.0219337,0.0925015
707,-279,-0.0212402,-0.0847168,-0.00073953,0.000663954,-0.000502257,0.000825175,-0.000900751,-1.26019,0.000996782,0.00925632,1931,1303,-0.0212552,0.084683
714,-279,-0.0406494,-0.0814209,-0.000536127,0.000220385,-0.000840535,0.000763854,-0.0010796,-0.996833,0.00106951,0.00935045,1938,1303,-0.0406143,0.0813719
721,-279,-0.0395508,-0.071167,-0.000272857,-0.000119166,-0.00111613,0.000922758,-0.00131478,-0.819769,0.00129844,0.0103118,1945,1303,-0.0395812,0.0711663
728,-279,-0.0224609,-0.0725098,-0.000253158,-0.000389409,-0.00161836,0.00129851,-0.00194108,-0.764363,0.0018826,0.0106884,1952,1303,-0.0224505,0.0725471
735,-279,-0.00927734,-0.0670166,-0.000419382,-0.000909361,-0.00237236,0.00172061,-0.00304935,-0.733946,0.00278932,0.0106468,1959,1303,-0.00924728,0.0670752
742,-279,-0.000976563,-0.0784912,-0.000768988,-0.00173123,-0.00338903,0.0021729,-0.00467312,-0.714888,0.00403946,0.0213241,1966,1303,-0.00092424,0.0785417
749,-279,-0.00183105,-0.144287,-0.00132491,-0.00284914,-0.00463417,0.0026094,-0.00678345,-0.7039,0.0055986,0.0381019,1973,1303,-0.00181808,0.144293
756,-279,-0.246582,-0.281372,-0.00205347,-0.00448927,-0.00622717,0.00307378,-0.00961652,-0.688828,0.00764445,0.0447519,1980,1303,-0.246534,0.281361
763,-279,-0.3479,-0.563477,-0.0029772,-0.00686568,-0.0082505,0.00355505,-0.0133979,-0.669684,0.0103231,0.044603,1987,1303,-0.347959,0.563528
770,-279,-0.118896,-0.47583,-0.00420698,-0.0102981,-0.010841,0.00400818,-0.0185133,-0.648464,0.0138726,0.044297,1994,1303,-0.118877,0.475775
777,-279,-0.069458,-0.306763,0,0,0,0,0,0,0,-1,2001,1303,-0.0694093,0.306731
784,-279,0,0,0,0,0,0,0,0,0,-1,2008,1303,0,0
791,-279,0,0,0,0,0,0,0,0,0,-1,2015,1303,0,0
798,-279,0,0,0,0,0,0,0,0,0,-1,2022,1303,0,0
805,-279,0,0,0,0,0,0,0,0,0,-1,2029,1303,0,0
812,-279,0,0,0,0,0,0,0,0,0,-1,2036,1303,0,0
-700,-286,0,0,0,0,0,0,0,0,0,-1,524,1310,0,0
-693,-286,0,0,0,0,0,0,0,0,0,-1,531,1310,0,0
-686,-286,0,0,0,0,0,0,0,0,0,-1,538,1310,0,0
-679,-286,0,0,0,0,0,0,0,0,0,-1,545,1310,0,0
-672,-286,0,0,0,0,0,0,0,0,0,-1,552,1310,0,0
-665,-286,0,0,0,0,0,0,0,0,0,-1,559,1310,0,0
-658,-286,0.168823,-0.503906,0,0,0,0,0,0,0,-1,566,1310,0.168799,0.503886
-651,-286,-0.0259399,-0.331177,0,0,0,0,0,0,0,-1,573,1310,-0.0259216,0.331206
-644,-286,-0.00274658,-0.144531,-0.00832552,0.0172114,0.0117862,0.0218196,-0.0129337,1.19809,0.0202823,0.0467849,580,1310,-0.0027329,0.144551
-637,-286,-0.601746,1.86011,-0.00704387,0.0155895,0.00765191,0.0179336,-0.00938805,1.27352,0.0160293,0.0475905,587,1310,-0.601738,-1.86007
-630,-286,-0.197571,-0.569336,0,0,0,0,0,0,0,-1,594,1310,-0.197589,0.56932
-623,-286,-0.149292,-0.656494,-0.00403159,0.0111867,0.00243825,0.0115678,-0.0044127,1.41575,0.00952961,0.0424045,601,1310,-0.14931,0.656513
-616,-286,0.432983,-1.06128,-0.00276182,0.00893037,0.000984558,0.0090127,-0.00284415,1.48737,0.00714769,0.0383948,608,1310,0.433,1.06124
-609,-286,0.00994873,-0.286011,-0.00217592,0.0070775,-7.84364e-05,0.00707816,-0.00217658,-1.56232,0.00558745,0.0289306,615,1310,0.0099576,0.286038
-602,-286,-0.036377,-0.0738525,-0.00127964,0.0054001,-0.000721393,0.00547712,-0.00135666,-1.46443,0.00417772,0.0118694,622,1310,-0.0363638,0.0738239
-595,-286,-0.0248413,-0.0654297,-0.000243831,0.00361835,-0.000795752,0.00377588,-0.000401361,-1.37536,0.00266115,0.00939731,629,1310,-0.0248297,0.0653859
-588,-286,-0.00421143,-0.064209,0.000502296,0.00252476,-0.00121478,0.00309412,-6.70657e-05,-1.1325,0.00208546,0.0101041,636,1310,-0.00421541,0.0641803
-581,-286,-0.00299072,-0.0732422,0.000833803,0.000659334,-0.0012005,0.00195024,-0.000457101,-0.749129,0.00147631,0.0122022,643,1310,-0.00296393,0.0732659
-574,-286,-0.00823975,-0.0847168,0.000962601,-0.00143909,-0.000603864,0.00110588,-0.00158237,-0.232969,0.00156017,0.0120835,650,1310,-0.0082291,0.0847691
-567,-286,-0.0263672,-0.0784912,0.000816804,-0.00282393,-0.000205745,0.000828394,-0.00283552,-0.0562732,0.00221864,0.010599,657,1310,-0.0263375,0.0784586
-560,-286,-0.0250244,-0.0662842,0.00087559,-0.00610407,0.000351219,0.000893219,-0.0061217,0.0501516,0.00440913,0.0117249,664,1310,-0.0250347,0.0663361
-553,-286,-0.020813,-0.0716553,0.00173375,-0.00751569,0.000141945,0.00173593,-0.00751787,0.0153416,0.00567968,0.00977419,671,1310,-0.0208194,0.0716104
-546,-286,-0.0333252,-0.0705566,0.0028028,-0.00861052,-0.000140346,0.00280453,-0.00861225,-0.0122942,0.00686989,0.0112238,678,1310,-0.0333326,0.0705155
-539,-286,-0.00628662,-0.0106201,0.00389081,-0.00974926,-0.000747301,0.00393163,-0.00979008,-0.0545695,0.00815937,0.0240222,685,1310,-0.00631057,0.0106203
-532,-286,0.0724487,-0.168457,0.00407622,-0.010309,-0.00125212,0.0041844,-0.0104172,-0.0861783,0.00868246,0.0401054,692,1310,0.0724522,0.168447
-525,-286,0.365479,-0.258911,0.00355724,-0.0109371,-0.00119977,0.00365588,-0.0110357,-0.0820314,0.00883171,0.0412094,699,1310,0.365498,0.258935
-518,-286,0.616516,-0.297852,0.0034661,-0.0105725,-0.00155956,0.00363726,-0.0107437,-0.109315,0.00863415,0.0418348,706,1310,0.616486,0.297903
-511,-286,-1.21057,2.99988,0.00279211,-0.00926855,-0.0018724,0.00307611,-0.00955255,-0.150529,0.00760405,0.0442151,713,1310,-1.21057,-2.99993
-504,-286,-0.709778,2.16357,0.00136987,-0.00703792,-0.00216621,0.00189516,-0.00756321,-0.237901,0.0057784,0.0447252,720,1310,-0.70979,-2.16357
-497,-286,-0.405151,1.45398,0,0,0,0,0,0,0,-1,727,1310,-0.405175,-1.45393
-490,-286,-0.392761,1.1886,-0.00539086,-0.000199229,-0.00159606,0.000252195,-0.00584229,-1.29516,0.00398159,0.0415293,734,1310,-0.392749,-1.18859
-483,-286,0.22113,-0.15271,-0.0119129,0.00361394,-3.2387e-05,0.00361401,-0.011913,-1.56871,0.00938165,0.0445482,741,1310,0.221107,0.152655
-476,-286,0.0673218,-0.0534668,-0.0212039,0.00542641,0.00288176,0.00573469,-0.0215121,1.46423,0.0165868,0.0397186,748,1310,0.0673453,0.0534436
-469,-286,0,0,0,0,0,0,0,0,0,-1,755,1310,0,0
-462,-286,0,0,0,0,0,0,0,0,0,-1,762,1310,0,0
-455,-286,0,0,0,0,0,0,0,0,0,-1,769,1310,0,0
-448,-286,0,0,0,0,0,0,0,0,0,-1,776,1310,0,0
-441,-286,0,0,0,0,0,0,0,0,0,-1,783,1310,0,0
-434,-286,0,0,0,0,0,0,0,0,0,-1,790,1310,0,0
-427,-286,0,0,0,0,0,0,0,0,0,-1,797,1310,0,0
-420,-286,0,0,0,0,0,0,0,0,0,-1,804,1310,0,0
-413,-286,0,0,0,0,0,0,0,0,0,-1,811,1310,0,0
-406,-286,0,0,0,0,0,0,0,0,0,-1,818,1310,0,0
-399,-286,0,0,0,0,0,0,0,0,0,-1,825,1310,0,0
-392,-286,0,0,0,0,0,0,0,0,0,-1,832,1310,0,0
-385,-286,0,0,0,0,0,0,0,0,0,-1,839,1310,0,0
-378,-286,0,0,0,0,0,0,0,0,0,-1,846,1310,0,0
-371,-286,0,0,0,0,0,0,0,0,0,-1,853,1310,0,0
-364,-286,0,0,0,0,0,0,0,0,0,-1,860,1310,0,0
-357,-286,0,0,0,0,0,0,0,0,0,-1,867,1310,0,0
-350,-286,0,0,0,0,0,0,0,0,0,-1,874,1310,0,0
-343,-286,0,0,0,0,0,0,0,0,0,-1,881,1310,0,0
-336,-286,0,0,0,0,0,0,0,0,0,-1,888,1310,0,0
-329,-286,0,0,0,0,0,0,0,0,0,-1,895,1310,0,0
-322,-286,0,0,0,0,0,0,0,0,0,-1,902,1310,0,0
-315,-286,0,0,0,0,0,0,0,0,0,-1,909,1310,0,0
-308,-286,0,0,0,0,0,0,0,0,0,-1,916,1310,0,0
-301,-286,0,0,0,0,0,0,0,0,0,-1,923,1310,0,0
-294,-286,0,0,0,0,0,0,0,0,0,-1,930,1310,0,0
-287,-286,0,0,0,0,0,0,0,0,0,-1,937,1310,0,0
-280,-286,0,0,0,0,0,0,0,0,0,-1,944,1310,0,0
-273,-286,0,0,0,0,0,0,0,0,0,-1,951,1310,0,0
-266,-286,0,0,0,0,0,0,0,0,0,-1,958,1310,0,0
-259,-286,0,0,0,0,0,0,0,0,0,-1,965,1310,0,0
-252,-286,0,0,0,0,0,0,0,0,0,-1,972,1310,0,0
-245,-286,0,0,0,0,0,0,0,0,0,-1,979,1310,0,0
-238,-286,0,0,0,0,0,0,0,0,0,-1,986,1310,0,0
-231,-286,0,0,0,0,0,0,0,0,0,-1,993,1310,0,0
-224,-286,0,0,0,0,0,0,0,0,0,-1,1000,1310,0,0
-217,-286,0,0,0,0,0,0,0,0,0,-1,1007,1310,0,0
-210,-286,0,0,0,0,0,0,0,0,0,-1,1014,1310,0,0
-203,-286,0,0,0,0,0,0,0,0,0,-1,1021,1310,0,0
-196,-286,0,0,0,0,0,0,0,0,0,-1,1028,1310,0,0
-189,-286,0,0,0,0,0,0,0,0,0,-1,1035,1310,0,0
-182,-286,0,0,0,0,0,0,0,0,0,-1,1042,1310,0,0
-175,-286,0,0,0,0,0,0,0,0,0,-1,1049,1310,0,0
-168,-286,0,0,0,0,0,0,0,0,0,-1,1056,1310,0,0
-161,-286,0,0,0,0,0,0,0,0,0,-1,1063,1310,0,0
-154,-286,0,0,0,0,0,0,0,0,0,-1,1070,1310,0,0
-147,-286,0,0,0,0,0,0,0,0,0,-1,1077,1310,0,0
-140,-286,0,0,0,0,0,0,0,0,0,-1,1084,1310,0,0
-133,-286,0,0,0,0,0,0,0,0,0,-1,1091,1310,0,0
-126,-286,0,0,0,0,0,0,0,0,0,-1,1098,1310,0,0
-119,-286,0,0,0,0,0,0,0,0,0,-1,1105,1310,0,0
-112,-286,0,0,0,0,0,0,0,0,0,-1,1112,1310,0,0
-105,-286,0,0,0,0,0,0,0,0,0,-1,1119,1310,0,0
-98,-286,0,0,0,0,0,0,0,0,0,-1,1126,1310,0,0
-91,-286,0,0,0,0,0,0,0,0,0,-1,1133,1310,0,0
-84,-286,0,0,0,0,0,0,0,0,0,-1,1140,1310,0,0
-77,-286,0,0,0,0,0,0,0,0,0,-1,1147,1310,0,0
-70,-286,0,0,0,0,0,0,0,0,0,-1,1154,1310,0,0
-63,-286,0,0,0,0,0,0,0,0,0,-1,1161,1310,0,0
-56,-286,0,0,0,0,0,0,0,0,0,-1,1168,1310,0,0
-49,-286,0,0,0,0,0,0,0,0,0,-1,1175,1310,0,0
-42,-286,0,0,0,0,0,0,0,0,0,-1,1182,1310,0,0
-35,-286,0,0,0,0,0,0,0,0,0,-1,1189,1310,0,0
-28,-286,0,0,0,0,0,0,0,0,0,-1,1196,1310,0,0
-21,-286,0,0,0,0,0,0,0,0,0,-1,1203,1310,0,0
-14,-286,0,0,0,0,0,0,0,0,0,-1,1210,1310,0,0
-7,-286,0,0,0,0,0,0,0,0,0,-1,1217,1310,0,0
0,-286,0,0,0,0,0,0,0,0,0,-1,1224,1310,0,0
7,-286,0,0,0,0,0,0,0,0,0,-1,1231,1310,0,0
14,-286,0,0,0,0,0,0,0,0,0,-1,1238,1310,0,0
21,-286,0,0,0,0,0,0,0,0,0,-1,1245,1310,0,0
28,-286,0,0,0,0,0,0,0,0,0,-1,1252,1310,0,0
35,-286,0,0,0,0,0,0,0,0,0,-1,1259,1310,0,0
42,-286,0,0,0,0,0,0,0,0,0,-1,1266,1310,0,0
49,-286,0,0,0,0,0,0,0,0,0,-1,1273,1310,0,0
56,-286,0,0,0,0,0,0,0,0,0,-1,1280,1310,0,0
63,-286,0,0,0,0,0,0,0,0,0,-1,1287,1310,0,0
70,-286,0,0,0,0,0,0,0,0,0,-1,1294,1310,0,0
77,-286,0,0,0,0,0,0,0,0,0,-1,1301,1310,0,0
84,-286,0,0,0,0,0,0,0,0,0,-1,1308,1310,0,0
91,-286,0,0,0,0,0,0,0,0,0,-1,1315,1310,0,0
98,-286,0,0,0,0,0,0,0,0,0,-1,1322,1310,0,0
105,-286,0,0,0,0,0,0,0,0,0,-1,1329,1310,0,0
112,-286,0,0,0,0,0,0,0,0,0,-1,1336,1310,0,0
119,-286,0,0,0,0,0,0,0,0,0,-1,1343,1310,0,0
126,-286,0,0,0,0,0,0,0,0,0,-1,1350,1310,0,0
133,-286,0,0,0,0,0,0,0,0,0,-1,1357,1310,0,0
140,-286,0,0,0,0,0,0,0,0,0,-1,1364,1310,0,0
147,-286,0,0,0,0,0,0,0,0,0,-1,1371,1310,0,0
154,-286,0,0,0,0,0,0,0,0,0,-1,1378,1310,0,0
161,-286,0,0,0,0,0,0,0,0,0,-1,1385,1310,0,0
168,-286,0,0,0,0,0,0,0,0,0,-1,1392,1310,0,0
175,-286,0,0,0,0,0,0,0,0,0,-1,1399,1310,0,0
182,-286,0,0,0,0,0,0,0,0,0,-1,1406,1310,0,0
189,-286,0,0,0,0,0,0,0,0,0,-1,1413,1310,0,0
196,-286,0,0,0,0,0,0,0,0,0,-1,1420,1310,0,0
203,-286,0,0,0,0,0,0,0,0,0,-1,1427,1310,0,0
210,-286,0,0,0,0,0,0,0,0,0,-1,1434,1310,0,0
217,-286,0,0,0,0,0,0,0,0,0,-1,1441,1310,0,0
224,-286,0,0,0,0,0,0,0,0,0,-1,1448,1310,0,0
231,-286,0,0,0,0,0,0,0,0,0,-1,1455,1310,0,0
238,-286,0,0,0,0,0,0,0,0,0,-1,1462,1310,0,0
245,-286,0,0,0,0,0,0,0,0,0,-1,1469,1310,0,0
252,-286,0,0,0,0,0,0,0,0,0,-1,1476,1310,0,0
259,-286,0,0,0,0,0,0,0,0,0,-1,1483,1310,0,0
266,-286,0,0,0,0,0,0,0,0,0,-1,1490,1310,0,0
273,-286,0,0,0,0,0,0,0,0,0,-1,1497,1310,0,0
280,-286,0,0,0,0,0,0,0,0,0,-1,1504,1310,0,0
287,-286,0,0,0,0,0,0,0,0,0,-1,1511,1310,0,0
294,-286,0,0,0,0,0,0,0,0,0,-1,1518,1310,0,0
301,-286,0,0,0,0,0,0,0,0,0,-1,1525,1310,0,0
308,-286,0,0,0,0,0,0,0,0,0,-1,1532,1310,0,0
315,-286,0,0,0,0,0,0,0,0,0,-1,1539,1310,0,0
322,-286,0,0,0,0,0,0,0,0,0,-1,1546,1310,0,0
329,-286,0,0,0,0,0,0,0,0,0,-1,1553,1310,0,0
336,-286,0,0,0,0,0,0,0,0,0,-1,1560,1310,0,0
343,-286,0,0,0,0,0,0,0,0,0,-1,1567,1310,0,0
350,-286,0,0,0,0,0,0,0,0,0,-1,1574,1310,0,0
357,-286,0,0,0,0,0,0,0,0,0,-1,1581,1310,0,0
364,-286,0,0,0,0,0,0,0,0,0,-1,1588,1310,0,0
371,-286,0,0,0,0,0,0,0,0,0,-1,1595,1310,0,0
378,-286,0,0,0,0,0,0,0,0,0,-1,1602,1310,0,0
385,-286,0,0,0,0,0,0,0,0,0,-1,1609,1310,0,0
392,-286,0,0,0,0,0,0,0,0,0,-1,1616,1310,0,0
399,-286,0,0,0,0,0,0,0,0,0,-1,1623,1310,0,0
406,-286,0,0,0,0,0,0,0,0,0,-1,1630,1310,0,0
413,-286,0,0,0,0,0,0,0,0,0,-1,1637,1310,0,0
420,-286,0,0,0,0,0,0,0,0,0,-1,1644,1310,0,0
427,-286,0,0,0,0,0,0,0,0,0,-1,1651,1310,0,0
434,-286,0,0,0,0,0,0,0,0,0,-1,1658,1310,0,0
441,-286,0,0,0,0,0,0,0,0,0,-1,1665,1310,0,0
448,-286,0,0,0,0,0,0,0,0,0,-1,1672,1310,0,0
455,-286,0,0,0,0,0,0,0,0,0,-1,1679,1310,0,0
462,-286,0,0,0,0,0,0,0,0,0,-1,1686,1310,0,0
469,-286,0,0,0,0,0,0,0,0,0,-1,1693,1310,0,0
476,-286,0,0,0,0,0,0,0,0,0,-1,1700,1310,0,0
483,-286,0,0,0,0,0,0,0,0,0,-1,1707,1310,0,0
490,-286,0,0,0,0,0,0,0,0,0,-1,1714,1310,0,0
497,-286,0,0,0,0,0,0,0,0,0,-1,1721,1310,0,0
504,-286,0,0,0,0,0,0,0,0,0,-1,1728,1310,0,0
511,-286,0,0,0,0,0,0,0,0,0,-1,1735,1310,0,0
518,-286,0,0,0,0,0,0,0,0,0,-1,1742,1310,0,0
525,-286,0,0,0,0,0,0,0,0,0,-1,1749,1310,0,0
532,-286,0,0,0,0,0,0,0,0,0,-1,1756,1310,0,0
539,-286,0,0,0,0,0,0,0,0,0,-1,1763,1310,0,0
546,-286,0,0,0,0,0,0,0,0,0,-1,1770,1310,0,0
553,-286,0,0,0,0,0,0,0,0,0,-1,1777,1310,0,0
560,-286,0,0,0,0,0,0,0,0,0,-1,1784,1310,0,0
567,-286,0,0,0,0,0,0,0,0,0,-1,1791,1310,0,0
574,-286,0,0,0,0,0,0,0,0,0,-1,1798,1310,0,0
581,-286,0,0,0,0,0,0,0,0,0,-1,1805,1310,0,0
588,-286,0,0,0,0,0,0,0,0,0,-1,1812,1310,0,0
595,-286,-0.0057373,-0.0323486,0.00408374,0.0306881,0.0128107,0.0358538,-0.00108192,1.18751,0.0242712,0.0354936,1819,1310,-0.00570567,0.0322876
602,-286,0.0872803,-0.010498,0.000703708,0.0233152,0.012146,0.028603,-0.00458407,1.16019,0.0207661,0.0449652,1826,1310,0.0872355,0.0105534
609,-286,0.078125,-0.350952,-0.00095163,0.0165379,0.010893,0.0217619,-0.00617569,1.12362,0.0169459,0.0442718,1833,1310,0.0781181,0.35097
616,-286,-0.130371,-0.55127,-0.00158302,0.0115272,0.00937345,0.0164102,-0.00646604,1.09054,0.0136172,0.0419117,1840,1310,-0.130371,0.551266
623,-286,-0.386108,-0.89624,0,0,0,0,0,0,0,-1,1847,1310,-0.386063,0.896264
630,-286,-0.649536,-1.26538,0,0,0,0,0,0,0,-1,1854,1310,-0.649582,1.26532
637,-286,0.408569,-0.351318,-0.00316931,0.00292832,0.00466307,0.00545082,-0.0056918,1.07493,0.0064337,0.0451059,1861,1310,0.408578,0.351367
644,-286,1.05542,-0.108398,0,0,0,0,0,0,0,-1,1868,1310,1.05537,0.108389
651,-286,1.47559,0.389771,0,0,0,0,0,0,0,-1,1875,1310,1.47561,-0.389722
658,-286,0.311035,0.217407,-0.00278062,0.000228781,0.00136247,0.000753969,-0.0033058,1.20288,0.00249348,0.0432327,1882,1310,0.311038,-0.217384
665,-286,0.218384,0.161011,-0.00248896,-0.000467645,0.000858128,-0.000152478,-0.00280413,1.21882,0.00182072,0.0419857,1889,1310,0.218384,-0.160958
672,-286,0.00817871,-0.0450439,-0.00306728,-0.0003474,0.00014725,-0.000339451,-0.00307523,1.51687,0.00194689,0.023303,1896,1310,0.00819015,0.0450584
679,-286,-0.0424805,-0.0953369,-0.00317498,-8.07176e-05,-0.000237045,-6.26635e-05,-0.00319304,-1.49478,0.00210811,0.0187868,1903,1310,-0.0425188,0.0953337
686,-286,-0.0721436,-0.105957,-0.00301573,0.000198465,-0.000633227,0.000318718,-0.00313599,-1.38313,0.00220459,0.0188308,1910,1310,-0.0722005,0.105955
693,-286,-0.0413818,-0.0874023,-0.00246299,0.000552442,-0.000613651,0.000672539,-0.00258309,-1.37753,0.00198459,0.0148884,1917,1310,-0.041372,0.0873955
700,-286,-0.010498,-0.0836182,-0.00128992,0.000515254,-0.000517557,0.000653113,-0.00142778,-1.31048,0.00122884,0.0113331,1924,1310,-0.0105176,0.0835815
707,-286,-0.0141602,-0.0687256,-0.000699736,0.000679895,-0.000530657,0.000860391,-0.000880232,-1.24293,0.00100497,0.00910315,1931,1310,-0.0140994,0.0686943
714,-286,-0.0355225,-0.0627441,-0.000500702,0.000242413,-0.000784801,0.000739169,-0.000997458,-1.00649,0.00100633,0.00833515,1938,1310,-0.0354699,0.0627134
721,-286,-0.0380859,-0.0750732,-0.00026053,-7.01585e-05,-0.00101419,0.000853306,-0.00118399,-0.832188,0.00118139,0.0097956,1945,1310,-0.0380543,0.075035
728,-286,-0.0428467,-0.0859375,-0.00029084,-0.000338993,-0.00142611,0.0011114,-0.00174123,-0.776958,0.00166029,0.0119591,1952,1310,-0.0428402,0.0859098
735,-286,-0.0462646,-0.0831299,-0.000581457,-0.000803056,-0.00205751,0.00136823,-0.00275274,-0.758498,0.00242359,0.0133514,1959,1310,-0.046311,0.0830854
742,-286,-0.0297852,-0.101807,-0.00110811,-0.00155539,-0.00290931,0.00158614,-0.00424964,-0.747038,0.0034843,0.021555,1966,1310,-0.029819,0.10179
749,-286,0.0869141,-0.0150146,-0.00190191,-0.00260917,-0.00398094,0.00174108,-0.00625215,-0.741099,0.00485369,0.0353823,1973,1310,0.0869712,0.0150692
756,-286,-0.128784,-0.0131836,-0.00297567,-0.00414394,-0.00535215,0.00182413,-0.00894374,-0.731043,0.0066544,0.0428769,1980,1310,-0.128739,0.0131955
763,-286,-0.26001,-0.118774,-0.00439295,-0.00634835,-0.00708871,0.00178517,-0.0125265,-0.716869,0.00900521,0.0438323,1987,1310,-0.260066,0.118813
770,-286,-0.0170898,-0.201782,-0.00631222,-0.00951575,-0.00930273,0.00152563,-0.0173536,-0.700143,0.0121097,0.0432988,1994,1310,-0.0171122,0.201817
777,-286,0,0,0,0,0,0,0,0,0,-1,2001,1310,0,0
784,-286,0,0,0,0,0,0,0,0,0,-1,2008,1310,0,0
791,-286,0,0,0,0,0,0,0,0,0,-1,2015,1310,0,0
798,-286,0,0,0,0,0,0,0,0,0,-1,2022,1310,0,0
805,-286,0,0,0,0,0,0,0,0,0,-1,2029,1310,0,0
812,-286,0,0,0,0,0,0,0,0,0,-1,2036,1310,0,0
-700,-293,0,0,0,0,0,0,0,0,0,-1,524,1317,0,0
-693,-293,0,0,0,0,0,0,0,0,0,-1,531,1317,0,0
-686,-293,0,0,0,0,0,0,0,0,0,-1,538,1317,0,0
-679,-293,0,0,0,0,0,0,0,0,0,-1,545,1317,0,0
-672,-293,0,0,0,0,0,0,0,0,0,-1,552,1317,0,0
-665,-293,0,0,0,0,0,0,0,0,0,-1,559,1317,0,0
-658,-293,0,0,0,0,0,0,0,0,0,-1,566,1317,0,0
-651,-293,-0.490723,0.948608,-0.0102948,0.0255273,0.0171381,0.0324058,-0.0171733,1.18912,0.0290713,0.0474158,573,1317,-0.490734,-0.948646
-644,-293,-0.453613,1.01611,-0.00956443,0.0242431,0.0114722,0.0277685,-0.0130898,1.27266,0.0240916,0.0461039,580,1317,-0.45364,-1.01613
-637,-293,-0.374268,1.08496,-0.00815058,0.0219758,0.00722769,0.02362,-0.00979485,1.34711,0.0198349,0.0436406,587,1317,-0.374279,-1.08492
-630,-293,-0.474243,0.840332,-0.00654871,0.019186,0.00410323,0.0198244,-0.00718711,1.41645,0.016154,0.0448536,594,1317,-0.474243,-0.840326
-623,-293,-0.373779,0.513916,-0.00503668,0.0161961,0.00188562,0.0163623,-0.00520284,1.48291,0.0129944,0.0445885,601,1317,-0.373795,-0.513905
-616,-293,-0.102722,0.341919,-0.00373487,0.0132363,0.000409261,0.0132462,-0.00374473,1.5467,0.0103083,0.0430476,608,1317,-0.102699,-0.34188
-609,-293,-0.0446777,-0.0435791,-0.00304042,0.0106609,-0.000614021,0.0106884,-0.00306788,-1.5261,0.0083385,0.0351279,615,1317,-0.0446935,0.0436017
-602,-293,-0.0480347,-0.0533447,-0.00211745,0.00835287,-0.00121535,0.0084921,-0.00225667,-1.45674,0.00654462,0.0212146,622,1317,-0.0480385,0.0533282
-595,-293,-0.0303955,-0.0695801,-0.00109571,0.00599047,-0.0012311,0.00619825,-0.0013035,-1.40359,0.00462826,0.012513,629,1317,-0.0304225,0.0696253
-588,-293,-0.0147705,-0.072876,-0.000299846,0.00442178,-0.00163435,0.0049323,-0.000810363,-1.26803,0.00358895,0.0137391,636,1317,-0.0147901,0.0728947
-581,-293,-0.0176392,-0.0770264,0.000132183,0.00222535,-0.00155766,0.00305537,-0.000697839,-1.0812,0.00230501,0.0156877,643,1317,-0.0176183,0.0770734
-574,-293,-0.0220337,-0.0744629,0.000404527,-0.000105389,-0.000899949,0.00108494,-0.000785798,-0.647364,0.00108466,0.0139772,650,1317,-0.0220511,0.0744072
-567,-293,-0.0368652,-0.0627441,0.00038079,-0.00161078,-0.000468752,0.000485602,-0.0017156,-0.219981,0.00133536,0.014357,657,1317,-0.0368362,0.0627659
-560,-293,-0.0299072,-0.0606689,0.000553499,-0.00472246,0.000103345,0.000555523,-0.00472449,0.019578,0.00335022,0.0150893,664,1317,-0.0298804,0.0606967
-553,-293,-0.00720215,-0.0775146,0.00154193,-0.00600347,-0.000102511,0.00154332,-0.00600486,-0.0135826,0.00460471,0.0102859,671,1317,-0.00721413,0.0775119
-546,-293,-0.0275269,-0.0758057,0.00278616,-0.00692289,-0.000379228,0.00280095,-0.00693768,-0.0389801,0.00578922,0.00977802,678,1317,-0.0275322,0.0758172
-539,-293,-0.0418701,-0.0491943,0.00398018,-0.00777181,-0.000894831,0.00404792,-0.00783956,-0.0755623,0.00697864,0.0160705,685,1317,-0.0418607,0.0491831
-532,-293,0.0245361,-0.170044,0.00418669,-0.0080448,-0.00134715,0.00433331,-0.00819142,-0.108406,0.00734462,0.0311893,692,1317,0.0245601,0.170012
-525,-293,0.110474,-0.331177,0,0,0,0,0,0,0,-1,699,1317,0.110453,0.331234
-518,-293,-0.653137,0.200195,0,0,0,0,0,0,0,-1,706,1317,-0.653158,-0.200228
-511,-293,-0.118958,0.92749,0,0,0,0,0,0,0,-1,713,1317,-0.118955,-0.927479
-504,-293,-0.378967,1.453,0.0014661,-0.00457565,-0.00140444,0.00177661,-0.00488617,-0.217593,0.00398396,0.0442785,720,1317,-0.378985,-1.45301
-497,-293,-0.095459,1.26624,-0.0011213,-0.00176515,-0.00104255,-0.000352099,-0.00253435,-0.63565,0.00158529,0.0421438,727,1317,-0.0954664,-1.26625
-490,-293,0.116516,0.926392,-0.00531953,0.00152618,-4.13193e-05,0.00152642,-0.00531978,-1.56476,0.00414998,0.041544,734,1317,0.116506,-0.926344
-483,-293,0.490662,0.213135,-0.011731,0.00482651,0.00194184,0.0050512,-0.0119557,1.4556,0.0100851,0.0449642,741,1317,0.490656,-0.213136
-476,-293,-0.441345,0.0773926,-0.0207745,0.00660255,0.0051863,0.00755211,-0.021724,1.38971,0.0175503,0.0451066,748,1317,-0.441356,-0.0774442
-469,-293,0,0,0,0,0,0,0,0,0,-1,755,1317,0,0
-462,-293,0,0,0,0,0,0,0,0,0,-1,762,1317,0,0
-455,-293,0,0,0,0,0,0,0,0,0,-1,769,1317,0,0
-448,-293,0,0,0,0,0,0,0,0,0,-1,776,1317,0,0
-441,-293,0,0,0,0,0,0,0,0,0,-1,783,1317,0,0
-434,-293,0,0,0,0,0,0,0,0,0,-1,790,1317,0,0
-427,-293,0,0,0,0,0,0,0,0,0,-1,797,1317,0,0
-420,-293,0,0,0,0,0,0,0,0,0,-1,804,1317,0,0
-413,-293,0,0,0,0,0,0,0,0,0,-1,811,1317,0,0
-406,-293,0,0,0,0,0,0,0,0,0,-1,818,1317,0,0
-399,-293,0,0,0,0,0,0,0,0,0,-1,825,1317,0,0
-392,-293,0,0,0,0,0,0,0,0,0,-1,832,1317,0,0
-385,-293,0,0,0,0,0,0,0,0,0,-1,839,1317,0,0
-378,-293,0,0,0,0,0,0,0,0,0,-1,846,1317,0,0
-371,-293,0,0,0,0,0,0,0,0,0,-1,853,1317,0,0
-364,-293,0,0,0,0,0,0,0,0,0,-1,860,1317,0,0
-357,-293,0,0,0,0,0,0,0,0,0,-1,867,1317,0,0
-350,-293,0,0,0,0,0,0,0,0,0,-1,874,1317,0,0
-343,-293,0,0,0,0,0,0,0,0,0,-1,881,1317,0,0
-336,-293,0,0,0,0,0,0,0,0,0,-1,888,1317,0,0
-329,-293,0,0,0,0,0,0,0,0,0,-1,895,1317,0,0
-322,-293,0,0,0,0,0,0,0,0,0,-1,902,1317,0,0
-315,-293,0,0,0,0,0,0,0,0,0,-1,909,1317,0,0
-308,-293,0,0,0,0,0,0,0,0,0,-1,916,1317,0,0
-301,-293,0,0,0,0,0,0,0,0,0,-1,923,1317,0,0
-294,-293,0,0,0,0,0,0,0,0,0,-1,930,1317,0,0
-287,-293,0,0,0,0,0,0,0,0,0,-1,937,1317,0,0
-280,-293,0,0,0,0,0,0,0,0,0,-1,944,1317,0,0
-273,-293,0,0,0,0,0,0,0,0,0,-1,951,1317,0,0
-266,-293,0,0,0,0,0,0,0,0,0,-1,958,1317,0,0
-259,-293,0,0,0,0,0,0,0,0,0,-1,965,1317,0,0
-252,-293,0,0,0,0,0,0,0,0,0,-1,972,1317,0,0
-245,-293,0,0,0,0,0,0,0,0,0,-1,979,1317,0,0
-238,-293,0,0,0,0,0,0,0,0,0,-1,986,1317,0,0
-231,-293,0,0,0,0,0,0,0,0,0,-1,993,1317,0,0
-224,-293,0,0,0,0,0,0,0,0,0,-1,1000,1317,0,0
-217,-293,0,0,0,0,0,0,0,0,0,-1,1007,1317,0,0
-210,-293,0,0,0,0,0,0,0,0,0,-1,1014,1317,0,0
-203,-293,0,0,0,0,0,0,0,0,0,-1,1021,1317,0,0
-196,-293,0,0,0,0,0,0,0,0,0,-1,1028,1317,0,0
-189,-293,0,0,0,0,0,0,0,0,0,-1,1035,1317,0,0
-182,-293,0,0,0,0,0,0,0,0,0,-1,1042,1317,0,0
-175,-293,0,0,0,0,0,0,0,0,0,-1,1049,1317,0,0
-168,-293,0,0,0,0,0,0,0,0,0,-1,1056,1317,0,0
-161,-293,0,0,0,0,0,0,0,0,0,-1,1063,1317,0,0
-154,-293,0,0,0,0,0,0,0,0,0,-1,1070,1317,0,0
-147,-293,0,0,0,0,0,0,0,0,0,-1,1077,1317,0,0
-140,-293,0,0,0,0,0,0,0,0,0,-1,1084,1317,0,0
-133,-293,0,0,0,0,0,0,0,0,0,-1,1091,1317,0,0
-126,-293,0,0,0,0,0,0,0,0,0,-1,1098,1317,0,0
-119,-293,0,0,0,0,0,0,0,0,0,-1,1105,1317,0,0
-112,-293,0,0,0,0,0,0,0,0,0,-1,1112,1317,0,0
-105,-293,0,0,0,0,0,0,0,0,0,-1,1119,1317,0,0
-98,-293,0,0,0,0,0,0,0,0,0,-1,1126,1317,0,0
-91,-293,0,0,0,0,0,0,0,0,0,-1,1133,1317,0,0
-84,-293,0,0,0,0,0,0,0,0,0,-1,1140,1317,0,0
-77,-293,0,0,0,0,0,0,0,0,0,-1,1147,1317,0,0
-70,-293,0,0,0,0,0,0,0,0,0,-1,1154,1317,0,0
-63,-293,0,0,0,0,0,0,0,0,0,-1,1161,1317,0,0
-56,-293,0,0,0,0,0,0,0,0,0,-1,1168,1317,0,0
-49,-293,0,0,0,0,0,0,0,0,0,-1,1175,1317,0,0
-42,-293,0,0,0,0,0,0,0,0,0,-1,1182,1317,0,0
-35,-293,0,0,0,0,0,0,0,0,0,-1,1189,1317,0,0
-28,-293,0,0,0,0,0,0,0,0,0,-1,1196,1317,0,0
-21,-293,0,0,0,0,0,0,0,0,0,-1,1203,1317,0,0
-14,-293,0,0,0,0,0,0,0,0,0,-1,1210,1317,0,0
-7,-293,0,0,0,0,0,0,0,0,0,-1,1217,1317,0,0
0,-293,0,0,0,0,0,0,0,0,0,-1,1224,1317,0,0
7,-293,0,0,0,0,0,0,0,0,0,-1,1231,1317,0,0
14,-293,0,0,0,0,0,0,0,0,0,-1,1238,1317,0,0
21,-293,0,0,0,0,0,0,0,0,0,-1,1245,1317,0,0
28,-293,0,0,0,0,0,0,0,0,0,-1,1252,1317,0,0
35,-293,0,0,0,0,0,0,0,0,0,-1,1259,1317,0,0
42,-293,0,0,0,0,0,0,0,0,0,-1,1266,1317,0,0
49,-293,0,0,0,0,0,0,0,0,0,-1,1273,1317,0,0
56,-293,0,0,0,0,0,0,0,0,0,-1,1280,1317,0,0
63,-293,0,0,0,0,0,0,0,0,0,-1,1287,1317,0,0
70,-293,0,0,0,0,0,0,0,0,0,-1,1294,1317,0,0
77,-293,0,0,0,0,0,0,0,0,0,-1,1301,1317,0,0
84,-293,0,0,0,0,0,0,0,0,0,-1,1308,1317,0,0
91,-293,0,0,0,0,0,0,0,0,0,-1,1315,1317,0,0
98,-293,0,0,0,0,0,0,0,0,0,-1,1322,1317,0,0
105,-293,0,0,0,0,0,0,0,0,0,-1,1329,1317,0,0
112,-293,0,0,0,0,0,0,0,0,0,-1,1336,1317,0,0
119,-293,0,0,0,0,0,0,0,0,0,-1,1343,1317,0,0
126,-293,0,0,0,0,0,0,0,0,0,-1,1350,1317,0,0
133,-293,0,0,0,0,0,0,0,0,0,-1,1357,1317,0,0
140,-293,0,0,0,0,0,0,0,0,0,-1,1364,1317,0,0
147,-293,0,0,0,0,0,0,0,0,0,-1,1371,1317,0,0
154,-293,0,0,0,0,0,0,0,0,0,-1,1378,1317,0,0
161,-293,0,0,0,0,0,0,0,0,0,-1,1385,1317,0,0
168,-293,0,0,0,0,0,0,0,0,0,-1,1392,1317,0,0
175,-293,0,0,0,0,0,0,0,0,0,-1,1399,1317,0,0
182,-293,0,0,0,0,0,0,0,0,0,-1,1406,1317,0,0
189,-293,0,0,0,0,0,0,0,0,0,-1,1413,1317,0,0
196,-293,0,0,0,0,0,0,0,0,0,-1,1420,1317,0,0
203,-293,0,0,0,0,0,0,0,0,0,-1,1427,1317,0,0
210,-293,0,0,0,0,0,0,0,0,0,-1,1434,1317,0,0
217,-293,0,0,0,0,0,0,0,0,0,-1,1441,1317,0,0
224,-293,0,0,0,0,0,0,0,0,0,-1,1448,1317,0,0
231,-293,0,0,0,0,0,0,0,0,0,-1,1455,1317,0,0
238,-293,0,0,0,0,0,0,0,0,0,-1,1462,1317,0,0
245,-293,0,0,0,0,0,0,0,0,0,-1,1469,1317,0,0
252,-293,0,0,0,0,0,0,0,0,0,-1,1476,1317,0,0
259,-293,0,0,0,0,0,0,0,0,0,-1,1483,1317,0,0
266,-293,0,0,0,0,0,0,0,0,0,-1,1490,1317,0,0
273,-293,0,0,0,0,0,0,0,0,0,-1,1497,1317,0,0
280,-293,0,0,0,0,0,0,0,0,0,-1,1504,1317,0,0
287,-293,0,0,0,0,0,0,0,0,0,-1,1511,1317,0,0
294,-293,0,0,0,0,0,0,0,0,0,-1,1518,1317,0,0
301,-293,0,0,0,0,0,0,0,0,0,-1,1525,1317,0,0
308,-293,0,0,0,0,0,0,0,0,0,-1,1532,1317,0,0
315,-293,0,0,0,0,0,0,0,0,0,-1,1539,1317,0,0
322,-293,0,0,0,0,0,0,0,0,0,-1,1546,1317,0,0
329,-293,0,0,0,0,0,0,0,0,0,-1,1553,1317,0,0
336,-293,0,0,0,0,0,0,0,0,0,-1,1560,1317,0,0
343,-293,0,0,0,0,0,0,0,0,0,-1,1567,1317,0,0
350,-293,0,0,0,0,0,0,0,0,0,-1,1574,1317,0,0
357,-293,0,0,0,0,0,0,0,0,0,-1,1581,1317,0,0
364,-293,0,0,0,0,0,0,0,0,0,-1,1588,1317,0,0
371,-293,0,0,0,0,0,0,0,0,0,-1,1595,1317,0,0
378,-293,0,0,0,0,0,0,0,0,0,-1,1602,1317,0,0
385,-293,0,0,0,0,0,0,0,0,0,-1,1609,1317,0,0
392,-293,0,0,0,0,0,0,0,0,0,-1,1616,1317,0,0
399,-293,0,0,0,0,0,0,0,0,0,-1,1623,1317,0,0
406,-293,0,0,0,0,0,0,0,0,0,-1,1630,1317,0,0
413,-293,0,0,0,0,0,0,0,0,0,-1,1637,1317,0,0
420,-293,0,0,0,0,0,0,0,0,0,-1,1644,1317,0,0
427,-293,0,0,0,0,0,0,0,0,0,-1,1651,1317,0,0
434,-293,0,0,0,0,0,0,0,0,0,-1,1658,1317,0,0
441,-293,0,0,0,0,0,0,0,0,0,-1,1665,1317,0,0
448,-293,0,0,0,0,0,0,0,0,0,-1,1672,1317,0,0
455,-293,0,0,0,0,0,0,0,0,0,-1,1679,1317,0,0
462,-293,0,0,0,0,0,0,0,0,0,-1,1686,1317,0,0
469,-293,0,0,0,0,0,0,0,0,0,-1,1693,1317,0,0
476,-293,0,0,0,0,0,0,0,0,0,-1,1700,1317,0,0
483,-293,0,0,0,0,0,0,0,0,0,-1,1707,1317,0,0
490,-293,0,0,0,0,0,0,0,0,0,-1,1714,1317,0,0
497,-293,0,0,0,0,0,0,0,0,0,-1,1721,1317,0,0
504,-293,0,0,0,0,0,0,0,0,0,-1,1728,1317,0,0
511,-293,0,0,0,0,0,0,0,0,0,-1,1735,1317,0,0
518,-293,0,0,0,0,0,0,0,0,0,-1,1742,1317,0,0
525,-293,0,0,0,0,0,0,0,0,0,-1,1749,1317,0,0
532,-293,0,0,0,0,0,0,0,0,0,-1,1756,1317,0,0
539,-293,0,0,0,0,0,0,0,0,0,-1,1763,1317,0,0
546,-293,0,0,0,0,0,0,0,0,0,-1,1770,1317,0,0
553,-293,0,0,0,0,0,0,0,0,0,-1,1777,1317,0,0
560,-293,0,0,0,0,0,0,0,0,0,-1,1784,1317,0,0
567,-293,0,0,0,0,0,0,0,0,0,-1,1791,1317,0,0
574,-293,0,0,0,0,0,0,0,0,0,-1,1798,1317,0,0
581,-293,0,0,0,0,0,0,0,0,0,-1,1805,1317,0,0
588,-293,0,0,0,0,0,0,0,0,0,-1,1812,1317,0,0
595,-293,0.147949,0.0166016,0.00748002,0.0323278,0.0200821,0.0435184,-0.00371056,1.06241,0.0303249,0.0416404,1819,1317,0.147913,-0.0166522
602,-293,0.206421,0.0227051,0.00237567,0.0241762,0.0181851,0.0344777,-0.00792577,1.05539,0.0260324,0.0485097,1826,1317,0.206367,-0.022737
609,-293,-0.0983887,-0.609619,-0.000321178,0.017174,0.0157333,0.026428,-0.00957516,1.03911,0.0215321,0.0477423,1833,1317,-0.0984004,0.609595
616,-293,-0.112061,-0.530518,-0.00158015,0.0118994,0.0130861,0.0198794,-0.00956013,1.0232,0.0173415,0.0455993,1840,1317,-0.112084,0.530569
623,-293,-0.283081,-1.08142,0,0,0,0,0,0,0,-1,1847,1317,-0.283065,1.08147
630,-293,-0.390381,-2.63623,0,0,0,0,0,0,0,-1,1854,1317,-0.390324,2.63627
637,-293,0.582153,-0.305298,0,0,0,0,0,0,0,-1,1861,1317,0.582137,0.305273
644,-293,1.41235,-0.197144,0,0,0,0,0,0,0,-1,1868,1317,1.41231,0.197198
651,-293,0.231812,-0.0306396,-0.00346494,0.000768744,0.00284354,0.00219686,-0.00489306,1.10536,0.00419087,0.0406533,1875,1317,0.231805,0.0306206
658,-293,0.107056,-0.0963135,-0.00258488,-9.50198e-05,0.00160548,0.000691655,-0.00337155,1.11519,0.00251022,0.0407499,1882,1317,0.107019,0.0962874
665,-293,0.0360107,-0.0859375,-0.0021675,-0.00085384,0.00093816,-0.000365432,-0.00265591,1.0908,0.00166224,0.0316668,1889,1317,0.0360507,0.0859139
672,-293,-0.0170898,-0.0712891,-0.00276576,-0.000614698,5.81335e-06,-0.000614683,-0.00276578,1.56809,0.00167694,0.0147165,1896,1317,-0.0171248,0.0712466
679,-293,-0.02771,-0.0906982,-0.00285277,-0.000206445,-0.000436963,-0.000136159,-0.00292305,-1.41131,0.00190494,0.010695,1903,1317,-0.0277372,0.0907292
686,-293,-0.0429688,-0.103149,-0.0026694,0.000190241,-0.000839872,0.000418665,-0.00289782,-1.30525,0.00208549,0.0125591,1910,1317,-0.0430076,0.103134
693,-293,-0.0194092,-0.0977783,-0.00209805,0.000658477,-0.0007579,0.000853117,-0.00229269,-1.31942,0.00187855,0.0109692,1917,1317,-0.0194071,0.0977763
700,-293,-0.0102539,-0.0908203,-0.000927495,0.000626637,-0.000561702,0.000808394,-0.00110925,-1.25785,0.00111169,0.0102979,1924,1317,-0.0102732,0.0908343
707,-293,-0.00854492,-0.0714111,-0.000347106,0.000841557,-0.000450887,0.000993234,-0.000498783,-1.24629,0.000877042,0.0105223,1931,1317,-0.00851585,0.0713674
714,-293,-0.0213623,-0.0539551,-0.000160512,0.000465699,-0.000581077,0.000812658,-0.000507472,-1.03251,0.000768936,0.007562,1938,1317,-0.0213815,0.0539055
721,-293,-0.029541,-0.0740967,5.56145e-05,0.000232694,-0.000716207,0.000865813,-0.000577505,-0.846898,0.000838823,0.00874742,1945,1317,-0.0295475,0.0741418
728,-293,-0.0460205,-0.101318,6.43376e-06,4.09346e-05,-0.000986268,0.0010101,-0.000962735,-0.794143,0.00113913,0.0108924,1952,1317,-0.0459727,0.101261
735,-293,-0.0413818,-0.0712891,-0.000331,-0.000317359,-0.00143721,0.00111305,-0.00176141,-0.787771,0.00167358,0.0137919,1959,1317,-0.0413485,0.0712924
742,-293,-0.0491943,-0.0799561,-0.000969109,-0.000916706,-0.00206893,0.00112618,-0.003012,-0.79173,0.00247049,0.0217841,1966,1317,-0.049235,0.0799302
749,-293,0.146118,-0.0238037,-0.00197519,-0.00184422,-0.002921,0.00101203,-0.00483144,-0.796605,0.00360595,0.0325278,1973,1317,0.146145,0.023768
756,-293,0.21521,0.190186,-0.0034353,-0.0032065,-0.0040562,0.000736916,-0.00737872,-0.799496,0.00518228,0.0385503,1980,1317,0.215225,-0.19016
763,-293,0.182617,0.257935,-0.00549719,-0.00514068,-0.00554739,0.000231321,-0.0108692,-0.801459,0.00732445,0.0441196,1987,1317,0.182619,-0.257984
770,-293,0.0606689,-0.0894775,-0.00845317,-0.00785566,-0.00752989,-0.000618605,-0.0156902,-0.805226,0.0102602,0.0454643,1994,1317,0.060679,0.089511
777,-293,0,0,0,0,0,0,0,0,0,-1,2001,1317,0,0
784,-293,0,0,0,0,0,0,0,0,0,-1,2008,1317,0,0
791,-293,0,0,0,0,0,0,0,0,0,-1,2015,1317,0,0
798,-293,0,0,0,0,0,0,0,0,0,-1,2022,1317,0,0
805,-293,0,0,0,0,0,0,0,0,0,-1,2029,1317,0,0
812,-293,0,0,0,0,0,0,0,0,0,-1,2036,1317,0,0
-700,-300,0,0,0,0,0,0,0,0,0,-1,524,1324,0,0
-693,-300,0,0,0,0,0,0,0,0,0,-1,531,1324,0,0
-686,-300,0,0,0,0,0,0,0,0,0,-1,538,1324,0,0
-679,-300,0,0,0,0,0,0,0,0,0,-1,545,1324,0,0
-672,-300,0,0,0,0,0,0,0,0,0,-1,552,1324,0,0
-665,-300,0,0,0,0,0,0,0,0,0,-1,559,1324,0,0
-658,-300,0,0,0,0,0,0,0,0,0,-1,566,1324,0,0
-651,-300,-0.0261841,0.386841,-0.0128261,0.035493,0.0171602,0.0409672,-0.0183002,1.262,0.0350423,0.0445596,573,1324,-0.026204,-0.386781
-644,-300,-0.239258,0.442627,-0.0117093,0.033352,0.0113431,0.0360462,-0.0144036,1.33759,0.0300073,0.0450677,580,1324,-0.239279,-0.442641
-637,-300,-0.235168,0.386963,-0.0100795,0.0301378,0.00697646,0.0313136,-0.0112554,1.40382,0.0254704,0.0425595,587,1324,-0.235196,-0.386921
-630,-300,-0.226624,0.304443,-0.00830423,0.0263824,0.00376848,0.0267871,-0.00870894,1.46382,0.0213612,0.0434379,594,1324,-0.226644,-0.304478
-623,-300,-0.146057,0.283813,-0.00664163,0.0224267,0.00149413,0.0225033,-0.00671823,1.51958,0.0176725,0.0448946,601,1324,-0.146064,-0.283787
-616,-300,-0.0754395,0.422241,-0.00519303,0.0185209,-1.47807e-05,0.0185209,-0.00519304,-1.57017,0.014394,0.0427936,608,1324,-0.0754178,-0.422189
-609,-300,-0.0585327,0.272339,-0.0042797,0.0150066,-0.00102109,0.0150605,-0.00433361,-1.51805,0.0117543,0.0388497,615,1324,-0.0585384,-0.272283
-602,-300,-0.0380859,-0.0213623,-0.00323536,0.0118147,-0.00159513,0.0119819,-0.00340256,-1.46635,0.00933127,0.0279179,622,1324,-0.0381001,0.0213711
-595,-300,-0.0394897,-0.0795898,-0.00213426,0.00871001,-0.00157277,0.00893351,-0.00235775,-1.42964,0.00687765,0.0146655,629,1324,-0.0394961,0.0796169
-588,-300,-0.0236816,-0.0675049,-0.0012141,0.00651844,-0.00195699,0.00698551,-0.00168117,-1.33651,0.00530692,0.0184279,636,1324,-0.0236984,0.0674803
-581,-300,-0.0108643,-0.0646973,-0.000619568,0.00391061,-0.00182445,0.004554,-0.00126296,-1.23176,0.00353305,0.0180691,643,1324,-0.0108884,0.0647087
-574,-300,-0.0315552,-0.0495605,-0.000146749,0.00121904,-0.00113848,0.00186373,-0.000791438,-1.05554,0.00157408,0.0138482,650,1324,-0.0315665,0.0495004
-567,-300,-0.0412598,-0.0319824,-1.2439e-05,-0.000537662,-0.000679125,0.000453081,-0.00100318,-0.600908,0.000860537,0.0150427,657,1324,-0.0412761,0.032035
-560,-300,-0.0371704,-0.0554199,0.00025991,-0.00349278,-9.13131e-05,0.00026213,-0.00349501,-0.0243135,0.00242211,0.0137643,664,1324,-0.0371512,0.0553649
-553,-300,-0.00769043,-0.0721436,0.00130692,-0.00473456,-0.00023746,0.00131623,-0.00474387,-0.0392243,0.00368063,0.00934345,671,1324,-0.00768854,0.0721467
-546,-300,-0.0181274,-0.0723877,0.00258646,-0.00550678,-0.000449971,0.0026114,-0.00553173,-0.0553708,0.00480116,0.00812194,678,1324,-0.0181195,0.0723319
-539,-300,-0.0174561,-0.0698242,0.00377598,-0.00607383,-0.000831763,0.00384573,-0.00614358,-0.0836551,0.00581797,0.00947955,685,1324,-0.017486,0.0698236
-532,-300,-0.00170898,-0.128662,0.00399062,-0.00608516,-0.00117854,0.00412664,-0.00622117,-0.114901,0.00601497,0.0197123,692,1324,-0.0016908,0.128638
-525,-300,-0.0249634,-0.179688,0.00345801,-0.00636645,-0.00086618,0.00353379,-0.00644223,-0.0872686,0.00584068,0.0382084,699,1324,-0.0249924,0.179706
-518,-300,-0.303101,0.0230713,0.00340077,-0.00575767,-0.000838647,0.00347693,-0.00583383,-0.0905674,0.00543268,0.042396,706,1324,-0.303124,-0.0230433
-511,-300,0.00579834,0.368774,0.00271806,-0.00438514,-0.000662407,0.00277931,-0.00444638,-0.0921954,0.0042086,0.0457457,713,1324,0.0057952,-0.368729
-504,-300,-0.153564,0.52124,0.00133512,-0.00236779,-0.000360284,0.00136985,-0.00240252,-0.0960967,0.00220501,0.0458276,720,1324,-0.153538,-0.52127
-497,-300,-0.0352783,0.472534,-0.00111586,0.000195256,0.000328533,0.000272971,-0.00119358,1.33851,0.000900604,0.0459064,727,1324,-0.0352619,-0.472488
-490,-300,0.0836182,0.377686,-0.00502859,0.00305815,0.00165206,0.00338264,-0.00535307,1.37685,0.00508615,0.043856,734,1324,0.0836359,-0.377672
-483,-300,-0.859985,0.317627,-0.0108888,0.00582558,0.00389848,0.00669015,-0.0117534,1.35256,0.0107813,0.0413596,741,1324,-0.85996,-0.317649
-476,-300,-0.84491,0.440796,-0.0190469,0.00738154,0.00726177,0.00924541,-0.0209108,1.31955,0.0178396,0.0426442,748,1324,-0.844921,-0.440789
-469,-300,0,0,0,0,0,0,0,0,0,-1,755,1324,0,0
-462,-300,0,0,0,0,0,0,0,0,0,-1,762,1324,0,0
-455,-300,0,0,0,0,0,0,0,0,0,-1,769,1324,0,0
-448,-300,0,0,0,0,0,0,0,0,0,-1,776,1324,0,0
-441,-300,0,0,0,0,0,0,0,0,0,-1,783,1324,0,0
-434,-300,0,0,0,0,0,0,0,0,0,-1,790,1324,0,0
-427,-300,0,0,0,0,0,0,0,0,0,-1,797,1324,0,0
-420,-300,0,0,0,0,0,0,0,0,0,-1,804,1324,0,0
-413,-300,0,0,0,0,0,0,0,0,0,-1,811,1324,0,0
-406,-300,0,0,0,0,0,0,0,0,0,-1,818,1324,0,0
-399,-300,0,0,0,0,0,0,0,0,0,-1,825,1324,0,0
-392,-300,0,0,0,0,0,0,0,0,0,-1,832,1324,0,0
-385,-300,0,0,0,0,0,0,0,0,0,-1,839,1324,0,0
-378,-300,0,0,0,0,0,0,0,0,0,-1,846,1324,0,0
-371,-300,0,0,0,0,0,0,0,0,0,-1,853,1324,0,0
-364,-300,0,0,0,0,0,0,0,0,0,-1,860,1324,0,0
-357,-300,0,0,0,0,0,0,0,0,0,-1,867,1324,0,0
-350,-300,0,0,0,0,0,0,0,0,0,-1,874,1324,0,0
-343,-300,0,0,0,0,0,0,0,0,0,-1,881,1324,0,0
-336,-300,0,0,0,0,0,0,0,0,0,-1,888,1324,0,0
-329,-300,0,0,0,0,0,0,0,0,0,-1,895,1324,0,0
-322,-300,0,0,0,0,0,0,0,0,0,-1,902,1324,0,0
-315,-300,0,0,0,0,0,0,0,0,0,-1,909,1324,0,0
-308,-300,0,0,0,0,0,0,0,0,0,-1,916,1324,0,0
-301,-300,0,0,0,0,0,0,0,0,0,-1,923,1324,0,0
-294,-300,0,0,0,0,0,0,0,0,0,-1,930,1324,0,0
-287,-300,0,0,0,0,0,0,0,0,0,-1,937,1324,0,0
-280,-300,0,0,0,0,0,0,0,0,0,-1,944,1324,0,0
-273,-300,0,0,0,0,0,0,0,0,0,-1,951,1324,0,0
-266,-300,0,0,0,0,0,0,0,0,0,-1,958,1324,0,0
-259,-300,0,0,0,0,0,0,0,0,0,-1,965,1324,0,0
-252,-300,0,0,0,0,0,0,0,0,0,-1,972,1324,0,0
-245,-300,0,0,0,0,0,0,0,0,0,-1,979,1324,0,0
-238,-300,0,0,0,0,0,0,0,0,0,-1,986,1324,0,0
-231,-300,0,0,0,0,0,0,0,0,0,-1,993,1324,0,0
-224,-300,0,0,0,0,0,0,0,0,0,-1,1000,1324,0,0
-217,-300,0,0,0,0,0,0,0,0,0,-1,1007,1324,0,0
-210,-300,0,0,0,0,0,0,0,0,0,-1,1014,1324,0,0
-203,-300,0,0,0,0,0,0,0,0,0,-1,1021,1324,0,0
-196,-300,0,0,0,0,0,0,0,0,0,-1,1028,1324,0,0
-189,-300,0,0,0,0,0,0,0,0,0,-1,1035,1324,0,0
-182,-300,0,0,0,0,0,0,0,0,0,-1,1042,1324,0,0
-175,-300,0,0,0,0,0,0,0,0,0,-1,1049,1324,0,0
-168,-300,0,0,0,0,0,0,0,0,0,-1,1056,1324,0,0
-161,-300,0,0,0,0,0,0,0,0,0,-1,1063,1324,0,0
-154,-300,0,0,0,0,0,0,0,0,0,-1,1070,1324,0,0
-147,-300,0,0,0,0,0,0,0,0,0,-1,1077,1324,0,0
-140,-300,0,0,0,0,0,0,0,0,0,-1,1084,1324,0,0
-133,-300,0,0,0,0,0,0,0,0,0,-1,1091,1324,0,0
-126,-300,0,0,0,0,0,0,0,0,0,-1,1098,1324,0,0
-119,-300,0,0,0,0,0,0,0,0,0,-1,1105,1324,0,0
-112,-300,0,0,0,0,0,0,0,0,0,-1,1112,1324,0,0
-105,-300,0,0,0,0,0,0,0,0,0,-1,1119,1324,0,0
-98,-300,0,0,0,0,0,0,0,0,0,-1,1126,1324,0,0
-91,-300,0,0,0,0,0,0,0,0,0,-1,1133,1324,0,0
-84,-300,0,0,0,0,0,0,0,0,0,-1,1140,1324,0,0
-77,-300,0,0,0,0,0,0,0,0,0,-1,1147,1324,0,0
-70,-300,0,0,0,0,0,0,0,0,0,-1,1154,1324,0,0
-63,-300,0,0,0,0,0,0,0,0,0,-1,1161,1324,0,0
-56,-300,0,0,0,0,0,0,0,0,0,-1,1168,1324,0,0
-49,-300,0,0,0,0,0,0,0,0,0,-1,1175,1324,0,0
-42,-300,0,0,0,0,0,0,0,0,0,-1,1182,1324,0,0
-35,-300,0,0,0,0,0,0,0,0,0,-1,1189,1324,0,0
-28,-300,0,0,0,0,0,0,0,0,0,-1,1196,1324,0,0
-21,-300,0,0,0,0,0,0,0,0,0,-1,1203,1324,0,0
-14,-300,0,0,0,0,0,0,0,0,0,-1,1210,1324,0,0
-7,-300,0,0,0,0,0,0,0,0,0,-1,1217,1324,0,0
0,-300,0,0,0,0,0,0,0,0,0,-1,1224,1324,0,0
7,-300,0,0,0,0,0,0,0,0,0,-1,1231,1324,0,0
14,-300,0,0,0,0,0,0,0,0,0,-1,1238,1324,0,0
21,-300,0,0,0,0,0,0,0,0,0,-1,1245,1324,0,0
28,-300,0,0,0,0,0,0,0,0,0,-1,1252,1324,0,0
35,-300,0,0,0,0,0,0,0,0,0,-1,1259,1324,0,0
42,-300,0,0,0,0,0,0,0,0,0,-1,1266,1324,0,0
49,-300,0,0,0,0,0,0,0,0,0,-1,1273,1324,0,0
56,-300,0,0,0,0,0,0,0,0,0,-1,1280,1324,0,0
63,-300,0,0,0,0,0,0,0,0,0,-1,1287,1324,0,0
70,-300,0,0,0,0,0,0,0,0,0,-1,1294,1324,0,0
77,-300,0,0,0,0,0,0,0,0,0,-1,1301,1324,0,0
84,-300,0,0,0,0,0,0,0,0,0,-1,1308,1324,0,0
91,-300,0,0,0,0,0,0,0,0,0,-1,1315,1324,0,0
98,-300,0,0,0,0,0,0,0,0,0,-1,1322,1324,0,0
105,-300,0,0,0,0,0,0,0,0,0,-1,1329,1324,0,0
112,-300,0,0,0,0,0,0,0,0,0,-1,1336,1324,0,0
119,-300,0,0,0,0,0,0,0,0,0,-1,1343,1324,0,0
126,-300,0,0,0,0,0,0,0,0,0,-1,1350,1324,0,0
133,-300,0,0,0,0,0,0,0,0,0,-1,1357,1324,0,0
140,-300,0,0,0,0,0,0,0,0,0,-1,1364,1324,0,0
147,-300,0,0,0,0,0,0,0,0,0,-1,1371,1324,0,0
154,-300,0,0,0,0,0,0,0,0,0,-1,1378,1324,0,0
161,-300,0,0,0,0,0,0,0,0,0,-1,1385,1324,0,0
168,-300,0,0,0,0,0,0,0,0,0,-1,1392,1324,0,0
175,-300,0,0,0,0,0,0,0,0,0,-1,1399,1324,0,0
182,-300,0,0,0,0,0,0,0,0,0,-1,1406,1324,0,0
189,-300,0,0,0,0,0,0,0,0,0,-1,1413,1324,0,0
196,-300,0,0,0,0,0,0,0,0,0,-1,1420,1324,0,0
203,-300,0,0,0,0,0,0,0,0,0,-1,1427,1324,0,0
210,-300,0,0,0,0,0,0,0,0,0,-1,1434,1324,0,0
217,-300,0,0,0,0,0,0,0,0,0,-1,1441,1324,0,0
224,-300,0,0,0,0,0,0,0,0,0,-1,1448,1324,0,0
231,-300,0,0,0,0,0,0,0,0,0,-1,1455,1324,0,0
238,-300,0,0,0,0,0,0,0,0,0,-1,1462,1324,0,0
245,-300,0,0,0,0,0,0,0,0,0,-1,1469,1324,0,0
252,-300,0,0,0,0,0,0,0,0,0,-1,1476,1324,0,0
259,-300,0,0,0,0,0,0,0,0,0,-1,1483,1324,0,0
266,-300,0,0,0,0,0,0,0,0,0,-1,1490,1324,0,0
273,-300,0,0,0,0,0,0,0,0,0,-1,1497,1324,0,0
280,-300,0,0,0,0,0,0,0,0,0,-1,1504,1324,0,0
287,-300,0,0,0,0,0,0,0,0,0,-1,1511,1324,0,0
294,-300,0,0,0,0,0,0,0,0,0,-1,1518,1324,0,0
301,-300,0,0,0,0,0,0,0,0,0,-1,1525,1324,0,0
308,-300,0,0,0,0,0,0,0,0,0,-1,1532,1324,0,0
315,-300,0,0,0,0,0,0,0,0,0,-1,1539,1324,0,0
322,-300,0,0,0,0,0,0,0,0,0,-1,1546,1324,0,0
329,-300,0,0,0,0,0,0,0,0,0,-1,1553,1324,0,0
336,-300,0,0,0,0,0,0,0,0,0,-1,1560,1324,0,0
343,-300,0,0,0,0,0,0,0,0,0,-1,1567,1324,0,0
350,-300,0,0,0,0,0,0,0,0,0,-1,1574,1324,0,0
357,-300,0,0,0,0,0,0,0,0,0,-1,1581,1324,0,0
364,-300,0,0,0,0,0,0,0,0,0,-1,1588,1324,0,0
371,-300,0,0,0,0,0,0,0,0,0,-1,1595,1324,0,0
378,-300,0,0,0,0,0,0,0,0,0,-1,1602,1324,0,0
385,-300,0,0,0,0,0,0,0,0,0,-1,1609,1324,0,0
392,-300,0,0,0,0,0,0,0,0,0,-1,1616,1324,0,0
399,-300,0,0,0,0,0,0,0,0,0,-1,1623,1324,0,0
406,-300,0,0,0,0,0,0,0,0,0,-1,1630,1324,0,0
413,-300,0,0,0,0,0,0,0,0,0,-1,1637,1324,0,0
420,-300,0,0,0,0,0,0,0,0,0,-1,1644,1324,0,0
427,-300,0,0,0,0,0,0,0,0,0,-1,1651,1324,0,0
434,-300,0,0,0,0,0,0,0,0,0,-1,1658,1324,0,0
441,-300,0,0,0,0,0,0,0,0,0,-1,1665,1324,0,0
448,-300,0,0,0,0,0,0,0,0,0,-1,1672,1324,0,0
455,-300,0,0,0,0,0,0,0,0,0,-1,1679,1324,0,0
462,-300,0,0,0,0,0,0,0,0,0,-1,1686,1324,0,0
469,-300,0,0,0,0,0,0,0,0,0,-1,1693,1324,0,0
476,-300,0,0,0,0,0,0,0,0,0,-1,1700,1324,0,0
483,-300,0,0,0,0,0,0,0,0,0,-1,1707,1324,0,0
490,-300,0,0,0,0,0,0,0,0,0,-1,1714,1324,0,0
497,-300,0,0,0,0,0,0,0,0,0,-1,1721,1324,0,0
504,-300,0,0,0,0,0,0,0,0,0,-1,1728,1324,0,0
511,-300,0,0,0,0,0,0,0,0,0,-1,1735,1324,0,0
518,-300,0,0,0,0,0,0,0,0,0,-1,1742,1324,0,0
525,-300,0,0,0,0,0,0,0,0,0,-1,1749,1324,0,0
532,-300,0,0,0,0,0,0,0,0,0,-1,1756,1324,0,0
539,-300,0,0,0,0,0,0,0,0,0,-1,1763,1324,0,0
546,-300,0,0,0,0,0,0,0,0,0,-1,1770,1324,0,0
553,-300,0,0,0,0,0,0,0,0,0,-1,1777,1324,0,0
560,-300,0,0,0,0,0,0,0,0,0,-1,1784,1324,0,0
567,-300,0,0,0,0,0,0,0,0,0,-1,1791,1324,0,0
574,-300,0,0,0,0,0,0,0,0,0,-1,1798,1324,0,0
581,-300,0,0,0,0,0,0,0,0,0,-1,1805,1324,0,0
588,-300,8.01721,4.02283,0,0,0,0,0,0,0,-1,1812,1324,8.01719,-4.02287
595,-300,-0.329712,-1.25464,0,0,0,0,0,0,0,-1,1819,1324,-0.329729,1.25463
602,-300,-0.548096,-1.00024,0.00435055,0.0240279,0.0232884,0.0394707,-0.0110922,0.985261,0.0306868,0.0455913,1826,1324,-0.548102,1.00027
609,-300,-0.59021,-0.803589,0.000882489,0.0169757,0.0199181,0.0304111,-0.012553,0.977366,0.0255096,0.0469263,1833,1324,-0.590198,0.80355
616,-300,0.110718,-0.247437,-0.000942021,0.0116259,0.016425,0.0229279,-0.0122441,0.9681,0.0206165,0.0453267,1840,1324,0.11072,0.247393
623,-300,0.286011,-1.302,0,0,0,0,0,0,0,-1,1847,1324,0.286059,1.30206
630,-300,0.549683,-0.871948,-0.00290461,0.00439856,0.0104382,0.0118054,-0.0103115,0.95366,0.0127789,0.0428225,1854,1324,0.549734,0.871961
637,-300,0.774048,-0.437256,-0.00368218,0.00207892,0.0076383,0.00736178,-0.00896504,0.965712,0.00944143,0.0471688,1861,1324,0.774056,0.437293
644,-300,1.01489,-0.0291748,0,0,0,0,0,0,0,-1,1868,1324,1.01486,0.0292152
651,-300,0.441162,0.822021,-0.00339111,0.000301694,0.00348511,0.0023993,-0.00548872,1.029,0.00466913,0.0398659,1875,1324,0.441182,-0.821975
658,-300,0.223755,0.405884,-0.00235178,-0.000508791,0.00193891,0.000716462,-0.00357704,1.00723,0.00265592,0.0351162,1882,1324,0.22371,-0.405856
665,-300,-0.0174561,-0.0717773,-0.00185436,-0.00127803,0.00110789,-0.000421436,-0.00271095,0.91263,0.00168449,0.0230549,1889,1324,-0.0175032,0.0717576
672,-300,-0.0358887,-0.0773926,-0.00250992,-0.00089352,-3.72772e-05,-0.000892661,-0.00251078,-1.54775,0.00146963,0.00967964,1896,1324,-0.0358857,0.0774536
679,-300,-0.0327148,-0.086792,-0.00261327,-0.000313747,-0.000536721,-0.000194643,-0.00273237,-1.35242,0.00176029,0.00951416,1903,1324,-0.0327287,0.0867579
686,-300,-0.0136719,-0.088623,-0.00242378,0.000136458,-0.000945958,0.000448049,-0.00273537,-1.2526,0.00198982,0.00974432,1910,1324,-0.013715,0.0886739
693,-300,-0.0167236,-0.0897217,-0.00182157,0.000623003,-0.000784289,0.000852989,-0.00205156,-1.28555,0.00172387,0.00973324,1917,1324,-0.0167252,0.0897075
700,-300,-0.0336914,-0.0939941,-0.00060092,0.000524292,-0.000476876,0.000699206,-0.000775834,-1.21924,0.000851998,0.0110674,1924,1324,-0.0337103,0.0940541
707,-300,-0.0322266,-0.0953369,-2.05652e-06,0.000711255,-0.000218911,0.000773079,-6.38808e-05,-1.29555,0.000537945,0.00792581,1931,1324,-0.032264,0.0952862
714,-300,-0.0175781,-0.0744629,0.000232231,0.000326297,-0.000172025,0.000457603,0.000100925,-0.918841,0.000277611,0.00966418,1938,1324,-0.0175712,0.0744358
721,-300,-0.0249023,-0.0859375,0.000511271,8.8402e-05,-0.000139375,0.000553075,4.65974e-05,-0.291404,0.000354208,0.0110692,1945,1324,-0.0249161,0.085881
728,-300,-0.0272217,-0.10437,0.000576012,-0.00010939,-0.000170881,0.000616253,-0.000149631,-0.231275,0.000468742,0.00914222,1952,1324,-0.0272687,0.104372
735,-300,-0.0330811,-0.0635986,0.000369057,-0.000460201,-0.000332274,0.000485768,-0.000576912,-0.33779,0.000614291,0.0127546,1959,1324,-0.0330211,0.0636104
742,-300,-0.0808105,-0.0220947,-0.000162315,-0.00102665,-0.00063556,0.00017409,-0.00136306,-0.486817,0.000971946,0.0263065,1966,1324,-0.0807913,0.022134
749,-300,0.106567,0.0318604,-0.00113242,-0.0018774,-0.00113264,-0.000312595,-0.00269723,-0.626535,0.00170354,0.0388258,1973,1324,0.106565,-0.0319013
756,-300,0.328857,0.315918,-0.00269558,-0.0030941,-0.00190915,-0.00097532,-0.00481436,-0.733401,0.00293892,0.0416945,1980,1324,0.328799,-0.315887
763,-300,0.288452,0.284912,-0.00509326,-0.00478307,-0.00307149,-0.00186276,-0.00801357,-0.810624,0.0048424,0.0432501,1987,1324,0.28848,-0.284899
770,-300,-0.10498,-0.162354,-0.00875703,-0.00710996,-0.0048232,-0.0030405,-0.0128265,-0.869955,0.00773921,0.0433977,1994,1324,-0.105005,0.162303
777,-300,0,0,0,0,0,0,0,0,0,-1,2001,1324,0,0
784,-300,0,0,0,0,0,0,0,0,0,-1,2008,1324,0,0
791,-300,0,0,0,0,0,0,0,0,0,-1,2015,1324,0,0
798,-300,0,0,0,0,0,0,0,0,0,-1,2022,1324,0,0
805,-300,0,0,0,0,0,0,0,0,0,-1,2029,1324,0,0
812,-300,0,0,0,0,0,0,0,0,0,-1,2036,1324,0,0
-700,-307,0,0,0,0,0,0,0,0,0,-1,524,1331,0,0
-693,-307,0,0,0,0,0,0,0,0,0,-1,531,1331,0,0
-686,-307,0,0,0,0,0,0,0,0,0,-1,538,1331,0,0
-679,-307,0,0,0,0,0,0,0,0,0,-1,545,1331,0,0
-672,-307,0,0,0,0,0,0,0,0,0,-1,552,1331,0,0
-665,-307,0,0,0,0,0,0,0,0,0,-1,559,1331,0,0
-658,-307,0,0,0,0,0,0,0,0,0,-1,566,1331,0,0
-651,-307,0.198486,0.0183105,-0.0145431,0.0464394,0.0176108,0.0511598,-0.0192634,1.30891,0.042026,0.0459681,573,1331,0.19847,-0.0183041
-644,-307,0.0391846,0.0372314,-0.0130275,0.0433315,0.0116668,0.0456511,-0.0153471,1.37453,0.0366374,0.0450223,580,1331,0.0391688,-0.0371842
-637,-307,-0.110657,0.190063,-0.011258,0.0390138,0.00712428,0.0400039,-0.0122481,1.4327,0.0315545,0.0425726,587,1331,-0.110645,-0.19009
-630,-307,0.0455322,-0.321533,0,0,0,0,0,0,0,-1,594,1331,0.0455522,0.321553
-623,-307,-0.441528,0.14563,0,0,0,0,0,0,0,-1,601,1331,-0.441506,-0.145644
-616,-307,-0.153076,0.263306,-0.00628245,0.0241115,-0.000222892,0.0241131,-0.00628408,-1.56346,0.0185288,0.0436632,608,1331,-0.153106,-0.263296
-609,-307,0.069397,0.169556,-0.00528773,0.0195449,-0.00125072,0.0196078,-0.00535056,-1.5206,0.0151732,0.0422395,615,1331,0.0693955,-0.169508
-602,-307,0.0143433,-0.113159,-0.00419969,0.0154118,-0.00184904,0.0155846,-0.0043725,-1.47761,0.0121132,0.0304348,622,1331,0.0143336,0.113178
-595,-307,-0.0401001,-0.0977783,-0.00307427,0.0115141,-0.00184719,0.0117444,-0.00330453,-1.44678,0.00913261,0.0125453,629,1331,-0.0400775,0.0977652
-588,-307,-0.0380859,-0.0859375,-0.00208516,0.00863985,-0.00223227,0.00908592,-0.00253123,-1.37357,0.00705406,0.0169032,636,1331,-0.0381164,0.0859927
-581,-307,-0.0101318,-0.0743408,-0.00139118,0.00562583,-0.0020538,0.00618275,-0.0019481,-1.306,0.00490198,0.0150853,643,1331,-0.0101528,0.0743307
-574,-307,-0.0405273,-0.0611572,-0.000804834,0.00257091,-0.0013854,0.00306667,-0.00130059,-1.22715,0.00258925,0.0121837,650,1331,-0.0405235,0.0611541
-567,-307,-0.041687,-0.0550537,-0.000529631,0.000575528,-0.000902013,0.00108076,-0.00103487,-1.06022,0.00122155,0.0119916,657,1331,-0.0417097,0.0550606
-560,-307,-0.0356445,-0.0610352,-0.000143997,-0.00215516,-0.000316087,-9.54883e-05,-0.00220366,-0.152277,0.00143834,0.012509,664,1331,-0.0356596,0.0610746
-553,-307,-0.0275269,-0.0703125,0.000949825,-0.00332533,-0.000393179,0.000985685,-0.00336119,-0.0909518,0.00263162,0.00962969,671,1331,-0.0274996,0.0703391
-546,-307,-0.0182495,-0.0709229,0.00223998,-0.00389019,-0.000552692,0.00228941,-0.00393962,-0.0892007,0.00363816,0.00922976,678,1331,-0.0182556,0.0709688
-539,-307,-0.00689697,-0.065918,0.0033766,-0.00411553,-0.000800537,0.00346118,-0.00420011,-0.105267,0.0044301,0.0101043,685,1331,-0.00688024,0.0659445
-532,-307,0.000732422,-0.074707,0.00358256,-0.00383448,-0.00104496,0.00372697,-0.00397889,-0.137325,0.00444977,0.0166183,692,1331,0.000714099,0.0747015
-525,-307,0.0682373,-0.114258,0.00309263,-0.0039003,-0.000633923,0.00314963,-0.0039573,-0.0896778,0.00411201,0.0360425,699,1331,0.0682093,0.114271
-518,-307,0.0982666,-0.0671387,0.00303812,-0.00315219,-0.000444089,0.00306982,-0.00318389,-0.071253,0.00361078,0.0419997,706,1331,0.0982424,0.0671301
-511,-307,0.0420532,-0.0236816,0.00234851,-0.00175976,-5.62721e-05,0.00234928,-0.00176053,-0.0136939,0.0023809,0.0403675,713,1331,0.0420589,0.0236262
-504,-307,0.0405884,-0.0341797,0.00103485,4.30529e-05,0.000449477,0.00120824,-0.000130336,0.368167,0.000852267,0.0445418,720,1331,0.0406132,0.0341744
-497,-307,0.361877,-0.334106,-0.00123374,0.00207473,0.00127827,0.00251106,-0.00167007,1.24185,0.0024302,0.0471881,727,1331,0.361874,0.334067
-490,-307,0.68811,-0.288208,0,0,0,0,0,0,0,-1,734,1331,0.688081,0.28825
-483,-307,-0.70282,0.783813,-0.00996247,0.00594958,0.00479609,0.00728338,-0.0112963,1.29955,0.01081,0.0405474,741,1331,-0.702828,-0.783801
-476,-307,-0.97937,0.651733,-0.0170226,0.00651698,0.00756974,0.00874108,-0.0192467,1.28502,0.0165338,0.0434479,748,1331,-0.97934,-0.651682
-469,-307,-1.07568,0.587891,0,0,0,0,0,0,0,-1,755,1331,-1.07569,-0.587937
-462,-307,0,0,0,0,0,0,0,0,0,-1,762,1331,0,0
-455,-307,0,0,0,0,0,0,0,0,0,-1,769,1331,0,0
-448,-307,0,0,0,0,0,0,0,0,0,-1,776,1331,0,0
-441,-307,0,0,0,0,0,0,0,0,0,-1,783,1331,0,0
-434,-307,0,0,0,0,0,0,0,0,0,-1,790,1331,0,0
-427,-307,0,0,0,0,0,0,0,0,0,-1,797,1331,0,0
-420,-307,0,0,0,0,0,0,0,0,0,-1,804,1331,0,0
-413,-307,0,0,0,0,0,0,0,0,0,-1,811,1331,0,0
-406,-307,0,0,0,0,0,0,0,0,0,-1,818,1331,0,0
-399,-307,0,0,0,0,0,0,0,0,0,-1,825,1331,0,0
-392,-307,0,0,0,0,0,0,0,0,0,-1,832,1331,0,0
-385,-307,0,0,0,0,0,0,0,0,0,-1,839,1331,0,0
-378,-307,0,0,0,0,0,0,0,0,0,-1,846,1331,0,0
-371,-307,0,0,0,0,0,0,0,0,0,-1,853,1331,0,0
-364,-307,0,0,0,0,0,0,0,0,0,-1,860,1331,0,0
-357,-307,0,0,0,0,0,0,0,0,0,-1,867,1331,0,0
-350,-307,0,0,0,0,0,0,0,0,0,-1,874,1331,0,0
-343,-307,0,0,0,0,0,0,0,0,0,-1,881,1331,0,0
-336,-307,0,0,0,0,0,0,0,0,0,-1,888,1331,0,0
-329,-307,0,0,0,0,0,0,0,0,0,-1,895,1331,0,0
-322,-307,0,0,0,0,0,0,0,0,0,-1,902,1331,0,0
-315,-307,0,0,0,0,0,0,0,0,0,-1,909,1331,0,0
-308,-307,0,0,0,0,0,0,0,0,0,-1,916,1331,0,0
-301,-307,0,0,0,0,0,0,0,0,0,-1,923,1331,0,0
-294,-307,0,0,0,0,0,0,0,0,0,-1,930,1331,0,0
-287,-307,0,0,0,0,0,0,0,0,0,-1,937,1331,0,0
-280,-307,0,0,0,0,0,0,0,0,0,-1,944,1331,0,0
-273,-307,0,0,0,0,0,0,0,0,0,-1,951,1331,0,0
-266,-307,0,0,0,0,0,0,0,0,0,-1,958,1331,0,0
-259,-307,0,0,0,0,0,0,0,0,0,-1,965,1331,0,0
-252,-307,0,0,0,0,0,0,0,0,0,-1,972,1331,0,0
-245,-307,0,0,0,0,0,0,0,0,0,-1,979,1331,0,0
-238,-307,0,0,0,0,0,0,0,0,0,-1,986,1331,0,0
-231,-307,0,0,0,0,0,0,0,0,0,-1,993,1331,0,0
-224,-307,0,0,0,0,0,0,0,0,0,-1,1000,1331,0,0
-217,-307,0,0,0,0,0,0,0,0,0,-1,1007,1331,0,0
-210,-307,0,0,0,0,0,0,0,0,0,-1,1014,1331,0,0
-203,-307,0,0,0,0,0,0,0,0,0,-1,1021,1331,0,0
-196,-307,0,0,0,0,0,0,0,0,0,-1,1028,1331,0,0
-189,-307,0,0,0,0,0,0,0,0,0,-1,1035,1331,0,0
-182,-307,0,0,0,0,0,0,0,0,0,-1,1042,1331,0,0
-175,-307,0,0,0,0,0,0,0,0,0,-1,1049,1331,0,0
-168,-307,0,0,0,0,0,0,0,0,0,-1,1056,1331,0,0
-161,-307,0,0,0,0,0,0,0,0,0,-1,1063,1331,0,0
-154,-307,0,0,0,0,0,0,0,0,0,-1,1070,1331,0,0
-147,-307,0,0,0,0,0,0,0,0,0,-1,1077,1331,0,0
-140,-307,0,0,0,0,0,0,0,0,0,-1,1084,1331,0,0
-133,-307,0,0,0,0,0,0,0,0,0,-1,1091,1331,0,0
-126,-307,0,0,0,0,0,0,0,0,0,-1,1098,1331,0,0
-119,-307,0,0,0,0,0,0,0,0,0,-1,1105,1331,0,0
-112,-307,0,0,0,0,0,0,0,0,0,-1,1112,1331,0,0
-105,-307,0,0,0,0,0,0,0,0,0,-1,1119,1331,0,0
-98,-307,0,0,0,0,0,0,0,0,0,-1,1126,1331,0,0
-91,-307,0,0,0,0,0,0,0,0,0,-1,1133,1331,0,0
-84,-307,0,0,0,0,0,0,0,0,0,-1,1140,1331,0,0
-77,-307,0,0,0,0,0,0,0,0,0,-1,1147,1331,0,0
-70,-307,0,0,0,0,0,0,0,0,0,-1,1154,1331,0,0
-63,-307,0,0,0,0,0,0,0,0,0,-1,1161,1331,0,0
-56,-307,0,0,0,0,0,0,0,0,0,-1,1168,1331,0,0
-49,-307,0,0,0,0,0,0,0,0,0,-1,1175,1331,0,0
-42,-307,0,0,0,0,0,0,0,0,0,-1,1182,1331,0,0
-35,-307,0,0,0,0,0,0,0,0,0,-1,1189,1331,0,0
-28,-307,0,0,0,0,0,0,0,0,0,-1,1196,1331,0,0
-21,-307,0,0,0,0,0,0,0,0,0,-1,1203,1331,0,0
-14,-307,0,0,0,0,0,0,0,0,0,-1,1210,1331,0,0
-7,-307,0,0,0,0,0,0,0,0,0,-1,1217,1331,0,0
0,-307,0,0,0,0,0,0,0,0,0,-1,1224,1331,0,0
7,-307,0,0,0,0,0,0,0,0,0,-1,1231,1331,0,0
14,-307,0,0,0,0,0,0,0,0,0,-1,1238,1331,0,0
21,-307,0,0,0,0,0,0,0,0,0,-1,1245,1331,0,0
28,-307,0,0,0,0,0,0,0,0,0,-1,1252,1331,0,0
35,-307,0,0,0,0,0,0,0,0,0,-1,1259,1331,0,0
42,-307,0,0,0,0,0,0,0,0,0,-1,1266,1331,0,0
49,-307,0,0,0,0,0,0,0,0,0,-1,1273,1331,0,0
56,-307,0,0,0,0,0,0,0,0,0,-1,1280,1331,0,0
63,-307,0,0,0,0,0,0,0,0,0,-1,1287,1331,0,0
70,-307,0,0,0,0,0,0,0,0,0,-1,1294,1331,0,0
77,-307,0,0,0,0,0,0,0,0,0,-1,1301,1331,0,0
84,-307,0,0,0,0,0,0,0,0,0,-1,1308,1331,0,0
91,-307,0,0,0,0,0,0,0,0,0,-1,1315,1331,0,0
98,-307,0,0,0,0,0,0,0,0,0,-1,1322,1331,0,0
105,-307,0,0,0,0,0,0,0,0,0,-1,1329,1331,0,0
112,-307,0,0,0,0,0,0,0,0,0,-1,1336,1331,0,0
119,-307,0,0,0,0,0,0,0,0,0,-1,1343,1331,0,0
126,-307,0,0,0,0,0,0,0,0,0,-1,1350,1331,0,0
133,-307,0,0,0,0,0,0,0,0,0,-1,1357,1331,0,0
140,-307,0,0,0,0,0,0,0,0,0,-1,1364,1331,0,0
147,-307,0,0,0,0,0,0,0,0,0,-1,1371,1331,0,0
154,-307,0,0,0,0,0,0,0,0,0,-1,1378,1331,0,0
161,-307,0,0,0,0,0,0,0,0,0,-1,1385,1331,0,0
168,-307,0,0,0,0,0,0,0,0,0,-1,1392,1331,0,0
175,-307,0,0,0,0,0,0,0,0,0,-1,1399,1331,0,0
182,-307,0,0,0,0,0,0,0,0,0,-1,1406,1331,0,0
189,-307,0,0,0,0,0,0,0,0,0,-1,1413,1331,0,0
196,-307,0,0,0,0,0,0,0,0,0,-1,1420,1331,0,0
203,-307,0,0,0,0,0,0,0,0,0,-1,1427,1331,0,0
210,-307,0,0,0,0,0,0,0,0,0,-1,1434,1331,0,0
217,-307,0,0,0,0,0,0,0,0,0,-1,1441,1331,0,0
224,-307,0,0,0,0,0,0,0,0,0,-1,1448,1331,0,0
231,-307,0,0,0,0,0,0,0,0,0,-1,1455,1331,0,0
238,-307,0,0,0,0,0,0,0,0,0,-1,1462,1331,0,0
245,-307,0,0,0,0,0,0,0,0,0,-1,1469,1331,0,0
252,-307,0,0,0,0,0,0,0,0,0,-1,1476,1331,0,0
259,-307,0,0,0,0,0,0,0,0,0,-1,1483,1331,0,0
266,-307,0,0,0,0,0,0,0,0,0,-1,1490,1331,0,0
273,-307,0,0,0,0,0,0,0,0,0,-1,1497,1331,0,0
280,-307,0,0,0,0,0,0,0,0,0,-1,1504,1331,0,0
287,-307,0,0,0,0,0,0,0,0,0,-1,1511,1331,0,0
294,-307,0,0,0,0,0,0,0,0,0,-1,1518,1331,0,0
301,-307,0,0,0,0,0,0,0,0,0,-1,1525,1331,0,0
308,-307,0,0,0,0,0,0,0,0,0,-1,1532,1331,0,0
315,-307,0,0,0,0,0,0,0,0,0,-1,1539,1331,0,0
322,-307,0,0,0,0,0,0,0,0,0,-1,1546,1331,0,0
329,-307,0,0,0,0,0,0,0,0,0,-1,1553,1331,0,0
336,-307,0,0,0,0,0,0,0,0,0,-1,1560,1331,0,0
343,-307,0,0,0,0,0,0,0,0,0,-1,1567,1331,0,0
350,-307,0,0,0,0,0,0,0,0,0,-1,1574,1331,0,0
357,-307,0,0,0,0,0,0,0,0,0,-1,1581,1331,0,0
364,-307,0,0,0,0,0,0,0,0,0,-1,1588,1331,0,0
371,-307,0,0,0,0,0,0,0,0,0,-1,1595,1331,0,0
378,-307,0,0,0,0,0,0,0,0,0,-1,1602,1331,0,0
385,-307,0,0,0,0,0,0,0,0,0,-1,1609,1331,0,0
392,-307,0,0,0,0,0,0,0,0,0,-1,1616,1331,0,0
399,-307,0,0,0,0,0,0,0,0,0,-1,1623,1331,0,0
406,-307,0,0,0,0,0,0,0,0,0,-1,1630,1331,0,0
413,-307,0,0,0,0,0,0,0,0,0,-1,1637,1331,0,0
420,-307,0,0,0,0,0,0,0,0,0,-1,1644,1331,0,0
427,-307,0,0,0,0,0,0,0,0,0,-1,1651,1331,0,0
434,-307,0,0,0,0,0,0,0,0,0,-1,1658,1331,0,0
441,-307,0,0,0,0,0,0,0,0,0,-1,1665,1331,0,0
448,-307,0,0,0,0,0,0,0,0,0,-1,1672,1331,0,0
455,-307,0,0,0,0,0,0,0,0,0,-1,1679,1331,0,0
462,-307,0,0,0,0,0,0,0,0,0,-1,1686,1331,0,0
469,-307,0,0,0,0,0,0,0,0,0,-1,1693,1331,0,0
476,-307,0,0,0,0,0,0,0,0,0,-1,1700,1331,0,0
483,-307,0,0,0,0,0,0,0,0,0,-1,1707,1331,0,0
490,-307,0,0,0,0,0,0,0,0,0,-1,1714,1331,0,0
497,-307,0,0,0,0,0,0,0,0,0,-1,1721,1331,0,0
504,-307,0,0,0,0,0,0,0,0,0,-1,1728,1331,0,0
511,-307,0,0,0,0,0,0,0,0,0,-1,1735,1331,0,0
518,-307,0,0,0,0,0,0,0,0,0,-1,1742,1331,0,0
525,-307,0,0,0,0,0,0,0,0,0,-1,1749,1331,0,0
532,-307,0,0,0,0,0,0,0,0,0,-1,1756,1331,0,0
539,-307,0,0,0,0,0,0,0,0,0,-1,1763,1331,0,0
546,-307,0,0,0,0,0,0,0,0,0,-1,1770,1331,0,0
553,-307,0,0,0,0,0,0,0,0,0,-1,1777,1331,0,0
560,-307,0,0,0,0,0,0,0,0,0,-1,1784,1331,0,0
567,-307,0,0,0,0,0,0,0,0,0,-1,1791,1331,0,0
574,-307,0,0,0,0,0,0,0,0,0,-1,1798,1331,0,0
581,-307,0,0,0,0,0,0,0,0,0,-1,1805,1331,0,0
588,-307,4.01587,-1.35303,0,0,0,0,0,0,0,-1,1812,1331,4.01592,1.35308
595,-307,2.63452,1.21875,0,0,0,0,0,0,0,-1,1819,1331,2.63452,-1.21873
602,-307,-1.18689,-1.10864,0,0,0,0,0,0,0,-1,1826,1331,-1.18692,1.10869
609,-307,-1.17773,-0.996216,0.00145975,0.0165809,0.0237263,0.0339221,-0.0158815,0.93964,0.0293762,0.0453687,1833,1331,-1.17768,0.99625
616,-307,-0.897705,-0.765381,-0.000802723,0.0110829,0.0195054,0.0255307,-0.0152505,0.933268,0.0237931,0.0442084,1840,1331,-0.897752,0.765335
623,-307,0.403809,-1.02466,-0.0019156,0.0069728,0.0156337,0.0187817,-0.0137245,0.923881,0.018843,0.044039,1847,1331,0.403828,1.02468
630,-307,0.792847,-0.592285,-0.0031853,0.00354718,0.0123848,0.0130151,-0.0126532,0.918094,0.0148201,0.0428155,1854,1331,0.792867,0.592301
637,-307,1.05103,-0.214966,-0.00403988,0.00115397,0.00908108,0.00800215,-0.0108881,0.924667,0.0109486,0.0445034,1861,1331,1.05102,0.214967
644,-307,1.2572,0.197388,0,0,0,0,0,0,0,-1,1868,1331,1.25725,-0.19743
651,-307,0.0723877,0.28125,-0.00343934,-0.000438742,0.00412982,0.00245485,-0.00633294,0.959628,0.00523572,0.0408192,1875,1331,0.0723866,-0.281288
658,-307,0.0328369,0.0966797,-0.00222291,-0.00109747,0.00232375,0.000730727,-0.0040511,0.904191,0.00297438,0.0325245,1882,1331,0.0328613,-0.0967343
665,-307,-0.0218506,-0.0723877,-0.00163842,-0.00179172,0.00133976,-0.000373121,-0.00305702,0.756823,0.00192572,0.0126954,1889,1331,-0.0218624,0.0723921
672,-307,-0.0378418,-0.081665,-0.00226323,-0.00121068,2.22297e-05,-0.00121021,-0.0022637,1.54969,0.00130799,0.00807346,1896,1331,-0.037873,0.0816109
679,-307,-0.034668,-0.0783691,-0.00235302,-0.000468334,-0.000517624,-0.000335528,-0.00248583,-1.31965,0.00155747,0.00879323,1903,1331,-0.0346514,0.0783582
686,-307,-0.0145264,-0.0683594,-0.00218489,-1.70386e-05,-0.000874955,0.000292033,-0.00249396,-1.23124,0.00176804,0.00884058,1910,1331,-0.0145125,0.0683382
693,-307,-0.0411377,-0.0584717,-0.0016422,0.000345409,-0.00057398,0.000499254,-0.00179604,-1.30892,0.00139391,0.0109985,1917,1331,-0.0411795,0.0584201
700,-307,-0.0454102,-0.0704346,-0.000531805,7.51525e-05,-0.000122299,9.88686e-05,-0.000555521,-1.37925,0.000407323,0.0115747,1924,1331,-0.0453745,0.0704562
707,-307,-0.0445557,-0.0889893,-4.42992e-05,0.000106027,0.000339458,0.000378544,-0.000316815,0.894351,0.000401993,0.0124319,1931,1331,-0.0445005,0.0890265
714,-307,-0.0234375,-0.0839844,9.7689e-05,-0.000401165,0.000639454,0.00053464,-0.000838116,0.599443,0.000798991,0.0118846,1938,1331,-0.0234743,0.0839265
721,-307,-0.020752,-0.0894775,0.000275617,-0.000802005,0.000931625,0.000813023,-0.00133941,0.523222,0.00125503,0.0131966,1945,1331,-0.0207814,0.0894204
728,-307,-0.0158691,-0.0792236,0.000276454,-0.0011776,0.00124356,0.000989913,-0.00189106,0.520875,0.00169024,0.0145895,1952,1331,-0.0158129,0.0792617
735,-307,-0.0395508,-0.0407715,2.51486e-05,-0.00167592,0.00148747,0.000888084,-0.00253886,0.525685,0.00205364,0.0250762,1959,1331,-0.039523,0.040807
742,-307,-0.0384521,0.00280762,-0.000560501,-0.00232583,0.00162883,0.000409452,-0.00329578,0.537096,0.00234561,0.036139,1966,1331,-0.0383971,-0.00281558
749,-307,0.0175781,0.0239258,0,0,0,0,0,0,0,-1,1973,1331,0.017626,-0.0239035
756,-307,0.452515,0.288086,-0.00336039,-0.0041763,0.001259,-0.0024449,-0.00509179,0.628719,0.00294052,0.0435838,1980,1331,0.452536,-0.288077
763,-307,0.326538,0.26709,-0.00607308,-0.0054297,0.000469173,-0.00518253,-0.00632026,1.08591,0.00389012,0.0426817,1987,1331,0.326478,-0.267043
770,-307,0,0,0,0,0,0,0,0,0,-1,1994,1331,0,0
777,-307,0,0,0,0,0,0,0,0,0,-1,2001,1331,0,0
784,-307,0,0,0,0,0,0,0,0,0,-1,2008,1331,0,0
791,-307,0,0,0,0,0,0,0,0,0,-1,2015,1331,0,0
798,-307,0,0,0,0,0,0,0,0,0,-1,2022,1331,0,0
805,-307,0,0,0,0,0,0,0,0,0,-1,2029,1331,0,0
812,-307,0,0,0,0,0,0,0,0,0,-1,2036,1331,0,0
-700,-314,0,0,0,0,0,0,0,0,0,-1,524,1338,0,0
-693,-314,0,0,0,0,0,0,0,0,0,-1,531,1338,0,0
-686,-314,0,0,0,0,0,0,0,0,0,-1,538,1338,0,0
-679,-314,0,0,0,0,0,0,0,0,0,-1,545,1338,0,0
-672,-314,0,0,0,0,0,0,0,0,0,-1,552,1338,0,0
-665,-314,0,0,0,0,0,0,0,0,0,-1,559,1338,0,0
-658,-314,0,0,0,0,0,0,0,0,0,-1,566,1338,0,0
-651,-314,0,0,0,0,0,0,0,0,0,-1,573,1338,0,0
-644,-314,0.291931,-0.152466,-0.0147775,0.0531589,0.0123169,0.055323,-0.0169417,1.39687,0.0436395,0.0467562,580,1338,0.291939,0.15248
-637,-314,-0.0819702,0.404297,-0.012575,0.048,0.0075051,0.048916,-0.013491,1.44935,0.0379164,0.0416296,587,1338,-0.0819987,-0.404313
-630,-314,-0.103516,0.328613,-0.0104897,0.0421816,0.00394856,0.042476,-0.0107841,1.49638,0.0325137,0.0400198,594,1338,-0.103517,-0.328614
-623,-314,0.248108,0.917847,0,0,0,0,0,0,0,-1,601,1338,0.24813,-0.91789
-616,-314,0.178955,0.525146,-0.00716833,0.0301741,-0.000331617,0.030177,-0.00717128,-1.56192,0.0228861,0.0484457,608,1338,0.178931,-0.525115
-609,-314,0.122681,0.0849609,-0.00604113,0.0245773,-0.0014096,0.024642,-0.00610589,-1.52489,0.0187968,0.0441053,615,1338,0.122691,-0.0849281
-602,-314,0.00115967,-0.120483,-0.00491693,0.0195193,-0.00206087,0.0196919,-0.00508952,-1.48725,0.0151128,0.0363736,622,1338,0.00113458,0.120537
-595,-314,-0.0183105,-0.0611572,-0.00380222,0.0147905,-0.00209736,0.0150241,-0.00403587,-1.45985,0.0115979,0.0213943,629,1338,-0.0182962,0.0611948
-588,-314,-0.0303345,-0.0657959,-0.00277572,0.0111578,-0.0024796,0.0115859,-0.00320383,-1.39983,0.00898435,0.0121611,636,1338,-0.0303578,0.0658045
-581,-314,-0.0302124,-0.0761719,-0.00199882,0.00767254,-0.00228318,0.00818445,-0.00251073,-1.35024,0.006458,0.0121,643,1338,-0.0301971,0.0761949
-574,-314,-0.0386353,-0.0891113,-0.00130894,0.0042506,-0.00166132,0.00470921,-0.00176756,-1.30145,0.00386579,0.0122737,650,1338,-0.0386133,0.0890778
-567,-314,-0.03302,-0.0828857,-0.000933146,0.0019844,-0.00118954,0.00240792,-0.00135667,-1.22875,0.00220155,0.014042,657,1338,-0.0330175,0.0828622
-560,-314,-0.0201416,-0.0765381,-0.000480889,-0.000483024,-0.000643159,0.000161203,-0.00112512,-0.784568,0.000809182,0.014355,664,1338,-0.0201254,0.0765041
-553,-314,-0.0231934,-0.0767822,0.000606893,-0.00157715,-0.000636339,0.00077877,-0.00174903,-0.263807,0.00149483,0.015612,671,1338,-0.0231666,0.0767223
-546,-314,-0.015564,-0.0738525,0.00182489,-0.0019592,-0.000715343,0.0019556,-0.00208991,-0.180734,0.00233611,0.0163274,678,1338,-0.0155866,0.0738086
-539,-314,-0.0283813,-0.0749512,0.00283035,-0.00183656,-0.00075313,0.00294887,-0.00195509,-0.156099,0.00285062,0.0155043,685,1338,-0.0283552,0.0749496
-532,-314,-0.046936,-0.0650635,0.00299205,-0.00126951,-0.000821488,0.00314492,-0.00142238,-0.183987,0.00269872,0.0169152,692,1338,-0.0469173,0.0651028
-525,-314,0.0012207,-0.0650635,0.00253302,-0.00114323,-0.000250181,0.00254997,-0.00116017,-0.0676377,0.00219158,0.0291064,699,1338,0.00123331,0.0650868
-518,-314,0.0779419,-0.0606689,0.00243289,-0.000320644,0.000190693,0.00244603,-0.000333787,0.0688161,0.00175258,0.0394455,706,1338,0.0779559,0.0606754
-511,-314,0.115967,-0.0119629,0.00169968,0.00103736,0.000884231,0.00231273,0.000424311,0.606226,0.00142165,0.0394907,713,1338,0.115991,0.0119978
-504,-314,0.301758,-0.21582,0.000490817,0.00250656,0.00168919,0.00346571,-0.000468335,1.05438,0.00248136,0.0431511,720,1338,0.301739,0.215809
-497,-314,0.472961,-0.427612,-0.00147492,0.00395236,0.00273739,0.00509322,-0.00261577,1.17592,0.00452675,0.0459321,727,1338,0.47299,0.427666
-490,-314,0.607544,-0.388184,-0.00449587,0.00534812,0.00430972,0.00696828,-0.00611602,1.21121,0.00755956,0.0445069,734,1338,0.607532,0.388212
-483,-314,0.545776,-0.316772,-0.00874133,0.00626784,0.00633581,0.00858473,-0.0110582,1.22022,0.0113708,0.0421843,741,1338,0.545783,0.316712
-476,-314,-0.908264,0.722412,-0.0143354,0.00621484,0.0086671,0.00938207,-0.0175027,1.22044,0.0157562,0.0418231,748,1338,-0.908239,-0.722472
-469,-314,1.62976,-0.158569,0,0,0,0,0,0,0,-1,755,1338,1.62975,0.158616
-462,-314,0,0,0,0,0,0,0,0,0,-1,762,1338,0,0
-455,-314,0,0,0,0,0,0,0,0,0,-1,769,1338,0,0
-448,-314,0,0,0,0,0,0,0,0,0,-1,776,1338,0,0
-441,-314,0,0,0,0,0,0,0,0,0,-1,783,1338,0,0
-434,-314,0,0,0,0,0,0,0,0,0,-1,790,1338,0,0
-427,-314,0,0,0,0,0,0,0,0,0,-1,797,1338,0,0
-420,-314,0,0,0,0,0,0,0,0,0,-1,804,1338,0,0
-413,-314,0,0,0,0,0,0,0,0,0,-1,811,1338,0,0
-406,-314,0,0,0,0,0,0,0,0,0,-1,818,1338,0,0
-399,-314,0,0,0,0,0,0,0,0,0,-1,825,1338,0,0
-392,-314,0,0,0,0,0,0,0,0,0,-1,832,1338,0,0
-385,-314,0,0,0,0,0,0,0,0,0,-1,839,1338,0,0
-378,-314,0,0,0,0,0,0,0,0,0,-1,846,1338,0,0
-371,-314,0,0,0,0,0,0,0,0,0,-1,853,1338,0,0
-364,-314,0,0,0,0,0,0,0,0,0,-1,860,1338,0,0
-357,-314,0,0,0,0,0,0,0,0,0,-1,867,1338,0,0
-350,-314,0,0,0,0,0,0,0,0,0,-1,874,1338,0,0
-343,-314,0,0,0,0,0,0,0,0,0,-1,881,1338,0,0
-336,-314,0,0,0,0,0,0,0,0,0,-1,888,1338,0,0
-329,-314,0,0,0,0,0,0,0,0,0,-1,895,1338,0,0
-322,-314,0,0,0,0,0,0,0,0,0,-1,902,1338,0,0
-315,-314,0,0,0,0,0,0,0,0,0,-1,909,1338,0,0
-308,-314,0,0,0,0,0,0,0,0,0,-1,916,1338,0,0
-301,-314,0,0,0,0,0,0,0,0,0,-1,923,1338,0,0
-294,-314,0,0,0,0,0,0,0,0,0,-1,930,1338,0,0
-287,-314,0,0,0,0,0,0,0,0,0,-1,937,1338,0,0
-280,-314,0,0,0,0,0,0,0,0,0,-1,944,1338,0,0
-273,-314,0,0,0,0,0,0,0,0,0,-1,951,1338,0,0
-266,-314,0,0,0,0,0,0,0,0,0,-1,958,1338,0,0
-259,-314,0,0,0,0,0,0,0,0,0,-1,965,1338,0,0
-252,-314,0,0,0,0,0,0,0,0,0,-1,972,1338,0,0
-245,-314,0,0,0,0,0,0,0,0,0,-1,979,1338,0,0
-238,-314,0,0,0,0,0,0,0,0,0,-1,986,1338,0,0
-231,-314,0,0,0,0,0,0,0,0,0,-1,993,1338,0,0
-224,-314,0,0,0,0,0,0,0,0,0,-1,1000,1338,0,0
-217,-314,0,0,0,0,0,0,0,0,0,-1,1007,1338,0,0
-210,-314,0,0,0,0,0,0,0,0,0,-1,1014,1338,0,0
-203,-314,0,0,0,0,0,0,0,0,0,-1,1021,1338,0,0
-196,-314,0,0,0,0,0,0,0,0,0,-1,1028,1338,0,0
-189,-314,0,0,0,0,0,0,0,0,0,-1,1035,1338,0,0
-182,-314,0,0,0,0,0,0,0,0,0,-1,1042,1338,0,0
-175,-314,0,0,0,0,0,0,0,0,0,-1,1049,1338,0,0
-168,-314,0,0,0,0,0,0,0,0,0,-1,1056,1338,0,0
-161,-314,0,0,0,0,0,0,0,0,0,-1,1063,1338,0,0
-154,-314,0,0,0,0,0,0,0,0,0,-1,1070,1338,0,0
-147,-314,0,0,0,0,0,0,0,0,0,-1,1077,1338,0,0
-140,-314,0,0,0,0,0,0,0,0,0,-1,1084,1338,0,0
-133,-314,0,0,0,0,0,0,0,0,0,-1,1091,1338,0,0
-126,-314,0,0,0,0,0,0,0,0,0,-1,1098,1338,0,0
-119,-314,0,0,0,0,0,0,0,0,0,-1,1105,1338,0,0
-112,-314,0,0,0,0,0,0,0,0,0,-1,1112,1338,0,0
-105,-314,0,0,0,0,0,0,0,0,0,-1,1119,1338,0,0
-98,-314,0,0,0,0,0,0,0,0,0,-1,1126,1338,0,0
-91,-314,0,0,0,0,0,0,0,0,0,-1,1133,1338,0,0
-84,-314,0,0,0,0,0,0,0,0,0,-1,1140,1338,0,0
-77,-314,0,0,0,0,0,0,0,0,0,-1,1147,1338,0,0
-70,-314,0,0,0,0,0,0,0,0,0,-1,1154,1338,0,0
-63,-314,0,0,0,0,0,0,0,0,0,-1,1161,1338,0,0
-56,-314,0,0,0,0,0,0,0,0,0,-1,1168,1338,0,0
-49,-314,0,0,0,0,0,0,0,0,0,-1,1175,1338,0,0
-42,-314,0,0,0,0,0,0,0,0,0,-1,1182,1338,0,0
-35,-314,0,0,0,0,0,0,0,0,0,-1,1189,1338,0,0
-28,-314,0,0,0,0,0,0,0,0,0,-1,1196,1338,0,0
-21,-314,0,0,0,0,0,0,0,0,0,-1,1203,1338,0,0
-14,-314,0,0,0,0,0,0,0,0,0,-1,1210,1338,0,0
-7,-314,0,0,0,0,0,0,0,0,0,-1,1217,1338,0,0
0,-314,0,0,0,0,0,0,0,0,0,-1,1224,1338,0,0
7,-314,0,0,0,0,0,0,0,0,0,-1,1231,1338,0,0
14,-314,0,0,0,0,0,0,0,0,0,-1,1238,1338,0,0
21,-314,0,0,0,0,0,0,0,0,0,-1,1245,1338,0,0
28,-314,0,0,0,0,0,0,0,0,0,-1,1252,1338,0,0
35,-314,0,0,0,0,0,0,0,0,0,-1,1259,1338,0,0
42,-314,0,0,0,0,0,0,0,0,0,-1,1266,1338,0,0
49,-314,0,0,0,0,0,0,0,0,0,-1,1273,1338,0,0
56,-314,0,0,0,0,0,0,0,0,0,-1,1280,1338,0,0
63,-314,0,0,0,0,0,0,0,0,0,-1,1287,1338,0,0
70,-314,0,0,0,0,0,0,0,0,0,-1,1294,1338,0,0
77,-314,0,0,0,0,0,0,0,0,0,-1,1301,1338,0,0
84,-314,0,0,0,0,0,0,0,0,0,-1,1308,1338,0,0
91,-314,0,0,0,0,0,0,0,0,0,-1,1315,1338,0,0
98,-314,0,0,0,0,0,0,0,0,0,-1,1322,1338,0,0
105,-314,0,0,0,0,0,0,0,0,0,-1,1329,1338,0,0
112,-314,0,0,0,0,0,0,0,0,0,-1,1336,1338,0,0
119,-314,0,0,0,0,0,0,0,0,0,-1,1343,1338,0,0
126,-314,0,0,0,0,0,0,0,0,0,-1,1350,1338,0,0
133,-314,0,0,0,0,0,0,0,0,0,-1,1357,1338,0,0
140,-314,0,0,0,0,0,0,0,0,0,-1,1364,1338,0,0
147,-314,0,0,0,0,0,0,0,0,0,-1,1371,1338,0,0
154,-314,0,0,0,0,0,0,0,0,0,-1,1378,1338,0,0
161,-314,0,0,0,0,0,0,0,0,0,-1,1385,1338,0,0
168,-314,0,0,0,0,0,0,0,0,0,-1,1392,1338,0,0
175,-314,0,0,0,0,0,0,0,0,0,-1,1399,1338,0,0
182,-314,0,0,0,0,0,0,0,0,0,-1,1406,1338,0,0
189,-314,0,0,0,0,0,0,0,0,0,-1,1413,1338,0,0
196,-314,0,0,0,0,0,0,0,0,0,-1,1420,1338,0,0
203,-314,0,0,0,0,0,0,0,0,0,-1,1427,1338,0,0
210,-314,0,0,0,0,0,0,0,0,0,-1,1434,1338,0,0
217,-314,0,0,0,0,0,0,0,0,0,-1,1441,1338,0,0
224,-314,0,0,0,0,0,0,0,0,0,-1,1448,1338,0,0
231,-314,0,0,0,0,0,0,0,0,0,-1,1455,1338,0,0
238,-314,0,0,0,0,0,0,0,0,0,-1,1462,1338,0,0
245,-314,0,0,0,0,0,0,0,0,0,-1,1469,1338,0,0
252,-314,0,0,0,0,0,0,0,0,0,-1,1476,1338,0,0
259,-314,0,0,0,0,0,0,0,0,0,-1,1483,1338,0,0
266,-314,0,0,0,0,0,0,0,0,0,-1,1490,1338,0,0
273,-314,0,0,0,0,0,0,0,0,0,-1,1497,1338,0,0
280,-314,0,0,0,0,0,0,0,0,0,-1,1504,1338,0,0
287,-314,0,0,0,0,0,0,0,0,0,-1,1511,1338,0,0
294,-314,0,0,0,0,0,0,0,0,0,-1,1518,1338,0,0
301,-314,0,0,0,0,0,0,0,0,0,-1,1525,1338,0,0
308,-314,0,0,0,0,0,0,0,0,0,-1,1532,1338,0,0
315,-314,0,0,0,0,0,0,0,0,0,-1,1539,1338,0,0
322,-314,0,0,0,0,0,0,0,0,0,-1,1546,1338,0,0
329,-314,0,0,0,0,0,0,0,0,0,-1,1553,1338,0,0
336,-314,0,0,0,0,0,0,0,0,0,-1,1560,1338,0,0
343,-314,0,0,0,0,0,0,0,0,0,-1,1567,1338,0,0
350,-314,0,0,0,0,0,0,0,0,0,-1,1574,1338,0,0
357,-314,0,0,0,0,0,0,0,0,0,-1,1581,1338,0,0
364,-314,0,0,0,0,0,0,0,0,0,-1,1588,1338,0,0
371,-314,0,0,0,0,0,0,0,0,0,-1,1595,1338,0,0
378,-314,0,0,0,0,0,0,0,0,0,-1,1602,1338,0,0
385,-314,0,0,0,0,0,0,0,0,0,-1,1609,1338,0,0
392,-314,0,0,0,0,0,0,0,0,0,-1,1616,1338,0,0
399,-314,0,0,0,0,0,0,0,0,0,-1,1623,1338,0,0
406,-314,0,0,0,0,0,0,0,0,0,-1,1630,1338,0,0
413,-314,0,0,0,0,0,0,0,0,0,-1,1637,1338,0,0
420,-314,0,0,0,0,0,0,0,0,0,-1,1644,1338,0,0
427,-314,0,0,0,0,0,0,0,0,0,-1,1651,1338,0,0
434,-314,0,0,0,0,0,0,0,0,0,-1,1658,1338,0,0
441,-314,0,0,0,0,0,0,0,0,0,-1,1665,1338,0,0
448,-314,0,0,0,0,0,0,0,0,0,-1,1672,1338,0,0
455,-314,0,0,0,0,0,0,0,0,0,-1,1679,1338,0,0
462,-314,0,0,0,0,0,0,0,0,0,-1,1686,1338,0,0
469,-314,0,0,0,0,0,0,0,0,0,-1,1693,1338,0,0
476,-314,0,0,0,0,0,0,0,0,0,-1,1700,1338,0,0
483,-314,0,0,0,0,0,0,0,0,0,-1,1707,1338,0,0
490,-314,0,0,0,0,0,0,0,0,0,-1,1714,1338,0,0
497,-314,0,0,0,0,0,0,0,0,0,-1,1721,1338,0,0
504,-314,0,0,0,0,0,0,0,0,0,-1,1728,1338,0,0
511,-314,0,0,0,0,0,0,0,0,0,-1,1735,1338,0,0
518,-314,0,0,0,0,0,0,0,0,0,-1,1742,1338,0,0
525,-314,0,0,0,0,0,0,0,0,0,-1,1749,1338,0,0
532,-314,0,0,0,0,0,0,0,0,0,-1,1756,1338,0,0
539,-314,0,0,0,0,0,0,0,0,0,-1,1763,1338,0,0
546,-314,0,0,0,0,0,0,0,0,0,-1,1770,1338,0,0
553,-314,0,0,0,0,0,0,0,0,0,-1,1777,1338,0,0
560,-314,0,0,0,0,0,0,0,0,0,-1,1784,1338,0,0
567,-314,0,0,0,0,0,0,0,0,0,-1,1791,1338,0,0
574,-314,0,0,0,0,0,0,0,0,0,-1,1798,1338,0,0
581,-314,3.08655,-1.86511,0.0393179,0.0505186,0.0376067,0.0829397,0.00689681,0.859314,0.0531436,0.0481309,1805,1338,3.0865,1.86505
588,-314,3.62573,-1.83691,0.0238268,0.0403059,0.0367499,0.0697286,-0.00559586,0.895678,0.0484588,0.0481889,1812,1338,3.62578,1.83695
595,-314,4.14539,-1.81091,0,0,0,0,0,0,0,-1,1819,1338,4.1454,1.81093
602,-314,1.52527,-1.38477,0.00671048,0.0216388,0.0303481,0.0454272,-0.0170779,0.905981,0.037304,0.0415794,1826,1338,1.52528,1.38473
609,-314,-1.87598,-0.564697,0.00222594,0.0149152,0.0261161,0.0354463,-0.0183052,0.904559,0.031555,0.0410601,1833,1338,-1.87596,0.564646
616,-314,1.00488,-1.83228,0,0,0,0,0,0,0,-1,1840,1338,1.00486,1.83228
623,-314,0.750122,-1.66626,-0.00182516,0.00572901,0.0175646,0.019918,-0.0160142,0.891305,0.0207862,0.0414417,1847,1338,0.750147,1.6663
630,-314,0.979858,-0.271606,-0.00337775,0.00233602,0.014113,0.0138784,-0.0149201,0.885264,0.0166304,0.044935,1854,1338,0.979902,0.271655
637,-314,1.27832,0.0552979,0,0,0,0,0,0,0,-1,1861,1338,1.27827,-0.0553368
644,-314,0.0529785,0.127197,-0.00419489,-0.000977748,0.00700302,0.00459907,-0.00977171,0.898289,0.00847423,0.0414428,1868,1338,0.0529213,-0.127159
651,-314,-0.1073,-0.0566406,-0.00370509,-0.00106926,0.00480744,0.00259764,-0.00737199,0.919182,0.00597193,0.0396587,1875,1338,-0.107359,0.0566063
658,-314,-0.0762939,-0.0576172,-0.00238463,-0.00150276,0.0027635,0.000854763,-0.00474216,0.86451,0.00348151,0.0220619,1882,1338,-0.076235,0.0575603
665,-314,-0.0322266,-0.0769043,-0.00177024,-0.00208317,0.00161364,-0.000305504,-0.00354791,0.737067,0.0022703,0.0106925,1889,1338,-0.0321934,0.076853
672,-314,-0.00646973,-0.0714111,-0.0023085,-0.00132124,0.000166236,-0.001294,-0.00233574,1.40838,0.00135116,0.0103778,1896,1338,-0.00650042,0.0714282
679,-314,-0.0164795,-0.0670166,-0.00233196,-0.000500441,-0.000389598,-0.000421011,-0.00241139,-1.36968,0.00148725,0.00883336,1903,1338,-0.016436,0.067034
686,-314,-0.026123,-0.0797119,-0.00217212,-8.72311e-05,-0.000679209,0.000114517,-0.00237387,-1.28206,0.0016221,0.0110437,1910,1338,-0.0261272,0.079762
693,-314,-0.0391846,-0.0767822,-0.00166326,0.000129877,-0.000262454,0.000167502,-0.00170088,-1.42841,0.00119368,0.0110455,1917,1338,-0.0391662,0.0767524
700,-314,-0.0496826,-0.0789795,-0.000657681,-0.000310612,0.000311428,-0.000127634,-0.000840659,1.03958,0.000523111,0.010718,1924,1338,-0.0497261,0.0789536
707,-314,-0.0373535,-0.0858154,-0.000287524,-0.000428324,0.000951158,0.000595836,-0.00131168,0.748458,0.00112686,0.0109697,1931,1338,-0.037305,0.0857754
714,-314,-0.0181885,-0.0812988,-0.000230169,-0.0010293,0.00148634,0.000909381,-0.00216885,0.654091,0.00182613,0.0109965,1938,1338,-0.018129,0.0812384
721,-314,-0.0270996,-0.0784912,-0.000152512,-0.00154916,0.0020503,0.00131513,-0.0030168,0.621262,0.00256456,0.0144876,1945,1338,-0.0271214,0.0784738
728,-314,-0.0168457,-0.0596924,-0.000205915,-0.00206494,0.00272485,0.0017436,-0.00401446,0.621025,0.00340951,0.0209608,1952,1338,-0.0168508,0.0597076
735,-314,-0.09021,-0.25354,-0.000473275,-0.00267338,0.00340824,0.00200804,-0.0051547,0.629295,0.00426635,0.0350566,1959,1338,-0.0902575,0.253516
742,-314,0.0307617,-0.309326,-0.00105888,-0.00337728,0.00405351,0.00199793,-0.00643408,0.646128,0.00508785,0.0408361,1966,1338,0.0307083,0.309266
749,-314,0.423584,-0.1604,-0.00212908,-0.00416468,0.0045703,0.00153537,-0.00782914,0.675837,0.00579936,0.0399567,1973,1338,0.423565,0.160449
756,-314,0.498047,0.126709,-0.00391494,-0.00500641,0.00481239,0.000382562,-0.00930391,0.728938,0.00633398,0.0402368,1980,1338,0.498031,-0.12676
763,-314,0.291992,0.27356,-0.00678217,-0.00585484,0.00458283,-0.00171228,-0.0109247,0.835814,0.0067848,0.0434627,1987,1338,0.292009,-0.273585
770,-314,0,0,0,0,0,0,0,0,0,-1,1994,1338,0,0
777,-314,0,0,0,0,0,0,0,0,0,-1,2001,1338,0,0
784,-314,0,0,0,0,0,0,0,0,0,-1,2008,1338,0,0
791,-314,0,0,0,0,0,0,0,0,0,-1,2015,1338,0,0
798,-314,0,0,0,0,0,0,0,0,0,-1,2022,1338,0,0
805,-314,0,0,0,0,0,0,0,0,0,-1,2029,1338,0,0
812,-314,0,0,0,0,0,0,0,0,0,-1,2036,1338,0,0
-700,-321,0,0,0,0,0,0,0,0,0,-1,524,1345,0,0
-693,-321,0,0,0,0,0,0,0,0,0,-1,531,1345,0,0
-686,-321,0,0,0,0,0,0,0,0,0,-1,538,1345,0,0
-679,-321,0,0,0,0,0,0,0,0,0,-1,545,1345,0,0
-672,-321,0,0,0,0,0,0,0,0,0,-1,552,1345,0,0
-665,-321,0,0,0,0,0,0,0,0,0,-1,559,1345,0,0
-658,-321,0,0,0,0,0,0,0,0,0,-1,566,1345,0,0
-651,-321,0,0,0,0,0,0,0,0,0,-1,573,1345,0,0
-644,-321,0.265076,-0.477905,-0.0178141,0.0636456,0.0132846,0.0657573,-0.0199258,1.41315,0.0517744,0.0458773,580,1345,0.265066,0.477913
-637,-321,0.131775,0.480591,-0.0144462,0.0575073,0.00819693,0.0584293,-0.0153682,1.45879,0.0449598,0.0439171,587,1345,0.131798,-0.480627
-630,-321,-0.0276489,0.401001,-0.0116678,0.0505872,0.00440609,0.0508975,-0.0119781,1.50049,0.0385497,0.0424294,594,1345,-0.0276323,-0.400986
-623,-321,-0.262634,0.468628,0,0,0,0,0,0,0,-1,601,1345,-0.262607,-0.468592
-616,-321,2.28186,3.20532,0,0,0,0,0,0,0,-1,608,1345,2.28183,-3.20537
-609,-321,0.194885,-0.169922,-0.00635607,0.0295788,-0.00145524,0.0296376,-0.00641491,-1.53039,0.0222077,0.0453646,615,1345,0.194893,0.169967
-602,-321,-0.0281372,-0.0681152,-0.00520071,0.0235102,-0.00216928,0.0236732,-0.00536369,-1.49581,0.0178408,0.0423891,622,1345,-0.0281484,0.0681555
-595,-321,-0.11853,-0.050293,-0.00416727,0.0179263,-0.00226878,0.0181568,-0.00439784,-1.46951,0.013806,0.0343703,629,1345,-0.118536,0.0502412
-588,-321,-0.0403442,-0.0689697,-0.00317735,0.0135029,-0.00266861,0.0139194,-0.00359389,-1.41596,0.010681,0.0119019,636,1345,-0.0403289,0.0690184
-581,-321,-0.0361328,-0.0682373,-0.00240168,0.00950072,-0.00245614,0.00998764,-0.0028886,-1.37509,0.00780163,0.0108635,643,1345,-0.0361357,0.0682246
-574,-321,-0.0419312,-0.0795898,-0.00168282,0.0056187,-0.00188708,0.00607758,-0.0021417,-1.33226,0.00492342,0.0140408,650,1345,-0.0419578,0.0796125
-567,-321,-0.0175171,-0.105103,-0.00126202,0.00297261,-0.00139807,0.00339254,-0.00168195,-1.279,0.00298473,0.0193348,657,1345,-0.0175036,0.105112
-560,-321,-0.0175781,-0.103271,-0.000792266,0.000621966,-0.000851896,0.00102198,-0.00119228,-1.1318,0.00127966,0.0225974,664,1345,-0.0176086,0.103231
-553,-321,-0.00793457,-0.10376,0.00023662,-0.000595755,-0.000701587,0.000636175,-0.000995311,-0.517693,0.000949516,0.0242834,671,1345,-0.00793612,0.103734
-546,-321,0.000183105,-0.102783,0.00127252,-0.00104476,-0.000617554,0.00142682,-0.00119906,-0.244848,0.00151796,0.0243331,678,1345,0.000153301,0.102794
-539,-321,-0.0296021,-0.0974121,0.00209345,-0.000784172,-0.000374564,0.0021414,-0.000832127,-0.127338,0.00177137,0.022061,685,1345,-0.0296085,0.097399
-532,-321,-0.0480347,-0.071167,0.00223896,-0.000177391,-0.000192588,0.00225421,-0.000192645,-0.0790371,0.00157097,0.0138374,692,1345,-0.0480165,0.0711971
-525,-321,-0.0197754,-0.0522461,0.00187425,-1.51776e-05,0.000558477,0.00202698,-0.000167907,0.266947,0.00141062,0.0188455,699,1345,-0.0197484,0.052217
-518,-321,0.0957031,-0.110229,0.00173452,0.00071632,0.00126241,0.00258661,-0.000135776,0.593734,0.0017714,0.0346474,706,1345,0.095687,0.110211
-511,-321,0.156921,-0.0688477,0.000974669,0.00192231,0.00225616,0.00375386,-0.00085689,0.8889,0.00283176,0.0426438,713,1345,0.156908,0.0688453
-504,-321,0.135254,-0.0736084,-0.000106115,0.00305556,0.00329478,0.00512912,-0.00217968,1.00908,0.00433276,0.0486583,720,1345,0.135269,0.0736002
-497,-321,0.609741,-0.704102,-0.00174876,0.00408154,0.00444476,0.00648184,-0.00414905,1.07564,0.00618681,0.0482029,727,1345,0.609751,0.704113
-490,-321,0.779236,-0.737427,-0.00421099,0.00506318,0.00592689,0.00795142,-0.00709924,1.11735,0.00869414,0.046179,734,1345,0.779223,0.737391
-483,-321,1.46838,-0.411987,0,0,0,0,0,0,0,-1,741,1345,1.4684,0.412029
-476,-321,1.56299,-0.398315,0,0,0,0,0,0,0,-1,748,1345,1.56299,0.398322
-469,-321,1.43188,-0.0439453,0,0,0,0,0,0,0,-1,755,1345,1.43187,0.0439154
-462,-321,1.30078,0.310547,0,0,0,0,0,0,0,-1,762,1345,1.30075,-0.310491
-455,-321,0,0,0,0,0,0,0,0,0,-1,769,1345,0,0
-448,-321,0,0,0,0,0,0,0,0,0,-1,776,1345,0,0
-441,-321,0,0,0,0,0,0,0,0,0,-1,783,1345,0,0
-434,-321,0,0,0,0,0,0,0,0,0,-1,790,1345,0,0
-427,-321,0,0,0,0,0,0,0,0,0,-1,797,1345,0,0
-420,-321,0,0,0,0,0,0,0,0,0,-1,804,1345,0,0
-413,-321,0,0,0,0,0,0,0,0,0,-1,811,1345,0,0
-406,-321,0,0,0,0,0,0,0,0,0,-1,818,1345,0,0
-399,-321,0,0,0,0,0,0,0,0,0,-1,825,1345,0,0
-392,-321,0,0,0,0,0,0,0,0,0,-1,832,1345,0,0
-385,-321,0,0,0,0,0,0,0,0,0,-1,839,1345,0,0
-378,-321,0,0,0,0,0,0,0,0,0,-1,846,1345,0,0
-371,-321,0,0,0,0,0,0,0,0,0,-1,853,1345,0,0
-364,-321,0,0,0,0,0,0,0,0,0,-1,860,1345,0,0
-357,-321,0,0,0,0,0,0,0,0,0,-1,867,1345,0,0
-350,-321,0,0,0,0,0,0,0,0,0,-1,874,1345,0,0
-343,-321,0,0,0,0,0,0,0,0,0,-1,881,1345,0,0
-336,-321,0,0,0,0,0,0,0,0,0,-1,888,1345,0,0
-329,-321,0,0,0,0,0,0,0,0,0,-1,895,1345,0,0
-322,-321,0,0,0,0,0,0,0,0,0,-1,902,1345,0,0
-315,-321,0,0,0,0,0,0,0,0,0,-1,909,1345,0,0
-308,-321,0,0,0,0,0,0,0,0,0,-1,916,1345,0,0
-301,-321,0,0,0,0,0,0,0,0,0,-1,923,1345,0,0
-294,-321,0,0,0,0,0,0,0,0,0,-1,930,1345,0,0
-287,-321,0,0,0,0,0,0,0,0,0,-1,937,1345,0,0
-280,-321,0,0,0,0,0,0,0,0,0,-1,944,1345,0,0
-273,-321,0,0,0,0,0,0,0,0,0,-1,951,1345,0,0
-266,-321,0,0,0,0,0,0,0,0,0,-1,958,1345,0,0
-259,-321,0,0,0,0,0,0,0,0,0,-1,965,1345,0,0
-252,-321,0,0,0,0,0,0,0,0,0,-1,972,1345,0,0
-245,-321,0,0,0,0,0,0,0,0,0,-1,979,1345,0,0
-238,-321,0,0,0,0,0,0,0,0,0,-1,986,1345,0,0
-231,-321,0,0,0,0,0,0,0,0,0,-1,993,1345,0,0
-224,-321,0,0,0,0,0,0,0,0,0,-1,1000,1345,0,0
-217,-321,0,0,0,0,0,0,0,0,0,-1,1007,1345,0,0
-210,-321,0,0,0,0,0,0,0,0,0,-1,1014,1345,0,0
-203,-321,0,0,0,0,0,0,0,0,0,-1,1021,1345,0,0
-196,-321,0,0,0,0,0,0,0,0,0,-1,1028,1345,0,0
-189,-321,0,0,0,0,0,0,0,0,0,-1,1035,1345,0,0
-182,-321,0,0,0,0,0,0,0,0,0,-1,1042,1345,0,0
-175,-321,0,0,0,0,0,0,0,0,0,-1,1049,1345,0,0
-168,-321,0,0,0,0,0,0,0,0,0,-1,1056,1345,0,0
-161,-321,0,0,0,0,0,0,0,0,0,-1,1063,1345,0,0
-154,-321,0,0,0,0,0,0,0,0,0,-1,1070,1345,0,0
-147,-321,0,0,0,0,0,0,0,0,0,-1,1077,1345,0,0
-140,-321,0,0,0,0,0,0,0,0,0,-1,1084,1345,0,0
-133,-321,0,0,0,0,0,0,0,0,0,-1,1091,1345,0,0
-126,-321,0,0,0,0,0,0,0,0,0,-1,1098,1345,0,0
-119,-321,0,0,0,0,0,0,0,0,0,-1,1105,1345,0,0
-112,-321,0,0,0,0,0,0,0,0,0,-1,1112,1345,0,0
-105,-321,0,0,0,0,0,0,0,0,0,-1,1119,1345,0,0
-98,-321,0,0,0,0,0,0,0,0,0,-1,1126,1345,0,0
-91,-321,0,0,0,0,0,0,0,0,0,-1,1133,1345,0,0
-84,-321,0,0,0,0,0,0,0,0,0,-1,1140,1345,0,0
-77,-321,0,0,0,0,0,0,0,0,0,-1,1147,1345,0,0
-70,-321,0,0,0,0,0,0,0,0,0,-1,1154,1345,0,0
-63,-321,0,0,0,0,0,0,0,0,0,-1,1161,1345,0,0
-56,-321,0,0,0,0,0,0,0,0,0,-1,1168,1345,0,0
-49,-321,0,0,0,0,0,0,0,0,0,-1,1175,1345,0,0
-42,-321,0,0,0,0,0,0,0,0,0,-1,1182,1345,0,0
-35,-321,0,0,0,0,0,0,0,0,0,-1,1189,1345,0,0
-28,-321,0,0,0,0,0,0,0,0,0,-1,1196,1345,0,0
-21,-321,0,0,0,0,0,0,0,0,0,-1,1203,1345,0,0
-14,-321,0,0,0,0,0,0,0,0,0,-1,1210,1345,0,0
-7,-321,0,0,0,0,0,0,0,0,0,-1,1217,1345,0,0
0,-321,0,0,0,0,0,0,0,0,0,-1,1224,1345,0,0
7,-321,0,0,0,0,0,0,0,0,0,-1,1231,1345,0,0
14,-321,0,0,0,0,0,0,0,0,0,-1,1238,1345,0,0
21,-321,0,0,0,0,0,0,0,0,0,-1,1245,1345,0,0
28,-321,0,0,0,0,0,0,0,0,0,-1,1252,1345,0,0
35,-321,0,0,0,0,0,0,0,0,0,-1,1259,1345,0,0
42,-321,0,0,0,0,0,0,0,0,0,-1,1266,1345,0,0
49,-321,0,0,0,0,0,0,0,0,0,-1,1273,1345,0,0
56,-321,0,0,0,0,0,0,0,0,0,-1,1280,1345,0,0
63,-321,0,0,0,0,0,0,0,0,0,-1,1287,1345,0,0
70,-321,0,0,0,0,0,0,0,0,0,-1,1294,1345,0,0
77,-321,0,0,0,0,0,0,0,0,0,-1,1301,1345,0,0
84,-321,0,0,0,0,0,0,0,0,0,-1,1308,1345,0,0
91,-321,0,0,0,0,0,0,0,0,0,-1,1315,1345,0,0
98,-321,0,0,0,0,0,0,0,0,0,-1,1322,1345,0,0
105,-321,0,0,0,0,0,0,0,0,0,-1,1329,1345,0,0
112,-321,0,0,0,0,0,0,0,0,0,-1,1336,1345,0,0
119,-321,0,0,0,0,0,0,0,0,0,-1,1343,1345,0,0
126,-321,0,0,0,0,0,0,0,0,0,-1,1350,1345,0,0
133,-321,0,0,0,0,0,0,0,0,0,-1,1357,1345,0,0
140,-321,0,0,0,0,0,0,0,0,0,-1,1364,1345,0,0
147,-321,0,0,0,0,0,0,0,0,0,-1,1371,1345,0,0
154,-321,0,0,0,0,0,0,0,0,0,-1,1378,1345,0,0
161,-321,0,0,0,0,0,0,0,0,0,-1,1385,1345,0,0
168,-321,0,0,0,0,0,0,0,0,0,-1,1392,1345,0,0
175,-321,0,0,0,0,0,0,0,0,0,-1,1399,1345,0,0
182,-321,0,0,0,0,0,0,0,0,0,-1,1406,1345,0,0
189,-321,0,0,0,0,0,0,0,0,0,-1,1413,1345,0,0
196,-321,0,0,0,0,0,0,0,0,0,-1,1420,1345,0,0
203,-321,0,0,0,0,0,0,0,0,0,-1,1427,1345,0,0
210,-321,0,0,0,0,0,0,0,0,0,-1,1434,1345,0,0
217,-321,0,0,0,0,0,0,0,0,0,-1,1441,1345,0,0
224,-321,0,0,0,0,0,0,0,0,0,-1,1448,1345,0,0
231,-321,0,0,0,0,0,0,0,0,0,-1,1455,1345,0,0
238,-321,0,0,0,0,0,0,0,0,0,-1,1462,1345,0,0
245,-321,0,0,0,0,0,0,0,0,0,-1,1469,1345,0,0
252,-321,0,0,0,0,0,0,0,0,0,-1,1476,1345,0,0
259,-321,0,0,0,0,0,0,0,0,0,-1,1483,1345,0,0
266,-321,0,0,0,0,0,0,0,0,0,-1,1490,1345,0,0
273,-321,0,0,0,0,0,0,0,0,0,-1,1497,1345,0,0
280,-321,0,0,0,0,0,0,0,0,0,-1,1504,1345,0,0
287,-321,0,0,0,0,0,0,0,0,0,-1,1511,1345,0,0
294,-321,0,0,0,0,0,0,0,0,0,-1,1518,1345,0,0
301,-321,0,0,0,0,0,0,0,0,0,-1,1525,1345,0,0
308,-321,0,0,0,0,0,0,0,0,0,-1,1532,1345,0,0
315,-321,0,0,0,0,0,0,0,0,0,-1,1539,1345,0,0
322,-321,0,0,0,0,0,0,0,0,0,-1,1546,1345,0,0
329,-321,0,0,0,0,0,0,0,0,0,-1,1553,1345,0,0
336,-321,0,0,0,0,0,0,0,0,0,-1,1560,1345,0,0
343,-321,0,0,0,0,0,0,0,0,0,-1,1567,1345,0,0
350,-321,0,0,0,0,0,0,0,0,0,-1,1574,1345,0,0
357,-321,0,0,0,0,0,0,0,0,0,-1,1581,1345,0,0
364,-321,0,0,0,0,0,0,0,0,0,-1,1588,1345,0,0
371,-321,0,0,0,0,0,0,0,0,0,-1,1595,1345,0,0
378,-321,0,0,0,0,0,0,0,0,0,-1,1602,1345,0,0
385,-321,0,0,0,0,0,0,0,0,0,-1,1609,1345,0,0
392,-321,0,0,0,0,0,0,0,0,0,-1,1616,1345,0,0
399,-321,0,0,0,0,0,0,0,0,0,-1,1623,1345,0,0
406,-321,0,0,0,0,0,0,0,0,0,-1,1630,1345,0,0
413,-321,0,0,0,0,0,0,0,0,0,-1,1637,1345,0,0
420,-321,0,0,0,0,0,0,0,0,0,-1,1644,1345,0,0
427,-321,0,0,0,0,0,0,0,0,0,-1,1651,1345,0,0
434,-321,0,0,0,0,0,0,0,0,0,-1,1658,1345,0,0
441,-321,0,0,0,0,0,0,0,0,0,-1,1665,1345,0,0
448,-321,0,0,0,0,0,0,0,0,0,-1,1672,1345,0,0
455,-321,0,0,0,0,0,0,0,0,0,-1,1679,1345,0,0
462,-321,0,0,0,0,0,0,0,0,0,-1,1686,1345,0,0
469,-321,0,0,0,0,0,0,0,0,0,-1,1693,1345,0,0
476,-321,0,0,0,0,0,0,0,0,0,-1,1700,1345,0,0
483,-321,0,0,0,0,0,0,0,0,0,-1,1707,1345,0,0
490,-321,0,0,0,0,0,0,0,0,0,-1,1714,1345,0,0
497,-321,0,0,0,0,0,0,0,0,0,-1,1721,1345,0,0
504,-321,0,0,0,0,0,0,0,0,0,-1,1728,1345,0,0
511,-321,0,0,0,0,0,0,0,0,0,-1,1735,1345,0,0
518,-321,0,0,0,0,0,0,0,0,0,-1,1742,1345,0,0
525,-321,0,0,0,0,0,0,0,0,0,-1,1749,1345,0,0
532,-321,0,0,0,0,0,0,0,0,0,-1,1756,1345,0,0
539,-321,0,0,0,0,0,0,0,0,0,-1,1763,1345,0,0
546,-321,0,0,0,0,0,0,0,0,0,-1,1770,1345,0,0
553,-321,0,0,0,0,0,0,0,0,0,-1,1777,1345,0,0
560,-321,0,0,0,0,0,0,0,0,0,-1,1784,1345,0,0
567,-321,0,0,0,0,0,0,0,0,0,-1,1791,1345,0,0
574,-321,0,0,0,0,0,0,0,0,0,-1,1798,1345,0,0
581,-321,2.65808,-2.28857,0.0365201,0.0456913,0.0394285,0.0808,0.00141145,0.843289,0.0534024,0.0443256,1805,1345,2.65809,2.28856
588,-321,3.01929,-2.0011,0.0234743,0.0359111,0.0382619,0.0684566,-0.00907119,0.865955,0.0489425,0.0482033,1812,1345,3.01923,2.00112
595,-321,1.09875,-0.663818,0,0,0,0,0,0,0,-1,1819,1345,1.09872,0.663778
602,-321,1.09473,-1.12244,0.00731713,0.0190651,0.0319291,0.045656,-0.0192738,0.876366,0.0385049,0.0413269,1826,1345,1.09473,1.12239
609,-321,1.0249,-1.13855,0.00270181,0.0128846,0.0277514,0.0360078,-0.0204214,0.876121,0.032991,0.044342,1833,1345,1.02493,1.13861
616,-321,0.876709,-0.994385,-0.000217719,0.00804718,0.0232726,0.0275514,-0.0197219,0.873266,0.0274178,0.0472967,1840,1345,0.876658,0.994381
623,-321,0.635864,-0.877686,-0.0018765,0.0044558,0.018965,0.0205171,-0.0179378,0.868109,0.0222186,0.0410163,1847,1345,0.635856,0.87772
630,-321,0.336426,-0.812256,-0.00369372,0.00121863,0.0153867,0.014344,-0.0168191,0.864545,0.0180109,0.0442388,1854,1345,0.336477,0.812262
637,-321,0.343994,-0.705078,-0.00488702,-0.000758593,0.0115265,0.00888704,-0.0145327,0.874001,0.0136517,0.0425541,1861,1345,0.344004,0.705121
644,-321,0.281494,-0.321777,-0.0046265,-0.00154139,0.00775307,0.00482109,-0.010989,0.883596,0.00935662,0.040241,1868,1345,0.281461,0.321783
651,-321,-0.0709229,-0.0905762,-0.00400996,-0.00132835,0.0052975,0.00279539,-0.00813371,0.909346,0.00655603,0.0366861,1875,1345,-0.0709104,0.0906261
658,-321,-0.064209,-0.0712891,-0.00260276,-0.00151146,0.00310255,0.00109306,-0.00520728,0.872443,0.00388744,0.0177515,1882,1345,-0.0642471,0.0713388
665,-321,-0.0334473,-0.078125,-0.00195827,-0.00193881,0.00184125,-0.000107258,-0.00378982,0.78804,0.00249156,0.0141176,1889,1345,-0.0334322,0.0780661
672,-321,-0.0045166,-0.0721436,-0.00238615,-0.00111028,0.000287803,-0.00104836,-0.00244807,1.35889,0.00141824,0.0117126,1896,1345,-0.00454783,0.072118
679,-321,-0.0152588,-0.0687256,-0.00235562,-0.00030307,-0.000279141,-0.000265785,-0.0023929,-1.43801,0.00151447,0.0100524,1903,1345,-0.0152132,0.0687345
686,-321,-0.0444336,-0.0744629,-0.00223714,-1.37394e-05,-0.000464074,7.92356e-05,-0.00233011,-1.37307,0.00158048,0.0107935,1910,1345,-0.0444709,0.0745098
693,-321,-0.0465088,-0.074585,-0.00180036,-1.94609e-05,8.21957e-05,-1.56753e-05,-0.00180415,1.52477,0.00119758,0.010934,1917,1345,-0.0464619,0.0745569
700,-321,-0.0349121,-0.0931396,-0.000972226,-0.000630527,0.000770643,-1.20225e-05,-0.00159073,0.894482,0.0010565,0.0105128,1924,1345,-0.0348529,0.0930788
707,-321,-0.0135498,-0.0891113,-0.000778986,-0.000903485,0.00158942,0.000749401,-0.00243187,0.765826,0.00192042,0.0117874,1931,1345,-0.0135406,0.0891431
714,-321,-0.022583,-0.0863037,-0.000855333,-0.00161003,0.00238967,0.0011866,-0.00365196,0.707091,0.00291191,0.0120664,1938,1345,-0.0225597,0.0862845
721,-321,-0.0450439,-0.0828857,-0.000934831,-0.0022764,0.00328038,0.00174264,-0.00495388,0.684546,0.00401168,0.014967,1945,1345,-0.0451018,0.082863
728,-321,-0.0316162,-0.103882,-0.00110045,-0.00298205,0.00438715,0.00244564,-0.00652814,0.679776,0.00535675,0.0247381,1952,1345,-0.0315961,0.103935
735,-321,0.0141602,-0.231567,-0.00143184,-0.00377676,0.00560597,0.00312297,-0.00833157,0.682312,0.00683738,0.0410462,1959,1345,0.0141405,0.231617
742,-321,0.200806,-0.496826,-0.0020375,-0.00464149,0.00688719,0.00366969,-0.0103487,0.691978,0.00839413,0.0437098,1966,1345,0.200852,0.496846
749,-321,0.460083,-0.275269,-0.00308354,-0.00552589,0.00812793,0.00391444,-0.0125239,0.710834,0.00991507,0.0423626,1973,1345,0.460067,0.27523
756,-321,0.397339,0.0427246,-0.0048196,-0.00634185,0.00916322,0.00361405,-0.0147755,0.743962,0.0112502,0.0421729,1980,1345,0.397317,-0.0427349
763,-321,0.22229,0.244507,-0.00764326,-0.00694862,0.00976787,0.0024781,-0.01707,0.803169,0.0122896,0.045321,1987,1345,0.22232,-0.244457
770,-321,0,0,0,0,0,0,0,0,0,-1,1994,1345,0,0
777,-321,0,0,0,0,0,0,0,0,0,-1,2001,1345,0,0
784,-321,0,0,0,0,0,0,0,0,0,-1,2008,1345,0,0
791,-321,0,0,0,0,0,0,0,0,0,-1,2015,1345,0,0
798,-321,0,0,0,0,0,0,0,0,0,-1,2022,1345,0,0
805,-321,0,0,0,0,0,0,0,0,0,-1,2029,1345,0,0
812,-321,0,0,0,0,0,0,0,0,0,-1,2036,1345,0,0
-700,-328,0,0,0,0,0,0,0,0,0,-1,524,1352,0,0
-693,-328,0,0,0,0,0,0,0,0,0,-1,531,1352,0,0
-686,-328,0,0,0,0,0,0,0,0,0,-1,538,1352,0,0
-679,-328,0,0,0,0,0,0,0,0,0,-1,545,1352,0,0
-672,-328,0,0,0,0,0,0,0,0,0,-1,552,1352,0,0
-665,-328,0,0,0,0,0,0,0,0,0,-1,559,1352,0,0
-658,-328,0,0,0,0,0,0,0,0,0,-1,566,1352,0,0
-651,-328,0,0,0,0,0,0,0,0,0,-1,573,1352,0,0
-644,-328,0,0,0,0,0,0,0,0,0,-1,580,1352,0,0
-637,-328,0.213318,0.393677,0,0,0,0,0,0,0,-1,587,1352,0.213334,-0.393653
-630,-328,0.248718,0.428955,0,0,0,0,0,0,0,-1,594,1352,0.248746,-0.428935
-623,-328,2.44989,4.30273,0,0,0,0,0,0,0,-1,601,1352,2.44988,-4.30277
-616,-328,2.17621,2.98291,0,0,0,0,0,0,0,-1,608,1352,2.1762,-2.98297
-609,-328,0.931458,3.02979,0,0,0,0,0,0,0,-1,615,1352,0.931441,-3.02976
-602,-328,-0.0408325,-0.00244141,-0.00546859,0.0267719,-0.00254853,0.0269721,-0.0056688,-1.4924,0.0201387,0.0464841,622,1352,-0.0408233,0.00242715
-595,-328,-0.34729,-0.208862,-0.00450693,0.0204111,-0.00272596,0.0207059,-0.00480165,-1.4631,0.0156519,0.0405808,629,1352,-0.347268,0.208919
-588,-328,-0.0403442,-0.100952,-0.00359887,0.0152881,-0.00310129,0.0157843,-0.00409508,-1.41214,0.0121207,0.0219699,636,1352,-0.0403569,0.100948
-581,-328,-0.0148926,-0.0681152,-0.00284702,0.0108438,-0.00284178,0.0114102,-0.00341344,-1.37405,0.00896395,0.0109475,643,1352,-0.014891,0.068093
-574,-328,-0.0202637,-0.0782471,-0.00214576,0.00664485,-0.002292,0.00720655,-0.00270747,-1.33046,0.00591707,0.0127595,650,1352,-0.020265,0.0782253
-567,-328,-0.00976563,-0.0948486,-0.00176197,0.00373371,-0.00172622,0.00423094,-0.0022592,-1.29034,0.00380429,0.0167976,657,1352,-0.00977235,0.0948583
-560,-328,0.0130005,-0.0860596,-0.00130087,0.00149456,-0.00113496,0.00189732,-0.00170364,-1.22979,0.00208002,0.0240324,664,1352,0.013014,0.0860248
-553,-328,0.00653076,-0.0793457,-0.00033679,0.00023709,-0.000813525,0.000812796,-0.000912496,-0.954942,0.000996652,0.0262442,671,1352,0.00653748,0.0792869
-546,-328,-0.0125732,-0.0877686,0.000541912,-0.000210667,-0.000533159,0.000818197,-0.000486951,-0.478103,0.000761574,0.0254473,678,1352,-0.0125609,0.0878045
-539,-328,-0.0297852,-0.0783691,0.00123808,0.000193706,-2.06844e-05,0.00123849,0.000193296,-0.0197952,0.000769367,0.0213334,685,1352,-0.0298022,0.0784264
-532,-328,-0.0305786,-0.0760498,0.00143078,0.000790995,0.000387208,0.00161314,0.000608632,0.440156,0.000940651,0.0138281,692,1352,-0.0306083,0.0760724
-525,-328,-0.0135498,-0.0601807,0.00123111,0.000940501,0.00124758,0.00234182,-0.000170212,0.727426,0.00162093,0.00924418,699,1352,-0.0135321,0.0601572
-518,-328,0.0171509,-0.0751953,0.00113328,0.00153338,0.00210397,0.00344679,-0.000780135,0.832796,0.00259726,0.0231295,706,1352,0.0171358,0.0752406
-511,-328,0.0220947,-0.109497,0.000445717,0.00252746,0.00323513,0.00488504,-0.00191187,0.941038,0.00404741,0.0384163,713,1352,0.0220946,0.109495
-504,-328,-0.0369873,-0.0983887,-0.000374886,0.00329693,0.00431374,0.00614919,-0.00322715,0.986586,0.00550036,0.0479808,720,1352,-0.0370092,0.0983814
-497,-328,1.2572,-0.967773,0,0,0,0,0,0,0,-1,727,1352,1.25723,0.967764
-490,-328,1.42822,-0.482666,0,0,0,0,0,0,0,-1,734,1352,1.4282,0.482691
-483,-328,1.30231,-0.413574,-0.00552218,0.00481675,0.0073665,0.00864665,-0.00935208,1.09135,0.0103942,0.0493903,741,1352,1.30232,0.413617
-476,-328,1.26135,-0.266602,-0.00807381,0.00436748,0.00788412,0.00818953,-0.0118959,1.1194,0.0116619,0.0467051,748,1352,1.26133,0.26664
-469,-328,1.25513,-0.0249023,-0.0109768,0.00336877,0.00743627,0.00652782,-0.0141359,1.16908,0.0121968,0.0460319,755,1352,1.25513,0.0249511
-462,-328,1.06085,0.200317,-0.0139549,0.00149323,0.00539781,0.00319241,-0.015654,1.26583,0.0116469,0.0447645,762,1352,1.06084,-0.200317
-455,-328,0,0,0,0,0,0,0,0,0,-1,769,1352,0,0
-448,-328,0,0,0,0,0,0,0,0,0,-1,776,1352,0,0
-441,-328,0,0,0,0,0,0,0,0,0,-1,783,1352,0,0
-434,-328,0,0,0,0,0,0,0,0,0,-1,790,1352,0,0
-427,-328,0,0,0,0,0,0,0,0,0,-1,797,1352,0,0
-420,-328,0,0,0,0,0,0,0,0,0,-1,804,1352,0,0
-413,-328,0,0,0,0,0,0,0,0,0,-1,811,1352,0,0
-406,-328,0,0,0,0,0,0,0,0,0,-1,818,1352,0,0
-399,-328,0,0,0,0,0,0,0,0,0,-1,825,1352,0,0
-392,-328,0,0,0,0,0,0,0,0,0,-1,832,1352,0,0
-385,-328,0,0,0,0,0,0,0,0,0,-1,839,1352,0,0
-378,-328,0,0,0,0,0,0,0,0,0,-1,846,1352,0,0
-371,-328,0,0,0,0,0,0,0,0,0,-1,853,1352,0,0
-364,-328,0,0,0,0,0,0,0,0,0,-1,860,1352,0,0
-357,-328,0,0,0,0,0,0,0,0,0,-1,867,1352,0,0
-350,-328,0,0,0,0,0,0,0,0,0,-1,874,1352,0,0
-343,-328,0,0,0,0,0,0,0,0,0,-1,881,1352,0,0
-336,-328,0,0,0,0,0,0,0,0,0,-1,888,1352,0,0
-329,-328,0,0,0,0,0,0,0,0,0,-1,895,1352,0,0
-322,-328,0,0,0,0,0,0,0,0,0,-1,902,1352,0,0
-315,-328,0,0,0,0,0,0,0,0,0,-1,909,1352,0,0
-308,-328,0,0,0,0,0,0,0,0,0,-1,916,1352,0,0
-301,-328,0,0,0,0,0,0,0,0,0,-1,923,1352,0,0
-294,-328,0,0,0,0,0,0,0,0,0,-1,930,1352,0,0
-287,-328,0,0,0,0,0,0,0,0,0,-1,937,1352,0,0
-280,-328,0,0,0,0,0,0,0,0,0,-1,944,1352,0,0
-273,-328,0,0,0,0,0,0,0,0,0,-1,951,1352,0,0
-266,-328,0,0,0,0,0,0,0,0,0,-1,958,1352,0,0
-259,-328,0,0,0,0,0,0,0,0,0,-1,965,1352,0,0
-252,-328,0,0,0,0,0,0,0,0,0,-1,972,1352,0,0
-245,-328,0,0,0,0,0,0,0,0,0,-1,979,1352,0,0
-238,-328,0,0,0,0,0,0,0,0,0,-1,986,1352,0,0
-231,-328,0,0,0,0,0,0,0,0,0,-1,993,1352,0,0
-224,-328,0,0,0,0,0,0,0,0,0,-1,1000,1352,0,0
-217,-328,0,0,0,0,0,0,0,0,0,-1,1007,1352,0,0
-210,-328,0,0,0,0,0,0,0,0,0,-1,1014,1352,0,0
-203,-328,0,0,0,0,0,0,0,0,0,-1,1021,1352,0,0
-196,-328,0,0,0,0,0,0,0,0,0,-1,1028,1352,0,0
-189,-328,0,0,0,0,0,0,0,0,0,-1,1035,1352,0,0
-182,-328,0,0,0,0,0,0,0,0,0,-1,1042,1352,0,0
-175,-328,0,0,0,0,0,0,0,0,0,-1,1049,1352,0,0
-168,-328,0,0,0,0,0,0,0,0,0,-1,1056,1352,0,0
-161,-328,0,0,0,0,0,0,0,0,0,-1,1063,1352,0,0
-154,-328,0,0,0,0,0,0,0,0,0,-1,1070,1352,0,0
-147,-328,0,0,0,0,0,0,0,0,0,-1,1077,1352,0,0
-140,-328,0,0,0,0,0,0,0,0,0,-1,1084,1352,0,0
-133,-328,0,0,0,0,0,0,0,0,0,-1,1091,1352,0,0
-126,-328,0,0,0,0,0,0,0,0,0,-1,1098,1352,0,0
-119,-328,0,0,0,0,0,0,0,0,0,-1,1105,1352,0,0
-112,-328,0,0,0,0,0,0,0,0,0,-1,1112,1352,0,0
-105,-328,0,0,0,0,0,0,0,0,0,-1,1119,1352,0,0
-98,-328,0,0,0,0,0,0,0,0,0,-1,1126,1352,0,0
-91,-328,0,0,0,0,0,0,0,0,0,-1,1133,1352,0,0
-84,-328,0,0,0,0,0,0,0,0,0,-1,1140,1352,0,0
-77,-328,0,0,0,0,0,0,0,0,0,-1,1147,1352,0,0
-70,-328,0,0,0,0,0,0,0,0,0,-1,1154,1352,0,0
-63,-328,0,0,0,0,0,0,0,0,0,-1,1161,1352,0,0
-56,-328,0,0,0,0,0,0,0,0,0,-1,1168,1352,0,0
-49,-328,0,0,0,0,0,0,0,0,0,-1,1175,1352,0,0
-42,-328,0,0,0,0,0,0,0,0,0,-1,1182,1352,0,0
-35,-328,0,0,0,0,0,0,0,0,0,-1,1189,1352,0,0
-28,-328,0,0,0,0,0,0,0,0,0,-1,1196,1352,0,0
-21,-328,0,0,0,0,0,0,0,0,0,-1,1203,1352,0,0
-14,-328,0,0,0,0,0,0,0,0,0,-1,1210,1352,0,0
-7,-328,0,0,0,0,0,0,0,0,0,-1,1217,1352,0,0
0,-328,0,0,0,0,0,0,0,0,0,-1,1224,1352,0,0
7,-328,0,0,0,0,0,0,0,0,0,-1,1231,1352,0,0
14,-328,0,0,0,0,0,0,0,0,0,-1,1238,1352,0,0
21,-328,0,0,0,0,0,0,0,0,0,-1,1245,1352,0,0
28,-328,0,0,0,0,0,0,0,0,0,-1,1252,1352,0,0
35,-328,0,0,0,0,0,0,0,0,0,-1,1259,1352,0,0
42,-328,0,0,0,0,0,0,0,0,0,-1,1266,1352,0,0
49,-328,0,0,0,0,0,0,0,0,0,-1,1273,1352,0,0
56,-328,0,0,0,0,0,0,0,0,0,-1,1280,1352,0,0
63,-328,0,0,0,0,0,0,0,0,0,-1,1287,1352,0,0
70,-328,0,0,0,0,0,0,0,0,0,-1,1294,1352,0,0
77,-328,0,0,0,0,0,0,0,0,0,-1,1301,1352,0,0
84,-328,0,0,0,0,0,0,0,0,0,-1,1308,1352,0,0
91,-328,0,0,0,0,0,0,0,0,0,-1,1315,1352,0,0
98,-328,0,0,0,0,0,0,0,0,0,-1,1322,1352,0,0
105,-328,0,0,0,0,0,0,0,0,0,-1,1329,1352,0,0
112,-328,0,0,0,0,0,0,0,0,0,-1,1336,1352,0,0
119,-328,0,0,0,0,0,0,0,0,0,-1,1343,1352,0,0
126,-328,0,0,0,0,0,0,0,0,0,-1,1350,1352,0,0
133,-328,0,0,0,0,0,0,0,0,0,-1,1357,1352,0,0
140,-328,0,0,0,0,0,0,0,0,0,-1,1364,1352,0,0
147,-328,0,0,0,0,0,0,0,0,0,-1,1371,1352,0,0
154,-328,0,0,0,0,0,0,0,0,0,-1,1378,1352,0,0
161,-328,0,0,0,0,0,0,0,0,0,-1,1385,1352,0,0
168,-328,0,0,0,0,0,0,0,0,0,-1,1392,1352,0,0
175,-328,0,0,0,0,0,0,0,0,0,-1,1399,1352,0,0
182,-328,0,0,0,0,0,0,0,0,0,-1,1406,1352,0,0
189,-328,0,0,0,0,0,0,0,0,0,-1,1413,1352,0,0
196,-328,0,0,0,0,0,0,0,0,0,-1,1420,1352,0,0
203,-328,0,0,0,0,0,0,0,0,0,-1,1427,1352,0,0
210,-328,0,0,0,0,0,0,0,0,0,-1,1434,1352,0,0
217,-328,0,0,0,0,0,0,0,0,0,-1,1441,1352,0,0
224,-328,0,0,0,0,0,0,0,0,0,-1,1448,1352,0,0
231,-328,0,0,0,0,0,0,0,0,0,-1,1455,1352,0,0
238,-328,0,0,0,0,0,0,0,0,0,-1,1462,1352,0,0
245,-328,0,0,0,0,0,0,0,0,0,-1,1469,1352,0,0
252,-328,0,0,0,0,0,0,0,0,0,-1,1476,1352,0,0
259,-328,0,0,0,0,0,0,0,0,0,-1,1483,1352,0,0
266,-328,0,0,0,0,0,0,0,0,0,-1,1490,1352,0,0
273,-328,0,0,0,0,0,0,0,0,0,-1,1497,1352,0,0
280,-328,0,0,0,0,0,0,0,0,0,-1,1504,1352,0,0
287,-328,0,0,0,0,0,0,0,0,0,-1,1511,1352,0,0
294,-328,0,0,0,0,0,0,0,0,0,-1,1518,1352,0,0
301,-328,0,0,0,0,0,0,0,0,0,-1,1525,1352,0,0
308,-328,0,0,0,0,0,0,0,0,0,-1,1532,1352,0,0
315,-328,0,0,0,0,0,0,0,0,0,-1,1539,1352,0,0
322,-328,0,0,0,0,0,0,0,0,0,-1,1546,1352,0,0
329,-328,0,0,0,0,0,0,0,0,0,-1,1553,1352,0,0
336,-328,0,0,0,0,0,0,0,0,0,-1,1560,1352,0,0
343,-328,0,0,0,0,0,0,0,0,0,-1,1567,1352,0,0
350,-328,0,0,0,0,0,0,0,0,0,-1,1574,1352,0,0
357,-328,0,0,0,0,0,0,0,0,0,-1,1581,1352,0,0
364,-328,0,0,0,0,0,0,0,0,0,-1,1588,1352,0,0
371,-328,0,0,0,0,0,0,0,0,0,-1,1595,1352,0,0
378,-328,0,0,0,0,0,0,0,0,0,-1,1602,1352,0,0
385,-328,0,0,0,0,0,0,0,0,0,-1,1609,1352,0,0
392,-328,0,0,0,0,0,0,0,0,0,-1,1616,1352,0,0
399,-328,0,0,0,0,0,0,0,0,0,-1,1623,1352,0,0
406,-328,0,0,0,0,0,0,0,0,0,-1,1630,1352,0,0
413,-328,0,0,0,0,0,0,0,0,0,-1,1637,1352,0,0
420,-328,0,0,0,0,0,0,0,0,0,-1,1644,1352,0,0
427,-328,0,0,0,0,0,0,0,0,0,-1,1651,1352,0,0
434,-328,0,0,0,0,0,0,0,0,0,-1,1658,1352,0,0
441,-328,0,0,0,0,0,0,0,0,0,-1,1665,1352,0,0
448,-328,0,0,0,0,0,0,0,0,0,-1,1672,1352,0,0
455,-328,0,0,0,0,0,0,0,0,0,-1,1679,1352,0,0
462,-328,0,0,0,0,0,0,0,0,0,-1,1686,1352,0,0
469,-328,0,0,0,0,0,0,0,0,0,-1,1693,1352,0,0
476,-328,0,0,0,0,0,0,0,0,0,-1,1700,1352,0,0
483,-328,0,0,0,0,0,0,0,0,0,-1,1707,1352,0,0
490,-328,0,0,0,0,0,0,0,0,0,-1,1714,1352,0,0
497,-328,0,0,0,0,0,0,0,0,0,-1,1721,1352,0,0
504,-328,0,0,0,0,0,0,0,0,0,-1,1728,1352,0,0
511,-328,0,0,0,0,0,0,0,0,0,-1,1735,1352,0,0
518,-328,0,0,0,0,0,0,0,0,0,-1,1742,1352,0,0
525,-328,0,0,0,0,0,0,0,0,0,-1,1749,1352,0,0
532,-328,0,0,0,0,0,0,0,0,0,-1,1756,1352,0,0
539,-328,0,0,0,0,0,0,0,0,0,-1,1763,1352,0,0
546,-328,0,0,0,0,0,0,0,0,0,-1,1770,1352,0,0
553,-328,0,0,0,0,0,0,0,0,0,-1,1777,1352,0,0
560,-328,0,0,0,0,0,0,0,0,0,-1,1784,1352,0,0
567,-328,0,0,0,0,0,0,0,0,0,-1,1791,1352,0,0
574,-328,1.1532,-2.42664,0.0475647,0.0522153,0.0407938,0.09075,0.00902997,0.813868,0.0577259,0.0425597,1798,1352,1.15319,2.42666
581,-328,2.29688,-2.64929,0.0329878,0.0412843,0.0405204,0.0778682,-0.00359617,0.836408,0.0531515,0.0447556,1805,1352,2.29692,2.64933
588,-328,2.61975,-1.89771,0.0218026,0.0316812,0.0389782,0.0660318,-0.012548,0.848422,0.0487452,0.0459407,1812,1352,2.61977,1.89764
595,-328,0.639771,-0.282104,0,0,0,0,0,0,0,-1,1819,1352,0.639826,0.282067
602,-328,0.670532,-0.797241,0,0,0,0,0,0,0,-1,1826,1352,0.670591,0.797247
609,-328,0.737671,-0.726196,0,0,0,0,0,0,0,-1,1833,1352,0.737655,0.726212
616,-328,0.782104,-0.187988,-0.00036018,0.0063948,0.0239799,0.0272339,-0.0211992,0.855361,0.0280351,0.0479284,1840,1352,0.782057,0.187995
623,-328,0.593994,-0.0541992,-0.00201588,0.00326762,0.0196695,0.020472,-0.0192203,0.852152,0.0229202,0.0441093,1847,1352,0.594042,0.0542516
630,-328,0.369629,0.242554,-0.00393104,0.000252269,0.0160407,0.0143371,-0.0180158,0.850231,0.0187192,0.0445756,1854,1352,0.36962,-0.242502
637,-328,0.307251,-0.190186,-0.00517022,-0.00134872,0.0120643,0.00895518,-0.0154741,0.863936,0.0142707,0.0437275,1861,1352,0.307225,0.190204
644,-328,0.152954,-0.188965,-0.00484239,-0.00180067,0.00815376,0.00497286,-0.0116159,0.8776,0.00983019,0.0405285,1868,1352,0.153002,0.189
651,-328,-0.0184326,-0.0760498,-0.00408632,-0.00129392,0.00555297,0.00303569,-0.00841593,0.908562,0.00685051,0.0264052,1875,1352,-0.0184045,0.0760804
658,-328,-0.0401611,-0.0751953,-0.00264156,-0.00125019,0.00331343,0.0014398,-0.00533156,0.888875,0.00411906,0.0150871,1882,1352,-0.0402086,0.0751722
665,-328,-0.0435791,-0.0788574,-0.00196348,-0.001504,0.00199711,0.00027654,-0.00374402,0.842665,0.00259311,0.0143842,1889,1352,-0.0435607,0.078804
672,-328,-0.0297852,-0.0777588,-0.00222942,-0.00067293,0.000426233,-0.000563853,-0.0023385,1.32026,0.00140916,0.0111703,1896,1352,-0.029736,0.0777454
679,-328,-0.015625,-0.0794678,-0.00215458,9.87648e-05,-0.000104866,0.000103635,-0.00215945,-1.52439,0.00147539,0.012126,1903,1352,-0.0156744,0.079416
686,-328,-0.036377,-0.0817871,-0.00207775,0.000259495,-0.000167311,0.000271411,-0.00208967,-1.49969,0.00149183,0.0115949,1910,1352,-0.0364321,0.0817873
693,-328,-0.0308838,-0.0772705,-0.00174895,6.64086e-05,0.000508518,0.000199149,-0.00188169,1.31546,0.00132584,0.00811955,1917,1352,-0.0309049,0.0773038
700,-328,-0.00866699,-0.0759277,-0.00111334,-0.000639685,0.00129664,0.000441574,-0.0021946,0.875727,0.00163032,0.0121969,1924,1352,-0.00868593,0.0759725
707,-328,-0.0108643,-0.0916748,-0.00110394,-0.00102228,0.00227505,0.00121231,-0.00333853,0.79437,0.00272134,0.014247,1931,1352,-0.0108219,0.0916997
714,-328,-0.0186768,-0.0910645,-0.00131501,-0.001801,0.00333186,0.00178271,-0.00489871,0.748998,0.00399491,0.011948,1938,1352,-0.0186584,0.0910517
721,-328,-0.0428467,-0.0681152,-0.00153476,-0.00263789,0.00457108,0.00251791,-0.00669056,0.725357,0.00549544,0.0200794,1945,1352,-0.0428567,0.0680555
728,-328,-0.039917,-0.079834,-0.00178784,-0.00358806,0.0061364,0.00351411,-0.00889001,0.712576,0.00738231,0.0370063,1952,1352,-0.0399723,0.0797961
735,-328,-0.0119629,-0.119873,-0.00215522,-0.00468103,0.00793291,0.00461468,-0.0114509,0.706462,0.0095513,0.0448154,1959,1352,-0.0119181,0.119844
742,-328,0.251099,-0.460083,0,0,0,0,0,0,0,-1,1966,1352,0.25107,0.460091
749,-328,0.523315,-0.423828,-0.00372521,-0.00711217,0.0119599,0.00666052,-0.0174979,0.715068,0.0144081,0.0415421,1973,1352,0.523314,0.423811
756,-328,0.363647,-0.191162,-0.00535826,-0.00823291,0.0139084,0.00718684,-0.020778,0.73391,0.0167691,0.0449665,1980,1352,0.363625,0.191171
763,-328,0,0,0,0,0,0,0,0,0,-1,1987,1352,0,0
770,-328,0,0,0,0,0,0,0,0,0,-1,1994,1352,0,0
777,-328,0,0,0,0,0,0,0,0,0,-1,2001,1352,0,0
784,-328,0,0,0,0,0,0,0,0,0,-1,2008,1352,0,0
791,-328,0,0,0,0,0,0,0,0,0,-1,2015,1352,0,0
798,-328,0,0,0,0,0,0,0,0,0,-1,2022,1352,0,0
805,-328,0,0,0,0,0,0,0,0,0,-1,2029,1352,0,0
812,-328,0,0,0,0,0,0,0,0,0,-1,2036,1352,0,0
-700,-335,0,0,0,0,0,0,0,0,0,-1,524,1359,0,0
-693,-335,0,0,0,0,0,0,0,0,0,-1,531,1359,0,0
-686,-335,0,0,0,0,0,0,0,0,0,-1,538,1359,0,0
-679,-335,0,0,0,0,0,0,0,0,0,-1,545,1359,0,0
-672,-335,0,0,0,0,0,0,0,0,0,-1,552,1359,0,0
-665,-335,0,0,0,0,0,0,0,0,0,-1,559,1359,0,0
-658,-335,0,0,0,0,0,0,0,0,0,-1,566,1359,0,0
-651,-335,0,0,0,0,0,0,0,0,0,-1,573,1359,0,0
-644,-335,0,0,0,0,0,0,0,0,0,-1,580,1359,0,0
-637,-335,0.111755,0.176025,0,0,0,0,0,0,0,-1,587,1359,0.111768,-0.175977
-630,-335,2.06244,4.23169,-0.0109347,0.0668255,0.00604927,0.0672933,-0.0114024,1.49362,0.0491063,0.0465827,594,1359,2.06243,-4.2317
-623,-335,1.9165,3.54761,-0.00891253,0.0570751,0.00248312,0.0571685,-0.00900584,1.53324,0.0414417,0.0442814,601,1359,1.91649,-3.54761
-616,-335,1.78113,2.70654,-0.00739753,0.047534,-1.38262e-05,0.047534,-0.00739754,-1.57054,0.0344212,0.0420927,608,1359,1.7811,-2.70654
-609,-335,1.03302,2.78772,-0.00620413,0.0385361,-0.00166337,0.0385979,-0.00626589,-1.53369,0.0280548,0.0453264,615,1359,1.033,-2.78774
-602,-335,1.7312,2.31018,0,0,0,0,0,0,0,-1,622,1359,1.73118,-2.31015
-595,-335,-0.0928345,-0.28894,-0.00445468,0.023116,-0.00290147,0.0234181,-0.00475672,-1.46707,0.0174155,0.0405616,629,1359,-0.0928212,0.288891
-588,-335,0.0253906,-0.138428,-0.00368502,0.017233,-0.00325884,0.0177289,-0.00418096,-1.41977,0.0134316,0.0266129,636,1359,0.0253768,0.138448
-581,-335,-0.0144043,-0.0841064,-0.00304437,0.0123038,-0.00299801,0.0128686,-0.00360919,-1.38458,0.0100016,0.0125287,643,1359,-0.0144079,0.0840804
-574,-335,-0.00927734,-0.0856934,-0.002369,0.00766799,-0.00248915,0.00825139,-0.0029524,-1.34058,0.00670533,0.0107574,650,1359,-0.00930052,0.085654
-567,-335,-0.000244141,-0.0806885,-0.00194609,0.00444745,-0.00189388,0.00496634,-0.00246498,-1.30338,0.00437074,0.0150424,657,1359,-0.000231504,0.0806812
-560,-335,0.00378418,-0.1073,-0.00147908,0.00235411,-0.00133146,0.0027712,-0.00189617,-1.26722,0.00271045,0.0228932,664,1359,0.00378,0.107328
-553,-335,-0.0239258,-0.128174,-0.000580529,0.00105699,-0.000885403,0.00144418,-0.000967716,-1.15855,0.00140154,0.024996,671,1359,-0.0239052,0.128127
-546,-335,-0.046936,-0.0899658,0.00013912,0.00059143,-0.00045623,0.000874482,-0.000143933,-1.0155,0.000636415,0.0242318,678,1359,-0.0469564,0.0899978
-539,-335,-0.026123,-0.0686035,0.000738327,0.00119529,0.000259938,0.00131289,0.000620728,1.14594,0.000758371,0.0192147,685,1359,-0.0261524,0.068598
-532,-335,-0.0278931,-0.0709229,0.000980358,0.00185,0.000847302,0.00236754,0.000462817,1.02247,0.00144894,0.0135917,692,1359,-0.0278761,0.0709063
-525,-335,-0.0157471,-0.0628662,0.000924544,0.00207684,0.00175802,0.00335072,-0.000349328,0.943746,0.00235889,0.00887854,699,1359,-0.0157549,0.0628971
-518,-335,-0.031189,-0.0643311,0.00085278,0.0026488,0.00267632,0.00457375,-0.00107217,0.947266,0.00346234,0.0119521,706,1359,-0.0312184,0.0643317
-511,-335,-0.0525513,-0.102783,0.000214723,0.00355798,0.00382945,0.00606475,-0.00229205,0.991192,0.004986,0.0338289,713,1359,-0.0525729,0.102758
-504,-335,0.712708,-0.703735,0,0,0,0,0,0,0,-1,720,1359,0.712689,0.703695
-497,-335,0.745728,-0.5625,-0.00123125,0.00455069,0.00568402,0.00803669,-0.00471726,1.02066,0.00744617,0.047351,727,1359,0.74571,0.562554
-490,-335,0.962158,-0.404541,-0.00245257,0.00495526,0.00659242,0.00881302,-0.00631033,1.04134,0.00877124,0.0439748,734,1359,0.962156,0.404547
-483,-335,0.960449,-0.228882,-0.00393048,0.0049598,0.00696097,0.00877386,-0.00774455,1.06955,0.00954307,0.047135,741,1359,0.960434,0.228821
-476,-335,0.900635,-0.108398,-0.00531971,0.00419565,0.00695868,0.00786761,-0.00899167,1.08525,0.00974092,0.0467145,748,1359,0.900663,0.108455
-469,-335,0.861572,-0.0950928,-0.00668791,0.0031531,0.00591661,0.00592789,-0.0094627,1.13227,0.00896354,0.0485239,755,1359,0.861589,0.0951383
-462,-335,0.700684,0.0848389,-0.00775208,0.00128547,0.00345139,0.00245277,-0.00891938,1.24466,0.0069105,0.0456771,762,1359,0.700708,-0.0848935
-455,-335,0.5578,-0.596924,0,0,0,0,0,0,0,-1,769,1359,0.557806,0.596871
-448,-335,0,0,0,0,0,0,0,0,0,-1,776,1359,0,0
-441,-335,0,0,0,0,0,0,0,0,0,-1,783,1359,0,0
-434,-335,0,0,0,0,0,0,0,0,0,-1,790,1359,0,0
-427,-335,0,0,0,0,0,0,0,0,0,-1,797,1359,0,0
-420,-335,0,0,0,0,0,0,0,0,0,-1,804,1359,0,0
-413,-335,0,0,0,0,0,0,0,0,0,-1,811,1359,0,0
-406,-335,0,0,0,0,0,0,0,0,0,-1,818,1359,0,0
-399,-335,0,0,0,0,0,0,0,0,0,-1,825,1359,0,0
-392,-335,0,0,0,0,0,0,0,0,0,-1,832,1359,0,0
-385,-335,0,0,0,0,0,0,0,0,0,-1,839,1359,0,0
-378,-335,0,0,0,0,0,0,0,0,0,-1,846,1359,0,0
-371,-335,0,0,0,0,0,0,0,0,0,-1,853,1359,0,0
-364,-335,0,0,0,0,0,0,0,0,0,-1,860,1359,0,0
-357,-335,0,0,0,0,0,0,0,0,0,-1,867,1359,0,0
-350,-335,0,0,0,0,0,0,0,0,0,-1,874,1359,0,0
-343,-335,0,0,0,0,0,0,0,0,0,-1,881,1359,0,0
-336,-335,0,0,0,0,0,0,0,0,0,-1,888,1359,0,0
-329,-335,0,0,0,0,0,0,0,0,0,-1,895,1359,0,0
-322,-335,0,0,0,0,0,0,0,0,0,-1,902,1359,0,0
-315,-335,0,0,0,0,0,0,0,0,0,-1,909,1359,0,0
-308,-335,0,0,0,0,0,0,0,0,0,-1,916,1359,0,0
-301,-335,0,0,0,0,0,0,0,0,0,-1,923,1359,0,0
-294,-335,0,0,0,0,0,0,0,0,0,-1,930,1359,0,0
-287,-335,0,0,0,0,0,0,0,0,0,-1,937,1359,0,0
-280,-335,0,0,0,0,0,0,0,0,0,-1,944,1359,0,0
-273,-335,0,0,0,0,0,0,0,0,0,-1,951,1359,0,0
-266,-335,0,0,0,0,0,0,0,0,0,-1,958,1359,0,0
-259,-335,0,0,0,0,0,0,0,0,0,-1,965,1359,0,0
-252,-335,0,0,0,0,0,0,0,0,0,-1,972,1359,0,0
-245,-335,0,0,0,0,0,0,0,0,0,-1,979,1359,0,0
-238,-335,0,0,0,0,0,0,0,0,0,-1,986,1359,0,0
-231,-335,0,0,0,0,0,0,0,0,0,-1,993,1359,0,0
-224,-335,0,0,0,0,0,0,0,0,0,-1,1000,1359,0,0
-217,-335,0,0,0,0,0,0,0,0,0,-1,1007,1359,0,0
-210,-335,0,0,0,0,0,0,0,0,0,-1,1014,1359,0,0
-203,-335,0,0,0,0,0,0,0,0,0,-1,1021,1359,0,0
-196,-335,0,0,0,0,0,0,0,0,0,-1,1028,1359,0,0
-189,-335,0,0,0,0,0,0,0,0,0,-1,1035,1359,0,0
-182,-335,0,0,0,0,0,0,0,0,0,-1,1042,1359,0,0
-175,-335,0,0,0,0,0,0,0,0,0,-1,1049,1359,0,0
-168,-335,0,0,0,0,0,0,0,0,0,-1,1056,1359,0,0
-161,-335,0,0,0,0,0,0,0,0,0,-1,1063,1359,0,0
-154,-335,0,0,0,0,0,0,0,0,0,-1,1070,1359,0,0
-147,-335,0,0,0,0,0,0,0,0,0,-1,1077,1359,0,0
-140,-335,0,0,0,0,0,0,0,0,0,-1,1084,1359,0,0
-133,-335,0,0,0,0,0,0,0,0,0,-1,1091,1359,0,0
-126,-335,0,0,0,0,0,0,0,0,0,-1,1098,1359,0,0
-119,-335,0,0,0,0,0,0,0,0,0,-1,1105,1359,0,0
-112,-335,0,0,0,0,0,0,0,0,0,-1,1112,1359,0,0
-105,-335,0,0,0,0,0,0,0,0,0,-1,1119,1359,0,0
-98,-335,0,0,0,0,0,0,0,0,0,-1,1126,1359,0,0
-91,-335,0,0,0,0,0,0,0,0,0,-1,1133,1359,0,0
-84,-335,0,0,0,0,0,0,0,0,0,-1,1140,1359,0,0
-77,-335,0,0,0,0,0,0,0,0,0,-1,1147,1359,0,0
-70,-335,0,0,0,0,0,0,0,0,0,-1,1154,1359,0,0
-63,-335,0,0,0,0,0,0,0,0,0,-1,1161,1359,0,0
-56,-335,0,0,0,0,0,0,0,0,0,-1,1168,1359,0,0
-49,-335,0,0,0,0,0,0,0,0,0,-1,1175,1359,0,0
-42,-335,0,0,0,0,0,0,0,0,0,-1,1182,1359,0,0
-35,-335,0,0,0,0,0,0,0,0,0,-1,1189,1359,0,0
-28,-335,0,0,0,0,0,0,0,0,0,-1,1196,1359,0,0
-21,-335,0,0,0,0,0,0,0,0,0,-1,1203,1359,0,0
-14,-335,0,0,0,0,0,0,0,0,0,-1,1210,1359,0,0
-7,-335,0,0,0,0,0,0,0,0,0,-1,1217,1359,0,0
0,-335,0,0,0,0,0,0,0,0,0,-1,1224,1359,0,0
7,-335,0,0,0,0,0,0,0,0,0,-1,1231,1359,0,0
14,-335,0,0,0,0,0,0,0,0,0,-1,1238,1359,0,0
21,-335,0,0,0,0,0,0,0,0,0,-1,1245,1359,0,0
28,-335,0,0,0,0,0,0,0,0,0,-1,1252,1359,0,0
35,-335,0,0,0,0,0,0,0,0,0,-1,1259,1359,0,0
42,-335,0,0,0,0,0,0,0,0,0,-1,1266,1359,0,0
49,-335,0,0,0,0,0,0,0,0,0,-1,1273,1359,0,0
56,-335,0,0,0,0,0,0,0,0,0,-1,1280,1359,0,0
63,-335,0,0,0,0,0,0,0,0,0,-1,1287,1359,0,0
70,-335,0,0,0,0,0,0,0,0,0,-1,1294,1359,0,0
77,-335,0,0,0,0,0,0,0,0,0,-1,1301,1359,0,0
84,-335,0,0,0,0,0,0,0,0,0,-1,1308,1359,0,0
91,-335,0,0,0,0,0,0,0,0,0,-1,1315,1359,0,0
98,-335,0,0,0,0,0,0,0,0,0,-1,1322,1359,0,0
105,-335,0,0,0,0,0,0,0,0,0,-1,1329,1359,0,0
112,-335,0,0,0,0,0,0,0,0,0,-1,1336,1359,0,0
119,-335,0,0,0,0,0,0,0,0,0,-1,1343,1359,0,0
126,-335,0,0,0,0,0,0,0,0,0,-1,1350,1359,0,0
133,-335,0,0,0,0,0,0,0,0,0,-1,1357,1359,0,0
140,-335,0,0,0,0,0,0,0,0,0,-1,1364,1359,0,0
147,-335,0,0,0,0,0,0,0,0,0,-1,1371,1359,0,0
154,-335,0,0,0,0,0,0,0,0,0,-1,1378,1359,0,0
161,-335,0,0,0,0,0,0,0,0,0,-1,1385,1359,0,0
168,-335,0,0,0,0,0,0,0,0,0,-1,1392,1359,0,0
175,-335,0,0,0,0,0,0,0,0,0,-1,1399,1359,0,0
182,-335,0,0,0,0,0,0,0,0,0,-1,1406,1359,0,0
189,-335,0,0,0,0,0,0,0,0,0,-1,1413,1359,0,0
196,-335,0,0,0,0,0,0,0,0,0,-1,1420,1359,0,0
203,-335,0,0,0,0,0,0,0,0,0,-1,1427,1359,0,0
210,-335,0,0,0,0,0,0,0,0,0,-1,1434,1359,0,0
217,-335,0,0,0,0,0,0,0,0,0,-1,1441,1359,0,0
224,-335,0,0,0,0,0,0,0,0,0,-1,1448,1359,0,0
231,-335,0,0,0,0,0,0,0,0,0,-1,1455,1359,0,0
238,-335,0,0,0,0,0,0,0,0,0,-1,1462,1359,0,0
245,-335,0,0,0,0,0,0,0,0,0,-1,1469,1359,0,0
252,-335,0,0,0,0,0,0,0,0,0,-1,1476,1359,0,0
259,-335,0,0,0,0,0,0,0,0,0,-1,1483,1359,0,0
266,-335,0,0,0,0,0,0,0,0,0,-1,1490,1359,0,0
273,-335,0,0,0,0,0,0,0,0,0,-1,1497,1359,0,0
280,-335,0,0,0,0,0,0,0,0,0,-1,1504,1359,0,0
287,-335,0,0,0,0,0,0,0,0,0,-1,1511,1359,0,0
294,-335,0,0,0,0,0,0,0,0,0,-1,1518,1359,0,0
301,-335,0,0,0,0,0,0,0,0,0,-1,1525,1359,0,0
308,-335,0,0,0,0,0,0,0,0,0,-1,1532,1359,0,0
315,-335,0,0,0,0,0,0,0,0,0,-1,1539,1359,0,0
322,-335,0,0,0,0,0,0,0,0,0,-1,1546,1359,0,0
329,-335,0,0,0,0,0,0,0,0,0,-1,1553,1359,0,0
336,-335,0,0,0,0,0,0,0,0,0,-1,1560,1359,0,0
343,-335,0,0,0,0,0,0,0,0,0,-1,1567,1359,0,0
350,-335,0,0,0,0,0,0,0,0,0,-1,1574,1359,0,0
357,-335,0,0,0,0,0,0,0,0,0,-1,1581,1359,0,0
364,-335,0,0,0,0,0,0,0,0,0,-1,1588,1359,0,0
371,-335,0,0,0,0,0,0,0,0,0,-1,1595,1359,0,0
378,-335,0,0,0,0,0,0,0,0,0,-1,1602,1359,0,0
385,-335,0,0,0,0,0,0,0,0,0,-1,1609,1359,0,0
392,-335,0,0,0,0,0,0,0,0,0,-1,1616,1359,0,0
399,-335,0,0,0,0,0,0,0,0,0,-1,1623,1359,0,0
406,-335,0,0,0,0,0,0,0,0,0,-1,1630,1359,0,0
413,-335,0,0,0,0,0,0,0,0,0,-1,1637,1359,0,0
420,-335,0,0,0,0,0,0,0,0,0,-1,1644,1359,0,0
427,-335,0,0,0,0,0,0,0,0,0,-1,1651,1359,0,0
434,-335,0,0,0,0,0,0,0,0,0,-1,1658,1359,0,0
441,-335,0,0,0,0,0,0,0,0,0,-1,1665,1359,0,0
448,-335,0,0,0,0,0,0,0,0,0,-1,1672,1359,0,0
455,-335,0,0,0,0,0,0,0,0,0,-1,1679,1359,0,0
462,-335,0,0,0,0,0,0,0,0,0,-1,1686,1359,0,0
469,-335,0,0,0,0,0,0,0,0,0,-1,1693,1359,0,0
476,-335,0,0,0,0,0,0,0,0,0,-1,1700,1359,0,0
483,-335,0,0,0,0,0,0,0,0,0,-1,1707,1359,0,0
490,-335,0,0,0,0,0,0,0,0,0,-1,1714,1359,0,0
497,-335,0,0,0,0,0,0,0,0,0,-1,1721,1359,0,0
504,-335,0,0,0,0,0,0,0,0,0,-1,1728,1359,0,0
511,-335,0,0,0,0,0,0,0,0,0,-1,1735,1359,0,0
518,-335,0,0,0,0,0,0,0,0,0,-1,1742,1359,0,0
525,-335,0,0,0,0,0,0,0,0,0,-1,1749,1359,0,0
532,-335,0,0,0,0,0,0,0,0,0,-1,1756,1359,0,0
539,-335,0,0,0,0,0,0,0,0,0,-1,1763,1359,0,0
546,-335,0,0,0,0,0,0,0,0,0,-1,1770,1359,0,0
553,-335,0,0,0,0,0,0,0,0,0,-1,1777,1359,0,0
560,-335,0,0,0,0,0,0,0,0,0,-1,1784,1359,0,0
567,-335,0,0,0,0,0,0,0,0,0,-1,1791,1359,0,0
574,-335,1.17993,-3.13147,0.0394478,0.0455196,0.0394087,0.0820091,0.00295826,0.823841,0.0537138,0.0419105,1798,1359,1.17992,3.13148
581,-335,1.86609,-2.99377,0.0281395,0.0357899,0.0393816,0.0715316,-0.00760229,0.833812,0.0504133,0.0453891,1805,1359,1.86603,2.99376
588,-335,2.10229,-2.19727,0.0190097,0.027071,0.0380218,0.0612752,-0.0151945,0.838205,0.0467455,0.044453,1812,1359,2.1023,2.19731
595,-335,2.35498,-1.55908,0,0,0,0,0,0,0,-1,1819,1359,2.35504,1.55908
602,-335,2.05396,-0.97644,0,0,0,0,0,0,0,-1,1826,1359,2.05391,0.976448
609,-335,1.98584,-0.317383,0,0,0,0,0,0,0,-1,1833,1359,1.98588,0.31738
616,-335,0.690308,0.570679,0,0,0,0,0,0,0,-1,1840,1359,0.69028,-0.570639
623,-335,0.451172,0.690674,-0.00207756,0.001928,0.0198241,0.0198502,-0.0199998,0.835741,0.0230075,0.046716,1847,1359,0.451216,-0.690638
630,-335,0.33252,0.442261,-0.00397317,-0.000856133,0.0162429,0.0139029,-0.0187322,0.833227,0.0189105,0.0442317,1854,1359,0.332539,-0.442266
637,-335,0.163452,0.16748,-0.00521094,-0.00207939,0.0122522,0.0087067,-0.015997,0.848951,0.0144682,0.0470758,1861,1359,0.163441,-0.167507
644,-335,-0.057373,-0.106323,-0.00487801,-0.00223887,0.00834428,0.00488953,-0.0120064,0.863819,0.0100392,0.0332126,1868,1359,-0.0573833,0.106284
651,-335,-0.0307617,-0.0736084,-0.00406091,-0.00150374,0.00564795,0.00300854,-0.00857319,0.896712,0.00693922,0.0131458,1875,1359,-0.0307244,0.0736499
658,-335,-0.0314941,-0.0668945,-0.00265401,-0.00125264,0.00343516,0.00155257,-0.00545922,0.886005,0.00425255,0.0121322,1882,1359,-0.0315544,0.0668818
665,-335,-0.0495605,-0.0650635,-0.00198447,-0.00130548,0.00205581,0.000438681,-0.00372863,0.867229,0.00264414,0.0153614,1889,1359,-0.0495989,0.0650107
672,-335,-0.0505371,-0.0704346,-0.00211439,-0.000441414,0.000499882,-0.000303431,-0.00225237,1.30147,0.00141135,0.016001,1896,1359,-0.0505476,0.0703811
679,-335,-0.0251465,-0.0743408,-0.00204228,0.000388607,1.40841e-05,0.000388688,-0.00204236,1.565,0.00150793,0.0126746,1903,1359,-0.0251436,0.0743602
686,-335,-0.0141602,-0.0908203,-0.00205853,0.000530601,6.96256e-05,0.000532472,-0.0020604,1.54393,0.00158126,0.0105819,1910,1359,-0.0141226,0.0907731
693,-335,-0.00744629,-0.103638,-0.00185624,0.000260345,0.00085422,0.00056208,-0.00215797,1.23125,0.00165808,0.00935362,1917,1359,-0.00740354,0.103666
700,-335,-0.00891113,-0.0826416,-0.00141074,-0.00038305,0.00171832,0.000896611,-0.0026904,0.930686,0.00215555,0.0100821,1924,1359,-0.00896499,0.082695
707,-335,-0.0228271,-0.0927734,-0.0015976,-0.000754235,0.0028552,0.00171025,-0.00406209,0.858713,0.00342362,0.0129143,1931,1359,-0.0228228,0.0927359
714,-335,-0.0235596,-0.0834961,-0.00199298,-0.00152009,0.00418068,0.00243082,-0.0059439,0.813646,0.00497493,0.015276,1938,1359,-0.0235768,0.0834433
721,-335,-0.00549316,-0.0565186,-0.00240707,-0.00242747,0.00580729,0.00339003,-0.00822457,0.78452,0.00689661,0.0297925,1945,1359,-0.00545937,0.0565426
728,-335,-0.00878906,-0.00524902,0,0,0,0,0,0,0,-1,1952,1359,-0.00878266,0.00522948
735,-335,0.0317383,-0.00317383,0,0,0,0,0,0,0,-1,1959,1359,0.0316898,0.00314089
742,-335,0.657959,-0.321167,-0.00393046,-0.00652894,0.0130955,0.00793008,-0.0183895,0.735954,0.0155904,0.0401685,1966,1359,0.657945,0.321125
749,-335,0.4823,-0.378052,-0.00489113,-0.00822081,0.0160628,0.00959291,-0.0227049,0.73376,0.0191525,0.0408061,1973,1359,0.482356,0.378045
756,-335,0.235352,-0.368408,-0.00644896,-0.00986947,0.0190485,0.0109659,-0.0272844,0.740626,0.0227438,0.0443272,1980,1359,0.235298,0.368467
763,-335,0,0,0,0,0,0,0,0,0,-1,1987,1359,0,0
770,-335,0,0,0,0,0,0,0,0,0,-1,1994,1359,0,0
777,-335,0,0,0,0,0,0,0,0,0,-1,2001,1359,0,0
784,-335,0,0,0,0,0,0,0,0,0,-1,2008,1359,0,0
791,-335,0,0,0,0,0,0,0,0,0,-1,2015,1359,0,0
798,-335,0,0,0,0,0,0,0,0,0,-1,2022,1359,0,0
805,-335,0,0,0,0,0,0,0,0,0,-1,2029,1359,0,0
812,-335,0,0,0,0,0,0,0,0,0,-1,2036,1359,0,0
-700,-342,0,0,0,0,0,0,0,0,0,-1,524,1366,0,0
-693,-342,0,0,0,0,0,0,0,0,0,-1,531,1366,0,0
-686,-342,0,0,0,0,0,0,0,0,0,-1,538,1366,0,0
-679,-342,0,0,0,0,0,0,0,0,0,-1,545,1366,0,0
-672,-342,0,0,0,0,0,0,0,0,0,-1,552,1366,0,0
-665,-342,0,0,0,0,0,0,0,0,0,-1,559,1366,0,0
-658,-342,0,0,0,0,0,0,0,0,0,-1,566,1366,0,0
-651,-342,0,0,0,0,0,0,0,0,0,-1,573,1366,0,0
-644,-342,0,0,0,0,0,0,0,0,0,-1,580,1366,0,0
-637,-342,1.57916,3.97778,0,0,0,0,0,0,0,-1,587,1366,1.57914,-3.97781
-630,-342,1.54486,3.37756,-0.00812976,0.074362,0.00632856,0.0748446,-0.00861244,1.49467,0.053001,0.0452523,594,1366,1.54485,-3.37756
-623,-342,1.34558,2.75745,-0.00649972,0.0636413,0.00229041,0.063716,-0.00657443,1.53819,0.0448298,0.043592,601,1366,1.34556,-2.75742
-616,-342,1.25134,2.26538,-0.00541187,0.0530228,-0.000435339,0.053026,-0.00541511,-1.56335,0.037287,0.047151,608,1366,1.25136,-2.26543
-609,-342,1.37036,1.97961,-0.00461545,0.042955,-0.00218669,0.0430553,-0.00471576,-1.52496,0.0303976,0.0470403,615,1366,1.37037,-1.97966
-602,-342,1.55438,1.57825,-0.00404654,0.0337655,-0.0031718,0.0340297,-0.00431076,-1.48769,0.0242514,0.047511,622,1366,1.55439,-1.57828
-595,-342,0.361755,-0.494507,-0.00359928,0.0257153,-0.00347831,0.0261223,-0.00400635,-1.4543,0.0188925,0.0404677,629,1366,0.361782,0.494466
-588,-342,0.147644,-0.287109,-0.00317604,0.019032,-0.00365968,0.0196195,-0.00376358,-1.41161,0.0144979,0.0320612,636,1366,0.14767,0.287079
-581,-342,-0.0276489,-0.0683594,-0.00282877,0.0136161,-0.00327788,0.0142454,-0.00345806,-1.38112,0.0108351,0.018567,643,1366,-0.027623,0.0683502
-574,-342,-0.0307617,-0.0474854,-0.00235016,0.00852847,-0.00278772,0.00920123,-0.00302293,-1.33399,0.00735196,0.00932583,650,1366,-0.0307899,0.0474626
-567,-342,-0.00915527,-0.0599365,-0.0020214,0.00494386,-0.00221377,0.00558791,-0.00266545,-1.28768,0.00486363,0.0152301,657,1366,-0.00915773,0.0598921
-560,-342,-0.0368652,-0.137329,-0.00166439,0.00279969,-0.0016754,0.00335853,-0.00222322,-1.24885,0.00324477,0.0223754,664,1366,-0.0368676,0.137304
-553,-342,-0.0380859,-0.194092,-0.000984677,0.00135392,-0.00112296,0.00180582,-0.00143658,-1.1882,0.00187604,0.0262729,671,1366,-0.0380968,0.194104
-546,-342,-0.0437012,-0.118164,-0.000533384,0.000751177,-0.000558862,0.000960278,-0.000742486,-1.21277,0.000985768,0.0279926,678,1366,-0.0436958,0.118155
-539,-342,-0.0414429,-0.0772705,-0.000140604,0.00140729,0.000336047,0.0014771,-0.000210411,1.36598,0.00106184,0.0225602,685,1366,-0.041455,0.0772703
-532,-342,-0.019104,-0.0819092,4.66104e-05,0.00202223,0.00109827,0.00251157,-0.000442731,1.15165,0.0018398,0.0164585,692,1366,-0.0191146,0.0819015
-525,-342,-0.010437,-0.0753174,5.4586e-05,0.00227196,0.00203187,0.00347794,-0.0011514,1.03515,0.00278299,0.00991374,699,1366,-0.0104629,0.0752581
-518,-342,-0.0221558,-0.0678711,-7.54666e-05,0.00274893,0.00299818,0.00465085,-0.00197739,1.0055,0.00392921,0.00909253,706,1366,-0.0221664,0.067856
-511,-342,-0.0078125,-0.0628662,-0.000728916,0.00352848,0.00416459,0.00607687,-0.00327731,1.02166,0.00548067,0.0245157,713,1366,-0.00782245,0.062833
-504,-342,0.0467529,-0.155884,-0.00126918,0.00392208,0.00512639,0.00707251,-0.00441961,1.01975,0.00669364,0.0434903,720,1366,0.0467634,0.15593
-497,-342,0.135437,-0.171387,-0.00188224,0.00412779,0.00591579,0.00775804,-0.00551249,1.0204,0.00769822,0.0464654,727,1366,0.135416,0.171392
-490,-342,0.196899,-0.298706,-0.00270367,0.00434653,0.0066485,0.00834665,-0.00670378,1.02916,0.00870661,0.0470263,734,1366,0.19687,0.298738
-483,-342,0.302185,0.00952148,-0.00355281,0.00414035,0.0067314,0.0080467,-0.00745916,1.04497,0.00895446,0.0436023,741,1366,0.302174,-0.00955528
-476,-342,0.293457,-0.129272,-0.00402354,0.0031873,0.00648162,0.00699879,-0.00783502,1.03921,0.00856884,0.0405299,748,1366,0.293443,0.129301
-469,-342,0.482117,-0.264038,-0.00421479,0.00214968,0.00532449,0.00517041,-0.00723552,1.05475,0.00719557,0.042179,755,1366,0.482105,0.264001
-462,-342,0.419434,-0.402588,-0.00396803,0.000302254,0.00302617,0.0018707,-0.00553648,1.09262,0.00444768,0.0449611,762,1366,0.419424,0.40257
-455,-342,0.275208,-0.865356,0,0,0,0,0,0,0,-1,769,1366,0.275208,0.865296
-448,-342,0.164001,-1.25562,0,0,0,0,0,0,0,-1,776,1366,0.163989,1.25558
-441,-342,0,0,0,0,0,0,0,0,0,-1,783,1366,0,0
-434,-342,0,0,0,0,0,0,0,0,0,-1,790,1366,0,0
-427,-342,0,0,0,0,0,0,0,0,0,-1,797,1366,0,0
-420,-342,0,0,0,0,0,0,0,0,0,-1,804,1366,0,0
-413,-342,0,0,0,0,0,0,0,0,0,-1,811,1366,0,0
-406,-342,0,0,0,0,0,0,0,0,0,-1,818,1366,0,0
-399,-342,0,0,0,0,0,0,0,0,0,-1,825,1366,0,0
-392,-342,0,0,0,0,0,0,0,0,0,-1,832,1366,0,0
-385,-342,0,0,0,0,0,0,0,0,0,-1,839,1366,0,0
-378,-342,0,0,0,0,0,0,0,0,0,-1,846,1366,0,0
-371,-342,0,0,0,0,0,0,0,0,0,-1,853,1366,0,0
-364,-342,0,0,0,0,0,0,0,0,0,-1,860,1366,0,0
-357,-342,0,0,0,0,0,0,0,0,0,-1,867,1366,0,0
-350,-342,0,0,0,0,0,0,0,0,0,-1,874,1366,0,0
-343,-342,0,0,0,0,0,0,0,0,0,-1,881,1366,0,0
-336,-342,0,0,0,0,0,0,0,0,0,-1,888,1366,0,0
-329,-342,0,0,0,0,0,0,0,0,0,-1,895,1366,0,0
-322,-342,0,0,0,0,0,0,0,0,0,-1,902,1366,0,0
-315,-342,0,0,0,0,0,0,0,0,0,-1,909,1366,0,0
-308,-342,0,0,0,0,0,0,0,0,0,-1,916,1366,0,0
-301,-342,0,0,0,0,0,0,0,0,0,-1,923,1366,0,0
-294,-342,0,0,0,0,0,0,0,0,0,-1,930,1366,0,0
-287,-342,0,0,0,0,0,0,0,0,0,-1,937,1366,0,0
-280,-342,0,0,0,0,0,0,0,0,0,-1,944,1366,0,0
-273,-342,0,0,0,0,0,0,0,0,0,-1,951,1366,0,0
-266,-342,0,0,0,0,0,0,0,0,0,-1,958,1366,0,0
-259,-342,0,0,0,0,0,0,0,0,0,-1,965,1366,0,0
-252,-342,0,0,0,0,0,0,0,0,0,-1,972,1366,0,0
-245,-342,0,0,0,0,0,0,0,0,0,-1,979,1366,0,0
-238,-342,0,0,0,0,0,0,0,0,0,-1,986,1366,0,0
-231,-342,0,0,0,0,0,0,0,0,0,-1,993,1366,0,0
-224,-342,0,0,0,0,0,0,0,0,0,-1,1000,1366,0,0
-217,-342,0,0,0,0,0,0,0,0,0,-1,1007,1366,0,0
-210,-342,0,0,0,0,0,0,0,0,0,-1,1014,1366,0,0
-203,-342,0,0,0,0,0,0,0,0,0,-1,1021,1366,0,0
-196,-342,0,0,0,0,0,0,0,0,0,-1,1028,1366,0,0
-189,-342,0,0,0,0,0,0,0,0,0,-1,1035,1366,0,0
-182,-342,0,0,0,0,0,0,0,0,0,-1,1042,1366,0,0
-175,-342,0,0,0,0,0,0,0,0,0,-1,1049,1366,0,0
-168,-342,0,0,0,0,0,0,0,0,0,-1,1056,1366,0,0
-161,-342,0,0,0,0,0,0,0,0,0,-1,1063,1366,0,0
-154,-342,0,0,0,0,0,0,0,0,0,-1,1070,1366,0,0
-147,-342,0,0,0,0,0,0,0,0,0,-1,1077,1366,0,0
-140,-342,0,0,0,0,0,0,0,0,0,-1,1084,1366,0,0
-133,-342,0,0,0,0,0,0,0,0,0,-1,1091,1366,0,0
-126,-342,0,0,0,0,0,0,0,0,0,-1,1098,1366,0,0
-119,-342,0,0,0,0,0,0,0,0,0,-1,1105,1366,0,0
-112,-342,0,0,0,0,0,0,0,0,0,-1,1112,1366,0,0
-105,-342,0,0,0,0,0,0,0,0,0,-1,1119,1366,0,0
-98,-342,0,0,0,0,0,0,0,0,0,-1,1126,1366,0,0
-91,-342,0,0,0,0,0,0,0,0,0,-1,1133,1366,0,0
-84,-342,0,0,0,0,0,0,0,0,0,-1,1140,1366,0,0
-77,-342,0,0,0,0,0,0,0,0,0,-1,1147,1366,0,0
-70,-342,0,0,0,0,0,0,0,0,0,-1,1154,1366,0,0
-63,-342,0,0,0,0,0,0,0,0,0,-1,1161,1366,0,0
-56,-342,0,0,0,0,0,0,0,0,0,-1,1168,1366,0,0
-49,-342,0,0,0,0,0,0,0,0,0,-1,1175,1366,0,0
-42,-342,0,0,0,0,0,0,0,0,0,-1,1182,1366,0,0
-35,-342,0,0,0,0,0,0,0,0,0,-1,1189,1366,0,0
-28,-342,0,0,0,0,0,0,0,0,0,-1,1196,1366,0,0
-21,-342,0,0,0,0,0,0,0,0,0,-1,1203,1366,0,0
-14,-342,0,0,0,0,0,0,0,0,0,-1,1210,1366,0,0
-7,-342,0,0,0,0,0,0,0,0,0,-1,1217,1366,0,0
0,-342,0,0,0,0,0,0,0,0,0,-1,1224,1366,0,0
7,-342,0,0,0,0,0,0,0,0,0,-1,1231,1366,0,0
14,-342,0,0,0,0,0,0,0,0,0,-1,1238,1366,0,0
21,-342,0,0,0,0,0,0,0,0,0,-1,1245,1366,0,0
28,-342,0,0,0,0,0,0,0,0,0,-1,1252,1366,0,0
35,-342,0,0,0,0,0,0,0,0,0,-1,1259,1366,0,0
42,-342,0,0,0,0,0,0,0,0,0,-1,1266,1366,0,0
49,-342,0,0,0,0,0,0,0,0,0,-1,1273,1366,0,0
56,-342,0,0,0,0,0,0,0,0,0,-1,1280,1366,0,0
63,-342,0,0,0,0,0,0,0,0,0,-1,1287,1366,0,0
70,-342,0,0,0,0,0,0,0,0,0,-1,1294,1366,0,0
77,-342,0,0,0,0,0,0,0,0,0,-1,1301,1366,0,0
84,-342,0,0,0,0,0,0,0,0,0,-1,1308,1366,0,0
91,-342,0,0,0,0,0,0,0,0,0,-1,1315,1366,0,0
98,-342,0,0,0,0,0,0,0,0,0,-1,1322,1366,0,0
105,-342,0,0,0,0,0,0,0,0,0,-1,1329,1366,0,0
112,-342,0,0,0,0,0,0,0,0,0,-1,1336,1366,0,0
119,-342,0,0,0,0,0,0,0,0,0,-1,1343,1366,0,0
126,-342,0,0,0,0,0,0,0,0,0,-1,1350,1366,0,0
133,-342,0,0,0,0,0,0,0,0,0,-1,1357,1366,0,0
140,-342,0,0,0,0,0,0,0,0,0,-1,1364,1366,0,0
147,-342,0,0,0,0,0,0,0,0,0,-1,1371,1366,0,0
154,-342,0,0,0,0,0,0,0,0,0,-1,1378,1366,0,0
161,-342,0,0,0,0,0,0,0,0,0,-1,1385,1366,0,0
168,-342,0,0,0,0,0,0,0,0,0,-1,1392,1366,0,0
175,-342,0,0,0,0,0,0,0,0,0,-1,1399,1366,0,0
182,-342,0,0,0,0,0,0,0,0,0,-1,1406,1366,0,0
189,-342,0,0,0,0,0,0,0,0,0,-1,1413,1366,0,0
196,-342,0,0,0,0,0,0,0,0,0,-1,1420,1366,0,0
203,-342,0,0,0,0,0,0,0,0,0,-1,1427,1366,0,0
210,-342,0,0,0,0,0,0,0,0,0,-1,1434,1366,0,0
217,-342,0,0,0,0,0,0,0,0,0,-1,1441,1366,0,0
224,-342,0,0,0,0,0,0,0,0,0,-1,1448,1366,0,0
231,-342,0,0,0,0,0,0,0,0,0,-1,1455,1366,0,0
238,-342,0,0,0,0,0,0,0,0,0,-1,1462,1366,0,0
245,-342,0,0,0,0,0,0,0,0,0,-1,1469,1366,0,0
252,-342,0,0,0,0,0,0,0,0,0,-1,1476,1366,0,0
259,-342,0,0,0,0,0,0,0,0,0,-1,1483,1366,0,0
266,-342,0,0,0,0,0,0,0,0,0,-1,1490,1366,0,0
273,-342,0,0,0,0,0,0,0,0,0,-1,1497,1366,0,0
280,-342,0,0,0,0,0,0,0,0,0,-1,1504,1366,0,0
287,-342,0,0,0,0,0,0,0,0,0,-1,1511,1366,0,0
294,-342,0,0,0,0,0,0,0,0,0,-1,1518,1366,0,0
301,-342,0,0,0,0,0,0,0,0,0,-1,1525,1366,0,0
308,-342,0,0,0,0,0,0,0,0,0,-1,1532,1366,0,0
315,-342,0,0,0,0,0,0,0,0,0,-1,1539,1366,0,0
322,-342,0,0,0,0,0,0,0,0,0,-1,1546,1366,0,0
329,-342,0,0,0,0,0,0,0,0,0,-1,1553,1366,0,0
336,-342,0,0,0,0,0,0,0,0,0,-1,1560,1366,0,0
343,-342,0,0,0,0,0,0,0,0,0,-1,1567,1366,0,0
350,-342,0,0,0,0,0,0,0,0,0,-1,1574,1366,0,0
357,-342,0,0,0,0,0,0,0,0,0,-1,1581,1366,0,0
364,-342,0,0,0,0,0,0,0,0,0,-1,1588,1366,0,0
371,-342,0,0,0,0,0,0,0,0,0,-1,1595,1366,0,0
378,-342,0,0,0,0,0,0,0,0,0,-1,1602,1366,0,0
385,-342,0,0,0,0,0,0,0,0,0,-1,1609,1366,0,0
392,-342,0,0,0,0,0,0,0,0,0,-1,1616,1366,0,0
399,-342,0,0,0,0,0,0,0,0,0,-1,1623,1366,0,0
406,-342,0,0,0,0,0,0,0,0,0,-1,1630,1366,0,0
413,-342,0,0,0,0,0,0,0,0,0,-1,1637,1366,0,0
420,-342,0,0,0,0,0,0,0,0,0,-1,1644,1366,0,0
427,-342,0,0,0,0,0,0,0,0,0,-1,1651,1366,0,0
434,-342,0,0,0,0,0,0,0,0,0,-1,1658,1366,0,0
441,-342,0,0,0,0,0,0,0,0,0,-1,1665,1366,0,0
448,-342,0,0,0,0,0,0,0,0,0,-1,1672,1366,0,0
455,-342,0,0,0,0,0,0,0,0,0,-1,1679,1366,0,0
462,-342,0,0,0,0,0,0,0,0,0,-1,1686,1366,0,0
469,-342,0,0,0,0,0,0,0,0,0,-1,1693,1366,0,0
476,-342,0,0,0,0,0,0,0,0,0,-1,1700,1366,0,0
483,-342,0,0,0,0,0,0,0,0,0,-1,1707,1366,0,0
490,-342,0,0,0,0,0,0,0,0,0,-1,1714,1366,0,0
497,-342,0,0,0,0,0,0,0,0,0,-1,1721,1366,0,0
504,-342,0,0,0,0,0,0,0,0,0,-1,1728,1366,0,0
511,-342,0,0,0,0,0,0,0,0,0,-1,1735,1366,0,0
518,-342,0,0,0,0,0,0,0,0,0,-1,1742,1366,0,0
525,-342,0,0,0,0,0,0,0,0,0,-1,1749,1366,0,0
532,-342,0,0,0,0,0,0,0,0,0,-1,1756,1366,0,0
539,-342,0,0,0,0,0,0,0,0,0,-1,1763,1366,0,0
546,-342,0,0,0,0,0,0,0,0,0,-1,1770,1366,0,0
553,-342,0,0,0,0,0,0,0,0,0,-1,1777,1366,0,0
560,-342,0,0,0,0,0,0,0,0,0,-1,1784,1366,0,0
567,-342,1.15686,-3.77222,0,0,0,0,0,0,0,-1,1791,1366,1.15685,3.77219
574,-342,0.970215,-3.53333,0.0314765,0.0384711,0.0367036,0.0718437,-0.00189602,0.832897,0.0485401,0.0481883,1798,1366,0.970156,3.53331
581,-342,1.18628,-3.12036,0.0230848,0.0303376,0.0370692,0.0639574,-0.0105349,0.834157,0.046549,0.0468647,1805,1366,1.18631,3.12033
588,-342,1.51196,-2.54248,0.0158364,0.0227805,0.0360648,0.05554,-0.0169232,0.833387,0.0437721,0.0474443,1812,1366,1.51199,2.54248
595,-342,1.20032,-1.83972,0.00980561,0.0161904,0.0338993,0.0470473,-0.0210512,0.832346,0.0402603,0.0474416,1819,1366,1.20036,1.83972
602,-342,1.02356,-1.25049,0.00515087,0.011074,0.0308766,0.0391308,-0.0229059,0.83321,0.0362229,0.0481645,1826,1366,1.02355,1.25048
609,-342,1.27271,-0.690796,0.00154776,0.00662371,0.0272221,0.0314259,-0.0232544,0.83188,0.031687,0.0462248,1833,1366,1.27267,0.690809
616,-342,1.49792,-0.146606,-0.000971627,0.00325176,0.0231747,0.0244108,-0.0221306,0.830833,0.0268814,0.0459935,1840,1366,1.49798,0.146565
623,-342,0.554199,0.481567,-0.00227183,0.000906555,0.0192247,0.0186077,-0.0199729,0.826636,0.0222792,0.0465995,1847,1366,0.554212,-0.481517
630,-342,0.147217,0.282227,-0.00398562,-0.0016015,0.0158039,0.0130553,-0.0186424,0.823041,0.0183952,0.0477591,1854,1366,0.147277,-0.282234
637,-342,0.0419922,0.116821,-0.00513559,-0.00253432,0.011956,0.00819162,-0.0158615,0.839577,0.0141205,0.0460833,1861,1366,0.0420212,-0.116845
644,-342,0.0159912,-0.00256348,-0.00482222,-0.00251071,0.00817791,0.00459272,-0.0119256,0.855596,0.00984513,0.0225842,1868,1366,0.0160468,0.00255495
651,-342,-0.0012207,-0.0703125,-0.00399668,-0.00167439,0.00545263,0.00273936,-0.00841043,0.890307,0.00670915,0.0139177,1875,1366,-0.00125177,0.0703694
658,-342,-0.0134277,-0.060791,-0.00264379,-0.00130515,0.00331317,0.00140564,-0.00535457,0.885066,0.004119,0.0172873,1882,1366,-0.0133942,0.0608124
665,-342,-0.0316162,-0.0733643,-0.00197787,-0.00120062,0.00188515,0.000335552,-0.00351404,0.88705,0.00246218,0.0155155,1889,1366,-0.0316638,0.0733368
672,-342,-0.0234375,-0.0693359,-0.0020215,-0.000307206,0.000350419,-0.000238343,-0.00209036,1.37675,0.00132131,0.0121773,1896,1366,-0.0233815,0.0693247
679,-342,-0.0220947,-0.0706787,-0.00198144,0.000637036,-0.000101978,0.000641002,-0.0019854,-1.53193,0.00158119,0.0118266,1903,1366,-0.0220579,0.0707368
686,-342,-0.0284424,-0.0582275,-0.00209555,0.000826586,4.7622e-05,0.000827362,-0.00209632,1.55451,0.00174018,0.0100414,1910,1366,-0.0284775,0.0582797
693,-342,-0.017334,-0.0732422,-0.00201991,0.000565149,0.000905483,0.000850762,-0.00230552,1.26525,0.0018857,0.0114007,1917,1366,-0.0173255,0.073294
700,-342,-0.0255127,-0.0808105,-0.00181089,8.17333e-05,0.00181156,0.00117926,-0.00290841,1.02609,0.00242938,0.0130095,1924,1366,-0.0255533,0.0808275
707,-342,-0.0231934,-0.0809326,-0.00224445,-0.000171975,0.0030731,0.00203489,-0.00445132,0.94801,0.00383046,0.0116397,1931,1366,-0.023231,0.0809625
714,-342,-0.0253906,-0.0845947,-0.00289242,-0.000799844,0.00464813,0.0029183,-0.00661057,0.896102,0.00563748,0.0171406,1938,1366,-0.0254435,0.0846091
721,-342,-0.0418701,-0.192627,-0.0035912,-0.00167362,0.00665594,0.00409224,-0.00935705,0.856931,0.0079608,0.0306654,1945,1366,-0.0418968,0.19259
728,-342,-0.14856,-0.427734,-0.00425617,-0.00289161,0.00924582,0.00569707,-0.0128449,0.822228,0.0109671,0.0418526,1952,1366,-0.148579,0.427786
735,-342,-0.0985107,-0.276611,-0.00495852,-0.00445409,0.0123723,0.00766852,-0.0170811,0.795589,0.0146296,0.0424245,1959,1366,-0.0985206,0.276655
742,-342,0.522583,-0.157104,-0.00576998,-0.00635143,0.0159961,0.00993805,-0.0220595,0.776312,0.0189105,0.0453297,1966,1366,0.522561,0.157059
749,-342,0.478271,-0.213135,-0.00680354,-0.00851385,0.0200181,0.0123777,-0.0276951,0.764052,0.0236927,0.04617,1973,1366,0.478276,0.213121
756,-342,0,0,0,0,0,0,0,0,0,-1,1980,1366,0,0
763,-342,0,0,0,0,0,0,0,0,0,-1,1987,1366,0,0
770,-342,0,0,0,0,0,0,0,0,0,-1,1994,1366,0,0
777,-342,0,0,0,0,0,0,0,0,0,-1,2001,1366,0,0
784,-342,0,0,0,0,0,0,0,0,0,-1,2008,1366,0,0
791,-342,0,0,0,0,0,0,0,0,0,-1,2015,1366,0,0
798,-342,0,0,0,0,0,0,0,0,0,-1,2022,1366,0,0
805,-342,0,0,0,0,0,0,0,0,0,-1,2029,1366,0,0
812,-342,0,0,0,0,0,0,0,0,0,-1,2036,1366,0,0
-700,-349,0,0,0,0,0,0,0,0,0,-1,524,1373,0,0
-693,-349,0,0,0,0,0,0,0,0,0,-1,531,1373,0,0
-686,-349,0,0,0,0,0,0,0,0,0,-1,538,1373,0,0
-679,-349,0,0,0,0,0,0,0,0,0,-1,545,1373,0,0
-672,-349,0,0,0,0,0,0,0,0,0,-1,552,1373,0,0
-665,-349,0,0,0,0,0,0,0,0,0,-1,559,1373,0,0
-658,-349,0,0,0,0,0,0,0,0,0,-1,566,1373,0,0
-651,-349,0,0,0,0,0,0,0,0,0,-1,573,1373,0,0
-644,-349,0,0,0,0,0,0,0,0,0,-1,580,1373,0,0
-637,-349,0,0,0,0,0,0,0,0,0,-1,587,1373,0,0
-630,-349,0.883911,2.61401,-0.00514769,0.0805971,0.00948066,0.0816328,-0.00618344,1.46198,0.0565957,0.0467894,594,1373,0.88394,-2.614
-623,-349,0.444458,2.11157,-0.00369597,0.0691181,0.00436804,0.0693792,-0.00395707,1.51109,0.0476266,0.0466156,601,1373,0.444462,-2.1116
-616,-349,0.470581,1.80188,-0.00297414,0.0575285,0.000889157,0.0575416,-0.0029872,1.5561,0.0393946,0.0490421,608,1373,0.470584,-1.80189
-609,-349,0.53125,1.29968,-0.00257151,0.0464827,-0.00139288,0.0465222,-0.00261103,-1.54243,0.0319207,0.0449339,615,1373,0.53125,-1.29974
-602,-349,0.135254,0.137573,-0.00241375,0.0364111,-0.00275512,0.0366056,-0.00260829,-1.5003,0.025318,0.0472953,622,1373,0.135241,-0.137525
-595,-349,0.227966,-0.0427246,-0.00237522,0.0276502,-0.00333482,0.0280161,-0.00274115,-1.4615,0.0196549,0.0463476,629,1373,0.22795,0.0426925
-588,-349,0.032959,-0.115967,-0.00233599,0.0203339,-0.00359614,0.0208906,-0.00289277,-1.41719,0.0149847,0.0409757,636,1373,0.0329772,0.115994
-581,-349,-0.00128174,-0.0914307,-0.00231091,0.0145057,-0.00328027,0.0151229,-0.00292811,-1.38481,0.0111864,0.027763,643,1373,-0.0012806,0.0914543
-574,-349,-0.0175171,-0.0618896,-0.00205343,0.00911328,-0.00286235,0.00980423,-0.00274438,-1.33394,0.00761755,0.0135907,650,1373,-0.0174909,0.0618669
-567,-349,-0.0313721,-0.0490723,-0.00188662,0.00524167,-0.00228104,0.00590911,-0.00255406,-1.28614,0.00501256,0.0149033,657,1373,-0.0313817,0.0490799
-560,-349,-0.0418091,-0.0848389,-0.00164645,0.00280965,-0.00173291,0.00340422,-0.00224102,-1.24028,0.00328226,0.0184122,664,1373,-0.0418118,0.08484
-553,-349,-0.0496826,-0.140869,-0.00113184,0.00114509,-0.00111844,0.00160257,-0.00158931,-1.18253,0.00184284,0.0249693,671,1373,-0.0496787,0.140863
-546,-349,-0.0734253,-0.0804443,-0.000949295,0.000271209,-0.000430687,0.000407883,-0.00108597,-1.26351,0.000891602,0.028926,678,1373,-0.0734215,0.0804013
-539,-349,-0.0618896,-0.0493164,-0.000719936,0.00068372,0.000591844,0.000899956,-0.000936172,1.2205,0.00106016,0.0232156,685,1373,-0.0619037,0.0492716
-532,-349,-0.0325317,-0.069458,-0.000539641,0.00100931,0.00144956,0.00187832,-0.00140865,1.03075,0.00190418,0.0166965,692,1373,-0.0325448,0.0695022
-525,-349,-0.0261841,-0.0874023,-0.000416554,0.00107123,0.00235967,0.00280148,-0.00214681,0.938093,0.00286522,0.0118565,699,1373,-0.026167,0.0873954
-518,-349,-0.0236816,-0.0751953,-0.000538084,0.00124982,0.00327765,0.00375324,-0.00304151,0.918531,0.00393011,0.0100335,706,1373,-0.0236817,0.0751787
-511,-349,-0.0149536,-0.0628662,-0.00115463,0.0017277,0.00434911,0.00486821,-0.00429514,0.94539,0.00529391,0.0175054,713,1373,-0.0149347,0.062806
-504,-349,-0.0714111,-0.0289307,-0.00156339,0.00178862,0.00515914,0.00553716,-0.00531194,0.942451,0.00626418,0.0341396,720,1373,-0.0713935,0.0289753
-497,-349,-0.525757,0.183472,-0.00187729,0.0017519,0.00572426,0.00594229,-0.00606769,0.938888,0.00693409,0.0399813,727,1373,-0.525768,-0.183444
-490,-349,-0.985352,0.608276,-0.00221523,0.00177562,0.00615892,0.00625431,-0.00669391,0.942057,0.00747709,0.0419935,734,1373,-0.985346,-0.608284
-483,-349,-0.412903,0.37915,-0.00236997,0.00139678,0.00586832,0.00567654,-0.00664974,0.940676,0.00712397,0.0459723,741,1373,-0.41288,-0.37915
-476,-349,-0.112488,0.0749512,-0.00191073,0.000252271,0.00530463,0.00458453,-0.00624299,0.885959,0.00627567,0.0457476,748,1373,-0.112489,-0.0749438
-469,-349,0.0153809,-0.173462,-0.00102222,-0.000785194,0.0039763,0.00307436,-0.00488178,0.800296,0.00463282,0.044328,755,1373,0.0153952,0.173496
-462,-349,0.020874,-0.526001,0.000439701,-0.00257445,0.00163922,0.00115935,-0.00329411,0.413686,0.00266786,0.0449424,762,1373,0.0209023,0.526011
-455,-349,-0.0882568,-0.942627,0,0,0,0,0,0,0,-1,769,1373,-0.0882552,0.942623
-448,-349,-1.18878,-1.34375,0,0,0,0,0,0,0,-1,776,1373,-1.18877,1.34375
-441,-349,0,0,0,0,0,0,0,0,0,-1,783,1373,0,0
-434,-349,0,0,0,0,0,0,0,0,0,-1,790,1373,0,0
-427,-349,0,0,0,0,0,0,0,0,0,-1,797,1373,0,0
-420,-349,0,0,0,0,0,0,0,0,0,-1,804,1373,0,0
-413,-349,0,0,0,0,0,0,0,0,0,-1,811,1373,0,0
-406,-349,0,0,0,0,0,0,0,0,0,-1,818,1373,0,0
-399,-349,0,0,0,0,0,0,0,0,0,-1,825,1373,0,0
-392,-349,0,0,0,0,0,0,0,0,0,-1,832,1373,0,0
-385,-349,0,0,0,0,0,0,0,0,0,-1,839,1373,0,0
-378,-349,0,0,0,0,0,0,0,0,0,-1,846,1373,0,0
-371,-349,0,0,0,0,0,0,0,0,0,-1,853,1373,0,0
-364,-349,0,0,0,0,0,0,0,0,0,-1,860,1373,0,0
-357,-349,0,0,0,0,0,0,0,0,0,-1,867,1373,0,0
-350,-349,0,0,0,0,0,0,0,0,0,-1,874,1373,0,0
-343,-349,0,0,0,0,0,0,0,0,0,-1,881,1373,0,0
-336,-349,0,0,0,0,0,0,0,0,0,-1,888,1373,0,0
-329,-349,0,0,0,0,0,0,0,0,0,-1,895,1373,0,0
-322,-349,0,0,0,0,0,0,0,0,0,-1,902,1373,0,0
-315,-349,0,0,0,0,0,0,0,0,0,-1,909,1373,0,0
-308,-349,0,0,0,0,0,0,0,0,0,-1,916,1373,0,0
-301,-349,0,0,0,0,0,0,0,0,0,-1,923,1373,0,0
-294,-349,0,0,0,0,0,0,0,0,0,-1,930,1373,0,0
-287,-349,0,0,0,0,0,0,0,0,0,-1,937,1373,0,0
-280,-349,0,0,0,0,0,0,0,0,0,-1,944,1373,0,0
-273,-349,0,0,0,0,0,0,0,0,0,-1,951,1373,0,0
-266,-349,0,0,0,0,0,0,0,0,0,-1,958,1373,0,0
-259,-349,0,0,0,0,0,0,0,0,0,-1,965,1373,0,0
-252,-349,0,0,0,0,0,0,0,0,0,-1,972,1373,0,0
-245,-349,0,0,0,0,0,0,0,0,0,-1,979,1373,0,0
-238,-349,0,0,0,0,0,0,0,0,0,-1,986,1373,0,0
-231,-349,0,0,0,0,0,0,0,0,0,-1,993,1373,0,0
-224,-349,0,0,0,0,0,0,0,0,0,-1,1000,1373,0,0
-217,-349,0,0,0,0,0,0,0,0,0,-1,1007,1373,0,0
-210,-349,0,0,0,0,0,0,0,0,0,-1,1014,1373,0,0
-203,-349,0,0,0,0,0,0,0,0,0,-1,1021,1373,0,0
-196,-349,0,0,0,0,0,0,0,0,0,-1,1028,1373,0,0
-189,-349,0,0,0,0,0,0,0,0,0,-1,1035,1373,0,0
-182,-349,0,0,0,0,0,0,0,0,0,-1,1042,1373,0,0
-175,-349,0,0,0,0,0,0,0,0,0,-1,1049,1373,0,0
-168,-349,0,0,0,0,0,0,0,0,0,-1,1056,1373,0,0
-161,-349,0,0,0,0,0,0,0,0,0,-1,1063,1373,0,0
-154,-349,0,0,0,0,0,0,0,0,0,-1,1070,1373,0,0
-147,-349,0,0,0,0,0,0,0,0,0,-1,1077,1373,0,0
-140,-349,0,0,0,0,0,0,0,0,0,-1,1084,1373,0,0
-133,-349,0,0,0,0,0,0,0,0,0,-1,1091,1373,0,0
-126,-349,0,0,0,0,0,0,0,0,0,-1,1098,1373,0,0
-119,-349,0,0,0,0,0,0,0,0,0,-1,1105,1373,0,0
-112,-349,0,0,0,0,0,0,0,0,0,-1,1112,1373,0,0
-105,-349,0,0,0,0,0,0,0,0,0,-1,1119,1373,0,0
-98,-349,0,0,0,0,0,0,0,0,0,-1,1126,1373,0,0
-91,-349,0,0,0,0,0,0,0,0,0,-1,1133,1373,0,0
-84,-349,0,0,0,0,0,0,0,0,0,-1,1140,1373,0,0
-77,-349,0,0,0,0,0,0,0,0,0,-1,1147,1373,0,0
-70,-349,0,0,0,0,0,0,0,0,0,-1,1154,1373,0,0
-63,-349,0,0,0,0,0,0,0,0,0,-1,1161,1373,0,0
-56,-349,0,0,0,0,0,0,0,0,0,-1,1168,1373,0,0
-49,-349,0,0,0,0,0,0,0,0,0,-1,1175,1373,0,0
-42,-349,0,0,0,0,0,0,0,0,0,-1,1182,1373,0,0
-35,-349,0,0,0,0,0,0,0,0,0,-1,1189,1373,0,0
-28,-349,0,0,0,0,0,0,0,0,0,-1,1196,1373,0,0
-21,-349,0,0,0,0,0,0,0,0,0,-1,1203,1373,0,0
-14,-349,0,0,0,0,0,0,0,0,0,-1,1210,1373,0,0
-7,-349,0,0,0,0,0,0,0,0,0,-1,1217,1373,0,0
0,-349,0,0,0,0,0,0,0,0,0,-1,1224,1373,0,0
7,-349,0,0,0,0,0,0,0,0,0,-1,1231,1373,0,0
14,-349,0,0,0,0,0,0,0,0,0,-1,1238,1373,0,0
21,-349,0,0,0,0,0,0,0,0,0,-1,1245,1373,0,0
28,-349,0,0,0,0,0,0,0,0,0,-1,1252,1373,0,0
35,-349,0,0,0,0,0,0,0,0,0,-1,1259,1373,0,0
42,-349,0,0,0,0,0,0,0,0,0,-1,1266,1373,0,0
49,-349,0,0,0,0,0,0,0,0,0,-1,1273,1373,0,0
56,-349,0,0,0,0,0,0,0,0,0,-1,1280,1373,0,0
63,-349,0,0,0,0,0,0,0,0,0,-1,1287,1373,0,0
70,-349,0,0,0,0,0,0,0,0,0,-1,1294,1373,0,0
77,-349,0,0,0,0,0,0,0,0,0,-1,1301,1373,0,0
84,-349,0,0,0,0,0,0,0,0,0,-1,1308,1373,0,0
91,-349,0,0,0,0,0,0,0,0,0,-1,1315,1373,0,0
98,-349,0,0,0,0,0,0,0,0,0,-1,1322,1373,0,0
105,-349,0,0,0,0,0,0,0,0,0,-1,1329,1373,0,0
112,-349,0,0,0,0,0,0,0,0,0,-1,1336,1373,0,0
119,-349,0,0,0,0,0,0,0,0,0,-1,1343,1373,0,0
126,-349,0,0,0,0,0,0,0,0,0,-1,1350,1373,0,0
133,-349,0,0,0,0,0,0,0,0,0,-1,1357,1373,0,0
140,-349,0,0,0,0,0,0,0,0,0,-1,1364,1373,0,0
147,-349,0,0,0,0,0,0,0,0,0,-1,1371,1373,0,0
154,-349,0,0,0,0,0,0,0,0,0,-1,1378,1373,0,0
161,-349,0,0,0,0,0,0,0,0,0,-1,1385,1373,0,0
168,-349,0,0,0,0,0,0,0,0,0,-1,1392,1373,0,0
175,-349,0,0,0,0,0,0,0,0,0,-1,1399,1373,0,0
182,-349,0,0,0,0,0,0,0,0,0,-1,1406,1373,0,0
189,-349,0,0,0,0,0,0,0,0,0,-1,1413,1373,0,0
196,-349,0,0,0,0,0,0,0,0,0,-1,1420,1373,0,0
203,-349,0,0,0,0,0,0,0,0,0,-1,1427,1373,0,0
210,-349,0,0,0,0,0,0,0,0,0,-1,1434,1373,0,0
217,-349,0,0,0,0,0,0,0,0,0,-1,1441,1373,0,0
224,-349,0,0,0,0,0,0,0,0,0,-1,1448,1373,0,0
231,-349,0,0,0,0,0,0,0,0,0,-1,1455,1373,0,0
238,-349,0,0,0,0,0,0,0,0,0,-1,1462,1373,0,0
245,-349,0,0,0,0,0,0,0,0,0,-1,1469,1373,0,0
252,-349,0,0,0,0,0,0,0,0,0,-1,1476,1373,0,0
259,-349,0,0,0,0,0,0,0,0,0,-1,1483,1373,0,0
266,-349,0,0,0,0,0,0,0,0,0,-1,1490,1373,0,0
273,-349,0,0,0,0,0,0,0,0,0,-1,1497,1373,0,0
280,-349,0,0,0,0,0,0,0,0,0,-1,1504,1373,0,0
287,-349,0,0,0,0,0,0,0,0,0,-1,1511,1373,0,0
294,-349,0,0,0,0,0,0,0,0,0,-1,1518,1373,0,0
301,-349,0,0,0,0,0,0,0,0,0,-1,1525,1373,0,0
308,-349,0,0,0,0,0,0,0,0,0,-1,1532,1373,0,0
315,-349,0,0,0,0,0,0,0,0,0,-1,1539,1373,0,0
322,-349,0,0,0,0,0,0,0,0,0,-1,1546,1373,0,0
329,-349,0,0,0,0,0,0,0,0,0,-1,1553,1373,0,0
336,-349,0,0,0,0,0,0,0,0,0,-1,1560,1373,0,0
343,-349,0,0,0,0,0,0,0,0,0,-1,1567,1373,0,0
350,-349,0,0,0,0,0,0,0,0,0,-1,1574,1373,0,0
357,-349,0,0,0,0,0,0,0,0,0,-1,1581,1373,0,0
364,-349,0,0,0,0,0,0,0,0,0,-1,1588,1373,0,0
371,-349,0,0,0,0,0,0,0,0,0,-1,1595,1373,0,0
378,-349,0,0,0,0,0,0,0,0,0,-1,1602,1373,0,0
385,-349,0,0,0,0,0,0,0,0,0,-1,1609,1373,0,0
392,-349,0,0,0,0,0,0,0,0,0,-1,1616,1373,0,0
399,-349,0,0,0,0,0,0,0,0,0,-1,1623,1373,0,0
406,-349,0,0,0,0,0,0,0,0,0,-1,1630,1373,0,0
413,-349,0,0,0,0,0,0,0,0,0,-1,1637,1373,0,0
420,-349,0,0,0,0,0,0,0,0,0,-1,1644,1373,0,0
427,-349,0,0,0,0,0,0,0,0,0,-1,1651,1373,0,0
434,-349,0,0,0,0,0,0,0,0,0,-1,1658,1373,0,0
441,-349,0,0,0,0,0,0,0,0,0,-1,1665,1373,0,0
448,-349,0,0,0,0,0,0,0,0,0,-1,1672,1373,0,0
455,-349,0,0,0,0,0,0,0,0,0,-1,1679,1373,0,0
462,-349,0,0,0,0,0,0,0,0,0,-1,1686,1373,0,0
469,-349,0,0,0,0,0,0,0,0,0,-1,1693,1373,0,0
476,-349,0,0,0,0,0,0,0,0,0,-1,1700,1373,0,0
483,-349,0,0,0,0,0,0,0,0,0,-1,1707,1373,0,0
490,-349,0,0,0,0,0,0,0,0,0,-1,1714,1373,0,0
497,-349,0,0,0,0,0,0,0,0,0,-1,1721,1373,0,0
504,-349,0,0,0,0,0,0,0,0,0,-1,1728,1373,0,0
511,-349,0,0,0,0,0,0,0,0,0,-1,1735,1373,0,0
518,-349,0,0,0,0,0,0,0,0,0,-1,1742,1373,0,0
525,-349,0,0,0,0,0,0,0,0,0,-1,1749,1373,0,0
532,-349,0,0,0,0,0,0,0,0,0,-1,1756,1373,0,0
539,-349,0,0,0,0,0,0,0,0,0,-1,1763,1373,0,0
546,-349,0,0,0,0,0,0,0,0,0,-1,1770,1373,0,0
553,-349,0,0,0,0,0,0,0,0,0,-1,1777,1373,0,0
560,-349,-0.876709,-0.90979,0,0,0,0,0,0,0,-1,1784,1373,-0.876763,0.909836
567,-349,1.41711,-4.34998,0,0,0,0,0,0,0,-1,1791,1373,1.41714,4.35002
574,-349,0.377441,-3.95691,0.0225157,0.0309077,0.0314027,0.0583935,-0.00497012,0.851814,0.040687,0.0494852,1798,1373,0.377458,3.95686
581,-349,0.667969,-3.50195,0.0168957,0.024279,0.0323907,0.0531877,-0.0120131,0.84214,0.0400677,0.0455441,1805,1373,0.667998,3.50195
588,-349,0.447632,-2.90051,0,0,0,0,0,0,0,-1,1812,1373,0.447619,2.90057
595,-349,0.329346,-1.74561,0.00717233,0.0124313,0.0304041,0.0403194,-0.0207157,0.828533,0.0358394,0.0483771,1819,1373,0.329349,1.74555
602,-349,0.518677,-1.32654,0.00358386,0.00831529,0.0279393,0.0339888,-0.0220897,0.827634,0.032619,0.0462497,1826,1373,0.518665,1.32659
609,-349,0.687622,-0.92041,0.000701941,0.00461626,0.0247801,0.0275164,-0.0221982,0.824807,0.0287574,0.0420974,1833,1373,0.687608,0.920405
616,-349,0.83313,-0.50769,-0.00130167,0.0019086,0.0212026,0.0215667,-0.0209598,0.823179,0.0245535,0.0411605,1840,1373,0.833084,0.507634
623,-349,0.571411,-0.156616,0,0,0,0,0,0,0,-1,1847,1373,0.571395,0.156601
630,-349,0.157349,-0.130249,-0.0035722,-0.00193849,0.0146403,0.0119077,-0.0174184,0.813267,0.0170308,0.0460037,1854,1373,0.157382,0.130308
637,-349,0.0482178,-0.00280762,-0.00453154,-0.0024631,0.0111482,0.00769876,-0.0146934,0.831651,0.0131367,0.0363817,1861,1373,0.0481813,0.00284103
644,-349,0.0179443,-0.020752,-0.00424947,-0.00223137,0.00768825,0.00451376,-0.0109946,0.850648,0.00921068,0.0193806,1868,1373,0.0179956,0.0207623
651,-349,-0.0032959,-0.081665,-0.00350815,-0.00131309,0.00508002,0.00278661,-0.00760785,0.891787,0.0062127,0.0181831,1875,1373,-0.0033447,0.0816791
658,-349,-0.0340576,-0.0880127,-0.00230642,-0.00083379,0.0031071,0.00162305,-0.00476326,0.901741,0.00383284,0.0237104,1882,1373,-0.0340256,0.087995
665,-349,-0.0372314,-0.0838623,-0.00172278,-0.000609286,0.00170114,0.000623898,-0.00295596,0.943543,0.00220818,0.019055,1889,1373,-0.0372246,0.083809
672,-349,-0.000366211,-0.0863037,-0.00177753,0.00029209,0.000238158,0.000319142,-0.00180459,1.45769,0.00132234,0.013927,1896,1373,-0.000312937,0.0862737
679,-349,-0.0146484,-0.0683594,-0.00187104,0.00136525,-0.000184886,0.00137578,-0.00188157,-1.51391,0.00188817,0.0125427,1903,1373,-0.0146387,0.0683557
686,-349,-0.0256348,-0.0516357,-0.0021557,0.00162249,4.66611e-05,0.00162306,-0.00215628,1.55845,0.00218923,0.0102905,1910,1373,-0.025683,0.0515813
693,-349,-0.017334,-0.0635986,-0.00231526,0.00142288,0.000947045,0.00164912,-0.0025415,1.3363,0.00243767,0.0130602,1917,1373,-0.0173236,0.0636531
700,-349,-0.024292,-0.0762939,-0.0024074,0.00117172,0.00186891,0.0019697,-0.00320538,1.16726,0.00301609,0.0162789,1924,1373,-0.0242718,0.0763365
707,-349,-0.0283203,-0.0863037,-0.0031785,0.00111869,0.00320728,0.00283055,-0.00489036,1.08052,0.00451024,0.0148326,1931,1373,-0.0282686,0.0862503
714,-349,-0.0167236,-0.0997314,-0.00416139,0.00074727,0.00497577,0.0038411,-0.00725522,1.01452,0.00650676,0.0157531,1938,1373,-0.0166954,0.0996984
721,-349,-0.0218506,-0.168945,-0.00521305,5.40913e-05,0.00730815,0.00518871,-0.0103477,0.958335,0.00913328,0.0315386,1945,1373,-0.0218741,0.168899
728,-349,-0.259521,-0.670532,-0.00623947,-0.00106288,0.0103311,0.00699921,-0.0143016,0.908139,0.0125366,0.0415867,1952,1373,-0.259507,0.670568
735,-349,-0.435425,-0.580444,-0.00724888,-0.00264229,0.0140565,0.00929842,-0.0191896,0.866606,0.0167748,0.0416096,1959,1373,-0.435377,0.580422
742,-349,-0.442749,-0.272339,-0.00823429,-0.00471491,0.0184708,0.0120798,-0.025029,0.832889,0.0218553,0.04492,1966,1373,-0.442712,0.272387
749,-349,0.461182,-0.0338135,-0.00922278,-0.00725828,0.0234935,0.0152735,-0.0317545,0.806291,0.0277019,0.0461057,1973,1373,0.461233,0.0337546
756,-349,0,0,0,0,0,0,0,0,0,-1,1980,1373,0,0
763,-349,0,0,0,0,0,0,0,0,0,-1,1987,1373,0,0
770,-349,0,0,0,0,0,0,0,0,0,-1,1994,1373,0,0
777,-349,0,0,0,0,0,0,0,0,0,-1,2001,1373,0,0
784,-349,0,0,0,0,0,0,0,0,0,-1,2008,1373,0,0
791,-349,0,0,0,0,0,0,0,0,0,-1,2015,1373,0,0
798,-349,0,0,0,0,0,0,0,0,0,-1,2022,1373,0,0
805,-349,0,0,0,0,0,0,0,0,0,-1,2029,1373,0,0
812,-349,0,0,0,0,0,0,0,0,0,-1,2036,1373,0,0
-700,-356,0,0,0,0,0,0,0,0,0,-1,524,1380,0,0
-693,-356,0,0,0,0,0,0,0,0,0,-1,531,1380,0,0
-686,-356,0,0,0,0,0,0,0,0,0,-1,538,1380,0,0
-679,-356,0,0,0,0,0,0,0,0,0,-1,545,1380,0,0
-672,-356,0,0,0,0,0,0,0,0,0,-1,552,1380,0,0
-665,-356,0,0,0,0,0,0,0,0,0,-1,559,1380,0,0
-658,-356,0,0,0,0,0,0,0,0,0,-1,566,1380,0,0
-651,-356,0,0,0,0,0,0,0,0,0,-1,573,1380,0,0
-644,-356,0,0,0,0,0,0,0,0,0,-1,580,1380,0,0
-637,-356,0,0,0,0,0,0,0,0,0,-1,587,1380,0,0
-630,-356,-0.181458,1.89014,-0.000705134,0.0813869,0.0138579,0.0836632,-0.00298137,1.40799,0.0567953,0.0450991,594,1380,-0.181482,-1.89011
-623,-356,-0.0480957,1.58643,0.000559577,0.0686142,0.0075066,0.0694324,-0.000258587,1.46223,0.0463747,0.0440963,601,1380,-0.0481215,-1.58639
-616,-356,0.0458374,1.27185,0.000751245,0.0559861,0.00317762,0.0561683,0.00056904,1.51352,0.0372573,0.0468851,608,1380,0.0458661,-1.27188
-609,-356,0.330383,0.192993,0,0,0,0,0,0,0,-1,615,1380,0.330357,-0.192974
-602,-356,0.290344,0.0942383,0.00010569,0.0339086,-0.00151135,0.033976,3.82513e-05,-1.5262,0.022638,0.0466241,622,1380,0.290327,-0.0942251
-595,-356,0.256775,-0.0164795,-0.000471715,0.0251671,-0.0024488,0.0253989,-0.000703508,-1.47642,0.0171719,0.0450193,629,1380,0.256763,0.0164847
-588,-356,0.235596,-0.156616,-0.000989065,0.0181077,-0.00292204,0.0185448,-0.00142617,-1.42231,0.012865,0.0432899,636,1380,0.235576,0.156577
-581,-356,0.0927124,-0.143188,-0.00141866,0.0126256,-0.00279489,0.0131614,-0.00195442,-1.3814,0.00949301,0.0329026,643,1380,0.0927271,0.143213
-574,-356,-0.00622559,-0.0828857,-0.00149979,0.00764284,-0.00254794,0.00830497,-0.00216192,-1.31655,0.00638056,0.0177185,650,1380,-0.00619518,0.0828673
-567,-356,-0.0251465,-0.0749512,-0.00158968,0.00413987,-0.00207057,0.00480981,-0.00225961,-1.25787,0.00416912,0.0146824,657,1380,-0.0251676,0.0749564
-560,-356,-0.0202637,-0.0716553,-0.00152843,0.00189077,-0.00160934,0.00252908,-0.00216674,-1.1932,0.00271383,0.0168707,664,1380,-0.0202576,0.071672
-553,-356,-0.0233765,-0.0843506,-0.00118504,0.000413117,-0.00105195,0.00093507,-0.00170699,-1.11021,0.00154695,0.019121,671,1380,-0.0233817,0.0843632
-546,-356,-0.0411987,-0.0838623,-0.00125437,-0.000336975,-0.000379996,-0.000200021,-0.00139132,-1.22488,0.000868585,0.0210563,678,1380,-0.0411749,0.0838726
-539,-356,-0.027771,-0.0578613,-0.00108493,6.96694e-05,0.000625554,0.000343599,-0.00135886,1.15805,0.00103955,0.0148008,685,1380,-0.0277754,0.0578495
-532,-356,-0.0458374,-0.0727539,-0.000835664,0.000260292,0.00149178,0.00130155,-0.00187692,0.961414,0.00184509,0.0139141,692,1380,-0.04582,0.0727671
-525,-356,-0.0460815,-0.0836182,-0.000646514,0.000215385,0.00229741,0.00212192,-0.00255305,0.878111,0.00270292,0.0117392,699,1380,-0.0460678,0.0836583
-518,-356,-0.0269775,-0.0731201,-0.000758315,0.000226415,0.00307864,0.00285181,-0.00338371,0.864691,0.00360444,0.0107616,706,1380,-0.0269701,0.0730982
-511,-356,-0.0177612,-0.0678711,-0.00133895,0.000521211,0.00396168,0.00366052,-0.00447826,0.900695,0.00470682,0.0135527,713,1380,-0.0177724,0.0678708
-504,-356,0.0108032,-0.0974121,-0.00166265,0.000424464,0.00450501,0.00400521,-0.00524339,0.899212,0.00535561,0.0237092,720,1380,0.0108141,0.0973621
-497,-356,-0.150574,-0.0452881,-0.00182437,0.000286605,0.00473986,0.00408708,-0.00562484,0.894952,0.00563056,0.0371911,727,1380,-0.150551,0.0452714
-490,-356,-0.326721,0.199341,-0.00191422,0.000237898,0.00479804,0.00407907,-0.00575538,0.895708,0.00570535,0.044082,734,1380,-0.326697,-0.199364
-483,-356,-0.629211,0.509766,-0.00171508,-0.00020318,0.00408187,0.00319215,-0.00511041,0.876959,0.00483595,0.0484516,741,1380,-0.62922,-0.509709
-476,-356,-0.354919,0.258301,-0.000776312,-0.00143748,0.00314185,0.0020523,-0.00426609,0.732982,0.00372181,0.0474473,748,1380,-0.354909,-0.258338
-469,-356,-0.200195,0.0390625,0.000666569,-0.00249004,0.00151025,0.00127273,-0.00309621,0.381684,0.00259461,0.0441336,755,1380,-0.20018,-0.0390831
-462,-356,-0.417236,-0.315918,0.00277573,-0.00427488,-0.00106312,0.00293254,-0.00443169,-0.146447,0.00428101,0.0411353,762,1380,-0.417214,0.315891
-455,-356,-0.675171,-0.607544,0.00580734,-0.0068229,-0.00436871,0.00717118,-0.00818673,-0.302596,0.00887335,0.0437035,769,1380,-0.675174,0.60759
-448,-356,-0.683167,-0.939087,0.00960534,-0.0103134,-0.00808818,0.0124759,-0.013184,-0.341043,0.0148166,0.0442093,776,1380,-0.68316,0.939123
-441,-356,-0.848267,-1.13892,0,0,0,0,0,0,0,-1,783,1380,-0.848288,1.13891
-434,-356,0,0,0,0,0,0,0,0,0,-1,790,1380,0,0
-427,-356,0,0,0,0,0,0,0,0,0,-1,797,1380,0,0
-420,-356,0,0,0,0,0,0,0,0,0,-1,804,1380,0,0
-413,-356,0,0,0,0,0,0,0,0,0,-1,811,1380,0,0
-406,-356,0,0,0,0,0,0,0,0,0,-1,818,1380,0,0
-399,-356,0,0,0,0,0,0,0,0,0,-1,825,1380,0,0
-392,-356,0,0,0,0,0,0,0,0,0,-1,832,1380,0,0
-385,-356,0,0,0,0,0,0,0,0,0,-1,839,1380,0,0
-378,-356,0,0,0,0,0,0,0,0,0,-1,846,1380,0,0
-371,-356,0,0,0,0,0,0,0,0,0,-1,853,1380,0,0
-364,-356,0,0,0,0,0,0,0,0,0,-1,860,1380,0,0
-357,-356,0,0,0,0,0,0,0,0,0,-1,867,1380,0,0
-350,-356,0,0,0,0,0,0,0,0,0,-1,874,1380,0,0
-343,-356,0,0,0,0,0,0,0,0,0,-1,881,1380,0,0
-336,-356,0,0,0,0,0,0,0,0,0,-1,888,1380,0,0
-329,-356,0,0,0,0,0,0,0,0,0,-1,895,1380,0,0
-322,-356,0,0,0,0,0,0,0,0,0,-1,902,1380,0,0
-315,-356,0,0,0,0,0,0,0,0,0,-1,909,1380,0,0
-308,-356,0,0,0,0,0,0,0,0,0,-1,916,1380,0,0
-301,-356,0,0,0,0,0,0,0,0,0,-1,923,1380,0,0
-294,-356,0,0,0,0,0,0,0,0,0,-1,930,1380,0,0
-287,-356,0,0,0,0,0,0,0,0,0,-1,937,1380,0,0
-280,-356,0,0,0,0,0,0,0,0,0,-1,944,1380,0,0
-273,-356,0,0,0,0,0,0,0,0,0,-1,951,1380,0,0
-266,-356,0,0,0,0,0,0,0,0,0,-1,958,1380,0,0
-259,-356,0,0,0,0,0,0,0,0,0,-1,965,1380,0,0
-252,-356,0,0,0,0,0,0,0,0,0,-1,972,1380,0,0
-245,-356,0,0,0,0,0,0,0,0,0,-1,979,1380,0,0
-238,-356,0,0,0,0,0,0,0,0,0,-1,986,1380,0,0
-231,-356,0,0,0,0,0,0,0,0,0,-1,993,1380,0,0
-224,-356,0,0,0,0,0,0,0,0,0,-1,1000,1380,0,0
-217,-356,0,0,0,0,0,0,0,0,0,-1,1007,1380,0,0
-210,-356,0,0,0,0,0,0,0,0,0,-1,1014,1380,0,0
-203,-356,0,0,0,0,0,0,0,0,0,-1,1021,1380,0,0
-196,-356,0,0,0,0,0,0,0,0,0,-1,1028,1380,0,0
-189,-356,0,0,0,0,0,0,0,0,0,-1,1035,1380,0,0
-182,-356,0,0,0,0,0,0,0,0,0,-1,1042,1380,0,0
-175,-356,0,0,0,0,0,0,0,0,0,-1,1049,1380,0,0
-168,-356,0,0,0,0,0,0,0,0,0,-1,1056,1380,0,0
-161,-356,0,0,0,0,0,0,0,0,0,-1,1063,1380,0,0
-154,-356,0,0,0,0,0,0,0,0,0,-1,1070,1380,0,0
-147,-356,0,0,0,0,0,0,0,0,0,-1,1077,1380,0,0
-140,-356,0,0,0,0,0,0,0,0,0,-1,1084,1380,0,0
-133,-356,0,0,0,0,0,0,0,0,0,-1,1091,1380,0,0
-126,-356,0,0,0,0,0,0,0,0,0,-1,1098,1380,0,0
-119,-356,0,0,0,0,0,0,0,0,0,-1,1105,1380,0,0
-112,-356,0,0,0,0,0,0,0,0,0,-1,1112,1380,0,0
-105,-356,0,0,0,0,0,0,0,0,0,-1,1119,1380,0,0
-98,-356,0,0,0,0,0,0,0,0,0,-1,1126,1380,0,0
-91,-356,0,0,0,0,0,0,0,0,0,-1,1133,1380,0,0
-84,-356,0,0,0,0,0,0,0,0,0,-1,1140,1380,0,0
-77,-356,0,0,0,0,0,0,0,0,0,-1,1147,1380,0,0
-70,-356,0,0,0,0,0,0,0,0,0,-1,1154,1380,0,0
-63,-356,0,0,0,0,0,0,0,0,0,-1,1161,1380,0,0
-56,-356,0,0,0,0,0,0,0,0,0,-1,1168,1380,0,0
-49,-356,0,0,0,0,0,0,0,0,0,-1,1175,1380,0,0
-42,-356,0,0,0,0,0,0,0,0,0,-1,1182,1380,0,0
-35,-356,0,0,0,0,0,0,0,0,0,-1,1189,1380,0,0
-28,-356,0,0,0,0,0,0,0,0,0,-1,1196,1380,0,0
-21,-356,0,0,0,0,0,0,0,0,0,-1,1203,1380,0,0
-14,-356,0,0,0,0,0,0,0,0,0,-1,1210,1380,0,0
-7,-356,0,0,0,0,0,0,0,0,0,-1,1217,1380,0,0
0,-356,0,0,0,0,0,0,0,0,0,-1,1224,1380,0,0
7,-356,0,0,0,0,0,0,0,0,0,-1,1231,1380,0,0
14,-356,0,0,0,0,0,0,0,0,0,-1,1238,1380,0,0
21,-356,0,0,0,0,0,0,0,0,0,-1,1245,1380,0,0
28,-356,0,0,0,0,0,0,0,0,0,-1,1252,1380,0,0
35,-356,0,0,0,0,0,0,0,0,0,-1,1259,1380,0,0
42,-356,0,0,0,0,0,0,0,0,0,-1,1266,1380,0,0
49,-356,0,0,0,0,0,0,0,0,0,-1,1273,1380,0,0
56,-356,0,0,0,0,0,0,0,0,0,-1,1280,1380,0,0
63,-356,0,0,0,0,0,0,0,0,0,-1,1287,1380,0,0
70,-356,0,0,0,0,0,0,0,0,0,-1,1294,1380,0,0
77,-356,0,0,0,0,0,0,0,0,0,-1,1301,1380,0,0
84,-356,0,0,0,0,0,0,0,0,0,-1,1308,1380,0,0
91,-356,0,0,0,0,0,0,0,0,0,-1,1315,1380,0,0
98,-356,0,0,0,0,0,0,0,0,0,-1,1322,1380,0,0
105,-356,0,0,0,0,0,0,0,0,0,-1,1329,1380,0,0
112,-356,0,0,0,0,0,0,0,0,0,-1,1336,1380,0,0
119,-356,0,0,0,0,0,0,0,0,0,-1,1343,1380,0,0
126,-356,0,0,0,0,0,0,0,0,0,-1,1350,1380,0,0
133,-356,0,0,0,0,0,0,0,0,0,-1,1357,1380,0,0
140,-356,0,0,0,0,0,0,0,0,0,-1,1364,1380,0,0
147,-356,0,0,0,0,0,0,0,0,0,-1,1371,1380,0,0
154,-356,0,0,0,0,0,0,0,0,0,-1,1378,1380,0,0
161,-356,0,0,0,0,0,0,0,0,0,-1,1385,1380,0,0
168,-356,0,0,0,0,0,0,0,0,0,-1,1392,1380,0,0
175,-356,0,0,0,0,0,0,0,0,0,-1,1399,1380,0,0
182,-356,0,0,0,0,0,0,0,0,0,-1,1406,1380,0,0
189,-356,0,0,0,0,0,0,0,0,0,-1,1413,1380,0,0
196,-356,0,0,0,0,0,0,0,0,0,-1,1420,1380,0,0
203,-356,0,0,0,0,0,0,0,0,0,-1,1427,1380,0,0
210,-356,0,0,0,0,0,0,0,0,0,-1,1434,1380,0,0
217,-356,0,0,0,0,0,0,0,0,0,-1,1441,1380,0,0
224,-356,0,0,0,0,0,0,0,0,0,-1,1448,1380,0,0
231,-356,0,0,0,0,0,0,0,0,0,-1,1455,1380,0,0
238,-356,0,0,0,0,0,0,0,0,0,-1,1462,1380,0,0
245,-356,0,0,0,0,0,0,0,0,0,-1,1469,1380,0,0
252,-356,0,0,0,0,0,0,0,0,0,-1,1476,1380,0,0
259,-356,0,0,0,0,0,0,0,0,0,-1,1483,1380,0,0
266,-356,0,0,0,0,0,0,0,0,0,-1,1490,1380,0,0
273,-356,0,0,0,0,0,0,0,0,0,-1,1497,1380,0,0
280,-356,0,0,0,0,0,0,0,0,0,-1,1504,1380,0,0
287,-356,0,0,0,0,0,0,0,0,0,-1,1511,1380,0,0
294,-356,0,0,0,0,0,0,0,0,0,-1,1518,1380,0,0
301,-356,0,0,0,0,0,0,0,0,0,-1,1525,1380,0,0
308,-356,0,0,0,0,0,0,0,0,0,-1,1532,1380,0,0
315,-356,0,0,0,0,0,0,0,0,0,-1,1539,1380,0,0
322,-356,0,0,0,0,0,0,0,0,0,-1,1546,1380,0,0
329,-356,0,0,0,0,0,0,0,0,0,-1,1553,1380,0,0
336,-356,0,0,0,0,0,0,0,0,0,-1,1560,1380,0,0
343,-356,0,0,0,0,0,0,0,0,0,-1,1567,1380,0,0
350,-356,0,0,0,0,0,0,0,0,0,-1,1574,1380,0,0
357,-356,0,0,0,0,0,0,0,0,0,-1,1581,1380,0,0
364,-356,0,0,0,0,0,0,0,0,0,-1,1588,1380,0,0
371,-356,0,0,0,0,0,0,0,0,0,-1,1595,1380,0,0
378,-356,0,0,0,0,0,0,0,0,0,-1,1602,1380,0,0
385,-356,0,0,0,0,0,0,0,0,0,-1,1609,1380,0,0
392,-356,0,0,0,0,0,0,0,0,0,-1,1616,1380,0,0
399,-356,0,0,0,0,0,0,0,0,0,-1,1623,1380,0,0
406,-356,0,0,0,0,0,0,0,0,0,-1,1630,1380,0,0
413,-356,0,0,0,0,0,0,0,0,0,-1,1637,1380,0,0
420,-356,0,0,0,0,0,0,0,0,0,-1,1644,1380,0,0
427,-356,0,0,0,0,0,0,0,0,0,-1,1651,1380,0,0
434,-356,0,0,0,0,0,0,0,0,0,-1,1658,1380,0,0
441,-356,0,0,0,0,0,0,0,0,0,-1,1665,1380,0,0
448,-356,0,0,0,0,0,0,0,0,0,-1,1672,1380,0,0
455,-356,0,0,0,0,0,0,0,0,0,-1,1679,1380,0,0
462,-356,0,0,0,0,0,0,0,0,0,-1,1686,1380,0,0
469,-356,0,0,0,0,0,0,0,0,0,-1,1693,1380,0,0
476,-356,0,0,0,0,0,0,0,0,0,-1,1700,1380,0,0
483,-356,0,0,0,0,0,0,0,0,0,-1,1707,1380,0,0
490,-356,0,0,0,0,0,0,0,0,0,-1,1714,1380,0,0
497,-356,0,0,0,0,0,0,0,0,0,-1,1721,1380,0,0
504,-356,0,0,0,0,0,0,0,0,0,-1,1728,1380,0,0
511,-356,0,0,0,0,0,0,0,0,0,-1,1735,1380,0,0
518,-356,0,0,0,0,0,0,0,0,0,-1,1742,1380,0,0
525,-356,0,0,0,0,0,0,0,0,0,-1,1749,1380,0,0
532,-356,0,0,0,0,0,0,0,0,0,-1,1756,1380,0,0
539,-356,0,0,0,0,0,0,0,0,0,-1,1763,1380,0,0
546,-356,0,0,0,0,0,0,0,0,0,-1,1770,1380,0,0
553,-356,0,0,0,0,0,0,0,0,0,-1,1777,1380,0,0
560,-356,0.187866,0.105713,0,0,0,0,0,0,0,-1,1784,1380,0.187888,-0.105743
567,-356,0.352051,0.366089,0,0,0,0,0,0,0,-1,1791,1380,0.35206,-0.366042
574,-356,-0.000366211,-4.10986,0,0,0,0,0,0,0,-1,1798,1380,-0.000414848,4.10985
581,-356,0.16333,-3.79443,0,0,0,0,0,0,0,-1,1805,1380,0.16327,3.79445
588,-356,0.827271,-0.584839,0,0,0,0,0,0,0,-1,1812,1380,0.827311,0.584836
595,-356,0.808228,-0.723877,0,0,0,0,0,0,0,-1,1819,1380,0.808219,0.723876
602,-356,0.0333252,-1.2467,0,0,0,0,0,0,0,-1,1826,1380,0.0332946,1.24666
609,-356,0.119263,-1.00366,-0.00081988,0.00238357,0.0209979,0.0218407,-0.020277,0.823465,0.0243223,0.0397067,1833,1380,0.119209,1.0037
616,-356,0.228638,-0.776611,-0.00221434,0.000375737,0.0181363,0.0172632,-0.0191018,0.821041,0.0210042,0.0365768,1840,1380,0.228658,0.776598
623,-356,0.21106,-0.328125,-0.00264361,-0.000855946,0.0152803,0.0135566,-0.0170562,0.814613,0.0177128,0.0388223,1847,1380,0.211066,0.328153
630,-356,0.0643311,-0.114868,-0.00356984,-0.00244171,0.0127623,0.00976896,-0.0157805,0.807483,0.0148865,0.0340541,1854,1380,0.0643817,0.114857
637,-356,0.00585938,-0.0682373,-0.00426617,-0.00257894,0.00979429,0.006408,-0.0132531,0.828359,0.0115784,0.0196526,1861,1380,0.00582588,0.0682327
644,-356,-0.0135498,-0.0384521,-0.00393028,-0.00214029,0.00683308,0.00385616,-0.00992673,0.850517,0.00821081,0.0149673,1868,1380,-0.0135617,0.0384862
651,-356,-0.0336914,-0.0819092,-0.00314972,-0.00123679,0.00457609,0.00248173,-0.00686823,0.888422,0.00559272,0.0146313,1875,1380,-0.0336885,0.0818638
658,-356,-0.0491943,-0.114136,-0.00186577,-0.000729365,0.00300128,0.00175702,-0.00435216,0.878951,0.00363167,0.0143977,1882,1380,-0.0491595,0.114102
665,-356,-0.0441895,-0.0959473,-0.0011779,-0.000460203,0.00177167,0.000988592,-0.00262669,0.88532,0.00215752,0.0144212,1889,1380,-0.0441966,0.0959059
672,-356,-0.0274658,-0.0672607,-0.00108714,0.000401389,0.000520297,0.000565221,-0.00125097,1.26574,0.0010732,0.0146296,1896,1380,-0.0274825,0.0672074
679,-356,-0.0229492,-0.0665283,-0.00118396,0.00151092,0.000219943,0.00152876,-0.00120179,1.48989,0.00158025,0.0150645,1903,1380,-0.0229225,0.0664799
686,-356,-0.0246582,-0.0587158,-0.00148324,0.00177928,0.000607467,0.00188872,-0.00159267,1.39256,0.00201241,0.0125014,1910,1380,-0.0246443,0.0587552
693,-356,-0.0119629,-0.0670166,-0.00172328,0.00161126,0.00161961,0.00226841,-0.00238044,1.18535,0.00268427,0.0114536,1917,1380,-0.0119208,0.0670728
700,-356,-0.0195313,-0.0791016,-0.00199646,0.00157298,0.00262909,0.00296589,-0.00338937,1.08359,0.00367193,0.0166381,1924,1380,-0.0194781,0.0791087
707,-356,-0.0343018,-0.0958252,-0.00301002,0.00174318,0.00409223,0.00409887,-0.00536571,1.04847,0.00548067,0.0193478,1931,1380,-0.0342456,0.0957916
714,-356,-0.0231934,-0.113892,-0.0042795,0.00162816,0.00606819,0.00542326,-0.0080746,1.0119,0.00784294,0.0291641,1938,1380,-0.0231737,0.113886
721,-356,-0.169067,-0.0673828,-0.00568982,0.00116358,0.0087144,0.00710081,-0.011627,0.972723,0.0109173,0.0391717,1945,1380,-0.169112,0.0673423
728,-356,-0.192871,-0.7146,-0.00717206,0.000239318,0.0121335,0.00922037,-0.0161531,0.933605,0.0148305,0.0443699,1952,1380,-0.192839,0.714558
735,-356,-1.02112,0.83313,-0.00864735,-0.00125764,0.0164042,0.0118627,-0.0217677,0.896169,0.0196952,0.0440573,1959,1380,-1.02107,-0.833118
742,-356,-1.34656,1.31226,-0.00998748,-0.00342548,0.0215522,0.015094,-0.028507,0.860936,0.025567,0.0479906,1966,1380,-1.34656,-1.3122
749,-356,-1.61047,1.69629,0,0,0,0,0,0,0,-1,1973,1380,-1.61044,-1.69623
756,-356,0,0,0,0,0,0,0,0,0,-1,1980,1380,0,0
763,-356,0,0,0,0,0,0,0,0,0,-1,1987,1380,0,0
770,-356,0,0,0,0,0,0,0,0,0,-1,1994,1380,0,0
777,-356,0,0,0,0,0,0,0,0,0,-1,2001,1380,0,0
784,-356,0,0,0,0,0,0,0,0,0,-1,2008,1380,0,0
791,-356,0,0,0,0,0,0,0,0,0,-1,2015,1380,0,0
798,-356,0,0,0,0,0,0,0,0,0,-1,2022,1380,0,0
805,-356,0,0,0,0,0,0,0,0,0,-1,2029,1380,0,0
812,-356,0,0,0,0,0,0,0,0,0,-1,2036,1380,0,0
-700,-363,0,0,0,0,0,0,0,0,0,-1,524,1387,0,0
-693,-363,0,0,0,0,0,0,0,0,0,-1,531,1387,0,0
-686,-363,0,0,0,0,0,0,0,0,0,-1,538,1387,0,0
-679,-363,0,0,0,0,0,0,0,0,0,-1,545,1387,0,0
-672,-363,0,0,0,0,0,0,0,0,0,-1,552,1387,0,0
-665,-363,0,0,0,0,0,0,0,0,0,-1,559,1387,0,0
-658,-363,0,0,0,0,0,0,0,0,0,-1,566,1387,0,0
-651,-363,0,0,0,0,0,0,0,0,0,-1,573,1387,0,0
-644,-363,0,0,0,0,0,0,0,0,0,-1,580,1387,0,0
-637,-363,0,0,0,0,0,0,0,0,0,-1,587,1387,0,0
-630,-363,0,0,0,0,0,0,0,0,0,-1,594,1387,0,0
-623,-363,-0.537842,1.14832,0.0073545,0.0651322,0.0113901,0.0672966,0.00519015,1.38302,0.0432383,0.0451529,601,1387,-0.537854,-1.14837
-616,-363,-0.456848,0.841675,0.00688145,0.0514478,0.00627383,0.0523141,0.0060151,1.43357,0.033054,0.0444471,608,1387,-0.456828,-0.841693
-609,-363,-0.235596,0.562256,0,0,0,0,0,0,0,-1,615,1387,-0.235619,-0.562293
-602,-363,-0.0501099,0.211548,0.00458957,0.0293404,0.000656082,0.0293578,0.00457219,1.54431,0.0182398,0.0434524,622,1387,-0.0501256,-0.211591
-595,-363,0.309021,0.0543213,0.00317361,0.0212185,-0.000648422,0.0212417,0.00315034,-1.53492,0.0132366,0.0427339,629,1387,0.309009,-0.0543219
-588,-363,0.525269,-0.230103,0.00186692,0.0149607,-0.00140701,0.0151102,0.00171744,-1.46495,0.00955261,0.0424554,636,1387,0.525287,0.230049
-581,-363,0.248291,-0.240601,0.000745537,0.0102668,-0.00157388,0.0105203,0.000492119,-1.41115,0.00685536,0.0354565,643,1387,0.248314,0.240573
-574,-363,0.00469971,-0.104614,9.01991e-05,0.00606019,-0.00160967,0.00646654,-0.000316155,-1.32352,0.00442018,0.02492,650,1387,0.00471783,0.104668
-567,-363,-0.0280151,-0.072876,-0.000463221,0.00317903,-0.00136898,0.00363619,-0.000920385,-1.2485,0.00278214,0.0155715,657,1387,-0.0280265,0.0729036
-560,-363,-0.0310669,-0.0743408,-0.000743867,0.00127198,-0.00110989,0.00176332,-0.0012352,-1.15404,0.00174012,0.0126952,664,1387,-0.0310656,0.0743102
-553,-363,-0.0244141,-0.0841064,-0.000752301,0.000104957,-0.000728066,0.000521197,-0.00116854,-1.05144,0.000999149,0.0120702,671,1387,-0.0244294,0.0841319
-546,-363,-0.0227661,-0.0854492,-0.00123025,-0.000364748,-0.000191644,-0.000324212,-0.00127079,-1.36235,0.000762456,0.0115031,678,1387,-0.0227783,0.0853928
-539,-363,0.00231934,-0.0734863,-0.00130439,0.000125154,0.000688246,0.000402644,-0.00158187,1.18755,0.00121131,0.0134521,685,1387,0.00231912,0.0734665
-532,-363,-0.0065918,-0.0751953,-0.00113304,0.00019928,0.00155332,0.00122326,-0.00215702,0.987966,0.00197627,0.0118443,692,1387,-0.00656905,0.0751419
-525,-363,-0.0221558,-0.0839844,-0.000945903,-3.19531e-05,0.00222594,0.00178343,-0.00276129,0.886639,0.00264406,0.00941795,699,1387,-0.0221552,0.0839466
-518,-363,-0.0267334,-0.0797119,-0.00111336,-8.10489e-05,0.00289352,0.00234199,-0.0035364,0.873661,0.00341717,0.00858608,706,1387,-0.0267458,0.0796999
-511,-363,-0.0218506,-0.0755615,-0.00173654,0.000119966,0.00360566,0.00291494,-0.00453151,0.911384,0.00433285,0.0123941,713,1387,-0.0218221,0.07557
-504,-363,0.0144043,-0.11438,-0.00204541,-2.26319e-05,0.00393113,0.00302513,-0.00509316,0.911306,0.00473752,0.016986,720,1387,0.0144015,0.114423
-497,-363,0.0245361,-0.158447,0,0,0,0,0,0,0,-1,727,1387,0.024517,0.158398
-490,-363,-0.189636,0.074585,-0.00198916,-0.000253368,0.00366209,0.00264226,-0.00488479,0.901749,0.00440957,0.0412631,734,1387,-0.189629,-0.0745721
-483,-363,-0.481079,0.329102,-0.00151965,-0.000726846,0.00263059,0.00153704,-0.00378353,0.86018,0.00316179,0.0422423,741,1387,-0.48109,-0.329072
-476,-363,-0.50061,0.511963,-0.000223817,-0.0020244,0.00142066,0.000557799,-0.00280601,0.502979,0.00208167,0.0414074,748,1387,-0.500635,-0.511921
-469,-363,-0.423218,0.290405,0.00156301,-0.00309668,-0.000237297,0.00157506,-0.00310873,-0.0507505,0.00275209,0.0408484,755,1387,-0.423189,-0.290458
-462,-363,-0.226074,0.0430908,0,0,0,0,0,0,0,-1,762,1387,-0.226055,-0.0430606
-455,-363,-0.465454,-0.39978,0.00705978,-0.00707393,-0.00514595,0.00873485,-0.008749,-0.314695,0.0100943,0.0420776,769,1387,-0.465434,0.399784
-448,-363,-0.191833,-0.499634,0.0106882,-0.010167,-0.00782522,0.0132979,-0.0127766,-0.321889,0.0150551,0.041653,776,1387,-0.191806,0.499689
-441,-363,-0.0115967,-0.929077,0,0,0,0,0,0,0,-1,783,1387,-0.0115678,0.929038
-434,-363,-0.857544,-1.54944,0,0,0,0,0,0,0,-1,790,1387,-0.857516,1.54946
-427,-363,0,0,0,0,0,0,0,0,0,-1,797,1387,0,0
-420,-363,0,0,0,0,0,0,0,0,0,-1,804,1387,0,0
-413,-363,0,0,0,0,0,0,0,0,0,-1,811,1387,0,0
-406,-363,0,0,0,0,0,0,0,0,0,-1,818,1387,0,0
-399,-363,0,0,0,0,0,0,0,0,0,-1,825,1387,0,0
-392,-363,0,0,0,0,0,0,0,0,0,-1,832,1387,0,0
-385,-363,0,0,0,0,0,0,0,0,0,-1,839,1387,0,0
-378,-363,0,0,0,0,0,0,0,0,0,-1,846,1387,0,0
-371,-363,0,0,0,0,0,0,0,0,0,-1,853,1387,0,0
-364,-363,0,0,0,0,0,0,0,0,0,-1,860,1387,0,0
-357,-363,0,0,0,0,0,0,0,0,0,-1,867,1387,0,0
-350,-363,0,0,0,0,0,0,0,0,0,-1,874,1387,0,0
-343,-363,0,0,0,0,0,0,0,0,0,-1,881,1387,0,0
-336,-363,0,0,0,0,0,0,0,0,0,-1,888,1387,0,0
-329,-363,0,0,0,0,0,0,0,0,0,-1,895,1387,0,0
-322,-363,0,0,0,0,0,0,0,0,0,-1,902,1387,0,0
-315,-363,0,0,0,0,0,0,0,0,0,-1,909,1387,0,0
-308,-363,0,0,0,0,0,0,0,0,0,-1,916,1387,0,0
-301,-363,0,0,0,0,0,0,0,0,0,-1,923,1387,0,0
-294,-363,0,0,0,0,0,0,0,0,0,-1,930,1387,0,0
-287,-363,0,0,0,0,0,0,0,0,0,-1,937,1387,0,0
-280,-363,0,0,0,0,0,0,0,0,0,-1,944,1387,0,0
-273,-363,0,0,0,0,0,0,0,0,0,-1,951,1387,0,0
-266,-363,0,0,0,0,0,0,0,0,0,-1,958,1387,0,0
-259,-363,0,0,0,0,0,0,0,0,0,-1,965,1387,0,0
-252,-363,0,0,0,0,0,0,0,0,0,-1,972,1387,0,0
-245,-363,0,0,0,0,0,0,0,0,0,-1,979,1387,0,0
-238,-363,0,0,0,0,0,0,0,0,0,-1,986,1387,0,0
-231,-363,0,0,0,0,0,0,0,0,0,-1,993,1387,0,0
-224,-363,0,0,0,0,0,0,0,0,0,-1,1000,1387,0,0
-217,-363,0,0,0,0,0,0,0,0,0,-1,1007,1387,0,0
-210,-363,0,0,0,0,0,0,0,0,0,-1,1014,1387,0,0
-203,-363,0,0,0,0,0,0,0,0,0,-1,1021,1387,0,0
-196,-363,0,0,0,0,0,0,0,0,0,-1,1028,1387,0,0
-189,-363,0,0,0,0,0,0,0,0,0,-1,1035,1387,0,0
-182,-363,0,0,0,0,0,0,0,0,0,-1,1042,1387,0,0
-175,-363,0,0,0,0,0,0,0,0,0,-1,1049,1387,0,0
-168,-363,0,0,0,0,0,0,0,0,0,-1,1056,1387,0,0
-161,-363,0,0,0,0,0,0,0,0,0,-1,1063,1387,0,0
-154,-363,0,0,0,0,0,0,0,0,0,-1,1070,1387,0,0
-147,-363,0,0,0,0,0,0,0,0,0,-1,1077,1387,0,0
-140,-363,0,0,0,0,0,0,0,0,0,-1,1084,1387,0,0
-133,-363,0,0,0,0,0,0,0,0,0,-1,1091,1387,0,0
-126,-363,0,0,0,0,0,0,0,0,0,-1,1098,1387,0,0
-119,-363,0,0,0,0,0,0,0,0,0,-1,1105,1387,0,0
-112,-363,0,0,0,0,0,0,0,0,0,-1,1112,1387,0,0
-105,-363,0,0,0,0,0,0,0,0,0,-1,1119,1387,0,0
-98,-363,0,0,0,0,0,0,0,0,0,-1,1126,1387,0,0
-91,-363,0,0,0,0,0,0,0,0,0,-1,1133,1387,0,0
-84,-363,0,0,0,0,0,0,0,0,0,-1,1140,1387,0,0
-77,-363,0,0,0,0,0,0,0,0,0,-1,1147,1387,0,0
-70,-363,0,0,0,0,0,0,0,0,0,-1,1154,1387,0,0
-63,-363,0,0,0,0,0,0,0,0,0,-1,1161,1387,0,0
-56,-363,0,0,0,0,0,0,0,0,0,-1,1168,1387,0,0
-49,-363,0,0,0,0,0,0,0,0,0,-1,1175,1387,0,0
-42,-363,0,0,0,0,0,0,0,0,0,-1,1182,1387,0,0
-35,-363,0,0,0,0,0,0,0,0,0,-1,1189,1387,0,0
-28,-363,0,0,0,0,0,0,0,0,0,-1,1196,1387,0,0
-21,-363,0,0,0,0,0,0,0,0,0,-1,1203,1387,0,0
-14,-363,0,0,0,0,0,0,0,0,0,-1,1210,1387,0,0
-7,-363,0,0,0,0,0,0,0,0,0,-1,1217,1387,0,0
0,-363,0,0,0,0,0,0,0,0,0,-1,1224,1387,0,0
7,-363,0,0,0,0,0,0,0,0,0,-1,1231,1387,0,0
14,-363,0,0,0,0,0,0,0,0,0,-1,1238,1387,0,0
21,-363,0,0,0,0,0,0,0,0,0,-1,1245,1387,0,0
28,-363,0,0,0,0,0,0,0,0,0,-1,1252,1387,0,0
35,-363,0,0,0,0,0,0,0,0,0,-1,1259,1387,0,0
42,-363,0,0,0,0,0,0,0,0,0,-1,1266,1387,0,0
49,-363,0,0,0,0,0,0,0,0,0,-1,1273,1387,0,0
56,-363,0,0,0,0,0,0,0,0,0,-1,1280,1387,0,0
63,-363,0,0,0,0,0,0,0,0,0,-1,1287,1387,0,0
70,-363,0,0,0,0,0,0,0,0,0,-1,1294,1387,0,0
77,-363,0,0,0,0,0,0,0,0,0,-1,1301,1387,0,0
84,-363,0,0,0,0,0,0,0,0,0,-1,1308,1387,0,0
91,-363,0,0,0,0,0,0,0,0,0,-1,1315,1387,0,0
98,-363,0,0,0,0,0,0,0,0,0,-1,1322,1387,0,0
105,-363,0,0,0,0,0,0,0,0,0,-1,1329,1387,0,0
112,-363,0,0,0,0,0,0,0,0,0,-1,1336,1387,0,0
119,-363,0,0,0,0,0,0,0,0,0,-1,1343,1387,0,0
126,-363,0,0,0,0,0,0,0,0,0,-1,1350,1387,0,0
133,-363,0,0,0,0,0,0,0,0,0,-1,1357,1387,0,0
140,-363,0,0,0,0,0,0,0,0,0,-1,1364,1387,0,0
147,-363,0,0,0,0,0,0,0,0,0,-1,1371,1387,0,0
154,-363,0,0,0,0,0,0,0,0,0,-1,1378,1387,0,0
161,-363,0,0,0,0,0,0,0,0,0,-1,1385,1387,0,0
168,-363,0,0,0,0,0,0,0,0,0,-1,1392,1387,0,0
175,-363,0,0,0,0,0,0,0,0,0,-1,1399,1387,0,0
182,-363,0,0,0,0,0,0,0,0,0,-1,1406,1387,0,0
189,-363,0,0,0,0,0,0,0,0,0,-1,1413,1387,0,0
196,-363,0,0,0,0,0,0,0,0,0,-1,1420,1387,0,0
203,-363,0,0,0,0,0,0,0,0,0,-1,1427,1387,0,0
210,-363,0,0,0,0,0,0,0,0,0,-1,1434,1387,0,0
217,-363,0,0,0,0,0,0,0,0,0,-1,1441,1387,0,0
224,-363,0,0,0,0,0,0,0,0,0,-1,1448,1387,0,0
231,-363,0,0,0,0,0,0,0,0,0,-1,1455,1387,0,0
238,-363,0,0,0,0,0,0,0,0,0,-1,1462,1387,0,0
245,-363,0,0,0,0,0,0,0,0,0,-1,1469,1387,0,0
252,-363,0,0,0,0,0,0,0,0,0,-1,1476,1387,0,0
259,-363,0,0,0,0,0,0,0,0,0,-1,1483,1387,0,0
266,-363,0,0,0,0,0,0,0,0,0,-1,1490,1387,0,0
273,-363,0,0,0,0,0,0,0,0,0,-1,1497,1387,0,0
280,-363,0,0,0,0,0,0,0,0,0,-1,1504,1387,0,0
287,-363,0,0,0,0,0,0,0,0,0,-1,1511,1387,0,0
294,-363,0,0,0,0,0,0,0,0,0,-1,1518,1387,0,0
301,-363,0,0,0,0,0,0,0,0,0,-1,1525,1387,0,0
308,-363,0,0,0,0,0,0,0,0,0,-1,1532,1387,0,0
315,-363,0,0,0,0,0,0,0,0,0,-1,1539,1387,0,0
322,-363,0,0,0,0,0,0,0,0,0,-1,1546,1387,0,0
329,-363,0,0,0,0,0,0,0,0,0,-1,1553,1387,0,0
336,-363,0,0,0,0,0,0,0,0,0,-1,1560,1387,0,0
343,-363,0,0,0,0,0,0,0,0,0,-1,1567,1387,0,0
350,-363,0,0,0,0,0,0,0,0,0,-1,1574,1387,0,0
357,-363,0,0,0,0,0,0,0,0,0,-1,1581,1387,0,0
364,-363,0,0,0,0,0,0,0,0,0,-1,1588,1387,0,0
371,-363,0,0,0,0,0,0,0,0,0,-1,1595,1387,0,0
378,-363,0,0,0,0,0,0,0,0,0,-1,1602,1387,0,0
385,-363,0,0,0,0,0,0,0,0,0,-1,1609,1387,0,0
392,-363,0,0,0,0,0,0,0,0,0,-1,1616,1387,0,0
399,-363,0,0,0,0,0,0,0,0,0,-1,1623,1387,0,0
406,-363,0,0,0,0,0,0,0,0,0,-1,1630,1387,0,0
413,-363,0,0,0,0,0,0,0,0,0,-1,1637,1387,0,0
420,-363,0,0,0,0,0,0,0,0,0,-1,1644,1387,0,0
427,-363,0,0,0,0,0,0,0,0,0,-1,1651,1387,0,0
434,-363,0,0,0,0,0,0,0,0,0,-1,1658,1387,0,0
441,-363,0,0,0,0,0,0,0,0,0,-1,1665,1387,0,0
448,-363,0,0,0,0,0,0,0,0,0,-1,1672,1387,0,0
455,-363,0,0,0,0,0,0,0,0,0,-1,1679,1387,0,0
462,-363,0,0,0,0,0,0,0,0,0,-1,1686,1387,0,0
469,-363,0,0,0,0,0,0,0,0,0,-1,1693,1387,0,0
476,-363,0,0,0,0,0,0,0,0,0,-1,1700,1387,0,0
483,-363,0,0,0,0,0,0,0,0,0,-1,1707,1387,0,0
490,-363,0,0,0,0,0,0,0,0,0,-1,1714,1387,0,0
497,-363,0,0,0,0,0,0,0,0,0,-1,1721,1387,0,0
504,-363,0,0,0,0,0,0,0,0,0,-1,1728,1387,0,0
511,-363,0,0,0,0,0,0,0,0,0,-1,1735,1387,0,0
518,-363,0,0,0,0,0,0,0,0,0,-1,1742,1387,0,0
525,-363,0,0,0,0,0,0,0,0,0,-1,1749,1387,0,0
532,-363,0,0,0,0,0,0,0,0,0,-1,1756,1387,0,0
539,-363,0,0,0,0,0,0,0,0,0,-1,1763,1387,0,0
546,-363,0,0,0,0,0,0,0,0,0,-1,1770,1387,0,0
553,-363,-0.623657,-0.1875,0.00286264,0.0208045,0.0130081,0.0276351,-0.00396793,1.08727,0.0198785,0.041731,1777,1387,-0.623714,0.187507
560,-363,-0.335693,0.126221,0,0,0,0,0,0,0,-1,1784,1387,-0.335693,-0.126186
567,-363,-0.0932617,0.473145,0,0,0,0,0,0,0,-1,1791,1387,-0.0932726,-0.473118
574,-363,0.441406,0.663208,0.00455324,0.0185064,0.0174844,0.0303547,-0.00729504,0.975228,0.0230561,0.0402458,1798,1387,0.441448,-0.663221
581,-363,0.137329,-0.509888,0.00361096,0.0139435,0.0195749,0.0290224,-0.011468,0.914417,0.0240984,0.041133,1805,1387,0.137331,0.509862
588,-363,0.5271,-0.720459,0.00208032,0.00958358,0.0205098,0.026682,-0.0150181,0.875858,0.0243875,0.0424745,1812,1387,0.527046,0.720488
595,-363,0.561157,-0.637085,0.00038034,0.00581675,0.0203154,0.023595,-0.0173979,0.851903,0.0237572,0.0486484,1819,1387,0.561187,0.63705
602,-363,-0.463257,-1.42615,0,0,0,0,0,0,0,-1,1826,1387,-0.463267,1.42613
609,-363,-0.354126,-1.24622,-0.00248579,0.000772562,0.0174286,0.0166479,-0.0183612,0.832001,0.0202206,0.0437936,1833,1387,-0.354176,1.24624
616,-363,0.0214844,-0.598389,-0.00332011,-0.000786332,0.0151965,0.013196,-0.0173024,0.826986,0.0176614,0.0402835,1840,1387,0.0214324,0.598382
623,-363,0.0203857,-0.168579,-0.00330272,-0.00167695,0.0129268,0.0104625,-0.0154422,0.816799,0.0150479,0.0402009,1847,1387,0.0203974,0.168596
630,-363,-0.019043,-0.0821533,-0.00384021,-0.00293647,0.0108792,0.00750028,-0.014277,0.806154,0.0127744,0.025394,1854,1387,-0.0190111,0.082117
637,-363,-0.0361328,-0.0916748,-0.00427078,-0.0028587,0.00838767,0.00485259,-0.0119821,0.827387,0.0100058,0.0126389,1861,1387,-0.0360751,0.0916623
644,-363,-0.0355225,-0.0749512,-0.00385109,-0.00234476,0.00593583,0.0028855,-0.00908135,0.848503,0.00721114,0.010771,1868,1387,-0.0354805,0.0749769
651,-363,-0.0319824,-0.0877686,-0.00296865,-0.00147083,0.00407177,0.00192034,-0.00635981,0.876346,0.00500435,0.0106013,1875,1387,-0.03203,0.0877213
658,-363,-0.0306396,-0.109497,-0.00146643,-0.00100553,0.00286824,0.00164151,-0.00411347,0.825485,0.00342328,0.0117913,1882,1387,-0.0305917,0.109508
665,-363,-0.0516357,-0.0784912,-0.000572036,-0.000638898,0.00187403,0.00126886,-0.0024798,0.776479,0.00220161,0.0119481,1889,1387,-0.0516219,0.0784517
672,-363,-0.0515137,-0.0584717,-0.000244312,0.00031176,0.00089718,0.000972998,-0.00090555,0.935655,0.00108481,0.0129243,1896,1387,-0.0515222,0.0584247
679,-363,-0.0306396,-0.0550537,-0.000180817,0.00160975,0.000756913,0.00188684,-0.000457903,1.21987,0.00143509,0.013882,1903,1387,-0.0306483,0.0550699
686,-363,-0.0231934,-0.0617676,-0.000343393,0.0020303,0.00132162,0.00261977,-0.000932859,1.15126,0.00212679,0.0132515,1910,1387,-0.023245,0.0617319
693,-363,-0.015625,-0.0761719,-0.000488864,0.00208068,0.00245039,0.00356269,-0.00197087,1.02685,0.00323856,0.011999,1917,1387,-0.0156413,0.0761788
700,-363,-0.0216064,-0.0800781,-0.000740113,0.00243779,0.00355982,0.00474718,-0.0030495,0.995308,0.00453685,0.0142783,1924,1387,-0.021561,0.0800854
707,-363,-0.0333252,-0.104736,-0.00177946,0.00304695,0.00512383,0.00629742,-0.00502992,1.00548,0.00655347,0.0213663,1931,1387,-0.0333427,0.104793
714,-363,-0.0462646,-0.152466,-0.00320432,0.0034477,0.00720584,0.0080581,-0.00781471,1.00162,0.00916453,0.0365675,1938,1387,-0.0463007,0.152462
721,-363,-0.312012,0.0447998,-0.00496814,0.00356504,0.00996467,0.0101381,-0.0115412,0.987675,0.0125253,0.0418038,1945,1387,-0.312007,-0.0448057
728,-363,-0.640259,0.426025,-0.0069905,0.00325273,0.0135424,0.0126096,-0.0163474,0.966181,0.0167647,0.0407156,1952,1387,-0.640255,-0.425996
735,-363,-0.919922,0.801636,-0.00917538,0.00234534,0.0180561,0.0155377,-0.0223677,0.939808,0.0220028,0.0437738,1959,1387,-0.91995,-0.801668
742,-363,-1.13574,1.16992,0,0,0,0,0,0,0,-1,1966,1387,-1.13575,-1.16987
749,-363,0,0,0,0,0,0,0,0,0,-1,1973,1387,0,0
756,-363,0,0,0,0,0,0,0,0,0,-1,1980,1387,0,0
763,-363,0,0,0,0,0,0,0,0,0,-1,1987,1387,0,0
770,-363,0,0,0,0,0,0,0,0,0,-1,1994,1387,0,0
777,-363,0,0,0,0,0,0,0,0,0,-1,2001,1387,0,0
784,-363,0,0,0,0,0,0,0,0,0,-1,2008,1387,0,0
791,-363,0,0,0,0,0,0,0,0,0,-1,2015,1387,0,0
798,-363,0,0,0,0,0,0,0,0,0,-1,2022,1387,0,0
805,-363,0,0,0,0,0,0,0,0,0,-1,2029,1387,0,0
812,-363,0,0,0,0,0,0,0,0,0,-1,2036,1387,0,0
-700,-370,0,0,0,0,0,0,0,0,0,-1,524,1394,0,0
-693,-370,0,0,0,0,0,0,0,0,0,-1,531,1394,0,0
-686,-370,0,0,0,0,0,0,0,0,0,-1,538,1394,0,0
-679,-370,0,0,0,0,0,0,0,0,0,-1,545,1394,0,0
-672,-370,0,0,0,0,0,0,0,0,0,-1,552,1394,0,0
-665,-370,0,0,0,0,0,0,0,0,0,-1,559,1394,0,0
-658,-370,0,0,0,0,0,0,0,0,0,-1,566,1394,0,0
-651,-370,0,0,0,0,0,0,0,0,0,-1,573,1394,0,0
-644,-370,0,0,0,0,0,0,0,0,0,-1,580,1394,0,0
-637,-370,0,0,0,0,0,0,0,0,0,-1,587,1394,0,0
-630,-370,0,0,0,0,0,0,0,0,0,-1,594,1394,0,0
-623,-370,-1.02087,0.557617,0,0,0,0,0,0,0,-1,601,1394,-1.02086,-0.557634
-616,-370,0.306458,0.952148,0,0,0,0,0,0,0,-1,608,1394,0.306457,-0.952158
-609,-370,-0.466919,-0.125244,0,0,0,0,0,0,0,-1,615,1394,-0.466913,0.125246
-602,-370,-0.402161,-0.397827,0.0121034,0.0240406,0.00169405,0.0242763,0.0118676,1.43252,0.0140171,0.0425249,622,1394,-0.402189,0.397868
-595,-370,0.388184,-0.197998,0.00939701,0.0169612,2.12118e-05,0.0169612,0.00939695,1.56799,0.0098116,0.0448559,629,1394,0.388168,0.197993
-588,-370,0.652954,-0.273071,0.00681847,0.0117647,-0.00096542,0.0119464,0.00663671,-1.38471,0.00691144,0.0461513,636,1394,0.652954,0.273038
-581,-370,0.445801,-0.260254,0.0045575,0.0080458,-0.00134702,0.00850541,0.0040979,-1.24198,0.00491168,0.0404115,643,1394,0.445815,0.260258
-574,-370,0.0450439,-0.119263,0.00292611,0.00472751,-0.00154038,0.0056112,0.00204243,-1.04995,0.00327933,0.0330387,650,1394,0.0450425,0.119279
-567,-370,-0.0377808,-0.0480957,0.00156292,0.00254767,-0.00140238,0.0035416,0.000568995,-0.954225,0.00219611,0.0177651,657,1394,-0.037771,0.0480757
-560,-370,-0.0307617,-0.0794678,0.000644664,0.00102819,-0.00121644,0.00206789,-0.000395038,-0.863575,0.0015274,0.0123381,664,1394,-0.0307638,0.0794808
-553,-370,-0.038208,-0.0839844,6.46079e-05,0.000194487,-0.000885463,0.00101739,-0.000758293,-0.822002,0.00102882,0.00939755,671,1394,-0.0382137,0.0840305
-546,-370,-0.0297241,-0.0898438,-0.00089497,-2.39684e-06,-0.000385447,0.000141012,-0.00103838,-1.21461,0.000743726,0.0118233,678,1394,-0.0297455,0.0898235
-539,-370,0.0114746,-0.0540771,-0.00146049,0.000597999,0.000414537,0.000678343,-0.00154083,1.37935,0.0013131,0.0156337,685,1394,0.0114605,0.0540231
-532,-370,-0.0123901,-0.0600586,-0.00139639,0.000530798,0.00132757,0.00120762,-0.00207321,1.09932,0.00191603,0.0186811,692,1394,-0.0123603,0.0600871
-525,-370,-0.012085,-0.0734863,-0.0010985,1.25293e-05,0.00185776,0.00139605,-0.00248203,0.930679,0.00226808,0.010266,699,1394,-0.0120891,0.0734538
-518,-370,-0.0223389,-0.0794678,-0.00123662,-0.000115487,0.00239703,0.00178565,-0.00313776,0.900263,0.00287804,0.00844698,706,1394,-0.0223484,0.0794105
-511,-370,-0.00744629,-0.0881348,-0.00180831,-2.59766e-05,0.00290182,0.00211843,-0.00395272,0.93438,0.00355811,0.0130117,713,1394,-0.00744594,0.0880976
-504,-370,-0.00537109,-0.112183,-0.00204586,-0.000221618,0.00297067,0.00197381,-0.00424129,0.934351,0.00366703,0.016185,720,1394,-0.00538359,0.112199
-497,-370,-0.00152588,-0.155762,-0.0019729,-0.000392667,0.00266522,0.00159709,-0.00396266,0.929499,0.00330535,0.0220939,727,1394,-0.00153471,0.155819
-490,-370,-0.0563354,-0.0872803,-0.00162076,-0.000546003,0.0021389,0.00112199,-0.00328875,0.908471,0.00264698,0.0341724,734,1394,-0.056343,0.0872637
-483,-370,-0.265259,0.134155,-0.000866706,-0.00107803,0.000832351,-0.000133337,-0.0018114,0.722264,0.0011657,0.0402554,741,1394,-0.265229,-0.134183
-476,-370,-0.546509,0.63855,0.000725464,-0.00247102,-0.000572811,0.000825011,-0.00257056,-0.17207,0.00204496,0.0397946,748,1394,-0.546531,-0.638523
-469,-370,-0.719299,0.557251,0.00272215,-0.00355943,-0.00219649,0.003414,-0.00425128,-0.305143,0.00443434,0.0399066,755,1394,-0.719298,-0.557262
-462,-370,-0.8125,0.462646,0,0,0,0,0,0,0,-1,762,1394,-0.812521,-0.462615
-455,-370,-0.567444,-0.274658,0.00833178,-0.00717727,-0.00608344,0.0104333,-0.00927875,-0.332609,0.0113872,0.0427095,769,1394,-0.567436,0.274601
-448,-370,-0.36853,-0.645752,0.0116859,-0.00985277,-0.00785283,0.0142449,-0.0124118,-0.315023,0.0154024,0.0421707,776,1394,-0.368506,0.645783
-441,-370,-0.178101,-1.00635,0.015212,-0.01292,-0.00895122,0.0178186,-0.0155266,-0.283368,0.019267,0.0422664,783,1394,-0.178115,1.00639
-434,-370,-0.410828,-1.62793,0.0181574,-0.016102,-0.0088267,0.0202978,-0.0182424,-0.237901,0.0222617,0.0447102,790,1394,-0.410809,1.62798
-427,-370,0,0,0,0,0,0,0,0,0,-1,797,1394,0,0
-420,-370,0,0,0,0,0,0,0,0,0,-1,804,1394,0,0
-413,-370,0,0,0,0,0,0,0,0,0,-1,811,1394,0,0
-406,-370,0,0,0,0,0,0,0,0,0,-1,818,1394,0,0
-399,-370,0,0,0,0,0,0,0,0,0,-1,825,1394,0,0
-392,-370,0,0,0,0,0,0,0,0,0,-1,832,1394,0,0
-385,-370,0,0,0,0,0,0,0,0,0,-1,839,1394,0,0
-378,-370,0,0,0,0,0,0,0,0,0,-1,846,1394,0,0
-371,-370,0,0,0,0,0,0,0,0,0,-1,853,1394,0,0
-364,-370,0,0,0,0,0,0,0,0,0,-1,860,1394,0,0
-357,-370,0,0,0,0,0,0,0,0,0,-1,867,1394,0,0
-350,-370,0,0,0,0,0,0,0,0,0,-1,874,1394,0,0
-343,-370,0,0,0,0,0,0,0,0,0,-1,881,1394,0,0
-336,-370,0,0,0,0,0,0,0,0,0,-1,888,1394,0,0
-329,-370,0,0,0,0,0,0,0,0,0,-1,895,1394,0,0
-322,-370,0,0,0,0,0,0,0,0,0,-1,902,1394,0,0
-315,-370,0,0,0,0,0,0,0,0,0,-1,909,1394,0,0
-308,-370,0,0,0,0,0,0,0,0,0,-1,916,1394,0,0
-301,-370,0,0,0,0,0,0,0,0,0,-1,923,1394,0,0
-294,-370,0,0,0,0,0,0,0,0,0,-1,930,1394,0,0
-287,-370,0,0,0,0,0,0,0,0,0,-1,937,1394,0,0
-280,-370,0,0,0,0,0,0,0,0,0,-1,944,1394,0,0
-273,-370,0,0,0,0,0,0,0,0,0,-1,951,1394,0,0
-266,-370,0,0,0,0,0,0,0,0,0,-1,958,1394,0,0
-259,-370,0,0,0,0,0,0,0,0,0,-1,965,1394,0,0
-252,-370,0,0,0,0,0,0,0,0,0,-1,972,1394,0,0
-245,-370,0,0,0,0,0,0,0,0,0,-1,979,1394,0,0
-238,-370,0,0,0,0,0,0,0,0,0,-1,986,1394,0,0
-231,-370,0,0,0,0,0,0,0,0,0,-1,993,1394,0,0
-224,-370,0,0,0,0,0,0,0,0,0,-1,1000,1394,0,0
-217,-370,0,0,0,0,0,0,0,0,0,-1,1007,1394,0,0
-210,-370,0,0,0,0,0,0,0,0,0,-1,1014,1394,0,0
-203,-370,0,0,0,0,0,0,0,0,0,-1,1021,1394,0,0
-196,-370,0,0,0,0,0,0,0,0,0,-1,1028,1394,0,0
-189,-370,0,0,0,0,0,0,0,0,0,-1,1035,1394,0,0
-182,-370,0,0,0,0,0,0,0,0,0,-1,1042,1394,0,0
-175,-370,0,0,0,0,0,0,0,0,0,-1,1049,1394,0,0
-168,-370,0,0,0,0,0,0,0,0,0,-1,1056,1394,0,0
-161,-370,0,0,0,0,0,0,0,0,0,-1,1063,1394,0,0
-154,-370,0,0,0,0,0,0,0,0,0,-1,1070,1394,0,0
-147,-370,0,0,0,0,0,0,0,0,0,-1,1077,1394,0,0
-140,-370,0,0,0,0,0,0,0,0,0,-1,1084,1394,0,0
-133,-370,0,0,0,0,0,0,0,0,0,-1,1091,1394,0,0
-126,-370,0,0,0,0,0,0,0,0,0,-1,1098,1394,0,0
-119,-370,0,0,0,0,0,0,0,0,0,-1,1105,1394,0,0
-112,-370,0,0,0,0,0,0,0,0,0,-1,1112,1394,0,0
-105,-370,0,0,0,0,0,0,0,0,0,-1,1119,1394,0,0
-98,-370,0,0,0,0,0,0,0,0,0,-1,1126,1394,0,0
-91,-370,0,0,0,0,0,0,0,0,0,-1,1133,1394,0,0
-84,-370,0,0,0,0,0,0,0,0,0,-1,1140,1394,0,0
-77,-370,0,0,0,0,0,0,0,0,0,-1,1147,1394,0,0
-70,-370,0,0,0,0,0,0,0,0,0,-1,1154,1394,0,0
-63,-370,0,0,0,0,0,0,0,0,0,-1,1161,1394,0,0
-56,-370,0,0,0,0,0,0,0,0,0,-1,1168,1394,0,0
-49,-370,0,0,0,0,0,0,0,0,0,-1,1175,1394,0,0
-42,-370,0,0,0,0,0,0,0,0,0,-1,1182,1394,0,0
-35,-370,0,0,0,0,0,0,0,0,0,-1,1189,1394,0,0
-28,-370,0,0,0,0,0,0,0,0,0,-1,1196,1394,0,0
-21,-370,0,0,0,0,0,0,0,0,0,-1,1203,1394,0,0
-14,-370,0,0,0,0,0,0,0,0,0,-1,1210,1394,0,0
-7,-370,0,0,0,0,0,0,0,0,0,-1,1217,1394,0,0
0,-370,0,0,0,0,0,0,0,0,0,-1,1224,1394,0,0
7,-370,0,0,0,0,0,0,0,0,0,-1,1231,1394,0,0
14,-370,0,0,0,0,0,0,0,0,0,-1,1238,1394,0,0
21,-370,0,0,0,0,0,0,0,0,0,-1,1245,1394,0,0
28,-370,0,0,0,0,0,0,0,0,0,-1,1252,1394,0,0
35,-370,0,0,0,0,0,0,0,0,0,-1,1259,1394,0,0
42,-370,0,0,0,0,0,0,0,0,0,-1,1266,1394,0,0
49,-370,0,0,0,0,0,0,0,0,0,-1,1273,1394,0,0
56,-370,0,0,0,0,0,0,0,0,0,-1,1280,1394,0,0
63,-370,0,0,0,0,0,0,0,0,0,-1,1287,1394,0,0
70,-370,0,0,0,0,0,0,0,0,0,-1,1294,1394,0,0
77,-370,0,0,0,0,0,0,0,0,0,-1,1301,1394,0,0
84,-370,0,0,0,0,0,0,0,0,0,-1,1308,1394,0,0
91,-370,0,0,0,0,0,0,0,0,0,-1,1315,1394,0,0
98,-370,0,0,0,0,0,0,0,0,0,-1,1322,1394,0,0
105,-370,0,0,0,0,0,0,0,0,0,-1,1329,1394,0,0
112,-370,0,0,0,0,0,0,0,0,0,-1,1336,1394,0,0
119,-370,0,0,0,0,0,0,0,0,0,-1,1343,1394,0,0
126,-370,0,0,0,0,0,0,0,0,0,-1,1350,1394,0,0
133,-370,0,0,0,0,0,0,0,0,0,-1,1357,1394,0,0
140,-370,0,0,0,0,0,0,0,0,0,-1,1364,1394,0,0
147,-370,0,0,0,0,0,0,0,0,0,-1,1371,1394,0,0
154,-370,0,0,0,0,0,0,0,0,0,-1,1378,1394,0,0
161,-370,0,0,0,0,0,0,0,0,0,-1,1385,1394,0,0
168,-370,0,0,0,0,0,0,0,0,0,-1,1392,1394,0,0
175,-370,0,0,0,0,0,0,0,0,0,-1,1399,1394,0,0
182,-370,0,0,0,0,0,0,0,0,0,-1,1406,1394,0,0
189,-370,0,0,0,0,0,0,0,0,0,-1,1413,1394,0,0
196,-370,0,0,0,0,0,0,0,0,0,-1,1420,1394,0,0
203,-370,0,0,0,0,0,0,0,0,0,-1,1427,1394,0,0
210,-370,0,0,0,0,0,0,0,0,0,-1,1434,1394,0,0
217,-370,0,0,0,0,0,0,0,0,0,-1,1441,1394,0,0
224,-370,0,0,0,0,0,0,0,0,0,-1,1448,1394,0,0
231,-370,0,0,0,0,0,0,0,0,0,-1,1455,1394,0,0
238,-370,0,0,0,0,0,0,0,0,0,-1,1462,1394,0,0
245,-370,0,0,0,0,0,0,0,0,0,-1,1469,1394,0,0
252,-370,0,0,0,0,0,0,0,0,0,-1,1476,1394,0,0
259,-370,0,0,0,0,0,0,0,0,0,-1,1483,1394,0,0
266,-370,0,0,0,0,0,0,0,0,0,-1,1490,1394,0,0
273,-370,0,0,0,0,0,0,0,0,0,-1,1497,1394,0,0
280,-370,0,0,0,0,0,0,0,0,0,-1,1504,1394,0,0
287,-370,0,0,0,0,0,0,0,0,0,-1,1511,1394,0,0
294,-370,0,0,0,0,0,0,0,0,0,-1,1518,1394,0,0
301,-370,0,0,0,0,0,0,0,0,0,-1,1525,1394,0,0
308,-370,0,0,0,0,0,0,0,0,0,-1,1532,1394,0,0
315,-370,0,0,0,0,0,0,0,0,0,-1,1539,1394,0,0
322,-370,0,0,0,0,0,0,0,0,0,-1,1546,1394,0,0
329,-370,0,0,0,0,0,0,0,0,0,-1,1553,1394,0,0
336,-370,0,0,0,0,0,0,0,0,0,-1,1560,1394,0,0
343,-370,0,0,0,0,0,0,0,0,0,-1,1567,1394,0,0
350,-370,0,0,0,0,0,0,0,0,0,-1,1574,1394,0,0
357,-370,0,0,0,0,0,0,0,0,0,-1,1581,1394,0,0
364,-370,0,0,0,0,0,0,0,0,0,-1,1588,1394,0,0
371,-370,0,0,0,0,0,0,0,0,0,-1,1595,1394,0,0
378,-370,0,0,0,0,0,0,0,0,0,-1,1602,1394,0,0
385,-370,0,0,0,0,0,0,0,0,0,-1,1609,1394,0,0
392,-370,0,0,0,0,0,0,0,0,0,-1,1616,1394,0,0
399,-370,0,0,0,0,0,0,0,0,0,-1,1623,1394,0,0
406,-370,0,0,0,0,0,0,0,0,0,-1,1630,1394,0,0
413,-370,0,0,0,0,0,0,0,0,0,-1,1637,1394,0,0
420,-370,0,0,0,0,0,0,0,0,0,-1,1644,1394,0,0
427,-370,0,0,0,0,0,0,0,0,0,-1,1651,1394,0,0
434,-370,0,0,0,0,0,0,0,0,0,-1,1658,1394,0,0
441,-370,0,0,0,0,0,0,0,0,0,-1,1665,1394,0,0
448,-370,0,0,0,0,0,0,0,0,0,-1,1672,1394,0,0
455,-370,0,0,0,0,0,0,0,0,0,-1,1679,1394,0,0
462,-370,0,0,0,0,0,0,0,0,0,-1,1686,1394,0,0
469,-370,0,0,0,0,0,0,0,0,0,-1,1693,1394,0,0
476,-370,0,0,0,0,0,0,0,0,0,-1,1700,1394,0,0
483,-370,0,0,0,0,0,0,0,0,0,-1,1707,1394,0,0
490,-370,0,0,0,0,0,0,0,0,0,-1,1714,1394,0,0
497,-370,0,0,0,0,0,0,0,0,0,-1,1721,1394,0,0
504,-370,0,0,0,0,0,0,0,0,0,-1,1728,1394,0,0
511,-370,0,0,0,0,0,0,0,0,0,-1,1735,1394,0,0
518,-370,0,0,0,0,0,0,0,0,0,-1,1742,1394,0,0
525,-370,0,0,0,0,0,0,0,0,0,-1,1749,1394,0,0
532,-370,0,0,0,0,0,0,0,0,0,-1,1756,1394,0,0
539,-370,0,0,0,0,0,0,0,0,0,-1,1763,1394,0,0
546,-370,-0.90332,-0.228271,-0.0157347,0.00185987,0.00940727,0.00594237,-0.0198172,1.16135,0.0155748,0.044781,1770,1394,-0.903273,0.228215
553,-370,-0.989014,-0.32605,-0.0123723,0.00913048,0.0075232,0.0115012,-0.0147431,1.26552,0.0151907,0.0420628,1777,1394,-0.989035,0.32604
560,-370,1.08899,-0.363037,0,0,0,0,0,0,0,-1,1784,1394,1.089,0.362979
567,-370,0.698242,-0.247314,0,0,0,0,0,0,0,-1,1791,1394,0.698281,0.247332
574,-370,0.215088,0.356934,-0.00353708,0.0125174,0.0114247,0.018453,-0.00947266,1.09164,0.0163984,0.0403057,1798,1394,0.215068,-0.356915
581,-370,0.402466,-0.0689697,-0.00171818,0.00936417,0.0138426,0.0187335,-0.0110875,0.97578,0.0174048,0.0426619,1805,1394,0.402525,0.0689604
588,-370,0.478271,-0.400757,-0.000968568,0.00615551,0.0151603,0.0181666,-0.0129797,0.900784,0.0180652,0.0426162,1812,1394,0.478227,0.400781
595,-370,0.388428,-0.374756,-0.000895473,0.00329977,0.0154467,0.0167906,-0.0143863,0.852884,0.0180178,0.043234,1819,1394,0.388472,0.374764
602,-370,0.328247,-0.178223,-0.00107121,0.00143377,0.0149167,0.0151505,-0.0147879,0.827283,0.0172854,0.0446363,1826,1394,0.328227,0.178193
609,-370,-0.588257,-1.53503,-0.00159253,-0.000461686,0.0136528,0.0126374,-0.0146916,0.806094,0.0157933,0.047771,1833,1394,-0.588296,1.53506
616,-370,-0.0241699,-0.192993,-0.00196416,-0.00154318,0.012035,0.0102831,-0.0137905,0.794142,0.013948,0.0461999,1840,1394,-0.024204,0.193041
623,-370,-0.00720215,-0.160278,-0.00178703,-0.0021612,0.0102978,0.00832543,-0.0122737,0.776316,0.0119655,0.0401412,1847,1394,-0.00719802,0.160288
630,-370,-0.0371094,-0.0491943,-0.00220477,-0.00314171,0.00870266,0.00604202,-0.0113885,0.758509,0.0102201,0.018667,1854,1394,-0.0371076,0.0492333
637,-370,-0.0294189,-0.0819092,-0.00265565,-0.00290429,0.00670781,0.003929,-0.00948893,0.776132,0.00796545,0.0119758,1861,1394,-0.0294411,0.0818564
644,-370,-0.0168457,-0.0970459,-0.00249106,-0.00238814,0.00479387,0.00235455,-0.00723375,0.790765,0.00576977,0.0109514,1868,1394,-0.0167858,0.0969912
651,-370,0.00146484,-0.0931396,-0.00181866,-0.00159488,0.00338037,0.00167545,-0.005089,0.801942,0.00406784,0.0113322,1875,1394,0.00146525,0.0931427
658,-370,-0.0136719,-0.0802002,-0.000383253,-0.00120652,0.00267082,0.00190747,-0.00349724,0.708939,0.00316509,0.0115552,1882,1394,-0.0137259,0.080244
665,-370,-0.0375977,-0.0766602,0.000516383,-0.000756693,0.00197144,0.0019515,-0.00219181,0.629242,0.00239348,0.01215,1889,1394,-0.0375551,0.0766194
672,-370,-0.0435791,-0.0866699,0.00104342,0.00024102,0.00131452,0.0020166,-0.000732161,0.637285,0.00164374,0.0131925,1896,1394,-0.0435832,0.0867237
679,-370,-0.0325928,-0.0722656,0.00131687,0.00171846,0.00143046,0.00296215,7.31796e-05,0.855129,0.00195083,0.013086,1903,1394,-0.032563,0.0722976
686,-370,-0.0224609,-0.074707,0.00145381,0.00239409,0.00223201,0.00420493,-0.000357037,0.889199,0.00292956,0.0139526,1910,1394,-0.0224788,0.074687
693,-370,-0.0164795,-0.0861816,0.00157484,0.00279832,0.00349778,0.00573745,-0.00136429,0.87197,0.00435161,0.011825,1917,1394,-0.0164454,0.0861685
700,-370,-0.0270996,-0.0775146,0.0015359,0.00368676,0.00475144,0.00748295,-0.00226029,0.896692,0.00588849,0.012396,1924,1394,-0.0270734,0.0775592
707,-370,-0.045166,-0.0715332,0.000669945,0.00492226,0.00643299,0.00957134,-0.00397914,0.945001,0.00804238,0.0228991,1931,1394,-0.0452118,0.0715936
714,-370,-0.0338135,-0.0200195,-0.000761819,0.00613862,0.008603,0.0119575,-0.00658067,0.976103,0.010852,0.0385346,1938,1394,-0.033855,0.0199666
721,-370,-0.146484,0.199829,-0.0028172,0.00724865,0.0114101,0.0146865,-0.0102551,0.993109,0.0144756,0.0400461,1945,1394,-0.146464,-0.199862
728,-370,-0.385498,0.291016,-0.00544526,0.00807481,0.0150054,0.0177726,-0.0151431,0.997036,0.0190241,0.0383515,1952,1394,-0.385539,-0.290969
735,-370,-0.859009,0.801392,-0.0085551,0.00840068,0.0195244,0.0212084,-0.0213628,0.990226,0.0245785,0.0443447,1959,1394,-0.859004,-0.801352
742,-370,-1.31482,1.28369,0,0,0,0,0,0,0,-1,1966,1394,-1.31479,-1.28366
749,-370,0,0,0,0,0,0,0,0,0,-1,1973,1394,0,0
756,-370,0,0,0,0,0,0,0,0,0,-1,1980,1394,0,0
763,-370,0,0,0,0,0,0,0,0,0,-1,1987,1394,0,0
770,-370,0,0,0,0,0,0,0,0,0,-1,1994,1394,0,0
777,-370,0,0,0,0,0,0,0,0,0,-1,2001,1394,0,0
784,-370,0,0,0,0,0,0,0,0,0,-1,2008,1394,0,0
791,-370,0,0,0,0,0,0,0,0,0,-1,2015,1394,0,0
798,-370,0,0,0,0,0,0,0,0,0,-1,2022,1394,0,0
805,-370,0,0,0,0,0,0,0,0,0,-1,2029,1394,0,0
812,-370,0,0,0,0,0,0,0,0,0,-1,2036,1394,0,0
-700,-377,0,0,0,0,0,0,0,0,0,-1,524,1401,0,0
-693,-377,0,0,0,0,0,0,0,0,0,-1,531,1401,0,0
-686,-377,0,0,0,0,0,0,0,0,0,-1,538,1401,0,0
-679,-377,0,0,0,0,0,0,0,0,0,-1,545,1401,0,0
-672,-377,0,0,0,0,0,0,0,0,0,-1,552,1401,0,0
-665,-377,0,0,0,0,0,0,0,0,0,-1,559,1401,0,0
-658,-377,0,0,0,0,0,0,0,0,0,-1,566,1401,0,0
-651,-377,0,0,0,0,0,0,0,0,0,-1,573,1401,0,0
-644,-377,0,0,0,0,0,0,0,0,0,-1,580,1401,0,0
-637,-377,0,0,0,0,0,0,0,0,0,-1,587,1401,0,0
-630,-377,0,0,0,0,0,0,0,0,0,-1,594,1401,0,0
-623,-377,0,0,0,0,0,0,0,0,0,-1,601,1401,0,0
-616,-377,0.319397,0.607178,0.0260553,0.0353923,0.0108734,0.042557,0.0188905,0.988174,0.0246218,0.0420307,608,1401,0.319397,-0.607137
-609,-377,0.287842,0.589478,0.022633,0.0243922,0.00627558,0.0298495,0.0171757,0.855023,0.0172988,0.0413425,615,1401,0.287857,-0.589532
-602,-377,0.420349,0.658447,0.0187517,0.0165769,0.0031265,0.0209745,0.0143541,0.618039,0.012381,0.0389956,622,1401,0.420359,-0.658483
-595,-377,0.828979,0.181274,0.0147529,0.0112272,0.00103507,0.0150343,0.0109458,0.265463,0.00897597,0.0433632,629,1401,0.828965,-0.181235
-588,-377,1.07092,-0.359009,0.0109853,0.00765953,-0.000231839,0.0110014,0.00764344,-0.0692628,0.00651032,0.0481447,636,1401,1.07095,0.35902
-581,-377,0.504883,-0.060791,0.00769901,0.00532605,-0.000899577,0.00800148,0.00502358,-0.324361,0.00466971,0.0423183,643,1401,0.504882,0.0608336
-574,-377,0.0610352,-0.0294189,0.00520507,0.00316374,-0.00131319,0.0058476,0.00252121,-0.455043,0.00338676,0.0410394,650,1401,0.0610283,0.029363
-567,-377,-0.0542603,-0.0305176,0.00317641,0.00184301,-0.00133331,0.00400041,0.001019,-0.55356,0.00240048,0.0243073,657,1401,-0.0542725,0.0305509
-560,-377,-0.0206909,-0.081543,0.00175913,0.00083486,-0.00124389,0.00262396,-2.99676e-05,-0.607538,0.00175938,0.0147276,664,1401,-0.0206788,0.0815446
-553,-377,-0.0288086,-0.0932617,0.000734585,0.000384927,-0.00100688,0.0015817,-0.000462185,-0.699438,0.00123764,0.0105525,671,1401,-0.0288129,0.0932889
-546,-377,-0.0258179,-0.0939941,-0.000601162,0.000517907,-0.000593548,0.000774079,-0.000857335,-1.16335,0.000942306,0.0132396,678,1401,-0.0258353,0.0939359
-539,-377,0.00494385,-0.0782471,-0.00148276,0.00121207,9.67042e-05,0.00121553,-0.00148622,1.53497,0.00156247,0.0176656,685,1401,0.00491717,0.0782394
-532,-377,-0.0263672,-0.0792236,-0.00154005,0.00111098,0.000987744,0.00143853,-0.0018676,1.25059,0.00191415,0.0183216,692,1401,-0.0263801,0.0791631
-525,-377,-0.0383301,-0.081665,-0.0013188,0.000391855,0.00140143,0.00117836,-0.0021053,1.05939,0.00192083,0.0131857,699,1401,-0.0383126,0.0816614
-518,-377,-0.0372925,-0.0727539,-0.0015146,0.000231529,0.00184594,0.00140045,-0.00268353,1.00629,0.00239636,0.00940697,706,1401,-0.0373122,0.0727724
-511,-377,-0.017395,-0.0661621,-0.00214902,0.000266106,0.00217642,0.00154752,-0.00343044,1.03867,0.00294176,0.0106796,713,1401,-0.0173923,0.0662022
-504,-377,-0.0123901,-0.0917969,-0.00248238,0.000125144,0.00204684,0.00124818,-0.00360542,1.06898,0.00291031,0.0100494,720,1401,-0.0123644,0.0917947
-497,-377,-0.0241089,-0.125,-0.00247533,4.59085e-05,0.00154294,0.000777728,-0.00320715,1.12792,0.00243903,0.0122493,727,1401,-0.0241318,0.124973
-490,-377,-0.0280762,-0.184082,0,0,0,0,0,0,0,-1,734,1401,-0.0280815,0.184077
-483,-377,-0.281494,0.159302,-0.00123795,-0.00058476,-0.000615081,-0.000214942,-0.00160776,-1.02946,0.00100786,0.0397948,741,1401,-0.28149,-0.159351
-476,-377,-0.521606,0.445679,0.000433016,-0.00195989,-0.00208179,0.00163768,-0.00316455,-0.524585,0.00281889,0.0419114,748,1401,-0.521582,-0.445618
-469,-377,-0.573181,0.316895,0.00247381,-0.0029913,-0.00360209,0.00426253,-0.00478001,-0.460906,0.00522356,0.0432506,755,1401,-0.573169,-0.316902
-462,-377,-0.634583,0.233398,0.0050235,-0.00447842,-0.00520994,0.00732344,-0.00677835,-0.415722,0.0081437,0.0461374,762,1401,-0.634566,-0.233423
-455,-377,-0.537781,-0.304443,0.00805365,-0.00630642,-0.00663021,0.0106467,-0.00889944,-0.372803,0.0113,0.0442981,769,1401,-0.537767,0.304442
-448,-377,-0.237244,-0.752197,0.0112331,-0.00867703,-0.00768688,0.0138554,-0.0112994,-0.328766,0.0145481,0.0414134,776,1401,-0.237272,0.752146
-441,-377,-0.129822,-1.1228,0.014549,-0.0112294,-0.00793882,0.0167978,-0.0134781,-0.276024,0.0175148,0.0445945,783,1401,-0.129838,1.12282
-434,-377,0.0142822,-1.46863,0.0172749,-0.0137138,-0.00696841,0.0187698,-0.0152087,-0.211318,0.0196533,0.0456122,790,1401,0.0142539,1.46861
-427,-377,0.435669,-1.56494,0.0186684,-0.0155134,-0.00427531,0.0191951,-0.01604,-0.12256,0.0203702,0.0444333,797,1401,0.43567,1.565
-420,-377,0,0,0,0,0,0,0,0,0,-1,804,1401,0,0
-413,-377,0,0,0,0,0,0,0,0,0,-1,811,1401,0,0
-406,-377,0,0,0,0,0,0,0,0,0,-1,818,1401,0,0
-399,-377,0,0,0,0,0,0,0,0,0,-1,825,1401,0,0
-392,-377,0,0,0,0,0,0,0,0,0,-1,832,1401,0,0
-385,-377,0,0,0,0,0,0,0,0,0,-1,839,1401,0,0
-378,-377,0,0,0,0,0,0,0,0,0,-1,846,1401,0,0
-371,-377,0,0,0,0,0,0,0,0,0,-1,853,1401,0,0
-364,-377,0,0,0,0,0,0,0,0,0,-1,860,1401,0,0
-357,-377,0,0,0,0,0,0,0,0,0,-1,867,1401,0,0
-350,-377,0,0,0,0,0,0,0,0,0,-1,874,1401,0,0
-343,-377,0,0,0,0,0,0,0,0,0,-1,881,1401,0,0
-336,-377,0,0,0,0,0,0,0,0,0,-1,888,1401,0,0
-329,-377,0,0,0,0,0,0,0,0,0,-1,895,1401,0,0
-322,-377,0,0,0,0,0,0,0,0,0,-1,902,1401,0,0
-315,-377,0,0,0,0,0,0,0,0,0,-1,909,1401,0,0
-308,-377,0,0,0,0,0,0,0,0,0,-1,916,1401,0,0
-301,-377,0,0,0,0,0,0,0,0,0,-1,923,1401,0,0
-294,-377,0,0,0,0,0,0,0,0,0,-1,930,1401,0,0
-287,-377,0,0,0,0,0,0,0,0,0,-1,937,1401,0,0
-280,-377,0,0,0,0,0,0,0,0,0,-1,944,1401,0,0
-273,-377,0,0,0,0,0,0,0,0,0,-1,951,1401,0,0
-266,-377,0,0,0,0,0,0,0,0,0,-1,958,1401,0,0
-259,-377,0,0,0,0,0,0,0,0,0,-1,965,1401,0,0
-252,-377,0,0,0,0,0,0,0,0,0,-1,972,1401,0,0
-245,-377,0,0,0,0,0,0,0,0,0,-1,979,1401,0,0
-238,-377,0,0,0,0,0,0,0,0,0,-1,986,1401,0,0
-231,-377,0,0,0,0,0,0,0,0,0,-1,993,1401,0,0
-224,-377,0,0,0,0,0,0,0,0,0,-1,1000,1401,0,0
-217,-377,0,0,0,0,0,0,0,0,0,-1,1007,1401,0,0
-210,-377,0,0,0,0,0,0,0,0,0,-1,1014,1401,0,0
-203,-377,0,0,0,0,0,0,0,0,0,-1,1021,1401,0,0
-196,-377,0,0,0,0,0,0,0,0,0,-1,1028,1401,0,0
-189,-377,0,0,0,0,0,0,0,0,0,-1,1035,1401,0,0
-182,-377,0,0,0,0,0,0,0,0,0,-1,1042,1401,0,0
-175,-377,0,0,0,0,0,0,0,0,0,-1,1049,1401,0,0
-168,-377,0,0,0,0,0,0,0,0,0,-1,1056,1401,0,0
-161,-377,0,0,0,0,0,0,0,0,0,-1,1063,1401,0,0
-154,-377,0,0,0,0,0,0,0,0,0,-1,1070,1401,0,0
-147,-377,0,0,0,0,0,0,0,0,0,-1,1077,1401,0,0
-140,-377,0,0,0,0,0,0,0,0,0,-1,1084,1401,0,0
-133,-377,0,0,0,0,0,0,0,0,0,-1,1091,1401,0,0
-126,-377,0,0,0,0,0,0,0,0,0,-1,1098,1401,0,0
-119,-377,0,0,0,0,0,0,0,0,0,-1,1105,1401,0,0
-112,-377,0,0,0,0,0,0,0,0,0,-1,1112,1401,0,0
-105,-377,0,0,0,0,0,0,0,0,0,-1,1119,1401,0,0
-98,-377,0,0,0,0,0,0,0,0,0,-1,1126,1401,0,0
-91,-377,0,0,0,0,0,0,0,0,0,-1,1133,1401,0,0
-84,-377,0,0,0,0,0,0,0,0,0,-1,1140,1401,0,0
-77,-377,0,0,0,0,0,0,0,0,0,-1,1147,1401,0,0
-70,-377,0,0,0,0,0,0,0,0,0,-1,1154,1401,0,0
-63,-377,0,0,0,0,0,0,0,0,0,-1,1161,1401,0,0
-56,-377,0,0,0,0,0,0,0,0,0,-1,1168,1401,0,0
-49,-377,0,0,0,0,0,0,0,0,0,-1,1175,1401,0,0
-42,-377,0,0,0,0,0,0,0,0,0,-1,1182,1401,0,0
-35,-377,0,0,0,0,0,0,0,0,0,-1,1189,1401,0,0
-28,-377,0,0,0,0,0,0,0,0,0,-1,1196,1401,0,0
-21,-377,0,0,0,0,0,0,0,0,0,-1,1203,1401,0,0
-14,-377,0,0,0,0,0,0,0,0,0,-1,1210,1401,0,0
-7,-377,0,0,0,0,0,0,0,0,0,-1,1217,1401,0,0
0,-377,0,0,0,0,0,0,0,0,0,-1,1224,1401,0,0
7,-377,0,0,0,0,0,0,0,0,0,-1,1231,1401,0,0
14,-377,0,0,0,0,0,0,0,0,0,-1,1238,1401,0,0
21,-377,0,0,0,0,0,0,0,0,0,-1,1245,1401,0,0
28,-377,0,0,0,0,0,0,0,0,0,-1,1252,1401,0,0
35,-377,0,0,0,0,0,0,0,0,0,-1,1259,1401,0,0
42,-377,0,0,0,0,0,0,0,0,0,-1,1266,1401,0,0
49,-377,0,0,0,0,0,0,0,0,0,-1,1273,1401,0,0
56,-377,0,0,0,0,0,0,0,0,0,-1,1280,1401,0,0
63,-377,0,0,0,0,0,0,0,0,0,-1,1287,1401,0,0
70,-377,0,0,0,0,0,0,0,0,0,-1,1294,1401,0,0
77,-377,0,0,0,0,0,0,0,0,0,-1,1301,1401,0,0
84,-377,0,0,0,0,0,0,0,0,0,-1,1308,1401,0,0
91,-377,0,0,0,0,0,0,0,0,0,-1,1315,1401,0,0
98,-377,0,0,0,0,0,0,0,0,0,-1,1322,1401,0,0
105,-377,0,0,0,0,0,0,0,0,0,-1,1329,1401,0,0
112,-377,0,0,0,0,0,0,0,0,0,-1,1336,1401,0,0
119,-377,0,0,0,0,0,0,0,0,0,-1,1343,1401,0,0
126,-377,0,0,0,0,0,0,0,0,0,-1,1350,1401,0,0
133,-377,0,0,0,0,0,0,0,0,0,-1,1357,1401,0,0
140,-377,0,0,0,0,0,0,0,0,0,-1,1364,1401,0,0
147,-377,0,0,0,0,0,0,0,0,0,-1,1371,1401,0,0
154,-377,0,0,0,0,0,0,0,0,0,-1,1378,1401,0,0
161,-377,0,0,0,0,0,0,0,0,0,-1,1385,1401,0,0
168,-377,0,0,0,0,0,0,0,0,0,-1,1392,1401,0,0
175,-377,0,0,0,0,0,0,0,0,0,-1,1399,1401,0,0
182,-377,0,0,0,0,0,0,0,0,0,-1,1406,1401,0,0
189,-377,0,0,0,0,0,0,0,0,0,-1,1413,1401,0,0
196,-377,0,0,0,0,0,0,0,0,0,-1,1420,1401,0,0
203,-377,0,0,0,0,0,0,0,0,0,-1,1427,1401,0,0
210,-377,0,0,0,0,0,0,0,0,0,-1,1434,1401,0,0
217,-377,0,0,0,0,0,0,0,0,0,-1,1441,1401,0,0
224,-377,0,0,0,0,0,0,0,0,0,-1,1448,1401,0,0
231,-377,0,0,0,0,0,0,0,0,0,-1,1455,1401,0,0
238,-377,0,0,0,0,0,0,0,0,0,-1,1462,1401,0,0
245,-377,0,0,0,0,0,0,0,0,0,-1,1469,1401,0,0
252,-377,0,0,0,0,0,0,0,0,0,-1,1476,1401,0,0
259,-377,0,0,0,0,0,0,0,0,0,-1,1483,1401,0,0
266,-377,0,0,0,0,0,0,0,0,0,-1,1490,1401,0,0
273,-377,0,0,0,0,0,0,0,0,0,-1,1497,1401,0,0
280,-377,0,0,0,0,0,0,0,0,0,-1,1504,1401,0,0
287,-377,0,0,0,0,0,0,0,0,0,-1,1511,1401,0,0
294,-377,0,0,0,0,0,0,0,0,0,-1,1518,1401,0,0
301,-377,0,0,0,0,0,0,0,0,0,-1,1525,1401,0,0
308,-377,0,0,0,0,0,0,0,0,0,-1,1532,1401,0,0
315,-377,0,0,0,0,0,0,0,0,0,-1,1539,1401,0,0
322,-377,0,0,0,0,0,0,0,0,0,-1,1546,1401,0,0
329,-377,0,0,0,0,0,0,0,0,0,-1,1553,1401,0,0
336,-377,0,0,0,0,0,0,0,0,0,-1,1560,1401,0,0
343,-377,0,0,0,0,0,0,0,0,0,-1,1567,1401,0,0
350,-377,0,0,0,0,0,0,0,0,0,-1,1574,1401,0,0
357,-377,0,0,0,0,0,0,0,0,0,-1,1581,1401,0,0
364,-377,0,0,0,0,0,0,0,0,0,-1,1588,1401,0,0
371,-377,0,0,0,0,0,0,0,0,0,-1,1595,1401,0,0
378,-377,0,0,0,0,0,0,0,0,0,-1,1602,1401,0,0
385,-377,0,0,0,0,0,0,0,0,0,-1,1609,1401,0,0
392,-377,0,0,0,0,0,0,0,0,0,-1,1616,1401,0,0
399,-377,0,0,0,0,0,0,0,0,0,-1,1623,1401,0,0
406,-377,0,0,0,0,0,0,0,0,0,-1,1630,1401,0,0
413,-377,0,0,0,0,0,0,0,0,0,-1,1637,1401,0,0
420,-377,0,0,0,0,0,0,0,0,0,-1,1644,1401,0,0
427,-377,0,0,0,0,0,0,0,0,0,-1,1651,1401,0,0
434,-377,0,0,0,0,0,0,0,0,0,-1,1658,1401,0,0
441,-377,0,0,0,0,0,0,0,0,0,-1,1665,1401,0,0
448,-377,0,0,0,0,0,0,0,0,0,-1,1672,1401,0,0
455,-377,0,0,0,0,0,0,0,0,0,-1,1679,1401,0,0
462,-377,0,0,0,0,0,0,0,0,0,-1,1686,1401,0,0
469,-377,0,0,0,0,0,0,0,0,0,-1,1693,1401,0,0
476,-377,0,0,0,0,0,0,0,0,0,-1,1700,1401,0,0
483,-377,0,0,0,0,0,0,0,0,0,-1,1707,1401,0,0
490,-377,0,0,0,0,0,0,0,0,0,-1,1714,1401,0,0
497,-377,0,0,0,0,0,0,0,0,0,-1,1721,1401,0,0
504,-377,0,0,0,0,0,0,0,0,0,-1,1728,1401,0,0
511,-377,0,0,0,0,0,0,0,0,0,-1,1735,1401,0,0
518,-377,0,0,0,0,0,0,0,0,0,-1,1742,1401,0,0
525,-377,0,0,0,0,0,0,0,0,0,-1,1749,1401,0,0
532,-377,0,0,0,0,0,0,0,0,0,-1,1756,1401,0,0
539,-377,0,0,0,0,0,0,0,0,0,-1,1763,1401,0,0
546,-377,-1.23987,0.37146,0,0,0,0,0,0,0,-1,1770,1401,-1.23982,-0.371486
553,-377,2.34534,0.0233154,0,0,0,0,0,0,0,-1,1777,1401,2.34531,-0.0233704
560,-377,1.67932,-0.0367432,0,0,0,0,0,0,0,-1,1784,1401,1.67927,0.0367215
567,-377,1.01526,-0.244385,-0.0118403,0.00694296,0.00420396,0.00784093,-0.0127383,1.36036,0.0119931,0.0411573,1791,1401,1.01532,0.244413
574,-377,0.228394,0.0338135,-0.00845242,0.006888,0.00639345,0.0092032,-0.0107676,1.22337,0.0115419,0.0393415,1798,1401,0.228438,-0.0337554
581,-377,0.337524,0.0341797,-0.0058709,0.00511407,0.00913013,0.0102765,-0.0110333,1.05619,0.0123058,0.0419904,1805,1401,0.33749,-0.0341514
588,-377,0.291626,0.0755615,-0.0041753,0.0031539,0.0109284,0.0110158,-0.0120372,0.947171,0.013314,0.0404227,1812,1401,0.291617,-0.0755329
595,-377,0.270874,0.0489502,-0.00314546,0.00130418,0.0117727,0.0110604,-0.0129017,0.878787,0.0138482,0.038284,1819,1401,0.270932,-0.0489702
602,-377,0.21936,-0.06604,-0.00244572,0.000289368,0.011825,0.0108257,-0.012982,0.842966,0.0137642,0.0416166,1826,1401,0.219326,0.0660925
609,-377,0.0982666,-0.123169,-0.00228001,-0.000932117,0.0110938,0.00950818,-0.0127203,0.815736,0.0128782,0.0460533,1833,1401,0.0982751,0.123167
616,-377,0.0012207,-0.149414,-0.00213397,-0.0014768,0.0100034,0.00820345,-0.0118142,0.801816,0.0116197,0.0472141,1840,1401,0.00118886,0.149461
623,-377,-0.0426025,-0.0628662,-0.00158929,-0.00181485,0.00865002,0.00694868,-0.0103528,0.778879,0.0100533,0.0349818,1847,1401,-0.0425614,0.0628064
630,-377,-0.0236816,-0.0688477,-0.00167679,-0.00254238,0.0073787,0.0052818,-0.00950096,0.756104,0.00864993,0.0153448,1854,1401,-0.0236452,0.0688525
637,-377,-0.0192871,-0.0894775,-0.00193912,-0.00224395,0.00573467,0.00364516,-0.00782822,0.772112,0.00676932,0.0103572,1861,1401,-0.0192699,0.0895033
644,-377,-0.0106201,-0.103149,-0.00178262,-0.00183203,0.00422876,0.00242151,-0.00603616,0.782477,0.00502949,0.0101152,1868,1401,-0.010619,0.103112
651,-377,0.000366211,-0.098999,-0.000981565,-0.00127142,0.00315901,0.00203585,-0.00428883,0.762476,0.00372798,0.0124199,1875,1401,0.000334942,0.0989452
658,-377,-0.0217285,-0.0900879,0.000777449,-0.0010797,0.00283471,0.0028318,-0.00313405,0.627119,0.00344586,0.0136239,1882,1401,-0.0217368,0.0901131
665,-377,-0.00732422,-0.0968018,0.00195337,-0.000698054,0.00236237,0.00333659,-0.00208127,0.529706,0.00315587,0.0144409,1889,1401,-0.00730961,0.0967802
672,-377,0.00720215,-0.106201,0.00275138,0.000160342,0.00207523,0.00390228,-0.000990558,0.506359,0.00298697,0.0144377,1896,1401,0.00720596,0.106162
679,-377,-0.0332031,-0.0767822,0.00330987,0.00166062,0.00245701,0.00507694,-0.000106455,0.623494,0.00342067,0.0157649,1903,1401,-0.0332382,0.0767237
686,-377,-0.0220947,-0.0715332,0.00389103,0.00249357,0.00351954,0.00678053,-0.000395927,0.687407,0.00465794,0.0149615,1910,1401,-0.0221127,0.0715672
693,-377,-0.0296631,-0.0916748,0.00449717,0.00323001,0.00500453,0.00890807,-0.00118089,0.722433,0.00636894,0.0114313,1917,1401,-0.0296478,0.0917218
700,-377,-0.0574951,-0.0980225,0.00491578,0.00465756,0.00647234,0.0112603,-0.00168696,0.775425,0.00812775,0.0159582,1924,1401,-0.0574882,0.0980056
707,-377,-0.0865479,-0.186523,0.00447142,0.00663813,0.00828831,0.0139136,-0.00280403,0.850384,0.0103379,0.0343201,1931,1401,-0.0865349,0.186513
714,-377,0.142212,-0.158447,0.00323437,0.00892722,0.0105068,0.0169664,-0.00480477,0.917679,0.0132071,0.0392219,1938,1401,0.142245,0.1584
721,-377,0.187256,0.0979004,0.00103515,0.0114439,0.0132543,0.020479,-0.00799989,0.972479,0.0169603,0.0387716,1945,1401,0.187265,-0.0979559
728,-377,0.0666504,0.301636,-0.00219121,0.0140043,0.0166602,0.0244305,-0.0126174,1.01161,0.0217491,0.0421197,1952,1401,0.0666996,-0.301627
735,-377,-0.00585938,0.405151,0,0,0,0,0,0,0,-1,1959,1401,-0.00582258,-0.405149
742,-377,0,0,0,0,0,0,0,0,0,-1,1966,1401,0,0
749,-377,0,0,0,0,0,0,0,0,0,-1,1973,1401,0,0
756,-377,0,0,0,0,0,0,0,0,0,-1,1980,1401,0,0
763,-377,0,0,0,0,0,0,0,0,0,-1,1987,1401,0,0
770,-377,0,0,0,0,0,0,0,0,0,-1,1994,1401,0,0
777,-377,0,0,0,0,0,0,0,0,0,-1,2001,1401,0,0
784,-377,0,0,0,0,0,0,0,0,0,-1,2008,1401,0,0
791,-377,0,0,0,0,0,0,0,0,0,-1,2015,1401,0,0
798,-377,0,0,0,0,0,0,0,0,0,-1,2022,1401,0,0
805,-377,0,0,0,0,0,0,0,0,0,-1,2029,1401,0,0
812,-377,0,0,0,0,0,0,0,0,0,-1,2036,1401,0,0
-700,-384,0,0,0,0,0,0,0,0,0,-1,524,1408,0,0
-693,-384,0,0,0,0,0,0,0,0,0,-1,531,1408,0,0
-686,-384,0,0,0,0,0,0,0,0,0,-1,538,1408,0,0
-679,-384,0,0,0,0,0,0,0,0,0,-1,545,1408,0,0
-672,-384,0,0,0,0,0,0,0,0,0,-1,552,1408,0,0
-665,-384,0,0,0,0,0,0,0,0,0,-1,559,1408,0,0
-658,-384,0,0,0,0,0,0,0,0,0,-1,566,1408,0,0
-651,-384,0,0,0,0,0,0,0,0,0,-1,573,1408,0,0
-644,-384,0,0,0,0,0,0,0,0,0,-1,580,1408,0,0
-637,-384,0,0,0,0,0,0,0,0,0,-1,587,1408,0,0
-630,-384,0,0,0,0,0,0,0,0,0,-1,594,1408,0,0
-623,-384,0,0,0,0,0,0,0,0,0,-1,601,1408,0,0
-616,-384,0.275513,0.229614,0.0370809,0.0191223,0.0150793,0.0456519,0.0105513,0.516857,0.0275982,0.0441031,608,1408,0.275489,-0.229666
-609,-384,0.230713,0.295288,0.0321026,0.010976,0.00951538,0.0357564,0.0073222,0.366628,0.0218105,0.0396869,615,1408,0.230735,-0.295251
-602,-384,0.475769,0.544189,0.0266985,0.00598596,0.00561437,0.0281225,0.00456201,0.248387,0.0174278,0.0411834,622,1408,0.475791,-0.544148
-595,-384,1.25391,0.406616,0,0,0,0,0,0,0,-1,629,1408,1.25393,-0.406653
-588,-384,1.45294,-0.072998,0,0,0,0,0,0,0,-1,636,1408,1.45296,0.073014
-581,-384,1.64148,-0.536499,0,0,0,0,0,0,0,-1,643,1408,1.64145,0.536441
-574,-384,-0.0264282,0.0494385,0.00811553,0.000941159,-0.000764841,0.00819616,0.000860527,-0.105035,0.00520105,0.0437891,650,1408,-0.0264423,-0.0494765
-567,-384,-0.0230713,-0.0704346,0.00526135,0.000669643,-0.00103104,0.00548224,0.000448756,-0.211047,0.0035148,0.0368508,657,1408,-0.0230956,0.0703765
-560,-384,-0.0136108,-0.0946045,0.00321261,0.000305434,-0.00110566,0.00358533,-6.72851e-05,-0.325138,0.00241296,0.0214891,664,1408,-0.0136298,0.0945887
-553,-384,-0.0285645,-0.0996094,0.00166783,0.000296178,-0.00102815,0.0022179,-0.000253893,-0.491264,0.00157009,0.0147214,671,1408,-0.0285627,0.0996418
-546,-384,-0.0252686,-0.0841064,-8.13969e-05,0.00087102,-0.000780889,0.00130945,-0.000519826,-1.05921,0.00108844,0.0130705,678,1408,-0.0252869,0.0840513
-539,-384,-0.0264893,-0.0946045,-0.00132018,0.00177925,-0.00026632,0.00180196,-0.0013429,-1.4857,0.00182212,0.0146034,685,1408,-0.0264972,0.0946068
-532,-384,-0.0350342,-0.12085,-0.00145664,0.00170221,0.00057506,0.00180364,-0.00155807,1.39621,0.00194261,0.0193273,692,1408,-0.0350584,0.120796
-525,-384,-0.0210571,-0.0887451,-0.00123855,0.000788654,0.000831007,0.00108576,-0.00153566,1.22743,0.00152089,0.0183317,699,1408,-0.021051,0.0887576
-518,-384,-0.0267944,-0.0834961,-0.00143328,0.000648652,0.00115053,0.00115925,-0.00194388,1.15312,0.00181058,0.0110215,706,1408,-0.026776,0.0835361
-511,-384,-0.0482178,-0.0560303,-0.00205558,0.000674085,0.00128812,0.00118596,-0.00256745,1.19255,0.00221542,0.00882034,713,1408,-0.0482111,0.0560122
-504,-384,-0.0366211,-0.0494385,-0.00241131,0.00063232,0.000955743,0.000907548,-0.00268654,1.29041,0.00215812,0.00986553,720,1408,-0.0366077,0.0494727
-497,-384,-0.0445557,-0.0797119,-0.00241851,0.000686239,0.000281142,0.000711491,-0.00244376,1.48121,0.00191101,0.0113599,727,1408,-0.0445685,0.0797052
-490,-384,-0.0349731,-0.140381,-0.00193185,0.00054879,-0.000560411,0.000669519,-0.00205258,-1.35861,0.00163783,0.0185587,734,1408,-0.0349702,0.140371
-483,-384,-0.19281,0.043457,-0.000990206,8.48488e-05,-0.00208409,0.00169961,-0.00260497,-0.911607,0.00250351,0.0372286,741,1408,-0.192835,-0.0434124
-476,-384,-0.389343,0.295166,0.000690521,-0.00128189,-0.00351703,0.003357,-0.00394837,-0.648704,0.00422236,0.0411392,748,1408,-0.389331,-0.29516
-469,-384,-0.407654,0.0998535,0.00268474,-0.00228873,-0.00484946,0.00564787,-0.00525187,-0.548486,0.00629435,0.0425113,755,1408,-0.407651,-0.0998589
-462,-384,-0.445251,0.0388184,0.0051347,-0.00370572,-0.00604604,0.00820401,-0.00677502,-0.469753,0.00866126,0.0441199,762,1408,-0.44528,-0.0388252
-455,-384,-0.364929,-0.197266,0.00799142,-0.00538702,-0.00686442,0.0108869,-0.00828247,-0.399162,0.0111014,0.0441223,769,1408,-0.364956,0.197225
-448,-384,-0.0228882,-0.218262,0,0,0,0,0,0,0,-1,776,1408,-0.0229042,0.218315
-441,-384,-0.113953,-0.384155,0,0,0,0,0,0,0,-1,783,1408,-0.11398,0.384156
-434,-384,0.165771,-0.68457,0,0,0,0,0,0,0,-1,790,1408,0.165768,0.684556
-427,-384,0.16272,-0.523682,0.0174125,-0.0130747,-0.00177128,0.0175151,-0.0131773,-0.0578395,0.0177792,0.0454852,797,1408,0.162702,0.523707
-420,-384,0.34198,-0.512573,0.0170765,-0.0131336,0.0026518,0.0173075,-0.0133646,0.0868931,0.0177573,0.0448761,804,1408,0.341989,0.51258
-413,-384,0,0,0,0,0,0,0,0,0,-1,811,1408,0,0
-406,-384,0,0,0,0,0,0,0,0,0,-1,818,1408,0,0
-399,-384,0,0,0,0,0,0,0,0,0,-1,825,1408,0,0
-392,-384,0,0,0,0,0,0,0,0,0,-1,832,1408,0,0
-385,-384,0,0,0,0,0,0,0,0,0,-1,839,1408,0,0
-378,-384,0,0,0,0,0,0,0,0,0,-1,846,1408,0,0
-371,-384,0,0,0,0,0,0,0,0,0,-1,853,1408,0,0
-364,-384,0,0,0,0,0,0,0,0,0,-1,860,1408,0,0
-357,-384,0,0,0,0,0,0,0,0,0,-1,867,1408,0,0
-350,-384,0,0,0,0,0,0,0,0,0,-1,874,1408,0,0
-343,-384,0,0,0,0,0,0,0,0,0,-1,881,1408,0,0
-336,-384,0,0,0,0,0,0,0,0,0,-1,888,1408,0,0
-329,-384,0,0,0,0,0,0,0,0,0,-1,895,1408,0,0
-322,-384,0,0,0,0,0,0,0,0,0,-1,902,1408,0,0
-315,-384,0,0,0,0,0,0,0,0,0,-1,909,1408,0,0
-308,-384,0,0,0,0,0,0,0,0,0,-1,916,1408,0,0
-301,-384,0,0,0,0,0,0,0,0,0,-1,923,1408,0,0
-294,-384,0,0,0,0,0,0,0,0,0,-1,930,1408,0,0
-287,-384,0,0,0,0,0,0,0,0,0,-1,937,1408,0,0
-280,-384,0,0,0,0,0,0,0,0,0,-1,944,1408,0,0
-273,-384,0,0,0,0,0,0,0,0,0,-1,951,1408,0,0
-266,-384,0,0,0,0,0,0,0,0,0,-1,958,1408,0,0
-259,-384,0,0,0,0,0,0,0,0,0,-1,965,1408,0,0
-252,-384,0,0,0,0,0,0,0,0,0,-1,972,1408,0,0
-245,-384,0,0,0,0,0,0,0,0,0,-1,979,1408,0,0
-238,-384,0,0,0,0,0,0,0,0,0,-1,986,1408,0,0
-231,-384,0,0,0,0,0,0,0,0,0,-1,993,1408,0,0
-224,-384,0,0,0,0,0,0,0,0,0,-1,1000,1408,0,0
-217,-384,0,0,0,0,0,0,0,0,0,-1,1007,1408,0,0
-210,-384,0,0,0,0,0,0,0,0,0,-1,1014,1408,0,0
-203,-384,0,0,0,0,0,0,0,0,0,-1,1021,1408,0,0
-196,-384,0,0,0,0,0,0,0,0,0,-1,1028,1408,0,0
-189,-384,0,0,0,0,0,0,0,0,0,-1,1035,1408,0,0
-182,-384,0,0,0,0,0,0,0,0,0,-1,1042,1408,0,0
-175,-384,0,0,0,0,0,0,0,0,0,-1,1049,1408,0,0
-168,-384,0,0,0,0,0,0,0,0,0,-1,1056,1408,0,0
-161,-384,0,0,0,0,0,0,0,0,0,-1,1063,1408,0,0
-154,-384,0,0,0,0,0,0,0,0,0,-1,1070,1408,0,0
-147,-384,0,0,0,0,0,0,0,0,0,-1,1077,1408,0,0
-140,-384,0,0,0,0,0,0,0,0,0,-1,1084,1408,0,0
-133,-384,0,0,0,0,0,0,0,0,0,-1,1091,1408,0,0
-126,-384,0,0,0,0,0,0,0,0,0,-1,1098,1408,0,0
-119,-384,0,0,0,0,0,0,0,0,0,-1,1105,1408,0,0
-112,-384,0,0,0,0,0,0,0,0,0,-1,1112,1408,0,0
-105,-384,0,0,0,0,0,0,0,0,0,-1,1119,1408,0,0
-98,-384,0,0,0,0,0,0,0,0,0,-1,1126,1408,0,0
-91,-384,0,0,0,0,0,0,0,0,0,-1,1133,1408,0,0
-84,-384,0,0,0,0,0,0,0,0,0,-1,1140,1408,0,0
-77,-384,0,0,0,0,0,0,0,0,0,-1,1147,1408,0,0
-70,-384,0,0,0,0,0,0,0,0,0,-1,1154,1408,0,0
-63,-384,0,0,0,0,0,0,0,0,0,-1,1161,1408,0,0
-56,-384,0,0,0,0,0,0,0,0,0,-1,1168,1408,0,0
-49,-384,0,0,0,0,0,0,0,0,0,-1,1175,1408,0,0
-42,-384,0,0,0,0,0,0,0,0,0,-1,1182,1408,0,0
-35,-384,0,0,0,0,0,0,0,0,0,-1,1189,1408,0,0
-28,-384,0,0,0,0,0,0,0,0,0,-1,1196,1408,0,0
-21,-384,0,0,0,0,0,0,0,0,0,-1,1203,1408,0,0
-14,-384,0,0,0,0,0,0,0,0,0,-1,1210,1408,0,0
-7,-384,0,0,0,0,0,0,0,0,0,-1,1217,1408,0,0
0,-384,0,0,0,0,0,0,0,0,0,-1,1224,1408,0,0
7,-384,0,0,0,0,0,0,0,0,0,-1,1231,1408,0,0
14,-384,0,0,0,0,0,0,0,0,0,-1,1238,1408,0,0
21,-384,0,0,0,0,0,0,0,0,0,-1,1245,1408,0,0
28,-384,0,0,0,0,0,0,0,0,0,-1,1252,1408,0,0
35,-384,0,0,0,0,0,0,0,0,0,-1,1259,1408,0,0
42,-384,0,0,0,0,0,0,0,0,0,-1,1266,1408,0,0
49,-384,0,0,0,0,0,0,0,0,0,-1,1273,1408,0,0
56,-384,0,0,0,0,0,0,0,0,0,-1,1280,1408,0,0
63,-384,0,0,0,0,0,0,0,0,0,-1,1287,1408,0,0
70,-384,0,0,0,0,0,0,0,0,0,-1,1294,1408,0,0
77,-384,0,0,0,0,0,0,0,0,0,-1,1301,1408,0,0
84,-384,0,0,0,0,0,0,0,0,0,-1,1308,1408,0,0
91,-384,0,0,0,0,0,0,0,0,0,-1,1315,1408,0,0
98,-384,0,0,0,0,0,0,0,0,0,-1,1322,1408,0,0
105,-384,0,0,0,0,0,0,0,0,0,-1,1329,1408,0,0
112,-384,0,0,0,0,0,0,0,0,0,-1,1336,1408,0,0
119,-384,0,0,0,0,0,0,0,0,0,-1,1343,1408,0,0
126,-384,0,0,0,0,0,0,0,0,0,-1,1350,1408,0,0
133,-384,0,0,0,0,0,0,0,0,0,-1,1357,1408,0,0
140,-384,0,0,0,0,0,0,0,0,0,-1,1364,1408,0,0
147,-384,0,0,0,0,0,0,0,0,0,-1,1371,1408,0,0
154,-384,0,0,0,0,0,0,0,0,0,-1,1378,1408,0,0
161,-384,0,0,0,0,0,0,0,0,0,-1,1385,1408,0,0
168,-384,0,0,0,0,0,0,0,0,0,-1,1392,1408,0,0
175,-384,0,0,0,0,0,0,0,0,0,-1,1399,1408,0,0
182,-384,0,0,0,0,0,0,0,0,0,-1,1406,1408,0,0
189,-384,0,0,0,0,0,0,0,0,0,-1,1413,1408,0,0
196,-384,0,0,0,0,0,0,0,0,0,-1,1420,1408,0,0
203,-384,0,0,0,0,0,0,0,0,0,-1,1427,1408,0,0
210,-384,0,0,0,0,0,0,0,0,0,-1,1434,1408,0,0
217,-384,0,0,0,0,0,0,0,0,0,-1,1441,1408,0,0
224,-384,0,0,0,0,0,0,0,0,0,-1,1448,1408,0,0
231,-384,0,0,0,0,0,0,0,0,0,-1,1455,1408,0,0
238,-384,0,0,0,0,0,0,0,0,0,-1,1462,1408,0,0
245,-384,0,0,0,0,0,0,0,0,0,-1,1469,1408,0,0
252,-384,0,0,0,0,0,0,0,0,0,-1,1476,1408,0,0
259,-384,0,0,0,0,0,0,0,0,0,-1,1483,1408,0,0
266,-384,0,0,0,0,0,0,0,0,0,-1,1490,1408,0,0
273,-384,0,0,0,0,0,0,0,0,0,-1,1497,1408,0,0
280,-384,0,0,0,0,0,0,0,0,0,-1,1504,1408,0,0
287,-384,0,0,0,0,0,0,0,0,0,-1,1511,1408,0,0
294,-384,0,0,0,0,0,0,0,0,0,-1,1518,1408,0,0
301,-384,0,0,0,0,0,0,0,0,0,-1,1525,1408,0,0
308,-384,0,0,0,0,0,0,0,0,0,-1,1532,1408,0,0
315,-384,0,0,0,0,0,0,0,0,0,-1,1539,1408,0,0
322,-384,0,0,0,0,0,0,0,0,0,-1,1546,1408,0,0
329,-384,0,0,0,0,0,0,0,0,0,-1,1553,1408,0,0
336,-384,0,0,0,0,0,0,0,0,0,-1,1560,1408,0,0
343,-384,0,0,0,0,0,0,0,0,0,-1,1567,1408,0,0
350,-384,0,0,0,0,0,0,0,0,0,-1,1574,1408,0,0
357,-384,0,0,0,0,0,0,0,0,0,-1,1581,1408,0,0
364,-384,0,0,0,0,0,0,0,0,0,-1,1588,1408,0,0
371,-384,0,0,0,0,0,0,0,0,0,-1,1595,1408,0,0
378,-384,0,0,0,0,0,0,0,0,0,-1,1602,1408,0,0
385,-384,0,0,0,0,0,0,0,0,0,-1,1609,1408,0,0
392,-384,0,0,0,0,0,0,0,0,0,-1,1616,1408,0,0
399,-384,0,0,0,0,0,0,0,0,0,-1,1623,1408,0,0
406,-384,0,0,0,0,0,0,0,0,0,-1,1630,1408,0,0
413,-384,0,0,0,0,0,0,0,0,0,-1,1637,1408,0,0
420,-384,0,0,0,0,0,0,0,0,0,-1,1644,1408,0,0
427,-384,0,0,0,0,0,0,0,0,0,-1,1651,1408,0,0
434,-384,0,0,0,0,0,0,0,0,0,-1,1658,1408,0,0
441,-384,0,0,0,0,0,0,0,0,0,-1,1665,1408,0,0
448,-384,0,0,0,0,0,0,0,0,0,-1,1672,1408,0,0
455,-384,0,0,0,0,0,0,0,0,0,-1,1679,1408,0,0
462,-384,0,0,0,0,0,0,0,0,0,-1,1686,1408,0,0
469,-384,0,0,0,0,0,0,0,0,0,-1,1693,1408,0,0
476,-384,0,0,0,0,0,0,0,0,0,-1,1700,1408,0,0
483,-384,0,0,0,0,0,0,0,0,0,-1,1707,1408,0,0
490,-384,0,0,0,0,0,0,0,0,0,-1,1714,1408,0,0
497,-384,0,0,0,0,0,0,0,0,0,-1,1721,1408,0,0
504,-384,0,0,0,0,0,0,0,0,0,-1,1728,1408,0,0
511,-384,0,0,0,0,0,0,0,0,0,-1,1735,1408,0,0
518,-384,0,0,0,0,0,0,0,0,0,-1,1742,1408,0,0
525,-384,0,0,0,0,0,0,0,0,0,-1,1749,1408,0,0
532,-384,0,0,0,0,0,0,0,0,0,-1,1756,1408,0,0
539,-384,-0.760986,0.474243,0,0,0,0,0,0,0,-1,1763,1408,-0.761043,-0.474223
546,-384,0.95459,0.0516357,0,0,0,0,0,0,0,-1,1770,1408,0.954606,-0.05166
553,-384,2.53723,0.934204,0,0,0,0,0,0,0,-1,1777,1408,2.53719,-0.934203
560,-384,2.2572,0.110962,0,0,0,0,0,0,0,-1,1784,1408,2.25721,-0.110946
567,-384,1.34192,-0.318726,-0.0164879,0.00191663,0.00243457,0.00223323,-0.0168045,1.44148,0.0120168,0.0402931,1791,1408,1.34198,0.318714
574,-384,0.43396,-0.74939,-0.0137068,0.00268185,0.00343096,0.00337113,-0.0143961,1.37254,0.0108964,0.0392592,1798,1408,0.433936,0.749396
581,-384,0.211304,0.230225,-0.0110584,0.00181945,0.00540876,0.00378971,-0.0130287,1.22146,0.0101868,0.0405758,1805,1408,0.211252,-0.230252
588,-384,0.279541,0.202026,-0.00845471,0.00092959,0.00719786,0.00482962,-0.0123547,1.07425,0.0102336,0.0423758,1812,1408,0.279583,-0.201987
595,-384,0.713379,0.58374,0,0,0,0,0,0,0,-1,1819,1408,0.713395,-0.583703
602,-384,0.409668,0.0841064,-0.00485037,-0.000292053,0.00856092,0.00628791,-0.0114303,0.915495,0.0103723,0.0416671,1826,1408,0.409643,-0.0841071
609,-384,0.0827637,-0.0820313,-0.00381889,-0.000904286,0.00823279,0.00599918,-0.0107224,0.872997,0.00978172,0.0425122,1833,1408,0.0827907,0.0819808
616,-384,-0.00744629,-0.108887,-0.00297579,-0.00101568,0.00761437,0.00568145,-0.00967292,0.849402,0.00896414,0.0397757,1840,1408,-0.0073998,0.108852
623,-384,-0.0322266,-0.0736084,-0.00193393,-0.00113246,0.00666671,0.00514555,-0.00821194,0.815417,0.00777939,0.0254697,1847,1408,-0.032227,0.0736218
630,-384,-0.0255127,-0.0753174,-0.00155606,-0.00161159,0.00575197,0.00416821,-0.00733586,0.782985,0.00672528,0.0141791,1854,1408,-0.0254947,0.075283
637,-384,-0.0289307,-0.065918,-0.00157223,-0.00135031,0.00454464,0.00308472,-0.00600726,0.797604,0.00533889,0.0124248,1861,1408,-0.0289852,0.0659717
644,-384,-0.0296631,-0.0788574,-0.00129476,-0.00109993,0.00351548,0.00231949,-0.00471418,0.79925,0.0041386,0.0141112,1868,1408,-0.0296943,0.0788567
651,-384,-0.0303955,-0.0880127,-0.000277655,-0.000728578,0.00289995,0.00240559,-0.00341182,0.746603,0.00337539,0.0143037,1875,1408,-0.0304392,0.0879691
658,-384,-0.0324707,-0.0991211,0.00183344,-0.000706117,0.00300077,0.00382203,-0.00269471,0.585247,0.00378116,0.0138165,1882,1408,-0.0324613,0.0990673
665,-384,-0.00708008,-0.0793457,0.00334552,-0.000456436,0.00290819,0.00491891,-0.00202983,0.495925,0.00412583,0.0135785,1889,1408,-0.00713069,0.0793872
672,-384,0.00830078,-0.0839844,0.00452606,0.000330021,0.00301567,0.00610173,-0.00124564,0.481479,0.00454035,0.0117553,1896,1408,0.0082771,0.0839611
679,-384,-0.0157471,-0.0889893,0.00551946,0.00191615,0.00369046,0.00782457,-0.000388952,0.55832,0.00535074,0.0134815,1903,1408,-0.0157026,0.0890419
686,-384,-0.0236816,-0.079834,0.0067456,0.00296843,0.00502664,0.0102267,-0.000512708,0.605699,0.00699499,0.0121221,1910,1408,-0.0236332,0.0798126
693,-384,-0.0477295,-0.0983887,0.00810099,0.00417043,0.0067524,0.0131683,-0.000896879,0.643786,0.00909258,0.014121,1917,1408,-0.0477573,0.0984441
700,-384,-0.184448,-0.208862,0.00930508,0.00628193,0.00847124,0.0163985,-0.000811537,0.697109,0.0112127,0.0286142,1924,1408,-0.184478,0.208847
707,-384,-0.169678,-0.518066,0.00964876,0.00922488,0.0104441,0.019883,-0.00100939,0.775253,0.0136043,0.0404876,1931,1408,-0.169656,0.518045
714,-384,0.168579,-0.641846,0.00900802,0.0129101,0.0126982,0.0238063,-0.00188818,0.861625,0.0165362,0.0435536,1938,1408,0.168588,0.641791
721,-384,0.282471,-0.416992,0.00705731,0.017327,0.0152919,0.0283232,-0.00393887,0.947377,0.0203227,0.0438298,1945,1408,0.282429,0.417001
728,-384,-0.0563965,-0.317871,0.00350685,0.0223654,0.0182943,0.0335175,-0.00764525,1.02335,0.0252817,0.0439536,1952,1408,-0.0563872,0.317851
735,-384,-0.316528,-0.512817,0,0,0,0,0,0,0,-1,1959,1408,-0.316579,0.512796
742,-384,0,0,0,0,0,0,0,0,0,-1,1966,1408,0,0
749,-384,0,0,0,0,0,0,0,0,0,-1,1973,1408,0,0
756,-384,0,0,0,0,0,0,0,0,0,-1,1980,1408,0,0
763,-384,0,0,0,0,0,0,0,0,0,-1,1987,1408,0,0
770,-384,0,0,0,0,0,0,0,0,0,-1,1994,1408,0,0
777,-384,0,0,0,0,0,0,0,0,0,-1,2001,1408,0,0
784,-384,0,0,0,0,0,0,0,0,0,-1,2008,1408,0,0
791,-384,0,0,0,0,0,0,0,0,0,-1,2015,1408,0,0
798,-384,0,0,0,0,0,0,0,0,0,-1,2022,1408,0,0
805,-384,0,0,0,0,0,0,0,0,0,-1,2029,1408,0,0
812,-384,0,0,0,0,0,0,0,0,0,-1,2036,1408,0,0
-700,-391,0,0,0,0,0,0,0,0,0,-1,524,1415,0,0
-693,-391,0,0,0,0,0,0,0,0,0,-1,531,1415,0,0
-686,-391,0,0,0,0,0,0,0,0,0,-1,538,1415,0,0
-679,-391,0,0,0,0,0,0,0,0,0,-1,545,1415,0,0
-672,-391,0,0,0,0,0,0,0,0,0,-1,552,1415,0,0
-665,-391,0,0,0,0,0,0,0,0,0,-1,559,1415,0,0
-658,-391,0,0,0,0,0,0,0,0,0,-1,566,1415,0,0
-651,-391,0,0,0,0,0,0,0,0,0,-1,573,1415,0,0
-644,-391,0,0,0,0,0,0,0,0,0,-1,580,1415,0,0
-637,-391,0,0,0,0,0,0,0,0,0,-1,587,1415,0,0
-630,-391,0,0,0,0,0,0,0,0,0,-1,594,1415,0,0
-623,-391,0,0,0,0,0,0,0,0,0,-1,601,1415,0,0
-616,-391,0,0,0,0,0,0,0,0,0,-1,608,1415,0,0
-609,-391,0.0840454,0.195068,0.0424882,-0.00429193,0.0143137,0.0465204,-0.00832407,0.274582,0.0341284,0.0417439,615,1415,0.084064,-0.195011
-602,-391,0.299744,0.5177,0.0351642,-0.00612756,0.00965615,0.0373108,-0.00827408,0.218739,0.0280418,0.0449969,622,1415,0.299764,-0.51766
-595,-391,1.0611,0.876709,0,0,0,0,0,0,0,-1,629,1415,1.06112,-0.87669
-588,-391,1.67676,-0.0848389,0,0,0,0,0,0,0,-1,636,1415,1.67674,0.0848472
-581,-391,1.84851,-0.614502,0,0,0,0,0,0,0,-1,643,1415,1.84849,0.61447
-574,-391,0.0822754,0.0183105,0.010877,-0.00194611,0.00120153,0.0109886,-0.00205772,0.0926263,0.00809926,0.0475532,650,1415,0.0822603,-0.0183703
-567,-391,-0.0146484,-0.0957031,0.00716641,-0.000996475,0.000573757,0.00720654,-0.00103661,0.0698309,0.00518456,0.0457495,657,1415,-0.0146504,0.0956696
-560,-391,-0.0321655,-0.0999756,0.00446252,-0.000586958,0.000216275,0.00447177,-0.000596204,0.0427269,0.00319849,0.0328972,664,1415,-0.0321467,0.0999685
-553,-391,-0.00158691,-0.102173,0.00238741,-5.40485e-05,-3.73108e-06,0.00238741,-5.40541e-05,-0.00152822,0.00160993,0.0178181,671,1415,-0.00158745,0.10213
-546,-391,-0.0120239,-0.0766602,0.000310177,0.000989201,-7.66048e-05,0.000997736,0.000301642,-1.45984,0.000590859,0.0109876,678,1415,-0.0120193,0.0766404
-539,-391,-0.0228882,-0.0900879,-0.00128882,0.00214432,7.38121e-05,0.0021459,-0.00129041,1.54931,0.00200434,0.0135587,685,1415,-0.0228854,0.0900427
-532,-391,-0.0218506,-0.0826416,-0.00150715,0.00211567,0.000709457,0.00224965,-0.00164113,1.38415,0.00225548,0.0230517,692,1415,-0.021854,0.0826576
-525,-391,0.015625,-0.060791,-0.00126792,0.000997834,0.000677325,0.00118487,-0.00145496,1.30137,0.00152677,0.0214112,699,1415,0.0156044,0.0607323
-518,-391,-0.0176392,-0.0703125,-0.00141581,0.000922366,0.000741752,0.00113782,-0.00163126,1.28811,0.00160717,0.0127733,706,1415,-0.0176366,0.0702796
-511,-391,-0.0396729,-0.0654297,-0.00202166,0.000936801,0.000661245,0.00107787,-0.00216273,1.36061,0.00190559,0.0101171,713,1415,-0.0396637,0.0654831
-504,-391,-0.0371704,-0.0490723,-0.0023902,0.000959804,9.7335e-05,0.00096263,-0.00239303,1.54177,0.0019952,0.00907691,720,1415,-0.037164,0.0490871
-497,-391,-0.0317383,-0.0571289,-0.0024071,0.00117607,-0.000737098,0.00132177,-0.0025528,-1.37564,0.00227431,0.00879357,727,1415,-0.0317685,0.0571821
-490,-391,-0.0161133,-0.0911865,-0.00183441,0.00102346,-0.00164096,0.00177044,-0.00258139,-1.14362,0.00252703,0.0108766,734,1415,-0.0161174,0.0912151
-483,-391,-0.0601807,-0.0809326,-0.000773175,0.000563903,-0.00314507,0.00311071,-0.00331998,-0.890123,0.00371341,0.0246866,741,1415,-0.0601975,0.0809747
-476,-391,-0.181641,0.00195313,0.000914397,-0.000780073,-0.00448123,0.00462778,-0.00449345,-0.691969,0.00526633,0.0374013,748,1415,-0.181629,-0.00192342
-469,-391,-0.279724,-0.0786133,0.00282435,-0.00177864,-0.00554428,0.00652584,-0.00548014,-0.588666,0.00694042,0.0437819,755,1415,-0.279695,0.0786458
-462,-391,-0.174622,-0.258301,0.00513121,-0.00309922,-0.00625443,0.00850285,-0.00647085,-0.49442,0.00867156,0.0420705,762,1415,-0.174637,0.258241
-455,-391,0.0745239,-0.533325,0.0077755,-0.00462108,-0.00645958,0.0105296,-0.00737517,-0.403019,0.0103906,0.0441719,769,1415,0.0745106,0.533329
-448,-391,-0.26178,-0.254639,0.0102976,-0.00657892,-0.00622572,0.0123457,-0.00862702,-0.317822,0.0121719,0.0474841,776,1415,-0.261805,0.25469
-441,-391,-0.172363,-0.514771,0.0127541,-0.00862677,-0.0050011,0.0138661,-0.00973872,-0.218782,0.0136975,0.0481947,783,1415,-0.172347,0.514741
-434,-391,0.0863037,-0.820679,0.0145761,-0.0101265,-0.00269651,0.014867,-0.0104174,-0.107473,0.0146731,0.0464,790,1415,0.0862805,0.820621
-427,-391,0.228088,-1.01233,0.0154696,-0.011125,0.000439228,0.0154768,-0.0111323,0.0165097,0.0154309,0.0449631,797,1415,0.228069,1.01237
-420,-391,0.466736,-0.680786,0.0149466,-0.0110175,0.00465203,0.015755,-0.0118259,0.172044,0.0159776,0.0436609,804,1415,0.466724,0.680728
-413,-391,0,0,0,0,0,0,0,0,0,-1,811,1415,0,0
-406,-391,0,0,0,0,0,0,0,0,0,-1,818,1415,0,0
-399,-391,0,0,0,0,0,0,0,0,0,-1,825,1415,0,0
-392,-391,0,0,0,0,0,0,0,0,0,-1,832,1415,0,0
-385,-391,0,0,0,0,0,0,0,0,0,-1,839,1415,0,0
-378,-391,0,0,0,0,0,0,0,0,0,-1,846,1415,0,0
-371,-391,0,0,0,0,0,0,0,0,0,-1,853,1415,0,0
-364,-391,0,0,0,0,0,0,0,0,0,-1,860,1415,0,0
-357,-391,0,0,0,0,0,0,0,0,0,-1,867,1415,0,0
-350,-391,0,0,0,0,0,0,0,0,0,-1,874,1415,0,0
-343,-391,0,0,0,0,0,0,0,0,0,-1,881,1415,0,0
-336,-391,0,0,0,0,0,0,0,0,0,-1,888,1415,0,0
-329,-391,0,0,0,0,0,0,0,0,0,-1,895,1415,0,0
-322,-391,0,0,0,0,0,0,0,0,0,-1,902,1415,0,0
-315,-391,0,0,0,0,0,0,0,0,0,-1,909,1415,0,0
-308,-391,0,0,0,0,0,0,0,0,0,-1,916,1415,0,0
-301,-391,0,0,0,0,0,0,0,0,0,-1,923,1415,0,0
-294,-391,0,0,0,0,0,0,0,0,0,-1,930,1415,0,0
-287,-391,0,0,0,0,0,0,0,0,0,-1,937,1415,0,0
-280,-391,0,0,0,0,0,0,0,0,0,-1,944,1415,0,0
-273,-391,0,0,0,0,0,0,0,0,0,-1,951,1415,0,0
-266,-391,0,0,0,0,0,0,0,0,0,-1,958,1415,0,0
-259,-391,0,0,0,0,0,0,0,0,0,-1,965,1415,0,0
-252,-391,0,0,0,0,0,0,0,0,0,-1,972,1415,0,0
-245,-391,0,0,0,0,0,0,0,0,0,-1,979,1415,0,0
-238,-391,0,0,0,0,0,0,0,0,0,-1,986,1415,0,0
-231,-391,0,0,0,0,0,0,0,0,0,-1,993,1415,0,0
-224,-391,0,0,0,0,0,0,0,0,0,-1,1000,1415,0,0
-217,-391,0,0,0,0,0,0,0,0,0,-1,1007,1415,0,0
-210,-391,0,0,0,0,0,0,0,0,0,-1,1014,1415,0,0
-203,-391,0,0,0,0,0,0,0,0,0,-1,1021,1415,0,0
-196,-391,0,0,0,0,0,0,0,0,0,-1,1028,1415,0,0
-189,-391,0,0,0,0,0,0,0,0,0,-1,1035,1415,0,0
-182,-391,0,0,0,0,0,0,0,0,0,-1,1042,1415,0,0
-175,-391,0,0,0,0,0,0,0,0,0,-1,1049,1415,0,0
-168,-391,0,0,0,0,0,0,0,0,0,-1,1056,1415,0,0
-161,-391,0,0,0,0,0,0,0,0,0,-1,1063,1415,0,0
-154,-391,0,0,0,0,0,0,0,0,0,-1,1070,1415,0,0
-147,-391,0,0,0,0,0,0,0,0,0,-1,1077,1415,0,0
-140,-391,0,0,0,0,0,0,0,0,0,-1,1084,1415,0,0
-133,-391,0,0,0,0,0,0,0,0,0,-1,1091,1415,0,0
-126,-391,0,0,0,0,0,0,0,0,0,-1,1098,1415,0,0
-119,-391,0,0,0,0,0,0,0,0,0,-1,1105,1415,0,0
-112,-391,0,0,0,0,0,0,0,0,0,-1,1112,1415,0,0
-105,-391,0,0,0,0,0,0,0,0,0,-1,1119,1415,0,0
-98,-391,0,0,0,0,0,0,0,0,0,-1,1126,1415,0,0
-91,-391,0,0,0,0,0,0,0,0,0,-1,1133,1415,0,0
-84,-391,0,0,0,0,0,0,0,0,0,-1,1140,1415,0,0
-77,-391,0,0,0,0,0,0,0,0,0,-1,1147,1415,0,0
-70,-391,0,0,0,0,0,0,0,0,0,-1,1154,1415,0,0
-63,-391,0,0,0,0,0,0,0,0,0,-1,1161,1415,0,0
-56,-391,0,0,0,0,0,0,0,0,0,-1,1168,1415,0,0
-49,-391,0,0,0,0,0,0,0,0,0,-1,1175,1415,0,0
-42,-391,0,0,0,0,0,0,0,0,0,-1,1182,1415,0,0
-35,-391,0,0,0,0,0,0,0,0,0,-1,1189,1415,0,0
-28,-391,0,0,0,0,0,0,0,0,0,-1,1196,1415,0,0
-21,-391,0,0,0,0,0,0,0,0,0,-1,1203,1415,0,0
-14,-391,0,0,0,0,0,0,0,0,0,-1,1210,1415,0,0
-7,-391,0,0,0,0,0,0,0,0,0,-1,1217,1415,0,0
0,-391,0,0,0,0,0,0,0,0,0,-1,1224,1415,0,0
7,-391,0,0,0,0,0,0,0,0,0,-1,1231,1415,0,0
14,-391,0,0,0,0,0,0,0,0,0,-1,1238,1415,0,0
21,-391,0,0,0,0,0,0,0,0,0,-1,1245,1415,0,0
28,-391,0,0,0,0,0,0,0,0,0,-1,1252,1415,0,0
35,-391,0,0,0,0,0,0,0,0,0,-1,1259,1415,0,0
42,-391,0,0,0,0,0,0,0,0,0,-1,1266,1415,0,0
49,-391,0,0,0,0,0,0,0,0,0,-1,1273,1415,0,0
56,-391,0,0,0,0,0,0,0,0,0,-1,1280,1415,0,0
63,-391,0,0,0,0,0,0,0,0,0,-1,1287,1415,0,0
70,-391,0,0,0,0,0,0,0,0,0,-1,1294,1415,0,0
77,-391,0,0,0,0,0,0,0,0,0,-1,1301,1415,0,0
84,-391,0,0,0,0,0,0,0,0,0,-1,1308,1415,0,0
91,-391,0,0,0,0,0,0,0,0,0,-1,1315,1415,0,0
98,-391,0,0,0,0,0,0,0,0,0,-1,1322,1415,0,0
105,-391,0,0,0,0,0,0,0,0,0,-1,1329,1415,0,0
112,-391,0,0,0,0,0,0,0,0,0,-1,1336,1415,0,0
119,-391,0,0,0,0,0,0,0,0,0,-1,1343,1415,0,0
126,-391,0,0,0,0,0,0,0,0,0,-1,1350,1415,0,0
133,-391,0,0,0,0,0,0,0,0,0,-1,1357,1415,0,0
140,-391,0,0,0,0,0,0,0,0,0,-1,1364,1415,0,0
147,-391,0,0,0,0,0,0,0,0,0,-1,1371,1415,0,0
154,-391,0,0,0,0,0,0,0,0,0,-1,1378,1415,0,0
161,-391,0,0,0,0,0,0,0,0,0,-1,1385,1415,0,0
168,-391,0,0,0,0,0,0,0,0,0,-1,1392,1415,0,0
175,-391,0,0,0,0,0,0,0,0,0,-1,1399,1415,0,0
182,-391,0,0,0,0,0,0,0,0,0,-1,1406,1415,0,0
189,-391,0,0,0,0,0,0,0,0,0,-1,1413,1415,0,0
196,-391,0,0,0,0,0,0,0,0,0,-1,1420,1415,0,0
203,-391,0,0,0,0,0,0,0,0,0,-1,1427,1415,0,0
210,-391,0,0,0,0,0,0,0,0,0,-1,1434,1415,0,0
217,-391,0,0,0,0,0,0,0,0,0,-1,1441,1415,0,0
224,-391,0,0,0,0,0,0,0,0,0,-1,1448,1415,0,0
231,-391,0,0,0,0,0,0,0,0,0,-1,1455,1415,0,0
238,-391,0,0,0,0,0,0,0,0,0,-1,1462,1415,0,0
245,-391,0,0,0,0,0,0,0,0,0,-1,1469,1415,0,0
252,-391,0,0,0,0,0,0,0,0,0,-1,1476,1415,0,0
259,-391,0,0,0,0,0,0,0,0,0,-1,1483,1415,0,0
266,-391,0,0,0,0,0,0,0,0,0,-1,1490,1415,0,0
273,-391,0,0,0,0,0,0,0,0,0,-1,1497,1415,0,0
280,-391,0,0,0,0,0,0,0,0,0,-1,1504,1415,0,0
287,-391,0,0,0,0,0,0,0,0,0,-1,1511,1415,0,0
294,-391,0,0,0,0,0,0,0,0,0,-1,1518,1415,0,0
301,-391,0,0,0,0,0,0,0,0,0,-1,1525,1415,0,0
308,-391,0,0,0,0,0,0,0,0,0,-1,1532,1415,0,0
315,-391,0,0,0,0,0,0,0,0,0,-1,1539,1415,0,0
322,-391,0,0,0,0,0,0,0,0,0,-1,1546,1415,0,0
329,-391,0,0,0,0,0,0,0,0,0,-1,1553,1415,0,0
336,-391,0,0,0,0,0,0,0,0,0,-1,1560,1415,0,0
343,-391,0,0,0,0,0,0,0,0,0,-1,1567,1415,0,0
350,-391,0,0,0,0,0,0,0,0,0,-1,1574,1415,0,0
357,-391,0,0,0,0,0,0,0,0,0,-1,1581,1415,0,0
364,-391,0,0,0,0,0,0,0,0,0,-1,1588,1415,0,0
371,-391,0,0,0,0,0,0,0,0,0,-1,1595,1415,0,0
378,-391,0,0,0,0,0,0,0,0,0,-1,1602,1415,0,0
385,-391,0,0,0,0,0,0,0,0,0,-1,1609,1415,0,0
392,-391,0,0,0,0,0,0,0,0,0,-1,1616,1415,0,0
399,-391,0,0,0,0,0,0,0,0,0,-1,1623,1415,0,0
406,-391,0,0,0,0,0,0,0,0,0,-1,1630,1415,0,0
413,-391,0,0,0,0,0,0,0,0,0,-1,1637,1415,0,0
420,-391,0,0,0,0,0,0,0,0,0,-1,1644,1415,0,0
427,-391,0,0,0,0,0,0,0,0,0,-1,1651,1415,0,0
434,-391,0,0,0,0,0,0,0,0,0,-1,1658,1415,0,0
441,-391,0,0,0,0,0,0,0,0,0,-1,1665,1415,0,0
448,-391,0,0,0,0,0,0,0,0,0,-1,1672,1415,0,0
455,-391,0,0,0,0,0,0,0,0,0,-1,1679,1415,0,0
462,-391,0,0,0,0,0,0,0,0,0,-1,1686,1415,0,0
469,-391,0,0,0,0,0,0,0,0,0,-1,1693,1415,0,0
476,-391,0,0,0,0,0,0,0,0,0,-1,1700,1415,0,0
483,-391,0,0,0,0,0,0,0,0,0,-1,1707,1415,0,0
490,-391,0,0,0,0,0,0,0,0,0,-1,1714,1415,0,0
497,-391,0,0,0,0,0,0,0,0,0,-1,1721,1415,0,0
504,-391,0,0,0,0,0,0,0,0,0,-1,1728,1415,0,0
511,-391,0,0,0,0,0,0,0,0,0,-1,1735,1415,0,0
518,-391,0,0,0,0,0,0,0,0,0,-1,1742,1415,0,0
525,-391,0,0,0,0,0,0,0,0,0,-1,1749,1415,0,0
532,-391,-2.36487,-0.0733643,0,0,0,0,0,0,0,-1,1756,1415,-2.36485,0.0733625
539,-391,-0.752197,-0.164795,0,0,0,0,0,0,0,-1,1763,1415,-0.752221,0.164813
546,-391,0.887939,-0.403809,0,0,0,0,0,0,0,-1,1770,1415,0.88789,0.403866
553,-391,2.31226,-0.541748,0,0,0,0,0,0,0,-1,1777,1415,2.3122,0.541798
560,-391,1.73474,0.905518,0,0,0,0,0,0,0,-1,1784,1415,1.73473,-0.90556
567,-391,1.21533,-0.391479,0,0,0,0,0,0,0,-1,1791,1415,1.21536,0.391466
574,-391,0.654175,-0.552979,-0.015885,0.00103618,0.00136312,0.00114528,-0.0159941,1.49093,0.0110643,0.0412814,1798,1415,0.654119,0.552975
581,-391,0.174561,-0.257202,-0.0134917,0.000132268,0.00268554,0.000642527,-0.0140019,1.38303,0.009556,0.0413547,1805,1415,0.174591,0.257221
588,-391,0.180908,-0.154419,-0.0106456,-0.000675713,0.00420899,0.000863547,-0.0121849,1.2202,0.00842586,0.0457562,1812,1415,0.180942,0.154367
595,-391,0.198853,0.00610352,-0.00819936,-0.00117366,0.00531236,0.00168226,-0.0110553,1.07752,0.0079902,0.0498464,1819,1415,0.198879,-0.00605545
602,-391,0.136108,0.0111084,-0.0060755,-0.00101816,0.00592275,0.00289313,-0.00998679,0.987155,0.00780311,0.0486507,1826,1415,0.136109,-0.0110987
609,-391,0.0627441,-0.015625,-0.00458601,-0.00129512,0.00590897,0.00319323,-0.00907436,0.921191,0.00734899,0.0395315,1833,1415,0.0627705,0.0156852
616,-391,-0.0150146,-0.0574951,-0.00338823,-0.00116726,0.00567576,0.00350563,-0.00806111,0.882005,0.00684853,0.0241376,1840,1415,-0.015029,0.0574589
623,-391,-0.0366211,-0.0916748,-0.00211522,-0.00115736,0.00504236,0.00342876,-0.00670134,0.832747,0.00594948,0.0135414,1847,1415,-0.0366337,0.0916662
630,-391,-0.0217285,-0.0842285,-0.00151015,-0.00145098,0.00444833,0.00296786,-0.00592899,0.788723,0.00523057,0.0145598,1854,1415,-0.0216836,0.0842463
637,-391,-0.00695801,-0.0714111,-0.0013737,-0.00118738,0.0036076,0.00232827,-0.00488935,0.798307,0.00425364,0.0145207,1861,1415,-0.00695587,0.071422
644,-391,-0.0223389,-0.0698242,-0.000970107,-0.00095927,0.00297583,0.00201115,-0.00394053,0.786309,0.00349587,0.0150885,1868,1415,-0.0223535,0.0697975
651,-391,-0.0356445,-0.0803223,0.000299331,-0.000602682,0.00276938,0.00265419,-0.00295754,0.704679,0.00324151,0.0152418,1875,1415,-0.0356749,0.0803394
658,-391,-0.0284424,-0.0852051,0.00279548,-0.000588197,0.00325316,0.00477043,-0.00256315,0.545615,0.00429749,0.0141877,1882,1415,-0.0283908,0.0852132
665,-391,-0.0245361,-0.0668945,0.00469423,-0.000323356,0.00352416,0.00651137,-0.0021405,0.47607,0.00520331,0.0110544,1889,1415,-0.0244861,0.0668678
672,-391,-0.0274658,-0.0723877,0.00635838,0.000542616,0.00401622,0.00840891,-0.00150791,0.472061,0.0061703,0.0102601,1896,1415,-0.027484,0.0724328
679,-391,-0.0256348,-0.0783691,0.00793337,0.00229935,0.0049936,0.0108497,-0.00061701,0.528587,0.00744735,0.0106726,1903,1415,-0.0256748,0.0783942
686,-391,-0.0205078,-0.0734863,0.00999403,0.00363493,0.00663587,0.0141728,-0.000543797,0.561985,0.00963489,0.0116288,1910,1415,-0.0204876,0.0735208
693,-391,-0.034668,-0.0876465,0.0123379,0.00537303,0.008648,0.0181783,-0.000467366,0.593987,0.0122776,0.0205868,1917,1415,-0.034676,0.0876384
700,-391,-0.0419922,-0.111084,0.0146202,0.00823461,0.0106887,0.0225828,0.000271976,0.640265,0.0149654,0.0368066,1924,1415,-0.0420435,0.111121
707,-391,-0.27356,-0.649902,0.0161075,0.0122488,0.0129065,0.0272281,0.00112825,0.711204,0.0177879,0.0445673,1931,1415,-0.273609,0.649959
714,-391,0.530029,-0.559326,0.016444,0.0175169,0.0152733,0.0322632,0.00169769,0.802953,0.0209658,0.0491308,1938,1415,0.530076,0.559357
721,-391,0.294312,-1.01233,0.015096,0.0241816,0.0177699,0.0379802,0.0012974,0.910541,0.0248989,0.0440146,1945,1415,0.294304,1.01239
728,-391,-0.145752,-1.23914,0.0114146,0.0322965,0.0203738,0.0447488,-0.00103774,1.02218,0.0301844,0.0430951,1952,1415,-0.145707,1.23909
735,-391,0,0,0,0,0,0,0,0,0,-1,1959,1415,0,0
742,-391,0,0,0,0,0,0,0,0,0,-1,1966,1415,0,0
749,-391,0,0,0,0,0,0,0,0,0,-1,1973,1415,0,0
756,-391,0,0,0,0,0,0,0,0,0,-1,1980,1415,0,0
763,-391,0,0,0,0,0,0,0,0,0,-1,1987,1415,0,0
770,-391,0,0,0,0,0,0,0,0,0,-1,1994,1415,0,0
777,-391,0,0,0,0,0,0,0,0,0,-1,2001,1415,0,0
784,-391,0,0,0,0,0,0,0,0,0,-1,2008,1415,0,0
791,-391,0,0,0,0,0,0,0,0,0,-1,2015,1415,0,0
798,-391,0,0,0,0,0,0,0,0,0,-1,2022,1415,0,0
805,-391,0,0,0,0,0,0,0,0,0,-1,2029,1415,0,0
812,-391,0,0,0,0,0,0,0,0,0,-1,2036,1415,0,0
-700,-398,0,0,0,0,0,0,0,0,0,-1,524,1422,0,0
-693,-398,0,0,0,0,0,0,0,0,0,-1,531,1422,0,0
-686,-398,0,0,0,0,0,0,0,0,0,-1,538,1422,0,0
-679,-398,0,0,0,0,0,0,0,0,0,-1,545,1422,0,0
-672,-398,0,0,0,0,0,0,0,0,0,-1,552,1422,0,0
-665,-398,0,0,0,0,0,0,0,0,0,-1,559,1422,0,0
-658,-398,0,0,0,0,0,0,0,0,0,-1,566,1422,0,0
-651,-398,0,0,0,0,0,0,0,0,0,-1,573,1422,0,0
-644,-398,0,0,0,0,0,0,0,0,0,-1,580,1422,0,0
-637,-398,0,0,0,0,0,0,0,0,0,-1,587,1422,0,0
-630,-398,0,0,0,0,0,0,0,0,0,-1,594,1422,0,0
-623,-398,0,0,0,0,0,0,0,0,0,-1,601,1422,0,0
-616,-398,0,0,0,0,0,0,0,0,0,-1,608,1422,0,0
-609,-398,2.97662,0.423706,0,0,0,0,0,0,0,-1,615,1422,2.97664,-0.423749
-602,-398,2.86487,0.0544434,0,0,0,0,0,0,0,-1,622,1422,2.86487,-0.0544394
-595,-398,1.51331,0.613647,0,0,0,0,0,0,0,-1,629,1422,1.5133,-0.613606
-588,-398,1.6629,0.0637207,0,0,0,0,0,0,0,-1,636,1422,1.66288,-0.0636891
-581,-398,1.81244,-0.486206,0,0,0,0,0,0,0,-1,643,1422,1.81246,0.486228
-574,-398,-0.351501,0.0947266,0.0140682,-0.00517197,0.00279987,0.0144673,-0.00557113,0.14161,0.0119432,0.0466933,650,1422,-0.351486,-0.0946938
-567,-398,-0.493469,-0.114868,0.00934127,-0.00286781,0.00183673,0.0096116,-0.00313814,0.146131,0.00767082,0.0454868,657,1422,-0.493443,0.11492
-560,-398,-0.277405,-0.0839844,0.00587683,-0.00158933,0.00122471,0.0060726,-0.0017851,0.158502,0.00475643,0.0364414,664,1422,-0.277408,0.0839507
-553,-398,-0.0300293,-0.0895996,0.00320521,-0.000483574,0.000761282,0.00335615,-0.000634509,0.195727,0.00247618,0.0210865,671,1422,-0.0300068,0.0895579
-546,-398,-0.00732422,-0.0787354,0.000693966,0.00115434,0.00042059,0.00140362,0.000444694,1.03578,0.000828308,0.00968667,678,1422,-0.00732864,0.0787406
-539,-398,-0.0160522,-0.0709229,-0.00139544,0.002522,0.000274312,0.00254112,-0.00141456,1.50123,0.00231448,0.0119325,685,1422,-0.0160306,0.0709145
-532,-398,-0.0150757,-0.0693359,-0.00170835,0.00249685,0.000812996,0.00264855,-0.00186006,1.38632,0.00261628,0.0194932,692,1422,-0.015066,0.0692922
-525,-398,0.00177002,-0.0620117,-0.00141432,0.00112877,0.000591253,0.00125952,-0.00154507,1.35317,0.00162202,0.0183304,699,1422,0.00174381,0.0619844
-518,-398,-0.0128174,-0.069458,-0.00150039,0.00109684,0.000520211,0.00119716,-0.00160071,1.38029,0.00162094,0.0157706,706,1422,-0.0128323,0.069448
-511,-398,-0.0118408,-0.0792236,-0.00205687,0.00111844,0.000312618,0.00114893,-0.00208736,1.47359,0.00189447,0.0115875,713,1422,-0.0118551,0.079247
-504,-398,-0.020813,-0.0670166,-0.0024048,0.0012303,-0.000381247,0.00126985,-0.00244436,-1.46742,0.00217984,0.0110947,720,1422,-0.0208036,0.0670329
-497,-398,-0.022583,-0.0738525,-0.00241692,0.0015631,-0.00127607,0.00193709,-0.00279091,-1.2857,0.00274451,0.00877244,727,1422,-0.0225872,0.073815
-490,-398,-0.0148926,-0.0793457,-0.00175501,0.00141832,-0.00216723,0.00251762,-0.00285431,-1.10138,0.00310351,0.00854002,734,1422,-0.0149,0.0793436
-483,-398,-0.0289917,-0.0908203,-0.00062208,0.0009741,-0.00355858,0.00382299,-0.00347097,-0.895709,0.0042128,0.0127018,741,1422,-0.0290063,0.0908471
-476,-398,-0.11145,-0.00256348,0.000988878,-0.000322549,-0.0047128,0.00509136,-0.00442503,-0.716275,0.00549878,0.0299718,748,1422,-0.111431,0.00262442
-469,-398,-0.260315,0.0367432,0.00272143,-0.00131063,-0.00547853,0.0065431,-0.0051323,-0.609094,0.00675718,0.042687,755,1422,-0.260336,-0.0367719
-462,-398,-0.0255127,-0.0390625,0.00478828,-0.00251662,-0.00572341,0.00792537,-0.00565371,-0.501395,0.00787637,0.0432762,762,1422,-0.0255108,0.0391166
-455,-398,-0.488892,0.470703,0.00715273,-0.00376955,-0.00544231,0.0094015,-0.00601832,-0.391836,0.00897378,0.0409001,769,1422,-0.488878,-0.470761
-448,-398,-0.448975,-0.242432,0.00933421,-0.00547867,-0.00475178,0.0107275,-0.00687193,-0.285215,0.010242,0.0430935,776,1422,-0.448954,0.242433
-441,-398,-0.259644,-0.389648,0.0114015,-0.00724263,-0.00307743,0.0118963,-0.00773746,-0.159429,0.01142,0.0485217,783,1422,-0.259664,0.389637
-434,-398,0.015686,-0.612671,0.012924,-0.00828112,-0.00054009,0.0129377,-0.00829486,-0.0254478,0.0123559,0.0473506,790,1422,0.0156861,0.612662
-427,-398,0.314148,-0.698486,0.0137956,-0.00831992,0.00313112,0.0142304,-0.00875468,0.137968,0.0133954,0.0449516,797,1422,0.314145,0.698532
-420,-398,0.467041,-0.746704,0.0135338,-0.00761563,0.00763773,0.0160036,-0.0100854,0.312756,0.0151912,0.0460057,804,1422,0.467022,0.746728
-413,-398,0.557312,-0.646118,0,0,0,0,0,0,0,-1,811,1422,0.557335,0.646128
-406,-398,0,0,0,0,0,0,0,0,0,-1,818,1422,0,0
-399,-398,0,0,0,0,0,0,0,0,0,-1,825,1422,0,0
-392,-398,0,0,0,0,0,0,0,0,0,-1,832,1422,0,0
-385,-398,0,0,0,0,0,0,0,0,0,-1,839,1422,0,0
-378,-398,0,0,0,0,0,0,0,0,0,-1,846,1422,0,0
-371,-398,0,0,0,0,0,0,0,0,0,-1,853,1422,0,0
-364,-398,0,0,0,0,0,0,0,0,0,-1,860,1422,0,0
-357,-398,0,0,0,0,0,0,0,0,0,-1,867,1422,0,0
-350,-398,0,0,0,0,0,0,0,0,0,-1,874,1422,0,0
-343,-398,0,0,0,0,0,0,0,0,0,-1,881,1422,0,0
-336,-398,0,0,0,0,0,0,0,0,0,-1,888,1422,0,0
-329,-398,0,0,0,0,0,0,0,0,0,-1,895,1422,0,0
-322,-398,0,0,0,0,0,0,0,0,0,-1,902,1422,0,0
-315,-398,0,0,0,0,0,0,0,0,0,-1,909,1422,0,0
-308,-398,0,0,0,0,0,0,0,0,0,-1,916,1422,0,0
-301,-398,0,0,0,0,0,0,0,0,0,-1,923,1422,0,0
-294,-398,0,0,0,0,0,0,0,0,0,-1,930,1422,0,0
-287,-398,0,0,0,0,0,0,0,0,0,-1,937,1422,0,0
-280,-398,0,0,0,0,0,0,0,0,0,-1,944,1422,0,0
-273,-398,0,0,0,0,0,0,0,0,0,-1,951,1422,0,0
-266,-398,0,0,0,0,0,0,0,0,0,-1,958,1422,0,0
-259,-398,0,0,0,0,0,0,0,0,0,-1,965,1422,0,0
-252,-398,0,0,0,0,0,0,0,0,0,-1,972,1422,0,0
-245,-398,0,0,0,0,0,0,0,0,0,-1,979,1422,0,0
-238,-398,0,0,0,0,0,0,0,0,0,-1,986,1422,0,0
-231,-398,0,0,0,0,0,0,0,0,0,-1,993,1422,0,0
-224,-398,0,0,0,0,0,0,0,0,0,-1,1000,1422,0,0
-217,-398,0,0,0,0,0,0,0,0,0,-1,1007,1422,0,0
-210,-398,0,0,0,0,0,0,0,0,0,-1,1014,1422,0,0
-203,-398,0,0,0,0,0,0,0,0,0,-1,1021,1422,0,0
-196,-398,0,0,0,0,0,0,0,0,0,-1,1028,1422,0,0
-189,-398,0,0,0,0,0,0,0,0,0,-1,1035,1422,0,0
-182,-398,0,0,0,0,0,0,0,0,0,-1,1042,1422,0,0
-175,-398,0,0,0,0,0,0,0,0,0,-1,1049,1422,0,0
-168,-398,0,0,0,0,0,0,0,0,0,-1,1056,1422,0,0
-161,-398,0,0,0,0,0,0,0,0,0,-1,1063,1422,0,0
-154,-398,0,0,0,0,0,0,0,0,0,-1,1070,1422,0,0
-147,-398,0,0,0,0,0,0,0,0,0,-1,1077,1422,0,0
-140,-398,0,0,0,0,0,0,0,0,0,-1,1084,1422,0,0
-133,-398,0,0,0,0,0,0,0,0,0,-1,1091,1422,0,0
-126,-398,0,0,0,0,0,0,0,0,0,-1,1098,1422,0,0
-119,-398,0,0,0,0,0,0,0,0,0,-1,1105,1422,0,0
-112,-398,0,0,0,0,0,0,0,0,0,-1,1112,1422,0,0
-105,-398,0,0,0,0,0,0,0,0,0,-1,1119,1422,0,0
-98,-398,0,0,0,0,0,0,0,0,0,-1,1126,1422,0,0
-91,-398,0,0,0,0,0,0,0,0,0,-1,1133,1422,0,0
-84,-398,0,0,0,0,0,0,0,0,0,-1,1140,1422,0,0
-77,-398,0,0,0,0,0,0,0,0,0,-1,1147,1422,0,0
-70,-398,0,0,0,0,0,0,0,0,0,-1,1154,1422,0,0
-63,-398,0,0,0,0,0,0,0,0,0,-1,1161,1422,0,0
-56,-398,0,0,0,0,0,0,0,0,0,-1,1168,1422,0,0
-49,-398,0,0,0,0,0,0,0,0,0,-1,1175,1422,0,0
-42,-398,0,0,0,0,0,0,0,0,0,-1,1182,1422,0,0
-35,-398,0,0,0,0,0,0,0,0,0,-1,1189,1422,0,0
-28,-398,0,0,0,0,0,0,0,0,0,-1,1196,1422,0,0
-21,-398,0,0,0,0,0,0,0,0,0,-1,1203,1422,0,0
-14,-398,0,0,0,0,0,0,0,0,0,-1,1210,1422,0,0
-7,-398,0,0,0,0,0,0,0,0,0,-1,1217,1422,0,0
0,-398,0,0,0,0,0,0,0,0,0,-1,1224,1422,0,0
7,-398,0,0,0,0,0,0,0,0,0,-1,1231,1422,0,0
14,-398,0,0,0,0,0,0,0,0,0,-1,1238,1422,0,0
21,-398,0,0,0,0,0,0,0,0,0,-1,1245,1422,0,0
28,-398,0,0,0,0,0,0,0,0,0,-1,1252,1422,0,0
35,-398,0,0,0,0,0,0,0,0,0,-1,1259,1422,0,0
42,-398,0,0,0,0,0,0,0,0,0,-1,1266,1422,0,0
49,-398,0,0,0,0,0,0,0,0,0,-1,1273,1422,0,0
56,-398,0,0,0,0,0,0,0,0,0,-1,1280,1422,0,0
63,-398,0,0,0,0,0,0,0,0,0,-1,1287,1422,0,0
70,-398,0,0,0,0,0,0,0,0,0,-1,1294,1422,0,0
77,-398,0,0,0,0,0,0,0,0,0,-1,1301,1422,0,0
84,-398,0,0,0,0,0,0,0,0,0,-1,1308,1422,0,0
91,-398,0,0,0,0,0,0,0,0,0,-1,1315,1422,0,0
98,-398,0,0,0,0,0,0,0,0,0,-1,1322,1422,0,0
105,-398,0,0,0,0,0,0,0,0,0,-1,1329,1422,0,0
112,-398,0,0,0,0,0,0,0,0,0,-1,1336,1422,0,0
119,-398,0,0,0,0,0,0,0,0,0,-1,1343,1422,0,0
126,-398,0,0,0,0,0,0,0,0,0,-1,1350,1422,0,0
133,-398,0,0,0,0,0,0,0,0,0,-1,1357,1422,0,0
140,-398,0,0,0,0,0,0,0,0,0,-1,1364,1422,0,0
147,-398,0,0,0,0,0,0,0,0,0,-1,1371,1422,0,0
154,-398,0,0,0,0,0,0,0,0,0,-1,1378,1422,0,0
161,-398,0,0,0,0,0,0,0,0,0,-1,1385,1422,0,0
168,-398,0,0,0,0,0,0,0,0,0,-1,1392,1422,0,0
175,-398,0,0,0,0,0,0,0,0,0,-1,1399,1422,0,0
182,-398,0,0,0,0,0,0,0,0,0,-1,1406,1422,0,0
189,-398,0,0,0,0,0,0,0,0,0,-1,1413,1422,0,0
196,-398,0,0,0,0,0,0,0,0,0,-1,1420,1422,0,0
203,-398,0,0,0,0,0,0,0,0,0,-1,1427,1422,0,0
210,-398,0,0,0,0,0,0,0,0,0,-1,1434,1422,0,0
217,-398,0,0,0,0,0,0,0,0,0,-1,1441,1422,0,0
224,-398,0,0,0,0,0,0,0,0,0,-1,1448,1422,0,0
231,-398,0,0,0,0,0,0,0,0,0,-1,1455,1422,0,0
238,-398,0,0,0,0,0,0,0,0,0,-1,1462,1422,0,0
245,-398,0,0,0,0,0,0,0,0,0,-1,1469,1422,0,0
252,-398,0,0,0,0,0,0,0,0,0,-1,1476,1422,0,0
259,-398,0,0,0,0,0,0,0,0,0,-1,1483,1422,0,0
266,-398,0,0,0,0,0,0,0,0,0,-1,1490,1422,0,0
273,-398,0,0,0,0,0,0,0,0,0,-1,1497,1422,0,0
280,-398,0,0,0,0,0,0,0,0,0,-1,1504,1422,0,0
287,-398,0,0,0,0,0,0,0,0,0,-1,1511,1422,0,0
294,-398,0,0,0,0,0,0,0,0,0,-1,1518,1422,0,0
301,-398,0,0,0,0,0,0,0,0,0,-1,1525,1422,0,0
308,-398,0,0,0,0,0,0,0,0,0,-1,1532,1422,0,0
315,-398,0,0,0,0,0,0,0,0,0,-1,1539,1422,0,0
322,-398,0,0,0,0,0,0,0,0,0,-1,1546,1422,0,0
329,-398,0,0,0,0,0,0,0,0,0,-1,1553,1422,0,0
336,-398,0,0,0,0,0,0,0,0,0,-1,1560,1422,0,0
343,-398,0,0,0,0,0,0,0,0,0,-1,1567,1422,0,0
350,-398,0,0,0,0,0,0,0,0,0,-1,1574,1422,0,0
357,-398,0,0,0,0,0,0,0,0,0,-1,1581,1422,0,0
364,-398,0,0,0,0,0,0,0,0,0,-1,1588,1422,0,0
371,-398,0,0,0,0,0,0,0,0,0,-1,1595,1422,0,0
378,-398,0,0,0,0,0,0,0,0,0,-1,1602,1422,0,0
385,-398,0,0,0,0,0,0,0,0,0,-1,1609,1422,0,0
392,-398,0,0,0,0,0,0,0,0,0,-1,1616,1422,0,0
399,-398,0,0,0,0,0,0,0,0,0,-1,1623,1422,0,0
406,-398,0,0,0,0,0,0,0,0,0,-1,1630,1422,0,0
413,-398,0,0,0,0,0,0,0,0,0,-1,1637,1422,0,0
420,-398,0,0,0,0,0,0,0,0,0,-1,1644,1422,0,0
427,-398,0,0,0,0,0,0,0,0,0,-1,1651,1422,0,0
434,-398,0,0,0,0,0,0,0,0,0,-1,1658,1422,0,0
441,-398,0,0,0,0,0,0,0,0,0,-1,1665,1422,0,0
448,-398,0,0,0,0,0,0,0,0,0,-1,1672,1422,0,0
455,-398,0,0,0,0,0,0,0,0,0,-1,1679,1422,0,0
462,-398,0,0,0,0,0,0,0,0,0,-1,1686,1422,0,0
469,-398,0,0,0,0,0,0,0,0,0,-1,1693,1422,0,0
476,-398,0,0,0,0,0,0,0,0,0,-1,1700,1422,0,0
483,-398,0,0,0,0,0,0,0,0,0,-1,1707,1422,0,0
490,-398,0,0,0,0,0,0,0,0,0,-1,1714,1422,0,0
497,-398,0,0,0,0,0,0,0,0,0,-1,1721,1422,0,0
504,-398,0,0,0,0,0,0,0,0,0,-1,1728,1422,0,0
511,-398,0,0,0,0,0,0,0,0,0,-1,1735,1422,0,0
518,-398,0,0,0,0,0,0,0,0,0,-1,1742,1422,0,0
525,-398,0,0,0,0,0,0,0,0,0,-1,1749,1422,0,0
532,-398,1.91785,1.19812,0,0,0,0,0,0,0,-1,1756,1422,1.91787,-1.19817
539,-398,0.365967,-0.0616455,0,0,0,0,0,0,0,-1,1763,1422,0.365936,0.0616682
546,-398,0.944092,-1.06116,0,0,0,0,0,0,0,-1,1770,1422,0.944045,1.06111
553,-398,1.52209,-2.06055,0,0,0,0,0,0,0,-1,1777,1422,1.52215,2.06055
560,-398,2.18311,0.151733,0,0,0,0,0,0,0,-1,1784,1422,2.18308,-0.151792
567,-398,1.64319,-0.0871582,0,0,0,0,0,0,0,-1,1791,1422,1.64318,0.0871742
574,-398,1.08008,-0.317627,-0.0157024,-0.000525655,-0.00123899,-0.000425173,-0.0158029,-1.48987,0.0103964,0.0452707,1798,1422,1.08008,0.317621
581,-398,0.597534,-0.583862,-0.0136033,-0.00136422,-0.000124069,-0.00136296,-0.0136045,-1.56066,0.00865122,0.0449634,1805,1422,0.597554,0.58388
588,-398,0.229858,-0.547363,-0.0108263,-0.00206392,0.0013075,-0.00187298,-0.0110173,1.42579,0.00680698,0.0468354,1812,1422,0.229832,0.547317
595,-398,0.0725098,-0.250977,-0.00837346,-0.00219474,0.00249154,-0.00131523,-0.00925296,1.23145,0.00578032,0.0461756,1819,1422,0.0725666,0.250917
602,-398,0.0383301,-0.0825195,-0.00615802,-0.00180865,0.0032293,-9.00575e-05,-0.00787662,1.08173,0.00522132,0.044932,1826,1422,0.0383071,0.0825725
609,-398,0.0252686,0.00427246,-0.00450659,-0.0018702,0.00345844,0.000512745,-0.00688953,0.967476,0.00477313,0.0332171,1833,1422,0.0252548,-0.0042218
616,-398,-0.0153809,-0.0739746,-0.00319386,-0.00159928,0.00356781,0.00125924,-0.00605238,0.895326,0.0045136,0.0129159,1840,1422,-0.0153768,0.074017
623,-398,-0.0391846,-0.0866699,-0.00187857,-0.00152642,0.0032219,0.00152421,-0.0049292,0.812695,0.00389492,0.00919345,1847,1422,-0.0391859,0.0866733
630,-398,-0.0197754,-0.0936279,-0.00124275,-0.00170502,0.0029531,0.00148824,-0.00443602,0.746343,0.00355871,0.0112772,1854,1422,-0.0197325,0.0936211
637,-398,0.00317383,-0.0906982,-0.0010754,-0.00144087,0.0024696,0.00121822,-0.00373448,0.748469,0.00297992,0.0132983,1861,1422,0.00312503,0.0907153
644,-398,-0.0407715,-0.0915527,-0.000618773,-0.00122208,0.00224292,0.00134269,-0.00318354,0.718554,0.00268429,0.0183844,1868,1422,-0.0408041,0.0915926
651,-398,-0.0267334,-0.0733643,0.000882973,-0.000858875,0.00253113,0.00268883,-0.00266473,0.619701,0.00309089,0.0246901,1875,1422,-0.0267253,0.0733304
658,-398,-0.0299072,-0.0776367,0.00378712,-0.000835514,0.00349107,0.00566265,-0.00271105,0.492993,0.00493366,0.0188342,1882,1422,-0.0298538,0.0775941
665,-398,-0.041748,-0.0808105,0.00615013,-0.000555859,0.00424971,0.00821032,-0.00261605,0.451401,0.00652284,0.0129587,1889,1422,-0.0417337,0.0808377
672,-398,-0.0427246,-0.0742188,0.00843706,0.000380053,0.00526921,0.0110413,-0.0022242,0.459028,0.0082034,0.0118803,1896,1422,-0.0427241,0.0742628
679,-398,-0.03479,-0.074707,0.0107928,0.00228078,0.00667452,0.0144528,-0.0013792,0.501576,0.0101263,0.0106299,1903,1422,-0.0348047,0.0747563
686,-398,-0.00842285,-0.0734863,0.0139556,0.00384632,0.00874761,0.019004,-0.001202,0.523418,0.0130884,0.0144544,1910,1422,-0.00846344,0.0735338
693,-398,-0.0220947,-0.118286,0.0175882,0.00604892,0.011168,0.0243889,-0.000751786,0.54697,0.0165156,0.0306115,1917,1422,-0.0221345,0.118346
700,-398,0.0828857,-0.0554199,0.0212897,0.00962038,0.0136591,0.0303081,0.000601981,0.583547,0.0200078,0.0417586,1924,1422,0.0829232,0.055366
707,-398,-0.221191,-0.581665,0,0,0,0,0,0,0,-1,1931,1422,-0.221219,0.581705
714,-398,0.271118,-1.1355,0,0,0,0,0,0,0,-1,1938,1422,0.271164,1.13555
721,-398,-0.0345459,-1.62646,0.0252709,0.0307952,0.0210104,0.0492242,0.00684188,0.850757,0.0307899,0.0461361,1945,1422,-0.0345416,1.62651
728,-398,-0.346924,-2.14575,0.0213276,0.0425493,0.0229007,0.057178,0.00669891,1.00234,0.0360935,0.0441763,1952,1422,-0.346863,2.14572
735,-398,0,0,0,0,0,0,0,0,0,-1,1959,1422,0,0
742,-398,0,0,0,0,0,0,0,0,0,-1,1966,1422,0,0
749,-398,0,0,0,0,0,0,0,0,0,-1,1973,1422,0,0
756,-398,0,0,0,0,0,0,0,0,0,-1,1980,1422,0,0
763,-398,0,0,0,0,0,0,0,0,0,-1,1987,1422,0,0
770,-398,0,0,0,0,0,0,0,0,0,-1,1994,1422,0,0
777,-398,0,0,0,0,0,0,0,0,0,-1,2001,1422,0,0
784,-398,0,0,0,0,0,0,0,0,0,-1,2008,1422,0,0
791,-398,0,0,0,0,0,0,0,0,0,-1,2015,1422,0,0
798,-398,0,0,0,0,0,0,0,0,0,-1,2022,1422,0,0
805,-398,0,0,0,0,0,0,0,0,0,-1,2029,1422,0,0
812,-398,0,0,0,0,0,0,0,0,0,-1,2036,1422,0,0
-700,-405,0,0,0,0,0,0,0,0,0,-1,524,1429,0,0
-693,-405,0,0,0,0,0,0,0,0,0,-1,531,1429,0,0
-686,-405,0,0,0,0,0,0,0,0,0,-1,538,1429,0,0
-679,-405,0,0,0,0,0,0,0,0,0,-1,545,1429,0,0
-672,-405,0,0,0,0,0,0,0,0,0,-1,552,1429,0,0
-665,-405,0,0,0,0,0,0,0,0,0,-1,559,1429,0,0
-658,-405,0,0,0,0,0,0,0,0,0,-1,566,1429,0,0
-651,-405,0,0,0,0,0,0,0,0,0,-1,573,1429,0,0
-644,-405,0,0,0,0,0,0,0,0,0,-1,580,1429,0,0
-637,-405,0,0,0,0,0,0,0,0,0,-1,587,1429,0,0
-630,-405,0,0,0,0,0,0,0,0,0,-1,594,1429,0,0
-623,-405,0,0,0,0,0,0,0,0,0,-1,601,1429,0,0
-616,-405,0,0,0,0,0,0,0,0,0,-1,608,1429,0,0
-609,-405,0,0,0,0,0,0,0,0,0,-1,615,1429,0,0
-602,-405,1.37085,1.38013,0.0549261,-0.035711,0.0174047,0.0581534,-0.0389382,0.183342,0.0564206,0.0418944,622,1429,1.37082,-1.38017
-595,-405,1.5188,0.932495,0.0430293,-0.0278003,0.0123261,0.045113,-0.029884,0.167467,0.0435961,0.0436048,629,1429,1.51881,-0.93245
-588,-405,1.34692,0.613892,0.0324752,-0.0204638,0.00870158,0.0338688,-0.0218574,0.158806,0.0324217,0.0477342,636,1429,1.34692,-0.613933
-581,-405,1.35559,0.384033,0,0,0,0,0,0,0,-1,643,1429,1.35558,-0.384082
-574,-405,-0.360107,-0.279541,0,0,0,0,0,0,0,-1,650,1429,-0.360117,0.279511
-567,-405,-0.771057,0.385742,0,0,0,0,0,0,0,-1,657,1429,-0.771061,-0.38573
-560,-405,-0.129944,-0.12085,0,0,0,0,0,0,0,-1,664,1429,-0.129926,0.120863
-553,-405,-0.064209,-0.0997314,0.00362666,-0.00166709,0.00146111,0.00400316,-0.00204359,0.252194,0.00355167,0.0303189,671,1429,-0.0641924,0.0997066
-546,-405,-0.0150146,-0.0880127,0.000907558,0.000531804,0.000899782,0.00163887,-0.000199506,0.682476,0.00116479,0.0124376,678,1429,-0.0149965,0.0879727
-539,-405,-0.0214233,-0.0861816,-0.00146734,0.00220815,0.000555972,0.00229041,-0.0015496,1.42391,0.00223074,0.0103008,685,1429,-0.0213999,0.0861998
-532,-405,-0.0245972,-0.078125,-0.00180285,0.00231761,0.00101098,0.00255229,-0.00203754,1.3427,0.00265549,0.0140533,692,1429,-0.0246143,0.0781121
-525,-405,-0.0116577,-0.0655518,-0.00141216,0.000855831,0.00066325,0.00103555,-0.00159188,1.30618,0.00152824,0.0138626,699,1429,-0.0116573,0.065588
-518,-405,-0.00756836,-0.0712891,-0.00139888,0.000927869,0.000516102,0.00103721,-0.00150822,1.36203,0.00147797,0.0143933,706,1429,-0.00759695,0.0712827
-511,-405,-0.012085,-0.0738525,-0.00185491,0.00104652,0.000266888,0.00107087,-0.00187926,1.47983,0.00172444,0.0141185,713,1429,-0.0121046,0.0738168
-504,-405,-0.0150146,-0.0928955,-0.00217669,0.00125617,-0.00045934,0.00131657,-0.00223709,-1.44005,0.00207452,0.0152366,720,1429,-0.0149891,0.0928977
-497,-405,-0.00488281,-0.0909424,-0.00221308,0.00170321,-0.00135146,0.0021243,-0.00263417,-1.26875,0.00275256,0.0128412,727,1429,-0.00485688,0.0909325
-490,-405,-0.0147705,-0.083374,-0.00150063,0.00156828,-0.00215576,0.00267993,-0.00261228,-1.0947,0.00305554,0.0107354,734,1429,-0.0147535,0.0833538
-483,-405,-0.0220337,-0.0974121,-0.000346371,0.00116842,-0.00337924,0.00387411,-0.00305205,-0.895642,0.0040082,0.00819763,741,1429,-0.0220121,0.0974543
-476,-405,-0.0447998,-0.0435791,0.0011361,-4.89431e-05,-0.00432857,0.00491251,-0.00382536,-0.717378,0.00505781,0.0182121,748,1429,-0.0447838,0.0436387
-469,-405,-0.159729,0.0263672,0.00268238,-0.000984258,-0.00483601,0.00602091,-0.00432279,-0.604219,0.0059987,0.0338976,755,1429,-0.159717,-0.0263782
-462,-405,-0.316467,0.285278,0.00451542,-0.00203621,-0.0047143,0.0069803,-0.00450109,-0.481761,0.0066801,0.0392917,762,1429,-0.316441,-0.285234
-455,-405,-0.260498,0.177368,0.00662525,-0.00306436,-0.00405374,0.00809748,-0.00453659,-0.348366,0.00739023,0.0414036,769,1429,-0.260511,-0.177343
-448,-405,-0.333069,-0.337158,0.00850143,-0.00456154,-0.00301842,0.00916516,-0.00522527,-0.216449,0.00841148,0.0451868,776,1429,-0.333093,0.337202
-441,-405,0.716797,-0.601807,0,0,0,0,0,0,0,-1,783,1429,0.716777,0.601851
-434,-405,0.0308838,-0.423462,0,0,0,0,0,0,0,-1,790,1429,0.0308816,0.423491
-427,-405,0.369812,-0.665527,0,0,0,0,0,0,0,-1,797,1429,0.369791,0.665502
-420,-405,0.201172,-0.625122,0,0,0,0,0,0,0,-1,804,1429,0.201151,0.625111
-413,-405,-0.33075,-0.691162,0,0,0,0,0,0,0,-1,811,1429,-0.330739,0.691205
-406,-405,1.20007,0.93103,0,0,0,0,0,0,0,-1,818,1429,1.20007,-0.931047
-399,-405,0,0,0,0,0,0,0,0,0,-1,825,1429,0,0
-392,-405,0,0,0,0,0,0,0,0,0,-1,832,1429,0,0
-385,-405,0,0,0,0,0,0,0,0,0,-1,839,1429,0,0
-378,-405,0,0,0,0,0,0,0,0,0,-1,846,1429,0,0
-371,-405,0,0,0,0,0,0,0,0,0,-1,853,1429,0,0
-364,-405,0,0,0,0,0,0,0,0,0,-1,860,1429,0,0
-357,-405,0,0,0,0,0,0,0,0,0,-1,867,1429,0,0
-350,-405,0,0,0,0,0,0,0,0,0,-1,874,1429,0,0
-343,-405,0,0,0,0,0,0,0,0,0,-1,881,1429,0,0
-336,-405,0,0,0,0,0,0,0,0,0,-1,888,1429,0,0
-329,-405,0,0,0,0,0,0,0,0,0,-1,895,1429,0,0
-322,-405,0,0,0,0,0,0,0,0,0,-1,902,1429,0,0
-315,-405,0,0,0,0,0,0,0,0,0,-1,909,1429,0,0
-308,-405,0,0,0,0,0,0,0,0,0,-1,916,1429,0,0
-301,-405,0,0,0,0,0,0,0,0,0,-1,923,1429,0,0
-294,-405,0,0,0,0,0,0,0,0,0,-1,930,1429,0,0
-287,-405,0,0,0,0,0,0,0,0,0,-1,937,1429,0,0
-280,-405,0,0,0,0,0,0,0,0,0,-1,944,1429,0,0
-273,-405,0,0,0,0,0,0,0,0,0,-1,951,1429,0,0
-266,-405,0,0,0,0,0,0,0,0,0,-1,958,1429,0,0
-259,-405,0,0,0,0,0,0,0,0,0,-1,965,1429,0,0
-252,-405,0,0,0,0,0,0,0,0,0,-1,972,1429,0,0
-245,-405,0,0,0,0,0,0,0,0,0,-1,979,1429,0,0
-238,-405,0,0,0,0,0,0,0,0,0,-1,986,1429,0,0
-231,-405,0,0,0,0,0,0,0,0,0,-1,993,1429,0,0
-224,-405,0,0,0,0,0,0,0,0,0,-1,1000,1429,0,0
-217,-405,0,0,0,0,0,0,0,0,0,-1,1007,1429,0,0
-210,-405,0,0,0,0,0,0,0,0,0,-1,1014,1429,0,0
-203,-405,0,0,0,0,0,0,0,0,0,-1,1021,1429,0,0
-196,-405,0,0,0,0,0,0,0,0,0,-1,1028,1429,0,0
-189,-405,0,0,0,0,0,0,0,0,0,-1,1035,1429,0,0
-182,-405,0,0,0,0,0,0,0,0,0,-1,1042,1429,0,0
-175,-405,0,0,0,0,0,0,0,0,0,-1,1049,1429,0,0
-168,-405,0,0,0,0,0,0,0,0,0,-1,1056,1429,0,0
-161,-405,0,0,0,0,0,0,0,0,0,-1,1063,1429,0,0
-154,-405,0,0,0,0,0,0,0,0,0,-1,1070,1429,0,0
-147,-405,0,0,0,0,0,0,0,0,0,-1,1077,1429,0,0
-140,-405,0,0,0,0,0,0,0,0,0,-1,1084,1429,0,0
-133,-405,0,0,0,0,0,0,0,0,0,-1,1091,1429,0,0
-126,-405,0,0,0,0,0,0,0,0,0,-1,1098,1429,0,0
-119,-405,0,0,0,0,0,0,0,0,0,-1,1105,1429,0,0
-112,-405,0,0,0,0,0,0,0,0,0,-1,1112,1429,0,0
-105,-405,0,0,0,0,0,0,0,0,0,-1,1119,1429,0,0
-98,-405,0,0,0,0,0,0,0,0,0,-1,1126,1429,0,0
-91,-405,0,0,0,0,0,0,0,0,0,-1,1133,1429,0,0
-84,-405,0,0,0,0,0,0,0,0,0,-1,1140,1429,0,0
-77,-405,0,0,0,0,0,0,0,0,0,-1,1147,1429,0,0
-70,-405,0,0,0,0,0,0,0,0,0,-1,1154,1429,0,0
-63,-405,0,0,0,0,0,0,0,0,0,-1,1161,1429,0,0
-56,-405,0,0,0,0,0,0,0,0,0,-1,1168,1429,0,0
-49,-405,0,0,0,0,0,0,0,0,0,-1,1175,1429,0,0
-42,-405,0,0,0,0,0,0,0,0,0,-1,1182,1429,0,0
-35,-405,0,0,0,0,0,0,0,0,0,-1,1189,1429,0,0
-28,-405,0,0,0,0,0,0,0,0,0,-1,1196,1429,0,0
-21,-405,0,0,0,0,0,0,0,0,0,-1,1203,1429,0,0
-14,-405,0,0,0,0,0,0,0,0,0,-1,1210,1429,0,0
-7,-405,0,0,0,0,0,0,0,0,0,-1,1217,1429,0,0
0,-405,0,0,0,0,0,0,0,0,0,-1,1224,1429,0,0
7,-405,0,0,0,0,0,0,0,0,0,-1,1231,1429,0,0
14,-405,0,0,0,0,0,0,0,0,0,-1,1238,1429,0,0
21,-405,0,0,0,0,0,0,0,0,0,-1,1245,1429,0,0
28,-405,0,0,0,0,0,0,0,0,0,-1,1252,1429,0,0
35,-405,0,0,0,0,0,0,0,0,0,-1,1259,1429,0,0
42,-405,0,0,0,0,0,0,0,0,0,-1,1266,1429,0,0
49,-405,0,0,0,0,0,0,0,0,0,-1,1273,1429,0,0
56,-405,0,0,0,0,0,0,0,0,0,-1,1280,1429,0,0
63,-405,0,0,0,0,0,0,0,0,0,-1,1287,1429,0,0
70,-405,0,0,0,0,0,0,0,0,0,-1,1294,1429,0,0
77,-405,0,0,0,0,0,0,0,0,0,-1,1301,1429,0,0
84,-405,0,0,0,0,0,0,0,0,0,-1,1308,1429,0,0
91,-405,0,0,0,0,0,0,0,0,0,-1,1315,1429,0,0
98,-405,0,0,0,0,0,0,0,0,0,-1,1322,1429,0,0
105,-405,0,0,0,0,0,0,0,0,0,-1,1329,1429,0,0
112,-405,0,0,0,0,0,0,0,0,0,-1,1336,1429,0,0
119,-405,0,0,0,0,0,0,0,0,0,-1,1343,1429,0,0
126,-405,0,0,0,0,0,0,0,0,0,-1,1350,1429,0,0
133,-405,0,0,0,0,0,0,0,0,0,-1,1357,1429,0,0
140,-405,0,0,0,0,0,0,0,0,0,-1,1364,1429,0,0
147,-405,0,0,0,0,0,0,0,0,0,-1,1371,1429,0,0
154,-405,0,0,0,0,0,0,0,0,0,-1,1378,1429,0,0
161,-405,0,0,0,0,0,0,0,0,0,-1,1385,1429,0,0
168,-405,0,0,0,0,0,0,0,0,0,-1,1392,1429,0,0
175,-405,0,0,0,0,0,0,0,0,0,-1,1399,1429,0,0
182,-405,0,0,0,0,0,0,0,0,0,-1,1406,1429,0,0
189,-405,0,0,0,0,0,0,0,0,0,-1,1413,1429,0,0
196,-405,0,0,0,0,0,0,0,0,0,-1,1420,1429,0,0
203,-405,0,0,0,0,0,0,0,0,0,-1,1427,1429,0,0
210,-405,0,0,0,0,0,0,0,0,0,-1,1434,1429,0,0
217,-405,0,0,0,0,0,0,0,0,0,-1,1441,1429,0,0
224,-405,0,0,0,0,0,0,0,0,0,-1,1448,1429,0,0
231,-405,0,0,0,0,0,0,0,0,0,-1,1455,1429,0,0
238,-405,0,0,0,0,0,0,0,0,0,-1,1462,1429,0,0
245,-405,0,0,0,0,0,0,0,0,0,-1,1469,1429,0,0
252,-405,0,0,0,0,0,0,0,0,0,-1,1476,1429,0,0
259,-405,0,0,0,0,0,0,0,0,0,-1,1483,1429,0,0
266,-405,0,0,0,0,0,0,0,0,0,-1,1490,1429,0,0
273,-405,0,0,0,0,0,0,0,0,0,-1,1497,1429,0,0
280,-405,0,0,0,0,0,0,0,0,0,-1,1504,1429,0,0
287,-405,0,0,0,0,0,0,0,0,0,-1,1511,1429,0,0
294,-405,0,0,0,0,0,0,0,0,0,-1,1518,1429,0,0
301,-405,0,0,0,0,0,0,0,0,0,-1,1525,1429,0,0
308,-405,0,0,0,0,0,0,0,0,0,-1,1532,1429,0,0
315,-405,0,0,0,0,0,0,0,0,0,-1,1539,1429,0,0
322,-405,0,0,0,0,0,0,0,0,0,-1,1546,1429,0,0
329,-405,0,0,0,0,0,0,0,0,0,-1,1553,1429,0,0
336,-405,0,0,0,0,0,0,0,0,0,-1,1560,1429,0,0
343,-405,0,0,0,0,0,0,0,0,0,-1,1567,1429,0,0
350,-405,0,0,0,0,0,0,0,0,0,-1,1574,1429,0,0
357,-405,0,0,0,0,0,0,0,0,0,-1,1581,1429,0,0
364,-405,0,0,0,0,0,0,0,0,0,-1,1588,1429,0,0
371,-405,0,0,0,0,0,0,0,0,0,-1,1595,1429,0,0
378,-405,0,0,0,0,0,0,0,0,0,-1,1602,1429,0,0
385,-405,0,0,0,0,0,0,0,0,0,-1,1609,1429,0,0
392,-405,0,0,0,0,0,0,0,0,0,-1,1616,1429,0,0
399,-405,0,0,0,0,0,0,0,0,0,-1,1623,1429,0,0
406,-405,0,0,0,0,0,0,0,0,0,-1,1630,1429,0,0
413,-405,0,0,0,0,0,0,0,0,0,-1,1637,1429,0,0
420,-405,0,0,0,0,0,0,0,0,0,-1,1644,1429,0,0
427,-405,0,0,0,0,0,0,0,0,0,-1,1651,1429,0,0
434,-405,0,0,0,0,0,0,0,0,0,-1,1658,1429,0,0
441,-405,0,0,0,0,0,0,0,0,0,-1,1665,1429,0,0
448,-405,0,0,0,0,0,0,0,0,0,-1,1672,1429,0,0
455,-405,0,0,0,0,0,0,0,0,0,-1,1679,1429,0,0
462,-405,0,0,0,0,0,0,0,0,0,-1,1686,1429,0,0
469,-405,0,0,0,0,0,0,0,0,0,-1,1693,1429,0,0
476,-405,0,0,0,0,0,0,0,0,0,-1,1700,1429,0,0
483,-405,0,0,0,0,0,0,0,0,0,-1,1707,1429,0,0
490,-405,0,0,0,0,0,0,0,0,0,-1,1714,1429,0,0
497,-405,0,0,0,0,0,0,0,0,0,-1,1721,1429,0,0
504,-405,0,0,0,0,0,0,0,0,0,-1,1728,1429,0,0
511,-405,0,0,0,0,0,0,0,0,0,-1,1735,1429,0,0
518,-405,0,0,0,0,0,0,0,0,0,-1,1742,1429,0,0
525,-405,1.9729,0.118652,0,0,0,0,0,0,0,-1,1749,1429,1.97295,-0.118675
532,-405,1.85693,0.686279,0,0,0,0,0,0,0,-1,1756,1429,1.85688,-0.686339
539,-405,0.313843,0.296997,0,0,0,0,0,0,0,-1,1763,1429,0.313895,-0.297042
546,-405,0.866943,-0.752686,0,0,0,0,0,0,0,-1,1770,1429,0.866933,0.752652
553,-405,1.41992,-1.80237,0,0,0,0,0,0,0,-1,1777,1429,1.41997,1.80235
560,-405,-0.0931396,-1.54517,0,0,0,0,0,0,0,-1,1784,1429,-0.0931155,1.54522
567,-405,2.07104,0.217163,0,0,0,0,0,0,0,-1,1791,1429,2.071,-0.217118
574,-405,-0.0328369,-0.105225,0,0,0,0,0,0,0,-1,1798,1429,-0.0328738,0.105274
581,-405,0.658936,-0.248779,0,0,0,0,0,0,0,-1,1805,1429,0.658895,0.248807
588,-405,0.0700684,-0.405396,0,0,0,0,0,0,0,-1,1812,1429,0.0700616,0.405366
595,-405,0.0285645,-0.265991,-0.00849779,-0.00247521,0.000987811,-0.00231733,-0.00865567,1.41231,0.00517398,0.042717,1819,1429,0.0286075,0.266047
602,-405,0.029541,-0.151733,-0.00630812,-0.00192933,0.00172818,-0.00132945,-0.006908,1.23669,0.00423236,0.0343423,1826,1429,0.0295935,0.151789
609,-405,0.00244141,-0.0712891,-0.00463191,-0.00182516,0.00204449,-0.000748735,-0.00570833,1.08617,0.00358216,0.0160301,1833,1429,0.0024648,0.0712982
616,-405,-0.0179443,-0.0784912,-0.0033088,-0.00148829,0.00229676,7.20154e-05,-0.00486911,0.974063,0.00327034,0.00897634,1840,1429,-0.0179843,0.0784985
623,-405,-0.032959,-0.0794678,-0.00201722,-0.00141421,0.00206293,0.000369124,-0.00380056,0.857961,0.00266528,0.00903627,1847,1429,-0.0329156,0.0795194
630,-405,-0.0228271,-0.0861816,-0.00138302,-0.00158339,0.00196919,0.00048854,-0.00345494,0.759982,0.00248222,0.00978877,1854,1429,-0.0228269,0.0862402
637,-405,-0.0189209,-0.0898438,-0.00115247,-0.00141592,0.00169852,0.00041942,-0.00298781,0.7467,0.00214539,0.0101815,1861,1429,-0.0188625,0.0898421
644,-405,-0.0692139,-0.0585938,-0.000586983,-0.00131328,0.00172093,0.000808692,-0.00270896,0.681414,0.0021274,0.0259273,1868,1429,-0.0691941,0.0585558
651,-405,-0.0554199,-0.0474854,0.00121886,-0.00100888,0.00237709,0.00273011,-0.00252013,0.566297,0.00303203,0.0282873,1875,1429,-0.0554778,0.0474763
658,-405,-0.0482178,-0.0750732,0.00453071,-0.00103368,0.00371451,0.00638944,-0.00289241,0.463965,0.00548419,0.0202773,1882,1429,-0.0481938,0.0750651
665,-405,-0.0380859,-0.0924072,0.00737409,-0.000812362,0.00489116,0.00965879,-0.00309707,0.43699,0.00768253,0.0166219,1889,1429,-0.0380935,0.0923563
672,-405,-0.0366211,-0.0935059,0.0103786,0.000105249,0.00638969,0.0134403,-0.00295646,0.446841,0.0100911,0.0192697,1896,1429,-0.0366415,0.0935315
679,-405,-0.0378418,-0.128052,0.0136623,0.00204818,0.00824173,0.0179373,-0.00222681,0.478497,0.0127654,0.017232,1903,1429,-0.0378589,0.128111
686,-405,-0.0443115,-0.134888,0.0181217,0.00385124,0.0107869,0.0239198,-0.00194679,0.493199,0.0166335,0.0249312,1910,1429,-0.0443509,0.134906
693,-405,-0.0744629,-0.186768,0.0232765,0.00657267,0.0136584,0.0309341,-0.00108495,0.510986,0.0209937,0.0371026,1917,1429,-0.0744318,0.18676
700,-405,0.210815,-0.0736084,0.0285895,0.0109357,0.0166502,0.0386078,0.000917343,0.541665,0.0254383,0.0424871,1924,1429,0.21082,0.0735578
707,-405,0.990234,2.01404,0.0333283,0.0172817,0.0196001,0.0464837,0.00412629,0.591128,0.0297094,0.0465275,1931,1429,0.990185,-2.01402
714,-405,2.61292,1.90063,0,0,0,0,0,0,0,-1,1938,1429,2.61287,-1.90061
721,-405,-0.363037,-2.15674,0,0,0,0,0,0,0,-1,1945,1429,-0.363073,2.1568
728,-405,0,0,0,0,0,0,0,0,0,-1,1952,1429,0,0
735,-405,0,0,0,0,0,0,0,0,0,-1,1959,1429,0,0
742,-405,0,0,0,0,0,0,0,0,0,-1,1966,1429,0,0
749,-405,0,0,0,0,0,0,0,0,0,-1,1973,1429,0,0
756,-405,0,0,0,0,0,0,0,0,0,-1,1980,1429,0,0
763,-405,0,0,0,0,0,0,0,0,0,-1,1987,1429,0,0
770,-405,0,0,0,0,0,0,0,0,0,-1,1994,1429,0,0
777,-405,0,0,0,0,0,0,0,0,0,-1,2001,1429,0,0
784,-405,0,0,0,0,0,0,0,0,0,-1,2008,1429,0,0
791,-405,0,0,0,0,0,0,0,0,0,-1,2015,1429,0,0
798,-405,0,0,0,0,0,0,0,0,0,-1,2022,1429,0,0
805,-405,0,0,0,0,0,0,0,0,0,-1,2029,1429,0,0
812,-405,0,0,0,0,0,0,0,0,0,-1,2036,1429,0,0
-700,-412,0,0,0,0,0,0,0,0,0,-1,524,1436,0,0
-693,-412,0,0,0,0,0,0,0,0,0,-1,531,1436,0,0
-686,-412,0,0,0,0,0,0,0,0,0,-1,538,1436,0,0
-679,-412,0,0,0,0,0,0,0,0,0,-1,545,1436,0,0
-672,-412,0,0,0,0,0,0,0,0,0,-1,552,1436,0,0
-665,-412,0,0,0,0,0,0,0,0,0,-1,559,1436,0,0
-658,-412,0,0,0,0,0,0,0,0,0,-1,566,1436,0,0
-651,-412,0,0,0,0,0,0,0,0,0,-1,573,1436,0,0
-644,-412,0,0,0,0,0,0,0,0,0,-1,580,1436,0,0
-637,-412,0,0,0,0,0,0,0,0,0,-1,587,1436,0,0
-630,-412,0,0,0,0,0,0,0,0,0,-1,594,1436,0,0
-623,-412,0,0,0,0,0,0,0,0,0,-1,601,1436,0,0
-616,-412,0,0,0,0,0,0,0,0,0,-1,608,1436,0,0
-609,-412,0,0,0,0,0,0,0,0,0,-1,615,1436,0,0
-602,-412,-0.0752563,2.80896,0.0644419,-0.0528409,0.0210521,0.0681063,-0.0565053,0.172334,0.0720484,0.0448108,622,1436,-0.0752549,-2.80895
-595,-412,0.352783,2.23511,0.0494278,-0.0401598,0.0150165,0.0518778,-0.0426098,0.161731,0.0546399,0.0477298,629,1436,0.352766,-2.23508
-588,-412,1.19958,1.30054,0.0368003,-0.0295144,0.0106092,0.0384562,-0.0311703,0.154835,0.0402722,0.0486104,636,1436,1.19957,-1.30052
-581,-412,0.999329,1.55188,0.0264087,-0.0208125,0.0074497,0.0275561,-0.0219599,0.152819,0.0286489,0.0429252,643,1436,0.999315,-1.55182
-574,-412,-0.705994,0.0839844,0,0,0,0,0,0,0,-1,650,1436,-0.706005,-0.0839738
-567,-412,-0.46521,0.0438232,0.0117297,-0.00916232,0.00376598,0.0123879,-0.00982044,0.173007,0.0128505,0.0475036,657,1436,-0.465219,-0.0438579
-560,-412,-0.0797729,-0.0163574,0,0,0,0,0,0,0,-1,664,1436,-0.0797845,0.0164012
-553,-412,-0.0333862,-0.105469,0.00380716,-0.00366127,0.00197182,0.00429579,-0.0041499,0.242914,0.00487637,0.0376951,671,1436,-0.0333825,0.105469
-546,-412,-0.0369263,-0.0869141,0.000953144,-0.000955184,0.00125391,0.00157464,-0.00157668,0.460161,0.00181942,0.0206376,678,1436,-0.0369435,0.086864
-539,-412,-0.0192871,-0.102051,-0.00164249,0.00111448,0.000786848,0.00132325,-0.00185125,1.31146,0.00184123,0.0101408,685,1436,-0.0192584,0.102075
-532,-412,-0.020813,-0.0957031,-0.00197041,0.00146657,0.00121056,0.00185014,-0.00235398,1.26395,0.00243305,0.0118868,692,1436,-0.0207855,0.0957102
-525,-412,-0.0270996,-0.0682373,-0.0014856,6.14682e-05,0.000827193,0.000420455,-0.00184459,1.16134,0.00139122,0.0139471,699,1436,-0.0270715,0.0682194
-518,-412,-0.0100708,-0.0666504,-0.00134737,0.000291245,0.000668282,0.000529229,-0.00158536,1.22869,0.0012706,0.0146646,706,1436,-0.0100483,0.0666823
-511,-412,0.00213623,-0.0405273,-0.0016562,0.000556372,0.000458108,0.000647472,-0.0017473,1.3745,0.0014304,0.0166726,713,1436,0.00214681,0.0404888
-504,-412,-0.0164185,-0.0635986,-0.00186735,0.000889675,-0.00021614,0.000906517,-0.0018842,-1.49303,0.00164385,0.0164528,720,1436,-0.0163908,0.0635571
-497,-412,-0.0283813,-0.0803223,-0.00184921,0.00149608,-0.00103747,0.0017917,-0.00214483,-1.29321,0.0022758,0.0133109,727,1436,-0.0283718,0.0803749
-490,-412,-0.0169067,-0.088501,-0.00105176,0.00140876,-0.00171794,0.00229152,-0.00193452,-1.09613,0.00244281,0.0117079,734,1436,-0.0169079,0.0885005
-483,-412,-0.00219727,-0.0965576,0.000148601,0.00108529,-0.00273951,0.0033962,-0.00216231,-0.87006,0.00323546,0.00829152,741,1436,-0.00220472,0.0965845
-476,-412,0.000488281,-0.0836182,0.00153781,-1.13319e-06,-0.00348555,0.00433781,-0.00280114,-0.676761,0.00415338,0.0124697,748,1436,0.000467669,0.0836018
-469,-412,-0.0213623,-0.0545654,0.0029431,-0.000827143,-0.0037966,0.00529683,-0.00318087,-0.554965,0.00494516,0.0200178,755,1436,-0.0213556,0.0546148
-462,-412,-0.184998,0.0704346,0.00458827,-0.00168286,-0.00341134,0.00608616,-0.00318076,-0.413748,0.00543721,0.033112,762,1436,-0.18498,-0.0704714
-455,-412,-0.10791,-0.065918,0.00648588,-0.00246818,-0.00252173,0.00714723,-0.00312952,-0.256483,0.00608255,0.0415831,769,1436,-0.107904,0.0659429
-448,-412,-0.00189209,-0.28894,0.00805226,-0.00376711,-0.00132287,0.00819851,-0.00391336,-0.110109,0.00713719,0.0448256,776,1436,-0.00187976,0.288987
-441,-412,0.423279,-0.572144,0.00936427,-0.00518963,0.000667461,0.00939482,-0.00522018,0.0457333,0.00855194,0.0482918,783,1436,0.423261,0.572129
-434,-412,0.329773,-0.32251,0,0,0,0,0,0,0,-1,790,1436,0.329754,0.322523
-427,-412,1.26923,-1.18445,0,0,0,0,0,0,0,-1,797,1436,1.26924,1.18439
-420,-412,1.51471,-1.03894,0.00918198,-0.00275384,0.0115016,0.0161718,-0.00974369,0.546082,0.015115,0.0435237,804,1436,1.51468,1.03893
-413,-412,1.25049,-0.522827,0.00753122,0.000108797,0.0164263,0.0206603,-0.0130203,0.674298,0.0196115,0.0407364,811,1436,1.25047,0.522864
-406,-412,0.777832,0.808716,0.0049626,0.00486592,0.0217658,0.0266801,-0.0168516,0.784288,0.0253456,0.0452049,818,1436,0.777821,-0.808681
-399,-412,0.642517,0.0917969,0.00174395,0.0121088,0.0270089,0.034428,-0.0205753,0.880185,0.0320901,0.0430417,825,1436,0.642547,-0.0918455
-392,-412,0,0,0,0,0,0,0,0,0,-1,832,1436,0,0
-385,-412,0,0,0,0,0,0,0,0,0,-1,839,1436,0,0
-378,-412,0,0,0,0,0,0,0,0,0,-1,846,1436,0,0
-371,-412,0,0,0,0,0,0,0,0,0,-1,853,1436,0,0
-364,-412,0,0,0,0,0,0,0,0,0,-1,860,1436,0,0
-357,-412,0,0,0,0,0,0,0,0,0,-1,867,1436,0,0
-350,-412,0,0,0,0,0,0,0,0,0,-1,874,1436,0,0
-343,-412,0,0,0,0,0,0,0,0,0,-1,881,1436,0,0
-336,-412,0,0,0,0,0,0,0,0,0,-1,888,1436,0,0
-329,-412,0,0,0,0,0,0,0,0,0,-1,895,1436,0,0
-322,-412,0,0,0,0,0,0,0,0,0,-1,902,1436,0,0
-315,-412,0,0,0,0,0,0,0,0,0,-1,909,1436,0,0
-308,-412,0,0,0,0,0,0,0,0,0,-1,916,1436,0,0
-301,-412,0,0,0,0,0,0,0,0,0,-1,923,1436,0,0
-294,-412,0,0,0,0,0,0,0,0,0,-1,930,1436,0,0
-287,-412,0,0,0,0,0,0,0,0,0,-1,937,1436,0,0
-280,-412,0,0,0,0,0,0,0,0,0,-1,944,1436,0,0
-273,-412,0,0,0,0,0,0,0,0,0,-1,951,1436,0,0
-266,-412,0,0,0,0,0,0,0,0,0,-1,958,1436,0,0
-259,-412,0,0,0,0,0,0,0,0,0,-1,965,1436,0,0
-252,-412,0,0,0,0,0,0,0,0,0,-1,972,1436,0,0
-245,-412,0,0,0,0,0,0,0,0,0,-1,979,1436,0,0
-238,-412,0,0,0,0,0,0,0,0,0,-1,986,1436,0,0
-231,-412,0,0,0,0,0,0,0,0,0,-1,993,1436,0,0
-224,-412,0,0,0,0,0,0,0,0,0,-1,1000,1436,0,0
-217,-412,0,0,0,0,0,0,0,0,0,-1,1007,1436,0,0
-210,-412,0,0,0,0,0,0,0,0,0,-1,1014,1436,0,0
-203,-412,0,0,0,0,0,0,0,0,0,-1,1021,1436,0,0
-196,-412,0,0,0,0,0,0,0,0,0,-1,1028,1436,0,0
-189,-412,0,0,0,0,0,0,0,0,0,-1,1035,1436,0,0
-182,-412,0,0,0,0,0,0,0,0,0,-1,1042,1436,0,0
-175,-412,0,0,0,0,0,0,0,0,0,-1,1049,1436,0,0
-168,-412,0,0,0,0,0,0,0,0,0,-1,1056,1436,0,0
-161,-412,0,0,0,0,0,0,0,0,0,-1,1063,1436,0,0
-154,-412,0,0,0,0,0,0,0,0,0,-1,1070,1436,0,0
-147,-412,0,0,0,0,0,0,0,0,0,-1,1077,1436,0,0
-140,-412,0,0,0,0,0,0,0,0,0,-1,1084,1436,0,0
-133,-412,0,0,0,0,0,0,0,0,0,-1,1091,1436,0,0
-126,-412,0,0,0,0,0,0,0,0,0,-1,1098,1436,0,0
-119,-412,0,0,0,0,0,0,0,0,0,-1,1105,1436,0,0
-112,-412,0,0,0,0,0,0,0,0,0,-1,1112,1436,0,0
-105,-412,0,0,0,0,0,0,0,0,0,-1,1119,1436,0,0
-98,-412,0,0,0,0,0,0,0,0,0,-1,1126,1436,0,0
-91,-412,0,0,0,0,0,0,0,0,0,-1,1133,1436,0,0
-84,-412,0,0,0,0,0,0,0,0,0,-1,1140,1436,0,0
-77,-412,0,0,0,0,0,0,0,0,0,-1,1147,1436,0,0
-70,-412,0,0,0,0,0,0,0,0,0,-1,1154,1436,0,0
-63,-412,0,0,0,0,0,0,0,0,0,-1,1161,1436,0,0
-56,-412,0,0,0,0,0,0,0,0,0,-1,1168,1436,0,0
-49,-412,0,0,0,0,0,0,0,0,0,-1,1175,1436,0,0
-42,-412,0,0,0,0,0,0,0,0,0,-1,1182,1436,0,0
-35,-412,0,0,0,0,0,0,0,0,0,-1,1189,1436,0,0
-28,-412,0,0,0,0,0,0,0,0,0,-1,1196,1436,0,0
-21,-412,0,0,0,0,0,0,0,0,0,-1,1203,1436,0,0
-14,-412,0,0,0,0,0,0,0,0,0,-1,1210,1436,0,0
-7,-412,0,0,0,0,0,0,0,0,0,-1,1217,1436,0,0
0,-412,0,0,0,0,0,0,0,0,0,-1,1224,1436,0,0
7,-412,0,0,0,0,0,0,0,0,0,-1,1231,1436,0,0
14,-412,0,0,0,0,0,0,0,0,0,-1,1238,1436,0,0
21,-412,0,0,0,0,0,0,0,0,0,-1,1245,1436,0,0
28,-412,0,0,0,0,0,0,0,0,0,-1,1252,1436,0,0
35,-412,0,0,0,0,0,0,0,0,0,-1,1259,1436,0,0
42,-412,0,0,0,0,0,0,0,0,0,-1,1266,1436,0,0
49,-412,0,0,0,0,0,0,0,0,0,-1,1273,1436,0,0
56,-412,0,0,0,0,0,0,0,0,0,-1,1280,1436,0,0
63,-412,0,0,0,0,0,0,0,0,0,-1,1287,1436,0,0
70,-412,0,0,0,0,0,0,0,0,0,-1,1294,1436,0,0
77,-412,0,0,0,0,0,0,0,0,0,-1,1301,1436,0,0
84,-412,0,0,0,0,0,0,0,0,0,-1,1308,1436,0,0
91,-412,0,0,0,0,0,0,0,0,0,-1,1315,1436,0,0
98,-412,0,0,0,0,0,0,0,0,0,-1,1322,1436,0,0
105,-412,0,0,0,0,0,0,0,0,0,-1,1329,1436,0,0
112,-412,0,0,0,0,0,0,0,0,0,-1,1336,1436,0,0
119,-412,0,0,0,0,0,0,0,0,0,-1,1343,1436,0,0
126,-412,0,0,0,0,0,0,0,0,0,-1,1350,1436,0,0
133,-412,0,0,0,0,0,0,0,0,0,-1,1357,1436,0,0
140,-412,0,0,0,0,0,0,0,0,0,-1,1364,1436,0,0
147,-412,0,0,0,0,0,0,0,0,0,-1,1371,1436,0,0
154,-412,0,0,0,0,0,0,0,0,0,-1,1378,1436,0,0
161,-412,0,0,0,0,0,0,0,0,0,-1,1385,1436,0,0
168,-412,0,0,0,0,0,0,0,0,0,-1,1392,1436,0,0
175,-412,0,0,0,0,0,0,0,0,0,-1,1399,1436,0,0
182,-412,0,0,0,0,0,0,0,0,0,-1,1406,1436,0,0
189,-412,0,0,0,0,0,0,0,0,0,-1,1413,1436,0,0
196,-412,0,0,0,0,0,0,0,0,0,-1,1420,1436,0,0
203,-412,0,0,0,0,0,0,0,0,0,-1,1427,1436,0,0
210,-412,0,0,0,0,0,0,0,0,0,-1,1434,1436,0,0
217,-412,0,0,0,0,0,0,0,0,0,-1,1441,1436,0,0
224,-412,0,0,0,0,0,0,0,0,0,-1,1448,1436,0,0
231,-412,0,0,0,0,0,0,0,0,0,-1,1455,1436,0,0
238,-412,0,0,0,0,0,0,0,0,0,-1,1462,1436,0,0
245,-412,0,0,0,0,0,0,0,0,0,-1,1469,1436,0,0
252,-412,0,0,0,0,0,0,0,0,0,-1,1476,1436,0,0
259,-412,0,0,0,0,0,0,0,0,0,-1,1483,1436,0,0
266,-412,0,0,0,0,0,0,0,0,0,-1,1490,1436,0,0
273,-412,0,0,0,0,0,0,0,0,0,-1,1497,1436,0,0
280,-412,0,0,0,0,0,0,0,0,0,-1,1504,1436,0,0
287,-412,0,0,0,0,0,0,0,0,0,-1,1511,1436,0,0
294,-412,0,0,0,0,0,0,0,0,0,-1,1518,1436,0,0
301,-412,0,0,0,0,0,0,0,0,0,-1,1525,1436,0,0
308,-412,0,0,0,0,0,0,0,0,0,-1,1532,1436,0,0
315,-412,0,0,0,0,0,0,0,0,0,-1,1539,1436,0,0
322,-412,0,0,0,0,0,0,0,0,0,-1,1546,1436,0,0
329,-412,0,0,0,0,0,0,0,0,0,-1,1553,1436,0,0
336,-412,0,0,0,0,0,0,0,0,0,-1,1560,1436,0,0
343,-412,0,0,0,0,0,0,0,0,0,-1,1567,1436,0,0
350,-412,0,0,0,0,0,0,0,0,0,-1,1574,1436,0,0
357,-412,0,0,0,0,0,0,0,0,0,-1,1581,1436,0,0
364,-412,0,0,0,0,0,0,0,0,0,-1,1588,1436,0,0
371,-412,0,0,0,0,0,0,0,0,0,-1,1595,1436,0,0
378,-412,0,0,0,0,0,0,0,0,0,-1,1602,1436,0,0
385,-412,0,0,0,0,0,0,0,0,0,-1,1609,1436,0,0
392,-412,0,0,0,0,0,0,0,0,0,-1,1616,1436,0,0
399,-412,0,0,0,0,0,0,0,0,0,-1,1623,1436,0,0
406,-412,0,0,0,0,0,0,0,0,0,-1,1630,1436,0,0
413,-412,0,0,0,0,0,0,0,0,0,-1,1637,1436,0,0
420,-412,0,0,0,0,0,0,0,0,0,-1,1644,1436,0,0
427,-412,0,0,0,0,0,0,0,0,0,-1,1651,1436,0,0
434,-412,0,0,0,0,0,0,0,0,0,-1,1658,1436,0,0
441,-412,0,0,0,0,0,0,0,0,0,-1,1665,1436,0,0
448,-412,0,0,0,0,0,0,0,0,0,-1,1672,1436,0,0
455,-412,0,0,0,0,0,0,0,0,0,-1,1679,1436,0,0
462,-412,0,0,0,0,0,0,0,0,0,-1,1686,1436,0,0
469,-412,0,0,0,0,0,0,0,0,0,-1,1693,1436,0,0
476,-412,0,0,0,0,0,0,0,0,0,-1,1700,1436,0,0
483,-412,0,0,0,0,0,0,0,0,0,-1,1707,1436,0,0
490,-412,0,0,0,0,0,0,0,0,0,-1,1714,1436,0,0
497,-412,0,0,0,0,0,0,0,0,0,-1,1721,1436,0,0
504,-412,0,0,0,0,0,0,0,0,0,-1,1728,1436,0,0
511,-412,0,0,0,0,0,0,0,0,0,-1,1735,1436,0,0
518,-412,-1.26428,-0.959473,0,0,0,0,0,0,0,-1,1742,1436,-1.26434,0.959424
525,-412,-1.44775,-0.365112,0,0,0,0,0,0,0,-1,1749,1436,-1.44774,0.365138
532,-412,1.91296,0.304199,0,0,0,0,0,0,0,-1,1756,1436,1.91296,-0.304234
539,-412,0.862549,0.29126,0,0,0,0,0,0,0,-1,1763,1436,0.862507,-0.29121
546,-412,0.843872,-0.487915,0,0,0,0,0,0,0,-1,1770,1436,0.8439,0.487918
553,-412,0.825317,-1.26709,0,0,0,0,0,0,0,-1,1777,1436,0.825293,1.26705
560,-412,-0.293579,-1.45996,0,0,0,0,0,0,0,-1,1784,1436,-0.293592,1.45997
567,-412,-0.825684,-1.8252,0,0,0,0,0,0,0,-1,1791,1436,-0.825653,1.82518
574,-412,-0.188354,-0.167969,-0.012653,-0.00115915,-0.00162528,-0.000933745,-0.0128784,-1.43299,0.00829192,0.043243,1798,1436,-0.188369,0.167975
581,-412,0.404419,-0.218872,-0.011315,-0.00194314,-0.00112078,-0.00181097,-0.0114472,-1.45341,0.00710515,0.0366903,1805,1436,0.404394,0.218874
588,-412,0.261963,-0.397217,-0.00926523,-0.00247131,-0.000148053,-0.00246808,-0.00926845,-1.54902,0.00554258,0.0376878,1812,1436,0.262011,0.397181
595,-412,0.0651855,-0.24707,-0.00739483,-0.00222911,0.000728725,-0.00212828,-0.00749567,1.4333,0.00446028,0.0386164,1819,1436,0.0652424,0.24703
602,-412,0.0274658,-0.0976563,-0.0055195,-0.00164338,0.00128358,-0.00125686,-0.00590601,1.27831,0.00359244,0.0214399,1826,1436,0.0274977,0.0976967
609,-412,-0.0109863,-0.0648193,-0.00404279,-0.00145368,0.00152355,-0.000748962,-0.0047475,1.13756,0.00294724,0.00832408,1833,1436,-0.0109693,0.0648315
616,-412,-0.0258789,-0.0737305,-0.00289905,-0.00109714,0.00175005,-2.97423e-05,-0.00396644,1.02311,0.00263444,0.00760789,1840,1436,-0.0258186,0.0737589
623,-412,-0.0264893,-0.0789795,-0.00179042,-0.00102687,0.00149888,0.000138091,-0.00295538,0.910099,0.00201786,0.00893289,1847,1436,-0.0264671,0.0790267
630,-412,-0.0283203,-0.0866699,-0.00131656,-0.00123272,0.00143653,0.000162501,-0.00271178,0.799984,0.00186438,0.0101965,1854,1436,-0.0283101,0.0866521
637,-412,-0.0285645,-0.0805664,-0.00117213,-0.00117522,0.00126597,9.22956e-05,-0.00243965,0.784788,0.00165806,0.0113688,1861,1436,-0.0285282,0.0805486
644,-412,-0.0163574,-0.0740967,-0.000595853,-0.00117159,0.00145536,0.000599835,-0.00236728,0.687759,0.00181154,0.0126878,1868,1436,-0.0163029,0.0740989
651,-412,-0.00292969,-0.0925293,0.00137287,-0.000888451,0.00237066,0.0028687,-0.00238427,0.562883,0.0030371,0.0225038,1875,1436,-0.00289965,0.0925521
658,-412,-0.0131836,-0.0871582,0.00491318,-0.000979381,0.00396872,0.0069097,-0.0029759,0.466096,0.00585615,0.0152722,1882,1436,-0.0131334,0.0871498
665,-412,-0.0281982,-0.0765381,0.00810585,-0.000838522,0.00548713,0.0107124,-0.00344511,0.443478,0.00852528,0.0188452,1889,1436,-0.0282123,0.0765832
672,-412,-0.032959,-0.0864258,0.0117312,4.42592e-06,0.00739868,0.0153081,-0.00357252,0.450326,0.0115814,0.0219849,1896,1436,-0.0330172,0.0863774
679,-412,-0.00976563,-0.100342,0.0159286,0.00197303,0.00965252,0.0208613,-0.00295972,0.472434,0.0149918,0.0261071,1903,1436,-0.00973326,0.100371
686,-412,-0.0841064,-0.131592,0.0217245,0.0039948,0.012614,0.0282771,-0.00255785,0.479105,0.0197593,0.0393531,1910,1436,-0.0840977,0.131624
693,-412,-0.221313,-0.0949707,0.0286497,0.00732102,0.0159184,0.0371459,-0.00117515,0.490267,0.0251648,0.0416592,1917,1436,-0.221288,0.0949603
700,-412,-0.44873,2.3291,0.0361374,0.0124939,0.0193933,0.0470281,0.00160319,0.511682,0.0308316,0.0441171,1924,1436,-0.448736,-2.32908
707,-412,0.958008,2.59277,0.043454,0.0202393,0.0227131,0.0573538,0.00633946,0.549177,0.0363077,0.0464906,1931,1436,0.958036,-2.59282
714,-412,2.15112,3.01965,0,0,0,0,0,0,0,-1,1938,1436,2.15107,-3.01966
721,-412,0,0,0,0,0,0,0,0,0,-1,1945,1436,0,0
728,-412,0,0,0,0,0,0,0,0,0,-1,1952,1436,0,0
735,-412,0,0,0,0,0,0,0,0,0,-1,1959,1436,0,0
742,-412,0,0,0,0,0,0,0,0,0,-1,1966,1436,0,0
749,-412,0,0,0,0,0,0,0,0,0,-1,1973,1436,0,0
756,-412,0,0,0,0,0,0,0,0,0,-1,1980,1436,0,0
763,-412,0,0,0,0,0,0,0,0,0,-1,1987,1436,0,0
770,-412,0,0,0,0,0,0,0,0,0,-1,1994,1436,0,0
777,-412,0,0,0,0,0,0,0,0,0,-1,2001,1436,0,0
784,-412,0,0,0,0,0,0,0,0,0,-1,2008,1436,0,0
791,-412,0,0,0,0,0,0,0,0,0,-1,2015,1436,0,0
798,-412,0,0,0,0,0,0,0,0,0,-1,2022,1436,0,0
805,-412,0,0,0,0,0,0,0,0,0,-1,2029,1436,0,0
812,-412,0,0,0,0,0,0,0,0,0,-1,2036,1436,0,0
-700,-419,0,0,0,0,0,0,0,0,0,-1,524,1443,0,0
-693,-419,0,0,0,0,0,0,0,0,0,-1,531,1443,0,0
-686,-419,0,0,0,0,0,0,0,0,0,-1,538,1443,0,0
-679,-419,0,0,0,0,0,0,0,0,0,-1,545,1443,0,0
-672,-419,0,0,0,0,0,0,0,0,0,-1,552,1443,0,0
-665,-419,0,0,0,0,0,0,0,0,0,-1,559,1443,0,0
-658,-419,0,0,0,0,0,0,0,0,0,-1,566,1443,0,0
-651,-419,0,0,0,0,0,0,0,0,0,-1,573,1443,0,0
-644,-419,0,0,0,0,0,0,0,0,0,-1,580,1443,0,0
-637,-419,0,0,0,0,0,0,0,0,0,-1,587,1443,0,0
-630,-419,0,0,0,0,0,0,0,0,0,-1,594,1443,0,0
-623,-419,0,0,0,0,0,0,0,0,0,-1,601,1443,0,0
-616,-419,0,0,0,0,0,0,0,0,0,-1,608,1443,0,0
-609,-419,0,0,0,0,0,0,0,0,0,-1,615,1443,0,0
-602,-419,0,0,0,0,0,0,0,0,0,-1,622,1443,0,0
-595,-419,-1.10693,3.61621,0.0541192,-0.0539947,0.0177902,0.0569714,-0.0568468,0.158968,0.065713,0.0488495,629,1443,-1.10696,-3.61623
-588,-419,0.920593,1.92993,0.0393178,-0.0400277,0.0125584,0.041258,-0.0419679,0.153285,0.0480511,0.0465823,636,1443,0.92062,-1.92996
-581,-419,0.0753174,0.179565,0.0275206,-0.029022,0.00888617,0.0288843,-0.0303857,0.15227,0.0342232,0.042858,643,1443,0.0753311,-0.179607
-574,-419,-0.18573,0.00134277,0.018294,-0.0205508,0.00639284,0.0193191,-0.0215759,0.158989,0.0236227,0.0454656,650,1443,-0.185746,-0.00128217
-567,-419,-0.244263,-0.222168,0.0113636,-0.0142592,0.00470175,0.0121991,-0.0150947,0.175868,0.0157876,0.0433198,657,1443,-0.244243,0.222174
-560,-419,0.278564,-0.393799,0,0,0,0,0,0,0,-1,664,1443,0.278583,0.393758
-553,-419,0.0490723,-0.225952,0.00305856,-0.00694541,0.00267465,0.00372875,-0.0076156,0.245517,0.00667658,0.0385456,671,1443,0.0490474,0.225977
-546,-419,-0.0326538,-0.144409,0.000281067,-0.00359814,0.00183294,0.00101012,-0.00432719,0.378566,0.00327387,0.0335127,678,1443,-0.0326629,0.14443
-539,-419,-0.00311279,-0.10022,-0.00234284,-0.000997197,0.00123901,-0.000260113,-0.00307993,1.03414,0.00197231,0.0207695,685,1443,-0.00313238,0.100221
-532,-419,-0.012085,-0.0949707,-0.00257226,-0.000200643,0.00158181,0.000590486,-0.00336339,1.10704,0.0024628,0.0111918,692,1443,-0.0120853,0.0950094
-525,-419,-0.0232544,-0.0731201,-0.00192948,-0.0012691,0.00112868,-0.000423304,-0.00277527,0.927701,0.00172646,0.0116912,699,1443,-0.0232403,0.0730814
-518,-419,-0.0100098,-0.0682373,-0.0016047,-0.000711899,0.00090185,-0.000152014,-0.00216458,1.01521,0.00139515,0.0150771,706,1443,-0.0099881,0.0682251
-511,-419,0.0130615,-0.045166,-0.00171032,-0.000162633,0.000703259,0.000109185,-0.00198213,1.20197,0.00135928,0.0175602,713,1443,0.0130479,0.045177
-504,-419,-0.0415649,-0.0435791,-0.00177231,0.000384332,3.43949e-05,0.000384881,-0.00177286,1.55485,0.00132891,0.0181513,720,1443,-0.0415358,0.0435629
-497,-419,-0.0427246,-0.0695801,-0.0016967,0.001175,-0.000757617,0.00136261,-0.00188432,-1.32804,0.00188267,0.0126105,727,1443,-0.042722,0.0695558
-490,-419,-0.0218506,-0.0817871,-0.000841794,0.00116219,-0.00135032,0.00184167,-0.00152128,-1.10459,0.00194453,0.00990241,734,1443,-0.0218584,0.0818388
-483,-419,-0.00238037,-0.0883789,0.000353626,0.000884752,-0.00220971,0.0028448,-0.00160643,-0.845201,0.00260286,0.00898594,741,1443,-0.00238333,0.0883263
-476,-419,-0.00610352,-0.100952,0.00158506,-7.5914e-05,-0.00278548,0.00366122,-0.00215208,-0.64052,0.0033938,0.00924965,748,1443,-0.00612,0.1009
-469,-419,-0.00683594,-0.108276,0.00278436,-0.000846476,-0.00296072,0.00444192,-0.00250404,-0.510375,0.00406194,0.0127922,755,1443,-0.00680899,0.10826
-462,-419,-0.0132446,-0.0631104,0.00418511,-0.00157949,-0.00242631,0.00507038,-0.00246477,-0.349856,0.00443627,0.022468,762,1443,-0.0132208,0.0631529
-455,-419,-0.0852051,-0.116333,0.00583371,-0.00219166,-0.00144113,0.00608465,-0.0024426,-0.172398,0.00507069,0.0359913,769,1443,-0.0851924,0.116275
-448,-419,0.0246582,-0.247925,0.00712589,-0.00336112,-0.000173293,0.00712875,-0.00336398,-0.0165185,0.0061866,0.0431265,776,1443,0.0246304,0.247914
-441,-419,0.308411,-0.387817,0.00811208,-0.004756,0.00169242,0.00833095,-0.00497486,0.128608,0.00776314,0.0443396,783,1443,0.30839,0.387875
-434,-419,0.410217,-0.395996,0.00839626,-0.00536672,0.0040331,0.00949104,-0.00646149,0.26506,0.00926539,0.0461671,790,1443,0.410232,0.396043
-427,-419,0.9104,-0.880493,0.00804599,-0.00333023,0.00754943,0.0118103,-0.00709456,0.462546,0.0110273,0.0479008,797,1443,0.910382,0.880445
-420,-419,0.703918,-0.965088,0.00721166,-0.00189153,0.0114551,0.0149863,-0.00966615,0.596291,0.0143431,0.0418111,804,1443,0.703943,0.965126
-413,-419,0.398132,-0.85437,0.00557279,0.000953165,0.0158399,0.0192704,-0.0127444,0.712997,0.0186113,0.0422912,811,1443,0.398111,0.854414
-406,-419,0.382813,0.557373,0.0031381,0.00567957,0.0206068,0.0250547,-0.0162371,0.816192,0.0240203,0.0431331,818,1443,0.382803,-0.557424
-399,-419,0.249695,0.271362,0.000107495,0.0129548,0.0255572,0.0328833,-0.0198209,0.90852,0.0307387,0.0438423,825,1443,0.249715,-0.271335
-392,-419,0,0,0,0,0,0,0,0,0,-1,832,1443,0,0
-385,-419,0,0,0,0,0,0,0,0,0,-1,839,1443,0,0
-378,-419,0,0,0,0,0,0,0,0,0,-1,846,1443,0,0
-371,-419,0,0,0,0,0,0,0,0,0,-1,853,1443,0,0
-364,-419,0,0,0,0,0,0,0,0,0,-1,860,1443,0,0
-357,-419,0,0,0,0,0,0,0,0,0,-1,867,1443,0,0
-350,-419,0,0,0,0,0,0,0,0,0,-1,874,1443,0,0
-343,-419,0,0,0,0,0,0,0,0,0,-1,881,1443,0,0
-336,-419,0,0,0,0,0,0,0,0,0,-1,888,1443,0,0
-329,-419,0,0,0,0,0,0,0,0,0,-1,895,1443,0,0
-322,-419,0,0,0,0,0,0,0,0,0,-1,902,1443,0,0
-315,-419,0,0,0,0,0,0,0,0,0,-1,909,1443,0,0
-308,-419,0,0,0,0,0,0,0,0,0,-1,916,1443,0,0
-301,-419,0,0,0,0,0,0,0,0,0,-1,923,1443,0,0
-294,-419,0,0,0,0,0,0,0,0,0,-1,930,1443,0,0
-287,-419,0,0,0,0,0,0,0,0,0,-1,937,1443,0,0
-280,-419,0,0,0,0,0,0,0,0,0,-1,944,1443,0,0
-273,-419,0,0,0,0,0,0,0,0,0,-1,951,1443,0,0
-266,-419,0,0,0,0,0,0,0,0,0,-1,958,1443,0,0
-259,-419,0,0,0,0,0,0,0,0,0,-1,965,1443,0,0
-252,-419,0,0,0,0,0,0,0,0,0,-1,972,1443,0,0
-245,-419,0,0,0,0,0,0,0,0,0,-1,979,1443,0,0
-238,-419,0,0,0,0,0,0,0,0,0,-1,986,1443,0,0
-231,-419,0,0,0,0,0,0,0,0,0,-1,993,1443,0,0
-224,-419,0,0,0,0,0,0,0,0,0,-1,1000,1443,0,0
-217,-419,0,0,0,0,0,0,0,0,0,-1,1007,1443,0,0
-210,-419,0,0,0,0,0,0,0,0,0,-1,1014,1443,0,0
-203,-419,0,0,0,0,0,0,0,0,0,-1,1021,1443,0,0
-196,-419,0,0,0,0,0,0,0,0,0,-1,1028,1443,0,0
-189,-419,0,0,0,0,0,0,0,0,0,-1,1035,1443,0,0
-182,-419,0,0,0,0,0,0,0,0,0,-1,1042,1443,0,0
-175,-419,0,0,0,0,0,0,0,0,0,-1,1049,1443,0,0
-168,-419,0,0,0,0,0,0,0,0,0,-1,1056,1443,0,0
-161,-419,0,0,0,0,0,0,0,0,0,-1,1063,1443,0,0
-154,-419,0,0,0,0,0,0,0,0,0,-1,1070,1443,0,0
-147,-419,0,0,0,0,0,0,0,0,0,-1,1077,1443,0,0
-140,-419,0,0,0,0,0,0,0,0,0,-1,1084,1443,0,0
-133,-419,0,0,0,0,0,0,0,0,0,-1,1091,1443,0,0
-126,-419,0,0,0,0,0,0,0,0,0,-1,1098,1443,0,0
-119,-419,0,0,0,0,0,0,0,0,0,-1,1105,1443,0,0
-112,-419,0,0,0,0,0,0,0,0,0,-1,1112,1443,0,0
-105,-419,0,0,0,0,0,0,0,0,0,-1,1119,1443,0,0
-98,-419,0,0,0,0,0,0,0,0,0,-1,1126,1443,0,0
-91,-419,0,0,0,0,0,0,0,0,0,-1,1133,1443,0,0
-84,-419,0,0,0,0,0,0,0,0,0,-1,1140,1443,0,0
-77,-419,0,0,0,0,0,0,0,0,0,-1,1147,1443,0,0
-70,-419,0,0,0,0,0,0,0,0,0,-1,1154,1443,0,0
-63,-419,0,0,0,0,0,0,0,0,0,-1,1161,1443,0,0
-56,-419,0,0,0,0,0,0,0,0,0,-1,1168,1443,0,0
-49,-419,0,0,0,0,0,0,0,0,0,-1,1175,1443,0,0
-42,-419,0,0,0,0,0,0,0,0,0,-1,1182,1443,0,0
-35,-419,0,0,0,0,0,0,0,0,0,-1,1189,1443,0,0
-28,-419,0,0,0,0,0,0,0,0,0,-1,1196,1443,0,0
-21,-419,0,0,0,0,0,0,0,0,0,-1,1203,1443,0,0
-14,-419,0,0,0,0,0,0,0,0,0,-1,1210,1443,0,0
-7,-419,0,0,0,0,0,0,0,0,0,-1,1217,1443,0,0
0,-419,0,0,0,0,0,0,0,0,0,-1,1224,1443,0,0
7,-419,0,0,0,0,0,0,0,0,0,-1,1231,1443,0,0
14,-419,0,0,0,0,0,0,0,0,0,-1,1238,1443,0,0
21,-419,0,0,0,0,0,0,0,0,0,-1,1245,1443,0,0
28,-419,0,0,0,0,0,0,0,0,0,-1,1252,1443,0,0
35,-419,0,0,0,0,0,0,0,0,0,-1,1259,1443,0,0
42,-419,0,0,0,0,0,0,0,0,0,-1,1266,1443,0,0
49,-419,0,0,0,0,0,0,0,0,0,-1,1273,1443,0,0
56,-419,0,0,0,0,0,0,0,0,0,-1,1280,1443,0,0
63,-419,0,0,0,0,0,0,0,0,0,-1,1287,1443,0,0
70,-419,0,0,0,0,0,0,0,0,0,-1,1294,1443,0,0
77,-419,0,0,0,0,0,0,0,0,0,-1,1301,1443,0,0
84,-419,0,0,0,0,0,0,0,0,0,-1,1308,1443,0,0
91,-419,0,0,0,0,0,0,0,0,0,-1,1315,1443,0,0
98,-419,0,0,0,0,0,0,0,0,0,-1,1322,1443,0,0
105,-419,0,0,0,0,0,0,0,0,0,-1,1329,1443,0,0
112,-419,0,0,0,0,0,0,0,0,0,-1,1336,1443,0,0
119,-419,0,0,0,0,0,0,0,0,0,-1,1343,1443,0,0
126,-419,0,0,0,0,0,0,0,0,0,-1,1350,1443,0,0
133,-419,0,0,0,0,0,0,0,0,0,-1,1357,1443,0,0
140,-419,0,0,0,0,0,0,0,0,0,-1,1364,1443,0,0
147,-419,0,0,0,0,0,0,0,0,0,-1,1371,1443,0,0
154,-419,0,0,0,0,0,0,0,0,0,-1,1378,1443,0,0
161,-419,0,0,0,0,0,0,0,0,0,-1,1385,1443,0,0
168,-419,0,0,0,0,0,0,0,0,0,-1,1392,1443,0,0
175,-419,0,0,0,0,0,0,0,0,0,-1,1399,1443,0,0
182,-419,0,0,0,0,0,0,0,0,0,-1,1406,1443,0,0
189,-419,0,0,0,0,0,0,0,0,0,-1,1413,1443,0,0
196,-419,0,0,0,0,0,0,0,0,0,-1,1420,1443,0,0
203,-419,0,0,0,0,0,0,0,0,0,-1,1427,1443,0,0
210,-419,0,0,0,0,0,0,0,0,0,-1,1434,1443,0,0
217,-419,0,0,0,0,0,0,0,0,0,-1,1441,1443,0,0
224,-419,0,0,0,0,0,0,0,0,0,-1,1448,1443,0,0
231,-419,0,0,0,0,0,0,0,0,0,-1,1455,1443,0,0
238,-419,0,0,0,0,0,0,0,0,0,-1,1462,1443,0,0
245,-419,0,0,0,0,0,0,0,0,0,-1,1469,1443,0,0
252,-419,0,0,0,0,0,0,0,0,0,-1,1476,1443,0,0
259,-419,0,0,0,0,0,0,0,0,0,-1,1483,1443,0,0
266,-419,0,0,0,0,0,0,0,0,0,-1,1490,1443,0,0
273,-419,0,0,0,0,0,0,0,0,0,-1,1497,1443,0,0
280,-419,0,0,0,0,0,0,0,0,0,-1,1504,1443,0,0
287,-419,0,0,0,0,0,0,0,0,0,-1,1511,1443,0,0
294,-419,0,0,0,0,0,0,0,0,0,-1,1518,1443,0,0
301,-419,0,0,0,0,0,0,0,0,0,-1,1525,1443,0,0
308,-419,0,0,0,0,0,0,0,0,0,-1,1532,1443,0,0
315,-419,0,0,0,0,0,0,0,0,0,-1,1539,1443,0,0
322,-419,0,0,0,0,0,0,0,0,0,-1,1546,1443,0,0
329,-419,0,0,0,0,0,0,0,0,0,-1,1553,1443,0,0
336,-419,0,0,0,0,0,0,0,0,0,-1,1560,1443,0,0
343,-419,0,0,0,0,0,0,0,0,0,-1,1567,1443,0,0
350,-419,0,0,0,0,0,0,0,0,0,-1,1574,1443,0,0
357,-419,0,0,0,0,0,0,0,0,0,-1,1581,1443,0,0
364,-419,0,0,0,0,0,0,0,0,0,-1,1588,1443,0,0
371,-419,0,0,0,0,0,0,0,0,0,-1,1595,1443,0,0
378,-419,0,0,0,0,0,0,0,0,0,-1,1602,1443,0,0
385,-419,0,0,0,0,0,0,0,0,0,-1,1609,1443,0,0
392,-419,0,0,0,0,0,0,0,0,0,-1,1616,1443,0,0
399,-419,0,0,0,0,0,0,0,0,0,-1,1623,1443,0,0
406,-419,0,0,0,0,0,0,0,0,0,-1,1630,1443,0,0
413,-419,0,0,0,0,0,0,0,0,0,-1,1637,1443,0,0
420,-419,0,0,0,0,0,0,0,0,0,-1,1644,1443,0,0
427,-419,0,0,0,0,0,0,0,0,0,-1,1651,1443,0,0
434,-419,0,0,0,0,0,0,0,0,0,-1,1658,1443,0,0
441,-419,0,0,0,0,0,0,0,0,0,-1,1665,1443,0,0
448,-419,0,0,0,0,0,0,0,0,0,-1,1672,1443,0,0
455,-419,0,0,0,0,0,0,0,0,0,-1,1679,1443,0,0
462,-419,0,0,0,0,0,0,0,0,0,-1,1686,1443,0,0
469,-419,0,0,0,0,0,0,0,0,0,-1,1693,1443,0,0
476,-419,0,0,0,0,0,0,0,0,0,-1,1700,1443,0,0
483,-419,0,0,0,0,0,0,0,0,0,-1,1707,1443,0,0
490,-419,0,0,0,0,0,0,0,0,0,-1,1714,1443,0,0
497,-419,0,0,0,0,0,0,0,0,0,-1,1721,1443,0,0
504,-419,0,0,0,0,0,0,0,0,0,-1,1728,1443,0,0
511,-419,-0.72583,-1.0769,0,0,0,0,0,0,0,-1,1735,1443,-0.725869,1.07688
518,-419,-1.02502,-0.662598,-0.0334383,-0.0323202,0.00914808,-0.0237141,-0.0420444,0.815916,0.0243406,0.04743,1742,1443,-1.02497,0.662583
525,-419,-1.36389,-0.139038,0,0,0,0,0,0,0,-1,1749,1443,-1.36391,0.139065
532,-419,-1.57825,0.589478,0,0,0,0,0,0,0,-1,1756,1443,-1.5783,-0.589442
539,-419,1.08386,0.314209,0,0,0,0,0,0,0,-1,1763,1443,1.08386,-0.3142
546,-419,0.872192,-0.221191,-0.0182589,-0.00692894,0.000833662,-0.00686792,-0.0183199,1.49774,0.0106868,0.0449572,1770,1443,0.872223,0.221202
553,-419,0.186768,-0.762207,-0.0161103,-0.00463289,-4.7411e-05,-0.0046327,-0.0161104,-1.56667,0.00957714,0.0435859,1777,1443,0.186809,0.762267
560,-419,-0.376953,-1.10815,-0.0142284,-0.00254543,-0.000725852,-0.00250051,-0.0142733,-1.50898,0.00880125,0.0430579,1784,1443,-0.376951,1.10819
567,-419,-0.536133,-0.459351,0,0,0,0,0,0,0,-1,1791,1443,-0.536132,0.459328
574,-419,-0.319702,-0.312866,-0.0110611,-0.000642584,-0.000783696,-0.000583963,-0.0111197,-1.49613,0.00722635,0.0450583,1798,1443,-0.319722,0.31284
581,-419,-0.088623,-0.188599,-0.0100016,-0.00148192,-0.000582809,-0.00144224,-0.0100413,-1.50281,0.00626899,0.0418315,1805,1443,-0.0886565,0.188603
588,-419,0.0371094,-0.271118,-0.00828391,-0.00205079,9.87867e-05,-0.00204922,-0.00828548,1.55495,0.00498307,0.0395361,1812,1443,0.0371666,0.271146
595,-419,-0.00292969,-0.149658,-0.00672036,-0.00175047,0.000753975,-0.0016386,-0.00683223,1.4235,0.00411874,0.0311727,1819,1443,-0.00291733,0.149689
602,-419,-0.00354004,-0.0958252,-0.00509044,-0.00116173,0.00113232,-0.000858747,-0.00539342,1.30934,0.0033463,0.0130767,1826,1443,-0.00350497,0.0958729
609,-419,-0.0263672,-0.0793457,-0.00374463,-0.00090362,0.0013091,-0.000392398,-0.00425585,1.19849,0.0027159,0.00959412,1833,1443,-0.0264181,0.0793414
616,-419,-0.0358887,-0.057251,-0.00273584,-0.000545264,0.00148529,0.000204918,-0.00348602,1.1031,0.00239524,0.0106789,1840,1443,-0.0358962,0.0573009
623,-419,-0.0251465,-0.0726318,-0.00176855,-0.000471697,0.00121225,0.000254652,-0.00249489,1.03098,0.00175432,0.00880221,1847,1443,-0.025107,0.0726412
630,-419,-0.0322266,-0.0705566,-0.00145317,-0.000677196,0.00114582,0.000144541,-0.00227491,0.948645,0.00156701,0.0102761,1854,1443,-0.0322301,0.0705199
637,-419,-0.041626,-0.0672607,-0.00139444,-0.000712252,0.00104351,4.44981e-05,-0.00215119,0.943359,0.00144918,0.0106857,1861,1443,-0.0415863,0.0672933
644,-419,-0.0236816,-0.0587158,-0.000816947,-0.000776371,0.00136934,0.000572831,-0.00216615,0.792806,0.00166816,0.00995858,1868,1443,-0.0236817,0.058695
651,-419,0.00524902,-0.0543213,0.0012495,-0.000480472,0.0024888,0.00301935,-0.00225032,0.618153,0.00305322,0.010636,1875,1443,0.00528112,0.0543725
658,-419,-0.0216064,-0.0826416,0.00490107,-0.000590426,0.00426674,0.00722919,-0.00291856,0.499494,0.00603243,0.0119554,1882,1443,-0.0216156,0.082678
665,-419,-0.050415,-0.0875244,0.00833069,-0.000485411,0.00602747,0.01139,-0.00354471,0.469677,0.00901038,0.0176993,1889,1443,-0.0503947,0.0874965
672,-419,-0.0495605,-0.0961914,0.0124656,0.000292569,0.00821883,0.0166062,-0.00384808,0.466684,0.0125517,0.0202001,1896,1443,-0.0495339,0.09614
679,-419,-0.0422363,-0.0858154,0.0174708,0.00223986,0.010783,0.0230564,-0.00334573,0.477945,0.0165989,0.0304314,1903,1443,-0.042222,0.0858108
686,-419,-0.0986328,0.170776,0.0244659,0.0043478,0.0141268,0.031749,-0.00293537,0.476014,0.0222092,0.042338,1910,1443,-0.098632,-0.17078
693,-419,-0.156128,0.217041,0.0329821,0.00783886,0.017922,0.0423022,-0.00148118,0.479545,0.0287079,0.0438896,1917,1443,-0.156116,-0.217012
700,-419,-0.203369,0.09375,0.0425892,0.0133496,0.0219709,0.0543599,0.0015789,0.491829,0.0357253,0.0433969,1924,1443,-0.203361,-0.0937193
707,-419,1.09534,2.74353,0.0525172,0.0217725,0.0258828,0.0672485,0.00704115,0.517429,0.0426793,0.0458481,1931,1443,1.09539,-2.74353
714,-419,2.2135,3.23145,0,0,0,0,0,0,0,-1,1938,1443,2.21347,-3.23143
721,-419,0,0,0,0,0,0,0,0,0,-1,1945,1443,0,0
728,-419,0,0,0,0,0,0,0,0,0,-1,1952,1443,0,0
735,-419,0,0,0,0,0,0,0,0,0,-1,1959,1443,0,0
742,-419,0,0,0,0,0,0,0,0,0,-1,1966,1443,0,0
749,-419,0,0,0,0,0,0,0,0,0,-1,1973,1443,0,0
756,-419,0,0,0,0,0,0,0,0,0,-1,1980,1443,0,0
763,-419,0,0,0,0,0,0,0,0,0,-1,1987,1443,0,0
770,-419,0,0,0,0,0,0,0,0,0,-1,1994,1443,0,0
777,-419,0,0,0,0,0,0,0,0,0,-1,2001,1443,0,0
784,-419,0,0,0,0,0,0,0,0,0,-1,2008,1443,0,0
791,-419,0,0,0,0,0,0,0,0,0,-1,2015,1443,0,0
798,-419,0,0,0,0,0,0,0,0,0,-1,2022,1443,0,0
805,-419,0,0,0,0,0,0,0,0,0,-1,2029,1443,0,0
812,-419,0,0,0,0,0,0,0,0,0,-1,2036,1443,0,0
-700,-426,0,0,0,0,0,0,0,0,0,-1,524,1450,0,0
-693,-426,0,0,0,0,0,0,0,0,0,-1,531,1450,0,0
-686,-426,0,0,0,0,0,0,0,0,0,-1,538,1450,0,0
-679,-426,0,0,0,0,0,0,0,0,0,-1,545,1450,0,0
-672,-426,0,0,0,0,0,0,0,0,0,-1,552,1450,0,0
-665,-426,0,0,0,0,0,0,0,0,0,-1,559,1450,0,0
-658,-426,0,0,0,0,0,0,0,0,0,-1,566,1450,0,0
-651,-426,0,0,0,0,0,0,0,0,0,-1,573,1450,0,0
-644,-426,0,0,0,0,0,0,0,0,0,-1,580,1450,0,0
-637,-426,0,0,0,0,0,0,0,0,0,-1,587,1450,0,0
-630,-426,0,0,0,0,0,0,0,0,0,-1,594,1450,0,0
-623,-426,0,0,0,0,0,0,0,0,0,-1,601,1450,0,0
-616,-426,0,0,0,0,0,0,0,0,0,-1,608,1450,0,0
-609,-426,0,0,0,0,0,0,0,0,0,-1,615,1450,0,0
-602,-426,0,0,0,0,0,0,0,0,0,-1,622,1450,0,0
-595,-426,0,0,0,0,0,0,0,0,0,-1,629,1450,0,0
-588,-426,0.535339,2.51575,0,0,0,0,0,0,0,-1,636,1450,0.535329,-2.51573
-581,-426,0.66394,0.0296631,0,0,0,0,0,0,0,-1,643,1450,0.663963,-0.0296297
-574,-426,0.360229,-0.239014,0.0173827,-0.0272088,0.00793672,0.0187532,-0.0285793,0.170994,0.027523,0.0470239,650,1450,0.360201,0.239055
-567,-426,0.138184,-0.487061,0.0101928,-0.0197586,0.00603121,0.0113617,-0.0209275,0.19143,0.0189129,0.0491202,657,1450,0.138208,0.487027
-560,-426,0.108765,0.0218506,0,0,0,0,0,0,0,-1,664,1450,0.108792,-0.0218714
-553,-426,-0.0181885,-0.28064,0.00186101,-0.0106839,0.00371573,0.00287899,-0.0117019,0.267402,0.00891721,0.0409427,671,1450,-0.018211,0.28059
-546,-426,0.166809,-0.306152,-0.0006713,-0.00671518,0.00272681,0.000377091,-0.00776357,0.367052,0.00530588,0.0419373,678,1450,0.166782,0.306211
-539,-426,0.0368652,-0.159302,-0.0031863,-0.00353392,0.00200577,-0.00134682,-0.0053734,0.742177,0.00322837,0.0347719,685,1450,0.0368634,0.159351
-532,-426,-0.00549316,-0.0836182,-0.00327598,-0.00216198,0.00221408,-0.000435914,-0.00500205,0.908627,0.00319931,0.0182039,692,1450,-0.00550036,0.0836354
-525,-426,-0.00799561,-0.0705566,-0.00246543,-0.00272458,0.00165709,-0.000932855,-0.00425715,0.746381,0.0025839,0.0114433,699,1450,-0.00798754,0.0705797
-518,-426,-0.00561523,-0.0722656,-0.00193087,-0.0017793,0.00130976,-0.000543139,-0.00316703,0.814296,0.00195561,0.0142749,706,1450,-0.005635,0.0723214
-511,-426,-0.00366211,-0.0734863,-0.00181167,-0.000909291,0.00107685,-0.000192932,-0.00252803,0.983784,0.00162487,0.0142599,713,1450,-0.00368141,0.0734794
-504,-426,-0.0324707,-0.0705566,-0.00168248,-0.000128925,0.000381325,-4.03743e-05,-0.00177103,1.34262,0.00116746,0.0147251,720,1450,-0.0324887,0.0705274
-497,-426,-0.032959,-0.0717773,-0.00150574,0.000825383,-0.00040292,0.000893061,-0.00157342,-1.40438,0.00144197,0.0116841,727,1450,-0.032984,0.0717345
-490,-426,-0.0228271,-0.0714111,-0.000588513,0.000849139,-0.000925109,0.00130187,-0.00104124,-1.11568,0.00135558,0.010968,734,1450,-0.0228301,0.0714167
-483,-426,-0.0148315,-0.081543,0.000628966,0.000593283,-0.00161255,0.00222377,-0.00100152,-0.779866,0.00190617,0.0103437,741,1450,-0.0148152,0.0815257
-476,-426,-0.0222778,-0.0881348,0.00174627,-0.000286807,-0.00202498,0.00299554,-0.00153608,-0.552775,0.00266117,0.0086537,748,1450,-0.0222786,0.0880997
-469,-426,-0.0280151,-0.0944824,0.00280347,-0.00102517,-0.00209046,0.0037237,-0.00194539,-0.414676,0.00332629,0.00708685,755,1450,-0.0280359,0.0944558
-462,-426,-0.00616455,-0.0661621,0.00403498,-0.0016717,-0.00145249,0.0043834,-0.00202012,-0.23543,0.00378007,0.0131963,762,1450,-0.00618676,0.0661944
-455,-426,-0.0308838,-0.0460205,0.00551606,-0.0021561,-0.000420706,0.00553906,-0.0021791,-0.0546172,0.00459467,0.0255668,769,1450,-0.0308978,0.046028
-448,-426,-0.0561523,-0.00927734,0,0,0,0,0,0,0,-1,776,1450,-0.0561425,0.00923482
-441,-426,0.237366,-0.127441,0.00740535,-0.00456458,0.00264501,0.00796377,-0.005123,0.208066,0.00761476,0.0411366,783,1450,0.237383,0.127492
-434,-426,0.543579,-0.249146,0.00744897,-0.00517749,0.00474758,0.00903488,-0.0067634,0.322391,0.00915251,0.0446677,790,1450,0.543589,0.249175
-427,-426,0.65741,-0.353638,0.00684,-0.00289878,0.00806194,0.011389,-0.00744777,0.513721,0.0109545,0.046425,797,1450,0.657432,0.353585
-420,-426,0.601074,-0.302246,0,0,0,0,0,0,0,-1,804,1450,0.6011,0.302251
-413,-426,0.0115967,-0.749512,0,0,0,0,0,0,0,-1,811,1450,0.0116011,0.749468
-406,-426,-0.315613,0.135498,0,0,0,0,0,0,0,-1,818,1450,-0.315615,-0.135494
-399,-426,-0.0905151,0.334595,-0.00133915,0.0126258,0.0240305,0.0306676,-0.0193811,0.926788,0.0291395,0.045354,825,1450,-0.0905292,-0.334612
-392,-426,0.0710449,0.332275,-0.00493927,0.0220634,0.0282798,0.0398994,-0.0227753,1.00811,0.0366327,0.0431523,832,1450,0.0710234,-0.332281
-385,-426,0,0,0,0,0,0,0,0,0,-1,839,1450,0,0
-378,-426,0,0,0,0,0,0,0,0,0,-1,846,1450,0,0
-371,-426,0,0,0,0,0,0,0,0,0,-1,853,1450,0,0
-364,-426,0,0,0,0,0,0,0,0,0,-1,860,1450,0,0
-357,-426,0,0,0,0,0,0,0,0,0,-1,867,1450,0,0
-350,-426,0,0,0,0,0,0,0,0,0,-1,874,1450,0,0
-343,-426,0,0,0,0,0,0,0,0,0,-1,881,1450,0,0
-336,-426,0,0,0,0,0,0,0,0,0,-1,888,1450,0,0
-329,-426,0,0,0,0,0,0,0,0,0,-1,895,1450,0,0
-322,-426,0,0,0,0,0,0,0,0,0,-1,902,1450,0,0
-315,-426,0,0,0,0,0,0,0,0,0,-1,909,1450,0,0
-308,-426,0,0,0,0,0,0,0,0,0,-1,916,1450,0,0
-301,-426,0,0,0,0,0,0,0,0,0,-1,923,1450,0,0
-294,-426,0,0,0,0,0,0,0,0,0,-1,930,1450,0,0
-287,-426,0,0,0,0,0,0,0,0,0,-1,937,1450,0,0
-280,-426,0,0,0,0,0,0,0,0,0,-1,944,1450,0,0
-273,-426,0,0,0,0,0,0,0,0,0,-1,951,1450,0,0
-266,-426,0,0,0,0,0,0,0,0,0,-1,958,1450,0,0
-259,-426,0,0,0,0,0,0,0,0,0,-1,965,1450,0,0
-252,-426,0,0,0,0,0,0,0,0,0,-1,972,1450,0,0
-245,-426,0,0,0,0,0,0,0,0,0,-1,979,1450,0,0
-238,-426,0,0,0,0,0,0,0,0,0,-1,986,1450,0,0
-231,-426,0,0,0,0,0,0,0,0,0,-1,993,1450,0,0
-224,-426,0,0,0,0,0,0,0,0,0,-1,1000,1450,0,0
-217,-426,0,0,0,0,0,0,0,0,0,-1,1007,1450,0,0
-210,-426,0,0,0,0,0,0,0,0,0,-1,1014,1450,0,0
-203,-426,0,0,0,0,0,0,0,0,0,-1,1021,1450,0,0
-196,-426,0,0,0,0,0,0,0,0,0,-1,1028,1450,0,0
-189,-426,0,0,0,0,0,0,0,0,0,-1,1035,1450,0,0
-182,-426,0,0,0,0,0,0,0,0,0,-1,1042,1450,0,0
-175,-426,0,0,0,0,0,0,0,0,0,-1,1049,1450,0,0
-168,-426,0,0,0,0,0,0,0,0,0,-1,1056,1450,0,0
-161,-426,0,0,0,0,0,0,0,0,0,-1,1063,1450,0,0
-154,-426,0,0,0,0,0,0,0,0,0,-1,1070,1450,0,0
-147,-426,0,0,0,0,0,0,0,0,0,-1,1077,1450,0,0
-140,-426,0,0,0,0,0,0,0,0,0,-1,1084,1450,0,0
-133,-426,0,0,0,0,0,0,0,0,0,-1,1091,1450,0,0
-126,-426,0,0,0,0,0,0,0,0,0,-1,1098,1450,0,0
-119,-426,0,0,0,0,0,0,0,0,0,-1,1105,1450,0,0
-112,-426,0,0,0,0,0,0,0,0,0,-1,1112,1450,0,0
-105,-426,0,0,0,0,0,0,0,0,0,-1,1119,1450,0,0
-98,-426,0,0,0,0,0,0,0,0,0,-1,1126,1450,0,0
-91,-426,0,0,0,0,0,0,0,0,0,-1,1133,1450,0,0
-84,-426,0,0,0,0,0,0,0,0,0,-1,1140,1450,0,0
-77,-426,0,0,0,0,0,0,0,0,0,-1,1147,1450,0,0
-70,-426,0,0,0,0,0,0,0,0,0,-1,1154,1450,0,0
-63,-426,0,0,0,0,0,0,0,0,0,-1,1161,1450,0,0
-56,-426,0,0,0,0,0,0,0,0,0,-1,1168,1450,0,0
-49,-426,0,0,0,0,0,0,0,0,0,-1,1175,1450,0,0
-42,-426,0,0,0,0,0,0,0,0,0,-1,1182,1450,0,0
-35,-426,0,0,0,0,0,0,0,0,0,-1,1189,1450,0,0
-28,-426,0,0,0,0,0,0,0,0,0,-1,1196,1450,0,0
-21,-426,0,0,0,0,0,0,0,0,0,-1,1203,1450,0,0
-14,-426,0,0,0,0,0,0,0,0,0,-1,1210,1450,0,0
-7,-426,0,0,0,0,0,0,0,0,0,-1,1217,1450,0,0
0,-426,0,0,0,0,0,0,0,0,0,-1,1224,1450,0,0
7,-426,0,0,0,0,0,0,0,0,0,-1,1231,1450,0,0
14,-426,0,0,0,0,0,0,0,0,0,-1,1238,1450,0,0
21,-426,0,0,0,0,0,0,0,0,0,-1,1245,1450,0,0
28,-426,0,0,0,0,0,0,0,0,0,-1,1252,1450,0,0
35,-426,0,0,0,0,0,0,0,0,0,-1,1259,1450,0,0
42,-426,0,0,0,0,0,0,0,0,0,-1,1266,1450,0,0
49,-426,0,0,0,0,0,0,0,0,0,-1,1273,1450,0,0
56,-426,0,0,0,0,0,0,0,0,0,-1,1280,1450,0,0
63,-426,0,0,0,0,0,0,0,0,0,-1,1287,1450,0,0
70,-426,0,0,0,0,0,0,0,0,0,-1,1294,1450,0,0
77,-426,0,0,0,0,0,0,0,0,0,-1,1301,1450,0,0
84,-426,0,0,0,0,0,0,0,0,0,-1,1308,1450,0,0
91,-426,0,0,0,0,0,0,0,0,0,-1,1315,1450,0,0
98,-426,0,0,0,0,0,0,0,0,0,-1,1322,1450,0,0
105,-426,0,0,0,0,0,0,0,0,0,-1,1329,1450,0,0
112,-426,0,0,0,0,0,0,0,0,0,-1,1336,1450,0,0
119,-426,0,0,0,0,0,0,0,0,0,-1,1343,1450,0,0
126,-426,0,0,0,0,0,0,0,0,0,-1,1350,1450,0,0
133,-426,0,0,0,0,0,0,0,0,0,-1,1357,1450,0,0
140,-426,0,0,0,0,0,0,0,0,0,-1,1364,1450,0,0
147,-426,0,0,0,0,0,0,0,0,0,-1,1371,1450,0,0
154,-426,0,0,0,0,0,0,0,0,0,-1,1378,1450,0,0
161,-426,0,0,0,0,0,0,0,0,0,-1,1385,1450,0,0
168,-426,0,0,0,0,0,0,0,0,0,-1,1392,1450,0,0
175,-426,0,0,0,0,0,0,0,0,0,-1,1399,1450,0,0
182,-426,0,0,0,0,0,0,0,0,0,-1,1406,1450,0,0
189,-426,0,0,0,0,0,0,0,0,0,-1,1413,1450,0,0
196,-426,0,0,0,0,0,0,0,0,0,-1,1420,1450,0,0
203,-426,0,0,0,0,0,0,0,0,0,-1,1427,1450,0,0
210,-426,0,0,0,0,0,0,0,0,0,-1,1434,1450,0,0
217,-426,0,0,0,0,0,0,0,0,0,-1,1441,1450,0,0
224,-426,0,0,0,0,0,0,0,0,0,-1,1448,1450,0,0
231,-426,0,0,0,0,0,0,0,0,0,-1,1455,1450,0,0
238,-426,0,0,0,0,0,0,0,0,0,-1,1462,1450,0,0
245,-426,0,0,0,0,0,0,0,0,0,-1,1469,1450,0,0
252,-426,0,0,0,0,0,0,0,0,0,-1,1476,1450,0,0
259,-426,0,0,0,0,0,0,0,0,0,-1,1483,1450,0,0
266,-426,0,0,0,0,0,0,0,0,0,-1,1490,1450,0,0
273,-426,0,0,0,0,0,0,0,0,0,-1,1497,1450,0,0
280,-426,0,0,0,0,0,0,0,0,0,-1,1504,1450,0,0
287,-426,0,0,0,0,0,0,0,0,0,-1,1511,1450,0,0
294,-426,0,0,0,0,0,0,0,0,0,-1,1518,1450,0,0
301,-426,0,0,0,0,0,0,0,0,0,-1,1525,1450,0,0
308,-426,0,0,0,0,0,0,0,0,0,-1,1532,1450,0,0
315,-426,0,0,0,0,0,0,0,0,0,-1,1539,1450,0,0
322,-426,0,0,0,0,0,0,0,0,0,-1,1546,1450,0,0
329,-426,0,0,0,0,0,0,0,0,0,-1,1553,1450,0,0
336,-426,0,0,0,0,0,0,0,0,0,-1,1560,1450,0,0
343,-426,0,0,0,0,0,0,0,0,0,-1,1567,1450,0,0
350,-426,0,0,0,0,0,0,0,0,0,-1,1574,1450,0,0
357,-426,0,0,0,0,0,0,0,0,0,-1,1581,1450,0,0
364,-426,0,0,0,0,0,0,0,0,0,-1,1588,1450,0,0
371,-426,0,0,0,0,0,0,0,0,0,-1,1595,1450,0,0
378,-426,0,0,0,0,0,0,0,0,0,-1,1602,1450,0,0
385,-426,0,0,0,0,0,0,0,0,0,-1,1609,1450,0,0
392,-426,0,0,0,0,0,0,0,0,0,-1,1616,1450,0,0
399,-426,0,0,0,0,0,0,0,0,0,-1,1623,1450,0,0
406,-426,0,0,0,0,0,0,0,0,0,-1,1630,1450,0,0
413,-426,0,0,0,0,0,0,0,0,0,-1,1637,1450,0,0
420,-426,0,0,0,0,0,0,0,0,0,-1,1644,1450,0,0
427,-426,0,0,0,0,0,0,0,0,0,-1,1651,1450,0,0
434,-426,0,0,0,0,0,0,0,0,0,-1,1658,1450,0,0
441,-426,0,0,0,0,0,0,0,0,0,-1,1665,1450,0,0
448,-426,0,0,0,0,0,0,0,0,0,-1,1672,1450,0,0
455,-426,0,0,0,0,0,0,0,0,0,-1,1679,1450,0,0
462,-426,0,0,0,0,0,0,0,0,0,-1,1686,1450,0,0
469,-426,0,0,0,0,0,0,0,0,0,-1,1693,1450,0,0
476,-426,0,0,0,0,0,0,0,0,0,-1,1700,1450,0,0
483,-426,0,0,0,0,0,0,0,0,0,-1,1707,1450,0,0
490,-426,0,0,0,0,0,0,0,0,0,-1,1714,1450,0,0
497,-426,0,0,0,0,0,0,0,0,0,-1,1721,1450,0,0
504,-426,0.236572,-0.681274,-0.0337339,-0.0376967,0.0161214,-0.0194726,-0.051958,0.724254,0.03031,0.0382419,1728,1450,0.236586,0.681262
511,-426,-0.284058,-0.686035,-0.0279632,-0.030645,0.0129258,-0.016309,-0.0422993,0.733714,0.0246338,0.0437588,1735,1450,-0.284041,0.686
518,-426,-0.776733,-0.330078,-0.0253718,-0.0239327,0.00921254,-0.0154117,-0.0338929,0.824372,0.0195948,0.0485242,1742,1450,-0.776785,0.330022
525,-426,-0.124756,1.58557,0,0,0,0,0,0,0,-1,1749,1450,-0.124713,-1.5856
532,-426,1.59814,1.07141,0,0,0,0,0,0,0,-1,1756,1450,1.59818,-1.07146
539,-426,1.11011,0.682983,-0.0170508,-0.00759858,0.0023596,-0.00704228,-0.0176071,1.33926,0.010233,0.046969,1763,1450,1.11006,-0.682977
546,-426,0.820435,-0.00305176,-0.0150715,-0.00491221,0.00129674,-0.0047493,-0.0152344,1.44582,0.00900097,0.0440347,1770,1450,0.820381,0.00302241
553,-426,0.308472,-0.484375,-0.0131192,-0.0031531,0.000568383,-0.00312079,-0.0131515,1.51401,0.00793468,0.0408803,1777,1450,0.308411,0.484337
560,-426,0.590576,-0.390015,-0.0115253,-0.00123468,2.57261e-05,-0.00123462,-0.0115253,1.5683,0.00730686,0.0422365,1784,1450,0.590622,0.389977
567,-426,0.640015,-0.206665,-0.0102004,-0.000206707,-2.45766e-05,-0.000206647,-0.0102004,-1.56834,0.00673245,0.0416191,1791,1450,0.639999,0.206606
574,-426,-0.389771,-0.423828,0,0,0,0,0,0,0,-1,1798,1450,-0.389711,0.423849
581,-426,-0.166016,-0.248413,-0.00822455,-0.000633761,-0.00013593,-0.000631328,-0.00822699,-1.5529,0.00528679,0.0413944,1805,1450,-0.166022,0.248432
588,-426,0.0102539,-0.0596924,-0.00688091,-0.00131136,0.000359382,-0.00128827,-0.00690401,1.50662,0.00423901,0.0329503,1812,1450,0.0102302,0.0597037
595,-426,-0.00756836,-0.0734863,-0.00567508,-0.00101525,0.000879053,-0.000854941,-0.00583539,1.39041,0.00363891,0.0214504,1819,1450,-0.00751337,0.0734299
602,-426,-0.020874,-0.0965576,-0.0043462,-0.000503619,0.0011546,-0.000183377,-0.00466644,1.30024,0.00305167,0.0131183,1826,1450,-0.020858,0.0965069
609,-426,-0.0212402,-0.0888672,-0.00323816,-0.000187027,0.00129299,0.000287203,-0.00371239,1.21926,0.002576,0.010438,1833,1450,-0.0212875,0.0888881
616,-426,-0.0274658,-0.0601807,-0.00242062,0.000172133,0.00145219,0.000822403,-0.00307089,1.14978,0.00236946,0.0124774,1840,1450,-0.0274457,0.0601432
623,-426,-0.0272217,-0.0756836,-0.00165974,0.000269513,0.00118364,0.000831816,-0.00222205,1.1273,0.00182303,0.0106578,1847,1450,-0.027178,0.0756389
630,-426,-0.0311279,-0.0792236,-0.00152554,7.45443e-05,0.00113814,0.000665696,-0.00211669,1.09175,0.00167764,0.0106679,1854,1450,-0.0311807,0.0792034
637,-426,-0.0354004,-0.069458,-0.00160138,-2.29985e-06,0.00109381,0.000553036,-0.00215671,1.101,0.00165328,0.0102184,1861,1450,-0.0354151,0.0694902
644,-426,-0.0358887,-0.0574951,-0.00110755,-0.000100409,0.00149473,0.000973299,-0.00218125,0.947875,0.00186526,0.00979308,1868,1450,-0.035847,0.057468
651,-426,-0.03125,-0.0690918,0.00096335,0.000234526,0.00273411,0.00335722,-0.00215935,0.719147,0.00320992,0.0105848,1875,1450,-0.0312455,0.0690331
658,-426,-0.0477295,-0.0943604,0.00462246,0.000133372,0.0046044,0.00750026,-0.00274443,0.558608,0.00612354,0.0106746,1882,1450,-0.0476844,0.0943747
665,-426,-0.0516357,-0.0942383,0.00820275,0.000219716,0.00650745,0.0118453,-0.00342284,0.5103,0.00925135,0.015538,1889,1450,-0.0516468,0.0942466
672,-426,-0.0588379,-0.0754395,0.0127743,0.000958852,0.00891566,0.0175619,-0.00382877,0.4928,0.013171,0.0239181,1896,1450,-0.0587908,0.0753839
679,-426,-0.0910645,0.015625,0.0185598,0.00280007,0.0117692,0.0248435,-0.00348365,0.490407,0.0178373,0.0339595,1903,1450,-0.0910328,-0.0155932
686,-426,-0.126465,0.302734,0.0267697,0.00491195,0.0154734,0.0347846,-0.00310296,0.477927,0.0242902,0.0401543,1910,1450,-0.126408,-0.302769
693,-426,-0.0543213,0.474365,0.0369703,0.00843014,0.0197823,0.0470923,-0.00169186,0.47294,0.0319737,0.0438063,1917,1450,-0.0543748,-0.474313
700,-426,0.664307,1.62415,0.0489797,0.014076,0.0244852,0.061596,0.00145971,0.475783,0.0405862,0.0475321,1924,1450,0.664279,-1.62413
707,-426,1.32275,2.59412,0.0620702,0.0229507,0.0291533,0.0776174,0.00740347,0.489925,0.0494621,0.046682,1931,1450,1.32278,-2.59406
714,-426,0,0,0,0,0,0,0,0,0,-1,1938,1450,0,0
721,-426,0,0,0,0,0,0,0,0,0,-1,1945,1450,0,0
728,-426,0,0,0,0,0,0,0,0,0,-1,1952,1450,0,0
735,-426,0,0,0,0,0,0,0,0,0,-1,1959,1450,0,0
742,-426,0,0,0,0,0,0,0,0,0,-1,1966,1450,0,0
749,-426,0,0,0,0,0,0,0,0,0,-1,1973,1450,0,0
756,-426,0,0,0,0,0,0,0,0,0,-1,1980,1450,0,0
763,-426,0,0,0,0,0,0,0,0,0,-1,1987,1450,0,0
770,-426,0,0,0,0,0,0,0,0,0,-1,1994,1450,0,0
777,-426,0,0,0,0,0,0,0,0,0,-1,2001,1450,0,0
784,-426,0,0,0,0,0,0,0,0,0,-1,2008,1450,0,0
791,-426,0,0,0,0,0,0,0,0,0,-1,2015,1450,0,0
798,-426,0,0,0,0,0,0,0,0,0,-1,2022,1450,0,0
805,-426,0,0,0,0,0,0,0,0,0,-1,2029,1450,0,0
812,-426,0,0,0,0,0,0,0,0,0,-1,2036,1450,0,0
-700,-433,0,0,0,0,0,0,0,0,0,-1,524,1457,0,0
-693,-433,0,0,0,0,0,0,0,0,0,-1,531,1457,0,0
-686,-433,0,0,0,0,0,0,0,0,0,-1,538,1457,0,0
-679,-433,0,0,0,0,0,0,0,0,0,-1,545,1457,0,0
-672,-433,0,0,0,0,0,0,0,0,0,-1,552,1457,0,0
-665,-433,0,0,0,0,0,0,0,0,0,-1,559,1457,0,0
-658,-433,0,0,0,0,0,0,0,0,0,-1,566,1457,0,0
-651,-433,0,0,0,0,0,0,0,0,0,-1,573,1457,0,0
-644,-433,0,0,0,0,0,0,0,0,0,-1,580,1457,0,0
-637,-433,0,0,0,0,0,0,0,0,0,-1,587,1457,0,0
-630,-433,0,0,0,0,0,0,0,0,0,-1,594,1457,0,0
-623,-433,0,0,0,0,0,0,0,0,0,-1,601,1457,0,0
-616,-433,0,0,0,0,0,0,0,0,0,-1,608,1457,0,0
-609,-433,0,0,0,0,0,0,0,0,0,-1,615,1457,0,0
-602,-433,0,0,0,0,0,0,0,0,0,-1,622,1457,0,0
-595,-433,0,0,0,0,0,0,0,0,0,-1,629,1457,0,0
-588,-433,2.14514,0.441162,0,0,0,0,0,0,0,-1,636,1457,2.14514,-0.441193
-581,-433,1.38123,0.147827,0,0,0,0,0,0,0,-1,643,1457,1.38121,-0.147857
-574,-433,0.656006,-0.448242,0,0,0,0,0,0,0,-1,650,1457,0.655995,0.448238
-567,-433,0.488098,-0.838501,0,0,0,0,0,0,0,-1,657,1457,0.488084,0.83846
-560,-433,-0.221558,0.794067,0,0,0,0,0,0,0,-1,664,1457,-0.221533,-0.79401
-553,-433,0.267151,-0.186279,0.00151428,-0.0168725,0.00472522,0.00265753,-0.0180158,0.237384,0.0129873,0.041928,671,1457,0.267126,0.18628
-546,-433,0.457642,-0.452759,-0.000908386,-0.0122314,0.00359304,0.00013552,-0.0132753,0.282752,0.00889573,0.0414038,678,1457,0.457619,0.452711
-539,-433,0.286987,-0.385498,-0.0033184,-0.00832153,0.00276201,-0.0020935,-0.00954643,0.417419,0.00579393,0.0402382,685,1457,0.286976,0.385528
-532,-433,-0.026062,-0.0743408,-0.00338823,-0.00605469,0.0028391,-0.0015849,-0.00785801,0.565884,0.00479843,0.0248101,692,1457,-0.0260854,0.0743484
-525,-433,-0.0045166,-0.0693359,-0.00259618,-0.00563778,0.00222653,-0.00142064,-0.00681332,0.485772,0.00415052,0.0121307,699,1457,-0.00453261,0.0693947
-518,-433,-0.003479,-0.0664063,-0.00201133,-0.00396732,0.00177217,-0.000965204,-0.00501345,0.533262,0.00307154,0.0150258,706,1457,-0.00349154,0.0663837
-511,-433,-0.0131836,-0.0770264,-0.0017882,-0.00247461,0.00151903,-0.000574089,-0.00368872,0.674296,0.00229188,0.0149893,713,1457,-0.0131677,0.0770369
-504,-433,-0.00604248,-0.0749512,-0.00157315,-0.00123884,0.00082933,-0.000559984,-0.002252,0.884843,0.00135384,0.0120073,720,1457,-0.00604229,0.0749349
-497,-433,-0.0124512,-0.0871582,-0.00135261,7.80646e-05,6.56142e-05,8.10675e-05,-0.00135562,1.52506,0.000931944,0.0127105,727,1457,-0.0124464,0.0870974
-490,-433,-0.0158691,-0.106323,-0.000515828,0.000340166,-0.000354104,0.00046766,-0.000643323,-1.2252,0.000644093,0.0138543,734,1457,-0.015879,0.106332
-483,-433,-0.0185547,-0.079834,0.000575526,0.000341063,-0.00092867,0.00139433,-0.000477746,-0.722612,0.0011232,0.0135785,741,1457,-0.0185549,0.0797907
-476,-433,-0.00958252,-0.0727539,0.00153287,-0.000424043,-0.00121384,0.00211351,-0.00100468,-0.446179,0.00183784,0.00984549,748,1457,-0.0095591,0.0728033
-469,-433,-0.000610352,-0.0709229,0.00242879,-0.00109717,-0.00122784,0.00281423,-0.00148261,-0.304173,0.00252018,0.00982306,755,1457,-0.000592963,0.0709201
-462,-433,-0.0119629,-0.0690918,0.00347072,-0.00162342,-0.000581259,0.0035362,-0.0016889,-0.112182,0.00307891,0.00847978,762,1457,-0.0119867,0.069032
-455,-433,-0.00286865,-0.0623779,0.0047579,-0.00195197,0.000391426,0.00478066,-0.00197473,0.0580733,0.00401081,0.0164226,769,1457,-0.00283824,0.0623377
-448,-433,-0.0559082,-0.0264893,0.00564547,-0.00287472,0.00164012,0.00595029,-0.00317954,0.183753,0.00535141,0.0300708,776,1457,-0.0559292,0.0264301
-441,-433,0.0176392,0.180664,0.00617464,-0.00411149,0.0031917,0.00708452,-0.00502137,0.277709,0.00702309,0.0385277,783,1457,0.0176591,-0.180692
-434,-433,0.413879,-0.234253,0.00599408,-0.00468426,0.00497367,0.00795177,-0.00664195,0.374986,0.00843699,0.0442593,790,1457,0.413862,0.234276
-427,-433,0.259766,-0.103027,0.00510255,-0.00213684,0.00796564,0.0102323,-0.00726664,0.572139,0.0101513,0.0445765,797,1457,0.259795,0.103036
-420,-433,0.102356,0.0118408,0,0,0,0,0,0,0,-1,804,1457,0.102363,-0.0118334
-413,-433,-0.497559,0.0145264,0,0,0,0,0,0,0,-1,811,1457,-0.497573,-0.0145212
-406,-433,-0.33252,0.158203,-0.000417712,0.00651801,0.0179075,0.0212903,-0.01519,0.881041,0.0211599,0.0471292,818,1457,-0.332523,-0.158256
-399,-433,-0.0889282,0.325928,-0.00391099,0.0128822,0.0214971,0.0275644,-0.0185932,0.971583,0.0268163,0.0456804,825,1457,-0.0889146,-0.325882
-392,-433,0.043457,0.453247,-0.0082246,0.0215406,0.0250295,0.0357779,-0.0224619,1.05362,0.0339164,0.0457661,832,1457,0.0434644,-0.4532
-385,-433,0.0411377,0.489258,-0.0125285,0.0334689,0.0284938,0.0470877,-0.0261473,1.12494,0.0428545,0.0467512,839,1457,0.0411667,-0.489214
-378,-433,0,0,0,0,0,0,0,0,0,-1,846,1457,0,0
-371,-433,0,0,0,0,0,0,0,0,0,-1,853,1457,0,0
-364,-433,0,0,0,0,0,0,0,0,0,-1,860,1457,0,0
-357,-433,0,0,0,0,0,0,0,0,0,-1,867,1457,0,0
-350,-433,0,0,0,0,0,0,0,0,0,-1,874,1457,0,0
-343,-433,0,0,0,0,0,0,0,0,0,-1,881,1457,0,0
-336,-433,0,0,0,0,0,0,0,0,0,-1,888,1457,0,0
-329,-433,0,0,0,0,0,0,0,0,0,-1,895,1457,0,0
-322,-433,0,0,0,0,0,0,0,0,0,-1,902,1457,0,0
-315,-433,0,0,0,0,0,0,0,0,0,-1,909,1457,0,0
-308,-433,0,0,0,0,0,0,0,0,0,-1,916,1457,0,0
-301,-433,0,0,0,0,0,0,0,0,0,-1,923,1457,0,0
-294,-433,0,0,0,0,0,0,0,0,0,-1,930,1457,0,0
-287,-433,0,0,0,0,0,0,0,0,0,-1,937,1457,0,0
-280,-433,0,0,0,0,0,0,0,0,0,-1,944,1457,0,0
-273,-433,0,0,0,0,0,0,0,0,0,-1,951,1457,0,0
-266,-433,0,0,0,0,0,0,0,0,0,-1,958,1457,0,0
-259,-433,0,0,0,0,0,0,0,0,0,-1,965,1457,0,0
-252,-433,0,0,0,0,0,0,0,0,0,-1,972,1457,0,0
-245,-433,0,0,0,0,0,0,0,0,0,-1,979,1457,0,0
-238,-433,0,0,0,0,0,0,0,0,0,-1,986,1457,0,0
-231,-433,0,0,0,0,0,0,0,0,0,-1,993,1457,0,0
-224,-433,0,0,0,0,0,0,0,0,0,-1,1000,1457,0,0
-217,-433,0,0,0,0,0,0,0,0,0,-1,1007,1457,0,0
-210,-433,0,0,0,0,0,0,0,0,0,-1,1014,1457,0,0
-203,-433,0,0,0,0,0,0,0,0,0,-1,1021,1457,0,0
-196,-433,0,0,0,0,0,0,0,0,0,-1,1028,1457,0,0
-189,-433,0,0,0,0,0,0,0,0,0,-1,1035,1457,0,0
-182,-433,0,0,0,0,0,0,0,0,0,-1,1042,1457,0,0
-175,-433,0,0,0,0,0,0,0,0,0,-1,1049,1457,0,0
-168,-433,0,0,0,0,0,0,0,0,0,-1,1056,1457,0,0
-161,-433,0,0,0,0,0,0,0,0,0,-1,1063,1457,0,0
-154,-433,0,0,0,0,0,0,0,0,0,-1,1070,1457,0,0
-147,-433,0,0,0,0,0,0,0,0,0,-1,1077,1457,0,0
-140,-433,0,0,0,0,0,0,0,0,0,-1,1084,1457,0,0
-133,-433,0,0,0,0,0,0,0,0,0,-1,1091,1457,0,0
-126,-433,0,0,0,0,0,0,0,0,0,-1,1098,1457,0,0
-119,-433,0,0,0,0,0,0,0,0,0,-1,1105,1457,0,0
-112,-433,0,0,0,0,0,0,0,0,0,-1,1112,1457,0,0
-105,-433,0,0,0,0,0,0,0,0,0,-1,1119,1457,0,0
-98,-433,0,0,0,0,0,0,0,0,0,-1,1126,1457,0,0
-91,-433,0,0,0,0,0,0,0,0,0,-1,1133,1457,0,0
-84,-433,0,0,0,0,0,0,0,0,0,-1,1140,1457,0,0
-77,-433,0,0,0,0,0,0,0,0,0,-1,1147,1457,0,0
-70,-433,0,0,0,0,0,0,0,0,0,-1,1154,1457,0,0
-63,-433,0,0,0,0,0,0,0,0,0,-1,1161,1457,0,0
-56,-433,0,0,0,0,0,0,0,0,0,-1,1168,1457,0,0
-49,-433,0,0,0,0,0,0,0,0,0,-1,1175,1457,0,0
-42,-433,0,0,0,0,0,0,0,0,0,-1,1182,1457,0,0
-35,-433,0,0,0,0,0,0,0,0,0,-1,1189,1457,0,0
-28,-433,0,0,0,0,0,0,0,0,0,-1,1196,1457,0,0
-21,-433,0,0,0,0,0,0,0,0,0,-1,1203,1457,0,0
-14,-433,0,0,0,0,0,0,0,0,0,-1,1210,1457,0,0
-7,-433,0,0,0,0,0,0,0,0,0,-1,1217,1457,0,0
0,-433,0,0,0,0,0,0,0,0,0,-1,1224,1457,0,0
7,-433,0,0,0,0,0,0,0,0,0,-1,1231,1457,0,0
14,-433,0,0,0,0,0,0,0,0,0,-1,1238,1457,0,0
21,-433,0,0,0,0,0,0,0,0,0,-1,1245,1457,0,0
28,-433,0,0,0,0,0,0,0,0,0,-1,1252,1457,0,0
35,-433,0,0,0,0,0,0,0,0,0,-1,1259,1457,0,0
42,-433,0,0,0,0,0,0,0,0,0,-1,1266,1457,0,0
49,-433,0,0,0,0,0,0,0,0,0,-1,1273,1457,0,0
56,-433,0,0,0,0,0,0,0,0,0,-1,1280,1457,0,0
63,-433,0,0,0,0,0,0,0,0,0,-1,1287,1457,0,0
70,-433,0,0,0,0,0,0,0,0,0,-1,1294,1457,0,0
77,-433,0,0,0,0,0,0,0,0,0,-1,1301,1457,0,0
84,-433,0,0,0,0,0,0,0,0,0,-1,1308,1457,0,0
91,-433,0,0,0,0,0,0,0,0,0,-1,1315,1457,0,0
98,-433,0,0,0,0,0,0,0,0,0,-1,1322,1457,0,0
105,-433,0,0,0,0,0,0,0,0,0,-1,1329,1457,0,0
112,-433,0,0,0,0,0,0,0,0,0,-1,1336,1457,0,0
119,-433,0,0,0,0,0,0,0,0,0,-1,1343,1457,0,0
126,-433,0,0,0,0,0,0,0,0,0,-1,1350,1457,0,0
133,-433,0,0,0,0,0,0,0,0,0,-1,1357,1457,0,0
140,-433,0,0,0,0,0,0,0,0,0,-1,1364,1457,0,0
147,-433,0,0,0,0,0,0,0,0,0,-1,1371,1457,0,0
154,-433,0,0,0,0,0,0,0,0,0,-1,1378,1457,0,0
161,-433,0,0,0,0,0,0,0,0,0,-1,1385,1457,0,0
168,-433,0,0,0,0,0,0,0,0,0,-1,1392,1457,0,0
175,-433,0,0,0,0,0,0,0,0,0,-1,1399,1457,0,0
182,-433,0,0,0,0,0,0,0,0,0,-1,1406,1457,0,0
189,-433,0,0,0,0,0,0,0,0,0,-1,1413,1457,0,0
196,-433,0,0,0,0,0,0,0,0,0,-1,1420,1457,0,0
203,-433,0,0,0,0,0,0,0,0,0,-1,1427,1457,0,0
210,-433,0,0,0,0,0,0,0,0,0,-1,1434,1457,0,0
217,-433,0,0,0,0,0,0,0,0,0,-1,1441,1457,0,0
224,-433,0,0,0,0,0,0,0,0,0,-1,1448,1457,0,0
231,-433,0,0,0,0,0,0,0,0,0,-1,1455,1457,0,0
238,-433,0,0,0,0,0,0,0,0,0,-1,1462,1457,0,0
245,-433,0,0,0,0,0,0,0,0,0,-1,1469,1457,0,0
252,-433,0,0,0,0,0,0,0,0,0,-1,1476,1457,0,0
259,-433,0,0,0,0,0,0,0,0,0,-1,1483,1457,0,0
266,-433,0,0,0,0,0,0,0,0,0,-1,1490,1457,0,0
273,-433,0,0,0,0,0,0,0,0,0,-1,1497,1457,0,0
280,-433,0,0,0,0,0,0,0,0,0,-1,1504,1457,0,0
287,-433,0,0,0,0,0,0,0,0,0,-1,1511,1457,0,0
294,-433,0,0,0,0,0,0,0,0,0,-1,1518,1457,0,0
301,-433,0,0,0,0,0,0,0,0,0,-1,1525,1457,0,0
308,-433,0,0,0,0,0,0,0,0,0,-1,1532,1457,0,0
315,-433,0,0,0,0,0,0,0,0,0,-1,1539,1457,0,0
322,-433,0,0,0,0,0,0,0,0,0,-1,1546,1457,0,0
329,-433,0,0,0,0,0,0,0,0,0,-1,1553,1457,0,0
336,-433,0,0,0,0,0,0,0,0,0,-1,1560,1457,0,0
343,-433,0,0,0,0,0,0,0,0,0,-1,1567,1457,0,0
350,-433,0,0,0,0,0,0,0,0,0,-1,1574,1457,0,0
357,-433,0,0,0,0,0,0,0,0,0,-1,1581,1457,0,0
364,-433,0,0,0,0,0,0,0,0,0,-1,1588,1457,0,0
371,-433,0,0,0,0,0,0,0,0,0,-1,1595,1457,0,0
378,-433,0,0,0,0,0,0,0,0,0,-1,1602,1457,0,0
385,-433,0,0,0,0,0,0,0,0,0,-1,1609,1457,0,0
392,-433,0,0,0,0,0,0,0,0,0,-1,1616,1457,0,0
399,-433,0,0,0,0,0,0,0,0,0,-1,1623,1457,0,0
406,-433,0,0,0,0,0,0,0,0,0,-1,1630,1457,0,0
413,-433,0,0,0,0,0,0,0,0,0,-1,1637,1457,0,0
420,-433,0,0,0,0,0,0,0,0,0,-1,1644,1457,0,0
427,-433,0,0,0,0,0,0,0,0,0,-1,1651,1457,0,0
434,-433,0,0,0,0,0,0,0,0,0,-1,1658,1457,0,0
441,-433,0,0,0,0,0,0,0,0,0,-1,1665,1457,0,0
448,-433,0,0,0,0,0,0,0,0,0,-1,1672,1457,0,0
455,-433,0,0,0,0,0,0,0,0,0,-1,1679,1457,0,0
462,-433,0,0,0,0,0,0,0,0,0,-1,1686,1457,0,0
469,-433,0,0,0,0,0,0,0,0,0,-1,1693,1457,0,0
476,-433,0,0,0,0,0,0,0,0,0,-1,1700,1457,0,0
483,-433,0,0,0,0,0,0,0,0,0,-1,1707,1457,0,0
490,-433,0,0,0,0,0,0,0,0,0,-1,1714,1457,0,0
497,-433,0,0,0,0,0,0,0,0,0,-1,1721,1457,0,0
504,-433,-0.125488,-0.263184,-0.0239033,-0.0251644,0.0133932,-0.0111258,-0.0379419,0.761877,0.0225214,0.0391231,1728,1457,-0.125454,0.263153
511,-433,-0.279663,-0.309448,-0.0189956,-0.0194519,0.0118076,-0.00741391,-0.0310336,0.77574,0.0187139,0.0429087,1735,1457,-0.279669,0.30943
518,-433,-0.532104,-0.019043,-0.016142,-0.0148703,0.0095663,-0.00591876,-0.0250936,0.818581,0.0151466,0.0451308,1742,1457,-0.532147,0.0190322
525,-433,-0.0246582,1.31775,-0.0141022,-0.0107782,0.00699177,-0.00525362,-0.0196268,0.902088,0.0117322,0.0490686,1749,1457,-0.0246451,-1.31779
532,-433,0.382813,1.85156,0,0,0,0,0,0,0,-1,1756,1457,0.382868,-1.85157
539,-433,0.668213,0.403931,-0.0110402,-0.00489595,0.00322868,-0.00351136,-0.0124248,1.16568,0.00739602,0.0474391,1763,1457,0.668176,-0.40392
546,-433,0.893311,0.303345,-0.00993594,-0.00314391,0.00204224,-0.00257714,-0.0105027,1.30009,0.00632039,0.0468037,1770,1457,0.893271,-0.30338
553,-433,0.837769,0.390259,0,0,0,0,0,0,0,-1,1777,1457,0.837743,-0.390318
560,-433,0.795532,0.306885,0,0,0,0,0,0,0,-1,1784,1457,0.79552,-0.306911
567,-433,0.521606,0.0578613,-0.00690736,0.00026155,0.000455782,0.000290411,-0.00693622,1.50756,0.00472392,0.0427124,1791,1457,0.521549,-0.0578626
574,-433,0.0336914,0.071167,-0.00613451,0.000674363,0.000258404,0.000684156,-0.0061443,1.53292,0.00434226,0.0465239,1798,1457,0.0337237,-0.0711546
581,-433,-0.0219727,-0.0270996,-0.00580999,-0.000262347,0.000127735,-0.000259408,-0.00581293,1.54779,0.00379178,0.0394814,1805,1457,-0.0219321,0.0271487
588,-433,0.0195313,-0.0529785,-0.0049941,-0.000922175,0.000452705,-0.000872452,-0.00504382,1.4614,0.00311276,0.02606,1812,1457,0.0195678,0.0529645
595,-433,0.00952148,-0.0532227,-0.0042845,-0.000561507,0.000860536,-0.000372225,-0.00447378,1.35429,0.00286651,0.0183632,1819,1457,0.00949555,0.0532647
602,-433,-0.0128174,-0.0715332,-0.00340276,-1.43322e-05,0.00105231,0.000285877,-0.00370297,1.29289,0.00256924,0.0181535,1826,1457,-0.0128008,0.0714758
609,-433,-0.0146484,-0.0773926,-0.00264843,0.000393835,0.00118339,0.000799945,-0.00305454,1.24022,0.00234886,0.0138787,1833,1457,-0.0146089,0.077447
616,-433,-0.0145264,-0.0623779,-0.00211451,0.000846423,0.00134829,0.00136837,-0.00263646,1.20144,0.00235051,0.0120861,1840,1457,-0.0144858,0.0624093
623,-433,-0.0314941,-0.0791016,-0.00167652,0.00108766,0.00111277,0.00147995,-0.00206881,1.23186,0.00205826,0.0102563,1847,1457,-0.0314914,0.0790758
630,-433,-0.0441895,-0.0743408,-0.00179825,0.00101927,0.00109899,0.00139724,-0.00217621,1.23955,0.00207941,0.0127216,1854,1457,-0.0442395,0.0743919
637,-433,-0.041748,-0.0739746,-0.00205349,0.00101993,0.0011075,0.00137743,-0.00241099,1.25856,0.00221421,0.0129453,1861,1457,-0.0416897,0.0739301
644,-433,-0.0218506,-0.0686035,-0.00171334,0.00101756,0.0015334,0.00170534,-0.00240113,1.14916,0.00238219,0.0127316,1868,1457,-0.0218921,0.0686628
651,-433,-0.0328369,-0.0655518,0.000231075,0.00148362,0.00279657,0.00372318,-0.00200848,0.895553,0.00335818,0.0103751,1875,1457,-0.0328725,0.065505
658,-433,-0.0452881,-0.0936279,0.00372501,0.00148648,0.00466102,0.00739927,-0.00218778,0.667563,0.00580129,0.0113561,1882,1457,-0.045339,0.0935682
665,-433,-0.0336914,-0.0588379,0.0072683,0.00162812,0.00658985,0.0116161,-0.00271971,0.583217,0.00879201,0.0163638,1889,1457,-0.0337173,0.0587793
672,-433,-0.0695801,-0.0422363,0.0120406,0.00232397,0.00906137,0.0174639,-0.00309933,0.539321,0.0128014,0.0320563,1896,1457,-0.0696006,0.0422338
679,-433,-0.083252,0.0852051,0.0183277,0.00397983,0.0120461,0.0251742,-0.00286673,0.516832,0.0178154,0.0384074,1903,1457,-0.0832324,-0.0852038
686,-433,-0.103394,0.390503,0.0272489,0.00593763,0.015932,0.0357602,-0.0025737,0.490653,0.0247427,0.0413535,1910,1457,-0.103347,-0.390506
693,-433,-0.221313,0.504272,0.0386501,0.00922213,0.0205616,0.04922,-0.00134787,0.474837,0.0332718,0.042478,1917,1457,-0.221359,-0.50426
700,-433,0.499878,1.0481,0.0525331,0.0146027,0.0257535,0.065551,0.00158481,0.468024,0.0431821,0.0438556,1924,1457,0.499884,-1.04813
707,-433,0.706055,1.25391,0,0,0,0,0,0,0,-1,1931,1457,0.706104,-1.25393
714,-433,0,0,0,0,0,0,0,0,0,-1,1938,1457,0,0
721,-433,0,0,0,0,0,0,0,0,0,-1,1945,1457,0,0
728,-433,0,0,0,0,0,0,0,0,0,-1,1952,1457,0,0
735,-433,0,0,0,0,0,0,0,0,0,-1,1959,1457,0,0
742,-433,0,0,0,0,0,0,0,0,0,-1,1966,1457,0,0
749,-433,0,0,0,0,0,0,0,0,0,-1,1973,1457,0,0
756,-433,0,0,0,0,0,0,0,0,0,-1,1980,1457,0,0
763,-433,0,0,0,0,0,0,0,0,0,-1,1987,1457,0,0
770,-433,0,0,0,0,0,0,0,0,0,-1,1994,1457,0,0
777,-433,0,0,0,0,0,0,0,0,0,-1,2001,1457,0,0
784,-433,0,0,0,0,0,0,0,0,0,-1,2008,1457,0,0
791,-433,0,0,0,0,0,0,0,0,0,-1,2015,1457,0,0
798,-433,0,0,0,0,0,0,0,0,0,-1,2022,1457,0,0
805,-433,0,0,0,0,0,0,0,0,0,-1,2029,1457,0,0
812,-433,0,0,0,0,0,0,0,0,0,-1,2036,1457,0,0
-700,-440,0,0,0,0,0,0,0,0,0,-1,524,1464,0,0
-693,-440,0,0,0,0,0,0,0,0,0,-1,531,1464,0,0
-686,-440,0,0,0,0,0,0,0,0,0,-1,538,1464,0,0
-679,-440,0,0,0,0,0,0,0,0,0,-1,545,1464,0,0
-672,-440,0,0,0,0,0,0,0,0,0,-1,552,1464,0,0
-665,-440,0,0,0,0,0,0,0,0,0,-1,559,1464,0,0
-658,-440,0,0,0,0,0,0,0,0,0,-1,566,1464,0,0
-651,-440,0,0,0,0,0,0,0,0,0,-1,573,1464,0,0
-644,-440,0,0,0,0,0,0,0,0,0,-1,580,1464,0,0
-637,-440,0,0,0,0,0,0,0,0,0,-1,587,1464,0,0
-630,-440,0,0,0,0,0,0,0,0,0,-1,594,1464,0,0
-623,-440,0,0,0,0,0,0,0,0,0,-1,601,1464,0,0
-616,-440,0,0,0,0,0,0,0,0,0,-1,608,1464,0,0
-609,-440,0,0,0,0,0,0,0,0,0,-1,615,1464,0,0
-602,-440,0,0,0,0,0,0,0,0,0,-1,622,1464,0,0
-595,-440,0,0,0,0,0,0,0,0,0,-1,629,1464,0,0
-588,-440,0,0,0,0,0,0,0,0,0,-1,636,1464,0,0
-581,-440,0.909302,-1.51575,0,0,0,0,0,0,0,-1,643,1464,0.909296,1.51577
-574,-440,0.53595,-0.806641,0.0165626,-0.0490695,0.0100098,0.0180553,-0.0505622,0.148031,0.0410714,0.044205,650,1464,0.535924,0.806658
-567,-440,0.15033,-0.0389404,0,0,0,0,0,0,0,-1,657,1464,0.150358,0.0389003
-560,-440,-0.233765,0.33728,0.00393382,-0.0311231,0.00632546,0.00504023,-0.0322295,0.173162,0.0233485,0.0483703,664,1464,-0.23378,-0.337311
-553,-440,-0.23053,0.856201,0.000924402,-0.0251306,0.00521729,0.00193029,-0.0261365,0.190461,0.0181021,0.0459348,671,1464,-0.230519,-0.856183
-546,-440,0.726746,-0.949219,0,0,0,0,0,0,0,-1,678,1464,0.726755,0.949271
-539,-440,0.20343,-0.380859,-0.00297268,-0.0144081,0.00318655,-0.00214468,-0.0152361,0.254221,0.00952332,0.0418275,685,1464,0.203421,0.380903
-532,-440,-0.0192261,-0.0895996,-0.00286068,-0.0109073,0.0030837,-0.00181485,-0.0119531,0.326976,0.00743798,0.0324816,692,1464,-0.0192272,0.0895443
-525,-440,-0.0205078,-0.0721436,-0.0020523,-0.0091414,0.00239763,-0.00131754,-0.00987616,0.297365,0.00619183,0.013254,699,1464,-0.0205137,0.0720953
-518,-440,-0.0194702,-0.0786133,-0.00147657,-0.00652893,0.00184346,-0.000875457,-0.00713004,0.315205,0.00449008,0.012089,706,1464,-0.0194632,0.0786591
-511,-440,-0.0112915,-0.085083,-0.00124313,-0.00425564,0.00158785,-0.000560757,-0.00493801,0.405882,0.00312192,0.0156637,713,1464,-0.011305,0.0850926
-504,-440,-0.0375977,-0.0616455,-0.00104466,-0.00246109,0.000947795,-0.000569704,-0.00293604,0.464538,0.0017978,0.0174567,720,1464,-0.0375695,0.061688
-497,-440,-0.0377197,-0.0821533,-0.000850136,-0.000688838,0.000231223,-0.000524603,-0.00101437,0.953198,0.000585762,0.0192484,727,1464,-0.0377055,0.0821233
-490,-440,-0.0180054,-0.135864,-0.00016511,-9.60612e-05,-0.000109038,-1.62131e-05,-0.000244959,-0.93872,0.000158179,0.019718,734,1464,-0.017992,0.135857
-483,-440,-0.0136719,-0.102417,0.00064803,0.000272704,-0.00057683,0.00106696,-0.000146222,-0.62813,0.000764719,0.0177276,741,1464,-0.0136625,0.102407
-476,-440,-0.0116577,-0.100586,0.00137051,-0.000484264,-0.00067896,0.00159248,-0.000706239,-0.315981,0.00135965,0.012452,748,1464,-0.0116845,0.100538
-469,-440,-0.0209961,-0.0925293,0.00214409,-0.0011776,-0.000693847,0.0022832,-0.00131671,-0.197865,0.00210323,0.01166,755,1464,-0.0210183,0.0925265
-462,-440,-0.0325928,-0.0686035,0.00307887,-0.00166096,-0.000161804,0.00308439,-0.00166647,-0.0340841,0.00278334,0.0115063,762,1464,-0.0326125,0.0686415
-455,-440,-0.0118408,-0.0621338,0.00422945,-0.00193445,0.000646555,0.00429654,-0.00200154,0.103394,0.0037158,0.0116217,769,1464,-0.0118212,0.0620737
-448,-440,-0.0394897,-0.0906982,0.00496415,-0.00280522,0.00175694,0.00534299,-0.00318406,0.212372,0.00497541,0.0198113,776,1464,-0.0394646,0.0907434
-441,-440,-0.0740356,-0.0601807,0.00532658,-0.00402008,0.00302221,0.00621866,-0.00491216,0.287024,0.00644112,0.0340289,783,1464,-0.0740085,0.0601994
-434,-440,0.308716,-0.192871,0.00497392,-0.00467921,0.00445501,0.00671567,-0.00642097,0.372694,0.00758508,0.0411427,790,1464,0.308728,0.192816
-427,-440,0.536011,-0.215332,0,0,0,0,0,0,0,-1,797,1464,0.536013,0.21529
-420,-440,-0.383911,-0.129272,0.00274096,-0.000469189,0.00966896,0.0109372,-0.0086654,0.703147,0.0113429,0.0392755,804,1464,-0.383906,0.129329
-413,-440,-0.463806,-0.0472412,0.000957041,0.00211508,0.0125145,0.0140639,-0.0109918,0.808516,0.0145022,0.04067,811,1464,-0.463821,0.0472466
-406,-440,-0.362854,0.220093,-0.00181881,0.00613645,0.0154026,0.0180667,-0.0137491,0.91176,0.0184251,0.0403762,818,1464,-0.362865,-0.220148
-399,-440,-0.165955,0.506714,-0.00548907,0.0120004,0.0183696,0.0236005,-0.0170892,1.00755,0.0235923,0.0420565,825,1464,-0.165978,-0.506746
-392,-440,-0.400513,0.700073,-0.0101118,0.0198787,0.0213572,0.0309792,-0.0212123,1.09147,0.0303082,0.0458148,832,1464,-0.400538,-0.700132
-385,-440,-0.675537,0.287842,-0.015216,0.03052,0.024311,0.0410282,-0.0257242,1.16281,0.0388757,0.0458129,839,1464,-0.675564,-0.287848
-378,-440,-0.445984,-0.233154,-0.0204648,0.04368,0.0272145,0.0536703,-0.0304551,1.21898,0.0491824,0.0437029,846,1464,-0.44596,0.233101
-371,-440,0,0,0,0,0,0,0,0,0,-1,853,1464,0,0
-364,-440,0,0,0,0,0,0,0,0,0,-1,860,1464,0,0
-357,-440,0,0,0,0,0,0,0,0,0,-1,867,1464,0,0
-350,-440,0,0,0,0,0,0,0,0,0,-1,874,1464,0,0
-343,-440,0,0,0,0,0,0,0,0,0,-1,881,1464,0,0
-336,-440,0,0,0,0,0,0,0,0,0,-1,888,1464,0,0
-329,-440,0,0,0,0,0,0,0,0,0,-1,895,1464,0,0
-322,-440,0,0,0,0,0,0,0,0,0,-1,902,1464,0,0
-315,-440,0,0,0,0,0,0,0,0,0,-1,909,1464,0,0
-308,-440,0,0,0,0,0,0,0,0,0,-1,916,1464,0,0
-301,-440,0,0,0,0,0,0,0,0,0,-1,923,1464,0,0
-294,-440,0,0,0,0,0,0,0,0,0,-1,930,1464,0,0
-287,-440,0,0,0,0,0,0,0,0,0,-1,937,1464,0,0
-280,-440,0,0,0,0,0,0,0,0,0,-1,944,1464,0,0
-273,-440,0,0,0,0,0,0,0,0,0,-1,951,1464,0,0
-266,-440,0,0,0,0,0,0,0,0,0,-1,958,1464,0,0
-259,-440,0,0,0,0,0,0,0,0,0,-1,965,1464,0,0
-252,-440,0,0,0,0,0,0,0,0,0,-1,972,1464,0,0
-245,-440,0,0,0,0,0,0,0,0,0,-1,979,1464,0,0
-238,-440,0,0,0,0,0,0,0,0,0,-1,986,1464,0,0
-231,-440,0,0,0,0,0,0,0,0,0,-1,993,1464,0,0
-224,-440,0,0,0,0,0,0,0,0,0,-1,1000,1464,0,0
-217,-440,0,0,0,0,0,0,0,0,0,-1,1007,1464,0,0
-210,-440,0,0,0,0,0,0,0,0,0,-1,1014,1464,0,0
-203,-440,0,0,0,0,0,0,0,0,0,-1,1021,1464,0,0
-196,-440,0,0,0,0,0,0,0,0,0,-1,1028,1464,0,0
-189,-440,0,0,0,0,0,0,0,0,0,-1,1035,1464,0,0
-182,-440,0,0,0,0,0,0,0,0,0,-1,1042,1464,0,0
-175,-440,0,0,0,0,0,0,0,0,0,-1,1049,1464,0,0
-168,-440,0,0,0,0,0,0,0,0,0,-1,1056,1464,0,0
-161,-440,0,0,0,0,0,0,0,0,0,-1,1063,1464,0,0
-154,-440,0,0,0,0,0,0,0,0,0,-1,1070,1464,0,0
-147,-440,0,0,0,0,0,0,0,0,0,-1,1077,1464,0,0
-140,-440,0,0,0,0,0,0,0,0,0,-1,1084,1464,0,0
-133,-440,0,0,0,0,0,0,0,0,0,-1,1091,1464,0,0
-126,-440,0,0,0,0,0,0,0,0,0,-1,1098,1464,0,0
-119,-440,0,0,0,0,0,0,0,0,0,-1,1105,1464,0,0
-112,-440,0,0,0,0,0,0,0,0,0,-1,1112,1464,0,0
-105,-440,0,0,0,0,0,0,0,0,0,-1,1119,1464,0,0
-98,-440,0,0,0,0,0,0,0,0,0,-1,1126,1464,0,0
-91,-440,0,0,0,0,0,0,0,0,0,-1,1133,1464,0,0
-84,-440,0,0,0,0,0,0,0,0,0,-1,1140,1464,0,0
-77,-440,0,0,0,0,0,0,0,0,0,-1,1147,1464,0,0
-70,-440,0,0,0,0,0,0,0,0,0,-1,1154,1464,0,0
-63,-440,0,0,0,0,0,0,0,0,0,-1,1161,1464,0,0
-56,-440,0,0,0,0,0,0,0,0,0,-1,1168,1464,0,0
-49,-440,0,0,0,0,0,0,0,0,0,-1,1175,1464,0,0
-42,-440,0,0,0,0,0,0,0,0,0,-1,1182,1464,0,0
-35,-440,0,0,0,0,0,0,0,0,0,-1,1189,1464,0,0
-28,-440,0,0,0,0,0,0,0,0,0,-1,1196,1464,0,0
-21,-440,0,0,0,0,0,0,0,0,0,-1,1203,1464,0,0
-14,-440,0,0,0,0,0,0,0,0,0,-1,1210,1464,0,0
-7,-440,0,0,0,0,0,0,0,0,0,-1,1217,1464,0,0
0,-440,0,0,0,0,0,0,0,0,0,-1,1224,1464,0,0
7,-440,0,0,0,0,0,0,0,0,0,-1,1231,1464,0,0
14,-440,0,0,0,0,0,0,0,0,0,-1,1238,1464,0,0
21,-440,0,0,0,0,0,0,0,0,0,-1,1245,1464,0,0
28,-440,0,0,0,0,0,0,0,0,0,-1,1252,1464,0,0
35,-440,0,0,0,0,0,0,0,0,0,-1,1259,1464,0,0
42,-440,0,0,0,0,0,0,0,0,0,-1,1266,1464,0,0
49,-440,0,0,0,0,0,0,0,0,0,-1,1273,1464,0,0
56,-440,0,0,0,0,0,0,0,0,0,-1,1280,1464,0,0
63,-440,0,0,0,0,0,0,0,0,0,-1,1287,1464,0,0
70,-440,0,0,0,0,0,0,0,0,0,-1,1294,1464,0,0
77,-440,0,0,0,0,0,0,0,0,0,-1,1301,1464,0,0
84,-440,0,0,0,0,0,0,0,0,0,-1,1308,1464,0,0
91,-440,0,0,0,0,0,0,0,0,0,-1,1315,1464,0,0
98,-440,0,0,0,0,0,0,0,0,0,-1,1322,1464,0,0
105,-440,0,0,0,0,0,0,0,0,0,-1,1329,1464,0,0
112,-440,0,0,0,0,0,0,0,0,0,-1,1336,1464,0,0
119,-440,0,0,0,0,0,0,0,0,0,-1,1343,1464,0,0
126,-440,0,0,0,0,0,0,0,0,0,-1,1350,1464,0,0
133,-440,0,0,0,0,0,0,0,0,0,-1,1357,1464,0,0
140,-440,0,0,0,0,0,0,0,0,0,-1,1364,1464,0,0
147,-440,0,0,0,0,0,0,0,0,0,-1,1371,1464,0,0
154,-440,0,0,0,0,0,0,0,0,0,-1,1378,1464,0,0
161,-440,0,0,0,0,0,0,0,0,0,-1,1385,1464,0,0
168,-440,0,0,0,0,0,0,0,0,0,-1,1392,1464,0,0
175,-440,0,0,0,0,0,0,0,0,0,-1,1399,1464,0,0
182,-440,0,0,0,0,0,0,0,0,0,-1,1406,1464,0,0
189,-440,0,0,0,0,0,0,0,0,0,-1,1413,1464,0,0
196,-440,0,0,0,0,0,0,0,0,0,-1,1420,1464,0,0
203,-440,0,0,0,0,0,0,0,0,0,-1,1427,1464,0,0
210,-440,0,0,0,0,0,0,0,0,0,-1,1434,1464,0,0
217,-440,0,0,0,0,0,0,0,0,0,-1,1441,1464,0,0
224,-440,0,0,0,0,0,0,0,0,0,-1,1448,1464,0,0
231,-440,0,0,0,0,0,0,0,0,0,-1,1455,1464,0,0
238,-440,0,0,0,0,0,0,0,0,0,-1,1462,1464,0,0
245,-440,0,0,0,0,0,0,0,0,0,-1,1469,1464,0,0
252,-440,0,0,0,0,0,0,0,0,0,-1,1476,1464,0,0
259,-440,0,0,0,0,0,0,0,0,0,-1,1483,1464,0,0
266,-440,0,0,0,0,0,0,0,0,0,-1,1490,1464,0,0
273,-440,0,0,0,0,0,0,0,0,0,-1,1497,1464,0,0
280,-440,0,0,0,0,0,0,0,0,0,-1,1504,1464,0,0
287,-440,0,0,0,0,0,0,0,0,0,-1,1511,1464,0,0
294,-440,0,0,0,0,0,0,0,0,0,-1,1518,1464,0,0
301,-440,0,0,0,0,0,0,0,0,0,-1,1525,1464,0,0
308,-440,0,0,0,0,0,0,0,0,0,-1,1532,1464,0,0
315,-440,0,0,0,0,0,0,0,0,0,-1,1539,1464,0,0
322,-440,0,0,0,0,0,0,0,0,0,-1,1546,1464,0,0
329,-440,0,0,0,0,0,0,0,0,0,-1,1553,1464,0,0
336,-440,0,0,0,0,0,0,0,0,0,-1,1560,1464,0,0
343,-440,0,0,0,0,0,0,0,0,0,-1,1567,1464,0,0
350,-440,0,0,0,0,0,0,0,0,0,-1,1574,1464,0,0
357,-440,0,0,0,0,0,0,0,0,0,-1,1581,1464,0,0
364,-440,0,0,0,0,0,0,0,0,0,-1,1588,1464,0,0
371,-440,0,0,0,0,0,0,0,0,0,-1,1595,1464,0,0
378,-440,0,0,0,0,0,0,0,0,0,-1,1602,1464,0,0
385,-440,0,0,0,0,0,0,0,0,0,-1,1609,1464,0,0
392,-440,0,0,0,0,0,0,0,0,0,-1,1616,1464,0,0
399,-440,0,0,0,0,0,0,0,0,0,-1,1623,1464,0,0
406,-440,0,0,0,0,0,0,0,0,0,-1,1630,1464,0,0
413,-440,0,0,0,0,0,0,0,0,0,-1,1637,1464,0,0
420,-440,0,0,0,0,0,0,0,0,0,-1,1644,1464,0,0
427,-440,0,0,0,0,0,0,0,0,0,-1,1651,1464,0,0
434,-440,0,0,0,0,0,0,0,0,0,-1,1658,1464,0,0
441,-440,0,0,0,0,0,0,0,0,0,-1,1665,1464,0,0
448,-440,0,0,0,0,0,0,0,0,0,-1,1672,1464,0,0
455,-440,0,0,0,0,0,0,0,0,0,-1,1679,1464,0,0
462,-440,0,0,0,0,0,0,0,0,0,-1,1686,1464,0,0
469,-440,0,0,0,0,0,0,0,0,0,-1,1693,1464,0,0
476,-440,0,0,0,0,0,0,0,0,0,-1,1700,1464,0,0
483,-440,0,0,0,0,0,0,0,0,0,-1,1707,1464,0,0
490,-440,0,0,0,0,0,0,0,0,0,-1,1714,1464,0,0
497,-440,0.614624,0.194214,0,0,0,0,0,0,0,-1,1721,1464,0.614657,-0.19417
504,-440,-0.233765,-0.147461,-0.0175731,-0.0155858,0.0105302,-0.00600245,-0.0271564,0.83244,0.0164721,0.0429171,1728,1464,-0.23381,0.147403
511,-440,-0.22644,-0.0150146,-0.0136148,-0.0109299,0.0100215,-0.00216135,-0.0223833,0.85198,0.0142565,0.044775,1735,1464,-0.226395,0.0149854
518,-440,-0.22998,0.35022,-0.0107386,-0.00755947,0.00897949,-2.99262e-05,-0.0182681,0.873001,0.0121688,0.0438468,1742,1464,-0.229988,-0.350168
525,-440,0.110352,1.04175,-0.00879703,-0.00499152,0.00723045,0.000582352,-0.0143709,0.91406,0.00978049,0.0454312,1749,1464,0.110311,-1.04175
532,-440,0.46106,1.5553,-0.00741893,-0.00318197,0.00547218,0.000567491,-0.0111684,0.970082,0.00764178,0.0447486,1756,1464,0.461072,-1.55533
539,-440,0.705933,0.398804,0,0,0,0,0,0,0,-1,1763,1464,0.70588,-0.398835
546,-440,0.684082,0.330078,-0.00588195,-0.00104186,0.00275016,0.000201426,-0.00712524,1.14622,0.00481871,0.0448044,1770,1464,0.684053,-0.330114
553,-440,0.633789,0.263794,-0.00506399,-0.000723639,0.00185778,-3.70697e-05,-0.00575056,1.2168,0.00382141,0.0424477,1777,1464,0.633811,-0.263734
560,-440,0.613037,0.197021,-0.00451283,0.00024261,0.00123255,0.000543087,-0.0048133,1.33168,0.00340437,0.043936,1784,1464,0.613069,-0.197045
567,-440,0.480469,0.168823,-0.00413022,0.000547677,0.000929873,0.00072574,-0.00430828,1.3816,0.00314216,0.0444426,1791,1464,0.480464,-0.168812
574,-440,0.00720215,0.0184326,-0.00370936,0.000637825,0.000628494,0.000726866,-0.0037984,1.43006,0.00280611,0.0440487,1798,1464,0.00717444,-0.0184398
581,-440,-0.000854492,-0.010498,-0.00368029,-0.000331978,0.000349956,-0.000295792,-0.00371648,1.46776,0.00238518,0.030556,1805,1464,-0.000811996,0.0104783
588,-440,-0.00439453,-0.0556641,-0.00330128,-0.00100734,0.000489004,-0.000907446,-0.00340117,1.36929,0.00203361,0.0195429,1812,1464,-0.00444962,0.0556906
595,-440,-0.00476074,-0.0561523,-0.00304468,-0.000608261,0.000753181,-0.000394229,-0.00325871,1.29392,0.00205372,0.0159175,1819,1464,-0.00478294,0.0561085
602,-440,-0.0134277,-0.0653076,-0.00260274,-1.09342e-05,0.000828637,0.000231345,-0.00284502,1.28634,0.00197831,0.0173421,1826,1464,-0.013367,0.0653124
609,-440,-0.0195313,-0.0651855,-0.00221863,0.000570254,0.000915438,0.000843893,-0.00249227,1.28033,0.00200297,0.0149311,1833,1464,-0.0195155,0.0652351
616,-440,-0.0230713,-0.0418701,-0.00200034,0.00123095,0.00105145,0.00154296,-0.00231235,1.28233,0.00224059,0.016133,1840,1464,-0.0230349,0.0418355
623,-440,-0.0249023,-0.067627,-0.00192817,0.00178737,0.000817558,0.00195931,-0.00210011,1.36351,0.00234417,0.01304,1847,1464,-0.0249185,0.0676514
630,-440,-0.0380859,-0.0921631,-0.00236172,0.00201208,0.000814337,0.00215878,-0.00250841,1.39256,0.00269712,0.0113492,1854,1464,-0.0381384,0.0921036
637,-440,-0.0349121,-0.0822754,-0.00286037,0.00228889,0.000856486,0.00242762,-0.00299909,1.41022,0.0031389,0.015804,1861,1464,-0.0349041,0.0822613
644,-440,-0.0106201,-0.0718994,-0.00276881,0.00259222,0.00126684,0.00287651,-0.0030531,1.35005,0.00342397,0.0136613,1868,1464,-0.0106042,0.0719227
651,-440,-0.0134277,-0.0515137,-0.0011101,0.00335605,0.00249431,0.00447084,-0.00222489,1.1505,0.00393761,0.0108445,1875,1464,-0.0134708,0.0515165
658,-440,-0.0239258,-0.0568848,0.0020131,0.00361922,0.00428571,0.00717646,-0.00154415,0.878015,0.00537349,0.0129368,1882,1464,-0.0238753,0.056931
665,-440,-0.0167236,-0.0266113,0.00532375,0.00395819,0.00618082,0.0108594,-0.00157745,0.730387,0.00781864,0.0256391,1889,1464,-0.0167438,0.0266705
672,-440,-0.0443115,-0.1604,0.0100609,0.00465427,0.00861931,0.0163909,-0.00167572,0.63344,0.0115265,0.0386275,1896,1464,-0.0443101,0.160422
679,-440,-0.127808,-0.0738525,0.0165959,0.00604154,0.0116233,0.024084,-0.00144649,0.572304,0.0165592,0.0420708,1903,1464,-0.127787,0.0738268
686,-440,-0.0201416,0.109497,0.0259247,0.00771487,0.0155443,0.0348344,-0.00119481,0.520464,0.0236313,0.0408965,1910,1464,-0.0201667,-0.109482
693,-440,0.274292,0.312866,0.0382331,0.0104739,0.0203202,0.0489615,-0.000254488,0.485769,0.0327262,0.0449806,1917,1464,0.274262,-0.312918
700,-440,0.493652,0.547119,0.053793,0.0150964,0.0258283,0.0667163,0.00217308,0.463932,0.0437711,0.045116,1924,1464,0.493651,-0.547131
707,-440,0,0,0,0,0,0,0,0,0,-1,1931,1464,0,0
714,-440,0,0,0,0,0,0,0,0,0,-1,1938,1464,0,0
721,-440,0,0,0,0,0,0,0,0,0,-1,1945,1464,0,0
728,-440,0,0,0,0,0,0,0,0,0,-1,1952,1464,0,0
735,-440,0,0,0,0,0,0,0,0,0,-1,1959,1464,0,0
742,-440,0,0,0,0,0,0,0,0,0,-1,1966,1464,0,0
749,-440,0,0,0,0,0,0,0,0,0,-1,1973,1464,0,0
756,-440,0,0,0,0,0,0,0,0,0,-1,1980,1464,0,0
763,-440,0,0,0,0,0,0,0,0,0,-1,1987,1464,0,0
770,-440,0,0,0,0,0,0,0,0,0,-1,1994,1464,0,0
777,-440,0,0,0,0,0,0,0,0,0,-1,2001,1464,0,0
784,-440,0,0,0,0,0,0,0,0,0,-1,2008,1464,0,0
791,-440,0,0,0,0,0,0,0,0,0,-1,2015,1464,0,0
798,-440,0,0,0,0,0,0,0,0,0,-1,2022,1464,0,0
805,-440,0,0,0,0,0,0,0,0,0,-1,2029,1464,0,0
812,-440,0,0,0,0,0,0,0,0,0,-1,2036,1464,0,0
-700,-447,0,0,0,0,0,0,0,0,0,-1,524,1471,0,0
-693,-447,0,0,0,0,0,0,0,0,0,-1,531,1471,0,0
-686,-447,0,0,0,0,0,0,0,0,0,-1,538,1471,0,0
-679,-447,0,0,0,0,0,0,0,0,0,-1,545,1471,0,0
-672,-447,0,0,0,0,0,0,0,0,0,-1,552,1471,0,0
-665,-447,0,0,0,0,0,0,0,0,0,-1,559,1471,0,0
-658,-447,0,0,0,0,0,0,0,0,0,-1,566,1471,0,0
-651,-447,0,0,0,0,0,0,0,0,0,-1,573,1471,0,0
-644,-447,0,0,0,0,0,0,0,0,0,-1,580,1471,0,0
-637,-447,0,0,0,0,0,0,0,0,0,-1,587,1471,0,0
-630,-447,0,0,0,0,0,0,0,0,0,-1,594,1471,0,0
-623,-447,0,0,0,0,0,0,0,0,0,-1,601,1471,0,0
-616,-447,0,0,0,0,0,0,0,0,0,-1,608,1471,0,0
-609,-447,0,0,0,0,0,0,0,0,0,-1,615,1471,0,0
-602,-447,0,0,0,0,0,0,0,0,0,-1,622,1471,0,0
-595,-447,0,0,0,0,0,0,0,0,0,-1,629,1471,0,0
-588,-447,0,0,0,0,0,0,0,0,0,-1,636,1471,0,0
-581,-447,-0.985718,0.363647,0,0,0,0,0,0,0,-1,643,1471,-0.985743,-0.363656
-574,-447,-0.345703,-0.344238,0,0,0,0,0,0,0,-1,650,1471,-0.345718,0.344299
-567,-447,0.0917969,-1.09094,0,0,0,0,0,0,0,-1,657,1471,0.0917673,1.09097
-560,-447,-0.378174,-0.231445,0,0,0,0,0,0,0,-1,664,1471,-0.378204,0.231479
-553,-447,0.575684,-0.575928,0,0,0,0,0,0,0,-1,671,1471,0.575702,0.575881
-546,-447,0.380249,-0.457275,-0.00212732,-0.0264882,0.00443118,-0.00134633,-0.0272691,0.174456,0.0177477,0.0433295,678,1471,0.380222,0.457279
-539,-447,0.0946655,-0.295166,-0.0035485,-0.0201347,0.00345487,-0.00285763,-0.0208256,0.197365,0.013036,0.0436334,685,1471,0.0946873,0.295157
-532,-447,0.00238037,-0.100342,-0.00316124,-0.0151967,0.00311164,-0.00240436,-0.0159536,0.238608,0.00993175,0.0397398,692,1471,0.00237617,0.10033
-525,-447,-0.00585938,-0.0714111,-0.00220278,-0.011949,0.00229107,-0.00169108,-0.0124607,0.219739,0.00780476,0.0243121,699,1471,-0.0058706,0.07146
-518,-447,-0.00189209,-0.0930176,-0.00146435,-0.0083571,0.00157749,-0.00112048,-0.00870097,0.21463,0.00546558,0.0144496,706,1471,-0.00187965,0.0929993
-511,-447,-0.0127563,-0.0864258,-0.0010398,-0.00530996,0.00125991,-0.000695777,-0.00565399,0.266554,0.00356013,0.0154353,713,1471,-0.0127447,0.0864798
-504,-447,-0.0575562,-0.0479736,-0.000665672,-0.00298181,0.000601016,-0.000519001,-0.00312848,0.239359,0.00193598,0.0196525,720,1471,-0.0575712,0.0479997
-497,-447,-0.0721436,-0.0377197,-0.000354683,-0.000837777,-0.000104106,-0.000333204,-0.000859256,-0.20347,0.000500239,0.0228186,727,1471,-0.0721377,0.0377148
-490,-447,-0.0262451,-0.09729,0.000236956,2.45838e-05,-0.000366964,0.000512789,-0.000251249,-0.644563,0.00044965,0.0222481,734,1471,-0.0262239,0.0972784
-483,-447,-0.0206299,-0.0977783,0.000832593,0.000663235,-0.000715826,0.00146873,2.7097e-05,-0.726524,0.000970248,0.0208245,741,1471,-0.0206421,0.0977725
-476,-447,-0.0153198,-0.105103,0.00136999,-0.000101304,-0.000648671,0.00161514,-0.000346447,-0.361325,0.0012089,0.0133187,748,1471,-0.015342,0.10509
-469,-447,-0.0326538,-0.090332,0.00205575,-0.000833566,-0.000624313,0.00218488,-0.000962694,-0.203957,0.00186236,0.011705,755,1471,-0.0326657,0.090303
-462,-447,-0.0337524,-0.072998,0.00285551,-0.00129589,-0.000159768,0.00286165,-0.00130203,-0.0384095,0.00245947,0.0103781,762,1471,-0.0337651,0.0730394
-455,-447,-0.022644,-0.0561523,0.00377475,-0.00153718,0.000550314,0.00383116,-0.00159359,0.102154,0.00321957,0.0107084,769,1471,-0.0226407,0.0561398
-448,-447,-0.0389404,-0.0748291,0.00423838,-0.00239306,0.0015944,0.0046018,-0.00275648,0.224109,0.00429261,0.0149712,776,1471,-0.038935,0.0748476
-441,-447,-0.067627,-0.0732422,0.00441883,-0.00359032,0.00262395,0.00520191,-0.00437341,0.290024,0.00553521,0.0254895,783,1471,-0.0676013,0.0732911
-434,-447,0.0951538,-0.0366211,0.00394557,-0.00435088,0.00374395,0.00538527,-0.00579058,0.367109,0.0064538,0.0353645,790,1471,0.0951626,0.0366636
-427,-447,0.0460205,-0.0610352,0.00264545,-0.00175316,0.0058981,0.00674095,-0.00584866,0.606941,0.0072747,0.0397365,797,1471,0.0460328,0.0610139
-420,-447,-0.169006,-0.0314941,0.00147127,-0.000342349,0.00810067,0.00871573,-0.0075868,0.729659,0.00941979,0.041971,804,1471,-0.169009,0.0315516
-413,-447,-0.364563,-0.111328,-0.000329029,0.00190626,0.0104794,0.0113275,-0.00975024,0.838523,0.0121806,0.04136,811,1471,-0.364541,0.111349
-406,-447,-0.22406,0.313721,-0.00318142,0.00546222,0.0128454,0.0146933,-0.0124125,0.947674,0.015668,0.0416085,818,1471,-0.22406,-0.313704
-399,-447,-0.0526123,0.578369,-0.00711145,0.0106619,0.0152073,0.0193887,-0.0158382,1.04982,0.0203727,0.0426758,825,1471,-0.0526346,-0.578425
-392,-447,-1.19513,-1.26904,0,0,0,0,0,0,0,-1,832,1471,-1.1951,1.26905
-385,-447,-0.32782,0.0292969,-0.018048,0.0267591,0.0194466,0.0340219,-0.0253107,1.21337,0.0343786,0.048384,839,1471,-0.327817,-0.0292501
-378,-447,-0.135132,-0.208008,-0.0245676,0.0377883,0.0212807,0.0443586,-0.0311379,1.27134,0.0438102,0.0451934,846,1471,-0.13513,0.207983
-371,-447,-8.02582,0.54895,0,0,0,0,0,0,0,-1,853,1471,-8.0258,-0.548923
-364,-447,0,0,0,0,0,0,0,0,0,-1,860,1471,0,0
-357,-447,0,0,0,0,0,0,0,0,0,-1,867,1471,0,0
-350,-447,0,0,0,0,0,0,0,0,0,-1,874,1471,0,0
-343,-447,0,0,0,0,0,0,0,0,0,-1,881,1471,0,0
-336,-447,0,0,0,0,0,0,0,0,0,-1,888,1471,0,0
-329,-447,0,0,0,0,0,0,0,0,0,-1,895,1471,0,0
-322,-447,0,0,0,0,0,0,0,0,0,-1,902,1471,0,0
-315,-447,0,0,0,0,0,0,0,0,0,-1,909,1471,0,0
-308,-447,0,0,0,0,0,0,0,0,0,-1,916,1471,0,0
-301,-447,0,0,0,0,0,0,0,0,0,-1,923,1471,0,0
-294,-447,0,0,0,0,0,0,0,0,0,-1,930,1471,0,0
-287,-447,0,0,0,0,0,0,0,0,0,-1,937,1471,0,0
-280,-447,0,0,0,0,0,0,0,0,0,-1,944,1471,0,0
-273,-447,0,0,0,0,0,0,0,0,0,-1,951,1471,0,0
-266,-447,0,0,0,0,0,0,0,0,0,-1,958,1471,0,0
-259,-447,0,0,0,0,0,0,0,0,0,-1,965,1471,0,0
-252,-447,0,0,0,0,0,0,0,0,0,-1,972,1471,0,0
-245,-447,0,0,0,0,0,0,0,0,0,-1,979,1471,0,0
-238,-447,0,0,0,0,0,0,0,0,0,-1,986,1471,0,0
-231,-447,0,0,0,0,0,0,0,0,0,-1,993,1471,0,0
-224,-447,0,0,0,0,0,0,0,0,0,-1,1000,1471,0,0
-217,-447,0,0,0,0,0,0,0,0,0,-1,1007,1471,0,0
-210,-447,0,0,0,0,0,0,0,0,0,-1,1014,1471,0,0
-203,-447,0,0,0,0,0,0,0,0,0,-1,1021,1471,0,0
-196,-447,0,0,0,0,0,0,0,0,0,-1,1028,1471,0,0
-189,-447,0,0,0,0,0,0,0,0,0,-1,1035,1471,0,0
-182,-447,0,0,0,0,0,0,0,0,0,-1,1042,1471,0,0
-175,-447,0,0,0,0,0,0,0,0,0,-1,1049,1471,0,0
-168,-447,0,0,0,0,0,0,0,0,0,-1,1056,1471,0,0
-161,-447,0,0,0,0,0,0,0,0,0,-1,1063,1471,0,0
-154,-447,0,0,0,0,0,0,0,0,0,-1,1070,1471,0,0
-147,-447,0,0,0,0,0,0,0,0,0,-1,1077,1471,0,0
-140,-447,0,0,0,0,0,0,0,0,0,-1,1084,1471,0,0
-133,-447,0,0,0,0,0,0,0,0,0,-1,1091,1471,0,0
-126,-447,0,0,0,0,0,0,0,0,0,-1,1098,1471,0,0
-119,-447,0,0,0,0,0,0,0,0,0,-1,1105,1471,0,0
-112,-447,0,0,0,0,0,0,0,0,0,-1,1112,1471,0,0
-105,-447,0,0,0,0,0,0,0,0,0,-1,1119,1471,0,0
-98,-447,0,0,0,0,0,0,0,0,0,-1,1126,1471,0,0
-91,-447,0,0,0,0,0,0,0,0,0,-1,1133,1471,0,0
-84,-447,0,0,0,0,0,0,0,0,0,-1,1140,1471,0,0
-77,-447,0,0,0,0,0,0,0,0,0,-1,1147,1471,0,0
-70,-447,0,0,0,0,0,0,0,0,0,-1,1154,1471,0,0
-63,-447,0,0,0,0,0,0,0,0,0,-1,1161,1471,0,0
-56,-447,0,0,0,0,0,0,0,0,0,-1,1168,1471,0,0
-49,-447,0,0,0,0,0,0,0,0,0,-1,1175,1471,0,0
-42,-447,0,0,0,0,0,0,0,0,0,-1,1182,1471,0,0
-35,-447,0,0,0,0,0,0,0,0,0,-1,1189,1471,0,0
-28,-447,0,0,0,0,0,0,0,0,0,-1,1196,1471,0,0
-21,-447,0,0,0,0,0,0,0,0,0,-1,1203,1471,0,0
-14,-447,0,0,0,0,0,0,0,0,0,-1,1210,1471,0,0
-7,-447,0,0,0,0,0,0,0,0,0,-1,1217,1471,0,0
0,-447,0,0,0,0,0,0,0,0,0,-1,1224,1471,0,0
7,-447,0,0,0,0,0,0,0,0,0,-1,1231,1471,0,0
14,-447,0,0,0,0,0,0,0,0,0,-1,1238,1471,0,0
21,-447,0,0,0,0,0,0,0,0,0,-1,1245,1471,0,0
28,-447,0,0,0,0,0,0,0,0,0,-1,1252,1471,0,0
35,-447,0,0,0,0,0,0,0,0,0,-1,1259,1471,0,0
42,-447,0,0,0,0,0,0,0,0,0,-1,1266,1471,0,0
49,-447,0,0,0,0,0,0,0,0,0,-1,1273,1471,0,0
56,-447,0,0,0,0,0,0,0,0,0,-1,1280,1471,0,0
63,-447,0,0,0,0,0,0,0,0,0,-1,1287,1471,0,0
70,-447,0,0,0,0,0,0,0,0,0,-1,1294,1471,0,0
77,-447,0,0,0,0,0,0,0,0,0,-1,1301,1471,0,0
84,-447,0,0,0,0,0,0,0,0,0,-1,1308,1471,0,0
91,-447,0,0,0,0,0,0,0,0,0,-1,1315,1471,0,0
98,-447,0,0,0,0,0,0,0,0,0,-1,1322,1471,0,0
105,-447,0,0,0,0,0,0,0,0,0,-1,1329,1471,0,0
112,-447,0,0,0,0,0,0,0,0,0,-1,1336,1471,0,0
119,-447,0,0,0,0,0,0,0,0,0,-1,1343,1471,0,0
126,-447,0,0,0,0,0,0,0,0,0,-1,1350,1471,0,0
133,-447,0,0,0,0,0,0,0,0,0,-1,1357,1471,0,0
140,-447,0,0,0,0,0,0,0,0,0,-1,1364,1471,0,0
147,-447,0,0,0,0,0,0,0,0,0,-1,1371,1471,0,0
154,-447,0,0,0,0,0,0,0,0,0,-1,1378,1471,0,0
161,-447,0,0,0,0,0,0,0,0,0,-1,1385,1471,0,0
168,-447,0,0,0,0,0,0,0,0,0,-1,1392,1471,0,0
175,-447,0,0,0,0,0,0,0,0,0,-1,1399,1471,0,0
182,-447,0,0,0,0,0,0,0,0,0,-1,1406,1471,0,0
189,-447,0,0,0,0,0,0,0,0,0,-1,1413,1471,0,0
196,-447,0,0,0,0,0,0,0,0,0,-1,1420,1471,0,0
203,-447,0,0,0,0,0,0,0,0,0,-1,1427,1471,0,0
210,-447,0,0,0,0,0,0,0,0,0,-1,1434,1471,0,0
217,-447,0,0,0,0,0,0,0,0,0,-1,1441,1471,0,0
224,-447,0,0,0,0,0,0,0,0,0,-1,1448,1471,0,0
231,-447,0,0,0,0,0,0,0,0,0,-1,1455,1471,0,0
238,-447,0,0,0,0,0,0,0,0,0,-1,1462,1471,0,0
245,-447,0,0,0,0,0,0,0,0,0,-1,1469,1471,0,0
252,-447,0,0,0,0,0,0,0,0,0,-1,1476,1471,0,0
259,-447,0,0,0,0,0,0,0,0,0,-1,1483,1471,0,0
266,-447,0,0,0,0,0,0,0,0,0,-1,1490,1471,0,0
273,-447,0,0,0,0,0,0,0,0,0,-1,1497,1471,0,0
280,-447,0,0,0,0,0,0,0,0,0,-1,1504,1471,0,0
287,-447,0,0,0,0,0,0,0,0,0,-1,1511,1471,0,0
294,-447,0,0,0,0,0,0,0,0,0,-1,1518,1471,0,0
301,-447,0,0,0,0,0,0,0,0,0,-1,1525,1471,0,0
308,-447,0,0,0,0,0,0,0,0,0,-1,1532,1471,0,0
315,-447,0,0,0,0,0,0,0,0,0,-1,1539,1471,0,0
322,-447,0,0,0,0,0,0,0,0,0,-1,1546,1471,0,0
329,-447,0,0,0,0,0,0,0,0,0,-1,1553,1471,0,0
336,-447,0,0,0,0,0,0,0,0,0,-1,1560,1471,0,0
343,-447,0,0,0,0,0,0,0,0,0,-1,1567,1471,0,0
350,-447,0,0,0,0,0,0,0,0,0,-1,1574,1471,0,0
357,-447,0,0,0,0,0,0,0,0,0,-1,1581,1471,0,0
364,-447,0,0,0,0,0,0,0,0,0,-1,1588,1471,0,0
371,-447,0,0,0,0,0,0,0,0,0,-1,1595,1471,0,0
378,-447,0,0,0,0,0,0,0,0,0,-1,1602,1471,0,0
385,-447,0,0,0,0,0,0,0,0,0,-1,1609,1471,0,0
392,-447,0,0,0,0,0,0,0,0,0,-1,1616,1471,0,0
399,-447,0,0,0,0,0,0,0,0,0,-1,1623,1471,0,0
406,-447,0,0,0,0,0,0,0,0,0,-1,1630,1471,0,0
413,-447,0,0,0,0,0,0,0,0,0,-1,1637,1471,0,0
420,-447,0,0,0,0,0,0,0,0,0,-1,1644,1471,0,0
427,-447,0,0,0,0,0,0,0,0,0,-1,1651,1471,0,0
434,-447,0,0,0,0,0,0,0,0,0,-1,1658,1471,0,0
441,-447,0,0,0,0,0,0,0,0,0,-1,1665,1471,0,0
448,-447,0,0,0,0,0,0,0,0,0,-1,1672,1471,0,0
455,-447,0,0,0,0,0,0,0,0,0,-1,1679,1471,0,0
462,-447,0,0,0,0,0,0,0,0,0,-1,1686,1471,0,0
469,-447,0,0,0,0,0,0,0,0,0,-1,1693,1471,0,0
476,-447,0,0,0,0,0,0,0,0,0,-1,1700,1471,0,0
483,-447,0,0,0,0,0,0,0,0,0,-1,1707,1471,0,0
490,-447,0.444092,-0.0977783,0,0,0,0,0,0,0,-1,1714,1471,0.4441,0.0977985
497,-447,0.453735,0.166382,-0.0163059,-0.0118837,0.00744096,-0.00633231,-0.0218574,0.929819,0.0129861,0.0470181,1721,1471,0.453741,-0.166367
504,-447,-0.207886,-0.0100098,-0.013345,-0.00816802,0.00837616,-0.00198951,-0.0195235,0.935259,0.0124058,0.0437293,1728,1471,-0.207862,0.00997577
511,-447,-0.1073,0.282593,-0.0102104,-0.00469577,0.00836499,0.00135464,-0.0162608,0.944602,0.0113191,0.0426317,1735,1471,-0.10732,-0.282597
518,-447,0.0773926,0.569092,-0.00775693,-0.00222212,0.00791516,0.00339548,-0.0133745,0.953572,0.0102376,0.0421699,1742,1471,0.0773915,-0.569107
525,-447,0.0793457,0.621704,-0.00593897,-0.000504538,0.00675692,0.00406105,-0.0105046,0.976572,0.00867941,0.0423716,1749,1471,0.0793104,-0.62173
532,-447,-0.0460205,0.262207,-0.00470104,0.000419835,0.00534567,0.00378663,-0.00806784,1.00874,0.00699137,0.0405646,1756,1471,-0.0460455,-0.262251
539,-447,-0.218384,-0.284668,-0.00396775,0.000976575,0.00398759,0.00319615,-0.00618733,1.06288,0.00550854,0.0408818,1763,1471,-0.218431,0.284625
546,-447,0.255737,0.297607,-0.00350243,0.00108593,0.002914,0.00250048,-0.00491698,1.11887,0.00435757,0.0429387,1770,1471,0.255795,-0.297578
553,-447,0.42688,0.0714111,-0.00295667,0.000788735,0.00202355,0.00167316,-0.0038411,1.15875,0.00326465,0.0393359,1777,1471,0.426935,-0.071414
560,-447,0.419556,0.0155029,-0.00271192,0.00119218,0.00138973,0.00163635,-0.00315608,1.26145,0.0028129,0.0399274,1784,1471,0.419509,-0.0154664
567,-447,0.0550537,-0.0285645,-0.00258598,0.00103457,0.00102762,0.00130591,-0.00285732,1.31265,0.00245864,0.0367413,1791,1471,0.0551111,0.0285544
574,-447,-0.0151367,-0.0712891,-0.0023671,0.000789247,0.000698641,0.000936973,-0.00251483,1.36242,0.00206113,0.0222619,1798,1471,-0.01511,0.0712981
581,-447,-0.00500488,-0.0576172,-0.00244867,-0.00026418,0.000368406,-0.000203723,-0.00250913,1.40814,0.00160915,0.0116352,1805,1471,-0.00497505,0.0576529
588,-447,-0.0100098,-0.057373,-0.00233482,-0.000992845,0.000396666,-0.000884366,-0.0024433,1.30385,0.00142845,0.0110379,1812,1471,-0.00998504,0.0574263
595,-447,-0.0256348,-0.0582275,-0.00239306,-0.000617284,0.000563074,-0.000453793,-0.00255655,1.28821,0.00157505,0.0105769,1819,1471,-0.0256365,0.0582708
602,-447,-0.013916,-0.0716553,-0.00229093,-1.20561e-05,0.000566916,0.000121186,-0.00242417,1.33996,0.00165798,0.0102388,1826,1471,-0.0139404,0.0716179
609,-447,-0.00683594,-0.0765381,-0.00221234,0.000722883,0.000637177,0.000855234,-0.00234469,1.36599,0.00191302,0.0115498,1833,1471,-0.00686738,0.0765796
616,-447,-0.0135498,-0.0750732,-0.00224595,0.00156683,0.000759289,0.00171247,-0.00239159,1.38128,0.00238027,0.013391,1840,1471,-0.0135474,0.0750948
623,-447,-0.0301514,-0.0898438,-0.00245852,0.00244291,0.000575859,0.00250966,-0.00252527,1.4554,0.00290692,0.01425,1847,1471,-0.0301401,0.0898101
630,-447,-0.0236816,-0.0980225,-0.0032048,0.00299804,0.000571593,0.00305028,-0.00325703,1.47967,0.00364218,0.00904419,1854,1471,-0.0237358,0.0979634
637,-447,-0.00585938,-0.100342,-0.00398331,0.0036313,0.000615186,0.00368068,-0.00403269,1.4907,0.00445486,0.0102702,1861,1471,-0.0058409,0.100377
644,-447,-0.00683594,-0.0784912,-0.00421994,0.00433436,0.000981563,0.00444554,-0.00433112,1.458,0.00506736,0.00934522,1868,1471,-0.00688434,0.0784736
651,-447,-0.0137939,-0.0610352,-0.00297984,0.00547979,0.00211104,0.00597733,-0.00347738,1.33934,0.00552192,0.0122876,1875,1471,-0.0138327,0.0610105
658,-447,-0.0123291,-0.0524902,-0.000411142,0.00610256,0.00373296,0.0077997,-0.00210828,1.14409,0.00602676,0.0215689,1882,1471,-0.0122706,0.0525048
665,-447,-0.013916,0.0355225,0.00245327,0.00675195,0.00549764,0.0105055,-0.00130025,0.971741,0.00747486,0.0361946,1889,1471,-0.0138988,-0.035479
672,-447,0.0296631,-0.294189,0,0,0,0,0,0,0,-1,1896,1471,0.0297136,0.294207
679,-447,-0.124878,-0.177124,0,0,0,0,0,0,0,-1,1903,1471,-0.124863,0.177165
686,-447,-0.279419,-0.0601807,0,0,0,0,0,0,0,-1,1910,1471,-0.279439,0.0601234
693,-447,0.369385,0.000610352,0,0,0,0,0,0,0,-1,1917,1471,0.369417,-0.000584352
700,-447,0,0,0,0,0,0,0,0,0,-1,1924,1471,0,0
707,-447,0,0,0,0,0,0,0,0,0,-1,1931,1471,0,0
714,-447,0,0,0,0,0,0,0,0,0,-1,1938,1471,0,0
721,-447,0,0,0,0,0,0,0,0,0,-1,1945,1471,0,0
728,-447,0,0,0,0,0,0,0,0,0,-1,1952,1471,0,0
735,-447,0,0,0,0,0,0,0,0,0,-1,1959,1471,0,0
742,-447,0,0,0,0,0,0,0,0,0,-1,1966,1471,0,0
749,-447,0,0,0,0,0,0,0,0,0,-1,1973,1471,0,0
756,-447,0,0,0,0,0,0,0,0,0,-1,1980,1471,0,0
763,-447,0,0,0,0,0,0,0,0,0,-1,1987,1471,0,0
770,-447,0,0,0,0,0,0,0,0,0,-1,1994,1471,0,0
777,-447,0,0,0,0,0,0,0,0,0,-1,2001,1471,0,0
784,-447,0,0,0,0,0,0,0,0,0,-1,2008,1471,0,0
791,-447,0,0,0,0,0,0,0,0,0,-1,2015,1471,0,0
798,-447,0,0,0,0,0,0,0,0,0,-1,2022,1471,0,0
805,-447,0,0,0,0,0,0,0,0,0,-1,2029,1471,0,0
812,-447,0,0,0,0,0,0,0,0,0,-1,2036,1471,0,0
-700,-454,0,0,0,0,0,0,0,0,0,-1,524,1478,0,0
-693,-454,0,0,0,0,0,0,0,0,0,-1,531,1478,0,0
-686,-454,0,0,0,0,0,0,0,0,0,-1,538,1478,0,0
-679,-454,0,0,0,0,0,0,0,0,0,-1,545,1478,0,0
-672,-454,0,0,0,0,0,0,0,0,0,-1,552,1478,0,0
-665,-454,0,0,0,0,0,0,0,0,0,-1,559,1478,0,0
-658,-454,0,0,0,0,0,0,0,0,0,-1,566,1478,0,0
-651,-454,0,0,0,0,0,0,0,0,0,-1,573,1478,0,0
-644,-454,0,0,0,0,0,0,0,0,0,-1,580,1478,0,0
-637,-454,0,0,0,0,0,0,0,0,0,-1,587,1478,0,0
-630,-454,0,0,0,0,0,0,0,0,0,-1,594,1478,0,0
-623,-454,0,0,0,0,0,0,0,0,0,-1,601,1478,0,0
-616,-454,0,0,0,0,0,0,0,0,0,-1,608,1478,0,0
-609,-454,0,0,0,0,0,0,0,0,0,-1,615,1478,0,0
-602,-454,0,0,0,0,0,0,0,0,0,-1,622,1478,0,0
-595,-454,0,0,0,0,0,0,0,0,0,-1,629,1478,0,0
-588,-454,0,0,0,0,0,0,0,0,0,-1,636,1478,0,0
-581,-454,0,0,0,0,0,0,0,0,0,-1,643,1478,0,0
-574,-454,-0.204895,-0.13208,0,0,0,0,0,0,0,-1,650,1478,-0.204884,0.132141
-567,-454,0.1474,-0.485352,0.00196482,-0.0630379,0.00848649,0.00305452,-0.0641276,0.127705,0.0438054,0.0444779,657,1478,0.147412,0.485344
-560,-454,-0.219666,-0.508545,-0.00169458,-0.0523957,0.00715325,-0.000704676,-0.0533856,0.137511,0.0353579,0.0438139,664,1478,-0.219691,0.508497
-553,-454,0.0745239,-0.0557861,-0.00340521,-0.0430564,0.00604383,-0.00250444,-0.0439572,0.14795,0.0285067,0.0444761,671,1478,0.074507,0.0557957
-546,-454,0.0661011,-0.0341797,-0.00404531,-0.0341474,0.00473524,-0.003318,-0.0348747,0.152404,0.0222265,0.0461605,678,1478,0.0661288,0.0342003
-539,-454,-0.161743,-0.0744629,-0.00477935,-0.0260785,0.00363003,-0.00417768,-0.0266801,0.164255,0.0165707,0.0438698,685,1478,-0.161721,0.0745194
-532,-454,0.0820923,-0.210815,-0.0040029,-0.0194142,0.00298938,-0.00344336,-0.0199737,0.185036,0.0123294,0.0415114,692,1478,0.0821187,0.210783
-525,-454,0.0361328,-0.148315,-0.0027741,-0.0144692,0.0019812,-0.00244759,-0.0147958,0.163335,0.00915766,0.0365878,699,1478,0.0361233,0.148256
-518,-454,-0.0176392,-0.0682373,-0.00174403,-0.00975385,0.00106643,-0.00160447,-0.0098934,0.130121,0.00613116,0.0206632,706,1478,-0.0176393,0.068262
-511,-454,-0.012146,-0.0848389,-0.000990893,-0.00586203,0.000623572,-0.000912334,-0.00594059,0.125322,0.00369403,0.0129464,713,1478,-0.0121496,0.0847882
-504,-454,-0.00622559,-0.0638428,-0.000317808,-0.00296799,-8.8951e-05,-0.000314825,-0.00297098,-0.0335138,0.0018845,0.0155319,720,1478,-0.00622043,0.0638328
-497,-454,-0.0249634,-0.0490723,0.00019632,-0.00046712,-0.000788729,0.000720247,-0.000991048,-0.58634,0.000992131,0.0186931,727,1478,-0.0249817,0.0490446
-490,-454,-0.0193481,-0.067627,0.000736134,0.000635146,-0.00098229,0.00166923,-0.000297947,-0.759719,0.00122428,0.0166998,734,1478,-0.0193661,0.0675911
-483,-454,-0.0296631,-0.0780029,0.00110944,0.00151883,-0.00121224,0.00254353,8.47339e-05,-0.869039,0.00166816,0.0155248,741,1478,-0.0296582,0.0779659
-476,-454,-0.038147,-0.0965576,0.00151835,0.000706488,-0.000958059,0.00215293,7.19111e-05,-0.585013,0.00141193,0.0126705,748,1478,-0.0381338,0.0966089
-469,-454,-0.0195923,-0.0775146,0.00212679,-0.000100034,-0.000860853,0.00242077,-0.000394014,-0.329082,0.00175995,0.00925087,755,1478,-0.0196066,0.077462
-462,-454,-0.0165405,-0.0878906,0.00279107,-0.000605176,-0.000415424,0.00284115,-0.000655252,-0.119962,0.00214612,0.00899672,762,1478,-0.016529,0.0879218
-455,-454,-0.0214233,-0.0983887,0.00342002,-0.000852136,0.000266564,0.00343659,-0.000868705,0.0620748,0.00262891,0.00995547,769,1478,-0.0214173,0.0983384
-448,-454,-0.0335083,-0.0787354,0.00353139,-0.00174119,0.0013364,0.00385077,-0.00206057,0.234585,0.00346469,0.0111518,776,1478,-0.0334829,0.078739
-441,-454,-0.0257568,-0.0838623,0.00352648,-0.00288681,0.00219428,0.00420538,-0.00356571,0.300053,0.0044917,0.0199962,783,1478,-0.0257413,0.0838018
-434,-454,0.0612793,-0.121826,0.00298616,-0.00372785,0.0030641,0.00417429,-0.00491597,0.369907,0.00525408,0.0298435,790,1478,0.0612505,0.121876
-427,-454,0.0874023,-0.134888,0.00157452,-0.00132714,0.00481797,0.00515536,-0.00490799,0.639152,0.00581067,0.0414726,797,1478,0.0873729,0.134841
-420,-454,0.0355225,-0.167725,0,0,0,0,0,0,0,-1,804,1478,0.0354963,0.167689
-413,-454,0.567871,-0.516113,0,0,0,0,0,0,0,-1,811,1478,0.56786,0.516079
-406,-454,0.861267,-0.765381,0,0,0,0,0,0,0,-1,818,1478,0.861276,0.765367
-399,-454,-0.525635,-0.908936,0,0,0,0,0,0,0,-1,825,1478,-0.52564,0.908929
-392,-454,-0.870667,-1.10693,0,0,0,0,0,0,0,-1,832,1478,-0.870666,1.10693
-385,-454,-1.2157,-1.30493,0,0,0,0,0,0,0,-1,839,1478,-1.21569,1.30492
-378,-454,-7.27728,-0.0283203,-0.0271514,0.0317608,0.0156445,0.0356575,-0.0310481,1.32668,0.0385431,0.0489545,846,1478,-7.27727,0.028333
-371,-454,-6.49261,-0.0670166,0,0,0,0,0,0,0,-1,853,1478,-6.4926,0.0670553
-364,-454,-5.84674,-0.271362,0,0,0,0,0,0,0,-1,860,1478,-5.84676,0.27134
-357,-454,0,0,0,0,0,0,0,0,0,-1,867,1478,0,0
-350,-454,0,0,0,0,0,0,0,0,0,-1,874,1478,0,0
-343,-454,0,0,0,0,0,0,0,0,0,-1,881,1478,0,0
-336,-454,0,0,0,0,0,0,0,0,0,-1,888,1478,0,0
-329,-454,0,0,0,0,0,0,0,0,0,-1,895,1478,0,0
-322,-454,0,0,0,0,0,0,0,0,0,-1,902,1478,0,0
-315,-454,0,0,0,0,0,0,0,0,0,-1,909,1478,0,0
-308,-454,0,0,0,0,0,0,0,0,0,-1,916,1478,0,0
-301,-454,0,0,0,0,0,0,0,0,0,-1,923,1478,0,0
-294,-454,0,0,0,0,0,0,0,0,0,-1,930,1478,0,0
-287,-454,0,0,0,0,0,0,0,0,0,-1,937,1478,0,0
-280,-454,0,0,0,0,0,0,0,0,0,-1,944,1478,0,0
-273,-454,0,0,0,0,0,0,0,0,0,-1,951,1478,0,0
-266,-454,0,0,0,0,0,0,0,0,0,-1,958,1478,0,0
-259,-454,0,0,0,0,0,0,0,0,0,-1,965,1478,0,0
-252,-454,0,0,0,0,0,0,0,0,0,-1,972,1478,0,0
-245,-454,0,0,0,0,0,0,0,0,0,-1,979,1478,0,0
-238,-454,0,0,0,0,0,0,0,0,0,-1,986,1478,0,0
-231,-454,0,0,0,0,0,0,0,0,0,-1,993,1478,0,0
-224,-454,0,0,0,0,0,0,0,0,0,-1,1000,1478,0,0
-217,-454,0,0,0,0,0,0,0,0,0,-1,1007,1478,0,0
-210,-454,0,0,0,0,0,0,0,0,0,-1,1014,1478,0,0
-203,-454,0,0,0,0,0,0,0,0,0,-1,1021,1478,0,0
-196,-454,0,0,0,0,0,0,0,0,0,-1,1028,1478,0,0
-189,-454,0,0,0,0,0,0,0,0,0,-1,1035,1478,0,0
-182,-454,0,0,0,0,0,0,0,0,0,-1,1042,1478,0,0
-175,-454,0,0,0,0,0,0,0,0,0,-1,1049,1478,0,0
-168,-454,0,0,0,0,0,0,0,0,0,-1,1056,1478,0,0
-161,-454,0,0,0,0,0,0,0,0,0,-1,1063,1478,0,0
-154,-454,0,0,0,0,0,0,0,0,0,-1,1070,1478,0,0
-147,-454,0,0,0,0,0,0,0,0,0,-1,1077,1478,0,0
-140,-454,0,0,0,0,0,0,0,0,0,-1,1084,1478,0,0
-133,-454,0,0,0,0,0,0,0,0,0,-1,1091,1478,0,0
-126,-454,0,0,0,0,0,0,0,0,0,-1,1098,1478,0,0
-119,-454,0,0,0,0,0,0,0,0,0,-1,1105,1478,0,0
-112,-454,0,0,0,0,0,0,0,0,0,-1,1112,1478,0,0
-105,-454,0,0,0,0,0,0,0,0,0,-1,1119,1478,0,0
-98,-454,0,0,0,0,0,0,0,0,0,-1,1126,1478,0,0
-91,-454,0,0,0,0,0,0,0,0,0,-1,1133,1478,0,0
-84,-454,0,0,0,0,0,0,0,0,0,-1,1140,1478,0,0
-77,-454,0,0,0,0,0,0,0,0,0,-1,1147,1478,0,0
-70,-454,0,0,0,0,0,0,0,0,0,-1,1154,1478,0,0
-63,-454,0,0,0,0,0,0,0,0,0,-1,1161,1478,0,0
-56,-454,0,0,0,0,0,0,0,0,0,-1,1168,1478,0,0
-49,-454,0,0,0,0,0,0,0,0,0,-1,1175,1478,0,0
-42,-454,0,0,0,0,0,0,0,0,0,-1,1182,1478,0,0
-35,-454,0,0,0,0,0,0,0,0,0,-1,1189,1478,0,0
-28,-454,0,0,0,0,0,0,0,0,0,-1,1196,1478,0,0
-21,-454,0,0,0,0,0,0,0,0,0,-1,1203,1478,0,0
-14,-454,0,0,0,0,0,0,0,0,0,-1,1210,1478,0,0
-7,-454,0,0,0,0,0,0,0,0,0,-1,1217,1478,0,0
0,-454,0,0,0,0,0,0,0,0,0,-1,1224,1478,0,0
7,-454,0,0,0,0,0,0,0,0,0,-1,1231,1478,0,0
14,-454,0,0,0,0,0,0,0,0,0,-1,1238,1478,0,0
21,-454,0,0,0,0,0,0,0,0,0,-1,1245,1478,0,0
28,-454,0,0,0,0,0,0,0,0,0,-1,1252,1478,0,0
35,-454,0,0,0,0,0,0,0,0,0,-1,1259,1478,0,0
42,-454,0,0,0,0,0,0,0,0,0,-1,1266,1478,0,0
49,-454,0,0,0,0,0,0,0,0,0,-1,1273,1478,0,0
56,-454,0,0,0,0,0,0,0,0,0,-1,1280,1478,0,0
63,-454,0,0,0,0,0,0,0,0,0,-1,1287,1478,0,0
70,-454,0,0,0,0,0,0,0,0,0,-1,1294,1478,0,0
77,-454,0,0,0,0,0,0,0,0,0,-1,1301,1478,0,0
84,-454,0,0,0,0,0,0,0,0,0,-1,1308,1478,0,0
91,-454,0,0,0,0,0,0,0,0,0,-1,1315,1478,0,0
98,-454,0,0,0,0,0,0,0,0,0,-1,1322,1478,0,0
105,-454,0,0,0,0,0,0,0,0,0,-1,1329,1478,0,0
112,-454,0,0,0,0,0,0,0,0,0,-1,1336,1478,0,0
119,-454,0,0,0,0,0,0,0,0,0,-1,1343,1478,0,0
126,-454,0,0,0,0,0,0,0,0,0,-1,1350,1478,0,0
133,-454,0,0,0,0,0,0,0,0,0,-1,1357,1478,0,0
140,-454,0,0,0,0,0,0,0,0,0,-1,1364,1478,0,0
147,-454,0,0,0,0,0,0,0,0,0,-1,1371,1478,0,0
154,-454,0,0,0,0,0,0,0,0,0,-1,1378,1478,0,0
161,-454,0,0,0,0,0,0,0,0,0,-1,1385,1478,0,0
168,-454,0,0,0,0,0,0,0,0,0,-1,1392,1478,0,0
175,-454,0,0,0,0,0,0,0,0,0,-1,1399,1478,0,0
182,-454,0,0,0,0,0,0,0,0,0,-1,1406,1478,0,0
189,-454,0,0,0,0,0,0,0,0,0,-1,1413,1478,0,0
196,-454,0,0,0,0,0,0,0,0,0,-1,1420,1478,0,0
203,-454,0,0,0,0,0,0,0,0,0,-1,1427,1478,0,0
210,-454,0,0,0,0,0,0,0,0,0,-1,1434,1478,0,0
217,-454,0,0,0,0,0,0,0,0,0,-1,1441,1478,0,0
224,-454,0,0,0,0,0,0,0,0,0,-1,1448,1478,0,0
231,-454,0,0,0,0,0,0,0,0,0,-1,1455,1478,0,0
238,-454,0,0,0,0,0,0,0,0,0,-1,1462,1478,0,0
245,-454,0,0,0,0,0,0,0,0,0,-1,1469,1478,0,0
252,-454,0,0,0,0,0,0,0,0,0,-1,1476,1478,0,0
259,-454,0,0,0,0,0,0,0,0,0,-1,1483,1478,0,0
266,-454,0,0,0,0,0,0,0,0,0,-1,1490,1478,0,0
273,-454,0,0,0,0,0,0,0,0,0,-1,1497,1478,0,0
280,-454,0,0,0,0,0,0,0,0,0,-1,1504,1478,0,0
287,-454,0,0,0,0,0,0,0,0,0,-1,1511,1478,0,0
294,-454,0,0,0,0,0,0,0,0,0,-1,1518,1478,0,0
301,-454,0,0,0,0,0,0,0,0,0,-1,1525,1478,0,0
308,-454,0,0,0,0,0,0,0,0,0,-1,1532,1478,0,0
315,-454,0,0,0,0,0,0,0,0,0,-1,1539,1478,0,0
322,-454,0,0,0,0,0,0,0,0,0,-1,1546,1478,0,0
329,-454,0,0,0,0,0,0,0,0,0,-1,1553,1478,0,0
336,-454,0,0,0,0,0,0,0,0,0,-1,1560,1478,0,0
343,-454,0,0,0,0,0,0,0,0,0,-1,1567,1478,0,0
350,-454,0,0,0,0,0,0,0,0,0,-1,1574,1478,0,0
357,-454,0,0,0,0,0,0,0,0,0,-1,1581,1478,0,0
364,-454,0,0,0,0,0,0,0,0,0,-1,1588,1478,0,0
371,-454,0,0,0,0,0,0,0,0,0,-1,1595,1478,0,0
378,-454,0,0,0,0,0,0,0,0,0,-1,1602,1478,0,0
385,-454,0,0,0,0,0,0,0,0,0,-1,1609,1478,0,0
392,-454,0,0,0,0,0,0,0,0,0,-1,1616,1478,0,0
399,-454,0,0,0,0,0,0,0,0,0,-1,1623,1478,0,0
406,-454,0,0,0,0,0,0,0,0,0,-1,1630,1478,0,0
413,-454,0,0,0,0,0,0,0,0,0,-1,1637,1478,0,0
420,-454,0,0,0,0,0,0,0,0,0,-1,1644,1478,0,0
427,-454,0,0,0,0,0,0,0,0,0,-1,1651,1478,0,0
434,-454,0,0,0,0,0,0,0,0,0,-1,1658,1478,0,0
441,-454,0,0,0,0,0,0,0,0,0,-1,1665,1478,0,0
448,-454,0,0,0,0,0,0,0,0,0,-1,1672,1478,0,0
455,-454,0,0,0,0,0,0,0,0,0,-1,1679,1478,0,0
462,-454,0,0,0,0,0,0,0,0,0,-1,1686,1478,0,0
469,-454,0,0,0,0,0,0,0,0,0,-1,1693,1478,0,0
476,-454,0,0,0,0,0,0,0,0,0,-1,1700,1478,0,0
483,-454,-3.63013,4.02722,0,0,0,0,0,0,0,-1,1707,1478,-3.63011,-4.02716
490,-454,0.300049,-0.0916748,0,0,0,0,0,0,0,-1,1714,1478,0.300105,0.0917313
497,-454,0.285278,0.13147,-0.0119779,-0.00525337,0.00571421,-0.00198564,-0.0152457,1.05132,0.00957081,0.0474969,1721,1478,0.28525,-0.131518
504,-454,0.313232,0.401123,-0.0101095,-0.00316967,0.00655329,0.000775674,-0.0140548,1.02888,0.00963884,0.0457622,1728,1478,0.313205,-0.401124
511,-454,0.339355,0.473755,-0.00789758,-0.000616335,0.00677388,0.00343327,-0.0119472,1.03198,0.00932239,0.0423184,1735,1478,0.339355,-0.47375
518,-454,0.169189,0.490967,-0.00596437,0.00114457,0.00667694,0.00515421,-0.009974,1.02999,0.00888081,0.0401659,1742,1478,0.169236,-0.490919
525,-454,0.00549316,0.485352,-0.00431949,0.00224807,0.00597804,0.00578487,-0.00785628,1.03655,0.00790593,0.0418409,1749,1478,0.00553266,-0.485401
532,-454,-0.0898438,0.432861,-0.00315082,0.00273299,0.00490661,0.00551206,-0.00592989,1.05545,0.00660748,0.0463539,1756,1478,-0.089807,-0.432846
539,-454,0.32019,0.105835,-0.00238372,0.00292039,0.00380726,0.00490823,-0.00437156,1.08961,0.00536068,0.0477957,1763,1478,0.320143,-0.105872
546,-454,0.193848,0.212158,-0.00191444,0.00271207,0.00291357,0.00411904,-0.0033214,1.12092,0.00430396,0.0422219,1770,1478,0.193874,-0.212105
553,-454,0.140137,0.176025,-0.00144055,0.00209869,0.00211529,0.00308697,-0.00242883,1.13373,0.00319209,0.0354846,1777,1478,0.140086,-0.17599
560,-454,0.123657,-0.00769043,-0.00132762,0.00213934,0.00153083,0.00271851,-0.0019068,1.2091,0.0026841,0.0305055,1784,1478,0.123621,0.00769653
567,-454,0.00244141,-0.0810547,-0.00133333,0.00166536,0.00116506,0.0020648,-0.00173277,1.2405,0.00219532,0.0174927,1791,1478,0.00241876,0.0810255
574,-454,-0.0268555,-0.086792,-0.00123457,0.00117553,0.000861449,0.00145177,-0.00151082,1.26048,0.00171057,0.0101102,1798,1478,-0.0268187,0.0868272
581,-454,-0.0163574,-0.0843506,-0.00137827,7.42151e-05,0.0005155,0.000238573,-0.00154262,1.26215,0.00111647,0.00971211,1805,1478,-0.0163192,0.0844103
588,-454,-0.0203857,-0.0703125,-0.00148515,-0.000683163,0.000443428,-0.000486307,-0.00168201,1.15299,0.000999484,0.0108454,1812,1478,-0.0203387,0.0702748
595,-454,-0.0333252,-0.0604248,-0.00184243,-0.000348464,0.000487773,-0.000203311,-0.00198758,1.28156,0.00126275,0.0103952,1819,1478,-0.0333571,0.0603877
602,-454,-0.020752,-0.0727539,-0.00208449,0.000252427,0.000393867,0.000317024,-0.00214908,1.40824,0.00154925,0.00822585,1826,1478,-0.0207791,0.0727105
609,-454,0.00146484,-0.0678711,-0.00232769,0.00112734,0.000389529,0.00117071,-0.00237106,1.45991,0.00208362,0.00956729,1833,1478,0.00144892,0.0679069
616,-454,-0.00512695,-0.0799561,-0.00264451,0.00213225,0.00043981,0.00217241,-0.00268467,1.47974,0.00280943,0.0118911,1840,1478,-0.00507359,0.0799393
623,-454,-0.0229492,-0.0904541,-0.00318332,0.00330934,0.000243603,0.00331847,-0.00319245,1.53335,0.00375931,0.00926674,1847,1478,-0.0230015,0.09051
630,-454,-0.0245361,-0.0772705,-0.00426049,0.00422622,0.000166398,0.00422948,-0.00426375,1.5512,0.00490358,0.00805227,1854,1478,-0.0245142,0.0772498
637,-454,-0.0240479,-0.0664063,-0.00535002,0.00523728,0.000149921,0.0052394,-0.00535214,1.55664,0.00611514,0.00878964,1861,1478,-0.0240929,0.0663472
644,-454,-0.024292,-0.0614014,-0.00597229,0.00640297,0.000405794,0.00641626,-0.00598558,1.53805,0.00716165,0.0102972,1868,1478,-0.0242435,0.0614049
651,-454,-0.0146484,-0.0646973,-0.00525865,0.00797667,0.00133216,0.00810943,-0.00539141,1.47147,0.00784719,0.0166525,1875,1478,-0.0145897,0.0647121
658,-454,-0.03125,-0.0115967,-0.00334363,0.00905031,0.00266098,0.00959747,-0.00389078,1.368,0.00801641,0.0304146,1882,1478,-0.0312214,0.0115505
665,-454,-0.0847168,0.120361,-0.00105473,0.010075,0.00410664,0.0114262,-0.00240595,1.25292,0.00853325,0.0425439,1889,1478,-0.0847286,-0.120407
672,-454,-0.041748,-0.127686,0,0,0,0,0,0,0,-1,1896,1478,-0.0417995,0.127696
679,-454,-0.247559,-0.162231,0.009121,0.0117899,0.00866886,0.0192264,0.00168447,0.861766,0.0122946,0.0490607,1903,1478,-0.247597,0.162289
686,-454,-0.311279,-0.0690918,0.0182885,0.0126637,0.0121281,0.027926,0.00302621,0.671467,0.0176951,0.0461359,1910,1478,-0.311261,0.069114
693,-454,0.172363,-0.302612,0,0,0,0,0,0,0,-1,1917,1478,0.17234,0.30259
700,-454,0,0,0,0,0,0,0,0,0,-1,1924,1478,0,0
707,-454,0,0,0,0,0,0,0,0,0,-1,1931,1478,0,0
714,-454,0,0,0,0,0,0,0,0,0,-1,1938,1478,0,0
721,-454,0,0,0,0,0,0,0,0,0,-1,1945,1478,0,0
728,-454,0,0,0,0,0,0,0,0,0,-1,1952,1478,0,0
735,-454,0,0,0,0,0,0,0,0,0,-1,1959,1478,0,0
742,-454,0,0,0,0,0,0,0,0,0,-1,1966,1478,0,0
749,-454,0,0,0,0,0,0,0,0,0,-1,1973,1478,0,0
756,-454,0,0,0,0,0,0,0,0,0,-1,1980,1478,0,0
763,-454,0,0,0,0,0,0,0,0,0,-1,1987,1478,0,0
770,-454,0,0,0,0,0,0,0,0,0,-1,1994,1478,0,0
777,-454,0,0,0,0,0,0,0,0,0,-1,2001,1478,0,0
784,-454,0,0,0,0,0,0,0,0,0,-1,2008,1478,0,0
791,-454,0,0,0,0,0,0,0,0,0,-1,2015,1478,0,0
798,-454,0,0,0,0,0,0,0,0,0,-1,2022,1478,0,0
805,-454,0,0,0,0,0,0,0,0,0,-1,2029,1478,0,0
812,-454,0,0,0,0,0,0,0,0,0,-1,2036,1478,0,0
-700,-461,0,0,0,0,0,0,0,0,0,-1,524,1485,0,0
-693,-461,0,0,0,0,0,0,0,0,0,-1,531,1485,0,0
-686,-461,0,0,0,0,0,0,0,0,0,-1,538,1485,0,0
-679,-461,0,0,0,0,0,0,0,0,0,-1,545,1485,0,0
-672,-461,0,0,0,0,0,0,0,0,0,-1,552,1485,0,0
-665,-461,0,0,0,0,0,0,0,0,0,-1,559,1485,0,0
-658,-461,0,0,0,0,0,0,0,0,0,-1,566,1485,0,0
-651,-461,0,0,0,0,0,0,0,0,0,-1,573,1485,0,0
-644,-461,0,0,0,0,0,0,0,0,0,-1,580,1485,0,0
-637,-461,0,0,0,0,0,0,0,0,0,-1,587,1485,0,0
-630,-461,0,0,0,0,0,0,0,0,0,-1,594,1485,0,0
-623,-461,0,0,0,0,0,0,0,0,0,-1,601,1485,0,0
-616,-461,0,0,0,0,0,0,0,0,0,-1,608,1485,0,0
-609,-461,0,0,0,0,0,0,0,0,0,-1,615,1485,0,0
-602,-461,0,0,0,0,0,0,0,0,0,-1,622,1485,0,0
-595,-461,0,0,0,0,0,0,0,0,0,-1,629,1485,0,0
-588,-461,0,0,0,0,0,0,0,0,0,-1,636,1485,0,0
-581,-461,0,0,0,0,0,0,0,0,0,-1,643,1485,0,0
-574,-461,0,0,0,0,0,0,0,0,0,-1,650,1485,0,0
-567,-461,0.233521,0.141846,-0.0024167,-0.0741505,0.00773159,-0.00159284,-0.0749744,0.106157,0.0494605,0.0442736,657,1485,0.233543,-0.141901
-560,-461,0.207947,-0.00830078,-0.00555996,-0.0627786,0.00703297,-0.00470818,-0.0636304,0.120524,0.0409412,0.0455074,664,1485,0.20796,0.00828282
-553,-461,-0.135803,0.149902,-0.00689168,-0.0518578,0.00622792,-0.00604504,-0.0527044,0.135115,0.0333046,0.0454544,671,1485,-0.135775,-0.14994
-546,-461,-0.23645,0.21582,-0.00702463,-0.0411811,0.00506249,-0.00629009,-0.0419156,0.144089,0.0261009,0.0456178,678,1485,-0.236443,-0.215822
-539,-461,-0.0579224,0.0533447,-0.0071737,-0.0312292,0.00387458,-0.00656503,-0.0318378,0.15582,0.0194105,0.0441154,685,1485,-0.0578984,-0.0532957
-532,-461,0.305664,-0.682983,-0.00612616,-0.0226885,0.00294029,-0.00561967,-0.023195,0.170587,0.013972,0.0406196,692,1485,0.30565,0.683021
-525,-461,0.125427,-0.37146,-0.00469592,-0.0159896,0.00178535,-0.00442041,-0.0162651,0.153111,0.00971131,0.0405757,699,1485,0.125433,0.371491
-518,-461,-0.0313721,-0.0498047,-0.00336107,-0.0101923,0.000728845,-0.00328417,-0.0102692,0.105117,0.00605589,0.032467,706,1485,-0.0313742,0.049765
-511,-461,-0.0169678,-0.0714111,-0.00224897,-0.00555072,0.000189028,-0.00223818,-0.0055615,0.0570026,0.00323125,0.0140939,713,1485,-0.0169745,0.0713933
-504,-461,0.00402832,-0.0683594,-0.00122124,-0.00221653,-0.000534136,-0.000988854,-0.00244892,-0.410375,0.00142258,0.00919778,720,1485,0.00401519,0.0683843
-497,-461,0.000793457,-0.0604248,-0.000358597,0.000510288,-0.00120241,0.00135433,-0.00120264,-0.958756,0.00147713,0.0100914,727,1485,0.000775827,0.0604526
-490,-461,-0.0146484,-0.0733643,0.000314524,0.00168924,-0.0013228,0.0024926,-0.00048884,-1.02501,0.00184638,0.0109028,734,1485,-0.0146733,0.0733611
-483,-461,-0.0181885,-0.067749,0.00066675,0.00266247,-0.00146211,0.00343478,-0.000105559,-1.08483,0.00232584,0.0116747,741,1485,-0.0181726,0.0677566
-476,-461,-0.0316162,-0.0618896,0.00122046,0.00160934,-0.00106017,0.00249276,0.000337046,-0.876093,0.00156166,0.010636,748,1485,-0.0315954,0.0619325
-469,-461,-0.0221558,-0.0761719,0.00198535,0.000545928,-0.000926878,0.00243913,9.21447e-05,-0.455279,0.00159626,0.0116195,755,1485,-0.0221578,0.0762162
-462,-461,-0.022583,-0.0909424,0.00269859,-0.000185071,-0.000540762,0.00279667,-0.000283143,-0.179408,0.00196563,0.0161212,762,1485,-0.0225936,0.0909086
-455,-461,-0.00616455,-0.0687256,0.00314538,-0.00056678,8.29852e-05,0.00314724,-0.000568634,0.0223401,0.00231114,0.0192831,769,1485,-0.0061872,0.0687028
-448,-461,-0.00335693,-0.0830078,0.00301055,-0.00159478,0.00114954,0.00328154,-0.00186577,0.231513,0.00300904,0.0165177,776,1485,-0.00334417,0.0830517
-441,-461,-0.0136719,-0.0765381,0.00290692,-0.00268553,0.00181814,0.00344603,-0.00322464,0.288262,0.00385202,0.0130867,783,1485,-0.0136829,0.0765233
-434,-461,0.0152588,-0.0953369,0.00238688,-0.00357779,0.00243243,0.00325306,-0.00444396,0.342094,0.00446157,0.0170459,790,1485,0.0152504,0.0953351
-427,-461,0.0385742,-0.110352,0.000966014,-0.0015094,0.00373985,0.00366765,-0.00421104,0.625596,0.00455237,0.0248176,797,1485,0.0385813,0.11035
-420,-461,0.0198364,-0.126831,-0.000206045,-0.000535209,0.00516108,0.00479308,-0.00553433,0.769459,0.00596765,0.0432661,804,1485,0.0198223,0.126772
-413,-461,0.321899,-0.308228,-0.00190239,0.000908908,0.00664186,0.00629223,-0.00728572,0.889677,0.00784623,0.0469403,811,1485,0.321879,0.308266
-406,-461,0.468811,-0.433838,-0.00474533,0.00328874,0.00798341,0.00820879,-0.00966538,1.01849,0.0103311,0.0438026,818,1485,0.468815,0.43385
-399,-461,0.636536,-0.56189,-0.00887723,0.00705461,0.00911888,0.0111969,-0.0130196,1.14441,0.0139946,0.0439018,825,1485,0.636527,0.561897
-392,-461,-0.428345,-0.852173,-0.0142705,0.0122273,0.00992718,0.0155339,-0.0175771,1.24928,0.0191287,0.0420311,832,1485,-0.428321,0.852194
-385,-461,0.00958252,-0.862793,-0.020782,0.0182938,0.0102329,0.0208113,-0.0232995,1.32957,0.0254809,0.0469082,839,1485,0.00955801,0.862788
-378,-461,-5.17456,-0.707031,-0.0282512,0.0257881,0.0103882,0.0277163,-0.0301793,1.38727,0.0334362,0.0494076,846,1485,-5.17454,0.70705
-371,-461,-5.27393,0.254272,0,0,0,0,0,0,0,-1,853,1485,-5.2739,-0.254276
-364,-461,-4.81012,0.0650635,0,0,0,0,0,0,0,-1,860,1485,-4.81012,-0.065099
-357,-461,-4.31708,-0.0991211,0,0,0,0,0,0,0,-1,867,1485,-4.31709,0.0991365
-350,-461,0,0,0,0,0,0,0,0,0,-1,874,1485,0,0
-343,-461,0,0,0,0,0,0,0,0,0,-1,881,1485,0,0
-336,-461,0,0,0,0,0,0,0,0,0,-1,888,1485,0,0
-329,-461,0,0,0,0,0,0,0,0,0,-1,895,1485,0,0
-322,-461,0,0,0,0,0,0,0,0,0,-1,902,1485,0,0
-315,-461,0,0,0,0,0,0,0,0,0,-1,909,1485,0,0
-308,-461,0,0,0,0,0,0,0,0,0,-1,916,1485,0,0
-301,-461,0,0,0,0,0,0,0,0,0,-1,923,1485,0,0
-294,-461,0,0,0,0,0,0,0,0,0,-1,930,1485,0,0
-287,-461,0,0,0,0,0,0,0,0,0,-1,937,1485,0,0
-280,-461,0,0,0,0,0,0,0,0,0,-1,944,1485,0,0
-273,-461,0,0,0,0,0,0,0,0,0,-1,951,1485,0,0
-266,-461,0,0,0,0,0,0,0,0,0,-1,958,1485,0,0
-259,-461,0,0,0,0,0,0,0,0,0,-1,965,1485,0,0
-252,-461,0,0,0,0,0,0,0,0,0,-1,972,1485,0,0
-245,-461,0,0,0,0,0,0,0,0,0,-1,979,1485,0,0
-238,-461,0,0,0,0,0,0,0,0,0,-1,986,1485,0,0
-231,-461,0,0,0,0,0,0,0,0,0,-1,993,1485,0,0
-224,-461,0,0,0,0,0,0,0,0,0,-1,1000,1485,0,0
-217,-461,0,0,0,0,0,0,0,0,0,-1,1007,1485,0,0
-210,-461,0,0,0,0,0,0,0,0,0,-1,1014,1485,0,0
-203,-461,0,0,0,0,0,0,0,0,0,-1,1021,1485,0,0
-196,-461,0,0,0,0,0,0,0,0,0,-1,1028,1485,0,0
-189,-461,0,0,0,0,0,0,0,0,0,-1,1035,1485,0,0
-182,-461,0,0,0,0,0,0,0,0,0,-1,1042,1485,0,0
-175,-461,0,0,0,0,0,0,0,0,0,-1,1049,1485,0,0
-168,-461,0,0,0,0,0,0,0,0,0,-1,1056,1485,0,0
-161,-461,0,0,0,0,0,0,0,0,0,-1,1063,1485,0,0
-154,-461,0,0,0,0,0,0,0,0,0,-1,1070,1485,0,0
-147,-461,0,0,0,0,0,0,0,0,0,-1,1077,1485,0,0
-140,-461,0,0,0,0,0,0,0,0,0,-1,1084,1485,0,0
-133,-461,0,0,0,0,0,0,0,0,0,-1,1091,1485,0,0
-126,-461,0,0,0,0,0,0,0,0,0,-1,1098,1485,0,0
-119,-461,0,0,0,0,0,0,0,0,0,-1,1105,1485,0,0
-112,-461,0,0,0,0,0,0,0,0,0,-1,1112,1485,0,0
-105,-461,0,0,0,0,0,0,0,0,0,-1,1119,1485,0,0
-98,-461,0,0,0,0,0,0,0,0,0,-1,1126,1485,0,0
-91,-461,0,0,0,0,0,0,0,0,0,-1,1133,1485,0,0
-84,-461,0,0,0,0,0,0,0,0,0,-1,1140,1485,0,0
-77,-461,0,0,0,0,0,0,0,0,0,-1,1147,1485,0,0
-70,-461,0,0,0,0,0,0,0,0,0,-1,1154,1485,0,0
-63,-461,0,0,0,0,0,0,0,0,0,-1,1161,1485,0,0
-56,-461,0,0,0,0,0,0,0,0,0,-1,1168,1485,0,0
-49,-461,0,0,0,0,0,0,0,0,0,-1,1175,1485,0,0
-42,-461,0,0,0,0,0,0,0,0,0,-1,1182,1485,0,0
-35,-461,0,0,0,0,0,0,0,0,0,-1,1189,1485,0,0
-28,-461,0,0,0,0,0,0,0,0,0,-1,1196,1485,0,0
-21,-461,0,0,0,0,0,0,0,0,0,-1,1203,1485,0,0
-14,-461,0,0,0,0,0,0,0,0,0,-1,1210,1485,0,0
-7,-461,0,0,0,0,0,0,0,0,0,-1,1217,1485,0,0
0,-461,0,0,0,0,0,0,0,0,0,-1,1224,1485,0,0
7,-461,0,0,0,0,0,0,0,0,0,-1,1231,1485,0,0
14,-461,0,0,0,0,0,0,0,0,0,-1,1238,1485,0,0
21,-461,0,0,0,0,0,0,0,0,0,-1,1245,1485,0,0
28,-461,0,0,0,0,0,0,0,0,0,-1,1252,1485,0,0
35,-461,0,0,0,0,0,0,0,0,0,-1,1259,1485,0,0
42,-461,0,0,0,0,0,0,0,0,0,-1,1266,1485,0,0
49,-461,0,0,0,0,0,0,0,0,0,-1,1273,1485,0,0
56,-461,0,0,0,0,0,0,0,0,0,-1,1280,1485,0,0
63,-461,0,0,0,0,0,0,0,0,0,-1,1287,1485,0,0
70,-461,0,0,0,0,0,0,0,0,0,-1,1294,1485,0,0
77,-461,0,0,0,0,0,0,0,0,0,-1,1301,1485,0,0
84,-461,0,0,0,0,0,0,0,0,0,-1,1308,1485,0,0
91,-461,0,0,0,0,0,0,0,0,0,-1,1315,1485,0,0
98,-461,0,0,0,0,0,0,0,0,0,-1,1322,1485,0,0
105,-461,0,0,0,0,0,0,0,0,0,-1,1329,1485,0,0
112,-461,0,0,0,0,0,0,0,0,0,-1,1336,1485,0,0
119,-461,0,0,0,0,0,0,0,0,0,-1,1343,1485,0,0
126,-461,0,0,0,0,0,0,0,0,0,-1,1350,1485,0,0
133,-461,0,0,0,0,0,0,0,0,0,-1,1357,1485,0,0
140,-461,0,0,0,0,0,0,0,0,0,-1,1364,1485,0,0
147,-461,0,0,0,0,0,0,0,0,0,-1,1371,1485,0,0
154,-461,0,0,0,0,0,0,0,0,0,-1,1378,1485,0,0
161,-461,0,0,0,0,0,0,0,0,0,-1,1385,1485,0,0
168,-461,0,0,0,0,0,0,0,0,0,-1,1392,1485,0,0
175,-461,0,0,0,0,0,0,0,0,0,-1,1399,1485,0,0
182,-461,0,0,0,0,0,0,0,0,0,-1,1406,1485,0,0
189,-461,0,0,0,0,0,0,0,0,0,-1,1413,1485,0,0
196,-461,0,0,0,0,0,0,0,0,0,-1,1420,1485,0,0
203,-461,0,0,0,0,0,0,0,0,0,-1,1427,1485,0,0
210,-461,0,0,0,0,0,0,0,0,0,-1,1434,1485,0,0
217,-461,0,0,0,0,0,0,0,0,0,-1,1441,1485,0,0
224,-461,0,0,0,0,0,0,0,0,0,-1,1448,1485,0,0
231,-461,0,0,0,0,0,0,0,0,0,-1,1455,1485,0,0
238,-461,0,0,0,0,0,0,0,0,0,-1,1462,1485,0,0
245,-461,0,0,0,0,0,0,0,0,0,-1,1469,1485,0,0
252,-461,0,0,0,0,0,0,0,0,0,-1,1476,1485,0,0
259,-461,0,0,0,0,0,0,0,0,0,-1,1483,1485,0,0
266,-461,0,0,0,0,0,0,0,0,0,-1,1490,1485,0,0
273,-461,0,0,0,0,0,0,0,0,0,-1,1497,1485,0,0
280,-461,0,0,0,0,0,0,0,0,0,-1,1504,1485,0,0
287,-461,0,0,0,0,0,0,0,0,0,-1,1511,1485,0,0
294,-461,0,0,0,0,0,0,0,0,0,-1,1518,1485,0,0
301,-461,0,0,0,0,0,0,0,0,0,-1,1525,1485,0,0
308,-461,0,0,0,0,0,0,0,0,0,-1,1532,1485,0,0
315,-461,0,0,0,0,0,0,0,0,0,-1,1539,1485,0,0
322,-461,0,0,0,0,0,0,0,0,0,-1,1546,1485,0,0
329,-461,0,0,0,0,0,0,0,0,0,-1,1553,1485,0,0
336,-461,0,0,0,0,0,0,0,0,0,-1,1560,1485,0,0
343,-461,0,0,0,0,0,0,0,0,0,-1,1567,1485,0,0
350,-461,0,0,0,0,0,0,0,0,0,-1,1574,1485,0,0
357,-461,0,0,0,0,0,0,0,0,0,-1,1581,1485,0,0
364,-461,0,0,0,0,0,0,0,0,0,-1,1588,1485,0,0
371,-461,0,0,0,0,0,0,0,0,0,-1,1595,1485,0,0
378,-461,0,0,0,0,0,0,0,0,0,-1,1602,1485,0,0
385,-461,0,0,0,0,0,0,0,0,0,-1,1609,1485,0,0
392,-461,0,0,0,0,0,0,0,0,0,-1,1616,1485,0,0
399,-461,0,0,0,0,0,0,0,0,0,-1,1623,1485,0,0
406,-461,0,0,0,0,0,0,0,0,0,-1,1630,1485,0,0
413,-461,0,0,0,0,0,0,0,0,0,-1,1637,1485,0,0
420,-461,0,0,0,0,0,0,0,0,0,-1,1644,1485,0,0
427,-461,0,0,0,0,0,0,0,0,0,-1,1651,1485,0,0
434,-461,0,0,0,0,0,0,0,0,0,-1,1658,1485,0,0
441,-461,0,0,0,0,0,0,0,0,0,-1,1665,1485,0,0
448,-461,0,0,0,0,0,0,0,0,0,-1,1672,1485,0,0
455,-461,0,0,0,0,0,0,0,0,0,-1,1679,1485,0,0
462,-461,0,0,0,0,0,0,0,0,0,-1,1686,1485,0,0
469,-461,0,0,0,0,0,0,0,0,0,-1,1693,1485,0,0
476,-461,0.665039,-1.0752,0,0,0,0,0,0,0,-1,1700,1485,0.665079,1.07515
483,-461,0.364014,0.762817,0,0,0,0,0,0,0,-1,1707,1485,0.364049,-0.762846
490,-461,-0.0435791,0.724487,0,0,0,0,0,0,0,-1,1714,1485,-0.0436017,-0.724499
497,-461,0.130615,0.0610352,0,0,0,0,0,0,0,-1,1721,1485,0.130579,-0.061072
504,-461,-0.0239258,0.593018,-0.00791839,-5.98441e-05,0.00515605,0.00249347,-0.0104717,1.11099,0.00794383,0.0428339,1728,1485,-0.023921,-0.593061
511,-461,0.328125,0.248779,-0.00644693,0.00193757,0.00546902,0.00463626,-0.00914562,1.1124,0.00809771,0.0424466,1735,1485,0.328076,-0.248794
518,-461,0.174072,0.112549,-0.0049886,0.00321711,0.00554456,0.00601176,-0.00778325,1.10393,0.00798641,0.0394968,1742,1485,0.174065,-0.112605
525,-461,-0.107056,0.356934,-0.0035733,0.00385009,0.00507413,0.00642517,-0.00614837,1.10117,0.00725993,0.0435547,1749,1485,-0.10706,-0.356885
532,-461,-0.685181,-0.12207,0,0,0,0,0,0,0,-1,1756,1485,-0.685186,0.122035
539,-461,-0.427734,0.0180664,-0.00179,0.00404173,0.00328197,0.00551603,-0.00326431,1.1486,0.0051246,0.0496408,1763,1485,-0.427682,-0.0180526
546,-461,-0.0966797,0.0909424,-0.00129213,0.00370843,0.0025508,0.00477998,-0.00236368,1.1731,0.00420231,0.0462828,1770,1485,-0.0967294,-0.0909214
553,-461,0.0847168,0.119263,-0.000806569,0.00293952,0.00182912,0.00368449,-0.00155154,1.18403,0.0031055,0.0345344,1777,1485,0.0846594,-0.119251
560,-461,0.010376,-0.0247803,-0.00073607,0.00276683,0.00129649,0.00319448,-0.00116372,1.25218,0.00260567,0.0181168,1784,1485,0.0103715,0.02474
567,-461,-0.0228271,-0.0974121,-0.000826155,0.00212418,0.000961808,0.00241003,-0.00111201,1.28191,0.00207897,0.0105143,1791,1485,-0.0228667,0.0974289
574,-461,-0.0202637,-0.101929,-0.000816888,0.0015068,0.000735299,0.00171993,-0.00103002,1.28868,0.00160425,0.0121102,1798,1485,-0.0203151,0.101924
581,-461,-0.0236816,-0.0895996,-0.000976118,0.000440789,0.000439094,0.000565828,-0.00110116,1.29337,0.000978837,0.011869,1805,1485,-0.023714,0.0895714
588,-461,-0.0408936,-0.0715332,-0.00122121,-0.000266672,0.000335202,-0.00016072,-0.00132716,1.26465,0.000836362,0.00920335,1812,1485,-0.0409205,0.0714913
595,-461,-0.0388184,-0.0628662,-0.00178987,6.14287e-05,0.000310632,0.00011216,-0.0018406,1.40891,0.00126611,0.0076091,1819,1485,-0.0388061,0.0628653
602,-461,-0.0330811,-0.0629883,-0.00230323,0.000693719,0.00016724,0.000703022,-0.00231254,1.51522,0.00182182,0.00869055,1826,1485,-0.0331326,0.0629544
609,-461,-0.0224609,-0.0666504,-0.00281092,0.00172566,0.000120087,0.00172884,-0.0028141,1.54435,0.00264769,0.0105413,1833,1485,-0.022463,0.0666255
616,-461,-0.0195313,-0.0842285,-0.00336875,0.00290001,0.000119766,0.0029023,-0.00337104,1.5517,0.00362528,0.0122467,1840,1485,-0.0194855,0.0842051
623,-461,-0.0236816,-0.0887451,-0.00420671,0.0043758,-7.3981e-05,0.00437644,-0.00420735,-1.56218,0.00495617,0.0105645,1847,1485,-0.0237241,0.08876
630,-461,-0.0311279,-0.0797119,-0.00557448,0.00568673,-0.000207858,0.00569056,-0.00557831,-1.55235,0.0065062,0.00855102,1854,1485,-0.0311806,0.0797546
637,-461,-0.0230713,-0.0544434,-0.00697788,0.00711398,-0.000297331,0.00712025,-0.00698415,-1.54971,0.00814331,0.00985054,1861,1485,-0.0231122,0.0544749
644,-461,-0.0218506,-0.0495605,-0.00804952,0.00881354,-0.000186612,0.0088156,-0.00805158,-1.55973,0.0097416,0.0118492,1868,1485,-0.021875,0.049512
651,-461,-0.0101318,-0.0557861,-0.00804049,0.0110094,0.000416916,0.0110185,-0.00804961,1.54892,0.0110534,0.0193137,1875,1485,-0.0101726,0.0558352
658,-461,-0.120117,-0.000976563,-0.00709013,0.0127652,0.0012364,0.0128419,-0.00716683,1.50884,0.0117059,0.0351156,1882,1485,-0.120171,0.000974909
665,-461,-0.194824,0.0570068,-0.00567158,0.0143739,0.00215198,0.0146023,-0.00590001,1.46505,0.0121873,0.0432782,1889,1485,-0.194806,-0.0570334
672,-461,-0.351807,-0.0338135,0,0,0,0,0,0,0,-1,1896,1485,-0.351805,0.0338282
679,-461,-0.0184326,0.174438,0.00224393,0.0169555,0.00509048,0.0185451,0.000654291,1.26811,0.0121512,0.0439871,1903,1485,-0.0184907,-0.174412
686,-461,-0.244995,0.111938,0.00990958,0.0180355,0.00741375,0.0224266,0.00551848,1.03606,0.0134932,0.0437962,1910,1485,-0.244937,-0.111966
693,-461,0,0,0,0,0,0,0,0,0,-1,1917,1485,0,0
700,-461,0,0,0,0,0,0,0,0,0,-1,1924,1485,0,0
707,-461,0,0,0,0,0,0,0,0,0,-1,1931,1485,0,0
714,-461,0,0,0,0,0,0,0,0,0,-1,1938,1485,0,0
721,-461,0,0,0,0,0,0,0,0,0,-1,1945,1485,0,0
728,-461,0,0,0,0,0,0,0,0,0,-1,1952,1485,0,0
735,-461,0,0,0,0,0,0,0,0,0,-1,1959,1485,0,0
742,-461,0,0,0,0,0,0,0,0,0,-1,1966,1485,0,0
749,-461,0,0,0,0,0,0,0,0,0,-1,1973,1485,0,0
756,-461,0,0,0,0,0,0,0,0,0,-1,1980,1485,0,0
763,-461,0,0,0,0,0,0,0,0,0,-1,1987,1485,0,0
770,-461,0,0,0,0,0,0,0,0,0,-1,1994,1485,0,0
777,-461,0,0,0,0,0,0,0,0,0,-1,2001,1485,0,0
784,-461,0,0,0,0,0,0,0,0,0,-1,2008,1485,0,0
791,-461,0,0,0,0,0,0,0,0,0,-1,2015,1485,0,0
798,-461,0,0,0,0,0,0,0,0,0,-1,2022,1485,0,0
805,-461,0,0,0,0,0,0,0,0,0,-1,2029,1485,0,0
812,-461,0,0,0,0,0,0,0,0,0,-1,2036,1485,0,0
-700,-468,0,0,0,0,0,0,0,0,0,-1,524,1492,0,0
-693,-468,0,0,0,0,0,0,0,0,0,-1,531,1492,0,0
-686,-468,0,0,0,0,0,0,0,0,0,-1,538,1492,0,0
-679,-468,0,0,0,0,0,0,0,0,0,-1,545,1492,0,0
-672,-468,0,0,0,0,0,0,0,0,0,-1,552,1492,0,0
-665,-468,0,0,0,0,0,0,0,0,0,-1,559,1492,0,0
-658,-468,0,0,0,0,0,0,0,0,0,-1,566,1492,0,0
-651,-468,0,0,0,0,0,0,0,0,0,-1,573,1492,0,0
-644,-468,0,0,0,0,0,0,0,0,0,-1,580,1492,0,0
-637,-468,0,0,0,0,0,0,0,0,0,-1,587,1492,0,0
-630,-468,0,0,0,0,0,0,0,0,0,-1,594,1492,0,0
-623,-468,0,0,0,0,0,0,0,0,0,-1,601,1492,0,0
-616,-468,0,0,0,0,0,0,0,0,0,-1,608,1492,0,0
-609,-468,0,0,0,0,0,0,0,0,0,-1,615,1492,0,0
-602,-468,0,0,0,0,0,0,0,0,0,-1,622,1492,0,0
-595,-468,0,0,0,0,0,0,0,0,0,-1,629,1492,0,0
-588,-468,0,0,0,0,0,0,0,0,0,-1,636,1492,0,0
-581,-468,0,0,0,0,0,0,0,0,0,-1,643,1492,0,0
-574,-468,0,0,0,0,0,0,0,0,0,-1,650,1492,0,0
-567,-468,0.336792,0.682861,-0.00881422,-0.0897947,0.00604325,-0.00836572,-0.0902432,0.0740792,0.0575765,0.047313,657,1492,0.336822,-0.682889
-560,-468,0.277466,0.551514,-0.0103871,-0.0761729,0.00641336,-0.00976773,-0.0767922,0.0962806,0.0482695,0.0479811,664,1492,0.277446,-0.551469
-553,-468,-0.193237,0.66748,-0.0110104,-0.0623407,0.0062739,-0.0102547,-0.0630964,0.119875,0.0390969,0.0447606,671,1492,-0.193266,-0.667463
-546,-468,-0.352722,0.683716,-0.0104054,-0.0486819,0.00537224,-0.0096657,-0.0494216,0.136832,0.0302451,0.0449014,678,1492,-0.352736,-0.683667
-539,-468,-0.440674,0.690186,0,0,0,0,0,0,0,-1,685,1492,-0.440657,-0.690201
-532,-468,0.168335,-0.251099,-0.00848597,-0.0253172,0.00311184,-0.00792907,-0.0258741,0.177088,0.015307,0.0385631,692,1492,0.168305,0.251062
-525,-468,0.167969,-0.382935,-0.00685171,-0.0166761,0.00193017,-0.0064861,-0.0170417,0.1872,0.00993211,0.0429482,699,1492,0.167975,0.382954
-518,-468,0.110229,-0.16272,-0.00521734,-0.00985438,0.000792979,-0.00508548,-0.00998623,0.164774,0.00576588,0.0411456,706,1492,0.110206,0.162737
-511,-468,-0.0285034,-0.0234375,-0.00373531,-0.00455729,0.00018392,-0.00369603,-0.00459657,0.210387,0.00281267,0.0289286,713,1492,-0.0284864,0.02344
-504,-468,-0.0272217,-0.0574951,-0.0023703,-0.000911038,-0.000536446,-0.000735055,-0.00254628,-1.25381,0.00151323,0.0110356,720,1492,-0.0272118,0.0574881
-497,-468,-0.0113525,-0.0594482,-0.00118323,0.00192026,-0.0011879,0.00232275,-0.00158572,-1.24411,0.00226989,0.00808968,727,1492,-0.0113252,0.0594396
-490,-468,-0.00842285,-0.0664063,-0.000386507,0.00306503,-0.00126476,0.00347887,-0.000800341,-1.25457,0.00262698,0.00753401,734,1492,-0.00841909,0.066433
-483,-468,-0.0187988,-0.0650635,-4.11417e-05,0.0040323,-0.00137824,0.0044548,-0.000463642,-1.27334,0.00313586,0.00813164,741,1492,-0.0187817,0.0651176
-476,-468,-0.0210571,-0.0655518,0.000624321,0.00268493,-0.000903918,0.00302524,0.000284006,-1.21072,0.00192914,0.00859748,748,1492,-0.021041,0.0655478
-469,-468,-0.0189819,-0.0811768,0.0015684,0.00132832,-0.000836576,0.00229351,0.000603219,-0.71414,0.00137284,0.0115945,755,1492,-0.0189901,0.0811415
-462,-468,-0.0289307,-0.0627441,0.002376,0.00029964,-0.000641041,0.00255797,0.000117676,-0.276581,0.00166747,0.020146,762,1492,-0.0289088,0.0628033
-455,-468,-0.0291138,-0.0429688,0.00270214,-0.000268297,-0.000202989,0.00271595,-0.000282105,-0.0679156,0.00191162,0.0212922,769,1492,-0.0291388,0.0430196
-448,-468,-0.00946045,-0.0804443,0.0023886,-0.00146043,0.000765503,0.00253525,-0.00160708,0.189289,0.00241151,0.0129754,776,1492,-0.00948723,0.0804864
-441,-468,-0.00427246,-0.0979004,0.00226184,-0.002537,0.00118191,0.00253714,-0.0028123,0.228847,0.00308986,0.0113363,783,1492,-0.00426184,0.0978933
-434,-468,-0.0198364,-0.0877686,0.0018478,-0.00347521,0.00150483,0.00224376,-0.00387117,0.257298,0.0035719,0.00979378,790,1492,-0.0198097,0.0877526
-427,-468,-0.012146,-0.0881348,0.000536976,-0.00174604,0.002377,0.00203235,-0.00324141,0.561545,0.00307137,0.0117318,797,1492,-0.0121528,0.0881926
-420,-468,0.0105591,-0.108521,-0.000478165,-0.000974257,0.0034337,0.00271644,-0.00416886,0.749341,0.0040046,0.0220442,804,1492,0.0105423,0.108572
-413,-468,0.0726318,-0.135376,-0.00196459,0.000102364,0.00454037,0.00372539,-0.00558762,0.897301,0.00541258,0.041677,811,1492,0.0726217,0.135388
-406,-468,0.149475,-0.257446,-0.00463338,0.00194757,0.00549543,0.00506233,-0.00774813,1.05515,0.00745011,0.0432213,818,1492,0.14949,0.257435
-399,-468,0.21405,-0.350098,-0.00864514,0.00508761,0.00622196,0.00748729,-0.0110448,1.2027,0.010765,0.0425001,825,1492,0.214075,0.35006
-392,-468,0.0164185,-0.327148,-0.0139575,0.00948767,0.00657767,0.011207,-0.0156768,1.31513,0.0155927,0.0407694,832,1492,0.0164241,0.327121
-385,-468,-0.178589,-0.396973,-0.0204137,0.0144226,0.00637179,0.0155514,-0.0215426,1.39545,0.0215092,0.0425143,839,1492,-0.178587,0.39701
-378,-468,0.0185547,-0.336182,-0.0279092,0.0206051,0.00602689,0.0213426,-0.0286467,1.44903,0.0289639,0.0462958,846,1492,0.0185665,0.336138
-371,-468,-0.196655,0.881592,-0.0366595,0.0276824,0.00477822,0.0280353,-0.0370124,1.49707,0.0376743,0.046621,853,1492,-0.196658,-0.88161
-364,-468,-3.62085,0.393677,0,0,0,0,0,0,0,-1,860,1492,-3.62087,-0.393659
-357,-468,-3.61823,0.412109,0,0,0,0,0,0,0,-1,867,1492,-3.61824,-0.412063
-350,-468,-3.8092,0.807373,0,0,0,0,0,0,0,-1,874,1492,-3.80923,-0.80733
-343,-468,0,0,0,0,0,0,0,0,0,-1,881,1492,0,0
-336,-468,0,0,0,0,0,0,0,0,0,-1,888,1492,0,0
-329,-468,0,0,0,0,0,0,0,0,0,-1,895,1492,0,0
-322,-468,0,0,0,0,0,0,0,0,0,-1,902,1492,0,0
-315,-468,0,0,0,0,0,0,0,0,0,-1,909,1492,0,0
-308,-468,0,0,0,0,0,0,0,0,0,-1,916,1492,0,0
-301,-468,0,0,0,0,0,0,0,0,0,-1,923,1492,0,0
-294,-468,0,0,0,0,0,0,0,0,0,-1,930,1492,0,0
-287,-468,0,0,0,0,0,0,0,0,0,-1,937,1492,0,0
-280,-468,0,0,0,0,0,0,0,0,0,-1,944,1492,0,0
-273,-468,0,0,0,0,0,0,0,0,0,-1,951,1492,0,0
-266,-468,0,0,0,0,0,0,0,0,0,-1,958,1492,0,0
-259,-468,0,0,0,0,0,0,0,0,0,-1,965,1492,0,0
-252,-468,0,0,0,0,0,0,0,0,0,-1,972,1492,0,0
-245,-468,0,0,0,0,0,0,0,0,0,-1,979,1492,0,0
-238,-468,0,0,0,0,0,0,0,0,0,-1,986,1492,0,0
-231,-468,0,0,0,0,0,0,0,0,0,-1,993,1492,0,0
-224,-468,0,0,0,0,0,0,0,0,0,-1,1000,1492,0,0
-217,-468,0,0,0,0,0,0,0,0,0,-1,1007,1492,0,0
-210,-468,0,0,0,0,0,0,0,0,0,-1,1014,1492,0,0
-203,-468,0,0,0,0,0,0,0,0,0,-1,1021,1492,0,0
-196,-468,0,0,0,0,0,0,0,0,0,-1,1028,1492,0,0
-189,-468,0,0,0,0,0,0,0,0,0,-1,1035,1492,0,0
-182,-468,0,0,0,0,0,0,0,0,0,-1,1042,1492,0,0
-175,-468,0,0,0,0,0,0,0,0,0,-1,1049,1492,0,0
-168,-468,0,0,0,0,0,0,0,0,0,-1,1056,1492,0,0
-161,-468,0,0,0,0,0,0,0,0,0,-1,1063,1492,0,0
-154,-468,0,0,0,0,0,0,0,0,0,-1,1070,1492,0,0
-147,-468,0,0,0,0,0,0,0,0,0,-1,1077,1492,0,0
-140,-468,0,0,0,0,0,0,0,0,0,-1,1084,1492,0,0
-133,-468,0,0,0,0,0,0,0,0,0,-1,1091,1492,0,0
-126,-468,0,0,0,0,0,0,0,0,0,-1,1098,1492,0,0
-119,-468,0,0,0,0,0,0,0,0,0,-1,1105,1492,0,0
-112,-468,0,0,0,0,0,0,0,0,0,-1,1112,1492,0,0
-105,-468,0,0,0,0,0,0,0,0,0,-1,1119,1492,0,0
-98,-468,0,0,0,0,0,0,0,0,0,-1,1126,1492,0,0
-91,-468,0,0,0,0,0,0,0,0,0,-1,1133,1492,0,0
-84,-468,0,0,0,0,0,0,0,0,0,-1,1140,1492,0,0
-77,-468,0,0,0,0,0,0,0,0,0,-1,1147,1492,0,0
-70,-468,0,0,0,0,0,0,0,0,0,-1,1154,1492,0,0
-63,-468,0,0,0,0,0,0,0,0,0,-1,1161,1492,0,0
-56,-468,0,0,0,0,0,0,0,0,0,-1,1168,1492,0,0
-49,-468,0,0,0,0,0,0,0,0,0,-1,1175,1492,0,0
-42,-468,0,0,0,0,0,0,0,0,0,-1,1182,1492,0,0
-35,-468,0,0,0,0,0,0,0,0,0,-1,1189,1492,0,0
-28,-468,0,0,0,0,0,0,0,0,0,-1,1196,1492,0,0
-21,-468,0,0,0,0,0,0,0,0,0,-1,1203,1492,0,0
-14,-468,0,0,0,0,0,0,0,0,0,-1,1210,1492,0,0
-7,-468,0,0,0,0,0,0,0,0,0,-1,1217,1492,0,0
0,-468,0,0,0,0,0,0,0,0,0,-1,1224,1492,0,0
7,-468,0,0,0,0,0,0,0,0,0,-1,1231,1492,0,0
14,-468,0,0,0,0,0,0,0,0,0,-1,1238,1492,0,0
21,-468,0,0,0,0,0,0,0,0,0,-1,1245,1492,0,0
28,-468,0,0,0,0,0,0,0,0,0,-1,1252,1492,0,0
35,-468,0,0,0,0,0,0,0,0,0,-1,1259,1492,0,0
42,-468,0,0,0,0,0,0,0,0,0,-1,1266,1492,0,0
49,-468,0,0,0,0,0,0,0,0,0,-1,1273,1492,0,0
56,-468,0,0,0,0,0,0,0,0,0,-1,1280,1492,0,0
63,-468,0,0,0,0,0,0,0,0,0,-1,1287,1492,0,0
70,-468,0,0,0,0,0,0,0,0,0,-1,1294,1492,0,0
77,-468,0,0,0,0,0,0,0,0,0,-1,1301,1492,0,0
84,-468,0,0,0,0,0,0,0,0,0,-1,1308,1492,0,0
91,-468,0,0,0,0,0,0,0,0,0,-1,1315,1492,0,0
98,-468,0,0,0,0,0,0,0,0,0,-1,1322,1492,0,0
105,-468,0,0,0,0,0,0,0,0,0,-1,1329,1492,0,0
112,-468,0,0,0,0,0,0,0,0,0,-1,1336,1492,0,0
119,-468,0,0,0,0,0,0,0,0,0,-1,1343,1492,0,0
126,-468,0,0,0,0,0,0,0,0,0,-1,1350,1492,0,0
133,-468,0,0,0,0,0,0,0,0,0,-1,1357,1492,0,0
140,-468,0,0,0,0,0,0,0,0,0,-1,1364,1492,0,0
147,-468,0,0,0,0,0,0,0,0,0,-1,1371,1492,0,0
154,-468,0,0,0,0,0,0,0,0,0,-1,1378,1492,0,0
161,-468,0,0,0,0,0,0,0,0,0,-1,1385,1492,0,0
168,-468,0,0,0,0,0,0,0,0,0,-1,1392,1492,0,0
175,-468,0,0,0,0,0,0,0,0,0,-1,1399,1492,0,0
182,-468,0,0,0,0,0,0,0,0,0,-1,1406,1492,0,0
189,-468,0,0,0,0,0,0,0,0,0,-1,1413,1492,0,0
196,-468,0,0,0,0,0,0,0,0,0,-1,1420,1492,0,0
203,-468,0,0,0,0,0,0,0,0,0,-1,1427,1492,0,0
210,-468,0,0,0,0,0,0,0,0,0,-1,1434,1492,0,0
217,-468,0,0,0,0,0,0,0,0,0,-1,1441,1492,0,0
224,-468,0,0,0,0,0,0,0,0,0,-1,1448,1492,0,0
231,-468,0,0,0,0,0,0,0,0,0,-1,1455,1492,0,0
238,-468,0,0,0,0,0,0,0,0,0,-1,1462,1492,0,0
245,-468,0,0,0,0,0,0,0,0,0,-1,1469,1492,0,0
252,-468,0,0,0,0,0,0,0,0,0,-1,1476,1492,0,0
259,-468,0,0,0,0,0,0,0,0,0,-1,1483,1492,0,0
266,-468,0,0,0,0,0,0,0,0,0,-1,1490,1492,0,0
273,-468,0,0,0,0,0,0,0,0,0,-1,1497,1492,0,0
280,-468,0,0,0,0,0,0,0,0,0,-1,1504,1492,0,0
287,-468,0,0,0,0,0,0,0,0,0,-1,1511,1492,0,0
294,-468,0,0,0,0,0,0,0,0,0,-1,1518,1492,0,0
301,-468,0,0,0,0,0,0,0,0,0,-1,1525,1492,0,0
308,-468,0,0,0,0,0,0,0,0,0,-1,1532,1492,0,0
315,-468,0,0,0,0,0,0,0,0,0,-1,1539,1492,0,0
322,-468,0,0,0,0,0,0,0,0,0,-1,1546,1492,0,0
329,-468,0,0,0,0,0,0,0,0,0,-1,1553,1492,0,0
336,-468,0,0,0,0,0,0,0,0,0,-1,1560,1492,0,0
343,-468,0,0,0,0,0,0,0,0,0,-1,1567,1492,0,0
350,-468,0,0,0,0,0,0,0,0,0,-1,1574,1492,0,0
357,-468,0,0,0,0,0,0,0,0,0,-1,1581,1492,0,0
364,-468,0,0,0,0,0,0,0,0,0,-1,1588,1492,0,0
371,-468,0,0,0,0,0,0,0,0,0,-1,1595,1492,0,0
378,-468,0,0,0,0,0,0,0,0,0,-1,1602,1492,0,0
385,-468,0,0,0,0,0,0,0,0,0,-1,1609,1492,0,0
392,-468,0,0,0,0,0,0,0,0,0,-1,1616,1492,0,0
399,-468,0,0,0,0,0,0,0,0,0,-1,1623,1492,0,0
406,-468,0,0,0,0,0,0,0,0,0,-1,1630,1492,0,0
413,-468,0,0,0,0,0,0,0,0,0,-1,1637,1492,0,0
420,-468,0,0,0,0,0,0,0,0,0,-1,1644,1492,0,0
427,-468,0,0,0,0,0,0,0,0,0,-1,1651,1492,0,0
434,-468,0,0,0,0,0,0,0,0,0,-1,1658,1492,0,0
441,-468,0,0,0,0,0,0,0,0,0,-1,1665,1492,0,0
448,-468,0,0,0,0,0,0,0,0,0,-1,1672,1492,0,0
455,-468,0,0,0,0,0,0,0,0,0,-1,1679,1492,0,0
462,-468,0,0,0,0,0,0,0,0,0,-1,1686,1492,0,0
469,-468,-0.221191,-0.0469971,0,0,0,0,0,0,0,-1,1693,1492,-0.22114,0.046976
476,-468,0.288696,0.226074,0,0,0,0,0,0,0,-1,1700,1492,0.28865,-0.226111
483,-468,0.561279,0.221313,0,0,0,0,0,0,0,-1,1707,1492,0.561295,-0.221317
490,-468,0.42041,-0.0125732,0,0,0,0,0,0,0,-1,1714,1492,0.420468,0.0125407
497,-468,-0.0112305,0.335449,0,0,0,0,0,0,0,-1,1721,1492,-0.0112183,-0.335465
504,-468,-0.208618,0.827393,0,0,0,0,0,0,0,-1,1728,1492,-0.208579,-0.827416
511,-468,-0.114136,-0.0130615,0,0,0,0,0,0,0,-1,1735,1492,-0.114099,0.0130137
518,-468,-0.15918,0.0510254,-0.0042379,0.00437429,0.00466847,0.00641934,-0.00628295,1.15792,0.00733381,0.0433093,1742,1492,-0.159122,-0.050982
525,-468,-0.244385,0.109741,-0.00307703,0.00464456,0.00432449,0.00658092,-0.00501339,1.1498,0.00671434,0.0472107,1749,1492,-0.244342,-0.109696
532,-468,-0.312622,0.0817871,-0.00221554,0.00460846,0.00354247,0.00611487,-0.00372196,1.16872,0.00573504,0.0481467,1756,1492,-0.312589,-0.0818035
539,-468,-0.255981,0.0671387,-0.00154027,0.00448172,0.0027287,0.00553421,-0.00259276,1.20267,0.00479346,0.0464182,1763,1492,-0.255983,-0.0671909
546,-468,-0.0981445,0.0686035,-0.00104602,0.0040812,0.00210832,0.0048368,-0.00180161,1.22667,0.00396397,0.0439994,1770,1492,-0.0981816,-0.0686296
553,-468,0.0175781,0.0102539,-0.000586145,0.00324889,0.00143121,0.00372412,-0.00106137,1.2502,0.00290197,0.0290906,1777,1492,0.0175321,-0.0102246
560,-468,-0.0252686,-0.0644531,-0.000527874,0.00295481,0.000937841,0.0031913,-0.000764363,1.32378,0.00242285,0.0129204,1784,1492,-0.0253118,0.0644151
567,-468,0.00402832,-0.0914307,-0.00063601,0.00225498,0.000646581,0.002393,-0.000774031,1.36049,0.00190646,0.0114998,1791,1492,0.00408583,0.091407
574,-468,-0.00427246,-0.0949707,-0.000637081,0.00161038,0.00050587,0.00171899,-0.000745696,1.3593,0.0014595,0.0132124,1798,1492,-0.00429363,0.094953
581,-468,-0.0267334,-0.0919189,-0.000735541,0.00063751,0.000273695,0.000690055,-0.000788087,1.38112,0.000854031,0.0132122,1805,1492,-0.0267598,0.0919612
588,-468,-0.0465088,-0.0916748,-0.0010117,2.5254e-05,0.000174628,5.38724e-05,-0.00104032,1.40836,0.000712182,0.0105389,1812,1492,-0.0465509,0.0916593
595,-468,-0.0339355,-0.0672607,-0.00167325,0.00038972,0.000115772,0.000396197,-0.00167973,1.51491,0.00127261,0.00889174,1819,1492,-0.0338897,0.0673033
602,-468,-0.0333252,-0.0595703,-0.00234378,0.00110635,-4.94748e-05,0.00110706,-0.00234449,-1.55646,0.00203499,0.00815635,1826,1492,-0.0333707,0.0596245
609,-468,-0.0424805,-0.0721436,-0.00303669,0.00233564,-0.000133805,0.00233897,-0.00304003,-1.54591,0.00311434,0.00900516,1833,1492,-0.0424985,0.072168
616,-468,-0.0377197,-0.0856934,-0.00378745,0.00373419,-0.000182132,0.0037386,-0.00379186,-1.5466,0.00434774,0.00919792,1840,1492,-0.0377238,0.0857344
623,-468,-0.0323486,-0.083374,-0.00490422,0.00556283,-0.000397694,0.00557791,-0.00491931,-1.53287,0.00606455,0.00970585,1847,1492,-0.0323955,0.0834111
630,-468,-0.0307617,-0.0806885,-0.00657035,0.00735807,-0.000619953,0.00738561,-0.00659789,-1.5264,0.00807764,0.00977005,1854,1492,-0.0307325,0.080721
637,-468,-0.00915527,-0.0556641,-0.00834348,0.00932396,-0.000828795,0.00936276,-0.00838228,-1.52402,0.0102503,0.0122048,1861,1492,-0.00915184,0.0556323
644,-468,0.00769043,-0.0405273,-0.009937,0.0117172,-0.00097711,0.0117612,-0.009981,-1.52579,0.0125669,0.0186223,1868,1492,0.0076323,0.0404934
651,-468,-0.143677,-0.0913086,-0.0107399,0.0145132,-0.000813095,0.0145394,-0.0107661,-1.53864,0.0146641,0.0354631,1875,1492,-0.143648,0.0913373
658,-468,-0.240234,-0.085083,-0.0109474,0.0169758,-0.000491268,0.0169845,-0.010956,-1.55321,0.0162561,0.0394288,1882,1492,-0.240192,0.0850296
665,-468,-0.346436,-0.0794678,0,0,0,0,0,0,0,-1,1889,1492,-0.346426,0.0794564
672,-468,0.283081,-0.151245,0,0,0,0,0,0,0,-1,1896,1492,0.283076,0.151234
679,-468,0.0378418,0.289551,-0.00570808,0.0220797,0.00119226,0.0221308,-0.00575914,1.528,0.0170019,0.0426991,1903,1492,0.0378844,-0.28959
686,-468,-0.259399,0.192871,-0.000133921,0.0228012,0.00253868,0.0230789,-0.000411565,1.46186,0.0155249,0.0431216,1910,1492,-0.259372,-0.192829
693,-468,0,0,0,0,0,0,0,0,0,-1,1917,1492,0,0
700,-468,0,0,0,0,0,0,0,0,0,-1,1924,1492,0,0
707,-468,0,0,0,0,0,0,0,0,0,-1,1931,1492,0,0
714,-468,0,0,0,0,0,0,0,0,0,-1,1938,1492,0,0
721,-468,0,0,0,0,0,0,0,0,0,-1,1945,1492,0,0
728,-468,0,0,0,0,0,0,0,0,0,-1,1952,1492,0,0
735,-468,0,0,0,0,0,0,0,0,0,-1,1959,1492,0,0
742,-468,0,0,0,0,0,0,0,0,0,-1,1966,1492,0,0
749,-468,0,0,0,0,0,0,0,0,0,-1,1973,1492,0,0
756,-468,0,0,0,0,0,0,0,0,0,-1,1980,1492,0,0
763,-468,0,0,0,0,0,0,0,0,0,-1,1987,1492,0,0
770,-468,0,0,0,0,0,0,0,0,0,-1,1994,1492,0,0
777,-468,0,0,0,0,0,0,0,0,0,-1,2001,1492,0,0
784,-468,0,0,0,0,0,0,0,0,0,-1,2008,1492,0,0
791,-468,0,0,0,0,0,0,0,0,0,-1,2015,1492,0,0
798,-468,0,0,0,0,0,0,0,0,0,-1,2022,1492,0,0
805,-468,0,0,0,0,0,0,0,0,0,-1,2029,1492,0,0
812,-468,0,0,0,0,0,0,0,0,0,-1,2036,1492,0,0
-700,-475,0,0,0,0,0,0,0,0,0,-1,524,1499,0,0
-693,-475,0,0,0,0,0,0,0,0,0,-1,531,1499,0,0
-686,-475,0,0,0,0,0,0,0,0,0,-1,538,1499,0,0
-679,-475,0,0,0,0,0,0,0,0,0,-1,545,1499,0,0
-672,-475,0,0,0,0,0,0,0,0,0,-1,552,1499,0,0
-665,-475,0,0,0,0,0,0,0,0,0,-1,559,1499,0,0
-658,-475,0,0,0,0,0,0,0,0,0,-1,566,1499,0,0
-651,-475,0,0,0,0,0,0,0,0,0,-1,573,1499,0,0
-644,-475,0,0,0,0,0,0,0,0,0,-1,580,1499,0,0
-637,-475,0,0,0,0,0,0,0,0,0,-1,587,1499,0,0
-630,-475,0,0,0,0,0,0,0,0,0,-1,594,1499,0,0
-623,-475,0,0,0,0,0,0,0,0,0,-1,601,1499,0,0
-616,-475,0,0,0,0,0,0,0,0,0,-1,608,1499,0,0
-609,-475,0,0,0,0,0,0,0,0,0,-1,615,1499,0,0
-602,-475,0,0,0,0,0,0,0,0,0,-1,622,1499,0,0
-595,-475,0,0,0,0,0,0,0,0,0,-1,629,1499,0,0
-588,-475,0,0,0,0,0,0,0,0,0,-1,636,1499,0,0
-581,-475,0,0,0,0,0,0,0,0,0,-1,643,1499,0,0
-574,-475,0,0,0,0,0,0,0,0,0,-1,650,1499,0,0
-567,-475,0,0,0,0,0,0,0,0,0,-1,657,1499,0,0
-560,-475,-0.0684204,1.14429,-0.0169587,-0.0908461,0.00846726,-0.0160008,-0.091804,0.112651,0.0566277,0.0471763,664,1499,-0.0684424,-1.14431
-553,-475,-0.236328,1.21936,-0.0163182,-0.0726761,0.00807452,-0.0151842,-0.0738101,0.139533,0.0450074,0.0465101,671,1499,-0.236337,-1.21931
-546,-475,-0.480713,1.14893,0,0,0,0,0,0,0,-1,678,1499,-0.480743,-1.14895
-539,-475,0.28186,-0.476929,0,0,0,0,0,0,0,-1,685,1499,0.281846,0.47698
-532,-475,0.33728,-0.729492,0,0,0,0,0,0,0,-1,692,1499,0.337284,0.729497
-525,-475,0.158936,-0.462036,-0.00960442,-0.0159057,0.00252392,-0.00871815,-0.016792,0.337699,0.00969724,0.0437989,699,1499,0.158943,0.462091
-518,-475,-0.00177002,-0.0854492,-0.00760464,-0.00816379,0.00127046,-0.00658335,-0.00918507,0.677095,0.00546657,0.0457356,706,1499,-0.00176395,0.0854222
-511,-475,-0.0682373,-0.00695801,-0.00571554,-0.00241775,0.000576765,-0.00231978,-0.0058135,1.40255,0.00337916,0.0424786,713,1499,-0.0682204,0.00691352
-504,-475,-0.0560913,-0.057251,-0.00392414,0.001351,-0.000170276,0.00135649,-0.00392963,-1.53856,0.00317018,0.0235318,720,1499,-0.0560762,0.0573046
-497,-475,-0.0215454,-0.0743408,-0.00233132,0.00411481,-0.000839094,0.00422224,-0.00243875,-1.44345,0.0038914,0.0106706,727,1499,-0.0215755,0.0743304
-490,-475,-0.0159302,-0.0686035,-0.0012808,0.00506519,-0.000936074,0.00520038,-0.001416,-1.42736,0.00402287,0.00748672,734,1499,-0.0159263,0.0686148
-483,-475,-0.0192261,-0.0606689,-0.000824968,0.00587358,-0.00108149,0.00604385,-0.000995246,-1.41463,0.00439868,0.00787838,741,1499,-0.019237,0.0606913
-476,-475,-0.0169067,-0.071167,4.76986e-05,0.00418243,-0.000607182,0.00426975,-3.96215e-05,-1.42796,0.0028598,0.00901808,748,1499,-0.0168801,0.0711889
-469,-475,-0.0203857,-0.0845947,0.00121186,0.00250181,-0.000609333,0.00274412,0.000969543,-1.1923,0.00160688,0.00966888,755,1499,-0.0204141,0.0845509
-462,-475,-0.0279541,-0.110352,0.00211978,0.00116414,-0.000587385,0.00239915,0.000884774,-0.443947,0.00140096,0.0137515,762,1499,-0.0279529,0.110402
-455,-475,-0.0327148,-0.0968018,0.0023153,0.000365278,-0.000328797,0.00236924,0.000311331,-0.162624,0.00148662,0.0135719,769,1499,-0.0327043,0.0967434
-448,-475,-0.00952148,-0.0780029,0.00182034,-0.000959667,0.000564863,0.00193073,-0.00107006,0.192995,0.0017561,0.0120794,776,1499,-0.00950171,0.0779546
-441,-475,-0.00622559,-0.0805664,0.00164194,-0.001983,0.000805648,0.00181293,-0.00215399,0.209136,0.00229312,0.014163,783,1499,-0.00624583,0.0805925
-434,-475,-0.02771,-0.0860596,0.00130089,-0.00290257,0.000911802,0.00149016,-0.00309183,0.204665,0.00269875,0.00886423,790,1499,-0.0277376,0.0860914
-427,-475,-0.0136719,-0.074707,7.93487e-05,-0.00152164,0.00142275,0.000911335,-0.00235363,0.52915,0.00194537,0.00914368,797,1499,-0.0136791,0.0746631
-420,-475,-0.0148926,-0.067749,-0.000840112,-0.000948565,0.00220143,0.00130776,-0.00309644,0.773085,0.00261173,0.012697,804,1499,-0.0149085,0.0677665
-413,-475,0.019104,-0.0612793,-0.00213696,-0.000221385,0.00300844,0.00197806,-0.0043364,0.939508,0.00372945,0.0275619,811,1499,0.0191016,0.0613316
-406,-475,0.158142,-0.312622,-0.00459358,0.00111694,0.00363849,0.00288673,-0.00636337,1.11808,0.00546484,0.0444916,818,1499,0.15816,0.312636
-399,-475,0.638977,-0.806641,0,0,0,0,0,0,0,-1,825,1499,0.638963,0.806608
-392,-475,-0.0942993,0.076416,0,0,0,0,0,0,0,-1,832,1499,-0.0943079,-0.0763585
-385,-475,-0.128479,0.120117,-0.0197353,0.0111711,0.00327665,0.0115146,-0.0200789,1.46632,0.0184625,0.0425886,839,1499,-0.128461,-0.120163
-378,-475,-0.193726,0.324707,-0.0269695,0.0161252,0.00239777,0.0162582,-0.0271025,1.51538,0.0252939,0.045391,846,1499,-0.193756,-0.32469
-371,-475,0.0117798,0.871826,-0.0355304,0.0217385,0.000580719,0.0217444,-0.0355362,1.56066,0.033389,0.0460426,853,1499,0.0118075,-0.871867
-364,-475,-2.51294,0.381958,0,0,0,0,0,0,0,-1,860,1499,-2.51292,-0.3819
-357,-475,-2.8255,0.417358,-0.0575067,0.0335298,-0.00668736,0.0340184,-0.0579953,-1.49786,0.053722,0.0476096,867,1499,-2.82551,-0.417362
-350,-475,-3.30255,0.701538,-0.0698042,0.0383654,-0.0117785,0.0396331,-0.0710719,-1.46358,0.064769,0.0478426,874,1499,-3.30255,-0.701544
-343,-475,-3.75476,1.05066,-0.0837374,0.0422922,-0.0174102,0.0446531,-0.0860983,-1.43601,0.0767431,0.0468793,881,1499,-3.75475,-1.0506
-336,-475,0,0,0,0,0,0,0,0,0,-1,888,1499,0,0
-329,-475,0,0,0,0,0,0,0,0,0,-1,895,1499,0,0
-322,-475,0,0,0,0,0,0,0,0,0,-1,902,1499,0,0
-315,-475,0,0,0,0,0,0,0,0,0,-1,909,1499,0,0
-308,-475,0,0,0,0,0,0,0,0,0,-1,916,1499,0,0
-301,-475,0,0,0,0,0,0,0,0,0,-1,923,1499,0,0
-294,-475,0,0,0,0,0,0,0,0,0,-1,930,1499,0,0
-287,-475,0,0,0,0,0,0,0,0,0,-1,937,1499,0,0
-280,-475,0,0,0,0,0,0,0,0,0,-1,944,1499,0,0
-273,-475,0,0,0,0,0,0,0,0,0,-1,951,1499,0,0
-266,-475,0,0,0,0,0,0,0,0,0,-1,958,1499,0,0
-259,-475,0,0,0,0,0,0,0,0,0,-1,965,1499,0,0
-252,-475,0,0,0,0,0,0,0,0,0,-1,972,1499,0,0
-245,-475,0,0,0,0,0,0,0,0,0,-1,979,1499,0,0
-238,-475,0,0,0,0,0,0,0,0,0,-1,986,1499,0,0
-231,-475,0,0,0,0,0,0,0,0,0,-1,993,1499,0,0
-224,-475,0,0,0,0,0,0,0,0,0,-1,1000,1499,0,0
-217,-475,0,0,0,0,0,0,0,0,0,-1,1007,1499,0,0
-210,-475,0,0,0,0,0,0,0,0,0,-1,1014,1499,0,0
-203,-475,0,0,0,0,0,0,0,0,0,-1,1021,1499,0,0
-196,-475,0,0,0,0,0,0,0,0,0,-1,1028,1499,0,0
-189,-475,0,0,0,0,0,0,0,0,0,-1,1035,1499,0,0
-182,-475,0,0,0,0,0,0,0,0,0,-1,1042,1499,0,0
-175,-475,0,0,0,0,0,0,0,0,0,-1,1049,1499,0,0
-168,-475,0,0,0,0,0,0,0,0,0,-1,1056,1499,0,0
-161,-475,0,0,0,0,0,0,0,0,0,-1,1063,1499,0,0
-154,-475,0,0,0,0,0,0,0,0,0,-1,1070,1499,0,0
-147,-475,0,0,0,0,0,0,0,0,0,-1,1077,1499,0,0
-140,-475,0,0,0,0,0,0,0,0,0,-1,1084,1499,0,0
-133,-475,0,0,0,0,0,0,0,0,0,-1,1091,1499,0,0
-126,-475,0,0,0,0,0,0,0,0,0,-1,1098,1499,0,0
-119,-475,0,0,0,0,0,0,0,0,0,-1,1105,1499,0,0
-112,-475,0,0,0,0,0,0,0,0,0,-1,1112,1499,0,0
-105,-475,0,0,0,0,0,0,0,0,0,-1,1119,1499,0,0
-98,-475,0,0,0,0,0,0,0,0,0,-1,1126,1499,0,0
-91,-475,0,0,0,0,0,0,0,0,0,-1,1133,1499,0,0
-84,-475,0,0,0,0,0,0,0,0,0,-1,1140,1499,0,0
-77,-475,0,0,0,0,0,0,0,0,0,-1,1147,1499,0,0
-70,-475,0,0,0,0,0,0,0,0,0,-1,1154,1499,0,0
-63,-475,0,0,0,0,0,0,0,0,0,-1,1161,1499,0,0
-56,-475,0,0,0,0,0,0,0,0,0,-1,1168,1499,0,0
-49,-475,0,0,0,0,0,0,0,0,0,-1,1175,1499,0,0
-42,-475,0,0,0,0,0,0,0,0,0,-1,1182,1499,0,0
-35,-475,0,0,0,0,0,0,0,0,0,-1,1189,1499,0,0
-28,-475,0,0,0,0,0,0,0,0,0,-1,1196,1499,0,0
-21,-475,0,0,0,0,0,0,0,0,0,-1,1203,1499,0,0
-14,-475,0,0,0,0,0,0,0,0,0,-1,1210,1499,0,0
-7,-475,0,0,0,0,0,0,0,0,0,-1,1217,1499,0,0
0,-475,0,0,0,0,0,0,0,0,0,-1,1224,1499,0,0
7,-475,0,0,0,0,0,0,0,0,0,-1,1231,1499,0,0
14,-475,0,0,0,0,0,0,0,0,0,-1,1238,1499,0,0
21,-475,0,0,0,0,0,0,0,0,0,-1,1245,1499,0,0
28,-475,0,0,0,0,0,0,0,0,0,-1,1252,1499,0,0
35,-475,0,0,0,0,0,0,0,0,0,-1,1259,1499,0,0
42,-475,0,0,0,0,0,0,0,0,0,-1,1266,1499,0,0
49,-475,0,0,0,0,0,0,0,0,0,-1,1273,1499,0,0
56,-475,0,0,0,0,0,0,0,0,0,-1,1280,1499,0,0
63,-475,0,0,0,0,0,0,0,0,0,-1,1287,1499,0,0
70,-475,0,0,0,0,0,0,0,0,0,-1,1294,1499,0,0
77,-475,0,0,0,0,0,0,0,0,0,-1,1301,1499,0,0
84,-475,0,0,0,0,0,0,0,0,0,-1,1308,1499,0,0
91,-475,0,0,0,0,0,0,0,0,0,-1,1315,1499,0,0
98,-475,0,0,0,0,0,0,0,0,0,-1,1322,1499,0,0
105,-475,0,0,0,0,0,0,0,0,0,-1,1329,1499,0,0
112,-475,0,0,0,0,0,0,0,0,0,-1,1336,1499,0,0
119,-475,0,0,0,0,0,0,0,0,0,-1,1343,1499,0,0
126,-475,0,0,0,0,0,0,0,0,0,-1,1350,1499,0,0
133,-475,0,0,0,0,0,0,0,0,0,-1,1357,1499,0,0
140,-475,0,0,0,0,0,0,0,0,0,-1,1364,1499,0,0
147,-475,0,0,0,0,0,0,0,0,0,-1,1371,1499,0,0
154,-475,0,0,0,0,0,0,0,0,0,-1,1378,1499,0,0
161,-475,0,0,0,0,0,0,0,0,0,-1,1385,1499,0,0
168,-475,0,0,0,0,0,0,0,0,0,-1,1392,1499,0,0
175,-475,0,0,0,0,0,0,0,0,0,-1,1399,1499,0,0
182,-475,0,0,0,0,0,0,0,0,0,-1,1406,1499,0,0
189,-475,0,0,0,0,0,0,0,0,0,-1,1413,1499,0,0
196,-475,0,0,0,0,0,0,0,0,0,-1,1420,1499,0,0
203,-475,0,0,0,0,0,0,0,0,0,-1,1427,1499,0,0
210,-475,0,0,0,0,0,0,0,0,0,-1,1434,1499,0,0
217,-475,0,0,0,0,0,0,0,0,0,-1,1441,1499,0,0
224,-475,0,0,0,0,0,0,0,0,0,-1,1448,1499,0,0
231,-475,0,0,0,0,0,0,0,0,0,-1,1455,1499,0,0
238,-475,0,0,0,0,0,0,0,0,0,-1,1462,1499,0,0
245,-475,0,0,0,0,0,0,0,0,0,-1,1469,1499,0,0
252,-475,0,0,0,0,0,0,0,0,0,-1,1476,1499,0,0
259,-475,0,0,0,0,0,0,0,0,0,-1,1483,1499,0,0
266,-475,0,0,0,0,0,0,0,0,0,-1,1490,1499,0,0
273,-475,0,0,0,0,0,0,0,0,0,-1,1497,1499,0,0
280,-475,0,0,0,0,0,0,0,0,0,-1,1504,1499,0,0
287,-475,0,0,0,0,0,0,0,0,0,-1,1511,1499,0,0
294,-475,0,0,0,0,0,0,0,0,0,-1,1518,1499,0,0
301,-475,0,0,0,0,0,0,0,0,0,-1,1525,1499,0,0
308,-475,0,0,0,0,0,0,0,0,0,-1,1532,1499,0,0
315,-475,0,0,0,0,0,0,0,0,0,-1,1539,1499,0,0
322,-475,0,0,0,0,0,0,0,0,0,-1,1546,1499,0,0
329,-475,0,0,0,0,0,0,0,0,0,-1,1553,1499,0,0
336,-475,0,0,0,0,0,0,0,0,0,-1,1560,1499,0,0
343,-475,0,0,0,0,0,0,0,0,0,-1,1567,1499,0,0
350,-475,0,0,0,0,0,0,0,0,0,-1,1574,1499,0,0
357,-475,0,0,0,0,0,0,0,0,0,-1,1581,1499,0,0
364,-475,0,0,0,0,0,0,0,0,0,-1,1588,1499,0,0
371,-475,0,0,0,0,0,0,0,0,0,-1,1595,1499,0,0
378,-475,0,0,0,0,0,0,0,0,0,-1,1602,1499,0,0
385,-475,0,0,0,0,0,0,0,0,0,-1,1609,1499,0,0
392,-475,0,0,0,0,0,0,0,0,0,-1,1616,1499,0,0
399,-475,0,0,0,0,0,0,0,0,0,-1,1623,1499,0,0
406,-475,0,0,0,0,0,0,0,0,0,-1,1630,1499,0,0
413,-475,0,0,0,0,0,0,0,0,0,-1,1637,1499,0,0
420,-475,0,0,0,0,0,0,0,0,0,-1,1644,1499,0,0
427,-475,0,0,0,0,0,0,0,0,0,-1,1651,1499,0,0
434,-475,0,0,0,0,0,0,0,0,0,-1,1658,1499,0,0
441,-475,0,0,0,0,0,0,0,0,0,-1,1665,1499,0,0
448,-475,0,0,0,0,0,0,0,0,0,-1,1672,1499,0,0
455,-475,0,0,0,0,0,0,0,0,0,-1,1679,1499,0,0
462,-475,0.112671,-0.436279,-0.00983283,0.00112059,-0.00809215,0.00541513,-0.0141274,-1.08289,0.0116506,0.0436571,1686,1499,0.112665,0.436288
469,-475,0.00915527,-0.36499,-0.00880942,0.000416322,-0.00519538,0.00275115,-0.0111442,-1.14844,0.00849634,0.0444161,1693,1499,0.00910422,0.364998
476,-475,0.217041,-0.464844,-0.00757061,0.00129991,-0.00226013,0.00184257,-0.00811327,-1.33515,0.00611626,0.044797,1700,1499,0.216984,0.464868
483,-475,0.539795,-0.543213,0,0,0,0,0,0,0,-1,1707,1499,0.539742,0.543169
490,-475,0.709961,-0.396729,-0.00641189,0.00216888,0.00164208,0.00247239,-0.0067154,1.38803,0.00548988,0.0412853,1714,1499,0.709965,0.39674
497,-475,0.428711,-0.0192871,-0.00578537,0.00232962,0.00274816,0.0031727,-0.00662845,1.27313,0.00577475,0.0436329,1721,1499,0.428766,0.0193135
504,-475,0.179932,0.508789,0,0,0,0,0,0,0,-1,1728,1499,0.179988,-0.508776
511,-475,0.326538,0.623779,0,0,0,0,0,0,0,-1,1735,1499,0.326592,-0.623836
518,-475,-0.225342,-0.151001,-0.00339549,0.00491951,0.0039896,0.0065241,-0.00500008,1.1884,0.00667286,0.0441165,1742,1499,-0.225291,0.151015
525,-475,-0.259888,-0.0887451,-0.0023526,0.00503202,0.00376066,0.00660998,-0.00393056,1.17351,0.00615077,0.0463831,1749,1499,-0.259883,0.0887736
532,-475,-0.324097,0.0778809,-0.00156354,0.00493032,0.00310646,0.00617701,-0.00281023,1.18915,0.00530877,0.0460625,1756,1499,-0.324071,-0.0778439
539,-475,-0.129272,-0.00183105,-0.000906245,0.0047763,0.0024413,0.00568106,-0.00181101,1.21588,0.00451381,0.0432955,1763,1499,-0.129302,0.0017776
546,-475,-0.0115967,-0.00805664,-0.000389418,0.0044066,0.00195895,0.00510503,-0.00108785,1.22831,0.00381798,0.0326653,1770,1499,-0.0116559,0.0080801
553,-475,-0.0426025,-0.0418701,7.30518e-05,0.00359732,0.00136126,0.00406188,-0.000391506,1.24192,0.00284741,0.0164391,1777,1499,-0.0425862,0.0418509
560,-475,-0.036377,-0.0852051,0.000140667,0.00324135,0.000911971,0.00348968,-0.000107672,1.30493,0.00236316,0.0126006,1784,1499,-0.0363464,0.0851945
567,-475,0.00927734,-0.106323,-1.23513e-06,0.00250883,0.000646845,0.00266572,-0.000158122,1.33285,0.00183213,0.0133365,1791,1499,0.00930795,0.106328
574,-475,-0.0045166,-0.0914307,-9.04156e-05,0.00181593,0.000562114,0.00196934,-0.000243819,1.30438,0.00140125,0.013534,1798,1499,-0.00453067,0.0914649
581,-475,-0.0394287,-0.0825195,-0.000235144,0.000899572,0.000352393,0.0010001,-0.000335675,1.2929,0.000802383,0.0114574,1805,1499,-0.0394739,0.0825192
588,-475,-0.0362549,-0.0802002,-0.000635511,0.000332704,0.000219403,0.000380101,-0.000682909,1.35804,0.000621974,0.00971105,1812,1499,-0.036252,0.0802015
595,-475,-0.0169678,-0.0698242,-0.00145781,0.000693739,8.6653e-05,0.000697224,-0.0014613,1.53061,0.00127198,0.0102735,1819,1499,-0.0169373,0.0698335
602,-475,-0.0181885,-0.0839844,-0.00237403,0.00147166,-0.000148782,0.0014774,-0.00237978,-1.53219,0.00224717,0.0116941,1826,1499,-0.0181876,0.0839261
609,-475,-0.0168457,-0.0927734,-0.00334131,0.00289314,-0.000325897,0.00291013,-0.0033583,-1.51871,0.00362216,0.0107918,1833,1499,-0.0169008,0.0927697
616,-475,-0.0230713,-0.0754395,-0.00436896,0.00452932,-0.000480356,0.00455517,-0.00439481,-1.51702,0.00516755,0.0100754,1840,1499,-0.0230363,0.0754936
623,-475,-0.019165,-0.0679932,-0.00582657,0.0067572,-0.000770836,0.00680425,-0.00587361,-1.50984,0.00732613,0.00984058,1847,1499,-0.0191633,0.0680285
630,-475,-0.0134277,-0.0668945,-0.00786012,0.00911535,-0.00114486,0.00919221,-0.00793699,-1.50376,0.00989839,0.0115078,1854,1499,-0.0133967,0.0668852
637,-475,0.0219727,-0.0733643,-0.0100622,0.0117462,-0.00155277,0.0118562,-0.0101722,-1.50007,0.0127305,0.0212424,1861,1499,0.0219278,0.0734061
644,-475,-0.137451,-0.243896,-0.0122309,0.0150104,-0.00195001,0.0151493,-0.0123698,-1.4997,0.0159151,0.0385831,1868,1499,-0.137395,0.243839
651,-475,-0.529785,-0.287598,-0.0139293,0.0185765,-0.00218823,0.0187231,-0.014076,-1.50388,0.0189998,0.0485769,1875,1499,-0.529793,0.287599
658,-475,-0.599487,-0.607178,-0.0153956,0.0218707,-0.00245393,0.0220316,-0.0155565,-1.50532,0.0218086,0.0479657,1882,1499,-0.599505,0.607194
665,-475,-0.873413,-0.789185,0,0,0,0,0,0,0,-1,1889,1499,-0.873388,0.78921
672,-475,-0.843872,-1.69666,0,0,0,0,0,0,0,-1,1896,1499,-0.8439,1.69661
679,-475,0.179199,0.13501,0,0,0,0,0,0,0,-1,1903,1499,0.179258,-0.135046
686,-475,0,0,0,0,0,0,0,0,0,-1,1910,1499,0,0
693,-475,0,0,0,0,0,0,0,0,0,-1,1917,1499,0,0
700,-475,0,0,0,0,0,0,0,0,0,-1,1924,1499,0,0
707,-475,0,0,0,0,0,0,0,0,0,-1,1931,1499,0,0
714,-475,0,0,0,0,0,0,0,0,0,-1,1938,1499,0,0
721,-475,0,0,0,0,0,0,0,0,0,-1,1945,1499,0,0
728,-475,0,0,0,0,0,0,0,0,0,-1,1952,1499,0,0
735,-475,0,0,0,0,0,0,0,0,0,-1,1959,1499,0,0
742,-475,0,0,0,0,0,0,0,0,0,-1,1966,1499,0,0
749,-475,0,0,0,0,0,0,0,0,0,-1,1973,1499,0,0
756,-475,0,0,0,0,0,0,0,0,0,-1,1980,1499,0,0
763,-475,0,0,0,0,0,0,0,0,0,-1,1987,1499,0,0
770,-475,0,0,0,0,0,0,0,0,0,-1,1994,1499,0,0
777,-475,0,0,0,0,0,0,0,0,0,-1,2001,1499,0,0
784,-475,0,0,0,0,0,0,0,0,0,-1,2008,1499,0,0
791,-475,0,0,0,0,0,0,0,0,0,-1,2015,1499,0,0
798,-475,0,0,0,0,0,0,0,0,0,-1,2022,1499,0,0
805,-475,0,0,0,0,0,0,0,0,0,-1,2029,1499,0,0
812,-475,0,0,0,0,0,0,0,0,0,-1,2036,1499,0,0
-700,-482,0,0,0,0,0,0,0,0,0,-1,524,1506,0,0
-693,-482,0,0,0,0,0,0,0,0,0,-1,531,1506,0,0
-686,-482,0,0,0,0,0,0,0,0,0,-1,538,1506,0,0
-679,-482,0,0,0,0,0,0,0,0,0,-1,545,1506,0,0
-672,-482,0,0,0,0,0,0,0,0,0,-1,552,1506,0,0
-665,-482,0,0,0,0,0,0,0,0,0,-1,559,1506,0,0
-658,-482,0,0,0,0,0,0,0,0,0,-1,566,1506,0,0
-651,-482,0,0,0,0,0,0,0,0,0,-1,573,1506,0,0
-644,-482,0,0,0,0,0,0,0,0,0,-1,580,1506,0,0
-637,-482,0,0,0,0,0,0,0,0,0,-1,587,1506,0,0
-630,-482,0,0,0,0,0,0,0,0,0,-1,594,1506,0,0
-623,-482,0,0,0,0,0,0,0,0,0,-1,601,1506,0,0
-616,-482,0,0,0,0,0,0,0,0,0,-1,608,1506,0,0
-609,-482,0,0,0,0,0,0,0,0,0,-1,615,1506,0,0
-602,-482,0,0,0,0,0,0,0,0,0,-1,622,1506,0,0
-595,-482,0,0,0,0,0,0,0,0,0,-1,629,1506,0,0
-588,-482,0,0,0,0,0,0,0,0,0,-1,636,1506,0,0
-581,-482,0,0,0,0,0,0,0,0,0,-1,643,1506,0,0
-574,-482,0,0,0,0,0,0,0,0,0,-1,650,1506,0,0
-567,-482,0,0,0,0,0,0,0,0,0,-1,657,1506,0,0
-560,-482,0,0,0,0,0,0,0,0,0,-1,664,1506,0,0
-553,-482,-0.361511,1.82471,-0.0208307,-0.0787709,0.00953403,-0.0193022,-0.0802994,0.158967,0.0483994,0.0492494,671,1506,-0.361541,-1.82475
-546,-482,-0.602539,2.04175,-0.0196191,-0.0575235,0.00834715,-0.0178623,-0.0592802,0.207434,0.0351146,0.045986,678,1506,-0.60256,-2.0418
-539,-482,0.349976,-0.930176,-0.0178369,-0.0392158,0.0068475,-0.0158317,-0.0412209,0.284864,0.0240112,0.0419147,685,1506,0.349995,0.930139
-532,-482,0.187256,-0.628784,-0.0157257,-0.0241341,0.00538584,-0.0130974,-0.0267624,0.453997,0.0154524,0.0442372,692,1506,0.18726,0.628794
-525,-482,0.0657349,-0.465576,-0.0133789,-0.0124239,0.00393542,-0.0089371,-0.0168657,0.845771,0.00974319,0.0419754,699,1506,0.0657255,0.465604
-518,-482,-0.161987,-0.0836182,-0.0109003,-0.00393225,0.00254522,-0.00310159,-0.011731,1.25533,0.00701905,0.0458562,706,1506,-0.161973,0.0836532
-511,-482,-0.130188,-0.0825195,0,0,0,0,0,0,0,-1,713,1506,-0.130215,0.0824797
-504,-482,-0.0426025,-0.0345459,-0.00621075,0.00563758,0.000834258,0.00569603,-0.0062692,1.50084,0.00691077,0.0409144,720,1506,-0.042575,0.0346008
-497,-482,-0.0388184,-0.064209,-0.00414497,0.00803959,5.35306e-05,0.00803982,-0.0041452,1.5664,0.00715381,0.021134,727,1506,-0.0388204,0.0642309
-490,-482,-0.0223999,-0.0794678,-0.00277678,0.00848628,-0.000169418,0.00848883,-0.00277933,-1.55576,0.00677834,0.0109785,734,1506,-0.0224226,0.0794612
-483,-482,-0.0154419,-0.0681152,-0.00212133,0.0088092,-0.000460923,0.0088286,-0.00214073,-1.52873,0.00671405,0.00776533,741,1506,-0.0154336,0.0681741
-476,-482,-0.0088501,-0.0665283,-0.000950257,0.00652724,-0.000101564,0.00652862,-0.000951636,-1.55722,0.00470183,0.00905223,748,1506,-0.00886751,0.0664867
-469,-482,-0.0186768,-0.0751953,0.000479815,0.00432536,-0.000225892,0.00433858,0.000466592,-1.51232,0.00275008,0.00944243,755,1506,-0.0186673,0.0752551
-462,-482,-0.0161133,-0.110596,0.00156385,0.00248773,-0.000354955,0.00260836,0.00144322,-1.24321,0.00150879,0.0101494,762,1506,-0.0161179,0.110557
-455,-482,-0.0111694,-0.131958,0.00170061,0.0012749,-0.000264164,0.001827,0.0011485,-0.446275,0.00106639,0.0107758,769,1506,-0.0111468,0.131982
-448,-482,0.00738525,-0.0852051,0.00105837,-0.000408323,0.000575548,0.00125725,-0.000607206,0.332709,0.00109804,0.011474,776,1506,0.00739686,0.0852423
-441,-482,0.000854492,-0.0839844,0.000888227,-0.00136575,0.000753851,0.00111711,-0.00159464,0.294776,0.0015737,0.0111928,783,1506,0.000881834,0.0839998
-434,-482,-0.0306396,-0.0799561,0.000691848,-0.00220408,0.000743932,0.000871776,-0.00238401,0.237304,0.00194615,0.0125261,790,1506,-0.0306226,0.0799039
-427,-482,-0.0422974,-0.0560303,-0.000381947,-0.00120567,0.00102105,0.000307181,-0.00189479,0.593695,0.00137706,0.0137349,797,1506,-0.0422916,0.0560702
-420,-482,-0.0714722,-0.0150146,-0.00118811,-0.000818611,0.00163444,0.000641486,-0.00264821,0.841677,0.00201365,0.0149204,804,1506,-0.0714819,0.015043
-413,-482,-0.0490112,-0.0233154,-0.00229634,-0.000384579,0.00224645,0.0011009,-0.00378183,0.986548,0.0029573,0.0178852,811,1506,-0.04903,0.0233047
-406,-482,0.0655518,-0.226685,-0.00449765,0.00052572,0.00264105,0.00165872,-0.00563065,1.16555,0.00441186,0.034664,818,1506,0.0655416,0.226687
-399,-482,0.269226,-0.456177,-0.0079971,0.0025092,0.00274212,0.00318182,-0.00866973,1.33025,0.0070828,0.0424046,825,1506,0.269236,0.456211
-392,-482,-0.0911255,0.0693359,-0.0127681,0.00552722,0.00237801,0.00583126,-0.0130721,1.44363,0.0111776,0.0469941,832,1506,-0.0911058,-0.0693738
-385,-482,-0.0537109,0.213257,-0.0185435,0.0085373,0.00128581,0.00859822,-0.0186044,1.52346,0.0160557,0.0446219,839,1506,-0.0537014,-0.21322
-378,-482,-0.0913696,0.459717,0,0,0,0,0,0,0,-1,846,1506,-0.0913874,-0.459691
-371,-482,0.157593,0.213745,0,0,0,0,0,0,0,-1,853,1506,0.157608,-0.213765
-364,-482,-1.76672,0.496948,0,0,0,0,0,0,0,-1,860,1506,-1.76675,-0.496931
-357,-482,-2.25665,0.375122,-0.0530524,0.0261882,-0.0100454,0.0274418,-0.054306,-1.44664,0.0480391,0.0458491,867,1506,-2.25665,-0.375062
-350,-482,-2.81506,0.583374,-0.0638622,0.0299566,-0.0147964,0.0322349,-0.0661405,-1.41802,0.0579106,0.0489321,874,1506,-2.81509,-0.583369
-343,-482,-3.46698,0.9646,-0.0750952,0.0312651,-0.0199992,0.0349013,-0.0787314,-1.39094,0.067213,0.0461195,881,1506,-3.46697,-0.964543
-336,-482,-4.01257,1.49695,0,0,0,0,0,0,0,-1,888,1506,-4.0126,-1.4969
-329,-482,0,0,0,0,0,0,0,0,0,-1,895,1506,0,0
-322,-482,0,0,0,0,0,0,0,0,0,-1,902,1506,0,0
-315,-482,0,0,0,0,0,0,0,0,0,-1,909,1506,0,0
-308,-482,0,0,0,0,0,0,0,0,0,-1,916,1506,0,0
-301,-482,0,0,0,0,0,0,0,0,0,-1,923,1506,0,0
-294,-482,0,0,0,0,0,0,0,0,0,-1,930,1506,0,0
-287,-482,0,0,0,0,0,0,0,0,0,-1,937,1506,0,0
-280,-482,0,0,0,0,0,0,0,0,0,-1,944,1506,0,0
-273,-482,0,0,0,0,0,0,0,0,0,-1,951,1506,0,0
-266,-482,0,0,0,0,0,0,0,0,0,-1,958,1506,0,0
-259,-482,0,0,0,0,0,0,0,0,0,-1,965,1506,0,0
-252,-482,0,0,0,0,0,0,0,0,0,-1,972,1506,0,0
-245,-482,0,0,0,0,0,0,0,0,0,-1,979,1506,0,0
-238,-482,0,0,0,0,0,0,0,0,0,-1,986,1506,0,0
-231,-482,0,0,0,0,0,0,0,0,0,-1,993,1506,0,0
-224,-482,0,0,0,0,0,0,0,0,0,-1,1000,1506,0,0
-217,-482,0,0,0,0,0,0,0,0,0,-1,1007,1506,0,0
-210,-482,0,0,0,0,0,0,0,0,0,-1,1014,1506,0,0
-203,-482,0,0,0,0,0,0,0,0,0,-1,1021,1506,0,0
-196,-482,0,0,0,0,0,0,0,0,0,-1,1028,1506,0,0
-189,-482,0,0,0,0,0,0,0,0,0,-1,1035,1506,0,0
-182,-482,0,0,0,0,0,0,0,0,0,-1,1042,1506,0,0
-175,-482,0,0,0,0,0,0,0,0,0,-1,1049,1506,0,0
-168,-482,0,0,0,0,0,0,0,0,0,-1,1056,1506,0,0
-161,-482,0,0,0,0,0,0,0,0,0,-1,1063,1506,0,0
-154,-482,0,0,0,0,0,0,0,0,0,-1,1070,1506,0,0
-147,-482,0,0,0,0,0,0,0,0,0,-1,1077,1506,0,0
-140,-482,0,0,0,0,0,0,0,0,0,-1,1084,1506,0,0
-133,-482,0,0,0,0,0,0,0,0,0,-1,1091,1506,0,0
-126,-482,0,0,0,0,0,0,0,0,0,-1,1098,1506,0,0
-119,-482,0,0,0,0,0,0,0,0,0,-1,1105,1506,0,0
-112,-482,0,0,0,0,0,0,0,0,0,-1,1112,1506,0,0
-105,-482,0,0,0,0,0,0,0,0,0,-1,1119,1506,0,0
-98,-482,0,0,0,0,0,0,0,0,0,-1,1126,1506,0,0
-91,-482,0,0,0,0,0,0,0,0,0,-1,1133,1506,0,0
-84,-482,0,0,0,0,0,0,0,0,0,-1,1140,1506,0,0
-77,-482,0,0,0,0,0,0,0,0,0,-1,1147,1506,0,0
-70,-482,0,0,0,0,0,0,0,0,0,-1,1154,1506,0,0
-63,-482,0,0,0,0,0,0,0,0,0,-1,1161,1506,0,0
-56,-482,0,0,0,0,0,0,0,0,0,-1,1168,1506,0,0
-49,-482,0,0,0,0,0,0,0,0,0,-1,1175,1506,0,0
-42,-482,0,0,0,0,0,0,0,0,0,-1,1182,1506,0,0
-35,-482,0,0,0,0,0,0,0,0,0,-1,1189,1506,0,0
-28,-482,0,0,0,0,0,0,0,0,0,-1,1196,1506,0,0
-21,-482,0,0,0,0,0,0,0,0,0,-1,1203,1506,0,0
-14,-482,0,0,0,0,0,0,0,0,0,-1,1210,1506,0,0
-7,-482,0,0,0,0,0,0,0,0,0,-1,1217,1506,0,0
0,-482,0,0,0,0,0,0,0,0,0,-1,1224,1506,0,0
7,-482,0,0,0,0,0,0,0,0,0,-1,1231,1506,0,0
14,-482,0,0,0,0,0,0,0,0,0,-1,1238,1506,0,0
21,-482,0,0,0,0,0,0,0,0,0,-1,1245,1506,0,0
28,-482,0,0,0,0,0,0,0,0,0,-1,1252,1506,0,0
35,-482,0,0,0,0,0,0,0,0,0,-1,1259,1506,0,0
42,-482,0,0,0,0,0,0,0,0,0,-1,1266,1506,0,0
49,-482,0,0,0,0,0,0,0,0,0,-1,1273,1506,0,0
56,-482,0,0,0,0,0,0,0,0,0,-1,1280,1506,0,0
63,-482,0,0,0,0,0,0,0,0,0,-1,1287,1506,0,0
70,-482,0,0,0,0,0,0,0,0,0,-1,1294,1506,0,0
77,-482,0,0,0,0,0,0,0,0,0,-1,1301,1506,0,0
84,-482,0,0,0,0,0,0,0,0,0,-1,1308,1506,0,0
91,-482,0,0,0,0,0,0,0,0,0,-1,1315,1506,0,0
98,-482,0,0,0,0,0,0,0,0,0,-1,1322,1506,0,0
105,-482,0,0,0,0,0,0,0,0,0,-1,1329,1506,0,0
112,-482,0,0,0,0,0,0,0,0,0,-1,1336,1506,0,0
119,-482,0,0,0,0,0,0,0,0,0,-1,1343,1506,0,0
126,-482,0,0,0,0,0,0,0,0,0,-1,1350,1506,0,0
133,-482,0,0,0,0,0,0,0,0,0,-1,1357,1506,0,0
140,-482,0,0,0,0,0,0,0,0,0,-1,1364,1506,0,0
147,-482,0,0,0,0,0,0,0,0,0,-1,1371,1506,0,0
154,-482,0,0,0,0,0,0,0,0,0,-1,1378,1506,0,0
161,-482,0,0,0,0,0,0,0,0,0,-1,1385,1506,0,0
168,-482,0,0,0,0,0,0,0,0,0,-1,1392,1506,0,0
175,-482,0,0,0,0,0,0,0,0,0,-1,1399,1506,0,0
182,-482,0,0,0,0,0,0,0,0,0,-1,1406,1506,0,0
189,-482,0,0,0,0,0,0,0,0,0,-1,1413,1506,0,0
196,-482,0,0,0,0,0,0,0,0,0,-1,1420,1506,0,0
203,-482,0,0,0,0,0,0,0,0,0,-1,1427,1506,0,0
210,-482,0,0,0,0,0,0,0,0,0,-1,1434,1506,0,0
217,-482,0,0,0,0,0,0,0,0,0,-1,1441,1506,0,0
224,-482,0,0,0,0,0,0,0,0,0,-1,1448,1506,0,0
231,-482,0,0,0,0,0,0,0,0,0,-1,1455,1506,0,0
238,-482,0,0,0,0,0,0,0,0,0,-1,1462,1506,0,0
245,-482,0,0,0,0,0,0,0,0,0,-1,1469,1506,0,0
252,-482,0,0,0,0,0,0,0,0,0,-1,1476,1506,0,0
259,-482,0,0,0,0,0,0,0,0,0,-1,1483,1506,0,0
266,-482,0,0,0,0,0,0,0,0,0,-1,1490,1506,0,0
273,-482,0,0,0,0,0,0,0,0,0,-1,1497,1506,0,0
280,-482,0,0,0,0,0,0,0,0,0,-1,1504,1506,0,0
287,-482,0,0,0,0,0,0,0,0,0,-1,1511,1506,0,0
294,-482,0,0,0,0,0,0,0,0,0,-1,1518,1506,0,0
301,-482,0,0,0,0,0,0,0,0,0,-1,1525,1506,0,0
308,-482,0,0,0,0,0,0,0,0,0,-1,1532,1506,0,0
315,-482,0,0,0,0,0,0,0,0,0,-1,1539,1506,0,0
322,-482,0,0,0,0,0,0,0,0,0,-1,1546,1506,0,0
329,-482,0,0,0,0,0,0,0,0,0,-1,1553,1506,0,0
336,-482,0,0,0,0,0,0,0,0,0,-1,1560,1506,0,0
343,-482,0,0,0,0,0,0,0,0,0,-1,1567,1506,0,0
350,-482,0,0,0,0,0,0,0,0,0,-1,1574,1506,0,0
357,-482,0,0,0,0,0,0,0,0,0,-1,1581,1506,0,0
364,-482,0,0,0,0,0,0,0,0,0,-1,1588,1506,0,0
371,-482,0,0,0,0,0,0,0,0,0,-1,1595,1506,0,0
378,-482,0,0,0,0,0,0,0,0,0,-1,1602,1506,0,0
385,-482,0,0,0,0,0,0,0,0,0,-1,1609,1506,0,0
392,-482,0,0,0,0,0,0,0,0,0,-1,1616,1506,0,0
399,-482,0,0,0,0,0,0,0,0,0,-1,1623,1506,0,0
406,-482,0,0,0,0,0,0,0,0,0,-1,1630,1506,0,0
413,-482,0,0,0,0,0,0,0,0,0,-1,1637,1506,0,0
420,-482,0,0,0,0,0,0,0,0,0,-1,1644,1506,0,0
427,-482,0,0,0,0,0,0,0,0,0,-1,1651,1506,0,0
434,-482,0,0,0,0,0,0,0,0,0,-1,1658,1506,0,0
441,-482,0,0,0,0,0,0,0,0,0,-1,1665,1506,0,0
448,-482,0.767456,0.270386,0,0,0,0,0,0,0,-1,1672,1506,0.767501,-0.270408
455,-482,0.515869,-0.200195,-0.00855722,0.00316048,-0.00849098,0.00761777,-0.0130145,-1.08739,0.0120471,0.0419893,1679,1506,0.515888,0.20017
462,-482,0.376831,-0.304443,-0.0073573,0.00128479,-0.00686957,0.00507931,-0.0111518,-1.06614,0.00958716,0.0446228,1686,1506,0.376825,0.304443
469,-482,0.289673,-0.568604,-0.00649382,0.00139637,-0.00455648,0.00347832,-0.00857577,-1.1422,0.00716385,0.0446805,1693,1506,0.289695,0.568629
476,-482,0.226196,-0.844116,-0.00555267,0.0022313,-0.00221191,0.00281593,-0.0061373,-1.3124,0.00528639,0.0398352,1700,1506,0.226202,0.844092
483,-482,0.7229,-0.462402,0,0,0,0,0,0,0,-1,1707,1506,0.722912,0.46244
490,-482,0.717407,-0.558838,-0.00447809,0.0027502,0.00125118,0.00296064,-0.00468854,1.40416,0.00445366,0.041809,1714,1506,0.717425,0.558884
497,-482,0.522949,-0.751343,-0.00405004,0.00286859,0.00222029,0.00351981,-0.00470126,1.28549,0.00476275,0.0421657,1721,1506,0.522938,0.751314
504,-482,0.281372,-0.17981,-0.003812,0.0031174,0.0027112,0.00405211,-0.00474671,1.2388,0.00508527,0.0429397,1728,1506,0.281328,0.179796
511,-482,0.274658,0.345947,-0.00329182,0.00447901,0.00314837,0.00559447,-0.00440727,1.2303,0.00578805,0.0459323,1735,1506,0.274689,-0.345975
518,-482,0.398071,0.687866,-0.00261512,0.0051092,0.00337406,0.00637545,-0.00388136,1.21177,0.00597984,0.0484567,1742,1506,0.398037,-0.687883
525,-482,-0.0882568,-0.259888,-0.0017952,0.00511957,0.00321528,0.00638358,-0.00305921,1.19623,0.00556327,0.0438122,1749,1506,-0.0882988,0.259897
532,-482,-0.0578613,0.00231934,-0.001206,0.00497035,0.00266115,0.00595876,-0.00219441,1.21517,0.00487161,0.0399145,1756,1506,-0.0578013,-0.00225857
539,-482,-0.0479736,-0.0175781,-0.000684956,0.00478905,0.00210098,0.00550246,-0.00139836,1.24345,0.00421251,0.0281575,1763,1506,-0.0479796,0.0175723
546,-482,-0.0438232,-0.0449219,-0.000227204,0.00446831,0.00173011,0.00503693,-0.000795825,1.25326,0.00365224,0.014304,1770,1506,-0.0438187,0.0449256
553,-482,-0.0544434,-0.0645752,0.000193525,0.00372043,0.00119492,0.00408714,-0.000173186,1.27303,0.00278429,0.0126495,1777,1506,-0.0543982,0.0645329
560,-482,-0.0447998,-0.0852051,0.000244779,0.00333445,0.000787644,0.00352366,5.55731e-05,1.33505,0.0023308,0.0125219,1784,1506,-0.0447407,0.0852545
567,-482,-0.0244141,-0.0910645,9.8834e-05,0.00262426,0.000553866,0.00274039,-1.72972e-05,1.36412,0.00183272,0.0146137,1791,1506,-0.0244398,0.0910839
574,-482,-0.0258789,-0.0795898,4.36102e-05,0.00198339,0.000523091,0.00211546,-8.84579e-05,1.32349,0.0014407,0.0128427,1798,1506,-0.0258218,0.0796164
581,-482,-0.0341797,-0.067749,3.08339e-05,0.00116351,0.000366302,0.00127164,-7.7303e-05,1.28374,0.000874669,0.009594,1805,1506,-0.0342268,0.0677984
588,-482,-0.0267334,-0.067749,-0.000301894,0.000672747,0.000233533,0.000725814,-0.000354961,1.34735,0.000636113,0.010678,1812,1506,-0.0266953,0.067785
595,-482,-0.0112305,-0.0933838,-0.00107624,0.00104922,5.57858e-05,0.00105068,-0.0010777,1.54457,0.00122886,0.0152238,1819,1506,-0.0112049,0.0934222
602,-482,0.0108643,-0.133789,-0.00198996,0.00187891,-0.00021596,0.00189093,-0.00200198,-1.51521,0.00224788,0.0184897,1826,1506,0.0108785,0.133816
609,-482,0.00280762,-0.124268,-0.00300253,0.00345977,-0.000461599,0.00349258,-0.00303534,-1.49985,0.00377197,0.0141977,1833,1506,0.00276246,0.124312
616,-482,-0.0102539,-0.0865479,-0.00408155,0.00531119,-0.000692684,0.005362,-0.00413236,-1.49758,0.00549687,0.0103606,1840,1506,-0.01029,0.0865267
623,-482,-0.0090332,-0.0788574,-0.0056848,0.00788038,-0.00107304,0.00796473,-0.00576915,-1.49234,0.00796297,0.00995236,1847,1506,-0.00908054,0.0788367
630,-482,0.00012207,-0.0881348,-0.00791578,0.0107606,-0.00161118,0.0108986,-0.00805376,-1.48537,0.0109831,0.0178158,1854,1506,0.000137905,0.0881495
637,-482,0.00146484,-0.119263,-0.0104261,0.0140453,-0.00223782,0.0142483,-0.0106291,-1.48035,0.0144135,0.036128,1861,1506,0.00143186,0.11929
644,-482,-0.491089,-0.427979,-0.0131551,0.018184,-0.00296833,0.0184627,-0.0134338,-1.47719,0.0184916,0.0417162,1868,1506,-0.491067,0.428004
651,-482,-0.953857,-0.578979,-0.0157416,0.0227782,-0.00366733,0.0231242,-0.0160876,-1.47672,0.0227602,0.0477107,1875,1506,-0.953828,0.578947
658,-482,-1.09241,-0.761353,-0.0184129,0.0271525,-0.00455009,0.0276024,-0.0188628,-1.47223,0.0269844,0.0468666,1882,1506,-1.09236,0.761395
665,-482,-1.00452,-1.11731,-0.0206808,0.0309803,-0.00550038,0.0315595,-0.02126,-1.46589,0.030688,0.0442558,1889,1506,-1.00455,1.11732
672,-482,-1.01672,-1.46228,0,0,0,0,0,0,0,-1,1896,1506,-1.01673,1.46234
679,-482,0,0,0,0,0,0,0,0,0,-1,1903,1506,0,0
686,-482,0,0,0,0,0,0,0,0,0,-1,1910,1506,0,0
693,-482,0,0,0,0,0,0,0,0,0,-1,1917,1506,0,0
700,-482,0,0,0,0,0,0,0,0,0,-1,1924,1506,0,0
707,-482,0,0,0,0,0,0,0,0,0,-1,1931,1506,0,0
714,-482,0,0,0,0,0,0,0,0,0,-1,1938,1506,0,0
721,-482,0,0,0,0,0,0,0,0,0,-1,1945,1506,0,0
728,-482,0,0,0,0,0,0,0,0,0,-1,1952,1506,0,0
735,-482,0,0,0,0,0,0,0,0,0,-1,1959,1506,0,0
742,-482,0,0,0,0,0,0,0,0,0,-1,1966,1506,0,0
749,-482,0,0,0,0,0,0,0,0,0,-1,1973,1506,0,0
756,-482,0,0,0,0,0,0,0,0,0,-1,1980,1506,0,0
763,-482,0,0,0,0,0,0,0,0,0,-1,1987,1506,0,0
770,-482,0,0,0,0,0,0,0,0,0,-1,1994,1506,0,0
777,-482,0,0,0,0,0,0,0,0,0,-1,2001,1506,0,0
784,-482,0,0,0,0,0,0,0,0,0,-1,2008,1506,0,0
791,-482,0,0,0,0,0,0,0,0,0,-1,2015,1506,0,0
798,-482,0,0,0,0,0,0,0,0,0,-1,2022,1506,0,0
805,-482,0,0,0,0,0,0,0,0,0,-1,2029,1506,0,0
812,-482,0,0,0,0,0,0,0,0,0,-1,2036,1506,0,0
-700,-489,0,0,0,0,0,0,0,0,0,-1,524,1513,0,0
-693,-489,0,0,0,0,0,0,0,0,0,-1,531,1513,0,0
-686,-489,0,0,0,0,0,0,0,0,0,-1,538,1513,0,0
-679,-489,0,0,0,0,0,0,0,0,0,-1,545,1513,0,0
-672,-489,0,0,0,0,0,0,0,0,0,-1,552,1513,0,0
-665,-489,0,0,0,0,0,0,0,0,0,-1,559,1513,0,0
-658,-489,0,0,0,0,0,0,0,0,0,-1,566,1513,0,0
-651,-489,0,0,0,0,0,0,0,0,0,-1,573,1513,0,0
-644,-489,0,0,0,0,0,0,0,0,0,-1,580,1513,0,0
-637,-489,0,0,0,0,0,0,0,0,0,-1,587,1513,0,0
-630,-489,0,0,0,0,0,0,0,0,0,-1,594,1513,0,0
-623,-489,0,0,0,0,0,0,0,0,0,-1,601,1513,0,0
-616,-489,0,0,0,0,0,0,0,0,0,-1,608,1513,0,0
-609,-489,0,0,0,0,0,0,0,0,0,-1,615,1513,0,0
-602,-489,0,0,0,0,0,0,0,0,0,-1,622,1513,0,0
-595,-489,0,0,0,0,0,0,0,0,0,-1,629,1513,0,0
-588,-489,0,0,0,0,0,0,0,0,0,-1,636,1513,0,0
-581,-489,0,0,0,0,0,0,0,0,0,-1,643,1513,0,0
-574,-489,0,0,0,0,0,0,0,0,0,-1,650,1513,0,0
-567,-489,0,0,0,0,0,0,0,0,0,-1,657,1513,0,0
-560,-489,0,0,0,0,0,0,0,0,0,-1,664,1513,0,0
-553,-489,-0.412476,2.6333,-0.027743,-0.0802691,0.0105831,-0.0256909,-0.0823212,0.19153,0.0486342,0.0457674,671,1513,-0.412488,-2.63333
-546,-489,-0.731384,2.81799,-0.0263914,-0.0560349,0.00956495,-0.0235731,-0.0588532,0.286544,0.0342023,0.0488299,678,1513,-0.7314,-2.81803
-539,-489,-1.04999,3.02136,-0.0237317,-0.0356668,0.00786338,-0.0198279,-0.0395706,0.460812,0.0228461,0.0479021,685,1513,-1.04996,-3.02139
-532,-489,0.194092,-0.98938,-0.0206808,-0.0191885,0.00620113,-0.0136888,-0.0261805,0.84527,0.0151206,0.0448803,692,1513,0.194118,0.989399
-525,-489,-0.0151978,-0.564209,-0.0173925,-0.0067369,0.00456522,-0.00504852,-0.0190809,1.21656,0.0114161,0.0418493,699,1513,-0.0152048,0.564174
-518,-489,0.52533,-0.16748,-0.014058,0.00204306,0.0030394,0.0025977,-0.0146126,1.3903,0.0107132,0.0452488,706,1513,0.525315,0.167531
-511,-489,-0.594482,0.604126,0,0,0,0,0,0,0,-1,713,1513,-0.5945,-0.604097
-504,-489,-0.0988159,0.0314941,0,0,0,0,0,0,0,-1,720,1513,-0.0988116,-0.0315098
-497,-489,-0.0618896,-0.0229492,-0.00527153,0.0127616,0.000267759,0.0127656,-0.00527551,1.55595,0.0107111,0.0371697,727,1513,-0.0619039,0.0229044
-490,-489,-0.0296631,-0.0681152,-0.00350511,0.0124678,1.27299e-05,0.0124678,-0.00350512,1.57,0.00969382,0.0182952,734,1513,-0.0296892,0.0681722
-483,-489,-0.00830078,-0.0770264,-0.00261483,0.0120666,-0.000301192,0.0120728,-0.002621,-1.55029,0.0090496,0.00947536,741,1513,-0.00831432,0.0770769
-476,-489,-0.015564,-0.078125,-0.0011684,0.00909044,2.87897e-05,0.00909052,-0.00116848,1.56799,0.00648503,0.00922794,748,1513,-0.0155782,0.0780972
-469,-489,-0.0332031,-0.0844727,0.000445394,0.00629958,-0.000127872,0.00630237,0.000442602,-1.54897,0.00406209,0.0102114,755,1513,-0.0332156,0.0844422
-462,-489,-0.0131226,-0.111694,0.00159817,0.00389642,-0.000323621,0.00394112,0.00155347,-1.43354,0.00229233,0.014643,762,1513,-0.0131001,0.111676
-455,-489,0.00994873,-0.124023,0.00157589,0.00219933,-0.000299579,0.00231995,0.00145527,-1.18803,0.00135381,0.0170138,769,1513,0.00997469,0.124083
-448,-489,0.0137329,-0.0882568,0.000748575,3.79316e-05,0.00052846,0.00103006,-0.000243554,0.489427,0.00078066,0.0148581,776,1513,0.0137234,0.088252
-441,-489,-0.00927734,-0.0771484,0.000543584,-0.000883062,0.000632635,0.000783706,-0.00112318,0.362761,0.00110674,0.0128756,783,1513,-0.0092485,0.0771736
-434,-489,-0.0507202,-0.0651855,0.000403293,-0.00166404,0.000494517,0.000515495,-0.00177625,0.223113,0.00138827,0.0140687,790,1513,-0.0507157,0.0651719
-427,-489,-0.0681152,-0.0437012,-0.000545302,-0.000997601,0.000552184,-0.000174751,-0.00136815,0.59104,0.000859791,0.0155969,797,1513,-0.0680991,0.0436909
-420,-489,-0.0687866,-0.0272217,-0.00125257,-0.000769667,0.000989134,7.05931e-06,-0.0020293,0.905109,0.00135522,0.0156373,804,1513,-0.0688048,0.0272504
-413,-489,-0.0558472,-0.0405273,-0.00218147,-0.000561819,0.00140835,0.000252936,-0.00299623,1.04632,0.00208691,0.0157678,811,1513,-0.0558433,0.0405567
-406,-489,-0.0360107,-0.114502,-0.00411299,-4.89544e-06,0.00159022,0.000538731,-0.00465662,1.24139,0.00329868,0.019873,818,1513,-0.0360316,0.114513
-399,-489,-0.0424805,-0.14563,-0.00726778,0.00153618,0.00147227,0.00177586,-0.00750746,1.40942,0.00569006,0.0316267,825,1513,-0.0424692,0.145648
-392,-489,-0.0771484,0.0438232,-0.0116398,0.00401884,0.000867832,0.00406679,-0.0116878,1.5156,0.00944399,0.0383672,832,1513,-0.0771254,-0.0438598
-385,-489,-0.0952148,0.128052,-0.0168713,0.00634346,-0.000501688,0.0063543,-0.0168821,-1.5492,0.0138669,0.0419649,839,1513,-0.0952198,-0.12809
-378,-489,-0.132568,0.12915,-0.0227227,0.00936729,-0.00208723,0.00950248,-0.0228579,-1.50612,0.0192063,0.0411577,846,1513,-0.132561,-0.129109
-371,-489,-0.0446167,-0.0316162,-0.029933,0.0128648,-0.00449891,0.0133327,-0.0304008,-1.46719,0.0258826,0.0397621,853,1513,-0.0445937,0.0316685
-364,-489,0.21228,-0.340576,-0.0381653,0.0165062,-0.00786209,0.0176143,-0.0392734,-1.43077,0.0336283,0.0387501,860,1513,0.212258,0.340631
-357,-489,-1.50012,0.24231,0,0,0,0,0,0,0,-1,867,1513,-1.50015,-0.242267
-350,-489,-2.27972,0.413574,-0.0562251,0.0225274,-0.0163197,0.0257754,-0.059473,-1.37434,0.0504836,0.0468349,874,1513,-2.27974,-0.413584
-343,-489,-2.76935,0.744751,-0.064747,0.0220751,-0.0205406,0.0266894,-0.0693613,-1.34982,0.0572501,0.0449745,881,1513,-2.76938,-0.744765
-336,-489,-3.67126,-0.997559,0,0,0,0,0,0,0,-1,888,1513,-3.67124,0.997565
-329,-489,0.45874,0.473511,0,0,0,0,0,0,0,-1,895,1513,0.458739,-0.47348
-322,-489,0,0,0,0,0,0,0,0,0,-1,902,1513,0,0
-315,-489,0,0,0,0,0,0,0,0,0,-1,909,1513,0,0
-308,-489,0,0,0,0,0,0,0,0,0,-1,916,1513,0,0
-301,-489,0,0,0,0,0,0,0,0,0,-1,923,1513,0,0
-294,-489,0,0,0,0,0,0,0,0,0,-1,930,1513,0,0
-287,-489,0,0,0,0,0,0,0,0,0,-1,937,1513,0,0
-280,-489,0,0,0,0,0,0,0,0,0,-1,944,1513,0,0
-273,-489,0,0,0,0,0,0,0,0,0,-1,951,1513,0,0
-266,-489,0,0,0,0,0,0,0,0,0,-1,958,1513,0,0
-259,-489,0,0,0,0,0,0,0,0,0,-1,965,1513,0,0
-252,-489,0,0,0,0,0,0,0,0,0,-1,972,1513,0,0
-245,-489,0,0,0,0,0,0,0,0,0,-1,979,1513,0,0
-238,-489,0,0,0,0,0,0,0,0,0,-1,986,1513,0,0
-231,-489,0,0,0,0,0,0,0,0,0,-1,993,1513,0,0
-224,-489,0,0,0,0,0,0,0,0,0,-1,1000,1513,0,0
-217,-489,0,0,0,0,0,0,0,0,0,-1,1007,1513,0,0
-210,-489,0,0,0,0,0,0,0,0,0,-1,1014,1513,0,0
-203,-489,0,0,0,0,0,0,0,0,0,-1,1021,1513,0,0
-196,-489,0,0,0,0,0,0,0,0,0,-1,1028,1513,0,0
-189,-489,0,0,0,0,0,0,0,0,0,-1,1035,1513,0,0
-182,-489,0,0,0,0,0,0,0,0,0,-1,1042,1513,0,0
-175,-489,0,0,0,0,0,0,0,0,0,-1,1049,1513,0,0
-168,-489,0,0,0,0,0,0,0,0,0,-1,1056,1513,0,0
-161,-489,0,0,0,0,0,0,0,0,0,-1,1063,1513,0,0
-154,-489,0,0,0,0,0,0,0,0,0,-1,1070,1513,0,0
-147,-489,0,0,0,0,0,0,0,0,0,-1,1077,1513,0,0
-140,-489,0,0,0,0,0,0,0,0,0,-1,1084,1513,0,0
-133,-489,0,0,0,0,0,0,0,0,0,-1,1091,1513,0,0
-126,-489,0,0,0,0,0,0,0,0,0,-1,1098,1513,0,0
-119,-489,0,0,0,0,0,0,0,0,0,-1,1105,1513,0,0
-112,-489,0,0,0,0,0,0,0,0,0,-1,1112,1513,0,0
-105,-489,0,0,0,0,0,0,0,0,0,-1,1119,1513,0,0
-98,-489,0,0,0,0,0,0,0,0,0,-1,1126,1513,0,0
-91,-489,0,0,0,0,0,0,0,0,0,-1,1133,1513,0,0
-84,-489,0,0,0,0,0,0,0,0,0,-1,1140,1513,0,0
-77,-489,0,0,0,0,0,0,0,0,0,-1,1147,1513,0,0
-70,-489,0,0,0,0,0,0,0,0,0,-1,1154,1513,0,0
-63,-489,0,0,0,0,0,0,0,0,0,-1,1161,1513,0,0
-56,-489,0,0,0,0,0,0,0,0,0,-1,1168,1513,0,0
-49,-489,0,0,0,0,0,0,0,0,0,-1,1175,1513,0,0
-42,-489,0,0,0,0,0,0,0,0,0,-1,1182,1513,0,0
-35,-489,0,0,0,0,0,0,0,0,0,-1,1189,1513,0,0
-28,-489,0,0,0,0,0,0,0,0,0,-1,1196,1513,0,0
-21,-489,0,0,0,0,0,0,0,0,0,-1,1203,1513,0,0
-14,-489,0,0,0,0,0,0,0,0,0,-1,1210,1513,0,0
-7,-489,0,0,0,0,0,0,0,0,0,-1,1217,1513,0,0
0,-489,0,0,0,0,0,0,0,0,0,-1,1224,1513,0,0
7,-489,0,0,0,0,0,0,0,0,0,-1,1231,1513,0,0
14,-489,0,0,0,0,0,0,0,0,0,-1,1238,1513,0,0
21,-489,0,0,0,0,0,0,0,0,0,-1,1245,1513,0,0
28,-489,0,0,0,0,0,0,0,0,0,-1,1252,1513,0,0
35,-489,0,0,0,0,0,0,0,0,0,-1,1259,1513,0,0
42,-489,0,0,0,0,0,0,0,0,0,-1,1266,1513,0,0
49,-489,0,0,0,0,0,0,0,0,0,-1,1273,1513,0,0
56,-489,0,0,0,0,0,0,0,0,0,-1,1280,1513,0,0
63,-489,0,0,0,0,0,0,0,0,0,-1,1287,1513,0,0
70,-489,0,0,0,0,0,0,0,0,0,-1,1294,1513,0,0
77,-489,0,0,0,0,0,0,0,0,0,-1,1301,1513,0,0
84,-489,0,0,0,0,0,0,0,0,0,-1,1308,1513,0,0
91,-489,0,0,0,0,0,0,0,0,0,-1,1315,1513,0,0
98,-489,0,0,0,0,0,0,0,0,0,-1,1322,1513,0,0
105,-489,0,0,0,0,0,0,0,0,0,-1,1329,1513,0,0
112,-489,0,0,0,0,0,0,0,0,0,-1,1336,1513,0,0
119,-489,0,0,0,0,0,0,0,0,0,-1,1343,1513,0,0
126,-489,0,0,0,0,0,0,0,0,0,-1,1350,1513,0,0
133,-489,0,0,0,0,0,0,0,0,0,-1,1357,1513,0,0
140,-489,0,0,0,0,0,0,0,0,0,-1,1364,1513,0,0
147,-489,0,0,0,0,0,0,0,0,0,-1,1371,1513,0,0
154,-489,0,0,0,0,0,0,0,0,0,-1,1378,1513,0,0
161,-489,0,0,0,0,0,0,0,0,0,-1,1385,1513,0,0
168,-489,0,0,0,0,0,0,0,0,0,-1,1392,1513,0,0
175,-489,0,0,0,0,0,0,0,0,0,-1,1399,1513,0,0
182,-489,0,0,0,0,0,0,0,0,0,-1,1406,1513,0,0
189,-489,0,0,0,0,0,0,0,0,0,-1,1413,1513,0,0
196,-489,0,0,0,0,0,0,0,0,0,-1,1420,1513,0,0
203,-489,0,0,0,0,0,0,0,0,0,-1,1427,1513,0,0
210,-489,0,0,0,0,0,0,0,0,0,-1,1434,1513,0,0
217,-489,0,0,0,0,0,0,0,0,0,-1,1441,1513,0,0
224,-489,0,0,0,0,0,0,0,0,0,-1,1448,1513,0,0
231,-489,0,0,0,0,0,0,0,0,0,-1,1455,1513,0,0
238,-489,0,0,0,0,0,0,0,0,0,-1,1462,1513,0,0
245,-489,0,0,0,0,0,0,0,0,0,-1,1469,1513,0,0
252,-489,0,0,0,0,0,0,0,0,0,-1,1476,1513,0,0
259,-489,0,0,0,0,0,0,0,0,0,-1,1483,1513,0,0
266,-489,0,0,0,0,0,0,0,0,0,-1,1490,1513,0,0
273,-489,0,0,0,0,0,0,0,0,0,-1,1497,1513,0,0
280,-489,0,0,0,0,0,0,0,0,0,-1,1504,1513,0,0
287,-489,0,0,0,0,0,0,0,0,0,-1,1511,1513,0,0
294,-489,0,0,0,0,0,0,0,0,0,-1,1518,1513,0,0
301,-489,0,0,0,0,0,0,0,0,0,-1,1525,1513,0,0
308,-489,0,0,0,0,0,0,0,0,0,-1,1532,1513,0,0
315,-489,0,0,0,0,0,0,0,0,0,-1,1539,1513,0,0
322,-489,0,0,0,0,0,0,0,0,0,-1,1546,1513,0,0
329,-489,0,0,0,0,0,0,0,0,0,-1,1553,1513,0,0
336,-489,0,0,0,0,0,0,0,0,0,-1,1560,1513,0,0
343,-489,0,0,0,0,0,0,0,0,0,-1,1567,1513,0,0
350,-489,0,0,0,0,0,0,0,0,0,-1,1574,1513,0,0
357,-489,0,0,0,0,0,0,0,0,0,-1,1581,1513,0,0
364,-489,0,0,0,0,0,0,0,0,0,-1,1588,1513,0,0
371,-489,0,0,0,0,0,0,0,0,0,-1,1595,1513,0,0
378,-489,0,0,0,0,0,0,0,0,0,-1,1602,1513,0,0
385,-489,0,0,0,0,0,0,0,0,0,-1,1609,1513,0,0
392,-489,0,0,0,0,0,0,0,0,0,-1,1616,1513,0,0
399,-489,0,0,0,0,0,0,0,0,0,-1,1623,1513,0,0
406,-489,0,0,0,0,0,0,0,0,0,-1,1630,1513,0,0
413,-489,0,0,0,0,0,0,0,0,0,-1,1637,1513,0,0
420,-489,0,0,0,0,0,0,0,0,0,-1,1644,1513,0,0
427,-489,0,0,0,0,0,0,0,0,0,-1,1651,1513,0,0
434,-489,0,0,0,0,0,0,0,0,0,-1,1658,1513,0,0
441,-489,0.546143,0.380249,-0.0106084,-0.000356272,-0.00900891,0.00488286,-0.0158475,-1.04405,0.0125143,0.0416758,1665,1513,0.546149,-0.380255
448,-489,0.552612,0.33313,-0.00889335,0.000984962,-0.00845202,0.00583518,-0.0137436,-1.04982,0.0116071,0.0413484,1672,1513,0.552619,-0.33317
455,-489,0.639282,0.151733,-0.00697416,0.000757542,-0.00719815,0.00506226,-0.0112789,-1.03183,0.00965945,0.0422153,1679,1513,0.639294,-0.151734
462,-489,0.540405,-0.235596,-0.00594207,-0.000402267,-0.00575326,0.00321315,-0.00955749,-1.00975,0.00767043,0.0446354,1686,1513,0.540457,0.235638
469,-489,0.387695,-0.558716,-0.00529557,0.000542789,-0.00387646,0.00247629,-0.00722908,-1.10812,0.00582305,0.0435459,1693,1513,0.38774,0.558751
476,-489,0.470947,0.123169,0,0,0,0,0,0,0,-1,1700,1513,0.470942,-0.123119
483,-489,0.574951,-0.0603027,-0.00432008,0.00250216,-0.000450111,0.00253173,-0.00434965,-1.5052,0.00401891,0.0448592,1707,1513,0.574979,0.060264
490,-489,0.454712,-0.315063,-0.00406396,0.00215381,0.000768147,0.0022473,-0.00415745,1.44968,0.0037522,0.044932,1714,1513,0.454672,0.315097
497,-489,0.381958,-0.607788,-0.0039295,0.00233592,0.00151633,0.0026836,-0.00427718,1.3454,0.00405376,0.041606,1721,1513,0.381934,0.607824
504,-489,0.317627,-0.444946,-0.00395204,0.00254988,0.00186024,0.00304448,-0.00444664,1.31093,0.00435018,0.0415373,1728,1513,0.317566,0.444977
511,-489,0.0899658,0.0601807,-0.00364307,0.00381603,0.00217284,0.00440282,-0.00422986,1.30703,0.00498441,0.044293,1735,1513,0.0900114,-0.0601375
518,-489,0.0692139,-0.0544434,-0.00309309,0.00439697,0.00234708,0.00507167,-0.00376779,1.29088,0.00512194,0.0468326,1742,1513,0.0692628,0.0544892
525,-489,0.0516357,-0.117554,-0.00234146,0.00437093,0.00221548,0.00503623,-0.00300676,1.27907,0.00469264,0.043603,1749,1513,0.0516438,0.117527
532,-489,-0.0423584,-0.00292969,-0.00176519,0.00423772,0.00175211,0.00471169,-0.00223916,1.3066,0.00409684,0.0317799,1756,1513,-0.0423894,0.00290036
539,-489,-0.0291748,-0.0455322,-0.00120039,0.00407506,0.00131063,0.00438273,-0.00150806,1.34022,0.00353346,0.0146942,1763,1513,-0.0292099,0.0455793
546,-489,-0.027832,-0.0634766,-0.000642647,0.00385244,0.00106896,0.0040937,-0.000883905,1.34882,0.00306653,0.0100782,1770,1513,-0.0278031,0.063427
553,-489,-0.0253906,-0.0776367,-0.000100737,0.0032345,0.000638138,0.00335243,-0.000218663,1.38806,0.00231129,0.0126829,1777,1513,-0.0254513,0.0776859
560,-489,-0.0135498,-0.0792236,0.000134506,0.00291382,0.000324258,0.00295115,9.71765e-05,1.45618,0.00193585,0.0123176,1784,1513,-0.0135875,0.0791734
567,-489,-0.0245361,-0.0727539,0.000151965,0.0023446,0.00017432,0.00235838,0.000138193,1.49195,0.00152827,0.0135859,1791,1513,-0.0245619,0.072779
574,-489,-0.0472412,-0.0592041,0.000279124,0.00186967,0.000254021,0.00190925,0.00023954,1.41621,0.00120098,0.013462,1798,1513,-0.0471869,0.0591909
581,-489,-0.0289307,-0.0700684,0.0005124,0.00124325,0.000245667,0.00131815,0.000437498,1.27486,0.000775238,0.00981429,1805,1513,-0.028874,0.0701129
588,-489,-0.0239258,-0.0830078,0.00032103,0.000931495,0.000168882,0.000975101,0.000277424,1.31811,0.000580141,0.0122087,1812,1513,-0.0239823,0.0830112
595,-489,-0.0133057,-0.107788,-0.000302864,0.00140274,1.19681e-05,0.00140283,-0.000302948,1.56378,0.00105086,0.0175547,1819,1513,-0.0132804,0.107755
602,-489,-0.00793457,-0.115601,-0.00111682,0.00235427,-0.000246151,0.00237164,-0.00113418,-1.50035,0.00206569,0.0208441,1826,1513,-0.00791144,0.115568
609,-489,-0.0078125,-0.122437,-0.00210662,0.0041244,-0.000530098,0.00416918,-0.00215139,-1.48653,0.00371065,0.0144273,1833,1513,-0.00778813,0.122495
616,-489,-0.0206299,-0.0991211,-0.00316212,0.00621225,-0.000800033,0.00628004,-0.0032299,-1.48627,0.00558391,0.00912596,1840,1513,-0.020607,0.0990617
623,-489,-0.0148926,-0.0810547,-0.00479032,0.00908353,-0.00125821,0.00919672,-0.0049035,-1.48108,0.00826559,0.0123964,1847,1513,-0.0148397,0.0810669
630,-489,0,-0.0817871,-0.00707021,0.0124256,-0.00193045,0.0126149,-0.00725952,-1.47304,0.0116125,0.0280087,1854,1513,5.32144e-05,0.0817351
637,-489,-0.105591,-0.305542,-0.00972368,0.0162946,-0.00273866,0.0165798,-0.0100088,-1.46705,0.0155064,0.0420225,1861,1513,-0.105575,0.305526
644,-489,-0.468018,-0.807251,-0.0128345,0.0211955,-0.00373381,0.0216003,-0.0132394,-1.46279,0.0203069,0.0441763,1868,1513,-0.467998,0.807299
651,-489,-0.841675,-1.08997,-0.0161839,0.0265655,-0.00486696,0.0271126,-0.016731,-1.45886,0.0255486,0.0446272,1875,1513,-0.841625,1.08997
658,-489,-1.16956,-1.33533,-0.0197441,0.0318589,-0.00623799,0.0326022,-0.0204875,-1.45219,0.0309162,0.0464175,1882,1513,-1.16959,1.33538
665,-489,-1.29517,-1.45178,-0.0232133,0.0365022,-0.00778053,0.0374993,-0.0242104,-1.44334,0.0359024,0.048653,1889,1513,-1.29514,1.45182
672,-489,0,0,0,0,0,0,0,0,0,-1,1896,1513,0,0
679,-489,0,0,0,0,0,0,0,0,0,-1,1903,1513,0,0
686,-489,0,0,0,0,0,0,0,0,0,-1,1910,1513,0,0
693,-489,0,0,0,0,0,0,0,0,0,-1,1917,1513,0,0
700,-489,0,0,0,0,0,0,0,0,0,-1,1924,1513,0,0
707,-489,0,0,0,0,0,0,0,0,0,-1,1931,1513,0,0
714,-489,0,0,0,0,0,0,0,0,0,-1,1938,1513,0,0
721,-489,0,0,0,0,0,0,0,0,0,-1,1945,1513,0,0
728,-489,0,0,0,0,0,0,0,0,0,-1,1952,1513,0,0
735,-489,0,0,0,0,0,0,0,0,0,-1,1959,1513,0,0
742,-489,0,0,0,0,0,0,0,0,0,-1,1966,1513,0,0
749,-489,0,0,0,0,0,0,0,0,0,-1,1973,1513,0,0
756,-489,0,0,0,0,0,0,0,0,0,-1,1980,1513,0,0
763,-489,0,0,0,0,0,0,0,0,0,-1,1987,1513,0,0
770,-489,0,0,0,0,0,0,0,0,0,-1,1994,1513,0,0
777,-489,0,0,0,0,0,0,0,0,0,-1,2001,1513,0,0
784,-489,0,0,0,0,0,0,0,0,0,-1,2008,1513,0,0
791,-489,0,0,0,0,0,0,0,0,0,-1,2015,1513,0,0
798,-489,0,0,0,0,0,0,0,0,0,-1,2022,1513,0,0
805,-489,0,0,0,0,0,0,0,0,0,-1,2029,1513,0,0
812,-489,0,0,0,0,0,0,0,0,0,-1,2036,1513,0,0
-700,-496,0,0,0,0,0,0,0,0,0,-1,524,1520,0,0
-693,-496,0,0,0,0,0,0,0,0,0,-1,531,1520,0,0
-686,-496,0,0,0,0,0,0,0,0,0,-1,538,1520,0,0
-679,-496,0,0,0,0,0,0,0,0,0,-1,545,1520,0,0
-672,-496,0,0,0,0,0,0,0,0,0,-1,552,1520,0,0
-665,-496,0,0,0,0,0,0,0,0,0,-1,559,1520,0,0
-658,-496,0,0,0,0,0,0,0,0,0,-1,566,1520,0,0
-651,-496,0,0,0,0,0,0,0,0,0,-1,573,1520,0,0
-644,-496,0,0,0,0,0,0,0,0,0,-1,580,1520,0,0
-637,-496,0,0,0,0,0,0,0,0,0,-1,587,1520,0,0
-630,-496,0,0,0,0,0,0,0,0,0,-1,594,1520,0,0
-623,-496,0,0,0,0,0,0,0,0,0,-1,601,1520,0,0
-616,-496,0,0,0,0,0,0,0,0,0,-1,608,1520,0,0
-609,-496,0,0,0,0,0,0,0,0,0,-1,615,1520,0,0
-602,-496,0,0,0,0,0,0,0,0,0,-1,622,1520,0,0
-595,-496,0,0,0,0,0,0,0,0,0,-1,629,1520,0,0
-588,-496,0,0,0,0,0,0,0,0,0,-1,636,1520,0,0
-581,-496,0,0,0,0,0,0,0,0,0,-1,643,1520,0,0
-574,-496,0,0,0,0,0,0,0,0,0,-1,650,1520,0,0
-567,-496,0,0,0,0,0,0,0,0,0,-1,657,1520,0,0
-560,-496,0,0,0,0,0,0,0,0,0,-1,664,1520,0,0
-553,-496,0,0,0,0,0,0,0,0,0,-1,671,1520,0,0
-546,-496,-1.34619,3.61218,0,0,0,0,0,0,0,-1,678,1520,-1.34619,-3.61215
-539,-496,4.48865,-3.14856,0,0,0,0,0,0,0,-1,685,1520,4.48867,3.14859
-532,-496,2.9895,-1.77344,0,0,0,0,0,0,0,-1,692,1520,2.98953,1.77338
-525,-496,2.04962,-1.11426,-0.0228434,0.000380031,0.00565947,0.0016858,-0.0241492,1.34404,0.0166898,0.0484058,699,1520,2.04963,1.11421
-518,-496,0.851196,-0.431641,-0.0184297,0.00916489,0.00408993,0.00975832,-0.0190231,1.42671,0.0169015,0.0466029,706,1520,0.851172,0.431595
-511,-496,-0.342834,0.200439,0,0,0,0,0,0,0,-1,713,1520,-0.342812,-0.200456
-504,-496,-1.14594,1.46863,-0.0104442,0.0169317,0.00181516,0.0170515,-0.010564,1.50488,0.0160898,0.0447024,720,1520,-1.14594,-1.4686
-497,-496,0.0593262,-0.0189209,-0.00710271,0.0177402,0.000915238,0.0177739,-0.00713638,1.53402,0.0148126,0.0464729,727,1520,0.0593482,0.0188865
-490,-496,0.0288696,-0.0714111,-0.00479786,0.0165041,0.000539217,0.0165178,-0.0048115,1.5455,0.0129179,0.0349977,734,1520,0.0288653,0.0713931
-483,-496,-0.00158691,-0.0922852,-0.00353559,0.0152333,0.000116403,0.015234,-0.00353631,1.56459,0.0115172,0.0164795,741,1520,-0.00159266,0.0922834
-476,-496,-0.0253906,-0.0998535,-0.0017517,0.011579,0.000341859,0.0115878,-0.00176046,1.54517,0.00837393,0.00950533,748,1520,-0.0254153,0.0998477
-469,-496,-0.0410156,-0.0786133,7.30347e-05,0.00823246,0.000107708,0.00823389,7.16127e-05,1.5576,0.00546554,0.0104531,755,1520,-0.0410416,0.0786148
-462,-496,-0.0196533,-0.0839844,0.0013101,0.00529336,-0.000173237,0.00530088,0.00130258,-1.52741,0.00318965,0.0151452,762,1520,-0.0196796,0.0840239
-455,-496,0.003479,-0.0914307,0.00121368,0.00315435,-0.000237875,0.00318309,0.00118495,-1.45059,0.00185764,0.0189458,769,1520,0.00345989,0.091472
-448,-496,0.0113525,-0.0926514,0.000327672,0.000617465,0.000549992,0.00104133,-9.61901e-05,0.914197,0.000728402,0.0168694,776,1520,0.0113536,0.092621
-441,-496,-0.00567627,-0.079834,0.000177905,-0.000302311,0.000608852,0.000592284,-0.00071669,0.59758,0.000756873,0.0127046,783,1520,-0.00567588,0.0798086
-434,-496,-0.0361328,-0.0651855,0.000138916,-0.00104985,0.00042242,0.000273731,-0.00118467,0.308931,0.000895083,0.0117361,790,1520,-0.0361108,0.065153
-427,-496,-0.0273438,-0.0511475,-0.000659665,-0.000668678,0.000378079,-0.000286066,-0.00104228,0.779439,0.000621831,0.0150598,797,1520,-0.0273712,0.0511105
-420,-496,-0.013855,-0.0582275,-0.00122467,-0.000563547,0.000757524,-6.76016e-05,-0.00172061,0.991129,0.00112522,0.0167929,804,1520,-0.013857,0.0582215
-413,-496,-0.0184326,-0.0758057,-0.00193253,-0.000551991,0.00107262,3.32785e-05,-0.00251779,1.07131,0.00168973,0.0147564,811,1520,-0.0184338,0.07575
-406,-496,-0.0182495,-0.095459,-0.00354814,-0.000287833,0.00115991,8.27101e-05,-0.00391868,1.26158,0.00264046,0.0140074,818,1520,-0.0182658,0.0954672
-399,-496,-0.0195313,-0.0916748,-0.00629104,0.000872266,0.00095843,0.000998285,-0.00641706,1.44006,0.00464669,0.0177729,825,1520,-0.0195043,0.0916408
-392,-496,-0.0408325,-0.0499268,-0.0101957,0.00289007,0.000260334,0.00289525,-0.0102009,1.55091,0.00794352,0.026363,832,1520,-0.0408275,0.0499326
-385,-496,-0.050293,-0.0411377,-0.0148424,0.00468046,-0.00118963,0.00475269,-0.0149146,-1.51016,0.0118494,0.0386629,839,1520,-0.0502695,0.0411518
-378,-496,-0.0492554,-0.191528,-0.0199131,0.00696826,-0.00280813,0.00725847,-0.0202033,-1.46781,0.0164317,0.0423924,846,1520,-0.0492261,0.191502
-371,-496,-0.242554,-0.340698,-0.0262488,0.00969902,-0.00517206,0.0104284,-0.0269782,-1.4307,0.0222901,0.0406561,853,1520,-0.242542,0.340698
-364,-496,-0.273987,-0.195313,-0.0333059,0.012425,-0.00841726,0.0139251,-0.034806,-1.39443,0.0289831,0.0410573,860,1520,-0.274011,0.195307
-357,-496,-0.87738,-0.081543,0,0,0,0,0,0,0,-1,867,1520,-0.877401,0.0814978
-350,-496,-1.65808,0.0352783,-0.0478845,0.016675,-0.0154252,0.0201711,-0.0513807,-1.34791,0.0426003,0.0403518,874,1520,-1.65809,-0.035231
-343,-496,-2.37366,-0.0283203,-0.0541074,0.0155184,-0.0187093,0.0202273,-0.0588163,-1.32423,0.047414,0.0428841,881,1520,-2.37365,0.0283571
-336,-496,-3.177,-0.714722,-0.0578661,0.0116386,-0.020832,0.0174041,-0.0636316,-1.30079,0.0492582,0.0460312,888,1520,-3.17702,0.714673
-329,-496,-4.04498,-1.4375,0,0,0,0,0,0,0,-1,895,1520,-4.04498,1.43754
-322,-496,3.89313,0.985962,0,0,0,0,0,0,0,-1,902,1520,3.89314,-0.985987
-315,-496,4.79059,1.79688,0,0,0,0,0,0,0,-1,909,1520,4.79061,-1.79686
-308,-496,0,0,0,0,0,0,0,0,0,-1,916,1520,0,0
-301,-496,0,0,0,0,0,0,0,0,0,-1,923,1520,0,0
-294,-496,0,0,0,0,0,0,0,0,0,-1,930,1520,0,0
-287,-496,0,0,0,0,0,0,0,0,0,-1,937,1520,0,0
-280,-496,0,0,0,0,0,0,0,0,0,-1,944,1520,0,0
-273,-496,0,0,0,0,0,0,0,0,0,-1,951,1520,0,0
-266,-496,0,0,0,0,0,0,0,0,0,-1,958,1520,0,0
-259,-496,0,0,0,0,0,0,0,0,0,-1,965,1520,0,0
-252,-496,0,0,0,0,0,0,0,0,0,-1,972,1520,0,0
-245,-496,0,0,0,0,0,0,0,0,0,-1,979,1520,0,0
-238,-496,0,0,0,0,0,0,0,0,0,-1,986,1520,0,0
-231,-496,0,0,0,0,0,0,0,0,0,-1,993,1520,0,0
-224,-496,0,0,0,0,0,0,0,0,0,-1,1000,1520,0,0
-217,-496,0,0,0,0,0,0,0,0,0,-1,1007,1520,0,0
-210,-496,0,0,0,0,0,0,0,0,0,-1,1014,1520,0,0
-203,-496,0,0,0,0,0,0,0,0,0,-1,1021,1520,0,0
-196,-496,0,0,0,0,0,0,0,0,0,-1,1028,1520,0,0
-189,-496,0,0,0,0,0,0,0,0,0,-1,1035,1520,0,0
-182,-496,0,0,0,0,0,0,0,0,0,-1,1042,1520,0,0
-175,-496,0,0,0,0,0,0,0,0,0,-1,1049,1520,0,0
-168,-496,0,0,0,0,0,0,0,0,0,-1,1056,1520,0,0
-161,-496,0,0,0,0,0,0,0,0,0,-1,1063,1520,0,0
-154,-496,0,0,0,0,0,0,0,0,0,-1,1070,1520,0,0
-147,-496,0,0,0,0,0,0,0,0,0,-1,1077,1520,0,0
-140,-496,0,0,0,0,0,0,0,0,0,-1,1084,1520,0,0
-133,-496,0,0,0,0,0,0,0,0,0,-1,1091,1520,0,0
-126,-496,0,0,0,0,0,0,0,0,0,-1,1098,1520,0,0
-119,-496,0,0,0,0,0,0,0,0,0,-1,1105,1520,0,0
-112,-496,0,0,0,0,0,0,0,0,0,-1,1112,1520,0,0
-105,-496,0,0,0,0,0,0,0,0,0,-1,1119,1520,0,0
-98,-496,0,0,0,0,0,0,0,0,0,-1,1126,1520,0,0
-91,-496,0,0,0,0,0,0,0,0,0,-1,1133,1520,0,0
-84,-496,0,0,0,0,0,0,0,0,0,-1,1140,1520,0,0
-77,-496,0,0,0,0,0,0,0,0,0,-1,1147,1520,0,0
-70,-496,0,0,0,0,0,0,0,0,0,-1,1154,1520,0,0
-63,-496,0,0,0,0,0,0,0,0,0,-1,1161,1520,0,0
-56,-496,0,0,0,0,0,0,0,0,0,-1,1168,1520,0,0
-49,-496,0,0,0,0,0,0,0,0,0,-1,1175,1520,0,0
-42,-496,0,0,0,0,0,0,0,0,0,-1,1182,1520,0,0
-35,-496,0,0,0,0,0,0,0,0,0,-1,1189,1520,0,0
-28,-496,0,0,0,0,0,0,0,0,0,-1,1196,1520,0,0
-21,-496,0,0,0,0,0,0,0,0,0,-1,1203,1520,0,0
-14,-496,0,0,0,0,0,0,0,0,0,-1,1210,1520,0,0
-7,-496,0,0,0,0,0,0,0,0,0,-1,1217,1520,0,0
0,-496,0,0,0,0,0,0,0,0,0,-1,1224,1520,0,0
7,-496,0,0,0,0,0,0,0,0,0,-1,1231,1520,0,0
14,-496,0,0,0,0,0,0,0,0,0,-1,1238,1520,0,0
21,-496,0,0,0,0,0,0,0,0,0,-1,1245,1520,0,0
28,-496,0,0,0,0,0,0,0,0,0,-1,1252,1520,0,0
35,-496,0,0,0,0,0,0,0,0,0,-1,1259,1520,0,0
42,-496,0,0,0,0,0,0,0,0,0,-1,1266,1520,0,0
49,-496,0,0,0,0,0,0,0,0,0,-1,1273,1520,0,0
56,-496,0,0,0,0,0,0,0,0,0,-1,1280,1520,0,0
63,-496,0,0,0,0,0,0,0,0,0,-1,1287,1520,0,0
70,-496,0,0,0,0,0,0,0,0,0,-1,1294,1520,0,0
77,-496,0,0,0,0,0,0,0,0,0,-1,1301,1520,0,0
84,-496,0,0,0,0,0,0,0,0,0,-1,1308,1520,0,0
91,-496,0,0,0,0,0,0,0,0,0,-1,1315,1520,0,0
98,-496,0,0,0,0,0,0,0,0,0,-1,1322,1520,0,0
105,-496,0,0,0,0,0,0,0,0,0,-1,1329,1520,0,0
112,-496,0,0,0,0,0,0,0,0,0,-1,1336,1520,0,0
119,-496,0,0,0,0,0,0,0,0,0,-1,1343,1520,0,0
126,-496,0,0,0,0,0,0,0,0,0,-1,1350,1520,0,0
133,-496,0,0,0,0,0,0,0,0,0,-1,1357,1520,0,0
140,-496,0,0,0,0,0,0,0,0,0,-1,1364,1520,0,0
147,-496,0,0,0,0,0,0,0,0,0,-1,1371,1520,0,0
154,-496,0,0,0,0,0,0,0,0,0,-1,1378,1520,0,0
161,-496,0,0,0,0,0,0,0,0,0,-1,1385,1520,0,0
168,-496,0,0,0,0,0,0,0,0,0,-1,1392,1520,0,0
175,-496,0,0,0,0,0,0,0,0,0,-1,1399,1520,0,0
182,-496,0,0,0,0,0,0,0,0,0,-1,1406,1520,0,0
189,-496,0,0,0,0,0,0,0,0,0,-1,1413,1520,0,0
196,-496,0,0,0,0,0,0,0,0,0,-1,1420,1520,0,0
203,-496,0,0,0,0,0,0,0,0,0,-1,1427,1520,0,0
210,-496,0,0,0,0,0,0,0,0,0,-1,1434,1520,0,0
217,-496,0,0,0,0,0,0,0,0,0,-1,1441,1520,0,0
224,-496,0,0,0,0,0,0,0,0,0,-1,1448,1520,0,0
231,-496,0,0,0,0,0,0,0,0,0,-1,1455,1520,0,0
238,-496,0,0,0,0,0,0,0,0,0,-1,1462,1520,0,0
245,-496,0,0,0,0,0,0,0,0,0,-1,1469,1520,0,0
252,-496,0,0,0,0,0,0,0,0,0,-1,1476,1520,0,0
259,-496,0,0,0,0,0,0,0,0,0,-1,1483,1520,0,0
266,-496,0,0,0,0,0,0,0,0,0,-1,1490,1520,0,0
273,-496,0,0,0,0,0,0,0,0,0,-1,1497,1520,0,0
280,-496,0,0,0,0,0,0,0,0,0,-1,1504,1520,0,0
287,-496,0,0,0,0,0,0,0,0,0,-1,1511,1520,0,0
294,-496,0,0,0,0,0,0,0,0,0,-1,1518,1520,0,0
301,-496,0,0,0,0,0,0,0,0,0,-1,1525,1520,0,0
308,-496,0,0,0,0,0,0,0,0,0,-1,1532,1520,0,0
315,-496,0,0,0,0,0,0,0,0,0,-1,1539,1520,0,0
322,-496,0,0,0,0,0,0,0,0,0,-1,1546,1520,0,0
329,-496,0,0,0,0,0,0,0,0,0,-1,1553,1520,0,0
336,-496,0,0,0,0,0,0,0,0,0,-1,1560,1520,0,0
343,-496,0,0,0,0,0,0,0,0,0,-1,1567,1520,0,0
350,-496,0,0,0,0,0,0,0,0,0,-1,1574,1520,0,0
357,-496,0,0,0,0,0,0,0,0,0,-1,1581,1520,0,0
364,-496,0,0,0,0,0,0,0,0,0,-1,1588,1520,0,0
371,-496,0,0,0,0,0,0,0,0,0,-1,1595,1520,0,0
378,-496,0,0,0,0,0,0,0,0,0,-1,1602,1520,0,0
385,-496,0,0,0,0,0,0,0,0,0,-1,1609,1520,0,0
392,-496,0,0,0,0,0,0,0,0,0,-1,1616,1520,0,0
399,-496,0,0,0,0,0,0,0,0,0,-1,1623,1520,0,0
406,-496,0,0,0,0,0,0,0,0,0,-1,1630,1520,0,0
413,-496,0,0,0,0,0,0,0,0,0,-1,1637,1520,0,0
420,-496,0,0,0,0,0,0,0,0,0,-1,1644,1520,0,0
427,-496,0,0,0,0,0,0,0,0,0,-1,1651,1520,0,0
434,-496,0.241577,0.280518,-0.0134491,-0.0030856,-0.00855417,0.00173387,-0.0182686,-1.05772,0.0127962,0.0431004,1658,1520,0.241593,-0.280531
441,-496,0.301514,0.362915,-0.0107289,-0.00152685,-0.00865378,0.003673,-0.0159288,-1.02973,0.0120319,0.0426372,1665,1520,0.301564,-0.362879
448,-496,0.351196,0.343628,-0.00839257,-0.000509142,-0.00807435,0.00453426,-0.013436,-1.01247,0.0107911,0.0417878,1672,1520,0.351256,-0.343674
455,-496,0.677246,0.0614014,0,0,0,0,0,0,0,-1,1679,1520,0.677229,-0.061365
462,-496,0.555176,-0.279419,-0.00508279,-0.00161408,-0.00528039,0.00220949,-0.00890636,-0.944074,0.00679489,0.0437113,1686,1520,0.555213,0.279395
469,-496,0.432495,-0.640991,-0.00431891,-0.000313083,-0.0034963,0.00171337,-0.00634536,-1.04551,0.0049022,0.0430776,1693,1520,0.43251,0.640934
476,-496,0.189453,-0.31543,-0.00373175,0.000682774,-0.00203237,0.00147594,-0.00452491,-1.19871,0.00361058,0.0420746,1700,1520,0.18941,0.315462
483,-496,0.123047,0.144775,-0.00354635,0.001431,-0.00053071,0.00148696,-0.00360231,-1.46574,0.00302171,0.0436739,1707,1520,0.123059,-0.144777
490,-496,0.200195,-0.271362,-0.00349219,0.00103398,0.000567755,0.00110411,-0.00356232,1.44789,0.00281602,0.0450524,1714,1520,0.200208,0.271329
497,-496,0.376587,-0.480103,-0.00361346,0.00117408,0.00111318,0.00142025,-0.00385964,1.35315,0.00315493,0.0417431,1721,1520,0.376548,0.480042
504,-496,0.235229,-0.38562,-0.00386109,0.00133152,0.001321,0.00164826,-0.00417783,1.33546,0.00346777,0.0400452,1728,1520,0.235222,0.385577
511,-496,0.0360107,-0.128418,-0.00370933,0.00244536,0.00150322,0.00279288,-0.00405685,1.3436,0.00397708,0.0401278,1735,1520,0.0359946,0.128424
518,-496,0.0352783,-0.0695801,-0.0032718,0.00294309,0.00159198,0.00332716,-0.00365587,1.33407,0.00403314,0.0408929,1742,1520,0.035247,0.0695863
525,-496,-0.0280762,-0.0596924,-0.00258539,0.00290863,0.00144496,0.00326549,-0.00294225,1.32868,0.00358566,0.0379376,1749,1520,-0.0280763,0.0597371
532,-496,-0.0465088,-0.0488281,-0.00203942,0.00283942,0.00103726,0.00305079,-0.00225079,1.36977,0.00307246,0.0215456,1756,1520,-0.0464648,0.0488195
539,-496,-0.0140381,-0.0700684,-0.0014768,0.00277469,0.000685575,0.00288251,-0.00158462,1.41481,0.00261513,0.011259,1763,1520,-0.0140069,0.0700978
546,-496,-0.019165,-0.081665,-0.000877745,0.00272514,0.000539049,0.00280407,-0.000956666,1.42542,0.0022569,0.00917391,1770,1520,-0.0192044,0.0817136
553,-496,-0.0146484,-0.0823975,-0.000277201,0.00231762,0.000189377,0.00233137,-0.00029095,1.49833,0.00165975,0.0137396,1777,1520,-0.0146668,0.0824475
560,-496,0.00366211,-0.0800781,0.000103496,0.00214676,-2.92592e-05,0.00214718,0.000103077,-1.55648,0.00139836,0.0133187,1784,1520,0.00366405,0.0800579
567,-496,-0.0078125,-0.0776367,0.000276005,0.00177217,-8.32984e-05,0.00177679,0.000271381,-1.51535,0.00110523,0.0115858,1791,1520,-0.00779233,0.077624
574,-496,-0.0223389,-0.0837402,0.000567818,0.00153087,6.20671e-05,0.00153485,0.000563835,1.5067,0.00089648,0.0113096,1798,1520,-0.0222848,0.0837575
581,-496,-0.0229492,-0.0836182,0.00100355,0.00113366,0.000155771,0.00123741,0.000899796,0.9832,0.000738589,0.0113808,1805,1520,-0.0229157,0.0835755
588,-496,-0.019043,-0.0772705,0.00102538,0.00108224,0.00017452,0.00123063,0.000876991,0.866133,0.000731608,0.013936,1812,1520,-0.0190698,0.0773093
595,-496,-0.0284424,-0.0777588,0.000623599,0.00163241,3.97644e-05,0.00163398,0.000622034,1.53146,0.00095229,0.0154732,1819,1520,-0.028484,0.0777582
602,-496,-0.0200195,-0.0750732,1.14647e-05,0.00270074,-0.000199089,0.0027154,-3.19397e-06,-1.4973,0.00181133,0.0160161,1826,1520,-0.0200446,0.0750149
609,-496,-0.0169678,-0.0825195,-0.000828398,0.00463378,-0.000530693,0.00468486,-0.000879482,-1.47483,0.00345393,0.0132487,1833,1520,-0.0169711,0.0825268
616,-496,-0.012085,-0.0780029,-0.0017276,0.00692886,-0.000862857,0.00701403,-0.00181277,-1.47241,0.005383,0.0107457,1840,1520,-0.0121225,0.0779721
623,-496,0.00646973,-0.0250244,-0.00321488,0.0100547,-0.00143172,0.0102074,-0.00336759,-1.46453,0.00816241,0.0206158,1847,1520,0.00642879,0.0250124
630,-496,-0.0618896,0.0732422,-0.00539088,0.0138114,-0.00227061,0.0140763,-0.00565572,-1.45468,0.0117329,0.0347363,1854,1520,-0.0618917,-0.0732561
637,-496,-0.10144,0.149292,0,0,0,0,0,0,0,-1,1861,1520,-0.101459,-0.149269
644,-496,-0.504883,-1.27771,-0.0114739,0.0238297,-0.0046052,0.0244205,-0.0120648,-1.44319,0.0214636,0.0437662,1868,1520,-0.50485,1.27776
651,-496,-0.654053,-1.59277,-0.0154289,0.030012,-0.00618317,0.0308383,-0.0162552,-1.43794,0.0276206,0.0439031,1875,1520,-0.65408,1.59277
658,-496,-1.1134,-1.75513,-0.0197918,0.0362973,-0.00804413,0.0374281,-0.0209227,-1.43113,0.0341351,0.045508,1882,1520,-1.11336,1.75507
665,-496,-1.34436,-1.97815,0,0,0,0,0,0,0,-1,1889,1520,-1.3444,1.9782
672,-496,0,0,0,0,0,0,0,0,0,-1,1896,1520,0,0
679,-496,0,0,0,0,0,0,0,0,0,-1,1903,1520,0,0
686,-496,0,0,0,0,0,0,0,0,0,-1,1910,1520,0,0
693,-496,0,0,0,0,0,0,0,0,0,-1,1917,1520,0,0
700,-496,0,0,0,0,0,0,0,0,0,-1,1924,1520,0,0
707,-496,0,0,0,0,0,0,0,0,0,-1,1931,1520,0,0
714,-496,0,0,0,0,0,0,0,0,0,-1,1938,1520,0,0
721,-496,0,0,0,0,0,0,0,0,0,-1,1945,1520,0,0
728,-496,0,0,0,0,0,0,0,0,0,-1,1952,1520,0,0
735,-496,0,0,0,0,0,0,0,0,0,-1,1959,1520,0,0
742,-496,0,0,0,0,0,0,0,0,0,-1,1966,1520,0,0
749,-496,0,0,0,0,0,0,0,0,0,-1,1973,1520,0,0
756,-496,0,0,0,0,0,0,0,0,0,-1,1980,1520,0,0
763,-496,0,0,0,0,0,0,0,0,0,-1,1987,1520,0,0
770,-496,0,0,0,0,0,0,0,0,0,-1,1994,1520,0,0
777,-496,0,0,0,0,0,0,0,0,0,-1,2001,1520,0,0
784,-496,0,0,0,0,0,0,0,0,0,-1,2008,1520,0,0
791,-496,0,0,0,0,0,0,0,0,0,-1,2015,1520,0,0
798,-496,0,0,0,0,0,0,0,0,0,-1,2022,1520,0,0
805,-496,0,0,0,0,0,0,0,0,0,-1,2029,1520,0,0
812,-496,0,0,0,0,0,0,0,0,0,-1,2036,1520,0,0
-700,-503,0,0,0,0,0,0,0,0,0,-1,524,1527,0,0
-693,-503,0,0,0,0,0,0,0,0,0,-1,531,1527,0,0
-686,-503,0,0,0,0,0,0,0,0,0,-1,538,1527,0,0
-679,-503,0,0,0,0,0,0,0,0,0,-1,545,1527,0,0
-672,-503,0,0,0,0,0,0,0,0,0,-1,552,1527,0,0
-665,-503,0,0,0,0,0,0,0,0,0,-1,559,1527,0,0
-658,-503,0,0,0,0,0,0,0,0,0,-1,566,1527,0,0
-651,-503,0,0,0,0,0,0,0,0,0,-1,573,1527,0,0
-644,-503,0,0,0,0,0,0,0,0,0,-1,580,1527,0,0
-637,-503,0,0,0,0,0,0,0,0,0,-1,587,1527,0,0
-630,-503,0,0,0,0,0,0,0,0,0,-1,594,1527,0,0
-623,-503,0,0,0,0,0,0,0,0,0,-1,601,1527,0,0
-616,-503,0,0,0,0,0,0,0,0,0,-1,608,1527,0,0
-609,-503,0,0,0,0,0,0,0,0,0,-1,615,1527,0,0
-602,-503,0,0,0,0,0,0,0,0,0,-1,622,1527,0,0
-595,-503,0,0,0,0,0,0,0,0,0,-1,629,1527,0,0
-588,-503,0,0,0,0,0,0,0,0,0,-1,636,1527,0,0
-581,-503,0,0,0,0,0,0,0,0,0,-1,643,1527,0,0
-574,-503,0,0,0,0,0,0,0,0,0,-1,650,1527,0,0
-567,-503,0,0,0,0,0,0,0,0,0,-1,657,1527,0,0
-560,-503,0,0,0,0,0,0,0,0,0,-1,664,1527,0,0
-553,-503,0,0,0,0,0,0,0,0,0,-1,671,1527,0,0
-546,-503,0,0,0,0,0,0,0,0,0,-1,678,1527,0,0
-539,-503,4.10645,-2.80286,0,0,0,0,0,0,0,-1,685,1527,4.10643,2.80288
-532,-503,3.33411,-1.77539,-0.0354447,-0.00233831,0.0103221,0.000616269,-0.0383993,1.29201,0.0258074,0.0462877,692,1527,3.33413,1.7754
-525,-503,2.34711,-1.27295,-0.0297831,0.0105265,0.00778558,0.011978,-0.0312345,1.38648,0.0257613,0.043786,699,1527,2.3471,1.27289
-518,-503,1.19006,-0.624268,-0.0242792,0.0186635,0.005723,0.0194132,-0.0250289,1.44055,0.0257268,0.0429986,706,1527,1.19009,0.624303
-511,-503,-0.0852661,0.0710449,0,0,0,0,0,0,0,-1,713,1527,-0.0852694,-0.0710159
-504,-503,-1.11884,1.04504,-0.0144711,0.0241687,0.00271309,0.0243583,-0.0146606,1.50104,0.0227583,0.0445932,720,1527,-1.11883,-1.04503
-497,-503,0.367432,-0.0935059,-0.0104838,0.0237482,0.00154917,0.0238182,-0.0105538,1.52566,0.0203312,0.0468597,727,1527,0.367457,0.0934898
-490,-503,0.196838,-0.146973,-0.0076476,0.0212558,0.000941955,0.0212864,-0.00767826,1.53825,0.017327,0.0440193,734,1527,0.196839,0.147001
-483,-503,0.0990601,-0.053833,-0.00591241,0.0188479,0.000312473,0.0188518,-0.00591635,1.55818,0.0149358,0.0324276,741,1527,0.0990297,0.0538559
-476,-503,-0.00811768,-0.0751953,-0.0036841,0.0144116,0.000348198,0.0144183,-0.00369079,1.55156,0.0110499,0.0144074,748,1527,-0.0081432,0.0752305
-469,-503,-0.0164795,-0.055542,-0.00154185,0.0104509,7.39174e-06,0.0104509,-0.00154186,1.57018,0.00753397,0.00898906,755,1527,-0.016459,0.0555935
-462,-503,-0.0209961,-0.0386963,-6.22235e-05,0.00692605,-0.000347308,0.00694327,-7.94418e-05,-1.52126,0.00465555,0.0106545,762,1527,-0.0209927,0.0386548
-455,-503,-0.0236206,-0.0646973,2.94892e-05,0.00426136,-0.00045519,0.00430977,-1.89182e-05,-1.46485,0.00287951,0.0154171,769,1527,-0.0236007,0.0647573
-448,-503,-0.00408936,-0.0881348,-0.000645003,0.00129755,0.000326227,0.00135088,-0.000698325,1.40878,0.00120294,0.0146271,776,1527,-0.00406514,0.0881795
-441,-503,0.00720215,-0.0892334,-0.000534902,0.000308584,0.000422938,0.000484121,-0.00071044,1.17739,0.000693794,0.0117693,783,1527,0.0072207,0.0892409
-434,-503,-0.00671387,-0.0836182,-0.000345643,-0.000453722,0.000271018,-0.00012333,-0.000676035,0.686991,0.000415724,0.0103041,790,1527,-0.00673211,0.0836595
-427,-503,-0.00518799,-0.071167,-0.000889322,-0.000498595,7.50277e-05,-0.000484683,-0.000903234,1.38746,0.000521948,0.0161791,797,1527,-0.00516486,0.071199
-420,-503,-0.00793457,-0.0644531,-0.00116163,-0.00062837,0.000445808,-0.000375543,-0.00141446,1.0549,0.000846046,0.0174476,804,1527,-0.00791134,0.0643981
-413,-503,-0.0248413,-0.0854492,-0.00163246,-0.000915884,0.000616009,-0.000561545,-0.0019868,1.0488,0.00118266,0.0149831,811,1527,-0.0248167,0.0853988
-406,-503,-0.0293579,-0.0941162,-0.00297229,-0.00103271,0.000522824,-0.000900761,-0.00310424,1.32357,0.00184409,0.0100535,818,1527,-0.0293659,0.0940867
-399,-503,-0.00445557,-0.0830078,-0.00529618,-0.00035952,0.000157744,-0.000354485,-0.00530122,1.53889,0.00342211,0.010028,825,1527,-0.00444923,0.0830313
-392,-503,-0.00390625,-0.0708008,-0.00866921,0.00111156,-0.000684593,0.00115925,-0.00871689,-1.50125,0.00623371,0.0145422,832,1527,-0.00391381,0.0707717
-385,-503,0.00854492,-0.10144,-0.0126645,0.00235616,-0.00224612,0.00268484,-0.0129932,-1.42549,0.00968197,0.0289944,839,1527,0.00852328,0.101494
-378,-503,-0.00787354,-0.225464,-0.0169069,0.00396211,-0.00393502,0.00467943,-0.0176242,-1.39048,0.0135807,0.0383702,846,1527,-0.00787012,0.225425
-371,-503,-0.242126,-0.203003,-0.0222599,0.00603387,-0.00623696,0.00734771,-0.0235737,-1.36318,0.0186538,0.0396674,853,1527,-0.242134,0.203021
-364,-503,-0.506897,-0.0882568,-0.0280307,0.00800738,-0.00925519,0.0102453,-0.0302686,-1.33355,0.0243243,0.0431442,860,1527,-0.506898,0.0882063
-357,-503,-0.467285,-0.327759,-0.0340424,0.00984702,-0.0125933,0.0132037,-0.0373991,-1.31031,0.0303084,0.042452,867,1527,-0.467257,0.327818
-350,-503,-1.04358,-0.148193,-0.0392119,0.0109278,-0.0148021,0.0149715,-0.0432556,-1.30412,0.0349145,0.0407067,874,1527,-1.04358,0.148214
-343,-503,-1.68134,-0.365967,-0.0436282,0.00932247,-0.0170559,0.0143408,-0.0486465,-1.28465,0.0381213,0.0414526,881,1527,-1.68131,0.365923
-336,-503,-2.38831,-0.536133,-0.0463154,0.00537969,-0.0186411,0.0114004,-0.0523362,-1.25839,0.0392468,0.0461628,888,1527,-2.38829,0.536161
-329,-503,-3.08856,-0.70752,0,0,0,0,0,0,0,-1,895,1527,-3.08856,0.70756
-322,-503,4.54303,0.362549,0,0,0,0,0,0,0,-1,902,1527,4.543,-0.362546
-315,-503,5.31482,0.89624,0,0,0,0,0,0,0,-1,909,1527,5.31483,-0.896197
-308,-503,6.04938,1.40845,0,0,0,0,0,0,0,-1,916,1527,6.04937,-1.40842
-301,-503,0,0,0,0,0,0,0,0,0,-1,923,1527,0,0
-294,-503,0,0,0,0,0,0,0,0,0,-1,930,1527,0,0
-287,-503,0,0,0,0,0,0,0,0,0,-1,937,1527,0,0
-280,-503,0,0,0,0,0,0,0,0,0,-1,944,1527,0,0
-273,-503,0,0,0,0,0,0,0,0,0,-1,951,1527,0,0
-266,-503,0,0,0,0,0,0,0,0,0,-1,958,1527,0,0
-259,-503,0,0,0,0,0,0,0,0,0,-1,965,1527,0,0
-252,-503,0,0,0,0,0,0,0,0,0,-1,972,1527,0,0
-245,-503,0,0,0,0,0,0,0,0,0,-1,979,1527,0,0
-238,-503,0,0,0,0,0,0,0,0,0,-1,986,1527,0,0
-231,-503,0,0,0,0,0,0,0,0,0,-1,993,1527,0,0
-224,-503,0,0,0,0,0,0,0,0,0,-1,1000,1527,0,0
-217,-503,0,0,0,0,0,0,0,0,0,-1,1007,1527,0,0
-210,-503,0,0,0,0,0,0,0,0,0,-1,1014,1527,0,0
-203,-503,0,0,0,0,0,0,0,0,0,-1,1021,1527,0,0
-196,-503,0,0,0,0,0,0,0,0,0,-1,1028,1527,0,0
-189,-503,0,0,0,0,0,0,0,0,0,-1,1035,1527,0,0
-182,-503,0,0,0,0,0,0,0,0,0,-1,1042,1527,0,0
-175,-503,0,0,0,0,0,0,0,0,0,-1,1049,1527,0,0
-168,-503,0,0,0,0,0,0,0,0,0,-1,1056,1527,0,0
-161,-503,0,0,0,0,0,0,0,0,0,-1,1063,1527,0,0
-154,-503,0,0,0,0,0,0,0,0,0,-1,1070,1527,0,0
-147,-503,0,0,0,0,0,0,0,0,0,-1,1077,1527,0,0
-140,-503,0,0,0,0,0,0,0,0,0,-1,1084,1527,0,0
-133,-503,0,0,0,0,0,0,0,0,0,-1,1091,1527,0,0
-126,-503,0,0,0,0,0,0,0,0,0,-1,1098,1527,0,0
-119,-503,0,0,0,0,0,0,0,0,0,-1,1105,1527,0,0
-112,-503,0,0,0,0,0,0,0,0,0,-1,1112,1527,0,0
-105,-503,0,0,0,0,0,0,0,0,0,-1,1119,1527,0,0
-98,-503,0,0,0,0,0,0,0,0,0,-1,1126,1527,0,0
-91,-503,0,0,0,0,0,0,0,0,0,-1,1133,1527,0,0
-84,-503,0,0,0,0,0,0,0,0,0,-1,1140,1527,0,0
-77,-503,0,0,0,0,0,0,0,0,0,-1,1147,1527,0,0
-70,-503,0,0,0,0,0,0,0,0,0,-1,1154,1527,0,0
-63,-503,0,0,0,0,0,0,0,0,0,-1,1161,1527,0,0
-56,-503,0,0,0,0,0,0,0,0,0,-1,1168,1527,0,0
-49,-503,0,0,0,0,0,0,0,0,0,-1,1175,1527,0,0
-42,-503,0,0,0,0,0,0,0,0,0,-1,1182,1527,0,0
-35,-503,0,0,0,0,0,0,0,0,0,-1,1189,1527,0,0
-28,-503,0,0,0,0,0,0,0,0,0,-1,1196,1527,0,0
-21,-503,0,0,0,0,0,0,0,0,0,-1,1203,1527,0,0
-14,-503,0,0,0,0,0,0,0,0,0,-1,1210,1527,0,0
-7,-503,0,0,0,0,0,0,0,0,0,-1,1217,1527,0,0
0,-503,0,0,0,0,0,0,0,0,0,-1,1224,1527,0,0
7,-503,0,0,0,0,0,0,0,0,0,-1,1231,1527,0,0
14,-503,0,0,0,0,0,0,0,0,0,-1,1238,1527,0,0
21,-503,0,0,0,0,0,0,0,0,0,-1,1245,1527,0,0
28,-503,0,0,0,0,0,0,0,0,0,-1,1252,1527,0,0
35,-503,0,0,0,0,0,0,0,0,0,-1,1259,1527,0,0
42,-503,0,0,0,0,0,0,0,0,0,-1,1266,1527,0,0
49,-503,0,0,0,0,0,0,0,0,0,-1,1273,1527,0,0
56,-503,0,0,0,0,0,0,0,0,0,-1,1280,1527,0,0
63,-503,0,0,0,0,0,0,0,0,0,-1,1287,1527,0,0
70,-503,0,0,0,0,0,0,0,0,0,-1,1294,1527,0,0
77,-503,0,0,0,0,0,0,0,0,0,-1,1301,1527,0,0
84,-503,0,0,0,0,0,0,0,0,0,-1,1308,1527,0,0
91,-503,0,0,0,0,0,0,0,0,0,-1,1315,1527,0,0
98,-503,0,0,0,0,0,0,0,0,0,-1,1322,1527,0,0
105,-503,0,0,0,0,0,0,0,0,0,-1,1329,1527,0,0
112,-503,0,0,0,0,0,0,0,0,0,-1,1336,1527,0,0
119,-503,0,0,0,0,0,0,0,0,0,-1,1343,1527,0,0
126,-503,0,0,0,0,0,0,0,0,0,-1,1350,1527,0,0
133,-503,0,0,0,0,0,0,0,0,0,-1,1357,1527,0,0
140,-503,0,0,0,0,0,0,0,0,0,-1,1364,1527,0,0
147,-503,0,0,0,0,0,0,0,0,0,-1,1371,1527,0,0
154,-503,0,0,0,0,0,0,0,0,0,-1,1378,1527,0,0
161,-503,0,0,0,0,0,0,0,0,0,-1,1385,1527,0,0
168,-503,0,0,0,0,0,0,0,0,0,-1,1392,1527,0,0
175,-503,0,0,0,0,0,0,0,0,0,-1,1399,1527,0,0
182,-503,0,0,0,0,0,0,0,0,0,-1,1406,1527,0,0
189,-503,0,0,0,0,0,0,0,0,0,-1,1413,1527,0,0
196,-503,0,0,0,0,0,0,0,0,0,-1,1420,1527,0,0
203,-503,0,0,0,0,0,0,0,0,0,-1,1427,1527,0,0
210,-503,0,0,0,0,0,0,0,0,0,-1,1434,1527,0,0
217,-503,0,0,0,0,0,0,0,0,0,-1,1441,1527,0,0
224,-503,0,0,0,0,0,0,0,0,0,-1,1448,1527,0,0
231,-503,0,0,0,0,0,0,0,0,0,-1,1455,1527,0,0
238,-503,0,0,0,0,0,0,0,0,0,-1,1462,1527,0,0
245,-503,0,0,0,0,0,0,0,0,0,-1,1469,1527,0,0
252,-503,0,0,0,0,0,0,0,0,0,-1,1476,1527,0,0
259,-503,0,0,0,0,0,0,0,0,0,-1,1483,1527,0,0
266,-503,0,0,0,0,0,0,0,0,0,-1,1490,1527,0,0
273,-503,0,0,0,0,0,0,0,0,0,-1,1497,1527,0,0
280,-503,0,0,0,0,0,0,0,0,0,-1,1504,1527,0,0
287,-503,0,0,0,0,0,0,0,0,0,-1,1511,1527,0,0
294,-503,0,0,0,0,0,0,0,0,0,-1,1518,1527,0,0
301,-503,0,0,0,0,0,0,0,0,0,-1,1525,1527,0,0
308,-503,0,0,0,0,0,0,0,0,0,-1,1532,1527,0,0
315,-503,0,0,0,0,0,0,0,0,0,-1,1539,1527,0,0
322,-503,0,0,0,0,0,0,0,0,0,-1,1546,1527,0,0
329,-503,0,0,0,0,0,0,0,0,0,-1,1553,1527,0,0
336,-503,0,0,0,0,0,0,0,0,0,-1,1560,1527,0,0
343,-503,0,0,0,0,0,0,0,0,0,-1,1567,1527,0,0
350,-503,0,0,0,0,0,0,0,0,0,-1,1574,1527,0,0
357,-503,0,0,0,0,0,0,0,0,0,-1,1581,1527,0,0
364,-503,0,0,0,0,0,0,0,0,0,-1,1588,1527,0,0
371,-503,0,0,0,0,0,0,0,0,0,-1,1595,1527,0,0
378,-503,0,0,0,0,0,0,0,0,0,-1,1602,1527,0,0
385,-503,0,0,0,0,0,0,0,0,0,-1,1609,1527,0,0
392,-503,0,0,0,0,0,0,0,0,0,-1,1616,1527,0,0
399,-503,0,0,0,0,0,0,0,0,0,-1,1623,1527,0,0
406,-503,0,0,0,0,0,0,0,0,0,-1,1630,1527,0,0
413,-503,0,0,0,0,0,0,0,0,0,-1,1637,1527,0,0
420,-503,0,0,0,0,0,0,0,0,0,-1,1644,1527,0,0
427,-503,0.359619,0.173462,-0.0161233,-0.00199531,-0.00757797,0.00130051,-0.0194191,-1.16055,0.0134006,0.0392104,1651,1527,0.359641,-0.17351
434,-503,0.268311,0.240356,-0.0134668,-0.000855004,-0.00870621,0.00358909,-0.0179109,-1.09882,0.0132994,0.039015,1658,1527,0.26835,-0.240403
441,-503,0.253906,0.046875,-0.0108351,8.14867e-05,-0.00874876,0.00493501,-0.0156887,-1.0643,0.0124349,0.0417188,1665,1527,0.253943,-0.0469096
448,-503,-0.187134,-0.543091,-0.00803777,0.000389032,-0.00806819,0.00527774,-0.0129265,-1.02603,0.010815,0.041254,1672,1527,-0.187137,0.543037
455,-503,0.0991211,-0.390381,-0.00546222,0.000123918,-0.00663713,0.00453173,-0.00987003,-0.984563,0.00850314,0.0407439,1679,1527,0.0991544,0.390389
462,-503,0.316895,-0.402832,-0.00418532,-0.00159504,-0.00504146,0.00231498,-0.00809534,-0.911128,0.00631169,0.0438425,1686,1527,0.316875,0.402867
469,-503,0.503662,-0.482178,0,0,0,0,0,0,0,-1,1693,1527,0.503658,0.482187
476,-503,0.20105,-0.0955811,-0.00239516,0.000237488,-0.00177527,0.0011312,-0.00328888,-1.10441,0.00265135,0.040499,1700,1527,0.201053,0.0955938
483,-503,0.228516,0.0281982,-0.00219661,0.000768691,-0.000253976,0.000790286,-0.00221821,-1.48597,0.00180099,0.0423997,1707,1527,0.22854,-0.0281958
490,-503,0.536621,-0.0500488,-0.00226528,0.000273436,0.000829655,0.00052052,-0.00251237,1.28134,0.00187269,0.0456107,1714,1527,0.536589,0.0500972
497,-503,0.514771,0.022583,-0.00260749,0.000356501,0.00126127,0.000820554,-0.00307154,1.21824,0.00236906,0.0424581,1721,1527,0.514731,-0.022551
504,-503,0.27356,-0.115356,-0.00306879,0.000517944,0.00141621,0.0010097,-0.00356055,1.23658,0.00277225,0.0392151,1728,1527,0.273518,0.115318
511,-503,0.0574951,-0.129883,-0.00307497,0.00153961,0.00152837,0.0019999,-0.00353526,1.27827,0.00323645,0.037762,1735,1527,0.0574716,0.129941
518,-503,0.0211182,-0.0675049,-0.00280463,0.00201833,0.00155171,0.00247443,-0.00326073,1.28491,0.00332155,0.0362692,1742,1527,0.0211206,0.0675146
525,-503,0.0141602,-0.0792236,-0.00229933,0.00201902,0.00136827,0.00241606,-0.00269636,1.28838,0.00295313,0.0242689,1749,1527,0.0141493,0.0792083
532,-503,0.00109863,-0.0784912,-0.00192143,0.00201809,0.000969336,0.00224368,-0.00214702,1.34214,0.00253518,0.0108757,1756,1527,0.00112107,0.0784308
539,-503,-0.0137939,-0.064209,-0.00150823,0.00204252,0.000634203,0.0021524,-0.0016181,1.39925,0.00218417,0.0107087,1763,1527,-0.0137339,0.064268
546,-503,-0.0335693,-0.0739746,-0.00098685,0.00213984,0.000506009,0.00221969,-0.0010667,1.41428,0.00193593,0.0104651,1770,1527,-0.0335351,0.0739917
553,-503,-0.0166016,-0.071167,-0.000486869,0.00190842,0.000184775,0.00192259,-0.000501039,1.49426,0.00147734,0.0125827,1777,1527,-0.0166075,0.0711357
560,-503,-0.00280762,-0.0601807,-9.92522e-05,0.00185739,8.1112e-06,0.00185742,-9.92858e-05,1.56665,0.00127267,0.0127116,1784,1527,-0.0028004,0.0601423
567,-503,-0.00793457,-0.0759277,0.00016986,0.00159921,3.71313e-05,0.00160017,0.000168896,1.54484,0.00101518,0.0117545,1791,1527,-0.00793303,0.0758832
574,-503,-0.0170898,-0.0921631,0.000569193,0.00153754,0.000231453,0.00159002,0.000516715,1.34783,0.000936556,0.0115532,1798,1527,-0.0171154,0.0922107
581,-503,-0.0301514,-0.09375,0.00117993,0.00129417,0.000422042,0.00166294,0.000811163,0.852662,0.000960196,0.012177,1805,1527,-0.0301978,0.0937059
588,-503,-0.0327148,-0.0769043,0.00143159,0.00137452,0.000559916,0.0019637,0.000842417,0.759939,0.00113755,0.0148189,1812,1527,-0.0327586,0.0768459
595,-503,-0.0352783,-0.0616455,0.00135832,0.00194266,0.000542188,0.00226639,0.00103459,1.03253,0.00131015,0.0112091,1819,1527,-0.0352556,0.0616483
602,-503,-0.0297852,-0.0635986,0.00108533,0.00304795,0.000436312,0.00314057,0.000992708,1.36161,0.00185364,0.01192,1826,1527,-0.0297468,0.0635432
609,-503,-0.00732422,-0.0681152,0.000546949,0.00502456,0.00017045,0.00503104,0.000540469,1.5328,0.00318917,0.0140501,1833,1527,-0.00733425,0.0680871
616,-503,-0.00195313,-0.0466309,-1.36211e-05,0.00739008,-0.000118732,0.00739199,-1.55247e-05,-1.55476,0.00493317,0.0167572,1840,1527,-0.00197966,0.0466299
623,-503,-0.0809326,0.121582,-0.001106,0.0106015,-0.000692418,0.0106423,-0.00114681,-1.51193,0.00750639,0.0296843,1847,1527,-0.0809362,-0.121643
630,-503,-0.162109,0.248901,-0.0028756,0.0145965,-0.00158479,0.0147391,-0.00301818,-1.48107,0.0109714,0.0373882,1854,1527,-0.162112,-0.248938
637,-503,-0.517578,-0.727295,0,0,0,0,0,0,0,-1,1861,1527,-0.51763,0.727253
644,-503,-0.731689,-1.43774,-0.00826708,0.0254699,-0.00428841,0.0260065,-0.00880366,-1.44632,0.0208997,0.0462983,1868,1527,-0.731723,1.43779
651,-503,-0.855957,-1.81616,-0.0120365,0.0323554,-0.00622831,0.0332127,-0.0128938,-1.43401,0.0274677,0.0453383,1875,1527,-0.855989,1.81616
658,-503,-1.05994,-2.13953,-0.0161975,0.0396445,-0.00857718,0.0409322,-0.0174853,-1.42177,0.0346211,0.0436281,1882,1527,-1.05996,2.13948
665,-503,0,0,0,0,0,0,0,0,0,-1,1889,1527,0,0
672,-503,0,0,0,0,0,0,0,0,0,-1,1896,1527,0,0
679,-503,0,0,0,0,0,0,0,0,0,-1,1903,1527,0,0
686,-503,0,0,0,0,0,0,0,0,0,-1,1910,1527,0,0
693,-503,0,0,0,0,0,0,0,0,0,-1,1917,1527,0,0
700,-503,0,0,0,0,0,0,0,0,0,-1,1924,1527,0,0
707,-503,0,0,0,0,0,0,0,0,0,-1,1931,1527,0,0
714,-503,0,0,0,0,0,0,0,0,0,-1,1938,1527,0,0
721,-503,0,0,0,0,0,0,0,0,0,-1,1945,1527,0,0
728,-503,0,0,0,0,0,0,0,0,0,-1,1952,1527,0,0
735,-503,0,0,0,0,0,0,0,0,0,-1,1959,1527,0,0
742,-503,0,0,0,0,0,0,0,0,0,-1,1966,1527,0,0
749,-503,0,0,0,0,0,0,0,0,0,-1,1973,1527,0,0
756,-503,0,0,0,0,0,0,0,0,0,-1,1980,1527,0,0
763,-503,0,0,0,0,0,0,0,0,0,-1,1987,1527,0,0
770,-503,0,0,0,0,0,0,0,0,0,-1,1994,1527,0,0
777,-503,0,0,0,0,0,0,0,0,0,-1,2001,1527,0,0
784,-503,0,0,0,0,0,0,0,0,0,-1,2008,1527,0,0
791,-503,0,0,0,0,0,0,0,0,0,-1,2015,1527,0,0
798,-503,0,0,0,0,0,0,0,0,0,-1,2022,1527,0,0
805,-503,0,0,0,0,0,0,0,0,0,-1,2029,1527,0,0
812,-503,0,0,0,0,0,0,0,0,0,-1,2036,1527,0,0
-700,-510,0,0,0,0,0,0,0,0,0,-1,524,1534,0,0
-693,-510,0,0,0,0,0,0,0,0,0,-1,531,1534,0,0
-686,-510,0,0,0,0,0,0,0,0,0,-1,538,1534,0,0
-679,-510,0,0,0,0,0,0,0,0,0,-1,545,1534,0,0
-672,-510,0,0,0,0,0,0,0,0,0,-1,552,1534,0,0
-665,-510,0,0,0,0,0,0,0,0,0,-1,559,1534,0,0
-658,-510,0,0,0,0,0,0,0,0,0,-1,566,1534,0,0
-651,-510,0,0,0,0,0,0,0,0,0,-1,573,1534,0,0
-644,-510,0,0,0,0,0,0,0,0,0,-1,580,1534,0,0
-637,-510,0,0,0,0,0,0,0,0,0,-1,587,1534,0,0
-630,-510,0,0,0,0,0,0,0,0,0,-1,594,1534,0,0
-623,-510,0,0,0,0,0,0,0,0,0,-1,601,1534,0,0
-616,-510,0,0,0,0,0,0,0,0,0,-1,608,1534,0,0
-609,-510,0,0,0,0,0,0,0,0,0,-1,615,1534,0,0
-602,-510,0,0,0,0,0,0,0,0,0,-1,622,1534,0,0
-595,-510,0,0,0,0,0,0,0,0,0,-1,629,1534,0,0
-588,-510,0,0,0,0,0,0,0,0,0,-1,636,1534,0,0
-581,-510,0,0,0,0,0,0,0,0,0,-1,643,1534,0,0
-574,-510,0,0,0,0,0,0,0,0,0,-1,650,1534,0,0
-567,-510,0,0,0,0,0,0,0,0,0,-1,657,1534,0,0
-560,-510,0,0,0,0,0,0,0,0,0,-1,664,1534,0,0
-553,-510,0,0,0,0,0,0,0,0,0,-1,671,1534,0,0
-546,-510,0,0,0,0,0,0,0,0,0,-1,678,1534,0,0
-539,-510,0,0,0,0,0,0,0,0,0,-1,685,1534,0,0
-532,-510,3.66882,-1.77246,-0.0445733,0.0107546,0.0140677,0.014126,-0.0479447,1.33558,0.0375677,0.0436433,692,1534,3.66884,1.77246
-525,-510,2.22137,-1.39673,-0.037472,0.023523,0.0108987,0.0254119,-0.0393609,1.39919,0.0376845,0.0416862,699,1534,2.22135,1.39676
-518,-510,1.51251,-1.11035,-0.0306158,0.0308883,0.00832945,0.0319963,-0.0317239,1.43854,0.036789,0.0417608,706,1534,1.51248,1.11036
-511,-510,0.914917,-1.12549,0,0,0,0,0,0,0,-1,713,1534,0.914911,1.12554
-504,-510,0.476379,-0.341187,-0.0186774,0.0336249,0.0044952,0.0340084,-0.019061,1.48568,0.0310421,0.0466586,720,1534,0.476357,0.341235
-497,-510,0.376953,-0.328125,-0.0139525,0.0316447,0.00303476,0.0318458,-0.0141536,1.50463,0.0272047,0.0410837,727,1534,0.376965,0.328179
-490,-510,0.133972,-0.295776,-0.0105236,0.0276747,0.00210331,0.0277902,-0.010639,1.51595,0.0229119,0.0407077,734,1534,0.133988,0.295795
-483,-510,0.142334,0.00805664,-0.00826925,0.0238878,0.00118103,0.0239312,-0.00831257,1.53414,0.0193302,0.038278,741,1534,0.142309,-0.00805139
-476,-510,0.0142822,-0.0748291,-0.00562438,0.0185659,0.000912747,0.0186003,-0.00565877,1.53314,0.0146552,0.0220653,748,1534,0.0142633,0.0748269
-469,-510,-0.0216675,-0.0672607,-0.00325166,0.0138704,0.000377184,0.0138787,-0.00325997,1.54878,0.0105091,0.00895791,755,1534,-0.0216605,0.067281
-462,-510,-0.0213013,-0.0550537,-0.00160381,0.009618,-0.000136073,0.00961965,-0.00160546,-1.55867,0.0070098,0.00971427,762,1534,-0.0212765,0.0550121
-455,-510,-0.0316772,-0.0653076,-0.00135093,0.00629223,-0.000424857,0.00631578,-0.00137447,-1.51544,0.00473564,0.0114674,769,1534,-0.031691,0.0652581
-448,-510,-0.0101929,-0.0715332,-0.00180145,0.00274051,0.000217034,0.00275086,-0.00181179,1.52316,0.00265278,0.0109979,776,1534,-0.0101973,0.0715022
-441,-510,-0.0206299,-0.0604248,-0.0014508,0.00156347,0.000253498,0.00158464,-0.00147197,1.48748,0.00176513,0.0118968,783,1534,-0.0206542,0.0604537
-434,-510,-0.0656128,-0.0744629,-0.00105538,0.000732969,4.3628e-05,0.000734032,-0.00105644,1.54642,0.0010393,0.0138895,790,1534,-0.0656103,0.0744336
-427,-510,-0.0492554,-0.108765,-0.00135238,0.00019785,-0.000270228,0.000243604,-0.00139814,-1.40307,0.00102301,0.0216668,797,1534,-0.0492649,0.108824
-420,-510,-0.0177612,-0.0910645,-0.00133711,-0.000180022,7.83878e-05,-0.000174736,-0.0013424,1.50346,0.000842745,0.0206384,804,1534,-0.0177366,0.0910267
-413,-510,-0.0269165,-0.0834961,-0.00154908,-0.000654637,0.000157748,-0.000627631,-0.00157608,1.40124,0.000916215,0.0110613,811,1534,-0.0269181,0.083496
-406,-510,-0.0291138,-0.0888672,-0.0025479,-0.00103047,-1.31479e-05,-0.00103036,-0.00254801,-1.56213,0.00148004,0.00964741,818,1534,-0.0290861,0.0889254
-399,-510,-0.0205688,-0.0863037,-0.00436908,-0.000754868,-0.000408571,-0.000709256,-0.0044147,-1.45962,0.00273751,0.00980045,825,1534,-0.0205551,0.0862553
-392,-510,-0.0136108,-0.0783691,-0.00709723,0.000232353,-0.00122504,0.00043168,-0.00729656,-1.4095,0.00501446,0.0120728,832,1534,-0.0136119,0.0784072
-385,-510,-0.0043335,-0.0679932,-0.0103488,0.00104607,-0.00269123,0.0016497,-0.0109524,-1.35015,0.00790907,0.0165051,839,1534,-0.00435029,0.0679819
-378,-510,-0.0327759,-0.0634766,-0.0137241,0.00207939,-0.00425104,0.00315032,-0.0147951,-1.32401,0.011064,0.0272491,846,1534,-0.0328001,0.063515
-371,-510,-0.211792,0.00891113,-0.0180742,0.00358033,-0.0062878,0.00527369,-0.0197675,-1.30773,0.0152434,0.0383442,853,1534,-0.21178,-0.00889689
-364,-510,-0.161621,-0.101318,-0.0226267,0.00491369,-0.00888841,0.0075332,-0.0252462,-1.2842,0.0198248,0.0444845,860,1534,-0.16163,0.101319
-357,-510,-0.188965,-0.329468,-0.027192,0.00605476,-0.0115464,0.00967135,-0.0308086,-1.26725,0.0244101,0.0446302,867,1534,-0.188987,0.329443
-350,-510,-0.469116,-0.238892,0,0,0,0,0,0,0,-1,874,1534,-0.469142,0.23884
-343,-510,-0.874634,-0.412476,-0.0338444,0.00472379,-0.0143798,0.00949494,-0.0386155,-1.25043,0.0294238,0.0395231,881,1534,-0.87464,0.412473
-336,-510,-1.66638,-0.496094,-0.0356079,0.000697604,-0.0156349,0.00650258,-0.0414128,-1.21529,0.0300118,0.0435679,888,1534,-1.66636,0.496088
-329,-510,-2.45215,-0.551392,0,0,0,0,0,0,0,-1,895,1534,-2.45215,0.551352
-322,-510,5.19287,-0.260864,0,0,0,0,0,0,0,-1,902,1534,5.19287,0.260894
-315,-510,5.78131,0.0557861,0,0,0,0,0,0,0,-1,909,1534,5.7813,-0.0557794
-308,-510,0.920044,-1.16064,0,0,0,0,0,0,0,-1,916,1534,0.920071,1.1606
-301,-510,0.933105,-1.32153,0,0,0,0,0,0,0,-1,923,1534,0.9331,1.32148
-294,-510,0,0,0,0,0,0,0,0,0,-1,930,1534,0,0
-287,-510,0,0,0,0,0,0,0,0,0,-1,937,1534,0,0
-280,-510,0,0,0,0,0,0,0,0,0,-1,944,1534,0,0
-273,-510,0,0,0,0,0,0,0,0,0,-1,951,1534,0,0
-266,-510,0,0,0,0,0,0,0,0,0,-1,958,1534,0,0
-259,-510,0,0,0,0,0,0,0,0,0,-1,965,1534,0,0
-252,-510,0,0,0,0,0,0,0,0,0,-1,972,1534,0,0
-245,-510,0,0,0,0,0,0,0,0,0,-1,979,1534,0,0
-238,-510,0,0,0,0,0,0,0,0,0,-1,986,1534,0,0
-231,-510,0,0,0,0,0,0,0,0,0,-1,993,1534,0,0
-224,-510,0,0,0,0,0,0,0,0,0,-1,1000,1534,0,0
-217,-510,0,0,0,0,0,0,0,0,0,-1,1007,1534,0,0
-210,-510,0,0,0,0,0,0,0,0,0,-1,1014,1534,0,0
-203,-510,0,0,0,0,0,0,0,0,0,-1,1021,1534,0,0
-196,-510,0,0,0,0,0,0,0,0,0,-1,1028,1534,0,0
-189,-510,0,0,0,0,0,0,0,0,0,-1,1035,1534,0,0
-182,-510,0,0,0,0,0,0,0,0,0,-1,1042,1534,0,0
-175,-510,0,0,0,0,0,0,0,0,0,-1,1049,1534,0,0
-168,-510,0,0,0,0,0,0,0,0,0,-1,1056,1534,0,0
-161,-510,0,0,0,0,0,0,0,0,0,-1,1063,1534,0,0
-154,-510,0,0,0,0,0,0,0,0,0,-1,1070,1534,0,0
-147,-510,0,0,0,0,0,0,0,0,0,-1,1077,1534,0,0
-140,-510,0,0,0,0,0,0,0,0,0,-1,1084,1534,0,0
-133,-510,0,0,0,0,0,0,0,0,0,-1,1091,1534,0,0
-126,-510,0,0,0,0,0,0,0,0,0,-1,1098,1534,0,0
-119,-510,0,0,0,0,0,0,0,0,0,-1,1105,1534,0,0
-112,-510,0,0,0,0,0,0,0,0,0,-1,1112,1534,0,0
-105,-510,0,0,0,0,0,0,0,0,0,-1,1119,1534,0,0
-98,-510,0,0,0,0,0,0,0,0,0,-1,1126,1534,0,0
-91,-510,0,0,0,0,0,0,0,0,0,-1,1133,1534,0,0
-84,-510,0,0,0,0,0,0,0,0,0,-1,1140,1534,0,0
-77,-510,0,0,0,0,0,0,0,0,0,-1,1147,1534,0,0
-70,-510,0,0,0,0,0,0,0,0,0,-1,1154,1534,0,0
-63,-510,0,0,0,0,0,0,0,0,0,-1,1161,1534,0,0
-56,-510,0,0,0,0,0,0,0,0,0,-1,1168,1534,0,0
-49,-510,0,0,0,0,0,0,0,0,0,-1,1175,1534,0,0
-42,-510,0,0,0,0,0,0,0,0,0,-1,1182,1534,0,0
-35,-510,0,0,0,0,0,0,0,0,0,-1,1189,1534,0,0
-28,-510,0,0,0,0,0,0,0,0,0,-1,1196,1534,0,0
-21,-510,0,0,0,0,0,0,0,0,0,-1,1203,1534,0,0
-14,-510,0,0,0,0,0,0,0,0,0,-1,1210,1534,0,0
-7,-510,0,0,0,0,0,0,0,0,0,-1,1217,1534,0,0
0,-510,0,0,0,0,0,0,0,0,0,-1,1224,1534,0,0
7,-510,0,0,0,0,0,0,0,0,0,-1,1231,1534,0,0
14,-510,0,0,0,0,0,0,0,0,0,-1,1238,1534,0,0
21,-510,0,0,0,0,0,0,0,0,0,-1,1245,1534,0,0
28,-510,0,0,0,0,0,0,0,0,0,-1,1252,1534,0,0
35,-510,0,0,0,0,0,0,0,0,0,-1,1259,1534,0,0
42,-510,0,0,0,0,0,0,0,0,0,-1,1266,1534,0,0
49,-510,0,0,0,0,0,0,0,0,0,-1,1273,1534,0,0
56,-510,0,0,0,0,0,0,0,0,0,-1,1280,1534,0,0
63,-510,0,0,0,0,0,0,0,0,0,-1,1287,1534,0,0
70,-510,0,0,0,0,0,0,0,0,0,-1,1294,1534,0,0
77,-510,0,0,0,0,0,0,0,0,0,-1,1301,1534,0,0
84,-510,0,0,0,0,0,0,0,0,0,-1,1308,1534,0,0
91,-510,0,0,0,0,0,0,0,0,0,-1,1315,1534,0,0
98,-510,0,0,0,0,0,0,0,0,0,-1,1322,1534,0,0
105,-510,0,0,0,0,0,0,0,0,0,-1,1329,1534,0,0
112,-510,0,0,0,0,0,0,0,0,0,-1,1336,1534,0,0
119,-510,0,0,0,0,0,0,0,0,0,-1,1343,1534,0,0
126,-510,0,0,0,0,0,0,0,0,0,-1,1350,1534,0,0
133,-510,0,0,0,0,0,0,0,0,0,-1,1357,1534,0,0
140,-510,0,0,0,0,0,0,0,0,0,-1,1364,1534,0,0
147,-510,0,0,0,0,0,0,0,0,0,-1,1371,1534,0,0
154,-510,0,0,0,0,0,0,0,0,0,-1,1378,1534,0,0
161,-510,0,0,0,0,0,0,0,0,0,-1,1385,1534,0,0
168,-510,0,0,0,0,0,0,0,0,0,-1,1392,1534,0,0
175,-510,0,0,0,0,0,0,0,0,0,-1,1399,1534,0,0
182,-510,0,0,0,0,0,0,0,0,0,-1,1406,1534,0,0
189,-510,0,0,0,0,0,0,0,0,0,-1,1413,1534,0,0
196,-510,0,0,0,0,0,0,0,0,0,-1,1420,1534,0,0
203,-510,0,0,0,0,0,0,0,0,0,-1,1427,1534,0,0
210,-510,0,0,0,0,0,0,0,0,0,-1,1434,1534,0,0
217,-510,0,0,0,0,0,0,0,0,0,-1,1441,1534,0,0
224,-510,0,0,0,0,0,0,0,0,0,-1,1448,1534,0,0
231,-510,0,0,0,0,0,0,0,0,0,-1,1455,1534,0,0
238,-510,0,0,0,0,0,0,0,0,0,-1,1462,1534,0,0
245,-510,0,0,0,0,0,0,0,0,0,-1,1469,1534,0,0
252,-510,0,0,0,0,0,0,0,0,0,-1,1476,1534,0,0
259,-510,0,0,0,0,0,0,0,0,0,-1,1483,1534,0,0
266,-510,0,0,0,0,0,0,0,0,0,-1,1490,1534,0,0
273,-510,0,0,0,0,0,0,0,0,0,-1,1497,1534,0,0
280,-510,0,0,0,0,0,0,0,0,0,-1,1504,1534,0,0
287,-510,0,0,0,0,0,0,0,0,0,-1,1511,1534,0,0
294,-510,0,0,0,0,0,0,0,0,0,-1,1518,1534,0,0
301,-510,0,0,0,0,0,0,0,0,0,-1,1525,1534,0,0
308,-510,0,0,0,0,0,0,0,0,0,-1,1532,1534,0,0
315,-510,0,0,0,0,0,0,0,0,0,-1,1539,1534,0,0
322,-510,0,0,0,0,0,0,0,0,0,-1,1546,1534,0,0
329,-510,0,0,0,0,0,0,0,0,0,-1,1553,1534,0,0
336,-510,0,0,0,0,0,0,0,0,0,-1,1560,1534,0,0
343,-510,0,0,0,0,0,0,0,0,0,-1,1567,1534,0,0
350,-510,0,0,0,0,0,0,0,0,0,-1,1574,1534,0,0
357,-510,0,0,0,0,0,0,0,0,0,-1,1581,1534,0,0
364,-510,0,0,0,0,0,0,0,0,0,-1,1588,1534,0,0
371,-510,0,0,0,0,0,0,0,0,0,-1,1595,1534,0,0
378,-510,0,0,0,0,0,0,0,0,0,-1,1602,1534,0,0
385,-510,0,0,0,0,0,0,0,0,0,-1,1609,1534,0,0
392,-510,0,0,0,0,0,0,0,0,0,-1,1616,1534,0,0
399,-510,0,0,0,0,0,0,0,0,0,-1,1623,1534,0,0
406,-510,0,0,0,0,0,0,0,0,0,-1,1630,1534,0,0
413,-510,0,0,0,0,0,0,0,0,0,-1,1637,1534,0,0
420,-510,0.717529,1.00244,-0.0177074,0.00105702,-0.00426584,0.00198127,-0.0186316,-1.35743,0.0131314,0.0418429,1644,1534,0.717539,-1.00243
427,-510,0.433472,0.737915,-0.0162698,0.00197727,-0.006932,0.00431199,-0.0186045,-1.24593,0.0140624,0.0410672,1651,1534,0.43343,-0.737948
434,-510,-4.52124,1.40991,0,0,0,0,0,0,0,-1,1658,1534,-4.52124,-1.40988
441,-510,-4.77966,1.97754,0,0,0,0,0,0,0,-1,1665,1534,-4.77966,-1.9775
448,-510,-0.123657,-0.592285,-0.00816238,0.00202404,-0.00766738,0.00613569,-0.012274,-1.07857,0.010824,0.0430832,1672,1534,-0.123634,0.592241
455,-510,-0.0441895,-0.334106,-0.0054379,0.00137456,-0.0064337,0.00524809,-0.00931143,-1.02886,0.00851436,0.0434212,1679,1534,-0.0441358,0.334092
462,-510,0.24585,-0.0949707,-0.00400455,-0.000930355,-0.00493823,0.00270447,-0.00763938,-0.936278,0.00619443,0.040992,1686,1534,0.245826,0.0950261
469,-510,0.334961,0.0446777,-0.00274521,-0.000241137,-0.00310025,0.00185035,-0.0048367,-0.977309,0.00398703,0.0420092,1693,1534,0.334913,-0.0447201
476,-510,0.168823,0.182861,-0.00171574,0.000119579,-0.00178692,0.0012107,-0.00280686,-1.02261,0.00237978,0.043451,1700,1534,0.168869,-0.182803
483,-510,0.354248,0.144897,-0.00147727,0.000415269,-0.000269616,0.00045293,-0.00151493,-1.43201,0.00119002,0.0461829,1707,1534,0.354236,-0.144927
490,-510,0.841064,0.169189,-0.00157866,-0.000242174,0.00076728,0.000107064,-0.0019279,1.14366,0.0013224,0.048464,1714,1534,0.84109,-0.169218
497,-510,0.696655,0.238403,-0.00199271,-0.000271941,0.00111302,0.000274471,-0.00253912,1.11443,0.00179126,0.0417598,1721,1534,0.696618,-0.238388
504,-510,0.172729,0.101807,-0.00254072,-0.000126557,0.00123774,0.000395247,-0.00306252,1.17183,0.00218538,0.0376921,1728,1534,0.172668,-0.101758
511,-510,-0.0531006,-0.0925293,-0.00260693,0.00079346,0.00131081,0.0012401,-0.00305356,1.2424,0.00255158,0.0337577,1735,1534,-0.0530548,0.0924789
518,-510,0.000976563,-0.0716553,-0.00242199,0.00127055,0.00130379,0.0016845,-0.00283593,1.26337,0.00263794,0.0255209,1742,1534,0.000925116,0.0716385
525,-510,0.00195313,-0.0810547,-0.00205396,0.00131139,0.00110839,0.00164364,-0.00238621,1.27956,0.00233976,0.013201,1749,1534,0.00196945,0.0810101
532,-510,-0.00476074,-0.088623,-0.00182142,0.00135757,0.00073524,0.00151938,-0.00198323,1.35417,0.00202814,0.0113332,1756,1534,-0.0047827,0.0886148
539,-510,-0.020752,-0.0795898,-0.00154942,0.00148153,0.00042937,0.00154118,-0.00160907,1.43275,0.00181894,0.0117493,1763,1534,-0.020716,0.0796037
546,-510,-0.0264893,-0.0698242,-0.00112294,0.00175875,0.00031996,0.00179385,-0.00115804,1.46154,0.0017174,0.0110594,1770,1534,-0.0264497,0.0697855
553,-510,-0.0129395,-0.0688477,-0.000711688,0.00175315,4.45002e-05,0.00175395,-0.000712491,1.55275,0.00146571,0.0118249,1777,1534,-0.0129284,0.0689079
560,-510,-0.0163574,-0.0859375,-0.000355336,0.0019041,-9.6334e-05,0.0019082,-0.000359436,-1.52826,0.00140733,0.0116555,1784,1534,-0.0164046,0.0858768
567,-510,-0.020752,-0.0958252,-6.15581e-05,0.00186756,-3.44548e-05,0.00186818,-6.21732e-05,-1.55294,0.00126668,0.0109752,1791,1534,-0.0206947,0.0958005
574,-510,-0.0369873,-0.0860596,0.000419138,0.00208961,0.000164473,0.00210565,0.000403099,1.47358,0.00129056,0.0124931,1798,1534,-0.0369777,0.0861155
581,-510,-0.0412598,-0.0718994,0.00122754,0.00208361,0.000425252,0.00225895,0.00105221,1.17973,0.00130522,0.0119697,1805,1534,-0.041246,0.0719212
588,-510,-0.0267334,-0.0672607,0.00177436,0.0023898,0.000647574,0.00279905,0.00136511,1.0072,0.00161619,0.0120935,1812,1534,-0.0266974,0.0672001
595,-510,-0.0102539,-0.0671387,0.00212016,0.00312778,0.000743783,0.00352233,0.00172562,1.08308,0.00203375,0.0104614,1819,1534,-0.0103089,0.0671252
602,-510,-0.0241699,-0.0826416,0.00232341,0.00436245,0.000759278,0.00461412,0.00207174,1.25073,0.00266858,0.0136562,1826,1534,-0.0242138,0.0826919
609,-510,-0.00195313,-0.0742188,0.00228968,0.00642865,0.0005778,0.0065078,0.00221053,1.43466,0.00382112,0.021783,1833,1534,-0.00195431,0.0741704
616,-510,0.00292969,-0.0552979,0.00230771,0.00887701,0.0003712,0.00889792,0.0022868,1.51453,0.00533561,0.0335633,1840,1534,0.00295046,0.0553547
623,-510,-0.159546,0.269653,0.00186788,0.0121462,-0.000140159,0.0121481,0.00186597,-1.55716,0.00755396,0.0364641,1847,1534,-0.159576,-0.269681
630,-510,-0.237061,0.33313,0.000787824,0.0164266,-0.000984846,0.0164884,0.000726048,-1.50815,0.0107584,0.0393858,1854,1534,-0.237047,-0.33311
637,-510,-0.0317383,0.131348,0,0,0,0,0,0,0,-1,1861,1534,-0.0316822,-0.13132
644,-510,-0.684448,-1.58447,0,0,0,0,0,0,0,-1,1868,1534,-0.684498,1.58443
651,-510,-0.870361,-2.17896,0,0,0,0,0,0,0,-1,1875,1534,-0.870402,2.17899
658,-510,0,0,0,0,0,0,0,0,0,-1,1882,1534,0,0
665,-510,0,0,0,0,0,0,0,0,0,-1,1889,1534,0,0
672,-510,0,0,0,0,0,0,0,0,0,-1,1896,1534,0,0
679,-510,0,0,0,0,0,0,0,0,0,-1,1903,1534,0,0
686,-510,0,0,0,0,0,0,0,0,0,-1,1910,1534,0,0
693,-510,0,0,0,0,0,0,0,0,0,-1,1917,1534,0,0
700,-510,0,0,0,0,0,0,0,0,0,-1,1924,1534,0,0
707,-510,0,0,0,0,0,0,0,0,0,-1,1931,1534,0,0
714,-510,0,0,0,0,0,0,0,0,0,-1,1938,1534,0,0
721,-510,0,0,0,0,0,0,0,0,0,-1,1945,1534,0,0
728,-510,0,0,0,0,0,0,0,0,0,-1,1952,1534,0,0
735,-510,0,0,0,0,0,0,0,0,0,-1,1959,1534,0,0
742,-510,0,0,0,0,0,0,0,0,0,-1,1966,1534,0,0
749,-510,0,0,0,0,0,0,0,0,0,-1,1973,1534,0,0
756,-510,0,0,0,0,0,0,0,0,0,-1,1980,1534,0,0
763,-510,0,0,0,0,0,0,0,0,0,-1,1987,1534,0,0
770,-510,0,0,0,0,0,0,0,0,0,-1,1994,1534,0,0
777,-510,0,0,0,0,0,0,0,0,0,-1,2001,1534,0,0
784,-510,0,0,0,0,0,0,0,0,0,-1,2008,1534,0,0
791,-510,0,0,0,0,0,0,0,0,0,-1,2015,1534,0,0
798,-510,0,0,0,0,0,0,0,0,0,-1,2022,1534,0,0
805,-510,0,0,0,0,0,0,0,0,0,-1,2029,1534,0,0
812,-510,0,0,0,0,0,0,0,0,0,-1,2036,1534,0,0
-700,-517,0,0,0,0,0,0,0,0,0,-1,524,1541,0,0
-693,-517,0,0,0,0,0,0,0,0,0,-1,531,1541,0,0
-686,-517,0,0,0,0,0,0,0,0,0,-1,538,1541,0,0
-679,-517,0,0,0,0,0,0,0,0,0,-1,545,1541,0,0
-672,-517,0,0,0,0,0,0,0,0,0,-1,552,1541,0,0
-665,-517,0,0,0,0,0,0,0,0,0,-1,559,1541,0,0
-658,-517,0,0,0,0,0,0,0,0,0,-1,566,1541,0,0
-651,-517,0,0,0,0,0,0,0,0,0,-1,573,1541,0,0
-644,-517,0,0,0,0,0,0,0,0,0,-1,580,1541,0,0
-637,-517,0,0,0,0,0,0,0,0,0,-1,587,1541,0,0
-630,-517,0,0,0,0,0,0,0,0,0,-1,594,1541,0,0
-623,-517,0,0,0,0,0,0,0,0,0,-1,601,1541,0,0
-616,-517,0,0,0,0,0,0,0,0,0,-1,608,1541,0,0
-609,-517,0,0,0,0,0,0,0,0,0,-1,615,1541,0,0
-602,-517,0,0,0,0,0,0,0,0,0,-1,622,1541,0,0
-595,-517,0,0,0,0,0,0,0,0,0,-1,629,1541,0,0
-588,-517,0,0,0,0,0,0,0,0,0,-1,636,1541,0,0
-581,-517,0,0,0,0,0,0,0,0,0,-1,643,1541,0,0
-574,-517,0,0,0,0,0,0,0,0,0,-1,650,1541,0,0
-567,-517,0,0,0,0,0,0,0,0,0,-1,657,1541,0,0
-560,-517,0,0,0,0,0,0,0,0,0,-1,664,1541,0,0
-553,-517,0,0,0,0,0,0,0,0,0,-1,671,1541,0,0
-546,-517,0,0,0,0,0,0,0,0,0,-1,678,1541,0,0
-539,-517,0,0,0,0,0,0,0,0,0,-1,685,1541,0,0
-532,-517,0,0,0,0,0,0,0,0,0,-1,692,1541,0,0
-525,-517,1.81628,-1.73584,-0.0453097,0.0400304,0.0148781,0.0425499,-0.0478291,1.40305,0.05221,0.0407983,699,1541,1.81629,1.73587
-518,-517,1.47681,-1.84119,-0.0370996,0.046124,0.011683,0.047733,-0.0387085,1.43394,0.0499976,0.0440224,706,1541,1.47679,1.84124
-511,-517,1.08331,-1.42542,-0.0296333,0.0473439,0.00905897,0.0483957,-0.0306851,1.45522,0.0460374,0.0469006,713,1541,1.08329,1.42537
-504,-517,0.662354,-0.900146,-0.0231414,0.0453352,0.00679895,0.0460037,-0.02381,1.47278,0.0409802,0.0472898,720,1541,0.662345,0.900121
-497,-517,0.201965,-0.664429,-0.0178097,0.0415485,0.00494234,0.0419572,-0.0182184,1.48829,0.0356321,0.0423395,727,1541,0.201948,0.664486
-490,-517,-0.136108,-0.373779,-0.0138368,0.0359172,0.00357193,0.0361723,-0.014092,1.49949,0.0299389,0.0406105,734,1541,-0.136084,0.373835
-483,-517,-0.239136,-0.0675049,-0.0110895,0.0306131,0.00224881,0.030734,-0.0112104,1.51708,0.0250758,0.0394747,741,1541,-0.239132,0.0674828
-476,-517,-0.0278931,-0.117065,-0.00810657,0.0242933,0.00159425,0.0243715,-0.00818483,1.52175,0.0195555,0.0283765,748,1541,-0.0279066,0.117058
-469,-517,-0.0358887,-0.0932617,-0.00555285,0.0187371,0.000816779,0.0187645,-0.00558028,1.53722,0.0147265,0.0118537,755,1541,-0.0359179,0.0932971
-462,-517,-0.0223389,-0.0718994,-0.00374073,0.0136403,9.91544e-05,0.0136409,-0.0037413,1.56509,0.0105642,0.0118241,762,1541,-0.0223297,0.0718402
-455,-517,-0.0220947,-0.0634766,-0.00325364,0.00950241,-0.000425799,0.00951661,-0.00326783,-1.53747,0.00766937,0.0105057,769,1541,-0.0221201,0.0634325
-448,-517,-0.0201416,-0.0601807,-0.00335032,0.00522506,-3.21902e-06,0.00522506,-0.00335032,-1.57042,0.00499028,0.0108816,776,1541,-0.0201451,0.0602129
-441,-517,-0.0369873,-0.0618896,-0.00268202,0.0036769,-4.77532e-05,0.00367726,-0.00268237,-1.56329,0.00368668,0.0106798,783,1541,-0.0370049,0.0618563
-434,-517,-0.050293,-0.0615234,-0.00199141,0.00261213,-0.000303703,0.00263208,-0.00201136,-1.5052,0.00268887,0.01327,790,1541,-0.0503141,0.0615465
-427,-517,-0.0465088,-0.0863037,-0.00173295,0.00159418,-0.000583245,0.00169346,-0.00183223,-1.40219,0.00203608,0.0133652,797,1541,-0.0464864,0.086283
-420,-517,-0.0338745,-0.0792236,-0.00122058,0.000939152,-0.000156876,0.000950488,-0.00123191,-1.49866,0.0012635,0.0199293,804,1541,-0.0338743,0.0792165
-413,-517,-0.0140991,-0.0695801,-0.000916014,0.000294586,-4.28753e-05,0.000296103,-0.00091753,-1.53544,0.000730668,0.0104949,811,1541,-0.0140906,0.0696018
-406,-517,-0.0261841,-0.0748291,-0.00135203,-0.000191402,-0.000127542,-0.000177552,-0.00136588,-1.46263,0.000857555,0.00962753,818,1541,-0.0261829,0.0748172
-399,-517,-0.0310059,-0.0827637,-0.00244643,-0.000147648,-0.000384551,-8.50245e-05,-0.00250905,-1.40936,0.00164509,0.00971065,825,1541,-0.0309808,0.0827803
-392,-517,-0.022522,-0.0926514,-0.00434461,0.000516857,-0.00101034,0.000718471,-0.00454623,-1.37383,0.00329651,0.009978,832,1541,-0.0225024,0.0926594
-385,-517,-0.0113525,-0.0806885,-0.00666397,0.00106068,-0.00219434,0.0016405,-0.00724379,-1.31246,0.00545882,0.0114843,839,1541,-0.0113525,0.0806758
-378,-517,-0.0098877,-0.0606689,-0.00902394,0.00167378,-0.00345174,0.00269083,-0.010041,-1.28426,0.00774828,0.0186197,846,1541,-0.00990343,0.0606135
-371,-517,0.0117798,-0.024292,-0.0122876,0.00271541,-0.00510842,0.00428962,-0.0138618,-1.27187,0.0109547,0.0323373,853,1541,0.011759,0.0242353
-364,-517,0.0633545,0.0252686,-0.0156781,0.00351668,-0.00726392,0.00595567,-0.0181171,-1.24686,0.0144776,0.0422938,860,1541,0.0633295,-0.0253222
-357,-517,-0.221436,0.0991211,-0.0190152,0.00409016,-0.00933433,0.00738988,-0.022315,-1.231,0.0178571,0.043816,867,1541,-0.221442,-0.0990726
-350,-517,-0.573608,0.188843,0,0,0,0,0,0,0,-1,874,1541,-0.573635,-0.188793
-343,-517,-0.958252,0.291382,0,0,0,0,0,0,0,-1,881,1541,-0.958241,-0.291336
-336,-517,-0.0280762,0.223755,0,0,0,0,0,0,0,-1,888,1541,-0.0280496,-0.223796
-329,-517,1.65948,0.705566,0,0,0,0,0,0,0,-1,895,1541,1.6595,-0.705611
-322,-517,1.37848,0.67041,0,0,0,0,0,0,0,-1,902,1541,1.37849,-0.670374
-315,-517,-0.312012,2.42163,0,0,0,0,0,0,0,-1,909,1541,-0.312014,-2.42166
-308,-517,0.753601,-1.37549,0,0,0,0,0,0,0,-1,916,1541,0.753615,1.37554
-301,-517,0.776367,-1.46533,-0.0185473,-0.0395989,-0.00885275,-0.0153194,-0.0428268,-0.349638,0.0250576,0.046067,923,1541,0.776383,1.46534
-294,-517,0.484375,-1.39673,0,0,0,0,0,0,0,-1,930,1541,0.484389,1.39675
-287,-517,0.247559,-1.80994,0,0,0,0,0,0,0,-1,937,1541,0.247571,1.80994
-280,-517,0,0,0,0,0,0,0,0,0,-1,944,1541,0,0
-273,-517,0,0,0,0,0,0,0,0,0,-1,951,1541,0,0
-266,-517,0,0,0,0,0,0,0,0,0,-1,958,1541,0,0
-259,-517,0,0,0,0,0,0,0,0,0,-1,965,1541,0,0
-252,-517,0,0,0,0,0,0,0,0,0,-1,972,1541,0,0
-245,-517,0,0,0,0,0,0,0,0,0,-1,979,1541,0,0
-238,-517,0,0,0,0,0,0,0,0,0,-1,986,1541,0,0
-231,-517,0,0,0,0,0,0,0,0,0,-1,993,1541,0,0
-224,-517,0,0,0,0,0,0,0,0,0,-1,1000,1541,0,0
-217,-517,0,0,0,0,0,0,0,0,0,-1,1007,1541,0,0
-210,-517,0,0,0,0,0,0,0,0,0,-1,1014,1541,0,0
-203,-517,0,0,0,0,0,0,0,0,0,-1,1021,1541,0,0
-196,-517,0,0,0,0,0,0,0,0,0,-1,1028,1541,0,0
-189,-517,0,0,0,0,0,0,0,0,0,-1,1035,1541,0,0
-182,-517,0,0,0,0,0,0,0,0,0,-1,1042,1541,0,0
-175,-517,0,0,0,0,0,0,0,0,0,-1,1049,1541,0,0
-168,-517,0,0,0,0,0,0,0,0,0,-1,1056,1541,0,0
-161,-517,0,0,0,0,0,0,0,0,0,-1,1063,1541,0,0
-154,-517,0,0,0,0,0,0,0,0,0,-1,1070,1541,0,0
-147,-517,0,0,0,0,0,0,0,0,0,-1,1077,1541,0,0
-140,-517,0,0,0,0,0,0,0,0,0,-1,1084,1541,0,0
-133,-517,0,0,0,0,0,0,0,0,0,-1,1091,1541,0,0
-126,-517,0,0,0,0,0,0,0,0,0,-1,1098,1541,0,0
-119,-517,0,0,0,0,0,0,0,0,0,-1,1105,1541,0,0
-112,-517,0,0,0,0,0,0,0,0,0,-1,1112,1541,0,0
-105,-517,0,0,0,0,0,0,0,0,0,-1,1119,1541,0,0
-98,-517,0,0,0,0,0,0,0,0,0,-1,1126,1541,0,0
-91,-517,0,0,0,0,0,0,0,0,0,-1,1133,1541,0,0
-84,-517,0,0,0,0,0,0,0,0,0,-1,1140,1541,0,0
-77,-517,0,0,0,0,0,0,0,0,0,-1,1147,1541,0,0
-70,-517,0,0,0,0,0,0,0,0,0,-1,1154,1541,0,0
-63,-517,0,0,0,0,0,0,0,0,0,-1,1161,1541,0,0
-56,-517,0,0,0,0,0,0,0,0,0,-1,1168,1541,0,0
-49,-517,0,0,0,0,0,0,0,0,0,-1,1175,1541,0,0
-42,-517,0,0,0,0,0,0,0,0,0,-1,1182,1541,0,0
-35,-517,0,0,0,0,0,0,0,0,0,-1,1189,1541,0,0
-28,-517,0,0,0,0,0,0,0,0,0,-1,1196,1541,0,0
-21,-517,0,0,0,0,0,0,0,0,0,-1,1203,1541,0,0
-14,-517,0,0,0,0,0,0,0,0,0,-1,1210,1541,0,0
-7,-517,0,0,0,0,0,0,0,0,0,-1,1217,1541,0,0
0,-517,0,0,0,0,0,0,0,0,0,-1,1224,1541,0,0
7,-517,0,0,0,0,0,0,0,0,0,-1,1231,1541,0,0
14,-517,0,0,0,0,0,0,0,0,0,-1,1238,1541,0,0
21,-517,0,0,0,0,0,0,0,0,0,-1,1245,1541,0,0
28,-517,0,0,0,0,0,0,0,0,0,-1,1252,1541,0,0
35,-517,0,0,0,0,0,0,0,0,0,-1,1259,1541,0,0
42,-517,0,0,0,0,0,0,0,0,0,-1,1266,1541,0,0
49,-517,0,0,0,0,0,0,0,0,0,-1,1273,1541,0,0
56,-517,0,0,0,0,0,0,0,0,0,-1,1280,1541,0,0
63,-517,0,0,0,0,0,0,0,0,0,-1,1287,1541,0,0
70,-517,0,0,0,0,0,0,0,0,0,-1,1294,1541,0,0
77,-517,0,0,0,0,0,0,0,0,0,-1,1301,1541,0,0
84,-517,0,0,0,0,0,0,0,0,0,-1,1308,1541,0,0
91,-517,0,0,0,0,0,0,0,0,0,-1,1315,1541,0,0
98,-517,0,0,0,0,0,0,0,0,0,-1,1322,1541,0,0
105,-517,0,0,0,0,0,0,0,0,0,-1,1329,1541,0,0
112,-517,0,0,0,0,0,0,0,0,0,-1,1336,1541,0,0
119,-517,0,0,0,0,0,0,0,0,0,-1,1343,1541,0,0
126,-517,0,0,0,0,0,0,0,0,0,-1,1350,1541,0,0
133,-517,0,0,0,0,0,0,0,0,0,-1,1357,1541,0,0
140,-517,0,0,0,0,0,0,0,0,0,-1,1364,1541,0,0
147,-517,0,0,0,0,0,0,0,0,0,-1,1371,1541,0,0
154,-517,0,0,0,0,0,0,0,0,0,-1,1378,1541,0,0
161,-517,0,0,0,0,0,0,0,0,0,-1,1385,1541,0,0
168,-517,0,0,0,0,0,0,0,0,0,-1,1392,1541,0,0
175,-517,0,0,0,0,0,0,0,0,0,-1,1399,1541,0,0
182,-517,0,0,0,0,0,0,0,0,0,-1,1406,1541,0,0
189,-517,0,0,0,0,0,0,0,0,0,-1,1413,1541,0,0
196,-517,0,0,0,0,0,0,0,0,0,-1,1420,1541,0,0
203,-517,0,0,0,0,0,0,0,0,0,-1,1427,1541,0,0
210,-517,0,0,0,0,0,0,0,0,0,-1,1434,1541,0,0
217,-517,0,0,0,0,0,0,0,0,0,-1,1441,1541,0,0
224,-517,0,0,0,0,0,0,0,0,0,-1,1448,1541,0,0
231,-517,0,0,0,0,0,0,0,0,0,-1,1455,1541,0,0
238,-517,0,0,0,0,0,0,0,0,0,-1,1462,1541,0,0
245,-517,0,0,0,0,0,0,0,0,0,-1,1469,1541,0,0
252,-517,0,0,0,0,0,0,0,0,0,-1,1476,1541,0,0
259,-517,0,0,0,0,0,0,0,0,0,-1,1483,1541,0,0
266,-517,0,0,0,0,0,0,0,0,0,-1,1490,1541,0,0
273,-517,0,0,0,0,0,0,0,0,0,-1,1497,1541,0,0
280,-517,0,0,0,0,0,0,0,0,0,-1,1504,1541,0,0
287,-517,0,0,0,0,0,0,0,0,0,-1,1511,1541,0,0
294,-517,0,0,0,0,0,0,0,0,0,-1,1518,1541,0,0
301,-517,0,0,0,0,0,0,0,0,0,-1,1525,1541,0,0
308,-517,0,0,0,0,0,0,0,0,0,-1,1532,1541,0,0
315,-517,0,0,0,0,0,0,0,0,0,-1,1539,1541,0,0
322,-517,0,0,0,0,0,0,0,0,0,-1,1546,1541,0,0
329,-517,0,0,0,0,0,0,0,0,0,-1,1553,1541,0,0
336,-517,0,0,0,0,0,0,0,0,0,-1,1560,1541,0,0
343,-517,0,0,0,0,0,0,0,0,0,-1,1567,1541,0,0
350,-517,0,0,0,0,0,0,0,0,0,-1,1574,1541,0,0
357,-517,0,0,0,0,0,0,0,0,0,-1,1581,1541,0,0
364,-517,0,0,0,0,0,0,0,0,0,-1,1588,1541,0,0
371,-517,0,0,0,0,0,0,0,0,0,-1,1595,1541,0,0
378,-517,0,0,0,0,0,0,0,0,0,-1,1602,1541,0,0
385,-517,0,0,0,0,0,0,0,0,0,-1,1609,1541,0,0
392,-517,0,0,0,0,0,0,0,0,0,-1,1616,1541,0,0
399,-517,0,0,0,0,0,0,0,0,0,-1,1623,1541,0,0
406,-517,1.45068,1.77319,0,0,0,0,0,0,0,-1,1630,1541,1.45068,-1.77319
413,-517,1.21606,1.73718,-0.0162697,0.00370558,0.00115126,0.00377171,-0.0163358,1.51342,0.0123414,0.0464929,1637,1541,1.21607,-1.73724
420,-517,0.817505,1.67834,-0.0177601,0.00523934,-0.0026622,0.00554347,-0.0180642,-1.45705,0.0142546,0.0423776,1644,1541,0.817448,-1.67837
427,-517,-3.37329,0.625122,0,0,0,0,0,0,0,-1,1651,1541,-3.37326,-0.625146
434,-517,-3.52246,0.991089,-0.0135443,0.00526531,-0.00648947,0.00728694,-0.0155659,-1.2688,0.0134796,0.0496121,1658,1541,-3.52243,-0.991133
441,-517,-3.60071,1.39502,0,0,0,0,0,0,0,-1,1665,1541,-3.60072,-1.39497
448,-517,-3.55298,1.47766,0,0,0,0,0,0,0,-1,1672,1541,-3.55302,-1.47765
455,-517,0.19519,0.0383301,-0.00559545,0.00323065,-0.00617368,0.00640636,-0.00877116,-1.0957,0.00879813,0.0416944,1679,1541,0.195169,-0.0383231
462,-517,0.167725,0.177612,-0.00400958,0.000402294,-0.00486502,0.00353814,-0.00714542,-0.998249,0.00628426,0.0403187,1686,1541,0.16771,-0.177657
469,-517,0.133667,0.104614,-0.00250133,0.000602738,-0.00305572,0.00247798,-0.00437657,-1.02038,0.00400776,0.044725,1693,1541,0.133624,-0.104632
476,-517,0.221191,0.305054,-0.00124512,0.000526526,-0.00182236,0.00166696,-0.00238555,-1.01162,0.00235194,0.0469292,1700,1541,0.221193,-0.305094
483,-517,0.515991,0.107544,0,0,0,0,0,0,0,-1,1707,1541,0.51605,-0.107525
490,-517,1.2738,0.2948,0,0,0,0,0,0,0,-1,1714,1541,1.27384,-0.294746
497,-517,-0.383911,-0.289307,-0.0015234,-0.000667656,0.000929736,-7.20597e-05,-0.00211899,1.00105,0.00138926,0.037002,1721,1541,-0.383932,0.28933
504,-517,-0.0913086,-0.124878,-0.00213834,-0.000626624,0.001022,-0.000111336,-0.00265363,1.1038,0.00173317,0.0320734,1728,1541,-0.0913624,0.124926
511,-517,-0.0340576,-0.0889893,-0.00225294,0.000100476,0.0010493,0.000500368,-0.00265283,1.20668,0.00195679,0.0239957,1735,1541,-0.034017,0.0890114
518,-517,-0.0219727,-0.0794678,-0.00215456,0.000493163,0.00100239,0.000829842,-0.00249124,1.24676,0.0019958,0.0170157,1742,1541,-0.0220046,0.0794902
525,-517,-0.0179443,-0.0893555,-0.00191669,0.000527034,0.000792727,0.000761662,-0.00215132,1.28304,0.00174444,0.0106567,1749,1541,-0.0178892,0.0893223
532,-517,-0.000366211,-0.0933838,-0.00181095,0.000589714,0.000458862,0.000674431,-0.00189567,1.38823,0.00153867,0.0102514,1756,1541,-0.000379672,0.093357
539,-517,-0.00231934,-0.0803223,-0.00165259,0.000797066,0.000203752,0.000813898,-0.00166942,1.48838,0.00146183,0.0108338,1763,1541,-0.00234881,0.0802803
546,-517,-0.0134277,-0.067627,-0.00125637,0.00131729,0.000157471,0.00132689,-0.00126597,1.50991,0.00149712,0.011047,1770,1541,-0.0134533,0.0675682
553,-517,-0.032959,-0.0625,-0.000859081,0.00163126,-2.76168e-05,0.00163157,-0.000859387,-1.55971,0.00146101,0.0142946,1777,1541,-0.032956,0.062464
560,-517,-0.0251465,-0.0860596,-0.000465778,0.00205629,-7.02525e-05,0.00205825,-0.000467734,-1.54297,0.00155175,0.0134819,1784,1541,-0.0250905,0.0860163
567,-517,-0.0236816,-0.0726318,-5.85834e-05,0.0023282,8.90222e-05,0.00233151,-6.18992e-05,1.53357,0.00157538,0.0108775,1791,1541,-0.0236973,0.0726538
574,-517,-0.0296631,-0.0623779,0.000602523,0.00293649,0.000336452,0.00298402,0.00055499,1.43045,0.00183258,0.0124128,1798,1541,-0.0296125,0.062355
581,-517,-0.0216064,-0.0655518,0.00172131,0.00327536,0.00071527,0.00355445,0.00144222,1.19878,0.00206428,0.0150232,1805,1541,-0.0215608,0.0654989
588,-517,-0.00976563,-0.0593262,0.00268961,0.00392784,0.0010624,0.00453837,0.00207909,1.04922,0.00262329,0.015158,1812,1541,-0.00980056,0.0593186
595,-517,-0.0114746,-0.0693359,0.00362393,0.00491949,0.00131797,0.00574027,0.00280316,1.01381,0.00331445,0.0119597,1819,1541,-0.0115233,0.0693195
602,-517,-0.0194092,-0.0952148,0.00451332,0.00630163,0.00149424,0.00714881,0.00366613,1.05502,0.00412782,0.0168151,1826,1541,-0.0194167,0.0952479
609,-517,-0.00842285,-0.130249,0.00522071,0.0084056,0.00145244,0.00896849,0.00465782,1.20107,0.00517925,0.0353341,1833,1541,-0.0084766,0.130246
616,-517,0.00195313,-0.149048,0.00607762,0.0108275,0.00137172,0.0111952,0.00570994,1.30891,0.00646397,0.0413211,1840,1541,0.00200285,0.148995
623,-517,0.144165,0.205444,0.00657354,0.0140088,0.00097914,0.0141356,0.00644676,1.44203,0.0081717,0.0398141,1847,1541,0.144152,-0.205476
630,-517,0.456665,0.58667,0.0064801,0.0183298,0.000219494,0.0183339,0.00647604,1.55228,0.010736,0.0449749,1854,1541,0.456634,-0.586724
637,-517,0.777954,0.925171,0,0,0,0,0,0,0,-1,1861,1541,0.777936,-0.92512
644,-517,-0.528687,-1.93921,0,0,0,0,0,0,0,-1,1868,1541,-0.52874,1.93926
651,-517,0,0,0,0,0,0,0,0,0,-1,1875,1541,0,0
658,-517,0,0,0,0,0,0,0,0,0,-1,1882,1541,0,0
665,-517,0,0,0,0,0,0,0,0,0,-1,1889,1541,0,0
672,-517,0,0,0,0,0,0,0,0,0,-1,1896,1541,0,0
679,-517,0,0,0,0,0,0,0,0,0,-1,1903,1541,0,0
686,-517,0,0,0,0,0,0,0,0,0,-1,1910,1541,0,0
693,-517,0,0,0,0,0,0,0,0,0,-1,1917,1541,0,0
700,-517,0,0,0,0,0,0,0,0,0,-1,1924,1541,0,0
707,-517,0,0,0,0,0,0,0,0,0,-1,1931,1541,0,0
714,-517,0,0,0,0,0,0,0,0,0,-1,1938,1541,0,0
721,-517,0,0,0,0,0,0,0,0,0,-1,1945,1541,0,0
728,-517,0,0,0,0,0,0,0,0,0,-1,1952,1541,0,0
735,-517,0,0,0,0,0,0,0,0,0,-1,1959,1541,0,0
742,-517,0,0,0,0,0,0,0,0,0,-1,1966,1541,0,0
749,-517,0,0,0,0,0,0,0,0,0,-1,1973,1541,0,0
756,-517,0,0,0,0,0,0,0,0,0,-1,1980,1541,0,0
763,-517,0,0,0,0,0,0,0,0,0,-1,1987,1541,0,0
770,-517,0,0,0,0,0,0,0,0,0,-1,1994,1541,0,0
777,-517,0,0,0,0,0,0,0,0,0,-1,2001,1541,0,0
784,-517,0,0,0,0,0,0,0,0,0,-1,2008,1541,0,0
791,-517,0,0,0,0,0,0,0,0,0,-1,2015,1541,0,0
798,-517,0,0,0,0,0,0,0,0,0,-1,2022,1541,0,0
805,-517,0,0,0,0,0,0,0,0,0,-1,2029,1541,0,0
812,-517,0,0,0,0,0,0,0,0,0,-1,2036,1541,0,0
-700,-524,0,0,0,0,0,0,0,0,0,-1,524,1548,0,0
-693,-524,0,0,0,0,0,0,0,0,0,-1,531,1548,0,0
-686,-524,0,0,0,0,0,0,0,0,0,-1,538,1548,0,0
-679,-524,0,0,0,0,0,0,0,0,0,-1,545,1548,0,0
-672,-524,0,0,0,0,0,0,0,0,0,-1,552,1548,0,0
-665,-524,0,0,0,0,0,0,0,0,0,-1,559,1548,0,0
-658,-524,0,0,0,0,0,0,0,0,0,-1,566,1548,0,0
-651,-524,0,0,0,0,0,0,0,0,0,-1,573,1548,0,0
-644,-524,0,0,0,0,0,0,0,0,0,-1,580,1548,0,0
-637,-524,0,0,0,0,0,0,0,0,0,-1,587,1548,0,0
-630,-524,0,0,0,0,0,0,0,0,0,-1,594,1548,0,0
-623,-524,0,0,0,0,0,0,0,0,0,-1,601,1548,0,0
-616,-524,0,0,0,0,0,0,0,0,0,-1,608,1548,0,0
-609,-524,0,0,0,0,0,0,0,0,0,-1,615,1548,0,0
-602,-524,0,0,0,0,0,0,0,0,0,-1,622,1548,0,0
-595,-524,0,0,0,0,0,0,0,0,0,-1,629,1548,0,0
-588,-524,0,0,0,0,0,0,0,0,0,-1,636,1548,0,0
-581,-524,0,0,0,0,0,0,0,0,0,-1,643,1548,0,0
-574,-524,0,0,0,0,0,0,0,0,0,-1,650,1548,0,0
-567,-524,0,0,0,0,0,0,0,0,0,-1,657,1548,0,0
-560,-524,0,0,0,0,0,0,0,0,0,-1,664,1548,0,0
-553,-524,0,0,0,0,0,0,0,0,0,-1,671,1548,0,0
-546,-524,0,0,0,0,0,0,0,0,0,-1,678,1548,0,0
-539,-524,0,0,0,0,0,0,0,0,0,-1,685,1548,0,0
-532,-524,0,0,0,0,0,0,0,0,0,-1,692,1548,0,0
-525,-524,1.38666,-1.87366,-0.0522343,0.0602124,0.0190096,0.0633392,-0.0553611,1.40778,0.0685832,0.0410573,699,1548,1.38667,1.87369
-518,-524,1.27216,-2.44604,-0.0431144,0.0641603,0.0151106,0.0662481,-0.0452022,1.4335,0.0647272,0.0437035,706,1548,1.27218,2.44608
-511,-524,1.29572,-1.60413,-0.0349795,0.0628862,0.0118448,0.0642994,-0.0363927,1.45205,0.0588741,0.0473329,713,1548,1.2957,1.60411
-504,-524,0.757019,-1.14502,-0.0280137,0.0585453,0.00907191,0.0594858,-0.0289543,1.46749,0.0520653,0.0451892,720,1548,0.757,1.14507
-497,-524,0.104187,-0.966187,-0.0223907,0.0524653,0.00675988,0.0530708,-0.0229962,1.48145,0.045047,0.0422664,727,1548,0.104216,0.96621
-490,-524,-0.460815,-0.463501,-0.0181269,0.0449123,0.00494271,0.0452974,-0.0185121,1.49302,0.0379069,0.041477,734,1548,-0.460822,0.46346
-483,-524,-0.810364,-0.026123,-0.0150412,0.0379564,0.00327519,0.038158,-0.0152428,1.50931,0.0317631,0.0436006,741,1548,-0.810375,0.0260957
-476,-524,-0.237,0.0664063,-0.0117836,0.0304988,0.00227286,0.0306207,-0.0119054,1.51725,0.0253326,0.040759,748,1548,-0.236996,-0.0663617
-469,-524,-0.0270386,-0.108032,-0.0090332,0.0239961,0.00128146,0.0240458,-0.00908285,1.53208,0.0197664,0.0312498,755,1548,-0.0270526,0.10801
-462,-524,-0.0185547,-0.0860596,-0.00697449,0.0179957,0.000422854,0.0180028,-0.00698164,1.55387,0.0148853,0.0217206,762,1548,-0.018567,0.0861158
-455,-524,-0.0205688,-0.055542,-0.00609202,0.0129964,-0.000268575,0.0130002,-0.0060958,-1.55673,0.0112627,0.0129409,769,1548,-0.0205613,0.0555348
-448,-524,-0.0164795,-0.0601807,-0.00564606,0.0079458,-5.3627e-05,0.00794601,-0.00564627,-1.56685,0.00788486,0.0110211,776,1548,-0.0164628,0.0601329
-441,-524,-0.0288696,-0.0563965,-0.00448886,0.00591022,-0.000175303,0.00591317,-0.00449181,-1.55395,0.00602598,0.0100935,783,1548,-0.0288575,0.0564141
-434,-524,-0.00933838,-0.0447998,-0.00349458,0.00448079,-0.000450898,0.0045062,-0.00351999,-1.5145,0.00464557,0.0116127,790,1548,-0.00935195,0.0448052
-427,-524,-0.00854492,-0.0588379,-0.00292607,0.00299969,-0.000684087,0.00307764,-0.00300402,-1.45734,0.00351133,0.0128284,797,1548,-0.00852273,0.0587846
-420,-524,-0.0236206,-0.0686035,-0.00201894,0.00204381,-0.000203421,0.00205397,-0.0020291,-1.52089,0.00235738,0.011284,804,1548,-0.0236337,0.0686478
-413,-524,-0.00915527,-0.0759277,-0.00138219,0.0011589,-0.000106536,0.00116336,-0.00138665,-1.52897,0.00147413,0.0102962,811,1548,-0.00916586,0.0758862
-406,-524,-0.0112305,-0.0666504,-0.00153181,0.000550391,-0.000159518,0.000562541,-0.00154396,-1.49478,0.00125942,0.0102794,818,1548,-0.0112256,0.066617
-399,-524,-0.0181885,-0.0705566,-0.00228318,0.000431723,-0.000312766,0.000467288,-0.00231875,-1.45757,0.00172285,0.00868832,825,1548,-0.0181949,0.0706089
-392,-524,-0.0124512,-0.0723877,-0.003664,0.000857374,-0.000774088,0.00098623,-0.00379286,-1.40585,0.0029135,0.00940994,832,1548,-0.0124601,0.0724404
-385,-524,-0.022522,-0.0579834,-0.00536759,0.0012292,-0.00170089,0.00164192,-0.00578031,-1.33274,0.00450179,0.0107559,839,1548,-0.0225184,0.0580321
-378,-524,-0.0184326,-0.0754395,-0.00706337,0.00156,-0.00268606,0.00232823,-0.0078316,-1.29223,0.00614594,0.0126904,846,1548,-0.0184062,0.0754803
-371,-524,-0.00726318,-0.0810547,-0.00947351,0.00227368,-0.00399189,0.0035018,-0.0107016,-1.27233,0.00854433,0.0208352,853,1548,-0.00725732,0.0810014
-364,-524,0.000610352,-0.0108643,-0.0118617,0.00267979,-0.00573094,0.00466688,-0.0138487,-1.23704,0.0111195,0.0320361,860,1548,0.000618222,0.0108403
-357,-524,-0.226929,0.272949,-0.0140732,0.00280367,-0.00727357,0.00550579,-0.0167754,-1.2151,0.0134013,0.0437636,867,1548,-0.226935,-0.272895
-350,-524,0.15271,0.0541992,0,0,0,0,0,0,0,-1,874,1548,0.152729,-0.054214
-343,-524,-0.227417,0.307251,0,0,0,0,0,0,0,-1,881,1548,-0.227435,-0.307199
-336,-524,-0.00244141,0.180664,0,0,0,0,0,0,0,-1,888,1548,-0.00242588,-0.180705
-329,-524,0.222595,0.0541992,0,0,0,0,0,0,0,-1,895,1548,0.222583,-0.0542113
-322,-524,1.04694,0.0932617,0,0,0,0,0,0,0,-1,902,1548,1.04694,-0.0932354
-315,-524,0.837463,-0.856812,0,0,0,0,0,0,0,-1,909,1548,0.837486,0.856793
-308,-524,0.908447,-1.31262,0,0,0,0,0,0,0,-1,916,1548,0.90846,1.31263
-301,-524,0.64917,-1.32874,0,0,0,0,0,0,0,-1,923,1548,0.649193,1.32877
-294,-524,0.544739,-1.41284,0,0,0,0,0,0,0,-1,930,1548,0.544768,1.41289
-287,-524,0.398315,-1.16565,0.00394281,-0.0622313,0.000933555,0.00395598,-0.0622445,0.0141038,0.0428759,0.0449386,937,1548,0.398332,1.16565
-280,-524,0.646667,-1.25159,0.00733028,-0.067029,0.00499049,0.00766371,-0.0673625,0.0667144,0.0476687,0.047654,944,1548,0.646684,1.25162
-273,-524,0,0,0,0,0,0,0,0,0,-1,951,1548,0,0
-266,-524,0,0,0,0,0,0,0,0,0,-1,958,1548,0,0
-259,-524,0,0,0,0,0,0,0,0,0,-1,965,1548,0,0
-252,-524,0,0,0,0,0,0,0,0,0,-1,972,1548,0,0
-245,-524,0,0,0,0,0,0,0,0,0,-1,979,1548,0,0
-238,-524,0,0,0,0,0,0,0,0,0,-1,986,1548,0,0
-231,-524,0,0,0,0,0,0,0,0,0,-1,993,1548,0,0
-224,-524,0,0,0,0,0,0,0,0,0,-1,1000,1548,0,0
-217,-524,0,0,0,0,0,0,0,0,0,-1,1007,1548,0,0
-210,-524,0,0,0,0,0,0,0,0,0,-1,1014,1548,0,0
-203,-524,0,0,0,0,0,0,0,0,0,-1,1021,1548,0,0
-196,-524,0,0,0,0,0,0,0,0,0,-1,1028,1548,0,0
-189,-524,0,0,0,0,0,0,0,0,0,-1,1035,1548,0,0
-182,-524,0,0,0,0,0,0,0,0,0,-1,1042,1548,0,0
-175,-524,0,0,0,0,0,0,0,0,0,-1,1049,1548,0,0
-168,-524,0,0,0,0,0,0,0,0,0,-1,1056,1548,0,0
-161,-524,0,0,0,0,0,0,0,0,0,-1,1063,1548,0,0
-154,-524,0,0,0,0,0,0,0,0,0,-1,1070,1548,0,0
-147,-524,0,0,0,0,0,0,0,0,0,-1,1077,1548,0,0
-140,-524,0,0,0,0,0,0,0,0,0,-1,1084,1548,0,0
-133,-524,0,0,0,0,0,0,0,0,0,-1,1091,1548,0,0
-126,-524,0,0,0,0,0,0,0,0,0,-1,1098,1548,0,0
-119,-524,0,0,0,0,0,0,0,0,0,-1,1105,1548,0,0
-112,-524,0,0,0,0,0,0,0,0,0,-1,1112,1548,0,0
-105,-524,0,0,0,0,0,0,0,0,0,-1,1119,1548,0,0
-98,-524,0,0,0,0,0,0,0,0,0,-1,1126,1548,0,0
-91,-524,0,0,0,0,0,0,0,0,0,-1,1133,1548,0,0
-84,-524,0,0,0,0,0,0,0,0,0,-1,1140,1548,0,0
-77,-524,0,0,0,0,0,0,0,0,0,-1,1147,1548,0,0
-70,-524,0,0,0,0,0,0,0,0,0,-1,1154,1548,0,0
-63,-524,0,0,0,0,0,0,0,0,0,-1,1161,1548,0,0
-56,-524,0,0,0,0,0,0,0,0,0,-1,1168,1548,0,0
-49,-524,0,0,0,0,0,0,0,0,0,-1,1175,1548,0,0
-42,-524,0,0,0,0,0,0,0,0,0,-1,1182,1548,0,0
-35,-524,0,0,0,0,0,0,0,0,0,-1,1189,1548,0,0
-28,-524,0,0,0,0,0,0,0,0,0,-1,1196,1548,0,0
-21,-524,0,0,0,0,0,0,0,0,0,-1,1203,1548,0,0
-14,-524,0,0,0,0,0,0,0,0,0,-1,1210,1548,0,0
-7,-524,0,0,0,0,0,0,0,0,0,-1,1217,1548,0,0
0,-524,0,0,0,0,0,0,0,0,0,-1,1224,1548,0,0
7,-524,0,0,0,0,0,0,0,0,0,-1,1231,1548,0,0
14,-524,0,0,0,0,0,0,0,0,0,-1,1238,1548,0,0
21,-524,0,0,0,0,0,0,0,0,0,-1,1245,1548,0,0
28,-524,0,0,0,0,0,0,0,0,0,-1,1252,1548,0,0
35,-524,0,0,0,0,0,0,0,0,0,-1,1259,1548,0,0
42,-524,0,0,0,0,0,0,0,0,0,-1,1266,1548,0,0
49,-524,0,0,0,0,0,0,0,0,0,-1,1273,1548,0,0
56,-524,0,0,0,0,0,0,0,0,0,-1,1280,1548,0,0
63,-524,0,0,0,0,0,0,0,0,0,-1,1287,1548,0,0
70,-524,0,0,0,0,0,0,0,0,0,-1,1294,1548,0,0
77,-524,0,0,0,0,0,0,0,0,0,-1,1301,1548,0,0
84,-524,0,0,0,0,0,0,0,0,0,-1,1308,1548,0,0
91,-524,0,0,0,0,0,0,0,0,0,-1,1315,1548,0,0
98,-524,0,0,0,0,0,0,0,0,0,-1,1322,1548,0,0
105,-524,0,0,0,0,0,0,0,0,0,-1,1329,1548,0,0
112,-524,0,0,0,0,0,0,0,0,0,-1,1336,1548,0,0
119,-524,0,0,0,0,0,0,0,0,0,-1,1343,1548,0,0
126,-524,0,0,0,0,0,0,0,0,0,-1,1350,1548,0,0
133,-524,0,0,0,0,0,0,0,0,0,-1,1357,1548,0,0
140,-524,0,0,0,0,0,0,0,0,0,-1,1364,1548,0,0
147,-524,0,0,0,0,0,0,0,0,0,-1,1371,1548,0,0
154,-524,0,0,0,0,0,0,0,0,0,-1,1378,1548,0,0
161,-524,0,0,0,0,0,0,0,0,0,-1,1385,1548,0,0
168,-524,0,0,0,0,0,0,0,0,0,-1,1392,1548,0,0
175,-524,0,0,0,0,0,0,0,0,0,-1,1399,1548,0,0
182,-524,0,0,0,0,0,0,0,0,0,-1,1406,1548,0,0
189,-524,0,0,0,0,0,0,0,0,0,-1,1413,1548,0,0
196,-524,0,0,0,0,0,0,0,0,0,-1,1420,1548,0,0
203,-524,0,0,0,0,0,0,0,0,0,-1,1427,1548,0,0
210,-524,0,0,0,0,0,0,0,0,0,-1,1434,1548,0,0
217,-524,0,0,0,0,0,0,0,0,0,-1,1441,1548,0,0
224,-524,0,0,0,0,0,0,0,0,0,-1,1448,1548,0,0
231,-524,0,0,0,0,0,0,0,0,0,-1,1455,1548,0,0
238,-524,0,0,0,0,0,0,0,0,0,-1,1462,1548,0,0
245,-524,0,0,0,0,0,0,0,0,0,-1,1469,1548,0,0
252,-524,0,0,0,0,0,0,0,0,0,-1,1476,1548,0,0
259,-524,0,0,0,0,0,0,0,0,0,-1,1483,1548,0,0
266,-524,0,0,0,0,0,0,0,0,0,-1,1490,1548,0,0
273,-524,0,0,0,0,0,0,0,0,0,-1,1497,1548,0,0
280,-524,0,0,0,0,0,0,0,0,0,-1,1504,1548,0,0
287,-524,0,0,0,0,0,0,0,0,0,-1,1511,1548,0,0
294,-524,0,0,0,0,0,0,0,0,0,-1,1518,1548,0,0
301,-524,0,0,0,0,0,0,0,0,0,-1,1525,1548,0,0
308,-524,0,0,0,0,0,0,0,0,0,-1,1532,1548,0,0
315,-524,0,0,0,0,0,0,0,0,0,-1,1539,1548,0,0
322,-524,0,0,0,0,0,0,0,0,0,-1,1546,1548,0,0
329,-524,0,0,0,0,0,0,0,0,0,-1,1553,1548,0,0
336,-524,0,0,0,0,0,0,0,0,0,-1,1560,1548,0,0
343,-524,0,0,0,0,0,0,0,0,0,-1,1567,1548,0,0
350,-524,0,0,0,0,0,0,0,0,0,-1,1574,1548,0,0
357,-524,0,0,0,0,0,0,0,0,0,-1,1581,1548,0,0
364,-524,0,0,0,0,0,0,0,0,0,-1,1588,1548,0,0
371,-524,0,0,0,0,0,0,0,0,0,-1,1595,1548,0,0
378,-524,0,0,0,0,0,0,0,0,0,-1,1602,1548,0,0
385,-524,0,0,0,0,0,0,0,0,0,-1,1609,1548,0,0
392,-524,0,0,0,0,0,0,0,0,0,-1,1616,1548,0,0
399,-524,0.647095,2.98572,0,0,0,0,0,0,0,-1,1623,1548,0.647131,-2.9857
406,-524,1.10938,2.75977,-0.0132588,0.00650002,0.00572889,0.0080409,-0.0147996,1.30805,0.0133781,0.0497369,1630,1548,1.10934,-2.75981
413,-524,1.57739,2.48303,-0.0165953,0.00754209,0.00262983,0.00782529,-0.0168785,1.46352,0.0145785,0.0477526,1637,1548,1.57735,-2.48299
420,-524,-2.06897,0.126831,0,0,0,0,0,0,0,-1,1644,1548,-2.06894,-0.126845
427,-524,-2.33142,0.37793,-0.0161431,0.00859621,-0.00311954,0.00898351,-0.0165304,-1.44728,0.0149437,0.0480126,1651,1548,-2.33143,-0.377984
434,-524,-2.51953,0.660156,-0.0135154,0.00803296,-0.00475547,0.00903576,-0.0145182,-1.36297,0.0137211,0.048308,1658,1548,-2.51958,-0.660105
441,-524,-2.67432,1.04456,0,0,0,0,0,0,0,-1,1665,1548,-2.67428,-1.04452
448,-524,-1.02869,0.279907,0,0,0,0,0,0,0,-1,1672,1548,-1.02866,-0.279924
455,-524,0.209473,0.0845947,0,0,0,0,0,0,0,-1,1679,1548,0.209524,-0.0846244
462,-524,0.174805,0.0843506,-0.00404924,0.00204451,-0.0046826,0.00458424,-0.00658897,-1.07383,0.00648538,0.0458512,1686,1548,0.174822,-0.0843538
469,-524,0.189209,0.109741,-0.00234265,0.00178487,-0.00298935,0.00335365,-0.00391143,-1.08751,0.00419861,0.0487215,1693,1548,0.189176,-0.109699
476,-524,0.229126,0.368896,-0.000918072,0.00131329,-0.00186931,0.00237455,-0.00197933,-1.05444,0.00251716,0.0473623,1700,1548,0.229159,-0.368884
483,-524,0.170776,0.548584,0,0,0,0,0,0,0,-1,1707,1548,0.170808,-0.548581
490,-524,-0.0153809,-0.162231,-0.000547929,-0.000223346,0.000486212,0.000126946,-0.00089822,0.946478,0.000645304,0.0350728,1714,1548,-0.0153294,0.162181
497,-524,-0.0959473,-0.0463867,-0.0010007,-0.000646454,0.000718419,-8.36449e-05,-0.00156351,0.90626,0.00101561,0.0238673,1721,1548,-0.0959823,0.0463934
504,-524,-0.0473633,-0.0831299,-0.00161898,-0.000722473,0.000818285,-0.000237708,-0.00210374,1.03597,0.00133036,0.0138885,1728,1548,-0.0474074,0.0831088
511,-524,-0.0310059,-0.0869141,-0.00175041,-0.000219408,0.000851943,0.000160428,-0.00213025,1.1514,0.00147655,0.0138118,1735,1548,-0.0309973,0.0869244
518,-524,-0.0126953,-0.0812988,-0.0017053,5.41418e-05,0.000817686,0.00037547,-0.00202663,1.19636,0.00149207,0.0145056,1742,1548,-0.0126353,0.0812675
525,-524,-0.00341797,-0.0881348,-0.00157518,2.84789e-05,0.000655305,0.000262195,-0.0018089,1.22821,0.00130216,0.013362,1749,1548,-0.0033748,0.0881709
532,-524,0.0124512,-0.0931396,-0.0015888,5.82803e-05,0.000391859,0.000146755,-0.00167727,1.34874,0.00117017,0.0092514,1756,1548,0.0124394,0.0931258
539,-524,0.00500488,-0.0792236,-0.00153082,0.00031829,0.000209119,0.000341645,-0.00155418,1.45958,0.00116679,0.00979206,1763,1548,0.00504919,0.0792452
546,-524,-0.0216064,-0.0645752,-0.00117219,0.00100364,0.000227686,0.00102722,-0.00119576,1.46764,0.00128467,0.0130227,1770,1548,-0.0216077,0.0645296
553,-524,-0.0250244,-0.0526123,-0.00081812,0.00155457,0.000143524,0.00156322,-0.00082677,1.5106,0.00140153,0.0223053,1777,1548,-0.0250717,0.0526227
560,-524,-0.0622559,-0.0853271,-0.000446135,0.0022121,0.00020503,0.00222782,-0.000461856,1.49427,0.00166071,0.0269622,1784,1548,-0.0622412,0.0853727
567,-524,-0.0234375,-0.0806885,4.37386e-05,0.00271432,0.00046659,0.00279349,-3.54345e-05,1.40271,0.00187425,0.0149399,1791,1548,-0.0234835,0.0807262
574,-524,-0.0219727,-0.0627441,0.00087374,0.00367727,0.000747568,0.00386415,0.000686856,1.32583,0.00238041,0.0116072,1798,1548,-0.0219514,0.0627647
581,-524,-0.00231934,-0.067749,0.00229815,0.00435744,0.00123312,0.00493427,0.00172132,1.13326,0.00289187,0.0134026,1805,1548,-0.00237236,0.0677307
588,-524,0.0012207,-0.0633545,0.00367263,0.00537165,0.00170669,0.00642856,0.00261572,1.01632,0.00373292,0.0130046,1812,1548,0.0012717,0.0633263
595,-524,-0.0349121,-0.0716553,0.00521564,0.00662479,0.00212881,0.00816259,0.00367783,0.945209,0.00472035,0.0116399,1819,1548,-0.034963,0.0716712
602,-524,-0.0651855,-0.102783,0.00689613,0.00813855,0.00250151,0.0100948,0.00493985,0.907103,0.00582869,0.0231421,1826,1548,-0.0651706,0.102809
609,-524,-0.199707,-0.109863,0.00854235,0.0101824,0.00266191,0.0121477,0.006577,0.934812,0.0070215,0.0386819,1833,1548,-0.199679,0.10988
616,-524,-0.0957031,-0.182373,0.010494,0.0124392,0.00278914,0.0144205,0.00851275,0.953161,0.00837082,0.0422247,1840,1548,-0.0956651,0.182419
623,-524,0.457031,0.00927734,0,0,0,0,0,0,0,-1,1847,1548,0.457024,-0.00928569
630,-524,0.713501,0.350342,0,0,0,0,0,0,0,-1,1854,1548,0.713507,-0.350392
637,-524,1.13464,0.714722,0,0,0,0,0,0,0,-1,1861,1548,1.1347,-0.714706
644,-524,-0.163208,-2.2699,0,0,0,0,0,0,0,-1,1868,1548,-0.163249,2.26995
651,-524,0,0,0,0,0,0,0,0,0,-1,1875,1548,0,0
658,-524,0,0,0,0,0,0,0,0,0,-1,1882,1548,0,0
665,-524,0,0,0,0,0,0,0,0,0,-1,1889,1548,0,0
672,-524,0,0,0,0,0,0,0,0,0,-1,1896,1548,0,0
679,-524,0,0,0,0,0,0,0,0,0,-1,1903,1548,0,0
686,-524,0,0,0,0,0,0,0,0,0,-1,1910,1548,0,0
693,-524,0,0,0,0,0,0,0,0,0,-1,1917,1548,0,0
700,-524,0,0,0,0,0,0,0,0,0,-1,1924,1548,0,0
707,-524,0,0,0,0,0,0,0,0,0,-1,1931,1548,0,0
714,-524,0,0,0,0,0,0,0,0,0,-1,1938,1548,0,0
721,-524,0,0,0,0,0,0,0,0,0,-1,1945,1548,0,0
728,-524,0,0,0,0,0,0,0,0,0,-1,1952,1548,0,0
735,-524,0,0,0,0,0,0,0,0,0,-1,1959,1548,0,0
742,-524,0,0,0,0,0,0,0,0,0,-1,1966,1548,0,0
749,-524,0,0,0,0,0,0,0,0,0,-1,1973,1548,0,0
756,-524,0,0,0,0,0,0,0,0,0,-1,1980,1548,0,0
763,-524,0,0,0,0,0,0,0,0,0,-1,1987,1548,0,0
770,-524,0,0,0,0,0,0,0,0,0,-1,1994,1548,0,0
777,-524,0,0,0,0,0,0,0,0,0,-1,2001,1548,0,0
784,-524,0,0,0,0,0,0,0,0,0,-1,2008,1548,0,0
791,-524,0,0,0,0,0,0,0,0,0,-1,2015,1548,0,0
798,-524,0,0,0,0,0,0,0,0,0,-1,2022,1548,0,0
805,-524,0,0,0,0,0,0,0,0,0,-1,2029,1548,0,0
812,-524,0,0,0,0,0,0,0,0,0,-1,2036,1548,0,0
-700,-531,0,0,0,0,0,0,0,0,0,-1,524,1555,0,0
-693,-531,0,0,0,0,0,0,0,0,0,-1,531,1555,0,0
-686,-531,0,0,0,0,0,0,0,0,0,-1,538,1555,0,0
-679,-531,0,0,0,0,0,0,0,0,0,-1,545,1555,0,0
-672,-531,0,0,0,0,0,0,0,0,0,-1,552,1555,0,0
-665,-531,0,0,0,0,0,0,0,0,0,-1,559,1555,0,0
-658,-531,0,0,0,0,0,0,0,0,0,-1,566,1555,0,0
-651,-531,0,0,0,0,0,0,0,0,0,-1,573,1555,0,0
-644,-531,0,0,0,0,0,0,0,0,0,-1,580,1555,0,0
-637,-531,0,0,0,0,0,0,0,0,0,-1,587,1555,0,0
-630,-531,0,0,0,0,0,0,0,0,0,-1,594,1555,0,0
-623,-531,0,0,0,0,0,0,0,0,0,-1,601,1555,0,0
-616,-531,0,0,0,0,0,0,0,0,0,-1,608,1555,0,0
-609,-531,0,0,0,0,0,0,0,0,0,-1,615,1555,0,0
-602,-531,0,0,0,0,0,0,0,0,0,-1,622,1555,0,0
-595,-531,0,0,0,0,0,0,0,0,0,-1,629,1555,0,0
-588,-531,0,0,0,0,0,0,0,0,0,-1,636,1555,0,0
-581,-531,0,0,0,0,0,0,0,0,0,-1,643,1555,0,0
-574,-531,0,0,0,0,0,0,0,0,0,-1,650,1555,0,0
-567,-531,0,0,0,0,0,0,0,0,0,-1,657,1555,0,0
-560,-531,0,0,0,0,0,0,0,0,0,-1,664,1555,0,0
-553,-531,0,0,0,0,0,0,0,0,0,-1,671,1555,0,0
-546,-531,0,0,0,0,0,0,0,0,0,-1,678,1555,0,0
-539,-531,0,0,0,0,0,0,0,0,0,-1,685,1555,0,0
-532,-531,0,0,0,0,0,0,0,0,0,-1,692,1555,0,0
-525,-531,0,0,0,0,0,0,0,0,0,-1,699,1555,0,0
-518,-531,0.861084,-2.83044,-0.0480585,0.0846682,0.0184802,0.0871933,-0.0505835,1.435,0.0804761,0.0429262,706,1555,0.861075,2.8305
-511,-531,0.735657,-3.30798,-0.0397707,0.080511,0.0145164,0.0822382,-0.0414978,1.45237,0.0727183,0.0469581,713,1555,0.735683,3.30794
-504,-531,0.545471,-1.07446,-0.0326722,0.0735132,0.0111632,0.0746741,-0.0338331,1.46718,0.0641088,0.0435166,720,1555,0.545473,1.07452
-497,-531,0.1604,-1.19727,-0.0269898,0.0648015,0.0083613,0.0655569,-0.0277452,1.48069,0.0553229,0.0447262,727,1555,0.160424,1.1973
-490,-531,-0.508606,-0.487183,-0.0225649,0.0551309,0.00606335,0.0556013,-0.0230352,1.49338,0.0466805,0.0454536,734,1555,-0.508594,0.48715
-483,-531,-0.987854,-0.206299,0,0,0,0,0,0,0,-1,741,1555,-0.987869,0.206271
-476,-531,0.258301,-0.25647,-0.0156771,0.0376983,0.00298948,0.0378653,-0.015844,1.51502,0.031866,0.0444988,748,1555,0.258308,0.256486
-469,-531,-0.0184326,-0.151367,-0.0126587,0.030114,0.00187955,0.0301965,-0.0127411,1.52697,0.0254637,0.040632,755,1555,-0.0184058,0.151311
-462,-531,-0.152588,-0.153442,-0.0102378,0.0230872,0.000985812,0.0231164,-0.0102669,1.54125,0.019744,0.0351238,762,1555,-0.152611,0.153475
-455,-531,-0.0495605,-0.0540771,-0.00883545,0.0171356,0.000234098,0.0171377,-0.00883756,1.56178,0.0152499,0.0223119,769,1555,-0.0495701,0.0540774
-448,-531,-0.0176392,-0.0629883,-0.00776635,0.0112386,0.000318152,0.011244,-0.00777168,1.55406,0.0110395,0.0103381,776,1555,-0.0176117,0.0629758
-441,-531,-0.0198364,-0.0593262,-0.00609749,0.00860405,0.000156305,0.00860571,-0.00609915,1.56017,0.00853087,0.0102372,783,1555,-0.0198438,0.0592718
-434,-531,-0.0176392,-0.0510254,-0.00478224,0.00668392,-0.000107754,0.00668493,-0.00478325,-1.5614,0.00665143,0.0113398,790,1555,-0.0176419,0.0509847
-427,-531,-0.0151978,-0.0529785,-0.00388766,0.00466989,-0.00040101,0.00468864,-0.00390641,-1.52407,0.0049692,0.0129392,797,1555,-0.0151849,0.0530061
-420,-531,-0.0250854,-0.0755615,-0.00259426,0.00331863,9.30595e-05,0.00332009,-0.00259573,1.55506,0.00342403,0.0111725,804,1555,-0.0250798,0.0755874
-413,-531,-0.0251465,-0.0996094,-0.00167773,0.00213771,7.77582e-05,0.0021393,-0.00167932,1.55043,0.00221,0.00954781,811,1555,-0.0251353,0.0996488
-406,-531,-0.017334,-0.103394,-0.00157867,0.00134788,-5.32493e-05,0.00134885,-0.00157964,-1.55261,0.00169251,0.0107877,818,1555,-0.0173429,0.103338
-399,-531,-0.000854492,-0.0710449,-0.00200607,0.000989514,-0.000228333,0.00100682,-0.00202337,-1.49516,0.00178199,0.0122928,825,1555,-0.000852857,0.0710326
-392,-531,-0.00488281,-0.0598145,-0.00288249,0.00112659,-0.000638025,0.00122568,-0.00298158,-1.41672,0.00249858,0.0157874,832,1555,-0.0048964,0.0598414
-385,-531,-0.0328979,-0.0540771,-0.00401781,0.00131213,-0.00139754,0.00165634,-0.00436202,-1.3293,0.00358985,0.0141154,839,1555,-0.0328737,0.0541153
-378,-531,-0.0284424,-0.0604248,-0.00512502,0.0013581,-0.0022426,0.00205823,-0.00582515,-1.26819,0.0047215,0.00995644,846,1555,-0.0284422,0.0604416
-371,-531,-0.0183105,-0.0910645,-0.0067918,0.00182001,-0.00325298,0.00291065,-0.00788244,-1.2473,0.00644801,0.00982176,853,1555,-0.0183402,0.0911112
-364,-531,-0.0356445,-0.0751953,-0.00834772,0.00193535,-0.00463104,0.00371349,-0.0101259,-1.20419,0.00827111,0.0189233,860,1555,-0.0356243,0.0752469
-357,-531,-0.0368652,-0.0256348,-0.0096455,0.00175111,-0.00573937,0.00414052,-0.0120349,-1.1763,0.00970254,0.034155,867,1555,-0.0368876,0.0256757
-350,-531,0.0580444,-0.0419922,-0.0102444,0.00139462,-0.00566764,0.00369847,-0.0125482,-1.18471,0.00983295,0.0435367,874,1555,0.0580664,0.0420233
-343,-531,0.0792847,-0.0317383,-0.0105031,-0.000530998,-0.00570488,0.00205965,-0.0130937,-1.14453,0.0094905,0.0461508,881,1555,0.0792652,0.0317977
-336,-531,0.0300903,0.0650635,-0.0103609,-0.0040142,-0.006143,-0.000273319,-0.0141018,-1.02381,0.00931142,0.0454338,888,1555,0.0300701,-0.0651028
-329,-531,0.265869,-0.48877,-0.00887799,-0.00812717,-0.00543282,-0.00305681,-0.0139484,-0.819894,0.00846596,0.0442548,895,1555,0.26587,0.488777
-322,-531,0.369873,-1.28882,0,0,0,0,0,0,0,-1,902,1555,0.369862,1.2888
-315,-531,0.626282,-0.657959,-0.00402196,-0.0186084,-0.00279917,-0.00350325,-0.0191272,-0.183233,0.0117589,0.0460511,909,1555,0.626287,0.657952
-308,-531,0.741882,-0.985596,-0.00162479,-0.0254639,-0.00108055,-0.00157591,-0.0255128,-0.0452032,0.0165083,0.0445858,916,1555,0.741892,0.985618
-301,-531,0.693848,-1.08435,0.00172572,-0.0317292,0.000924639,0.00175125,-0.0317548,0.0276102,0.0217771,0.0439382,923,1555,0.693877,1.08434
-294,-531,0.530151,-0.790405,0.00610575,-0.0400464,0.00350064,0.00636977,-0.0403104,0.075276,0.0292292,0.0450862,930,1555,0.530137,0.790358
-287,-531,0.311035,-0.493286,0.00827883,-0.0460332,0.00527226,0.00878589,-0.0465402,0.0958807,0.0343322,0.0486584,937,1555,0.311009,0.493259
-280,-531,0.460876,-0.694336,0.00714347,-0.0445935,0.00721165,0.00812989,-0.0455799,0.135939,0.0334278,0.045682,944,1555,0.460864,0.694309
-273,-531,0.930969,-0.784058,0,0,0,0,0,0,0,-1,951,1555,0.930978,0.783999
-266,-531,0.247192,-0.542725,0,0,0,0,0,0,0,-1,958,1555,0.247217,0.542698
-259,-531,0,0,0,0,0,0,0,0,0,-1,965,1555,0,0
-252,-531,0,0,0,0,0,0,0,0,0,-1,972,1555,0,0
-245,-531,0,0,0,0,0,0,0,0,0,-1,979,1555,0,0
-238,-531,0,0,0,0,0,0,0,0,0,-1,986,1555,0,0
-231,-531,0,0,0,0,0,0,0,0,0,-1,993,1555,0,0
-224,-531,0,0,0,0,0,0,0,0,0,-1,1000,1555,0,0
-217,-531,0,0,0,0,0,0,0,0,0,-1,1007,1555,0,0
-210,-531,0,0,0,0,0,0,0,0,0,-1,1014,1555,0,0
-203,-531,0,0,0,0,0,0,0,0,0,-1,1021,1555,0,0
-196,-531,0,0,0,0,0,0,0,0,0,-1,1028,1555,0,0
-189,-531,0,0,0,0,0,0,0,0,0,-1,1035,1555,0,0
-182,-531,0,0,0,0,0,0,0,0,0,-1,1042,1555,0,0
-175,-531,0,0,0,0,0,0,0,0,0,-1,1049,1555,0,0
-168,-531,0,0,0,0,0,0,0,0,0,-1,1056,1555,0,0
-161,-531,0,0,0,0,0,0,0,0,0,-1,1063,1555,0,0
-154,-531,0,0,0,0,0,0,0,0,0,-1,1070,1555,0,0
-147,-531,0,0,0,0,0,0,0,0,0,-1,1077,1555,0,0
-140,-531,0,0,0,0,0,0,0,0,0,-1,1084,1555,0,0
-133,-531,0,0,0,0,0,0,0,0,0,-1,1091,1555,0,0
-126,-531,0,0,0,0,0,0,0,0,0,-1,1098,1555,0,0
-119,-531,0,0,0,0,0,0,0,0,0,-1,1105,1555,0,0
-112,-531,0,0,0,0,0,0,0,0,0,-1,1112,1555,0,0
-105,-531,0,0,0,0,0,0,0,0,0,-1,1119,1555,0,0
-98,-531,0,0,0,0,0,0,0,0,0,-1,1126,1555,0,0
-91,-531,0,0,0,0,0,0,0,0,0,-1,1133,1555,0,0
-84,-531,0,0,0,0,0,0,0,0,0,-1,1140,1555,0,0
-77,-531,0,0,0,0,0,0,0,0,0,-1,1147,1555,0,0
-70,-531,0,0,0,0,0,0,0,0,0,-1,1154,1555,0,0
-63,-531,0,0,0,0,0,0,0,0,0,-1,1161,1555,0,0
-56,-531,0,0,0,0,0,0,0,0,0,-1,1168,1555,0,0
-49,-531,0,0,0,0,0,0,0,0,0,-1,1175,1555,0,0
-42,-531,0,0,0,0,0,0,0,0,0,-1,1182,1555,0,0
-35,-531,0,0,0,0,0,0,0,0,0,-1,1189,1555,0,0
-28,-531,0,0,0,0,0,0,0,0,0,-1,1196,1555,0,0
-21,-531,0,0,0,0,0,0,0,0,0,-1,1203,1555,0,0
-14,-531,0,0,0,0,0,0,0,0,0,-1,1210,1555,0,0
-7,-531,0,0,0,0,0,0,0,0,0,-1,1217,1555,0,0
0,-531,0,0,0,0,0,0,0,0,0,-1,1224,1555,0,0
7,-531,0,0,0,0,0,0,0,0,0,-1,1231,1555,0,0
14,-531,0,0,0,0,0,0,0,0,0,-1,1238,1555,0,0
21,-531,0,0,0,0,0,0,0,0,0,-1,1245,1555,0,0
28,-531,0,0,0,0,0,0,0,0,0,-1,1252,1555,0,0
35,-531,0,0,0,0,0,0,0,0,0,-1,1259,1555,0,0
42,-531,0,0,0,0,0,0,0,0,0,-1,1266,1555,0,0
49,-531,0,0,0,0,0,0,0,0,0,-1,1273,1555,0,0
56,-531,0,0,0,0,0,0,0,0,0,-1,1280,1555,0,0
63,-531,0,0,0,0,0,0,0,0,0,-1,1287,1555,0,0
70,-531,0,0,0,0,0,0,0,0,0,-1,1294,1555,0,0
77,-531,0,0,0,0,0,0,0,0,0,-1,1301,1555,0,0
84,-531,0,0,0,0,0,0,0,0,0,-1,1308,1555,0,0
91,-531,0,0,0,0,0,0,0,0,0,-1,1315,1555,0,0
98,-531,0,0,0,0,0,0,0,0,0,-1,1322,1555,0,0
105,-531,0,0,0,0,0,0,0,0,0,-1,1329,1555,0,0
112,-531,0,0,0,0,0,0,0,0,0,-1,1336,1555,0,0
119,-531,0,0,0,0,0,0,0,0,0,-1,1343,1555,0,0
126,-531,0,0,0,0,0,0,0,0,0,-1,1350,1555,0,0
133,-531,0,0,0,0,0,0,0,0,0,-1,1357,1555,0,0
140,-531,0,0,0,0,0,0,0,0,0,-1,1364,1555,0,0
147,-531,0,0,0,0,0,0,0,0,0,-1,1371,1555,0,0
154,-531,0,0,0,0,0,0,0,0,0,-1,1378,1555,0,0
161,-531,0,0,0,0,0,0,0,0,0,-1,1385,1555,0,0
168,-531,0,0,0,0,0,0,0,0,0,-1,1392,1555,0,0
175,-531,0,0,0,0,0,0,0,0,0,-1,1399,1555,0,0
182,-531,0,0,0,0,0,0,0,0,0,-1,1406,1555,0,0
189,-531,0,0,0,0,0,0,0,0,0,-1,1413,1555,0,0
196,-531,0,0,0,0,0,0,0,0,0,-1,1420,1555,0,0
203,-531,0,0,0,0,0,0,0,0,0,-1,1427,1555,0,0
210,-531,0,0,0,0,0,0,0,0,0,-1,1434,1555,0,0
217,-531,0,0,0,0,0,0,0,0,0,-1,1441,1555,0,0
224,-531,0,0,0,0,0,0,0,0,0,-1,1448,1555,0,0
231,-531,0,0,0,0,0,0,0,0,0,-1,1455,1555,0,0
238,-531,0,0,0,0,0,0,0,0,0,-1,1462,1555,0,0
245,-531,0,0,0,0,0,0,0,0,0,-1,1469,1555,0,0
252,-531,0,0,0,0,0,0,0,0,0,-1,1476,1555,0,0
259,-531,0,0,0,0,0,0,0,0,0,-1,1483,1555,0,0
266,-531,0,0,0,0,0,0,0,0,0,-1,1490,1555,0,0
273,-531,0,0,0,0,0,0,0,0,0,-1,1497,1555,0,0
280,-531,0,0,0,0,0,0,0,0,0,-1,1504,1555,0,0
287,-531,0,0,0,0,0,0,0,0,0,-1,1511,1555,0,0
294,-531,0,0,0,0,0,0,0,0,0,-1,1518,1555,0,0
301,-531,0,0,0,0,0,0,0,0,0,-1,1525,1555,0,0
308,-531,0,0,0,0,0,0,0,0,0,-1,1532,1555,0,0
315,-531,0,0,0,0,0,0,0,0,0,-1,1539,1555,0,0
322,-531,0,0,0,0,0,0,0,0,0,-1,1546,1555,0,0
329,-531,0,0,0,0,0,0,0,0,0,-1,1553,1555,0,0
336,-531,0,0,0,0,0,0,0,0,0,-1,1560,1555,0,0
343,-531,0,0,0,0,0,0,0,0,0,-1,1567,1555,0,0
350,-531,0,0,0,0,0,0,0,0,0,-1,1574,1555,0,0
357,-531,0,0,0,0,0,0,0,0,0,-1,1581,1555,0,0
364,-531,0,0,0,0,0,0,0,0,0,-1,1588,1555,0,0
371,-531,0,0,0,0,0,0,0,0,0,-1,1595,1555,0,0
378,-531,0,0,0,0,0,0,0,0,0,-1,1602,1555,0,0
385,-531,2.7699,0.302734,0,0,0,0,0,0,0,-1,1609,1555,2.76988,-0.302688
392,-531,2.27319,-0.09375,0,0,0,0,0,0,0,-1,1616,1555,2.27316,0.0937949
399,-531,1.84741,-0.0181885,0,0,0,0,0,0,0,-1,1623,1555,1.84741,0.0182486
406,-531,-0.384888,0.0985107,0,0,0,0,0,0,0,-1,1630,1555,-0.384878,-0.0984503
413,-531,0.366943,0.0395508,0,0,0,0,0,0,0,-1,1637,1555,0.366906,-0.0395969
420,-531,-0.0895996,0.33606,-0.0172,0.0108688,0.0014494,0.0109434,-0.0172746,1.51934,0.0164278,0.0457563,1644,1555,-0.0895506,-0.33604
427,-531,-0.650146,0.603027,-0.0155873,0.0106239,-0.00111805,0.0106715,-0.015635,-1.52824,0.0152779,0.0468492,1651,1555,-0.650137,-0.603065
434,-531,-1.44592,0.565063,-0.0130471,0.00994747,-0.00301179,0.0103354,-0.013435,-1.4427,0.0137627,0.0484944,1658,1555,-1.44596,-0.565008
441,-531,-0.712524,0.247803,0,0,0,0,0,0,0,-1,1665,1555,-0.712554,-0.247746
448,-531,-0.587769,0.405518,-0.00859196,0.00805403,-0.005163,0.00952536,-0.0100633,-1.29318,0.0113109,0.0439923,1672,1555,-0.587779,-0.405471
455,-531,0.294067,0.465088,0,0,0,0,0,0,0,-1,1679,1555,0.294126,-0.465107
462,-531,0.255615,0.302368,-0.00393619,0.00320767,-0.00431024,0.00523367,-0.00596219,-1.1314,0.00646849,0.0459473,1686,1555,0.255598,-0.302373
469,-531,0.171509,0.280151,-0.00218417,0.00255782,-0.00278829,0.0038469,-0.00347325,-1.13774,0.00422813,0.046943,1693,1555,0.171558,-0.280205
476,-531,0.319946,0.287354,-0.000703942,0.0017706,-0.00182164,0.00273542,-0.00166876,-1.08372,0.00256749,0.0445545,1700,1555,0.319919,-0.287296
483,-531,0.35498,-0.0523682,-0.000244988,0.00111498,-0.000509222,0.00128451,-0.000414525,-1.24941,0.00102291,0.0384753,1707,1555,0.354947,0.0523282
490,-531,0.0726318,-0.0715332,-0.000206702,-0.000168468,0.000335859,0.000148817,-0.000523988,0.813827,0.000408078,0.025642,1714,1555,0.0726247,0.0714946
497,-531,-0.012085,-0.0496826,-0.000591627,-0.000709976,0.00053687,-0.00011068,-0.00119092,0.730509,0.000759748,0.0120814,1721,1555,-0.0120765,0.049698
504,-531,-0.0238037,-0.0740967,-0.00117134,-0.000837823,0.000644039,-0.000339302,-0.00166986,0.912078,0.00101914,0.00955547,1728,1555,-0.0237684,0.0741565
511,-531,-0.0181885,-0.0771484,-0.00130771,-0.000462923,0.000692088,-7.45131e-05,-0.00169612,1.05938,0.00110675,0.0126034,1735,1555,-0.0182348,0.077115
518,-531,-0.0170898,-0.0795898,-0.00131206,-0.000232093,0.000677515,9.43004e-05,-0.00163845,1.12185,0.00112505,0.0138353,1742,1555,-0.0171003,0.0796169
525,-531,-0.0155029,-0.0906982,-0.00128478,-0.000227426,0.00056634,1.8648e-05,-0.00153086,1.16091,0.00102684,0.0126973,1749,1555,-0.0155148,0.0906591
532,-531,0.00476074,-0.0891113,-0.0014152,-0.000159871,0.000362032,-6.29462e-05,-0.00151213,1.30921,0.000987771,0.00948924,1756,1555,0.0047832,0.0890855
539,-531,-0.00634766,-0.0755615,-0.00147947,0.000200805,0.000239263,0.000234211,-0.00151288,1.43207,0.00109503,0.0111554,1763,1555,-0.00638381,0.075522
546,-531,-0.0250244,-0.0837402,-0.00118198,0.00110019,0.000323587,0.00114519,-0.00122697,1.43263,0.00136984,0.0155192,1770,1555,-0.0250257,0.0837097
553,-531,0.0119629,-0.0559082,-0.000884614,0.00195377,0.000350041,0.0019963,-0.000927146,1.44989,0.00172507,0.0295246,1777,1555,0.0119154,0.0558752
560,-531,-0.0174561,-0.0411377,-0.000544092,0.0028737,0.000520699,0.00295127,-0.00062166,1.42292,0.00220415,0.0295057,1784,1555,-0.017409,0.0411182
567,-531,-0.0634766,-0.0710449,2.91541e-05,0.0036293,0.000903231,0.0038432,-0.000184746,1.33826,0.00262588,0.0172752,1791,1555,-0.0634267,0.071002
574,-531,-0.0184326,-0.0744629,0.00104396,0.00497086,0.00123822,0.00532868,0.000686133,1.28948,0.00334727,0.0118848,1798,1555,-0.0184174,0.0744653
581,-531,-0.00146484,-0.0804443,0.00280125,0.00604213,0.00187688,0.00690131,0.00194208,1.1415,0.00410944,0.00984707,1805,1555,-0.00148595,0.0803927
588,-531,-0.0057373,-0.0949707,0.00463438,0.00747931,0.00253337,0.00896225,0.00315144,1.04121,0.00524974,0.0122687,1812,1555,-0.00571704,0.0949832
595,-531,-0.0360107,-0.128052,0.00687519,0.00904776,0.00319175,0.011333,0.00458993,0.94942,0.00658236,0.0240938,1819,1555,-0.0360213,0.128084
602,-531,-0.0621338,-0.161133,0.00949922,0.0107125,0.00385269,0.014006,0.00620568,0.863483,0.00810381,0.035837,1826,1555,-0.0621523,0.161086
609,-531,-0.133423,-0.165039,0.0123341,0.0126597,0.00433694,0.0168369,0.00815688,0.804156,0.00972233,0.0365178,1833,1555,-0.133423,0.16502
616,-531,-0.1875,-0.105835,0.0157024,0.0146296,0.00478985,0.0199858,0.0103462,0.729637,0.0115412,0.0388003,1840,1555,-0.187461,0.105846
623,-531,-0.00439453,-0.0721436,0.0191381,0.0169564,0.00492646,0.023093,0.0130015,0.676444,0.013368,0.0413236,1847,1555,-0.00442104,0.0721419
630,-531,0.818115,0.402832,0.0223234,0.020146,0.00461012,0.0259716,0.0164978,0.669443,0.0151764,0.0437205,1854,1555,0.818153,-0.402867
637,-531,1.58765,0.788452,0,0,0,0,0,0,0,-1,1861,1555,1.58763,-0.78842
644,-531,0,0,0,0,0,0,0,0,0,-1,1868,1555,0,0
651,-531,0,0,0,0,0,0,0,0,0,-1,1875,1555,0,0
658,-531,0,0,0,0,0,0,0,0,0,-1,1882,1555,0,0
665,-531,0,0,0,0,0,0,0,0,0,-1,1889,1555,0,0
672,-531,0,0,0,0,0,0,0,0,0,-1,1896,1555,0,0
679,-531,0,0,0,0,0,0,0,0,0,-1,1903,1555,0,0
686,-531,0,0,0,0,0,0,0,0,0,-1,1910,1555,0,0
693,-531,0,0,0,0,0,0,0,0,0,-1,1917,1555,0,0
700,-531,0,0,0,0,0,0,0,0,0,-1,1924,1555,0,0
707,-531,0,0,0,0,0,0,0,0,0,-1,1931,1555,0,0
714,-531,0,0,0,0,0,0,0,0,0,-1,1938,1555,0,0
721,-531,0,0,0,0,0,0,0,0,0,-1,1945,1555,0,0
728,-531,0,0,0,0,0,0,0,0,0,-1,1952,1555,0,0
735,-531,0,0,0,0,0,0,0,0,0,-1,1959,1555,0,0
742,-531,0,0,0,0,0,0,0,0,0,-1,1966,1555,0,0
749,-531,0,0,0,0,0,0,0,0,0,-1,1973,1555,0,0
756,-531,0,0,0,0,0,0,0,0,0,-1,1980,1555,0,0
763,-531,0,0,0,0,0,0,0,0,0,-1,1987,1555,0,0
770,-531,0,0,0,0,0,0,0,0,0,-1,1994,1555,0,0
777,-531,0,0,0,0,0,0,0,0,0,-1,2001,1555,0,0
784,-531,0,0,0,0,0,0,0,0,0,-1,2008,1555,0,0
791,-531,0,0,0,0,0,0,0,0,0,-1,2015,1555,0,0
798,-531,0,0,0,0,0,0,0,0,0,-1,2022,1555,0,0
805,-531,0,0,0,0,0,0,0,0,0,-1,2029,1555,0,0
812,-531,0,0,0,0,0,0,0,0,0,-1,2036,1555,0,0
-700,-538,0,0,0,0,0,0,0,0,0,-1,524,1562,0,0
-693,-538,0,0,0,0,0,0,0,0,0,-1,531,1562,0,0
-686,-538,0,0,0,0,0,0,0,0,0,-1,538,1562,0,0
-679,-538,0,0,0,0,0,0,0,0,0,-1,545,1562,0,0
-672,-538,0,0,0,0,0,0,0,0,0,-1,552,1562,0,0
-665,-538,0,0,0,0,0,0,0,0,0,-1,559,1562,0,0
-658,-538,0,0,0,0,0,0,0,0,0,-1,566,1562,0,0
-651,-538,0,0,0,0,0,0,0,0,0,-1,573,1562,0,0
-644,-538,0,0,0,0,0,0,0,0,0,-1,580,1562,0,0
-637,-538,0,0,0,0,0,0,0,0,0,-1,587,1562,0,0
-630,-538,0,0,0,0,0,0,0,0,0,-1,594,1562,0,0
-623,-538,0,0,0,0,0,0,0,0,0,-1,601,1562,0,0
-616,-538,0,0,0,0,0,0,0,0,0,-1,608,1562,0,0
-609,-538,0,0,0,0,0,0,0,0,0,-1,615,1562,0,0
-602,-538,0,0,0,0,0,0,0,0,0,-1,622,1562,0,0
-595,-538,0,0,0,0,0,0,0,0,0,-1,629,1562,0,0
-588,-538,0,0,0,0,0,0,0,0,0,-1,636,1562,0,0
-581,-538,0,0,0,0,0,0,0,0,0,-1,643,1562,0,0
-574,-538,0,0,0,0,0,0,0,0,0,-1,650,1562,0,0
-567,-538,0,0,0,0,0,0,0,0,0,-1,657,1562,0,0
-560,-538,0,0,0,0,0,0,0,0,0,-1,664,1562,0,0
-553,-538,0,0,0,0,0,0,0,0,0,-1,671,1562,0,0
-546,-538,0,0,0,0,0,0,0,0,0,-1,678,1562,0,0
-539,-538,0,0,0,0,0,0,0,0,0,-1,685,1562,0,0
-532,-538,0,0,0,0,0,0,0,0,0,-1,692,1562,0,0
-525,-538,0,0,0,0,0,0,0,0,0,-1,699,1562,0,0
-518,-538,0,0,0,0,0,0,0,0,0,-1,706,1562,0,0
-511,-538,0.389526,-3.59204,-0.0447027,0.101811,0.0169542,0.103747,-0.046639,1.45708,0.0888878,0.0457476,713,1562,0.389538,3.59205
-504,-538,0.451843,-4.57397,-0.0380623,0.0920603,0.0129222,0.0933312,-0.0393332,1.47276,0.0786803,0.0474705,720,1562,0.451866,4.57396
-497,-538,0.355896,-5.54065,0,0,0,0,0,0,0,-1,727,1562,0.355866,5.54065
-490,-538,-0.386597,-0.216064,-0.0282598,0.0682439,0.0070181,0.0687516,-0.0287675,1.49858,0.0578587,0.0498973,734,1562,-0.386607,0.216049
-483,-538,0.234009,-0.468384,-0.0245867,0.0572935,0.00520834,0.0576234,-0.0249167,1.50753,0.0488857,0.0446319,741,1562,0.234027,0.468402
-476,-538,0.38678,-0.268921,-0.0208888,0.0471183,0.00370105,0.0473191,-0.0210896,1.51659,0.0404519,0.0425643,748,1562,0.386781,0.268911
-469,-538,-0.0168457,-0.436157,0,0,0,0,0,0,0,-1,755,1562,-0.0168347,0.436115
-462,-538,0.0529785,-0.294678,-0.0147319,0.0300099,0.00152336,0.0300617,-0.0147837,1.5368,0.0263876,0.0391226,762,1562,0.0530028,0.294662
-455,-538,-0.0274048,-0.10022,-0.0127119,0.0229425,0.000700669,0.0229563,-0.0127256,1.55115,0.0208813,0.0321678,769,1562,-0.0274302,0.100277
-448,-538,-0.0145874,-0.0709229,-0.0108643,0.0160147,0.000607957,0.0160285,-0.010878,1.54819,0.0156291,0.0130426,776,1562,-0.0146073,0.070963
-441,-538,-0.00512695,-0.0627441,-0.00851756,0.0125025,0.000356826,0.0125086,-0.00852362,1.55383,0.0122154,0.0118356,783,1562,-0.00511381,0.0626969
-434,-538,-0.00305176,-0.057373,-0.00672353,0.00982185,6.85026e-05,0.00982213,-0.00672381,1.56666,0.00960847,0.0114626,790,1562,-0.00305931,0.0573621
-427,-538,-0.0291138,-0.0397949,-0.00533763,0.00699755,-0.000297645,0.00700473,-0.00534481,-1.54669,0.00715144,0.0128923,797,1562,-0.0291171,0.0397495
-420,-538,-0.0442505,-0.0595703,-0.00350738,0.00507994,0.000195387,0.00508439,-0.00351182,1.54806,0.00499063,0.0159292,804,1562,-0.0442343,0.0596303
-413,-538,-0.0496216,-0.0876465,-0.00217097,0.00342163,8.15063e-05,0.00342282,-0.00217216,1.55623,0.00325705,0.0160414,811,1562,-0.0496393,0.0876338
-406,-538,-0.0241699,-0.103149,-0.00172927,0.00231733,-9.808e-05,0.00231971,-0.00173165,-1.54658,0.00234725,0.0129666,818,1562,-0.0241616,0.103196
-399,-538,0.000793457,-0.0826416,-0.00174246,0.00154856,-0.00024885,0.00156727,-0.00176117,-1.49575,0.00192276,0.012431,825,1562,0.000787495,0.0826074
-392,-538,-0.000732422,-0.0673828,-0.0020681,0.00133836,-0.000564346,0.00142942,-0.00215916,-1.41082,0.0020861,0.0133631,832,1562,-0.000724189,0.0673371
-385,-538,-0.0211182,-0.0686035,-0.00266225,0.00132273,-0.00108938,0.00160109,-0.00294061,-1.32063,0.0026599,0.0113413,839,1562,-0.0211382,0.0686361
-378,-538,-0.0154419,-0.0648193,-0.00324744,0.00109226,-0.0017243,0.00169396,-0.00384913,-1.23506,0.00327994,0.00919589,846,1562,-0.0154188,0.0648387
-371,-538,-0.0227661,-0.0600586,-0.00423945,0.00131091,-0.00238005,0.00219172,-0.00512026,-1.21635,0.00433297,0.00959213,853,1562,-0.0227475,0.0600687
-364,-538,-0.0314331,-0.0771484,-0.00508853,0.00119418,-0.00336675,0.00265751,-0.00655186,-1.16079,0.0054732,0.00914899,860,1562,-0.0314034,0.0771158
-357,-538,-0.043457,-0.109741,-0.00564271,0.000798717,-0.0040654,0.00276457,-0.00760857,-1.12039,0.00620278,0.0155546,867,1562,-0.0434542,0.109802
-350,-538,-0.060791,-0.142334,-0.00555007,0.000337786,-0.00368841,0.00211308,-0.00732537,-1.12221,0.00571956,0.0310023,874,1562,-0.0607814,0.142382
-343,-538,-0.107056,-0.107178,-0.00518618,-0.00138835,-0.00336994,0.000580857,-0.00715539,-1.04197,0.00497519,0.0411959,881,1562,-0.107053,0.107201
-336,-538,0.0658569,-0.0822754,-0.00458399,-0.00440674,-0.00348235,-0.00101189,-0.00797884,-0.798121,0.00501607,0.0411754,888,1562,0.0658796,0.0822671
-329,-538,0.429138,-0.391479,-0.00281987,-0.00787085,-0.0025827,-0.0017331,-0.00895762,-0.398299,0.00548607,0.0412976,895,1562,0.429151,0.391504
-322,-538,0.521545,-0.821899,0,0,0,0,0,0,0,-1,902,1562,0.521555,0.821927
-315,-538,0.478149,-0.504395,0.00226118,-0.0163222,0.000326509,0.00226691,-0.016328,0.0175627,0.0117143,0.042935,909,1562,0.478159,0.504389
-308,-538,0.515137,-0.896484,0.00469818,-0.0216777,0.00223943,0.00488697,-0.0218664,0.0841024,0.0164504,0.0452129,916,1562,0.515121,0.896515
-301,-538,0.430908,-1.34375,0.0073255,-0.0255929,0.00414654,0.00783978,-0.0261071,0.123397,0.0205234,0.0459127,923,1562,0.430919,1.34371
-294,-538,0.932068,1.14368,0.0102223,-0.030319,0.00639455,0.011207,-0.0313037,0.152789,0.0254413,0.0451786,930,1562,0.932089,-1.14372
-287,-538,0.267456,-0.0865479,0.0101698,-0.0316809,0.0075401,0.0114869,-0.0329979,0.172925,0.0266655,0.0487684,937,1562,0.26743,0.0865007
-280,-538,2.04144,0.646362,0,0,0,0,0,0,0,-1,944,1562,2.04143,-0.646334
-273,-538,2.49603,0.387573,0,0,0,0,0,0,0,-1,951,1562,2.49606,-0.387533
-266,-538,2.85992,0.140259,0,0,0,0,0,0,0,-1,958,1562,2.85995,-0.140242
-259,-538,2.0329,-0.471191,0,0,0,0,0,0,0,-1,965,1562,2.0329,0.471163
-252,-538,0,0,0,0,0,0,0,0,0,-1,972,1562,0,0
-245,-538,0,0,0,0,0,0,0,0,0,-1,979,1562,0,0
-238,-538,0,0,0,0,0,0,0,0,0,-1,986,1562,0,0
-231,-538,0,0,0,0,0,0,0,0,0,-1,993,1562,0,0
-224,-538,0,0,0,0,0,0,0,0,0,-1,1000,1562,0,0
-217,-538,0,0,0,0,0,0,0,0,0,-1,1007,1562,0,0
-210,-538,0,0,0,0,0,0,0,0,0,-1,1014,1562,0,0
-203,-538,0,0,0,0,0,0,0,0,0,-1,1021,1562,0,0
-196,-538,0,0,0,0,0,0,0,0,0,-1,1028,1562,0,0
-189,-538,0,0,0,0,0,0,0,0,0,-1,1035,1562,0,0
-182,-538,0,0,0,0,0,0,0,0,0,-1,1042,1562,0,0
-175,-538,0,0,0,0,0,0,0,0,0,-1,1049,1562,0,0
-168,-538,0,0,0,0,0,0,0,0,0,-1,1056,1562,0,0
-161,-538,0,0,0,0,0,0,0,0,0,-1,1063,1562,0,0
-154,-538,0,0,0,0,0,0,0,0,0,-1,1070,1562,0,0
-147,-538,0,0,0,0,0,0,0,0,0,-1,1077,1562,0,0
-140,-538,0,0,0,0,0,0,0,0,0,-1,1084,1562,0,0
-133,-538,0,0,0,0,0,0,0,0,0,-1,1091,1562,0,0
-126,-538,0,0,0,0,0,0,0,0,0,-1,1098,1562,0,0
-119,-538,0,0,0,0,0,0,0,0,0,-1,1105,1562,0,0
-112,-538,0,0,0,0,0,0,0,0,0,-1,1112,1562,0,0
-105,-538,0,0,0,0,0,0,0,0,0,-1,1119,1562,0,0
-98,-538,0,0,0,0,0,0,0,0,0,-1,1126,1562,0,0
-91,-538,0,0,0,0,0,0,0,0,0,-1,1133,1562,0,0
-84,-538,0,0,0,0,0,0,0,0,0,-1,1140,1562,0,0
-77,-538,0,0,0,0,0,0,0,0,0,-1,1147,1562,0,0
-70,-538,0,0,0,0,0,0,0,0,0,-1,1154,1562,0,0
-63,-538,0,0,0,0,0,0,0,0,0,-1,1161,1562,0,0
-56,-538,0,0,0,0,0,0,0,0,0,-1,1168,1562,0,0
-49,-538,0,0,0,0,0,0,0,0,0,-1,1175,1562,0,0
-42,-538,0,0,0,0,0,0,0,0,0,-1,1182,1562,0,0
-35,-538,0,0,0,0,0,0,0,0,0,-1,1189,1562,0,0
-28,-538,0,0,0,0,0,0,0,0,0,-1,1196,1562,0,0
-21,-538,0,0,0,0,0,0,0,0,0,-1,1203,1562,0,0
-14,-538,0,0,0,0,0,0,0,0,0,-1,1210,1562,0,0
-7,-538,0,0,0,0,0,0,0,0,0,-1,1217,1562,0,0
0,-538,0,0,0,0,0,0,0,0,0,-1,1224,1562,0,0
7,-538,0,0,0,0,0,0,0,0,0,-1,1231,1562,0,0
14,-538,0,0,0,0,0,0,0,0,0,-1,1238,1562,0,0
21,-538,0,0,0,0,0,0,0,0,0,-1,1245,1562,0,0
28,-538,0,0,0,0,0,0,0,0,0,-1,1252,1562,0,0
35,-538,0,0,0,0,0,0,0,0,0,-1,1259,1562,0,0
42,-538,0,0,0,0,0,0,0,0,0,-1,1266,1562,0,0
49,-538,0,0,0,0,0,0,0,0,0,-1,1273,1562,0,0
56,-538,0,0,0,0,0,0,0,0,0,-1,1280,1562,0,0
63,-538,0,0,0,0,0,0,0,0,0,-1,1287,1562,0,0
70,-538,0,0,0,0,0,0,0,0,0,-1,1294,1562,0,0
77,-538,0,0,0,0,0,0,0,0,0,-1,1301,1562,0,0
84,-538,0,0,0,0,0,0,0,0,0,-1,1308,1562,0,0
91,-538,0,0,0,0,0,0,0,0,0,-1,1315,1562,0,0
98,-538,0,0,0,0,0,0,0,0,0,-1,1322,1562,0,0
105,-538,0,0,0,0,0,0,0,0,0,-1,1329,1562,0,0
112,-538,0,0,0,0,0,0,0,0,0,-1,1336,1562,0,0
119,-538,0,0,0,0,0,0,0,0,0,-1,1343,1562,0,0
126,-538,0,0,0,0,0,0,0,0,0,-1,1350,1562,0,0
133,-538,0,0,0,0,0,0,0,0,0,-1,1357,1562,0,0
140,-538,0,0,0,0,0,0,0,0,0,-1,1364,1562,0,0
147,-538,0,0,0,0,0,0,0,0,0,-1,1371,1562,0,0
154,-538,0,0,0,0,0,0,0,0,0,-1,1378,1562,0,0
161,-538,0,0,0,0,0,0,0,0,0,-1,1385,1562,0,0
168,-538,0,0,0,0,0,0,0,0,0,-1,1392,1562,0,0
175,-538,0,0,0,0,0,0,0,0,0,-1,1399,1562,0,0
182,-538,0,0,0,0,0,0,0,0,0,-1,1406,1562,0,0
189,-538,0,0,0,0,0,0,0,0,0,-1,1413,1562,0,0
196,-538,0,0,0,0,0,0,0,0,0,-1,1420,1562,0,0
203,-538,0,0,0,0,0,0,0,0,0,-1,1427,1562,0,0
210,-538,0,0,0,0,0,0,0,0,0,-1,1434,1562,0,0
217,-538,0,0,0,0,0,0,0,0,0,-1,1441,1562,0,0
224,-538,0,0,0,0,0,0,0,0,0,-1,1448,1562,0,0
231,-538,0,0,0,0,0,0,0,0,0,-1,1455,1562,0,0
238,-538,0,0,0,0,0,0,0,0,0,-1,1462,1562,0,0
245,-538,0,0,0,0,0,0,0,0,0,-1,1469,1562,0,0
252,-538,0,0,0,0,0,0,0,0,0,-1,1476,1562,0,0
259,-538,0,0,0,0,0,0,0,0,0,-1,1483,1562,0,0
266,-538,0,0,0,0,0,0,0,0,0,-1,1490,1562,0,0
273,-538,0,0,0,0,0,0,0,0,0,-1,1497,1562,0,0
280,-538,0,0,0,0,0,0,0,0,0,-1,1504,1562,0,0
287,-538,0,0,0,0,0,0,0,0,0,-1,1511,1562,0,0
294,-538,0,0,0,0,0,0,0,0,0,-1,1518,1562,0,0
301,-538,0,0,0,0,0,0,0,0,0,-1,1525,1562,0,0
308,-538,0,0,0,0,0,0,0,0,0,-1,1532,1562,0,0
315,-538,0,0,0,0,0,0,0,0,0,-1,1539,1562,0,0
322,-538,0,0,0,0,0,0,0,0,0,-1,1546,1562,0,0
329,-538,0,0,0,0,0,0,0,0,0,-1,1553,1562,0,0
336,-538,0,0,0,0,0,0,0,0,0,-1,1560,1562,0,0
343,-538,0,0,0,0,0,0,0,0,0,-1,1567,1562,0,0
350,-538,0,0,0,0,0,0,0,0,0,-1,1574,1562,0,0
357,-538,0,0,0,0,0,0,0,0,0,-1,1581,1562,0,0
364,-538,0,0,0,0,0,0,0,0,0,-1,1588,1562,0,0
371,-538,0,0,0,0,0,0,0,0,0,-1,1595,1562,0,0
378,-538,-0.468384,0.0529785,0,0,0,0,0,0,0,-1,1602,1562,-0.468425,-0.0530185
385,-538,0.699585,-0.587158,0,0,0,0,0,0,0,-1,1609,1562,0.69956,0.587098
392,-538,1.7323,-0.170044,-0.00590348,0.00566174,0.0120289,0.0132258,-0.0134675,1.00945,0.0154116,0.0488835,1616,1562,1.73232,0.170086
399,-538,1.62341,-0.174561,-0.0108216,0.00894202,0.0111002,0.0139217,-0.0158013,1.1491,0.017172,0.0472238,1623,1562,1.62347,0.174613
406,-538,0.832642,-0.446777,0,0,0,0,0,0,0,-1,1630,1562,0.832611,0.446789
413,-538,0.710083,-0.231201,-0.0168678,0.0117171,0.00606188,0.0129495,-0.0181002,1.37023,0.0180086,0.0433876,1637,1562,0.710103,0.231156
420,-538,0.187744,0.224976,-0.0168843,0.0122846,0.00330502,0.0126543,-0.0172541,1.45937,0.0173356,0.0445441,1644,1562,0.187797,-0.22492
427,-538,-0.260986,0.57605,-0.0150764,0.0119942,0.000807781,0.0120183,-0.0151004,1.54099,0.0156907,0.0460565,1651,1562,-0.260947,-0.576044
434,-538,-0.421509,0.579346,-0.0126056,0.0112934,-0.00120624,0.0113541,-0.0126663,-1.52049,0.0138751,0.0461287,1658,1562,-0.421495,-0.579384
441,-538,-0.37915,0.644165,-0.0108071,0.0106218,-0.00273695,0.0109659,-0.0111511,-1.44575,0.0127694,0.0460246,1665,1562,-0.379119,-0.644209
448,-538,-0.324463,0.49646,-0.00813108,0.00933718,-0.00389719,0.0101672,-0.00896111,-1.36095,0.0110511,0.0426295,1672,1562,-0.32442,-0.496463
455,-538,-0.255005,0.463867,0,0,0,0,0,0,0,-1,1679,1562,-0.255004,-0.463842
462,-538,0.0532227,0.732422,-0.00363416,0.00448685,-0.00370071,0.00592024,-0.00506756,-1.20126,0.00635017,0.0425385,1686,1562,0.0531946,-0.732391
469,-538,0.112305,0.529907,-0.00189198,0.00351334,-0.00238968,0.0044183,-0.00279694,-1.20879,0.00420064,0.0426301,1693,1562,0.112317,-0.529902
476,-538,0.104004,0.236694,-0.000427157,0.00247536,-0.00158859,0.0031758,-0.00112759,-1.15552,0.00257666,0.0372549,1700,1562,0.10397,-0.236755
483,-538,0.0354004,-0.0655518,3.68526e-05,0.00158502,-0.000448196,0.00170541,-8.35386e-05,-1.30838,0.00116578,0.0233715,1707,1562,0.0353942,0.0655605
490,-538,0.00695801,-0.0552979,0.000128976,0.000194216,0.000264235,0.000427837,-0.000104645,0.846813,0.000325758,0.0116101,1714,1562,0.00690332,0.0552484
497,-538,-0.0166016,-0.0634766,-0.000175299,-0.000478081,0.000402937,0.000103748,-0.000757129,0.605698,0.000542652,0.00875614,1721,1562,-0.0166424,0.0635159
504,-538,-0.020874,-0.0771484,-0.000684139,-0.000694721,0.000487864,-0.000201537,-0.00117732,0.779976,0.000727074,0.00843739,1728,1562,-0.0209016,0.0771216
511,-538,-0.0246582,-0.0875244,-0.000804625,-0.000472281,0.000514989,-9.73188e-05,-0.00117959,0.94146,0.000756043,0.00927035,1735,1562,-0.0246316,0.0874802
518,-538,-0.0297852,-0.079834,-0.000826686,-0.000278007,0.000489395,8.69681e-06,-0.00111339,1.04086,0.000745175,0.01006,1742,1562,-0.0297782,0.0798605
525,-538,-0.0379639,-0.0855713,-0.000892513,-0.000222376,0.000399022,-3.63977e-05,-0.00107849,1.13465,0.000707174,0.0106475,1749,1562,-0.0379316,0.0855266
532,-538,-0.0285645,-0.09375,-0.00113419,-9.33895e-05,0.000216623,-5.01038e-05,-0.00117748,1.37357,0.000768827,0.0111865,1756,1562,-0.0285109,0.093786
539,-538,-0.0274658,-0.0805664,-0.00130193,0.000409197,0.00011945,0.000417495,-0.00131023,1.50144,0.00104095,0.0135334,1763,1562,-0.0274227,0.0805171
546,-538,-0.0263672,-0.09375,-0.00105837,0.00156342,0.000234298,0.0015842,-0.00107915,1.48236,0.00154687,0.0158256,1770,1562,-0.0263768,0.0937415
553,-538,-0.0109863,-0.0800781,-0.000815026,0.00275482,0.000353629,0.00278952,-0.000849719,1.473,0.00219836,0.0240945,1777,1562,-0.0110422,0.0800589
560,-538,-0.036377,-0.0687256,-0.000529567,0.00403457,0.000635223,0.00412133,-0.000616326,1.43506,0.00297435,0.0252934,1784,1562,-0.0364278,0.0687596
567,-538,-0.0638428,-0.0754395,0.000103984,0.00512764,0.00115441,0.00538022,-0.000148593,1.3554,0.00363736,0.0192966,1791,1562,-0.0637945,0.0754981
574,-538,-0.0137939,-0.0939941,0.00127277,0.00693261,0.00156933,0.00733862,0.000866765,1.31763,0.00463061,0.0118587,1798,1562,-0.0138158,0.0939818
581,-538,0.00366211,-0.0949707,0.00334275,0.00847044,0.0024029,0.00942046,0.00239273,1.19429,0.00565409,0.0121967,1805,1562,0.00371281,0.0949922
588,-538,-0.0100098,-0.130615,0.0056396,0.0104087,0.00331323,0.0121063,0.00394206,1.09731,0.00712985,0.0264206,1812,1562,-0.00995701,0.130573
595,-538,-0.0137939,-0.236084,0.00859995,0.0123784,0.00431799,0.0152024,0.00577599,0.991615,0.00886105,0.0387008,1819,1562,-0.0138113,0.236025
602,-538,-0.0184326,-0.291626,0.0122471,0.0142648,0.00540641,0.0187557,0.00775623,0.877639,0.0108824,0.0451725,1826,1562,-0.0183792,0.29166
609,-538,0.11438,-0.291138,0.016454,0.0161294,0.00639187,0.0226856,0.00989774,0.772707,0.0131329,0.0402348,1833,1562,0.114414,0.291188
616,-538,0.224487,-0.272949,0.0215444,0.0176101,0.00738766,0.0272223,0.0119322,0.655281,0.0157566,0.0352093,1840,1562,0.224437,0.272965
623,-538,0.239746,-0.269043,0.0270739,0.0190166,0.00808644,0.0320796,0.0140108,0.554295,0.0185705,0.0392599,1847,1562,0.239694,0.269067
630,-538,0.848267,0.549194,0.0325463,0.0207133,0.00824377,0.036777,0.0164827,0.474147,0.0212712,0.0454056,1854,1562,0.848298,-0.549159
637,-538,0,0,0,0,0,0,0,0,0,-1,1861,1562,0,0
644,-538,0,0,0,0,0,0,0,0,0,-1,1868,1562,0,0
651,-538,0,0,0,0,0,0,0,0,0,-1,1875,1562,0,0
658,-538,0,0,0,0,0,0,0,0,0,-1,1882,1562,0,0
665,-538,0,0,0,0,0,0,0,0,0,-1,1889,1562,0,0
672,-538,0,0,0,0,0,0,0,0,0,-1,1896,1562,0,0
679,-538,0,0,0,0,0,0,0,0,0,-1,1903,1562,0,0
686,-538,0,0,0,0,0,0,0,0,0,-1,1910,1562,0,0
693,-538,0,0,0,0,0,0,0,0,0,-1,1917,1562,0,0
700,-538,0,0,0,0,0,0,0,0,0,-1,1924,1562,0,0
707,-538,0,0,0,0,0,0,0,0,0,-1,1931,1562,0,0
714,-538,0,0,0,0,0,0,0,0,0,-1,1938,1562,0,0
721,-538,0,0,0,0,0,0,0,0,0,-1,1945,1562,0,0
728,-538,0,0,0,0,0,0,0,0,0,-1,1952,1562,0,0
735,-538,0,0,0,0,0,0,0,0,0,-1,1959,1562,0,0
742,-538,0,0,0,0,0,0,0,0,0,-1,1966,1562,0,0
749,-538,0,0,0,0,0,0,0,0,0,-1,1973,1562,0,0
756,-538,0,0,0,0,0,0,0,0,0,-1,1980,1562,0,0
763,-538,0,0,0,0,0,0,0,0,0,-1,1987,1562,0,0
770,-538,0,0,0,0,0,0,0,0,0,-1,1994,1562,0,0
777,-538,0,0,0,0,0,0,0,0,0,-1,2001,1562,0,0
784,-538,0,0,0,0,0,0,0,0,0,-1,2008,1562,0,0
791,-538,0,0,0,0,0,0,0,0,0,-1,2015,1562,0,0
798,-538,0,0,0,0,0,0,0,0,0,-1,2022,1562,0,0
805,-538,0,0,0,0,0,0,0,0,0,-1,2029,1562,0,0
812,-538,0,0,0,0,0,0,0,0,0,-1,2036,1562,0,0
-700,-545,0,0,0,0,0,0,0,0,0,-1,524,1569,0,0
-693,-545,0,0,0,0,0,0,0,0,0,-1,531,1569,0,0
-686,-545,0,0,0,0,0,0,0,0,0,-1,538,1569,0,0
-679,-545,0,0,0,0,0,0,0,0,0,-1,545,1569,0,0
-672,-545,0,0,0,0,0,0,0,0,0,-1,552,1569,0,0
-665,-545,0,0,0,0,0,0,0,0,0,-1,559,1569,0,0
-658,-545,0,0,0,0,0,0,0,0,0,-1,566,1569,0,0
-651,-545,0,0,0,0,0,0,0,0,0,-1,573,1569,0,0
-644,-545,0,0,0,0,0,0,0,0,0,-1,580,1569,0,0
-637,-545,0,0,0,0,0,0,0,0,0,-1,587,1569,0,0
-630,-545,0,0,0,0,0,0,0,0,0,-1,594,1569,0,0
-623,-545,0,0,0,0,0,0,0,0,0,-1,601,1569,0,0
-616,-545,0,0,0,0,0,0,0,0,0,-1,608,1569,0,0
-609,-545,0,0,0,0,0,0,0,0,0,-1,615,1569,0,0
-602,-545,0,0,0,0,0,0,0,0,0,-1,622,1569,0,0
-595,-545,0,0,0,0,0,0,0,0,0,-1,629,1569,0,0
-588,-545,0,0,0,0,0,0,0,0,0,-1,636,1569,0,0
-581,-545,0,0,0,0,0,0,0,0,0,-1,643,1569,0,0
-574,-545,0,0,0,0,0,0,0,0,0,-1,650,1569,0,0
-567,-545,0,0,0,0,0,0,0,0,0,-1,657,1569,0,0
-560,-545,0,0,0,0,0,0,0,0,0,-1,664,1569,0,0
-553,-545,0,0,0,0,0,0,0,0,0,-1,671,1569,0,0
-546,-545,0,0,0,0,0,0,0,0,0,-1,678,1569,0,0
-539,-545,0,0,0,0,0,0,0,0,0,-1,685,1569,0,0
-532,-545,0,0,0,0,0,0,0,0,0,-1,692,1569,0,0
-525,-545,0,0,0,0,0,0,0,0,0,-1,699,1569,0,0
-518,-545,0,0,0,0,0,0,0,0,0,-1,706,1569,0,0
-511,-545,0,0,0,0,0,0,0,0,0,-1,713,1569,0,0
-504,-545,-0.608521,-4.28931,0,0,0,0,0,0,0,-1,720,1569,-0.608501,4.28935
-497,-545,-0.761353,-5.46362,0,0,0,0,0,0,0,-1,727,1569,-0.761325,5.46359
-490,-545,-0.00390625,-0.566406,-0.0361029,0.083403,0.00877991,0.0840446,-0.0367445,1.49785,0.0714977,0.0458701,734,1569,-0.00390666,0.566458
-483,-545,0.248779,-0.506592,-0.0321416,0.0697106,0.00690137,0.0701761,-0.0326071,1.50345,0.0606489,0.0441086,741,1569,0.2488,0.506641
-476,-545,0.34967,-0.353882,-0.028107,0.0575782,0.00504343,0.057874,-0.0284028,1.51221,0.0507714,0.0430878,748,1569,0.349695,0.353914
-469,-545,0.328552,-0.456177,-0.0243332,0.0470254,0.0036047,0.047207,-0.0245148,1.52045,0.0420938,0.0426223,755,1569,0.328549,0.456229
-462,-545,0.262085,-0.457275,-0.0208934,0.0373185,0.0025183,0.0374272,-0.0210022,1.52764,0.0341756,0.0402243,762,1569,0.262113,0.457287
-455,-545,0.195374,-0.373291,-0.0180377,0.0288924,0.00150559,0.0289407,-0.0180859,1.53876,0.0273909,0.0365862,769,1569,0.195394,0.373249
-448,-545,0.0950317,-0.189331,-0.0152053,0.0208205,0.00111074,0.0208547,-0.0152395,1.54,0.0209229,0.0248559,776,1569,0.095034,0.189299
-441,-545,-0.0181885,-0.072998,-0.0119602,0.0163034,0.00063765,0.0163177,-0.0119746,1.54825,0.0163986,0.0149771,783,1569,-0.0181823,0.0730308
-434,-545,-0.0132446,-0.0556641,-0.00945041,0.0127825,0.000205862,0.0127844,-0.00945231,1.56154,0.0128863,0.012053,790,1569,-0.0132147,0.0557015
-427,-545,-0.0344238,-0.0291748,-0.00736137,0.00910806,-0.000322571,0.00911438,-0.00736769,-1.55122,0.00953372,0.0160924,797,1569,-0.0344225,0.0292035
-420,-545,-0.0512695,-0.0583496,-0.00485118,0.00660686,8.61541e-05,0.00660751,-0.00485182,1.56328,0.00664188,0.021778,804,1569,-0.0512434,0.0582987
-413,-545,-0.0319214,-0.0997314,-0.00297728,0.00448443,-0.000149682,0.00448743,-0.00298029,-1.55075,0.00434066,0.0213684,811,1569,-0.0319403,0.0997375
-406,-545,-0.000244141,-0.0938721,-0.00215362,0.00309444,-0.000375861,0.00312122,-0.0021804,-1.49966,0.00307692,0.0162758,818,1569,-0.000253441,0.0939102
-399,-545,0.00823975,-0.0852051,-0.00174014,0.00191521,-0.000502796,0.00198311,-0.00180804,-1.43657,0.0021896,0.0110356,825,1569,0.0082172,0.0852068
-392,-545,-0.00799561,-0.0749512,-0.00161412,0.00145507,-0.000753836,0.00163023,-0.00178928,-1.34249,0.00197496,0.0104737,832,1569,-0.00799527,0.0749753
-385,-545,-0.00744629,-0.0718994,-0.0018703,0.00123627,-0.00103271,0.00154825,-0.00218228,-1.27742,0.00216416,0.00844375,839,1569,-0.0074672,0.0719125
-378,-545,-0.0177612,-0.052124,-0.0021488,0.000758554,-0.00142654,0.00134159,-0.00273184,-1.18281,0.00239702,0.0102962,846,1569,-0.0177411,0.052087
-371,-545,-0.0319214,-0.0361328,-0.00272526,0.000731871,-0.00174903,0.00146238,-0.00345577,-1.17515,0.0029162,0.0138136,853,1569,-0.031941,0.0361844
-364,-545,-0.0178833,-0.0689697,-0.00314982,0.000415115,-0.00238492,0.00161007,-0.00434477,-1.10631,0.00355682,0.00891657,860,1569,-0.0178987,0.0689911
-357,-545,-0.0220337,-0.0935059,-0.00326369,-0.000126642,-0.0027511,0.00147167,-0.004862,-1.04449,0.00382739,0.00961405,867,1569,-0.0220193,0.0935444
-350,-545,-0.0504761,-0.0931396,-0.00277111,-0.000619716,-0.00217326,0.000729498,-0.00412033,-1.01521,0.00301957,0.0136385,874,1569,-0.0504897,0.0931586
-343,-545,-0.0894775,-0.0766602,-0.00203264,-0.00205175,-0.00161686,-0.000425303,-0.00365909,-0.782444,0.00231071,0.0214045,881,1569,-0.089489,0.0766711
-336,-545,-0.00152588,-0.0925293,-0.00113861,-0.00451354,-0.00147527,-0.000584661,-0.0050675,-0.359202,0.00320129,0.0291694,888,1569,-0.00155178,0.0925567
-329,-545,0.122314,-0.0578613,0.000706242,-0.00723333,-0.000478532,0.00073498,-0.00726207,-0.0599824,0.00510404,0.0366373,895,1569,0.122334,0.0578171
-322,-545,0.136536,0.0825195,0.00304205,-0.00988564,0.000795818,0.00309085,-0.00993445,0.0612509,0.00785854,0.0427318,902,1569,0.136511,-0.0824613
-315,-545,0.358643,-0.34082,0.00568456,-0.0134252,0.00248514,0.00600246,-0.0137431,0.127227,0.0116884,0.0450709,909,1569,0.358673,0.340792
-308,-545,0.309937,-1.05627,0.00801499,-0.0172014,0.00444101,0.00877426,-0.0179607,0.169331,0.0157362,0.0462222,916,1569,0.309918,1.0563
-301,-545,0.390686,1.21167,0.0100121,-0.0190405,0.00613962,0.0112563,-0.0202846,0.199942,0.0184572,0.0465373,923,1569,0.390695,-1.2117
-294,-545,0.733459,0.9375,0.0118272,-0.0211045,0.00805151,0.0136903,-0.0229677,0.227397,0.0213892,0.045837,930,1569,0.733458,-0.937478
-287,-545,1.00592,0.716675,0.0106417,-0.0198898,0.00894067,0.0130672,-0.0223153,0.264907,0.0206594,0.0441548,937,1569,1.00591,-0.716642
-280,-545,1.37891,0.689575,0.00699406,-0.0140577,0.00966187,0.0107561,-0.0178197,0.371313,0.0166655,0.0455426,944,1569,1.37889,-0.689551
-273,-545,1.84204,0.48645,0.00117418,-0.00692504,0.00862553,0.00665342,-0.0124043,0.565926,0.0111687,0.0482521,951,1569,1.84204,-0.486445
-266,-545,2.198,0.24646,0,0,0,0,0,0,0,-1,958,1569,2.19802,-0.246402
-259,-545,2.15326,-0.118042,-0.0186585,0.00409595,0.00566157,0.00542677,-0.0199893,1.33992,0.0154561,0.0450652,965,1569,2.15326,0.118021
-252,-545,1.51404,-0.55481,0,0,0,0,0,0,0,-1,972,1569,1.51405,0.554828
-245,-545,1.15277,-0.748169,0,0,0,0,0,0,0,-1,979,1569,1.15279,0.748128
-238,-545,0,0,0,0,0,0,0,0,0,-1,986,1569,0,0
-231,-545,0,0,0,0,0,0,0,0,0,-1,993,1569,0,0
-224,-545,0,0,0,0,0,0,0,0,0,-1,1000,1569,0,0
-217,-545,0,0,0,0,0,0,0,0,0,-1,1007,1569,0,0
-210,-545,0,0,0,0,0,0,0,0,0,-1,1014,1569,0,0
-203,-545,0,0,0,0,0,0,0,0,0,-1,1021,1569,0,0
-196,-545,0,0,0,0,0,0,0,0,0,-1,1028,1569,0,0
-189,-545,0,0,0,0,0,0,0,0,0,-1,1035,1569,0,0
-182,-545,0,0,0,0,0,0,0,0,0,-1,1042,1569,0,0
-175,-545,0,0,0,0,0,0,0,0,0,-1,1049,1569,0,0
-168,-545,0,0,0,0,0,0,0,0,0,-1,1056,1569,0,0
-161,-545,0,0,0,0,0,0,0,0,0,-1,1063,1569,0,0
-154,-545,0,0,0,0,0,0,0,0,0,-1,1070,1569,0,0
-147,-545,0,0,0,0,0,0,0,0,0,-1,1077,1569,0,0
-140,-545,0,0,0,0,0,0,0,0,0,-1,1084,1569,0,0
-133,-545,0,0,0,0,0,0,0,0,0,-1,1091,1569,0,0
-126,-545,0,0,0,0,0,0,0,0,0,-1,1098,1569,0,0
-119,-545,0,0,0,0,0,0,0,0,0,-1,1105,1569,0,0
-112,-545,0,0,0,0,0,0,0,0,0,-1,1112,1569,0,0
-105,-545,0,0,0,0,0,0,0,0,0,-1,1119,1569,0,0
-98,-545,0,0,0,0,0,0,0,0,0,-1,1126,1569,0,0
-91,-545,0,0,0,0,0,0,0,0,0,-1,1133,1569,0,0
-84,-545,0,0,0,0,0,0,0,0,0,-1,1140,1569,0,0
-77,-545,0,0,0,0,0,0,0,0,0,-1,1147,1569,0,0
-70,-545,0,0,0,0,0,0,0,0,0,-1,1154,1569,0,0
-63,-545,0,0,0,0,0,0,0,0,0,-1,1161,1569,0,0
-56,-545,0,0,0,0,0,0,0,0,0,-1,1168,1569,0,0
-49,-545,0,0,0,0,0,0,0,0,0,-1,1175,1569,0,0
-42,-545,0,0,0,0,0,0,0,0,0,-1,1182,1569,0,0
-35,-545,0,0,0,0,0,0,0,0,0,-1,1189,1569,0,0
-28,-545,0,0,0,0,0,0,0,0,0,-1,1196,1569,0,0
-21,-545,0,0,0,0,0,0,0,0,0,-1,1203,1569,0,0
-14,-545,0,0,0,0,0,0,0,0,0,-1,1210,1569,0,0
-7,-545,0,0,0,0,0,0,0,0,0,-1,1217,1569,0,0
0,-545,0,0,0,0,0,0,0,0,0,-1,1224,1569,0,0
7,-545,0,0,0,0,0,0,0,0,0,-1,1231,1569,0,0
14,-545,0,0,0,0,0,0,0,0,0,-1,1238,1569,0,0
21,-545,0,0,0,0,0,0,0,0,0,-1,1245,1569,0,0
28,-545,0,0,0,0,0,0,0,0,0,-1,1252,1569,0,0
35,-545,0,0,0,0,0,0,0,0,0,-1,1259,1569,0,0
42,-545,0,0,0,0,0,0,0,0,0,-1,1266,1569,0,0
49,-545,0,0,0,0,0,0,0,0,0,-1,1273,1569,0,0
56,-545,0,0,0,0,0,0,0,0,0,-1,1280,1569,0,0
63,-545,0,0,0,0,0,0,0,0,0,-1,1287,1569,0,0
70,-545,0,0,0,0,0,0,0,0,0,-1,1294,1569,0,0
77,-545,0,0,0,0,0,0,0,0,0,-1,1301,1569,0,0
84,-545,0,0,0,0,0,0,0,0,0,-1,1308,1569,0,0
91,-545,0,0,0,0,0,0,0,0,0,-1,1315,1569,0,0
98,-545,0,0,0,0,0,0,0,0,0,-1,1322,1569,0,0
105,-545,0,0,0,0,0,0,0,0,0,-1,1329,1569,0,0
112,-545,0,0,0,0,0,0,0,0,0,-1,1336,1569,0,0
119,-545,0,0,0,0,0,0,0,0,0,-1,1343,1569,0,0
126,-545,0,0,0,0,0,0,0,0,0,-1,1350,1569,0,0
133,-545,0,0,0,0,0,0,0,0,0,-1,1357,1569,0,0
140,-545,0,0,0,0,0,0,0,0,0,-1,1364,1569,0,0
147,-545,0,0,0,0,0,0,0,0,0,-1,1371,1569,0,0
154,-545,0,0,0,0,0,0,0,0,0,-1,1378,1569,0,0
161,-545,0,0,0,0,0,0,0,0,0,-1,1385,1569,0,0
168,-545,0,0,0,0,0,0,0,0,0,-1,1392,1569,0,0
175,-545,0,0,0,0,0,0,0,0,0,-1,1399,1569,0,0
182,-545,0,0,0,0,0,0,0,0,0,-1,1406,1569,0,0
189,-545,0,0,0,0,0,0,0,0,0,-1,1413,1569,0,0
196,-545,0,0,0,0,0,0,0,0,0,-1,1420,1569,0,0
203,-545,0,0,0,0,0,0,0,0,0,-1,1427,1569,0,0
210,-545,0,0,0,0,0,0,0,0,0,-1,1434,1569,0,0
217,-545,0,0,0,0,0,0,0,0,0,-1,1441,1569,0,0
224,-545,0,0,0,0,0,0,0,0,0,-1,1448,1569,0,0
231,-545,0,0,0,0,0,0,0,0,0,-1,1455,1569,0,0
238,-545,0,0,0,0,0,0,0,0,0,-1,1462,1569,0,0
245,-545,0,0,0,0,0,0,0,0,0,-1,1469,1569,0,0
252,-545,0,0,0,0,0,0,0,0,0,-1,1476,1569,0,0
259,-545,0,0,0,0,0,0,0,0,0,-1,1483,1569,0,0
266,-545,0,0,0,0,0,0,0,0,0,-1,1490,1569,0,0
273,-545,0,0,0,0,0,0,0,0,0,-1,1497,1569,0,0
280,-545,0,0,0,0,0,0,0,0,0,-1,1504,1569,0,0
287,-545,0,0,0,0,0,0,0,0,0,-1,1511,1569,0,0
294,-545,0,0,0,0,0,0,0,0,0,-1,1518,1569,0,0
301,-545,0,0,0,0,0,0,0,0,0,-1,1525,1569,0,0
308,-545,0,0,0,0,0,0,0,0,0,-1,1532,1569,0,0
315,-545,0,0,0,0,0,0,0,0,0,-1,1539,1569,0,0
322,-545,0,0,0,0,0,0,0,0,0,-1,1546,1569,0,0
329,-545,0,0,0,0,0,0,0,0,0,-1,1553,1569,0,0
336,-545,0,0,0,0,0,0,0,0,0,-1,1560,1569,0,0
343,-545,0,0,0,0,0,0,0,0,0,-1,1567,1569,0,0
350,-545,0,0,0,0,0,0,0,0,0,-1,1574,1569,0,0
357,-545,0,0,0,0,0,0,0,0,0,-1,1581,1569,0,0
364,-545,0.0478516,0.265259,0.0154101,0.0039352,0.021892,0.032304,-0.0129587,0.657241,0.0269163,0.0458894,1588,1569,0.0477985,-0.265281
371,-545,-0.0878906,0.0992432,0,0,0,0,0,0,0,-1,1595,1569,-0.0879352,-0.0992768
378,-545,0.108521,-0.55957,0,0,0,0,0,0,0,-1,1602,1569,0.108567,0.559519
385,-545,0.716187,-0.503418,-0.00201847,0.00128809,0.0129574,0.0126973,-0.0134276,0.848852,0.0150852,0.0466649,1609,1569,0.716142,0.50339
392,-545,1.36316,-0.231201,-0.00763633,0.00538736,0.0128347,0.0132677,-0.0155167,1.02016,0.0166355,0.0461829,1616,1569,1.36321,0.231261
399,-545,0.952271,-0.0688477,-0.0112385,0.00889453,0.0115569,0.0141543,-0.0164983,1.14369,0.0177146,0.0460986,1623,1569,0.952213,0.0688482
406,-545,0.571045,0.105347,0,0,0,0,0,0,0,-1,1630,1569,0.571,-0.105293
413,-545,1.23657,-0.617676,-0.0161395,0.0122908,0.00712927,0.0139784,-0.0178271,1.33836,0.0184077,0.044331,1637,1569,1.23662,0.617678
420,-545,0.466187,-0.154663,-0.0158423,0.0127897,0.00451792,0.0134857,-0.0165383,1.41795,0.0173642,0.0421188,1644,1569,0.466227,0.154707
427,-545,0.110718,0.566162,0,0,0,0,0,0,0,-1,1651,1569,0.11075,-0.566161
434,-545,-0.00012207,0.31189,-0.0118153,0.0119416,0.000233079,0.0119439,-0.0118176,1.56099,0.0137188,0.0442155,1658,1569,-0.000115606,-0.311834
441,-545,0.0111084,0.308105,-0.0102011,0.0113696,-0.00140622,0.0114609,-0.0102924,-1.50597,0.0125653,0.0429373,1665,1569,0.0110983,-0.308124
448,-545,0.0291748,0.390747,-0.00766342,0.0101827,-0.00275915,0.0105996,-0.00808027,-1.42085,0.0108175,0.0428501,1672,1569,0.0291811,-0.39071
455,-545,-0.0241699,0.372803,-0.0050346,0.0085782,-0.00342909,0.0093932,-0.0058496,-1.33745,0.00887935,0.0417092,1679,1569,-0.0241732,-0.372794
462,-545,0.039917,0.216553,-0.00341484,0.00570045,-0.00313331,0.00667361,-0.004388,-1.26966,0.00643171,0.0407703,1686,1569,0.0399767,-0.216561
469,-545,0.107788,0.193726,-0.00173969,0.00454753,-0.0020462,0.00515482,-0.00234697,-1.28229,0.00443114,0.0381729,1693,1569,0.107845,-0.193744
476,-545,0.0251465,0.0424805,-0.000343267,0.00339973,-0.00141558,0.0038748,-0.000818337,-1.24701,0.00289479,0.0268575,1700,1569,0.0252059,-0.0424481
483,-545,-0.0205078,-0.0755615,0.000114002,0.0023691,-0.000456271,0.00245792,2.51835e-05,-1.37854,0.00163028,0.0117661,1707,1569,-0.0205654,0.0756137
490,-545,-0.00170898,-0.0600586,0.000256343,0.000953141,0.000121412,0.00097369,0.000235794,1.40313,0.000586546,0.0104606,1714,1569,-0.0017275,0.060087
497,-545,0.00488281,-0.0465088,4.6509e-05,0.000183197,0.000217892,0.000343212,-0.000113506,0.937369,0.000274578,0.015177,1721,1569,0.00485791,0.0465126
504,-545,-0.000244141,-0.0653076,-0.000348018,-0.000124459,0.000278453,6.38127e-05,-0.000536289,0.976268,0.000380584,0.0144264,1728,1569,-0.000243248,0.0653472
511,-545,-0.0275879,-0.0831299,-0.000393175,-0.000109648,0.000279394,6.189e-05,-0.000564713,1.02017,0.00039871,0.0105208,1735,1569,-0.0275872,0.0831455
518,-545,-0.0378418,-0.0776367,-0.000388023,-1.95087e-05,0.000250623,0.000107301,-0.000514832,1.10238,0.000384018,0.0118461,1742,1569,-0.0379014,0.0776469
525,-545,-0.0385742,-0.0698242,-0.000486642,-2.54923e-05,0.000189113,4.21414e-05,-0.000554276,1.22733,0.000384335,0.0129461,1749,1569,-0.0385845,0.0698002
532,-545,-0.0354004,-0.0769043,-0.00077277,3.65631e-05,3.21218e-05,3.7836e-05,-0.000774043,1.53119,0.000529092,0.0121895,1756,1569,-0.0354112,0.0768518
539,-545,-0.032959,-0.0804443,-0.000983731,0.000565937,-4.15758e-05,0.000567051,-0.000984846,-1.54399,0.000906747,0.0140399,1763,1569,-0.0329044,0.0804052
546,-545,-0.0262451,-0.111084,-0.000721489,0.00189079,0.000109621,0.00189538,-0.000726081,1.52893,0.00156289,0.0159321,1770,1569,-0.0261958,0.11108
553,-545,-0.0192871,-0.104614,-0.000454856,0.00335575,0.000328185,0.00338381,-0.000482914,1.48551,0.00243287,0.0228026,1777,1569,-0.0192682,0.104615
560,-545,-0.019165,-0.0649414,-0.000168189,0.00497325,0.000730076,0.00507491,-0.000269848,1.43244,0.00347671,0.0232624,1784,1569,-0.0192007,0.0648982
567,-545,-0.0205078,-0.0606689,0.000570505,0.0064103,0.00140884,0.00673242,0.000248391,1.34602,0.00440781,0.0213506,1791,1569,-0.0205552,0.0607179
574,-545,-0.0274658,-0.0899658,0.00193608,0.00873946,0.0019586,0.00926302,0.00141252,1.30959,0.00576251,0.0208062,1798,1569,-0.0274456,0.0899444
581,-545,-0.119507,-0.165283,0.00434167,0.0108524,0.00304146,0.0120521,0.00314194,1.19508,0.00721908,0.0316861,1805,1569,-0.11951,0.165319
588,-545,-0.276611,-0.31604,0.00710241,0.0134598,0.00427018,0.0156045,0.0049577,1.10535,0.00920667,0.0444957,1812,1569,-0.276639,0.3161
595,-545,-0.0914307,-0.456665,0.0107382,0.0160544,0.00571297,0.0196973,0.00709518,1.00314,0.0115195,0.0442704,1819,1569,-0.0914726,0.456642
602,-545,0.0648193,-0.412964,0.0153749,0.0184391,0.00737503,0.0244395,0.00937449,0.887814,0.0142371,0.0449531,1826,1569,0.0648753,0.413
609,-545,0.206787,-0.432129,0.0209959,0.0204332,0.00907817,0.029797,0.011632,0.769908,0.0173406,0.0391061,1833,1569,0.206838,0.432185
616,-545,0.543213,-0.525879,0.0280103,0.0215635,0.0108663,0.0361212,0.0134526,0.641212,0.0210796,0.0375272,1840,1569,0.543189,0.525919
623,-545,0.75647,-0.535767,0.0361164,0.0216589,0.0123848,0.0432278,0.0145476,0.521233,0.0253983,0.0411836,1847,1569,0.756479,0.53573
630,-545,0,0,0,0,0,0,0,0,0,-1,1854,1569,0,0
637,-545,0,0,0,0,0,0,0,0,0,-1,1861,1569,0,0
644,-545,0,0,0,0,0,0,0,0,0,-1,1868,1569,0,0
651,-545,0,0,0,0,0,0,0,0,0,-1,1875,1569,0,0
658,-545,0,0,0,0,0,0,0,0,0,-1,1882,1569,0,0
665,-545,0,0,0,0,0,0,0,0,0,-1,1889,1569,0,0
672,-545,0,0,0,0,0,0,0,0,0,-1,1896,1569,0,0
679,-545,0,0,0,0,0,0,0,0,0,-1,1903,1569,0,0
686,-545,0,0,0,0,0,0,0,0,0,-1,1910,1569,0,0
693,-545,0,0,0,0,0,0,0,0,0,-1,1917,1569,0,0
700,-545,0,0,0,0,0,0,0,0,0,-1,1924,1569,0,0
707,-545,0,0,0,0,0,0,0,0,0,-1,1931,1569,0,0
714,-545,0,0,0,0,0,0,0,0,0,-1,1938,1569,0,0
721,-545,0,0,0,0,0,0,0,0,0,-1,1945,1569,0,0
728,-545,0,0,0,0,0,0,0,0,0,-1,1952,1569,0,0
735,-545,0,0,0,0,0,0,0,0,0,-1,1959,1569,0,0
742,-545,0,0,0,0,0,0,0,0,0,-1,1966,1569,0,0
749,-545,0,0,0,0,0,0,0,0,0,-1,1973,1569,0,0
756,-545,0,0,0,0,0,0,0,0,0,-1,1980,1569,0,0
763,-545,0,0,0,0,0,0,0,0,0,-1,1987,1569,0,0
770,-545,0,0,0,0,0,0,0,0,0,-1,1994,1569,0,0
777,-545,0,0,0,0,0,0,0,0,0,-1,2001,1569,0,0
784,-545,0,0,0,0,0,0,0,0,0,-1,2008,1569,0,0
791,-545,0,0,0,0,0,0,0,0,0,-1,2015,1569,0,0
798,-545,0,0,0,0,0,0,0,0,0,-1,2022,1569,0,0
805,-545,0,0,0,0,0,0,0,0,0,-1,2029,1569,0,0
812,-545,0,0,0,0,0,0,0,0,0,-1,2036,1569,0,0
-700,-552,0,0,0,0,0,0,0,0,0,-1,524,1576,0,0
-693,-552,0,0,0,0,0,0,0,0,0,-1,531,1576,0,0
-686,-552,0,0,0,0,0,0,0,0,0,-1,538,1576,0,0
-679,-552,0,0,0,0,0,0,0,0,0,-1,545,1576,0,0
-672,-552,0,0,0,0,0,0,0,0,0,-1,552,1576,0,0
-665,-552,0,0,0,0,0,0,0,0,0,-1,559,1576,0,0
-658,-552,0,0,0,0,0,0,0,0,0,-1,566,1576,0,0
-651,-552,0,0,0,0,0,0,0,0,0,-1,573,1576,0,0
-644,-552,0,0,0,0,0,0,0,0,0,-1,580,1576,0,0
-637,-552,0,0,0,0,0,0,0,0,0,-1,587,1576,0,0
-630,-552,0,0,0,0,0,0,0,0,0,-1,594,1576,0,0
-623,-552,0,0,0,0,0,0,0,0,0,-1,601,1576,0,0
-616,-552,0,0,0,0,0,0,0,0,0,-1,608,1576,0,0
-609,-552,0,0,0,0,0,0,0,0,0,-1,615,1576,0,0
-602,-552,0,0,0,0,0,0,0,0,0,-1,622,1576,0,0
-595,-552,0,0,0,0,0,0,0,0,0,-1,629,1576,0,0
-588,-552,0,0,0,0,0,0,0,0,0,-1,636,1576,0,0
-581,-552,0,0,0,0,0,0,0,0,0,-1,643,1576,0,0
-574,-552,0,0,0,0,0,0,0,0,0,-1,650,1576,0,0
-567,-552,0,0,0,0,0,0,0,0,0,-1,657,1576,0,0
-560,-552,0,0,0,0,0,0,0,0,0,-1,664,1576,0,0
-553,-552,0,0,0,0,0,0,0,0,0,-1,671,1576,0,0
-546,-552,0,0,0,0,0,0,0,0,0,-1,678,1576,0,0
-539,-552,0,0,0,0,0,0,0,0,0,-1,685,1576,0,0
-532,-552,0,0,0,0,0,0,0,0,0,-1,692,1576,0,0
-525,-552,0,0,0,0,0,0,0,0,0,-1,699,1576,0,0
-518,-552,0,0,0,0,0,0,0,0,0,-1,706,1576,0,0
-511,-552,0,0,0,0,0,0,0,0,0,-1,713,1576,0,0
-504,-552,0,0,0,0,0,0,0,0,0,-1,720,1576,0,0
-497,-552,-0.254333,-0.84436,0,0,0,0,0,0,0,-1,727,1576,-0.25435,0.844357
-490,-552,0.0872803,-0.800415,0,0,0,0,0,0,0,-1,734,1576,0.0872953,0.800435
-483,-552,2.80402,0.914917,0,0,0,0,0,0,0,-1,741,1576,2.80401,-0.914931
-476,-552,2.48242,0.938721,-0.034201,0.0667641,0.00695907,0.0672415,-0.0346784,1.5023,0.0598362,0.0434514,748,1576,2.48244,-0.93869
-469,-552,0.166992,-0.58667,-0.0300791,0.0542276,0.00528452,0.0545576,-0.030409,1.50844,0.0497115,0.0423312,755,1576,0.166981,0.586689
-462,-552,0.133362,-0.627563,-0.0259665,0.042895,0.00396216,0.0431222,-0.0261938,1.51351,0.0404155,0.0401877,762,1576,0.133371,0.627518
-455,-552,0.207947,-0.696167,-0.0221851,0.0331057,0.00260588,0.0332282,-0.0223077,1.5238,0.0322697,0.0387314,769,1576,0.207956,0.696125
-448,-552,0.31012,-0.479492,-0.0183258,0.0240803,0.0017351,0.0241512,-0.0183967,1.52997,0.0246398,0.0377203,776,1576,0.310148,0.479548
-441,-552,-0.0418701,-0.0921631,-0.014299,0.0187646,0.000936833,0.0187911,-0.0143256,1.54249,0.0191778,0.0331477,783,1576,-0.0418925,0.0921459
-434,-552,-0.0426636,-0.0671387,-0.0112395,0.0146416,0.000312159,0.0146453,-0.0112433,1.55874,0.0149898,0.0176611,790,1576,-0.0426917,0.0671236
-427,-552,-0.0310059,-0.0563965,-0.0086335,0.0103966,-0.000406746,0.0104053,-0.00864219,-1.54944,0.0110128,0.0135702,797,1576,-0.0310042,0.0564207
-420,-552,-0.0287476,-0.0718994,-0.00564413,0.00758327,-0.000119827,0.00758435,-0.00564522,-1.56174,0.0076654,0.0174276,804,1576,-0.0287262,0.0719123
-413,-552,-0.0188599,-0.097168,-0.00339623,0.00523869,-0.000470532,0.00526425,-0.00342179,-1.51652,0.00505236,0.0161196,811,1576,-0.0188679,0.0971628
-406,-552,-0.0109253,-0.108643,-0.00231753,0.0037669,-0.000722742,0.00385157,-0.0024022,-1.45417,0.0036428,0.0130361,818,1576,-0.0109101,0.108638
-399,-552,-0.017334,-0.0871582,-0.0016197,0.00240193,-0.000797148,0.00255417,-0.00177194,-1.38208,0.00251125,0.0129683,825,1576,-0.0173316,0.0871047
-392,-552,-0.0275879,-0.0769043,-0.00117096,0.00192628,-0.0010177,0.00223075,-0.00147543,-1.2801,0.00215452,0.0133185,832,1576,-0.0275921,0.076854
-385,-552,-0.0307617,-0.0754395,-0.00111001,0.00156168,-0.000965804,0.00187425,-0.00142258,-1.2578,0.00190937,0.011814,839,1576,-0.0307603,0.0753832
-378,-552,-0.0169067,-0.0587158,-0.00109849,0.000892298,-0.00110316,0.00138276,-0.00158896,-1.15244,0.0017171,0.0131871,846,1576,-0.0169312,0.0587597
-371,-552,-0.0264893,-0.0476074,-0.00125684,0.000668036,-0.00107199,0.00114624,-0.00173504,-1.1512,0.00167505,0.017459,853,1576,-0.0264972,0.0475537
-364,-552,-0.0136108,-0.0610352,-0.00130909,0.000207151,-0.00136257,0.00100831,-0.00211025,-1.03927,0.00183758,0.0135993,860,1576,-0.0135932,0.0610597
-357,-552,-0.0117798,-0.0698242,-0.0010741,-0.000418722,-0.00141745,0.000708427,-0.00220125,-0.898994,0.00175205,0.00940932,867,1576,-0.0117768,0.0697862
-350,-552,-0.0184326,-0.0656738,-0.00031037,-0.000892679,-0.000658072,0.000118079,-0.00132113,-0.577125,0.000922634,0.00921808,874,1576,-0.0184336,0.0656916
-343,-552,-0.0308228,-0.0770264,0.000644732,-0.00201743,8.75899e-05,0.000647611,-0.00202031,0.0328544,0.00160685,0.00924083,881,1576,-0.0308065,0.076968
-336,-552,-0.0149536,-0.0539551,0.00165657,-0.0039491,0.000418656,0.00168767,-0.0039802,0.0741363,0.00336039,0.0124832,888,1576,-0.0149493,0.0538974
-329,-552,-0.00152588,-0.00292969,0.00337244,-0.00597897,0.00140621,0.00357932,-0.00618585,0.146071,0.00570448,0.0262948,895,1576,-0.00154232,0.00290556
-322,-552,-0.0145264,0.064209,0.00542735,-0.00780571,0.0025569,0.00590421,-0.00828257,0.184382,0.00822902,0.0402782,902,1576,-0.0145328,-0.0642539
-315,-552,0.0779419,-0.0739746,0.00765001,-0.0102307,0.00408508,0.00853909,-0.0111198,0.214299,0.0113826,0.0455038,909,1576,0.0779469,0.0740176
-308,-552,0.25238,-0.500732,0.00959494,-0.0126414,0.00586683,0.0110479,-0.0140944,0.242772,0.0145514,0.0446232,916,1576,0.252405,0.50071
-301,-552,0.591125,-0.562988,0.0110291,-0.012885,0.00730006,0.0130814,-0.0149373,0.274061,0.0161884,0.0481981,923,1576,0.591123,0.562967
-294,-552,0.535034,0.798584,0.0120619,-0.0132183,0.00888392,0.0148716,-0.016028,0.306313,0.0178441,0.0472893,930,1576,0.535011,-0.798644
-287,-552,0.518372,0.750366,0.0104138,-0.0106753,0.00968044,0.0141835,-0.014445,0.37135,0.0165289,0.0426772,937,1576,0.518344,-0.750377
-280,-552,0.709045,0.731934,0.0068266,-0.00449038,0.0103096,0.0129285,-0.0105922,0.534415,0.013602,0.0429604,944,1576,0.709023,-0.73199
-273,-552,1.16614,0.448608,0.00213554,0.00211746,0.00956692,0.0116934,-0.00744043,0.784926,0.0111375,0.048347,951,1576,1.16611,-0.448562
-266,-552,1.55023,0.188477,0,0,0,0,0,0,0,-1,958,1576,1.55022,-0.188502
-259,-552,1.71362,0.0927734,0,0,0,0,0,0,0,-1,965,1576,1.7136,-0.0927718
-252,-552,-0.216553,1.31384,0,0,0,0,0,0,0,-1,972,1576,-0.216552,-1.31382
-245,-552,-0.977173,0.731689,0,0,0,0,0,0,0,-1,979,1576,-0.97717,-0.731657
-238,-552,-0.866028,1.14185,-0.0489848,0.0305621,0.000872747,0.0305717,-0.0489944,1.55983,0.0463461,0.0488556,986,1576,-0.866041,-1.14189
-231,-552,-1.13794,1.66833,-0.0635957,0.0433299,0.00292116,0.0434096,-0.0636754,1.5435,0.0621935,0.0419526,993,1576,-1.13792,-1.66831
-224,-552,0,0,0,0,0,0,0,0,0,-1,1000,1576,0,0
-217,-552,0,0,0,0,0,0,0,0,0,-1,1007,1576,0,0
-210,-552,0,0,0,0,0,0,0,0,0,-1,1014,1576,0,0
-203,-552,0,0,0,0,0,0,0,0,0,-1,1021,1576,0,0
-196,-552,0,0,0,0,0,0,0,0,0,-1,1028,1576,0,0
-189,-552,0,0,0,0,0,0,0,0,0,-1,1035,1576,0,0
-182,-552,0,0,0,0,0,0,0,0,0,-1,1042,1576,0,0
-175,-552,0,0,0,0,0,0,0,0,0,-1,1049,1576,0,0
-168,-552,0,0,0,0,0,0,0,0,0,-1,1056,1576,0,0
-161,-552,0,0,0,0,0,0,0,0,0,-1,1063,1576,0,0
-154,-552,0,0,0,0,0,0,0,0,0,-1,1070,1576,0,0
-147,-552,0,0,0,0,0,0,0,0,0,-1,1077,1576,0,0
-140,-552,0,0,0,0,0,0,0,0,0,-1,1084,1576,0,0
-133,-552,0,0,0,0,0,0,0,0,0,-1,1091,1576,0,0
-126,-552,0,0,0,0,0,0,0,0,0,-1,1098,1576,0,0
-119,-552,0,0,0,0,0,0,0,0,0,-1,1105,1576,0,0
-112,-552,0,0,0,0,0,0,0,0,0,-1,1112,1576,0,0
-105,-552,0,0,0,0,0,0,0,0,0,-1,1119,1576,0,0
-98,-552,0,0,0,0,0,0,0,0,0,-1,1126,1576,0,0
-91,-552,0,0,0,0,0,0,0,0,0,-1,1133,1576,0,0
-84,-552,0,0,0,0,0,0,0,0,0,-1,1140,1576,0,0
-77,-552,0,0,0,0,0,0,0,0,0,-1,1147,1576,0,0
-70,-552,0,0,0,0,0,0,0,0,0,-1,1154,1576,0,0
-63,-552,0,0,0,0,0,0,0,0,0,-1,1161,1576,0,0
-56,-552,0,0,0,0,0,0,0,0,0,-1,1168,1576,0,0
-49,-552,0,0,0,0,0,0,0,0,0,-1,1175,1576,0,0
-42,-552,0,0,0,0,0,0,0,0,0,-1,1182,1576,0,0
-35,-552,0,0,0,0,0,0,0,0,0,-1,1189,1576,0,0
-28,-552,0,0,0,0,0,0,0,0,0,-1,1196,1576,0,0
-21,-552,0,0,0,0,0,0,0,0,0,-1,1203,1576,0,0
-14,-552,0,0,0,0,0,0,0,0,0,-1,1210,1576,0,0
-7,-552,0,0,0,0,0,0,0,0,0,-1,1217,1576,0,0
0,-552,0,0,0,0,0,0,0,0,0,-1,1224,1576,0,0
7,-552,0,0,0,0,0,0,0,0,0,-1,1231,1576,0,0
14,-552,0,0,0,0,0,0,0,0,0,-1,1238,1576,0,0
21,-552,0,0,0,0,0,0,0,0,0,-1,1245,1576,0,0
28,-552,0,0,0,0,0,0,0,0,0,-1,1252,1576,0,0
35,-552,0,0,0,0,0,0,0,0,0,-1,1259,1576,0,0
42,-552,0,0,0,0,0,0,0,0,0,-1,1266,1576,0,0
49,-552,0,0,0,0,0,0,0,0,0,-1,1273,1576,0,0
56,-552,0,0,0,0,0,0,0,0,0,-1,1280,1576,0,0
63,-552,0,0,0,0,0,0,0,0,0,-1,1287,1576,0,0
70,-552,0,0,0,0,0,0,0,0,0,-1,1294,1576,0,0
77,-552,0,0,0,0,0,0,0,0,0,-1,1301,1576,0,0
84,-552,0,0,0,0,0,0,0,0,0,-1,1308,1576,0,0
91,-552,0,0,0,0,0,0,0,0,0,-1,1315,1576,0,0
98,-552,0,0,0,0,0,0,0,0,0,-1,1322,1576,0,0
105,-552,0,0,0,0,0,0,0,0,0,-1,1329,1576,0,0
112,-552,0,0,0,0,0,0,0,0,0,-1,1336,1576,0,0
119,-552,0,0,0,0,0,0,0,0,0,-1,1343,1576,0,0
126,-552,0,0,0,0,0,0,0,0,0,-1,1350,1576,0,0
133,-552,0,0,0,0,0,0,0,0,0,-1,1357,1576,0,0
140,-552,0,0,0,0,0,0,0,0,0,-1,1364,1576,0,0
147,-552,0,0,0,0,0,0,0,0,0,-1,1371,1576,0,0
154,-552,0,0,0,0,0,0,0,0,0,-1,1378,1576,0,0
161,-552,0,0,0,0,0,0,0,0,0,-1,1385,1576,0,0
168,-552,0,0,0,0,0,0,0,0,0,-1,1392,1576,0,0
175,-552,0,0,0,0,0,0,0,0,0,-1,1399,1576,0,0
182,-552,0,0,0,0,0,0,0,0,0,-1,1406,1576,0,0
189,-552,0,0,0,0,0,0,0,0,0,-1,1413,1576,0,0
196,-552,0,0,0,0,0,0,0,0,0,-1,1420,1576,0,0
203,-552,0,0,0,0,0,0,0,0,0,-1,1427,1576,0,0
210,-552,0,0,0,0,0,0,0,0,0,-1,1434,1576,0,0
217,-552,0,0,0,0,0,0,0,0,0,-1,1441,1576,0,0
224,-552,0,0,0,0,0,0,0,0,0,-1,1448,1576,0,0
231,-552,0,0,0,0,0,0,0,0,0,-1,1455,1576,0,0
238,-552,0,0,0,0,0,0,0,0,0,-1,1462,1576,0,0
245,-552,0,0,0,0,0,0,0,0,0,-1,1469,1576,0,0
252,-552,0,0,0,0,0,0,0,0,0,-1,1476,1576,0,0
259,-552,0,0,0,0,0,0,0,0,0,-1,1483,1576,0,0
266,-552,0,0,0,0,0,0,0,0,0,-1,1490,1576,0,0
273,-552,0,0,0,0,0,0,0,0,0,-1,1497,1576,0,0
280,-552,0,0,0,0,0,0,0,0,0,-1,1504,1576,0,0
287,-552,0,0,0,0,0,0,0,0,0,-1,1511,1576,0,0
294,-552,0,0,0,0,0,0,0,0,0,-1,1518,1576,0,0
301,-552,0,0,0,0,0,0,0,0,0,-1,1525,1576,0,0
308,-552,0,0,0,0,0,0,0,0,0,-1,1532,1576,0,0
315,-552,0,0,0,0,0,0,0,0,0,-1,1539,1576,0,0
322,-552,0,0,0,0,0,0,0,0,0,-1,1546,1576,0,0
329,-552,0,0,0,0,0,0,0,0,0,-1,1553,1576,0,0
336,-552,0,0,0,0,0,0,0,0,0,-1,1560,1576,0,0
343,-552,0,0,0,0,0,0,0,0,0,-1,1567,1576,0,0
350,-552,-0.47229,-0.010498,0,0,0,0,0,0,0,-1,1574,1576,-0.472251,0.0104777
357,-552,-0.392212,0.152954,0.0126695,-0.00137392,0.0191931,0.026085,-0.0147894,0.610038,0.0238973,0.0433909,1581,1576,-0.39223,-0.152913
364,-552,-0.305176,0.342529,0.0113293,-0.00160502,0.0169978,0.0230486,-0.0133243,0.603619,0.0212486,0.0423633,1588,1576,-0.305212,-0.342536
371,-552,-0.216187,0.429077,0,0,0,0,0,0,0,-1,1595,1576,-0.216168,-0.429038
378,-552,0.0546875,-0.0579834,0,0,0,0,0,0,0,-1,1602,1576,0.0547006,0.0579545
385,-552,0.518311,-0.154297,-0.00360887,0.000440822,0.0119278,0.0105145,-0.0136825,0.869476,0.01401,0.0432866,1609,1576,0.518268,0.154248
392,-552,0.903931,-0.156982,-0.00824034,0.00459068,0.012205,0.0119636,-0.0156133,1.02737,0.0159679,0.043395,1616,1576,0.903934,0.156932
399,-552,0.862671,0.133667,-0.0110574,0.00800655,0.0112412,0.013213,-0.0162639,1.13705,0.0170489,0.0483692,1623,1576,0.862688,-0.133614
406,-552,0.805542,0.425415,0,0,0,0,0,0,0,-1,1630,1576,0.805542,-0.425423
413,-552,1.52905,-1.01514,0,0,0,0,0,0,0,-1,1637,1576,1.52909,1.01519
420,-552,0.516357,-1.6731,0,0,0,0,0,0,0,-1,1644,1576,0.516378,1.67315
427,-552,0.357422,-1.27661,0,0,0,0,0,0,0,-1,1651,1576,0.357464,1.27661
434,-552,0.230469,-0.778687,-0.0108906,0.0114751,0.00137853,0.0115598,-0.0109753,1.50947,0.0130121,0.0415502,1658,1576,0.230524,0.778653
441,-552,0.210938,-0.11792,-0.00942519,0.0110207,-0.000330116,0.0110261,-0.00943052,-1.55466,0.0118226,0.0420317,1665,1576,0.210906,0.117944
448,-552,0.251099,0.227661,-0.00703058,0.00999652,-0.00185717,0.0101967,-0.00723079,-1.46341,0.0101102,0.0412764,1672,1576,0.251127,-0.227701
455,-552,0.121338,0.113281,-0.00465144,0.00852958,-0.002774,0.00908958,-0.00521144,-1.3716,0.00835729,0.0377511,1679,1576,0.121391,-0.113257
462,-552,0.0810547,-0.0362549,-0.00318665,0.00610304,-0.0026847,0.0068231,-0.00390672,-1.30875,0.00627067,0.035082,1686,1576,0.0810713,0.0363105
469,-552,0.0206299,-0.0560303,-0.00166571,0.00496386,-0.00180415,0.00542303,-0.00212488,-1.32158,0.00449432,0.0260157,1693,1576,0.0206066,0.0559833
476,-552,-0.0280762,-0.0604248,-0.000410627,0.00389106,-0.00131706,0.00426227,-0.00078184,-1.29607,0.0031348,0.0132197,1700,1576,-0.0281225,0.0604436
483,-552,0.00646973,-0.0683594,5.10946e-06,0.00292368,-0.000517193,0.00301262,-8.38307e-05,-1.40049,0.00203693,0.0128683,1707,1576,0.00652677,0.0683015
490,-552,0.0168457,-0.0439453,0.000187755,0.00167842,-3.7496e-05,0.00167936,0.000186813,-1.54566,0.00106279,0.0138371,1714,1576,0.0168483,0.0439909
497,-552,0.0284424,-0.0355225,9.72102e-05,0.000989072,6.0965e-05,0.00099322,9.30621e-05,1.50286,0.000633409,0.0194465,1721,1576,0.0284225,0.0355001
504,-552,0.0125732,-0.0454102,-0.000168664,0.000738187,0.000128601,0.000756071,-0.000186548,1.43261,0.000576382,0.0215985,1728,1576,0.0125486,0.0454117
511,-552,-0.0257568,-0.074707,-0.000130523,0.000655295,0.000156991,0.000685498,-0.000160726,1.38073,0.000518938,0.0161377,1735,1576,-0.0257365,0.0747455
518,-552,-0.0311279,-0.0856934,-7.38935e-05,0.000706139,0.000152828,0.000735014,-0.000102768,1.38407,0.000527612,0.0132196,1742,1576,-0.0311205,0.0856638
525,-552,-0.0384521,-0.0682373,-0.000166535,0.000672791,0.000149858,0.000698744,-0.000192489,1.39931,0.000541519,0.0126022,1749,1576,-0.0384836,0.0681883
532,-552,-0.0256348,-0.064209,-0.000457494,0.000664462,3.61274e-05,0.000665624,-0.000458656,1.53864,0.000652759,0.0126022,1756,1576,-0.0256558,0.064168
539,-552,-0.0245361,-0.0739746,-0.000667868,0.00118524,-1.78299e-06,0.00118524,-0.00066787,-1.56983,0.0010837,0.0150203,1763,1576,-0.0245463,0.0739412
546,-552,-0.0148926,-0.0869141,-0.000357012,0.00262173,0.00020288,0.00263549,-0.000370767,1.5031,0.00189273,0.0182265,1770,1576,-0.0149049,0.0869069
553,-552,-0.00244141,-0.078125,-3.052e-05,0.00430883,0.000540631,0.00437517,-9.68617e-05,1.44869,0.0029496,0.0204406,1777,1576,-0.0024691,0.0780682
560,-552,0.0057373,-0.0467529,0.000293567,0.00622123,0.00107848,0.00641135,0.000103447,1.3963,0.00424017,0.0210163,1784,1576,0.0057911,0.0467065
567,-552,0.00170898,-0.0384521,0.001173,0.00798008,0.00194161,0.00849495,0.000658126,1.31159,0.00545717,0.0250188,1791,1576,0.00166993,0.0384008
574,-552,-0.0828857,-0.103027,0.00276189,0.010832,0.00266807,0.0116344,0.00195956,1.27868,0.00719259,0.0331714,1798,1576,-0.0828992,0.10301
581,-552,-0.322754,-0.252686,0.0055134,0.0135612,0.00403788,0.0152378,0.00383674,1.17723,0.00915176,0.0417245,1805,1576,-0.322811,0.252642
588,-552,-0.562866,-0.522461,0.00871968,0.0169298,0.00560961,0.0197759,0.00587353,1.10127,0.0117271,0.0422606,1812,1576,-0.562923,0.522426
595,-552,-0.410767,-0.629272,0.0129667,0.0203508,0.00749346,0.0250124,0.00830514,1.01429,0.01471,0.0415258,1819,1576,-0.410827,0.629255
602,-552,0.0476074,-0.415894,0.0184774,0.0235766,0.00973923,0.0310944,0.0109596,0.913419,0.018211,0.0414521,1826,1576,0.0475937,0.415854
609,-552,-0.563477,0.050293,0.0255002,0.0260795,0.0122291,0.0380223,0.0135573,0.797239,0.0222513,0.0408944,1833,1576,-0.563436,-0.0502852
616,-552,-0.309814,0.182251,0.0343135,0.0276256,0.0149287,0.0462682,0.0156709,0.67522,0.0271723,0.0419215,1840,1576,-0.309808,-0.182212
623,-552,0,0,0,0,0,0,0,0,0,-1,1847,1576,0,0
630,-552,0,0,0,0,0,0,0,0,0,-1,1854,1576,0,0
637,-552,0,0,0,0,0,0,0,0,0,-1,1861,1576,0,0
644,-552,0,0,0,0,0,0,0,0,0,-1,1868,1576,0,0
651,-552,0,0,0,0,0,0,0,0,0,-1,1875,1576,0,0
658,-552,0,0,0,0,0,0,0,0,0,-1,1882,1576,0,0
665,-552,0,0,0,0,0,0,0,0,0,-1,1889,1576,0,0
672,-552,0,0,0,0,0,0,0,0,0,-1,1896,1576,0,0
679,-552,0,0,0,0,0,0,0,0,0,-1,1903,1576,0,0
686,-552,0,0,0,0,0,0,0,0,0,-1,1910,1576,0,0
693,-552,0,0,0,0,0,0,0,0,0,-1,1917,1576,0,0
700,-552,0,0,0,0,0,0,0,0,0,-1,1924,1576,0,0
707,-552,0,0,0,0,0,0,0,0,0,-1,1931,1576,0,0
714,-552,0,0,0,0,0,0,0,0,0,-1,1938,1576,0,0
721,-552,0,0,0,0,0,0,0,0,0,-1,1945,1576,0,0
728,-552,0,0,0,0,0,0,0,0,0,-1,1952,1576,0,0
735,-552,0,0,0,0,0,0,0,0,0,-1,1959,1576,0,0
742,-552,0,0,0,0,0,0,0,0,0,-1,1966,1576,0,0
749,-552,0,0,0,0,0,0,0,0,0,-1,1973,1576,0,0
756,-552,0,0,0,0,0,0,0,0,0,-1,1980,1576,0,0
763,-552,0,0,0,0,0,0,0,0,0,-1,1987,1576,0,0
770,-552,0,0,0,0,0,0,0,0,0,-1,1994,1576,0,0
777,-552,0,0,0,0,0,0,0,0,0,-1,2001,1576,0,0
784,-552,0,0,0,0,0,0,0,0,0,-1,2008,1576,0,0
791,-552,0,0,0,0,0,0,0,0,0,-1,2015,1576,0,0
798,-552,0,0,0,0,0,0,0,0,0,-1,2022,1576,0,0
805,-552,0,0,0,0,0,0,0,0,0,-1,2029,1576,0,0
812,-552,0,0,0,0,0,0,0,0,0,-1,2036,1576,0,0
-700,-559,0,0,0,0,0,0,0,0,0,-1,524,1583,0,0
-693,-559,0,0,0,0,0,0,0,0,0,-1,531,1583,0,0
-686,-559,0,0,0,0,0,0,0,0,0,-1,538,1583,0,0
-679,-559,0,0,0,0,0,0,0,0,0,-1,545,1583,0,0
-672,-559,0,0,0,0,0,0,0,0,0,-1,552,1583,0,0
-665,-559,0,0,0,0,0,0,0,0,0,-1,559,1583,0,0
-658,-559,0,0,0,0,0,0,0,0,0,-1,566,1583,0,0
-651,-559,0,0,0,0,0,0,0,0,0,-1,573,1583,0,0
-644,-559,0,0,0,0,0,0,0,0,0,-1,580,1583,0,0
-637,-559,0,0,0,0,0,0,0,0,0,-1,587,1583,0,0
-630,-559,0,0,0,0,0,0,0,0,0,-1,594,1583,0,0
-623,-559,0,0,0,0,0,0,0,0,0,-1,601,1583,0,0
-616,-559,0,0,0,0,0,0,0,0,0,-1,608,1583,0,0
-609,-559,0,0,0,0,0,0,0,0,0,-1,615,1583,0,0
-602,-559,0,0,0,0,0,0,0,0,0,-1,622,1583,0,0
-595,-559,0,0,0,0,0,0,0,0,0,-1,629,1583,0,0
-588,-559,0,0,0,0,0,0,0,0,0,-1,636,1583,0,0
-581,-559,0,0,0,0,0,0,0,0,0,-1,643,1583,0,0
-574,-559,0,0,0,0,0,0,0,0,0,-1,650,1583,0,0
-567,-559,0,0,0,0,0,0,0,0,0,-1,657,1583,0,0
-560,-559,0,0,0,0,0,0,0,0,0,-1,664,1583,0,0
-553,-559,0,0,0,0,0,0,0,0,0,-1,671,1583,0,0
-546,-559,0,0,0,0,0,0,0,0,0,-1,678,1583,0,0
-539,-559,0,0,0,0,0,0,0,0,0,-1,685,1583,0,0
-532,-559,0,0,0,0,0,0,0,0,0,-1,692,1583,0,0
-525,-559,0,0,0,0,0,0,0,0,0,-1,699,1583,0,0
-518,-559,0,0,0,0,0,0,0,0,0,-1,706,1583,0,0
-511,-559,0,0,0,0,0,0,0,0,0,-1,713,1583,0,0
-504,-559,0,0,0,0,0,0,0,0,0,-1,720,1583,0,0
-497,-559,0,0,0,0,0,0,0,0,0,-1,727,1583,0,0
-490,-559,3.26819,-0.898193,0,0,0,0,0,0,0,-1,734,1583,3.26821,0.898159
-483,-559,3.0343,-0.251709,-0.045371,0.0953622,0.0110367,0.0962225,-0.0462312,1.49301,0.0839168,0.0454932,741,1583,3.03433,0.251719
-476,-559,2.71747,0.296631,-0.0406599,0.077299,0.00847696,0.077905,-0.041266,1.49942,0.069879,0.0461078,748,1583,2.71746,-0.296619
-469,-559,2.27173,0.644531,0,0,0,0,0,0,0,-1,755,1583,2.27174,-0.644497
-462,-559,-0.191772,-0.525635,0,0,0,0,0,0,0,-1,762,1583,-0.191793,0.525656
-455,-559,0.925171,-0.801025,0,0,0,0,0,0,0,-1,769,1583,0.925199,0.800996
-448,-559,0.72052,-0.496704,-0.0217833,0.0283539,0.00131401,0.0283883,-0.0218177,1.54461,0.0290691,0.043388,776,1583,0.720492,0.49675
-441,-559,0.411987,-0.188843,-0.0170511,0.0222496,0.000154939,0.0222502,-0.0170517,1.56685,0.022757,0.0404929,783,1583,0.411988,0.188823
-434,-559,-0.0339355,-0.0383301,-0.0135104,0.017559,-0.000673423,0.0175736,-0.013525,-1.54914,0.0180054,0.031624,790,1583,-0.0339536,0.038322
-427,-559,-0.0221558,-0.0646973,-0.0104783,0.0128682,-0.00158819,0.0129758,-0.0105859,-1.50318,0.0136266,0.0183229,797,1583,-0.0221815,0.0647087
-420,-559,-0.00512695,-0.0866699,-0.00713594,0.00984085,-0.0014115,0.0099574,-0.0072525,-1.48841,0.00997697,0.0152172,804,1583,-0.0051049,0.0866806
-413,-559,-0.0149536,-0.0780029,-0.00460185,0.00733897,-0.00178336,0.00759962,-0.0048625,-1.42566,0.00725263,0.0106756,811,1583,-0.0149784,0.0780502
-406,-559,-0.019043,-0.0787354,-0.00327569,0.00579399,-0.00194095,0.0061919,-0.0036736,-1.36859,0.00575737,0.00934586,818,1583,-0.0190295,0.0787866
-399,-559,-0.0128784,-0.0860596,-0.00228272,0.00423002,-0.00184609,0.00471691,-0.00276961,-1.31293,0.00437081,0.0119228,825,1583,-0.0128968,0.0860905
-392,-559,-0.0385132,-0.100586,-0.00150651,0.00368714,-0.00191806,0.0043187,-0.00213806,-1.25271,0.00379802,0.0143011,832,1583,-0.0384938,0.100641
-385,-559,-0.0476685,-0.0882568,-0.00114419,0.00312758,-0.00146568,0.0035821,-0.00159872,-1.27009,0.00306334,0.0146217,839,1583,-0.0476442,0.0882328
-378,-559,-0.0197754,-0.0565186,-0.000834314,0.00219541,-0.00129268,0.00267198,-0.00131089,-1.21758,0.00234384,0.0138368,846,1583,-0.0197958,0.0565253
-371,-559,-0.0090332,-0.0491943,-0.000658358,0.00166727,-0.0008591,0.0019502,-0.000941293,-1.25265,0.00170294,0.0209498,853,1583,-0.00903551,0.0491939
-364,-559,-0.00469971,-0.0628662,-0.000386143,0.000950681,-0.000828016,0.00134641,-0.000781867,-1.12497,0.00124308,0.0186654,860,1583,-0.00471709,0.0628353
-357,-559,-0.0107422,-0.0638428,0.000179806,0.000138639,-0.000622276,0.00078184,-0.000463394,-0.768865,0.00072673,0.0112133,867,1583,-0.0107271,0.0637916
-350,-559,-0.0122681,-0.0701904,0.00103477,-0.000385135,0.000207233,0.00106439,-0.000414762,0.142004,0.000881018,0.00921226,874,1583,-0.012266,0.0702239
-343,-559,-0.0222778,-0.0876465,0.00202885,-0.00136069,0.00104528,0.00232527,-0.00165711,0.276329,0.00230999,0.0099716,881,1583,-0.0222864,0.0876727
-336,-559,0.00714111,-0.09375,0.00300598,-0.00286586,0.00142494,0.00333351,-0.00319339,0.225928,0.00376859,0.00976853,888,1583,0.00711369,0.0938045
-329,-559,0.0216675,-0.0699463,0.00445809,-0.00433668,0.00227662,0.00501247,-0.00489106,0.238862,0.00571795,0.0122445,895,1583,0.0216904,0.0699928
-322,-559,-0.0565186,-0.0288086,0.00612162,-0.00553829,0.00320787,0.0069459,-0.00636257,0.251514,0.0076861,0.0271879,902,1583,-0.056526,0.0288088
-315,-559,-0.138672,0.0219727,0.00789004,-0.00710571,0.00449393,0.00913365,-0.00834932,0.269975,0.0100972,0.0375037,909,1583,-0.138701,-0.0219758
-308,-559,-0.283081,0.351685,0.00950468,-0.00845103,0.00604187,0.0113484,-0.0102947,0.296178,0.0125006,0.0363982,916,1583,-0.283078,-0.351646
-301,-559,0.0446167,0.489014,0.0105748,-0.00758734,0.00731268,0.0131531,-0.0101656,0.338972,0.0134999,0.042547,923,1583,0.0446245,-0.489033
-294,-559,0.240967,0.469971,0.0112371,-0.00689289,0.00876702,0.014783,-0.0104388,0.384344,0.0146336,0.0464886,930,1583,0.240948,-0.469992
-287,-559,-0.217651,-0.0617676,0,0,0,0,0,0,0,-1,937,1583,-0.217642,0.0617712
-280,-559,-0.152405,0.0012207,0,0,0,0,0,0,0,-1,944,1583,-0.152424,-0.00118948
-273,-559,0.526184,0.387817,0,0,0,0,0,0,0,-1,951,1583,0.526189,-0.387817
-266,-559,-1.25665,-0.167358,0,0,0,0,0,0,0,-1,958,1583,-1.25663,0.167417
-259,-559,2.39764,-0.14917,0,0,0,0,0,0,0,-1,965,1583,2.39766,0.149144
-252,-559,1.57507,0.0598145,-0.0191816,0.019634,0.00727645,0.0209532,-0.0205008,1.39144,0.0239339,0.047627,972,1583,1.57505,-0.0598135
-245,-559,0.596069,0.323486,0,0,0,0,0,0,0,-1,979,1583,0.59608,-0.323527
-238,-559,-0.230042,0.716309,-0.041332,0.0317196,0.00359106,0.0318957,-0.0415081,1.5218,0.0425006,0.0466192,986,1583,-0.230034,-0.71627
-231,-559,-0.991577,0.93103,-0.0538218,0.0409922,0.00528108,0.0412854,-0.054115,1.51533,0.0552452,0.046087,993,1583,-0.99157,-0.931063
-224,-559,-1.31659,1.5094,0,0,0,0,0,0,0,-1,1000,1583,-1.31657,-1.50938
-217,-559,0,0,0,0,0,0,0,0,0,-1,1007,1583,0,0
-210,-559,0,0,0,0,0,0,0,0,0,-1,1014,1583,0,0
-203,-559,0,0,0,0,0,0,0,0,0,-1,1021,1583,0,0
-196,-559,0,0,0,0,0,0,0,0,0,-1,1028,1583,0,0
-189,-559,0,0,0,0,0,0,0,0,0,-1,1035,1583,0,0
-182,-559,0,0,0,0,0,0,0,0,0,-1,1042,1583,0,0
-175,-559,0,0,0,0,0,0,0,0,0,-1,1049,1583,0,0
-168,-559,0,0,0,0,0,0,0,0,0,-1,1056,1583,0,0
-161,-559,0,0,0,0,0,0,0,0,0,-1,1063,1583,0,0
-154,-559,0,0,0,0,0,0,0,0,0,-1,1070,1583,0,0
-147,-559,0,0,0,0,0,0,0,0,0,-1,1077,1583,0,0
-140,-559,0,0,0,0,0,0,0,0,0,-1,1084,1583,0,0
-133,-559,0,0,0,0,0,0,0,0,0,-1,1091,1583,0,0
-126,-559,0,0,0,0,0,0,0,0,0,-1,1098,1583,0,0
-119,-559,0,0,0,0,0,0,0,0,0,-1,1105,1583,0,0
-112,-559,0,0,0,0,0,0,0,0,0,-1,1112,1583,0,0
-105,-559,0,0,0,0,0,0,0,0,0,-1,1119,1583,0,0
-98,-559,0,0,0,0,0,0,0,0,0,-1,1126,1583,0,0
-91,-559,0,0,0,0,0,0,0,0,0,-1,1133,1583,0,0
-84,-559,0,0,0,0,0,0,0,0,0,-1,1140,1583,0,0
-77,-559,0,0,0,0,0,0,0,0,0,-1,1147,1583,0,0
-70,-559,0,0,0,0,0,0,0,0,0,-1,1154,1583,0,0
-63,-559,0,0,0,0,0,0,0,0,0,-1,1161,1583,0,0
-56,-559,0,0,0,0,0,0,0,0,0,-1,1168,1583,0,0
-49,-559,0,0,0,0,0,0,0,0,0,-1,1175,1583,0,0
-42,-559,0,0,0,0,0,0,0,0,0,-1,1182,1583,0,0
-35,-559,0,0,0,0,0,0,0,0,0,-1,1189,1583,0,0
-28,-559,0,0,0,0,0,0,0,0,0,-1,1196,1583,0,0
-21,-559,0,0,0,0,0,0,0,0,0,-1,1203,1583,0,0
-14,-559,0,0,0,0,0,0,0,0,0,-1,1210,1583,0,0
-7,-559,0,0,0,0,0,0,0,0,0,-1,1217,1583,0,0
0,-559,0,0,0,0,0,0,0,0,0,-1,1224,1583,0,0
7,-559,0,0,0,0,0,0,0,0,0,-1,1231,1583,0,0
14,-559,0,0,0,0,0,0,0,0,0,-1,1238,1583,0,0
21,-559,0,0,0,0,0,0,0,0,0,-1,1245,1583,0,0
28,-559,0,0,0,0,0,0,0,0,0,-1,1252,1583,0,0
35,-559,0,0,0,0,0,0,0,0,0,-1,1259,1583,0,0
42,-559,0,0,0,0,0,0,0,0,0,-1,1266,1583,0,0
49,-559,0,0,0,0,0,0,0,0,0,-1,1273,1583,0,0
56,-559,0,0,0,0,0,0,0,0,0,-1,1280,1583,0,0
63,-559,0,0,0,0,0,0,0,0,0,-1,1287,1583,0,0
70,-559,0,0,0,0,0,0,0,0,0,-1,1294,1583,0,0
77,-559,0,0,0,0,0,0,0,0,0,-1,1301,1583,0,0
84,-559,0,0,0,0,0,0,0,0,0,-1,1308,1583,0,0
91,-559,0,0,0,0,0,0,0,0,0,-1,1315,1583,0,0
98,-559,0,0,0,0,0,0,0,0,0,-1,1322,1583,0,0
105,-559,0,0,0,0,0,0,0,0,0,-1,1329,1583,0,0
112,-559,0,0,0,0,0,0,0,0,0,-1,1336,1583,0,0
119,-559,0,0,0,0,0,0,0,0,0,-1,1343,1583,0,0
126,-559,0,0,0,0,0,0,0,0,0,-1,1350,1583,0,0
133,-559,0,0,0,0,0,0,0,0,0,-1,1357,1583,0,0
140,-559,0,0,0,0,0,0,0,0,0,-1,1364,1583,0,0
147,-559,0,0,0,0,0,0,0,0,0,-1,1371,1583,0,0
154,-559,0,0,0,0,0,0,0,0,0,-1,1378,1583,0,0
161,-559,0,0,0,0,0,0,0,0,0,-1,1385,1583,0,0
168,-559,0,0,0,0,0,0,0,0,0,-1,1392,1583,0,0
175,-559,0,0,0,0,0,0,0,0,0,-1,1399,1583,0,0
182,-559,0,0,0,0,0,0,0,0,0,-1,1406,1583,0,0
189,-559,0,0,0,0,0,0,0,0,0,-1,1413,1583,0,0
196,-559,0,0,0,0,0,0,0,0,0,-1,1420,1583,0,0
203,-559,0,0,0,0,0,0,0,0,0,-1,1427,1583,0,0
210,-559,0,0,0,0,0,0,0,0,0,-1,1434,1583,0,0
217,-559,0,0,0,0,0,0,0,0,0,-1,1441,1583,0,0
224,-559,0,0,0,0,0,0,0,0,0,-1,1448,1583,0,0
231,-559,0,0,0,0,0,0,0,0,0,-1,1455,1583,0,0
238,-559,0,0,0,0,0,0,0,0,0,-1,1462,1583,0,0
245,-559,0,0,0,0,0,0,0,0,0,-1,1469,1583,0,0
252,-559,0,0,0,0,0,0,0,0,0,-1,1476,1583,0,0
259,-559,0,0,0,0,0,0,0,0,0,-1,1483,1583,0,0
266,-559,0,0,0,0,0,0,0,0,0,-1,1490,1583,0,0
273,-559,0,0,0,0,0,0,0,0,0,-1,1497,1583,0,0
280,-559,0,0,0,0,0,0,0,0,0,-1,1504,1583,0,0
287,-559,0,0,0,0,0,0,0,0,0,-1,1511,1583,0,0
294,-559,0,0,0,0,0,0,0,0,0,-1,1518,1583,0,0
301,-559,0,0,0,0,0,0,0,0,0,-1,1525,1583,0,0
308,-559,0,0,0,0,0,0,0,0,0,-1,1532,1583,0,0
315,-559,0,0,0,0,0,0,0,0,0,-1,1539,1583,0,0
322,-559,0,0,0,0,0,0,0,0,0,-1,1546,1583,0,0
329,-559,0,0,0,0,0,0,0,0,0,-1,1553,1583,0,0
336,-559,-1.26538,0.699951,0,0,0,0,0,0,0,-1,1560,1583,-1.26535,-0.699973
343,-559,-1.60437,0.299683,0,0,0,0,0,0,0,-1,1567,1583,-1.60437,-0.299653
350,-559,-2.03699,0.189331,0,0,0,0,0,0,0,-1,1574,1583,-2.03694,-0.189316
357,-559,-0.548584,0.0447998,0.0106728,-0.00511722,0.0106814,0.0160602,-0.0105046,0.467141,0.0154486,0.0445994,1581,1583,-0.548607,-0.0447796
364,-559,-0.409302,0.240112,0.00896459,-0.00438462,0.0104553,0.0146942,-0.0101142,0.501312,0.0144043,0.0430381,1588,1583,-0.409276,-0.240105
371,-559,-0.385498,0.469116,0,0,0,0,0,0,0,-1,1595,1583,-0.385473,-0.469175
378,-559,0.492554,-0.401978,0,0,0,0,0,0,0,-1,1602,1583,0.492503,0.402021
385,-559,0.547607,-0.197388,-0.00445926,-0.000190573,0.00996503,0.00786612,-0.012516,0.890896,0.0118692,0.0437873,1609,1583,0.547644,0.197396
392,-559,0.44812,-0.0699463,-0.00832714,0.00375479,0.0109675,0.010235,-0.0148073,1.03713,0.0145383,0.0417015,1616,1583,0.448178,0.0699231
399,-559,0.441162,0.199707,-0.0105774,0.00709737,0.0105957,0.0120574,-0.0155374,1.13298,0.015974,0.0436501,1623,1583,0.441113,-0.19969
406,-559,0.419067,0.5354,-0.0129852,0.00953004,0.0098948,0.0132604,-0.0167156,1.21027,0.017345,0.0476326,1630,1583,0.419087,-0.535397
413,-559,0.706665,-2.04639,0,0,0,0,0,0,0,-1,1637,1583,0.706608,2.04637
420,-559,0.599976,-1.49487,-0.0133623,0.0114436,0.00615822,0.0128882,-0.014807,1.34037,0.0160026,0.0478023,1644,1583,0.599953,1.49483
427,-559,0.453247,-0.9375,0,0,0,0,0,0,0,-1,1651,1583,0.453206,0.937547
434,-559,0.305542,-0.55835,-0.00984629,0.0109372,0.00245831,0.011224,-0.0101331,1.45465,0.0123359,0.0438997,1658,1583,0.305541,0.558323
441,-559,0.332886,-0.176514,-0.00854037,0.010573,0.000762143,0.0106033,-0.00857071,1.53101,0.0110908,0.0449762,1665,1583,0.33294,0.176521
448,-559,0.149658,0.0938721,-0.00632312,0.00967386,-0.000842376,0.0097181,-0.00636735,-1.51833,0.00935386,0.0430545,1672,1583,0.149709,-0.0938326
455,-559,0.120605,-0.0533447,-0.00427311,0.00831999,-0.00192435,0.00860749,-0.00456061,-1.42249,0.00772135,0.0337313,1679,1583,0.120597,0.0533611
462,-559,0.036377,-0.0767822,-0.00303597,0.00632412,-0.00201174,0.00673818,-0.00345004,-1.36781,0.00598341,0.0252345,1686,1583,0.0364302,0.0767826
469,-559,0.00231934,-0.0634766,-0.00173531,0.00521346,-0.0013364,0.00546162,-0.00198346,-1.3872,0.00445203,0.0135582,1693,1583,0.00235429,0.0634619
476,-559,-0.0272217,-0.0621338,-0.000663558,0.00422921,-0.000996977,0.00442456,-0.000858907,-1.37731,0.00327379,0.0088257,1700,1583,-0.0272373,0.0620865
483,-559,-0.0114746,-0.0637207,-0.000294647,0.00329659,-0.000377709,0.00333588,-0.000333943,-1.46713,0.00234318,0.0114362,1707,1583,-0.0114577,0.0636607
490,-559,-0.00427246,-0.0495605,-6.16001e-05,0.00226309,-1.67682e-05,0.00226321,-6.1721e-05,-1.56358,0.00152979,0.0137202,1714,1583,-0.00431074,0.0495079
497,-559,0.0153809,-0.048584,-1.25152e-05,0.00168962,6.75525e-05,0.0016923,-1.5192e-05,1.53119,0.0011333,0.015789,1721,1583,0.0153604,0.048559
504,-559,-0.0235596,-0.0474854,-0.000106684,0.00152496,0.000158335,0.00154018,-0.000121907,1.47495,0.00106974,0.0208451,1728,1583,-0.0235732,0.0474648
511,-559,-0.0428467,-0.0679932,6.40856e-05,0.00142503,0.00023927,0.00146587,2.32448e-05,1.40174,0.000969592,0.0191402,1735,1583,-0.0428781,0.0679763
518,-559,-0.0144043,-0.0823975,0.000217009,0.00149356,0.000293429,0.00155778,0.000152792,1.35534,0.000991521,0.0120414,1742,1583,-0.0144308,0.0824029
525,-559,-0.0285645,-0.0839844,0.000172887,0.00151069,0.000375982,0.00160912,7.44609e-05,1.31476,0.00104881,0.0104794,1749,1583,-0.028569,0.0840445
532,-559,-0.0283203,-0.0831299,-7.42592e-05,0.00152938,0.00033303,0.00159579,-0.00014067,1.37397,0.00111372,0.0112735,1756,1583,-0.0283698,0.0831902
539,-559,-0.0197754,-0.0762939,-0.000254616,0.00210859,0.000371789,0.0021657,-0.000311727,1.41838,0.00155814,0.0147376,1763,1583,-0.0197464,0.0762866
546,-559,-0.0274658,-0.0911865,0.000108406,0.00370001,0.00068053,0.00382463,-1.62153e-05,1.38968,0.00255518,0.0131362,1770,1583,-0.0274253,0.091159
553,-559,-0.0328369,-0.0651855,0.000517453,0.00566397,0.00117157,0.00591812,0.000263305,1.35718,0.00386064,0.0126725,1777,1583,-0.0328405,0.0651877
560,-559,-0.0509033,-0.0576172,0.000920515,0.00793522,0.00187726,0.00840601,0.000449722,1.32508,0.00546028,0.0218637,1784,1583,-0.0509045,0.0575667
567,-559,0.211792,0.454468,0,0,0,0,0,0,0,-1,1791,1583,0.211744,-0.454516
574,-559,-0.0463867,0.244141,0.00381272,0.0135253,0.00389941,0.0148971,0.00244094,1.23253,0.00922604,0.0413794,1798,1583,-0.0463374,-0.244186
581,-559,-0.48938,-0.203491,0.00692382,0.016941,0.00562032,0.0194607,0.0044042,1.14935,0.0117833,0.0435938,1805,1583,-0.489379,0.20345
588,-559,-0.828857,-0.893799,0.0106136,0.0211601,0.00758034,0.025121,0.00665278,1.0893,0.0150289,0.0422739,1812,1583,-0.828898,0.893755
595,-559,-0.623901,-1.07446,0.0155,0.0255395,0.00995125,0.0316654,0.00937411,1.01899,0.0187822,0.0403068,1819,1583,-0.623903,1.0744
602,-559,-0.411743,-0.70166,0.0218303,0.029872,0.0128058,0.0392734,0.0124289,0.937519,0.0231781,0.0396735,1826,1583,-0.411705,0.70165
609,-559,-0.392212,-0.446777,0.0300569,0.0332555,0.01613,0.0478652,0.0154471,0.834813,0.0282081,0.0431617,1833,1583,-0.392248,0.446769
616,-559,0,0,0,0,0,0,0,0,0,-1,1840,1583,0,0
623,-559,0,0,0,0,0,0,0,0,0,-1,1847,1583,0,0
630,-559,0,0,0,0,0,0,0,0,0,-1,1854,1583,0,0
637,-559,0,0,0,0,0,0,0,0,0,-1,1861,1583,0,0
644,-559,0,0,0,0,0,0,0,0,0,-1,1868,1583,0,0
651,-559,0,0,0,0,0,0,0,0,0,-1,1875,1583,0,0
658,-559,0,0,0,0,0,0,0,0,0,-1,1882,1583,0,0
665,-559,0,0,0,0,0,0,0,0,0,-1,1889,1583,0,0
672,-559,0,0,0,0,0,0,0,0,0,-1,1896,1583,0,0
679,-559,0,0,0,0,0,0,0,0,0,-1,1903,1583,0,0
686,-559,0,0,0,0,0,0,0,0,0,-1,1910,1583,0,0
693,-559,0,0,0,0,0,0,0,0,0,-1,1917,1583,0,0
700,-559,0,0,0,0,0,0,0,0,0,-1,1924,1583,0,0
707,-559,0,0,0,0,0,0,0,0,0,-1,1931,1583,0,0
714,-559,0,0,0,0,0,0,0,0,0,-1,1938,1583,0,0
721,-559,0,0,0,0,0,0,0,0,0,-1,1945,1583,0,0
728,-559,0,0,0,0,0,0,0,0,0,-1,1952,1583,0,0
735,-559,0,0,0,0,0,0,0,0,0,-1,1959,1583,0,0
742,-559,0,0,0,0,0,0,0,0,0,-1,1966,1583,0,0
749,-559,0,0,0,0,0,0,0,0,0,-1,1973,1583,0,0
756,-559,0,0,0,0,0,0,0,0,0,-1,1980,1583,0,0
763,-559,0,0,0,0,0,0,0,0,0,-1,1987,1583,0,0
770,-559,0,0,0,0,0,0,0,0,0,-1,1994,1583,0,0
777,-559,0,0,0,0,0,0,0,0,0,-1,2001,1583,0,0
784,-559,0,0,0,0,0,0,0,0,0,-1,2008,1583,0,0
791,-559,0,0,0,0,0,0,0,0,0,-1,2015,1583,0,0
798,-559,0,0,0,0,0,0,0,0,0,-1,2022,1583,0,0
805,-559,0,0,0,0,0,0,0,0,0,-1,2029,1583,0,0
812,-559,0,0,0,0,0,0,0,0,0,-1,2036,1583,0,0
-700,-566,0,0,0,0,0,0,0,0,0,-1,524,1590,0,0
-693,-566,0,0,0,0,0,0,0,0,0,-1,531,1590,0,0
-686,-566,0,0,0,0,0,0,0,0,0,-1,538,1590,0,0
-679,-566,0,0,0,0,0,0,0,0,0,-1,545,1590,0,0
-672,-566,0,0,0,0,0,0,0,0,0,-1,552,1590,0,0
-665,-566,0,0,0,0,0,0,0,0,0,-1,559,1590,0,0
-658,-566,0,0,0,0,0,0,0,0,0,-1,566,1590,0,0
-651,-566,0,0,0,0,0,0,0,0,0,-1,573,1590,0,0
-644,-566,0,0,0,0,0,0,0,0,0,-1,580,1590,0,0
-637,-566,0,0,0,0,0,0,0,0,0,-1,587,1590,0,0
-630,-566,0,0,0,0,0,0,0,0,0,-1,594,1590,0,0
-623,-566,0,0,0,0,0,0,0,0,0,-1,601,1590,0,0
-616,-566,0,0,0,0,0,0,0,0,0,-1,608,1590,0,0
-609,-566,0,0,0,0,0,0,0,0,0,-1,615,1590,0,0
-602,-566,0,0,0,0,0,0,0,0,0,-1,622,1590,0,0
-595,-566,0,0,0,0,0,0,0,0,0,-1,629,1590,0,0
-588,-566,0,0,0,0,0,0,0,0,0,-1,636,1590,0,0
-581,-566,0,0,0,0,0,0,0,0,0,-1,643,1590,0,0
-574,-566,0,0,0,0,0,0,0,0,0,-1,650,1590,0,0
-567,-566,0,0,0,0,0,0,0,0,0,-1,657,1590,0,0
-560,-566,0,0,0,0,0,0,0,0,0,-1,664,1590,0,0
-553,-566,0,0,0,0,0,0,0,0,0,-1,671,1590,0,0
-546,-566,0,0,0,0,0,0,0,0,0,-1,678,1590,0,0
-539,-566,0,0,0,0,0,0,0,0,0,-1,685,1590,0,0
-532,-566,0,0,0,0,0,0,0,0,0,-1,692,1590,0,0
-525,-566,0,0,0,0,0,0,0,0,0,-1,699,1590,0,0
-518,-566,0,0,0,0,0,0,0,0,0,-1,706,1590,0,0
-511,-566,0,0,0,0,0,0,0,0,0,-1,713,1590,0,0
-504,-566,0,0,0,0,0,0,0,0,0,-1,720,1590,0,0
-497,-566,0,0,0,0,0,0,0,0,0,-1,727,1590,0,0
-490,-566,0,0,0,0,0,0,0,0,0,-1,734,1590,0,0
-483,-566,3.26129,-1.54578,-0.0516271,0.110086,0.0142432,0.111331,-0.052872,1.48361,0.0967847,0.0412225,741,1590,3.26132,1.54578
-476,-566,3.047,-0.846436,-0.0460025,0.0879986,0.0106418,0.0888385,-0.0468423,1.49204,0.0795763,0.0430494,748,1590,3.04697,0.846471
-469,-566,2.57965,-0.203857,-0.0402098,0.0703778,0.0080395,0.0709592,-0.0407912,1.4986,0.0652981,0.0448574,755,1590,2.57963,0.203799
-462,-566,1.62402,0.137329,0,0,0,0,0,0,0,-1,762,1590,1.62401,-0.137333
-455,-566,-0.375122,-0.250732,0,0,0,0,0,0,0,-1,769,1590,-0.375128,0.250737
-448,-566,0.95813,-0.588257,0,0,0,0,0,0,0,-1,776,1590,0.958106,0.588208
-441,-566,0.704224,-0.213257,-0.0175201,0.0255055,-0.000802442,0.0255204,-0.0175351,-1.55215,0.0250002,0.0441333,783,1590,0.704224,0.213218
-434,-566,0.593811,-0.392578,-0.0133683,0.020267,-0.00195451,0.0203802,-0.0134815,-1.51295,0.0196848,0.045031,790,1590,0.593817,0.392532
-427,-566,0.286804,-0.274536,-0.00993772,0.0152198,-0.00312043,0.0156011,-0.010319,-1.44921,0.0150682,0.0373038,797,1590,0.286809,0.274566
-420,-566,0.00976563,-0.119263,-0.00644251,0.0120135,-0.00310498,0.0125219,-0.00695088,-1.40851,0.0113949,0.0234038,804,1590,0.00975118,0.119287
-413,-566,-0.0231323,-0.0828857,-0.00389458,0.00939209,-0.00347989,0.0102483,-0.00475081,-1.32954,0.00885153,0.0102645,811,1590,-0.0231055,0.0828921
-406,-566,-0.0220337,-0.0727539,-0.00266361,0.00779344,-0.00350006,0.00885681,-0.00372698,-1.27584,0.00746377,0.00781552,818,1590,-0.02206,0.0727886
-399,-566,-0.0129395,-0.0843506,-0.00178355,0.0060463,-0.00321051,0.00719438,-0.00293163,-1.22737,0.00601645,0.00910357,825,1590,-0.0129345,0.084303
-392,-566,-0.0423584,-0.101074,-0.00108815,0.00549822,-0.00313019,0.00674851,-0.00233844,-1.19078,0.00544841,0.0107844,832,1590,-0.0423443,0.101103
-385,-566,-0.0325317,-0.0880127,-0.000885332,0.00475485,-0.00226141,0.00554957,-0.00168006,-1.23285,0.00436877,0.013147,839,1590,-0.0325464,0.0880146
-378,-566,-0.019043,-0.0568848,-0.000748355,0.00361696,-0.00176766,0.00424297,-0.00137436,-1.23043,0.00338119,0.015134,846,1590,-0.0190567,0.0568478
-371,-566,-0.00128174,-0.0427246,-0.000639113,0.00283721,-0.000932688,0.00307164,-0.000873541,-1.32455,0.0023927,0.0202609,853,1590,-0.00128404,0.0427388
-364,-566,0.00561523,-0.0598145,-0.000374567,0.00191258,-0.000622043,0.00207081,-0.000532799,-1.3217,0.00158822,0.0193658,860,1590,0.0055852,0.0597549
-357,-566,-0.0165405,-0.060791,0.000253041,0.000944816,-0.000196832,0.0009969,0.000200957,-1.31212,0.000608773,0.0154232,867,1590,-0.0165202,0.0607483
-350,-566,-0.0407104,-0.100342,0.00109698,0.000392484,0.000595604,0.0014367,5.27605e-05,0.518359,0.000940706,0.0175102,874,1590,-0.0407056,0.100328
-343,-566,-0.0216064,-0.140137,0.00206619,-0.000485197,0.0014229,0.00270153,-0.00112054,0.419947,0.00226873,0.0232338,881,1590,-0.0215898,0.140124
-336,-566,-0.0198364,-0.126343,0.00300212,-0.00165698,0.00177623,0.00360204,-0.0022569,0.32572,0.00341225,0.0208479,888,1590,-0.0198331,0.126288
-329,-566,-0.013855,-0.0845947,0.00423193,-0.00270633,0.00244526,0.00500711,-0.00348151,0.306991,0.00492722,0.0112507,895,1590,-0.0138358,0.084536
-322,-566,-0.0220337,-0.0700684,0.00559826,-0.00347893,0.00313731,0.00657705,-0.00445772,0.302415,0.00640998,0.0109311,902,1590,-0.0220466,0.0700593
-315,-566,-0.0441895,-0.0980225,0.00706459,-0.00442507,0.00417924,0.00842393,-0.00578441,0.314465,0.00825023,0.0222378,909,1590,-0.0441755,0.0979878
-308,-566,-0.062561,-0.0957031,0.00849453,-0.00501755,0.00553016,0.0104693,-0.0069923,0.342975,0.0101479,0.032517,916,1590,-0.0625386,0.095652
-301,-566,-0.102173,-0.0776367,0.00941063,-0.00351605,0.00673079,0.0122789,-0.00638429,0.402833,0.0109529,0.0421142,923,1590,-0.102163,0.0776886
-294,-566,-0.154846,-0.0598145,0.00994742,-0.00225913,0.00816425,0.0140375,-0.00634923,0.464429,0.0120461,0.0455707,930,1590,-0.154854,0.0598583
-287,-566,-0.177063,-0.0437012,0.00855904,0.000986615,0.00920537,0.0147264,-0.00518078,0.590291,0.0119257,0.0465511,937,1590,-0.177055,0.0437378
-280,-566,-0.137207,-0.0109863,0.00620901,0.00638924,0.0101438,0.0164433,-0.00384509,0.78984,0.0124436,0.0488365,944,1590,-0.137223,0.0109897
-273,-566,-0.127991,0.0307617,0,0,0,0,0,0,0,-1,951,1590,-0.12797,-0.0307897
-266,-566,-0.961243,-0.180664,0,0,0,0,0,0,0,-1,958,1590,-0.961245,0.180676
-259,-566,4.27716,-2.03589,0,0,0,0,0,0,0,-1,965,1590,4.27714,2.03584
-252,-566,3.18616,-1.32312,0,0,0,0,0,0,0,-1,972,1590,3.18619,1.32307
-245,-566,2.45038,-0.807617,0,0,0,0,0,0,0,-1,979,1590,2.4504,0.807645
-238,-566,-0.174866,0.455688,0,0,0,0,0,0,0,-1,986,1590,-0.174868,-0.455704
-231,-566,-0.267761,0.441284,0,0,0,0,0,0,0,-1,993,1590,-0.26775,-0.441271
-224,-566,0.619629,0.175781,0,0,0,0,0,0,0,-1,1000,1590,0.619656,-0.175807
-217,-566,0.593445,-0.144531,-0.0620644,0.0342866,0.00732429,0.0348402,-0.062618,1.49536,0.0570243,0.0481014,1007,1590,0.593432,0.144546
-210,-566,-0.0354614,-0.25293,-0.0636132,0.0253887,0.010368,0.0265806,-0.0648051,1.45635,0.0542782,0.0460974,1014,1590,-0.0354409,0.252875
-203,-566,0,0,0,0,0,0,0,0,0,-1,1021,1590,0,0
-196,-566,0,0,0,0,0,0,0,0,0,-1,1028,1590,0,0
-189,-566,0,0,0,0,0,0,0,0,0,-1,1035,1590,0,0
-182,-566,0,0,0,0,0,0,0,0,0,-1,1042,1590,0,0
-175,-566,0,0,0,0,0,0,0,0,0,-1,1049,1590,0,0
-168,-566,0,0,0,0,0,0,0,0,0,-1,1056,1590,0,0
-161,-566,0,0,0,0,0,0,0,0,0,-1,1063,1590,0,0
-154,-566,0,0,0,0,0,0,0,0,0,-1,1070,1590,0,0
-147,-566,0,0,0,0,0,0,0,0,0,-1,1077,1590,0,0
-140,-566,0,0,0,0,0,0,0,0,0,-1,1084,1590,0,0
-133,-566,0,0,0,0,0,0,0,0,0,-1,1091,1590,0,0
-126,-566,0,0,0,0,0,0,0,0,0,-1,1098,1590,0,0
-119,-566,0,0,0,0,0,0,0,0,0,-1,1105,1590,0,0
-112,-566,0,0,0,0,0,0,0,0,0,-1,1112,1590,0,0
-105,-566,0,0,0,0,0,0,0,0,0,-1,1119,1590,0,0
-98,-566,0,0,0,0,0,0,0,0,0,-1,1126,1590,0,0
-91,-566,0,0,0,0,0,0,0,0,0,-1,1133,1590,0,0
-84,-566,0,0,0,0,0,0,0,0,0,-1,1140,1590,0,0
-77,-566,0,0,0,0,0,0,0,0,0,-1,1147,1590,0,0
-70,-566,0,0,0,0,0,0,0,0,0,-1,1154,1590,0,0
-63,-566,0,0,0,0,0,0,0,0,0,-1,1161,1590,0,0
-56,-566,0,0,0,0,0,0,0,0,0,-1,1168,1590,0,0
-49,-566,0,0,0,0,0,0,0,0,0,-1,1175,1590,0,0
-42,-566,0,0,0,0,0,0,0,0,0,-1,1182,1590,0,0
-35,-566,0,0,0,0,0,0,0,0,0,-1,1189,1590,0,0
-28,-566,0,0,0,0,0,0,0,0,0,-1,1196,1590,0,0
-21,-566,0,0,0,0,0,0,0,0,0,-1,1203,1590,0,0
-14,-566,0,0,0,0,0,0,0,0,0,-1,1210,1590,0,0
-7,-566,0,0,0,0,0,0,0,0,0,-1,1217,1590,0,0
0,-566,0,0,0,0,0,0,0,0,0,-1,1224,1590,0,0
7,-566,0,0,0,0,0,0,0,0,0,-1,1231,1590,0,0
14,-566,0,0,0,0,0,0,0,0,0,-1,1238,1590,0,0
21,-566,0,0,0,0,0,0,0,0,0,-1,1245,1590,0,0
28,-566,0,0,0,0,0,0,0,0,0,-1,1252,1590,0,0
35,-566,0,0,0,0,0,0,0,0,0,-1,1259,1590,0,0
42,-566,0,0,0,0,0,0,0,0,0,-1,1266,1590,0,0
49,-566,0,0,0,0,0,0,0,0,0,-1,1273,1590,0,0
56,-566,0,0,0,0,0,0,0,0,0,-1,1280,1590,0,0
63,-566,0,0,0,0,0,0,0,0,0,-1,1287,1590,0,0
70,-566,0,0,0,0,0,0,0,0,0,-1,1294,1590,0,0
77,-566,0,0,0,0,0,0,0,0,0,-1,1301,1590,0,0
84,-566,0,0,0,0,0,0,0,0,0,-1,1308,1590,0,0
91,-566,0,0,0,0,0,0,0,0,0,-1,1315,1590,0,0
98,-566,0,0,0,0,0,0,0,0,0,-1,1322,1590,0,0
105,-566,0,0,0,0,0,0,0,0,0,-1,1329,1590,0,0
112,-566,0,0,0,0,0,0,0,0,0,-1,1336,1590,0,0
119,-566,0,0,0,0,0,0,0,0,0,-1,1343,1590,0,0
126,-566,0,0,0,0,0,0,0,0,0,-1,1350,1590,0,0
133,-566,0,0,0,0,0,0,0,0,0,-1,1357,1590,0,0
140,-566,0,0,0,0,0,0,0,0,0,-1,1364,1590,0,0
147,-566,0,0,0,0,0,0,0,0,0,-1,1371,1590,0,0
154,-566,0,0,0,0,0,0,0,0,0,-1,1378,1590,0,0
161,-566,0,0,0,0,0,0,0,0,0,-1,1385,1590,0,0
168,-566,0,0,0,0,0,0,0,0,0,-1,1392,1590,0,0
175,-566,0,0,0,0,0,0,0,0,0,-1,1399,1590,0,0
182,-566,0,0,0,0,0,0,0,0,0,-1,1406,1590,0,0
189,-566,0,0,0,0,0,0,0,0,0,-1,1413,1590,0,0
196,-566,0,0,0,0,0,0,0,0,0,-1,1420,1590,0,0
203,-566,0,0,0,0,0,0,0,0,0,-1,1427,1590,0,0
210,-566,0,0,0,0,0,0,0,0,0,-1,1434,1590,0,0
217,-566,0,0,0,0,0,0,0,0,0,-1,1441,1590,0,0
224,-566,0,0,0,0,0,0,0,0,0,-1,1448,1590,0,0
231,-566,0,0,0,0,0,0,0,0,0,-1,1455,1590,0,0
238,-566,0,0,0,0,0,0,0,0,0,-1,1462,1590,0,0
245,-566,0,0,0,0,0,0,0,0,0,-1,1469,1590,0,0
252,-566,0,0,0,0,0,0,0,0,0,-1,1476,1590,0,0
259,-566,0,0,0,0,0,0,0,0,0,-1,1483,1590,0,0
266,-566,0,0,0,0,0,0,0,0,0,-1,1490,1590,0,0
273,-566,0,0,0,0,0,0,0,0,0,-1,1497,1590,0,0
280,-566,0,0,0,0,0,0,0,0,0,-1,1504,1590,0,0
287,-566,0,0,0,0,0,0,0,0,0,-1,1511,1590,0,0
294,-566,0,0,0,0,0,0,0,0,0,-1,1518,1590,0,0
301,-566,0,0,0,0,0,0,0,0,0,-1,1525,1590,0,0
308,-566,0,0,0,0,0,0,0,0,0,-1,1532,1590,0,0
315,-566,0,0,0,0,0,0,0,0,0,-1,1539,1590,0,0
322,-566,-1.9679,1.88525,0.00124414,-0.00235066,-0.00175057,0.00195575,-0.00306227,-0.3861,0.00292054,0.0441358,1546,1590,-1.9679,-1.8852
329,-566,-1.49329,1.6698,0.00479335,-0.00493809,-0.00383281,0.00612163,-0.00626637,-0.333603,0.00715238,0.0423091,1553,1590,-1.49329,-1.66976
336,-566,-1.29285,1.16858,0.008214,-0.00660996,-0.00350632,0.00900152,-0.00739747,-0.220933,0.00948305,0.0432991,1560,1590,-1.2929,-1.16858
343,-566,-1.42029,0.843384,0.00914338,-0.00738101,-0.00161027,0.00929883,-0.00753646,-0.0962415,0.0097376,0.0429547,1567,1590,-1.42033,-0.843443
350,-566,-1.85449,0.832764,0,0,0,0,0,0,0,-1,1574,1590,-1.85455,-0.832812
357,-566,-1.93506,0.778809,0,0,0,0,0,0,0,-1,1581,1590,-1.93502,-0.778826
364,-566,-0.377808,0.404297,0,0,0,0,0,0,0,-1,1588,1590,-0.377757,-0.404299
371,-566,-0.526733,0.359009,0,0,0,0,0,0,0,-1,1595,1590,-0.526783,-0.359037
378,-566,0.0133057,-0.610107,0,0,0,0,0,0,0,-1,1602,1590,0.01333,0.610102
385,-566,0.104248,-0.387207,-0.00465687,-0.000216418,0.00753092,0.00541474,-0.010288,0.928745,0.00921038,0.0477877,1609,1590,0.1043,0.38719
392,-566,0.148438,-0.245239,-0.00785104,0.00335323,0.00912032,0.00845456,-0.0129524,1.06081,0.0124499,0.0434248,1616,1590,0.14841,0.245186
399,-566,-0.0255127,0.276733,-0.00969745,0.00652792,0.00933612,0.0107837,-0.0139532,1.1431,0.0143209,0.0426637,1623,1590,-0.0255388,-0.276749
406,-566,-0.0930176,0.643799,-0.0117468,0.00894423,0.00932852,0.0125289,-0.0153315,1.20392,0.0161123,0.0487968,1630,1590,-0.0930523,-0.643759
413,-566,0.791016,-1.89404,0,0,0,0,0,0,0,-1,1637,1590,0.791027,1.89401
420,-566,0.724121,-1.33264,0,0,0,0,0,0,0,-1,1644,1590,0.724066,1.3327
427,-566,0.474976,-0.784546,0,0,0,0,0,0,0,-1,1651,1590,0.475012,0.784504
434,-566,0.272583,-0.490601,0,0,0,0,0,0,0,-1,1658,1590,0.272525,0.490615
441,-566,0.29248,-0.136719,0,0,0,0,0,0,0,-1,1665,1590,0.292472,0.136686
448,-566,-0.0270996,-0.0583496,-0.00537653,0.00941909,-7.95599e-05,0.00941952,-0.00537695,-1.56542,0.00864838,0.0309668,1672,1590,-0.0271117,0.0583632
455,-566,-0.0289307,-0.0876465,-0.00369481,0.00809159,-0.00124998,0.00822269,-0.00382592,-1.46629,0.00710898,0.0183597,1679,1590,-0.028961,0.0876383
462,-566,-0.019043,-0.0856934,-0.00271226,0.0063966,-0.00147432,0.00662928,-0.00294495,-1.41426,0.00566247,0.0123886,1686,1590,-0.0190274,0.0856613
469,-566,-0.0371094,-0.0848389,-0.00166147,0.00529787,-0.00102837,0.00544665,-0.00181025,-1.42712,0.00436159,0.0107605,1693,1590,-0.037146,0.0848534
476,-566,-0.0292969,-0.0733643,-0.000798197,0.00431284,-0.000864395,0.00445507,-0.000940429,-1.40771,0.00332811,0.00872517,1700,1590,-0.0293505,0.073404
483,-566,-0.0236816,-0.0631104,-0.000465636,0.00341815,-0.00045191,0.00347004,-0.000517527,-1.45647,0.00250376,0.00976293,1707,1590,-0.0236304,0.0630734
490,-566,-0.0239258,-0.0726318,-0.000173458,0.00259606,-0.000219606,0.00261337,-0.000190764,-1.49216,0.00180919,0.00981066,1714,1590,-0.0239281,0.0725912
497,-566,-0.00439453,-0.064209,-1.5548e-06,0.00214109,-0.000154134,0.00215212,-1.25859e-05,-1.49935,0.00143896,0.0121669,1721,1590,-0.00433909,0.0641973
504,-566,-0.00598145,-0.0584717,2.51403e-05,0.00208837,-5.19004e-05,0.00208967,2.38356e-05,-1.54566,0.00138524,0.0166124,1728,1590,-0.00601241,0.0584683
511,-566,-0.0228271,-0.0657959,0.000275112,0.00203379,5.42992e-05,0.00203547,0.000273437,1.53996,0.00127564,0.01688,1735,1590,-0.0228674,0.0658508
518,-566,-0.0250244,-0.0686035,0.00047469,0.00219532,0.000163993,0.00221081,0.000459199,1.47662,0.00134715,0.0107889,1742,1590,-0.0250559,0.0686215
525,-566,-0.0313721,-0.0952148,0.000443849,0.00234763,0.000352825,0.00241091,0.000380564,1.39332,0.00149664,0.0104053,1749,1590,-0.0313568,0.0951549
532,-566,-0.0250244,-0.0944824,0.000203594,0.00247463,0.000412574,0.00254726,0.000130966,1.39654,0.00165624,0.0118307,1756,1590,-0.025005,0.0944399
539,-566,-0.0289307,-0.0709229,3.57705e-06,0.00314046,0.000578985,0.00324391,-9.98765e-05,1.39398,0.00219666,0.014109,1763,1590,-0.0289141,0.070958
546,-566,-0.0367432,-0.0880127,0.00035102,0.00489373,0.00105015,0.00512475,0.000120001,1.35426,0.00337721,0.0124004,1770,1590,-0.0367414,0.0879873
553,-566,-0.0524902,-0.083252,0.000801874,0.00714851,0.00175071,0.0075994,0.000350978,1.31872,0.00495342,0.0188947,1777,1590,-0.0525356,0.0832093
560,-566,-0.0805664,-0.0761719,0.00126517,0.00978613,0.00268616,0.0105622,0.000489072,1.28953,0.00688425,0.0321286,1784,1590,-0.0805481,0.0761371
567,-566,-0.0740967,0.0302734,0.00248052,0.0123637,0.00404674,0.0138092,0.00103498,1.22771,0.00888128,0.0438517,1791,1590,-0.0740485,-0.0303037
574,-566,0.103027,0.741699,0,0,0,0,0,0,0,-1,1798,1590,0.103069,-0.741664
581,-566,-0.179321,0.337646,0,0,0,0,0,0,0,-1,1805,1590,-0.179281,-0.337673
588,-566,-1.2041,-1.0675,0,0,0,0,0,0,0,-1,1812,1590,-1.20411,1.06751
595,-566,-0.401978,-1.97632,0.0178423,0.0313697,0.0128693,0.0391445,0.0100676,1.02734,0.0234716,0.0457564,1819,1590,-0.401997,1.9763
602,-566,0.0537109,-1.35913,0.0250074,0.0371982,0.0163428,0.0485453,0.0136602,0.963892,0.0289068,0.0453084,1826,1590,0.0537612,1.35913
609,-566,0,0,0,0,0,0,0,0,0,-1,1833,1590,0,0
616,-566,0,0,0,0,0,0,0,0,0,-1,1840,1590,0,0
623,-566,0,0,0,0,0,0,0,0,0,-1,1847,1590,0,0
630,-566,0,0,0,0,0,0,0,0,0,-1,1854,1590,0,0
637,-566,0,0,0,0,0,0,0,0,0,-1,1861,1590,0,0
644,-566,0,0,0,0,0,0,0,0,0,-1,1868,1590,0,0
651,-566,0,0,0,0,0,0,0,0,0,-1,1875,1590,0,0
658,-566,0,0,0,0,0,0,0,0,0,-1,1882,1590,0,0
665,-566,0,0,0,0,0,0,0,0,0,-1,1889,1590,0,0
672,-566,0,0,0,0,0,0,0,0,0,-1,1896,1590,0,0
679,-566,0,0,0,0,0,0,0,0,0,-1,1903,1590,0,0
686,-566,0,0,0,0,0,0,0,0,0,-1,1910,1590,0,0
693,-566,0,0,0,0,0,0,0,0,0,-1,1917,1590,0,0
700,-566,0,0,0,0,0,0,0,0,0,-1,1924,1590,0,0
707,-566,0,0,0,0,0,0,0,0,0,-1,1931,1590,0,0
714,-566,0,0,0,0,0,0,0,0,0,-1,1938,1590,0,0
721,-566,0,0,0,0,0,0,0,0,0,-1,1945,1590,0,0
728,-566,0,0,0,0,0,0,0,0,0,-1,1952,1590,0,0
735,-566,0,0,0,0,0,0,0,0,0,-1,1959,1590,0,0
742,-566,0,0,0,0,0,0,0,0,0,-1,1966,1590,0,0
749,-566,0,0,0,0,0,0,0,0,0,-1,1973,1590,0,0
756,-566,0,0,0,0,0,0,0,0,0,-1,1980,1590,0,0
763,-566,0,0,0,0,0,0,0,0,0,-1,1987,1590,0,0
770,-566,0,0,0,0,0,0,0,0,0,-1,1994,1590,0,0
777,-566,0,0,0,0,0,0,0,0,0,-1,2001,1590,0,0
784,-566,0,0,0,0,0,0,0,0,0,-1,2008,1590,0,0
791,-566,0,0,0,0,0,0,0,0,0,-1,2015,1590,0,0
798,-566,0,0,0,0,0,0,0,0,0,-1,2022,1590,0,0
805,-566,0,0,0,0,0,0,0,0,0,-1,2029,1590,0,0
812,-566,0,0,0,0,0,0,0,0,0,-1,2036,1590,0,0
-700,-573,0,0,0,0,0,0,0,0,0,-1,524,1597,0,0
-693,-573,0,0,0,0,0,0,0,0,0,-1,531,1597,0,0
-686,-573,0,0,0,0,0,0,0,0,0,-1,538,1597,0,0
-679,-573,0,0,0,0,0,0,0,0,0,-1,545,1597,0,0
-672,-573,0,0,0,0,0,0,0,0,0,-1,552,1597,0,0
-665,-573,0,0,0,0,0,0,0,0,0,-1,559,1597,0,0
-658,-573,0,0,0,0,0,0,0,0,0,-1,566,1597,0,0
-651,-573,0,0,0,0,0,0,0,0,0,-1,573,1597,0,0
-644,-573,0,0,0,0,0,0,0,0,0,-1,580,1597,0,0
-637,-573,0,0,0,0,0,0,0,0,0,-1,587,1597,0,0
-630,-573,0,0,0,0,0,0,0,0,0,-1,594,1597,0,0
-623,-573,0,0,0,0,0,0,0,0,0,-1,601,1597,0,0
-616,-573,0,0,0,0,0,0,0,0,0,-1,608,1597,0,0
-609,-573,0,0,0,0,0,0,0,0,0,-1,615,1597,0,0
-602,-573,0,0,0,0,0,0,0,0,0,-1,622,1597,0,0
-595,-573,0,0,0,0,0,0,0,0,0,-1,629,1597,0,0
-588,-573,0,0,0,0,0,0,0,0,0,-1,636,1597,0,0
-581,-573,0,0,0,0,0,0,0,0,0,-1,643,1597,0,0
-574,-573,0,0,0,0,0,0,0,0,0,-1,650,1597,0,0
-567,-573,0,0,0,0,0,0,0,0,0,-1,657,1597,0,0
-560,-573,0,0,0,0,0,0,0,0,0,-1,664,1597,0,0
-553,-573,0,0,0,0,0,0,0,0,0,-1,671,1597,0,0
-546,-573,0,0,0,0,0,0,0,0,0,-1,678,1597,0,0
-539,-573,0,0,0,0,0,0,0,0,0,-1,685,1597,0,0
-532,-573,0,0,0,0,0,0,0,0,0,-1,692,1597,0,0
-525,-573,0,0,0,0,0,0,0,0,0,-1,699,1597,0,0
-518,-573,0,0,0,0,0,0,0,0,0,-1,706,1597,0,0
-511,-573,0,0,0,0,0,0,0,0,0,-1,713,1597,0,0
-504,-573,0,0,0,0,0,0,0,0,0,-1,720,1597,0,0
-497,-573,0,0,0,0,0,0,0,0,0,-1,727,1597,0,0
-490,-573,0,0,0,0,0,0,0,0,0,-1,734,1597,0,0
-483,-573,0,0,0,0,0,0,0,0,0,-1,741,1597,0,0
-476,-573,3.66052,-1.7959,0,0,0,0,0,0,0,-1,748,1597,3.66054,1.79589
-469,-573,2.83453,-1.14795,-0.0439767,0.0784498,0.00978284,0.0792266,-0.0447535,1.49156,0.0724964,0.0432689,755,1597,2.83453,1.1479
-462,-573,1.96423,-0.550049,-0.0372019,0.0617794,0.00614683,0.0621596,-0.0375821,1.50901,0.0581658,0.0466556,762,1597,1.96425,0.550005
-455,-573,1.41949,-1.26953,0,0,0,0,0,0,0,-1,769,1597,1.41949,1.26958
-448,-573,1.13098,-0.618774,-0.023369,0.0359528,0.000452989,0.0359563,-0.0233725,1.56316,0.0345094,0.0442379,776,1597,1.13101,0.618815
-441,-573,0.951477,-0.189575,-0.0170179,0.0286022,-0.00189478,0.0286808,-0.0170965,-1.52936,0.0267101,0.0462662,783,1597,0.951448,0.18963
-434,-573,0.658875,0.0332031,0,0,0,0,0,0,0,-1,790,1597,0.658903,-0.0332144
-427,-573,0.630127,-0.460938,0,0,0,0,0,0,0,-1,797,1597,0.630146,0.460928
-420,-573,-0.398132,0.195068,0,0,0,0,0,0,0,-1,804,1597,-0.398162,-0.195027
-413,-573,-0.050293,-0.0605469,-0.0030804,0.0121443,-0.00574922,0.0140714,-0.00500752,-1.24737,0.0114221,0.0267101,811,1597,-0.0502995,0.0605174
-406,-573,-0.027832,-0.0749512,-0.00222014,0.0106224,-0.00569758,0.0127858,-0.00438345,-1.20792,0.0103007,0.0135967,818,1597,-0.0278362,0.0749396
-399,-573,-0.0234985,-0.0776367,-0.00168209,0.00875654,-0.00525131,0.0109411,-0.00386666,-1.17657,0.00886854,0.010184,825,1597,-0.0234959,0.0776498
-392,-573,-0.02771,-0.0898438,-0.00132679,0.00823584,-0.00507145,0.0104245,-0.00351546,-1.16338,0.00837127,0.010288,832,1597,-0.0277392,0.0898515
-385,-573,-0.0280762,-0.0936279,-0.00151835,0.00727021,-0.00381637,0.0086961,-0.00294424,-1.21323,0.00698869,0.0115076,839,1597,-0.0280508,0.0936555
-378,-573,-0.0150146,-0.0944824,-0.00166056,0.00587192,-0.00300196,0.00692194,-0.00271058,-1.23432,0.00573577,0.0137273,846,1597,-0.0150332,0.094501
-371,-573,0.00756836,-0.0756836,-0.00177019,0.00472816,-0.00176545,0.00517682,-0.00221884,-1.32193,0.00438225,0.0142535,853,1597,0.00758601,0.0756792
-364,-573,0.00402832,-0.057251,-0.00159253,0.00347119,-0.00115215,0.00372101,-0.00184235,-1.35727,0.00327248,0.0159359,860,1597,0.00400011,0.0573109
-357,-573,-0.00634766,-0.0661621,-0.00092942,0.0022299,-0.000491408,0.00230457,-0.00100409,-1.42,0.00195882,0.0184511,867,1597,-0.00633694,0.0662004
-350,-573,-0.0149536,-0.0936279,-2.38298e-05,0.00152004,0.000293169,0.00157384,-7.76259e-05,1.38932,0.00107603,0.0151086,874,1597,-0.0149628,0.0936084
-343,-573,-0.0241089,-0.118164,0.000986334,0.000564747,0.00113121,0.00192622,-0.00037514,0.693283,0.00142574,0.0209381,881,1597,-0.0241222,0.118172
-336,-573,-0.00891113,-0.106201,0.00200092,-0.000531879,0.00154437,0.00273173,-0.00126269,0.441987,0.00235759,0.0171278,888,1597,-0.00893766,0.106242
-329,-573,-0.0198364,-0.0843506,0.00314929,-0.00129365,0.00203843,0.00394281,-0.00208716,0.371228,0.00353593,0.0158209,895,1597,-0.0198552,0.084311
-322,-573,-0.0275879,-0.0799561,0.00437389,-0.00179156,0.00252487,0.00527591,-0.00269358,0.343122,0.00468101,0.0105122,902,1597,-0.0275575,0.0799792
-315,-573,-0.020874,-0.0909424,0.00569417,-0.00232402,0.00337561,0.00692602,-0.00355588,0.349912,0.00615511,0.0135561,909,1597,-0.0208992,0.0909336
-308,-573,-0.0281372,-0.109863,0.00705489,-0.00244122,0.00460381,0.00892039,-0.00430672,0.384988,0.00778999,0.0212031,916,1597,-0.0281149,0.109892
-301,-573,-0.0819092,-0.112427,0.00794237,-0.000654564,0.00580181,0.0108646,-0.00357675,0.466578,0.00868438,0.0274708,923,1597,-0.0819008,0.112386
-294,-573,-0.0477295,-0.123657,0.00847257,0.000886197,0.00723873,0.0128517,-0.00349298,0.544062,0.0099389,0.0327469,930,1597,-0.0477433,0.123717
-287,-573,-0.0360107,-0.00524902,0.00747378,0.00402066,0.00845837,0.01438,-0.00288557,0.684719,0.0106793,0.0418835,937,1597,-0.0360187,0.00528052
-280,-573,0.0344849,0.113037,0.00586569,0.00876668,0.00957006,0.0169955,-0.00236317,0.860609,0.0121946,0.045275,944,1597,0.034488,-0.113042
-273,-573,-0.16571,0.0716553,0.00405022,0.0135621,0.00978469,0.0196854,-0.00207314,1.01161,0.0138664,0.0431281,951,1597,-0.165734,-0.0716308
-266,-573,-0.630493,-0.119263,0,0,0,0,0,0,0,-1,958,1597,-0.63052,0.119311
-259,-573,-0.984924,-0.309814,0,0,0,0,0,0,0,-1,965,1597,-0.984936,0.309807
-252,-573,4.61981,-2.50122,0,0,0,0,0,0,0,-1,972,1597,4.61979,2.50117
-245,-573,0.724792,-0.0172119,0,0,0,0,0,0,0,-1,979,1597,0.7248,0.0172439
-238,-573,0.833252,0.192871,0,0,0,0,0,0,0,-1,986,1597,0.833239,-0.192919
-231,-573,0.699036,0.278198,0,0,0,0,0,0,0,-1,993,1597,0.699024,-0.27815
-224,-573,0.554016,0.106323,-0.041846,0.02943,0.00758167,0.0302276,-0.0426435,1.46599,0.0422752,0.049564,1000,1597,0.553988,-0.10633
-217,-573,0.255615,0.212891,-0.04761,0.0238539,0.00841524,0.0248315,-0.0485876,1.45515,0.0431218,0.0456218,1007,1597,0.255607,-0.21283
-210,-573,-0.351685,0.148315,-0.0482439,0.0151454,0.0112796,0.0170927,-0.0501912,1.39984,0.0403827,0.0438564,1014,1597,-0.351676,-0.148262
-203,-573,-0.922302,0.0532227,0,0,0,0,0,0,0,-1,1021,1597,-0.922306,-0.0532543
-196,-573,-1.5116,0.212646,-0.0426909,-0.00146743,0.0208103,0.00721093,-0.0513693,1.1757,0.0368855,0.0454523,1028,1597,-1.51156,-0.212599
-189,-573,-2.25818,0.439575,-0.0351149,-0.00580776,0.026357,0.00969522,-0.0506179,1.0391,0.0373983,0.0428848,1035,1597,-2.25821,-0.439604
-182,-573,0,0,0,0,0,0,0,0,0,-1,1042,1597,0,0
-175,-573,0,0,0,0,0,0,0,0,0,-1,1049,1597,0,0
-168,-573,0,0,0,0,0,0,0,0,0,-1,1056,1597,0,0
-161,-573,0,0,0,0,0,0,0,0,0,-1,1063,1597,0,0
-154,-573,0,0,0,0,0,0,0,0,0,-1,1070,1597,0,0
-147,-573,0,0,0,0,0,0,0,0,0,-1,1077,1597,0,0
-140,-573,0,0,0,0,0,0,0,0,0,-1,1084,1597,0,0
-133,-573,0,0,0,0,0,0,0,0,0,-1,1091,1597,0,0
-126,-573,0,0,0,0,0,0,0,0,0,-1,1098,1597,0,0
-119,-573,0,0,0,0,0,0,0,0,0,-1,1105,1597,0,0
-112,-573,0,0,0,0,0,0,0,0,0,-1,1112,1597,0,0
-105,-573,0,0,0,0,0,0,0,0,0,-1,1119,1597,0,0
-98,-573,0,0,0,0,0,0,0,0,0,-1,1126,1597,0,0
-91,-573,0,0,0,0,0,0,0,0,0,-1,1133,1597,0,0
-84,-573,0,0,0,0,0,0,0,0,0,-1,1140,1597,0,0
-77,-573,0,0,0,0,0,0,0,0,0,-1,1147,1597,0,0
-70,-573,0,0,0,0,0,0,0,0,0,-1,1154,1597,0,0
-63,-573,0,0,0,0,0,0,0,0,0,-1,1161,1597,0,0
-56,-573,0,0,0,0,0,0,0,0,0,-1,1168,1597,0,0
-49,-573,0,0,0,0,0,0,0,0,0,-1,1175,1597,0,0
-42,-573,0,0,0,0,0,0,0,0,0,-1,1182,1597,0,0
-35,-573,0,0,0,0,0,0,0,0,0,-1,1189,1597,0,0
-28,-573,0,0,0,0,0,0,0,0,0,-1,1196,1597,0,0
-21,-573,0,0,0,0,0,0,0,0,0,-1,1203,1597,0,0
-14,-573,0,0,0,0,0,0,0,0,0,-1,1210,1597,0,0
-7,-573,0,0,0,0,0,0,0,0,0,-1,1217,1597,0,0
0,-573,0,0,0,0,0,0,0,0,0,-1,1224,1597,0,0
7,-573,0,0,0,0,0,0,0,0,0,-1,1231,1597,0,0
14,-573,0,0,0,0,0,0,0,0,0,-1,1238,1597,0,0
21,-573,0,0,0,0,0,0,0,0,0,-1,1245,1597,0,0
28,-573,0,0,0,0,0,0,0,0,0,-1,1252,1597,0,0
35,-573,0,0,0,0,0,0,0,0,0,-1,1259,1597,0,0
42,-573,0,0,0,0,0,0,0,0,0,-1,1266,1597,0,0
49,-573,0,0,0,0,0,0,0,0,0,-1,1273,1597,0,0
56,-573,0,0,0,0,0,0,0,0,0,-1,1280,1597,0,0
63,-573,0,0,0,0,0,0,0,0,0,-1,1287,1597,0,0
70,-573,0,0,0,0,0,0,0,0,0,-1,1294,1597,0,0
77,-573,0,0,0,0,0,0,0,0,0,-1,1301,1597,0,0
84,-573,0,0,0,0,0,0,0,0,0,-1,1308,1597,0,0
91,-573,0,0,0,0,0,0,0,0,0,-1,1315,1597,0,0
98,-573,0,0,0,0,0,0,0,0,0,-1,1322,1597,0,0
105,-573,0,0,0,0,0,0,0,0,0,-1,1329,1597,0,0
112,-573,0,0,0,0,0,0,0,0,0,-1,1336,1597,0,0
119,-573,0,0,0,0,0,0,0,0,0,-1,1343,1597,0,0
126,-573,0,0,0,0,0,0,0,0,0,-1,1350,1597,0,0
133,-573,0,0,0,0,0,0,0,0,0,-1,1357,1597,0,0
140,-573,0,0,0,0,0,0,0,0,0,-1,1364,1597,0,0
147,-573,0,0,0,0,0,0,0,0,0,-1,1371,1597,0,0
154,-573,0,0,0,0,0,0,0,0,0,-1,1378,1597,0,0
161,-573,0,0,0,0,0,0,0,0,0,-1,1385,1597,0,0
168,-573,0,0,0,0,0,0,0,0,0,-1,1392,1597,0,0
175,-573,0,0,0,0,0,0,0,0,0,-1,1399,1597,0,0
182,-573,0,0,0,0,0,0,0,0,0,-1,1406,1597,0,0
189,-573,0,0,0,0,0,0,0,0,0,-1,1413,1597,0,0
196,-573,0,0,0,0,0,0,0,0,0,-1,1420,1597,0,0
203,-573,0,0,0,0,0,0,0,0,0,-1,1427,1597,0,0
210,-573,0,0,0,0,0,0,0,0,0,-1,1434,1597,0,0
217,-573,0,0,0,0,0,0,0,0,0,-1,1441,1597,0,0
224,-573,0,0,0,0,0,0,0,0,0,-1,1448,1597,0,0
231,-573,0,0,0,0,0,0,0,0,0,-1,1455,1597,0,0
238,-573,0,0,0,0,0,0,0,0,0,-1,1462,1597,0,0
245,-573,0,0,0,0,0,0,0,0,0,-1,1469,1597,0,0
252,-573,0,0,0,0,0,0,0,0,0,-1,1476,1597,0,0
259,-573,0,0,0,0,0,0,0,0,0,-1,1483,1597,0,0
266,-573,0,0,0,0,0,0,0,0,0,-1,1490,1597,0,0
273,-573,0,0,0,0,0,0,0,0,0,-1,1497,1597,0,0
280,-573,0,0,0,0,0,0,0,0,0,-1,1504,1597,0,0
287,-573,0,0,0,0,0,0,0,0,0,-1,1511,1597,0,0
294,-573,0,0,0,0,0,0,0,0,0,-1,1518,1597,0,0
301,-573,0,0,0,0,0,0,0,0,0,-1,1525,1597,0,0
308,-573,0.0847168,-0.210205,-0.0059226,0.00193418,-0.00229134,0.00255359,-0.00654201,-1.30678,0.00541703,0.0427281,1532,1597,0.0847343,0.210171
315,-573,-0.542236,-0.68335,-0.0034583,0.00163135,-0.00252921,0.00267442,-0.00450137,-1.17964,0.00418747,0.0437085,1539,1597,-0.542276,0.683308
322,-573,-1.77039,2.29846,3.81803e-05,0.000386679,-0.00447459,0.00469041,-0.00426555,-0.804859,0.00517267,0.0421131,1546,1597,-1.77041,-2.29851
329,-573,-1.47302,2.06445,0.00331268,-0.00186825,-0.00695627,0.00814516,-0.00670073,-0.607157,0.00858479,0.0435384,1553,1597,-1.47301,-2.06447
336,-573,-1.03442,1.61365,0.00602189,-0.00348956,-0.00726011,0.00994522,-0.0074129,-0.49544,0.0100572,0.0485381,1560,1597,-1.03447,-1.61369
343,-573,-1.04211,1.29541,0.00650452,-0.00465471,-0.00606328,0.00916477,-0.00731496,-0.413458,0.00953454,0.0487833,1567,1597,-1.0421,-1.29546
350,-573,-1.09338,1.02222,0,0,0,0,0,0,0,-1,1574,1597,-1.09332,-1.02221
357,-573,-0.205811,0.332153,0.00546687,-0.00496151,-0.00228573,0.00594586,-0.00544051,-0.206569,0.00657608,0.0461165,1581,1597,-0.205779,-0.332213
364,-573,-0.137695,0.532715,0.00448745,-0.00416153,-0.000627952,0.00453281,-0.00420688,-0.0721002,0.00504703,0.0424912,1588,1597,-0.137639,-0.532669
371,-573,-0.258789,0.258301,0.00216742,-0.00237067,0.00118134,0.00245653,-0.00265977,0.240008,0.00295467,0.0455297,1595,1597,-0.258773,-0.258257
378,-573,-0.433838,0.00695801,0,0,0,0,0,0,0,-1,1602,1597,-0.433789,-0.006934
385,-573,-0.257446,-0.264038,-0.00440201,-4.42079e-05,0.00481454,0.00306152,-0.00750775,0.997892,0.00627957,0.0484365,1609,1597,-0.257507,0.264014
392,-573,-0.373169,-0.251221,-0.00701341,0.00292819,0.00689581,0.00645804,-0.0105433,1.09769,0.00990972,0.0457937,1616,1597,-0.373182,0.25121
399,-573,-0.561768,-0.234253,-0.00852644,0.005736,0.00765026,0.0090633,-0.0118537,1.16055,0.0121122,0.0471021,1623,1597,-0.561774,0.234253
406,-573,-0.8125,-0.252441,0,0,0,0,0,0,0,-1,1630,1597,-0.812451,0.252387
413,-573,-0.438354,0.297241,0,0,0,0,0,0,0,-1,1637,1597,-0.438345,-0.297243
420,-573,0.749878,-1.14685,0,0,0,0,0,0,0,-1,1644,1597,0.749828,1.14689
427,-573,0.203491,0.156128,-0.0083725,0.00974989,0.00507861,0.0110761,-0.00969868,1.31537,0.0120031,0.0407499,1651,1597,0.203449,-0.156142
434,-573,0.2229,-0.0114746,-0.0070094,0.00938094,0.0036641,0.0101628,-0.00779123,1.36057,0.0103958,0.0339839,1658,1597,0.222865,0.0115052
441,-573,-0.0235596,-0.0648193,-0.00593076,0.00906647,0.00219773,0.00938189,-0.00624619,1.42825,0.00908322,0.0234384,1665,1597,-0.0236066,0.064792
448,-573,-0.057251,-0.0906982,-0.00413343,0.00822757,0.000690305,0.008266,-0.00417186,1.51518,0.00730953,0.0145847,1672,1597,-0.0572997,0.09074
455,-573,-0.0291748,-0.0803223,-0.00286258,0.00695145,-0.000474396,0.00697433,-0.00288546,-1.52261,0.00585344,0.0138498,1679,1597,-0.0291549,0.0803041
462,-573,-0.0360107,-0.0742188,-0.00218675,0.00560308,-0.000789295,0.00568225,-0.00226592,-1.47083,0.00472807,0.0164416,1686,1597,-0.0359552,0.0741631
469,-573,-0.0496826,-0.0872803,-0.00146273,0.00464024,-0.000545564,0.00468862,-0.00151111,-1.48234,0.00373284,0.0129403,1693,1597,-0.0497313,0.0872378
476,-573,-0.0279541,-0.086792,-0.000853538,0.00385988,-0.000519678,0.0039165,-0.000910155,-1.46228,0.00296138,0.012246,1700,1597,-0.0279517,0.0867769
483,-573,-0.0286865,-0.0794678,-0.000582486,0.00323885,-0.000287224,0.00326032,-0.000603954,-1.49619,0.00240033,0.0107885,1707,1597,-0.0286644,0.0794668
490,-573,-0.0268555,-0.0766602,-0.000289777,0.00277915,-0.000168828,0.00278841,-0.000299037,-1.516,0.00196621,0.00931937,1714,1597,-0.0269061,0.0766646
497,-573,-0.019165,-0.0699463,-6.33561e-05,0.00258243,-9.29798e-05,0.00258569,-6.66195e-05,-1.53571,0.00174642,0.0139626,1721,1597,-0.0191366,0.0699462
504,-573,0.00610352,-0.0848389,6.70148e-05,0.00275408,2.49976e-05,0.00275431,6.67822e-05,1.56149,0.00181436,0.0154965,1728,1597,0.00607682,0.0848635
511,-573,-0.00195313,-0.10144,0.000392953,0.00284412,0.000162959,0.00285491,0.000382166,1.5047,0.00178954,0.0158232,1735,1597,-0.00197077,0.101398
518,-573,-0.00256348,-0.0821533,0.000657294,0.00319839,0.000337474,0.00324245,0.000613239,1.44099,0.00198898,0.0123229,1742,1597,-0.00251657,0.0822142
525,-573,0.00354004,-0.0811768,0.000701251,0.00354425,0.000641166,0.00368216,0.000563342,1.35893,0.00229021,0.0145086,1749,1597,0.00358538,0.0812079
532,-573,-0.0078125,-0.0620117,0.000547846,0.00381377,0.000832462,0.00401372,0.000347898,1.33507,0.00256771,0.0139596,1756,1597,-0.00782387,0.061966
539,-573,-0.00109863,-0.0395508,0.000390935,0.00454534,0.00114689,0.00484092,9.53504e-05,1.31856,0.00319597,0.0140761,1763,1597,-0.00107057,0.0396031
546,-573,-0.0195313,-0.0631104,0.000764222,0.00639888,0.00178294,0.00691564,0.000247453,1.28869,0.0045302,0.01927,1770,1597,-0.0194878,0.0630922
553,-573,-0.0290527,-0.0941162,0.00128127,0.00886307,0.00268112,0.00971538,0.000428969,1.26301,0.00633877,0.0333831,1777,1597,-0.0290688,0.0941591
560,-573,-0.0861816,-0.0686035,0.00179352,0.0118051,0.00385809,0.0131194,0.000479282,1.24248,0.00859094,0.0437819,1784,1597,-0.0861756,0.0685806
567,-573,0.0134277,0.254761,0.0031264,0.014777,0.00553079,0.0169843,0.000919033,1.19106,0.0110293,0.0460121,1791,1597,0.0133821,-0.254763
574,-573,0.21582,0.38562,0.00535646,0.0192105,0.00721065,0.0222824,0.00228464,1.16807,0.014155,0.0423341,1798,1597,0.215828,-0.385589
581,-573,0.143799,0.55835,0,0,0,0,0,0,0,-1,1805,1597,0.143799,-0.558399
588,-573,-0.208008,0.356934,0,0,0,0,0,0,0,-1,1812,1597,-0.207987,-0.356936
595,-573,-0.426758,-2.69299,0,0,0,0,0,0,0,-1,1819,1597,-0.42678,2.69299
602,-573,0,0,0,0,0,0,0,0,0,-1,1826,1597,0,0
609,-573,0,0,0,0,0,0,0,0,0,-1,1833,1597,0,0
616,-573,0,0,0,0,0,0,0,0,0,-1,1840,1597,0,0
623,-573,0,0,0,0,0,0,0,0,0,-1,1847,1597,0,0
630,-573,0,0,0,0,0,0,0,0,0,-1,1854,1597,0,0
637,-573,0,0,0,0,0,0,0,0,0,-1,1861,1597,0,0
644,-573,0,0,0,0,0,0,0,0,0,-1,1868,1597,0,0
651,-573,0,0,0,0,0,0,0,0,0,-1,1875,1597,0,0
658,-573,0,0,0,0,0,0,0,0,0,-1,1882,1597,0,0
665,-573,0,0,0,0,0,0,0,0,0,-1,1889,1597,0,0
672,-573,0,0,0,0,0,0,0,0,0,-1,1896,1597,0,0
679,-573,0,0,0,0,0,0,0,0,0,-1,1903,1597,0,0
686,-573,0,0,0,0,0,0,0,0,0,-1,1910,1597,0,0
693,-573,0,0,0,0,0,0,0,0,0,-1,1917,1597,0,0
700,-573,0,0,0,0,0,0,0,0,0,-1,1924,1597,0,0
707,-573,0,0,0,0,0,0,0,0,0,-1,1931,1597,0,0
714,-573,0,0,0,0,0,0,0,0,0,-1,1938,1597,0,0
721,-573,0,0,0,0,0,0,0,0,0,-1,1945,1597,0,0
728,-573,0,0,0,0,0,0,0,0,0,-1,1952,1597,0,0
735,-573,0,0,0,0,0,0,0,0,0,-1,1959,1597,0,0
742,-573,0,0,0,0,0,0,0,0,0,-1,1966,1597,0,0
749,-573,0,0,0,0,0,0,0,0,0,-1,1973,1597,0,0
756,-573,0,0,0,0,0,0,0,0,0,-1,1980,1597,0,0
763,-573,0,0,0,0,0,0,0,0,0,-1,1987,1597,0,0
770,-573,0,0,0,0,0,0,0,0,0,-1,1994,1597,0,0
777,-573,0,0,0,0,0,0,0,0,0,-1,2001,1597,0,0
784,-573,0,0,0,0,0,0,0,0,0,-1,2008,1597,0,0
791,-573,0,0,0,0,0,0,0,0,0,-1,2015,1597,0,0
798,-573,0,0,0,0,0,0,0,0,0,-1,2022,1597,0,0
805,-573,0,0,0,0,0,0,0,0,0,-1,2029,1597,0,0
812,-573,0,0,0,0,0,0,0,0,0,-1,2036,1597,0,0
-700,-580,0,0,0,0,0,0,0,0,0,-1,524,1604,0,0
-693,-580,0,0,0,0,0,0,0,0,0,-1,531,1604,0,0
-686,-580,0,0,0,0,0,0,0,0,0,-1,538,1604,0,0
-679,-580,0,0,0,0,0,0,0,0,0,-1,545,1604,0,0
-672,-580,0,0,0,0,0,0,0,0,0,-1,552,1604,0,0
-665,-580,0,0,0,0,0,0,0,0,0,-1,559,1604,0,0
-658,-580,0,0,0,0,0,0,0,0,0,-1,566,1604,0,0
-651,-580,0,0,0,0,0,0,0,0,0,-1,573,1604,0,0
-644,-580,0,0,0,0,0,0,0,0,0,-1,580,1604,0,0
-637,-580,0,0,0,0,0,0,0,0,0,-1,587,1604,0,0
-630,-580,0,0,0,0,0,0,0,0,0,-1,594,1604,0,0
-623,-580,0,0,0,0,0,0,0,0,0,-1,601,1604,0,0
-616,-580,0,0,0,0,0,0,0,0,0,-1,608,1604,0,0
-609,-580,0,0,0,0,0,0,0,0,0,-1,615,1604,0,0
-602,-580,0,0,0,0,0,0,0,0,0,-1,622,1604,0,0
-595,-580,0,0,0,0,0,0,0,0,0,-1,629,1604,0,0
-588,-580,0,0,0,0,0,0,0,0,0,-1,636,1604,0,0
-581,-580,0,0,0,0,0,0,0,0,0,-1,643,1604,0,0
-574,-580,0,0,0,0,0,0,0,0,0,-1,650,1604,0,0
-567,-580,0,0,0,0,0,0,0,0,0,-1,657,1604,0,0
-560,-580,0,0,0,0,0,0,0,0,0,-1,664,1604,0,0
-553,-580,0,0,0,0,0,0,0,0,0,-1,671,1604,0,0
-546,-580,0,0,0,0,0,0,0,0,0,-1,678,1604,0,0
-539,-580,0,0,0,0,0,0,0,0,0,-1,685,1604,0,0
-532,-580,0,0,0,0,0,0,0,0,0,-1,692,1604,0,0
-525,-580,0,0,0,0,0,0,0,0,0,-1,699,1604,0,0
-518,-580,0,0,0,0,0,0,0,0,0,-1,706,1604,0,0
-511,-580,0,0,0,0,0,0,0,0,0,-1,713,1604,0,0
-504,-580,0,0,0,0,0,0,0,0,0,-1,720,1604,0,0
-497,-580,0,0,0,0,0,0,0,0,0,-1,727,1604,0,0
-490,-580,0,0,0,0,0,0,0,0,0,-1,734,1604,0,0
-483,-580,0,0,0,0,0,0,0,0,0,-1,741,1604,0,0
-476,-580,0,0,0,0,0,0,0,0,0,-1,748,1604,0,0
-469,-580,3.0448,-1.87122,0,0,0,0,0,0,0,-1,755,1604,3.04482,1.87122
-462,-580,2.33667,-1.25757,0,0,0,0,0,0,0,-1,762,1604,2.33668,1.25759
-455,-580,1.67426,-1.16724,0,0,0,0,0,0,0,-1,769,1604,1.67423,1.16718
-448,-580,1.34174,-0.527588,-0.0219412,0.0387337,-4.5013e-06,0.0387337,-0.0219412,-1.57072,0.0354751,0.0455035,776,1604,1.34176,0.527619
-441,-580,1.23431,-0.199829,-0.0145566,0.0311742,-0.00313552,0.0313882,-0.0147706,-1.50266,0.0272194,0.0468408,783,1604,1.2343,0.199805
-434,-580,1.26923,0.0437012,-0.0094303,0.0256193,-0.00525992,0.0263916,-0.0102026,-1.425,0.021806,0.0464524,790,1604,1.26922,-0.0436433
-427,-580,-0.621948,0.131592,0,0,0,0,0,0,0,-1,797,1604,-0.621966,-0.13155
-420,-580,-0.463196,0.00830078,-0.00269901,0.0177372,-0.00757365,0.0202379,-0.00519979,-1.25187,0.0155184,0.044438,804,1604,-0.4632,-0.00831338
-413,-580,-0.259338,-0.0596924,-0.00104008,0.0154532,-0.00804339,0.0187262,-0.00431314,-1.18433,0.0141428,0.045678,811,1604,-0.25932,0.0597246
-406,-580,-0.0732422,-0.0339355,-0.000913389,0.014013,-0.00783175,0.0173681,-0.00426849,-1.16605,0.0132331,0.0357387,818,1604,-0.0732148,0.03396
-399,-580,-0.0304565,-0.0670166,-0.00105606,0.0119962,-0.00715563,0.0151548,-0.00421463,-1.15511,0.0117625,0.0150017,825,1604,-0.0304751,0.066999
-392,-580,-0.00769043,-0.0882568,-0.00135659,0.0114029,-0.00681435,0.0143579,-0.00431154,-1.16163,0.011287,0.0109015,832,1604,-0.00769097,0.0882158
-385,-580,-0.00201416,-0.0933838,-0.00222676,0.010084,-0.00516628,0.0119648,-0.00410749,-1.22167,0.00964185,0.0113155,839,1604,-0.00199921,0.09344
-378,-580,-0.0159302,-0.0811768,-0.00286121,0.00829516,-0.0040258,0.00959616,-0.00416221,-1.25822,0.0081473,0.0140684,846,1604,-0.0159543,0.0811884
-371,-580,-0.0133057,-0.0625,-0.0033273,0.00664077,-0.00242912,0.00720121,-0.00388774,-1.34405,0.00649678,0.012356,853,1604,-0.0132958,0.0625391
-364,-580,-0.00811768,-0.0587158,-0.00337048,0.00489412,-0.00154673,0.00517411,-0.00365047,-1.39172,0.00512012,0.0167312,860,1604,-0.00811139,0.0587062
-357,-580,0.00140381,-0.0875244,-0.00268212,0.00323189,-0.000651973,0.00330291,-0.00275315,-1.46229,0.00350126,0.0120042,867,1604,0.00140067,0.0875217
-350,-580,0.0010376,-0.0705566,-0.00170931,0.00222159,0.00013193,0.00222601,-0.00171374,1.53728,0.00228101,0.0104113,874,1604,0.00102637,0.0705246
-343,-580,-0.00317383,-0.0727539,-0.000604339,0.00104347,0.000971573,0.00149344,-0.00105432,1.13707,0.00147821,0.0113869,881,1604,-0.00315873,0.0727948
-336,-580,-0.0135498,-0.0849609,0.000652374,-6.17297e-05,0.00141807,0.00175765,-0.001167,0.662068,0.00169999,0.0188579,888,1604,-0.013552,0.0849433
-329,-580,-0.0369263,-0.0852051,0.00192518,-0.000542197,0.00172375,0.00281123,-0.00142825,0.474805,0.0024907,0.0153624,895,1604,-0.0369381,0.0851673
-322,-580,-0.0412598,-0.0767822,0.00309545,-0.000778799,0.00202825,0.00396301,-0.00164636,0.404188,0.00332936,0.0145741,902,1604,-0.0412753,0.076761
-315,-580,-0.0413208,-0.0727539,0.00427841,-0.000924852,0.00270155,0.00542736,-0.0020738,0.402119,0.00447274,0.0123482,909,1604,-0.0413103,0.072769
-308,-580,-0.0335693,-0.0697021,0.00549847,-0.000608704,0.00378333,0.00730677,-0.002417,0.445865,0.00584585,0.0136643,916,1604,-0.0335526,0.0696726
-301,-580,-0.00299072,-0.0775146,0.00628961,0.00140945,0.00493384,0.00935378,-0.00165471,0.555755,0.00685433,0.012712,923,1604,-0.00296259,0.0774751
-294,-580,0.0119629,-0.101196,0.00671877,0.00317778,0.00631903,0.0115107,-0.0016141,0.648808,0.00826451,0.018434,930,1604,0.0119593,0.101246
-287,-580,0.0773315,-0.0671387,0.00600504,0.00619861,0.00763448,0.0137369,-0.00153326,0.791737,0.00970947,0.0362514,937,1604,0.077307,0.0671872
-280,-580,0.179688,0.0733643,0.00498928,0.0103828,0.00883809,0.0169264,-0.00155433,0.933476,0.0118364,0.0397441,944,1604,0.179717,-0.0733591
-273,-580,0.320251,-0.349121,0.00384841,0.0145975,0.00926326,0.0199325,-0.00148656,1.04826,0.0138105,0.0406743,951,1604,0.32024,0.349138
-266,-580,-0.33551,-0.118164,0,0,0,0,0,0,0,-1,958,1604,-0.335528,0.118219
-259,-580,1.1225,0.809937,-0.00282279,0.0195011,0.0092691,0.0228479,-0.00616965,1.22429,0.0176516,0.0465592,965,1604,1.12249,-0.809882
-252,-580,1.45355,1.49609,-0.00687882,0.0205749,0.00921627,0.0233818,-0.00968576,1.27516,0.0196298,0.0459693,972,1604,1.45356,-1.49609
-245,-580,1.58423,0.647095,0,0,0,0,0,0,0,-1,979,1604,1.5842,-0.647038
-238,-580,2.09167,-0.614868,0,0,0,0,0,0,0,-1,986,1604,2.09166,0.614836
-231,-580,0.423828,0.229492,0,0,0,0,0,0,0,-1,993,1604,0.423837,-0.229475
-224,-580,0.368652,-0.13916,-0.0323643,0.0214131,0.00788679,0.0225458,-0.0334971,1.42814,0.0325617,0.0463474,1000,1604,0.368644,0.139196
-217,-580,0.384644,-0.671143,-0.0370139,0.0156174,0.00871946,0.0170243,-0.0384208,1.41082,0.0327962,0.0450569,1007,1604,0.384642,0.671201
-210,-580,-0.495361,0.224731,-0.037476,0.00771589,0.0115278,0.0104866,-0.0402467,1.33492,0.0309252,0.0440201,1014,1604,-0.495331,-0.224673
-203,-580,-1.25922,-0.0787354,0,0,0,0,0,0,0,-1,1021,1604,-1.25922,0.0787054
-196,-580,-1.88342,0.39978,-0.0331876,-0.0079281,0.0201811,0.00324943,-0.0443651,1.06499,0.0307172,0.0431563,1028,1604,-1.88345,-0.399841
-189,-580,-2.61365,0.638184,-0.0265427,-0.0123642,0.0258323,0.00733403,-0.0462409,0.919318,0.0335403,0.0435671,1035,1604,-2.61364,-0.638239
-182,-580,1.88501,-2.76184,0,0,0,0,0,0,0,-1,1042,1604,1.88496,2.76183
-175,-580,2.08594,-3.07288,0,0,0,0,0,0,0,-1,1049,1604,2.08595,3.07294
-168,-580,0,0,0,0,0,0,0,0,0,-1,1056,1604,0,0
-161,-580,0,0,0,0,0,0,0,0,0,-1,1063,1604,0,0
-154,-580,0,0,0,0,0,0,0,0,0,-1,1070,1604,0,0
-147,-580,0,0,0,0,0,0,0,0,0,-1,1077,1604,0,0
-140,-580,0,0,0,0,0,0,0,0,0,-1,1084,1604,0,0
-133,-580,0,0,0,0,0,0,0,0,0,-1,1091,1604,0,0
-126,-580,0,0,0,0,0,0,0,0,0,-1,1098,1604,0,0
-119,-580,0,0,0,0,0,0,0,0,0,-1,1105,1604,0,0
-112,-580,0,0,0,0,0,0,0,0,0,-1,1112,1604,0,0
-105,-580,0,0,0,0,0,0,0,0,0,-1,1119,1604,0,0
-98,-580,0,0,0,0,0,0,0,0,0,-1,1126,1604,0,0
-91,-580,0,0,0,0,0,0,0,0,0,-1,1133,1604,0,0
-84,-580,0,0,0,0,0,0,0,0,0,-1,1140,1604,0,0
-77,-580,0,0,0,0,0,0,0,0,0,-1,1147,1604,0,0
-70,-580,0,0,0,0,0,0,0,0,0,-1,1154,1604,0,0
-63,-580,0,0,0,0,0,0,0,0,0,-1,1161,1604,0,0
-56,-580,0,0,0,0,0,0,0,0,0,-1,1168,1604,0,0
-49,-580,0,0,0,0,0,0,0,0,0,-1,1175,1604,0,0
-42,-580,0,0,0,0,0,0,0,0,0,-1,1182,1604,0,0
-35,-580,0,0,0,0,0,0,0,0,0,-1,1189,1604,0,0
-28,-580,0,0,0,0,0,0,0,0,0,-1,1196,1604,0,0
-21,-580,0,0,0,0,0,0,0,0,0,-1,1203,1604,0,0
-14,-580,0,0,0,0,0,0,0,0,0,-1,1210,1604,0,0
-7,-580,0,0,0,0,0,0,0,0,0,-1,1217,1604,0,0
0,-580,0,0,0,0,0,0,0,0,0,-1,1224,1604,0,0
7,-580,0,0,0,0,0,0,0,0,0,-1,1231,1604,0,0
14,-580,0,0,0,0,0,0,0,0,0,-1,1238,1604,0,0
21,-580,0,0,0,0,0,0,0,0,0,-1,1245,1604,0,0
28,-580,0,0,0,0,0,0,0,0,0,-1,1252,1604,0,0
35,-580,0,0,0,0,0,0,0,0,0,-1,1259,1604,0,0
42,-580,0,0,0,0,0,0,0,0,0,-1,1266,1604,0,0
49,-580,0,0,0,0,0,0,0,0,0,-1,1273,1604,0,0
56,-580,0,0,0,0,0,0,0,0,0,-1,1280,1604,0,0
63,-580,0,0,0,0,0,0,0,0,0,-1,1287,1604,0,0
70,-580,0,0,0,0,0,0,0,0,0,-1,1294,1604,0,0
77,-580,0,0,0,0,0,0,0,0,0,-1,1301,1604,0,0
84,-580,0,0,0,0,0,0,0,0,0,-1,1308,1604,0,0
91,-580,0,0,0,0,0,0,0,0,0,-1,1315,1604,0,0
98,-580,0,0,0,0,0,0,0,0,0,-1,1322,1604,0,0
105,-580,0,0,0,0,0,0,0,0,0,-1,1329,1604,0,0
112,-580,0,0,0,0,0,0,0,0,0,-1,1336,1604,0,0
119,-580,0,0,0,0,0,0,0,0,0,-1,1343,1604,0,0
126,-580,0,0,0,0,0,0,0,0,0,-1,1350,1604,0,0
133,-580,0,0,0,0,0,0,0,0,0,-1,1357,1604,0,0
140,-580,0,0,0,0,0,0,0,0,0,-1,1364,1604,0,0
147,-580,0,0,0,0,0,0,0,0,0,-1,1371,1604,0,0
154,-580,0,0,0,0,0,0,0,0,0,-1,1378,1604,0,0
161,-580,0,0,0,0,0,0,0,0,0,-1,1385,1604,0,0
168,-580,0,0,0,0,0,0,0,0,0,-1,1392,1604,0,0
175,-580,0,0,0,0,0,0,0,0,0,-1,1399,1604,0,0
182,-580,0,0,0,0,0,0,0,0,0,-1,1406,1604,0,0
189,-580,0,0,0,0,0,0,0,0,0,-1,1413,1604,0,0
196,-580,0,0,0,0,0,0,0,0,0,-1,1420,1604,0,0
203,-580,0,0,0,0,0,0,0,0,0,-1,1427,1604,0,0
210,-580,0,0,0,0,0,0,0,0,0,-1,1434,1604,0,0
217,-580,0,0,0,0,0,0,0,0,0,-1,1441,1604,0,0
224,-580,0,0,0,0,0,0,0,0,0,-1,1448,1604,0,0
231,-580,0,0,0,0,0,0,0,0,0,-1,1455,1604,0,0
238,-580,0,0,0,0,0,0,0,0,0,-1,1462,1604,0,0
245,-580,0,0,0,0,0,0,0,0,0,-1,1469,1604,0,0
252,-580,0,0,0,0,0,0,0,0,0,-1,1476,1604,0,0
259,-580,0,0,0,0,0,0,0,0,0,-1,1483,1604,0,0
266,-580,0,0,0,0,0,0,0,0,0,-1,1490,1604,0,0
273,-580,0,0,0,0,0,0,0,0,0,-1,1497,1604,0,0
280,-580,0,0,0,0,0,0,0,0,0,-1,1504,1604,0,0
287,-580,0,0,0,0,0,0,0,0,0,-1,1511,1604,0,0
294,-580,-0.272827,0.192993,0,0,0,0,0,0,0,-1,1518,1604,-0.272779,-0.193013
301,-580,0.0152588,-0.0212402,-0.00769561,0.0033685,-0.0010068,0.00345937,-0.00778648,-1.48078,0.00665108,0.0412427,1525,1604,0.0152803,0.0212215
308,-580,-0.0234375,-0.111816,-0.00623995,0.00348244,-0.00125168,0.003641,-0.00639851,-1.44479,0.00586874,0.0416878,1532,1604,-0.0233984,0.111846
315,-580,-0.346924,-0.403198,-0.00388627,0.00316765,-0.00233157,0.00386865,-0.00458727,-1.27874,0.0048879,0.0425321,1539,1604,-0.346891,0.403249
322,-580,-0.441284,-0.415161,-0.00095536,0.0024198,-0.00473419,0.0057582,-0.00429375,-0.956611,0.00582399,0.0446246,1546,1604,-0.441278,0.415185
329,-580,-1.33997,1.92273,0.00204983,0.000880162,-0.00754574,0.00903337,-0.00610338,-0.746723,0.00879361,0.0420712,1553,1604,-1.33996,-1.92268
336,-580,-1.23535,1.69104,0.00431628,-0.000358075,-0.00848828,0.0107833,-0.00682506,-0.651056,0.0102514,0.0472786,1560,1604,-1.23538,-1.69102
343,-580,-1.30627,1.47107,0.00457164,-0.00155972,-0.0081003,0.010167,-0.00715506,-0.604496,0.0100511,0.0477815,1567,1604,-1.30628,-1.47107
350,-580,-1.95557,1.24988,0.00410208,-0.00234858,-0.00692326,0.00851444,-0.00676094,-0.567412,0.0088386,0.0451275,1574,1604,-1.95557,-1.24986
357,-580,0.170776,1.03369,0.00373727,-0.00335283,-0.0056422,0.00685568,-0.00647124,-0.50491,0.00769537,0.0463534,1581,1604,0.170769,-1.03375
364,-580,-0.0394287,0.516235,0.00281692,-0.00319171,-0.00414642,0.00493302,-0.00530782,-0.471889,0.00591387,0.0479172,1588,1604,-0.0393968,-0.516246
371,-580,-0.219849,0.233032,0.000894869,-0.00222858,-0.00243017,0.00222187,-0.00355558,-0.499806,0.00336511,0.0460531,1595,1604,-0.219819,-0.232992
378,-580,-0.369019,-0.0198975,-0.00189507,-0.00348332,-0.000315665,-0.00183463,-0.00354375,-0.189176,0.00204642,0.0470077,1602,1604,-0.369005,0.0198521
385,-580,-0.701782,0.117432,-0.0047322,-0.00145897,0.0019764,-0.000529521,-0.00566164,1.13121,0.00361089,0.0431903,1609,1604,-0.70183,-0.117482
392,-580,-1.02747,-0.00695801,-0.00695893,0.000621209,0.0043861,0.0026279,-0.00896563,1.14171,0.007019,0.0455454,1616,1604,-1.02747,0.00701839
399,-580,-1.2074,-0.510498,-0.00826984,0.00291913,0.00559209,0.00523475,-0.0105855,1.1782,0.00930631,0.0464352,1623,1604,-1.20744,0.510541
406,-580,-0.158936,-0.356689,0,0,0,0,0,0,0,-1,1630,1604,-0.158952,0.356664
413,-580,-0.276855,-0.0618896,-0.0102839,0.00622872,0.0067214,0.00861871,-0.0126739,1.22916,0.0123674,0.0464648,1637,1604,-0.276806,0.0619472
420,-580,-0.16333,-0.0378418,-0.00899968,0.00667225,0.00578259,0.0085749,-0.0109023,1.25292,0.0112719,0.0409391,1644,1604,-0.163288,0.0378945
427,-580,-0.00219727,-0.043335,-0.00738797,0.00678489,0.00493436,0.00833359,-0.00893667,1.26667,0.00997301,0.0313434,1651,1604,-0.00222268,0.0433948
434,-580,-0.00439453,-0.0621338,-0.00606249,0.00669177,0.00381624,0.00774643,-0.00711715,1.30117,0.00858406,0.0207594,1658,1604,-0.00441145,0.0620865
441,-580,-0.046875,-0.0980225,-0.00494745,0.0066033,0.00257788,0.00715251,-0.00549666,1.36089,0.00732383,0.0106752,1665,1604,-0.046893,0.0979734
448,-580,-0.0266113,-0.0836182,-0.00324997,0.00604492,0.0013041,0.00622442,-0.00342947,1.43401,0.00565101,0.0104065,1672,1604,-0.026612,0.0836242
455,-580,-0.0078125,-0.065918,-0.00223911,0.00512114,0.000283216,0.00513202,-0.00224999,1.53239,0.00436894,0.0175466,1679,1604,-0.00787107,0.0658994
462,-580,-0.034668,-0.0645752,-0.0017081,0.00452184,5.55374e-06,0.00452185,-0.0017081,1.5699,0.00371714,0.0202088,1686,1604,-0.0346306,0.0645378
469,-580,-0.0570068,-0.0769043,-0.00113862,0.00398088,0.0001164,0.00398353,-0.00114126,1.54808,0.00310678,0.0168617,1693,1604,-0.0569907,0.0769
476,-580,-0.02771,-0.0843506,-0.000663714,0.00363636,8.61735e-05,0.00363809,-0.00066544,1.55077,0.00267494,0.0136943,1700,1604,-0.0276741,0.0843206
483,-580,-0.0301514,-0.0760498,-0.000424776,0.00345339,0.00020215,0.0034639,-0.000435285,1.51886,0.0024672,0.0120386,1707,1604,-0.0301842,0.0760965
490,-580,-0.0415039,-0.0792236,-0.000105014,0.00344978,0.000316701,0.00347777,-0.000133008,1.48263,0.0023641,0.0127195,1714,1604,-0.0414721,0.0792088
497,-580,-0.0316162,-0.0775146,0.000188452,0.00361993,0.000440646,0.00367562,0.000132771,1.4451,0.00240737,0.010415,1721,1604,-0.0315595,0.0775082
504,-580,-0.00671387,-0.0997314,0.000418245,0.004111,0.000609067,0.00420886,0.000320382,1.41148,0.00270544,0.0159696,1728,1604,-0.00677177,0.0997541
511,-580,0.00415039,-0.0992432,0.000825504,0.00442171,0.000790894,0.00458796,0.000659253,1.36361,0.00286429,0.015843,1735,1604,0.00411173,0.0992852
518,-580,0.0117188,-0.0869141,0.00115884,0.00499176,0.00102409,0.00524822,0.00090238,1.32542,0.00324018,0.0137913,1742,1604,0.0116891,0.0869706
525,-580,0.000488281,-0.0703125,0.00127997,0.00551784,0.00142831,0.00595428,0.000843523,1.27424,0.00372036,0.0152248,1749,1604,0.000444519,0.0703212
532,-580,-0.0170898,-0.0500488,0.00121441,0.00589245,0.00174791,0.00647339,0.000633467,1.24992,0.0041207,0.0171313,1756,1604,-0.0170358,0.0500973
539,-580,-0.0255127,-0.0493164,0.00109889,0.00659643,0.00221189,0.00737585,0.000319459,1.232,0.00481428,0.0207289,1763,1604,-0.0254929,0.0493611
546,-580,0.0257568,-0.0617676,0.00147568,0.00841913,0.00301554,0.00954592,0.000348888,1.2132,0.0062509,0.0338446,1770,1604,0.025729,0.0617511
553,-580,0.122925,-0.160522,0.00203964,0.0109478,0.00413707,0.0125727,0.000414716,1.19654,0.00824702,0.043199,1777,1604,0.122892,0.160572
560,-580,0.00683594,-0.127563,0.00259788,0.0140605,0.00558477,0.0163315,0.000326837,1.18457,0.0107804,0.0468154,1784,1604,0.00680827,0.12758
567,-580,-0.204224,0.115356,0.00402395,0.0173976,0.0076821,0.0208955,0.00052606,1.14352,0.0137583,0.0476469,1791,1604,-0.20427,-0.115373
574,-580,-0.21228,0.539429,0.00636674,0.0221687,0.00981131,0.0268649,0.00167061,1.12438,0.0173798,0.0453955,1798,1604,-0.212234,-0.539426
581,-580,-0.453613,0.716309,0,0,0,0,0,0,0,-1,1805,1604,-0.453555,-0.716282
588,-580,0.0168457,-0.115723,0,0,0,0,0,0,0,-1,1812,1604,0.0168806,0.115753
595,-580,0,0,0,0,0,0,0,0,0,-1,1819,1604,0,0
602,-580,0,0,0,0,0,0,0,0,0,-1,1826,1604,0,0
609,-580,0,0,0,0,0,0,0,0,0,-1,1833,1604,0,0
616,-580,0,0,0,0,0,0,0,0,0,-1,1840,1604,0,0
623,-580,0,0,0,0,0,0,0,0,0,-1,1847,1604,0,0
630,-580,0,0,0,0,0,0,0,0,0,-1,1854,1604,0,0
637,-580,0,0,0,0,0,0,0,0,0,-1,1861,1604,0,0
644,-580,0,0,0,0,0,0,0,0,0,-1,1868,1604,0,0
651,-580,0,0,0,0,0,0,0,0,0,-1,1875,1604,0,0
658,-580,0,0,0,0,0,0,0,0,0,-1,1882,1604,0,0
665,-580,0,0,0,0,0,0,0,0,0,-1,1889,1604,0,0
672,-580,0,0,0,0,0,0,0,0,0,-1,1896,1604,0,0
679,-580,0,0,0,0,0,0,0,0,0,-1,1903,1604,0,0
686,-580,0,0,0,0,0,0,0,0,0,-1,1910,1604,0,0
693,-580,0,0,0,0,0,0,0,0,0,-1,1917,1604,0,0
700,-580,0,0,0,0,0,0,0,0,0,-1,1924,1604,0,0
707,-580,0,0,0,0,0,0,0,0,0,-1,1931,1604,0,0
714,-580,0,0,0,0,0,0,0,0,0,-1,1938,1604,0,0
721,-580,0,0,0,0,0,0,0,0,0,-1,1945,1604,0,0
728,-580,0,0,0,0,0,0,0,0,0,-1,1952,1604,0,0
735,-580,0,0,0,0,0,0,0,0,0,-1,1959,1604,0,0
742,-580,0,0,0,0,0,0,0,0,0,-1,1966,1604,0,0
749,-580,0,0,0,0,0,0,0,0,0,-1,1973,1604,0,0
756,-580,0,0,0,0,0,0,0,0,0,-1,1980,1604,0,0
763,-580,0,0,0,0,0,0,0,0,0,-1,1987,1604,0,0
770,-580,0,0,0,0,0,0,0,0,0,-1,1994,1604,0,0
777,-580,0,0,0,0,0,0,0,0,0,-1,2001,1604,0,0
784,-580,0,0,0,0,0,0,0,0,0,-1,2008,1604,0,0
791,-580,0,0,0,0,0,0,0,0,0,-1,2015,1604,0,0
798,-580,0,0,0,0,0,0,0,0,0,-1,2022,1604,0,0
805,-580,0,0,0,0,0,0,0,0,0,-1,2029,1604,0,0
812,-580,0,0,0,0,0,0,0,0,0,-1,2036,1604,0,0
-700,-587,0,0,0,0,0,0,0,0,0,-1,524,1611,0,0
-693,-587,0,0,0,0,0,0,0,0,0,-1,531,1611,0,0
-686,-587,0,0,0,0,0,0,0,0,0,-1,538,1611,0,0
-679,-587,0,0,0,0,0,0,0,0,0,-1,545,1611,0,0
-672,-587,0,0,0,0,0,0,0,0,0,-1,552,1611,0,0
-665,-587,0,0,0,0,0,0,0,0,0,-1,559,1611,0,0
-658,-587,0,0,0,0,0,0,0,0,0,-1,566,1611,0,0
-651,-587,0,0,0,0,0,0,0,0,0,-1,573,1611,0,0
-644,-587,0,0,0,0,0,0,0,0,0,-1,580,1611,0,0
-637,-587,0,0,0,0,0,0,0,0,0,-1,587,1611,0,0
-630,-587,0,0,0,0,0,0,0,0,0,-1,594,1611,0,0
-623,-587,0,0,0,0,0,0,0,0,0,-1,601,1611,0,0
-616,-587,0,0,0,0,0,0,0,0,0,-1,608,1611,0,0
-609,-587,0,0,0,0,0,0,0,0,0,-1,615,1611,0,0
-602,-587,0,0,0,0,0,0,0,0,0,-1,622,1611,0,0
-595,-587,0,0,0,0,0,0,0,0,0,-1,629,1611,0,0
-588,-587,0,0,0,0,0,0,0,0,0,-1,636,1611,0,0
-581,-587,0,0,0,0,0,0,0,0,0,-1,643,1611,0,0
-574,-587,0,0,0,0,0,0,0,0,0,-1,650,1611,0,0
-567,-587,0,0,0,0,0,0,0,0,0,-1,657,1611,0,0
-560,-587,0,0,0,0,0,0,0,0,0,-1,664,1611,0,0
-553,-587,0,0,0,0,0,0,0,0,0,-1,671,1611,0,0
-546,-587,0,0,0,0,0,0,0,0,0,-1,678,1611,0,0
-539,-587,0,0,0,0,0,0,0,0,0,-1,685,1611,0,0
-532,-587,0,0,0,0,0,0,0,0,0,-1,692,1611,0,0
-525,-587,0,0,0,0,0,0,0,0,0,-1,699,1611,0,0
-518,-587,0,0,0,0,0,0,0,0,0,-1,706,1611,0,0
-511,-587,0,0,0,0,0,0,0,0,0,-1,713,1611,0,0
-504,-587,0,0,0,0,0,0,0,0,0,-1,720,1611,0,0
-497,-587,0,0,0,0,0,0,0,0,0,-1,727,1611,0,0
-490,-587,0,0,0,0,0,0,0,0,0,-1,734,1611,0,0
-483,-587,0,0,0,0,0,0,0,0,0,-1,741,1611,0,0
-476,-587,0,0,0,0,0,0,0,0,0,-1,748,1611,0,0
-469,-587,0,0,0,0,0,0,0,0,0,-1,755,1611,0,0
-462,-587,2.73315,-1.948,0,0,0,0,0,0,0,-1,762,1611,2.73318,1.94803
-455,-587,2.02765,-1.44189,-0.0290507,0.0526863,0.00355564,0.0528407,-0.0292051,1.5274,0.0480198,0.0440232,769,1611,2.02762,1.44186
-448,-587,1.33337,-0.949829,-0.0185278,0.0401928,-0.000628493,0.0401995,-0.0185346,-1.56009,0.0346706,0.0463235,776,1611,1.33334,0.949809
-441,-587,1.50507,-0.309204,0,0,0,0,0,0,0,-1,783,1611,1.50506,0.30915
-434,-587,-0.611694,-0.299805,-0.00422174,0.0277719,-0.00756427,0.0294701,-0.00592002,-1.34995,0.0218886,0.0429032,790,1611,-0.611685,0.299754
-427,-587,-0.459473,-0.143555,-0.000645599,0.023499,-0.00977458,0.02696,-0.00410658,-1.23049,0.019487,0.0438022,797,1611,-0.459478,0.143538
-420,-587,-0.436462,-0.276611,0.00165129,0.0212195,-0.0105393,0.0258162,-0.00294538,-1.15953,0.0182719,0.0445641,804,1611,-0.436459,0.276591
-413,-587,-0.559448,-0.222778,0,0,0,0,0,0,0,-1,811,1611,-0.559429,0.222799
-406,-587,-0.279419,-0.107422,0,0,0,0,0,0,0,-1,818,1611,-0.279397,0.107439
-399,-587,0.0148926,-0.0948486,0.000684573,0.0158532,-0.00937742,0.0203295,-0.0037917,-1.12544,0.0149777,0.0318221,825,1611,0.0148656,0.0948054
-392,-587,0.0480957,-0.136963,-0.000467936,0.0150518,-0.00877492,0.0190058,-0.00442195,-1.14744,0.0143731,0.0231497,832,1611,0.0481174,0.136982
-385,-587,0.00445557,-0.100708,-0.00222568,0.0131992,-0.00662993,0.0156572,-0.00468367,-1.21576,0.0123003,0.0147358,839,1611,0.00443019,0.100685
-378,-587,-0.0452881,-0.0651855,-0.00353912,0.0108417,-0.00504819,0.0124369,-0.00513427,-1.26474,0.0104327,0.012588,846,1611,-0.0452807,0.0651288
-371,-587,-0.0379028,-0.0449219,-0.00455196,0.00848714,-0.00303172,0.00915757,-0.00522239,-1.35316,0.00840526,0.0126854,853,1611,-0.0379164,0.0449227
-364,-587,0.00744629,-0.0446777,-0.00492038,0.00606989,-0.00184004,0.00636977,-0.00522026,-1.40924,0.00670247,0.0150909,860,1611,0.00746691,0.044687
-357,-587,0.00732422,-0.0773926,-0.00427552,0.00383312,-0.000679481,0.00388967,-0.00433207,-1.48777,0.00474911,0.0146443,867,1611,0.00735306,0.0774177
-350,-587,-0.00799561,-0.0769043,-0.00333459,0.00238599,0.000133824,0.00238912,-0.00333772,1.54742,0.00332148,0.00900399,874,1611,-0.00797514,0.0768621
-343,-587,-0.0218506,-0.0755615,-0.00215541,0.00099163,0.00100984,0.0012878,-0.00245158,1.28551,0.00219351,0.0113585,881,1611,-0.0218246,0.075521
-336,-587,-0.0308228,-0.0667725,-0.000702452,-0.000174587,0.00146169,0.00104681,-0.00192385,0.874719,0.00173985,0.0109498,888,1611,-0.0308096,0.0668037
-329,-587,-0.0370483,-0.0720215,0.000776535,-0.000370754,0.00160845,0.00191057,-0.00150479,0.614107,0.00197649,0.012881,895,1611,-0.0370557,0.072034
-322,-587,-0.026001,-0.0697021,0.00207632,-0.000349551,0.0017727,0.00301133,-0.00128456,0.485365,0.00254615,0.0149244,902,1611,-0.0260184,0.0697313
-315,-587,-0.0247803,-0.0771484,0.00328529,-0.000111728,0.0022833,0.00443255,-0.00125899,0.465611,0.00345209,0.0124627,909,1611,-0.0247586,0.0771405
-308,-587,-0.0289307,-0.0643311,0.00442958,0.000611393,0.00316353,0.00621543,-0.00117445,0.513915,0.00458551,0.0131066,916,1611,-0.028916,0.0643048
-301,-587,-0.00830078,-0.0717773,0.00514444,0.00282853,0.00421025,0.00835307,-0.000380095,0.6512,0.00569964,0.0114103,923,1611,-0.00830403,0.071733
-294,-587,0.00268555,-0.0946045,0.00550859,0.00476681,0.00550583,0.010656,-0.000380612,0.751767,0.00723422,0.0123224,930,1611,0.002663,0.094575
-287,-587,-0.0125732,-0.0605469,0.0050446,0.00761443,0.0068149,0.0132645,-0.000605466,0.878577,0.00905157,0.0213047,937,1611,-0.0125911,0.0605872
-280,-587,0.0877686,-0.0808105,0.00451075,0.0112336,0.00799492,0.016545,-0.000800654,0.984401,0.0113063,0.0322173,944,1611,0.0877595,0.0807892
-273,-587,0.0396118,-0.0187988,0.00390648,0.0148223,0.00852922,0.0194904,-0.000761627,1.07002,0.0132548,0.0400475,951,1611,0.039596,0.0187989
-266,-587,0.700562,0.0975342,0.00234543,0.0173537,0.00841884,0.0211273,-0.00142825,1.14941,0.0145843,0.0450553,958,1611,0.700551,-0.0975733
-259,-587,0.810303,0.555054,-0.000811669,0.018701,0.00882163,0.0220979,-0.00420856,1.20323,0.0163167,0.0448231,965,1611,0.810279,-0.555051
-252,-587,1.31305,0.763428,-0.00380346,0.0190358,0.0089577,0.0221299,-0.00689756,1.23821,0.0175113,0.043861,972,1611,1.31304,-0.76345
-245,-587,0.954651,0.504272,-0.00896288,0.0217938,0.00763021,0.0235827,-0.0107518,1.34051,0.0202791,0.0469991,979,1611,0.954649,-0.504218
-238,-587,0.584106,0.37561,-0.0145431,0.0203433,0.00716251,0.0217566,-0.0159564,1.37598,0.0218592,0.0490366,986,1611,0.58411,-0.375567
-231,-587,-0.0778198,0.131836,0,0,0,0,0,0,0,-1,993,1611,-0.0778401,-0.131843
-224,-587,0.250183,-0.270264,-0.0250294,0.0148516,0.00747804,0.0162076,-0.0263855,1.3914,0.0248241,0.046477,1000,1611,0.250181,0.270282
-217,-587,0.569702,-0.666626,-0.0291142,0.00937062,0.00818668,0.0110397,-0.0307834,1.36967,0.0250274,0.0443626,1007,1611,0.569708,0.666686
-210,-587,0.905884,-1.13452,0,0,0,0,0,0,0,-1,1014,1611,0.905914,1.13448
-203,-587,1.38934,-1.95337,-0.0295252,-0.00375565,0.0141832,0.0025215,-0.0358023,1.15413,0.0247516,0.0461075,1021,1611,1.38936,1.95331
-196,-587,1.328,-1.95642,-0.0270416,-0.0110475,0.0186658,0.0012623,-0.0393513,0.987785,0.0266649,0.045391,1028,1611,1.32798,1.95643
-189,-587,1.1637,-1.88745,0,0,0,0,0,0,0,-1,1035,1611,1.16367,1.88751
-182,-587,0.846191,-3.01038,0,0,0,0,0,0,0,-1,1042,1611,0.846207,3.01036
-175,-587,1.22717,-2.86157,-0.00535508,-0.0220697,0.0329187,0.0202506,-0.0476754,0.661086,0.0402685,0.0425327,1049,1611,1.2272,2.86153
-168,-587,1.4845,-3.15527,0.00347488,-0.0234129,0.0355769,0.0280632,-0.0480013,0.60475,0.0444159,0.0415265,1056,1611,1.48452,3.15526
-161,-587,1.95215,-3.22314,0.0121174,-0.0236909,0.0371826,0.0354819,-0.0470554,0.561021,0.0478089,0.0436127,1063,1611,1.95218,3.2231
-154,-587,2.27905,-3.54871,0,0,0,0,0,0,0,-1,1070,1611,2.2791,3.54868
-147,-587,0,0,0,0,0,0,0,0,0,-1,1077,1611,0,0
-140,-587,0,0,0,0,0,0,0,0,0,-1,1084,1611,0,0
-133,-587,0,0,0,0,0,0,0,0,0,-1,1091,1611,0,0
-126,-587,0,0,0,0,0,0,0,0,0,-1,1098,1611,0,0
-119,-587,0,0,0,0,0,0,0,0,0,-1,1105,1611,0,0
-112,-587,0,0,0,0,0,0,0,0,0,-1,1112,1611,0,0
-105,-587,0,0,0,0,0,0,0,0,0,-1,1119,1611,0,0
-98,-587,0,0,0,0,0,0,0,0,0,-1,1126,1611,0,0
-91,-587,0,0,0,0,0,0,0,0,0,-1,1133,1611,0,0
-84,-587,0,0,0,0,0,0,0,0,0,-1,1140,1611,0,0
-77,-587,0,0,0,0,0,0,0,0,0,-1,1147,1611,0,0
-70,-587,0,0,0,0,0,0,0,0,0,-1,1154,1611,0,0
-63,-587,0,0,0,0,0,0,0,0,0,-1,1161,1611,0,0
-56,-587,0,0,0,0,0,0,0,0,0,-1,1168,1611,0,0
-49,-587,0,0,0,0,0,0,0,0,0,-1,1175,1611,0,0
-42,-587,0,0,0,0,0,0,0,0,0,-1,1182,1611,0,0
-35,-587,0,0,0,0,0,0,0,0,0,-1,1189,1611,0,0
-28,-587,0,0,0,0,0,0,0,0,0,-1,1196,1611,0,0
-21,-587,0,0,0,0,0,0,0,0,0,-1,1203,1611,0,0
-14,-587,0,0,0,0,0,0,0,0,0,-1,1210,1611,0,0
-7,-587,0,0,0,0,0,0,0,0,0,-1,1217,1611,0,0
0,-587,0,0,0,0,0,0,0,0,0,-1,1224,1611,0,0
7,-587,0,0,0,0,0,0,0,0,0,-1,1231,1611,0,0
14,-587,0,0,0,0,0,0,0,0,0,-1,1238,1611,0,0
21,-587,0,0,0,0,0,0,0,0,0,-1,1245,1611,0,0
28,-587,0,0,0,0,0,0,0,0,0,-1,1252,1611,0,0
35,-587,0,0,0,0,0,0,0,0,0,-1,1259,1611,0,0
42,-587,0,0,0,0,0,0,0,0,0,-1,1266,1611,0,0
49,-587,0,0,0,0,0,0,0,0,0,-1,1273,1611,0,0
56,-587,0,0,0,0,0,0,0,0,0,-1,1280,1611,0,0
63,-587,0,0,0,0,0,0,0,0,0,-1,1287,1611,0,0
70,-587,0,0,0,0,0,0,0,0,0,-1,1294,1611,0,0
77,-587,0,0,0,0,0,0,0,0,0,-1,1301,1611,0,0
84,-587,0,0,0,0,0,0,0,0,0,-1,1308,1611,0,0
91,-587,0,0,0,0,0,0,0,0,0,-1,1315,1611,0,0
98,-587,0,0,0,0,0,0,0,0,0,-1,1322,1611,0,0
105,-587,0,0,0,0,0,0,0,0,0,-1,1329,1611,0,0
112,-587,0,0,0,0,0,0,0,0,0,-1,1336,1611,0,0
119,-587,0,0,0,0,0,0,0,0,0,-1,1343,1611,0,0
126,-587,0,0,0,0,0,0,0,0,0,-1,1350,1611,0,0
133,-587,0,0,0,0,0,0,0,0,0,-1,1357,1611,0,0
140,-587,0,0,0,0,0,0,0,0,0,-1,1364,1611,0,0
147,-587,0,0,0,0,0,0,0,0,0,-1,1371,1611,0,0
154,-587,0,0,0,0,0,0,0,0,0,-1,1378,1611,0,0
161,-587,0,0,0,0,0,0,0,0,0,-1,1385,1611,0,0
168,-587,0,0,0,0,0,0,0,0,0,-1,1392,1611,0,0
175,-587,0,0,0,0,0,0,0,0,0,-1,1399,1611,0,0
182,-587,0,0,0,0,0,0,0,0,0,-1,1406,1611,0,0
189,-587,0,0,0,0,0,0,0,0,0,-1,1413,1611,0,0
196,-587,0,0,0,0,0,0,0,0,0,-1,1420,1611,0,0
203,-587,0,0,0,0,0,0,0,0,0,-1,1427,1611,0,0
210,-587,0,0,0,0,0,0,0,0,0,-1,1434,1611,0,0
217,-587,0,0,0,0,0,0,0,0,0,-1,1441,1611,0,0
224,-587,0,0,0,0,0,0,0,0,0,-1,1448,1611,0,0
231,-587,0,0,0,0,0,0,0,0,0,-1,1455,1611,0,0
238,-587,0,0,0,0,0,0,0,0,0,-1,1462,1611,0,0
245,-587,0,0,0,0,0,0,0,0,0,-1,1469,1611,0,0
252,-587,0,0,0,0,0,0,0,0,0,-1,1476,1611,0,0
259,-587,0,0,0,0,0,0,0,0,0,-1,1483,1611,0,0
266,-587,0,0,0,0,0,0,0,0,0,-1,1490,1611,0,0
273,-587,-0.100708,-0.571167,0,0,0,0,0,0,0,-1,1497,1611,-0.100701,0.571202
280,-587,-0.183472,-0.564209,-0.00597146,0.00277838,-0.00043411,0.00279987,-0.00599294,-1.52134,0.00518691,0.041571,1504,1611,-0.183518,0.564187
287,-587,-0.332886,-0.387939,-0.00634794,0.00284355,0.0007912,0.00291116,-0.00641555,1.48555,0.00551002,0.0371336,1511,1611,-0.332925,0.387896
294,-587,-0.0860596,0.0159912,-0.00784577,0.00301402,0.00148263,0.00321279,-0.00804455,1.43752,0.00669601,0.0408868,1518,1611,-0.0860208,-0.0160302
301,-587,0.00634766,-0.0109863,-0.00824088,0.00386935,0.00108536,0.00396585,-0.00833739,1.48211,0.0072512,0.0428464,1525,1611,0.00632851,0.0109598
308,-587,-0.13855,-0.0513916,-0.00659799,0.00390011,0.000276486,0.00390739,-0.00660527,1.54448,0.00613575,0.0423723,1532,1611,-0.138597,0.0514394
315,-587,-0.0649414,-0.310181,-0.00438773,0.00393307,-0.00133809,0.00414296,-0.00459762,-1.41521,0.00504865,0.0469421,1539,1611,-0.0649029,0.310224
322,-587,-0.325317,0.0693359,0,0,0,0,0,0,0,-1,1546,1611,-0.325285,-0.0693215
329,-587,-1.29102,1.6377,0.000851169,0.00305448,-0.00698278,0.00902198,-0.00511632,-0.863637,0.00826592,0.048171,1553,1611,-1.29099,-1.63771
336,-587,-1.3844,1.62109,0.00283367,0.00233586,-0.0083966,0.0109851,-0.00581553,-0.770581,0.00985169,0.0490171,1560,1611,-1.38437,-1.62106
343,-587,-1.44739,1.70605,0.00303167,0.00131922,-0.008689,0.0109065,-0.00655564,-0.736286,0.0101856,0.0464261,1567,1611,-1.44734,-1.70606
350,-587,-0.347534,2.39307,0.0028342,0.000549967,-0.00816019,0.00993181,-0.00654764,-0.715869,0.00958106,0.042431,1574,1611,-0.347578,-2.39308
357,-587,-0.117432,1.65271,0.0025874,-0.000460411,-0.00737874,0.00859795,-0.00647096,-0.683567,0.00872888,0.0425835,1581,1611,-0.117424,-1.65265
364,-587,0.00195313,0.570557,0,0,0,0,0,0,0,-1,1588,1611,0.00194689,-0.570609
371,-587,-0.173218,0.282471,0.000501723,-0.000257773,-0.00485661,0.00499341,-0.00474946,-0.746382,0.00562564,0.0447057,1595,1611,-0.173277,-0.282525
378,-587,-0.495483,0.172241,-0.00165518,-0.00173279,-0.00286737,0.00117365,-0.00456161,-0.778632,0.00349854,0.0448122,1602,1611,-0.495502,-0.172246
385,-587,0.144775,-0.335815,-0.00387006,-0.000566891,-0.000486157,-0.000496825,-0.00394013,-1.42766,0.0024778,0.0444961,1609,1611,0.144813,0.335791
392,-587,-1.67566,0.279663,-0.00561819,0.000717741,0.00200822,0.00130063,-0.00620108,1.2883,0.00462892,0.0436474,1616,1611,-1.6757,-0.279679
399,-587,0.0898438,-0.193359,0,0,0,0,0,0,0,-1,1623,1611,0.0898343,0.19338
406,-587,-0.0111084,-0.19812,-0.0079827,0.00392538,0.00504058,0.0057725,-0.00982981,1.21954,0.00910896,0.0390051,1630,1611,-0.0111228,0.19807
413,-587,-0.0523682,-0.122437,-0.00834502,0.00506214,0.00540986,0.00697277,-0.0102557,1.2313,0.0100068,0.0319015,1637,1611,-0.0523827,0.122424
420,-587,-0.101563,-0.0960693,-0.0070126,0.00535135,0.00488648,0.00704938,-0.00871063,1.23635,0.00911589,0.0267811,1644,1611,-0.101579,0.0960396
427,-587,-0.0482178,-0.098999,-0.00556568,0.00538049,0.00440179,0.00693096,-0.00711615,1.23213,0.00811034,0.0188638,1651,1611,-0.0482702,0.0989903
434,-587,-0.0374756,-0.107788,-0.00451256,0.00530028,0.0035785,0.00646664,-0.00567891,1.25572,0.00701715,0.0130559,1658,1611,-0.0374476,0.107738
441,-587,-0.0310059,-0.0872803,-0.00359926,0.00522283,0.0026208,0.00594266,-0.0043191,1.30274,0.00594929,0.0156957,1665,1611,-0.0310409,0.0872862
448,-587,-0.0212402,-0.0648193,-0.00224719,0.00474313,0.00163373,0.0051061,-0.00261017,1.35217,0.00453201,0.0136148,1672,1611,-0.021212,0.0648031
455,-587,-0.00817871,-0.0539551,-0.00169221,0.00402707,0.000830028,0.0041451,-0.00181024,1.42955,0.0035253,0.0130394,1679,1611,-0.00814113,0.0539146
462,-587,-0.0357666,-0.0662842,-0.00152511,0.00368179,0.000607425,0.00375171,-0.00159503,1.45619,0.00316955,0.0164978,1686,1611,-0.0358047,0.0662757
469,-587,-0.03125,-0.0742188,-0.00114141,0.00371996,0.00081978,0.00385448,-0.00127592,1.40815,0.00308423,0.0147388,1693,1611,-0.0312317,0.0741987
476,-587,-0.00817871,-0.0715332,-0.000699842,0.00378798,0.000946683,0.0039795,-0.000891366,1.37118,0.00299467,0.0102686,1700,1611,-0.00823713,0.0715038
483,-587,-0.0323486,-0.0722656,-0.000417821,0.00403728,0.00116264,0.00432243,-0.000702979,1.33028,0.00314227,0.0129946,1707,1611,-0.0323002,0.0723186
490,-587,-0.0500488,-0.0797119,3.08417e-05,0.0044788,0.00143141,0.00489963,-0.000389989,1.28486,0.00340387,0.0148644,1714,1611,-0.0500795,0.0797443
497,-587,-0.0428467,-0.0817871,0.000534787,0.00504274,0.00175828,0.00564743,-6.99e-05,1.23956,0.00378847,0.0116964,1721,1611,-0.0428369,0.0818033
504,-587,-0.0355225,-0.0792236,0.00106858,0.00590774,0.00212938,0.0067113,0.000265024,1.20995,0.00438852,0.0120117,1728,1611,-0.0354962,0.0791657
511,-587,-0.0314941,-0.0894775,0.00173764,0.00648931,0.00248466,0.00755122,0.000675719,1.1669,0.00482471,0.0135845,1735,1611,-0.0314962,0.0894442
518,-587,-0.00720215,-0.086792,0.00232454,0.00732455,0.00289261,0.00864779,0.0010013,1.14176,0.00546211,0.0129644,1742,1611,-0.0071861,0.086841
525,-587,0.00976563,-0.0625,0.00268375,0.00807665,0.00346778,0.00977296,0.000987444,1.11586,0.00621237,0.0156881,1749,1611,0.00981967,0.0624543
532,-587,-0.050293,-0.0793457,0.00283214,0.00857855,0.00396246,0.0105999,0.000810824,1.09909,0.00681241,0.0268167,1756,1611,-0.0503312,0.0793685
539,-587,-0.0738525,-0.126099,0.00286055,0.00922743,0.00458899,0.0116291,0.000458905,1.08865,0.00760437,0.0384982,1763,1611,-0.0738804,0.126097
546,-587,0.0787354,-0.182861,0.00325395,0.0109046,0.00553263,0.0138056,0.000352986,1.08787,0.00908836,0.0446258,1770,1611,0.0787523,0.182865
553,-587,0.224731,-0.234985,0.00377398,0.0133318,0.0068579,0.0169117,0.000194143,1.0897,0.0112103,0.0465337,1777,1611,0.224779,0.234944
560,-587,0.247925,-0.335205,0.00427644,0.0164303,0.00856142,0.0208523,-0.000145529,1.09404,0.0139503,0.0433153,1784,1611,0.247957,0.335227
567,-587,0.159546,-0.243408,0.0055845,0.0200611,0.0110914,0.0260671,-0.000421506,1.0745,0.0175202,0.0419621,1791,1611,0.159575,0.243354
574,-587,0.0292969,0.0065918,0.00746436,0.02498,0.0134564,0.0322776,0.000166854,1.07388,0.021463,0.042617,1798,1611,0.0292693,-0.00660292
581,-587,-0.256226,0.380371,0,0,0,0,0,0,0,-1,1805,1611,-0.256218,-0.380331
588,-587,0,0,0,0,0,0,0,0,0,-1,1812,1611,0,0
595,-587,0,0,0,0,0,0,0,0,0,-1,1819,1611,0,0
602,-587,0,0,0,0,0,0,0,0,0,-1,1826,1611,0,0
609,-587,0,0,0,0,0,0,0,0,0,-1,1833,1611,0,0
616,-587,0,0,0,0,0,0,0,0,0,-1,1840,1611,0,0
623,-587,0,0,0,0,0,0,0,0,0,-1,1847,1611,0,0
630,-587,0,0,0,0,0,0,0,0,0,-1,1854,1611,0,0
637,-587,0,0,0,0,0,0,0,0,0,-1,1861,1611,0,0
644,-587,0,0,0,0,0,0,0,0,0,-1,1868,1611,0,0
651,-587,0,0,0,0,0,0,0,0,0,-1,1875,1611,0,0
658,-587,0,0,0,0,0,0,0,0,0,-1,1882,1611,0,0
665,-587,0,0,0,0,0,0,0,0,0,-1,1889,1611,0,0
672,-587,0,0,0,0,0,0,0,0,0,-1,1896,1611,0,0
679,-587,0,0,0,0,0,0,0,0,0,-1,1903,1611,0,0
686,-587,0,0,0,0,0,0,0,0,0,-1,1910,1611,0,0
693,-587,0,0,0,0,0,0,0,0,0,-1,1917,1611,0,0
700,-587,0,0,0,0,0,0,0,0,0,-1,1924,1611,0,0
707,-587,0,0,0,0,0,0,0,0,0,-1,1931,1611,0,0
714,-587,0,0,0,0,0,0,0,0,0,-1,1938,1611,0,0
721,-587,0,0,0,0,0,0,0,0,0,-1,1945,1611,0,0
728,-587,0,0,0,0,0,0,0,0,0,-1,1952,1611,0,0
735,-587,0,0,0,0,0,0,0,0,0,-1,1959,1611,0,0
742,-587,0,0,0,0,0,0,0,0,0,-1,1966,1611,0,0
749,-587,0,0,0,0,0,0,0,0,0,-1,1973,1611,0,0
756,-587,0,0,0,0,0,0,0,0,0,-1,1980,1611,0,0
763,-587,0,0,0,0,0,0,0,0,0,-1,1987,1611,0,0
770,-587,0,0,0,0,0,0,0,0,0,-1,1994,1611,0,0
777,-587,0,0,0,0,0,0,0,0,0,-1,2001,1611,0,0
784,-587,0,0,0,0,0,0,0,0,0,-1,2008,1611,0,0
791,-587,0,0,0,0,0,0,0,0,0,-1,2015,1611,0,0
798,-587,0,0,0,0,0,0,0,0,0,-1,2022,1611,0,0
805,-587,0,0,0,0,0,0,0,0,0,-1,2029,1611,0,0
812,-587,0,0,0,0,0,0,0,0,0,-1,2036,1611,0,0
-700,-594,0,0,0,0,0,0,0,0,0,-1,524,1618,0,0
-693,-594,0,0,0,0,0,0,0,0,0,-1,531,1618,0,0
-686,-594,0,0,0,0,0,0,0,0,0,-1,538,1618,0,0
-679,-594,0,0,0,0,0,0,0,0,0,-1,545,1618,0,0
-672,-594,0,0,0,0,0,0,0,0,0,-1,552,1618,0,0
-665,-594,0,0,0,0,0,0,0,0,0,-1,559,1618,0,0
-658,-594,0,0,0,0,0,0,0,0,0,-1,566,1618,0,0
-651,-594,0,0,0,0,0,0,0,0,0,-1,573,1618,0,0
-644,-594,0,0,0,0,0,0,0,0,0,-1,580,1618,0,0
-637,-594,0,0,0,0,0,0,0,0,0,-1,587,1618,0,0
-630,-594,0,0,0,0,0,0,0,0,0,-1,594,1618,0,0
-623,-594,0,0,0,0,0,0,0,0,0,-1,601,1618,0,0
-616,-594,0,0,0,0,0,0,0,0,0,-1,608,1618,0,0
-609,-594,0,0,0,0,0,0,0,0,0,-1,615,1618,0,0
-602,-594,0,0,0,0,0,0,0,0,0,-1,622,1618,0,0
-595,-594,0,0,0,0,0,0,0,0,0,-1,629,1618,0,0
-588,-594,0,0,0,0,0,0,0,0,0,-1,636,1618,0,0
-581,-594,0,0,0,0,0,0,0,0,0,-1,643,1618,0,0
-574,-594,0,0,0,0,0,0,0,0,0,-1,650,1618,0,0
-567,-594,0,0,0,0,0,0,0,0,0,-1,657,1618,0,0
-560,-594,0,0,0,0,0,0,0,0,0,-1,664,1618,0,0
-553,-594,0,0,0,0,0,0,0,0,0,-1,671,1618,0,0
-546,-594,0,0,0,0,0,0,0,0,0,-1,678,1618,0,0
-539,-594,0,0,0,0,0,0,0,0,0,-1,685,1618,0,0
-532,-594,0,0,0,0,0,0,0,0,0,-1,692,1618,0,0
-525,-594,0,0,0,0,0,0,0,0,0,-1,699,1618,0,0
-518,-594,0,0,0,0,0,0,0,0,0,-1,706,1618,0,0
-511,-594,0,0,0,0,0,0,0,0,0,-1,713,1618,0,0
-504,-594,0,0,0,0,0,0,0,0,0,-1,720,1618,0,0
-497,-594,0,0,0,0,0,0,0,0,0,-1,727,1618,0,0
-490,-594,0,0,0,0,0,0,0,0,0,-1,734,1618,0,0
-483,-594,0,0,0,0,0,0,0,0,0,-1,741,1618,0,0
-476,-594,0,0,0,0,0,0,0,0,0,-1,748,1618,0,0
-469,-594,0,0,0,0,0,0,0,0,0,-1,755,1618,0,0
-462,-594,0,0,0,0,0,0,0,0,0,-1,762,1618,0,0
-455,-594,2.74603,-2.50598,-0.0273564,0.0518438,0.00430457,0.0520771,-0.0275897,1.51666,0.0467143,0.0458823,769,1618,2.74602,2.50593
-448,-594,1.55243,-1.66113,-0.0136656,0.0396652,-0.00153627,0.0397095,-0.0137098,-1.54202,0.0320362,0.04639,776,1618,1.55244,1.66109
-441,-594,0.0794067,0.137817,0,0,0,0,0,0,0,-1,783,1618,0.0794037,-0.137825
-434,-594,0.020874,-0.0124512,0.0026437,0.0290956,-0.0106542,0.0328531,-0.00111379,-1.23174,0.0222826,0.0434132,790,1618,0.0208975,0.0124519
-427,-594,-0.0917358,-0.193848,0.00543762,0.0260583,-0.0131986,0.0324963,-0.00100036,-1.11697,0.0220052,0.0387294,797,1618,-0.0917431,0.193852
-420,-594,-0.0931396,-0.338501,0.00616341,0.0247543,-0.0140669,0.0323195,-0.00140184,-1.07736,0.0220285,0.0419089,804,1618,-0.0931415,0.338502
-413,-594,-0.046814,-0.237305,0.00534891,0.0236895,-0.014177,0.0314036,-0.00236514,-1.07248,0.021767,0.0451608,811,1618,-0.0468111,0.237304
-406,-594,0.112,-0.074585,0.00300789,0.0226948,-0.0132822,0.0293834,-0.00368073,-1.10429,0.020924,0.0478998,818,1618,0.111988,0.0745846
-399,-594,0.175964,-0.175903,0.00066953,0.0203981,-0.011866,0.0259645,-0.00489689,-1.13217,0.0191518,0.0452484,825,1618,0.175948,0.175866
-392,-594,0.1521,-0.20166,-0.00168256,0.0194914,-0.0108966,0.0240971,-0.00628833,-1.17089,0.0185202,0.0393811,832,1618,0.152112,0.201697
-385,-594,0.0349121,-0.136108,-0.00445647,0.0171701,-0.00819485,0.0199245,-0.0072109,-1.24654,0.0162297,0.0259026,839,1618,0.034925,0.136073
-378,-594,-0.0422363,-0.0709229,-0.00642675,0.014315,-0.00613521,0.0159938,-0.0081056,-1.30369,0.0141601,0.0107163,846,1618,-0.0422284,0.0709396
-371,-594,-0.046814,-0.0534668,-0.0078477,0.011302,-0.00369546,0.0119904,-0.00853609,-1.38663,0.0119068,0.0105293,853,1618,-0.0468349,0.0535045
-364,-594,-0.010437,-0.0623779,-0.00830288,0.00821339,-0.00220159,0.00850182,-0.00859131,-1.44053,0.00986877,0.00957194,860,1618,-0.010442,0.0624206
-357,-594,0.00793457,-0.0783691,-0.00738764,0.00534292,-0.00076092,0.00538824,-0.00743295,-1.51131,0.00743363,0.00957541,867,1618,0.00793934,0.0783281
-350,-594,-0.00787354,-0.0710449,-0.00609159,0.00344551,6.01724e-05,0.00344589,-0.00609197,1.56449,0.00557688,0.0134108,874,1618,-0.00784393,0.0710136
-343,-594,-0.0152588,-0.0657959,-0.00454004,0.00165241,0.00092461,0.00178752,-0.00467515,1.4257,0.00385338,0.0126647,881,1618,-0.0152861,0.0657407
-336,-594,-0.02771,-0.0588379,-0.00259228,0.000260265,0.00142095,0.000847287,-0.00317931,1.17903,0.00245127,0.0104208,888,1618,-0.0276968,0.0588245
-329,-594,-0.0293579,-0.0518799,-0.000637348,0.000100201,0.00140144,0.00118058,-0.00171773,0.914051,0.00168289,0.0121549,895,1618,-0.0293561,0.0518274
-322,-594,-0.0150757,-0.0537109,0.000938011,0.000129259,0.00144838,0.00203741,-0.000970136,0.649269,0.00177247,0.0142575,902,1618,-0.0151023,0.0536944
-315,-594,-0.00457764,-0.0567627,0.0022529,0.000489588,0.0018075,0.00338231,-0.000639817,0.558487,0.00249564,0.0139885,909,1618,-0.00460022,0.0567193
-308,-594,-0.000244141,-0.0686035,0.00328612,0.00132357,0.00250279,0.00499313,-0.000383433,0.598571,0.00346364,0.0138624,916,1618,-0.000261721,0.0686313
-301,-594,-0.00695801,-0.0789795,0.0039043,0.00340452,0.00344035,0.00710382,0.000204999,0.749144,0.00466904,0.0114542,923,1618,-0.00695627,0.0789904
-294,-594,0.000244141,-0.0784912,0.00419467,0.00521859,0.00462247,0.00935736,5.5898e-05,0.84055,0.00621969,0.00965155,930,1618,0.000220979,0.0785389
-287,-594,0.00567627,-0.057373,0.00394326,0.00767225,0.005877,0.0119734,-0.000357921,0.939003,0.00810423,0.0102821,937,1618,0.00566822,0.0573812
-280,-594,-0.0161133,-0.0406494,0.00379478,0.0105694,0.00699714,0.014956,-0.000591828,1.01082,0.0101737,0.0142878,944,1618,-0.0160983,0.0406024
-273,-594,0.00518799,-0.0493164,0.00361349,0.0134202,0.00762116,0.0175791,-0.000545446,1.07125,0.0119054,0.0237447,951,1618,0.00517684,0.0493232
-266,-594,0.112976,0.0300293,0.0027435,0.0154064,0.00766985,0.0190205,-0.000870605,1.13045,0.0129803,0.0321552,958,1618,0.112961,-0.0300747
-259,-594,0.425476,0.24585,0.000616389,0.016308,0.00806919,0.0197169,-0.00279251,1.17108,0.0141675,0.0368208,965,1618,0.425483,-0.24585
-252,-594,0.704224,0.363159,-0.00143804,0.0161089,0.00828819,0.0194047,-0.00473387,1.19232,0.0147695,0.0431982,972,1618,0.704245,-0.363135
-245,-594,0.375854,0.386963,-0.00545854,0.0179135,0.00727363,0.0199922,-0.00753729,1.29242,0.0164274,0.0441784,979,1618,0.37586,-0.386909
-238,-594,-0.092041,0.203857,-0.0100507,0.0160108,0.0066741,0.0176205,-0.0116604,1.33412,0.0170217,0.0452163,986,1618,-0.0920294,-0.203814
-231,-594,-0.0220337,-0.0206299,0,0,0,0,0,0,0,-1,993,1618,-0.0220388,0.0206819
-224,-594,0.304443,-0.357056,-0.0194372,0.00984791,0.00663857,0.0112825,-0.0208718,1.35797,0.0188375,0.0441974,1000,1618,0.304468,0.35706
-217,-594,0.611694,-0.751221,-0.0232049,0.00499286,0.00720674,0.00672798,-0.0249401,1.33453,0.019265,0.0467789,1007,1618,0.611705,0.751214
-210,-594,0.881226,-1.19885,0,0,0,0,0,0,0,-1,1014,1618,0.881226,1.1989
-203,-594,1.0575,-1.27234,-0.0241856,-0.00602257,0.0128333,0.000617446,-0.0308256,1.09332,0.0207593,0.0452693,1021,1618,1.05751,1.27231
-196,-594,0.83252,-1.59961,-0.0227,-0.0119738,0.0167641,0.00026419,-0.0349379,0.940212,0.0233805,0.0457289,1028,1618,0.832463,1.59956
-189,-594,0.516235,-2.03186,-0.0187551,-0.015071,0.0216258,0.00479109,-0.0386171,0.827885,0.0274814,0.0495782,1035,1618,0.516281,2.03189
-182,-594,0.389282,-2.32617,-0.0127798,-0.0180069,0.0264428,0.0111783,-0.041965,0.736138,0.032353,0.0474658,1042,1618,0.389283,2.32619
-175,-594,0.526001,-2.38245,-0.00553997,-0.0196369,0.0299332,0.0181634,-0.0433403,0.669768,0.0364874,0.0430187,1049,1618,0.526041,2.38246
-168,-594,0.686646,-2.59338,0.00223306,-0.0201014,0.032182,0.0251302,-0.0429986,0.618397,0.0397826,0.0467921,1056,1618,0.686636,2.59341
-161,-594,1.11523,-2.86853,0.00944448,-0.0189686,0.0333291,0.0314685,-0.0409926,0.583933,0.0419557,0.0458895,1063,1618,1.11525,2.86849
-154,-594,0.711914,0.241699,0,0,0,0,0,0,0,-1,1070,1618,0.711934,-0.24175
-147,-594,0.692017,0.431519,0.0169779,-0.0119365,0.0291703,0.0350771,-0.0300357,0.555332,0.0376304,0.0391863,1077,1618,0.692001,-0.43151
-140,-594,0.680542,0.602295,0.0187635,-0.0132813,0.0277082,0.0347483,-0.0292661,0.52326,0.0370039,0.0398436,1084,1618,0.680499,-0.60234
-133,-594,0,0,0,0,0,0,0,0,0,-1,1091,1618,0,0
-126,-594,0,0,0,0,0,0,0,0,0,-1,1098,1618,0,0
-119,-594,0,0,0,0,0,0,0,0,0,-1,1105,1618,0,0
-112,-594,0,0,0,0,0,0,0,0,0,-1,1112,1618,0,0
-105,-594,0,0,0,0,0,0,0,0,0,-1,1119,1618,0,0
-98,-594,0,0,0,0,0,0,0,0,0,-1,1126,1618,0,0
-91,-594,0,0,0,0,0,0,0,0,0,-1,1133,1618,0,0
-84,-594,0,0,0,0,0,0,0,0,0,-1,1140,1618,0,0
-77,-594,0,0,0,0,0,0,0,0,0,-1,1147,1618,0,0
-70,-594,0,0,0,0,0,0,0,0,0,-1,1154,1618,0,0
-63,-594,0,0,0,0,0,0,0,0,0,-1,1161,1618,0,0
-56,-594,0,0,0,0,0,0,0,0,0,-1,1168,1618,0,0
-49,-594,0,0,0,0,0,0,0,0,0,-1,1175,1618,0,0
-42,-594,0,0,0,0,0,0,0,0,0,-1,1182,1618,0,0
-35,-594,0,0,0,0,0,0,0,0,0,-1,1189,1618,0,0
-28,-594,0,0,0,0,0,0,0,0,0,-1,1196,1618,0,0
-21,-594,0,0,0,0,0,0,0,0,0,-1,1203,1618,0,0
-14,-594,0,0,0,0,0,0,0,0,0,-1,1210,1618,0,0
-7,-594,0,0,0,0,0,0,0,0,0,-1,1217,1618,0,0
0,-594,0,0,0,0,0,0,0,0,0,-1,1224,1618,0,0
7,-594,0,0,0,0,0,0,0,0,0,-1,1231,1618,0,0
14,-594,0,0,0,0,0,0,0,0,0,-1,1238,1618,0,0
21,-594,0,0,0,0,0,0,0,0,0,-1,1245,1618,0,0
28,-594,0,0,0,0,0,0,0,0,0,-1,1252,1618,0,0
35,-594,0,0,0,0,0,0,0,0,0,-1,1259,1618,0,0
42,-594,0,0,0,0,0,0,0,0,0,-1,1266,1618,0,0
49,-594,0,0,0,0,0,0,0,0,0,-1,1273,1618,0,0
56,-594,0,0,0,0,0,0,0,0,0,-1,1280,1618,0,0
63,-594,0,0,0,0,0,0,0,0,0,-1,1287,1618,0,0
70,-594,0,0,0,0,0,0,0,0,0,-1,1294,1618,0,0
77,-594,0,0,0,0,0,0,0,0,0,-1,1301,1618,0,0
84,-594,0,0,0,0,0,0,0,0,0,-1,1308,1618,0,0
91,-594,0,0,0,0,0,0,0,0,0,-1,1315,1618,0,0
98,-594,0,0,0,0,0,0,0,0,0,-1,1322,1618,0,0
105,-594,0,0,0,0,0,0,0,0,0,-1,1329,1618,0,0
112,-594,0,0,0,0,0,0,0,0,0,-1,1336,1618,0,0
119,-594,0,0,0,0,0,0,0,0,0,-1,1343,1618,0,0
126,-594,0,0,0,0,0,0,0,0,0,-1,1350,1618,0,0
133,-594,0,0,0,0,0,0,0,0,0,-1,1357,1618,0,0
140,-594,0,0,0,0,0,0,0,0,0,-1,1364,1618,0,0
147,-594,0,0,0,0,0,0,0,0,0,-1,1371,1618,0,0
154,-594,0,0,0,0,0,0,0,0,0,-1,1378,1618,0,0
161,-594,0,0,0,0,0,0,0,0,0,-1,1385,1618,0,0
168,-594,0,0,0,0,0,0,0,0,0,-1,1392,1618,0,0
175,-594,0,0,0,0,0,0,0,0,0,-1,1399,1618,0,0
182,-594,0,0,0,0,0,0,0,0,0,-1,1406,1618,0,0
189,-594,0,0,0,0,0,0,0,0,0,-1,1413,1618,0,0
196,-594,0,0,0,0,0,0,0,0,0,-1,1420,1618,0,0
203,-594,0,0,0,0,0,0,0,0,0,-1,1427,1618,0,0
210,-594,0,0,0,0,0,0,0,0,0,-1,1434,1618,0,0
217,-594,0,0,0,0,0,0,0,0,0,-1,1441,1618,0,0
224,-594,0,0,0,0,0,0,0,0,0,-1,1448,1618,0,0
231,-594,0,0,0,0,0,0,0,0,0,-1,1455,1618,0,0
238,-594,0,0,0,0,0,0,0,0,0,-1,1462,1618,0,0
245,-594,0,0,0,0,0,0,0,0,0,-1,1469,1618,0,0
252,-594,0.214233,0.289795,-0.00820662,-0.0128906,0.00451469,-0.00546262,-0.0156346,0.54613,0.00916214,0.0417694,1476,1618,0.214274,-0.28982
259,-594,-0.0345459,0.346558,0,0,0,0,0,0,0,-1,1483,1618,-0.0345811,-0.3466
266,-594,-0.189453,0.186523,0,0,0,0,0,0,0,-1,1490,1618,-0.189426,-0.186538
273,-594,0.0498047,-0.259155,0,0,0,0,0,0,0,-1,1497,1618,0.0498152,0.259125
280,-594,-0.0137939,-0.168701,-0.00665603,0.00288858,0.00283694,0.00366814,-0.00743558,1.30263,0.00653258,0.0397098,1504,1618,-0.0137671,0.168696
287,-594,-0.173584,-0.0153809,-0.00715286,0.00319959,0.00331964,0.00417262,-0.00812589,1.28567,0.00722179,0.0359107,1511,1618,-0.173572,0.0153897
294,-594,0.043457,0.0393066,-0.00828275,0.00321536,0.00386141,0.00439177,-0.00945916,1.27507,0.00817329,0.0432288,1518,1618,0.043477,-0.0393115
301,-594,0.127319,-0.189819,-0.00834337,0.00373512,0.0031258,0.0044961,-0.00910435,1.33199,0.00800106,0.0451626,1525,1618,0.127377,0.18979
308,-594,0.0405273,-0.166626,-0.00669199,0.00385689,0.00190477,0.00419029,-0.00702539,1.39752,0.00654397,0.0430822,1532,1618,0.0405804,0.166618
315,-594,-0.0567627,-0.0621338,-0.00468382,0.00421959,-8.57985e-05,0.00422041,-0.00468465,-1.56116,0.00514367,0.0466685,1539,1618,-0.0568114,0.0621229
322,-594,-0.185791,0.0444336,-0.00253738,0.00465486,-0.00284267,0.00564272,-0.00352524,-1.23634,0.00533997,0.0490455,1546,1618,-0.18578,-0.0444357
329,-594,-0.774292,1.24146,0,0,0,0,0,0,0,-1,1553,1618,-0.774296,-1.2415
336,-594,-1.25146,1.63513,0,0,0,0,0,0,0,-1,1560,1618,-1.25143,-1.63517
343,-594,-0.140869,3.17859,0,0,0,0,0,0,0,-1,1567,1618,-0.140852,-3.17861
350,-594,-0.172241,2.61292,0.00198221,0.00289616,-0.00837423,0.0108259,-0.00594751,-0.812656,0.00981969,0.0422755,1574,1618,-0.172284,-2.61289
357,-594,-0.133179,1.86194,0.00187376,0.00194538,-0.00801011,0.00991976,-0.00610062,-0.787633,0.00933657,0.0426151,1581,1618,-0.133176,-1.86193
364,-594,-0.0854492,0.930054,0,0,0,0,0,0,0,-1,1588,1618,-0.0854663,-0.93004
371,-594,-0.0616455,0.310791,0.000435456,0.00138793,-0.00622993,0.0071598,-0.00533641,-0.823546,0.00724025,0.0431192,1595,1618,-0.0616479,-0.310821
378,-594,-0.00915527,-0.178345,-0.00123029,-0.000240078,-0.00455141,0.00384308,-0.00531344,-0.839575,0.00530919,0.043567,1602,1618,-0.00911413,0.1783
385,-594,0.181641,-0.210327,-0.00300869,0.000165022,-0.00235977,0.00142187,-0.00426554,-1.0814,0.0034177,0.0409413,1609,1618,0.181679,0.21033
392,-594,0.269897,-0.122559,-0.004427,0.000700826,3.49233e-05,0.000701064,-0.00442724,1.56399,0.0032108,0.0431508,1616,1618,0.269874,0.122521
399,-594,0.196167,0.027832,-0.00542019,0.00190085,0.0016089,0.00223882,-0.00575817,1.36374,0.00476377,0.0393449,1623,1618,0.196204,-0.0278227
406,-594,0.0709229,-0.0461426,-0.0064484,0.00291462,0.003285,0.00395219,-0.00748596,1.26486,0.00670805,0.0243363,1630,1618,0.0709309,0.0461252
413,-594,-0.0090332,-0.0784912,-0.00671003,0.00371609,0.00394439,0.00504016,-0.00803411,1.24693,0.00761412,0.0172328,1637,1618,-0.00898005,0.0784736
420,-594,-0.0291748,-0.0734863,-0.00539636,0.00381963,0.00377538,0.00516874,-0.00674548,1.22759,0.00689873,0.0138979,1644,1618,-0.0291794,0.0734484
427,-594,-0.02771,-0.0831299,-0.00408041,0.00374731,0.00361441,0.00516094,-0.00549405,1.19798,0.00615266,0.0107555,1651,1618,-0.0277258,0.0831075
434,-594,-0.0396729,-0.0881348,-0.00328054,0.00366173,0.00309223,0.00483932,-0.00445814,1.20693,0.00536939,0.0156655,1658,1618,-0.039614,0.0881703
441,-594,-0.0333252,-0.0776367,-0.00260579,0.0035873,0.00244915,0.00443879,-0.00345728,1.2362,0.00457052,0.0158991,1665,1618,-0.033348,0.0776909
448,-594,-0.00219727,-0.0632324,-0.00161975,0.00321662,0.00180907,0.00381843,-0.00222156,1.24965,0.00352758,0.0144217,1672,1618,-0.00224591,0.0631812
455,-594,-0.00646973,-0.0714111,-0.00157177,0.00277268,0.00130062,0.00313228,-0.00193137,1.30105,0.00295078,0.010998,1679,1618,-0.00641537,0.071385
462,-594,-0.0233154,-0.0858154,-0.00179671,0.00274014,0.00120382,0.00303978,-0.00209635,1.32685,0.00298197,0.0129326,1686,1618,-0.0232875,0.0858522
469,-594,-0.0167236,-0.0760498,-0.00173879,0.00339864,0.00152283,0.00381611,-0.00215626,1.30323,0.00349226,0.0112262,1693,1618,-0.0167382,0.0760129
476,-594,-0.0228271,-0.0697021,-0.00148893,0.00393339,0.00177987,0.00446542,-0.00202097,1.28033,0.00383254,0.0117908,1700,1618,-0.0228836,0.0696979
483,-594,-0.0268555,-0.0823975,-0.00132835,0.00468563,0.00209218,0.00534187,-0.00198459,1.26686,0.00437546,0.0155581,1707,1618,-0.026866,0.0824392
490,-594,-0.0357666,-0.0875244,-0.000894416,0.00562533,0.00249358,0.00646969,-0.00173877,1.2443,0.00499464,0.012781,1714,1618,-0.0357496,0.0874871
497,-594,-0.0350342,-0.0830078,-0.000352871,0.00666307,0.00296726,0.00774971,-0.00143951,1.21975,0.00570715,0.0091439,1721,1618,-0.0350294,0.0830421
504,-594,-0.0401611,-0.0791016,0.000317505,0.00797538,0.00350651,0.00933839,-0.00104551,1.20006,0.00660175,0.00944276,1728,1618,-0.0401828,0.0791155
511,-594,-0.0336914,-0.0812988,0.0012251,0.00888033,0.00401285,0.0105983,-0.000492876,1.16629,0.00723543,0.0113072,1735,1618,-0.0336946,0.0813387
518,-594,-0.0308838,-0.0916748,0.00210371,0.0100386,0.00459456,0.0121416,6.83125e-07,1.14154,0.00809417,0.0150449,1742,1618,-0.0309165,0.0916743
525,-594,-0.0012207,-0.0311279,0.00279253,0.0110396,0.0053621,0.0136803,0.000151771,1.11318,0.00907005,0.0266755,1749,1618,-0.00120261,0.0311624
532,-594,-0.286743,-0.237427,0,0,0,0,0,0,0,-1,1756,1618,-0.286747,0.237426
539,-594,0.109497,-0.232788,0.0036957,0.0121805,0.00696274,0.0160915,-0.000215301,1.05901,0.0108001,0.0450702,1763,1618,0.109502,0.232769
546,-594,0.141479,-0.175415,0.00426953,0.0135322,0.00813674,0.0182634,-0.00046159,1.04413,0.0123323,0.0450575,1770,1618,0.141507,0.17536
553,-594,0.165527,-0.278076,0.00479997,0.0155716,0.00978047,0.0213511,-0.00097955,1.03708,0.0145716,0.0442782,1777,1618,0.165551,0.278083
560,-594,0.480469,-0.617432,0.00526328,0.0183662,0.0119155,0.0254125,-0.00178305,1.03675,0.0175662,0.0428195,1784,1618,0.48043,0.617379
567,-594,0.348633,0.966675,0,0,0,0,0,0,0,-1,1791,1618,0.34858,-0.966735
574,-594,0.34021,-0.445557,0,0,0,0,0,0,0,-1,1798,1618,0.340198,0.445578
581,-594,0,0,0,0,0,0,0,0,0,-1,1805,1618,0,0
588,-594,0,0,0,0,0,0,0,0,0,-1,1812,1618,0,0
595,-594,0,0,0,0,0,0,0,0,0,-1,1819,1618,0,0
602,-594,0,0,0,0,0,0,0,0,0,-1,1826,1618,0,0
609,-594,0,0,0,0,0,0,0,0,0,-1,1833,1618,0,0
616,-594,0,0,0,0,0,0,0,0,0,-1,1840,1618,0,0
623,-594,0,0,0,0,0,0,0,0,0,-1,1847,1618,0,0
630,-594,0,0,0,0,0,0,0,0,0,-1,1854,1618,0,0
637,-594,0,0,0,0,0,0,0,0,0,-1,1861,1618,0,0
644,-594,0,0,0,0,0,0,0,0,0,-1,1868,1618,0,0
651,-594,0,0,0,0,0,0,0,0,0,-1,1875,1618,0,0
658,-594,0,0,0,0,0,0,0,0,0,-1,1882,1618,0,0
665,-594,0,0,0,0,0,0,0,0,0,-1,1889,1618,0,0
672,-594,0,0,0,0,0,0,0,0,0,-1,1896,1618,0,0
679,-594,0,0,0,0,0,0,0,0,0,-1,1903,1618,0,0
686,-594,0,0,0,0,0,0,0,0,0,-1,1910,1618,0,0
693,-594,0,0,0,0,0,0,0,0,0,-1,1917,1618,0,0
700,-594,0,0,0,0,0,0,0,0,0,-1,1924,1618,0,0
707,-594,0,0,0,0,0,0,0,0,0,-1,1931,1618,0,0
714,-594,0,0,0,0,0,0,0,0,0,-1,1938,1618,0,0
721,-594,0,0,0,0,0,0,0,0,0,-1,1945,1618,0,0
728,-594,0,0,0,0,0,0,0,0,0,-1,1952,1618,0,0
735,-594,0,0,0,0,0,0,0,0,0,-1,1959,1618,0,0
742,-594,0,0,0,0,0,0,0,0,0,-1,1966,1618,0,0
749,-594,0,0,0,0,0,0,0,0,0,-1,1973,1618,0,0
756,-594,0,0,0,0,0,0,0,0,0,-1,1980,1618,0,0
763,-594,0,0,0,0,0,0,0,0,0,-1,1987,1618,0,0
770,-594,0,0,0,0,0,0,0,0,0,-1,1994,1618,0,0
777,-594,0,0,0,0,0,0,0,0,0,-1,2001,1618,0,0
784,-594,0,0,0,0,0,0,0,0,0,-1,2008,1618,0,0
791,-594,0,0,0,0,0,0,0,0,0,-1,2015,1618,0,0
798,-594,0,0,0,0,0,0,0,0,0,-1,2022,1618,0,0
805,-594,0,0,0,0,0,0,0,0,0,-1,2029,1618,0,0
812,-594,0,0,0,0,0,0,0,0,0,-1,2036,1618,0,0
-700,-601,0,0,0,0,0,0,0,0,0,-1,524,1625,0,0
-693,-601,0,0,0,0,0,0,0,0,0,-1,531,1625,0,0
-686,-601,0,0,0,0,0,0,0,0,0,-1,538,1625,0,0
-679,-601,0,0,0,0,0,0,0,0,0,-1,545,1625,0,0
-672,-601,0,0,0,0,0,0,0,0,0,-1,552,1625,0,0
-665,-601,0,0,0,0,0,0,0,0,0,-1,559,1625,0,0
-658,-601,0,0,0,0,0,0,0,0,0,-1,566,1625,0,0
-651,-601,0,0,0,0,0,0,0,0,0,-1,573,1625,0,0
-644,-601,0,0,0,0,0,0,0,0,0,-1,580,1625,0,0
-637,-601,0,0,0,0,0,0,0,0,0,-1,587,1625,0,0
-630,-601,0,0,0,0,0,0,0,0,0,-1,594,1625,0,0
-623,-601,0,0,0,0,0,0,0,0,0,-1,601,1625,0,0
-616,-601,0,0,0,0,0,0,0,0,0,-1,608,1625,0,0
-609,-601,0,0,0,0,0,0,0,0,0,-1,615,1625,0,0
-602,-601,0,0,0,0,0,0,0,0,0,-1,622,1625,0,0
-595,-601,0,0,0,0,0,0,0,0,0,-1,629,1625,0,0
-588,-601,0,0,0,0,0,0,0,0,0,-1,636,1625,0,0
-581,-601,0,0,0,0,0,0,0,0,0,-1,643,1625,0,0
-574,-601,0,0,0,0,0,0,0,0,0,-1,650,1625,0,0
-567,-601,0,0,0,0,0,0,0,0,0,-1,657,1625,0,0
-560,-601,0,0,0,0,0,0,0,0,0,-1,664,1625,0,0
-553,-601,0,0,0,0,0,0,0,0,0,-1,671,1625,0,0
-546,-601,0,0,0,0,0,0,0,0,0,-1,678,1625,0,0
-539,-601,0,0,0,0,0,0,0,0,0,-1,685,1625,0,0
-532,-601,0,0,0,0,0,0,0,0,0,-1,692,1625,0,0
-525,-601,0,0,0,0,0,0,0,0,0,-1,699,1625,0,0
-518,-601,0,0,0,0,0,0,0,0,0,-1,706,1625,0,0
-511,-601,0,0,0,0,0,0,0,0,0,-1,713,1625,0,0
-504,-601,0,0,0,0,0,0,0,0,0,-1,720,1625,0,0
-497,-601,0,0,0,0,0,0,0,0,0,-1,727,1625,0,0
-490,-601,0,0,0,0,0,0,0,0,0,-1,734,1625,0,0
-483,-601,0,0,0,0,0,0,0,0,0,-1,741,1625,0,0
-476,-601,0,0,0,0,0,0,0,0,0,-1,748,1625,0,0
-469,-601,0,0,0,0,0,0,0,0,0,-1,755,1625,0,0
-462,-601,0,0,0,0,0,0,0,0,0,-1,762,1625,0,0
-455,-601,0,0,0,0,0,0,0,0,0,-1,769,1625,0,0
-448,-601,-0.124146,0.386475,-0.00503329,0.0374357,-0.00256506,0.0375901,-0.00518766,-1.51069,0.0269562,0.0415884,776,1625,-0.124117,-0.386483
-441,-601,0.176086,0.459595,0.00705275,0.0321398,-0.00954251,0.035357,0.00383557,-1.24562,0.0224025,0.0457865,783,1625,0.176117,-0.459557
-434,-601,0.515869,0.151855,0.0128896,0.0300523,-0.0142842,0.0381346,0.00480731,-1.05589,0.0239818,0.0451563,790,1625,0.515861,-0.151821
-427,-601,0.284058,-0.226196,0.0140216,0.0288167,-0.017141,0.0400883,0.00275003,-0.98911,0.0258577,0.0401235,797,1625,0.284061,0.226212
-420,-601,0.279236,-0.424805,0,0,0,0,0,0,0,-1,804,1625,0.27923,0.424864
-413,-601,0.37262,-0.356934,0.0093713,0.0287326,-0.017913,0.0394135,-0.00130954,-1.03313,0.0267228,0.0420076,811,1625,0.372616,0.356931
-406,-601,0.523315,-0.0548096,0.00492668,0.0280243,-0.0164545,0.0365783,-0.00362735,-1.09139,0.0256802,0.0465096,818,1625,0.523338,0.0547619
-399,-601,0.625122,-0.525757,0.000859902,0.0255747,-0.0144606,0.0322387,-0.00580414,-1.13896,0.0236657,0.046947,825,1625,0.625144,0.525806
-392,-601,0.283691,-0.355591,-0.00298924,0.0244259,-0.0129914,0.0296041,-0.00816748,-1.19151,0.0229483,0.042813,832,1625,0.283687,0.355644
-385,-601,0.129822,-0.16687,-0.00691904,0.0215065,-0.00966914,0.0244837,-0.00989625,-1.2721,0.0204362,0.0390367,839,1625,0.129846,0.166926
-378,-601,-0.0162354,-0.0306396,-0.00957916,0.0180051,-0.00706087,0.0197074,-0.0112815,-1.33422,0.0181106,0.027423,846,1625,-0.0162092,0.0306621
-371,-601,-0.0582275,-0.0423584,-0.0113918,0.0141797,-0.00418015,0.0148457,-0.0120577,-1.4128,0.0155605,0.0135646,853,1625,-0.0582243,0.0423862
-364,-601,-0.0336914,-0.0661621,-0.0118836,0.0103165,-0.00236908,0.0105665,-0.0121336,-1.46566,0.0131164,0.00968509,860,1625,-0.0336758,0.0661528
-357,-601,-0.0188599,-0.0766602,-0.0106331,0.00674654,-0.000673715,0.00677261,-0.0106592,-1.53211,0.0101473,0.00929993,867,1625,-0.0188681,0.0766427
-350,-601,0.00512695,-0.0603027,-0.0088767,0.00426162,0.00014743,0.00426328,-0.00887835,1.55958,0.00774171,0.0193518,874,1625,0.00515287,0.0603024
-343,-601,-0.0160522,-0.0718994,-0.00688437,0.00196686,0.000975313,0.00207305,-0.00699056,1.46234,0.0054836,0.0153959,881,1625,-0.0160559,0.0718488
-336,-601,-0.0230103,-0.0878906,-0.0044604,0.000233803,0.00142839,0.000634279,-0.00486088,1.29745,0.00347138,0.0110063,888,1625,-0.0230357,0.0878537
-329,-601,-0.00317383,-0.0692139,-0.00198065,2.68136e-05,0.00117937,0.000571758,-0.0025256,1.13796,0.00190316,0.0112402,895,1625,-0.00317101,0.0692462
-322,-601,0.000488281,-0.0509033,-0.000139887,-2.94336e-05,0.00104638,0.000963173,-0.00113249,0.811763,0.00121125,0.0112288,902,1625,0.000473397,0.0508964
-315,-601,-0.00518799,-0.0686035,0.00115095,0.00037435,0.00117179,0.0019971,-0.000471801,0.625405,0.00151339,0.0103434,909,1625,-0.00516245,0.0685829
-308,-601,0.00372314,-0.088501,0.00200327,0.00121784,0.00159781,0.00325592,-3.4802e-05,0.664895,0.0021823,0.0104074,916,1625,0.00369901,0.0885614
-301,-601,0.000793457,-0.092041,0.00241362,0.0030995,0.0023246,0.00510632,0.000406797,0.858632,0.00327704,0.00961173,923,1625,0.000794907,0.092102
-294,-601,-0.00299072,-0.0777588,0.00257246,0.00472443,0.00332878,0.00714681,0.000150088,0.941716,0.00471531,0.00925834,930,1625,-0.00298034,0.0777515
-287,-601,-0.0144043,-0.0762939,0.00244763,0.00678956,0.00448304,0.00959963,-0.000362445,1.01089,0.00652393,0.00917007,937,1625,-0.0144063,0.0763377
-280,-601,-0.0167236,-0.0806885,0.00254424,0.00908397,0.00551733,0.0122276,-0.000599394,1.0529,0.0083587,0.00916544,944,1625,-0.0167413,0.0806751
-273,-601,-0.0132446,-0.081543,0.00265613,0.011363,0.00620208,0.014587,-0.000567918,1.09141,0.00991941,0.00900502,951,1625,-0.013215,0.0815524
-266,-601,-0.00360107,-0.0654297,0.002344,0.0129604,0.0063683,0.0159427,-0.000638299,1.13283,0.0108475,0.011489,958,1625,-0.00362153,0.0654089
-259,-601,0.0162354,-0.0821533,0.00108324,0.0135949,0.00676753,0.0165551,-0.00187693,1.15846,0.0117126,0.0220214,965,1625,0.0162261,0.0821139
-252,-601,0.0788574,0.0371094,-0.000166642,0.0131623,0.00710674,0.0162406,-0.00324491,1.16205,0.0120552,0.0385368,972,1625,0.0788629,-0.0370718
-245,-601,-0.116089,0.158081,-0.00323231,0.0144748,0.00635227,0.0165179,-0.00527539,1.25961,0.0131286,0.0406579,979,1625,-0.116104,-0.158081
-238,-601,-0.225403,0.505249,0,0,0,0,0,0,0,-1,986,1625,-0.225381,-0.505227
-231,-601,0.0253296,0.0552979,-0.0110745,0.00987287,0.00560602,0.0112788,-0.0124805,1.32507,0.0137233,0.0412761,993,1625,0.0253504,-0.0552791
-224,-601,0.260986,-0.337524,-0.0152139,0.00649078,0.00558934,0.00784557,-0.0165687,1.33299,0.0143924,0.044993,1000,1625,0.260959,0.337584
-217,-601,0.46106,-0.629028,-0.0187354,0.00232822,0.00602783,0.00393123,-0.0203384,1.31088,0.0150416,0.0452679,1007,1625,0.461074,0.629019
-210,-601,0.524414,-0.779053,-0.0196058,-0.00238818,0.00856581,0.00114734,-0.0231413,1.17935,0.0158239,0.0467331,1014,1625,0.524425,0.779
-203,-601,0.689453,-0.798096,-0.0203369,-0.00671377,0.0111729,-0.000439759,-0.0266109,1.05914,0.0175958,0.0482985,1021,1625,0.689474,0.798133
-196,-601,0.86145,-0.868774,0,0,0,0,0,0,0,-1,1028,1625,0.861437,0.868727
-189,-601,0.216919,-1.18994,-0.0168723,-0.0138167,0.0189082,0.00362531,-0.0343143,0.825711,0.0241754,0.0474141,1035,1625,0.216926,1.18996
-182,-601,-0.00109863,-1.52136,-0.0122235,-0.0158301,0.0232174,0.00926057,-0.0373141,0.746641,0.0284695,0.043399,1042,1625,-0.00113436,1.52142
-175,-601,-2.34937,-0.736816,0,0,0,0,0,0,0,-1,1049,1625,-2.34933,0.736875
-168,-601,-0.0267334,-2.19629,0.000820673,-0.0162694,0.0280404,0.0215892,-0.0370379,0.637498,0.0342379,0.0493335,1056,1625,-0.0266836,2.1963
-161,-601,0.129883,-2.40466,0.00730225,-0.0142992,0.0287092,0.0271752,-0.0341721,0.605482,0.0354956,0.0458861,1063,1625,0.12988,2.40468
-154,-601,0.488892,0.359619,0.0125222,-0.011377,0.0271726,0.0302567,-0.0291115,0.578243,0.0342783,0.0424744,1070,1625,0.488895,-0.35958
-147,-601,0.641357,0.411499,0.0142516,-0.00736168,0.0239087,0.0296825,-0.0227926,0.573142,0.0303834,0.0408038,1077,1625,0.641316,-0.41154
-140,-601,0.608032,0.468872,0.016478,-0.00757714,0.0214847,0.0290727,-0.0201719,0.530223,0.0285857,0.0417318,1084,1625,0.607984,-0.468929
-133,-601,0.354126,0.409912,0.016248,-0.00237817,0.0169743,0.0262962,-0.0124264,0.534492,0.0228295,0.0428414,1091,1625,0.354158,-0.409863
-126,-601,0.0894775,0.522949,0.0117298,0.00320412,0.0116828,0.0199032,-0.00496933,0.610464,0.0151985,0.0472454,1098,1625,0.0894483,-0.523009
-119,-601,0.347656,0.721802,0.00379399,0.00763139,0.00627123,0.0122709,-0.000845486,0.933853,0.00847647,0.0498248,1105,1625,0.34766,-0.721798
-112,-601,0,0,0,0,0,0,0,0,0,-1,1112,1625,0,0
-105,-601,0,0,0,0,0,0,0,0,0,-1,1119,1625,0,0
-98,-601,0,0,0,0,0,0,0,0,0,-1,1126,1625,0,0
-91,-601,0,0,0,0,0,0,0,0,0,-1,1133,1625,0,0
-84,-601,0,0,0,0,0,0,0,0,0,-1,1140,1625,0,0
-77,-601,0,0,0,0,0,0,0,0,0,-1,1147,1625,0,0
-70,-601,0,0,0,0,0,0,0,0,0,-1,1154,1625,0,0
-63,-601,0,0,0,0,0,0,0,0,0,-1,1161,1625,0,0
-56,-601,0,0,0,0,0,0,0,0,0,-1,1168,1625,0,0
-49,-601,0,0,0,0,0,0,0,0,0,-1,1175,1625,0,0
-42,-601,0,0,0,0,0,0,0,0,0,-1,1182,1625,0,0
-35,-601,0,0,0,0,0,0,0,0,0,-1,1189,1625,0,0
-28,-601,0,0,0,0,0,0,0,0,0,-1,1196,1625,0,0
-21,-601,0,0,0,0,0,0,0,0,0,-1,1203,1625,0,0
-14,-601,0,0,0,0,0,0,0,0,0,-1,1210,1625,0,0
-7,-601,0,0,0,0,0,0,0,0,0,-1,1217,1625,0,0
0,-601,0,0,0,0,0,0,0,0,0,-1,1224,1625,0,0
7,-601,0,0,0,0,0,0,0,0,0,-1,1231,1625,0,0
14,-601,0,0,0,0,0,0,0,0,0,-1,1238,1625,0,0
21,-601,0,0,0,0,0,0,0,0,0,-1,1245,1625,0,0
28,-601,0,0,0,0,0,0,0,0,0,-1,1252,1625,0,0
35,-601,0,0,0,0,0,0,0,0,0,-1,1259,1625,0,0
42,-601,0,0,0,0,0,0,0,0,0,-1,1266,1625,0,0
49,-601,0,0,0,0,0,0,0,0,0,-1,1273,1625,0,0
56,-601,0,0,0,0,0,0,0,0,0,-1,1280,1625,0,0
63,-601,0,0,0,0,0,0,0,0,0,-1,1287,1625,0,0
70,-601,0,0,0,0,0,0,0,0,0,-1,1294,1625,0,0
77,-601,0,0,0,0,0,0,0,0,0,-1,1301,1625,0,0
84,-601,0,0,0,0,0,0,0,0,0,-1,1308,1625,0,0
91,-601,0,0,0,0,0,0,0,0,0,-1,1315,1625,0,0
98,-601,0,0,0,0,0,0,0,0,0,-1,1322,1625,0,0
105,-601,0,0,0,0,0,0,0,0,0,-1,1329,1625,0,0
112,-601,0,0,0,0,0,0,0,0,0,-1,1336,1625,0,0
119,-601,0,0,0,0,0,0,0,0,0,-1,1343,1625,0,0
126,-601,0,0,0,0,0,0,0,0,0,-1,1350,1625,0,0
133,-601,0,0,0,0,0,0,0,0,0,-1,1357,1625,0,0
140,-601,0,0,0,0,0,0,0,0,0,-1,1364,1625,0,0
147,-601,0,0,0,0,0,0,0,0,0,-1,1371,1625,0,0
154,-601,0,0,0,0,0,0,0,0,0,-1,1378,1625,0,0
161,-601,0,0,0,0,0,0,0,0,0,-1,1385,1625,0,0
168,-601,0,0,0,0,0,0,0,0,0,-1,1392,1625,0,0
175,-601,0,0,0,0,0,0,0,0,0,-1,1399,1625,0,0
182,-601,0,0,0,0,0,0,0,0,0,-1,1406,1625,0,0
189,-601,0,0,0,0,0,0,0,0,0,-1,1413,1625,0,0
196,-601,0,0,0,0,0,0,0,0,0,-1,1420,1625,0,0
203,-601,0,0,0,0,0,0,0,0,0,-1,1427,1625,0,0
210,-601,0,0,0,0,0,0,0,0,0,-1,1434,1625,0,0
217,-601,0,0,0,0,0,0,0,0,0,-1,1441,1625,0,0
224,-601,0,0,0,0,0,0,0,0,0,-1,1448,1625,0,0
231,-601,0.0202637,-0.32312,0,0,0,0,0,0,0,-1,1455,1625,0.0203152,0.323101
238,-601,-0.259399,-0.0419922,0,0,0,0,0,0,0,-1,1462,1625,-0.259374,0.0420434
245,-601,0.971191,0.106445,0,0,0,0,0,0,0,-1,1469,1625,0.971236,-0.106407
252,-601,0.434814,0.252319,0,0,0,0,0,0,0,-1,1476,1625,0.434836,-0.252315
259,-601,0.382935,0.936279,0,0,0,0,0,0,0,-1,1483,1625,0.382958,-0.936246
266,-601,-0.381958,-0.0688477,0,0,0,0,0,0,0,-1,1490,1625,-0.382011,0.0689056
273,-601,-0.189697,0.0925293,-0.00613306,0.00130597,0.00430207,0.0032735,-0.0081006,1.14185,0.00676109,0.043297,1497,1625,-0.189746,-0.0925645
280,-601,-0.0955811,0.227539,-0.00631554,0.00234603,0.00475616,0.00444772,-0.00841723,1.15471,0.00754452,0.0412854,1504,1625,-0.0956316,-0.227533
287,-601,-0.199829,0.527466,-0.00701223,0.0027983,0.00493353,0.00485015,-0.00906407,1.17666,0.00815526,0.039297,1511,1625,-0.199788,-0.527451
294,-601,0.256958,0.26355,0,0,0,0,0,0,0,-1,1518,1625,0.257007,-0.263501
301,-601,0.267578,-0.609131,-0.00757616,0.00313727,0.00467198,0.00488842,-0.00932731,1.21218,0.00833977,0.0445104,1525,1625,0.2676,0.609131
308,-601,0.337158,-0.448975,-0.00611441,0.00341018,0.00324277,0.0044094,-0.00711363,1.27189,0.00671361,0.041071,1532,1625,0.337111,0.448923
315,-601,0.222534,-0.150757,-0.00451669,0.00405987,0.00105907,0.00418871,-0.00464553,1.44973,0.00510273,0.0449777,1539,1625,0.222582,0.150747
322,-601,-0.166626,0.465576,-0.00280752,0.00496466,-0.00170843,0.00532362,-0.00316648,-1.3637,0.00495422,0.0446441,1546,1625,-0.166656,-0.465528
329,-601,-0.809692,1.14014,-0.000702198,0.00554952,-0.00454678,0.00794129,-0.00309397,-1.08654,0.0065729,0.0430323,1553,1625,-0.809662,-1.14014
336,-601,-1.20947,1.63086,0.000776358,0.00583376,-0.00639385,0.0101808,-0.00357067,-0.973704,0.00823948,0.0408685,1560,1625,-1.2095,-1.63091
343,-601,-1.66736,1.82227,0,0,0,0,0,0,0,-1,1567,1625,-1.66739,-1.82225
350,-601,0.231201,2.4873,0.00122054,0.00478977,-0.00798549,0.0111876,-0.00517732,-0.895333,0.00965838,0.0473507,1574,1625,0.231201,-2.48729
357,-601,0.598755,1.84229,0.00117999,0.00398336,-0.00794895,0.0106533,-0.00548992,-0.872669,0.00947785,0.0430836,1581,1625,0.598713,-1.84231
364,-601,0.601318,0.399658,0,0,0,0,0,0,0,-1,1588,1625,0.601367,-0.399681
371,-601,0.157715,0.234131,0.000170988,0.0029874,-0.00688657,0.00860827,-0.00544989,-0.886251,0.00818448,0.0421595,1595,1625,0.157732,-0.23416
378,-601,0.150269,-0.119019,-0.00113536,0.00131807,-0.0055761,0.00580079,-0.00561809,-0.893671,0.00659297,0.0390722,1602,1625,0.150255,0.119054
385,-601,0.127441,-0.0872803,-0.00255482,0.00105688,-0.00371694,0.00338343,-0.00488136,-1.01153,0.00479773,0.0374475,1609,1625,0.127444,0.0872279
392,-601,0.0513916,-0.029541,-0.00368425,0.000931543,-0.00158898,0.00142565,-0.00417836,-1.26931,0.00336307,0.0342558,1616,1625,0.0513978,0.0295532
399,-601,-0.00744629,-0.0540771,-0.00451159,0.00155955,-0.00012763,0.00156223,-0.00451427,-1.54979,0.00364365,0.0188407,1623,1625,-0.00742948,0.0540831
406,-601,-0.00317383,-0.081665,-0.00535826,0.00209222,0.00154885,0.00240138,-0.00566742,1.37378,0.00478404,0.0117528,1630,1625,-0.00313572,0.0816061
413,-601,-0.0137939,-0.0876465,-0.0054704,0.00247308,0.00235061,0.00311654,-0.00611386,1.3036,0.00542202,0.0106806,1637,1625,-0.0137932,0.0876662
420,-601,-0.0281982,-0.0693359,-0.00415033,0.00232307,0.00244039,0.00313998,-0.00496724,1.24778,0.00472017,0.00982863,1644,1625,-0.0282008,0.0693168
427,-601,-0.0115967,-0.0610352,-0.00289444,0.00209251,0.0025253,0.00314792,-0.00394985,1.17493,0.00410661,0.0131643,1651,1625,-0.0115536,0.0610915
434,-601,-0.0219727,-0.0703125,-0.00223214,0.00193899,0.00226988,0.00293595,-0.0032291,1.15695,0.00356074,0.0136751,1658,1625,-0.0219314,0.070372
441,-601,-0.00256348,-0.0731201,-0.001682,0.00179903,0.00194452,0.00266822,-0.00255119,1.15044,0.00301368,0.0155397,1665,1625,-0.00252312,0.0730694
448,-601,0.0098877,-0.0800781,-0.0010441,0.00159663,0.00167458,0.00240877,-0.00185624,1.11923,0.00246928,0.0130752,1672,1625,0.00987141,0.0800225
455,-601,-0.00463867,-0.0844727,-0.00142191,0.00152021,0.00150419,0.00215311,-0.0020548,1.17253,0.00242966,0.0113641,1679,1625,-0.00458152,0.0845097
462,-601,-0.0169678,-0.0847168,-0.00194525,0.00185538,0.00158384,0.00242887,-0.00251875,1.22339,0.00285667,0.00999072,1686,1625,-0.0170206,0.0847749
469,-601,-0.0264893,-0.0697021,-0.00210918,0.00325755,0.00209528,0.00397869,-0.00283032,1.23932,0.00394977,0.00992185,1693,1625,-0.0265294,0.0696613
476,-601,-0.0375977,-0.0610352,-0.00198682,0.00438035,0.00257333,0.00529033,-0.00289679,1.2309,0.0047937,0.0122565,1700,1625,-0.0375796,0.0609844
483,-601,-0.0499268,-0.0740967,-0.0019242,0.00578011,0.00308257,0.00686165,-0.00300575,1.23336,0.00584014,0.0152318,1707,1625,-0.0499201,0.0741029
490,-601,-0.0406494,-0.0819092,-0.00154382,0.00737011,0.00373183,0.00872616,-0.00289987,1.22226,0.0069876,0.0115889,1714,1625,-0.0407033,0.0819415
497,-601,-0.0251465,-0.081543,-0.00102997,0.00901421,0.0044611,0.0107095,-0.00272523,1.20764,0.00820042,0.0088115,1721,1625,-0.0251612,0.0815959
504,-601,-0.0412598,-0.0952148,-0.000280919,0.0109167,0.00528735,0.0130187,-0.00238294,1.1924,0.00957281,0.0104482,1728,1625,-0.0413154,0.0952385
511,-601,-0.045166,-0.106812,0.000813186,0.0122723,0.00604975,0.0148751,-0.00178956,1.16451,0.0105639,0.0189069,1735,1625,-0.0451319,0.106837
518,-601,-0.114868,-0.150635,0.00194335,0.0138197,0.00692513,0.0170039,-0.00124094,1.13981,0.0117714,0.0290789,1742,1625,-0.114881,0.150574
525,-601,-0.0996094,-0.359741,0.00298184,0.015044,0.00796632,0.0190047,-0.000978888,1.1094,0.0130084,0.0394903,1749,1625,-0.0996588,0.359716
532,-601,-0.0458984,-0.53186,0.00384417,0.015721,0.00902488,0.020586,-0.0010208,1.07639,0.0140766,0.0438762,1756,1625,-0.0458552,0.531866
539,-601,-0.0583496,-0.349976,0.00462078,0.0160017,0.0102178,0.0220067,-0.00138423,1.03947,0.0151536,0.0426768,1763,1625,-0.0582979,0.350004
546,-601,0.112427,-0.185791,0.00535216,0.0167226,0.0116689,0.0240176,-0.00194277,1.01208,0.016697,0.0409236,1770,1625,0.112412,0.185762
553,-601,0.0487061,-0.181641,0,0,0,0,0,0,0,-1,1777,1625,0.0486884,0.181646
560,-601,0.209717,0.557251,0.00610022,0.0199859,0.0162423,0.0307071,-0.00462094,0.987371,0.0221728,0.0434326,1784,1625,0.209706,-0.557245
567,-601,0.307129,0.74292,0,0,0,0,0,0,0,-1,1791,1625,0.30713,-0.74297
574,-601,0,0,0,0,0,0,0,0,0,-1,1798,1625,0,0
581,-601,0,0,0,0,0,0,0,0,0,-1,1805,1625,0,0
588,-601,0,0,0,0,0,0,0,0,0,-1,1812,1625,0,0
595,-601,0,0,0,0,0,0,0,0,0,-1,1819,1625,0,0
602,-601,0,0,0,0,0,0,0,0,0,-1,1826,1625,0,0
609,-601,0,0,0,0,0,0,0,0,0,-1,1833,1625,0,0
616,-601,0,0,0,0,0,0,0,0,0,-1,1840,1625,0,0
623,-601,0,0,0,0,0,0,0,0,0,-1,1847,1625,0,0
630,-601,0,0,0,0,0,0,0,0,0,-1,1854,1625,0,0
637,-601,0,0,0,0,0,0,0,0,0,-1,1861,1625,0,0
644,-601,0,0,0,0,0,0,0,0,0,-1,1868,1625,0,0
651,-601,0,0,0,0,0,0,0,0,0,-1,1875,1625,0,0
658,-601,0,0,0,0,0,0,0,0,0,-1,1882,1625,0,0
665,-601,0,0,0,0,0,0,0,0,0,-1,1889,1625,0,0
672,-601,0,0,0,0,0,0,0,0,0,-1,1896,1625,0,0
679,-601,0,0,0,0,0,0,0,0,0,-1,1903,1625,0,0
686,-601,0,0,0,0,0,0,0,0,0,-1,1910,1625,0,0
693,-601,0,0,0,0,0,0,0,0,0,-1,1917,1625,0,0
700,-601,0,0,0,0,0,0,0,0,0,-1,1924,1625,0,0
707,-601,0,0,0,0,0,0,0,0,0,-1,1931,1625,0,0
714,-601,0,0,0,0,0,0,0,0,0,-1,1938,1625,0,0
721,-601,0,0,0,0,0,0,0,0,0,-1,1945,1625,0,0
728,-601,0,0,0,0,0,0,0,0,0,-1,1952,1625,0,0
735,-601,0,0,0,0,0,0,0,0,0,-1,1959,1625,0,0
742,-601,0,0,0,0,0,0,0,0,0,-1,1966,1625,0,0
749,-601,0,0,0,0,0,0,0,0,0,-1,1973,1625,0,0
756,-601,0,0,0,0,0,0,0,0,0,-1,1980,1625,0,0
763,-601,0,0,0,0,0,0,0,0,0,-1,1987,1625,0,0
770,-601,0,0,0,0,0,0,0,0,0,-1,1994,1625,0,0
777,-601,0,0,0,0,0,0,0,0,0,-1,2001,1625,0,0
784,-601,0,0,0,0,0,0,0,0,0,-1,2008,1625,0,0
791,-601,0,0,0,0,0,0,0,0,0,-1,2015,1625,0,0
798,-601,0,0,0,0,0,0,0,0,0,-1,2022,1625,0,0
805,-601,0,0,0,0,0,0,0,0,0,-1,2029,1625,0,0
812,-601,0,0,0,0,0,0,0,0,0,-1,2036,1625,0,0
-700,-608,0,0,0,0,0,0,0,0,0,-1,524,1632,0,0
-693,-608,0,0,0,0,0,0,0,0,0,-1,531,1632,0,0
-686,-608,0,0,0,0,0,0,0,0,0,-1,538,1632,0,0
-679,-608,0,0,0,0,0,0,0,0,0,-1,545,1632,0,0
-672,-608,0,0,0,0,0,0,0,0,0,-1,552,1632,0,0
-665,-608,0,0,0,0,0,0,0,0,0,-1,559,1632,0,0
-658,-608,0,0,0,0,0,0,0,0,0,-1,566,1632,0,0
-651,-608,0,0,0,0,0,0,0,0,0,-1,573,1632,0,0
-644,-608,0,0,0,0,0,0,0,0,0,-1,580,1632,0,0
-637,-608,0,0,0,0,0,0,0,0,0,-1,587,1632,0,0
-630,-608,0,0,0,0,0,0,0,0,0,-1,594,1632,0,0
-623,-608,0,0,0,0,0,0,0,0,0,-1,601,1632,0,0
-616,-608,0,0,0,0,0,0,0,0,0,-1,608,1632,0,0
-609,-608,0,0,0,0,0,0,0,0,0,-1,615,1632,0,0
-602,-608,0,0,0,0,0,0,0,0,0,-1,622,1632,0,0
-595,-608,0,0,0,0,0,0,0,0,0,-1,629,1632,0,0
-588,-608,0,0,0,0,0,0,0,0,0,-1,636,1632,0,0
-581,-608,0,0,0,0,0,0,0,0,0,-1,643,1632,0,0
-574,-608,0,0,0,0,0,0,0,0,0,-1,650,1632,0,0
-567,-608,0,0,0,0,0,0,0,0,0,-1,657,1632,0,0
-560,-608,0,0,0,0,0,0,0,0,0,-1,664,1632,0,0
-553,-608,0,0,0,0,0,0,0,0,0,-1,671,1632,0,0
-546,-608,0,0,0,0,0,0,0,0,0,-1,678,1632,0,0
-539,-608,0,0,0,0,0,0,0,0,0,-1,685,1632,0,0
-532,-608,0,0,0,0,0,0,0,0,0,-1,692,1632,0,0
-525,-608,0,0,0,0,0,0,0,0,0,-1,699,1632,0,0
-518,-608,0,0,0,0,0,0,0,0,0,-1,706,1632,0,0
-511,-608,0,0,0,0,0,0,0,0,0,-1,713,1632,0,0
-504,-608,0,0,0,0,0,0,0,0,0,-1,720,1632,0,0
-497,-608,0,0,0,0,0,0,0,0,0,-1,727,1632,0,0
-490,-608,0,0,0,0,0,0,0,0,0,-1,734,1632,0,0
-483,-608,0,0,0,0,0,0,0,0,0,-1,741,1632,0,0
-476,-608,0,0,0,0,0,0,0,0,0,-1,748,1632,0,0
-469,-608,0,0,0,0,0,0,0,0,0,-1,755,1632,0,0
-462,-608,0,0,0,0,0,0,0,0,0,-1,762,1632,0,0
-455,-608,0,0,0,0,0,0,0,0,0,-1,769,1632,0,0
-448,-608,0,0,0,0,0,0,0,0,0,-1,776,1632,0,0
-441,-608,0.902771,0.629028,0.0251222,0.0297212,-0.012631,0.0402603,0.0145831,-0.875439,0.0235366,0.0468743,783,1632,0.902801,-0.62903
-434,-608,0.991516,0.305054,0.0289261,0.0306445,-0.0183572,0.0481627,0.011408,-0.808784,0.029062,0.0470682,790,1632,0.991499,-0.305036
-427,-608,0.638,-0.26709,0.027054,0.0318985,-0.0214707,0.0510831,0.00786935,-0.841569,0.031759,0.0452698,797,1632,0.638,0.267088
-420,-608,2.56952,-0.494385,0.021948,0.0336189,-0.0225604,0.0510864,0.00448056,-0.911954,0.0326667,0.0439235,804,1632,2.56949,0.49438
-413,-608,0.370972,-0.622437,0.0155737,0.0346736,-0.0219033,0.0490184,0.00122897,-0.990975,0.0322771,0.0449898,811,1632,0.371002,0.622474
-406,-608,0.917786,-0.046875,0,0,0,0,0,0,0,-1,818,1632,0.917802,0.0469024
-399,-608,0.797913,-0.724487,0.00218216,0.0312663,-0.0169381,0.0390485,-0.00560002,-1.14011,0.0280857,0.0428321,825,1632,0.797891,0.724455
-392,-608,0.358154,-0.610352,-0.00348432,0.0295366,-0.0147748,0.0351822,-0.00912987,-1.20581,0.0270173,0.0449694,832,1632,0.35813,0.610331
-385,-608,0.0348511,-0.233643,-0.00879315,0.0257989,-0.0107618,0.0288737,-0.0118679,-1.2925,0.0241956,0.0486037,839,1632,0.0348702,0.23365
-378,-608,0.0582275,-0.197021,-0.0122751,0.0214316,-0.00751244,0.0230301,-0.0138736,-1.36114,0.0215239,0.0456769,846,1632,0.0582048,0.197004
-371,-608,0.0568848,-0.186157,-0.0145423,0.0166176,-0.00413956,0.0171582,-0.0150828,-1.44095,0.0186272,0.0346852,853,1632,0.0568758,0.186102
-364,-608,-0.027832,-0.0777588,-0.0150937,0.0118553,-0.00198417,0.0120006,-0.015239,-1.49769,0.0157638,0.0141138,860,1632,-0.0278272,0.0777115
-357,-608,-0.0213623,-0.0744629,-0.0135161,0.00752049,8.26883e-06,0.0075205,-0.0135161,1.5704,0.0123088,0.0113583,867,1632,-0.0213329,0.0744089
-350,-608,-0.0126953,-0.0776367,-0.0112892,0.00438755,0.000848737,0.00443337,-0.011335,1.51687,0.00939005,0.0167485,874,1632,-0.012685,0.0776533
-343,-608,-0.0219116,-0.0864258,-0.00883047,0.00163059,0.00159638,0.00186878,-0.00906866,1.42268,0.00675542,0.0175164,881,1632,-0.0218928,0.0864246
-336,-608,-0.00909424,-0.108521,-0.00588905,-0.000439835,0.00196037,0.000192122,-0.00652101,1.25895,0.00441277,0.0104347,888,1632,-0.00911617,0.108478
-329,-608,0.0119019,-0.0961914,-0.00283918,-0.000626571,0.00144099,8.38158e-05,-0.00354957,1.11278,0.00239481,0.0102143,895,1632,0.01192,0.0961727
-322,-608,0.00164795,-0.0791016,-0.000695505,-0.000692562,0.00108681,0.000392774,-0.00178084,0.786075,0.00133752,0.0106839,902,1632,0.00167738,0.0790734
-315,-608,-0.00756836,-0.0762939,0.000633687,-0.000209727,0.00091346,0.00121808,-0.000794125,0.569145,0.00117031,0.00855483,909,1632,-0.00757485,0.0763165
-308,-608,-0.00982666,-0.0847168,0.00124369,0.000632369,0.000972841,0.00195776,-8.16992e-05,0.633184,0.00133324,0.0099547,916,1632,-0.00981574,0.0847594
-301,-608,-0.0143433,-0.0899658,0.00139889,0.00234038,0.00136328,0.0033119,0.000427369,0.95164,0.00208016,0.0105463,923,1632,-0.0143299,0.0900162
-294,-608,-0.0127563,-0.0874023,0.00140393,0.00378076,0.00209388,0.00499997,0.000184721,1.04351,0.00327348,0.0102544,930,1632,-0.0127287,0.0873517
-287,-608,-0.0252686,-0.0812988,0.00134798,0.00542341,0.0030572,0.00705976,-0.000288366,1.07935,0.00480552,0.0100191,937,1632,-0.0252477,0.0812597
-280,-608,-0.0238647,-0.0895996,0.00159362,0.00705277,0.00394456,0.00912009,-0.000473693,1.08806,0.00624395,0.00796509,944,1632,-0.0238888,0.0895602
-273,-608,-0.00561523,-0.0909424,0.00186138,0.00874122,0.00462318,0.0110638,-0.000461235,1.10524,0.00753435,0.00779535,951,1632,-0.00564101,0.0909511
-266,-608,-0.00506592,-0.0773926,0.00191193,0.00992632,0.00486886,0.0122249,-0.000386699,1.12971,0.00828188,0.00800432,958,1632,-0.00506118,0.0774475
-259,-608,-0.00891113,-0.0974121,0.00129046,0.0102719,0.00525365,0.0126925,-0.00113022,1.13903,0.0088625,0.0106172,965,1632,-0.00891923,0.0974035
-252,-608,-0.0215454,-0.112671,0.000625569,0.00965505,0.00562096,0.0123499,-0.00206927,1.12374,0.00900264,0.0230537,972,1632,-0.0215359,0.112658
-245,-608,-0.141235,0.0328369,-0.00172691,0.010658,0.00509574,0.0124851,-0.003554,1.22652,0.00972693,0.0331,979,1632,-0.141215,-0.0328054
-238,-608,-0.107788,0.213745,-0.0048091,0.00899596,0.00447085,0.0103174,-0.00613053,1.28341,0.00959821,0.0348671,986,1632,-0.107809,-0.213711
-231,-608,0.112671,-0.0491943,-0.0084302,0.00648491,0.00443955,0.00770634,-0.00965163,1.30231,0.0100426,0.0402645,993,1632,0.112676,0.0492473
-224,-608,0.229187,-0.219604,0,0,0,0,0,0,0,-1,1000,1632,0.229164,0.219596
-217,-608,-0.13678,0.896484,-0.0154501,0.00028741,0.00472041,0.00159469,-0.0167574,1.30063,0.0117393,0.0468752,1007,1632,-0.136751,-0.896541
-210,-608,0.319275,-0.349854,-0.016466,-0.00338421,0.00702837,-0.000323991,-0.0195262,1.16014,0.0129108,0.0481378,1014,1632,0.319288,0.349855
-203,-608,0.315491,-0.324341,-0.0174316,-0.00668659,0.00929303,-0.00132484,-0.0227933,1.04749,0.0147738,0.0493875,1021,1632,0.315491,0.324304
-196,-608,-0.302856,0.686157,-0.0174163,-0.010228,0.0121886,-0.00111465,-0.0265296,0.928773,0.0173268,0.0470754,1028,1632,-0.30287,-0.686148
-189,-608,-0.486084,0.0539551,0,0,0,0,0,0,0,-1,1035,1632,-0.48604,-0.0539265
-182,-608,-1.9845,-0.637817,-0.0120221,-0.0131232,0.0196434,0.00707849,-0.0322238,0.771389,0.0241897,0.0406472,1042,1632,-1.98451,0.637869
-175,-608,-2.91248,-0.322266,-0.00713736,-0.0128917,0.0222186,0.0123895,-0.0324187,0.721009,0.0267176,0.0470972,1049,1632,-2.91243,0.322216
-168,-608,-3.64038,-0.0351563,0,0,0,0,0,0,0,-1,1056,1632,-3.6404,0.0351825
-161,-608,-1.12341,-2.00732,0.00529679,-0.0100435,0.0237179,0.022554,-0.0273007,0.62901,0.0288271,0.0475783,1063,1632,-1.12335,2.0073
-154,-608,0.804688,0.206055,0.00986266,-0.00736918,0.0219661,0.0248421,-0.0223486,0.5985,0.0272583,0.0481816,1070,1632,0.804658,-0.206002
-147,-608,0.615112,0.418335,0.0118604,-0.00372432,0.0185937,0.0242285,-0.0160924,0.586973,0.0234368,0.0470795,1077,1632,0.615063,-0.418367
-140,-608,0.374146,0.296265,0.0142276,-0.00322684,0.0156176,0.023391,-0.0123902,0.530607,0.0209812,0.0448385,1084,1632,0.374086,-0.29625
-133,-608,0.484741,0.380981,0.0148588,0.0011826,0.011422,0.0213332,-0.00529178,0.515675,0.0162754,0.0421769,1091,1632,0.484691,-0.381
-126,-608,0.455811,0.468262,0.0126579,0.00605265,0.0065866,0.0167235,0.00198706,0.553007,0.0105492,0.0406622,1098,1632,0.455793,-0.468283
-119,-608,0.587158,0.570923,0.00748813,0.00953923,0.0015811,0.0103983,0.0066291,1.0731,0.00607866,0.042789,1105,1632,0.58714,-0.570902
-112,-608,0.542236,0.380249,-0.000422038,0.0123032,-0.00245979,0.0127622,-0.000880963,-1.38635,0.00881645,0.0429826,1112,1632,0.542212,-0.38026
-105,-608,0.350586,0.189087,-0.00795781,0.0137652,-0.00643102,0.0155264,-0.00971892,-1.3035,0.0147034,0.0414373,1119,1632,0.350634,-0.189137
-98,-608,-0.183228,-0.125,-0.00921889,0.0111241,-0.00482858,0.012212,-0.0103068,-1.34919,0.0130168,0.0428118,1126,1632,-0.183241,0.124959
-91,-608,-0.458008,-0.279907,0,0,0,0,0,0,0,-1,1133,1632,-0.458043,0.279874
-84,-608,0,0,0,0,0,0,0,0,0,-1,1140,1632,0,0
-77,-608,0,0,0,0,0,0,0,0,0,-1,1147,1632,0,0
-70,-608,0,0,0,0,0,0,0,0,0,-1,1154,1632,0,0
-63,-608,0,0,0,0,0,0,0,0,0,-1,1161,1632,0,0
-56,-608,0,0,0,0,0,0,0,0,0,-1,1168,1632,0,0
-49,-608,0,0,0,0,0,0,0,0,0,-1,1175,1632,0,0
-42,-608,0,0,0,0,0,0,0,0,0,-1,1182,1632,0,0
-35,-608,0,0,0,0,0,0,0,0,0,-1,1189,1632,0,0
-28,-608,0,0,0,0,0,0,0,0,0,-1,1196,1632,0,0
-21,-608,0,0,0,0,0,0,0,0,0,-1,1203,1632,0,0
-14,-608,0,0,0,0,0,0,0,0,0,-1,1210,1632,0,0
-7,-608,0,0,0,0,0,0,0,0,0,-1,1217,1632,0,0
0,-608,0,0,0,0,0,0,0,0,0,-1,1224,1632,0,0
7,-608,0,0,0,0,0,0,0,0,0,-1,1231,1632,0,0
14,-608,0,0,0,0,0,0,0,0,0,-1,1238,1632,0,0
21,-608,0,0,0,0,0,0,0,0,0,-1,1245,1632,0,0
28,-608,0,0,0,0,0,0,0,0,0,-1,1252,1632,0,0
35,-608,0,0,0,0,0,0,0,0,0,-1,1259,1632,0,0
42,-608,0,0,0,0,0,0,0,0,0,-1,1266,1632,0,0
49,-608,0,0,0,0,0,0,0,0,0,-1,1273,1632,0,0
56,-608,0,0,0,0,0,0,0,0,0,-1,1280,1632,0,0
63,-608,0,0,0,0,0,0,0,0,0,-1,1287,1632,0,0
70,-608,0,0,0,0,0,0,0,0,0,-1,1294,1632,0,0
77,-608,0,0,0,0,0,0,0,0,0,-1,1301,1632,0,0
84,-608,0,0,0,0,0,0,0,0,0,-1,1308,1632,0,0
91,-608,0,0,0,0,0,0,0,0,0,-1,1315,1632,0,0
98,-608,0,0,0,0,0,0,0,0,0,-1,1322,1632,0,0
105,-608,0,0,0,0,0,0,0,0,0,-1,1329,1632,0,0
112,-608,0,0,0,0,0,0,0,0,0,-1,1336,1632,0,0
119,-608,0,0,0,0,0,0,0,0,0,-1,1343,1632,0,0
126,-608,0,0,0,0,0,0,0,0,0,-1,1350,1632,0,0
133,-608,0,0,0,0,0,0,0,0,0,-1,1357,1632,0,0
140,-608,0,0,0,0,0,0,0,0,0,-1,1364,1632,0,0
147,-608,0,0,0,0,0,0,0,0,0,-1,1371,1632,0,0
154,-608,0,0,0,0,0,0,0,0,0,-1,1378,1632,0,0
161,-608,0,0,0,0,0,0,0,0,0,-1,1385,1632,0,0
168,-608,0,0,0,0,0,0,0,0,0,-1,1392,1632,0,0
175,-608,0,0,0,0,0,0,0,0,0,-1,1399,1632,0,0
182,-608,0,0,0,0,0,0,0,0,0,-1,1406,1632,0,0
189,-608,0,0,0,0,0,0,0,0,0,-1,1413,1632,0,0
196,-608,0,0,0,0,0,0,0,0,0,-1,1420,1632,0,0
203,-608,0,0,0,0,0,0,0,0,0,-1,1427,1632,0,0
210,-608,-0.211304,0.0961914,-0.0069067,-0.0407887,0.00258746,-0.00671024,-0.0409851,0.0757812,0.0253841,0.0468935,1434,1632,-0.211326,-0.0961973
217,-608,-0.230713,-0.30249,-0.00673054,-0.0316674,0.00266338,-0.00644924,-0.0319486,0.105224,0.019508,0.0438825,1441,1632,-0.230767,0.302454
224,-608,-0.221924,-0.367676,-0.00599679,-0.0230427,0.00308502,-0.00545564,-0.0235839,0.173647,0.0142563,0.0402365,1448,1632,-0.22197,0.367646
231,-608,-0.212402,-0.242554,-0.00589327,-0.0177363,0.00391423,-0.00471651,-0.0189131,0.292041,0.0113675,0.0433137,1455,1632,-0.212455,0.242501
238,-608,-0.202148,0.0032959,-0.00492519,-0.0122177,0.00394255,-0.00320127,-0.0139416,0.41221,0.00843239,0.0421995,1462,1632,-0.20211,-0.0032607
245,-608,0.875854,0.0152588,0,0,0,0,0,0,0,-1,1469,1632,0.875869,-0.0152988
252,-608,0.536743,0.304565,-0.00301513,-0.00389265,0.00388017,0.000451004,-0.00735878,0.729098,0.00506289,0.0415378,1476,1632,0.536689,-0.304539
259,-608,0.288574,0.660278,-0.00287962,-0.0019828,0.0036695,0.00126559,-0.00612801,0.846196,0.00456605,0.0427807,1483,1632,0.288556,-0.660329
266,-608,0.171387,0.58728,0,0,0,0,0,0,0,-1,1490,1632,0.171335,-0.587224
273,-608,-0.490967,0.0667725,0,0,0,0,0,0,0,-1,1497,1632,-0.490941,-0.0667516
280,-608,0.0240479,-0.29895,0,0,0,0,0,0,0,-1,1504,1632,0.023997,0.298889
287,-608,0.0811768,-0.465454,-0.00637471,0.00215535,0.00591536,0.00518291,-0.00940227,1.09774,0.00853741,0.0456549,1511,1632,0.0812206,0.465421
294,-608,0.244385,-0.865967,0,0,0,0,0,0,0,-1,1518,1632,0.244403,0.865966
301,-608,0.398926,-0.710938,-0.00670994,0.00252753,0.00561511,0.00517943,-0.00936184,1.12957,0.00851037,0.0442598,1525,1632,0.398985,0.710897
308,-608,0.392334,-0.486694,-0.00545737,0.0028869,0.00412856,0.00458432,-0.00715479,1.18072,0.00683153,0.0435736,1532,1632,0.392289,0.486661
315,-608,0.25293,-0.248413,-0.0041831,0.0036659,0.0019133,0.00410745,-0.00462465,1.34399,0.00504443,0.0441003,1539,1632,0.252888,0.24847
322,-608,-0.380859,0.830688,0,0,0,0,0,0,0,-1,1546,1632,-0.380853,-0.830677
329,-608,-0.5354,0.861816,-0.00109948,0.0058865,-0.00335072,0.00723379,-0.00244677,-1.18849,0.00581239,0.0458917,1553,1632,-0.535401,-0.86186
336,-608,-0.620728,0.977783,0.00013566,0.00652718,-0.005166,0.00940599,-0.00274315,-1.0624,0.00735752,0.0452361,1560,1632,-0.620775,-0.977758
343,-608,0.469727,0.599365,0,0,0,0,0,0,0,-1,1567,1632,0.469778,-0.599401
350,-608,0.792358,0.624878,0,0,0,0,0,0,0,-1,1574,1632,0.792354,-0.624862
357,-608,1.02295,0.535034,0,0,0,0,0,0,0,-1,1581,1632,1.023,-0.535057
364,-608,0.679565,0.391479,0.000446175,0.00465451,-0.00722644,0.0100769,-0.00497621,-0.927069,0.00885566,0.0428588,1588,1632,0.679619,-0.391539
371,-608,0.290649,0.169678,-0.000172028,0.00417626,-0.00678588,0.00912777,-0.00512354,-0.940428,0.00833556,0.0382466,1595,1632,0.290595,-0.169739
378,-608,0.0672607,0.0183105,-0.0012285,0.00256972,-0.00576565,0.00674098,-0.00539976,-0.944494,0.0070237,0.0326916,1602,1632,0.0673096,-0.0183172
385,-608,0.0168457,-0.0216064,-0.00239593,0.00188457,-0.00427405,0.0045243,-0.00503566,-1.01752,0.00552207,0.0259548,1609,1632,0.0168014,0.0215962
392,-608,-0.0126953,-0.0684814,-0.00334705,0.0013346,-0.00250462,0.00242198,-0.00443443,-1.1612,0.00401498,0.0172762,1616,1632,-0.0127178,0.0684455
399,-608,-0.0214844,-0.0699463,-0.0041007,0.00155818,-0.00128775,0.00183744,-0.00437996,-1.35724,0.00368831,0.00917295,1623,1632,-0.0214509,0.0700031
406,-608,-0.0100098,-0.0717773,-0.00481527,0.00175898,0.000183883,0.00176412,-0.00482041,1.54286,0.00393572,0.00850806,1630,1632,-0.0100325,0.0717323
413,-608,-0.0354004,-0.0699463,-0.00482125,0.00187471,0.000952894,0.00200768,-0.00495422,1.43215,0.00413771,0.00912528,1637,1632,-0.0354341,0.0699858
420,-608,-0.0639648,-0.0615234,-0.00357981,0.00161788,0.00119793,0.00188068,-0.00384261,1.35484,0.00336844,0.0156299,1644,1632,-0.0639349,0.0614674
427,-608,-0.0216064,-0.0620117,-0.00243944,0.00128801,0.00141186,0.00176241,-0.00291384,1.24664,0.00272698,0.0172955,1651,1632,-0.0216099,0.0620081
434,-608,-0.00134277,-0.0705566,-0.00192037,0.00107322,0.00134189,0.00158667,-0.00243382,1.20535,0.00233834,0.0136982,1658,1632,-0.00134666,0.0705551
441,-608,-0.0205078,-0.0654297,-0.00156466,0.000885426,0.00130768,0.00145224,-0.00213148,1.16179,0.00208142,0.0120171,1665,1632,-0.0205241,0.0654669
448,-608,-0.0181885,-0.0651855,-0.00126748,0.000777078,0.00140642,0.0014935,-0.0019839,1.09966,0.00201432,0.0142687,1672,1632,-0.0181554,0.0651766
455,-608,-0.017334,-0.0701904,-0.00200794,0.000966589,0.00161989,0.00167842,-0.00271976,1.15677,0.0025629,0.0106251,1679,1632,-0.0172865,0.0702026
462,-608,-0.0163574,-0.0758057,-0.00281549,0.00149901,0.00194932,0.00224926,-0.00356575,1.20339,0.00338585,0.00947025,1686,1632,-0.0163917,0.075847
469,-608,-0.0281982,-0.072998,-0.00309973,0.00350471,0.0027586,0.00450534,-0.00410036,1.22282,0.00497034,0.00775725,1693,1632,-0.0281554,0.0730171
476,-608,-0.038208,-0.0682373,-0.00300844,0.00508539,0.00355934,0.00642794,-0.004351,1.2101,0.00626162,0.00784187,1700,1632,-0.0382137,0.0682591
483,-608,-0.0317383,-0.0751953,-0.00300867,0.00707959,0.00437038,0.00870955,-0.00463863,1.21382,0.00782513,0.00733084,1707,1632,-0.0317103,0.0752018
490,-608,-0.0183105,-0.0794678,-0.00262091,0.00927346,0.00538638,0.0113501,-0.00469757,1.20282,0.00952681,0.00783263,1714,1632,-0.0182588,0.0794507
497,-608,-0.0253906,-0.0725098,-0.00206125,0.011543,0.00647573,0.0141325,-0.00465082,1.19038,0.0112957,0.0107898,1721,1632,-0.0254511,0.0725442
504,-608,-0.0870361,-0.110962,-0.00113206,0.0141126,0.00769723,0.0173229,-0.00434242,1.17565,0.0132357,0.0211811,1728,1632,-0.0870642,0.110966
511,-608,-0.183105,-0.151245,0.000279038,0.016004,0.00881545,0.0199538,-0.0036708,1.14956,0.0146799,0.03303,1735,1632,-0.183107,0.151285
518,-608,-0.204712,-0.555176,0,0,0,0,0,0,0,-1,1742,1632,-0.204662,0.555117
525,-608,-0.0961914,-0.693481,0.00340062,0.0195975,0.0114843,0.0255516,-0.0025535,1.09249,0.0179462,0.0427111,1749,1632,-0.0961638,0.693542
532,-608,0.0202637,-0.828735,0.00478911,0.0204222,0.0129766,0.0277546,-0.00254331,1.05647,0.0194065,0.0442792,1756,1632,0.0202032,0.828777
539,-608,0.0107422,-0.579102,0.00605239,0.0203691,0.0145928,0.0294647,-0.00304326,1.01342,0.0207321,0.0387827,1763,1632,0.0107367,0.579095
546,-608,0.0371094,-0.262573,0.00694303,0.0202163,0.0163989,0.0312707,-0.00411129,0.977674,0.022344,0.0401902,1770,1632,0.0371453,0.262529
553,-608,0.0733643,0.0841064,0.00735527,0.0200534,0.0188078,0.0335549,-0.00614621,0.94818,0.0246752,0.0439661,1777,1632,0.0733057,-0.0840474
560,-608,0.139893,0.372314,0.0071311,0.0208287,0.0217645,0.0367965,-0.00883679,0.937831,0.0279463,0.0427281,1784,1632,0.13994,-0.372274
567,-608,0,0,0,0,0,0,0,0,0,-1,1791,1632,0,0
574,-608,0,0,0,0,0,0,0,0,0,-1,1798,1632,0,0
581,-608,0,0,0,0,0,0,0,0,0,-1,1805,1632,0,0
588,-608,0,0,0,0,0,0,0,0,0,-1,1812,1632,0,0
595,-608,0,0,0,0,0,0,0,0,0,-1,1819,1632,0,0
602,-608,0,0,0,0,0,0,0,0,0,-1,1826,1632,0,0
609,-608,0,0,0,0,0,0,0,0,0,-1,1833,1632,0,0
616,-608,0,0,0,0,0,0,0,0,0,-1,1840,1632,0,0
623,-608,0,0,0,0,0,0,0,0,0,-1,1847,1632,0,0
630,-608,0,0,0,0,0,0,0,0,0,-1,1854,1632,0,0
637,-608,0,0,0,0,0,0,0,0,0,-1,1861,1632,0,0
644,-608,0,0,0,0,0,0,0,0,0,-1,1868,1632,0,0
651,-608,0,0,0,0,0,0,0,0,0,-1,1875,1632,0,0
658,-608,0,0,0,0,0,0,0,0,0,-1,1882,1632,0,0
665,-608,0,0,0,0,0,0,0,0,0,-1,1889,1632,0,0
672,-608,0,0,0,0,0,0,0,0,0,-1,1896,1632,0,0
679,-608,0,0,0,0,0,0,0,0,0,-1,1903,1632,0,0
686,-608,0,0,0,0,0,0,0,0,0,-1,1910,1632,0,0
693,-608,0,0,0,0,0,0,0,0,0,-1,1917,1632,0,0
700,-608,0,0,0,0,0,0,0,0,0,-1,1924,1632,0,0
707,-608,0,0,0,0,0,0,0,0,0,-1,1931,1632,0,0
714,-608,0,0,0,0,0,0,0,0,0,-1,1938,1632,0,0
721,-608,0,0,0,0,0,0,0,0,0,-1,1945,1632,0,0
728,-608,0,0,0,0,0,0,0,0,0,-1,1952,1632,0,0
735,-608,0,0,0,0,0,0,0,0,0,-1,1959,1632,0,0
742,-608,0,0,0,0,0,0,0,0,0,-1,1966,1632,0,0
749,-608,0,0,0,0,0,0,0,0,0,-1,1973,1632,0,0
756,-608,0,0,0,0,0,0,0,0,0,-1,1980,1632,0,0
763,-608,0,0,0,0,0,0,0,0,0,-1,1987,1632,0,0
770,-608,0,0,0,0,0,0,0,0,0,-1,1994,1632,0,0
777,-608,0,0,0,0,0,0,0,0,0,-1,2001,1632,0,0
784,-608,0,0,0,0,0,0,0,0,0,-1,2008,1632,0,0
791,-608,0,0,0,0,0,0,0,0,0,-1,2015,1632,0,0
798,-608,0,0,0,0,0,0,0,0,0,-1,2022,1632,0,0
805,-608,0,0,0,0,0,0,0,0,0,-1,2029,1632,0,0
812,-608,0,0,0,0,0,0,0,0,0,-1,2036,1632,0,0
-700,-615,0,0,0,0,0,0,0,0,0,-1,524,1639,0,0
-693,-615,0,0,0,0,0,0,0,0,0,-1,531,1639,0,0
-686,-615,0,0,0,0,0,0,0,0,0,-1,538,1639,0,0
-679,-615,0,0,0,0,0,0,0,0,0,-1,545,1639,0,0
-672,-615,0,0,0,0,0,0,0,0,0,-1,552,1639,0,0
-665,-615,0,0,0,0,0,0,0,0,0,-1,559,1639,0,0
-658,-615,0,0,0,0,0,0,0,0,0,-1,566,1639,0,0
-651,-615,0,0,0,0,0,0,0,0,0,-1,573,1639,0,0
-644,-615,0,0,0,0,0,0,0,0,0,-1,580,1639,0,0
-637,-615,0,0,0,0,0,0,0,0,0,-1,587,1639,0,0
-630,-615,0,0,0,0,0,0,0,0,0,-1,594,1639,0,0
-623,-615,0,0,0,0,0,0,0,0,0,-1,601,1639,0,0
-616,-615,0,0,0,0,0,0,0,0,0,-1,608,1639,0,0
-609,-615,0,0,0,0,0,0,0,0,0,-1,615,1639,0,0
-602,-615,0,0,0,0,0,0,0,0,0,-1,622,1639,0,0
-595,-615,0,0,0,0,0,0,0,0,0,-1,629,1639,0,0
-588,-615,0,0,0,0,0,0,0,0,0,-1,636,1639,0,0
-581,-615,0,0,0,0,0,0,0,0,0,-1,643,1639,0,0
-574,-615,0,0,0,0,0,0,0,0,0,-1,650,1639,0,0
-567,-615,0,0,0,0,0,0,0,0,0,-1,657,1639,0,0
-560,-615,0,0,0,0,0,0,0,0,0,-1,664,1639,0,0
-553,-615,0,0,0,0,0,0,0,0,0,-1,671,1639,0,0
-546,-615,0,0,0,0,0,0,0,0,0,-1,678,1639,0,0
-539,-615,0,0,0,0,0,0,0,0,0,-1,685,1639,0,0
-532,-615,0,0,0,0,0,0,0,0,0,-1,692,1639,0,0
-525,-615,0,0,0,0,0,0,0,0,0,-1,699,1639,0,0
-518,-615,0,0,0,0,0,0,0,0,0,-1,706,1639,0,0
-511,-615,0,0,0,0,0,0,0,0,0,-1,713,1639,0,0
-504,-615,0,0,0,0,0,0,0,0,0,-1,720,1639,0,0
-497,-615,0,0,0,0,0,0,0,0,0,-1,727,1639,0,0
-490,-615,0,0,0,0,0,0,0,0,0,-1,734,1639,0,0
-483,-615,0,0,0,0,0,0,0,0,0,-1,741,1639,0,0
-476,-615,0,0,0,0,0,0,0,0,0,-1,748,1639,0,0
-469,-615,0,0,0,0,0,0,0,0,0,-1,755,1639,0,0
-462,-615,0,0,0,0,0,0,0,0,0,-1,762,1639,0,0
-455,-615,0,0,0,0,0,0,0,0,0,-1,769,1639,0,0
-448,-615,0,0,0,0,0,0,0,0,0,-1,776,1639,0,0
-441,-615,0,0,0,0,0,0,0,0,0,-1,783,1639,0,0
-434,-615,0.963867,0.254395,0.050196,0.0306485,-0.0235721,0.0659403,0.0149043,-0.58887,0.0399303,0.0432016,790,1639,0.963873,-0.254391
-427,-615,1.57654,-0.174072,0.0438875,0.035593,-0.0263238,0.0663887,0.0130918,-0.707267,0.0406049,0.0453073,797,1639,1.57656,0.174058
-420,-615,2.28613,-0.676025,0.0341269,0.0394365,-0.0269455,0.0638577,0.00970575,-0.834502,0.0397337,0.0471585,804,1639,2.28611,0.67597
-413,-615,3.15851,-1.16077,0.0235832,0.0414513,-0.0253905,0.0594337,0.00560081,-0.954566,0.0378937,0.0493402,811,1639,3.15852,1.16078
-406,-615,3.98242,-1.54492,0,0,0,0,0,0,0,-1,818,1639,3.9824,1.5449
-399,-615,4.77039,-2.18933,0,0,0,0,0,0,0,-1,825,1639,4.77037,2.18936
-392,-615,5.51056,-2.86255,0,0,0,0,0,0,0,-1,832,1639,5.51054,2.86252
-385,-615,0.940552,-0.834229,0,0,0,0,0,0,0,-1,839,1639,0.940549,0.834207
-378,-615,0.625244,-0.798096,-0.0150879,0.0248436,-0.0069951,0.0260335,-0.0162778,-1.4023,0.024644,0.0465869,846,1639,0.625264,0.798156
-371,-615,0.300293,-0.517212,-0.0177216,0.01903,-0.00323572,0.0193127,-0.0180043,-1.48365,0.0215494,0.0424682,853,1639,0.300323,0.517243
-364,-615,0.0230713,-0.133911,-0.0182503,0.0133696,-0.000827361,0.0133912,-0.018272,-1.54465,0.018353,0.0306434,860,1639,0.0230898,0.133932
-357,-615,0.0043335,-0.081665,-0.0162949,0.00824636,0.00133807,0.0083191,-0.0163676,1.51649,0.0145032,0.0251329,867,1639,0.00430809,0.0816945
-350,-615,-0.00982666,-0.11792,-0.0135737,0.00448713,0.00209598,0.00472718,-0.0138138,1.45676,0.0111249,0.0201988,874,1639,-0.00983909,0.117972
-343,-615,-0.0231934,-0.0775146,-0.0106464,0.00129889,0.00265912,0.00186409,-0.0112116,1.36136,0.00816696,0.016492,881,1639,-0.0231644,0.0775593
-336,-615,-0.0119019,-0.0803223,-0.00717823,-0.00112154,0.00287636,2.67555e-05,-0.00832652,1.19096,0.00555996,0.00926067,888,1639,-0.0119255,0.0803677
-329,-615,-0.00561523,-0.0817871,-0.00346286,-0.00131824,0.00207245,-5.71224e-05,-0.00472398,1.02414,0.00313045,0.00920164,895,1639,-0.00560871,0.0818288
-322,-615,-0.00994873,-0.0716553,-0.000914177,-0.00141353,0.0015117,0.000368332,-0.00269603,0.703556,0.00193187,0.00889053,902,1639,-0.00993833,0.0716754
-315,-615,-0.00244141,-0.0726318,0.000499207,-0.000858675,0.00106169,0.00108048,-0.00143995,0.500922,0.0014601,0.00948223,909,1639,-0.00246879,0.072659
-308,-615,0.00537109,-0.0936279,0.00085043,-2.71577e-05,0.000739008,0.0012711,-0.000447824,0.517488,0.00102966,0.0147095,916,1639,0.00538653,0.0936563
-301,-615,-0.00842285,-0.0948486,0.000800028,0.00146058,0.000835108,0.00202835,0.000232258,0.973704,0.00128185,0.0123972,923,1639,-0.00842797,0.0948507
-294,-615,-0.0129395,-0.0859375,0.000742407,0.00269833,0.00139472,0.00342379,1.69399e-05,1.09116,0.0022769,0.0104257,930,1639,-0.0129161,0.0859293
-287,-615,-0.0270996,-0.0847168,0.000834579,0.00389558,0.00224583,0.00508283,-0.000352674,1.08449,0.00351202,0.00747097,937,1639,-0.0271054,0.0847019
-280,-615,-0.0231323,-0.0977783,0.00127231,0.00489541,0.00306433,0.00664361,-0.000475885,1.05235,0.00459592,0.00735634,944,1639,-0.0231276,0.0977669
-273,-615,-0.015564,-0.088623,0.00171888,0.00599285,0.0037463,0.00816881,-0.000457078,1.04459,0.00560445,0.00821115,951,1639,-0.0155777,0.0886717
-266,-615,-0.0170898,-0.0742188,0.00206526,0.00675993,0.00406075,0.00910298,-0.000277787,1.04746,0.00616334,0.00895167,958,1639,-0.0170686,0.0741809
-259,-615,-0.00842285,-0.0811768,0.00195039,0.00686969,0.00441686,0.00946558,-0.000645499,1.03945,0.00653619,0.010814,965,1639,-0.0084395,0.0811615
-252,-615,-0.0187988,-0.0882568,0.00173782,0.00625278,0.00476917,0.00927178,-0.00128117,1.00645,0.00664951,0.0120356,972,1639,-0.018828,0.0882975
-245,-615,-0.0426025,-0.0770264,-2.32601e-05,0.00699771,0.00438024,0.0091006,-0.00212615,1.12321,0.00688608,0.0162489,979,1639,-0.0426044,0.0769793
-238,-615,-0.038208,-0.0931396,-0.00257357,0.00573074,0.00375452,0.00717651,-0.00401934,1.20322,0.00654904,0.021735,986,1639,-0.038207,0.093108
-231,-615,-0.00372314,-0.0905762,-0.00579576,0.00371406,0.00370939,0.0049898,-0.0070715,1.23955,0.00699808,0.0293222,993,1639,-0.00374298,0.0905272
-224,-615,0.121704,0.0167236,-0.00924139,0.00151842,0.00358047,0.00260095,-0.0103239,1.27719,0.00789375,0.0400015,1000,1639,0.121679,-0.0166667
-217,-615,-0.0871582,0.516235,-0.0123877,-0.000860023,0.00372375,0.000238216,-0.013486,1.284,0.00907109,0.0444836,1007,1639,-0.0871711,-0.51622
-210,-615,-0.141235,0.219238,-0.0136068,-0.00354082,0.00567045,-0.000991927,-0.0161557,1.14836,0.0104555,0.0497162,1014,1639,-0.14126,-0.219215
-203,-615,0.0806274,0.244873,0,0,0,0,0,0,0,-1,1021,1639,0.0806293,-0.244873
-196,-615,-0.318359,0.281982,-0.0153501,-0.00831364,0.00984405,-0.00137802,-0.0222858,0.957023,0.0144198,0.0448826,1028,1639,-0.318335,-0.281951
-189,-615,-1.32251,-0.141479,-0.0142886,-0.00956664,0.012951,0.00123686,-0.0250921,0.875558,0.0171552,0.0414256,1035,1639,-1.32251,0.141523
-182,-615,-2.52893,-0.125854,-0.0117165,-0.0101508,0.0160377,0.00512312,-0.0269904,0.809785,0.0199221,0.0414024,1042,1639,-2.52894,0.125819
-175,-615,-3.39331,-0.0198975,-0.0077079,-0.0095152,0.0180995,0.00951049,-0.0267336,0.760455,0.0216988,0.0457987,1049,1639,-3.39329,0.019914
-168,-615,0.846558,-0.213501,0,0,0,0,0,0,0,-1,1056,1639,0.846516,0.213473
-161,-615,0.637817,-0.260498,0,0,0,0,0,0,0,-1,1063,1639,0.63782,0.260488
-154,-615,0.513306,-0.30835,0,0,0,0,0,0,0,-1,1070,1639,0.513294,0.308302
-147,-615,0.608032,0.423706,0,0,0,0,0,0,0,-1,1077,1639,0.608075,-0.423754
-140,-615,0.545288,0.102173,0,0,0,0,0,0,0,-1,1084,1639,0.545304,-0.102124
-133,-615,0.638184,0.381226,0.0131587,0.00330605,0.00672383,0.0165678,-0.000102997,0.46924,0.0110797,0.045795,1091,1639,0.638198,-0.381244
-126,-615,0.773804,0.543091,0.0119925,0.00747852,0.00227946,0.0129433,0.00652773,0.395173,0.00747294,0.0416462,1098,1639,0.773788,-0.543044
-119,-615,0.797607,0.39917,0.00816949,0.0101749,-0.00236779,0.0117435,0.00660083,-0.985684,0.00679752,0.0425166,1105,1639,0.797613,-0.399131
-112,-615,0.502563,0.253052,0.00193006,0.0119795,-0.00626927,0.0149892,-0.00107962,-1.12322,0.0103714,0.0387122,1112,1639,0.502542,-0.253024
-105,-615,0.222412,0.0206299,-0.00407239,0.0128451,-0.0105654,0.0179207,-0.00914798,-1.12295,0.0158994,0.0379081,1119,1639,0.222473,-0.0205952
-98,-615,-0.228882,-0.21106,-0.0050453,0.0105185,-0.0104176,0.0157399,-0.0102666,-1.10619,0.0151253,0.0418817,1126,1639,-0.228894,0.211054
-91,-615,-0.757935,-0.520874,0,0,0,0,0,0,0,-1,1133,1639,-0.757991,0.520832
-84,-615,-0.561646,-0.381592,0.0047743,-0.00382871,-0.0012514,0.00495263,-0.00400704,-0.141554,0.00518246,0.0422405,1140,1639,-0.56163,0.381636
-77,-615,-0.424927,-0.221313,0.0118146,-0.01144,0.00404106,0.0124968,-0.0121223,0.167245,0.0142144,0.0427601,1147,1639,-0.424971,0.221367
-70,-615,-1.99341,-0.792358,0,0,0,0,0,0,0,-1,1154,1639,-1.99345,0.792354
-63,-615,-1.62378,-1.3501,0,0,0,0,0,0,0,-1,1161,1639,-1.62378,1.35015
-56,-615,0,0,0,0,0,0,0,0,0,-1,1168,1639,0,0
-49,-615,0,0,0,0,0,0,0,0,0,-1,1175,1639,0,0
-42,-615,0,0,0,0,0,0,0,0,0,-1,1182,1639,0,0
-35,-615,0,0,0,0,0,0,0,0,0,-1,1189,1639,0,0
-28,-615,0,0,0,0,0,0,0,0,0,-1,1196,1639,0,0
-21,-615,0,0,0,0,0,0,0,0,0,-1,1203,1639,0,0
-14,-615,0,0,0,0,0,0,0,0,0,-1,1210,1639,0,0
-7,-615,0,0,0,0,0,0,0,0,0,-1,1217,1639,0,0
0,-615,0,0,0,0,0,0,0,0,0,-1,1224,1639,0,0
7,-615,0,0,0,0,0,0,0,0,0,-1,1231,1639,0,0
14,-615,0,0,0,0,0,0,0,0,0,-1,1238,1639,0,0
21,-615,0,0,0,0,0,0,0,0,0,-1,1245,1639,0,0
28,-615,0,0,0,0,0,0,0,0,0,-1,1252,1639,0,0
35,-615,0,0,0,0,0,0,0,0,0,-1,1259,1639,0,0
42,-615,0,0,0,0,0,0,0,0,0,-1,1266,1639,0,0
49,-615,0,0,0,0,0,0,0,0,0,-1,1273,1639,0,0
56,-615,0,0,0,0,0,0,0,0,0,-1,1280,1639,0,0
63,-615,0,0,0,0,0,0,0,0,0,-1,1287,1639,0,0
70,-615,0,0,0,0,0,0,0,0,0,-1,1294,1639,0,0
77,-615,0,0,0,0,0,0,0,0,0,-1,1301,1639,0,0
84,-615,0,0,0,0,0,0,0,0,0,-1,1308,1639,0,0
91,-615,0,0,0,0,0,0,0,0,0,-1,1315,1639,0,0
98,-615,0,0,0,0,0,0,0,0,0,-1,1322,1639,0,0
105,-615,0,0,0,0,0,0,0,0,0,-1,1329,1639,0,0
112,-615,0,0,0,0,0,0,0,0,0,-1,1336,1639,0,0
119,-615,0,0,0,0,0,0,0,0,0,-1,1343,1639,0,0
126,-615,0,0,0,0,0,0,0,0,0,-1,1350,1639,0,0
133,-615,0,0,0,0,0,0,0,0,0,-1,1357,1639,0,0
140,-615,0,0,0,0,0,0,0,0,0,-1,1364,1639,0,0
147,-615,0,0,0,0,0,0,0,0,0,-1,1371,1639,0,0
154,-615,0,0,0,0,0,0,0,0,0,-1,1378,1639,0,0
161,-615,0,0,0,0,0,0,0,0,0,-1,1385,1639,0,0
168,-615,0,0,0,0,0,0,0,0,0,-1,1392,1639,0,0
175,-615,-0.0300293,-3.1814,0,0,0,0,0,0,0,-1,1399,1639,-0.0300222,3.18145
182,-615,0.157593,-3.22253,0,0,0,0,0,0,0,-1,1406,1639,0.157541,3.22254
189,-615,0.430542,-3.36816,0,0,0,0,0,0,0,-1,1413,1639,0.430482,3.36819
196,-615,0.247925,-0.378052,0,0,0,0,0,0,0,-1,1420,1639,0.24789,0.378081
203,-615,0.164795,-0.211304,-5.3727e-05,-0.0281377,0.00101062,-1.74055e-05,-0.028174,0.0359239,0.0187769,0.0408763,1427,1639,0.164846,0.211365
210,-615,-0.208252,-0.109497,-0.000506899,-0.0331535,0.000554921,-0.00049747,-0.0331629,0.0169913,0.0219447,0.0396972,1434,1639,-0.208245,0.109448
217,-615,-0.438721,-0.134155,-0.00106808,-0.0250117,0.000414793,-0.0010609,-0.0250189,0.0173168,0.0163371,0.0407983,1441,1639,-0.438695,0.134118
224,-615,-0.475342,-0.12207,-0.00084055,-0.0175339,0.000428653,-0.00082955,-0.0175449,0.0256555,0.0114301,0.038747,1448,1639,-0.475308,0.122074
231,-615,-0.258667,0.0234375,-0.00107577,-0.0126516,0.00112444,-0.000967561,-0.0127598,0.0959414,0.00820308,0.0397369,1455,1639,-0.258645,-0.0233927
238,-615,-0.135986,0.0577393,-0.000805474,-0.00792327,0.00172392,-0.000409923,-0.00831882,0.225544,0.00541442,0.0398548,1462,1639,-0.135954,-0.0577427
245,-615,0.0111084,0.024292,-0.000593544,-0.00385639,0.00269724,0.000927273,-0.00537721,0.513409,0.00393053,0.04155,1469,1639,0.0110879,-0.0243345
252,-615,0.472534,0.328125,-0.000687586,-0.00168505,0.00327114,0.00212263,-0.00449526,0.709749,0.00390183,0.0422757,1476,1639,0.472558,-0.328084
259,-615,0.321777,0.207642,-0.00101948,-0.000740613,0.00394617,0.00306858,-0.00482868,0.803058,0.00459708,0.037785,1483,1639,0.32178,-0.207595
266,-615,0.126953,0.105469,-0.00223741,-0.00146002,0.00529716,0.00346268,-0.00716011,0.822022,0.00625568,0.0439081,1490,1639,0.126915,-0.105499
273,-615,0.010498,-0.0534668,0,0,0,0,0,0,0,-1,1497,1639,0.0104709,0.0534058
280,-615,0.370117,-0.546387,0,0,0,0,0,0,0,-1,1504,1639,0.370124,0.54644
287,-615,0.433838,-0.396362,0,0,0,0,0,0,0,-1,1511,1639,0.433795,0.396329
294,-615,0.759277,-0.506592,0,0,0,0,0,0,0,-1,1518,1639,0.759216,0.506536
301,-615,0.587524,-0.368042,-0.00560324,0.00192278,0.00599092,0.00523447,-0.00891493,1.06582,0.00826076,0.0473942,1525,1639,0.587577,0.368003
308,-615,0.381348,-0.21228,-0.00455175,0.00231286,0.00459423,0.00461533,-0.00685422,1.10622,0.00666387,0.0430328,1532,1639,0.381339,0.2123
315,-615,0.119751,0.0045166,-0.00361583,0.00313325,0.00250767,0.00396298,-0.00444556,1.25126,0.00485734,0.0410721,1539,1639,0.11976,-0.00448767
322,-615,-0.295776,0.433472,-0.00263586,0.00447395,6.99295e-05,0.00447464,-0.00263654,1.56096,0.00415111,0.0430486,1546,1639,-0.29579,-0.43345
329,-615,-0.397949,0.672729,-0.00124965,0.00579598,-0.00219323,0.00642292,-0.00187659,-1.29237,0.00502565,0.0457896,1553,1639,-0.397892,-0.672701
336,-615,-0.283691,0.276855,-0.000216188,0.00668594,-0.0038609,0.00841333,-0.00194358,-1.1501,0.00635657,0.0487028,1560,1639,-0.283727,-0.276869
343,-615,0.0106201,0.302979,3.07216e-05,0.00674715,-0.00519569,0.00957544,-0.00279757,-1.0723,0.00749231,0.0489447,1567,1639,0.0106688,-0.302979
350,-615,0.353027,0.329956,0.000356493,0.0065349,-0.00599677,0.0101914,-0.0033,-1.02324,0.00812093,0.0477408,1574,1639,0.353073,-0.329942
357,-615,0.686646,0.377319,0.000474158,0.00605428,-0.00635079,0.0102009,-0.00367242,-0.992369,0.00830009,0.0471548,1581,1639,0.686675,-0.377342
364,-615,0.674072,0.312012,0.000363243,0.00538958,-0.00641348,0.00976472,-0.00401189,-0.972132,0.00818183,0.0420407,1588,1639,0.674107,-0.312044
371,-615,0.17395,0.0115967,-9.55853e-05,0.0047997,-0.00622329,0.00903939,-0.00433527,-0.972758,0.00787946,0.0320304,1595,1639,0.173916,-0.0115606
378,-615,-0.0185547,-0.0352783,-0.000904373,0.00327315,-0.00547275,0.0070422,-0.00467342,-0.967699,0.00680995,0.0169273,1602,1639,-0.0184986,0.0352391
385,-615,-0.0404053,-0.0539551,-0.00182592,0.00235695,-0.00434442,0.00508714,-0.00455611,-1.00973,0.00557035,0.0102684,1609,1639,-0.0403878,0.0539568
392,-615,-0.0213623,-0.0755615,-0.00260487,0.00155657,-0.0029583,0.00309261,-0.0041409,-1.09188,0.00419086,0.00902874,1616,1639,-0.0213817,0.0755236
399,-615,-0.0246582,-0.0649414,-0.00329894,0.00151122,-0.00202746,0.00225177,-0.00403949,-1.22059,0.00368082,0.0103686,1623,1639,-0.0246304,0.0649628
406,-615,-0.0275879,-0.0609131,-0.00392687,0.00151587,-0.000840495,0.00164271,-0.00405371,-1.42102,0.0033856,0.010409,1630,1639,-0.0275627,0.0609168
413,-615,-0.0372314,-0.072998,-0.00390799,0.00149831,-0.000182806,0.00150449,-0.00391417,-1.53703,0.00322993,0.0108861,1637,1639,-0.0371976,0.0730231
420,-615,-0.0303955,-0.0858154,-0.002881,0.00122473,0.000165895,0.00123142,-0.0028877,1.53048,0.00244142,0.0117147,1644,1639,-0.0303941,0.0858063
427,-615,-0.0134277,-0.0881348,-0.00192892,0.000843143,0.000474611,0.00092215,-0.00200792,1.40584,0.00172996,0.0135601,1651,1639,-0.0133902,0.088142
434,-615,0.00317383,-0.0883789,-0.00161135,0.000579087,0.000554859,0.000711619,-0.00174388,1.33633,0.00145884,0.0127499,1658,1639,0.00313649,0.0884047
441,-615,-0.0107422,-0.0800781,-0.00154807,0.000351678,0.000804053,0.000646296,-0.00184269,1.21957,0.00149132,0.0128815,1665,1639,-0.0107685,0.0800487
448,-615,-0.0172119,-0.0606689,-0.00165351,0.000333427,0.00124529,0.00093298,-0.00225306,1.12209,0.00189136,0.0145272,1672,1639,-0.0171648,0.0606661
455,-615,-0.0157471,-0.0625,-0.00281651,0.000756834,0.00184783,0.00154051,-0.00360018,1.16968,0.00304635,0.0135844,1679,1639,-0.0157732,0.0624828
462,-615,-0.020874,-0.071167,-0.00397736,0.00142221,0.00247302,0.00238366,-0.00493881,1.2,0.00431257,0.0138914,1686,1639,-0.0208545,0.0711831
469,-615,-0.0256348,-0.0681152,-0.00443149,0.004003,0.00364915,0.00536262,-0.00579111,1.21414,0.0064412,0.0117345,1693,1639,-0.0256836,0.0680741
476,-615,-0.0325928,-0.0611572,-0.00441634,0.00603805,0.00486675,0.00795291,-0.00633119,1.19594,0.00826462,0.00992021,1700,1639,-0.0325569,0.0611132
483,-615,-0.0369873,-0.083252,-0.00453279,0.00867258,0.00606524,0.0110355,-0.00689574,1.1993,0.0104442,0.0132854,1707,1639,-0.0369808,0.0832582
490,-615,-0.0307617,-0.0753174,-0.00417403,0.0115041,0.00753975,0.0145416,-0.00721149,1.18783,0.0127946,0.0154577,1714,1639,-0.0307962,0.0752984
497,-615,-0.0476074,-0.0307617,-0.0035834,0.0145154,0.00909639,0.0182971,-0.00736506,1.1768,0.0152576,0.0196333,1721,1639,-0.0475533,0.0307676
504,-615,-0.0913086,-0.0759277,-0.00245228,0.0178763,0.0108433,0.0225743,-0.00715035,1.16194,0.0179151,0.0343878,1728,1639,-0.0913652,0.0759102
511,-615,-0.470703,0.171143,0,0,0,0,0,0,0,-1,1735,1639,-0.470675,-0.171174
518,-615,-0.0926514,0.416016,0.00138617,0.023064,0.0142835,0.0301556,-0.00570537,1.10997,0.0222507,0.0409938,1742,1639,-0.0925993,-0.416011
525,-615,-0.017334,-0.673218,0.00364909,0.0251197,0.0161638,0.0337884,-0.00501964,1.07853,0.0243717,0.0402985,1749,1639,-0.0173247,0.673197
532,-615,0.0264893,-0.628784,0.00571567,0.026258,0.018283,0.0369574,-0.00498377,1.04132,0.0264565,0.0424915,1756,1639,0.0264838,0.628817
539,-615,0.156128,-0.584229,0.00766596,0.0257762,0.0205184,0.0391487,-0.00570661,0.993203,0.0281945,0.0398355,1763,1639,0.156096,0.584251
546,-615,-0.0440674,-0.313354,0.00891685,0.0243357,0.0229025,0.0407915,-0.00753901,0.94775,0.0300245,0.0408608,1770,1639,-0.0440575,0.31332
553,-615,-0.365967,-0.153076,0.00918463,0.0219543,0.0260347,0.0423757,-0.0112367,0.905646,0.0326471,0.0419889,1777,1639,-0.365936,0.153052
560,-615,0,0,0,0,0,0,0,0,0,-1,1784,1639,0,0
567,-615,0,0,0,0,0,0,0,0,0,-1,1791,1639,0,0
574,-615,0,0,0,0,0,0,0,0,0,-1,1798,1639,0,0
581,-615,0,0,0,0,0,0,0,0,0,-1,1805,1639,0,0
588,-615,0,0,0,0,0,0,0,0,0,-1,1812,1639,0,0
595,-615,0,0,0,0,0,0,0,0,0,-1,1819,1639,0,0
602,-615,0,0,0,0,0,0,0,0,0,-1,1826,1639,0,0
609,-615,0,0,0,0,0,0,0,0,0,-1,1833,1639,0,0
616,-615,0,0,0,0,0,0,0,0,0,-1,1840,1639,0,0
623,-615,0,0,0,0,0,0,0,0,0,-1,1847,1639,0,0
630,-615,0,0,0,0,0,0,0,0,0,-1,1854,1639,0,0
637,-615,0,0,0,0,0,0,0,0,0,-1,1861,1639,0,0
644,-615,0,0,0,0,0,0,0,0,0,-1,1868,1639,0,0
651,-615,0,0,0,0,0,0,0,0,0,-1,1875,1639,0,0
658,-615,0,0,0,0,0,0,0,0,0,-1,1882,1639,0,0
665,-615,0,0,0,0,0,0,0,0,0,-1,1889,1639,0,0
672,-615,0,0,0,0,0,0,0,0,0,-1,1896,1639,0,0
679,-615,0,0,0,0,0,0,0,0,0,-1,1903,1639,0,0
686,-615,0,0,0,0,0,0,0,0,0,-1,1910,1639,0,0
693,-615,0,0,0,0,0,0,0,0,0,-1,1917,1639,0,0
700,-615,0,0,0,0,0,0,0,0,0,-1,1924,1639,0,0
707,-615,0,0,0,0,0,0,0,0,0,-1,1931,1639,0,0
714,-615,0,0,0,0,0,0,0,0,0,-1,1938,1639,0,0
721,-615,0,0,0,0,0,0,0,0,0,-1,1945,1639,0,0
728,-615,0,0,0,0,0,0,0,0,0,-1,1952,1639,0,0
735,-615,0,0,0,0,0,0,0,0,0,-1,1959,1639,0,0
742,-615,0,0,0,0,0,0,0,0,0,-1,1966,1639,0,0
749,-615,0,0,0,0,0,0,0,0,0,-1,1973,1639,0,0
756,-615,0,0,0,0,0,0,0,0,0,-1,1980,1639,0,0
763,-615,0,0,0,0,0,0,0,0,0,-1,1987,1639,0,0
770,-615,0,0,0,0,0,0,0,0,0,-1,1994,1639,0,0
777,-615,0,0,0,0,0,0,0,0,0,-1,2001,1639,0,0
784,-615,0,0,0,0,0,0,0,0,0,-1,2008,1639,0,0
791,-615,0,0,0,0,0,0,0,0,0,-1,2015,1639,0,0
798,-615,0,0,0,0,0,0,0,0,0,-1,2022,1639,0,0
805,-615,0,0,0,0,0,0,0,0,0,-1,2029,1639,0,0
812,-615,0,0,0,0,0,0,0,0,0,-1,2036,1639,0,0
-700,-622,0,0,0,0,0,0,0,0,0,-1,524,1646,0,0
-693,-622,0,0,0,0,0,0,0,0,0,-1,531,1646,0,0
-686,-622,0,0,0,0,0,0,0,0,0,-1,538,1646,0,0
-679,-622,0,0,0,0,0,0,0,0,0,-1,545,1646,0,0
-672,-622,0,0,0,0,0,0,0,0,0,-1,552,1646,0,0
-665,-622,0,0,0,0,0,0,0,0,0,-1,559,1646,0,0
-658,-622,0,0,0,0,0,0,0,0,0,-1,566,1646,0,0
-651,-622,0,0,0,0,0,0,0,0,0,-1,573,1646,0,0
-644,-622,0,0,0,0,0,0,0,0,0,-1,580,1646,0,0
-637,-622,0,0,0,0,0,0,0,0,0,-1,587,1646,0,0
-630,-622,0,0,0,0,0,0,0,0,0,-1,594,1646,0,0
-623,-622,0,0,0,0,0,0,0,0,0,-1,601,1646,0,0
-616,-622,0,0,0,0,0,0,0,0,0,-1,608,1646,0,0
-609,-622,0,0,0,0,0,0,0,0,0,-1,615,1646,0,0
-602,-622,0,0,0,0,0,0,0,0,0,-1,622,1646,0,0
-595,-622,0,0,0,0,0,0,0,0,0,-1,629,1646,0,0
-588,-622,0,0,0,0,0,0,0,0,0,-1,636,1646,0,0
-581,-622,0,0,0,0,0,0,0,0,0,-1,643,1646,0,0
-574,-622,0,0,0,0,0,0,0,0,0,-1,650,1646,0,0
-567,-622,0,0,0,0,0,0,0,0,0,-1,657,1646,0,0
-560,-622,0,0,0,0,0,0,0,0,0,-1,664,1646,0,0
-553,-622,0,0,0,0,0,0,0,0,0,-1,671,1646,0,0
-546,-622,0,0,0,0,0,0,0,0,0,-1,678,1646,0,0
-539,-622,0,0,0,0,0,0,0,0,0,-1,685,1646,0,0
-532,-622,0,0,0,0,0,0,0,0,0,-1,692,1646,0,0
-525,-622,0,0,0,0,0,0,0,0,0,-1,699,1646,0,0
-518,-622,0,0,0,0,0,0,0,0,0,-1,706,1646,0,0
-511,-622,0,0,0,0,0,0,0,0,0,-1,713,1646,0,0
-504,-622,0,0,0,0,0,0,0,0,0,-1,720,1646,0,0
-497,-622,0,0,0,0,0,0,0,0,0,-1,727,1646,0,0
-490,-622,0,0,0,0,0,0,0,0,0,-1,734,1646,0,0
-483,-622,0,0,0,0,0,0,0,0,0,-1,741,1646,0,0
-476,-622,0,0,0,0,0,0,0,0,0,-1,748,1646,0,0
-469,-622,0,0,0,0,0,0,0,0,0,-1,755,1646,0,0
-462,-622,0,0,0,0,0,0,0,0,0,-1,762,1646,0,0
-455,-622,0,0,0,0,0,0,0,0,0,-1,769,1646,0,0
-448,-622,0,0,0,0,0,0,0,0,0,-1,776,1646,0,0
-441,-622,0,0,0,0,0,0,0,0,0,-1,783,1646,0,0
-434,-622,0,0,0,0,0,0,0,0,0,-1,790,1646,0,0
-427,-622,1.38654,-0.47168,0.0652832,0.0397211,-0.0306636,0.0857228,0.0192815,-0.587939,0.0519286,0.0486884,797,1646,1.38654,0.471718
-420,-622,2.10028,-0.952026,0.0492759,0.0460181,-0.0307712,0.0784613,0.0168327,-0.758955,0.0476972,0.0475833,804,1646,2.10031,0.952081
-413,-622,3.08948,-1.38708,0.0333582,0.0488304,-0.0278896,0.070037,0.0121516,-0.920689,0.0432141,0.0486656,811,1646,3.08949,1.3871
-406,-622,4.08948,-1.79407,0,0,0,0,0,0,0,-1,818,1646,4.0895,1.7941
-399,-622,5.08728,-1.44666,0,0,0,0,0,0,0,-1,825,1646,5.08728,1.44662
-392,-622,2.44757,-1.57251,-0.00297031,0.0399571,-0.0147308,0.0445258,-0.00753903,-1.27006,0.0324898,0.0482024,832,1646,2.44759,1.57245
-385,-622,1.61554,-1.18689,-0.0114322,0.0342541,-0.00924396,0.0360536,-0.0132317,-1.37853,0.0294542,0.0454747,839,1646,1.61554,1.18694
-378,-622,0.860229,-0.872437,-0.0167086,0.0278713,-0.00461123,0.0283432,-0.0171806,-1.4688,0.0265453,0.0422926,846,1646,0.860215,0.872401
-371,-622,0.262512,-0.366821,-0.0195685,0.0211042,-0.000461457,0.0211094,-0.0195737,-1.55945,0.023494,0.0436238,853,1646,0.262525,0.366781
-364,-622,0.0176392,-0.203857,-0.0200005,0.0146523,0.00219153,0.0147903,-0.0201385,1.50789,0.0202448,0.0422121,860,1646,0.01762,0.203802
-357,-622,0.0560303,-0.191895,-0.0177046,0.00884609,0.00444497,0.00957048,-0.018429,1.40925,0.016433,0.0411048,867,1646,0.0560178,0.191892
-350,-622,0.0491943,-0.131592,-0.0146148,0.00454286,0.0050348,0.00578545,-0.0158574,1.32883,0.0129387,0.0332357,874,1646,0.04922,0.131566
-343,-622,-0.020874,-0.0690918,-0.0114148,0.00102435,0.00527125,0.00295763,-0.0133481,1.21927,0.010031,0.0205825,881,1646,-0.0208745,0.0690621
-336,-622,-0.0259399,-0.0734863,-0.00766592,-0.0016855,0.00516768,0.00129474,-0.0106462,1.04768,0.00756603,0.00869945,888,1646,-0.0259457,0.0735052
-329,-622,-0.0264893,-0.0686035,-0.00351314,-0.00192334,0.00394899,0.00130996,-0.00674644,0.884717,0.00499191,0.00821357,895,1646,-0.026471,0.0686457
-322,-622,-0.0239868,-0.0610352,-0.000745169,-0.00206803,0.0030377,0.00170228,-0.00451547,0.678201,0.00371028,0.00909048,902,1646,-0.0239933,0.0610256
-315,-622,-0.0143433,-0.0617676,0.000611051,-0.00147318,0.00217301,0.00197891,-0.00284104,0.561812,0.0027976,0.0120728,909,1646,-0.0143676,0.0617731
-308,-622,0.000549316,-0.0843506,0.000625559,-0.000670075,0.00132823,0.00145554,-0.00150005,0.558507,0.00170647,0.0127361,916,1646,0.000530385,0.0844098
-301,-622,-0.00756836,-0.0874023,0.000240042,0.000788457,0.000952007,0.00150496,-0.000476461,0.925618,0.00119424,0.0128399,923,1646,-0.00759335,0.087389
-294,-622,-0.0206299,-0.0775146,3.20388e-05,0.00194018,0.00119041,0.00251167,-0.000539448,1.12322,0.00188024,0.00962793,930,1646,-0.0206215,0.0775435
-287,-622,-0.019165,-0.0709229,7.93995e-05,0.0029187,0.00175526,0.00375656,-0.000758459,1.12544,0.00279175,0.00692094,937,1646,-0.0191621,0.0709506
-280,-622,-0.015564,-0.072998,0.000499552,0.00363945,0.00239371,0.00493212,-0.000793117,1.07564,0.00358184,0.00727044,944,1646,-0.0155834,0.0730099
-273,-622,-0.013855,-0.0836182,0.0009262,0.00444834,0.00293267,0.00610808,-0.000733538,1.05579,0.00433729,0.0103903,951,1646,-0.013865,0.0835826
-266,-622,-0.0218506,-0.0874023,0.00137479,0.0050768,0.00317923,0.00690462,-0.000453023,1.04902,0.00476127,0.0107482,958,1646,-0.0218588,0.0874605
-259,-622,-0.0088501,-0.0656738,0.00154954,0.00523607,0.00338746,0.00724929,-0.000463685,1.03457,0.0049946,0.0117127,965,1646,-0.00883467,0.0657289
-252,-622,-0.0200806,-0.0743408,0.0015806,0.00488546,0.00360433,0.0071981,-0.00073203,1.00033,0.00506042,0.0123435,972,1646,-0.0200643,0.0743754
-245,-622,-0.0297241,-0.0793457,0.000302131,0.00554987,0.00327771,0.00712458,-0.00127258,1.12293,0.00522582,0.00840446,979,1646,-0.0297155,0.0793281
-238,-622,-0.0284424,-0.0932617,-0.00171568,0.00468547,0.00267019,0.00565306,-0.00268327,1.22315,0.00491373,0.00803091,986,1646,-0.0284708,0.0932641
-231,-622,-0.0325317,-0.0860596,-0.00441206,0.00314184,0.00260592,0.00395359,-0.00522381,1.26882,0.00531546,0.0115334,993,1646,-0.0325525,0.0860576
-224,-622,-0.0137939,-0.0354004,-0.00737379,0.00150537,0.00243082,0.00212729,-0.00799571,1.32032,0.00616319,0.0192726,1000,1646,-0.0137911,0.0353551
-217,-622,-0.0134277,0.0664063,-0.0101505,-0.000217419,0.00248352,0.000368914,-0.0107368,1.33895,0.00728396,0.0280624,1007,1646,-0.0134425,-0.0664391
-210,-622,-0.343201,0.255005,-0.0113446,-0.00224001,0.00412491,-0.000649161,-0.0129355,1.20271,0.00841562,0.0409552,1014,1646,-0.343203,-0.25505
-203,-622,-0.0584717,0.136475,-0.0125169,-0.00402572,0.00566386,-0.00119287,-0.0153497,1.10702,0.00985961,0.0480195,1021,1646,-0.0584588,-0.136502
-196,-622,-0.265137,0.0394287,-0.0132983,-0.00584632,0.00754727,-0.00115542,-0.0179892,1.01469,0.0116268,0.0428645,1028,1646,-0.265185,-0.0394619
-189,-622,-1.31885,-0.155518,-0.0128151,-0.00684544,0.0100672,0.000670111,-0.0203307,0.929516,0.0137826,0.0409362,1035,1646,-1.31884,0.155552
-182,-622,-2.2937,-0.122925,-0.0109821,-0.00719616,0.0125955,0.00364786,-0.0218261,0.859984,0.0159067,0.0408523,1042,1646,-2.29368,0.122926
-175,-622,0.787598,-0.156616,0,0,0,0,0,0,0,-1,1049,1646,0.787646,0.156637
-168,-622,0.636719,-0.2052,-0.00243893,-0.00579472,0.0147448,0.0107231,-0.0189567,0.728744,0.0173541,0.0457305,1056,1646,0.636774,0.205184
-161,-622,0.458008,-0.252563,0.00233386,-0.00364733,0.014549,0.0141964,-0.0155099,0.684033,0.0171566,0.0461117,1063,1646,0.457981,0.252511
-154,-622,0.368286,-0.322632,0.00595095,-0.00196128,0.0127876,0.0153804,-0.0113907,0.635382,0.0155134,0.0473202,1070,1646,0.368334,0.322652
-147,-622,0.276489,-0.38501,0,0,0,0,0,0,0,-1,1077,1646,0.276539,0.385019
-140,-622,0.805176,0.13147,0,0,0,0,0,0,0,-1,1084,1646,0.805115,-0.13147
-133,-622,0.893799,0.621338,0,0,0,0,0,0,0,-1,1091,1646,0.893848,-0.621332
-126,-622,-1.33313,1.69653,0,0,0,0,0,0,0,-1,1098,1646,-1.33313,-1.69652
-119,-622,-1.08606,1.63635,0.00781819,0.0099601,-0.00480623,0.0138132,0.00396504,-0.89502,0.00821265,0.0466225,1105,1646,-1.08612,-1.63635
-112,-622,0.5271,-0.416992,0.00274956,0.0110916,-0.00830726,0.0162162,-0.002375,-1.01806,0.0116832,0.0414915,1112,1646,0.527131,0.416941
-105,-622,0.237915,-0.366821,-0.0021229,0.0115035,-0.01235,0.018795,-0.00941435,-1.03746,0.0165841,0.0418246,1119,1646,0.237911,0.366761
-98,-622,-0.122925,-0.125732,-0.00295873,0.00936965,-0.0128094,0.0174209,-0.0110099,-1.00966,0.016553,0.0432591,1126,1646,-0.122873,0.125689
-91,-622,-0.474243,-0.337891,-0.00029275,0.0036696,-0.0104098,0.0122851,-0.00890824,-0.879433,0.0122876,0.0429883,1133,1646,-0.474188,0.337896
-84,-622,-0.42395,-0.140381,0.00394938,-0.00177464,-0.00601059,0.00774457,-0.00556983,-0.5632,0.00772117,0.0432195,1140,1646,-0.423949,0.140365
-77,-622,-0.197144,-0.167847,0.0088491,-0.00739483,-0.00220542,0.0091432,-0.00768893,-0.132572,0.00973012,0.0409061,1147,1646,-0.197146,0.167901
-70,-622,-2.12341,-0.401489,0,0,0,0,0,0,0,-1,1154,1646,-2.1234,0.401543
-63,-622,-1.75671,-0.97229,0,0,0,0,0,0,0,-1,1161,1646,-1.7567,0.972325
-56,-622,-1.13635,-1.47876,0.0314477,-0.0304547,0.00971408,0.0329363,-0.0319433,0.152058,0.0374597,0.0430935,1168,1646,-1.13637,1.47873
-49,-622,-0.693237,-1.84839,0.0426868,-0.0379981,0.01326,0.0448101,-0.0401214,0.158781,0.0490601,0.0438034,1175,1646,-0.693191,1.84837
-42,-622,-0.288574,-2.16638,0.0534616,-0.0424989,0.0152045,0.0558131,-0.0448503,0.15344,0.0582328,0.0460555,1182,1646,-0.288584,2.16644
-35,-622,0.0284424,0.20459,0.0616728,-0.0440271,0.0160709,0.0640622,-0.0464166,0.1476,0.0640556,0.0457764,1189,1646,0.0284298,-0.20462
-28,-622,-0.0187988,0.646729,0,0,0,0,0,0,0,-1,1196,1646,-0.0187395,-0.646751
-21,-622,-0.349854,1.91553,0,0,0,0,0,0,0,-1,1203,1646,-0.34983,-1.91558
-14,-622,-0.300903,1.55127,0.0646669,-0.0351471,0.00760095,0.0652424,-0.0357226,0.0755704,0.0591168,0.0446213,1210,1646,-0.300936,-1.55124
-7,-622,0.567505,1.19543,0.0566275,-0.0281805,0.00183441,0.0566672,-0.0282202,0.0216166,0.0499186,0.0471531,1217,1646,0.567499,-1.19544
0,-622,0,0,0,0,0,0,0,0,0,-1,1224,1646,0,0
7,-622,0,0,0,0,0,0,0,0,0,-1,1231,1646,0,0
14,-622,0,0,0,0,0,0,0,0,0,-1,1238,1646,0,0
21,-622,0,0,0,0,0,0,0,0,0,-1,1245,1646,0,0
28,-622,0,0,0,0,0,0,0,0,0,-1,1252,1646,0,0
35,-622,0,0,0,0,0,0,0,0,0,-1,1259,1646,0,0
42,-622,0,0,0,0,0,0,0,0,0,-1,1266,1646,0,0
49,-622,0,0,0,0,0,0,0,0,0,-1,1273,1646,0,0
56,-622,0,0,0,0,0,0,0,0,0,-1,1280,1646,0,0
63,-622,0,0,0,0,0,0,0,0,0,-1,1287,1646,0,0
70,-622,0,0,0,0,0,0,0,0,0,-1,1294,1646,0,0
77,-622,0,0,0,0,0,0,0,0,0,-1,1301,1646,0,0
84,-622,0,0,0,0,0,0,0,0,0,-1,1308,1646,0,0
91,-622,0,0,0,0,0,0,0,0,0,-1,1315,1646,0,0
98,-622,0,0,0,0,0,0,0,0,0,-1,1322,1646,0,0
105,-622,0,0,0,0,0,0,0,0,0,-1,1329,1646,0,0
112,-622,0,0,0,0,0,0,0,0,0,-1,1336,1646,0,0
119,-622,0,0,0,0,0,0,0,0,0,-1,1343,1646,0,0
126,-622,1.03345,1.49512,0,0,0,0,0,0,0,-1,1350,1646,1.03344,-1.49512
133,-622,1.41919,1.50305,0,0,0,0,0,0,0,-1,1357,1646,1.41923,-1.50299
140,-622,1.76978,1.93933,0.0475506,0.0768584,0.0267804,0.0927319,0.031677,1.03574,0.054427,0.0439155,1364,1646,1.76981,-1.93929
147,-622,1.92725,2.35864,0.0409884,0.0601289,0.0235938,0.0760195,0.0250978,0.978071,0.0447261,0.0459147,1371,1646,1.92723,-2.3586
154,-622,2.05615,3.52148,0.0319205,0.0430707,0.0206065,0.058843,0.0161482,0.91751,0.0351065,0.0445654,1378,1646,2.05621,-3.52145
161,-622,1.36682,3.8064,0,0,0,0,0,0,0,-1,1385,1646,1.36679,-3.80634
168,-622,0.0151367,-2.94775,0,0,0,0,0,0,0,-1,1392,1646,0.0151198,2.94781
175,-622,0.246094,-2.93274,0.0123659,0.0045857,0.0109269,0.0200745,-0.00312294,0.614389,0.0145362,0.0465562,1399,1646,0.246093,2.93279
182,-622,0.46167,-2.90906,0.00949859,-0.00623035,0.00797739,0.0128363,-0.00956805,0.396263,0.0129809,0.047429,1406,1646,0.461616,2.90907
189,-622,0.655762,-3.11292,0.00742472,-0.0142998,0.00519252,0.00860202,-0.0154771,0.22296,0.0140897,0.0441311,1413,1646,0.655759,3.11288
196,-622,1.10352,-3.09888,0,0,0,0,0,0,0,-1,1420,1646,1.10346,3.09883
203,-622,0.18689,0.190186,0.00450516,-0.0227994,0.000348377,0.0045096,-0.0228038,0.0127562,0.0169074,0.0381571,1427,1646,0.186901,-0.190148
210,-622,-0.101563,0.195679,0.00344998,-0.027307,-0.00023653,0.0034518,-0.0273089,-0.00768968,0.0194588,0.0358431,1434,1646,-0.101598,-0.195735
217,-622,-0.24231,0.199585,0.0024704,-0.019622,-0.000396334,0.00247751,-0.0196291,-0.0179322,0.0139852,0.0416821,1441,1646,-0.242289,-0.199595
224,-622,-0.195435,0.194214,0.00232909,-0.0129351,-0.000527972,0.00234734,-0.0129533,-0.0345339,0.00951502,0.0417067,1448,1646,-0.195466,-0.194191
231,-622,-0.174194,0.154785,0.00190344,-0.00836326,1.20501e-05,0.00190345,-0.00836328,0.00117371,0.00630649,0.0434859,1455,1646,-0.174163,-0.154813
238,-622,-0.0509033,0.16272,0.00175863,-0.00432174,0.000786006,0.00185859,-0.0044217,0.126499,0.00372523,0.0431588,1462,1646,-0.0508932,-0.162746
245,-622,0.167236,0.0808105,0.00141733,-0.00110249,0.00196618,0.00249263,-0.00217779,0.500461,0.00269851,0.0430142,1469,1646,0.167191,-0.0808022
252,-622,0.181763,-0.128418,0.000826622,0.000184085,0.00290686,0.00342992,-0.00241921,0.730361,0.00339376,0.0426074,1476,1646,0.18178,0.12841
259,-622,-0.0078125,-0.302124,0.000236675,0.000364512,0.0040169,0.004318,-0.00371681,0.793354,0.00464323,0.0377892,1483,1646,-0.0077689,0.302131
266,-622,-0.072876,-0.421387,-0.00112236,-0.00065994,0.00550737,0.00462107,-0.00640337,0.806377,0.00639263,0.0434377,1490,1646,-0.0728992,0.421384
273,-622,0.0598145,-1.31543,0,0,0,0,0,0,0,-1,1497,1646,0.0598376,1.31545
280,-622,0.360229,-0.684937,-0.00368269,0.000944117,0.00658087,0.00560637,-0.00834493,0.954419,0.00810635,0.0490554,1504,1646,0.360259,0.684963
287,-622,0.530396,-0.412598,-0.00490851,0.00146585,0.00636662,0.00539849,-0.00884116,1.01747,0.00830097,0.0497421,1511,1646,0.530436,0.412607
294,-622,0.429077,0.324341,0,0,0,0,0,0,0,-1,1518,1646,0.429029,-0.324347
301,-622,0.280029,0.206909,-0.00470856,0.00177371,0.0061714,0.00550332,-0.00843816,1.02719,0.00810835,0.046052,1525,1646,0.280012,-0.206957
308,-622,0.101074,0.0849609,-0.00384377,0.00225462,0.00494946,0.00501875,-0.00660791,1.06147,0.00673352,0.0413503,1532,1646,0.101093,-0.0849411
315,-622,-0.0722656,0.288086,-0.00318932,0.00313376,0.00310544,0.00440382,-0.00445938,1.18257,0.00511721,0.0413967,1539,1646,-0.0722406,-0.288065
322,-622,-0.196289,0.447632,-0.00249511,0.00453145,0.000959272,0.00466006,-0.00262372,1.43752,0.00425972,0.0439254,1546,1646,-0.196313,-0.447575
329,-622,-0.364868,0.48584,-0.00139204,0.0059906,-0.000909812,0.00610106,-0.00150251,-1.44997,0.00464985,0.0437769,1553,1646,-0.364809,-0.485781
336,-622,-0.429199,0.348877,-0.000544193,0.00702081,-0.002348,0.00769032,-0.00121371,-1.29303,0.00557566,0.0455787,1560,1646,-0.429249,-0.348872
343,-622,-0.451172,-0.206787,-0.000263311,0.00723859,-0.0036161,0.0086978,-0.00172252,-1.18725,0.00644984,0.0455697,1567,1646,-0.451147,0.206822
350,-622,-0.0577393,-0.0656738,0.000142784,0.00708668,-0.00446533,0.00927102,-0.00204156,-1.11584,0.00696171,0.0396204,1574,1646,-0.0577039,0.0656423
357,-622,0.279297,0.086792,0.000376081,0.00669199,-0.00491957,0.00937997,-0.00231189,-1.07073,0.00714964,0.0346073,1581,1646,0.279299,-0.0868522
364,-622,0.412109,0.114136,0,0,0,0,0,0,0,-1,1588,1646,0.412106,-0.114115
371,-622,-0.000854492,-0.0560303,7.05394e-05,0.0051889,-0.00511203,0.00834655,-0.00308712,-1.01747,0.00683007,0.0165992,1595,1646,-0.000825726,0.0559913
378,-622,-0.0227051,-0.0511475,-0.00048731,0.00361433,-0.00460845,0.00660768,-0.00348066,-0.994748,0.00591704,0.00993276,1602,1646,-0.0226999,0.0511989
385,-622,-0.0345459,-0.0578613,-0.00116721,0.00243162,-0.00381171,0.00484731,-0.00358289,-1.00593,0.00488539,0.009008,1609,1646,-0.0344965,0.057915
392,-622,-0.0273438,-0.0705566,-0.00180306,0.00137075,-0.00280662,0.00300804,-0.00344034,-1.0427,0.00372576,0.0104019,1616,1646,-0.0273101,0.0705498
399,-622,-0.0270996,-0.0639648,-0.00246258,0.00101739,-0.0021697,0.00205862,-0.00350381,-1.12336,0.0032474,0.0111729,1623,1646,-0.0270901,0.0639464
406,-622,-0.0477295,-0.0795898,-0.00301229,0.000813379,-0.00128977,0.00120759,-0.00340649,-1.27417,0.00276294,0.0130877,1630,1646,-0.0477459,0.0796098
413,-622,-0.0511475,-0.106812,-0.00306148,0.000658914,-0.000759277,0.000807904,-0.00321047,-1.37703,0.00245435,0.0127393,1637,1646,-0.0511686,0.106869
420,-622,-0.0245361,-0.0983887,-0.00235297,0.000345854,-0.000315907,0.000382339,-0.00238946,-1.45581,0.00173452,0.0128293,1644,1646,-0.0245806,0.0983715
427,-622,-0.0198975,-0.097168,-0.00166254,-0.000116454,8.75118e-05,-0.000111517,-0.00166748,1.51443,0.00107641,0.010791,1651,1646,-0.0199377,0.0971376
434,-622,-0.00622559,-0.0998535,-0.0015997,-0.000439524,0.000307526,-0.000363049,-0.00167617,1.32706,0.00101824,0.0115413,1658,1646,-0.00619668,0.0998151
441,-622,-0.00878906,-0.0906982,-0.00188248,-0.000706473,0.000831869,-0.000275776,-0.00231318,1.09305,0.00145891,0.0143007,1665,1646,-0.00884939,0.0907138
448,-622,-0.0385742,-0.072998,-0.0024589,-0.000579339,0.00159509,0.000332234,-0.00337048,1.05161,0.00236552,0.013217,1672,1646,-0.0386138,0.073008
455,-622,-0.0469971,-0.0748291,-0.00412343,0.00014122,0.00256981,0.00134816,-0.00533038,1.13171,0.00407795,0.0146358,1679,1646,-0.0470233,0.0747823
462,-622,-0.0323486,-0.0577393,-0.00570384,0.000985738,0.00347943,0.00246734,-0.00718544,1.16823,0.00579069,0.0167775,1686,1646,-0.0324014,0.0577023
469,-622,-0.0258789,-0.0384521,-0.00639225,0.00417977,0.0050557,0.00620827,-0.00842075,1.18923,0.0084782,0.0173272,1693,1646,-0.0258303,0.0384681
476,-622,-0.0214844,-0.0463867,-0.00649146,0.00674482,0.00671479,0.00955473,-0.00930137,1.17447,0.0108869,0.0162003,1700,1646,-0.0215174,0.0463501
483,-622,-0.0601807,-0.103516,-0.00678484,0.0101198,0.00835157,0.0135498,-0.0102149,1.18109,0.0137655,0.024312,1707,1646,-0.0602205,0.103504
490,-622,-0.13208,-0.0219727,-0.00649165,0.0137126,0.0103471,0.0180713,-0.0108503,1.17211,0.0168705,0.0314383,1714,1646,-0.132104,0.0219375
497,-622,-0.137695,0.189697,-0.00588157,0.0176367,0.0124727,0.0230195,-0.0112644,1.16338,0.0201779,0.0360976,1721,1646,-0.137707,-0.189671
504,-622,-0.134644,0.262695,0,0,0,0,0,0,0,-1,1728,1646,-0.134687,-0.262722
511,-622,-0.472168,0.0157471,-0.00233551,0.025426,0.0171233,0.033588,-0.0104975,1.12599,0.0265911,0.0408036,1735,1646,-0.472112,-0.0156973
518,-622,-0.473511,-0.371582,0.000379949,0.0288691,0.0196552,0.0388986,-0.00964961,1.09896,0.0296766,0.0374058,1742,1646,-0.473467,0.371627
525,-622,-0.141968,-0.424072,0.0034952,0.0316715,0.0221877,0.0438659,-0.00869916,1.06826,0.0325337,0.036715,1749,1646,-0.141922,0.424016
532,-622,-0.116455,-0.53479,0.00637582,0.0334079,0.0251337,0.0484293,-0.00864564,1.0321,0.0355206,0.0372955,1756,1646,-0.1164,0.534775
539,-622,0.249878,-0.667969,0.00914965,0.032407,0.0281303,0.0512174,-0.00966079,0.981394,0.0377792,0.0424791,1763,1646,0.24991,0.668025
546,-622,-0.117554,-0.342407,0.0107983,0.029166,0.0311185,0.0524276,-0.0124633,0.928887,0.0397627,0.0419242,1770,1646,-0.117586,0.342348
553,-622,0,0,0,0,0,0,0,0,0,-1,1777,1646,0,0
560,-622,0,0,0,0,0,0,0,0,0,-1,1784,1646,0,0
567,-622,0,0,0,0,0,0,0,0,0,-1,1791,1646,0,0
574,-622,0,0,0,0,0,0,0,0,0,-1,1798,1646,0,0
581,-622,0,0,0,0,0,0,0,0,0,-1,1805,1646,0,0
588,-622,0,0,0,0,0,0,0,0,0,-1,1812,1646,0,0
595,-622,0,0,0,0,0,0,0,0,0,-1,1819,1646,0,0
602,-622,0,0,0,0,0,0,0,0,0,-1,1826,1646,0,0
609,-622,0,0,0,0,0,0,0,0,0,-1,1833,1646,0,0
616,-622,0,0,0,0,0,0,0,0,0,-1,1840,1646,0,0
623,-622,0,0,0,0,0,0,0,0,0,-1,1847,1646,0,0
630,-622,0,0,0,0,0,0,0,0,0,-1,1854,1646,0,0
637,-622,0,0,0,0,0,0,0,0,0,-1,1861,1646,0,0
644,-622,0,0,0,0,0,0,0,0,0,-1,1868,1646,0,0
651,-622,0,0,0,0,0,0,0,0,0,-1,1875,1646,0,0
658,-622,0,0,0,0,0,0,0,0,0,-1,1882,1646,0,0
665,-622,0,0,0,0,0,0,0,0,0,-1,1889,1646,0,0
672,-622,0,0,0,0,0,0,0,0,0,-1,1896,1646,0,0
679,-622,0,0,0,0,0,0,0,0,0,-1,1903,1646,0,0
686,-622,0,0,0,0,0,0,0,0,0,-1,1910,1646,0,0
693,-622,0,0,0,0,0,0,0,0,0,-1,1917,1646,0,0
700,-622,0,0,0,0,0,0,0,0,0,-1,1924,1646,0,0
707,-622,0,0,0,0,0,0,0,0,0,-1,1931,1646,0,0
714,-622,0,0,0,0,0,0,0,0,0,-1,1938,1646,0,0
721,-622,0,0,0,0,0,0,0,0,0,-1,1945,1646,0,0
728,-622,0,0,0,0,0,0,0,0,0,-1,1952,1646,0,0
735,-622,0,0,0,0,0,0,0,0,0,-1,1959,1646,0,0
742,-622,0,0,0,0,0,0,0,0,0,-1,1966,1646,0,0
749,-622,0,0,0,0,0,0,0,0,0,-1,1973,1646,0,0
756,-622,0,0,0,0,0,0,0,0,0,-1,1980,1646,0,0
763,-622,0,0,0,0,0,0,0,0,0,-1,1987,1646,0,0
770,-622,0,0,0,0,0,0,0,0,0,-1,1994,1646,0,0
777,-622,0,0,0,0,0,0,0,0,0,-1,2001,1646,0,0
784,-622,0,0,0,0,0,0,0,0,0,-1,2008,1646,0,0
791,-622,0,0,0,0,0,0,0,0,0,-1,2015,1646,0,0
798,-622,0,0,0,0,0,0,0,0,0,-1,2022,1646,0,0
805,-622,0,0,0,0,0,0,0,0,0,-1,2029,1646,0,0
812,-622,0,0,0,0,0,0,0,0,0,-1,2036,1646,0,0
-700,-629,0,0,0,0,0,0,0,0,0,-1,524,1653,0,0
-693,-629,0,0,0,0,0,0,0,0,0,-1,531,1653,0,0
-686,-629,0,0,0,0,0,0,0,0,0,-1,538,1653,0,0
-679,-629,0,0,0,0,0,0,0,0,0,-1,545,1653,0,0
-672,-629,0,0,0,0,0,0,0,0,0,-1,552,1653,0,0
-665,-629,0,0,0,0,0,0,0,0,0,-1,559,1653,0,0
-658,-629,0,0,0,0,0,0,0,0,0,-1,566,1653,0,0
-651,-629,0,0,0,0,0,0,0,0,0,-1,573,1653,0,0
-644,-629,0,0,0,0,0,0,0,0,0,-1,580,1653,0,0
-637,-629,0,0,0,0,0,0,0,0,0,-1,587,1653,0,0
-630,-629,0,0,0,0,0,0,0,0,0,-1,594,1653,0,0
-623,-629,0,0,0,0,0,0,0,0,0,-1,601,1653,0,0
-616,-629,0,0,0,0,0,0,0,0,0,-1,608,1653,0,0
-609,-629,0,0,0,0,0,0,0,0,0,-1,615,1653,0,0
-602,-629,0,0,0,0,0,0,0,0,0,-1,622,1653,0,0
-595,-629,0,0,0,0,0,0,0,0,0,-1,629,1653,0,0
-588,-629,0,0,0,0,0,0,0,0,0,-1,636,1653,0,0
-581,-629,0,0,0,0,0,0,0,0,0,-1,643,1653,0,0
-574,-629,0,0,0,0,0,0,0,0,0,-1,650,1653,0,0
-567,-629,0,0,0,0,0,0,0,0,0,-1,657,1653,0,0
-560,-629,0,0,0,0,0,0,0,0,0,-1,664,1653,0,0
-553,-629,0,0,0,0,0,0,0,0,0,-1,671,1653,0,0
-546,-629,0,0,0,0,0,0,0,0,0,-1,678,1653,0,0
-539,-629,0,0,0,0,0,0,0,0,0,-1,685,1653,0,0
-532,-629,0,0,0,0,0,0,0,0,0,-1,692,1653,0,0
-525,-629,0,0,0,0,0,0,0,0,0,-1,699,1653,0,0
-518,-629,0,0,0,0,0,0,0,0,0,-1,706,1653,0,0
-511,-629,0,0,0,0,0,0,0,0,0,-1,713,1653,0,0
-504,-629,0,0,0,0,0,0,0,0,0,-1,720,1653,0,0
-497,-629,0,0,0,0,0,0,0,0,0,-1,727,1653,0,0
-490,-629,0,0,0,0,0,0,0,0,0,-1,734,1653,0,0
-483,-629,0,0,0,0,0,0,0,0,0,-1,741,1653,0,0
-476,-629,0,0,0,0,0,0,0,0,0,-1,748,1653,0,0
-469,-629,0,0,0,0,0,0,0,0,0,-1,755,1653,0,0
-462,-629,0,0,0,0,0,0,0,0,0,-1,762,1653,0,0
-455,-629,0,0,0,0,0,0,0,0,0,-1,769,1653,0,0
-448,-629,0,0,0,0,0,0,0,0,0,-1,776,1653,0,0
-441,-629,0,0,0,0,0,0,0,0,0,-1,783,1653,0,0
-434,-629,0,0,0,0,0,0,0,0,0,-1,790,1653,0,0
-427,-629,0,0,0,0,0,0,0,0,0,-1,797,1653,0,0
-420,-629,2.00543,-1.17822,0.068396,0.0526667,-0.0331369,0.0945887,0.026474,-0.668885,0.0563472,0.0440001,804,1653,2.00546,1.17828
-413,-629,2.97656,-1.56726,0.0455544,0.0564418,-0.029184,0.0806855,0.0213107,-0.877603,0.0482808,0.045003,811,1653,2.97656,1.56731
-406,-629,3.90918,-2.02563,0.0262609,0.054352,-0.0232788,0.0674943,0.0131186,-1.05684,0.0413234,0.0453216,818,1653,3.9092,2.0256
-399,-629,4.94836,-2.2179,0.0108172,0.049558,-0.0176437,0.0563889,0.00398625,-1.20141,0.0363368,0.0452166,825,1653,4.94835,2.21789
-392,-629,6.26404,-2.34949,-0.001814,0.044999,-0.0124982,0.0481268,-0.00494181,-1.32557,0.0338523,0.0439984,832,1653,6.26405,2.34952
-385,-629,2.32172,-1.2998,-0.0117769,0.0382485,-0.0060957,0.0389805,-0.012509,-1.45127,0.0310094,0.0411619,839,1653,2.32174,1.29981
-378,-629,1.30957,-0.621704,-0.0178861,0.0307682,-0.000710722,0.0307786,-0.0178965,-1.55619,0.0284287,0.041737,846,1653,1.30956,0.621682
-371,-629,0.142517,-0.114624,-0.0208584,0.0231354,0.00371901,0.0234476,-0.0211706,1.48705,0.0257715,0.0443413,853,1653,0.142525,0.114572
-364,-629,-0.204041,-0.450562,-0.0211598,0.0160322,0.00653832,0.0171481,-0.0222757,1.40175,0.0228254,0.0428155,860,1653,-0.204059,0.450519
-357,-629,-0.167114,-0.766235,-0.0185166,0.00964003,0.00883677,0.0121836,-0.0210602,1.29053,0.01942,0.0419359,867,1653,-0.1671,0.76621
-350,-629,-0.222534,-0.356079,-0.015132,0.00489021,0.00921481,0.00848554,-0.0187273,1.19879,0.016078,0.0402365,874,1653,-0.22251,0.35605
-343,-629,-0.0361938,-0.0797119,-0.0117516,0.00113031,0.00904084,0.00578993,-0.0164112,1.09491,0.0132978,0.0321245,881,1653,-0.0362233,0.0797122
-336,-629,-0.0397339,-0.0871582,-0.00784741,-0.00178475,0.00847465,0.0041844,-0.0138166,0.957154,0.0108775,0.0170856,888,1653,-0.039724,0.0871726
-329,-629,-0.0223999,-0.072998,-0.00337781,-0.0020571,0.00672852,0.00404339,-0.0094783,0.834313,0.0080142,0.0111326,895,1653,-0.0224037,0.0730116
-322,-629,-0.00738525,-0.0762939,-0.00048516,-0.00225684,0.00533543,0.00403747,-0.00677947,0.703134,0.00631169,0.0107171,902,1653,-0.00739822,0.0763119
-315,-629,-0.0304565,-0.0733643,0.000730963,-0.00162869,0.00392106,0.00364586,-0.00454358,0.63926,0.00473764,0.0137899,909,1653,-0.0304534,0.0733505
-308,-629,-0.0265503,-0.067749,0.000395274,-0.000867781,0.00246425,0.00230763,-0.00278013,0.65996,0.00294164,0.0122928,916,1653,-0.026532,0.067761
-301,-629,-0.00756836,-0.0697021,-0.000301875,0.000534557,0.00154019,0.0017123,-0.00147962,0.917969,0.00184449,0.0110907,923,1653,-0.00756553,0.0696574
-294,-629,-0.0200195,-0.0830078,-0.000657977,0.00154293,0.00134185,0.00217786,-0.00129291,1.12884,0.00202545,0.0106503,930,1653,-0.0200494,0.0830158
-287,-629,-0.0304565,-0.0799561,-0.000640977,0.00226049,0.00155177,0.00293405,-0.00131454,1.16128,0.00251163,0.00784781,937,1653,-0.030487,0.0799514
-280,-629,-0.0220947,-0.06604,-0.000215016,0.00266494,0.00195539,0.00365335,-0.00120343,1.10277,0.00292056,0.00878681,944,1653,-0.0220838,0.0660871
-273,-629,-0.0183105,-0.0930176,0.000283103,0.00318211,0.00236859,0.00450953,-0.00104431,1.05999,0.00340821,0.0115373,951,1653,-0.0182884,0.0929598
-266,-629,-0.0310059,-0.0957031,0.000822477,0.00358192,0.00255507,0.00510599,-0.0007016,1.03296,0.00366034,0.0119255,958,1653,-0.0310034,0.0957311
-259,-629,-0.0294189,-0.0639648,0.00119529,0.00367716,0.00264202,0.00535516,-0.000482708,1.00495,0.0037414,0.0138893,965,1653,-0.0294379,0.0640058
-252,-629,-0.0239868,-0.0722656,0.00139362,0.00346243,0.00274282,0.00535941,-0.000503361,0.965717,0.003752,0.0112834,972,1653,-0.0239623,0.0722252
-245,-629,-0.0237427,-0.0777588,0.000563987,0.00402425,0.00242244,0.00527096,-0.000682722,1.0955,0.00376225,0.0083018,979,1653,-0.0237447,0.0777962
-238,-629,-0.0205688,-0.0731201,-0.00093258,0.00347613,0.00181004,0.00412404,-0.00158049,1.22705,0.0034009,0.00936955,986,1653,-0.0205536,0.0730654
-231,-629,-0.0102539,-0.0679932,-0.00311053,0.00235283,0.00170191,0.00283962,-0.00359733,1.29221,0.00372495,0.00893915,993,1653,-0.0102255,0.0680528
-224,-629,-0.0128784,-0.0583496,-0.00556904,0.00120486,0.00145655,0.00150477,-0.00586895,1.36773,0.00449891,0.00856493,1000,1653,-0.0128606,0.0583015
-217,-629,-0.00738525,-0.0303955,-0.00794082,3.90677e-05,0.00137133,0.000268152,-0.00816991,1.40527,0.00553815,0.0111685,1007,1653,-0.00737896,0.0303601
-210,-629,-0.081665,-0.0224609,-0.00903255,-0.00142394,0.00267368,-0.000578376,-0.00987812,1.26449,0.00640134,0.0248072,1014,1653,-0.0816798,0.0224286
-203,-629,-0.130249,-0.0141602,-0.0100997,-0.00271197,0.00389259,-0.00103956,-0.0117721,1.165,0.00752551,0.0381956,1021,1653,-0.130245,0.0141652
-196,-629,-0.158081,0.0488281,-0.0109416,-0.00402256,0.0053769,-0.00108838,-0.0138758,1.07126,0.0089099,0.0368832,1028,1653,-0.158079,-0.0488495
-189,-629,-0.590576,0.0317383,-0.0108407,-0.00477101,0.00736126,0.000156447,-0.0157682,0.98092,0.0105647,0.0348699,1035,1653,-0.590555,-0.0317123
-182,-629,0.0722656,-0.00244141,0,0,0,0,0,0,0,-1,1042,1653,0.0722345,0.00243748
-175,-629,0.669312,0.278198,-0.00701672,-0.00418521,0.0106791,0.0051716,-0.0163735,0.8513,0.0129874,0.0450929,1049,1653,0.669298,-0.278205
-168,-629,0.427124,-1.19788,-0.00247361,-0.00346762,0.0109847,0.0080253,-0.0139665,0.762791,0.0128505,0.0457544,1056,1653,0.427152,1.19787
-161,-629,0.374023,-0.707886,0.00163723,-0.00156508,0.0107499,0.0109046,-0.0108325,0.711469,0.0125499,0.0416179,1063,1653,0.37397,0.707856
-154,-629,0.258057,-0.509033,0.00477996,-0.000357518,0.0091645,0.0117289,-0.00730647,0.648758,0.0110885,0.0413217,1070,1653,0.258066,0.509043
-147,-629,0.147217,-0.633789,0,0,0,0,0,0,0,-1,1077,1653,0.147253,0.633828
-140,-629,0.229004,-0.485107,0,0,0,0,0,0,0,-1,1084,1653,0.229031,0.485109
-133,-629,-1.35803,1.59814,0,0,0,0,0,0,0,-1,1091,1653,-1.35805,-1.59818
-126,-629,-1.03137,1.50183,0.00943108,0.00771931,-0.00269506,0.0114029,0.0057475,-0.631647,0.00658353,0.0468209,1098,1653,-1.03134,-1.50184
-119,-629,-0.75647,1.35278,0.00700648,0.009273,-0.00614737,0.0143907,0.00188878,-0.876549,0.00903029,0.0447268,1105,1653,-0.756433,-1.35274
-112,-629,-0.620239,1.15039,0,0,0,0,0,0,0,-1,1112,1653,-0.620254,-1.15033
-105,-629,0.298828,-0.709229,-0.00110664,0.010076,-0.0127524,0.018409,-0.00943965,-0.992002,0.016354,0.0441913,1119,1653,0.298829,0.709251
-98,-629,0.0299072,-0.278442,-0.00182358,0.0081363,-0.0134701,0.0175175,-0.0112048,-0.962458,0.0167158,0.0442495,1126,1653,0.0299268,0.278457
-91,-629,-0.32666,-0.279053,4.95587e-05,0.00358726,-0.0117276,0.0136787,-0.0100419,-0.860248,0.0137486,0.0431822,1133,1653,-0.326626,0.279009
-84,-629,-0.859741,-0.570801,0.00305214,-0.000458153,-0.00834113,0.00982078,-0.00722679,-0.681701,0.00988033,0.0462597,1140,1653,-0.859791,0.570746
-77,-629,-1.35828,-0.868408,0.00652324,-0.00459642,-0.00555759,0.00882461,-0.00689779,-0.392598,0.00910003,0.0479781,1147,1653,-1.35832,0.868452
-70,-629,-1.14697,-0.664307,0,0,0,0,0,0,0,-1,1154,1653,-1.14691,0.664319
-63,-629,-1.41687,-0.828491,0,0,0,0,0,0,0,-1,1161,1653,-1.41685,0.828516
-56,-629,-1.15637,-1.26318,0.0242715,-0.0204419,0.00474076,0.0247686,-0.020939,0.104478,0.0264202,0.0466709,1168,1653,-1.1564,1.26313
-49,-629,-0.763184,-1.50464,0.0343852,-0.0247539,0.00816163,0.0354909,-0.0258596,0.134655,0.035566,0.0471962,1175,1653,-0.763136,1.50466
-42,-629,0.105835,0.339478,0.0441524,-0.0266031,0.00992762,0.0455189,-0.0279696,0.136791,0.04283,0.0424228,1182,1653,0.105849,-0.339509
-35,-629,0.106934,0.637695,0.0519547,-0.0266636,0.0109232,0.0534442,-0.028153,0.135521,0.0478585,0.0455473,1189,1653,0.106989,-0.637732
-28,-629,0.067749,0.815308,0.0564573,-0.0253537,0.00977466,0.057609,-0.0265053,0.117279,0.0496578,0.0496624,1196,1653,0.0677074,-0.815306
-21,-629,0.0252686,0.949585,0,0,0,0,0,0,0,-1,1203,1653,0.0252467,-0.949568
-14,-629,-0.0639648,1.47388,0.0561979,-0.0188703,0.00389286,0.0563992,-0.0190717,0.0516729,0.0453148,0.0464824,1210,1653,-0.0640202,-1.47384
-7,-629,0.432983,1.42993,0.0505315,-0.0144312,-0.00076915,0.0505406,-0.0144403,-0.0118377,0.0393993,0.0469158,1217,1653,0.432961,-1.42993
0,-629,0.890503,1.65833,0.0401722,-0.010925,-0.00661596,0.0410149,-0.0117677,-0.126695,0.0319955,0.0474855,1224,1653,0.890562,-1.65834
7,-629,1.00317,2.16028,0.0265222,-0.00838977,-0.0137864,0.0313098,-0.0131773,-0.334239,0.0263862,0.0455222,1231,1653,1.00323,-2.16023
14,-629,1.19434,2.3335,0,0,0,0,0,0,0,-1,1238,1653,1.19436,-2.33344
21,-629,4.45068,-1.57556,0,0,0,0,0,0,0,-1,1245,1653,4.45064,1.57554
28,-629,4.16858,-2.56311,0,0,0,0,0,0,0,-1,1252,1653,4.16854,2.56308
35,-629,3.59119,-3.33594,0,0,0,0,0,0,0,-1,1259,1653,3.59113,3.33588
42,-629,2.28564,0.323975,0,0,0,0,0,0,0,-1,1266,1653,2.28561,-0.32395
49,-629,0.975586,-1.76685,0,0,0,0,0,0,0,-1,1273,1653,0.975558,1.76685
56,-629,0.242432,-3.24475,0,0,0,0,0,0,0,-1,1280,1653,0.242398,3.24475
63,-629,0.015625,-3.59033,0,0,0,0,0,0,0,-1,1287,1653,0.0155827,3.59032
70,-629,-0.211182,-3.93591,0,0,0,0,0,0,0,-1,1294,1653,-0.211232,3.9359
77,-629,0.264038,0.0637207,-0.0656588,0.160006,-0.0340263,0.165025,-0.0706777,-1.42435,0.13967,0.046745,1301,1653,0.264094,-0.0637395
84,-629,-0.588623,-0.41626,-0.0474316,0.167838,-0.0302146,0.171999,-0.0515921,-1.43396,0.135186,0.0472042,1308,1653,-0.588644,0.416283
91,-629,-1.30298,-0.99353,0,0,0,0,0,0,0,-1,1315,1653,-1.30301,0.993534
98,-629,-2.2821,-0.862305,0,0,0,0,0,0,0,-1,1322,1653,-2.28216,0.862349
105,-629,-3.16235,-1.32166,0,0,0,0,0,0,0,-1,1329,1653,-3.16239,1.32165
112,-629,-0.839233,0.769287,0.0119353,0.135043,0.00736721,0.135483,0.011496,1.51124,0.086744,0.0498213,1336,1653,-0.839196,-0.769229
119,-629,-0.00842285,1.41931,0.0203632,0.126145,0.0148972,0.128203,0.0183053,1.43352,0.0800673,0.0443252,1343,1653,-0.00842979,-1.41935
126,-629,0.318359,1.328,0,0,0,0,0,0,0,-1,1350,1653,0.318389,-1.32802
133,-629,0.814697,1.76147,0,0,0,0,0,0,0,-1,1357,1653,0.814741,-1.76142
140,-629,1.33972,2.04907,0.0358717,0.0790688,0.0273732,0.0923384,0.022602,1.11941,0.0555786,0.0443735,1364,1653,1.33976,-2.04904
147,-629,1.75867,2.40918,0.0336174,0.062388,0.023752,0.0757713,0.0202341,1.05768,0.0453017,0.0478075,1371,1653,1.75871,-2.40924
154,-629,1.75757,3.14856,0.0287543,0.0447099,0.0201298,0.0583851,0.015079,0.974062,0.0349972,0.0480687,1378,1653,1.75758,-3.14856
161,-629,1.48633,3.35779,0,0,0,0,0,0,0,-1,1385,1653,1.48628,-3.35774
168,-629,0.223145,-2.56775,0,0,0,0,0,0,0,-1,1392,1653,0.223159,2.56778
175,-629,0.381714,-2.60547,0.0159819,0.00405801,0.0103723,0.0219836,-0.00194372,0.524559,0.0153447,0.0428544,1399,1653,0.381734,2.60548
182,-629,0.50293,-2.54761,0.0138134,-0.00596859,0.00777767,0.0165051,-0.00866028,0.333178,0.0147627,0.0437576,1406,1653,0.502972,2.54764
189,-629,0.515503,-2.35144,0.0117122,-0.0124276,0.00496573,0.0126938,-0.0134091,0.195154,0.0150724,0.042268,1413,1653,0.515468,2.35144
196,-629,0.543457,-2.37646,0.00957467,-0.0170116,0.00197203,0.00972015,-0.017157,0.0736379,0.0157143,0.0420417,1420,1653,0.543503,2.37645
203,-629,0.724121,-1.91602,0,0,0,0,0,0,0,-1,1427,1653,0.724176,1.91604
210,-629,-1.46289,0.843384,0,0,0,0,0,0,0,-1,1434,1653,-1.46285,-0.843386
217,-629,-0.146606,0.198242,0,0,0,0,0,0,0,-1,1441,1653,-0.146628,-0.198188
224,-629,-0.0303955,0.35144,0.0043489,-0.00910734,-0.000662822,0.00438148,-0.00913991,-0.0490991,0.00796609,0.0435257,1448,1653,-0.0303848,-0.35141
231,-629,-0.208618,0.371338,0.003789,-0.00495949,-0.000312526,0.00380015,-0.00497064,-0.0356628,0.00507883,0.0429186,1455,1653,-0.2086,-0.371377
238,-629,-0.164795,0.304199,0.00336964,-0.00154815,0.000434394,0.00340771,-0.00158623,0.087429,0.00294649,0.0424066,1462,1653,-0.164836,-0.304255
245,-629,0.101929,0.158447,0.00269646,0.000954743,0.00156307,0.0036149,3.63014e-05,0.531242,0.00239792,0.0429099,1469,1653,0.101975,-0.158407
252,-629,-0.123291,-0.12561,0.00181945,0.00160589,0.00260876,0.00432361,-0.000898269,0.764943,0.00322382,0.0427594,1476,1653,-0.123319,0.125635
259,-629,-0.348633,-0.332031,0.00119147,0.00122392,0.00394891,0.00515664,-0.00274125,0.787452,0.00463038,0.0402628,1483,1653,-0.348616,0.332035
266,-629,0.041626,-1.34888,0,0,0,0,0,0,0,-1,1490,1653,0.0416113,1.34893
273,-629,0.227783,-1.09595,0,0,0,0,0,0,0,-1,1497,1653,0.227843,1.09592
280,-629,0.313721,-0.627441,-0.00245958,0.000504676,0.00618737,0.00538495,-0.00733986,0.902954,0.00737552,0.0488535,1504,1653,0.313662,0.627407
287,-629,0.37439,-0.236816,-0.00365831,0.000841224,0.00588455,0.00489141,-0.00770849,0.967983,0.00733491,0.0445054,1511,1653,0.374402,0.23678
294,-629,0.221436,0.313477,-0.0040919,0.000845724,0.00616667,0.00501942,-0.00826559,0.975801,0.00774605,0.0416367,1518,1653,0.221417,-0.313417
301,-629,0.123413,0.534424,-0.0032242,0.00102511,0.00567946,0.00496432,-0.00716341,0.964387,0.00704021,0.0420051,1525,1653,0.123441,-0.534464
308,-629,-0.182495,0.354248,-0.00252286,0.00153633,0.0045945,0.00452955,-0.00551608,0.993382,0.00580916,0.042701,1532,1653,-0.182466,-0.354252
315,-629,-0.421265,0.375732,-0.00212047,0.00236997,0.00295294,0.00383432,-0.00358482,1.11044,0.00428425,0.0437715,1539,1653,-0.421229,-0.375737
322,-629,-0.276245,0.32373,-0.00171652,0.00373489,0.00107848,0.0039405,-0.00192213,1.38241,0.003451,0.0443886,1546,1653,-0.276232,-0.323689
329,-629,-0.0878906,0.13562,-0.000940309,0.00523143,-0.000408192,0.00525831,-0.000967189,-1.50504,0.00386845,0.041238,1553,1653,-0.087937,-0.135664
336,-629,-0.201904,0.10083,-0.00033422,0.00638409,-0.00156108,0.00672911,-0.000679237,-1.35328,0.00472877,0.0389079,1560,1653,-0.201955,-0.100874
343,-629,-0.239258,-0.147949,-0.000118807,0.0068096,-0.00265792,0.00771177,-0.00102098,-1.24357,0.00551311,0.0342473,1567,1653,-0.239268,0.147942
350,-629,-0.0916748,-0.104004,0.00025269,0.0068187,-0.00340255,0.00826386,-0.00119246,-1.16916,0.00594671,0.0243452,1574,1653,-0.0916896,0.10399
357,-629,0.00012207,-0.0756836,0.000508942,0.0065858,-0.00376272,0.0083837,-0.00128896,-1.12505,0.00606462,0.0151034,1581,1653,0.000175708,0.0756716
364,-629,-0.010376,-0.0831299,0.000521739,0.00588898,-0.0039362,0.00796934,-0.00155862,-1.08459,0.00590144,0.0119989,1588,1653,-0.0103596,0.0831078
371,-629,-0.0167236,-0.071167,0.000286402,0.00504626,-0.00390517,0.00723956,-0.0019069,-1.05906,0.00557186,0.00983646,1595,1653,-0.0167493,0.0712061
378,-629,-0.020752,-0.067627,-0.000103601,0.00359392,-0.00347846,0.00568439,-0.00219408,-1.02966,0.00469507,0.00943233,1602,1653,-0.0207289,0.0676726
385,-629,-0.034668,-0.0837402,-0.000568405,0.0022259,-0.00289301,0.00404146,-0.00238396,-1.01035,0.00375064,0.0107959,1609,1653,-0.034663,0.0837475
392,-629,-0.0289307,-0.0794678,-0.00108398,0.00096696,-0.00213823,0.00231291,-0.00242993,-1.00899,0.00273856,0.00965956,1616,1653,-0.0288704,0.0794521
399,-629,-0.0253906,-0.0667725,-0.00169585,0.000315984,-0.00170749,0.00129183,-0.0026717,-1.05159,0.00233411,0.0109598,1623,1653,-0.0254059,0.0667579
406,-629,-0.0413818,-0.0948486,-0.00219593,-0.00019691,-0.00106104,0.00026126,-0.0026541,-1.16317,0.00186261,0.0130646,1630,1653,-0.0413842,0.0948747
413,-629,-0.0328369,-0.112915,-0.00234331,-0.000577959,-0.000623209,-0.000380123,-0.00254115,-1.26341,0.00158268,0.0185667,1637,1653,-0.0328583,0.112874
420,-629,-0.0214844,-0.0891113,-0.00198958,-0.00102937,-7.01857e-05,-0.00102427,-0.00199469,-1.49822,0.00115177,0.0171696,1644,1653,-0.0214431,0.0891092
427,-629,-0.0144043,-0.0722656,-0.00157147,-0.00162789,0.000408937,-0.00118977,-0.00200959,0.750962,0.00116677,0.0113475,1651,1653,-0.0143661,0.0722708
434,-629,-0.0136719,-0.0881348,-0.00176825,-0.00206766,0.000757726,-0.00114558,-0.00269033,0.68787,0.00155895,0.00976259,1658,1653,-0.0136941,0.0881368
441,-629,-0.0109863,-0.0839844,-0.00239899,-0.00242016,0.00151944,-0.000890096,-0.00392905,0.781915,0.00237884,0.0142873,1665,1653,-0.0110216,0.0840169
448,-629,-0.0379639,-0.0759277,-0.00343076,-0.00216845,0.00256549,-0.000157618,-0.00544159,0.906011,0.00357635,0.0133863,1672,1653,-0.0380144,0.0759605
455,-629,-0.0423584,-0.0716553,-0.00560416,-0.00115988,0.00387549,0.00108534,-0.00784938,1.04571,0.00562968,0.012489,1679,1653,-0.0423024,0.071712
462,-629,-0.0250244,-0.0474854,-0.00765602,-8.56981e-05,0.00506309,0.00245072,-0.0101924,1.10638,0.00774225,0.015947,1686,1653,-0.0250174,0.0474911
469,-629,-0.0257568,-0.0480957,-0.00868906,0.00374372,0.00707175,0.00694292,-0.0118883,1.14596,0.0109964,0.0182029,1693,1653,-0.0257813,0.048064
476,-629,-0.00305176,-0.0604248,-0.00900161,0.00694139,0.00922637,0.0111629,-0.0132232,1.14168,0.0140961,0.0250148,1700,1653,-0.0030828,0.06045
483,-629,-0.413208,-0.13147,0,0,0,0,0,0,0,-1,1707,1653,-0.413176,0.13152
490,-629,-0.507202,0.0529785,-0.00949775,0.015742,0.013952,0.0219349,-0.0156906,1.15305,0.0218226,0.0414387,1714,1653,-0.507172,-0.0529525
497,-629,-0.473755,0.23291,-0.0089277,0.020767,0.0167488,0.028302,-0.0164626,1.14804,0.0261444,0.0403777,1721,1653,-0.473766,-0.232888
504,-629,-0.519165,0.220459,-0.00748175,0.0263644,0.0200265,0.0356606,-0.0167779,1.1362,0.0309227,0.0427928,1728,1653,-0.519161,-0.220465
511,-629,-0.776489,-0.236572,-0.00487283,0.0311608,0.0230514,0.042401,-0.016113,1.11711,0.034901,0.0452004,1735,1653,-0.776506,0.236551
518,-629,-0.87793,-1.21643,-0.00141034,0.03565,0.0264767,0.0494368,-0.0151971,1.09072,0.0390227,0.0421292,1742,1653,-0.877931,1.21637
525,-629,-0.231812,-0.721436,0.00282214,0.0396637,0.029836,0.0563073,-0.0138215,1.06196,0.0428942,0.0395714,1749,1653,-0.231819,0.721431
532,-629,-0.262817,-0.811157,0.00674487,0.0422676,0.0339859,0.0628534,-0.0138409,1.02618,0.0471973,0.0398888,1756,1653,-0.262861,0.811193
539,-629,-0.201538,-0.52356,0.0106766,0.0405872,0.0380548,0.0665199,-0.0152561,0.972625,0.0502105,0.0441662,1763,1653,-0.201598,0.523616
546,-629,0,0,0,0,0,0,0,0,0,-1,1770,1653,0,0
553,-629,0,0,0,0,0,0,0,0,0,-1,1777,1653,0,0
560,-629,0,0,0,0,0,0,0,0,0,-1,1784,1653,0,0
567,-629,0,0,0,0,0,0,0,0,0,-1,1791,1653,0,0
574,-629,0,0,0,0,0,0,0,0,0,-1,1798,1653,0,0
581,-629,0,0,0,0,0,0,0,0,0,-1,1805,1653,0,0
588,-629,0,0,0,0,0,0,0,0,0,-1,1812,1653,0,0
595,-629,0,0,0,0,0,0,0,0,0,-1,1819,1653,0,0
602,-629,0,0,0,0,0,0,0,0,0,-1,1826,1653,0,0
609,-629,0,0,0,0,0,0,0,0,0,-1,1833,1653,0,0
616,-629,0,0,0,0,0,0,0,0,0,-1,1840,1653,0,0
623,-629,0,0,0,0,0,0,0,0,0,-1,1847,1653,0,0
630,-629,0,0,0,0,0,0,0,0,0,-1,1854,1653,0,0
637,-629,0,0,0,0,0,0,0,0,0,-1,1861,1653,0,0
644,-629,0,0,0,0,0,0,0,0,0,-1,1868,1653,0,0
651,-629,0,0,0,0,0,0,0,0,0,-1,1875,1653,0,0
658,-629,0,0,0,0,0,0,0,0,0,-1,1882,1653,0,0
665,-629,0,0,0,0,0,0,0,0,0,-1,1889,1653,0,0
672,-629,0,0,0,0,0,0,0,0,0,-1,1896,1653,0,0
679,-629,0,0,0,0,0,0,0,0,0,-1,1903,1653,0,0
686,-629,0,0,0,0,0,0,0,0,0,-1,1910,1653,0,0
693,-629,0,0,0,0,0,0,0,0,0,-1,1917,1653,0,0
700,-629,0,0,0,0,0,0,0,0,0,-1,1924,1653,0,0
707,-629,0,0,0,0,0,0,0,0,0,-1,1931,1653,0,0
714,-629,0,0,0,0,0,0,0,0,0,-1,1938,1653,0,0
721,-629,0,0,0,0,0,0,0,0,0,-1,1945,1653,0,0
728,-629,0,0,0,0,0,0,0,0,0,-1,1952,1653,0,0
735,-629,0,0,0,0,0,0,0,0,0,-1,1959,1653,0,0
742,-629,0,0,0,0,0,0,0,0,0,-1,1966,1653,0,0
749,-629,0,0,0,0,0,0,0,0,0,-1,1973,1653,0,0
756,-629,0,0,0,0,0,0,0,0,0,-1,1980,1653,0,0
763,-629,0,0,0,0,0,0,0,0,0,-1,1987,1653,0,0
770,-629,0,0,0,0,0,0,0,0,0,-1,1994,1653,0,0
777,-629,0,0,0,0,0,0,0,0,0,-1,2001,1653,0,0
784,-629,0,0,0,0,0,0,0,0,0,-1,2008,1653,0,0
791,-629,0,0,0,0,0,0,0,0,0,-1,2015,1653,0,0
798,-629,0,0,0,0,0,0,0,0,0,-1,2022,1653,0,0
805,-629,0,0,0,0,0,0,0,0,0,-1,2029,1653,0,0
812,-629,0,0,0,0,0,0,0,0,0,-1,2036,1653,0,0
-700,-636,0,0,0,0,0,0,0,0,0,-1,524,1660,0,0
-693,-636,0,0,0,0,0,0,0,0,0,-1,531,1660,0,0
-686,-636,0,0,0,0,0,0,0,0,0,-1,538,1660,0,0
-679,-636,0,0,0,0,0,0,0,0,0,-1,545,1660,0,0
-672,-636,0,0,0,0,0,0,0,0,0,-1,552,1660,0,0
-665,-636,0,0,0,0,0,0,0,0,0,-1,559,1660,0,0
-658,-636,0,0,0,0,0,0,0,0,0,-1,566,1660,0,0
-651,-636,0,0,0,0,0,0,0,0,0,-1,573,1660,0,0
-644,-636,0,0,0,0,0,0,0,0,0,-1,580,1660,0,0
-637,-636,0,0,0,0,0,0,0,0,0,-1,587,1660,0,0
-630,-636,0,0,0,0,0,0,0,0,0,-1,594,1660,0,0
-623,-636,0,0,0,0,0,0,0,0,0,-1,601,1660,0,0
-616,-636,0,0,0,0,0,0,0,0,0,-1,608,1660,0,0
-609,-636,0,0,0,0,0,0,0,0,0,-1,615,1660,0,0
-602,-636,0,0,0,0,0,0,0,0,0,-1,622,1660,0,0
-595,-636,0,0,0,0,0,0,0,0,0,-1,629,1660,0,0
-588,-636,0,0,0,0,0,0,0,0,0,-1,636,1660,0,0
-581,-636,0,0,0,0,0,0,0,0,0,-1,643,1660,0,0
-574,-636,0,0,0,0,0,0,0,0,0,-1,650,1660,0,0
-567,-636,0,0,0,0,0,0,0,0,0,-1,657,1660,0,0
-560,-636,0,0,0,0,0,0,0,0,0,-1,664,1660,0,0
-553,-636,0,0,0,0,0,0,0,0,0,-1,671,1660,0,0
-546,-636,0,0,0,0,0,0,0,0,0,-1,678,1660,0,0
-539,-636,0,0,0,0,0,0,0,0,0,-1,685,1660,0,0
-532,-636,0,0,0,0,0,0,0,0,0,-1,692,1660,0,0
-525,-636,0,0,0,0,0,0,0,0,0,-1,699,1660,0,0
-518,-636,0,0,0,0,0,0,0,0,0,-1,706,1660,0,0
-511,-636,0,0,0,0,0,0,0,0,0,-1,713,1660,0,0
-504,-636,0,0,0,0,0,0,0,0,0,-1,720,1660,0,0
-497,-636,0,0,0,0,0,0,0,0,0,-1,727,1660,0,0
-490,-636,0,0,0,0,0,0,0,0,0,-1,734,1660,0,0
-483,-636,0,0,0,0,0,0,0,0,0,-1,741,1660,0,0
-476,-636,0,0,0,0,0,0,0,0,0,-1,748,1660,0,0
-469,-636,0,0,0,0,0,0,0,0,0,-1,755,1660,0,0
-462,-636,0,0,0,0,0,0,0,0,0,-1,762,1660,0,0
-455,-636,0,0,0,0,0,0,0,0,0,-1,769,1660,0,0
-448,-636,0,0,0,0,0,0,0,0,0,-1,776,1660,0,0
-441,-636,0,0,0,0,0,0,0,0,0,-1,783,1660,0,0
-434,-636,0,0,0,0,0,0,0,0,0,-1,790,1660,0,0
-427,-636,0,0,0,0,0,0,0,0,0,-1,797,1660,0,0
-420,-636,0,0,0,0,0,0,0,0,0,-1,804,1660,0,0
-413,-636,0,0,0,0,0,0,0,0,0,-1,811,1660,0,0
-406,-636,3.66754,-2.50244,0.0359599,0.0606771,-0.0207346,0.0724568,0.0241801,-1.05415,0.0425971,0.0441751,818,1660,3.66754,2.50241
-399,-636,4.77325,-2.8114,0.0162702,0.0551933,-0.0145204,0.0600133,0.0114502,-1.25029,0.0367909,0.0432951,825,1660,4.77326,2.81135
-392,-636,5.89801,-3.24561,0.000656037,0.0495931,-0.00850823,0.0510301,-0.000781009,-1.40347,0.0342834,0.0423082,832,1660,5.89802,3.2456
-385,-636,7.09619,-3.50793,0,0,0,0,0,0,0,-1,839,1660,7.09617,3.50788
-378,-636,2.02997,-0.577759,-0.0174849,0.0332652,0.00502107,0.0337572,-0.0179769,1.47312,0.0303283,0.0402181,846,1660,2.02996,0.577731
-371,-636,0.843262,-0.416626,-0.0205552,0.02481,0.00963601,0.0267719,-0.0225172,1.36994,0.0284924,0.0426087,853,1660,0.843258,0.416596
-364,-636,-0.687134,-0.429199,-0.0206564,0.0170674,0.0125576,0.0208652,-0.0244543,1.27711,0.0261926,0.0428967,860,1660,-0.687157,0.429244
-357,-636,-0.423767,1.10657,-0.017619,0.010129,0.014793,0.0165361,-0.0240261,1.16207,0.0235513,0.0455125,867,1660,-0.423743,-1.1066
-350,-636,-0.195007,0.592407,-0.0139691,0.00497189,0.0148779,0.0131378,-0.022135,1.06883,0.0205844,0.0474322,874,1660,-0.19499,-0.592461
-343,-636,-0.0700684,0.307251,-0.0104798,0.00103411,0.0141751,0.0105767,-0.0200224,0.978289,0.0179448,0.0446979,881,1660,-0.0700609,-0.307235
-336,-636,-0.0430298,-0.0845947,-0.00661624,-0.00199203,0.0129498,0.00885047,-0.0174587,0.873739,0.0154583,0.033,888,1660,-0.0430393,0.0846287
-329,-636,-0.0253906,-0.0740967,-0.00204215,-0.00233058,0.0105412,0.00835581,-0.0127285,0.778558,0.01226,0.017725,895,1660,-0.0253714,0.0740421
-322,-636,0.00402832,-0.0859375,0.000755082,-0.00258047,0.00849521,0.00774467,-0.00957006,0.688471,0.0100152,0.0106784,902,1660,0.00403897,0.0859059
-315,-636,-0.0325317,-0.0783691,0.0016036,-0.00190331,0.00634538,0.00643334,-0.00673305,0.650595,0.00760227,0.0111066,909,1660,-0.0325442,0.078362
-308,-636,-0.0308228,-0.0761719,0.000707296,-0.00117029,0.00406322,0.00393877,-0.00440176,0.671867,0.00481788,0.010891,916,1660,-0.0308131,0.0761142
-301,-636,-0.00231934,-0.0712891,-0.000482063,0.000174656,0.00239275,0.00226147,-0.00256888,0.853588,0.00279069,0.0108143,923,1660,-0.00232174,0.0713126
-294,-636,-0.0228271,-0.0717773,-0.0011366,0.0010498,0.00163242,0.00192126,-0.00200806,1.08044,0.00226878,0.0126129,930,1660,-0.0228112,0.071791
-287,-636,-0.0371094,-0.0778809,-0.00128628,0.00151246,0.00138601,0.00208267,-0.0018565,1.1805,0.00227553,0.0107987,937,1660,-0.0371372,0.0779082
-280,-636,-0.0300903,-0.071167,-0.00100455,0.00160873,0.00142106,0.00223256,-0.00162839,1.15714,0.0022382,0.0108584,944,1660,-0.0300635,0.0711712
-273,-636,-0.0241089,-0.101196,-0.000566661,0.00189404,0.00163378,0.00270893,-0.00138155,1.10813,0.00240273,0.0115287,951,1660,-0.0240958,0.101157
-266,-636,-0.0238647,-0.103638,1.57268e-05,0.00208225,0.00177156,0.00309986,-0.00100188,1.0494,0.00246924,0.0123142,958,1660,-0.0238344,0.103607
-259,-636,-0.0186157,-0.0738525,0.000515245,0.00210858,0.00174737,0.00323232,-0.000608494,0.999284,0.00238374,0.0133,965,1660,-0.0186036,0.0738265
-252,-636,-0.0212402,-0.0765381,0.000832921,0.00200444,0.00175886,0.00327252,-0.000435153,0.946139,0.00234025,0.0106583,972,1660,-0.0212602,0.0765476
-245,-636,-0.0148315,-0.0650635,0.000364058,0.00235628,0.00152101,0.00317833,-0.000457989,1.07531,0.00228689,0.010507,979,1660,-0.0148066,0.0651071
-238,-636,-0.00628662,-0.0690918,-0.000684723,0.00201074,0.000991225,0.002336,-0.00100999,1.25373,0.00198173,0.0113144,986,1660,-0.00626187,0.0691261
-231,-636,-0.010437,-0.0740967,-0.00234505,0.00120171,0.000916834,0.0014247,-0.00256803,1.33222,0.00233649,0.0100199,993,1660,-0.0104079,0.0740372
-224,-636,-0.0137329,-0.0714111,-0.00426342,0.000425483,0.000687817,0.000524297,-0.00436223,1.42811,0.00309774,0.00798059,1000,1660,-0.013744,0.071366
-217,-636,-0.0183105,-0.0655518,-0.00616005,-0.000374213,0.000564671,-0.000319619,-0.00621464,1.47441,0.00404077,0.00903438,1007,1660,-0.0183365,0.0655271
-210,-636,-0.0114136,-0.0880127,-0.00711793,-0.00141409,0.00157766,-0.00100679,-0.00752522,1.31815,0.00471717,0.0127906,1014,1660,-0.011438,0.0879898
-203,-636,-0.022644,-0.0913086,-0.00801734,-0.00231714,0.00256943,-0.00132992,-0.00900456,1.20397,0.0056125,0.0164603,1021,1660,-0.0226489,0.0912581
-196,-636,-0.039917,-0.086792,-0.00879509,-0.00318301,0.00373835,-0.00131475,-0.0106634,1.10734,0.0067137,0.016466,1028,1660,-0.0399122,0.0868506
-189,-636,-0.0446777,-0.0803223,-0.00893721,-0.00373711,0.00523253,-0.000494244,-0.0121801,1.01598,0.00796042,0.0188215,1035,1660,-0.0446834,0.0803183
-182,-636,0.0554199,-0.0281982,-0.00812954,-0.00367629,0.00678866,0.00124158,-0.0130474,0.943866,0.00914029,0.0358494,1042,1660,0.0553888,0.0282391
-175,-636,0.271606,0.100952,-0.00613384,-0.00291364,0.00775197,0.00339368,-0.0124412,0.887793,0.00962683,0.0430716,1049,1660,0.271655,-0.100973
-168,-636,0.168091,-0.590332,-0.00233745,-0.00216919,0.00786924,0.00561637,-0.010123,0.790744,0.00921046,0.0436023,1056,1660,0.168127,0.590391
-161,-636,0.11853,-0.680176,0.0010884,-0.000478021,0.00762799,0.00797329,-0.0073629,0.734239,0.00885669,0.041149,1063,1660,0.118522,0.680173
-154,-636,0.152344,-0.51001,0.00374311,0.000399604,0.00627907,0.00856916,-0.00442645,0.655295,0.00762904,0.0415412,1070,1660,0.152308,0.509953
-147,-636,0.200928,-0.334717,0,0,0,0,0,0,0,-1,1077,1660,0.200965,0.334675
-140,-636,0.266479,-0.390015,0,0,0,0,0,0,0,-1,1084,1660,0.26645,0.389993
-133,-636,-1.03088,0.948364,0,0,0,0,0,0,0,-1,1091,1660,-1.03088,-0.948422
-126,-636,-0.772583,1.31873,0.00798261,0.00713931,-0.00385316,0.0114371,0.0036848,-0.7309,0.00674099,0.0452384,1098,1660,-0.772585,-1.31877
-119,-636,-0.351318,1.23438,0.00600158,0.00832043,-0.0066988,0.0139594,0.000362605,-0.871089,0.00918779,0.0450768,1105,1660,-0.351275,-1.23432
-112,-636,-0.0823975,1.19202,0,0,0,0,0,0,0,-1,1112,1660,-0.08237,-1.19202
-105,-636,0.231689,1.1604,-0.00059805,0.00863692,-0.0123281,0.0171839,-0.009145,-0.964586,0.0154354,0.0459766,1119,1660,0.231726,-1.16038
-98,-636,0.506348,-0.557983,-0.00120542,0.00688751,-0.0131303,0.0165807,-0.0108986,-0.934869,0.0159779,0.0450919,1126,1660,0.50633,0.557958
-91,-636,-0.0257568,-0.541138,0.000110984,0.00330057,-0.0118483,0.013661,-0.0102494,-0.852296,0.0138514,0.0459658,1133,1660,-0.0257888,0.541158
-84,-636,-0.64624,-0.419922,0,0,0,0,0,0,0,-1,1140,1660,-0.646194,0.419949
-77,-636,-0.381104,-0.325317,0,0,0,0,0,0,0,-1,1147,1660,-0.381066,0.325313
-70,-636,-0.712646,-0.51416,0.00816755,-0.00591913,-0.00422141,0.00933572,-0.00708731,-0.26997,0.00951141,0.0464294,1154,1660,-0.712626,0.514117
-63,-636,-0.986694,-0.691895,0.0120009,-0.00891884,-0.00164506,0.0121295,-0.00904741,-0.0779978,0.0122696,0.0469734,1161,1660,-0.986704,0.691914
-56,-636,-1.29065,-0.859253,0,0,0,0,0,0,0,-1,1168,1660,-1.29059,0.859224
-49,-636,-0.647827,-1.10046,0.0279419,-0.0154806,0.004602,0.0284242,-0.015963,0.104436,0.0259614,0.046429,1175,1660,-0.647804,1.10047
-42,-636,-0.281128,-1.23999,0.0366742,-0.0155571,0.006187,0.037397,-0.01628,0.11631,0.0317798,0.0459615,1182,1660,-0.281137,1.24
-35,-636,0.222656,1.31812,0.0438591,-0.0147107,0.00729179,0.0447533,-0.0156049,0.122016,0.036177,0.0460094,1189,1660,0.222672,-1.31815
-28,-636,0.192383,0.942139,0.0481442,-0.0130015,0.00655538,0.0488391,-0.0136964,0.10561,0.0379577,0.0458656,1196,1660,0.192408,-0.942091
-21,-636,0.30896,1.18896,0.0504034,-0.0117206,0.00478957,0.0507705,-0.0120877,0.0764944,0.0385138,0.0460098,1203,1660,0.308995,-1.18902
-14,-636,0.339966,1.38416,0.0490505,-0.00855513,0.00248166,0.0491572,-0.00866185,0.042974,0.0360077,0.0487687,1210,1660,0.339993,-1.38412
-7,-636,0.31543,1.55591,0.0453542,-0.0059486,-0.000930856,0.0453711,-0.00596548,-0.0181364,0.0324194,0.0459632,1217,1660,0.315375,-1.55595
0,-636,0.521851,1.7749,0.0373353,-0.00420793,-0.00557548,0.0380706,-0.0049432,-0.131118,0.0271784,0.0440667,1224,1660,0.521861,-1.77494
7,-636,0.663452,2.02026,0.026383,-0.00388244,-0.0119055,0.0305049,-0.00800435,-0.333302,0.0234643,0.0446285,1231,1660,0.663465,-2.02025
14,-636,4.10608,-0.584961,0,0,0,0,0,0,0,-1,1238,1660,4.10606,0.584971
21,-636,4.02893,-1.31714,-0.00258775,7.65611e-05,-0.0250708,0.0238505,-0.0263617,-0.811941,0.0290021,0.0473337,1245,1660,4.02897,1.31712
28,-636,3.79358,-2.0332,-0.0182427,0.0119049,-0.0292336,0.0297222,-0.0360599,-1.02344,0.038038,0.0487912,1252,1660,3.79358,2.03315
35,-636,3.37476,-2.44934,-0.0349561,0.0266325,-0.0327862,0.0408185,-0.0491421,-1.16244,0.0520128,0.0478204,1259,1660,3.37472,2.44929
42,-636,1.82153,-2.08728,0,0,0,0,0,0,0,-1,1266,1660,1.82152,2.08722
49,-636,0.830566,-2.33398,0,0,0,0,0,0,0,-1,1273,1660,0.830513,2.33402
56,-636,-0.00842285,-2.50928,0,0,0,0,0,0,0,-1,1280,1660,-0.00847656,2.50922
63,-636,0.146606,-3.75696,0,0,0,0,0,0,0,-1,1287,1660,0.146634,3.75698
70,-636,-0.186768,-3.90222,0,0,0,0,0,0,0,-1,1294,1660,-0.186791,3.90226
77,-636,0.127319,-1.28809,-0.0601877,0.125747,-0.0246332,0.128955,-0.0633959,-1.44129,0.113184,0.0459928,1301,1660,0.127356,1.28805
84,-636,-0.607788,-1.92578,-0.0481862,0.133382,-0.0190817,0.135366,-0.0501699,-1.46721,0.11082,0.0462972,1308,1660,-0.607827,1.92584
91,-636,-1.37219,-2.49353,0,0,0,0,0,0,0,-1,1315,1660,-1.3722,2.49355
98,-636,-2.34985,-3.02136,0,0,0,0,0,0,0,-1,1322,1660,-2.34984,3.02136
105,-636,-3.21021,-3.4187,0,0,0,0,0,0,0,-1,1329,1660,-3.2102,3.41868
112,-636,-0.578613,0.418579,-0.000235456,0.119959,0.0158966,0.122026,-0.00230235,1.4415,0.082129,0.0489271,1336,1660,-0.578652,-0.418547
119,-636,-0.36438,0.868164,0.00775351,0.11297,0.0222145,0.117468,0.00325563,1.37102,0.0772497,0.0465763,1343,1660,-0.364367,-0.868169
126,-636,0.224854,0.984497,0.0142738,0.0997841,0.0261311,0.107137,0.00692067,1.2965,0.0692333,0.044846,1350,1660,0.224824,-0.98444
133,-636,0.655396,1.37903,0.0211482,0.0857132,0.0300808,0.0975558,0.00930567,1.19574,0.0621679,0.0440113,1357,1660,0.655401,-1.37898
140,-636,0.973999,1.68713,0.0255389,0.0707135,0.0291328,0.0849895,0.0112629,1.11515,0.0533035,0.0424559,1364,1660,0.974002,-1.68719
147,-636,1.24426,2.04517,0.0258587,0.0559736,0.0249644,0.0700701,0.0117623,1.05677,0.0433281,0.0445163,1371,1660,1.24425,-2.0452
154,-636,1.27124,2.39856,0.02379,0.0401981,0.0207936,0.0543476,0.00964049,0.973297,0.0334841,0.0450009,1378,1660,1.27126,-2.39856
161,-636,0.133179,-2.52844,0.021395,0.0270146,0.0164061,0.0408497,0.00755983,0.870208,0.0250957,0.0455718,1385,1660,0.133147,2.52843
168,-636,0.276611,-2.31714,0.01837,0.0153364,0.0133306,0.0302698,0.00343659,0.728749,0.0191375,0.0441517,1392,1660,0.276615,2.31714
175,-636,0.306763,-2.22778,0.0167318,0.00287816,0.0102013,0.0221356,-0.00252574,0.487147,0.015667,0.0411528,1399,1660,0.306781,2.22774
182,-636,0.273804,-2.03674,0.0154889,-0.006148,0.00774679,0.0179765,-0.00863563,0.310716,0.0156768,0.0404578,1406,1660,0.273846,2.03674
189,-636,0.269165,-1.79968,0.0136872,-0.0112206,0.0049677,0.0146414,-0.0121748,0.189773,0.0155042,0.0404871,1413,1660,0.269189,1.7997
196,-636,0.295532,-1.64612,0.0112689,-0.0145683,0.0022523,0.0114638,-0.0147631,0.0863055,0.015182,0.042024,1420,1660,0.295576,1.6461
203,-636,-0.888672,0.596802,0,0,0,0,0,0,0,-1,1427,1660,-0.888715,-0.596776
210,-636,-1.1239,0.446655,0.00755863,-0.01795,5.00616e-05,0.00755873,-0.0179501,0.00196253,0.0151294,0.0443297,1434,1660,-1.12391,-0.446643
217,-636,-0.256592,-0.0307617,0.00598369,-0.0112993,-0.000142156,0.00598486,-0.0113005,-0.00822447,0.0101358,0.0430645,1441,1660,-0.256564,0.0308111
224,-636,-0.0999756,0.0501709,0.0053797,-0.00611545,-0.000425321,0.00539542,-0.00613116,-0.0369328,0.00665939,0.040532,1448,1660,-0.0999383,-0.0501479
231,-636,0.12207,0.202148,0.00477598,-0.00240768,-0.000230465,0.00478337,-0.00241506,-0.0320379,0.00423033,0.0419878,1455,1660,0.122082,-0.202125
238,-636,-0.20105,0.445923,0.00422365,0.000473707,0.000412169,0.00426842,0.000428939,0.108192,0.00271396,0.040376,1462,1660,-0.201066,-0.445865
245,-636,-0.0324707,0.333008,0.00339722,0.00242468,0.00137047,0.00436513,0.00145676,0.614917,0.00256624,0.0397966,1469,1660,-0.0325071,-0.333053
252,-636,-0.110352,0.21814,0.00239459,0.00265214,0.00238457,0.00491141,0.000135321,0.812374,0.00323011,0.0406291,1476,1660,-0.110319,-0.21816
259,-636,-0.00427246,0.0358887,0,0,0,0,0,0,0,-1,1483,1660,-0.00428735,-0.0358337
266,-636,0.279907,-0.435059,0,0,0,0,0,0,0,-1,1490,1660,0.279863,0.435082
273,-636,0.395874,-0.876343,0,0,0,0,0,0,0,-1,1497,1660,0.395849,0.876385
280,-636,-0.0600586,-0.352173,0,0,0,0,0,0,0,-1,1504,1660,-0.0600541,0.352152
287,-636,-0.024292,-0.000488281,-0.00267285,-5.1823e-05,0.00535657,0.00415222,-0.0068769,0.905369,0.00643211,0.0457176,1511,1660,-0.0242792,0.000527342
294,-636,0.0205078,0.505981,-0.00293045,-0.000260117,0.00554483,0.00410804,-0.0072986,0.903546,0.00667095,0.0435006,1518,1660,0.0204507,-0.505979
301,-636,-0.065918,0.786743,0,0,0,0,0,0,0,-1,1525,1660,-0.0659607,-0.78673
308,-636,-0.30542,0.338501,0,0,0,0,0,0,0,-1,1532,1660,-0.305472,-0.33854
315,-636,-0.794922,0.598877,0,0,0,0,0,0,0,-1,1539,1660,-0.794957,-0.598852
322,-636,-0.057373,-0.0317383,-0.00118985,0.00226832,0.00127475,0.00268743,-0.00160895,1.25315,0.00250643,0.0385527,1546,1660,-0.0573748,0.0317512
329,-636,-0.0378418,-0.0673828,-0.000700102,0.00378041,0.000143101,0.00378497,-0.000704667,1.5389,0.00278805,0.0269967,1553,1660,-0.0378013,0.0674216
336,-636,-0.0405273,-0.0738525,-0.000316213,0.00500422,-0.000696302,0.00509384,-0.000405831,-1.44279,0.00353893,0.0207922,1560,1660,-0.0405256,0.0738091
343,-636,-0.0445557,-0.0620117,-0.000176046,0.00565748,-0.00158291,0.00605932,-0.000577882,-1.32219,0.0042453,0.0168111,1567,1660,-0.0445902,0.0620517
350,-636,-0.0328369,-0.0812988,0.000141447,0.00589803,-0.00217145,0.00662526,-0.000585781,-1.24763,0.00462448,0.0107362,1574,1660,-0.032887,0.0812614
357,-636,-0.00744629,-0.0855713,0.000409335,0.00585916,-0.00239569,0.00676254,-0.00049404,-1.2102,0.00468173,0.00977142,1581,1660,-0.00749052,0.0855536
364,-636,-0.0135498,-0.0878906,0.000472268,0.00529099,-0.00249833,0.00635246,-0.000589201,-1.16903,0.00444441,0.00985287,1588,1660,-0.013602,0.0878882
371,-636,-0.0153809,-0.0758057,0.000326725,0.00450835,-0.00247545,0.00565781,-0.000822735,-1.13608,0.00407391,0.00875906,1595,1660,-0.0153809,0.0757737
378,-636,-0.00366211,-0.0684814,8.88649e-05,0.00330431,-0.00211197,0.00435087,-0.000957691,-1.11073,0.00326694,0.00901933,1602,1660,-0.00365259,0.0685422
385,-636,-0.00463867,-0.0766602,-0.000215238,0.00185602,-0.00164678,0.00276575,-0.00112497,-1.06609,0.00231193,0.0126097,1609,1660,-0.00461841,0.0767044
392,-636,-0.0153809,-0.0914307,-0.00062833,0.000498961,-0.00109424,0.0011662,-0.00129556,-1.02323,0.00142195,0.0131879,1616,1660,-0.0154064,0.0914305
399,-636,-0.0178223,-0.0803223,-0.00120021,-0.000378093,-0.000833563,0.000140254,-0.00171856,-1.01447,0.0011952,0.0105338,1623,1660,-0.0178823,0.0803303
406,-636,-0.0172119,-0.0738525,-0.00162784,-0.00123569,-0.000424428,-0.000964237,-0.0018993,-1.00178,0.0010966,0.0124377,1630,1660,-0.0172144,0.0738883
413,-636,-0.0137939,-0.102783,-0.00185781,-0.00181951,-7.70312e-05,-0.00175928,-0.00191804,-0.90723,0.0012292,0.0187268,1637,1660,-0.0137496,0.102746
420,-636,-0.0126953,-0.0977783,-0.00186891,-0.00245418,0.000526558,-0.00155914,-0.00276396,0.531774,0.00160014,0.018941,1644,1660,-0.012696,0.0978377
427,-636,-0.0222168,-0.0646973,-0.0017391,-0.00325284,0.00105812,-0.00119502,-0.00379692,0.474938,0.00224175,0.0115281,1651,1660,-0.0222182,0.0647326
434,-636,-0.0168457,-0.0775146,-0.00219438,-0.00389453,0.00149026,-0.00132879,-0.00476012,0.526205,0.00283621,0.0109686,1658,1660,-0.0168269,0.0775249
441,-636,-0.0148926,-0.0948486,-0.00314949,-0.00440881,0.00241042,-0.00128785,-0.00627046,0.657641,0.00382401,0.0111088,1665,1660,-0.0149386,0.0948453
448,-636,-0.0131836,-0.0754395,-0.00460834,-0.00413893,0.00368896,-0.000677219,-0.00807005,0.817167,0.0051691,0.0122765,1672,1660,-0.013222,0.0753805
455,-636,-0.0189209,-0.0683594,-0.00727891,-0.002937,0.00528755,0.000607921,-0.0108238,0.980194,0.00742682,0.01227,1679,1660,-0.0188934,0.0683753
462,-636,-0.0461426,-0.0800781,-0.00984208,-0.00169127,0.006753,0.00212078,-0.0136541,1.05689,0.00988581,0.0155416,1686,1660,-0.0461739,0.0800488
469,-636,-0.0338135,-0.0869141,-0.0112929,0.002698,0.00923394,0.00728711,-0.015882,1.10957,0.0136801,0.0242703,1693,1660,-0.0337532,0.0869144
476,-636,0.0174561,-0.0620117,-0.0119028,0.00650312,0.0119645,0.0123946,-0.0177943,1.11323,0.0175223,0.0398862,1700,1660,0.0174716,0.0620303
483,-636,0.221436,-0.213257,-0.0129349,0.0117312,0.014692,0.0185804,-0.0197841,1.13456,0.0221534,0.0474883,1707,1660,0.221453,0.213245
490,-636,-0.883179,0.0649414,-0.0131476,0.0173436,0.017991,0.0256799,-0.0214839,1.13689,0.0272659,0.0458901,1714,1660,-0.883133,-0.0649204
497,-636,-0.925415,0.139038,-0.0127717,0.0236295,0.0216271,0.0336954,-0.0228376,1.13519,0.0328393,0.0440405,1721,1660,-0.925445,-0.138978
504,-636,-1.51831,-0.0706787,-0.0113779,0.0307607,0.0260308,0.0431805,-0.0237976,1.12562,0.0392059,0.043834,1728,1660,-1.51827,0.0706589
511,-636,-1.17432,-0.562988,0,0,0,0,0,0,0,-1,1735,1660,-1.17433,0.562995
518,-636,-1.328,-2.51526,-0.00417107,0.0432854,0.0348365,0.061707,-0.0225927,1.08437,0.0503866,0.0491152,1742,1660,-1.32796,2.51525
525,-636,-0.302368,-0.70166,0.00135313,0.0490471,0.0394746,0.0713187,-0.0209185,1.05712,0.0558403,0.0426688,1749,1660,-0.302337,0.70172
532,-636,0,0,0,0,0,0,0,0,0,-1,1756,1660,0,0
539,-636,0,0,0,0,0,0,0,0,0,-1,1763,1660,0,0
546,-636,0,0,0,0,0,0,0,0,0,-1,1770,1660,0,0
553,-636,0,0,0,0,0,0,0,0,0,-1,1777,1660,0,0
560,-636,0,0,0,0,0,0,0,0,0,-1,1784,1660,0,0
567,-636,0,0,0,0,0,0,0,0,0,-1,1791,1660,0,0
574,-636,0,0,0,0,0,0,0,0,0,-1,1798,1660,0,0
581,-636,0,0,0,0,0,0,0,0,0,-1,1805,1660,0,0
588,-636,0,0,0,0,0,0,0,0,0,-1,1812,1660,0,0
595,-636,0,0,0,0,0,0,0,0,0,-1,1819,1660,0,0
602,-636,0,0,0,0,0,0,0,0,0,-1,1826,1660,0,0
609,-636,0,0,0,0,0,0,0,0,0,-1,1833,1660,0,0
616,-636,0,0,0,0,0,0,0,0,0,-1,1840,1660,0,0
623,-636,0,0,0,0,0,0,0,0,0,-1,1847,1660,0,0
630,-636,0,0,0,0,0,0,0,0,0,-1,1854,1660,0,0
637,-636,0,0,0,0,0,0,0,0,0,-1,1861,1660,0,0
644,-636,0,0,0,0,0,0,0,0,0,-1,1868,1660,0,0
651,-636,0,0,0,0,0,0,0,0,0,-1,1875,1660,0,0
658,-636,0,0,0,0,0,0,0,0,0,-1,1882,1660,0,0
665,-636,0,0,0,0,0,0,0,0,0,-1,1889,1660,0,0
672,-636,0,0,0,0,0,0,0,0,0,-1,1896,1660,0,0
679,-636,0,0,0,0,0,0,0,0,0,-1,1903,1660,0,0
686,-636,0,0,0,0,0,0,0,0,0,-1,1910,1660,0,0
693,-636,0,0,0,0,0,0,0,0,0,-1,1917,1660,0,0
700,-636,0,0,0,0,0,0,0,0,0,-1,1924,1660,0,0
707,-636,0,0,0,0,0,0,0,0,0,-1,1931,1660,0,0
714,-636,0,0,0,0,0,0,0,0,0,-1,1938,1660,0,0
721,-636,0,0,0,0,0,0,0,0,0,-1,1945,1660,0,0
728,-636,0,0,0,0,0,0,0,0,0,-1,1952,1660,0,0
735,-636,0,0,0,0,0,0,0,0,0,-1,1959,1660,0,0
742,-636,0,0,0,0,0,0,0,0,0,-1,1966,1660,0,0
749,-636,0,0,0,0,0,0,0,0,0,-1,1973,1660,0,0
756,-636,0,0,0,0,0,0,0,0,0,-1,1980,1660,0,0
763,-636,0,0,0,0,0,0,0,0,0,-1,1987,1660,0,0
770,-636,0,0,0,0,0,0,0,0,0,-1,1994,1660,0,0
777,-636,0,0,0,0,0,0,0,0,0,-1,2001,1660,0,0
784,-636,0,0,0,0,0,0,0,0,0,-1,2008,1660,0,0
791,-636,0,0,0,0,0,0,0,0,0,-1,2015,1660,0,0
798,-636,0,0,0,0,0,0,0,0,0,-1,2022,1660,0,0
805,-636,0,0,0,0,0,0,0,0,0,-1,2029,1660,0,0
812,-636,0,0,0,0,0,0,0,0,0,-1,2036,1660,0,0
-700,-643,0,0,0,0,0,0,0,0,0,-1,524,1667,0,0
-693,-643,0,0,0,0,0,0,0,0,0,-1,531,1667,0,0
-686,-643,0,0,0,0,0,0,0,0,0,-1,538,1667,0,0
-679,-643,0,0,0,0,0,0,0,0,0,-1,545,1667,0,0
-672,-643,0,0,0,0,0,0,0,0,0,-1,552,1667,0,0
-665,-643,0,0,0,0,0,0,0,0,0,-1,559,1667,0,0
-658,-643,0,0,0,0,0,0,0,0,0,-1,566,1667,0,0
-651,-643,0,0,0,0,0,0,0,0,0,-1,573,1667,0,0
-644,-643,0,0,0,0,0,0,0,0,0,-1,580,1667,0,0
-637,-643,0,0,0,0,0,0,0,0,0,-1,587,1667,0,0
-630,-643,0,0,0,0,0,0,0,0,0,-1,594,1667,0,0
-623,-643,0,0,0,0,0,0,0,0,0,-1,601,1667,0,0
-616,-643,0,0,0,0,0,0,0,0,0,-1,608,1667,0,0
-609,-643,0,0,0,0,0,0,0,0,0,-1,615,1667,0,0
-602,-643,0,0,0,0,0,0,0,0,0,-1,622,1667,0,0
-595,-643,0,0,0,0,0,0,0,0,0,-1,629,1667,0,0
-588,-643,0,0,0,0,0,0,0,0,0,-1,636,1667,0,0
-581,-643,0,0,0,0,0,0,0,0,0,-1,643,1667,0,0
-574,-643,0,0,0,0,0,0,0,0,0,-1,650,1667,0,0
-567,-643,0,0,0,0,0,0,0,0,0,-1,657,1667,0,0
-560,-643,0,0,0,0,0,0,0,0,0,-1,664,1667,0,0
-553,-643,0,0,0,0,0,0,0,0,0,-1,671,1667,0,0
-546,-643,0,0,0,0,0,0,0,0,0,-1,678,1667,0,0
-539,-643,0,0,0,0,0,0,0,0,0,-1,685,1667,0,0
-532,-643,0,0,0,0,0,0,0,0,0,-1,692,1667,0,0
-525,-643,0,0,0,0,0,0,0,0,0,-1,699,1667,0,0
-518,-643,0,0,0,0,0,0,0,0,0,-1,706,1667,0,0
-511,-643,0,0,0,0,0,0,0,0,0,-1,713,1667,0,0
-504,-643,0,0,0,0,0,0,0,0,0,-1,720,1667,0,0
-497,-643,0,0,0,0,0,0,0,0,0,-1,727,1667,0,0
-490,-643,0,0,0,0,0,0,0,0,0,-1,734,1667,0,0
-483,-643,0,0,0,0,0,0,0,0,0,-1,741,1667,0,0
-476,-643,0,0,0,0,0,0,0,0,0,-1,748,1667,0,0
-469,-643,0,0,0,0,0,0,0,0,0,-1,755,1667,0,0
-462,-643,0,0,0,0,0,0,0,0,0,-1,762,1667,0,0
-455,-643,0,0,0,0,0,0,0,0,0,-1,769,1667,0,0
-448,-643,0,0,0,0,0,0,0,0,0,-1,776,1667,0,0
-441,-643,0,0,0,0,0,0,0,0,0,-1,783,1667,0,0
-434,-643,0,0,0,0,0,0,0,0,0,-1,790,1667,0,0
-427,-643,0,0,0,0,0,0,0,0,0,-1,797,1667,0,0
-420,-643,0,0,0,0,0,0,0,0,0,-1,804,1667,0,0
-413,-643,0,0,0,0,0,0,0,0,0,-1,811,1667,0,0
-406,-643,0,0,0,0,0,0,0,0,0,-1,818,1667,0,0
-399,-643,5.24634,-3.55554,0,0,0,0,0,0,0,-1,825,1667,5.24631,3.55552
-392,-643,6.07605,-3.91699,0,0,0,0,0,0,0,-1,832,1667,6.07604,3.91702
-385,-643,4.26862,-1.77527,-0.00758771,0.0453907,0.00605795,0.0460745,-0.0082716,1.45838,0.0338125,0.0447324,839,1667,4.26864,1.77527
-378,-643,2.76892,-1.09961,-0.0112015,0.035399,0.0128854,0.0387246,-0.0145271,1.31822,0.0317853,0.0428581,846,1667,2.76892,1.0996
-371,-643,1.33875,-0.601196,-0.0136856,0.0261044,0.0175406,0.0327327,-0.0203139,1.2095,0.0309049,0.0466722,853,1667,1.33875,0.601241
-364,-643,-1.20038,1.50085,0,0,0,0,0,0,0,-1,860,1667,-1.20035,-1.50089
-357,-643,-0.934998,1.39502,0,0,0,0,0,0,0,-1,867,1667,-0.934983,-1.39506
-350,-643,-0.233032,0.97644,0,0,0,0,0,0,0,-1,874,1667,-0.233032,-0.976487
-343,-643,-0.0800781,0.589355,0,0,0,0,0,0,0,-1,881,1667,-0.080094,-0.58935
-336,-643,-0.060791,-0.11377,0.00259036,-0.00135848,0.0182295,0.018952,-0.0177201,0.731454,0.0211767,0.0490429,888,1667,-0.060815,0.113812
-329,-643,-0.0271606,-0.180542,0.00664183,-0.00174501,0.0150482,0.0180699,-0.0131731,0.649512,0.0181119,0.0372284,895,1667,-0.0271466,0.180601
-322,-643,0.0105591,-0.108276,0.00852158,-0.00203414,0.0122239,0.0165583,-0.0100709,0.581604,0.0155257,0.0232791,902,1667,0.0105848,0.108264
-315,-643,-0.0136719,-0.0739746,0.00799273,-0.00136527,0.00921612,0.0136496,-0.00702213,0.550505,0.0121376,0.0153999,909,1667,-0.0136829,0.0739717
-308,-643,-0.0229492,-0.0910645,0.00558802,-0.000733311,0.00603546,0.00924033,-0.00438562,0.544191,0.00803165,0.0121106,916,1667,-0.0229491,0.0910699
-301,-643,0.00158691,-0.0766602,0.00302233,0.000468027,0.00356081,0.00552809,-0.00203774,0.61321,0.00452042,0.0132016,923,1667,0.0015745,0.0766465
-294,-643,-0.0134277,-0.0773926,0.00119915,0.00108016,0.0021449,0.00328539,-0.00100607,0.771532,0.00259155,0.0118509,930,1667,-0.0134096,0.0773825
-287,-643,-0.0313721,-0.0783691,0.000132852,0.00116997,0.00134821,0.00209591,-0.000793082,0.968991,0.00172357,0.00982347,937,1667,-0.0313859,0.0783849
-280,-643,-0.0286865,-0.072876,-0.000264517,0.000896222,0.000980419,0.00145517,-0.000823468,1.05264,0.00133232,0.0130642,944,1667,-0.0286887,0.0728575
-273,-643,-0.0263672,-0.0994873,-0.000879311,0.000920866,0.000902263,0.00129523,-0.00125368,1.17749,0.00147168,0.012028,951,1667,-0.026362,0.0995327
-266,-643,-0.0180054,-0.107544,-0.000311818,0.000890914,0.000971652,0.00143224,-0.000853146,1.0625,0.00133351,0.0113839,958,1667,-0.0180119,0.107572
-259,-643,-0.00518799,-0.110107,0.000167279,0.000794863,0.000874536,0.0014102,-0.000448056,0.957649,0.00111977,0.0106723,965,1667,-0.00521627,0.110087
-252,-643,-0.0183716,-0.0926514,0.000486328,0.0007574,0.000822696,0.00145565,-0.000211922,0.867038,0.00104824,0.0121102,972,1667,-0.0183467,0.0926967
-245,-643,-0.00732422,-0.0662842,0.000190076,0.00106374,0.000686692,0.00144077,-0.000186952,1.06868,0.00102851,0.0114153,979,1667,-0.00729466,0.0662563
-238,-643,0.00738525,-0.0577393,-0.000647359,0.00095373,0.000315768,0.00101376,-0.000707385,1.38294,0.000998935,0.0137372,986,1667,0.00741152,0.0577651
-231,-643,-0.0098877,-0.0759277,-0.00199952,0.000487903,0.000329344,0.000530771,-0.00204238,1.44136,0.00156873,0.0100706,993,1667,-0.00986478,0.075931
-224,-643,-0.026001,-0.0906982,-0.00360416,0.000133882,0.000178821,0.000142417,-0.00361269,1.5231,0.00245731,0.00895716,1000,1667,-0.0260057,0.0907271
-217,-643,-0.0263062,-0.0997314,-0.00524384,-0.000276691,7.75309e-05,-0.000275481,-0.00524505,1.55519,0.00340858,0.00837961,1007,1667,-0.0262825,0.0997588
-210,-643,-0.0115967,-0.0888672,-0.00623324,-0.000883048,0.000844296,-0.000752975,-0.00636331,1.41794,0.00401482,0.0104323,1014,1667,-0.0116144,0.0888701
-203,-643,0.00292969,-0.0852051,-0.00709236,-0.00142995,0.0016191,-0.000999679,-0.00752263,1.31105,0.0047173,0.0115054,1021,1667,0.00292319,0.0852372
-196,-643,-0.0170898,-0.083374,-0.00786447,-0.00192538,0.00248341,-0.00102381,-0.00876604,1.22256,0.00553441,0.0109545,1028,1667,-0.0171309,0.0833926
-189,-643,-0.0252686,-0.0825195,-0.00819887,-0.00228778,0.00354026,-0.000631526,-0.00985512,1.13321,0.00637002,0.0107659,1035,1667,-0.0252838,0.0824994
-182,-643,0.0299072,-0.0811768,-0.00771879,-0.00207038,0.00466156,0.000555761,-0.0103449,1.05775,0.00708914,0.0176996,1042,1667,0.0298878,0.0811404
-175,-643,0.0336914,-0.106323,-0.00614038,-0.0013441,0.00530191,0.00207681,-0.00956129,0.997788,0.00716747,0.0301341,1049,1667,0.0337299,0.106294
-168,-643,-0.0289307,-0.13916,-0.00294829,-0.000671455,0.00525004,0.00356217,-0.00718192,0.892165,0.00631936,0.0354741,1056,1667,-0.0289568,0.139193
-161,-643,-0.111572,-0.26001,-5.9971e-05,0.00070994,0.0049804,0.00532024,-0.00467027,0.823969,0.00577209,0.0379629,1063,1667,-0.111619,0.260011
-154,-643,-0.026123,-0.208618,0.00225592,0.00126129,0.00384002,0.00563069,-0.00211348,0.721002,0.00462226,0.0395974,1070,1667,-0.0261807,0.208569
-147,-643,0.0827637,-0.0106201,0.00415261,0.00260664,0.00190063,0.00543143,0.00132782,0.592265,0.0032695,0.0489451,1077,1667,0.0827424,0.0106125
-140,-643,0.184692,0.20105,0,0,0,0,0,0,0,-1,1084,1667,0.184725,-0.201086
-133,-643,-0.692017,0.68103,0.00662402,0.0046381,-0.00224772,0.00808834,0.00317378,-0.577407,0.00470572,0.0468314,1091,1667,-0.691989,-0.681032
-126,-643,-0.478271,1.0354,0.00645653,0.00652808,-0.00448489,0.0109773,0.00200727,-0.789386,0.00674937,0.0465412,1098,1667,-0.478267,-1.0354
-119,-643,-0.167847,-0.027832,0,0,0,0,0,0,0,-1,1105,1667,-0.167801,0.0278013
-112,-643,0.136353,-0.0706787,0,0,0,0,0,0,0,-1,1112,1667,0.136347,0.0707341
-105,-643,0.789063,1.1665,0,0,0,0,0,0,0,-1,1119,1667,0.789056,-1.16652
-98,-643,0.953735,-0.633423,0,0,0,0,0,0,0,-1,1126,1667,0.953693,0.63339
-91,-643,0.506836,-0.569214,3.04226e-05,0.00291903,-0.0112352,0.0128023,-0.00985288,-0.849324,0.0131169,0.0494644,1133,1667,0.506882,0.569163
-84,-643,0.0578613,-0.533325,0,0,0,0,0,0,0,-1,1140,1667,0.057874,0.533303
-77,-643,-0.115601,-0.473267,0.003418,-0.00143911,-0.0076792,0.00904351,-0.00706462,-0.632249,0.0093234,0.0435057,1147,1667,-0.115658,0.473267
-70,-643,-0.32019,-0.44104,0.00601574,-0.00354228,-0.00538244,0.00843462,-0.00596116,-0.422356,0.0083522,0.0406852,1154,1667,-0.320225,0.441004
-63,-643,-0.610352,-0.526611,0.00910839,-0.00541801,-0.00315774,0.00976513,-0.00607475,-0.205054,0.00922752,0.0406119,1161,1667,-0.610349,0.526582
-56,-643,-0.930664,-0.685547,0.0149449,-0.00821312,-0.000537765,0.0149574,-0.0082256,-0.0232049,0.0135715,0.0418418,1168,1667,-0.930649,0.685512
-49,-643,-0.487183,-0.772827,0.0226988,-0.00881282,0.00218453,0.0228495,-0.00896354,0.0688855,0.0189415,0.042399,1175,1667,-0.487174,0.772817
-42,-643,0.162109,1.09595,0.0303438,-0.00781714,0.00362246,0.0306846,-0.00815796,0.0938094,0.0236495,0.0432145,1182,1667,0.162133,-1.09589
-35,-643,0.139771,1.21167,0.03676,-0.00651867,0.00480892,0.0372879,-0.00704658,0.109338,0.0275099,0.0459296,1189,1667,0.139765,-1.21169
-28,-643,0.1073,1.099,0.0407344,-0.00483655,0.0045133,0.0411771,-0.00527925,0.0977732,0.0293698,0.0452051,1196,1667,0.107287,-1.09905
-21,-643,0.246826,1.05432,0.0429919,-0.00402414,0.00358964,0.0432644,-0.00429663,0.0757641,0.0303766,0.0455998,1203,1667,0.246868,-1.05433
-14,-643,0.284668,1.16296,0,0,0,0,0,0,0,-1,1210,1667,0.28462,-1.16291
-7,-643,0.190308,1.64001,0.0402371,-0.000673584,-0.000194658,0.040238,-0.00067451,-0.00475797,0.027053,0.0499108,1217,1667,0.190357,-1.64002
0,-643,0.450928,1.6123,0.0341013,-0.000109314,-0.00364964,0.0344863,-0.000494333,-0.105106,0.0231574,0.0430559,1224,1667,0.450986,-1.6123
7,-643,3.46777,0.368286,0.0253468,-0.00117396,-0.00889915,0.0280561,-0.00388332,-0.295536,0.0201238,0.0438083,1231,1667,3.46774,-0.368304
14,-643,3.61462,-0.328003,0.0143716,-0.000681674,-0.0140058,0.022745,-0.00905507,-0.53884,0.0189184,0.0427719,1238,1667,3.61461,0.32798
21,-643,3.58313,-1.05823,0.0021636,-0.00130809,-0.0198514,0.0203549,-0.0194994,-0.741788,0.0230117,0.04456,1245,1667,3.5831,1.05828
28,-643,3.39526,-1.70654,-0.0112321,0.00604776,-0.0239224,0.0228426,-0.0280269,-0.958691,0.0294203,0.0435944,1252,1667,3.39523,1.70652
35,-643,2.65698,-2.32544,-0.0262869,0.0156431,-0.0278905,0.0295695,-0.0402133,-1.10769,0.0404451,0.0421758,1259,1667,2.65703,2.32548
42,-643,1.69324,-2.63562,-0.0417298,0.0250153,-0.0307296,0.0370084,-0.0537228,-1.1987,0.0526792,0.0425586,1266,1667,1.6932,2.63565
49,-643,0.748413,-2.87488,-0.0558085,0.0394738,-0.0339791,0.0503498,-0.0666846,-1.26102,0.0677889,0.0440448,1273,1667,0.748397,2.87485
56,-643,-0.131958,-3.10669,0,0,0,0,0,0,0,-1,1280,1667,-0.131984,3.1067
63,-643,0.102783,-3.67786,-0.0639843,0.062923,-0.0289632,0.0692206,-0.0702819,-1.3567,0.0805426,0.0471956,1287,1667,0.102812,3.6779
70,-643,-0.415405,-3.62048,0,0,0,0,0,0,0,-1,1294,1667,-0.415361,3.6205
77,-643,-0.989868,-3.43982,0,0,0,0,0,0,0,-1,1301,1667,-0.98982,3.4398
84,-643,-0.665649,-3.19507,0,0,0,0,0,0,0,-1,1308,1667,-0.665667,3.19503
91,-643,-0.848755,-3.71838,0,0,0,0,0,0,0,-1,1315,1667,-0.848697,3.71837
98,-643,-2.24951,-5.46948,0,0,0,0,0,0,0,-1,1322,1667,-2.2495,5.46946
105,-643,-3.08447,-5.82642,0,0,0,0,0,0,0,-1,1329,1667,-3.08451,5.82636
112,-643,-0.394287,0.0634766,-0.00710841,0.100346,0.0220301,0.104687,-0.0114496,1.37623,0.0739043,0.0461985,1336,1667,-0.394336,-0.0634172
119,-643,-0.155151,0.33606,0.000107946,0.0948467,0.0272028,0.102102,-0.00714729,1.31015,0.0705711,0.0464208,1343,1667,-0.155165,-0.336036
126,-643,0.207031,0.584717,0.0062487,0.0836276,0.0296414,0.0936771,-0.00380079,1.24392,0.0637561,0.0463679,1350,1667,0.20708,-0.584676
133,-643,0.523438,0.9104,0.0128032,0.0714408,0.0318871,0.0854392,-0.00119519,1.15713,0.057362,0.0456244,1357,1667,0.523463,-0.910445
140,-643,0.769409,1.25061,0.0174732,0.058753,0.0297886,0.0743535,0.00187274,1.08836,0.0489567,0.0425245,1364,1667,0.769455,-1.25056
147,-643,0.903687,1.79126,0.0192615,0.0465179,0.0253367,0.0616591,0.00412041,1.03215,0.0398037,0.0420032,1371,1667,0.903718,-1.79123
154,-643,-0.226563,-2.62903,0.0189514,0.0332607,0.0209193,0.048215,0.00399711,0.950168,0.0308973,0.0458162,1378,1667,-0.226522,2.62902
161,-643,-0.169312,-2.43567,0.0180589,0.0221833,0.0162648,0.0365162,0.00372608,0.848457,0.023202,0.0484163,1385,1667,-0.169265,2.43566
168,-643,0.182129,-2.07959,0.0163974,0.0120896,0.0130437,0.0274639,0.00102311,0.703573,0.0179779,0.0469091,1392,1667,0.18214,2.07962
175,-643,0.167603,-1.94543,0.0159887,0.0011784,0.00982715,0.0208884,-0.00372128,0.462516,0.0153175,0.0444445,1399,1667,0.167609,1.94548
182,-643,0.0856934,-1.76392,0.0155581,-0.00667718,0.00751553,0.0178601,-0.00897912,0.297218,0.0157758,0.0437455,1406,1667,0.085676,1.76396
189,-643,0.0936279,-1.58191,0.014144,-0.0105053,0.00488617,0.0150773,-0.0114385,0.188723,0.0153569,0.0443449,1413,1667,0.0936062,1.58187
196,-643,-0.187256,0.552979,0,0,0,0,0,0,0,-1,1420,1667,-0.187315,-0.553033
203,-643,-0.678101,0.198242,0.00993271,-0.0124792,0.00127042,0.0100045,-0.012551,0.0564439,0.0130501,0.0417111,1427,1667,-0.678094,-0.198295
210,-643,-0.825684,-0.18042,0.00801452,-0.0144798,0.000425203,0.00802256,-0.0144878,0.0188937,0.0131738,0.0451334,1434,1667,-0.825721,0.180446
217,-643,-0.428467,-0.264771,0.00638276,-0.00838383,0.000264055,0.00638748,-0.00838855,0.0178743,0.00855698,0.0441191,1441,1667,-0.428455,0.264788
224,-643,-0.138672,-0.0615234,0.00571147,-0.00385001,-5.27445e-06,0.00571148,-0.00385001,-0.000551635,0.00555509,0.0433139,1448,1667,-0.138669,0.0615295
231,-643,-0.064209,0.342285,0.00513163,-0.00049566,8.80201e-05,0.00513301,-0.000497037,0.0156365,0.00359914,0.0411794,1455,1667,-0.0642461,-0.342321
238,-643,-0.00256348,0.430054,0.00452852,0.00202247,0.000606934,0.00466777,0.00188322,0.225535,0.00271163,0.0398654,1462,1667,-0.00262005,-0.430111
245,-643,0.128784,0.331543,0.00364126,0.00360012,0.00136739,0.00498824,0.00225314,0.777879,0.00288444,0.0398409,1469,1667,0.128814,-0.331516
252,-643,0.181152,0.19043,0.00261987,0.00359354,0.00225291,0.00541162,0.000801793,0.891807,0.00337241,0.0404236,1476,1667,0.181172,-0.190408
259,-643,1.41846,0.192871,0,0,0,0,0,0,0,-1,1483,1667,1.41846,-0.192858
266,-643,2.45276,-0.448975,0,0,0,0,0,0,0,-1,1490,1667,2.4528,0.448967
273,-643,-0.212158,0.31311,0,0,0,0,0,0,0,-1,1497,1667,-0.21212,-0.313068
280,-643,-0.480957,-0.0568848,-0.00106659,0.000488677,0.00524204,0.00501045,-0.00558837,0.859034,0.00612226,0.0458001,1504,1667,-0.480965,0.05692
287,-643,-0.307617,-0.240845,-0.00207495,0.000351179,0.00485343,0.00414085,-0.00586461,0.907859,0.00580516,0.0441336,1511,1667,-0.307675,0.240794
294,-643,-0.17688,0.700806,0,0,0,0,0,0,0,-1,1518,1667,-0.176884,-0.700826
301,-643,-0.140747,-0.124268,-0.00141142,0.000141717,0.00469991,0.00412878,-0.00539849,0.867274,0.00551683,0.034457,1525,1667,-0.140696,0.12423
308,-643,-0.119263,-0.0444336,-0.00108441,0.00053928,0.00393902,0.00374925,-0.00429438,0.887026,0.00464755,0.0316629,1532,1667,-0.119265,0.0444284
315,-643,-0.0483398,-0.0445557,-0.00104234,0.00114498,0.00272412,0.00298678,-0.00288414,0.976285,0.00338975,0.0239469,1539,1667,-0.0483344,0.0445217
322,-643,-0.0301514,-0.0706787,-0.00102205,0.0022239,0.00133319,0.00270127,-0.00149942,1.22695,0.00245813,0.0136731,1546,1667,-0.0301363,0.0706714
329,-643,-0.0299072,-0.100708,-0.000748372,0.00346023,0.000495824,0.00351785,-0.000805997,1.45509,0.002655,0.0110193,1553,1667,-0.0299667,0.100677
336,-643,-0.0383301,-0.0725098,-0.00052258,0.00439293,-0.000123536,0.00439603,-0.000525683,-1.54569,0.00312071,0.0101997,1560,1667,-0.0383018,0.0724565
343,-643,-0.0305176,-0.0551758,-0.000299089,0.00488477,-0.000832403,0.00501516,-0.000429473,-1.41542,0.0034954,0.0120449,1567,1667,-0.0305593,0.0551561
350,-643,-0.00170898,-0.0767822,4.12272e-05,0.00501798,-0.00129213,0.00533346,-0.000274255,-1.33132,0.0036505,0.0121048,1574,1667,-0.0017336,0.0767589
357,-643,-0.00244141,-0.0858154,0.000385188,0.00491792,-0.00141469,0.00532321,-2.01047e-05,-1.29178,0.00355553,0.0103611,1581,1667,-0.00250088,0.0858306
364,-643,-0.0136719,-0.0844727,0.000587551,0.0043123,-0.00146435,0.00481905,8.07997e-05,-1.23764,0.00318611,0.00881625,1588,1667,-0.0136855,0.0844384
371,-643,-0.0166016,-0.0732422,0.00062036,0.00352183,-0.00144125,0.00411605,2.61418e-05,-1.17974,0.00273536,0.007638,1595,1667,-0.0165529,0.073236
378,-643,-0.000366211,-0.0500488,0.000588321,0.00230962,-0.00113399,0.00287257,2.53655e-05,-1.11,0.00190665,0.00899574,1602,1667,-0.000352468,0.0500721
385,-643,0.0318604,-0.045166,0.000440891,0.000942452,-0.000795792,0.00152604,-0.0001427,-0.938039,0.00106811,0.0141091,1609,1667,0.0318339,0.0451717
392,-643,-0.00366211,-0.0697021,9.74657e-05,-0.000336612,-0.000387283,0.000324379,-0.000563525,-0.529996,0.000518793,0.0147041,1616,1667,-0.00365195,0.0697493
399,-643,-0.0340576,-0.0715332,-0.000391623,-0.0012569,-0.000228485,-0.000334996,-0.00131352,-0.242946,0.000788119,0.01225,1623,1667,-0.0340154,0.0715725
406,-643,-0.0152588,-0.0710449,-0.000804755,-0.00224925,3.27964e-05,-0.00080401,-0.00225,0.0226887,0.00131654,0.0113165,1630,1667,-0.0152398,0.0710572
413,-643,-0.00463867,-0.0961914,-0.00121521,-0.00289742,0.000313224,-0.00115878,-0.00295385,0.178243,0.00171854,0.0155585,1637,1667,-0.00462681,0.0962087
420,-643,-0.0233154,-0.0883789,-0.0016187,-0.00366315,0.000990498,-0.00121754,-0.00406431,0.384819,0.00240856,0.0151658,1644,1667,-0.0233655,0.0883255
427,-643,-0.0317383,-0.0684814,-0.0018468,-0.00466025,0.00160186,-0.00112167,-0.00538539,0.425083,0.00328092,0.013129,1651,1667,-0.0316888,0.0685376
434,-643,-0.0219727,-0.0698242,-0.00260904,-0.00551506,0.00213418,-0.0014802,-0.0066439,0.486527,0.00402758,0.013417,1658,1667,-0.0220083,0.0698475
441,-643,-0.0249023,-0.0975342,-0.00396333,-0.00623126,0.00327936,-0.00162741,-0.00856718,0.618939,0.00525369,0.0127717,1665,1667,-0.0248577,0.0975398
448,-643,-0.0482178,-0.122803,-0.00595085,-0.00603537,0.00482832,-0.00116461,-0.0108216,0.781022,0.00685924,0.01581,1672,1667,-0.048259,0.122863
455,-643,-0.0748291,-0.137939,-0.00920227,-0.00479227,0.00677141,0.000124109,-0.0141186,0.9428,0.00945407,0.0229635,1679,1667,-0.0748662,0.137953
462,-643,-0.0650635,-0.155029,-0.012397,-0.00350052,0.00862089,0.00175209,-0.0176496,1.02357,0.0123918,0.0324237,1686,1667,-0.0651131,0.155046
469,-643,-0.0505371,-0.105103,-0.0144214,0.00125885,0.0116902,0.00749456,-0.0206571,1.08078,0.0168351,0.038123,1693,1667,-0.0505115,0.105084
476,-643,0.118408,-0.0522461,-0.01549,0.0055455,0.0151476,0.0134688,-0.0234133,1.08886,0.0215503,0.041732,1700,1667,0.118368,0.0522786
483,-643,0.471802,-0.246948,-0.0170632,0.0117282,0.0185849,0.0208407,-0.0261757,1.11493,0.0272031,0.0439132,1707,1667,0.47181,0.246993
490,-643,-1.26733,-0.0328369,-0.0177249,0.018458,0.0227796,0.0294562,-0.0287232,1.12099,0.0335908,0.0445166,1714,1667,-1.26732,0.0328696
497,-643,-1.30762,0.0499268,-0.0176897,0.0261029,0.0274576,0.039326,-0.0309127,1.12199,0.0406492,0.0451772,1721,1667,-1.30763,-0.0499003
504,-643,-2.56238,-0.516235,-0.0164978,0.0349111,0.0331811,0.0511794,-0.032766,1.11495,0.048853,0.0487228,1728,1667,-2.56237,0.516244
511,-643,-3.28333,-0.987427,0,0,0,0,0,0,0,-1,1735,1667,-3.28331,0.987454
518,-643,-1.42395,-3.73132,0,0,0,0,0,0,0,-1,1742,1667,-1.4239,3.73134
525,-643,0,0,0,0,0,0,0,0,0,-1,1749,1667,0,0
532,-643,0,0,0,0,0,0,0,0,0,-1,1756,1667,0,0
539,-643,0,0,0,0,0,0,0,0,0,-1,1763,1667,0,0
546,-643,0,0,0,0,0,0,0,0,0,-1,1770,1667,0,0
553,-643,0,0,0,0,0,0,0,0,0,-1,1777,1667,0,0
560,-643,0,0,0,0,0,0,0,0,0,-1,1784,1667,0,0
567,-643,0,0,0,0,0,0,0,0,0,-1,1791,1667,0,0
574,-643,0,0,0,0,0,0,0,0,0,-1,1798,1667,0,0
581,-643,0,0,0,0,0,0,0,0,0,-1,1805,1667,0,0
588,-643,0,0,0,0,0,0,0,0,0,-1,1812,1667,0,0
595,-643,0,0,0,0,0,0,0,0,0,-1,1819,1667,0,0
602,-643,0,0,0,0,0,0,0,0,0,-1,1826,1667,0,0
609,-643,0,0,0,0,0,0,0,0,0,-1,1833,1667,0,0
616,-643,0,0,0,0,0,0,0,0,0,-1,1840,1667,0,0
623,-643,0,0,0,0,0,0,0,0,0,-1,1847,1667,0,0
630,-643,0,0,0,0,0,0,0,0,0,-1,1854,1667,0,0
637,-643,0,0,0,0,0,0,0,0,0,-1,1861,1667,0,0
644,-643,0,0,0,0,0,0,0,0,0,-1,1868,1667,0,0
651,-643,0,0,0,0,0,0,0,0,0,-1,1875,1667,0,0
658,-643,0,0,0,0,0,0,0,0,0,-1,1882,1667,0,0
665,-643,0,0,0,0,0,0,0,0,0,-1,1889,1667,0,0
672,-643,0,0,0,0,0,0,0,0,0,-1,1896,1667,0,0
679,-643,0,0,0,0,0,0,0,0,0,-1,1903,1667,0,0
686,-643,0,0,0,0,0,0,0,0,0,-1,1910,1667,0,0
693,-643,0,0,0,0,0,0,0,0,0,-1,1917,1667,0,0
700,-643,0,0,0,0,0,0,0,0,0,-1,1924,1667,0,0
707,-643,0,0,0,0,0,0,0,0,0,-1,1931,1667,0,0
714,-643,0,0,0,0,0,0,0,0,0,-1,1938,1667,0,0
721,-643,0,0,0,0,0,0,0,0,0,-1,1945,1667,0,0
728,-643,0,0,0,0,0,0,0,0,0,-1,1952,1667,0,0
735,-643,0,0,0,0,0,0,0,0,0,-1,1959,1667,0,0
742,-643,0,0,0,0,0,0,0,0,0,-1,1966,1667,0,0
749,-643,0,0,0,0,0,0,0,0,0,-1,1973,1667,0,0
756,-643,0,0,0,0,0,0,0,0,0,-1,1980,1667,0,0
763,-643,0,0,0,0,0,0,0,0,0,-1,1987,1667,0,0
770,-643,0,0,0,0,0,0,0,0,0,-1,1994,1667,0,0
777,-643,0,0,0,0,0,0,0,0,0,-1,2001,1667,0,0
784,-643,0,0,0,0,0,0,0,0,0,-1,2008,1667,0,0
791,-643,0,0,0,0,0,0,0,0,0,-1,2015,1667,0,0
798,-643,0,0,0,0,0,0,0,0,0,-1,2022,1667,0,0
805,-643,0,0,0,0,0,0,0,0,0,-1,2029,1667,0,0
812,-643,0,0,0,0,0,0,0,0,0,-1,2036,1667,0,0
-700,-650,0,0,0,0,0,0,0,0,0,-1,524,1674,0,0
-693,-650,0,0,0,0,0,0,0,0,0,-1,531,1674,0,0
-686,-650,0,0,0,0,0,0,0,0,0,-1,538,1674,0,0
-679,-650,0,0,0,0,0,0,0,0,0,-1,545,1674,0,0
-672,-650,0,0,0,0,0,0,0,0,0,-1,552,1674,0,0
-665,-650,0,0,0,0,0,0,0,0,0,-1,559,1674,0,0
-658,-650,0,0,0,0,0,0,0,0,0,-1,566,1674,0,0
-651,-650,0,0,0,0,0,0,0,0,0,-1,573,1674,0,0
-644,-650,0,0,0,0,0,0,0,0,0,-1,580,1674,0,0
-637,-650,0,0,0,0,0,0,0,0,0,-1,587,1674,0,0
-630,-650,0,0,0,0,0,0,0,0,0,-1,594,1674,0,0
-623,-650,0,0,0,0,0,0,0,0,0,-1,601,1674,0,0
-616,-650,0,0,0,0,0,0,0,0,0,-1,608,1674,0,0
-609,-650,0,0,0,0,0,0,0,0,0,-1,615,1674,0,0
-602,-650,0,0,0,0,0,0,0,0,0,-1,622,1674,0,0
-595,-650,0,0,0,0,0,0,0,0,0,-1,629,1674,0,0
-588,-650,0,0,0,0,0,0,0,0,0,-1,636,1674,0,0
-581,-650,0,0,0,0,0,0,0,0,0,-1,643,1674,0,0
-574,-650,0,0,0,0,0,0,0,0,0,-1,650,1674,0,0
-567,-650,0,0,0,0,0,0,0,0,0,-1,657,1674,0,0
-560,-650,0,0,0,0,0,0,0,0,0,-1,664,1674,0,0
-553,-650,0,0,0,0,0,0,0,0,0,-1,671,1674,0,0
-546,-650,0,0,0,0,0,0,0,0,0,-1,678,1674,0,0
-539,-650,0,0,0,0,0,0,0,0,0,-1,685,1674,0,0
-532,-650,0,0,0,0,0,0,0,0,0,-1,692,1674,0,0
-525,-650,0,0,0,0,0,0,0,0,0,-1,699,1674,0,0
-518,-650,0,0,0,0,0,0,0,0,0,-1,706,1674,0,0
-511,-650,0,0,0,0,0,0,0,0,0,-1,713,1674,0,0
-504,-650,0,0,0,0,0,0,0,0,0,-1,720,1674,0,0
-497,-650,0,0,0,0,0,0,0,0,0,-1,727,1674,0,0
-490,-650,0,0,0,0,0,0,0,0,0,-1,734,1674,0,0
-483,-650,0,0,0,0,0,0,0,0,0,-1,741,1674,0,0
-476,-650,0,0,0,0,0,0,0,0,0,-1,748,1674,0,0
-469,-650,0,0,0,0,0,0,0,0,0,-1,755,1674,0,0
-462,-650,0,0,0,0,0,0,0,0,0,-1,762,1674,0,0
-455,-650,0,0,0,0,0,0,0,0,0,-1,769,1674,0,0
-448,-650,0,0,0,0,0,0,0,0,0,-1,776,1674,0,0
-441,-650,0,0,0,0,0,0,0,0,0,-1,783,1674,0,0
-434,-650,0,0,0,0,0,0,0,0,0,-1,790,1674,0,0
-427,-650,0,0,0,0,0,0,0,0,0,-1,797,1674,0,0
-420,-650,0,0,0,0,0,0,0,0,0,-1,804,1674,0,0
-413,-650,0,0,0,0,0,0,0,0,0,-1,811,1674,0,0
-406,-650,0,0,0,0,0,0,0,0,0,-1,818,1674,0,0
-399,-650,0,0,0,0,0,0,0,0,0,-1,825,1674,0,0
-392,-650,6.26544,-2.39026,0,0,0,0,0,0,0,-1,832,1674,6.26545,2.39025
-385,-650,5.02203,-2.10217,-0.00112781,0.0489771,0.0159805,0.05364,-0.00579068,1.28689,0.0378382,0.0457184,839,1674,5.02202,2.10213
-378,-650,3.62305,-1.69775,-0.00298799,0.0378309,0.0230385,0.0482,-0.0133571,1.14788,0.0373896,0.0480459,846,1674,3.62305,1.69772
-371,-650,2.27765,-1.29089,0,0,0,0,0,0,0,-1,853,1674,2.27764,1.29089
-364,-650,-2.14832,1.35352,0,0,0,0,0,0,0,-1,860,1674,-2.1483,-1.35355
-357,-650,-1.64813,1.48987,-0.000320448,0.0124084,0.0306149,0.0373134,-0.0252254,0.887882,0.0363309,0.0450409,867,1674,-1.6481,-1.48987
-350,-650,-1.39502,1.42493,0.00414494,0.00693778,0.0294327,0.0350072,-0.0239245,0.809103,0.0342242,0.0465208,874,1674,-1.39504,-1.42493
-343,-650,-1.12549,1.34912,0,0,0,0,0,0,0,-1,881,1674,-1.12549,-1.34908
-336,-650,-0.045166,-0.32959,0,0,0,0,0,0,0,-1,888,1674,-0.0451361,0.329595
-329,-650,-0.0198975,-0.291016,0,0,0,0,0,0,0,-1,895,1674,-0.0199092,0.291022
-322,-650,0.345398,-0.13855,0.0147338,-0.000174952,0.0155168,0.0244939,-0.00993511,0.561474,0.0204614,0.038305,902,1674,0.345409,0.138584
-315,-650,0.103577,-0.159668,0.0130677,0.000503085,0.0115558,0.0199385,-0.00636773,0.536422,0.0158473,0.0351688,909,1674,0.103571,0.159685
-308,-650,0.00775146,-0.109131,0.00954016,0.00102382,0.00747217,0.0138823,-0.00331832,0.526413,0.0105366,0.0211349,916,1674,0.00773626,0.109164
-301,-650,-0.0149536,-0.0853271,0.00600527,0.00204443,0.00425087,0.00871441,-0.000664706,0.567405,0.00604337,0.0117026,923,1674,-0.0149325,0.0852771
-294,-650,-0.0213013,-0.0817871,0.00337939,0.00230985,0.002274,0.00518065,0.00050859,0.669913,0.00329734,0.00936496,930,1674,-0.0212863,0.0817326
-287,-650,-0.0338745,-0.0909424,0.00170658,0.00195333,0.0010734,0.00291042,0.000749491,0.842615,0.00174495,0.0129881,937,1674,-0.0339032,0.0909965
-280,-650,-0.0234375,-0.0861816,0.000849457,0.00122314,0.00044439,0.00151837,0.000554229,0.984402,0.000887216,0.0133574,944,1674,-0.0234659,0.0862233
-273,-650,-0.0222168,-0.0925293,-0.000418295,0.000906109,0.000234454,0.000946389,-0.000458574,1.40066,0.000827293,0.0125335,951,1674,-0.0222003,0.09258
-266,-650,-0.0245361,-0.0877686,9.64058e-05,0.000569016,0.000314929,0.000726437,-6.1015e-05,1.10726,0.000505858,0.0105471,958,1674,-0.0245109,0.0877967
-259,-650,-0.00335693,-0.0980225,0.000470396,0.000239834,0.000234141,0.000616097,9.41335e-05,0.556641,0.000383227,0.0131002,965,1674,-0.00334666,0.0980483
-252,-650,-0.0166016,-0.104614,0.00069981,7.58746e-05,0.000189139,0.000752668,2.30172e-05,0.272511,0.000494285,0.0124141,972,1674,-0.0165776,0.104598
-245,-650,-0.0239258,-0.0963135,0.000517647,0.000423175,7.07051e-05,0.000555443,0.000385379,0.490912,0.000328618,0.0115547,979,1674,-0.0239523,0.0963546
-238,-650,-0.0355835,-0.0726318,-0.000144684,0.000532585,-0.000163755,0.000570101,-0.0001822,-1.34558,0.000453178,0.0119829,986,1674,-0.0355589,0.0726721
-231,-650,-0.03302,-0.0667725,-0.00124693,0.0004328,-0.000123979,0.000441901,-0.00125603,-1.49752,0.00101717,0.0158372,993,1674,-0.0330419,0.0668171
-224,-650,-0.0279541,-0.0771484,-0.00257733,0.000493084,-0.000277888,0.000518031,-0.00260227,-1.48126,0.00193083,0.0136808,1000,1674,-0.0279292,0.0772025
-217,-650,-0.0144043,-0.0836182,-0.00400379,0.000485227,-0.00041756,0.000523737,-0.0040423,-1.47883,0.00288533,0.00953837,1007,1674,-0.0143796,0.0836395
-210,-650,-0.00012207,-0.09021,-0.00499038,0.000290672,8.76941e-05,0.000292128,-0.00499184,1.5542,0.00342942,0.00925737,1014,1674,-0.000112563,0.0901676
-203,-650,0.0148315,-0.0772705,-0.00576079,9.33537e-05,0.000672041,0.000169511,-0.00583694,1.45795,0.00394901,0.0141029,1021,1674,0.0148548,0.0772729
-196,-650,0.00134277,-0.0634766,-0.00647729,-7.97375e-05,0.00130442,0.000176002,-0.00673303,1.3772,0.00454849,0.013611,1028,1674,0.00135311,0.0634553
-189,-650,-0.0101318,-0.0761719,-0.00691286,-0.000275493,0.00202712,0.000294635,-0.00748299,1.29663,0.00508972,0.0108589,1035,1674,-0.0101885,0.0762079
-182,-650,-0.00390625,-0.0721436,-0.00667136,1.21118e-05,0.00282005,0.001043,-0.00770225,1.22033,0.00551547,0.00924842,1042,1674,-0.00396013,0.0721914
-175,-650,-0.0136719,-0.0852051,-0.00545536,0.000601064,0.00323351,0.00200294,-0.00685723,1.16171,0.00536524,0.0135147,1049,1674,-0.0136545,0.0851497
-168,-650,-0.0594482,-0.0740967,-0.00286398,0.00106027,0.0031012,0.00276794,-0.00457164,1.06746,0.00427995,0.0170185,1056,1674,-0.0594898,0.0740756
-161,-650,-0.105713,-0.0288086,-0.000530131,0.00202199,0.00285839,0.00387623,-0.00238437,0.995337,0.0036486,0.0240241,1063,1674,-0.105698,0.0287658
-154,-650,-0.0683594,-0.0720215,0.00138939,0.00218953,0.00192869,0.0037592,-0.000180286,0.887663,0.00256834,0.0276112,1070,1674,-0.0683346,0.0720274
-147,-650,-0.0218506,-0.0981445,0.00306753,0.0030502,0.000378936,0.0034379,0.00267983,0.773968,0.00208568,0.0369901,1077,1674,-0.0218681,0.0981236
-140,-650,-0.336304,-0.107422,0.00430483,0.0035354,-0.00139572,0.00536788,0.00247235,-0.650919,0.00310236,0.0441513,1084,1674,-0.33636,0.107481
-133,-650,-0.370117,0.289551,0.00527026,0.00427351,-0.00290507,0.0077194,0.00182438,-0.700449,0.00465877,0.0425878,1091,1674,-0.370162,-0.289585
-126,-650,-0.38916,0.135986,0,0,0,0,0,0,0,-1,1098,1674,-0.389212,-0.135964
-119,-650,0.00134277,-0.0739746,0.00394147,0.00622344,-0.00639689,0.0115803,-0.00141539,-0.873653,0.00823266,0.0448368,1105,1674,0.00139897,0.0739907
-112,-650,0.249512,-0.24707,0.00174377,0.00619409,-0.00807431,0.0123442,-0.00440638,-0.919853,0.0100264,0.0446445,1112,1674,0.249516,0.247047
-105,-650,0.408081,-0.45874,0,0,0,0,0,0,0,-1,1119,1674,0.408122,0.458738
-98,-650,1.52124,-0.749878,0,0,0,0,0,0,0,-1,1126,1674,1.52128,0.749826
-91,-650,1.17041,-0.519775,0,0,0,0,0,0,0,-1,1133,1674,1.17046,0.519755
-84,-650,0.00402832,-0.156128,0,0,0,0,0,0,0,-1,1140,1674,0.00407897,0.156151
-77,-650,0.310059,-0.700684,0,0,0,0,0,0,0,-1,1147,1674,0.310092,0.700643
-70,-650,0.181274,-0.262573,0,0,0,0,0,0,0,-1,1154,1674,0.181214,0.262577
-63,-650,-0.21521,-0.362305,0.00694768,-0.00284345,-0.00383994,0.00827399,-0.00416976,-0.332569,0.0073135,0.0411514,1161,1674,-0.215237,0.36235
-56,-650,-0.457031,-0.49353,0.0117313,-0.00438458,-0.0017186,0.0119125,-0.00456581,-0.105066,0.00982389,0.0378907,1168,1674,-0.457071,0.493534
-49,-650,-0.0473633,-0.43457,0.0183081,-0.00401941,0.000592538,0.0183238,-0.00403512,0.0265136,0.0137596,0.0448684,1175,1674,-0.0473533,0.43453
-42,-650,0.0811768,-0.329346,0,0,0,0,0,0,0,-1,1182,1674,0.0811192,0.329324
-35,-650,0.000976563,0.959961,0.0304719,-0.00099899,0.00312852,0.0307798,-0.00130698,0.0981303,0.0209691,0.0489346,1189,1674,0.00096188,-0.959934
-28,-650,0.0201416,0.756714,0.0340815,0.000462888,0.00321478,0.0343862,0.000158237,0.0944839,0.0228716,0.0444633,1196,1674,0.0201149,-0.756723
-21,-650,0.420654,0.606445,0.0362623,0.000851369,0.00298327,0.0365119,0.000601798,0.083463,0.0241432,0.044637,1203,1674,0.420682,-0.606494
-14,-650,0.827271,0.527222,0.0363333,0.00207317,0.00220209,0.0364742,0.0019322,0.0639251,0.0236984,0.0486787,1210,1674,0.827295,-0.527263
-7,-650,1.09155,0.260498,0,0,0,0,0,0,0,-1,1217,1674,1.09152,-0.260443
0,-650,3.15564,1.27588,0,0,0,0,0,0,0,-1,1224,1674,3.15567,-1.27589
7,-650,3.17603,0.813965,0.0236813,0.000519023,-0.00583026,0.0250661,-0.000865742,-0.233193,0.0170067,0.0416425,1231,1674,3.17604,-0.813989
14,-650,3.05969,0.0322266,0.0149038,-0.000543858,-0.00997371,0.0197948,-0.00543479,-0.455924,0.0153326,0.042189,1238,1674,3.05964,-0.0322496
21,-650,3.11865,-0.876221,0.0051676,-0.0019548,-0.0146834,0.0167155,-0.0135027,-0.666429,0.0174794,0.0442856,1245,1674,3.11866,0.876245
28,-650,3.11096,-1.5271,-0.00610773,0.00265004,-0.0184386,0.0172226,-0.0206803,-0.901981,0.0219136,0.0417466,1252,1674,3.11093,1.52708
35,-650,3.10291,-2.06482,-0.0190881,0.00899015,-0.0224169,0.0214012,-0.0314992,-1.06516,0.030727,0.0459674,1259,1674,3.10292,2.06487
42,-650,1.56738,-3.19165,-0.0321661,0.0156082,-0.0253235,0.026533,-0.0430909,-1.16351,0.0405746,0.0407171,1266,1674,1.56735,3.19169
49,-650,0.830078,-3.42957,-0.043867,0.0265738,-0.0283044,0.0365376,-0.0538309,-1.23232,0.0524918,0.0413726,1273,1674,0.830115,3.42955
56,-650,0.379395,-3.76929,-0.0524508,0.0369725,-0.0276525,0.0448326,-0.0603109,-1.29385,0.0609235,0.0468133,1280,1674,0.379391,3.76926
63,-650,0.0236816,-3.69983,-0.0509702,0.0427375,-0.0225793,0.0478943,-0.056127,-1.34626,0.0601194,0.0460572,1287,1674,0.0237214,3.69982
70,-650,-0.393311,-3.55786,0,0,0,0,0,0,0,-1,1294,1674,-0.393263,3.55782
77,-650,-0.362427,-3.65771,-0.0470205,0.0674914,-0.00882675,0.0681678,-0.0476969,-1.49432,0.0672416,0.0451765,1301,1674,-0.362383,3.65772
84,-650,-0.546753,-4.39929,0,0,0,0,0,0,0,-1,1308,1674,-0.546751,4.39929
91,-650,-0.663086,-4.88184,0,0,0,0,0,0,0,-1,1315,1674,-0.663133,4.88183
98,-650,-2.41602,-7.3728,0,0,0,0,0,0,0,-1,1322,1674,-2.41596,7.37284
105,-650,4.36804,-5.87878,0,0,0,0,0,0,0,-1,1329,1674,4.36807,5.87879
112,-650,4.04565,-4.85522,0,0,0,0,0,0,0,-1,1336,1674,4.0456,4.85527
119,-650,4.31482,-2.65857,-0.00436728,0.076356,0.029892,0.0862198,-0.014231,1.25207,0.0627636,0.0444348,1343,1674,4.31484,2.65851
126,-650,-0.203125,0.577393,0.00101933,0.0669689,0.0311741,0.0793721,-0.0113839,1.19213,0.0570889,0.0479,1350,1674,-0.203173,-0.577428
133,-650,0.138306,0.821411,0.00685606,0.0566766,0.0320766,0.0723795,-0.00884683,1.11555,0.0514561,0.0477955,1357,1674,0.138328,-0.821375
140,-650,0.488159,0.940308,0.0113204,0.0463252,0.0292697,0.0629262,-0.00528069,1.05486,0.0438172,0.0446778,1364,1674,0.488205,-0.940321
147,-650,0.747314,1.1123,0,0,0,0,0,0,0,-1,1371,1674,0.747254,-1.11227
154,-650,-0.567017,-2.51147,0.0145769,0.0259006,0.0203773,0.0413879,-0.000910483,0.920906,0.0279004,0.0491283,1378,1674,-0.566968,2.51145
161,-650,-0.483643,-2.12354,0.0146148,0.0170359,0.0156784,0.0315504,0.000100326,0.823928,0.0210003,0.0441279,1385,1674,-0.48361,2.12359
168,-650,0.0246582,-1.99402,0,0,0,0,0,0,0,-1,1392,1674,0.0246333,1.99401
175,-650,0.0224609,-1.89502,0.0143921,-0.000541128,0.00923798,0.0188037,-0.00495266,0.445521,0.014472,0.0434497,1399,1674,0.022517,1.89501
182,-650,-0.0245361,-1.60986,0.0145936,-0.00718999,0.00709193,0.016699,-0.00929537,0.288583,0.0152094,0.0465482,1406,1674,-0.0245148,1.6098
189,-650,-0.019165,-1.21765,0.013572,-0.00995935,0.00469816,0.0144754,-0.0108627,0.189956,0.0146784,0.049936,1413,1674,-0.0191908,1.21764
196,-650,0.2229,-0.573486,0,0,0,0,0,0,0,-1,1420,1674,0.222957,0.573449
203,-650,-0.0601807,-0.50708,0.00970222,-0.0104701,0.00163064,0.00983319,-0.010601,0.0801421,0.0118005,0.0447377,1427,1674,-0.0601317,0.507099
210,-650,-0.344482,-0.598267,0.00786792,-0.0116372,0.000818707,0.00790223,-0.0116715,0.0418757,0.0113705,0.0440183,1434,1674,-0.344459,0.598307
217,-650,-0.297241,-0.335449,0.00629183,-0.00613163,0.000707652,0.00633201,-0.00617181,0.0567164,0.00721928,0.0449802,1441,1674,-0.297296,0.335448
224,-650,-0.0830078,-0.081543,0.00562873,-0.00219427,0.000485697,0.00565877,-0.00222431,0.0617696,0.00469307,0.0471979,1448,1674,-0.0830047,0.0815945
231,-650,0.129639,0.111816,0.00511195,0.000802813,0.000520857,0.00517402,0.00074075,0.118597,0.00323086,0.0439759,1455,1674,0.129644,-0.11184
238,-650,2.17163,1.02893,0.00453492,0.0030142,0.000928703,0.00497483,0.0025743,0.442368,0.0028728,0.0390855,1462,1674,2.17164,-1.02887
245,-650,0.291016,0.283447,0.0036897,0.00431621,0.00150278,0.00553804,0.00246788,0.888151,0.00320369,0.0408654,1469,1674,0.291016,-0.28347
252,-650,0.896606,0.171997,0,0,0,0,0,0,0,-1,1476,1674,0.896622,-0.172046
259,-650,0.989136,-0.0108643,0.0020769,0.00314044,0.00332223,0.0059732,-0.00075585,0.864757,0.00425651,0.0468996,1483,1674,0.989133,0.0108344
266,-650,1.48938,-0.367432,0.00106745,0.00176842,0.00439373,0.00582562,-0.00298975,0.825199,0.0051766,0.0435793,1490,1674,1.48943,0.367423
273,-650,1.71448,-0.520508,0,0,0,0,0,0,0,-1,1497,1674,1.71442,0.520458
280,-650,-0.276001,0.155762,-0.000467968,0.000912603,0.00465393,0.00492716,-0.00448253,0.859023,0.00543471,0.042385,1504,1674,-0.275993,-0.155786
287,-650,-0.204712,-0.0772705,-0.00134683,0.000648528,0.00422323,0.00399032,-0.00468862,0.90139,0.00501619,0.0368762,1511,1674,-0.204711,0.0772924
294,-650,-0.0446777,-0.105103,-0.00144118,0.000328308,0.00423402,0.00376904,-0.00488191,0.888396,0.00500838,0.0326909,1518,1674,-0.0446325,0.105108
301,-650,-0.0318604,-0.130371,-0.000522201,0.000288377,0.00403349,0.00393689,-0.00417072,0.835471,0.00468158,0.0247829,1525,1674,-0.0318403,0.130408
308,-650,-0.0462646,-0.0930176,-0.000300601,0.000596186,0.00341699,0.00359407,-0.00329849,0.850638,0.00398064,0.0148269,1532,1674,-0.0463252,0.0930604
315,-650,-0.00634766,-0.0532227,-0.000322323,0.00106501,0.00240987,0.00287906,-0.00213637,0.925532,0.00290622,0.00956174,1539,1674,-0.00637764,0.0532168
322,-650,-0.00439453,-0.0880127,-0.000391636,0.00189957,0.00127094,0.00246502,-0.000957083,1.15219,0.00203869,0.00847742,1546,1674,-0.00442527,0.0880696
329,-650,-0.00830078,-0.115479,-0.000262229,0.00280487,0.000720734,0.00296579,-0.00042315,1.35112,0.00213228,0.0139928,1553,1674,-0.008296,0.115446
336,-650,-0.0236816,-0.0750732,-0.000193133,0.00343741,0.000320489,0.00346548,-0.000221208,1.48342,0.00238748,0.0127862,1560,1674,-0.0237152,0.0751177
343,-650,-0.0151367,-0.0609131,-7.6389e-05,0.00372983,-0.00016494,0.00373696,-8.35232e-05,-1.52757,0.00251961,0.0127826,1567,1674,-0.0151629,0.0609486
350,-650,0.0106201,-0.0982666,0.00013579,0.00372888,-0.000487429,0.00379383,7.08411e-05,-1.43833,0.00250594,0.0152126,1574,1674,0.0106469,0.0982871
357,-650,-0.0020752,-0.0964355,0.00038747,0.00355476,-0.000490365,0.00362894,0.000313289,-1.42066,0.00232192,0.0122584,1581,1674,-0.00211213,0.0964213
364,-650,-0.0126953,-0.0822754,0.000555381,0.0029759,-0.000468964,0.00306358,0.000467697,-1.38596,0.00190571,0.00843878,1588,1674,-0.0126678,0.0822963
371,-650,-0.0203857,-0.0825195,0.000607891,0.00227346,-0.000411259,0.00236947,0.000511879,-1.34144,0.00143968,0.0104645,1595,1674,-0.020427,0.0825205
378,-650,-0.0220947,-0.0797119,0.000655436,0.00110752,-0.000137215,0.00114591,0.000617049,-1.29801,0.000662242,0.0117286,1602,1674,-0.0221363,0.079711
385,-650,-0.00671387,-0.0611572,0.000592926,-0.000123732,0.000101169,0.000606934,-0.00013774,0.137587,0.0004575,0.0127907,1609,1674,-0.00669644,0.0611521
392,-650,-0.0135498,-0.0563965,0.000287547,-0.00127723,0.000394128,0.000381211,-0.0013709,0.233321,0.00106401,0.0163502,1616,1674,-0.0135067,0.0564124
399,-650,-0.0318604,-0.0526123,-0.000134095,-0.00220288,0.000456018,-3.80361e-05,-0.00229894,0.207612,0.00152011,0.014915,1623,1674,-0.031845,0.0526255
406,-650,-0.036377,-0.0595703,-0.000489799,-0.00332607,0.000626464,-0.000357591,-0.00345828,0.207987,0.00219605,0.0131825,1630,1674,-0.0363366,0.0595964
413,-650,-0.0290527,-0.0755615,-0.000972898,-0.00406338,0.000876985,-0.00074138,-0.0042949,0.258104,0.00265093,0.0133457,1637,1674,-0.0290924,0.0755733
420,-650,-0.0324707,-0.0732422,-0.00163555,-0.00503418,0.00165302,-0.000964179,-0.00570555,0.385796,0.00352652,0.0138625,1644,1674,-0.032524,0.0732267
427,-650,-0.0267334,-0.0693359,-0.00212758,-0.00629859,0.00237169,-0.00105489,-0.00737129,0.424759,0.00460303,0.0134665,1651,1674,-0.026768,0.0693147
434,-650,-0.0385742,-0.0532227,-0.00315071,-0.00745686,0.00305778,-0.00156403,-0.00904354,0.478652,0.00558122,0.0152823,1658,1674,-0.0386135,0.053266
441,-650,-0.0750732,-0.0794678,-0.00485577,-0.00850162,0.00445871,-0.00186173,-0.0114957,0.591344,0.00712474,0.0229296,1665,1674,-0.0750309,0.0795142
448,-650,-0.143555,-0.166748,-0.00733128,-0.0084933,0.00632951,-0.00155617,-0.0142684,0.739629,0.00903831,0.0334849,1672,1674,-0.14355,0.166726
455,-650,-0.223022,-0.202393,-0.0112114,-0.00731016,0.00867048,-0.000373572,-0.0181479,0.896041,0.011976,0.038209,1679,1674,-0.223047,0.202384
462,-650,-0.0314941,-0.22583,-0.0151143,-0.00610283,0.0109952,0.00127407,-0.0224912,0.979856,0.0154363,0.0433633,1686,1674,-0.0315112,0.225806
469,-650,-0.0721436,-0.130493,0,0,0,0,0,0,0,-1,1693,1674,-0.0720878,0.130466
476,-650,-0.0065918,0.172241,-0.0196392,0.00340627,0.0190135,0.0141161,-0.0303491,1.05782,0.026236,0.0422193,1700,1674,-0.00659923,-0.172281
483,-650,0.389404,0.0432129,-0.0219088,0.0105005,0.0232438,0.0226307,-0.034039,1.08981,0.0329385,0.0416789,1707,1674,0.389411,-0.0432307
490,-650,-1.79016,-0.303711,0,0,0,0,0,0,0,-1,1714,1674,-1.79021,0.303747
497,-650,-2.67542,-0.798218,-0.023607,0.0274288,0.0342369,0.0446113,-0.0407896,1.10565,0.0493227,0.0456267,1721,1674,-2.67545,0.798161
504,-650,-3.50525,-1.19543,-0.0228107,0.0381216,0.0415502,0.0591783,-0.0438674,1.10174,0.059712,0.0460181,1728,1674,-3.50523,1.19545
511,-650,-4.26392,-1.59143,0,0,0,0,0,0,0,-1,1735,1674,-4.26388,1.59148
518,-650,0,0,0,0,0,0,0,0,0,-1,1742,1674,0,0
525,-650,0,0,0,0,0,0,0,0,0,-1,1749,1674,0,0
532,-650,0,0,0,0,0,0,0,0,0,-1,1756,1674,0,0
539,-650,0,0,0,0,0,0,0,0,0,-1,1763,1674,0,0
546,-650,0,0,0,0,0,0,0,0,0,-1,1770,1674,0,0
553,-650,0,0,0,0,0,0,0,0,0,-1,1777,1674,0,0
560,-650,0,0,0,0,0,0,0,0,0,-1,1784,1674,0,0
567,-650,0,0,0,0,0,0,0,0,0,-1,1791,1674,0,0
574,-650,0,0,0,0,0,0,0,0,0,-1,1798,1674,0,0
581,-650,0,0,0,0,0,0,0,0,0,-1,1805,1674,0,0
588,-650,0,0,0,0,0,0,0,0,0,-1,1812,1674,0,0
595,-650,0,0,0,0,0,0,0,0,0,-1,1819,1674,0,0
602,-650,0,0,0,0,0,0,0,0,0,-1,1826,1674,0,0
609,-650,0,0,0,0,0,0,0,0,0,-1,1833,1674,0,0
616,-650,0,0,0,0,0,0,0,0,0,-1,1840,1674,0,0
623,-650,0,0,0,0,0,0,0,0,0,-1,1847,1674,0,0
630,-650,0,0,0,0,0,0,0,0,0,-1,1854,1674,0,0
637,-650,0,0,0,0,0,0,0,0,0,-1,1861,1674,0,0
644,-650,0,0,0,0,0,0,0,0,0,-1,1868,1674,0,0
651,-650,0,0,0,0,0,0,0,0,0,-1,1875,1674,0,0
658,-650,0,0,0,0,0,0,0,0,0,-1,1882,1674,0,0
665,-650,0,0,0,0,0,0,0,0,0,-1,1889,1674,0,0
672,-650,0,0,0,0,0,0,0,0,0,-1,1896,1674,0,0
679,-650,0,0,0,0,0,0,0,0,0,-1,1903,1674,0,0
686,-650,0,0,0,0,0,0,0,0,0,-1,1910,1674,0,0
693,-650,0,0,0,0,0,0,0,0,0,-1,1917,1674,0,0
700,-650,0,0,0,0,0,0,0,0,0,-1,1924,1674,0,0
707,-650,0,0,0,0,0,0,0,0,0,-1,1931,1674,0,0
714,-650,0,0,0,0,0,0,0,0,0,-1,1938,1674,0,0
721,-650,0,0,0,0,0,0,0,0,0,-1,1945,1674,0,0
728,-650,0,0,0,0,0,0,0,0,0,-1,1952,1674,0,0
735,-650,0,0,0,0,0,0,0,0,0,-1,1959,1674,0,0
742,-650,0,0,0,0,0,0,0,0,0,-1,1966,1674,0,0
749,-650,0,0,0,0,0,0,0,0,0,-1,1973,1674,0,0
756,-650,0,0,0,0,0,0,0,0,0,-1,1980,1674,0,0
763,-650,0,0,0,0,0,0,0,0,0,-1,1987,1674,0,0
770,-650,0,0,0,0,0,0,0,0,0,-1,1994,1674,0,0
777,-650,0,0,0,0,0,0,0,0,0,-1,2001,1674,0,0
784,-650,0,0,0,0,0,0,0,0,0,-1,2008,1674,0,0
791,-650,0,0,0,0,0,0,0,0,0,-1,2015,1674,0,0
798,-650,0,0,0,0,0,0,0,0,0,-1,2022,1674,0,0
805,-650,0,0,0,0,0,0,0,0,0,-1,2029,1674,0,0
812,-650,0,0,0,0,0,0,0,0,0,-1,2036,1674,0,0
-700,-657,0,0,0,0,0,0,0,0,0,-1,524,1681,0,0
-693,-657,0,0,0,0,0,0,0,0,0,-1,531,1681,0,0
-686,-657,0,0,0,0,0,0,0,0,0,-1,538,1681,0,0
-679,-657,0,0,0,0,0,0,0,0,0,-1,545,1681,0,0
-672,-657,0,0,0,0,0,0,0,0,0,-1,552,1681,0,0
-665,-657,0,0,0,0,0,0,0,0,0,-1,559,1681,0,0
-658,-657,0,0,0,0,0,0,0,0,0,-1,566,1681,0,0
-651,-657,0,0,0,0,0,0,0,0,0,-1,573,1681,0,0
-644,-657,0,0,0,0,0,0,0,0,0,-1,580,1681,0,0
-637,-657,0,0,0,0,0,0,0,0,0,-1,587,1681,0,0
-630,-657,0,0,0,0,0,0,0,0,0,-1,594,1681,0,0
-623,-657,0,0,0,0,0,0,0,0,0,-1,601,1681,0,0
-616,-657,0,0,0,0,0,0,0,0,0,-1,608,1681,0,0
-609,-657,0,0,0,0,0,0,0,0,0,-1,615,1681,0,0
-602,-657,0,0,0,0,0,0,0,0,0,-1,622,1681,0,0
-595,-657,0,0,0,0,0,0,0,0,0,-1,629,1681,0,0
-588,-657,0,0,0,0,0,0,0,0,0,-1,636,1681,0,0
-581,-657,0,0,0,0,0,0,0,0,0,-1,643,1681,0,0
-574,-657,0,0,0,0,0,0,0,0,0,-1,650,1681,0,0
-567,-657,0,0,0,0,0,0,0,0,0,-1,657,1681,0,0
-560,-657,0,0,0,0,0,0,0,0,0,-1,664,1681,0,0
-553,-657,0,0,0,0,0,0,0,0,0,-1,671,1681,0,0
-546,-657,0,0,0,0,0,0,0,0,0,-1,678,1681,0,0
-539,-657,0,0,0,0,0,0,0,0,0,-1,685,1681,0,0
-532,-657,0,0,0,0,0,0,0,0,0,-1,692,1681,0,0
-525,-657,0,0,0,0,0,0,0,0,0,-1,699,1681,0,0
-518,-657,0,0,0,0,0,0,0,0,0,-1,706,1681,0,0
-511,-657,0,0,0,0,0,0,0,0,0,-1,713,1681,0,0
-504,-657,0,0,0,0,0,0,0,0,0,-1,720,1681,0,0
-497,-657,0,0,0,0,0,0,0,0,0,-1,727,1681,0,0
-490,-657,0,0,0,0,0,0,0,0,0,-1,734,1681,0,0
-483,-657,0,0,0,0,0,0,0,0,0,-1,741,1681,0,0
-476,-657,0,0,0,0,0,0,0,0,0,-1,748,1681,0,0
-469,-657,0,0,0,0,0,0,0,0,0,-1,755,1681,0,0
-462,-657,0,0,0,0,0,0,0,0,0,-1,762,1681,0,0
-455,-657,0,0,0,0,0,0,0,0,0,-1,769,1681,0,0
-448,-657,0,0,0,0,0,0,0,0,0,-1,776,1681,0,0
-441,-657,0,0,0,0,0,0,0,0,0,-1,783,1681,0,0
-434,-657,0,0,0,0,0,0,0,0,0,-1,790,1681,0,0
-427,-657,0,0,0,0,0,0,0,0,0,-1,797,1681,0,0
-420,-657,0,0,0,0,0,0,0,0,0,-1,804,1681,0,0
-413,-657,0,0,0,0,0,0,0,0,0,-1,811,1681,0,0
-406,-657,0,0,0,0,0,0,0,0,0,-1,818,1681,0,0
-399,-657,0,0,0,0,0,0,0,0,0,-1,825,1681,0,0
-392,-657,0,0,0,0,0,0,0,0,0,-1,832,1681,0,0
-385,-657,5.82935,-2.51831,0,0,0,0,0,0,0,-1,839,1681,5.82935,2.51828
-378,-657,4.39832,-2.21106,0,0,0,0,0,0,0,-1,846,1681,4.3983,2.21105
-371,-657,1.49841,1.98169,0,0,0,0,0,0,0,-1,853,1681,1.49841,-1.98167
-364,-657,-2.69727,1.8252,0,0,0,0,0,0,0,-1,860,1681,-2.69727,-1.82514
-357,-657,-2.37634,1.80872,0.012569,0.0144384,0.0411528,0.0546671,-0.0276596,0.796753,0.0483764,0.0474092,867,1681,-2.37634,-1.80874
-350,-657,-2.11957,1.80591,0.0170913,0.00894215,0.0390279,0.0522568,-0.0262233,0.733386,0.046134,0.0463483,874,1681,-2.11955,-1.80587
-343,-657,-1.86786,1.68604,0.0196918,0.00560542,0.0349104,0.0482625,-0.0229652,0.685859,0.041979,0.0476149,881,1681,-1.86788,-1.686
-336,-657,-1.56049,1.51575,0,0,0,0,0,0,0,-1,888,1681,-1.5605,-1.51573
-329,-657,-1.00354,-0.739136,0,0,0,0,0,0,0,-1,895,1681,-1.00354,0.739118
-322,-657,0.648621,-0.106201,0,0,0,0,0,0,0,-1,902,1681,0.648628,0.106208
-315,-657,0.356873,-0.531616,0.0191275,0.00364952,0.014099,0.0274719,-0.00469484,0.534398,0.0200635,0.037257,909,1681,0.356864,0.531669
-308,-657,0.328796,-0.431885,0.0142129,0.00398848,0.00877519,0.0192564,-0.00105502,0.521643,0.0132033,0.0350909,916,1681,0.328812,0.431904
-301,-657,0.10614,-0.11145,0.00947016,0.0048469,0.00458594,0.0122941,0.00202292,0.55195,0.00761192,0.0302254,923,1681,0.106163,0.111412
-294,-657,-0.027771,-0.0891113,0.00585044,0.00477419,0.00182449,0.00721451,0.00341012,0.641991,0.00416737,0.015909,930,1681,-0.0277608,0.0891169
-287,-657,-0.02948,-0.0887451,0.00344422,0.00398753,4.94331e-05,0.003992,0.00343976,1.4808,0.00249769,0.0107604,937,1681,-0.0294994,0.0887219
-280,-657,-0.0280151,-0.0982666,0.0020707,0.00276897,-0.000946006,0.00342821,0.00141146,-0.962177,0.00198954,0.0117671,944,1681,-0.0280378,0.0982408
-273,-657,-0.022583,-0.0838623,6.99188e-05,0.0020598,-0.00131715,0.00271555,-0.000585836,-1.10886,0.00203397,0.00869086,951,1681,-0.022596,0.0838659
-266,-657,-0.0389404,-0.0753174,0.000612731,0.00134567,-0.00121195,0.00224535,-0.00028695,-0.932217,0.00160114,0.0123436,958,1681,-0.0389342,0.0753597
-259,-657,-0.0551758,-0.0718994,0.00093913,0.000701406,-0.00122077,0.00204681,-0.00040627,-0.736868,0.00151819,0.0166265,965,1681,-0.0551664,0.0718641
-252,-657,-0.0280762,-0.0953369,0.00108086,0.000177728,-0.00116712,0.00188072,-0.000622135,-0.600814,0.00150469,0.0124741,972,1681,-0.0280932,0.0953787
-245,-657,-0.0356445,-0.109985,0.000954404,0.000412312,-0.00113778,0.00185298,-0.000486259,-0.668465,0.00142533,0.0145638,979,1681,-0.0356251,0.109964
-238,-657,-0.0137329,-0.092041,0.000423063,0.00052843,-0.0011046,0.0015816,-0.000630108,-0.809227,0.00131573,0.01857,986,1681,-0.0137373,0.0920081
-231,-657,-0.00646973,-0.0756836,-0.000466817,0.000558462,-0.000924133,0.00110262,-0.00101098,-1.03863,0.00122067,0.0190693,993,1681,-0.00649493,0.0756832
-224,-657,-0.00982666,-0.0672607,-0.0015366,0.000781173,-0.000948875,0.00112008,-0.0018755,-1.22775,0.00174774,0.015006,1000,1681,-0.0098297,0.0673071
-217,-657,-0.00292969,-0.060791,-0.00273753,0.000947509,-0.0010253,0.00121357,-0.00300359,-1.3169,0.00250683,0.00959264,1007,1681,-0.00291174,0.0607312
-210,-657,0.00695801,-0.0668945,-0.00371152,0.000885984,-0.000696846,0.000989284,-0.00381482,-1.42363,0.0029292,0.0100205,1014,1681,0.00696469,0.0668533
-203,-657,0.0166626,-0.0634766,-0.00447076,0.000976433,-0.000261622,0.000988969,-0.0044833,-1.52291,0.00336729,0.0127913,1021,1681,0.0166634,0.0635209
-196,-657,0.0106201,-0.0698242,-0.0050906,0.00096881,0.000122353,0.00097128,-0.00509307,1.55062,0.00376118,0.0137818,1028,1681,0.0105713,0.0698273
-189,-657,-0.00268555,-0.0814209,-0.00552913,0.000838146,0.000512347,0.000879109,-0.00557009,1.49101,0.00403845,0.0100202,1035,1681,-0.00269001,0.0813659
-182,-657,-0.0123291,-0.0898438,-0.00543994,0.00109519,0.000981219,0.00123933,-0.00558409,1.42493,0.00419727,0.0079522,1042,1681,-0.0123703,0.089859
-175,-657,-0.00915527,-0.0855713,-0.00454041,0.00152692,0.0011871,0.00175091,-0.00476441,1.3843,0.00389343,0.00921388,1049,1681,-0.00915769,0.0856
-168,-657,-0.0201416,-0.0826416,-0.00257456,0.00179686,0.00101913,0.00202278,-0.00280048,1.35265,0.00279675,0.0104796,1056,1681,-0.0201748,0.0825951
-161,-657,-0.0270996,-0.0875244,-0.000789427,0.00238567,0.000826139,0.00258776,-0.00099152,1.33088,0.0021339,0.010301,1063,1681,-0.0270732,0.0874883
-154,-657,-0.0340576,-0.0794678,0.000734987,0.00229745,9.81734e-05,0.0023036,0.000728843,1.50829,0.00135954,0.00988777,1070,1681,-0.0340393,0.0794905
-147,-657,-0.0256348,-0.0839844,0.00216371,0.00284972,-0.00104728,0.00360874,0.0014047,-0.943652,0.00210048,0.0135493,1077,1681,-0.0256265,0.0840031
-140,-657,-0.0838623,-0.0708008,0.00319614,0.00315438,-0.00237409,0.00554944,0.00080108,-0.781001,0.00346361,0.0234199,1084,1681,-0.0838309,0.0707499
-133,-657,-0.128906,0.0123291,0.00404259,0.00358107,-0.00344221,0.00726176,0.000361889,-0.751929,0.00472517,0.0307428,1091,1681,-0.128873,-0.0123826
-126,-657,-0.138306,0.098999,0.00398804,0.00464376,-0.00468154,0.00900891,-0.000377101,-0.820357,0.0061355,0.0319801,1098,1681,-0.138336,-0.0989662
-119,-657,0.171021,-0.131958,0.00304617,0.00508058,-0.00595906,0.0101086,-0.00198188,-0.869933,0.00748766,0.039238,1105,1681,0.171002,0.132008
-112,-657,0.103882,-0.359619,0.00130696,0.00498025,-0.00723667,0.0106097,-0.0043225,-0.909673,0.00887218,0.040671,1112,1681,0.103851,0.359567
-105,-657,-0.246094,-0.455811,-0.00024962,0.0046301,-0.00878044,0.0113034,-0.00692288,-0.920917,0.0106238,0.0419858,1119,1681,-0.246052,0.455845
-98,-657,-0.0230713,0.0299072,0,0,0,0,0,0,0,-1,1126,1681,-0.0230463,-0.0299174
-91,-657,0.000244141,-0.0216064,0,0,0,0,0,0,0,-1,1133,1681,0.000228667,0.0215618
-84,-657,-0.00305176,-0.131958,0,0,0,0,0,0,0,-1,1140,1681,-0.00303134,0.131918
-77,-657,-0.00634766,-0.24231,0,0,0,0,0,0,0,-1,1147,1681,-0.00629135,0.242274
-70,-657,-0.197388,-0.156494,0,0,0,0,0,0,0,-1,1154,1681,-0.197417,0.156466
-63,-657,-0.139404,-0.366821,0.00527091,-0.000976573,-0.00396455,0.00719449,-0.00290015,-0.451733,0.00600135,0.0452633,1161,1681,-0.139444,0.366805
-56,-657,-0.0438232,-0.585327,0.00910347,-0.00164044,-0.0023017,0.0095758,-0.00211277,-0.202401,0.00719232,0.0425576,1168,1681,-0.0438807,0.585329
-49,-657,0.0599365,-0.782104,0,0,0,0,0,0,0,-1,1175,1681,0.0599154,0.782092
-42,-657,-0.00109863,0.615967,0.020097,0.00103533,0.000787338,0.0201295,0.00100286,0.0412111,0.0130982,0.0486946,1182,1681,-0.00115857,-0.615938
-35,-657,-0.0162354,0.533081,0.0248883,0.00244487,0.00201149,0.0250671,0.00226601,0.088683,0.0160096,0.0474519,1189,1681,-0.0161834,-0.53311
-28,-657,-0.0196533,0.360474,0.0281061,0.00361712,0.00239596,0.0283383,0.00338491,0.0966176,0.0178711,0.0440415,1196,1681,-0.0197079,-0.36044
-21,-657,0.302246,0.309082,0.0301542,0.00367176,0.00269453,0.0304256,0.00340038,0.100377,0.0192506,0.0415877,1203,1681,0.302268,-0.309057
-14,-657,0.588867,0.495972,0.0306449,0.00437668,0.00246238,0.0308737,0.00414785,0.0926644,0.0193486,0.0458694,1210,1681,0.58882,-0.495921
-7,-657,0.884399,0.745361,0,0,0,0,0,0,0,-1,1217,1681,0.88443,-0.745338
0,-657,2.47925,0.498535,0,0,0,0,0,0,0,-1,1224,1681,2.47923,-0.49856
7,-657,2.44604,0.0457764,0.0215806,0.00146799,-0.00306862,0.0220384,0.00101022,-0.148085,0.0143674,0.0444228,1231,1681,2.44607,-0.0457814
14,-657,2.67639,-0.00354004,0.0146618,-0.000448512,-0.00632922,0.0169626,-0.00274929,-0.348665,0.0123274,0.0437708,1238,1681,2.67637,0.00359417
21,-657,2.67566,-0.644897,0.00694304,-0.00215848,-0.0100784,0.0134505,-0.0086659,-0.573333,0.0128681,0.0423244,1245,1681,2.67569,0.644864
28,-657,2.83411,-1.31665,-0.00237201,0.000725993,-0.0134325,0.0126985,-0.0143445,-0.842803,0.0156229,0.040194,1252,1681,2.83412,1.3166
35,-657,3.30273,-1.76868,-0.0131823,0.00491294,-0.0171972,0.0152973,-0.0235667,-1.02756,0.0226069,0.0408508,1259,1681,3.30272,1.76866
42,-657,3.54614,-1.99133,-0.0239838,0.00949644,-0.0199661,0.0188116,-0.0332989,-1.13427,0.0304711,0.0411484,1266,1681,3.54614,1.99129
49,-657,3.46289,-1.8075,-0.0335394,0.0175867,-0.0226669,0.0261888,-0.0421415,-1.20809,0.0398073,0.0428772,1273,1681,3.46291,1.8075
56,-657,0.540527,-4.08252,-0.0401927,0.0241961,-0.0215086,0.03072,-0.0467165,-1.2763,0.0450248,0.0452695,1280,1681,0.540528,4.08246
63,-657,0.0401611,-4.15601,-0.0399118,0.0279379,-0.017074,0.0319922,-0.0439661,-1.33766,0.0440358,0.0498411,1287,1681,0.0401061,4.15605
70,-657,-0.164307,-4.37549,-0.0398819,0.0377787,-0.00987158,0.0390139,-0.041117,-1.44632,0.0462689,0.0456906,1294,1681,-0.164289,4.37553
77,-657,-0.363525,-4.66431,-0.0396772,0.0479583,-0.00423642,0.0481626,-0.0398815,-1.5226,0.0509072,0.0438143,1301,1681,-0.363514,4.66431
84,-657,-0.592896,-4.97144,0,0,0,0,0,0,0,-1,1308,1681,-0.592849,4.97147
91,-657,5.14282,-7.09692,0,0,0,0,0,0,0,-1,1315,1681,5.14278,7.09691
98,-657,4.47302,-6.10962,0,0,0,0,0,0,0,-1,1322,1681,4.47305,6.10963
105,-657,3.98987,-4.98132,0,0,0,0,0,0,0,-1,1329,1681,3.9899,4.98133
112,-657,3.50671,-3.85303,0,0,0,0,0,0,0,-1,1336,1681,3.50674,3.85303
119,-657,3.56873,-2.23059,-0.00683656,0.0588115,0.0308092,0.0710055,-0.0190306,1.19392,0.0547934,0.0482858,1343,1681,3.56868,2.23055
126,-657,2.86768,-1.53064,-0.00230423,0.0511582,0.0311688,0.0654885,-0.0166346,1.13985,0.0501324,0.0489262,1350,1681,2.86768,1.5307
133,-657,0.0994873,0.588013,0.00267223,0.0427342,0.031021,0.0596294,-0.0142229,1.07208,0.0452453,0.0481583,1357,1681,0.0994718,-0.588069
140,-657,0.332764,0.690552,0.00667584,0.0346325,0.0278284,0.051796,-0.0104877,1.01814,0.0385056,0.0463083,1364,1681,0.332811,-0.690566
147,-657,0.536865,0.817505,0,0,0,0,0,0,0,-1,1371,1681,0.536847,-0.817549
154,-657,-0.980835,-3.01111,0.0107444,0.018921,0.0192615,0.0345233,-0.00485784,0.889973,0.0247939,0.0481709,1378,1681,-0.980788,3.01109
161,-657,0.407593,-0.413696,0.0113163,0.0121444,0.0146885,0.0264247,-0.00296399,0.799489,0.018683,0.0460231,1385,1681,0.407611,0.413724
168,-657,0.269043,-0.362183,0,0,0,0,0,0,0,-1,1392,1681,0.268985,0.362228
175,-657,-0.119385,-1.71228,0.0123318,-0.00204529,0.00844499,0.0162335,-0.00594696,0.432796,0.013257,0.0417412,1399,1681,-0.119433,1.71225
182,-657,-0.0527344,-1.40259,0.0129861,-0.00751524,0.00648586,0.0148657,-0.0093948,0.282068,0.014125,0.0455306,1406,1681,-0.0527101,1.40255
189,-657,0.0351563,-0.887451,0.0123252,-0.00941511,0.00437874,0.013174,-0.0102639,0.191469,0.0135666,0.0448275,1413,1681,0.0351474,0.887408
196,-657,-0.12439,-0.580811,0,0,0,0,0,0,0,-1,1420,1681,-0.124357,0.58081
203,-657,-0.146118,-0.899536,0,0,0,0,0,0,0,-1,1427,1681,-0.146138,0.899498
210,-657,-0.081665,-0.54541,0.00723609,-0.00929747,0.00114528,0.00731505,-0.00937643,0.0688322,0.00966129,0.043261,1434,1681,-0.0816158,0.545432
217,-657,-0.0698242,-0.207397,0.00576333,-0.00440566,0.00108515,0.00587784,-0.00452017,0.105135,0.00602033,0.0403388,1441,1681,-0.0698545,0.207379
224,-657,0.576904,0.127563,0,0,0,0,0,0,0,-1,1448,1681,0.576858,-0.127616
231,-657,0.982422,0.321899,0,0,0,0,0,0,0,-1,1455,1681,0.982473,-0.321894
238,-657,1.32483,0.684204,0,0,0,0,0,0,0,-1,1462,1681,1.32477,-0.684152
245,-657,1.52161,0.455811,0,0,0,0,0,0,0,-1,1469,1681,1.52162,-0.455788
252,-657,0.43811,0.311279,0.00242885,0.00433146,0.00202457,0.00561709,0.00114322,1.00503,0.0034278,0.0384946,1476,1681,0.438131,-0.311237
259,-657,0.45813,0.0463867,0.00184352,0.00327768,0.00285806,0.00550725,-0.000386048,0.90831,0.00380671,0.0430466,1483,1681,0.458152,-0.0463692
266,-657,-0.22644,-0.038208,0.00102605,0.00192671,0.00361556,0.00511988,-0.00216711,0.847355,0.00432075,0.0401161,1490,1681,-0.226454,0.0382154
273,-657,-0.143311,-0.0427246,0.000386679,0.00131173,0.00374006,0.00461775,-0.00291934,0.84692,0.00438822,0.0397314,1497,1681,-0.143256,0.0426831
280,-657,-0.129272,-0.0484619,-3.00765e-05,0.000915064,0.00353962,0.00401352,-0.00312854,0.85176,0.00413401,0.0334787,1504,1681,-0.129329,0.0484862
287,-657,-0.0616455,-0.0668945,-0.000652184,0.000451818,0.00306552,0.00301463,-0.003215,0.874478,0.0035973,0.0254745,1511,1681,-0.0616406,0.0669131
294,-657,-0.017334,-0.0837402,-0.000560845,4.29623e-05,0.00296801,0.00272438,-0.00324226,0.836083,0.00344917,0.019498,1518,1681,-0.017325,0.0836823
301,-657,-0.0219727,-0.105713,0.000381871,-9.92182e-05,0.00281267,0.00296427,-0.00268161,0.742741,0.00326101,0.0141052,1525,1681,-0.0220002,0.105773
308,-657,-0.00878906,-0.0836182,0.000558451,0.000100672,0.00237309,0.00271367,-0.00205454,0.737321,0.00276168,0.0112786,1532,1681,-0.00882423,0.0836736
315,-657,-0.00317383,-0.0708008,0.000508679,0.000466414,0.00159628,0.00208397,-0.00110888,0.778779,0.00187183,0.0100663,1539,1681,-0.00321657,0.0708136
322,-657,-0.00598145,-0.090332,0.000410338,0.00114443,0.000750814,0.00161311,-5.83472e-05,1.01275,0.00109537,0.0117322,1546,1681,-0.00595294,0.0902736
329,-657,-0.0100098,-0.0927734,0.000474329,0.00187449,0.000492826,0.00203056,0.000318262,1.26411,0.00126108,0.0176395,1553,1681,-0.0100029,0.0927831
336,-657,-0.0111084,-0.0805664,0.000414062,0.00233806,0.000286803,0.0023799,0.00037222,1.42593,0.00147823,0.0158695,1560,1681,-0.0110846,0.0806005
343,-657,0.00170898,-0.0767822,0.000347121,0.00262981,-4.06258e-05,0.00263054,0.000346398,-1.55301,0.00165039,0.0126523,1567,1681,0.00167722,0.0767881
350,-657,0.00524902,-0.0979004,0.000366591,0.0026697,-0.000243838,0.00269523,0.000341058,-1.46646,0.00169461,0.0143074,1574,1681,0.00527383,0.0978829
357,-657,-0.0114746,-0.100708,0.00048094,0.00256308,-0.00018112,0.00257872,0.000465302,-1.48467,0.00158695,0.0132438,1581,1681,-0.0114633,0.100711
364,-657,-0.0136719,-0.0743408,0.000551627,0.00215753,-0.000134677,0.00216875,0.000540411,-1.48771,0.00130358,0.00963245,1588,1681,-0.0137074,0.0743931
371,-657,-0.0128174,-0.0766602,0.000532433,0.0016723,-6.04741e-05,0.0016755,0.000529233,-1.51794,0.000988977,0.0134441,1595,1681,-0.0127854,0.0766349
378,-657,-0.0396729,-0.0874023,0.000543832,0.00064622,0.000181036,0.000783162,0.00040689,0.923192,0.000452274,0.0140799,1602,1681,-0.0396919,0.0874193
385,-657,-0.0372314,-0.0844727,0.000451469,-0.000449478,0.000347592,0.000569983,-0.000567992,0.328596,0.00065701,0.0120022,1609,1681,-0.0372869,0.0844519
392,-657,-0.0296631,-0.0643311,9.9947e-05,-0.00149904,0.000561628,0.000277498,-0.00167659,0.306194,0.00122078,0.0122041,1616,1681,-0.0296738,0.0642864
399,-657,-0.019043,-0.0522461,-0.000299845,-0.00250192,0.000581883,-0.000155543,-0.00264622,0.243088,0.00171465,0.0123768,1623,1681,-0.0189913,0.0522115
406,-657,-0.0118408,-0.0516357,-0.000621783,-0.00384938,0.000744151,-0.000458476,-0.00401269,0.21603,0.00253615,0.0130205,1630,1681,-0.0117882,0.0516075
413,-657,-0.0380859,-0.0585938,-0.00117226,-0.00479298,0.0010659,-0.000881781,-0.00508346,0.266063,0.00313664,0.0123973,1637,1681,-0.0381188,0.0586297
420,-657,-0.027832,-0.0692139,-0.00205519,-0.00611397,0.00202042,-0.00122093,-0.00694824,0.391591,0.00428358,0.0130473,1644,1681,-0.0278111,0.0691705
427,-657,0.0020752,-0.0693359,-0.00282056,-0.00784107,0.00293752,-0.00146683,-0.00919481,0.431834,0.00570415,0.0167032,1651,1681,0.00211478,0.0692911
434,-657,-0.0402832,-0.0756836,-0.00410127,-0.00950572,0.0038956,-0.00206243,-0.0115446,0.482168,0.00710932,0.0238814,1658,1681,-0.0403195,0.0756313
441,-657,-0.116211,-0.115723,-0.00606146,-0.0110442,0.00568963,-0.00234165,-0.014764,0.579034,0.00916242,0.0368717,1665,1681,-0.116159,0.115765
448,-657,-0.147339,-0.210815,-0.00890572,-0.0114103,0.0080254,-0.00203549,-0.0182805,0.708001,0.0115684,0.0441714,1672,1681,-0.147291,0.210842
455,-657,-0.163696,-0.280151,0,0,0,0,0,0,0,-1,1679,1681,-0.163724,0.280145
462,-657,0.395264,-0.171143,-0.0180483,-0.00957281,0.0138307,0.000654825,-0.0282759,0.934057,0.0190726,0.0457339,1686,1681,0.39529,0.171109
469,-657,0.14624,0.235229,-0.0216823,-0.00487048,0.0183706,0.00692608,-0.0334788,0.999965,0.0249505,0.0431318,1693,1681,0.146249,-0.235171
476,-657,-0.145508,0.403931,-0.0243091,-0.000200944,0.0235958,0.0142414,-0.0387514,1.02155,0.0316675,0.0419849,1700,1681,-0.145534,-0.403894
483,-657,-1.61487,-0.811768,0,0,0,0,0,0,0,-1,1707,1681,-1.61489,0.811817
490,-657,-2.47632,-1.30908,0,0,0,0,0,0,0,-1,1714,1681,-2.47638,1.30907
497,-657,-3.34705,-1.90881,0,0,0,0,0,0,0,-1,1721,1681,-3.3471,1.90883
504,-657,0,0,0,0,0,0,0,0,0,-1,1728,1681,0,0
511,-657,0,0,0,0,0,0,0,0,0,-1,1735,1681,0,0
518,-657,0,0,0,0,0,0,0,0,0,-1,1742,1681,0,0
525,-657,0,0,0,0,0,0,0,0,0,-1,1749,1681,0,0
532,-657,0,0,0,0,0,0,0,0,0,-1,1756,1681,0,0
539,-657,0,0,0,0,0,0,0,0,0,-1,1763,1681,0,0
546,-657,0,0,0,0,0,0,0,0,0,-1,1770,1681,0,0
553,-657,0,0,0,0,0,0,0,0,0,-1,1777,1681,0,0
560,-657,0,0,0,0,0,0,0,0,0,-1,1784,1681,0,0
567,-657,0,0,0,0,0,0,0,0,0,-1,1791,1681,0,0
574,-657,0,0,0,0,0,0,0,0,0,-1,1798,1681,0,0
581,-657,0,0,0,0,0,0,0,0,0,-1,1805,1681,0,0
588,-657,0,0,0,0,0,0,0,0,0,-1,1812,1681,0,0
595,-657,0,0,0,0,0,0,0,0,0,-1,1819,1681,0,0
602,-657,0,0,0,0,0,0,0,0,0,-1,1826,1681,0,0
609,-657,0,0,0,0,0,0,0,0,0,-1,1833,1681,0,0
616,-657,0,0,0,0,0,0,0,0,0,-1,1840,1681,0,0
623,-657,0,0,0,0,0,0,0,0,0,-1,1847,1681,0,0
630,-657,0,0,0,0,0,0,0,0,0,-1,1854,1681,0,0
637,-657,0,0,0,0,0,0,0,0,0,-1,1861,1681,0,0
644,-657,0,0,0,0,0,0,0,0,0,-1,1868,1681,0,0
651,-657,0,0,0,0,0,0,0,0,0,-1,1875,1681,0,0
658,-657,0,0,0,0,0,0,0,0,0,-1,1882,1681,0,0
665,-657,0,0,0,0,0,0,0,0,0,-1,1889,1681,0,0
672,-657,0,0,0,0,0,0,0,0,0,-1,1896,1681,0,0
679,-657,0,0,0,0,0,0,0,0,0,-1,1903,1681,0,0
686,-657,0,0,0,0,0,0,0,0,0,-1,1910,1681,0,0
693,-657,0,0,0,0,0,0,0,0,0,-1,1917,1681,0,0
700,-657,0,0,0,0,0,0,0,0,0,-1,1924,1681,0,0
707,-657,0,0,0,0,0,0,0,0,0,-1,1931,1681,0,0
714,-657,0,0,0,0,0,0,0,0,0,-1,1938,1681,0,0
721,-657,0,0,0,0,0,0,0,0,0,-1,1945,1681,0,0
728,-657,0,0,0,0,0,0,0,0,0,-1,1952,1681,0,0
735,-657,0,0,0,0,0,0,0,0,0,-1,1959,1681,0,0
742,-657,0,0,0,0,0,0,0,0,0,-1,1966,1681,0,0
749,-657,0,0,0,0,0,0,0,0,0,-1,1973,1681,0,0
756,-657,0,0,0,0,0,0,0,0,0,-1,1980,1681,0,0
763,-657,0,0,0,0,0,0,0,0,0,-1,1987,1681,0,0
770,-657,0,0,0,0,0,0,0,0,0,-1,1994,1681,0,0
777,-657,0,0,0,0,0,0,0,0,0,-1,2001,1681,0,0
784,-657,0,0,0,0,0,0,0,0,0,-1,2008,1681,0,0
791,-657,0,0,0,0,0,0,0,0,0,-1,2015,1681,0,0
798,-657,0,0,0,0,0,0,0,0,0,-1,2022,1681,0,0
805,-657,0,0,0,0,0,0,0,0,0,-1,2029,1681,0,0
812,-657,0,0,0,0,0,0,0,0,0,-1,2036,1681,0,0
-700,-664,0,0,0,0,0,0,0,0,0,-1,524,1688,0,0
-693,-664,0,0,0,0,0,0,0,0,0,-1,531,1688,0,0
-686,-664,0,0,0,0,0,0,0,0,0,-1,538,1688,0,0
-679,-664,0,0,0,0,0,0,0,0,0,-1,545,1688,0,0
-672,-664,0,0,0,0,0,0,0,0,0,-1,552,1688,0,0
-665,-664,0,0,0,0,0,0,0,0,0,-1,559,1688,0,0
-658,-664,0,0,0,0,0,0,0,0,0,-1,566,1688,0,0
-651,-664,0,0,0,0,0,0,0,0,0,-1,573,1688,0,0
-644,-664,0,0,0,0,0,0,0,0,0,-1,580,1688,0,0
-637,-664,0,0,0,0,0,0,0,0,0,-1,587,1688,0,0
-630,-664,0,0,0,0,0,0,0,0,0,-1,594,1688,0,0
-623,-664,0,0,0,0,0,0,0,0,0,-1,601,1688,0,0
-616,-664,0,0,0,0,0,0,0,0,0,-1,608,1688,0,0
-609,-664,0,0,0,0,0,0,0,0,0,-1,615,1688,0,0
-602,-664,0,0,0,0,0,0,0,0,0,-1,622,1688,0,0
-595,-664,0,0,0,0,0,0,0,0,0,-1,629,1688,0,0
-588,-664,0,0,0,0,0,0,0,0,0,-1,636,1688,0,0
-581,-664,0,0,0,0,0,0,0,0,0,-1,643,1688,0,0
-574,-664,0,0,0,0,0,0,0,0,0,-1,650,1688,0,0
-567,-664,0,0,0,0,0,0,0,0,0,-1,657,1688,0,0
-560,-664,0,0,0,0,0,0,0,0,0,-1,664,1688,0,0
-553,-664,0,0,0,0,0,0,0,0,0,-1,671,1688,0,0
-546,-664,0,0,0,0,0,0,0,0,0,-1,678,1688,0,0
-539,-664,0,0,0,0,0,0,0,0,0,-1,685,1688,0,0
-532,-664,0,0,0,0,0,0,0,0,0,-1,692,1688,0,0
-525,-664,0,0,0,0,0,0,0,0,0,-1,699,1688,0,0
-518,-664,0,0,0,0,0,0,0,0,0,-1,706,1688,0,0
-511,-664,0,0,0,0,0,0,0,0,0,-1,713,1688,0,0
-504,-664,0,0,0,0,0,0,0,0,0,-1,720,1688,0,0
-497,-664,0,0,0,0,0,0,0,0,0,-1,727,1688,0,0
-490,-664,0,0,0,0,0,0,0,0,0,-1,734,1688,0,0
-483,-664,0,0,0,0,0,0,0,0,0,-1,741,1688,0,0
-476,-664,0,0,0,0,0,0,0,0,0,-1,748,1688,0,0
-469,-664,0,0,0,0,0,0,0,0,0,-1,755,1688,0,0
-462,-664,0,0,0,0,0,0,0,0,0,-1,762,1688,0,0
-455,-664,0,0,0,0,0,0,0,0,0,-1,769,1688,0,0
-448,-664,0,0,0,0,0,0,0,0,0,-1,776,1688,0,0
-441,-664,0,0,0,0,0,0,0,0,0,-1,783,1688,0,0
-434,-664,0,0,0,0,0,0,0,0,0,-1,790,1688,0,0
-427,-664,0,0,0,0,0,0,0,0,0,-1,797,1688,0,0
-420,-664,0,0,0,0,0,0,0,0,0,-1,804,1688,0,0
-413,-664,0,0,0,0,0,0,0,0,0,-1,811,1688,0,0
-406,-664,0,0,0,0,0,0,0,0,0,-1,818,1688,0,0
-399,-664,0,0,0,0,0,0,0,0,0,-1,825,1688,0,0
-392,-664,0,0,0,0,0,0,0,0,0,-1,832,1688,0,0
-385,-664,0,0,0,0,0,0,0,0,0,-1,839,1688,0,0
-378,-664,0,0,0,0,0,0,0,0,0,-1,846,1688,0,0
-371,-664,-3.95789,1.95496,0,0,0,0,0,0,0,-1,853,1688,-3.95788,-1.95495
-364,-664,-3.7135,2.05725,0.0275201,0.0226422,0.0556497,0.0807842,-0.030622,0.763499,0.0664582,0.049045,860,1688,-3.71351,-2.0572
-357,-664,-3.38348,2.18872,0.0312692,0.0167218,0.0537284,0.078214,-0.030223,0.718118,0.0646176,0.0460712,867,1688,-3.38348,-2.18875
-350,-664,-2.82886,2.16309,0,0,0,0,0,0,0,-1,874,1688,-2.82884,-2.16304
-343,-664,-2.63147,2.09631,0,0,0,0,0,0,0,-1,881,1688,-2.63145,-2.09627
-336,-664,-2.35425,1.93835,0,0,0,0,0,0,0,-1,888,1688,-2.35425,-1.9384
-329,-664,-0.185303,-0.539185,0,0,0,0,0,0,0,-1,895,1688,-0.185273,0.539218
-322,-664,0.292419,-0.51062,0.0328141,0.00641824,0.0234167,0.046496,-0.00726368,0.528781,0.0336807,0.0424163,902,1688,0.292419,0.510652
-315,-664,0.454529,-0.490356,0.0270662,0.00750928,0.0166828,0.0366252,-0.00204966,0.520315,0.0251279,0.0419315,909,1688,0.454535,0.49038
-308,-664,0.515564,-0.330322,0.0201563,0.00756511,0.0101096,0.0257704,0.00195108,0.506914,0.0165682,0.044939,916,1688,0.515568,0.330306
-301,-664,0.319641,0.0449219,0.0136615,0.00808245,0.00492563,0.0165327,0.0052113,0.52775,0.00976002,0.0443545,923,1688,0.319658,-0.0448954
-294,-664,0.0751343,-0.0609131,0.00855492,0.00760408,0.00135455,0.00951506,0.00664394,0.616626,0.00563563,0.0393246,930,1688,0.075143,0.0609116
-287,-664,-0.0231323,-0.09021,0.00498949,0.00632291,-0.000970041,0.00683327,0.00447914,-1.08647,0.00400827,0.0265325,937,1688,-0.023122,0.0902306
-280,-664,-0.0371704,-0.0784912,0.00283121,0.00443388,-0.00221923,0.00599202,0.00127307,-0.958657,0.00364519,0.015728,944,1688,-0.0371589,0.0785134
-273,-664,-0.0462036,-0.074585,-0.000150569,0.00322871,-0.00264838,0.00468054,-0.0016024,-1.06934,0.00376977,0.0125293,951,1688,-0.0461914,0.0746019
-266,-664,-0.0580444,-0.057251,0.00041132,0.00196467,-0.00237656,0.00368824,-0.00131225,-0.943331,0.0029937,0.0179397,958,1688,-0.0580662,0.0572348
-259,-664,-0.0413208,-0.0592041,0.000715687,0.000843944,-0.00219872,0.00297947,-0.00141984,-0.799977,0.0025926,0.0172714,965,1688,-0.0412973,0.0591868
-252,-664,-0.0142212,-0.086792,0.000866954,-0.000184904,-0.00196677,0.0023769,-0.00169485,-0.654751,0.00236179,0.0158143,972,1688,-0.0142179,0.0868013
-245,-664,-0.0426636,-0.10083,0.000870371,-0.000189319,-0.0017917,0.00220893,-0.00152788,-0.641635,0.00216936,0.0186426,979,1688,-0.0426413,0.100825
-238,-664,0.000305176,-0.0841064,0.000505489,-0.000227867,-0.00153001,0.00171215,-0.00143453,-0.667788,0.00181909,0.0207143,986,1688,0.000328069,0.0840901
-231,-664,0.00708008,-0.074585,-8.36729e-05,-0.000251155,-0.00121466,0.00105013,-0.00138495,-0.750982,0.00141032,0.0183747,993,1688,0.00705538,0.0745634
-224,-664,-0.00701904,-0.0640869,-0.000802696,3.58442e-05,-0.00117393,0.000863127,-0.00162998,-0.956914,0.00146192,0.0134011,1000,1688,-0.00700676,0.0640436
-217,-664,-0.0032959,-0.0628662,-0.00168428,0.000264388,-0.00120542,0.000840009,-0.0022599,-1.12529,0.00185126,0.0101295,1007,1688,-0.00329296,0.0628209
-210,-664,0.00170898,-0.0690918,-0.00261865,0.000284712,-0.00112743,0.000671091,-0.00300503,-1.24063,0.0022605,0.0106514,1014,1688,0.00173867,0.0691387
-203,-664,0.00628662,-0.0706787,-0.0033369,0.000749358,-0.000916437,0.000945477,-0.00353302,-1.35997,0.00272572,0.0128614,1021,1688,0.00629449,0.0706538
-196,-664,-0.00158691,-0.0814209,-0.00382784,0.000976326,-0.000813537,0.00111035,-0.00396186,-1.40752,0.00307884,0.0133806,1028,1688,-0.00164343,0.0814365
-189,-664,-0.0150146,-0.0830078,-0.00425391,0.000939655,-0.000740914,0.00104329,-0.00435754,-1.43183,0.00330809,0.00932387,1035,1688,-0.0150377,0.0830637
-182,-664,-0.019043,-0.0823975,-0.00433154,0.00122027,-0.000579373,0.00128009,-0.00439136,-1.46792,0.00343473,0.00908076,1042,1688,-0.0190351,0.0823658
-175,-664,-0.00305176,-0.100708,-0.00381694,0.00159891,-0.000576127,0.00165952,-0.00387755,-1.46598,0.00328121,0.0112681,1049,1688,-0.0030728,0.100683
-168,-664,-0.00354004,-0.0998535,-0.00253106,0.00176239,-0.000746678,0.00188854,-0.0026572,-1.40343,0.00263696,0.0126017,1056,1688,-0.00359523,0.0998423
-161,-664,-0.0146484,-0.0963135,-0.00130893,0.00210727,-0.000902638,0.0023311,-0.00153276,-1.32772,0.00224662,0.00942518,1063,1688,-0.0146333,0.0962785
-154,-664,-0.0194092,-0.0720215,-0.000191931,0.00189905,-0.00141107,0.00260974,-0.000902619,-1.10423,0.00210619,0.00852055,1070,1688,-0.0194109,0.0720466
-147,-664,-0.0336914,-0.0577393,0.000973467,0.00225649,-0.00213699,0.00384619,-0.000616227,-0.931216,0.00279229,0.00894484,1077,1688,-0.0336472,0.0577834
-140,-664,-0.0307617,-0.0705566,0.0018386,0.00248035,-0.00298759,0.00516425,-0.000845297,-0.838894,0.00375643,0.00922337,1084,1688,-0.0307953,0.0705949
-133,-664,-0.0174561,-0.05896,0.00268692,0.00274937,-0.00365385,0.00637213,-0.000935841,-0.789671,0.00459193,0.00950215,1091,1688,-0.017502,0.0589457
-126,-664,0.0395508,-0.0535889,0.00276307,0.00355449,-0.00441347,0.00758996,-0.00127239,-0.830108,0.00553309,0.0163775,1098,1688,0.0395688,0.0535509
-119,-664,0.092041,-0.086792,0.00215526,0.00388868,-0.0052567,0.00834965,-0.0023057,-0.867102,0.00647335,0.0321196,1105,1688,0.0920284,0.0867811
-112,-664,0.0909424,-0.09021,0.000963775,0.00379777,-0.00621464,0.00875491,-0.00399336,-0.897487,0.00752941,0.0373709,1112,1688,0.0909532,0.0901948
-105,-664,-0.0682373,-0.0863037,4.66334e-05,0.00345288,-0.00726981,0.0092164,-0.00571689,-0.90046,0.00870029,0.0412213,1119,1688,-0.0682916,0.0863273
-98,-664,0.00817871,0.00268555,-0.000202654,0.00250367,-0.00777759,0.00904493,-0.00674392,-0.871527,0.00914791,0.0431432,1126,1688,0.00820651,-0.00273191
-91,-664,0.059082,-0.0167236,-2.02444e-05,0.00155716,-0.00744805,0.00825815,-0.00672123,-0.838149,0.00866351,0.0421124,1133,1688,0.0591063,0.0166757
-84,-664,0.0744629,-0.11499,0.000466488,0.00105702,-0.00653801,0.00730643,-0.00578292,-0.807964,0.00757418,0.0457836,1140,1688,0.0744976,0.115021
-77,-664,-0.190796,0.221191,0.00119532,0.000392733,-0.00595073,0.00675828,-0.00517022,-0.751731,0.00690724,0.0469843,1147,1688,-0.190784,-0.221135
-70,-664,-0.0783691,0.19873,0.00241245,0.000152892,-0.0049142,0.00632507,-0.00375973,-0.672411,0.00588492,0.0486533,1154,1688,-0.0783591,-0.198765
-63,-664,-0.205322,0.00512695,0.00408789,0.000199374,-0.0037235,0.00634418,-0.00205691,-0.54479,0.00505652,0.0456583,1161,1688,-0.205312,-0.00509726
-56,-664,-0.176025,-0.239014,0.00702496,0.000125821,-0.00246253,0.00781374,-0.000662954,-0.309985,0.00544362,0.041986,1168,1688,-0.176052,0.239074
-49,-664,-0.158691,-0.390503,0.011392,0.00129844,-0.00095097,0.0114808,0.00120963,-0.0931234,0.00728424,0.0465965,1175,1688,-0.158686,0.390547
-42,-664,-0.142334,-0.656982,0.015919,0.00302998,0.000114118,0.01592,0.00302897,0.00885302,0.00976159,0.049719,1182,1688,-0.142304,0.657004
-35,-664,-0.118652,-0.255249,0.0199428,0.00428736,0.00129365,0.020049,0.00418118,0.0818924,0.0122132,0.0474084,1189,1688,-0.118631,0.255296
-28,-664,-0.0844727,-0.0465088,0.022755,0.00517635,0.00188575,0.022955,0.00497633,0.105673,0.0139438,0.0427632,1196,1688,-0.0845036,0.0465044
-21,-664,0.317627,0.0045166,0.024625,0.00500507,0.0025571,0.0249528,0.00467728,0.127495,0.0153161,0.0418435,1203,1688,0.317587,-0.00447814
-14,-664,0.524536,0.21936,0.0253825,0.0053951,0.00273752,0.0257507,0.00502695,0.133683,0.015761,0.046134,1210,1688,0.524476,-0.219302
-7,-664,-0.468628,0.876343,0,0,0,0,0,0,0,-1,1217,1688,-0.468631,-0.876354
0,-664,0.291016,0.754028,0,0,0,0,0,0,0,-1,1224,1688,0.291035,-0.754039
7,-664,1.82947,0.54187,0.0191631,0.00190693,-0.00075517,0.0191961,0.00187395,-0.0436512,0.0122207,0.0435679,1231,1688,1.82941,-0.541842
14,-664,2.2251,0.0723877,0.0138171,-0.000356194,-0.00323831,0.0145219,-0.00106103,-0.214314,0.0100536,0.043921,1238,1688,2.22516,-0.072334
21,-664,2.29541,-0.511841,0.00778375,-0.00206899,-0.00617603,0.0107575,-0.00504278,-0.448742,0.00931909,0.0426711,1245,1688,2.29541,0.511857
28,-664,2.46606,-1.17883,0.000268436,-0.000287153,-0.0090865,0.00908138,-0.0091001,-0.770117,0.0104971,0.0410434,1252,1688,2.46604,1.17883
35,-664,2.84119,-1.78503,0,0,0,0,0,0,0,-1,1259,1688,2.84113,1.78499
42,-664,2.64441,-1.45825,-0.0171402,0.00545485,-0.0150087,0.0129429,-0.0246282,-1.10802,0.0220386,0.0413676,1266,1688,2.64445,1.4582
49,-664,2.64343,-1.49438,-0.0247947,0.0112028,-0.0174057,0.0182423,-0.0318342,-1.18647,0.0292645,0.0418378,1273,1688,2.64343,1.49437
56,-664,2.63037,-1.5022,-0.029934,0.0150412,-0.0160728,0.0201946,-0.0350874,-1.26052,0.0323008,0.0486709,1280,1688,2.63036,1.50219
63,-664,2.62976,-1.50256,0,0,0,0,0,0,0,-1,1287,1688,2.6298,1.50261
70,-664,-0.268188,-5.45459,-0.0316817,0.0243392,-0.00608985,0.0249936,-0.032336,-1.46376,0.0331897,0.046351,1294,1688,-0.268141,5.45461
77,-664,-0.430908,-5.72668,-0.0324429,0.0325618,-0.00088922,0.032574,-0.032455,-1.55712,0.0375445,0.0435685,1301,1688,-0.430923,5.72674
84,-664,-0.991211,-5.61121,0,0,0,0,0,0,0,-1,1308,1688,-0.991224,5.61118
91,-664,4.77319,-6.19995,-0.0271642,0.0405763,0.00969682,0.0419371,-0.0285249,1.43138,0.0409262,0.0440162,1315,1688,4.77316,6.19994
98,-664,4.13721,-5.12537,0,0,0,0,0,0,0,-1,1322,1688,4.1372,5.12538
105,-664,3.53394,-4.02112,0,0,0,0,0,0,0,-1,1329,1688,3.53398,4.02108
112,-664,3.45349,-2.35791,0,0,0,0,0,0,0,-1,1336,1688,3.45347,2.35786
119,-664,2.79199,-1.73962,0,0,0,0,0,0,0,-1,1343,1688,2.79198,1.73967
126,-664,1.82458,-0.949585,0,0,0,0,0,0,0,-1,1350,1688,1.82455,0.949535
133,-664,0.746582,0.050293,0,0,0,0,0,0,0,-1,1357,1688,0.746592,-0.0502563
140,-664,0.104248,0.418579,0,0,0,0,0,0,0,-1,1364,1688,0.104251,-0.418531
147,-664,-0.407227,0.76709,0,0,0,0,0,0,0,-1,1371,1688,-0.407271,-0.767144
154,-664,0.434326,0.454224,0,0,0,0,0,0,0,-1,1378,1688,0.434335,-0.454271
161,-664,0.285034,0.238525,0.00835324,0.00777616,0.0133881,0.0214559,-0.00532652,0.774624,0.0163709,0.0470081,1385,1688,0.28508,-0.238518
168,-664,0.244873,0.367798,0,0,0,0,0,0,0,-1,1392,1688,0.244877,-0.36782
175,-664,0.189209,0.394287,0.0101765,-0.00327053,0.00752651,0.0135453,-0.00663928,0.420844,0.0118788,0.044827,1399,1688,0.189199,-0.394328
182,-664,0.0477295,-0.163086,0.0111452,-0.00760944,0.00577878,0.0127828,-0.00924704,0.276141,0.0127734,0.0457611,1406,1688,0.047701,0.163091
189,-664,-0.116455,-0.503296,0.0108181,-0.00880288,0.00397672,0.0115935,-0.00957823,0.192556,0.0122419,0.0422995,1413,1688,-0.116459,0.503265
196,-664,-0.247681,-0.472168,0.00910713,-0.00901226,0.00264179,0.00948445,-0.00938957,0.141865,0.010897,0.0407215,1420,1688,-0.247708,0.472206
203,-664,-0.344849,-0.476318,0.0079792,-0.00743673,0.00196305,0.00822525,-0.00768277,0.124689,0.00918628,0.0391039,1427,1688,-0.344876,0.47631
210,-664,0.141602,-0.687378,0.00655127,-0.00739624,0.00130163,0.00667171,-0.00751667,0.0922619,0.0081965,0.0408813,1434,1688,0.141594,0.687409
217,-664,0.251343,-0.295288,0.00523979,-0.00309269,0.00127103,0.00542936,-0.00328226,0.148054,0.00508032,0.0428103,1441,1688,0.251322,0.295274
224,-664,0.438354,-0.193481,0.0046573,-0.000172462,0.00110363,0.00489754,-0.0004127,0.214336,0.00341092,0.044704,1448,1688,0.438298,0.193449
231,-664,0.6698,0.0286865,0.00423746,0.002129,0.0010701,0.00468541,0.00168106,0.396434,0.00274085,0.0421136,1455,1688,0.66982,-0.0286713
238,-664,0.856079,0.332886,0.00374453,0.00370346,0.00130963,0.00503379,0.00241421,0.777558,0.00290706,0.0377588,1462,1688,0.856058,-0.332846
245,-664,0.301636,0.324707,0.0030522,0.00452669,0.00153821,0.0054952,0.00208369,1.00887,0.00320338,0.0350493,1469,1688,0.301688,-0.324687
252,-664,-0.00427246,0.200928,0.00225152,0.00427371,0.00188737,0.00540375,0.00112148,1.0313,0.00329296,0.0357672,1476,1688,-0.00429381,-0.20091
259,-664,-0.138428,-0.0979004,0.00170887,0.00326277,0.00253559,0.00513778,-0.000166137,0.934065,0.00348189,0.0344341,1483,1688,-0.138488,0.0979222
266,-664,-0.0718994,-0.0974121,0.00101607,0.00199557,0.00304863,0.00459354,-0.00158189,0.865041,0.00370402,0.0284943,1490,1688,-0.071852,0.0974243
273,-664,-0.0490723,-0.105347,0.000494468,0.00133557,0.00305246,0.00399631,-0.00216628,0.853855,0.00360989,0.0245866,1497,1688,-0.0490312,0.105346
280,-664,-0.0324707,-0.088623,0.00018486,0.000868425,0.00280428,0.00335167,-0.00229839,0.846039,0.0032809,0.0203558,1504,1688,-0.0324362,0.0885713
287,-664,-0.0219727,-0.0765381,-0.000283681,0.000301165,0.00233273,0.00235973,-0.00234224,0.847751,0.00271469,0.0187593,1511,1688,-0.0220097,0.0765148
294,-664,0.00915527,-0.0762939,-0.000114987,-0.000113169,0.00214749,0.00203341,-0.00226156,0.78561,0.00248087,0.013051,1518,1688,0.00920064,0.076349
301,-664,0.00305176,-0.0770264,0.000748702,-0.000279233,0.00195504,0.00225621,-0.00178674,0.65686,0.00233944,0.00931746,1525,1688,0.0030634,0.0770345
308,-664,0.00964355,-0.0789795,0.00087243,-0.000155648,0.00155101,0.00199237,-0.00127558,0.625384,0.00190182,0.00971315,1532,1688,0.00969819,0.0789992
315,-664,0.00549316,-0.088623,0.000866485,0.000165517,0.000936778,0.0015162,-0.000484195,0.606391,0.00120507,0.0109774,1539,1688,0.00555127,0.0885634
322,-664,-0.00378418,-0.0820313,0.000888555,0.000712099,0.000269089,0.00108351,0.000517143,0.626983,0.000625781,0.0142237,1546,1688,-0.00384301,0.0820469
329,-664,-0.0148926,-0.0631104,0.00105687,0.0012797,0.000150488,0.00135553,0.000981044,1.10405,0.000808311,0.0167071,1553,1688,-0.0148692,0.0631371
336,-664,-0.0106201,-0.0698242,0.00101833,0.00164196,4.07585e-05,0.00164461,0.00101567,1.50581,0.00095823,0.0140765,1560,1688,-0.0105661,0.0698143
343,-664,-0.00805664,-0.0778809,0.000926187,0.00192253,-0.000222211,0.00196985,0.000878875,-1.36101,0.00113949,0.01073,1567,1688,-0.00807605,0.0778821
350,-664,-0.00793457,-0.0889893,0.000883336,0.00201507,-0.000324772,0.00210164,0.000796759,-1.31028,0.00122515,0.0120976,1574,1688,-0.00798001,0.0890258
357,-664,-0.0206299,-0.0959473,0.000925168,0.00198464,-0.000189138,0.00201739,0.000892416,-1.39933,0.00116732,0.0116347,1581,1688,-0.0206747,0.0959629
364,-664,-0.0128174,-0.0863037,0.000937958,0.00177273,-0.000103318,0.00178533,0.000925361,-1.44947,0.00103099,0.0099967,1588,1688,-0.0128334,0.0863142
371,-664,-0.00952148,-0.0742188,0.000843337,0.00152327,1.76942e-05,0.00152373,0.000842877,1.5448,0.000881383,0.0124774,1595,1688,-0.00949936,0.0742143
378,-664,-0.0255127,-0.0848389,0.000784776,0.000691583,0.00026432,0.00100657,0.000469784,0.698151,0.000581575,0.0121188,1602,1688,-0.0254778,0.0847868
385,-664,-0.0286865,-0.0761719,0.000590574,-0.000281478,0.00040805,0.000751728,-0.000442631,0.376133,0.000697218,0.0127394,1609,1688,-0.0286699,0.0761542
392,-664,-0.0385742,-0.0661621,9.00111e-05,-0.00125136,0.000598037,0.000317918,-0.00147926,0.3641,0.00110746,0.0147107,1616,1688,-0.0386057,0.0661466
399,-664,-0.0201416,-0.0596924,-0.000400493,-0.0023306,0.000608421,-0.000224711,-0.00250638,0.281256,0.00160128,0.0124206,1623,1688,-0.0200892,0.0597329
406,-664,0.00683594,-0.0435791,-0.000792883,-0.00391428,0.000807916,-0.000596166,-0.00411099,0.238839,0.00256514,0.0107645,1630,1688,0.00686101,0.0435372
413,-664,-0.00317383,-0.0512695,-0.00149558,-0.00508262,0.00123941,-0.00110899,-0.0054692,0.302347,0.00333844,0.00981634,1637,1688,-0.00321495,0.0513081
420,-664,0.0249023,-0.0556641,-0.00264966,-0.00685366,0.00232293,-0.00161886,-0.00788446,0.417642,0.0048084,0.0217174,1644,1688,0.0249575,0.0557061
427,-664,0.105713,-0.0290527,-0.00371539,-0.00917548,0.00344691,-0.00204835,-0.0108425,0.450468,0.00665154,0.0389976,1651,1688,0.105712,0.0290334
434,-664,0.119751,-0.0706787,-0.0052665,-0.0114899,0.00470544,-0.00273693,-0.0140194,0.493261,0.00858073,0.039939,1658,1688,0.119791,0.0706995
441,-664,-0.053833,-0.158691,-0.00744503,-0.0137389,0.00693751,-0.00297407,-0.0182099,0.572471,0.01128,0.0423536,1665,1688,-0.0538939,0.158643
448,-664,-0.262817,-0.15271,-0.0106275,-0.0146821,0.00986384,-0.00258477,-0.0227248,0.684045,0.014366,0.0465876,1672,1688,-0.262829,0.152761
455,-664,-0.459839,-0.132935,0,0,0,0,0,0,0,-1,1679,1688,-0.45986,0.132966
462,-664,-0.136108,-0.0705566,0,0,0,0,0,0,0,-1,1686,1688,-0.136152,0.0705787
469,-664,-0.290039,0.449829,-0.0257169,-0.00994251,0.0226126,0.00611892,-0.0417784,0.9532,0.0300999,0.0450255,1693,1688,-0.289982,-0.449867
476,-664,-0.509399,0.732666,-0.0294006,-0.00549898,0.0289234,0.0138453,-0.0487449,0.98131,0.0379628,0.0446332,1700,1688,-0.50941,-0.732707
483,-664,-0.567261,0.87793,0,0,0,0,0,0,0,-1,1707,1688,-0.567287,-0.877936
490,-664,-3.3573,-2.07166,0,0,0,0,0,0,0,-1,1714,1688,-3.3573,2.07166
497,-664,0,0,0,0,0,0,0,0,0,-1,1721,1688,0,0
504,-664,0,0,0,0,0,0,0,0,0,-1,1728,1688,0,0
511,-664,0,0,0,0,0,0,0,0,0,-1,1735,1688,0,0
518,-664,0,0,0,0,0,0,0,0,0,-1,1742,1688,0,0
525,-664,0,0,0,0,0,0,0,0,0,-1,1749,1688,0,0
532,-664,0,0,0,0,0,0,0,0,0,-1,1756,1688,0,0
539,-664,0,0,0,0,0,0,0,0,0,-1,1763,1688,0,0
546,-664,0,0,0,0,0,0,0,0,0,-1,1770,1688,0,0
553,-664,0,0,0,0,0,0,0,0,0,-1,1777,1688,0,0
560,-664,0,0,0,0,0,0,0,0,0,-1,1784,1688,0,0
567,-664,0,0,0,0,0,0,0,0,0,-1,1791,1688,0,0
574,-664,0,0,0,0,0,0,0,0,0,-1,1798,1688,0,0
581,-664,0,0,0,0,0,0,0,0,0,-1,1805,1688,0,0
588,-664,0,0,0,0,0,0,0,0,0,-1,1812,1688,0,0
595,-664,0,0,0,0,0,0,0,0,0,-1,1819,1688,0,0
602,-664,0,0,0,0,0,0,0,0,0,-1,1826,1688,0,0
609,-664,0,0,0,0,0,0,0,0,0,-1,1833,1688,0,0
616,-664,0,0,0,0,0,0,0,0,0,-1,1840,1688,0,0
623,-664,0,0,0,0,0,0,0,0,0,-1,1847,1688,0,0
630,-664,0,0,0,0,0,0,0,0,0,-1,1854,1688,0,0
637,-664,0,0,0,0,0,0,0,0,0,-1,1861,1688,0,0
644,-664,0,0,0,0,0,0,0,0,0,-1,1868,1688,0,0
651,-664,0,0,0,0,0,0,0,0,0,-1,1875,1688,0,0
658,-664,0,0,0,0,0,0,0,0,0,-1,1882,1688,0,0
665,-664,0,0,0,0,0,0,0,0,0,-1,1889,1688,0,0
672,-664,0,0,0,0,0,0,0,0,0,-1,1896,1688,0,0
679,-664,0,0,0,0,0,0,0,0,0,-1,1903,1688,0,0
686,-664,0,0,0,0,0,0,0,0,0,-1,1910,1688,0,0
693,-664,0,0,0,0,0,0,0,0,0,-1,1917,1688,0,0
700,-664,0,0,0,0,0,0,0,0,0,-1,1924,1688,0,0
707,-664,0,0,0,0,0,0,0,0,0,-1,1931,1688,0,0
714,-664,0,0,0,0,0,0,0,0,0,-1,1938,1688,0,0
721,-664,0,0,0,0,0,0,0,0,0,-1,1945,1688,0,0
728,-664,0,0,0,0,0,0,0,0,0,-1,1952,1688,0,0
735,-664,0,0,0,0,0,0,0,0,0,-1,1959,1688,0,0
742,-664,0,0,0,0,0,0,0,0,0,-1,1966,1688,0,0
749,-664,0,0,0,0,0,0,0,0,0,-1,1973,1688,0,0
756,-664,0,0,0,0,0,0,0,0,0,-1,1980,1688,0,0
763,-664,0,0,0,0,0,0,0,0,0,-1,1987,1688,0,0
770,-664,0,0,0,0,0,0,0,0,0,-1,1994,1688,0,0
777,-664,0,0,0,0,0,0,0,0,0,-1,2001,1688,0,0
784,-664,0,0,0,0,0,0,0,0,0,-1,2008,1688,0,0
791,-664,0,0,0,0,0,0,0,0,0,-1,2015,1688,0,0
798,-664,0,0,0,0,0,0,0,0,0,-1,2022,1688,0,0
805,-664,0,0,0,0,0,0,0,0,0,-1,2029,1688,0,0
812,-664,0,0,0,0,0,0,0,0,0,-1,2036,1688,0,0
-700,-671,0,0,0,0,0,0,0,0,0,-1,524,1695,0,0
-693,-671,0,0,0,0,0,0,0,0,0,-1,531,1695,0,0
-686,-671,0,0,0,0,0,0,0,0,0,-1,538,1695,0,0
-679,-671,0,0,0,0,0,0,0,0,0,-1,545,1695,0,0
-672,-671,0,0,0,0,0,0,0,0,0,-1,552,1695,0,0
-665,-671,0,0,0,0,0,0,0,0,0,-1,559,1695,0,0
-658,-671,0,0,0,0,0,0,0,0,0,-1,566,1695,0,0
-651,-671,0,0,0,0,0,0,0,0,0,-1,573,1695,0,0
-644,-671,0,0,0,0,0,0,0,0,0,-1,580,1695,0,0
-637,-671,0,0,0,0,0,0,0,0,0,-1,587,1695,0,0
-630,-671,0,0,0,0,0,0,0,0,0,-1,594,1695,0,0
-623,-671,0,0,0,0,0,0,0,0,0,-1,601,1695,0,0
-616,-671,0,0,0,0,0,0,0,0,0,-1,608,1695,0,0
-609,-671,0,0,0,0,0,0,0,0,0,-1,615,1695,0,0
-602,-671,0,0,0,0,0,0,0,0,0,-1,622,1695,0,0
-595,-671,0,0,0,0,0,0,0,0,0,-1,629,1695,0,0
-588,-671,0,0,0,0,0,0,0,0,0,-1,636,1695,0,0
-581,-671,0,0,0,0,0,0,0,0,0,-1,643,1695,0,0
-574,-671,0,0,0,0,0,0,0,0,0,-1,650,1695,0,0
-567,-671,0,0,0,0,0,0,0,0,0,-1,657,1695,0,0
-560,-671,0,0,0,0,0,0,0,0,0,-1,664,1695,0,0
-553,-671,0,0,0,0,0,0,0,0,0,-1,671,1695,0,0
-546,-671,0,0,0,0,0,0,0,0,0,-1,678,1695,0,0
-539,-671,0,0,0,0,0,0,0,0,0,-1,685,1695,0,0
-532,-671,0,0,0,0,0,0,0,0,0,-1,692,1695,0,0
-525,-671,0,0,0,0,0,0,0,0,0,-1,699,1695,0,0
-518,-671,0,0,0,0,0,0,0,0,0,-1,706,1695,0,0
-511,-671,0,0,0,0,0,0,0,0,0,-1,713,1695,0,0
-504,-671,0,0,0,0,0,0,0,0,0,-1,720,1695,0,0
-497,-671,0,0,0,0,0,0,0,0,0,-1,727,1695,0,0
-490,-671,0,0,0,0,0,0,0,0,0,-1,734,1695,0,0
-483,-671,0,0,0,0,0,0,0,0,0,-1,741,1695,0,0
-476,-671,0,0,0,0,0,0,0,0,0,-1,748,1695,0,0
-469,-671,0,0,0,0,0,0,0,0,0,-1,755,1695,0,0
-462,-671,0,0,0,0,0,0,0,0,0,-1,762,1695,0,0
-455,-671,0,0,0,0,0,0,0,0,0,-1,769,1695,0,0
-448,-671,0,0,0,0,0,0,0,0,0,-1,776,1695,0,0
-441,-671,0,0,0,0,0,0,0,0,0,-1,783,1695,0,0
-434,-671,0,0,0,0,0,0,0,0,0,-1,790,1695,0,0
-427,-671,0,0,0,0,0,0,0,0,0,-1,797,1695,0,0
-420,-671,0,0,0,0,0,0,0,0,0,-1,804,1695,0,0
-413,-671,0,0,0,0,0,0,0,0,0,-1,811,1695,0,0
-406,-671,0,0,0,0,0,0,0,0,0,-1,818,1695,0,0
-399,-671,0,0,0,0,0,0,0,0,0,-1,825,1695,0,0
-392,-671,0,0,0,0,0,0,0,0,0,-1,832,1695,0,0
-385,-671,0,0,0,0,0,0,0,0,0,-1,839,1695,0,0
-378,-671,0,0,0,0,0,0,0,0,0,-1,846,1695,0,0
-371,-671,0,0,0,0,0,0,0,0,0,-1,853,1695,0,0
-364,-671,-4.72766,2.07361,0.0537243,0.0255664,0.0725138,0.113513,-0.0342226,0.689514,0.0892964,0.049558,860,1695,-4.72764,-2.07364
-357,-671,-4.39221,2.28625,0.0571813,0.0203744,0.068042,0.109265,-0.031709,0.653322,0.0853982,0.0446351,867,1695,-4.39221,-2.2863
-350,-671,-4.03705,2.50537,0.0612553,0.0151315,0.0630492,0.105328,-0.0289412,0.610068,0.0815949,0.0442531,874,1695,-4.03704,-2.50534
-343,-671,-3.60553,2.81653,0.0606963,0.0128911,0.0547911,0.0965716,-0.0229842,0.579718,0.0732544,0.046326,881,1695,-3.60554,-2.81653
-336,-671,0.186462,-1.34839,0,0,0,0,0,0,0,-1,888,1695,0.186447,1.34842
-329,-671,0.336426,-1.12622,0,0,0,0,0,0,0,-1,895,1695,0.336397,1.12617
-322,-671,0.59259,-0.764648,0.0466284,0.0114791,0.0276234,0.0617939,-0.00368638,0.502083,0.0424781,0.0487965,902,1695,0.592592,0.76461
-315,-671,0.58667,-0.438843,0.0378985,0.0124387,0.0195255,0.0484773,0.00185997,0.496521,0.0317164,0.0476499,909,1695,0.586662,0.438815
-308,-671,0.424805,-0.0997314,0.0286729,0.0118808,0.0117926,0.034753,0.00580066,0.476039,0.0214976,0.0452843,916,1695,0.424824,0.0997624
-301,-671,0.311157,-0.00744629,0.0201431,0.0116672,0.00572193,0.0230256,0.00878467,0.466652,0.0134177,0.0445382,923,1695,0.311165,0.00748144
-294,-671,0.124756,-0.0175781,0.0133362,0.0103462,0.00146358,0.0139334,0.00974906,0.387387,0.00825553,0.04577,930,1695,0.12475,0.0175939
-287,-671,-0.115845,-0.106689,0.00843827,0.00823523,-0.00132291,0.00966355,0.00700995,-0.747102,0.00576513,0.0414081,937,1695,-0.115864,0.106735
-280,-671,-0.100708,-0.150757,0.00536175,0.00543098,-0.00279373,0.00819031,0.00260242,-0.791594,0.00483226,0.0325764,944,1695,-0.100698,0.15071
-273,-671,-0.0896606,-0.114136,0.00117562,0.00350741,-0.00323406,0.00577932,-0.00109629,-0.9584,0.00426553,0.028553,951,1695,-0.0896579,0.114143
-266,-671,-0.0945435,-0.0423584,0.00181395,0.00148962,-0.00279336,0.00444985,-0.00114627,-0.756404,0.00341343,0.0214957,958,1695,-0.0945556,0.0423615
-259,-671,-0.0722046,-0.083374,0.00212915,-0.000316711,-0.00239553,0.00359585,-0.00178342,-0.549391,0.00316394,0.0207136,965,1695,-0.0722316,0.083363
-252,-671,-0.0159302,-0.0919189,0.00225558,-0.00201237,-0.00194593,0.0030096,-0.00276639,-0.369671,0.00333575,0.0173295,972,1695,-0.015932,0.0918857
-245,-671,-0.0328979,-0.088623,0.00229251,-0.00223641,-0.00163267,0.00281972,-0.00276362,-0.31234,0.00322359,0.0183543,979,1695,-0.0329007,0.0885926
-238,-671,-0.0197754,-0.0679932,0.00201416,-0.00241839,-0.00118128,0.00230931,-0.00271355,-0.24485,0.00290308,0.0176622,986,1695,-0.0198053,0.0680303
-231,-671,-0.0192261,-0.0633545,0.0015487,-0.0024835,-0.00072812,0.00167615,-0.00261096,-0.173288,0.0024947,0.0144019,993,1695,-0.0192101,0.0633134
-224,-671,-0.02771,-0.0836182,0.000968329,-0.0020964,-0.000622199,0.00108983,-0.00221791,-0.19285,0.00194639,0.0123265,1000,1695,-0.0277232,0.0836435
-217,-671,-0.0187378,-0.0950928,0.000193911,-0.00174147,-0.000606238,0.000368127,-0.00191568,-0.279831,0.00141587,0.011192,1007,1695,-0.0187637,0.0951508
-210,-671,-0.0194092,-0.0830078,-0.000715218,-0.00154373,-0.000624781,-0.000379836,-0.00187912,-0.492652,0.00114729,0.0106984,1014,1695,-0.0194391,0.0830143
-203,-671,-0.0250854,-0.0749512,-0.00133804,-0.000558287,-0.000446113,-0.000355694,-0.00154063,-1.14451,0.000931445,0.0180318,1021,1695,-0.0250852,0.0749871
-196,-671,-0.00537109,-0.0797119,-0.00161799,4.11037e-05,-0.000435902,0.000148658,-0.00172554,-1.32889,0.00120298,0.0156898,1028,1695,-0.00539875,0.0797184
-189,-671,-0.00183105,-0.0614014,-0.00186193,0.000275295,-0.000466375,0.000372632,-0.00195926,-1.36504,0.00144648,0.0111861,1035,1695,-0.00183054,0.0614334
-182,-671,-0.0211182,-0.0770264,-0.00190131,0.000682303,-0.000396122,0.000741673,-0.00196068,-1.42203,0.00161225,0.00865823,1042,1695,-0.0210799,0.0770136
-175,-671,-0.0153809,-0.0991211,-0.00158367,0.00113032,-0.000437059,0.00119896,-0.00165232,-1.415,0.00165311,0.0111301,1049,1695,-0.0154325,0.0991661
-168,-671,-0.0181885,-0.092041,-0.000797031,0.00136974,-0.00058559,0.00151788,-0.000945164,-1.32303,0.00143479,0.0127008,1056,1695,-0.0181978,0.0920027
-161,-671,-0.0257568,-0.0666504,-8.09654e-05,0.00166687,-0.000701511,0.0019136,-0.000327695,-1.2326,0.00139783,0.0088828,1063,1695,-0.0257772,0.0665988
-154,-671,-0.0362549,-0.0854492,0.00056205,0.00154365,-0.00110921,0.00226579,-0.000160096,-0.993687,0.00156662,0.00822753,1070,1695,-0.0362349,0.085467
-147,-671,-0.0393066,-0.0784912,0.00133691,0.00182839,-0.00164743,0.00324831,-8.30032e-05,-0.859434,0.00219373,0.00929902,1077,1695,-0.0392836,0.0785374
-140,-671,-0.0273438,-0.0533447,0.00186631,0.00198351,-0.00227921,0.00420487,-0.000355051,-0.79825,0.00292878,0.00966735,1084,1695,-0.027385,0.0533802
-133,-671,-0.0238037,-0.0366211,0.00240824,0.00216103,-0.0027944,0.00508176,-0.000512498,-0.763296,0.00357096,0.0105765,1091,1695,-0.0237656,0.0366588
-126,-671,-0.00927734,-0.0767822,0.00239479,0.00277791,-0.00339125,0.00598301,-0.000810304,-0.813612,0.00428439,0.0123645,1098,1695,-0.00924614,0.0767279
-119,-671,0.0140381,-0.0878906,0.00189801,0.00305135,-0.00403374,0.00654943,-0.00160007,-0.856398,0.00498597,0.024162,1105,1695,0.014095,0.0879475
-112,-671,0.0209961,-0.0664063,0.0009988,0.00299062,-0.00483951,0.00693563,-0.0029462,-0.886876,0.00585821,0.0290001,1112,1695,0.0209857,0.066455
-105,-671,-0.0145264,-0.0301514,0.000259751,0.00269193,-0.00574318,0.00734636,-0.00439468,-0.889729,0.00684973,0.0310151,1119,1695,-0.0144762,0.0301387
-98,-671,-0.0249023,-0.064209,-1.08579e-06,0.00190293,-0.00623165,0.00725487,-0.00535303,-0.861197,0.00730673,0.0314794,1126,1695,-0.0249203,0.0642129
-91,-671,0.0268555,-0.103638,7.37749e-05,0.00134165,-0.00606108,0.00680185,-0.00538643,-0.837504,0.00705271,0.0313171,1133,1695,0.0269152,0.103629
-84,-671,0.0864258,-0.124023,0.000368555,0.00110573,-0.00541476,0.00616444,-0.00469015,-0.819381,0.00628614,0.038304,1140,1695,0.0864382,0.124082
-77,-671,0.162964,-0.1427,0.0008731,0.000714606,-0.00499863,0.00579311,-0.00420541,-0.777472,0.00579686,0.0434999,1147,1695,0.163004,0.142656
-70,-671,-0.0119629,0.0557861,0.00177206,0.000731379,-0.00422578,0.00550942,-0.00300598,-0.724139,0.00498669,0.0422497,1154,1695,-0.0119799,-0.0557592
-63,-671,0.0185547,0.0665283,0.00303516,0.000955508,-0.0032752,0.00543164,-0.00144097,-0.631688,0.00418494,0.0422145,1161,1695,0.0185364,-0.0665749
-56,-671,-0.097168,-0.0682373,0.00521637,0.00120356,-0.00235844,0.0063064,0.000113538,-0.432938,0.00416694,0.0411143,1168,1695,-0.0971072,0.0681866
-49,-671,-0.32605,-0.278564,0.00865014,0.00238699,-0.00119493,0.00887037,0.00216676,-0.182261,0.00533993,0.0474436,1175,1695,-0.32608,0.278596
-42,-671,-0.174561,-0.486328,0,0,0,0,0,0,0,-1,1182,1695,-0.174523,0.486308
-35,-671,-0.0333252,-0.459839,0.015615,0.00494324,0.000848023,0.015682,0.00487627,0.0788052,0.00926721,0.048282,1189,1695,-0.0333024,0.459848
-28,-671,0.0288086,-0.369019,0.0180156,0.00558098,0.00156364,0.0182092,0.00538737,0.123193,0.0108012,0.0448624,1196,1695,0.0287843,0.368962
-21,-671,0.16748,-0.408325,0.0196652,0.00528696,0.002462,0.0200751,0.00487707,0.164972,0.0120902,0.0427849,1203,1695,0.167423,0.40827
-14,-671,-1.56665,0.647217,0,0,0,0,0,0,0,-1,1210,1695,-1.56667,-0.647158
-7,-671,-0.791016,0.501953,0,0,0,0,0,0,0,-1,1217,1695,-0.791007,-0.502014
0,-671,-0.0236816,0.405273,0.0194877,0.00424861,0.00270478,0.0199535,0.00378278,0.170551,0.0122379,0.0430791,1224,1695,-0.023642,-0.405309
7,-671,0.843262,0.298584,0.016546,0.00201788,0.00103455,0.0166193,0.00194458,0.0707342,0.0104916,0.043962,1231,1695,0.843284,-0.298633
14,-671,1.49792,0.00817871,0.0125226,-0.000228994,-0.000789274,0.0125713,-0.000277662,-0.0615827,0.00847493,0.0438139,1238,1695,1.49793,-0.00820657
21,-671,1.7135,-0.331299,0.0079092,-0.00176482,-0.00304503,0.00878786,-0.00264348,-0.280924,0.00691038,0.0439389,1245,1695,1.71346,0.331313
28,-671,1.87866,-1.07861,0.00202198,-0.000697167,-0.00549578,0.00632386,-0.00499904,-0.66414,0.00655218,0.0437657,1252,1695,1.87869,1.07867
35,-671,0.59021,0.549438,-0.00473758,0.000975835,-0.0084505,0.00703942,-0.0108012,-0.948394,0.0103763,0.0455806,1259,1695,0.590264,-0.549404
42,-671,1.81763,-1.05383,-0.0115712,0.00285157,-0.0106469,0.00849943,-0.017219,-1.08307,0.0151304,0.046898,1266,1695,1.8176,1.05386
49,-671,-0.0966797,0.906006,0,0,0,0,0,0,0,-1,1273,1695,-0.096705,-0.905983
56,-671,1.87488,-1.10425,0,0,0,0,0,0,0,-1,1280,1695,1.87485,1.1042
63,-671,-1.28662,-0.193726,0,0,0,0,0,0,0,-1,1287,1695,-1.28659,0.193698
70,-671,-0.525146,-6.28809,0,0,0,0,0,0,0,-1,1294,1695,-0.525133,6.28807
77,-671,-0.522461,-6.52637,0,0,0,0,0,0,0,-1,1301,1695,-0.522461,6.52637
84,-671,5.01379,-6.30737,0,0,0,0,0,0,0,-1,1308,1695,5.01378,6.30737
91,-671,4.6228,-5.16235,0,0,0,0,0,0,0,-1,1315,1695,4.62285,5.16241
98,-671,-0.317627,-0.142212,0,0,0,0,0,0,0,-1,1322,1695,-0.317673,0.142201
105,-671,3.01343,-2.9762,-0.0155928,0.0314855,0.0219024,0.0400992,-0.0242065,1.1961,0.037503,0.0451106,1329,1695,3.01345,2.97622
112,-671,2.5918,-2.10303,-0.0112443,0.0311932,0.0267323,0.0441043,-0.0241554,1.12086,0.0399668,0.04441,1336,1695,2.59184,2.10301
119,-671,2.0188,-1.30823,-0.00815411,0.0291033,0.0284232,0.0444585,-0.0235093,1.07548,0.0398577,0.0457759,1343,1695,2.01881,1.30829
126,-671,1.46167,-0.643188,-0.00526415,0.0246929,0.0275813,0.0411004,-0.0216716,1.03415,0.0368155,0.0498813,1350,1695,1.4617,0.64313
133,-671,0.699829,0.0112305,-0.00201554,0.0198048,0.0261479,0.0372273,-0.0194381,0.983041,0.0332489,0.0484553,1357,1695,0.699819,-0.0112786
140,-671,0.0407715,0.390503,0.000791632,0.0156169,0.0229144,0.0322877,-0.0158792,0.941832,0.028342,0.0457216,1364,1695,0.0408204,-0.390546
147,-671,0.401855,-0.209717,0.00322634,0.0119999,0.0192239,0.0273312,-0.0121049,0.897575,0.0233273,0.0456837,1371,1695,0.401893,0.209689
154,-671,-0.297607,-0.51123,0,0,0,0,0,0,0,-1,1378,1695,-0.297611,0.511237
161,-671,0.263916,0.863403,0,0,0,0,0,0,0,-1,1385,1695,0.263941,-0.863396
168,-671,0.0700684,-0.783569,0,0,0,0,0,0,0,-1,1392,1695,0.0700413,0.783584
175,-671,0.135864,0.457764,0.00818343,-0.00391457,0.00645597,0.0109815,-0.00671261,0.408966,0.0103143,0.0438758,1399,1695,0.13588,-0.457801
182,-671,0.00622559,0.192871,0.00934047,-0.00719876,0.00494095,0.0107041,-0.0085624,0.269283,0.0111464,0.0436522,1406,1695,0.00620723,-0.192835
189,-671,-0.110474,0.0447998,0,0,0,0,0,0,0,-1,1413,1695,-0.110528,-0.0448547
196,-671,-0.30188,-0.381226,0.00791427,-0.00763761,0.00245466,0.00829251,-0.00801585,0.152887,0.00941609,0.0411611,1420,1695,-0.301881,0.38128
203,-671,-0.0516357,-0.0286865,0.00699503,-0.00597583,0.00195394,0.00728298,-0.00626378,0.146316,0.0078286,0.0400643,1427,1695,-0.0516828,0.0287122
210,-671,0.324829,-0.78418,0,0,0,0,0,0,0,-1,1434,1695,0.324801,0.784213
217,-671,0.418213,-0.392944,0,0,0,0,0,0,0,-1,1441,1695,0.418245,0.392887
224,-671,0.182983,0.112061,0.00401632,0.000489152,0.00134421,0.0044702,3.52771e-05,0.325633,0.00296844,0.0405019,1448,1695,0.183031,-0.112051
231,-671,0.248047,-0.127075,0.00359199,0.00239713,0.00133115,0.00445363,0.00153549,0.574467,0.00261228,0.0346661,1455,1695,0.248007,0.127082
238,-671,0.187134,-0.0826416,0.00311195,0.00367983,0.00151897,0.00494117,0.00185061,0.877797,0.00288257,0.0306067,1462,1695,0.187172,0.0826753
245,-671,0.0264893,-0.0533447,0.00247287,0.00426495,0.00164652,0.00524345,0.00149437,1.03459,0.00311921,0.0248639,1469,1695,0.0264509,0.0533604
252,-671,-0.00952148,-0.0495605,0.00177476,0.00400121,0.00184415,0.00504209,0.000733888,1.05695,0.00314543,0.0232679,1476,1695,-0.00946989,0.0495448
259,-671,-0.0216064,-0.0773926,0.00128032,0.00306902,0.00227211,0.00461646,-0.000267122,0.972895,0.00317044,0.0184307,1483,1695,-0.0216609,0.0774402
266,-671,-0.00610352,-0.0882568,0.000762188,0.0019626,0.00252562,0.00395835,-0.00123356,0.902057,0.00313213,0.0101928,1490,1695,-0.00606537,0.0882488
273,-671,-0.0107422,-0.0893555,0.000454737,0.00138119,0.00236844,0.00333128,-0.00149535,0.881971,0.00285307,0.00769241,1497,1695,-0.0107227,0.0894022
280,-671,-0.0253906,-0.0767822,0.000336141,0.000992227,0.00201549,0.0027062,-0.00137783,0.866071,0.00239913,0.00884328,1504,1695,-0.0254226,0.0768055
287,-671,-0.019043,-0.0784912,9.45679e-05,0.0005271,0.00148444,0.00181095,-0.00118928,0.857733,0.00174453,0.0105223,1511,1695,-0.0190873,0.0784442
294,-671,-0.026001,-0.0888672,0.000364507,0.000190906,0.00118202,0.00146291,-0.000907499,0.748747,0.00138102,0.0102287,1518,1695,-0.0260329,0.0888275
301,-671,-0.0257568,-0.0792236,0.00115951,2.63069e-05,0.000919986,0.00167338,-0.00048756,0.509391,0.00130874,0.0097492,1525,1695,-0.0257347,0.079239
308,-671,-0.0107422,-0.0758057,0.00126155,5.28054e-05,0.000486009,0.00143273,-0.000118367,0.338634,0.000996952,0.0100981,1532,1695,-0.0107318,0.075852
315,-671,0.00732422,-0.0684814,0.00121277,0.000290986,-3.44322e-05,0.00121406,0.000289701,-0.0372844,0.000732166,0.0123437,1539,1695,0.0073349,0.0684928
322,-671,-0.00854492,-0.0626221,0.00125903,0.000701476,-0.000576572,0.00162068,0.000339821,-0.560215,0.00098688,0.0143906,1546,1695,-0.00856883,0.0625697
329,-671,-0.0404053,-0.0513916,0.00136264,0.00106096,-0.000623829,0.00185361,0.000569994,-0.666775,0.0010963,0.0132462,1553,1695,-0.0403814,0.0513434
336,-671,-0.0144043,-0.0762939,0.00117456,0.00126575,-0.000695478,0.00191713,0.000523185,-0.818129,0.00114428,0.0106706,1560,1695,-0.014345,0.0763517
343,-671,-0.00744629,-0.0969238,0.000879116,0.00142299,-0.000911018,0.00210179,0.000200316,-0.930438,0.00133943,0.00954909,1567,1695,-0.00743041,0.0968707
350,-671,-0.0152588,-0.0959473,0.000619043,0.00146779,-0.000942791,0.00207731,9.51567e-06,-0.996876,0.00138171,0.00906726,1574,1695,-0.0153185,0.0959941
357,-671,-0.0206299,-0.0969238,0.000465805,0.00143769,-0.000732987,0.00183118,7.231e-05,-1.07811,0.00119741,0.00898937,1581,1695,-0.0206287,0.0968741
364,-671,-0.0229492,-0.0959473,0.000339407,0.00134963,-0.000575652,0.00161036,7.86781e-05,-1.14551,0.00104833,0.0115857,1588,1695,-0.0229198,0.0959535
371,-671,-0.026001,-0.0755615,0.000132893,0.00128823,-0.000360474,0.00139148,2.96489e-05,-1.29185,0.000917929,0.0137059,1595,1695,-0.0260039,0.0755763
378,-671,-0.0238037,-0.074707,-1.61368e-05,0.000613901,-3.44987e-05,0.000615784,-1.80201e-05,-1.51626,0.000416659,0.0117879,1602,1695,-0.0238406,0.0747643
385,-671,-0.0393066,-0.0848389,-0.000262725,-0.000243413,0.000183076,-6.97386e-05,-0.000436399,0.811745,0.000270698,0.0140535,1609,1695,-0.0392877,0.0848767
392,-671,-0.0466309,-0.0671387,-0.000808416,-0.00112825,0.00046554,-0.000476091,-0.00146057,0.61996,0.00086012,0.0179484,1616,1695,-0.0466554,0.0670873
399,-671,-0.0306396,-0.0646973,-0.00126388,-0.00223144,0.000526634,-0.00103255,-0.00246277,0.413894,0.00142805,0.0133323,1623,1695,-0.0306302,0.0646624
406,-671,-0.0108643,-0.0791016,-0.00160003,-0.00399314,0.000830139,-0.00134026,-0.0042529,0.303268,0.00251073,0.016217,1630,1695,-0.0108689,0.0790805
413,-671,0.0667725,-0.0480957,-0.00228947,-0.00532208,0.00146596,-0.00169669,-0.00591485,0.38426,0.00351685,0.0246312,1637,1695,0.0667664,0.0481515
420,-671,0.136353,0.00378418,-0.00349006,-0.00756444,0.00274002,-0.00211289,-0.00894161,0.465736,0.00539646,0.0408698,1644,1695,0.136301,-0.00380305
427,-671,0.16394,0.236572,-0.00478754,-0.0104926,0.00409926,-0.00264598,-0.0126341,0.481428,0.00769394,0.0459549,1651,1695,0.163881,-0.236584
434,-671,0.316528,-0.0352783,-0.00650615,-0.0135387,0.00569269,-0.00333133,-0.0167135,0.508737,0.0102146,0.0444787,1658,1695,0.316572,0.0352367
441,-671,0.0466309,0.219849,-0.00885973,-0.0166418,0.00838571,-0.0035063,-0.0219953,0.568177,0.0136457,0.0455209,1665,1695,0.0466474,-0.219804
448,-671,-0.0727539,-0.175537,-0.0123678,-0.018331,0.0119653,-0.0030182,-0.0276806,0.66329,0.0175345,0.0477062,1672,1695,-0.0728017,0.175537
455,-671,-0.30188,-0.200928,0,0,0,0,0,0,0,-1,1679,1695,-0.301838,0.200977
462,-671,-0.162964,0.228394,-0.0241246,-0.0192494,0.020839,-0.000705911,-0.0426681,0.843621,0.028213,0.0404719,1686,1695,-0.163,-0.228398
469,-671,-0.485596,0.805542,-0.0299139,-0.0164952,0.0275772,0.00517713,-0.0515862,0.904727,0.03624,0.0454394,1693,1695,-0.485564,-0.805516
476,-671,-0.721069,1.1366,-0.0349096,-0.0127601,0.0352674,0.0131305,-0.0608002,0.937533,0.0455457,0.0462144,1700,1695,-0.721119,-1.13663
483,-671,-0.928955,1.18237,0,0,0,0,0,0,0,-1,1707,1695,-0.92893,-1.18237
490,-671,0,0,0,0,0,0,0,0,0,-1,1714,1695,0,0
497,-671,0,0,0,0,0,0,0,0,0,-1,1721,1695,0,0
504,-671,0,0,0,0,0,0,0,0,0,-1,1728,1695,0,0
511,-671,0,0,0,0,0,0,0,0,0,-1,1735,1695,0,0
518,-671,0,0,0,0,0,0,0,0,0,-1,1742,1695,0,0
525,-671,0,0,0,0,0,0,0,0,0,-1,1749,1695,0,0
532,-671,0,0,0,0,0,0,0,0,0,-1,1756,1695,0,0
539,-671,0,0,0,0,0,0,0,0,0,-1,1763,1695,0,0
546,-671,0,0,0,0,0,0,0,0,0,-1,1770,1695,0,0
553,-671,0,0,0,0,0,0,0,0,0,-1,1777,1695,0,0
560,-671,0,0,0,0,0,0,0,0,0,-1,1784,1695,0,0
567,-671,0,0,0,0,0,0,0,0,0,-1,1791,1695,0,0
574,-671,0,0,0,0,0,0,0,0,0,-1,1798,1695,0,0
581,-671,0,0,0,0,0,0,0,0,0,-1,1805,1695,0,0
588,-671,0,0,0,0,0,0,0,0,0,-1,1812,1695,0,0
595,-671,0,0,0,0,0,0,0,0,0,-1,1819,1695,0,0
602,-671,0,0,0,0,0,0,0,0,0,-1,1826,1695,0,0
609,-671,0,0,0,0,0,0,0,0,0,-1,1833,1695,0,0
616,-671,0,0,0,0,0,0,0,0,0,-1,1840,1695,0,0
623,-671,0,0,0,0,0,0,0,0,0,-1,1847,1695,0,0
630,-671,0,0,0,0,0,0,0,0,0,-1,1854,1695,0,0
637,-671,0,0,0,0,0,0,0,0,0,-1,1861,1695,0,0
644,-671,0,0,0,0,0,0,0,0,0,-1,1868,1695,0,0
651,-671,0,0,0,0,0,0,0,0,0,-1,1875,1695,0,0
658,-671,0,0,0,0,0,0,0,0,0,-1,1882,1695,0,0
665,-671,0,0,0,0,0,0,0,0,0,-1,1889,1695,0,0
672,-671,0,0,0,0,0,0,0,0,0,-1,1896,1695,0,0
679,-671,0,0,0,0,0,0,0,0,0,-1,1903,1695,0,0
686,-671,0,0,0,0,0,0,0,0,0,-1,1910,1695,0,0
693,-671,0,0,0,0,0,0,0,0,0,-1,1917,1695,0,0
700,-671,0,0,0,0,0,0,0,0,0,-1,1924,1695,0,0
707,-671,0,0,0,0,0,0,0,0,0,-1,1931,1695,0,0
714,-671,0,0,0,0,0,0,0,0,0,-1,1938,1695,0,0
721,-671,0,0,0,0,0,0,0,0,0,-1,1945,1695,0,0
728,-671,0,0,0,0,0,0,0,0,0,-1,1952,1695,0,0
735,-671,0,0,0,0,0,0,0,0,0,-1,1959,1695,0,0
742,-671,0,0,0,0,0,0,0,0,0,-1,1966,1695,0,0
749,-671,0,0,0,0,0,0,0,0,0,-1,1973,1695,0,0
756,-671,0,0,0,0,0,0,0,0,0,-1,1980,1695,0,0
763,-671,0,0,0,0,0,0,0,0,0,-1,1987,1695,0,0
770,-671,0,0,0,0,0,0,0,0,0,-1,1994,1695,0,0
777,-671,0,0,0,0,0,0,0,0,0,-1,2001,1695,0,0
784,-671,0,0,0,0,0,0,0,0,0,-1,2008,1695,0,0
791,-671,0,0,0,0,0,0,0,0,0,-1,2015,1695,0,0
798,-671,0,0,0,0,0,0,0,0,0,-1,2022,1695,0,0
805,-671,0,0,0,0,0,0,0,0,0,-1,2029,1695,0,0
812,-671,0,0,0,0,0,0,0,0,0,-1,2036,1695,0,0
-700,-678,0,0,0,0,0,0,0,0,0,-1,524,1702,0,0
-693,-678,0,0,0,0,0,0,0,0,0,-1,531,1702,0,0
-686,-678,0,0,0,0,0,0,0,0,0,-1,538,1702,0,0
-679,-678,0,0,0,0,0,0,0,0,0,-1,545,1702,0,0
-672,-678,0,0,0,0,0,0,0,0,0,-1,552,1702,0,0
-665,-678,0,0,0,0,0,0,0,0,0,-1,559,1702,0,0
-658,-678,0,0,0,0,0,0,0,0,0,-1,566,1702,0,0
-651,-678,0,0,0,0,0,0,0,0,0,-1,573,1702,0,0
-644,-678,0,0,0,0,0,0,0,0,0,-1,580,1702,0,0
-637,-678,0,0,0,0,0,0,0,0,0,-1,587,1702,0,0
-630,-678,0,0,0,0,0,0,0,0,0,-1,594,1702,0,0
-623,-678,0,0,0,0,0,0,0,0,0,-1,601,1702,0,0
-616,-678,0,0,0,0,0,0,0,0,0,-1,608,1702,0,0
-609,-678,0,0,0,0,0,0,0,0,0,-1,615,1702,0,0
-602,-678,0,0,0,0,0,0,0,0,0,-1,622,1702,0,0
-595,-678,0,0,0,0,0,0,0,0,0,-1,629,1702,0,0
-588,-678,0,0,0,0,0,0,0,0,0,-1,636,1702,0,0
-581,-678,0,0,0,0,0,0,0,0,0,-1,643,1702,0,0
-574,-678,0,0,0,0,0,0,0,0,0,-1,650,1702,0,0
-567,-678,0,0,0,0,0,0,0,0,0,-1,657,1702,0,0
-560,-678,0,0,0,0,0,0,0,0,0,-1,664,1702,0,0
-553,-678,0,0,0,0,0,0,0,0,0,-1,671,1702,0,0
-546,-678,0,0,0,0,0,0,0,0,0,-1,678,1702,0,0
-539,-678,0,0,0,0,0,0,0,0,0,-1,685,1702,0,0
-532,-678,0,0,0,0,0,0,0,0,0,-1,692,1702,0,0
-525,-678,0,0,0,0,0,0,0,0,0,-1,699,1702,0,0
-518,-678,0,0,0,0,0,0,0,0,0,-1,706,1702,0,0
-511,-678,0,0,0,0,0,0,0,0,0,-1,713,1702,0,0
-504,-678,0,0,0,0,0,0,0,0,0,-1,720,1702,0,0
-497,-678,0,0,0,0,0,0,0,0,0,-1,727,1702,0,0
-490,-678,0,0,0,0,0,0,0,0,0,-1,734,1702,0,0
-483,-678,0,0,0,0,0,0,0,0,0,-1,741,1702,0,0
-476,-678,0,0,0,0,0,0,0,0,0,-1,748,1702,0,0
-469,-678,0,0,0,0,0,0,0,0,0,-1,755,1702,0,0
-462,-678,0,0,0,0,0,0,0,0,0,-1,762,1702,0,0
-455,-678,0,0,0,0,0,0,0,0,0,-1,769,1702,0,0
-448,-678,0,0,0,0,0,0,0,0,0,-1,776,1702,0,0
-441,-678,0,0,0,0,0,0,0,0,0,-1,783,1702,0,0
-434,-678,0,0,0,0,0,0,0,0,0,-1,790,1702,0,0
-427,-678,0,0,0,0,0,0,0,0,0,-1,797,1702,0,0
-420,-678,0,0,0,0,0,0,0,0,0,-1,804,1702,0,0
-413,-678,0,0,0,0,0,0,0,0,0,-1,811,1702,0,0
-406,-678,0,0,0,0,0,0,0,0,0,-1,818,1702,0,0
-399,-678,0,0,0,0,0,0,0,0,0,-1,825,1702,0,0
-392,-678,0,0,0,0,0,0,0,0,0,-1,832,1702,0,0
-385,-678,0,0,0,0,0,0,0,0,0,-1,839,1702,0,0
-378,-678,0,0,0,0,0,0,0,0,0,-1,846,1702,0,0
-371,-678,0,0,0,0,0,0,0,0,0,-1,853,1702,0,0
-364,-678,0,0,0,0,0,0,0,0,0,-1,860,1702,0,0
-357,-678,0,0,0,0,0,0,0,0,0,-1,867,1702,0,0
-350,-678,-4.89514,2.39734,0.0956053,0.0204675,0.0774014,0.144074,-0.0280008,0.559457,0.106615,0.0447247,874,1702,-4.89514,-2.39734
-343,-678,-4.67596,2.80701,0.091807,0.018957,0.0660542,0.130814,-0.0200498,0.533424,0.0946032,0.0491499,881,1702,-4.67598,-2.80701
-336,-678,-4.32153,3.11633,0.0832517,0.0186148,0.0533454,0.113305,-0.0114383,0.513049,0.0796237,0.0436697,888,1702,-4.32153,-3.11638
-329,-678,0.858093,-1.71313,0,0,0,0,0,0,0,-1,895,1702,0.858068,1.71312
-322,-678,0.819519,-0.800049,0.0637373,0.0183952,0.0311463,0.0795898,0.00254267,0.470798,0.052233,0.0480493,902,1702,0.819517,0.800047
-315,-678,0.705933,-0.492065,0.0511351,0.0192443,0.0215295,0.061981,0.00839832,0.466659,0.0388252,0.0488684,909,1702,0.705904,0.492119
-308,-678,0.400635,0.0643311,0,0,0,0,0,0,0,-1,916,1702,0.400623,-0.0643048
-301,-678,0.210693,0.0567627,0.0278208,0.0167159,0.00567282,0.0302062,0.0143304,0.398061,0.0174472,0.0468736,923,1702,0.210689,-0.0567797
-294,-678,-0.0332642,0.148315,0.0188856,0.014272,0.000774774,0.0190122,0.0141453,0.162014,0.0114041,0.0468301,930,1702,-0.0332929,-0.148265
-287,-678,-0.26532,-0.0368652,0.0123686,0.0109803,-0.00238415,0.0141576,0.0091913,-0.643732,0.00829434,0.0427564,937,1702,-0.265334,0.0368692
-280,-678,-0.244751,-0.238525,0.0082485,0.00686291,-0.00392929,0.0115456,0.00356581,-0.698137,0.00682631,0.0425709,944,1702,-0.24478,0.238491
-273,-678,-0.280029,-0.185303,0.00275546,0.00380638,-0.00416938,0.00748328,-0.000921438,-0.848082,0.00532265,0.0384373,951,1702,-0.280008,0.185259
-266,-678,-0.172974,-0.043335,0.00359031,0.000664675,-0.00333531,0.00576949,-0.0015145,-0.578738,0.00443815,0.0332671,958,1702,-0.172964,0.043341
-259,-678,-0.0921631,-0.0405273,0.00406771,-0.00220882,-0.00248436,0.00493204,-0.00307314,-0.33481,0.00466315,0.0216115,965,1702,-0.0921335,0.0404677
-252,-678,-0.00360107,-0.0843506,0.00434418,-0.00489044,-0.00158259,0.00460787,-0.00515413,-0.165102,0.00563904,0.0178023,972,1702,-0.00361563,0.0844026
-245,-678,0.00354004,-0.0849609,0.00452059,-0.00548645,-0.000907879,0.00460229,-0.00556815,-0.0897476,0.00588072,0.017541,979,1702,0.0035137,0.0849075
-238,-678,-0.00909424,-0.0695801,0.00437255,-0.00592442,-0.00012601,0.00437409,-0.00592596,-0.0122351,0.00596919,0.0137292,986,1702,-0.00909926,0.0695734
-231,-678,-0.0231323,-0.0552979,0.00413066,-0.00599613,0.000615046,0.00416787,-0.00603335,0.0604384,0.00592241,0.0119191,993,1702,-0.0231153,0.0552805
-224,-678,-0.0344238,-0.0773926,0.00363182,-0.00541459,0.000943513,0.00372917,-0.00551195,0.102823,0.00536836,0.012984,1000,1702,-0.034448,0.0774503
-217,-678,-0.026001,-0.0909424,0.00281954,-0.00478066,0.00110606,0.00297724,-0.00493835,0.141618,0.00461658,0.0130964,1007,1702,-0.0260259,0.0909037
-210,-678,-0.026001,-0.0727539,0.001765,-0.00425288,0.0010733,0.0019507,-0.00443857,0.171317,0.00378092,0.0131682,1014,1702,-0.0260123,0.0728033
-203,-678,-0.0465698,-0.0821533,0.000990111,-0.0025428,0.00123158,0.00137706,-0.00292975,0.304424,0.00253983,0.0168612,1021,1702,-0.0465498,0.0821602
-196,-678,-0.0402832,-0.0805664,0.000610231,-0.00131183,0.00111857,0.00112391,-0.00182551,0.430504,0.00171884,0.0170084,1028,1702,-0.0402933,0.0806141
-189,-678,-0.0135498,-0.0600586,0.00022634,-0.000630208,0.00093967,0.000830732,-0.0012346,0.571577,0.0012,0.00940608,1035,1702,-0.013541,0.0601073
-182,-678,-0.0183105,-0.0689697,-1.61922e-05,1.14815e-06,0.000854586,0.000847108,-0.000862152,0.790471,0.000986854,0.00839722,1042,1702,-0.0183134,0.0689311
-175,-678,-0.0186768,-0.0777588,-9.36004e-06,0.000578501,0.000668395,0.00101474,-0.000445599,0.992549,0.000864207,0.00958643,1049,1702,-0.0186602,0.0777461
-168,-678,-0.0239258,-0.0672607,0.000178916,0.000859466,0.000476583,0.00110478,-6.64008e-05,1.09542,0.000759624,0.00951974,1056,1702,-0.0239788,0.0673158
-161,-678,-0.0303955,-0.0584717,0.000337442,0.001048,0.000333515,0.00118002,0.000205428,1.19389,0.00072793,0.0082271,1063,1702,-0.0303699,0.0584187
-154,-678,-0.0423584,-0.0765381,0.000451699,0.00101271,-8.18524e-05,0.00102441,0.00044,-1.42884,0.000593399,0.00780406,1070,1702,-0.042342,0.0765435
-147,-678,-0.0421143,-0.0987549,0.000711733,0.00117559,-0.000546994,0.0015378,0.000349531,-0.985914,0.000930825,0.00943254,1077,1702,-0.0421489,0.0987804
-140,-678,-0.0338135,-0.0737305,0.000845749,0.00119567,-0.00102971,0.00206517,-2.37531e-05,-0.869551,0.00138477,0.0105136,1084,1702,-0.0337581,0.0737031
-133,-678,-0.0258789,-0.0708008,0.000978038,0.00120534,-0.00144066,0.00253683,-0.00035345,-0.82476,0.00182051,0.0114735,1091,1702,-0.0258354,0.0707613
-126,-678,-0.0142822,-0.0740967,0.000722892,0.00156127,-0.00194703,0.00313372,-0.000849557,-0.891429,0.00242251,0.00839839,1098,1702,-0.0142916,0.0741277
-119,-678,-0.0186768,-0.0766602,0.000287112,0.00174898,-0.00246543,0.00358954,-0.00155345,-0.929507,0.00304589,0.0147566,1105,1702,-0.0186944,0.0766195
-112,-678,0.0045166,-0.074707,-0.000383975,0.0017517,-0.00312972,0.00399074,-0.00262301,-0.949802,0.00384557,0.0197337,1112,1702,0.00449574,0.074671
-105,-678,-0.0227051,-0.0748291,-0.000972395,0.00153353,-0.00390441,0.00438109,-0.00381996,-0.940662,0.00473857,0.0201244,1119,1702,-0.0226849,0.0748606
-98,-678,-0.0333252,-0.0871582,-0.0011977,0.000949652,-0.00441941,0.00442394,-0.00467199,-0.904562,0.00525219,0.0149611,1126,1702,-0.0332754,0.0871267
-91,-678,-0.0168457,-0.0942383,-0.00112163,0.000937098,-0.00449577,0.00451985,-0.00470438,-0.897939,0.00532596,0.0146608,1133,1702,-0.0168227,0.094289
-84,-678,0.0251465,-0.0974121,-0.000884001,0.00106412,-0.00428064,0.00448013,-0.00430001,-0.897269,0.00506957,0.0218731,1140,1702,0.0251982,0.097471
-77,-678,0.0699463,-0.0899658,-0.000441103,0.00106116,-0.00412284,0.00450073,-0.00388067,-0.875504,0.00484342,0.028232,1147,1702,0.0699658,0.0900246
-70,-678,0.0438232,-0.036377,0.000304467,0.00141035,-0.00365516,0.00455416,-0.00283934,-0.860467,0.00430674,0.0279885,1154,1702,0.0438513,0.0364168
-63,-678,-0.00390625,0.0151367,0.00140758,0.00187499,-0.00303043,0.00468071,-0.00139814,-0.823881,0.00367624,0.0329196,1161,1702,-0.00394401,-0.0151306
-56,-678,-0.0859375,-0.0805664,0.00298758,0.00245793,-0.00243405,0.00517117,0.000274341,-0.731211,0.00335973,0.036049,1168,1702,-0.0859073,0.0805973
-49,-678,-0.22998,-0.174194,0.00561104,0.00366373,-0.00153793,0.00645761,0.00281716,-0.503198,0.00373839,0.0430008,1175,1702,-0.229921,0.174168
-42,-678,-0.175415,-0.399658,0.0085087,0.00496119,-0.000695191,0.00864007,0.00482982,-0.186766,0.00499991,0.0450919,1182,1702,-0.175393,0.399623
-35,-678,0.0523682,-0.360107,0.0111905,0.00581164,0.000329602,0.0112106,0.00579152,0.0609737,0.00647362,0.0446683,1189,1702,0.0523479,0.360135
-28,-678,0.109375,-0.215576,0.0132195,0.00621159,0.00113176,0.0133978,0.00603335,0.156208,0.00774792,0.0452643,1196,1702,0.109436,0.215616
-21,-678,0.0512695,-0.305054,0.0146727,0.00578701,0.00218212,0.0151797,0.00528006,0.228273,0.00889824,0.0422708,1203,1702,0.051254,0.305037
-14,-678,-0.0633545,-0.241455,0.0156348,0.00580939,0.00285095,0.0164021,0.00504207,0.262913,0.00970111,0.0387488,1210,1702,-0.0633534,0.241422
-7,-678,-1.1134,0.127686,0,0,0,0,0,0,0,-1,1217,1702,-1.11338,-0.127673
0,-678,-0.0933838,0.0865479,0.0154165,0.00436069,0.00329189,0.0163225,0.00345476,0.268553,0.00993239,0.0434176,1224,1702,-0.0933797,-0.0865442
7,-678,0.282715,0.24585,0.0134026,0.00227967,0.00221472,0.0138274,0.00185491,0.189488,0.00866637,0.0451177,1231,1702,0.282675,-0.245869
14,-678,0.633789,0.0802002,0.0105467,4.77028e-05,0.000960525,0.0106339,-3.94494e-05,0.090486,0.00710245,0.0447432,1238,1702,0.633821,-0.0801744
21,-678,0.739502,-0.0665283,0.0072069,-0.00128524,-0.000647623,0.007256,-0.00133434,-0.0756783,0.005338,0.0448073,1245,1702,0.739457,0.0665566
28,-678,0.443237,0.0733643,0.00281276,-0.000695703,-0.00265151,0.00423781,-0.00212075,-0.493155,0.00373833,0.0477082,1252,1702,0.443181,-0.0733484
35,-678,0.425415,0.196777,-0.00218177,0.0002533,-0.00511236,0.0042911,-0.00621958,-0.902298,0.0061023,0.0440195,1259,1702,0.42545,-0.196733
42,-678,0.3573,0.0870361,0,0,0,0,0,0,0,-1,1266,1702,0.357324,-0.0870261
49,-678,-0.126953,0.376343,0,0,0,0,0,0,0,-1,1273,1702,-0.126972,-0.3764
56,-678,-0.5802,0.589478,0,0,0,0,0,0,0,-1,1280,1702,-0.580246,-0.589478
63,-678,-0.900269,-0.0875244,-0.0159553,0.00430381,-0.00518812,0.00555514,-0.0172066,-1.33413,0.0137034,0.0460916,1287,1702,-0.900295,0.0875409
70,-678,-0.789185,-0.270142,0,0,0,0,0,0,0,-1,1294,1702,-0.78921,0.270135
77,-678,-0.521484,-7.45898,0,0,0,0,0,0,0,-1,1301,1702,-0.521523,7.45893
84,-678,0.336304,-0.00476074,0,0,0,0,0,0,0,-1,1308,1702,0.336305,0.00478181
91,-678,0.436035,-0.530884,0,0,0,0,0,0,0,-1,1315,1702,0.436025,0.530831
98,-678,0.0244141,-0.35791,-0.0168889,0.0175309,0.016144,0.0239178,-0.0232758,1.19407,0.0272481,0.0422016,1322,1702,0.0243972,0.35788
105,-678,-0.0762939,-0.245361,-0.0132929,0.0197928,0.0206809,0.0297333,-0.0232334,1.12274,0.030657,0.0430631,1329,1702,-0.0762809,0.245403
112,-678,2.02478,-1.23718,-0.0100246,0.0196852,0.0243838,0.0333826,-0.023722,1.05898,0.0331263,0.0420946,1336,1702,2.02482,1.23722
119,-678,1.25574,-1.09033,-0.00778549,0.0183395,0.0254225,0.033859,-0.023305,1.02272,0.0331906,0.0443724,1343,1702,1.25578,1.0903
126,-678,0.984375,-0.443359,-0.0055964,0.0154166,0.0242962,0.0313807,-0.0215605,0.989474,0.0307404,0.0446263,1350,1702,0.984328,0.4433
133,-678,0.600708,-0.0697021,-0.00308673,0.0120923,0.0226211,0.0283631,-0.0193575,0.947251,0.0277146,0.0476398,1357,1702,0.600667,0.0697285
140,-678,0.262329,0.0701904,-0.000843819,0.00946355,0.0196591,0.0246333,-0.0160136,0.91359,0.0236427,0.049304,1364,1702,0.262374,-0.0702135
147,-678,0.0324707,-0.16272,0.00126407,0.00716545,0.0164195,0.0208972,-0.0124677,0.874303,0.0194671,0.0456082,1371,1702,0.0324827,0.162682
154,-678,-0.235107,-0.390747,0.00283655,0.00418982,0.013374,0.0169043,-0.00987794,0.810673,0.0156391,0.0434672,1378,1702,-0.235166,0.390731
161,-678,-0.469971,-0.585938,0,0,0,0,0,0,0,-1,1385,1702,-0.469912,0.585988
168,-678,-0.0286865,-0.531128,0.00456375,-0.000431999,0.00748601,0.00995763,-0.00582588,0.62437,0.0092161,0.045075,1392,1702,-0.0286688,0.531078
175,-678,0.0644531,0.0544434,0.00624299,-0.00372535,0.00527453,0.00851573,-0.00599808,0.406847,0.00842147,0.0439108,1399,1702,0.064512,-0.0544638
182,-678,-0.00671387,0.103394,0.00745754,-0.00616681,0.00404147,0.00856617,-0.00727544,0.267729,0.00915627,0.0422193,1406,1702,-0.00669425,-0.103437
189,-678,0.0196533,-0.032959,0.00757856,-0.00639112,0.00291435,0.00816217,-0.00697473,0.197639,0.00874825,0.0394403,1413,1702,0.0196461,0.0330021
196,-678,-0.122437,-0.177612,0.00650277,-0.00597767,0.00225407,0.0068974,-0.0063723,0.173316,0.00766326,0.0339951,1420,1702,-0.122483,0.177606
203,-678,-0.0162354,-0.0611572,0.00580958,-0.00436077,0.00198174,0.00618209,-0.00473328,0.185802,0.00632047,0.032203,1427,1702,-0.0161975,0.0611394
210,-678,0.0140381,-0.0310059,0.00480676,-0.00373665,0.00163129,0.00510765,-0.00403753,0.182395,0.00529201,0.03306,1434,1702,0.0140751,0.0310075
217,-678,0.0296631,-0.0673828,0.00381314,-0.000738228,0.00169607,0.00437566,-0.00130075,0.320244,0.00343382,0.0330854,1441,1702,0.0296949,0.0673627
224,-678,-0.0274658,-0.0948486,0.00329226,0.00118111,0.00162023,0.00417043,0.000302941,0.496684,0.00268501,0.0250686,1448,1702,-0.0275203,0.0948217
231,-678,-0.0311279,-0.0963135,0.00290907,0.00267271,0.0016092,0.00440443,0.00117735,0.748744,0.00263309,0.0190297,1455,1702,-0.031125,0.0962886
238,-678,-0.0324707,-0.0814209,0.00247832,0.00364393,0.00172535,0.00488225,0.00124,0.948275,0.0029303,0.0150927,1462,1702,-0.0324359,0.0813873
245,-678,-0.0090332,-0.0620117,0.00192745,0.00395317,0.00175727,0.00496858,0.00091204,1.04683,0.00305411,0.0118816,1469,1702,-0.00898166,0.0620671
252,-678,-0.0151367,-0.0661621,0.0013345,0.0036896,0.00180618,0.00466819,0.000355919,1.07427,0.00300053,0.00928214,1476,1702,-0.0150811,0.0661931
259,-678,-0.0217285,-0.0841064,0.00088617,0.00286628,0.0020126,0.00411916,-0.000366715,1.01398,0.00287615,0.0091506,1483,1702,-0.0217467,0.08408
266,-678,-0.00366211,-0.0942383,0.000520708,0.00190418,0.00201703,0.00334479,-0.000919901,0.950588,0.0025915,0.00898804,1490,1702,-0.00366239,0.0942279
273,-678,-0.0108643,-0.0847168,0.000392077,0.00140473,0.00172635,0.00269748,-0.000900668,0.928045,0.00216201,0.00914972,1497,1702,-0.0109133,0.0846785
280,-678,-0.0300293,-0.0754395,0.000469867,0.00110927,0.00129245,0.00212098,-0.000541837,0.906645,0.00162499,0.0102315,1504,1702,-0.02999,0.0753991
287,-678,-0.0333252,-0.0910645,0.000466371,0.000783625,0.000703556,0.00134621,-9.62188e-05,0.896276,0.000931208,0.0111203,1511,1702,-0.0333379,0.0910732
294,-678,-0.0362549,-0.0864258,0.000881351,0.000589632,0.000357477,0.00112158,0.000349403,0.591695,0.000662702,0.0117632,1518,1702,-0.0362148,0.0864021
301,-678,-0.0407715,-0.0771484,0.00173017,0.000479219,7.64079e-05,0.00173482,0.00047457,0.0607787,0.00103527,0.0115455,1525,1702,-0.0407441,0.0771302
308,-678,-0.0200195,-0.0841064,0.00194804,0.000488142,-0.00037265,0.00203766,0.000398522,-0.236012,0.00124701,0.0117224,1532,1702,-0.0200123,0.0840841
315,-678,0.0057373,-0.0639648,0.0020711,0.000745989,-0.000736538,0.00239924,0.000417855,-0.419113,0.00148,0.0130188,1539,1702,0.00574103,0.0639339
322,-678,-0.0216064,-0.0548096,0.00231117,0.00117539,-0.00110937,0.00298955,0.000497005,-0.548835,0.00184976,0.0157673,1546,1702,-0.0216324,0.0548527
329,-678,-0.0286865,-0.0501709,0.00252824,0.00153669,-0.000990073,0.00313973,0.000925201,-0.553276,0.00186298,0.0132252,1553,1702,-0.0286785,0.0501809
336,-678,-0.020874,-0.0653076,0.00232291,0.0017152,-0.000948726,0.00301525,0.00102285,-0.63042,0.0017706,0.0116084,1560,1702,-0.0208857,0.0653244
343,-678,-0.0192871,-0.076416,0.00188794,0.00185369,-0.00103519,0.00290615,0.000835485,-0.777127,0.00172764,0.0107738,1567,1702,-0.0193073,0.0764087
350,-678,-0.0175781,-0.081543,0.00143171,0.00191438,-0.000926972,0.00263092,0.000715172,-0.912746,0.00157079,0.0100837,1574,1702,-0.0176286,0.0815303
357,-678,-0.000732422,-0.0855713,0.00106724,0.00191386,-0.000599141,0.00222415,0.000756955,-1.09295,0.00130575,0.00839131,1581,1702,-0.000735246,0.0855668
364,-678,-0.0213623,-0.0837402,0.000741744,0.00192528,-0.000369967,0.00203141,0.000635612,-1.29143,0.0011999,0.0104612,1588,1702,-0.0213615,0.0837578
371,-678,-0.0341797,-0.0704346,0.000317278,0.002006,-7.52887e-05,0.00200935,0.000313928,-1.52633,0.00124816,0.0116852,1595,1702,-0.0342047,0.0704495
378,-678,-0.0334473,-0.0604248,-5.67107e-05,0.00142435,0.000272923,0.00147304,-0.000105403,1.39424,0.00101898,0.0126002,1602,1702,-0.0333921,0.0604102
385,-678,-0.0319824,-0.0646973,-0.000533286,0.000590593,0.000478823,0.000766926,-0.00070962,1.21794,0.000852698,0.0133715,1609,1702,-0.0319996,0.0647267
392,-678,0.0452881,-0.0366211,-0.0012296,-0.000289704,0.000779551,0.000150595,-0.0016699,1.05665,0.00116671,0.0228666,1616,1702,0.0452323,0.0366763
399,-678,0.123901,-0.076416,-0.00174574,-0.00149679,0.00073776,-0.000873078,-0.00236945,0.868973,0.00138369,0.0317722,1623,1702,0.123841,0.0763561
406,-678,0.0184326,-0.0952148,-0.00219248,-0.00346822,0.000992669,-0.0016504,-0.00401029,0.499827,0.00232739,0.0359661,1630,1702,0.0184364,0.0952663
413,-678,0.208374,0.150513,-0.00292685,-0.00501781,0.001726,-0.00195439,-0.00599027,0.513089,0.00352739,0.0381741,1637,1702,0.208401,-0.150459
420,-678,0.0421143,0.340454,-0.00426984,-0.00776753,0.00305309,-0.00250019,-0.00953718,0.525305,0.00571019,0.0428765,1644,1702,0.0420717,-0.340399
427,-678,-0.173706,0.515381,-0.00581061,-0.0113422,0.0046206,-0.00319128,-0.0139615,0.515711,0.00844731,0.0406568,1651,1702,-0.173726,-0.515425
434,-678,0.19812,0.285522,-0.00775899,-0.0152169,0.00650741,-0.00398784,-0.018988,0.525222,0.011561,0.0433917,1658,1702,0.1981,-0.285563
441,-678,0.0175781,0.49353,-0.0102655,-0.0192752,0.00972046,-0.00405678,-0.0254839,0.568412,0.0158115,0.0472594,1665,1702,0.0175692,-0.493555
448,-678,-0.317139,0.257568,-0.0139961,-0.0219217,0.0140354,-0.0033748,-0.032543,0.647807,0.0206624,0.0468451,1672,1702,-0.317179,-0.257613
455,-678,-0.119263,-0.374512,-0.0200343,-0.0234551,0.0189937,-0.00267409,-0.0408153,0.740494,0.0263641,0.0417156,1679,1702,-0.119273,0.374549
462,-678,-0.310425,0.0819092,-0.0269476,-0.0252559,0.0249181,-0.00116931,-0.0510342,0.802364,0.0336398,0.0420723,1686,1702,-0.310453,-0.081866
469,-678,-0.757813,0.99707,-0.0340582,-0.024516,0.0331147,0.00416949,-0.0627438,0.856945,0.043286,0.0436464,1693,1702,-0.757787,-0.997075
476,-678,0,0,0,0,0,0,0,0,0,-1,1700,1702,0,0
483,-678,0,0,0,0,0,0,0,0,0,-1,1707,1702,0,0
490,-678,0,0,0,0,0,0,0,0,0,-1,1714,1702,0,0
497,-678,0,0,0,0,0,0,0,0,0,-1,1721,1702,0,0
504,-678,0,0,0,0,0,0,0,0,0,-1,1728,1702,0,0
511,-678,0,0,0,0,0,0,0,0,0,-1,1735,1702,0,0
518,-678,0,0,0,0,0,0,0,0,0,-1,1742,1702,0,0
525,-678,0,0,0,0,0,0,0,0,0,-1,1749,1702,0,0
532,-678,0,0,0,0,0,0,0,0,0,-1,1756,1702,0,0
539,-678,0,0,0,0,0,0,0,0,0,-1,1763,1702,0,0
546,-678,0,0,0,0,0,0,0,0,0,-1,1770,1702,0,0
553,-678,0,0,0,0,0,0,0,0,0,-1,1777,1702,0,0
560,-678,0,0,0,0,0,0,0,0,0,-1,1784,1702,0,0
567,-678,0,0,0,0,0,0,0,0,0,-1,1791,1702,0,0
574,-678,0,0,0,0,0,0,0,0,0,-1,1798,1702,0,0
581,-678,0,0,0,0,0,0,0,0,0,-1,1805,1702,0,0
588,-678,0,0,0,0,0,0,0,0,0,-1,1812,1702,0,0
595,-678,0,0,0,0,0,0,0,0,0,-1,1819,1702,0,0
602,-678,0,0,0,0,0,0,0,0,0,-1,1826,1702,0,0
609,-678,0,0,0,0,0,0,0,0,0,-1,1833,1702,0,0
616,-678,0,0,0,0,0,0,0,0,0,-1,1840,1702,0,0
623,-678,0,0,0,0,0,0,0,0,0,-1,1847,1702,0,0
630,-678,0,0,0,0,0,0,0,0,0,-1,1854,1702,0,0
637,-678,0,0,0,0,0,0,0,0,0,-1,1861,1702,0,0
644,-678,0,0,0,0,0,0,0,0,0,-1,1868,1702,0,0
651,-678,0,0,0,0,0,0,0,0,0,-1,1875,1702,0,0
658,-678,0,0,0,0,0,0,0,0,0,-1,1882,1702,0,0
665,-678,0,0,0,0,0,0,0,0,0,-1,1889,1702,0,0
672,-678,0,0,0,0,0,0,0,0,0,-1,1896,1702,0,0
679,-678,0,0,0,0,0,0,0,0,0,-1,1903,1702,0,0
686,-678,0,0,0,0,0,0,0,0,0,-1,1910,1702,0,0
693,-678,0,0,0,0,0,0,0,0,0,-1,1917,1702,0,0
700,-678,0,0,0,0,0,0,0,0,0,-1,1924,1702,0,0
707,-678,0,0,0,0,0,0,0,0,0,-1,1931,1702,0,0
714,-678,0,0,0,0,0,0,0,0,0,-1,1938,1702,0,0
721,-678,0,0,0,0,0,0,0,0,0,-1,1945,1702,0,0
728,-678,0,0,0,0,0,0,0,0,0,-1,1952,1702,0,0
735,-678,0,0,0,0,0,0,0,0,0,-1,1959,1702,0,0
742,-678,0,0,0,0,0,0,0,0,0,-1,1966,1702,0,0
749,-678,0,0,0,0,0,0,0,0,0,-1,1973,1702,0,0
756,-678,0,0,0,0,0,0,0,0,0,-1,1980,1702,0,0
763,-678,0,0,0,0,0,0,0,0,0,-1,1987,1702,0,0
770,-678,0,0,0,0,0,0,0,0,0,-1,1994,1702,0,0
777,-678,0,0,0,0,0,0,0,0,0,-1,2001,1702,0,0
784,-678,0,0,0,0,0,0,0,0,0,-1,2008,1702,0,0
791,-678,0,0,0,0,0,0,0,0,0,-1,2015,1702,0,0
798,-678,0,0,0,0,0,0,0,0,0,-1,2022,1702,0,0
805,-678,0,0,0,0,0,0,0,0,0,-1,2029,1702,0,0
812,-678,0,0,0,0,0,0,0,0,0,-1,2036,1702,0,0
-700,-685,0,0,0,0,0,0,0,0,0,-1,524,1709,0,0
-693,-685,0,0,0,0,0,0,0,0,0,-1,531,1709,0,0
-686,-685,0,0,0,0,0,0,0,0,0,-1,538,1709,0,0
-679,-685,0,0,0,0,0,0,0,0,0,-1,545,1709,0,0
-672,-685,0,0,0,0,0,0,0,0,0,-1,552,1709,0,0
-665,-685,0,0,0,0,0,0,0,0,0,-1,559,1709,0,0
-658,-685,0,0,0,0,0,0,0,0,0,-1,566,1709,0,0
-651,-685,0,0,0,0,0,0,0,0,0,-1,573,1709,0,0
-644,-685,0,0,0,0,0,0,0,0,0,-1,580,1709,0,0
-637,-685,0,0,0,0,0,0,0,0,0,-1,587,1709,0,0
-630,-685,0,0,0,0,0,0,0,0,0,-1,594,1709,0,0
-623,-685,0,0,0,0,0,0,0,0,0,-1,601,1709,0,0
-616,-685,0,0,0,0,0,0,0,0,0,-1,608,1709,0,0
-609,-685,0,0,0,0,0,0,0,0,0,-1,615,1709,0,0
-602,-685,0,0,0,0,0,0,0,0,0,-1,622,1709,0,0
-595,-685,0,0,0,0,0,0,0,0,0,-1,629,1709,0,0
-588,-685,0,0,0,0,0,0,0,0,0,-1,636,1709,0,0
-581,-685,0,0,0,0,0,0,0,0,0,-1,643,1709,0,0
-574,-685,0,0,0,0,0,0,0,0,0,-1,650,1709,0,0
-567,-685,0,0,0,0,0,0,0,0,0,-1,657,1709,0,0
-560,-685,0,0,0,0,0,0,0,0,0,-1,664,1709,0,0
-553,-685,0,0,0,0,0,0,0,0,0,-1,671,1709,0,0
-546,-685,0,0,0,0,0,0,0,0,0,-1,678,1709,0,0
-539,-685,0,0,0,0,0,0,0,0,0,-1,685,1709,0,0
-532,-685,0,0,0,0,0,0,0,0,0,-1,692,1709,0,0
-525,-685,0,0,0,0,0,0,0,0,0,-1,699,1709,0,0
-518,-685,0,0,0,0,0,0,0,0,0,-1,706,1709,0,0
-511,-685,0,0,0,0,0,0,0,0,0,-1,713,1709,0,0
-504,-685,0,0,0,0,0,0,0,0,0,-1,720,1709,0,0
-497,-685,0,0,0,0,0,0,0,0,0,-1,727,1709,0,0
-490,-685,0,0,0,0,0,0,0,0,0,-1,734,1709,0,0
-483,-685,0,0,0,0,0,0,0,0,0,-1,741,1709,0,0
-476,-685,0,0,0,0,0,0,0,0,0,-1,748,1709,0,0
-469,-685,0,0,0,0,0,0,0,0,0,-1,755,1709,0,0
-462,-685,0,0,0,0,0,0,0,0,0,-1,762,1709,0,0
-455,-685,0,0,0,0,0,0,0,0,0,-1,769,1709,0,0
-448,-685,0,0,0,0,0,0,0,0,0,-1,776,1709,0,0
-441,-685,0,0,0,0,0,0,0,0,0,-1,783,1709,0,0
-434,-685,0,0,0,0,0,0,0,0,0,-1,790,1709,0,0
-427,-685,0,0,0,0,0,0,0,0,0,-1,797,1709,0,0
-420,-685,0,0,0,0,0,0,0,0,0,-1,804,1709,0,0
-413,-685,0,0,0,0,0,0,0,0,0,-1,811,1709,0,0
-406,-685,0,0,0,0,0,0,0,0,0,-1,818,1709,0,0
-399,-685,0,0,0,0,0,0,0,0,0,-1,825,1709,0,0
-392,-685,0,0,0,0,0,0,0,0,0,-1,832,1709,0,0
-385,-685,0,0,0,0,0,0,0,0,0,-1,839,1709,0,0
-378,-685,0,0,0,0,0,0,0,0,0,-1,846,1709,0,0
-371,-685,0,0,0,0,0,0,0,0,0,-1,853,1709,0,0
-364,-685,0,0,0,0,0,0,0,0,0,-1,860,1709,0,0
-357,-685,0,0,0,0,0,0,0,0,0,-1,867,1709,0,0
-350,-685,0,0,0,0,0,0,0,0,0,-1,874,1709,0,0
-343,-685,-5.9469,2.62415,0,0,0,0,0,0,0,-1,881,1709,-5.94687,-2.62413
-336,-685,-5.70892,2.94727,0.117067,0.0278222,0.0607644,0.147833,-0.00294419,0.468693,0.0995516,0.0478526,888,1709,-5.70895,-2.94723
-329,-685,-5.06616,3.32141,0.101419,0.0279179,0.0465217,0.123955,0.00538205,0.451102,0.0809022,0.048203,895,1709,-5.06614,-3.32146
-322,-685,0.848633,-0.794067,0,0,0,0,0,0,0,-1,902,1709,0.848602,0.794084
-315,-685,0.76355,-0.522827,0,0,0,0,0,0,0,-1,909,1709,0.763532,0.522827
-308,-685,0.33374,4.11633,0,0,0,0,0,0,0,-1,916,1709,0.333764,-4.11639
-301,-685,0.106018,0.146851,0,0,0,0,0,0,0,-1,923,1709,0.105988,-0.146876
-294,-685,-0.190369,0.241821,0,0,0,0,0,0,0,-1,930,1709,-0.190366,-0.241852
-287,-685,-0.301025,-0.0617676,0.0170555,0.0145066,-0.00390056,0.0198846,0.0116776,-0.627499,0.0115385,0.0464708,937,1709,-0.301001,0.0618168
-280,-685,-0.345215,-0.31543,0.0118939,0.00874422,-0.00531268,0.0158602,0.00477787,-0.641309,0.00939496,0.0446809,944,1709,-0.345238,0.315455
-273,-685,-0.342834,-0.126587,0.0051318,0.00422703,-0.00515654,0.00985576,-0.000496927,-0.741645,0.00674226,0.0440362,951,1709,-0.342807,0.126562
-266,-685,-0.221985,-0.0628662,0.00632691,-0.000330764,-0.00373908,0.00800425,-0.00200811,-0.421688,0.00611643,0.0420802,958,1709,-0.221992,0.0628289
-259,-685,-0.0896606,-0.00549316,0.00709711,-0.0044268,-0.00230138,0.00753971,-0.0048694,-0.189999,0.00721948,0.0380778,965,1709,-0.0896516,0.00551798
-252,-685,0.0335693,-0.03479,0.00761778,-0.00819356,-0.000820771,0.00766027,-0.00823605,-0.051725,0.00917975,0.0337151,972,1709,0.0335714,0.0348468
-245,-685,0.0571899,-0.105469,0.00791105,-0.00916021,0.000279882,0.00791564,-0.0091648,0.016389,0.00987018,0.0313306,979,1709,0.0571751,0.105471
-238,-685,0.0535889,-0.083252,0.00782826,-0.00986251,0.00142343,0.00794206,-0.00997631,0.0797779,0.0103674,0.0229869,986,1709,0.053599,0.083257
-231,-685,0.00958252,-0.0335693,0.00766604,-0.00986083,0.00249367,0.00801392,-0.0102087,0.138613,0.0105463,0.0158747,993,1709,0.00955828,0.0335426
-224,-685,-0.00866699,-0.0509033,0.0070962,-0.00898334,0.00310218,0.00767393,-0.00956108,0.184126,0.0099705,0.0146397,1000,1709,-0.00865099,0.0508546
-217,-685,-0.0139771,-0.0792236,0.00606621,-0.00791406,0.00347169,0.00688086,-0.00872871,0.230484,0.00903322,0.0111627,1007,1709,-0.0139751,0.0792409
-210,-685,-0.0196533,-0.0889893,0.00463808,-0.00694404,0.00345254,0.00558915,-0.00789512,0.268805,0.007823,0.0140499,1014,1709,-0.0196635,0.0890333
-203,-685,-0.0348511,-0.0732422,0.0034495,-0.00435204,0.00361717,0.0048685,-0.00577104,0.373846,0.0061501,0.0137947,1021,1709,-0.0348283,0.0731867
-196,-685,-0.0340576,-0.0672607,0.00273324,-0.00236087,0.00341945,0.00445,-0.00407764,0.465293,0.004925,0.0122749,1028,1709,-0.0340902,0.0672342
-189,-685,-0.0167236,-0.0922852,0.00196249,-0.00102502,0.00310539,0.00391471,-0.00297724,0.561224,0.00399132,0.00814276,1035,1709,-0.0167747,0.0922406
-182,-685,-0.0245361,-0.0706787,0.00137173,-5.54924e-05,0.0028852,0.00363026,-0.00231402,0.664164,0.00345987,0.0116029,1042,1709,-0.0245943,0.0706225
-175,-685,-0.0230713,-0.0643311,0.00100543,0.000755054,0.00254256,0.00342588,-0.0016654,0.7608,0.00299746,0.0118405,1049,1709,-0.023066,0.0643207
-168,-685,-0.0244141,-0.0792236,0.0008334,0.00111511,0.00221032,0.00318906,-0.00124055,0.817218,0.00263863,0.0094112,1056,1709,-0.0244744,0.07923
-161,-685,-0.0291748,-0.0723877,0.000768825,0.00125596,0.00188835,0.00291639,-0.000891604,0.849536,0.00229981,0.00986377,1063,1709,-0.0291226,0.0723551
-154,-685,-0.0238037,-0.0526123,0.000648333,0.00136067,0.00130898,0.00236108,-0.000352071,0.918231,0.00170358,0.00892133,1070,1709,-0.0238605,0.0526502
-147,-685,-0.0252686,-0.0760498,0.000692143,0.00142969,0.000710781,0.00186167,0.000260164,1.0247,0.00116412,0.00836584,1077,1709,-0.0252983,0.0761022
-140,-685,-0.0375977,-0.0877686,0.000768262,0.00129152,0.000178955,0.00134686,0.000712914,1.27084,0.000778058,0.0106585,1084,1709,-0.0376252,0.0877169
-133,-685,-0.0222168,-0.0809326,0.000886501,0.00111591,-0.000310978,0.00133266,0.000669747,-0.962083,0.000769417,0.0103297,1091,1709,-0.0222537,0.0808847
-126,-685,-0.0117188,-0.0748291,0.000741291,0.00116243,-0.000886289,0.00186282,4.09021e-05,-0.902029,0.00122847,0.00879629,1098,1709,-0.0117415,0.0747823
-119,-685,-0.0272217,-0.074707,0.00050402,0.0012071,-0.00143444,0.00233245,-0.00062133,-0.905565,0.00179822,0.0116073,1105,1709,-0.027281,0.0747043
-112,-685,-0.019043,-0.0822754,0.000142222,0.00111876,-0.00201688,0.00270564,-0.00144465,-0.904159,0.00243276,0.0111291,1112,1709,-0.019077,0.0823238
-105,-685,-0.0224609,-0.10144,-0.000239878,0.000890061,-0.00263835,0.00302326,-0.00237307,-0.890874,0.0031231,0.00959725,1119,1709,-0.0224176,0.101485
-98,-685,-0.0157471,-0.0825195,-0.000472649,0.000422305,-0.00316008,0.00316643,-0.00321678,-0.855732,0.00368539,0.0125649,1126,1709,-0.0157255,0.0825027
-91,-685,-0.0161133,-0.0859375,-0.000501458,0.000464892,-0.00342784,0.00344344,-0.00348001,-0.855415,0.00399728,0.0151112,1133,1709,-0.0161554,0.0859985
-84,-685,-0.0178223,-0.10022,-0.000405779,0.000664733,-0.00342326,0.00359433,-0.00333537,-0.86295,0.0040018,0.013522,1140,1709,-0.0178674,0.100163
-77,-685,-0.00524902,-0.0544434,-0.00018666,0.000788593,-0.00343001,0.00376547,-0.00316353,-0.856007,0.00400549,0.0117294,1147,1709,-0.00524253,0.054446
-70,-685,0.00219727,-0.0479736,0.000271073,0.00120371,-0.00317222,0.0039437,-0.00246892,-0.858376,0.00373482,0.0128142,1154,1709,0.00224897,0.0479997
-63,-685,-0.0100098,-0.0736084,0.000930235,0.00168475,-0.00276259,0.00409572,-0.00148074,-0.853258,0.00333548,0.0174776,1161,1709,-0.010011,0.0736089
-56,-685,-0.0269775,-0.0922852,0.0019029,0.00228192,-0.00237928,0.00447923,-0.000294409,-0.825139,0.00308897,0.024949,1168,1709,-0.0269251,0.0922934
-49,-685,-0.0839844,-0.0952148,0.00380594,0.00333181,-0.00173051,0.00531555,0.0018222,-0.717326,0.00311908,0.0279888,1175,1709,-0.0839414,0.0951966
-42,-685,-0.0598145,-0.158203,0.00603433,0.00447094,-0.00102718,0.00654342,0.00396184,-0.460141,0.00380576,0.0289517,1182,1709,-0.0598675,0.158158
-35,-685,0.0567627,-0.122559,0.00813555,0.00521391,-0.000128739,0.00814122,0.00520825,-0.0439502,0.00476113,0.0316739,1189,1709,0.0567267,0.122609
-28,-685,0.072998,-0.115356,0.00977613,0.00555271,0.000664933,0.00987835,0.0054505,0.152525,0.00571344,0.0357599,1196,1709,0.0729906,0.115378
-21,-685,-0.0206299,-0.118042,0.0109861,0.00518613,0.00174225,0.0114692,0.00470302,0.270497,0.00665734,0.0316828,1203,1709,-0.0206362,0.118078
-14,-685,-0.0534668,-0.0914307,0.011931,0.00518201,0.0024763,0.0127421,0.0043709,0.316535,0.00747653,0.0239123,1210,1709,-0.0534944,0.0914808
-7,-685,-0.0882568,-0.0606689,0.0127722,0.00467338,0.0030508,0.0137928,0.00365277,0.322835,0.00825166,0.0378211,1217,1709,-0.0882026,0.0607045
0,-685,0.0244141,0.0318604,0.0121974,0.00388476,0.00327059,0.0133299,0.00275224,0.33335,0.00812606,0.0417672,1224,1709,0.024428,-0.0319173
7,-685,0.146973,0.147949,0.0108559,0.00213024,0.00264984,0.0115975,0.00138857,0.27291,0.00731292,0.037712,1231,1709,0.146961,-0.14795
14,-685,0.0999756,0.0526123,0.00883339,0.000275339,0.00184646,0.00921478,-0.000106051,0.203687,0.00617884,0.0390567,1238,1709,0.0999285,-0.0525642
21,-685,0.13916,-0.0397949,0.00639011,-0.000815928,0.000693778,0.00645629,-0.000882116,0.0951133,0.00462635,0.0376097,1245,1709,0.139214,0.0397909
28,-685,0.090332,-0.0770264,0.00323658,-0.000696367,-0.000825687,0.00340289,-0.00086268,-0.198764,0.00260423,0.0394851,1252,1709,0.0903155,0.0769799
35,-685,0.160034,0.0090332,-0.000245726,-0.000512236,-0.00272739,0.00235166,-0.00310962,-0.760989,0.00316318,0.0372366,1259,1709,0.160041,-0.00906542
42,-685,0.155029,0.0529785,-0.0039301,-0.000260731,-0.0041813,0.00247069,-0.00666152,-0.992142,0.00545441,0.0378398,1266,1709,0.155042,-0.0529294
49,-685,-0.043335,0.0294189,-0.00716931,0.000924861,-0.00551238,0.00371629,-0.00996074,-1.10205,0.00816617,0.0447822,1273,1709,-0.0433447,-0.029401
56,-685,-0.122925,-0.0229492,0,0,0,0,0,0,0,-1,1280,1709,-0.122869,0.0229946
63,-685,-0.469849,-0.0653076,0,0,0,0,0,0,0,-1,1287,1709,-0.469884,0.0652863
70,-685,0.0340576,-0.0334473,0,0,0,0,0,0,0,-1,1294,1709,0.0340392,0.0335013
77,-685,0.0118408,-0.0684814,0,0,0,0,0,0,0,-1,1301,1709,0.0118953,0.0685041
84,-685,0.505981,-0.242676,0,0,0,0,0,0,0,-1,1308,1709,0.505983,0.242707
91,-685,0.293091,-0.286743,-0.0139605,0.00648862,0.0116128,0.0117366,-0.0192084,1.14635,0.0180388,0.0416902,1315,1709,0.29311,0.286785
98,-685,0.00891113,-0.28125,-0.0138848,0.00739573,0.015412,0.0154836,-0.0219727,1.08752,0.0217334,0.0370945,1322,1709,0.00896606,0.281293
105,-685,-0.0935059,-0.0317383,-0.0115551,0.0092172,0.0189723,0.0204602,-0.0227981,1.03583,0.0249873,0.0405749,1329,1709,-0.0935264,0.0317676
112,-685,0.236328,0.0543213,-0.00933728,0.00948368,0.021637,0.023668,-0.0235216,0.990522,0.027245,0.0410555,1336,1709,0.236345,-0.0542937
119,-685,0.22876,0.184204,-0.00789831,0.00887281,0.0221062,0.0241304,-0.0231559,0.966679,0.0273027,0.0385632,1343,1709,0.228761,-0.184146
126,-685,0.19873,-0.164307,-0.0063085,0.00727465,0.0207763,0.0223412,-0.0213751,0.943369,0.0252417,0.0410542,1350,1709,0.198765,0.16425
133,-685,0.291016,-0.218872,-0.00444267,0.00543884,0.0189097,0.0200426,-0.0190464,0.913182,0.0225705,0.0441529,1357,1709,0.291037,0.218839
140,-685,0.364258,-0.245483,-0.00263575,0.00420968,0.0161894,0.0173343,-0.0157603,0.889573,0.0191144,0.0430002,1364,1709,0.364215,0.245439
147,-685,0.14917,-0.0604248,-0.000735572,0.00304475,0.0134041,0.0146913,-0.0123821,0.855443,0.0156498,0.0409067,1371,1709,0.14916,0.0604539
154,-685,-0.145142,-0.237671,0.000779753,0.00122383,0.0108176,0.0118217,-0.00981807,0.79566,0.0125115,0.0406211,1378,1709,-0.145118,0.237689
161,-685,-0.296265,-0.326172,0.00173708,0.000137664,0.0078417,0.00881974,-0.006945,0.734583,0.0091232,0.0394639,1385,1709,-0.296286,0.326171
168,-685,-0.13562,-0.143677,0.00259787,-0.00135932,0.00572781,0.00667919,-0.00544065,0.619096,0.00700956,0.0373689,1392,1709,-0.1356,0.143685
175,-685,-0.03479,-0.0738525,0.00428545,-0.00355445,0.00389052,0.00588838,-0.00515737,0.390815,0.00638192,0.0346905,1399,1709,-0.0347435,0.0738641
182,-685,-0.0245361,-0.0627441,0.00546668,-0.00523771,0.00290093,0.00620229,-0.00597332,0.248343,0.00703,0.0294949,1406,1709,-0.0245773,0.0627791
189,-685,0.0152588,-0.0318604,0.00570399,-0.00518586,0.00207523,0.00608605,-0.00556792,0.182067,0.00673064,0.0263733,1413,1709,0.0152711,0.0318832
196,-685,-0.0078125,-0.0626221,0.00496594,-0.00465312,0.00170126,0.00525797,-0.00494515,0.169995,0.00589169,0.0231891,1420,1709,-0.00781265,0.0625678
203,-685,-0.0107422,-0.0750732,0.00451242,-0.00317339,0.00162206,0.00484073,-0.0035017,0.199703,0.00483714,0.0177878,1427,1709,-0.0107091,0.075062
210,-685,0.0211182,-0.0405273,0.00378275,-0.0024033,0.00145658,0.00410855,-0.0027291,0.220058,0.00397441,0.0186102,1434,1709,0.0211391,0.040494
217,-685,-0.0212402,-0.0524902,0.0029984,-2.01792e-05,0.00158023,0.00367431,-0.000696085,0.404178,0.00271151,0.018927,1441,1709,-0.0211847,0.0524577
224,-685,-0.0528564,-0.0845947,0.0025637,0.00146673,0.00156239,0.00367108,0.000359353,0.616591,0.00233683,0.0141446,1448,1709,-0.0528611,0.0846514
231,-685,-0.0197754,-0.0814209,0.00223947,0.00260811,0.00159314,0.00402756,0.000820016,0.84299,0.00245773,0.0148324,1455,1709,-0.0197941,0.0814638
238,-685,-0.0012207,-0.0992432,0.00190323,0.00336597,0.00168984,0.00447592,0.000793287,0.989629,0.00275781,0.0173496,1462,1709,-0.00125692,0.0992396
245,-685,-0.0230713,-0.0913086,0.00149035,0.00360877,0.0016845,0.0045394,0.000559725,1.06606,0.00285802,0.0189582,1469,1709,-0.0231077,0.0912696
252,-685,-0.024292,-0.0649414,0.00104105,0.00341012,0.00164778,0.00425494,0.000196223,1.09704,0.00277354,0.0134167,1476,1709,-0.024322,0.0649271
259,-685,-0.00732422,-0.083252,0.00074267,0.00282791,0.00168135,0.00376367,-0.000193087,1.06294,0.00257589,0.0089401,1483,1709,-0.00726501,0.0832411
266,-685,0.00256348,-0.0975342,0.000574999,0.002089,0.00150521,0.00301685,-0.000352851,1.01839,0.00213857,0.00963598,1490,1709,0.00257933,0.0975326
273,-685,-0.0123291,-0.0837402,0.000615015,0.00169144,0.00113681,0.002411,-0.000104553,1.00649,0.0016433,0.0112869,1497,1709,-0.0123857,0.0836892
280,-685,-0.0269775,-0.067749,0.000834779,0.00146805,0.000659905,0.00188335,0.000419477,1.00908,0.00114173,0.0134064,1504,1709,-0.0270215,0.0677659
287,-685,-0.03479,-0.069458,0.00104821,0.00121637,1.9352e-05,0.00121857,0.00104601,1.45769,0.000761407,0.01196,1511,1709,-0.034837,0.0694112
294,-685,-0.0372314,-0.0688477,0.00159897,0.00111048,-0.000372679,0.00180031,0.000909144,-0.495326,0.00103943,0.0102818,1518,1709,-0.0371859,0.0688678
301,-685,-0.0443115,-0.0683594,0.00249403,0.000995446,-0.000689318,0.00276288,0.000726604,-0.371866,0.00165381,0.0120187,1525,1709,-0.0443653,0.068406
308,-685,-0.0263672,-0.0765381,0.00286068,0.000902289,-0.00119567,0.00342695,0.000336021,-0.442303,0.00218127,0.012529,1532,1709,-0.0263743,0.0765676
315,-685,-0.00183105,-0.0762939,0.00314528,0.00112262,-0.00147663,0.0039237,0.000344192,-0.485141,0.00250895,0.0110108,1539,1709,-0.0018012,0.0762729
322,-685,-0.0137939,-0.0772705,0.00359664,0.0015436,-0.00172178,0.00457468,0.000565558,-0.516588,0.00287984,0.0186843,1546,1709,-0.0137495,0.0773136
329,-685,-0.0152588,-0.0617676,0.00393391,0.00197468,-0.00147314,0.00472342,0.00118518,-0.491979,0.00283762,0.0178832,1553,1709,-0.0152531,0.0618206
336,-685,-0.0108643,-0.0544434,0.00367273,0.00222815,-0.00134223,0.00447467,0.00142621,-0.538557,0.00263944,0.0123554,1560,1709,-0.0108165,0.0544176
343,-685,-0.0131836,-0.0665283,0.00301125,0.00241937,-0.00132743,0.00407533,0.0013553,-0.675721,0.00239647,0.0111751,1567,1709,-0.0131957,0.0665413
350,-685,-0.00354004,-0.0916748,0.00227872,0.00252465,-0.00108814,0.00349675,0.00130662,-0.841662,0.00204022,0.0114614,1574,1709,-0.00353551,0.0917073
357,-685,0.00512695,-0.0917969,0.00162253,0.002646,-0.000642458,0.00295562,0.00131291,-1.12171,0.00170997,0.00979736,1581,1709,0.00516453,0.0917833
364,-685,-0.0195313,-0.0860596,0.000988391,0.00286506,-0.000335761,0.00292332,0.000930127,-1.39898,0.00172458,0.00929156,1588,1709,-0.0194894,0.0860432
371,-685,-0.0152588,-0.0828857,0.000258881,0.00315813,4.27628e-05,0.00315876,0.00025825,1.55605,0.00202525,0.0139066,1595,1709,-0.0153116,0.0828442
378,-685,-0.0217285,-0.0560303,-0.000444188,0.0027469,0.000415223,0.00280004,-0.000497332,1.4435,0.00205265,0.0185125,1602,1709,-0.0217607,0.05609
385,-685,-0.0319824,0.0106201,-0.00119435,0.00198644,0.000595934,0.00209443,-0.00130234,1.39154,0.00197882,0.0297071,1609,1709,-0.0319657,-0.0106738
392,-685,0.132568,-0.0632324,-0.0020876,0.00116864,0.000891399,0.00139669,-0.00231565,1.32033,0.0021651,0.0347398,1616,1709,0.132602,0.0632651
399,-685,-0.220581,-0.213257,0,0,0,0,0,0,0,-1,1623,1709,-0.220617,0.213266
406,-685,-0.116455,0.14917,-0.00321965,-0.002208,0.000909589,-0.00167305,-0.0037546,1.03916,0.00217199,0.0429378,1630,1709,-0.116438,-0.149151
413,-685,-0.0344238,0.454712,-0.00394127,-0.0039407,0.00170105,-0.00223994,-0.00564203,0.785482,0.00328038,0.0426927,1637,1709,-0.0343705,-0.454663
420,-685,-0.167114,0.53894,-0.0053019,-0.00716686,0.00304671,-0.00304816,-0.0094206,0.636894,0.00555071,0.0394597,1644,1709,-0.167074,-0.538999
427,-685,-0.395386,0.918823,-0.00701897,-0.0114008,0.00477694,-0.00395449,-0.0144653,0.570388,0.00863275,0.0407447,1651,1709,-0.395344,-0.918839
434,-685,-0.219971,0.753784,-0.00911372,-0.0161134,0.00693962,-0.00484134,-0.0203857,0.551847,0.0122986,0.046294,1658,1709,-0.219962,-0.753768
441,-685,-0.383545,0.493042,-0.011635,-0.0212712,0.0106526,-0.00476154,-0.0281446,0.573017,0.0173945,0.0492947,1665,1709,-0.383485,-0.493055
448,-685,-0.375977,0.491333,-0.0153853,-0.025042,0.0158009,-0.0036915,-0.0367358,0.637116,0.0233575,0.0475735,1672,1709,-0.375921,-0.491294
455,-685,-0.503052,0.407227,-0.0217305,-0.0280348,0.0216588,-0.00299562,-0.0467696,0.713137,0.0302307,0.0463915,1679,1709,-0.503068,-0.407265
462,-685,0,0,0,0,0,0,0,0,0,-1,1686,1709,0,0
469,-685,0,0,0,0,0,0,0,0,0,-1,1693,1709,0,0
476,-685,0,0,0,0,0,0,0,0,0,-1,1700,1709,0,0
483,-685,0,0,0,0,0,0,0,0,0,-1,1707,1709,0,0
490,-685,0,0,0,0,0,0,0,0,0,-1,1714,1709,0,0
497,-685,0,0,0,0,0,0,0,0,0,-1,1721,1709,0,0
504,-685,0,0,0,0,0,0,0,0,0,-1,1728,1709,0,0
511,-685,0,0,0,0,0,0,0,0,0,-1,1735,1709,0,0
518,-685,0,0,0,0,0,0,0,0,0,-1,1742,1709,0,0
525,-685,0,0,0,0,0,0,0,0,0,-1,1749,1709,0,0
532,-685,0,0,0,0,0,0,0,0,0,-1,1756,1709,0,0
539,-685,0,0,0,0,0,0,0,0,0,-1,1763,1709,0,0
546,-685,0,0,0,0,0,0,0,0,0,-1,1770,1709,0,0
553,-685,0,0,0,0,0,0,0,0,0,-1,1777,1709,0,0
560,-685,0,0,0,0,0,0,0,0,0,-1,1784,1709,0,0
567,-685,0,0,0,0,0,0,0,0,0,-1,1791,1709,0,0
574,-685,0,0,0,0,0,0,0,0,0,-1,1798,1709,0,0
581,-685,0,0,0,0,0,0,0,0,0,-1,1805,1709,0,0
588,-685,0,0,0,0,0,0,0,0,0,-1,1812,1709,0,0
595,-685,0,0,0,0,0,0,0,0,0,-1,1819,1709,0,0
602,-685,0,0,0,0,0,0,0,0,0,-1,1826,1709,0,0
609,-685,0,0,0,0,0,0,0,0,0,-1,1833,1709,0,0
616,-685,0,0,0,0,0,0,0,0,0,-1,1840,1709,0,0
623,-685,0,0,0,0,0,0,0,0,0,-1,1847,1709,0,0
630,-685,0,0,0,0,0,0,0,0,0,-1,1854,1709,0,0
637,-685,0,0,0,0,0,0,0,0,0,-1,1861,1709,0,0
644,-685,0,0,0,0,0,0,0,0,0,-1,1868,1709,0,0
651,-685,0,0,0,0,0,0,0,0,0,-1,1875,1709,0,0
658,-685,0,0,0,0,0,0,0,0,0,-1,1882,1709,0,0
665,-685,0,0,0,0,0,0,0,0,0,-1,1889,1709,0,0
672,-685,0,0,0,0,0,0,0,0,0,-1,1896,1709,0,0
679,-685,0,0,0,0,0,0,0,0,0,-1,1903,1709,0,0
686,-685,0,0,0,0,0,0,0,0,0,-1,1910,1709,0,0
693,-685,0,0,0,0,0,0,0,0,0,-1,1917,1709,0,0
700,-685,0,0,0,0,0,0,0,0,0,-1,1924,1709,0,0
707,-685,0,0,0,0,0,0,0,0,0,-1,1931,1709,0,0
714,-685,0,0,0,0,0,0,0,0,0,-1,1938,1709,0,0
721,-685,0,0,0,0,0,0,0,0,0,-1,1945,1709,0,0
728,-685,0,0,0,0,0,0,0,0,0,-1,1952,1709,0,0
735,-685,0,0,0,0,0,0,0,0,0,-1,1959,1709,0,0
742,-685,0,0,0,0,0,0,0,0,0,-1,1966,1709,0,0
749,-685,0,0,0,0,0,0,0,0,0,-1,1973,1709,0,0
756,-685,0,0,0,0,0,0,0,0,0,-1,1980,1709,0,0
763,-685,0,0,0,0,0,0,0,0,0,-1,1987,1709,0,0
770,-685,0,0,0,0,0,0,0,0,0,-1,1994,1709,0,0
777,-685,0,0,0,0,0,0,0,0,0,-1,2001,1709,0,0
784,-685,0,0,0,0,0,0,0,0,0,-1,2008,1709,0,0
791,-685,0,0,0,0,0,0,0,0,0,-1,2015,1709,0,0
798,-685,0,0,0,0,0,0,0,0,0,-1,2022,1709,0,0
805,-685,0,0,0,0,0,0,0,0,0,-1,2029,1709,0,0
812,-685,0,0,0,0,0,0,0,0,0,-1,2036,1709,0,0
-700,-692,0,0,0,0,0,0,0,0,0,-1,524,1716,0,0
-693,-692,0,0,0,0,0,0,0,0,0,-1,531,1716,0,0
-686,-692,0,0,0,0,0,0,0,0,0,-1,538,1716,0,0
-679,-692,0,0,0,0,0,0,0,0,0,-1,545,1716,0,0
-672,-692,0,0,0,0,0,0,0,0,0,-1,552,1716,0,0
-665,-692,0,0,0,0,0,0,0,0,0,-1,559,1716,0,0
-658,-692,0,0,0,0,0,0,0,0,0,-1,566,1716,0,0
-651,-692,0,0,0,0,0,0,0,0,0,-1,573,1716,0,0
-644,-692,0,0,0,0,0,0,0,0,0,-1,580,1716,0,0
-637,-692,0,0,0,0,0,0,0,0,0,-1,587,1716,0,0
-630,-692,0,0,0,0,0,0,0,0,0,-1,594,1716,0,0
-623,-692,0,0,0,0,0,0,0,0,0,-1,601,1716,0,0
-616,-692,0,0,0,0,0,0,0,0,0,-1,608,1716,0,0
-609,-692,0,0,0,0,0,0,0,0,0,-1,615,1716,0,0
-602,-692,0,0,0,0,0,0,0,0,0,-1,622,1716,0,0
-595,-692,0,0,0,0,0,0,0,0,0,-1,629,1716,0,0
-588,-692,0,0,0,0,0,0,0,0,0,-1,636,1716,0,0
-581,-692,0,0,0,0,0,0,0,0,0,-1,643,1716,0,0
-574,-692,0,0,0,0,0,0,0,0,0,-1,650,1716,0,0
-567,-692,0,0,0,0,0,0,0,0,0,-1,657,1716,0,0
-560,-692,0,0,0,0,0,0,0,0,0,-1,664,1716,0,0
-553,-692,0,0,0,0,0,0,0,0,0,-1,671,1716,0,0
-546,-692,0,0,0,0,0,0,0,0,0,-1,678,1716,0,0
-539,-692,0,0,0,0,0,0,0,0,0,-1,685,1716,0,0
-532,-692,0,0,0,0,0,0,0,0,0,-1,692,1716,0,0
-525,-692,0,0,0,0,0,0,0,0,0,-1,699,1716,0,0
-518,-692,0,0,0,0,0,0,0,0,0,-1,706,1716,0,0
-511,-692,0,0,0,0,0,0,0,0,0,-1,713,1716,0,0
-504,-692,0,0,0,0,0,0,0,0,0,-1,720,1716,0,0
-497,-692,0,0,0,0,0,0,0,0,0,-1,727,1716,0,0
-490,-692,0,0,0,0,0,0,0,0,0,-1,734,1716,0,0
-483,-692,0,0,0,0,0,0,0,0,0,-1,741,1716,0,0
-476,-692,0,0,0,0,0,0,0,0,0,-1,748,1716,0,0
-469,-692,0,0,0,0,0,0,0,0,0,-1,755,1716,0,0
-462,-692,0,0,0,0,0,0,0,0,0,-1,762,1716,0,0
-455,-692,0,0,0,0,0,0,0,0,0,-1,769,1716,0,0
-448,-692,0,0,0,0,0,0,0,0,0,-1,776,1716,0,0
-441,-692,0,0,0,0,0,0,0,0,0,-1,783,1716,0,0
-434,-692,0,0,0,0,0,0,0,0,0,-1,790,1716,0,0
-427,-692,0,0,0,0,0,0,0,0,0,-1,797,1716,0,0
-420,-692,0,0,0,0,0,0,0,0,0,-1,804,1716,0,0
-413,-692,0,0,0,0,0,0,0,0,0,-1,811,1716,0,0
-406,-692,0,0,0,0,0,0,0,0,0,-1,818,1716,0,0
-399,-692,0,0,0,0,0,0,0,0,0,-1,825,1716,0,0
-392,-692,0,0,0,0,0,0,0,0,0,-1,832,1716,0,0
-385,-692,0,0,0,0,0,0,0,0,0,-1,839,1716,0,0
-378,-692,0,0,0,0,0,0,0,0,0,-1,846,1716,0,0
-371,-692,0,0,0,0,0,0,0,0,0,-1,853,1716,0,0
-364,-692,0,0,0,0,0,0,0,0,0,-1,860,1716,0,0
-357,-692,0,0,0,0,0,0,0,0,0,-1,867,1716,0,0
-350,-692,0,0,0,0,0,0,0,0,0,-1,874,1716,0,0
-343,-692,0,0,0,0,0,0,0,0,0,-1,881,1716,0,0
-336,-692,0,0,0,0,0,0,0,0,0,-1,888,1716,0,0
-329,-692,-6.03619,3.74377,0.133945,0.0398574,0.0488191,0.154698,0.0191043,0.401957,0.0973907,0.0480151,895,1716,-6.0362,-3.74378
-322,-692,-0.207458,3.13794,0,0,0,0,0,0,0,-1,902,1716,-0.207438,-3.13791
-315,-692,0.0946655,2.97876,0.0847194,0.0402826,0.0212431,0.0932407,0.0317613,0.38148,0.0547364,0.0451801,909,1716,0.0946692,-2.97874
-308,-692,0.336914,2.88525,0.0642905,0.0363984,0.0105909,0.0678561,0.0328327,0.324752,0.0391836,0.0419066,916,1716,0.336909,-2.88526
-301,-692,0.837585,2.77856,0,0,0,0,0,0,0,-1,923,1716,0.837563,-2.77851
-294,-692,-1.29999,2.54626,0,0,0,0,0,0,0,-1,930,1716,-1.29998,-2.54624
-287,-692,-0.349426,-0.125977,0,0,0,0,0,0,0,-1,937,1716,-0.349442,0.125978
-280,-692,-0.41864,0.107544,0.0157989,0.0111116,-0.00681429,0.0206613,0.00624922,-0.61977,0.0122352,0.0422324,944,1716,-0.418635,-0.107568
-273,-692,-0.505676,0.0810547,0.00768496,0.00487853,-0.0060662,0.0125081,5.53639e-05,-0.671739,0.00832035,0.0420795,951,1716,-0.50569,-0.0810338
-266,-692,-0.174072,0.0395508,0.00911222,-0.00133265,-0.00378583,0.0103401,-0.00256051,-0.313627,0.00788668,0.0414454,958,1716,-0.174078,-0.039596
-259,-692,0.250183,0.0800781,0.0101356,-0.00677666,-0.00159714,0.0102851,-0.00692616,-0.0933371,0.00999983,0.0426752,965,1716,0.250185,-0.0800981
-252,-692,0.200134,0.0605469,0.0108541,-0.0116641,0.000556696,0.0108679,-0.0116779,0.0247019,0.0130196,0.044631,972,1716,0.200124,-0.0605329
-245,-692,0.112549,-0.0881348,0.0111989,-0.0130228,0.00214189,0.0113868,-0.0132107,0.0875235,0.0142144,0.044878,979,1716,0.11253,0.088139
-238,-692,0.160217,0.0499268,0.0111334,-0.0139431,0.00368476,0.0116636,-0.0144734,0.142917,0.0151192,0.039843,986,1716,0.160217,-0.0499085
-231,-692,0.167786,-0.122925,0.0110303,-0.0137897,0.00511207,0.012042,-0.0148013,0.195375,0.0155253,0.0314617,993,1716,0.167815,0.1229
-224,-692,0.0135498,-0.0767822,0.0103916,-0.0125408,0.00600135,0.0118672,-0.0140164,0.241094,0.014961,0.0159071,1000,1716,0.0135556,0.0767397
-217,-692,-0.0141602,-0.0853271,0.0091774,-0.0110271,0.00654445,0.011112,-0.0129617,0.287421,0.0139126,0.0112276,1007,1716,-0.0141631,0.0853803
-210,-692,-0.00585938,-0.0751953,0.00743321,-0.00959298,0.00648556,0.00962223,-0.011782,0.325516,0.0123787,0.0122759,1014,1716,-0.00586348,0.0751348
-203,-692,-0.00561523,-0.0734863,0.00588071,-0.00606857,0.00658773,0.00879958,-0.00898744,0.417082,0.0102695,0.013767,1021,1716,-0.00561502,0.0734468
-196,-692,-0.017334,-0.0784912,0.00485975,-0.00322587,0.00621654,0.00823245,-0.00659856,0.497094,0.00857999,0.0155357,1028,1716,-0.0173864,0.0784324
-189,-692,-0.0311279,-0.10022,0.00375453,-0.00116311,0.00568901,0.00749334,-0.00490192,0.581419,0.00720835,0.0080414,1035,1716,-0.0311541,0.100161
-182,-692,-0.0388184,-0.0710449,0.00281612,0.00024889,0.00521803,0.00690609,-0.00384109,0.664795,0.00628844,0.0122846,1042,1716,-0.0388032,0.0710043
-175,-692,-0.0389404,-0.0465088,0.00208954,0.00142521,0.00459319,0.00636256,-0.00284781,0.749303,0.00544514,0.0137431,1049,1716,-0.0389549,0.0465664
-168,-692,-0.0202637,-0.0770264,0.00160481,0.00196446,0.00401391,0.00580257,-0.0022333,0.807784,0.00478963,0.0106678,1056,1716,-0.0202789,0.0769923
-161,-692,-0.00134277,-0.0751953,0.00137015,0.00212138,0.00341414,0.0051805,-0.00168898,0.840187,0.00413333,0.0119372,1063,1716,-0.00138425,0.0751481
-154,-692,-0.00964355,-0.0565186,0.000973228,0.0023569,0.00267242,0.00442558,-0.00109545,0.912058,0.00337532,0.012432,1070,1716,-0.00959965,0.0564601
-147,-692,-0.0239258,-0.0704346,0.000757604,0.00232629,0.00195399,0.00364748,-0.000563587,0.976257,0.00263965,0.0112685,1077,1716,-0.0239367,0.0704466
-140,-692,-0.0258789,-0.0926514,0.000724776,0.00198227,0.00138243,0.00287222,-0.000165171,0.998823,0.00197218,0.00900577,1084,1716,-0.0258471,0.0926379
-133,-692,-0.0267334,-0.0787354,0.000689221,0.00164017,0.000870827,0.00215687,0.000172518,1.03528,0.001384,0.00880419,1091,1716,-0.0267928,0.0787278
-126,-692,-0.0192871,-0.0812988,0.000416951,0.00145652,0.00032166,0.00154799,0.000325474,1.29372,0.000942429,0.00737609,1098,1716,-0.0193084,0.0812529
-119,-692,-0.0366211,-0.0917969,0.000202373,0.00136217,-0.000132613,0.00137714,0.000187403,-1.45839,0.000862441,0.0106845,1105,1716,-0.0365715,0.0917963
-112,-692,-0.0263672,-0.0889893,5.79503e-08,0.00119448,-0.000527262,0.00139393,-0.00019939,-1.20916,0.00100238,0.0103677,1112,1716,-0.0264057,0.0889943
-105,-692,-0.00134277,-0.0809326,-0.000232461,0.000960705,-0.000937918,0.0014757,-0.000747454,-1.06866,0.00130629,0.0145394,1119,1716,-0.00128424,0.0809426
-98,-692,0.0140381,-0.085083,-0.000410057,0.000624889,-0.00131253,0.00151827,-0.00130344,-0.973171,0.00163069,0.0150118,1126,1716,0.0140934,0.0850968
-91,-692,-0.00488281,-0.12085,-0.000471148,0.000696979,-0.001627,0.00184157,-0.00161574,-0.957725,0.0019975,0.0169237,1133,1716,-0.00483252,0.120902
-84,-692,-0.0106201,-0.129272,-0.000453564,0.000874291,-0.00180372,0.00213239,-0.00171166,-0.961747,0.00222379,0.0183368,1140,1716,-0.0106578,0.12929
-77,-692,-0.00732422,-0.0587158,-0.000335051,0.00101339,-0.00194689,0.0023995,-0.00172116,-0.952088,0.00238979,0.0119349,1147,1716,-0.00728111,0.058745
-70,-692,-0.0163574,-0.0477295,-2.30161e-05,0.00134825,-0.00194308,0.00272312,-0.00139788,-0.955008,0.00241992,0.0121565,1154,1716,-0.016309,0.0477382
-63,-692,-0.0214844,-0.0634766,0.000415195,0.0016773,-0.00181536,0.00296816,-0.000875665,-0.952675,0.00232627,0.0121323,1161,1716,-0.0214987,0.0635231
-56,-692,-0.0137939,-0.0853271,0.00104717,0.00212888,-0.00172551,0.00339632,-0.000220262,-0.937272,0.00234109,0.0137814,1168,1716,-0.013854,0.08532
-49,-692,-0.010498,-0.0794678,0.00246995,0.00286096,-0.00145343,0.00413197,0.00119893,-0.852253,0.00245463,0.0195071,1175,1716,-0.0105389,0.079436
-42,-692,-0.0460205,-0.0822754,0.00416175,0.00362624,-0.000942333,0.00487363,0.00291436,-0.646977,0.00283174,0.0217954,1182,1716,-0.0460287,0.0823224
-35,-692,-0.0141602,-0.121948,0.00576988,0.00414341,-0.000216988,0.00579833,0.00411496,-0.130373,0.00344439,0.0228927,1189,1716,-0.0142195,0.121904
-28,-692,0.0201416,-0.117676,0.00714364,0.00434849,0.000516623,0.00723607,0.00425606,0.177039,0.00419934,0.0230647,1196,1716,0.0201581,0.117689
-21,-692,-0.015625,-0.100098,0.00822203,0.00399542,0.0015431,0.00872545,0.003492,0.315349,0.00507097,0.0185417,1203,1716,-0.0155683,0.100047
-14,-692,-0.0266113,-0.0792236,0.00915121,0.00398225,0.0022932,0.0100219,0.00311155,0.362876,0.0059231,0.0129394,1210,1716,-0.0265906,0.0791757
-7,-692,-0.0319824,-0.0637207,0.0100072,0.00353709,0.00294025,0.0111437,0.00240058,0.368846,0.00677231,0.0141837,1217,1716,-0.0319945,0.0636749
0,-692,-0.0352783,-0.0754395,0.00976829,0.00294154,0.00333019,0.0111237,0.00158613,0.386531,0.0069477,0.017039,1224,1716,-0.0352557,0.075499
7,-692,-0.0628662,-0.0877686,0.00895182,0.00157181,0.0030199,0.01003,0.000493592,0.34293,0.00652838,0.0210734,1231,1716,-0.0628995,0.0877338
14,-692,-0.0452881,-0.0523682,0.0076016,0.000175603,0.0025549,0.00839569,-0.00061849,0.301346,0.00581427,0.0223804,1238,1716,-0.0452832,0.0523501
21,-692,-0.0192871,-0.0200195,0.00589086,-0.000589816,0.00176765,0.00634164,-0.0010406,0.249696,0.00461391,0.0240214,1245,1716,-0.0193389,0.0200749
28,-692,-0.0609131,-0.0119629,0.00367619,-0.000654443,0.000627108,0.00376517,-0.000743424,0.140951,0.00279112,0.023974,1252,1716,-0.0609723,0.0119703
35,-692,-0.0770264,0.00305176,0.00130375,-0.000815264,-0.000793344,0.00156786,-0.00107937,-0.321362,0.00153703,0.0214439,1259,1716,-0.0770531,-0.0030247
42,-692,-0.0400391,0.00524902,-0.00133908,-0.000962661,-0.00190914,0.000767523,-0.00306926,-0.834531,0.00234428,0.0193627,1266,1716,-0.0400128,-0.00521142
49,-692,-0.0279541,-0.0189209,-0.00366662,-0.000539301,-0.0029181,0.00120768,-0.0054136,-1.03135,0.00407177,0.0238548,1273,1716,-0.027957,0.0188978
56,-692,-0.0955811,-0.0599365,-0.00517451,-0.00147189,-0.00207487,-0.000542475,-0.00610392,-1.14966,0.00390105,0.0297911,1280,1716,-0.095569,0.0599504
63,-692,-0.0219727,-0.0773926,-0.0061411,-0.00280979,-0.000693373,-0.00267124,-0.00627966,-1.37357,0.003639,0.0282366,1287,1716,-0.0219617,0.0773546
70,-692,0.0245361,-0.0817871,-0.00793934,-0.00259569,0.00190029,-0.00198884,-0.0085462,1.26168,0.0051638,0.025082,1294,1716,0.0245473,0.081755
77,-692,0.00195313,-0.0601807,-0.00927929,-0.00126067,0.00475216,0.000947546,-0.0114875,1.13581,0.00799293,0.0283099,1301,1716,0.00197555,0.060185
84,-692,0.0179443,-0.0275879,-0.0099327,-0.000554668,0.0077612,0.00382401,-0.0143114,1.05714,0.0110386,0.0324573,1308,1716,0.0179829,0.0276249
91,-692,-0.0279541,0.00219727,-0.0100606,-0.000349777,0.0110213,0.00683827,-0.0172487,0.992881,0.014333,0.0286266,1315,1716,-0.0279765,-0.00215516
98,-692,-0.074585,0.0057373,-0.0105331,7.11426e-05,0.0140579,0.00979359,-0.0202556,0.965731,0.0176959,0.0240091,1322,1716,-0.074606,-0.0057177
105,-692,-0.036377,0.00012207,-0.00929084,0.000931045,0.0169068,0.0134825,-0.0218423,0.932182,0.0205843,0.0313532,1329,1716,-0.0363842,-6.75471e-05
112,-692,-0.00927734,-0.0266113,-0.00806375,0.001258,0.0189317,0.0160941,-0.0228998,0.906095,0.0226272,0.0348013,1336,1716,-0.00923796,0.0266328
119,-692,-0.0357666,-0.0463867,-0.00735145,0.000995241,0.0192069,0.0164769,-0.0228331,0.892377,0.0227944,0.0284872,1343,1716,-0.0357919,0.0464314
126,-692,-0.0385742,-0.0742188,-0.00635267,0.000206933,0.017992,0.0152156,-0.0213614,0.875554,0.0212169,0.0264833,1350,1716,-0.0385652,0.0742305
133,-692,-0.0108643,-0.106812,-0.00509538,-0.00065571,0.0162576,0.0135329,-0.019284,0.853249,0.0190436,0.0205237,1357,1716,-0.0109233,0.106779
140,-692,0.0546875,-0.0836182,-0.00376853,-0.00100207,0.013948,0.0116312,-0.0164017,0.834822,0.0162627,0.0243921,1364,1716,0.05469,0.083589
147,-692,0.0662842,-0.0560303,-0.00220456,-0.00141554,0.0116504,0.00984705,-0.0134671,0.802323,0.0135144,0.0276522,1371,1716,0.0663203,0.0560715
154,-692,0.0200195,-0.0819092,-0.000853707,-0.00233734,0.00948745,0.00792088,-0.0111119,0.746383,0.01104,0.0240213,1378,1716,0.0200641,0.0819241
161,-692,-0.0233154,-0.0841064,-6.15715e-05,-0.00264962,0.00696396,0.00572758,-0.00843876,0.693537,0.00822872,0.0275838,1385,1716,-0.0233427,0.0841546
168,-692,-0.0734863,-0.0773926,0.000727753,-0.00327668,0.00509238,0.00419739,-0.00674632,0.598092,0.00637522,0.0215784,1392,1716,-0.073472,0.0774276
175,-692,-0.0334473,-0.0970459,0.00225194,-0.00449241,0.00347735,0.00372368,-0.00596415,0.400376,0.00564291,0.0188087,1399,1716,-0.0334108,0.0970341
182,-692,-0.0124512,-0.092041,0.00334595,-0.00539377,0.00257949,0.00405048,-0.0060983,0.266625,0.00589903,0.0129777,1406,1716,-0.0124974,0.0920696
189,-692,0.0106201,-0.072998,0.00364123,-0.00499576,0.00187915,0.00403236,-0.00538689,0.205214,0.00545692,0.0136124,1413,1716,0.0105622,0.0730099
196,-692,-0.00610352,-0.076416,0.00313109,-0.00429538,0.001584,0.00345483,-0.00461912,0.201605,0.00467762,0.0108304,1420,1716,-0.00610376,0.0763683
203,-692,-0.0180664,-0.0690918,0.00283157,-0.00289516,0.00152426,0.00321201,-0.0032756,0.244589,0.00374568,0.0120679,1427,1716,-0.0181167,0.0691084
210,-692,-0.0128174,-0.0494385,0.00231127,-0.00182602,0.00131778,0.00269534,-0.0022101,0.2836,0.00283677,0.0158555,1434,1716,-0.0128364,0.0494414
217,-692,-0.0273438,-0.0493164,0.00173348,3.64411e-05,0.00140833,0.00252916,-0.000759234,0.51427,0.00198811,0.0161953,1441,1716,-0.0273345,0.0493137
224,-692,-0.017334,-0.0662842,0.0014179,0.00117384,0.00145323,0.00275421,-0.00016248,0.743511,0.00189263,0.0121375,1448,1716,-0.0172865,0.0662837
231,-692,-0.0233154,-0.0654297,0.00118148,0.00204656,0.00154194,0.00321548,1.25604e-05,0.922141,0.00213948,0.0105772,1455,1716,-0.0233099,0.0654107
238,-692,-0.0349121,-0.104248,0.00096456,0.0026674,0.00163122,0.00365604,-2.40756e-05,1.02593,0.00244542,0.0164714,1462,1716,-0.0349496,0.104307
245,-692,-0.0496826,-0.109375,0.000733085,0.00293515,0.00161957,0.0037925,-0.000124265,1.08393,0.00257076,0.0195432,1469,1716,-0.0496685,0.109424
252,-692,-0.0222168,-0.0916748,0.00048755,0.00279114,0.00156446,0.00358206,-0.000303376,1.10271,0.00249532,0.0168025,1476,1716,-0.0221569,0.0916261
259,-692,-0.0151367,-0.088501,0.000365675,0.00240807,0.00150746,0.00320766,-0.000433918,1.08311,0.00229679,0.00885275,1483,1716,-0.015108,0.0885557
266,-692,-0.0216064,-0.0948486,0.000450285,0.00189048,0.00122576,0.00259201,-0.000251251,1.05097,0.00181756,0.00921544,1490,1716,-0.0216311,0.0948093
273,-692,-0.0332031,-0.0837402,0.000699418,0.00160266,0.000844386,0.00210861,0.000193464,1.03097,0.0013459,0.0123311,1497,1716,-0.0332162,0.0837824
280,-692,-0.0214844,-0.0620117,0.00110984,0.00147064,0.00036182,0.00169454,0.000885939,1.01666,0.000978682,0.0124365,1504,1716,-0.0214417,0.0620526
287,-692,-0.0274658,-0.0601807,0.00154956,0.00132973,-0.00033357,0.00179086,0.00108843,-0.626244,0.00104193,0.0108844,1511,1716,-0.0275262,0.0601558
294,-692,-0.0289307,-0.0609131,0.00224575,0.00137414,-0.000789403,0.00271165,0.000908232,-0.533184,0.00159376,0.00983595,1518,1716,-0.0289827,0.0609036
301,-692,-0.00976563,-0.0627441,0.00326295,0.00130902,-0.00118827,0.00382431,0.000747656,-0.441341,0.00234047,0.011632,1525,1716,-0.00970594,0.0627104
308,-692,-0.0150146,-0.0710449,0.00386933,0.00117114,-0.00183336,0.00479648,0.000243997,-0.468204,0.0031195,0.0141739,1532,1716,-0.0150304,0.0710473
315,-692,-0.0184326,-0.0783691,0.00439268,0.00142088,-0.00209745,0.00547723,0.000336334,-0.477217,0.0035447,0.0137645,1539,1716,-0.0184653,0.0783656
322,-692,-0.0428467,-0.102051,0.00512026,0.00191973,-0.00228366,0.00630853,0.000731453,-0.479785,0.00398431,0.0193262,1546,1716,-0.0428124,0.102063
329,-692,-0.0493164,-0.0863037,0.00561046,0.00254925,-0.0019339,0.00654618,0.00161353,-0.450642,0.00393804,0.0169865,1553,1716,-0.0492599,0.0863279
336,-692,-0.0196533,-0.064209,0.00529867,0.00300009,-0.00171901,0.0062172,0.00208157,-0.490737,0.00365422,0.0115073,1560,1716,-0.0197115,0.0641786
343,-692,-0.00537109,-0.0740967,0.00442042,0.00332243,-0.00159536,0.0055586,0.00218424,-0.619685,0.00323369,0.0121225,1567,1716,-0.0053552,0.0740654
350,-692,0.00964355,-0.0877686,0.00338673,0.00353218,-0.00120759,0.00466924,0.00224968,-0.815475,0.00269638,0.0126566,1574,1716,0.00962717,0.087823
357,-692,-0.013916,-0.0889893,0.00236499,0.0038903,-0.000645456,0.00412678,0.00212852,-1.21962,0.00238299,0.0164285,1581,1716,-0.0139521,0.0889928
364,-692,-0.0118408,-0.0906982,0.0013486,0.00435722,-0.000260105,0.00437954,0.00132628,-1.48519,0.00259323,0.0228239,1588,1716,-0.0117961,0.0907452
371,-692,0.162842,-0.0557861,0.000216336,0.004873,0.00020338,0.00488186,0.00020747,1.52723,0.00318767,0.0299606,1595,1716,0.162813,0.0557745
378,-692,0.0167236,0.11731,-0.000953407,0.00465247,0.00059018,0.00471393,-0.00101487,1.46703,0.00352988,0.035255,1602,1716,0.0166805,-0.117306
385,-692,-0.187378,0.158813,-0.00210615,0.0040059,0.000726097,0.00409097,-0.00219122,1.45416,0.00368189,0.0390028,1609,1716,-0.187398,-0.158865
392,-692,-0.321899,-0.54126,0,0,0,0,0,0,0,-1,1616,1716,-0.3219,0.541213
399,-692,-0.336792,-0.189697,-0.00399751,0.00207264,0.000621634,0.00213564,-0.00406051,1.46978,0.00363444,0.0435716,1623,1716,-0.336832,0.189656
406,-692,-0.316528,0.115723,-0.0046426,-9.38379e-05,0.000603986,-1.50064e-05,-0.00472143,1.44101,0.00314263,0.0440609,1630,1716,-0.316509,-0.115736
413,-692,-0.0715332,0.198486,-0.00529079,-0.00194884,0.0013519,-0.00147044,-0.00576919,1.23068,0.00346169,0.0420796,1637,1716,-0.0715696,-0.198445
420,-692,0.0908203,-0.0032959,-0.00658407,-0.00558913,0.00257721,-0.00346182,-0.00871138,0.880738,0.0050647,0.0434394,1644,1716,0.0907939,0.00324543
427,-692,-0.387817,1.51599,0,0,0,0,0,0,0,-1,1651,1716,-0.387818,-1.51594
434,-692,-0.599976,1.07532,-0.0105184,-0.0159213,0.00675177,-0.00594772,-0.020492,0.595097,0.0121732,0.0455656,1658,1716,-0.599929,-1.07528
441,-692,-0.822266,0.61084,-0.0128405,-0.022195,0.0108904,-0.00566545,-0.0293701,0.582565,0.0179914,0.0481426,1665,1716,-0.822302,-0.610897
448,-692,-0.968994,0.135498,0,0,0,0,0,0,0,-1,1672,1716,-0.969045,-0.135528
455,-692,0,0,0,0,0,0,0,0,0,-1,1679,1716,0,0
462,-692,0,0,0,0,0,0,0,0,0,-1,1686,1716,0,0
469,-692,0,0,0,0,0,0,0,0,0,-1,1693,1716,0,0
476,-692,0,0,0,0,0,0,0,0,0,-1,1700,1716,0,0
483,-692,0,0,0,0,0,0,0,0,0,-1,1707,1716,0,0
490,-692,0,0,0,0,0,0,0,0,0,-1,1714,1716,0,0
497,-692,0,0,0,0,0,0,0,0,0,-1,1721,1716,0,0
504,-692,0,0,0,0,0,0,0,0,0,-1,1728,1716,0,0
511,-692,0,0,0,0,0,0,0,0,0,-1,1735,1716,0,0
518,-692,0,0,0,0,0,0,0,0,0,-1,1742,1716,0,0
525,-692,0,0,0,0,0,0,0,0,0,-1,1749,1716,0,0
532,-692,0,0,0,0,0,0,0,0,0,-1,1756,1716,0,0
539,-692,0,0,0,0,0,0,0,0,0,-1,1763,1716,0,0
546,-692,0,0,0,0,0,0,0,0,0,-1,1770,1716,0,0
553,-692,0,0,0,0,0,0,0,0,0,-1,1777,1716,0,0
560,-692,0,0,0,0,0,0,0,0,0,-1,1784,1716,0,0
567,-692,0,0,0,0,0,0,0,0,0,-1,1791,1716,0,0
574,-692,0,0,0,0,0,0,0,0,0,-1,1798,1716,0,0
581,-692,0,0,0,0,0,0,0,0,0,-1,1805,1716,0,0
588,-692,0,0,0,0,0,0,0,0,0,-1,1812,1716,0,0
595,-692,0,0,0,0,0,0,0,0,0,-1,1819,1716,0,0
602,-692,0,0,0,0,0,0,0,0,0,-1,1826,1716,0,0
609,-692,0,0,0,0,0,0,0,0,0,-1,1833,1716,0,0
616,-692,0,0,0,0,0,0,0,0,0,-1,1840,1716,0,0
623,-692,0,0,0,0,0,0,0,0,0,-1,1847,1716,0,0
630,-692,0,0,0,0,0,0,0,0,0,-1,1854,1716,0,0
637,-692,0,0,0,0,0,0,0,0,0,-1,1861,1716,0,0
644,-692,0,0,0,0,0,0,0,0,0,-1,1868,1716,0,0
651,-692,0,0,0,0,0,0,0,0,0,-1,1875,1716,0,0
658,-692,0,0,0,0,0,0,0,0,0,-1,1882,1716,0,0
665,-692,0,0,0,0,0,0,0,0,0,-1,1889,1716,0,0
672,-692,0,0,0,0,0,0,0,0,0,-1,1896,1716,0,0
679,-692,0,0,0,0,0,0,0,0,0,-1,1903,1716,0,0
686,-692,0,0,0,0,0,0,0,0,0,-1,1910,1716,0,0
693,-692,0,0,0,0,0,0,0,0,0,-1,1917,1716,0,0
700,-692,0,0,0,0,0,0,0,0,0,-1,1924,1716,0,0
707,-692,0,0,0,0,0,0,0,0,0,-1,1931,1716,0,0
714,-692,0,0,0,0,0,0,0,0,0,-1,1938,1716,0,0
721,-692,0,0,0,0,0,0,0,0,0,-1,1945,1716,0,0
728,-692,0,0,0,0,0,0,0,0,0,-1,1952,1716,0,0
735,-692,0,0,0,0,0,0,0,0,0,-1,1959,1716,0,0
742,-692,0,0,0,0,0,0,0,0,0,-1,1966,1716,0,0
749,-692,0,0,0,0,0,0,0,0,0,-1,1973,1716,0,0
756,-692,0,0,0,0,0,0,0,0,0,-1,1980,1716,0,0
763,-692,0,0,0,0,0,0,0,0,0,-1,1987,1716,0,0
770,-692,0,0,0,0,0,0,0,0,0,-1,1994,1716,0,0
777,-692,0,0,0,0,0,0,0,0,0,-1,2001,1716,0,0
784,-692,0,0,0,0,0,0,0,0,0,-1,2008,1716,0,0
791,-692,0,0,0,0,0,0,0,0,0,-1,2015,1716,0,0
798,-692,0,0,0,0,0,0,0,0,0,-1,2022,1716,0,0
805,-692,0,0,0,0,0,0,0,0,0,-1,2029,1716,0,0
812,-692,0,0,0,0,0,0,0,0,0,-1,2036,1716,0,0
-700,-699,0,0,0,0,0,0,0,0,0,-1,524,1723,0,0
-693,-699,0,0,0,0,0,0,0,0,0,-1,531,1723,0,0
-686,-699,0,0,0,0,0,0,0,0,0,-1,538,1723,0,0
-679,-699,0,0,0,0,0,0,0,0,0,-1,545,1723,0,0
-672,-699,0,0,0,0,0,0,0,0,0,-1,552,1723,0,0
-665,-699,0,0,0,0,0,0,0,0,0,-1,559,1723,0,0
-658,-699,0,0,0,0,0,0,0,0,0,-1,566,1723,0,0
-651,-699,0,0,0,0,0,0,0,0,0,-1,573,1723,0,0
-644,-699,0,0,0,0,0,0,0,0,0,-1,580,1723,0,0
-637,-699,0,0,0,0,0,0,0,0,0,-1,587,1723,0,0
-630,-699,0,0,0,0,0,0,0,0,0,-1,594,1723,0,0
-623,-699,0,0,0,0,0,0,0,0,0,-1,601,1723,0,0
-616,-699,0,0,0,0,0,0,0,0,0,-1,608,1723,0,0
-609,-699,0,0,0,0,0,0,0,0,0,-1,615,1723,0,0
-602,-699,0,0,0,0,0,0,0,0,0,-1,622,1723,0,0
-595,-699,0,0,0,0,0,0,0,0,0,-1,629,1723,0,0
-588,-699,0,0,0,0,0,0,0,0,0,-1,636,1723,0,0
-581,-699,0,0,0,0,0,0,0,0,0,-1,643,1723,0,0
-574,-699,0,0,0,0,0,0,0,0,0,-1,650,1723,0,0
-567,-699,0,0,0,0,0,0,0,0,0,-1,657,1723,0,0
-560,-699,0,0,0,0,0,0,0,0,0,-1,664,1723,0,0
-553,-699,0,0,0,0,0,0,0,0,0,-1,671,1723,0,0
-546,-699,0,0,0,0,0,0,0,0,0,-1,678,1723,0,0
-539,-699,0,0,0,0,0,0,0,0,0,-1,685,1723,0,0
-532,-699,0,0,0,0,0,0,0,0,0,-1,692,1723,0,0
-525,-699,0,0,0,0,0,0,0,0,0,-1,699,1723,0,0
-518,-699,0,0,0,0,0,0,0,0,0,-1,706,1723,0,0
-511,-699,0,0,0,0,0,0,0,0,0,-1,713,1723,0,0
-504,-699,0,0,0,0,0,0,0,0,0,-1,720,1723,0,0
-497,-699,0,0,0,0,0,0,0,0,0,-1,727,1723,0,0
-490,-699,0,0,0,0,0,0,0,0,0,-1,734,1723,0,0
-483,-699,0,0,0,0,0,0,0,0,0,-1,741,1723,0,0
-476,-699,0,0,0,0,0,0,0,0,0,-1,748,1723,0,0
-469,-699,0,0,0,0,0,0,0,0,0,-1,755,1723,0,0
-462,-699,0,0,0,0,0,0,0,0,0,-1,762,1723,0,0
-455,-699,0,0,0,0,0,0,0,0,0,-1,769,1723,0,0
-448,-699,0,0,0,0,0,0,0,0,0,-1,776,1723,0,0
-441,-699,0,0,0,0,0,0,0,0,0,-1,783,1723,0,0
-434,-699,0,0,0,0,0,0,0,0,0,-1,790,1723,0,0
-427,-699,0,0,0,0,0,0,0,0,0,-1,797,1723,0,0
-420,-699,0,0,0,0,0,0,0,0,0,-1,804,1723,0,0
-413,-699,0,0,0,0,0,0,0,0,0,-1,811,1723,0,0
-406,-699,0,0,0,0,0,0,0,0,0,-1,818,1723,0,0
-399,-699,0,0,0,0,0,0,0,0,0,-1,825,1723,0,0
-392,-699,0,0,0,0,0,0,0,0,0,-1,832,1723,0,0
-385,-699,0,0,0,0,0,0,0,0,0,-1,839,1723,0,0
-378,-699,0,0,0,0,0,0,0,0,0,-1,846,1723,0,0
-371,-699,0,0,0,0,0,0,0,0,0,-1,853,1723,0,0
-364,-699,0,0,0,0,0,0,0,0,0,-1,860,1723,0,0
-357,-699,0,0,0,0,0,0,0,0,0,-1,867,1723,0,0
-350,-699,0,0,0,0,0,0,0,0,0,-1,874,1723,0,0
-343,-699,0,0,0,0,0,0,0,0,0,-1,881,1723,0,0
-336,-699,0,0,0,0,0,0,0,0,0,-1,888,1723,0,0
-329,-699,0,0,0,0,0,0,0,0,0,-1,895,1723,0,0
-322,-699,0,0,0,0,0,0,0,0,0,-1,902,1723,0,0
-315,-699,-0.290039,2.58691,0.104373,0.0549609,0.0174443,0.109911,0.0494231,0.307395,0.0635641,0.042747,909,1723,-0.290066,-2.58696
-308,-699,0.0637817,1.79175,0.078436,0.0488037,0.00676947,0.0799092,0.0473305,0.214288,0.0463969,0.0449172,916,1723,0.0638027,-1.79177
-301,-699,-0.44696,1.9657,0,0,0,0,0,0,0,-1,923,1723,-0.446978,-1.96564
-294,-699,-0.641541,1.70032,0.0392338,0.0325886,-0.00558746,0.042412,0.0294105,-0.517159,0.02509,0.0439209,930,1723,-0.641513,-1.70037
-287,-699,-0.677734,1.25452,0.0271916,0.0235273,-0.00809295,0.0336572,0.0170617,-0.67408,0.0194326,0.0447598,937,1723,-0.677724,-1.2545
-280,-699,-0.289734,0.776855,0,0,0,0,0,0,0,-1,944,1723,-0.289755,-0.776899
-273,-699,-0.647278,0.303467,0.0106628,0.00503738,-0.00668648,0.0151041,0.000596095,-0.586305,0.00987668,0.0402314,951,1723,-0.647294,-0.303417
-266,-699,-0.129639,0.368774,0.0125184,-0.00324556,-0.003368,0.0132078,-0.00393499,-0.20191,0.0103688,0.041384,958,1723,-0.129615,-0.368799
-259,-699,-0.426758,-4.93933,0,0,0,0,0,0,0,-1,965,1723,-0.426787,4.93932
-252,-699,0.206299,0.214111,0,0,0,0,0,0,0,-1,972,1723,0.206312,-0.214104
-245,-699,0.172058,-0.079834,0,0,0,0,0,0,0,-1,979,1723,0.172085,0.0798107
-238,-699,0.334229,-0.179199,0,0,0,0,0,0,0,-1,986,1723,0.334233,0.179193
-231,-699,0.238831,-0.159424,0.0153076,-0.0188965,0.00844408,0.0172786,-0.0208675,0.229316,0.0220561,0.04009,993,1723,0.238861,0.159433
-224,-699,0.139587,-0.138672,0.0146679,-0.0170664,0.00967312,0.0173839,-0.0197824,0.273736,0.0214729,0.0330566,1000,1723,0.139566,0.138695
-217,-699,0.0545044,-0.112427,0.0133702,-0.0146833,0.0106592,0.0169608,-0.0182738,0.324911,0.0203474,0.0229421,1007,1723,0.0544904,0.112469
-210,-699,-0.000366211,-0.0697021,0.011317,-0.0125212,0.0106196,0.0153617,-0.0165658,0.363903,0.0184377,0.0168227,1014,1723,-0.000364745,0.0696765
-203,-699,-0.00109863,-0.0828857,0.00938138,-0.00784979,0.0107159,0.0145156,-0.0129841,0.44681,0.0158852,0.0185059,1021,1723,-0.00108889,0.0828392
-196,-699,-0.0219727,-0.0830078,0.00801861,-0.00391717,0.0102247,0.0138896,-0.00978817,0.521233,0.0137386,0.0150882,1028,1723,-0.0219924,0.0829657
-189,-699,-0.0374756,-0.0778809,0.0066036,-0.000936541,0.00948582,0.0130411,-0.00737402,0.596248,0.0119371,0.00798418,1035,1723,-0.0374158,0.0779258
-182,-699,-0.0512695,-0.0825195,0.00531556,0.00102988,0.00877014,0.0122009,-0.00585541,0.665579,0.0106372,0.0108635,1042,1723,-0.051211,0.0824747
-175,-699,-0.0426025,-0.0827637,0.00420604,0.00262694,0.00779343,0.0112498,-0.00441684,0.734916,0.00932751,0.0134742,1049,1723,-0.0425649,0.0828213
-168,-699,-0.00158691,-0.102661,0.00339752,0.00333024,0.0068255,0.0101895,-0.0034617,0.782934,0.00819435,0.0145592,1056,1723,-0.00155291,0.102645
-161,-699,0.00805664,-0.0976563,0.00292866,0.00342253,0.0057806,0.00896147,-0.00261027,0.806744,0.00700835,0.0125196,1063,1723,0.00803684,0.0976666
-154,-699,-0.0114746,-0.0639648,0.0022493,0.00360767,0.0045887,0.00756717,-0.00171021,0.858871,0.00570101,0.0123906,1070,1723,-0.0115077,0.0639329
-147,-699,-0.0266113,-0.0739746,0.00174043,0.00339721,0.00344422,0.00611126,-0.000973622,0.903414,0.00443449,0.0128112,1077,1723,-0.0265971,0.0740173
-140,-699,-0.0332031,-0.0933838,0.00151679,0.00276138,0.0025393,0.00475353,-0.000475355,0.905563,0.00333877,0.00875969,1084,1723,-0.0332566,0.0933302
-133,-699,-0.0263672,-0.0772705,0.001291,0.00216344,0.00170184,0.00348407,-2.96327e-05,0.910858,0.00233266,0.0082793,1091,1723,-0.0263793,0.0772167
-126,-699,-0.0157471,-0.0742188,0.000828733,0.00166809,0.000880572,0.00222388,0.000272943,1.00777,0.0014005,0.0103148,1098,1723,-0.0157341,0.0741689
-119,-699,-0.0184326,-0.0765381,0.000495172,0.00135638,0.00022232,0.00141039,0.000441167,1.3325,0.000833095,0.0151086,1105,1723,-0.0183923,0.0765574
-112,-699,-0.0321045,-0.0734863,0.000311484,0.00102389,-0.000251329,0.00110363,0.000231744,-1.26357,0.000671963,0.0110249,1112,1723,-0.0321408,0.0734611
-105,-699,-0.0174561,-0.0578613,0.000140209,0.000812978,-0.000528291,0.00110289,-0.000149702,-1.0689,0.000789903,0.0115894,1119,1723,-0.0175042,0.0578249
-98,-699,0.00378418,-0.0772705,-4.13931e-05,0.000628443,-0.000789276,0.00115092,-0.000563871,-0.986052,0.00100919,0.0127982,1126,1723,0.00376983,0.0772475
-91,-699,0.00158691,-0.108154,-0.000140231,0.000875821,-0.0010089,0.00149739,-0.000761796,-1.01864,0.00132719,0.0165467,1133,1723,0.00160644,0.108161
-84,-699,-0.0131836,-0.101807,-0.000230614,0.00107708,-0.00114173,0.00173893,-0.000892462,-1.04544,0.00154521,0.0186756,1140,1723,-0.0131232,0.101836
-77,-699,-0.0141602,-0.0655518,-0.000220212,0.00130669,-0.0012371,0.00199695,-0.000910476,-1.06186,0.00171723,0.0135071,1147,1723,-0.0141302,0.0655187
-70,-699,-0.019165,-0.0582275,-6.11398e-05,0.00163092,-0.00123117,0.00227873,-0.000708944,-1.08643,0.00180255,0.0152786,1154,1723,-0.0191153,0.0582514
-63,-699,-0.0184326,-0.0593262,0.00015105,0.00190351,-0.00116819,0.00248757,-0.000433013,-1.10717,0.00181997,0.0135496,1161,1723,-0.0184098,0.0593235
-56,-699,-0.0179443,-0.078125,0.00051259,0.00229328,-0.00114921,0.00285669,-5.0821e-05,-1.11497,0.00192163,0.00964174,1168,1723,-0.0179732,0.0781166
-49,-699,-0.00415039,-0.0831299,0.00134243,0.00281926,-0.000941833,0.00327763,0.000884057,-1.11786,0.0019581,0.0182008,1175,1723,-0.00410299,0.0830943
-42,-699,-0.0236816,-0.0778809,0.00234062,0.00324011,-0.000443086,0.00342171,0.00215902,-1.18182,0.00199799,0.0200513,1182,1723,-0.0236269,0.0778277
-35,-699,-0.0281982,-0.0848389,0.00336104,0.00354563,0.000171054,0.0036477,0.00325897,1.0328,0.00231313,0.0194005,1189,1723,-0.0281734,0.0848761
-28,-699,0.00805664,-0.0875244,0.0042607,0.00359623,0.000872488,0.00486207,0.00299486,0.603478,0.00283217,0.0139557,1196,1723,0.00806939,0.0875
-21,-699,-0.00402832,-0.0848389,0.00498431,0.00322088,0.00183043,0.00613431,0.00207088,0.560949,0.00360339,0.0100442,1203,1723,-0.00400507,0.0848465
-14,-699,-0.0222168,-0.0843506,0.00570133,0.00315311,0.00260236,0.00732474,0.0015297,0.557752,0.00446155,0.00984861,1210,1723,-0.0222209,0.0843879
-7,-699,-0.0291748,-0.0687256,0.00646778,0.00270813,0.0032904,0.00837747,0.000798438,0.525871,0.00533878,0.00790071,1217,1723,-0.0291261,0.0687773
0,-699,-0.0288086,-0.0737305,0.00650487,0.00217833,0.00377363,0.00869131,-8.11554e-06,0.525135,0.00579692,0.00998304,1224,1723,-0.028834,0.0737228
7,-699,-0.0455322,-0.0866699,0.00617652,0.00111091,0.00370218,0.00812939,-0.000841956,0.485398,0.00572094,0.0158977,1231,1723,-0.0454812,0.0867254
14,-699,-0.010376,-0.0777588,0.00554384,-4.32698e-05,0.0034232,0.00716868,-0.00166811,0.443168,0.00542139,0.0170782,1238,1723,-0.0103555,0.0777249
21,-699,0.0236816,-0.0737305,0.00462157,-0.000558225,0.00286245,0.00589187,-0.00182853,0.417673,0.00465862,0.016264,1245,1723,0.0237279,0.0737362
28,-699,-0.00817871,-0.0738525,0.00337813,-0.000615364,0.00197754,0.00419166,-0.00142889,0.390282,0.00337317,0.0156462,1252,1723,-0.00815383,0.0738226
35,-699,-0.00146484,-0.0654297,0.00206482,-0.000764419,0.000867504,0.00230963,-0.00100923,0.275049,0.00196456,0.0128976,1259,1723,-0.00145826,0.0654733
42,-699,-0.0288086,-0.0645752,0.000436645,-0.000985664,-3.99898e-05,0.000437769,-0.000986787,-0.0280865,0.000842582,0.0113091,1266,1723,-0.0287882,0.0645257
49,-699,-0.0229492,-0.0727539,-0.00105899,-0.000809301,-0.000895096,-3.03846e-05,-0.00183791,-0.854689,0.00121527,0.013954,1273,1723,-0.0229563,0.0727733
56,-699,0.00244141,-0.0804443,-0.00196651,-0.00166221,-0.000396553,-0.00138962,-0.0022391,-0.968578,0.00130522,0.0153523,1280,1723,0.00241931,0.0804429
63,-699,0.0224609,-0.0733643,-0.00263225,-0.00281495,0.000419861,-0.00229392,-0.00315329,0.678284,0.0018823,0.0124682,1287,1723,0.0225091,0.0733045
70,-699,0.0150146,-0.0584717,-0.00412681,-0.00345001,0.00243088,-0.00133409,-0.00624273,0.854558,0.00379608,0.0107559,1294,1723,0.0150722,0.0584646
77,-699,-0.00341797,-0.0723877,-0.00531422,-0.00307154,0.0046129,0.000554351,-0.00894011,0.90463,0.00615319,0.0108079,1301,1723,-0.00346436,0.0724225
84,-699,-0.0130615,-0.0874023,-0.00610073,-0.00311004,0.00695525,0.0025088,-0.0117196,0.891284,0.00876976,0.0128351,1308,1723,-0.0131191,0.0873462
91,-699,-0.0235596,-0.0552979,-0.00664659,-0.00353168,0.0094739,0.00451193,-0.0146902,0.866867,0.0115939,0.0121741,1315,1723,-0.0235523,0.0552491
98,-699,-0.0130615,-0.0322266,-0.00745601,-0.00362496,0.0119074,0.00651999,-0.017601,0.865149,0.0144078,0.0104691,1322,1723,-0.0131104,0.032198
105,-699,-0.0167236,-0.0452881,-0.007032,-0.00367941,0.0140972,0.00884077,-0.0195522,0.844575,0.016777,0.0148714,1329,1723,-0.0167422,0.0453068
112,-699,-0.0246582,-0.0544434,-0.00647071,-0.0036969,0.0155705,0.0105483,-0.0207159,0.829817,0.0183658,0.0212088,1336,1723,-0.0246932,0.0544022
119,-699,-0.0516357,-0.0684814,-0.00623967,-0.00400484,0.0157912,0.0107085,-0.020953,0.82072,0.018596,0.0159727,1343,1723,-0.0516686,0.0684922
126,-699,-0.0400391,-0.0682373,-0.00565953,-0.0044003,0.0148624,0.00984581,-0.0199056,0.806567,0.0175013,0.0161768,1350,1723,-0.0399858,0.0682198
133,-699,-0.0168457,-0.0617676,-0.00484717,-0.00476006,0.0134635,0.00865993,-0.0182672,0.787016,0.0158728,0.0130964,1357,1723,-0.0168625,0.0617508
140,-699,0.0112305,-0.0574951,-0.00393468,-0.00462147,0.0116154,0.00734244,-0.0158986,0.770621,0.013718,0.0140973,1364,1723,0.0112857,0.0575022
147,-699,0.00109863,-0.0596924,-0.00276185,-0.00451785,0.00971102,0.00611078,-0.0133905,0.740314,0.0115176,0.0132532,1371,1723,0.00115727,0.0597071
154,-699,-0.0158691,-0.0668945,-0.00165168,-0.00482223,0.00795864,0.00487803,-0.0113519,0.68709,0.00961566,0.0126591,1378,1723,-0.0159133,0.0668813
161,-699,-0.0297852,-0.0822754,-0.000993659,-0.00462383,0.00587153,0.00333694,-0.00895443,0.635491,0.00733931,0.00915251,1385,1723,-0.029761,0.0823012
168,-699,-0.0262451,-0.0767822,-0.000289218,-0.00464531,0.00425976,0.00231703,-0.00725155,0.549072,0.00576409,0.00989251,1392,1723,-0.0262267,0.0768103
175,-699,-0.00598145,-0.0739746,0.00102506,-0.00500518,0.00283015,0.00214524,-0.00612536,0.376883,0.00495591,0.0114545,1399,1723,-0.00603869,0.0739859
182,-699,-0.00817871,-0.0847168,0.00199892,-0.00542275,0.00210307,0.00255343,-0.00597727,0.257801,0.0050557,0.0125062,1406,1723,-0.00816519,0.0847322
189,-699,-0.0168457,-0.0667725,0.00232433,-0.00492221,0.00161703,0.00266879,-0.00526667,0.209882,0.00466266,0.0153985,1413,1723,-0.0168543,0.0668207
196,-699,-0.0354004,-0.0794678,0.00201715,-0.00421421,0.00144895,0.00233759,-0.00453465,0.21765,0.00403471,0.0150456,1420,1723,-0.0353884,0.0795062
203,-699,-0.0396729,-0.069458,0.00185798,-0.00299621,0.00139092,0.00222828,-0.00336651,0.260195,0.00325236,0.0123152,1427,1723,-0.0396541,0.069441
210,-699,-0.0197754,-0.0714111,0.00150099,-0.00181397,0.00124925,0.00191905,-0.00223203,0.322934,0.00239889,0.0126478,1434,1723,-0.0197925,0.0714399
217,-699,-0.0262451,-0.0822754,0.00106304,-0.000366402,0.00141734,0.00193567,-0.00123903,0.55187,0.00184756,0.0132781,1441,1723,-0.0262138,0.0822741
224,-699,-0.0224609,-0.0748291,0.000797189,0.000543485,0.00148218,0.00215793,-0.00081726,0.74271,0.00177491,0.0138991,1448,1723,-0.0225007,0.0748357
231,-699,0.00427246,-0.0709229,0.000562921,0.00125615,0.00159597,0.00254271,-0.000723639,0.892328,0.00198091,0.01077,1455,1723,0.00421976,0.0709024
238,-699,-0.0316162,-0.0734863,0.000383509,0.00181228,0.00169825,0.00294029,-0.000744495,0.984493,0.0022498,0.0102336,1462,1723,-0.031604,0.0734388
245,-699,-0.0321045,-0.088501,0.000256088,0.00210918,0.00172146,0.0031376,-0.00077234,1.03228,0.00239113,0.0122957,1469,1723,-0.0321428,0.0884977
252,-699,-0.0299072,-0.0891113,0.000133711,0.00205226,0.00167258,0.00302112,-0.000835156,1.04576,0.00234263,0.0100619,1476,1723,-0.0299201,0.0891476
259,-699,-0.0354004,-0.0765381,0.000135158,0.00181916,0.0015683,0.00275719,-0.000802876,1.03176,0.00215617,0.0101155,1483,1723,-0.0353866,0.0765203
266,-699,-0.0367432,-0.0700684,0.000475567,0.00139541,0.0012991,0.0023136,-0.000442624,0.955529,0.00170916,0.0124493,1490,1723,-0.0366898,0.0700954
273,-699,-0.0324707,-0.0782471,0.000980239,0.00117237,0.000955478,0.0020366,0.000116011,0.835502,0.00132076,0.0113733,1497,1723,-0.0325269,0.0783052
280,-699,-0.0224609,-0.0632324,0.00168177,0.0010853,0.000498531,0.00196446,0.000802603,0.51584,0.00114049,0.0115395,1504,1723,-0.0224048,0.063263
287,-699,-0.0275879,-0.0704346,0.0024432,0.00102634,-0.000251482,0.00248651,0.000983028,-0.170555,0.00144603,0.0101728,1511,1723,-0.0275893,0.0704685
294,-699,-0.0196533,-0.0704346,0.00342418,0.00120151,-0.000775903,0.00366824,0.000957454,-0.304749,0.00219702,0.0101962,1518,1723,-0.0196612,0.0704608
301,-699,-0.00793457,-0.0568848,0.00472962,0.00117861,-0.00126603,0.00513477,0.000773463,-0.309716,0.0031967,0.0106489,1525,1723,-0.00791233,0.0568828
308,-699,0.00402832,-0.0507813,0.00566698,0.00101857,-0.00209491,0.00647176,0.000213791,-0.366779,0.00424504,0.0144387,1532,1723,0.00405525,0.0508027
315,-699,0.0113525,-0.0683594,0.00647712,0.0013506,-0.00239656,0.00742296,0.000404757,-0.3759,0.00481939,0.0172467,1539,1723,0.0113782,0.0683788
322,-699,-0.0145264,-0.0874023,0.00753491,0.00198944,-0.00259126,0.00855727,0.000967085,-0.37579,0.00541136,0.0185831,1546,1723,-0.0145408,0.0874011
329,-699,-0.0413818,-0.0913086,0.00819192,0.00289592,-0.00217637,0.00897153,0.00211631,-0.343974,0.00541523,0.0144656,1553,1723,-0.0413443,0.0913436
336,-699,-0.0205078,-0.0770264,0.00780229,0.00368606,-0.00190688,0.00854989,0.00293846,-0.373637,0.00501605,0.0124225,1560,1723,-0.0204884,0.0770852
343,-699,-0.0314941,-0.0820313,0.00660808,0.00423706,-0.00173397,0.00752307,0.00332207,-0.485548,0.00435331,0.016342,1567,1723,-0.0314469,0.0820154
350,-699,-0.0390625,-0.098877,0.00516535,0.0046851,-0.00122146,0.00617006,0.00368039,-0.68834,0.00358433,0.0260234,1574,1723,-0.0390243,0.0989269
357,-699,-0.0469971,-0.137085,0.00364031,0.00538258,-0.000536189,0.00553437,0.00348852,-1.29492,0.00323125,0.0356793,1581,1723,-0.0469513,0.137092
364,-699,0.00756836,-0.121948,0.00207247,0.00620695,-7.40274e-05,0.00620828,0.00207114,-1.5529,0.00364991,0.0401874,1588,1723,0.00754754,0.122001
371,-699,1.04138,1.45288,0,0,0,0,0,0,0,-1,1595,1723,1.04135,-1.45286
378,-699,1.203,1.84473,0,0,0,0,0,0,0,-1,1602,1723,1.20304,-1.84477
385,-699,1.65576,1.68311,0,0,0,0,0,0,0,-1,1609,1723,1.65571,-1.68308
392,-699,0.0756836,0.0366211,0,0,0,0,0,0,0,-1,1616,1723,0.0756896,-0.0366587
399,-699,-0.313232,-0.228271,-0.0057277,0.00502,0.000380966,0.00503349,-0.00574119,1.53541,0.00622524,0.0446251,1623,1723,-0.313229,0.228216
406,-699,-0.453491,0.0494385,-0.00653193,0.00294772,2.02055e-05,0.00294776,-0.00653197,1.56866,0.00560201,0.0450124,1630,1723,-0.453446,-0.0494527
413,-699,-0.335571,-0.0570068,-0.00703063,0.00104897,0.000567305,0.00108861,-0.00707027,1.50104,0.00511514,0.0415221,1637,1723,-0.33557,0.0569827
420,-699,-0.00842285,-0.348877,-0.00816259,-0.0028915,0.00148206,-0.00250337,-0.00855072,1.31466,0.00507613,0.0433048,1644,1723,-0.00845631,0.348846
427,-699,-0.401611,1.69019,0,0,0,0,0,0,0,-1,1651,1723,-0.401629,-1.6902
434,-699,-0.650635,1.25623,0,0,0,0,0,0,0,-1,1658,1723,-0.650628,-1.25626
441,-699,0,0,0,0,0,0,0,0,0,-1,1665,1723,0,0
448,-699,0,0,0,0,0,0,0,0,0,-1,1672,1723,0,0
455,-699,0,0,0,0,0,0,0,0,0,-1,1679,1723,0,0
462,-699,0,0,0,0,0,0,0,0,0,-1,1686,1723,0,0
469,-699,0,0,0,0,0,0,0,0,0,-1,1693,1723,0,0
476,-699,0,0,0,0,0,0,0,0,0,-1,1700,1723,0,0
483,-699,0,0,0,0,0,0,0,0,0,-1,1707,1723,0,0
490,-699,0,0,0,0,0,0,0,0,0,-1,1714,1723,0,0
497,-699,0,0,0,0,0,0,0,0,0,-1,1721,1723,0,0
504,-699,0,0,0,0,0,0,0,0,0,-1,1728,1723,0,0
511,-699,0,0,0,0,0,0,0,0,0,-1,1735,1723,0,0
518,-699,0,0,0,0,0,0,0,0,0,-1,1742,1723,0,0
525,-699,0,0,0,0,0,0,0,0,0,-1,1749,1723,0,0
532,-699,0,0,0,0,0,0,0,0,0,-1,1756,1723,0,0
539,-699,0,0,0,0,0,0,0,0,0,-1,1763,1723,0,0
546,-699,0,0,0,0,0,0,0,0,0,-1,1770,1723,0,0
553,-699,0,0,0,0,0,0,0,0,0,-1,1777,1723,0,0
560,-699,0,0,0,0,0,0,0,0,0,-1,1784,1723,0,0
567,-699,0,0,0,0,0,0,0,0,0,-1,1791,1723,0,0
574,-699,0,0,0,0,0,0,0,0,0,-1,1798,1723,0,0
581,-699,0,0,0,0,0,0,0,0,0,-1,1805,1723,0,0
588,-699,0,0,0,0,0,0,0,0,0,-1,1812,1723,0,0
595,-699,0,0,0,0,0,0,0,0,0,-1,1819,1723,0,0
602,-699,0,0,0,0,0,0,0,0,0,-1,1826,1723,0,0
609,-699,0,0,0,0,0,0,0,0,0,-1,1833,1723,0,0
616,-699,0,0,0,0,0,0,0,0,0,-1,1840,1723,0,0
623,-699,0,0,0,0,0,0,0,0,0,-1,1847,1723,0,0
630,-699,0,0,0,0,0,0,0,0,0,-1,1854,1723,0,0
637,-699,0,0,0,0,0,0,0,0,0,-1,1861,1723,0,0
644,-699,0,0,0,0,0,0,0,0,0,-1,1868,1723,0,0
651,-699,0,0,0,0,0,0,0,0,0,-1,1875,1723,0,0
658,-699,0,0,0,0,0,0,0,0,0,-1,1882,1723,0,0
665,-699,0,0,0,0,0,0,0,0,0,-1,1889,1723,0,0
672,-699,0,0,0,0,0,0,0,0,0,-1,1896,1723,0,0
679,-699,0,0,0,0,0,0,0,0,0,-1,1903,1723,0,0
686,-699,0,0,0,0,0,0,0,0,0,-1,1910,1723,0,0
693,-699,0,0,0,0,0,0,0,0,0,-1,1917,1723,0,0
700,-699,0,0,0,0,0,0,0,0,0,-1,1924,1723,0,0
707,-699,0,0,0,0,0,0,0,0,0,-1,1931,1723,0,0
714,-699,0,0,0,0,0,0,0,0,0,-1,1938,1723,0,0
721,-699,0,0,0,0,0,0,0,0,0,-1,1945,1723,0,0
728,-699,0,0,0,0,0,0,0,0,0,-1,1952,1723,0,0
735,-699,0,0,0,0,0,0,0,0,0,-1,1959,1723,0,0
742,-699,0,0,0,0,0,0,0,0,0,-1,1966,1723,0,0
749,-699,0,0,0,0,0,0,0,0,0,-1,1973,1723,0,0
756,-699,0,0,0,0,0,0,0,0,0,-1,1980,1723,0,0
763,-699,0,0,0,0,0,0,0,0,0,-1,1987,1723,0,0
770,-699,0,0,0,0,0,0,0,0,0,-1,1994,1723,0,0
777,-699,0,0,0,0,0,0,0,0,0,-1,2001,1723,0,0
784,-699,0,0,0,0,0,0,0,0,0,-1,2008,1723,0,0
791,-699,0,0,0,0,0,0,0,0,0,-1,2015,1723,0,0
798,-699,0,0,0,0,0,0,0,0,0,-1,2022,1723,0,0
805,-699,0,0,0,0,0,0,0,0,0,-1,2029,1723,0,0
812,-699,0,0,0,0,0,0,0,0,0,-1,2036,1723,0,0
-700,-706,0,0,0,0,0,0,0,0,0,-1,524,1730,0,0
-693,-706,0,0,0,0,0,0,0,0,0,-1,531,1730,0,0
-686,-706,0,0,0,0,0,0,0,0,0,-1,538,1730,0,0
-679,-706,0,0,0,0,0,0,0,0,0,-1,545,1730,0,0
-672,-706,0,0,0,0,0,0,0,0,0,-1,552,1730,0,0
-665,-706,0,0,0,0,0,0,0,0,0,-1,559,1730,0,0
-658,-706,0,0,0,0,0,0,0,0,0,-1,566,1730,0,0
-651,-706,0,0,0,0,0,0,0,0,0,-1,573,1730,0,0
-644,-706,0,0,0,0,0,0,0,0,0,-1,580,1730,0,0
-637,-706,0,0,0,0,0,0,0,0,0,-1,587,1730,0,0
-630,-706,0,0,0,0,0,0,0,0,0,-1,594,1730,0,0
-623,-706,0,0,0,0,0,0,0,0,0,-1,601,1730,0,0
-616,-706,0,0,0,0,0,0,0,0,0,-1,608,1730,0,0
-609,-706,0,0,0,0,0,0,0,0,0,-1,615,1730,0,0
-602,-706,0,0,0,0,0,0,0,0,0,-1,622,1730,0,0
-595,-706,0,0,0,0,0,0,0,0,0,-1,629,1730,0,0
-588,-706,0,0,0,0,0,0,0,0,0,-1,636,1730,0,0
-581,-706,0,0,0,0,0,0,0,0,0,-1,643,1730,0,0
-574,-706,0,0,0,0,0,0,0,0,0,-1,650,1730,0,0
-567,-706,0,0,0,0,0,0,0,0,0,-1,657,1730,0,0
-560,-706,0,0,0,0,0,0,0,0,0,-1,664,1730,0,0
-553,-706,0,0,0,0,0,0,0,0,0,-1,671,1730,0,0
-546,-706,0,0,0,0,0,0,0,0,0,-1,678,1730,0,0
-539,-706,0,0,0,0,0,0,0,0,0,-1,685,1730,0,0
-532,-706,0,0,0,0,0,0,0,0,0,-1,692,1730,0,0
-525,-706,0,0,0,0,0,0,0,0,0,-1,699,1730,0,0
-518,-706,0,0,0,0,0,0,0,0,0,-1,706,1730,0,0
-511,-706,0,0,0,0,0,0,0,0,0,-1,713,1730,0,0
-504,-706,0,0,0,0,0,0,0,0,0,-1,720,1730,0,0
-497,-706,0,0,0,0,0,0,0,0,0,-1,727,1730,0,0
-490,-706,0,0,0,0,0,0,0,0,0,-1,734,1730,0,0
-483,-706,0,0,0,0,0,0,0,0,0,-1,741,1730,0,0
-476,-706,0,0,0,0,0,0,0,0,0,-1,748,1730,0,0
-469,-706,0,0,0,0,0,0,0,0,0,-1,755,1730,0,0
-462,-706,0,0,0,0,0,0,0,0,0,-1,762,1730,0,0
-455,-706,0,0,0,0,0,0,0,0,0,-1,769,1730,0,0
-448,-706,0,0,0,0,0,0,0,0,0,-1,776,1730,0,0
-441,-706,0,0,0,0,0,0,0,0,0,-1,783,1730,0,0
-434,-706,0,0,0,0,0,0,0,0,0,-1,790,1730,0,0
-427,-706,0,0,0,0,0,0,0,0,0,-1,797,1730,0,0
-420,-706,0,0,0,0,0,0,0,0,0,-1,804,1730,0,0
-413,-706,0,0,0,0,0,0,0,0,0,-1,811,1730,0,0
-406,-706,0,0,0,0,0,0,0,0,0,-1,818,1730,0,0
-399,-706,0,0,0,0,0,0,0,0,0,-1,825,1730,0,0
-392,-706,0,0,0,0,0,0,0,0,0,-1,832,1730,0,0
-385,-706,0,0,0,0,0,0,0,0,0,-1,839,1730,0,0
-378,-706,0,0,0,0,0,0,0,0,0,-1,846,1730,0,0
-371,-706,0,0,0,0,0,0,0,0,0,-1,853,1730,0,0
-364,-706,0,0,0,0,0,0,0,0,0,-1,860,1730,0,0
-357,-706,0,0,0,0,0,0,0,0,0,-1,867,1730,0,0
-350,-706,0,0,0,0,0,0,0,0,0,-1,874,1730,0,0
-343,-706,0,0,0,0,0,0,0,0,0,-1,881,1730,0,0
-336,-706,0,0,0,0,0,0,0,0,0,-1,888,1730,0,0
-329,-706,0,0,0,0,0,0,0,0,0,-1,895,1730,0,0
-322,-706,0,0,0,0,0,0,0,0,0,-1,902,1730,0,0
-315,-706,0,0,0,0,0,0,0,0,0,-1,909,1730,0,0
-308,-706,0.0106812,0.88623,0.0925051,0.0643636,0.000666126,0.0925209,0.0643479,0.0236529,0.0547611,0.0465683,916,1730,0.0106896,-0.886261
-301,-706,0.015625,1.0033,0,0,0,0,0,0,0,-1,923,1730,0.0155971,-1.00334
-294,-706,-0.249817,1.27185,0.0458506,0.0403269,-0.00906748,0.0525675,0.0336099,-0.637567,0.0307403,0.04782,930,1730,-0.24982,-1.27179
-287,-706,-0.417053,0.919312,0.0322804,0.0282965,-0.0102485,0.0407288,0.0198481,-0.689414,0.0235173,0.0452972,937,1730,-0.417042,-0.919369
-280,-706,-0.539856,0.526245,0.0243731,0.0154469,-0.00922162,0.0301549,0.00966516,-0.560023,0.0177799,0.0421732,944,1730,-0.539829,-0.526219
-273,-706,-0.67688,0.145386,0.0141772,0.00457401,-0.00655506,0.0175011,0.00125008,-0.469294,0.0112739,0.0408792,951,1730,-0.676906,-0.145336
-266,-706,-0.817871,-0.450806,0.0165884,-0.00608157,-0.00198973,0.0167617,-0.00625488,-0.0868842,0.0137424,0.0435223,958,1730,-0.817857,0.450808
-259,-706,-1.0191,-3.72803,0.0185917,-0.014956,0.00207606,0.0187197,-0.015084,0.0615707,0.0195541,0.0481402,965,1730,-1.0191,3.728
-252,-706,-1.70239,-3.71045,0,0,0,0,0,0,0,-1,972,1730,-1.70238,3.71048
-245,-706,0.581238,-0.786499,0,0,0,0,0,0,0,-1,979,1730,0.581255,0.786536
-238,-706,-0.874023,-5.17957,0,0,0,0,0,0,0,-1,986,1730,-0.874052,5.17961
-231,-706,-0.22583,-4.34302,0,0,0,0,0,0,0,-1,993,1730,-0.225857,4.34308
-224,-706,-0.0563354,-3.95044,0,0,0,0,0,0,0,-1,1000,1730,-0.056358,3.95039
-217,-706,0.18866,-3.47961,0,0,0,0,0,0,0,-1,1007,1730,0.18865,3.4796
-210,-706,-0.127441,0.0965576,0.0158966,-0.0157228,0.0155809,0.022284,-0.0221102,0.389055,0.0256311,0.0365555,1014,1730,-0.127416,-0.0966004
-203,-706,-0.0565796,-0.00354004,0.0136643,-0.00992128,0.0156784,0.0214899,-0.0177469,0.462955,0.0226877,0.0283876,1021,1730,-0.0565704,0.0034915
-196,-706,-0.00256348,-0.10022,0.012069,-0.00487502,0.0151259,0.0209339,-0.01374,0.530117,0.0201621,0.0205613,1028,1730,-0.0025779,0.100271
-189,-706,-0.0408936,-0.0838623,0.0103763,-0.000917001,0.014165,0.0199786,-0.0105193,0.595734,0.0178881,0.0159941,1035,1730,-0.0409108,0.0838305
-182,-706,-0.0405273,-0.0854492,0.00882183,0.00164367,0.0132678,0.0189774,-0.0085119,0.653304,0.0162498,0.0122124,1042,1730,-0.0405387,0.0854879
-175,-706,-0.0128174,-0.0931396,0.00743562,0.0037021,0.011961,0.0176746,-0.00653691,0.707987,0.0144632,0.0135898,1049,1730,-0.0128179,0.0930992
-168,-706,0.0119629,-0.119995,0.00632049,0.00459121,0.0105982,0.0160893,-0.00517755,0.744696,0.0128058,0.014793,1056,1730,0.0119138,0.119947
-161,-706,0.0078125,-0.114624,0.00561844,0.00466469,0.0090778,0.0142319,-0.00394875,0.759156,0.0110421,0.0124459,1063,1730,0.00783133,0.114575
-154,-706,-0.0181885,-0.0581055,0.004603,0.0048438,0.00737443,0.0120988,-0.00265201,0.793561,0.00907991,0.0119402,1070,1730,-0.0181687,0.0580855
-147,-706,-0.0333252,-0.0681152,0.00367826,0.00451456,0.00572675,0.00983841,-0.00164559,0.821842,0.00717069,0.0107509,1077,1730,-0.0333263,0.0681076
-140,-706,-0.0247803,-0.072998,0.00308196,0.00367955,0.00437155,0.00776251,-0.00100099,0.81952,0.0055389,0.00954174,1084,1730,-0.0248199,0.0730531
-133,-706,-0.00646973,-0.078125,0.00252323,0.00291776,0.00310568,0.00583243,-0.000391447,0.817114,0.00402512,0.00791264,1091,1730,-0.00650555,0.0781657
-126,-706,-0.00109863,-0.076416,0.0016863,0.00219885,0.00185282,0.00381303,7.21144e-05,0.854119,0.00251833,0.0116051,1098,1730,-0.0010513,0.0763885
-119,-706,-0.0124512,-0.104492,0.00104313,0.00171263,0.000803939,0.00224873,0.000507033,0.982676,0.00136197,0.016297,1105,1730,-0.0124756,0.104467
-112,-706,-0.0231934,-0.0670166,0.000585608,0.00123705,3.00894e-05,0.00123844,0.000584221,1.52474,0.000715395,0.0122713,1112,1730,-0.0231475,0.0670372
-105,-706,-0.019043,-0.0539551,0.000230332,0.00111728,-0.000306325,0.00121279,0.000134822,-1.26855,0.000767545,0.00882845,1119,1730,-0.0190171,0.0539865
-98,-706,-0.00109863,-0.0692139,-1.17903e-06,0.00107407,-0.000557792,0.00131115,-0.000238263,-1.16889,0.000963394,0.0100315,1126,1730,-0.00113328,0.0691727
-91,-706,0.00488281,-0.0767822,-0.000119618,0.00124231,-0.000753073,0.00157665,-0.000453951,-1.15298,0.00123065,0.0135029,1133,1730,0.00491161,0.0768059
-84,-706,-0.0148926,-0.0709229,-0.000288806,0.00134954,-0.000841736,0.00170492,-0.000644181,-1.17131,0.00140158,0.016491,1140,1730,-0.0148939,0.0709786
-77,-706,-0.000610352,-0.0578613,-0.000358801,0.00150725,-0.000896018,0.00186782,-0.000719369,-1.18821,0.00154199,0.0152974,1147,1730,-0.000591146,0.0578692
-70,-706,-0.0106201,-0.0548096,-0.000307533,0.00170399,-0.000848049,0.0020138,-0.000617349,-1.22053,0.00158881,0.016181,1154,1730,-0.0106611,0.0547702
-63,-706,-0.0247803,-0.0622559,-0.000227103,0.00182202,-0.000798514,0.00209644,-0.000501523,-1.23978,0.00159136,0.012397,1161,1730,-0.024746,0.0623045
-56,-706,-0.0181885,-0.0789795,-2.43131e-05,0.00200662,-0.000759419,0.00225918,-0.000276873,-1.24973,0.00160638,0.0121463,1168,1730,-0.0182493,0.078925
-49,-706,-0.0274658,-0.0872803,0.000525554,0.00224214,-0.000544345,0.00240021,0.000367492,-1.2882,0.00149279,0.0121014,1175,1730,-0.0274848,0.0872291
-42,-706,-0.0264893,-0.0771484,0.00125316,0.00239931,-0.000146114,0.00241765,0.00123483,-1.44597,0.00139594,0.0167958,1182,1730,-0.0264763,0.0772047
-35,-706,-0.00805664,-0.0877686,0.00197535,0.00251661,0.000334421,0.00267619,0.00181577,1.12557,0.00157757,0.0168857,1189,1730,-0.00805538,0.0877209
-28,-706,-0.00378418,-0.0800781,0.00261907,0.00248294,0.000908965,0.00346252,0.0016395,0.748026,0.00200002,0.00962566,1196,1730,-0.00376784,0.0800184
-21,-706,-0.00976563,-0.0766602,0.00319431,0.00216748,0.00170022,0.00445694,0.000904841,0.638767,0.00272031,0.00874228,1203,1730,-0.00975386,0.0767041
-14,-706,-0.0202637,-0.0821533,0.00385513,0.00215006,0.00239644,0.00554616,0.00045903,0.614504,0.00355432,0.00873852,1210,1730,-0.0202987,0.0821597
-7,-706,-0.0258789,-0.0714111,0.00459863,0.0018725,0.00304716,0.0065737,-0.000102571,0.575086,0.00441705,0.00784827,1217,1730,-0.0258783,0.0713805
0,-706,-0.0164795,-0.0709229,0.0048336,0.0015728,0.0035753,0.0071327,-0.000726301,0.571475,0.0050148,0.0116191,1224,1730,-0.0165321,0.0709495
7,-706,-0.00268555,-0.0926514,0.00484015,0.000908246,0.00368862,0.00705402,-0.00130562,0.540558,0.00519289,0.0143229,1231,1730,-0.00271956,0.0926545
14,-706,-0.00708008,-0.0955811,0.00461159,0.000203689,0.0036532,0.00667417,-0.00185889,0.51398,0.00518144,0.0146869,1238,1730,-0.00713749,0.0955659
21,-706,-0.00158691,-0.0969238,0.00415589,-6.02377e-05,0.0033984,0.00604696,-0.00195131,0.507788,0.00481539,0.0119125,1245,1730,-0.00163762,0.0969592
28,-706,-0.0141602,-0.0852051,0.00350314,-0.000164705,0.00291812,0.00511577,-0.00177733,0.504856,0.00413239,0.01235,1252,1730,-0.0141333,0.085266
35,-706,-0.010498,-0.0841064,0.00280461,-0.000322665,0.00224148,0.00397396,-0.00149201,0.480845,0.00326242,0.0135478,1259,1730,-0.010508,0.0841304
42,-706,-0.0174561,-0.0806885,0.00179038,-0.000620675,0.00166184,0.0026379,-0.0014682,0.471608,0.00240251,0.0114874,1266,1730,-0.017511,0.0806433
49,-706,-0.00793457,-0.0875244,0.000758111,-0.000695012,0.00104132,0.00130129,-0.00123819,0.480797,0.00146632,0.0136079,1273,1730,-0.0079806,0.0875803
56,-706,0.0065918,-0.0913086,8.40877e-05,-0.00155015,0.0013464,0.000841925,-0.00230799,0.512663,0.00188312,0.0131626,1280,1730,0.00664899,0.0913662
63,-706,-0.00012207,-0.0866699,-0.000454173,-0.00259793,0.00185156,0.000613386,-0.00366549,0.523016,0.00267169,0.0110075,1287,1730,-0.000100606,0.0867222
70,-706,-0.0185547,-0.0982666,-0.00129271,-0.00360652,0.00294682,0.000716169,-0.0056154,0.598345,0.00400373,0.0119885,1294,1730,-0.0185244,0.0982058
77,-706,-0.0284424,-0.0882568,-0.0019423,-0.00394838,0.00425741,0.00142863,-0.00731932,0.669709,0.0054189,0.0107252,1301,1730,-0.028398,0.0882937
84,-706,-0.0285645,-0.0799561,-0.00244813,-0.00439254,0.00568489,0.00234709,-0.00918776,0.70071,0.0070392,0.00907875,1308,1730,-0.0285103,0.0799273
91,-706,-0.0141602,-0.0692139,-0.00292701,-0.00508581,0.00719619,0.00327029,-0.0112831,0.710955,0.00881671,0.0105434,1315,1730,-0.0141896,0.0692196
98,-706,-0.0164795,-0.0566406,-0.00356469,-0.00540677,0.00858752,0.00415104,-0.0131225,0.731976,0.0104116,0.0138977,1322,1730,-0.0164844,0.0565859
105,-706,-0.00317383,-0.072876,-0.00340012,-0.0056296,0.00976373,0.0053123,-0.014342,0.728559,0.0117398,0.0151034,1329,1730,-0.00322397,0.0728381
112,-706,-0.00561523,-0.0803223,-0.00317833,-0.00554573,0.0105691,0.00627316,-0.0149972,0.729632,0.0126201,0.0151808,1336,1730,-0.00561795,0.0802705
119,-706,-0.0126953,-0.0585938,-0.00315729,-0.0056208,0.0105966,0.00627896,-0.015057,0.727538,0.0126611,0.0133299,1343,1730,-0.0126769,0.0585524
126,-706,-0.0168457,-0.0551758,-0.00295721,-0.00558424,0.00990536,0.00572135,-0.0142628,0.71948,0.0118839,0.0137495,1350,1730,-0.0168807,0.0551219
133,-706,-0.0244141,-0.048584,-0.00264138,-0.0053847,0.00884643,0.0049391,-0.0129652,0.708484,0.0106776,0.0105647,1357,1730,-0.024455,0.048539
140,-706,0.00012207,-0.0467529,-0.00228306,-0.00493704,0.00758195,0.00408714,-0.0113072,0.698766,0.00920804,0.0100557,1364,1730,0.000156809,0.0467495
147,-706,-0.0117188,-0.0610352,-0.0016876,-0.00449409,0.00624105,0.00330601,-0.0094877,0.674817,0.00766848,0.0198097,1371,1730,-0.0116924,0.0610202
154,-706,-0.0286865,-0.0632324,-0.00106381,-0.00442532,0.0050763,0.00260274,-0.00809188,0.625529,0.00643994,0.0188617,1378,1730,-0.0286827,0.0631832
161,-706,-0.041626,-0.0639648,-0.000741257,-0.00399682,0.00362646,0.00160599,-0.00634407,0.574444,0.00485409,0.0096203,1385,1730,-0.0416284,0.0639494
168,-706,-0.0266113,-0.0830078,-0.000344322,-0.00379438,0.00250762,0.00097431,-0.00511301,0.484113,0.00377558,0.00920299,1392,1730,-0.0265991,0.0829627
175,-706,-0.0108643,-0.0952148,0.000421407,-0.00376061,0.00163561,0.000985115,-0.00432432,0.331899,0.00326123,0.00978671,1399,1730,-0.0108792,0.0952476
182,-706,-0.000366211,-0.0861816,0.00100041,-0.00394705,0.00117643,0.0012659,-0.00421254,0.221956,0.00331197,0.0108647,1406,1730,-0.000321825,0.0861518
189,-706,-0.0117188,-0.0783691,0.00123224,-0.00367805,0.000905709,0.00139397,-0.00383978,0.176707,0.00312976,0.0134144,1413,1730,-0.011759,0.0784016
196,-706,-0.0323486,-0.0906982,0.00112755,-0.00322075,0.000888549,0.00130212,-0.00339531,0.193986,0.00280038,0.0115993,1420,1730,-0.0323791,0.0907548
203,-706,-0.0476074,-0.0736084,0.00101775,-0.00238942,0.000919914,0.00125025,-0.00262192,0.247562,0.00228188,0.0123851,1427,1730,-0.0475801,0.0735905
210,-706,-0.0395508,-0.079834,0.000713812,-0.00148631,0.000908466,0.00104044,-0.00181294,0.345148,0.0016674,0.011423,1434,1730,-0.0395611,0.0797923
217,-706,-0.0358887,-0.088623,0.000334948,-0.000417021,0.00103716,0.00106217,-0.00114425,0.611509,0.00127417,0.0120877,1441,1730,-0.0358428,0.0885756
224,-706,-0.0395508,-0.0758057,0.000100744,0.000292648,0.00108573,0.00128666,-0.000893266,0.829471,0.00126539,0.0169202,1448,1730,-0.0396003,0.0758438
231,-706,-0.00439453,-0.0806885,-0.000113983,0.000823755,0.00119722,0.00164065,-0.000930873,0.972034,0.0015034,0.0130819,1455,1730,-0.00445289,0.0807141
238,-706,-0.00842285,-0.0825195,-0.000249281,0.00130233,0.0012963,0.00203724,-0.000984189,1.05505,0.00177939,0.00892726,1462,1730,-0.00843583,0.082459
245,-706,-0.0164795,-0.0855713,-0.000292394,0.00161012,0.00136689,0.00232418,-0.00100645,1.08939,0.00197247,0.0115327,1469,1730,-0.0164955,0.0855469
252,-706,-0.0113525,-0.0845947,-0.000312208,0.00156375,0.00134592,0.00226629,-0.00101475,1.08972,0.00193971,0.0111305,1476,1730,-0.0114119,0.0845954
259,-706,-0.00280762,-0.0805664,-0.000205693,0.00135442,0.00126907,0.00206401,-0.000915275,1.06097,0.00176219,0.0118981,1483,1730,-0.00276583,0.0805428
266,-706,-0.0078125,-0.05896,0.00028901,0.000884973,0.00109311,0.00171998,-0.000546002,0.918465,0.00136554,0.0120836,1490,1730,-0.00779762,0.058904
273,-706,-0.00317383,-0.0533447,0.000990799,0.00064028,0.000836525,0.00167023,-3.9147e-05,0.682137,0.00112676,0.0118581,1497,1730,-0.00318904,0.0533061
280,-706,-0.0198975,-0.0601807,0.00193246,0.000511269,0.0004595,0.00206808,0.000375645,0.287005,0.00127213,0.0099239,1504,1730,-0.0198912,0.0601742
287,-706,-0.0401611,-0.074707,0.0029909,0.00046373,-0.000283253,0.00302226,0.000432371,-0.11026,0.0018873,0.0101505,1511,1730,-0.040134,0.0747355
294,-706,-0.0192871,-0.0759277,0.00419786,0.000714387,-0.000781398,0.00436511,0.000547137,-0.210858,0.00274593,0.0102528,1518,1730,-0.019332,0.0759443
301,-706,-0.0133057,-0.0657959,0.0057468,0.000680176,-0.00129974,0.00606077,0.000366209,-0.23702,0.00392414,0.00946827,1525,1730,-0.0132845,0.0657479
308,-706,0.00256348,-0.0626221,0.00703751,0.000471832,-0.00224404,0.0077312,-0.000221855,-0.299806,0.00522965,0.0108567,1532,1730,0.00260534,0.0626333
315,-706,0.0313721,-0.0740967,0.00820936,0.000895266,-0.00253142,0.00900002,0.000104607,-0.302737,0.00596545,0.0166516,1539,1730,0.0313869,0.0740651
322,-706,0.0209961,-0.0699463,0.00964678,0.00169543,-0.00270794,0.0104814,0.00086081,-0.298973,0.00671906,0.0170949,1546,1730,0.0209764,0.0698854
329,-706,-0.00537109,-0.0782471,0.0105343,0.00295923,-0.0021936,0.0111236,0.00236986,-0.262479,0.00676561,0.0146896,1553,1730,-0.0054173,0.0782688
336,-706,-0.0302734,-0.102539,0.0101373,0.00419858,-0.00182401,0.0106528,0.0036831,-0.275426,0.00624718,0.0207583,1560,1730,-0.0302579,0.102488
343,-706,-0.0596924,-0.155762,0.00871579,0.00507704,-0.00156935,0.00929912,0.00449371,-0.355876,0.00536985,0.0284507,1567,1730,-0.0596358,0.155701
350,-706,0.0146484,-0.147339,0.00699143,0.00585496,-0.000921521,0.00750582,0.00534056,-0.509121,0.00446088,0.0339471,1574,1730,0.0146621,0.147382
357,-706,0.147339,-0.25,0.00505039,0.00700707,-0.000110734,0.00701332,0.00504414,-1.51444,0.00417686,0.0400718,1581,1730,0.14735,0.249963
364,-706,0.311279,-0.266968,0,0,0,0,0,0,0,-1,1588,1730,0.311261,0.266966
371,-706,1.14075,0.999634,0.000296916,0.00974352,0.0009306,0.00983432,0.000206114,1.47353,0.0064886,0.0494208,1595,1730,1.14069,-0.999603
378,-706,1.52795,1.35889,-0.00238393,0.0100815,0.00135011,0.010226,-0.00252848,1.46414,0.00779805,0.0454842,1602,1730,1.52795,-1.35889
385,-706,1.98853,1.3728,-0.00483835,0.00989746,0.00125994,0.0100044,-0.0049453,1.48611,0.00879442,0.0450148,1609,1730,1.98852,-1.37279
392,-706,0.0474854,0.0256348,-0.00677849,0.00969066,0.00121227,0.00977941,-0.00686725,1.49771,0.00965985,0.0439605,1616,1730,0.0474421,-0.0256042
399,-706,-0.472168,0.428101,-0.007941,0.00879022,3.433e-05,0.00879028,-0.00794107,1.56874,0.009664,0.0403363,1623,1730,-0.47219,-0.428118
406,-706,-0.432251,0.0708008,-0.00895679,0.00697748,-0.000882755,0.00702624,-0.00900554,-1.51562,0.00927944,0.0395634,1630,1730,-0.432202,-0.0708213
413,-706,-0.354004,-0.287231,-0.00921235,0.00511504,-0.000783847,0.00515779,-0.00925511,-1.5163,0.00843263,0.0379951,1637,1730,-0.353966,0.287248
420,-706,-0.255981,-0.383179,-0.0100591,0.00107424,-0.000454558,0.00109277,-0.0100776,-1.53006,0.0071107,0.0408563,1644,1730,-0.255926,0.383168
427,-706,0,0,0,0,0,0,0,0,0,-1,1651,1730,0,0
434,-706,0,0,0,0,0,0,0,0,0,-1,1658,1730,0,0
441,-706,0,0,0,0,0,0,0,0,0,-1,1665,1730,0,0
448,-706,0,0,0,0,0,0,0,0,0,-1,1672,1730,0,0
455,-706,0,0,0,0,0,0,0,0,0,-1,1679,1730,0,0
462,-706,0,0,0,0,0,0,0,0,0,-1,1686,1730,0,0
469,-706,0,0,0,0,0,0,0,0,0,-1,1693,1730,0,0
476,-706,0,0,0,0,0,0,0,0,0,-1,1700,1730,0,0
483,-706,0,0,0,0,0,0,0,0,0,-1,1707,1730,0,0
490,-706,0,0,0,0,0,0,0,0,0,-1,1714,1730,0,0
497,-706,0,0,0,0,0,0,0,0,0,-1,1721,1730,0,0
504,-706,0,0,0,0,0,0,0,0,0,-1,1728,1730,0,0
511,-706,0,0,0,0,0,0,0,0,0,-1,1735,1730,0,0
518,-706,0,0,0,0,0,0,0,0,0,-1,1742,1730,0,0
525,-706,0,0,0,0,0,0,0,0,0,-1,1749,1730,0,0
532,-706,0,0,0,0,0,0,0,0,0,-1,1756,1730,0,0
539,-706,0,0,0,0,0,0,0,0,0,-1,1763,1730,0,0
546,-706,0,0,0,0,0,0,0,0,0,-1,1770,1730,0,0
553,-706,0,0,0,0,0,0,0,0,0,-1,1777,1730,0,0
560,-706,0,0,0,0,0,0,0,0,0,-1,1784,1730,0,0
567,-706,0,0,0,0,0,0,0,0,0,-1,1791,1730,0,0
574,-706,0,0,0,0,0,0,0,0,0,-1,1798,1730,0,0
581,-706,0,0,0,0,0,0,0,0,0,-1,1805,1730,0,0
588,-706,0,0,0,0,0,0,0,0,0,-1,1812,1730,0,0
595,-706,0,0,0,0,0,0,0,0,0,-1,1819,1730,0,0
602,-706,0,0,0,0,0,0,0,0,0,-1,1826,1730,0,0
609,-706,0,0,0,0,0,0,0,0,0,-1,1833,1730,0,0
616,-706,0,0,0,0,0,0,0,0,0,-1,1840,1730,0,0
623,-706,0,0,0,0,0,0,0,0,0,-1,1847,1730,0,0
630,-706,0,0,0,0,0,0,0,0,0,-1,1854,1730,0,0
637,-706,0,0,0,0,0,0,0,0,0,-1,1861,1730,0,0
644,-706,0,0,0,0,0,0,0,0,0,-1,1868,1730,0,0
651,-706,0,0,0,0,0,0,0,0,0,-1,1875,1730,0,0
658,-706,0,0,0,0,0,0,0,0,0,-1,1882,1730,0,0
665,-706,0,0,0,0,0,0,0,0,0,-1,1889,1730,0,0
672,-706,0,0,0,0,0,0,0,0,0,-1,1896,1730,0,0
679,-706,0,0,0,0,0,0,0,0,0,-1,1903,1730,0,0
686,-706,0,0,0,0,0,0,0,0,0,-1,1910,1730,0,0
693,-706,0,0,0,0,0,0,0,0,0,-1,1917,1730,0,0
700,-706,0,0,0,0,0,0,0,0,0,-1,1924,1730,0,0
707,-706,0,0,0,0,0,0,0,0,0,-1,1931,1730,0,0
714,-706,0,0,0,0,0,0,0,0,0,-1,1938,1730,0,0
721,-706,0,0,0,0,0,0,0,0,0,-1,1945,1730,0,0
728,-706,0,0,0,0,0,0,0,0,0,-1,1952,1730,0,0
735,-706,0,0,0,0,0,0,0,0,0,-1,1959,1730,0,0
742,-706,0,0,0,0,0,0,0,0,0,-1,1966,1730,0,0
749,-706,0,0,0,0,0,0,0,0,0,-1,1973,1730,0,0
756,-706,0,0,0,0,0,0,0,0,0,-1,1980,1730,0,0
763,-706,0,0,0,0,0,0,0,0,0,-1,1987,1730,0,0
770,-706,0,0,0,0,0,0,0,0,0,-1,1994,1730,0,0
777,-706,0,0,0,0,0,0,0,0,0,-1,2001,1730,0,0
784,-706,0,0,0,0,0,0,0,0,0,-1,2008,1730,0,0
791,-706,0,0,0,0,0,0,0,0,0,-1,2015,1730,0,0
798,-706,0,0,0,0,0,0,0,0,0,-1,2022,1730,0,0
805,-706,0,0,0,0,0,0,0,0,0,-1,2029,1730,0,0
812,-706,0,0,0,0,0,0,0,0,0,-1,2036,1730,0,0
-700,-713,0,0,0,0,0,0,0,0,0,-1,524,1737,0,0
-693,-713,0,0,0,0,0,0,0,0,0,-1,531,1737,0,0
-686,-713,0,0,0,0,0,0,0,0,0,-1,538,1737,0,0
-679,-713,0,0,0,0,0,0,0,0,0,-1,545,1737,0,0
-672,-713,0,0,0,0,0,0,0,0,0,-1,552,1737,0,0
-665,-713,0,0,0,0,0,0,0,0,0,-1,559,1737,0,0
-658,-713,0,0,0,0,0,0,0,0,0,-1,566,1737,0,0
-651,-713,0,0,0,0,0,0,0,0,0,-1,573,1737,0,0
-644,-713,0,0,0,0,0,0,0,0,0,-1,580,1737,0,0
-637,-713,0,0,0,0,0,0,0,0,0,-1,587,1737,0,0
-630,-713,0,0,0,0,0,0,0,0,0,-1,594,1737,0,0
-623,-713,0,0,0,0,0,0,0,0,0,-1,601,1737,0,0
-616,-713,0,0,0,0,0,0,0,0,0,-1,608,1737,0,0
-609,-713,0,0,0,0,0,0,0,0,0,-1,615,1737,0,0
-602,-713,0,0,0,0,0,0,0,0,0,-1,622,1737,0,0
-595,-713,0,0,0,0,0,0,0,0,0,-1,629,1737,0,0
-588,-713,0,0,0,0,0,0,0,0,0,-1,636,1737,0,0
-581,-713,0,0,0,0,0,0,0,0,0,-1,643,1737,0,0
-574,-713,0,0,0,0,0,0,0,0,0,-1,650,1737,0,0
-567,-713,0,0,0,0,0,0,0,0,0,-1,657,1737,0,0
-560,-713,0,0,0,0,0,0,0,0,0,-1,664,1737,0,0
-553,-713,0,0,0,0,0,0,0,0,0,-1,671,1737,0,0
-546,-713,0,0,0,0,0,0,0,0,0,-1,678,1737,0,0
-539,-713,0,0,0,0,0,0,0,0,0,-1,685,1737,0,0
-532,-713,0,0,0,0,0,0,0,0,0,-1,692,1737,0,0
-525,-713,0,0,0,0,0,0,0,0,0,-1,699,1737,0,0
-518,-713,0,0,0,0,0,0,0,0,0,-1,706,1737,0,0
-511,-713,0,0,0,0,0,0,0,0,0,-1,713,1737,0,0
-504,-713,0,0,0,0,0,0,0,0,0,-1,720,1737,0,0
-497,-713,0,0,0,0,0,0,0,0,0,-1,727,1737,0,0
-490,-713,0,0,0,0,0,0,0,0,0,-1,734,1737,0,0
-483,-713,0,0,0,0,0,0,0,0,0,-1,741,1737,0,0
-476,-713,0,0,0,0,0,0,0,0,0,-1,748,1737,0,0
-469,-713,0,0,0,0,0,0,0,0,0,-1,755,1737,0,0
-462,-713,0,0,0,0,0,0,0,0,0,-1,762,1737,0,0
-455,-713,0,0,0,0,0,0,0,0,0,-1,769,1737,0,0
-448,-713,0,0,0,0,0,0,0,0,0,-1,776,1737,0,0
-441,-713,0,0,0,0,0,0,0,0,0,-1,783,1737,0,0
-434,-713,0,0,0,0,0,0,0,0,0,-1,790,1737,0,0
-427,-713,0,0,0,0,0,0,0,0,0,-1,797,1737,0,0
-420,-713,0,0,0,0,0,0,0,0,0,-1,804,1737,0,0
-413,-713,0,0,0,0,0,0,0,0,0,-1,811,1737,0,0
-406,-713,0,0,0,0,0,0,0,0,0,-1,818,1737,0,0
-399,-713,0,0,0,0,0,0,0,0,0,-1,825,1737,0,0
-392,-713,0,0,0,0,0,0,0,0,0,-1,832,1737,0,0
-385,-713,0,0,0,0,0,0,0,0,0,-1,839,1737,0,0
-378,-713,0,0,0,0,0,0,0,0,0,-1,846,1737,0,0
-371,-713,0,0,0,0,0,0,0,0,0,-1,853,1737,0,0
-364,-713,0,0,0,0,0,0,0,0,0,-1,860,1737,0,0
-357,-713,0,0,0,0,0,0,0,0,0,-1,867,1737,0,0
-350,-713,0,0,0,0,0,0,0,0,0,-1,874,1737,0,0
-343,-713,0,0,0,0,0,0,0,0,0,-1,881,1737,0,0
-336,-713,0,0,0,0,0,0,0,0,0,-1,888,1737,0,0
-329,-713,0,0,0,0,0,0,0,0,0,-1,895,1737,0,0
-322,-713,0,0,0,0,0,0,0,0,0,-1,902,1737,0,0
-315,-713,0,0,0,0,0,0,0,0,0,-1,909,1737,0,0
-308,-713,0,0,0,0,0,0,0,0,0,-1,916,1737,0,0
-301,-713,0,0,0,0,0,0,0,0,0,-1,923,1737,0,0
-294,-713,-0.00823975,0.925537,0,0,0,0,0,0,0,-1,930,1737,-0.00826804,-0.925535
-287,-713,-0.104614,0.575317,0.037007,0.0328109,-0.0118425,0.0469359,0.022882,-0.697728,0.0271013,0.0493509,937,1737,-0.104642,-0.575376
-280,-713,-0.321411,0.151611,0.0288999,0.0169825,-0.00926802,0.0339594,0.0119229,-0.499704,0.0198942,0.0461788,944,1737,-0.321436,-0.151574
-273,-713,-0.561829,-0.473389,0.0181961,0.00337499,-0.00534748,0.019924,0.00164706,-0.312539,0.0127691,0.0436583,951,1737,-0.561825,0.473432
-266,-713,-1.68823,-2.37866,0.021328,-0.00981976,0.000594377,0.0213394,-0.0098311,0.0190732,0.0184006,0.046475,958,1737,-1.68821,2.37862
-259,-713,-1.96783,-2.52637,0.0240829,-0.0206015,0.00569518,0.0247973,-0.0213159,0.124796,0.0266488,0.0460691,965,1737,-1.96785,2.52633
-252,-713,-2.09552,-2.76282,0.0260732,-0.0292708,0.0101032,0.0278599,-0.0310575,0.175034,0.0340327,0.0479934,972,1737,-2.09555,2.76277
-245,-713,-2.07477,-4.22302,0,0,0,0,0,0,0,-1,979,1737,-2.07474,4.22306
-238,-713,-1.42676,-3.90955,0,0,0,0,0,0,0,-1,986,1737,-1.42678,3.90954
-231,-713,-0.859863,-3.30457,0.0262732,-0.0312064,0.017996,0.0314426,-0.0363758,0.27972,0.0391895,0.0438545,993,1737,-0.85985,3.3046
-224,-713,-0.592163,-3.10901,0,0,0,0,0,0,0,-1,1000,1737,-0.592148,3.10904
-217,-713,-0.288208,-2.81738,0,0,0,0,0,0,0,-1,1007,1737,-0.288201,2.81737
-210,-713,-0.138855,-2.6272,0,0,0,0,0,0,0,-1,1014,1737,-0.13886,2.62722
-203,-713,0.190552,-2.25769,0,0,0,0,0,0,0,-1,1021,1737,0.19056,2.25774
-196,-713,0.489624,-0.320557,0.0190911,-0.00602483,0.021116,0.0311011,-0.0180349,0.517137,0.0287011,0.0387488,1028,1737,0.48963,0.320604
-189,-713,0.151123,-0.232056,0.0173608,-0.000995461,0.0199862,0.0301755,-0.0138102,0.57015,0.0259745,0.0362968,1035,1737,0.151151,0.232109
-182,-713,-0.0332031,-0.0893555,0.0157053,0.00223358,0.0189474,0.0290785,-0.0111397,0.614614,0.0239776,0.022553,1042,1737,-0.0331755,0.0894035
-175,-713,0.0107422,-0.0686035,0.0140522,0.00480634,0.0172762,0.0273134,-0.0084548,0.654666,0.0215863,0.0184784,1049,1737,0.0107165,0.0686242
-168,-713,0.017334,-0.0909424,0.0124678,0.00591758,0.0154224,0.024959,-0.00657363,0.680772,0.0192092,0.0218458,1056,1737,0.0172977,0.0909157
-161,-713,0.0020752,-0.086792,0.0112895,0.00601809,0.0132929,0.0222055,-0.00489792,0.687529,0.0166778,0.0114889,1063,1737,0.00211502,0.0868025
-154,-713,-0.0241699,-0.0939941,0.00962706,0.00622501,0.0109518,0.0190092,-0.00315712,0.708355,0.0138457,0.0103461,1070,1737,-0.0241149,0.093979
-147,-713,-0.0377197,-0.0782471,0.00795408,0.00580022,0.00868391,0.0156276,-0.00187328,0.723706,0.0110957,0.0164723,1077,1737,-0.0377544,0.0782683
-140,-713,-0.0185547,-0.0550537,0.0065993,0.00479792,0.00674113,0.0124996,-0.00110242,0.718986,0.00872382,0.015665,1084,1737,-0.0185402,0.0550461
-133,-713,-0.00976563,-0.0662842,0.00538337,0.00390748,0.00491,0.00961057,-0.000319724,0.710809,0.00651624,0.010169,1091,1737,-0.00977618,0.0663252
-126,-713,-0.00268555,-0.0925293,0.00395602,0.00300062,0.00311761,0.00663232,0.000324329,0.709376,0.0043175,0.0156768,1098,1737,-0.00264714,0.092543
-119,-713,-0.0305176,-0.125244,0.00276344,0.00237255,0.00157485,0.00415493,0.000981059,0.723663,0.00250774,0.0252357,1105,1737,-0.0304765,0.125232
-112,-713,-0.0197754,-0.0789795,0.00156765,0.00177267,0.00029854,0.00198581,0.00135451,0.950778,0.00117158,0.0134142,1112,1737,-0.0197308,0.0790299
-105,-713,0.00134277,-0.0668945,0.000840975,0.00174252,-0.000258659,0.00181146,0.000772036,-1.31033,0.00104964,0.0103336,1119,1737,0.00138958,0.0669398
-98,-713,0.0129395,-0.0771484,0.000525392,0.00177008,-0.000629039,0.00203261,0.000262862,-1.17542,0.00127651,0.00925549,1126,1737,0.0129931,0.0771863
-91,-713,-0.00598145,-0.081543,0.00030483,0.00176822,-0.000917144,0.00220978,-0.000136732,-1.1221,0.00152081,0.0102384,1133,1737,-0.00597857,0.0815694
-84,-713,-0.0186768,-0.0772705,-3.42885e-07,0.00173819,-0.00106351,0.00224249,-0.000504642,-1.12801,0.00168853,0.0104652,1140,1737,-0.0187055,0.0773054
-77,-713,0.00231934,-0.0620117,-0.000228546,0.00176077,-0.00118204,0.00231096,-0.000778735,-1.13516,0.00185551,0.0129963,1147,1737,0.00237813,0.0619777
-70,-713,-0.000610352,-0.0688477,-0.000294906,0.00181294,-0.00113836,0.00231034,-0.000792307,-1.15885,0.00186141,0.0133638,1154,1737,-0.000552451,0.0688184
-63,-713,-0.0211182,-0.0617676,-0.000331872,0.00172919,-0.00109421,0.00220176,-0.000804436,-1.16312,0.00179704,0.0114997,1161,1737,-0.0210968,0.061727
-56,-713,-0.0172119,-0.0656738,-0.000280733,0.00166511,-0.00101622,0.00209906,-0.000714683,-1.16721,0.00168879,0.0121244,1168,1737,-0.0171995,0.0656804
-49,-713,-0.0358887,-0.0751953,3.82447e-05,0.00159547,-0.000755883,0.00190203,-0.000268314,-1.1855,0.00136627,0.0144928,1175,1737,-0.0359123,0.0751712
-42,-713,-0.0168457,-0.0874023,0.000540197,0.00151002,-0.000418837,0.00166586,0.000384356,-1.21459,0.00100721,0.0163842,1182,1737,-0.0167865,0.0873545
-35,-713,0.00354004,-0.0935059,0.000993662,0.0014325,-2.09856e-05,0.0014335,0.000992661,-1.52312,0.000847826,0.0137192,1189,1737,0.00352408,0.0935073
-28,-713,-0.000854492,-0.0797119,0.0013381,0.00129764,0.000481459,0.00179976,0.00083599,0.764401,0.00103996,0.0111502,1196,1737,-0.000810198,0.0796594
-21,-713,-0.0144043,-0.0693359,0.00168752,0.00103502,0.00113719,0.00254434,0.000178205,0.645705,0.00164005,0.00746021,1203,1737,-0.0143703,0.0693582
-14,-713,-0.0256348,-0.0797119,0.00218941,0.00105459,0.00173436,0.00344681,-0.000202819,0.627306,0.00236838,0.00894506,1210,1737,-0.0256122,0.0796809
-7,-713,-0.0227051,-0.0731201,0.00275323,0.000939241,0.00230182,0.00432031,-0.000627834,0.597722,0.00311068,0.00895125,1217,1737,-0.0227484,0.0731072
0,-713,-0.00952148,-0.0646973,0.00302224,0.000864563,0.00283231,0.00497422,-0.00108741,0.603429,0.00373181,0.013518,1224,1737,-0.00946636,0.0646873
7,-713,0.0129395,-0.0914307,0.00317006,0.000710527,0.00311856,0.00529257,-0.00141198,0.59759,0.00408129,0.0164617,1231,1737,0.0129058,0.0914581
14,-713,0.0235596,-0.106079,0.00313371,0.000524699,0.00327721,0.00535651,-0.0016981,0.595984,0.00425162,0.0122355,1238,1737,0.0235532,0.106078
21,-713,0.00866699,-0.09375,0.00298124,0.000459924,0.00328755,0.00524156,-0.00180039,0.602313,0.00422438,0.010323,1245,1737,0.00869643,0.0937086
28,-713,-0.0157471,-0.0709229,0.00274262,0.000400157,0.00312686,0.00491041,-0.00176763,0.606201,0.00399536,0.0111499,1252,1737,-0.0157927,0.0709248
35,-713,-0.0251465,-0.0810547,0.00249131,0.000298708,0.00281007,0.00441136,-0.00162134,0.599412,0.003605,0.0107002,1259,1737,-0.0251334,0.0810409
42,-713,-0.0274658,-0.0863037,0.00199095,-6.80429e-06,0.00249867,0.003683,-0.00169885,0.595246,0.00317682,0.010305,1266,1737,-0.0274084,0.0862596
49,-713,-0.017334,-0.0810547,0.00140657,-0.00025193,0.00209051,0.0028263,-0.00167166,0.59658,0.00262526,0.00990088,1273,1737,-0.0172922,0.0810607
56,-713,-0.0123291,-0.0812988,0.00101556,-0.00109419,0.0022721,0.00246572,-0.00254436,0.568068,0.00289269,0.00973556,1280,1737,-0.0123725,0.081288
63,-713,-0.0274658,-0.0761719,0.00069113,-0.00208411,0.00257769,0.00223096,-0.00362394,0.538483,0.00341207,0.0108723,1287,1737,-0.0275144,0.0761553
70,-713,-0.0352783,-0.0874023,0.000175385,-0.00301725,0.00315225,0.00211247,-0.00495434,0.551019,0.00418855,0.0110904,1294,1737,-0.0352731,0.0873923
77,-713,-0.03479,-0.0863037,-0.000114674,-0.00388575,0.00392022,0.00234988,-0.00635031,0.561241,0.00519704,0.0109305,1301,1737,-0.0347511,0.0862904
84,-713,-0.027832,-0.0766602,-0.000340506,-0.00459227,0.00466841,0.00266328,-0.00759606,0.57174,0.00614721,0.0115355,1308,1737,-0.027821,0.0767182
91,-713,-0.0131836,-0.0751953,-0.000698041,-0.00537974,0.00550352,0.00294177,-0.00901956,0.58432,0.00719691,0.0123051,1315,1737,-0.0131438,0.0752116
98,-713,-0.0203857,-0.0749512,-0.00116368,-0.00582497,0.00625827,0.00318384,-0.0101725,0.607149,0.00805547,0.0120121,1322,1737,-0.0204028,0.074974
105,-713,-0.0102539,-0.0775146,-0.00138344,-0.00629102,0.00668111,0.00328024,-0.0109547,0.609409,0.00860747,0.0128212,1329,1737,-0.0102247,0.0775102
112,-713,-0.00256348,-0.0651855,-0.00161535,-0.00641044,0.00688836,0.00328078,-0.0113066,0.617926,0.0088367,0.0134225,1336,1737,-0.00254407,0.0652303
119,-713,-0.0107422,-0.0532227,-0.00177679,-0.00646764,0.00672158,0.00299682,-0.0112412,0.617533,0.00866755,0.014228,1343,1737,-0.0107354,0.0532641
126,-713,-0.0301514,-0.0437012,-0.00187024,-0.00622286,0.00607923,0.00241049,-0.0105036,0.61351,0.00792898,0.0131606,1350,1737,-0.0301867,0.043757
133,-713,-0.0422363,-0.0494385,-0.00193311,-0.00584275,0.00519249,0.00166034,-0.00943619,0.605368,0.00691105,0.0109664,1357,1737,-0.0422686,0.0494556
140,-713,-0.0175781,-0.0610352,-0.00198444,-0.00535667,0.0041929,0.000848677,-0.00818978,0.594225,0.00576361,0.0117432,1364,1737,-0.017547,0.0610252
147,-713,-0.0262451,-0.0571289,-0.00185027,-0.0047678,0.00319348,0.000201848,-0.00681992,0.571154,0.00461537,0.0135707,1371,1737,-0.0262843,0.0570977
154,-713,-0.0600586,-0.0524902,-0.00163438,-0.00439459,0.00237089,-0.000271161,-0.00575781,0.52182,0.00375142,0.0137111,1378,1737,-0.0601192,0.0524777
161,-713,-0.0447998,-0.0603027,-0.00154049,-0.00375864,0.0013883,-0.000872654,-0.00442648,0.448372,0.00270739,0.00988894,1385,1737,-0.0447489,0.0602642
168,-713,-0.0291748,-0.0806885,-0.00131033,-0.00330024,0.000665775,-0.00110813,-0.00350245,0.294861,0.00206709,0.00891711,1392,1737,-0.0292332,0.0807114
175,-713,-0.00488281,-0.0982666,-0.000783535,-0.00297989,0.000183857,-0.000768251,-0.00299517,0.0829408,0.00179632,0.0119372,1399,1737,-0.00490667,0.098312
182,-713,0.00354004,-0.0877686,-0.000369999,-0.00268497,-2.56822e-05,-0.000369715,-0.00268525,-0.0110922,0.00168054,0.0114704,1406,1737,0.0035166,0.0877235
189,-713,-0.00610352,-0.0870361,-0.000100459,-0.00238989,-8.57319e-05,-9.72531e-05,-0.00239309,-0.0373771,0.00156399,0.010648,1413,1737,-0.00609887,0.0870828
196,-713,-0.0155029,-0.0793457,2.07888e-05,-0.00204481,-1.67175e-05,2.0924e-05,-0.00204494,-0.00809262,0.00137032,0.0115046,1420,1737,-0.0155595,0.0793744
203,-713,-0.0327148,-0.0533447,0.000106596,-0.00146264,7.29018e-05,0.000109976,-0.00146602,0.046324,0.00101599,0.0147141,1427,1737,-0.0327296,0.0533046
210,-713,-0.0357666,-0.0727539,0.000141151,-0.000656349,0.000195822,0.000186639,-0.000701837,0.228247,0.000540946,0.0116059,1434,1737,-0.0357573,0.0727998
217,-713,-0.0255127,-0.081543,5.61932e-05,0.000166116,0.00034141,0.000456961,-0.000234651,0.865205,0.00040612,0.00965109,1441,1737,-0.0255586,0.0815409
224,-713,-0.0249023,-0.0767822,-9.07211e-05,0.000640627,0.000365522,0.000791987,-0.000242081,1.1782,0.000624525,0.0111546,1448,1737,-0.02491,0.0768251
231,-713,-0.0106201,-0.0777588,-0.000238055,0.000909146,0.000457973,0.00106955,-0.000398455,1.23391,0.000876574,0.010644,1455,1737,-0.0106011,0.0777413
238,-713,-0.00915527,-0.0874023,-0.000297552,0.0012054,0.000567706,0.00139574,-0.000487886,1.24731,0.00112883,0.00809045,1462,1737,-0.00910932,0.0874474
245,-713,0.00158691,-0.0793457,-0.000236364,0.00141598,0.000709919,0.00167909,-0.000499479,1.21587,0.00131783,0.0106208,1469,1737,0.00158425,0.0794007
252,-713,0.00952148,-0.0750732,-0.000137016,0.00125341,0.000724861,0.00156256,-0.000446166,1.16766,0.00121798,0.0110281,1476,1737,0.00957757,0.0750888
259,-713,0.0218506,-0.0860596,0.000103967,0.00091329,0.000725689,0.00133952,-0.00032226,1.03974,0.00101759,0.0107991,1483,1737,0.0218827,0.0860381
266,-713,0.00646973,-0.0616455,0.000766663,0.000317905,0.000647902,0.00122794,-0.000143372,0.618703,0.000870362,0.00994447,1490,1737,0.00645781,0.0616207
273,-713,-0.00939941,-0.0494385,0.00164715,-6.99065e-07,0.000464236,0.00176893,-0.000122484,0.256554,0.00122216,0.00891642,1497,1737,-0.00936363,0.04947
280,-713,-0.0251465,-0.0599365,0.00284231,-0.000214983,0.000158206,0.00285048,-0.000223148,0.0515635,0.0019789,0.00966011,1504,1737,-0.0251943,0.0599468
287,-713,-0.0340576,-0.0762939,0.00416022,-0.000287094,-0.00061503,0.0042437,-0.00037058,-0.13492,0.0029604,0.0102128,1511,1737,-0.0340542,0.0763447
294,-713,-0.0162354,-0.0727539,0.00562316,3.10051e-05,-0.00108118,0.00582492,-0.00017075,-0.184484,0.00394143,0.014346,1518,1737,-0.0162696,0.0728053
301,-713,-0.0108643,-0.0637207,0.00754765,-5.44781e-06,-0.00163664,0.00788704,-0.000344831,-0.204469,0.00537666,0.015288,1525,1737,-0.0108667,0.0637364
308,-713,-0.0113525,-0.0756836,0.00921993,-0.000231919,-0.00274792,0.00996076,-0.000972752,-0.263337,0.00698737,0.0172776,1532,1737,-0.0113888,0.0756971
315,-713,0.0164795,-0.0738525,0.0107335,0.000318015,-0.00302518,0.0115484,-0.000496887,-0.263128,0.00786982,0.0225378,1539,1737,0.0164345,0.0738711
322,-713,0.00341797,-0.0662842,0.0125743,0.00129795,-0.00319112,0.0134147,0.000457522,-0.257516,0.00879462,0.0277812,1546,1737,0.00345431,0.0663341
329,-713,-0.0732422,-0.166992,0.0136979,0.00294933,-0.00248423,0.0142443,0.00240294,-0.216495,0.00880517,0.0307149,1553,1737,-0.0732813,0.166989
336,-713,-0.0332031,-0.153198,0.0132579,0.00469789,-0.0018915,0.0136572,0.00429855,-0.208065,0.00806339,0.0348398,1560,1737,-0.0331548,0.153161
343,-713,0.335449,-0.171265,0.011578,0.00596471,-0.00143842,0.0119252,0.00561758,-0.2368,0.00688883,0.0410204,1567,1737,0.335404,0.171317
350,-713,0.249023,-0.0725098,0.00956178,0.00713464,-0.000541616,0.00967715,0.00701926,-0.209886,0.00577315,0.0414578,1574,1737,0.248981,0.0725374
357,-713,0.269653,-0.0949707,0.00715479,0.0088645,0.000549766,0.00902602,0.00699327,1.28504,0.00546722,0.0432592,1581,1737,0.269593,0.095008
364,-713,0.614868,0.00256348,0.00434996,0.0108647,0.0011221,0.0110526,0.0041621,1.40492,0.0064457,0.0448012,1588,1737,0.614903,-0.00250425
371,-713,0.976318,0.552124,0.000589562,0.012862,0.0017515,0.0131071,0.000344486,1.43178,0.00862553,0.0453896,1595,1737,0.976262,-0.552136
378,-713,1.25513,0.880005,-0.00321867,0.0135759,0.00219508,0.0138581,-0.00350083,1.44296,0.0106002,0.0477082,1602,1737,1.25516,-0.879949
385,-713,1.57471,1.10608,-0.00666354,0.0137539,0.00188381,0.0139262,-0.00683589,1.47956,0.0122178,0.0492821,1609,1737,1.57474,-1.10609
392,-713,0.0078125,0.0327148,-0.00917953,0.0139375,0.00150128,0.0140346,-0.00927662,1.50622,0.0135518,0.040423,1616,1737,0.00783942,-0.0326966
399,-713,0.038208,-0.175659,-0.0106768,0.013367,-0.000435538,0.0133749,-0.0106847,-1.55269,0.0139197,0.0380104,1623,1737,0.0382428,0.175665
406,-713,-0.24292,-0.0275879,-0.0119552,0.0119967,-0.00223886,0.0122041,-0.0121627,-1.47839,0.0140682,0.0385601,1630,1737,-0.242875,0.0276115
413,-713,-0.17688,-0.370972,-0.0117778,0.0102095,-0.00304401,0.0106231,-0.0121915,-1.43574,0.0131824,0.0376971,1637,1737,-0.176893,0.370979
420,-713,0,0,0,0,0,0,0,0,0,-1,1644,1737,0,0
427,-713,0,0,0,0,0,0,0,0,0,-1,1651,1737,0,0
434,-713,0,0,0,0,0,0,0,0,0,-1,1658,1737,0,0
441,-713,0,0,0,0,0,0,0,0,0,-1,1665,1737,0,0
448,-713,0,0,0,0,0,0,0,0,0,-1,1672,1737,0,0
455,-713,0,0,0,0,0,0,0,0,0,-1,1679,1737,0,0
462,-713,0,0,0,0,0,0,0,0,0,-1,1686,1737,0,0
469,-713,0,0,0,0,0,0,0,0,0,-1,1693,1737,0,0
476,-713,0,0,0,0,0,0,0,0,0,-1,1700,1737,0,0
483,-713,0,0,0,0,0,0,0,0,0,-1,1707,1737,0,0
490,-713,0,0,0,0,0,0,0,0,0,-1,1714,1737,0,0
497,-713,0,0,0,0,0,0,0,0,0,-1,1721,1737,0,0
504,-713,0,0,0,0,0,0,0,0,0,-1,1728,1737,0,0
511,-713,0,0,0,0,0,0,0,0,0,-1,1735,1737,0,0
518,-713,0,0,0,0,0,0,0,0,0,-1,1742,1737,0,0
525,-713,0,0,0,0,0,0,0,0,0,-1,1749,1737,0,0
532,-713,0,0,0,0,0,0,0,0,0,-1,1756,1737,0,0
539,-713,0,0,0,0,0,0,0,0,0,-1,1763,1737,0,0
546,-713,0,0,0,0,0,0,0,0,0,-1,1770,1737,0,0
553,-713,0,0,0,0,0,0,0,0,0,-1,1777,1737,0,0
560,-713,0,0,0,0,0,0,0,0,0,-1,1784,1737,0,0
567,-713,0,0,0,0,0,0,0,0,0,-1,1791,1737,0,0
574,-713,0,0,0,0,0,0,0,0,0,-1,1798,1737,0,0
581,-713,0,0,0,0,0,0,0,0,0,-1,1805,1737,0,0
588,-713,0,0,0,0,0,0,0,0,0,-1,1812,1737,0,0
595,-713,0,0,0,0,0,0,0,0,0,-1,1819,1737,0,0
602,-713,0,0,0,0,0,0,0,0,0,-1,1826,1737,0,0
609,-713,0,0,0,0,0,0,0,0,0,-1,1833,1737,0,0
616,-713,0,0,0,0,0,0,0,0,0,-1,1840,1737,0,0
623,-713,0,0,0,0,0,0,0,0,0,-1,1847,1737,0,0
630,-713,0,0,0,0,0,0,0,0,0,-1,1854,1737,0,0
637,-713,0,0,0,0,0,0,0,0,0,-1,1861,1737,0,0
644,-713,0,0,0,0,0,0,0,0,0,-1,1868,1737,0,0
651,-713,0,0,0,0,0,0,0,0,0,-1,1875,1737,0,0
658,-713,0,0,0,0,0,0,0,0,0,-1,1882,1737,0,0
665,-713,0,0,0,0,0,0,0,0,0,-1,1889,1737,0,0
672,-713,0,0,0,0,0,0,0,0,0,-1,1896,1737,0,0
679,-713,0,0,0,0,0,0,0,0,0,-1,1903,1737,0,0
686,-713,0,0,0,0,0,0,0,0,0,-1,1910,1737,0,0
693,-713,0,0,0,0,0,0,0,0,0,-1,1917,1737,0,0
700,-713,0,0,0,0,0,0,0,0,0,-1,1924,1737,0,0
707,-713,0,0,0,0,0,0,0,0,0,-1,1931,1737,0,0
714,-713,0,0,0,0,0,0,0,0,0,-1,1938,1737,0,0
721,-713,0,0,0,0,0,0,0,0,0,-1,1945,1737,0,0
728,-713,0,0,0,0,0,0,0,0,0,-1,1952,1737,0,0
735,-713,0,0,0,0,0,0,0,0,0,-1,1959,1737,0,0
742,-713,0,0,0,0,0,0,0,0,0,-1,1966,1737,0,0
749,-713,0,0,0,0,0,0,0,0,0,-1,1973,1737,0,0
756,-713,0,0,0,0,0,0,0,0,0,-1,1980,1737,0,0
763,-713,0,0,0,0,0,0,0,0,0,-1,1987,1737,0,0
770,-713,0,0,0,0,0,0,0,0,0,-1,1994,1737,0,0
777,-713,0,0,0,0,0,0,0,0,0,-1,2001,1737,0,0
784,-713,0,0,0,0,0,0,0,0,0,-1,2008,1737,0,0
791,-713,0,0,0,0,0,0,0,0,0,-1,2015,1737,0,0
798,-713,0,0,0,0,0,0,0,0,0,-1,2022,1737,0,0
805,-713,0,0,0,0,0,0,0,0,0,-1,2029,1737,0,0
812,-713,0,0,0,0,0,0,0,0,0,-1,2036,1737,0,0
-700,-720,0,0,0,0,0,0,0,0,0,-1,524,1744,0,0
-693,-720,0,0,0,0,0,0,0,0,0,-1,531,1744,0,0
-686,-720,0,0,0,0,0,0,0,0,0,-1,538,1744,0,0
-679,-720,0,0,0,0,0,0,0,0,0,-1,545,1744,0,0
-672,-720,0,0,0,0,0,0,0,0,0,-1,552,1744,0,0
-665,-720,0,0,0,0,0,0,0,0,0,-1,559,1744,0,0
-658,-720,0,0,0,0,0,0,0,0,0,-1,566,1744,0,0
-651,-720,0,0,0,0,0,0,0,0,0,-1,573,1744,0,0
-644,-720,0,0,0,0,0,0,0,0,0,-1,580,1744,0,0
-637,-720,0,0,0,0,0,0,0,0,0,-1,587,1744,0,0
-630,-720,0,0,0,0,0,0,0,0,0,-1,594,1744,0,0
-623,-720,0,0,0,0,0,0,0,0,0,-1,601,1744,0,0
-616,-720,0,0,0,0,0,0,0,0,0,-1,608,1744,0,0
-609,-720,0,0,0,0,0,0,0,0,0,-1,615,1744,0,0
-602,-720,0,0,0,0,0,0,0,0,0,-1,622,1744,0,0
-595,-720,0,0,0,0,0,0,0,0,0,-1,629,1744,0,0
-588,-720,0,0,0,0,0,0,0,0,0,-1,636,1744,0,0
-581,-720,0,0,0,0,0,0,0,0,0,-1,643,1744,0,0
-574,-720,0,0,0,0,0,0,0,0,0,-1,650,1744,0,0
-567,-720,0,0,0,0,0,0,0,0,0,-1,657,1744,0,0
-560,-720,0,0,0,0,0,0,0,0,0,-1,664,1744,0,0
-553,-720,0,0,0,0,0,0,0,0,0,-1,671,1744,0,0
-546,-720,0,0,0,0,0,0,0,0,0,-1,678,1744,0,0
-539,-720,0,0,0,0,0,0,0,0,0,-1,685,1744,0,0
-532,-720,0,0,0,0,0,0,0,0,0,-1,692,1744,0,0
-525,-720,0,0,0,0,0,0,0,0,0,-1,699,1744,0,0
-518,-720,0,0,0,0,0,0,0,0,0,-1,706,1744,0,0
-511,-720,0,0,0,0,0,0,0,0,0,-1,713,1744,0,0
-504,-720,0,0,0,0,0,0,0,0,0,-1,720,1744,0,0
-497,-720,0,0,0,0,0,0,0,0,0,-1,727,1744,0,0
-490,-720,0,0,0,0,0,0,0,0,0,-1,734,1744,0,0
-483,-720,0,0,0,0,0,0,0,0,0,-1,741,1744,0,0
-476,-720,0,0,0,0,0,0,0,0,0,-1,748,1744,0,0
-469,-720,0,0,0,0,0,0,0,0,0,-1,755,1744,0,0
-462,-720,0,0,0,0,0,0,0,0,0,-1,762,1744,0,0
-455,-720,0,0,0,0,0,0,0,0,0,-1,769,1744,0,0
-448,-720,0,0,0,0,0,0,0,0,0,-1,776,1744,0,0
-441,-720,0,0,0,0,0,0,0,0,0,-1,783,1744,0,0
-434,-720,0,0,0,0,0,0,0,0,0,-1,790,1744,0,0
-427,-720,0,0,0,0,0,0,0,0,0,-1,797,1744,0,0
-420,-720,0,0,0,0,0,0,0,0,0,-1,804,1744,0,0
-413,-720,0,0,0,0,0,0,0,0,0,-1,811,1744,0,0
-406,-720,0,0,0,0,0,0,0,0,0,-1,818,1744,0,0
-399,-720,0,0,0,0,0,0,0,0,0,-1,825,1744,0,0
-392,-720,0,0,0,0,0,0,0,0,0,-1,832,1744,0,0
-385,-720,0,0,0,0,0,0,0,0,0,-1,839,1744,0,0
-378,-720,0,0,0,0,0,0,0,0,0,-1,846,1744,0,0
-371,-720,0,0,0,0,0,0,0,0,0,-1,853,1744,0,0
-364,-720,0,0,0,0,0,0,0,0,0,-1,860,1744,0,0
-357,-720,0,0,0,0,0,0,0,0,0,-1,867,1744,0,0
-350,-720,0,0,0,0,0,0,0,0,0,-1,874,1744,0,0
-343,-720,0,0,0,0,0,0,0,0,0,-1,881,1744,0,0
-336,-720,0,0,0,0,0,0,0,0,0,-1,888,1744,0,0
-329,-720,0,0,0,0,0,0,0,0,0,-1,895,1744,0,0
-322,-720,0,0,0,0,0,0,0,0,0,-1,902,1744,0,0
-315,-720,0,0,0,0,0,0,0,0,0,-1,909,1744,0,0
-308,-720,0,0,0,0,0,0,0,0,0,-1,916,1744,0,0
-301,-720,0,0,0,0,0,0,0,0,0,-1,923,1744,0,0
-294,-720,0,0,0,0,0,0,0,0,0,-1,930,1744,0,0
-287,-720,0,0,0,0,0,0,0,0,0,-1,937,1744,0,0
-280,-720,-0.177246,-0.276611,0,0,0,0,0,0,0,-1,944,1744,-0.177237,0.276555
-273,-720,-3.97052,-1.25671,0,0,0,0,0,0,0,-1,951,1744,-3.9705,1.25674
-266,-720,-3.55841,-1.40698,0.0266901,-0.0142879,0.00469803,0.0272218,-0.0148196,0.112699,0.0246222,0.0490393,958,1744,-3.55839,1.40693
-259,-720,-2.9342,-1.84607,0.0304151,-0.0270482,0.0107731,0.0323684,-0.0290016,0.179367,0.0354497,0.0471386,965,1744,-2.93421,1.84601
-252,-720,-2.65778,-1.94958,0.0330575,-0.0369306,0.015805,0.0364611,-0.0403342,0.212112,0.0443566,0.0479111,972,1744,-2.65775,1.9496
-245,-720,-2.3891,-2.06323,0.0344169,-0.0402078,0.0195667,0.0392361,-0.045027,0.241489,0.0486876,0.0473121,979,1744,-2.38907,2.06323
-238,-720,-1.66461,-2.56482,0,0,0,0,0,0,0,-1,986,1744,-1.66464,2.56487
-231,-720,-1.50055,-2.29297,0,0,0,0,0,0,0,-1,993,1744,-1.50056,2.293
-224,-720,-0.715393,-2.17651,0,0,0,0,0,0,0,-1,1000,1744,-0.715392,2.17646
-217,-720,-0.577087,-2.10071,0,0,0,0,0,0,0,-1,1007,1744,-0.577104,2.10068
-210,-720,-0.457031,-1.97729,0.0298189,-0.0224088,0.0284319,0.0423095,-0.0348994,0.413935,0.044645,0.0451759,1014,1744,-0.457037,1.97732
-203,-720,-0.157288,-1.70813,0.0272639,-0.0144143,0.0282904,0.0415618,-0.0287123,0.467959,0.0407983,0.0408515,1021,1744,-0.157292,1.70817
-196,-720,0.24646,-1.56958,0,0,0,0,0,0,0,-1,1028,1744,0.246414,1.56962
-189,-720,0.62793,-1.00977,0,0,0,0,0,0,0,-1,1035,1744,0.627911,1.00982
-182,-720,0.646973,-0.509644,0,0,0,0,0,0,0,-1,1042,1744,0.646973,0.509617
-175,-720,1.03406,-0.728638,0,0,0,0,0,0,0,-1,1049,1744,1.03404,0.728585
-168,-720,0.602051,-0.373657,0,0,0,0,0,0,0,-1,1056,1744,0.602079,0.373652
-161,-720,0.085083,-0.0916748,0.0155406,0.00763131,0.0174011,0.0294308,-0.0062589,0.673665,0.0220055,0.0220561,1063,1744,0.0850488,0.0916952
-154,-720,0.027832,-0.13623,0.0132798,0.00778628,0.0143247,0.0251188,-0.00405265,0.690673,0.0182474,0.0163721,1070,1744,0.0278047,0.13618
-147,-720,0.00170898,-0.086792,0.0109657,0.00719745,0.0113454,0.0205823,-0.00241915,0.703113,0.0145949,0.0161501,1077,1744,0.00167284,0.0868252
-140,-720,-0.00952148,-0.0465088,0.00902377,0.00591694,0.00875262,0.0163598,-0.00141905,0.697573,0.011409,0.0132928,1084,1744,-0.00955561,0.046567
-133,-720,-0.0250244,-0.0617676,0.0073312,0.00479164,0.00632196,0.0125096,-0.000386795,0.686291,0.00847163,0.010135,1091,1744,-0.025064,0.0617434
-126,-720,-0.0126953,-0.0609131,0.00544312,0.00359766,0.00400478,0.0086301,0.000410678,0.672171,0.00562151,0.0106991,1098,1744,-0.0127106,0.0609013
-119,-720,-0.0195313,-0.081665,0.00384329,0.00273994,0.00201277,0.00537862,0.00120461,0.65164,0.00325928,0.0135104,1105,1744,-0.019571,0.0816828
-112,-720,-0.0183105,-0.0919189,0.00217351,0.00193318,0.000325173,0.00240001,0.00170668,0.608412,0.00142622,0.0130395,1112,1744,-0.0182849,0.0918777
-105,-720,-0.00744629,-0.0925293,0.00120846,0.00188391,-0.000404853,0.00207341,0.00101896,-1.13302,0.00119714,0.0117734,1119,1744,-0.00745788,0.0924957
-98,-720,0.00109863,-0.081543,0.000829351,0.00193279,-0.000856062,0.00239952,0.000362621,-1.07164,0.00149355,0.00928136,1126,1744,0.00112049,0.0815988
-91,-720,-0.0148926,-0.0817871,0.000535229,0.00182802,-0.00120403,0.00254819,-0.00018495,-1.03175,0.00176368,0.00955832,1133,1744,-0.0149061,0.0818233
-84,-720,-0.020752,-0.0838623,0.00011381,0.00175984,-0.00137937,0.00254307,-0.000669415,-1.05438,0.00195706,0.0103034,1140,1744,-0.0207665,0.0838568
-77,-720,-0.0175781,-0.0743408,-0.000240776,0.00175635,-0.00153245,0.00258687,-0.00107129,-1.07415,0.00217162,0.0125306,1147,1744,-0.0175613,0.0743271
-70,-720,-0.00512695,-0.0638428,-0.000403112,0.00181449,-0.00149297,0.00256536,-0.00115399,-1.1048,0.0021983,0.0113477,1154,1744,-0.00514911,0.063807
-63,-720,-0.0424805,-0.0610352,-0.00052751,0.0017153,-0.00145,0.00242694,-0.00123915,-1.11455,0.00215333,0.0104465,1161,1744,-0.0425281,0.0610109
-56,-720,-0.0253906,-0.0612793,-0.000583287,0.00161716,-0.00134939,0.00225801,-0.00122414,-1.12741,0.00203974,0.0119535,1168,1744,-0.0253707,0.0612887
-49,-720,-0.0395508,-0.0968018,-0.000451837,0.00146191,-0.00102915,0.0019103,-0.000900227,-1.15991,0.00165722,0.0174893,1175,1744,-0.0395919,0.0968245
-42,-720,-0.0212402,-0.0792236,-0.000130943,0.00128791,-0.000686843,0.00156592,-0.000408958,-1.18618,0.00120365,0.0195031,1182,1744,-0.0211912,0.0791982
-35,-720,0.00598145,-0.0866699,7.82894e-05,0.0011113,-0.000317336,0.00120099,-1.14067e-05,-1.29533,0.000804492,0.0172273,1189,1744,0.00594397,0.0866439
-28,-720,-0.00805664,-0.0799561,0.00016394,0.000864622,0.000175874,0.000906289,0.000122273,1.33817,0.000567841,0.010354,1196,1744,-0.00806339,0.0799486
-21,-720,-0.0203857,-0.0733643,0.000383758,0.000577966,0.000752683,0.00123978,-0.000278059,0.849549,0.000933121,0.00817535,1203,1744,-0.0204251,0.0733791
-14,-720,-0.0283203,-0.0904541,0.000816416,0.000529913,0.00129762,0.00197867,-0.000632336,0.730423,0.00157285,0.0099051,1210,1744,-0.0283778,0.0904938
-7,-720,-0.0275879,-0.0878906,0.0012639,0.000410545,0.00181492,0.00270162,-0.00102718,0.669948,0.002224,0.0112003,1217,1744,-0.027598,0.0879198
0,-720,-0.0113525,-0.0754395,0.00149772,0.000360112,0.00225805,0.00325751,-0.00139968,0.662015,0.00275922,0.0120278,1224,1744,-0.0113639,0.0754984
7,-720,-0.0020752,-0.0811768,0.00162856,0.000542663,0.00256926,0.00371162,-0.0015404,0.681268,0.00311743,0.0136962,1231,1744,-0.00203767,0.0811735
14,-720,0.0169678,-0.0939941,0.00164363,0.000734339,0.00276691,0.003993,-0.00161504,0.703969,0.00333342,0.0129063,1238,1744,0.0169378,0.0940094
21,-720,-0.00402832,-0.072876,0.00162899,0.000842343,0.00284887,0.00411156,-0.00164023,0.7168,0.00342145,0.0102731,1245,1744,-0.00404622,0.072926
28,-720,-0.0179443,-0.0528564,0.00159739,0.000893958,0.00275927,0.00402726,-0.00153592,0.722007,0.00331753,0.0102941,1252,1744,-0.017964,0.0528987
35,-720,-0.0119629,-0.0667725,0.00154061,0.000903339,0.00254452,0.00378637,-0.00134242,0.723111,0.00307113,0.0104498,1259,1744,-0.0119497,0.06675
42,-720,-0.0144043,-0.0766602,0.00130356,0.000781987,0.00222509,0.00328309,-0.00119754,0.727063,0.00267868,0.0108633,1266,1744,-0.0144067,0.0766399
49,-720,-0.0179443,-0.072876,0.000931189,0.000541923,0.00186099,0.0026077,-0.00113458,0.733295,0.0022157,0.0102504,1273,1744,-0.0179387,0.0728849
56,-720,-0.0153809,-0.0716553,0.000687488,-0.000145528,0.00188222,0.00219873,-0.00165677,0.67651,0.00223329,0.00844915,1280,1744,-0.0154101,0.0716427
63,-720,-0.0230713,-0.0662842,0.000510287,-0.00101606,0.00201569,0.00190244,-0.00240821,0.604429,0.00249446,0.0106645,1287,1744,-0.023079,0.0663317
70,-720,-0.0145264,-0.0654297,0.000185757,-0.00190218,0.00232817,0.00169331,-0.00340974,0.574634,0.00300128,0.0116748,1294,1744,-0.0145147,0.0654265
77,-720,-0.0236816,-0.0614014,4.37336e-05,-0.00285383,0.00276597,0.00171738,-0.00452748,0.54415,0.00372516,0.0128715,1301,1744,-0.0236835,0.0614593
84,-720,-0.0106201,-0.072998,-7.43076e-05,-0.00379126,0.00319745,0.00176554,-0.00563111,0.522144,0.00446062,0.01229,1308,1744,-0.0106149,0.0730074
91,-720,0.00830078,-0.0888672,-0.000365397,-0.00465753,0.00371596,0.00177969,-0.00680262,0.523533,0.00523023,0.0112181,1315,1744,0.00830462,0.0888435
98,-720,-0.00280762,-0.0864258,-0.000681294,-0.00527909,0.00422537,0.00183008,-0.00779046,0.536259,0.00589907,0.0107591,1322,1744,-0.00279568,0.086417
105,-720,-0.0234375,-0.0817871,-0.000825124,-0.00615563,0.00448121,0.00172353,-0.00870428,0.517118,0.00645453,0.011169,1329,1744,-0.0234756,0.0818284
112,-720,-0.024292,-0.0709229,-0.000956225,-0.0068063,0.0044916,0.0014788,-0.00924132,0.49678,0.00670837,0.0106915,1336,1744,-0.0242541,0.0708934
119,-720,-0.0217285,-0.067627,-0.00101139,-0.00708794,0.00433182,0.00124144,-0.00934077,0.479571,0.00667956,0.0104892,1343,1744,-0.0217732,0.0676845
126,-720,-0.0333252,-0.045166,-0.00103075,-0.00696987,0.00383823,0.000852549,-0.00885317,0.456156,0.00620585,0.0102952,1350,1744,-0.0333688,0.0451525
133,-720,-0.0432129,-0.0531006,-0.00105886,-0.0067108,0.00318367,0.000372146,-0.00814181,0.422425,0.00555608,0.0120056,1357,1744,-0.0431808,0.053048
140,-720,-0.0291748,-0.0639648,-0.0010861,-0.00636074,0.00241885,-0.000144838,-0.00730201,0.371108,0.00482045,0.0188118,1364,1744,-0.0292114,0.0639957
147,-720,-0.0444336,-0.0668945,-0.00104215,-0.00579954,0.00173036,-0.000479359,-0.00636233,0.314453,0.00409114,0.0191963,1371,1744,-0.0444642,0.066842
154,-720,-0.0610352,-0.0612793,-0.000964414,-0.00520955,0.00115457,-0.000670717,-0.00550325,0.249094,0.00346695,0.0127942,1378,1744,-0.0610284,0.0613271
161,-720,-0.0330811,-0.0644531,-0.00097776,-0.00440819,0.000481202,-0.000911538,-0.00447442,0.136759,0.0027303,0.00904021,1385,1744,-0.0330244,0.0643964
168,-720,-0.0123291,-0.0715332,-0.000868432,-0.00368872,-9.72221e-06,-0.000868399,-0.00368875,-0.00344719,0.00222688,0.00853253,1392,1744,-0.012312,0.0715234
175,-720,-0.010498,-0.0831299,-0.000573148,-0.00298341,-0.000371844,-0.000517086,-0.00303948,-0.149641,0.00187784,0.0137497,1399,1744,-0.0105021,0.0831684
182,-720,-0.0142822,-0.0742188,-0.000417782,-0.00235939,-0.000498926,-0.000297079,-0.00248009,-0.237365,0.0015638,0.0142851,1406,1744,-0.0143111,0.074179
189,-720,-0.00817871,-0.0740967,-0.000320747,-0.00183941,-0.000607279,-0.000107776,-0.00205238,-0.337296,0.00133378,0.0123848,1413,1744,-0.00815251,0.0740572
196,-720,-0.0223389,-0.0766602,-0.000235356,-0.00147835,-0.000593243,2.32976e-06,-0.00171604,-0.381071,0.0011448,0.0119858,1420,1744,-0.0223242,0.0766026
203,-720,-0.0305176,-0.0784912,-0.000150831,-0.000972696,-0.000542527,0.000118826,-0.00124235,-0.461275,0.000870551,0.0132226,1427,1744,-0.0305241,0.0785201
210,-720,-0.0340576,-0.0709229,-0.00010107,-8.59944e-05,-0.000487383,0.000393909,-0.000580973,-0.793131,0.000566292,0.0115477,1434,1744,-0.0341152,0.0709416
217,-720,-0.0357666,-0.0716553,-0.000137565,0.000592943,-0.000396529,0.000766805,-0.000311427,-1.15758,0.000640756,0.010763,1441,1744,-0.0357605,0.0716919
224,-720,-0.022583,-0.0805664,-0.000199962,0.000786478,-0.000403485,0.000930491,-0.000343975,-1.22797,0.000761343,0.00840339,1448,1744,-0.0226068,0.0805754
231,-720,-0.0244141,-0.0839844,-0.000292589,0.000832122,-0.00033911,0.000926455,-0.000386922,-1.29948,0.000779314,0.00867834,1455,1744,-0.0244642,0.0840307
238,-720,-0.0292969,-0.088501,-0.000301997,0.000976972,-0.00023249,0.00101792,-0.000342948,-1.39645,0.000817278,0.00777917,1462,1744,-0.029304,0.0884532
245,-720,-0.015625,-0.0770264,-0.000177073,0.00109321,-2.5251e-05,0.00109371,-0.000177575,-1.55093,0.000794971,0.0100685,1469,1744,-0.0156587,0.0770242
252,-720,-0.00378418,-0.0848389,1.52264e-05,0.000800509,6.45364e-05,0.000805777,9.95802e-06,1.48934,0.000533896,0.0103401,1476,1744,-0.00372473,0.084848
259,-720,0.00964355,-0.0948486,0.000376155,0.000316014,0.000179213,0.000527803,0.000164367,0.702276,0.000311868,0.00881627,1483,1744,0.00967971,0.0947936
266,-720,-0.00756836,-0.0804443,0.00121243,-0.000408006,0.000258316,0.00125261,-0.000448188,0.154318,0.00101791,0.00729694,1490,1744,-0.00750813,0.0803915
273,-720,-0.0168457,-0.0727539,0.00223621,-0.000808247,0.000197087,0.00224892,-0.000820953,0.0643781,0.00183519,0.0103033,1497,1744,-0.0168045,0.0727615
280,-720,-0.0186768,-0.0827637,0.00368449,-0.00114513,3.51956e-05,0.00368475,-0.00114539,0.00728693,0.00291431,0.0110383,1504,1744,-0.0187045,0.0827597
287,-720,-0.0324707,-0.0953369,0.00534015,-0.00127592,-0.000721883,0.005418,-0.00135376,-0.107427,0.00413774,0.0174953,1511,1744,-0.032431,0.0953605
294,-720,0.00537109,-0.0804443,0.00713778,-0.000930204,-0.00112616,0.00729202,-0.00108445,-0.136118,0.00526023,0.025658,1518,1744,0.00542398,0.0804096
301,-720,0.0633545,-0.0490723,0.00953151,-0.00100792,-0.00170911,0.00980174,-0.00127815,-0.156812,0.00699955,0.0291028,1525,1744,0.0633439,0.0490925
308,-720,-0.0246582,-0.09729,0.011655,-0.00130212,-0.00299281,0.0123129,-0.00195999,-0.216376,0.00893388,0.0324261,1532,1744,-0.0246528,0.0972514
315,-720,-0.879883,-0.716797,0,0,0,0,0,0,0,-1,1539,1744,-0.879828,0.716839
322,-720,0.0437012,-0.266235,0.015891,0.000469031,-0.00332034,0.0165755,-0.000215455,-0.203301,0.0111229,0.0399693,1546,1744,0.0436723,0.266276
329,-720,0.166748,-0.320313,0.0172739,0.00249075,-0.00234885,0.0176382,0.00212653,-0.153841,0.0111179,0.0393414,1553,1744,0.166781,0.320286
336,-720,0.401367,-0.373291,0.0168243,0.00477917,-0.00147249,0.0170017,0.00460177,-0.119896,0.0101543,0.0391883,1560,1744,0.401333,0.373327
343,-720,0.662354,-0.2677,0.0149071,0.00645667,-0.00074979,0.0149731,0.00639066,-0.0878136,0.00867556,0.044233,1567,1744,0.662404,0.26776
350,-720,0.700317,0.30249,0.0126964,0.00808165,0.000423556,0.012735,0.00804309,0.0907723,0.00743691,0.0442909,1574,1744,0.700299,-0.30255
357,-720,1.07422,0.703613,0.00993258,0.0105591,0.00181605,0.0120887,0.00840297,0.870804,0.00715435,0.045818,1581,1744,1.07424,-0.703576
364,-720,0.233398,-0.0130615,0.00646604,0.0134633,0.00245907,0.014241,0.00568829,1.26447,0.00827731,0.0431228,1588,1744,0.233408,0.0131097
371,-720,0.687134,0.628174,0,0,0,0,0,0,0,-1,1595,1744,0.687129,-0.628139
378,-720,0.832031,0.633423,-0.0039369,0.017506,0.00361147,0.0180979,-0.00452882,1.40834,0.0138244,0.0490976,1602,1744,0.83206,-0.633384
385,-720,0.239014,0.215088,-0.00867883,0.0181197,0.00296354,0.0184435,-0.00900264,1.46196,0.0161555,0.0416973,1609,1744,0.239005,-0.215117
392,-720,0.0300293,0.102783,-0.0119385,0.0187691,0.00204566,0.0189048,-0.0120742,1.50457,0.0180301,0.0398433,1616,1744,0.0300229,-0.102731
399,-720,-0.00708008,0.00476074,-0.0138809,0.018623,-0.0010321,0.0186557,-0.0139137,-1.53909,0.0188703,0.0398944,1623,1744,-0.00703499,-0.0047234
406,-720,0,0,0,0,0,0,0,0,0,-1,1630,1744,0,0
413,-720,0,0,0,0,0,0,0,0,0,-1,1637,1744,0,0
420,-720,0,0,0,0,0,0,0,0,0,-1,1644,1744,0,0
427,-720,0,0,0,0,0,0,0,0,0,-1,1651,1744,0,0
434,-720,0,0,0,0,0,0,0,0,0,-1,1658,1744,0,0
441,-720,0,0,0,0,0,0,0,0,0,-1,1665,1744,0,0
448,-720,0,0,0,0,0,0,0,0,0,-1,1672,1744,0,0
455,-720,0,0,0,0,0,0,0,0,0,-1,1679,1744,0,0
462,-720,0,0,0,0,0,0,0,0,0,-1,1686,1744,0,0
469,-720,0,0,0,0,0,0,0,0,0,-1,1693,1744,0,0
476,-720,0,0,0,0,0,0,0,0,0,-1,1700,1744,0,0
483,-720,0,0,0,0,0,0,0,0,0,-1,1707,1744,0,0
490,-720,0,0,0,0,0,0,0,0,0,-1,1714,1744,0,0
497,-720,0,0,0,0,0,0,0,0,0,-1,1721,1744,0,0
504,-720,0,0,0,0,0,0,0,0,0,-1,1728,1744,0,0
511,-720,0,0,0,0,0,0,0,0,0,-1,1735,1744,0,0
518,-720,0,0,0,0,0,0,0,0,0,-1,1742,1744,0,0
525,-720,0,0,0,0,0,0,0,0,0,-1,1749,1744,0,0
532,-720,0,0,0,0,0,0,0,0,0,-1,1756,1744,0,0
539,-720,0,0,0,0,0,0,0,0,0,-1,1763,1744,0,0
546,-720,0,0,0,0,0,0,0,0,0,-1,1770,1744,0,0
553,-720,0,0,0,0,0,0,0,0,0,-1,1777,1744,0,0
560,-720,0,0,0,0,0,0,0,0,0,-1,1784,1744,0,0
567,-720,0,0,0,0,0,0,0,0,0,-1,1791,1744,0,0
574,-720,0,0,0,0,0,0,0,0,0,-1,1798,1744,0,0
581,-720,0,0,0,0,0,0,0,0,0,-1,1805,1744,0,0
588,-720,0,0,0,0,0,0,0,0,0,-1,1812,1744,0,0
595,-720,0,0,0,0,0,0,0,0,0,-1,1819,1744,0,0
602,-720,0,0,0,0,0,0,0,0,0,-1,1826,1744,0,0
609,-720,0,0,0,0,0,0,0,0,0,-1,1833,1744,0,0
616,-720,0,0,0,0,0,0,0,0,0,-1,1840,1744,0,0
623,-720,0,0,0,0,0,0,0,0,0,-1,1847,1744,0,0
630,-720,0,0,0,0,0,0,0,0,0,-1,1854,1744,0,0
637,-720,0,0,0,0,0,0,0,0,0,-1,1861,1744,0,0
644,-720,0,0,0,0,0,0,0,0,0,-1,1868,1744,0,0
651,-720,0,0,0,0,0,0,0,0,0,-1,1875,1744,0,0
658,-720,0,0,0,0,0,0,0,0,0,-1,1882,1744,0,0
665,-720,0,0,0,0,0,0,0,0,0,-1,1889,1744,0,0
672,-720,0,0,0,0,0,0,0,0,0,-1,1896,1744,0,0
679,-720,0,0,0,0,0,0,0,0,0,-1,1903,1744,0,0
686,-720,0,0,0,0,0,0,0,0,0,-1,1910,1744,0,0
693,-720,0,0,0,0,0,0,0,0,0,-1,1917,1744,0,0
700,-720,0,0,0,0,0,0,0,0,0,-1,1924,1744,0,0
707,-720,0,0,0,0,0,0,0,0,0,-1,1931,1744,0,0
714,-720,0,0,0,0,0,0,0,0,0,-1,1938,1744,0,0
721,-720,0,0,0,0,0,0,0,0,0,-1,1945,1744,0,0
728,-720,0,0,0,0,0,0,0,0,0,-1,1952,1744,0,0
735,-720,0,0,0,0,0,0,0,0,0,-1,1959,1744,0,0
742,-720,0,0,0,0,0,0,0,0,0,-1,1966,1744,0,0
749,-720,0,0,0,0,0,0,0,0,0,-1,1973,1744,0,0
756,-720,0,0,0,0,0,0,0,0,0,-1,1980,1744,0,0
763,-720,0,0,0,0,0,0,0,0,0,-1,1987,1744,0,0
770,-720,0,0,0,0,0,0,0,0,0,-1,1994,1744,0,0
777,-720,0,0,0,0,0,0,0,0,0,-1,2001,1744,0,0
784,-720,0,0,0,0,0,0,0,0,0,-1,2008,1744,0,0
791,-720,0,0,0,0,0,0,0,0,0,-1,2015,1744,0,0
798,-720,0,0,0,0,0,0,0,0,0,-1,2022,1744,0,0
805,-720,0,0,0,0,0,0,0,0,0,-1,2029,1744,0,0
812,-720,0,0,0,0,0,0,0,0,0,-1,2036,1744,0,0
-700,-727,0,0,0,0,0,0,0,0,0,-1,524,1751,0,0
-693,-727,0,0,0,0,0,0,0,0,0,-1,531,1751,0,0
-686,-727,0,0,0,0,0,0,0,0,0,-1,538,1751,0,0
-679,-727,0,0,0,0,0,0,0,0,0,-1,545,1751,0,0
-672,-727,0,0,0,0,0,0,0,0,0,-1,552,1751,0,0
-665,-727,0,0,0,0,0,0,0,0,0,-1,559,1751,0,0
-658,-727,0,0,0,0,0,0,0,0,0,-1,566,1751,0,0
-651,-727,0,0,0,0,0,0,0,0,0,-1,573,1751,0,0
-644,-727,0,0,0,0,0,0,0,0,0,-1,580,1751,0,0
-637,-727,0,0,0,0,0,0,0,0,0,-1,587,1751,0,0
-630,-727,0,0,0,0,0,0,0,0,0,-1,594,1751,0,0
-623,-727,0,0,0,0,0,0,0,0,0,-1,601,1751,0,0
-616,-727,0,0,0,0,0,0,0,0,0,-1,608,1751,0,0
-609,-727,0,0,0,0,0,0,0,0,0,-1,615,1751,0,0
-602,-727,0,0,0,0,0,0,0,0,0,-1,622,1751,0,0
-595,-727,0,0,0,0,0,0,0,0,0,-1,629,1751,0,0
-588,-727,0,0,0,0,0,0,0,0,0,-1,636,1751,0,0
-581,-727,0,0,0,0,0,0,0,0,0,-1,643,1751,0,0
-574,-727,0,0,0,0,0,0,0,0,0,-1,650,1751,0,0
-567,-727,0,0,0,0,0,0,0,0,0,-1,657,1751,0,0
-560,-727,0,0,0,0,0,0,0,0,0,-1,664,1751,0,0
-553,-727,0,0,0,0,0,0,0,0,0,-1,671,1751,0,0
-546,-727,0,0,0,0,0,0,0,0,0,-1,678,1751,0,0
-539,-727,0,0,0,0,0,0,0,0,0,-1,685,1751,0,0
-532,-727,0,0,0,0,0,0,0,0,0,-1,692,1751,0,0
-525,-727,0,0,0,0,0,0,0,0,0,-1,699,1751,0,0
-518,-727,0,0,0,0,0,0,0,0,0,-1,706,1751,0,0
-511,-727,0,0,0,0,0,0,0,0,0,-1,713,1751,0,0
-504,-727,0,0,0,0,0,0,0,0,0,-1,720,1751,0,0
-497,-727,0,0,0,0,0,0,0,0,0,-1,727,1751,0,0
-490,-727,0,0,0,0,0,0,0,0,0,-1,734,1751,0,0
-483,-727,0,0,0,0,0,0,0,0,0,-1,741,1751,0,0
-476,-727,0,0,0,0,0,0,0,0,0,-1,748,1751,0,0
-469,-727,0,0,0,0,0,0,0,0,0,-1,755,1751,0,0
-462,-727,0,0,0,0,0,0,0,0,0,-1,762,1751,0,0
-455,-727,0,0,0,0,0,0,0,0,0,-1,769,1751,0,0
-448,-727,0,0,0,0,0,0,0,0,0,-1,776,1751,0,0
-441,-727,0,0,0,0,0,0,0,0,0,-1,783,1751,0,0
-434,-727,0,0,0,0,0,0,0,0,0,-1,790,1751,0,0
-427,-727,0,0,0,0,0,0,0,0,0,-1,797,1751,0,0
-420,-727,0,0,0,0,0,0,0,0,0,-1,804,1751,0,0
-413,-727,0,0,0,0,0,0,0,0,0,-1,811,1751,0,0
-406,-727,0,0,0,0,0,0,0,0,0,-1,818,1751,0,0
-399,-727,0,0,0,0,0,0,0,0,0,-1,825,1751,0,0
-392,-727,0,0,0,0,0,0,0,0,0,-1,832,1751,0,0
-385,-727,0,0,0,0,0,0,0,0,0,-1,839,1751,0,0
-378,-727,0,0,0,0,0,0,0,0,0,-1,846,1751,0,0
-371,-727,0,0,0,0,0,0,0,0,0,-1,853,1751,0,0
-364,-727,0,0,0,0,0,0,0,0,0,-1,860,1751,0,0
-357,-727,0,0,0,0,0,0,0,0,0,-1,867,1751,0,0
-350,-727,0,0,0,0,0,0,0,0,0,-1,874,1751,0,0
-343,-727,0,0,0,0,0,0,0,0,0,-1,881,1751,0,0
-336,-727,0,0,0,0,0,0,0,0,0,-1,888,1751,0,0
-329,-727,0,0,0,0,0,0,0,0,0,-1,895,1751,0,0
-322,-727,0,0,0,0,0,0,0,0,0,-1,902,1751,0,0
-315,-727,0,0,0,0,0,0,0,0,0,-1,909,1751,0,0
-308,-727,0,0,0,0,0,0,0,0,0,-1,916,1751,0,0
-301,-727,0,0,0,0,0,0,0,0,0,-1,923,1751,0,0
-294,-727,0,0,0,0,0,0,0,0,0,-1,930,1751,0,0
-287,-727,0,0,0,0,0,0,0,0,0,-1,937,1751,0,0
-280,-727,0,0,0,0,0,0,0,0,0,-1,944,1751,0,0
-273,-727,0,0,0,0,0,0,0,0,0,-1,951,1751,0,0
-266,-727,-4.14539,-0.576782,0,0,0,0,0,0,0,-1,958,1751,-4.14537,0.576766
-259,-727,-3.61755,-0.889893,0,0,0,0,0,0,0,-1,965,1751,-3.61755,0.889863
-252,-727,-3.25372,-1.06213,0.0410409,-0.0449927,0.0231067,0.046854,-0.0508059,0.246464,0.0563993,0.0458495,972,1751,-3.25372,1.06212
-245,-727,-3.13953,-1.26575,0.0429209,-0.0488278,0.0272743,0.0504164,-0.0563233,0.268198,0.0616577,0.0442651,979,1751,-3.1395,1.2658
-238,-727,-2.74884,-1.297,0.041683,-0.0488138,0.0293782,0.0503836,-0.0575144,0.287929,0.0623403,0.0448121,986,1751,-2.74883,1.29694
-231,-727,-2.16974,-1.26477,0.0401798,-0.0447274,0.0313591,0.050506,-0.0550536,0.318104,0.0609637,0.0441336,993,1751,-2.16975,1.26478
-224,-727,-1.55542,-1.24048,0.0381205,-0.0389095,0.0332122,0.0504627,-0.0512517,0.355801,0.0587254,0.045187,1000,1751,-1.55545,1.24051
-217,-727,-1.06403,-1.24011,0,0,0,0,0,0,0,-1,1007,1751,-1.06404,1.24015
-210,-727,-0.898499,-1.32434,0.0378547,-0.0251404,0.0360615,0.0542375,-0.0415232,0.426425,0.0554497,0.0449658,1014,1751,-0.898519,1.32434
-203,-727,-0.591797,-1.39929,0.0351512,-0.0163102,0.0357195,0.0534427,-0.0346017,0.47327,0.051219,0.0407781,1021,1751,-0.591802,1.39927
-196,-727,-0.41748,-1.45886,0.0332728,-0.00791965,0.034836,0.0531457,-0.0277926,0.518424,0.0474877,0.0441322,1028,1751,-0.417431,1.45889
-189,-727,-0.200684,-1.41663,0,0,0,0,0,0,0,-1,1035,1751,-0.200705,1.41663
-182,-727,-0.110962,-0.901367,0.0288342,0.00382091,0.0317274,0.050431,-0.0177759,0.597654,0.040856,0.0438187,1042,1751,-0.110996,0.901331
-175,-727,0.702148,-0.903931,0.0263235,0.00751664,0.0291398,0.0475396,-0.0136994,0.629323,0.0371122,0.0473092,1049,1751,0.702202,0.903901
-168,-727,0.264038,-0.589478,0.023609,0.00912446,0.0259817,0.043339,-0.0106055,0.649476,0.0330008,0.0428991,1056,1751,0.264044,0.589479
-161,-727,0.130981,-0.443237,0.0214383,0.00923478,0.0222517,0.0384097,-0.00773659,0.65158,0.0285371,0.042087,1063,1751,0.130936,0.44323
-154,-727,0.0839844,-0.317993,0.0184297,0.00924208,0.0182842,0.0326884,-0.00501657,0.662323,0.0236425,0.0365412,1070,1751,0.0840376,0.318002
-147,-727,0.0583496,-0.195435,0.0153115,0.00844729,0.0144725,0.0267533,-0.00299451,0.668975,0.0189129,0.0304703,1077,1751,0.0582907,0.195492
-140,-727,0.0153809,-0.071167,0.0125382,0.0068168,0.0111229,0.0211624,-0.00180734,0.65953,0.0147476,0.0195561,1084,1751,0.0154112,0.0711287
-133,-727,-0.0379639,-0.0710449,0.0101712,0.00538812,0.00804814,0.0161756,-0.000616291,0.640976,0.0109949,0.0120228,1091,1751,-0.0379131,0.0711051
-126,-727,-0.0427246,-0.0671387,0.00768643,0.00383962,0.0051781,0.0112868,0.00023924,0.607571,0.00744607,0.00964617,1098,1751,-0.042681,0.0670979
-119,-727,-0.0178223,-0.0552979,0.00554055,0.00270609,0.00270975,0.00718131,0.00106533,0.544456,0.0044749,0.00927926,1105,1751,-0.0178515,0.0553094
-112,-727,-0.0234375,-0.0682373,0.00321318,0.00161155,0.000573043,0.00339709,0.00142764,0.310551,0.00196961,0.0114998,1112,1751,-0.0234498,0.0682819
-105,-727,-0.0305176,-0.0777588,0.00190658,0.00152054,-0.000331161,0.00209686,0.00133025,-0.521538,0.00122512,0.0114516,1119,1751,-0.0305037,0.0777376
-98,-727,-0.020752,-0.0802002,0.00142765,0.00156797,-0.000858071,0.00235875,0.000636877,-0.826189,0.00140903,0.00978071,1126,1751,-0.0207579,0.0802039
-91,-727,0.00756836,-0.0737305,0.00103667,0.00148356,-0.00125941,0.00253919,-1.89655e-05,-0.873193,0.00169915,0.010167,1133,1751,0.00757207,0.0737022
-84,-727,-0.00915527,-0.0748291,0.000504423,0.0014993,-0.00151679,0.00259814,-0.000594411,-0.94385,0.0019605,0.0103348,1140,1751,-0.00919185,0.0748106
-77,-727,-0.0146484,-0.064209,4.12412e-05,0.00154209,-0.00177919,0.00272264,-0.0011393,-0.984968,0.00229131,0.011331,1147,1751,-0.0146525,0.0641884
-70,-727,-0.00842285,-0.0615234,-0.000208588,0.00167941,-0.00182793,0.00279271,-0.00132188,-1.02375,0.00242562,0.012534,1154,1751,-0.00844331,0.0615216
-63,-727,-0.0256348,-0.0571289,-0.000405827,0.00168173,-0.00185812,0.00276916,-0.00149326,-1.0413,0.00249739,0.0101042,1161,1751,-0.02558,0.0571815
-56,-727,-0.0316162,-0.065918,-0.000553506,0.00165081,-0.0017917,0.0026522,-0.0015549,-1.06114,0.00245636,0.00975638,1168,1751,-0.0316243,0.0659449
-49,-727,-0.017334,-0.0784912,-0.000616498,0.00146438,-0.0014445,0.00220414,-0.00135626,-1.0975,0.00207493,0.0122773,1175,1751,-0.0173164,0.0784676
-42,-727,-0.000244141,-0.0690918,-0.000426973,0.00118958,-0.00111813,0.00176098,-0.000998377,-1.09836,0.00161327,0.0154984,1182,1751,-0.000231324,0.0690621
-35,-727,-0.026001,-0.074707,-0.000389054,0.000954015,-0.000796894,0.00132459,-0.000759632,-1.13552,0.00121797,0.0142936,1189,1751,-0.0260025,0.0747327
-28,-727,-0.0291748,-0.0874023,-0.000528824,0.000592963,-0.000312648,0.000674215,-0.000610076,-1.31654,0.000741794,0.00867088,1196,1751,-0.0291445,0.0873526
-21,-727,-0.0244141,-0.0804443,-0.00044146,0.000237572,0.000218156,0.000301619,-0.000505507,1.28524,0.000470924,0.00901511,1203,1751,-0.0244568,0.0804878
-14,-727,-0.0275879,-0.0913086,-0.000105629,2.90634e-05,0.000787509,0.000752101,-0.000828666,0.828053,0.000913013,0.0102953,1210,1751,-0.0276066,0.0912746
-7,-727,-0.0144043,-0.0810547,0.00015434,-0.000172357,0.00135039,0.00135123,-0.00136924,0.725209,0.00157067,0.0134698,1217,1751,-0.0144416,0.0809944
0,-727,-0.00280762,-0.0710449,0.000276824,-0.000301814,0.00179444,0.00180512,-0.00183011,0.705471,0.00209882,0.0132145,1224,1751,-0.00281274,0.0710327
7,-727,-0.0112305,-0.0738525,0.000278747,-6.05983e-05,0.00204151,0.00215763,-0.00193948,0.743938,0.00236658,0.012663,1231,1751,-0.0111854,0.0739082
14,-727,-0.0196533,-0.0743408,0.000242283,0.000227818,0.00222674,0.0024618,-0.0019917,0.783774,0.002576,0.0125685,1238,1751,-0.0196061,0.0743882
21,-727,-0.0255127,-0.0592041,0.00022873,0.000443849,0.00234549,0.00268425,-0.00201167,0.808311,0.00272044,0.0108383,1245,1751,-0.0255163,0.0592473
28,-727,-0.0146484,-0.0577393,0.00024267,0.000669344,0.00226833,0.00273434,-0.00182233,0.832285,0.0026483,0.00985873,1252,1751,-0.0146128,0.0577699
35,-727,0.0113525,-0.0788574,0.000278981,0.000796704,0.00209404,0.00264782,-0.00157213,0.846895,0.00246263,0.0112,1259,1751,0.0113706,0.0788451
42,-727,-0.000854492,-0.0899658,7.91133e-05,0.000792744,0.00183589,0.00230618,-0.00143432,0.881379,0.00217904,0.0117171,1266,1751,-0.000901911,0.0899659
49,-727,-0.0286865,-0.0860596,-0.00024872,0.000618241,0.00156159,0.0018054,-0.00143588,0.920784,0.0018754,0.0103748,1273,1751,-0.0286928,0.0861101
56,-727,-0.0272217,-0.074585,-0.000428562,0.000248125,0.00139296,0.00134325,-0.00152368,0.904538,0.00165632,0.00866582,1280,1751,-0.0271961,0.0745857
63,-727,-0.00732422,-0.0678711,-0.000567861,-0.000376509,0.00138359,0.000914708,-0.00185908,0.819919,0.00163209,0.0103385,1287,1751,-0.00729796,0.067907
70,-727,-0.00354004,-0.0594482,-0.00074087,-0.00116815,0.00148597,0.000546736,-0.00245576,0.714001,0.0018466,0.0125941,1294,1751,-0.00358451,0.0594136
77,-727,-0.0179443,-0.0527344,-0.000670019,-0.00219538,0.00166181,0.000395766,-0.00326116,0.570264,0.00231732,0.0147152,1301,1751,-0.0179374,0.0527323
84,-727,0.00402832,-0.0926514,-0.000564291,-0.00340992,0.00188391,0.000373722,-0.00434793,0.461973,0.00303089,0.0136315,1308,1751,0.00402414,0.0926238
91,-727,0.00317383,-0.0999756,-0.00054894,-0.00437828,0.00218192,0.000439275,-0.0053665,0.425272,0.00373272,0.013279,1315,1751,0.00315384,0.100019
98,-727,0.00170898,-0.0849609,-0.000446256,-0.00519082,0.00251388,0.000637954,-0.00627503,0.407185,0.00441141,0.0117001,1322,1751,0.00171608,0.0849142
105,-727,-0.0078125,-0.076416,-0.000292531,-0.00646856,0.00266891,0.00070099,-0.00746208,0.356364,0.00522408,0.0118848,1329,1751,-0.00784584,0.0764684
112,-727,-0.0108643,-0.0805664,-0.000125781,-0.00739609,0.00264969,0.000737418,-0.00825929,0.314932,0.00576774,0.0102861,1336,1751,-0.0108478,0.0805471
119,-727,-0.0203857,-0.0870361,7.92624e-05,-0.00782416,0.00248941,0.000798012,-0.00854291,0.281079,0.00597906,0.00780901,1343,1751,-0.020341,0.0870649
126,-727,-0.0168457,-0.0688477,0.000243968,-0.00789956,0.00209322,0.000750506,-0.0084061,0.237425,0.00587025,0.00925002,1350,1751,-0.0168798,0.0688719
133,-727,-0.0090332,-0.067627,0.000301139,-0.00776144,0.00158121,0.000600153,-0.00806046,0.186897,0.00558445,0.0149389,1357,1751,-0.00902173,0.06758
140,-727,-0.0180664,-0.0657959,0.000235773,-0.00747791,0.00095147,0.000351402,-0.00759354,0.120934,0.00518346,0.0219945,1364,1751,-0.0180956,0.0658226
147,-727,-0.0306396,-0.06604,0.000150517,-0.00686723,0.000403419,0.000173631,-0.00689034,0.0572342,0.00465252,0.0182923,1371,1751,-0.0306593,0.0660938
154,-727,-0.0455322,-0.0727539,-2.03737e-05,-0.00610851,-3.11928e-05,-2.02139e-05,-0.00610867,-0.00512336,0.00406572,0.0111793,1378,1751,-0.0455901,0.0727827
161,-727,-0.0147705,-0.0681152,-0.00029043,-0.00521482,-0.000465999,-0.00024672,-0.00525853,-0.0935246,0.00342641,0.00810201,1385,1751,-0.0147637,0.0681027
168,-727,0.00109863,-0.0649414,-0.0004558,-0.00431772,-0.000821357,-0.000288371,-0.00448515,-0.201089,0.00289876,0.0103829,1392,1751,0.00107088,0.0649259
175,-727,-0.00830078,-0.0689697,-0.0005212,-0.00334405,-0.00108958,-0.000149564,-0.00371568,-0.328708,0.0024288,0.0154928,1399,1751,-0.00835945,0.068994
182,-727,-0.0395508,-0.0804443,-0.000760063,-0.0024546,-0.00114882,-0.000179873,-0.00303479,-0.467667,0.00196598,0.0176647,1406,1751,-0.0395931,0.0804472
189,-727,-0.0324707,-0.0841064,-0.000942886,-0.00173369,-0.00130179,2.22294e-05,-0.00269881,-0.637957,0.00180666,0.0118251,1413,1751,-0.0324439,0.0841162
196,-727,-0.0222168,-0.0662842,-0.00100025,-0.00135018,-0.00133306,0.000169273,-0.0025197,-0.720147,0.00173897,0.012882,1420,1751,-0.0221992,0.0662698
203,-727,-0.0302734,-0.0709229,-0.000965336,-0.000883524,-0.00127045,0.000346678,-0.00219554,-0.801492,0.00159188,0.0142587,1427,1751,-0.030237,0.0709609
210,-727,-0.0308838,-0.0681152,-0.000961946,0.000131475,-0.00123421,0.000934644,-0.00176512,-0.993891,0.0015831,0.013575,1434,1751,-0.0309148,0.0681095
217,-727,-0.0356445,-0.0740967,-0.00100345,0.000762005,-0.00115199,0.00133058,-0.00157203,-1.11231,0.00167776,0.0102642,1441,1751,-0.0356583,0.0741569
224,-727,-0.0308838,-0.0953369,-0.0010295,0.00081405,-0.00112799,0.00134899,-0.00156444,-1.12796,0.00168361,0.0107899,1448,1751,-0.030895,0.0953906
231,-727,-0.0252686,-0.0969238,-0.00110068,0.000846515,-0.00103139,0.00129125,-0.00154541,-1.16369,0.00163994,0.00885832,1455,1751,-0.0252183,0.0968976
238,-727,-0.0206299,-0.0852051,-0.001069,0.00097683,-0.000888425,0.00130878,-0.00140095,-1.21322,0.00156476,0.00894652,1462,1751,-0.0206288,0.0852311
245,-727,-0.0142822,-0.0792236,-0.000850531,0.00107288,-0.000607484,0.00124867,-0.00102633,-1.2891,0.00131556,0.00894964,1469,1751,-0.0143029,0.0792023
252,-727,-0.00878906,-0.0882568,-0.000515306,0.000652095,-0.000467269,0.000816088,-0.0006793,-1.23326,0.000864566,0.00978395,1476,1751,-0.00877488,0.0883114
259,-727,0.00646973,-0.10083,1.70977e-05,-1.09507e-05,-0.000259704,0.000263155,-0.000257008,-0.758424,0.000300324,0.0110364,1483,1751,0.0064134,0.100874
266,-727,0.00695801,-0.0678711,0.00110232,-0.000969806,-3.33765e-05,0.00110286,-0.000970344,-0.0161018,0.00119778,0.0141791,1490,1751,0.0069235,0.0678482
273,-727,-0.00439453,-0.0640869,0.00239099,-0.00156825,4.66379e-06,0.00239099,-0.00156825,0.00117795,0.00230226,0.0216186,1497,1751,-0.00445308,0.0641329
280,-727,-0.0684814,-0.101196,0.00421638,-0.00214661,-4.7938e-05,0.00421674,-0.00214697,-0.00753331,0.0037383,0.0304847,1504,1751,-0.068423,0.101179
287,-727,-0.0512695,-0.102539,0.00634338,-0.00251444,-0.00077407,0.00641051,-0.00258158,-0.0865144,0.00534617,0.0367261,1511,1751,-0.051268,0.102558
294,-727,0.143433,0.076416,0.00861135,-0.00231095,-0.00109899,0.00872084,-0.00242043,-0.0992928,0.00676657,0.0400468,1518,1751,0.143483,-0.0764098
301,-727,0.141479,0.0361328,0.0115887,-0.00253496,-0.00167611,0.0117849,-0.00273114,-0.116518,0.00890765,0.043713,1525,1751,0.141426,-0.0360767
308,-727,0.0107422,0.0465088,0,0,0,0,0,0,0,-1,1532,1751,0.0106846,-0.0465034
315,-727,-0.516113,-0.63623,0.0166219,-0.00227787,-0.00314804,0.0171324,-0.00278843,-0.160784,0.0124556,0.0424166,1539,1751,-0.516096,0.636269
322,-727,-0.160034,-0.713989,0.0194239,-0.00106581,-0.00311427,0.0198868,-0.00152869,-0.147553,0.0137957,0.0429864,1546,1751,-0.160093,0.713946
329,-727,0.441528,-0.623291,0.0210048,0.00128242,-0.00172843,0.0211551,0.00113209,-0.0867566,0.0137416,0.0413153,1553,1751,0.441505,0.623295
336,-727,1.33582,-0.340698,0.0204872,0.00409374,-0.000414865,0.0204977,0.00408325,-0.0252851,0.0125279,0.0429054,1560,1751,1.33581,0.340729
343,-727,0.471191,-0.624146,0.0183856,0.00618623,0.000708721,0.0184266,0.00614519,0.0578357,0.0108334,0.0437376,1567,1751,0.47121,0.624168
350,-727,1.08203,0.488647,0.016199,0.00829038,0.00226138,0.0167999,0.00768943,0.259743,0.009711,0.0426252,1574,1751,1.08197,-0.488598
357,-727,-0.925659,-0.932617,0,0,0,0,0,0,0,-1,1581,1751,-0.925644,0.932645
364,-727,-0.401489,-0.189575,0.00963431,0.0157509,0.00474085,0.0183343,0.0070509,1.07186,0.0106789,0.041935,1588,1751,-0.401476,0.189613
371,-727,-0.0527344,0.342773,0,0,0,0,0,0,0,-1,1595,1751,-0.0527103,-0.342829
378,-727,0.208862,0.419434,-0.00415539,0.02152,0.00596929,0.0228399,-0.00547534,1.35317,0.0173423,0.0442351,1602,1751,0.208898,-0.419416
385,-727,0.316528,0.374146,-0.0105654,0.0225056,0.00487044,0.0232079,-0.0112677,1.42757,0.0202986,0.041222,1609,1751,0.316575,-0.374114
392,-727,0,0,0,0,0,0,0,0,0,-1,1616,1751,0,0
399,-727,0,0,0,0,0,0,0,0,0,-1,1623,1751,0,0
406,-727,0,0,0,0,0,0,0,0,0,-1,1630,1751,0,0
413,-727,0,0,0,0,0,0,0,0,0,-1,1637,1751,0,0
420,-727,0,0,0,0,0,0,0,0,0,-1,1644,1751,0,0
427,-727,0,0,0,0,0,0,0,0,0,-1,1651,1751,0,0
434,-727,0,0,0,0,0,0,0,0,0,-1,1658,1751,0,0
441,-727,0,0,0,0,0,0,0,0,0,-1,1665,1751,0,0
448,-727,0,0,0,0,0,0,0,0,0,-1,1672,1751,0,0
455,-727,0,0,0,0,0,0,0,0,0,-1,1679,1751,0,0
462,-727,0,0,0,0,0,0,0,0,0,-1,1686,1751,0,0
469,-727,0,0,0,0,0,0,0,0,0,-1,1693,1751,0,0
476,-727,0,0,0,0,0,0,0,0,0,-1,1700,1751,0,0
483,-727,0,0,0,0,0,0,0,0,0,-1,1707,1751,0,0
490,-727,0,0,0,0,0,0,0,0,0,-1,1714,1751,0,0
497,-727,0,0,0,0,0,0,0,0,0,-1,1721,1751,0,0
504,-727,0,0,0,0,0,0,0,0,0,-1,1728,1751,0,0
511,-727,0,0,0,0,0,0,0,0,0,-1,1735,1751,0,0
518,-727,0,0,0,0,0,0,0,0,0,-1,1742,1751,0,0
525,-727,0,0,0,0,0,0,0,0,0,-1,1749,1751,0,0
532,-727,0,0,0,0,0,0,0,0,0,-1,1756,1751,0,0
539,-727,0,0,0,0,0,0,0,0,0,-1,1763,1751,0,0
546,-727,0,0,0,0,0,0,0,0,0,-1,1770,1751,0,0
553,-727,0,0,0,0,0,0,0,0,0,-1,1777,1751,0,0
560,-727,0,0,0,0,0,0,0,0,0,-1,1784,1751,0,0
567,-727,0,0,0,0,0,0,0,0,0,-1,1791,1751,0,0
574,-727,0,0,0,0,0,0,0,0,0,-1,1798,1751,0,0
581,-727,0,0,0,0,0,0,0,0,0,-1,1805,1751,0,0
588,-727,0,0,0,0,0,0,0,0,0,-1,1812,1751,0,0
595,-727,0,0,0,0,0,0,0,0,0,-1,1819,1751,0,0
602,-727,0,0,0,0,0,0,0,0,0,-1,1826,1751,0,0
609,-727,0,0,0,0,0,0,0,0,0,-1,1833,1751,0,0
616,-727,0,0,0,0,0,0,0,0,0,-1,1840,1751,0,0
623,-727,0,0,0,0,0,0,0,0,0,-1,1847,1751,0,0
630,-727,0,0,0,0,0,0,0,0,0,-1,1854,1751,0,0
637,-727,0,0,0,0,0,0,0,0,0,-1,1861,1751,0,0
644,-727,0,0,0,0,0,0,0,0,0,-1,1868,1751,0,0
651,-727,0,0,0,0,0,0,0,0,0,-1,1875,1751,0,0
658,-727,0,0,0,0,0,0,0,0,0,-1,1882,1751,0,0
665,-727,0,0,0,0,0,0,0,0,0,-1,1889,1751,0,0
672,-727,0,0,0,0,0,0,0,0,0,-1,1896,1751,0,0
679,-727,0,0,0,0,0,0,0,0,0,-1,1903,1751,0,0
686,-727,0,0,0,0,0,0,0,0,0,-1,1910,1751,0,0
693,-727,0,0,0,0,0,0,0,0,0,-1,1917,1751,0,0
700,-727,0,0,0,0,0,0,0,0,0,-1,1924,1751,0,0
707,-727,0,0,0,0,0,0,0,0,0,-1,1931,1751,0,0
714,-727,0,0,0,0,0,0,0,0,0,-1,1938,1751,0,0
721,-727,0,0,0,0,0,0,0,0,0,-1,1945,1751,0,0
728,-727,0,0,0,0,0,0,0,0,0,-1,1952,1751,0,0
735,-727,0,0,0,0,0,0,0,0,0,-1,1959,1751,0,0
742,-727,0,0,0,0,0,0,0,0,0,-1,1966,1751,0,0
749,-727,0,0,0,0,0,0,0,0,0,-1,1973,1751,0,0
756,-727,0,0,0,0,0,0,0,0,0,-1,1980,1751,0,0
763,-727,0,0,0,0,0,0,0,0,0,-1,1987,1751,0,0
770,-727,0,0,0,0,0,0,0,0,0,-1,1994,1751,0,0
777,-727,0,0,0,0,0,0,0,0,0,-1,2001,1751,0,0
784,-727,0,0,0,0,0,0,0,0,0,-1,2008,1751,0,0
791,-727,0,0,0,0,0,0,0,0,0,-1,2015,1751,0,0
798,-727,0,0,0,0,0,0,0,0,0,-1,2022,1751,0,0
805,-727,0,0,0,0,0,0,0,0,0,-1,2029,1751,0,0
812,-727,0,0,0,0,0,0,0,0,0,-1,2036,1751,0,0
-700,-734,0,0,0,0,0,0,0,0,0,-1,524,1758,0,0
-693,-734,0,0,0,0,0,0,0,0,0,-1,531,1758,0,0
-686,-734,0,0,0,0,0,0,0,0,0,-1,538,1758,0,0
-679,-734,0,0,0,0,0,0,0,0,0,-1,545,1758,0,0
-672,-734,0,0,0,0,0,0,0,0,0,-1,552,1758,0,0
-665,-734,0,0,0,0,0,0,0,0,0,-1,559,1758,0,0
-658,-734,0,0,0,0,0,0,0,0,0,-1,566,1758,0,0
-651,-734,0,0,0,0,0,0,0,0,0,-1,573,1758,0,0
-644,-734,0,0,0,0,0,0,0,0,0,-1,580,1758,0,0
-637,-734,0,0,0,0,0,0,0,0,0,-1,587,1758,0,0
-630,-734,0,0,0,0,0,0,0,0,0,-1,594,1758,0,0
-623,-734,0,0,0,0,0,0,0,0,0,-1,601,1758,0,0
-616,-734,0,0,0,0,0,0,0,0,0,-1,608,1758,0,0
-609,-734,0,0,0,0,0,0,0,0,0,-1,615,1758,0,0
-602,-734,0,0,0,0,0,0,0,0,0,-1,622,1758,0,0
-595,-734,0,0,0,0,0,0,0,0,0,-1,629,1758,0,0
-588,-734,0,0,0,0,0,0,0,0,0,-1,636,1758,0,0
-581,-734,0,0,0,0,0,0,0,0,0,-1,643,1758,0,0
-574,-734,0,0,0,0,0,0,0,0,0,-1,650,1758,0,0
-567,-734,0,0,0,0,0,0,0,0,0,-1,657,1758,0,0
-560,-734,0,0,0,0,0,0,0,0,0,-1,664,1758,0,0
-553,-734,0,0,0,0,0,0,0,0,0,-1,671,1758,0,0
-546,-734,0,0,0,0,0,0,0,0,0,-1,678,1758,0,0
-539,-734,0,0,0,0,0,0,0,0,0,-1,685,1758,0,0
-532,-734,0,0,0,0,0,0,0,0,0,-1,692,1758,0,0
-525,-734,0,0,0,0,0,0,0,0,0,-1,699,1758,0,0
-518,-734,0,0,0,0,0,0,0,0,0,-1,706,1758,0,0
-511,-734,0,0,0,0,0,0,0,0,0,-1,713,1758,0,0
-504,-734,0,0,0,0,0,0,0,0,0,-1,720,1758,0,0
-497,-734,0,0,0,0,0,0,0,0,0,-1,727,1758,0,0
-490,-734,0,0,0,0,0,0,0,0,0,-1,734,1758,0,0
-483,-734,0,0,0,0,0,0,0,0,0,-1,741,1758,0,0
-476,-734,0,0,0,0,0,0,0,0,0,-1,748,1758,0,0
-469,-734,0,0,0,0,0,0,0,0,0,-1,755,1758,0,0
-462,-734,0,0,0,0,0,0,0,0,0,-1,762,1758,0,0
-455,-734,0,0,0,0,0,0,0,0,0,-1,769,1758,0,0
-448,-734,0,0,0,0,0,0,0,0,0,-1,776,1758,0,0
-441,-734,0,0,0,0,0,0,0,0,0,-1,783,1758,0,0
-434,-734,0,0,0,0,0,0,0,0,0,-1,790,1758,0,0
-427,-734,0,0,0,0,0,0,0,0,0,-1,797,1758,0,0
-420,-734,0,0,0,0,0,0,0,0,0,-1,804,1758,0,0
-413,-734,0,0,0,0,0,0,0,0,0,-1,811,1758,0,0
-406,-734,0,0,0,0,0,0,0,0,0,-1,818,1758,0,0
-399,-734,0,0,0,0,0,0,0,0,0,-1,825,1758,0,0
-392,-734,0,0,0,0,0,0,0,0,0,-1,832,1758,0,0
-385,-734,0,0,0,0,0,0,0,0,0,-1,839,1758,0,0
-378,-734,0,0,0,0,0,0,0,0,0,-1,846,1758,0,0
-371,-734,0,0,0,0,0,0,0,0,0,-1,853,1758,0,0
-364,-734,0,0,0,0,0,0,0,0,0,-1,860,1758,0,0
-357,-734,0,0,0,0,0,0,0,0,0,-1,867,1758,0,0
-350,-734,0,0,0,0,0,0,0,0,0,-1,874,1758,0,0
-343,-734,0,0,0,0,0,0,0,0,0,-1,881,1758,0,0
-336,-734,0,0,0,0,0,0,0,0,0,-1,888,1758,0,0
-329,-734,0,0,0,0,0,0,0,0,0,-1,895,1758,0,0
-322,-734,0,0,0,0,0,0,0,0,0,-1,902,1758,0,0
-315,-734,0,0,0,0,0,0,0,0,0,-1,909,1758,0,0
-308,-734,0,0,0,0,0,0,0,0,0,-1,916,1758,0,0
-301,-734,0,0,0,0,0,0,0,0,0,-1,923,1758,0,0
-294,-734,0,0,0,0,0,0,0,0,0,-1,930,1758,0,0
-287,-734,0,0,0,0,0,0,0,0,0,-1,937,1758,0,0
-280,-734,0,0,0,0,0,0,0,0,0,-1,944,1758,0,0
-273,-734,0,0,0,0,0,0,0,0,0,-1,951,1758,0,0
-266,-734,0,0,0,0,0,0,0,0,0,-1,958,1758,0,0
-259,-734,0,0,0,0,0,0,0,0,0,-1,965,1758,0,0
-252,-734,-4.20752,-0.512695,0,0,0,0,0,0,0,-1,972,1758,-4.2075,0.512663
-245,-734,-3.95782,-0.430786,0.0527136,-0.0573935,0.0367116,0.0638313,-0.0685112,0.294059,0.0764239,0.0419903,979,1758,-3.95783,0.430756
-238,-734,-3.3717,-0.579346,0.0504071,-0.0563187,0.0379438,0.0625219,-0.0684335,0.309052,0.0756329,0.0443304,986,1758,-3.37168,0.579369
-231,-734,-2.7627,-0.703613,0.0476083,-0.0507189,0.0393265,0.0614021,-0.0645127,0.337343,0.0727043,0.0445688,993,1758,-2.76269,0.703621
-224,-734,-2.06305,-0.812866,0.0446867,-0.0435761,0.040965,0.0607692,-0.0596586,0.374103,0.06953,0.0440214,1000,1758,-2.06306,0.812814
-217,-734,-0.331421,-0.526978,0,0,0,0,0,0,0,-1,1007,1758,-0.331439,0.526972
-210,-734,-1.41724,-0.729492,0,0,0,0,0,0,0,-1,1014,1758,-1.41724,0.729461
-203,-734,-1.18628,-1.10229,0.0441871,-0.0176426,0.0437462,0.0668396,-0.0402951,0.477799,0.0624839,0.0410379,1021,1758,-1.18627,1.10226
-196,-734,-1.12195,-1.33789,0.042335,-0.00843924,0.0427598,0.0666762,-0.0327804,0.517505,0.0585224,0.045705,1028,1758,-1.1219,1.33783
-189,-734,-1.02283,-1.61877,0,0,0,0,0,0,0,-1,1035,1758,-1.02281,1.61879
-182,-734,-0.750488,-1.31934,0.0377824,0.0048296,0.0393399,0.0639569,-0.0213449,0.587085,0.0512564,0.0434598,1042,1758,-0.750508,1.3193
-175,-734,-0.337891,-1.09888,0.0349562,0.00905285,0.0363212,0.0605659,-0.0165568,0.614133,0.0468811,0.043096,1049,1758,-0.337882,1.09883
-168,-734,-0.249268,-0.831299,0.0316439,0.0108824,0.0324223,0.0553067,-0.0127804,0.630468,0.0417879,0.0425781,1056,1758,-0.249212,0.831351
-161,-734,-0.194336,-0.406616,0.0288109,0.0109513,0.0277369,0.04902,-0.00925783,0.629665,0.0361631,0.0444775,1063,1758,-0.194312,0.406571
-154,-734,-0.220703,-0.230713,0.0247962,0.0107065,0.0228404,0.0416536,-0.00615086,0.635808,0.03003,0.0455395,1070,1758,-0.220664,0.230658
-147,-734,-0.227905,-0.273682,0.0206366,0.00966047,0.0181286,0.0340896,-0.00379252,0.638418,0.0240903,0.0435482,1077,1758,-0.227937,0.273695
-140,-734,-0.170166,-0.175537,0.0167464,0.0076287,0.0139969,0.0269082,-0.00253306,0.627963,0.01884,0.0373739,1084,1758,-0.170181,0.175494
-133,-734,-0.0910645,-0.0280762,0.0134759,0.00583937,0.0102911,0.0206342,-0.00131899,0.607758,0.0142162,0.0300342,1091,1758,-0.0910692,0.0280159
-126,-734,-0.0578613,-0.0679932,0.0102814,0.00385254,0.00688016,0.014661,-0.000527044,0.566864,0.00995434,0.0282058,1098,1758,-0.0579113,0.0680172
-119,-734,-0.0211182,-0.110718,0.0075207,0.00236747,0.00390432,0.00962198,0.000266189,0.493733,0.00632779,0.0305178,1105,1758,-0.0211195,0.110739
-112,-734,-0.0236816,-0.0772705,0.00438924,0.000888307,0.00126239,0.00479695,0.00048059,0.312397,0.00305042,0.0245309,1112,1758,-0.0236394,0.0772328
-105,-734,-0.0554199,-0.0651855,0.00271582,0.00069852,0.000157434,0.00272803,0.000686307,0.0774173,0.00163855,0.016843,1119,1758,-0.0554737,0.0651682
-98,-734,-0.0345459,-0.0736084,0.00218161,0.000681311,-0.000474432,0.00231904,0.000543874,-0.28197,0.0014004,0.0129478,1126,1758,-0.0345945,0.0735962
-91,-734,0.00146484,-0.0665283,0.00175274,0.000590352,-0.000991625,0.00232094,2.2152e-05,-0.520329,0.00153996,0.0129247,1133,1758,0.00152381,0.0665369
-84,-734,0.00878906,-0.0690918,0.00116887,0.000695601,-0.00138849,0.00234074,-0.00047627,-0.700996,0.0017411,0.0100993,1140,1758,0.00874012,0.0690612
-77,-734,-0.0065918,-0.0684814,0.000645859,0.000831015,-0.00184927,0.00259002,-0.00111315,-0.810408,0.00219397,0.00991829,1147,1758,-0.00655546,0.068481
-70,-734,-0.00610352,-0.0627441,0.000351802,0.00111632,-0.00207456,0.00284355,-0.00137543,-0.876506,0.0024845,0.00924478,1154,1758,-0.00609738,0.0628015
-63,-734,-0.0140381,-0.059082,8.00833e-05,0.00128484,-0.00226311,0.00302437,-0.00165945,-0.915468,0.00274221,0.00974281,1161,1758,-0.0140463,0.0590973
-56,-734,-0.0290527,-0.072876,-0.000224154,0.00138511,-0.00232923,0.00304477,-0.00188382,-0.951705,0.00287172,0.0103185,1168,1758,-0.0290299,0.0728925
-49,-734,-0.0228271,-0.0899658,-0.000456052,0.00131644,-0.00208493,0.00269566,-0.00183528,-0.986364,0.00263161,0.010745,1175,1758,-0.0228007,0.0899405
-42,-734,-0.0109863,-0.0760498,-0.000416138,0.00106981,-0.00179094,0.00226577,-0.0016121,-0.98202,0.00224947,0.0124012,1182,1758,-0.0109358,0.0760054
-35,-734,-0.024292,-0.0784912,-0.000545472,0.000896044,-0.00154732,0.00188224,-0.00153167,-1.00336,0.00197448,0.0130334,1189,1758,-0.0243475,0.0785461
-28,-734,-0.0230713,-0.0858154,-0.000895864,0.000530604,-0.00108144,0.00111283,-0.00147809,-1.07692,0.00150081,0.00905329,1196,1758,-0.0230764,0.0858757
-21,-734,0.00756836,-0.0772705,-0.00103525,0.000178958,-0.000522035,0.000372538,-0.00122883,-1.2157,0.000967609,0.0127033,1203,1758,0.00752408,0.0772201
-14,-734,-0.0118408,-0.048584,-0.000804047,-0.000131853,0.000195765,-7.89964e-05,-0.000856904,1.30708,0.000546843,0.0134273,1210,1758,-0.0118293,0.0485355
-7,-734,-0.00244141,-0.0627441,-0.000500265,-0.000437053,0.00088877,0.000420673,-0.00135799,0.803171,0.00107339,0.0158348,1217,1758,-0.00250142,0.0627065
0,-734,0.000488281,-0.0670166,-0.000315929,-0.000692184,0.00144292,0.000951079,-0.00195919,0.720574,0.00171352,0.0153616,1224,1758,0.000498449,0.0669581
7,-734,-0.00805664,-0.0612793,-0.000252955,-0.000446611,0.00172762,0.00138055,-0.00208012,0.757404,0.00201158,0.011607,1231,1758,-0.00808753,0.0613018
14,-734,-0.00720215,-0.052124,-0.000200188,-0.000139584,0.00201655,0.00184689,-0.00218666,0.792911,0.00233153,0.0120281,1238,1758,-0.00716491,0.0521224
21,-734,-0.0206299,-0.060791,-8.64753e-05,0.000102605,0.00224849,0.00225855,-0.00224242,0.806409,0.00259864,0.0107561,1245,1758,-0.0205777,0.0607509
28,-734,-0.0255127,-0.0703125,5.33792e-05,0.000449487,0.0022363,0.00249649,-0.00199362,0.829565,0.00259778,0.0105434,1252,1758,-0.0254718,0.0702991
35,-734,-0.0144043,-0.0700684,0.000212817,0.000653574,0.00212515,0.00256974,-0.00170335,0.837064,0.00248391,0.0134053,1259,1758,-0.0144284,0.0701237
42,-734,-0.00256348,-0.0765381,6.06817e-05,0.000774415,0.00200723,0.00245625,-0.00162116,0.873374,0.0023705,0.0116319,1266,1758,-0.00259111,0.0765222
49,-734,-0.0192871,-0.0822754,-0.000256805,0.00063819,0.00185461,0.00209853,-0.00171715,0.90378,0.00220665,0.00977293,1273,1758,-0.0193429,0.0823157
56,-734,-0.0189209,-0.0736084,-0.000576018,0.000320112,0.00176257,0.00169068,-0.00194658,0.909867,0.00210171,0.00862987,1280,1758,-0.0188618,0.0736289
63,-734,0.00170898,-0.0687256,-0.000887433,-0.000294198,0.00182059,0.00125378,-0.00243541,0.866151,0.00216606,0.0106243,1287,1758,0.00174243,0.0687009
70,-734,-0.0251465,-0.0483398,-0.00111468,-0.00121366,0.00194574,0.0007822,-0.00311055,0.772683,0.00237771,0.011806,1294,1758,-0.0251231,0.0483409
77,-734,-0.0179443,-0.0273438,-0.00106463,-0.00251709,0.0021214,0.000451401,-0.00403313,0.620483,0.00285115,0.0163724,1301,1758,-0.0179739,0.0273609
84,-734,-0.00805664,-0.0725098,-0.000877,-0.0042226,0.00229138,0.000287219,-0.00538682,0.470096,0.00369068,0.0151094,1308,1758,-0.00808158,0.0725111
91,-734,-0.00939941,-0.0933838,-0.000643396,-0.00546309,0.00246635,0.000394979,-0.00650146,0.398492,0.00447179,0.0149219,1315,1758,-0.00943857,0.0933439
98,-734,0.00561523,-0.0740967,-0.000278569,-0.006529,0.00267864,0.000712291,-0.00751986,0.354302,0.00526675,0.0117749,1322,1758,0.00558497,0.0740746
105,-734,0.00463867,-0.0626221,0.000213304,-0.00828172,0.00268305,0.000989746,-0.00905816,0.281693,0.00639428,0.0129266,1329,1758,0.00461274,0.0625671
112,-734,0.000244141,-0.0737305,0.000777619,-0.00935047,0.00254635,0.00138177,-0.00995462,0.232955,0.0071417,0.0108649,1336,1758,0.000235545,0.0737102
119,-734,-0.0233154,-0.101563,0.00137804,-0.00978057,0.00220579,0.00179825,-0.0102008,0.188247,0.00747241,0.0113841,1343,1758,-0.0233633,0.101591
126,-734,-0.0100098,-0.113037,0.00185367,-0.00987741,0.00168506,0.00209092,-0.0101147,0.139874,0.00753738,0.0147303,1350,1758,-0.00998157,0.113069
133,-734,0.00756836,-0.0872803,0.00212127,-0.00966725,0.00108492,0.00222029,-0.00976627,0.091013,0.00736338,0.014483,1357,1758,0.00755413,0.0872876
140,-734,-0.0137939,-0.0882568,0.0021338,-0.00921647,0.000388317,0.00214707,-0.00922973,0.0341589,0.0069798,0.0188454,1364,1758,-0.013825,0.0882314
147,-734,-0.0152588,-0.0839844,0.00197573,-0.00840494,-0.000230232,0.00198084,-0.00841004,-0.0221643,0.00637047,0.0133042,1371,1758,-0.0151996,0.0839269
154,-734,-0.0203857,-0.0672607,0.00161237,-0.00733176,-0.000665932,0.00166168,-0.00738107,-0.0739115,0.00555803,0.00892693,1378,1758,-0.0203394,0.06729
161,-734,-0.00512695,-0.0784912,0.00114045,-0.00612655,-0.00104588,0.00128798,-0.00627408,-0.140134,0.00467161,0.00772411,1385,1758,-0.00508577,0.078432
168,-734,-0.0203857,-0.0814209,0.000699997,-0.00496408,-0.00134369,0.00100259,-0.00526667,-0.221504,0.00388864,0.0124882,1392,1758,-0.020404,0.0814071
175,-734,-0.0184326,-0.0799561,0.000235685,-0.00369591,-0.00156972,0.000785516,-0.00424574,-0.336918,0.00312541,0.0154961,1399,1758,-0.0184105,0.0799282
182,-734,-0.022583,-0.092041,-0.000423348,-0.00256325,-0.00160057,0.000431955,-0.00341856,-0.490768,0.00243582,0.0133227,1406,1758,-0.0225233,0.0919984
189,-734,-0.0198975,-0.0870361,-0.000997543,-0.00161271,-0.00179504,0.000516078,-0.00312633,-0.700546,0.00227584,0.0100752,1413,1758,-0.0198451,0.0869876
196,-734,-0.0140381,-0.0517578,-0.00138535,-0.00125249,-0.00184662,0.000528894,-0.00316673,-0.803377,0.00230774,0.0110559,1420,1758,-0.0140342,0.0516993
203,-734,-0.00378418,-0.0447998,-0.00147618,-0.000836233,-0.001788,0.0006602,-0.00297261,-0.873939,0.00223456,0.0108728,1427,1758,-0.00375188,0.0448558
210,-734,0.000732422,-0.0633545,-0.00155437,0.000340288,-0.00179928,0.00142639,-0.00264047,-1.02771,0.00238262,0.0115213,1434,1758,0.000671647,0.0633957
217,-734,-0.0257568,-0.0787354,-0.00168715,0.000861946,-0.00179724,0.0017907,-0.0026159,-1.09383,0.00255898,0.00967815,1441,1758,-0.0257124,0.0787031
224,-734,-0.0384521,-0.0843506,-0.00171418,0.000808081,-0.00176261,0.00171426,-0.00262036,-1.09592,0.00252075,0.0105232,1448,1758,-0.038489,0.0843922
231,-734,-0.0220947,-0.0795898,-0.00175691,0.000904219,-0.00164774,0.00169154,-0.00254423,-1.12505,0.00246198,0.0117353,1455,1758,-0.0221125,0.0795455
238,-734,0.00585938,-0.0797119,-0.00168137,0.0010702,-0.0014901,0.00172252,-0.00233369,-1.15816,0.0023507,0.0139467,1462,1758,0.00584403,0.0797386
245,-734,0.0090332,-0.0999756,-0.00137609,0.00114499,-0.00117568,0.00160816,-0.00183926,-1.19551,0.00199186,0.0187921,1469,1758,0.0089846,0.0999785
252,-734,0.0141602,-0.121948,-0.000905464,0.000612199,-0.00104092,0.00114153,-0.00143479,-1.10036,0.00149065,0.0248068,1476,1758,0.0141183,0.121964
259,-734,0.0418701,-0.10437,-0.000235507,-0.000284535,-0.000755841,0.000496218,-0.00101626,-0.769187,0.000890268,0.0312296,1483,1758,0.0418955,0.10435
266,-734,0.0429688,-0.0358887,0.00108049,-0.00158142,-0.000368324,0.00113051,-0.00163144,-0.13499,0.00160333,0.035998,1490,1758,0.043017,0.0359472
273,-734,0.0483398,0.0546875,0.00259886,-0.00250139,-0.000217897,0.00260815,-0.00251068,-0.0426193,0.00295554,0.0384562,1497,1758,0.0483119,-0.0546937
280,-734,-0.25293,-0.0579834,0.00476783,-0.00346574,-0.000122979,0.00476967,-0.00346758,-0.0149318,0.00477554,0.0418117,1504,1758,-0.252922,0.0579928
287,-734,-0.248169,-0.0777588,0.00734443,-0.00420567,-0.000781003,0.007397,-0.00425824,-0.067211,0.00681,0.0482312,1511,1758,-0.248184,0.0777732
294,-734,-0.168457,0.0778809,0.0100605,-0.0042906,-0.000994404,0.010129,-0.00435918,-0.0688527,0.00858304,0.0482729,1518,1758,-0.168502,-0.0779096
301,-734,0.207275,0.0737305,0,0,0,0,0,0,0,-1,1525,1758,0.207302,-0.0737097
308,-734,-0.421387,-0.600098,0.0167825,-0.0054174,-0.0029691,0.0171727,-0.00580764,-0.130685,0.013798,0.044581,1532,1758,-0.421425,0.60004
315,-734,0.0170898,-0.623657,0.0195497,-0.00472208,-0.0027392,0.019855,-0.00502737,-0.110995,0.0151923,0.0437568,1539,1758,0.0171013,0.623634
322,-734,0.385132,-0.646851,0.022829,-0.00348461,-0.00239719,0.0230456,-0.00370121,-0.0901123,0.0167344,0.0424957,1546,1758,0.385089,0.646871
329,-734,0.774414,-0.67749,0,0,0,0,0,0,0,-1,1553,1758,0.774428,0.677442
336,-734,2.14978,-0.650391,0,0,0,0,0,0,0,-1,1560,1758,2.14972,0.650414
343,-734,0.236328,-0.667603,0,0,0,0,0,0,0,-1,1567,1758,0.23636,0.667626
350,-734,1.38928,0.496948,0,0,0,0,0,0,0,-1,1574,1758,1.38932,-0.496937
357,-734,-1.38416,-1.32788,0,0,0,0,0,0,0,-1,1581,1758,-1.38411,1.32792
364,-734,-0.812866,-0.57666,0,0,0,0,0,0,0,-1,1588,1758,-0.812861,0.576642
371,-734,-0.241577,0.174683,0,0,0,0,0,0,0,-1,1595,1758,-0.241612,-0.174632
378,-734,0,0,0,0,0,0,0,0,0,-1,1602,1758,0,0
385,-734,0,0,0,0,0,0,0,0,0,-1,1609,1758,0,0
392,-734,0,0,0,0,0,0,0,0,0,-1,1616,1758,0,0
399,-734,0,0,0,0,0,0,0,0,0,-1,1623,1758,0,0
406,-734,0,0,0,0,0,0,0,0,0,-1,1630,1758,0,0
413,-734,0,0,0,0,0,0,0,0,0,-1,1637,1758,0,0
420,-734,0,0,0,0,0,0,0,0,0,-1,1644,1758,0,0
427,-734,0,0,0,0,0,0,0,0,0,-1,1651,1758,0,0
434,-734,0,0,0,0,0,0,0,0,0,-1,1658,1758,0,0
441,-734,0,0,0,0,0,0,0,0,0,-1,1665,1758,0,0
448,-734,0,0,0,0,0,0,0,0,0,-1,1672,1758,0,0
455,-734,0,0,0,0,0,0,0,0,0,-1,1679,1758,0,0
462,-734,0,0,0,0,0,0,0,0,0,-1,1686,1758,0,0
469,-734,0,0,0,0,0,0,0,0,0,-1,1693,1758,0,0
476,-734,0,0,0,0,0,0,0,0,0,-1,1700,1758,0,0
483,-734,0,0,0,0,0,0,0,0,0,-1,1707,1758,0,0
490,-734,0,0,0,0,0,0,0,0,0,-1,1714,1758,0,0
497,-734,0,0,0,0,0,0,0,0,0,-1,1721,1758,0,0
504,-734,0,0,0,0,0,0,0,0,0,-1,1728,1758,0,0
511,-734,0,0,0,0,0,0,0,0,0,-1,1735,1758,0,0
518,-734,0,0,0,0,0,0,0,0,0,-1,1742,1758,0,0
525,-734,0,0,0,0,0,0,0,0,0,-1,1749,1758,0,0
532,-734,0,0,0,0,0,0,0,0,0,-1,1756,1758,0,0
539,-734,0,0,0,0,0,0,0,0,0,-1,1763,1758,0,0
546,-734,0,0,0,0,0,0,0,0,0,-1,1770,1758,0,0
553,-734,0,0,0,0,0,0,0,0,0,-1,1777,1758,0,0
560,-734,0,0,0,0,0,0,0,0,0,-1,1784,1758,0,0
567,-734,0,0,0,0,0,0,0,0,0,-1,1791,1758,0,0
574,-734,0,0,0,0,0,0,0,0,0,-1,1798,1758,0,0
581,-734,0,0,0,0,0,0,0,0,0,-1,1805,1758,0,0
588,-734,0,0,0,0,0,0,0,0,0,-1,1812,1758,0,0
595,-734,0,0,0,0,0,0,0,0,0,-1,1819,1758,0,0
602,-734,0,0,0,0,0,0,0,0,0,-1,1826,1758,0,0
609,-734,0,0,0,0,0,0,0,0,0,-1,1833,1758,0,0
616,-734,0,0,0,0,0,0,0,0,0,-1,1840,1758,0,0
623,-734,0,0,0,0,0,0,0,0,0,-1,1847,1758,0,0
630,-734,0,0,0,0,0,0,0,0,0,-1,1854,1758,0,0
637,-734,0,0,0,0,0,0,0,0,0,-1,1861,1758,0,0
644,-734,0,0,0,0,0,0,0,0,0,-1,1868,1758,0,0
651,-734,0,0,0,0,0,0,0,0,0,-1,1875,1758,0,0
658,-734,0,0,0,0,0,0,0,0,0,-1,1882,1758,0,0
665,-734,0,0,0,0,0,0,0,0,0,-1,1889,1758,0,0
672,-734,0,0,0,0,0,0,0,0,0,-1,1896,1758,0,0
679,-734,0,0,0,0,0,0,0,0,0,-1,1903,1758,0,0
686,-734,0,0,0,0,0,0,0,0,0,-1,1910,1758,0,0
693,-734,0,0,0,0,0,0,0,0,0,-1,1917,1758,0,0
700,-734,0,0,0,0,0,0,0,0,0,-1,1924,1758,0,0
707,-734,0,0,0,0,0,0,0,0,0,-1,1931,1758,0,0
714,-734,0,0,0,0,0,0,0,0,0,-1,1938,1758,0,0
721,-734,0,0,0,0,0,0,0,0,0,-1,1945,1758,0,0
728,-734,0,0,0,0,0,0,0,0,0,-1,1952,1758,0,0
735,-734,0,0,0,0,0,0,0,0,0,-1,1959,1758,0,0
742,-734,0,0,0,0,0,0,0,0,0,-1,1966,1758,0,0
749,-734,0,0,0,0,0,0,0,0,0,-1,1973,1758,0,0
756,-734,0,0,0,0,0,0,0,0,0,-1,1980,1758,0,0
763,-734,0,0,0,0,0,0,0,0,0,-1,1987,1758,0,0
770,-734,0,0,0,0,0,0,0,0,0,-1,1994,1758,0,0
777,-734,0,0,0,0,0,0,0,0,0,-1,2001,1758,0,0
784,-734,0,0,0,0,0,0,0,0,0,-1,2008,1758,0,0
791,-734,0,0,0,0,0,0,0,0,0,-1,2015,1758,0,0
798,-734,0,0,0,0,0,0,0,0,0,-1,2022,1758,0,0
805,-734,0,0,0,0,0,0,0,0,0,-1,2029,1758,0,0
812,-734,0,0,0,0,0,0,0,0,0,-1,2036,1758,0,0
-700,-741,0,0,0,0,0,0,0,0,0,-1,524,1765,0,0
-693,-741,0,0,0,0,0,0,0,0,0,-1,531,1765,0,0
-686,-741,0,0,0,0,0,0,0,0,0,-1,538,1765,0,0
-679,-741,0,0,0,0,0,0,0,0,0,-1,545,1765,0,0
-672,-741,0,0,0,0,0,0,0,0,0,-1,552,1765,0,0
-665,-741,0,0,0,0,0,0,0,0,0,-1,559,1765,0,0
-658,-741,0,0,0,0,0,0,0,0,0,-1,566,1765,0,0
-651,-741,0,0,0,0,0,0,0,0,0,-1,573,1765,0,0
-644,-741,0,0,0,0,0,0,0,0,0,-1,580,1765,0,0
-637,-741,0,0,0,0,0,0,0,0,0,-1,587,1765,0,0
-630,-741,0,0,0,0,0,0,0,0,0,-1,594,1765,0,0
-623,-741,0,0,0,0,0,0,0,0,0,-1,601,1765,0,0
-616,-741,0,0,0,0,0,0,0,0,0,-1,608,1765,0,0
-609,-741,0,0,0,0,0,0,0,0,0,-1,615,1765,0,0
-602,-741,0,0,0,0,0,0,0,0,0,-1,622,1765,0,0
-595,-741,0,0,0,0,0,0,0,0,0,-1,629,1765,0,0
-588,-741,0,0,0,0,0,0,0,0,0,-1,636,1765,0,0
-581,-741,0,0,0,0,0,0,0,0,0,-1,643,1765,0,0
-574,-741,0,0,0,0,0,0,0,0,0,-1,650,1765,0,0
-567,-741,0,0,0,0,0,0,0,0,0,-1,657,1765,0,0
-560,-741,0,0,0,0,0,0,0,0,0,-1,664,1765,0,0
-553,-741,0,0,0,0,0,0,0,0,0,-1,671,1765,0,0
-546,-741,0,0,0,0,0,0,0,0,0,-1,678,1765,0,0
-539,-741,0,0,0,0,0,0,0,0,0,-1,685,1765,0,0
-532,-741,0,0,0,0,0,0,0,0,0,-1,692,1765,0,0
-525,-741,0,0,0,0,0,0,0,0,0,-1,699,1765,0,0
-518,-741,0,0,0,0,0,0,0,0,0,-1,706,1765,0,0
-511,-741,0,0,0,0,0,0,0,0,0,-1,713,1765,0,0
-504,-741,0,0,0,0,0,0,0,0,0,-1,720,1765,0,0
-497,-741,0,0,0,0,0,0,0,0,0,-1,727,1765,0,0
-490,-741,0,0,0,0,0,0,0,0,0,-1,734,1765,0,0
-483,-741,0,0,0,0,0,0,0,0,0,-1,741,1765,0,0
-476,-741,0,0,0,0,0,0,0,0,0,-1,748,1765,0,0
-469,-741,0,0,0,0,0,0,0,0,0,-1,755,1765,0,0
-462,-741,0,0,0,0,0,0,0,0,0,-1,762,1765,0,0
-455,-741,0,0,0,0,0,0,0,0,0,-1,769,1765,0,0
-448,-741,0,0,0,0,0,0,0,0,0,-1,776,1765,0,0
-441,-741,0,0,0,0,0,0,0,0,0,-1,783,1765,0,0
-434,-741,0,0,0,0,0,0,0,0,0,-1,790,1765,0,0
-427,-741,0,0,0,0,0,0,0,0,0,-1,797,1765,0,0
-420,-741,0,0,0,0,0,0,0,0,0,-1,804,1765,0,0
-413,-741,0,0,0,0,0,0,0,0,0,-1,811,1765,0,0
-406,-741,0,0,0,0,0,0,0,0,0,-1,818,1765,0,0
-399,-741,0,0,0,0,0,0,0,0,0,-1,825,1765,0,0
-392,-741,0,0,0,0,0,0,0,0,0,-1,832,1765,0,0
-385,-741,0,0,0,0,0,0,0,0,0,-1,839,1765,0,0
-378,-741,0,0,0,0,0,0,0,0,0,-1,846,1765,0,0
-371,-741,0,0,0,0,0,0,0,0,0,-1,853,1765,0,0
-364,-741,0,0,0,0,0,0,0,0,0,-1,860,1765,0,0
-357,-741,0,0,0,0,0,0,0,0,0,-1,867,1765,0,0
-350,-741,0,0,0,0,0,0,0,0,0,-1,874,1765,0,0
-343,-741,0,0,0,0,0,0,0,0,0,-1,881,1765,0,0
-336,-741,0,0,0,0,0,0,0,0,0,-1,888,1765,0,0
-329,-741,0,0,0,0,0,0,0,0,0,-1,895,1765,0,0
-322,-741,0,0,0,0,0,0,0,0,0,-1,902,1765,0,0
-315,-741,0,0,0,0,0,0,0,0,0,-1,909,1765,0,0
-308,-741,0,0,0,0,0,0,0,0,0,-1,916,1765,0,0
-301,-741,0,0,0,0,0,0,0,0,0,-1,923,1765,0,0
-294,-741,0,0,0,0,0,0,0,0,0,-1,930,1765,0,0
-287,-741,0,0,0,0,0,0,0,0,0,-1,937,1765,0,0
-280,-741,0,0,0,0,0,0,0,0,0,-1,944,1765,0,0
-273,-741,0,0,0,0,0,0,0,0,0,-1,951,1765,0,0
-266,-741,0,0,0,0,0,0,0,0,0,-1,958,1765,0,0
-259,-741,0,0,0,0,0,0,0,0,0,-1,965,1765,0,0
-252,-741,0,0,0,0,0,0,0,0,0,-1,972,1765,0,0
-245,-741,0,0,0,0,0,0,0,0,0,-1,979,1765,0,0
-238,-741,-3.57214,-0.70459,0.0596443,-0.0621273,0.0474335,0.0759402,-0.0784232,0.33092,0.0891256,0.0424527,986,1765,-3.57216,0.704583
-231,-741,-3.22455,-0.578125,0.0545266,-0.0547727,0.0477154,0.0724259,-0.0726719,0.35888,0.0837723,0.0414109,993,1765,-3.22456,0.578139
-224,-741,-0.863281,-0.152344,0,0,0,0,0,0,0,-1,1000,1765,-0.863252,0.152366
-217,-741,-1.24103,-0.303101,0.0564659,-0.0346086,0.0542006,0.0817195,-0.0598622,0.436021,0.0820663,0.0436044,1007,1765,-1.24102,0.303101
-210,-741,-1.67719,-0.476074,0,0,0,0,0,0,0,-1,1014,1765,-1.67718,0.476099
-203,-741,-2.04004,-0.851807,0,0,0,0,0,0,0,-1,1021,1765,-2.04005,0.851843
-196,-741,-2.03967,-2.1521,0,0,0,0,0,0,0,-1,1028,1765,-2.03967,2.15209
-189,-741,-1.76587,-2.00989,0.0502998,9.54554e-05,0.0486738,0.0799631,-0.0295678,0.547325,0.0654309,0.046087,1035,1765,-1.76589,2.00995
-182,-741,-1.40637,-1.59302,0.0483285,0.00592501,0.0473442,0.0790014,-0.0247479,0.574878,0.0625702,0.0451069,1042,1765,-1.40634,1.59308
-175,-741,-1.15356,-1.35327,0.0452289,0.0105901,0.0439241,0.0751249,-0.0193059,0.597606,0.0576071,0.0413133,1049,1765,-1.15362,1.35328
-168,-741,-0.571167,-0.884033,0,0,0,0,0,0,0,-1,1056,1765,-0.571208,0.883973
-161,-741,-0.44873,-0.409668,0,0,0,0,0,0,0,-1,1063,1765,-0.448754,0.40962
-154,-741,-0.49353,-0.196289,0,0,0,0,0,0,0,-1,1070,1765,-0.493523,0.196282
-147,-741,-0.458496,-0.350464,0.0269937,0.0107264,0.0219475,0.0422662,-0.00454608,0.607946,0.0298086,0.0444975,1077,1765,-0.458461,0.350513
-140,-741,-0.396362,-0.319214,0.0217867,0.00830668,0.0169757,0.0333114,-0.00321805,0.596422,0.0233543,0.0428576,1084,1765,-0.39635,0.319219
-133,-741,0.0174561,-0.0465088,0.0175058,0.00619484,0.0126052,0.025666,-0.00196544,0.574528,0.017802,0.0403971,1091,1765,0.0174134,0.0465491
-126,-741,-0.0509033,-0.0413818,0.0134938,0.00381501,0.00862584,0.018545,-0.00123625,0.529761,0.0127954,0.0414552,1098,1765,-0.0508578,0.041404
-119,-741,0.223145,-0.369141,0.00997305,0.00201877,0.0051242,0.0124824,-0.000490615,0.455384,0.00848989,0.0423612,1105,1765,0.223179,0.369121
-112,-741,0.00646973,-0.098877,0.0058199,0.000180502,0.00189638,0.00639828,-0.000397879,0.296031,0.00440414,0.0395669,1112,1765,0.0065125,0.0988692
-105,-741,0.0450439,-0.124146,0.00365008,-7.88468e-05,0.000532643,0.00372467,-0.000153438,0.139135,0.00253581,0.0295773,1119,1765,0.0450529,0.124171
-98,-741,-0.0194092,-0.123291,0.00299068,-0.000145384,-0.000251151,0.00301067,-0.00016537,-0.0794102,0.00206445,0.0255798,1126,1765,-0.0194211,0.123236
-91,-741,0.0601807,-0.109497,0.00245772,-0.000229896,-0.000917881,0.00274128,-0.000513455,-0.299628,0.00202054,0.0278179,1133,1765,0.0601888,0.109487
-84,-741,0.112549,-0.10376,0.00177493,-1.27016e-05,-0.00148538,0.00261469,-0.000852455,-0.514548,0.00208616,0.0283301,1140,1765,0.1125,0.103781
-77,-741,0.0313721,-0.0777588,0.00111052,0.000238603,-0.00221453,0.0029316,-0.00158248,-0.68821,0.00264472,0.0257961,1147,1765,0.0313458,0.0777935
-70,-741,-0.0397949,-0.0604248,0.000648293,0.000694338,-0.00265797,0.00332938,-0.00198675,-0.789729,0.00310173,0.0238008,1154,1765,-0.0398395,0.060402
-63,-741,-0.0275879,-0.072998,0.000122367,0.00102377,-0.00299727,0.00360404,-0.0024579,-0.860025,0.00352066,0.0226985,1161,1765,-0.0275576,0.0730093
-56,-741,-0.0474854,-0.0913086,-0.000443408,0.00122913,-0.00317908,0.00368009,-0.00289437,-0.914011,0.00380479,0.0203768,1168,1765,-0.0474281,0.0913358
-49,-741,-0.0272217,-0.0949707,-0.000918928,0.00124898,-0.00298222,0.00333813,-0.00300808,-0.959711,0.00366564,0.015141,1175,1765,-0.0271882,0.0950278
-42,-741,-0.0136719,-0.0848389,-0.00103984,0.00101343,-0.00266671,0.0028443,-0.00287071,-0.969144,0.00329957,0.0111118,1182,1765,-0.013633,0.0848741
-35,-741,-0.0133057,-0.0743408,-0.00135191,0.000880117,-0.0024292,0.0024374,-0.00290919,-1.00073,0.00309086,0.00754417,1189,1765,-0.0133322,0.0743128
-28,-741,-0.0166016,-0.0698242,-0.00193748,0.000473571,-0.00189495,0.00151396,-0.00297787,-1.0687,0.00263887,0.0107537,1196,1765,-0.016571,0.0697643
-21,-741,0.00146484,-0.0377197,-0.00225903,6.515e-05,-0.00120347,0.000576021,-0.0027699,-1.16935,0.00206556,0.0151138,1203,1765,0.00147753,0.0377399
-14,-741,-0.0194092,-0.0413818,-0.00204391,-0.000354183,-0.000244677,-0.000319467,-0.00207863,-1.42985,0.00129249,0.0154782,1210,1765,-0.0194005,0.041349
-7,-741,-0.000732422,-0.0712891,-0.00162218,-0.00077793,0.000703997,-0.000379202,-0.00202091,1.05547,0.00124035,0.0140401,1217,1765,-0.000775263,0.0712343
0,-741,0.00512695,-0.0753174,-0.00127987,-0.0011576,0.00149892,0.000281424,-0.0027189,0.80578,0.00191332,0.014014,1224,1765,0.00507027,0.0753117
7,-741,-0.00219727,-0.0714111,-0.00104047,-0.000893651,0.00194422,0.00097855,-0.00291267,0.804268,0.00233727,0.0152654,1231,1765,-0.00213848,0.0714114
14,-741,-0.0045166,-0.0655518,-0.000796322,-0.000541251,0.00239772,0.00173233,-0.0030699,0.811968,0.00280819,0.0142867,1238,1765,-0.00457275,0.0655263
21,-741,-0.00683594,-0.0738525,-0.0004795,-0.000250792,0.00279543,0.00243262,-0.00316291,0.805841,0.00323974,0.0109828,1245,1765,-0.00687712,0.0738527
28,-741,-0.0367432,-0.0776367,-0.000128485,0.000231306,0.00288977,0.00294678,-0.00284396,0.816484,0.00334346,0.0114172,1252,1765,-0.0366923,0.0776863
35,-741,-0.0297852,-0.0806885,0.000258029,0.000540452,0.00281232,0.00321511,-0.00241663,0.810483,0.00326236,0.0137637,1259,1765,-0.0298253,0.0806304
42,-741,-0.0283203,-0.0771484,0.000196002,0.000824609,0.00270348,0.00323199,-0.00221138,0.843268,0.00316109,0.0144483,1266,1765,-0.0283008,0.0771704
49,-741,-0.0100098,-0.067627,-0.000225527,0.000709479,0.00255159,0.00283604,-0.00235209,0.876003,0.00299971,0.00948907,1273,1765,-0.00995084,0.0676714
56,-741,-0.0098877,-0.0700684,-0.000682629,0.000318323,0.00248899,0.00235665,-0.00272096,0.884613,0.00293408,0.0089766,1280,1765,-0.00985637,0.0700669
63,-741,-0.00280762,-0.0794678,-0.00113469,-0.000469104,0.00257872,0.00179821,-0.003402,0.84957,0.00304957,0.0126899,1287,1765,-0.00275151,0.0794312
70,-741,-0.0187988,-0.0593262,-0.00144045,-0.00172246,0.00274854,0.0011707,-0.00433361,0.75977,0.00334824,0.0151629,1294,1765,-0.0188366,0.0593661
77,-741,-0.0439453,-0.00683594,-0.00126194,-0.00352813,0.0030607,0.000868668,-0.00565874,0.608117,0.00409289,0.0132329,1301,1765,-0.0438895,0.00686925
84,-741,-0.0487061,-0.0264893,-0.000816548,-0.00585903,0.00321146,0.000745119,-0.0074207,0.452611,0.00521329,0.0155362,1308,1765,-0.048754,0.0265351
91,-741,-0.0391846,-0.0419922,-0.000190291,-0.00752451,0.00322332,0.00102496,-0.00873976,0.36054,0.00619649,0.012189,1315,1765,-0.0391513,0.0419402
98,-741,-0.0133057,-0.0611572,0.000548301,-0.00895791,0.00336472,0.00161871,-0.0100283,0.308004,0.00728531,0.00985123,1322,1765,-0.0133361,0.0611668
105,-741,-0.0124512,-0.0723877,0.00148151,-0.0112986,0.00322252,0.0022481,-0.0120651,0.233542,0.00888808,0.0105517,1329,1765,-0.0124603,0.0724265
112,-741,-0.000854492,-0.0776367,0.00249892,-0.012567,0.00292348,0.00304632,-0.0131144,0.185099,0.00991562,0.0102978,1336,1765,-0.000902365,0.0775904
119,-741,-0.0144043,-0.0960693,0.00351571,-0.012948,0.0024128,0.00386202,-0.0132944,0.14256,0.0103923,0.0123422,1343,1765,-0.0144267,0.0960442
126,-741,-0.00463867,-0.138672,0.00428364,-0.0130199,0.00168757,0.00444668,-0.0131829,0.096318,0.0105868,0.0178229,1350,1765,-0.00466875,0.138628
133,-741,0.010498,-0.107422,0.00467379,-0.0126483,0.00086791,0.00471717,-0.0126917,0.0499374,0.0103966,0.0145666,1357,1765,0.0104847,0.107444
140,-741,-0.020874,-0.101807,0.00462125,-0.0119264,-3.67628e-05,0.00462134,-0.0119265,-0.00222162,0.00985933,0.0113636,1364,1765,-0.0208274,0.101866
147,-741,-0.0144043,-0.0843506,0.00428719,-0.0108527,-0.000794697,0.00432879,-0.0108943,-0.0522985,0.00905746,0.00998539,1371,1765,-0.0144403,0.0843688
154,-741,-0.00463867,-0.0616455,0.00361622,-0.00941053,-0.00130637,0.00374594,-0.00954025,-0.0989703,0.00791021,0.00783996,1378,1765,-0.00463219,0.0616326
161,-741,-0.00219727,-0.0751953,0.00275411,-0.00779546,-0.00174034,0.0030338,-0.00807514,-0.159344,0.00663024,0.0086108,1385,1765,-0.00221734,0.0752511
168,-741,-0.0357666,-0.0792236,0.00191103,-0.00627698,-0.00202285,0.00238351,-0.00674946,-0.229458,0.00547007,0.0130543,1392,1765,-0.0357224,0.0792157
175,-741,-0.0286865,-0.0748291,0.00101043,-0.00463212,-0.0022574,0.00180239,-0.00542408,-0.337412,0.00434335,0.0144382,1399,1765,-0.0286811,0.074876
182,-741,-0.0144043,-0.0859375,-0.00019551,-0.00315558,-0.00234316,0.0010959,-0.00444699,-0.503718,0.00338954,0.0111398,1406,1765,-0.0144095,0.085901
189,-741,-0.0302734,-0.0822754,-0.00125051,-0.00191431,-0.00253441,0.000973638,-0.00413846,-0.72029,0.00313434,0.0137489,1413,1765,-0.0303246,0.0822437
196,-741,-0.0428467,-0.0657959,-0.00203071,-0.00146623,-0.00250153,0.000768927,-0.00426587,-0.841573,0.00313185,0.0155909,1420,1765,-0.0427962,0.0657678
203,-741,-0.0345459,-0.0543213,-0.002224,-0.000982312,-0.00244524,0.000919669,-0.00412598,-0.909721,0.00310298,0.0142869,1427,1765,-0.0346033,0.0543225
210,-741,-0.0422363,-0.0704346,-0.00235939,0.000481445,-0.00251015,0.0019452,-0.00382314,-1.04287,0.00338867,0.0179479,1434,1765,-0.0422846,0.0704459
217,-741,-0.0179443,-0.0651855,-0.00257175,0.00100151,-0.00259791,0.00236785,-0.00393808,-1.08662,0.00367816,0.018227,1441,1765,-0.0178956,0.0652288
224,-741,-0.0316162,-0.06604,-0.00262658,0.000859169,-0.00262659,0.00226853,-0.00403594,-1.07832,0.00368725,0.0230016,1448,1765,-0.0315859,0.0660384
231,-741,0.0157471,-0.0863037,-0.00264861,0.00104454,-0.00249542,0.00230231,-0.00390638,-1.10393,0.00362425,0.0296854,1455,1765,0.0157466,0.0863412
238,-741,0.0743408,-0.117554,-0.00251285,0.00119802,-0.00229025,0.00229011,-0.00360493,-1.12585,0.0034316,0.0315496,1462,1765,0.0743872,0.11756
245,-741,0.0452881,-0.185669,-0.00209404,0.00117523,-0.00193282,0.00207196,-0.00299077,-1.1364,0.00293897,0.0355123,1469,1765,0.0452542,0.185631
252,-741,0.0296631,-0.210938,-0.00147673,0.000479823,-0.00182317,0.0015706,-0.0025675,-1.03164,0.00241213,0.040074,1476,1765,0.0296838,0.210913
259,-741,-0.170288,-0.26001,-0.000663177,-0.000715345,-0.00146378,0.000774752,-0.00215327,-0.776489,0.00175183,0.041843,1483,1765,-0.170255,0.260018
266,-741,-0.184692,-0.252686,0.000879375,-0.00243108,-0.000878723,0.00109816,-0.00264986,-0.244022,0.00222488,0.0426149,1490,1765,-0.184674,0.252671
273,-741,0.0965576,0.156006,0.00260528,-0.00376923,-0.000580856,0.00265778,-0.00382172,-0.0901326,0.00376101,0.0447272,1497,1765,0.0965197,-0.156004
280,-741,-0.755859,-0.669678,0,0,0,0,0,0,0,-1,1504,1765,-0.755827,0.66962
287,-741,-0.23877,-0.125,0.00813187,-0.00647616,-0.000777911,0.00817318,-0.00651746,-0.0530523,0.00849959,0.0460789,1511,1765,-0.238789,0.124976
294,-741,-0.480591,-0.60437,0.0112756,-0.00699811,-0.000802666,0.0113108,-0.00703329,-0.0438122,0.0106865,0.046188,1518,1765,-0.480614,0.604335
301,-741,-0.226685,-0.516724,0.0152834,-0.00780872,-0.00118298,0.0153439,-0.00786917,-0.0510505,0.0136317,0.0459954,1525,1765,-0.226634,0.51672
308,-741,-0.0144043,-0.409302,0.0189542,-0.00872466,-0.00257536,0.0191918,-0.00896225,-0.0919922,0.0166086,0.0420819,1532,1765,-0.0144105,0.40929
315,-741,0.208252,-0.360352,0,0,0,0,0,0,0,-1,1539,1765,0.208304,0.360308
322,-741,0.753906,-0.559692,0,0,0,0,0,0,0,-1,1546,1765,0.753925,0.559694
329,-741,1.39819,-0.837402,0,0,0,0,0,0,0,-1,1553,1765,1.39818,0.837382
336,-741,2.80603,-1.14185,0,0,0,0,0,0,0,-1,1560,1765,2.80602,1.14181
343,-741,3.28015,-0.46582,0,0,0,0,0,0,0,-1,1567,1765,3.28018,0.465845
350,-741,3.87561,0.492432,0,0,0,0,0,0,0,-1,1574,1765,3.87559,-0.492392
357,-741,4.79004,1.20508,0,0,0,0,0,0,0,-1,1581,1765,4.79008,-1.20509
364,-741,0,0,0,0,0,0,0,0,0,-1,1588,1765,0,0
371,-741,0,0,0,0,0,0,0,0,0,-1,1595,1765,0,0
378,-741,0,0,0,0,0,0,0,0,0,-1,1602,1765,0,0
385,-741,0,0,0,0,0,0,0,0,0,-1,1609,1765,0,0
392,-741,0,0,0,0,0,0,0,0,0,-1,1616,1765,0,0
399,-741,0,0,0,0,0,0,0,0,0,-1,1623,1765,0,0
406,-741,0,0,0,0,0,0,0,0,0,-1,1630,1765,0,0
413,-741,0,0,0,0,0,0,0,0,0,-1,1637,1765,0,0
420,-741,0,0,0,0,0,0,0,0,0,-1,1644,1765,0,0
427,-741,0,0,0,0,0,0,0,0,0,-1,1651,1765,0,0
434,-741,0,0,0,0,0,0,0,0,0,-1,1658,1765,0,0
441,-741,0,0,0,0,0,0,0,0,0,-1,1665,1765,0,0
448,-741,0,0,0,0,0,0,0,0,0,-1,1672,1765,0,0
455,-741,0,0,0,0,0,0,0,0,0,-1,1679,1765,0,0
462,-741,0,0,0,0,0,0,0,0,0,-1,1686,1765,0,0
469,-741,0,0,0,0,0,0,0,0,0,-1,1693,1765,0,0
476,-741,0,0,0,0,0,0,0,0,0,-1,1700,1765,0,0
483,-741,0,0,0,0,0,0,0,0,0,-1,1707,1765,0,0
490,-741,0,0,0,0,0,0,0,0,0,-1,1714,1765,0,0
497,-741,0,0,0,0,0,0,0,0,0,-1,1721,1765,0,0
504,-741,0,0,0,0,0,0,0,0,0,-1,1728,1765,0,0
511,-741,0,0,0,0,0,0,0,0,0,-1,1735,1765,0,0
518,-741,0,0,0,0,0,0,0,0,0,-1,1742,1765,0,0
525,-741,0,0,0,0,0,0,0,0,0,-1,1749,1765,0,0
532,-741,0,0,0,0,0,0,0,0,0,-1,1756,1765,0,0
539,-741,0,0,0,0,0,0,0,0,0,-1,1763,1765,0,0
546,-741,0,0,0,0,0,0,0,0,0,-1,1770,1765,0,0
553,-741,0,0,0,0,0,0,0,0,0,-1,1777,1765,0,0
560,-741,0,0,0,0,0,0,0,0,0,-1,1784,1765,0,0
567,-741,0,0,0,0,0,0,0,0,0,-1,1791,1765,0,0
574,-741,0,0,0,0,0,0,0,0,0,-1,1798,1765,0,0
581,-741,0,0,0,0,0,0,0,0,0,-1,1805,1765,0,0
588,-741,0,0,0,0,0,0,0,0,0,-1,1812,1765,0,0
595,-741,0,0,0,0,0,0,0,0,0,-1,1819,1765,0,0
602,-741,0,0,0,0,0,0,0,0,0,-1,1826,1765,0,0
609,-741,0,0,0,0,0,0,0,0,0,-1,1833,1765,0,0
616,-741,0,0,0,0,0,0,0,0,0,-1,1840,1765,0,0
623,-741,0,0,0,0,0,0,0,0,0,-1,1847,1765,0,0
630,-741,0,0,0,0,0,0,0,0,0,-1,1854,1765,0,0
637,-741,0,0,0,0,0,0,0,0,0,-1,1861,1765,0,0
644,-741,0,0,0,0,0,0,0,0,0,-1,1868,1765,0,0
651,-741,0,0,0,0,0,0,0,0,0,-1,1875,1765,0,0
658,-741,0,0,0,0,0,0,0,0,0,-1,1882,1765,0,0
665,-741,0,0,0,0,0,0,0,0,0,-1,1889,1765,0,0
672,-741,0,0,0,0,0,0,0,0,0,-1,1896,1765,0,0
679,-741,0,0,0,0,0,0,0,0,0,-1,1903,1765,0,0
686,-741,0,0,0,0,0,0,0,0,0,-1,1910,1765,0,0
693,-741,0,0,0,0,0,0,0,0,0,-1,1917,1765,0,0
700,-741,0,0,0,0,0,0,0,0,0,-1,1924,1765,0,0
707,-741,0,0,0,0,0,0,0,0,0,-1,1931,1765,0,0
714,-741,0,0,0,0,0,0,0,0,0,-1,1938,1765,0,0
721,-741,0,0,0,0,0,0,0,0,0,-1,1945,1765,0,0
728,-741,0,0,0,0,0,0,0,0,0,-1,1952,1765,0,0
735,-741,0,0,0,0,0,0,0,0,0,-1,1959,1765,0,0
742,-741,0,0,0,0,0,0,0,0,0,-1,1966,1765,0,0
749,-741,0,0,0,0,0,0,0,0,0,-1,1973,1765,0,0
756,-741,0,0,0,0,0,0,0,0,0,-1,1980,1765,0,0
763,-741,0,0,0,0,0,0,0,0,0,-1,1987,1765,0,0
770,-741,0,0,0,0,0,0,0,0,0,-1,1994,1765,0,0
777,-741,0,0,0,0,0,0,0,0,0,-1,2001,1765,0,0
784,-741,0,0,0,0,0,0,0,0,0,-1,2008,1765,0,0
791,-741,0,0,0,0,0,0,0,0,0,-1,2015,1765,0,0
798,-741,0,0,0,0,0,0,0,0,0,-1,2022,1765,0,0
805,-741,0,0,0,0,0,0,0,0,0,-1,2029,1765,0,0
812,-741,0,0,0,0,0,0,0,0,0,-1,2036,1765,0,0
-700,-748,0,0,0,0,0,0,0,0,0,-1,524,1772,0,0
-693,-748,0,0,0,0,0,0,0,0,0,-1,531,1772,0,0
-686,-748,0,0,0,0,0,0,0,0,0,-1,538,1772,0,0
-679,-748,0,0,0,0,0,0,0,0,0,-1,545,1772,0,0
-672,-748,0,0,0,0,0,0,0,0,0,-1,552,1772,0,0
-665,-748,0,0,0,0,0,0,0,0,0,-1,559,1772,0,0
-658,-748,0,0,0,0,0,0,0,0,0,-1,566,1772,0,0
-651,-748,0,0,0,0,0,0,0,0,0,-1,573,1772,0,0
-644,-748,0,0,0,0,0,0,0,0,0,-1,580,1772,0,0
-637,-748,0,0,0,0,0,0,0,0,0,-1,587,1772,0,0
-630,-748,0,0,0,0,0,0,0,0,0,-1,594,1772,0,0
-623,-748,0,0,0,0,0,0,0,0,0,-1,601,1772,0,0
-616,-748,0,0,0,0,0,0,0,0,0,-1,608,1772,0,0
-609,-748,0,0,0,0,0,0,0,0,0,-1,615,1772,0,0
-602,-748,0,0,0,0,0,0,0,0,0,-1,622,1772,0,0
-595,-748,0,0,0,0,0,0,0,0,0,-1,629,1772,0,0
-588,-748,0,0,0,0,0,0,0,0,0,-1,636,1772,0,0
-581,-748,0,0,0,0,0,0,0,0,0,-1,643,1772,0,0
-574,-748,0,0,0,0,0,0,0,0,0,-1,650,1772,0,0
-567,-748,0,0,0,0,0,0,0,0,0,-1,657,1772,0,0
-560,-748,0,0,0,0,0,0,0,0,0,-1,664,1772,0,0
-553,-748,0,0,0,0,0,0,0,0,0,-1,671,1772,0,0
-546,-748,0,0,0,0,0,0,0,0,0,-1,678,1772,0,0
-539,-748,0,0,0,0,0,0,0,0,0,-1,685,1772,0,0
-532,-748,0,0,0,0,0,0,0,0,0,-1,692,1772,0,0
-525,-748,0,0,0,0,0,0,0,0,0,-1,699,1772,0,0
-518,-748,0,0,0,0,0,0,0,0,0,-1,706,1772,0,0
-511,-748,0,0,0,0,0,0,0,0,0,-1,713,1772,0,0
-504,-748,0,0,0,0,0,0,0,0,0,-1,720,1772,0,0
-497,-748,0,0,0,0,0,0,0,0,0,-1,727,1772,0,0
-490,-748,0,0,0,0,0,0,0,0,0,-1,734,1772,0,0
-483,-748,0,0,0,0,0,0,0,0,0,-1,741,1772,0,0
-476,-748,0,0,0,0,0,0,0,0,0,-1,748,1772,0,0
-469,-748,0,0,0,0,0,0,0,0,0,-1,755,1772,0,0
-462,-748,0,0,0,0,0,0,0,0,0,-1,762,1772,0,0
-455,-748,0,0,0,0,0,0,0,0,0,-1,769,1772,0,0
-448,-748,0,0,0,0,0,0,0,0,0,-1,776,1772,0,0
-441,-748,0,0,0,0,0,0,0,0,0,-1,783,1772,0,0
-434,-748,0,0,0,0,0,0,0,0,0,-1,790,1772,0,0
-427,-748,0,0,0,0,0,0,0,0,0,-1,797,1772,0,0
-420,-748,0,0,0,0,0,0,0,0,0,-1,804,1772,0,0
-413,-748,0,0,0,0,0,0,0,0,0,-1,811,1772,0,0
-406,-748,0,0,0,0,0,0,0,0,0,-1,818,1772,0,0
-399,-748,0,0,0,0,0,0,0,0,0,-1,825,1772,0,0
-392,-748,0,0,0,0,0,0,0,0,0,-1,832,1772,0,0
-385,-748,0,0,0,0,0,0,0,0,0,-1,839,1772,0,0
-378,-748,0,0,0,0,0,0,0,0,0,-1,846,1772,0,0
-371,-748,0,0,0,0,0,0,0,0,0,-1,853,1772,0,0
-364,-748,0,0,0,0,0,0,0,0,0,-1,860,1772,0,0
-357,-748,0,0,0,0,0,0,0,0,0,-1,867,1772,0,0
-350,-748,0,0,0,0,0,0,0,0,0,-1,874,1772,0,0
-343,-748,0,0,0,0,0,0,0,0,0,-1,881,1772,0,0
-336,-748,0,0,0,0,0,0,0,0,0,-1,888,1772,0,0
-329,-748,0,0,0,0,0,0,0,0,0,-1,895,1772,0,0
-322,-748,0,0,0,0,0,0,0,0,0,-1,902,1772,0,0
-315,-748,0,0,0,0,0,0,0,0,0,-1,909,1772,0,0
-308,-748,0,0,0,0,0,0,0,0,0,-1,916,1772,0,0
-301,-748,0,0,0,0,0,0,0,0,0,-1,923,1772,0,0
-294,-748,0,0,0,0,0,0,0,0,0,-1,930,1772,0,0
-287,-748,0,0,0,0,0,0,0,0,0,-1,937,1772,0,0
-280,-748,0,0,0,0,0,0,0,0,0,-1,944,1772,0,0
-273,-748,0,0,0,0,0,0,0,0,0,-1,951,1772,0,0
-266,-748,0,0,0,0,0,0,0,0,0,-1,958,1772,0,0
-259,-748,0,0,0,0,0,0,0,0,0,-1,965,1772,0,0
-252,-748,0,0,0,0,0,0,0,0,0,-1,972,1772,0,0
-245,-748,0,0,0,0,0,0,0,0,0,-1,979,1772,0,0
-238,-748,0,0,0,0,0,0,0,0,0,-1,986,1772,0,0
-231,-748,0,0,0,0,0,0,0,0,0,-1,993,1772,0,0
-224,-748,0,0,0,0,0,0,0,0,0,-1,1000,1772,0,0
-217,-748,-2.14532,-0.0655518,0,0,0,0,0,0,0,-1,1007,1772,-2.14532,0.0655792
-210,-748,-2.67517,-0.380127,0,0,0,0,0,0,0,-1,1014,1772,-2.67518,0.380171
-203,-748,-3.00739,-0.770874,0,0,0,0,0,0,0,-1,1021,1772,-3.00738,0.770846
-196,-748,-2.04968,-2.24988,0,0,0,0,0,0,0,-1,1028,1772,-2.04964,2.24985
-189,-748,-1.85168,-1.93774,0.0622769,0.000871441,0.0564518,0.0958351,-0.0326867,0.536334,0.0771299,0.0483253,1035,1772,-1.85172,1.93774
-182,-748,-1.88647,-1.61926,0.0606152,0.00704977,0.0553495,0.0953213,-0.0276564,0.560062,0.0744976,0.0460232,1042,1772,-1.88644,1.61931
-175,-748,-1.94812,-1.50183,0.0572429,0.0120193,0.0516006,0.0909686,-0.0217064,0.578896,0.0690283,0.0403048,1049,1772,-1.94815,1.50181
-168,-748,-0.516479,-0.734741,0.0524206,0.0140328,0.0460733,0.0831382,-0.0166848,0.588033,0.0617431,0.0429141,1056,1772,-0.516444,0.734769
-161,-748,-0.378418,-0.37146,0.04774,0.0139641,0.0393241,0.0736491,-0.011945,0.582579,0.0535272,0.0410974,1063,1772,-0.378414,0.37147
-154,-748,-0.151001,-0.254639,0.0411081,0.0130177,0.0324411,0.0624139,-0.00828804,0.581108,0.0446292,0.0425335,1070,1772,-0.151006,0.254601
-147,-748,-0.387329,-0.394653,0.0342138,0.011392,0.0257972,0.0510111,-0.00540532,0.577169,0.0359449,0.0435943,1077,1772,-0.387278,0.394706
-140,-748,-0.387573,-0.402344,0.0274446,0.00853902,0.0200374,0.0401471,-0.00416343,0.564999,0.0282549,0.0436926,1084,1772,-0.387629,0.402376
-133,-748,0.762085,-0.287231,0.0220066,0.00607464,0.0150884,0.0311028,-0.00302153,0.542518,0.0218122,0.0419937,1091,1772,0.762051,0.287274
-126,-748,-0.0737305,-0.0339355,0.0171126,0.003262,0.0106298,0.022874,-0.00249938,0.496683,0.0161471,0.0414848,1098,1772,-0.0736885,0.0339478
-119,-748,0.202515,-0.440308,0.0127852,0.00112468,0.00666239,0.0158081,-0.00189828,0.425955,0.0112251,0.0438822,1105,1772,0.202548,0.440286
-112,-748,0.137817,0.263794,0.00749427,-0.00111689,0.00286534,0.00836056,-0.00198318,0.293595,0.00633903,0.0419339,1112,1772,0.137768,-0.263813
-105,-748,0.0344238,-0.218506,0.00479914,-0.00151221,0.00123989,0.00503398,-0.00174705,0.187189,0.00406545,0.0408241,1119,1772,0.0343749,0.218523
-98,-748,-0.00415039,-0.222168,0.0040219,-0.00169312,0.000288746,0.00403645,-0.00170767,0.0503532,0.00340601,0.039219,1126,1772,-0.00412594,0.22213
-91,-748,-0.0391846,0.0057373,0.00339453,-0.00180091,-0.000565803,0.00345543,-0.00186181,-0.107229,0.00311554,0.0406577,1133,1772,-0.0392256,-0.00571541
-84,-748,0.242798,-0.145508,0.0026485,-0.00146067,-0.00137437,0.00306581,-0.00187797,-0.294784,0.00288162,0.0434821,1140,1772,0.242858,0.145547
-77,-748,0.156006,-0.227173,0.0017813,-0.00106758,-0.00250102,0.00323508,-0.00252136,-0.526537,0.00333198,0.041705,1147,1772,0.156062,0.227191
-70,-748,0.0356445,-0.181274,0.0009821,-0.000420162,-0.00327747,0.00363259,-0.00307065,-0.680024,0.00387465,0.0392765,1154,1772,0.0356185,0.181325
-63,-748,0.00939941,-0.175659,-9.12974e-06,9.98757e-05,-0.00386908,0.00391484,-0.0038241,-0.792441,0.00446818,0.0398347,1161,1772,0.00933892,0.175656
-56,-748,-0.0933838,-0.0836182,-0.00101562,0.000443197,-0.00425096,0.00402687,-0.0045993,-0.870364,0.00498397,0.0403523,1168,1772,-0.0934348,0.0836612
-49,-748,-0.124878,-0.0965576,-0.00189183,0.000616107,-0.00418372,0.00372974,-0.00500546,-0.931001,0.00506117,0.0335274,1175,1772,-0.124927,0.0965575
-42,-748,0.0032959,-0.0894775,-0.0023182,0.000460842,-0.00388349,0.00319591,-0.00505326,-0.957202,0.00480274,0.0212365,1182,1772,0.00332328,0.0894894
-35,-748,-0.0186768,-0.060791,-0.0029338,0.00044744,-0.00368613,0.00281216,-0.00529852,-1.00041,0.00475548,0.0124013,1189,1772,-0.01862,0.0607765
-28,-748,-0.0440674,-0.0523682,-0.0038541,5.80029e-05,-0.00309512,0.00176336,-0.00555945,-1.0672,0.00441313,0.0105438,1196,1772,-0.0440907,0.0523744
-21,-748,-0.0354004,-0.0257568,-0.00445063,-0.000347371,-0.00225645,0.000650715,-0.00544872,-1.15434,0.00386767,0.0158817,1203,1772,-0.035409,0.0257256
-14,-748,-0.0385742,-0.0537109,-0.00429701,-0.000826612,-0.000987897,-0.0005651,-0.00455853,-1.31202,0.00286926,0.0154446,1210,1772,-0.0385226,0.0537644
-7,-748,-0.0300293,-0.0822754,-0.0037401,-0.00130722,0.000308453,-0.00126873,-0.0037786,1.44663,0.00222045,0.014799,1217,1772,-0.0300409,0.0822566
0,-748,-0.0107422,-0.0754395,-0.00317265,-0.0017381,0.00146017,-0.000828548,-0.00408221,1.0137,0.00249164,0.0142082,1224,1772,-0.0107385,0.0753796
7,-748,-0.00939941,-0.0789795,-0.00261819,-0.00138868,0.00221162,0.000292033,-0.00429891,0.920959,0.00296808,0.0134098,1231,1772,-0.00938552,0.0790252
14,-748,-0.0161133,-0.0759277,-0.00204856,-0.000918345,0.00295806,0.0015281,-0.004495,0.879781,0.00361533,0.0136381,1238,1772,-0.0161523,0.075958
21,-748,-0.00500488,-0.0869141,-0.0014038,-0.000524914,0.00363117,0.00269331,-0.00462203,0.845615,0.00427216,0.00986843,1245,1772,-0.00496887,0.0868702
28,-748,-0.0372314,-0.0922852,-0.000671531,0.000151796,0.00395082,0.00371235,-0.00423208,0.837309,0.00458999,0.0103504,1252,1772,-0.0372301,0.092306
35,-748,-0.0133057,-0.0825195,0.0001558,0.000623308,0.00395326,0.00434972,-0.00357062,0.814928,0.00458018,0.0118932,1259,1772,-0.0132503,0.0824786
42,-748,-0.010376,-0.0637207,0.000258847,0.00111606,0.0039545,0.00466512,-0.00329021,0.83938,0.00461582,0.0130993,1266,1772,-0.0103964,0.0637462
49,-748,-0.0124512,-0.0737305,-0.000355945,0.000959811,0.00382923,0.00418726,-0.0035834,0.87047,0.00449091,0.00954295,1273,1772,-0.012489,0.0737511
56,-748,-0.0135498,-0.0765381,-0.001008,0.000387786,0.00382094,0.00357404,-0.00419426,0.875727,0.00448979,0.0090403,1280,1772,-0.0135205,0.0765749
63,-748,-0.0146484,-0.0872803,-0.00162292,-0.000741321,0.00401685,0.00285884,-0.00522308,0.840048,0.00473219,0.011189,1287,1772,-0.0145941,0.0872967
70,-748,-0.0206299,-0.0854492,-0.00200807,-0.00253231,0.00428503,0.00202284,-0.00656323,0.754851,0.00518306,0.0134684,1294,1772,-0.0206694,0.0855088
77,-748,-0.0358887,-0.0725098,-0.00147792,-0.00502147,0.00472198,0.00179375,-0.00829314,0.605917,0.00621359,0.0120064,1301,1772,-0.0358724,0.0725372
84,-748,-0.0577393,-0.0360107,-0.000535925,-0.00786713,0.00481778,0.0018522,-0.0102553,0.460194,0.00753055,0.013762,1308,1772,-0.0577305,0.0359819
91,-748,-0.0517578,-0.0532227,0.000715264,-0.0100072,0.00464411,0.00244702,-0.011739,0.356923,0.00875639,0.0113132,1315,1772,-0.051785,0.0531908
98,-748,-0.0343018,-0.0631104,0.00202543,-0.0118468,0.004699,0.00346728,-0.0132887,0.297722,0.010213,0.0102075,1322,1772,-0.0343082,0.0630904
105,-748,-0.02771,-0.0744629,0.00362412,-0.0147673,0.00438252,0.00461505,-0.0157582,0.222369,0.012335,0.0122054,1329,1772,-0.0277287,0.0744586
112,-748,0.000976563,-0.0725098,0.00530605,-0.0161851,0.00386898,0.00598136,-0.0168604,0.172802,0.0136772,0.0151987,1336,1772,0.000921483,0.0724924
119,-748,-0.00927734,-0.0767822,0.00692381,-0.0164619,0.00308536,0.00732403,-0.0168621,0.128994,0.0143212,0.0123097,1343,1772,-0.00926934,0.0767555
126,-748,0.00244141,-0.0870361,0.00809987,-0.0163791,0.00203814,0.0082684,-0.0165477,0.0825038,0.0145909,0.0135592,1350,1772,0.00244854,0.0869991
133,-748,-0.0179443,-0.09375,0.00864934,-0.0157058,0.000879856,0.00868109,-0.0157375,0.0360634,0.014293,0.00852222,1357,1772,-0.0179277,0.0937688
140,-748,-0.0253906,-0.0770264,0.00848904,-0.0145745,-0.000351272,0.00849439,-0.0145798,-0.0152259,0.0134755,0.011742,1364,1772,-0.0253925,0.0769985
147,-748,-0.000366211,-0.0787354,0.00788958,-0.0131453,-0.00136103,0.00797728,-0.013233,-0.064346,0.0123704,0.0132138,1371,1772,-0.000412691,0.0786849
154,-748,-0.0107422,-0.0812988,0.0067728,-0.0112554,-0.00201845,0.00699602,-0.0114786,-0.110144,0.0107705,0.0106835,1378,1772,-0.010745,0.0813251
161,-748,-0.0158691,-0.0848389,0.00532419,-0.00916479,-0.00255806,0.00576256,-0.00960316,-0.169719,0.0089633,0.0111801,1385,1772,-0.01589,0.0848636
168,-748,0.00622559,-0.0869141,0.00387867,-0.00724447,-0.00287785,0.00457913,-0.00794494,-0.238756,0.0073173,0.0143784,1392,1772,0.00623708,0.0868865
175,-748,0.00134277,-0.0474854,0.00235311,-0.00518911,-0.00313853,0.00348829,-0.00632428,-0.347051,0.00574362,0.0159944,1399,1772,0.00139782,0.0475299
182,-748,-0.0383301,-0.0479736,0.000305958,-0.0033654,-0.00326147,0.00221286,-0.0052723,-0.529075,0.00444025,0.022109,1406,1772,-0.0383693,0.0479531
189,-748,-0.0805664,-0.0671387,-0.00148664,-0.0020023,-0.0034543,0.00171944,-0.00520837,-0.748147,0.00416542,0.0267074,1413,1772,-0.0805087,0.067084
196,-748,-0.09375,-0.0668945,-0.00285238,-0.00147036,-0.00335098,0.00126012,-0.00558286,-0.887079,0.00420536,0.0305492,1420,1772,-0.093776,0.0668987
203,-748,-0.100952,-0.0217285,-0.00316196,-0.000951987,-0.00327658,0.00140091,-0.00551486,-0.948029,0.00422175,0.0319432,1427,1772,-0.100963,0.0217194
210,-748,-0.0355225,0.00634766,-0.00336134,0.000811089,-0.00339352,0.00270837,-0.00525863,-1.061,0.00467764,0.0350766,1434,1772,-0.0355033,-0.00633336
217,-748,0.0323486,0.013916,-0.00371167,0.00122132,-0.00360896,0.00312612,-0.00561646,-1.08516,0.00511533,0.0360914,1441,1772,0.0323645,-0.0138975
224,-748,-0.0241699,-0.0454102,-0.00382863,0.000917625,-0.00370734,0.00294633,-0.00585733,-1.0701,0.00517459,0.0391029,1448,1772,-0.0241105,0.0453936
231,-748,0.0960693,-0.0892334,-0.00383322,0.00114447,-0.00357312,0.00301011,-0.00569886,-1.0896,0.00510738,0.0397707,1455,1772,0.0961034,0.0892144
238,-748,0.306885,-0.0593262,-0.00363473,0.00124468,-0.00334103,0.00294196,-0.00533201,-1.10076,0.00484296,0.0403416,1462,1772,0.306834,0.0592954
245,-748,-0.145142,-0.207764,-0.00308957,0.00106492,-0.0029673,0.00260981,-0.00463446,-1.09078,0.00423658,0.0429708,1469,1772,-0.145129,0.207713
252,-748,-0.109497,-0.258057,-0.00229458,0.000187492,-0.00291146,0.00211138,-0.00421847,-0.986867,0.00372142,0.0442518,1476,1772,-0.109495,0.257997
259,-748,-0.842651,-0.291626,0,0,0,0,0,0,0,-1,1483,1772,-0.842698,0.291574
266,-748,-0.622314,-0.47876,0,0,0,0,0,0,0,-1,1490,1772,-0.622321,0.478796
273,-748,-0.401978,-0.666016,0,0,0,0,0,0,0,-1,1497,1772,-0.401945,0.666017
280,-748,-0.560303,-0.546875,0.00509118,-0.0075255,-0.000572775,0.00511713,-0.00755145,-0.0452741,0.00735908,0.045601,1504,1772,-0.560258,0.546879
287,-748,-0.530273,-0.407715,0.00857518,-0.00939413,-0.000796245,0.0086104,-0.00942934,-0.0441959,0.0104188,0.0437538,1511,1772,-0.530261,0.407719
294,-748,-0.355469,-0.336182,0.0120863,-0.0105131,-0.000540204,0.0120992,-0.010526,-0.0238853,0.0130732,0.0465232,1518,1772,-0.355472,0.336164
301,-748,-0.293335,-0.0855713,0.0164453,-0.0117371,-0.000695587,0.0164625,-0.0117542,-0.0246616,0.0163663,0.0460606,1525,1772,-0.293298,0.0856216
308,-748,-0.133667,-0.31665,0.0204603,-0.0129729,-0.00188132,0.0205658,-0.0130784,-0.0560353,0.0195842,0.045604,1532,1772,-0.133651,0.316656
315,-748,-0.163452,-0.270264,0.0236684,-0.0125324,-0.000573407,0.0236775,-0.0125415,-0.0158343,0.0212379,0.0492243,1539,1772,-0.16351,0.27024
322,-748,1.52551,-0.570801,0,0,0,0,0,0,0,-1,1546,1772,1.52547,0.570823
329,-748,2.00562,-0.944092,0,0,0,0,0,0,0,-1,1553,1772,2.00561,0.944143
336,-748,3.54199,-1.46765,0,0,0,0,0,0,0,-1,1560,1772,3.54204,1.4676
343,-748,0,0,0,0,0,0,0,0,0,-1,1567,1772,0,0
350,-748,0,0,0,0,0,0,0,0,0,-1,1574,1772,0,0
357,-748,0,0,0,0,0,0,0,0,0,-1,1581,1772,0,0
364,-748,0,0,0,0,0,0,0,0,0,-1,1588,1772,0,0
371,-748,0,0,0,0,0,0,0,0,0,-1,1595,1772,0,0
378,-748,0,0,0,0,0,0,0,0,0,-1,1602,1772,0,0
385,-748,0,0,0,0,0,0,0,0,0,-1,1609,1772,0,0
392,-748,0,0,0,0,0,0,0,0,0,-1,1616,1772,0,0
399,-748,0,0,0,0,0,0,0,0,0,-1,1623,1772,0,0
406,-748,0,0,0,0,0,0,0,0,0,-1,1630,1772,0,0
413,-748,0,0,0,0,0,0,0,0,0,-1,1637,1772,0,0
420,-748,0,0,0,0,0,0,0,0,0,-1,1644,1772,0,0
427,-748,0,0,0,0,0,0,0,0,0,-1,1651,1772,0,0
434,-748,0,0,0,0,0,0,0,0,0,-1,1658,1772,0,0
441,-748,0,0,0,0,0,0,0,0,0,-1,1665,1772,0,0
448,-748,0,0,0,0,0,0,0,0,0,-1,1672,1772,0,0
455,-748,0,0,0,0,0,0,0,0,0,-1,1679,1772,0,0
462,-748,0,0,0,0,0,0,0,0,0,-1,1686,1772,0,0
469,-748,0,0,0,0,0,0,0,0,0,-1,1693,1772,0,0
476,-748,0,0,0,0,0,0,0,0,0,-1,1700,1772,0,0
483,-748,0,0,0,0,0,0,0,0,0,-1,1707,1772,0,0
490,-748,0,0,0,0,0,0,0,0,0,-1,1714,1772,0,0
497,-748,0,0,0,0,0,0,0,0,0,-1,1721,1772,0,0
504,-748,0,0,0,0,0,0,0,0,0,-1,1728,1772,0,0
511,-748,0,0,0,0,0,0,0,0,0,-1,1735,1772,0,0
518,-748,0,0,0,0,0,0,0,0,0,-1,1742,1772,0,0
525,-748,0,0,0,0,0,0,0,0,0,-1,1749,1772,0,0
532,-748,0,0,0,0,0,0,0,0,0,-1,1756,1772,0,0
539,-748,0,0,0,0,0,0,0,0,0,-1,1763,1772,0,0
546,-748,0,0,0,0,0,0,0,0,0,-1,1770,1772,0,0
553,-748,0,0,0,0,0,0,0,0,0,-1,1777,1772,0,0
560,-748,0,0,0,0,0,0,0,0,0,-1,1784,1772,0,0
567,-748,0,0,0,0,0,0,0,0,0,-1,1791,1772,0,0
574,-748,0,0,0,0,0,0,0,0,0,-1,1798,1772,0,0
581,-748,0,0,0,0,0,0,0,0,0,-1,1805,1772,0,0
588,-748,0,0,0,0,0,0,0,0,0,-1,1812,1772,0,0
595,-748,0,0,0,0,0,0,0,0,0,-1,1819,1772,0,0
602,-748,0,0,0,0,0,0,0,0,0,-1,1826,1772,0,0
609,-748,0,0,0,0,0,0,0,0,0,-1,1833,1772,0,0
616,-748,0,0,0,0,0,0,0,0,0,-1,1840,1772,0,0
623,-748,0,0,0,0,0,0,0,0,0,-1,1847,1772,0,0
630,-748,0,0,0,0,0,0,0,0,0,-1,1854,1772,0,0
637,-748,0,0,0,0,0,0,0,0,0,-1,1861,1772,0,0
644,-748,0,0,0,0,0,0,0,0,0,-1,1868,1772,0,0
651,-748,0,0,0,0,0,0,0,0,0,-1,1875,1772,0,0
658,-748,0,0,0,0,0,0,0,0,0,-1,1882,1772,0,0
665,-748,0,0,0,0,0,0,0,0,0,-1,1889,1772,0,0
672,-748,0,0,0,0,0,0,0,0,0,-1,1896,1772,0,0
679,-748,0,0,0,0,0,0,0,0,0,-1,1903,1772,0,0
686,-748,0,0,0,0,0,0,0,0,0,-1,1910,1772,0,0
693,-748,0,0,0,0,0,0,0,0,0,-1,1917,1772,0,0
700,-748,0,0,0,0,0,0,0,0,0,-1,1924,1772,0,0
707,-748,0,0,0,0,0,0,0,0,0,-1,1931,1772,0,0
714,-748,0,0,0,0,0,0,0,0,0,-1,1938,1772,0,0
721,-748,0,0,0,0,0,0,0,0,0,-1,1945,1772,0,0
728,-748,0,0,0,0,0,0,0,0,0,-1,1952,1772,0,0
735,-748,0,0,0,0,0,0,0,0,0,-1,1959,1772,0,0
742,-748,0,0,0,0,0,0,0,0,0,-1,1966,1772,0,0
749,-748,0,0,0,0,0,0,0,0,0,-1,1973,1772,0,0
756,-748,0,0,0,0,0,0,0,0,0,-1,1980,1772,0,0
763,-748,0,0,0,0,0,0,0,0,0,-1,1987,1772,0,0
770,-748,0,0,0,0,0,0,0,0,0,-1,1994,1772,0,0
777,-748,0,0,0,0,0,0,0,0,0,-1,2001,1772,0,0
784,-748,0,0,0,0,0,0,0,0,0,-1,2008,1772,0,0
791,-748,0,0,0,0,0,0,0,0,0,-1,2015,1772,0,0
798,-748,0,0,0,0,0,0,0,0,0,-1,2022,1772,0,0
805,-748,0,0,0,0,0,0,0,0,0,-1,2029,1772,0,0
812,-748,0,0,0,0,0,0,0,0,0,-1,2036,1772,0,0
-700,-755,0,0,0,0,0,0,0,0,0,-1,524,1779,0,0
-693,-755,0,0,0,0,0,0,0,0,0,-1,531,1779,0,0
-686,-755,0,0,0,0,0,0,0,0,0,-1,538,1779,0,0
-679,-755,0,0,0,0,0,0,0,0,0,-1,545,1779,0,0
-672,-755,0,0,0,0,0,0,0,0,0,-1,552,1779,0,0
-665,-755,0,0,0,0,0,0,0,0,0,-1,559,1779,0,0
-658,-755,0,0,0,0,0,0,0,0,0,-1,566,1779,0,0
-651,-755,0,0,0,0,0,0,0,0,0,-1,573,1779,0,0
-644,-755,0,0,0,0,0,0,0,0,0,-1,580,1779,0,0
-637,-755,0,0,0,0,0,0,0,0,0,-1,587,1779,0,0
-630,-755,0,0,0,0,0,0,0,0,0,-1,594,1779,0,0
-623,-755,0,0,0,0,0,0,0,0,0,-1,601,1779,0,0
-616,-755,0,0,0,0,0,0,0,0,0,-1,608,1779,0,0
-609,-755,0,0,0,0,0,0,0,0,0,-1,615,1779,0,0
-602,-755,0,0,0,0,0,0,0,0,0,-1,622,1779,0,0
-595,-755,0,0,0,0,0,0,0,0,0,-1,629,1779,0,0
-588,-755,0,0,0,0,0,0,0,0,0,-1,636,1779,0,0
-581,-755,0,0,0,0,0,0,0,0,0,-1,643,1779,0,0
-574,-755,0,0,0,0,0,0,0,0,0,-1,650,1779,0,0
-567,-755,0,0,0,0,0,0,0,0,0,-1,657,1779,0,0
-560,-755,0,0,0,0,0,0,0,0,0,-1,664,1779,0,0
-553,-755,0,0,0,0,0,0,0,0,0,-1,671,1779,0,0
-546,-755,0,0,0,0,0,0,0,0,0,-1,678,1779,0,0
-539,-755,0,0,0,0,0,0,0,0,0,-1,685,1779,0,0
-532,-755,0,0,0,0,0,0,0,0,0,-1,692,1779,0,0
-525,-755,0,0,0,0,0,0,0,0,0,-1,699,1779,0,0
-518,-755,0,0,0,0,0,0,0,0,0,-1,706,1779,0,0
-511,-755,0,0,0,0,0,0,0,0,0,-1,713,1779,0,0
-504,-755,0,0,0,0,0,0,0,0,0,-1,720,1779,0,0
-497,-755,0,0,0,0,0,0,0,0,0,-1,727,1779,0,0
-490,-755,0,0,0,0,0,0,0,0,0,-1,734,1779,0,0
-483,-755,0,0,0,0,0,0,0,0,0,-1,741,1779,0,0
-476,-755,0,0,0,0,0,0,0,0,0,-1,748,1779,0,0
-469,-755,0,0,0,0,0,0,0,0,0,-1,755,1779,0,0
-462,-755,0,0,0,0,0,0,0,0,0,-1,762,1779,0,0
-455,-755,0,0,0,0,0,0,0,0,0,-1,769,1779,0,0
-448,-755,0,0,0,0,0,0,0,0,0,-1,776,1779,0,0
-441,-755,0,0,0,0,0,0,0,0,0,-1,783,1779,0,0
-434,-755,0,0,0,0,0,0,0,0,0,-1,790,1779,0,0
-427,-755,0,0,0,0,0,0,0,0,0,-1,797,1779,0,0
-420,-755,0,0,0,0,0,0,0,0,0,-1,804,1779,0,0
-413,-755,0,0,0,0,0,0,0,0,0,-1,811,1779,0,0
-406,-755,0,0,0,0,0,0,0,0,0,-1,818,1779,0,0
-399,-755,0,0,0,0,0,0,0,0,0,-1,825,1779,0,0
-392,-755,0,0,0,0,0,0,0,0,0,-1,832,1779,0,0
-385,-755,0,0,0,0,0,0,0,0,0,-1,839,1779,0,0
-378,-755,0,0,0,0,0,0,0,0,0,-1,846,1779,0,0
-371,-755,0,0,0,0,0,0,0,0,0,-1,853,1779,0,0
-364,-755,0,0,0,0,0,0,0,0,0,-1,860,1779,0,0
-357,-755,0,0,0,0,0,0,0,0,0,-1,867,1779,0,0
-350,-755,0,0,0,0,0,0,0,0,0,-1,874,1779,0,0
-343,-755,0,0,0,0,0,0,0,0,0,-1,881,1779,0,0
-336,-755,0,0,0,0,0,0,0,0,0,-1,888,1779,0,0
-329,-755,0,0,0,0,0,0,0,0,0,-1,895,1779,0,0
-322,-755,0,0,0,0,0,0,0,0,0,-1,902,1779,0,0
-315,-755,0,0,0,0,0,0,0,0,0,-1,909,1779,0,0
-308,-755,0,0,0,0,0,0,0,0,0,-1,916,1779,0,0
-301,-755,0,0,0,0,0,0,0,0,0,-1,923,1779,0,0
-294,-755,0,0,0,0,0,0,0,0,0,-1,930,1779,0,0
-287,-755,0,0,0,0,0,0,0,0,0,-1,937,1779,0,0
-280,-755,0,0,0,0,0,0,0,0,0,-1,944,1779,0,0
-273,-755,0,0,0,0,0,0,0,0,0,-1,951,1779,0,0
-266,-755,0,0,0,0,0,0,0,0,0,-1,958,1779,0,0
-259,-755,0,0,0,0,0,0,0,0,0,-1,965,1779,0,0
-252,-755,0,0,0,0,0,0,0,0,0,-1,972,1779,0,0
-245,-755,0,0,0,0,0,0,0,0,0,-1,979,1779,0,0
-238,-755,0,0,0,0,0,0,0,0,0,-1,986,1779,0,0
-231,-755,0,0,0,0,0,0,0,0,0,-1,993,1779,0,0
-224,-755,0,0,0,0,0,0,0,0,0,-1,1000,1779,0,0
-217,-755,0,0,0,0,0,0,0,0,0,-1,1007,1779,0,0
-210,-755,0,0,0,0,0,0,0,0,0,-1,1014,1779,0,0
-203,-755,-3.98993,-0.490356,0,0,0,0,0,0,0,-1,1021,1779,-3.98992,0.490349
-196,-755,-4.10931,-0.680908,0,0,0,0,0,0,0,-1,1028,1779,-4.1093,0.680961
-189,-755,-2.20264,-1.77429,0.0759054,0.00174552,0.0631745,0.112078,-0.0344271,0.520016,0.0884564,0.0468361,1035,1779,-2.20264,1.77431
-182,-755,-2.43188,-1.68079,0.0747101,0.00804627,0.062667,0.112358,-0.0296019,0.540982,0.0864785,0.0452175,1042,1779,-2.43183,1.68075
-175,-755,-2.55969,-1.58594,0.0710115,0.0131437,0.0588035,0.107614,-0.0234588,0.556767,0.0807068,0.0423958,1049,1779,-2.55974,1.58591
-168,-755,-2.60547,-1.62659,0.0651137,0.0150604,0.0524897,0.0982377,-0.0180636,0.562944,0.0722694,0.044133,1056,1779,-2.60548,1.62655
-161,-755,-0.260742,-0.496948,0.0590638,0.0148801,0.0447469,0.0868753,-0.0129314,0.556098,0.0626736,0.0432118,1063,1779,-0.260755,0.496939
-154,-755,0.0640869,0.139404,0.0506946,0.0134201,0.0370245,0.073508,-0.0093933,0.552226,0.0524177,0.0452237,1070,1779,0.0640804,-0.139445
-147,-755,0.284058,-0.630737,0,0,0,0,0,0,0,-1,1077,1779,0.284009,0.630724
-140,-755,0.399414,-0.568848,0.0335182,0.00811058,0.0230829,0.0471622,-0.0055334,0.53384,0.0334389,0.0492997,1084,1779,0.399455,0.568898
-133,-755,0.31897,-0.404419,0.0267902,0.00525316,0.0177157,0.0367534,-0.00471008,0.512311,0.0262137,0.0479904,1091,1779,0.318933,0.404364
-126,-755,0.388428,-0.2677,0.0209865,0.0019531,0.0129307,0.027525,-0.0045854,0.468164,0.020054,0.0446413,1098,1779,0.388463,0.267713
-119,-755,0.211304,-0.270752,0.0158641,-0.000565203,0.00860443,0.0195455,-0.00424664,0.404285,0.0146525,0.0437718,1105,1779,0.211299,0.27077
-112,-755,-0.0541992,0.432007,0.00938558,-0.00325995,0.00430771,0.0107135,-0.00458792,0.299033,0.0090672,0.041421,1112,1779,-0.0542053,-0.432055
-105,-755,0.366089,0.269165,0.00618858,-0.00389719,0.00243976,0.00674776,-0.00445637,0.225303,0.00651364,0.0414273,1119,1779,0.366103,-0.269154
-98,-755,-0.00280762,-0.249023,0.00532452,-0.00428449,0.00131699,0.00550175,-0.00446172,0.133772,0.00576285,0.0428017,1126,1779,-0.00282887,0.249014
-91,-755,-0.345337,-0.09021,0.00462364,-0.00444416,0.000234508,0.0046297,-0.00445022,0.0258386,0.00524263,0.0458241,1133,1779,-0.345326,0.0902435
-84,-755,0.271606,-0.134888,0.00386851,-0.00394838,-0.000903846,0.00397165,-0.00405153,-0.11363,0.00463226,0.0462483,1140,1779,0.271654,0.134937
-77,-755,0.331787,-0.421387,0.00280744,-0.00336091,-0.00254717,0.00372329,-0.00427677,-0.345163,0.00462252,0.0438655,1147,1779,0.331822,0.421446
-70,-755,0.397705,-0.309692,0.00163909,-0.00247277,-0.00378954,0.00389448,-0.00472816,-0.536854,0.00498603,0.041906,1154,1779,0.397695,0.30974
-63,-755,0.200684,-0.362671,0.000134008,-0.00168363,-0.00471896,0.00403087,-0.00558049,-0.690269,0.00557311,0.0443277,1161,1779,0.200708,0.362625
-56,-755,0.0678711,-0.438843,-0.00136218,-0.00113331,-0.00538044,0.00413392,-0.0066294,-0.796031,0.00626963,0.0452041,1168,1779,0.0678729,0.438783
-49,-755,-0.186035,-0.170654,-0.00267231,-0.000707606,-0.00552753,0.00392418,-0.0073041,-0.87334,0.00657983,0.0417279,1175,1779,-0.186094,0.17062
-42,-755,0.0113525,-0.105957,-0.00344245,-0.000689104,-0.00526708,0.00337825,-0.0075098,-0.913225,0.00643531,0.0383401,1182,1779,0.0113027,0.105977
-35,-755,-0.015625,-0.0863037,-0.00437783,-0.000481494,-0.00514055,0.00306767,-0.00792699,-0.966526,0.00655117,0.0324354,1189,1779,-0.0156698,0.086304
-28,-755,-0.0843506,-0.0718994,-0.00567856,-0.000782551,-0.00450491,0.00189652,-0.00835764,-1.03428,0.00629982,0.028386,1196,1779,-0.0843924,0.0718593
-21,-755,-0.0217285,-0.0446777,-0.00665273,-0.00112123,-0.00350482,0.000577681,-0.00835163,-1.11944,0.00576996,0.0336225,1203,1779,-0.0216938,0.044676
-14,-755,-0.0482178,-0.0698242,-0.00665194,-0.00162301,-0.00185052,-0.00101547,-0.00725949,-1.25357,0.00453919,0.0322751,1210,1779,-0.0482174,0.0697638
-7,-755,-0.0892334,-0.0965576,-0.006007,-0.00210391,-0.000123325,-0.00210001,-0.00601089,-1.53924,0.00352249,0.0229208,1217,1779,-0.0891751,0.0965449
0,-755,-0.0473633,-0.0726318,-0.00524857,-0.00251757,0.0014752,-0.0018729,-0.00589325,1.1588,0.00347695,0.0135964,1224,1779,-0.0473597,0.0725904
7,-755,-0.013916,-0.0684814,-0.00438404,-0.00201123,0.0026207,-0.000320894,-0.00607437,0.99795,0.00394697,0.011409,1231,1779,-0.0138995,0.0685153
14,-755,-0.015625,-0.0723877,-0.00347912,-0.00135254,0.00373465,0.00146723,-0.00629889,0.924083,0.00476425,0.00962523,1238,1779,-0.0155773,0.0724097
21,-755,-0.0343018,-0.0635986,-0.00249214,-0.00080421,0.00475609,0.00318221,-0.00647856,0.873209,0.00568485,0.0135585,1245,1779,-0.034296,0.0636443
28,-755,-0.0512695,-0.0782471,-0.00133903,0.00015427,0.00536072,0.00482009,-0.00600485,0.854594,0.00626225,0.0170775,1252,1779,-0.0512208,0.0782246
35,-755,-0.0164795,-0.0461426,3.04109e-05,0.000877993,0.00548898,0.00595952,-0.00505112,0.823925,0.0063642,0.0182995,1259,1779,-0.0165067,0.0461297
42,-755,0.0135498,-0.0529785,0.000329201,0.0016816,0.00574201,0.00678709,-0.00477628,0.84401,0.00670968,0.0136707,1266,1779,0.0135292,0.0529203
49,-755,-0.00402832,-0.0874023,-0.000542287,0.00144643,0.0057317,0.00626938,-0.00536524,0.871285,0.00672401,0.00902105,1273,1779,-0.00399654,0.0873562
56,-755,-0.0195313,-0.079834,-0.00143111,0.000603184,0.00584966,0.00552347,-0.0063514,0.871478,0.00686151,0.0082169,1280,1779,-0.0195742,0.0797896
63,-755,-0.0195313,-0.0802002,-0.0022247,-0.0009933,0.00622934,0.0046507,-0.0078687,0.834658,0.00730724,0.00844712,1287,1779,-0.0194938,0.080192
70,-755,-0.0245361,-0.0883789,-0.00267664,-0.00348555,0.00663642,0.00356763,-0.00972983,0.754963,0.00794733,0.010818,1294,1779,-0.0245172,0.0883839
77,-755,-0.0252686,-0.0938721,-0.00172687,-0.00680807,0.00726283,0.0034269,-0.0119618,0.617146,0.00932908,0.0100391,1301,1779,-0.0252139,0.0938973
84,-755,-0.00952148,-0.0913086,-0.000209633,-0.0103738,0.00730208,0.0036048,-0.0141882,0.481388,0.0108617,0.0109732,1308,1779,-0.0095344,0.0913556
91,-755,-0.0333252,-0.0949707,0.00176104,-0.0131714,0.00687707,0.00444561,-0.0158559,0.372174,0.0123228,0.0112841,1315,1779,-0.033323,0.0949454
98,-755,-0.0424805,-0.0938721,0.00372573,-0.0156158,0.00682431,0.00589113,-0.0177812,0.307259,0.0142303,0.0117349,1322,1779,-0.0425089,0.0938792
105,-755,-0.00341797,-0.0769043,0.00611873,-0.0193032,0.00629605,0.00759257,-0.020777,0.22995,0.0169586,0.0157347,1329,1779,-0.00344465,0.0768465
112,-755,0.0291748,-0.0837402,0.00860533,-0.0209303,0.00550836,0.00959919,-0.0219241,0.178507,0.0186579,0.0208657,1336,1779,0.0292234,0.0837198
119,-755,-0.0241699,-0.0596924,0.0109341,-0.0210926,0.00436462,0.0115182,-0.0216767,0.133049,0.019462,0.0192683,1343,1779,-0.0241755,0.0597392
126,-755,-0.0552979,-0.0440674,0.012583,-0.0208233,0.00288364,0.0128301,-0.0210704,0.0854776,0.0197642,0.0208808,1350,1779,-0.0552816,0.0440258
133,-755,-0.0688477,-0.0760498,0.0132914,-0.0197346,0.00126096,0.0133395,-0.0197827,0.0381069,0.0192433,0.0215062,1357,1779,-0.0688836,0.0761074
140,-755,-0.0513916,-0.0533447,0.0129603,-0.0180159,-0.000414964,0.0129659,-0.0180215,-0.013393,0.0179697,0.027365,1364,1779,-0.051449,0.053368
147,-755,0.036377,-0.0427246,0.0120429,-0.0160933,-0.00178671,0.0121559,-0.0162063,-0.0631639,0.0164305,0.0289299,1371,1779,0.0363677,0.0427147
154,-755,0.0284424,-0.0894775,0.0104083,-0.0135691,-0.00266167,0.0107002,-0.013861,-0.109236,0.0142195,0.0296121,1378,1779,0.0284031,0.0894575
161,-755,0.0150146,-0.108276,0.00825614,-0.010815,-0.00336276,0.00883171,-0.0113906,-0.169519,0.0117064,0.0304862,1385,1779,0.0149606,0.108326
168,-755,0.0262451,-0.137939,0.00609411,-0.00833344,-0.00375993,0.00701518,-0.0092545,-0.240238,0.00942292,0.028136,1392,1779,0.0262112,0.138
175,-755,-0.0045166,-0.0510254,0.00383188,-0.00574703,-0.00406958,0.00532736,-0.0072425,-0.352159,0.00728523,0.0372437,1399,1779,-0.00451128,0.0510102
182,-755,-0.0690918,-0.00463867,0.000844398,-0.00348999,-0.00428341,0.00347766,-0.00612325,-0.5512,0.0056128,0.0453031,1406,1779,-0.0691082,0.00458725
189,-755,0.0476074,0.27832,-0.00180897,-0.0018922,-0.00450415,0.00265376,-0.00635493,-0.780779,0.00534549,0.0403373,1413,1779,0.0476592,-0.278312
196,-755,-0.113037,-0.0360107,-0.003893,-0.00128942,-0.00432338,0.00192391,-0.00710633,-0.931633,0.00549235,0.0401633,1420,1779,-0.113006,0.0359924
203,-755,-0.229126,0.0594482,-0.00436351,-0.000775589,-0.0042471,0.0020409,-0.00717999,-0.98523,0.0055925,0.0394809,1427,1779,-0.229093,-0.0594083
210,-755,-0.0443115,0.1073,0,0,0,0,0,0,0,-1,1434,1779,-0.0443649,-0.107258
217,-755,0.112183,0.129639,-0.0052115,0.00139906,-0.00485752,0.00396918,-0.00778162,-1.08414,0.00690232,0.0450018,1441,1779,0.112184,-0.12966
224,-755,0.0211182,-0.0183105,-0.0054417,0.000861431,-0.00507255,0.00368173,-0.00826199,-1.06336,0.00706271,0.0436014,1448,1779,0.0211642,0.0183423
231,-755,0.000488281,-0.0609131,-0.00543652,0.00115274,-0.00494928,0.00380369,-0.00808748,-1.07906,0.0070123,0.0412617,1455,1779,0.00043275,0.0608909
238,-755,-0.0594482,-0.508667,0,0,0,0,0,0,0,-1,1462,1779,-0.0594882,0.50865
245,-755,-0.195557,-0.453613,-0.00444719,0.000749383,-0.0043209,0.00319305,-0.00689085,-1.0561,0.00595099,0.041938,1469,1779,-0.195593,0.453561
252,-755,-0.365356,-0.410034,-0.00344024,-0.000322968,-0.00436035,0.00274895,-0.00651215,-0.957049,0.00549207,0.042135,1476,1779,-0.365319,0.410073
259,-755,-0.525146,-0.408081,-0.00232479,-0.00231832,-0.00384299,0.00152144,-0.00616454,-0.785819,0.00469966,0.0451713,1483,1779,-0.525182,0.408053
266,-755,-0.926636,-0.582031,0,0,0,0,0,0,0,-1,1490,1779,-0.926648,0.582035
273,-755,-0.45459,-0.544312,0.00163459,-0.00759679,-0.00200935,0.00205299,-0.00801519,-0.205294,0.00614322,0.0431339,1497,1779,-0.454592,0.544317
280,-755,-0.308594,-0.323242,0.00461455,-0.0103955,-0.00107987,0.00469184,-0.0104728,-0.0714527,0.00896485,0.0421614,1504,1779,-0.308542,0.323194
287,-755,-0.183716,-0.132202,0.00851291,-0.0130271,-0.000902513,0.00855066,-0.0130649,-0.0418016,0.0125701,0.0403114,1511,1779,-0.183728,0.132234
294,-755,-0.140625,-0.069458,0.0122747,-0.0149149,-0.00026251,0.0122772,-0.0149174,-0.0096536,0.0157255,0.0421264,1518,1779,-0.140668,0.0695137
301,-755,-0.337036,-0.184692,0.016755,-0.0166189,-7.83606e-05,0.0167552,-0.0166191,-0.00234794,0.0192687,0.0437027,1525,1779,-0.336985,0.184694
308,-755,-0.508423,-0.0932617,0.0208871,-0.0182265,-0.000865198,0.0209063,-0.0182456,-0.0221057,0.0226217,0.0436946,1532,1779,-0.508364,0.0932892
315,-755,-0.770508,0.126221,0.0238993,-0.018076,0.00131996,0.0239408,-0.0181175,0.0314048,0.0243598,0.0433679,1539,1779,-0.77056,-0.126238
322,-755,0,0,0,0,0,0,0,0,0,-1,1546,1779,0,0
329,-755,0,0,0,0,0,0,0,0,0,-1,1553,1779,0,0
336,-755,0,0,0,0,0,0,0,0,0,-1,1560,1779,0,0
343,-755,0,0,0,0,0,0,0,0,0,-1,1567,1779,0,0
350,-755,0,0,0,0,0,0,0,0,0,-1,1574,1779,0,0
357,-755,0,0,0,0,0,0,0,0,0,-1,1581,1779,0,0
364,-755,0,0,0,0,0,0,0,0,0,-1,1588,1779,0,0
371,-755,0,0,0,0,0,0,0,0,0,-1,1595,1779,0,0
378,-755,0,0,0,0,0,0,0,0,0,-1,1602,1779,0,0
385,-755,0,0,0,0,0,0,0,0,0,-1,1609,1779,0,0
392,-755,0,0,0,0,0,0,0,0,0,-1,1616,1779,0,0
399,-755,0,0,0,0,0,0,0,0,0,-1,1623,1779,0,0
406,-755,0,0,0,0,0,0,0,0,0,-1,1630,1779,0,0
413,-755,0,0,0,0,0,0,0,0,0,-1,1637,1779,0,0
420,-755,0,0,0,0,0,0,0,0,0,-1,1644,1779,0,0
427,-755,0,0,0,0,0,0,0,0,0,-1,1651,1779,0,0
434,-755,0,0,0,0,0,0,0,0,0,-1,1658,1779,0,0
441,-755,0,0,0,0,0,0,0,0,0,-1,1665,1779,0,0
448,-755,0,0,0,0,0,0,0,0,0,-1,1672,1779,0,0
455,-755,0,0,0,0,0,0,0,0,0,-1,1679,1779,0,0
462,-755,0,0,0,0,0,0,0,0,0,-1,1686,1779,0,0
469,-755,0,0,0,0,0,0,0,0,0,-1,1693,1779,0,0
476,-755,0,0,0,0,0,0,0,0,0,-1,1700,1779,0,0
483,-755,0,0,0,0,0,0,0,0,0,-1,1707,1779,0,0
490,-755,0,0,0,0,0,0,0,0,0,-1,1714,1779,0,0
497,-755,0,0,0,0,0,0,0,0,0,-1,1721,1779,0,0
504,-755,0,0,0,0,0,0,0,0,0,-1,1728,1779,0,0
511,-755,0,0,0,0,0,0,0,0,0,-1,1735,1779,0,0
518,-755,0,0,0,0,0,0,0,0,0,-1,1742,1779,0,0
525,-755,0,0,0,0,0,0,0,0,0,-1,1749,1779,0,0
532,-755,0,0,0,0,0,0,0,0,0,-1,1756,1779,0,0
539,-755,0,0,0,0,0,0,0,0,0,-1,1763,1779,0,0
546,-755,0,0,0,0,0,0,0,0,0,-1,1770,1779,0,0
553,-755,0,0,0,0,0,0,0,0,0,-1,1777,1779,0,0
560,-755,0,0,0,0,0,0,0,0,0,-1,1784,1779,0,0
567,-755,0,0,0,0,0,0,0,0,0,-1,1791,1779,0,0
574,-755,0,0,0,0,0,0,0,0,0,-1,1798,1779,0,0
581,-755,0,0,0,0,0,0,0,0,0,-1,1805,1779,0,0
588,-755,0,0,0,0,0,0,0,0,0,-1,1812,1779,0,0
595,-755,0,0,0,0,0,0,0,0,0,-1,1819,1779,0,0
602,-755,0,0,0,0,0,0,0,0,0,-1,1826,1779,0,0
609,-755,0,0,0,0,0,0,0,0,0,-1,1833,1779,0,0
616,-755,0,0,0,0,0,0,0,0,0,-1,1840,1779,0,0
623,-755,0,0,0,0,0,0,0,0,0,-1,1847,1779,0,0
630,-755,0,0,0,0,0,0,0,0,0,-1,1854,1779,0,0
637,-755,0,0,0,0,0,0,0,0,0,-1,1861,1779,0,0
644,-755,0,0,0,0,0,0,0,0,0,-1,1868,1779,0,0
651,-755,0,0,0,0,0,0,0,0,0,-1,1875,1779,0,0
658,-755,0,0,0,0,0,0,0,0,0,-1,1882,1779,0,0
665,-755,0,0,0,0,0,0,0,0,0,-1,1889,1779,0,0
672,-755,0,0,0,0,0,0,0,0,0,-1,1896,1779,0,0
679,-755,0,0,0,0,0,0,0,0,0,-1,1903,1779,0,0
686,-755,0,0,0,0,0,0,0,0,0,-1,1910,1779,0,0
693,-755,0,0,0,0,0,0,0,0,0,-1,1917,1779,0,0
700,-755,0,0,0,0,0,0,0,0,0,-1,1924,1779,0,0
707,-755,0,0,0,0,0,0,0,0,0,-1,1931,1779,0,0
714,-755,0,0,0,0,0,0,0,0,0,-1,1938,1779,0,0
721,-755,0,0,0,0,0,0,0,0,0,-1,1945,1779,0,0
728,-755,0,0,0,0,0,0,0,0,0,-1,1952,1779,0,0
735,-755,0,0,0,0,0,0,0,0,0,-1,1959,1779,0,0
742,-755,0,0,0,0,0,0,0,0,0,-1,1966,1779,0,0
749,-755,0,0,0,0,0,0,0,0,0,-1,1973,1779,0,0
756,-755,0,0,0,0,0,0,0,0,0,-1,1980,1779,0,0
763,-755,0,0,0,0,0,0,0,0,0,-1,1987,1779,0,0
770,-755,0,0,0,0,0,0,0,0,0,-1,1994,1779,0,0
777,-755,0,0,0,0,0,0,0,0,0,-1,2001,1779,0,0
784,-755,0,0,0,0,0,0,0,0,0,-1,2008,1779,0,0
791,-755,0,0,0,0,0,0,0,0,0,-1,2015,1779,0,0
798,-755,0,0,0,0,0,0,0,0,0,-1,2022,1779,0,0
805,-755,0,0,0,0,0,0,0,0,0,-1,2029,1779,0,0
812,-755,0,0,0,0,0,0,0,0,0,-1,2036,1779,0,0
-700,-762,0,0,0,0,0,0,0,0,0,-1,524,1786,0,0
-693,-762,0,0,0,0,0,0,0,0,0,-1,531,1786,0,0
-686,-762,0,0,0,0,0,0,0,0,0,-1,538,1786,0,0
-679,-762,0,0,0,0,0,0,0,0,0,-1,545,1786,0,0
-672,-762,0,0,0,0,0,0,0,0,0,-1,552,1786,0,0
-665,-762,0,0,0,0,0,0,0,0,0,-1,559,1786,0,0
-658,-762,0,0,0,0,0,0,0,0,0,-1,566,1786,0,0
-651,-762,0,0,0,0,0,0,0,0,0,-1,573,1786,0,0
-644,-762,0,0,0,0,0,0,0,0,0,-1,580,1786,0,0
-637,-762,0,0,0,0,0,0,0,0,0,-1,587,1786,0,0
-630,-762,0,0,0,0,0,0,0,0,0,-1,594,1786,0,0
-623,-762,0,0,0,0,0,0,0,0,0,-1,601,1786,0,0
-616,-762,0,0,0,0,0,0,0,0,0,-1,608,1786,0,0
-609,-762,0,0,0,0,0,0,0,0,0,-1,615,1786,0,0
-602,-762,0,0,0,0,0,0,0,0,0,-1,622,1786,0,0
-595,-762,0,0,0,0,0,0,0,0,0,-1,629,1786,0,0
-588,-762,0,0,0,0,0,0,0,0,0,-1,636,1786,0,0
-581,-762,0,0,0,0,0,0,0,0,0,-1,643,1786,0,0
-574,-762,0,0,0,0,0,0,0,0,0,-1,650,1786,0,0
-567,-762,0,0,0,0,0,0,0,0,0,-1,657,1786,0,0
-560,-762,0,0,0,0,0,0,0,0,0,-1,664,1786,0,0
-553,-762,0,0,0,0,0,0,0,0,0,-1,671,1786,0,0
-546,-762,0,0,0,0,0,0,0,0,0,-1,678,1786,0,0
-539,-762,0,0,0,0,0,0,0,0,0,-1,685,1786,0,0
-532,-762,0,0,0,0,0,0,0,0,0,-1,692,1786,0,0
-525,-762,0,0,0,0,0,0,0,0,0,-1,699,1786,0,0
-518,-762,0,0,0,0,0,0,0,0,0,-1,706,1786,0,0
-511,-762,0,0,0,0,0,0,0,0,0,-1,713,1786,0,0
-504,-762,0,0,0,0,0,0,0,0,0,-1,720,1786,0,0
-497,-762,0,0,0,0,0,0,0,0,0,-1,727,1786,0,0
-490,-762,0,0,0,0,0,0,0,0,0,-1,734,1786,0,0
-483,-762,0,0,0,0,0,0,0,0,0,-1,741,1786,0,0
-476,-762,0,0,0,0,0,0,0,0,0,-1,748,1786,0,0
-469,-762,0,0,0,0,0,0,0,0,0,-1,755,1786,0,0
-462,-762,0,0,0,0,0,0,0,0,0,-1,762,1786,0,0
-455,-762,0,0,0,0,0,0,0,0,0,-1,769,1786,0,0
-448,-762,0,0,0,0,0,0,0,0,0,-1,776,1786,0,0
-441,-762,0,0,0,0,0,0,0,0,0,-1,783,1786,0,0
-434,-762,0,0,0,0,0,0,0,0,0,-1,790,1786,0,0
-427,-762,0,0,0,0,0,0,0,0,0,-1,797,1786,0,0
-420,-762,0,0,0,0,0,0,0,0,0,-1,804,1786,0,0
-413,-762,0,0,0,0,0,0,0,0,0,-1,811,1786,0,0
-406,-762,0,0,0,0,0,0,0,0,0,-1,818,1786,0,0
-399,-762,0,0,0,0,0,0,0,0,0,-1,825,1786,0,0
-392,-762,0,0,0,0,0,0,0,0,0,-1,832,1786,0,0
-385,-762,0,0,0,0,0,0,0,0,0,-1,839,1786,0,0
-378,-762,0,0,0,0,0,0,0,0,0,-1,846,1786,0,0
-371,-762,0,0,0,0,0,0,0,0,0,-1,853,1786,0,0
-364,-762,0,0,0,0,0,0,0,0,0,-1,860,1786,0,0
-357,-762,0,0,0,0,0,0,0,0,0,-1,867,1786,0,0
-350,-762,0,0,0,0,0,0,0,0,0,-1,874,1786,0,0
-343,-762,0,0,0,0,0,0,0,0,0,-1,881,1786,0,0
-336,-762,0,0,0,0,0,0,0,0,0,-1,888,1786,0,0
-329,-762,0,0,0,0,0,0,0,0,0,-1,895,1786,0,0
-322,-762,0,0,0,0,0,0,0,0,0,-1,902,1786,0,0
-315,-762,0,0,0,0,0,0,0,0,0,-1,909,1786,0,0
-308,-762,0,0,0,0,0,0,0,0,0,-1,916,1786,0,0
-301,-762,0,0,0,0,0,0,0,0,0,-1,923,1786,0,0
-294,-762,0,0,0,0,0,0,0,0,0,-1,930,1786,0,0
-287,-762,0,0,0,0,0,0,0,0,0,-1,937,1786,0,0
-280,-762,0,0,0,0,0,0,0,0,0,-1,944,1786,0,0
-273,-762,0,0,0,0,0,0,0,0,0,-1,951,1786,0,0
-266,-762,0,0,0,0,0,0,0,0,0,-1,958,1786,0,0
-259,-762,0,0,0,0,0,0,0,0,0,-1,965,1786,0,0
-252,-762,0,0,0,0,0,0,0,0,0,-1,972,1786,0,0
-245,-762,0,0,0,0,0,0,0,0,0,-1,979,1786,0,0
-238,-762,0,0,0,0,0,0,0,0,0,-1,986,1786,0,0
-231,-762,0,0,0,0,0,0,0,0,0,-1,993,1786,0,0
-224,-762,0,0,0,0,0,0,0,0,0,-1,1000,1786,0,0
-217,-762,0,0,0,0,0,0,0,0,0,-1,1007,1786,0,0
-210,-762,0,0,0,0,0,0,0,0,0,-1,1014,1786,0,0
-203,-762,0,0,0,0,0,0,0,0,0,-1,1021,1786,0,0
-196,-762,0,0,0,0,0,0,0,0,0,-1,1028,1786,0,0
-189,-762,0,0,0,0,0,0,0,0,0,-1,1035,1786,0,0
-182,-762,-3.04431,-1.73914,0,0,0,0,0,0,0,-1,1042,1786,-3.04436,1.73909
-175,-762,-3.19287,-1.68225,0,0,0,0,0,0,0,-1,1049,1786,-3.19287,1.6822
-168,-762,-3.02417,-1.83923,0.0789584,0.0152305,0.0576203,0.112938,-0.0187494,0.532827,0.0822573,0.0456627,1056,1786,-3.02415,1.83923
-161,-762,-0.121216,-0.0780029,0.0711533,0.0149857,0.0491801,0.0997033,-0.0135643,0.525972,0.0714209,0.0477954,1063,1786,-0.121244,0.0780243
-154,-762,-0.164307,0.134277,0.0607435,0.0129395,0.0409909,0.0842921,-0.010609,0.521446,0.0600443,0.047325,1070,1786,-0.164337,-0.134311
-147,-762,0.117676,0.00769043,0.0502163,0.0106349,0.0327705,0.0687085,-0.00785731,0.51375,0.0486368,0.0497042,1077,1786,0.117682,-0.00766133
-140,-762,-0.461182,-0.26062,0,0,0,0,0,0,0,-1,1084,1786,-0.461133,0.260639
-133,-762,-0.382568,-0.400391,0.0315588,0.00346166,0.0204718,0.0423387,-0.00731829,0.484682,0.030955,0.0485519,1091,1786,-0.382591,0.400446
-126,-762,0.165039,-0.0817871,0.0248788,-0.000395962,0.015599,0.0323171,-0.00783425,0.444952,0.024576,0.0428443,1098,1786,0.165088,0.081736
-119,-762,0.162964,-0.143921,0.0190595,-0.00334793,0.0110781,0.0236116,-0.00790007,0.389879,0.0189321,0.0404503,1105,1786,0.162919,0.143922
-112,-762,-0.0914307,0.0563965,0.011444,-0.00655114,0.00641716,0.0134979,-0.00860509,0.309769,0.012865,0.0414697,1112,1786,-0.0914334,-0.0564122
-105,-762,0.348633,-0.427612,0.00783907,-0.00758568,0.00435297,0.00898271,-0.00872933,0.256921,0.0102264,0.0409414,1119,1786,0.348632,0.427612
-98,-762,0.107056,-0.354004,0.00694988,-0.00830332,0.00306469,0.00754261,-0.00889605,0.191047,0.00950158,0.0430555,1126,1786,0.107001,0.354032
-91,-762,-0.160278,-0.214722,0.00622068,-0.00854893,0.00170901,0.00641585,-0.0087441,0.11371,0.00878695,0.0457494,1133,1786,-0.160267,0.214755
-84,-762,-0.508423,-0.132568,0.00553742,-0.00785246,0.000127455,0.00553863,-0.00785367,0.00951763,0.00777046,0.0453264,1140,1786,-0.508392,0.132594
-77,-762,0.63269,-0.320923,0.00425057,-0.00695356,-0.00222024,0.0046745,-0.00737749,-0.188667,0.00701631,0.0413337,1147,1786,0.632751,0.320962
-70,-762,0.749756,-0.327026,0.0025498,-0.0057031,-0.00411211,0.0042489,-0.0074022,-0.391829,0.00680839,0.0425883,1154,1786,0.749799,0.32697
-63,-762,0.305054,-0.624146,0.00031323,-0.00450327,-0.00549704,0.00390641,-0.00809645,-0.578941,0.0070692,0.0448032,1161,1786,0.305046,0.624116
-56,-762,0.0783691,-1.2749,-0.00183328,-0.00360561,-0.00655622,0.00389639,-0.00933528,-0.718223,0.00785149,0.0447521,1168,1786,0.0783822,1.27494
-49,-762,0.0172119,-0.142212,0,0,0,0,0,0,0,-1,1175,1786,0.0171901,0.142195
-42,-762,0.0426025,-0.130127,0,0,0,0,0,0,0,-1,1182,1786,0.0425818,0.130088
-35,-762,0.0679932,-0.118042,0,0,0,0,0,0,0,-1,1189,1786,0.0679735,0.117981
-28,-762,-0.0600586,-0.863892,0,0,0,0,0,0,0,-1,1196,1786,-0.0600922,0.863874
-21,-762,0.17749,-0.556763,0,0,0,0,0,0,0,-1,1203,1786,0.177544,0.556707
-14,-762,-0.0645752,-0.0913086,0,0,0,0,0,0,0,-1,1210,1786,-0.0646071,0.0912723
-7,-762,-0.131958,-0.0911865,0,0,0,0,0,0,0,-1,1217,1786,-0.132008,0.0911744
0,-762,-0.0737305,-0.0809326,-0.00827106,-0.00340869,0.00125873,-0.00310216,-0.00857758,1.33192,0.00501506,0.0346242,1224,1786,-0.0737007,0.0809146
7,-762,-0.00244141,-0.060791,-0.00701446,-0.00270624,0.00290575,-0.00124322,-0.00847747,1.10436,0.0052862,0.0192854,1231,1786,-0.00243158,0.0607366
14,-762,0.0169678,-0.00390625,-0.00567491,-0.00182405,0.00448328,0.00112977,-0.00862873,0.988223,0.00616368,0.0310097,1238,1786,0.0169666,0.00392976
21,-762,-0.188354,-0.0196533,-0.00424464,-0.00110063,0.00595667,0.00348798,-0.00883324,0.91441,0.0073334,0.0385235,1245,1786,-0.188406,0.0196729
28,-762,-0.241821,-0.09375,-0.00252333,0.000171708,0.00701936,0.00597172,-0.00832335,0.88023,0.00829041,0.0381077,1252,1786,-0.241853,0.0937315
35,-762,-0.116943,0.00012207,-0.000319672,0.0012204,0.00742435,0.00791454,-0.00701381,0.837072,0.00862411,0.041948,1259,1786,-0.116894,-0.000138834
42,-762,0.0465088,-0.0250244,0.000383584,0.00251268,0.00825188,0.00976839,-0.00687213,0.849547,0.0096558,0.0386876,1266,1786,0.0465399,0.025006
49,-762,-0.0292969,-0.0900879,-0.00081292,0.00217019,0.00853174,0.00933978,-0.00798251,0.871936,0.0100113,0.0304448,1273,1786,-0.0293334,0.0900686
56,-762,-0.0213623,-0.0913086,-0.00196535,0.000961757,0.00889799,0.00851576,-0.00951935,0.866909,0.0104179,0.0212993,1280,1786,-0.0214158,0.0913465
63,-762,-0.00354004,-0.0725098,-0.00291854,-0.00121525,0.00956984,0.00754077,-0.0116746,0.829778,0.0111792,0.0191887,1287,1786,-0.00350408,0.0724805
70,-762,-0.0100098,-0.0449219,-0.00338894,-0.00456249,0.0101441,0.00618538,-0.0141368,0.756508,0.0120287,0.0186155,1294,1786,-0.00999136,0.0448976
77,-762,0.0159912,-0.0819092,-0.00172859,-0.00879497,0.0109726,0.00626566,-0.0167892,0.62964,0.0137652,0.0249905,1301,1786,0.0159559,0.0818782
84,-762,0.00622559,-0.131958,0.000640974,-0.0129328,0.010823,0.00662901,-0.0189209,0.50535,0.0153097,0.0317437,1308,1786,0.00617299,0.131921
91,-762,0.0395508,-0.126343,0.00361569,-0.01642,0.00993303,0.00770537,-0.0205097,0.390574,0.0168398,0.0401151,1315,1786,0.039591,0.126393
98,-762,-0.0421143,-0.086792,0.00645087,-0.0195267,0.00964224,0.00963865,-0.0227145,0.319294,0.0191809,0.0390014,1322,1786,-0.0421213,0.0868491
105,-762,-0.117432,0.0057373,0.00991353,-0.0239319,0.00877765,0.0120545,-0.0260729,0.239244,0.0225034,0.0372682,1329,1786,-0.117431,-0.00572217
112,-762,-0.342163,0.0133057,0.013481,-0.0256738,0.00758436,0.0148988,-0.0270916,0.1848,0.0245815,0.0417544,1336,1786,-0.342153,-0.0132665
119,-762,-0.396118,-0.00317383,0.0167277,-0.0256181,0.00594811,0.0175473,-0.0264378,0.136936,0.0255671,0.0433296,1343,1786,-0.396138,0.00311479
126,-762,-0.415649,-0.012085,0.0189618,-0.0250733,0.00390923,0.0193062,-0.0254176,0.0878597,0.0259015,0.0431419,1350,1786,-0.415679,0.0120243
133,-762,0.161743,-0.344727,0.0198177,-0.023441,0.00171281,0.0198855,-0.0235087,0.039512,0.0250827,0.0424018,1357,1786,0.161753,0.344731
140,-762,-0.00732422,-0.448853,0.0191877,-0.020997,-0.000479447,0.0191934,-0.0210027,-0.0119288,0.0232151,0.0419937,1364,1786,-0.00732842,0.448873
147,-762,0.143799,-0.370239,0.0178102,-0.018544,-0.00227076,0.0179515,-0.0186853,-0.0621402,0.0211537,0.0394644,1371,1786,0.143809,0.370233
154,-762,0.143799,0.0137939,0.0154693,-0.0153352,-0.00337968,0.0158358,-0.0157017,-0.108002,0.0182082,0.0406323,1378,1786,0.143787,-0.0137895
161,-762,0.0556641,-0.0875244,0.012358,-0.0118891,-0.00423931,0.0130778,-0.0126089,-0.168193,0.014831,0.0433621,1385,1786,0.0556398,0.0875083
168,-762,0.723755,2.36584,0,0,0,0,0,0,0,-1,1392,1786,0.723695,-2.36583
175,-762,-0.0831299,-0.521729,0,0,0,0,0,0,0,-1,1399,1786,-0.0830971,0.521741
182,-762,-0.0793457,0.0332031,0,0,0,0,0,0,0,-1,1406,1786,-0.0793521,-0.0331545
189,-762,-0.0974121,-0.0562744,0,0,0,0,0,0,0,-1,1413,1786,-0.0974037,0.0562215
196,-762,-0.198853,0.0317383,-0.00516185,-0.000834243,-0.00534212,0.00276566,-0.00876175,-0.977822,0.00694899,0.0436912,1420,1786,-0.198806,-0.0317532
203,-762,-0.291992,0.116821,-0.00586056,-0.000395306,-0.00530364,0.00283829,-0.00909416,-1.02328,0.00719789,0.0393846,1427,1786,-0.292024,-0.116764
210,-762,-0.256348,0.197876,-0.00629575,0.00172556,-0.00566488,0.00465582,-0.009226,-1.09343,0.00815817,0.042653,1434,1786,-0.2563,-0.197841
217,-762,0.218506,0.191528,-0.00715311,0.00144709,-0.00635691,0.0048217,-0.0105277,-1.08277,0.0090638,0.0462541,1441,1786,0.21855,-0.191576
224,-762,0.197876,-0.280518,-0.00757553,0.000592419,-0.00676401,0.00440975,-0.0113929,-1.057,0.0094159,0.0418009,1448,1786,0.197909,0.28053
231,-762,-0.110229,-0.10022,-0.00758505,0.000992694,-0.0066774,0.00463995,-0.0112323,-1.07087,0.00942364,0.0403991,1455,1786,-0.110177,0.100199
238,-762,-0.378052,-0.137939,-0.0072068,0.000873835,-0.0063856,0.00438998,-0.0107229,-1.06746,0.00897717,0.0404956,1462,1786,-0.378036,0.13793
245,-762,-0.204712,-0.748535,-0.00628815,0.000144083,-0.00605021,0.00377986,-0.00992393,-1.02969,0.00817266,0.041281,1469,1786,-0.204757,0.748487
252,-762,-0.40625,-0.619629,-0.00503355,-0.00111425,-0.00623752,0.00346421,-0.00961201,-0.937602,0.00782274,0.040142,1476,1786,-0.406309,0.619663
259,-762,-0.363403,-0.473511,-0.00376454,-0.00362248,-0.00564158,0.00194852,-0.00933554,-0.791693,0.00696465,0.0413792,1483,1786,-0.363343,0.473501
266,-762,-1.20618,-0.665039,0,0,0,0,0,0,0,-1,1490,1786,-1.20612,0.665008
273,-762,-0.271973,-0.315674,0.000403872,-0.0102961,-0.00321875,0.0012975,-0.0111897,-0.270812,0.00792778,0.0405082,1497,1786,-0.271913,0.315665
280,-762,-0.218872,-0.0078125,0.00348557,-0.0138928,-0.00188442,0.00368756,-0.0140948,-0.106781,0.0108369,0.0389828,1504,1786,-0.218853,0.00780286
287,-762,-0.137207,0.113403,0.0077074,-0.0174094,-0.00116641,0.00776146,-0.0174634,-0.0463067,0.0149184,0.0391207,1511,1786,-0.137252,-0.113425
294,-762,-0.045166,0.0471191,0.0114947,-0.0202394,-2.87347e-05,0.0114947,-0.0202394,-0.000905484,0.0185521,0.0390797,1518,1786,-0.0451499,-0.0470665
301,-762,0.0385742,-0.261963,0.0156917,-0.0224512,0.00063982,0.0157024,-0.022462,0.016768,0.0221491,0.0385772,1525,1786,0.0385613,0.26193
308,-762,0,0,0,0,0,0,0,0,0,-1,1532,1786,0,0
315,-762,0,0,0,0,0,0,0,0,0,-1,1539,1786,0,0
322,-762,0,0,0,0,0,0,0,0,0,-1,1546,1786,0,0
329,-762,0,0,0,0,0,0,0,0,0,-1,1553,1786,0,0
336,-762,0,0,0,0,0,0,0,0,0,-1,1560,1786,0,0
343,-762,0,0,0,0,0,0,0,0,0,-1,1567,1786,0,0
350,-762,0,0,0,0,0,0,0,0,0,-1,1574,1786,0,0
357,-762,0,0,0,0,0,0,0,0,0,-1,1581,1786,0,0
364,-762,0,0,0,0,0,0,0,0,0,-1,1588,1786,0,0
371,-762,0,0,0,0,0,0,0,0,0,-1,1595,1786,0,0
378,-762,0,0,0,0,0,0,0,0,0,-1,1602,1786,0,0
385,-762,0,0,0,0,0,0,0,0,0,-1,1609,1786,0,0
392,-762,0,0,0,0,0,0,0,0,0,-1,1616,1786,0,0
399,-762,0,0,0,0,0,0,0,0,0,-1,1623,1786,0,0
406,-762,0,0,0,0,0,0,0,0,0,-1,1630,1786,0,0
413,-762,0,0,0,0,0,0,0,0,0,-1,1637,1786,0,0
420,-762,0,0,0,0,0,0,0,0,0,-1,1644,1786,0,0
427,-762,0,0,0,0,0,0,0,0,0,-1,1651,1786,0,0
434,-762,0,0,0,0,0,0,0,0,0,-1,1658,1786,0,0
441,-762,0,0,0,0,0,0,0,0,0,-1,1665,1786,0,0
448,-762,0,0,0,0,0,0,0,0,0,-1,1672,1786,0,0
455,-762,0,0,0,0,0,0,0,0,0,-1,1679,1786,0,0
462,-762,0,0,0,0,0,0,0,0,0,-1,1686,1786,0,0
469,-762,0,0,0,0,0,0,0,0,0,-1,1693,1786,0,0
476,-762,0,0,0,0,0,0,0,0,0,-1,1700,1786,0,0
483,-762,0,0,0,0,0,0,0,0,0,-1,1707,1786,0,0
490,-762,0,0,0,0,0,0,0,0,0,-1,1714,1786,0,0
497,-762,0,0,0,0,0,0,0,0,0,-1,1721,1786,0,0
504,-762,0,0,0,0,0,0,0,0,0,-1,1728,1786,0,0
511,-762,0,0,0,0,0,0,0,0,0,-1,1735,1786,0,0
518,-762,0,0,0,0,0,0,0,0,0,-1,1742,1786,0,0
525,-762,0,0,0,0,0,0,0,0,0,-1,1749,1786,0,0
532,-762,0,0,0,0,0,0,0,0,0,-1,1756,1786,0,0
539,-762,0,0,0,0,0,0,0,0,0,-1,1763,1786,0,0
546,-762,0,0,0,0,0,0,0,0,0,-1,1770,1786,0,0
553,-762,0,0,0,0,0,0,0,0,0,-1,1777,1786,0,0
560,-762,0,0,0,0,0,0,0,0,0,-1,1784,1786,0,0
567,-762,0,0,0,0,0,0,0,0,0,-1,1791,1786,0,0
574,-762,0,0,0,0,0,0,0,0,0,-1,1798,1786,0,0
581,-762,0,0,0,0,0,0,0,0,0,-1,1805,1786,0,0
588,-762,0,0,0,0,0,0,0,0,0,-1,1812,1786,0,0
595,-762,0,0,0,0,0,0,0,0,0,-1,1819,1786,0,0
602,-762,0,0,0,0,0,0,0,0,0,-1,1826,1786,0,0
609,-762,0,0,0,0,0,0,0,0,0,-1,1833,1786,0,0
616,-762,0,0,0,0,0,0,0,0,0,-1,1840,1786,0,0
623,-762,0,0,0,0,0,0,0,0,0,-1,1847,1786,0,0
630,-762,0,0,0,0,0,0,0,0,0,-1,1854,1786,0,0
637,-762,0,0,0,0,0,0,0,0,0,-1,1861,1786,0,0
644,-762,0,0,0,0,0,0,0,0,0,-1,1868,1786,0,0
651,-762,0,0,0,0,0,0,0,0,0,-1,1875,1786,0,0
658,-762,0,0,0,0,0,0,0,0,0,-1,1882,1786,0,0
665,-762,0,0,0,0,0,0,0,0,0,-1,1889,1786,0,0
672,-762,0,0,0,0,0,0,0,0,0,-1,1896,1786,0,0
679,-762,0,0,0,0,0,0,0,0,0,-1,1903,1786,0,0
686,-762,0,0,0,0,0,0,0,0,0,-1,1910,1786,0,0
693,-762,0,0,0,0,0,0,0,0,0,-1,1917,1786,0,0
700,-762,0,0,0,0,0,0,0,0,0,-1,1924,1786,0,0
707,-762,0,0,0,0,0,0,0,0,0,-1,1931,1786,0,0
714,-762,0,0,0,0,0,0,0,0,0,-1,1938,1786,0,0
721,-762,0,0,0,0,0,0,0,0,0,-1,1945,1786,0,0
728,-762,0,0,0,0,0,0,0,0,0,-1,1952,1786,0,0
735,-762,0,0,0,0,0,0,0,0,0,-1,1959,1786,0,0
742,-762,0,0,0,0,0,0,0,0,0,-1,1966,1786,0,0
749,-762,0,0,0,0,0,0,0,0,0,-1,1973,1786,0,0
756,-762,0,0,0,0,0,0,0,0,0,-1,1980,1786,0,0
763,-762,0,0,0,0,0,0,0,0,0,-1,1987,1786,0,0
770,-762,0,0,0,0,0,0,0,0,0,-1,1994,1786,0,0
777,-762,0,0,0,0,0,0,0,0,0,-1,2001,1786,0,0
784,-762,0,0,0,0,0,0,0,0,0,-1,2008,1786,0,0
791,-762,0,0,0,0,0,0,0,0,0,-1,2015,1786,0,0
798,-762,0,0,0,0,0,0,0,0,0,-1,2022,1786,0,0
805,-762,0,0,0,0,0,0,0,0,0,-1,2029,1786,0,0
812,-762,0,0,0,0,0,0,0,0,0,-1,2036,1786,0,0
-700,-769,0,0,0,0,0,0,0,0,0,-1,524,1793,0,0
-693,-769,0,0,0,0,0,0,0,0,0,-1,531,1793,0,0
-686,-769,0,0,0,0,0,0,0,0,0,-1,538,1793,0,0
-679,-769,0,0,0,0,0,0,0,0,0,-1,545,1793,0,0
-672,-769,0,0,0,0,0,0,0,0,0,-1,552,1793,0,0
-665,-769,0,0,0,0,0,0,0,0,0,-1,559,1793,0,0
-658,-769,0,0,0,0,0,0,0,0,0,-1,566,1793,0,0
-651,-769,0,0,0,0,0,0,0,0,0,-1,573,1793,0,0
-644,-769,0,0,0,0,0,0,0,0,0,-1,580,1793,0,0
-637,-769,0,0,0,0,0,0,0,0,0,-1,587,1793,0,0
-630,-769,0,0,0,0,0,0,0,0,0,-1,594,1793,0,0
-623,-769,0,0,0,0,0,0,0,0,0,-1,601,1793,0,0
-616,-769,0,0,0,0,0,0,0,0,0,-1,608,1793,0,0
-609,-769,0,0,0,0,0,0,0,0,0,-1,615,1793,0,0
-602,-769,0,0,0,0,0,0,0,0,0,-1,622,1793,0,0
-595,-769,0,0,0,0,0,0,0,0,0,-1,629,1793,0,0
-588,-769,0,0,0,0,0,0,0,0,0,-1,636,1793,0,0
-581,-769,0,0,0,0,0,0,0,0,0,-1,643,1793,0,0
-574,-769,0,0,0,0,0,0,0,0,0,-1,650,1793,0,0
-567,-769,0,0,0,0,0,0,0,0,0,-1,657,1793,0,0
-560,-769,0,0,0,0,0,0,0,0,0,-1,664,1793,0,0
-553,-769,0,0,0,0,0,0,0,0,0,-1,671,1793,0,0
-546,-769,0,0,0,0,0,0,0,0,0,-1,678,1793,0,0
-539,-769,0,0,0,0,0,0,0,0,0,-1,685,1793,0,0
-532,-769,0,0,0,0,0,0,0,0,0,-1,692,1793,0,0
-525,-769,0,0,0,0,0,0,0,0,0,-1,699,1793,0,0
-518,-769,0,0,0,0,0,0,0,0,0,-1,706,1793,0,0
-511,-769,0,0,0,0,0,0,0,0,0,-1,713,1793,0,0
-504,-769,0,0,0,0,0,0,0,0,0,-1,720,1793,0,0
-497,-769,0,0,0,0,0,0,0,0,0,-1,727,1793,0,0
-490,-769,0,0,0,0,0,0,0,0,0,-1,734,1793,0,0
-483,-769,0,0,0,0,0,0,0,0,0,-1,741,1793,0,0
-476,-769,0,0,0,0,0,0,0,0,0,-1,748,1793,0,0
-469,-769,0,0,0,0,0,0,0,0,0,-1,755,1793,0,0
-462,-769,0,0,0,0,0,0,0,0,0,-1,762,1793,0,0
-455,-769,0,0,0,0,0,0,0,0,0,-1,769,1793,0,0
-448,-769,0,0,0,0,0,0,0,0,0,-1,776,1793,0,0
-441,-769,0,0,0,0,0,0,0,0,0,-1,783,1793,0,0
-434,-769,0,0,0,0,0,0,0,0,0,-1,790,1793,0,0
-427,-769,0,0,0,0,0,0,0,0,0,-1,797,1793,0,0
-420,-769,0,0,0,0,0,0,0,0,0,-1,804,1793,0,0
-413,-769,0,0,0,0,0,0,0,0,0,-1,811,1793,0,0
-406,-769,0,0,0,0,0,0,0,0,0,-1,818,1793,0,0
-399,-769,0,0,0,0,0,0,0,0,0,-1,825,1793,0,0
-392,-769,0,0,0,0,0,0,0,0,0,-1,832,1793,0,0
-385,-769,0,0,0,0,0,0,0,0,0,-1,839,1793,0,0
-378,-769,0,0,0,0,0,0,0,0,0,-1,846,1793,0,0
-371,-769,0,0,0,0,0,0,0,0,0,-1,853,1793,0,0
-364,-769,0,0,0,0,0,0,0,0,0,-1,860,1793,0,0
-357,-769,0,0,0,0,0,0,0,0,0,-1,867,1793,0,0
-350,-769,0,0,0,0,0,0,0,0,0,-1,874,1793,0,0
-343,-769,0,0,0,0,0,0,0,0,0,-1,881,1793,0,0
-336,-769,0,0,0,0,0,0,0,0,0,-1,888,1793,0,0
-329,-769,0,0,0,0,0,0,0,0,0,-1,895,1793,0,0
-322,-769,0,0,0,0,0,0,0,0,0,-1,902,1793,0,0
-315,-769,0,0,0,0,0,0,0,0,0,-1,909,1793,0,0
-308,-769,0,0,0,0,0,0,0,0,0,-1,916,1793,0,0
-301,-769,0,0,0,0,0,0,0,0,0,-1,923,1793,0,0
-294,-769,0,0,0,0,0,0,0,0,0,-1,930,1793,0,0
-287,-769,0,0,0,0,0,0,0,0,0,-1,937,1793,0,0
-280,-769,0,0,0,0,0,0,0,0,0,-1,944,1793,0,0
-273,-769,0,0,0,0,0,0,0,0,0,-1,951,1793,0,0
-266,-769,0,0,0,0,0,0,0,0,0,-1,958,1793,0,0
-259,-769,0,0,0,0,0,0,0,0,0,-1,965,1793,0,0
-252,-769,0,0,0,0,0,0,0,0,0,-1,972,1793,0,0
-245,-769,0,0,0,0,0,0,0,0,0,-1,979,1793,0,0
-238,-769,0,0,0,0,0,0,0,0,0,-1,986,1793,0,0
-231,-769,0,0,0,0,0,0,0,0,0,-1,993,1793,0,0
-224,-769,0,0,0,0,0,0,0,0,0,-1,1000,1793,0,0
-217,-769,0,0,0,0,0,0,0,0,0,-1,1007,1793,0,0
-210,-769,0,0,0,0,0,0,0,0,0,-1,1014,1793,0,0
-203,-769,0,0,0,0,0,0,0,0,0,-1,1021,1793,0,0
-196,-769,0,0,0,0,0,0,0,0,0,-1,1028,1793,0,0
-189,-769,0,0,0,0,0,0,0,0,0,-1,1035,1793,0,0
-182,-769,0,0,0,0,0,0,0,0,0,-1,1042,1793,0,0
-175,-769,0,0,0,0,0,0,0,0,0,-1,1049,1793,0,0
-168,-769,0,0,0,0,0,0,0,0,0,-1,1056,1793,0,0
-161,-769,-0.0955811,-0.321899,0.0828907,0.0138061,0.0515555,0.110406,-0.0137092,0.490244,0.0785733,0.0418781,1063,1793,-0.0955787,0.32194
-154,-769,-0.234863,-0.0286865,0.0703261,0.0111085,0.0436761,0.0934836,-0.0120491,0.487523,0.0667025,0.0446751,1070,1793,-0.23486,0.028738
-147,-769,-0.164429,-0.0599365,0.0578586,0.00850222,0.0351951,0.0761654,-0.00980457,0.479639,0.0543408,0.047745,1077,1793,-0.164432,0.0599206
-140,-769,-0.235962,-0.0640869,0.0453529,0.00404951,0.0285755,0.0599581,-0.0105557,0.472496,0.0439155,0.0487631,1084,1793,-0.23594,0.0641217
-133,-769,-0.748291,-0.329834,0,0,0,0,0,0,0,-1,1091,1793,-0.748265,0.329832
-126,-769,0.278687,-0.0869141,0.0284351,-0.00417197,0.0187313,0.0369644,-0.0127012,0.427291,0.0297932,0.0451357,1098,1793,0.278679,0.0869432
-119,-769,0.189819,-0.17981,0.0221502,-0.00759848,0.0142593,0.0278811,-0.0133294,0.382146,0.0242822,0.0430204,1105,1793,0.189789,0.179799
-112,-769,-0.125977,-0.364014,0.0135952,-0.0113484,0.00945927,0.0167766,-0.0145299,0.324444,0.0180903,0.0398316,1112,1793,-0.125942,0.364004
-105,-769,0.325806,-0.367676,0.00977127,-0.0129791,0.00728406,0.0119036,-0.0151114,0.28478,0.0156337,0.0374099,1119,1793,0.325843,0.367721
-98,-769,0.541748,-0.191895,0.00895671,-0.0141787,0.00584635,0.0103502,-0.0155721,0.23398,0.0150671,0.0387918,1126,1793,0.541722,0.191846
-91,-769,0.479248,0.125732,0.00827813,-0.0145478,0.00416106,0.00901301,-0.0152827,0.174806,0.014182,0.0430398,1133,1793,0.479216,-0.125777
-84,-769,1.01379,0.159302,0.00778268,-0.0135926,0.00199377,0.00796705,-0.013777,0.0922148,0.0127024,0.0451332,1140,1793,1.01379,-0.159319
-77,-769,0.645508,-0.139893,0.00621838,-0.0121844,-0.00130648,0.00631067,-0.0122767,-0.0705222,0.0109141,0.0420328,1147,1793,0.6455,0.139872
-70,-769,0.362915,-0.32959,0.00375873,-0.0103717,-0.00407368,0.00484901,-0.011462,-0.261511,0.0096717,0.0457438,1154,1793,0.362902,0.329607
-63,-769,0.20459,-0.788208,0.000517724,-0.00855013,-0.00605347,0.00354693,-0.0115793,-0.463974,0.00913438,0.0462216,1161,1793,0.204604,0.788207
-56,-769,0.0367432,-1.09473,-0.00246201,-0.00710276,-0.0076594,0.00322078,-0.0127855,-0.63832,0.00977577,0.0450228,1168,1793,0.0367819,1.09475
-49,-769,0.0170898,-1.17456,0,0,0,0,0,0,0,-1,1175,1793,0.0170548,1.1746
-42,-769,0.043457,-0.101074,0,0,0,0,0,0,0,-1,1182,1793,0.0434743,0.101103
-35,-769,0.029541,-0.103027,0,0,0,0,0,0,0,-1,1189,1793,0.0295059,0.103042
-28,-769,-0.142578,-0.0389404,0,0,0,0,0,0,0,-1,1196,1793,-0.142629,0.0389553
-21,-769,-0.286499,-0.144531,0,0,0,0,0,0,0,-1,1203,1793,-0.28646,0.144553
-14,-769,-0.46228,-0.134399,0,0,0,0,0,0,0,-1,1210,1793,-0.462278,0.13443
-7,-769,-0.410156,-0.0386963,0,0,0,0,0,0,0,-1,1217,1793,-0.410186,0.0387492
0,-769,-0.0683594,-0.0975342,-0.012509,-0.00433137,0.00078084,-0.00425748,-0.0125829,1.47645,0.00739021,0.0493795,1224,1793,-0.0683753,0.0975316
7,-769,-0.235107,0.0397949,-0.0108035,-0.0034104,0.00302533,-0.00233022,-0.0118836,1.22786,0.00727123,0.0455374,1231,1793,-0.235159,-0.0398507
14,-769,-0.276001,0.216797,-0.00894694,-0.00229442,0.00513879,0.000500689,-0.011742,1.07263,0.00800015,0.0449479,1238,1793,-0.275959,-0.216846
21,-769,-0.427124,0.0313721,-0.0069794,-0.00141131,0.00713618,0.00346467,-0.0118554,0.971383,0.00927671,0.0467502,1245,1793,-0.427092,-0.0314248
28,-769,-0.592651,-0.316406,-0.00455205,0.000127386,0.00887039,0.00696144,-0.0113861,0.914345,0.0106951,0.0431045,1252,1793,-0.592597,0.316347
35,-769,-0.412964,-0.479736,-0.00111481,0.00153213,0.00978892,0.0100866,-0.00966933,0.852591,0.011407,0.0431334,1259,1793,-0.413019,0.479678
42,-769,-0.120605,0.0620117,0.000374073,0.00356892,0.0117809,0.0138602,-0.00991719,0.852785,0.0137906,0.0473131,1266,1793,-0.120566,-0.0620639
49,-769,-0.195557,0.00683594,-0.00120371,0.0030752,0.0126559,0.0137712,-0.0118998,0.86913,0.0148343,0.0440014,1273,1793,-0.195606,-0.00677804
56,-769,-0.052002,-0.104736,-0.0025982,0.00138449,0.0134548,0.0129945,-0.0142082,0.858866,0.0157107,0.0441506,1280,1793,-0.0520531,0.104773
63,-769,-0.0172119,-0.0927734,-0.00362125,-0.00147153,0.0145653,0.0120586,-0.0171513,0.822229,0.0169496,0.0456558,1287,1793,-0.0172728,0.092822
70,-769,-0.0128174,0.00415039,-0.00400393,-0.00579659,0.0153192,0.0104452,-0.0202457,0.756176,0.018018,0.0455022,1294,1793,-0.012812,-0.00410597
77,-769,0.0297852,-0.0964355,-0.00116955,-0.0108938,0.0163101,0.0109877,-0.0230511,0.640539,0.0200595,0.0475451,1301,1793,0.0297743,0.0964743
84,-769,2.18909,-0.396484,0,0,0,0,0,0,0,-1,1308,1793,2.18911,0.396512
91,-769,0.888672,0.299805,0.00672426,-0.0193026,0.0140309,0.0128476,-0.0254259,0.411501,0.0224914,0.041412,1315,1793,0.888626,-0.299747
98,-769,0.289185,0.0567627,0.0106562,-0.0230724,0.0132898,0.0152634,-0.0276796,0.333705,0.0251362,0.0419762,1322,1793,0.289201,-0.0567436
105,-769,-0.233154,0.273804,0.0155014,-0.0280025,0.011903,0.0185451,-0.0310463,0.250351,0.0289333,0.0432026,1329,1793,-0.233193,-0.273847
112,-769,-0.340576,0.737183,0.020475,-0.0297247,0.0101111,0.022435,-0.0316847,0.191474,0.0313977,0.0461862,1336,1793,-0.340587,-0.737127
119,-769,-0.397217,1.37585,0.0248611,-0.0293453,0.00781303,0.0259648,-0.0304489,0.14033,0.0326048,0.044187,1343,1793,-0.397262,-1.37584
126,-769,-0.325317,1.82764,0.0277865,-0.0284339,0.00507603,0.0282411,-0.0288886,0.0893255,0.0329845,0.0437229,1350,1793,-0.325315,-1.82762
133,-769,0.237305,2.50452,0.0287479,-0.026136,0.00219582,0.0288356,-0.0262237,0.0399233,0.0318004,0.0485651,1357,1793,0.237354,-2.50458
140,-769,0.676392,2.98059,0,0,0,0,0,0,0,-1,1364,1793,0.676417,-2.98062
147,-769,0.911743,3.64392,0,0,0,0,0,0,0,-1,1371,1793,0.911804,-3.64387
154,-769,0.758179,2.97913,0.0223301,-0.0159979,-0.00416262,0.0227769,-0.0164447,-0.106944,0.0227428,0.0476555,1378,1793,0.758238,-2.97909
161,-769,0.608643,2.2832,0.0179407,-0.0119095,-0.00515279,0.0188051,-0.0127739,-0.166216,0.0183427,0.0405669,1385,1793,0.608666,-2.28322
168,-769,0.467896,1.80933,0.0134439,-0.00840972,-0.00563489,0.0148113,-0.0097771,-0.238062,0.014295,0.0443782,1392,1793,0.467843,-1.80927
175,-769,0.226563,0.735107,0.00883891,-0.00500471,-0.00594153,0.0110392,-0.00720503,-0.354669,0.0106106,0.0484024,1399,1793,0.226566,-0.735153
182,-769,0.148438,0.30896,0.00305376,-0.00219447,-0.00644573,0.00738905,-0.00652976,-0.592088,0.00804113,0.045004,1406,1793,0.148408,-0.30902
189,-769,-0.0578613,-0.158569,0,0,0,0,0,0,0,-1,1413,1793,-0.057813,0.158517
196,-769,-0.222656,-0.0322266,-0.00666514,-7.65076e-05,-0.00631344,0.00375042,-0.0104921,-1.02586,0.00852444,0.0435726,1420,1793,-0.222678,0.0322198
203,-769,-0.351929,0.122925,-0.00768628,0.000190454,-0.00637737,0.00374752,-0.0112433,-1.06201,0.00900843,0.0421936,1427,1793,-0.351924,-0.122895
210,-769,-0.364136,0.147095,-0.00834485,0.00217123,-0.00700284,0.00567029,-0.0118439,-1.10742,0.0103191,0.0425259,1434,1793,-0.364184,-0.147096
217,-769,-0.392456,0.182007,-0.00963677,0.00121218,-0.00810223,0.00553815,-0.0139627,-1.08038,0.0116038,0.0470402,1441,1793,-0.392492,-0.181985
224,-769,0.618408,-0.421021,-0.0103758,-3.58629e-05,-0.00880562,0.00500531,-0.015417,-1.05085,0.012291,0.0448503,1448,1793,0.618383,0.421043
231,-769,0.234375,-0.230957,-0.0104613,0.00055976,-0.00879013,0.00542382,-0.0153254,-1.06538,0.0124259,0.0442104,1455,1793,0.234376,0.230899
238,-769,-0.0725098,-0.229004,-0.00998357,0.00028103,-0.00844902,0.0050344,-0.0147369,-1.05834,0.0118643,0.0410007,1462,1793,-0.0725145,0.229031
245,-769,-0.146851,-0.90686,-0.00881114,-0.000845502,-0.00817483,0.00426512,-0.0139218,-1.01208,0.0109825,0.042883,1469,1793,-0.146873,0.90681
252,-769,-0.301392,-0.381226,-0.00727933,-0.00223942,-0.00857902,0.00418208,-0.0137008,-0.928248,0.0108013,0.0418341,1476,1793,-0.301389,0.381181
259,-769,0.0483398,-0.195313,-0.00586246,-0.00534237,-0.00790212,0.00230399,-0.0135088,-0.801847,0.00986398,0.0407319,1483,1793,0.0483396,0.19528
266,-769,0.14209,-0.35022,0,0,0,0,0,0,0,-1,1490,1793,0.142099,0.350188
273,-769,-0.095459,-0.255493,-0.00163057,-0.0135693,-0.00482333,7.45594e-05,-0.0152744,-0.339805,0.0102079,0.0415919,1497,1793,-0.0954275,0.255483
280,-769,-0.106445,0.0341797,0.00137433,-0.0179813,-0.00305919,0.00184633,-0.0184533,-0.153082,0.0129616,0.0411802,1504,1793,-0.1065,-0.0342154
287,-769,0,0,0,0,0,0,0,0,0,-1,1511,1793,0,0
294,-769,0,0,0,0,0,0,0,0,0,-1,1518,1793,0,0
301,-769,0,0,0,0,0,0,0,0,0,-1,1525,1793,0,0
308,-769,0,0,0,0,0,0,0,0,0,-1,1532,1793,0,0
315,-769,0,0,0,0,0,0,0,0,0,-1,1539,1793,0,0
322,-769,0,0,0,0,0,0,0,0,0,-1,1546,1793,0,0
329,-769,0,0,0,0,0,0,0,0,0,-1,1553,1793,0,0
336,-769,0,0,0,0,0,0,0,0,0,-1,1560,1793,0,0
343,-769,0,0,0,0,0,0,0,0,0,-1,1567,1793,0,0
350,-769,0,0,0,0,0,0,0,0,0,-1,1574,1793,0,0
357,-769,0,0,0,0,0,0,0,0,0,-1,1581,1793,0,0
364,-769,0,0,0,0,0,0,0,0,0,-1,1588,1793,0,0
371,-769,0,0,0,0,0,0,0,0,0,-1,1595,1793,0,0
378,-769,0,0,0,0,0,0,0,0,0,-1,1602,1793,0,0
385,-769,0,0,0,0,0,0,0,0,0,-1,1609,1793,0,0
392,-769,0,0,0,0,0,0,0,0,0,-1,1616,1793,0,0
399,-769,0,0,0,0,0,0,0,0,0,-1,1623,1793,0,0
406,-769,0,0,0,0,0,0,0,0,0,-1,1630,1793,0,0
413,-769,0,0,0,0,0,0,0,0,0,-1,1637,1793,0,0
420,-769,0,0,0,0,0,0,0,0,0,-1,1644,1793,0,0
427,-769,0,0,0,0,0,0,0,0,0,-1,1651,1793,0,0
434,-769,0,0,0,0,0,0,0,0,0,-1,1658,1793,0,0
441,-769,0,0,0,0,0,0,0,0,0,-1,1665,1793,0,0
448,-769,0,0,0,0,0,0,0,0,0,-1,1672,1793,0,0
455,-769,0,0,0,0,0,0,0,0,0,-1,1679,1793,0,0
462,-769,0,0,0,0,0,0,0,0,0,-1,1686,1793,0,0
469,-769,0,0,0,0,0,0,0,0,0,-1,1693,1793,0,0
476,-769,0,0,0,0,0,0,0,0,0,-1,1700,1793,0,0
483,-769,0,0,0,0,0,0,0,0,0,-1,1707,1793,0,0
490,-769,0,0,0,0,0,0,0,0,0,-1,1714,1793,0,0
497,-769,0,0,0,0,0,0,0,0,0,-1,1721,1793,0,0
504,-769,0,0,0,0,0,0,0,0,0,-1,1728,1793,0,0
511,-769,0,0,0,0,0,0,0,0,0,-1,1735,1793,0,0
518,-769,0,0,0,0,0,0,0,0,0,-1,1742,1793,0,0
525,-769,0,0,0,0,0,0,0,0,0,-1,1749,1793,0,0
532,-769,0,0,0,0,0,0,0,0,0,-1,1756,1793,0,0
539,-769,0,0,0,0,0,0,0,0,0,-1,1763,1793,0,0
546,-769,0,0,0,0,0,0,0,0,0,-1,1770,1793,0,0
553,-769,0,0,0,0,0,0,0,0,0,-1,1777,1793,0,0
560,-769,0,0,0,0,0,0,0,0,0,-1,1784,1793,0,0
567,-769,0,0,0,0,0,0,0,0,0,-1,1791,1793,0,0
574,-769,0,0,0,0,0,0,0,0,0,-1,1798,1793,0,0
581,-769,0,0,0,0,0,0,0,0,0,-1,1805,1793,0,0
588,-769,0,0,0,0,0,0,0,0,0,-1,1812,1793,0,0
595,-769,0,0,0,0,0,0,0,0,0,-1,1819,1793,0,0
602,-769,0,0,0,0,0,0,0,0,0,-1,1826,1793,0,0
609,-769,0,0,0,0,0,0,0,0,0,-1,1833,1793,0,0
616,-769,0,0,0,0,0,0,0,0,0,-1,1840,1793,0,0
623,-769,0,0,0,0,0,0,0,0,0,-1,1847,1793,0,0
630,-769,0,0,0,0,0,0,0,0,0,-1,1854,1793,0,0
637,-769,0,0,0,0,0,0,0,0,0,-1,1861,1793,0,0
644,-769,0,0,0,0,0,0,0,0,0,-1,1868,1793,0,0
651,-769,0,0,0,0,0,0,0,0,0,-1,1875,1793,0,0
658,-769,0,0,0,0,0,0,0,0,0,-1,1882,1793,0,0
665,-769,0,0,0,0,0,0,0,0,0,-1,1889,1793,0,0
672,-769,0,0,0,0,0,0,0,0,0,-1,1896,1793,0,0
679,-769,0,0,0,0,0,0,0,0,0,-1,1903,1793,0,0
686,-769,0,0,0,0,0,0,0,0,0,-1,1910,1793,0,0
693,-769,0,0,0,0,0,0,0,0,0,-1,1917,1793,0,0
700,-769,0,0,0,0,0,0,0,0,0,-1,1924,1793,0,0
707,-769,0,0,0,0,0,0,0,0,0,-1,1931,1793,0,0
714,-769,0,0,0,0,0,0,0,0,0,-1,1938,1793,0,0
721,-769,0,0,0,0,0,0,0,0,0,-1,1945,1793,0,0
728,-769,0,0,0,0,0,0,0,0,0,-1,1952,1793,0,0
735,-769,0,0,0,0,0,0,0,0,0,-1,1959,1793,0,0
742,-769,0,0,0,0,0,0,0,0,0,-1,1966,1793,0,0
749,-769,0,0,0,0,0,0,0,0,0,-1,1973,1793,0,0
756,-769,0,0,0,0,0,0,0,0,0,-1,1980,1793,0,0
763,-769,0,0,0,0,0,0,0,0,0,-1,1987,1793,0,0
770,-769,0,0,0,0,0,0,0,0,0,-1,1994,1793,0,0
777,-769,0,0,0,0,0,0,0,0,0,-1,2001,1793,0,0
784,-769,0,0,0,0,0,0,0,0,0,-1,2008,1793,0,0
791,-769,0,0,0,0,0,0,0,0,0,-1,2015,1793,0,0
798,-769,0,0,0,0,0,0,0,0,0,-1,2022,1793,0,0
805,-769,0,0,0,0,0,0,0,0,0,-1,2029,1793,0,0
812,-769,0,0,0,0,0,0,0,0,0,-1,2036,1793,0,0
-700,-776,0,0,0,0,0,0,0,0,0,-1,524,1800,0,0
-693,-776,0,0,0,0,0,0,0,0,0,-1,531,1800,0,0
-686,-776,0,0,0,0,0,0,0,0,0,-1,538,1800,0,0
-679,-776,0,0,0,0,0,0,0,0,0,-1,545,1800,0,0
-672,-776,0,0,0,0,0,0,0,0,0,-1,552,1800,0,0
-665,-776,0,0,0,0,0,0,0,0,0,-1,559,1800,0,0
-658,-776,0,0,0,0,0,0,0,0,0,-1,566,1800,0,0
-651,-776,0,0,0,0,0,0,0,0,0,-1,573,1800,0,0
-644,-776,0,0,0,0,0,0,0,0,0,-1,580,1800,0,0
-637,-776,0,0,0,0,0,0,0,0,0,-1,587,1800,0,0
-630,-776,0,0,0,0,0,0,0,0,0,-1,594,1800,0,0
-623,-776,0,0,0,0,0,0,0,0,0,-1,601,1800,0,0
-616,-776,0,0,0,0,0,0,0,0,0,-1,608,1800,0,0
-609,-776,0,0,0,0,0,0,0,0,0,-1,615,1800,0,0
-602,-776,0,0,0,0,0,0,0,0,0,-1,622,1800,0,0
-595,-776,0,0,0,0,0,0,0,0,0,-1,629,1800,0,0
-588,-776,0,0,0,0,0,0,0,0,0,-1,636,1800,0,0
-581,-776,0,0,0,0,0,0,0,0,0,-1,643,1800,0,0
-574,-776,0,0,0,0,0,0,0,0,0,-1,650,1800,0,0
-567,-776,0,0,0,0,0,0,0,0,0,-1,657,1800,0,0
-560,-776,0,0,0,0,0,0,0,0,0,-1,664,1800,0,0
-553,-776,0,0,0,0,0,0,0,0,0,-1,671,1800,0,0
-546,-776,0,0,0,0,0,0,0,0,0,-1,678,1800,0,0
-539,-776,0,0,0,0,0,0,0,0,0,-1,685,1800,0,0
-532,-776,0,0,0,0,0,0,0,0,0,-1,692,1800,0,0
-525,-776,0,0,0,0,0,0,0,0,0,-1,699,1800,0,0
-518,-776,0,0,0,0,0,0,0,0,0,-1,706,1800,0,0
-511,-776,0,0,0,0,0,0,0,0,0,-1,713,1800,0,0
-504,-776,0,0,0,0,0,0,0,0,0,-1,720,1800,0,0
-497,-776,0,0,0,0,0,0,0,0,0,-1,727,1800,0,0
-490,-776,0,0,0,0,0,0,0,0,0,-1,734,1800,0,0
-483,-776,0,0,0,0,0,0,0,0,0,-1,741,1800,0,0
-476,-776,0,0,0,0,0,0,0,0,0,-1,748,1800,0,0
-469,-776,0,0,0,0,0,0,0,0,0,-1,755,1800,0,0
-462,-776,0,0,0,0,0,0,0,0,0,-1,762,1800,0,0
-455,-776,0,0,0,0,0,0,0,0,0,-1,769,1800,0,0
-448,-776,0,0,0,0,0,0,0,0,0,-1,776,1800,0,0
-441,-776,0,0,0,0,0,0,0,0,0,-1,783,1800,0,0
-434,-776,0,0,0,0,0,0,0,0,0,-1,790,1800,0,0
-427,-776,0,0,0,0,0,0,0,0,0,-1,797,1800,0,0
-420,-776,0,0,0,0,0,0,0,0,0,-1,804,1800,0,0
-413,-776,0,0,0,0,0,0,0,0,0,-1,811,1800,0,0
-406,-776,0,0,0,0,0,0,0,0,0,-1,818,1800,0,0
-399,-776,0,0,0,0,0,0,0,0,0,-1,825,1800,0,0
-392,-776,0,0,0,0,0,0,0,0,0,-1,832,1800,0,0
-385,-776,0,0,0,0,0,0,0,0,0,-1,839,1800,0,0
-378,-776,0,0,0,0,0,0,0,0,0,-1,846,1800,0,0
-371,-776,0,0,0,0,0,0,0,0,0,-1,853,1800,0,0
-364,-776,0,0,0,0,0,0,0,0,0,-1,860,1800,0,0
-357,-776,0,0,0,0,0,0,0,0,0,-1,867,1800,0,0
-350,-776,0,0,0,0,0,0,0,0,0,-1,874,1800,0,0
-343,-776,0,0,0,0,0,0,0,0,0,-1,881,1800,0,0
-336,-776,0,0,0,0,0,0,0,0,0,-1,888,1800,0,0
-329,-776,0,0,0,0,0,0,0,0,0,-1,895,1800,0,0
-322,-776,0,0,0,0,0,0,0,0,0,-1,902,1800,0,0
-315,-776,0,0,0,0,0,0,0,0,0,-1,909,1800,0,0
-308,-776,0,0,0,0,0,0,0,0,0,-1,916,1800,0,0
-301,-776,0,0,0,0,0,0,0,0,0,-1,923,1800,0,0
-294,-776,0,0,0,0,0,0,0,0,0,-1,930,1800,0,0
-287,-776,0,0,0,0,0,0,0,0,0,-1,937,1800,0,0
-280,-776,0,0,0,0,0,0,0,0,0,-1,944,1800,0,0
-273,-776,0,0,0,0,0,0,0,0,0,-1,951,1800,0,0
-266,-776,0,0,0,0,0,0,0,0,0,-1,958,1800,0,0
-259,-776,0,0,0,0,0,0,0,0,0,-1,965,1800,0,0
-252,-776,0,0,0,0,0,0,0,0,0,-1,972,1800,0,0
-245,-776,0,0,0,0,0,0,0,0,0,-1,979,1800,0,0
-238,-776,0,0,0,0,0,0,0,0,0,-1,986,1800,0,0
-231,-776,0,0,0,0,0,0,0,0,0,-1,993,1800,0,0
-224,-776,0,0,0,0,0,0,0,0,0,-1,1000,1800,0,0
-217,-776,0,0,0,0,0,0,0,0,0,-1,1007,1800,0,0
-210,-776,0,0,0,0,0,0,0,0,0,-1,1014,1800,0,0
-203,-776,0,0,0,0,0,0,0,0,0,-1,1021,1800,0,0
-196,-776,0,0,0,0,0,0,0,0,0,-1,1028,1800,0,0
-189,-776,0,0,0,0,0,0,0,0,0,-1,1035,1800,0,0
-182,-776,0,0,0,0,0,0,0,0,0,-1,1042,1800,0,0
-175,-776,0,0,0,0,0,0,0,0,0,-1,1049,1800,0,0
-168,-776,0,0,0,0,0,0,0,0,0,-1,1056,1800,0,0
-161,-776,0,0,0,0,0,0,0,0,0,-1,1063,1800,0,0
-154,-776,0,0,0,0,0,0,0,0,0,-1,1070,1800,0,0
-147,-776,0,0,0,0,0,0,0,0,0,-1,1077,1800,0,0
-140,-776,-0.251709,0.0443115,0.0501297,9.62336e-05,0.0309688,0.0649238,-0.0146979,0.445658,0.0489234,0.0449512,1084,1800,-0.251675,-0.0443278
-133,-776,-0.265625,-0.0162354,0,0,0,0,0,0,0,-1,1091,1800,-0.265653,0.0162108
-126,-776,-0.276733,-0.0732422,0.0311498,-0.00971374,0.0224997,0.0411103,-0.0196743,0.416765,0.0358141,0.046372,1098,1800,-0.276771,0.0732916
-119,-776,-0.0725098,-0.128296,0.0247729,-0.0137808,0.0183909,0.0321385,-0.0211465,0.380941,0.0309815,0.0436239,1105,1800,-0.0725106,0.128282
-112,-776,0.144409,-0.262207,0.015679,-0.0181704,0.0137915,0.0205866,-0.023078,0.341873,0.0252235,0.0400224,1112,1800,0.144433,0.262248
-105,-776,0.508301,-0.256226,0.0119785,-0.0206785,0.0116504,0.0157087,-0.0244087,0.309864,0.0233426,0.0382802,1119,1800,0.508276,0.256237
-98,-776,0.734253,-0.0992432,0,0,0,0,0,0,0,-1,1126,1800,0.734202,0.0991941
-91,-776,0.064209,1.02954,0.0109057,-0.0230677,0.00800867,0.0126989,-0.024861,0.220281,0.0220609,0.0421546,1133,1800,0.0642167,-1.02952
-84,-776,-0.292114,0.637573,0.0107678,-0.0217758,0.00508106,0.0115427,-0.0225506,0.151334,0.0200229,0.0421308,1140,1800,-0.292065,-0.637597
-77,-776,-0.164673,-0.398071,0.00883973,-0.0195244,0.000498381,0.00884849,-0.0195331,0.0175636,0.0167687,0.0394003,1147,1800,-0.164669,0.398037
-70,-776,-0.0478516,-0.628784,0.00530917,-0.0168281,-0.00341827,0.00582498,-0.0173439,-0.149767,0.0139167,0.0435948,1154,1800,-0.0478905,0.62883
-63,-776,0.0782471,-0.863281,0.000735283,-0.0140773,-0.00615636,0.00295987,-0.0163019,-0.346749,0.0119771,0.044993,1161,1800,0.0782905,0.863314
-56,-776,0.0716553,-1.06067,-0.00328003,-0.0117983,-0.00850142,0.00196947,-0.0170478,-0.553177,0.0120754,0.0454065,1168,1800,0.0716454,1.06065
-49,-776,0.060791,-1.21362,0,0,0,0,0,0,0,-1,1175,1800,0.0608311,1.21359
-42,-776,0.0639648,-0.0544434,0,0,0,0,0,0,0,-1,1182,1800,0.0639268,0.0544441
-35,-776,-0.274536,1.56152,-0.0126582,-0.00570644,-0.0116098,0.00293669,-0.0213013,-0.930847,0.0152742,0.0464047,1189,1800,-0.27457,-1.56149
-28,-776,-0.204956,0.478271,-0.0158415,-0.00511093,-0.0111714,0.00191684,-0.0228692,-1.00927,0.0159236,0.0464705,1196,1800,-0.204947,-0.47827
-21,-776,-0.327026,0.173462,-0.0188726,-0.00491261,-0.00973421,8.55103e-05,-0.0238707,-1.09644,0.0159424,0.0454556,1203,1800,-0.326989,-0.173437
-14,-776,-0.471069,0.0742188,-0.0201132,-0.00529165,-0.00664438,-0.00274917,-0.0226557,-1.20533,0.0142759,0.0459423,1210,1800,-0.471116,-0.0742714
-7,-776,-0.597656,0.0579834,-0.0195988,-0.00536639,-0.0032988,-0.00463897,-0.0203262,-1.35376,0.0122996,0.0481657,1217,1800,-0.597611,-0.0579532
0,-776,-0.48999,0.0894775,-0.0183165,-0.00512932,5.80289e-05,-0.00512906,-0.0183167,1.5664,0.010911,0.0492663,1224,1800,-0.490048,-0.0895045
7,-776,-0.406738,0.102417,-0.0161451,-0.00396548,0.00296538,-0.00328187,-0.0168288,1.34422,0.010301,0.0484334,1231,1800,-0.406726,-0.102448
14,-776,-0.544067,0.347168,0,0,0,0,0,0,0,-1,1238,1800,-0.54402,-0.347187
21,-776,-0.88208,0.113403,0,0,0,0,0,0,0,-1,1245,1800,-0.882029,-0.113414
28,-776,-0.813721,-0.255493,0,0,0,0,0,0,0,-1,1252,1800,-0.813681,0.255519
35,-776,-0.902344,-0.821899,0,0,0,0,0,0,0,-1,1259,1800,-0.902318,0.821909
42,-776,-0.77002,-0.281494,0,0,0,0,0,0,0,-1,1266,1800,-0.770034,0.281521
49,-776,-0.373169,0.0604248,0,0,0,0,0,0,0,-1,1273,1800,-0.373138,-0.0604331
56,-776,-0.102539,-0.141968,0,0,0,0,0,0,0,-1,1280,1800,-0.102533,0.14191
63,-776,-0.0522461,-0.114136,0,0,0,0,0,0,0,-1,1287,1800,-0.0522115,0.114099
70,-776,-0.0699463,-0.00378418,0,0,0,0,0,0,0,-1,1294,1800,-0.0699651,0.00382338
77,-776,2.56714,-1.4176,0,0,0,0,0,0,0,-1,1301,1800,2.56709,1.41756
84,-776,1.6261,-0.772583,0,0,0,0,0,0,0,-1,1308,1800,1.62612,0.772523
91,-776,0.905762,0.050293,0.0117089,-0.0209703,0.0193676,0.0207087,-0.0299701,0.434998,0.0294218,0.0418916,1315,1800,0.905804,-0.0503385
98,-776,0.108765,0.349976,0.0169381,-0.025354,0.017855,0.0234679,-0.0318839,0.350607,0.0320803,0.0424607,1322,1800,0.108797,-0.349976
105,-776,-0.352173,0.587769,0.0234918,-0.0304474,0.0156862,0.0277218,-0.0346774,0.263399,0.0361007,0.0439148,1329,1800,-0.352183,-0.587736
112,-776,-0.380737,1.28638,0.0302396,-0.0320227,0.0130298,0.0328564,-0.0346395,0.198196,0.0389733,0.045694,1336,1800,-0.380784,-1.28633
119,-776,-0.538086,1.87415,0.0359945,-0.0312639,0.00986549,0.0374117,-0.0326811,0.142677,0.0404988,0.0443754,1343,1800,-0.538025,-1.87415
126,-776,0.125488,2.703,0.0397099,-0.0299277,0.0062811,0.0402719,-0.0304897,0.0892373,0.0409842,0.0440492,1350,1800,0.125458,-2.70302
133,-776,0.638916,3.02832,0.0407069,-0.0268824,0.00261791,0.0408081,-0.0269837,0.0386555,0.03941,0.0461888,1357,1800,0.638966,-3.02828
140,-776,1.06409,3.57251,0.0388923,-0.0227431,-0.000725131,0.0389008,-0.0227516,-0.0117627,0.0359998,0.0497774,1364,1800,1.06411,-3.57256
147,-776,1.84998,4.09033,0,0,0,0,0,0,0,-1,1371,1800,1.85003,-4.09027
154,-776,0.609131,2.02283,0,0,0,0,0,0,0,-1,1378,1800,0.609115,-2.02288
161,-776,0.434204,1.63904,0.025396,-0.0102745,-0.00606668,0.0263995,-0.011278,-0.163937,0.0223295,0.0409741,1385,1800,0.434248,-1.63907
168,-776,0.311401,1.12842,0.0191014,-0.00652362,-0.00649631,0.0206542,-0.00807644,-0.234628,0.0171093,0.0410229,1392,1800,0.311451,-1.12845
175,-776,0.224487,0.629761,0.0127175,-0.00307424,-0.00669085,0.0151712,-0.00552787,-0.351487,0.0123753,0.0441847,1399,1800,0.224475,-0.629816
182,-776,0.146606,0.370728,0.00496236,-0.000379503,-0.00738057,0.0101404,-0.00555756,-0.611786,0.00919107,0.041467,1406,1800,0.146598,-0.370774
189,-776,-0.0357666,-0.0327148,-0.00220183,0.000402582,-0.00761207,0.00682303,-0.00862228,-0.870114,0.0089375,0.040744,1413,1800,-0.0357471,0.0327227
196,-776,-0.282715,-0.0517578,-0.00841688,0.000993255,-0.00708495,0.00479314,-0.0122168,-1.07851,0.0101276,0.0427471,1420,1800,-0.282741,0.0517945
203,-776,-0.404541,0.163086,-0.00989624,0.000968358,-0.00734275,0.00466983,-0.0135977,-1.10387,0.0109586,0.0448491,1427,1800,-0.404521,-0.16314
210,-776,-0.505737,0.19397,0,0,0,0,0,0,0,-1,1434,1800,-0.50574,-0.193975
217,-776,-0.523071,0.175293,0,0,0,0,0,0,0,-1,1441,1800,-0.523071,-0.175298
224,-776,1.06287,-0.449219,0,0,0,0,0,0,0,-1,1448,1800,1.06289,0.449259
231,-776,0.715942,-0.317139,-0.0143467,-0.000274055,-0.0113089,0.00600886,-0.0206296,-1.06369,0.0161334,0.0474063,1455,1800,0.715929,0.317092
238,-776,0.261475,-0.348999,-0.0138013,-0.000750349,-0.0108818,0.00541255,-0.0199642,-1.05549,0.0154333,0.0450794,1462,1800,0.261492,0.348995
245,-776,0.0167236,-0.718994,-0.0123287,-0.00238545,-0.010712,0.00445239,-0.0191666,-1.00267,0.0144917,0.0445433,1469,1800,0.0167597,0.718968
252,-776,-0.229858,-0.270508,-0.0104946,-0.00383137,-0.0114425,0.00475469,-0.0190807,-0.927063,0.0145664,0.045695,1476,1800,-0.229843,0.27056
259,-776,0.354004,-0.179321,0,0,0,0,0,0,0,-1,1483,1800,0.354052,0.179301
266,-776,0,0,0,0,0,0,0,0,0,-1,1490,1800,0,0
273,-776,0,0,0,0,0,0,0,0,0,-1,1497,1800,0,0
280,-776,0,0,0,0,0,0,0,0,0,-1,1504,1800,0,0
287,-776,0,0,0,0,0,0,0,0,0,-1,1511,1800,0,0
294,-776,0,0,0,0,0,0,0,0,0,-1,1518,1800,0,0
301,-776,0,0,0,0,0,0,0,0,0,-1,1525,1800,0,0
308,-776,0,0,0,0,0,0,0,0,0,-1,1532,1800,0,0
315,-776,0,0,0,0,0,0,0,0,0,-1,1539,1800,0,0
322,-776,0,0,0,0,0,0,0,0,0,-1,1546,1800,0,0
329,-776,0,0,0,0,0,0,0,0,0,-1,1553,1800,0,0
336,-776,0,0,0,0,0,0,0,0,0,-1,1560,1800,0,0
343,-776,0,0,0,0,0,0,0,0,0,-1,1567,1800,0,0
350,-776,0,0,0,0,0,0,0,0,0,-1,1574,1800,0,0
357,-776,0,0,0,0,0,0,0,0,0,-1,1581,1800,0,0
364,-776,0,0,0,0,0,0,0,0,0,-1,1588,1800,0,0
371,-776,0,0,0,0,0,0,0,0,0,-1,1595,1800,0,0
378,-776,0,0,0,0,0,0,0,0,0,-1,1602,1800,0,0
385,-776,0,0,0,0,0,0,0,0,0,-1,1609,1800,0,0
392,-776,0,0,0,0,0,0,0,0,0,-1,1616,1800,0,0
399,-776,0,0,0,0,0,0,0,0,0,-1,1623,1800,0,0
406,-776,0,0,0,0,0,0,0,0,0,-1,1630,1800,0,0
413,-776,0,0,0,0,0,0,0,0,0,-1,1637,1800,0,0
420,-776,0,0,0,0,0,0,0,0,0,-1,1644,1800,0,0
427,-776,0,0,0,0,0,0,0,0,0,-1,1651,1800,0,0
434,-776,0,0,0,0,0,0,0,0,0,-1,1658,1800,0,0
441,-776,0,0,0,0,0,0,0,0,0,-1,1665,1800,0,0
448,-776,0,0,0,0,0,0,0,0,0,-1,1672,1800,0,0
455,-776,0,0,0,0,0,0,0,0,0,-1,1679,1800,0,0
462,-776,0,0,0,0,0,0,0,0,0,-1,1686,1800,0,0
469,-776,0,0,0,0,0,0,0,0,0,-1,1693,1800,0,0
476,-776,0,0,0,0,0,0,0,0,0,-1,1700,1800,0,0
483,-776,0,0,0,0,0,0,0,0,0,-1,1707,1800,0,0
490,-776,0,0,0,0,0,0,0,0,0,-1,1714,1800,0,0
497,-776,0,0,0,0,0,0,0,0,0,-1,1721,1800,0,0
504,-776,0,0,0,0,0,0,0,0,0,-1,1728,1800,0,0
511,-776,0,0,0,0,0,0,0,0,0,-1,1735,1800,0,0
518,-776,0,0,0,0,0,0,0,0,0,-1,1742,1800,0,0
525,-776,0,0,0,0,0,0,0,0,0,-1,1749,1800,0,0
532,-776,0,0,0,0,0,0,0,0,0,-1,1756,1800,0,0
539,-776,0,0,0,0,0,0,0,0,0,-1,1763,1800,0,0
546,-776,0,0,0,0,0,0,0,0,0,-1,1770,1800,0,0
553,-776,0,0,0,0,0,0,0,0,0,-1,1777,1800,0,0
560,-776,0,0,0,0,0,0,0,0,0,-1,1784,1800,0,0
567,-776,0,0,0,0,0,0,0,0,0,-1,1791,1800,0,0
574,-776,0,0,0,0,0,0,0,0,0,-1,1798,1800,0,0
581,-776,0,0,0,0,0,0,0,0,0,-1,1805,1800,0,0
588,-776,0,0,0,0,0,0,0,0,0,-1,1812,1800,0,0
595,-776,0,0,0,0,0,0,0,0,0,-1,1819,1800,0,0
602,-776,0,0,0,0,0,0,0,0,0,-1,1826,1800,0,0
609,-776,0,0,0,0,0,0,0,0,0,-1,1833,1800,0,0
616,-776,0,0,0,0,0,0,0,0,0,-1,1840,1800,0,0
623,-776,0,0,0,0,0,0,0,0,0,-1,1847,1800,0,0
630,-776,0,0,0,0,0,0,0,0,0,-1,1854,1800,0,0
637,-776,0,0,0,0,0,0,0,0,0,-1,1861,1800,0,0
644,-776,0,0,0,0,0,0,0,0,0,-1,1868,1800,0,0
651,-776,0,0,0,0,0,0,0,0,0,-1,1875,1800,0,0
658,-776,0,0,0,0,0,0,0,0,0,-1,1882,1800,0,0
665,-776,0,0,0,0,0,0,0,0,0,-1,1889,1800,0,0
672,-776,0,0,0,0,0,0,0,0,0,-1,1896,1800,0,0
679,-776,0,0,0,0,0,0,0,0,0,-1,1903,1800,0,0
686,-776,0,0,0,0,0,0,0,0,0,-1,1910,1800,0,0
693,-776,0,0,0,0,0,0,0,0,0,-1,1917,1800,0,0
700,-776,0,0,0,0,0,0,0,0,0,-1,1924,1800,0,0
707,-776,0,0,0,0,0,0,0,0,0,-1,1931,1800,0,0
714,-776,0,0,0,0,0,0,0,0,0,-1,1938,1800,0,0
721,-776,0,0,0,0,0,0,0,0,0,-1,1945,1800,0,0
728,-776,0,0,0,0,0,0,0,0,0,-1,1952,1800,0,0
735,-776,0,0,0,0,0,0,0,0,0,-1,1959,1800,0,0
742,-776,0,0,0,0,0,0,0,0,0,-1,1966,1800,0,0
749,-776,0,0,0,0,0,0,0,0,0,-1,1973,1800,0,0
756,-776,0,0,0,0,0,0,0,0,0,-1,1980,1800,0,0
763,-776,0,0,0,0,0,0,0,0,0,-1,1987,1800,0,0
770,-776,0,0,0,0,0,0,0,0,0,-1,1994,1800,0,0
777,-776,0,0,0,0,0,0,0,0,0,-1,2001,1800,0,0
784,-776,0,0,0,0,0,0,0,0,0,-1,2008,1800,0,0
791,-776,0,0,0,0,0,0,0,0,0,-1,2015,1800,0,0
798,-776,0,0,0,0,0,0,0,0,0,-1,2022,1800,0,0
805,-776,0,0,0,0,0,0,0,0,0,-1,2029,1800,0,0
812,-776,0,0,0,0,0,0,0,0,0,-1,2036,1800,0,0
-700,-783,0,0,0,0,0,0,0,0,0,-1,524,1807,0,0
-693,-783,0,0,0,0,0,0,0,0,0,-1,531,1807,0,0
-686,-783,0,0,0,0,0,0,0,0,0,-1,538,1807,0,0
-679,-783,0,0,0,0,0,0,0,0,0,-1,545,1807,0,0
-672,-783,0,0,0,0,0,0,0,0,0,-1,552,1807,0,0
-665,-783,0,0,0,0,0,0,0,0,0,-1,559,1807,0,0
-658,-783,0,0,0,0,0,0,0,0,0,-1,566,1807,0,0
-651,-783,0,0,0,0,0,0,0,0,0,-1,573,1807,0,0
-644,-783,0,0,0,0,0,0,0,0,0,-1,580,1807,0,0
-637,-783,0,0,0,0,0,0,0,0,0,-1,587,1807,0,0
-630,-783,0,0,0,0,0,0,0,0,0,-1,594,1807,0,0
-623,-783,0,0,0,0,0,0,0,0,0,-1,601,1807,0,0
-616,-783,0,0,0,0,0,0,0,0,0,-1,608,1807,0,0
-609,-783,0,0,0,0,0,0,0,0,0,-1,615,1807,0,0
-602,-783,0,0,0,0,0,0,0,0,0,-1,622,1807,0,0
-595,-783,0,0,0,0,0,0,0,0,0,-1,629,1807,0,0
-588,-783,0,0,0,0,0,0,0,0,0,-1,636,1807,0,0
-581,-783,0,0,0,0,0,0,0,0,0,-1,643,1807,0,0
-574,-783,0,0,0,0,0,0,0,0,0,-1,650,1807,0,0
-567,-783,0,0,0,0,0,0,0,0,0,-1,657,1807,0,0
-560,-783,0,0,0,0,0,0,0,0,0,-1,664,1807,0,0
-553,-783,0,0,0,0,0,0,0,0,0,-1,671,1807,0,0
-546,-783,0,0,0,0,0,0,0,0,0,-1,678,1807,0,0
-539,-783,0,0,0,0,0,0,0,0,0,-1,685,1807,0,0
-532,-783,0,0,0,0,0,0,0,0,0,-1,692,1807,0,0
-525,-783,0,0,0,0,0,0,0,0,0,-1,699,1807,0,0
-518,-783,0,0,0,0,0,0,0,0,0,-1,706,1807,0,0
-511,-783,0,0,0,0,0,0,0,0,0,-1,713,1807,0,0
-504,-783,0,0,0,0,0,0,0,0,0,-1,720,1807,0,0
-497,-783,0,0,0,0,0,0,0,0,0,-1,727,1807,0,0
-490,-783,0,0,0,0,0,0,0,0,0,-1,734,1807,0,0
-483,-783,0,0,0,0,0,0,0,0,0,-1,741,1807,0,0
-476,-783,0,0,0,0,0,0,0,0,0,-1,748,1807,0,0
-469,-783,0,0,0,0,0,0,0,0,0,-1,755,1807,0,0
-462,-783,0,0,0,0,0,0,0,0,0,-1,762,1807,0,0
-455,-783,0,0,0,0,0,0,0,0,0,-1,769,1807,0,0
-448,-783,0,0,0,0,0,0,0,0,0,-1,776,1807,0,0
-441,-783,0,0,0,0,0,0,0,0,0,-1,783,1807,0,0
-434,-783,0,0,0,0,0,0,0,0,0,-1,790,1807,0,0
-427,-783,0,0,0,0,0,0,0,0,0,-1,797,1807,0,0
-420,-783,0,0,0,0,0,0,0,0,0,-1,804,1807,0,0
-413,-783,0,0,0,0,0,0,0,0,0,-1,811,1807,0,0
-406,-783,0,0,0,0,0,0,0,0,0,-1,818,1807,0,0
-399,-783,0,0,0,0,0,0,0,0,0,-1,825,1807,0,0
-392,-783,0,0,0,0,0,0,0,0,0,-1,832,1807,0,0
-385,-783,0,0,0,0,0,0,0,0,0,-1,839,1807,0,0
-378,-783,0,0,0,0,0,0,0,0,0,-1,846,1807,0,0
-371,-783,0,0,0,0,0,0,0,0,0,-1,853,1807,0,0
-364,-783,0,0,0,0,0,0,0,0,0,-1,860,1807,0,0
-357,-783,0,0,0,0,0,0,0,0,0,-1,867,1807,0,0
-350,-783,0,0,0,0,0,0,0,0,0,-1,874,1807,0,0
-343,-783,0,0,0,0,0,0,0,0,0,-1,881,1807,0,0
-336,-783,0,0,0,0,0,0,0,0,0,-1,888,1807,0,0
-329,-783,0,0,0,0,0,0,0,0,0,-1,895,1807,0,0
-322,-783,0,0,0,0,0,0,0,0,0,-1,902,1807,0,0
-315,-783,0,0,0,0,0,0,0,0,0,-1,909,1807,0,0
-308,-783,0,0,0,0,0,0,0,0,0,-1,916,1807,0,0
-301,-783,0,0,0,0,0,0,0,0,0,-1,923,1807,0,0
-294,-783,0,0,0,0,0,0,0,0,0,-1,930,1807,0,0
-287,-783,0,0,0,0,0,0,0,0,0,-1,937,1807,0,0
-280,-783,0,0,0,0,0,0,0,0,0,-1,944,1807,0,0
-273,-783,0,0,0,0,0,0,0,0,0,-1,951,1807,0,0
-266,-783,0,0,0,0,0,0,0,0,0,-1,958,1807,0,0
-259,-783,0,0,0,0,0,0,0,0,0,-1,965,1807,0,0
-252,-783,0,0,0,0,0,0,0,0,0,-1,972,1807,0,0
-245,-783,0,0,0,0,0,0,0,0,0,-1,979,1807,0,0
-238,-783,0,0,0,0,0,0,0,0,0,-1,986,1807,0,0
-231,-783,0,0,0,0,0,0,0,0,0,-1,993,1807,0,0
-224,-783,0,0,0,0,0,0,0,0,0,-1,1000,1807,0,0
-217,-783,0,0,0,0,0,0,0,0,0,-1,1007,1807,0,0
-210,-783,0,0,0,0,0,0,0,0,0,-1,1014,1807,0,0
-203,-783,0,0,0,0,0,0,0,0,0,-1,1021,1807,0,0
-196,-783,0,0,0,0,0,0,0,0,0,-1,1028,1807,0,0
-189,-783,0,0,0,0,0,0,0,0,0,-1,1035,1807,0,0
-182,-783,0,0,0,0,0,0,0,0,0,-1,1042,1807,0,0
-175,-783,0,0,0,0,0,0,0,0,0,-1,1049,1807,0,0
-168,-783,0,0,0,0,0,0,0,0,0,-1,1056,1807,0,0
-161,-783,0,0,0,0,0,0,0,0,0,-1,1063,1807,0,0
-154,-783,0,0,0,0,0,0,0,0,0,-1,1070,1807,0,0
-147,-783,0,0,0,0,0,0,0,0,0,-1,1077,1807,0,0
-140,-783,0,0,0,0,0,0,0,0,0,-1,1084,1807,0,0
-133,-783,0,0,0,0,0,0,0,0,0,-1,1091,1807,0,0
-126,-783,0,0,0,0,0,0,0,0,0,-1,1098,1807,0,0
-119,-783,0,0,0,0,0,0,0,0,0,-1,1105,1807,0,0
-112,-783,0.261963,-0.172607,0.0174049,-0.0277022,0.0202206,0.0251422,-0.0354396,0.365456,0.0351449,0.0428619,1112,1807,0.261945,0.172594
-105,-783,0.440918,0.177856,0.0144252,-0.031469,0.0182117,0.0207738,-0.0378176,0.335424,0.0343015,0.0411559,1119,1807,0.440966,-0.177797
-98,-783,-0.415649,1.86804,0,0,0,0,0,0,0,-1,1126,1807,-0.415687,-1.86808
-91,-783,-1.08362,1.59863,0.0142535,-0.0349264,0.0138827,0.0179017,-0.0385746,0.256979,0.0333268,0.0421359,1133,1807,-1.08365,-1.5986
-84,-783,-1.41113,1.22046,0.0147238,-0.0332132,0.00995314,0.0167082,-0.0351976,0.196796,0.030595,0.0390568,1140,1807,-1.41112,-1.22043
-77,-783,-1.60449,0.848389,0.0122877,-0.0295732,0.00363622,0.0126012,-0.0298867,0.0860061,0.025198,0.0409421,1147,1807,-1.60451,-0.84833
-70,-783,-0.123657,-0.442505,0.00725373,-0.0255225,-0.00176286,0.00734827,-0.0256171,-0.0535788,0.019983,0.0410049,1154,1807,-0.123641,0.4425
-63,-783,-0.0493164,-0.558472,0.000953353,-0.0214426,-0.00546236,0.00221459,-0.0227038,-0.226919,0.0159255,0.0448012,1161,1807,-0.0493707,0.55844
-56,-783,-0.00268555,-1.04419,0,0,0,0,0,0,0,-1,1168,1807,-0.0026808,1.04422
-49,-783,-0.277344,2.27625,0,0,0,0,0,0,0,-1,1175,1807,-0.277335,-2.27623
-42,-783,-0.24231,1.92139,-0.0136305,-0.0110178,-0.0132445,0.000984624,-0.025633,-0.834555,0.0174261,0.0466642,1182,1807,-0.242264,-1.92136
-35,-783,-0.235229,1.4447,-0.0174527,-0.00798034,-0.0145171,0.00255366,-0.0279867,-0.943078,0.0195646,0.0496893,1189,1807,-0.235225,-1.44471
-28,-783,-0.279785,1.08984,-0.0216533,-0.00677607,-0.0143013,0.0019055,-0.0303349,-1.02521,0.0208874,0.0484079,1196,1807,-0.279794,-1.0899
-21,-783,-0.368652,0.702148,-0.0257936,-0.00630791,-0.0126848,-5.61681e-05,-0.0320454,-1.11288,0.0213449,0.0441715,1203,1807,-0.368676,-0.702201
-14,-783,-0.569336,0.250122,-0.0277919,-0.00659285,-0.00897535,-0.00330328,-0.0310815,-1.21949,0.0197124,0.042654,1210,1807,-0.569334,-0.250111
-7,-783,-0.791626,0.119995,-0.0275591,-0.00635862,-0.00493366,-0.00526672,-0.028651,-1.35299,0.0176096,0.045007,1217,1807,-0.791598,-0.11998
0,-783,-0.720337,0.185669,0,0,0,0,0,0,0,-1,1224,1807,-0.720358,-0.185725
7,-783,-0.609253,0.176147,0,0,0,0,0,0,0,-1,1231,1807,-0.609228,-0.176153
14,-783,-0.502441,0.17749,0,0,0,0,0,0,0,-1,1238,1807,-0.502456,-0.177551
21,-783,-1.27771,0.158325,0,0,0,0,0,0,0,-1,1245,1807,-1.27767,-0.158357
28,-783,-1.07227,1.3175,0,0,0,0,0,0,0,-1,1252,1807,-1.07225,-1.31753
35,-783,-1.51709,-1.10352,0,0,0,0,0,0,0,-1,1259,1807,-1.51707,1.10351
42,-783,-1.55591,-0.663086,0,0,0,0,0,0,0,-1,1266,1807,-1.55589,0.663144
49,-783,-1.4187,-0.128174,0,0,0,0,0,0,0,-1,1273,1807,-1.41867,0.128223
56,-783,-1.47632,0.754028,0,0,0,0,0,0,0,-1,1280,1807,-1.47636,-0.754016
63,-783,-1.57581,1.60229,0,0,0,0,0,0,0,-1,1287,1807,-1.57582,-1.60227
70,-783,-0.134644,1.26953,0,0,0,0,0,0,0,-1,1294,1807,-0.13459,-1.26951
77,-783,-0.467163,1.14392,0,0,0,0,0,0,0,-1,1301,1807,-0.467102,-1.14397
84,-783,-0.915894,-0.569092,0,0,0,0,0,0,0,-1,1308,1807,-0.9159,0.569072
91,-783,-0.735352,-0.0474854,0.0195146,-0.0200414,0.0261978,0.0325618,-0.0330886,0.462068,0.0379037,0.0461559,1315,1807,-0.735353,0.0474804
98,-783,-0.528564,0.451294,0.0261345,-0.0249441,0.0234269,0.0352517,-0.0340613,0.371142,0.0400199,0.0450248,1322,1807,-0.52859,-0.451262
105,-783,-0.284668,0.973511,0.0346738,-0.0296478,0.0201116,0.0404445,-0.0354184,0.279424,0.0438315,0.0481265,1329,1807,-0.284672,-0.973504
112,-783,0.104736,1.71838,0.0435831,-0.0310442,0.0162158,0.0469544,-0.0344154,0.204978,0.0471644,0.04839,1336,1807,0.104702,-1.71833
119,-783,0.334229,2.51025,0.0509374,-0.0299745,0.011931,0.05266,-0.0316972,0.143392,0.0492024,0.0461747,1343,1807,0.334227,-2.51021
126,-783,0.406006,3.17285,0.0555366,-0.0282232,0.00733561,0.0561742,-0.0288608,0.0866995,0.049932,0.0477459,1350,1807,0.406004,-3.17283
133,-783,0.351318,3.58191,0.0564748,-0.0244154,0.00280583,0.056572,-0.0245126,0.0346314,0.0480185,0.0466183,1357,1807,0.351298,-3.58192
140,-783,1.50293,3.74646,0.0536892,-0.0194811,-0.00108612,0.0537053,-0.0194973,-0.0148394,0.0437747,0.0486911,1364,1807,1.50296,-3.7465
147,-783,2.30664,4.26758,0,0,0,0,0,0,0,-1,1371,1807,2.30668,-4.2676
154,-783,-0.819458,-0.183472,0,0,0,0,0,0,0,-1,1378,1807,-0.819428,0.183477
161,-783,-0.444214,0.12146,0.0352147,-0.00615059,-0.00695509,0.0363528,-0.00728869,-0.162199,0.0269948,0.045164,1385,1807,-0.444176,-0.12142
168,-783,0.136719,0.183838,0.0265366,-0.00252542,-0.00719692,0.0282212,-0.00421002,-0.229932,0.0203631,0.0447878,1392,1807,0.136724,-0.183791
175,-783,0.206543,0.37561,0.0178001,0.000481078,-0.00713829,0.020363,-0.00208181,-0.3447,0.0143198,0.0417576,1399,1807,0.206551,-0.375599
182,-783,0.185547,0.496582,0.00758059,0.00256122,-0.00801365,0.0134683,-0.00332654,-0.633648,0.0102689,0.0393925,1406,1807,0.185606,-0.496545
189,-783,0.0170898,0.221558,-0.00192773,0.00187833,-0.00815605,0.00835042,-0.00839982,-0.900011,0.00967077,0.0375036,1413,1807,0.0170887,-0.22151
196,-783,-0.237183,0.323975,-0.0104473,0.00233805,-0.00746965,0.00577706,-0.0138863,-1.13933,0.01167,0.0399304,1420,1807,-0.237228,-0.323989
203,-783,-0.42749,0.469971,0,0,0,0,0,0,0,-1,1427,1807,-0.427465,-0.469915
210,-783,0.564209,-0.182495,0,0,0,0,0,0,0,-1,1434,1807,0.564166,0.182553
217,-783,-0.635498,0.189209,0,0,0,0,0,0,0,-1,1441,1807,-0.635556,-0.189172
224,-783,1.79492,-0.859619,0,0,0,0,0,0,0,-1,1448,1807,1.79491,0.859629
231,-783,1.21265,-0.680664,0,0,0,0,0,0,0,-1,1455,1807,1.21265,0.680642
238,-783,0,0,0,0,0,0,0,0,0,-1,1462,1807,0,0
245,-783,0,0,0,0,0,0,0,0,0,-1,1469,1807,0,0
252,-783,0,0,0,0,0,0,0,0,0,-1,1476,1807,0,0
259,-783,0,0,0,0,0,0,0,0,0,-1,1483,1807,0,0
266,-783,0,0,0,0,0,0,0,0,0,-1,1490,1807,0,0
273,-783,0,0,0,0,0,0,0,0,0,-1,1497,1807,0,0
280,-783,0,0,0,0,0,0,0,0,0,-1,1504,1807,0,0
287,-783,0,0,0,0,0,0,0,0,0,-1,1511,1807,0,0
294,-783,0,0,0,0,0,0,0,0,0,-1,1518,1807,0,0
301,-783,0,0,0,0,0,0,0,0,0,-1,1525,1807,0,0
308,-783,0,0,0,0,0,0,0,0,0,-1,1532,1807,0,0
315,-783,0,0,0,0,0,0,0,0,0,-1,1539,1807,0,0
322,-783,0,0,0,0,0,0,0,0,0,-1,1546,1807,0,0
329,-783,0,0,0,0,0,0,0,0,0,-1,1553,1807,0,0
336,-783,0,0,0,0,0,0,0,0,0,-1,1560,1807,0,0
343,-783,0,0,0,0,0,0,0,0,0,-1,1567,1807,0,0
350,-783,0,0,0,0,0,0,0,0,0,-1,1574,1807,0,0
357,-783,0,0,0,0,0,0,0,0,0,-1,1581,1807,0,0
364,-783,0,0,0,0,0,0,0,0,0,-1,1588,1807,0,0
371,-783,0,0,0,0,0,0,0,0,0,-1,1595,1807,0,0
378,-783,0,0,0,0,0,0,0,0,0,-1,1602,1807,0,0
385,-783,0,0,0,0,0,0,0,0,0,-1,1609,1807,0,0
392,-783,0,0,0,0,0,0,0,0,0,-1,1616,1807,0,0
399,-783,0,0,0,0,0,0,0,0,0,-1,1623,1807,0,0
406,-783,0,0,0,0,0,0,0,0,0,-1,1630,1807,0,0
413,-783,0,0,0,0,0,0,0,0,0,-1,1637,1807,0,0
420,-783,0,0,0,0,0,0,0,0,0,-1,1644,1807,0,0
427,-783,0,0,0,0,0,0,0,0,0,-1,1651,1807,0,0
434,-783,0,0,0,0,0,0,0,0,0,-1,1658,1807,0,0
441,-783,0,0,0,0,0,0,0,0,0,-1,1665,1807,0,0
448,-783,0,0,0,0,0,0,0,0,0,-1,1672,1807,0,0
455,-783,0,0,0,0,0,0,0,0,0,-1,1679,1807,0,0
462,-783,0,0,0,0,0,0,0,0,0,-1,1686,1807,0,0
469,-783,0,0,0,0,0,0,0,0,0,-1,1693,1807,0,0
476,-783,0,0,0,0,0,0,0,0,0,-1,1700,1807,0,0
483,-783,0,0,0,0,0,0,0,0,0,-1,1707,1807,0,0
490,-783,0,0,0,0,0,0,0,0,0,-1,1714,1807,0,0
497,-783,0,0,0,0,0,0,0,0,0,-1,1721,1807,0,0
504,-783,0,0,0,0,0,0,0,0,0,-1,1728,1807,0,0
511,-783,0,0,0,0,0,0,0,0,0,-1,1735,1807,0,0
518,-783,0,0,0,0,0,0,0,0,0,-1,1742,1807,0,0
525,-783,0,0,0,0,0,0,0,0,0,-1,1749,1807,0,0
532,-783,0,0,0,0,0,0,0,0,0,-1,1756,1807,0,0
539,-783,0,0,0,0,0,0,0,0,0,-1,1763,1807,0,0
546,-783,0,0,0,0,0,0,0,0,0,-1,1770,1807,0,0
553,-783,0,0,0,0,0,0,0,0,0,-1,1777,1807,0,0
560,-783,0,0,0,0,0,0,0,0,0,-1,1784,1807,0,0
567,-783,0,0,0,0,0,0,0,0,0,-1,1791,1807,0,0
574,-783,0,0,0,0,0,0,0,0,0,-1,1798,1807,0,0
581,-783,0,0,0,0,0,0,0,0,0,-1,1805,1807,0,0
588,-783,0,0,0,0,0,0,0,0,0,-1,1812,1807,0,0
595,-783,0,0,0,0,0,0,0,0,0,-1,1819,1807,0,0
602,-783,0,0,0,0,0,0,0,0,0,-1,1826,1807,0,0
609,-783,0,0,0,0,0,0,0,0,0,-1,1833,1807,0,0
616,-783,0,0,0,0,0,0,0,0,0,-1,1840,1807,0,0
623,-783,0,0,0,0,0,0,0,0,0,-1,1847,1807,0,0
630,-783,0,0,0,0,0,0,0,0,0,-1,1854,1807,0,0
637,-783,0,0,0,0,0,0,0,0,0,-1,1861,1807,0,0
644,-783,0,0,0,0,0,0,0,0,0,-1,1868,1807,0,0
651,-783,0,0,0,0,0,0,0,0,0,-1,1875,1807,0,0
658,-783,0,0,0,0,0,0,0,0,0,-1,1882,1807,0,0
665,-783,0,0,0,0,0,0,0,0,0,-1,1889,1807,0,0
672,-783,0,0,0,0,0,0,0,0,0,-1,1896,1807,0,0
679,-783,0,0,0,0,0,0,0,0,0,-1,1903,1807,0,0
686,-783,0,0,0,0,0,0,0,0,0,-1,1910,1807,0,0
693,-783,0,0,0,0,0,0,0,0,0,-1,1917,1807,0,0
700,-783,0,0,0,0,0,0,0,0,0,-1,1924,1807,0,0
707,-783,0,0,0,0,0,0,0,0,0,-1,1931,1807,0,0
714,-783,0,0,0,0,0,0,0,0,0,-1,1938,1807,0,0
721,-783,0,0,0,0,0,0,0,0,0,-1,1945,1807,0,0
728,-783,0,0,0,0,0,0,0,0,0,-1,1952,1807,0,0
735,-783,0,0,0,0,0,0,0,0,0,-1,1959,1807,0,0
742,-783,0,0,0,0,0,0,0,0,0,-1,1966,1807,0,0
749,-783,0,0,0,0,0,0,0,0,0,-1,1973,1807,0,0
756,-783,0,0,0,0,0,0,0,0,0,-1,1980,1807,0,0
763,-783,0,0,0,0,0,0,0,0,0,-1,1987,1807,0,0
770,-783,0,0,0,0,0,0,0,0,0,-1,1994,1807,0,0
777,-783,0,0,0,0,0,0,0,0,0,-1,2001,1807,0,0
784,-783,0,0,0,0,0,0,0,0,0,-1,2008,1807,0,0
791,-783,0,0,0,0,0,0,0,0,0,-1,2015,1807,0,0
798,-783,0,0,0,0,0,0,0,0,0,-1,2022,1807,0,0
805,-783,0,0,0,0,0,0,0,0,0,-1,2029,1807,0,0
812,-783,0,0,0,0,0,0,0,0,0,-1,2036,1807,0,0
-700,-790,0,0,0,0,0,0,0,0,0,-1,524,1814,0,0
-693,-790,0,0,0,0,0,0,0,0,0,-1,531,1814,0,0
-686,-790,0,0,0,0,0,0,0,0,0,-1,538,1814,0,0
-679,-790,0,0,0,0,0,0,0,0,0,-1,545,1814,0,0
-672,-790,0,0,0,0,0,0,0,0,0,-1,552,1814,0,0
-665,-790,0,0,0,0,0,0,0,0,0,-1,559,1814,0,0
-658,-790,0,0,0,0,0,0,0,0,0,-1,566,1814,0,0
-651,-790,0,0,0,0,0,0,0,0,0,-1,573,1814,0,0
-644,-790,0,0,0,0,0,0,0,0,0,-1,580,1814,0,0
-637,-790,0,0,0,0,0,0,0,0,0,-1,587,1814,0,0
-630,-790,0,0,0,0,0,0,0,0,0,-1,594,1814,0,0
-623,-790,0,0,0,0,0,0,0,0,0,-1,601,1814,0,0
-616,-790,0,0,0,0,0,0,0,0,0,-1,608,1814,0,0
-609,-790,0,0,0,0,0,0,0,0,0,-1,615,1814,0,0
-602,-790,0,0,0,0,0,0,0,0,0,-1,622,1814,0,0
-595,-790,0,0,0,0,0,0,0,0,0,-1,629,1814,0,0
-588,-790,0,0,0,0,0,0,0,0,0,-1,636,1814,0,0
-581,-790,0,0,0,0,0,0,0,0,0,-1,643,1814,0,0
-574,-790,0,0,0,0,0,0,0,0,0,-1,650,1814,0,0
-567,-790,0,0,0,0,0,0,0,0,0,-1,657,1814,0,0
-560,-790,0,0,0,0,0,0,0,0,0,-1,664,1814,0,0
-553,-790,0,0,0,0,0,0,0,0,0,-1,671,1814,0,0
-546,-790,0,0,0,0,0,0,0,0,0,-1,678,1814,0,0
-539,-790,0,0,0,0,0,0,0,0,0,-1,685,1814,0,0
-532,-790,0,0,0,0,0,0,0,0,0,-1,692,1814,0,0
-525,-790,0,0,0,0,0,0,0,0,0,-1,699,1814,0,0
-518,-790,0,0,0,0,0,0,0,0,0,-1,706,1814,0,0
-511,-790,0,0,0,0,0,0,0,0,0,-1,713,1814,0,0
-504,-790,0,0,0,0,0,0,0,0,0,-1,720,1814,0,0
-497,-790,0,0,0,0,0,0,0,0,0,-1,727,1814,0,0
-490,-790,0,0,0,0,0,0,0,0,0,-1,734,1814,0,0
-483,-790,0,0,0,0,0,0,0,0,0,-1,741,1814,0,0
-476,-790,0,0,0,0,0,0,0,0,0,-1,748,1814,0,0
-469,-790,0,0,0,0,0,0,0,0,0,-1,755,1814,0,0
-462,-790,0,0,0,0,0,0,0,0,0,-1,762,1814,0,0
-455,-790,0,0,0,0,0,0,0,0,0,-1,769,1814,0,0
-448,-790,0,0,0,0,0,0,0,0,0,-1,776,1814,0,0
-441,-790,0,0,0,0,0,0,0,0,0,-1,783,1814,0,0
-434,-790,0,0,0,0,0,0,0,0,0,-1,790,1814,0,0
-427,-790,0,0,0,0,0,0,0,0,0,-1,797,1814,0,0
-420,-790,0,0,0,0,0,0,0,0,0,-1,804,1814,0,0
-413,-790,0,0,0,0,0,0,0,0,0,-1,811,1814,0,0
-406,-790,0,0,0,0,0,0,0,0,0,-1,818,1814,0,0
-399,-790,0,0,0,0,0,0,0,0,0,-1,825,1814,0,0
-392,-790,0,0,0,0,0,0,0,0,0,-1,832,1814,0,0
-385,-790,0,0,0,0,0,0,0,0,0,-1,839,1814,0,0
-378,-790,0,0,0,0,0,0,0,0,0,-1,846,1814,0,0
-371,-790,0,0,0,0,0,0,0,0,0,-1,853,1814,0,0
-364,-790,0,0,0,0,0,0,0,0,0,-1,860,1814,0,0
-357,-790,0,0,0,0,0,0,0,0,0,-1,867,1814,0,0
-350,-790,0,0,0,0,0,0,0,0,0,-1,874,1814,0,0
-343,-790,0,0,0,0,0,0,0,0,0,-1,881,1814,0,0
-336,-790,0,0,0,0,0,0,0,0,0,-1,888,1814,0,0
-329,-790,0,0,0,0,0,0,0,0,0,-1,895,1814,0,0
-322,-790,0,0,0,0,0,0,0,0,0,-1,902,1814,0,0
-315,-790,0,0,0,0,0,0,0,0,0,-1,909,1814,0,0
-308,-790,0,0,0,0,0,0,0,0,0,-1,916,1814,0,0
-301,-790,0,0,0,0,0,0,0,0,0,-1,923,1814,0,0
-294,-790,0,0,0,0,0,0,0,0,0,-1,930,1814,0,0
-287,-790,0,0,0,0,0,0,0,0,0,-1,937,1814,0,0
-280,-790,0,0,0,0,0,0,0,0,0,-1,944,1814,0,0
-273,-790,0,0,0,0,0,0,0,0,0,-1,951,1814,0,0
-266,-790,0,0,0,0,0,0,0,0,0,-1,958,1814,0,0
-259,-790,0,0,0,0,0,0,0,0,0,-1,965,1814,0,0
-252,-790,0,0,0,0,0,0,0,0,0,-1,972,1814,0,0
-245,-790,0,0,0,0,0,0,0,0,0,-1,979,1814,0,0
-238,-790,0,0,0,0,0,0,0,0,0,-1,986,1814,0,0
-231,-790,0,0,0,0,0,0,0,0,0,-1,993,1814,0,0
-224,-790,0,0,0,0,0,0,0,0,0,-1,1000,1814,0,0
-217,-790,0,0,0,0,0,0,0,0,0,-1,1007,1814,0,0
-210,-790,0,0,0,0,0,0,0,0,0,-1,1014,1814,0,0
-203,-790,0,0,0,0,0,0,0,0,0,-1,1021,1814,0,0
-196,-790,0,0,0,0,0,0,0,0,0,-1,1028,1814,0,0
-189,-790,0,0,0,0,0,0,0,0,0,-1,1035,1814,0,0
-182,-790,0,0,0,0,0,0,0,0,0,-1,1042,1814,0,0
-175,-790,0,0,0,0,0,0,0,0,0,-1,1049,1814,0,0
-168,-790,0,0,0,0,0,0,0,0,0,-1,1056,1814,0,0
-161,-790,0,0,0,0,0,0,0,0,0,-1,1063,1814,0,0
-154,-790,0,0,0,0,0,0,0,0,0,-1,1070,1814,0,0
-147,-790,0,0,0,0,0,0,0,0,0,-1,1077,1814,0,0
-140,-790,0,0,0,0,0,0,0,0,0,-1,1084,1814,0,0
-133,-790,0,0,0,0,0,0,0,0,0,-1,1091,1814,0,0
-126,-790,0,0,0,0,0,0,0,0,0,-1,1098,1814,0,0
-119,-790,0,0,0,0,0,0,0,0,0,-1,1105,1814,0,0
-112,-790,0,0,0,0,0,0,0,0,0,-1,1112,1814,0,0
-105,-790,0,0,0,0,0,0,0,0,0,-1,1119,1814,0,0
-98,-790,0,0,0,0,0,0,0,0,0,-1,1126,1814,0,0
-91,-790,0,0,0,0,0,0,0,0,0,-1,1133,1814,0,0
-84,-790,0,0,0,0,0,0,0,0,0,-1,1140,1814,0,0
-77,-790,-2.52356,1.20911,0,0,0,0,0,0,0,-1,1147,1814,-2.52357,-1.20909
-70,-790,0.0211182,0.332275,0,0,0,0,0,0,0,-1,1154,1814,0.0211358,-0.332327
-63,-790,-0.205566,-0.442993,0,0,0,0,0,0,0,-1,1161,1814,-0.20555,0.442991
-56,-790,-0.432251,-1.21826,0,0,0,0,0,0,0,-1,1168,1814,-0.432236,1.21831
-49,-790,-0.235229,2.08508,0,0,0,0,0,0,0,-1,1175,1814,-0.235169,-2.08503
-42,-790,-0.205566,1.8833,0,0,0,0,0,0,0,-1,1182,1814,-0.205575,-1.88329
-35,-790,-0.171753,1.26697,0,0,0,0,0,0,0,-1,1189,1814,-0.171749,-1.26694
-28,-790,-0.216431,0.845459,-0.0294773,-0.00816208,-0.0179742,0.00207665,-0.039716,-1.053,0.027196,0.0498709,1196,1814,-0.216464,-0.845479
-21,-790,-0.34436,0.480103,-0.0350601,-0.00739304,-0.0161057,4.54858e-06,-0.0424577,-1.14022,0.0283067,0.0449326,1203,1814,-0.344388,-0.480087
-14,-790,-1.07959,0.332397,-0.0380758,-0.00755805,-0.0116377,-0.0036266,-0.0420073,-1.24501,0.0268776,0.0410036,1210,1814,-1.07954,-0.332449
-7,-790,-0.997314,0.130981,0,0,0,0,0,0,0,-1,1217,1814,-0.997282,-0.131015
0,-790,-0.881836,0.298584,0,0,0,0,0,0,0,-1,1224,1814,-0.881886,-0.29862
7,-790,-0.813843,0.320313,0,0,0,0,0,0,0,-1,1231,1814,-0.813865,-0.320317
14,-790,-0.74585,0.342041,0,0,0,0,0,0,0,-1,1238,1814,-0.745844,-0.342013
21,-790,-1.50195,0.625,0,0,0,0,0,0,0,-1,1245,1814,-1.50199,-0.625047
28,-790,-1.99854,1.42053,0,0,0,0,0,0,0,-1,1252,1814,-1.99855,-1.42056
35,-790,-2.28638,1.65588,0,0,0,0,0,0,0,-1,1259,1814,-2.28641,-1.6559
42,-790,-2.25159,-1.09949,0,0,0,0,0,0,0,-1,1266,1814,-2.25159,1.09946
49,-790,-1.76306,-0.716675,0,0,0,0,0,0,0,-1,1273,1814,-1.76311,0.716642
56,-790,-1.80652,0.0949707,0,0,0,0,0,0,0,-1,1280,1814,-1.80654,-0.0949935
63,-790,-0.530884,2.62671,0,0,0,0,0,0,0,-1,1287,1814,-0.530922,-2.62669
70,-790,-0.0620117,2.43677,0,0,0,0,0,0,0,-1,1294,1814,-0.0620123,-2.43671
77,-790,-0.236328,2.03418,0,0,0,0,0,0,0,-1,1301,1814,-0.236275,-2.03422
84,-790,-0.320068,1.51074,0,0,0,0,0,0,0,-1,1308,1814,-0.320074,-1.51074
91,-790,-0.863159,0.291504,0,0,0,0,0,0,0,-1,1315,1814,-0.863133,-0.291518
98,-790,-0.657104,0.780273,0,0,0,0,0,0,0,-1,1322,1814,-0.657095,-0.780294
105,-790,-0.276367,1.25049,0,0,0,0,0,0,0,-1,1329,1814,-0.276325,-1.25051
112,-790,0.280151,1.75073,0,0,0,0,0,0,0,-1,1336,1814,0.280107,-1.75071
119,-790,0.458984,2.54053,0,0,0,0,0,0,0,-1,1343,1814,0.458943,-2.54052
126,-790,0.596924,3.33154,0.07632,-0.0214536,0.00797848,0.0769668,-0.0221004,0.0808884,0.0600493,0.0465623,1350,1814,0.596984,-3.3316
133,-790,1.05676,5.0415,0.0770985,-0.0169619,0.00251748,0.0771658,-0.0170293,0.026739,0.0579603,0.0476709,1357,1814,1.05672,-5.04151
140,-790,2.04846,3.89832,0.073056,-0.0114175,-0.0018206,0.0730952,-0.0114567,-0.021539,0.0529637,0.0461782,1364,1814,2.04849,-3.89827
147,-790,2.94519,4.302,0,0,0,0,0,0,0,-1,1371,1814,2.94513,-4.30204
154,-790,-0.741699,-0.261963,0,0,0,0,0,0,0,-1,1378,1814,-0.741738,0.261989
161,-790,0.11731,0.0447998,0,0,0,0,0,0,0,-1,1385,1814,0.117323,-0.0448323
168,-790,0.150635,0.141235,0.0362759,0.00456001,-0.00756159,0.0379865,0.00284946,-0.222471,0.0244299,0.0488411,1392,1814,0.150669,-0.141178
175,-790,0.247559,1.06702,0.0244247,0.00633362,-0.00700676,0.026821,0.00393729,-0.329533,0.0167235,0.0465986,1399,1814,0.247617,-1.06699
182,-790,0.198242,0.597168,0.0111165,0.00700123,-0.00800844,0.0173274,0.000790319,-0.659651,0.0112974,0.0418265,1406,1814,0.198285,-0.597124
189,-790,-0.0379639,0.160034,-0.00129357,0.00361231,-0.00793516,0.00946501,-0.00714627,-0.935301,0.00962162,0.0402964,1413,1814,-0.0379927,-0.159999
196,-790,-0.300903,0.6073,0,0,0,0,0,0,0,-1,1420,1814,-0.300886,-0.607285
203,-790,0,0,0,0,0,0,0,0,0,-1,1427,1814,0,0
210,-790,0,0,0,0,0,0,0,0,0,-1,1434,1814,0,0
217,-790,0,0,0,0,0,0,0,0,0,-1,1441,1814,0,0
224,-790,0,0,0,0,0,0,0,0,0,-1,1448,1814,0,0
231,-790,0,0,0,0,0,0,0,0,0,-1,1455,1814,0,0
238,-790,0,0,0,0,0,0,0,0,0,-1,1462,1814,0,0
245,-790,0,0,0,0,0,0,0,0,0,-1,1469,1814,0,0
252,-790,0,0,0,0,0,0,0,0,0,-1,1476,1814,0,0
259,-790,0,0,0,0,0,0,0,0,0,-1,1483,1814,0,0
266,-790,0,0,0,0,0,0,0,0,0,-1,1490,1814,0,0
273,-790,0,0,0,0,0,0,0,0,0,-1,1497,1814,0,0
280,-790,0,0,0,0,0,0,0,0,0,-1,1504,1814,0,0
287,-790,0,0,0,0,0,0,0,0,0,-1,1511,1814,0,0
294,-790,0,0,0,0,0,0,0,0,0,-1,1518,1814,0,0
301,-790,0,0,0,0,0,0,0,0,0,-1,1525,1814,0,0
308,-790,0,0,0,0,0,0,0,0,0,-1,1532,1814,0,0
315,-790,0,0,0,0,0,0,0,0,0,-1,1539,1814,0,0
322,-790,0,0,0,0,0,0,0,0,0,-1,1546,1814,0,0
329,-790,0,0,0,0,0,0,0,0,0,-1,1553,1814,0,0
336,-790,0,0,0,0,0,0,0,0,0,-1,1560,1814,0,0
343,-790,0,0,0,0,0,0,0,0,0,-1,1567,1814,0,0
350,-790,0,0,0,0,0,0,0,0,0,-1,1574,1814,0,0
357,-790,0,0,0,0,0,0,0,0,0,-1,1581,1814,0,0
364,-790,0,0,0,0,0,0,0,0,0,-1,1588,1814,0,0
371,-790,0,0,0,0,0,0,0,0,0,-1,1595,1814,0,0
378,-790,0,0,0,0,0,0,0,0,0,-1,1602,1814,0,0
385,-790,0,0,0,0,0,0,0,0,0,-1,1609,1814,0,0
392,-790,0,0,0,0,0,0,0,0,0,-1,1616,1814,0,0
399,-790,0,0,0,0,0,0,0,0,0,-1,1623,1814,0,0
406,-790,0,0,0,0,0,0,0,0,0,-1,1630,1814,0,0
413,-790,0,0,0,0,0,0,0,0,0,-1,1637,1814,0,0
420,-790,0,0,0,0,0,0,0,0,0,-1,1644,1814,0,0
427,-790,0,0,0,0,0,0,0,0,0,-1,1651,1814,0,0
434,-790,0,0,0,0,0,0,0,0,0,-1,1658,1814,0,0
441,-790,0,0,0,0,0,0,0,0,0,-1,1665,1814,0,0
448,-790,0,0,0,0,0,0,0,0,0,-1,1672,1814,0,0
455,-790,0,0,0,0,0,0,0,0,0,-1,1679,1814,0,0
462,-790,0,0,0,0,0,0,0,0,0,-1,1686,1814,0,0
469,-790,0,0,0,0,0,0,0,0,0,-1,1693,1814,0,0
476,-790,0,0,0,0,0,0,0,0,0,-1,1700,1814,0,0
483,-790,0,0,0,0,0,0,0,0,0,-1,1707,1814,0,0
490,-790,0,0,0,0,0,0,0,0,0,-1,1714,1814,0,0
497,-790,0,0,0,0,0,0,0,0,0,-1,1721,1814,0,0
504,-790,0,0,0,0,0,0,0,0,0,-1,1728,1814,0,0
511,-790,0,0,0,0,0,0,0,0,0,-1,1735,1814,0,0
518,-790,0,0,0,0,0,0,0,0,0,-1,1742,1814,0,0
525,-790,0,0,0,0,0,0,0,0,0,-1,1749,1814,0,0
532,-790,0,0,0,0,0,0,0,0,0,-1,1756,1814,0,0
539,-790,0,0,0,0,0,0,0,0,0,-1,1763,1814,0,0
546,-790,0,0,0,0,0,0,0,0,0,-1,1770,1814,0,0
553,-790,0,0,0,0,0,0,0,0,0,-1,1777,1814,0,0
560,-790,0,0,0,0,0,0,0,0,0,-1,1784,1814,0,0
567,-790,0,0,0,0,0,0,0,0,0,-1,1791,1814,0,0
574,-790,0,0,0,0,0,0,0,0,0,-1,1798,1814,0,0
581,-790,0,0,0,0,0,0,0,0,0,-1,1805,1814,0,0
588,-790,0,0,0,0,0,0,0,0,0,-1,1812,1814,0,0
595,-790,0,0,0,0,0,0,0,0,0,-1,1819,1814,0,0
602,-790,0,0,0,0,0,0,0,0,0,-1,1826,1814,0,0
609,-790,0,0,0,0,0,0,0,0,0,-1,1833,1814,0,0
616,-790,0,0,0,0,0,0,0,0,0,-1,1840,1814,0,0
623,-790,0,0,0,0,0,0,0,0,0,-1,1847,1814,0,0
630,-790,0,0,0,0,0,0,0,0,0,-1,1854,1814,0,0
637,-790,0,0,0,0,0,0,0,0,0,-1,1861,1814,0,0
644,-790,0,0,0,0,0,0,0,0,0,-1,1868,1814,0,0
651,-790,0,0,0,0,0,0,0,0,0,-1,1875,1814,0,0
658,-790,0,0,0,0,0,0,0,0,0,-1,1882,1814,0,0
665,-790,0,0,0,0,0,0,0,0,0,-1,1889,1814,0,0
672,-790,0,0,0,0,0,0,0,0,0,-1,1896,1814,0,0
679,-790,0,0,0,0,0,0,0,0,0,-1,1903,1814,0,0
686,-790,0,0,0,0,0,0,0,0,0,-1,1910,1814,0,0
693,-790,0,0,0,0,0,0,0,0,0,-1,1917,1814,0,0
700,-790,0,0,0,0,0,0,0,0,0,-1,1924,1814,0,0
707,-790,0,0,0,0,0,0,0,0,0,-1,1931,1814,0,0
714,-790,0,0,0,0,0,0,0,0,0,-1,1938,1814,0,0
721,-790,0,0,0,0,0,0,0,0,0,-1,1945,1814,0,0
728,-790,0,0,0,0,0,0,0,0,0,-1,1952,1814,0,0
735,-790,0,0,0,0,0,0,0,0,0,-1,1959,1814,0,0
742,-790,0,0,0,0,0,0,0,0,0,-1,1966,1814,0,0
749,-790,0,0,0,0,0,0,0,0,0,-1,1973,1814,0,0
756,-790,0,0,0,0,0,0,0,0,0,-1,1980,1814,0,0
763,-790,0,0,0,0,0,0,0,0,0,-1,1987,1814,0,0
770,-790,0,0,0,0,0,0,0,0,0,-1,1994,1814,0,0
777,-790,0,0,0,0,0,0,0,0,0,-1,2001,1814,0,0
784,-790,0,0,0,0,0,0,0,0,0,-1,2008,1814,0,0
791,-790,0,0,0,0,0,0,0,0,0,-1,2015,1814,0,0
798,-790,0,0,0,0,0,0,0,0,0,-1,2022,1814,0,0
805,-790,0,0,0,0,0,0,0,0,0,-1,2029,1814,0,0
812,-790,0,0,0,0,0,0,0,0,0,-1,2036,1814,0,0
-700,-797,0,0,0,0,0,0,0,0,0,-1,524,1821,0,0
-693,-797,0,0,0,0,0,0,0,0,0,-1,531,1821,0,0
-686,-797,0,0,0,0,0,0,0,0,0,-1,538,1821,0,0
-679,-797,0,0,0,0,0,0,0,0,0,-1,545,1821,0,0
-672,-797,0,0,0,0,0,0,0,0,0,-1,552,1821,0,0
-665,-797,0,0,0,0,0,0,0,0,0,-1,559,1821,0,0
-658,-797,0,0,0,0,0,0,0,0,0,-1,566,1821,0,0
-651,-797,0,0,0,0,0,0,0,0,0,-1,573,1821,0,0
-644,-797,0,0,0,0,0,0,0,0,0,-1,580,1821,0,0
-637,-797,0,0,0,0,0,0,0,0,0,-1,587,1821,0,0
-630,-797,0,0,0,0,0,0,0,0,0,-1,594,1821,0,0
-623,-797,0,0,0,0,0,0,0,0,0,-1,601,1821,0,0
-616,-797,0,0,0,0,0,0,0,0,0,-1,608,1821,0,0
-609,-797,0,0,0,0,0,0,0,0,0,-1,615,1821,0,0
-602,-797,0,0,0,0,0,0,0,0,0,-1,622,1821,0,0
-595,-797,0,0,0,0,0,0,0,0,0,-1,629,1821,0,0
-588,-797,0,0,0,0,0,0,0,0,0,-1,636,1821,0,0
-581,-797,0,0,0,0,0,0,0,0,0,-1,643,1821,0,0
-574,-797,0,0,0,0,0,0,0,0,0,-1,650,1821,0,0
-567,-797,0,0,0,0,0,0,0,0,0,-1,657,1821,0,0
-560,-797,0,0,0,0,0,0,0,0,0,-1,664,1821,0,0
-553,-797,0,0,0,0,0,0,0,0,0,-1,671,1821,0,0
-546,-797,0,0,0,0,0,0,0,0,0,-1,678,1821,0,0
-539,-797,0,0,0,0,0,0,0,0,0,-1,685,1821,0,0
-532,-797,0,0,0,0,0,0,0,0,0,-1,692,1821,0,0
-525,-797,0,0,0,0,0,0,0,0,0,-1,699,1821,0,0
-518,-797,0,0,0,0,0,0,0,0,0,-1,706,1821,0,0
-511,-797,0,0,0,0,0,0,0,0,0,-1,713,1821,0,0
-504,-797,0,0,0,0,0,0,0,0,0,-1,720,1821,0,0
-497,-797,0,0,0,0,0,0,0,0,0,-1,727,1821,0,0
-490,-797,0,0,0,0,0,0,0,0,0,-1,734,1821,0,0
-483,-797,0,0,0,0,0,0,0,0,0,-1,741,1821,0,0
-476,-797,0,0,0,0,0,0,0,0,0,-1,748,1821,0,0
-469,-797,0,0,0,0,0,0,0,0,0,-1,755,1821,0,0
-462,-797,0,0,0,0,0,0,0,0,0,-1,762,1821,0,0
-455,-797,0,0,0,0,0,0,0,0,0,-1,769,1821,0,0
-448,-797,0,0,0,0,0,0,0,0,0,-1,776,1821,0,0
-441,-797,0,0,0,0,0,0,0,0,0,-1,783,1821,0,0
-434,-797,0,0,0,0,0,0,0,0,0,-1,790,1821,0,0
-427,-797,0,0,0,0,0,0,0,0,0,-1,797,1821,0,0
-420,-797,0,0,0,0,0,0,0,0,0,-1,804,1821,0,0
-413,-797,0,0,0,0,0,0,0,0,0,-1,811,1821,0,0
-406,-797,0,0,0,0,0,0,0,0,0,-1,818,1821,0,0
-399,-797,0,0,0,0,0,0,0,0,0,-1,825,1821,0,0
-392,-797,0,0,0,0,0,0,0,0,0,-1,832,1821,0,0
-385,-797,0,0,0,0,0,0,0,0,0,-1,839,1821,0,0
-378,-797,0,0,0,0,0,0,0,0,0,-1,846,1821,0,0
-371,-797,0,0,0,0,0,0,0,0,0,-1,853,1821,0,0
-364,-797,0,0,0,0,0,0,0,0,0,-1,860,1821,0,0
-357,-797,0,0,0,0,0,0,0,0,0,-1,867,1821,0,0
-350,-797,0,0,0,0,0,0,0,0,0,-1,874,1821,0,0
-343,-797,0,0,0,0,0,0,0,0,0,-1,881,1821,0,0
-336,-797,0,0,0,0,0,0,0,0,0,-1,888,1821,0,0
-329,-797,0,0,0,0,0,0,0,0,0,-1,895,1821,0,0
-322,-797,0,0,0,0,0,0,0,0,0,-1,902,1821,0,0
-315,-797,0,0,0,0,0,0,0,0,0,-1,909,1821,0,0
-308,-797,0,0,0,0,0,0,0,0,0,-1,916,1821,0,0
-301,-797,0,0,0,0,0,0,0,0,0,-1,923,1821,0,0
-294,-797,0,0,0,0,0,0,0,0,0,-1,930,1821,0,0
-287,-797,0,0,0,0,0,0,0,0,0,-1,937,1821,0,0
-280,-797,0,0,0,0,0,0,0,0,0,-1,944,1821,0,0
-273,-797,0,0,0,0,0,0,0,0,0,-1,951,1821,0,0
-266,-797,0,0,0,0,0,0,0,0,0,-1,958,1821,0,0
-259,-797,0,0,0,0,0,0,0,0,0,-1,965,1821,0,0
-252,-797,0,0,0,0,0,0,0,0,0,-1,972,1821,0,0
-245,-797,0,0,0,0,0,0,0,0,0,-1,979,1821,0,0
-238,-797,0,0,0,0,0,0,0,0,0,-1,986,1821,0,0
-231,-797,0,0,0,0,0,0,0,0,0,-1,993,1821,0,0
-224,-797,0,0,0,0,0,0,0,0,0,-1,1000,1821,0,0
-217,-797,0,0,0,0,0,0,0,0,0,-1,1007,1821,0,0
-210,-797,0,0,0,0,0,0,0,0,0,-1,1014,1821,0,0
-203,-797,0,0,0,0,0,0,0,0,0,-1,1021,1821,0,0
-196,-797,0,0,0,0,0,0,0,0,0,-1,1028,1821,0,0
-189,-797,0,0,0,0,0,0,0,0,0,-1,1035,1821,0,0
-182,-797,0,0,0,0,0,0,0,0,0,-1,1042,1821,0,0
-175,-797,0,0,0,0,0,0,0,0,0,-1,1049,1821,0,0
-168,-797,0,0,0,0,0,0,0,0,0,-1,1056,1821,0,0
-161,-797,0,0,0,0,0,0,0,0,0,-1,1063,1821,0,0
-154,-797,0,0,0,0,0,0,0,0,0,-1,1070,1821,0,0
-147,-797,0,0,0,0,0,0,0,0,0,-1,1077,1821,0,0
-140,-797,0,0,0,0,0,0,0,0,0,-1,1084,1821,0,0
-133,-797,0,0,0,0,0,0,0,0,0,-1,1091,1821,0,0
-126,-797,0,0,0,0,0,0,0,0,0,-1,1098,1821,0,0
-119,-797,0,0,0,0,0,0,0,0,0,-1,1105,1821,0,0
-112,-797,0,0,0,0,0,0,0,0,0,-1,1112,1821,0,0
-105,-797,0,0,0,0,0,0,0,0,0,-1,1119,1821,0,0
-98,-797,0,0,0,0,0,0,0,0,0,-1,1126,1821,0,0
-91,-797,0,0,0,0,0,0,0,0,0,-1,1133,1821,0,0
-84,-797,0,0,0,0,0,0,0,0,0,-1,1140,1821,0,0
-77,-797,0,0,0,0,0,0,0,0,0,-1,1147,1821,0,0
-70,-797,0,0,0,0,0,0,0,0,0,-1,1154,1821,0,0
-63,-797,0,0,0,0,0,0,0,0,0,-1,1161,1821,0,0
-56,-797,0,0,0,0,0,0,0,0,0,-1,1168,1821,0,0
-49,-797,0,0,0,0,0,0,0,0,0,-1,1175,1821,0,0
-42,-797,-0.0227051,1.80505,0,0,0,0,0,0,0,-1,1182,1821,-0.0227625,-1.80499
-35,-797,0.0185547,0.811768,0,0,0,0,0,0,0,-1,1189,1821,0.0185163,-0.811789
-28,-797,0.00366211,0.746338,-0.040384,-0.00861897,-0.0221734,0.00277329,-0.0517763,-1.09618,0.0354781,0.0463329,1196,1821,0.00362891,-0.746377
-21,-797,-0.331177,0.376221,-0.04788,-0.00757413,-0.0199043,0.000598211,-0.0560523,-1.1812,0.0375692,0.0457015,1203,1821,-0.331191,-0.376185
-14,-797,-1.45544,0.400513,-0.0523198,-0.00760827,-0.0144169,-0.00336275,-0.0565653,-1.28441,0.0366408,0.043417,1210,1821,-1.45539,-0.400546
-7,-797,-1.86646,-0.614136,0,0,0,0,0,0,0,-1,1217,1821,-1.86647,0.614189
0,-797,-2.27161,-1.63989,0,0,0,0,0,0,0,-1,1224,1821,-2.27158,1.63986
7,-797,-0.996216,0.471924,0,0,0,0,0,0,0,-1,1231,1821,-0.996274,-0.471964
14,-797,-2.05078,0.332764,0,0,0,0,0,0,0,-1,1238,1821,-2.05078,-0.332739
21,-797,-1.98889,0.728638,0,0,0,0,0,0,0,-1,1245,1821,-1.98885,-0.728586
28,-797,-2.89758,1.58276,0,0,0,0,0,0,0,-1,1252,1821,-2.89758,-1.58279
35,-797,-3.12671,1.82764,0,0,0,0,0,0,0,-1,1259,1821,-3.12673,-1.82761
42,-797,-3.26685,2.11169,0,0,0,0,0,0,0,-1,1266,1821,-3.26682,-2.1117
49,-797,-3.36304,2.0127,0,0,0,0,0,0,0,-1,1273,1821,-3.36302,-2.01268
56,-797,-3.36108,2.24365,0,0,0,0,0,0,0,-1,1280,1821,-3.36107,-2.24371
63,-797,0.252808,3.85449,0,0,0,0,0,0,0,-1,1287,1821,0.252754,-3.85443
70,-797,0.333252,3.3186,0,0,0,0,0,0,0,-1,1294,1821,0.333295,-3.3186
77,-797,0.429077,2.9873,0,0,0,0,0,0,0,-1,1301,1821,0.429084,-2.98729
84,-797,-0.218994,2.2063,0,0,0,0,0,0,0,-1,1308,1821,-0.219053,-2.20635
91,-797,-0.472412,2.01099,0,0,0,0,0,0,0,-1,1315,1821,-0.472358,-2.011
98,-797,-0.604614,1.08875,0,0,0,0,0,0,0,-1,1322,1821,-0.604648,-1.0888
105,-797,0.893188,1.90747,0,0,0,0,0,0,0,-1,1329,1821,0.893221,-1.90743
112,-797,0.430176,2.30859,0,0,0,0,0,0,0,-1,1336,1821,0.430185,-2.30858
119,-797,-0.162842,2.65063,0,0,0,0,0,0,0,-1,1343,1821,-0.162888,-2.65061
126,-797,0.888062,3.48083,0.103536,-0.0066891,0.00771965,0.104074,-0.00722713,0.0695828,0.0719127,0.0458749,1350,1821,0.8881,-3.48087
133,-797,1.91724,3.64844,0.104086,-0.00177219,0.00130523,0.104102,-0.00178828,0.0123275,0.070005,0.0474408,1357,1821,1.91725,-3.64844
140,-797,2.76038,4.11084,0.0985148,0.0040377,-0.00325832,0.098627,0.00392547,-0.0344334,0.0644827,0.0456104,1364,1821,2.76034,-4.11085
147,-797,3.64429,4.54712,0,0,0,0,0,0,0,-1,1371,1821,3.64423,-4.54711
154,-797,-0.321655,-0.00939941,0,0,0,0,0,0,0,-1,1378,1821,-0.321631,0.00944378
161,-797,-0.254517,-0.415649,0,0,0,0,0,0,0,-1,1385,1821,-0.254464,0.415617
168,-797,0,0,0,0,0,0,0,0,0,-1,1392,1821,0,0
175,-797,0,0,0,0,0,0,0,0,0,-1,1399,1821,0,0
182,-797,0,0,0,0,0,0,0,0,0,-1,1406,1821,0,0
189,-797,0,0,0,0,0,0,0,0,0,-1,1413,1821,0,0
196,-797,0,0,0,0,0,0,0,0,0,-1,1420,1821,0,0
203,-797,0,0,0,0,0,0,0,0,0,-1,1427,1821,0,0
210,-797,0,0,0,0,0,0,0,0,0,-1,1434,1821,0,0
217,-797,0,0,0,0,0,0,0,0,0,-1,1441,1821,0,0
224,-797,0,0,0,0,0,0,0,0,0,-1,1448,1821,0,0
231,-797,0,0,0,0,0,0,0,0,0,-1,1455,1821,0,0
238,-797,0,0,0,0,0,0,0,0,0,-1,1462,1821,0,0
245,-797,0,0,0,0,0,0,0,0,0,-1,1469,1821,0,0
252,-797,0,0,0,0,0,0,0,0,0,-1,1476,1821,0,0
259,-797,0,0,0,0,0,0,0,0,0,-1,1483,1821,0,0
266,-797,0,0,0,0,0,0,0,0,0,-1,1490,1821,0,0
273,-797,0,0,0,0,0,0,0,0,0,-1,1497,1821,0,0
280,-797,0,0,0,0,0,0,0,0,0,-1,1504,1821,0,0
287,-797,0,0,0,0,0,0,0,0,0,-1,1511,1821,0,0
294,-797,0,0,0,0,0,0,0,0,0,-1,1518,1821,0,0
301,-797,0,0,0,0,0,0,0,0,0,-1,1525,1821,0,0
308,-797,0,0,0,0,0,0,0,0,0,-1,1532,1821,0,0
315,-797,0,0,0,0,0,0,0,0,0,-1,1539,1821,0,0
322,-797,0,0,0,0,0,0,0,0,0,-1,1546,1821,0,0
329,-797,0,0,0,0,0,0,0,0,0,-1,1553,1821,0,0
336,-797,0,0,0,0,0,0,0,0,0,-1,1560,1821,0,0
343,-797,0,0,0,0,0,0,0,0,0,-1,1567,1821,0,0
350,-797,0,0,0,0,0,0,0,0,0,-1,1574,1821,0,0
357,-797,0,0,0,0,0,0,0,0,0,-1,1581,1821,0,0
364,-797,0,0,0,0,0,0,0,0,0,-1,1588,1821,0,0
371,-797,0,0,0,0,0,0,0,0,0,-1,1595,1821,0,0
378,-797,0,0,0,0,0,0,0,0,0,-1,1602,1821,0,0
385,-797,0,0,0,0,0,0,0,0,0,-1,1609,1821,0,0
392,-797,0,0,0,0,0,0,0,0,0,-1,1616,1821,0,0
399,-797,0,0,0,0,0,0,0,0,0,-1,1623,1821,0,0
406,-797,0,0,0,0,0,0,0,0,0,-1,1630,1821,0,0
413,-797,0,0,0,0,0,0,0,0,0,-1,1637,1821,0,0
420,-797,0,0,0,0,0,0,0,0,0,-1,1644,1821,0,0
427,-797,0,0,0,0,0,0,0,0,0,-1,1651,1821,0,0
434,-797,0,0,0,0,0,0,0,0,0,-1,1658,1821,0,0
441,-797,0,0,0,0,0,0,0,0,0,-1,1665,1821,0,0
448,-797,0,0,0,0,0,0,0,0,0,-1,1672,1821,0,0
455,-797,0,0,0,0,0,0,0,0,0,-1,1679,1821,0,0
462,-797,0,0,0,0,0,0,0,0,0,-1,1686,1821,0,0
469,-797,0,0,0,0,0,0,0,0,0,-1,1693,1821,0,0
476,-797,0,0,0,0,0,0,0,0,0,-1,1700,1821,0,0
483,-797,0,0,0,0,0,0,0,0,0,-1,1707,1821,0,0
490,-797,0,0,0,0,0,0,0,0,0,-1,1714,1821,0,0
497,-797,0,0,0,0,0,0,0,0,0,-1,1721,1821,0,0
504,-797,0,0,0,0,0,0,0,0,0,-1,1728,1821,0,0
511,-797,0,0,0,0,0,0,0,0,0,-1,1735,1821,0,0
518,-797,0,0,0,0,0,0,0,0,0,-1,1742,1821,0,0
525,-797,0,0,0,0,0,0,0,0,0,-1,1749,1821,0,0
532,-797,0,0,0,0,0,0,0,0,0,-1,1756,1821,0,0
539,-797,0,0,0,0,0,0,0,0,0,-1,1763,1821,0,0
546,-797,0,0,0,0,0,0,0,0,0,-1,1770,1821,0,0
553,-797,0,0,0,0,0,0,0,0,0,-1,1777,1821,0,0
560,-797,0,0,0,0,0,0,0,0,0,-1,1784,1821,0,0
567,-797,0,0,0,0,0,0,0,0,0,-1,1791,1821,0,0
574,-797,0,0,0,0,0,0,0,0,0,-1,1798,1821,0,0
581,-797,0,0,0,0,0,0,0,0,0,-1,1805,1821,0,0
588,-797,0,0,0,0,0,0,0,0,0,-1,1812,1821,0,0
595,-797,0,0,0,0,0,0,0,0,0,-1,1819,1821,0,0
602,-797,0,0,0,0,0,0,0,0,0,-1,1826,1821,0,0
609,-797,0,0,0,0,0,0,0,0,0,-1,1833,1821,0,0
616,-797,0,0,0,0,0,0,0,0,0,-1,1840,1821,0,0
623,-797,0,0,0,0,0,0,0,0,0,-1,1847,1821,0,0
630,-797,0,0,0,0,0,0,0,0,0,-1,1854,1821,0,0
637,-797,0,0,0,0,0,0,0,0,0,-1,1861,1821,0,0
644,-797,0,0,0,0,0,0,0,0,0,-1,1868,1821,0,0
651,-797,0,0,0,0,0,0,0,0,0,-1,1875,1821,0,0
658,-797,0,0,0,0,0,0,0,0,0,-1,1882,1821,0,0
665,-797,0,0,0,0,0,0,0,0,0,-1,1889,1821,0,0
672,-797,0,0,0,0,0,0,0,0,0,-1,1896,1821,0,0
679,-797,0,0,0,0,0,0,0,0,0,-1,1903,1821,0,0
686,-797,0,0,0,0,0,0,0,0,0,-1,1910,1821,0,0
693,-797,0,0,0,0,0,0,0,0,0,-1,1917,1821,0,0
700,-797,0,0,0,0,0,0,0,0,0,-1,1924,1821,0,0
707,-797,0,0,0,0,0,0,0,0,0,-1,1931,1821,0,0
714,-797,0,0,0,0,0,0,0,0,0,-1,1938,1821,0,0
721,-797,0,0,0,0,0,0,0,0,0,-1,1945,1821,0,0
728,-797,0,0,0,0,0,0,0,0,0,-1,1952,1821,0,0
735,-797,0,0,0,0,0,0,0,0,0,-1,1959,1821,0,0
742,-797,0,0,0,0,0,0,0,0,0,-1,1966,1821,0,0
749,-797,0,0,0,0,0,0,0,0,0,-1,1973,1821,0,0
756,-797,0,0,0,0,0,0,0,0,0,-1,1980,1821,0,0
763,-797,0,0,0,0,0,0,0,0,0,-1,1987,1821,0,0
770,-797,0,0,0,0,0,0,0,0,0,-1,1994,1821,0,0
777,-797,0,0,0,0,0,0,0,0,0,-1,2001,1821,0,0
784,-797,0,0,0,0,0,0,0,0,0,-1,2008,1821,0,0
791,-797,0,0,0,0,0,0,0,0,0,-1,2015,1821,0,0
798,-797,0,0,0,0,0,0,0,0,0,-1,2022,1821,0,0
805,-797,0,0,0,0,0,0,0,0,0,-1,2029,1821,0,0
812,-797,0,0,0,0,0,0,0,0,0,-1,2036,1821,0,0
-700,-804,0,0,0,0,0,0,0,0,0,-1,524,1828,0,0
-693,-804,0,0,0,0,0,0,0,0,0,-1,531,1828,0,0
-686,-804,0,0,0,0,0,0,0,0,0,-1,538,1828,0,0
-679,-804,0,0,0,0,0,0,0,0,0,-1,545,1828,0,0
-672,-804,0,0,0,0,0,0,0,0,0,-1,552,1828,0,0
-665,-804,0,0,0,0,0,0,0,0,0,-1,559,1828,0,0
-658,-804,0,0,0,0,0,0,0,0,0,-1,566,1828,0,0
-651,-804,0,0,0,0,0,0,0,0,0,-1,573,1828,0,0
-644,-804,0,0,0,0,0,0,0,0,0,-1,580,1828,0,0
-637,-804,0,0,0,0,0,0,0,0,0,-1,587,1828,0,0
-630,-804,0,0,0,0,0,0,0,0,0,-1,594,1828,0,0
-623,-804,0,0,0,0,0,0,0,0,0,-1,601,1828,0,0
-616,-804,0,0,0,0,0,0,0,0,0,-1,608,1828,0,0
-609,-804,0,0,0,0,0,0,0,0,0,-1,615,1828,0,0
-602,-804,0,0,0,0,0,0,0,0,0,-1,622,1828,0,0
-595,-804,0,0,0,0,0,0,0,0,0,-1,629,1828,0,0
-588,-804,0,0,0,0,0,0,0,0,0,-1,636,1828,0,0
-581,-804,0,0,0,0,0,0,0,0,0,-1,643,1828,0,0
-574,-804,0,0,0,0,0,0,0,0,0,-1,650,1828,0,0
-567,-804,0,0,0,0,0,0,0,0,0,-1,657,1828,0,0
-560,-804,0,0,0,0,0,0,0,0,0,-1,664,1828,0,0
-553,-804,0,0,0,0,0,0,0,0,0,-1,671,1828,0,0
-546,-804,0,0,0,0,0,0,0,0,0,-1,678,1828,0,0
-539,-804,0,0,0,0,0,0,0,0,0,-1,685,1828,0,0
-532,-804,0,0,0,0,0,0,0,0,0,-1,692,1828,0,0
-525,-804,0,0,0,0,0,0,0,0,0,-1,699,1828,0,0
-518,-804,0,0,0,0,0,0,0,0,0,-1,706,1828,0,0
-511,-804,0,0,0,0,0,0,0,0,0,-1,713,1828,0,0
-504,-804,0,0,0,0,0,0,0,0,0,-1,720,1828,0,0
-497,-804,0,0,0,0,0,0,0,0,0,-1,727,1828,0,0
-490,-804,0,0,0,0,0,0,0,0,0,-1,734,1828,0,0
-483,-804,0,0,0,0,0,0,0,0,0,-1,741,1828,0,0
-476,-804,0,0,0,0,0,0,0,0,0,-1,748,1828,0,0
-469,-804,0,0,0,0,0,0,0,0,0,-1,755,1828,0,0
-462,-804,0,0,0,0,0,0,0,0,0,-1,762,1828,0,0
-455,-804,0,0,0,0,0,0,0,0,0,-1,769,1828,0,0
-448,-804,0,0,0,0,0,0,0,0,0,-1,776,1828,0,0
-441,-804,0,0,0,0,0,0,0,0,0,-1,783,1828,0,0
-434,-804,0,0,0,0,0,0,0,0,0,-1,790,1828,0,0
-427,-804,0,0,0,0,0,0,0,0,0,-1,797,1828,0,0
-420,-804,0,0,0,0,0,0,0,0,0,-1,804,1828,0,0
-413,-804,0,0,0,0,0,0,0,0,0,-1,811,1828,0,0
-406,-804,0,0,0,0,0,0,0,0,0,-1,818,1828,0,0
-399,-804,0,0,0,0,0,0,0,0,0,-1,825,1828,0,0
-392,-804,0,0,0,0,0,0,0,0,0,-1,832,1828,0,0
-385,-804,0,0,0,0,0,0,0,0,0,-1,839,1828,0,0
-378,-804,0,0,0,0,0,0,0,0,0,-1,846,1828,0,0
-371,-804,0,0,0,0,0,0,0,0,0,-1,853,1828,0,0
-364,-804,0,0,0,0,0,0,0,0,0,-1,860,1828,0,0
-357,-804,0,0,0,0,0,0,0,0,0,-1,867,1828,0,0
-350,-804,0,0,0,0,0,0,0,0,0,-1,874,1828,0,0
-343,-804,0,0,0,0,0,0,0,0,0,-1,881,1828,0,0
-336,-804,0,0,0,0,0,0,0,0,0,-1,888,1828,0,0
-329,-804,0,0,0,0,0,0,0,0,0,-1,895,1828,0,0
-322,-804,0,0,0,0,0,0,0,0,0,-1,902,1828,0,0
-315,-804,0,0,0,0,0,0,0,0,0,-1,909,1828,0,0
-308,-804,0,0,0,0,0,0,0,0,0,-1,916,1828,0,0
-301,-804,0,0,0,0,0,0,0,0,0,-1,923,1828,0,0
-294,-804,0,0,0,0,0,0,0,0,0,-1,930,1828,0,0
-287,-804,0,0,0,0,0,0,0,0,0,-1,937,1828,0,0
-280,-804,0,0,0,0,0,0,0,0,0,-1,944,1828,0,0
-273,-804,0,0,0,0,0,0,0,0,0,-1,951,1828,0,0
-266,-804,0,0,0,0,0,0,0,0,0,-1,958,1828,0,0
-259,-804,0,0,0,0,0,0,0,0,0,-1,965,1828,0,0
-252,-804,0,0,0,0,0,0,0,0,0,-1,972,1828,0,0
-245,-804,0,0,0,0,0,0,0,0,0,-1,979,1828,0,0
-238,-804,0,0,0,0,0,0,0,0,0,-1,986,1828,0,0
-231,-804,0,0,0,0,0,0,0,0,0,-1,993,1828,0,0
-224,-804,0,0,0,0,0,0,0,0,0,-1,1000,1828,0,0
-217,-804,0,0,0,0,0,0,0,0,0,-1,1007,1828,0,0
-210,-804,0,0,0,0,0,0,0,0,0,-1,1014,1828,0,0
-203,-804,0,0,0,0,0,0,0,0,0,-1,1021,1828,0,0
-196,-804,0,0,0,0,0,0,0,0,0,-1,1028,1828,0,0
-189,-804,0,0,0,0,0,0,0,0,0,-1,1035,1828,0,0
-182,-804,0,0,0,0,0,0,0,0,0,-1,1042,1828,0,0
-175,-804,0,0,0,0,0,0,0,0,0,-1,1049,1828,0,0
-168,-804,0,0,0,0,0,0,0,0,0,-1,1056,1828,0,0
-161,-804,0,0,0,0,0,0,0,0,0,-1,1063,1828,0,0
-154,-804,0,0,0,0,0,0,0,0,0,-1,1070,1828,0,0
-147,-804,0,0,0,0,0,0,0,0,0,-1,1077,1828,0,0
-140,-804,0,0,0,0,0,0,0,0,0,-1,1084,1828,0,0
-133,-804,0,0,0,0,0,0,0,0,0,-1,1091,1828,0,0
-126,-804,0,0,0,0,0,0,0,0,0,-1,1098,1828,0,0
-119,-804,0,0,0,0,0,0,0,0,0,-1,1105,1828,0,0
-112,-804,0,0,0,0,0,0,0,0,0,-1,1112,1828,0,0
-105,-804,0,0,0,0,0,0,0,0,0,-1,1119,1828,0,0
-98,-804,0,0,0,0,0,0,0,0,0,-1,1126,1828,0,0
-91,-804,0,0,0,0,0,0,0,0,0,-1,1133,1828,0,0
-84,-804,0,0,0,0,0,0,0,0,0,-1,1140,1828,0,0
-77,-804,0,0,0,0,0,0,0,0,0,-1,1147,1828,0,0
-70,-804,0,0,0,0,0,0,0,0,0,-1,1154,1828,0,0
-63,-804,0,0,0,0,0,0,0,0,0,-1,1161,1828,0,0
-56,-804,0,0,0,0,0,0,0,0,0,-1,1168,1828,0,0
-49,-804,0,0,0,0,0,0,0,0,0,-1,1175,1828,0,0
-42,-804,0,0,0,0,0,0,0,0,0,-1,1182,1828,0,0
-35,-804,0,0,0,0,0,0,0,0,0,-1,1189,1828,0,0
-28,-804,0,0,0,0,0,0,0,0,0,-1,1196,1828,0,0
-21,-804,0,0,0,0,0,0,0,0,0,-1,1203,1828,0,0
-14,-804,0,0,0,0,0,0,0,0,0,-1,1210,1828,0,0
-7,-804,0,0,0,0,0,0,0,0,0,-1,1217,1828,0,0
0,-804,0,0,0,0,0,0,0,0,0,-1,1224,1828,0,0
7,-804,0,0,0,0,0,0,0,0,0,-1,1231,1828,0,0
14,-804,0,0,0,0,0,0,0,0,0,-1,1238,1828,0,0
21,-804,0,0,0,0,0,0,0,0,0,-1,1245,1828,0,0
28,-804,0,0,0,0,0,0,0,0,0,-1,1252,1828,0,0
35,-804,-4.82849,1.68872,0,0,0,0,0,0,0,-1,1259,1828,-4.8285,-1.68871
42,-804,-4.52747,1.69653,0,0,0,0,0,0,0,-1,1266,1828,-4.52753,-1.69654
49,-804,-4.53015,1.95544,0,0,0,0,0,0,0,-1,1273,1828,-4.53021,-1.95543
56,-804,-4.52527,2.19287,0,0,0,0,0,0,0,-1,1280,1828,-4.5253,-2.19288
63,-804,1.18445,3.78882,0,0,0,0,0,0,0,-1,1287,1828,1.18447,-3.78878
70,-804,1.3446,4.16785,0,0,0,0,0,0,0,-1,1294,1828,1.34455,-4.16785
77,-804,0.895508,3.89063,0,0,0,0,0,0,0,-1,1301,1828,0.895453,-3.89066
84,-804,0.72876,3.61255,0,0,0,0,0,0,0,-1,1308,1828,0.728768,-3.61255
91,-804,0,0,0,0,0,0,0,0,0,-1,1315,1828,0,0
98,-804,0,0,0,0,0,0,0,0,0,-1,1322,1828,0,0
105,-804,0,0,0,0,0,0,0,0,0,-1,1329,1828,0,0
112,-804,0,0,0,0,0,0,0,0,0,-1,1336,1828,0,0
119,-804,0,0,0,0,0,0,0,0,0,-1,1343,1828,0,0
126,-804,0,0,0,0,0,0,0,0,0,-1,1350,1828,0,0
133,-804,0,0,0,0,0,0,0,0,0,-1,1357,1828,0,0
140,-804,0,0,0,0,0,0,0,0,0,-1,1364,1828,0,0
147,-804,0,0,0,0,0,0,0,0,0,-1,1371,1828,0,0
154,-804,0,0,0,0,0,0,0,0,0,-1,1378,1828,0,0
161,-804,0,0,0,0,0,0,0,0,0,-1,1385,1828,0,0
168,-804,0,0,0,0,0,0,0,0,0,-1,1392,1828,0,0
175,-804,0,0,0,0,0,0,0,0,0,-1,1399,1828,0,0
182,-804,0,0,0,0,0,0,0,0,0,-1,1406,1828,0,0
189,-804,0,0,0,0,0,0,0,0,0,-1,1413,1828,0,0
196,-804,0,0,0,0,0,0,0,0,0,-1,1420,1828,0,0
203,-804,0,0,0,0,0,0,0,0,0,-1,1427,1828,0,0
210,-804,0,0,0,0,0,0,0,0,0,-1,1434,1828,0,0
217,-804,0,0,0,0,0,0,0,0,0,-1,1441,1828,0,0
224,-804,0,0,0,0,0,0,0,0,0,-1,1448,1828,0,0
231,-804,0,0,0,0,0,0,0,0,0,-1,1455,1828,0,0
238,-804,0,0,0,0,0,0,0,0,0,-1,1462,1828,0,0
245,-804,0,0,0,0,0,0,0,0,0,-1,1469,1828,0,0
252,-804,0,0,0,0,0,0,0,0,0,-1,1476,1828,0,0
259,-804,0,0,0,0,0,0,0,0,0,-1,1483,1828,0,0
266,-804,0,0,0,0,0,0,0,0,0,-1,1490,1828,0,0
273,-804,0,0,0,0,0,0,0,0,0,-1,1497,1828,0,0
280,-804,0,0,0,0,0,0,0,0,0,-1,1504,1828,0,0
287,-804,0,0,0,0,0,0,0,0,0,-1,1511,1828,0,0
294,-804,0,0,0,0,0,0,0,0,0,-1,1518,1828,0,0
301,-804,0,0,0,0,0,0,0,0,0,-1,1525,1828,0,0
308,-804,0,0,0,0,0,0,0,0,0,-1,1532,1828,0,0
315,-804,0,0,0,0,0,0,0,0,0,-1,1539,1828,0,0
322,-804,0,0,0,0,0,0,0,0,0,-1,1546,1828,0,0
329,-804,0,0,0,0,0,0,0,0,0,-1,1553,1828,0,0
336,-804,0,0,0,0,0,0,0,0,0,-1,1560,1828,0,0
343,-804,0,0,0,0,0,0,0,0,0,-1,1567,1828,0,0
350,-804,0,0,0,0,0,0,0,0,0,-1,1574,1828,0,0
357,-804,0,0,0,0,0,0,0,0,0,-1,1581,1828,0,0
364,-804,0,0,0,0,0,0,0,0,0,-1,1588,1828,0,0
371,-804,0,0,0,0,0,0,0,0,0,-1,1595,1828,0,0
378,-804,0,0,0,0,0,0,0,0,0,-1,1602,1828,0,0
385,-804,0,0,0,0,0,0,0,0,0,-1,1609,1828,0,0
392,-804,0,0,0,0,0,0,0,0,0,-1,1616,1828,0,0
399,-804,0,0,0,0,0,0,0,0,0,-1,1623,1828,0,0
406,-804,0,0,0,0,0,0,0,0,0,-1,1630,1828,0,0
413,-804,0,0,0,0,0,0,0,0,0,-1,1637,1828,0,0
420,-804,0,0,0,0,0,0,0,0,0,-1,1644,1828,0,0
427,-804,0,0,0,0,0,0,0,0,0,-1,1651,1828,0,0
434,-804,0,0,0,0,0,0,0,0,0,-1,1658,1828,0,0
441,-804,0,0,0,0,0,0,0,0,0,-1,1665,1828,0,0
448,-804,0,0,0,0,0,0,0,0,0,-1,1672,1828,0,0
455,-804,0,0,0,0,0,0,0,0,0,-1,1679,1828,0,0
462,-804,0,0,0,0,0,0,0,0,0,-1,1686,1828,0,0
469,-804,0,0,0,0,0,0,0,0,0,-1,1693,1828,0,0
476,-804,0,0,0,0,0,0,0,0,0,-1,1700,1828,0,0
483,-804,0,0,0,0,0,0,0,0,0,-1,1707,1828,0,0
490,-804,0,0,0,0,0,0,0,0,0,-1,1714,1828,0,0
497,-804,0,0,0,0,0,0,0,0,0,-1,1721,1828,0,0
504,-804,0,0,0,0,0,0,0,0,0,-1,1728,1828,0,0
511,-804,0,0,0,0,0,0,0,0,0,-1,1735,1828,0,0
518,-804,0,0,0,0,0,0,0,0,0,-1,1742,1828,0,0
525,-804,0,0,0,0,0,0,0,0,0,-1,1749,1828,0,0
532,-804,0,0,0,0,0,0,0,0,0,-1,1756,1828,0,0
539,-804,0,0,0,0,0,0,0,0,0,-1,1763,1828,0,0
546,-804,0,0,0,0,0,0,0,0,0,-1,1770,1828,0,0
553,-804,0,0,0,0,0,0,0,0,0,-1,1777,1828,0,0
560,-804,0,0,0,0,0,0,0,0,0,-1,1784,1828,0,0
567,-804,0,0,0,0,0,0,0,0,0,-1,1791,1828,0,0
574,-804,0,0,0,0,0,0,0,0,0,-1,1798,1828,0,0
581,-804,0,0,0,0,0,0,0,0,0,-1,1805,1828,0,0
588,-804,0,0,0,0,0,0,0,0,0,-1,1812,1828,0,0
595,-804,0,0,0,0,0,0,0,0,0,-1,1819,1828,0,0
602,-804,0,0,0,0,0,0,0,0,0,-1,1826,1828,0,0
609,-804,0,0,0,0,0,0,0,0,0,-1,1833,1828,0,0
616,-804,0,0,0,0,0,0,0,0,0,-1,1840,1828,0,0
623,-804,0,0,0,0,0,0,0,0,0,-1,1847,1828,0,0
630,-804,0,0,0,0,0,0,0,0,0,-1,1854,1828,0,0
637,-804,0,0,0,0,0,0,0,0,0,-1,1861,1828,0,0
644,-804,0,0,0,0,0,0,0,0,0,-1,1868,1828,0,0
651,-804,0,0,0,0,0,0,0,0,0,-1,1875,1828,0,0
658,-804,0,0,0,0,0,0,0,0,0,-1,1882,1828,0,0
665,-804,0,0,0,0,0,0,0,0,0,-1,1889,1828,0,0
672,-804,0,0,0,0,0,0,0,0,0,-1,1896,1828,0,0
679,-804,0,0,0,0,0,0,0,0,0,-1,1903,1828,0,0
686,-804,0,0,0,0,0,0,0,0,0,-1,1910,1828,0,0
693,-804,0,0,0,0,0,0,0,0,0,-1,1917,1828,0,0
700,-804,0,0,0,0,0,0,0,0,0,-1,1924,1828,0,0
707,-804,0,0,0,0,0,0,0,0,0,-1,1931,1828,0,0
714,-804,0,0,0,0,0,0,0,0,0,-1,1938,1828,0,0
721,-804,0,0,0,0,0,0,0,0,0,-1,1945,1828,0,0
728,-804,0,0,0,0,0,0,0,0,0,-1,1952,1828,0,0
735,-804,0,0,0,0,0,0,0,0,0,-1,1959,1828,0,0
742,-804,0,0,0,0,0,0,0,0,0,-1,1966,1828,0,0
749,-804,0,0,0,0,0,0,0,0,0,-1,1973,1828,0,0
756,-804,0,0,0,0,0,0,0,0,0,-1,1980,1828,0,0
763,-804,0,0,0,0,0,0,0,0,0,-1,1987,1828,0,0
770,-804,0,0,0,0,0,0,0,0,0,-1,1994,1828,0,0
777,-804,0,0,0,0,0,0,0,0,0,-1,2001,1828,0,0
784,-804,0,0,0,0,0,0,0,0,0,-1,2008,1828,0,0
791,-804,0,0,0,0,0,0,0,0,0,-1,2015,1828,0,0
798,-804,0,0,0,0,0,0,0,0,0,-1,2022,1828,0,0
805,-804,0,0,0,0,0,0,0,0,0,-1,2029,1828,0,0
812,-804,0,0,0,0,0,0,0,0,0,-1,2036,1828,0,0

