 "x_c",  "y_c",  "u_c",  "v_c",  "exx",  "eyy",  "exy",  "e1",  "e2",  "gamma",  "e_vonmises",  "sigma",  "x",  "y",  "u",  "v"
-700,715,0,0,0,0,0,0,0,0,0,-1,524,309,0,0
-693,715,0,0,0,0,0,0,0,0,0,-1,531,309,0,0
-686,715,0,0,0,0,0,0,0,0,0,-1,538,309,0,0
-679,715,0,0,0,0,0,0,0,0,0,-1,545,309,0,0
-672,715,0,0,0,0,0,0,0,0,0,-1,552,309,0,0
-665,715,0,0,0,0,0,0,0,0,0,-1,559,309,0,0
-658,715,0,0,0,0,0,0,0,0,0,-1,566,309,0,0
-651,715,0,0,0,0,0,0,0,0,0,-1,573,309,0,0
-644,715,0,0,0,0,0,0,0,0,0,-1,580,309,0,0
-637,715,0,0,0,0,0,0,0,0,0,-1,587,309,0,0
-630,715,0,0,0,0,0,0,0,0,0,-1,594,309,0,0
-623,715,0,0,0,0,0,0,0,0,0,-1,601,309,0,0
-616,715,0,0,0,0,0,0,0,0,0,-1,608,309,0,0
-609,715,0,0,0,0,0,0,0,0,0,-1,615,309,0,0
-602,715,0,0,0,0,0,0,0,0,0,-1,622,309,0,0
-595,715,0,0,0,0,0,0,0,0,0,-1,629,309,0,0
-588,715,0,0,0,0,0,0,0,0,0,-1,636,309,0,0
-581,715,0,0,0,0,0,0,0,0,0,-1,643,309,0,0
-574,715,0,0,0,0,0,0,0,0,0,-1,650,309,0,0
-567,715,0,0,0,0,0,0,0,0,0,-1,657,309,0,0
-560,715,0,0,0,0,0,0,0,0,0,-1,664,309,0,0
-553,715,0,0,0,0,0,0,0,0,0,-1,671,309,0,0
-546,715,0,0,0,0,0,0,0,0,0,-1,678,309,0,0
-539,715,0,0,0,0,0,0,0,0,0,-1,685,309,0,0
-532,715,0,0,0,0,0,0,0,0,0,-1,692,309,0,0
-525,715,0,0,0,0,0,0,0,0,0,-1,699,309,0,0
-518,715,0,0,0,0,0,0,0,0,0,-1,706,309,0,0
-511,715,0,0,0,0,0,0,0,0,0,-1,713,309,0,0
-504,715,0,0,0,0,0,0,0,0,0,-1,720,309,0,0
-497,715,0,0,0,0,0,0,0,0,0,-1,727,309,0,0
-490,715,0,0,0,0,0,0,0,0,0,-1,734,309,0,0
-483,715,0,0,0,0,0,0,0,0,0,-1,741,309,0,0
-476,715,0,0,0,0,0,0,0,0,0,-1,748,309,0,0
-469,715,0,0,0,0,0,0,0,0,0,-1,755,309,0,0
-462,715,0,0,0,0,0,0,0,0,0,-1,762,309,0,0
-455,715,0,0,0,0,0,0,0,0,0,-1,769,309,0,0
-448,715,0,0,0,0,0,0,0,0,0,-1,776,309,0,0
-441,715,0,0,0,0,0,0,0,0,0,-1,783,309,0,0
-434,715,0,0,0,0,0,0,0,0,0,-1,790,309,0,0
-427,715,0,0,0,0,0,0,0,0,0,-1,797,309,0,0
-420,715,0,0,0,0,0,0,0,0,0,-1,804,309,0,0
-413,715,0,0,0,0,0,0,0,0,0,-1,811,309,0,0
-406,715,0,0,0,0,0,0,0,0,0,-1,818,309,0,0
-399,715,0,0,0,0,0,0,0,0,0,-1,825,309,0,0
-392,715,0,0,0,0,0,0,0,0,0,-1,832,309,0,0
-385,715,0,0,0,0,0,0,0,0,0,-1,839,309,0,0
-378,715,0,0,0,0,0,0,0,0,0,-1,846,309,0,0
-371,715,0,0,0,0,0,0,0,0,0,-1,853,309,0,0
-364,715,0,0,0,0,0,0,0,0,0,-1,860,309,0,0
-357,715,0,0,0,0,0,0,0,0,0,-1,867,309,0,0
-350,715,0,0,0,0,0,0,0,0,0,-1,874,309,0,0
-343,715,0,0,0,0,0,0,0,0,0,-1,881,309,0,0
-336,715,0,0,0,0,0,0,0,0,0,-1,888,309,0,0
-329,715,0,0,0,0,0,0,0,0,0,-1,895,309,0,0
-322,715,0,0,0,0,0,0,0,0,0,-1,902,309,0,0
-315,715,0,0,0,0,0,0,0,0,0,-1,909,309,0,0
-308,715,0,0,0,0,0,0,0,0,0,-1,916,309,0,0
-301,715,0,0,0,0,0,0,0,0,0,-1,923,309,0,0
-294,715,0,0,0,0,0,0,0,0,0,-1,930,309,0,0
-287,715,0,0,0,0,0,0,0,0,0,-1,937,309,0,0
-280,715,0,0,0,0,0,0,0,0,0,-1,944,309,0,0
-273,715,0,0,0,0,0,0,0,0,0,-1,951,309,0,0
-266,715,0,0,0,0,0,0,0,0,0,-1,958,309,0,0
-259,715,0,0,0,0,0,0,0,0,0,-1,965,309,0,0
-252,715,0,0,0,0,0,0,0,0,0,-1,972,309,0,0
-245,715,0,0,0,0,0,0,0,0,0,-1,979,309,0,0
-238,715,0,0,0,0,0,0,0,0,0,-1,986,309,0,0
-231,715,0,0,0,0,0,0,0,0,0,-1,993,309,0,0
-224,715,0,0,0,0,0,0,0,0,0,-1,1000,309,0,0
-217,715,0,0,0,0,0,0,0,0,0,-1,1007,309,0,0
-210,715,0,0,0,0,0,0,0,0,0,-1,1014,309,0,0
-203,715,0,0,0,0,0,0,0,0,0,-1,1021,309,0,0
-196,715,0,0,0,0,0,0,0,0,0,-1,1028,309,0,0
-189,715,0,0,0,0,0,0,0,0,0,-1,1035,309,0,0
-182,715,0,0,0,0,0,0,0,0,0,-1,1042,309,0,0
-175,715,0,0,0,0,0,0,0,0,0,-1,1049,309,0,0
-168,715,0,0,0,0,0,0,0,0,0,-1,1056,309,0,0
-161,715,0,0,0,0,0,0,0,0,0,-1,1063,309,0,0
-154,715,0,0,0,0,0,0,0,0,0,-1,1070,309,0,0
-147,715,0,0,0,0,0,0,0,0,0,-1,1077,309,0,0
-140,715,0,0,0,0,0,0,0,0,0,-1,1084,309,0,0
-133,715,0,0,0,0,0,0,0,0,0,-1,1091,309,0,0
-126,715,0,0,0,0,0,0,0,0,0,-1,1098,309,0,0
-119,715,0,0,0,0,0,0,0,0,0,-1,1105,309,0,0
-112,715,0,0,0,0,0,0,0,0,0,-1,1112,309,0,0
-105,715,0,0,0,0,0,0,0,0,0,-1,1119,309,0,0
-98,715,0,0,0,0,0,0,0,0,0,-1,1126,309,0,0
-91,715,0,0,0,0,0,0,0,0,0,-1,1133,309,0,0
-84,715,0,0,0,0,0,0,0,0,0,-1,1140,309,0,0
-77,715,0,0,0,0,0,0,0,0,0,-1,1147,309,0,0
-70,715,0,0,0,0,0,0,0,0,0,-1,1154,309,0,0
-63,715,0,0,0,0,0,0,0,0,0,-1,1161,309,0,0
-56,715,0,0,0,0,0,0,0,0,0,-1,1168,309,0,0
-49,715,0,0,0,0,0,0,0,0,0,-1,1175,309,0,0
-42,715,0,0,0,0,0,0,0,0,0,-1,1182,309,0,0
-35,715,0,0,0,0,0,0,0,0,0,-1,1189,309,0,0
-28,715,0,0,0,0,0,0,0,0,0,-1,1196,309,0,0
-21,715,0,0,0,0,0,0,0,0,0,-1,1203,309,0,0
-14,715,0,0,0,0,0,0,0,0,0,-1,1210,309,0,0
-7,715,0,0,0,0,0,0,0,0,0,-1,1217,309,0,0
0,715,0,0,0,0,0,0,0,0,0,-1,1224,309,0,0
7,715,0,0,0,0,0,0,0,0,0,-1,1231,309,0,0
14,715,0,0,0,0,0,0,0,0,0,-1,1238,309,0,0
21,715,0,0,0,0,0,0,0,0,0,-1,1245,309,0,0
28,715,0,0,0,0,0,0,0,0,0,-1,1252,309,0,0
35,715,0,0,0,0,0,0,0,0,0,-1,1259,309,0,0
42,715,0,0,0,0,0,0,0,0,0,-1,1266,309,0,0
49,715,0,0,0,0,0,0,0,0,0,-1,1273,309,0,0
56,715,0,0,0,0,0,0,0,0,0,-1,1280,309,0,0
63,715,1.97327,-14.7567,0.0128802,0.0494319,-0.0600992,0.0939726,-0.0316605,-0.933003,0.0754497,0.0471511,1287,309,1.97326,14.7567
70,715,2.10083,-15.3312,0.00858815,0.0464265,-0.0507967,0.0817129,-0.0266983,-0.963664,0.0652223,0.0449998,1294,309,2.10087,15.3312
77,715,0,0,0,0,0,0,0,0,0,-1,1301,309,0,0
84,715,0,0,0,0,0,0,0,0,0,-1,1308,309,0,0
91,715,0,0,0,0,0,0,0,0,0,-1,1315,309,0,0
98,715,0,0,0,0,0,0,0,0,0,-1,1322,309,0,0
105,715,0,0,0,0,0,0,0,0,0,-1,1329,309,0,0
112,715,0,0,0,0,0,0,0,0,0,-1,1336,309,0,0
119,715,0,0,0,0,0,0,0,0,0,-1,1343,309,0,0
126,715,0,0,0,0,0,0,0,0,0,-1,1350,309,0,0
133,715,0,0,0,0,0,0,0,0,0,-1,1357,309,0,0
140,715,0,0,0,0,0,0,0,0,0,-1,1364,309,0,0
147,715,0,0,0,0,0,0,0,0,0,-1,1371,309,0,0
154,715,0,0,0,0,0,0,0,0,0,-1,1378,309,0,0
161,715,0,0,0,0,0,0,0,0,0,-1,1385,309,0,0
168,715,0,0,0,0,0,0,0,0,0,-1,1392,309,0,0
175,715,0,0,0,0,0,0,0,0,0,-1,1399,309,0,0
182,715,0,0,0,0,0,0,0,0,0,-1,1406,309,0,0
189,715,0,0,0,0,0,0,0,0,0,-1,1413,309,0,0
196,715,0,0,0,0,0,0,0,0,0,-1,1420,309,0,0
203,715,0,0,0,0,0,0,0,0,0,-1,1427,309,0,0
210,715,0,0,0,0,0,0,0,0,0,-1,1434,309,0,0
217,715,0,0,0,0,0,0,0,0,0,-1,1441,309,0,0
224,715,0,0,0,0,0,0,0,0,0,-1,1448,309,0,0
231,715,0,0,0,0,0,0,0,0,0,-1,1455,309,0,0
238,715,0,0,0,0,0,0,0,0,0,-1,1462,309,0,0
245,715,0,0,0,0,0,0,0,0,0,-1,1469,309,0,0
252,715,0,0,0,0,0,0,0,0,0,-1,1476,309,0,0
259,715,0,0,0,0,0,0,0,0,0,-1,1483,309,0,0
266,715,0,0,0,0,0,0,0,0,0,-1,1490,309,0,0
273,715,0,0,0,0,0,0,0,0,0,-1,1497,309,0,0
280,715,0,0,0,0,0,0,0,0,0,-1,1504,309,0,0
287,715,0,0,0,0,0,0,0,0,0,-1,1511,309,0,0
294,715,0,0,0,0,0,0,0,0,0,-1,1518,309,0,0
301,715,0,0,0,0,0,0,0,0,0,-1,1525,309,0,0
308,715,0,0,0,0,0,0,0,0,0,-1,1532,309,0,0
315,715,0,0,0,0,0,0,0,0,0,-1,1539,309,0,0
322,715,0,0,0,0,0,0,0,0,0,-1,1546,309,0,0
329,715,0,0,0,0,0,0,0,0,0,-1,1553,309,0,0
336,715,0,0,0,0,0,0,0,0,0,-1,1560,309,0,0
343,715,0,0,0,0,0,0,0,0,0,-1,1567,309,0,0
350,715,0,0,0,0,0,0,0,0,0,-1,1574,309,0,0
357,715,0,0,0,0,0,0,0,0,0,-1,1581,309,0,0
364,715,0,0,0,0,0,0,0,0,0,-1,1588,309,0,0
371,715,0,0,0,0,0,0,0,0,0,-1,1595,309,0,0
378,715,0,0,0,0,0,0,0,0,0,-1,1602,309,0,0
385,715,0,0,0,0,0,0,0,0,0,-1,1609,309,0,0
392,715,0,0,0,0,0,0,0,0,0,-1,1616,309,0,0
399,715,0,0,0,0,0,0,0,0,0,-1,1623,309,0,0
406,715,0,0,0,0,0,0,0,0,0,-1,1630,309,0,0
413,715,0,0,0,0,0,0,0,0,0,-1,1637,309,0,0
420,715,0,0,0,0,0,0,0,0,0,-1,1644,309,0,0
427,715,0,0,0,0,0,0,0,0,0,-1,1651,309,0,0
434,715,0,0,0,0,0,0,0,0,0,-1,1658,309,0,0
441,715,0,0,0,0,0,0,0,0,0,-1,1665,309,0,0
448,715,0,0,0,0,0,0,0,0,0,-1,1672,309,0,0
455,715,0,0,0,0,0,0,0,0,0,-1,1679,309,0,0
462,715,0,0,0,0,0,0,0,0,0,-1,1686,309,0,0
469,715,0,0,0,0,0,0,0,0,0,-1,1693,309,0,0
476,715,0,0,0,0,0,0,0,0,0,-1,1700,309,0,0
483,715,0,0,0,0,0,0,0,0,0,-1,1707,309,0,0
490,715,0,0,0,0,0,0,0,0,0,-1,1714,309,0,0
497,715,0,0,0,0,0,0,0,0,0,-1,1721,309,0,0
504,715,0,0,0,0,0,0,0,0,0,-1,1728,309,0,0
511,715,0,0,0,0,0,0,0,0,0,-1,1735,309,0,0
518,715,0,0,0,0,0,0,0,0,0,-1,1742,309,0,0
525,715,0,0,0,0,0,0,0,0,0,-1,1749,309,0,0
532,715,0,0,0,0,0,0,0,0,0,-1,1756,309,0,0
539,715,0,0,0,0,0,0,0,0,0,-1,1763,309,0,0
546,715,0,0,0,0,0,0,0,0,0,-1,1770,309,0,0
553,715,0,0,0,0,0,0,0,0,0,-1,1777,309,0,0
560,715,0,0,0,0,0,0,0,0,0,-1,1784,309,0,0
567,715,0,0,0,0,0,0,0,0,0,-1,1791,309,0,0
574,715,0,0,0,0,0,0,0,0,0,-1,1798,309,0,0
581,715,0,0,0,0,0,0,0,0,0,-1,1805,309,0,0
588,715,0,0,0,0,0,0,0,0,0,-1,1812,309,0,0
595,715,0,0,0,0,0,0,0,0,0,-1,1819,309,0,0
602,715,0,0,0,0,0,0,0,0,0,-1,1826,309,0,0
609,715,0,0,0,0,0,0,0,0,0,-1,1833,309,0,0
616,715,0,0,0,0,0,0,0,0,0,-1,1840,309,0,0
623,715,0,0,0,0,0,0,0,0,0,-1,1847,309,0,0
630,715,0,0,0,0,0,0,0,0,0,-1,1854,309,0,0
637,715,0,0,0,0,0,0,0,0,0,-1,1861,309,0,0
644,715,0,0,0,0,0,0,0,0,0,-1,1868,309,0,0
651,715,0,0,0,0,0,0,0,0,0,-1,1875,309,0,0
658,715,0,0,0,0,0,0,0,0,0,-1,1882,309,0,0
665,715,0,0,0,0,0,0,0,0,0,-1,1889,309,0,0
672,715,0,0,0,0,0,0,0,0,0,-1,1896,309,0,0
679,715,0,0,0,0,0,0,0,0,0,-1,1903,309,0,0
686,715,0,0,0,0,0,0,0,0,0,-1,1910,309,0,0
693,715,0,0,0,0,0,0,0,0,0,-1,1917,309,0,0
700,715,0,0,0,0,0,0,0,0,0,-1,1924,309,0,0
707,715,0,0,0,0,0,0,0,0,0,-1,1931,309,0,0
714,715,0,0,0,0,0,0,0,0,0,-1,1938,309,0,0
721,715,0,0,0,0,0,0,0,0,0,-1,1945,309,0,0
728,715,0,0,0,0,0,0,0,0,0,-1,1952,309,0,0
735,715,0,0,0,0,0,0,0,0,0,-1,1959,309,0,0
742,715,0,0,0,0,0,0,0,0,0,-1,1966,309,0,0
749,715,0,0,0,0,0,0,0,0,0,-1,1973,309,0,0
756,715,0,0,0,0,0,0,0,0,0,-1,1980,309,0,0
763,715,0,0,0,0,0,0,0,0,0,-1,1987,309,0,0
770,715,0,0,0,0,0,0,0,0,0,-1,1994,309,0,0
777,715,0,0,0,0,0,0,0,0,0,-1,2001,309,0,0
784,715,0,0,0,0,0,0,0,0,0,-1,2008,309,0,0
791,715,0,0,0,0,0,0,0,0,0,-1,2015,309,0,0
798,715,0,0,0,0,0,0,0,0,0,-1,2022,309,0,0
805,715,0,0,0,0,0,0,0,0,0,-1,2029,309,0,0
812,715,0,0,0,0,0,0,0,0,0,-1,2036,309,0,0
-700,708,0,0,0,0,0,0,0,0,0,-1,524,316,0,0
-693,708,0,0,0,0,0,0,0,0,0,-1,531,316,0,0
-686,708,0,0,0,0,0,0,0,0,0,-1,538,316,0,0
-679,708,0,0,0,0,0,0,0,0,0,-1,545,316,0,0
-672,708,0,0,0,0,0,0,0,0,0,-1,552,316,0,0
-665,708,0,0,0,0,0,0,0,0,0,-1,559,316,0,0
-658,708,0,0,0,0,0,0,0,0,0,-1,566,316,0,0
-651,708,0,0,0,0,0,0,0,0,0,-1,573,316,0,0
-644,708,0,0,0,0,0,0,0,0,0,-1,580,316,0,0
-637,708,0,0,0,0,0,0,0,0,0,-1,587,316,0,0
-630,708,0,0,0,0,0,0,0,0,0,-1,594,316,0,0
-623,708,0,0,0,0,0,0,0,0,0,-1,601,316,0,0
-616,708,0,0,0,0,0,0,0,0,0,-1,608,316,0,0
-609,708,0,0,0,0,0,0,0,0,0,-1,615,316,0,0
-602,708,0,0,0,0,0,0,0,0,0,-1,622,316,0,0
-595,708,0,0,0,0,0,0,0,0,0,-1,629,316,0,0
-588,708,0,0,0,0,0,0,0,0,0,-1,636,316,0,0
-581,708,0,0,0,0,0,0,0,0,0,-1,643,316,0,0
-574,708,0,0,0,0,0,0,0,0,0,-1,650,316,0,0
-567,708,0,0,0,0,0,0,0,0,0,-1,657,316,0,0
-560,708,0,0,0,0,0,0,0,0,0,-1,664,316,0,0
-553,708,0,0,0,0,0,0,0,0,0,-1,671,316,0,0
-546,708,0,0,0,0,0,0,0,0,0,-1,678,316,0,0
-539,708,0,0,0,0,0,0,0,0,0,-1,685,316,0,0
-532,708,0,0,0,0,0,0,0,0,0,-1,692,316,0,0
-525,708,0,0,0,0,0,0,0,0,0,-1,699,316,0,0
-518,708,0,0,0,0,0,0,0,0,0,-1,706,316,0,0
-511,708,0,0,0,0,0,0,0,0,0,-1,713,316,0,0
-504,708,0,0,0,0,0,0,0,0,0,-1,720,316,0,0
-497,708,0,0,0,0,0,0,0,0,0,-1,727,316,0,0
-490,708,0,0,0,0,0,0,0,0,0,-1,734,316,0,0
-483,708,0,0,0,0,0,0,0,0,0,-1,741,316,0,0
-476,708,0,0,0,0,0,0,0,0,0,-1,748,316,0,0
-469,708,0,0,0,0,0,0,0,0,0,-1,755,316,0,0
-462,708,0,0,0,0,0,0,0,0,0,-1,762,316,0,0
-455,708,0,0,0,0,0,0,0,0,0,-1,769,316,0,0
-448,708,0,0,0,0,0,0,0,0,0,-1,776,316,0,0
-441,708,0,0,0,0,0,0,0,0,0,-1,783,316,0,0
-434,708,0,0,0,0,0,0,0,0,0,-1,790,316,0,0
-427,708,0,0,0,0,0,0,0,0,0,-1,797,316,0,0
-420,708,0,0,0,0,0,0,0,0,0,-1,804,316,0,0
-413,708,0,0,0,0,0,0,0,0,0,-1,811,316,0,0
-406,708,0,0,0,0,0,0,0,0,0,-1,818,316,0,0
-399,708,0,0,0,0,0,0,0,0,0,-1,825,316,0,0
-392,708,0,0,0,0,0,0,0,0,0,-1,832,316,0,0
-385,708,0,0,0,0,0,0,0,0,0,-1,839,316,0,0
-378,708,0,0,0,0,0,0,0,0,0,-1,846,316,0,0
-371,708,0,0,0,0,0,0,0,0,0,-1,853,316,0,0
-364,708,0,0,0,0,0,0,0,0,0,-1,860,316,0,0
-357,708,0,0,0,0,0,0,0,0,0,-1,867,316,0,0
-350,708,0,0,0,0,0,0,0,0,0,-1,874,316,0,0
-343,708,0,0,0,0,0,0,0,0,0,-1,881,316,0,0
-336,708,0,0,0,0,0,0,0,0,0,-1,888,316,0,0
-329,708,0,0,0,0,0,0,0,0,0,-1,895,316,0,0
-322,708,0,0,0,0,0,0,0,0,0,-1,902,316,0,0
-315,708,0,0,0,0,0,0,0,0,0,-1,909,316,0,0
-308,708,0,0,0,0,0,0,0,0,0,-1,916,316,0,0
-301,708,0,0,0,0,0,0,0,0,0,-1,923,316,0,0
-294,708,0,0,0,0,0,0,0,0,0,-1,930,316,0,0
-287,708,0,0,0,0,0,0,0,0,0,-1,937,316,0,0
-280,708,0,0,0,0,0,0,0,0,0,-1,944,316,0,0
-273,708,0,0,0,0,0,0,0,0,0,-1,951,316,0,0
-266,708,0,0,0,0,0,0,0,0,0,-1,958,316,0,0
-259,708,0,0,0,0,0,0,0,0,0,-1,965,316,0,0
-252,708,0,0,0,0,0,0,0,0,0,-1,972,316,0,0
-245,708,0,0,0,0,0,0,0,0,0,-1,979,316,0,0
-238,708,0,0,0,0,0,0,0,0,0,-1,986,316,0,0
-231,708,0,0,0,0,0,0,0,0,0,-1,993,316,0,0
-224,708,0,0,0,0,0,0,0,0,0,-1,1000,316,0,0
-217,708,0,0,0,0,0,0,0,0,0,-1,1007,316,0,0
-210,708,0,0,0,0,0,0,0,0,0,-1,1014,316,0,0
-203,708,0,0,0,0,0,0,0,0,0,-1,1021,316,0,0
-196,708,0,0,0,0,0,0,0,0,0,-1,1028,316,0,0
-189,708,0,0,0,0,0,0,0,0,0,-1,1035,316,0,0
-182,708,0,0,0,0,0,0,0,0,0,-1,1042,316,0,0
-175,708,0,0,0,0,0,0,0,0,0,-1,1049,316,0,0
-168,708,0,0,0,0,0,0,0,0,0,-1,1056,316,0,0
-161,708,0,0,0,0,0,0,0,0,0,-1,1063,316,0,0
-154,708,0,0,0,0,0,0,0,0,0,-1,1070,316,0,0
-147,708,0,0,0,0,0,0,0,0,0,-1,1077,316,0,0
-140,708,0,0,0,0,0,0,0,0,0,-1,1084,316,0,0
-133,708,0,0,0,0,0,0,0,0,0,-1,1091,316,0,0
-126,708,0,0,0,0,0,0,0,0,0,-1,1098,316,0,0
-119,708,0,0,0,0,0,0,0,0,0,-1,1105,316,0,0
-112,708,0,0,0,0,0,0,0,0,0,-1,1112,316,0,0
-105,708,0,0,0,0,0,0,0,0,0,-1,1119,316,0,0
-98,708,0,0,0,0,0,0,0,0,0,-1,1126,316,0,0
-91,708,0,0,0,0,0,0,0,0,0,-1,1133,316,0,0
-84,708,0,0,0,0,0,0,0,0,0,-1,1140,316,0,0
-77,708,0,0,0,0,0,0,0,0,0,-1,1147,316,0,0
-70,708,0,0,0,0,0,0,0,0,0,-1,1154,316,0,0
-63,708,0,0,0,0,0,0,0,0,0,-1,1161,316,0,0
-56,708,0,0,0,0,0,0,0,0,0,-1,1168,316,0,0
-49,708,0,0,0,0,0,0,0,0,0,-1,1175,316,0,0
-42,708,0,0,0,0,0,0,0,0,0,-1,1182,316,0,0
-35,708,-2.71204,-6.31558,0,0,0,0,0,0,0,-1,1189,316,-2.712,6.3156
-28,708,-2.92371,-5.53253,0,0,0,0,0,0,0,-1,1196,316,-2.92375,5.53254
-21,708,-10.6349,-7.11816,0,0,0,0,0,0,0,-1,1203,316,-10.6349,7.11818
-14,708,1.34766,-17.1283,0,0,0,0,0,0,0,-1,1210,316,1.34766,17.1283
-7,708,2.56458,-17.0468,0,0,0,0,0,0,0,-1,1217,316,2.56461,17.0468
0,708,3.58643,-16.5573,0,0,0,0,0,0,0,-1,1224,316,3.58645,16.5573
7,708,2.10547,-15.1113,0,0,0,0,0,0,0,-1,1231,316,2.10547,15.1113
14,708,0.807617,-19.0682,0,0,0,0,0,0,0,-1,1238,316,0.807657,19.0682
21,708,1.39502,-18.5597,0,0,0,0,0,0,0,-1,1245,316,1.39504,18.5597
28,708,1.61194,-12.9492,0,0,0,0,0,0,0,-1,1252,316,1.61193,12.9492
35,708,1.64636,-13.3601,0,0,0,0,0,0,0,-1,1259,316,1.64631,13.3601
42,708,1.70605,-13.5874,0,0,0,0,0,0,0,-1,1266,316,1.706,13.5874
49,708,1.58496,-13.6623,0.0115833,0.0657431,-0.0591538,0.103721,-0.0263944,-1.00005,0.0794211,0.0452273,1273,316,1.58501,13.6623
56,708,1.82935,-14.5224,0.00953434,0.0542511,-0.0536189,0.0899864,-0.026201,-0.98293,0.0703698,0.0470942,1280,316,1.82932,14.5224
63,708,2.05542,-14.9173,0.00681234,0.0501389,-0.0470355,0.0802601,-0.0233089,-1.0012,0.0627367,0.0462571,1287,316,2.05542,14.9173
70,708,2.18958,-15.1563,0.00318593,0.0476353,-0.0399919,0.071163,-0.0203418,-1.03901,0.0554799,0.0452482,1294,316,2.18962,15.1563
77,708,2.10486,-15.7214,0,0,0,0,0,0,0,-1,1301,316,2.1049,15.7214
84,708,1.89441,-16.2081,-0.00548602,0.0641839,-0.0325029,0.0769925,-0.0182946,-1.19541,0.0583899,0.0420429,1308,316,1.89446,16.2081
91,708,1.74475,-16.7627,-0.0101919,0.0793953,-0.0299379,0.0884788,-0.0192754,-1.27621,0.0663509,0.0449866,1315,316,1.74481,16.7627
98,708,1.47205,-13.7826,-0.0151526,0.096358,-0.0276725,0.102848,-0.0216421,-1.34045,0.0768023,0.0443691,1322,316,1.47205,13.7826
105,708,1.23145,-14.1198,0,0,0,0,0,0,0,-1,1329,316,1.23142,14.1197
112,708,1.39331,-14.399,-0.0260091,0.148341,-0.0285834,0.152907,-0.0305756,-1.41238,0.113511,0.048745,1336,316,1.39333,14.3989
119,708,1.26721,-14.2047,-0.0316298,0.17955,-0.0325444,0.184452,-0.0365313,-1.42131,0.136781,0.0443368,1343,316,1.26718,14.2047
126,708,0.494019,-13.5127,-0.0371916,0.212466,-0.0392228,0.218483,-0.0432087,-1.41857,0.161991,0.0448115,1350,316,0.494025,13.5127
133,708,0.236328,-13.8406,-0.0416545,0.242397,-0.0483816,0.250412,-0.0496691,-1.40663,0.185725,0.0494188,1357,316,0.23629,13.8406
140,708,-0.0837402,-14.2245,0,0,0,0,0,0,0,-1,1364,316,-0.0837965,14.2245
147,708,2.04004,-15.4232,0,0,0,0,0,0,0,-1,1371,316,2.04003,15.4232
154,708,0,0,0,0,0,0,0,0,0,-1,1378,316,0,0
161,708,0,0,0,0,0,0,0,0,0,-1,1385,316,0,0
168,708,0,0,0,0,0,0,0,0,0,-1,1392,316,0,0
175,708,0,0,0,0,0,0,0,0,0,-1,1399,316,0,0
182,708,0,0,0,0,0,0,0,0,0,-1,1406,316,0,0
189,708,0,0,0,0,0,0,0,0,0,-1,1413,316,0,0
196,708,0,0,0,0,0,0,0,0,0,-1,1420,316,0,0
203,708,0,0,0,0,0,0,0,0,0,-1,1427,316,0,0
210,708,0,0,0,0,0,0,0,0,0,-1,1434,316,0,0
217,708,0,0,0,0,0,0,0,0,0,-1,1441,316,0,0
224,708,0,0,0,0,0,0,0,0,0,-1,1448,316,0,0
231,708,0,0,0,0,0,0,0,0,0,-1,1455,316,0,0
238,708,0,0,0,0,0,0,0,0,0,-1,1462,316,0,0
245,708,0,0,0,0,0,0,0,0,0,-1,1469,316,0,0
252,708,0,0,0,0,0,0,0,0,0,-1,1476,316,0,0
259,708,0,0,0,0,0,0,0,0,0,-1,1483,316,0,0
266,708,0,0,0,0,0,0,0,0,0,-1,1490,316,0,0
273,708,0,0,0,0,0,0,0,0,0,-1,1497,316,0,0
280,708,0,0,0,0,0,0,0,0,0,-1,1504,316,0,0
287,708,0,0,0,0,0,0,0,0,0,-1,1511,316,0,0
294,708,0,0,0,0,0,0,0,0,0,-1,1518,316,0,0
301,708,0,0,0,0,0,0,0,0,0,-1,1525,316,0,0
308,708,0,0,0,0,0,0,0,0,0,-1,1532,316,0,0
315,708,0,0,0,0,0,0,0,0,0,-1,1539,316,0,0
322,708,0,0,0,0,0,0,0,0,0,-1,1546,316,0,0
329,708,0,0,0,0,0,0,0,0,0,-1,1553,316,0,0
336,708,0,0,0,0,0,0,0,0,0,-1,1560,316,0,0
343,708,0,0,0,0,0,0,0,0,0,-1,1567,316,0,0
350,708,0,0,0,0,0,0,0,0,0,-1,1574,316,0,0
357,708,0,0,0,0,0,0,0,0,0,-1,1581,316,0,0
364,708,0,0,0,0,0,0,0,0,0,-1,1588,316,0,0
371,708,0,0,0,0,0,0,0,0,0,-1,1595,316,0,0
378,708,0,0,0,0,0,0,0,0,0,-1,1602,316,0,0
385,708,0,0,0,0,0,0,0,0,0,-1,1609,316,0,0
392,708,0,0,0,0,0,0,0,0,0,-1,1616,316,0,0
399,708,0,0,0,0,0,0,0,0,0,-1,1623,316,0,0
406,708,0,0,0,0,0,0,0,0,0,-1,1630,316,0,0
413,708,0,0,0,0,0,0,0,0,0,-1,1637,316,0,0
420,708,0,0,0,0,0,0,0,0,0,-1,1644,316,0,0
427,708,0,0,0,0,0,0,0,0,0,-1,1651,316,0,0
434,708,0,0,0,0,0,0,0,0,0,-1,1658,316,0,0
441,708,0,0,0,0,0,0,0,0,0,-1,1665,316,0,0
448,708,0,0,0,0,0,0,0,0,0,-1,1672,316,0,0
455,708,0,0,0,0,0,0,0,0,0,-1,1679,316,0,0
462,708,0,0,0,0,0,0,0,0,0,-1,1686,316,0,0
469,708,0,0,0,0,0,0,0,0,0,-1,1693,316,0,0
476,708,0,0,0,0,0,0,0,0,0,-1,1700,316,0,0
483,708,0,0,0,0,0,0,0,0,0,-1,1707,316,0,0
490,708,0,0,0,0,0,0,0,0,0,-1,1714,316,0,0
497,708,0,0,0,0,0,0,0,0,0,-1,1721,316,0,0
504,708,0,0,0,0,0,0,0,0,0,-1,1728,316,0,0
511,708,0,0,0,0,0,0,0,0,0,-1,1735,316,0,0
518,708,0,0,0,0,0,0,0,0,0,-1,1742,316,0,0
525,708,0,0,0,0,0,0,0,0,0,-1,1749,316,0,0
532,708,0,0,0,0,0,0,0,0,0,-1,1756,316,0,0
539,708,0,0,0,0,0,0,0,0,0,-1,1763,316,0,0
546,708,0,0,0,0,0,0,0,0,0,-1,1770,316,0,0
553,708,0,0,0,0,0,0,0,0,0,-1,1777,316,0,0
560,708,0,0,0,0,0,0,0,0,0,-1,1784,316,0,0
567,708,0,0,0,0,0,0,0,0,0,-1,1791,316,0,0
574,708,0,0,0,0,0,0,0,0,0,-1,1798,316,0,0
581,708,0,0,0,0,0,0,0,0,0,-1,1805,316,0,0
588,708,0,0,0,0,0,0,0,0,0,-1,1812,316,0,0
595,708,0,0,0,0,0,0,0,0,0,-1,1819,316,0,0
602,708,0,0,0,0,0,0,0,0,0,-1,1826,316,0,0
609,708,0,0,0,0,0,0,0,0,0,-1,1833,316,0,0
616,708,0,0,0,0,0,0,0,0,0,-1,1840,316,0,0
623,708,0,0,0,0,0,0,0,0,0,-1,1847,316,0,0
630,708,0,0,0,0,0,0,0,0,0,-1,1854,316,0,0
637,708,0,0,0,0,0,0,0,0,0,-1,1861,316,0,0
644,708,0,0,0,0,0,0,0,0,0,-1,1868,316,0,0
651,708,0,0,0,0,0,0,0,0,0,-1,1875,316,0,0
658,708,0,0,0,0,0,0,0,0,0,-1,1882,316,0,0
665,708,0,0,0,0,0,0,0,0,0,-1,1889,316,0,0
672,708,0,0,0,0,0,0,0,0,0,-1,1896,316,0,0
679,708,0,0,0,0,0,0,0,0,0,-1,1903,316,0,0
686,708,0,0,0,0,0,0,0,0,0,-1,1910,316,0,0
693,708,0,0,0,0,0,0,0,0,0,-1,1917,316,0,0
700,708,0,0,0,0,0,0,0,0,0,-1,1924,316,0,0
707,708,0,0,0,0,0,0,0,0,0,-1,1931,316,0,0
714,708,0,0,0,0,0,0,0,0,0,-1,1938,316,0,0
721,708,0,0,0,0,0,0,0,0,0,-1,1945,316,0,0
728,708,0,0,0,0,0,0,0,0,0,-1,1952,316,0,0
735,708,0,0,0,0,0,0,0,0,0,-1,1959,316,0,0
742,708,0,0,0,0,0,0,0,0,0,-1,1966,316,0,0
749,708,0,0,0,0,0,0,0,0,0,-1,1973,316,0,0
756,708,0,0,0,0,0,0,0,0,0,-1,1980,316,0,0
763,708,0,0,0,0,0,0,0,0,0,-1,1987,316,0,0
770,708,0,0,0,0,0,0,0,0,0,-1,1994,316,0,0
777,708,0,0,0,0,0,0,0,0,0,-1,2001,316,0,0
784,708,0,0,0,0,0,0,0,0,0,-1,2008,316,0,0
791,708,0,0,0,0,0,0,0,0,0,-1,2015,316,0,0
798,708,0,0,0,0,0,0,0,0,0,-1,2022,316,0,0
805,708,0,0,0,0,0,0,0,0,0,-1,2029,316,0,0
812,708,0,0,0,0,0,0,0,0,0,-1,2036,316,0,0
-700,701,0,0,0,0,0,0,0,0,0,-1,524,323,0,0
-693,701,0,0,0,0,0,0,0,0,0,-1,531,323,0,0
-686,701,0,0,0,0,0,0,0,0,0,-1,538,323,0,0
-679,701,0,0,0,0,0,0,0,0,0,-1,545,323,0,0
-672,701,0,0,0,0,0,0,0,0,0,-1,552,323,0,0
-665,701,0,0,0,0,0,0,0,0,0,-1,559,323,0,0
-658,701,0,0,0,0,0,0,0,0,0,-1,566,323,0,0
-651,701,0,0,0,0,0,0,0,0,0,-1,573,323,0,0
-644,701,0,0,0,0,0,0,0,0,0,-1,580,323,0,0
-637,701,0,0,0,0,0,0,0,0,0,-1,587,323,0,0
-630,701,0,0,0,0,0,0,0,0,0,-1,594,323,0,0
-623,701,0,0,0,0,0,0,0,0,0,-1,601,323,0,0
-616,701,0,0,0,0,0,0,0,0,0,-1,608,323,0,0
-609,701,0,0,0,0,0,0,0,0,0,-1,615,323,0,0
-602,701,0,0,0,0,0,0,0,0,0,-1,622,323,0,0
-595,701,0,0,0,0,0,0,0,0,0,-1,629,323,0,0
-588,701,0,0,0,0,0,0,0,0,0,-1,636,323,0,0
-581,701,0,0,0,0,0,0,0,0,0,-1,643,323,0,0
-574,701,0,0,0,0,0,0,0,0,0,-1,650,323,0,0
-567,701,0,0,0,0,0,0,0,0,0,-1,657,323,0,0
-560,701,0,0,0,0,0,0,0,0,0,-1,664,323,0,0
-553,701,0,0,0,0,0,0,0,0,0,-1,671,323,0,0
-546,701,0,0,0,0,0,0,0,0,0,-1,678,323,0,0
-539,701,0,0,0,0,0,0,0,0,0,-1,685,323,0,0
-532,701,0,0,0,0,0,0,0,0,0,-1,692,323,0,0
-525,701,0,0,0,0,0,0,0,0,0,-1,699,323,0,0
-518,701,0,0,0,0,0,0,0,0,0,-1,706,323,0,0
-511,701,0,0,0,0,0,0,0,0,0,-1,713,323,0,0
-504,701,0,0,0,0,0,0,0,0,0,-1,720,323,0,0
-497,701,0,0,0,0,0,0,0,0,0,-1,727,323,0,0
-490,701,0,0,0,0,0,0,0,0,0,-1,734,323,0,0
-483,701,0,0,0,0,0,0,0,0,0,-1,741,323,0,0
-476,701,0,0,0,0,0,0,0,0,0,-1,748,323,0,0
-469,701,0,0,0,0,0,0,0,0,0,-1,755,323,0,0
-462,701,0,0,0,0,0,0,0,0,0,-1,762,323,0,0
-455,701,0,0,0,0,0,0,0,0,0,-1,769,323,0,0
-448,701,0,0,0,0,0,0,0,0,0,-1,776,323,0,0
-441,701,0,0,0,0,0,0,0,0,0,-1,783,323,0,0
-434,701,0,0,0,0,0,0,0,0,0,-1,790,323,0,0
-427,701,0,0,0,0,0,0,0,0,0,-1,797,323,0,0
-420,701,0,0,0,0,0,0,0,0,0,-1,804,323,0,0
-413,701,0,0,0,0,0,0,0,0,0,-1,811,323,0,0
-406,701,0,0,0,0,0,0,0,0,0,-1,818,323,0,0
-399,701,0,0,0,0,0,0,0,0,0,-1,825,323,0,0
-392,701,0,0,0,0,0,0,0,0,0,-1,832,323,0,0
-385,701,0,0,0,0,0,0,0,0,0,-1,839,323,0,0
-378,701,0,0,0,0,0,0,0,0,0,-1,846,323,0,0
-371,701,0,0,0,0,0,0,0,0,0,-1,853,323,0,0
-364,701,0,0,0,0,0,0,0,0,0,-1,860,323,0,0
-357,701,0,0,0,0,0,0,0,0,0,-1,867,323,0,0
-350,701,0,0,0,0,0,0,0,0,0,-1,874,323,0,0
-343,701,0,0,0,0,0,0,0,0,0,-1,881,323,0,0
-336,701,0,0,0,0,0,0,0,0,0,-1,888,323,0,0
-329,701,0,0,0,0,0,0,0,0,0,-1,895,323,0,0
-322,701,0,0,0,0,0,0,0,0,0,-1,902,323,0,0
-315,701,0,0,0,0,0,0,0,0,0,-1,909,323,0,0
-308,701,0,0,0,0,0,0,0,0,0,-1,916,323,0,0
-301,701,0,0,0,0,0,0,0,0,0,-1,923,323,0,0
-294,701,0,0,0,0,0,0,0,0,0,-1,930,323,0,0
-287,701,0,0,0,0,0,0,0,0,0,-1,937,323,0,0
-280,701,0,0,0,0,0,0,0,0,0,-1,944,323,0,0
-273,701,0,0,0,0,0,0,0,0,0,-1,951,323,0,0
-266,701,0,0,0,0,0,0,0,0,0,-1,958,323,0,0
-259,701,0,0,0,0,0,0,0,0,0,-1,965,323,0,0
-252,701,0,0,0,0,0,0,0,0,0,-1,972,323,0,0
-245,701,0,0,0,0,0,0,0,0,0,-1,979,323,0,0
-238,701,0,0,0,0,0,0,0,0,0,-1,986,323,0,0
-231,701,0,0,0,0,0,0,0,0,0,-1,993,323,0,0
-224,701,0,0,0,0,0,0,0,0,0,-1,1000,323,0,0
-217,701,0,0,0,0,0,0,0,0,0,-1,1007,323,0,0
-210,701,0,0,0,0,0,0,0,0,0,-1,1014,323,0,0
-203,701,0,0,0,0,0,0,0,0,0,-1,1021,323,0,0
-196,701,0,0,0,0,0,0,0,0,0,-1,1028,323,0,0
-189,701,0,0,0,0,0,0,0,0,0,-1,1035,323,0,0
-182,701,0,0,0,0,0,0,0,0,0,-1,1042,323,0,0
-175,701,0,0,0,0,0,0,0,0,0,-1,1049,323,0,0
-168,701,0,0,0,0,0,0,0,0,0,-1,1056,323,0,0
-161,701,0,0,0,0,0,0,0,0,0,-1,1063,323,0,0
-154,701,0,0,0,0,0,0,0,0,0,-1,1070,323,0,0
-147,701,0,0,0,0,0,0,0,0,0,-1,1077,323,0,0
-140,701,0,0,0,0,0,0,0,0,0,-1,1084,323,0,0
-133,701,0,0,0,0,0,0,0,0,0,-1,1091,323,0,0
-126,701,0,0,0,0,0,0,0,0,0,-1,1098,323,0,0
-119,701,0,0,0,0,0,0,0,0,0,-1,1105,323,0,0
-112,701,0,0,0,0,0,0,0,0,0,-1,1112,323,0,0
-105,701,0,0,0,0,0,0,0,0,0,-1,1119,323,0,0
-98,701,0,0,0,0,0,0,0,0,0,-1,1126,323,0,0
-91,701,0,0,0,0,0,0,0,0,0,-1,1133,323,0,0
-84,701,0,0,0,0,0,0,0,0,0,-1,1140,323,0,0
-77,701,0,0,0,0,0,0,0,0,0,-1,1147,323,0,0
-70,701,-2.36731,-1.49271,0,0,0,0,0,0,0,-1,1154,323,-2.36729,1.4927
-63,701,-2.479,-0.295959,0,0,0,0,0,0,0,-1,1161,323,-2.47895,0.295961
-56,701,-0.420166,-0.101776,0,0,0,0,0,0,0,-1,1168,323,-0.420119,0.101777
-49,701,-1.09021,-0.155762,0,0,0,0,0,0,0,-1,1175,323,-1.09024,0.155768
-42,701,-0.210327,-0.299133,0,0,0,0,0,0,0,-1,1182,323,-0.210379,0.29914
-35,701,-2.9635,-7.98676,0,0,0,0,0,0,0,-1,1189,323,-2.9635,7.98676
-28,701,-6.64417,-5.4917,0,0,0,0,0,0,0,-1,1196,323,-6.64411,5.4917
-21,701,0.526123,-16.8483,0,0,0,0,0,0,0,-1,1203,323,0.526111,16.8483
-14,701,3.37854,-16.4394,0,0,0,0,0,0,0,-1,1210,323,3.37852,16.4394
-7,701,2.6925,-16.3941,0,0,0,0,0,0,0,-1,1217,323,2.69246,16.3941
0,701,3.82874,-16.3902,0,0,0,0,0,0,0,-1,1224,323,3.82878,16.3902
7,701,1.4375,-21.0085,0,0,0,0,0,0,0,-1,1231,323,1.43751,21.0085
14,701,1.64429,-20.3474,0,0,0,0,0,0,0,-1,1238,323,1.64428,20.3474
21,701,2.02576,-19.5889,0,0,0,0,0,0,0,-1,1245,323,2.02574,19.5889
28,701,1.86438,-13.1613,0,0,0,0,0,0,0,-1,1252,323,1.8644,13.1613
35,701,1.9071,-13.5193,0,0,0,0,0,0,0,-1,1259,323,1.90711,13.5194
42,701,1.95886,-13.8463,0.00737945,0.0615238,-0.0464061,0.0881771,-0.0192739,-1.04945,0.066152,0.0481516,1266,323,1.95889,13.8463
49,701,2.00635,-14.228,0.0063639,0.0574778,-0.0447176,0.0834263,-0.0195847,-1.04501,0.0631661,0.0471562,1273,323,2.00629,14.228
56,701,2.0824,-14.6873,0.00504845,0.0494757,-0.0409004,0.0738055,-0.0192814,-1.03417,0.0567337,0.0446993,1280,323,2.08239,14.6873
63,701,2.21313,-15.1019,0.00281667,0.0466765,-0.0359585,0.0668647,-0.0173715,-1.05922,0.0513558,0.0434492,1287,323,2.21313,15.1019
70,701,2.32629,-15.4727,-0.000167995,0.0446863,-0.0307764,0.0603401,-0.0158218,-1.10027,0.0464086,0.0440645,1294,323,2.3263,15.4727
77,701,2.43384,-15.8081,0,0,0,0,0,0,0,-1,1301,323,2.43379,15.8081
84,701,2.55884,-15.9741,-0.00690591,0.0570943,-0.0255453,0.0660401,-0.0158517,-1.23395,0.0501527,0.0448841,1308,323,2.5589,15.9741
91,701,3.04211,-14.0616,-0.0106206,0.0685999,-0.0239104,0.0752572,-0.0172778,-1.29925,0.0568133,0.0431448,1315,323,3.04206,14.0616
98,701,2.47937,-13.7077,-0.0146435,0.0805879,-0.0225454,0.0856556,-0.0197113,-1.34969,0.0646832,0.0430764,1322,323,2.47935,13.7077
105,701,2.04529,-14.3339,0,0,0,0,0,0,0,-1,1329,323,2.04524,14.3339
112,701,2.30627,-17.4221,-0.0229204,0.119777,-0.0240974,0.123737,-0.0268799,-1.40794,0.0927585,0.0461624,1336,323,2.30624,17.4221
119,701,1.65051,-15.083,-0.0269819,0.143582,-0.0274848,0.147902,-0.0313014,-1.41491,0.110522,0.0430463,1343,323,1.65051,15.083
126,701,1.61157,-15.049,-0.03093,0.168411,-0.0327028,0.173638,-0.0361579,-1.41228,0.129505,0.0472983,1350,323,1.61152,15.049
133,701,1.21106,-15.2078,-0.0342503,0.191058,-0.0394932,0.19778,-0.0409724,-1.40221,0.147421,0.0475705,1357,323,1.21105,15.2078
140,701,1.07788,-15.7088,0,0,0,0,0,0,0,-1,1364,323,1.07793,15.7088
147,701,0.862915,-15.8998,0,0,0,0,0,0,0,-1,1371,323,0.862968,15.8998
154,701,2.25232,-15.8714,0,0,0,0,0,0,0,-1,1378,323,2.25236,15.8714
161,701,2.35474,-16.3341,0,0,0,0,0,0,0,-1,1385,323,2.35478,16.3341
168,701,6.88513,-0.0237427,0,0,0,0,0,0,0,-1,1392,323,6.88517,0.0237498
175,701,6.94556,0.0693054,0,0,0,0,0,0,0,-1,1399,323,6.94555,-0.0692958
182,701,8.80652,5.42807,0,0,0,0,0,0,0,-1,1406,323,8.8065,-5.42808
189,701,8.58081,4.24493,0,0,0,0,0,0,0,-1,1413,323,8.58082,-4.24494
196,701,0,0,0,0,0,0,0,0,0,-1,1420,323,0,0
203,701,0,0,0,0,0,0,0,0,0,-1,1427,323,0,0
210,701,0,0,0,0,0,0,0,0,0,-1,1434,323,0,0
217,701,0,0,0,0,0,0,0,0,0,-1,1441,323,0,0
224,701,0,0,0,0,0,0,0,0,0,-1,1448,323,0,0
231,701,0,0,0,0,0,0,0,0,0,-1,1455,323,0,0
238,701,0,0,0,0,0,0,0,0,0,-1,1462,323,0,0
245,701,0,0,0,0,0,0,0,0,0,-1,1469,323,0,0
252,701,0,0,0,0,0,0,0,0,0,-1,1476,323,0,0
259,701,0,0,0,0,0,0,0,0,0,-1,1483,323,0,0
266,701,0,0,0,0,0,0,0,0,0,-1,1490,323,0,0
273,701,0,0,0,0,0,0,0,0,0,-1,1497,323,0,0
280,701,0,0,0,0,0,0,0,0,0,-1,1504,323,0,0
287,701,0,0,0,0,0,0,0,0,0,-1,1511,323,0,0
294,701,0,0,0,0,0,0,0,0,0,-1,1518,323,0,0
301,701,0,0,0,0,0,0,0,0,0,-1,1525,323,0,0
308,701,0,0,0,0,0,0,0,0,0,-1,1532,323,0,0
315,701,0,0,0,0,0,0,0,0,0,-1,1539,323,0,0
322,701,0,0,0,0,0,0,0,0,0,-1,1546,323,0,0
329,701,0,0,0,0,0,0,0,0,0,-1,1553,323,0,0
336,701,0,0,0,0,0,0,0,0,0,-1,1560,323,0,0
343,701,0,0,0,0,0,0,0,0,0,-1,1567,323,0,0
350,701,0,0,0,0,0,0,0,0,0,-1,1574,323,0,0
357,701,0,0,0,0,0,0,0,0,0,-1,1581,323,0,0
364,701,0,0,0,0,0,0,0,0,0,-1,1588,323,0,0
371,701,0,0,0,0,0,0,0,0,0,-1,1595,323,0,0
378,701,0,0,0,0,0,0,0,0,0,-1,1602,323,0,0
385,701,0,0,0,0,0,0,0,0,0,-1,1609,323,0,0
392,701,0,0,0,0,0,0,0,0,0,-1,1616,323,0,0
399,701,0,0,0,0,0,0,0,0,0,-1,1623,323,0,0
406,701,0,0,0,0,0,0,0,0,0,-1,1630,323,0,0
413,701,0,0,0,0,0,0,0,0,0,-1,1637,323,0,0
420,701,0,0,0,0,0,0,0,0,0,-1,1644,323,0,0
427,701,0,0,0,0,0,0,0,0,0,-1,1651,323,0,0
434,701,0,0,0,0,0,0,0,0,0,-1,1658,323,0,0
441,701,0,0,0,0,0,0,0,0,0,-1,1665,323,0,0
448,701,0,0,0,0,0,0,0,0,0,-1,1672,323,0,0
455,701,0,0,0,0,0,0,0,0,0,-1,1679,323,0,0
462,701,0,0,0,0,0,0,0,0,0,-1,1686,323,0,0
469,701,0,0,0,0,0,0,0,0,0,-1,1693,323,0,0
476,701,0,0,0,0,0,0,0,0,0,-1,1700,323,0,0
483,701,0,0,0,0,0,0,0,0,0,-1,1707,323,0,0
490,701,0,0,0,0,0,0,0,0,0,-1,1714,323,0,0
497,701,0,0,0,0,0,0,0,0,0,-1,1721,323,0,0
504,701,0,0,0,0,0,0,0,0,0,-1,1728,323,0,0
511,701,0,0,0,0,0,0,0,0,0,-1,1735,323,0,0
518,701,0,0,0,0,0,0,0,0,0,-1,1742,323,0,0
525,701,0,0,0,0,0,0,0,0,0,-1,1749,323,0,0
532,701,0,0,0,0,0,0,0,0,0,-1,1756,323,0,0
539,701,0,0,0,0,0,0,0,0,0,-1,1763,323,0,0
546,701,0,0,0,0,0,0,0,0,0,-1,1770,323,0,0
553,701,0,0,0,0,0,0,0,0,0,-1,1777,323,0,0
560,701,0,0,0,0,0,0,0,0,0,-1,1784,323,0,0
567,701,0,0,0,0,0,0,0,0,0,-1,1791,323,0,0
574,701,0,0,0,0,0,0,0,0,0,-1,1798,323,0,0
581,701,0,0,0,0,0,0,0,0,0,-1,1805,323,0,0
588,701,0,0,0,0,0,0,0,0,0,-1,1812,323,0,0
595,701,0,0,0,0,0,0,0,0,0,-1,1819,323,0,0
602,701,0,0,0,0,0,0,0,0,0,-1,1826,323,0,0
609,701,0,0,0,0,0,0,0,0,0,-1,1833,323,0,0
616,701,0,0,0,0,0,0,0,0,0,-1,1840,323,0,0
623,701,0,0,0,0,0,0,0,0,0,-1,1847,323,0,0
630,701,0,0,0,0,0,0,0,0,0,-1,1854,323,0,0
637,701,0,0,0,0,0,0,0,0,0,-1,1861,323,0,0
644,701,0,0,0,0,0,0,0,0,0,-1,1868,323,0,0
651,701,0,0,0,0,0,0,0,0,0,-1,1875,323,0,0
658,701,0,0,0,0,0,0,0,0,0,-1,1882,323,0,0
665,701,0,0,0,0,0,0,0,0,0,-1,1889,323,0,0
672,701,0,0,0,0,0,0,0,0,0,-1,1896,323,0,0
679,701,0,0,0,0,0,0,0,0,0,-1,1903,323,0,0
686,701,0,0,0,0,0,0,0,0,0,-1,1910,323,0,0
693,701,0,0,0,0,0,0,0,0,0,-1,1917,323,0,0
700,701,0,0,0,0,0,0,0,0,0,-1,1924,323,0,0
707,701,0,0,0,0,0,0,0,0,0,-1,1931,323,0,0
714,701,0,0,0,0,0,0,0,0,0,-1,1938,323,0,0
721,701,0,0,0,0,0,0,0,0,0,-1,1945,323,0,0
728,701,0,0,0,0,0,0,0,0,0,-1,1952,323,0,0
735,701,0,0,0,0,0,0,0,0,0,-1,1959,323,0,0
742,701,0,0,0,0,0,0,0,0,0,-1,1966,323,0,0
749,701,0,0,0,0,0,0,0,0,0,-1,1973,323,0,0
756,701,0,0,0,0,0,0,0,0,0,-1,1980,323,0,0
763,701,0,0,0,0,0,0,0,0,0,-1,1987,323,0,0
770,701,0,0,0,0,0,0,0,0,0,-1,1994,323,0,0
777,701,0,0,0,0,0,0,0,0,0,-1,2001,323,0,0
784,701,0,0,0,0,0,0,0,0,0,-1,2008,323,0,0
791,701,0,0,0,0,0,0,0,0,0,-1,2015,323,0,0
798,701,0,0,0,0,0,0,0,0,0,-1,2022,323,0,0
805,701,0,0,0,0,0,0,0,0,0,-1,2029,323,0,0
812,701,0,0,0,0,0,0,0,0,0,-1,2036,323,0,0
-700,694,0,0,0,0,0,0,0,0,0,-1,524,330,0,0
-693,694,0,0,0,0,0,0,0,0,0,-1,531,330,0,0
-686,694,0,0,0,0,0,0,0,0,0,-1,538,330,0,0
-679,694,0,0,0,0,0,0,0,0,0,-1,545,330,0,0
-672,694,0,0,0,0,0,0,0,0,0,-1,552,330,0,0
-665,694,0,0,0,0,0,0,0,0,0,-1,559,330,0,0
-658,694,0,0,0,0,0,0,0,0,0,-1,566,330,0,0
-651,694,0,0,0,0,0,0,0,0,0,-1,573,330,0,0
-644,694,0,0,0,0,0,0,0,0,0,-1,580,330,0,0
-637,694,0,0,0,0,0,0,0,0,0,-1,587,330,0,0
-630,694,0,0,0,0,0,0,0,0,0,-1,594,330,0,0
-623,694,0,0,0,0,0,0,0,0,0,-1,601,330,0,0
-616,694,0,0,0,0,0,0,0,0,0,-1,608,330,0,0
-609,694,0,0,0,0,0,0,0,0,0,-1,615,330,0,0
-602,694,0,0,0,0,0,0,0,0,0,-1,622,330,0,0
-595,694,0,0,0,0,0,0,0,0,0,-1,629,330,0,0
-588,694,0,0,0,0,0,0,0,0,0,-1,636,330,0,0
-581,694,0,0,0,0,0,0,0,0,0,-1,643,330,0,0
-574,694,0,0,0,0,0,0,0,0,0,-1,650,330,0,0
-567,694,0,0,0,0,0,0,0,0,0,-1,657,330,0,0
-560,694,0,0,0,0,0,0,0,0,0,-1,664,330,0,0
-553,694,0,0,0,0,0,0,0,0,0,-1,671,330,0,0
-546,694,0,0,0,0,0,0,0,0,0,-1,678,330,0,0
-539,694,0,0,0,0,0,0,0,0,0,-1,685,330,0,0
-532,694,0,0,0,0,0,0,0,0,0,-1,692,330,0,0
-525,694,0,0,0,0,0,0,0,0,0,-1,699,330,0,0
-518,694,0,0,0,0,0,0,0,0,0,-1,706,330,0,0
-511,694,0,0,0,0,0,0,0,0,0,-1,713,330,0,0
-504,694,0,0,0,0,0,0,0,0,0,-1,720,330,0,0
-497,694,0,0,0,0,0,0,0,0,0,-1,727,330,0,0
-490,694,0,0,0,0,0,0,0,0,0,-1,734,330,0,0
-483,694,0,0,0,0,0,0,0,0,0,-1,741,330,0,0
-476,694,0,0,0,0,0,0,0,0,0,-1,748,330,0,0
-469,694,0,0,0,0,0,0,0,0,0,-1,755,330,0,0
-462,694,0,0,0,0,0,0,0,0,0,-1,762,330,0,0
-455,694,0,0,0,0,0,0,0,0,0,-1,769,330,0,0
-448,694,0,0,0,0,0,0,0,0,0,-1,776,330,0,0
-441,694,0,0,0,0,0,0,0,0,0,-1,783,330,0,0
-434,694,0,0,0,0,0,0,0,0,0,-1,790,330,0,0
-427,694,0,0,0,0,0,0,0,0,0,-1,797,330,0,0
-420,694,0,0,0,0,0,0,0,0,0,-1,804,330,0,0
-413,694,0,0,0,0,0,0,0,0,0,-1,811,330,0,0
-406,694,0,0,0,0,0,0,0,0,0,-1,818,330,0,0
-399,694,0,0,0,0,0,0,0,0,0,-1,825,330,0,0
-392,694,0,0,0,0,0,0,0,0,0,-1,832,330,0,0
-385,694,0,0,0,0,0,0,0,0,0,-1,839,330,0,0
-378,694,0,0,0,0,0,0,0,0,0,-1,846,330,0,0
-371,694,0,0,0,0,0,0,0,0,0,-1,853,330,0,0
-364,694,0,0,0,0,0,0,0,0,0,-1,860,330,0,0
-357,694,0,0,0,0,0,0,0,0,0,-1,867,330,0,0
-350,694,0,0,0,0,0,0,0,0,0,-1,874,330,0,0
-343,694,0,0,0,0,0,0,0,0,0,-1,881,330,0,0
-336,694,0,0,0,0,0,0,0,0,0,-1,888,330,0,0
-329,694,0,0,0,0,0,0,0,0,0,-1,895,330,0,0
-322,694,0,0,0,0,0,0,0,0,0,-1,902,330,0,0
-315,694,0,0,0,0,0,0,0,0,0,-1,909,330,0,0
-308,694,0,0,0,0,0,0,0,0,0,-1,916,330,0,0
-301,694,0,0,0,0,0,0,0,0,0,-1,923,330,0,0
-294,694,0,0,0,0,0,0,0,0,0,-1,930,330,0,0
-287,694,0,0,0,0,0,0,0,0,0,-1,937,330,0,0
-280,694,0,0,0,0,0,0,0,0,0,-1,944,330,0,0
-273,694,0,0,0,0,0,0,0,0,0,-1,951,330,0,0
-266,694,0,0,0,0,0,0,0,0,0,-1,958,330,0,0
-259,694,0,0,0,0,0,0,0,0,0,-1,965,330,0,0
-252,694,0,0,0,0,0,0,0,0,0,-1,972,330,0,0
-245,694,0,0,0,0,0,0,0,0,0,-1,979,330,0,0
-238,694,0,0,0,0,0,0,0,0,0,-1,986,330,0,0
-231,694,0,0,0,0,0,0,0,0,0,-1,993,330,0,0
-224,694,0,0,0,0,0,0,0,0,0,-1,1000,330,0,0
-217,694,0,0,0,0,0,0,0,0,0,-1,1007,330,0,0
-210,694,0,0,0,0,0,0,0,0,0,-1,1014,330,0,0
-203,694,0,0,0,0,0,0,0,0,0,-1,1021,330,0,0
-196,694,0,0,0,0,0,0,0,0,0,-1,1028,330,0,0
-189,694,0,0,0,0,0,0,0,0,0,-1,1035,330,0,0
-182,694,0,0,0,0,0,0,0,0,0,-1,1042,330,0,0
-175,694,0,0,0,0,0,0,0,0,0,-1,1049,330,0,0
-168,694,0,0,0,0,0,0,0,0,0,-1,1056,330,0,0
-161,694,0,0,0,0,0,0,0,0,0,-1,1063,330,0,0
-154,694,0,0,0,0,0,0,0,0,0,-1,1070,330,0,0
-147,694,0,0,0,0,0,0,0,0,0,-1,1077,330,0,0
-140,694,0,0,0,0,0,0,0,0,0,-1,1084,330,0,0
-133,694,0,0,0,0,0,0,0,0,0,-1,1091,330,0,0
-126,694,0,0,0,0,0,0,0,0,0,-1,1098,330,0,0
-119,694,0,0,0,0,0,0,0,0,0,-1,1105,330,0,0
-112,694,0,0,0,0,0,0,0,0,0,-1,1112,330,0,0
-105,694,-1.35962,-7.57141,0,0,0,0,0,0,0,-1,1119,330,-1.3596,7.57142
-98,694,1.34875,-10.1051,0,0,0,0,0,0,0,-1,1126,330,1.34874,10.1051
-91,694,1.35474,-9.22229,0,0,0,0,0,0,0,-1,1133,330,1.35476,9.22229
-84,694,-4.39136,-4.62332,0,0,0,0,0,0,0,-1,1140,330,-4.3914,4.62331
-77,694,-4.93396,-10.2672,0,0,0,0,0,0,0,-1,1147,330,-4.9339,10.2672
-70,694,-6.49402,-10.0714,0,0,0,0,0,0,0,-1,1154,330,-6.49399,10.0714
-63,694,-5.80835,-4.75275,0,0,0,0,0,0,0,-1,1161,330,-5.80834,4.75274
-56,694,-6.50623,-0.649139,0,0,0,0,0,0,0,-1,1168,330,-6.5062,0.649126
-49,694,-1.11426,0.0341797,0,0,0,0,0,0,0,-1,1175,330,-1.11424,-0.0341846
-42,694,-0.346313,-0.709595,0,0,0,0,0,0,0,-1,1182,330,-0.346298,0.709581
-35,694,-0.459106,-1.24713,0,0,0,0,0,0,0,-1,1189,330,-0.459142,1.24714
-28,694,-6.48413,-3.95972,0,0,0,0,0,0,0,-1,1196,330,-6.48414,3.9597
-21,694,3.05273,-16.7929,0,0,0,0,0,0,0,-1,1203,330,3.05279,16.7929
-14,694,3.2926,-16.45,0,0,0,0,0,0,0,-1,1210,330,3.2926,16.45
-7,694,3.53247,-16.1071,0,0,0,0,0,0,0,-1,1217,330,3.53242,16.107
0,694,3.77026,-15.6989,0,0,0,0,0,0,0,-1,1224,330,3.7703,15.6989
7,694,4.57117,-15.3321,0,0,0,0,0,0,0,-1,1231,330,4.57115,15.3321
14,694,2.48682,-21.6107,0,0,0,0,0,0,0,-1,1238,330,2.48687,21.6107
21,694,2.8302,-20.946,0,0,0,0,0,0,0,-1,1245,330,2.83023,20.946
28,694,3.15942,-19.5699,0,0,0,0,0,0,0,-1,1252,330,3.15943,19.5699
35,694,1.14136,-16.9654,0,0,0,0,0,0,0,-1,1259,330,1.14136,16.9654
42,694,3.69788,-14.7722,0.00375374,0.0503272,-0.0339524,0.0682113,-0.0141304,-1.08599,0.0508431,0.0481017,1266,330,3.69786,14.7721
49,694,3.21985,-15.2676,0.00289394,0.0484036,-0.0330306,0.0657586,-0.0144612,-1.08702,0.0493706,0.0454199,1273,330,3.21988,15.2676
56,694,2.89514,-15.5289,0,0,0,0,0,0,0,-1,1280,330,2.89512,15.5289
63,694,2.50098,-15.3878,0.000300054,0.0411358,-0.0268519,0.0544509,-0.0130151,-1.11046,0.0413278,0.0416364,1287,330,2.50094,15.3878
70,694,2.09827,-15.6198,-0.00210928,0.0395973,-0.0231564,0.0499061,-0.0124181,-1.15196,0.038091,0.0420391,1294,330,2.09827,15.6198
77,694,1.21704,-15.6642,0,0,0,0,0,0,0,-1,1301,330,1.21706,15.6642
84,694,4.24011,-14.7999,-0.00724762,0.0487862,-0.0196664,0.0549996,-0.013461,-1.26478,0.0418808,0.0452032,1308,330,4.24009,14.7999
91,694,3.66382,-14.114,-0.010142,0.0573493,-0.0186995,0.0621839,-0.0149766,-1.31779,0.0472461,0.0472247,1315,330,3.66378,14.114
98,694,1.68481,-16.3119,-0.013354,0.0656366,-0.017959,0.069528,-0.0172454,-1.35741,0.0530433,0.0461401,1322,330,1.68476,16.3119
105,694,2.40112,-16.2763,-0.0166353,0.0781139,-0.0180063,0.0814204,-0.0199419,-1.38919,0.0620059,0.046597,1329,330,2.40118,16.2763
112,694,2.43799,-16.8286,-0.0195564,0.0944178,-0.0197061,0.0977288,-0.0228674,-1.40433,0.0739628,0.0443094,1336,330,2.43797,16.8286
119,694,1.92114,-15.9807,-0.0224343,0.112059,-0.0224237,0.1157,-0.0260745,-1.40987,0.0871348,0.0443156,1343,330,1.92118,15.9806
126,694,2.08911,-16.1011,-0.0251713,0.130324,-0.0263096,0.134655,-0.0295023,-1.40765,0.10105,0.0466818,1350,330,2.08906,16.1011
133,694,2.09668,-16.5623,-0.027579,0.146961,-0.0311861,0.152366,-0.0329838,-1.39919,0.114171,0.0473644,1357,330,2.09667,16.5623
140,694,1.94019,-17.0065,-0.0299275,0.162372,-0.0362099,0.168965,-0.0365198,-1.39071,0.126585,0.046943,1364,330,1.94015,17.0065
147,694,1.703,-17.2467,0,0,0,0,0,0,0,-1,1371,330,1.70295,17.2467
154,694,1.51892,-17.5473,0,0,0,0,0,0,0,-1,1378,330,1.51894,17.5473
161,694,1.87231,-12.4088,0,0,0,0,0,0,0,-1,1385,330,1.87227,12.4088
168,694,6.77161,1.01288,0,0,0,0,0,0,0,-1,1392,330,6.77156,-1.01287
175,694,6.72839,0.473175,0,0,0,0,0,0,0,-1,1399,330,6.72838,-0.473182
182,694,8.29028,5.75238,0,0,0,0,0,0,0,-1,1406,330,8.29034,-5.75237
189,694,7.9801,4.46118,0,0,0,0,0,0,0,-1,1413,330,7.9801,-4.46118
196,694,7.39331,3.32632,0,0,0,0,0,0,0,-1,1420,330,7.39329,-3.32633
203,694,7.04492,2.20529,0,0,0,0,0,0,0,-1,1427,330,7.04496,-2.20529
210,694,6.44714,0.646912,0,0,0,0,0,0,0,-1,1434,330,6.44717,-0.646903
217,694,7.12061,-0.644958,0,0,0,0,0,0,0,-1,1441,330,7.12059,0.644961
224,694,6.74011,-1.70544,0,0,0,0,0,0,0,-1,1448,330,6.74013,1.70546
231,694,0,0,0,0,0,0,0,0,0,-1,1455,330,0,0
238,694,0,0,0,0,0,0,0,0,0,-1,1462,330,0,0
245,694,0,0,0,0,0,0,0,0,0,-1,1469,330,0,0
252,694,0,0,0,0,0,0,0,0,0,-1,1476,330,0,0
259,694,0,0,0,0,0,0,0,0,0,-1,1483,330,0,0
266,694,0,0,0,0,0,0,0,0,0,-1,1490,330,0,0
273,694,0,0,0,0,0,0,0,0,0,-1,1497,330,0,0
280,694,0,0,0,0,0,0,0,0,0,-1,1504,330,0,0
287,694,0,0,0,0,0,0,0,0,0,-1,1511,330,0,0
294,694,0,0,0,0,0,0,0,0,0,-1,1518,330,0,0
301,694,0,0,0,0,0,0,0,0,0,-1,1525,330,0,0
308,694,0,0,0,0,0,0,0,0,0,-1,1532,330,0,0
315,694,0,0,0,0,0,0,0,0,0,-1,1539,330,0,0
322,694,0,0,0,0,0,0,0,0,0,-1,1546,330,0,0
329,694,0,0,0,0,0,0,0,0,0,-1,1553,330,0,0
336,694,0,0,0,0,0,0,0,0,0,-1,1560,330,0,0
343,694,0,0,0,0,0,0,0,0,0,-1,1567,330,0,0
350,694,0,0,0,0,0,0,0,0,0,-1,1574,330,0,0
357,694,0,0,0,0,0,0,0,0,0,-1,1581,330,0,0
364,694,0,0,0,0,0,0,0,0,0,-1,1588,330,0,0
371,694,0,0,0,0,0,0,0,0,0,-1,1595,330,0,0
378,694,0,0,0,0,0,0,0,0,0,-1,1602,330,0,0
385,694,0,0,0,0,0,0,0,0,0,-1,1609,330,0,0
392,694,0,0,0,0,0,0,0,0,0,-1,1616,330,0,0
399,694,0,0,0,0,0,0,0,0,0,-1,1623,330,0,0
406,694,0,0,0,0,0,0,0,0,0,-1,1630,330,0,0
413,694,0,0,0,0,0,0,0,0,0,-1,1637,330,0,0
420,694,0,0,0,0,0,0,0,0,0,-1,1644,330,0,0
427,694,0,0,0,0,0,0,0,0,0,-1,1651,330,0,0
434,694,0,0,0,0,0,0,0,0,0,-1,1658,330,0,0
441,694,0,0,0,0,0,0,0,0,0,-1,1665,330,0,0
448,694,0,0,0,0,0,0,0,0,0,-1,1672,330,0,0
455,694,0,0,0,0,0,0,0,0,0,-1,1679,330,0,0
462,694,0,0,0,0,0,0,0,0,0,-1,1686,330,0,0
469,694,0,0,0,0,0,0,0,0,0,-1,1693,330,0,0
476,694,0,0,0,0,0,0,0,0,0,-1,1700,330,0,0
483,694,0,0,0,0,0,0,0,0,0,-1,1707,330,0,0
490,694,0,0,0,0,0,0,0,0,0,-1,1714,330,0,0
497,694,0,0,0,0,0,0,0,0,0,-1,1721,330,0,0
504,694,0,0,0,0,0,0,0,0,0,-1,1728,330,0,0
511,694,0,0,0,0,0,0,0,0,0,-1,1735,330,0,0
518,694,0,0,0,0,0,0,0,0,0,-1,1742,330,0,0
525,694,0,0,0,0,0,0,0,0,0,-1,1749,330,0,0
532,694,0,0,0,0,0,0,0,0,0,-1,1756,330,0,0
539,694,0,0,0,0,0,0,0,0,0,-1,1763,330,0,0
546,694,0,0,0,0,0,0,0,0,0,-1,1770,330,0,0
553,694,0,0,0,0,0,0,0,0,0,-1,1777,330,0,0
560,694,0,0,0,0,0,0,0,0,0,-1,1784,330,0,0
567,694,0,0,0,0,0,0,0,0,0,-1,1791,330,0,0
574,694,0,0,0,0,0,0,0,0,0,-1,1798,330,0,0
581,694,0,0,0,0,0,0,0,0,0,-1,1805,330,0,0
588,694,0,0,0,0,0,0,0,0,0,-1,1812,330,0,0
595,694,0,0,0,0,0,0,0,0,0,-1,1819,330,0,0
602,694,0,0,0,0,0,0,0,0,0,-1,1826,330,0,0
609,694,0,0,0,0,0,0,0,0,0,-1,1833,330,0,0
616,694,0,0,0,0,0,0,0,0,0,-1,1840,330,0,0
623,694,0,0,0,0,0,0,0,0,0,-1,1847,330,0,0
630,694,0,0,0,0,0,0,0,0,0,-1,1854,330,0,0
637,694,0,0,0,0,0,0,0,0,0,-1,1861,330,0,0
644,694,0,0,0,0,0,0,0,0,0,-1,1868,330,0,0
651,694,0,0,0,0,0,0,0,0,0,-1,1875,330,0,0
658,694,0,0,0,0,0,0,0,0,0,-1,1882,330,0,0
665,694,0,0,0,0,0,0,0,0,0,-1,1889,330,0,0
672,694,0,0,0,0,0,0,0,0,0,-1,1896,330,0,0
679,694,0,0,0,0,0,0,0,0,0,-1,1903,330,0,0
686,694,0,0,0,0,0,0,0,0,0,-1,1910,330,0,0
693,694,0,0,0,0,0,0,0,0,0,-1,1917,330,0,0
700,694,0,0,0,0,0,0,0,0,0,-1,1924,330,0,0
707,694,0,0,0,0,0,0,0,0,0,-1,1931,330,0,0
714,694,0,0,0,0,0,0,0,0,0,-1,1938,330,0,0
721,694,0,0,0,0,0,0,0,0,0,-1,1945,330,0,0
728,694,0,0,0,0,0,0,0,0,0,-1,1952,330,0,0
735,694,0,0,0,0,0,0,0,0,0,-1,1959,330,0,0
742,694,0,0,0,0,0,0,0,0,0,-1,1966,330,0,0
749,694,0,0,0,0,0,0,0,0,0,-1,1973,330,0,0
756,694,0,0,0,0,0,0,0,0,0,-1,1980,330,0,0
763,694,0,0,0,0,0,0,0,0,0,-1,1987,330,0,0
770,694,0,0,0,0,0,0,0,0,0,-1,1994,330,0,0
777,694,0,0,0,0,0,0,0,0,0,-1,2001,330,0,0
784,694,0,0,0,0,0,0,0,0,0,-1,2008,330,0,0
791,694,0,0,0,0,0,0,0,0,0,-1,2015,330,0,0
798,694,0,0,0,0,0,0,0,0,0,-1,2022,330,0,0
805,694,0,0,0,0,0,0,0,0,0,-1,2029,330,0,0
812,694,0,0,0,0,0,0,0,0,0,-1,2036,330,0,0
-700,687,0,0,0,0,0,0,0,0,0,-1,524,337,0,0
-693,687,0,0,0,0,0,0,0,0,0,-1,531,337,0,0
-686,687,0,0,0,0,0,0,0,0,0,-1,538,337,0,0
-679,687,0,0,0,0,0,0,0,0,0,-1,545,337,0,0
-672,687,0,0,0,0,0,0,0,0,0,-1,552,337,0,0
-665,687,0,0,0,0,0,0,0,0,0,-1,559,337,0,0
-658,687,0,0,0,0,0,0,0,0,0,-1,566,337,0,0
-651,687,0,0,0,0,0,0,0,0,0,-1,573,337,0,0
-644,687,0,0,0,0,0,0,0,0,0,-1,580,337,0,0
-637,687,0,0,0,0,0,0,0,0,0,-1,587,337,0,0
-630,687,0,0,0,0,0,0,0,0,0,-1,594,337,0,0
-623,687,0,0,0,0,0,0,0,0,0,-1,601,337,0,0
-616,687,0,0,0,0,0,0,0,0,0,-1,608,337,0,0
-609,687,0,0,0,0,0,0,0,0,0,-1,615,337,0,0
-602,687,0,0,0,0,0,0,0,0,0,-1,622,337,0,0
-595,687,0,0,0,0,0,0,0,0,0,-1,629,337,0,0
-588,687,0,0,0,0,0,0,0,0,0,-1,636,337,0,0
-581,687,0,0,0,0,0,0,0,0,0,-1,643,337,0,0
-574,687,0,0,0,0,0,0,0,0,0,-1,650,337,0,0
-567,687,0,0,0,0,0,0,0,0,0,-1,657,337,0,0
-560,687,0,0,0,0,0,0,0,0,0,-1,664,337,0,0
-553,687,0,0,0,0,0,0,0,0,0,-1,671,337,0,0
-546,687,0,0,0,0,0,0,0,0,0,-1,678,337,0,0
-539,687,0,0,0,0,0,0,0,0,0,-1,685,337,0,0
-532,687,0,0,0,0,0,0,0,0,0,-1,692,337,0,0
-525,687,0,0,0,0,0,0,0,0,0,-1,699,337,0,0
-518,687,0,0,0,0,0,0,0,0,0,-1,706,337,0,0
-511,687,0,0,0,0,0,0,0,0,0,-1,713,337,0,0
-504,687,0,0,0,0,0,0,0,0,0,-1,720,337,0,0
-497,687,0,0,0,0,0,0,0,0,0,-1,727,337,0,0
-490,687,0,0,0,0,0,0,0,0,0,-1,734,337,0,0
-483,687,0,0,0,0,0,0,0,0,0,-1,741,337,0,0
-476,687,0,0,0,0,0,0,0,0,0,-1,748,337,0,0
-469,687,0,0,0,0,0,0,0,0,0,-1,755,337,0,0
-462,687,0,0,0,0,0,0,0,0,0,-1,762,337,0,0
-455,687,0,0,0,0,0,0,0,0,0,-1,769,337,0,0
-448,687,0,0,0,0,0,0,0,0,0,-1,776,337,0,0
-441,687,0,0,0,0,0,0,0,0,0,-1,783,337,0,0
-434,687,0,0,0,0,0,0,0,0,0,-1,790,337,0,0
-427,687,0,0,0,0,0,0,0,0,0,-1,797,337,0,0
-420,687,0,0,0,0,0,0,0,0,0,-1,804,337,0,0
-413,687,0,0,0,0,0,0,0,0,0,-1,811,337,0,0
-406,687,0,0,0,0,0,0,0,0,0,-1,818,337,0,0
-399,687,0,0,0,0,0,0,0,0,0,-1,825,337,0,0
-392,687,0,0,0,0,0,0,0,0,0,-1,832,337,0,0
-385,687,0,0,0,0,0,0,0,0,0,-1,839,337,0,0
-378,687,0,0,0,0,0,0,0,0,0,-1,846,337,0,0
-371,687,0,0,0,0,0,0,0,0,0,-1,853,337,0,0
-364,687,0,0,0,0,0,0,0,0,0,-1,860,337,0,0
-357,687,0,0,0,0,0,0,0,0,0,-1,867,337,0,0
-350,687,0,0,0,0,0,0,0,0,0,-1,874,337,0,0
-343,687,0,0,0,0,0,0,0,0,0,-1,881,337,0,0
-336,687,0,0,0,0,0,0,0,0,0,-1,888,337,0,0
-329,687,0,0,0,0,0,0,0,0,0,-1,895,337,0,0
-322,687,0,0,0,0,0,0,0,0,0,-1,902,337,0,0
-315,687,0,0,0,0,0,0,0,0,0,-1,909,337,0,0
-308,687,0,0,0,0,0,0,0,0,0,-1,916,337,0,0
-301,687,0,0,0,0,0,0,0,0,0,-1,923,337,0,0
-294,687,0,0,0,0,0,0,0,0,0,-1,930,337,0,0
-287,687,0,0,0,0,0,0,0,0,0,-1,937,337,0,0
-280,687,0,0,0,0,0,0,0,0,0,-1,944,337,0,0
-273,687,0,0,0,0,0,0,0,0,0,-1,951,337,0,0
-266,687,0,0,0,0,0,0,0,0,0,-1,958,337,0,0
-259,687,0,0,0,0,0,0,0,0,0,-1,965,337,0,0
-252,687,0,0,0,0,0,0,0,0,0,-1,972,337,0,0
-245,687,0,0,0,0,0,0,0,0,0,-1,979,337,0,0
-238,687,0,0,0,0,0,0,0,0,0,-1,986,337,0,0
-231,687,0,0,0,0,0,0,0,0,0,-1,993,337,0,0
-224,687,0,0,0,0,0,0,0,0,0,-1,1000,337,0,0
-217,687,0,0,0,0,0,0,0,0,0,-1,1007,337,0,0
-210,687,0,0,0,0,0,0,0,0,0,-1,1014,337,0,0
-203,687,0,0,0,0,0,0,0,0,0,-1,1021,337,0,0
-196,687,0,0,0,0,0,0,0,0,0,-1,1028,337,0,0
-189,687,0,0,0,0,0,0,0,0,0,-1,1035,337,0,0
-182,687,0,0,0,0,0,0,0,0,0,-1,1042,337,0,0
-175,687,0,0,0,0,0,0,0,0,0,-1,1049,337,0,0
-168,687,0,0,0,0,0,0,0,0,0,-1,1056,337,0,0
-161,687,0,0,0,0,0,0,0,0,0,-1,1063,337,0,0
-154,687,0,0,0,0,0,0,0,0,0,-1,1070,337,0,0
-147,687,0,0,0,0,0,0,0,0,0,-1,1077,337,0,0
-140,687,0,0,0,0,0,0,0,0,0,-1,1084,337,0,0
-133,687,2.16895,-19.4911,0.0180231,-0.147089,0.0243868,0.0215497,-0.150615,0.143615,0.10831,0.0434838,1091,337,2.16889,19.4911
-126,687,2.38037,-19.2821,0,0,0,0,0,0,0,-1,1098,337,2.38042,19.2821
-119,687,2.61243,-19.0024,0,0,0,0,0,0,0,-1,1105,337,2.61248,19.0024
-112,687,5.13892,-15.471,0,0,0,0,0,0,0,-1,1112,337,5.13889,15.471
-105,687,5.94409,-14.8406,0,0,0,0,0,0,0,-1,1119,337,5.9441,14.8406
-98,687,3.3291,-14.513,0,0,0,0,0,0,0,-1,1126,337,3.32905,14.513
-91,687,2.28162,-7.72437,0,0,0,0,0,0,0,-1,1133,337,2.28167,7.72437
-84,687,-0.867676,-5.7392,0,0,0,0,0,0,0,-1,1140,337,-0.867619,5.73919
-77,687,-3.63806,-12.9185,0,0,0,0,0,0,0,-1,1147,337,-3.6381,12.9185
-70,687,-6.24756,-13.2618,0,0,0,0,0,0,0,-1,1154,337,-6.24752,13.2618
-63,687,-8.37585,-12.8959,0,0,0,0,0,0,0,-1,1161,337,-8.3758,12.8959
-56,687,-10.7112,-8.02322,0,0,0,0,0,0,0,-1,1168,337,-10.7112,8.02323
-49,687,-7.44934,-0.550262,0,0,0,0,0,0,0,-1,1175,337,-7.44938,0.550261
-42,687,-4.2019,-0.405609,0,0,0,0,0,0,0,-1,1182,337,-4.20192,0.405614
-35,687,-4.42273,-0.688171,0,0,0,0,0,0,0,-1,1189,337,-4.42276,0.688178
-28,687,-1.14038,-1.39072,0,0,0,0,0,0,0,-1,1196,337,-1.14035,1.3907
-21,687,3.0542,-16.6693,0,0,0,0,0,0,0,-1,1203,337,3.05416,16.6693
-14,687,3.21863,-16.3812,-0.00215935,-0.0059772,0.00777034,0.00393311,-0.0120697,0.664949,0.00962907,0.0439371,1210,337,3.21864,16.3812
-7,687,3.3269,-16.1852,-0.00207321,0.0103502,0.000887954,0.0104133,-0.00213636,1.4998,0.00775308,0.0459445,1217,337,3.32688,16.1852
0,687,3.28857,-16.2408,0,0,0,0,0,0,0,-1,1224,337,3.28856,16.2408
7,687,3.87817,-14.6406,0,0,0,0,0,0,0,-1,1231,337,3.87814,14.6406
14,687,3.93445,-13.9507,0,0,0,0,0,0,0,-1,1238,337,3.93441,13.9507
21,687,2.97241,-16.4344,0,0,0,0,0,0,0,-1,1245,337,2.97244,16.4344
28,687,2.23694,-17.0287,0,0,0,0,0,0,0,-1,1252,337,2.23693,17.0287
35,687,1.57898,-16.8219,0.00162549,0.0406082,-0.0235924,0.0517193,-0.00948565,-1.13065,0.0380377,0.0494413,1259,337,1.57898,16.8219
42,687,1.14636,-17.0909,0.00139569,0.0399956,-0.0242524,0.0516903,-0.010299,-1.12148,0.0383569,0.047248,1266,337,1.14631,17.0909
49,687,3.14685,-15.9117,0.000696522,0.0393761,-0.0237987,0.0507024,-0.0106298,-1.1266,0.0378457,0.0465922,1273,337,3.14689,15.9118
56,687,2.91248,-16.016,0.0002288,0.0358801,-0.0221025,0.0464495,-0.0103405,-1.12474,0.0349272,0.0459343,1280,337,2.91248,16.016
63,687,2.79993,-15.9619,-0.00116603,0.0346658,-0.0195437,0.0432628,-0.00976306,-1.15638,0.0325874,0.0440552,1287,337,2.79997,15.9619
70,687,2.24316,-16.0566,-0.00307155,0.033508,-0.0169994,0.0401881,-0.00975167,-1.19637,0.0305656,0.040194,1294,337,2.24314,16.0566
77,687,1.59668,-16.3712,0,0,0,0,0,0,0,-1,1301,337,1.59673,16.3711
84,687,2.74963,-16.4531,0,0,0,0,0,0,0,-1,1308,337,2.74964,16.4531
91,687,1.9408,-16.6093,-0.00914555,0.046468,-0.014284,0.0499223,-0.0125998,-1.33353,0.0381808,0.0445236,1315,337,1.94079,16.6093
98,687,2.03088,-16.2818,-0.0116715,0.052031,-0.0139528,0.0549531,-0.0145936,-1.36436,0.0423466,0.0474616,1322,337,2.03086,16.2818
105,687,2.62415,-15.8391,-0.0141588,0.0608398,-0.0142011,0.0634388,-0.0167577,-1.38979,0.0488462,0.0464505,1329,337,2.62412,15.8391
112,687,2.33215,-16.4555,-0.0162344,0.0725505,-0.0156239,0.0752197,-0.0189036,-1.40159,0.0574931,0.046561,1336,337,2.33218,16.4555
119,687,1.96851,-16.7701,-0.0182173,0.0852067,-0.0176976,0.0881512,-0.0211618,-1.40593,0.0669457,0.0432171,1343,337,1.96854,16.77
126,687,1.98584,-16.9627,0,0,0,0,0,0,0,-1,1350,337,1.98578,16.9627
133,687,3.35754,-18.3529,-0.021732,0.109987,-0.0238462,0.114171,-0.0259161,-1.3971,0.0860636,0.0488023,1357,337,3.35752,18.3529
140,687,2.77637,-18.3748,-0.0233559,0.121209,-0.0271031,0.126123,-0.0282702,-1.39143,0.0949195,0.0487476,1364,337,2.77633,18.3748
147,687,2.5011,-18.5601,0,0,0,0,0,0,0,-1,1371,337,2.50113,18.5601
154,687,1.76819,-15.0138,0,0,0,0,0,0,0,-1,1378,337,1.76819,15.0138
161,687,1.80078,-12.469,0,0,0,0,0,0,0,-1,1385,337,1.80076,12.469
168,687,6.66968,1.37039,0,0,0,0,0,0,0,-1,1392,337,6.6697,-1.37039
175,687,6.64075,0.771606,0,0,0,0,0,0,0,-1,1399,337,6.64073,-0.771595
182,687,6.67249,0.289917,0,0,0,0,0,0,0,-1,1406,337,6.67247,-0.289916
189,687,7.76062,4.53635,0,0,0,0,0,0,0,-1,1413,337,7.76064,-4.53636
196,687,6.99048,3.2966,0,0,0,0,0,0,0,-1,1420,337,6.99046,-3.2966
203,687,6.36499,2.1445,0,0,0,0,0,0,0,-1,1427,337,6.36499,-2.14451
210,687,6.68066,0.674652,0,0,0,0,0,0,0,-1,1434,337,6.68062,-0.674655
217,687,5.99683,-0.630493,0,0,0,0,0,0,0,-1,1441,337,5.99684,0.630497
224,687,5.52917,0.524902,0,0,0,0,0,0,0,-1,1448,337,5.5292,-0.524915
231,687,5.85583,-1.73651,0,0,0,0,0,0,0,-1,1455,337,5.85577,1.73651
238,687,5.96582,-2.96774,0,0,0,0,0,0,0,-1,1462,337,5.96577,2.96773
245,687,1.28259,2.32211,0,0,0,0,0,0,0,-1,1469,337,1.28258,-2.32211
252,687,1.97278,3.88422,0,0,0,0,0,0,0,-1,1476,337,1.97281,-3.88421
259,687,0,0,0,0,0,0,0,0,0,-1,1483,337,0,0
266,687,0,0,0,0,0,0,0,0,0,-1,1490,337,0,0
273,687,0,0,0,0,0,0,0,0,0,-1,1497,337,0,0
280,687,0,0,0,0,0,0,0,0,0,-1,1504,337,0,0
287,687,0,0,0,0,0,0,0,0,0,-1,1511,337,0,0
294,687,0,0,0,0,0,0,0,0,0,-1,1518,337,0,0
301,687,0,0,0,0,0,0,0,0,0,-1,1525,337,0,0
308,687,0,0,0,0,0,0,0,0,0,-1,1532,337,0,0
315,687,0,0,0,0,0,0,0,0,0,-1,1539,337,0,0
322,687,0,0,0,0,0,0,0,0,0,-1,1546,337,0,0
329,687,0,0,0,0,0,0,0,0,0,-1,1553,337,0,0
336,687,0,0,0,0,0,0,0,0,0,-1,1560,337,0,0
343,687,0,0,0,0,0,0,0,0,0,-1,1567,337,0,0
350,687,0,0,0,0,0,0,0,0,0,-1,1574,337,0,0
357,687,0,0,0,0,0,0,0,0,0,-1,1581,337,0,0
364,687,0,0,0,0,0,0,0,0,0,-1,1588,337,0,0
371,687,0,0,0,0,0,0,0,0,0,-1,1595,337,0,0
378,687,0,0,0,0,0,0,0,0,0,-1,1602,337,0,0
385,687,0,0,0,0,0,0,0,0,0,-1,1609,337,0,0
392,687,0,0,0,0,0,0,0,0,0,-1,1616,337,0,0
399,687,0,0,0,0,0,0,0,0,0,-1,1623,337,0,0
406,687,0,0,0,0,0,0,0,0,0,-1,1630,337,0,0
413,687,0,0,0,0,0,0,0,0,0,-1,1637,337,0,0
420,687,0,0,0,0,0,0,0,0,0,-1,1644,337,0,0
427,687,0,0,0,0,0,0,0,0,0,-1,1651,337,0,0
434,687,0,0,0,0,0,0,0,0,0,-1,1658,337,0,0
441,687,0,0,0,0,0,0,0,0,0,-1,1665,337,0,0
448,687,0,0,0,0,0,0,0,0,0,-1,1672,337,0,0
455,687,0,0,0,0,0,0,0,0,0,-1,1679,337,0,0
462,687,0,0,0,0,0,0,0,0,0,-1,1686,337,0,0
469,687,0,0,0,0,0,0,0,0,0,-1,1693,337,0,0
476,687,0,0,0,0,0,0,0,0,0,-1,1700,337,0,0
483,687,0,0,0,0,0,0,0,0,0,-1,1707,337,0,0
490,687,0,0,0,0,0,0,0,0,0,-1,1714,337,0,0
497,687,0,0,0,0,0,0,0,0,0,-1,1721,337,0,0
504,687,0,0,0,0,0,0,0,0,0,-1,1728,337,0,0
511,687,0,0,0,0,0,0,0,0,0,-1,1735,337,0,0
518,687,0,0,0,0,0,0,0,0,0,-1,1742,337,0,0
525,687,0,0,0,0,0,0,0,0,0,-1,1749,337,0,0
532,687,0,0,0,0,0,0,0,0,0,-1,1756,337,0,0
539,687,0,0,0,0,0,0,0,0,0,-1,1763,337,0,0
546,687,0,0,0,0,0,0,0,0,0,-1,1770,337,0,0
553,687,0,0,0,0,0,0,0,0,0,-1,1777,337,0,0
560,687,0,0,0,0,0,0,0,0,0,-1,1784,337,0,0
567,687,0,0,0,0,0,0,0,0,0,-1,1791,337,0,0
574,687,0,0,0,0,0,0,0,0,0,-1,1798,337,0,0
581,687,0,0,0,0,0,0,0,0,0,-1,1805,337,0,0
588,687,0,0,0,0,0,0,0,0,0,-1,1812,337,0,0
595,687,0,0,0,0,0,0,0,0,0,-1,1819,337,0,0
602,687,0,0,0,0,0,0,0,0,0,-1,1826,337,0,0
609,687,0,0,0,0,0,0,0,0,0,-1,1833,337,0,0
616,687,0,0,0,0,0,0,0,0,0,-1,1840,337,0,0
623,687,0,0,0,0,0,0,0,0,0,-1,1847,337,0,0
630,687,0,0,0,0,0,0,0,0,0,-1,1854,337,0,0
637,687,0,0,0,0,0,0,0,0,0,-1,1861,337,0,0
644,687,0,0,0,0,0,0,0,0,0,-1,1868,337,0,0
651,687,0,0,0,0,0,0,0,0,0,-1,1875,337,0,0
658,687,0,0,0,0,0,0,0,0,0,-1,1882,337,0,0
665,687,0,0,0,0,0,0,0,0,0,-1,1889,337,0,0
672,687,0,0,0,0,0,0,0,0,0,-1,1896,337,0,0
679,687,0,0,0,0,0,0,0,0,0,-1,1903,337,0,0
686,687,0,0,0,0,0,0,0,0,0,-1,1910,337,0,0
693,687,0,0,0,0,0,0,0,0,0,-1,1917,337,0,0
700,687,0,0,0,0,0,0,0,0,0,-1,1924,337,0,0
707,687,0,0,0,0,0,0,0,0,0,-1,1931,337,0,0
714,687,0,0,0,0,0,0,0,0,0,-1,1938,337,0,0
721,687,0,0,0,0,0,0,0,0,0,-1,1945,337,0,0
728,687,0,0,0,0,0,0,0,0,0,-1,1952,337,0,0
735,687,0,0,0,0,0,0,0,0,0,-1,1959,337,0,0
742,687,0,0,0,0,0,0,0,0,0,-1,1966,337,0,0
749,687,0,0,0,0,0,0,0,0,0,-1,1973,337,0,0
756,687,0,0,0,0,0,0,0,0,0,-1,1980,337,0,0
763,687,0,0,0,0,0,0,0,0,0,-1,1987,337,0,0
770,687,0,0,0,0,0,0,0,0,0,-1,1994,337,0,0
777,687,0,0,0,0,0,0,0,0,0,-1,2001,337,0,0
784,687,0,0,0,0,0,0,0,0,0,-1,2008,337,0,0
791,687,0,0,0,0,0,0,0,0,0,-1,2015,337,0,0
798,687,0,0,0,0,0,0,0,0,0,-1,2022,337,0,0
805,687,0,0,0,0,0,0,0,0,0,-1,2029,337,0,0
812,687,0,0,0,0,0,0,0,0,0,-1,2036,337,0,0
-700,680,0,0,0,0,0,0,0,0,0,-1,524,344,0,0
-693,680,0,0,0,0,0,0,0,0,0,-1,531,344,0,0
-686,680,0,0,0,0,0,0,0,0,0,-1,538,344,0,0
-679,680,0,0,0,0,0,0,0,0,0,-1,545,344,0,0
-672,680,0,0,0,0,0,0,0,0,0,-1,552,344,0,0
-665,680,0,0,0,0,0,0,0,0,0,-1,559,344,0,0
-658,680,0,0,0,0,0,0,0,0,0,-1,566,344,0,0
-651,680,0,0,0,0,0,0,0,0,0,-1,573,344,0,0
-644,680,0,0,0,0,0,0,0,0,0,-1,580,344,0,0
-637,680,0,0,0,0,0,0,0,0,0,-1,587,344,0,0
-630,680,0,0,0,0,0,0,0,0,0,-1,594,344,0,0
-623,680,0,0,0,0,0,0,0,0,0,-1,601,344,0,0
-616,680,0,0,0,0,0,0,0,0,0,-1,608,344,0,0
-609,680,0,0,0,0,0,0,0,0,0,-1,615,344,0,0
-602,680,0,0,0,0,0,0,0,0,0,-1,622,344,0,0
-595,680,0,0,0,0,0,0,0,0,0,-1,629,344,0,0
-588,680,0,0,0,0,0,0,0,0,0,-1,636,344,0,0
-581,680,0,0,0,0,0,0,0,0,0,-1,643,344,0,0
-574,680,0,0,0,0,0,0,0,0,0,-1,650,344,0,0
-567,680,0,0,0,0,0,0,0,0,0,-1,657,344,0,0
-560,680,0,0,0,0,0,0,0,0,0,-1,664,344,0,0
-553,680,0,0,0,0,0,0,0,0,0,-1,671,344,0,0
-546,680,0,0,0,0,0,0,0,0,0,-1,678,344,0,0
-539,680,0,0,0,0,0,0,0,0,0,-1,685,344,0,0
-532,680,0,0,0,0,0,0,0,0,0,-1,692,344,0,0
-525,680,0,0,0,0,0,0,0,0,0,-1,699,344,0,0
-518,680,0,0,0,0,0,0,0,0,0,-1,706,344,0,0
-511,680,0,0,0,0,0,0,0,0,0,-1,713,344,0,0
-504,680,0,0,0,0,0,0,0,0,0,-1,720,344,0,0
-497,680,0,0,0,0,0,0,0,0,0,-1,727,344,0,0
-490,680,0,0,0,0,0,0,0,0,0,-1,734,344,0,0
-483,680,0,0,0,0,0,0,0,0,0,-1,741,344,0,0
-476,680,0,0,0,0,0,0,0,0,0,-1,748,344,0,0
-469,680,0,0,0,0,0,0,0,0,0,-1,755,344,0,0
-462,680,0,0,0,0,0,0,0,0,0,-1,762,344,0,0
-455,680,0,0,0,0,0,0,0,0,0,-1,769,344,0,0
-448,680,0,0,0,0,0,0,0,0,0,-1,776,344,0,0
-441,680,0,0,0,0,0,0,0,0,0,-1,783,344,0,0
-434,680,0,0,0,0,0,0,0,0,0,-1,790,344,0,0
-427,680,0,0,0,0,0,0,0,0,0,-1,797,344,0,0
-420,680,0,0,0,0,0,0,0,0,0,-1,804,344,0,0
-413,680,0,0,0,0,0,0,0,0,0,-1,811,344,0,0
-406,680,0,0,0,0,0,0,0,0,0,-1,818,344,0,0
-399,680,0,0,0,0,0,0,0,0,0,-1,825,344,0,0
-392,680,0,0,0,0,0,0,0,0,0,-1,832,344,0,0
-385,680,0,0,0,0,0,0,0,0,0,-1,839,344,0,0
-378,680,0,0,0,0,0,0,0,0,0,-1,846,344,0,0
-371,680,0,0,0,0,0,0,0,0,0,-1,853,344,0,0
-364,680,0,0,0,0,0,0,0,0,0,-1,860,344,0,0
-357,680,0,0,0,0,0,0,0,0,0,-1,867,344,0,0
-350,680,0,0,0,0,0,0,0,0,0,-1,874,344,0,0
-343,680,0,0,0,0,0,0,0,0,0,-1,881,344,0,0
-336,680,0,0,0,0,0,0,0,0,0,-1,888,344,0,0
-329,680,0,0,0,0,0,0,0,0,0,-1,895,344,0,0
-322,680,0,0,0,0,0,0,0,0,0,-1,902,344,0,0
-315,680,0,0,0,0,0,0,0,0,0,-1,909,344,0,0
-308,680,0,0,0,0,0,0,0,0,0,-1,916,344,0,0
-301,680,0,0,0,0,0,0,0,0,0,-1,923,344,0,0
-294,680,0,0,0,0,0,0,0,0,0,-1,930,344,0,0
-287,680,0,0,0,0,0,0,0,0,0,-1,937,344,0,0
-280,680,0,0,0,0,0,0,0,0,0,-1,944,344,0,0
-273,680,0,0,0,0,0,0,0,0,0,-1,951,344,0,0
-266,680,0,0,0,0,0,0,0,0,0,-1,958,344,0,0
-259,680,0,0,0,0,0,0,0,0,0,-1,965,344,0,0
-252,680,0,0,0,0,0,0,0,0,0,-1,972,344,0,0
-245,680,0,0,0,0,0,0,0,0,0,-1,979,344,0,0
-238,680,0,0,0,0,0,0,0,0,0,-1,986,344,0,0
-231,680,0,0,0,0,0,0,0,0,0,-1,993,344,0,0
-224,680,0,0,0,0,0,0,0,0,0,-1,1000,344,0,0
-217,680,0,0,0,0,0,0,0,0,0,-1,1007,344,0,0
-210,680,0,0,0,0,0,0,0,0,0,-1,1014,344,0,0
-203,680,0,0,0,0,0,0,0,0,0,-1,1021,344,0,0
-196,680,0,0,0,0,0,0,0,0,0,-1,1028,344,0,0
-189,680,0,0,0,0,0,0,0,0,0,-1,1035,344,0,0
-182,680,0,0,0,0,0,0,0,0,0,-1,1042,344,0,0
-175,680,0,0,0,0,0,0,0,0,0,-1,1049,344,0,0
-168,680,0,0,0,0,0,0,0,0,0,-1,1056,344,0,0
-161,680,0,0,0,0,0,0,0,0,0,-1,1063,344,0,0
-154,680,2.93018,-16.3629,0,0,0,0,0,0,0,-1,1070,344,2.93013,16.3629
-147,680,3.46252,-19.0056,0,0,0,0,0,0,0,-1,1077,344,3.46254,19.0056
-140,680,1.35376,-18.4617,0,0,0,0,0,0,0,-1,1084,344,1.35371,18.4617
-133,680,1.7467,-18.0083,0,0,0,0,0,0,0,-1,1091,344,1.74676,18.0083
-126,680,1.97461,-17.2835,0,0,0,0,0,0,0,-1,1098,344,1.97462,17.2835
-119,680,2.13049,-16.6883,0,0,0,0,0,0,0,-1,1105,344,2.13053,16.6883
-112,680,1.88782,-16.1478,0,0,0,0,0,0,0,-1,1112,344,1.88779,16.1478
-105,680,2.05859,-15.2872,0,0,0,0,0,0,0,-1,1119,344,2.05854,15.2872
-98,680,2.21985,-14.6345,0,0,0,0,0,0,0,-1,1126,344,2.21979,14.6345
-91,680,1.9729,-14.1433,0,0,0,0,0,0,0,-1,1133,344,1.97292,14.1433
-84,680,1.92285,-8.71033,0,0,0,0,0,0,0,-1,1140,344,1.92286,8.71034
-77,680,-1.90417,-7.02802,0,0,0,0,0,0,0,-1,1147,344,-1.90412,7.02801
-70,680,-4.04382,-16.124,0,0,0,0,0,0,0,-1,1154,344,-4.04388,16.124
-63,680,-5.41333,-13.0013,0,0,0,0,0,0,0,-1,1161,344,-5.41332,13.0013
-56,680,-6.96912,-8.83356,0,0,0,0,0,0,0,-1,1168,344,-6.96907,8.83354
-49,680,-6.7677,-2.24063,0,0,0,0,0,0,0,-1,1175,344,-6.76772,2.24063
-42,680,-1.02368,0.618805,0,0,0,0,0,0,0,-1,1182,344,-1.0237,-0.618797
-35,680,-0.947876,-0.942719,0,0,0,0,0,0,0,-1,1189,344,-0.947842,0.942731
-28,680,-1.46118,-1.10574,0,0,0,0,0,0,0,-1,1196,344,-1.4612,1.10575
-21,680,3.13684,-15.9756,0,0,0,0,0,0,0,-1,1203,344,3.13686,15.9756
-14,680,3.02539,-16.1029,-0.00289827,-0.00268447,0.00442628,0.0016362,-0.00721894,0.797471,0.00544067,0.043799,1210,344,3.02541,16.1029
-7,680,3.03491,-16.1196,-0.00267375,0.0073551,0.000233242,0.00736052,-0.00267918,1.54756,0.00600279,0.046522,1217,344,3.0349,16.1196
0,680,2.90234,-16.2495,0,0,0,0,0,0,0,-1,1224,344,2.90233,16.2495
7,680,2.49426,-16.3616,0,0,0,0,0,0,0,-1,1231,344,2.49425,16.3616
14,680,2.86768,-16.3408,0,0,0,0,0,0,0,-1,1238,344,2.86765,16.3408
21,680,2.92468,-16.3998,-0.000654188,0.0277789,-0.0136471,0.033269,-0.0061443,-1.18832,0.0244858,0.0499844,1245,344,2.92471,16.3998
28,680,2.51501,-16.7556,-0.000207564,0.0306435,-0.0152695,0.0369229,-0.00648698,-1.18064,0.0270383,0.0473208,1252,344,2.51505,16.7556
35,680,2.07703,-16.673,0.000236267,0.0306504,-0.0163551,0.0377759,-0.00688924,-1.15992,0.0277667,0.0438014,1259,344,2.07699,16.673
42,680,2.60596,-16.3705,-1.71029e-05,0.0308559,-0.016862,0.0382801,-0.0074413,-1.15604,0.0283282,0.046394,1266,344,2.60592,16.3704
49,680,2.59375,-16.3326,-0.000567001,0.0309785,-0.0166757,0.0381592,-0.00774763,-1.16419,0.0283768,0.0433415,1273,344,2.59371,16.3326
56,680,2.73877,-16.347,-0.000820485,0.0288401,-0.0155811,0.0355204,-0.00750088,-1.16575,0.0265363,0.0416059,1280,344,2.73883,16.347
63,680,2.86511,-16.3385,-0.00187881,0.0280831,-0.0138234,0.0334864,-0.00728206,-1.19818,0.0251061,0.0392947,1287,344,2.86507,16.3385
70,680,2.63501,-16.282,-0.00335408,0.0272386,-0.012139,0.03147,-0.00758547,-1.23539,0.0239129,0.036764,1294,344,2.63501,16.282
77,680,2.83997,-16.2833,-0.00454952,0.0281975,-0.0110106,0.0315553,-0.00790731,-1.27479,0.0241088,0.0418998,1301,344,2.83993,16.2833
84,680,2.72791,-16.4865,-0.00618224,0.0320559,-0.0108313,0.0349109,-0.00903717,-1.31308,0.0267991,0.0443788,1308,344,2.72786,16.4865
91,680,2.76782,-16.6044,-0.00787356,0.0365208,-0.0106146,0.0389281,-0.0102809,-1.34777,0.0299727,0.0479671,1315,344,2.76778,16.6044
98,680,2.47974,-16.2966,-0.00982698,0.0401134,-0.0105292,0.0422425,-0.0119562,-1.37127,0.0328799,0.047628,1322,344,2.47973,16.2966
105,680,2.43054,-16.1696,-0.0116777,0.0461194,-0.010854,0.0480905,-0.0136488,-1.39115,0.0374484,0.046021,1329,344,2.43059,16.1696
112,680,2.51868,-16.3237,-0.0131122,0.0542447,-0.0119784,0.0563114,-0.015179,-1.39994,0.0434927,0.0456967,1336,344,2.51873,16.3237
119,680,2.23743,-16.9833,-0.0144269,0.0629902,-0.0134897,0.0652734,-0.0167101,-1.40313,0.0500248,0.0438744,1343,344,2.23737,16.9833
126,680,2.53113,-15.9766,0,0,0,0,0,0,0,-1,1350,344,2.53117,15.9766
133,680,4.30408,-19.9041,0,0,0,0,0,0,0,-1,1357,344,4.30406,19.9041
140,680,3.61353,-19.7455,0,0,0,0,0,0,0,-1,1364,344,3.61358,19.7456
147,680,2.54626,-15.9788,0,0,0,0,0,0,0,-1,1371,344,2.54622,15.9788
154,680,2.56799,-15.8493,0,0,0,0,0,0,0,-1,1378,344,2.56804,15.8493
161,680,2.09741,-15.4935,0,0,0,0,0,0,0,-1,1385,344,2.0974,15.4935
168,680,6.85046,1.69257,0,0,0,0,0,0,0,-1,1392,344,6.85045,-1.69257
175,680,6.66541,0.942078,0,0,0,0,0,0,0,-1,1399,344,6.66538,-0.942088
182,680,6.52917,0.532379,0,0,0,0,0,0,0,-1,1406,344,6.52922,-0.532385
189,680,7.55884,4.77695,0,0,0,0,0,0,0,-1,1413,344,7.55886,-4.77694
196,680,6.55627,3.35254,0,0,0,0,0,0,0,-1,1420,344,6.55622,-3.35255
203,680,5.7334,1.90753,0,0,0,0,0,0,0,-1,1427,344,5.73341,-1.90754
210,680,5.27515,0.493622,0,0,0,0,0,0,0,-1,1434,344,5.27514,-0.493632
217,680,6.56384,-0.374176,0,0,0,0,0,0,0,-1,1441,344,6.56379,0.374176
224,680,3.9491,-0.640228,0,0,0,0,0,0,0,-1,1448,344,3.94908,0.64024
231,680,4.24866,-1.96881,0,0,0,0,0,0,0,-1,1455,344,4.2486,1.96882
238,680,4.29333,-3.23984,0,0,0,0,0,0,0,-1,1462,344,4.29332,3.23984
245,680,2.44397,0.985382,0,0,0,0,0,0,0,-1,1469,344,2.44402,-0.985394
252,680,3.07349,2.18951,0,0,0,0,0,0,0,-1,1476,344,3.0735,-2.18952
259,680,2.82971,1.30682,0,0,0,0,0,0,0,-1,1483,344,2.82972,-1.30684
266,680,2.67554,1.44067,0,0,0,0,0,0,0,-1,1490,344,2.67551,-1.44066
273,680,2.46411,1.54666,0,0,0,0,0,0,0,-1,1497,344,2.46407,-1.54666
280,680,0,0,0,0,0,0,0,0,0,-1,1504,344,0,0
287,680,0,0,0,0,0,0,0,0,0,-1,1511,344,0,0
294,680,0,0,0,0,0,0,0,0,0,-1,1518,344,0,0
301,680,0,0,0,0,0,0,0,0,0,-1,1525,344,0,0
308,680,0,0,0,0,0,0,0,0,0,-1,1532,344,0,0
315,680,0,0,0,0,0,0,0,0,0,-1,1539,344,0,0
322,680,0,0,0,0,0,0,0,0,0,-1,1546,344,0,0
329,680,0,0,0,0,0,0,0,0,0,-1,1553,344,0,0
336,680,0,0,0,0,0,0,0,0,0,-1,1560,344,0,0
343,680,0,0,0,0,0,0,0,0,0,-1,1567,344,0,0
350,680,0,0,0,0,0,0,0,0,0,-1,1574,344,0,0
357,680,0,0,0,0,0,0,0,0,0,-1,1581,344,0,0
364,680,0,0,0,0,0,0,0,0,0,-1,1588,344,0,0
371,680,0,0,0,0,0,0,0,0,0,-1,1595,344,0,0
378,680,0,0,0,0,0,0,0,0,0,-1,1602,344,0,0
385,680,0,0,0,0,0,0,0,0,0,-1,1609,344,0,0
392,680,0,0,0,0,0,0,0,0,0,-1,1616,344,0,0
399,680,0,0,0,0,0,0,0,0,0,-1,1623,344,0,0
406,680,0,0,0,0,0,0,0,0,0,-1,1630,344,0,0
413,680,0,0,0,0,0,0,0,0,0,-1,1637,344,0,0
420,680,0,0,0,0,0,0,0,0,0,-1,1644,344,0,0
427,680,0,0,0,0,0,0,0,0,0,-1,1651,344,0,0
434,680,0,0,0,0,0,0,0,0,0,-1,1658,344,0,0
441,680,0,0,0,0,0,0,0,0,0,-1,1665,344,0,0
448,680,0,0,0,0,0,0,0,0,0,-1,1672,344,0,0
455,680,0,0,0,0,0,0,0,0,0,-1,1679,344,0,0
462,680,0,0,0,0,0,0,0,0,0,-1,1686,344,0,0
469,680,0,0,0,0,0,0,0,0,0,-1,1693,344,0,0
476,680,0,0,0,0,0,0,0,0,0,-1,1700,344,0,0
483,680,0,0,0,0,0,0,0,0,0,-1,1707,344,0,0
490,680,0,0,0,0,0,0,0,0,0,-1,1714,344,0,0
497,680,0,0,0,0,0,0,0,0,0,-1,1721,344,0,0
504,680,0,0,0,0,0,0,0,0,0,-1,1728,344,0,0
511,680,0,0,0,0,0,0,0,0,0,-1,1735,344,0,0
518,680,0,0,0,0,0,0,0,0,0,-1,1742,344,0,0
525,680,0,0,0,0,0,0,0,0,0,-1,1749,344,0,0
532,680,0,0,0,0,0,0,0,0,0,-1,1756,344,0,0
539,680,0,0,0,0,0,0,0,0,0,-1,1763,344,0,0
546,680,0,0,0,0,0,0,0,0,0,-1,1770,344,0,0
553,680,0,0,0,0,0,0,0,0,0,-1,1777,344,0,0
560,680,0,0,0,0,0,0,0,0,0,-1,1784,344,0,0
567,680,0,0,0,0,0,0,0,0,0,-1,1791,344,0,0
574,680,0,0,0,0,0,0,0,0,0,-1,1798,344,0,0
581,680,0,0,0,0,0,0,0,0,0,-1,1805,344,0,0
588,680,0,0,0,0,0,0,0,0,0,-1,1812,344,0,0
595,680,0,0,0,0,0,0,0,0,0,-1,1819,344,0,0
602,680,0,0,0,0,0,0,0,0,0,-1,1826,344,0,0
609,680,0,0,0,0,0,0,0,0,0,-1,1833,344,0,0
616,680,0,0,0,0,0,0,0,0,0,-1,1840,344,0,0
623,680,0,0,0,0,0,0,0,0,0,-1,1847,344,0,0
630,680,0,0,0,0,0,0,0,0,0,-1,1854,344,0,0
637,680,0,0,0,0,0,0,0,0,0,-1,1861,344,0,0
644,680,0,0,0,0,0,0,0,0,0,-1,1868,344,0,0
651,680,0,0,0,0,0,0,0,0,0,-1,1875,344,0,0
658,680,0,0,0,0,0,0,0,0,0,-1,1882,344,0,0
665,680,0,0,0,0,0,0,0,0,0,-1,1889,344,0,0
672,680,0,0,0,0,0,0,0,0,0,-1,1896,344,0,0
679,680,0,0,0,0,0,0,0,0,0,-1,1903,344,0,0
686,680,0,0,0,0,0,0,0,0,0,-1,1910,344,0,0
693,680,0,0,0,0,0,0,0,0,0,-1,1917,344,0,0
700,680,0,0,0,0,0,0,0,0,0,-1,1924,344,0,0
707,680,0,0,0,0,0,0,0,0,0,-1,1931,344,0,0
714,680,0,0,0,0,0,0,0,0,0,-1,1938,344,0,0
721,680,0,0,0,0,0,0,0,0,0,-1,1945,344,0,0
728,680,0,0,0,0,0,0,0,0,0,-1,1952,344,0,0
735,680,0,0,0,0,0,0,0,0,0,-1,1959,344,0,0
742,680,0,0,0,0,0,0,0,0,0,-1,1966,344,0,0
749,680,0,0,0,0,0,0,0,0,0,-1,1973,344,0,0
756,680,0,0,0,0,0,0,0,0,0,-1,1980,344,0,0
763,680,0,0,0,0,0,0,0,0,0,-1,1987,344,0,0
770,680,0,0,0,0,0,0,0,0,0,-1,1994,344,0,0
777,680,0,0,0,0,0,0,0,0,0,-1,2001,344,0,0
784,680,0,0,0,0,0,0,0,0,0,-1,2008,344,0,0
791,680,0,0,0,0,0,0,0,0,0,-1,2015,344,0,0
798,680,0,0,0,0,0,0,0,0,0,-1,2022,344,0,0
805,680,0,0,0,0,0,0,0,0,0,-1,2029,344,0,0
812,680,0,0,0,0,0,0,0,0,0,-1,2036,344,0,0
-700,673,0,0,0,0,0,0,0,0,0,-1,524,351,0,0
-693,673,0,0,0,0,0,0,0,0,0,-1,531,351,0,0
-686,673,0,0,0,0,0,0,0,0,0,-1,538,351,0,0
-679,673,0,0,0,0,0,0,0,0,0,-1,545,351,0,0
-672,673,0,0,0,0,0,0,0,0,0,-1,552,351,0,0
-665,673,0,0,0,0,0,0,0,0,0,-1,559,351,0,0
-658,673,0,0,0,0,0,0,0,0,0,-1,566,351,0,0
-651,673,0,0,0,0,0,0,0,0,0,-1,573,351,0,0
-644,673,0,0,0,0,0,0,0,0,0,-1,580,351,0,0
-637,673,0,0,0,0,0,0,0,0,0,-1,587,351,0,0
-630,673,0,0,0,0,0,0,0,0,0,-1,594,351,0,0
-623,673,0,0,0,0,0,0,0,0,0,-1,601,351,0,0
-616,673,0,0,0,0,0,0,0,0,0,-1,608,351,0,0
-609,673,0,0,0,0,0,0,0,0,0,-1,615,351,0,0
-602,673,0,0,0,0,0,0,0,0,0,-1,622,351,0,0
-595,673,0,0,0,0,0,0,0,0,0,-1,629,351,0,0
-588,673,0,0,0,0,0,0,0,0,0,-1,636,351,0,0
-581,673,0,0,0,0,0,0,0,0,0,-1,643,351,0,0
-574,673,0,0,0,0,0,0,0,0,0,-1,650,351,0,0
-567,673,0,0,0,0,0,0,0,0,0,-1,657,351,0,0
-560,673,0,0,0,0,0,0,0,0,0,-1,664,351,0,0
-553,673,0,0,0,0,0,0,0,0,0,-1,671,351,0,0
-546,673,0,0,0,0,0,0,0,0,0,-1,678,351,0,0
-539,673,0,0,0,0,0,0,0,0,0,-1,685,351,0,0
-532,673,0,0,0,0,0,0,0,0,0,-1,692,351,0,0
-525,673,0,0,0,0,0,0,0,0,0,-1,699,351,0,0
-518,673,0,0,0,0,0,0,0,0,0,-1,706,351,0,0
-511,673,0,0,0,0,0,0,0,0,0,-1,713,351,0,0
-504,673,0,0,0,0,0,0,0,0,0,-1,720,351,0,0
-497,673,0,0,0,0,0,0,0,0,0,-1,727,351,0,0
-490,673,0,0,0,0,0,0,0,0,0,-1,734,351,0,0
-483,673,0,0,0,0,0,0,0,0,0,-1,741,351,0,0
-476,673,0,0,0,0,0,0,0,0,0,-1,748,351,0,0
-469,673,0,0,0,0,0,0,0,0,0,-1,755,351,0,0
-462,673,0,0,0,0,0,0,0,0,0,-1,762,351,0,0
-455,673,0,0,0,0,0,0,0,0,0,-1,769,351,0,0
-448,673,0,0,0,0,0,0,0,0,0,-1,776,351,0,0
-441,673,0,0,0,0,0,0,0,0,0,-1,783,351,0,0
-434,673,0,0,0,0,0,0,0,0,0,-1,790,351,0,0
-427,673,0,0,0,0,0,0,0,0,0,-1,797,351,0,0
-420,673,0,0,0,0,0,0,0,0,0,-1,804,351,0,0
-413,673,0,0,0,0,0,0,0,0,0,-1,811,351,0,0
-406,673,0,0,0,0,0,0,0,0,0,-1,818,351,0,0
-399,673,0,0,0,0,0,0,0,0,0,-1,825,351,0,0
-392,673,0,0,0,0,0,0,0,0,0,-1,832,351,0,0
-385,673,0,0,0,0,0,0,0,0,0,-1,839,351,0,0
-378,673,0,0,0,0,0,0,0,0,0,-1,846,351,0,0
-371,673,0,0,0,0,0,0,0,0,0,-1,853,351,0,0
-364,673,0,0,0,0,0,0,0,0,0,-1,860,351,0,0
-357,673,0,0,0,0,0,0,0,0,0,-1,867,351,0,0
-350,673,0,0,0,0,0,0,0,0,0,-1,874,351,0,0
-343,673,0,0,0,0,0,0,0,0,0,-1,881,351,0,0
-336,673,0,0,0,0,0,0,0,0,0,-1,888,351,0,0
-329,673,0,0,0,0,0,0,0,0,0,-1,895,351,0,0
-322,673,0,0,0,0,0,0,0,0,0,-1,902,351,0,0
-315,673,0,0,0,0,0,0,0,0,0,-1,909,351,0,0
-308,673,0,0,0,0,0,0,0,0,0,-1,916,351,0,0
-301,673,0,0,0,0,0,0,0,0,0,-1,923,351,0,0
-294,673,0,0,0,0,0,0,0,0,0,-1,930,351,0,0
-287,673,0,0,0,0,0,0,0,0,0,-1,937,351,0,0
-280,673,0,0,0,0,0,0,0,0,0,-1,944,351,0,0
-273,673,0,0,0,0,0,0,0,0,0,-1,951,351,0,0
-266,673,0,0,0,0,0,0,0,0,0,-1,958,351,0,0
-259,673,0,0,0,0,0,0,0,0,0,-1,965,351,0,0
-252,673,0,0,0,0,0,0,0,0,0,-1,972,351,0,0
-245,673,0,0,0,0,0,0,0,0,0,-1,979,351,0,0
-238,673,0,0,0,0,0,0,0,0,0,-1,986,351,0,0
-231,673,0,0,0,0,0,0,0,0,0,-1,993,351,0,0
-224,673,0,0,0,0,0,0,0,0,0,-1,1000,351,0,0
-217,673,0,0,0,0,0,0,0,0,0,-1,1007,351,0,0
-210,673,0,0,0,0,0,0,0,0,0,-1,1014,351,0,0
-203,673,0,0,0,0,0,0,0,0,0,-1,1021,351,0,0
-196,673,0,0,0,0,0,0,0,0,0,-1,1028,351,0,0
-189,673,0,0,0,0,0,0,0,0,0,-1,1035,351,0,0
-182,673,0,0,0,0,0,0,0,0,0,-1,1042,351,0,0
-175,673,2.65991,-15.9225,0,0,0,0,0,0,0,-1,1049,351,2.65986,15.9225
-168,673,0.9375,-13.6093,0,0,0,0,0,0,0,-1,1056,351,0.937509,13.6093
-161,673,2.07959,-14.7435,0,0,0,0,0,0,0,-1,1063,351,2.07955,14.7435
-154,673,2.80994,-18.8862,0,0,0,0,0,0,0,-1,1070,351,2.80992,18.8862
-147,673,3.1449,-18.1407,0,0,0,0,0,0,0,-1,1077,351,3.14496,18.1407
-140,673,1.68188,-17.2385,0,0,0,0,0,0,0,-1,1084,351,1.6819,17.2385
-133,673,1.89502,-16.6775,0,0,0,0,0,0,0,-1,1091,351,1.89507,16.6775
-126,673,2.2063,-16.2854,0,0,0,0,0,0,0,-1,1098,351,2.20626,16.2854
-119,673,2.43274,-16.0044,0.00991007,-0.0605977,-0.00143718,0.00993936,-0.060627,-0.0203721,0.044106,0.0428753,1105,351,2.43275,16.0044
-112,673,2.28406,-15.7323,0,0,0,0,0,0,0,-1,1112,351,2.2841,15.7323
-105,673,2.28796,-15.1874,0.00948072,-0.0438219,-0.00136797,0.0095158,-0.043857,-0.0256416,0.0328723,0.0392484,1119,351,2.28794,15.1875
-98,673,2.37634,-14.6593,0,0,0,0,0,0,0,-1,1126,351,2.37629,14.6593
-91,673,2.13391,-14.3828,0,0,0,0,0,0,0,-1,1133,351,2.1339,14.3828
-84,673,2.31641,-13.7224,0,0,0,0,0,0,0,-1,1140,351,2.31642,13.7223
-77,673,1.60266,-8.87473,0,0,0,0,0,0,0,-1,1147,351,1.60268,8.87474
-70,673,1.88684,-4.7381,0,0,0,0,0,0,0,-1,1154,351,1.88682,4.73809
-63,673,1.11719,-2.95016,0,0,0,0,0,0,0,-1,1161,351,1.11724,2.95016
-56,673,-6.18872,-9.52338,0,0,0,0,0,0,0,-1,1168,351,-6.18874,9.52336
-49,673,-0.926758,-0.115448,0,0,0,0,0,0,0,-1,1175,351,-0.926732,0.115444
-42,673,-1.15015,0.289917,0,0,0,0,0,0,0,-1,1182,351,-1.15017,-0.289932
-35,673,-0.919556,-1.00711,0,0,0,0,0,0,0,-1,1189,351,-0.919514,1.00711
-28,673,1.03564,-2.58228,0,0,0,0,0,0,0,-1,1196,351,1.0356,2.58229
-21,673,3.07495,-16.0303,0,0,0,0,0,0,0,-1,1203,351,3.07498,16.0303
-14,673,2.96777,-16.1849,-0.00305597,-0.000616948,0.00236375,0.00082334,-0.00449626,1.02355,0.0033063,0.0433177,1210,351,2.96781,16.1849
-7,673,2.88159,-16.2944,-0.00278356,0.00547166,-0.000164609,0.00547494,-0.00278684,-1.55087,0.00485337,0.0400585,1217,351,2.88155,16.2944
0,673,2.88855,-16.3213,-0.00193753,0.0106418,-0.00308784,0.0113589,-0.00265462,-1.34261,0.0085952,0.043284,1224,351,2.88855,16.3213
7,673,2.66675,-16.4016,-0.00136441,0.0140561,-0.00537406,0.0157442,-0.00305248,-1.26644,0.0116477,0.0422879,1231,351,2.66679,16.4016
14,673,2.85706,-16.3908,-0.00114127,0.0174152,-0.0074696,0.0200484,-0.0037744,-1.23189,0.0147852,0.0370333,1238,351,2.85705,16.3908
21,673,2.84924,-16.426,-0.00125715,0.0199441,-0.00905707,0.0232863,-0.0045994,-1.21728,0.0172628,0.0259505,1245,351,2.84927,16.426
28,673,2.84143,-16.4473,-0.000867415,0.0222261,-0.0101769,0.0260708,-0.0047121,-1.20959,0.0191455,0.0177193,1252,351,2.84137,16.4473
35,673,2.82971,-16.4678,-0.000520145,0.0224818,-0.0110204,0.0269095,-0.00494782,-1.18876,0.0197961,0.024809,1259,351,2.82975,16.4678
42,673,2.71655,-16.465,-0.000747048,0.0231116,-0.0113822,0.0276705,-0.00530598,-1.18983,0.0204465,0.0296966,1266,351,2.7166,16.465
49,673,2.69922,-16.4855,-0.00116282,0.0235939,-0.0113317,0.0279974,-0.00556634,-1.20015,0.0207705,0.0189021,1273,351,2.69923,16.4855
56,673,2.71021,-16.4648,-0.00128755,0.0223808,-0.0106385,0.0264597,-0.00536645,-1.20467,0.0196741,0.0147211,1280,351,2.7102,16.4648
63,673,2.77356,-16.4001,-0.00206662,0.0219346,-0.00946844,0.0252202,-0.00535214,-1.2368,0.0188525,0.0166123,1287,351,2.77353,16.4001
70,673,2.72522,-16.3038,-0.00318327,0.0213377,-0.00839928,0.0239388,-0.0057844,-1.27048,0.0181964,0.0260311,1294,351,2.72516,16.3038
77,673,2.72278,-16.2313,-0.00402227,0.0219605,-0.00768205,0.0240618,-0.0061236,-1.30379,0.0184248,0.0358455,1301,351,2.72276,16.2313
84,673,2.72595,-16.4644,-0.00522228,0.024731,-0.00767994,0.0265853,-0.0070766,-1.33388,0.0204938,0.0380305,1308,351,2.72596,16.4644
91,673,2.59277,-16.5569,-0.00649005,0.0278361,-0.00763351,0.0294571,-0.00811105,-1.36155,0.0228273,0.0436312,1315,351,2.59276,16.5569
98,673,2.53967,-16.3992,-0.00797301,0.0300464,-0.00767464,0.0315371,-0.00946376,-1.37894,0.024789,0.0456599,1322,351,2.53968,16.3992
105,673,2.50305,-16.2835,-0.00931825,0.0339812,-0.00799608,0.0354106,-0.0107477,-1.3939,0.0278887,0.0429991,1329,351,2.503,16.2835
112,673,2.54114,-16.2669,-0.0102769,0.0394056,-0.00883719,0.0409307,-0.011802,-1.3999,0.031956,0.0437854,1336,351,2.5412,16.2669
119,673,2.51831,-16.1628,-0.0111083,0.0451959,-0.00988557,0.0468811,-0.0127935,-1.40195,0.0362784,0.0422163,1343,351,2.5183,16.1628
126,673,2.50696,-16.0202,-0.0118046,0.0510258,-0.0111114,0.0529329,-0.0137117,-1.40082,0.0406377,0.0445078,1350,351,2.507,16.0202
133,673,2.47754,-15.9882,-0.0125423,0.0561571,-0.0125186,0.0583672,-0.0147524,-1.39605,0.0446489,0.0436674,1357,351,2.47753,15.9882
140,673,2.41626,-16.0953,-0.0131613,0.0611731,-0.0136316,0.0635941,-0.0155823,-1.39503,0.048433,0.0402689,1364,351,2.41629,16.0953
147,673,2.46436,-15.9839,-0.0134193,0.0648795,-0.014785,0.0675783,-0.0161181,-1.39025,0.0512764,0.0403574,1371,351,2.46442,15.9839
154,673,2.44543,-15.8061,-0.0134507,0.0661853,-0.0156268,0.0691419,-0.0164074,-1.3838,0.0524266,0.0396701,1378,351,2.44541,15.8061
161,673,2.36499,-15.679,0,0,0,0,0,0,0,-1,1385,351,2.36503,15.6791
168,673,6.87061,1.83954,0,0,0,0,0,0,0,-1,1392,351,6.87063,-1.83953
175,673,6.6228,1.1459,0,0,0,0,0,0,0,-1,1399,351,6.62276,-1.14591
182,673,6.37244,0.796112,0,0,0,0,0,0,0,-1,1406,351,6.3724,-0.796102
189,673,6.12097,0.265472,0,0,0,0,0,0,0,-1,1413,351,6.121,-0.265482
196,673,6.02173,3.12717,0,0,0,0,0,0,0,-1,1420,351,6.02176,-3.12717
203,673,5.04456,1.6351,0,0,0,0,0,0,0,-1,1427,351,5.04455,-1.63509
210,673,4.79224,0.447479,0,0,0,0,0,0,0,-1,1434,351,4.79229,-0.447469
217,673,2.01648,0.972687,0,0,0,0,0,0,0,-1,1441,351,2.01644,-0.972691
224,673,2.3689,-1.80539,0,0,0,0,0,0,0,-1,1448,351,2.36896,1.80539
231,673,2.65857,-2.18497,0,0,0,0,0,0,0,-1,1455,351,2.65852,2.18496
238,673,3.24146,-1.01593,0,0,0,0,0,0,0,-1,1462,351,3.24142,1.01593
245,673,3.5376,-0.190399,0,0,0,0,0,0,0,-1,1469,351,3.53759,0.1904
252,673,3.80518,0.55603,0,0,0,0,0,0,0,-1,1476,351,3.80519,-0.556022
259,673,3.88562,1.29617,0,0,0,0,0,0,0,-1,1483,351,3.88562,-1.29618
266,673,4.22424,2.04834,0,0,0,0,0,0,0,-1,1490,351,4.22429,-2.04834
273,673,6.07886,0.385895,0,0,0,0,0,0,0,-1,1497,351,6.0789,-0.385906
280,673,6.97534,-0.0820007,0,0,0,0,0,0,0,-1,1504,351,6.97536,0.0820122
287,673,7.66968,-0.348541,0,0,0,0,0,0,0,-1,1511,351,7.66969,0.348534
294,673,8.20996,0.28537,0,0,0,0,0,0,0,-1,1518,351,8.20993,-0.28536
301,673,0,0,0,0,0,0,0,0,0,-1,1525,351,0,0
308,673,0,0,0,0,0,0,0,0,0,-1,1532,351,0,0
315,673,0,0,0,0,0,0,0,0,0,-1,1539,351,0,0
322,673,0,0,0,0,0,0,0,0,0,-1,1546,351,0,0
329,673,0,0,0,0,0,0,0,0,0,-1,1553,351,0,0
336,673,0,0,0,0,0,0,0,0,0,-1,1560,351,0,0
343,673,0,0,0,0,0,0,0,0,0,-1,1567,351,0,0
350,673,0,0,0,0,0,0,0,0,0,-1,1574,351,0,0
357,673,0,0,0,0,0,0,0,0,0,-1,1581,351,0,0
364,673,0,0,0,0,0,0,0,0,0,-1,1588,351,0,0
371,673,0,0,0,0,0,0,0,0,0,-1,1595,351,0,0
378,673,0,0,0,0,0,0,0,0,0,-1,1602,351,0,0
385,673,0,0,0,0,0,0,0,0,0,-1,1609,351,0,0
392,673,0,0,0,0,0,0,0,0,0,-1,1616,351,0,0
399,673,0,0,0,0,0,0,0,0,0,-1,1623,351,0,0
406,673,0,0,0,0,0,0,0,0,0,-1,1630,351,0,0
413,673,0,0,0,0,0,0,0,0,0,-1,1637,351,0,0
420,673,0,0,0,0,0,0,0,0,0,-1,1644,351,0,0
427,673,0,0,0,0,0,0,0,0,0,-1,1651,351,0,0
434,673,0,0,0,0,0,0,0,0,0,-1,1658,351,0,0
441,673,0,0,0,0,0,0,0,0,0,-1,1665,351,0,0
448,673,0,0,0,0,0,0,0,0,0,-1,1672,351,0,0
455,673,0,0,0,0,0,0,0,0,0,-1,1679,351,0,0
462,673,0,0,0,0,0,0,0,0,0,-1,1686,351,0,0
469,673,0,0,0,0,0,0,0,0,0,-1,1693,351,0,0
476,673,0,0,0,0,0,0,0,0,0,-1,1700,351,0,0
483,673,0,0,0,0,0,0,0,0,0,-1,1707,351,0,0
490,673,0,0,0,0,0,0,0,0,0,-1,1714,351,0,0
497,673,0,0,0,0,0,0,0,0,0,-1,1721,351,0,0
504,673,0,0,0,0,0,0,0,0,0,-1,1728,351,0,0
511,673,0,0,0,0,0,0,0,0,0,-1,1735,351,0,0
518,673,0,0,0,0,0,0,0,0,0,-1,1742,351,0,0
525,673,0,0,0,0,0,0,0,0,0,-1,1749,351,0,0
532,673,0,0,0,0,0,0,0,0,0,-1,1756,351,0,0
539,673,0,0,0,0,0,0,0,0,0,-1,1763,351,0,0
546,673,0,0,0,0,0,0,0,0,0,-1,1770,351,0,0
553,673,0,0,0,0,0,0,0,0,0,-1,1777,351,0,0
560,673,0,0,0,0,0,0,0,0,0,-1,1784,351,0,0
567,673,0,0,0,0,0,0,0,0,0,-1,1791,351,0,0
574,673,0,0,0,0,0,0,0,0,0,-1,1798,351,0,0
581,673,0,0,0,0,0,0,0,0,0,-1,1805,351,0,0
588,673,0,0,0,0,0,0,0,0,0,-1,1812,351,0,0
595,673,0,0,0,0,0,0,0,0,0,-1,1819,351,0,0
602,673,0,0,0,0,0,0,0,0,0,-1,1826,351,0,0
609,673,0,0,0,0,0,0,0,0,0,-1,1833,351,0,0
616,673,0,0,0,0,0,0,0,0,0,-1,1840,351,0,0
623,673,0,0,0,0,0,0,0,0,0,-1,1847,351,0,0
630,673,0,0,0,0,0,0,0,0,0,-1,1854,351,0,0
637,673,0,0,0,0,0,0,0,0,0,-1,1861,351,0,0
644,673,0,0,0,0,0,0,0,0,0,-1,1868,351,0,0
651,673,0,0,0,0,0,0,0,0,0,-1,1875,351,0,0
658,673,0,0,0,0,0,0,0,0,0,-1,1882,351,0,0
665,673,0,0,0,0,0,0,0,0,0,-1,1889,351,0,0
672,673,0,0,0,0,0,0,0,0,0,-1,1896,351,0,0
679,673,0,0,0,0,0,0,0,0,0,-1,1903,351,0,0
686,673,0,0,0,0,0,0,0,0,0,-1,1910,351,0,0
693,673,0,0,0,0,0,0,0,0,0,-1,1917,351,0,0
700,673,0,0,0,0,0,0,0,0,0,-1,1924,351,0,0
707,673,0,0,0,0,0,0,0,0,0,-1,1931,351,0,0
714,673,0,0,0,0,0,0,0,0,0,-1,1938,351,0,0
721,673,0,0,0,0,0,0,0,0,0,-1,1945,351,0,0
728,673,0,0,0,0,0,0,0,0,0,-1,1952,351,0,0
735,673,0,0,0,0,0,0,0,0,0,-1,1959,351,0,0
742,673,0,0,0,0,0,0,0,0,0,-1,1966,351,0,0
749,673,0,0,0,0,0,0,0,0,0,-1,1973,351,0,0
756,673,0,0,0,0,0,0,0,0,0,-1,1980,351,0,0
763,673,0,0,0,0,0,0,0,0,0,-1,1987,351,0,0
770,673,0,0,0,0,0,0,0,0,0,-1,1994,351,0,0
777,673,0,0,0,0,0,0,0,0,0,-1,2001,351,0,0
784,673,0,0,0,0,0,0,0,0,0,-1,2008,351,0,0
791,673,0,0,0,0,0,0,0,0,0,-1,2015,351,0,0
798,673,0,0,0,0,0,0,0,0,0,-1,2022,351,0,0
805,673,0,0,0,0,0,0,0,0,0,-1,2029,351,0,0
812,673,0,0,0,0,0,0,0,0,0,-1,2036,351,0,0
-700,666,0,0,0,0,0,0,0,0,0,-1,524,358,0,0
-693,666,0,0,0,0,0,0,0,0,0,-1,531,358,0,0
-686,666,0,0,0,0,0,0,0,0,0,-1,538,358,0,0
-679,666,0,0,0,0,0,0,0,0,0,-1,545,358,0,0
-672,666,0,0,0,0,0,0,0,0,0,-1,552,358,0,0
-665,666,0,0,0,0,0,0,0,0,0,-1,559,358,0,0
-658,666,0,0,0,0,0,0,0,0,0,-1,566,358,0,0
-651,666,0,0,0,0,0,0,0,0,0,-1,573,358,0,0
-644,666,0,0,0,0,0,0,0,0,0,-1,580,358,0,0
-637,666,0,0,0,0,0,0,0,0,0,-1,587,358,0,0
-630,666,0,0,0,0,0,0,0,0,0,-1,594,358,0,0
-623,666,0,0,0,0,0,0,0,0,0,-1,601,358,0,0
-616,666,0,0,0,0,0,0,0,0,0,-1,608,358,0,0
-609,666,0,0,0,0,0,0,0,0,0,-1,615,358,0,0
-602,666,0,0,0,0,0,0,0,0,0,-1,622,358,0,0
-595,666,0,0,0,0,0,0,0,0,0,-1,629,358,0,0
-588,666,0,0,0,0,0,0,0,0,0,-1,636,358,0,0
-581,666,0,0,0,0,0,0,0,0,0,-1,643,358,0,0
-574,666,0,0,0,0,0,0,0,0,0,-1,650,358,0,0
-567,666,0,0,0,0,0,0,0,0,0,-1,657,358,0,0
-560,666,0,0,0,0,0,0,0,0,0,-1,664,358,0,0
-553,666,0,0,0,0,0,0,0,0,0,-1,671,358,0,0
-546,666,0,0,0,0,0,0,0,0,0,-1,678,358,0,0
-539,666,0,0,0,0,0,0,0,0,0,-1,685,358,0,0
-532,666,0,0,0,0,0,0,0,0,0,-1,692,358,0,0
-525,666,0,0,0,0,0,0,0,0,0,-1,699,358,0,0
-518,666,0,0,0,0,0,0,0,0,0,-1,706,358,0,0
-511,666,0,0,0,0,0,0,0,0,0,-1,713,358,0,0
-504,666,0,0,0,0,0,0,0,0,0,-1,720,358,0,0
-497,666,0,0,0,0,0,0,0,0,0,-1,727,358,0,0
-490,666,0,0,0,0,0,0,0,0,0,-1,734,358,0,0
-483,666,0,0,0,0,0,0,0,0,0,-1,741,358,0,0
-476,666,0,0,0,0,0,0,0,0,0,-1,748,358,0,0
-469,666,0,0,0,0,0,0,0,0,0,-1,755,358,0,0
-462,666,0,0,0,0,0,0,0,0,0,-1,762,358,0,0
-455,666,0,0,0,0,0,0,0,0,0,-1,769,358,0,0
-448,666,0,0,0,0,0,0,0,0,0,-1,776,358,0,0
-441,666,0,0,0,0,0,0,0,0,0,-1,783,358,0,0
-434,666,0,0,0,0,0,0,0,0,0,-1,790,358,0,0
-427,666,0,0,0,0,0,0,0,0,0,-1,797,358,0,0
-420,666,0,0,0,0,0,0,0,0,0,-1,804,358,0,0
-413,666,0,0,0,0,0,0,0,0,0,-1,811,358,0,0
-406,666,0,0,0,0,0,0,0,0,0,-1,818,358,0,0
-399,666,0,0,0,0,0,0,0,0,0,-1,825,358,0,0
-392,666,0,0,0,0,0,0,0,0,0,-1,832,358,0,0
-385,666,0,0,0,0,0,0,0,0,0,-1,839,358,0,0
-378,666,0,0,0,0,0,0,0,0,0,-1,846,358,0,0
-371,666,0,0,0,0,0,0,0,0,0,-1,853,358,0,0
-364,666,0,0,0,0,0,0,0,0,0,-1,860,358,0,0
-357,666,0,0,0,0,0,0,0,0,0,-1,867,358,0,0
-350,666,0,0,0,0,0,0,0,0,0,-1,874,358,0,0
-343,666,0,0,0,0,0,0,0,0,0,-1,881,358,0,0
-336,666,0,0,0,0,0,0,0,0,0,-1,888,358,0,0
-329,666,0,0,0,0,0,0,0,0,0,-1,895,358,0,0
-322,666,0,0,0,0,0,0,0,0,0,-1,902,358,0,0
-315,666,0,0,0,0,0,0,0,0,0,-1,909,358,0,0
-308,666,0,0,0,0,0,0,0,0,0,-1,916,358,0,0
-301,666,0,0,0,0,0,0,0,0,0,-1,923,358,0,0
-294,666,0,0,0,0,0,0,0,0,0,-1,930,358,0,0
-287,666,0,0,0,0,0,0,0,0,0,-1,937,358,0,0
-280,666,0,0,0,0,0,0,0,0,0,-1,944,358,0,0
-273,666,0,0,0,0,0,0,0,0,0,-1,951,358,0,0
-266,666,0,0,0,0,0,0,0,0,0,-1,958,358,0,0
-259,666,0,0,0,0,0,0,0,0,0,-1,965,358,0,0
-252,666,0,0,0,0,0,0,0,0,0,-1,972,358,0,0
-245,666,0,0,0,0,0,0,0,0,0,-1,979,358,0,0
-238,666,0,0,0,0,0,0,0,0,0,-1,986,358,0,0
-231,666,0,0,0,0,0,0,0,0,0,-1,993,358,0,0
-224,666,0,0,0,0,0,0,0,0,0,-1,1000,358,0,0
-217,666,0,0,0,0,0,0,0,0,0,-1,1007,358,0,0
-210,666,0,0,0,0,0,0,0,0,0,-1,1014,358,0,0
-203,666,0,0,0,0,0,0,0,0,0,-1,1021,358,0,0
-196,666,4.0769,-19.0127,0,0,0,0,0,0,0,-1,1028,358,4.07693,19.0127
-189,666,3.37659,-17.8461,0,0,0,0,0,0,0,-1,1035,358,3.37657,17.8461
-182,666,2.59351,-16.6118,0,0,0,0,0,0,0,-1,1042,358,2.59354,16.6118
-175,666,0.871094,-17.0322,0,0,0,0,0,0,0,-1,1049,358,0.871064,17.0322
-168,666,5.82397,-17.9345,0,0,0,0,0,0,0,-1,1056,358,5.82394,17.9345
-161,666,5.71997,-18.8905,0,0,0,0,0,0,0,-1,1063,358,5.71993,18.8905
-154,666,2.53198,-18.1923,0,0,0,0,0,0,0,-1,1070,358,2.53203,18.1923
-147,666,2.75623,-17.2369,0,0,0,0,0,0,0,-1,1077,358,2.75619,17.2369
-140,666,2.98669,-16.2403,0,0,0,0,0,0,0,-1,1084,358,2.98673,16.2403
-133,666,2.16992,-15.4839,0,0,0,0,0,0,0,-1,1091,358,2.16994,15.4839
-126,666,2.43787,-15.2873,0,0,0,0,0,0,0,-1,1098,358,2.43791,15.2873
-119,666,2.68323,-15.4191,0,0,0,0,0,0,0,-1,1105,358,2.68324,15.4191
-112,666,3.15198,-15.2307,0,0,0,0,0,0,0,-1,1112,358,3.15204,15.2306
-105,666,2.56873,-15.0482,0,0,0,0,0,0,0,-1,1119,358,2.56873,15.0483
-98,666,2.38623,-14.8314,0,0,0,0,0,0,0,-1,1126,358,2.38617,14.8314
-91,666,2.36731,-14.6921,0,0,0,0,0,0,0,-1,1133,358,2.36725,14.6921
-84,666,2.5249,-14.169,0,0,0,0,0,0,0,-1,1140,358,2.52485,14.169
-77,666,0.964722,-10.3601,0,0,0,0,0,0,0,-1,1147,358,0.964669,10.3601
-70,666,2.05957,-6.51086,0,0,0,0,0,0,0,-1,1154,358,2.05959,6.51088
-63,666,1.47485,-3.79593,0,0,0,0,0,0,0,-1,1161,358,1.47481,3.79593
-56,666,0.424683,-2.04132,0,0,0,0,0,0,0,-1,1168,358,0.424665,2.04132
-49,666,0.754395,-2.23169,0,0,0,0,0,0,0,-1,1175,358,0.754383,2.23169
-42,666,1.34473,-3.53897,0,0,0,0,0,0,0,-1,1182,358,1.34476,3.53896
-35,666,2.6272,-16.4166,0,0,0,0,0,0,0,-1,1189,358,2.62723,16.4166
-28,666,2.99341,-16.1217,0,0,0,0,0,0,0,-1,1196,358,2.99335,16.1217
-21,666,2.96008,-16.1927,-0.00211115,0.000515545,0.00228591,0.00183853,-0.00343413,1.04614,0.00309029,0.0341187,1203,358,2.96005,16.1927
-14,666,2.87683,-16.302,-0.00284419,0.000422092,0.00115463,0.000789031,-0.00321113,1.26309,0.00244655,0.0243786,1210,358,2.87684,16.302
-7,666,2.85986,-16.3495,-0.00257922,0.00407499,-0.000348287,0.00409317,-0.0025974,-1.51865,0.00389485,0.0164518,1217,358,2.85991,16.3494
0,666,2.88391,-16.3775,-0.00195256,0.00728548,-0.00206526,0.00772617,-0.00239325,-1.36057,0.0061069,0.0115595,1224,358,2.88391,16.3775
7,666,2.84741,-16.4085,-0.00152358,0.00954485,-0.00346258,0.0105388,-0.00251753,-1.29126,0.00799823,0.0147678,1231,358,2.84738,16.4086
14,666,2.83691,-16.4201,-0.00134767,0.0119498,-0.00479441,0.0134981,-0.00289601,-1.25842,0.0101034,0.0152292,1238,358,2.83691,16.4201
21,666,2.80786,-16.4636,-0.00141505,0.0139447,-0.0058582,0.0159239,-0.00339432,-1.24497,0.0119097,0.0114324,1245,358,2.80781,16.4636
28,666,2.771,-16.468,-0.00108669,0.015665,-0.00659654,0.0179507,-0.00337242,-1.23724,0.0132353,0.0111643,1252,358,2.77104,16.468
35,666,2.77856,-16.4701,-0.000815104,0.016021,-0.00721144,0.0186876,-0.00348165,-1.21662,0.0137665,0.0110853,1259,358,2.77859,16.4701
42,666,2.75513,-16.5101,-0.00098958,0.0167872,-0.00745193,0.0194978,-0.0037001,-1.22194,0.0143913,0.0129059,1266,358,2.75507,16.5101
49,666,2.72107,-16.5122,-0.00129263,0.0173792,-0.00745954,0.0199934,-0.00390677,-1.23373,0.014804,0.0109598,1273,358,2.72105,16.5122
56,666,2.7052,-16.5045,-0.00134784,0.0167586,-0.00703032,0.0191678,-0.00375701,-1.24066,0.0141975,0.0121033,1280,358,2.70518,16.5044
63,666,2.66614,-16.5018,-0.00190127,0.0165149,-0.00627841,0.0184517,-0.00383802,-1.27158,0.01376,0.012921,1287,358,2.66618,16.5018
70,666,2.66174,-16.4654,-0.00272448,0.0161063,-0.00563178,0.0176621,-0.00428026,-1.30127,0.0134308,0.0134057,1294,358,2.66179,16.4654
77,666,2.66431,-16.4469,-0.00330264,0.0165046,-0.00518866,0.0177815,-0.00457953,-1.3295,0.0136396,0.0173119,1301,358,2.66429,16.4469
84,666,2.66321,-16.4687,-0.00416519,0.0184466,-0.00527036,0.0196147,-0.00533326,-1.35269,0.01517,0.0224678,1308,358,2.66317,16.4687
91,666,2.62292,-16.4509,-0.00510449,0.0205456,-0.00530691,0.0216002,-0.0061591,-1.37463,0.0168331,0.0227878,1315,358,2.62297,16.4509
98,666,2.54749,-16.3995,-0.0062113,0.0218303,-0.00539413,0.0228321,-0.00721314,-1.38716,0.0181111,0.019651,1322,358,2.54755,16.3995
105,666,2.5282,-16.3326,-0.00716282,0.0242991,-0.00566356,0.0252875,-0.00815129,-1.39801,0.0201332,0.0200254,1329,358,2.52826,16.3326
112,666,2.51843,-16.2808,-0.00777935,0.0277738,-0.00625126,0.0288409,-0.00884647,-1.40172,0.0227567,0.0237067,1336,358,2.51845,16.2808
119,666,2.49573,-16.1606,-0.00827661,0.0314266,-0.00693315,0.0326025,-0.00945248,-1.40279,0.0254772,0.0249881,1343,358,2.49569,16.1606
126,666,2.49878,-16.0657,-0.00865944,0.0350334,-0.00767044,0.0363409,-0.00996689,-1.40197,0.0281441,0.0256093,1350,358,2.49883,16.0657
133,666,2.47546,-16.0435,-0.0091137,0.0381509,-0.00849586,0.0396317,-0.0105945,-1.39824,0.0305708,0.0224735,1357,358,2.47549,16.0436
140,666,2.43665,-16.0514,-0.00942825,0.0411587,-0.00903925,0.0427253,-0.0109949,-1.39918,0.0327693,0.0208478,1364,358,2.43669,16.0514
147,666,2.40979,-15.9653,-0.00944312,0.0429454,-0.00964402,0.0446644,-0.0111621,-1.39441,0.0341112,0.0208268,1371,358,2.40983,15.9653
154,666,2.37793,-15.827,-0.00932805,0.0430244,-0.00994979,0.0448517,-0.0111553,-1.38918,0.0342309,0.0191002,1378,358,2.37792,15.827
161,666,2.41833,-15.7641,-0.00941023,0.0429793,-0.00987236,0.0447779,-0.0112088,-1.39059,0.034206,0.0251381,1385,358,2.41836,15.7641
168,666,2.47107,-15.7082,0,0,0,0,0,0,0,-1,1392,358,2.47113,15.7082
175,666,2.61475,-15.8652,0,0,0,0,0,0,0,-1,1399,358,2.61477,15.8652
182,666,2.60876,-5.17068,0,0,0,0,0,0,0,-1,1406,358,2.6088,5.17068
189,666,2.46973,-5.49979,0,0,0,0,0,0,0,-1,1413,358,2.46975,5.49979
196,666,2.32458,-5.23651,0,0,0,0,0,0,0,-1,1420,358,2.32461,5.23653
203,666,2.28064,-3.88004,0,0,0,0,0,0,0,-1,1427,358,2.28059,3.88003
210,666,3.02576,-5.83548,0,0,0,0,0,0,0,-1,1434,358,3.02581,5.83547
217,666,2.30444,-5.36011,0,0,0,0,0,0,0,-1,1441,358,2.30447,5.3601
224,666,1.82324,-6.03101,0,0,0,0,0,0,0,-1,1448,358,1.82322,6.031
231,666,2.29797,-10.1093,0,0,0,0,0,0,0,-1,1455,358,2.29801,10.1093
238,666,2.52429,-6.10568,0,0,0,0,0,0,0,-1,1462,358,2.52423,6.10567
245,666,4.53345,-1.38205,0,0,0,0,0,0,0,-1,1469,358,4.53349,1.38204
252,666,4.77405,-0.246979,0,0,0,0,0,0,0,-1,1476,358,4.77405,0.246993
259,666,4.83655,1.14087,0,0,0,0,0,0,0,-1,1483,358,4.83652,-1.14087
266,666,6.14148,0.749512,0,0,0,0,0,0,0,-1,1490,358,6.14144,-0.749519
273,666,2.61304,-1.53772,0,0,0,0,0,0,0,-1,1497,358,2.613,1.53773
280,666,8.70898,-0.836975,0,0,0,0,0,0,0,-1,1504,358,8.70894,0.836988
287,666,2.27039,-4.09058,0,0,0,0,0,0,0,-1,1511,358,2.27042,4.09059
294,666,1.43115,-13.1906,0,0,0,0,0,0,0,-1,1518,358,1.4311,13.1906
301,666,1.35095,-11.8304,0,0,0,0,0,0,0,-1,1525,358,1.3509,11.8304
308,666,1.08496,-1.87576,0,0,0,0,0,0,0,-1,1532,358,1.08491,1.87575
315,666,1.76294,-0.284027,0,0,0,0,0,0,0,-1,1539,358,1.76291,0.284016
322,666,0,0,0,0,0,0,0,0,0,-1,1546,358,0,0
329,666,0,0,0,0,0,0,0,0,0,-1,1553,358,0,0
336,666,0,0,0,0,0,0,0,0,0,-1,1560,358,0,0
343,666,0,0,0,0,0,0,0,0,0,-1,1567,358,0,0
350,666,0,0,0,0,0,0,0,0,0,-1,1574,358,0,0
357,666,0,0,0,0,0,0,0,0,0,-1,1581,358,0,0
364,666,0,0,0,0,0,0,0,0,0,-1,1588,358,0,0
371,666,0,0,0,0,0,0,0,0,0,-1,1595,358,0,0
378,666,0,0,0,0,0,0,0,0,0,-1,1602,358,0,0
385,666,0,0,0,0,0,0,0,0,0,-1,1609,358,0,0
392,666,0,0,0,0,0,0,0,0,0,-1,1616,358,0,0
399,666,0,0,0,0,0,0,0,0,0,-1,1623,358,0,0
406,666,0,0,0,0,0,0,0,0,0,-1,1630,358,0,0
413,666,0,0,0,0,0,0,0,0,0,-1,1637,358,0,0
420,666,0,0,0,0,0,0,0,0,0,-1,1644,358,0,0
427,666,0,0,0,0,0,0,0,0,0,-1,1651,358,0,0
434,666,0,0,0,0,0,0,0,0,0,-1,1658,358,0,0
441,666,0,0,0,0,0,0,0,0,0,-1,1665,358,0,0
448,666,0,0,0,0,0,0,0,0,0,-1,1672,358,0,0
455,666,0,0,0,0,0,0,0,0,0,-1,1679,358,0,0
462,666,0,0,0,0,0,0,0,0,0,-1,1686,358,0,0
469,666,0,0,0,0,0,0,0,0,0,-1,1693,358,0,0
476,666,0,0,0,0,0,0,0,0,0,-1,1700,358,0,0
483,666,0,0,0,0,0,0,0,0,0,-1,1707,358,0,0
490,666,0,0,0,0,0,0,0,0,0,-1,1714,358,0,0
497,666,0,0,0,0,0,0,0,0,0,-1,1721,358,0,0
504,666,0,0,0,0,0,0,0,0,0,-1,1728,358,0,0
511,666,0,0,0,0,0,0,0,0,0,-1,1735,358,0,0
518,666,0,0,0,0,0,0,0,0,0,-1,1742,358,0,0
525,666,0,0,0,0,0,0,0,0,0,-1,1749,358,0,0
532,666,0,0,0,0,0,0,0,0,0,-1,1756,358,0,0
539,666,0,0,0,0,0,0,0,0,0,-1,1763,358,0,0
546,666,0,0,0,0,0,0,0,0,0,-1,1770,358,0,0
553,666,0,0,0,0,0,0,0,0,0,-1,1777,358,0,0
560,666,0,0,0,0,0,0,0,0,0,-1,1784,358,0,0
567,666,0,0,0,0,0,0,0,0,0,-1,1791,358,0,0
574,666,0,0,0,0,0,0,0,0,0,-1,1798,358,0,0
581,666,0,0,0,0,0,0,0,0,0,-1,1805,358,0,0
588,666,0,0,0,0,0,0,0,0,0,-1,1812,358,0,0
595,666,0,0,0,0,0,0,0,0,0,-1,1819,358,0,0
602,666,0,0,0,0,0,0,0,0,0,-1,1826,358,0,0
609,666,0,0,0,0,0,0,0,0,0,-1,1833,358,0,0
616,666,0,0,0,0,0,0,0,0,0,-1,1840,358,0,0
623,666,0,0,0,0,0,0,0,0,0,-1,1847,358,0,0
630,666,0,0,0,0,0,0,0,0,0,-1,1854,358,0,0
637,666,0,0,0,0,0,0,0,0,0,-1,1861,358,0,0
644,666,0,0,0,0,0,0,0,0,0,-1,1868,358,0,0
651,666,0,0,0,0,0,0,0,0,0,-1,1875,358,0,0
658,666,0,0,0,0,0,0,0,0,0,-1,1882,358,0,0
665,666,0,0,0,0,0,0,0,0,0,-1,1889,358,0,0
672,666,0,0,0,0,0,0,0,0,0,-1,1896,358,0,0
679,666,0,0,0,0,0,0,0,0,0,-1,1903,358,0,0
686,666,0,0,0,0,0,0,0,0,0,-1,1910,358,0,0
693,666,0,0,0,0,0,0,0,0,0,-1,1917,358,0,0
700,666,0,0,0,0,0,0,0,0,0,-1,1924,358,0,0
707,666,0,0,0,0,0,0,0,0,0,-1,1931,358,0,0
714,666,0,0,0,0,0,0,0,0,0,-1,1938,358,0,0
721,666,0,0,0,0,0,0,0,0,0,-1,1945,358,0,0
728,666,0,0,0,0,0,0,0,0,0,-1,1952,358,0,0
735,666,0,0,0,0,0,0,0,0,0,-1,1959,358,0,0
742,666,0,0,0,0,0,0,0,0,0,-1,1966,358,0,0
749,666,0,0,0,0,0,0,0,0,0,-1,1973,358,0,0
756,666,0,0,0,0,0,0,0,0,0,-1,1980,358,0,0
763,666,0,0,0,0,0,0,0,0,0,-1,1987,358,0,0
770,666,0,0,0,0,0,0,0,0,0,-1,1994,358,0,0
777,666,0,0,0,0,0,0,0,0,0,-1,2001,358,0,0
784,666,0,0,0,0,0,0,0,0,0,-1,2008,358,0,0
791,666,0,0,0,0,0,0,0,0,0,-1,2015,358,0,0
798,666,0,0,0,0,0,0,0,0,0,-1,2022,358,0,0
805,666,0,0,0,0,0,0,0,0,0,-1,2029,358,0,0
812,666,0,0,0,0,0,0,0,0,0,-1,2036,358,0,0
-700,659,0,0,0,0,0,0,0,0,0,-1,524,365,0,0
-693,659,0,0,0,0,0,0,0,0,0,-1,531,365,0,0
-686,659,0,0,0,0,0,0,0,0,0,-1,538,365,0,0
-679,659,0,0,0,0,0,0,0,0,0,-1,545,365,0,0
-672,659,0,0,0,0,0,0,0,0,0,-1,552,365,0,0
-665,659,0,0,0,0,0,0,0,0,0,-1,559,365,0,0
-658,659,0,0,0,0,0,0,0,0,0,-1,566,365,0,0
-651,659,0,0,0,0,0,0,0,0,0,-1,573,365,0,0
-644,659,0,0,0,0,0,0,0,0,0,-1,580,365,0,0
-637,659,0,0,0,0,0,0,0,0,0,-1,587,365,0,0
-630,659,0,0,0,0,0,0,0,0,0,-1,594,365,0,0
-623,659,0,0,0,0,0,0,0,0,0,-1,601,365,0,0
-616,659,0,0,0,0,0,0,0,0,0,-1,608,365,0,0
-609,659,0,0,0,0,0,0,0,0,0,-1,615,365,0,0
-602,659,0,0,0,0,0,0,0,0,0,-1,622,365,0,0
-595,659,0,0,0,0,0,0,0,0,0,-1,629,365,0,0
-588,659,0,0,0,0,0,0,0,0,0,-1,636,365,0,0
-581,659,0,0,0,0,0,0,0,0,0,-1,643,365,0,0
-574,659,0,0,0,0,0,0,0,0,0,-1,650,365,0,0
-567,659,0,0,0,0,0,0,0,0,0,-1,657,365,0,0
-560,659,0,0,0,0,0,0,0,0,0,-1,664,365,0,0
-553,659,0,0,0,0,0,0,0,0,0,-1,671,365,0,0
-546,659,0,0,0,0,0,0,0,0,0,-1,678,365,0,0
-539,659,0,0,0,0,0,0,0,0,0,-1,685,365,0,0
-532,659,0,0,0,0,0,0,0,0,0,-1,692,365,0,0
-525,659,0,0,0,0,0,0,0,0,0,-1,699,365,0,0
-518,659,0,0,0,0,0,0,0,0,0,-1,706,365,0,0
-511,659,0,0,0,0,0,0,0,0,0,-1,713,365,0,0
-504,659,0,0,0,0,0,0,0,0,0,-1,720,365,0,0
-497,659,0,0,0,0,0,0,0,0,0,-1,727,365,0,0
-490,659,0,0,0,0,0,0,0,0,0,-1,734,365,0,0
-483,659,0,0,0,0,0,0,0,0,0,-1,741,365,0,0
-476,659,0,0,0,0,0,0,0,0,0,-1,748,365,0,0
-469,659,0,0,0,0,0,0,0,0,0,-1,755,365,0,0
-462,659,0,0,0,0,0,0,0,0,0,-1,762,365,0,0
-455,659,0,0,0,0,0,0,0,0,0,-1,769,365,0,0
-448,659,0,0,0,0,0,0,0,0,0,-1,776,365,0,0
-441,659,0,0,0,0,0,0,0,0,0,-1,783,365,0,0
-434,659,0,0,0,0,0,0,0,0,0,-1,790,365,0,0
-427,659,0,0,0,0,0,0,0,0,0,-1,797,365,0,0
-420,659,0,0,0,0,0,0,0,0,0,-1,804,365,0,0
-413,659,0,0,0,0,0,0,0,0,0,-1,811,365,0,0
-406,659,0,0,0,0,0,0,0,0,0,-1,818,365,0,0
-399,659,0,0,0,0,0,0,0,0,0,-1,825,365,0,0
-392,659,0,0,0,0,0,0,0,0,0,-1,832,365,0,0
-385,659,0,0,0,0,0,0,0,0,0,-1,839,365,0,0
-378,659,0,0,0,0,0,0,0,0,0,-1,846,365,0,0
-371,659,0,0,0,0,0,0,0,0,0,-1,853,365,0,0
-364,659,0,0,0,0,0,0,0,0,0,-1,860,365,0,0
-357,659,0,0,0,0,0,0,0,0,0,-1,867,365,0,0
-350,659,0,0,0,0,0,0,0,0,0,-1,874,365,0,0
-343,659,0,0,0,0,0,0,0,0,0,-1,881,365,0,0
-336,659,0,0,0,0,0,0,0,0,0,-1,888,365,0,0
-329,659,0,0,0,0,0,0,0,0,0,-1,895,365,0,0
-322,659,0,0,0,0,0,0,0,0,0,-1,902,365,0,0
-315,659,0,0,0,0,0,0,0,0,0,-1,909,365,0,0
-308,659,0,0,0,0,0,0,0,0,0,-1,916,365,0,0
-301,659,0,0,0,0,0,0,0,0,0,-1,923,365,0,0
-294,659,0,0,0,0,0,0,0,0,0,-1,930,365,0,0
-287,659,0,0,0,0,0,0,0,0,0,-1,937,365,0,0
-280,659,0,0,0,0,0,0,0,0,0,-1,944,365,0,0
-273,659,0,0,0,0,0,0,0,0,0,-1,951,365,0,0
-266,659,0,0,0,0,0,0,0,0,0,-1,958,365,0,0
-259,659,0,0,0,0,0,0,0,0,0,-1,965,365,0,0
-252,659,0,0,0,0,0,0,0,0,0,-1,972,365,0,0
-245,659,0,0,0,0,0,0,0,0,0,-1,979,365,0,0
-238,659,0,0,0,0,0,0,0,0,0,-1,986,365,0,0
-231,659,0,0,0,0,0,0,0,0,0,-1,993,365,0,0
-224,659,0,0,0,0,0,0,0,0,0,-1,1000,365,0,0
-217,659,0.806091,-15.796,0,0,0,0,0,0,0,-1,1007,365,0.806085,15.796
-210,659,1.66937,-16.0386,0,0,0,0,0,0,0,-1,1014,365,1.6694,16.0386
-203,659,1.98334,-16.5358,0,0,0,0,0,0,0,-1,1021,365,1.98333,16.5358
-196,659,3.35767,-16.0435,0,0,0,0,0,0,0,-1,1028,365,3.35766,16.0435
-189,659,1.54797,-16.3171,0,0,0,0,0,0,0,-1,1035,365,1.54799,16.3171
-182,659,1.21863,-16.1056,0,0,0,0,0,0,0,-1,1042,365,1.21863,16.1056
-175,659,4.89734,-15.9873,0,0,0,0,0,0,0,-1,1049,365,4.89736,15.9873
-168,659,5.07568,-16.6384,-0.0206004,-0.0681661,0.0108088,-0.0182595,-0.0705071,0.213285,0.0422544,0.0411751,1056,365,5.0757,16.6384
-161,659,5.38721,-17.3028,0,0,0,0,0,0,0,-1,1063,365,5.38718,17.3028
-154,659,2.57837,-15.041,0,0,0,0,0,0,0,-1,1070,365,2.57836,15.041
-147,659,2.98633,-14.963,0,0,0,0,0,0,0,-1,1077,365,2.98629,14.963
-140,659,2.73914,-15.7743,0.00327273,-0.0457232,-0.0024633,0.00339626,-0.0458467,-0.0501071,0.0317572,0.0424532,1084,365,2.73916,15.7743
-133,659,2.61267,-14.8164,0.00402886,-0.0394617,-0.00452332,0.00449434,-0.0399271,-0.102545,0.0282357,0.0472372,1091,365,2.61265,14.8164
-126,659,1.37878,-15.465,0.00452326,-0.033472,-0.00590431,0.00541962,-0.0343684,-0.150664,0.0249161,0.0409954,1098,365,1.3788,15.465
-119,659,2.38416,-15.349,0.00470041,-0.0281809,-0.00651628,0.00594469,-0.0294252,-0.188679,0.0218694,0.0395754,1105,365,2.38411,15.349
-112,659,3.02087,-15.211,0.00451069,-0.0225556,-0.00698787,0.00620832,-0.0242532,-0.238322,0.0185871,0.0375734,1112,365,3.02092,15.211
-105,659,2.95557,-15.0534,0.00439517,-0.0183962,-0.00632186,0.00603128,-0.0200323,-0.253245,0.0157549,0.0412408,1119,365,2.95551,15.0534
-98,659,2.65869,-15.0464,0.00363762,-0.0147665,-0.00531179,0.00506068,-0.0161895,-0.261758,0.0128174,0.0417191,1126,365,2.65871,15.0463
-91,659,2.67041,-15.0686,0,0,0,0,0,0,0,-1,1133,365,2.67044,15.0686
-84,659,2.76001,-15.0194,0,0,0,0,0,0,0,-1,1140,365,2.76001,15.0194
-77,659,2.7489,-14.2508,0,0,0,0,0,0,0,-1,1147,365,2.74893,14.2508
-70,659,2.9353,-12.7028,0,0,0,0,0,0,0,-1,1154,365,2.93533,12.7028
-63,659,2.11267,-9.7796,0,0,0,0,0,0,0,-1,1161,365,2.11266,9.7796
-56,659,2.11182,-9.91541,0,0,0,0,0,0,0,-1,1168,365,2.11178,9.91541
-49,659,2.92102,-15.9949,0,0,0,0,0,0,0,-1,1175,365,2.92102,15.9949
-42,659,2.9054,-16.105,0,0,0,0,0,0,0,-1,1182,365,2.90543,16.105
-35,659,2.83044,-16.2751,-0.0013502,0.000803352,0.00156308,0.00162465,-0.00217149,1.08701,0.00219927,0.044306,1189,365,2.83049,16.2751
-28,659,2.88318,-16.2627,-0.00161082,0.00105918,0.00146573,0.00170675,-0.00225839,1.15478,0.00229665,0.016654,1196,365,2.88321,16.2627
-21,659,2.87842,-16.2823,-0.00199022,0.00102289,0.00119844,0.00144142,-0.00240875,1.23481,0.00224616,0.011453,1203,365,2.87838,16.2823
-14,659,2.84741,-16.3513,-0.00242144,0.000907006,0.000496201,0.000979405,-0.00249384,1.42591,0.00206784,0.00857583,1210,365,2.84737,16.3513
-7,659,2.83386,-16.3969,-0.0021681,0.00303971,-0.000385079,0.00306803,-0.00219642,-1.49739,0.00305329,0.00853055,1217,365,2.83387,16.397
0,659,2.8324,-16.4199,-0.00170479,0.00496301,-0.00137294,0.00523464,-0.00197643,-1.37547,0.00430264,0.0077629,1224,365,2.83235,16.4199
7,659,2.81421,-16.4321,-0.00138284,0.00638672,-0.00220779,0.00697026,-0.00196637,-1.3124,0.00542247,0.00736517,1231,365,2.81417,16.4321
14,659,2.80652,-16.4646,-0.00126109,0.00801646,-0.0029908,0.00889703,-0.00214165,-1.28446,0.00675929,0.0107859,1238,365,2.80656,16.4646
21,659,2.78882,-16.4917,-0.00131345,0.00954147,-0.00364648,0.0106527,-0.00242466,-1.275,0.00803292,0.0114367,1245,365,2.78882,16.4917
28,659,2.76111,-16.4926,-0.00105628,0.0107977,-0.00410377,0.0120797,-0.00233832,-1.268,0.00893517,0.0104164,1252,365,2.76113,16.4926
35,659,2.75378,-16.5105,-0.000855604,0.0111588,-0.00451984,0.0126693,-0.00236607,-1.24828,0.00933538,0.0115324,1259,365,2.75375,16.5105
42,659,2.73621,-16.5453,-0.000990051,0.011898,-0.00465431,0.0134031,-0.00249512,-1.25804,0.00987274,0.0116493,1266,365,2.73625,16.5453
49,659,2.70471,-16.5517,-0.0012166,0.0124733,-0.00466781,0.0139133,-0.00265669,-1.27155,0.0102762,0.0107474,1273,365,2.70465,16.5517
56,659,2.68872,-16.5299,-0.00124253,0.0122003,-0.0044036,0.0135144,-0.00255661,-1.2808,0.00997163,0.0140254,1280,365,2.68872,16.5299
63,659,2.66602,-16.513,-0.00162711,0.0120808,-0.0039354,0.0131303,-0.00267657,-1.31019,0.00976873,0.0151074,1287,365,2.66606,16.513
70,659,2.64612,-16.4871,-0.00222201,0.0118008,-0.00356761,0.0126563,-0.00307747,-1.33545,0.0096287,0.0166658,1294,365,2.64614,16.4871
77,659,2.64014,-16.4948,-0.0026101,0.012044,-0.00331228,0.0127579,-0.003324,-1.35851,0.00980296,0.0170838,1301,365,2.64009,16.4948
84,659,2.63025,-16.4902,-0.00320864,0.0133603,-0.00344264,0.0140471,-0.00389547,-1.37388,0.0108978,0.0124145,1308,365,2.63029,16.4902
91,659,2.61511,-16.4433,-0.00388764,0.0147185,-0.00353041,0.0153658,-0.004535,-1.38945,0.0120436,0.0111315,1315,365,2.61517,16.4433
98,659,2.61365,-16.388,-0.00469334,0.0153853,-0.00364,0.0160249,-0.00533286,-1.39688,0.0128356,0.00854544,1322,365,2.61363,16.388
105,659,2.60657,-16.3407,-0.00533842,0.0168429,-0.00385872,0.017495,-0.00599052,-1.40338,0.0140912,0.00952573,1329,365,2.6066,16.3407
112,659,2.60217,-16.3049,-0.00570235,0.0189602,-0.00425537,0.0196738,-0.00641594,-1.40465,0.0156978,0.0115336,1336,365,2.60212,16.3049
119,659,2.58508,-16.2493,-0.00594666,0.0211227,-0.00468663,0.0219111,-0.00673511,-1.40412,0.0172953,0.0127762,1343,365,2.58503,16.2493
126,659,2.56299,-16.166,-0.00610688,0.0231803,-0.0050988,0.0240426,-0.00696918,-1.40326,0.0187874,0.0127894,1350,365,2.56294,16.166
133,659,2.53577,-16.1046,-0.00636762,0.0249739,-0.00552943,0.0259208,-0.00731454,-1.40119,0.0201659,0.0112745,1357,365,2.53576,16.1046
140,659,2.49622,-16.0538,-0.00648377,0.0266535,-0.00571495,0.0276114,-0.0074417,-1.40472,0.0213255,0.0092928,1364,365,2.4962,16.0538
147,659,2.47754,-15.9764,-0.00637452,0.0273201,-0.00595888,0.0283429,-0.0073973,-1.40081,0.0217838,0.00858156,1371,365,2.47759,15.9764
154,659,2.46606,-15.8845,-0.00619381,0.0268617,-0.00594893,0.0278997,-0.00723183,-1.39805,0.0214213,0.00927729,1378,365,2.46602,15.8844
161,659,2.46973,-15.8129,-0.00619185,0.0263749,-0.0056926,0.0273413,-0.00715823,-1.40264,0.0210238,0.0106161,1385,365,2.46973,15.8129
168,659,2.48865,-15.7505,-0.00571323,0.0242912,-0.00556612,0.0252905,-0.00671251,-1.39316,0.0194871,0.0181284,1392,365,2.48862,15.7505
175,659,2.48694,-15.6949,-0.00508196,0.0219002,-0.00480754,0.0227311,-0.00591295,-1.39964,0.017462,0.0419899,1399,365,2.48694,15.6949
182,659,2.35303,-15.6768,0,0,0,0,0,0,0,-1,1406,365,2.35298,15.6768
189,659,2.44763,-15.4131,0,0,0,0,0,0,0,-1,1413,365,2.44769,15.4131
196,659,2.41248,-13.4371,0,0,0,0,0,0,0,-1,1420,365,2.41243,13.4371
203,659,2.38623,-12.2163,0,0,0,0,0,0,0,-1,1427,365,2.38617,12.2163
210,659,2.20789,-13.9792,0,0,0,0,0,0,0,-1,1434,365,2.20794,13.9792
217,659,2.24121,-13.487,0,0,0,0,0,0,0,-1,1441,365,2.24116,13.487
224,659,2.37073,-14.7278,0,0,0,0,0,0,0,-1,1448,365,2.37078,14.7278
231,659,2.20251,-14.616,0,0,0,0,0,0,0,-1,1455,365,2.20247,14.616
238,659,2.776,-14.6619,0,0,0,0,0,0,0,-1,1462,365,2.77598,14.6619
245,659,2.37561,-14.8751,0,0,0,0,0,0,0,-1,1469,365,2.37562,14.8751
252,659,1.95984,-15.1732,0,0,0,0,0,0,0,-1,1476,365,1.95981,15.1731
259,659,2.33069,-3.36703,0,0,0,0,0,0,0,-1,1483,365,2.33073,3.36702
266,659,1.72473,-13.8524,0,0,0,0,0,0,0,-1,1490,365,1.72474,13.8524
273,659,2.0813,-13.7745,0,0,0,0,0,0,0,-1,1497,365,2.08129,13.7745
280,659,1.70947,-9.4129,0,0,0,0,0,0,0,-1,1504,365,1.70952,9.4129
287,659,2.91333,-12.2255,0,0,0,0,0,0,0,-1,1511,365,2.91333,12.2255
294,659,0.327393,-13.792,0,0,0,0,0,0,0,-1,1518,365,0.327345,13.792
301,659,4.13623,-10.1861,0,0,0,0,0,0,0,-1,1525,365,4.13619,10.1861
308,659,3.95068,-8.49731,0,0,0,0,0,0,0,-1,1532,365,3.9507,8.49732
315,659,2.02905,-3.83633,0,0,0,0,0,0,0,-1,1539,365,2.0291,3.83632
322,659,0.382813,-2.2424,0,0,0,0,0,0,0,-1,1546,365,0.382801,2.2424
329,659,0.604004,-1.75998,0,0,0,0,0,0,0,-1,1553,365,0.603966,1.75998
336,659,2.09851,-1.17941,0,0,0,0,0,0,0,-1,1560,365,2.09857,1.17942
343,659,0,0,0,0,0,0,0,0,0,-1,1567,365,0,0
350,659,0,0,0,0,0,0,0,0,0,-1,1574,365,0,0
357,659,0,0,0,0,0,0,0,0,0,-1,1581,365,0,0
364,659,0,0,0,0,0,0,0,0,0,-1,1588,365,0,0
371,659,0,0,0,0,0,0,0,0,0,-1,1595,365,0,0
378,659,0,0,0,0,0,0,0,0,0,-1,1602,365,0,0
385,659,0,0,0,0,0,0,0,0,0,-1,1609,365,0,0
392,659,0,0,0,0,0,0,0,0,0,-1,1616,365,0,0
399,659,0,0,0,0,0,0,0,0,0,-1,1623,365,0,0
406,659,0,0,0,0,0,0,0,0,0,-1,1630,365,0,0
413,659,0,0,0,0,0,0,0,0,0,-1,1637,365,0,0
420,659,0,0,0,0,0,0,0,0,0,-1,1644,365,0,0
427,659,0,0,0,0,0,0,0,0,0,-1,1651,365,0,0
434,659,0,0,0,0,0,0,0,0,0,-1,1658,365,0,0
441,659,0,0,0,0,0,0,0,0,0,-1,1665,365,0,0
448,659,0,0,0,0,0,0,0,0,0,-1,1672,365,0,0
455,659,0,0,0,0,0,0,0,0,0,-1,1679,365,0,0
462,659,0,0,0,0,0,0,0,0,0,-1,1686,365,0,0
469,659,0,0,0,0,0,0,0,0,0,-1,1693,365,0,0
476,659,0,0,0,0,0,0,0,0,0,-1,1700,365,0,0
483,659,0,0,0,0,0,0,0,0,0,-1,1707,365,0,0
490,659,0,0,0,0,0,0,0,0,0,-1,1714,365,0,0
497,659,0,0,0,0,0,0,0,0,0,-1,1721,365,0,0
504,659,0,0,0,0,0,0,0,0,0,-1,1728,365,0,0
511,659,0,0,0,0,0,0,0,0,0,-1,1735,365,0,0
518,659,0,0,0,0,0,0,0,0,0,-1,1742,365,0,0
525,659,0,0,0,0,0,0,0,0,0,-1,1749,365,0,0
532,659,0,0,0,0,0,0,0,0,0,-1,1756,365,0,0
539,659,0,0,0,0,0,0,0,0,0,-1,1763,365,0,0
546,659,0,0,0,0,0,0,0,0,0,-1,1770,365,0,0
553,659,0,0,0,0,0,0,0,0,0,-1,1777,365,0,0
560,659,0,0,0,0,0,0,0,0,0,-1,1784,365,0,0
567,659,0,0,0,0,0,0,0,0,0,-1,1791,365,0,0
574,659,0,0,0,0,0,0,0,0,0,-1,1798,365,0,0
581,659,0,0,0,0,0,0,0,0,0,-1,1805,365,0,0
588,659,0,0,0,0,0,0,0,0,0,-1,1812,365,0,0
595,659,0,0,0,0,0,0,0,0,0,-1,1819,365,0,0
602,659,0,0,0,0,0,0,0,0,0,-1,1826,365,0,0
609,659,0,0,0,0,0,0,0,0,0,-1,1833,365,0,0
616,659,0,0,0,0,0,0,0,0,0,-1,1840,365,0,0
623,659,0,0,0,0,0,0,0,0,0,-1,1847,365,0,0
630,659,0,0,0,0,0,0,0,0,0,-1,1854,365,0,0
637,659,0,0,0,0,0,0,0,0,0,-1,1861,365,0,0
644,659,0,0,0,0,0,0,0,0,0,-1,1868,365,0,0
651,659,0,0,0,0,0,0,0,0,0,-1,1875,365,0,0
658,659,0,0,0,0,0,0,0,0,0,-1,1882,365,0,0
665,659,0,0,0,0,0,0,0,0,0,-1,1889,365,0,0
672,659,0,0,0,0,0,0,0,0,0,-1,1896,365,0,0
679,659,0,0,0,0,0,0,0,0,0,-1,1903,365,0,0
686,659,0,0,0,0,0,0,0,0,0,-1,1910,365,0,0
693,659,0,0,0,0,0,0,0,0,0,-1,1917,365,0,0
700,659,0,0,0,0,0,0,0,0,0,-1,1924,365,0,0
707,659,0,0,0,0,0,0,0,0,0,-1,1931,365,0,0
714,659,0,0,0,0,0,0,0,0,0,-1,1938,365,0,0
721,659,0,0,0,0,0,0,0,0,0,-1,1945,365,0,0
728,659,0,0,0,0,0,0,0,0,0,-1,1952,365,0,0
735,659,0,0,0,0,0,0,0,0,0,-1,1959,365,0,0
742,659,0,0,0,0,0,0,0,0,0,-1,1966,365,0,0
749,659,0,0,0,0,0,0,0,0,0,-1,1973,365,0,0
756,659,0,0,0,0,0,0,0,0,0,-1,1980,365,0,0
763,659,0,0,0,0,0,0,0,0,0,-1,1987,365,0,0
770,659,0,0,0,0,0,0,0,0,0,-1,1994,365,0,0
777,659,0,0,0,0,0,0,0,0,0,-1,2001,365,0,0
784,659,0,0,0,0,0,0,0,0,0,-1,2008,365,0,0
791,659,0,0,0,0,0,0,0,0,0,-1,2015,365,0,0
798,659,0,0,0,0,0,0,0,0,0,-1,2022,365,0,0
805,659,0,0,0,0,0,0,0,0,0,-1,2029,365,0,0
812,659,0,0,0,0,0,0,0,0,0,-1,2036,365,0,0
-700,652,0,0,0,0,0,0,0,0,0,-1,524,372,0,0
-693,652,0,0,0,0,0,0,0,0,0,-1,531,372,0,0
-686,652,0,0,0,0,0,0,0,0,0,-1,538,372,0,0
-679,652,0,0,0,0,0,0,0,0,0,-1,545,372,0,0
-672,652,0,0,0,0,0,0,0,0,0,-1,552,372,0,0
-665,652,0,0,0,0,0,0,0,0,0,-1,559,372,0,0
-658,652,0,0,0,0,0,0,0,0,0,-1,566,372,0,0
-651,652,0,0,0,0,0,0,0,0,0,-1,573,372,0,0
-644,652,0,0,0,0,0,0,0,0,0,-1,580,372,0,0
-637,652,0,0,0,0,0,0,0,0,0,-1,587,372,0,0
-630,652,0,0,0,0,0,0,0,0,0,-1,594,372,0,0
-623,652,0,0,0,0,0,0,0,0,0,-1,601,372,0,0
-616,652,0,0,0,0,0,0,0,0,0,-1,608,372,0,0
-609,652,0,0,0,0,0,0,0,0,0,-1,615,372,0,0
-602,652,0,0,0,0,0,0,0,0,0,-1,622,372,0,0
-595,652,0,0,0,0,0,0,0,0,0,-1,629,372,0,0
-588,652,0,0,0,0,0,0,0,0,0,-1,636,372,0,0
-581,652,0,0,0,0,0,0,0,0,0,-1,643,372,0,0
-574,652,0,0,0,0,0,0,0,0,0,-1,650,372,0,0
-567,652,0,0,0,0,0,0,0,0,0,-1,657,372,0,0
-560,652,0,0,0,0,0,0,0,0,0,-1,664,372,0,0
-553,652,0,0,0,0,0,0,0,0,0,-1,671,372,0,0
-546,652,0,0,0,0,0,0,0,0,0,-1,678,372,0,0
-539,652,0,0,0,0,0,0,0,0,0,-1,685,372,0,0
-532,652,0,0,0,0,0,0,0,0,0,-1,692,372,0,0
-525,652,0,0,0,0,0,0,0,0,0,-1,699,372,0,0
-518,652,0,0,0,0,0,0,0,0,0,-1,706,372,0,0
-511,652,0,0,0,0,0,0,0,0,0,-1,713,372,0,0
-504,652,0,0,0,0,0,0,0,0,0,-1,720,372,0,0
-497,652,0,0,0,0,0,0,0,0,0,-1,727,372,0,0
-490,652,0,0,0,0,0,0,0,0,0,-1,734,372,0,0
-483,652,0,0,0,0,0,0,0,0,0,-1,741,372,0,0
-476,652,0,0,0,0,0,0,0,0,0,-1,748,372,0,0
-469,652,0,0,0,0,0,0,0,0,0,-1,755,372,0,0
-462,652,0,0,0,0,0,0,0,0,0,-1,762,372,0,0
-455,652,0,0,0,0,0,0,0,0,0,-1,769,372,0,0
-448,652,0,0,0,0,0,0,0,0,0,-1,776,372,0,0
-441,652,0,0,0,0,0,0,0,0,0,-1,783,372,0,0
-434,652,0,0,0,0,0,0,0,0,0,-1,790,372,0,0
-427,652,0,0,0,0,0,0,0,0,0,-1,797,372,0,0
-420,652,0,0,0,0,0,0,0,0,0,-1,804,372,0,0
-413,652,0,0,0,0,0,0,0,0,0,-1,811,372,0,0
-406,652,0,0,0,0,0,0,0,0,0,-1,818,372,0,0
-399,652,0,0,0,0,0,0,0,0,0,-1,825,372,0,0
-392,652,0,0,0,0,0,0,0,0,0,-1,832,372,0,0
-385,652,0,0,0,0,0,0,0,0,0,-1,839,372,0,0
-378,652,0,0,0,0,0,0,0,0,0,-1,846,372,0,0
-371,652,0,0,0,0,0,0,0,0,0,-1,853,372,0,0
-364,652,0,0,0,0,0,0,0,0,0,-1,860,372,0,0
-357,652,0,0,0,0,0,0,0,0,0,-1,867,372,0,0
-350,652,0,0,0,0,0,0,0,0,0,-1,874,372,0,0
-343,652,0,0,0,0,0,0,0,0,0,-1,881,372,0,0
-336,652,0,0,0,0,0,0,0,0,0,-1,888,372,0,0
-329,652,0,0,0,0,0,0,0,0,0,-1,895,372,0,0
-322,652,0,0,0,0,0,0,0,0,0,-1,902,372,0,0
-315,652,0,0,0,0,0,0,0,0,0,-1,909,372,0,0
-308,652,0,0,0,0,0,0,0,0,0,-1,916,372,0,0
-301,652,0,0,0,0,0,0,0,0,0,-1,923,372,0,0
-294,652,0,0,0,0,0,0,0,0,0,-1,930,372,0,0
-287,652,0,0,0,0,0,0,0,0,0,-1,937,372,0,0
-280,652,0,0,0,0,0,0,0,0,0,-1,944,372,0,0
-273,652,0,0,0,0,0,0,0,0,0,-1,951,372,0,0
-266,652,0,0,0,0,0,0,0,0,0,-1,958,372,0,0
-259,652,0,0,0,0,0,0,0,0,0,-1,965,372,0,0
-252,652,0,0,0,0,0,0,0,0,0,-1,972,372,0,0
-245,652,0,0,0,0,0,0,0,0,0,-1,979,372,0,0
-238,652,0,0,0,0,0,0,0,0,0,-1,986,372,0,0
-231,652,1.35083,-7.55121,0,0,0,0,0,0,0,-1,993,372,1.3508,7.55121
-224,652,1.83624,-9.07111,0,0,0,0,0,0,0,-1,1000,372,1.83626,9.0711
-217,652,2.88489,-16.6299,0,0,0,0,0,0,0,-1,1007,372,2.88488,16.6299
-210,652,3.10815,-16.6885,0,0,0,0,0,0,0,-1,1014,372,3.10813,16.6885
-203,652,3.26331,-16.7444,0,0,0,0,0,0,0,-1,1021,372,3.26332,16.7444
-196,652,3.5802,-16.629,0,0,0,0,0,0,0,-1,1028,372,3.58023,16.629
-189,652,2.93176,-15.8731,0,0,0,0,0,0,0,-1,1035,372,2.93178,15.8731
-182,652,2.49536,-14.8203,0,0,0,0,0,0,0,-1,1042,372,2.49538,14.8203
-175,652,3.36328,-15.1241,0,0,0,0,0,0,0,-1,1049,372,3.36328,15.124
-168,652,3.97888,-15.511,0,0,0,0,0,0,0,-1,1056,372,3.97888,15.511
-161,652,2.43286,-13.8014,0,0,0,0,0,0,0,-1,1063,372,2.43285,13.8013
-154,652,2.77625,-14.2796,-0.00656946,-0.0411829,0.00151311,-0.00650344,-0.041249,0.0436036,0.0256083,0.0442481,1070,372,2.77627,14.2796
-147,652,3.06885,-14.6227,-0.00168539,-0.0369829,-0.000770206,-0.0016686,-0.0369997,-0.0218065,0.0241295,0.0435594,1077,372,3.0689,14.6227
-140,652,2.63831,-15.0291,0.00157376,-0.0319961,-0.00352698,0.00194031,-0.0323627,-0.103557,0.0222501,0.0408106,1084,372,2.63826,15.0291
-133,652,2.69836,-14.6965,0.00239437,-0.0272532,-0.00504855,0.00323049,-0.0280893,-0.164125,0.0198907,0.0425252,1091,372,2.69837,14.6965
-126,652,2.40186,-14.8445,0.00289833,-0.0226213,-0.00604181,0.00425646,-0.0239794,-0.221113,0.0175777,0.0405216,1098,372,2.40191,14.8446
-119,652,2.68481,-15.021,0.00300086,-0.0186568,-0.00643271,0.00476739,-0.0204233,-0.268011,0.0154518,0.0329916,1105,372,2.6848,15.021
-112,652,3.02148,-15.0903,0.00285004,-0.0144094,-0.0068041,0.00520976,-0.0167691,-0.333829,0.0132616,0.0246934,1112,372,3.02149,15.0903
-105,652,2.99768,-15.1747,0.00278192,-0.0114683,-0.00618535,0.00509216,-0.0137785,-0.357456,0.0112732,0.0226464,1119,372,2.9977,15.1747
-98,652,2.9386,-15.3097,0.00216984,-0.0089976,-0.0051949,0.00421271,-0.0110405,-0.37467,0.00909577,0.025282,1126,372,2.93857,15.3097
-91,652,2.92859,-15.3806,0,0,0,0,0,0,0,-1,1133,372,2.92853,15.3806
-84,652,2.96069,-15.5675,0,0,0,0,0,0,0,-1,1140,372,2.9607,15.5675
-77,652,2.95569,-15.6644,0,0,0,0,0,0,0,-1,1147,372,2.95567,15.6644
-70,652,2.93835,-15.7841,0,0,0,0,0,0,0,-1,1154,372,2.93833,15.7841
-63,652,2.93164,-15.8837,0,0,0,0,0,0,0,-1,1161,372,2.93169,15.8837
-56,652,2.9071,-15.9783,0,0,0,0,0,0,0,-1,1168,372,2.90712,15.9783
-49,652,2.89648,-16.0397,-0.00203385,0.00196192,-0.000115785,0.00196528,-0.0020372,-1.54185,0.00231096,0.0346174,1175,372,2.8965,16.0397
-42,652,2.85168,-16.1011,-0.00152749,0.00107452,0.000560049,0.00118994,-0.00164291,1.36755,0.0016425,0.0115169,1182,372,2.85162,16.1011
-35,652,2.85364,-16.174,-0.00131385,0.00115774,0.000724946,0.00135468,-0.00151079,1.30553,0.0016552,0.00920668,1189,372,2.85363,16.174
-28,652,2.84082,-16.2386,-0.00142852,0.00126588,0.000743996,0.00145767,-0.00162031,1.31851,0.0017779,0.00762639,1196,372,2.84082,16.2386
-21,652,2.81104,-16.2905,-0.00163065,0.00114114,0.000627314,0.0012765,-0.00176601,1.35827,0.00176416,0.00791065,1203,372,2.81097,16.2905
-14,652,2.80908,-16.3391,-0.00183825,0.000953887,0.000204344,0.000968762,-0.00185313,1.49813,0.00165567,0.00940881,1210,372,2.80912,16.3391
-7,652,2.80017,-16.4086,-0.00159806,0.00210215,-0.000325288,0.00213053,-0.00162644,-1.48378,0.00217559,0.0118216,1217,372,2.80022,16.4086
0,652,2.77734,-16.4504,-0.00129638,0.00311493,-0.000829541,0.00326577,-0.00144722,-1.39093,0.00278775,0.0114475,1224,372,2.77731,16.4504
7,652,2.76428,-16.4684,-0.00110089,0.00394033,-0.00127686,0.00424529,-0.00140584,-1.33635,0.00339719,0.0122751,1231,372,2.76423,16.4684
14,652,2.76868,-16.4844,-0.00104114,0.00494927,-0.00170863,0.00540235,-0.00149422,-1.31159,0.00418942,0.0114401,1238,372,2.76873,16.4844
21,652,2.7666,-16.5115,-0.00109637,0.00597681,-0.00207466,0.00654043,-0.00165998,-1.30553,0.00500621,0.010493,1245,372,2.76659,16.5115
28,652,2.74915,-16.5381,-0.000929054,0.00682127,-0.00231694,0.00746109,-0.00156888,-1.30136,0.00557115,0.00953656,1252,372,2.74915,16.5381
35,652,2.72339,-16.5452,-0.000801952,0.00713949,-0.0025089,0.0078657,-0.00152817,-1.28904,0.00582045,0.00986698,1259,372,2.72335,16.5452
42,652,2.70251,-16.5586,-0.000929856,0.00794572,-0.00251044,0.00860659,-0.00159072,-1.31339,0.00633489,0.0104694,1266,372,2.70254,16.5586
49,652,2.70557,-16.564,-0.00111748,0.00853535,-0.00249013,0.00913987,-0.00172199,-1.33264,0.00674096,0.0122059,1273,372,2.70551,16.564
56,652,2.69543,-16.5551,-0.00113846,0.00854625,-0.00230789,0.00906811,-0.00166032,-1.34842,0.00666811,0.0138137,1280,372,2.6954,16.5551
63,652,2.67383,-16.5154,-0.00140059,0.00836112,-0.00200281,0.00875606,-0.00179553,-1.3761,0.00651884,0.0172476,1287,372,2.67385,16.5154
70,652,2.6792,-16.4919,-0.0017913,0.00813938,-0.00181351,0.00846019,-0.00211211,-1.39571,0.0064603,0.0157944,1294,372,2.67921,16.4919
77,652,2.6803,-16.4993,-0.00198677,0.00815875,-0.00167696,0.00842875,-0.00225677,-1.41116,0.00650328,0.0153722,1301,372,2.68028,16.4993
84,652,2.65808,-16.4998,-0.00233817,0.00885246,-0.00182243,0.00914177,-0.00262748,-1.41336,0.0071335,0.013329,1308,372,2.65806,16.4998
91,652,2.63171,-16.4934,-0.00278229,0.00952866,-0.00196284,0.00983404,-0.00308767,-1.41645,0.00779191,0.0158369,1315,372,2.63174,16.4934
98,652,2.6615,-16.421,-0.00332453,0.00958,-0.00208831,0.00990953,-0.00365406,-1.41429,0.0081038,0.0127667,1322,372,2.66152,16.421
105,652,2.65759,-16.3514,-0.00368968,0.0101441,-0.00229939,0.0105163,-0.00406186,-1.41033,0.00868732,0.0110674,1329,372,2.65755,16.3514
112,652,2.6366,-16.3158,-0.00382835,0.0111094,-0.00257549,0.011541,-0.00425993,-1.40477,0.00944001,0.0102131,1336,372,2.63665,16.3158
119,652,2.61267,-16.2602,-0.00387608,0.0120944,-0.00281901,0.0125774,-0.00435906,-1.40111,0.0101548,0.0108218,1343,372,2.61266,16.2602
126,652,2.58313,-16.188,-0.00387289,0.0130228,-0.00300543,0.0135415,-0.00439158,-1.3999,0.0107936,0.0121889,1350,372,2.58318,16.188
133,652,2.56787,-16.1213,-0.00398602,0.0138674,-0.0031752,0.0144153,-0.00453391,-1.39993,0.0114254,0.0124466,1357,372,2.56788,16.1213
140,652,2.56213,-16.0564,-0.00397405,0.0146366,-0.00315981,0.0151585,-0.0044959,-1.40712,0.0118911,0.00973954,1364,372,2.56209,16.0564
147,652,2.54517,-15.9734,-0.00378621,0.0145315,-0.00316474,0.0150629,-0.00431756,-1.40445,0.0117486,0.00947245,1371,372,2.54518,15.9734
154,652,2.53442,-15.9007,-0.00357797,0.0140052,-0.00294578,0.0144856,-0.00405837,-1.40914,0.0112564,0.00918218,1378,372,2.53438,15.9007
161,652,2.53552,-15.8187,-0.00355686,0.0136345,-0.00262238,0.0140256,-0.00394798,-1.42274,0.0109072,0.0105443,1385,372,2.53552,15.8187
168,652,2.51196,-15.7339,-0.0032398,0.0128638,-0.00236423,0.0132037,-0.00357972,-1.428,0.0102071,0.0112952,1392,372,2.51197,15.7339
175,652,2.49475,-15.6303,-0.00292916,0.0114563,-0.00160923,0.0116341,-0.00310698,-1.46074,0.00897288,0.0112237,1399,372,2.49475,15.6303
182,652,2.47791,-15.5458,-0.00265855,0.00936298,-0.000657764,0.00939886,-0.00269443,-1.5163,0.007331,0.0169385,1406,372,2.47787,15.5458
189,652,2.51013,-15.4481,-0.00172446,0.00515886,0.00135748,0.0054169,-0.0019825,1.38295,0.00442278,0.0268438,1413,372,2.51009,15.4481
196,652,2.52661,-15.3259,0,0,0,0,0,0,0,-1,1420,372,2.52664,15.3259
203,652,2.45654,-15.2064,0,0,0,0,0,0,0,-1,1427,372,2.45658,15.2064
210,652,2.50818,-15.0796,0,0,0,0,0,0,0,-1,1434,372,2.50821,15.0796
217,652,2.48145,-14.7331,0,0,0,0,0,0,0,-1,1441,372,2.48149,14.7331
224,652,2.42358,-14.762,-0.00227057,0.00132087,0.00129653,0.00174001,-0.00268971,1.25812,0.00257702,0.0404885,1448,372,2.42357,14.762
231,652,2.35364,-14.5429,-0.00190119,0.00132954,0.00108946,0.00166259,-0.00223424,1.27412,0.00225789,0.0384883,1455,372,2.35359,14.5429
238,652,2.57288,-14.4802,-0.00123089,0.00142893,0.00103006,0.00178118,-0.00158314,1.24129,0.00194352,0.0423665,1462,372,2.57288,14.4802
245,652,2.40417,-14.5012,-0.00040276,0.00147641,0.000791498,0.00176535,-0.000691707,1.22077,0.00146303,0.0410538,1469,372,2.40422,14.5012
252,652,2.19617,-14.5023,0.000987021,0.00180263,0.000765055,0.00226178,0.000527869,1.03026,0.00136632,0.0455292,1476,372,2.19614,14.5022
259,652,2.22888,-13.9766,0,0,0,0,0,0,0,-1,1483,372,2.22882,13.9766
266,652,2.08911,-13.7403,0.00518554,0.00327094,0.00199433,0.00644043,0.00201605,0.561635,0.00380405,0.0478328,1490,372,2.08912,13.7403
273,652,2.29053,-13.7387,0.00812819,0.00421778,0.00391713,0.010551,0.001795,0.553917,0.00651855,0.0473739,1497,372,2.29054,13.7387
280,652,2.40735,-13.6619,0,0,0,0,0,0,0,-1,1504,372,2.40736,13.6619
287,652,0.892822,-13.059,0,0,0,0,0,0,0,-1,1511,372,0.892875,13.059
294,652,1.54138,-14.8461,0,0,0,0,0,0,0,-1,1518,372,1.54137,14.8461
301,652,4.0199,-10.2797,0,0,0,0,0,0,0,-1,1525,372,4.01988,10.2797
308,652,4.33411,-7.9241,0,0,0,0,0,0,0,-1,1532,372,4.33412,7.92409
315,652,4.38037,-5.87537,0,0,0,0,0,0,0,-1,1539,372,4.38043,5.87536
322,652,2.1803,-12.6603,0,0,0,0,0,0,0,-1,1546,372,2.18031,12.6603
329,652,3.36157,-12.3212,0,0,0,0,0,0,0,-1,1553,372,3.36158,12.3212
336,652,4.60815,-2.13776,0,0,0,0,0,0,0,-1,1560,372,4.6082,2.13775
343,652,4.18225,-6.7092,0,0,0,0,0,0,0,-1,1567,372,4.18231,6.70921
350,652,4.64563,-7.2074,0,0,0,0,0,0,0,-1,1574,372,4.6456,7.2074
357,652,0,0,0,0,0,0,0,0,0,-1,1581,372,0,0
364,652,0,0,0,0,0,0,0,0,0,-1,1588,372,0,0
371,652,0,0,0,0,0,0,0,0,0,-1,1595,372,0,0
378,652,0,0,0,0,0,0,0,0,0,-1,1602,372,0,0
385,652,0,0,0,0,0,0,0,0,0,-1,1609,372,0,0
392,652,0,0,0,0,0,0,0,0,0,-1,1616,372,0,0
399,652,0,0,0,0,0,0,0,0,0,-1,1623,372,0,0
406,652,0,0,0,0,0,0,0,0,0,-1,1630,372,0,0
413,652,0,0,0,0,0,0,0,0,0,-1,1637,372,0,0
420,652,0,0,0,0,0,0,0,0,0,-1,1644,372,0,0
427,652,0,0,0,0,0,0,0,0,0,-1,1651,372,0,0
434,652,0,0,0,0,0,0,0,0,0,-1,1658,372,0,0
441,652,0,0,0,0,0,0,0,0,0,-1,1665,372,0,0
448,652,0,0,0,0,0,0,0,0,0,-1,1672,372,0,0
455,652,0,0,0,0,0,0,0,0,0,-1,1679,372,0,0
462,652,0,0,0,0,0,0,0,0,0,-1,1686,372,0,0
469,652,0,0,0,0,0,0,0,0,0,-1,1693,372,0,0
476,652,0,0,0,0,0,0,0,0,0,-1,1700,372,0,0
483,652,0,0,0,0,0,0,0,0,0,-1,1707,372,0,0
490,652,0,0,0,0,0,0,0,0,0,-1,1714,372,0,0
497,652,0,0,0,0,0,0,0,0,0,-1,1721,372,0,0
504,652,0,0,0,0,0,0,0,0,0,-1,1728,372,0,0
511,652,0,0,0,0,0,0,0,0,0,-1,1735,372,0,0
518,652,0,0,0,0,0,0,0,0,0,-1,1742,372,0,0
525,652,0,0,0,0,0,0,0,0,0,-1,1749,372,0,0
532,652,0,0,0,0,0,0,0,0,0,-1,1756,372,0,0
539,652,0,0,0,0,0,0,0,0,0,-1,1763,372,0,0
546,652,0,0,0,0,0,0,0,0,0,-1,1770,372,0,0
553,652,0,0,0,0,0,0,0,0,0,-1,1777,372,0,0
560,652,0,0,0,0,0,0,0,0,0,-1,1784,372,0,0
567,652,0,0,0,0,0,0,0,0,0,-1,1791,372,0,0
574,652,0,0,0,0,0,0,0,0,0,-1,1798,372,0,0
581,652,0,0,0,0,0,0,0,0,0,-1,1805,372,0,0
588,652,0,0,0,0,0,0,0,0,0,-1,1812,372,0,0
595,652,0,0,0,0,0,0,0,0,0,-1,1819,372,0,0
602,652,0,0,0,0,0,0,0,0,0,-1,1826,372,0,0
609,652,0,0,0,0,0,0,0,0,0,-1,1833,372,0,0
616,652,0,0,0,0,0,0,0,0,0,-1,1840,372,0,0
623,652,0,0,0,0,0,0,0,0,0,-1,1847,372,0,0
630,652,0,0,0,0,0,0,0,0,0,-1,1854,372,0,0
637,652,0,0,0,0,0,0,0,0,0,-1,1861,372,0,0
644,652,0,0,0,0,0,0,0,0,0,-1,1868,372,0,0
651,652,0,0,0,0,0,0,0,0,0,-1,1875,372,0,0
658,652,0,0,0,0,0,0,0,0,0,-1,1882,372,0,0
665,652,0,0,0,0,0,0,0,0,0,-1,1889,372,0,0
672,652,0,0,0,0,0,0,0,0,0,-1,1896,372,0,0
679,652,0,0,0,0,0,0,0,0,0,-1,1903,372,0,0
686,652,0,0,0,0,0,0,0,0,0,-1,1910,372,0,0
693,652,0,0,0,0,0,0,0,0,0,-1,1917,372,0,0
700,652,0,0,0,0,0,0,0,0,0,-1,1924,372,0,0
707,652,0,0,0,0,0,0,0,0,0,-1,1931,372,0,0
714,652,0,0,0,0,0,0,0,0,0,-1,1938,372,0,0
721,652,0,0,0,0,0,0,0,0,0,-1,1945,372,0,0
728,652,0,0,0,0,0,0,0,0,0,-1,1952,372,0,0
735,652,0,0,0,0,0,0,0,0,0,-1,1959,372,0,0
742,652,0,0,0,0,0,0,0,0,0,-1,1966,372,0,0
749,652,0,0,0,0,0,0,0,0,0,-1,1973,372,0,0
756,652,0,0,0,0,0,0,0,0,0,-1,1980,372,0,0
763,652,0,0,0,0,0,0,0,0,0,-1,1987,372,0,0
770,652,0,0,0,0,0,0,0,0,0,-1,1994,372,0,0
777,652,0,0,0,0,0,0,0,0,0,-1,2001,372,0,0
784,652,0,0,0,0,0,0,0,0,0,-1,2008,372,0,0
791,652,0,0,0,0,0,0,0,0,0,-1,2015,372,0,0
798,652,0,0,0,0,0,0,0,0,0,-1,2022,372,0,0
805,652,0,0,0,0,0,0,0,0,0,-1,2029,372,0,0
812,652,0,0,0,0,0,0,0,0,0,-1,2036,372,0,0
-700,645,0,0,0,0,0,0,0,0,0,-1,524,379,0,0
-693,645,0,0,0,0,0,0,0,0,0,-1,531,379,0,0
-686,645,0,0,0,0,0,0,0,0,0,-1,538,379,0,0
-679,645,0,0,0,0,0,0,0,0,0,-1,545,379,0,0
-672,645,0,0,0,0,0,0,0,0,0,-1,552,379,0,0
-665,645,0,0,0,0,0,0,0,0,0,-1,559,379,0,0
-658,645,0,0,0,0,0,0,0,0,0,-1,566,379,0,0
-651,645,0,0,0,0,0,0,0,0,0,-1,573,379,0,0
-644,645,0,0,0,0,0,0,0,0,0,-1,580,379,0,0
-637,645,0,0,0,0,0,0,0,0,0,-1,587,379,0,0
-630,645,0,0,0,0,0,0,0,0,0,-1,594,379,0,0
-623,645,0,0,0,0,0,0,0,0,0,-1,601,379,0,0
-616,645,0,0,0,0,0,0,0,0,0,-1,608,379,0,0
-609,645,0,0,0,0,0,0,0,0,0,-1,615,379,0,0
-602,645,0,0,0,0,0,0,0,0,0,-1,622,379,0,0
-595,645,0,0,0,0,0,0,0,0,0,-1,629,379,0,0
-588,645,0,0,0,0,0,0,0,0,0,-1,636,379,0,0
-581,645,0,0,0,0,0,0,0,0,0,-1,643,379,0,0
-574,645,0,0,0,0,0,0,0,0,0,-1,650,379,0,0
-567,645,0,0,0,0,0,0,0,0,0,-1,657,379,0,0
-560,645,0,0,0,0,0,0,0,0,0,-1,664,379,0,0
-553,645,0,0,0,0,0,0,0,0,0,-1,671,379,0,0
-546,645,0,0,0,0,0,0,0,0,0,-1,678,379,0,0
-539,645,0,0,0,0,0,0,0,0,0,-1,685,379,0,0
-532,645,0,0,0,0,0,0,0,0,0,-1,692,379,0,0
-525,645,0,0,0,0,0,0,0,0,0,-1,699,379,0,0
-518,645,0,0,0,0,0,0,0,0,0,-1,706,379,0,0
-511,645,0,0,0,0,0,0,0,0,0,-1,713,379,0,0
-504,645,0,0,0,0,0,0,0,0,0,-1,720,379,0,0
-497,645,0,0,0,0,0,0,0,0,0,-1,727,379,0,0
-490,645,0,0,0,0,0,0,0,0,0,-1,734,379,0,0
-483,645,0,0,0,0,0,0,0,0,0,-1,741,379,0,0
-476,645,0,0,0,0,0,0,0,0,0,-1,748,379,0,0
-469,645,0,0,0,0,0,0,0,0,0,-1,755,379,0,0
-462,645,0,0,0,0,0,0,0,0,0,-1,762,379,0,0
-455,645,0,0,0,0,0,0,0,0,0,-1,769,379,0,0
-448,645,0,0,0,0,0,0,0,0,0,-1,776,379,0,0
-441,645,0,0,0,0,0,0,0,0,0,-1,783,379,0,0
-434,645,0,0,0,0,0,0,0,0,0,-1,790,379,0,0
-427,645,0,0,0,0,0,0,0,0,0,-1,797,379,0,0
-420,645,0,0,0,0,0,0,0,0,0,-1,804,379,0,0
-413,645,0,0,0,0,0,0,0,0,0,-1,811,379,0,0
-406,645,0,0,0,0,0,0,0,0,0,-1,818,379,0,0
-399,645,0,0,0,0,0,0,0,0,0,-1,825,379,0,0
-392,645,0,0,0,0,0,0,0,0,0,-1,832,379,0,0
-385,645,0,0,0,0,0,0,0,0,0,-1,839,379,0,0
-378,645,0,0,0,0,0,0,0,0,0,-1,846,379,0,0
-371,645,0,0,0,0,0,0,0,0,0,-1,853,379,0,0
-364,645,0,0,0,0,0,0,0,0,0,-1,860,379,0,0
-357,645,0,0,0,0,0,0,0,0,0,-1,867,379,0,0
-350,645,0,0,0,0,0,0,0,0,0,-1,874,379,0,0
-343,645,0,0,0,0,0,0,0,0,0,-1,881,379,0,0
-336,645,0,0,0,0,0,0,0,0,0,-1,888,379,0,0
-329,645,0,0,0,0,0,0,0,0,0,-1,895,379,0,0
-322,645,0,0,0,0,0,0,0,0,0,-1,902,379,0,0
-315,645,0,0,0,0,0,0,0,0,0,-1,909,379,0,0
-308,645,0,0,0,0,0,0,0,0,0,-1,916,379,0,0
-301,645,0,0,0,0,0,0,0,0,0,-1,923,379,0,0
-294,645,0,0,0,0,0,0,0,0,0,-1,930,379,0,0
-287,645,0,0,0,0,0,0,0,0,0,-1,937,379,0,0
-280,645,0,0,0,0,0,0,0,0,0,-1,944,379,0,0
-273,645,0,0,0,0,0,0,0,0,0,-1,951,379,0,0
-266,645,0,0,0,0,0,0,0,0,0,-1,958,379,0,0
-259,645,0,0,0,0,0,0,0,0,0,-1,965,379,0,0
-252,645,1.22064,-13.4645,0,0,0,0,0,0,0,-1,972,379,1.22063,13.4645
-245,645,1.57947,-12.8639,0,0,0,0,0,0,0,-1,979,379,1.57948,12.8639
-238,645,2.3678,-12.5787,0,0,0,0,0,0,0,-1,986,379,2.36781,12.5787
-231,645,2.24493,-9.26569,0,0,0,0,0,0,0,-1,993,379,2.24495,9.26568
-224,645,2.80713,-10.7619,0,0,0,0,0,0,0,-1,1000,379,2.80711,10.7619
-217,645,3.3772,-12.1184,0,0,0,0,0,0,0,-1,1007,379,3.37718,12.1184
-210,645,5.05524,-17.6685,0,0,0,0,0,0,0,-1,1014,379,5.05522,17.6685
-203,645,4.50842,-16.9673,-0.0596411,-0.0352238,0.0116538,-0.0305546,-0.0643103,1.18972,0.0371449,0.0421327,1021,379,4.50848,16.9673
-196,645,3.98584,-16.1977,-0.0501681,-0.0368095,0.0110201,-0.0306025,-0.056375,1.05785,0.0325879,0.0405741,1028,379,3.98582,16.1977
-189,645,3.24146,-15.5192,0,0,0,0,0,0,0,-1,1035,379,3.24145,15.5192
-182,645,2.65955,-15.1453,0,0,0,0,0,0,0,-1,1042,379,2.65949,15.1453
-175,645,2.45374,-14.6234,0,0,0,0,0,0,0,-1,1049,379,2.4537,14.6234
-168,645,3.26416,-14.7209,-0.016001,-0.0359702,0.00446435,-0.0150484,-0.0369228,0.210229,0.0214385,0.0411005,1056,379,3.26411,14.7209
-161,645,3.00342,-14.339,-0.0101921,-0.0331021,0.00229818,-0.00996382,-0.0333304,0.0989992,0.0197551,0.0459961,1063,379,3.00343,14.339
-154,645,3.11658,-14.47,-0.00630234,-0.0293878,0.000303703,-0.00629834,-0.0293918,0.0131525,0.017869,0.0442067,1070,379,3.11653,14.47
-147,645,3.16553,-14.5266,-0.00226592,-0.026082,-0.00147834,-0.00217451,-0.0261734,-0.0617574,0.0167712,0.0420876,1077,379,3.1655,14.5266
-140,645,2.76611,-14.663,0.00049416,-0.0222447,-0.00358469,0.00104588,-0.0227964,-0.152713,0.015558,0.0357211,1084,379,2.76606,14.663
-133,645,2.82483,-14.7318,0.00129772,-0.0186737,-0.0046949,0.00234634,-0.0197223,-0.219747,0.013996,0.0297785,1091,379,2.82485,14.7318
-126,645,2.96545,-14.8455,0.0017872,-0.0151091,-0.0054111,0.00337155,-0.0166935,-0.284836,0.0124065,0.0244667,1098,379,2.96544,14.8455
-119,645,2.979,-15.011,0.00185499,-0.012128,-0.00568306,0.00387339,-0.0141464,-0.341264,0.0109528,0.0159504,1105,379,2.97897,15.011
-112,645,2.94873,-15.143,0.00175296,-0.00893813,-0.00597431,0.0044241,-0.0116093,-0.420443,0.00956169,0.0111749,1112,379,2.9487,15.143
-105,645,2.92676,-15.2648,0.00173245,-0.00685448,-0.00543624,0.00436622,-0.00948824,-0.451157,0.00817906,0.0114688,1119,379,2.92671,15.2648
-98,645,2.90149,-15.3773,0.00127548,-0.00516996,-0.00455913,0.00363591,-0.00753039,-0.477737,0.00657627,0.0127277,1126,379,2.90151,15.3773
-91,645,2.89697,-15.484,0.00104737,-0.00347553,-0.0038398,0.00324218,-0.00567034,-0.519271,0.00520891,0.0126899,1133,379,2.89692,15.484
-84,645,2.88672,-15.5913,0.000912028,-0.00159418,-0.00358193,0.00345372,-0.00413588,-0.617132,0.00438775,0.0125805,1140,379,2.88676,15.5913
-77,645,2.85986,-15.7069,0.000751226,-0.000218421,-0.00314584,0.00344938,-0.00291658,-0.708942,0.00367968,0.0119525,1147,379,2.85983,15.7069
-70,645,2.86633,-15.797,-4.67631e-05,0.000940089,-0.00145445,0.00198254,-0.00108921,-0.948932,0.0017983,0.0105571,1154,379,2.86631,15.797
-63,645,2.84375,-15.8862,-0.00153938,0.00200067,-0.00073867,0.00214862,-0.00168733,-1.37312,0.00222002,0.0106415,1161,379,2.84372,15.8862
-56,645,2.82385,-15.9565,-0.00182153,0.00204953,-0.000417381,0.00209402,-0.00186602,-1.4646,0.00228759,0.0117247,1168,379,2.82386,15.9565
-49,645,2.82593,-16.0237,-0.00155324,0.00176318,-0.00026941,0.00178492,-0.00157498,-1.49026,0.0019411,0.00973364,1175,379,2.82591,16.0236
-42,645,2.80652,-16.0999,-0.0012449,0.00112644,0.000210106,0.00114492,-0.00126337,1.4831,0.00139098,0.0095565,1182,379,2.80653,16.0999
-35,645,2.81055,-16.1909,-0.00104625,0.00106708,0.00035812,0.00112612,-0.00110528,1.40741,0.00128832,0.010154,1189,379,2.81056,16.1909
-28,645,2.78687,-16.2619,-0.00100748,0.000996157,0.000401077,0.00107346,-0.00108478,1.38039,0.00124607,0.00872326,1196,379,2.78686,16.2619
-21,645,2.75879,-16.2969,-0.00102114,0.0007801,0.000319968,0.000835249,-0.00107629,1.40011,0.00110655,0.010198,1203,379,2.75878,16.2969
-14,645,2.76709,-16.3369,-0.00103988,0.00051586,2.17582e-05,0.000516164,-0.00104019,1.55681,0.00091538,0.00977433,1210,379,2.76708,16.3369
-7,645,2.77661,-16.4052,-0.000806064,0.000916735,-0.000255448,0.000953814,-0.000843143,-1.42665,0.00103813,0.0128032,1217,379,2.77667,16.4052
0,645,2.76807,-16.4339,-0.000584525,0.00130624,-0.000538716,0.00144896,-0.000727243,-1.31182,0.00127925,0.0234821,1224,379,2.76802,16.4339
7,645,2.74451,-16.4719,-0.000472639,0.00168445,-0.000779839,0.00193685,-0.000725037,-1.25778,0.00158904,0.0160886,1231,379,2.74457,16.4719
14,645,2.74011,-16.4933,-0.000483289,0.00219015,-0.000963204,0.00250103,-0.000794168,-1.2586,0.00198574,0.0154507,1238,379,2.74008,16.4933
21,645,2.72766,-16.5238,-0.000586119,0.0027688,-0.00111729,0.00310683,-0.00092415,-1.27701,0.00243836,0.0101161,1245,379,2.72772,16.5238
28,645,2.72131,-16.5421,-0.000563098,0.00327448,-0.00116657,0.00360127,-0.000889892,-1.29767,0.00274597,0.00834077,1252,379,2.72132,16.5422
35,645,2.70947,-16.5574,-0.000658007,0.00353643,-0.00120964,0.00386028,-0.000981855,-1.30921,0.00295567,0.00777294,1259,379,2.70952,16.5574
42,645,2.7019,-16.5611,-0.000875145,0.00421044,-0.00110531,0.00444029,-0.00110499,-1.36577,0.00338911,0.00788768,1266,379,2.70194,16.5611
49,645,2.73145,-16.5566,-0.00111164,0.0046388,-0.00101785,0.00481365,-0.00128649,-1.40068,0.00371298,0.0104567,1273,379,2.73142,16.5566
56,645,2.7356,-16.5501,-0.0012351,0.00478841,-0.00087623,0.00491328,-0.00135998,-1.42924,0.00381062,0.0106665,1280,379,2.73563,16.5501
63,645,2.71887,-16.5598,-0.00150579,0.0047093,-0.000774669,0.00480441,-0.00160089,-1.44864,0.00384918,0.0112866,1287,379,2.71885,16.5598
70,645,2.69897,-16.523,-0.00179378,0.00458579,-0.000760408,0.00467517,-0.00188317,-1.45379,0.00389916,0.0148327,1294,379,2.69898,16.523
77,645,2.6969,-16.5131,-0.00185159,0.00457523,-0.00079001,0.00467092,-0.00194728,-1.45026,0.00392739,0.0174717,1301,379,2.69691,16.5131
84,645,2.69116,-16.4963,-0.00198949,0.0049315,-0.00103798,0.00508382,-0.00214181,-1.42509,0.00428543,0.0131539,1308,379,2.69111,16.4963
91,645,2.66467,-16.4807,-0.00224444,0.005256,-0.00132715,0.00548391,-0.00247235,-1.40073,0.00470196,0.0144854,1315,379,2.66464,16.4807
98,645,2.69141,-16.4167,-0.00254757,0.00510914,-0.00161737,0.00543677,-0.0028752,-1.37093,0.00487429,0.0130427,1322,379,2.69141,16.4167
105,645,2.68567,-16.3646,-0.00266941,0.00523716,-0.001894,0.00566744,-0.0030997,-1.3474,0.00513357,0.0099475,1329,379,2.68569,16.3646
112,645,2.65637,-16.3281,-0.00260512,0.0055729,-0.00214964,0.00610351,-0.00313574,-1.32879,0.00542524,0.00899448,1336,379,2.65639,16.3281
119,645,2.65601,-16.2586,-0.0024818,0.00594151,-0.00233634,0.00654613,-0.00308643,-1.31756,0.00567967,0.00905483,1343,379,2.65595,16.2586
126,645,2.63562,-16.1855,-0.00235751,0.00629658,-0.00238968,0.0069126,-0.00297353,-1.31851,0.00585684,0.0113647,1350,379,2.63557,16.1855
133,645,2.63989,-16.1245,-0.00234616,0.00663721,-0.00238049,0.00722902,-0.00293797,-1.32713,0.00604167,0.0121511,1357,379,2.63985,16.1245
140,645,2.63513,-16.0606,-0.00220699,0.00694136,-0.00217609,0.0074326,-0.00269823,-1.34877,0.0060582,0.0120958,1364,379,2.6351,16.0606
147,645,2.60144,-15.9828,-0.00202537,0.00668874,-0.00199572,0.00712406,-0.00246069,-1.35603,0.00574794,0.0127493,1371,379,2.60148,15.9829
154,645,2.60095,-15.9221,-0.00187532,0.00647496,-0.00166735,0.00679558,-0.00219594,-1.38082,0.00541294,0.0108707,1378,379,2.60089,15.9221
161,645,2.61816,-15.8344,-0.00180856,0.00632496,-0.00132508,0.00653539,-0.00201899,-1.4133,0.00516323,0.0137628,1385,379,2.61817,15.8343
168,645,2.57849,-15.731,-0.00162774,0.00617995,-0.000908565,0.00628428,-0.00173207,-1.45646,0.00487064,0.0165203,1392,379,2.57849,15.7311
175,645,2.5769,-15.6486,-0.00146444,0.00567786,-0.00032567,0.00569268,-0.00147926,-1.52532,0.00437243,0.0136712,1399,379,2.57685,15.6486
182,645,2.58203,-15.5331,-0.0013593,0.00501058,7.47146e-05,0.00501145,-0.00136018,1.55907,0.00387478,0.00973255,1406,379,2.58201,15.533
189,645,2.578,-15.4211,-0.00100718,0.00330665,0.00107058,0.00355773,-0.00125826,1.34043,0.00288423,0.0105517,1413,379,2.57796,15.421
196,645,2.54712,-15.3285,-0.000917497,0.00178973,0.00180763,0.0026944,-0.00182216,1.10677,0.00262379,0.0107388,1420,379,2.54717,15.3285
203,645,2.54077,-15.2033,-0.00148571,0.00133917,0.00162459,0.00207947,-0.00222601,1.14323,0.00248625,0.0106383,1427,379,2.54078,15.2033
210,645,2.5791,-15.0761,-0.00198771,0.00126487,0.0015753,0.00190273,-0.00262558,1.18606,0.0026255,0.0137711,1434,379,2.57916,15.0761
217,645,2.5509,-14.9625,-0.00211067,0.00137362,0.00131639,0.00181504,-0.00255209,1.24725,0.00253331,0.0137608,1441,379,2.55091,14.9625
224,645,2.50049,-14.8158,-0.00187204,0.00137509,0.00109104,0.00170763,-0.00220458,1.27495,0.00226478,0.012934,1448,379,2.50051,14.8158
231,645,2.47693,-14.647,-0.00154879,0.00143582,0.00104947,0.0017679,-0.00188086,1.26434,0.00210695,0.0143546,1455,379,2.47694,14.647
238,645,2.45959,-14.5069,-0.000981387,0.00169863,0.00118564,0.00214786,-0.00143061,1.20862,0.00207982,0.0121214,1462,379,2.4596,14.5069
245,645,2.46814,-14.3646,-0.00035746,0.00188058,0.00114779,0.00236456,-0.000841443,1.17175,0.00191936,0.0125232,1469,379,2.46808,14.3646
252,645,2.49084,-14.1715,0.000651865,0.00228094,0.00125953,0.00296637,-3.35589e-05,1.07242,0.00198886,0.0174026,1476,379,2.49086,14.1715
259,645,2.41406,-14.015,0.00190737,0.00295148,0.00161691,0.00412852,0.000730328,0.941551,0.00254409,0.0271018,1483,379,2.41405,14.0151
266,645,2.3623,-13.8317,0.00362703,0.00356041,0.00248078,0.00607473,0.00111272,0.778685,0.00373458,0.0246241,1490,379,2.36229,13.8317
273,645,2.42456,-13.6873,0.00581434,0.00432296,0.00407489,0.00921121,0.000926093,0.694901,0.00585657,0.0269805,1497,379,2.42459,13.6873
280,645,2.52173,-13.5058,0.00825976,0.00501686,0.0056943,0.012559,0.000717652,0.646695,0.00814397,0.0497698,1504,379,2.52177,13.5058
287,645,2.5658,-13.3808,0,0,0,0,0,0,0,-1,1511,379,2.56574,13.3808
294,645,2.16992,-13.9409,0,0,0,0,0,0,0,-1,1518,379,2.16992,13.9408
301,645,2.79333,-14.1902,0,0,0,0,0,0,0,-1,1525,379,2.79335,14.1902
308,645,4.71753,-7.35086,0,0,0,0,0,0,0,-1,1532,379,4.71753,7.35087
315,645,2.89819,-12.7901,0,0,0,0,0,0,0,-1,1539,379,2.89821,12.7901
322,645,3.1106,-12.214,0,0,0,0,0,0,0,-1,1546,379,3.11057,12.214
329,645,2.58679,-11.4128,0,0,0,0,0,0,0,-1,1553,379,2.58676,11.4128
336,645,2.35791,-10.951,0,0,0,0,0,0,0,-1,1560,379,2.35794,10.951
343,645,3.48962,-5.22675,0,0,0,0,0,0,0,-1,1567,379,3.48959,5.22675
350,645,3.93213,-5.72198,0,0,0,0,0,0,0,-1,1574,379,3.9321,5.72198
357,645,1.63928,-6.465,0,0,0,0,0,0,0,-1,1581,379,1.63926,6.46499
364,645,-0.0794678,-3.22021,0,0,0,0,0,0,0,-1,1588,379,-0.0794987,3.22021
371,645,0,0,0,0,0,0,0,0,0,-1,1595,379,0,0
378,645,0,0,0,0,0,0,0,0,0,-1,1602,379,0,0
385,645,0,0,0,0,0,0,0,0,0,-1,1609,379,0,0
392,645,0,0,0,0,0,0,0,0,0,-1,1616,379,0,0
399,645,0,0,0,0,0,0,0,0,0,-1,1623,379,0,0
406,645,0,0,0,0,0,0,0,0,0,-1,1630,379,0,0
413,645,0,0,0,0,0,0,0,0,0,-1,1637,379,0,0
420,645,0,0,0,0,0,0,0,0,0,-1,1644,379,0,0
427,645,0,0,0,0,0,0,0,0,0,-1,1651,379,0,0
434,645,0,0,0,0,0,0,0,0,0,-1,1658,379,0,0
441,645,0,0,0,0,0,0,0,0,0,-1,1665,379,0,0
448,645,0,0,0,0,0,0,0,0,0,-1,1672,379,0,0
455,645,0,0,0,0,0,0,0,0,0,-1,1679,379,0,0
462,645,0,0,0,0,0,0,0,0,0,-1,1686,379,0,0
469,645,0,0,0,0,0,0,0,0,0,-1,1693,379,0,0
476,645,0,0,0,0,0,0,0,0,0,-1,1700,379,0,0
483,645,0,0,0,0,0,0,0,0,0,-1,1707,379,0,0
490,645,0,0,0,0,0,0,0,0,0,-1,1714,379,0,0
497,645,0,0,0,0,0,0,0,0,0,-1,1721,379,0,0
504,645,0,0,0,0,0,0,0,0,0,-1,1728,379,0,0
511,645,0,0,0,0,0,0,0,0,0,-1,1735,379,0,0
518,645,0,0,0,0,0,0,0,0,0,-1,1742,379,0,0
525,645,0,0,0,0,0,0,0,0,0,-1,1749,379,0,0
532,645,0,0,0,0,0,0,0,0,0,-1,1756,379,0,0
539,645,0,0,0,0,0,0,0,0,0,-1,1763,379,0,0
546,645,0,0,0,0,0,0,0,0,0,-1,1770,379,0,0
553,645,0,0,0,0,0,0,0,0,0,-1,1777,379,0,0
560,645,0,0,0,0,0,0,0,0,0,-1,1784,379,0,0
567,645,0,0,0,0,0,0,0,0,0,-1,1791,379,0,0
574,645,0,0,0,0,0,0,0,0,0,-1,1798,379,0,0
581,645,0,0,0,0,0,0,0,0,0,-1,1805,379,0,0
588,645,0,0,0,0,0,0,0,0,0,-1,1812,379,0,0
595,645,0,0,0,0,0,0,0,0,0,-1,1819,379,0,0
602,645,0,0,0,0,0,0,0,0,0,-1,1826,379,0,0
609,645,0,0,0,0,0,0,0,0,0,-1,1833,379,0,0
616,645,0,0,0,0,0,0,0,0,0,-1,1840,379,0,0
623,645,0,0,0,0,0,0,0,0,0,-1,1847,379,0,0
630,645,0,0,0,0,0,0,0,0,0,-1,1854,379,0,0
637,645,0,0,0,0,0,0,0,0,0,-1,1861,379,0,0
644,645,0,0,0,0,0,0,0,0,0,-1,1868,379,0,0
651,645,0,0,0,0,0,0,0,0,0,-1,1875,379,0,0
658,645,0,0,0,0,0,0,0,0,0,-1,1882,379,0,0
665,645,0,0,0,0,0,0,0,0,0,-1,1889,379,0,0
672,645,0,0,0,0,0,0,0,0,0,-1,1896,379,0,0
679,645,0,0,0,0,0,0,0,0,0,-1,1903,379,0,0
686,645,0,0,0,0,0,0,0,0,0,-1,1910,379,0,0
693,645,0,0,0,0,0,0,0,0,0,-1,1917,379,0,0
700,645,0,0,0,0,0,0,0,0,0,-1,1924,379,0,0
707,645,0,0,0,0,0,0,0,0,0,-1,1931,379,0,0
714,645,0,0,0,0,0,0,0,0,0,-1,1938,379,0,0
721,645,0,0,0,0,0,0,0,0,0,-1,1945,379,0,0
728,645,0,0,0,0,0,0,0,0,0,-1,1952,379,0,0
735,645,0,0,0,0,0,0,0,0,0,-1,1959,379,0,0
742,645,0,0,0,0,0,0,0,0,0,-1,1966,379,0,0
749,645,0,0,0,0,0,0,0,0,0,-1,1973,379,0,0
756,645,0,0,0,0,0,0,0,0,0,-1,1980,379,0,0
763,645,0,0,0,0,0,0,0,0,0,-1,1987,379,0,0
770,645,0,0,0,0,0,0,0,0,0,-1,1994,379,0,0
777,645,0,0,0,0,0,0,0,0,0,-1,2001,379,0,0
784,645,0,0,0,0,0,0,0,0,0,-1,2008,379,0,0
791,645,0,0,0,0,0,0,0,0,0,-1,2015,379,0,0
798,645,0,0,0,0,0,0,0,0,0,-1,2022,379,0,0
805,645,0,0,0,0,0,0,0,0,0,-1,2029,379,0,0
812,645,0,0,0,0,0,0,0,0,0,-1,2036,379,0,0
-700,638,0,0,0,0,0,0,0,0,0,-1,524,386,0,0
-693,638,0,0,0,0,0,0,0,0,0,-1,531,386,0,0
-686,638,0,0,0,0,0,0,0,0,0,-1,538,386,0,0
-679,638,0,0,0,0,0,0,0,0,0,-1,545,386,0,0
-672,638,0,0,0,0,0,0,0,0,0,-1,552,386,0,0
-665,638,0,0,0,0,0,0,0,0,0,-1,559,386,0,0
-658,638,0,0,0,0,0,0,0,0,0,-1,566,386,0,0
-651,638,0,0,0,0,0,0,0,0,0,-1,573,386,0,0
-644,638,0,0,0,0,0,0,0,0,0,-1,580,386,0,0
-637,638,0,0,0,0,0,0,0,0,0,-1,587,386,0,0
-630,638,0,0,0,0,0,0,0,0,0,-1,594,386,0,0
-623,638,0,0,0,0,0,0,0,0,0,-1,601,386,0,0
-616,638,0,0,0,0,0,0,0,0,0,-1,608,386,0,0
-609,638,0,0,0,0,0,0,0,0,0,-1,615,386,0,0
-602,638,0,0,0,0,0,0,0,0,0,-1,622,386,0,0
-595,638,0,0,0,0,0,0,0,0,0,-1,629,386,0,0
-588,638,0,0,0,0,0,0,0,0,0,-1,636,386,0,0
-581,638,0,0,0,0,0,0,0,0,0,-1,643,386,0,0
-574,638,0,0,0,0,0,0,0,0,0,-1,650,386,0,0
-567,638,0,0,0,0,0,0,0,0,0,-1,657,386,0,0
-560,638,0,0,0,0,0,0,0,0,0,-1,664,386,0,0
-553,638,0,0,0,0,0,0,0,0,0,-1,671,386,0,0
-546,638,0,0,0,0,0,0,0,0,0,-1,678,386,0,0
-539,638,0,0,0,0,0,0,0,0,0,-1,685,386,0,0
-532,638,0,0,0,0,0,0,0,0,0,-1,692,386,0,0
-525,638,0,0,0,0,0,0,0,0,0,-1,699,386,0,0
-518,638,0,0,0,0,0,0,0,0,0,-1,706,386,0,0
-511,638,0,0,0,0,0,0,0,0,0,-1,713,386,0,0
-504,638,0,0,0,0,0,0,0,0,0,-1,720,386,0,0
-497,638,0,0,0,0,0,0,0,0,0,-1,727,386,0,0
-490,638,0,0,0,0,0,0,0,0,0,-1,734,386,0,0
-483,638,0,0,0,0,0,0,0,0,0,-1,741,386,0,0
-476,638,0,0,0,0,0,0,0,0,0,-1,748,386,0,0
-469,638,0,0,0,0,0,0,0,0,0,-1,755,386,0,0
-462,638,0,0,0,0,0,0,0,0,0,-1,762,386,0,0
-455,638,0,0,0,0,0,0,0,0,0,-1,769,386,0,0
-448,638,0,0,0,0,0,0,0,0,0,-1,776,386,0,0
-441,638,0,0,0,0,0,0,0,0,0,-1,783,386,0,0
-434,638,0,0,0,0,0,0,0,0,0,-1,790,386,0,0
-427,638,0,0,0,0,0,0,0,0,0,-1,797,386,0,0
-420,638,0,0,0,0,0,0,0,0,0,-1,804,386,0,0
-413,638,0,0,0,0,0,0,0,0,0,-1,811,386,0,0
-406,638,0,0,0,0,0,0,0,0,0,-1,818,386,0,0
-399,638,0,0,0,0,0,0,0,0,0,-1,825,386,0,0
-392,638,0,0,0,0,0,0,0,0,0,-1,832,386,0,0
-385,638,0,0,0,0,0,0,0,0,0,-1,839,386,0,0
-378,638,0,0,0,0,0,0,0,0,0,-1,846,386,0,0
-371,638,0,0,0,0,0,0,0,0,0,-1,853,386,0,0
-364,638,0,0,0,0,0,0,0,0,0,-1,860,386,0,0
-357,638,0,0,0,0,0,0,0,0,0,-1,867,386,0,0
-350,638,0,0,0,0,0,0,0,0,0,-1,874,386,0,0
-343,638,0,0,0,0,0,0,0,0,0,-1,881,386,0,0
-336,638,0,0,0,0,0,0,0,0,0,-1,888,386,0,0
-329,638,0,0,0,0,0,0,0,0,0,-1,895,386,0,0
-322,638,0,0,0,0,0,0,0,0,0,-1,902,386,0,0
-315,638,0,0,0,0,0,0,0,0,0,-1,909,386,0,0
-308,638,0,0,0,0,0,0,0,0,0,-1,916,386,0,0
-301,638,0,0,0,0,0,0,0,0,0,-1,923,386,0,0
-294,638,0,0,0,0,0,0,0,0,0,-1,930,386,0,0
-287,638,0,0,0,0,0,0,0,0,0,-1,937,386,0,0
-280,638,0,0,0,0,0,0,0,0,0,-1,944,386,0,0
-273,638,0,0,0,0,0,0,0,0,0,-1,951,386,0,0
-266,638,0.603821,-10.3962,0,0,0,0,0,0,0,-1,958,386,0.603829,10.3962
-259,638,1.22852,-12.639,0,0,0,0,0,0,0,-1,965,386,1.22853,12.639
-252,638,1.82166,-12.43,0,0,0,0,0,0,0,-1,972,386,1.82167,12.43
-245,638,2.47107,-12.2099,0,0,0,0,0,0,0,-1,979,386,2.47105,12.2099
-238,638,3.37762,-12.1555,0,0,0,0,0,0,0,-1,986,386,3.37763,12.1556
-231,638,4.06219,-12.2823,0,0,0,0,0,0,0,-1,993,386,4.0622,12.2823
-224,638,3.90192,-12.6979,0,0,0,0,0,0,0,-1,1000,386,3.90192,12.6979
-217,638,4.58875,-13.7002,0,0,0,0,0,0,0,-1,1007,386,4.58873,13.7002
-210,638,6.30249,-17.7497,0,0,0,0,0,0,0,-1,1014,386,6.3025,17.7497
-203,638,5.72986,-16.822,-0.0433799,-0.0244382,0.00791724,-0.0215648,-0.0462532,1.22265,0.0267246,0.0499649,1021,386,5.72986,16.822
-196,638,4.28784,-15.8356,-0.0372657,-0.0259395,0.00758738,-0.0221348,-0.0410704,1.10599,0.023736,0.0435247,1028,386,4.28786,15.8356
-189,638,3.7738,-14.0446,0,0,0,0,0,0,0,-1,1035,386,3.77383,14.0446
-182,638,2.77466,-14.794,-0.0249708,-0.0275686,0.0067921,-0.0193545,-0.0331849,0.690921,0.0192476,0.0454936,1042,386,2.77467,14.794
-175,638,2.54541,-14.5134,-0.0188689,-0.0270175,0.00458688,-0.0168081,-0.0290783,0.422255,0.0168564,0.0408524,1049,386,2.54543,14.5134
-168,638,2.87744,-14.033,-0.0130459,-0.0257375,0.00281148,-0.012451,-0.0263324,0.208528,0.0152105,0.0333302,1056,386,2.87749,14.033
-161,638,2.91382,-14.2099,-0.00862543,-0.0235935,0.00124876,-0.00852196,-0.023697,0.0826669,0.01386,0.0284593,1063,386,2.91376,14.2099
-154,638,2.95459,-14.3477,-0.00559467,-0.0207828,-0.0002466,-0.00559066,-0.0207868,-0.0162307,0.012421,0.0232974,1070,386,2.95459,14.3477
-147,638,2.96191,-14.4634,-0.0023708,-0.0182512,-0.00159425,-0.00221233,-0.0184097,-0.0990735,0.0116062,0.0195318,1077,386,2.96187,14.4634
-140,638,2.8988,-14.607,-0.000113293,-0.0153491,-0.00316821,0.000519255,-0.0159817,-0.197064,0.0108317,0.014783,1084,386,2.89885,14.607
-133,638,2.87854,-14.7954,0.00064736,-0.01268,-0.00398132,0.00174613,-0.0137787,-0.269278,0.00981975,0.011098,1091,386,2.87849,14.7954
-126,638,2.88391,-14.9268,0.00110495,-0.00992115,-0.00449769,0.00270687,-0.0115231,-0.342158,0.00872544,0.012874,1098,386,2.88389,14.9268
-119,638,2.87573,-15.0378,0.00116,-0.00765156,-0.00470026,0.00319653,-0.00968809,-0.408863,0.00774726,0.0145047,1105,386,2.8757,15.0377
-112,638,2.83984,-15.1713,0.00111113,-0.00526593,-0.00492062,0.00378598,-0.00794078,-0.497917,0.00691065,0.0137489,1112,386,2.83989,15.1713
-105,638,2.81714,-15.293,0.00113681,-0.0037654,-0.00447566,0.00378859,-0.00641718,-0.534879,0.00595709,0.0154286,1119,386,2.8171,15.293
-98,638,2.82239,-15.4081,0.00083018,-0.00258556,-0.0037552,0.00324764,-0.00500302,-0.571978,0.00479932,0.0142967,1126,386,2.82235,15.4081
-91,638,2.79333,-15.5138,0.000730374,-0.00139984,-0.00315463,0.00299485,-0.00366432,-0.622591,0.00385115,0.0117482,1133,386,2.79332,15.5138
-84,638,2.75452,-15.6042,0.000678181,-0.000122385,-0.0028296,0.00313567,-0.00257987,-0.715133,0.00330506,0.0138954,1140,386,2.75452,15.6042
-77,638,2.76782,-15.7048,0.000570379,0.000560655,-0.00235958,0.0029251,-0.00179407,-0.784368,0.00275057,0.0111708,1147,386,2.76784,15.7048
-70,638,2.79248,-15.8159,5.50114e-05,0.00119996,-0.00114141,0.00190441,-0.000649437,-1.01784,0.00153266,0.0100207,1154,386,2.79247,15.8159
-63,638,2.77173,-15.9027,-0.000884618,0.00172343,-0.000642562,0.00187315,-0.00103434,-1.34188,0.00170176,0.010391,1161,386,2.77171,15.9027
-56,638,2.75256,-15.9745,-0.000999393,0.00164291,-0.000448579,0.00171699,-0.00107347,-1.40713,0.00162529,0.0144443,1168,386,2.75256,15.9745
-49,638,2.74756,-16.0339,-0.000753745,0.0013351,-0.000306295,0.00137908,-0.000797732,-1.42816,0.00127164,0.012002,1175,386,2.74756,16.0339
-42,638,2.75146,-16.1177,-0.000521984,0.000802021,3.63177e-05,0.000803017,-0.000522979,1.54339,0.000771234,0.0104073,1182,386,2.75146,16.1177
-35,638,2.75122,-16.1991,-0.000317209,0.000603379,0.000128015,0.000620849,-0.000334679,1.43517,0.000559861,0.0104295,1189,386,2.75126,16.1991
-28,638,2.74512,-16.2617,-0.00016656,0.000368487,0.00012086,0.000394521,-0.000192594,1.35863,0.000345589,0.0103086,1196,386,2.74515,16.2617
-21,638,2.70361,-16.3014,-3.55015e-05,0.000100932,6.75815e-06,0.000101266,-3.58354e-05,1.52142,8.21053e-05,0.0116208,1203,386,2.70356,16.3014
-14,638,2.7002,-16.3486,0.000124319,-0.000202136,-0.000242064,0.000253047,-0.000330864,-0.488758,0.000338118,0.0116485,1210,386,2.70024,16.3486
-7,638,2.72095,-16.4221,0.000427552,-0.000253446,-0.000550959,0.000734737,-0.000560631,-0.508619,0.00075013,0.0168466,1217,386,2.72099,16.4221
0,638,2.77661,-16.4872,0.00065794,-0.000214635,-0.000828302,0.00115783,-0.000714527,-0.542999,0.00109106,0.0302685,1224,386,2.7766,16.4872
7,638,2.74146,-16.4814,0.000754776,-0.00011589,-0.0010584,0.00146387,-0.000824985,-0.590287,0.00133852,0.023925,1231,386,2.74151,16.4814
14,638,2.68555,-16.4893,0.000750642,1.84143e-05,-0.00116519,0.00160588,-0.000836824,-0.633177,0.00143341,0.0129767,1238,386,2.68554,16.4893
21,638,2.69104,-16.524,0.00070293,0.000213198,-0.00123331,0.00171545,-0.000799323,-0.687401,0.00148367,0.0100642,1245,386,2.69099,16.524
28,638,2.7019,-16.5386,0.000647609,0.000433982,-0.00115893,0.00170464,-0.000623051,-0.739445,0.00139141,0.00774563,1252,386,2.70191,16.5386
35,638,2.70532,-16.551,0.000499203,0.000618404,-0.00101508,0.00157564,-0.000458029,-0.814722,0.00123182,0.00940201,1259,386,2.70533,16.551
42,638,2.70874,-16.5589,0.000321019,0.000950821,-0.00075313,0.00145223,-0.000180393,-0.983414,0.00103355,0.00871776,1266,386,2.70871,16.5589
49,638,2.74438,-16.5439,7.29471e-05,0.00117652,-0.000443065,0.00133239,-8.29202e-05,-1.23252,0.000917151,0.00757397,1273,386,2.74441,16.5439
56,638,2.74805,-16.5299,-0.000132715,0.00136577,-0.000133661,0.0013776,-0.000144543,-1.48253,0.000970179,0.0104394,1280,386,2.74803,16.5299
63,638,2.729,-16.5614,-0.000460626,0.00145036,0.000119114,0.00145775,-0.000468022,1.50878,0.00115976,0.0128045,1287,386,2.729,16.5614
70,638,2.70789,-16.5429,-0.000743236,0.00142196,0.000289063,0.00145989,-0.000781163,1.44034,0.0013135,0.0169222,1294,386,2.70786,16.5429
77,638,2.70801,-16.5081,-0.000772531,0.00149475,0.000358556,0.0015501,-0.000827884,1.41763,0.00139388,0.0172926,1301,386,2.70805,16.5082
84,638,2.74036,-16.466,-0.000876934,0.00171006,0.000243203,0.00173272,-0.000899598,1.47787,0.00154493,0.0123793,1308,386,2.74034,16.466
91,638,2.73853,-16.432,-0.00111877,0.00183091,3.82181e-05,0.00183141,-0.00111927,1.55784,0.00172003,0.0128565,1315,386,2.73855,16.432
98,638,2.73853,-16.3989,-0.00141688,0.00173105,-0.00018144,0.00174148,-0.0014273,-1.51341,0.00183249,0.0121218,1322,386,2.73856,16.3989
105,638,2.71094,-16.3729,-0.00153334,0.00167617,-0.000433186,0.0017336,-0.00159078,-1.43897,0.00191992,0.0091981,1329,386,2.71093,16.3729
112,638,2.70667,-16.3383,-0.00147963,0.00168357,-0.000660193,0.00181583,-0.00161189,-1.37308,0.00198016,0.00874694,1336,386,2.70665,16.3382
119,638,2.71399,-16.2678,-0.00138977,0.00174257,-0.000857863,0.00196212,-0.00160933,-1.32024,0.00206533,0.0118353,1343,386,2.71393,16.2678
126,638,2.70691,-16.1922,-0.00132095,0.00179386,-0.000925664,0.00204819,-0.00157528,-1.30266,0.00209794,0.0149249,1350,386,2.70697,16.1922
133,638,2.71155,-16.1195,-0.00126522,0.00181812,-0.000953861,0.00208934,-0.00153645,-1.29376,0.00210145,0.0144802,1357,386,2.71149,16.1195
140,638,2.6936,-16.0818,-0.00114267,0.00183599,-0.000838562,0.00205584,-0.00136252,-1.31439,0.00198707,0.0154295,1364,386,2.69359,16.0818
147,638,2.68115,-16.0266,-0.00104275,0.00172376,-0.000698054,0.00188992,-0.00120891,-1.33712,0.00180345,0.016744,1371,386,2.6811,16.0266
154,638,2.6825,-15.9497,-0.000896071,0.00168051,-0.000510464,0.00177795,-0.000993517,-1.38217,0.00162133,0.0146423,1378,386,2.68249,15.9497
161,638,2.69189,-15.8091,-0.00077003,0.00164523,-0.00030113,0.00168221,-0.000807008,-1.44861,0.00146646,0.0180741,1385,386,2.69189,15.8091
168,638,2.71082,-15.6731,-0.000689359,0.00169626,-3.65115e-05,0.00169682,-0.000689918,-1.5555,0.00141827,0.023653,1392,386,2.71087,15.6731
175,638,2.7157,-15.6209,-0.000668948,0.00177006,0.000286672,0.00180331,-0.000702189,1.45536,0.00149239,0.0190618,1399,386,2.71565,15.6209
182,638,2.69275,-15.5389,-0.000651579,0.00184929,0.000416506,0.00191684,-0.000719122,1.41003,0.00157337,0.0128845,1406,386,2.69272,15.5389
189,638,2.66138,-15.4586,-0.00051993,0.00153569,0.00083464,0.00183189,-0.000816136,1.22977,0.00156588,0.0114443,1413,386,2.66138,15.4586
196,638,2.66821,-15.3228,-0.000565082,0.00125867,0.00114523,0.00181072,-0.00111713,1.12162,0.00170613,0.0127874,1420,386,2.66825,15.3228
203,638,2.6532,-15.1911,-0.000957959,0.00104972,0.00108965,0.00152744,-0.00143568,1.15761,0.00171103,0.0174591,1427,386,2.65322,15.1911
210,638,2.68677,-15.1085,-0.00135099,0.00109795,0.00111629,0.00153041,-0.00178346,1.20119,0.00191512,0.0146341,1434,386,2.68674,15.1085
217,638,2.66699,-14.9986,-0.00147445,0.00125495,0.000977136,0.0015687,-0.0017882,1.2601,0.00193949,0.0111689,1441,386,2.66697,14.9986
224,638,2.62476,-14.8452,-0.00133694,0.00128983,0.000888793,0.0015623,-0.00160941,1.27333,0.00183125,0.0102121,1448,386,2.62474,14.8452
231,638,2.59058,-14.6885,-0.0010873,0.00137307,0.000955351,0.00170046,-0.00141469,1.24064,0.00180106,0.0118962,1455,386,2.59052,14.6885
238,638,2.56763,-14.5562,-0.000642338,0.00169266,0.001192,0.00219367,-0.00114334,1.17291,0.00195818,0.0126435,1462,386,2.56757,14.5562
245,638,2.58191,-14.3884,-0.000190486,0.00192663,0.00127066,0.00252189,-0.000785744,1.13269,0.00199543,0.0139976,1469,386,2.58186,14.3884
252,638,2.58533,-14.2195,0.000529844,0.00232681,0.00145015,0.00313426,-0.000277603,1.06274,0.00218792,0.0154584,1476,386,2.58533,14.2195
259,638,2.57166,-14.0932,0.00139869,0.00289395,0.00182407,0.00411766,0.000174986,0.979891,0.00268868,0.0143558,1483,386,2.5717,14.0932
266,638,2.53284,-13.9314,0.002605,0.00335903,0.00257067,0.00558019,0.000383849,0.858209,0.003599,0.0105943,1490,386,2.53286,13.9314
273,638,2.52954,-13.7795,0.00417695,0.00392712,0.0038465,0.00790056,0.000203509,0.769166,0.00520053,0.010784,1497,386,2.52956,13.7795
280,638,2.5686,-13.5105,0.00594429,0.00440695,0.00513245,0.0103653,-1.40732e-05,0.711067,0.0069149,0.0228213,1504,386,2.56865,13.5105
287,638,2.81104,-13.0862,0.00781165,0.00420057,0.00696551,0.0132018,-0.0011896,0.658584,0.00922336,0.0394041,1511,386,2.81109,13.0861
294,638,2.99304,-12.7508,0,0,0,0,0,0,0,-1,1518,386,2.99302,12.7508
301,638,2.54956,-12.946,0,0,0,0,0,0,0,-1,1525,386,2.5496,12.946
308,638,2.82324,-12.7778,0,0,0,0,0,0,0,-1,1532,386,2.82318,12.7778
315,638,2.90283,-12.7437,0.0170189,0.00206568,0.0168235,0.0279524,-0.00886779,0.576299,0.0221896,0.0442296,1539,386,2.90286,12.7436
322,638,3.12378,-12.4844,0.0190694,1.49082e-06,0.0199819,0.0316753,-0.0126044,0.562805,0.0263434,0.045146,1546,386,3.12374,12.4844
329,638,3.00232,-11.7717,0,0,0,0,0,0,0,-1,1553,386,3.00237,11.7717
336,638,2.9165,-13.3095,0,0,0,0,0,0,0,-1,1560,386,2.91649,13.3095
343,638,1.04028,-10.3387,0,0,0,0,0,0,0,-1,1567,386,1.04031,10.3387
350,638,2.3783,-11.33,0,0,0,0,0,0,0,-1,1574,386,2.37831,11.33
357,638,0.130371,-3.02618,0,0,0,0,0,0,0,-1,1581,386,0.130345,3.0262
364,638,3.78149,-6.45215,0,0,0,0,0,0,0,-1,1588,386,3.78155,6.45216
371,638,4.18604,-6.71164,0,0,0,0,0,0,0,-1,1595,386,4.18598,6.71164
378,638,4.59045,-6.97113,0,0,0,0,0,0,0,-1,1602,386,4.5904,6.97112
385,638,0,0,0,0,0,0,0,0,0,-1,1609,386,0,0
392,638,0,0,0,0,0,0,0,0,0,-1,1616,386,0,0
399,638,0,0,0,0,0,0,0,0,0,-1,1623,386,0,0
406,638,0,0,0,0,0,0,0,0,0,-1,1630,386,0,0
413,638,0,0,0,0,0,0,0,0,0,-1,1637,386,0,0
420,638,0,0,0,0,0,0,0,0,0,-1,1644,386,0,0
427,638,0,0,0,0,0,0,0,0,0,-1,1651,386,0,0
434,638,0,0,0,0,0,0,0,0,0,-1,1658,386,0,0
441,638,0,0,0,0,0,0,0,0,0,-1,1665,386,0,0
448,638,0,0,0,0,0,0,0,0,0,-1,1672,386,0,0
455,638,0,0,0,0,0,0,0,0,0,-1,1679,386,0,0
462,638,0,0,0,0,0,0,0,0,0,-1,1686,386,0,0
469,638,0,0,0,0,0,0,0,0,0,-1,1693,386,0,0
476,638,0,0,0,0,0,0,0,0,0,-1,1700,386,0,0
483,638,0,0,0,0,0,0,0,0,0,-1,1707,386,0,0
490,638,0,0,0,0,0,0,0,0,0,-1,1714,386,0,0
497,638,0,0,0,0,0,0,0,0,0,-1,1721,386,0,0
504,638,0,0,0,0,0,0,0,0,0,-1,1728,386,0,0
511,638,0,0,0,0,0,0,0,0,0,-1,1735,386,0,0
518,638,0,0,0,0,0,0,0,0,0,-1,1742,386,0,0
525,638,0,0,0,0,0,0,0,0,0,-1,1749,386,0,0
532,638,0,0,0,0,0,0,0,0,0,-1,1756,386,0,0
539,638,0,0,0,0,0,0,0,0,0,-1,1763,386,0,0
546,638,0,0,0,0,0,0,0,0,0,-1,1770,386,0,0
553,638,0,0,0,0,0,0,0,0,0,-1,1777,386,0,0
560,638,0,0,0,0,0,0,0,0,0,-1,1784,386,0,0
567,638,0,0,0,0,0,0,0,0,0,-1,1791,386,0,0
574,638,0,0,0,0,0,0,0,0,0,-1,1798,386,0,0
581,638,0,0,0,0,0,0,0,0,0,-1,1805,386,0,0
588,638,0,0,0,0,0,0,0,0,0,-1,1812,386,0,0
595,638,0,0,0,0,0,0,0,0,0,-1,1819,386,0,0
602,638,0,0,0,0,0,0,0,0,0,-1,1826,386,0,0
609,638,0,0,0,0,0,0,0,0,0,-1,1833,386,0,0
616,638,0,0,0,0,0,0,0,0,0,-1,1840,386,0,0
623,638,0,0,0,0,0,0,0,0,0,-1,1847,386,0,0
630,638,0,0,0,0,0,0,0,0,0,-1,1854,386,0,0
637,638,0,0,0,0,0,0,0,0,0,-1,1861,386,0,0
644,638,0,0,0,0,0,0,0,0,0,-1,1868,386,0,0
651,638,0,0,0,0,0,0,0,0,0,-1,1875,386,0,0
658,638,0,0,0,0,0,0,0,0,0,-1,1882,386,0,0
665,638,0,0,0,0,0,0,0,0,0,-1,1889,386,0,0
672,638,0,0,0,0,0,0,0,0,0,-1,1896,386,0,0
679,638,0,0,0,0,0,0,0,0,0,-1,1903,386,0,0
686,638,0,0,0,0,0,0,0,0,0,-1,1910,386,0,0
693,638,0,0,0,0,0,0,0,0,0,-1,1917,386,0,0
700,638,0,0,0,0,0,0,0,0,0,-1,1924,386,0,0
707,638,0,0,0,0,0,0,0,0,0,-1,1931,386,0,0
714,638,0,0,0,0,0,0,0,0,0,-1,1938,386,0,0
721,638,0,0,0,0,0,0,0,0,0,-1,1945,386,0,0
728,638,0,0,0,0,0,0,0,0,0,-1,1952,386,0,0
735,638,0,0,0,0,0,0,0,0,0,-1,1959,386,0,0
742,638,0,0,0,0,0,0,0,0,0,-1,1966,386,0,0
749,638,0,0,0,0,0,0,0,0,0,-1,1973,386,0,0
756,638,0,0,0,0,0,0,0,0,0,-1,1980,386,0,0
763,638,0,0,0,0,0,0,0,0,0,-1,1987,386,0,0
770,638,0,0,0,0,0,0,0,0,0,-1,1994,386,0,0
777,638,0,0,0,0,0,0,0,0,0,-1,2001,386,0,0
784,638,0,0,0,0,0,0,0,0,0,-1,2008,386,0,0
791,638,0,0,0,0,0,0,0,0,0,-1,2015,386,0,0
798,638,0,0,0,0,0,0,0,0,0,-1,2022,386,0,0
805,638,0,0,0,0,0,0,0,0,0,-1,2029,386,0,0
812,638,0,0,0,0,0,0,0,0,0,-1,2036,386,0,0
-700,631,0,0,0,0,0,0,0,0,0,-1,524,393,0,0
-693,631,0,0,0,0,0,0,0,0,0,-1,531,393,0,0
-686,631,0,0,0,0,0,0,0,0,0,-1,538,393,0,0
-679,631,0,0,0,0,0,0,0,0,0,-1,545,393,0,0
-672,631,0,0,0,0,0,0,0,0,0,-1,552,393,0,0
-665,631,0,0,0,0,0,0,0,0,0,-1,559,393,0,0
-658,631,0,0,0,0,0,0,0,0,0,-1,566,393,0,0
-651,631,0,0,0,0,0,0,0,0,0,-1,573,393,0,0
-644,631,0,0,0,0,0,0,0,0,0,-1,580,393,0,0
-637,631,0,0,0,0,0,0,0,0,0,-1,587,393,0,0
-630,631,0,0,0,0,0,0,0,0,0,-1,594,393,0,0
-623,631,0,0,0,0,0,0,0,0,0,-1,601,393,0,0
-616,631,0,0,0,0,0,0,0,0,0,-1,608,393,0,0
-609,631,0,0,0,0,0,0,0,0,0,-1,615,393,0,0
-602,631,0,0,0,0,0,0,0,0,0,-1,622,393,0,0
-595,631,0,0,0,0,0,0,0,0,0,-1,629,393,0,0
-588,631,0,0,0,0,0,0,0,0,0,-1,636,393,0,0
-581,631,0,0,0,0,0,0,0,0,0,-1,643,393,0,0
-574,631,0,0,0,0,0,0,0,0,0,-1,650,393,0,0
-567,631,0,0,0,0,0,0,0,0,0,-1,657,393,0,0
-560,631,0,0,0,0,0,0,0,0,0,-1,664,393,0,0
-553,631,0,0,0,0,0,0,0,0,0,-1,671,393,0,0
-546,631,0,0,0,0,0,0,0,0,0,-1,678,393,0,0
-539,631,0,0,0,0,0,0,0,0,0,-1,685,393,0,0
-532,631,0,0,0,0,0,0,0,0,0,-1,692,393,0,0
-525,631,0,0,0,0,0,0,0,0,0,-1,699,393,0,0
-518,631,0,0,0,0,0,0,0,0,0,-1,706,393,0,0
-511,631,0,0,0,0,0,0,0,0,0,-1,713,393,0,0
-504,631,0,0,0,0,0,0,0,0,0,-1,720,393,0,0
-497,631,0,0,0,0,0,0,0,0,0,-1,727,393,0,0
-490,631,0,0,0,0,0,0,0,0,0,-1,734,393,0,0
-483,631,0,0,0,0,0,0,0,0,0,-1,741,393,0,0
-476,631,0,0,0,0,0,0,0,0,0,-1,748,393,0,0
-469,631,0,0,0,0,0,0,0,0,0,-1,755,393,0,0
-462,631,0,0,0,0,0,0,0,0,0,-1,762,393,0,0
-455,631,0,0,0,0,0,0,0,0,0,-1,769,393,0,0
-448,631,0,0,0,0,0,0,0,0,0,-1,776,393,0,0
-441,631,0,0,0,0,0,0,0,0,0,-1,783,393,0,0
-434,631,0,0,0,0,0,0,0,0,0,-1,790,393,0,0
-427,631,0,0,0,0,0,0,0,0,0,-1,797,393,0,0
-420,631,0,0,0,0,0,0,0,0,0,-1,804,393,0,0
-413,631,0,0,0,0,0,0,0,0,0,-1,811,393,0,0
-406,631,0,0,0,0,0,0,0,0,0,-1,818,393,0,0
-399,631,0,0,0,0,0,0,0,0,0,-1,825,393,0,0
-392,631,0,0,0,0,0,0,0,0,0,-1,832,393,0,0
-385,631,0,0,0,0,0,0,0,0,0,-1,839,393,0,0
-378,631,0,0,0,0,0,0,0,0,0,-1,846,393,0,0
-371,631,0,0,0,0,0,0,0,0,0,-1,853,393,0,0
-364,631,0,0,0,0,0,0,0,0,0,-1,860,393,0,0
-357,631,0,0,0,0,0,0,0,0,0,-1,867,393,0,0
-350,631,0,0,0,0,0,0,0,0,0,-1,874,393,0,0
-343,631,0,0,0,0,0,0,0,0,0,-1,881,393,0,0
-336,631,0,0,0,0,0,0,0,0,0,-1,888,393,0,0
-329,631,0,0,0,0,0,0,0,0,0,-1,895,393,0,0
-322,631,0,0,0,0,0,0,0,0,0,-1,902,393,0,0
-315,631,0,0,0,0,0,0,0,0,0,-1,909,393,0,0
-308,631,0,0,0,0,0,0,0,0,0,-1,916,393,0,0
-301,631,0,0,0,0,0,0,0,0,0,-1,923,393,0,0
-294,631,0,0,0,0,0,0,0,0,0,-1,930,393,0,0
-287,631,0,0,0,0,0,0,0,0,0,-1,937,393,0,0
-280,631,1.38763,-14.3453,0,0,0,0,0,0,0,-1,944,393,1.38762,14.3453
-273,631,2.6192,-11.8094,0,0,0,0,0,0,0,-1,951,393,2.61918,11.8094
-266,631,0.616394,-9.4404,0,0,0,0,0,0,0,-1,958,393,0.616411,9.4404
-259,631,2.41724,-11.1745,0,0,0,0,0,0,0,-1,965,393,2.41723,11.1745
-252,631,3.24622,-11.8033,0,0,0,0,0,0,0,-1,972,393,3.24619,11.8033
-245,631,3.36444,-12.3994,0,0,0,0,0,0,0,-1,979,393,3.36445,12.3994
-238,631,4.40826,-11.8533,0,0,0,0,0,0,0,-1,986,393,4.40829,11.8533
-231,631,5.26642,-12.2423,0,0,0,0,0,0,0,-1,993,393,5.26643,12.2423
-224,631,3.33148,-11.726,0,0,0,0,0,0,0,-1,1000,393,3.33146,11.726
-217,631,2.8056,-11.3224,0,0,0,0,0,0,0,-1,1007,393,2.80559,11.3224
-210,631,2.85443,-13.1657,0,0,0,0,0,0,0,-1,1014,393,2.85442,13.1657
-203,631,3.01282,-12.9272,0,0,0,0,0,0,0,-1,1021,393,3.01279,12.9272
-196,631,2.99475,-13.1805,0,0,0,0,0,0,0,-1,1028,393,2.99476,13.1805
-189,631,3.31409,-13.731,-0.0231712,-0.0191389,0.00515684,-0.0156181,-0.026692,0.971747,0.0154849,0.0457391,1035,393,3.31413,13.731
-182,631,2.62451,-14.1816,-0.018971,-0.0188928,0.00438947,-0.0145423,-0.0233215,0.78985,0.013601,0.0412813,1042,393,2.62455,14.1816
-175,631,2.68542,-14.05,-0.0145785,-0.018582,0.00285202,-0.0130959,-0.0200647,0.479407,0.011763,0.0346144,1049,393,2.68545,14.05
-168,631,2.81702,-14.0473,-0.0103612,-0.0176816,0.00160252,-0.0100258,-0.018017,0.206341,0.0104242,0.0185358,1056,393,2.81702,14.0473
-161,631,2.80627,-14.2151,-0.00710414,-0.0160942,0.000495914,-0.00707687,-0.0161215,0.0549401,0.00933084,0.00895465,1063,393,2.80629,14.2151
-154,631,2.8103,-14.3689,-0.00481387,-0.0139779,-0.000610445,-0.00477338,-0.0140184,-0.0662231,0.00822963,0.00885345,1070,393,2.8103,14.3689
-147,631,2.80127,-14.4986,-0.00229673,-0.0120662,-0.00162493,-0.00203355,-0.0123293,-0.16057,0.00763255,0.00986346,1077,393,2.80131,14.4986
-140,631,2.77344,-14.6573,-0.000478595,-0.00990418,-0.00279935,0.000290104,-0.0106729,-0.267994,0.0072139,0.00899451,1084,393,2.77339,14.6573
-133,631,2.74792,-14.8123,0.000231934,-0.00793239,-0.00340133,0.00146325,-0.00916371,-0.347335,0.00665076,0.00813822,1091,393,2.74787,14.8123
-126,631,2.76111,-14.9228,0.000667157,-0.00583399,-0.00376938,0.00239398,-0.00756081,-0.429584,0.0059999,0.012351,1098,393,2.76109,14.9228
-119,631,2.7666,-15.0379,0.000745004,-0.00414213,-0.00391688,0.00291803,-0.00631516,-0.50651,0.00544973,0.0153944,1105,393,2.76658,15.0379
-112,631,2.72559,-15.1724,0.000767328,-0.00241967,-0.00405791,0.0035334,-0.00518574,-0.598304,0.00506404,0.0142019,1112,393,2.72562,15.1724
-105,631,2.71851,-15.2975,0.000856861,-0.00138407,-0.00367379,0.00357725,-0.00410446,-0.637385,0.00443852,0.0177999,1119,393,2.71849,15.2976
-98,631,2.72449,-15.4072,0.000702101,-0.000589795,-0.00308256,0.00320566,-0.00309336,-0.682118,0.00363693,0.0149616,1126,393,2.72447,15.4072
-91,631,2.69421,-15.5171,0.000701627,0.000194937,-0.00258273,0.00304341,-0.00214684,-0.736509,0.00301146,0.0173125,1133,393,2.69423,15.517
-84,631,2.67834,-15.6203,0.000710457,0.000963684,-0.0022249,0.00306557,-0.00139143,-0.813821,0.00263306,0.0164506,1140,393,2.6784,15.6203
-77,631,2.6958,-15.7065,0.000679726,0.00108267,-0.0017403,0.00263312,-0.000870725,-0.843026,0.00210652,0.0103873,1147,393,2.6958,15.7065
-70,631,2.70984,-15.817,0.000413621,0.00133471,-0.000914778,0.00189833,-0.000150002,-1.0186,0.0013184,0.0105098,1154,393,2.70983,15.817
-63,631,2.69885,-15.9108,-7.97932e-05,0.00148859,-0.000590234,0.00168589,-0.000277097,-1.24819,0.00122677,0.0108267,1161,393,2.69888,15.9108
-56,631,2.68079,-15.9959,-7.49101e-05,0.00130539,-0.000494586,0.00146431,-0.000233832,-1.25989,0.00106276,0.0124333,1168,393,2.68075,15.9959
-49,631,2.67236,-16.0645,0.000132731,0.000968119,-0.000353283,0.00109749,3.36277e-06,-1.21977,0.00073054,0.0105127,1175,393,2.6724,16.0645
-42,631,2.66956,-16.1212,0.000436172,0.000431943,-0.000136427,0.000570501,0.000297614,-0.77765,0.000329482,0.00834309,1182,393,2.66951,16.1212
-35,631,2.67505,-16.1902,0.000729594,0.000106807,-0.000162437,0.000769415,6.6986e-05,-0.240407,0.000492136,0.00948688,1189,393,2.6751,16.1902
-28,631,2.66772,-16.248,0.000921094,-0.000280442,-0.000276906,0.000981839,-0.000341186,-0.215949,0.000793139,0.0125537,1196,393,2.66778,16.248
-21,631,2.64246,-16.3173,0.00110455,-0.000590256,-0.000484888,0.00123347,-0.000719177,-0.259866,0.00114032,0.0118663,1203,393,2.64244,16.3173
-14,631,2.63843,-16.374,0.00134793,-0.000919506,-0.000747092,0.00157195,-0.00114353,-0.291329,0.00157428,0.0143622,1210,393,2.63837,16.374
-7,631,2.65906,-16.4596,0.00151288,-0.00107693,-0.00119669,0.00198117,-0.00154522,-0.372999,0.00204114,0.0213773,1217,393,2.65907,16.4596
0,631,2.7002,-16.5106,0.0015002,-0.00112966,-0.00162195,0.00227327,-0.00190273,-0.444779,0.00241418,0.0226255,1224,393,2.70017,16.5105
7,631,2.67114,-16.4942,0.00140704,-0.00113411,-0.00193097,0.00244796,-0.00217503,-0.49441,0.00267063,0.0187704,1231,393,2.6712,16.4942
14,631,2.6582,-16.5067,0.00136273,-0.0011262,-0.0020294,0.00249885,-0.00226232,-0.510357,0.00274999,0.0106247,1238,393,2.6582,16.5067
21,631,2.6925,-16.5273,0.0012986,-0.00110089,-0.00201681,0.00244553,-0.00224782,-0.517077,0.00271051,0.0119265,1245,393,2.69245,16.5273
28,631,2.703,-16.5287,0.0011242,-0.000969393,-0.00179627,0.00215643,-0.00200163,-0.521574,0.00240121,0.0131026,1252,393,2.70295,16.5287
35,631,2.70923,-16.5384,0.000905101,-0.000806127,-0.00146955,0.00174998,-0.001651,-0.521774,0.00196383,0.0132043,1259,393,2.70918,16.5384
42,631,2.70679,-16.5596,0.000725695,-0.000628648,-0.00102536,0.00127732,-0.00118027,-0.493565,0.00141926,0.0117789,1266,393,2.70677,16.5596
49,631,2.72095,-16.5497,0.000456948,-0.000413006,-0.000487401,0.000675243,-0.000631302,-0.421086,0.000754476,0.0103056,1273,393,2.72095,16.5497
56,631,2.73486,-16.5417,0.000230511,-0.000190789,1.94845e-05,0.00023141,-0.000191688,0.0461174,0.000244635,0.0119567,1280,393,2.73486,16.5417
63,631,2.74683,-16.5643,-9.69881e-05,-9.80031e-06,0.000473731,0.000422338,-0.000529127,0.83128,0.000550481,0.0137543,1287,393,2.74678,16.5643
70,631,2.73865,-16.5448,-0.000318585,2.5212e-05,0.00087402,0.000744077,-0.00103745,0.882497,0.0010332,0.0138816,1294,393,2.73865,16.5448
77,631,2.73584,-16.5094,-0.000295632,0.000208628,0.00104627,0.00103272,-0.00111973,0.903633,0.00124306,0.0142756,1301,393,2.73584,16.5094
84,631,2.75476,-16.4819,-0.000348684,0.000329556,0.00100832,0.00105426,-0.00107339,0.947616,0.00122841,0.0120174,1308,393,2.75473,16.4819
91,631,2.76685,-16.4393,-0.00057492,0.000306342,0.000798957,0.000778118,-0.0010467,1.0374,0.00105735,0.013862,1315,393,2.76681,16.4393
98,631,2.76929,-16.4033,-0.000764963,0.000201545,0.000630215,0.000512461,-0.00107588,1.11248,0.000936062,0.0119812,1322,393,2.76923,16.4033
105,631,2.76208,-16.3817,-0.000775733,2.71665e-05,0.000382976,0.000180543,-0.00092911,1.18987,0.000687535,0.0103204,1329,393,2.76203,16.3817
112,631,2.76758,-16.3419,-0.000714396,-0.000175664,8.12215e-05,-0.000163685,-0.000726375,1.42437,0.000439958,0.0104147,1336,393,2.76758,16.3419
119,631,2.76343,-16.2823,-0.00069765,-0.000331637,-0.000235799,-0.00021616,-0.000813127,-1.1154,0.000486317,0.0121802,1343,393,2.76341,16.2823
126,631,2.76074,-16.204,-0.000609147,-0.00046267,-0.000440489,-8.93729e-05,-0.000982445,-0.867778,0.000627298,0.0168615,1350,393,2.76071,16.204
133,631,2.77844,-16.1435,-0.000413725,-0.00065913,-0.000591942,6.80983e-05,-0.00114095,-0.683201,0.000784321,0.0165049,1357,393,2.77845,16.1435
140,631,2.77661,-16.0977,-0.000223124,-0.00079173,-0.000585137,0.000143122,-0.00115798,-0.559257,0.000823846,0.0176803,1364,393,2.77656,16.0977
147,631,2.75708,-16.0234,-0.000108227,-0.000862233,-0.000491606,0.000134292,-0.00110475,-0.458289,0.000785103,0.0212802,1371,393,2.75711,16.0234
154,631,2.77222,-15.9413,6.60199e-05,-0.000908935,-0.000404457,0.000211962,-0.00105488,-0.346293,0.000783521,0.0207525,1378,393,2.77224,15.9413
161,631,2.8114,-15.8096,0.000180583,-0.000825217,-0.000294936,0.000260689,-0.000905323,-0.265206,0.000706659,0.0228127,1385,393,2.81145,15.8096
168,631,2.82886,-15.6731,0.000171244,-0.000618357,-0.000133718,0.000193274,-0.000640387,-0.163285,0.000503861,0.0273052,1392,393,2.82888,15.6731
175,631,2.84131,-15.634,5.1193e-05,-0.000316323,1.13172e-05,5.15411e-05,-0.000316671,0.030755,0.000230225,0.0212544,1399,393,2.84134,15.634
182,631,2.79175,-15.5517,-6.46193e-05,-3.98573e-05,0.000110836,5.92875e-05,-0.000163764,0.84102,0.000133405,0.0117665,1406,393,2.79178,15.5517
189,631,2.78613,-15.4557,-0.000119218,0.000279392,0.000307896,0.00044686,-0.000286686,1.07264,0.000426865,0.0113505,1413,393,2.78611,15.4557
196,631,2.7782,-15.3382,-0.000202778,0.000564993,0.000488146,0.000802119,-0.000439904,1.1186,0.000727176,0.011167,1420,393,2.77823,15.3382
203,631,2.78564,-15.2168,-0.000425313,0.00061266,0.000512773,0.000823251,-0.000635905,1.18111,0.000844755,0.0120159,1427,393,2.78566,15.2168
210,631,2.79272,-15.1131,-0.000727145,0.00080224,0.00058204,0.00099855,-0.000923454,1.2455,0.00110995,0.0139993,1434,393,2.79272,15.1131
217,631,2.77234,-15.0138,-0.000869364,0.00103795,0.00054601,0.00118319,-0.00101461,1.3108,0.00127015,0.0154031,1441,393,2.77231,15.0138
224,631,2.7301,-14.8742,-0.00082856,0.0011339,0.000571599,0.00128825,-0.000982908,1.30706,0.0013152,0.0127843,1448,393,2.73012,14.8742
231,631,2.69958,-14.7027,-0.000661326,0.00126428,0.000715453,0.001501,-0.000898049,1.25126,0.0013996,0.0116461,1455,393,2.69961,14.7027
238,631,2.69788,-14.5569,-0.000332761,0.00161242,0.00100404,0.00203769,-0.000758038,1.17014,0.00166953,0.0168322,1462,393,2.69789,14.5569
245,631,2.71692,-14.41,-9.91484e-06,0.00188138,0.00116113,0.00243322,-0.000561757,1.12713,0.00183824,0.0174523,1469,393,2.71691,14.41
252,631,2.71069,-14.2443,0.000503808,0.00226571,0.00138214,0.00302378,-0.00025426,1.06913,0.00210573,0.0162704,1476,393,2.71068,14.2443
259,631,2.70056,-14.1001,0.00110189,0.00273123,0.00175191,0.00384862,-1.55082e-05,1.00303,0.00257093,0.0122109,1483,393,2.70059,14.1001
266,631,2.70496,-13.9436,0.00193901,0.00306836,0.00238305,0.00495272,5.46391e-05,0.90173,0.00328375,0.0112071,1490,393,2.70492,13.9436
273,631,2.68201,-13.7759,0.00305705,0.00346405,0.00338426,0.00665093,-0.000129823,0.815428,0.00447785,0.0129603,1497,393,2.68198,13.7759
280,631,2.65613,-13.6254,0.00430387,0.00375239,0.00438912,0.0084259,-0.000369641,0.754028,0.00574444,0.0120751,1504,393,2.65607,13.6254
287,631,2.67175,-13.4119,0.00562925,0.00345996,0.00579583,0.0104411,-0.00135185,0.692897,0.0074523,0.0143716,1511,393,2.67169,13.4119
294,631,2.6532,-13.1676,0.0069884,0.00336967,0.00722926,0.0126313,-0.00227322,0.662775,0.00927195,0.0185359,1518,393,2.6532,13.1676
301,631,2.65942,-12.9556,0.00864733,0.00320274,0.00899878,0.0153266,-0.0034765,0.638516,0.0115523,0.0259302,1525,393,2.65942,12.9556
308,631,2.81409,-12.7919,0.0104471,0.00285151,0.0110434,0.0183275,-0.00502882,0.619783,0.0141947,0.0305311,1532,393,2.81403,12.7919
315,631,2.83972,-12.7024,0.0120253,0.00165026,0.0129653,0.0208024,-0.00712684,0.5951,0.0167569,0.03524,1539,393,2.83972,12.7024
322,631,2.88733,-12.5166,0.0134325,0.000249967,0.0151549,0.0233674,-0.00968496,0.580274,0.0196203,0.040196,1546,393,2.88735,12.5166
329,631,2.87122,-12.2144,0,0,0,0,0,0,0,-1,1553,393,2.8712,12.2144
336,631,3.74487,-12.7869,0,0,0,0,0,0,0,-1,1560,393,3.74483,12.7869
343,631,2.45703,-11.5554,0,0,0,0,0,0,0,-1,1567,393,2.45703,11.5554
350,631,2.1344,-9.23401,0,0,0,0,0,0,0,-1,1574,393,2.13439,9.23401
357,631,2.6449,-9.60303,0,0,0,0,0,0,0,-1,1581,393,2.64491,9.60304
364,631,3.39136,-5.7594,0,0,0,0,0,0,0,-1,1588,393,3.39137,5.75939
371,631,3.72839,-6.0574,0,0,0,0,0,0,0,-1,1595,393,3.72845,6.05742
378,631,4.06555,-6.35544,0,0,0,0,0,0,0,-1,1602,393,4.06553,6.35544
385,631,3.90442,-3.58298,0,0,0,0,0,0,0,-1,1609,393,3.90437,3.58299
392,631,0.352295,-2.21301,0,0,0,0,0,0,0,-1,1616,393,0.352345,2.213
399,631,0,0,0,0,0,0,0,0,0,-1,1623,393,0,0
406,631,0,0,0,0,0,0,0,0,0,-1,1630,393,0,0
413,631,0,0,0,0,0,0,0,0,0,-1,1637,393,0,0
420,631,0,0,0,0,0,0,0,0,0,-1,1644,393,0,0
427,631,0,0,0,0,0,0,0,0,0,-1,1651,393,0,0
434,631,0,0,0,0,0,0,0,0,0,-1,1658,393,0,0
441,631,0,0,0,0,0,0,0,0,0,-1,1665,393,0,0
448,631,0,0,0,0,0,0,0,0,0,-1,1672,393,0,0
455,631,0,0,0,0,0,0,0,0,0,-1,1679,393,0,0
462,631,0,0,0,0,0,0,0,0,0,-1,1686,393,0,0
469,631,0,0,0,0,0,0,0,0,0,-1,1693,393,0,0
476,631,0,0,0,0,0,0,0,0,0,-1,1700,393,0,0
483,631,0,0,0,0,0,0,0,0,0,-1,1707,393,0,0
490,631,0,0,0,0,0,0,0,0,0,-1,1714,393,0,0
497,631,0,0,0,0,0,0,0,0,0,-1,1721,393,0,0
504,631,0,0,0,0,0,0,0,0,0,-1,1728,393,0,0
511,631,0,0,0,0,0,0,0,0,0,-1,1735,393,0,0
518,631,0,0,0,0,0,0,0,0,0,-1,1742,393,0,0
525,631,0,0,0,0,0,0,0,0,0,-1,1749,393,0,0
532,631,0,0,0,0,0,0,0,0,0,-1,1756,393,0,0
539,631,0,0,0,0,0,0,0,0,0,-1,1763,393,0,0
546,631,0,0,0,0,0,0,0,0,0,-1,1770,393,0,0
553,631,0,0,0,0,0,0,0,0,0,-1,1777,393,0,0
560,631,0,0,0,0,0,0,0,0,0,-1,1784,393,0,0
567,631,0,0,0,0,0,0,0,0,0,-1,1791,393,0,0
574,631,0,0,0,0,0,0,0,0,0,-1,1798,393,0,0
581,631,0,0,0,0,0,0,0,0,0,-1,1805,393,0,0
588,631,0,0,0,0,0,0,0,0,0,-1,1812,393,0,0
595,631,0,0,0,0,0,0,0,0,0,-1,1819,393,0,0
602,631,0,0,0,0,0,0,0,0,0,-1,1826,393,0,0
609,631,0,0,0,0,0,0,0,0,0,-1,1833,393,0,0
616,631,0,0,0,0,0,0,0,0,0,-1,1840,393,0,0
623,631,0,0,0,0,0,0,0,0,0,-1,1847,393,0,0
630,631,0,0,0,0,0,0,0,0,0,-1,1854,393,0,0
637,631,0,0,0,0,0,0,0,0,0,-1,1861,393,0,0
644,631,0,0,0,0,0,0,0,0,0,-1,1868,393,0,0
651,631,0,0,0,0,0,0,0,0,0,-1,1875,393,0,0
658,631,0,0,0,0,0,0,0,0,0,-1,1882,393,0,0
665,631,0,0,0,0,0,0,0,0,0,-1,1889,393,0,0
672,631,0,0,0,0,0,0,0,0,0,-1,1896,393,0,0
679,631,0,0,0,0,0,0,0,0,0,-1,1903,393,0,0
686,631,0,0,0,0,0,0,0,0,0,-1,1910,393,0,0
693,631,0,0,0,0,0,0,0,0,0,-1,1917,393,0,0
700,631,0,0,0,0,0,0,0,0,0,-1,1924,393,0,0
707,631,0,0,0,0,0,0,0,0,0,-1,1931,393,0,0
714,631,0,0,0,0,0,0,0,0,0,-1,1938,393,0,0
721,631,0,0,0,0,0,0,0,0,0,-1,1945,393,0,0
728,631,0,0,0,0,0,0,0,0,0,-1,1952,393,0,0
735,631,0,0,0,0,0,0,0,0,0,-1,1959,393,0,0
742,631,0,0,0,0,0,0,0,0,0,-1,1966,393,0,0
749,631,0,0,0,0,0,0,0,0,0,-1,1973,393,0,0
756,631,0,0,0,0,0,0,0,0,0,-1,1980,393,0,0
763,631,0,0,0,0,0,0,0,0,0,-1,1987,393,0,0
770,631,0,0,0,0,0,0,0,0,0,-1,1994,393,0,0
777,631,0,0,0,0,0,0,0,0,0,-1,2001,393,0,0
784,631,0,0,0,0,0,0,0,0,0,-1,2008,393,0,0
791,631,0,0,0,0,0,0,0,0,0,-1,2015,393,0,0
798,631,0,0,0,0,0,0,0,0,0,-1,2022,393,0,0
805,631,0,0,0,0,0,0,0,0,0,-1,2029,393,0,0
812,631,0,0,0,0,0,0,0,0,0,-1,2036,393,0,0
-700,624,0,0,0,0,0,0,0,0,0,-1,524,400,0,0
-693,624,0,0,0,0,0,0,0,0,0,-1,531,400,0,0
-686,624,0,0,0,0,0,0,0,0,0,-1,538,400,0,0
-679,624,0,0,0,0,0,0,0,0,0,-1,545,400,0,0
-672,624,0,0,0,0,0,0,0,0,0,-1,552,400,0,0
-665,624,0,0,0,0,0,0,0,0,0,-1,559,400,0,0
-658,624,0,0,0,0,0,0,0,0,0,-1,566,400,0,0
-651,624,0,0,0,0,0,0,0,0,0,-1,573,400,0,0
-644,624,0,0,0,0,0,0,0,0,0,-1,580,400,0,0
-637,624,0,0,0,0,0,0,0,0,0,-1,587,400,0,0
-630,624,0,0,0,0,0,0,0,0,0,-1,594,400,0,0
-623,624,0,0,0,0,0,0,0,0,0,-1,601,400,0,0
-616,624,0,0,0,0,0,0,0,0,0,-1,608,400,0,0
-609,624,0,0,0,0,0,0,0,0,0,-1,615,400,0,0
-602,624,0,0,0,0,0,0,0,0,0,-1,622,400,0,0
-595,624,0,0,0,0,0,0,0,0,0,-1,629,400,0,0
-588,624,0,0,0,0,0,0,0,0,0,-1,636,400,0,0
-581,624,0,0,0,0,0,0,0,0,0,-1,643,400,0,0
-574,624,0,0,0,0,0,0,0,0,0,-1,650,400,0,0
-567,624,0,0,0,0,0,0,0,0,0,-1,657,400,0,0
-560,624,0,0,0,0,0,0,0,0,0,-1,664,400,0,0
-553,624,0,0,0,0,0,0,0,0,0,-1,671,400,0,0
-546,624,0,0,0,0,0,0,0,0,0,-1,678,400,0,0
-539,624,0,0,0,0,0,0,0,0,0,-1,685,400,0,0
-532,624,0,0,0,0,0,0,0,0,0,-1,692,400,0,0
-525,624,0,0,0,0,0,0,0,0,0,-1,699,400,0,0
-518,624,0,0,0,0,0,0,0,0,0,-1,706,400,0,0
-511,624,0,0,0,0,0,0,0,0,0,-1,713,400,0,0
-504,624,0,0,0,0,0,0,0,0,0,-1,720,400,0,0
-497,624,0,0,0,0,0,0,0,0,0,-1,727,400,0,0
-490,624,0,0,0,0,0,0,0,0,0,-1,734,400,0,0
-483,624,0,0,0,0,0,0,0,0,0,-1,741,400,0,0
-476,624,0,0,0,0,0,0,0,0,0,-1,748,400,0,0
-469,624,0,0,0,0,0,0,0,0,0,-1,755,400,0,0
-462,624,0,0,0,0,0,0,0,0,0,-1,762,400,0,0
-455,624,0,0,0,0,0,0,0,0,0,-1,769,400,0,0
-448,624,0,0,0,0,0,0,0,0,0,-1,776,400,0,0
-441,624,0,0,0,0,0,0,0,0,0,-1,783,400,0,0
-434,624,0,0,0,0,0,0,0,0,0,-1,790,400,0,0
-427,624,0,0,0,0,0,0,0,0,0,-1,797,400,0,0
-420,624,0,0,0,0,0,0,0,0,0,-1,804,400,0,0
-413,624,0,0,0,0,0,0,0,0,0,-1,811,400,0,0
-406,624,0,0,0,0,0,0,0,0,0,-1,818,400,0,0
-399,624,0,0,0,0,0,0,0,0,0,-1,825,400,0,0
-392,624,0,0,0,0,0,0,0,0,0,-1,832,400,0,0
-385,624,0,0,0,0,0,0,0,0,0,-1,839,400,0,0
-378,624,0,0,0,0,0,0,0,0,0,-1,846,400,0,0
-371,624,0,0,0,0,0,0,0,0,0,-1,853,400,0,0
-364,624,0,0,0,0,0,0,0,0,0,-1,860,400,0,0
-357,624,0,0,0,0,0,0,0,0,0,-1,867,400,0,0
-350,624,0,0,0,0,0,0,0,0,0,-1,874,400,0,0
-343,624,0,0,0,0,0,0,0,0,0,-1,881,400,0,0
-336,624,0,0,0,0,0,0,0,0,0,-1,888,400,0,0
-329,624,0,0,0,0,0,0,0,0,0,-1,895,400,0,0
-322,624,0,0,0,0,0,0,0,0,0,-1,902,400,0,0
-315,624,0,0,0,0,0,0,0,0,0,-1,909,400,0,0
-308,624,0,0,0,0,0,0,0,0,0,-1,916,400,0,0
-301,624,0,0,0,0,0,0,0,0,0,-1,923,400,0,0
-294,624,-0.912903,-12.9461,0,0,0,0,0,0,0,-1,930,400,-0.912926,12.9461
-287,624,0.12146,-15.0862,0,0,0,0,0,0,0,-1,937,400,0.121451,15.0862
-280,624,1.44836,-13.0475,0,0,0,0,0,0,0,-1,944,400,1.44835,13.0475
-273,624,2.56573,-11.0646,0,0,0,0,0,0,0,-1,951,400,2.56571,11.0646
-266,624,2.44116,-9.66605,0,0,0,0,0,0,0,-1,958,400,2.44115,9.66605
-259,624,2.53748,-10.3835,0,0,0,0,0,0,0,-1,965,400,2.5375,10.3835
-252,624,2.85516,-11.4686,0,0,0,0,0,0,0,-1,972,400,2.85519,11.4686
-245,624,2.875,-12.2827,0,0,0,0,0,0,0,-1,979,400,2.87502,12.2827
-238,624,3.92938,-11.5721,0,0,0,0,0,0,0,-1,986,400,3.92938,11.5721
-231,624,2.88263,-12.1493,0,0,0,0,0,0,0,-1,993,400,2.88264,12.1493
-224,624,2.70703,-12.1913,0,0,0,0,0,0,0,-1,1000,400,2.70701,12.1913
-217,624,2.66937,-12.3809,0,0,0,0,0,0,0,-1,1007,400,2.66934,12.3809
-210,624,2.71533,-13.1208,-0.0228389,-0.00853395,0.0028896,-0.0079723,-0.0234006,1.37882,0.013737,0.044802,1014,400,2.71534,13.1208
-203,624,2.79944,-13.0781,-0.0208573,-0.0101931,0.00303947,-0.00938761,-0.0216628,1.31175,0.012544,0.037435,1021,400,2.79945,13.0781
-196,624,2.79639,-13.272,-0.0186811,-0.0114906,0.00309598,-0.0103413,-0.0198305,1.21534,0.0114526,0.0347417,1028,400,2.79639,13.272
-189,624,2.77417,-13.4683,-0.0166057,-0.0128142,0.00331901,-0.0108877,-0.0185322,1.04488,0.0107541,0.0327502,1035,400,2.7742,13.4683
-182,624,2.61365,-13.7406,-0.0138148,-0.0128756,0.00279248,-0.0105135,-0.0161769,0.868708,0.00947862,0.0266184,1042,400,2.61364,13.7406
-175,624,2.70886,-13.8911,-0.0107193,-0.0128625,0.00179206,-0.00970285,-0.0138789,0.51593,0.00822204,0.0182916,1049,400,2.70883,13.8911
-168,624,2.7196,-14.0422,-0.00774618,-0.0123831,0.000977889,-0.00754839,-0.0125809,0.199573,0.00731182,0.011906,1056,400,2.71966,14.0422
-161,624,2.68237,-14.2191,-0.0053919,-0.0113521,0.000242828,-0.00538202,-0.011362,0.0406519,0.00656286,0.00991058,1063,400,2.68233,14.2192
-154,624,2.67529,-14.3649,-0.00367738,-0.00987685,-0.00054064,-0.00363059,-0.00992365,-0.086339,0.00579775,0.0100325,1070,400,2.6753,14.3649
-147,624,2.66211,-14.5125,-0.00174145,-0.00852116,-0.00128293,-0.0015068,-0.00875581,-0.180901,0.0054054,0.0110337,1077,400,2.66216,14.5125
-140,624,2.63892,-14.665,-0.000306563,-0.0069713,-0.00213597,0.00031923,-0.00759709,-0.285002,0.00517442,0.00956611,1084,400,2.63891,14.665
-133,624,2.62561,-14.7976,0.000335989,-0.00551901,-0.0025865,0.00131493,-0.00649794,-0.361817,0.0048303,0.0107205,1091,400,2.62562,14.7976
-126,624,2.64148,-14.9041,0.000726797,-0.0039232,-0.00285445,0.0020833,-0.00527971,-0.443632,0.00438253,0.0127473,1098,400,2.64153,14.9041
-119,624,2.62537,-15.0428,0.000816783,-0.00261667,-0.00298451,0.00254308,-0.00434297,-0.524401,0.00402068,0.0147255,1105,400,2.62539,15.0428
-112,624,2.62024,-15.1588,0.000882167,-0.00134145,-0.00307746,0.00304249,-0.00350178,-0.612056,0.00378144,0.0164468,1112,400,2.62022,15.1589
-105,624,2.60791,-15.276,0.00099923,-0.000527248,-0.00279009,0.00312859,-0.00265661,-0.651888,0.00334379,0.0119525,1119,400,2.60789,15.276
-98,624,2.59094,-15.4167,0.000956985,0.000130359,-0.002367,0.00294649,-0.00185915,-0.698962,0.00279811,0.0131123,1126,400,2.59089,15.4167
-91,624,2.5918,-15.5309,0.00100755,0.000758215,-0.00200625,0.002893,-0.00112723,-0.754368,0.00239455,0.0192419,1133,400,2.59177,15.5308
-84,624,2.59802,-15.6362,0.00103681,0.00125167,-0.0016811,0.00282877,-0.00054029,-0.817306,0.00208936,0.0175804,1140,400,2.59799,15.6362
-77,624,2.59668,-15.7168,0.00102001,0.0013194,-0.00129454,0.00247287,-0.000133463,-0.842959,0.00169482,0.0127243,1147,400,2.59663,15.7168
-70,624,2.59106,-15.8076,0.000962847,0.00131308,-0.000761824,0.00191965,0.000356272,-0.898368,0.00117909,0.0130371,1154,400,2.59111,15.8076
-63,624,2.59399,-15.9088,0.000753559,0.00111364,-0.000462403,0.00142982,0.000437385,-0.97105,0.000845986,0.013492,1161,400,2.59394,15.9088
-56,624,2.59888,-15.9955,0.000742485,0.000809988,-0.000320435,0.00109844,0.000454029,-0.83787,0.000637354,0.0113978,1168,400,2.59891,15.9955
-49,624,2.61157,-16.0566,0.000819559,0.000416181,-0.000106021,0.000845727,0.000390012,-0.241985,0.000488772,0.00993963,1175,400,2.61159,16.0566
-42,624,2.61658,-16.1044,0.00116336,-0.0002414,7.6158e-05,0.00116747,-0.000245517,0.0540034,0.000871756,0.00918232,1182,400,2.61655,16.1044
-35,624,2.61646,-16.1631,0.00141204,-0.000673287,-9.58889e-05,0.00141644,-0.000677686,-0.0458536,0.00123387,0.0135194,1189,400,2.61642,16.1631
-28,624,2.604,-16.2549,0.00146316,-0.00119113,-0.00034492,0.00150725,-0.00123522,-0.127136,0.00158596,0.0180453,1196,400,2.60404,16.2549
-21,624,2.60498,-16.3167,0.00158915,-0.00153471,-0.000669618,0.00172664,-0.00167219,-0.202505,0.0019624,0.0141396,1203,400,2.60492,16.3167
-14,624,2.60803,-16.3541,0.00173071,-0.0018022,-0.00104758,0.00201799,-0.00208947,-0.267644,0.00237156,0.0157407,1210,400,2.60807,16.3541
-7,624,2.60498,-16.3917,0.00175564,-0.00183134,-0.00167139,0.00241372,-0.00248941,-0.375087,0.00283093,0.0200651,1217,400,2.60493,16.3917
0,624,2.64404,-16.4465,0.00157952,-0.00177651,-0.00225011,0.00270841,-0.00290541,-0.465011,0.0032418,0.0197891,1224,400,2.64405,16.4465
7,624,2.64832,-16.472,0.00135266,-0.0016717,-0.00266897,0.00290807,-0.00322711,-0.527657,0.00354374,0.0140403,1231,400,2.64836,16.4721
14,624,2.65833,-16.5301,0.00131213,-0.00152344,-0.00276589,0.00300244,-0.00321375,-0.548561,0.00358961,0.0113601,1238,400,2.65829,16.5301
21,624,2.66431,-16.5304,0.001263,-0.00138408,-0.00265261,0.00290393,-0.00302502,-0.553991,0.00342332,0.0117139,1245,400,2.66435,16.5304
28,624,2.65515,-16.5293,0.00105541,-0.00108152,-0.00224923,0.00247705,-0.00250317,-0.563659,0.00287535,0.0110306,1252,400,2.65517,16.5293
35,624,2.66199,-16.5377,0.000851072,-0.000716545,-0.00169692,0.00193646,-0.00180194,-0.569045,0.00215883,0.014611,1259,400,2.66196,16.5377
42,624,2.71118,-16.5569,0.00081846,-0.000335573,-0.00100922,0.00140398,-0.000921089,-0.525707,0.00135199,0.0167517,1266,400,2.7112,16.5569
49,624,2.72644,-16.549,0.000691468,6.16014e-05,-0.000184739,0.000741653,1.14161e-05,-0.265254,0.000490675,0.0179376,1273,400,2.72645,16.549
56,624,2.724,-16.5631,0.000540162,0.000388845,0.000588116,0.00105747,-0.000128459,0.721427,0.000751466,0.0178945,1280,400,2.72404,16.5631
63,624,2.76953,-16.549,0.000269975,0.000689127,0.00128187,0.00177844,-0.000819341,0.866427,0.00153353,0.0136091,1287,400,2.76954,16.549
70,624,2.76563,-16.5329,0.000191243,0.00082238,0.00194398,0.00247624,-0.00146261,0.865862,0.00229906,0.0119782,1294,400,2.76562,16.5329
77,624,2.74609,-16.5151,0.000363307,0.00108723,0.00223499,0.00298938,-0.00153884,0.865678,0.00265871,0.012664,1301,400,2.74614,16.5151
84,624,2.75793,-16.5034,0.000383913,0.00121958,0.0022015,0.00304255,-0.00143906,0.87918,0.00264209,0.0115494,1308,400,2.75796,16.5034
91,624,2.78772,-16.4551,0.000225691,0.0011316,0.00193278,0.00266379,-0.0013065,0.900498,0.00233647,0.0119716,1315,400,2.78773,16.4551
98,624,2.80432,-16.4198,6.39843e-05,0.000957622,0.0016764,0.00224573,-0.00122412,0.915638,0.00203206,0.0123398,1322,400,2.80438,16.4198
105,624,2.7959,-16.3994,3.26627e-05,0.000690425,0.00129334,0.00169604,-0.000972957,0.909903,0.00155969,0.0139042,1329,400,2.7959,16.3995
112,624,2.80762,-16.3399,1.6203e-06,0.000283646,0.000776389,0.000931724,-0.000646458,0.875232,0.000916112,0.0139979,1336,400,2.80766,16.3399
119,624,2.82727,-16.2938,-0.000169754,-0.000115264,0.00019353,5.29297e-05,-0.000337948,0.855328,0.000244856,0.0146569,1343,400,2.82727,16.2938
126,624,2.83582,-16.1957,-0.000208542,-0.00049362,-0.000302577,-1.66115e-05,-0.000685551,-0.565275,0.000451598,0.0183631,1350,400,2.83581,16.1957
133,624,2.86316,-16.1307,-4.51958e-05,-0.000994313,-0.000715479,0.0003388,-0.00137831,-0.492573,0.00105018,0.017919,1357,400,2.8632,16.1307
140,624,2.85803,-16.0844,9.16615e-05,-0.00140622,-0.000908464,0.000520099,-0.00183466,-0.440676,0.00142839,0.0168459,1364,400,2.85804,16.0844
147,624,2.79858,-16.0203,0.00014247,-0.00170897,-0.000946101,0.000540405,-0.00210691,-0.398143,0.00161516,0.0209711,1371,400,2.79856,16.0202
154,624,2.86658,-15.9458,0.000320879,-0.00191841,-0.000957569,0.000674511,-0.00227204,-0.353766,0.00178259,0.023761,1378,400,2.86654,15.9458
161,624,2.91846,-15.8439,0.000472867,-0.00186096,-0.000889984,0.000773522,-0.00216162,-0.325784,0.00175664,0.0220147,1385,400,2.91844,15.8439
168,624,2.94641,-15.7455,0.000489774,-0.00162452,-0.000721963,0.00071278,-0.00184752,-0.299591,0.00152582,0.0210926,1392,400,2.9464,15.7454
175,624,2.91492,-15.6662,0.000344924,-0.00132852,-0.00063825,0.000560564,-0.00154416,-0.325821,0.00125862,0.0163925,1399,400,2.91497,15.6662
182,624,2.88281,-15.5615,0.00016046,-0.00107408,-0.000494,0.000333796,-0.00124742,-0.337462,0.000962369,0.0106252,1406,400,2.88281,15.5615
189,624,2.89136,-15.4507,0.000106311,-0.000734451,-0.000338862,0.000225882,-0.000854021,-0.33922,0.000657701,0.0109571,1413,400,2.89134,15.4507
196,624,2.87659,-15.3443,0.000146092,-0.000306858,-0.000182541,0.000210499,-0.000371264,-0.339197,0.000340129,0.0111126,1420,400,2.87664,15.3443
203,624,2.89233,-15.2322,7.16066e-05,8.61104e-06,-0.000133972,0.000177734,-9.75164e-05,-0.669942,0.00016115,0.0126893,1427,400,2.89231,15.2322
210,624,2.90161,-15.1237,-0.000183344,0.000362864,-6.65869e-05,0.000370864,-0.000191344,-1.45122,0.000330061,0.0164203,1434,400,2.90157,15.1237
217,624,2.86462,-14.985,-0.000373864,0.000721996,-2.80249e-05,0.000722712,-0.00037458,-1.54525,0.000644063,0.0186155,1441,400,2.86462,14.985
224,624,2.84216,-14.8444,-0.000425985,0.000918311,9.41787e-05,0.000924877,-0.000432551,1.50119,0.000800709,0.0145662,1448,400,2.84219,14.8444
231,624,2.85571,-14.722,-0.000339957,0.00113349,0.000301946,0.00119297,-0.000399433,1.37631,0.000956668,0.0119356,1455,400,2.8557,14.722
238,624,2.85303,-14.5935,-0.000109665,0.00151216,0.000625339,0.00172528,-0.000322778,1.24235,0.00127151,0.0173867,1462,400,2.85308,14.5935
245,624,2.86804,-14.4548,0.000121198,0.00182126,0.000842832,0.00216828,-0.000225817,1.18022,0.00152637,0.0178917,1469,400,2.86803,14.4548
252,624,2.8645,-14.262,0.000486846,0.00219868,0.00109266,0.00273074,-4.52214e-05,1.11765,0.00183576,0.012432,1476,400,2.86455,14.2619
259,624,2.85791,-14.1134,0.000893846,0.0025943,0.00145115,0.00342595,6.21928e-05,1.05039,0.00226352,0.00860622,1483,400,2.85797,14.1134
266,624,2.86902,-13.9462,0.00147027,0.00285391,0.00198784,0.00426688,5.72999e-05,0.952856,0.00282568,0.0120549,1490,400,2.86906,13.9462
273,624,2.84155,-13.7778,0.00226499,0.00313828,0.00277896,0.0055147,-0.000111422,0.863323,0.00371416,0.0151989,1497,400,2.84161,13.7778
280,624,2.81775,-13.6406,0.00314676,0.00332781,0.00358724,0.00682567,-0.000351101,0.798014,0.00467188,0.0142114,1504,400,2.81772,13.6406
287,624,2.8114,-13.4684,0.00409988,0.00302828,0.00469107,0.00828565,-0.00115749,0.728536,0.00594726,0.010614,1511,400,2.81141,13.4684
294,624,2.78931,-13.2493,0.00504919,0.00287704,0.00576988,0.00983432,-0.00190809,0.692371,0.00727613,0.00894545,1518,400,2.78926,13.2493
301,624,2.77917,-13.0572,0.00618523,0.00263473,0.00706514,0.0116947,-0.00287477,0.662312,0.0089107,0.0104355,1525,400,2.77915,13.0572
308,624,2.78723,-12.8517,0.00741105,0.00226681,0.00853315,0.0137513,-0.00407344,0.639015,0.0107849,0.0139003,1532,400,2.78718,12.8517
315,624,2.79651,-12.6621,0.00847416,0.00138682,0.00990513,0.0154504,-0.00558945,0.613612,0.0125842,0.0166927,1539,400,2.79655,12.6621
322,624,2.82227,-12.5001,0.00936733,0.000439266,0.0113832,0.0171305,-0.00732395,0.598534,0.0144923,0.0244609,1546,400,2.82228,12.5001
329,624,3.07532,-12.3276,0.00996135,-0.000191402,0.0125622,0.0184341,-0.00866414,0.593381,0.0159805,0.0393123,1553,400,3.07529,12.3277
336,624,3.34473,-12.4001,0.0100432,-0.000791197,0.0129135,0.0186297,-0.00937769,0.586797,0.0164615,0.0407559,1560,400,3.34473,12.4001
343,624,3.51282,-11.9542,0,0,0,0,0,0,0,-1,1567,400,3.51281,11.9542
350,624,1.99194,-7.29742,0,0,0,0,0,0,0,-1,1574,400,1.99198,7.29741
357,624,2.64075,-3.13092,0,0,0,0,0,0,0,-1,1581,400,2.64076,3.13091
364,624,3.16565,-4.9458,0,0,0,0,0,0,0,-1,1588,400,3.16564,4.94579
371,624,3.37561,-5.23529,0,0,0,0,0,0,0,-1,1595,400,3.37563,5.23529
378,624,1.50439,-5.22165,0,0,0,0,0,0,0,-1,1602,400,1.50438,5.22164
385,624,1.2301,-10.5866,0,0,0,0,0,0,0,-1,1609,400,1.2301,10.5866
392,624,4.26819,-5.14236,0,0,0,0,0,0,0,-1,1616,400,4.26818,5.14236
399,624,3.86841,-2.36917,0,0,0,0,0,0,0,-1,1623,400,3.86838,2.36916
406,624,4.35376,-2.6962,0,0,0,0,0,0,0,-1,1630,400,4.35373,2.69619
413,624,0,0,0,0,0,0,0,0,0,-1,1637,400,0,0
420,624,0,0,0,0,0,0,0,0,0,-1,1644,400,0,0
427,624,0,0,0,0,0,0,0,0,0,-1,1651,400,0,0
434,624,0,0,0,0,0,0,0,0,0,-1,1658,400,0,0
441,624,0,0,0,0,0,0,0,0,0,-1,1665,400,0,0
448,624,0,0,0,0,0,0,0,0,0,-1,1672,400,0,0
455,624,0,0,0,0,0,0,0,0,0,-1,1679,400,0,0
462,624,0,0,0,0,0,0,0,0,0,-1,1686,400,0,0
469,624,0,0,0,0,0,0,0,0,0,-1,1693,400,0,0
476,624,0,0,0,0,0,0,0,0,0,-1,1700,400,0,0
483,624,0,0,0,0,0,0,0,0,0,-1,1707,400,0,0
490,624,0,0,0,0,0,0,0,0,0,-1,1714,400,0,0
497,624,0,0,0,0,0,0,0,0,0,-1,1721,400,0,0
504,624,0,0,0,0,0,0,0,0,0,-1,1728,400,0,0
511,624,0,0,0,0,0,0,0,0,0,-1,1735,400,0,0
518,624,0,0,0,0,0,0,0,0,0,-1,1742,400,0,0
525,624,0,0,0,0,0,0,0,0,0,-1,1749,400,0,0
532,624,0,0,0,0,0,0,0,0,0,-1,1756,400,0,0
539,624,0,0,0,0,0,0,0,0,0,-1,1763,400,0,0
546,624,0,0,0,0,0,0,0,0,0,-1,1770,400,0,0
553,624,0,0,0,0,0,0,0,0,0,-1,1777,400,0,0
560,624,0,0,0,0,0,0,0,0,0,-1,1784,400,0,0
567,624,0,0,0,0,0,0,0,0,0,-1,1791,400,0,0
574,624,0,0,0,0,0,0,0,0,0,-1,1798,400,0,0
581,624,0,0,0,0,0,0,0,0,0,-1,1805,400,0,0
588,624,0,0,0,0,0,0,0,0,0,-1,1812,400,0,0
595,624,0,0,0,0,0,0,0,0,0,-1,1819,400,0,0
602,624,0,0,0,0,0,0,0,0,0,-1,1826,400,0,0
609,624,0,0,0,0,0,0,0,0,0,-1,1833,400,0,0
616,624,0,0,0,0,0,0,0,0,0,-1,1840,400,0,0
623,624,0,0,0,0,0,0,0,0,0,-1,1847,400,0,0
630,624,0,0,0,0,0,0,0,0,0,-1,1854,400,0,0
637,624,0,0,0,0,0,0,0,0,0,-1,1861,400,0,0
644,624,0,0,0,0,0,0,0,0,0,-1,1868,400,0,0
651,624,0,0,0,0,0,0,0,0,0,-1,1875,400,0,0
658,624,0,0,0,0,0,0,0,0,0,-1,1882,400,0,0
665,624,0,0,0,0,0,0,0,0,0,-1,1889,400,0,0
672,624,0,0,0,0,0,0,0,0,0,-1,1896,400,0,0
679,624,0,0,0,0,0,0,0,0,0,-1,1903,400,0,0
686,624,0,0,0,0,0,0,0,0,0,-1,1910,400,0,0
693,624,0,0,0,0,0,0,0,0,0,-1,1917,400,0,0
700,624,0,0,0,0,0,0,0,0,0,-1,1924,400,0,0
707,624,0,0,0,0,0,0,0,0,0,-1,1931,400,0,0
714,624,0,0,0,0,0,0,0,0,0,-1,1938,400,0,0
721,624,0,0,0,0,0,0,0,0,0,-1,1945,400,0,0
728,624,0,0,0,0,0,0,0,0,0,-1,1952,400,0,0
735,624,0,0,0,0,0,0,0,0,0,-1,1959,400,0,0
742,624,0,0,0,0,0,0,0,0,0,-1,1966,400,0,0
749,624,0,0,0,0,0,0,0,0,0,-1,1973,400,0,0
756,624,0,0,0,0,0,0,0,0,0,-1,1980,400,0,0
763,624,0,0,0,0,0,0,0,0,0,-1,1987,400,0,0
770,624,0,0,0,0,0,0,0,0,0,-1,1994,400,0,0
777,624,0,0,0,0,0,0,0,0,0,-1,2001,400,0,0
784,624,0,0,0,0,0,0,0,0,0,-1,2008,400,0,0
791,624,0,0,0,0,0,0,0,0,0,-1,2015,400,0,0
798,624,0,0,0,0,0,0,0,0,0,-1,2022,400,0,0
805,624,0,0,0,0,0,0,0,0,0,-1,2029,400,0,0
812,624,0,0,0,0,0,0,0,0,0,-1,2036,400,0,0
-700,617,0,0,0,0,0,0,0,0,0,-1,524,407,0,0
-693,617,0,0,0,0,0,0,0,0,0,-1,531,407,0,0
-686,617,0,0,0,0,0,0,0,0,0,-1,538,407,0,0
-679,617,0,0,0,0,0,0,0,0,0,-1,545,407,0,0
-672,617,0,0,0,0,0,0,0,0,0,-1,552,407,0,0
-665,617,0,0,0,0,0,0,0,0,0,-1,559,407,0,0
-658,617,0,0,0,0,0,0,0,0,0,-1,566,407,0,0
-651,617,0,0,0,0,0,0,0,0,0,-1,573,407,0,0
-644,617,0,0,0,0,0,0,0,0,0,-1,580,407,0,0
-637,617,0,0,0,0,0,0,0,0,0,-1,587,407,0,0
-630,617,0,0,0,0,0,0,0,0,0,-1,594,407,0,0
-623,617,0,0,0,0,0,0,0,0,0,-1,601,407,0,0
-616,617,0,0,0,0,0,0,0,0,0,-1,608,407,0,0
-609,617,0,0,0,0,0,0,0,0,0,-1,615,407,0,0
-602,617,0,0,0,0,0,0,0,0,0,-1,622,407,0,0
-595,617,0,0,0,0,0,0,0,0,0,-1,629,407,0,0
-588,617,0,0,0,0,0,0,0,0,0,-1,636,407,0,0
-581,617,0,0,0,0,0,0,0,0,0,-1,643,407,0,0
-574,617,0,0,0,0,0,0,0,0,0,-1,650,407,0,0
-567,617,0,0,0,0,0,0,0,0,0,-1,657,407,0,0
-560,617,0,0,0,0,0,0,0,0,0,-1,664,407,0,0
-553,617,0,0,0,0,0,0,0,0,0,-1,671,407,0,0
-546,617,0,0,0,0,0,0,0,0,0,-1,678,407,0,0
-539,617,0,0,0,0,0,0,0,0,0,-1,685,407,0,0
-532,617,0,0,0,0,0,0,0,0,0,-1,692,407,0,0
-525,617,0,0,0,0,0,0,0,0,0,-1,699,407,0,0
-518,617,0,0,0,0,0,0,0,0,0,-1,706,407,0,0
-511,617,0,0,0,0,0,0,0,0,0,-1,713,407,0,0
-504,617,0,0,0,0,0,0,0,0,0,-1,720,407,0,0
-497,617,0,0,0,0,0,0,0,0,0,-1,727,407,0,0
-490,617,0,0,0,0,0,0,0,0,0,-1,734,407,0,0
-483,617,0,0,0,0,0,0,0,0,0,-1,741,407,0,0
-476,617,0,0,0,0,0,0,0,0,0,-1,748,407,0,0
-469,617,0,0,0,0,0,0,0,0,0,-1,755,407,0,0
-462,617,0,0,0,0,0,0,0,0,0,-1,762,407,0,0
-455,617,0,0,0,0,0,0,0,0,0,-1,769,407,0,0
-448,617,0,0,0,0,0,0,0,0,0,-1,776,407,0,0
-441,617,0,0,0,0,0,0,0,0,0,-1,783,407,0,0
-434,617,0,0,0,0,0,0,0,0,0,-1,790,407,0,0
-427,617,0,0,0,0,0,0,0,0,0,-1,797,407,0,0
-420,617,0,0,0,0,0,0,0,0,0,-1,804,407,0,0
-413,617,0,0,0,0,0,0,0,0,0,-1,811,407,0,0
-406,617,0,0,0,0,0,0,0,0,0,-1,818,407,0,0
-399,617,0,0,0,0,0,0,0,0,0,-1,825,407,0,0
-392,617,0,0,0,0,0,0,0,0,0,-1,832,407,0,0
-385,617,0,0,0,0,0,0,0,0,0,-1,839,407,0,0
-378,617,0,0,0,0,0,0,0,0,0,-1,846,407,0,0
-371,617,0,0,0,0,0,0,0,0,0,-1,853,407,0,0
-364,617,0,0,0,0,0,0,0,0,0,-1,860,407,0,0
-357,617,0,0,0,0,0,0,0,0,0,-1,867,407,0,0
-350,617,0,0,0,0,0,0,0,0,0,-1,874,407,0,0
-343,617,0,0,0,0,0,0,0,0,0,-1,881,407,0,0
-336,617,0,0,0,0,0,0,0,0,0,-1,888,407,0,0
-329,617,0,0,0,0,0,0,0,0,0,-1,895,407,0,0
-322,617,0,0,0,0,0,0,0,0,0,-1,902,407,0,0
-315,617,0,0,0,0,0,0,0,0,0,-1,909,407,0,0
-308,617,0,0,0,0,0,0,0,0,0,-1,916,407,0,0
-301,617,3.0321,-13.8866,0,0,0,0,0,0,0,-1,923,407,3.03209,13.8866
-294,617,-0.867493,-11.1655,0,0,0,0,0,0,0,-1,930,407,-0.867487,11.1655
-287,617,-0.212524,-10.7744,0,0,0,0,0,0,0,-1,937,407,-0.212541,10.7743
-280,617,2.19739,-11.6377,0,0,0,0,0,0,0,-1,944,407,2.19737,11.6377
-273,617,2.36188,-10.5736,0,0,0,0,0,0,0,-1,951,407,2.36188,10.5736
-266,617,2.45978,-8.86865,0,0,0,0,0,0,0,-1,958,407,2.45977,8.86865
-259,617,2.50787,-9.81519,0,0,0,0,0,0,0,-1,965,407,2.50789,9.81519
-252,617,2.54358,-11.0427,0,0,0,0,0,0,0,-1,972,407,2.54361,11.0427
-245,617,2.06006,-12.1926,0,0,0,0,0,0,0,-1,979,407,2.06004,12.1926
-238,617,2.78296,-12.2305,0,0,0,0,0,0,0,-1,986,407,2.78293,12.2305
-231,617,2.74048,-12.2244,-0.0123215,0.00391124,-0.00100574,0.00397331,-0.0123836,-1.50915,0.00985097,0.0473747,993,407,2.74047,12.2244
-224,617,2.5993,-12.3598,-0.0142176,0.00107396,-0.000249085,0.00107802,-0.0142216,-1.55451,0.00986007,0.0473524,1000,407,2.59931,12.3598
-217,617,2.57019,-12.5963,-0.0147186,-0.00251417,0.000831227,-0.00245782,-0.0147749,1.5031,0.0091415,0.0366429,1007,407,2.57021,12.5962
-210,617,2.59381,-13.0636,-0.0147361,-0.00466917,0.00138361,-0.00448247,-0.0149228,1.43667,0.00884162,0.0229123,1014,407,2.59384,13.0636
-203,617,2.59772,-13.2252,-0.0137749,-0.00608581,0.00161996,-0.00575845,-0.0141023,1.3714,0.00818745,0.0172909,1021,407,2.59774,13.2252
-196,617,2.59766,-13.3652,-0.0125926,-0.00720639,0.00176872,-0.00667751,-0.0131215,1.28024,0.00757608,0.0149866,1028,407,2.5977,13.3652
-189,617,2.56897,-13.5571,-0.0115115,-0.00831012,0.00202585,-0.00732889,-0.0124927,1.11974,0.00724868,0.0126805,1035,407,2.56895,13.5571
-182,617,2.56995,-13.7287,-0.00970098,-0.0085196,0.00167476,-0.00733441,-0.0108862,0.954938,0.00641036,0.0130877,1042,407,2.5699,13.7287
-175,617,2.59595,-13.8873,-0.00753471,-0.00867963,0.0010365,-0.00692309,-0.00929125,0.533094,0.00557503,0.011632,1049,407,2.59589,13.8873
-168,617,2.57703,-14.0602,-0.00544585,-0.00841312,0.000515013,-0.005359,-0.00849996,0.167058,0.00496284,0.00951003,1056,407,2.57707,14.0603
-161,617,2.53064,-14.2418,-0.00375889,-0.00775418,3.0064e-05,-0.00375867,-0.00775441,0.0075243,0.00447771,0.0110209,1063,407,2.53061,14.2418
-154,617,2.50281,-14.3827,-0.00248206,-0.0067319,-0.000537637,-0.0024151,-0.00679886,-0.123907,0.0039798,0.0118013,1070,407,2.50281,14.3827
-147,617,2.49829,-14.5113,-0.00100027,-0.0057537,-0.0010965,-0.000759524,-0.00599445,-0.216127,0.00376872,0.0155801,1077,407,2.49832,14.5113
-140,617,2.50073,-14.6917,0.000127409,-0.00463736,-0.00172323,0.00068531,-0.00519526,-0.313104,0.00371308,0.0118235,1084,407,2.50076,14.6917
-133,617,2.49377,-14.817,0.000711828,-0.00355794,-0.00207694,0.00155543,-0.00440155,-0.38582,0.00356771,0.0140466,1091,407,2.49383,14.817
-126,617,2.49756,-14.9292,0.00106942,-0.0023683,-0.00227995,0.00220584,-0.00350472,-0.462401,0.0033253,0.0145159,1098,407,2.4976,14.9292
-119,617,2.48022,-15.0659,0.0011864,-0.00137269,-0.00240326,0.00262951,-0.00281581,-0.540775,0.00314447,0.014264,1105,407,2.48027,15.066
-112,617,2.479,-15.1659,0.00129238,-0.000469967,-0.00245423,0.00301883,-0.00219641,-0.613044,0.00302348,0.0145041,1112,407,2.47905,15.1659
-105,617,2.49866,-15.2692,0.00143269,0.00014325,-0.00223917,0.0031181,-0.00154217,-0.645226,0.00274141,0.0148885,1119,407,2.49864,15.2692
-98,617,2.48022,-15.4229,0.00147866,0.000672022,-0.00194412,0.00306086,-0.000910175,-0.683121,0.00240214,0.0126157,1126,407,2.48021,15.4228
-91,617,2.49475,-15.5402,0.00156366,0.00114842,-0.00168691,0.00305568,-0.000343596,-0.724169,0.00216078,0.0180428,1133,407,2.49476,15.5402
-84,617,2.50989,-15.6418,0.00158861,0.00140593,-0.00138001,0.00288029,0.000114244,-0.752353,0.00188327,0.0178896,1140,407,2.50984,15.6418
-77,617,2.50647,-15.723,0.00156463,0.00141153,-0.00103042,0.00252134,0.000454817,-0.74832,0.00155167,0.013555,1147,407,2.50649,15.723
-70,617,2.50159,-15.8205,0.00169749,0.001205,-0.000694478,0.00218809,0.000714407,-0.615026,0.0012884,0.01489,1154,407,2.50163,15.8205
-63,617,2.49524,-15.9072,0.00151119,0.000674025,-0.000263595,0.00158728,0.000597943,-0.280996,0.000925654,0.0160691,1161,407,2.49519,15.9072
-56,617,2.50806,-15.9834,0.00120999,0.000217864,7.37197e-05,0.00121544,0.000212417,0.0737649,0.000749587,0.0119308,1168,407,2.50803,15.9834
-49,617,2.53796,-16.0455,0.00100457,-0.000258894,0.000459129,0.00115379,-0.000408113,0.314237,0.000935392,0.00965555,1175,407,2.53801,16.0455
-42,617,2.57483,-16.1223,0.00133275,-0.00106272,0.000632656,0.00148957,-0.00121954,0.24298,0.00156669,0.0108162,1182,407,2.57481,16.1223
-35,617,2.58228,-16.1792,0.00150193,-0.00159578,0.000250248,0.00152201,-0.00161587,0.0800929,0.00181193,0.0158324,1189,407,2.58228,16.1792
-28,617,2.56958,-16.2463,0.00139768,-0.00224345,-0.000147267,0.00140363,-0.0022494,-0.0403576,0.00212784,0.0183239,1196,407,2.56959,16.2463
-21,617,2.59314,-16.2979,0.0013467,-0.00261967,-0.00064449,0.0014488,-0.00272176,-0.157106,0.00244498,0.0138495,1203,407,2.59315,16.2979
-14,617,2.55518,-16.3144,0.00128465,-0.00281509,-0.00122942,0.00162506,-0.0031555,-0.27012,0.00280681,0.0150312,1210,407,2.55514,16.3144
-7,617,2.5343,-16.352,0.0011937,-0.00273202,-0.00213489,0.00213094,-0.00366925,-0.413677,0.00338778,0.0187964,1217,407,2.53426,16.352
0,617,2.58667,-16.4179,0.000881838,-0.00255747,-0.00296379,0.00258874,-0.00426437,-0.522524,0.00399587,0.0171278,1224,407,2.58667,16.4179
7,617,2.63208,-16.4784,0.000563949,-0.00234562,-0.00359407,0.0029865,-0.00476817,-0.59309,0.00451638,0.0112566,1231,407,2.63206,16.4784
14,617,2.61938,-16.5213,0.00062271,-0.00200735,-0.00376504,0.00329577,-0.00468041,-0.617384,0.00462812,0.0128008,1238,407,2.61937,16.5213
21,617,2.62122,-16.5238,0.000725477,-0.00168704,-0.00363066,0.00334502,-0.00430658,-0.625014,0.00442927,0.0114794,1245,407,2.62116,16.5238
28,617,2.62268,-16.5298,0.000647388,-0.0011371,-0.00309882,0.00297986,-0.00346957,-0.645225,0.00372716,0.00991584,1252,407,2.6227,16.5298
35,617,2.64563,-16.5495,0.000646188,-0.000484985,-0.00235953,0.00250697,-0.00234577,-0.667766,0.00280224,0.0128995,1259,407,2.64567,16.5495
42,617,2.75574,-16.5469,0.000971682,0.000222936,-0.0014804,0.00212431,-0.000929695,-0.661552,0.00180764,0.0203485,1266,407,2.75574,16.5469
49,617,2.74353,-16.5422,0.00121811,0.000941853,-0.000390642,0.00149432,0.000665636,-0.615465,0.000864457,0.0208099,1273,407,2.74359,16.5422
56,617,2.69226,-16.5426,0.00132089,0.00148728,0.000696411,0.00210545,0.000702723,0.844848,0.00123777,0.0143763,1280,407,2.69222,16.5426
63,617,2.73828,-16.538,0.00125073,0.00199498,0.00166763,0.0033315,-8.57938e-05,0.895172,0.00225014,0.00977133,1287,407,2.73823,16.538
70,617,2.75366,-16.5213,0.00139723,0.00233663,0.00260553,0.00451446,-0.000780602,0.874575,0.00330075,0.0136877,1294,407,2.75363,16.5213
77,617,2.76868,-16.5138,0.00178354,0.0027614,0.00302828,0.00533996,-0.000795024,0.865435,0.00385242,0.0123976,1301,407,2.76862,16.5138
84,617,2.78479,-16.5105,0.00194886,0.00296124,0.00303577,0.00553273,-0.000622632,0.868009,0.00391258,0.0101157,1308,407,2.78479,16.5105
91,617,2.81641,-16.4703,0.00181652,0.00284271,0.00273103,0.00510842,-0.000449193,0.878254,0.00356479,0.0103979,1315,407,2.81645,16.4703
98,617,2.84094,-16.4306,0.00155562,0.00259649,0.00239746,0.00452935,-0.00037725,0.892279,0.00315285,0.0118685,1322,407,2.84093,16.4306
105,617,2.84229,-16.3994,0.00138978,0.00215402,0.00187716,0.00368756,-0.000143764,0.885808,0.00250767,0.0132848,1329,407,2.84227,16.3994
112,617,2.85852,-16.3568,0.0011392,0.00145512,0.00119029,0.00249789,9.64372e-05,0.851366,0.00163406,0.0164652,1336,407,2.85849,16.3568
119,617,2.89307,-16.2867,0.000659825,0.000668297,0.000384095,0.00104818,0.000279942,0.790912,0.000626673,0.0191863,1343,407,2.89301,16.2867
126,617,2.88782,-16.2041,0.000373584,-0.000123126,-0.000348691,0.000553324,-0.000302866,-0.475948,0.000501322,0.0209104,1350,407,2.8878,16.2041
133,617,2.89978,-16.1504,0.000418503,-0.00110534,-0.000993533,0.000908632,-0.00159547,-0.458289,0.00146376,0.017968,1357,407,2.89975,16.1504
140,617,2.94482,-16.103,0.000420627,-0.00197469,-0.00136278,0.00103723,-0.0025913,-0.424899,0.00215803,0.0148146,1364,407,2.94487,16.103
147,617,2.89014,-16.0349,0.00032273,-0.00268153,-0.00152841,0.000963598,-0.0033224,-0.397035,0.00259644,0.0177342,1371,407,2.89011,16.0349
154,617,2.9032,-15.9587,0.000428889,-0.00324827,-0.001648,0.00105938,-0.00387876,-0.365396,0.00300193,0.0206162,1378,407,2.9032,15.9587
161,617,2.96216,-15.8593,0.000652567,-0.00326557,-0.00160313,0.0012249,-0.0038379,-0.342904,0.00305002,0.0208314,1385,407,2.9622,15.8594
168,617,2.98767,-15.789,0.000729499,-0.00296552,-0.00137383,0.00118431,-0.00342033,-0.319699,0.002761,0.0192375,1392,407,2.98772,15.789
175,617,2.98499,-15.699,0.000587139,-0.00260102,-0.0013023,0.00105147,-0.00306536,-0.342498,0.00246983,0.0162294,1399,407,2.98503,15.699
182,617,2.98547,-15.5787,0.000328007,-0.00236621,-0.00111232,0.000727883,-0.00276609,-0.345111,0.00212858,0.011227,1406,407,2.9855,15.5787
189,617,2.98169,-15.4638,0.000291946,-0.00198229,-0.00100516,0.000672521,-0.00236286,-0.361941,0.00184083,0.0112358,1413,407,2.98173,15.4638
196,617,2.98865,-15.3597,0.000468376,-0.00135613,-0.000884808,0.000826985,-0.00171474,-0.385064,0.001497,0.0142105,1420,407,2.98869,15.3597
203,617,2.99121,-15.2348,0.000540788,-0.000744924,-0.000845831,0.000960332,-0.00116447,-0.460454,0.00122864,0.0139331,1427,407,2.99121,15.2348
210,617,3.01575,-15.1224,0.000311815,-0.000192925,-0.000798198,0.00089659,-0.000777699,-0.632284,0.000967463,0.0138123,1434,407,3.01573,15.1224
217,617,3.0033,-14.9717,6.12863e-05,0.000330459,-0.000701167,0.00090984,-0.000518094,-0.880218,0.000834695,0.017469,1441,407,3.00335,14.9717
224,617,2.99963,-14.856,-7.49267e-05,0.000650873,-0.000488823,0.000896779,-0.000320833,-1.10471,0.000728732,0.0169905,1448,407,2.99962,14.856
231,617,3.01709,-14.7597,-6.35602e-05,0.000973455,-0.000219274,0.00101791,-0.000108019,-1.37075,0.000717332,0.0141599,1455,407,3.01708,14.7597
238,617,3.01917,-14.6299,9.18363e-05,0.00138084,0.000134257,0.00139467,7.80012e-05,1.46811,0.000904902,0.0153338,1462,407,3.01918,14.6299
245,617,3.02832,-14.4958,0.000264527,0.00172846,0.000406331,0.00183368,0.000159308,1.31741,0.00117296,0.0136565,1469,407,3.02832,14.4958
252,617,3.03906,-14.2906,0.000525487,0.00209731,0.000684307,0.00235348,0.000269318,1.2126,0.00148737,0.0145955,1476,407,3.03903,14.2905
259,617,3.01233,-14.1201,0.000794056,0.00242498,0.00103379,0.00292621,0.000292819,1.11934,0.0018609,0.0115881,1483,407,3.01227,14.1201
266,617,3.03101,-13.9542,0.00117481,0.00261531,0.00148982,0.00354985,0.000240265,1.01056,0.00229068,0.0126927,1490,407,3.03103,13.9542
273,617,3.01404,-13.7809,0.00171822,0.0028048,0.00210363,0.00443416,8.88596e-05,0.911768,0.00292694,0.0140939,1497,407,3.01398,13.7809
280,617,2.97986,-13.6179,0.00232028,0.00292082,0.00275503,0.00539189,-0.000150793,0.839679,0.0036459,0.0132676,1504,407,2.97986,13.6179
287,617,2.96033,-13.4387,0.00298958,0.00264363,0.00361321,0.00643396,-0.000800746,0.76148,0.00457962,0.0120524,1511,407,2.96038,13.4387
294,617,2.95142,-13.2467,0.0036367,0.0024562,0.00441829,0.00750399,-0.00141109,0.718996,0.00553333,0.00987638,1518,407,2.95147,13.2467
301,617,2.95032,-13.0624,0.00438605,0.002172,0.00535644,0.00874866,-0.00219061,0.683497,0.0066834,0.00798268,1525,407,2.95031,13.0624
308,617,2.95178,-12.8783,0.0051962,0.00183071,0.00640843,0.0101391,-0.00311222,0.657005,0.0080012,0.00844037,1532,407,2.95174,12.8783
315,617,2.93542,-12.6848,0.00588653,0.00120331,0.00738709,0.0112943,-0.00420442,0.631915,0.00925498,0.0100736,1539,407,2.93543,12.6848
322,617,2.91956,-12.4802,0.0064191,0.000583647,0.00838915,0.0123834,-0.00538069,0.618042,0.0105184,0.0126276,1546,407,2.91961,12.4802
329,617,2.92163,-12.2934,0.00668838,0.0002256,0.00916304,0.0131731,-0.00625914,0.615879,0.0114535,0.0123505,1553,407,2.92166,12.2934
336,617,2.9303,-12.0743,0.00653756,-8.04156e-05,0.00932303,0.0131214,-0.00666427,0.61487,0.0116243,0.0242369,1560,407,2.93024,12.0743
343,617,2.99414,-11.7607,0,0,0,0,0,0,0,-1,1567,407,2.99413,11.7607
350,617,2.88098,-10.0063,0,0,0,0,0,0,0,-1,1574,407,2.88098,10.0063
357,617,2.1748,-7.16504,0,0,0,0,0,0,0,-1,1581,407,2.1748,7.16505
364,617,2.30127,-7.60257,0,0,0,0,0,0,0,-1,1588,407,2.30125,7.60258
371,617,2.60266,-6.20667,0,0,0,0,0,0,0,-1,1595,407,2.60261,6.20668
378,617,1.56921,-10.3601,0,0,0,0,0,0,0,-1,1602,407,1.56918,10.3601
385,617,1.74146,-10.3561,0,0,0,0,0,0,0,-1,1609,407,1.7414,10.3561
392,617,1.91357,-10.3521,0,0,0,0,0,0,0,-1,1616,407,1.91362,10.3521
399,617,3.25,-2.14835,0,0,0,0,0,0,0,-1,1623,407,3.25006,2.14836
406,617,3.02429,-3.19577,0,0,0,0,0,0,0,-1,1630,407,3.02431,3.19577
413,617,2.92786,-3.80649,0,0,0,0,0,0,0,-1,1637,407,2.92788,3.8065
420,617,3.42737,-4.47391,0,0,0,0,0,0,0,-1,1644,407,3.42737,4.47391
427,617,0,0,0,0,0,0,0,0,0,-1,1651,407,0,0
434,617,0,0,0,0,0,0,0,0,0,-1,1658,407,0,0
441,617,0,0,0,0,0,0,0,0,0,-1,1665,407,0,0
448,617,0,0,0,0,0,0,0,0,0,-1,1672,407,0,0
455,617,0,0,0,0,0,0,0,0,0,-1,1679,407,0,0
462,617,0,0,0,0,0,0,0,0,0,-1,1686,407,0,0
469,617,0,0,0,0,0,0,0,0,0,-1,1693,407,0,0
476,617,0,0,0,0,0,0,0,0,0,-1,1700,407,0,0
483,617,0,0,0,0,0,0,0,0,0,-1,1707,407,0,0
490,617,0,0,0,0,0,0,0,0,0,-1,1714,407,0,0
497,617,0,0,0,0,0,0,0,0,0,-1,1721,407,0,0
504,617,0,0,0,0,0,0,0,0,0,-1,1728,407,0,0
511,617,0,0,0,0,0,0,0,0,0,-1,1735,407,0,0
518,617,0,0,0,0,0,0,0,0,0,-1,1742,407,0,0
525,617,0,0,0,0,0,0,0,0,0,-1,1749,407,0,0
532,617,0,0,0,0,0,0,0,0,0,-1,1756,407,0,0
539,617,0,0,0,0,0,0,0,0,0,-1,1763,407,0,0
546,617,0,0,0,0,0,0,0,0,0,-1,1770,407,0,0
553,617,0,0,0,0,0,0,0,0,0,-1,1777,407,0,0
560,617,0,0,0,0,0,0,0,0,0,-1,1784,407,0,0
567,617,0,0,0,0,0,0,0,0,0,-1,1791,407,0,0
574,617,0,0,0,0,0,0,0,0,0,-1,1798,407,0,0
581,617,0,0,0,0,0,0,0,0,0,-1,1805,407,0,0
588,617,0,0,0,0,0,0,0,0,0,-1,1812,407,0,0
595,617,0,0,0,0,0,0,0,0,0,-1,1819,407,0,0
602,617,0,0,0,0,0,0,0,0,0,-1,1826,407,0,0
609,617,0,0,0,0,0,0,0,0,0,-1,1833,407,0,0
616,617,0,0,0,0,0,0,0,0,0,-1,1840,407,0,0
623,617,0,0,0,0,0,0,0,0,0,-1,1847,407,0,0
630,617,0,0,0,0,0,0,0,0,0,-1,1854,407,0,0
637,617,0,0,0,0,0,0,0,0,0,-1,1861,407,0,0
644,617,0,0,0,0,0,0,0,0,0,-1,1868,407,0,0
651,617,0,0,0,0,0,0,0,0,0,-1,1875,407,0,0
658,617,0,0,0,0,0,0,0,0,0,-1,1882,407,0,0
665,617,0,0,0,0,0,0,0,0,0,-1,1889,407,0,0
672,617,0,0,0,0,0,0,0,0,0,-1,1896,407,0,0
679,617,0,0,0,0,0,0,0,0,0,-1,1903,407,0,0
686,617,0,0,0,0,0,0,0,0,0,-1,1910,407,0,0
693,617,0,0,0,0,0,0,0,0,0,-1,1917,407,0,0
700,617,0,0,0,0,0,0,0,0,0,-1,1924,407,0,0
707,617,0,0,0,0,0,0,0,0,0,-1,1931,407,0,0
714,617,0,0,0,0,0,0,0,0,0,-1,1938,407,0,0
721,617,0,0,0,0,0,0,0,0,0,-1,1945,407,0,0
728,617,0,0,0,0,0,0,0,0,0,-1,1952,407,0,0
735,617,0,0,0,0,0,0,0,0,0,-1,1959,407,0,0
742,617,0,0,0,0,0,0,0,0,0,-1,1966,407,0,0
749,617,0,0,0,0,0,0,0,0,0,-1,1973,407,0,0
756,617,0,0,0,0,0,0,0,0,0,-1,1980,407,0,0
763,617,0,0,0,0,0,0,0,0,0,-1,1987,407,0,0
770,617,0,0,0,0,0,0,0,0,0,-1,1994,407,0,0
777,617,0,0,0,0,0,0,0,0,0,-1,2001,407,0,0
784,617,0,0,0,0,0,0,0,0,0,-1,2008,407,0,0
791,617,0,0,0,0,0,0,0,0,0,-1,2015,407,0,0
798,617,0,0,0,0,0,0,0,0,0,-1,2022,407,0,0
805,617,0,0,0,0,0,0,0,0,0,-1,2029,407,0,0
812,617,0,0,0,0,0,0,0,0,0,-1,2036,407,0,0
-700,610,0,0,0,0,0,0,0,0,0,-1,524,414,0,0
-693,610,0,0,0,0,0,0,0,0,0,-1,531,414,0,0
-686,610,0,0,0,0,0,0,0,0,0,-1,538,414,0,0
-679,610,0,0,0,0,0,0,0,0,0,-1,545,414,0,0
-672,610,0,0,0,0,0,0,0,0,0,-1,552,414,0,0
-665,610,0,0,0,0,0,0,0,0,0,-1,559,414,0,0
-658,610,0,0,0,0,0,0,0,0,0,-1,566,414,0,0
-651,610,0,0,0,0,0,0,0,0,0,-1,573,414,0,0
-644,610,0,0,0,0,0,0,0,0,0,-1,580,414,0,0
-637,610,0,0,0,0,0,0,0,0,0,-1,587,414,0,0
-630,610,0,0,0,0,0,0,0,0,0,-1,594,414,0,0
-623,610,0,0,0,0,0,0,0,0,0,-1,601,414,0,0
-616,610,0,0,0,0,0,0,0,0,0,-1,608,414,0,0
-609,610,0,0,0,0,0,0,0,0,0,-1,615,414,0,0
-602,610,0,0,0,0,0,0,0,0,0,-1,622,414,0,0
-595,610,0,0,0,0,0,0,0,0,0,-1,629,414,0,0
-588,610,0,0,0,0,0,0,0,0,0,-1,636,414,0,0
-581,610,0,0,0,0,0,0,0,0,0,-1,643,414,0,0
-574,610,0,0,0,0,0,0,0,0,0,-1,650,414,0,0
-567,610,0,0,0,0,0,0,0,0,0,-1,657,414,0,0
-560,610,0,0,0,0,0,0,0,0,0,-1,664,414,0,0
-553,610,0,0,0,0,0,0,0,0,0,-1,671,414,0,0
-546,610,0,0,0,0,0,0,0,0,0,-1,678,414,0,0
-539,610,0,0,0,0,0,0,0,0,0,-1,685,414,0,0
-532,610,0,0,0,0,0,0,0,0,0,-1,692,414,0,0
-525,610,0,0,0,0,0,0,0,0,0,-1,699,414,0,0
-518,610,0,0,0,0,0,0,0,0,0,-1,706,414,0,0
-511,610,0,0,0,0,0,0,0,0,0,-1,713,414,0,0
-504,610,0,0,0,0,0,0,0,0,0,-1,720,414,0,0
-497,610,0,0,0,0,0,0,0,0,0,-1,727,414,0,0
-490,610,0,0,0,0,0,0,0,0,0,-1,734,414,0,0
-483,610,0,0,0,0,0,0,0,0,0,-1,741,414,0,0
-476,610,0,0,0,0,0,0,0,0,0,-1,748,414,0,0
-469,610,0,0,0,0,0,0,0,0,0,-1,755,414,0,0
-462,610,0,0,0,0,0,0,0,0,0,-1,762,414,0,0
-455,610,0,0,0,0,0,0,0,0,0,-1,769,414,0,0
-448,610,0,0,0,0,0,0,0,0,0,-1,776,414,0,0
-441,610,0,0,0,0,0,0,0,0,0,-1,783,414,0,0
-434,610,0,0,0,0,0,0,0,0,0,-1,790,414,0,0
-427,610,0,0,0,0,0,0,0,0,0,-1,797,414,0,0
-420,610,0,0,0,0,0,0,0,0,0,-1,804,414,0,0
-413,610,0,0,0,0,0,0,0,0,0,-1,811,414,0,0
-406,610,0,0,0,0,0,0,0,0,0,-1,818,414,0,0
-399,610,0,0,0,0,0,0,0,0,0,-1,825,414,0,0
-392,610,0,0,0,0,0,0,0,0,0,-1,832,414,0,0
-385,610,0,0,0,0,0,0,0,0,0,-1,839,414,0,0
-378,610,0,0,0,0,0,0,0,0,0,-1,846,414,0,0
-371,610,0,0,0,0,0,0,0,0,0,-1,853,414,0,0
-364,610,0,0,0,0,0,0,0,0,0,-1,860,414,0,0
-357,610,0,0,0,0,0,0,0,0,0,-1,867,414,0,0
-350,610,0,0,0,0,0,0,0,0,0,-1,874,414,0,0
-343,610,0,0,0,0,0,0,0,0,0,-1,881,414,0,0
-336,610,0,0,0,0,0,0,0,0,0,-1,888,414,0,0
-329,610,0,0,0,0,0,0,0,0,0,-1,895,414,0,0
-322,610,0,0,0,0,0,0,0,0,0,-1,902,414,0,0
-315,610,1.74609,-13.6603,0.0908616,-0.137633,0.118271,0.141054,-0.187826,0.401351,0.190518,0.0484176,909,414,1.74607,13.6603
-308,610,2.05853,-13.3974,0.0749716,-0.121906,0.0955424,0.113714,-0.160648,0.385234,0.159173,0.0447687,916,414,2.05856,13.3974
-301,610,2.2345,-13.0041,0.0631521,-0.106463,0.0789739,0.094229,-0.137539,0.374898,0.134588,0.0480707,923,414,2.2345,13.0041
-294,610,2.37964,-12.4347,0,0,0,0,0,0,0,-1,930,414,2.37964,12.4347
-287,610,2.08557,-11.9136,0,0,0,0,0,0,0,-1,937,414,2.08555,11.9136
-280,610,2.25854,-11.0924,0,0,0,0,0,0,0,-1,944,414,2.25856,11.0924
-273,610,2.44586,-10.2559,0,0,0,0,0,0,0,-1,951,414,2.44589,10.2559
-266,610,3.36871,-10.7632,0,0,0,0,0,0,0,-1,958,414,3.36874,10.7632
-259,610,3.32556,-12.2338,0,0,0,0,0,0,0,-1,965,414,3.32559,12.2338
-252,610,1.61133,-11.4972,0,0,0,0,0,0,0,-1,972,414,1.61131,11.4972
-245,610,2.07471,-12.0089,0.00127037,0.00694145,-0.00269154,0.00801547,0.000196348,-1.19112,0.00527942,0.0466712,979,414,2.07469,12.0089
-238,610,2.78491,-12.3461,-0.00407403,0.00682538,-0.00215107,0.00723454,-0.00448319,-1.38283,0.00682712,0.0393581,986,414,2.78493,12.3461
-231,610,2.46832,-12.3321,-0.00689485,0.00425893,-0.00130618,0.00440985,-0.00704577,-1.45576,0.00667201,0.0341041,993,414,2.46835,12.3321
-224,610,2.46497,-12.5629,-0.00832892,0.0021126,-0.000720379,0.00216206,-0.00837839,-1.50224,0.00642863,0.0251268,1000,414,2.46499,12.5629
-217,610,2.46045,-12.8247,-0.00895183,-0.000522167,3.00917e-05,-0.000522059,-0.00895193,1.56723,0.00580177,0.0155921,1007,414,2.46047,12.8247
-210,610,2.45001,-13.0351,-0.00917468,-0.00220619,0.000451678,-0.00217703,-0.00920383,1.50634,0.00555429,0.0103205,1014,414,2.45003,13.0351
-203,610,2.43878,-13.2188,-0.00875814,-0.00335225,0.000709473,-0.00326068,-0.0088497,1.44245,0.00516799,0.0125045,1021,414,2.43881,13.2188
-196,610,2.42712,-13.4074,-0.00816879,-0.00426178,0.000888455,-0.00406924,-0.00836134,1.35738,0.00482799,0.013728,1028,414,2.42718,13.4074
-189,610,2.42285,-13.5755,-0.00766012,-0.00514542,0.00114183,-0.00470433,-0.00810121,1.20215,0.0046975,0.010843,1035,414,2.42283,13.5755
-182,610,2.4281,-13.7367,-0.0064684,-0.00538711,0.000901985,-0.00487615,-0.00697936,1.05538,0.00413419,0.010856,1042,414,2.4281,13.7367
-175,610,2.42969,-13.892,-0.00492408,-0.00561455,0.000513368,-0.00465066,-0.00588797,0.489385,0.00358478,0.0108427,1049,414,2.42969,13.892
-168,610,2.40149,-14.0777,-0.00343881,-0.00550324,0.000206932,-0.00341827,-0.00552378,0.0989253,0.00321904,0.0103163,1056,414,2.40148,14.0777
-161,610,2.36646,-14.2625,-0.00221241,-0.00510914,-8.43055e-05,-0.00220996,-0.00511159,-0.0290709,0.00296017,0.0111736,1063,414,2.36647,14.2625
-154,610,2.33936,-14.4015,-0.00122566,-0.00444817,-0.000450077,-0.00116398,-0.00450985,-0.136196,0.00270343,0.013769,1070,414,2.33939,14.4015
-147,610,2.36523,-14.5178,-8.26497e-05,-0.00378491,-0.000843148,0.000100325,-0.00396789,-0.2137,0.00267933,0.0142593,1077,414,2.36525,14.5178
-140,610,2.3772,-14.6844,0.000804484,-0.00304317,-0.0012742,0.00118818,-0.00342687,-0.292495,0.00276703,0.0117848,1084,414,2.37724,14.6844
-133,610,2.37195,-14.8241,0.00133717,-0.00229836,-0.00153704,0.0018999,-0.00286109,-0.350957,0.00276737,0.0134132,1091,414,2.37195,14.8241
-126,610,2.35779,-14.9506,0.00166916,-0.00149266,-0.00168613,0.00239959,-0.00222309,-0.408797,0.00266956,0.0124904,1098,414,2.35779,14.9506
-119,610,2.35522,-15.0575,0.0018284,-0.000789093,-0.00181907,0.00276059,-0.00172129,-0.473565,0.0026107,0.0110143,1105,414,2.35521,15.0575
-112,610,2.33801,-15.1552,0.00197891,-0.00020676,-0.00185663,0.00304045,-0.0012683,-0.519396,0.00255683,0.0184639,1112,414,2.338,15.1552
-105,610,2.34033,-15.2847,0.00214145,0.000256798,-0.00173797,0.00317612,-0.000777875,-0.536982,0.00241876,0.0178597,1119,414,2.34039,15.2847
-98,610,2.36584,-15.4209,0.00226061,0.000745418,-0.00159193,0.00326602,-0.000259996,-0.563308,0.00226898,0.0123826,1126,414,2.36587,15.4209
-91,610,2.39001,-15.522,0.00235057,0.00117145,-0.00148149,0.0033555,0.000166528,-0.596029,0.00218361,0.0135847,1133,414,2.38998,15.522
-84,610,2.40686,-15.6356,0.00233544,0.00130162,-0.00124904,0.00317031,0.000466752,-0.589207,0.00197641,0.0143679,1140,414,2.40681,15.6356
-77,610,2.40869,-15.7412,0.00229998,0.00131947,-0.000926165,0.00285764,0.000761809,-0.541977,0.00170874,0.011061,1147,414,2.40864,15.7412
-70,610,2.42017,-15.8382,0.00259374,0.00099074,-0.000704808,0.00285955,0.000724927,-0.360648,0.00171653,0.0135519,1154,414,2.42012,15.8382
-63,610,2.40857,-15.9262,0.00192623,7.44301e-05,0.000146242,0.00193771,6.29521e-05,0.078326,0.00127134,0.0129548,1161,414,2.4086,15.9262
-56,610,2.41565,-15.9863,0.000824409,-0.000661245,0.000979825,0.00131115,-0.00114799,0.461059,0.00142083,0.0107353,1168,414,2.41561,15.9863
-49,610,2.44873,-16.0541,4.2621e-05,-0.00126428,0.00172441,0.00123324,-0.00245489,0.604287,0.00216793,0.0103883,1175,414,2.44874,16.0541
-42,610,2.48889,-16.1411,0.000287228,-0.00220544,0.00205311,0.00144268,-0.0033609,0.512605,0.00284611,0.0137469,1182,414,2.48894,16.1411
-35,610,2.48474,-16.2033,0.0003561,-0.0029398,0.00155561,0.000974349,-0.00355805,0.378291,0.00275486,0.0147155,1189,414,2.48478,16.2033
-28,610,2.49463,-16.2544,0.000104738,-0.00371736,0.00109057,0.000394019,-0.00400664,0.259285,0.00281165,0.0128993,1196,414,2.49457,16.2544
-21,610,2.52075,-16.3,-0.000134164,-0.00408308,0.00045214,-8.30572e-05,-0.00413419,0.112557,0.00272886,0.01121,1203,414,2.52077,16.3
-14,610,2.51685,-16.3218,-0.000345832,-0.00421604,-0.000381375,-0.000308608,-0.00425326,-0.0972945,0.00273844,0.0121887,1210,414,2.51689,16.3218
-7,610,2.53589,-16.3533,-0.000489852,-0.00400527,-0.0016785,0.000182851,-0.00467798,-0.381175,0.00318135,0.0142629,1217,414,2.53589,16.3533
0,610,2.57263,-16.4177,-0.000828104,-0.00368735,-0.00289057,0.000967052,-0.00548251,-0.555746,0.00401635,0.0114648,1224,414,2.57266,16.4177
7,610,2.59912,-16.4664,-0.00118868,-0.00332883,-0.0038847,0.00177063,-0.00628815,-0.651002,0.00489035,0.0115341,1231,414,2.59908,16.4664
14,610,2.61218,-16.4937,-0.0010204,-0.00277094,-0.00429846,0.00249099,-0.00628233,-0.684959,0.00522056,0.0135581,1238,414,2.61224,16.4937
21,610,2.61389,-16.4976,-0.000724353,-0.00216821,-0.00427965,0.00289383,-0.0057864,-0.701841,0.00510344,0.0118177,1245,414,2.61395,16.4976
28,610,2.63318,-16.5242,-0.000603403,-0.00123982,-0.00373267,0.0028246,-0.00466782,-0.742876,0.00436917,0.0109797,1252,414,2.63317,16.5242
35,610,2.71582,-16.5342,-0.000318807,-0.000148455,-0.00288584,0.00265347,-0.00312073,-0.800152,0.00333737,0.0154606,1259,414,2.71581,16.5342
42,610,2.73645,-16.5306,0.000494301,0.0010662,-0.00190151,0.00270314,-0.00114264,-0.860029,0.00228048,0.0160138,1266,414,2.73646,16.5307
49,610,2.72791,-16.5489,0.00126275,0.00228835,-0.000602835,0.00256699,0.000984112,-1.13783,0.00149543,0.016358,1273,414,2.72787,16.5489
56,610,2.72302,-16.5488,0.00175606,0.00320954,0.00083584,0.0035904,0.0013752,1.14324,0.00209174,0.0137995,1280,414,2.723,16.5488
63,610,2.74133,-16.5154,0.00199743,0.00407574,0.00211877,0.00539646,0.000676711,1.01339,0.00339463,0.0158207,1287,414,2.7413,16.5154
70,610,2.76978,-16.4754,0.00248789,0.00477645,0.00337712,0.00719788,6.64543e-05,0.948744,0.00477659,0.0221825,1294,414,2.76981,16.4754
77,610,2.82422,-16.5015,0.00329125,0.0054746,0.0040961,0.00862201,0.000143848,0.915629,0.00570066,0.0282373,1301,414,2.82416,16.5015
84,610,2.88818,-16.4708,0.00384183,0.00589401,0.00436343,0.00935037,0.00038546,0.900878,0.00610915,0.030577,1308,414,2.88812,16.4708
91,610,2.89966,-16.4533,0.00392802,0.00586722,0.00421326,0.00922101,0.00057423,0.898494,0.00596515,0.0269028,1315,414,2.89963,16.4533
98,610,2.95801,-16.4267,0.00376265,0.0056466,0.00402632,0.00883967,0.000569582,0.900308,0.00571273,0.0249681,1322,414,2.95805,16.4267
105,610,2.94275,-16.3805,0.00356855,0.00508862,0.00359184,0.00799995,0.000657219,0.88966,0.00512829,0.019123,1329,414,2.9427,16.3805
112,610,2.91504,-16.3565,0.00320439,0.00412841,0.00296654,0.0066687,0.000664094,0.862647,0.0042418,0.0127227,1336,414,2.91501,16.3565
119,610,2.91638,-16.3017,0.00254909,0.00303179,0.00222091,0.00502442,0.000556459,0.839523,0.0031804,0.0175335,1343,414,2.91643,16.3017
126,610,2.90454,-16.2405,0.00209487,0.00183862,0.0015302,0.0035023,0.000431193,0.74363,0.00220523,0.0236819,1350,414,2.90453,16.2405
133,610,2.97205,-16.1733,0.00203412,0.000334183,0.000855295,0.00238996,-2.16587e-05,0.394262,0.00160057,0.0192384,1357,414,2.97208,16.1733
140,610,3.03381,-16.0949,0.00185891,-0.00109693,0.000386024,0.00190849,-0.00114651,0.127743,0.001782,0.0148821,1364,414,3.0338,16.0949
147,610,2.98389,-16.013,0.00151388,-0.00239512,2.3293e-05,0.00151402,-0.00239526,0.00595853,0.00227606,0.0156392,1371,414,2.98385,16.013
154,610,2.96069,-15.9163,0.00139482,-0.00358139,-0.000370339,0.00142224,-0.0036088,-0.0738794,0.00299472,0.0204486,1378,414,2.96067,15.9163
161,610,2.98328,-15.8346,0.0015908,-0.00385781,-0.000602676,0.00165666,-0.00392368,-0.108858,0.00330925,0.0244985,1385,414,2.98331,15.8346
168,610,3.03955,-15.7657,0.00158919,-0.00368101,-0.000623647,0.00166198,-0.00375381,-0.116197,0.00320361,0.0247391,1392,414,3.0395,15.7657
175,610,3.08459,-15.6674,0.00129037,-0.0034392,-0.000916814,0.00146187,-0.00361071,-0.184927,0.00301498,0.0197883,1399,414,3.08456,15.6674
182,610,3.09607,-15.5771,0.00064484,-0.00359908,-0.00129351,0.00100801,-0.00396225,-0.273717,0.00303385,0.0141862,1406,414,3.09605,15.5771
189,610,3.10889,-15.4773,0.000411478,-0.00350278,-0.00170741,0.00105158,-0.00414288,-0.358679,0.0031711,0.0132078,1413,414,3.10887,15.4773
196,610,3.11328,-15.3599,0.000741507,-0.00259734,-0.00163069,0.00140578,-0.00326161,-0.386831,0.00276481,0.0132378,1420,414,3.11328,15.3599
203,610,3.10474,-15.2355,0.000960667,-0.00164737,-0.00163709,0.00174962,-0.00243633,-0.449083,0.00242758,0.0130628,1427,414,3.10473,15.2355
210,610,3.11816,-15.1237,0.000736998,-0.000858334,-0.0016359,0.00175935,-0.00188068,-0.558559,0.00210196,0.0101225,1434,414,3.11818,15.1237
217,610,3.13904,-14.9858,0.000415854,-0.000122754,-0.00149684,0.00166742,-0.00137432,-0.696393,0.00175887,0.0155404,1441,414,3.13905,14.9858
224,610,3.13892,-14.877,0.000205419,0.000350204,-0.00119671,0.00147671,-0.000921088,-0.815608,0.0013967,0.0190425,1448,414,3.13891,14.877
231,610,3.13672,-14.7743,0.000153623,0.00080863,-0.000860676,0.00140201,-0.000439754,-0.967198,0.00111067,0.0157043,1455,414,3.1367,14.7743
238,610,3.14429,-14.6064,0.000258096,0.00125984,-0.000470512,0.00144618,7.17608e-05,-1.19372,0.000941111,0.0111609,1462,414,3.14432,14.6064
245,610,3.16431,-14.4521,0.000402537,0.00165732,-0.000138903,0.00167251,0.000387345,-1.46185,0.00101094,0.0125091,1469,414,3.16431,14.452
252,610,3.16919,-14.2839,0.000597165,0.00202519,0.000183005,0.00204827,0.000574085,1.44534,0.00122004,0.0146158,1476,414,3.16919,14.2839
259,610,3.16614,-14.1139,0.000772425,0.00228911,0.000537954,0.00246054,0.000600995,1.2623,0.00148124,0.0124813,1483,414,3.16617,14.1139
266,610,3.18542,-13.9532,0.00101276,0.00241814,0.00093335,0.00288375,0.000547155,1.10807,0.00176856,0.0119582,1490,414,3.18546,13.9532
273,610,3.16772,-13.7877,0.00136551,0.00252844,0.00140666,0.00346907,0.000424873,0.981385,0.00218491,0.00996953,1497,414,3.16776,13.7877
280,610,3.13733,-13.5937,0.00176195,0.00258668,0.00194295,0.00416054,0.000188094,0.889965,0.00271317,0.0094075,1504,414,3.13734,13.5937
287,610,3.11487,-13.4213,0.00222591,0.0023492,0.00260946,0.00489775,-0.000322634,0.797208,0.00337785,0.0120777,1511,414,3.11481,13.4213
294,610,3.13196,-13.2478,0.00266413,0.00213544,0.00321273,0.00562337,-0.000823803,0.744351,0.00405153,0.0107239,1518,414,3.13194,13.2478
301,610,3.15625,-13.0818,0.00314421,0.00181745,0.00389186,0.00642883,-0.00146717,0.700983,0.00484949,0.0101723,1525,414,3.15622,13.0818
308,610,3.15332,-12.9017,0.00367293,0.00150906,0.00465311,0.00736824,-0.00218625,0.671169,0.0057804,0.0122761,1532,414,3.15334,12.9017
315,610,3.12927,-12.718,0.00411378,0.00106013,0.00535991,0.00816008,-0.00298618,0.646643,0.00666239,0.0133608,1539,414,3.12924,12.7181
322,610,3.10742,-12.4965,0.00441059,0.00066087,0.00605163,0.00887113,-0.00379968,0.635182,0.00750828,0.0129836,1546,414,3.10745,12.4965
329,610,3.08435,-12.278,0.00448339,0.000476402,0.0065757,0.00935404,-0.00439425,0.637525,0.00810792,0.0114574,1553,414,3.08434,12.278
336,610,3.08069,-12.0564,0.00421979,0.000352798,0.00664111,0.00920314,-0.00463055,0.643744,0.00813103,0.0108088,1560,414,3.08065,12.0564
343,610,3.09509,-11.8495,0.00392929,0.000105128,0.00658545,0.00887463,-0.00484021,0.644108,0.00803166,0.0231153,1567,414,3.09505,11.8494
350,610,3.13684,-11.6419,0,0,0,0,0,0,0,-1,1574,414,3.13681,11.6419
357,610,3.13342,-11.2201,0,0,0,0,0,0,0,-1,1581,414,3.1334,11.2201
364,610,3.23669,-11.0355,0,0,0,0,0,0,0,-1,1588,414,3.23675,11.0355
371,610,3.12439,-10.7221,0,0,0,0,0,0,0,-1,1595,414,3.12439,10.7221
378,610,3.02527,-10.431,0,0,0,0,0,0,0,-1,1602,414,3.02527,10.431
385,610,2.57104,-10.3878,0,0,0,0,0,0,0,-1,1609,414,2.57109,10.3878
392,610,2.35229,-10.3207,0,0,0,0,0,0,0,-1,1616,414,2.35227,10.3207
399,610,3.03833,-2.82547,0,0,0,0,0,0,0,-1,1623,414,3.03827,2.82546
406,610,2.91687,-2.9166,0,0,0,0,0,0,0,-1,1630,414,2.91688,2.91659
413,610,3.01929,-3.20306,0,0,0,0,0,0,0,-1,1637,414,3.01929,3.20306
420,610,4.78149,-3.64041,0,0,0,0,0,0,0,-1,1644,414,4.78152,3.64042
427,610,5.20764,-4.67545,0,0,0,0,0,0,0,-1,1651,414,5.20759,4.67545
434,610,5.39233,-5.45441,0,0,0,0,0,0,0,-1,1658,414,5.39228,5.4544
441,610,0,0,0,0,0,0,0,0,0,-1,1665,414,0,0
448,610,0,0,0,0,0,0,0,0,0,-1,1672,414,0,0
455,610,0,0,0,0,0,0,0,0,0,-1,1679,414,0,0
462,610,0,0,0,0,0,0,0,0,0,-1,1686,414,0,0
469,610,0,0,0,0,0,0,0,0,0,-1,1693,414,0,0
476,610,0,0,0,0,0,0,0,0,0,-1,1700,414,0,0
483,610,0,0,0,0,0,0,0,0,0,-1,1707,414,0,0
490,610,0,0,0,0,0,0,0,0,0,-1,1714,414,0,0
497,610,0,0,0,0,0,0,0,0,0,-1,1721,414,0,0
504,610,0,0,0,0,0,0,0,0,0,-1,1728,414,0,0
511,610,0,0,0,0,0,0,0,0,0,-1,1735,414,0,0
518,610,0,0,0,0,0,0,0,0,0,-1,1742,414,0,0
525,610,0,0,0,0,0,0,0,0,0,-1,1749,414,0,0
532,610,0,0,0,0,0,0,0,0,0,-1,1756,414,0,0
539,610,0,0,0,0,0,0,0,0,0,-1,1763,414,0,0
546,610,0,0,0,0,0,0,0,0,0,-1,1770,414,0,0
553,610,0,0,0,0,0,0,0,0,0,-1,1777,414,0,0
560,610,0,0,0,0,0,0,0,0,0,-1,1784,414,0,0
567,610,0,0,0,0,0,0,0,0,0,-1,1791,414,0,0
574,610,0,0,0,0,0,0,0,0,0,-1,1798,414,0,0
581,610,0,0,0,0,0,0,0,0,0,-1,1805,414,0,0
588,610,0,0,0,0,0,0,0,0,0,-1,1812,414,0,0
595,610,0,0,0,0,0,0,0,0,0,-1,1819,414,0,0
602,610,0,0,0,0,0,0,0,0,0,-1,1826,414,0,0
609,610,0,0,0,0,0,0,0,0,0,-1,1833,414,0,0
616,610,0,0,0,0,0,0,0,0,0,-1,1840,414,0,0
623,610,0,0,0,0,0,0,0,0,0,-1,1847,414,0,0
630,610,0,0,0,0,0,0,0,0,0,-1,1854,414,0,0
637,610,0,0,0,0,0,0,0,0,0,-1,1861,414,0,0
644,610,0,0,0,0,0,0,0,0,0,-1,1868,414,0,0
651,610,0,0,0,0,0,0,0,0,0,-1,1875,414,0,0
658,610,0,0,0,0,0,0,0,0,0,-1,1882,414,0,0
665,610,0,0,0,0,0,0,0,0,0,-1,1889,414,0,0
672,610,0,0,0,0,0,0,0,0,0,-1,1896,414,0,0
679,610,0,0,0,0,0,0,0,0,0,-1,1903,414,0,0
686,610,0,0,0,0,0,0,0,0,0,-1,1910,414,0,0
693,610,0,0,0,0,0,0,0,0,0,-1,1917,414,0,0
700,610,0,0,0,0,0,0,0,0,0,-1,1924,414,0,0
707,610,0,0,0,0,0,0,0,0,0,-1,1931,414,0,0
714,610,0,0,0,0,0,0,0,0,0,-1,1938,414,0,0
721,610,0,0,0,0,0,0,0,0,0,-1,1945,414,0,0
728,610,0,0,0,0,0,0,0,0,0,-1,1952,414,0,0
735,610,0,0,0,0,0,0,0,0,0,-1,1959,414,0,0
742,610,0,0,0,0,0,0,0,0,0,-1,1966,414,0,0
749,610,0,0,0,0,0,0,0,0,0,-1,1973,414,0,0
756,610,0,0,0,0,0,0,0,0,0,-1,1980,414,0,0
763,610,0,0,0,0,0,0,0,0,0,-1,1987,414,0,0
770,610,0,0,0,0,0,0,0,0,0,-1,1994,414,0,0
777,610,0,0,0,0,0,0,0,0,0,-1,2001,414,0,0
784,610,0,0,0,0,0,0,0,0,0,-1,2008,414,0,0
791,610,0,0,0,0,0,0,0,0,0,-1,2015,414,0,0
798,610,0,0,0,0,0,0,0,0,0,-1,2022,414,0,0
805,610,0,0,0,0,0,0,0,0,0,-1,2029,414,0,0
812,610,0,0,0,0,0,0,0,0,0,-1,2036,414,0,0
-700,603,0,0,0,0,0,0,0,0,0,-1,524,421,0,0
-693,603,0,0,0,0,0,0,0,0,0,-1,531,421,0,0
-686,603,0,0,0,0,0,0,0,0,0,-1,538,421,0,0
-679,603,0,0,0,0,0,0,0,0,0,-1,545,421,0,0
-672,603,0,0,0,0,0,0,0,0,0,-1,552,421,0,0
-665,603,0,0,0,0,0,0,0,0,0,-1,559,421,0,0
-658,603,0,0,0,0,0,0,0,0,0,-1,566,421,0,0
-651,603,0,0,0,0,0,0,0,0,0,-1,573,421,0,0
-644,603,0,0,0,0,0,0,0,0,0,-1,580,421,0,0
-637,603,0,0,0,0,0,0,0,0,0,-1,587,421,0,0
-630,603,0,0,0,0,0,0,0,0,0,-1,594,421,0,0
-623,603,0,0,0,0,0,0,0,0,0,-1,601,421,0,0
-616,603,0,0,0,0,0,0,0,0,0,-1,608,421,0,0
-609,603,0,0,0,0,0,0,0,0,0,-1,615,421,0,0
-602,603,0,0,0,0,0,0,0,0,0,-1,622,421,0,0
-595,603,0,0,0,0,0,0,0,0,0,-1,629,421,0,0
-588,603,0,0,0,0,0,0,0,0,0,-1,636,421,0,0
-581,603,0,0,0,0,0,0,0,0,0,-1,643,421,0,0
-574,603,0,0,0,0,0,0,0,0,0,-1,650,421,0,0
-567,603,0,0,0,0,0,0,0,0,0,-1,657,421,0,0
-560,603,0,0,0,0,0,0,0,0,0,-1,664,421,0,0
-553,603,0,0,0,0,0,0,0,0,0,-1,671,421,0,0
-546,603,0,0,0,0,0,0,0,0,0,-1,678,421,0,0
-539,603,0,0,0,0,0,0,0,0,0,-1,685,421,0,0
-532,603,0,0,0,0,0,0,0,0,0,-1,692,421,0,0
-525,603,0,0,0,0,0,0,0,0,0,-1,699,421,0,0
-518,603,0,0,0,0,0,0,0,0,0,-1,706,421,0,0
-511,603,0,0,0,0,0,0,0,0,0,-1,713,421,0,0
-504,603,0,0,0,0,0,0,0,0,0,-1,720,421,0,0
-497,603,0,0,0,0,0,0,0,0,0,-1,727,421,0,0
-490,603,0,0,0,0,0,0,0,0,0,-1,734,421,0,0
-483,603,0,0,0,0,0,0,0,0,0,-1,741,421,0,0
-476,603,0,0,0,0,0,0,0,0,0,-1,748,421,0,0
-469,603,0,0,0,0,0,0,0,0,0,-1,755,421,0,0
-462,603,0,0,0,0,0,0,0,0,0,-1,762,421,0,0
-455,603,0,0,0,0,0,0,0,0,0,-1,769,421,0,0
-448,603,0,0,0,0,0,0,0,0,0,-1,776,421,0,0
-441,603,0,0,0,0,0,0,0,0,0,-1,783,421,0,0
-434,603,0,0,0,0,0,0,0,0,0,-1,790,421,0,0
-427,603,0,0,0,0,0,0,0,0,0,-1,797,421,0,0
-420,603,0,0,0,0,0,0,0,0,0,-1,804,421,0,0
-413,603,0,0,0,0,0,0,0,0,0,-1,811,421,0,0
-406,603,0,0,0,0,0,0,0,0,0,-1,818,421,0,0
-399,603,0,0,0,0,0,0,0,0,0,-1,825,421,0,0
-392,603,0,0,0,0,0,0,0,0,0,-1,832,421,0,0
-385,603,0,0,0,0,0,0,0,0,0,-1,839,421,0,0
-378,603,0,0,0,0,0,0,0,0,0,-1,846,421,0,0
-371,603,0,0,0,0,0,0,0,0,0,-1,853,421,0,0
-364,603,0,0,0,0,0,0,0,0,0,-1,860,421,0,0
-357,603,0,0,0,0,0,0,0,0,0,-1,867,421,0,0
-350,603,0,0,0,0,0,0,0,0,0,-1,874,421,0,0
-343,603,0,0,0,0,0,0,0,0,0,-1,881,421,0,0
-336,603,0,0,0,0,0,0,0,0,0,-1,888,421,0,0
-329,603,4.6095,-8.85309,0,0,0,0,0,0,0,-1,895,421,4.60952,8.8531
-322,603,0.71051,-13.0377,0,0,0,0,0,0,0,-1,902,421,0.710527,13.0377
-315,603,0.859131,-12.5952,0.0883374,-0.115087,0.107819,0.134849,-0.161599,0.407268,0.171387,0.0463243,909,421,0.85915,12.5952
-308,603,1.1261,-12.3507,0.0731735,-0.100889,0.0864105,0.108785,-0.1365,0.39091,0.141917,0.0455903,916,421,1.12607,12.3507
-301,603,1.43842,-12.1863,0.061018,-0.0868481,0.069783,0.0887499,-0.11458,0.378265,0.117708,0.0462434,923,421,1.43841,12.1863
-294,603,1.76147,-11.5354,0,0,0,0,0,0,0,-1,930,421,1.76146,11.5354
-287,603,3.80811,-9.60947,0,0,0,0,0,0,0,-1,937,421,3.80809,9.60946
-280,603,2.37079,-10.1415,0,0,0,0,0,0,0,-1,944,421,2.37081,10.1416
-273,603,2.63763,-10.5599,0,0,0,0,0,0,0,-1,951,421,2.63763,10.5599
-266,603,2.99304,-10.8534,0,0,0,0,0,0,0,-1,958,421,2.99306,10.8534
-259,603,3.34851,-11.1468,0,0,0,0,0,0,0,-1,965,421,3.3485,11.1468
-252,603,2.28406,-11.8452,0.0076619,0.00121614,0.00015766,0.00766576,0.00121228,0.0244399,0.00475817,0.0417141,972,421,2.28409,11.8452
-245,603,2.28247,-12.0423,0.002145,0.00601715,-0.00251231,0.00725283,0.000909306,-1.11369,0.00456243,0.0320195,979,421,2.2825,12.0423
-238,603,2.32758,-12.2126,-0.00174144,0.0060283,-0.00204676,0.00653449,-0.00224763,-1.32835,0.00526787,0.0195705,986,421,2.3276,12.2126
-231,603,2.3125,-12.4389,-0.00373817,0.00418106,-0.00140076,0.00442153,-0.00397863,-1.40078,0.00485208,0.0132602,993,421,2.31248,12.4389
-224,603,2.27423,-12.6555,-0.00473012,0.00254615,-0.000950355,0.00266822,-0.0048522,-1.44304,0.00440253,0.0131075,1000,421,2.27424,12.6555
-217,603,2.26294,-12.8321,-0.00533664,0.000716033,-0.000473458,0.000752844,-0.00537345,-1.4932,0.00385781,0.0120436,1007,421,2.26295,12.8321
-210,603,2.28217,-13.0278,-0.00558102,-0.000593775,-0.000156484,-0.00058887,-0.00558592,-1.53946,0.003544,0.0103502,1014,421,2.2822,13.0278
-203,603,2.28503,-13.2257,-0.00540209,-0.00152799,8.87586e-05,-0.00152596,-0.00540413,1.5479,0.00321708,0.0158577,1021,421,2.28506,13.2257
-196,603,2.29187,-13.4393,-0.00508871,-0.00225788,0.000278476,-0.00223075,-0.00511584,1.47366,0.00296168,0.016909,1028,421,2.29193,13.4393
-189,603,2.28125,-13.5737,-0.00483494,-0.00289009,0.000471318,-0.00278189,-0.00494314,1.34514,0.00286141,0.0144031,1035,421,2.28126,13.5737
-182,603,2.26025,-13.7523,-0.00394097,-0.00307843,0.000275115,-0.00299815,-0.00402125,1.28688,0.00241321,0.0105015,1042,421,2.26031,13.7523
-175,603,2.23853,-13.9216,-0.00277401,-0.00324937,6.39654e-05,-0.00276555,-0.00325782,0.131447,0.00202781,0.0105713,1049,421,2.23851,13.9216
-168,603,2.21326,-14.0515,-0.00172073,-0.00315832,-0.000106077,-0.00171295,-0.0031661,-0.0732594,0.00183,0.0134287,1056,421,2.21331,14.0515
-161,603,2.20032,-14.2142,-0.000826771,-0.00290517,-0.000274269,-0.000791187,-0.00294076,-0.12902,0.00175719,0.0136174,1063,421,2.20036,14.2142
-154,603,2.20056,-14.3939,-4.12737e-05,-0.00251752,-0.000491479,5.27069e-05,-0.0026115,-0.188939,0.00175883,0.0133519,1070,421,2.20061,14.3939
-147,603,2.22754,-14.536,0.000853478,-0.0021032,-0.000753631,0.00103449,-0.00228421,-0.235721,0.00196081,0.0133651,1077,421,2.22752,14.536
-140,603,2.25806,-14.6643,0.00155126,-0.00166634,-0.00104149,0.00185895,-0.00197403,-0.287263,0.0022133,0.0111143,1084,421,2.2581,14.6644
-133,603,2.24658,-14.8022,0.00203531,-0.00123843,-0.00122114,0.00244063,-0.00164375,-0.320474,0.00237303,0.0113337,1091,421,2.24659,14.8022
-126,603,2.22437,-14.924,0.00236059,-0.000822279,-0.00132412,0.00283941,-0.0013011,-0.346984,0.0024449,0.0103199,1098,421,2.22434,14.924
-119,603,2.25037,-15.0384,0.00259242,-0.000465488,-0.00147153,0.00318552,-0.00105859,-0.383132,0.00255084,0.0108699,1105,421,2.2504,15.0384
-112,603,2.24426,-15.1608,0.00281881,-0.000225637,-0.00152156,0.00344886,-0.000855692,-0.39259,0.00263127,0.016338,1112,421,2.2443,15.1608
-105,603,2.24512,-15.3118,0.00305156,3.42067e-05,-0.00150959,0.00367712,-0.000591355,-0.392851,0.00267045,0.0163275,1119,421,2.24509,15.3118
-98,603,2.24719,-15.419,0.00328645,0.000445701,-0.00151796,0.00394494,-0.000212783,-0.409297,0.00270368,0.012502,1126,421,2.24722,15.419
-91,603,2.27039,-15.5138,0.00344339,0.000828247,-0.00157264,0.00418104,9.05981e-05,-0.438584,0.00275766,0.00854061,1133,421,2.27041,15.5138
-84,603,2.29565,-15.6305,0.00341383,0.000983908,-0.00149143,0.00412254,0.000275203,-0.443599,0.00266137,0.00879306,1140,421,2.29566,15.6305
-77,603,2.31555,-15.7488,0.00342755,0.00106019,-0.00116167,0.00390236,0.000585385,-0.388008,0.00243006,0.0117343,1147,421,2.31551,15.7488
-70,603,2.40295,-16.0035,0.0038241,0.000733923,-0.000845794,0.00404045,0.000517573,-0.250425,0.00253876,0.0342727,1154,421,2.40299,16.0035
-63,603,2.30701,-15.9214,0,0,0,0,0,0,0,-1,1161,421,2.30695,15.9214
-56,603,2.30127,-15.9913,0,0,0,0,0,0,0,-1,1168,421,2.30123,15.9913
-49,603,2.36914,-16.058,0,0,0,0,0,0,0,-1,1175,421,2.36913,16.058
-42,603,2.40784,-16.123,0,0,0,0,0,0,0,-1,1182,421,2.40789,16.123
-35,603,2.32129,-16.1656,-0.00311004,-0.00475452,0.00422521,0.000372188,-0.00823675,0.689298,0.00561934,0.0424357,1189,421,2.32127,16.1656
-28,603,2.32922,-16.2043,-0.00357943,-0.00561964,0.00375241,-0.000710936,-0.00848813,0.652679,0.00543729,0.0253499,1196,421,2.3292,16.2044
-21,603,2.39404,-16.2649,-0.00402874,-0.00585382,0.00293393,-0.00186872,-0.00801385,0.634626,0.00484141,0.020563,1203,421,2.39407,16.2649
-14,603,2.49146,-16.3026,-0.00431494,-0.00587072,0.00171352,-0.00321101,-0.00697465,0.572323,0.00403103,0.020798,1210,421,2.49145,16.3025
-7,603,2.53845,-16.3439,-0.00436567,-0.00548612,-0.000148771,-0.00434625,-0.00550554,-0.129782,0.00335144,0.0223139,1217,421,2.5384,16.3439
0,603,2.54321,-16.4186,-0.00458726,-0.0049815,-0.00191952,-0.00285476,-0.006714,-0.734232,0.00389076,0.0261504,1224,421,2.54319,16.4186
7,603,2.57214,-16.3876,-0.00488221,-0.0044328,-0.00345508,-0.00119512,-0.00811988,-0.817871,0.00506213,0.0325735,1231,421,2.57214,16.3876
14,603,2.66296,-16.3696,-0.0045055,-0.00360331,-0.00427748,0.000246793,-0.00835561,-0.837933,0.00565446,0.0288697,1238,421,2.66297,16.3696
21,603,2.66418,-16.4045,-0.00390598,-0.00268879,-0.00450033,0.00124391,-0.00783868,-0.852607,0.00568596,0.0207126,1245,421,2.66421,16.4045
28,603,2.72656,-16.4791,-0.00343268,-0.00136369,-0.00403874,0.00177094,-0.00656731,-0.910774,0.00507263,0.0225916,1252,421,2.72653,16.4791
35,603,2.71777,-16.4734,-0.00263128,0.00027249,-0.00312753,0.0022687,-0.0046275,-1.00271,0.00405841,0.0317105,1259,421,2.71781,16.4734
42,603,2.70996,-16.4782,-0.00106474,0.00211672,-0.0021057,0.00316501,-0.00211303,-1.10888,0.00306738,0.0290967,1266,421,2.70994,16.4782
49,603,2.75549,-16.5322,0.000528098,0.00396689,-0.000644807,0.00408382,0.000411166,-1.3914,0.00259636,0.016703,1273,421,2.75552,16.5322
56,603,2.72961,-16.5141,0.00172046,0.00545697,0.00127619,0.00585124,0.00132619,1.27115,0.0035425,0.0299146,1280,421,2.72964,16.5141
63,603,2.76086,-16.327,0.00256362,0.00685835,0.00302345,0.00841941,0.00100255,1.09418,0.0053104,0.0395809,1287,421,2.7608,16.327
70,603,2.72949,-16.3188,0.00372931,0.00814955,0.00478423,0.0112095,0.000669376,1.00178,0.00726016,0.0452867,1294,421,2.7295,16.3188
77,603,2.62598,-16.3273,0,0,0,0,0,0,0,-1,1301,421,2.62594,16.3273
84,603,2.9873,-16.4153,0,0,0,0,0,0,0,-1,1308,421,2.98731,16.4153
91,603,3.05359,-16.4278,0.0070839,0.0103595,0.00706553,0.0159745,0.00146882,0.899287,0.0101954,0.0478877,1315,421,3.05363,16.4278
98,603,3.09814,-16.344,0.00730475,0.0103772,0.00733077,0.016331,0.00135097,0.888683,0.0104661,0.0457311,1322,421,3.09813,16.344
105,603,3.13147,-16.2571,0.00734965,0.00989509,0.00727863,0.0160114,0.0012333,0.871952,0.0102879,0.0386567,1329,421,3.13149,16.2571
112,603,3.03394,-16.2642,0.00719818,0.00890656,0.00704273,0.0151467,0.000958024,0.845747,0.00979409,0.0308917,1336,421,3.03393,16.2642
119,603,2.97449,-16.2384,0.00680374,0.007776,0.00674428,0.0140516,0.000528096,0.821376,0.00919679,0.0320796,1343,421,2.97452,16.2384
126,603,3.09888,-16.1738,0.00666468,0.00652286,0.00649836,0.0130925,9.5027e-05,0.779943,0.00869684,0.0386352,1350,421,3.0989,16.1738
133,603,3.25476,-16.1064,0.0068882,0.00490403,0.00620594,0.0121809,-0.000388624,0.706138,0.00825316,0.0347161,1357,421,3.25477,16.1065
140,603,3.21179,-16.0194,0.0068463,0.00315514,0.0059639,0.0112437,-0.00124222,0.635342,0.00794229,0.0220247,1364,421,3.2118,16.0194
147,603,3.11707,-15.9585,0.0064252,0.00137045,0.0055707,0.010015,-0.00221939,0.572439,0.00752637,0.0164905,1371,421,3.11704,15.9585
154,603,3.05469,-15.8868,0.0060396,-0.000484082,0.00494661,0.008703,-0.00314749,0.493918,0.00708807,0.0244033,1378,421,3.05465,15.8868
161,603,3.07532,-15.8083,0.00591802,-0.00151516,0.00395634,0.00762966,-0.0032268,0.408317,0.00643751,0.0292071,1385,421,3.07537,15.8084
168,603,3.17004,-15.7306,0.00537869,-0.00204809,0.00304698,0.00646877,-0.00313818,0.34357,0.00565659,0.0279343,1392,421,3.17006,15.7306
175,603,3.30823,-15.6426,0.004277,-0.00263994,0.00157566,0.00461902,-0.00298196,0.213748,0.00442222,0.0296249,1399,421,3.30828,15.6426
182,603,3.37415,-15.5293,0.0025502,-0.00386389,-0.000263382,0.00256099,-0.00387468,-0.0409712,0.00374136,0.0359905,1406,421,3.37413,15.5293
189,603,3.3324,-15.4233,0.00126013,-0.00472858,-0.00197066,0.00185042,-0.00531887,-0.291033,0.00429763,0.033224,1413,421,3.33244,15.4233
196,603,3.26807,-15.2738,0.000933728,-0.0040869,-0.00248164,0.00195331,-0.00510649,-0.389827,0.00420931,0.0248275,1420,421,3.26806,15.2738
203,603,3.2384,-15.187,0.00130977,-0.00272327,-0.00255114,0.00254512,-0.00395862,-0.450956,0.00378438,0.0133973,1427,421,3.23837,15.187
210,603,3.24646,-15.1318,0.00107224,-0.00163843,-0.00260896,0.0026569,-0.0032231,-0.545838,0.00340006,0.0101749,1434,421,3.2465,15.1318
217,603,3.245,-14.9874,0.000667068,-0.000633679,-0.00244315,0.00254493,-0.00251154,-0.655313,0.00291937,0.012796,1441,421,3.24494,14.9874
224,603,3.25708,-14.8449,0.000392752,2.7814e-05,-0.00205367,0.00227204,-0.00185147,-0.741089,0.00238483,0.0165859,1448,421,3.25702,14.8449
231,603,3.25195,-14.7214,0.000293542,0.000657604,-0.00163975,0.00212539,-0.00117425,-0.840678,0.00193125,0.0151545,1455,421,3.25201,14.7214
238,603,3.26978,-14.5811,0.000378961,0.00117512,-0.00119609,0.00203763,-0.000483549,-0.946042,0.00154504,0.0111453,1462,421,3.26976,14.5811
245,603,3.29834,-14.4373,0.00052892,0.00163725,-0.000791711,0.00204947,0.000116699,-1.09075,0.00132913,0.0114518,1469,421,3.29838,14.4373
252,603,3.31421,-14.2916,0.000695723,0.0020143,-0.000408357,0.00213052,0.000579501,-1.29352,0.00127197,0.010559,1476,421,3.31417,14.2916
259,603,3.31042,-14.1207,0.000820266,0.0022232,-2.81647e-05,0.00222376,0.000819701,-1.55073,0.00129858,0.0104444,1483,421,3.31039,14.1207
266,603,3.31152,-13.9486,0.000969775,0.00229617,0.000334582,0.00237579,0.000890157,1.33718,0.00138595,0.0109514,1490,421,3.31151,13.9486
273,603,3.31934,-13.7859,0.00118184,0.00233313,0.000706634,0.00266891,0.000846055,1.1272,0.00157492,0.0100144,1497,421,3.31931,13.7859
280,603,3.31604,-13.6161,0.00142344,0.00233371,0.00115915,0.00312387,0.000633275,0.972474,0.00190687,0.0113559,1504,421,3.31605,13.6161
287,603,3.31323,-13.4405,0.00173005,0.00213675,0.00167176,0.00361748,0.000249322,0.845921,0.00233299,0.0106217,1511,421,3.31326,13.4405
294,603,3.31592,-13.2625,0.00201436,0.00189722,0.00212387,0.00408047,-0.000168881,0.771613,0.00277832,0.00936483,1518,421,3.31595,13.2625
301,603,3.32397,-13.0832,0.00229476,0.00154451,0.00260973,0.00455618,-0.000716914,0.714016,0.00330247,0.0114097,1525,421,3.32393,13.0832
308,603,3.3302,-12.8893,0.00262468,0.00127199,0.00316575,0.00518553,-0.00128886,0.680159,0.00395723,0.0169067,1532,421,3.33015,12.8893
315,603,3.31531,-12.7039,0.00289963,0.000955691,0.00369131,0.00574479,-0.00188947,0.656664,0.00459117,0.0154205,1539,421,3.31536,12.7039
322,603,3.30359,-12.4881,0.00305242,0.000712058,0.00420147,0.00624362,-0.00247914,0.649582,0.00519006,0.0146179,1546,421,3.30362,12.4881
329,603,3.28101,-12.268,0.00302708,0.000643481,0.00460506,0.00659206,-0.0029215,0.658775,0.00562728,0.0106627,1553,421,3.28105,12.268
336,603,3.26855,-12.0757,0.00273817,0.000635587,0.00466974,0.00647349,-0.00309974,0.67468,0.00564035,0.00890015,1560,421,3.26854,12.0756
343,603,3.28357,-11.8686,0.00242936,0.000561205,0.00465691,0.00624495,-0.00325438,0.686422,0.0055743,0.0108013,1567,421,3.28354,11.8685
350,603,3.27112,-11.6426,0.00201429,0.000979216,0.00466494,0.00619031,-0.00319681,0.730153,0.00551075,0.0213632,1574,421,3.27113,11.6426
357,603,3.27832,-11.356,0.00139592,0.00162097,0.00461223,0.00612204,-0.00310515,0.797594,0.00542141,0.028425,1581,421,3.27827,11.356
364,603,3.27344,-11.1039,0.000545961,0.00243151,0.0043091,0.00589976,-0.00292229,0.893094,0.00518921,0.0301269,1588,421,3.27345,11.1038
371,603,3.23206,-10.8808,-0.0005117,0.00353678,0.0037766,0.00579743,-0.00277235,1.03141,0.00504947,0.0333367,1595,421,3.23207,10.8808
378,603,3.19324,-10.6468,-0.00191021,0.0046867,0.0028939,0.00577624,-0.00299975,1.21072,0.00515065,0.0423169,1602,421,3.19327,10.6468
385,603,3.00696,-10.4599,-0.00317784,0.00576075,0.00213358,0.00624391,-0.00366099,1.3481,0.00578304,0.0481002,1609,421,3.00693,10.4599
392,603,3.30273,-10.364,0,0,0,0,0,0,0,-1,1616,421,3.30279,10.364
399,603,2.38013,-5.37076,0,0,0,0,0,0,0,-1,1623,421,2.38016,5.37075
406,603,3.01917,-2.37219,0,0,0,0,0,0,0,-1,1630,421,3.01915,2.37219
413,603,2.38928,-2.41275,0,0,0,0,0,0,0,-1,1637,421,2.38926,2.41274
420,603,2.74866,-2.30066,0,0,0,0,0,0,0,-1,1644,421,2.74867,2.30065
427,603,7.11548,-3.35352,0,0,0,0,0,0,0,-1,1651,421,7.11549,3.35351
434,603,7.32153,-4.50525,0,0,0,0,0,0,0,-1,1658,421,7.32149,4.50525
441,603,3.18213,-0.250946,0,0,0,0,0,0,0,-1,1665,421,3.18212,0.250944
448,603,2.95667,-0.066925,0,0,0,0,0,0,0,-1,1672,421,2.95662,0.0669226
455,603,0,0,0,0,0,0,0,0,0,-1,1679,421,0,0
462,603,0,0,0,0,0,0,0,0,0,-1,1686,421,0,0
469,603,0,0,0,0,0,0,0,0,0,-1,1693,421,0,0
476,603,0,0,0,0,0,0,0,0,0,-1,1700,421,0,0
483,603,0,0,0,0,0,0,0,0,0,-1,1707,421,0,0
490,603,0,0,0,0,0,0,0,0,0,-1,1714,421,0,0
497,603,0,0,0,0,0,0,0,0,0,-1,1721,421,0,0
504,603,0,0,0,0,0,0,0,0,0,-1,1728,421,0,0
511,603,0,0,0,0,0,0,0,0,0,-1,1735,421,0,0
518,603,0,0,0,0,0,0,0,0,0,-1,1742,421,0,0
525,603,0,0,0,0,0,0,0,0,0,-1,1749,421,0,0
532,603,0,0,0,0,0,0,0,0,0,-1,1756,421,0,0
539,603,0,0,0,0,0,0,0,0,0,-1,1763,421,0,0
546,603,0,0,0,0,0,0,0,0,0,-1,1770,421,0,0
553,603,0,0,0,0,0,0,0,0,0,-1,1777,421,0,0
560,603,0,0,0,0,0,0,0,0,0,-1,1784,421,0,0
567,603,0,0,0,0,0,0,0,0,0,-1,1791,421,0,0
574,603,0,0,0,0,0,0,0,0,0,-1,1798,421,0,0
581,603,0,0,0,0,0,0,0,0,0,-1,1805,421,0,0
588,603,0,0,0,0,0,0,0,0,0,-1,1812,421,0,0
595,603,0,0,0,0,0,0,0,0,0,-1,1819,421,0,0
602,603,0,0,0,0,0,0,0,0,0,-1,1826,421,0,0
609,603,0,0,0,0,0,0,0,0,0,-1,1833,421,0,0
616,603,0,0,0,0,0,0,0,0,0,-1,1840,421,0,0
623,603,0,0,0,0,0,0,0,0,0,-1,1847,421,0,0
630,603,0,0,0,0,0,0,0,0,0,-1,1854,421,0,0
637,603,0,0,0,0,0,0,0,0,0,-1,1861,421,0,0
644,603,0,0,0,0,0,0,0,0,0,-1,1868,421,0,0
651,603,0,0,0,0,0,0,0,0,0,-1,1875,421,0,0
658,603,0,0,0,0,0,0,0,0,0,-1,1882,421,0,0
665,603,0,0,0,0,0,0,0,0,0,-1,1889,421,0,0
672,603,0,0,0,0,0,0,0,0,0,-1,1896,421,0,0
679,603,0,0,0,0,0,0,0,0,0,-1,1903,421,0,0
686,603,0,0,0,0,0,0,0,0,0,-1,1910,421,0,0
693,603,0,0,0,0,0,0,0,0,0,-1,1917,421,0,0
700,603,0,0,0,0,0,0,0,0,0,-1,1924,421,0,0
707,603,0,0,0,0,0,0,0,0,0,-1,1931,421,0,0
714,603,0,0,0,0,0,0,0,0,0,-1,1938,421,0,0
721,603,0,0,0,0,0,0,0,0,0,-1,1945,421,0,0
728,603,0,0,0,0,0,0,0,0,0,-1,1952,421,0,0
735,603,0,0,0,0,0,0,0,0,0,-1,1959,421,0,0
742,603,0,0,0,0,0,0,0,0,0,-1,1966,421,0,0
749,603,0,0,0,0,0,0,0,0,0,-1,1973,421,0,0
756,603,0,0,0,0,0,0,0,0,0,-1,1980,421,0,0
763,603,0,0,0,0,0,0,0,0,0,-1,1987,421,0,0
770,603,0,0,0,0,0,0,0,0,0,-1,1994,421,0,0
777,603,0,0,0,0,0,0,0,0,0,-1,2001,421,0,0
784,603,0,0,0,0,0,0,0,0,0,-1,2008,421,0,0
791,603,0,0,0,0,0,0,0,0,0,-1,2015,421,0,0
798,603,0,0,0,0,0,0,0,0,0,-1,2022,421,0,0
805,603,0,0,0,0,0,0,0,0,0,-1,2029,421,0,0
812,603,0,0,0,0,0,0,0,0,0,-1,2036,421,0,0
-700,596,0,0,0,0,0,0,0,0,0,-1,524,428,0,0
-693,596,0,0,0,0,0,0,0,0,0,-1,531,428,0,0
-686,596,0,0,0,0,0,0,0,0,0,-1,538,428,0,0
-679,596,0,0,0,0,0,0,0,0,0,-1,545,428,0,0
-672,596,0,0,0,0,0,0,0,0,0,-1,552,428,0,0
-665,596,0,0,0,0,0,0,0,0,0,-1,559,428,0,0
-658,596,0,0,0,0,0,0,0,0,0,-1,566,428,0,0
-651,596,0,0,0,0,0,0,0,0,0,-1,573,428,0,0
-644,596,0,0,0,0,0,0,0,0,0,-1,580,428,0,0
-637,596,0,0,0,0,0,0,0,0,0,-1,587,428,0,0
-630,596,0,0,0,0,0,0,0,0,0,-1,594,428,0,0
-623,596,0,0,0,0,0,0,0,0,0,-1,601,428,0,0
-616,596,0,0,0,0,0,0,0,0,0,-1,608,428,0,0
-609,596,0,0,0,0,0,0,0,0,0,-1,615,428,0,0
-602,596,0,0,0,0,0,0,0,0,0,-1,622,428,0,0
-595,596,0,0,0,0,0,0,0,0,0,-1,629,428,0,0
-588,596,0,0,0,0,0,0,0,0,0,-1,636,428,0,0
-581,596,0,0,0,0,0,0,0,0,0,-1,643,428,0,0
-574,596,0,0,0,0,0,0,0,0,0,-1,650,428,0,0
-567,596,0,0,0,0,0,0,0,0,0,-1,657,428,0,0
-560,596,0,0,0,0,0,0,0,0,0,-1,664,428,0,0
-553,596,0,0,0,0,0,0,0,0,0,-1,671,428,0,0
-546,596,0,0,0,0,0,0,0,0,0,-1,678,428,0,0
-539,596,0,0,0,0,0,0,0,0,0,-1,685,428,0,0
-532,596,0,0,0,0,0,0,0,0,0,-1,692,428,0,0
-525,596,0,0,0,0,0,0,0,0,0,-1,699,428,0,0
-518,596,0,0,0,0,0,0,0,0,0,-1,706,428,0,0
-511,596,0,0,0,0,0,0,0,0,0,-1,713,428,0,0
-504,596,0,0,0,0,0,0,0,0,0,-1,720,428,0,0
-497,596,0,0,0,0,0,0,0,0,0,-1,727,428,0,0
-490,596,0,0,0,0,0,0,0,0,0,-1,734,428,0,0
-483,596,0,0,0,0,0,0,0,0,0,-1,741,428,0,0
-476,596,0,0,0,0,0,0,0,0,0,-1,748,428,0,0
-469,596,0,0,0,0,0,0,0,0,0,-1,755,428,0,0
-462,596,0,0,0,0,0,0,0,0,0,-1,762,428,0,0
-455,596,0,0,0,0,0,0,0,0,0,-1,769,428,0,0
-448,596,0,0,0,0,0,0,0,0,0,-1,776,428,0,0
-441,596,0,0,0,0,0,0,0,0,0,-1,783,428,0,0
-434,596,0,0,0,0,0,0,0,0,0,-1,790,428,0,0
-427,596,0,0,0,0,0,0,0,0,0,-1,797,428,0,0
-420,596,0,0,0,0,0,0,0,0,0,-1,804,428,0,0
-413,596,0,0,0,0,0,0,0,0,0,-1,811,428,0,0
-406,596,0,0,0,0,0,0,0,0,0,-1,818,428,0,0
-399,596,0,0,0,0,0,0,0,0,0,-1,825,428,0,0
-392,596,0,0,0,0,0,0,0,0,0,-1,832,428,0,0
-385,596,0,0,0,0,0,0,0,0,0,-1,839,428,0,0
-378,596,0,0,0,0,0,0,0,0,0,-1,846,428,0,0
-371,596,0,0,0,0,0,0,0,0,0,-1,853,428,0,0
-364,596,0,0,0,0,0,0,0,0,0,-1,860,428,0,0
-357,596,0,0,0,0,0,0,0,0,0,-1,867,428,0,0
-350,596,0,0,0,0,0,0,0,0,0,-1,874,428,0,0
-343,596,0,0,0,0,0,0,0,0,0,-1,881,428,0,0
-336,596,-2.27789,-15.8111,0,0,0,0,0,0,0,-1,888,428,-2.27789,15.8111
-329,596,-0.936462,-13.5532,0,0,0,0,0,0,0,-1,895,428,-0.936434,13.5532
-322,596,-0.406311,-12.5136,0.0968493,-0.106597,0.117657,0.15066,-0.160408,0.428952,0.179625,0.0477454,902,428,-0.406284,12.5136
-315,596,0.149475,-11.8634,0.0799128,-0.094019,0.0934122,0.120575,-0.134681,0.41056,0.147447,0.0496189,909,428,0.149455,11.8634
-308,596,0.464417,-11.5065,0.0660451,-0.0814885,0.0742143,0.0969172,-0.112361,0.394211,0.120936,0.048717,916,428,0.464416,11.5065
-301,596,0.860291,-11.2424,0.0545394,-0.0691308,0.0588397,0.0780606,-0.092652,0.380291,0.0986809,0.0451675,923,428,0.860301,11.2424
-294,596,1.42804,-10.9915,0.045888,-0.0567915,0.0456399,0.0632415,-0.074145,0.363346,0.0794034,0.0432927,930,428,1.42805,10.9915
-287,596,1.92584,-10.6534,0,0,0,0,0,0,0,-1,937,428,1.92582,10.6534
-280,596,2.41461,-10.4723,0,0,0,0,0,0,0,-1,944,428,2.41459,10.4723
-273,596,2.44714,-10.8064,0.021193,-0.0228689,0.015063,0.0258502,-0.0275261,0.299857,0.0308219,0.0448278,951,428,2.44714,10.8064
-266,596,2.45496,-11.1815,0.0150803,-0.0134084,0.00845388,0.0174001,-0.0157281,0.26781,0.0191347,0.036557,958,428,2.45495,11.1815
-259,596,2.21332,-11.546,0.0104503,-0.00504478,0.00296517,0.0109984,-0.00559282,0.182762,0.00974693,0.0325275,965,428,2.21331,11.546
-252,596,2.18073,-11.8123,0.00594444,0.00155677,-0.000409017,0.00598224,0.00151897,-0.0921616,0.00359058,0.0163206,972,428,2.18073,11.8123
-245,596,2.15399,-12.0451,0.00223354,0.00494414,-0.00227577,0.0062376,0.000940074,-1.05396,0.00388316,0.0119022,979,428,2.154,12.0451
-238,596,2.13745,-12.2561,-0.000596122,0.00500791,-0.00191017,0.00559706,-0.00118528,-1.27162,0.00418283,0.0107634,986,428,2.13745,12.2561
-231,596,2.11938,-12.4709,-0.00191263,0.00359061,-0.00138446,0.00391927,-0.00224129,-1.33772,0.00360051,0.012296,993,428,2.11939,12.4709
-224,596,2.08405,-12.6796,-0.00249781,0.00228011,-0.000984958,0.0024752,-0.0026929,-1.37527,0.00298468,0.0134077,1000,428,2.08404,12.6796
-217,596,2.07996,-12.8589,-0.00282358,0.000787041,-0.000581472,0.000878373,-0.00291491,-1.415,0.00229285,0.0137895,1007,428,2.07998,12.8589
-210,596,2.11615,-13.0463,-0.00290496,-0.000322332,-0.000268995,-0.000294612,-0.00293268,-1.46811,0.00186469,0.0107222,1014,428,2.11616,13.0463
-203,596,2.10071,-13.2239,-0.00274939,-0.00119404,5.48872e-05,-0.0011921,-0.00275133,1.53557,0.00159319,0.012969,1021,428,2.10069,13.2239
-196,596,2.10571,-13.4104,-0.00247788,-0.00182756,0.000325843,-0.00169239,-0.00261305,1.17757,0.00153042,0.0136973,1028,428,2.10566,13.4104
-189,596,2.09534,-13.5659,-0.00223057,-0.0023015,0.000561974,-0.00170294,-0.00282913,0.753883,0.00164467,0.0116425,1035,428,2.09529,13.5659
-182,596,2.07422,-13.7421,-0.00149349,-0.00240804,0.00043239,-0.00132143,-0.0025801,0.378717,0.00148977,0.011423,1042,428,2.07423,13.7421
-175,596,2.07422,-13.9104,-0.000573821,-0.00248907,0.000322219,-0.000521064,-0.00254182,0.162289,0.00155033,0.0139518,1049,428,2.07427,13.9104
-168,596,2.08887,-14.0413,0.000221682,-0.00232911,0.00021897,0.000240342,-0.00234777,0.0850152,0.00165113,0.0162765,1056,428,2.08886,14.0413
-161,596,2.08606,-14.1946,0.000882851,-0.00209108,8.29967e-05,0.000885165,-0.00209339,0.0278792,0.0017662,0.0144646,1063,428,2.08602,14.1947
-154,596,2.07214,-14.3746,0.00150721,-0.00183442,-0.000101622,0.0015103,-0.00183751,-0.0303733,0.00193593,0.0130963,1070,428,2.0722,14.3746
-147,596,2.08337,-14.5252,0.00221579,-0.00148364,-0.000375963,0.00225361,-0.00152147,-0.100261,0.00219316,0.0133573,1077,428,2.08337,14.5252
-140,596,2.11072,-14.6631,0.00272767,-0.00116682,-0.000678013,0.00284233,-0.00128148,-0.167531,0.00243707,0.0130449,1084,428,2.11068,14.6632
-133,596,2.12793,-14.8011,0.00308264,-0.000880943,-0.00093971,0.00329415,-0.00109245,-0.221386,0.0026368,0.0126681,1091,428,2.12787,14.8011
-126,596,2.1062,-14.9219,0.00343941,-0.000772206,-0.00111617,0.00371694,-0.00104973,-0.243697,0.00289208,0.0100828,1098,428,2.10617,14.9219
-119,596,2.12317,-15.0548,0.00376935,-0.000682953,-0.00138722,0.0041662,-0.0010798,-0.278634,0.00319874,0.0135504,1105,428,2.12322,15.0548
-112,596,2.13049,-15.1707,0.00407501,-0.000681207,-0.00156556,0.00454407,-0.00115027,-0.291101,0.00347682,0.0161402,1112,428,2.13051,15.1707
-105,596,2.12402,-15.3043,0.00437248,-0.000561884,-0.00175006,0.00493014,-0.00111955,-0.308483,0.00371659,0.0161771,1119,428,2.12404,15.3043
-98,596,2.14026,-15.41,0.00465116,-0.000159741,-0.00194112,0.00533669,-0.000845265,-0.339487,0.00387044,0.00984246,1126,428,2.14026,15.41
-91,596,2.15564,-15.531,0.00484585,0.000287669,-0.00218943,0.00572711,-0.000593596,-0.382668,0.00403054,0.00991065,1133,428,2.15569,15.531
-84,596,2.24902,-15.7374,0.00477953,0.00059488,-0.00223907,0.00575172,-0.000377309,-0.409632,0.00396624,0.0205883,1140,428,2.24904,15.7374
-77,596,2.24036,-15.7719,0,0,0,0,0,0,0,-1,1147,428,2.24031,15.7719
-70,596,2.33337,-16.2613,0,0,0,0,0,0,0,-1,1154,428,2.33332,16.2613
-63,596,1.95569,-12.2758,0,0,0,0,0,0,0,-1,1161,428,1.95563,12.2759
-56,596,1.60107,-10.5827,0,0,0,0,0,0,0,-1,1168,428,1.60108,10.5827
-49,596,1.59473,-10.0393,0,0,0,0,0,0,0,-1,1175,428,1.59472,10.0393
-42,596,1.99585,-6.6246,0,0,0,0,0,0,0,-1,1182,428,1.99586,6.62459
-35,596,1.98914,-16.0223,0,0,0,0,0,0,0,-1,1189,428,1.98916,16.0223
-28,596,2.17053,-16.014,0,0,0,0,0,0,0,-1,1196,428,2.17056,16.014
-21,596,2.24915,-16.0874,-0.00985494,-0.00741288,0.00723826,-0.00129339,-0.0159744,0.868957,0.0102457,0.0497238,1203,428,2.2491,16.0874
-14,596,2.3623,-16.1252,-0.00976869,-0.00730641,0.00542379,-0.00297579,-0.0140993,0.897001,0.00858136,0.0449986,1210,428,2.36232,16.1252
-7,596,2.52954,-16.3025,-0.00936806,-0.00672429,0.00276383,-0.00498249,-0.0111099,1.00846,0.00642562,0.0490022,1217,428,2.52952,16.3025
0,596,2.71692,-16.3725,0,0,0,0,0,0,0,-1,1224,428,2.71694,16.3725
7,596,2.7041,-16.2875,-0.00934041,-0.00522777,-0.00219067,-0.00427952,-0.0102887,-1.16228,0.00596808,0.0448585,1231,428,2.70411,16.2875
14,596,3.1001,-16.2383,-0.00864095,-0.00408338,-0.00366406,-0.00204728,-0.010677,-1.06359,0.00654325,0.0419098,1238,428,3.10008,16.2382
21,596,3.05627,-16.1689,-0.00759074,-0.00278132,-0.0043054,-0.000254586,-0.0101175,-1.04008,0.00666174,0.0434805,1245,428,3.05629,16.1689
28,596,2.8302,-16.3914,-0.00660955,-0.000964591,-0.00406624,0.00116275,-0.00873688,-1.08878,0.00624834,0.0440831,1252,428,2.83023,16.3914
35,596,2.79785,-16.3666,0,0,0,0,0,0,0,-1,1259,428,2.79788,16.3666
42,596,2.89014,-16.4077,-0.0026232,0.00381431,-0.00229863,0.00455082,-0.00335971,-1.26072,0.00458437,0.0456711,1266,428,2.89015,16.4077
49,596,2.85535,-16.5234,-7.47233e-05,0.00634769,-0.000823667,0.00645164,-0.000178675,-1.44525,0.00436187,0.0449199,1273,428,2.85532,16.5234
56,596,2.74231,-16.4997,0.00196361,0.00848857,0.00171372,0.00891128,0.0015409,1.32896,0.00549965,0.043148,1280,428,2.74234,16.4997
63,596,2.54651,-16.2455,0.00353761,0.0104722,0.00405641,0.0123412,0.00166855,1.13902,0.00773155,0.044995,1287,428,2.54646,16.2455
70,596,2.73145,-16.1652,0,0,0,0,0,0,0,-1,1294,428,2.73145,16.1652
77,596,4.09338,-17.238,0.00758153,0.0138867,0.00839051,0.0196974,0.00177089,0.965105,0.0125829,0.0462493,1301,428,4.09337,17.238
84,596,3.75342,-17.0009,0.00952858,0.0150089,0.00979819,0.0224429,0.00209459,0.921744,0.0143149,0.0474903,1308,428,3.75345,17.0009
91,596,3.1001,-16.3824,0,0,0,0,0,0,0,-1,1315,428,3.1001,16.3824
98,596,3.39844,-16.5326,0.0115073,0.0158202,0.0117639,0.0256236,0.00170386,0.876046,0.0165437,0.0462324,1322,428,3.39842,16.5326
105,596,3.2146,-16.156,0.0118171,0.0153724,0.012304,0.0260265,0.00116296,0.857141,0.0169766,0.0446795,1329,428,3.21459,16.156
112,596,3.17883,-16.1608,0.0119551,0.0143665,0.0126882,0.0259061,0.000415411,0.832768,0.017134,0.0377648,1336,428,3.17882,16.1608
119,596,3.00439,-16.1669,0.0119763,0.0132415,0.0130773,0.0257015,-0.000483665,0.809565,0.0172978,0.0421617,1343,428,3.00444,16.1669
126,596,3.60229,-16.1954,0.0123727,0.0120367,0.0135392,0.025745,-0.00133549,0.779194,0.0176254,0.0499973,1350,428,3.60227,16.1954
133,596,3.54944,-16.1127,0.0131112,0.0105419,0.0139248,0.0258105,-0.00215738,0.7394,0.0179694,0.0474334,1357,428,3.5494,16.1127
140,596,3.51062,-15.9368,0.013534,0.00894246,0.0142667,0.0256885,-0.00321203,0.705622,0.0182906,0.0418212,1364,428,3.51063,15.9368
147,596,3.18005,-15.785,0.0134975,0.00724504,0.0142677,0.0249775,-0.00423495,0.677547,0.018228,0.0365333,1371,428,3.18008,15.785
154,596,3.04431,-15.7432,0.0132921,0.00533977,0.0138684,0.0237431,-0.00511124,0.64579,0.0177791,0.0411566,1378,428,3.04435,15.7432
161,596,3.07007,-15.59,0.0130976,0.00374605,0.0123162,0.0215958,-0.00475207,0.60398,0.016215,0.0444985,1385,428,3.07004,15.59
168,596,3.14124,-15.5036,0,0,0,0,0,0,0,-1,1392,428,3.14118,15.5036
175,596,3.51282,-15.4859,0,0,0,0,0,0,0,-1,1399,428,3.51283,15.4859
182,596,3.57056,-15.4124,0,0,0,0,0,0,0,-1,1406,428,3.57051,15.4124
189,596,3.50769,-15.3725,0,0,0,0,0,0,0,-1,1413,428,3.50771,15.3725
196,596,3.43738,-15.1011,0,0,0,0,0,0,0,-1,1420,428,3.43732,15.1011
203,596,3.36157,-15.1473,0,0,0,0,0,0,0,-1,1427,428,3.36163,15.1473
210,596,3.35339,-15.1332,0,0,0,0,0,0,0,-1,1434,428,3.35344,15.1332
217,596,3.33459,-15.0013,0.000712109,-0.00138637,-0.00371979,0.00352781,-0.00420207,-0.647935,0.0044685,0.0201627,1441,428,3.33463,15.0013
224,596,3.38904,-14.8622,0.000426703,-0.000486632,-0.00325283,0.00325476,-0.00331469,-0.715659,0.00379293,0.0124224,1448,428,3.389,14.8622
231,596,3.43237,-14.712,0.000310349,0.000392789,-0.00273288,0.00308476,-0.00238163,-0.792939,0.00316471,0.01253,1455,428,3.4324,14.712
238,596,3.43005,-14.5846,0.000432141,0.00102902,-0.0021934,0.00294419,-0.00148303,-0.853014,0.00260205,0.0143368,1462,428,3.43001,14.5846
245,596,3.44714,-14.4352,0.000641896,0.0016012,-0.00167061,0.00285965,-0.000616553,-0.925193,0.00214174,0.0125009,1469,428,3.44711,14.4352
252,596,3.46631,-14.2822,0.000830943,0.00202312,-0.00116809,0.00273842,0.00011564,-1.02133,0.00178832,0.010166,1476,428,3.46635,14.2822
259,596,3.47046,-14.126,0.00094943,0.00220476,-0.00070627,0.00252196,0.000632224,-1.14867,0.00151519,0.0091769,1483,428,3.47052,14.126
266,596,3.45166,-13.9471,0.00105162,0.00224904,-0.000316562,0.00232758,0.00097308,-1.32761,0.00134983,0.00970838,1490,428,3.4517,13.9471
273,596,3.46265,-13.7848,0.00116303,0.00224116,2.25612e-05,0.00224163,0.00116256,1.54988,0.00129451,0.0109082,1497,428,3.46263,13.7847
280,596,3.47925,-13.6263,0.00128822,0.00221262,0.000458118,0.00240119,0.00109965,1.18031,0.00138796,0.011797,1504,428,3.47925,13.6263
287,596,3.48669,-13.4626,0.00145998,0.00205938,0.000859877,0.00267029,0.000849067,0.953084,0.00157538,0.0107838,1511,428,3.48676,13.4626
294,596,3.48254,-13.2783,0.00161565,0.00179345,0.00120561,0.00291344,0.000495669,0.822201,0.00179996,0.00885252,1518,428,3.48252,13.2783
301,596,3.49268,-13.0858,0.0017234,0.00138702,0.00153724,0.00310163,8.78994e-06,0.73091,0.00206483,0.0101918,1525,428,3.49271,13.0858
308,596,3.51929,-12.8809,0.00188776,0.00110669,0.00191791,0.00345449,-0.000460045,0.68496,0.00247066,0.0160221,1532,428,3.51927,12.8809
315,596,3.49341,-12.675,0.00204475,0.000867957,0.00229973,0.00383016,-0.000917456,0.660158,0.00290791,0.0163837,1539,428,3.4934,12.675
322,596,3.49536,-12.4792,0.00211247,0.000719413,0.00266821,0.00417357,-0.00134168,0.657724,0.0033212,0.0131331,1546,428,3.49534,12.4792
329,596,3.48621,-12.2794,0.00205031,0.000704939,0.00299323,0.00444551,-0.00169027,0.674867,0.00365961,0.00989128,1553,428,3.48621,12.2794
336,596,3.46301,-12.0858,0.00178407,0.000755234,0.00309571,0.00440782,-0.00186851,0.703065,0.00372118,0.00855079,1560,428,3.46304,12.0858
343,596,3.4707,-11.8797,0.0015026,0.000779838,0.00314966,0.00431154,-0.00202911,0.72828,0.003739,0.0107163,1567,428,3.47065,11.8797
350,596,3.47815,-11.6506,0.00115221,0.00116282,0.00321582,0.00437334,-0.00205831,0.786223,0.00379265,0.0117573,1574,428,3.47812,11.6506
357,596,3.45654,-11.4179,0.000670041,0.00172872,0.00324321,0.00448551,-0.00208675,0.866292,0.00387783,0.00978095,1581,428,3.45649,11.4179
364,596,3.44238,-11.1837,4.02472e-05,0.00242545,0.00309391,0.00454865,-0.00208296,0.969356,0.00391598,0.00983956,1588,428,3.44235,11.1837
371,596,3.43164,-10.9731,-0.000683408,0.00328516,0.002811,0.00474168,-0.00213993,1.09274,0.00406665,0.0111979,1595,428,3.43161,10.9731
378,596,3.40051,-10.7436,-0.00160062,0.00414813,0.00233093,0.00497447,-0.00242696,1.23011,0.00435678,0.0150546,1602,428,3.40053,10.7436
385,596,3.40088,-10.4503,-0.00239918,0.00487668,0.00185059,0.00532032,-0.00284282,1.33551,0.0047848,0.0251297,1609,428,3.40089,10.4503
392,596,3.46106,-10.2709,-0.00299394,0.00590929,0.00115244,0.00605604,-0.00314069,1.44414,0.00539793,0.0356457,1616,428,3.46112,10.2709
399,596,3.42053,-10.1607,0,0,0,0,0,0,0,-1,1623,428,3.42056,10.1607
406,596,3.40027,-9.60138,0,0,0,0,0,0,0,-1,1630,428,3.40031,9.60137
413,596,3.39124,-2.63528,0,0,0,0,0,0,0,-1,1637,428,3.39122,2.6353
420,596,2.6344,-3.06308,0,0,0,0,0,0,0,-1,1644,428,2.63439,3.06308
427,596,2.99329,-1.90512,0,0,0,0,0,0,0,-1,1651,428,2.99327,1.90512
434,596,3.80896,-0.253998,0,0,0,0,0,0,0,-1,1658,428,3.80902,0.254004
441,596,3.86401,-0.131622,0,0,0,0,0,0,0,-1,1665,428,3.86406,0.131613
448,596,1.0769,0.0083313,0,0,0,0,0,0,0,-1,1672,428,1.07684,-0.00832231
455,596,2.00769,-1.43329,0,0,0,0,0,0,0,-1,1679,428,2.00765,1.4333
462,596,0,0,0,0,0,0,0,0,0,-1,1686,428,0,0
469,596,0,0,0,0,0,0,0,0,0,-1,1693,428,0,0
476,596,0,0,0,0,0,0,0,0,0,-1,1700,428,0,0
483,596,0,0,0,0,0,0,0,0,0,-1,1707,428,0,0
490,596,0,0,0,0,0,0,0,0,0,-1,1714,428,0,0
497,596,0,0,0,0,0,0,0,0,0,-1,1721,428,0,0
504,596,0,0,0,0,0,0,0,0,0,-1,1728,428,0,0
511,596,0,0,0,0,0,0,0,0,0,-1,1735,428,0,0
518,596,0,0,0,0,0,0,0,0,0,-1,1742,428,0,0
525,596,0,0,0,0,0,0,0,0,0,-1,1749,428,0,0
532,596,0,0,0,0,0,0,0,0,0,-1,1756,428,0,0
539,596,0,0,0,0,0,0,0,0,0,-1,1763,428,0,0
546,596,0,0,0,0,0,0,0,0,0,-1,1770,428,0,0
553,596,0,0,0,0,0,0,0,0,0,-1,1777,428,0,0
560,596,0,0,0,0,0,0,0,0,0,-1,1784,428,0,0
567,596,0,0,0,0,0,0,0,0,0,-1,1791,428,0,0
574,596,0,0,0,0,0,0,0,0,0,-1,1798,428,0,0
581,596,0,0,0,0,0,0,0,0,0,-1,1805,428,0,0
588,596,0,0,0,0,0,0,0,0,0,-1,1812,428,0,0
595,596,0,0,0,0,0,0,0,0,0,-1,1819,428,0,0
602,596,0,0,0,0,0,0,0,0,0,-1,1826,428,0,0
609,596,0,0,0,0,0,0,0,0,0,-1,1833,428,0,0
616,596,0,0,0,0,0,0,0,0,0,-1,1840,428,0,0
623,596,0,0,0,0,0,0,0,0,0,-1,1847,428,0,0
630,596,0,0,0,0,0,0,0,0,0,-1,1854,428,0,0
637,596,0,0,0,0,0,0,0,0,0,-1,1861,428,0,0
644,596,0,0,0,0,0,0,0,0,0,-1,1868,428,0,0
651,596,0,0,0,0,0,0,0,0,0,-1,1875,428,0,0
658,596,0,0,0,0,0,0,0,0,0,-1,1882,428,0,0
665,596,0,0,0,0,0,0,0,0,0,-1,1889,428,0,0
672,596,0,0,0,0,0,0,0,0,0,-1,1896,428,0,0
679,596,0,0,0,0,0,0,0,0,0,-1,1903,428,0,0
686,596,0,0,0,0,0,0,0,0,0,-1,1910,428,0,0
693,596,0,0,0,0,0,0,0,0,0,-1,1917,428,0,0
700,596,0,0,0,0,0,0,0,0,0,-1,1924,428,0,0
707,596,0,0,0,0,0,0,0,0,0,-1,1931,428,0,0
714,596,0,0,0,0,0,0,0,0,0,-1,1938,428,0,0
721,596,0,0,0,0,0,0,0,0,0,-1,1945,428,0,0
728,596,0,0,0,0,0,0,0,0,0,-1,1952,428,0,0
735,596,0,0,0,0,0,0,0,0,0,-1,1959,428,0,0
742,596,0,0,0,0,0,0,0,0,0,-1,1966,428,0,0
749,596,0,0,0,0,0,0,0,0,0,-1,1973,428,0,0
756,596,0,0,0,0,0,0,0,0,0,-1,1980,428,0,0
763,596,0,0,0,0,0,0,0,0,0,-1,1987,428,0,0
770,596,0,0,0,0,0,0,0,0,0,-1,1994,428,0,0
777,596,0,0,0,0,0,0,0,0,0,-1,2001,428,0,0
784,596,0,0,0,0,0,0,0,0,0,-1,2008,428,0,0
791,596,0,0,0,0,0,0,0,0,0,-1,2015,428,0,0
798,596,0,0,0,0,0,0,0,0,0,-1,2022,428,0,0
805,596,0,0,0,0,0,0,0,0,0,-1,2029,428,0,0
812,596,0,0,0,0,0,0,0,0,0,-1,2036,428,0,0
-700,589,0,0,0,0,0,0,0,0,0,-1,524,435,0,0
-693,589,0,0,0,0,0,0,0,0,0,-1,531,435,0,0
-686,589,0,0,0,0,0,0,0,0,0,-1,538,435,0,0
-679,589,0,0,0,0,0,0,0,0,0,-1,545,435,0,0
-672,589,0,0,0,0,0,0,0,0,0,-1,552,435,0,0
-665,589,0,0,0,0,0,0,0,0,0,-1,559,435,0,0
-658,589,0,0,0,0,0,0,0,0,0,-1,566,435,0,0
-651,589,0,0,0,0,0,0,0,0,0,-1,573,435,0,0
-644,589,0,0,0,0,0,0,0,0,0,-1,580,435,0,0
-637,589,0,0,0,0,0,0,0,0,0,-1,587,435,0,0
-630,589,0,0,0,0,0,0,0,0,0,-1,594,435,0,0
-623,589,0,0,0,0,0,0,0,0,0,-1,601,435,0,0
-616,589,0,0,0,0,0,0,0,0,0,-1,608,435,0,0
-609,589,0,0,0,0,0,0,0,0,0,-1,615,435,0,0
-602,589,0,0,0,0,0,0,0,0,0,-1,622,435,0,0
-595,589,0,0,0,0,0,0,0,0,0,-1,629,435,0,0
-588,589,0,0,0,0,0,0,0,0,0,-1,636,435,0,0
-581,589,0,0,0,0,0,0,0,0,0,-1,643,435,0,0
-574,589,0,0,0,0,0,0,0,0,0,-1,650,435,0,0
-567,589,0,0,0,0,0,0,0,0,0,-1,657,435,0,0
-560,589,0,0,0,0,0,0,0,0,0,-1,664,435,0,0
-553,589,0,0,0,0,0,0,0,0,0,-1,671,435,0,0
-546,589,0,0,0,0,0,0,0,0,0,-1,678,435,0,0
-539,589,0,0,0,0,0,0,0,0,0,-1,685,435,0,0
-532,589,0,0,0,0,0,0,0,0,0,-1,692,435,0,0
-525,589,0,0,0,0,0,0,0,0,0,-1,699,435,0,0
-518,589,0,0,0,0,0,0,0,0,0,-1,706,435,0,0
-511,589,0,0,0,0,0,0,0,0,0,-1,713,435,0,0
-504,589,0,0,0,0,0,0,0,0,0,-1,720,435,0,0
-497,589,0,0,0,0,0,0,0,0,0,-1,727,435,0,0
-490,589,0,0,0,0,0,0,0,0,0,-1,734,435,0,0
-483,589,0,0,0,0,0,0,0,0,0,-1,741,435,0,0
-476,589,0,0,0,0,0,0,0,0,0,-1,748,435,0,0
-469,589,0,0,0,0,0,0,0,0,0,-1,755,435,0,0
-462,589,0,0,0,0,0,0,0,0,0,-1,762,435,0,0
-455,589,0,0,0,0,0,0,0,0,0,-1,769,435,0,0
-448,589,0,0,0,0,0,0,0,0,0,-1,776,435,0,0
-441,589,0,0,0,0,0,0,0,0,0,-1,783,435,0,0
-434,589,0,0,0,0,0,0,0,0,0,-1,790,435,0,0
-427,589,0,0,0,0,0,0,0,0,0,-1,797,435,0,0
-420,589,0,0,0,0,0,0,0,0,0,-1,804,435,0,0
-413,589,0,0,0,0,0,0,0,0,0,-1,811,435,0,0
-406,589,0,0,0,0,0,0,0,0,0,-1,818,435,0,0
-399,589,0,0,0,0,0,0,0,0,0,-1,825,435,0,0
-392,589,0,0,0,0,0,0,0,0,0,-1,832,435,0,0
-385,589,0,0,0,0,0,0,0,0,0,-1,839,435,0,0
-378,589,0,0,0,0,0,0,0,0,0,-1,846,435,0,0
-371,589,0,0,0,0,0,0,0,0,0,-1,853,435,0,0
-364,589,0,0,0,0,0,0,0,0,0,-1,860,435,0,0
-357,589,0,0,0,0,0,0,0,0,0,-1,867,435,0,0
-350,589,-5.74323,-18.0391,0,0,0,0,0,0,0,-1,874,435,-5.74325,18.0391
-343,589,-4.7887,-16.4395,0,0,0,0,0,0,0,-1,881,435,-4.78868,16.4395
-336,589,-3.74249,-14.758,0.123209,-0.106709,0.154724,0.201006,-0.184506,0.465897,0.222644,0.0435942,888,435,-3.74249,14.758
-329,589,-2.69257,-13.0383,0.101047,-0.0962043,0.123486,0.160459,-0.155616,0.448432,0.182493,0.0440637,895,435,-2.69256,13.0383
-322,589,-1.40778,-11.5844,0.0833559,-0.0858156,0.0981558,0.128344,-0.130803,0.42976,0.149621,0.0488898,902,435,-1.40778,11.5844
-315,589,-0.542175,-11.2173,0.0688106,-0.0749664,0.0777548,0.102817,-0.108973,0.41229,0.122294,0.0495048,909,435,-0.542168,11.2173
-308,589,-0.210876,-10.7018,0.0566414,-0.0642141,0.0612424,0.0822494,-0.089822,0.396047,0.0993775,0.0490936,916,435,-0.210885,10.7018
-301,589,0.768372,-10.5316,0,0,0,0,0,0,0,-1,923,435,0.76839,10.5316
-294,589,1.17303,-10.519,0.0381302,-0.0433405,0.0362789,0.0519433,-0.0571535,0.363799,0.063011,0.0456346,930,435,1.17303,10.519
-287,589,1.73596,-10.6247,0.0308404,-0.0338465,0.0271672,0.0407362,-0.0437423,0.349318,0.048784,0.0413867,937,435,1.73597,10.6247
-280,589,1.98096,-10.8943,0.0228565,-0.0244566,0.0178728,0.028849,-0.0304492,0.32351,0.03424,0.0322489,944,435,1.98095,10.8943
-273,589,2.06122,-11.1638,0.0161875,-0.0160878,0.0103977,0.0192471,-0.0191475,0.286184,0.0221671,0.0192764,951,435,2.0612,11.1638
-266,589,2.02856,-11.396,0.0112295,-0.00900141,0.0054764,0.0126168,-0.0103887,0.248104,0.013303,0.0160452,958,435,2.02855,11.396
-259,589,1.97906,-11.6024,0.00760054,-0.00295788,0.00156604,0.00782792,-0.00318527,0.144187,0.00654408,0.0145005,965,435,1.97904,11.6024
-252,589,1.97241,-11.8497,0.00457828,0.00159689,-0.000629813,0.00470586,0.00146931,-0.199874,0.00278006,0.0100569,972,435,1.9724,11.8497
-245,589,1.9754,-12.0632,0.0022845,0.00388122,-0.00189505,0.00513922,0.0010265,-0.984758,0.00314041,0.00935609,979,435,1.97539,12.0632
-238,589,1.95898,-12.2621,0.000410903,0.00384661,-0.00157329,0.00445819,-0.000200674,-1.20005,0.00304122,0.012606,986,435,1.95901,12.2621
-231,589,1.93585,-12.4518,-0.000428324,0.00264698,-0.00108695,0.00299237,-0.000773708,-1.26313,0.00229667,0.0142586,993,435,1.93584,12.4518
-224,589,1.90094,-12.6728,-0.000766173,0.00149319,-0.000655198,0.00166945,-0.000942426,-1.30801,0.00152731,0.0141383,1000,435,1.90093,12.6727
-217,589,1.91132,-12.8668,-0.00093751,0.000240493,-0.000249319,0.000291087,-0.000988105,-1.37059,0.000774226,0.0146183,1007,435,1.91132,12.8668
-210,589,1.94879,-13.0491,-0.000984973,-0.00074717,0.00013079,-0.000689312,-0.00104283,1.15431,0.000612394,0.012869,1014,435,1.94878,13.0491
-203,589,1.92749,-13.2291,-0.000896993,-0.00158814,0.000549748,-0.000593225,-0.0018919,0.504806,0.00111732,0.00940696,1021,435,1.92749,13.2291
-196,589,1.91687,-13.3995,-0.000693994,-0.00215712,0.000900668,-0.000265218,-0.0025859,0.444316,0.00164268,0.0122297,1028,435,1.91685,13.3995
-189,589,1.91016,-13.5979,-0.000447695,-0.00252792,0.0011784,8.39658e-05,-0.00305958,0.423826,0.00206828,0.0158448,1035,435,1.91013,13.5979
-182,589,1.90479,-13.7464,0.000187385,-0.00254798,0.00108703,0.000566755,-0.00292735,0.335781,0.00216535,0.0127031,1042,435,1.90476,13.7464
-175,589,1.9198,-13.9067,0.000953641,-0.00254055,0.000986628,0.00121298,-0.00279989,0.257039,0.00237645,0.0159945,1049,435,1.91976,13.9067
-168,589,1.95459,-14.0631,0.00164612,-0.00229141,0.000858315,0.00182509,-0.00247038,0.205561,0.0024893,0.0131609,1056,435,1.95455,14.0631
-161,589,1.94092,-14.2174,0.00224859,-0.00202049,0.000659234,0.00234807,-0.00211997,0.149774,0.00258075,0.0114988,1063,435,1.94098,14.2174
-154,589,1.93677,-14.3669,0.00287576,-0.00184556,0.000378432,0.0029059,-0.0018757,0.0794776,0.00278194,0.0117476,1070,435,1.93678,14.3669
-147,589,1.93689,-14.5116,0.00359254,-0.00145108,-4.58347e-05,0.00359296,-0.0014515,-0.00908665,0.00299862,0.0119325,1077,435,1.93693,14.5116
-140,589,1.96533,-14.6483,0.00411173,-0.00113152,-0.000491011,0.00415731,-0.00117711,-0.0925737,0.00323608,0.013042,1084,435,1.96537,14.6482
-133,589,1.98645,-14.7847,0.00446661,-0.000804647,-0.00101939,0.00465687,-0.000994916,-0.184526,0.0034839,0.0126658,1091,435,1.98645,14.7847
-126,589,1.99133,-14.919,0.00485844,-0.000969752,-0.00125918,0.00511885,-0.00123016,-0.203934,0.00388804,0.00972196,1098,435,1.99128,14.919
-119,589,1.96655,-15.0664,0.00527756,-0.00113097,-0.00163576,0.00567093,-0.00152434,-0.236004,0.0043781,0.016353,1105,435,1.96657,15.0664
-112,589,2.00085,-15.1797,0.00565444,-0.00125459,-0.00195713,0.00617032,-0.00177047,-0.257727,0.00481349,0.0184806,1112,435,2.00079,15.1797
-105,589,2.04724,-15.2981,0.00596798,-0.00121021,-0.00231922,0.00665211,-0.00189433,-0.286845,0.00518289,0.0179368,1119,435,2.04722,15.2981
-98,589,2.07324,-15.3994,0.00621926,-0.000743096,-0.00265001,0.00711314,-0.00163698,-0.325328,0.00537155,0.0175054,1126,435,2.07325,15.3994
-91,589,2.13464,-15.5235,0.00643342,-0.000169228,-0.00308873,0.00765304,-0.00138885,-0.37607,0.00562245,0.0257077,1133,435,2.1347,15.5235
-84,589,2.19177,-15.847,0,0,0,0,0,0,0,-1,1140,435,2.19172,15.8471
-77,589,2.18152,-14.8023,0,0,0,0,0,0,0,-1,1147,435,2.18155,14.8023
-70,589,1.48267,-9.90961,0,0,0,0,0,0,0,-1,1154,435,1.48264,9.9096
-63,589,0.880127,-5.50586,0,0,0,0,0,0,0,-1,1161,435,0.880186,5.50587
-56,589,-2.78052,-7.28082,0,0,0,0,0,0,0,-1,1168,435,-2.78053,7.28082
-49,589,-0.525757,-2.76703,0,0,0,0,0,0,0,-1,1175,435,-0.525771,2.76702
-42,589,-2.7738,-2.87921,0,0,0,0,0,0,0,-1,1182,435,-2.77383,2.87922
-35,589,-2.55225,-3.27551,0,0,0,0,0,0,0,-1,1189,435,-2.55223,3.27552
-28,589,-0.0632324,-3.42938,0,0,0,0,0,0,0,-1,1196,435,-0.063241,3.42938
-21,589,2.11572,-15.8959,0,0,0,0,0,0,0,-1,1203,435,2.11568,15.8959
-14,589,2.42749,-15.9082,0,0,0,0,0,0,0,-1,1210,435,2.42745,15.9082
-7,589,1.76038,-16.0651,0,0,0,0,0,0,0,-1,1217,435,1.76034,16.0651
0,589,3.03101,-16.3084,0,0,0,0,0,0,0,-1,1224,435,3.031,16.3084
7,589,2.97522,-16.2162,-0.0148002,-0.00619618,-0.000577672,-0.00615757,-0.0148389,-1.50406,0.00860842,0.0497193,1231,435,2.97517,16.2163
14,589,3.55713,-16.2631,-0.013856,-0.00464804,-0.0027854,-0.00387103,-0.014633,-1.29875,0.00875508,0.0485881,1238,435,3.55711,16.2631
21,589,3.40271,-15.9937,0,0,0,0,0,0,0,-1,1245,435,3.40273,15.9937
28,589,3.25,-15.9402,0,0,0,0,0,0,0,-1,1252,435,3.25003,15.9402
35,589,3.16333,-16.1395,0,0,0,0,0,0,0,-1,1259,435,3.16331,16.1395
42,589,3.0509,-16.3516,-0.00490779,0.00593712,-0.00243637,0.00645932,-0.00542999,-1.35966,0.00687286,0.0486117,1266,435,3.05089,16.3516
49,589,2.96643,-16.5435,-0.00118295,0.009316,-0.00103405,0.00941688,-0.00128383,-1.47355,0.0067467,0.0489936,1273,435,2.96639,16.5435
56,589,2.89233,-16.7214,0,0,0,0,0,0,0,-1,1280,435,2.89231,16.7214
63,589,2.33142,-16.2892,0,0,0,0,0,0,0,-1,1287,435,2.33137,16.2892
70,589,3.58667,-17.6958,0.00744498,0.0176922,0.00809509,0.0221489,0.0029883,1.06754,0.0138775,0.0450688,1294,435,3.58669,17.6958
77,589,3.80994,-17.2782,0.0104891,0.0196555,0.0107698,0.0267768,0.00336776,0.98657,0.0168412,0.040899,1301,435,3.8099,17.2782
84,589,3.6842,-17.0087,0.0133583,0.0211802,0.0129291,0.0307769,0.00376159,0.932267,0.0193861,0.0415397,1308,435,3.68426,17.0087
91,589,3.54053,-16.8531,0.0155039,0.0221125,0.0147574,0.0339311,0.00368537,0.895535,0.0214978,0.0440748,1315,435,3.54058,16.8531
98,589,3.35913,-16.5722,0.0165188,0.022458,0.0163887,0.036144,0.00283281,0.875025,0.0232094,0.044944,1322,435,3.35908,16.5722
105,589,3.21802,-16.2191,0.0170243,0.0219317,0.017563,0.0372116,0.00174447,0.854804,0.0242472,0.0450216,1329,435,3.21803,16.2191
112,589,3.2323,-16.1112,0.0174081,0.0207975,0.018644,0.0378237,0.000381924,0.830723,0.0250894,0.0403892,1336,435,3.23234,16.1112
119,589,3.16626,-16.0056,0.0178295,0.0195447,0.0197858,0.0384915,-0.00111723,0.807057,0.0260414,0.0421355,1343,435,3.16621,16.0056
126,589,3.89856,-16.2649,0,0,0,0,0,0,0,-1,1350,435,3.89859,16.2649
133,589,3.83386,-16.2144,0,0,0,0,0,0,0,-1,1357,435,3.83383,16.2144
140,589,3.69775,-15.8777,0,0,0,0,0,0,0,-1,1364,435,3.69775,15.8778
147,589,3.32593,-15.5818,0,0,0,0,0,0,0,-1,1371,435,3.32597,15.5818
154,589,3.03723,-15.6242,0,0,0,0,0,0,0,-1,1378,435,3.03721,15.6242
161,589,3.15247,-15.4293,0,0,0,0,0,0,0,-1,1385,435,3.15241,15.4293
168,589,3.54077,-15.4584,0,0,0,0,0,0,0,-1,1392,435,3.54071,15.4584
175,589,8.66992,-7.65527,0,0,0,0,0,0,0,-1,1399,435,8.66994,7.65528
182,589,3.8136,-2.45389,0,0,0,0,0,0,0,-1,1406,435,3.81363,2.4539
189,589,3.69983,-3.68149,0,0,0,0,0,0,0,-1,1413,435,3.69987,3.68147
196,589,3.31055,-5.31677,0,0,0,0,0,0,0,-1,1420,435,3.31059,5.31678
203,589,2.72559,-8.84338,0,0,0,0,0,0,0,-1,1427,435,2.72558,8.84338
210,589,3.62378,-14.4032,0,0,0,0,0,0,0,-1,1434,435,3.62378,14.4032
217,589,3.45264,-14.9976,0,0,0,0,0,0,0,-1,1441,435,3.45263,14.9976
224,589,3.60107,-14.8997,0.000234637,-0.00092079,-0.00468381,0.00437623,-0.00506238,-0.724037,0.00545418,0.0224686,1448,435,3.60108,14.8998
231,589,3.62366,-14.7633,0.00015781,0.000272558,-0.00400928,0.00422487,-0.00379451,-0.792553,0.00463221,0.0201479,1455,435,3.62364,14.7633
238,589,3.60376,-14.6476,0.000378181,0.00103946,-0.00333775,0.00406291,-0.00264527,-0.834767,0.00390169,0.0218515,1462,435,3.60376,14.6476
245,589,3.58813,-14.4084,0.000710591,0.0017173,-0.00267266,0.0039336,-0.0015057,-0.878475,0.00324298,0.0193044,1469,435,3.5881,14.4084
252,589,3.61572,-14.2642,0.00098034,0.0021565,-0.00202315,0.0036753,-0.000538466,-0.926838,0.002648,0.0130814,1476,435,3.61574,14.2642
259,589,3.62195,-14.1298,0.00114761,0.00227157,-0.00146615,0.00327975,0.000139426,-0.968414,0.00214154,0.00936813,1483,435,3.62199,14.1298
266,589,3.62036,-13.9375,0.00125717,0.00225982,-0.0010393,0.00291239,0.000604597,-1.01012,0.00177473,0.00910128,1490,435,3.62037,13.9375
273,589,3.62891,-13.7817,0.00131647,0.00219446,-0.000710709,0.00259083,0.000920103,-1.06206,0.0015166,0.0110194,1497,435,3.62893,13.7818
280,589,3.64795,-13.6331,0.00137449,0.00212431,-0.000270987,0.00221199,0.00128681,-1.25786,0.00128277,0.0118772,1504,435,3.64797,13.6331
287,589,3.66589,-13.4778,0.00144662,0.00200326,5.31529e-05,0.00200829,0.00144159,1.47644,0.0011956,0.0110205,1511,435,3.66585,13.4778
294,589,3.66431,-13.2826,0.00150632,0.00170431,0.000331052,0.00195085,0.00125978,0.930682,0.00114217,0.0099606,1518,435,3.6643,13.2826
301,589,3.67737,-13.0807,0.00148626,0.00124027,0.000558785,0.00193543,0.000791108,0.677071,0.00112361,0.0100026,1525,435,3.67735,13.0807
308,589,3.69751,-12.8883,0.00149254,0.000939157,0.0008077,0.00206963,0.00036207,0.62038,0.0012763,0.0101311,1532,435,3.69746,12.8883
315,589,3.69373,-12.6952,0.00151234,0.000733807,0.00107054,0.00226219,-1.60389e-05,0.611021,0.0015135,0.0114678,1539,435,3.69376,12.6952
322,589,3.70044,-12.5063,0.00147386,0.000629793,0.00135164,0.00246783,-0.00036417,0.634075,0.00177908,0.0120652,1546,435,3.70041,12.5063
329,589,3.70593,-12.3006,0.00136605,0.000640077,0.00163712,0.00267994,-0.00067381,0.676301,0.00204851,0.0102915,1553,435,3.70598,12.3006
336,589,3.68677,-12.1012,0.00113434,0.0007124,0.00178251,0.00271832,-0.000871575,0.726494,0.00216211,0.00922644,1560,435,3.68672,12.1012
343,589,3.67834,-11.9,0.000888509,0.000792142,0.00189806,0.00273899,-0.00105834,0.772708,0.00226284,0.0104333,1567,435,3.67835,11.9
350,589,3.6665,-11.6726,0.000619488,0.00112799,0.00202565,0.00291528,-0.0011678,0.84783,0.00242827,0.0166019,1574,435,3.66656,11.6726
357,589,3.66431,-11.4269,0.000279032,0.00161523,0.00213376,0.00318304,-0.00128878,0.937118,0.00265789,0.0142849,1581,435,3.66432,11.4269
364,589,3.66406,-11.1907,-0.00014763,0.00221244,0.00212616,0.00346408,-0.00139927,1.03874,0.00289098,0.011283,1588,435,3.66403,11.1907
371,589,3.66907,-10.9717,-0.000605358,0.00288768,0.0020461,0.0038313,-0.00154898,1.13868,0.00319811,0.0111961,1595,435,3.66913,10.9718
378,589,3.66577,-10.7376,-0.0011859,0.00353746,0.00183949,0.00416932,-0.00181775,1.23993,0.0035444,0.011733,1602,435,3.66582,10.7376
385,589,3.65015,-10.4998,-0.00167584,0.00404407,0.00156454,0.00444404,-0.00207581,1.32051,0.00384612,0.0143409,1609,435,3.6501,10.4998
392,589,3.6283,-10.2386,-0.0019603,0.00462326,0.00117511,0.00482672,-0.00216376,1.39936,0.00413242,0.0178585,1616,435,3.62828,10.2386
399,589,3.59839,-9.91391,-0.00181938,0.00498774,0.0012844,0.00522202,-0.00205366,1.39037,0.00433135,0.0254708,1623,435,3.59844,9.91391
406,589,3.61877,-9.60928,-0.00162113,0.00518101,0.00131372,0.00542592,-0.00186604,1.38649,0.00437405,0.0499072,1630,435,3.61882,9.60927
413,589,3.63818,-9.28198,0,0,0,0,0,0,0,-1,1637,435,3.63813,9.28199
420,589,2.79724,-5.79956,0,0,0,0,0,0,0,-1,1644,435,2.7973,5.79955
427,589,2.87976,-5.28177,0,0,0,0,0,0,0,-1,1651,435,2.87972,5.28177
434,589,2.52734,-2.73029,0,0,0,0,0,0,0,-1,1658,435,2.52736,2.73029
441,589,3.17639,-2.02435,0,0,0,0,0,0,0,-1,1665,435,3.17643,2.02435
448,589,0.453735,-3.2868,0,0,0,0,0,0,0,-1,1672,435,0.453701,3.28681
455,589,0.664307,-3.46848,0,0,0,0,0,0,0,-1,1679,435,0.66425,3.46846
462,589,3.46716,-4.41891,0,0,0,0,0,0,0,-1,1686,435,3.4672,4.41891
469,589,0.0238037,-3.81497,0,0,0,0,0,0,0,-1,1693,435,0.0237965,3.81498
476,589,0,0,0,0,0,0,0,0,0,-1,1700,435,0,0
483,589,0,0,0,0,0,0,0,0,0,-1,1707,435,0,0
490,589,0,0,0,0,0,0,0,0,0,-1,1714,435,0,0
497,589,0,0,0,0,0,0,0,0,0,-1,1721,435,0,0
504,589,0,0,0,0,0,0,0,0,0,-1,1728,435,0,0
511,589,0,0,0,0,0,0,0,0,0,-1,1735,435,0,0
518,589,0,0,0,0,0,0,0,0,0,-1,1742,435,0,0
525,589,0,0,0,0,0,0,0,0,0,-1,1749,435,0,0
532,589,0,0,0,0,0,0,0,0,0,-1,1756,435,0,0
539,589,0,0,0,0,0,0,0,0,0,-1,1763,435,0,0
546,589,0,0,0,0,0,0,0,0,0,-1,1770,435,0,0
553,589,0,0,0,0,0,0,0,0,0,-1,1777,435,0,0
560,589,0,0,0,0,0,0,0,0,0,-1,1784,435,0,0
567,589,0,0,0,0,0,0,0,0,0,-1,1791,435,0,0
574,589,0,0,0,0,0,0,0,0,0,-1,1798,435,0,0
581,589,0,0,0,0,0,0,0,0,0,-1,1805,435,0,0
588,589,0,0,0,0,0,0,0,0,0,-1,1812,435,0,0
595,589,0,0,0,0,0,0,0,0,0,-1,1819,435,0,0
602,589,0,0,0,0,0,0,0,0,0,-1,1826,435,0,0
609,589,0,0,0,0,0,0,0,0,0,-1,1833,435,0,0
616,589,0,0,0,0,0,0,0,0,0,-1,1840,435,0,0
623,589,0,0,0,0,0,0,0,0,0,-1,1847,435,0,0
630,589,0,0,0,0,0,0,0,0,0,-1,1854,435,0,0
637,589,0,0,0,0,0,0,0,0,0,-1,1861,435,0,0
644,589,0,0,0,0,0,0,0,0,0,-1,1868,435,0,0
651,589,0,0,0,0,0,0,0,0,0,-1,1875,435,0,0
658,589,0,0,0,0,0,0,0,0,0,-1,1882,435,0,0
665,589,0,0,0,0,0,0,0,0,0,-1,1889,435,0,0
672,589,0,0,0,0,0,0,0,0,0,-1,1896,435,0,0
679,589,0,0,0,0,0,0,0,0,0,-1,1903,435,0,0
686,589,0,0,0,0,0,0,0,0,0,-1,1910,435,0,0
693,589,0,0,0,0,0,0,0,0,0,-1,1917,435,0,0
700,589,0,0,0,0,0,0,0,0,0,-1,1924,435,0,0
707,589,0,0,0,0,0,0,0,0,0,-1,1931,435,0,0
714,589,0,0,0,0,0,0,0,0,0,-1,1938,435,0,0
721,589,0,0,0,0,0,0,0,0,0,-1,1945,435,0,0
728,589,0,0,0,0,0,0,0,0,0,-1,1952,435,0,0
735,589,0,0,0,0,0,0,0,0,0,-1,1959,435,0,0
742,589,0,0,0,0,0,0,0,0,0,-1,1966,435,0,0
749,589,0,0,0,0,0,0,0,0,0,-1,1973,435,0,0
756,589,0,0,0,0,0,0,0,0,0,-1,1980,435,0,0
763,589,0,0,0,0,0,0,0,0,0,-1,1987,435,0,0
770,589,0,0,0,0,0,0,0,0,0,-1,1994,435,0,0
777,589,0,0,0,0,0,0,0,0,0,-1,2001,435,0,0
784,589,0,0,0,0,0,0,0,0,0,-1,2008,435,0,0
791,589,0,0,0,0,0,0,0,0,0,-1,2015,435,0,0
798,589,0,0,0,0,0,0,0,0,0,-1,2022,435,0,0
805,589,0,0,0,0,0,0,0,0,0,-1,2029,435,0,0
812,589,0,0,0,0,0,0,0,0,0,-1,2036,435,0,0
-700,582,0,0,0,0,0,0,0,0,0,-1,524,442,0,0
-693,582,0,0,0,0,0,0,0,0,0,-1,531,442,0,0
-686,582,0,0,0,0,0,0,0,0,0,-1,538,442,0,0
-679,582,0,0,0,0,0,0,0,0,0,-1,545,442,0,0
-672,582,0,0,0,0,0,0,0,0,0,-1,552,442,0,0
-665,582,0,0,0,0,0,0,0,0,0,-1,559,442,0,0
-658,582,0,0,0,0,0,0,0,0,0,-1,566,442,0,0
-651,582,0,0,0,0,0,0,0,0,0,-1,573,442,0,0
-644,582,0,0,0,0,0,0,0,0,0,-1,580,442,0,0
-637,582,0,0,0,0,0,0,0,0,0,-1,587,442,0,0
-630,582,0,0,0,0,0,0,0,0,0,-1,594,442,0,0
-623,582,0,0,0,0,0,0,0,0,0,-1,601,442,0,0
-616,582,0,0,0,0,0,0,0,0,0,-1,608,442,0,0
-609,582,0,0,0,0,0,0,0,0,0,-1,615,442,0,0
-602,582,0,0,0,0,0,0,0,0,0,-1,622,442,0,0
-595,582,0,0,0,0,0,0,0,0,0,-1,629,442,0,0
-588,582,0,0,0,0,0,0,0,0,0,-1,636,442,0,0
-581,582,0,0,0,0,0,0,0,0,0,-1,643,442,0,0
-574,582,0,0,0,0,0,0,0,0,0,-1,650,442,0,0
-567,582,0,0,0,0,0,0,0,0,0,-1,657,442,0,0
-560,582,0,0,0,0,0,0,0,0,0,-1,664,442,0,0
-553,582,0,0,0,0,0,0,0,0,0,-1,671,442,0,0
-546,582,0,0,0,0,0,0,0,0,0,-1,678,442,0,0
-539,582,0,0,0,0,0,0,0,0,0,-1,685,442,0,0
-532,582,0,0,0,0,0,0,0,0,0,-1,692,442,0,0
-525,582,0,0,0,0,0,0,0,0,0,-1,699,442,0,0
-518,582,0,0,0,0,0,0,0,0,0,-1,706,442,0,0
-511,582,0,0,0,0,0,0,0,0,0,-1,713,442,0,0
-504,582,0,0,0,0,0,0,0,0,0,-1,720,442,0,0
-497,582,0,0,0,0,0,0,0,0,0,-1,727,442,0,0
-490,582,0,0,0,0,0,0,0,0,0,-1,734,442,0,0
-483,582,0,0,0,0,0,0,0,0,0,-1,741,442,0,0
-476,582,0,0,0,0,0,0,0,0,0,-1,748,442,0,0
-469,582,0,0,0,0,0,0,0,0,0,-1,755,442,0,0
-462,582,0,0,0,0,0,0,0,0,0,-1,762,442,0,0
-455,582,0,0,0,0,0,0,0,0,0,-1,769,442,0,0
-448,582,0,0,0,0,0,0,0,0,0,-1,776,442,0,0
-441,582,0,0,0,0,0,0,0,0,0,-1,783,442,0,0
-434,582,0,0,0,0,0,0,0,0,0,-1,790,442,0,0
-427,582,0,0,0,0,0,0,0,0,0,-1,797,442,0,0
-420,582,0,0,0,0,0,0,0,0,0,-1,804,442,0,0
-413,582,0,0,0,0,0,0,0,0,0,-1,811,442,0,0
-406,582,0,0,0,0,0,0,0,0,0,-1,818,442,0,0
-399,582,0,0,0,0,0,0,0,0,0,-1,825,442,0,0
-392,582,0,0,0,0,0,0,0,0,0,-1,832,442,0,0
-385,582,0,0,0,0,0,0,0,0,0,-1,839,442,0,0
-378,582,0,0,0,0,0,0,0,0,0,-1,846,442,0,0
-371,582,0,0,0,0,0,0,0,0,0,-1,853,442,0,0
-364,582,0,0,0,0,0,0,0,0,0,-1,860,442,0,0
-357,582,6.4043,-4.18127,0,0,0,0,0,0,0,-1,867,442,6.40427,4.18126
-350,582,-1.12933,-15.713,0,0,0,0,0,0,0,-1,874,442,-1.12935,15.713
-343,582,-6.46735,-15.7183,0,0,0,0,0,0,0,-1,881,442,-6.46737,15.7183
-336,582,-5.46301,-13.7123,0.0995809,-0.0852177,0.122466,0.160595,-0.146232,0.462215,0.177211,0.0498504,888,442,-5.46301,13.7123
-329,582,-4.51794,-11.8816,0.0826739,-0.0761908,0.0985893,0.129849,-0.123366,0.446298,0.146209,0.0473697,895,442,-4.51792,11.8816
-322,582,-2.37451,-10.6092,0,0,0,0,0,0,0,-1,902,442,-2.37453,10.6092
-315,582,-1.32678,-10.3979,0,0,0,0,0,0,0,-1,909,442,-1.3268,10.398
-308,582,2.18353,-9.85287,0,0,0,0,0,0,0,-1,916,442,2.18355,9.85288
-301,582,1.54156,-10.2708,0,0,0,0,0,0,0,-1,923,442,1.54157,10.2708
-294,582,1.61823,-10.5171,0.0304407,-0.0321536,0.0278346,0.0410277,-0.0427406,0.363454,0.048367,0.0445373,930,442,1.61821,10.5171
-287,582,1.77679,-10.6648,0.0241646,-0.02464,0.0203839,0.0315581,-0.0320336,0.347956,0.036715,0.0334176,937,442,1.77681,10.6648
-280,582,1.84113,-10.9187,0.0174602,-0.017328,0.0127821,0.0216517,-0.0215194,0.316868,0.0249249,0.015698,944,442,1.84111,10.9187
-273,582,1.83087,-11.128,0.0120313,-0.01104,0.00693779,0.0139568,-0.0129656,0.270732,0.0155472,0.0102106,951,442,1.8309,11.128
-266,582,1.81494,-11.3795,0.00818502,-0.00592448,0.0033815,0.00895357,-0.00669303,0.223485,0.00906494,0.00934579,958,442,1.81495,11.3795
-259,582,1.78564,-11.6407,0.0054555,-0.0017083,0.000699837,0.00552323,-0.00177603,0.0964753,0.00439544,0.00864086,965,442,1.78566,11.6407
-252,582,1.76385,-11.8762,0.00351281,0.00125955,-0.000680646,0.00370245,0.00106991,-0.271731,0.00220016,0.00841433,972,442,1.76386,11.8762
-245,582,1.77374,-12.0746,0.00222395,0.00258781,-0.00147599,0.00389304,0.000918724,-0.846719,0.00234977,0.0109754,979,442,1.77374,12.0746
-238,582,1.76978,-12.2464,0.00110106,0.00228103,-0.00110368,0.00294252,0.000439567,-1.03086,0.00183281,0.0154686,986,442,1.7698,12.2464
-231,582,1.76086,-12.4446,0.000700732,0.00119554,-0.000681243,0.00167291,0.000223361,-0.959577,0.00104878,0.0127977,993,442,1.76087,12.4446
-224,582,1.73553,-12.651,0.000612321,0.000141198,-0.000260691,0.000728113,2.54062e-05,-0.417997,0.000477165,0.0101202,1000,442,1.73554,12.651
-217,582,1.74274,-12.8456,0.000586195,-0.000987777,0.000150975,0.000600546,-0.00100213,0.0947682,0.000934937,0.0119306,1007,442,1.74272,12.8457
-210,582,1.77118,-13.0305,0.000595399,-0.00188097,0.000577431,0.000723424,-0.002009,0.218185,0.00163473,0.0119476,1014,442,1.7712,13.0305
-203,582,1.75775,-13.225,0.000645416,-0.00268428,0.00105438,0.000951209,-0.00299008,0.282279,0.00237483,0.00987625,1021,442,1.75775,13.225
-196,582,1.74548,-13.4262,0.000775133,-0.00318589,0.0014773,0.00126542,-0.00367618,0.320443,0.00296404,0.0159581,1028,442,1.74549,13.4262
-189,582,1.72913,-13.6094,0.00100823,-0.00346395,0.00180466,0.00164562,-0.00410134,0.339515,0.00341749,0.0218659,1035,442,1.72908,13.6094
-182,582,1.72095,-13.7705,0.00155934,-0.00338671,0.00177923,0.00213287,-0.00396025,0.311832,0.00357021,0.0149617,1042,442,1.72089,13.7705
-175,582,1.75562,-13.9209,0.00219248,-0.0032928,0.0017133,0.00268364,-0.00378396,0.279188,0.00375204,0.0127248,1049,442,1.75563,13.9209
-168,582,1.77197,-14.0766,0.00282574,-0.00294091,0.00159015,0.00323516,-0.00335033,0.251997,0.00380232,0.0104827,1056,442,1.77192,14.0766
-161,582,1.76929,-14.2137,0.00345088,-0.00259442,0.00136101,0.00374317,-0.0028867,0.21154,0.00383838,0.0115718,1063,442,1.76934,14.2137
-154,582,1.77625,-14.3513,0.00419169,-0.00245223,0.000977961,0.00433265,-0.00259319,0.143152,0.00404046,0.0115658,1070,442,1.77627,14.3513
-147,582,1.79602,-14.4997,0.00515813,-0.00188089,0.000360942,0.00517659,-0.00189935,0.0510987,0.00422883,0.0109683,1077,442,1.796,14.4997
-140,582,1.79883,-14.6158,0.00589461,-0.00138642,-0.000307516,0.00590757,-0.00139939,-0.0421352,0.00447833,0.0120431,1084,442,1.79887,14.6158
-133,582,1.83228,-14.7567,0.0062366,-0.000898156,-0.00113268,0.00641211,-0.00107366,-0.153722,0.00467391,0.0149281,1091,442,1.83232,14.7567
-126,582,1.86389,-14.8714,0.00673153,-0.001209,-0.00146477,0.00699311,-0.00147059,-0.176721,0.00522176,0.0127685,1098,442,1.86386,14.8714
-119,582,1.86511,-14.9863,0.00724447,-0.00156503,-0.00195677,0.00765955,-0.00198011,-0.209027,0.00587864,0.016882,1105,442,1.86514,14.9863
-112,582,1.87964,-15.127,0.00762112,-0.00182668,-0.00241619,0.00820318,-0.00240874,-0.236396,0.00642404,0.0248811,1112,442,1.87967,15.127
-105,582,1.9397,-15.2562,0.00788582,-0.00192737,-0.00290017,0.00867885,-0.00272039,-0.266916,0.00687452,0.0345556,1119,442,1.93974,15.2562
-98,582,2.05908,-15.5093,0.00803789,-0.00141266,-0.00335144,0.00910575,-0.00248051,-0.308456,0.00704445,0.0366614,1126,442,2.05912,15.5093
-91,582,2.08789,-15.5989,0.00817545,-0.00078136,-0.00400509,0.00970511,-0.00231102,-0.364832,0.00736233,0.0451014,1133,442,2.08791,15.5989
-84,582,2.23621,-15.8288,0,0,0,0,0,0,0,-1,1140,442,2.23622,15.8288
-77,582,2.30212,-11.4907,0,0,0,0,0,0,0,-1,1147,442,2.30207,11.4907
-70,582,1.49255,-6.36548,0,0,0,0,0,0,0,-1,1154,442,1.49251,6.36549
-63,582,-4.62915,-4.0347,0,0,0,0,0,0,0,-1,1161,442,-4.6292,4.03471
-56,582,-5.81714,-5.24149,0,0,0,0,0,0,0,-1,1168,442,-5.81718,5.24149
-49,582,-3.88672,-10.1064,0,0,0,0,0,0,0,-1,1175,442,-3.88678,10.1064
-42,582,-0.948975,1.13968,0,0,0,0,0,0,0,-1,1182,442,-0.949003,-1.13969
-35,582,-2.58435,-3.86911,0,0,0,0,0,0,0,-1,1189,442,-2.58437,3.86912
-28,582,-0.825317,-3.45941,0,0,0,0,0,0,0,-1,1196,442,-0.825377,3.45942
-21,582,3.51355,-15.8873,0,0,0,0,0,0,0,-1,1203,442,3.51358,15.8873
-14,582,2.71338,-15.9413,0,0,0,0,0,0,0,-1,1210,442,2.71339,15.9413
-7,582,1.91321,-15.9953,0,0,0,0,0,0,0,-1,1217,442,1.91321,15.9953
0,582,1.82886,-16.802,0,0,0,0,0,0,0,-1,1224,442,1.8288,16.802
7,582,3.11755,-16.1894,0,0,0,0,0,0,0,-1,1231,442,3.11757,16.1894
14,582,3.80334,-16.4696,-0.0204077,-0.00535451,-0.00104348,-0.00528252,-0.0204797,-1.50192,0.0122771,0.0490104,1238,442,3.80331,16.4696
21,582,3.72192,-16.8048,-0.0184499,-0.00296513,-0.00277254,-0.00248368,-0.0189314,-1.39886,0.0118799,0.0445862,1245,442,3.72193,16.8048
28,582,3.4873,-17.1522,0,0,0,0,0,0,0,-1,1252,442,3.48734,17.1522
35,582,3.33691,-16.1895,0,0,0,0,0,0,0,-1,1259,442,3.33689,16.1895
42,582,3.33728,-16.3843,-0.00807144,0.00836764,-0.00234162,0.00869468,-0.00839848,-1.43203,0.00986923,0.0444595,1266,442,3.33734,16.3843
49,582,3.0791,-16.5531,-0.00294089,0.0127586,-0.00125732,0.0128586,-0.00304094,-1.49138,0.00974552,0.0470106,1273,442,3.07912,16.5531
56,582,3.03162,-16.7231,0,0,0,0,0,0,0,-1,1280,442,3.03166,16.7231
63,582,2.33789,-17.7892,0.00558911,0.0203425,0.0060199,0.0224871,0.00344452,1.22856,0.0139853,0.0438816,1287,442,2.33786,17.7892
70,582,3.65845,-17.3706,0.0097653,0.0240927,0.0098152,0.0290804,0.00477758,1.10064,0.0180069,0.0456698,1294,442,3.65844,17.3706
77,582,3.40137,-17.0886,0.0139556,0.0265865,0.0134341,0.0351157,0.00542653,1.00512,0.0218276,0.0438439,1301,442,3.40139,17.0886
84,582,3.4093,-17.1158,0.0180213,0.0285685,0.0165666,0.0406806,0.00590916,0.939492,0.025381,0.043223,1308,442,3.40928,17.1158
91,582,3.57422,-16.8675,0.0211686,0.0298694,0.019439,0.0454388,0.00559914,0.895484,0.0286094,0.0438757,1315,442,3.5742,16.8675
98,582,3.45313,-16.6208,0.022669,0.0303432,0.0220256,0.0488634,0.00414879,0.871639,0.0312845,0.0421736,1322,442,3.4531,16.6208
105,582,3.25256,-16.4174,0.0233756,0.0296484,0.024051,0.0507667,0.00225737,0.850235,0.0331176,0.0429136,1329,442,3.25261,16.4175
112,582,3.06848,-16.2323,0,0,0,0,0,0,0,-1,1336,442,3.06852,16.2323
119,582,10.7233,-15.6178,0,0,0,0,0,0,0,-1,1343,442,10.7232,15.6178
126,582,2.5719,-15.1138,0,0,0,0,0,0,0,-1,1350,442,2.57196,15.1138
133,582,4.54028,-16.0222,0,0,0,0,0,0,0,-1,1357,442,4.54024,16.0222
140,582,4.24292,-15.7433,0,0,0,0,0,0,0,-1,1364,442,4.24292,15.7433
147,582,3.84326,-15.4597,0,0,0,0,0,0,0,-1,1371,442,3.84321,15.4597
154,582,3.45532,-15.2088,0,0,0,0,0,0,0,-1,1378,442,3.45529,15.2088
161,582,3.41809,-15.2343,0,0,0,0,0,0,0,-1,1385,442,3.41813,15.2343
168,582,22.1532,-13.8998,0,0,0,0,0,0,0,-1,1392,442,22.1532,13.8998
175,582,6.50549,-2.00424,0,0,0,0,0,0,0,-1,1399,442,6.50546,2.00425
182,582,5.18958,-2.18652,0,0,0,0,0,0,0,-1,1406,442,5.1896,2.18652
189,582,6.19751,-0.880951,0,0,0,0,0,0,0,-1,1413,442,6.19754,0.88096
196,582,4.87354,-2.22327,0,0,0,0,0,0,0,-1,1420,442,4.87348,2.22325
203,582,3.11401,-4.48257,0,0,0,0,0,0,0,-1,1427,442,3.11404,4.48259
210,582,2.93115,-11.0731,0,0,0,0,0,0,0,-1,1434,442,2.93113,11.0731
217,582,3.94849,-14.8781,0,0,0,0,0,0,0,-1,1441,442,3.94843,14.878
224,582,3.95313,-14.7432,-0.00036412,-0.00114037,-0.00660915,0.00586829,-0.00737278,-0.756069,0.00766117,0.0419269,1448,442,3.95307,14.7432
231,582,3.91003,-14.5963,-0.000277247,0.000517481,-0.00562013,0.00575428,-0.00551405,-0.820691,0.00650626,0.0419683,1455,442,3.90998,14.5963
238,582,3.79675,-14.6142,0.000284177,0.00158597,-0.00458293,0.00556399,-0.00369385,-0.855939,0.00538125,0.0415659,1462,442,3.7968,14.6142
245,582,3.78027,-14.6655,0.000862894,0.00239204,-0.00365928,0.00536577,-0.00211083,-0.888387,0.00445089,0.0416927,1469,442,3.78024,14.6655
252,582,3.84094,-14.3943,0.00130564,0.00282083,-0.00275222,0.00491783,-0.000791357,-0.919706,0.00357168,0.0294362,1476,442,3.84093,14.3943
259,582,3.75806,-14.2403,0.00158532,0.00280774,-0.00203291,0.00431934,7.37279e-05,-0.931428,0.0028553,0.0236507,1483,442,3.75808,14.2403
266,582,3.75403,-14.0298,0.0017943,0.00266555,-0.00151349,0.00380486,0.000654987,-0.925524,0.00234889,0.0171786,1490,442,3.75402,14.0298
273,582,3.81335,-13.8229,0.00186849,0.00248514,-0.00113897,0.00335678,0.000996844,-0.917582,0.00199059,0.0143662,1497,442,3.81331,13.8229
280,582,3.84399,-13.6488,0.00187391,0.00229821,-0.000692431,0.00281026,0.00136186,-0.934049,0.00162276,0.0119019,1504,442,3.84403,13.6488
287,582,3.86816,-13.461,0.00182098,0.00212713,-0.00048449,0.00248215,0.00146595,-0.93841,0.00144089,0.0109328,1511,442,3.86816,13.461
294,582,3.86353,-13.2717,0.00174781,0.00172796,-0.000312756,0.0020508,0.00142497,-0.769533,0.00121363,0.00921855,1518,442,3.86346,13.2717
301,582,3.87415,-13.0793,0.00155945,0.00115235,-0.000224492,0.00165894,0.00105287,-0.417141,0.000969298,0.00951133,1525,442,3.87417,13.0793
308,582,3.88586,-12.8901,0.00137189,0.000792836,-0.000135935,0.00140221,0.000762513,-0.21948,0.000810601,0.0120739,1532,442,3.88589,12.8901
315,582,3.87952,-12.693,0.00118798,0.000572754,-2.20235e-05,0.00118876,0.000571966,-0.0357366,0.000686495,0.014317,1539,442,3.87948,12.693
322,582,3.89734,-12.4924,0.000993456,0.000475134,0.000168507,0.00104342,0.000425169,0.288259,0.000605848,0.0111426,1546,442,3.89736,12.4924
329,582,3.90491,-12.3058,0.000810939,0.000486788,0.000414233,0.00109367,0.000204052,0.598921,0.000671514,0.0101174,1553,442,3.90488,12.3058
336,582,3.88611,-12.1055,0.000586845,0.000558177,0.000597029,0.00116971,-2.46903e-05,0.773396,0.000788167,0.0103674,1560,442,3.88608,12.1055
343,582,3.88037,-11.8476,0.000363793,0.00067554,0.000769289,0.00130459,-0.000265255,0.885355,0.000970305,0.0129593,1567,442,3.88041,11.8476
350,582,3.875,-11.651,0.000154647,0.000937166,0.000947953,0.00157143,-0.000479617,0.981119,0.00123884,0.0164445,1574,442,3.87504,11.651
357,582,3.87598,-11.4157,-7.46341e-05,0.00131582,0.00112305,0.00194142,-0.000700234,1.06255,0.00158028,0.0144452,1581,442,3.87596,11.4157
364,582,3.87964,-11.1849,-0.000338491,0.00179447,0.00123396,0.00235895,-0.000902971,1.14176,0.0019448,0.0110274,1588,442,3.87959,11.1849
371,582,3.8988,-10.976,-0.000574987,0.00229491,0.00132317,0.00281185,-0.00109192,1.19835,0.00232562,0.0145576,1595,442,3.89883,10.976
378,582,3.88879,-10.7541,-0.000896844,0.00276772,0.00132762,0.00319814,-0.00132727,1.25728,0.00268614,0.0154913,1602,442,3.88884,10.7541
385,582,3.85828,-10.5244,-0.00118806,0.00312446,0.00119927,0.00343552,-0.00149912,1.31701,0.00292122,0.0111531,1609,442,3.8583,10.5243
392,582,3.82349,-10.2765,-0.00129404,0.00343975,0.00101443,0.00364798,-0.00150227,1.36834,0.00305831,0.00933497,1616,442,3.82354,10.2765
399,582,3.80615,-10.0259,-0.00112457,0.00371062,0.00117939,0.00398296,-0.00139691,1.34386,0.00322347,0.013676,1623,442,3.80611,10.0259
406,582,3.81628,-9.69623,-0.000962279,0.00385009,0.00127543,0.00416722,-0.00127941,1.32709,0.00328865,0.021854,1630,442,3.81631,9.69623
413,582,3.74194,-9.42795,-0.000930312,0.00381738,0.00127118,0.00413631,-0.00124924,1.32498,0.00325487,0.0399432,1637,442,3.74198,9.42796
420,582,3.69409,-9.10037,0,0,0,0,0,0,0,-1,1644,442,3.69413,9.10037
427,582,3.67236,-8.99811,0,0,0,0,0,0,0,-1,1651,442,3.67237,8.99811
434,582,3.37903,-8.76154,0,0,0,0,0,0,0,-1,1658,442,3.37904,8.76154
441,582,3.49292,-8.53659,0,0,0,0,0,0,0,-1,1665,442,3.4929,8.53658
448,582,1.52722,-2.85928,0,0,0,0,0,0,0,-1,1672,442,1.52724,2.85927
455,582,3.6698,-4.4032,0,0,0,0,0,0,0,-1,1679,442,3.66983,4.40319
462,582,1.38074,-3.94418,0,0,0,0,0,0,0,-1,1686,442,1.38074,3.94419
469,582,2.32849,-9.08713,0,0,0,0,0,0,0,-1,1693,442,2.32844,9.08713
476,582,1.93945,-8.07642,0,0,0,0,0,0,0,-1,1700,442,1.93949,8.0764
483,582,0,0,0,0,0,0,0,0,0,-1,1707,442,0,0
490,582,0,0,0,0,0,0,0,0,0,-1,1714,442,0,0
497,582,0,0,0,0,0,0,0,0,0,-1,1721,442,0,0
504,582,0,0,0,0,0,0,0,0,0,-1,1728,442,0,0
511,582,0,0,0,0,0,0,0,0,0,-1,1735,442,0,0
518,582,0,0,0,0,0,0,0,0,0,-1,1742,442,0,0
525,582,0,0,0,0,0,0,0,0,0,-1,1749,442,0,0
532,582,0,0,0,0,0,0,0,0,0,-1,1756,442,0,0
539,582,0,0,0,0,0,0,0,0,0,-1,1763,442,0,0
546,582,0,0,0,0,0,0,0,0,0,-1,1770,442,0,0
553,582,0,0,0,0,0,0,0,0,0,-1,1777,442,0,0
560,582,0,0,0,0,0,0,0,0,0,-1,1784,442,0,0
567,582,0,0,0,0,0,0,0,0,0,-1,1791,442,0,0
574,582,0,0,0,0,0,0,0,0,0,-1,1798,442,0,0
581,582,0,0,0,0,0,0,0,0,0,-1,1805,442,0,0
588,582,0,0,0,0,0,0,0,0,0,-1,1812,442,0,0
595,582,0,0,0,0,0,0,0,0,0,-1,1819,442,0,0
602,582,0,0,0,0,0,0,0,0,0,-1,1826,442,0,0
609,582,0,0,0,0,0,0,0,0,0,-1,1833,442,0,0
616,582,0,0,0,0,0,0,0,0,0,-1,1840,442,0,0
623,582,0,0,0,0,0,0,0,0,0,-1,1847,442,0,0
630,582,0,0,0,0,0,0,0,0,0,-1,1854,442,0,0
637,582,0,0,0,0,0,0,0,0,0,-1,1861,442,0,0
644,582,0,0,0,0,0,0,0,0,0,-1,1868,442,0,0
651,582,0,0,0,0,0,0,0,0,0,-1,1875,442,0,0
658,582,0,0,0,0,0,0,0,0,0,-1,1882,442,0,0
665,582,0,0,0,0,0,0,0,0,0,-1,1889,442,0,0
672,582,0,0,0,0,0,0,0,0,0,-1,1896,442,0,0
679,582,0,0,0,0,0,0,0,0,0,-1,1903,442,0,0
686,582,0,0,0,0,0,0,0,0,0,-1,1910,442,0,0
693,582,0,0,0,0,0,0,0,0,0,-1,1917,442,0,0
700,582,0,0,0,0,0,0,0,0,0,-1,1924,442,0,0
707,582,0,0,0,0,0,0,0,0,0,-1,1931,442,0,0
714,582,0,0,0,0,0,0,0,0,0,-1,1938,442,0,0
721,582,0,0,0,0,0,0,0,0,0,-1,1945,442,0,0
728,582,0,0,0,0,0,0,0,0,0,-1,1952,442,0,0
735,582,0,0,0,0,0,0,0,0,0,-1,1959,442,0,0
742,582,0,0,0,0,0,0,0,0,0,-1,1966,442,0,0
749,582,0,0,0,0,0,0,0,0,0,-1,1973,442,0,0
756,582,0,0,0,0,0,0,0,0,0,-1,1980,442,0,0
763,582,0,0,0,0,0,0,0,0,0,-1,1987,442,0,0
770,582,0,0,0,0,0,0,0,0,0,-1,1994,442,0,0
777,582,0,0,0,0,0,0,0,0,0,-1,2001,442,0,0
784,582,0,0,0,0,0,0,0,0,0,-1,2008,442,0,0
791,582,0,0,0,0,0,0,0,0,0,-1,2015,442,0,0
798,582,0,0,0,0,0,0,0,0,0,-1,2022,442,0,0
805,582,0,0,0,0,0,0,0,0,0,-1,2029,442,0,0
812,582,0,0,0,0,0,0,0,0,0,-1,2036,442,0,0
-700,575,0,0,0,0,0,0,0,0,0,-1,524,449,0,0
-693,575,0,0,0,0,0,0,0,0,0,-1,531,449,0,0
-686,575,0,0,0,0,0,0,0,0,0,-1,538,449,0,0
-679,575,0,0,0,0,0,0,0,0,0,-1,545,449,0,0
-672,575,0,0,0,0,0,0,0,0,0,-1,552,449,0,0
-665,575,0,0,0,0,0,0,0,0,0,-1,559,449,0,0
-658,575,0,0,0,0,0,0,0,0,0,-1,566,449,0,0
-651,575,0,0,0,0,0,0,0,0,0,-1,573,449,0,0
-644,575,0,0,0,0,0,0,0,0,0,-1,580,449,0,0
-637,575,0,0,0,0,0,0,0,0,0,-1,587,449,0,0
-630,575,0,0,0,0,0,0,0,0,0,-1,594,449,0,0
-623,575,0,0,0,0,0,0,0,0,0,-1,601,449,0,0
-616,575,0,0,0,0,0,0,0,0,0,-1,608,449,0,0
-609,575,0,0,0,0,0,0,0,0,0,-1,615,449,0,0
-602,575,0,0,0,0,0,0,0,0,0,-1,622,449,0,0
-595,575,0,0,0,0,0,0,0,0,0,-1,629,449,0,0
-588,575,0,0,0,0,0,0,0,0,0,-1,636,449,0,0
-581,575,0,0,0,0,0,0,0,0,0,-1,643,449,0,0
-574,575,0,0,0,0,0,0,0,0,0,-1,650,449,0,0
-567,575,0,0,0,0,0,0,0,0,0,-1,657,449,0,0
-560,575,0,0,0,0,0,0,0,0,0,-1,664,449,0,0
-553,575,0,0,0,0,0,0,0,0,0,-1,671,449,0,0
-546,575,0,0,0,0,0,0,0,0,0,-1,678,449,0,0
-539,575,0,0,0,0,0,0,0,0,0,-1,685,449,0,0
-532,575,0,0,0,0,0,0,0,0,0,-1,692,449,0,0
-525,575,0,0,0,0,0,0,0,0,0,-1,699,449,0,0
-518,575,0,0,0,0,0,0,0,0,0,-1,706,449,0,0
-511,575,0,0,0,0,0,0,0,0,0,-1,713,449,0,0
-504,575,0,0,0,0,0,0,0,0,0,-1,720,449,0,0
-497,575,0,0,0,0,0,0,0,0,0,-1,727,449,0,0
-490,575,0,0,0,0,0,0,0,0,0,-1,734,449,0,0
-483,575,0,0,0,0,0,0,0,0,0,-1,741,449,0,0
-476,575,0,0,0,0,0,0,0,0,0,-1,748,449,0,0
-469,575,0,0,0,0,0,0,0,0,0,-1,755,449,0,0
-462,575,0,0,0,0,0,0,0,0,0,-1,762,449,0,0
-455,575,0,0,0,0,0,0,0,0,0,-1,769,449,0,0
-448,575,0,0,0,0,0,0,0,0,0,-1,776,449,0,0
-441,575,0,0,0,0,0,0,0,0,0,-1,783,449,0,0
-434,575,0,0,0,0,0,0,0,0,0,-1,790,449,0,0
-427,575,0,0,0,0,0,0,0,0,0,-1,797,449,0,0
-420,575,0,0,0,0,0,0,0,0,0,-1,804,449,0,0
-413,575,0,0,0,0,0,0,0,0,0,-1,811,449,0,0
-406,575,0,0,0,0,0,0,0,0,0,-1,818,449,0,0
-399,575,0,0,0,0,0,0,0,0,0,-1,825,449,0,0
-392,575,0,0,0,0,0,0,0,0,0,-1,832,449,0,0
-385,575,0,0,0,0,0,0,0,0,0,-1,839,449,0,0
-378,575,0,0,0,0,0,0,0,0,0,-1,846,449,0,0
-371,575,0.56897,-3.52304,0,0,0,0,0,0,0,-1,853,449,0.568955,3.52306
-364,575,1.49805,-4.67191,0,0,0,0,0,0,0,-1,860,449,1.49803,4.6719
-357,575,3.15521,-8.29892,0,0,0,0,0,0,0,-1,867,449,3.15521,8.29891
-350,575,2.76715,-7.23752,0,0,0,0,0,0,0,-1,874,449,2.76717,7.2375
-343,575,0.6922,-9.68082,0,0,0,0,0,0,0,-1,881,449,0.692185,9.68081
-336,575,-7.10437,-12.5906,0,0,0,0,0,0,0,-1,888,449,-7.10436,12.5906
-329,575,1.37329,-9.57083,0,0,0,0,0,0,0,-1,895,449,1.37331,9.57084
-322,575,1.36731,-9.67743,0,0,0,0,0,0,0,-1,902,449,1.36729,9.67742
-315,575,1.69757,-9.91714,0.0447222,-0.0436385,0.0477273,0.0655788,-0.0644951,0.411986,0.075099,0.0470808,909,449,1.69757,9.91715
-308,575,1.76172,-10.0322,0.0364904,-0.036449,0.0370111,0.0519809,-0.0519394,0.396383,0.0599984,0.0445358,916,449,1.76171,10.0322
-301,575,1.74738,-10.2044,0.0293023,-0.0295811,0.028052,0.0405266,-0.0408054,0.380616,0.0469572,0.0330414,923,449,1.74735,10.2044
-294,575,1.65936,-10.4631,0.023383,-0.0231371,0.0205769,0.0311783,-0.0309324,0.362133,0.0358598,0.0243256,930,449,1.65938,10.4631
-287,575,1.638,-10.7157,0.0183015,-0.0174717,0.0147992,0.0236302,-0.0228003,0.345611,0.0268081,0.016603,937,449,1.63798,10.7157
-280,575,1.6319,-10.9416,0.0129692,-0.0120193,0.00886483,0.0157946,-0.0148447,0.308541,0.0176924,0.0125674,944,449,1.63191,10.9416
-273,575,1.61993,-11.1614,0.00877627,-0.00749556,0.00445568,0.00991646,-0.00863576,0.250521,0.0107196,0.0111731,951,449,1.61994,11.1614
-266,575,1.60919,-11.3971,0.0059556,-0.00398989,0.0019549,0.00632606,-0.00436035,0.187282,0.00620449,0.0119647,958,449,1.6092,11.3971
-259,575,1.59491,-11.647,0.00401227,-0.00119218,0.000177562,0.00401832,-0.00119823,0.0340644,0.00315507,0.0119787,965,449,1.59494,11.647
-252,575,1.56458,-11.8607,0.00264969,0.000536801,-0.000608387,0.00281235,0.000374144,-0.261248,0.00176347,0.0109506,972,449,1.56455,11.8607
-245,575,1.55701,-12.0531,0.00182197,0.00104536,-0.000973784,0.00248201,0.000385318,-0.595681,0.00154236,0.0137355,979,449,1.55701,12.0531
-238,575,1.57239,-12.2537,0.00122256,0.00043394,-0.00047786,0.00144779,0.000208709,-0.440452,0.000903692,0.0141345,986,449,1.57239,12.2537
-231,575,1.56409,-12.4403,0.00105825,-0.000689604,-1.24989e-06,0.00105825,-0.000689605,-0.000715099,0.00101658,0.0121314,993,449,1.56411,12.4403
-224,575,1.53412,-12.6248,0.00107853,-0.00179172,0.000519171,0.00116955,-0.00188274,0.173556,0.00177821,0.0113231,1000,449,1.53412,12.6248
-217,575,1.55865,-12.8265,0.00112484,-0.00294845,0.00105986,0.00138411,-0.00320772,0.239916,0.00271989,0.0097113,1007,449,1.55868,12.8265
-210,575,1.58832,-13.0351,0.00117402,-0.00387025,0.00162157,0.00165032,-0.00434656,0.285696,0.00357705,0.00830005,1014,449,1.58832,13.0351
-203,575,1.57001,-13.2238,0.00124448,-0.00474919,0.0022312,0.00198386,-0.00548857,0.319992,0.00446958,0.0115762,1021,449,1.57003,13.2237
-196,575,1.56848,-13.4214,0.00141406,-0.0052726,0.00277583,0.0024162,-0.00627473,0.34646,0.00517993,0.0157996,1028,449,1.56851,13.4214
-189,575,1.5791,-13.6025,0.00176839,-0.00551135,0.00315716,0.00294685,-0.00668981,0.35725,0.00570191,0.0163057,1035,449,1.57909,13.6025
-182,575,1.57397,-13.7457,0.00238491,-0.00533342,0.00318163,0.00352733,-0.00647584,0.344732,0.00585837,0.0138405,1042,449,1.57401,13.7457
-175,575,1.60181,-13.9019,0.00307695,-0.00513511,0.00309913,0.00411525,-0.00617341,0.323275,0.00597964,0.0113475,1049,449,1.6018,13.9018
-168,575,1.60083,-14.0524,0.00383021,-0.00461389,0.00290905,0.00473537,-0.00551905,0.301657,0.00592615,0.00971177,1056,449,1.60078,14.0524
-161,575,1.60059,-14.2139,0.004629,-0.00408519,0.00257166,0.00533132,-0.00478751,0.2666,0.00584492,0.0135651,1063,449,1.60059,14.2139
-154,575,1.61707,-14.3531,0.00561341,-0.00384018,0.00199278,0.00601631,-0.00424308,0.19949,0.00595268,0.0167815,1070,449,1.61709,14.353
-147,575,1.66345,-14.4562,0.00697387,-0.00288288,0.00107437,0.00708962,-0.00299862,0.10732,0.00598195,0.0169031,1077,449,1.66341,14.4562
-140,575,1.62244,-14.5473,0.00801525,-0.00196194,7.36192e-05,0.0080158,-0.00196249,0.00737821,0.0061041,0.0264661,1084,449,1.62239,14.5473
-133,575,1.82764,-14.7208,0.00845195,-0.000933338,-0.00126175,0.00861862,-0.00110001,-0.131333,0.00614532,0.0346625,1091,449,1.82768,14.7208
-126,575,1.98096,-14.7378,0.00912763,-0.00124981,-0.00166178,0.00938725,-0.00150942,-0.154973,0.00681723,0.0410712,1098,449,1.98096,14.7378
-119,575,2.06311,-14.8757,0,0,0,0,0,0,0,-1,1105,449,2.06312,14.8757
-112,575,1.77063,-14.9784,0.010084,-0.00240109,-0.0028155,0.0106896,-0.00300664,-0.21185,0.00831187,0.0436227,1112,449,1.77066,14.9784
-105,575,1.73218,-15.041,0.0102601,-0.0028242,-0.00340712,0.0110941,-0.00365824,-0.240073,0.0088706,0.049638,1119,449,1.73223,15.041
-98,575,1.69934,-14.982,0,0,0,0,0,0,0,-1,1126,449,1.69932,14.982
-91,575,2.05273,-15.5866,0,0,0,0,0,0,0,-1,1133,449,2.05274,15.5866
-84,575,1.16553,-11.9056,0,0,0,0,0,0,0,-1,1140,449,1.16558,11.9056
-77,575,0.205078,-11.2584,0,0,0,0,0,0,0,-1,1147,449,0.205117,11.2584
-70,575,-4.2467,-1.78738,0,0,0,0,0,0,0,-1,1154,449,-4.24674,1.78739
-63,575,-4.52209,-3.48798,0,0,0,0,0,0,0,-1,1161,449,-4.5221,3.48796
-56,575,-5.5968,-5.4928,0,0,0,0,0,0,0,-1,1168,449,-5.59683,5.49281
-49,575,-5.96863,-7.17612,0,0,0,0,0,0,0,-1,1175,449,-5.96868,7.1761
-42,575,-0.830322,0.773499,0,0,0,0,0,0,0,-1,1182,449,-0.83038,-0.77351
-35,575,-0.62085,0.205139,0,0,0,0,0,0,0,-1,1189,449,-0.620855,-0.205126
-28,575,0.49292,-3.87988,0,0,0,0,0,0,0,-1,1196,449,0.492941,3.87989
-21,575,4.00586,-16.2337,0,0,0,0,0,0,0,-1,1203,449,4.0058,16.2337
-14,575,3.29407,-15.7256,-0.0331377,-0.0141473,0.0237956,0.00197764,-0.0492626,0.975233,0.0335204,0.0461462,1210,449,3.29409,15.7256
-7,575,2.63928,-15.1473,-0.0308851,-0.0125437,0.017679,-0.00179832,-0.0416305,1.02466,0.027174,0.0443738,1217,449,2.63922,15.1473
0,575,1.97742,-14.6818,0,0,0,0,0,0,0,-1,1224,449,1.97739,14.6818
7,575,4.06152,-16.3389,0,0,0,0,0,0,0,-1,1231,449,4.06158,16.3389
14,575,3.97302,-16.595,-0.028301,-0.00625979,0.00173398,-0.00612421,-0.0284365,1.49277,0.0172819,0.0485116,1238,449,3.97298,16.595
21,575,3.78845,-16.9203,-0.0259083,-0.00323207,-0.000748041,-0.00320742,-0.0259329,-1.53786,0.0163249,0.0430145,1245,449,3.7885,16.9204
28,575,4.61902,-16.1498,0,0,0,0,0,0,0,-1,1252,449,4.61907,16.1499
35,575,3.98804,-16.3137,-0.0184439,0.00556002,-0.00157279,0.00566263,-0.0185465,-1.50565,0.0146221,0.0457623,1259,449,3.98804,16.3137
42,575,3.53198,-16.4798,-0.0122368,0.0110056,-0.00186975,0.011155,-0.0123863,-1.49103,0.0135978,0.0439012,1266,449,3.53197,16.4798
49,575,3.12512,-16.4304,-0.00550609,0.0165755,-0.00142921,0.0166677,-0.00559821,-1.50643,0.0133743,0.0462511,1273,449,3.12513,16.4304
56,575,3.1521,-16.6786,0,0,0,0,0,0,0,-1,1280,449,3.15208,16.6787
63,575,2.29126,-18.1117,0.00654997,0.0265204,0.00705024,0.0287585,0.00431183,1.2634,0.017909,0.0445641,1287,449,2.29122,18.1117
70,575,2.56653,-17.8633,0.0123148,0.0315361,0.0116173,0.0370028,0.00684804,1.13097,0.0227323,0.0434796,1294,449,2.56654,17.8633
77,575,2.80371,-17.6851,0.0178958,0.0346008,0.0163738,0.0446294,0.00786721,1.02125,0.0275081,0.0482051,1301,449,2.80368,17.6851
84,575,3.11914,-17.6076,0.0234613,0.0370721,0.0206854,0.0520428,0.00849062,0.944319,0.0322398,0.0475037,1308,449,3.11913,17.6076
91,575,3.53369,-17.3586,0.0278552,0.0387823,0.0248475,0.0587598,0.00787772,0.893618,0.0368292,0.0434069,1315,449,3.53373,17.3586
98,575,3.65967,-16.7227,0.0299193,0.0393499,0.028634,0.0636543,0.00561492,0.867003,0.0406939,0.0413232,1322,449,3.65969,16.7227
105,575,3.38574,-16.4453,0,0,0,0,0,0,0,-1,1329,449,3.3858,16.4453
112,575,9.71204,-15.7618,0,0,0,0,0,0,0,-1,1336,449,9.71205,15.7619
119,575,9.19873,-15.8369,0,0,0,0,0,0,0,-1,1343,449,9.19868,15.8369
126,575,8.55457,-15.6596,0,0,0,0,0,0,0,-1,1350,449,8.55453,15.6596
133,575,1.29895,-15.2055,0,0,0,0,0,0,0,-1,1357,449,1.29897,15.2056
140,575,4.74939,-15.6443,0,0,0,0,0,0,0,-1,1364,449,4.74945,15.6442
147,575,4.30713,-15.3418,0,0,0,0,0,0,0,-1,1371,449,4.30717,15.3418
154,575,10.4966,-16.0625,0,0,0,0,0,0,0,-1,1378,449,10.4966,16.0625
161,575,11.4615,-17.2199,0,0,0,0,0,0,0,-1,1385,449,11.4616,17.2199
168,575,9.2522,-0.307129,0,0,0,0,0,0,0,-1,1392,449,9.25225,0.307127
175,575,4.32617,1.93634,0,0,0,0,0,0,0,-1,1399,449,4.32612,-1.93634
182,575,6.3147,-2.88345,0,0,0,0,0,0,0,-1,1406,449,6.31466,2.88346
189,575,6.10449,-1.30817,0,0,0,0,0,0,0,-1,1413,449,6.10455,1.30817
196,575,5.79895,0.818359,0,0,0,0,0,0,0,-1,1420,449,5.79895,-0.81837
203,575,3.29724,-1.46378,0,0,0,0,0,0,0,-1,1427,449,3.29722,1.46377
210,575,2.32739,-7.74503,0,0,0,0,0,0,0,-1,1434,449,2.32741,7.74502
217,575,3.33618,-11.5521,0,0,0,0,0,0,0,-1,1441,449,3.3362,11.5521
224,575,4.30383,-14.6662,0,0,0,0,0,0,0,-1,1448,449,4.30378,14.6662
231,575,4.23523,-14.5632,0,0,0,0,0,0,0,-1,1455,449,4.23518,14.5632
238,575,4.21765,-14.7031,0,0,0,0,0,0,0,-1,1462,449,4.21771,14.7031
245,575,4.09583,-15.0666,0,0,0,0,0,0,0,-1,1469,449,4.09586,15.0666
252,575,4.06409,-14.6841,0,0,0,0,0,0,0,-1,1476,449,4.06407,14.6841
259,575,3.93848,-14.5492,0,0,0,0,0,0,0,-1,1483,449,3.93853,14.5492
266,575,3.89331,-14.2452,0,0,0,0,0,0,0,-1,1490,449,3.89336,14.2452
273,575,3.96655,-13.9168,0,0,0,0,0,0,0,-1,1497,449,3.96653,13.9168
280,575,3.9364,-13.6769,0,0,0,0,0,0,0,-1,1504,449,3.93645,13.6769
287,575,3.99609,-13.4661,0.00237247,0.00253019,-0.000838397,0.00329343,0.00160923,-0.832291,0.00190163,0.0170945,1511,449,3.99603,13.4661
294,575,4.06104,-13.2768,0.00221523,0.00197809,-0.000738674,0.00284479,0.00134853,-0.705817,0.00164318,0.010569,1518,449,4.06103,13.2768
301,575,4.08606,-13.0901,0.00190711,0.00123285,-0.00076499,0.00240596,0.000733996,-0.577853,0.00142383,0.00950834,1525,449,4.08612,13.0901
308,575,4.08472,-12.8994,0.00154827,0.000738551,-0.000831973,0.00206866,0.000218159,-0.558953,0.00131245,0.0104007,1532,449,4.08472,12.8994
315,575,4.07532,-12.7066,0.00118478,0.000440456,-0.000856215,0.00174622,-0.000120981,-0.580385,0.0012065,0.0114836,1539,449,4.07529,12.7066
322,575,4.09814,-12.4988,0.00085334,0.000297845,-0.00074895,0.00137439,-0.0002232,-0.607835,0.000999003,0.010146,1546,449,4.09816,12.4988
329,575,4.09131,-12.3025,0.000595751,0.000273944,-0.000550076,0.00100797,-0.000138278,-0.643112,0.000722499,0.00979613,1553,449,4.09127,12.3025
336,575,4.07776,-12.0841,0.000349199,0.000318776,-0.000353969,0.000688283,-2.03079e-05,-0.763924,0.000465772,0.0114901,1560,449,4.0778,12.0841
343,575,4.1012,-11.8425,8.9935e-05,0.00043916,-0.000164066,0.000504145,2.49497e-05,-1.19366,0.000328097,0.0122938,1567,449,4.10118,11.8425
350,575,4.09204,-11.6257,-9.82298e-05,0.000628095,5.38362e-05,0.000632064,-0.000102199,1.49721,0.000459248,0.0117547,1574,449,4.09199,11.6257
357,575,4.09045,-11.4104,-0.000261083,0.000911283,0.000277261,0.000973548,-0.000323347,1.34989,0.000779499,0.0114238,1581,449,4.09041,11.4104
364,575,4.09094,-11.1867,-0.000418703,0.00129223,0.000482777,0.00141906,-0.000545527,1.3139,0.00117103,0.0108117,1588,449,4.09099,11.1867
371,575,4.08765,-10.9804,-0.000544742,0.00166601,0.000684863,0.00186097,-0.00073971,1.29345,0.00154732,0.0187851,1595,449,4.08759,10.9804
378,575,4.10583,-10.7544,-0.000726983,0.00201748,0.000815377,0.00224145,-0.000950953,1.30273,0.00189267,0.017994,1602,449,4.10583,10.7544
385,575,4.07104,-10.5135,-0.000881113,0.00229889,0.000807252,0.00249207,-0.0010743,1.3359,0.00211258,0.011197,1609,449,4.07103,10.5135
392,575,4.05481,-10.2757,-0.000872009,0.00248202,0.000772011,0.00265119,-0.00104117,1.35508,0.0021983,0.00851358,1616,449,4.05487,10.2757
399,575,4.04578,-10.048,-0.000673404,0.00269213,0.00097757,0.00295547,-0.000936748,1.30766,0.00234576,0.00889868,1623,449,4.04578,10.048
406,575,4.03723,-9.78555,-0.000513937,0.00280186,0.00112639,0.0031483,-0.00086038,1.27241,0.00243683,0.0103846,1630,449,4.03721,9.78555
413,575,4.02734,-9.51056,-0.000475357,0.00280592,0.00120494,0.00320085,-0.000870295,1.25406,0.00247553,0.012047,1637,449,4.0273,9.51055
420,575,4.0116,-9.25656,-0.000531698,0.00276568,0.00124173,0.00318098,-0.000947004,1.24803,0.00249692,0.0133786,1644,449,4.01165,9.25655
427,575,3.97034,-9.02728,-0.00062396,0.00262737,0.00115993,0.00299876,-0.000995348,1.26093,0.00240075,0.0196531,1651,449,3.97037,9.02728
434,575,3.85767,-8.84262,-0.000486873,0.00247335,0.0011821,0.00288746,-0.000900985,1.23384,0.00228529,0.0309565,1658,449,3.85765,8.84262
441,575,3.94702,-8.62277,-0.000466073,0.00239985,0.0012927,0.00289677,-0.000962994,1.20381,0.00231979,0.0496821,1665,449,3.94697,8.62277
448,575,4.26709,-7.92191,0,0,0,0,0,0,0,-1,1672,449,4.26714,7.92189
455,575,4.67908,-7.45175,0,0,0,0,0,0,0,-1,1679,449,4.67907,7.45175
462,575,2.07434,-7.07288,0,0,0,0,0,0,0,-1,1686,449,2.07432,7.07287
469,575,3.72583,-7.26123,0,0,0,0,0,0,0,-1,1693,449,3.72583,7.26122
476,575,2.82593,-7.49521,0,0,0,0,0,0,0,-1,1700,449,2.82591,7.49522
483,575,2.66467,-6.96179,0,0,0,0,0,0,0,-1,1707,449,2.66467,6.96181
490,575,2.59277,-6.34253,0,0,0,0,0,0,0,-1,1714,449,2.59275,6.34252
497,575,0,0,0,0,0,0,0,0,0,-1,1721,449,0,0
504,575,0,0,0,0,0,0,0,0,0,-1,1728,449,0,0
511,575,0,0,0,0,0,0,0,0,0,-1,1735,449,0,0
518,575,0,0,0,0,0,0,0,0,0,-1,1742,449,0,0
525,575,0,0,0,0,0,0,0,0,0,-1,1749,449,0,0
532,575,0,0,0,0,0,0,0,0,0,-1,1756,449,0,0
539,575,0,0,0,0,0,0,0,0,0,-1,1763,449,0,0
546,575,0,0,0,0,0,0,0,0,0,-1,1770,449,0,0
553,575,0,0,0,0,0,0,0,0,0,-1,1777,449,0,0
560,575,0,0,0,0,0,0,0,0,0,-1,1784,449,0,0
567,575,0,0,0,0,0,0,0,0,0,-1,1791,449,0,0
574,575,0,0,0,0,0,0,0,0,0,-1,1798,449,0,0
581,575,0,0,0,0,0,0,0,0,0,-1,1805,449,0,0
588,575,0,0,0,0,0,0,0,0,0,-1,1812,449,0,0
595,575,0,0,0,0,0,0,0,0,0,-1,1819,449,0,0
602,575,0,0,0,0,0,0,0,0,0,-1,1826,449,0,0
609,575,0,0,0,0,0,0,0,0,0,-1,1833,449,0,0
616,575,0,0,0,0,0,0,0,0,0,-1,1840,449,0,0
623,575,0,0,0,0,0,0,0,0,0,-1,1847,449,0,0
630,575,0,0,0,0,0,0,0,0,0,-1,1854,449,0,0
637,575,0,0,0,0,0,0,0,0,0,-1,1861,449,0,0
644,575,0,0,0,0,0,0,0,0,0,-1,1868,449,0,0
651,575,0,0,0,0,0,0,0,0,0,-1,1875,449,0,0
658,575,0,0,0,0,0,0,0,0,0,-1,1882,449,0,0
665,575,0,0,0,0,0,0,0,0,0,-1,1889,449,0,0
672,575,0,0,0,0,0,0,0,0,0,-1,1896,449,0,0
679,575,0,0,0,0,0,0,0,0,0,-1,1903,449,0,0
686,575,0,0,0,0,0,0,0,0,0,-1,1910,449,0,0
693,575,0,0,0,0,0,0,0,0,0,-1,1917,449,0,0
700,575,0,0,0,0,0,0,0,0,0,-1,1924,449,0,0
707,575,0,0,0,0,0,0,0,0,0,-1,1931,449,0,0
714,575,0,0,0,0,0,0,0,0,0,-1,1938,449,0,0
721,575,0,0,0,0,0,0,0,0,0,-1,1945,449,0,0
728,575,0,0,0,0,0,0,0,0,0,-1,1952,449,0,0
735,575,0,0,0,0,0,0,0,0,0,-1,1959,449,0,0
742,575,0,0,0,0,0,0,0,0,0,-1,1966,449,0,0
749,575,0,0,0,0,0,0,0,0,0,-1,1973,449,0,0
756,575,0,0,0,0,0,0,0,0,0,-1,1980,449,0,0
763,575,0,0,0,0,0,0,0,0,0,-1,1987,449,0,0
770,575,0,0,0,0,0,0,0,0,0,-1,1994,449,0,0
777,575,0,0,0,0,0,0,0,0,0,-1,2001,449,0,0
784,575,0,0,0,0,0,0,0,0,0,-1,2008,449,0,0
791,575,0,0,0,0,0,0,0,0,0,-1,2015,449,0,0
798,575,0,0,0,0,0,0,0,0,0,-1,2022,449,0,0
805,575,0,0,0,0,0,0,0,0,0,-1,2029,449,0,0
812,575,0,0,0,0,0,0,0,0,0,-1,2036,449,0,0
-700,568,0,0,0,0,0,0,0,0,0,-1,524,456,0,0
-693,568,0,0,0,0,0,0,0,0,0,-1,531,456,0,0
-686,568,0,0,0,0,0,0,0,0,0,-1,538,456,0,0
-679,568,0,0,0,0,0,0,0,0,0,-1,545,456,0,0
-672,568,0,0,0,0,0,0,0,0,0,-1,552,456,0,0
-665,568,0,0,0,0,0,0,0,0,0,-1,559,456,0,0
-658,568,0,0,0,0,0,0,0,0,0,-1,566,456,0,0
-651,568,0,0,0,0,0,0,0,0,0,-1,573,456,0,0
-644,568,0,0,0,0,0,0,0,0,0,-1,580,456,0,0
-637,568,0,0,0,0,0,0,0,0,0,-1,587,456,0,0
-630,568,0,0,0,0,0,0,0,0,0,-1,594,456,0,0
-623,568,0,0,0,0,0,0,0,0,0,-1,601,456,0,0
-616,568,0,0,0,0,0,0,0,0,0,-1,608,456,0,0
-609,568,0,0,0,0,0,0,0,0,0,-1,615,456,0,0
-602,568,0,0,0,0,0,0,0,0,0,-1,622,456,0,0
-595,568,0,0,0,0,0,0,0,0,0,-1,629,456,0,0
-588,568,0,0,0,0,0,0,0,0,0,-1,636,456,0,0
-581,568,0,0,0,0,0,0,0,0,0,-1,643,456,0,0
-574,568,0,0,0,0,0,0,0,0,0,-1,650,456,0,0
-567,568,0,0,0,0,0,0,0,0,0,-1,657,456,0,0
-560,568,0,0,0,0,0,0,0,0,0,-1,664,456,0,0
-553,568,0,0,0,0,0,0,0,0,0,-1,671,456,0,0
-546,568,0,0,0,0,0,0,0,0,0,-1,678,456,0,0
-539,568,0,0,0,0,0,0,0,0,0,-1,685,456,0,0
-532,568,0,0,0,0,0,0,0,0,0,-1,692,456,0,0
-525,568,0,0,0,0,0,0,0,0,0,-1,699,456,0,0
-518,568,0,0,0,0,0,0,0,0,0,-1,706,456,0,0
-511,568,0,0,0,0,0,0,0,0,0,-1,713,456,0,0
-504,568,0,0,0,0,0,0,0,0,0,-1,720,456,0,0
-497,568,0,0,0,0,0,0,0,0,0,-1,727,456,0,0
-490,568,0,0,0,0,0,0,0,0,0,-1,734,456,0,0
-483,568,0,0,0,0,0,0,0,0,0,-1,741,456,0,0
-476,568,0,0,0,0,0,0,0,0,0,-1,748,456,0,0
-469,568,0,0,0,0,0,0,0,0,0,-1,755,456,0,0
-462,568,0,0,0,0,0,0,0,0,0,-1,762,456,0,0
-455,568,0,0,0,0,0,0,0,0,0,-1,769,456,0,0
-448,568,0,0,0,0,0,0,0,0,0,-1,776,456,0,0
-441,568,0,0,0,0,0,0,0,0,0,-1,783,456,0,0
-434,568,0,0,0,0,0,0,0,0,0,-1,790,456,0,0
-427,568,0,0,0,0,0,0,0,0,0,-1,797,456,0,0
-420,568,0,0,0,0,0,0,0,0,0,-1,804,456,0,0
-413,568,0,0,0,0,0,0,0,0,0,-1,811,456,0,0
-406,568,0,0,0,0,0,0,0,0,0,-1,818,456,0,0
-399,568,0,0,0,0,0,0,0,0,0,-1,825,456,0,0
-392,568,0,0,0,0,0,0,0,0,0,-1,832,456,0,0
-385,568,0,0,0,0,0,0,0,0,0,-1,839,456,0,0
-378,568,0.321777,-7.29929,0,0,0,0,0,0,0,-1,846,456,0.321806,7.29927
-371,568,1.09595,-7.46707,0,0,0,0,0,0,0,-1,853,456,1.09597,7.46707
-364,568,1.87787,-7.61115,0,0,0,0,0,0,0,-1,860,456,1.87784,7.61116
-357,568,2.14166,-7.67645,0,0,0,0,0,0,0,-1,867,456,2.14167,7.67646
-350,568,1.29108,-9.94327,0,0,0,0,0,0,0,-1,874,456,1.29105,9.94326
-343,568,1.79224,-8.04129,0,0,0,0,0,0,0,-1,881,456,1.79225,8.04129
-336,568,1.18964,-9.28931,0,0,0,0,0,0,0,-1,888,456,1.18964,9.28932
-329,568,1.30237,-9.42908,0.0495405,-0.0432884,0.0555817,0.075539,-0.0692869,0.437518,0.0836412,0.0469787,895,456,1.30238,9.42908
-322,568,1.40588,-9.577,0.041141,-0.037342,0.0445345,0.0612562,-0.0574572,0.424248,0.0685509,0.0439518,902,456,1.40588,9.57699
-315,568,1.46979,-9.75223,0.0338029,-0.0315424,0.0350301,0.0490324,-0.0467719,0.410102,0.0553177,0.0395796,909,456,1.46976,9.75223
-308,568,1.48199,-10.0594,0.0274543,-0.0260177,0.026968,0.0386931,-0.0372565,0.39486,0.0438522,0.0280915,916,456,1.48198,10.0594
-301,568,1.50079,-10.257,0.0218897,-0.0208346,0.0201999,0.0299278,-0.0288728,0.378721,0.0339504,0.0150082,923,456,1.50082,10.257
-294,568,1.44427,-10.485,0.0172933,-0.0160752,0.0146103,0.0227862,-0.0215681,0.35961,0.0256112,0.0114648,930,456,1.44429,10.485
-287,568,1.41168,-10.7319,0.0134141,-0.0120039,0.0103438,0.0170914,-0.0156812,0.341578,0.0189271,0.010272,937,456,1.4117,10.7319
-280,568,1.42163,-10.9656,0.00938451,-0.00810692,0.00591167,0.0111951,-0.0099175,0.297201,0.0121968,0.0103163,944,456,1.42163,10.9656
-273,568,1.40747,-11.1901,0.00631547,-0.0050035,0.00271107,0.00693131,-0.00561933,0.223366,0.0072593,0.011572,951,456,1.40748,11.1901
-266,568,1.38776,-11.4199,0.0043771,-0.00276546,0.00101009,0.0045172,-0.00290556,0.137819,0.00431907,0.0113697,958,456,1.38773,11.4199
-259,568,1.38794,-11.6511,0.00308854,-0.00106382,-0.000106206,0.00309125,-0.00106654,-0.025555,0.00249357,0.0121469,965,456,1.38797,11.6511
-252,568,1.35913,-11.8483,0.00216389,-0.00031178,-0.000466289,0.0022488,-0.000396692,-0.180129,0.00164743,0.0115979,972,456,1.35915,11.8483
-245,568,1.34326,-12.027,0.0016531,-0.000471978,-0.000500007,0.00176487,-0.000583746,-0.219917,0.00141197,0.012919,979,456,1.34325,12.027
-238,568,1.36005,-12.2338,0.00137751,-0.00146442,0.000151851,0.0013856,-0.00147251,0.0532302,0.00165038,0.0120037,986,456,1.36008,12.2338
-231,568,1.3653,-12.4383,0.0013127,-0.0027603,0.00071797,0.00143556,-0.00288315,0.169473,0.00253967,0.010792,993,456,1.36527,12.4383
-224,568,1.3446,-12.6289,0.00134883,-0.00405831,0.00139166,0.00168598,-0.00439547,0.237688,0.00362542,0.0113833,1000,456,1.34458,12.6289
-217,568,1.37885,-12.8337,0.0013916,-0.00539058,0.00212748,0.00200372,-0.0060027,0.280152,0.00481086,0.00988581,1007,456,1.37883,12.8337
-210,568,1.40826,-13.0315,0.00142142,-0.00649949,0.00289638,0.00236751,-0.00744558,0.315721,0.00591305,0.010379,1014,456,1.40825,13.0315
-203,568,1.40668,-13.2131,0.0014741,-0.00760526,0.00373128,0.00281074,-0.0089419,0.343984,0.00708649,0.0100218,1021,456,1.40667,13.2131
-196,568,1.42126,-13.3852,0.0016897,-0.00827181,0.00449282,0.00341665,-0.00999877,0.366969,0.00805015,0.0134793,1028,456,1.42129,13.3852
-189,568,1.42847,-13.5465,0.00220254,-0.00855764,0.00502393,0.00418351,-0.0105386,0.375589,0.00875982,0.013405,1035,456,1.42847,13.5465
-182,568,1.41626,-13.7077,0.0029721,-0.00832397,0.0051719,0.00498232,-0.0103342,0.370711,0.00902114,0.0140667,1042,456,1.41632,13.7077
-175,568,1.44348,-13.885,0.00382779,-0.00800555,0.00513383,0.00574459,-0.00992235,0.357337,0.00915188,0.0117493,1049,456,1.44352,13.885
-168,568,1.43079,-14.0304,0.00483048,-0.00723999,0.00491471,0.00657846,-0.00898798,0.341711,0.0090231,0.0153655,1056,456,1.43077,14.0304
-161,568,1.38696,-14.2158,0.00593892,-0.00641807,0.00448642,0.00739599,-0.00787513,0.314026,0.00881823,0.025535,1063,456,1.38692,14.2158
-154,568,1.43115,-14.4666,0,0,0,0,0,0,0,-1,1070,456,1.43121,14.4666
-147,568,1.70227,-14.5368,0.00923818,-0.00438483,0.00230706,0.00961828,-0.00476492,0.163287,0.00846027,0.0421319,1077,456,1.70231,14.5368
-140,568,1.71558,-14.622,0.0107827,-0.00275021,0.000854682,0.0108365,-0.00280397,0.062823,0.00831804,0.0445964,1084,456,1.71563,14.622
-133,568,1.98218,-14.8607,0.011281,-0.000664719,-0.00134178,0.0114299,-0.000813578,-0.110489,0.00790507,0.0452336,1091,456,1.98223,14.8607
-126,568,2.19067,-15.0604,0,0,0,0,0,0,0,-1,1098,456,2.19068,15.0604
-119,568,1.54114,-14.2608,0,0,0,0,0,0,0,-1,1105,456,1.5411,14.2608
-112,568,1.65808,-14.751,0,0,0,0,0,0,0,-1,1112,456,1.65814,14.751
-105,568,1.55579,-14.6719,0,0,0,0,0,0,0,-1,1119,456,1.55583,14.6719
-98,568,1.47131,-14.329,0,0,0,0,0,0,0,-1,1126,456,1.47133,14.329
-91,568,1.11621,-11.1853,0,0,0,0,0,0,0,-1,1133,456,1.11626,11.1853
-84,568,0.461792,-9.7959,0,0,0,0,0,0,0,-1,1140,456,0.461793,9.7959
-77,568,-1.13806,-8.57822,0,0,0,0,0,0,0,-1,1147,456,-1.13807,8.57821
-70,568,-4.09766,-1.42911,0,0,0,0,0,0,0,-1,1154,456,-4.09767,1.4291
-63,568,-5.92273,-3.70752,0,0,0,0,0,0,0,-1,1161,456,-5.92272,3.70751
-56,568,-5.24158,-6.01385,0,0,0,0,0,0,0,-1,1168,456,-5.24161,6.01386
-49,568,-5.24365,-8.33557,0,0,0,0,0,0,0,-1,1175,456,-5.24371,8.33557
-42,568,-0.664795,0.521973,0,0,0,0,0,0,0,-1,1182,456,-0.664829,-0.521984
-35,568,-0.153076,-1.67731,0,0,0,0,0,0,0,-1,1189,456,-0.153068,1.67731
-28,568,1.25439,-4.48798,0,0,0,0,0,0,0,-1,1196,456,1.2544,4.48797
-21,568,3.82458,-16.253,0,0,0,0,0,0,0,-1,1203,456,3.82453,16.2529
-14,568,3.33691,-15.5933,-0.0431099,-0.0173149,0.0335012,0.00568573,-0.0661106,0.969147,0.046086,0.0434855,1210,456,3.33696,15.5933
-7,568,2.99341,-15.0869,-0.0402032,-0.0151533,0.0257249,0.000933742,-0.0562903,1.01195,0.0378419,0.0448088,1217,456,2.99337,15.0869
0,568,4.30969,-16.207,0,0,0,0,0,0,0,-1,1224,456,4.30971,16.207
7,568,4.2406,-16.4577,-0.0386973,-0.0103378,0.011073,-0.00652651,-0.0425085,1.2393,0.0264335,0.0492098,1231,456,4.24065,16.4577
14,568,4.17712,-16.688,-0.0375989,-0.00746744,0.00575439,-0.00640589,-0.0386604,1.38837,0.0239259,0.0473133,1238,456,4.17718,16.6881
21,568,5.44971,-16.306,0,0,0,0,0,0,0,-1,1245,456,5.44972,16.306
28,568,4.7998,-16.5152,-0.0310914,0.00102421,0.000675387,0.00103841,-0.0311056,1.54978,0.0210917,0.0435246,1252,456,4.79983,16.5152
35,568,4.15259,-16.7726,-0.0252491,0.00705769,0.00034014,0.00706127,-0.0252527,1.56027,0.0196172,0.0447616,1259,456,4.1526,16.7726
42,568,3.67798,-16.6069,0,0,0,0,0,0,0,-1,1266,456,3.67793,16.6069
49,568,3.23901,-16.4621,0,0,0,0,0,0,0,-1,1273,456,3.23901,16.4621
56,568,2.00403,-18.3145,-0.000359886,0.0274713,0.00339663,0.0278799,-0.000768426,1.45109,0.0188479,0.0451118,1280,456,2.00409,18.3144
63,568,2.23389,-18.3706,0.00727431,0.0333881,0.00815248,0.0357242,0.00493817,1.29172,0.0223527,0.0458759,1287,456,2.23387,18.3706
70,568,2.75439,-18.2012,0.0149167,0.039904,0.0135113,0.0458127,0.00900797,1.15854,0.0280259,0.0467532,1294,456,2.75442,18.2012
77,568,3.03003,-18.0653,0.0221182,0.0435432,0.0195893,0.0551577,0.0105036,1.03561,0.0338188,0.0487927,1301,456,3.03009,18.0653
84,568,3.28491,-17.9987,0.0295311,0.0465225,0.0252312,0.06465,0.0114037,0.947793,0.0398465,0.0470246,1308,456,3.28494,17.9986
91,568,3.6615,-17.7477,0.0354734,0.0487174,0.0308872,0.0736844,0.0105064,0.890996,0.0460223,0.0406523,1315,456,3.66156,17.7477
98,568,4.12085,-17.3687,0.0382113,0.0493684,0.0361133,0.0803314,0.00724825,0.86203,0.0513092,0.0435465,1322,456,4.1208,17.3687
105,568,4.72339,-16.8832,0,0,0,0,0,0,0,-1,1329,456,4.72341,16.8832
112,568,5.40662,-16.3904,0,0,0,0,0,0,0,-1,1336,456,5.4066,16.3904
119,568,7.63916,-16.294,0,0,0,0,0,0,0,-1,1343,456,7.63917,16.294
126,568,7.36426,-15.882,0,0,0,0,0,0,0,-1,1350,456,7.36427,15.882
133,568,7.67798,-15.1823,0,0,0,0,0,0,0,-1,1357,456,7.67794,15.1823
140,568,6.69946,-16.4707,0,0,0,0,0,0,0,-1,1364,456,6.69944,16.4707
147,568,9.34766,-14.9638,0,0,0,0,0,0,0,-1,1371,456,9.34769,14.9638
154,568,10.2979,-16.1237,0,0,0,0,0,0,0,-1,1378,456,10.2979,16.1237
161,568,10.1455,-15.5122,0,0,0,0,0,0,0,-1,1385,456,10.1455,15.5122
168,568,-0.458252,-13.0519,0,0,0,0,0,0,0,-1,1392,456,-0.458298,13.0519
175,568,10.5151,0.747498,0,0,0,0,0,0,0,-1,1399,456,10.5152,-0.747501
182,568,6.35095,-3.63361,0,0,0,0,0,0,0,-1,1406,456,6.35093,3.63359
189,568,6.17493,-1.70911,0,0,0,0,0,0,0,-1,1413,456,6.17497,1.70911
196,568,6.04724,0.200836,0,0,0,0,0,0,0,-1,1420,456,6.04724,-0.200835
203,568,5.9281,2.08649,0,0,0,0,0,0,0,-1,1427,456,5.92812,-2.08648
210,568,1.46216,-2.50446,0,0,0,0,0,0,0,-1,1434,456,1.46219,2.50446
217,568,2.62366,-7.86703,0,0,0,0,0,0,0,-1,1441,456,2.62365,7.86704
224,568,3.43494,-12.1555,0,0,0,0,0,0,0,-1,1448,456,3.43492,12.1555
231,568,4.38245,-9.3205,0,0,0,0,0,0,0,-1,1455,456,4.38244,9.32048
238,568,3.88123,-9.43616,0,0,0,0,0,0,0,-1,1462,456,3.88117,9.43617
245,568,3.34387,-10.6774,0,0,0,0,0,0,0,-1,1469,456,3.34389,10.6774
252,568,3.56946,-9.28928,0,0,0,0,0,0,0,-1,1476,456,3.56948,9.28928
259,568,3.38843,-8.73068,0,0,0,0,0,0,0,-1,1483,456,3.38842,8.73068
266,568,3.104,-9.16876,0,0,0,0,0,0,0,-1,1490,456,3.10397,9.16876
273,568,3.77869,-13.1147,0,0,0,0,0,0,0,-1,1497,456,3.77869,13.1147
280,568,3.98059,-13.7769,0,0,0,0,0,0,0,-1,1504,456,3.98053,13.7769
287,568,4.18481,-13.4266,0.00332225,0.00273727,-0.00106474,0.00413394,0.00192558,-0.651352,0.00238859,0.0461064,1511,456,4.18476,13.4266
294,568,4.25232,-13.2657,0.0031239,0.00203509,-0.00100036,0.0037184,0.00144059,-0.536206,0.00216488,0.0276608,1518,456,4.25234,13.2657
301,568,4.28406,-13.0856,0.00271375,0.00112763,-0.00112413,0.00329642,0.000544967,-0.4782,0.00204036,0.0197043,1525,456,4.28402,13.0856
308,568,4.28442,-12.8799,0.00212935,0.000488562,-0.00136529,0.00290178,-0.000283861,-0.51486,0.00203574,0.0125208,1532,456,4.2844,12.8799
315,568,4.27625,-12.6967,0.00148641,0.000128951,-0.0015467,0.00249675,-0.000881392,-0.578638,0.00202334,0.00858652,1539,456,4.27619,12.6967
322,568,4.28088,-12.5113,0.000930919,-2.95311e-05,-0.00152962,0.00205392,-0.00115253,-0.633295,0.00187547,0.0100429,1546,456,4.28088,12.5113
329,568,4.29358,-12.2889,0.00052174,-5.56273e-05,-0.00139146,0.00165415,-0.00118804,-0.683115,0.00164828,0.0103038,1553,456,4.29362,12.2889
336,568,4.30884,-12.0499,0.000175398,-1.20814e-05,-0.00120539,0.00129069,-0.00112737,-0.746593,0.00139713,0.0111006,1560,456,4.30878,12.0499
343,568,4.33496,-11.8429,-0.000182654,0.000126862,-0.00102705,0.00101074,-0.00106654,-0.860177,0.00119946,0.0111953,1567,456,4.335,11.8429
350,568,4.32288,-11.6575,-0.000407574,0.000256562,-0.000804926,0.000795227,-0.000946238,-0.981035,0.00100669,0.0100978,1574,456,4.32293,11.6575
357,568,4.31372,-11.4371,-0.000551385,0.000451718,-0.000565094,0.000705736,-0.000805402,-1.14835,0.000873088,0.00916013,1581,456,4.31374,11.4371
364,568,4.33862,-11.2162,-0.000636342,0.00076195,-0.000288199,0.000819021,-0.000693413,-1.3753,0.000874207,0.0114855,1588,456,4.33864,11.2162
371,568,4.3114,-10.9781,-0.000670371,0.00105062,-9.45219e-07,0.00105062,-0.000670372,-1.57025,0.00100167,0.0212227,1595,456,4.31143,10.9781
378,568,4.31238,-10.7422,-0.000723607,0.00131919,0.000222273,0.00134309,-0.000747512,1.46366,0.00122323,0.0186497,1602,456,4.31238,10.7422
385,568,4.29858,-10.5217,-0.000742598,0.00156827,0.000337874,0.00161665,-0.000790986,1.42855,0.00141704,0.00958635,1609,456,4.29862,10.5217
392,568,4.28406,-10.2821,-0.000628748,0.0016761,0.000451155,0.00176126,-0.000713911,1.38422,0.00147107,0.0100231,1616,456,4.28403,10.2821
399,568,4.2655,-10.0699,-0.000414478,0.00186361,0.0007001,0.00206156,-0.000612431,1.29524,0.00161763,0.0156763,1623,456,4.26554,10.0699
406,568,4.27454,-9.81271,-0.000254746,0.00198219,0.000907905,0.0023043,-0.000576855,1.22987,0.00176028,0.0146336,1630,456,4.27448,9.81271
413,568,4.26306,-9.53192,-0.000194904,0.00205349,0.00107428,0.00248426,-0.000625667,1.18945,0.00189939,0.0110717,1637,456,4.26309,9.53192
420,568,4.26831,-9.25696,-0.000214959,0.00206602,0.00118811,0.00257244,-0.000721379,1.16787,0.00199928,0.00964544,1644,456,4.2683,9.25697
427,568,4.2699,-8.98532,-0.000296026,0.00200031,0.00117347,0.00249388,-0.0007896,1.17265,0.00197901,0.0120722,1651,456,4.2699,8.98533
434,568,4.26721,-8.75159,-0.000242779,0.00190727,0.00123874,0.00247241,-0.000807921,1.14278,0.0019735,0.0159134,1658,456,4.26716,8.75159
441,568,4.25269,-8.57169,-0.000302406,0.00181637,0.00131746,0.00244754,-0.000933579,1.12402,0.00201627,0.0234834,1665,456,4.25265,8.57167
448,568,4.39026,-8.07135,-0.00079559,0.00186687,0.00115931,0.00230091,-0.00122963,1.21256,0.0020694,0.0391131,1672,456,4.39021,8.07136
455,568,4.4519,-7.62866,0,0,0,0,0,0,0,-1,1679,456,4.45185,7.62865
462,568,4.07544,-7.48782,0,0,0,0,0,0,0,-1,1686,456,4.07539,7.48784
469,568,4.05334,-7.29617,0,0,0,0,0,0,0,-1,1693,456,4.05339,7.29618
476,568,4.03137,-7.10452,0,0,0,0,0,0,0,-1,1700,456,4.03139,7.10453
483,568,3.46252,-6.30411,0,0,0,0,0,0,0,-1,1707,456,3.46256,6.3041
490,568,4.8728,-4.79684,0,0,0,0,0,0,0,-1,1714,456,4.87274,4.79683
497,568,6.58289,-3.47745,0,0,0,0,0,0,0,-1,1721,456,6.58294,3.47744
504,568,0,0,0,0,0,0,0,0,0,-1,1728,456,0,0
511,568,0,0,0,0,0,0,0,0,0,-1,1735,456,0,0
518,568,0,0,0,0,0,0,0,0,0,-1,1742,456,0,0
525,568,0,0,0,0,0,0,0,0,0,-1,1749,456,0,0
532,568,0,0,0,0,0,0,0,0,0,-1,1756,456,0,0
539,568,0,0,0,0,0,0,0,0,0,-1,1763,456,0,0
546,568,0,0,0,0,0,0,0,0,0,-1,1770,456,0,0
553,568,0,0,0,0,0,0,0,0,0,-1,1777,456,0,0
560,568,0,0,0,0,0,0,0,0,0,-1,1784,456,0,0
567,568,0,0,0,0,0,0,0,0,0,-1,1791,456,0,0
574,568,0,0,0,0,0,0,0,0,0,-1,1798,456,0,0
581,568,0,0,0,0,0,0,0,0,0,-1,1805,456,0,0
588,568,0,0,0,0,0,0,0,0,0,-1,1812,456,0,0
595,568,0,0,0,0,0,0,0,0,0,-1,1819,456,0,0
602,568,0,0,0,0,0,0,0,0,0,-1,1826,456,0,0
609,568,0,0,0,0,0,0,0,0,0,-1,1833,456,0,0
616,568,0,0,0,0,0,0,0,0,0,-1,1840,456,0,0
623,568,0,0,0,0,0,0,0,0,0,-1,1847,456,0,0
630,568,0,0,0,0,0,0,0,0,0,-1,1854,456,0,0
637,568,0,0,0,0,0,0,0,0,0,-1,1861,456,0,0
644,568,0,0,0,0,0,0,0,0,0,-1,1868,456,0,0
651,568,0,0,0,0,0,0,0,0,0,-1,1875,456,0,0
658,568,0,0,0,0,0,0,0,0,0,-1,1882,456,0,0
665,568,0,0,0,0,0,0,0,0,0,-1,1889,456,0,0
672,568,0,0,0,0,0,0,0,0,0,-1,1896,456,0,0
679,568,0,0,0,0,0,0,0,0,0,-1,1903,456,0,0
686,568,0,0,0,0,0,0,0,0,0,-1,1910,456,0,0
693,568,0,0,0,0,0,0,0,0,0,-1,1917,456,0,0
700,568,0,0,0,0,0,0,0,0,0,-1,1924,456,0,0
707,568,0,0,0,0,0,0,0,0,0,-1,1931,456,0,0
714,568,0,0,0,0,0,0,0,0,0,-1,1938,456,0,0
721,568,0,0,0,0,0,0,0,0,0,-1,1945,456,0,0
728,568,0,0,0,0,0,0,0,0,0,-1,1952,456,0,0
735,568,0,0,0,0,0,0,0,0,0,-1,1959,456,0,0
742,568,0,0,0,0,0,0,0,0,0,-1,1966,456,0,0
749,568,0,0,0,0,0,0,0,0,0,-1,1973,456,0,0
756,568,0,0,0,0,0,0,0,0,0,-1,1980,456,0,0
763,568,0,0,0,0,0,0,0,0,0,-1,1987,456,0,0
770,568,0,0,0,0,0,0,0,0,0,-1,1994,456,0,0
777,568,0,0,0,0,0,0,0,0,0,-1,2001,456,0,0
784,568,0,0,0,0,0,0,0,0,0,-1,2008,456,0,0
791,568,0,0,0,0,0,0,0,0,0,-1,2015,456,0,0
798,568,0,0,0,0,0,0,0,0,0,-1,2022,456,0,0
805,568,0,0,0,0,0,0,0,0,0,-1,2029,456,0,0
812,568,0,0,0,0,0,0,0,0,0,-1,2036,456,0,0
-700,561,0,0,0,0,0,0,0,0,0,-1,524,463,0,0
-693,561,0,0,0,0,0,0,0,0,0,-1,531,463,0,0
-686,561,0,0,0,0,0,0,0,0,0,-1,538,463,0,0
-679,561,0,0,0,0,0,0,0,0,0,-1,545,463,0,0
-672,561,0,0,0,0,0,0,0,0,0,-1,552,463,0,0
-665,561,0,0,0,0,0,0,0,0,0,-1,559,463,0,0
-658,561,0,0,0,0,0,0,0,0,0,-1,566,463,0,0
-651,561,0,0,0,0,0,0,0,0,0,-1,573,463,0,0
-644,561,0,0,0,0,0,0,0,0,0,-1,580,463,0,0
-637,561,0,0,0,0,0,0,0,0,0,-1,587,463,0,0
-630,561,0,0,0,0,0,0,0,0,0,-1,594,463,0,0
-623,561,0,0,0,0,0,0,0,0,0,-1,601,463,0,0
-616,561,0,0,0,0,0,0,0,0,0,-1,608,463,0,0
-609,561,0,0,0,0,0,0,0,0,0,-1,615,463,0,0
-602,561,0,0,0,0,0,0,0,0,0,-1,622,463,0,0
-595,561,0,0,0,0,0,0,0,0,0,-1,629,463,0,0
-588,561,0,0,0,0,0,0,0,0,0,-1,636,463,0,0
-581,561,0,0,0,0,0,0,0,0,0,-1,643,463,0,0
-574,561,0,0,0,0,0,0,0,0,0,-1,650,463,0,0
-567,561,0,0,0,0,0,0,0,0,0,-1,657,463,0,0
-560,561,0,0,0,0,0,0,0,0,0,-1,664,463,0,0
-553,561,0,0,0,0,0,0,0,0,0,-1,671,463,0,0
-546,561,0,0,0,0,0,0,0,0,0,-1,678,463,0,0
-539,561,0,0,0,0,0,0,0,0,0,-1,685,463,0,0
-532,561,0,0,0,0,0,0,0,0,0,-1,692,463,0,0
-525,561,0,0,0,0,0,0,0,0,0,-1,699,463,0,0
-518,561,0,0,0,0,0,0,0,0,0,-1,706,463,0,0
-511,561,0,0,0,0,0,0,0,0,0,-1,713,463,0,0
-504,561,0,0,0,0,0,0,0,0,0,-1,720,463,0,0
-497,561,0,0,0,0,0,0,0,0,0,-1,727,463,0,0
-490,561,0,0,0,0,0,0,0,0,0,-1,734,463,0,0
-483,561,0,0,0,0,0,0,0,0,0,-1,741,463,0,0
-476,561,0,0,0,0,0,0,0,0,0,-1,748,463,0,0
-469,561,0,0,0,0,0,0,0,0,0,-1,755,463,0,0
-462,561,0,0,0,0,0,0,0,0,0,-1,762,463,0,0
-455,561,0,0,0,0,0,0,0,0,0,-1,769,463,0,0
-448,561,0,0,0,0,0,0,0,0,0,-1,776,463,0,0
-441,561,0,0,0,0,0,0,0,0,0,-1,783,463,0,0
-434,561,0,0,0,0,0,0,0,0,0,-1,790,463,0,0
-427,561,0,0,0,0,0,0,0,0,0,-1,797,463,0,0
-420,561,0,0,0,0,0,0,0,0,0,-1,804,463,0,0
-413,561,0,0,0,0,0,0,0,0,0,-1,811,463,0,0
-406,561,0,0,0,0,0,0,0,0,0,-1,818,463,0,0
-399,561,0,0,0,0,0,0,0,0,0,-1,825,463,0,0
-392,561,4.92407,-2.54578,0,0,0,0,0,0,0,-1,832,463,4.92408,2.54576
-385,561,5.55634,-1.02338,0,0,0,0,0,0,0,-1,839,463,5.55634,1.02338
-378,561,0.495178,-7.37878,0,0,0,0,0,0,0,-1,846,463,0.495164,7.37879
-371,561,1.06299,-7.56818,0,0,0,0,0,0,0,-1,853,463,1.06297,7.56817
-364,561,1.45264,-7.57684,0,0,0,0,0,0,0,-1,860,463,1.45264,7.57684
-357,561,1.11652,-7.33923,0,0,0,0,0,0,0,-1,867,463,1.11652,7.33924
-350,561,1.45264,-8.11682,0,0,0,0,0,0,0,-1,874,463,1.45264,8.11681
-343,561,1.22351,-8.66254,0,0,0,0,0,0,0,-1,881,463,1.22349,8.66253
-336,561,1.09052,-9.26855,0,0,0,0,0,0,0,-1,888,463,1.09054,9.26857
-329,561,1.13373,-9.41861,0.0358579,-0.0305676,0.0389018,0.0537962,-0.0485059,0.432062,0.0590905,0.0368099,895,463,1.13375,9.4186
-322,561,1.22083,-9.53412,0.0298024,-0.0261551,0.0312665,0.0437808,-0.0401335,0.420417,0.0484632,0.0292126,902,463,1.22083,9.53413
-315,561,1.26563,-9.69998,0.0244267,-0.021865,0.0245258,0.035004,-0.0324423,0.407169,0.0389495,0.0202284,909,463,1.26565,9.69997
-308,561,1.26257,-9.98218,0.0197585,-0.0177971,0.018725,0.0274992,-0.0255378,0.391995,0.0306279,0.0155416,916,463,1.26254,9.98217
-301,561,1.24835,-10.2689,0.0156284,-0.0140198,0.013814,0.0210671,-0.0194585,0.37507,0.0234036,0.0122758,923,463,1.24836,10.2689
-294,561,1.19806,-10.4992,0.0122336,-0.0106404,0.00981635,0.0158686,-0.0142754,0.354646,0.0174117,0.0106555,930,463,1.19806,10.4992
-287,561,1.18182,-10.7348,0.00943389,-0.00786379,0.00681094,0.0117937,-0.0102236,0.333535,0.0127225,0.00870166,937,463,1.18181,10.7348
-280,561,1.19135,-10.9596,0.00659508,-0.00526108,0.0036754,0.007642,-0.00630801,0.277497,0.00806631,0.0103171,944,463,1.19133,10.9596
-273,561,1.1781,-11.1863,0.00453662,-0.00333476,0.00148065,0.00480593,-0.00360407,0.179916,0.00487201,0.0136704,951,463,1.17811,11.1863
-266,561,1.16901,-11.4083,0.00336317,-0.00214455,0.000387876,0.00339035,-0.00217173,0.0699639,0.00323686,0.00940605,958,463,1.16899,11.4083
-259,561,1.17633,-11.6334,0.00264083,-0.00133904,-0.000222566,0.00265324,-0.00135145,-0.0556915,0.00235248,0.00996291,965,463,1.17631,11.6334
-252,561,1.14429,-11.8297,0.00206289,-0.00139464,-0.000249149,0.00208075,-0.0014125,-0.0715672,0.00202909,0.014348,972,463,1.14426,11.8296
-245,561,1.13031,-12.0305,0.00177639,-0.00213498,-3.06872e-06,0.0017764,-0.00213498,-0.000784563,0.00226139,0.0162226,979,463,1.1303,12.0305
-238,561,1.15143,-12.24,0.00175245,-0.00357211,0.000860205,0.00188797,-0.00370763,0.15626,0.00328707,0.0124944,986,463,1.15144,12.24
-231,561,1.15308,-12.4531,0.00173512,-0.00512723,0.0015612,0.0020736,-0.00546571,0.213504,0.00449729,0.0106621,993,463,1.15307,12.4531
-224,561,1.16748,-12.6703,0.00172878,-0.00671804,0.00245486,0.0023904,-0.00737966,0.26326,0.00588081,0.0103756,1000,463,1.16747,12.6703
-217,561,1.20721,-12.8501,0.00171389,-0.00832617,0.00345881,0.0027901,-0.00940237,0.301653,0.00737632,0.0107013,1007,463,1.20721,12.8501
-210,561,1.22668,-13.0259,0.00166581,-0.00973413,0.00452262,0.00324209,-0.0113104,0.335366,0.00882184,0.0120068,1014,463,1.22671,13.0259
-203,561,1.21832,-13.2087,0.00163523,-0.0111891,0.00568656,0.00379353,-0.0133474,0.362749,0.0103961,0.0136941,1021,463,1.21834,13.2087
-196,561,1.20752,-13.3873,0.00184039,-0.0121126,0.00677324,0.00458749,-0.0148597,0.385309,0.0117383,0.0145795,1028,463,1.20754,13.3873
-189,561,1.21191,-13.541,0.00246876,-0.0125251,0.00755861,0.00561779,-0.0156742,0.394747,0.0127418,0.016348,1035,463,1.21189,13.541
-182,561,1.24695,-13.7347,0.00337332,-0.0122693,0.00793207,0.00669161,-0.0155875,0.396215,0.0132003,0.0188549,1042,463,1.24697,13.7347
-175,561,1.24792,-13.8944,0.00443588,-0.0118314,0.00800031,0.00771105,-0.0151066,0.388567,0.0134024,0.0276891,1049,463,1.24795,13.8944
-168,561,1.21729,-14.1076,0.00575481,-0.0107983,0.00782414,0.00886767,-0.0139111,0.378654,0.0132583,0.0404119,1056,463,1.21725,14.1076
-161,561,1.21838,-14.3696,0.00724745,-0.00964959,0.00741307,0.0100386,-0.0124408,0.360105,0.0130032,0.0441296,1063,463,1.21838,14.3696
-154,561,1.24756,-14.4849,0,0,0,0,0,0,0,-1,1070,463,1.24759,14.4849
-147,561,1.40479,-14.5554,0.0119021,-0.00641492,0.0045021,0.0129488,-0.00746167,0.228443,0.0119251,0.0441399,1077,463,1.40474,14.5554
-140,561,1.60779,-14.5536,0.0143072,-0.00367457,0.00248666,0.0146447,-0.00401211,0.134916,0.0113396,0.0424691,1084,463,1.60784,14.5536
-133,561,1.69043,-14.5185,0,0,0,0,0,0,0,-1,1091,463,1.69039,14.5185
-126,561,1.19836,-12.106,0,0,0,0,0,0,0,-1,1098,463,1.19839,12.106
-119,561,1.06567,-12.5626,0,0,0,0,0,0,0,-1,1105,463,1.06562,12.5626
-112,561,0.836548,-13.0954,0,0,0,0,0,0,0,-1,1112,463,0.836578,13.0954
-105,561,0.530518,-13.5379,0,0,0,0,0,0,0,-1,1119,463,0.530477,13.5379
-98,561,1.5387,-7.54352,0,0,0,0,0,0,0,-1,1126,463,1.53871,7.54351
-91,561,1.29553,-6.57968,0,0,0,0,0,0,0,-1,1133,463,1.29549,6.5797
-84,561,1.23364,-5.84555,0,0,0,0,0,0,0,-1,1140,463,1.23363,5.84556
-77,561,-2.36023,1.00204,0,0,0,0,0,0,0,-1,1147,463,-2.3602,-1.00205
-70,561,-3.90015,-1.41541,0,0,0,0,0,0,0,-1,1154,463,-3.90009,1.4154
-63,561,-6.95691,-4.02756,0,0,0,0,0,0,0,-1,1161,463,-6.95696,4.02756
-56,561,-5.37988,-6.66855,0,0,0,0,0,0,0,-1,1168,463,-5.37988,6.66854
-49,561,-5.7439,-9.11029,0,0,0,0,0,0,0,-1,1175,463,-5.74387,9.1103
-42,561,-1.72644,-5.63065,0,0,0,0,0,0,0,-1,1182,463,-1.72648,5.63064
-35,561,-1.65674,-4.87994,0,0,0,0,0,0,0,-1,1189,463,-1.6567,4.87993
-28,561,-1.91418,-3.86896,0,0,0,0,0,0,0,-1,1196,463,-1.91414,3.86895
-21,561,3.64539,-16.0598,0,0,0,0,0,0,0,-1,1203,463,3.64535,16.0598
-14,561,3.11841,-15.4025,-0.0539246,-0.0209355,0.0450766,0.0105697,-0.0854297,0.960792,0.0607835,0.0413664,1210,463,3.11835,15.4025
-7,561,2.63892,-14.7565,-0.050552,-0.0180458,0.0353628,0.00462011,-0.0732179,1.00081,0.0504226,0.0456701,1217,463,2.63892,14.7565
0,561,2.19238,-14.1412,0,0,0,0,0,0,0,-1,1224,463,2.19242,14.1412
7,561,4.37732,-16.5823,-0.0493535,-0.0122843,0.0178315,-0.00509939,-0.0565384,1.18776,0.0361127,0.0497256,1231,463,4.37727,16.5823
14,561,4.57764,-16.3287,-0.0485116,-0.00907754,0.0113568,-0.00604068,-0.0515484,1.30951,0.0325395,0.0421502,1238,463,4.57765,16.3287
21,561,5.50415,-16.7177,0,0,0,0,0,0,0,-1,1245,463,5.50417,16.7177
28,561,4.68445,-16.5989,-0.0408876,0.000960439,0.00446674,0.0014319,-0.041359,1.46564,0.0280622,0.0447081,1252,463,4.6844,16.5989
35,561,4.00415,-16.6377,-0.033518,0.00832439,0.00339354,0.00859783,-0.0337915,1.49039,0.0258742,0.0417444,1259,463,4.00409,16.6377
42,561,3.53955,-16.9974,-0.0242038,0.0162946,0.00104134,0.0163213,-0.0242306,1.54511,0.0235606,0.0458695,1266,463,3.53956,16.9974
49,561,3.03589,-17.5101,0,0,0,0,0,0,0,-1,1273,463,3.03587,17.5101
56,561,2.15125,-18.1358,0,0,0,0,0,0,0,-1,1280,463,2.15129,18.1358
63,561,2.50024,-18.5279,0,0,0,0,0,0,0,-1,1287,463,2.50019,18.5279
70,561,2.93445,-18.6522,0.0172677,0.0488622,0.0154591,0.0551678,0.0109621,1.18351,0.0337237,0.0476031,1294,463,2.93445,18.6522
77,561,3.20618,-18.6577,0.0262731,0.053036,0.0230159,0.0662777,0.0130314,1.04871,0.0405455,0.0478221,1301,463,3.20616,18.6577
84,561,3.49646,-18.3891,0.0359563,0.0565668,0.0300366,0.0780168,0.0145063,0.95065,0.0479134,0.0438517,1308,463,3.49645,18.3891
91,561,3.77673,-18.1176,0.0438745,0.0594574,0.0373318,0.0898021,0.0135298,0.888276,0.0559066,0.041877,1315,463,3.77677,18.1176
98,561,4.16809,-17.8171,0.0474977,0.0603142,0.0442429,0.0986106,0.00920137,0.857319,0.062898,0.0470537,1322,463,4.16814,17.8171
105,561,5.2085,-16.826,0,0,0,0,0,0,0,-1,1329,463,5.20853,16.826
112,561,5.52454,-16.9119,0,0,0,0,0,0,0,-1,1336,463,5.52458,16.9119
119,561,5.83252,-16.7838,0,0,0,0,0,0,0,-1,1343,463,5.83251,16.7837
126,561,6.38013,-16.2654,0.0560685,0.0503019,0.065683,0.118932,-0.0125611,0.763464,0.0837891,0.0430069,1350,463,6.38008,16.2654
133,561,6.79956,-15.6135,0.0603024,0.0487847,0.0701434,0.124923,-0.0158359,0.74444,0.0890313,0.0497841,1357,463,6.79961,15.6135
140,561,7.59497,-15.3486,0,0,0,0,0,0,0,-1,1364,463,7.59501,15.3486
147,561,8.09924,-17.2148,0,0,0,0,0,0,0,-1,1371,463,8.09921,17.2148
154,561,8.83252,-16.7587,0,0,0,0,0,0,0,-1,1378,463,8.83253,16.7587
161,561,9.73315,-16.5651,0,0,0,0,0,0,0,-1,1385,463,9.73311,16.5651
168,561,-1.68591,-18.2095,0,0,0,0,0,0,0,-1,1392,463,-1.68589,18.2095
175,561,10.4185,0.276398,0,0,0,0,0,0,0,-1,1399,463,10.4185,-0.276394
182,561,6.45703,-4.02127,0,0,0,0,0,0,0,-1,1406,463,6.45704,4.02127
189,561,6.50854,-2.08685,0,0,0,0,0,0,0,-1,1413,463,6.50851,2.08686
196,561,6.44775,-0.27182,0,0,0,0,0,0,0,-1,1420,463,6.44773,0.271814
203,561,6.18591,1.1301,0,0,0,0,0,0,0,-1,1427,463,6.18592,-1.13009
210,561,5.68713,2.68427,0,0,0,0,0,0,0,-1,1434,463,5.6871,-2.68425
217,561,3.61743,-7.33582,0,0,0,0,0,0,0,-1,1441,463,3.61738,7.33581
224,561,4.27466,-8.59171,0,0,0,0,0,0,0,-1,1448,463,4.27466,8.59171
231,561,4.93188,-9.8476,0,0,0,0,0,0,0,-1,1455,463,4.93193,9.84761
238,561,2.18018,-5.18359,0,0,0,0,0,0,0,-1,1462,463,2.18023,5.18359
245,561,3.07568,-3.50238,0,0,0,0,0,0,0,-1,1469,463,3.0757,3.50238
252,561,3.47412,-3.71109,0,0,0,0,0,0,0,-1,1476,463,3.47413,3.71109
259,561,3.42212,-3.2334,0,0,0,0,0,0,0,-1,1483,463,3.42214,3.2334
266,561,4.44373,-5.90027,0,0,0,0,0,0,0,-1,1490,463,4.44372,5.90026
273,561,2.59485,-3.65268,0,0,0,0,0,0,0,-1,1497,463,2.5948,3.65268
280,561,3.10767,-6.38235,0,0,0,0,0,0,0,-1,1504,463,3.10766,6.38235
287,561,4.42285,-13.3309,0,0,0,0,0,0,0,-1,1511,463,4.42285,13.3309
294,561,4.45227,-13.3057,0,0,0,0,0,0,0,-1,1518,463,4.45223,13.3057
301,561,4.46362,-13.0991,0.00319433,0.000875043,-0.00152059,0.003947,0.000122369,-0.459631,0.00259151,0.03886,1525,463,4.46368,13.099
308,561,4.48389,-12.8528,0.00239001,6.45748e-05,-0.0019431,0.0034917,-0.00103711,-0.515783,0.00273974,0.0332399,1532,463,4.48383,12.8528
315,561,4.49048,-12.7143,0.00148253,-0.00036357,-0.00227081,0.00301073,-0.00189177,-0.592356,0.00285493,0.0235332,1539,463,4.4905,12.7143
322,561,4.49976,-12.5681,0.000783774,-0.000541726,-0.00230836,0.00252264,-0.00228059,-0.645604,0.00277432,0.0245762,1546,463,4.4997,12.5681
329,561,4.49756,-12.2911,0.000324569,-0.000575176,-0.0022039,0.00212404,-0.00237465,-0.684718,0.00259866,0.0155143,1553,463,4.49755,12.2911
336,561,4.53833,-12.0507,-4.2636e-05,-0.000538982,-0.00201513,0.00173954,-0.00232116,-0.724129,0.00235245,0.0113073,1560,463,4.53835,12.0507
343,561,4.54272,-11.8641,-0.000443219,-0.000373598,-0.0018436,0.00143552,-0.00225233,-0.794838,0.00214652,0.0102817,1567,463,4.54271,11.8641
350,561,4.53516,-11.6543,-0.000668103,-0.000292231,-0.00161576,0.00114649,-0.00210682,-0.843295,0.00190538,0.00998803,1574,463,4.53519,11.6543
357,561,4.54749,-11.4251,-0.000825291,-0.000184066,-0.00144322,0.000973721,-0.00198308,-0.894699,0.00173995,0.00958304,1581,463,4.54753,11.4251
364,561,4.55493,-11.2355,-0.000869942,9.93156e-05,-0.00112954,0.000843802,-0.00161443,-0.988046,0.00144232,0.00899379,1588,463,4.55496,11.2355
371,561,4.53235,-10.9908,-0.000845101,0.000363788,-0.000793277,0.00075666,-0.00123797,-1.11095,0.00116272,0.015545,1595,463,4.53232,10.9908
378,561,4.51807,-10.7481,-0.000822939,0.000608607,-0.000508348,0.000770756,-0.000985088,-1.26202,0.00101625,0.0116471,1602,463,4.51805,10.7481
385,561,4.53345,-10.5247,-0.000772601,0.000880924,-0.000293293,0.000931406,-0.000823083,-1.40035,0.0010136,0.0107698,1609,463,4.53339,10.5246
392,561,4.52368,-10.2733,-0.000614051,0.00100716,-6.18909e-05,0.00100952,-0.00061641,-1.53269,0.000947835,0.0143358,1616,463,4.52371,10.2733
399,561,4.52405,-10.0349,-0.000379672,0.00118547,0.000232783,0.00121936,-0.000413559,1.42623,0.000980281,0.020229,1623,463,4.52403,10.0349
406,561,4.53125,-9.78989,-0.000194586,0.0013194,0.000511342,0.00147592,-0.000351107,1.27375,0.00111949,0.0179154,1630,463,4.53129,9.78988
413,561,4.50879,-9.5293,-7.62585e-05,0.00145243,0.000782658,0.00178206,-0.000405887,1.17218,0.00134392,0.0152382,1637,463,4.50879,9.52931
420,561,4.50635,-9.24542,-2.27423e-05,0.00150759,0.000996776,0.00199902,-0.000514176,1.11275,0.00153309,0.0124987,1644,463,4.50629,9.24541
427,561,4.51904,-8.9769,-5.64693e-05,0.00149458,0.00107725,0.00204643,-0.000608315,1.09738,0.00160593,0.0101721,1651,463,4.51905,8.97691
434,561,4.52173,-8.73557,-2.19602e-05,0.00143636,0.00121405,0.00212339,-0.00070899,1.05583,0.00170188,0.0112501,1658,463,4.5217,8.73558
441,561,4.52502,-8.49368,-8.17653e-05,0.00132642,0.00131964,0.00211805,-0.0008734,1.03046,0.00177625,0.0142836,1665,463,4.52504,8.49367
448,561,4.52686,-8.20712,-0.000424651,0.00128668,0.00127115,0.00196333,-0.0011013,1.08163,0.00179255,0.0186012,1672,463,4.52683,8.20711
455,561,4.61768,-7.85651,-0.000940457,0.00100048,0.00110078,0.0014975,-0.00143748,1.14668,0.00169463,0.0357617,1679,463,4.61765,7.85651
462,561,4.49243,-7.57394,-0.00153001,-0.000201022,0.000308701,-0.000132816,-0.00159822,1.35335,0.00102408,0.0380686,1686,463,4.49247,7.57393
469,561,4.36243,-7.33206,-0.00196371,-0.00176279,-0.000541392,-0.00131262,-0.00241388,-0.877137,0.00139544,0.0242063,1693,463,4.36242,7.33208
476,561,4.17175,-7.10886,-0.00244901,-0.00384388,-0.00173201,-0.00127929,-0.0050136,-0.593993,0.00300806,0.041483,1700,463,4.17175,7.10886
483,561,3.96289,-6.88211,0,0,0,0,0,0,0,-1,1707,463,3.96295,6.8821
490,561,6.13135,-2.58374,0,0,0,0,0,0,0,-1,1714,463,6.13139,2.58373
497,561,7.30652,-2.46649,0,0,0,0,0,0,0,-1,1721,463,7.30649,2.4665
504,561,6.45044,-2.35263,0,0,0,0,0,0,0,-1,1728,463,6.4504,2.35263
511,561,0,0,0,0,0,0,0,0,0,-1,1735,463,0,0
518,561,0,0,0,0,0,0,0,0,0,-1,1742,463,0,0
525,561,0,0,0,0,0,0,0,0,0,-1,1749,463,0,0
532,561,0,0,0,0,0,0,0,0,0,-1,1756,463,0,0
539,561,0,0,0,0,0,0,0,0,0,-1,1763,463,0,0
546,561,0,0,0,0,0,0,0,0,0,-1,1770,463,0,0
553,561,0,0,0,0,0,0,0,0,0,-1,1777,463,0,0
560,561,0,0,0,0,0,0,0,0,0,-1,1784,463,0,0
567,561,0,0,0,0,0,0,0,0,0,-1,1791,463,0,0
574,561,0,0,0,0,0,0,0,0,0,-1,1798,463,0,0
581,561,0,0,0,0,0,0,0,0,0,-1,1805,463,0,0
588,561,0,0,0,0,0,0,0,0,0,-1,1812,463,0,0
595,561,0,0,0,0,0,0,0,0,0,-1,1819,463,0,0
602,561,0,0,0,0,0,0,0,0,0,-1,1826,463,0,0
609,561,0,0,0,0,0,0,0,0,0,-1,1833,463,0,0
616,561,0,0,0,0,0,0,0,0,0,-1,1840,463,0,0
623,561,0,0,0,0,0,0,0,0,0,-1,1847,463,0,0
630,561,0,0,0,0,0,0,0,0,0,-1,1854,463,0,0
637,561,0,0,0,0,0,0,0,0,0,-1,1861,463,0,0
644,561,0,0,0,0,0,0,0,0,0,-1,1868,463,0,0
651,561,0,0,0,0,0,0,0,0,0,-1,1875,463,0,0
658,561,0,0,0,0,0,0,0,0,0,-1,1882,463,0,0
665,561,0,0,0,0,0,0,0,0,0,-1,1889,463,0,0
672,561,0,0,0,0,0,0,0,0,0,-1,1896,463,0,0
679,561,0,0,0,0,0,0,0,0,0,-1,1903,463,0,0
686,561,0,0,0,0,0,0,0,0,0,-1,1910,463,0,0
693,561,0,0,0,0,0,0,0,0,0,-1,1917,463,0,0
700,561,0,0,0,0,0,0,0,0,0,-1,1924,463,0,0
707,561,0,0,0,0,0,0,0,0,0,-1,1931,463,0,0
714,561,0,0,0,0,0,0,0,0,0,-1,1938,463,0,0
721,561,0,0,0,0,0,0,0,0,0,-1,1945,463,0,0
728,561,0,0,0,0,0,0,0,0,0,-1,1952,463,0,0
735,561,0,0,0,0,0,0,0,0,0,-1,1959,463,0,0
742,561,0,0,0,0,0,0,0,0,0,-1,1966,463,0,0
749,561,0,0,0,0,0,0,0,0,0,-1,1973,463,0,0
756,561,0,0,0,0,0,0,0,0,0,-1,1980,463,0,0
763,561,0,0,0,0,0,0,0,0,0,-1,1987,463,0,0
770,561,0,0,0,0,0,0,0,0,0,-1,1994,463,0,0
777,561,0,0,0,0,0,0,0,0,0,-1,2001,463,0,0
784,561,0,0,0,0,0,0,0,0,0,-1,2008,463,0,0
791,561,0,0,0,0,0,0,0,0,0,-1,2015,463,0,0
798,561,0,0,0,0,0,0,0,0,0,-1,2022,463,0,0
805,561,0,0,0,0,0,0,0,0,0,-1,2029,463,0,0
812,561,0,0,0,0,0,0,0,0,0,-1,2036,463,0,0
-700,554,0,0,0,0,0,0,0,0,0,-1,524,470,0,0
-693,554,0,0,0,0,0,0,0,0,0,-1,531,470,0,0
-686,554,0,0,0,0,0,0,0,0,0,-1,538,470,0,0
-679,554,0,0,0,0,0,0,0,0,0,-1,545,470,0,0
-672,554,0,0,0,0,0,0,0,0,0,-1,552,470,0,0
-665,554,0,0,0,0,0,0,0,0,0,-1,559,470,0,0
-658,554,0,0,0,0,0,0,0,0,0,-1,566,470,0,0
-651,554,0,0,0,0,0,0,0,0,0,-1,573,470,0,0
-644,554,0,0,0,0,0,0,0,0,0,-1,580,470,0,0
-637,554,0,0,0,0,0,0,0,0,0,-1,587,470,0,0
-630,554,0,0,0,0,0,0,0,0,0,-1,594,470,0,0
-623,554,0,0,0,0,0,0,0,0,0,-1,601,470,0,0
-616,554,0,0,0,0,0,0,0,0,0,-1,608,470,0,0
-609,554,0,0,0,0,0,0,0,0,0,-1,615,470,0,0
-602,554,0,0,0,0,0,0,0,0,0,-1,622,470,0,0
-595,554,0,0,0,0,0,0,0,0,0,-1,629,470,0,0
-588,554,0,0,0,0,0,0,0,0,0,-1,636,470,0,0
-581,554,0,0,0,0,0,0,0,0,0,-1,643,470,0,0
-574,554,0,0,0,0,0,0,0,0,0,-1,650,470,0,0
-567,554,0,0,0,0,0,0,0,0,0,-1,657,470,0,0
-560,554,0,0,0,0,0,0,0,0,0,-1,664,470,0,0
-553,554,0,0,0,0,0,0,0,0,0,-1,671,470,0,0
-546,554,0,0,0,0,0,0,0,0,0,-1,678,470,0,0
-539,554,0,0,0,0,0,0,0,0,0,-1,685,470,0,0
-532,554,0,0,0,0,0,0,0,0,0,-1,692,470,0,0
-525,554,0,0,0,0,0,0,0,0,0,-1,699,470,0,0
-518,554,0,0,0,0,0,0,0,0,0,-1,706,470,0,0
-511,554,0,0,0,0,0,0,0,0,0,-1,713,470,0,0
-504,554,0,0,0,0,0,0,0,0,0,-1,720,470,0,0
-497,554,0,0,0,0,0,0,0,0,0,-1,727,470,0,0
-490,554,0,0,0,0,0,0,0,0,0,-1,734,470,0,0
-483,554,0,0,0,0,0,0,0,0,0,-1,741,470,0,0
-476,554,0,0,0,0,0,0,0,0,0,-1,748,470,0,0
-469,554,0,0,0,0,0,0,0,0,0,-1,755,470,0,0
-462,554,0,0,0,0,0,0,0,0,0,-1,762,470,0,0
-455,554,0,0,0,0,0,0,0,0,0,-1,769,470,0,0
-448,554,0,0,0,0,0,0,0,0,0,-1,776,470,0,0
-441,554,0,0,0,0,0,0,0,0,0,-1,783,470,0,0
-434,554,0,0,0,0,0,0,0,0,0,-1,790,470,0,0
-427,554,0,0,0,0,0,0,0,0,0,-1,797,470,0,0
-420,554,0,0,0,0,0,0,0,0,0,-1,804,470,0,0
-413,554,0,0,0,0,0,0,0,0,0,-1,811,470,0,0
-406,554,0,0,0,0,0,0,0,0,0,-1,818,470,0,0
-399,554,4.31549,-3.60254,0,0,0,0,0,0,0,-1,825,470,4.31548,3.60254
-392,554,3.92578,-3.02924,0,0,0,0,0,0,0,-1,832,470,3.92577,3.02924
-385,554,4.06689,-2.14221,0,0,0,0,0,0,0,-1,839,470,4.06687,2.14222
-378,554,5.68042,-0.171387,0,0,0,0,0,0,0,-1,846,470,5.68039,0.171378
-371,554,1.24487,-7.94312,0,0,0,0,0,0,0,-1,853,470,1.24484,7.94311
-364,554,1.04883,-7.68756,0,0,0,0,0,0,0,-1,860,470,1.0488,7.68757
-357,554,0.87793,-7.5083,0,0,0,0,0,0,0,-1,867,470,0.877958,7.50829
-350,554,0.67157,-8.62292,0,0,0,0,0,0,0,-1,874,470,0.67155,8.62293
-343,554,0.90033,-8.77118,0.0348325,-0.0265774,0.0373651,0.0524902,-0.0442351,0.441465,0.0559121,0.0458278,881,470,0.900323,8.77117
-336,554,0.987244,-9.04056,0.0299569,-0.023173,0.031372,0.0445003,-0.0377164,0.434089,0.0475217,0.034649,888,470,0.987214,9.04054
-329,554,0.990234,-9.30338,0.0252762,-0.0199507,0.0258675,0.037021,-0.0316956,0.426209,0.0397132,0.0168355,895,470,0.990233,9.30338
-322,554,1.005,-9.53513,0.0209208,-0.0167535,0.0206334,0.0300224,-0.0258551,0.415438,0.0322907,0.0104625,902,470,1.00499,9.53511
-315,554,1.01245,-9.7749,0.0170002,-0.013661,0.0159201,0.0237711,-0.0204319,0.402129,0.0255449,0.0100132,909,470,1.01244,9.77489
-308,554,1.0108,-10.0266,0.0136099,-0.0107764,0.0118422,0.0184142,-0.0155806,0.385398,0.0196496,0.0126751,916,470,1.01083,10.0266
-301,554,1.00677,-10.2734,0.0106016,-0.0081797,0.00841197,0.0138183,-0.0113964,0.36524,0.0145801,0.0136593,923,470,1.00677,10.2734
-294,554,0.9599,-10.4935,0.00813679,-0.00599318,0.005754,0.0101835,-0.00803986,0.341741,0.0105455,0.0117287,930,470,0.959923,10.4935
-287,554,0.941895,-10.7338,0.00620935,-0.0043504,0.00381228,0.00744181,-0.00558287,0.312683,0.00754529,0.0105267,937,470,0.94192,10.7338
-280,554,0.954773,-10.9597,0.00435064,-0.00289547,0.00181646,0.00478049,-0.00332532,0.232368,0.00470496,0.00945167,944,470,0.954752,10.9597
-273,554,0.964233,-11.1944,0.00312812,-0.00201035,0.0005021,0.00317672,-0.00205895,0.0964978,0.00304569,0.0136472,951,470,0.96422,11.1944
-266,554,0.965759,-11.4192,0.00259084,-0.00173629,-8.57196e-05,0.00259253,-0.00173799,-0.0197995,0.0025164,0.0119233,958,470,0.965779,11.4192
-259,554,0.960632,-11.6037,0.00236032,-0.00173952,-0.000272651,0.00237838,-0.00175758,-0.0661146,0.00239684,0.0113875,965,470,0.960628,11.6037
-252,554,0.928345,-11.8034,0.00206958,-0.00251964,-1.06012e-05,0.00206961,-0.00251966,-0.00231001,0.00265386,0.0143295,972,470,0.928344,11.8034
-245,554,0.927246,-12.0235,0.00195699,-0.00380276,0.000480892,0.00199686,-0.00384264,0.0827285,0.00342711,0.0158245,979,470,0.927245,12.0235
-238,554,0.940735,-12.2333,0.00215578,-0.00573097,0.00158051,0.00246072,-0.00603591,0.190598,0.00504822,0.0115017,986,470,0.940763,12.2333
-231,554,0.949829,-12.4538,0.00219658,-0.00762883,0.00245143,0.00277425,-0.0082065,0.231423,0.00659326,0.0102664,993,470,0.949813,12.4538
-224,554,0.981873,-12.6502,0.00215612,-0.00962972,0.0036262,0.00318244,-0.010656,0.275815,0.00836902,0.0105078,1000,470,0.981873,12.6502
-217,554,1.01422,-12.8355,0.00207022,-0.0116691,0.00499888,0.0036965,-0.0132954,0.31453,0.0103189,0.0106133,1007,470,1.01425,12.8355
-210,554,1.04437,-13.0477,0.00191203,-0.0135635,0.00649253,0.00427506,-0.0159265,0.349057,0.012293,0.0136876,1014,470,1.04434,13.0477
-203,554,1.04395,-13.253,0.00174541,-0.0155737,0.00816153,0.00498537,-0.0188137,0.3779,0.0144929,0.0206245,1021,470,1.04393,13.253
-196,554,0.98999,-13.3666,0.00188256,-0.0169596,0.00976773,0.00603224,-0.0211092,0.401731,0.0164563,0.0279382,1028,470,0.989986,13.3667
-189,554,1.18396,-13.4304,0.00245486,-0.0176573,0.0110225,0.00731922,-0.0225216,0.415607,0.0179584,0.032256,1035,470,1.18398,13.4304
-182,554,1.28503,-13.4597,0.00339614,-0.0174744,0.0117693,0.0086902,-0.0227684,0.422703,0.0187591,0.0390173,1042,470,1.28506,13.4598
-175,554,1.0376,-13.9233,0,0,0,0,0,0,0,-1,1049,470,1.0376,13.9233
-168,554,1.00671,-14.1875,0,0,0,0,0,0,0,-1,1056,470,1.00672,14.1875
-161,554,1.02209,-14.4713,0,0,0,0,0,0,0,-1,1063,470,1.02207,14.4713
-154,554,1.06396,-14.5032,0,0,0,0,0,0,0,-1,1070,470,1.06397,14.5032
-147,554,1.0697,-14.6756,0,0,0,0,0,0,0,-1,1077,470,1.06965,14.6756
-140,554,1.16113,-14.789,0,0,0,0,0,0,0,-1,1084,470,1.16116,14.789
-133,554,1.26782,-14.7661,0,0,0,0,0,0,0,-1,1091,470,1.26787,14.7662
-126,554,-0.195923,-8.76236,0,0,0,0,0,0,0,-1,1098,470,-0.195888,8.76235
-119,554,0.944702,-12.1022,0,0,0,0,0,0,0,-1,1105,470,0.944726,12.1022
-112,554,0.837524,-12.4395,0,0,0,0,0,0,0,-1,1112,470,0.837493,12.4395
-105,554,2.82129,-9.46112,0,0,0,0,0,0,0,-1,1119,470,2.82127,9.46112
-98,554,1.51929,-7.3624,0,0,0,0,0,0,0,-1,1126,470,1.51928,7.36241
-91,554,1.41089,-6.5864,0,0,0,0,0,0,0,-1,1133,470,1.41093,6.58638
-84,554,1.62305,-5.87186,0,0,0,0,0,0,0,-1,1140,470,1.62299,5.87186
-77,554,-2.56958,1.33258,0,0,0,0,0,0,0,-1,1147,470,-2.56959,-1.33257
-70,554,-3.68164,-1.18332,0,0,0,0,0,0,0,-1,1154,470,-3.68158,1.18331
-63,554,-4.86853,-3.88708,0,0,0,0,0,0,0,-1,1161,470,-4.86853,3.88708
-56,554,-5.69958,-6.45422,0,0,0,0,0,0,0,-1,1168,470,-5.69955,6.45422
-49,554,-6.23645,-8.8569,0,0,0,0,0,0,0,-1,1175,470,-6.23643,8.85689
-42,554,-6.62524,-11.5382,0,0,0,0,0,0,0,-1,1182,470,-6.62522,11.5382
-35,554,-2.40173,-4.59482,0,0,0,0,0,0,0,-1,1189,470,-2.40169,4.59481
-28,554,-0.760132,-1.65555,0,0,0,0,0,0,0,-1,1196,470,-0.760095,1.65556
-21,554,3.56616,-15.8254,0,0,0,0,0,0,0,-1,1203,470,3.56621,15.8254
-14,554,3.00659,-15.1193,-0.0656711,-0.0249294,0.0586093,0.0167483,-0.107349,0.952653,0.0777522,0.0442195,1210,470,3.00661,15.1193
-7,554,2.47913,-14.4056,-0.0623319,-0.0210736,0.0467764,0.00942054,-0.0928261,0.993077,0.0652513,0.0459196,1217,470,2.47908,14.4057
0,554,1.9906,-13.7066,0,0,0,0,0,0,0,-1,1224,470,1.99057,13.7066
7,554,4.5769,-16.6525,0,0,0,0,0,0,0,-1,1231,470,4.57686,16.6525
14,554,4.66553,-15.8271,-0.0614736,-0.0114836,0.0192974,-0.00490114,-0.0680561,1.24206,0.0438285,0.0413393,1238,470,4.66549,15.8271
21,554,4.1637,-15.7661,0,0,0,0,0,0,0,-1,1245,470,4.16367,15.7661
28,554,4.56604,-16.7606,-0.0527285,-0.000163947,0.0102905,0.00177882,-0.0546712,1.3842,0.0370547,0.0464638,1252,470,4.56599,16.7606
35,554,3.90466,-16.5094,-0.0435785,0.00863501,0.00815908,0.00988028,-0.0448238,1.41934,0.0336628,0.0412783,1259,470,3.90471,16.5094
42,554,3.44556,-16.8485,-0.0325087,0.0179227,0.00414769,0.0182616,-0.0328475,1.48928,0.0299057,0.0467523,1266,470,3.44556,16.8486
49,554,2.84399,-17.3475,0,0,0,0,0,0,0,-1,1273,470,2.84394,17.3475
56,554,2.2771,-18.0038,0,0,0,0,0,0,0,-1,1280,470,2.27713,18.0038
63,554,4.50562,-12.7209,0,0,0,0,0,0,0,-1,1287,470,4.50557,12.7209
70,554,3.1311,-19.0659,0,0,0,0,0,0,0,-1,1294,470,3.13107,19.0659
77,554,3.39819,-19.0911,0,0,0,0,0,0,0,-1,1301,470,3.39823,19.0911
84,554,3.55798,-19.0333,0.0421986,0.0661346,0.0345671,0.0907468,0.0175863,0.952052,0.0555712,0.0427511,1308,470,3.55801,19.0332
91,554,3.75854,-18.6749,0.052763,0.0702466,0.0435276,0.105902,0.0171081,0.884496,0.0656457,0.0418358,1315,470,3.75859,18.6749
98,554,4.29822,-18.2982,0.0577206,0.0717885,0.052409,0.117633,0.0118757,0.852106,0.0747787,0.0448441,1322,470,4.2982,18.2983
105,554,4.67273,-17.7649,0.0585467,0.0690142,0.0597842,0.123793,0.00376762,0.829059,0.0813021,0.04442,1329,470,4.67274,17.7649
112,554,4.87659,-17.3573,0.0598626,0.0657788,0.0667731,0.129659,-0.00401789,0.807534,0.0878095,0.0435459,1336,470,4.8766,17.3573
119,554,5.18396,-16.9799,0.0627311,0.0623227,0.073249,0.135776,-0.0107224,0.784004,0.0942951,0.041835,1343,470,5.18398,16.9799
126,554,5.4928,-16.5818,0.067311,0.0592163,0.0793342,0.142701,-0.0161737,0.759912,0.100958,0.0415831,1350,470,5.4928,16.5818
133,554,5.82861,-16.1176,0.0725932,0.0573078,0.0846779,0.149973,-0.0200716,0.740392,0.1073,0.0429047,1357,470,5.82858,16.1176
140,554,6.77502,-16.1934,0.0788498,0.0569843,0.0885389,0.157128,-0.0212943,0.723969,0.112524,0.0481822,1364,470,6.77503,16.1934
147,554,7.5553,-15.9425,0,0,0,0,0,0,0,-1,1371,470,7.5553,15.9425
154,554,9.74463,-18.1017,0,0,0,0,0,0,0,-1,1378,470,9.74467,18.1017
161,554,11.5851,-18.0481,0,0,0,0,0,0,0,-1,1385,470,11.5851,18.0481
168,554,13.5839,-17.6145,0,0,0,0,0,0,0,-1,1392,470,13.5838,17.6145
175,554,10.663,0.286957,0,0,0,0,0,0,0,-1,1399,470,10.663,-0.286966
182,554,6.71106,-4.50217,0,0,0,0,0,0,0,-1,1406,470,6.71107,4.50215
189,554,6.90479,-2.50348,0,0,0,0,0,0,0,-1,1413,470,6.90477,2.50348
196,554,6.96216,-0.740906,0,0,0,0,0,0,0,-1,1420,470,6.96214,0.740912
203,554,6.43518,0.414154,0,0,0,0,0,0,0,-1,1427,470,6.43523,-0.414141
210,554,6.21167,1.96707,0,0,0,0,0,0,0,-1,1434,470,6.21165,-1.96706
217,554,5.64551,3.4989,0,0,0,0,0,0,0,-1,1441,470,5.64555,-3.49891
224,554,4.85144,-8.85172,0,0,0,0,0,0,0,-1,1448,470,4.85146,8.85173
231,554,3.25073,-5.29642,0,0,0,0,0,0,0,-1,1455,470,3.25078,5.29642
238,554,4.28625,-3.25253,0,0,0,0,0,0,0,-1,1462,470,4.28622,3.25252
245,554,4.0752,-2.90033,0,0,0,0,0,0,0,-1,1469,470,4.07515,2.90032
252,554,3.52112,-0.934998,0,0,0,0,0,0,0,-1,1476,470,3.52113,0.934996
259,554,3.96448,-2.16425,0,0,0,0,0,0,0,-1,1483,470,3.96446,2.16424
266,554,3.0592,-2.71716,0,0,0,0,0,0,0,-1,1490,470,3.05923,2.71718
273,554,2.58521,-3.06876,0,0,0,0,0,0,0,-1,1497,470,2.58524,3.06874
280,554,2.83301,-0.991699,0,0,0,0,0,0,0,-1,1504,470,2.83303,0.991704
287,554,3.54126,-4.12277,0,0,0,0,0,0,0,-1,1511,470,3.54123,4.12277
294,554,3.62036,-8.50146,0,0,0,0,0,0,0,-1,1518,470,3.62031,8.50145
301,554,4.59473,-12.9515,0,0,0,0,0,0,0,-1,1525,470,4.5947,12.9515
308,554,4.69165,-12.8707,0,0,0,0,0,0,0,-1,1532,470,4.6917,12.8707
315,554,4.72498,-12.772,0,0,0,0,0,0,0,-1,1539,470,4.72497,12.772
322,554,4.7196,-12.6964,0,0,0,0,0,0,0,-1,1546,470,4.71956,12.6964
329,554,4.73816,-12.2026,-0.000167423,-0.00116742,-0.00325751,0.00262823,-0.00396308,-0.709247,0.00383142,0.0306653,1553,470,4.73821,12.2026
336,554,4.7428,-12.0753,-0.000530219,-0.00114659,-0.00299688,0.00217428,-0.00385109,-0.73416,0.00352337,0.0139264,1560,470,4.74284,12.0753
343,554,4.73767,-11.881,-0.000950061,-0.000946574,-0.00277537,0.00182705,-0.00372369,-0.785712,0.00326649,0.0103571,1567,470,4.73772,11.881
350,554,4.76062,-11.6468,-0.00115391,-0.000916023,-0.00250427,0.00147212,-0.00354206,-0.809128,0.00297603,0.0100037,1574,470,4.76058,11.6468
357,554,4.7854,-11.4223,-0.0012952,-0.00088241,-0.00236677,0.00128695,-0.00346456,-0.828891,0.00283769,0.0110529,1581,470,4.78544,11.4223
364,554,4.7782,-11.2295,-0.00127569,-0.000605307,-0.00199746,0.00108489,-0.00296589,-0.868528,0.00242131,0.0088082,1588,470,4.77823,11.2295
371,554,4.76038,-10.9887,-0.00119192,-0.000309134,-0.00160112,0.000910315,-0.00241137,-0.919897,0.00198197,0.00828646,1595,470,4.76042,10.9887
378,554,4.75647,-10.728,-0.00109179,-4.87285e-05,-0.00125397,0.000787842,-0.00192836,-0.982469,0.00161363,0.00981202,1602,470,4.75651,10.728
385,554,4.77234,-10.5032,-0.000971718,0.000285234,-0.000951033,0.000796691,-0.00148318,-1.07738,0.00133602,0.00961374,1609,470,4.77238,10.5032
392,554,4.76648,-10.2612,-0.000775067,0.000482588,-0.00063231,0.000745523,-0.001038,-1.17672,0.00103432,0.0126849,1616,470,4.76653,10.2612
399,554,4.7738,-10.0127,-0.000530659,0.000667145,-0.000317455,0.000746079,-0.000609593,-1.32709,0.000784019,0.0170308,1623,470,4.77379,10.0127
406,554,4.77466,-9.7757,-0.000327221,0.000826121,-4.684e-06,0.00082614,-0.00032724,-1.56674,0.000686356,0.015851,1630,470,4.77468,9.77569
413,554,4.76111,-9.50494,-0.000154586,0.00102065,0.000326166,0.00110511,-0.000239039,1.31743,0.000827999,0.014409,1637,470,4.76116,9.50493
420,554,4.77014,-9.23169,-3.29214e-05,0.00111414,0.000595853,0.00136764,-0.00028642,1.16855,0.00102072,0.0157449,1644,470,4.77018,9.23167
427,554,4.77222,-8.9942,-1.99881e-05,0.00114114,0.00073595,0.00149796,-0.000376801,1.11936,0.00114509,0.0111233,1651,470,4.77218,8.9942
434,554,4.74438,-8.75525,2.10637e-05,0.00110325,0.000915128,0.00162528,-0.000500972,1.05239,0.00128353,0.00932001,1658,470,4.74438,8.75526
441,554,4.75146,-8.47876,-7.47864e-07,0.000975546,0.00104926,0.00164465,-0.000669853,1.00312,0.00137522,0.0105801,1665,470,4.75148,8.47876
448,554,4.76355,-8.18329,-0.000201938,0.000862091,0.00108712,0.00154039,-0.000880237,1.01296,0.00141477,0.0128457,1672,470,4.76359,8.18329
455,554,4.74683,-7.92081,-0.000519455,0.000562262,0.00104075,0.0011943,-0.0011515,1.02503,0.00135443,0.014443,1679,470,4.74679,7.9208
462,554,4.70093,-7.64969,-0.000817828,-0.000660116,0.000434137,-0.000297731,-0.00118021,0.875238,0.000708727,0.0173915,1686,470,4.70098,7.64969
469,554,4.66309,-7.35178,-0.000996716,-0.00228937,-0.000288195,-0.000935375,-0.00235071,-0.209718,0.00136658,0.0230649,1693,470,4.66309,7.35176
476,554,4.64795,-7.04346,-0.00131401,-0.00429546,-0.00125856,-0.000853782,-0.0047557,-0.350576,0.00292767,0.0498435,1700,470,4.64796,7.04345
483,554,4.64014,-6.74411,0,0,0,0,0,0,0,-1,1707,470,4.64019,6.7441
490,554,7.31543,-3.51794,0,0,0,0,0,0,0,-1,1714,470,7.3154,3.51794
497,554,7.9751,-2.43454,0,0,0,0,0,0,0,-1,1721,470,7.97505,2.43453
504,554,2.13257,-3.81628,0,0,0,0,0,0,0,-1,1728,470,2.1326,3.8163
511,554,1.31396,-4.02713,0,0,0,0,0,0,0,-1,1735,470,1.31398,4.02712
518,554,-1.15686,-2.436,0,0,0,0,0,0,0,-1,1742,470,-1.15691,2.43599
525,554,0,0,0,0,0,0,0,0,0,-1,1749,470,0,0
532,554,0,0,0,0,0,0,0,0,0,-1,1756,470,0,0
539,554,0,0,0,0,0,0,0,0,0,-1,1763,470,0,0
546,554,0,0,0,0,0,0,0,0,0,-1,1770,470,0,0
553,554,0,0,0,0,0,0,0,0,0,-1,1777,470,0,0
560,554,0,0,0,0,0,0,0,0,0,-1,1784,470,0,0
567,554,0,0,0,0,0,0,0,0,0,-1,1791,470,0,0
574,554,0,0,0,0,0,0,0,0,0,-1,1798,470,0,0
581,554,0,0,0,0,0,0,0,0,0,-1,1805,470,0,0
588,554,0,0,0,0,0,0,0,0,0,-1,1812,470,0,0
595,554,0,0,0,0,0,0,0,0,0,-1,1819,470,0,0
602,554,0,0,0,0,0,0,0,0,0,-1,1826,470,0,0
609,554,0,0,0,0,0,0,0,0,0,-1,1833,470,0,0
616,554,0,0,0,0,0,0,0,0,0,-1,1840,470,0,0
623,554,0,0,0,0,0,0,0,0,0,-1,1847,470,0,0
630,554,0,0,0,0,0,0,0,0,0,-1,1854,470,0,0
637,554,0,0,0,0,0,0,0,0,0,-1,1861,470,0,0
644,554,0,0,0,0,0,0,0,0,0,-1,1868,470,0,0
651,554,0,0,0,0,0,0,0,0,0,-1,1875,470,0,0
658,554,0,0,0,0,0,0,0,0,0,-1,1882,470,0,0
665,554,0,0,0,0,0,0,0,0,0,-1,1889,470,0,0
672,554,0,0,0,0,0,0,0,0,0,-1,1896,470,0,0
679,554,0,0,0,0,0,0,0,0,0,-1,1903,470,0,0
686,554,0,0,0,0,0,0,0,0,0,-1,1910,470,0,0
693,554,0,0,0,0,0,0,0,0,0,-1,1917,470,0,0
700,554,0,0,0,0,0,0,0,0,0,-1,1924,470,0,0
707,554,0,0,0,0,0,0,0,0,0,-1,1931,470,0,0
714,554,0,0,0,0,0,0,0,0,0,-1,1938,470,0,0
721,554,0,0,0,0,0,0,0,0,0,-1,1945,470,0,0
728,554,0,0,0,0,0,0,0,0,0,-1,1952,470,0,0
735,554,0,0,0,0,0,0,0,0,0,-1,1959,470,0,0
742,554,0,0,0,0,0,0,0,0,0,-1,1966,470,0,0
749,554,0,0,0,0,0,0,0,0,0,-1,1973,470,0,0
756,554,0,0,0,0,0,0,0,0,0,-1,1980,470,0,0
763,554,0,0,0,0,0,0,0,0,0,-1,1987,470,0,0
770,554,0,0,0,0,0,0,0,0,0,-1,1994,470,0,0
777,554,0,0,0,0,0,0,0,0,0,-1,2001,470,0,0
784,554,0,0,0,0,0,0,0,0,0,-1,2008,470,0,0
791,554,0,0,0,0,0,0,0,0,0,-1,2015,470,0,0
798,554,0,0,0,0,0,0,0,0,0,-1,2022,470,0,0
805,554,0,0,0,0,0,0,0,0,0,-1,2029,470,0,0
812,554,0,0,0,0,0,0,0,0,0,-1,2036,470,0,0
-700,547,0,0,0,0,0,0,0,0,0,-1,524,477,0,0
-693,547,0,0,0,0,0,0,0,0,0,-1,531,477,0,0
-686,547,0,0,0,0,0,0,0,0,0,-1,538,477,0,0
-679,547,0,0,0,0,0,0,0,0,0,-1,545,477,0,0
-672,547,0,0,0,0,0,0,0,0,0,-1,552,477,0,0
-665,547,0,0,0,0,0,0,0,0,0,-1,559,477,0,0
-658,547,0,0,0,0,0,0,0,0,0,-1,566,477,0,0
-651,547,0,0,0,0,0,0,0,0,0,-1,573,477,0,0
-644,547,0,0,0,0,0,0,0,0,0,-1,580,477,0,0
-637,547,0,0,0,0,0,0,0,0,0,-1,587,477,0,0
-630,547,0,0,0,0,0,0,0,0,0,-1,594,477,0,0
-623,547,0,0,0,0,0,0,0,0,0,-1,601,477,0,0
-616,547,0,0,0,0,0,0,0,0,0,-1,608,477,0,0
-609,547,0,0,0,0,0,0,0,0,0,-1,615,477,0,0
-602,547,0,0,0,0,0,0,0,0,0,-1,622,477,0,0
-595,547,0,0,0,0,0,0,0,0,0,-1,629,477,0,0
-588,547,0,0,0,0,0,0,0,0,0,-1,636,477,0,0
-581,547,0,0,0,0,0,0,0,0,0,-1,643,477,0,0
-574,547,0,0,0,0,0,0,0,0,0,-1,650,477,0,0
-567,547,0,0,0,0,0,0,0,0,0,-1,657,477,0,0
-560,547,0,0,0,0,0,0,0,0,0,-1,664,477,0,0
-553,547,0,0,0,0,0,0,0,0,0,-1,671,477,0,0
-546,547,0,0,0,0,0,0,0,0,0,-1,678,477,0,0
-539,547,0,0,0,0,0,0,0,0,0,-1,685,477,0,0
-532,547,0,0,0,0,0,0,0,0,0,-1,692,477,0,0
-525,547,0,0,0,0,0,0,0,0,0,-1,699,477,0,0
-518,547,0,0,0,0,0,0,0,0,0,-1,706,477,0,0
-511,547,0,0,0,0,0,0,0,0,0,-1,713,477,0,0
-504,547,0,0,0,0,0,0,0,0,0,-1,720,477,0,0
-497,547,0,0,0,0,0,0,0,0,0,-1,727,477,0,0
-490,547,0,0,0,0,0,0,0,0,0,-1,734,477,0,0
-483,547,0,0,0,0,0,0,0,0,0,-1,741,477,0,0
-476,547,0,0,0,0,0,0,0,0,0,-1,748,477,0,0
-469,547,0,0,0,0,0,0,0,0,0,-1,755,477,0,0
-462,547,0,0,0,0,0,0,0,0,0,-1,762,477,0,0
-455,547,0,0,0,0,0,0,0,0,0,-1,769,477,0,0
-448,547,0,0,0,0,0,0,0,0,0,-1,776,477,0,0
-441,547,0,0,0,0,0,0,0,0,0,-1,783,477,0,0
-434,547,0,0,0,0,0,0,0,0,0,-1,790,477,0,0
-427,547,0,0,0,0,0,0,0,0,0,-1,797,477,0,0
-420,547,0,0,0,0,0,0,0,0,0,-1,804,477,0,0
-413,547,0,0,0,0,0,0,0,0,0,-1,811,477,0,0
-406,547,-0.397644,-6.30316,0,0,0,0,0,0,0,-1,818,477,-0.397624,6.30315
-399,547,0.303162,-6.16772,0,0,0,0,0,0,0,-1,825,477,0.303136,6.16772
-392,547,2.92407,-3.52106,0,0,0,0,0,0,0,-1,832,477,2.92407,3.52107
-385,547,2.76971,-3.02631,0,0,0,0,0,0,0,-1,839,477,2.76972,3.0263
-378,547,2.87183,-2.31735,0,0,0,0,0,0,0,-1,846,477,2.87181,2.31736
-371,547,1.20789,-8.06766,0,0,0,0,0,0,0,-1,853,477,1.20791,8.06765
-364,547,0.271729,-4.58582,0,0,0,0,0,0,0,-1,860,477,0.271753,4.5858
-357,547,1.13318,-6.4292,0,0,0,0,0,0,0,-1,867,477,1.1332,6.4292
-350,547,0.592224,-8.40674,0,0,0,0,0,0,0,-1,874,477,0.592224,8.40675
-343,547,0.691162,-8.71167,0.022483,-0.0164568,0.0227662,0.0329693,-0.0269431,0.431643,0.0346487,0.0358516,881,477,0.691144,8.71167
-336,547,0.815369,-9.00656,0.0195184,-0.0141962,0.0192216,0.0282275,-0.0229053,0.425419,0.0295748,0.0153696,888,477,0.81534,9.00655
-329,547,0.793396,-9.26978,0.0165171,-0.0120265,0.0158946,0.023607,-0.0191164,0.419571,0.0247118,0.00902448,895,477,0.793393,9.26976
-322,547,0.795471,-9.52274,0.0136017,-0.00984014,0.0125518,0.0190543,-0.0152927,0.409808,0.0198699,0.0109316,902,477,0.795493,9.52275
-315,547,0.792603,-9.78345,0.0109508,-0.00772996,0.00946257,0.0149064,-0.0116855,0.395948,0.0153904,0.0108703,909,477,0.792618,9.78344
-308,547,0.759155,-10.0349,0.00869037,-0.00580568,0.00677331,0.0113626,-0.00847791,0.375777,0.0114952,0.0120318,916,477,0.759154,10.0349
-301,547,0.757568,-10.2699,0.00668566,-0.00415388,0.00454085,0.00833648,-0.0058047,0.348693,0.00820791,0.0113712,923,477,0.757582,10.2699
-294,547,0.733521,-10.5019,0.00511552,-0.00288225,0.00291266,0.00606382,-0.00383055,0.314756,0.00576082,0.0100292,930,477,0.733541,10.5019
-287,547,0.720032,-10.7224,0.00400272,-0.00211565,0.00177484,0.0044803,-0.00259322,0.262855,0.00413206,0.0105356,937,477,0.72002,10.7224
-280,547,0.740723,-10.9531,0.00302701,-0.00155559,0.000677171,0.00312498,-0.00165356,0.14368,0.00280215,0.0110032,944,477,0.740742,10.9531
-273,547,0.745728,-11.1742,0.00256235,-0.00147902,2.40712e-05,0.0025625,-0.00147917,0.00595592,0.00236123,0.0114077,951,477,0.745708,11.1742
-266,547,0.739319,-11.3974,0.00258251,-0.00189979,-0.000245577,0.00259592,-0.0019132,-0.0545705,0.00261327,0.0116707,958,477,0.739324,11.3974
-259,547,0.733154,-11.6073,0.00276056,-0.00248431,-0.000189102,0.00276737,-0.00249112,-0.0359924,0.00303739,0.0104103,965,477,0.733141,11.6073
-252,547,0.751526,-11.821,0.00266513,-0.00383812,0.000249331,0.00267468,-0.00384767,0.0382646,0.00378592,0.0104736,972,477,0.751549,11.8209
-245,547,0.764038,-12.0427,0.00261818,-0.00560459,0.000923648,0.00272066,-0.00570707,0.110493,0.00496654,0.0117122,979,477,0.764011,12.0427
-238,547,0.756165,-12.2367,0.00295352,-0.00810875,0.00229603,0.00341114,-0.00856637,0.196732,0.00712553,0.0086701,986,477,0.756194,12.2367
-231,547,0.75354,-12.4502,0.00296264,-0.0104574,0.00339079,0.00377072,-0.0112654,0.233953,0.00903345,0.00870929,993,477,0.753512,12.4502
-224,547,0.777649,-12.6253,0.00276357,-0.0130144,0.00493907,0.00418214,-0.0144329,0.279685,0.0112775,0.0111725,1000,477,0.777676,12.6253
-217,547,0.815491,-12.8254,0.00246269,-0.0156662,0.00681245,0.00473728,-0.0179408,0.322249,0.0138131,0.0148488,1007,477,0.815487,12.8254
-210,547,0.853271,-12.9825,0.00203261,-0.0182698,0.00891156,0.00538929,-0.0216265,0.36023,0.0165099,0.0256676,1014,477,0.853242,12.9825
-203,547,0.789856,-12.9296,0.00154694,-0.0210756,0.0113158,0.00623543,-0.0257641,0.3928,0.0195882,0.0367211,1021,477,0.789852,12.9296
-196,547,0.521606,-12.9059,0.00147095,-0.023133,0.0136841,0.00756986,-0.0292319,0.419267,0.0224409,0.0420797,1028,477,0.521661,12.906
-189,547,1.29309,-13.1151,0.00192996,-0.0243259,0.0156479,0.00922746,-0.0316234,0.436374,0.0247385,0.0460813,1035,477,1.29304,13.1151
-182,547,1.37207,-13.2774,0,0,0,0,0,0,0,-1,1042,477,1.37213,13.2774
-175,547,-0.350098,-12.3584,0,0,0,0,0,0,0,-1,1049,477,-0.350098,12.3584
-168,547,1.12463,-8.66785,0,0,0,0,0,0,0,-1,1056,477,1.12461,8.66786
-161,547,1.93481,-12.2681,0,0,0,0,0,0,0,-1,1063,477,1.93484,12.2681
-154,547,0.0917969,-14.6314,0,0,0,0,0,0,0,-1,1070,477,0.0918112,14.6314
-147,547,0.333862,-14.8532,0,0,0,0,0,0,0,-1,1077,477,0.333917,14.8532
-140,547,0.751953,-15.2237,0,0,0,0,0,0,0,-1,1084,477,0.751976,15.2237
-133,547,1.09119,-15.5722,0,0,0,0,0,0,0,-1,1091,477,1.09118,15.5722
-126,547,0.784302,-9.76431,0,0,0,0,0,0,0,-1,1098,477,0.78428,9.76432
-119,547,-0.531006,-10.0229,0,0,0,0,0,0,0,-1,1105,477,-0.530984,10.0229
-112,547,4.36194,-9.23029,0,0,0,0,0,0,0,-1,1112,477,4.36195,9.23029
-105,547,4.448,-9.17819,0,0,0,0,0,0,0,-1,1119,477,4.44799,9.1782
-98,547,1.50391,-7.20621,0,0,0,0,0,0,0,-1,1126,477,1.50395,7.20621
-91,547,1.37805,-7.12024,0,0,0,0,0,0,0,-1,1133,477,1.37804,7.12025
-84,547,1.94202,-6.66241,0,0,0,0,0,0,0,-1,1140,477,1.94201,6.66241
-77,547,-2.28357,1.8588,0,0,0,0,0,0,0,-1,1147,477,-2.28356,-1.85879
-70,547,-3.70178,-0.874908,0,0,0,0,0,0,0,-1,1154,477,-3.70182,0.874918
-63,547,-5.12012,-3.60861,0,0,0,0,0,0,0,-1,1161,477,-5.12009,3.60862
-56,547,-6.01917,-6.2399,0,0,0,0,0,0,0,-1,1168,477,-6.01921,6.23991
-49,547,-6.729,-8.60349,0,0,0,0,0,0,0,-1,1175,477,-6.72899,8.60348
-42,547,-2.41736,-5.53012,0,0,0,0,0,0,0,-1,1182,477,-2.41734,5.53011
-35,547,-2.96838,-4.45734,0,0,0,0,0,0,0,-1,1189,477,-2.96839,4.45734
-28,547,-0.869141,-1.29901,0,0,0,0,0,0,0,-1,1196,477,-0.869135,1.29901
-21,547,3.48486,-15.5425,0,0,0,0,0,0,0,-1,1203,477,3.4848,15.5425
-14,547,2.79541,-14.9915,-0.0793264,-0.0280085,0.0730391,0.0237476,-0.131083,0.954316,0.0962854,0.0467178,1210,477,2.79536,14.9915
-7,547,2.11487,-14.4368,-0.0764571,-0.0245867,0.0606519,0.0154424,-0.116486,0.987437,0.0832835,0.0464874,1217,477,2.11483,14.4368
0,547,1.93567,-13.3333,0,0,0,0,0,0,0,-1,1224,477,1.93564,13.3333
7,547,2.43982,-12.4231,0,0,0,0,0,0,0,-1,1231,477,2.43985,12.4231
14,547,0,0,0,0,0,0,0,0,0,-1,1238,477,0,0
21,547,0,0,0,0,0,0,0,0,0,-1,1245,477,0,0
28,547,0,0,0,0,0,0,0,0,0,-1,1252,477,0,0
35,547,0,0,0,0,0,0,0,0,0,-1,1259,477,0,0
42,547,0,0,0,0,0,0,0,0,0,-1,1266,477,0,0
49,547,0,0,0,0,0,0,0,0,0,-1,1273,477,0,0
56,547,0,0,0,0,0,0,0,0,0,-1,1280,477,0,0
63,547,0,0,0,0,0,0,0,0,0,-1,1287,477,0,0
70,547,0,0,0,0,0,0,0,0,0,-1,1294,477,0,0
77,547,0,0,0,0,0,0,0,0,0,-1,1301,477,0,0
84,547,0,0,0,0,0,0,0,0,0,-1,1308,477,0,0
91,547,0,0,0,0,0,0,0,0,0,-1,1315,477,0,0
98,547,0,0,0,0,0,0,0,0,0,-1,1322,477,0,0
105,547,3.93469,-18.3004,0.0688085,0.0795982,0.0680268,0.142444,0.0059629,0.824968,0.0930386,0.0449245,1329,477,3.93475,18.3005
112,547,4.26709,-17.6911,0.0700951,0.0760184,0.0769048,0.150019,-0.00390508,0.804644,0.101339,0.0462829,1336,477,4.26711,17.6911
119,547,4.57361,-17.289,0.073304,0.0720764,0.0849698,0.157662,-0.0122817,0.781787,0.109432,0.0441586,1343,477,4.57359,17.289
126,547,4.63416,-16.7389,0.0786131,0.0684545,0.0926054,0.166278,-0.0192108,0.758001,0.117779,0.0449609,1350,477,4.63412,16.7389
133,547,4.88904,-16.3112,0.0853777,0.0661128,0.0995442,0.175754,-0.0242638,0.737166,0.126038,0.0443687,1357,477,4.88906,16.3112
140,547,5.64648,-16.7373,0.0947636,0.0657234,0.104684,0.18593,-0.025443,0.716486,0.133247,0.0419027,1364,477,5.64648,16.7373
147,547,6.74121,-16.4737,0,0,0,0,0,0,0,-1,1371,477,6.74127,16.4737
154,547,7.89319,-16.2212,0,0,0,0,0,0,0,-1,1378,477,7.89317,16.2212
161,547,11.4034,-19.6718,0,0,0,0,0,0,0,-1,1385,477,11.4034,19.6718
168,547,-1.09973,-17.3397,0,0,0,0,0,0,0,-1,1392,477,-1.09977,17.3397
175,547,3.35034,-0.26532,0,0,0,0,0,0,0,-1,1399,477,3.3503,0.265306
182,547,4.26038,3.72672,0,0,0,0,0,0,0,-1,1406,477,4.26039,-3.7267
189,547,3.40454,1.28671,0,0,0,0,0,0,0,-1,1413,477,3.40457,-1.28673
196,547,3.53931,1.87793,0,0,0,0,0,0,0,-1,1420,477,3.53928,-1.87794
203,547,6.49414,-0.425842,0,0,0,0,0,0,0,-1,1427,477,6.4941,0.425844
210,547,4.82092,0.53595,0,0,0,0,0,0,0,-1,1434,477,4.82096,-0.535942
217,547,4.68579,0.480072,0,0,0,0,0,0,0,-1,1441,477,4.68577,-0.480069
224,547,4.55615,0.739807,0,0,0,0,0,0,0,-1,1448,477,4.55613,-0.73981
231,547,5.90869,-3.57721,0,0,0,0,0,0,0,-1,1455,477,5.90871,3.57722
238,547,5.50049,-3.15356,0,0,0,0,0,0,0,-1,1462,477,5.50045,3.15356
245,547,5.13708,-2.65213,0,0,0,0,0,0,0,-1,1469,477,5.13708,2.65212
252,547,3.73511,-0.645233,0,0,0,0,0,0,0,-1,1476,477,3.73515,0.645237
259,547,5.86816,-3.20816,0,0,0,0,0,0,0,-1,1483,477,5.86815,3.20816
266,547,5.40222,-2.45731,0,0,0,0,0,0,0,-1,1490,477,5.40221,2.45732
273,547,3.05737,0.495789,0,0,0,0,0,0,0,-1,1497,477,3.05742,-0.49578
280,547,2.0885,1.47797,0,0,0,0,0,0,0,-1,1504,477,2.08848,-1.47795
287,547,2.31177,-2.21716,0,0,0,0,0,0,0,-1,1511,477,2.31174,2.21717
294,547,2.4823,-3.03659,0,0,0,0,0,0,0,-1,1518,477,2.48229,3.0366
301,547,4.72119,-3.93454,0,0,0,0,0,0,0,-1,1525,477,4.72119,3.93453
308,547,4.07471,-5.42175,0,0,0,0,0,0,0,-1,1532,477,4.07468,5.42174
315,547,3.58496,-6.62112,0,0,0,0,0,0,0,-1,1539,477,3.58497,6.62113
322,547,4.99792,-11.8866,0,0,0,0,0,0,0,-1,1546,477,4.99793,11.8866
329,547,5.12158,-12.1871,0,0,0,0,0,0,0,-1,1553,477,5.12154,12.1871
336,547,5.06824,-12.0274,-0.0016479,-0.00168607,-0.00427071,0.00260376,-0.00593774,-0.783164,0.00505511,0.035891,1560,477,5.06821,12.0274
343,547,5.00586,-11.9223,-0.00204858,-0.00142194,-0.00396238,0.00223949,-0.00571001,-0.824853,0.0047332,0.0261188,1567,477,5.00591,11.9223
350,547,5.03113,-11.7021,-0.00217245,-0.00146353,-0.00362044,0.00181976,-0.00545574,-0.834195,0.00437187,0.020663,1574,477,5.03107,11.7021
357,547,5.02197,-11.4509,-0.00224432,-0.00153895,-0.00354595,0.00167182,-0.00545508,-0.834966,0.00430363,0.0155568,1581,477,5.02202,11.4509
364,547,5.00793,-11.2188,-0.00208266,-0.00126209,-0.00309047,0.0014452,-0.00478996,-0.851392,0.00376857,0.010472,1588,477,5.00796,11.2188
371,547,5.00647,-10.9813,-0.00185651,-0.000932531,-0.00260811,0.0012542,-0.00404324,-0.873057,0.00319665,0.0089442,1595,477,5.00642,10.9813
378,547,5.00134,-10.7333,-0.00162876,-0.000667794,-0.00218936,0.00109319,-0.00338974,-0.893417,0.00269906,0.0099375,1602,477,5.00129,10.7333
385,547,4.99902,-10.494,-0.0014015,-0.000292728,-0.00179046,0.00102721,-0.00272143,-0.935534,0.00223675,0.0105749,1609,477,4.99899,10.494
392,547,5.00171,-10.2556,-0.00113433,-2.32382e-05,-0.00137342,0.000902744,-0.00206031,-0.977586,0.00175369,0.0108177,1616,477,5.00176,10.2556
399,547,4.99768,-9.99738,-0.000856615,0.000169725,-0.00102729,0.000804887,-0.00149178,-1.01704,0.0013456,0.012408,1623,477,4.99764,9.99739
406,547,5.01807,-9.74286,-0.000613492,0.000358825,-0.000671678,0.000701824,-0.000956491,-1.09866,0.000961185,0.0128795,1630,477,5.01807,9.74284
413,547,5.01477,-9.50684,-0.000370757,0.000623037,-0.000271897,0.000692562,-0.000440283,-1.32045,0.000659433,0.012775,1637,477,5.0148,9.50685
420,547,5.02271,-9.2655,-0.000173584,0.000767784,6.73781e-05,0.000772582,-0.000178382,1.4997,0.000583673,0.0150183,1644,477,5.02268,9.26551
427,547,5.02246,-9.01364,-0.000110178,0.000847197,0.000282925,0.000924557,-0.000187537,1.30389,0.000687464,0.0134797,1651,477,5.02252,9.01363
434,547,4.99194,-8.75381,-5.01058e-05,0.000849397,0.000523614,0.0010899,-0.000290606,1.14023,0.000840386,0.00861606,1658,477,4.99198,8.7538
441,547,4.98315,-8.47919,-2.25681e-05,0.000729288,0.000708477,0.0011554,-0.000448676,1.02932,0.000955603,0.00916194,1665,477,4.98315,8.47919
448,547,4.98523,-8.202,-8.10249e-05,0.000581827,0.000843617,0.00115679,-0.000655983,0.972568,0.00105983,0.0105662,1672,477,4.98521,8.20201
455,547,4.98547,-7.93112,-0.000216001,0.000296239,0.000920973,0.000996042,-0.000915803,0.92102,0.00110413,0.0106164,1679,477,4.98551,7.93111
462,547,4.96606,-7.66769,-0.000281092,-0.000866547,0.000503837,8.88191e-06,-0.00115652,0.522234,0.000773991,0.0103136,1686,477,4.96604,7.6677
469,547,4.96094,-7.38739,-0.000282562,-0.00245936,-8.19059e-05,-0.000279484,-0.00246244,-0.037556,0.00155685,0.0185714,1693,477,4.96088,7.38738
476,547,5.03284,-7.01828,-0.000439969,-0.00432982,-0.000847977,-0.00026315,-0.00450664,-0.205573,0.00292066,0.0437471,1700,477,5.03282,7.01827
483,547,5.12842,-6.57504,0,0,0,0,0,0,0,-1,1707,477,5.12837,6.57506
490,547,3.65271,-3.71707,0,0,0,0,0,0,0,-1,1714,477,3.65277,3.71708
497,547,2.55481,-3.81421,0,0,0,0,0,0,0,-1,1721,477,2.55476,3.8142
504,547,4.01953,-2.22714,0,0,0,0,0,0,0,-1,1728,477,4.0195,2.22713
511,547,4.82495,-1.45642,0,0,0,0,0,0,0,-1,1735,477,4.82495,1.45641
518,547,5.87329,-5.45328,0,0,0,0,0,0,0,-1,1742,477,5.87331,5.45327
525,547,0.781616,-3.76355,0,0,0,0,0,0,0,-1,1749,477,0.781645,3.76354
532,547,0,0,0,0,0,0,0,0,0,-1,1756,477,0,0
539,547,0,0,0,0,0,0,0,0,0,-1,1763,477,0,0
546,547,0,0,0,0,0,0,0,0,0,-1,1770,477,0,0
553,547,0,0,0,0,0,0,0,0,0,-1,1777,477,0,0
560,547,0,0,0,0,0,0,0,0,0,-1,1784,477,0,0
567,547,0,0,0,0,0,0,0,0,0,-1,1791,477,0,0
574,547,0,0,0,0,0,0,0,0,0,-1,1798,477,0,0
581,547,0,0,0,0,0,0,0,0,0,-1,1805,477,0,0
588,547,0,0,0,0,0,0,0,0,0,-1,1812,477,0,0
595,547,0,0,0,0,0,0,0,0,0,-1,1819,477,0,0
602,547,0,0,0,0,0,0,0,0,0,-1,1826,477,0,0
609,547,0,0,0,0,0,0,0,0,0,-1,1833,477,0,0
616,547,0,0,0,0,0,0,0,0,0,-1,1840,477,0,0
623,547,0,0,0,0,0,0,0,0,0,-1,1847,477,0,0
630,547,0,0,0,0,0,0,0,0,0,-1,1854,477,0,0
637,547,0,0,0,0,0,0,0,0,0,-1,1861,477,0,0
644,547,0,0,0,0,0,0,0,0,0,-1,1868,477,0,0
651,547,0,0,0,0,0,0,0,0,0,-1,1875,477,0,0
658,547,0,0,0,0,0,0,0,0,0,-1,1882,477,0,0
665,547,0,0,0,0,0,0,0,0,0,-1,1889,477,0,0
672,547,0,0,0,0,0,0,0,0,0,-1,1896,477,0,0
679,547,0,0,0,0,0,0,0,0,0,-1,1903,477,0,0
686,547,0,0,0,0,0,0,0,0,0,-1,1910,477,0,0
693,547,0,0,0,0,0,0,0,0,0,-1,1917,477,0,0
700,547,0,0,0,0,0,0,0,0,0,-1,1924,477,0,0
707,547,0,0,0,0,0,0,0,0,0,-1,1931,477,0,0
714,547,0,0,0,0,0,0,0,0,0,-1,1938,477,0,0
721,547,0,0,0,0,0,0,0,0,0,-1,1945,477,0,0
728,547,0,0,0,0,0,0,0,0,0,-1,1952,477,0,0
735,547,0,0,0,0,0,0,0,0,0,-1,1959,477,0,0
742,547,0,0,0,0,0,0,0,0,0,-1,1966,477,0,0
749,547,0,0,0,0,0,0,0,0,0,-1,1973,477,0,0
756,547,0,0,0,0,0,0,0,0,0,-1,1980,477,0,0
763,547,0,0,0,0,0,0,0,0,0,-1,1987,477,0,0
770,547,0,0,0,0,0,0,0,0,0,-1,1994,477,0,0
777,547,0,0,0,0,0,0,0,0,0,-1,2001,477,0,0
784,547,0,0,0,0,0,0,0,0,0,-1,2008,477,0,0
791,547,0,0,0,0,0,0,0,0,0,-1,2015,477,0,0
798,547,0,0,0,0,0,0,0,0,0,-1,2022,477,0,0
805,547,0,0,0,0,0,0,0,0,0,-1,2029,477,0,0
812,547,0,0,0,0,0,0,0,0,0,-1,2036,477,0,0
-700,540,0,0,0,0,0,0,0,0,0,-1,524,484,0,0
-693,540,0,0,0,0,0,0,0,0,0,-1,531,484,0,0
-686,540,0,0,0,0,0,0,0,0,0,-1,538,484,0,0
-679,540,0,0,0,0,0,0,0,0,0,-1,545,484,0,0
-672,540,0,0,0,0,0,0,0,0,0,-1,552,484,0,0
-665,540,0,0,0,0,0,0,0,0,0,-1,559,484,0,0
-658,540,0,0,0,0,0,0,0,0,0,-1,566,484,0,0
-651,540,0,0,0,0,0,0,0,0,0,-1,573,484,0,0
-644,540,0,0,0,0,0,0,0,0,0,-1,580,484,0,0
-637,540,0,0,0,0,0,0,0,0,0,-1,587,484,0,0
-630,540,0,0,0,0,0,0,0,0,0,-1,594,484,0,0
-623,540,0,0,0,0,0,0,0,0,0,-1,601,484,0,0
-616,540,0,0,0,0,0,0,0,0,0,-1,608,484,0,0
-609,540,0,0,0,0,0,0,0,0,0,-1,615,484,0,0
-602,540,0,0,0,0,0,0,0,0,0,-1,622,484,0,0
-595,540,0,0,0,0,0,0,0,0,0,-1,629,484,0,0
-588,540,0,0,0,0,0,0,0,0,0,-1,636,484,0,0
-581,540,0,0,0,0,0,0,0,0,0,-1,643,484,0,0
-574,540,0,0,0,0,0,0,0,0,0,-1,650,484,0,0
-567,540,0,0,0,0,0,0,0,0,0,-1,657,484,0,0
-560,540,0,0,0,0,0,0,0,0,0,-1,664,484,0,0
-553,540,0,0,0,0,0,0,0,0,0,-1,671,484,0,0
-546,540,0,0,0,0,0,0,0,0,0,-1,678,484,0,0
-539,540,0,0,0,0,0,0,0,0,0,-1,685,484,0,0
-532,540,0,0,0,0,0,0,0,0,0,-1,692,484,0,0
-525,540,0,0,0,0,0,0,0,0,0,-1,699,484,0,0
-518,540,0,0,0,0,0,0,0,0,0,-1,706,484,0,0
-511,540,0,0,0,0,0,0,0,0,0,-1,713,484,0,0
-504,540,0,0,0,0,0,0,0,0,0,-1,720,484,0,0
-497,540,0,0,0,0,0,0,0,0,0,-1,727,484,0,0
-490,540,0,0,0,0,0,0,0,0,0,-1,734,484,0,0
-483,540,0,0,0,0,0,0,0,0,0,-1,741,484,0,0
-476,540,0,0,0,0,0,0,0,0,0,-1,748,484,0,0
-469,540,0,0,0,0,0,0,0,0,0,-1,755,484,0,0
-462,540,0,0,0,0,0,0,0,0,0,-1,762,484,0,0
-455,540,0,0,0,0,0,0,0,0,0,-1,769,484,0,0
-448,540,0,0,0,0,0,0,0,0,0,-1,776,484,0,0
-441,540,0,0,0,0,0,0,0,0,0,-1,783,484,0,0
-434,540,0,0,0,0,0,0,0,0,0,-1,790,484,0,0
-427,540,0,0,0,0,0,0,0,0,0,-1,797,484,0,0
-420,540,-1.60455,-6.24124,0,0,0,0,0,0,0,-1,804,484,-1.60457,6.24123
-413,540,-0.793945,-6.14838,0,0,0,0,0,0,0,-1,811,484,-0.793936,6.14839
-406,540,-0.0821533,-6.01089,0,0,0,0,0,0,0,-1,818,484,-0.0821245,6.0109
-399,540,0.651489,-5.85809,0,0,0,0,0,0,0,-1,825,484,0.651462,5.85809
-392,540,1.58423,-5.67072,0,0,0,0,0,0,0,-1,832,484,1.58425,5.67072
-385,540,1.2442,-4.01782,0,0,0,0,0,0,0,-1,839,484,1.24422,4.01782
-378,540,-3.828,-3.2016,0,0,0,0,0,0,0,-1,846,484,-3.82798,3.20159
-371,540,-0.0177002,-4.21246,0,0,0,0,0,0,0,-1,853,484,-0.0176722,4.21247
-364,540,0.74408,-8.20395,0,0,0,0,0,0,0,-1,860,484,0.744072,8.20395
-357,540,0.631775,-8.11108,0,0,0,0,0,0,0,-1,867,484,0.631752,8.11107
-350,540,0.609802,-8.44119,0.0148302,-0.0103372,0.0139158,0.0210082,-0.0165151,0.417812,0.0217158,0.0322997,874,484,0.609818,8.44119
-343,540,0.56842,-8.73849,0.0131405,-0.00905525,0.0121698,0.0185128,-0.0144276,0.415718,0.0190668,0.0139144,881,484,0.568397,8.73849
-336,540,0.571167,-9.04053,0.0114094,-0.00759775,0.010248,0.0158822,-0.0120705,0.411534,0.0161884,0.0116067,888,484,0.57119,9.04052
-329,540,0.54126,-9.27493,0.00955796,-0.00618996,0.00841228,0.0132064,-0.0098384,0.40922,0.0133522,0.00991501,895,484,0.541235,9.27493
-322,540,0.548523,-9.51535,0.00770621,-0.0048146,0.00645068,0.0104349,-0.0075433,0.400183,0.0104244,0.0146225,902,484,0.548532,9.51534
-315,540,0.549194,-9.79492,0.00606148,-0.0035046,0.00459835,0.00791337,-0.00535649,0.382857,0.00770862,0.0139959,909,484,0.549217,9.79491
-308,540,0.515564,-10.028,0.00475163,-0.00237327,0.00300893,0.00585231,-0.00347394,0.350682,0.00544256,0.0129317,916,484,0.515569,10.028
-301,540,0.492432,-10.2471,0.00362081,-0.0014987,0.00173925,0.00415578,-0.00203367,0.298403,0.00364282,0.0121913,923,484,0.492462,10.2471
-294,540,0.510742,-10.4805,0.00285451,-0.000967608,0.000937686,0.00307216,-0.00118526,0.228075,0.00253722,0.0110269,930,484,0.510767,10.4805
-287,540,0.52948,-10.7168,0.00249574,-0.000916984,0.00043447,0.00255018,-0.000971427,0.12466,0.0021002,0.00772642,937,484,0.529468,10.7168
-280,540,0.525818,-10.9389,0.00232499,-0.00107347,5.31028e-05,0.00232582,-0.0010743,0.0156204,0.0020069,0.00930145,944,484,0.52582,10.9389
-273,540,0.522095,-11.1682,0.00255091,-0.00164136,-8.47822e-05,0.00255262,-0.00164307,-0.0202125,0.00244128,0.0118162,951,484,0.522095,11.1682
-266,540,0.524536,-11.3984,0.00305915,-0.00258645,-0.000155693,0.00306344,-0.00259074,-0.0275498,0.00326824,0.01259,958,484,0.524558,11.3984
-259,540,0.53064,-11.6169,0.00358705,-0.00357277,1.96165e-05,0.0035871,-0.00357283,0.00273977,0.00413379,0.0114223,965,484,0.530628,11.6169
-252,540,0.548706,-11.8178,0.003614,-0.0053781,0.000559975,0.00364874,-0.00541284,0.0619551,0.00526464,0.0114814,972,484,0.548695,11.8178
-245,540,0.565979,-12.0429,0.00353645,-0.00756401,0.00136632,0.00370215,-0.00772971,0.120687,0.00673534,0.011987,979,484,0.566004,12.0429
-238,540,0.543091,-12.2242,0.00390403,-0.0107074,0.00302964,0.00450731,-0.0113107,0.196555,0.00940989,0.00930653,986,484,0.543093,12.2242
-231,540,0.547913,-12.4212,0.00382779,-0.0136456,0.00440971,0.00487758,-0.0146954,0.233714,0.0117648,0.0118316,993,484,0.54789,12.4212
-224,540,0.585876,-12.6124,0.00337357,-0.0169492,0.00644559,0.00524545,-0.0188211,0.282637,0.0146131,0.0169432,1000,484,0.585862,12.6124
-217,540,0.569397,-12.8274,0.00272759,-0.0204634,0.00896468,0.00578886,-0.0235247,0.329066,0.0179271,0.027959,1007,484,0.569381,12.8274
-210,540,0.574463,-13.0246,0.00188414,-0.0240481,0.011855,0.0064868,-0.0286508,0.370332,0.0215901,0.0433625,1014,484,0.574478,13.0246
-203,540,0.44574,-12.6342,0.000906463,-0.0278882,0.0152547,0.00748503,-0.0344668,0.407152,0.0258368,0.0438811,1021,484,0.445728,12.6342
-196,540,0.0866699,-12.4142,0.000433203,-0.0308808,0.0187057,0.00916976,-0.0396173,0.436944,0.0299399,0.0449248,1028,484,0.0867275,12.4142
-189,540,-0.271118,-12.1022,0.000601322,-0.0328195,0.0216991,0.0112787,-0.0434969,0.457278,0.0333984,0.0470497,1035,484,-0.27114,12.1022
-182,540,-0.52063,-11.7722,0,0,0,0,0,0,0,-1,1042,484,-0.520617,11.7723
-175,540,1.73413,-10.728,0,0,0,0,0,0,0,-1,1049,484,1.73414,10.728
-168,540,1.18164,-7.65347,0,0,0,0,0,0,0,-1,1056,484,1.18163,7.65347
-161,540,-1.31653,-9.93869,0,0,0,0,0,0,0,-1,1063,484,-1.31651,9.93868
-154,540,0.921631,-11.8871,0,0,0,0,0,0,0,-1,1070,484,0.921581,11.8871
-147,540,-0.122803,-14.7353,0,0,0,0,0,0,0,-1,1077,484,-0.122833,14.7353
-140,540,0.231567,-14.9626,0,0,0,0,0,0,0,-1,1084,484,0.231548,14.9626
-133,540,0.790405,-16.175,0,0,0,0,0,0,0,-1,1091,484,0.79038,16.175
-126,540,1.46765,-17.5085,0,0,0,0,0,0,0,-1,1098,484,1.46764,17.5085
-119,540,6.18579,-10.4846,0,0,0,0,0,0,0,-1,1105,484,6.18582,10.4846
-112,540,5.8468,-9.65106,0,0,0,0,0,0,0,-1,1112,484,5.84681,9.65106
-105,540,5.50781,-8.81754,0,0,0,0,0,0,0,-1,1119,484,5.5078,8.81753
-98,540,0.73877,-3.08093,0,0,0,0,0,0,0,-1,1126,484,0.738754,3.08092
-91,540,1.56519,-7.48666,0,0,0,0,0,0,0,-1,1133,484,1.56514,7.48667
-84,540,-0.945923,4.43073,0,0,0,0,0,0,0,-1,1140,484,-0.945891,-4.43074
-77,540,-2.28894,2.14368,0,0,0,0,0,0,0,-1,1147,484,-2.28894,-2.14368
-70,540,-3.75244,-0.452576,0,0,0,0,0,0,0,-1,1154,484,-3.75244,0.452576
-63,540,-5.26257,-3.04767,0,0,0,0,0,0,0,-1,1161,484,-5.26262,3.04766
-56,540,-5.19055,-6.12595,0,0,0,0,0,0,0,-1,1168,484,-5.19057,6.12595
-49,540,-5.63867,-8.52298,0,0,0,0,0,0,0,-1,1175,484,-5.63871,8.52298
-42,540,0,0,0,0,0,0,0,0,0,-1,1182,484,0,0
-35,540,0,0,0,0,0,0,0,0,0,-1,1189,484,0,0
-28,540,0,0,0,0,0,0,0,0,0,-1,1196,484,0,0
-21,540,0,0,0,0,0,0,0,0,0,-1,1203,484,0,0
-14,540,0,0,0,0,0,0,0,0,0,-1,1210,484,0,0
-7,540,0,0,0,0,0,0,0,0,0,-1,1217,484,0,0
0,540,0,0,0,0,0,0,0,0,0,-1,1224,484,0,0
7,540,0,0,0,0,0,0,0,0,0,-1,1231,484,0,0
14,540,0,0,0,0,0,0,0,0,0,-1,1238,484,0,0
21,540,0,0,0,0,0,0,0,0,0,-1,1245,484,0,0
28,540,0,0,0,0,0,0,0,0,0,-1,1252,484,0,0
35,540,0,0,0,0,0,0,0,0,0,-1,1259,484,0,0
42,540,0,0,0,0,0,0,0,0,0,-1,1266,484,0,0
49,540,0,0,0,0,0,0,0,0,0,-1,1273,484,0,0
56,540,0,0,0,0,0,0,0,0,0,-1,1280,484,0,0
63,540,0,0,0,0,0,0,0,0,0,-1,1287,484,0,0
70,540,0,0,0,0,0,0,0,0,0,-1,1294,484,0,0
77,540,0,0,0,0,0,0,0,0,0,-1,1301,484,0,0
84,540,0,0,0,0,0,0,0,0,0,-1,1308,484,0,0
91,540,0,0,0,0,0,0,0,0,0,-1,1315,484,0,0
98,540,0,0,0,0,0,0,0,0,0,-1,1322,484,0,0
105,540,0,0,0,0,0,0,0,0,0,-1,1329,484,0,0
112,540,0,0,0,0,0,0,0,0,0,-1,1336,484,0,0
119,540,0,0,0,0,0,0,0,0,0,-1,1343,484,0,0
126,540,0,0,0,0,0,0,0,0,0,-1,1350,484,0,0
133,540,0,0,0,0,0,0,0,0,0,-1,1357,484,0,0
140,540,0,0,0,0,0,0,0,0,0,-1,1364,484,0,0
147,540,0,0,0,0,0,0,0,0,0,-1,1371,484,0,0
154,540,0,0,0,0,0,0,0,0,0,-1,1378,484,0,0
161,540,0,0,0,0,0,0,0,0,0,-1,1385,484,0,0
168,540,3.05078,-0.0010376,0,0,0,0,0,0,0,-1,1392,484,3.05084,0.00102554
175,540,3.37708,0.617035,0,0,0,0,0,0,0,-1,1399,484,3.37707,-0.617046
182,540,3.32678,1.23267,0,0,0,0,0,0,0,-1,1406,484,3.32678,-1.23266
189,540,3.5813,2.15619,0,0,0,0,0,0,0,-1,1413,484,3.58129,-2.1562
196,540,1.84448,-0.801483,0,0,0,0,0,0,0,-1,1420,484,1.84446,0.80148
203,540,4.14648,0.702087,0,0,0,0,0,0,0,-1,1427,484,4.14645,-0.702089
210,540,4.50671,-0.56076,0,0,0,0,0,0,0,-1,1434,484,4.50667,0.560771
217,540,5.00452,-0.278717,0,0,0,0,0,0,0,-1,1441,484,5.00452,0.278709
224,540,6.44458,-2.83527,0,0,0,0,0,0,0,-1,1448,484,6.44457,2.83525
231,540,6.9231,-3.10504,0,0,0,0,0,0,0,-1,1455,484,6.92307,3.10505
238,540,6.4823,-2.58365,0,0,0,0,0,0,0,-1,1462,484,6.48225,2.58363
245,540,6.02087,-1.97916,0,0,0,0,0,0,0,-1,1469,484,6.02088,1.97915
252,540,6.50647,-3.56006,0,0,0,0,0,0,0,-1,1476,484,6.50649,3.56006
259,540,6.01941,-2.798,0,0,0,0,0,0,0,-1,1483,484,6.01941,2.79801
266,540,5.5332,-2.02853,0,0,0,0,0,0,0,-1,1490,484,5.53323,2.02855
273,540,5.06787,-1.28137,0,0,0,0,0,0,0,-1,1497,484,5.06786,1.28136
280,540,1.62903,-2.14609,0,0,0,0,0,0,0,-1,1504,484,1.62906,2.1461
287,540,1.97156,-2.45053,0,0,0,0,0,0,0,-1,1511,484,1.97159,2.45053
294,540,2.44165,-2.6185,0,0,0,0,0,0,0,-1,1518,484,2.44167,2.6185
301,540,4.36169,-2.54272,0,0,0,0,0,0,0,-1,1525,484,4.36165,2.54272
308,540,4.2019,-4.30469,0,0,0,0,0,0,0,-1,1532,484,4.20193,4.3047
315,540,4.45923,-5.32101,0,0,0,0,0,0,0,-1,1539,484,4.45923,5.32103
322,540,4.71655,-6.33737,0,0,0,0,0,0,0,-1,1546,484,4.71653,6.33736
329,540,5.35327,-11.9934,0,0,0,0,0,0,0,-1,1553,484,5.35331,11.9934
336,540,5.44275,-11.9713,0,0,0,0,0,0,0,-1,1560,484,5.44273,11.9712
343,540,5.27209,-12.0199,0,0,0,0,0,0,0,-1,1567,484,5.27205,12.0199
350,540,5.26746,-11.8118,0,0,0,0,0,0,0,-1,1574,484,5.26741,11.8118
357,540,5.40918,-11.2856,-0.00351562,-0.00228673,-0.00509008,0.00222586,-0.00802821,-0.845465,0.00622812,0.0437358,1581,484,5.40918,11.2856
364,540,5.22852,-11.1408,-0.00317661,-0.00195462,-0.00450108,0.00197674,-0.00710797,-0.852858,0.0055169,0.0244378,1588,484,5.22853,11.1408
371,540,5.20764,-10.9576,-0.00279677,-0.00151892,-0.00389358,0.00178781,-0.0061035,-0.866722,0.00477777,0.0156172,1595,484,5.20769,10.9576
378,540,5.24585,-10.7273,-0.00243625,-0.00120759,-0.00336733,0.00160099,-0.00524483,-0.875625,0.00413486,0.0120737,1602,484,5.2459,10.7273
385,540,5.2478,-10.4928,-0.00216426,-0.00081404,-0.00289251,0.0014811,-0.00445941,-0.900046,0.00357055,0.0140218,1609,484,5.24781,10.4928
392,540,5.24121,-10.2561,-0.00186702,-0.000456325,-0.00237629,0.00131709,-0.00364044,-0.92967,0.00296515,0.0123121,1616,484,5.2412,10.2561
399,540,5.24377,-10.0136,-0.00156776,-0.000259701,-0.00198842,0.00117948,-0.00300695,-0.944285,0.00249262,0.0159401,1623,484,5.24383,10.0136
406,540,5.25818,-9.77194,-0.00127968,-4.8301e-05,-0.00158069,0.00103238,-0.00236036,-0.971112,0.00200819,0.0177697,1630,484,5.25815,9.77194
413,540,5.25574,-9.51968,-0.000951129,0.000264558,-0.00110402,0.000917005,-0.00160358,-1.03704,0.00147314,0.0137627,1637,484,5.25577,9.51967
420,540,5.26855,-9.24896,-0.000653587,0.000437746,-0.000681718,0.000765287,-0.000981128,-1.1229,0.00101086,0.0121619,1644,484,5.26855,9.24895
427,540,5.26257,-8.99509,-0.000506947,0.000544092,-0.000372909,0.000662957,-0.000625812,-1.26223,0.000744174,0.01225,1651,484,5.26253,8.9951
434,540,5.26086,-8.72028,-0.000373418,0.000573029,-4.66665e-05,0.000575324,-0.000375713,-1.52165,0.000553099,0.0138953,1658,484,5.26084,8.72026
441,540,5.26807,-8.45285,-0.000230438,0.000476436,0.000228851,0.000544058,-0.00029806,1.28349,0.000493063,0.01671,1665,484,5.26806,8.45285
448,540,5.25208,-8.21173,-0.000129415,0.000317229,0.000471414,0.000615543,-0.000427729,1.0066,0.000605578,0.0107011,1672,484,5.25209,8.21173
455,540,5.24194,-7.94281,-8.39391e-05,6.82826e-05,0.000674906,0.000671355,-0.000687012,0.841547,0.000784271,0.00993512,1679,484,5.24191,7.94281
462,540,5.22205,-7.65451,5.03601e-05,-0.000973831,0.00045396,0.000222605,-0.00114608,0.362646,0.000848047,0.0100178,1686,484,5.22203,7.6545
469,540,5.21716,-7.39795,0.000183091,-0.00245585,1.36756e-05,0.000183162,-0.00245592,0.00518207,0.00170162,0.0132665,1693,484,5.21713,7.39796
476,540,5.18872,-7.1861,0.000142268,-0.00412749,-0.000559907,0.000214469,-0.00419969,-0.128245,0.00287396,0.0216253,1700,484,5.18878,7.1861
483,540,5.18945,-6.922,2.03012e-05,-0.00630024,-0.00149978,0.000358121,-0.00663806,-0.221549,0.00454945,0.0402978,1707,484,5.18947,6.92201
490,540,5.37561,-6.54227,0,0,0,0,0,0,0,-1,1714,484,5.37562,6.54226
497,540,4.27393,-2.67752,0,0,0,0,0,0,0,-1,1721,484,4.27395,2.67751
504,540,5.52747,-4.4433,0,0,0,0,0,0,0,-1,1728,484,5.5275,4.44329
511,540,4.81738,-6.55835,0,0,0,0,0,0,0,-1,1735,484,4.81735,6.55836
518,540,5.65564,-5.86139,0,0,0,0,0,0,0,-1,1742,484,5.65561,5.86138
525,540,6.24097,-4.83298,0,0,0,0,0,0,0,-1,1749,484,6.24095,4.83297
532,540,2.84265,-1.07925,0,0,0,0,0,0,0,-1,1756,484,2.84269,1.07927
539,540,0,0,0,0,0,0,0,0,0,-1,1763,484,0,0
546,540,0,0,0,0,0,0,0,0,0,-1,1770,484,0,0
553,540,0,0,0,0,0,0,0,0,0,-1,1777,484,0,0
560,540,0,0,0,0,0,0,0,0,0,-1,1784,484,0,0
567,540,0,0,0,0,0,0,0,0,0,-1,1791,484,0,0
574,540,0,0,0,0,0,0,0,0,0,-1,1798,484,0,0
581,540,0,0,0,0,0,0,0,0,0,-1,1805,484,0,0
588,540,0,0,0,0,0,0,0,0,0,-1,1812,484,0,0
595,540,0,0,0,0,0,0,0,0,0,-1,1819,484,0,0
602,540,0,0,0,0,0,0,0,0,0,-1,1826,484,0,0
609,540,0,0,0,0,0,0,0,0,0,-1,1833,484,0,0
616,540,0,0,0,0,0,0,0,0,0,-1,1840,484,0,0
623,540,0,0,0,0,0,0,0,0,0,-1,1847,484,0,0
630,540,0,0,0,0,0,0,0,0,0,-1,1854,484,0,0
637,540,0,0,0,0,0,0,0,0,0,-1,1861,484,0,0
644,540,0,0,0,0,0,0,0,0,0,-1,1868,484,0,0
651,540,0,0,0,0,0,0,0,0,0,-1,1875,484,0,0
658,540,0,0,0,0,0,0,0,0,0,-1,1882,484,0,0
665,540,0,0,0,0,0,0,0,0,0,-1,1889,484,0,0
672,540,0,0,0,0,0,0,0,0,0,-1,1896,484,0,0
679,540,0,0,0,0,0,0,0,0,0,-1,1903,484,0,0
686,540,0,0,0,0,0,0,0,0,0,-1,1910,484,0,0
693,540,0,0,0,0,0,0,0,0,0,-1,1917,484,0,0
700,540,0,0,0,0,0,0,0,0,0,-1,1924,484,0,0
707,540,0,0,0,0,0,0,0,0,0,-1,1931,484,0,0
714,540,0,0,0,0,0,0,0,0,0,-1,1938,484,0,0
721,540,0,0,0,0,0,0,0,0,0,-1,1945,484,0,0
728,540,0,0,0,0,0,0,0,0,0,-1,1952,484,0,0
735,540,0,0,0,0,0,0,0,0,0,-1,1959,484,0,0
742,540,0,0,0,0,0,0,0,0,0,-1,1966,484,0,0
749,540,0,0,0,0,0,0,0,0,0,-1,1973,484,0,0
756,540,0,0,0,0,0,0,0,0,0,-1,1980,484,0,0
763,540,0,0,0,0,0,0,0,0,0,-1,1987,484,0,0
770,540,0,0,0,0,0,0,0,0,0,-1,1994,484,0,0
777,540,0,0,0,0,0,0,0,0,0,-1,2001,484,0,0
784,540,0,0,0,0,0,0,0,0,0,-1,2008,484,0,0
791,540,0,0,0,0,0,0,0,0,0,-1,2015,484,0,0
798,540,0,0,0,0,0,0,0,0,0,-1,2022,484,0,0
805,540,0,0,0,0,0,0,0,0,0,-1,2029,484,0,0
812,540,0,0,0,0,0,0,0,0,0,-1,2036,484,0,0
-700,533,0,0,0,0,0,0,0,0,0,-1,524,491,0,0
-693,533,0,0,0,0,0,0,0,0,0,-1,531,491,0,0
-686,533,0,0,0,0,0,0,0,0,0,-1,538,491,0,0
-679,533,0,0,0,0,0,0,0,0,0,-1,545,491,0,0
-672,533,0,0,0,0,0,0,0,0,0,-1,552,491,0,0
-665,533,0,0,0,0,0,0,0,0,0,-1,559,491,0,0
-658,533,0,0,0,0,0,0,0,0,0,-1,566,491,0,0
-651,533,0,0,0,0,0,0,0,0,0,-1,573,491,0,0
-644,533,0,0,0,0,0,0,0,0,0,-1,580,491,0,0
-637,533,0,0,0,0,0,0,0,0,0,-1,587,491,0,0
-630,533,0,0,0,0,0,0,0,0,0,-1,594,491,0,0
-623,533,0,0,0,0,0,0,0,0,0,-1,601,491,0,0
-616,533,0,0,0,0,0,0,0,0,0,-1,608,491,0,0
-609,533,0,0,0,0,0,0,0,0,0,-1,615,491,0,0
-602,533,0,0,0,0,0,0,0,0,0,-1,622,491,0,0
-595,533,0,0,0,0,0,0,0,0,0,-1,629,491,0,0
-588,533,0,0,0,0,0,0,0,0,0,-1,636,491,0,0
-581,533,0,0,0,0,0,0,0,0,0,-1,643,491,0,0
-574,533,0,0,0,0,0,0,0,0,0,-1,650,491,0,0
-567,533,0,0,0,0,0,0,0,0,0,-1,657,491,0,0
-560,533,0,0,0,0,0,0,0,0,0,-1,664,491,0,0
-553,533,0,0,0,0,0,0,0,0,0,-1,671,491,0,0
-546,533,0,0,0,0,0,0,0,0,0,-1,678,491,0,0
-539,533,0,0,0,0,0,0,0,0,0,-1,685,491,0,0
-532,533,0,0,0,0,0,0,0,0,0,-1,692,491,0,0
-525,533,0,0,0,0,0,0,0,0,0,-1,699,491,0,0
-518,533,0,0,0,0,0,0,0,0,0,-1,706,491,0,0
-511,533,0,0,0,0,0,0,0,0,0,-1,713,491,0,0
-504,533,0,0,0,0,0,0,0,0,0,-1,720,491,0,0
-497,533,0,0,0,0,0,0,0,0,0,-1,727,491,0,0
-490,533,0,0,0,0,0,0,0,0,0,-1,734,491,0,0
-483,533,0,0,0,0,0,0,0,0,0,-1,741,491,0,0
-476,533,0,0,0,0,0,0,0,0,0,-1,748,491,0,0
-469,533,0,0,0,0,0,0,0,0,0,-1,755,491,0,0
-462,533,0,0,0,0,0,0,0,0,0,-1,762,491,0,0
-455,533,0,0,0,0,0,0,0,0,0,-1,769,491,0,0
-448,533,0,0,0,0,0,0,0,0,0,-1,776,491,0,0
-441,533,0,0,0,0,0,0,0,0,0,-1,783,491,0,0
-434,533,0,0,0,0,0,0,0,0,0,-1,790,491,0,0
-427,533,-1.67474,-5.60538,0,0,0,0,0,0,0,-1,797,491,-1.67473,5.60539
-420,533,-1.35437,-5.75763,0,0,0,0,0,0,0,-1,804,491,-1.35439,5.75763
-413,533,-0.617004,-5.81683,0,0,0,0,0,0,0,-1,811,491,-0.617024,5.81684
-406,533,0.76532,-8.01389,0,0,0,0,0,0,0,-1,818,491,0.765295,8.01389
-399,533,1.49323,-5.71405,0,0,0,0,0,0,0,-1,825,491,1.49324,5.71405
-392,533,2.41144,-5.43213,0,0,0,0,0,0,0,-1,832,491,2.41144,5.43214
-385,533,0.191895,-4.85858,0,0,0,0,0,0,0,-1,839,491,0.191883,4.85857
-378,533,-0.761414,-5.15549,0,0,0,0,0,0,0,-1,846,491,-0.761387,5.15549
-371,533,0.518433,-7.83105,0,0,0,0,0,0,0,-1,853,491,0.518438,7.83106
-364,533,0.463928,-8.11563,0.00674786,-0.00529842,0.00275158,0.00734661,-0.00589716,0.214261,0.00766155,0.0416005,860,491,0.463903,8.11563
-357,533,0.405151,-8.26163,0.00585219,-0.00471901,0.00327472,0.00678441,-0.00565124,0.277337,0.00718966,0.0263234,867,491,0.405127,8.26164
-350,533,0.342957,-8.46417,0.00500498,-0.0041103,0.00337564,0.00611894,-0.00522426,0.318747,0.00655578,0.0114042,874,491,0.34298,8.46417
-343,533,0.343079,-8.76953,0.00440692,-0.0034768,0.00305394,0.00545152,-0.0045214,0.329576,0.00576621,0.010493,881,491,0.343102,8.76955
-336,533,0.320496,-9.04568,0.0038538,-0.00274656,0.00258961,0.00474853,-0.00364129,0.332667,0.00485791,0.0145332,888,491,0.32047,9.04569
-329,533,0.299011,-9.26968,0.00322226,-0.00205871,0.00216936,0.00399912,-0.00283557,0.34388,0.00396503,0.0127977,895,491,0.299005,9.2697
-322,533,0.294495,-9.52505,0.00257185,-0.00142282,0.00157081,0.00311554,-0.00196651,0.333213,0.00295901,0.0113073,902,491,0.294524,9.52507
-315,533,0.297546,-9.79996,0.00207517,-0.000821553,0.00095542,0.00236191,-0.00110829,0.291566,0.00204664,0.0128047,909,491,0.297523,9.79994
-308,533,0.282776,-10.014,0.00182316,-0.000365717,0.000437131,0.00190723,-0.000449785,0.19,0.00144494,0.0117174,916,491,0.282754,10.014
-301,533,0.254639,-10.2272,0.00165057,-0.000110363,5.95674e-05,0.00165259,-0.000112375,0.0337756,0.00114103,0.0119343,923,491,0.254629,10.2272
-294,533,0.278687,-10.4577,0.00171539,-0.00011732,-5.20687e-05,0.00171687,-0.000118798,-0.0283803,0.00118616,0.0107262,930,491,0.278677,10.4577
-287,533,0.303833,-10.7054,0.00210255,-0.000573789,-0.000106867,0.00210681,-0.00057805,-0.0398459,0.00163172,0.00860659,937,491,0.303855,10.7053
-280,533,0.30011,-10.9482,0.00263948,-0.00120513,-4.79612e-05,0.00264008,-0.00120573,-0.0124723,0.00227127,0.00864125,944,491,0.300084,10.9482
-273,533,0.28479,-11.179,0.00341278,-0.00219616,4.62805e-05,0.00341316,-0.00219654,0.00825045,0.00326405,0.0125118,951,491,0.284791,11.179
-266,533,0.294067,-11.4018,0.00423717,-0.00348532,-2.2348e-05,0.00423724,-0.00348539,-0.00289385,0.0044657,0.0118854,958,491,0.294095,11.4018
-259,533,0.309448,-11.6071,0.0050578,-0.00476766,0.000138881,0.00505976,-0.00476962,0.014131,0.00567582,0.0118783,965,491,0.30945,11.6071
-252,533,0.329468,-11.7907,0.00515623,-0.00700983,0.000810525,0.00520999,-0.00706359,0.0662317,0.00711304,0.0140897,972,491,0.329461,11.7907
-245,533,0.39917,-11.9846,0.0050122,-0.00975801,0.00179041,0.00522613,-0.00997194,0.118923,0.00891607,0.0196315,979,491,0.399156,11.9846
-238,533,0.349304,-12.1048,0.00527641,-0.0136789,0.0038259,0.00601949,-0.014422,0.191835,0.0121297,0.022225,986,491,0.349319,12.1048
-231,533,0.464111,-12.2426,0.00497481,-0.0173754,0.00556785,0.00628505,-0.0186857,0.231118,0.0149977,0.0298301,993,491,0.464107,12.2427
-224,533,0.543701,-12.4103,0.00411097,-0.0216253,0.00820258,0.00650295,-0.0240173,0.283745,0.0185628,0.0376746,1000,491,0.543702,12.4103
-217,533,0.638306,-12.6167,0.00295608,-0.026228,0.0115015,0.0069439,-0.0302158,0.333753,0.0228135,0.0467717,1007,491,0.638288,12.6167
-210,533,0.760376,-12.9535,0,0,0,0,0,0,0,-1,1014,491,0.760359,12.9535
-203,533,0.144165,-12.3506,-0.000313364,-0.0361894,0.0200548,0.00865526,-0.045158,0.420528,0.0333668,0.0466341,1021,491,0.14414,12.3507
-196,533,-0.0170898,-12.3074,-0.00150339,-0.0404192,0.0249728,0.010697,-0.0526196,0.454445,0.0391358,0.0489665,1028,491,-0.0170654,12.3074
-189,533,-0.440674,-11.8451,0,0,0,0,0,0,0,-1,1035,491,-0.44068,11.8451
-182,533,1.26123,-11.4969,0,0,0,0,0,0,0,-1,1042,491,1.26128,11.4969
-175,533,0.937744,-7.36966,0,0,0,0,0,0,0,-1,1049,491,0.937769,7.36965
-168,533,2.64807,-2.7543,0,0,0,0,0,0,0,-1,1056,491,2.64812,2.7543
-161,533,1.91833,-1.76553,0,0,0,0,0,0,0,-1,1063,491,1.91836,1.76554
-154,533,-1.24805,-5.92294,0,0,0,0,0,0,0,-1,1070,491,-1.24806,5.92295
-147,533,0.383789,-12.1586,0,0,0,0,0,0,0,-1,1077,491,0.383829,12.1586
-140,533,-0.360107,-14.8449,0,0,0,0,0,0,0,-1,1084,491,-0.36005,14.8449
-133,533,0.189941,-16.0795,0,0,0,0,0,0,0,-1,1091,491,0.18994,16.0795
-126,533,2.89612,-2.59003,0,0,0,0,0,0,0,-1,1098,491,2.89608,2.59003
-119,533,3.00842,-12.8239,0,0,0,0,0,0,0,-1,1105,491,3.00841,12.8239
-112,533,7.05884,-10.21,0,0,0,0,0,0,0,-1,1112,491,7.0588,10.21
-105,533,3.84839,1.12769,0,0,0,0,0,0,0,-1,1119,491,3.84843,-1.12769
-98,533,-1.39392,-5.16367,0,0,0,0,0,0,0,-1,1126,491,-1.39394,5.16367
-91,533,0.367432,4.49753,0,0,0,0,0,0,0,-1,1133,491,0.367468,-4.49754
-84,533,-0.88623,3.03604,0,0,0,0,0,0,0,-1,1140,491,-0.886288,-3.03605
-77,533,0,0,0,0,0,0,0,0,0,-1,1147,491,0,0
-70,533,0,0,0,0,0,0,0,0,0,-1,1154,491,0,0
-63,533,0,0,0,0,0,0,0,0,0,-1,1161,491,0,0
-56,533,0,0,0,0,0,0,0,0,0,-1,1168,491,0,0
-49,533,0,0,0,0,0,0,0,0,0,-1,1175,491,0,0
-42,533,0,0,0,0,0,0,0,0,0,-1,1182,491,0,0
-35,533,0,0,0,0,0,0,0,0,0,-1,1189,491,0,0
-28,533,0,0,0,0,0,0,0,0,0,-1,1196,491,0,0
-21,533,0,0,0,0,0,0,0,0,0,-1,1203,491,0,0
-14,533,0,0,0,0,0,0,0,0,0,-1,1210,491,0,0
-7,533,0,0,0,0,0,0,0,0,0,-1,1217,491,0,0
0,533,0,0,0,0,0,0,0,0,0,-1,1224,491,0,0
7,533,0,0,0,0,0,0,0,0,0,-1,1231,491,0,0
14,533,0,0,0,0,0,0,0,0,0,-1,1238,491,0,0
21,533,0,0,0,0,0,0,0,0,0,-1,1245,491,0,0
28,533,0,0,0,0,0,0,0,0,0,-1,1252,491,0,0
35,533,0,0,0,0,0,0,0,0,0,-1,1259,491,0,0
42,533,0,0,0,0,0,0,0,0,0,-1,1266,491,0,0
49,533,0,0,0,0,0,0,0,0,0,-1,1273,491,0,0
56,533,0,0,0,0,0,0,0,0,0,-1,1280,491,0,0
63,533,0,0,0,0,0,0,0,0,0,-1,1287,491,0,0
70,533,0,0,0,0,0,0,0,0,0,-1,1294,491,0,0
77,533,0,0,0,0,0,0,0,0,0,-1,1301,491,0,0
84,533,0,0,0,0,0,0,0,0,0,-1,1308,491,0,0
91,533,0,0,0,0,0,0,0,0,0,-1,1315,491,0,0
98,533,0,0,0,0,0,0,0,0,0,-1,1322,491,0,0
105,533,0,0,0,0,0,0,0,0,0,-1,1329,491,0,0
112,533,0,0,0,0,0,0,0,0,0,-1,1336,491,0,0
119,533,0,0,0,0,0,0,0,0,0,-1,1343,491,0,0
126,533,0,0,0,0,0,0,0,0,0,-1,1350,491,0,0
133,533,0,0,0,0,0,0,0,0,0,-1,1357,491,0,0
140,533,0,0,0,0,0,0,0,0,0,-1,1364,491,0,0
147,533,0,0,0,0,0,0,0,0,0,-1,1371,491,0,0
154,533,0,0,0,0,0,0,0,0,0,-1,1378,491,0,0
161,533,0,0,0,0,0,0,0,0,0,-1,1385,491,0,0
168,533,0,0,0,0,0,0,0,0,0,-1,1392,491,0,0
175,533,0,0,0,0,0,0,0,0,0,-1,1399,491,0,0
182,533,0,0,0,0,0,0,0,0,0,-1,1406,491,0,0
189,533,0,0,0,0,0,0,0,0,0,-1,1413,491,0,0
196,533,0,0,0,0,0,0,0,0,0,-1,1420,491,0,0
203,533,3.7887,1.16193,0,0,0,0,0,0,0,-1,1427,491,3.78872,-1.16193
210,533,5.09558,-0.216034,0,0,0,0,0,0,0,-1,1434,491,5.09559,0.216028
217,533,6.91614,-2.46814,0,0,0,0,0,0,0,-1,1441,491,6.91618,2.46814
224,533,7.23621,-2.1857,0,0,0,0,0,0,0,-1,1448,491,7.23621,2.1857
231,533,7.23474,-1.92282,0,0,0,0,0,0,0,-1,1455,491,7.2347,1.92282
238,533,7.23535,-1.67258,0,0,0,0,0,0,0,-1,1462,491,7.23539,1.67258
245,533,6.86682,-1.2301,0,0,0,0,0,0,0,-1,1469,491,6.86686,1.23011
252,533,6.63354,-3.07825,0,0,0,0,0,0,0,-1,1476,491,6.6335,3.07824
259,533,6.16431,-2.35037,0,0,0,0,0,0,0,-1,1483,491,6.1643,2.35037
266,533,5.68884,-1.6214,0,0,0,0,0,0,0,-1,1490,491,5.68885,1.6214
273,533,5.21399,-0.864227,0,0,0,0,0,0,0,-1,1497,491,5.21403,0.864227
280,533,1.41089,-1.97946,0,0,0,0,0,0,0,-1,1504,491,1.41087,1.97946
287,533,1.6814,-2.44443,0,0,0,0,0,0,0,-1,1511,491,1.6814,2.44444
294,533,2.2384,-2.57626,0,0,0,0,0,0,0,-1,1518,491,2.23839,2.57625
301,533,3.39941,-4.0817,0,0,0,0,0,0,0,-1,1525,491,3.3994,4.08171
308,533,4.13733,-4.14752,0,0,0,0,0,0,0,-1,1532,491,4.13727,4.14752
315,533,4.80762,-5.29349,0,0,0,0,0,0,0,-1,1539,491,4.80762,5.29347
322,533,5.47803,-6.43942,0,0,0,0,0,0,0,-1,1546,491,5.47798,6.43943
329,533,3.88477,-3.86301,0,0,0,0,0,0,0,-1,1553,491,3.88475,3.86299
336,533,5.71606,-12.0521,0,0,0,0,0,0,0,-1,1560,491,5.71608,12.0521
343,533,5.87952,-6.38858,0,0,0,0,0,0,0,-1,1567,491,5.87953,6.38857
350,533,5.62915,-8.02426,0,0,0,0,0,0,0,-1,1574,491,5.6291,8.02426
357,533,5.71558,-11.1979,0,0,0,0,0,0,0,-1,1581,491,5.71556,11.1979
364,533,5.57581,-11.12,-0.00486393,-0.00267801,-0.00625225,0.00257609,-0.010118,-0.871929,0.00774814,0.0475239,1588,491,5.57576,11.12
371,533,5.38281,-10.9591,-0.00423066,-0.00201212,-0.00546347,0.00245355,-0.00869633,-0.885553,0.00676537,0.0382018,1595,491,5.38285,10.9591
378,533,5.43677,-10.7272,-0.00365965,-0.0016205,-0.00479977,0.00226679,-0.00754694,-0.890054,0.00593303,0.0280138,1602,491,5.43671,10.7272
385,533,5.51184,-10.4746,-0.00326323,-0.00120671,-0.00422103,0.00210951,-0.00657944,-0.904873,0.00523316,0.024032,1609,491,5.51186,10.4746
392,533,5.48572,-10.2429,-0.00286329,-0.000765151,-0.00358535,0.00192146,-0.0055499,-0.927725,0.00447995,0.0137418,1616,491,5.48575,10.2429
399,533,5.52368,-10.0292,-0.00247422,-0.00060504,-0.00313752,0.00173413,-0.00481339,-0.930151,0.00391708,0.0123146,1623,491,5.52368,10.0292
406,533,5.51672,-9.78503,-0.00208078,-0.0004114,-0.0026695,0.00155087,-0.00404305,-0.936921,0.00333478,0.0156876,1630,491,5.51678,9.78502
413,533,5.51331,-9.51495,-0.00162152,-7.68285e-05,-0.00210291,0.00139109,-0.00308943,-0.961388,0.00264805,0.0139343,1637,491,5.51326,9.51497
420,533,5.50916,-9.25461,-0.00119885,0.000100174,-0.00158169,0.00116052,-0.00225919,-0.980222,0.00200805,0.0129661,1644,491,5.50915,9.25462
427,533,5.52295,-8.96844,-0.000958012,0.000214697,-0.00116671,0.000934109,-0.00167742,-1.01825,0.00152799,0.013053,1651,491,5.52292,8.96843
434,533,5.52185,-8.70547,-0.000750273,0.000265473,-0.000746556,0.000660528,-0.00114533,-1.08408,0.00105506,0.0124233,1658,491,5.5219,8.70546
441,533,5.53186,-8.44171,-0.000511917,0.000205797,-0.000367511,0.000360596,-0.000666716,-1.17214,0.000601832,0.0145071,1665,491,5.53188,8.44171
448,533,5.5304,-8.21048,-0.000293635,6.07314e-05,-1.97638e-05,6.18302e-05,-0.000294734,-1.51525,0.000220015,0.0157675,1672,491,5.5304,8.21049
455,533,5.51013,-7.9512,-0.000119553,-0.000132524,0.000295617,0.00016965,-0.000421726,0.77443,0.000351618,0.0157435,1679,491,5.51015,7.95119
462,533,5.48303,-7.63535,0.00014116,-0.00101401,0.000260737,0.000197286,-0.00107013,0.21202,0.000787464,0.0138904,1686,491,5.48306,7.63535
469,533,5.48486,-7.38315,0.000336075,-0.00234769,-4.41427e-05,0.000336801,-0.00234841,-0.0164421,0.00168911,0.00910748,1693,491,5.48488,7.38314
476,533,5.48596,-7.10632,0.000338981,-0.00380392,-0.000451934,0.000387708,-0.00385265,-0.107403,0.00270694,0.0114574,1700,491,5.486,7.10632
483,533,5.5166,-6.81082,0.000207154,-0.00556575,-0.00118286,0.000440119,-0.00579872,-0.194462,0.00402055,0.020698,1707,491,5.51659,6.81081
490,533,5.54309,-6.71542,8.32525e-05,-0.00817238,-0.00214262,0.000606207,-0.00869533,-0.239393,0.00600916,0.0461447,1714,491,5.5431,6.71543
497,533,5.71448,-6.3512,0,0,0,0,0,0,0,-1,1721,491,5.71454,6.3512
504,533,5.37439,-6.46982,0,0,0,0,0,0,0,-1,1728,491,5.3744,6.46982
511,533,5.43433,-6.23572,-0.000426328,-0.0194096,-0.00700931,0.00188126,-0.0217172,-0.318041,0.0151442,0.0460191,1735,491,5.43427,6.23572
518,533,5.59875,-6.03485,-0.000612981,-0.0239931,-0.00914789,0.00254086,-0.0271469,-0.332001,0.0190016,0.0460641,1742,491,5.59872,6.03485
525,533,5.81238,-5.86349,0,0,0,0,0,0,0,-1,1749,491,5.81235,5.8635
532,533,3.24243,0.0737,0,0,0,0,0,0,0,-1,1756,491,3.24239,-0.0737072
539,533,3.61609,1.62427,0,0,0,0,0,0,0,-1,1763,491,3.61606,-1.62426
546,533,3.59607,1.65799,0,0,0,0,0,0,0,-1,1770,491,3.59605,-1.658
553,533,0,0,0,0,0,0,0,0,0,-1,1777,491,0,0
560,533,0,0,0,0,0,0,0,0,0,-1,1784,491,0,0
567,533,0,0,0,0,0,0,0,0,0,-1,1791,491,0,0
574,533,0,0,0,0,0,0,0,0,0,-1,1798,491,0,0
581,533,0,0,0,0,0,0,0,0,0,-1,1805,491,0,0
588,533,0,0,0,0,0,0,0,0,0,-1,1812,491,0,0
595,533,0,0,0,0,0,0,0,0,0,-1,1819,491,0,0
602,533,0,0,0,0,0,0,0,0,0,-1,1826,491,0,0
609,533,0,0,0,0,0,0,0,0,0,-1,1833,491,0,0
616,533,0,0,0,0,0,0,0,0,0,-1,1840,491,0,0
623,533,0,0,0,0,0,0,0,0,0,-1,1847,491,0,0
630,533,0,0,0,0,0,0,0,0,0,-1,1854,491,0,0
637,533,0,0,0,0,0,0,0,0,0,-1,1861,491,0,0
644,533,0,0,0,0,0,0,0,0,0,-1,1868,491,0,0
651,533,0,0,0,0,0,0,0,0,0,-1,1875,491,0,0
658,533,0,0,0,0,0,0,0,0,0,-1,1882,491,0,0
665,533,0,0,0,0,0,0,0,0,0,-1,1889,491,0,0
672,533,0,0,0,0,0,0,0,0,0,-1,1896,491,0,0
679,533,0,0,0,0,0,0,0,0,0,-1,1903,491,0,0
686,533,0,0,0,0,0,0,0,0,0,-1,1910,491,0,0
693,533,0,0,0,0,0,0,0,0,0,-1,1917,491,0,0
700,533,0,0,0,0,0,0,0,0,0,-1,1924,491,0,0
707,533,0,0,0,0,0,0,0,0,0,-1,1931,491,0,0
714,533,0,0,0,0,0,0,0,0,0,-1,1938,491,0,0
721,533,0,0,0,0,0,0,0,0,0,-1,1945,491,0,0
728,533,0,0,0,0,0,0,0,0,0,-1,1952,491,0,0
735,533,0,0,0,0,0,0,0,0,0,-1,1959,491,0,0
742,533,0,0,0,0,0,0,0,0,0,-1,1966,491,0,0
749,533,0,0,0,0,0,0,0,0,0,-1,1973,491,0,0
756,533,0,0,0,0,0,0,0,0,0,-1,1980,491,0,0
763,533,0,0,0,0,0,0,0,0,0,-1,1987,491,0,0
770,533,0,0,0,0,0,0,0,0,0,-1,1994,491,0,0
777,533,0,0,0,0,0,0,0,0,0,-1,2001,491,0,0
784,533,0,0,0,0,0,0,0,0,0,-1,2008,491,0,0
791,533,0,0,0,0,0,0,0,0,0,-1,2015,491,0,0
798,533,0,0,0,0,0,0,0,0,0,-1,2022,491,0,0
805,533,0,0,0,0,0,0,0,0,0,-1,2029,491,0,0
812,533,0,0,0,0,0,0,0,0,0,-1,2036,491,0,0
-700,526,0,0,0,0,0,0,0,0,0,-1,524,498,0,0
-693,526,0,0,0,0,0,0,0,0,0,-1,531,498,0,0
-686,526,0,0,0,0,0,0,0,0,0,-1,538,498,0,0
-679,526,0,0,0,0,0,0,0,0,0,-1,545,498,0,0
-672,526,0,0,0,0,0,0,0,0,0,-1,552,498,0,0
-665,526,0,0,0,0,0,0,0,0,0,-1,559,498,0,0
-658,526,0,0,0,0,0,0,0,0,0,-1,566,498,0,0
-651,526,0,0,0,0,0,0,0,0,0,-1,573,498,0,0
-644,526,0,0,0,0,0,0,0,0,0,-1,580,498,0,0
-637,526,0,0,0,0,0,0,0,0,0,-1,587,498,0,0
-630,526,0,0,0,0,0,0,0,0,0,-1,594,498,0,0
-623,526,0,0,0,0,0,0,0,0,0,-1,601,498,0,0
-616,526,0,0,0,0,0,0,0,0,0,-1,608,498,0,0
-609,526,0,0,0,0,0,0,0,0,0,-1,615,498,0,0
-602,526,0,0,0,0,0,0,0,0,0,-1,622,498,0,0
-595,526,0,0,0,0,0,0,0,0,0,-1,629,498,0,0
-588,526,0,0,0,0,0,0,0,0,0,-1,636,498,0,0
-581,526,0,0,0,0,0,0,0,0,0,-1,643,498,0,0
-574,526,0,0,0,0,0,0,0,0,0,-1,650,498,0,0
-567,526,0,0,0,0,0,0,0,0,0,-1,657,498,0,0
-560,526,0,0,0,0,0,0,0,0,0,-1,664,498,0,0
-553,526,0,0,0,0,0,0,0,0,0,-1,671,498,0,0
-546,526,0,0,0,0,0,0,0,0,0,-1,678,498,0,0
-539,526,0,0,0,0,0,0,0,0,0,-1,685,498,0,0
-532,526,0,0,0,0,0,0,0,0,0,-1,692,498,0,0
-525,526,0,0,0,0,0,0,0,0,0,-1,699,498,0,0
-518,526,0,0,0,0,0,0,0,0,0,-1,706,498,0,0
-511,526,0,0,0,0,0,0,0,0,0,-1,713,498,0,0
-504,526,0,0,0,0,0,0,0,0,0,-1,720,498,0,0
-497,526,0,0,0,0,0,0,0,0,0,-1,727,498,0,0
-490,526,0,0,0,0,0,0,0,0,0,-1,734,498,0,0
-483,526,0,0,0,0,0,0,0,0,0,-1,741,498,0,0
-476,526,0,0,0,0,0,0,0,0,0,-1,748,498,0,0
-469,526,0,0,0,0,0,0,0,0,0,-1,755,498,0,0
-462,526,0,0,0,0,0,0,0,0,0,-1,762,498,0,0
-455,526,0,0,0,0,0,0,0,0,0,-1,769,498,0,0
-448,526,0,0,0,0,0,0,0,0,0,-1,776,498,0,0
-441,526,0,0,0,0,0,0,0,0,0,-1,783,498,0,0
-434,526,-1.56085,-4.98352,0,0,0,0,0,0,0,-1,790,498,-1.56087,4.98351
-427,526,-1.31689,-5.00308,0,0,0,0,0,0,0,-1,797,498,-1.31692,5.00307
-420,526,-1.13147,-5.33841,0,0,0,0,0,0,0,-1,804,498,-1.13147,5.33839
-413,526,1.00775,-7.75235,0,0,0,0,0,0,0,-1,811,498,1.00775,7.75234
-406,526,0.702454,-7.49567,0,0,0,0,0,0,0,-1,818,498,0.702482,7.49567
-399,526,0.397217,-7.23898,0,0,0,0,0,0,0,-1,825,498,0.39721,7.239
-392,526,-0.111877,-5.55533,0,0,0,0,0,0,0,-1,832,498,-0.111896,5.55532
-385,526,-0.670227,-7.21524,0,0,0,0,0,0,0,-1,839,498,-0.670219,7.21523
-378,526,0.135864,-7.44983,0,0,0,0,0,0,0,-1,846,498,0.135879,7.44983
-371,526,0.132568,-7.72403,0.00268866,-0.0023559,-0.00356099,0.00453016,-0.0041974,-0.477258,0.00504008,0.0429297,853,498,0.132544,7.72402
-364,526,0.149841,-8.02646,0.00203128,-0.00208985,-0.00261728,0.00330179,-0.00336036,-0.451926,0.00384645,0.0226255,860,498,0.149837,8.02647
-357,526,0.0701904,-8.21127,0.00150599,-0.00179952,-0.00183306,0.00232138,-0.00261491,-0.418539,0.00285165,0.0146881,867,498,0.0701894,8.21126
-350,526,0.09198,-8.45493,0.00113935,-0.00148613,-0.00133075,0.00169589,-0.00204267,-0.396105,0.00216155,0.0113962,874,498,0.0919503,8.45491
-343,526,0.0728149,-8.75076,0.00104072,-0.00117496,-0.00106857,0.00147209,-0.00160633,-0.383677,0.00177789,0.0154956,881,498,0.0727934,8.75076
-336,526,0.0640259,-9.01889,0.00105408,-0.000816976,-0.000872159,0.00139757,-0.00116046,-0.375178,0.00147899,0.0151819,888,498,0.0640524,9.01889
-329,526,0.0650635,-9.25064,0.00104109,-0.000492718,-0.000621724,0.00126145,-0.000713074,-0.340613,0.00115455,0.0142239,895,498,0.0650419,9.25063
-322,526,0.0700684,-9.50937,0.00100793,-0.000210858,-0.00051768,0.00119814,-0.000401059,-0.352101,0.000960764,0.0097135,902,498,0.0700678,9.50936
-315,526,0.0739136,-9.7728,0.0010945,7.12748e-05,-0.000474704,0.00128081,-0.000115032,-0.373997,0.000894686,0.00871687,909,498,0.0739154,9.77279
-308,526,0.0631714,-10.0124,0.00136509,0.000227129,-0.000426979,0.00150748,8.47375e-05,-0.321888,0.000977966,0.00825908,916,498,0.063174,10.0124
-301,526,0.0314941,-10.2312,0.00164536,0.000241051,-0.000359714,0.00173214,0.000154273,-0.23672,0.00110692,0.00892635,923,498,0.0314638,10.2312
-294,526,0.0363159,-10.4604,0.00209265,3.50371e-05,-0.000159396,0.00210493,2.27625e-05,-0.0768554,0.00139576,0.00852757,930,498,0.0362915,10.4604
-287,526,0.050293,-10.6957,0.00287149,-0.000666432,-6.7915e-05,0.00287279,-0.000667736,-0.0191869,0.00217226,0.00897982,937,498,0.0502953,10.6958
-280,526,0.0457153,-10.9287,0.00368242,-0.0014849,2.1182e-05,0.00368251,-0.00148499,0.00409913,0.00307206,0.0117122,944,498,0.0456943,10.9287
-273,526,0.0541992,-11.1669,0.00468129,-0.00269819,1.25833e-05,0.00468131,-0.00269821,0.00170518,0.00431154,0.0103467,951,498,0.0541705,11.1669
-266,526,0.0621948,-11.3912,0.00578049,-0.00434664,-7.00495e-05,0.00578097,-0.00434713,-0.00691657,0.00586696,0.00989428,958,498,0.0622068,11.3912
-259,526,0.0883789,-11.5828,0.00691828,-0.00601697,8.72654e-05,0.00691887,-0.00601756,0.00674591,0.00747489,0.0160617,965,498,0.088388,11.5828
-252,526,0.156372,-11.7207,0.00711903,-0.00887442,0.000909635,0.00717059,-0.00892599,0.056632,0.00931177,0.0306445,972,498,0.156379,11.7207
-245,526,0.152222,-11.8449,0.00689434,-0.0123745,0.00211841,0.00712449,-0.0126046,0.108217,0.0115362,0.0406153,979,498,0.152222,11.8449
-238,526,0.509033,-11.7794,0.00701786,-0.0172646,0.00463072,0.00787097,-0.0181177,0.182187,0.0153884,0.0423849,986,498,0.509016,11.7794
-231,526,0.466309,-12.0119,0,0,0,0,0,0,0,-1,993,498,0.466278,12.0119
-224,526,0.471558,-12.1144,0,0,0,0,0,0,0,-1,1000,498,0.471558,12.1144
-217,526,0.674255,-12.3746,0,0,0,0,0,0,0,-1,1007,498,0.67424,12.3746
-210,526,0.171021,-8.39801,0,0,0,0,0,0,0,-1,1014,498,0.170997,8.398
-203,526,-0.143555,-12.1031,0,0,0,0,0,0,0,-1,1021,498,-0.143553,12.1031
-196,526,-0.328247,-12.179,0,0,0,0,0,0,0,-1,1028,498,-0.328238,12.179
-189,526,0.401245,-5.96826,0,0,0,0,0,0,0,-1,1035,498,0.401197,5.96826
-182,526,1.7323,-2.99405,0,0,0,0,0,0,0,-1,1042,498,1.73226,2.99404
-175,526,2.27637,-2.07983,0,0,0,0,0,0,0,-1,1049,498,2.27639,2.07984
-168,526,2.12036,-1.66049,0,0,0,0,0,0,0,-1,1056,498,2.12035,1.66048
-161,526,2.09082,-1.20572,0,0,0,0,0,0,0,-1,1063,498,2.09086,1.2057
-154,526,-1.3446,-5.37799,0,0,0,0,0,0,0,-1,1070,498,-1.34457,5.37799
-147,526,-0.472656,-6.64996,0,0,0,0,0,0,0,-1,1077,498,-0.472659,6.64997
-140,526,0.422852,-8.03339,0,0,0,0,0,0,0,-1,1084,498,0.422844,8.0334
-133,526,1.09583,-9.2215,0,0,0,0,0,0,0,-1,1091,498,1.09581,9.2215
-126,526,3.42529,-2.36053,0,0,0,0,0,0,0,-1,1098,498,3.42523,2.36052
-119,526,2.7771,-0.764099,0,0,0,0,0,0,0,-1,1105,498,2.7771,0.764107
-112,526,2.57715,-1.1893,0,0,0,0,0,0,0,-1,1112,498,2.57718,1.1893
-105,526,0,0,0,0,0,0,0,0,0,-1,1119,498,0,0
-98,526,0,0,0,0,0,0,0,0,0,-1,1126,498,0,0
-91,526,0,0,0,0,0,0,0,0,0,-1,1133,498,0,0
-84,526,0,0,0,0,0,0,0,0,0,-1,1140,498,0,0
-77,526,0,0,0,0,0,0,0,0,0,-1,1147,498,0,0
-70,526,0,0,0,0,0,0,0,0,0,-1,1154,498,0,0
-63,526,0,0,0,0,0,0,0,0,0,-1,1161,498,0,0
-56,526,0,0,0,0,0,0,0,0,0,-1,1168,498,0,0
-49,526,0,0,0,0,0,0,0,0,0,-1,1175,498,0,0
-42,526,0,0,0,0,0,0,0,0,0,-1,1182,498,0,0
-35,526,0,0,0,0,0,0,0,0,0,-1,1189,498,0,0
-28,526,0,0,0,0,0,0,0,0,0,-1,1196,498,0,0
-21,526,0,0,0,0,0,0,0,0,0,-1,1203,498,0,0
-14,526,0,0,0,0,0,0,0,0,0,-1,1210,498,0,0
-7,526,0,0,0,0,0,0,0,0,0,-1,1217,498,0,0
0,526,0,0,0,0,0,0,0,0,0,-1,1224,498,0,0
7,526,0,0,0,0,0,0,0,0,0,-1,1231,498,0,0
14,526,0,0,0,0,0,0,0,0,0,-1,1238,498,0,0
21,526,0,0,0,0,0,0,0,0,0,-1,1245,498,0,0
28,526,0,0,0,0,0,0,0,0,0,-1,1252,498,0,0
35,526,0,0,0,0,0,0,0,0,0,-1,1259,498,0,0
42,526,0,0,0,0,0,0,0,0,0,-1,1266,498,0,0
49,526,0,0,0,0,0,0,0,0,0,-1,1273,498,0,0
56,526,0,0,0,0,0,0,0,0,0,-1,1280,498,0,0
63,526,0,0,0,0,0,0,0,0,0,-1,1287,498,0,0
70,526,0,0,0,0,0,0,0,0,0,-1,1294,498,0,0
77,526,0,0,0,0,0,0,0,0,0,-1,1301,498,0,0
84,526,0,0,0,0,0,0,0,0,0,-1,1308,498,0,0
91,526,0,0,0,0,0,0,0,0,0,-1,1315,498,0,0
98,526,0,0,0,0,0,0,0,0,0,-1,1322,498,0,0
105,526,0,0,0,0,0,0,0,0,0,-1,1329,498,0,0
112,526,0,0,0,0,0,0,0,0,0,-1,1336,498,0,0
119,526,0,0,0,0,0,0,0,0,0,-1,1343,498,0,0
126,526,0,0,0,0,0,0,0,0,0,-1,1350,498,0,0
133,526,0,0,0,0,0,0,0,0,0,-1,1357,498,0,0
140,526,0,0,0,0,0,0,0,0,0,-1,1364,498,0,0
147,526,0,0,0,0,0,0,0,0,0,-1,1371,498,0,0
154,526,0,0,0,0,0,0,0,0,0,-1,1378,498,0,0
161,526,0,0,0,0,0,0,0,0,0,-1,1385,498,0,0
168,526,0,0,0,0,0,0,0,0,0,-1,1392,498,0,0
175,526,0,0,0,0,0,0,0,0,0,-1,1399,498,0,0
182,526,0,0,0,0,0,0,0,0,0,-1,1406,498,0,0
189,526,0,0,0,0,0,0,0,0,0,-1,1413,498,0,0
196,526,0,0,0,0,0,0,0,0,0,-1,1420,498,0,0
203,526,0,0,0,0,0,0,0,0,0,-1,1427,498,0,0
210,526,0,0,0,0,0,0,0,0,0,-1,1434,498,0,0
217,526,0,0,0,0,0,0,0,0,0,-1,1441,498,0,0
224,526,0,0,0,0,0,0,0,0,0,-1,1448,498,0,0
231,526,7.93237,-1.30618,0,0,0,0,0,0,0,-1,1455,498,7.93238,1.30618
238,526,7.97717,-1.08197,0,0,0,0,0,0,0,-1,1462,498,7.97723,1.08196
245,526,7.2793,-0.792938,0,0,0,0,0,0,0,-1,1469,498,7.27931,0.792926
252,526,6.73523,-2.23608,0,0,0,0,0,0,0,-1,1476,498,6.73525,2.23608
259,526,6.22949,-1.84967,0,0,0,0,0,0,0,-1,1483,498,6.22953,1.84968
266,526,5.72375,-1.46329,0,0,0,0,0,0,0,-1,1490,498,5.72381,1.46328
273,526,4.33984,0.49173,0,0,0,0,0,0,0,-1,1497,498,4.33979,-0.491727
280,526,1.4585,-1.59897,0,0,0,0,0,0,0,-1,1504,498,1.45846,1.59895
287,526,1.46411,-2.40134,0,0,0,0,0,0,0,-1,1511,498,1.46406,2.40133
294,526,5.57471,-4.59085,0,0,0,0,0,0,0,-1,1518,498,5.57466,4.59084
301,526,4.42786,-3.99677,0,0,0,0,0,0,0,-1,1525,498,4.42788,3.99676
308,526,5.79529,-4.19366,0,0,0,0,0,0,0,-1,1532,498,5.79528,4.19368
315,526,5.09851,-5.20068,0,0,0,0,0,0,0,-1,1539,498,5.09851,5.20068
322,526,5.50708,-4.72348,0,0,0,0,0,0,0,-1,1546,498,5.50713,4.72347
329,526,3.88672,-4.345,0,0,0,0,0,0,0,-1,1553,498,3.88674,4.34501
336,526,4.97876,-2.23828,0,0,0,0,0,0,0,-1,1560,498,4.97877,2.23828
343,526,3.31665,-2.69696,0,0,0,0,0,0,0,-1,1567,498,3.31667,2.69696
350,526,6.06287,-6.12015,0,0,0,0,0,0,0,-1,1574,498,6.06286,6.12014
357,526,5.79736,-7.7854,0,0,0,0,0,0,0,-1,1581,498,5.79734,7.78539
364,526,5.82629,-11.3895,0,0,0,0,0,0,0,-1,1588,498,5.82625,11.3895
371,526,5.58386,-11.3633,0,0,0,0,0,0,0,-1,1595,498,5.58383,11.3633
378,526,5.58044,-11.073,0,0,0,0,0,0,0,-1,1602,498,5.58045,11.073
385,526,5.69263,-10.6121,0,0,0,0,0,0,0,-1,1609,498,5.69268,10.6121
392,526,5.83276,-10.2799,-0.0043875,-0.000992223,-0.00515615,0.00273857,-0.00811829,-0.944431,0.00651968,0.0336139,1616,498,5.83277,10.2799
399,526,5.75305,-10.0175,-0.00380383,-0.000880993,-0.00458112,0.00246616,-0.00715098,-0.9398,0.00576788,0.0179574,1623,498,5.75311,10.0175
406,526,5.77148,-9.74677,-0.00323373,-0.000748247,-0.0040397,0.00223554,-0.00621752,-0.93462,0.00505765,0.0121475,1630,498,5.77146,9.74675
413,526,5.76733,-9.50296,-0.00258878,-0.000394649,-0.00335169,0.00203495,-0.00501839,-0.943561,0.00419192,0.0123217,1637,498,5.76731,9.50296
420,526,5.76746,-9.25491,-0.00199717,-0.00022298,-0.0026947,0.00172689,-0.00394704,-0.944411,0.0033584,0.0132424,1644,498,5.76745,9.25493
427,526,5.77869,-8.98538,-0.0016262,-0.000105954,-0.00214502,0.00140964,-0.00314179,-0.955678,0.00269045,0.0134619,1651,498,5.77867,8.98538
434,526,5.77246,-8.69431,-0.00131651,-2.89865e-05,-0.00160717,0.00105856,-0.00240406,-0.97589,0.00204884,0.0118528,1658,498,5.77242,8.69429
441,526,5.77246,-8.44135,-0.0009645,-3.90929e-05,-0.00110293,0.000694262,-0.00169785,-0.984008,0.00142103,0.0108021,1665,498,5.77241,8.44134
448,526,5.77014,-8.19614,-0.000618206,-0.000148587,-0.000638451,0.000296865,-0.00106366,-0.961611,0.000826037,0.0101894,1672,498,5.77016,8.19613
455,526,5.77063,-7.93799,-0.000312496,-0.000277459,-0.000204816,-8.94135e-05,-0.000500541,-0.828061,0.000308243,0.0133115,1679,498,5.77064,7.93798
462,526,5.76392,-7.65472,6.71073e-05,-0.000967182,-4.2529e-05,6.88531e-05,-0.000968928,-0.0410267,0.000670083,0.0098661,1686,498,5.76396,7.65473
469,526,5.75989,-7.37469,0.000324739,-0.00211012,-0.000200559,0.000341149,-0.00212653,-0.0816366,0.00154402,0.00697265,1693,498,5.75988,7.37469
476,526,5.76147,-7.09451,0.000378746,-0.00333881,-0.000448035,0.00043198,-0.00339204,-0.118263,0.00241825,0.00825736,1700,498,5.76152,7.09452
483,526,5.77344,-6.78568,0.000257719,-0.00471531,-0.000986918,0.000446417,-0.00490401,-0.188919,0.00342785,0.0110153,1707,498,5.77344,6.78569
490,526,5.84241,-6.47003,0.000107669,-0.00676474,-0.00169658,0.00050368,-0.00716075,-0.229312,0.00495028,0.0228142,1714,498,5.84237,6.47004
497,526,5.79688,-6.34988,-0.000186666,-0.00903304,-0.00260907,0.000525498,-0.0097452,-0.266466,0.00667886,0.0289703,1721,498,5.79689,6.3499
504,526,5.86243,-5.99112,-0.00053259,-0.0118443,-0.00384465,0.000650413,-0.0130273,-0.298507,0.00890961,0.0302228,1728,498,5.86247,5.99111
511,526,5.8623,-5.73251,-0.00104086,-0.0148983,-0.00540013,0.000814984,-0.0167542,-0.331021,0.0114508,0.0378403,1735,498,5.86233,5.73251
518,526,5.79749,-5.8291,-0.00174632,-0.017894,-0.00706416,0.000907803,-0.0205481,-0.359399,0.0140112,0.0471701,1742,498,5.79747,5.82911
525,526,5.84412,-5.78006,0,0,0,0,0,0,0,-1,1749,498,5.8441,5.78007
532,526,3.54285,-2.81274,0,0,0,0,0,0,0,-1,1756,498,3.54284,2.81273
539,526,3.29407,0.932312,0,0,0,0,0,0,0,-1,1763,498,3.2941,-0.93232
546,526,3.36731,1.07721,0,0,0,0,0,0,0,-1,1770,498,3.36735,-1.07719
553,526,3.40796,1.37137,0,0,0,0,0,0,0,-1,1777,498,3.40792,-1.37138
560,526,0,0,0,0,0,0,0,0,0,-1,1784,498,0,0
567,526,0,0,0,0,0,0,0,0,0,-1,1791,498,0,0
574,526,0,0,0,0,0,0,0,0,0,-1,1798,498,0,0
581,526,0,0,0,0,0,0,0,0,0,-1,1805,498,0,0
588,526,0,0,0,0,0,0,0,0,0,-1,1812,498,0,0
595,526,0,0,0,0,0,0,0,0,0,-1,1819,498,0,0
602,526,0,0,0,0,0,0,0,0,0,-1,1826,498,0,0
609,526,0,0,0,0,0,0,0,0,0,-1,1833,498,0,0
616,526,0,0,0,0,0,0,0,0,0,-1,1840,498,0,0
623,526,0,0,0,0,0,0,0,0,0,-1,1847,498,0,0
630,526,0,0,0,0,0,0,0,0,0,-1,1854,498,0,0
637,526,0,0,0,0,0,0,0,0,0,-1,1861,498,0,0
644,526,0,0,0,0,0,0,0,0,0,-1,1868,498,0,0
651,526,0,0,0,0,0,0,0,0,0,-1,1875,498,0,0
658,526,0,0,0,0,0,0,0,0,0,-1,1882,498,0,0
665,526,0,0,0,0,0,0,0,0,0,-1,1889,498,0,0
672,526,0,0,0,0,0,0,0,0,0,-1,1896,498,0,0
679,526,0,0,0,0,0,0,0,0,0,-1,1903,498,0,0
686,526,0,0,0,0,0,0,0,0,0,-1,1910,498,0,0
693,526,0,0,0,0,0,0,0,0,0,-1,1917,498,0,0
700,526,0,0,0,0,0,0,0,0,0,-1,1924,498,0,0
707,526,0,0,0,0,0,0,0,0,0,-1,1931,498,0,0
714,526,0,0,0,0,0,0,0,0,0,-1,1938,498,0,0
721,526,0,0,0,0,0,0,0,0,0,-1,1945,498,0,0
728,526,0,0,0,0,0,0,0,0,0,-1,1952,498,0,0
735,526,0,0,0,0,0,0,0,0,0,-1,1959,498,0,0
742,526,0,0,0,0,0,0,0,0,0,-1,1966,498,0,0
749,526,0,0,0,0,0,0,0,0,0,-1,1973,498,0,0
756,526,0,0,0,0,0,0,0,0,0,-1,1980,498,0,0
763,526,0,0,0,0,0,0,0,0,0,-1,1987,498,0,0
770,526,0,0,0,0,0,0,0,0,0,-1,1994,498,0,0
777,526,0,0,0,0,0,0,0,0,0,-1,2001,498,0,0
784,526,0,0,0,0,0,0,0,0,0,-1,2008,498,0,0
791,526,0,0,0,0,0,0,0,0,0,-1,2015,498,0,0
798,526,0,0,0,0,0,0,0,0,0,-1,2022,498,0,0
805,526,0,0,0,0,0,0,0,0,0,-1,2029,498,0,0
812,526,0,0,0,0,0,0,0,0,0,-1,2036,498,0,0
-700,519,0,0,0,0,0,0,0,0,0,-1,524,505,0,0
-693,519,0,0,0,0,0,0,0,0,0,-1,531,505,0,0
-686,519,0,0,0,0,0,0,0,0,0,-1,538,505,0,0
-679,519,0,0,0,0,0,0,0,0,0,-1,545,505,0,0
-672,519,0,0,0,0,0,0,0,0,0,-1,552,505,0,0
-665,519,0,0,0,0,0,0,0,0,0,-1,559,505,0,0
-658,519,0,0,0,0,0,0,0,0,0,-1,566,505,0,0
-651,519,0,0,0,0,0,0,0,0,0,-1,573,505,0,0
-644,519,0,0,0,0,0,0,0,0,0,-1,580,505,0,0
-637,519,0,0,0,0,0,0,0,0,0,-1,587,505,0,0
-630,519,0,0,0,0,0,0,0,0,0,-1,594,505,0,0
-623,519,0,0,0,0,0,0,0,0,0,-1,601,505,0,0
-616,519,0,0,0,0,0,0,0,0,0,-1,608,505,0,0
-609,519,0,0,0,0,0,0,0,0,0,-1,615,505,0,0
-602,519,0,0,0,0,0,0,0,0,0,-1,622,505,0,0
-595,519,0,0,0,0,0,0,0,0,0,-1,629,505,0,0
-588,519,0,0,0,0,0,0,0,0,0,-1,636,505,0,0
-581,519,0,0,0,0,0,0,0,0,0,-1,643,505,0,0
-574,519,0,0,0,0,0,0,0,0,0,-1,650,505,0,0
-567,519,0,0,0,0,0,0,0,0,0,-1,657,505,0,0
-560,519,0,0,0,0,0,0,0,0,0,-1,664,505,0,0
-553,519,0,0,0,0,0,0,0,0,0,-1,671,505,0,0
-546,519,0,0,0,0,0,0,0,0,0,-1,678,505,0,0
-539,519,0,0,0,0,0,0,0,0,0,-1,685,505,0,0
-532,519,0,0,0,0,0,0,0,0,0,-1,692,505,0,0
-525,519,0,0,0,0,0,0,0,0,0,-1,699,505,0,0
-518,519,0,0,0,0,0,0,0,0,0,-1,706,505,0,0
-511,519,0,0,0,0,0,0,0,0,0,-1,713,505,0,0
-504,519,0,0,0,0,0,0,0,0,0,-1,720,505,0,0
-497,519,0,0,0,0,0,0,0,0,0,-1,727,505,0,0
-490,519,0,0,0,0,0,0,0,0,0,-1,734,505,0,0
-483,519,0,0,0,0,0,0,0,0,0,-1,741,505,0,0
-476,519,0,0,0,0,0,0,0,0,0,-1,748,505,0,0
-469,519,0,0,0,0,0,0,0,0,0,-1,755,505,0,0
-462,519,0,0,0,0,0,0,0,0,0,-1,762,505,0,0
-455,519,0,0,0,0,0,0,0,0,0,-1,769,505,0,0
-448,519,0,0,0,0,0,0,0,0,0,-1,776,505,0,0
-441,519,0.808167,-6.55032,0,0,0,0,0,0,0,-1,783,505,0.808177,6.55033
-434,519,0.69165,-6.67197,0,0,0,0,0,0,0,-1,790,505,0.691649,6.67195
-427,519,-1.04236,-4.40891,0,0,0,0,0,0,0,-1,797,505,-1.04238,4.40891
-420,519,1.37213,-6.97879,0,0,0,0,0,0,0,-1,804,505,1.37215,6.9788
-413,519,-0.483459,-6.4874,0,0,0,0,0,0,0,-1,811,505,-0.48343,6.48739
-406,519,-0.746094,-6.61493,0,0,0,0,0,0,0,-1,818,505,-0.746083,6.61493
-399,519,-0.655518,-6.82367,0,0,0,0,0,0,0,-1,825,505,-0.655504,6.82366
-392,519,-0.0159912,-6.86435,0,0,0,0,0,0,0,-1,832,505,-0.0160148,6.86436
-385,519,-0.527771,-7.14514,0.00457469,-0.000388114,-0.00617939,0.00875228,-0.0045657,-0.594472,0.00781476,0.0470053,839,505,-0.527755,7.14516
-378,519,-0.41864,-7.40033,0.00313737,-0.000977894,-0.00449982,0.00602769,-0.00386821,-0.570956,0.00575857,0.0360875,846,505,-0.418613,7.40032
-371,519,-0.0980835,-7.63861,0.00203394,-0.00158986,-0.00306062,0.00377878,-0.00333469,-0.518138,0.00410963,0.0196167,853,505,-0.0980679,7.63864
-364,519,-0.156677,-7.92487,0.00149322,-0.00141984,-0.00227868,0.00274111,-0.00266773,-0.501026,0.00312289,0.0122156,860,505,-0.156693,7.92484
-357,519,-0.140503,-8.21472,0.00108887,-0.00123641,-0.0016182,0.0019188,-0.00206633,-0.473889,0.00230134,0.00938318,867,505,-0.140526,8.21472
-350,519,-0.146667,-8.46069,0.000868173,-0.000986908,-0.00122705,0.00147881,-0.00159754,-0.461761,0.00177657,0.0119581,874,505,-0.146659,8.46068
-343,519,-0.180481,-8.71716,0.000884673,-0.000724733,-0.0010175,0.00137722,-0.00121728,-0.450826,0.00149888,0.0157464,881,505,-0.180477,8.71714
-336,519,-0.19928,-8.99689,0.00100893,-0.000433025,-0.000859805,0.00141004,-0.00083413,-0.436497,0.00130982,0.0152124,888,505,-0.199307,8.9969
-329,519,-0.194946,-9.24445,0.00113302,-0.000159615,-0.000682817,0.0014269,-0.000453491,-0.406426,0.00113309,0.0128628,895,505,-0.194957,9.24444
-322,519,-0.184082,-9.5014,0.00122779,8.55277e-05,-0.000620075,0.00149968,-0.000186362,-0.413232,0.00106734,0.0104254,902,505,-0.184061,9.5014
-315,519,-0.168518,-9.76544,0.00144247,0.00033703,-0.000587376,0.0016963,8.32092e-05,-0.407892,0.00110417,0.00850808,909,505,-0.168496,9.76546
-308,519,-0.17804,-10.0227,0.00183831,0.00043875,-0.000525359,0.00201357,0.000263491,-0.321989,0.00126374,0.00737266,916,505,-0.178014,10.0227
-301,519,-0.212463,-10.2543,0.00223968,0.000423762,-0.00045192,0.00234593,0.000317511,-0.230916,0.00146959,0.0111007,923,505,-0.212447,10.2543
-294,519,-0.213684,-10.451,0.00282307,0.000174609,-0.000234012,0.00284359,0.000154092,-0.0874547,0.00184651,0.0137846,930,505,-0.213713,10.451
-287,519,-0.216736,-10.6868,0.00384648,-0.000678714,-0.000162724,0.00385232,-0.000684558,-0.0358978,0.00282419,0.0101556,937,505,-0.216747,10.6868
-280,519,-0.203308,-10.9352,0.00490483,-0.00166093,-7.26755e-05,0.00490564,-0.00166174,-0.011067,0.00394284,0.014765,944,505,-0.203298,10.9352
-273,519,-0.158691,-11.1987,0.00620184,-0.00315918,-9.35925e-05,0.00620278,-0.00316012,-0.00999677,0.00549999,0.0227771,951,505,-0.158709,11.1988
-266,519,-0.173035,-11.4414,0.00761342,-0.00524852,-0.000153649,0.00761526,-0.00525035,-0.0119437,0.00746968,0.0313256,958,505,-0.173049,11.4414
-259,519,-0.0615234,-11.5226,0.00912428,-0.00731256,-1.44479e-05,0.00912429,-0.00731257,-0.000878997,0.00950902,0.0482044,965,505,-0.0615202,11.5227
-252,519,-0.0270996,-11.7406,0,0,0,0,0,0,0,-1,972,505,-0.0270898,11.7406
-245,519,-0.136108,-11.7077,0,0,0,0,0,0,0,-1,979,505,-0.13613,11.7077
-238,519,0.6297,-11.4108,0,0,0,0,0,0,0,-1,986,505,0.629727,11.4108
-231,519,0.337585,-11.2798,0,0,0,0,0,0,0,-1,993,505,0.337568,11.2798
-224,519,-0.0494995,-7.97394,0,0,0,0,0,0,0,-1,1000,505,-0.0495123,7.97392
-217,519,-2.97125,-4.84393,0,0,0,0,0,0,0,-1,1007,505,-2.97128,4.84393
-210,519,-2.14398,-4.74774,0,0,0,0,0,0,0,-1,1014,505,-2.14397,4.74775
-203,519,-0.513611,-5.39017,0,0,0,0,0,0,0,-1,1021,505,-0.513585,5.39017
-196,519,-0.374023,-5.41635,0,0,0,0,0,0,0,-1,1028,505,-0.374047,5.41635
-189,519,-0.234497,-5.44254,0,0,0,0,0,0,0,-1,1035,505,-0.234508,5.44253
-182,519,2.76697,-1.19659,0,0,0,0,0,0,0,-1,1042,505,2.76696,1.19661
-175,519,2.31323,-0.960938,0,0,0,0,0,0,0,-1,1049,505,2.31319,0.960941
-168,519,2.01074,-0.721405,0,0,0,0,0,0,0,-1,1056,505,2.01072,0.721407
-161,519,2.32056,-0.522339,0,0,0,0,0,0,0,-1,1063,505,2.32057,0.522328
-154,519,2.55566,0.116669,0,0,0,0,0,0,0,-1,1070,505,2.55563,-0.116661
-147,519,-0.55127,-6.14001,0,0,0,0,0,0,0,-1,1077,505,-0.551252,6.14001
-140,519,0.240601,-7.53503,0,0,0,0,0,0,0,-1,1084,505,0.240653,7.53501
-133,519,2.70911,-4.4516,0,0,0,0,0,0,0,-1,1091,505,2.70915,4.45161
-126,519,0,0,0,0,0,0,0,0,0,-1,1098,505,0,0
-119,519,0,0,0,0,0,0,0,0,0,-1,1105,505,0,0
-112,519,0,0,0,0,0,0,0,0,0,-1,1112,505,0,0
-105,519,0,0,0,0,0,0,0,0,0,-1,1119,505,0,0
-98,519,0,0,0,0,0,0,0,0,0,-1,1126,505,0,0
-91,519,0,0,0,0,0,0,0,0,0,-1,1133,505,0,0
-84,519,0,0,0,0,0,0,0,0,0,-1,1140,505,0,0
-77,519,0,0,0,0,0,0,0,0,0,-1,1147,505,0,0
-70,519,0,0,0,0,0,0,0,0,0,-1,1154,505,0,0
-63,519,0,0,0,0,0,0,0,0,0,-1,1161,505,0,0
-56,519,0,0,0,0,0,0,0,0,0,-1,1168,505,0,0
-49,519,0,0,0,0,0,0,0,0,0,-1,1175,505,0,0
-42,519,0,0,0,0,0,0,0,0,0,-1,1182,505,0,0
-35,519,0,0,0,0,0,0,0,0,0,-1,1189,505,0,0
-28,519,0,0,0,0,0,0,0,0,0,-1,1196,505,0,0
-21,519,0,0,0,0,0,0,0,0,0,-1,1203,505,0,0
-14,519,0,0,0,0,0,0,0,0,0,-1,1210,505,0,0
-7,519,0,0,0,0,0,0,0,0,0,-1,1217,505,0,0
0,519,0,0,0,0,0,0,0,0,0,-1,1224,505,0,0
7,519,0,0,0,0,0,0,0,0,0,-1,1231,505,0,0
14,519,0,0,0,0,0,0,0,0,0,-1,1238,505,0,0
21,519,0,0,0,0,0,0,0,0,0,-1,1245,505,0,0
28,519,0,0,0,0,0,0,0,0,0,-1,1252,505,0,0
35,519,0,0,0,0,0,0,0,0,0,-1,1259,505,0,0
42,519,0,0,0,0,0,0,0,0,0,-1,1266,505,0,0
49,519,0,0,0,0,0,0,0,0,0,-1,1273,505,0,0
56,519,0,0,0,0,0,0,0,0,0,-1,1280,505,0,0
63,519,0,0,0,0,0,0,0,0,0,-1,1287,505,0,0
70,519,0,0,0,0,0,0,0,0,0,-1,1294,505,0,0
77,519,0,0,0,0,0,0,0,0,0,-1,1301,505,0,0
84,519,0,0,0,0,0,0,0,0,0,-1,1308,505,0,0
91,519,0,0,0,0,0,0,0,0,0,-1,1315,505,0,0
98,519,0,0,0,0,0,0,0,0,0,-1,1322,505,0,0
105,519,0,0,0,0,0,0,0,0,0,-1,1329,505,0,0
112,519,0,0,0,0,0,0,0,0,0,-1,1336,505,0,0
119,519,0,0,0,0,0,0,0,0,0,-1,1343,505,0,0
126,519,0,0,0,0,0,0,0,0,0,-1,1350,505,0,0
133,519,0,0,0,0,0,0,0,0,0,-1,1357,505,0,0
140,519,0,0,0,0,0,0,0,0,0,-1,1364,505,0,0
147,519,0,0,0,0,0,0,0,0,0,-1,1371,505,0,0
154,519,0,0,0,0,0,0,0,0,0,-1,1378,505,0,0
161,519,0,0,0,0,0,0,0,0,0,-1,1385,505,0,0
168,519,0,0,0,0,0,0,0,0,0,-1,1392,505,0,0
175,519,0,0,0,0,0,0,0,0,0,-1,1399,505,0,0
182,519,0,0,0,0,0,0,0,0,0,-1,1406,505,0,0
189,519,0,0,0,0,0,0,0,0,0,-1,1413,505,0,0
196,519,0,0,0,0,0,0,0,0,0,-1,1420,505,0,0
203,519,0,0,0,0,0,0,0,0,0,-1,1427,505,0,0
210,519,0,0,0,0,0,0,0,0,0,-1,1434,505,0,0
217,519,0,0,0,0,0,0,0,0,0,-1,1441,505,0,0
224,519,0,0,0,0,0,0,0,0,0,-1,1448,505,0,0
231,519,0,0,0,0,0,0,0,0,0,-1,1455,505,0,0
238,519,0,0,0,0,0,0,0,0,0,-1,1462,505,0,0
245,519,0,0,0,0,0,0,0,0,0,-1,1469,505,0,0
252,519,5.26208,0.0938416,0,0,0,0,0,0,0,-1,1476,505,5.26207,-0.0938493
259,519,6.14246,-1.36441,0,0,0,0,0,0,0,-1,1483,505,6.14241,1.36441
266,519,5.31909,-0.400787,0,0,0,0,0,0,0,-1,1490,505,5.31912,0.400773
273,519,4.02393,0.325531,0,0,0,0,0,0,0,-1,1497,505,4.0239,-0.325522
280,519,4.68848,0.53006,0,0,0,0,0,0,0,-1,1504,505,4.68842,-0.530073
287,519,7.9519,-3.80801,0,0,0,0,0,0,0,-1,1511,505,7.95193,3.808
294,519,6.92273,-3.38889,0,0,0,0,0,0,0,-1,1518,505,6.92268,3.38888
301,519,5.35669,-2.92661,0,0,0,0,0,0,0,-1,1525,505,5.35675,2.9266
308,519,7.37549,-5.64529,0,0,0,0,0,0,0,-1,1532,505,7.3755,5.64529
315,519,6.30029,-4.53754,0,0,0,0,0,0,0,-1,1539,505,6.30024,4.53753
322,519,5.84302,-5.45117,0,0,0,0,0,0,0,-1,1546,505,5.84303,5.45116
329,519,4.92407,0.62384,0,0,0,0,0,0,0,-1,1553,505,4.92403,-0.623832
336,519,3.10095,-0.329285,0,0,0,0,0,0,0,-1,1560,505,3.1009,0.329283
343,519,2.49146,-2.31119,0,0,0,0,0,0,0,-1,1567,505,2.49145,2.31119
350,519,3.47729,-2.22516,0,0,0,0,0,0,0,-1,1574,505,3.47726,2.22515
357,519,4.51917,-4.51691,0,0,0,0,0,0,0,-1,1581,505,4.51914,4.51691
364,519,3.54626,-7.20673,0,0,0,0,0,0,0,-1,1588,505,3.54622,7.20675
371,519,5.349,-8.20068,0,0,0,0,0,0,0,-1,1595,505,5.34898,8.20068
378,519,6.36597,-10.0967,0,0,0,0,0,0,0,-1,1602,505,6.36597,10.0967
385,519,6.24756,-9.72186,0,0,0,0,0,0,0,-1,1609,505,6.24752,9.72183
392,519,6.16968,-10.0504,0,0,0,0,0,0,0,-1,1616,505,6.16962,10.0504
399,519,6.10132,-9.92047,-0.00573648,-0.00136573,-0.00668107,0.00347831,-0.0105805,-0.943463,0.00845506,0.0422867,1623,505,6.1013,9.92044
406,519,6.04004,-9.79785,-0.00485784,-0.00124855,-0.00592297,0.0031386,-0.00924499,-0.933273,0.00743377,0.0252834,1630,505,6.03999,9.79785
413,519,6.06262,-9.53149,-0.00392242,-0.000830894,-0.00497982,0.00283756,-0.00759087,-0.935886,0.00622584,0.0131748,1637,505,6.06259,9.53149
420,519,6.02588,-9.24457,-0.00308601,-0.000622004,-0.00407083,0.00239917,-0.00610718,-0.932337,0.00506429,0.0146178,1644,505,6.02588,9.24455
427,519,6.03113,-9.00232,-0.00249941,-0.000465942,-0.00327738,0.00194879,-0.00491414,-0.935805,0.00408375,0.0134166,1651,505,6.03118,9.0023
434,519,6.03748,-8.73138,-0.00202555,-0.000313142,-0.00253827,0.00150945,-0.00384814,-0.948064,0.00318992,0.012181,1658,505,6.0375,8.73141
441,519,6.02759,-8.44427,-0.00151991,-0.000235521,-0.00185554,0.00108581,-0.00284124,-0.951994,0.00234158,0.0121782,1665,505,6.02761,8.4443
448,519,6.01953,-8.18445,-0.00102343,-0.00027554,-0.00124644,0.000651846,-0.00195081,-0.93113,0.00156378,0.0090594,1672,505,6.01956,8.18445
455,519,6.0354,-7.93451,-0.000580598,-0.000316721,-0.00069159,0.000255404,-0.00115272,-0.879653,0.000866259,0.010441,1679,505,6.03538,7.9345
462,519,6.03198,-7.65741,-8.80646e-05,-0.000786459,-0.000340277,5.03109e-05,-0.000924834,-0.386231,0.000633992,0.0101156,1686,505,6.03204,7.6574
469,519,6.0321,-7.3642,0.000223531,-0.00171211,-0.000365082,0.0002901,-0.00177868,-0.180359,0.00129337,0.00951561,1693,505,6.0321,7.36417
476,519,6.04089,-7.07861,0.000306911,-0.0027139,-0.000488819,0.00038404,-0.00279103,-0.156498,0.00200102,0.0109645,1700,505,6.04095,7.07863
483,519,6.04016,-6.7951,0.000178406,-0.00375873,-0.000888702,0.00036971,-0.00395004,-0.212028,0.00276485,0.0126998,1707,505,6.0402,6.79509
490,519,6.02661,-6.48724,-1.19585e-05,-0.00534773,-0.001425,0.000344763,-0.00570445,-0.245289,0.00392294,0.0116273,1714,505,6.02665,6.48724
497,519,6.0166,-6.22571,-0.000388712,-0.00705661,-0.00212928,0.000233227,-0.00767855,-0.284183,0.00519852,0.014529,1721,505,6.01663,6.22571
504,519,6.00134,-5.93008,-0.000876299,-0.00907189,-0.00305109,0.000134824,-0.010083,-0.320008,0.0067674,0.0144308,1728,505,6.00136,5.93008
511,519,6.02734,-5.64746,-0.00160349,-0.0111536,-0.00423601,4.6296e-06,-0.0127617,-0.362825,0.00850936,0.0199323,1735,505,6.02733,5.64745
518,519,6.00146,-5.62198,-0.00255314,-0.0130784,-0.00547011,-0.000225152,-0.0154063,-0.402365,0.0101967,0.0440987,1742,505,6.00141,5.62197
525,519,6.08044,-5.54919,0,0,0,0,0,0,0,-1,1749,505,6.08039,5.54918
532,519,3.5155,-2.86511,0,0,0,0,0,0,0,-1,1756,505,3.51554,2.8651
539,519,3.30005,0.0229797,0,0,0,0,0,0,0,-1,1763,505,3.30008,-0.0229869
546,519,4.62024,-2.89774,0,0,0,0,0,0,0,-1,1770,505,4.62023,2.89775
553,519,4.14136,0.0667419,0,0,0,0,0,0,0,-1,1777,505,4.14141,-0.0667503
560,519,3.77856,0.279724,0,0,0,0,0,0,0,-1,1784,505,3.77861,-0.279731
567,519,0,0,0,0,0,0,0,0,0,-1,1791,505,0,0
574,519,0,0,0,0,0,0,0,0,0,-1,1798,505,0,0
581,519,0,0,0,0,0,0,0,0,0,-1,1805,505,0,0
588,519,0,0,0,0,0,0,0,0,0,-1,1812,505,0,0
595,519,0,0,0,0,0,0,0,0,0,-1,1819,505,0,0
602,519,0,0,0,0,0,0,0,0,0,-1,1826,505,0,0
609,519,0,0,0,0,0,0,0,0,0,-1,1833,505,0,0
616,519,0,0,0,0,0,0,0,0,0,-1,1840,505,0,0
623,519,0,0,0,0,0,0,0,0,0,-1,1847,505,0,0
630,519,0,0,0,0,0,0,0,0,0,-1,1854,505,0,0
637,519,0,0,0,0,0,0,0,0,0,-1,1861,505,0,0
644,519,0,0,0,0,0,0,0,0,0,-1,1868,505,0,0
651,519,0,0,0,0,0,0,0,0,0,-1,1875,505,0,0
658,519,0,0,0,0,0,0,0,0,0,-1,1882,505,0,0
665,519,0,0,0,0,0,0,0,0,0,-1,1889,505,0,0
672,519,0,0,0,0,0,0,0,0,0,-1,1896,505,0,0
679,519,0,0,0,0,0,0,0,0,0,-1,1903,505,0,0
686,519,0,0,0,0,0,0,0,0,0,-1,1910,505,0,0
693,519,0,0,0,0,0,0,0,0,0,-1,1917,505,0,0
700,519,0,0,0,0,0,0,0,0,0,-1,1924,505,0,0
707,519,0,0,0,0,0,0,0,0,0,-1,1931,505,0,0
714,519,0,0,0,0,0,0,0,0,0,-1,1938,505,0,0
721,519,0,0,0,0,0,0,0,0,0,-1,1945,505,0,0
728,519,0,0,0,0,0,0,0,0,0,-1,1952,505,0,0
735,519,0,0,0,0,0,0,0,0,0,-1,1959,505,0,0
742,519,0,0,0,0,0,0,0,0,0,-1,1966,505,0,0
749,519,0,0,0,0,0,0,0,0,0,-1,1973,505,0,0
756,519,0,0,0,0,0,0,0,0,0,-1,1980,505,0,0
763,519,0,0,0,0,0,0,0,0,0,-1,1987,505,0,0
770,519,0,0,0,0,0,0,0,0,0,-1,1994,505,0,0
777,519,0,0,0,0,0,0,0,0,0,-1,2001,505,0,0
784,519,0,0,0,0,0,0,0,0,0,-1,2008,505,0,0
791,519,0,0,0,0,0,0,0,0,0,-1,2015,505,0,0
798,519,0,0,0,0,0,0,0,0,0,-1,2022,505,0,0
805,519,0,0,0,0,0,0,0,0,0,-1,2029,505,0,0
812,519,0,0,0,0,0,0,0,0,0,-1,2036,505,0,0
-700,512,0,0,0,0,0,0,0,0,0,-1,524,512,0,0
-693,512,0,0,0,0,0,0,0,0,0,-1,531,512,0,0
-686,512,0,0,0,0,0,0,0,0,0,-1,538,512,0,0
-679,512,0,0,0,0,0,0,0,0,0,-1,545,512,0,0
-672,512,0,0,0,0,0,0,0,0,0,-1,552,512,0,0
-665,512,0,0,0,0,0,0,0,0,0,-1,559,512,0,0
-658,512,0,0,0,0,0,0,0,0,0,-1,566,512,0,0
-651,512,0,0,0,0,0,0,0,0,0,-1,573,512,0,0
-644,512,0,0,0,0,0,0,0,0,0,-1,580,512,0,0
-637,512,0,0,0,0,0,0,0,0,0,-1,587,512,0,0
-630,512,0,0,0,0,0,0,0,0,0,-1,594,512,0,0
-623,512,0,0,0,0,0,0,0,0,0,-1,601,512,0,0
-616,512,0,0,0,0,0,0,0,0,0,-1,608,512,0,0
-609,512,0,0,0,0,0,0,0,0,0,-1,615,512,0,0
-602,512,0,0,0,0,0,0,0,0,0,-1,622,512,0,0
-595,512,0,0,0,0,0,0,0,0,0,-1,629,512,0,0
-588,512,0,0,0,0,0,0,0,0,0,-1,636,512,0,0
-581,512,0,0,0,0,0,0,0,0,0,-1,643,512,0,0
-574,512,0,0,0,0,0,0,0,0,0,-1,650,512,0,0
-567,512,0,0,0,0,0,0,0,0,0,-1,657,512,0,0
-560,512,0,0,0,0,0,0,0,0,0,-1,664,512,0,0
-553,512,0,0,0,0,0,0,0,0,0,-1,671,512,0,0
-546,512,0,0,0,0,0,0,0,0,0,-1,678,512,0,0
-539,512,0,0,0,0,0,0,0,0,0,-1,685,512,0,0
-532,512,0,0,0,0,0,0,0,0,0,-1,692,512,0,0
-525,512,0,0,0,0,0,0,0,0,0,-1,699,512,0,0
-518,512,0,0,0,0,0,0,0,0,0,-1,706,512,0,0
-511,512,0,0,0,0,0,0,0,0,0,-1,713,512,0,0
-504,512,0,0,0,0,0,0,0,0,0,-1,720,512,0,0
-497,512,0,0,0,0,0,0,0,0,0,-1,727,512,0,0
-490,512,0,0,0,0,0,0,0,0,0,-1,734,512,0,0
-483,512,0,0,0,0,0,0,0,0,0,-1,741,512,0,0
-476,512,0,0,0,0,0,0,0,0,0,-1,748,512,0,0
-469,512,0,0,0,0,0,0,0,0,0,-1,755,512,0,0
-462,512,0,0,0,0,0,0,0,0,0,-1,762,512,0,0
-455,512,0,0,0,0,0,0,0,0,0,-1,769,512,0,0
-448,512,-0.901306,-6.79834,0,0,0,0,0,0,0,-1,776,512,-0.90133,6.79831
-441,512,-0.159119,-6.37024,0,0,0,0,0,0,0,-1,783,512,-0.159125,6.37025
-434,512,0.656006,-5.95892,0,0,0,0,0,0,0,-1,790,512,0.655993,5.9589
-427,512,0.532898,-5.37317,0,0,0,0,0,0,0,-1,797,512,0.532919,5.3732
-420,512,0.219666,-5.37921,0,0,0,0,0,0,0,-1,804,512,0.219688,5.37919
-413,512,-0.248901,-5.86871,0,0,0,0,0,0,0,-1,811,512,-0.24893,5.86869
-406,512,-0.770447,-6.37933,0,0,0,0,0,0,0,-1,818,512,-0.770426,6.37931
-399,512,-0.227722,-6.65161,0,0,0,0,0,0,0,-1,825,512,-0.227723,6.6516
-392,512,-0.311951,-6.85303,0.00557838,0.00161149,-0.00715987,0.0110245,-0.00383458,-0.650275,0.00890735,0.0334193,832,512,-0.311939,6.85305
-385,512,-0.361938,-7.07391,0.00386108,0.000465392,-0.00528481,0.00771408,-0.00338761,-0.629971,0.00656981,0.0186639,839,512,-0.361924,7.07392
-378,512,-0.385803,-7.37128,0.00256916,-0.000235974,-0.00382922,0.0052446,-0.00291142,-0.609846,0.00477267,0.0149253,846,512,-0.385796,7.37126
-371,512,-0.399719,-7.65417,0.0016,-0.000955752,-0.00261182,0.0032298,-0.00258555,-0.557886,0.00336435,0.0115456,853,512,-0.399722,7.65415
-364,512,-0.397278,-7.96698,0.00116235,-0.0008949,-0.00196036,0.00234757,-0.00208012,-0.543788,0.00255788,0.00881701,860,512,-0.39726,7.96697
-357,512,-0.392334,-8.2301,0.000867209,-0.000798734,-0.00140679,0.00166913,-0.00160066,-0.5181,0.00188795,0.0100788,867,512,-0.392333,8.23007
-350,512,-0.399414,-8.48279,0.000770241,-0.000601156,-0.00112324,0.00140054,-0.00123145,-0.511359,0.00152063,0.0111681,874,512,-0.399407,8.4828
-343,512,-0.435913,-8.73431,0.000883674,-0.000384439,-0.000980617,0.00141737,-0.000918131,-0.498411,0.00135863,0.0119278,881,512,-0.435931,8.7343
-336,512,-0.442688,-9.01337,0.00110862,-0.000146421,-0.000871811,0.00155527,-0.000593068,-0.473456,0.00128114,0.0121309,888,512,-0.442713,9.01335
-329,512,-0.432678,-9.25427,0.00137428,8.96751e-05,-0.000786774,0.00174764,-0.000283682,-0.443074,0.00127026,0.0128541,895,512,-0.432679,9.2543
-322,512,-0.440125,-9.50397,0.00162135,0.000315707,-0.000787874,0.00199172,-5.46635e-05,-0.439433,0.0013464,0.0109068,902,512,-0.440121,9.50395
-315,512,-0.430908,-9.76611,0.00410244,0.00121347,-0.0022958,0.00537037,-5.44649e-05,-0.504597,0.00359854,0.0102436,909,512,-0.430917,9.76612
-308,512,-0.433044,-10.0268,0.00626361,0.00178679,-0.00339587,0.00809244,-4.20306e-05,-0.494005,0.00540902,0.0103266,916,512,-0.433021,10.0268
-301,512,-0.42511,-10.2671,0.00929574,0.00254698,-0.00511039,0.0120453,-0.000202569,-0.493608,0.00809856,0.0140035,923,512,-0.425081,10.2671
-294,512,-0.428162,-10.4706,0.013554,0.00343361,-0.00741122,0.0174678,-0.00048014,-0.485862,0.0118085,0.0144981,930,512,-0.428154,10.4706
-287,512,-0.510193,-10.6394,0.0195391,0.00397842,-0.0107678,0.0250433,-0.00152577,-0.472546,0.0172267,0.0210262,937,512,-0.510186,10.6394
-280,512,-0.384094,-10.94,0.0268291,0.00480836,-0.0150007,0.0344265,-0.00278908,-0.468811,0.0239349,0.0296683,944,512,-0.384109,10.94
-273,512,-0.079834,-11.2772,0,0,0,0,0,0,0,-1,951,512,-0.0798214,11.2772
-266,512,-0.362061,-11.5657,0,0,0,0,0,0,0,-1,958,512,-0.362042,11.5657
-259,512,-0.288879,-11.6427,0,0,0,0,0,0,0,-1,965,512,-0.288898,11.6427
-252,512,1.45941,-3.43475,0,0,0,0,0,0,0,-1,972,512,1.45938,3.43475
-245,512,4.12927,-11.272,0,0,0,0,0,0,0,-1,979,512,4.1293,11.272
-238,512,0.227051,-8.92969,0,0,0,0,0,0,0,-1,986,512,0.227073,8.92968
-231,512,-2.54437,-10.169,0,0,0,0,0,0,0,-1,993,512,-2.54439,10.169
-224,512,-4.84601,-7.52783,0,0,0,0,0,0,0,-1,1000,512,-4.84602,7.52786
-217,512,-7.37274,-3.89563,0,0,0,0,0,0,0,-1,1007,512,-7.37274,3.89561
-210,512,-3.76642,-1.94702,0,0,0,0,0,0,0,-1,1014,512,-3.76641,1.94702
-203,512,-2.48328,-5.19061,0,0,0,0,0,0,0,-1,1021,512,-2.48328,5.19059
-196,512,-1.14929,-4.63202,0,0,0,0,0,0,0,-1,1028,512,-1.14934,4.632
-189,512,0.197998,4.55505,0,0,0,0,0,0,0,-1,1035,512,0.197996,-4.55506
-182,512,2.73938,0.0778503,0,0,0,0,0,0,0,-1,1042,512,2.73944,-0.077852
-175,512,2.29565,0.209808,0,0,0,0,0,0,0,-1,1049,512,2.29565,-0.209813
-168,512,2.09399,-0.302856,0,0,0,0,0,0,0,-1,1056,512,2.09403,0.302826
-161,512,2.76636,0.0921021,0,0,0,0,0,0,0,-1,1063,512,2.76633,-0.0921104
-154,512,3.41382,0.466187,0,0,0,0,0,0,0,-1,1070,512,3.41382,-0.466178
-147,512,0,0,0,0,0,0,0,0,0,-1,1077,512,0,0
-140,512,0,0,0,0,0,0,0,0,0,-1,1084,512,0,0
-133,512,0,0,0,0,0,0,0,0,0,-1,1091,512,0,0
-126,512,0,0,0,0,0,0,0,0,0,-1,1098,512,0,0
-119,512,0,0,0,0,0,0,0,0,0,-1,1105,512,0,0
-112,512,0,0,0,0,0,0,0,0,0,-1,1112,512,0,0
-105,512,0,0,0,0,0,0,0,0,0,-1,1119,512,0,0
-98,512,0,0,0,0,0,0,0,0,0,-1,1126,512,0,0
-91,512,0,0,0,0,0,0,0,0,0,-1,1133,512,0,0
-84,512,0,0,0,0,0,0,0,0,0,-1,1140,512,0,0
-77,512,0,0,0,0,0,0,0,0,0,-1,1147,512,0,0
-70,512,0,0,0,0,0,0,0,0,0,-1,1154,512,0,0
-63,512,0,0,0,0,0,0,0,0,0,-1,1161,512,0,0
-56,512,0,0,0,0,0,0,0,0,0,-1,1168,512,0,0
-49,512,0,0,0,0,0,0,0,0,0,-1,1175,512,0,0
-42,512,0,0,0,0,0,0,0,0,0,-1,1182,512,0,0
-35,512,0,0,0,0,0,0,0,0,0,-1,1189,512,0,0
-28,512,0,0,0,0,0,0,0,0,0,-1,1196,512,0,0
-21,512,0,0,0,0,0,0,0,0,0,-1,1203,512,0,0
-14,512,0,0,0,0,0,0,0,0,0,-1,1210,512,0,0
-7,512,0,0,0,0,0,0,0,0,0,-1,1217,512,0,0
0,512,0,0,0,0,0,0,0,0,0,-1,1224,512,0,0
7,512,0,0,0,0,0,0,0,0,0,-1,1231,512,0,0
14,512,0,0,0,0,0,0,0,0,0,-1,1238,512,0,0
21,512,0,0,0,0,0,0,0,0,0,-1,1245,512,0,0
28,512,0,0,0,0,0,0,0,0,0,-1,1252,512,0,0
35,512,0,0,0,0,0,0,0,0,0,-1,1259,512,0,0
42,512,0,0,0,0,0,0,0,0,0,-1,1266,512,0,0
49,512,0,0,0,0,0,0,0,0,0,-1,1273,512,0,0
56,512,0,0,0,0,0,0,0,0,0,-1,1280,512,0,0
63,512,0,0,0,0,0,0,0,0,0,-1,1287,512,0,0
70,512,0,0,0,0,0,0,0,0,0,-1,1294,512,0,0
77,512,0,0,0,0,0,0,0,0,0,-1,1301,512,0,0
84,512,0,0,0,0,0,0,0,0,0,-1,1308,512,0,0
91,512,0,0,0,0,0,0,0,0,0,-1,1315,512,0,0
98,512,0,0,0,0,0,0,0,0,0,-1,1322,512,0,0
105,512,0,0,0,0,0,0,0,0,0,-1,1329,512,0,0
112,512,0,0,0,0,0,0,0,0,0,-1,1336,512,0,0
119,512,0,0,0,0,0,0,0,0,0,-1,1343,512,0,0
126,512,0,0,0,0,0,0,0,0,0,-1,1350,512,0,0
133,512,0,0,0,0,0,0,0,0,0,-1,1357,512,0,0
140,512,0,0,0,0,0,0,0,0,0,-1,1364,512,0,0
147,512,0,0,0,0,0,0,0,0,0,-1,1371,512,0,0
154,512,0,0,0,0,0,0,0,0,0,-1,1378,512,0,0
161,512,0,0,0,0,0,0,0,0,0,-1,1385,512,0,0
168,512,0,0,0,0,0,0,0,0,0,-1,1392,512,0,0
175,512,0,0,0,0,0,0,0,0,0,-1,1399,512,0,0
182,512,0,0,0,0,0,0,0,0,0,-1,1406,512,0,0
189,512,0,0,0,0,0,0,0,0,0,-1,1413,512,0,0
196,512,0,0,0,0,0,0,0,0,0,-1,1420,512,0,0
203,512,0,0,0,0,0,0,0,0,0,-1,1427,512,0,0
210,512,0,0,0,0,0,0,0,0,0,-1,1434,512,0,0
217,512,0,0,0,0,0,0,0,0,0,-1,1441,512,0,0
224,512,0,0,0,0,0,0,0,0,0,-1,1448,512,0,0
231,512,0,0,0,0,0,0,0,0,0,-1,1455,512,0,0
238,512,0,0,0,0,0,0,0,0,0,-1,1462,512,0,0
245,512,0,0,0,0,0,0,0,0,0,-1,1469,512,0,0
252,512,0,0,0,0,0,0,0,0,0,-1,1476,512,0,0
259,512,0,0,0,0,0,0,0,0,0,-1,1483,512,0,0
266,512,0,0,0,0,0,0,0,0,0,-1,1490,512,0,0
273,512,4.00745,0.618622,0,0,0,0,0,0,0,-1,1497,512,4.00747,-0.618611
280,512,4.49609,0.649841,0,0,0,0,0,0,0,-1,1504,512,4.49612,-0.649834
287,512,4.77234,0.458069,0,0,0,0,0,0,0,-1,1511,512,4.77233,-0.458083
294,512,8.54956,-2.36273,0,0,0,0,0,0,0,-1,1518,512,8.54952,2.36274
301,512,6.302,-1.69092,0,0,0,0,0,0,0,-1,1525,512,6.30196,1.69093
308,512,8.2439,-6.22754,0,0,0,0,0,0,0,-1,1532,512,8.24394,6.22757
315,512,7.53687,-6.04211,0,0,0,0,0,0,0,-1,1539,512,7.53691,6.04211
322,512,6.82983,-5.85663,0,0,0,0,0,0,0,-1,1546,512,6.82988,5.85666
329,512,4.38147,-0.329651,0,0,0,0,0,0,0,-1,1553,512,4.38144,0.329662
336,512,4.41467,-0.741455,0,0,0,0,0,0,0,-1,1560,512,4.41467,0.741442
343,512,4.44727,-1.21667,0,0,0,0,0,0,0,-1,1567,512,4.44732,1.21666
350,512,4.55469,-1.65082,0,0,0,0,0,0,0,-1,1574,512,4.5547,1.65083
357,512,5.79993,-2.67456,0,0,0,0,0,0,0,-1,1581,512,5.79991,2.67454
364,512,5.18298,-6.80133,0,0,0,0,0,0,0,-1,1588,512,5.18296,6.80132
371,512,5.28467,-7.69269,0,0,0,0,0,0,0,-1,1595,512,5.28464,7.69269
378,512,6.29407,-9.88055,0,0,0,0,0,0,0,-1,1602,512,6.29412,9.88057
385,512,6.45569,-9.32233,0,0,0,0,0,0,0,-1,1609,512,6.45565,9.3223
392,512,6.35522,-8.98425,0,0,0,0,0,0,0,-1,1616,512,6.35526,8.98422
399,512,6.77563,-9.64008,0,0,0,0,0,0,0,-1,1623,512,6.77568,9.64011
406,512,6.48584,-9.57373,-0.00689852,-0.00199559,-0.0082145,0.00412544,-0.0130196,-0.930407,0.0103331,0.0481856,1630,512,6.48581,9.57376
413,512,6.25854,-9.61249,-0.00558635,-0.00144737,-0.00693576,0.00372107,-0.0107548,-0.930383,0.00868027,0.0387143,1637,512,6.25851,9.61251
420,512,6.32422,-9.28333,-0.00445252,-0.00116198,-0.00571987,0.00314454,-0.00875904,-0.925438,0.0071228,0.0188129,1644,512,6.32419,9.2833
427,512,6.30591,-8.99872,-0.00361927,-0.000940936,-0.00465607,0.00256472,-0.00712493,-0.925428,0.00579716,0.0137207,1651,512,6.30595,8.99874
434,512,6.30957,-8.73297,-0.00291464,-0.000648061,-0.0036579,0.00204809,-0.00561079,-0.935618,0.00457855,0.0109495,1658,512,6.30955,8.73298
441,512,6.30054,-8.44934,-0.00220769,-0.00044616,-0.00276518,0.00157513,-0.00422899,-0.939579,0.00346581,0.0128609,1665,512,6.30051,8.44934
448,512,6.27905,-8.18848,-0.00153286,-0.000377201,-0.00199251,0.00111957,-0.00302963,-0.926527,0.00247871,0.0086471,1672,512,6.279,8.1885
455,512,6.28101,-7.92053,-0.000929623,-0.00030481,-0.00130007,0.000719866,-0.0019543,-0.903312,0.00159782,0.00827109,1679,512,6.28095,7.92056
462,512,6.30029,-7.64575,-0.000302982,-0.000532478,-0.000738428,0.000329561,-0.00116502,-0.708317,0.000906723,0.00880028,1686,512,6.30027,7.64577
469,512,6.29089,-7.35712,8.78491e-05,-0.00121937,-0.000598797,0.000320673,-0.00145219,-0.370831,0.00109084,0.00987609,1693,512,6.29086,7.35709
476,512,6.27808,-7.06976,0.000229272,-0.00199579,-0.00058068,0.000371697,-0.00213821,-0.240525,0.00156417,0.0125822,1700,512,6.27806,7.06978
483,512,6.28992,-6.77374,0.000135942,-0.00274972,-0.000826362,0.00035583,-0.0029696,-0.260066,0.00210838,0.0124028,1707,512,6.28993,6.77376
490,512,6.30701,-6.47778,-6.38585e-05,-0.00394648,-0.00118868,0.000271153,-0.00428149,-0.27471,0.00294887,0.0100236,1714,512,6.30698,6.47779
497,512,6.3053,-6.18756,-0.000499098,-0.00523282,-0.00172013,5.99402e-05,-0.00579186,-0.314229,0.00388138,0.0110736,1721,512,6.3053,6.18757
504,512,6.29407,-5.88049,-0.00106406,-0.00665324,-0.00239571,-0.000177731,-0.00753957,-0.35435,0.0049682,0.0120587,1728,512,6.2941,5.88052
511,512,6.27356,-5.58746,-0.00191826,-0.00806971,-0.0033104,-0.000475264,-0.0095127,-0.411064,0.00618946,0.0129137,1735,512,6.27351,5.58748
518,512,6.32678,-5.33673,-0.00299636,-0.00931698,-0.00426273,-0.000850217,-0.0114631,-0.466417,0.00737502,0.0223812,1742,512,6.32676,5.33676
525,512,5.83826,-4.8313,0,0,0,0,0,0,0,-1,1749,512,5.83828,4.83133
532,512,5.31482,-4.22229,0,0,0,0,0,0,0,-1,1756,512,5.31479,4.22228
539,512,4.39929,-3.11737,0,0,0,0,0,0,0,-1,1763,512,4.3993,3.11735
546,512,2.77551,-0.66449,0,0,0,0,0,0,0,-1,1770,512,2.77548,0.664503
553,512,3.927,-0.448853,0,0,0,0,0,0,0,-1,1777,512,3.92704,0.448843
560,512,3.55762,-0.201233,0,0,0,0,0,0,0,-1,1784,512,3.55768,0.201259
567,512,3.09045,0.191193,0,0,0,0,0,0,0,-1,1791,512,3.09045,-0.191203
574,512,0,0,0,0,0,0,0,0,0,-1,1798,512,0,0
581,512,0,0,0,0,0,0,0,0,0,-1,1805,512,0,0
588,512,0,0,0,0,0,0,0,0,0,-1,1812,512,0,0
595,512,0,0,0,0,0,0,0,0,0,-1,1819,512,0,0
602,512,0,0,0,0,0,0,0,0,0,-1,1826,512,0,0
609,512,0,0,0,0,0,0,0,0,0,-1,1833,512,0,0
616,512,0,0,0,0,0,0,0,0,0,-1,1840,512,0,0
623,512,0,0,0,0,0,0,0,0,0,-1,1847,512,0,0
630,512,0,0,0,0,0,0,0,0,0,-1,1854,512,0,0
637,512,0,0,0,0,0,0,0,0,0,-1,1861,512,0,0
644,512,0,0,0,0,0,0,0,0,0,-1,1868,512,0,0
651,512,0,0,0,0,0,0,0,0,0,-1,1875,512,0,0
658,512,0,0,0,0,0,0,0,0,0,-1,1882,512,0,0
665,512,0,0,0,0,0,0,0,0,0,-1,1889,512,0,0
672,512,0,0,0,0,0,0,0,0,0,-1,1896,512,0,0
679,512,0,0,0,0,0,0,0,0,0,-1,1903,512,0,0
686,512,0,0,0,0,0,0,0,0,0,-1,1910,512,0,0
693,512,0,0,0,0,0,0,0,0,0,-1,1917,512,0,0
700,512,0,0,0,0,0,0,0,0,0,-1,1924,512,0,0
707,512,0,0,0,0,0,0,0,0,0,-1,1931,512,0,0
714,512,0,0,0,0,0,0,0,0,0,-1,1938,512,0,0
721,512,0,0,0,0,0,0,0,0,0,-1,1945,512,0,0
728,512,0,0,0,0,0,0,0,0,0,-1,1952,512,0,0
735,512,0,0,0,0,0,0,0,0,0,-1,1959,512,0,0
742,512,0,0,0,0,0,0,0,0,0,-1,1966,512,0,0
749,512,0,0,0,0,0,0,0,0,0,-1,1973,512,0,0
756,512,0,0,0,0,0,0,0,0,0,-1,1980,512,0,0
763,512,0,0,0,0,0,0,0,0,0,-1,1987,512,0,0
770,512,0,0,0,0,0,0,0,0,0,-1,1994,512,0,0
777,512,0,0,0,0,0,0,0,0,0,-1,2001,512,0,0
784,512,0,0,0,0,0,0,0,0,0,-1,2008,512,0,0
791,512,0,0,0,0,0,0,0,0,0,-1,2015,512,0,0
798,512,0,0,0,0,0,0,0,0,0,-1,2022,512,0,0
805,512,0,0,0,0,0,0,0,0,0,-1,2029,512,0,0
812,512,0,0,0,0,0,0,0,0,0,-1,2036,512,0,0
-700,505,0,0,0,0,0,0,0,0,0,-1,524,519,0,0
-693,505,0,0,0,0,0,0,0,0,0,-1,531,519,0,0
-686,505,0,0,0,0,0,0,0,0,0,-1,538,519,0,0
-679,505,0,0,0,0,0,0,0,0,0,-1,545,519,0,0
-672,505,0,0,0,0,0,0,0,0,0,-1,552,519,0,0
-665,505,0,0,0,0,0,0,0,0,0,-1,559,519,0,0
-658,505,0,0,0,0,0,0,0,0,0,-1,566,519,0,0
-651,505,0,0,0,0,0,0,0,0,0,-1,573,519,0,0
-644,505,0,0,0,0,0,0,0,0,0,-1,580,519,0,0
-637,505,0,0,0,0,0,0,0,0,0,-1,587,519,0,0
-630,505,0,0,0,0,0,0,0,0,0,-1,594,519,0,0
-623,505,0,0,0,0,0,0,0,0,0,-1,601,519,0,0
-616,505,0,0,0,0,0,0,0,0,0,-1,608,519,0,0
-609,505,0,0,0,0,0,0,0,0,0,-1,615,519,0,0
-602,505,0,0,0,0,0,0,0,0,0,-1,622,519,0,0
-595,505,0,0,0,0,0,0,0,0,0,-1,629,519,0,0
-588,505,0,0,0,0,0,0,0,0,0,-1,636,519,0,0
-581,505,0,0,0,0,0,0,0,0,0,-1,643,519,0,0
-574,505,0,0,0,0,0,0,0,0,0,-1,650,519,0,0
-567,505,0,0,0,0,0,0,0,0,0,-1,657,519,0,0
-560,505,0,0,0,0,0,0,0,0,0,-1,664,519,0,0
-553,505,0,0,0,0,0,0,0,0,0,-1,671,519,0,0
-546,505,0,0,0,0,0,0,0,0,0,-1,678,519,0,0
-539,505,0,0,0,0,0,0,0,0,0,-1,685,519,0,0
-532,505,0,0,0,0,0,0,0,0,0,-1,692,519,0,0
-525,505,0,0,0,0,0,0,0,0,0,-1,699,519,0,0
-518,505,0,0,0,0,0,0,0,0,0,-1,706,519,0,0
-511,505,0,0,0,0,0,0,0,0,0,-1,713,519,0,0
-504,505,0,0,0,0,0,0,0,0,0,-1,720,519,0,0
-497,505,0,0,0,0,0,0,0,0,0,-1,727,519,0,0
-490,505,0,0,0,0,0,0,0,0,0,-1,734,519,0,0
-483,505,0,0,0,0,0,0,0,0,0,-1,741,519,0,0
-476,505,0,0,0,0,0,0,0,0,0,-1,748,519,0,0
-469,505,0,0,0,0,0,0,0,0,0,-1,755,519,0,0
-462,505,0,0,0,0,0,0,0,0,0,-1,762,519,0,0
-455,505,-2.63678,-7.51263,0,0,0,0,0,0,0,-1,769,519,-2.6368,7.51263
-448,505,-2.04388,-6.93677,0,0,0,0,0,0,0,-1,776,519,-2.04389,6.93677
-441,505,4.2735,-3.92358,0,0,0,0,0,0,0,-1,783,519,4.27352,3.9236
-434,505,3.87756,-5.69495,0,0,0,0,0,0,0,-1,790,519,3.87758,5.69492
-427,505,-0.134399,-5.5473,0,0,0,0,0,0,0,-1,797,519,-0.134394,5.5473
-420,505,-0.296753,-5.57709,0,0,0,0,0,0,0,-1,804,519,-0.296752,5.57709
-413,505,-0.0144043,-5.25,0,0,0,0,0,0,0,-1,811,519,-0.0144292,5.24998
-406,505,-0.756042,-6.21075,0,0,0,0,0,0,0,-1,818,519,-0.756055,6.21078
-399,505,-0.52417,-6.47864,0.00670036,0.00406053,-0.00837997,0.0138637,-0.00310284,-0.707286,0.0104317,0.0407848,825,519,-0.524157,6.47861
-392,505,-0.56366,-6.79883,0.00458234,0.00223703,-0.0061521,0.00967255,-0.00285317,-0.691222,0.00758057,0.0185641,832,519,-0.563647,6.79882
-385,505,-0.624512,-7.11169,0.00317573,0.00105617,-0.00454048,0.00677847,-0.00254657,-0.670747,0.00556555,0.00886865,839,519,-0.62449,7.11167
-378,505,-0.669678,-7.39587,0.00210966,0.000301647,-0.00325829,0.00458702,-0.00217572,-0.650078,0.00398634,0.0111891,846,519,-0.669649,7.3959
-371,505,-0.665222,-7.68268,0.00135071,-0.000490016,-0.00221727,0.00283105,-0.00197035,-0.588675,0.00278689,0.0140304,853,519,-0.665204,7.68266
-364,505,-0.668762,-7.95471,0.00107425,-0.00055686,-0.00165841,0.00210679,-0.0015894,-0.556877,0.00214095,0.0143244,860,519,-0.668758,7.95472
-357,505,-0.65686,-8.21381,0.000945466,-0.000558429,-0.00118448,0.00159652,-0.00120948,-0.502578,0.00162518,0.0115363,867,519,-0.656844,8.21378
-350,505,-0.665894,-8.47803,0.00101549,-0.000421216,-0.000981935,0.00151379,-0.000919508,-0.469598,0.00141876,0.0108459,874,519,-0.665899,8.47803
-343,505,-0.696899,-8.7439,0.00125315,-0.000254497,-0.000891659,0.00166693,-0.00066828,-0.434485,0.00138872,0.00839456,881,519,-0.696906,8.74391
-336,505,-0.702271,-8.99774,0.00159033,-6.73757e-05,-0.000828747,0.00193358,-0.000410623,-0.392667,0.0014455,0.0101416,888,519,-0.702278,8.99776
-329,505,-0.698486,-9.23199,0.00200511,0.000143504,-0.000848135,0.00233356,-0.00018495,-0.369481,0.00162088,0.0137606,895,519,-0.698484,9.232
-322,505,-0.7146,-9.48907,0.00241659,0.000373311,-0.000935873,0.00278045,9.45223e-06,-0.370806,0.00185049,0.0159458,902,519,-0.71458,9.4891
-315,505,-0.697266,-9.76227,0.0071938,0.00196122,-0.00403318,0.00938495,-0.00022993,-0.497671,0.00633467,0.0134785,909,519,-0.697275,9.76224
-308,505,-0.683777,-10.0109,0.0111719,0.00305695,-0.00636883,0.0146659,-0.000437064,-0.501777,0.00992618,0.0117014,916,519,-0.683769,10.0109
-301,505,-0.642456,-10.277,0.0170064,0.00471095,-0.0100597,0.0226481,-0.000930837,-0.51112,0.0154184,0.0168581,923,519,-0.642471,10.277
-294,505,-0.641663,-10.486,0,0,0,0,0,0,0,-1,930,519,-0.641672,10.486
-287,505,-0.712769,-10.7561,0,0,0,0,0,0,0,-1,937,519,-0.712793,10.7561
-280,505,-0.549683,-11.1497,0,0,0,0,0,0,0,-1,944,519,-0.54969,11.1496
-273,505,-0.0680542,-9.44867,0,0,0,0,0,0,0,-1,951,519,-0.0680462,9.44866
-266,505,-0.036377,-9.07922,0,0,0,0,0,0,0,-1,958,519,-0.0364055,9.0792
-259,505,0.10321,-6.69824,0,0,0,0,0,0,0,-1,965,519,0.103235,6.69826
-252,505,6.82312,-15.6972,0,0,0,0,0,0,0,-1,972,519,6.82314,15.6972
-245,505,4.26727,-12.9861,0,0,0,0,0,0,0,-1,979,519,4.2673,12.9861
-238,505,1.67432,-11.2307,0,0,0,0,0,0,0,-1,986,519,1.67429,11.2307
-231,505,-0.958435,-8.3075,0,0,0,0,0,0,0,-1,993,519,-0.958421,8.30751
-224,505,-3.69653,-5.12732,0,0,0,0,0,0,0,-1,1000,519,-3.69653,5.12733
-217,505,-6.34302,-1.65533,0,0,0,0,0,0,0,-1,1007,519,-6.34299,1.65535
-210,505,-3.06128,-0.396301,0,0,0,0,0,0,0,-1,1014,519,-3.06129,0.396294
-203,505,-4.26465,2.03607,0,0,0,0,0,0,0,-1,1021,519,-4.26462,-2.03606
-196,505,-5.47595,4.27295,0,0,0,0,0,0,0,-1,1028,519,-5.47597,-4.27292
-189,505,1.51526,5.56207,0,0,0,0,0,0,0,-1,1035,519,1.51523,-5.56209
-182,505,2.97815,7.5097,0,0,0,0,0,0,0,-1,1042,519,2.97812,-7.5097
-175,505,-2.38416,-2.17548,0,0,0,0,0,0,0,-1,1049,519,-2.38411,2.1755
-168,505,0,0,0,0,0,0,0,0,0,-1,1056,519,0,0
-161,505,0,0,0,0,0,0,0,0,0,-1,1063,519,0,0
-154,505,0,0,0,0,0,0,0,0,0,-1,1070,519,0,0
-147,505,0,0,0,0,0,0,0,0,0,-1,1077,519,0,0
-140,505,0,0,0,0,0,0,0,0,0,-1,1084,519,0,0
-133,505,0,0,0,0,0,0,0,0,0,-1,1091,519,0,0
-126,505,0,0,0,0,0,0,0,0,0,-1,1098,519,0,0
-119,505,0,0,0,0,0,0,0,0,0,-1,1105,519,0,0
-112,505,0,0,0,0,0,0,0,0,0,-1,1112,519,0,0
-105,505,0,0,0,0,0,0,0,0,0,-1,1119,519,0,0
-98,505,0,0,0,0,0,0,0,0,0,-1,1126,519,0,0
-91,505,0,0,0,0,0,0,0,0,0,-1,1133,519,0,0
-84,505,0,0,0,0,0,0,0,0,0,-1,1140,519,0,0
-77,505,0,0,0,0,0,0,0,0,0,-1,1147,519,0,0
-70,505,0,0,0,0,0,0,0,0,0,-1,1154,519,0,0
-63,505,0,0,0,0,0,0,0,0,0,-1,1161,519,0,0
-56,505,0,0,0,0,0,0,0,0,0,-1,1168,519,0,0
-49,505,0,0,0,0,0,0,0,0,0,-1,1175,519,0,0
-42,505,0,0,0,0,0,0,0,0,0,-1,1182,519,0,0
-35,505,0,0,0,0,0,0,0,0,0,-1,1189,519,0,0
-28,505,0,0,0,0,0,0,0,0,0,-1,1196,519,0,0
-21,505,0,0,0,0,0,0,0,0,0,-1,1203,519,0,0
-14,505,0,0,0,0,0,0,0,0,0,-1,1210,519,0,0
-7,505,0,0,0,0,0,0,0,0,0,-1,1217,519,0,0
0,505,0,0,0,0,0,0,0,0,0,-1,1224,519,0,0
7,505,0,0,0,0,0,0,0,0,0,-1,1231,519,0,0
14,505,0,0,0,0,0,0,0,0,0,-1,1238,519,0,0
21,505,0,0,0,0,0,0,0,0,0,-1,1245,519,0,0
28,505,0,0,0,0,0,0,0,0,0,-1,1252,519,0,0
35,505,0,0,0,0,0,0,0,0,0,-1,1259,519,0,0
42,505,0,0,0,0,0,0,0,0,0,-1,1266,519,0,0
49,505,0,0,0,0,0,0,0,0,0,-1,1273,519,0,0
56,505,0,0,0,0,0,0,0,0,0,-1,1280,519,0,0
63,505,0,0,0,0,0,0,0,0,0,-1,1287,519,0,0
70,505,0,0,0,0,0,0,0,0,0,-1,1294,519,0,0
77,505,0,0,0,0,0,0,0,0,0,-1,1301,519,0,0
84,505,0,0,0,0,0,0,0,0,0,-1,1308,519,0,0
91,505,0,0,0,0,0,0,0,0,0,-1,1315,519,0,0
98,505,0,0,0,0,0,0,0,0,0,-1,1322,519,0,0
105,505,0,0,0,0,0,0,0,0,0,-1,1329,519,0,0
112,505,0,0,0,0,0,0,0,0,0,-1,1336,519,0,0
119,505,0,0,0,0,0,0,0,0,0,-1,1343,519,0,0
126,505,0,0,0,0,0,0,0,0,0,-1,1350,519,0,0
133,505,0,0,0,0,0,0,0,0,0,-1,1357,519,0,0
140,505,0,0,0,0,0,0,0,0,0,-1,1364,519,0,0
147,505,0,0,0,0,0,0,0,0,0,-1,1371,519,0,0
154,505,0,0,0,0,0,0,0,0,0,-1,1378,519,0,0
161,505,0,0,0,0,0,0,0,0,0,-1,1385,519,0,0
168,505,0,0,0,0,0,0,0,0,0,-1,1392,519,0,0
175,505,0,0,0,0,0,0,0,0,0,-1,1399,519,0,0
182,505,0,0,0,0,0,0,0,0,0,-1,1406,519,0,0
189,505,0,0,0,0,0,0,0,0,0,-1,1413,519,0,0
196,505,0,0,0,0,0,0,0,0,0,-1,1420,519,0,0
203,505,0,0,0,0,0,0,0,0,0,-1,1427,519,0,0
210,505,0,0,0,0,0,0,0,0,0,-1,1434,519,0,0
217,505,0,0,0,0,0,0,0,0,0,-1,1441,519,0,0
224,505,0,0,0,0,0,0,0,0,0,-1,1448,519,0,0
231,505,0,0,0,0,0,0,0,0,0,-1,1455,519,0,0
238,505,0,0,0,0,0,0,0,0,0,-1,1462,519,0,0
245,505,0,0,0,0,0,0,0,0,0,-1,1469,519,0,0
252,505,0,0,0,0,0,0,0,0,0,-1,1476,519,0,0
259,505,0,0,0,0,0,0,0,0,0,-1,1483,519,0,0
266,505,0,0,0,0,0,0,0,0,0,-1,1490,519,0,0
273,505,0,0,0,0,0,0,0,0,0,-1,1497,519,0,0
280,505,0,0,0,0,0,0,0,0,0,-1,1504,519,0,0
287,505,4.39478,0.499512,0,0,0,0,0,0,0,-1,1511,519,4.39476,-0.499506
294,505,4.88867,0.0822754,0,0,0,0,0,0,0,-1,1518,519,4.88871,-0.0822748
301,505,4.82153,-0.0704346,0,0,0,0,0,0,0,-1,1525,519,4.82156,0.0704312
308,505,4.67761,-0.29187,0,0,0,0,0,0,0,-1,1532,519,4.67762,0.291845
315,505,8.44055,-6.54352,0,0,0,0,0,0,0,-1,1539,519,8.44059,6.54349
322,505,4.78955,-0.594116,0,0,0,0,0,0,0,-1,1546,519,4.78957,0.594096
329,505,5.16321,0.434631,0,0,0,0,0,0,0,-1,1553,519,5.16316,-0.434614
336,505,4.94495,-0.920471,0,0,0,0,0,0,0,-1,1560,519,4.945,0.920495
343,505,5.01855,-1.4823,0,0,0,0,0,0,0,-1,1567,519,5.01851,1.48227
350,505,5.33154,-1.77838,0,0,0,0,0,0,0,-1,1574,519,5.33152,1.77838
357,505,5.56567,-1.9425,0,0,0,0,0,0,0,-1,1581,519,5.56562,1.94248
364,505,5.85205,-2.6579,0,0,0,0,0,0,0,-1,1588,519,5.85211,2.65788
371,505,5.88477,-7.00922,0,0,0,0,0,0,0,-1,1595,519,5.88473,7.00924
378,505,5.44104,-7.10162,0,0,0,0,0,0,0,-1,1602,519,5.44099,7.10162
385,505,6.64661,-8.65015,0,0,0,0,0,0,0,-1,1609,519,6.64662,8.65014
392,505,6.34558,-8.3429,0,0,0,0,0,0,0,-1,1616,519,6.34554,8.34288
399,505,8.29419,-9.74127,0,0,0,0,0,0,0,-1,1623,519,8.29422,9.74127
406,505,7.58081,-9.44177,0,0,0,0,0,0,0,-1,1630,519,7.58083,9.44176
413,505,6.45081,-9.74115,0,0,0,0,0,0,0,-1,1637,519,6.45086,9.74117
420,505,6.70508,-9.39325,-0.00647427,-0.00188629,-0.00779525,0.0039455,-0.0123061,-0.928499,0.00978797,0.0422699,1644,519,6.70507,9.39324
427,505,6.6001,-9.03076,-0.00528978,-0.00156596,-0.00639769,0.00323525,-0.010091,-0.927001,0.00802612,0.0139377,1651,519,6.60011,9.03078
434,505,6.58594,-8.7262,-0.0042123,-0.00108347,-0.00504862,0.00263757,-0.00793333,-0.935641,0.00635327,0.0100135,1658,519,6.58599,8.72617
441,505,6.58716,-8.43866,-0.00317675,-0.000715951,-0.0038702,0.00211472,-0.00600743,-0.939304,0.00486554,0.0100363,1665,519,6.58711,8.43868
448,505,6.5863,-8.17657,-0.00221765,-0.000487564,-0.00286661,0.00164168,-0.00434689,-0.931936,0.00357316,0.0100141,1672,519,6.58628,8.17655
455,505,6.58691,-7.90375,-0.00136424,-0.000280696,-0.00198399,0.00123416,-0.0028791,-0.918685,0.00243727,0.010431,1679,519,6.58691,7.90373
462,505,6.57312,-7.63678,-0.000534691,-0.000261733,-0.00117538,0.000785067,-0.00158149,-0.843197,0.00139188,0.0101485,1686,519,6.57315,7.63681
469,505,6.56506,-7.35461,-1.56354e-06,-0.000706874,-0.0008351,0.000552289,-0.00126073,-0.585611,0.00107305,0.0101954,1693,519,6.56504,7.35461
476,505,6.53931,-7.06738,0.000260528,-0.00127712,-0.000650568,0.000498844,-0.00151543,-0.351139,0.00121131,0.010808,1700,519,6.53928,7.06741
483,505,6.55493,-6.78381,0.000269208,-0.0017892,-0.00071467,0.000493006,-0.002013,-0.303476,0.00153299,0.0118607,1707,519,6.55492,6.78383
490,505,6.58569,-6.4903,0.000131189,-0.00265248,-0.00088491,0.000388678,-0.00290997,-0.283159,0.00208167,0.0111661,1714,519,6.58572,6.49031
497,505,6.57751,-6.19324,-0.000291292,-0.00361943,-0.00125415,0.000128388,-0.00403911,-0.322921,0.00273654,0.0111949,1721,519,6.57748,6.19323
504,505,6.56226,-5.8894,-0.000860016,-0.00462455,-0.00173878,-0.00017981,-0.00530476,-0.372896,0.00347812,0.0127907,1728,519,6.5622,5.8894
511,505,6.56104,-5.60553,-0.0017089,-0.00555611,-0.00241048,-0.000548571,-0.00671644,-0.448633,0.00430643,0.0141602,1735,519,6.56108,5.6055
518,505,6.63245,-5.34271,-0.00277333,-0.00634494,-0.003146,-0.00094162,-0.00817665,-0.527255,0.00516591,0.0262701,1742,519,6.63241,5.34274
525,505,6.28271,-5.05078,-0.00398713,-0.00688374,-0.00384019,-0.00133121,-0.00953966,-0.605074,0.00596575,0.0365232,1749,519,6.28269,5.05076
532,505,5.97913,-4.6134,-0.00519831,-0.00701752,-0.00437815,-0.00163627,-0.0105796,-0.682975,0.00657582,0.0446374,1756,519,5.97918,4.61343
539,505,5.92139,-4.25677,0,0,0,0,0,0,0,-1,1763,519,5.92138,4.2568
546,505,4.69727,-1.47705,0,0,0,0,0,0,0,-1,1770,519,4.69723,1.47703
553,505,2.82837,0.162659,0,0,0,0,0,0,0,-1,1777,519,2.82841,-0.162672
560,505,3.66223,-0.479797,0,0,0,0,0,0,0,-1,1784,519,3.66219,0.47982
567,505,4.65271,-0.950256,0,0,0,0,0,0,0,-1,1791,519,4.65274,0.95028
574,505,5.54443,-1.19977,0,0,0,0,0,0,0,-1,1798,519,5.54443,1.19974
581,505,0,0,0,0,0,0,0,0,0,-1,1805,519,0,0
588,505,0,0,0,0,0,0,0,0,0,-1,1812,519,0,0
595,505,0,0,0,0,0,0,0,0,0,-1,1819,519,0,0
602,505,0,0,0,0,0,0,0,0,0,-1,1826,519,0,0
609,505,0,0,0,0,0,0,0,0,0,-1,1833,519,0,0
616,505,0,0,0,0,0,0,0,0,0,-1,1840,519,0,0
623,505,0,0,0,0,0,0,0,0,0,-1,1847,519,0,0
630,505,0,0,0,0,0,0,0,0,0,-1,1854,519,0,0
637,505,0,0,0,0,0,0,0,0,0,-1,1861,519,0,0
644,505,0,0,0,0,0,0,0,0,0,-1,1868,519,0,0
651,505,0,0,0,0,0,0,0,0,0,-1,1875,519,0,0
658,505,0,0,0,0,0,0,0,0,0,-1,1882,519,0,0
665,505,0,0,0,0,0,0,0,0,0,-1,1889,519,0,0
672,505,0,0,0,0,0,0,0,0,0,-1,1896,519,0,0
679,505,0,0,0,0,0,0,0,0,0,-1,1903,519,0,0
686,505,0,0,0,0,0,0,0,0,0,-1,1910,519,0,0
693,505,0,0,0,0,0,0,0,0,0,-1,1917,519,0,0
700,505,0,0,0,0,0,0,0,0,0,-1,1924,519,0,0
707,505,0,0,0,0,0,0,0,0,0,-1,1931,519,0,0
714,505,0,0,0,0,0,0,0,0,0,-1,1938,519,0,0
721,505,0,0,0,0,0,0,0,0,0,-1,1945,519,0,0
728,505,0,0,0,0,0,0,0,0,0,-1,1952,519,0,0
735,505,0,0,0,0,0,0,0,0,0,-1,1959,519,0,0
742,505,0,0,0,0,0,0,0,0,0,-1,1966,519,0,0
749,505,0,0,0,0,0,0,0,0,0,-1,1973,519,0,0
756,505,0,0,0,0,0,0,0,0,0,-1,1980,519,0,0
763,505,0,0,0,0,0,0,0,0,0,-1,1987,519,0,0
770,505,0,0,0,0,0,0,0,0,0,-1,1994,519,0,0
777,505,0,0,0,0,0,0,0,0,0,-1,2001,519,0,0
784,505,0,0,0,0,0,0,0,0,0,-1,2008,519,0,0
791,505,0,0,0,0,0,0,0,0,0,-1,2015,519,0,0
798,505,0,0,0,0,0,0,0,0,0,-1,2022,519,0,0
805,505,0,0,0,0,0,0,0,0,0,-1,2029,519,0,0
812,505,0,0,0,0,0,0,0,0,0,-1,2036,519,0,0
-700,498,0,0,0,0,0,0,0,0,0,-1,524,526,0,0
-693,498,0,0,0,0,0,0,0,0,0,-1,531,526,0,0
-686,498,0,0,0,0,0,0,0,0,0,-1,538,526,0,0
-679,498,0,0,0,0,0,0,0,0,0,-1,545,526,0,0
-672,498,0,0,0,0,0,0,0,0,0,-1,552,526,0,0
-665,498,0,0,0,0,0,0,0,0,0,-1,559,526,0,0
-658,498,0,0,0,0,0,0,0,0,0,-1,566,526,0,0
-651,498,0,0,0,0,0,0,0,0,0,-1,573,526,0,0
-644,498,0,0,0,0,0,0,0,0,0,-1,580,526,0,0
-637,498,0,0,0,0,0,0,0,0,0,-1,587,526,0,0
-630,498,0,0,0,0,0,0,0,0,0,-1,594,526,0,0
-623,498,0,0,0,0,0,0,0,0,0,-1,601,526,0,0
-616,498,0,0,0,0,0,0,0,0,0,-1,608,526,0,0
-609,498,0,0,0,0,0,0,0,0,0,-1,615,526,0,0
-602,498,0,0,0,0,0,0,0,0,0,-1,622,526,0,0
-595,498,0,0,0,0,0,0,0,0,0,-1,629,526,0,0
-588,498,0,0,0,0,0,0,0,0,0,-1,636,526,0,0
-581,498,0,0,0,0,0,0,0,0,0,-1,643,526,0,0
-574,498,0,0,0,0,0,0,0,0,0,-1,650,526,0,0
-567,498,0,0,0,0,0,0,0,0,0,-1,657,526,0,0
-560,498,0,0,0,0,0,0,0,0,0,-1,664,526,0,0
-553,498,0,0,0,0,0,0,0,0,0,-1,671,526,0,0
-546,498,0,0,0,0,0,0,0,0,0,-1,678,526,0,0
-539,498,0,0,0,0,0,0,0,0,0,-1,685,526,0,0
-532,498,0,0,0,0,0,0,0,0,0,-1,692,526,0,0
-525,498,0,0,0,0,0,0,0,0,0,-1,699,526,0,0
-518,498,0,0,0,0,0,0,0,0,0,-1,706,526,0,0
-511,498,0,0,0,0,0,0,0,0,0,-1,713,526,0,0
-504,498,0,0,0,0,0,0,0,0,0,-1,720,526,0,0
-497,498,0,0,0,0,0,0,0,0,0,-1,727,526,0,0
-490,498,0,0,0,0,0,0,0,0,0,-1,734,526,0,0
-483,498,0,0,0,0,0,0,0,0,0,-1,741,526,0,0
-476,498,0,0,0,0,0,0,0,0,0,-1,748,526,0,0
-469,498,0,0,0,0,0,0,0,0,0,-1,755,526,0,0
-462,498,6.81024,1.15515,0,0,0,0,0,0,0,-1,762,526,6.81026,-1.15514
-455,498,5.67346,-0.137817,0,0,0,0,0,0,0,-1,769,526,5.67348,0.137819
-448,498,4.4436,-2.14856,0,0,0,0,0,0,0,-1,776,526,4.44361,2.14859
-441,498,4.02985,-3.26361,0,0,0,0,0,0,0,-1,783,526,4.02984,3.26359
-434,498,3.64233,-5.00665,0,0,0,0,0,0,0,-1,790,526,3.64232,5.00665
-427,498,3.24963,-6.72388,0,0,0,0,0,0,0,-1,797,526,3.24961,6.72387
-420,498,-0.372192,-5.84454,0,0,0,0,0,0,0,-1,804,526,-0.372162,5.84455
-413,498,-1.11298,-5.89728,0,0,0,0,0,0,0,-1,811,526,-1.11297,5.89725
-406,498,-0.987488,-6.23584,0.00822002,0.00614596,-0.00951281,0.0167522,-0.00238618,-0.731105,0.0120426,0.0436906,818,526,-0.987514,6.23585
-399,498,-0.841003,-6.51581,0.00563034,0.00407059,-0.00704356,0.0119371,-0.00223614,-0.730262,0.00879866,0.0233224,825,526,-0.841011,6.51583
-392,498,-0.871704,-6.83136,0.00386877,0.00237973,-0.00514635,0.00832418,-0.00207568,-0.713562,0.00635536,0.0108155,832,526,-0.871681,6.83138
-385,498,-0.908569,-7.1134,0.00272074,0.00126458,-0.00376962,0.00583195,-0.00184663,-0.690001,0.00462799,0.00791179,839,526,-0.908552,7.11338
-378,498,-0.922058,-7.38715,0.00187016,0.000531383,-0.00264081,0.0039251,-0.00152355,-0.661273,0.00324604,0.0102976,846,526,-0.922033,7.38714
-371,498,-0.903564,-7.66833,0.00130833,-0.000242394,-0.00176259,0.00245856,-0.00139262,-0.578187,0.00225169,0.0162845,853,526,-0.903562,7.66835
-364,498,-0.922791,-7.95093,0.00117411,-0.000375387,-0.00129251,0.00190628,-0.00110756,-0.515404,0.00176029,0.0156289,860,526,-0.922769,7.95092
-357,498,-0.934692,-8.2149,0.00120267,-0.000431029,-0.000911925,0.00161009,-0.000838456,-0.42017,0.00143688,0.0103424,867,526,-0.934713,8.2149
-350,498,-0.942688,-8.46167,0.00143748,-0.000325687,-0.000801014,0.00174703,-0.000635243,-0.368776,0.00142446,0.011039,874,526,-0.942689,8.46164
-343,498,-0.943787,-8.73389,0.00180436,-0.0001879,-0.000781276,0.00207419,-0.000457735,-0.332551,0.00155795,0.0115132,881,526,-0.943759,8.73388
-336,498,-0.947693,-9.00275,0.00226488,-3.78231e-05,-0.000794141,0.0025122,-0.000285139,-0.301906,0.00177748,0.0141631,888,526,-0.947674,9.00273
-329,498,-0.955078,-9.22955,0.00285572,0.000153352,-0.000961941,0.00316316,-0.000154086,-0.309342,0.00216197,0.0187576,895,526,-0.955082,9.22956
-322,498,-0.968201,-9.48846,0.0034823,0.000392565,-0.00119413,0.00389001,-1.5147e-05,-0.32902,0.00259841,0.0193742,902,526,-0.968176,9.48844
-315,498,-0.951111,-9.75195,0.0123615,0.00323154,-0.00719542,0.0163179,-0.000724804,-0.502722,0.0111281,0.0164901,909,526,-0.951116,9.75195
-308,498,-0.918579,-10.0077,0.0197692,0.00534984,-0.0119744,0.0265369,-0.00141778,-0.514419,0.0181823,0.0194954,916,526,-0.918584,10.0077
-301,498,-0.813843,-10.335,0.0310574,0.00879927,-0.0196015,0.0424688,-0.00261216,-0.527208,0.0292222,0.0356829,923,526,-0.813857,10.335
-294,498,-0.715332,-10.689,0,0,0,0,0,0,0,-1,930,526,-0.715353,10.6891
-287,498,-0.57666,-10.2085,0,0,0,0,0,0,0,-1,937,526,-0.576653,10.2085
-280,498,-0.341614,-8.66608,0,0,0,0,0,0,0,-1,944,526,-0.341589,8.66606
-273,498,-0.988892,-8.62921,0,0,0,0,0,0,0,-1,951,526,-0.988906,8.62922
-266,498,0.362488,-6.33545,0,0,0,0,0,0,0,-1,958,526,0.362478,6.33547
-259,498,10.9454,-17.3615,0,0,0,0,0,0,0,-1,965,526,10.9454,17.3614
-252,498,8.56586,-14.6886,0,0,0,0,0,0,0,-1,972,526,8.56584,14.6886
-245,498,5.97382,-11.928,0,0,0,0,0,0,0,-1,979,526,5.97381,11.928
-238,498,2.24841,-13.8145,0,0,0,0,0,0,0,-1,986,526,2.24838,13.8145
-231,498,0.665894,-10.4898,0,0,0,0,0,0,0,-1,993,526,0.665863,10.4898
-224,498,-2.11243,-4.76312,0,0,0,0,0,0,0,-1,1000,526,-2.11245,4.76314
-217,498,-3.82239,-1.42841,0,0,0,0,0,0,0,-1,1007,526,-3.82241,1.42843
-210,498,-1.80591,-0.358215,0,0,0,0,0,0,0,-1,1014,526,-1.8059,0.3582
-203,498,-3.17316,1.06641,0,0,0,0,0,0,0,-1,1021,526,-3.17313,-1.0664
-196,498,-0.103271,5.40527,0,0,0,0,0,0,0,-1,1028,526,-0.103285,-5.40528
-189,498,3.00256,6.47137,0,0,0,0,0,0,0,-1,1035,526,3.00256,-6.47139
-182,498,0,0,0,0,0,0,0,0,0,-1,1042,526,0,0
-175,498,0,0,0,0,0,0,0,0,0,-1,1049,526,0,0
-168,498,0,0,0,0,0,0,0,0,0,-1,1056,526,0,0
-161,498,0,0,0,0,0,0,0,0,0,-1,1063,526,0,0
-154,498,0,0,0,0,0,0,0,0,0,-1,1070,526,0,0
-147,498,0,0,0,0,0,0,0,0,0,-1,1077,526,0,0
-140,498,0,0,0,0,0,0,0,0,0,-1,1084,526,0,0
-133,498,0,0,0,0,0,0,0,0,0,-1,1091,526,0,0
-126,498,0,0,0,0,0,0,0,0,0,-1,1098,526,0,0
-119,498,0,0,0,0,0,0,0,0,0,-1,1105,526,0,0
-112,498,0,0,0,0,0,0,0,0,0,-1,1112,526,0,0
-105,498,0,0,0,0,0,0,0,0,0,-1,1119,526,0,0
-98,498,0,0,0,0,0,0,0,0,0,-1,1126,526,0,0
-91,498,0,0,0,0,0,0,0,0,0,-1,1133,526,0,0
-84,498,0,0,0,0,0,0,0,0,0,-1,1140,526,0,0
-77,498,0,0,0,0,0,0,0,0,0,-1,1147,526,0,0
-70,498,0,0,0,0,0,0,0,0,0,-1,1154,526,0,0
-63,498,0,0,0,0,0,0,0,0,0,-1,1161,526,0,0
-56,498,0,0,0,0,0,0,0,0,0,-1,1168,526,0,0
-49,498,0,0,0,0,0,0,0,0,0,-1,1175,526,0,0
-42,498,0,0,0,0,0,0,0,0,0,-1,1182,526,0,0
-35,498,0,0,0,0,0,0,0,0,0,-1,1189,526,0,0
-28,498,0,0,0,0,0,0,0,0,0,-1,1196,526,0,0
-21,498,0,0,0,0,0,0,0,0,0,-1,1203,526,0,0
-14,498,0,0,0,0,0,0,0,0,0,-1,1210,526,0,0
-7,498,0,0,0,0,0,0,0,0,0,-1,1217,526,0,0
0,498,0,0,0,0,0,0,0,0,0,-1,1224,526,0,0
7,498,0,0,0,0,0,0,0,0,0,-1,1231,526,0,0
14,498,0,0,0,0,0,0,0,0,0,-1,1238,526,0,0
21,498,0,0,0,0,0,0,0,0,0,-1,1245,526,0,0
28,498,0,0,0,0,0,0,0,0,0,-1,1252,526,0,0
35,498,0,0,0,0,0,0,0,0,0,-1,1259,526,0,0
42,498,0,0,0,0,0,0,0,0,0,-1,1266,526,0,0
49,498,0,0,0,0,0,0,0,0,0,-1,1273,526,0,0
56,498,0,0,0,0,0,0,0,0,0,-1,1280,526,0,0
63,498,0,0,0,0,0,0,0,0,0,-1,1287,526,0,0
70,498,0,0,0,0,0,0,0,0,0,-1,1294,526,0,0
77,498,0,0,0,0,0,0,0,0,0,-1,1301,526,0,0
84,498,0,0,0,0,0,0,0,0,0,-1,1308,526,0,0
91,498,0,0,0,0,0,0,0,0,0,-1,1315,526,0,0
98,498,0,0,0,0,0,0,0,0,0,-1,1322,526,0,0
105,498,0,0,0,0,0,0,0,0,0,-1,1329,526,0,0
112,498,0,0,0,0,0,0,0,0,0,-1,1336,526,0,0
119,498,0,0,0,0,0,0,0,0,0,-1,1343,526,0,0
126,498,0,0,0,0,0,0,0,0,0,-1,1350,526,0,0
133,498,0,0,0,0,0,0,0,0,0,-1,1357,526,0,0
140,498,0,0,0,0,0,0,0,0,0,-1,1364,526,0,0
147,498,0,0,0,0,0,0,0,0,0,-1,1371,526,0,0
154,498,0,0,0,0,0,0,0,0,0,-1,1378,526,0,0
161,498,0,0,0,0,0,0,0,0,0,-1,1385,526,0,0
168,498,0,0,0,0,0,0,0,0,0,-1,1392,526,0,0
175,498,0,0,0,0,0,0,0,0,0,-1,1399,526,0,0
182,498,0,0,0,0,0,0,0,0,0,-1,1406,526,0,0
189,498,0,0,0,0,0,0,0,0,0,-1,1413,526,0,0
196,498,0,0,0,0,0,0,0,0,0,-1,1420,526,0,0
203,498,0,0,0,0,0,0,0,0,0,-1,1427,526,0,0
210,498,0,0,0,0,0,0,0,0,0,-1,1434,526,0,0
217,498,0,0,0,0,0,0,0,0,0,-1,1441,526,0,0
224,498,0,0,0,0,0,0,0,0,0,-1,1448,526,0,0
231,498,0,0,0,0,0,0,0,0,0,-1,1455,526,0,0
238,498,0,0,0,0,0,0,0,0,0,-1,1462,526,0,0
245,498,0,0,0,0,0,0,0,0,0,-1,1469,526,0,0
252,498,0,0,0,0,0,0,0,0,0,-1,1476,526,0,0
259,498,0,0,0,0,0,0,0,0,0,-1,1483,526,0,0
266,498,0,0,0,0,0,0,0,0,0,-1,1490,526,0,0
273,498,0,0,0,0,0,0,0,0,0,-1,1497,526,0,0
280,498,0,0,0,0,0,0,0,0,0,-1,1504,526,0,0
287,498,0,0,0,0,0,0,0,0,0,-1,1511,526,0,0
294,498,0,0,0,0,0,0,0,0,0,-1,1518,526,0,0
301,498,0,0,0,0,0,0,0,0,0,-1,1525,526,0,0
308,498,4.77942,-0.293884,0,0,0,0,0,0,0,-1,1532,526,4.77939,0.293899
315,498,4.56091,-0.564148,0,0,0,0,0,0,0,-1,1539,526,4.56097,0.564142
322,498,4.52344,-0.447266,0,0,0,0,0,0,0,-1,1546,526,4.52341,0.447295
329,498,4.63232,-0.156982,0,0,0,0,0,0,0,-1,1553,526,4.63238,0.156991
336,498,5.22644,0.0925903,0,0,0,0,0,0,0,-1,1560,526,5.22648,-0.0926188
343,498,6.22607,-1.67615,0,0,0,0,0,0,0,-1,1567,526,6.22605,1.67617
350,498,6.19373,-1.59906,0,0,0,0,0,0,0,-1,1574,526,6.19367,1.59906
357,498,6.21472,-1.58929,0,0,0,0,0,0,0,-1,1581,526,6.21476,1.58927
364,498,5.73547,-1.2019,0,0,0,0,0,0,0,-1,1588,526,5.73547,1.20192
371,498,3.27087,-4.55334,0,0,0,0,0,0,0,-1,1595,526,3.27089,4.55332
378,498,8.42944,-4.70624,0,0,0,0,0,0,0,-1,1602,526,8.42942,4.70624
385,498,4.7793,-5.15314,0,0,0,0,0,0,0,-1,1609,526,4.77935,5.15311
392,498,9.12439,-8.57953,0,0,0,0,0,0,0,-1,1616,526,9.12443,8.57955
399,498,9.32129,-9.47589,0,0,0,0,0,0,0,-1,1623,526,9.32124,9.47587
406,498,8.60095,-9.26538,0,0,0,0,0,0,0,-1,1630,526,8.60093,9.26538
413,498,7.88062,-9.05487,0,0,0,0,0,0,0,-1,1637,526,7.88062,9.05489
420,498,7.16223,-9.40918,0,0,0,0,0,0,0,-1,1644,526,7.16228,9.40917
427,498,7.05432,-8.94678,-0.00738052,-0.00242979,-0.00855451,0.0040003,-0.0138106,-0.926233,0.0107906,0.0415332,1651,526,7.05427,8.94678
434,498,6.92639,-8.70966,-0.00578771,-0.00163765,-0.00670879,0.00330969,-0.0107351,-0.935381,0.00847808,0.0184786,1658,526,6.92638,8.70968
441,498,6.86694,-8.43781,-0.00434301,-0.00102333,-0.0051511,0.00272875,-0.00809509,-0.94126,0.00650012,0.00998536,1665,526,6.86693,8.43783
448,498,6.88416,-8.17328,-0.00305938,-0.000568518,-0.00385939,0.00224141,-0.00586931,-0.941474,0.00483636,0.00968018,1672,526,6.88414,8.17329
455,498,6.88086,-7.89722,-0.00192446,-0.000179936,-0.00273844,0.00182181,-0.0039262,-0.93958,0.00339194,0.0134848,1679,526,6.88082,7.89724
462,498,6.86792,-7.62714,-0.000884663,0.000113001,-0.0016512,0.00133908,-0.00211074,-0.93209,0.00200829,0.0150221,1686,526,6.86795,7.62716
469,498,6.84814,-7.34888,-0.00020324,-6.91356e-05,-0.00108669,0.000952565,-0.00122494,-0.816211,0.00126046,0.0127416,1693,526,6.8481,7.3489
476,498,6.84058,-7.05695,0.000183546,-0.000445289,-0.00072823,0.000662336,-0.000924079,-0.581609,0.000920063,0.00996585,1700,526,6.84058,7.05692
483,498,6.84912,-6.75635,0.00030777,-0.000769038,-0.000605334,0.000579495,-0.00104076,-0.421925,0.000948007,0.00812045,1707,526,6.84917,6.75634
490,498,6.85266,-6.48523,0.000249839,-0.0013623,-0.000595738,0.000446093,-0.00155856,-0.318232,0.00121534,0.00986139,1714,526,6.85261,6.48524
497,498,6.85986,-6.19788,-0.00013057,-0.00210298,-0.000825941,0.000169607,-0.00240316,-0.348594,0.00166153,0.0115842,1721,526,6.85991,6.1979
504,498,6.85046,-5.90131,-0.000669128,-0.00283079,-0.00116011,-0.000164384,-0.00333554,-0.41038,0.00217097,0.0146106,1728,526,6.85046,5.90131
511,498,6.85022,-5.61414,-0.00145505,-0.00345397,-0.00163479,-0.000538409,-0.00437062,-0.511029,0.00275189,0.0162468,1735,526,6.85024,5.61413
518,498,6.8894,-5.30469,-0.00242796,-0.0039943,-0.00219219,-0.000883246,-0.00553901,-0.613836,0.0034363,0.0176318,1742,526,6.88946,5.30468
525,498,6.77563,-5.00946,-0.00349051,-0.00432783,-0.00272152,-0.00115564,-0.0066627,-0.709079,0.00411109,0.0294308,1749,526,6.77564,5.00946
532,498,6.61426,-4.83405,-0.0045255,-0.0042924,-0.00310597,-0.0013008,-0.0075171,-0.804152,0.004639,0.0444362,1756,526,6.61423,4.83406
539,498,6.65051,-4.49054,0,0,0,0,0,0,0,-1,1763,526,6.65047,4.49053
546,498,6.90845,-3.96759,0,0,0,0,0,0,0,-1,1770,526,6.9085,3.96757
553,498,5.93958,-1.71448,0,0,0,0,0,0,0,-1,1777,526,5.93956,1.71447
560,498,3.69385,-0.615112,0,0,0,0,0,0,0,-1,1784,526,3.69381,0.615118
567,498,5.12695,-0.581604,0,0,0,0,0,0,0,-1,1791,526,5.12699,0.58159
574,498,3.88,0.0286255,0,0,0,0,0,0,0,-1,1798,526,3.87999,-0.0286535
581,498,10.8722,2.58551,0,0,0,0,0,0,0,-1,1805,526,10.8723,-2.58551
588,498,0,0,0,0,0,0,0,0,0,-1,1812,526,0,0
595,498,0,0,0,0,0,0,0,0,0,-1,1819,526,0,0
602,498,0,0,0,0,0,0,0,0,0,-1,1826,526,0,0
609,498,0,0,0,0,0,0,0,0,0,-1,1833,526,0,0
616,498,0,0,0,0,0,0,0,0,0,-1,1840,526,0,0
623,498,0,0,0,0,0,0,0,0,0,-1,1847,526,0,0
630,498,0,0,0,0,0,0,0,0,0,-1,1854,526,0,0
637,498,0,0,0,0,0,0,0,0,0,-1,1861,526,0,0
644,498,0,0,0,0,0,0,0,0,0,-1,1868,526,0,0
651,498,0,0,0,0,0,0,0,0,0,-1,1875,526,0,0
658,498,0,0,0,0,0,0,0,0,0,-1,1882,526,0,0
665,498,0,0,0,0,0,0,0,0,0,-1,1889,526,0,0
672,498,0,0,0,0,0,0,0,0,0,-1,1896,526,0,0
679,498,0,0,0,0,0,0,0,0,0,-1,1903,526,0,0
686,498,0,0,0,0,0,0,0,0,0,-1,1910,526,0,0
693,498,0,0,0,0,0,0,0,0,0,-1,1917,526,0,0
700,498,0,0,0,0,0,0,0,0,0,-1,1924,526,0,0
707,498,0,0,0,0,0,0,0,0,0,-1,1931,526,0,0
714,498,0,0,0,0,0,0,0,0,0,-1,1938,526,0,0
721,498,0,0,0,0,0,0,0,0,0,-1,1945,526,0,0
728,498,0,0,0,0,0,0,0,0,0,-1,1952,526,0,0
735,498,0,0,0,0,0,0,0,0,0,-1,1959,526,0,0
742,498,0,0,0,0,0,0,0,0,0,-1,1966,526,0,0
749,498,0,0,0,0,0,0,0,0,0,-1,1973,526,0,0
756,498,0,0,0,0,0,0,0,0,0,-1,1980,526,0,0
763,498,0,0,0,0,0,0,0,0,0,-1,1987,526,0,0
770,498,0,0,0,0,0,0,0,0,0,-1,1994,526,0,0
777,498,0,0,0,0,0,0,0,0,0,-1,2001,526,0,0
784,498,0,0,0,0,0,0,0,0,0,-1,2008,526,0,0
791,498,0,0,0,0,0,0,0,0,0,-1,2015,526,0,0
798,498,0,0,0,0,0,0,0,0,0,-1,2022,526,0,0
805,498,0,0,0,0,0,0,0,0,0,-1,2029,526,0,0
812,498,0,0,0,0,0,0,0,0,0,-1,2036,526,0,0
-700,491,0,0,0,0,0,0,0,0,0,-1,524,533,0,0
-693,491,0,0,0,0,0,0,0,0,0,-1,531,533,0,0
-686,491,0,0,0,0,0,0,0,0,0,-1,538,533,0,0
-679,491,0,0,0,0,0,0,0,0,0,-1,545,533,0,0
-672,491,0,0,0,0,0,0,0,0,0,-1,552,533,0,0
-665,491,0,0,0,0,0,0,0,0,0,-1,559,533,0,0
-658,491,0,0,0,0,0,0,0,0,0,-1,566,533,0,0
-651,491,0,0,0,0,0,0,0,0,0,-1,573,533,0,0
-644,491,0,0,0,0,0,0,0,0,0,-1,580,533,0,0
-637,491,0,0,0,0,0,0,0,0,0,-1,587,533,0,0
-630,491,0,0,0,0,0,0,0,0,0,-1,594,533,0,0
-623,491,0,0,0,0,0,0,0,0,0,-1,601,533,0,0
-616,491,0,0,0,0,0,0,0,0,0,-1,608,533,0,0
-609,491,0,0,0,0,0,0,0,0,0,-1,615,533,0,0
-602,491,0,0,0,0,0,0,0,0,0,-1,622,533,0,0
-595,491,0,0,0,0,0,0,0,0,0,-1,629,533,0,0
-588,491,0,0,0,0,0,0,0,0,0,-1,636,533,0,0
-581,491,0,0,0,0,0,0,0,0,0,-1,643,533,0,0
-574,491,0,0,0,0,0,0,0,0,0,-1,650,533,0,0
-567,491,0,0,0,0,0,0,0,0,0,-1,657,533,0,0
-560,491,0,0,0,0,0,0,0,0,0,-1,664,533,0,0
-553,491,0,0,0,0,0,0,0,0,0,-1,671,533,0,0
-546,491,0,0,0,0,0,0,0,0,0,-1,678,533,0,0
-539,491,0,0,0,0,0,0,0,0,0,-1,685,533,0,0
-532,491,0,0,0,0,0,0,0,0,0,-1,692,533,0,0
-525,491,0,0,0,0,0,0,0,0,0,-1,699,533,0,0
-518,491,0,0,0,0,0,0,0,0,0,-1,706,533,0,0
-511,491,0,0,0,0,0,0,0,0,0,-1,713,533,0,0
-504,491,0,0,0,0,0,0,0,0,0,-1,720,533,0,0
-497,491,0,0,0,0,0,0,0,0,0,-1,727,533,0,0
-490,491,0,0,0,0,0,0,0,0,0,-1,734,533,0,0
-483,491,0,0,0,0,0,0,0,0,0,-1,741,533,0,0
-476,491,0,0,0,0,0,0,0,0,0,-1,748,533,0,0
-469,491,-5.85913,4.55011,0,0,0,0,0,0,0,-1,755,533,-5.8591,-4.55009
-462,491,-9.93713,4.90381,0,0,0,0,0,0,0,-1,762,533,-9.93716,-4.9038
-455,491,4.79871,0.433533,0,0,0,0,0,0,0,-1,769,533,4.7987,-0.433547
-448,491,4.26001,-1.09589,0,0,0,0,0,0,0,-1,776,533,4.26003,1.09591
-441,491,3.82452,-2.71826,0,0,0,0,0,0,0,-1,783,533,3.82453,2.71826
-434,491,3.46295,-4.54407,0,0,0,0,0,0,0,-1,790,533,3.46295,4.5441
-427,491,-1.82361,-4.30457,0,0,0,0,0,0,0,-1,797,533,-1.82361,4.30454
-420,491,-1.67847,-5.4198,0,0,0,0,0,0,0,-1,804,533,-1.67845,5.41982
-413,491,-1.41132,-5.87463,0.00949243,0.00817389,-0.0104207,0.0192747,-0.00160834,-0.753807,0.0134181,0.0457109,811,533,-1.4113,5.87463
-406,491,-1.16235,-6.29285,0.00684057,0.00563344,-0.007823,0.0140832,-0.00160924,-0.746898,0.00996864,0.0233736,818,533,-1.16235,6.29286
-399,491,-1.14655,-6.55255,0.00480905,0.00381664,-0.00579795,0.010132,-0.0015063,-0.742711,0.00730869,0.00999107,825,533,-1.14655,6.55255
-392,491,-1.18927,-6.83954,0.00334604,0.00226802,-0.00418301,0.00702462,-0.00141056,-0.721323,0.00521722,0.00835458,832,533,-1.18929,6.83957
-385,491,-1.20111,-7.11139,0.00240547,0.00122876,-0.00301105,0.00488511,-0.00125088,-0.688914,0.00374402,0.00824249,839,533,-1.20111,7.11141
-378,491,-1.18512,-7.37714,0.00172643,0.000518444,-0.0020244,0.00323502,-0.000990147,-0.640424,0.00255159,0.0126949,846,533,-1.18514,7.37715
-371,491,-1.17377,-7.66534,0.00132672,-0.000209752,-0.00129758,0.00206643,-0.00094946,-0.51812,0.00178059,0.0143663,853,533,-1.17379,7.66537
-364,491,-1.18323,-7.94006,0.00130543,-0.000392938,-0.000907689,0.00169923,-0.00078674,-0.409344,0.00146715,0.013045,860,533,-1.18322,7.94004
-357,491,-1.20532,-8.18951,0.00147778,-0.000486887,-0.00062417,0.00165931,-0.000668412,-0.283019,0.0013839,0.0109025,867,533,-1.20531,8.18953
-350,491,-1.21564,-8.43878,0.00187676,-0.000402506,-0.000604499,0.00202716,-0.000552905,-0.243849,0.00156857,0.0147731,874,533,-1.21565,8.43879
-343,491,-1.19629,-8.73987,0.00238423,-0.000274722,-0.000661622,0.00253976,-0.000430255,-0.230886,0.00185331,0.0239928,881,533,-1.19631,8.73986
-336,491,-1.20154,-9.026,0.00298995,-0.000139128,-0.000765406,0.00316715,-0.000316321,-0.227494,0.00222438,0.0236127,888,533,-1.20151,9.02601
-329,491,-1.23236,-9.2525,0.00379865,5.41264e-05,-0.00110546,0.00410065,-0.000247873,-0.266681,0.00282002,0.0240108,895,533,-1.23235,9.25253
-322,491,-1.21686,-9.48108,0.00471543,0.000325372,-0.00152125,0.00519105,-0.000150244,-0.30302,0.00351185,0.0232278,902,533,-1.21684,9.48106
-315,491,-1.23175,-9.71313,0.0205834,0.00532624,-0.0124901,0.0275903,-0.00168063,-0.511246,0.0189786,0.021971,909,533,-1.23177,9.71314
-308,491,-1.12524,-10.1025,0,0,0,0,0,0,0,-1,916,533,-1.12527,10.1025
-301,491,-1.07129,-10.7802,0,0,0,0,0,0,0,-1,923,533,-1.07127,10.7802
-294,491,-0.777283,-8.60913,0,0,0,0,0,0,0,-1,930,533,-0.777288,8.6091
-287,491,-0.26123,-8.69055,0,0,0,0,0,0,0,-1,937,533,-0.261204,8.69053
-280,491,0.2948,-5.99219,0,0,0,0,0,0,0,-1,944,533,0.294811,5.99221
-273,491,0.369995,-5.33691,0,0,0,0,0,0,0,-1,951,533,0.369985,5.33693
-266,491,1.1167,-5.0321,0,0,0,0,0,0,0,-1,958,533,1.11668,5.0321
-259,491,12.0862,-16.9615,0,0,0,0,0,0,0,-1,965,533,12.0862,16.9615
-252,491,9.72443,-13.8417,0,0,0,0,0,0,0,-1,972,533,9.72444,13.8418
-245,491,5.27258,-14.3619,0,0,0,0,0,0,0,-1,979,533,5.27255,14.3619
-238,491,3.65381,-11.1472,0,0,0,0,0,0,0,-1,986,533,3.6538,11.1472
-231,491,2.17719,-7.86835,0,0,0,0,0,0,0,-1,993,533,2.17719,7.86832
-224,491,0.554626,-4.61725,0,0,0,0,0,0,0,-1,1000,533,0.554608,4.61727
-217,491,-2.92743,-1.0766,0,0,0,0,0,0,0,-1,1007,533,-2.92743,1.07659
-210,491,-0.92395,0.374512,0,0,0,0,0,0,0,-1,1014,533,-0.923959,-0.374531
-203,491,0.417419,4.77161,0,0,0,0,0,0,0,-1,1021,533,0.417446,-4.77162
-196,491,0,0,0,0,0,0,0,0,0,-1,1028,533,0,0
-189,491,0,0,0,0,0,0,0,0,0,-1,1035,533,0,0
-182,491,0,0,0,0,0,0,0,0,0,-1,1042,533,0,0
-175,491,0,0,0,0,0,0,0,0,0,-1,1049,533,0,0
-168,491,0,0,0,0,0,0,0,0,0,-1,1056,533,0,0
-161,491,0,0,0,0,0,0,0,0,0,-1,1063,533,0,0
-154,491,0,0,0,0,0,0,0,0,0,-1,1070,533,0,0
-147,491,0,0,0,0,0,0,0,0,0,-1,1077,533,0,0
-140,491,0,0,0,0,0,0,0,0,0,-1,1084,533,0,0
-133,491,0,0,0,0,0,0,0,0,0,-1,1091,533,0,0
-126,491,0,0,0,0,0,0,0,0,0,-1,1098,533,0,0
-119,491,0,0,0,0,0,0,0,0,0,-1,1105,533,0,0
-112,491,0,0,0,0,0,0,0,0,0,-1,1112,533,0,0
-105,491,0,0,0,0,0,0,0,0,0,-1,1119,533,0,0
-98,491,0,0,0,0,0,0,0,0,0,-1,1126,533,0,0
-91,491,0,0,0,0,0,0,0,0,0,-1,1133,533,0,0
-84,491,0,0,0,0,0,0,0,0,0,-1,1140,533,0,0
-77,491,0,0,0,0,0,0,0,0,0,-1,1147,533,0,0
-70,491,0,0,0,0,0,0,0,0,0,-1,1154,533,0,0
-63,491,0,0,0,0,0,0,0,0,0,-1,1161,533,0,0
-56,491,0,0,0,0,0,0,0,0,0,-1,1168,533,0,0
-49,491,0,0,0,0,0,0,0,0,0,-1,1175,533,0,0
-42,491,0,0,0,0,0,0,0,0,0,-1,1182,533,0,0
-35,491,0,0,0,0,0,0,0,0,0,-1,1189,533,0,0
-28,491,0,0,0,0,0,0,0,0,0,-1,1196,533,0,0
-21,491,0,0,0,0,0,0,0,0,0,-1,1203,533,0,0
-14,491,0,0,0,0,0,0,0,0,0,-1,1210,533,0,0
-7,491,0,0,0,0,0,0,0,0,0,-1,1217,533,0,0
0,491,0,0,0,0,0,0,0,0,0,-1,1224,533,0,0
7,491,0,0,0,0,0,0,0,0,0,-1,1231,533,0,0
14,491,0,0,0,0,0,0,0,0,0,-1,1238,533,0,0
21,491,0,0,0,0,0,0,0,0,0,-1,1245,533,0,0
28,491,0,0,0,0,0,0,0,0,0,-1,1252,533,0,0
35,491,0,0,0,0,0,0,0,0,0,-1,1259,533,0,0
42,491,0,0,0,0,0,0,0,0,0,-1,1266,533,0,0
49,491,0,0,0,0,0,0,0,0,0,-1,1273,533,0,0
56,491,0,0,0,0,0,0,0,0,0,-1,1280,533,0,0
63,491,0,0,0,0,0,0,0,0,0,-1,1287,533,0,0
70,491,0,0,0,0,0,0,0,0,0,-1,1294,533,0,0
77,491,0,0,0,0,0,0,0,0,0,-1,1301,533,0,0
84,491,0,0,0,0,0,0,0,0,0,-1,1308,533,0,0
91,491,0,0,0,0,0,0,0,0,0,-1,1315,533,0,0
98,491,0,0,0,0,0,0,0,0,0,-1,1322,533,0,0
105,491,0,0,0,0,0,0,0,0,0,-1,1329,533,0,0
112,491,0,0,0,0,0,0,0,0,0,-1,1336,533,0,0
119,491,0,0,0,0,0,0,0,0,0,-1,1343,533,0,0
126,491,0,0,0,0,0,0,0,0,0,-1,1350,533,0,0
133,491,0,0,0,0,0,0,0,0,0,-1,1357,533,0,0
140,491,0,0,0,0,0,0,0,0,0,-1,1364,533,0,0
147,491,0,0,0,0,0,0,0,0,0,-1,1371,533,0,0
154,491,0,0,0,0,0,0,0,0,0,-1,1378,533,0,0
161,491,0,0,0,0,0,0,0,0,0,-1,1385,533,0,0
168,491,0,0,0,0,0,0,0,0,0,-1,1392,533,0,0
175,491,0,0,0,0,0,0,0,0,0,-1,1399,533,0,0
182,491,0,0,0,0,0,0,0,0,0,-1,1406,533,0,0
189,491,0,0,0,0,0,0,0,0,0,-1,1413,533,0,0
196,491,0,0,0,0,0,0,0,0,0,-1,1420,533,0,0
203,491,0,0,0,0,0,0,0,0,0,-1,1427,533,0,0
210,491,0,0,0,0,0,0,0,0,0,-1,1434,533,0,0
217,491,0,0,0,0,0,0,0,0,0,-1,1441,533,0,0
224,491,0,0,0,0,0,0,0,0,0,-1,1448,533,0,0
231,491,0,0,0,0,0,0,0,0,0,-1,1455,533,0,0
238,491,0,0,0,0,0,0,0,0,0,-1,1462,533,0,0
245,491,0,0,0,0,0,0,0,0,0,-1,1469,533,0,0
252,491,0,0,0,0,0,0,0,0,0,-1,1476,533,0,0
259,491,0,0,0,0,0,0,0,0,0,-1,1483,533,0,0
266,491,0,0,0,0,0,0,0,0,0,-1,1490,533,0,0
273,491,0,0,0,0,0,0,0,0,0,-1,1497,533,0,0
280,491,0,0,0,0,0,0,0,0,0,-1,1504,533,0,0
287,491,0,0,0,0,0,0,0,0,0,-1,1511,533,0,0
294,491,0,0,0,0,0,0,0,0,0,-1,1518,533,0,0
301,491,0,0,0,0,0,0,0,0,0,-1,1525,533,0,0
308,491,0,0,0,0,0,0,0,0,0,-1,1532,533,0,0
315,491,0,0,0,0,0,0,0,0,0,-1,1539,533,0,0
322,491,4.26331,-0.734314,0,0,0,0,0,0,0,-1,1546,533,4.26326,0.734324
329,491,4.25354,-0.783752,0,0,0,0,0,0,0,-1,1553,533,4.25359,0.783734
336,491,4.81604,-0.722107,0,0,0,0,0,0,0,-1,1560,533,4.81605,0.722115
343,491,6.14478,-1.44281,0,0,0,0,0,0,0,-1,1567,533,6.14474,1.44281
350,491,6.36353,-1.30792,0,0,0,0,0,0,0,-1,1574,533,6.36352,1.3079
357,491,6.69482,-1.06018,0,0,0,0,0,0,0,-1,1581,533,6.69489,1.06018
364,491,8.01086,-1.69604,0,0,0,0,0,0,0,-1,1588,533,8.01087,1.69607
371,491,8.2135,-0.539307,0,0,0,0,0,0,0,-1,1595,533,8.21348,0.53929
378,491,13.3589,2.17267,0,0,0,0,0,0,0,-1,1602,533,13.3589,-2.17264
385,491,8.08228,-4.95471,0,0,0,0,0,0,0,-1,1609,533,8.08227,4.95474
392,491,2.88721,-4.30988,0,0,0,0,0,0,0,-1,1616,533,2.88716,4.30986
399,491,8.95862,-8.55518,0,0,0,0,0,0,0,-1,1623,533,8.95864,8.55516
406,491,9.57178,-9.04828,0,0,0,0,0,0,0,-1,1630,533,9.57176,9.04829
413,491,5.31848,-3.7124,0,0,0,0,0,0,0,-1,1637,533,5.31849,3.7124
420,491,4.86389,-3.95892,0,0,0,0,0,0,0,-1,1644,533,4.86387,3.95893
427,491,7.57703,-8.70203,0,0,0,0,0,0,0,-1,1651,533,7.57702,8.70203
434,491,7.42554,-8.50012,-0.00756479,-0.00231893,-0.00864861,0.00409574,-0.0139795,-0.932629,0.0109434,0.0455482,1658,533,7.4256,8.50015
441,491,7.18604,-8.44464,-0.00558996,-0.00134783,-0.00658154,0.00344598,-0.0103838,-0.941281,0.00831277,0.0229731,1665,533,7.18602,8.44466
448,491,7.16272,-8.17706,-0.00391601,-0.000573432,-0.0049167,0.00294827,-0.00743771,-0.949232,0.00618026,0.0122843,1672,533,7.16272,8.17705
455,491,7.1543,-7.8949,-0.00246313,3.72402e-05,-0.00350599,0.00250928,-0.00493517,-0.956663,0.00437346,0.0117621,1679,533,7.15424,7.89487
462,491,7.14954,-7.61554,-0.00117833,0.000608837,-0.00210098,0.00199837,-0.00256786,-0.986468,0.00264314,0.0152521,1686,533,7.14954,7.61554
469,491,7.13477,-7.33759,-0.000325583,0.000681119,-0.00129178,0.00156415,-0.00120861,-0.971178,0.00160524,0.0143743,1693,533,7.13482,7.33761
476,491,7.13916,-7.05145,0.000206699,0.000460158,-0.00075381,0.00109782,-0.000430959,-0.868679,0.0009102,0.0101154,1700,533,7.13915,7.05148
483,491,7.14111,-6.75116,0.000473886,0.000246534,-0.000443697,0.000818237,-9.7817e-05,-0.659994,0.000580849,0.0114751,1707,533,7.14117,6.75115
490,491,7.14331,-6.47681,0.000516694,-0.000157411,-0.000279268,0.000617357,-0.000258074,-0.345957,0.000519425,0.0102808,1714,533,7.14326,6.47678
497,491,7.15112,-6.20013,0.000196995,-0.000773302,-0.000403939,0.000343143,-0.00091945,-0.347155,0.000753846,0.0114207,1721,533,7.15114,6.20012
504,491,7.15601,-5.909,-0.000294699,-0.00134316,-0.000628792,-2.73169e-07,-0.00163758,-0.437919,0.00109163,0.0133886,1728,533,7.15598,5.90901
511,491,7.14917,-5.62097,-0.000994548,-0.00180189,-0.00095158,-0.000364558,-0.00243188,-0.584798,0.00151443,0.0120579,1735,533,7.14923,5.62095
518,491,7.13672,-5.31519,-0.00186544,-0.00224253,-0.00138465,-0.000656552,-0.00345142,-0.717731,0.00211632,0.00918914,1742,533,7.13671,5.31522
525,491,7.14465,-4.99988,-0.0027854,-0.00250139,-0.00180127,-0.000836535,-0.00445025,-0.824735,0.00273103,0.00935178,1749,533,7.1446,4.99991
532,491,7.16858,-4.74335,-0.00366077,-0.00241327,-0.00207472,-0.000870561,-0.00520347,-0.931421,0.00321829,0.0202793,1756,533,7.16861,4.74334
539,491,7.07629,-4.51721,-0.00432842,-0.00185032,-0.00206591,-0.000680383,-0.00549836,-1.05552,0.00346114,0.0298795,1763,533,7.07632,4.51719
546,491,7.01733,-4.02832,-0.00474612,-0.000925876,-0.00177491,-0.00022853,-0.00544346,-1.19643,0.00355525,0.0400875,1770,533,7.01732,4.02834
553,491,6.99792,-3.49329,0,0,0,0,0,0,0,-1,1777,533,6.99792,3.49329
560,491,6.28455,-1.43585,0,0,0,0,0,0,0,-1,1784,533,6.28458,1.43586
567,491,5.67651,-1.3562,0,0,0,0,0,0,0,-1,1791,533,5.67649,1.3562
574,491,8.0719,1.58325,0,0,0,0,0,0,0,-1,1798,533,8.07195,-1.58326
581,491,9.44812,1.60931,0,0,0,0,0,0,0,-1,1805,533,9.44808,-1.60933
588,491,11.0497,1.54962,0,0,0,0,0,0,0,-1,1812,533,11.0496,-1.54963
595,491,0,0,0,0,0,0,0,0,0,-1,1819,533,0,0
602,491,0,0,0,0,0,0,0,0,0,-1,1826,533,0,0
609,491,0,0,0,0,0,0,0,0,0,-1,1833,533,0,0
616,491,0,0,0,0,0,0,0,0,0,-1,1840,533,0,0
623,491,0,0,0,0,0,0,0,0,0,-1,1847,533,0,0
630,491,0,0,0,0,0,0,0,0,0,-1,1854,533,0,0
637,491,0,0,0,0,0,0,0,0,0,-1,1861,533,0,0
644,491,0,0,0,0,0,0,0,0,0,-1,1868,533,0,0
651,491,0,0,0,0,0,0,0,0,0,-1,1875,533,0,0
658,491,0,0,0,0,0,0,0,0,0,-1,1882,533,0,0
665,491,0,0,0,0,0,0,0,0,0,-1,1889,533,0,0
672,491,0,0,0,0,0,0,0,0,0,-1,1896,533,0,0
679,491,0,0,0,0,0,0,0,0,0,-1,1903,533,0,0
686,491,0,0,0,0,0,0,0,0,0,-1,1910,533,0,0
693,491,0,0,0,0,0,0,0,0,0,-1,1917,533,0,0
700,491,0,0,0,0,0,0,0,0,0,-1,1924,533,0,0
707,491,0,0,0,0,0,0,0,0,0,-1,1931,533,0,0
714,491,0,0,0,0,0,0,0,0,0,-1,1938,533,0,0
721,491,0,0,0,0,0,0,0,0,0,-1,1945,533,0,0
728,491,0,0,0,0,0,0,0,0,0,-1,1952,533,0,0
735,491,0,0,0,0,0,0,0,0,0,-1,1959,533,0,0
742,491,0,0,0,0,0,0,0,0,0,-1,1966,533,0,0
749,491,0,0,0,0,0,0,0,0,0,-1,1973,533,0,0
756,491,0,0,0,0,0,0,0,0,0,-1,1980,533,0,0
763,491,0,0,0,0,0,0,0,0,0,-1,1987,533,0,0
770,491,0,0,0,0,0,0,0,0,0,-1,1994,533,0,0
777,491,0,0,0,0,0,0,0,0,0,-1,2001,533,0,0
784,491,0,0,0,0,0,0,0,0,0,-1,2008,533,0,0
791,491,0,0,0,0,0,0,0,0,0,-1,2015,533,0,0
798,491,0,0,0,0,0,0,0,0,0,-1,2022,533,0,0
805,491,0,0,0,0,0,0,0,0,0,-1,2029,533,0,0
812,491,0,0,0,0,0,0,0,0,0,-1,2036,533,0,0
-700,484,0,0,0,0,0,0,0,0,0,-1,524,540,0,0
-693,484,0,0,0,0,0,0,0,0,0,-1,531,540,0,0
-686,484,0,0,0,0,0,0,0,0,0,-1,538,540,0,0
-679,484,0,0,0,0,0,0,0,0,0,-1,545,540,0,0
-672,484,0,0,0,0,0,0,0,0,0,-1,552,540,0,0
-665,484,0,0,0,0,0,0,0,0,0,-1,559,540,0,0
-658,484,0,0,0,0,0,0,0,0,0,-1,566,540,0,0
-651,484,0,0,0,0,0,0,0,0,0,-1,573,540,0,0
-644,484,0,0,0,0,0,0,0,0,0,-1,580,540,0,0
-637,484,0,0,0,0,0,0,0,0,0,-1,587,540,0,0
-630,484,0,0,0,0,0,0,0,0,0,-1,594,540,0,0
-623,484,0,0,0,0,0,0,0,0,0,-1,601,540,0,0
-616,484,0,0,0,0,0,0,0,0,0,-1,608,540,0,0
-609,484,0,0,0,0,0,0,0,0,0,-1,615,540,0,0
-602,484,0,0,0,0,0,0,0,0,0,-1,622,540,0,0
-595,484,0,0,0,0,0,0,0,0,0,-1,629,540,0,0
-588,484,0,0,0,0,0,0,0,0,0,-1,636,540,0,0
-581,484,0,0,0,0,0,0,0,0,0,-1,643,540,0,0
-574,484,0,0,0,0,0,0,0,0,0,-1,650,540,0,0
-567,484,0,0,0,0,0,0,0,0,0,-1,657,540,0,0
-560,484,0,0,0,0,0,0,0,0,0,-1,664,540,0,0
-553,484,0,0,0,0,0,0,0,0,0,-1,671,540,0,0
-546,484,0,0,0,0,0,0,0,0,0,-1,678,540,0,0
-539,484,0,0,0,0,0,0,0,0,0,-1,685,540,0,0
-532,484,0,0,0,0,0,0,0,0,0,-1,692,540,0,0
-525,484,0,0,0,0,0,0,0,0,0,-1,699,540,0,0
-518,484,0,0,0,0,0,0,0,0,0,-1,706,540,0,0
-511,484,0,0,0,0,0,0,0,0,0,-1,713,540,0,0
-504,484,0,0,0,0,0,0,0,0,0,-1,720,540,0,0
-497,484,0,0,0,0,0,0,0,0,0,-1,727,540,0,0
-490,484,0,0,0,0,0,0,0,0,0,-1,734,540,0,0
-483,484,0,0,0,0,0,0,0,0,0,-1,741,540,0,0
-476,484,-8.46552,1.44702,0,0,0,0,0,0,0,-1,748,540,-8.46554,-1.44702
-469,484,-7.82343,1.70355,0,0,0,0,0,0,0,-1,755,540,-7.82345,-1.70355
-462,484,-8.36987,3.08612,0,0,0,0,0,0,0,-1,762,540,-8.36988,-3.0861
-455,484,-6.77197,2.07092,0,0,0,0,0,0,0,-1,769,540,-6.77197,-2.07094
-448,484,4.07648,-0.0432739,0,0,0,0,0,0,0,-1,776,540,4.07646,0.0432449
-441,484,3.6438,-2.12158,0,0,0,0,0,0,0,-1,783,540,3.64383,2.1216
-434,484,-2.12982,-4.8465,0,0,0,0,0,0,0,-1,790,540,-2.12984,4.84652
-427,484,-1.7074,-4.84491,0.0126941,0.0132236,-0.0141294,0.0270908,-0.00117306,-0.794767,0.018464,0.0493459,797,540,-1.70741,4.84491
-420,484,-1.39868,-5.58972,0.00993783,0.00987701,-0.011059,0.0209665,-0.00115166,-0.784023,0.0143769,0.0396724,804,540,-1.39868,5.58971
-413,484,-1.38068,-5.94043,0.00761186,0.00710304,-0.00846351,0.0158248,-0.00110989,-0.770373,0.0109386,0.0242964,811,540,-1.3807,5.94041
-406,484,-1.3811,-6.26599,0.00560547,0.00500761,-0.0063542,0.0116678,-0.00105469,-0.761893,0.00815285,0.0145534,818,540,-1.38108,6.26602
-399,484,-1.42877,-6.56775,0.00403447,0.00338986,-0.00466858,0.00839186,-0.000967531,-0.750934,0.00594339,0.0150517,825,540,-1.4288,6.56773
-392,484,-1.46619,-6.83319,0.00284409,0.00194838,-0.00326378,0.00569059,-0.000898124,-0.717214,0.00412582,0.0165501,832,540,-1.46617,6.83318
-385,484,-1.49255,-7.10907,0.00208299,0.000948421,-0.00223136,0.00381804,-0.000786635,-0.660919,0.00284407,0.0119489,839,540,-1.49256,7.10908
-378,484,-1.45294,-7.38275,0.00155005,0.000224477,-0.00133641,0.002379,-0.000604469,-0.555198,0.00182124,0.0130353,846,540,-1.45293,7.38277
-371,484,-1.44739,-7.65948,0.00129392,-0.000476864,-0.000711476,0.00154436,-0.000727306,-0.338458,0.00133953,0.0148127,853,540,-1.4474,7.65949
-364,484,-1.46417,-7.90869,0.00136719,-0.000733973,-0.000361322,0.00142759,-0.000794371,-0.165626,0.0013001,0.0111871,860,540,-1.46419,7.90871
-357,484,-1.48541,-8.17102,0.00166703,-0.00088096,-0.000149807,0.0016758,-0.000889737,-0.0585256,0.00150421,0.0122711,867,540,-1.48541,8.17102
-350,484,-1.48114,-8.42078,0.00221412,-0.000828795,-0.000198313,0.00222699,-0.000841665,-0.0648067,0.00183088,0.0145557,874,540,-1.48112,8.42075
-343,484,-1.49329,-8.70917,0.00284583,-0.000705994,-0.000319782,0.00287439,-0.000734555,-0.0890785,0.00220233,0.023288,881,540,-1.4933,8.70919
-336,484,-1.46497,-9.00586,0.00357531,-0.000569917,-0.000511969,0.00363761,-0.000632213,-0.121084,0.00266096,0.0265315,888,540,-1.46494,9.00588
-329,484,-1.49341,-9.2323,0.00459186,-0.000351494,-0.00103139,0.00479842,-0.000558053,-0.197658,0.00340026,0.0330308,895,540,-1.49341,9.23232
-322,484,-1.31897,-9.56775,0.00585926,1.56235e-05,-0.00168096,0.0063083,-0.000433411,-0.261035,0.00435719,0.0447938,902,540,-1.31899,9.56776
-315,484,-1.48578,-9.95251,0,0,0,0,0,0,0,-1,909,540,-1.48577,9.95251
-308,484,-1.32623,-8.9317,0,0,0,0,0,0,0,-1,916,540,-1.32626,8.93173
-301,484,-1.33453,-6.52667,0,0,0,0,0,0,0,-1,923,540,-1.33454,6.5267
-294,484,-1.61224,-8.17059,0,0,0,0,0,0,0,-1,930,540,-1.61227,8.17058
-287,484,-0.715759,-5.62103,0,0,0,0,0,0,0,-1,937,540,-0.715772,5.62105
-280,484,2.66742,-1.6795,0,0,0,0,0,0,0,-1,944,540,2.6674,1.67949
-273,484,2.53125,-2.22296,0,0,0,0,0,0,0,-1,951,540,2.53128,2.22295
-266,484,2.6778,-2.72058,0,0,0,0,0,0,0,-1,958,540,2.6778,2.72061
-259,484,2.41718,-2.59894,0,0,0,0,0,0,0,-1,965,540,2.41717,2.59892
-252,484,10.6069,-11.696,0,0,0,0,0,0,0,-1,972,540,10.6069,11.696
-245,484,6.34106,-11.6107,0,0,0,0,0,0,0,-1,979,540,6.34104,11.6107
-238,484,4.89319,-8.54059,0,0,0,0,0,0,0,-1,986,540,4.89321,8.5406
-231,484,3.47675,-5.22064,0,0,0,0,0,0,0,-1,993,540,3.47676,5.22067
-224,484,1.71344,-2.03473,0,0,0,0,0,0,0,-1,1000,540,1.71342,2.03472
-217,484,-0.745056,1.17358,0,0,0,0,0,0,0,-1,1007,540,-0.745043,-1.17359
-210,484,0,0,0,0,0,0,0,0,0,-1,1014,540,0,0
-203,484,0,0,0,0,0,0,0,0,0,-1,1021,540,0,0
-196,484,0,0,0,0,0,0,0,0,0,-1,1028,540,0,0
-189,484,0,0,0,0,0,0,0,0,0,-1,1035,540,0,0
-182,484,0,0,0,0,0,0,0,0,0,-1,1042,540,0,0
-175,484,0,0,0,0,0,0,0,0,0,-1,1049,540,0,0
-168,484,0,0,0,0,0,0,0,0,0,-1,1056,540,0,0
-161,484,0,0,0,0,0,0,0,0,0,-1,1063,540,0,0
-154,484,0,0,0,0,0,0,0,0,0,-1,1070,540,0,0
-147,484,0,0,0,0,0,0,0,0,0,-1,1077,540,0,0
-140,484,0,0,0,0,0,0,0,0,0,-1,1084,540,0,0
-133,484,0,0,0,0,0,0,0,0,0,-1,1091,540,0,0
-126,484,0,0,0,0,0,0,0,0,0,-1,1098,540,0,0
-119,484,0,0,0,0,0,0,0,0,0,-1,1105,540,0,0
-112,484,0,0,0,0,0,0,0,0,0,-1,1112,540,0,0
-105,484,0,0,0,0,0,0,0,0,0,-1,1119,540,0,0
-98,484,0,0,0,0,0,0,0,0,0,-1,1126,540,0,0
-91,484,0,0,0,0,0,0,0,0,0,-1,1133,540,0,0
-84,484,0,0,0,0,0,0,0,0,0,-1,1140,540,0,0
-77,484,0,0,0,0,0,0,0,0,0,-1,1147,540,0,0
-70,484,0,0,0,0,0,0,0,0,0,-1,1154,540,0,0
-63,484,0,0,0,0,0,0,0,0,0,-1,1161,540,0,0
-56,484,0,0,0,0,0,0,0,0,0,-1,1168,540,0,0
-49,484,0,0,0,0,0,0,0,0,0,-1,1175,540,0,0
-42,484,0,0,0,0,0,0,0,0,0,-1,1182,540,0,0
-35,484,0,0,0,0,0,0,0,0,0,-1,1189,540,0,0
-28,484,0,0,0,0,0,0,0,0,0,-1,1196,540,0,0
-21,484,0,0,0,0,0,0,0,0,0,-1,1203,540,0,0
-14,484,0,0,0,0,0,0,0,0,0,-1,1210,540,0,0
-7,484,0,0,0,0,0,0,0,0,0,-1,1217,540,0,0
0,484,0,0,0,0,0,0,0,0,0,-1,1224,540,0,0
7,484,0,0,0,0,0,0,0,0,0,-1,1231,540,0,0
14,484,0,0,0,0,0,0,0,0,0,-1,1238,540,0,0
21,484,0,0,0,0,0,0,0,0,0,-1,1245,540,0,0
28,484,0,0,0,0,0,0,0,0,0,-1,1252,540,0,0
35,484,0,0,0,0,0,0,0,0,0,-1,1259,540,0,0
42,484,0,0,0,0,0,0,0,0,0,-1,1266,540,0,0
49,484,0,0,0,0,0,0,0,0,0,-1,1273,540,0,0
56,484,0,0,0,0,0,0,0,0,0,-1,1280,540,0,0
63,484,0,0,0,0,0,0,0,0,0,-1,1287,540,0,0
70,484,0,0,0,0,0,0,0,0,0,-1,1294,540,0,0
77,484,0,0,0,0,0,0,0,0,0,-1,1301,540,0,0
84,484,0,0,0,0,0,0,0,0,0,-1,1308,540,0,0
91,484,0,0,0,0,0,0,0,0,0,-1,1315,540,0,0
98,484,0,0,0,0,0,0,0,0,0,-1,1322,540,0,0
105,484,0,0,0,0,0,0,0,0,0,-1,1329,540,0,0
112,484,0,0,0,0,0,0,0,0,0,-1,1336,540,0,0
119,484,0,0,0,0,0,0,0,0,0,-1,1343,540,0,0
126,484,0,0,0,0,0,0,0,0,0,-1,1350,540,0,0
133,484,0,0,0,0,0,0,0,0,0,-1,1357,540,0,0
140,484,0,0,0,0,0,0,0,0,0,-1,1364,540,0,0
147,484,0,0,0,0,0,0,0,0,0,-1,1371,540,0,0
154,484,0,0,0,0,0,0,0,0,0,-1,1378,540,0,0
161,484,0,0,0,0,0,0,0,0,0,-1,1385,540,0,0
168,484,0,0,0,0,0,0,0,0,0,-1,1392,540,0,0
175,484,0,0,0,0,0,0,0,0,0,-1,1399,540,0,0
182,484,0,0,0,0,0,0,0,0,0,-1,1406,540,0,0
189,484,0,0,0,0,0,0,0,0,0,-1,1413,540,0,0
196,484,0,0,0,0,0,0,0,0,0,-1,1420,540,0,0
203,484,0,0,0,0,0,0,0,0,0,-1,1427,540,0,0
210,484,0,0,0,0,0,0,0,0,0,-1,1434,540,0,0
217,484,0,0,0,0,0,0,0,0,0,-1,1441,540,0,0
224,484,0,0,0,0,0,0,0,0,0,-1,1448,540,0,0
231,484,0,0,0,0,0,0,0,0,0,-1,1455,540,0,0
238,484,0,0,0,0,0,0,0,0,0,-1,1462,540,0,0
245,484,0,0,0,0,0,0,0,0,0,-1,1469,540,0,0
252,484,0,0,0,0,0,0,0,0,0,-1,1476,540,0,0
259,484,0,0,0,0,0,0,0,0,0,-1,1483,540,0,0
266,484,0,0,0,0,0,0,0,0,0,-1,1490,540,0,0
273,484,0,0,0,0,0,0,0,0,0,-1,1497,540,0,0
280,484,0,0,0,0,0,0,0,0,0,-1,1504,540,0,0
287,484,0,0,0,0,0,0,0,0,0,-1,1511,540,0,0
294,484,0,0,0,0,0,0,0,0,0,-1,1518,540,0,0
301,484,0,0,0,0,0,0,0,0,0,-1,1525,540,0,0
308,484,0,0,0,0,0,0,0,0,0,-1,1532,540,0,0
315,484,0,0,0,0,0,0,0,0,0,-1,1539,540,0,0
322,484,0,0,0,0,0,0,0,0,0,-1,1546,540,0,0
329,484,0,0,0,0,0,0,0,0,0,-1,1553,540,0,0
336,484,4.38708,-1.64136,0,0,0,0,0,0,0,-1,1560,540,4.38704,1.64138
343,484,7.57996,-1.05457,0,0,0,0,0,0,0,-1,1567,540,7.57995,1.05454
350,484,8.10425,-1.18878,0,0,0,0,0,0,0,-1,1574,540,8.1043,1.18877
357,484,7.74902,-3.80286,0,0,0,0,0,0,0,-1,1581,540,7.74901,3.80287
364,484,6.31262,-3.87213,0,0,0,0,0,0,0,-1,1588,540,6.31263,3.87215
371,484,7.21008,0.973511,0,0,0,0,0,0,0,-1,1595,540,7.21014,-0.973541
378,484,11.0563,1.5014,0,0,0,0,0,0,0,-1,1602,540,11.0563,-1.5014
385,484,14.3469,2.5545,0,0,0,0,0,0,0,-1,1609,540,14.3469,-2.55453
392,484,7.39453,-4.95026,0,0,0,0,0,0,0,-1,1616,540,7.39448,4.95023
399,484,7.14417,-2.5639,0,0,0,0,0,0,0,-1,1623,540,7.14417,2.56391
406,484,7.88953,-2.47321,0,0,0,0,0,0,0,-1,1630,540,7.88954,2.47323
413,484,4.4895,-1.08673,0,0,0,0,0,0,0,-1,1637,540,4.48952,1.08674
420,484,4.50012,-2.11255,0,0,0,0,0,0,0,-1,1644,540,4.50012,2.11256
427,484,5.28601,-3.54053,0,0,0,0,0,0,0,-1,1651,540,5.28599,3.54051
434,484,8.05518,-8.29865,0,0,0,0,0,0,0,-1,1658,540,8.0552,8.29864
441,484,7.46741,-8.29584,0,0,0,0,0,0,0,-1,1665,540,7.4674,8.29582
448,484,7.44116,-8.08673,-0.00490831,-0.000633274,-0.00616559,0.0037548,-0.00929639,-0.952258,0.00775822,0.0395303,1672,540,7.44114,8.08672
455,484,7.42883,-7.88483,-0.00302291,0.000285221,-0.00434445,0.00327983,-0.00601752,-0.967291,0.00544484,0.0202483,1679,540,7.42879,7.88481
462,484,7.44434,-7.617,-0.00142191,0.00116619,-0.00254824,0.00273013,-0.00298585,-1.02034,0.00330122,0.0149913,1686,540,7.44428,7.61702
469,484,7.4458,-7.34271,-0.000349551,0.00149995,-0.00144287,0.00228897,-0.00113858,-1.07038,0.00201571,0.016988,1693,540,7.44583,7.3427
476,484,7.44312,-7.04205,0.00037263,0.001419,-0.000691785,0.00176316,2.8468e-05,-1.10915,0.00116607,0.0156589,1700,540,7.44314,7.04203
483,484,7.44849,-6.76477,0.000816957,0.00125721,-0.000178824,0.00132069,0.000753475,-1.22968,0.000765025,0.0125459,1707,540,7.44852,6.76475
490,484,7.45898,-6.49072,0.000974439,0.000984973,0.000125932,0.00110575,0.000853664,0.8063,0.000669156,0.0123731,1714,540,7.45896,6.49075
497,484,7.44373,-6.20911,0.000717723,0.00041597,7.94301e-05,0.000737354,0.000396339,0.242295,0.000426111,0.0134504,1721,540,7.44367,6.2091
504,484,7.44629,-5.90637,0.00026355,-8.78158e-05,-7.70656e-05,0.00027971,-0.000103976,-0.206693,0.000229135,0.0154432,1728,540,7.44624,5.90636
511,484,7.44653,-5.60291,-0.000355697,-0.000488011,-0.000293039,-0.000121441,-0.000722268,-0.674378,0.00044657,0.0166188,1735,540,7.44648,5.60292
518,484,7.40942,-5.30884,-0.0011346,-0.000926501,-0.000653786,-0.000368538,-0.00169257,-0.864312,0.0010278,0.0139902,1742,540,7.40939,5.30886
525,484,7.42163,-5.00745,-0.00194189,-0.00120431,-0.00101902,-0.000489399,-0.0026568,-0.959021,0.0016327,0.0125921,1749,540,7.42166,5.00744
532,484,7.45959,-4.70721,-0.00269842,-0.00116648,-0.00125161,-0.000465063,-0.00339984,-1.05999,0.00212854,0.0148896,1756,540,7.45963,4.70724
539,484,7.41174,-4.35931,-0.00325352,-0.00083095,-0.00126216,-0.000292873,-0.0037916,-1.16781,0.00243598,0.0229448,1763,540,7.4117,4.35932
546,484,7.28455,-4.12042,-0.00355617,-0.000154888,-0.000986733,0.000110641,-0.00382169,-1.30792,0.00258547,0.0259364,1770,540,7.28453,4.12044
553,484,7.42224,-3.67975,-0.00369209,0.000808044,-0.000540569,0.000872068,-0.00375611,-1.45291,0.00283975,0.0388736,1777,540,7.42219,3.67974
560,484,7.25928,-3.06122,0,0,0,0,0,0,0,-1,1784,540,7.25925,3.06123
567,484,7.78223,-1.38312,0,0,0,0,0,0,0,-1,1791,540,7.78224,1.38311
574,484,5.74463,1.50922,0,0,0,0,0,0,0,-1,1798,540,5.74463,-1.50924
581,484,10.34,2.9491,0,0,0,0,0,0,0,-1,1805,540,10.34,-2.94912
588,484,10.6669,2.88568,0,0,0,0,0,0,0,-1,1812,540,10.6669,-2.88567
595,484,10.7233,1.04767,0,0,0,0,0,0,0,-1,1819,540,10.7233,-1.04766
602,484,0,0,0,0,0,0,0,0,0,-1,1826,540,0,0
609,484,0,0,0,0,0,0,0,0,0,-1,1833,540,0,0
616,484,0,0,0,0,0,0,0,0,0,-1,1840,540,0,0
623,484,0,0,0,0,0,0,0,0,0,-1,1847,540,0,0
630,484,0,0,0,0,0,0,0,0,0,-1,1854,540,0,0
637,484,0,0,0,0,0,0,0,0,0,-1,1861,540,0,0
644,484,0,0,0,0,0,0,0,0,0,-1,1868,540,0,0
651,484,0,0,0,0,0,0,0,0,0,-1,1875,540,0,0
658,484,0,0,0,0,0,0,0,0,0,-1,1882,540,0,0
665,484,0,0,0,0,0,0,0,0,0,-1,1889,540,0,0
672,484,0,0,0,0,0,0,0,0,0,-1,1896,540,0,0
679,484,0,0,0,0,0,0,0,0,0,-1,1903,540,0,0
686,484,0,0,0,0,0,0,0,0,0,-1,1910,540,0,0
693,484,0,0,0,0,0,0,0,0,0,-1,1917,540,0,0
700,484,0,0,0,0,0,0,0,0,0,-1,1924,540,0,0
707,484,0,0,0,0,0,0,0,0,0,-1,1931,540,0,0
714,484,0,0,0,0,0,0,0,0,0,-1,1938,540,0,0
721,484,0,0,0,0,0,0,0,0,0,-1,1945,540,0,0
728,484,0,0,0,0,0,0,0,0,0,-1,1952,540,0,0
735,484,0,0,0,0,0,0,0,0,0,-1,1959,540,0,0
742,484,0,0,0,0,0,0,0,0,0,-1,1966,540,0,0
749,484,0,0,0,0,0,0,0,0,0,-1,1973,540,0,0
756,484,0,0,0,0,0,0,0,0,0,-1,1980,540,0,0
763,484,0,0,0,0,0,0,0,0,0,-1,1987,540,0,0
770,484,0,0,0,0,0,0,0,0,0,-1,1994,540,0,0
777,484,0,0,0,0,0,0,0,0,0,-1,2001,540,0,0
784,484,0,0,0,0,0,0,0,0,0,-1,2008,540,0,0
791,484,0,0,0,0,0,0,0,0,0,-1,2015,540,0,0
798,484,0,0,0,0,0,0,0,0,0,-1,2022,540,0,0
805,484,0,0,0,0,0,0,0,0,0,-1,2029,540,0,0
812,484,0,0,0,0,0,0,0,0,0,-1,2036,540,0,0
-700,477,0,0,0,0,0,0,0,0,0,-1,524,547,0,0
-693,477,0,0,0,0,0,0,0,0,0,-1,531,547,0,0
-686,477,0,0,0,0,0,0,0,0,0,-1,538,547,0,0
-679,477,0,0,0,0,0,0,0,0,0,-1,545,547,0,0
-672,477,0,0,0,0,0,0,0,0,0,-1,552,547,0,0
-665,477,0,0,0,0,0,0,0,0,0,-1,559,547,0,0
-658,477,0,0,0,0,0,0,0,0,0,-1,566,547,0,0
-651,477,0,0,0,0,0,0,0,0,0,-1,573,547,0,0
-644,477,0,0,0,0,0,0,0,0,0,-1,580,547,0,0
-637,477,0,0,0,0,0,0,0,0,0,-1,587,547,0,0
-630,477,0,0,0,0,0,0,0,0,0,-1,594,547,0,0
-623,477,0,0,0,0,0,0,0,0,0,-1,601,547,0,0
-616,477,0,0,0,0,0,0,0,0,0,-1,608,547,0,0
-609,477,0,0,0,0,0,0,0,0,0,-1,615,547,0,0
-602,477,0,0,0,0,0,0,0,0,0,-1,622,547,0,0
-595,477,0,0,0,0,0,0,0,0,0,-1,629,547,0,0
-588,477,0,0,0,0,0,0,0,0,0,-1,636,547,0,0
-581,477,0,0,0,0,0,0,0,0,0,-1,643,547,0,0
-574,477,0,0,0,0,0,0,0,0,0,-1,650,547,0,0
-567,477,0,0,0,0,0,0,0,0,0,-1,657,547,0,0
-560,477,0,0,0,0,0,0,0,0,0,-1,664,547,0,0
-553,477,0,0,0,0,0,0,0,0,0,-1,671,547,0,0
-546,477,0,0,0,0,0,0,0,0,0,-1,678,547,0,0
-539,477,0,0,0,0,0,0,0,0,0,-1,685,547,0,0
-532,477,0,0,0,0,0,0,0,0,0,-1,692,547,0,0
-525,477,0,0,0,0,0,0,0,0,0,-1,699,547,0,0
-518,477,0,0,0,0,0,0,0,0,0,-1,706,547,0,0
-511,477,0,0,0,0,0,0,0,0,0,-1,713,547,0,0
-504,477,0,0,0,0,0,0,0,0,0,-1,720,547,0,0
-497,477,0,0,0,0,0,0,0,0,0,-1,727,547,0,0
-490,477,0,0,0,0,0,0,0,0,0,-1,734,547,0,0
-483,477,-7.73151,-0.224182,0,0,0,0,0,0,0,-1,741,547,-7.73152,0.224176
-476,477,-6.25806,-0.310547,0,0,0,0,0,0,0,-1,748,547,-6.25804,0.310549
-469,477,-7.26617,0.525085,0,0,0,0,0,0,0,-1,755,547,-7.2662,-0.525111
-462,477,-6.65143,1.06042,0,0,0,0,0,0,0,-1,762,547,-6.65143,-1.06043
-455,477,-5.31757,0.429016,0,0,0,0,0,0,0,-1,769,547,-5.31756,-0.42902
-448,477,-3.77142,-0.38324,0,0,0,0,0,0,0,-1,776,547,-3.77141,0.38322
-441,477,-2.37549,-4.67896,0,0,0,0,0,0,0,-1,783,547,-2.37551,4.67894
-434,477,-2.01392,-5.07532,0.0117325,0.0135959,-0.0140474,0.0267425,-0.00141408,-0.818512,0.0183179,0.0471672,790,547,-2.0139,5.07533
-427,477,-1.66028,-5.39484,0.00964577,0.0106342,-0.0111948,0.0213457,-0.00106575,-0.807458,0.0145987,0.0269644,797,547,-1.66028,5.39483
-420,477,-1.69727,-5.5719,0.00785284,0.00811818,-0.0089134,0.0168999,-0.000928879,-0.79284,0.0115886,0.0220003,804,547,-1.69725,5.57189
-413,477,-1.68402,-5.92578,0.00611777,0.0059331,-0.00682343,0.0128495,-0.000798628,-0.778632,0.00884456,0.0158663,811,547,-1.684,5.92579
-406,477,-1.7041,-6.24792,0.00454198,0.00422409,-0.00505536,0.00944089,-0.000674821,-0.769683,0.0065305,0.0110716,818,547,-1.70412,6.24793
-399,477,-1.69019,-6.56482,0.00324328,0.00279076,-0.00357948,0.00660364,-0.000569607,-0.753835,0.00460406,0.0186112,825,547,-1.69016,6.56482
-392,477,-1.72626,-6.84625,0.00217552,0.00145739,-0.00228995,0.00413439,-0.000501474,-0.707631,0.00293772,0.0173387,832,547,-1.72628,6.84628
-385,477,-1.75806,-7.0838,0.00145885,0.000491997,-0.00130429,0.00236642,-0.000415571,-0.607925,0.00173283,0.0139371,839,547,-1.75805,7.08383
-378,477,-1.7384,-7.38446,0.00095792,-0.000257331,-0.000423494,0.00109094,-0.000390351,-0.304343,0.000886535,0.012314,846,547,-1.7384,7.38448
-371,477,-1.72241,-7.6391,0.000754248,-0.000939038,0.000175646,0.000772276,-0.000957066,0.10228,0.00100033,0.0124069,853,547,-1.7224,7.63912
-364,477,-1.73639,-7.88947,0.000848837,-0.00129336,0.000556365,0.000984716,-0.00142924,0.239537,0.00140155,0.0128814,860,547,-1.73641,7.88949
-357,477,-1.7486,-8.16809,0.00122217,-0.00153147,0.000759813,0.00141791,-0.00172721,0.252136,0.00181876,0.0110124,867,547,-1.74861,8.16807
-350,477,-1.75238,-8.41895,0.00188706,-0.0015718,0.000712518,0.00202808,-0.00171283,0.195402,0.00216237,0.010081,874,547,-1.75237,8.41895
-343,477,-1.72162,-8.70294,0.00263614,-0.00152521,0.000594457,0.0027194,-0.00160847,0.139145,0.00252599,0.0191083,881,547,-1.72163,8.70291
-336,477,-1.67932,-9.01111,0.00349658,-0.00146429,0.00037287,0.00352445,-0.00149216,0.0746036,0.00297451,0.0316196,888,547,-1.67935,9.0111
-329,477,-1.65308,-9.33368,0,0,0,0,0,0,0,-1,895,547,-1.65307,9.33371
-322,477,-1.59558,-9.8421,0,0,0,0,0,0,0,-1,902,547,-1.59556,9.84208
-315,477,-1.67358,-9.15253,0,0,0,0,0,0,0,-1,909,547,-1.67356,9.15253
-308,477,-1.30127,-6.55188,0,0,0,0,0,0,0,-1,916,547,-1.30128,6.55185
-301,477,-1.21185,-6.28351,0,0,0,0,0,0,0,-1,923,547,-1.21184,6.28352
-294,477,-0.352905,3.27142,0,0,0,0,0,0,0,-1,930,547,-0.35292,-3.27144
-287,477,3.54364,2.15399,0,0,0,0,0,0,0,-1,937,547,3.54362,-2.15396
-280,477,1.97308,-0.954163,0,0,0,0,0,0,0,-1,944,547,1.9731,0.954178
-273,477,2.11621,-3.76709,0,0,0,0,0,0,0,-1,951,547,2.11619,3.76706
-266,477,2.04669,-3.42389,0,0,0,0,0,0,0,-1,958,547,2.04671,3.42391
-259,477,-1.33478,-3.41205,0,0,0,0,0,0,0,-1,965,547,-1.3348,3.41206
-252,477,0.597168,-5.32922,0,0,0,0,0,0,0,-1,972,547,0.597144,5.32924
-245,477,8.2309,-8.48492,0,0,0,0,0,0,0,-1,979,547,8.23091,8.48494
-238,477,6.60938,-5.64063,0,0,0,0,0,0,0,-1,986,547,6.60938,5.64063
-231,477,4.71716,-2.52484,0,0,0,0,0,0,0,-1,993,547,4.71716,2.52483
-224,477,0,0,0,0,0,0,0,0,0,-1,1000,547,0,0
-217,477,0,0,0,0,0,0,0,0,0,-1,1007,547,0,0
-210,477,0,0,0,0,0,0,0,0,0,-1,1014,547,0,0
-203,477,0,0,0,0,0,0,0,0,0,-1,1021,547,0,0
-196,477,0,0,0,0,0,0,0,0,0,-1,1028,547,0,0
-189,477,0,0,0,0,0,0,0,0,0,-1,1035,547,0,0
-182,477,0,0,0,0,0,0,0,0,0,-1,1042,547,0,0
-175,477,0,0,0,0,0,0,0,0,0,-1,1049,547,0,0
-168,477,0,0,0,0,0,0,0,0,0,-1,1056,547,0,0
-161,477,0,0,0,0,0,0,0,0,0,-1,1063,547,0,0
-154,477,0,0,0,0,0,0,0,0,0,-1,1070,547,0,0
-147,477,0,0,0,0,0,0,0,0,0,-1,1077,547,0,0
-140,477,0,0,0,0,0,0,0,0,0,-1,1084,547,0,0
-133,477,0,0,0,0,0,0,0,0,0,-1,1091,547,0,0
-126,477,0,0,0,0,0,0,0,0,0,-1,1098,547,0,0
-119,477,0,0,0,0,0,0,0,0,0,-1,1105,547,0,0
-112,477,0,0,0,0,0,0,0,0,0,-1,1112,547,0,0
-105,477,0,0,0,0,0,0,0,0,0,-1,1119,547,0,0
-98,477,0,0,0,0,0,0,0,0,0,-1,1126,547,0,0
-91,477,0,0,0,0,0,0,0,0,0,-1,1133,547,0,0
-84,477,0,0,0,0,0,0,0,0,0,-1,1140,547,0,0
-77,477,0,0,0,0,0,0,0,0,0,-1,1147,547,0,0
-70,477,0,0,0,0,0,0,0,0,0,-1,1154,547,0,0
-63,477,0,0,0,0,0,0,0,0,0,-1,1161,547,0,0
-56,477,0,0,0,0,0,0,0,0,0,-1,1168,547,0,0
-49,477,0,0,0,0,0,0,0,0,0,-1,1175,547,0,0
-42,477,0,0,0,0,0,0,0,0,0,-1,1182,547,0,0
-35,477,0,0,0,0,0,0,0,0,0,-1,1189,547,0,0
-28,477,0,0,0,0,0,0,0,0,0,-1,1196,547,0,0
-21,477,0,0,0,0,0,0,0,0,0,-1,1203,547,0,0
-14,477,0,0,0,0,0,0,0,0,0,-1,1210,547,0,0
-7,477,0,0,0,0,0,0,0,0,0,-1,1217,547,0,0
0,477,0,0,0,0,0,0,0,0,0,-1,1224,547,0,0
7,477,0,0,0,0,0,0,0,0,0,-1,1231,547,0,0
14,477,0,0,0,0,0,0,0,0,0,-1,1238,547,0,0
21,477,0,0,0,0,0,0,0,0,0,-1,1245,547,0,0
28,477,0,0,0,0,0,0,0,0,0,-1,1252,547,0,0
35,477,0,0,0,0,0,0,0,0,0,-1,1259,547,0,0
42,477,0,0,0,0,0,0,0,0,0,-1,1266,547,0,0
49,477,0,0,0,0,0,0,0,0,0,-1,1273,547,0,0
56,477,0,0,0,0,0,0,0,0,0,-1,1280,547,0,0
63,477,0,0,0,0,0,0,0,0,0,-1,1287,547,0,0
70,477,0,0,0,0,0,0,0,0,0,-1,1294,547,0,0
77,477,0,0,0,0,0,0,0,0,0,-1,1301,547,0,0
84,477,0,0,0,0,0,0,0,0,0,-1,1308,547,0,0
91,477,0,0,0,0,0,0,0,0,0,-1,1315,547,0,0
98,477,0,0,0,0,0,0,0,0,0,-1,1322,547,0,0
105,477,0,0,0,0,0,0,0,0,0,-1,1329,547,0,0
112,477,0,0,0,0,0,0,0,0,0,-1,1336,547,0,0
119,477,0,0,0,0,0,0,0,0,0,-1,1343,547,0,0
126,477,0,0,0,0,0,0,0,0,0,-1,1350,547,0,0
133,477,0,0,0,0,0,0,0,0,0,-1,1357,547,0,0
140,477,0,0,0,0,0,0,0,0,0,-1,1364,547,0,0
147,477,0,0,0,0,0,0,0,0,0,-1,1371,547,0,0
154,477,0,0,0,0,0,0,0,0,0,-1,1378,547,0,0
161,477,0,0,0,0,0,0,0,0,0,-1,1385,547,0,0
168,477,0,0,0,0,0,0,0,0,0,-1,1392,547,0,0
175,477,0,0,0,0,0,0,0,0,0,-1,1399,547,0,0
182,477,0,0,0,0,0,0,0,0,0,-1,1406,547,0,0
189,477,0,0,0,0,0,0,0,0,0,-1,1413,547,0,0
196,477,0,0,0,0,0,0,0,0,0,-1,1420,547,0,0
203,477,0,0,0,0,0,0,0,0,0,-1,1427,547,0,0
210,477,0,0,0,0,0,0,0,0,0,-1,1434,547,0,0
217,477,0,0,0,0,0,0,0,0,0,-1,1441,547,0,0
224,477,0,0,0,0,0,0,0,0,0,-1,1448,547,0,0
231,477,0,0,0,0,0,0,0,0,0,-1,1455,547,0,0
238,477,0,0,0,0,0,0,0,0,0,-1,1462,547,0,0
245,477,0,0,0,0,0,0,0,0,0,-1,1469,547,0,0
252,477,0,0,0,0,0,0,0,0,0,-1,1476,547,0,0
259,477,0,0,0,0,0,0,0,0,0,-1,1483,547,0,0
266,477,0,0,0,0,0,0,0,0,0,-1,1490,547,0,0
273,477,0,0,0,0,0,0,0,0,0,-1,1497,547,0,0
280,477,0,0,0,0,0,0,0,0,0,-1,1504,547,0,0
287,477,0,0,0,0,0,0,0,0,0,-1,1511,547,0,0
294,477,0,0,0,0,0,0,0,0,0,-1,1518,547,0,0
301,477,0,0,0,0,0,0,0,0,0,-1,1525,547,0,0
308,477,0,0,0,0,0,0,0,0,0,-1,1532,547,0,0
315,477,0,0,0,0,0,0,0,0,0,-1,1539,547,0,0
322,477,0,0,0,0,0,0,0,0,0,-1,1546,547,0,0
329,477,0,0,0,0,0,0,0,0,0,-1,1553,547,0,0
336,477,0,0,0,0,0,0,0,0,0,-1,1560,547,0,0
343,477,0,0,0,0,0,0,0,0,0,-1,1567,547,0,0
350,477,1.7699,-3.32275,0,0,0,0,0,0,0,-1,1574,547,1.7699,3.32272
357,477,3.073,-4.83313,0,0,0,0,0,0,0,-1,1581,547,3.07303,4.83316
364,477,4.30127,-4.22864,0,0,0,0,0,0,0,-1,1588,547,4.30125,4.22865
371,477,4.57703,0.283264,0,0,0,0,0,0,0,-1,1595,547,4.57706,-0.283262
378,477,8.57947,1.05969,0,0,0,0,0,0,0,-1,1602,547,8.5795,-1.05972
385,477,12.3726,2.02356,0,0,0,0,0,0,0,-1,1609,547,12.3725,-2.02355
392,477,16.4678,2.76843,0,0,0,0,0,0,0,-1,1616,547,16.4678,-2.76845
399,477,8.00037,-2.29523,0,0,0,0,0,0,0,-1,1623,547,8.00031,2.2952
406,477,4.82495,2.7475,0,0,0,0,0,0,0,-1,1630,547,4.825,-2.74752
413,477,4.88171,-0.336426,0,0,0,0,0,0,0,-1,1637,547,4.88169,0.336398
420,477,3.34875,0.102722,0,0,0,0,0,0,0,-1,1644,547,3.34871,-0.1027
427,477,1.66772,-0.373108,0,0,0,0,0,0,0,-1,1651,547,1.66768,0.373104
434,477,3.76978,-2.30798,0,0,0,0,0,0,0,-1,1658,547,3.76974,2.30801
441,477,4.05444,-2.80402,0,0,0,0,0,0,0,-1,1665,547,4.05444,2.804
448,477,7.93689,-7.78235,0,0,0,0,0,0,0,-1,1672,547,7.93687,7.78234
455,477,7.8833,-7.76703,-0.00341451,0.00036408,-0.00529014,0.00409217,-0.0071426,-0.956907,0.00656561,0.0493401,1679,547,7.8833,7.76703
462,477,7.7832,-7.70386,-0.00141553,0.0014142,-0.00308042,0.00338916,-0.00339048,-1.00068,0.00391422,0.037204,1686,547,7.78317,7.70386
469,477,7.73938,-7.35773,-7.65343e-05,0.00201239,-0.00162741,0.00290167,-0.000965815,-1.07069,0.00232426,0.0237725,1693,547,7.73933,7.35776
476,477,7.73303,-7.07611,0.000864924,0.00212746,-0.000582962,0.00235546,0.000636923,-1.19798,0.00140691,0.0181843,1700,547,7.73303,7.07612
483,477,7.76184,-6.77612,0.00148312,0.00204758,0.000189071,0.00210506,0.00142565,1.27567,0.00124055,0.0123157,1707,547,7.76185,6.77611
490,477,7.74805,-6.4939,0.00171497,0.00195028,0.000643836,0.00248712,0.00117813,0.875772,0.0014366,0.0119201,1714,547,7.74805,6.49387
497,477,7.7373,-6.18512,0.00145578,0.00146348,0.000670454,0.0021301,0.000789165,0.788267,0.00124349,0.0130793,1721,547,7.73732,6.18511
504,477,7.7395,-5.88348,0.000959182,0.00104795,0.000559918,0.00156524,0.000441891,0.82495,0.000931804,0.0180153,1728,547,7.73956,5.88349
511,477,7.76123,-5.57727,0.000338664,0.000713438,0.000415156,0.000981538,7.05636e-05,0.997392,0.000632152,0.021733,1735,547,7.76119,5.57726
518,477,7.74268,-5.28418,-0.000439053,0.000292937,7.99073e-05,0.000301559,-0.000447674,1.46332,0.000435303,0.0186986,1742,547,7.74273,5.28418
525,477,7.71667,-4.98279,-0.00123143,3.2882e-06,-0.000285873,6.6264e-05,-0.0012944,-1.35397,0.000885851,0.0163886,1749,547,7.71663,4.98279
532,477,7.68726,-4.69879,-0.00196932,-3.11512e-05,-0.000543653,0.000110927,-0.0021114,-1.31517,0.001446,0.0194618,1756,547,7.68732,4.69877
539,477,7.69128,-4.34869,-0.00251724,9.19709e-05,-0.000638875,0.000240003,-0.00266527,-1.34311,0.00186201,0.0166459,1763,547,7.6913,4.3487
546,477,7.67798,-4.09094,-0.00279984,0.000503646,-0.000460705,0.000566693,-0.00286288,-1.43479,0.00212285,0.0204384,1770,547,7.67799,4.09097
553,477,7.66724,-3.75006,-0.0029424,0.0011434,-0.000150846,0.00114896,-0.00294796,-1.53394,0.00244019,0.0231094,1777,547,7.66729,3.75006
560,477,7.64734,-3.28284,-0.00277363,0.00185335,0.000378879,0.00188417,-0.00280445,1.48963,0.0027243,0.0411966,1784,547,7.64739,3.28283
567,477,7.85388,-3.11237,0,0,0,0,0,0,0,-1,1791,547,7.8539,3.11236
574,477,6.82593,-0.916992,0,0,0,0,0,0,0,-1,1798,547,6.82598,0.916977
581,477,9.29321,-0.557007,0,0,0,0,0,0,0,-1,1805,547,9.29324,0.55703
588,477,9.75195,0.422729,0,0,0,0,0,0,0,-1,1812,547,9.75198,-0.42273
595,477,9.89172,1.21326,0,0,0,0,0,0,0,-1,1819,547,9.89174,-1.21328
602,477,6.5271,-0.964417,0,0,0,0,0,0,0,-1,1826,547,6.52706,0.964427
609,477,0,0,0,0,0,0,0,0,0,-1,1833,547,0,0
616,477,0,0,0,0,0,0,0,0,0,-1,1840,547,0,0
623,477,0,0,0,0,0,0,0,0,0,-1,1847,547,0,0
630,477,0,0,0,0,0,0,0,0,0,-1,1854,547,0,0
637,477,0,0,0,0,0,0,0,0,0,-1,1861,547,0,0
644,477,0,0,0,0,0,0,0,0,0,-1,1868,547,0,0
651,477,0,0,0,0,0,0,0,0,0,-1,1875,547,0,0
658,477,0,0,0,0,0,0,0,0,0,-1,1882,547,0,0
665,477,0,0,0,0,0,0,0,0,0,-1,1889,547,0,0
672,477,0,0,0,0,0,0,0,0,0,-1,1896,547,0,0
679,477,0,0,0,0,0,0,0,0,0,-1,1903,547,0,0
686,477,0,0,0,0,0,0,0,0,0,-1,1910,547,0,0
693,477,0,0,0,0,0,0,0,0,0,-1,1917,547,0,0
700,477,0,0,0,0,0,0,0,0,0,-1,1924,547,0,0
707,477,0,0,0,0,0,0,0,0,0,-1,1931,547,0,0
714,477,0,0,0,0,0,0,0,0,0,-1,1938,547,0,0
721,477,0,0,0,0,0,0,0,0,0,-1,1945,547,0,0
728,477,0,0,0,0,0,0,0,0,0,-1,1952,547,0,0
735,477,0,0,0,0,0,0,0,0,0,-1,1959,547,0,0
742,477,0,0,0,0,0,0,0,0,0,-1,1966,547,0,0
749,477,0,0,0,0,0,0,0,0,0,-1,1973,547,0,0
756,477,0,0,0,0,0,0,0,0,0,-1,1980,547,0,0
763,477,0,0,0,0,0,0,0,0,0,-1,1987,547,0,0
770,477,0,0,0,0,0,0,0,0,0,-1,1994,547,0,0
777,477,0,0,0,0,0,0,0,0,0,-1,2001,547,0,0
784,477,0,0,0,0,0,0,0,0,0,-1,2008,547,0,0
791,477,0,0,0,0,0,0,0,0,0,-1,2015,547,0,0
798,477,0,0,0,0,0,0,0,0,0,-1,2022,547,0,0
805,477,0,0,0,0,0,0,0,0,0,-1,2029,547,0,0
812,477,0,0,0,0,0,0,0,0,0,-1,2036,547,0,0
-700,470,0,0,0,0,0,0,0,0,0,-1,524,554,0,0
-693,470,0,0,0,0,0,0,0,0,0,-1,531,554,0,0
-686,470,0,0,0,0,0,0,0,0,0,-1,538,554,0,0
-679,470,0,0,0,0,0,0,0,0,0,-1,545,554,0,0
-672,470,0,0,0,0,0,0,0,0,0,-1,552,554,0,0
-665,470,0,0,0,0,0,0,0,0,0,-1,559,554,0,0
-658,470,0,0,0,0,0,0,0,0,0,-1,566,554,0,0
-651,470,0,0,0,0,0,0,0,0,0,-1,573,554,0,0
-644,470,0,0,0,0,0,0,0,0,0,-1,580,554,0,0
-637,470,0,0,0,0,0,0,0,0,0,-1,587,554,0,0
-630,470,0,0,0,0,0,0,0,0,0,-1,594,554,0,0
-623,470,0,0,0,0,0,0,0,0,0,-1,601,554,0,0
-616,470,0,0,0,0,0,0,0,0,0,-1,608,554,0,0
-609,470,0,0,0,0,0,0,0,0,0,-1,615,554,0,0
-602,470,0,0,0,0,0,0,0,0,0,-1,622,554,0,0
-595,470,0,0,0,0,0,0,0,0,0,-1,629,554,0,0
-588,470,0,0,0,0,0,0,0,0,0,-1,636,554,0,0
-581,470,0,0,0,0,0,0,0,0,0,-1,643,554,0,0
-574,470,0,0,0,0,0,0,0,0,0,-1,650,554,0,0
-567,470,0,0,0,0,0,0,0,0,0,-1,657,554,0,0
-560,470,0,0,0,0,0,0,0,0,0,-1,664,554,0,0
-553,470,0,0,0,0,0,0,0,0,0,-1,671,554,0,0
-546,470,0,0,0,0,0,0,0,0,0,-1,678,554,0,0
-539,470,0,0,0,0,0,0,0,0,0,-1,685,554,0,0
-532,470,0,0,0,0,0,0,0,0,0,-1,692,554,0,0
-525,470,0,0,0,0,0,0,0,0,0,-1,699,554,0,0
-518,470,0,0,0,0,0,0,0,0,0,-1,706,554,0,0
-511,470,0,0,0,0,0,0,0,0,0,-1,713,554,0,0
-504,470,0,0,0,0,0,0,0,0,0,-1,720,554,0,0
-497,470,0,0,0,0,0,0,0,0,0,-1,727,554,0,0
-490,470,-9.13263,-1.03125,0,0,0,0,0,0,0,-1,734,554,-9.1326,1.03127
-483,470,-7.68677,-1.03955,0,0,0,0,0,0,0,-1,741,554,-7.68678,1.03958
-476,470,-6.17969,-1.03394,0,0,0,0,0,0,0,-1,748,554,-6.17971,1.03395
-469,470,-6.23016,-0.651855,0,0,0,0,0,0,0,-1,755,554,-6.23014,0.651829
-462,470,-4.87915,-1.03705,0,0,0,0,0,0,0,-1,762,554,-4.87914,1.03702
-455,470,-3.55457,-1.53186,0,0,0,0,0,0,0,-1,769,554,-3.55456,1.53187
-448,470,-2.17896,-3.78052,0,0,0,0,0,0,0,-1,776,554,-2.17894,3.78053
-441,470,-1.74438,-4.55518,0,0,0,0,0,0,0,-1,783,554,-1.74439,4.55519
-434,470,-1.88464,-5.14063,0.00868863,0.0106176,-0.0109778,0.0206731,-0.00136695,-0.829214,0.0142596,0.0296378,790,554,-1.88462,5.14062
-427,470,-1.97711,-5.40399,0.00713723,0.0083549,-0.00869936,0.0164667,-0.000974579,-0.820334,0.0113167,0.0144617,797,554,-1.9771,5.40398
-420,470,-1.95557,-5.68365,0.00600394,0.00647327,-0.00693203,0.0131746,-0.000697396,-0.802318,0.00902452,0.0121172,804,554,-1.95559,5.68364
-413,470,-1.97174,-5.95813,0.00469869,0.00475487,-0.00522215,0.00994901,-0.000495441,-0.788088,0.00680384,0.0121192,811,554,-1.97176,5.95812
-406,470,-2.00958,-6.2359,0.00333196,0.00334801,-0.00367918,0.00701917,-0.0003392,-0.786488,0.00479652,0.00983219,818,554,-2.00956,6.2359
-399,470,-1.99573,-6.54272,0.00209858,0.00206174,-0.00232363,0.00440387,-0.000243546,-0.781435,0.00302037,0.0128612,825,554,-1.99571,6.5427
-392,470,-2.00598,-6.82611,0.000953385,0.000815294,-0.00107082,0.00195739,-0.000188708,-0.753203,0.00137216,0.0143452,832,554,-2.006,6.82608
-385,470,-1.99994,-7.08392,5.40362e-05,-0.000141688,-4.46751e-05,6.37513e-05,-0.000151403,-0.214128,0.000127609,0.0103715,839,554,-1.99991,7.08392
-378,470,-1.99084,-7.38458,-0.000661425,-0.000947004,0.000908953,0.000115885,-0.00172431,0.707489,0.00119005,0.0143266,846,554,-1.99082,7.38458
-371,470,-1.97113,-7.63782,-0.00107532,-0.00164908,0.00158685,0.00025037,-0.00297478,0.695971,0.00207169,0.0127038,853,554,-1.9711,7.63781
-364,470,-1.99054,-7.88647,-0.00122565,-0.00215074,0.00210447,0.000466506,-0.00384289,0.677223,0.00273075,0.0133726,860,554,-1.99051,7.88648
-357,470,-2.01526,-8.15552,-0.00105031,-0.00255179,0.00241002,0.000723187,-0.00432529,0.634408,0.00315236,0.013383,867,554,-2.01526,8.15553
-350,470,-1.99805,-8.43848,-0.000530781,-0.00278387,0.00247842,0.00106511,-0.00437977,0.572086,0.00333212,0.010165,874,554,-1.99805,8.43849
-343,470,-1.92053,-8.71881,0.000102562,-0.00291874,0.00247222,0.00148914,-0.00430531,0.511145,0.00347464,0.0242127,881,554,-1.92051,8.71878
-336,470,-1.82697,-9.05408,0,0,0,0,0,0,0,-1,888,554,-1.82699,9.05407
-329,470,-2.04315,-8.72504,0,0,0,0,0,0,0,-1,895,554,-2.04314,8.72503
-322,470,-1.76782,-8.82794,0,0,0,0,0,0,0,-1,902,554,-1.7678,8.82792
-315,470,-1.04797,-8.29529,0,0,0,0,0,0,0,-1,909,554,-1.04797,8.29526
-308,470,-1.39368,-6.68152,0,0,0,0,0,0,0,-1,916,554,-1.39369,6.68149
-301,470,-0.0340576,3.34888,0,0,0,0,0,0,0,-1,923,554,-0.0340496,-3.3489
-294,470,-1.18378,3.22266,0,0,0,0,0,0,0,-1,930,554,-1.18376,-3.22268
-287,470,-2.15454,3.2204,0,0,0,0,0,0,0,-1,937,554,-2.15452,-3.22037
-280,470,-3.00537,3.099,0,0,0,0,0,0,0,-1,944,554,-3.00536,-3.09898
-273,470,-12.3932,3.65009,0,0,0,0,0,0,0,-1,951,554,-12.3932,-3.65011
-266,470,-11.5706,1.16028,0,0,0,0,0,0,0,-1,958,554,-11.5706,-1.16031
-259,470,-7.50415,-2.77167,0,0,0,0,0,0,0,-1,965,554,-7.50413,2.7717
-252,470,-0.144348,-5.13593,0,0,0,0,0,0,0,-1,972,554,-0.144336,5.13594
-245,470,1.33221,-6.81122,0,0,0,0,0,0,0,-1,979,554,1.33223,6.8112
-238,470,0,0,0,0,0,0,0,0,0,-1,986,554,0,0
-231,470,0,0,0,0,0,0,0,0,0,-1,993,554,0,0
-224,470,0,0,0,0,0,0,0,0,0,-1,1000,554,0,0
-217,470,0,0,0,0,0,0,0,0,0,-1,1007,554,0,0
-210,470,0,0,0,0,0,0,0,0,0,-1,1014,554,0,0
-203,470,0,0,0,0,0,0,0,0,0,-1,1021,554,0,0
-196,470,0,0,0,0,0,0,0,0,0,-1,1028,554,0,0
-189,470,0,0,0,0,0,0,0,0,0,-1,1035,554,0,0
-182,470,0,0,0,0,0,0,0,0,0,-1,1042,554,0,0
-175,470,0,0,0,0,0,0,0,0,0,-1,1049,554,0,0
-168,470,0,0,0,0,0,0,0,0,0,-1,1056,554,0,0
-161,470,0,0,0,0,0,0,0,0,0,-1,1063,554,0,0
-154,470,0,0,0,0,0,0,0,0,0,-1,1070,554,0,0
-147,470,0,0,0,0,0,0,0,0,0,-1,1077,554,0,0
-140,470,0,0,0,0,0,0,0,0,0,-1,1084,554,0,0
-133,470,0,0,0,0,0,0,0,0,0,-1,1091,554,0,0
-126,470,0,0,0,0,0,0,0,0,0,-1,1098,554,0,0
-119,470,0,0,0,0,0,0,0,0,0,-1,1105,554,0,0
-112,470,0,0,0,0,0,0,0,0,0,-1,1112,554,0,0
-105,470,0,0,0,0,0,0,0,0,0,-1,1119,554,0,0
-98,470,0,0,0,0,0,0,0,0,0,-1,1126,554,0,0
-91,470,0,0,0,0,0,0,0,0,0,-1,1133,554,0,0
-84,470,0,0,0,0,0,0,0,0,0,-1,1140,554,0,0
-77,470,0,0,0,0,0,0,0,0,0,-1,1147,554,0,0
-70,470,0,0,0,0,0,0,0,0,0,-1,1154,554,0,0
-63,470,0,0,0,0,0,0,0,0,0,-1,1161,554,0,0
-56,470,0,0,0,0,0,0,0,0,0,-1,1168,554,0,0
-49,470,0,0,0,0,0,0,0,0,0,-1,1175,554,0,0
-42,470,0,0,0,0,0,0,0,0,0,-1,1182,554,0,0
-35,470,0,0,0,0,0,0,0,0,0,-1,1189,554,0,0
-28,470,0,0,0,0,0,0,0,0,0,-1,1196,554,0,0
-21,470,0,0,0,0,0,0,0,0,0,-1,1203,554,0,0
-14,470,0,0,0,0,0,0,0,0,0,-1,1210,554,0,0
-7,470,0,0,0,0,0,0,0,0,0,-1,1217,554,0,0
0,470,0,0,0,0,0,0,0,0,0,-1,1224,554,0,0
7,470,0,0,0,0,0,0,0,0,0,-1,1231,554,0,0
14,470,0,0,0,0,0,0,0,0,0,-1,1238,554,0,0
21,470,0,0,0,0,0,0,0,0,0,-1,1245,554,0,0
28,470,0,0,0,0,0,0,0,0,0,-1,1252,554,0,0
35,470,0,0,0,0,0,0,0,0,0,-1,1259,554,0,0
42,470,0,0,0,0,0,0,0,0,0,-1,1266,554,0,0
49,470,0,0,0,0,0,0,0,0,0,-1,1273,554,0,0
56,470,0,0,0,0,0,0,0,0,0,-1,1280,554,0,0
63,470,0,0,0,0,0,0,0,0,0,-1,1287,554,0,0
70,470,0,0,0,0,0,0,0,0,0,-1,1294,554,0,0
77,470,0,0,0,0,0,0,0,0,0,-1,1301,554,0,0
84,470,0,0,0,0,0,0,0,0,0,-1,1308,554,0,0
91,470,0,0,0,0,0,0,0,0,0,-1,1315,554,0,0
98,470,0,0,0,0,0,0,0,0,0,-1,1322,554,0,0
105,470,0,0,0,0,0,0,0,0,0,-1,1329,554,0,0
112,470,0,0,0,0,0,0,0,0,0,-1,1336,554,0,0
119,470,0,0,0,0,0,0,0,0,0,-1,1343,554,0,0
126,470,0,0,0,0,0,0,0,0,0,-1,1350,554,0,0
133,470,0,0,0,0,0,0,0,0,0,-1,1357,554,0,0
140,470,0,0,0,0,0,0,0,0,0,-1,1364,554,0,0
147,470,0,0,0,0,0,0,0,0,0,-1,1371,554,0,0
154,470,0,0,0,0,0,0,0,0,0,-1,1378,554,0,0
161,470,0,0,0,0,0,0,0,0,0,-1,1385,554,0,0
168,470,0,0,0,0,0,0,0,0,0,-1,1392,554,0,0
175,470,0,0,0,0,0,0,0,0,0,-1,1399,554,0,0
182,470,0,0,0,0,0,0,0,0,0,-1,1406,554,0,0
189,470,0,0,0,0,0,0,0,0,0,-1,1413,554,0,0
196,470,0,0,0,0,0,0,0,0,0,-1,1420,554,0,0
203,470,0,0,0,0,0,0,0,0,0,-1,1427,554,0,0
210,470,0,0,0,0,0,0,0,0,0,-1,1434,554,0,0
217,470,0,0,0,0,0,0,0,0,0,-1,1441,554,0,0
224,470,0,0,0,0,0,0,0,0,0,-1,1448,554,0,0
231,470,0,0,0,0,0,0,0,0,0,-1,1455,554,0,0
238,470,0,0,0,0,0,0,0,0,0,-1,1462,554,0,0
245,470,0,0,0,0,0,0,0,0,0,-1,1469,554,0,0
252,470,0,0,0,0,0,0,0,0,0,-1,1476,554,0,0
259,470,0,0,0,0,0,0,0,0,0,-1,1483,554,0,0
266,470,0,0,0,0,0,0,0,0,0,-1,1490,554,0,0
273,470,0,0,0,0,0,0,0,0,0,-1,1497,554,0,0
280,470,0,0,0,0,0,0,0,0,0,-1,1504,554,0,0
287,470,0,0,0,0,0,0,0,0,0,-1,1511,554,0,0
294,470,0,0,0,0,0,0,0,0,0,-1,1518,554,0,0
301,470,0,0,0,0,0,0,0,0,0,-1,1525,554,0,0
308,470,0,0,0,0,0,0,0,0,0,-1,1532,554,0,0
315,470,0,0,0,0,0,0,0,0,0,-1,1539,554,0,0
322,470,0,0,0,0,0,0,0,0,0,-1,1546,554,0,0
329,470,0,0,0,0,0,0,0,0,0,-1,1553,554,0,0
336,470,0,0,0,0,0,0,0,0,0,-1,1560,554,0,0
343,470,0,0,0,0,0,0,0,0,0,-1,1567,554,0,0
350,470,0,0,0,0,0,0,0,0,0,-1,1574,554,0,0
357,470,0,0,0,0,0,0,0,0,0,-1,1581,554,0,0
364,470,1.33423,0.293335,0,0,0,0,0,0,0,-1,1588,554,1.33422,-0.293348
371,470,2.22498,-0.0305176,0,0,0,0,0,0,0,-1,1595,554,2.22494,0.0305046
378,470,6.27051,0.710083,0,0,0,0,0,0,0,-1,1602,554,6.27054,-0.710093
385,470,10.3657,1.47296,0,0,0,0,0,0,0,-1,1609,554,10.3657,-1.47299
392,470,15.3881,3.01935,0,0,0,0,0,0,0,-1,1616,554,15.388,-3.01937
399,470,18.4479,2.93793,0,0,0,0,0,0,0,-1,1623,554,18.4479,-2.93792
406,470,15.1896,1.36676,0,0,0,0,0,0,0,-1,1630,554,15.1896,-1.36679
413,470,6.55383,1.99207,0,0,0,0,0,0,0,-1,1637,554,6.5538,-1.99208
420,470,4.47095,0.845703,0,0,0,0,0,0,0,-1,1644,554,4.47098,-0.845718
427,470,3.51038,1.19684,0,0,0,0,0,0,0,-1,1651,554,3.51039,-1.19684
434,470,3.31775,-1.37427,0,0,0,0,0,0,0,-1,1658,554,3.31781,1.37426
441,470,2.55457,-2.05902,0,0,0,0,0,0,0,-1,1665,554,2.55461,2.05904
448,470,3.27258,-2.64032,0,0,0,0,0,0,0,-1,1672,554,3.27257,2.64029
455,470,8.46899,-7.76599,0,0,0,0,0,0,0,-1,1679,554,8.46902,7.76597
462,470,8.14722,-7.73187,0,0,0,0,0,0,0,-1,1686,554,8.14721,7.73188
469,470,7.91528,-7.48022,0,0,0,0,0,0,0,-1,1693,554,7.91528,7.4802
476,470,7.9668,-7.06689,0.00152598,0.00270732,-0.000290164,0.00277474,0.00145856,-1.34249,0.0016027,0.0327776,1700,554,7.96679,7.06687
483,470,8.04443,-6.76685,0.00236456,0.0026431,0.000710008,0.00322737,0.00178029,0.882244,0.00186663,0.0149819,1707,554,8.04446,6.76683
490,470,8.02527,-6.48816,0.00268932,0.00268419,0.00124689,0.00393365,0.00143986,0.784371,0.0022981,0.0119245,1714,554,8.02528,6.48816
497,470,8.02795,-6.17737,0.00243415,0.00221589,0.00128055,0.00361022,0.00103983,0.742891,0.00214589,0.0123042,1721,554,8.02794,6.17739
504,470,8.04285,-5.87268,0.00190521,0.00182363,0.00115832,0.00302346,0.00070539,0.767798,0.00182649,0.0195218,1728,554,8.04283,5.8727
511,470,8.10938,-5.58063,0.00130727,0.00148845,0.00104331,0.00244509,0.000350626,0.828705,0.00152667,0.0263993,1735,554,8.10941,5.58061
518,470,8.12708,-5.32062,0.000554485,0.00104214,0.000710426,0.00154942,4.72104e-05,0.950707,0.00101757,0.0248365,1742,554,8.12707,5.3206
525,470,8.05457,-4.98029,-0.000209316,0.000709618,0.000338062,0.000820586,-0.000320284,1.25363,0.000679465,0.0156329,1749,554,8.05462,4.9803
532,470,8.01782,-4.63837,-0.000928387,0.000583544,5.46355e-05,0.000585516,-0.000930359,1.53472,0.000882707,0.0138417,1756,554,8.01777,4.63837
539,470,8.02307,-4.37421,-0.00148364,0.000506394,-0.000113284,0.000512822,-0.00149007,-1.51411,0.00120137,0.0153294,1763,554,8.02304,4.37422
546,470,8.01526,-4.07446,-0.00178065,0.000712221,-1.11592e-05,0.000712271,-0.0017807,-1.56632,0.00148272,0.0133829,1770,554,8.01524,4.07449
553,470,8.02136,-3.75372,-0.00196302,0.00106014,0.00018653,0.0010716,-0.00197448,1.50941,0.00178422,0.0117884,1777,554,8.02132,3.75369
560,470,8.0271,-3.42914,-0.00194085,0.0014414,0.000560965,0.00153202,-0.00203146,1.41065,0.0020641,0.0173442,1784,554,8.02711,3.42914
567,470,8.00183,-3.1311,-0.00162493,0.00193463,0.00121075,0.00230742,-0.00199771,1.27211,0.00248771,0.0209365,1791,554,8.00189,3.13111
574,470,8.12329,-2.72046,0,0,0,0,0,0,0,-1,1798,554,8.12328,2.72044
581,470,8.24646,-4.06317,0,0,0,0,0,0,0,-1,1805,554,8.24648,4.06318
588,470,11.1803,1.74927,0,0,0,0,0,0,0,-1,1812,554,11.1803,-1.74926
595,470,4.72192,3.44116,0,0,0,0,0,0,0,-1,1819,554,4.72191,-3.44116
602,470,14.4307,2.76141,0,0,0,0,0,0,0,-1,1826,554,14.4306,-2.76139
609,470,20.9181,4.41058,0,0,0,0,0,0,0,-1,1833,554,20.9181,-4.4106
616,470,0,0,0,0,0,0,0,0,0,-1,1840,554,0,0
623,470,0,0,0,0,0,0,0,0,0,-1,1847,554,0,0
630,470,0,0,0,0,0,0,0,0,0,-1,1854,554,0,0
637,470,0,0,0,0,0,0,0,0,0,-1,1861,554,0,0
644,470,0,0,0,0,0,0,0,0,0,-1,1868,554,0,0
651,470,0,0,0,0,0,0,0,0,0,-1,1875,554,0,0
658,470,0,0,0,0,0,0,0,0,0,-1,1882,554,0,0
665,470,0,0,0,0,0,0,0,0,0,-1,1889,554,0,0
672,470,0,0,0,0,0,0,0,0,0,-1,1896,554,0,0
679,470,0,0,0,0,0,0,0,0,0,-1,1903,554,0,0
686,470,0,0,0,0,0,0,0,0,0,-1,1910,554,0,0
693,470,0,0,0,0,0,0,0,0,0,-1,1917,554,0,0
700,470,0,0,0,0,0,0,0,0,0,-1,1924,554,0,0
707,470,0,0,0,0,0,0,0,0,0,-1,1931,554,0,0
714,470,0,0,0,0,0,0,0,0,0,-1,1938,554,0,0
721,470,0,0,0,0,0,0,0,0,0,-1,1945,554,0,0
728,470,0,0,0,0,0,0,0,0,0,-1,1952,554,0,0
735,470,0,0,0,0,0,0,0,0,0,-1,1959,554,0,0
742,470,0,0,0,0,0,0,0,0,0,-1,1966,554,0,0
749,470,0,0,0,0,0,0,0,0,0,-1,1973,554,0,0
756,470,0,0,0,0,0,0,0,0,0,-1,1980,554,0,0
763,470,0,0,0,0,0,0,0,0,0,-1,1987,554,0,0
770,470,0,0,0,0,0,0,0,0,0,-1,1994,554,0,0
777,470,0,0,0,0,0,0,0,0,0,-1,2001,554,0,0
784,470,0,0,0,0,0,0,0,0,0,-1,2008,554,0,0
791,470,0,0,0,0,0,0,0,0,0,-1,2015,554,0,0
798,470,0,0,0,0,0,0,0,0,0,-1,2022,554,0,0
805,470,0,0,0,0,0,0,0,0,0,-1,2029,554,0,0
812,470,0,0,0,0,0,0,0,0,0,-1,2036,554,0,0
-700,463,0,0,0,0,0,0,0,0,0,-1,524,561,0,0
-693,463,0,0,0,0,0,0,0,0,0,-1,531,561,0,0
-686,463,0,0,0,0,0,0,0,0,0,-1,538,561,0,0
-679,463,0,0,0,0,0,0,0,0,0,-1,545,561,0,0
-672,463,0,0,0,0,0,0,0,0,0,-1,552,561,0,0
-665,463,0,0,0,0,0,0,0,0,0,-1,559,561,0,0
-658,463,0,0,0,0,0,0,0,0,0,-1,566,561,0,0
-651,463,0,0,0,0,0,0,0,0,0,-1,573,561,0,0
-644,463,0,0,0,0,0,0,0,0,0,-1,580,561,0,0
-637,463,0,0,0,0,0,0,0,0,0,-1,587,561,0,0
-630,463,0,0,0,0,0,0,0,0,0,-1,594,561,0,0
-623,463,0,0,0,0,0,0,0,0,0,-1,601,561,0,0
-616,463,0,0,0,0,0,0,0,0,0,-1,608,561,0,0
-609,463,0,0,0,0,0,0,0,0,0,-1,615,561,0,0
-602,463,0,0,0,0,0,0,0,0,0,-1,622,561,0,0
-595,463,0,0,0,0,0,0,0,0,0,-1,629,561,0,0
-588,463,0,0,0,0,0,0,0,0,0,-1,636,561,0,0
-581,463,0,0,0,0,0,0,0,0,0,-1,643,561,0,0
-574,463,0,0,0,0,0,0,0,0,0,-1,650,561,0,0
-567,463,0,0,0,0,0,0,0,0,0,-1,657,561,0,0
-560,463,0,0,0,0,0,0,0,0,0,-1,664,561,0,0
-553,463,0,0,0,0,0,0,0,0,0,-1,671,561,0,0
-546,463,0,0,0,0,0,0,0,0,0,-1,678,561,0,0
-539,463,0,0,0,0,0,0,0,0,0,-1,685,561,0,0
-532,463,0,0,0,0,0,0,0,0,0,-1,692,561,0,0
-525,463,0,0,0,0,0,0,0,0,0,-1,699,561,0,0
-518,463,0,0,0,0,0,0,0,0,0,-1,706,561,0,0
-511,463,0,0,0,0,0,0,0,0,0,-1,713,561,0,0
-504,463,0,0,0,0,0,0,0,0,0,-1,720,561,0,0
-497,463,-9.81451,-1.67126,0,0,0,0,0,0,0,-1,727,561,-9.81452,1.67127
-490,463,-8.57043,-1.58942,0,0,0,0,0,0,0,-1,734,561,-8.57045,1.58944
-483,463,-7.29224,-1.7226,0,0,0,0,0,0,0,-1,741,561,-7.29226,1.72261
-476,463,-5.77704,-1.7312,0,0,0,0,0,0,0,-1,748,561,-5.77703,1.73121
-469,463,-5.14545,-2.138,0,0,0,0,0,0,0,-1,755,561,-5.14546,2.13799
-462,463,-3.13672,-3.07977,0,0,0,0,0,0,0,-1,762,561,-3.13672,3.07974
-455,463,-2.36047,-3.6319,0,0,0,0,0,0,0,-1,769,561,-2.36048,3.63189
-448,463,-2.30743,-4.1098,0.00931138,0.0133122,-0.013912,0.0253669,-0.00274335,-0.856803,0.0178959,0.0455909,776,561,-2.30746,4.10981
-441,463,-2.12823,-4.68982,0.00776581,0.010648,-0.0108878,0.0201897,-0.0017759,-0.851194,0.0140891,0.0356974,783,561,-2.12825,4.68979
-434,463,-2.24109,-5.09888,0.00629436,0.00828196,-0.00839464,0.0157414,-0.00116511,-0.844316,0.0109034,0.0155866,790,561,-2.24107,5.09889
-427,463,-2.23993,-5.40009,0.00510885,0.00651175,-0.00654647,0.0123942,-0.000773643,-0.838769,0.00853241,0.00972307,797,561,-2.23991,5.40007
-420,463,-2.22626,-5.67584,0.00417885,0.00503136,-0.00508849,0.00971141,-0.000501202,-0.827185,0.00664764,0.00961209,804,561,-2.22626,5.67586
-413,463,-2.23993,-5.95477,0.00301891,0.00360779,-0.00360282,0.00692818,-0.000301479,-0.82617,0.00472249,0.00882437,811,561,-2.2399,5.9548
-406,463,-2.27673,-6.23993,0.0017684,0.00239506,-0.00221844,0.00432219,-0.000158724,-0.855554,0.0029358,0.00830708,818,561,-2.27673,6.23996
-399,463,-2.2785,-6.5144,0.000563124,0.00118968,-0.000949201,0.00187596,-0.000123162,-0.944791,0.00129365,0.0096224,825,561,-2.27848,6.51442
-392,463,-2.27417,-6.802,-0.000644188,-1.24906e-05,0.000275664,9.08877e-05,-0.000747566,1.21201,0.000531271,0.00954643,832,561,-2.27418,6.802
-385,463,-2.28271,-7.10016,-0.00167424,-0.000993503,0.00133819,4.69218e-05,-0.00271467,0.909933,0.00182562,0.00968726,839,561,-2.28272,7.10014
-378,463,-2.27161,-7.3847,-0.00253276,-0.0018819,0.00234891,0.000164012,-0.00457867,0.854232,0.00310856,0.0105215,846,561,-2.27159,7.38469
-371,463,-2.25067,-7.65442,-0.00307368,-0.00263125,0.0030934,0.000248835,-0.00595376,0.821094,0.00405467,0.0107474,853,561,-2.25064,7.6544
-364,463,-2.24811,-7.89514,-0.00336942,-0.00330627,0.00372881,0.000391105,-0.00706679,0.789632,0.00484682,0.0135487,860,561,-2.24812,7.89517
-357,463,-2.28021,-8.15057,-0.00329818,-0.00390407,0.00411842,0.000528421,-0.00773067,0.748685,0.00533865,0.0166827,867,561,-2.28021,8.15057
-350,463,-2.23138,-8.45654,-0.00283863,-0.00436619,0.00428035,0.000745548,-0.00795037,0.697108,0.00556544,0.0206039,874,561,-2.2314,8.45653
-343,463,-1.98438,-8.3988,0,0,0,0,0,0,0,-1,881,561,-1.98439,8.3988
-336,463,-1.68335,-8.27203,0,0,0,0,0,0,0,-1,888,561,-1.68336,8.27205
-329,463,-1.98022,-8.23676,0,0,0,0,0,0,0,-1,895,561,-1.9802,8.23678
-322,463,-1.23309,-8.07733,0,0,0,0,0,0,0,-1,902,561,-1.23307,8.0773
-315,463,-0.944763,-5.96234,0,0,0,0,0,0,0,-1,909,561,-0.94479,5.96237
-308,463,-1.1535,-3.17889,0,0,0,0,0,0,0,-1,916,561,-1.15352,3.17889
-301,463,-1.50366,-3.15338,0,0,0,0,0,0,0,-1,923,561,-1.50364,3.15341
-294,463,-2.35889,-3.93463,0,0,0,0,0,0,0,-1,930,561,-2.35886,3.93465
-287,463,-2.80322,2.73999,0,0,0,0,0,0,0,-1,937,561,-2.80322,-2.74
-280,463,-12.864,5.25146,0,0,0,0,0,0,0,-1,944,561,-12.864,-5.25149
-273,463,-12.4598,3.39178,0,0,0,0,0,0,0,-1,951,561,-12.4598,-3.3918
-266,463,-8.97852,-0.139648,0.781504,0.245525,-0.556003,1.13073,-0.103703,-0.560829,0.790659,0.0473811,958,561,-8.97854,0.139638
-259,463,-5.28632,-3.67493,0,0,0,0,0,0,0,-1,965,561,-5.28635,3.67492
-252,463,0,0,0,0,0,0,0,0,0,-1,972,561,0,0
-245,463,0,0,0,0,0,0,0,0,0,-1,979,561,0,0
-238,463,0,0,0,0,0,0,0,0,0,-1,986,561,0,0
-231,463,0,0,0,0,0,0,0,0,0,-1,993,561,0,0
-224,463,0,0,0,0,0,0,0,0,0,-1,1000,561,0,0
-217,463,0,0,0,0,0,0,0,0,0,-1,1007,561,0,0
-210,463,0,0,0,0,0,0,0,0,0,-1,1014,561,0,0
-203,463,0,0,0,0,0,0,0,0,0,-1,1021,561,0,0
-196,463,0,0,0,0,0,0,0,0,0,-1,1028,561,0,0
-189,463,0,0,0,0,0,0,0,0,0,-1,1035,561,0,0
-182,463,0,0,0,0,0,0,0,0,0,-1,1042,561,0,0
-175,463,0,0,0,0,0,0,0,0,0,-1,1049,561,0,0
-168,463,0,0,0,0,0,0,0,0,0,-1,1056,561,0,0
-161,463,0,0,0,0,0,0,0,0,0,-1,1063,561,0,0
-154,463,0,0,0,0,0,0,0,0,0,-1,1070,561,0,0
-147,463,0,0,0,0,0,0,0,0,0,-1,1077,561,0,0
-140,463,0,0,0,0,0,0,0,0,0,-1,1084,561,0,0
-133,463,0,0,0,0,0,0,0,0,0,-1,1091,561,0,0
-126,463,0,0,0,0,0,0,0,0,0,-1,1098,561,0,0
-119,463,0,0,0,0,0,0,0,0,0,-1,1105,561,0,0
-112,463,0,0,0,0,0,0,0,0,0,-1,1112,561,0,0
-105,463,0,0,0,0,0,0,0,0,0,-1,1119,561,0,0
-98,463,0,0,0,0,0,0,0,0,0,-1,1126,561,0,0
-91,463,0,0,0,0,0,0,0,0,0,-1,1133,561,0,0
-84,463,0,0,0,0,0,0,0,0,0,-1,1140,561,0,0
-77,463,0,0,0,0,0,0,0,0,0,-1,1147,561,0,0
-70,463,0,0,0,0,0,0,0,0,0,-1,1154,561,0,0
-63,463,0,0,0,0,0,0,0,0,0,-1,1161,561,0,0
-56,463,0,0,0,0,0,0,0,0,0,-1,1168,561,0,0
-49,463,0,0,0,0,0,0,0,0,0,-1,1175,561,0,0
-42,463,0,0,0,0,0,0,0,0,0,-1,1182,561,0,0
-35,463,0,0,0,0,0,0,0,0,0,-1,1189,561,0,0
-28,463,0,0,0,0,0,0,0,0,0,-1,1196,561,0,0
-21,463,0,0,0,0,0,0,0,0,0,-1,1203,561,0,0
-14,463,0,0,0,0,0,0,0,0,0,-1,1210,561,0,0
-7,463,0,0,0,0,0,0,0,0,0,-1,1217,561,0,0
0,463,0,0,0,0,0,0,0,0,0,-1,1224,561,0,0
7,463,0,0,0,0,0,0,0,0,0,-1,1231,561,0,0
14,463,0,0,0,0,0,0,0,0,0,-1,1238,561,0,0
21,463,0,0,0,0,0,0,0,0,0,-1,1245,561,0,0
28,463,0,0,0,0,0,0,0,0,0,-1,1252,561,0,0
35,463,0,0,0,0,0,0,0,0,0,-1,1259,561,0,0
42,463,0,0,0,0,0,0,0,0,0,-1,1266,561,0,0
49,463,0,0,0,0,0,0,0,0,0,-1,1273,561,0,0
56,463,0,0,0,0,0,0,0,0,0,-1,1280,561,0,0
63,463,0,0,0,0,0,0,0,0,0,-1,1287,561,0,0
70,463,0,0,0,0,0,0,0,0,0,-1,1294,561,0,0
77,463,0,0,0,0,0,0,0,0,0,-1,1301,561,0,0
84,463,0,0,0,0,0,0,0,0,0,-1,1308,561,0,0
91,463,0,0,0,0,0,0,0,0,0,-1,1315,561,0,0
98,463,0,0,0,0,0,0,0,0,0,-1,1322,561,0,0
105,463,0,0,0,0,0,0,0,0,0,-1,1329,561,0,0
112,463,0,0,0,0,0,0,0,0,0,-1,1336,561,0,0
119,463,0,0,0,0,0,0,0,0,0,-1,1343,561,0,0
126,463,0,0,0,0,0,0,0,0,0,-1,1350,561,0,0
133,463,0,0,0,0,0,0,0,0,0,-1,1357,561,0,0
140,463,0,0,0,0,0,0,0,0,0,-1,1364,561,0,0
147,463,0,0,0,0,0,0,0,0,0,-1,1371,561,0,0
154,463,0,0,0,0,0,0,0,0,0,-1,1378,561,0,0
161,463,0,0,0,0,0,0,0,0,0,-1,1385,561,0,0
168,463,0,0,0,0,0,0,0,0,0,-1,1392,561,0,0
175,463,0,0,0,0,0,0,0,0,0,-1,1399,561,0,0
182,463,0,0,0,0,0,0,0,0,0,-1,1406,561,0,0
189,463,0,0,0,0,0,0,0,0,0,-1,1413,561,0,0
196,463,0,0,0,0,0,0,0,0,0,-1,1420,561,0,0
203,463,0,0,0,0,0,0,0,0,0,-1,1427,561,0,0
210,463,0,0,0,0,0,0,0,0,0,-1,1434,561,0,0
217,463,0,0,0,0,0,0,0,0,0,-1,1441,561,0,0
224,463,0,0,0,0,0,0,0,0,0,-1,1448,561,0,0
231,463,0,0,0,0,0,0,0,0,0,-1,1455,561,0,0
238,463,0,0,0,0,0,0,0,0,0,-1,1462,561,0,0
245,463,0,0,0,0,0,0,0,0,0,-1,1469,561,0,0
252,463,0,0,0,0,0,0,0,0,0,-1,1476,561,0,0
259,463,0,0,0,0,0,0,0,0,0,-1,1483,561,0,0
266,463,0,0,0,0,0,0,0,0,0,-1,1490,561,0,0
273,463,0,0,0,0,0,0,0,0,0,-1,1497,561,0,0
280,463,0,0,0,0,0,0,0,0,0,-1,1504,561,0,0
287,463,0,0,0,0,0,0,0,0,0,-1,1511,561,0,0
294,463,0,0,0,0,0,0,0,0,0,-1,1518,561,0,0
301,463,0,0,0,0,0,0,0,0,0,-1,1525,561,0,0
308,463,0,0,0,0,0,0,0,0,0,-1,1532,561,0,0
315,463,0,0,0,0,0,0,0,0,0,-1,1539,561,0,0
322,463,0,0,0,0,0,0,0,0,0,-1,1546,561,0,0
329,463,0,0,0,0,0,0,0,0,0,-1,1553,561,0,0
336,463,0,0,0,0,0,0,0,0,0,-1,1560,561,0,0
343,463,0,0,0,0,0,0,0,0,0,-1,1567,561,0,0
350,463,0,0,0,0,0,0,0,0,0,-1,1574,561,0,0
357,463,0,0,0,0,0,0,0,0,0,-1,1581,561,0,0
364,463,0,0,0,0,0,0,0,0,0,-1,1588,561,0,0
371,463,1.75842,0.152588,0,0,0,0,0,0,0,-1,1595,561,1.75844,-0.152558
378,463,4.58813,-0.0444336,0,0,0,0,0,0,0,-1,1602,561,4.58809,0.0444505
385,463,8.88574,1.65057,0,0,0,0,0,0,0,-1,1609,561,8.88575,-1.65055
392,463,13.4452,2.6582,0,0,0,0,0,0,0,-1,1616,561,13.4452,-2.65821
399,463,19.6376,3.51965,0,0,0,0,0,0,0,-1,1623,561,19.6376,-3.51966
406,463,7.28088,1.38538,0,0,0,0,0,0,0,-1,1630,561,7.28091,-1.38537
413,463,26.1475,1.70752,0,0,0,0,0,0,0,-1,1637,561,26.1474,-1.70752
420,463,8.849,2.26611,0,0,0,0,0,0,0,-1,1644,561,8.84899,-2.26613
427,463,5.12207,1.69183,0,0,0,0,0,0,0,-1,1651,561,5.12206,-1.69184
434,463,4.59814,1.81995,0,0,0,0,0,0,0,-1,1658,561,4.59812,-1.81994
441,463,1.76392,-5.99225,0,0,0,0,0,0,0,-1,1665,561,1.7639,5.99225
448,463,2.49939,-4.30536,0,0,0,0,0,0,0,-1,1672,561,2.49941,4.30536
455,463,4.40295,-3.02557,0,0,0,0,0,0,0,-1,1679,561,4.40299,3.02558
462,463,5.38293,-4.06445,0,0,0,0,0,0,0,-1,1686,561,5.38289,4.06444
469,463,5.94373,-4.50647,0,0,0,0,0,0,0,-1,1693,561,5.94368,4.50646
476,463,7.91675,-7.32971,0,0,0,0,0,0,0,-1,1700,561,7.91673,7.32971
483,463,8.18176,-6.96503,0.00346607,0.00327404,0.00151342,0.00488652,0.00185359,0.75372,0.00284849,0.0420457,1707,561,8.18172,6.96505
490,463,8.32275,-6.50458,0.00385415,0.00342907,0.00206947,0.00572197,0.00156125,0.734226,0.00341532,0.0207147,1714,561,8.3228,6.50458
497,463,8.33179,-6.17694,0.00355867,0.00290467,0.00204143,0.00529912,0.00116421,0.705982,0.00321571,0.0128485,1721,561,8.33182,6.17696
504,463,8.34521,-5.88782,0.00294262,0.00246663,0.00183792,0.00455789,0.000851364,0.721011,0.00279831,0.0163919,1728,561,8.34518,5.88782
511,463,8.37866,-5.59833,0.00231966,0.0020627,0.00169356,0.00388961,0.00049275,0.747539,0.00244543,0.0232101,1735,561,8.37871,5.59832
518,463,8.44495,-5.32581,0.00155021,0.00155493,0.00131771,0.00287029,0.000234856,0.786294,0.00184024,0.0233657,1742,561,8.44496,5.32578
525,463,8.34546,-4.97308,0.000774767,0.00116811,0.000903144,0.00189575,4.71293e-05,0.892607,0.00124842,0.0181837,1749,561,8.3455,4.97308
532,463,8.35168,-4.64355,4.02038e-05,0.000948225,0.000562296,0.00121692,-0.000228491,1.12502,0.000897194,0.015427,1756,561,8.35174,4.64355
539,463,8.34814,-4.34222,-0.000552369,0.000701913,0.000298769,0.000769444,-0.000619899,1.3485,0.000803685,0.0163942,1763,561,8.34819,4.34223
546,463,8.31946,-4.06958,-0.00088389,0.000755428,0.000310087,0.000812122,-0.000940584,1.38996,0.00101283,0.0128244,1770,561,8.31949,4.06956
553,463,8.32349,-3.75134,-0.00111379,0.00088924,0.000392099,0.000963259,-0.00118781,1.38422,0.00124418,0.0109306,1777,561,8.32347,3.75137
560,463,8.32617,-3.39667,-0.00122259,0.00104025,0.000602495,0.00119066,-0.00137301,1.32614,0.00148139,0.0126024,1784,561,8.32613,3.39667
567,463,8.25793,-3.10895,-0.00109317,0.00127831,0.0010371,0.00166787,-0.00148272,1.21148,0.00182004,0.0194741,1791,561,8.25798,3.10893
574,463,8.09375,-2.93475,0,0,0,0,0,0,0,-1,1798,561,8.09369,2.93474
581,463,7.77832,-2.18085,0,0,0,0,0,0,0,-1,1805,561,7.77828,2.18082
588,463,1.97424,2.16016,0,0,0,0,0,0,0,-1,1812,561,1.97422,-2.16013
595,463,9.98657,2.99854,0,0,0,0,0,0,0,-1,1819,561,9.98662,-2.99856
602,463,17.2202,4.91302,0,0,0,0,0,0,0,-1,1826,561,17.2202,-4.91305
609,463,17.96,4.03131,0,0,0,0,0,0,0,-1,1833,561,17.96,-4.03132
616,463,20.8352,3.15131,0,0,0,0,0,0,0,-1,1840,561,20.8352,-3.1513
623,463,0,0,0,0,0,0,0,0,0,-1,1847,561,0,0
630,463,0,0,0,0,0,0,0,0,0,-1,1854,561,0,0
637,463,0,0,0,0,0,0,0,0,0,-1,1861,561,0,0
644,463,0,0,0,0,0,0,0,0,0,-1,1868,561,0,0
651,463,0,0,0,0,0,0,0,0,0,-1,1875,561,0,0
658,463,0,0,0,0,0,0,0,0,0,-1,1882,561,0,0
665,463,0,0,0,0,0,0,0,0,0,-1,1889,561,0,0
672,463,0,0,0,0,0,0,0,0,0,-1,1896,561,0,0
679,463,0,0,0,0,0,0,0,0,0,-1,1903,561,0,0
686,463,0,0,0,0,0,0,0,0,0,-1,1910,561,0,0
693,463,0,0,0,0,0,0,0,0,0,-1,1917,561,0,0
700,463,0,0,0,0,0,0,0,0,0,-1,1924,561,0,0
707,463,0,0,0,0,0,0,0,0,0,-1,1931,561,0,0
714,463,0,0,0,0,0,0,0,0,0,-1,1938,561,0,0
721,463,0,0,0,0,0,0,0,0,0,-1,1945,561,0,0
728,463,0,0,0,0,0,0,0,0,0,-1,1952,561,0,0
735,463,0,0,0,0,0,0,0,0,0,-1,1959,561,0,0
742,463,0,0,0,0,0,0,0,0,0,-1,1966,561,0,0
749,463,0,0,0,0,0,0,0,0,0,-1,1973,561,0,0
756,463,0,0,0,0,0,0,0,0,0,-1,1980,561,0,0
763,463,0,0,0,0,0,0,0,0,0,-1,1987,561,0,0
770,463,0,0,0,0,0,0,0,0,0,-1,1994,561,0,0
777,463,0,0,0,0,0,0,0,0,0,-1,2001,561,0,0
784,463,0,0,0,0,0,0,0,0,0,-1,2008,561,0,0
791,463,0,0,0,0,0,0,0,0,0,-1,2015,561,0,0
798,463,0,0,0,0,0,0,0,0,0,-1,2022,561,0,0
805,463,0,0,0,0,0,0,0,0,0,-1,2029,561,0,0
812,463,0,0,0,0,0,0,0,0,0,-1,2036,561,0,0
-700,456,0,0,0,0,0,0,0,0,0,-1,524,568,0,0
-693,456,0,0,0,0,0,0,0,0,0,-1,531,568,0,0
-686,456,0,0,0,0,0,0,0,0,0,-1,538,568,0,0
-679,456,0,0,0,0,0,0,0,0,0,-1,545,568,0,0
-672,456,0,0,0,0,0,0,0,0,0,-1,552,568,0,0
-665,456,0,0,0,0,0,0,0,0,0,-1,559,568,0,0
-658,456,0,0,0,0,0,0,0,0,0,-1,566,568,0,0
-651,456,0,0,0,0,0,0,0,0,0,-1,573,568,0,0
-644,456,0,0,0,0,0,0,0,0,0,-1,580,568,0,0
-637,456,0,0,0,0,0,0,0,0,0,-1,587,568,0,0
-630,456,0,0,0,0,0,0,0,0,0,-1,594,568,0,0
-623,456,0,0,0,0,0,0,0,0,0,-1,601,568,0,0
-616,456,0,0,0,0,0,0,0,0,0,-1,608,568,0,0
-609,456,0,0,0,0,0,0,0,0,0,-1,615,568,0,0
-602,456,0,0,0,0,0,0,0,0,0,-1,622,568,0,0
-595,456,0,0,0,0,0,0,0,0,0,-1,629,568,0,0
-588,456,0,0,0,0,0,0,0,0,0,-1,636,568,0,0
-581,456,0,0,0,0,0,0,0,0,0,-1,643,568,0,0
-574,456,0,0,0,0,0,0,0,0,0,-1,650,568,0,0
-567,456,0,0,0,0,0,0,0,0,0,-1,657,568,0,0
-560,456,0,0,0,0,0,0,0,0,0,-1,664,568,0,0
-553,456,0,0,0,0,0,0,0,0,0,-1,671,568,0,0
-546,456,0,0,0,0,0,0,0,0,0,-1,678,568,0,0
-539,456,0,0,0,0,0,0,0,0,0,-1,685,568,0,0
-532,456,0,0,0,0,0,0,0,0,0,-1,692,568,0,0
-525,456,0,0,0,0,0,0,0,0,0,-1,699,568,0,0
-518,456,0,0,0,0,0,0,0,0,0,-1,706,568,0,0
-511,456,0,0,0,0,0,0,0,0,0,-1,713,568,0,0
-504,456,-10.3994,-2.34839,0,0,0,0,0,0,0,-1,720,568,-10.3994,2.3484
-497,456,-9.21375,-2.38068,0,0,0,0,0,0,0,-1,727,568,-9.21372,2.38069
-490,456,-8.09058,-2.31824,0,0,0,0,0,0,0,-1,734,568,-8.09057,2.31821
-483,456,-6.66119,-2.24329,0,0,0,0,0,0,0,-1,741,568,-6.66121,2.24331
-476,456,-5.1499,-2.21185,0,0,0,0,0,0,0,-1,748,568,-5.14992,2.21184
-469,456,-2.81238,-3.51501,0,0,0,0,0,0,0,-1,755,568,-2.81237,3.51501
-462,456,-2.28827,-3.92938,0,0,0,0,0,0,0,-1,762,568,-2.28826,3.92938
-455,456,-2.54883,-3.78107,0,0,0,0,0,0,0,-1,769,568,-2.54881,3.7811
-448,456,-2.47351,-4.30792,0.00657686,0.0102808,-0.0107853,0.019372,-0.00251433,-0.870425,0.0138292,0.0360153,776,568,-2.47352,4.30794
-441,456,-2.4826,-4.79688,0.00552813,0.00825266,-0.00842559,0.0154254,-0.00164461,-0.865545,0.0108733,0.0179159,783,568,-2.4826,4.79689
-434,456,-2.52179,-5.10333,0.00440977,0.00632368,-0.00635377,0.0117922,-0.00105871,-0.860143,0.00823705,0.0108005,790,568,-2.5218,5.10334
-427,456,-2.52283,-5.38318,0.00348542,0.00488274,-0.00482341,0.00905782,-0.000689664,-0.857322,0.00628107,0.00930732,797,568,-2.52283,5.3832
-420,456,-2.53003,-5.66187,0.00265822,0.00365525,-0.00354359,0.00673522,-0.000421743,-0.85528,0.00463713,0.0099723,804,568,-2.53002,5.66187
-413,456,-2.53674,-5.94415,0.00155483,0.00242647,-0.00218841,0.00422203,-0.000240738,-0.883687,0.00289827,0.00859793,811,568,-2.53676,5.94416
-406,456,-2.55487,-6.22144,0.000349655,0.00134002,-0.000893714,0.00186657,-0.000176892,-1.03838,0.00130734,0.00844345,818,568,-2.55489,6.22143
-399,456,-2.56055,-6.49719,-0.000910491,0.000175253,0.000353047,0.000279955,-0.00101519,1.28249,0.000786893,0.0100647,825,568,-2.56054,6.4972
-392,456,-2.55225,-6.79272,-0.00227344,-0.00101326,0.00161082,8.63236e-05,-0.00337302,0.97183,0.002278,0.00916191,832,568,-2.55224,6.79275
-385,456,-2.55475,-7.08289,-0.00356487,-0.0020519,0.0027855,7.80025e-05,-0.00569478,0.91799,0.00382279,0.00887309,839,568,-2.55478,7.08288
-378,456,-2.55682,-7.37555,-0.00475386,-0.00306199,0.00394835,0.000130029,-0.00794588,0.890927,0.00534112,0.0103439,846,568,-2.55685,7.37558
-371,456,-2.55029,-7.64124,-0.00567129,-0.00390806,0.00488905,0.000178226,-0.00975757,0.874602,0.00656526,0.0111317,853,568,-2.55027,7.64123
-364,456,-2.54578,-7.88684,-0.00640941,-0.00480265,0.0057892,0.000238651,-0.0114507,0.854344,0.00771459,0.0152125,860,568,-2.54577,7.88683
-357,456,-2.51581,-8.17896,-0.00680035,-0.00565057,0.00643012,0.000230307,-0.0126812,0.829982,0.00853196,0.019695,867,568,-2.51579,8.17897
-350,456,-2.28986,-8.21466,-0.00680604,-0.00641289,0.00684013,0.000233491,-0.0134524,0.799764,0.00904711,0.0399033,874,568,-2.28986,8.21468
-343,456,-2.15088,-7.95892,0,0,0,0,0,0,0,-1,881,568,-2.15089,7.95892
-336,456,-1.86792,-7.66345,0,0,0,0,0,0,0,-1,888,568,-1.86791,7.66345
-329,456,-1.38934,-7.38092,0,0,0,0,0,0,0,-1,895,568,-1.38935,7.38092
-322,456,-0.662537,-7.66632,0,0,0,0,0,0,0,-1,902,568,-0.662564,7.66633
-315,456,-0.675476,-3.38397,0,0,0,0,0,0,0,-1,909,568,-0.675473,3.38399
-308,456,-1.1618,-3.15314,0,0,0,0,0,0,0,-1,916,568,-1.16178,3.15314
-301,456,-1.83551,-3.26447,0,0,0,0,0,0,0,-1,923,568,-1.8355,3.26449
-294,456,-2.93414,-3.35449,0,0,0,0,0,0,0,-1,930,568,-2.93413,3.35451
-287,456,-3.7569,-3.53101,0,0,0,0,0,0,0,-1,937,568,-3.75692,3.53101
-280,456,-13.072,4.52856,0,0,0,0,0,0,0,-1,944,568,-13.072,-4.52855
-273,456,-9.70886,1.40717,0,0,0,0,0,0,0,-1,951,568,-9.70883,-1.40714
-266,456,-6.51294,-1.34845,0,0,0,0,0,0,0,-1,958,568,-6.51294,1.34842
-259,456,0,0,0,0,0,0,0,0,0,-1,965,568,0,0
-252,456,0,0,0,0,0,0,0,0,0,-1,972,568,0,0
-245,456,0,0,0,0,0,0,0,0,0,-1,979,568,0,0
-238,456,0,0,0,0,0,0,0,0,0,-1,986,568,0,0
-231,456,0,0,0,0,0,0,0,0,0,-1,993,568,0,0
-224,456,0,0,0,0,0,0,0,0,0,-1,1000,568,0,0
-217,456,0,0,0,0,0,0,0,0,0,-1,1007,568,0,0
-210,456,0,0,0,0,0,0,0,0,0,-1,1014,568,0,0
-203,456,0,0,0,0,0,0,0,0,0,-1,1021,568,0,0
-196,456,0,0,0,0,0,0,0,0,0,-1,1028,568,0,0
-189,456,0,0,0,0,0,0,0,0,0,-1,1035,568,0,0
-182,456,0,0,0,0,0,0,0,0,0,-1,1042,568,0,0
-175,456,0,0,0,0,0,0,0,0,0,-1,1049,568,0,0
-168,456,0,0,0,0,0,0,0,0,0,-1,1056,568,0,0
-161,456,0,0,0,0,0,0,0,0,0,-1,1063,568,0,0
-154,456,0,0,0,0,0,0,0,0,0,-1,1070,568,0,0
-147,456,0,0,0,0,0,0,0,0,0,-1,1077,568,0,0
-140,456,0,0,0,0,0,0,0,0,0,-1,1084,568,0,0
-133,456,0,0,0,0,0,0,0,0,0,-1,1091,568,0,0
-126,456,0,0,0,0,0,0,0,0,0,-1,1098,568,0,0
-119,456,0,0,0,0,0,0,0,0,0,-1,1105,568,0,0
-112,456,0,0,0,0,0,0,0,0,0,-1,1112,568,0,0
-105,456,0,0,0,0,0,0,0,0,0,-1,1119,568,0,0
-98,456,0,0,0,0,0,0,0,0,0,-1,1126,568,0,0
-91,456,0,0,0,0,0,0,0,0,0,-1,1133,568,0,0
-84,456,0,0,0,0,0,0,0,0,0,-1,1140,568,0,0
-77,456,0,0,0,0,0,0,0,0,0,-1,1147,568,0,0
-70,456,0,0,0,0,0,0,0,0,0,-1,1154,568,0,0
-63,456,0,0,0,0,0,0,0,0,0,-1,1161,568,0,0
-56,456,0,0,0,0,0,0,0,0,0,-1,1168,568,0,0
-49,456,0,0,0,0,0,0,0,0,0,-1,1175,568,0,0
-42,456,0,0,0,0,0,0,0,0,0,-1,1182,568,0,0
-35,456,0,0,0,0,0,0,0,0,0,-1,1189,568,0,0
-28,456,0,0,0,0,0,0,0,0,0,-1,1196,568,0,0
-21,456,0,0,0,0,0,0,0,0,0,-1,1203,568,0,0
-14,456,0,0,0,0,0,0,0,0,0,-1,1210,568,0,0
-7,456,0,0,0,0,0,0,0,0,0,-1,1217,568,0,0
0,456,0,0,0,0,0,0,0,0,0,-1,1224,568,0,0
7,456,0,0,0,0,0,0,0,0,0,-1,1231,568,0,0
14,456,0,0,0,0,0,0,0,0,0,-1,1238,568,0,0
21,456,0,0,0,0,0,0,0,0,0,-1,1245,568,0,0
28,456,0,0,0,0,0,0,0,0,0,-1,1252,568,0,0
35,456,0,0,0,0,0,0,0,0,0,-1,1259,568,0,0
42,456,0,0,0,0,0,0,0,0,0,-1,1266,568,0,0
49,456,0,0,0,0,0,0,0,0,0,-1,1273,568,0,0
56,456,0,0,0,0,0,0,0,0,0,-1,1280,568,0,0
63,456,0,0,0,0,0,0,0,0,0,-1,1287,568,0,0
70,456,0,0,0,0,0,0,0,0,0,-1,1294,568,0,0
77,456,0,0,0,0,0,0,0,0,0,-1,1301,568,0,0
84,456,0,0,0,0,0,0,0,0,0,-1,1308,568,0,0
91,456,0,0,0,0,0,0,0,0,0,-1,1315,568,0,0
98,456,0,0,0,0,0,0,0,0,0,-1,1322,568,0,0
105,456,0,0,0,0,0,0,0,0,0,-1,1329,568,0,0
112,456,0,0,0,0,0,0,0,0,0,-1,1336,568,0,0
119,456,0,0,0,0,0,0,0,0,0,-1,1343,568,0,0
126,456,0,0,0,0,0,0,0,0,0,-1,1350,568,0,0
133,456,0,0,0,0,0,0,0,0,0,-1,1357,568,0,0
140,456,0,0,0,0,0,0,0,0,0,-1,1364,568,0,0
147,456,0,0,0,0,0,0,0,0,0,-1,1371,568,0,0
154,456,0,0,0,0,0,0,0,0,0,-1,1378,568,0,0
161,456,0,0,0,0,0,0,0,0,0,-1,1385,568,0,0
168,456,0,0,0,0,0,0,0,0,0,-1,1392,568,0,0
175,456,0,0,0,0,0,0,0,0,0,-1,1399,568,0,0
182,456,0,0,0,0,0,0,0,0,0,-1,1406,568,0,0
189,456,0,0,0,0,0,0,0,0,0,-1,1413,568,0,0
196,456,0,0,0,0,0,0,0,0,0,-1,1420,568,0,0
203,456,0,0,0,0,0,0,0,0,0,-1,1427,568,0,0
210,456,0,0,0,0,0,0,0,0,0,-1,1434,568,0,0
217,456,0,0,0,0,0,0,0,0,0,-1,1441,568,0,0
224,456,0,0,0,0,0,0,0,0,0,-1,1448,568,0,0
231,456,0,0,0,0,0,0,0,0,0,-1,1455,568,0,0
238,456,0,0,0,0,0,0,0,0,0,-1,1462,568,0,0
245,456,0,0,0,0,0,0,0,0,0,-1,1469,568,0,0
252,456,0,0,0,0,0,0,0,0,0,-1,1476,568,0,0
259,456,0,0,0,0,0,0,0,0,0,-1,1483,568,0,0
266,456,0,0,0,0,0,0,0,0,0,-1,1490,568,0,0
273,456,0,0,0,0,0,0,0,0,0,-1,1497,568,0,0
280,456,0,0,0,0,0,0,0,0,0,-1,1504,568,0,0
287,456,0,0,0,0,0,0,0,0,0,-1,1511,568,0,0
294,456,0,0,0,0,0,0,0,0,0,-1,1518,568,0,0
301,456,0,0,0,0,0,0,0,0,0,-1,1525,568,0,0
308,456,0,0,0,0,0,0,0,0,0,-1,1532,568,0,0
315,456,0,0,0,0,0,0,0,0,0,-1,1539,568,0,0
322,456,0,0,0,0,0,0,0,0,0,-1,1546,568,0,0
329,456,0,0,0,0,0,0,0,0,0,-1,1553,568,0,0
336,456,0,0,0,0,0,0,0,0,0,-1,1560,568,0,0
343,456,0,0,0,0,0,0,0,0,0,-1,1567,568,0,0
350,456,0,0,0,0,0,0,0,0,0,-1,1574,568,0,0
357,456,0,0,0,0,0,0,0,0,0,-1,1581,568,0,0
364,456,0,0,0,0,0,0,0,0,0,-1,1588,568,0,0
371,456,0,0,0,0,0,0,0,0,0,-1,1595,568,0,0
378,456,0,0,0,0,0,0,0,0,0,-1,1602,568,0,0
385,456,5.66284,0.660645,0,0,0,0,0,0,0,-1,1609,568,5.66285,-0.660615
392,456,15.1713,4.17755,0,0,0,0,0,0,0,-1,1616,568,15.1713,-4.17755
399,456,19.4025,4.20325,0,0,0,0,0,0,0,-1,1623,568,19.4025,-4.20327
406,456,22.7371,3.56232,0,0,0,0,0,0,0,-1,1630,568,22.7371,-3.5623
413,456,23.4919,2.00922,0,0,0,0,0,0,0,-1,1637,568,23.492,-2.00924
420,456,23.4626,0.21521,0,0,0,0,0,0,0,-1,1644,568,23.4627,-0.215188
427,456,6.21375,2.02905,0,0,0,0,0,0,0,-1,1651,568,6.21372,-2.02904
434,456,3.0719,-4.86285,0,0,0,0,0,0,0,-1,1658,568,3.07184,4.86287
441,456,2.90344,-4.70459,0,0,0,0,0,0,0,-1,1665,568,2.90346,4.7046
448,456,3.06995,-4.93689,0,0,0,0,0,0,0,-1,1672,568,3.06991,4.93687
455,456,3.46582,-3.43701,0,0,0,0,0,0,0,-1,1679,568,3.46585,3.43698
462,456,4.68445,-4.45831,0,0,0,0,0,0,0,-1,1686,568,4.68439,4.45833
469,456,4.93201,-2.289,0,0,0,0,0,0,0,-1,1693,568,4.93197,2.28903
476,456,4.8363,-2.79364,0,0,0,0,0,0,0,-1,1700,568,4.83636,2.79363
483,456,8.17188,-7.39935,0,0,0,0,0,0,0,-1,1707,568,8.17183,7.39933
490,456,8.69434,-6.74994,0,0,0,0,0,0,0,-1,1714,568,8.6944,6.74994
497,456,8.65784,-6.25739,0.00487167,0.00369229,0.00296329,0.00730337,0.00126059,0.687183,0.00450786,0.0393275,1721,568,8.65788,6.25736
504,456,8.6167,-5.88702,0.00407136,0.00312302,0.00260166,0.00624171,0.000952675,0.69526,0.00388274,0.0119655,1728,568,8.61672,5.887
511,456,8.64136,-5.57306,0.00335273,0.00257209,0.00236146,0.00535591,0.000568918,0.703495,0.00339688,0.0140582,1735,568,8.64139,5.57306
518,456,8.65283,-5.26135,0.00251426,0.00196324,0.00189377,0.00415245,0.000325041,0.713163,0.00266657,0.0166768,1742,568,8.65279,5.26137
525,456,8.63599,-4.96796,0.00167992,0.00151397,0.00140687,0.00300626,0.000187624,0.755944,0.00194465,0.0157042,1749,568,8.63603,4.96798
532,456,8.63843,-4.63629,0.000896579,0.00119777,0.000990505,0.00204906,4.52849e-05,0.860839,0.0013512,0.0151454,1756,568,8.63838,4.63627
539,456,8.63171,-4.31781,0.000247726,0.000818848,0.000629736,0.00122474,-0.00015817,0.998263,0.000874003,0.0183825,1763,568,8.63174,4.31781
546,456,8.61768,-4.03046,-0.000134222,0.000758433,0.000550983,0.00102118,-0.000396971,1.12582,0.000844796,0.0201094,1770,568,8.61771,4.03048
553,456,8.61133,-3.7179,-0.000413148,0.000762375,0.000548712,0.000978695,-0.000629469,1.19527,0.000935743,0.0134477,1777,568,8.61135,3.7179
560,456,8.61584,-3.42444,-0.0006126,0.000787903,0.000656787,0.00104772,-0.000872412,1.19411,0.00111012,0.0107144,1784,568,8.61589,3.42446
567,456,8.62463,-3.10712,-0.000589418,0.000935576,0.000989339,0.00142216,-0.001076,1.11371,0.00144692,0.0148819,1791,568,8.62465,3.10714
574,456,8.6001,-2.94989,-0.000458256,0.00118581,0.00148485,0.00206098,-0.00133343,1.03821,0.00197471,0.0409778,1798,568,8.60015,2.94991
581,456,8.63928,-2.7608,0,0,0,0,0,0,0,-1,1805,568,8.63928,2.76079
588,456,5.23901,-0.0901489,0,0,0,0,0,0,0,-1,1812,568,5.23906,0.0901656
595,456,6.90063,3.14886,0,0,0,0,0,0,0,-1,1819,568,6.90066,-3.14887
602,456,16.894,4.10938,0,0,0,0,0,0,0,-1,1826,568,16.8941,-4.1094
609,456,14.9966,3.5708,0,0,0,0,0,0,0,-1,1833,568,14.9966,-3.57083
616,456,17.7407,2.6579,0,0,0,0,0,0,0,-1,1840,568,17.7408,-2.6579
623,456,20.6838,1.7121,0,0,0,0,0,0,0,-1,1847,568,20.6838,-1.71208
630,456,0,0,0,0,0,0,0,0,0,-1,1854,568,0,0
637,456,0,0,0,0,0,0,0,0,0,-1,1861,568,0,0
644,456,0,0,0,0,0,0,0,0,0,-1,1868,568,0,0
651,456,0,0,0,0,0,0,0,0,0,-1,1875,568,0,0
658,456,0,0,0,0,0,0,0,0,0,-1,1882,568,0,0
665,456,0,0,0,0,0,0,0,0,0,-1,1889,568,0,0
672,456,0,0,0,0,0,0,0,0,0,-1,1896,568,0,0
679,456,0,0,0,0,0,0,0,0,0,-1,1903,568,0,0
686,456,0,0,0,0,0,0,0,0,0,-1,1910,568,0,0
693,456,0,0,0,0,0,0,0,0,0,-1,1917,568,0,0
700,456,0,0,0,0,0,0,0,0,0,-1,1924,568,0,0
707,456,0,0,0,0,0,0,0,0,0,-1,1931,568,0,0
714,456,0,0,0,0,0,0,0,0,0,-1,1938,568,0,0
721,456,0,0,0,0,0,0,0,0,0,-1,1945,568,0,0
728,456,0,0,0,0,0,0,0,0,0,-1,1952,568,0,0
735,456,0,0,0,0,0,0,0,0,0,-1,1959,568,0,0
742,456,0,0,0,0,0,0,0,0,0,-1,1966,568,0,0
749,456,0,0,0,0,0,0,0,0,0,-1,1973,568,0,0
756,456,0,0,0,0,0,0,0,0,0,-1,1980,568,0,0
763,456,0,0,0,0,0,0,0,0,0,-1,1987,568,0,0
770,456,0,0,0,0,0,0,0,0,0,-1,1994,568,0,0
777,456,0,0,0,0,0,0,0,0,0,-1,2001,568,0,0
784,456,0,0,0,0,0,0,0,0,0,-1,2008,568,0,0
791,456,0,0,0,0,0,0,0,0,0,-1,2015,568,0,0
798,456,0,0,0,0,0,0,0,0,0,-1,2022,568,0,0
805,456,0,0,0,0,0,0,0,0,0,-1,2029,568,0,0
812,456,0,0,0,0,0,0,0,0,0,-1,2036,568,0,0
-700,449,0,0,0,0,0,0,0,0,0,-1,524,575,0,0
-693,449,0,0,0,0,0,0,0,0,0,-1,531,575,0,0
-686,449,0,0,0,0,0,0,0,0,0,-1,538,575,0,0
-679,449,0,0,0,0,0,0,0,0,0,-1,545,575,0,0
-672,449,0,0,0,0,0,0,0,0,0,-1,552,575,0,0
-665,449,0,0,0,0,0,0,0,0,0,-1,559,575,0,0
-658,449,0,0,0,0,0,0,0,0,0,-1,566,575,0,0
-651,449,0,0,0,0,0,0,0,0,0,-1,573,575,0,0
-644,449,0,0,0,0,0,0,0,0,0,-1,580,575,0,0
-637,449,0,0,0,0,0,0,0,0,0,-1,587,575,0,0
-630,449,0,0,0,0,0,0,0,0,0,-1,594,575,0,0
-623,449,0,0,0,0,0,0,0,0,0,-1,601,575,0,0
-616,449,0,0,0,0,0,0,0,0,0,-1,608,575,0,0
-609,449,0,0,0,0,0,0,0,0,0,-1,615,575,0,0
-602,449,0,0,0,0,0,0,0,0,0,-1,622,575,0,0
-595,449,0,0,0,0,0,0,0,0,0,-1,629,575,0,0
-588,449,0,0,0,0,0,0,0,0,0,-1,636,575,0,0
-581,449,0,0,0,0,0,0,0,0,0,-1,643,575,0,0
-574,449,0,0,0,0,0,0,0,0,0,-1,650,575,0,0
-567,449,0,0,0,0,0,0,0,0,0,-1,657,575,0,0
-560,449,0,0,0,0,0,0,0,0,0,-1,664,575,0,0
-553,449,0,0,0,0,0,0,0,0,0,-1,671,575,0,0
-546,449,0,0,0,0,0,0,0,0,0,-1,678,575,0,0
-539,449,0,0,0,0,0,0,0,0,0,-1,685,575,0,0
-532,449,0,0,0,0,0,0,0,0,0,-1,692,575,0,0
-525,449,0,0,0,0,0,0,0,0,0,-1,699,575,0,0
-518,449,0,0,0,0,0,0,0,0,0,-1,706,575,0,0
-511,449,-0.941345,-4.4519,0,0,0,0,0,0,0,-1,713,575,-0.941356,4.45191
-504,449,-14.1078,0.318237,0,0,0,0,0,0,0,-1,720,575,-14.1078,-0.318231
-497,449,-8.61292,-3.09009,0,0,0,0,0,0,0,-1,727,575,-8.61291,3.09011
-490,449,-7.50995,-2.96252,0,0,0,0,0,0,0,-1,734,575,-7.50995,2.96251
-483,449,-5.77789,-2.50061,0,0,0,0,0,0,0,-1,741,575,-5.77792,2.50059
-476,449,-4.1723,-2.07739,0,0,0,0,0,0,0,-1,748,575,-4.17228,2.0774
-469,449,-2.55518,-3.31262,0,0,0,0,0,0,0,-1,755,575,-2.55519,3.3126
-462,449,-2.59003,-3.90649,0,0,0,0,0,0,0,-1,762,575,-2.59005,3.90649
-455,449,-2.98212,-4.10046,0,0,0,0,0,0,0,-1,769,575,-2.98209,4.10045
-448,449,-2.81366,-4.48529,0.00499282,0.00776236,-0.00835636,0.0148479,-0.00209273,-0.867509,0.0106649,0.0254659,776,575,-2.81367,4.48528
-441,449,-2.78973,-4.84778,0.00410771,0.00624909,-0.00649396,0.01176,-0.00140324,-0.867101,0.00834718,0.014459,783,575,-2.78973,4.84778
-434,449,-2.81708,-5.10663,0.00305682,0.00465679,-0.00470885,0.00863313,-0.00091952,-0.869539,0.00608513,0.0124778,790,575,-2.81706,5.10664
-427,449,-2.82336,-5.38544,0.00214207,0.00346283,-0.00339159,0.00625773,-0.000652827,-0.881551,0.00440558,0.0128905,797,575,-2.82339,5.38543
-420,449,-2.81812,-5.66138,0.00117745,0.00242271,-0.00219026,0.00407712,-0.000476956,-0.923881,0.00289021,0.0130263,804,575,-2.81812,5.66138
-413,449,-2.82513,-5.94061,-7.78967e-05,0.00134539,-0.000884408,0.00176892,-0.000501424,-1.12419,0.00137719,0.0103168,811,575,-2.82514,5.94062
-406,449,-2.85315,-6.22571,-0.00142269,0.000350999,0.000395527,0.000435203,-0.00150689,1.36104,0.0011768,0.0089706,818,575,-2.85315,6.22569
-399,449,-2.85809,-6.51465,-0.00290834,-0.000793878,0.00169821,0.000149302,-0.00385152,1.06382,0.00261887,0.00892381,825,575,-2.8581,6.51462
-392,449,-2.83856,-6.81024,-0.00459246,-0.00198868,0.00307318,4.70025e-05,-0.00662814,0.985753,0.00443451,0.00991616,832,575,-2.83854,6.81023
-385,449,-2.82727,-7.08185,-0.00632577,-0.00312145,0.00446493,2.00653e-05,-0.00946729,0.957659,0.00631823,0.0100384,839,575,-2.8273,7.08183
-378,449,-2.84009,-7.3407,-0.00806329,-0.00430754,0.0059135,1.90851e-05,-0.0123899,0.939141,0.00826631,0.00955306,846,575,-2.84012,7.3407
-371,449,-2.83405,-7.61719,-0.00962375,-0.00533401,0.00723038,6.29225e-05,-0.0150207,0.929587,0.0100348,0.0101184,853,575,-2.83405,7.61721
-364,449,-2.86365,-7.90985,-0.011103,-0.00653856,0.00860302,7.9819e-05,-0.0177214,0.915052,0.0118409,0.0190395,860,575,-2.86362,7.90983
-357,449,-2.75366,-8.09399,-0.0122941,-0.00775998,0.00974864,-1.8267e-05,-0.0200358,0.899643,0.0133511,0.0394827,867,575,-2.75368,8.09401
-350,449,-2.51044,-8.34369,0,0,0,0,0,0,0,-1,874,575,-2.51043,8.34366
-343,449,-2.31738,-7.51904,0,0,0,0,0,0,0,-1,881,575,-2.31738,7.51904
-336,449,-2.05243,-7.05487,0,0,0,0,0,0,0,-1,888,575,-2.05246,7.05486
-329,449,-0.733398,-7.78937,0,0,0,0,0,0,0,-1,895,575,-0.733398,7.78937
-322,449,-0.628845,-3.16669,0,0,0,0,0,0,0,-1,902,575,-0.628861,3.16667
-315,449,-0.540344,-3.21918,0,0,0,0,0,0,0,-1,909,575,-0.540336,3.21917
-308,449,-1.04413,-2.99341,0,0,0,0,0,0,0,-1,916,575,-1.04415,2.99338
-301,449,-1.58691,-2.80725,0,0,0,0,0,0,0,-1,923,575,-1.58692,2.80728
-294,449,-3.71118,-2.76086,0,0,0,0,0,0,0,-1,930,575,-3.71119,2.76087
-287,449,-4.4082,-2.69525,0,0,0,0,0,0,0,-1,937,575,-4.40822,2.69526
-280,449,-5.09955,-2.96295,0,0,0,0,0,0,0,-1,944,575,-5.09953,2.96297
-273,449,0,0,0,0,0,0,0,0,0,-1,951,575,0,0
-266,449,0,0,0,0,0,0,0,0,0,-1,958,575,0,0
-259,449,0,0,0,0,0,0,0,0,0,-1,965,575,0,0
-252,449,0,0,0,0,0,0,0,0,0,-1,972,575,0,0
-245,449,0,0,0,0,0,0,0,0,0,-1,979,575,0,0
-238,449,0,0,0,0,0,0,0,0,0,-1,986,575,0,0
-231,449,0,0,0,0,0,0,0,0,0,-1,993,575,0,0
-224,449,0,0,0,0,0,0,0,0,0,-1,1000,575,0,0
-217,449,0,0,0,0,0,0,0,0,0,-1,1007,575,0,0
-210,449,0,0,0,0,0,0,0,0,0,-1,1014,575,0,0
-203,449,0,0,0,0,0,0,0,0,0,-1,1021,575,0,0
-196,449,0,0,0,0,0,0,0,0,0,-1,1028,575,0,0
-189,449,0,0,0,0,0,0,0,0,0,-1,1035,575,0,0
-182,449,0,0,0,0,0,0,0,0,0,-1,1042,575,0,0
-175,449,0,0,0,0,0,0,0,0,0,-1,1049,575,0,0
-168,449,0,0,0,0,0,0,0,0,0,-1,1056,575,0,0
-161,449,0,0,0,0,0,0,0,0,0,-1,1063,575,0,0
-154,449,0,0,0,0,0,0,0,0,0,-1,1070,575,0,0
-147,449,0,0,0,0,0,0,0,0,0,-1,1077,575,0,0
-140,449,0,0,0,0,0,0,0,0,0,-1,1084,575,0,0
-133,449,0,0,0,0,0,0,0,0,0,-1,1091,575,0,0
-126,449,0,0,0,0,0,0,0,0,0,-1,1098,575,0,0
-119,449,0,0,0,0,0,0,0,0,0,-1,1105,575,0,0
-112,449,0,0,0,0,0,0,0,0,0,-1,1112,575,0,0
-105,449,0,0,0,0,0,0,0,0,0,-1,1119,575,0,0
-98,449,0,0,0,0,0,0,0,0,0,-1,1126,575,0,0
-91,449,0,0,0,0,0,0,0,0,0,-1,1133,575,0,0
-84,449,0,0,0,0,0,0,0,0,0,-1,1140,575,0,0
-77,449,0,0,0,0,0,0,0,0,0,-1,1147,575,0,0
-70,449,0,0,0,0,0,0,0,0,0,-1,1154,575,0,0
-63,449,0,0,0,0,0,0,0,0,0,-1,1161,575,0,0
-56,449,0,0,0,0,0,0,0,0,0,-1,1168,575,0,0
-49,449,0,0,0,0,0,0,0,0,0,-1,1175,575,0,0
-42,449,0,0,0,0,0,0,0,0,0,-1,1182,575,0,0
-35,449,0,0,0,0,0,0,0,0,0,-1,1189,575,0,0
-28,449,0,0,0,0,0,0,0,0,0,-1,1196,575,0,0
-21,449,0,0,0,0,0,0,0,0,0,-1,1203,575,0,0
-14,449,0,0,0,0,0,0,0,0,0,-1,1210,575,0,0
-7,449,0,0,0,0,0,0,0,0,0,-1,1217,575,0,0
0,449,0,0,0,0,0,0,0,0,0,-1,1224,575,0,0
7,449,0,0,0,0,0,0,0,0,0,-1,1231,575,0,0
14,449,0,0,0,0,0,0,0,0,0,-1,1238,575,0,0
21,449,0,0,0,0,0,0,0,0,0,-1,1245,575,0,0
28,449,0,0,0,0,0,0,0,0,0,-1,1252,575,0,0
35,449,0,0,0,0,0,0,0,0,0,-1,1259,575,0,0
42,449,0,0,0,0,0,0,0,0,0,-1,1266,575,0,0
49,449,0,0,0,0,0,0,0,0,0,-1,1273,575,0,0
56,449,0,0,0,0,0,0,0,0,0,-1,1280,575,0,0
63,449,0,0,0,0,0,0,0,0,0,-1,1287,575,0,0
70,449,0,0,0,0,0,0,0,0,0,-1,1294,575,0,0
77,449,0,0,0,0,0,0,0,0,0,-1,1301,575,0,0
84,449,0,0,0,0,0,0,0,0,0,-1,1308,575,0,0
91,449,0,0,0,0,0,0,0,0,0,-1,1315,575,0,0
98,449,0,0,0,0,0,0,0,0,0,-1,1322,575,0,0
105,449,0,0,0,0,0,0,0,0,0,-1,1329,575,0,0
112,449,0,0,0,0,0,0,0,0,0,-1,1336,575,0,0
119,449,0,0,0,0,0,0,0,0,0,-1,1343,575,0,0
126,449,0,0,0,0,0,0,0,0,0,-1,1350,575,0,0
133,449,0,0,0,0,0,0,0,0,0,-1,1357,575,0,0
140,449,0,0,0,0,0,0,0,0,0,-1,1364,575,0,0
147,449,0,0,0,0,0,0,0,0,0,-1,1371,575,0,0
154,449,0,0,0,0,0,0,0,0,0,-1,1378,575,0,0
161,449,0,0,0,0,0,0,0,0,0,-1,1385,575,0,0
168,449,0,0,0,0,0,0,0,0,0,-1,1392,575,0,0
175,449,0,0,0,0,0,0,0,0,0,-1,1399,575,0,0
182,449,0,0,0,0,0,0,0,0,0,-1,1406,575,0,0
189,449,0,0,0,0,0,0,0,0,0,-1,1413,575,0,0
196,449,0,0,0,0,0,0,0,0,0,-1,1420,575,0,0
203,449,0,0,0,0,0,0,0,0,0,-1,1427,575,0,0
210,449,0,0,0,0,0,0,0,0,0,-1,1434,575,0,0
217,449,0,0,0,0,0,0,0,0,0,-1,1441,575,0,0
224,449,0,0,0,0,0,0,0,0,0,-1,1448,575,0,0
231,449,0,0,0,0,0,0,0,0,0,-1,1455,575,0,0
238,449,0,0,0,0,0,0,0,0,0,-1,1462,575,0,0
245,449,0,0,0,0,0,0,0,0,0,-1,1469,575,0,0
252,449,0,0,0,0,0,0,0,0,0,-1,1476,575,0,0
259,449,0,0,0,0,0,0,0,0,0,-1,1483,575,0,0
266,449,0,0,0,0,0,0,0,0,0,-1,1490,575,0,0
273,449,0,0,0,0,0,0,0,0,0,-1,1497,575,0,0
280,449,0,0,0,0,0,0,0,0,0,-1,1504,575,0,0
287,449,0,0,0,0,0,0,0,0,0,-1,1511,575,0,0
294,449,0,0,0,0,0,0,0,0,0,-1,1518,575,0,0
301,449,0,0,0,0,0,0,0,0,0,-1,1525,575,0,0
308,449,0,0,0,0,0,0,0,0,0,-1,1532,575,0,0
315,449,0,0,0,0,0,0,0,0,0,-1,1539,575,0,0
322,449,0,0,0,0,0,0,0,0,0,-1,1546,575,0,0
329,449,0,0,0,0,0,0,0,0,0,-1,1553,575,0,0
336,449,0,0,0,0,0,0,0,0,0,-1,1560,575,0,0
343,449,0,0,0,0,0,0,0,0,0,-1,1567,575,0,0
350,449,0,0,0,0,0,0,0,0,0,-1,1574,575,0,0
357,449,0,0,0,0,0,0,0,0,0,-1,1581,575,0,0
364,449,0,0,0,0,0,0,0,0,0,-1,1588,575,0,0
371,449,0,0,0,0,0,0,0,0,0,-1,1595,575,0,0
378,449,0,0,0,0,0,0,0,0,0,-1,1602,575,0,0
385,449,0,0,0,0,0,0,0,0,0,-1,1609,575,0,0
392,449,7.95471,3.66217,0,0,0,0,0,0,0,-1,1616,575,7.95471,-3.66218
399,449,19.9791,5.565,0,0,0,0,0,0,0,-1,1623,575,19.9791,-5.56499
406,449,20.1846,3.82263,0,0,0,0,0,0,0,-1,1630,575,20.1846,-3.82261
413,449,20.5931,2.22522,0,0,0,0,0,0,0,-1,1637,575,20.5931,-2.22521
420,449,20.7426,0.528564,0,0,0,0,0,0,0,-1,1644,575,20.7425,-0.528559
427,449,8.96924,-4.53351,0,0,0,0,0,0,0,-1,1651,575,8.96925,4.53353
434,449,4.12927,-7.06952,0,0,0,0,0,0,0,-1,1658,575,4.12932,7.06952
441,449,3.89856,-6.06458,0,0,0,0,0,0,0,-1,1665,575,3.89855,6.06459
448,449,4.03198,-5.18207,0,0,0,0,0,0,0,-1,1672,575,4.03197,5.18207
455,449,4.21948,-4.09467,0,0,0,0,0,0,0,-1,1679,575,4.21952,4.09465
462,449,4.23181,-2.96924,0,0,0,0,0,0,0,-1,1686,575,4.23185,2.96926
469,449,4.51672,-2.95135,0,0,0,0,0,0,0,-1,1693,575,4.51672,2.95135
476,449,4.71838,-1.86688,0,0,0,0,0,0,0,-1,1700,575,4.71842,1.86689
483,449,4.87878,-1.73126,0,0,0,0,0,0,0,-1,1707,575,4.87875,1.73128
490,449,5.73279,-2.74573,0,0,0,0,0,0,0,-1,1714,575,5.73282,2.74575
497,449,8.83984,-6.29376,0,0,0,0,0,0,0,-1,1721,575,8.83988,6.29375
504,449,8.88391,-5.90393,0.00473424,0.00416255,0.00341052,0.00787087,0.00102591,0.74359,0.00494091,0.0425387,1728,575,8.88397,5.90393
511,449,8.93738,-5.56177,0.00403831,0.00332108,0.00303633,0.00673713,0.000622259,0.726616,0.00429904,0.0119129,1735,575,8.93741,5.56175
518,449,8.95032,-5.25128,0.00324934,0.00250628,0.00246127,0.00536697,0.000388658,0.710488,0.00345572,0.01387,1742,575,8.9503,5.25131
525,449,8.92627,-4.95624,0.00245027,0.00192904,0.00190153,0.00410896,0.000270354,0.717295,0.00265378,0.0123717,1749,575,8.92631,4.95625
532,449,8.89514,-4.66504,0.00169964,0.00146003,0.00141412,0.00299902,0.000160651,0.74314,0.00194801,0.0101899,1756,575,8.89513,4.66506
539,449,8.88,-4.34991,0.00105866,0.000936588,0.000968283,0.00196783,2.74188e-05,0.753922,0.00130284,0.012293,1763,575,8.87999,4.3499
546,449,8.89185,-4.02448,0.000660846,0.000744921,0.000798188,0.00150218,-9.64111e-05,0.811707,0.00103509,0.0206379,1770,575,8.8919,4.02445
553,449,8.89465,-3.73334,0.000354231,0.000628962,0.000719076,0.00122368,-0.000240482,0.879776,0.000906639,0.0159729,1777,575,8.89462,3.73335
560,449,8.92529,-3.43494,8.43833e-05,0.000561449,0.000735924,0.00109653,-0.0004507,0.942119,0.00091887,0.0143315,1784,575,8.92524,3.43496
567,449,8.90344,-3.12677,3.58367e-05,0.000645966,0.000972542,0.00136017,-0.000678365,0.937377,0.00119869,0.0100062,1791,575,8.90339,3.12678
574,449,8.91626,-2.79163,0.00016906,0.000873705,0.00142684,0.00199108,-0.000948315,0.906439,0.00173229,0.0199224,1798,575,8.91625,2.7916
581,449,8.95837,-2.33167,0,0,0,0,0,0,0,-1,1805,575,8.95831,2.33167
588,449,8.84106,-1.88751,0,0,0,0,0,0,0,-1,1812,575,8.8411,1.88751
595,449,9.25342,-1.35974,0,0,0,0,0,0,0,-1,1819,575,9.25337,1.35974
602,449,9.46167,4.17444,0,0,0,0,0,0,0,-1,1826,575,9.46164,-4.17442
609,449,12.2028,3.18652,0,0,0,0,0,0,0,-1,1833,575,12.2027,-3.18655
616,449,14.9438,2.19867,0,0,0,0,0,0,0,-1,1840,575,14.9438,-2.19867
623,449,9.83789,-0.0820313,0,0,0,0,0,0,0,-1,1847,575,9.83794,0.0820443
630,449,8.90686,4.99329,0,0,0,0,0,0,0,-1,1854,575,8.90685,-4.99327
637,449,0,0,0,0,0,0,0,0,0,-1,1861,575,0,0
644,449,0,0,0,0,0,0,0,0,0,-1,1868,575,0,0
651,449,0,0,0,0,0,0,0,0,0,-1,1875,575,0,0
658,449,0,0,0,0,0,0,0,0,0,-1,1882,575,0,0
665,449,0,0,0,0,0,0,0,0,0,-1,1889,575,0,0
672,449,0,0,0,0,0,0,0,0,0,-1,1896,575,0,0
679,449,0,0,0,0,0,0,0,0,0,-1,1903,575,0,0
686,449,0,0,0,0,0,0,0,0,0,-1,1910,575,0,0
693,449,0,0,0,0,0,0,0,0,0,-1,1917,575,0,0
700,449,0,0,0,0,0,0,0,0,0,-1,1924,575,0,0
707,449,0,0,0,0,0,0,0,0,0,-1,1931,575,0,0
714,449,0,0,0,0,0,0,0,0,0,-1,1938,575,0,0
721,449,0,0,0,0,0,0,0,0,0,-1,1945,575,0,0
728,449,0,0,0,0,0,0,0,0,0,-1,1952,575,0,0
735,449,0,0,0,0,0,0,0,0,0,-1,1959,575,0,0
742,449,0,0,0,0,0,0,0,0,0,-1,1966,575,0,0
749,449,0,0,0,0,0,0,0,0,0,-1,1973,575,0,0
756,449,0,0,0,0,0,0,0,0,0,-1,1980,575,0,0
763,449,0,0,0,0,0,0,0,0,0,-1,1987,575,0,0
770,449,0,0,0,0,0,0,0,0,0,-1,1994,575,0,0
777,449,0,0,0,0,0,0,0,0,0,-1,2001,575,0,0
784,449,0,0,0,0,0,0,0,0,0,-1,2008,575,0,0
791,449,0,0,0,0,0,0,0,0,0,-1,2015,575,0,0
798,449,0,0,0,0,0,0,0,0,0,-1,2022,575,0,0
805,449,0,0,0,0,0,0,0,0,0,-1,2029,575,0,0
812,449,0,0,0,0,0,0,0,0,0,-1,2036,575,0,0
-700,442,0,0,0,0,0,0,0,0,0,-1,524,582,0,0
-693,442,0,0,0,0,0,0,0,0,0,-1,531,582,0,0
-686,442,0,0,0,0,0,0,0,0,0,-1,538,582,0,0
-679,442,0,0,0,0,0,0,0,0,0,-1,545,582,0,0
-672,442,0,0,0,0,0,0,0,0,0,-1,552,582,0,0
-665,442,0,0,0,0,0,0,0,0,0,-1,559,582,0,0
-658,442,0,0,0,0,0,0,0,0,0,-1,566,582,0,0
-651,442,0,0,0,0,0,0,0,0,0,-1,573,582,0,0
-644,442,0,0,0,0,0,0,0,0,0,-1,580,582,0,0
-637,442,0,0,0,0,0,0,0,0,0,-1,587,582,0,0
-630,442,0,0,0,0,0,0,0,0,0,-1,594,582,0,0
-623,442,0,0,0,0,0,0,0,0,0,-1,601,582,0,0
-616,442,0,0,0,0,0,0,0,0,0,-1,608,582,0,0
-609,442,0,0,0,0,0,0,0,0,0,-1,615,582,0,0
-602,442,0,0,0,0,0,0,0,0,0,-1,622,582,0,0
-595,442,0,0,0,0,0,0,0,0,0,-1,629,582,0,0
-588,442,0,0,0,0,0,0,0,0,0,-1,636,582,0,0
-581,442,0,0,0,0,0,0,0,0,0,-1,643,582,0,0
-574,442,0,0,0,0,0,0,0,0,0,-1,650,582,0,0
-567,442,0,0,0,0,0,0,0,0,0,-1,657,582,0,0
-560,442,0,0,0,0,0,0,0,0,0,-1,664,582,0,0
-553,442,0,0,0,0,0,0,0,0,0,-1,671,582,0,0
-546,442,0,0,0,0,0,0,0,0,0,-1,678,582,0,0
-539,442,0,0,0,0,0,0,0,0,0,-1,685,582,0,0
-532,442,0,0,0,0,0,0,0,0,0,-1,692,582,0,0
-525,442,0,0,0,0,0,0,0,0,0,-1,699,582,0,0
-518,442,-0.493774,-5.72943,0,0,0,0,0,0,0,-1,706,582,-0.493791,5.72946
-511,442,-1.68738,-5.91357,0,0,0,0,0,0,0,-1,713,582,-1.68736,5.91359
-504,442,-3.20807,-6.34082,0,0,0,0,0,0,0,-1,720,582,-3.2081,6.34083
-497,442,-13.6886,-0.250122,0,0,0,0,0,0,0,-1,727,582,-13.6886,0.250143
-490,442,-9.09039,-3.64862,0,0,0,0,0,0,0,-1,734,582,-9.09037,3.64861
-483,442,-7.3457,-0.569519,0,0,0,0,0,0,0,-1,741,582,-7.34569,0.5695
-476,442,-2.91229,-2.76465,0,0,0,0,0,0,0,-1,748,582,-2.91227,2.76463
-469,442,-2.93201,-3.33374,0.00725702,0.0121853,-0.013887,0.0238251,-0.00438277,-0.873205,0.0175279,0.0489732,755,582,-2.93198,3.33375
-462,442,-3.0152,-3.95581,0.00558404,0.00954878,-0.0107292,0.0184772,-0.00334436,-0.87675,0.013571,0.0337132,762,582,-3.0152,3.95583
-455,442,-3.16266,-4.2666,0.00446999,0.00738252,-0.00837553,0.0144274,-0.00257493,-0.871473,0.0105816,0.0275095,769,582,-3.16266,4.26659
-448,442,-3.08521,-4.5191,0.00356498,0.00590762,-0.00644599,0.0112879,-0.00181525,-0.875274,0.00819759,0.0144629,776,582,-3.08519,4.51909
-441,442,-3.07379,-4.81158,0.00283303,0.004721,-0.00492954,0.00879613,-0.0012421,-0.880001,0.00631894,0.0138875,783,582,-3.07379,4.8116
-434,442,-3.09198,-5.10004,0.00182655,0.00334725,-0.00334155,0.00601386,-0.000840064,-0.897265,0.0043166,0.0136877,790,582,-3.092,5.10002
-427,442,-3.12042,-5.36902,0.000905485,0.00230167,-0.00217025,0.00388333,-0.000676183,-0.941004,0.00284123,0.0123074,797,582,-3.12043,5.369
-420,442,-3.11243,-5.65698,-0.000241754,0.0013529,-0.000983083,0.00182134,-0.000710202,-1.12612,0.00150779,0.0126132,804,582,-3.1124,5.65701
-413,442,-3.1076,-5.93713,-0.00171476,0.000349107,0.000331468,0.000401036,-0.00176669,1.4154,0.00133175,0.0109053,811,582,-3.1076,5.93716
-406,442,-3.12183,-6.23486,-0.00328656,-0.000621443,0.00165271,0.000169004,-0.00407701,1.12468,0.00277606,0.00876957,818,582,-3.12182,6.23488
-399,442,-3.12354,-6.53375,-0.0051166,-0.00180034,0.00307714,3.69819e-05,-0.00695392,1.03252,0.00464832,0.00809361,825,582,-3.12353,6.53375
-392,442,-3.12299,-6.80151,-0.0072811,-0.00305206,0.00465262,-5.59906e-05,-0.0102772,0.998684,0.00683286,0.0108232,832,582,-3.12298,6.80153
-385,442,-3.11938,-7.06592,-0.00966958,-0.00434035,0.00637081,-9.93614e-05,-0.0139106,0.98347,0.00924077,0.0124358,839,582,-3.11936,7.06594
-378,442,-3.11676,-7.34552,-0.0122526,-0.00578224,0.00825761,-0.00014868,-0.0178862,0.972099,0.0118749,0.0120682,846,582,-3.11673,7.34552
-371,442,-3.11761,-7.64777,-0.014836,-0.00710141,0.0101619,-9.57604e-05,-0.0218417,0.967219,0.0145293,0.0218981,853,582,-3.11759,7.64779
-364,442,-3.25397,-7.93286,-0.0175109,-0.00873396,0.0122621,-9.87276e-05,-0.0261461,0.957241,0.0173979,0.0367866,860,582,-3.25395,7.93285
-357,442,-3.09027,-8.19214,0,0,0,0,0,0,0,-1,867,582,-3.09029,8.19212
-350,442,-1.75372,-6.27618,0,0,0,0,0,0,0,-1,874,582,-1.75371,6.27618
-343,442,-1.4599,-4.63605,0,0,0,0,0,0,0,-1,881,582,-1.4599,4.63607
-336,442,-1.4054,-2.64313,0,0,0,0,0,0,0,-1,888,582,-1.40539,2.64315
-329,442,-0.952576,-2.76923,0,0,0,0,0,0,0,-1,895,582,-0.952571,2.7692
-322,442,-0.972534,-2.63208,0,0,0,0,0,0,0,-1,902,582,-0.972512,2.6321
-315,442,-0.445557,-2.89764,0,0,0,0,0,0,0,-1,909,582,-0.445582,2.89765
-308,442,-0.654175,-3.07831,0,0,0,0,0,0,0,-1,916,582,-0.654145,3.07832
-301,442,-1.37427,-2.41455,0,0,0,0,0,0,0,-1,923,582,-1.37425,2.41453
-294,442,-2.99963,-2.07855,0,0,0,0,0,0,0,-1,930,582,-2.99964,2.07857
-287,442,-5.62799,-2.76422,0,0,0,0,0,0,0,-1,937,582,-5.628,2.76424
-280,442,0,0,0,0,0,0,0,0,0,-1,944,582,0,0
-273,442,0,0,0,0,0,0,0,0,0,-1,951,582,0,0
-266,442,0,0,0,0,0,0,0,0,0,-1,958,582,0,0
-259,442,0,0,0,0,0,0,0,0,0,-1,965,582,0,0
-252,442,0,0,0,0,0,0,0,0,0,-1,972,582,0,0
-245,442,0,0,0,0,0,0,0,0,0,-1,979,582,0,0
-238,442,0,0,0,0,0,0,0,0,0,-1,986,582,0,0
-231,442,0,0,0,0,0,0,0,0,0,-1,993,582,0,0
-224,442,0,0,0,0,0,0,0,0,0,-1,1000,582,0,0
-217,442,0,0,0,0,0,0,0,0,0,-1,1007,582,0,0
-210,442,0,0,0,0,0,0,0,0,0,-1,1014,582,0,0
-203,442,0,0,0,0,0,0,0,0,0,-1,1021,582,0,0
-196,442,0,0,0,0,0,0,0,0,0,-1,1028,582,0,0
-189,442,0,0,0,0,0,0,0,0,0,-1,1035,582,0,0
-182,442,0,0,0,0,0,0,0,0,0,-1,1042,582,0,0
-175,442,0,0,0,0,0,0,0,0,0,-1,1049,582,0,0
-168,442,0,0,0,0,0,0,0,0,0,-1,1056,582,0,0
-161,442,0,0,0,0,0,0,0,0,0,-1,1063,582,0,0
-154,442,0,0,0,0,0,0,0,0,0,-1,1070,582,0,0
-147,442,0,0,0,0,0,0,0,0,0,-1,1077,582,0,0
-140,442,0,0,0,0,0,0,0,0,0,-1,1084,582,0,0
-133,442,0,0,0,0,0,0,0,0,0,-1,1091,582,0,0
-126,442,0,0,0,0,0,0,0,0,0,-1,1098,582,0,0
-119,442,0,0,0,0,0,0,0,0,0,-1,1105,582,0,0
-112,442,0,0,0,0,0,0,0,0,0,-1,1112,582,0,0
-105,442,0,0,0,0,0,0,0,0,0,-1,1119,582,0,0
-98,442,0,0,0,0,0,0,0,0,0,-1,1126,582,0,0
-91,442,0,0,0,0,0,0,0,0,0,-1,1133,582,0,0
-84,442,0,0,0,0,0,0,0,0,0,-1,1140,582,0,0
-77,442,0,0,0,0,0,0,0,0,0,-1,1147,582,0,0
-70,442,0,0,0,0,0,0,0,0,0,-1,1154,582,0,0
-63,442,0,0,0,0,0,0,0,0,0,-1,1161,582,0,0
-56,442,0,0,0,0,0,0,0,0,0,-1,1168,582,0,0
-49,442,0,0,0,0,0,0,0,0,0,-1,1175,582,0,0
-42,442,0,0,0,0,0,0,0,0,0,-1,1182,582,0,0
-35,442,0,0,0,0,0,0,0,0,0,-1,1189,582,0,0
-28,442,0,0,0,0,0,0,0,0,0,-1,1196,582,0,0
-21,442,0,0,0,0,0,0,0,0,0,-1,1203,582,0,0
-14,442,0,0,0,0,0,0,0,0,0,-1,1210,582,0,0
-7,442,0,0,0,0,0,0,0,0,0,-1,1217,582,0,0
0,442,0,0,0,0,0,0,0,0,0,-1,1224,582,0,0
7,442,0,0,0,0,0,0,0,0,0,-1,1231,582,0,0
14,442,0,0,0,0,0,0,0,0,0,-1,1238,582,0,0
21,442,0,0,0,0,0,0,0,0,0,-1,1245,582,0,0
28,442,0,0,0,0,0,0,0,0,0,-1,1252,582,0,0
35,442,0,0,0,0,0,0,0,0,0,-1,1259,582,0,0
42,442,0,0,0,0,0,0,0,0,0,-1,1266,582,0,0
49,442,0,0,0,0,0,0,0,0,0,-1,1273,582,0,0
56,442,0,0,0,0,0,0,0,0,0,-1,1280,582,0,0
63,442,0,0,0,0,0,0,0,0,0,-1,1287,582,0,0
70,442,0,0,0,0,0,0,0,0,0,-1,1294,582,0,0
77,442,0,0,0,0,0,0,0,0,0,-1,1301,582,0,0
84,442,0,0,0,0,0,0,0,0,0,-1,1308,582,0,0
91,442,0,0,0,0,0,0,0,0,0,-1,1315,582,0,0
98,442,0,0,0,0,0,0,0,0,0,-1,1322,582,0,0
105,442,0,0,0,0,0,0,0,0,0,-1,1329,582,0,0
112,442,0,0,0,0,0,0,0,0,0,-1,1336,582,0,0
119,442,0,0,0,0,0,0,0,0,0,-1,1343,582,0,0
126,442,0,0,0,0,0,0,0,0,0,-1,1350,582,0,0
133,442,0,0,0,0,0,0,0,0,0,-1,1357,582,0,0
140,442,0,0,0,0,0,0,0,0,0,-1,1364,582,0,0
147,442,0,0,0,0,0,0,0,0,0,-1,1371,582,0,0
154,442,0,0,0,0,0,0,0,0,0,-1,1378,582,0,0
161,442,0,0,0,0,0,0,0,0,0,-1,1385,582,0,0
168,442,0,0,0,0,0,0,0,0,0,-1,1392,582,0,0
175,442,0,0,0,0,0,0,0,0,0,-1,1399,582,0,0
182,442,0,0,0,0,0,0,0,0,0,-1,1406,582,0,0
189,442,0,0,0,0,0,0,0,0,0,-1,1413,582,0,0
196,442,0,0,0,0,0,0,0,0,0,-1,1420,582,0,0
203,442,0,0,0,0,0,0,0,0,0,-1,1427,582,0,0
210,442,0,0,0,0,0,0,0,0,0,-1,1434,582,0,0
217,442,0,0,0,0,0,0,0,0,0,-1,1441,582,0,0
224,442,0,0,0,0,0,0,0,0,0,-1,1448,582,0,0
231,442,0,0,0,0,0,0,0,0,0,-1,1455,582,0,0
238,442,0,0,0,0,0,0,0,0,0,-1,1462,582,0,0
245,442,0,0,0,0,0,0,0,0,0,-1,1469,582,0,0
252,442,0,0,0,0,0,0,0,0,0,-1,1476,582,0,0
259,442,0,0,0,0,0,0,0,0,0,-1,1483,582,0,0
266,442,0,0,0,0,0,0,0,0,0,-1,1490,582,0,0
273,442,0,0,0,0,0,0,0,0,0,-1,1497,582,0,0
280,442,0,0,0,0,0,0,0,0,0,-1,1504,582,0,0
287,442,0,0,0,0,0,0,0,0,0,-1,1511,582,0,0
294,442,0,0,0,0,0,0,0,0,0,-1,1518,582,0,0
301,442,0,0,0,0,0,0,0,0,0,-1,1525,582,0,0
308,442,0,0,0,0,0,0,0,0,0,-1,1532,582,0,0
315,442,0,0,0,0,0,0,0,0,0,-1,1539,582,0,0
322,442,0,0,0,0,0,0,0,0,0,-1,1546,582,0,0
329,442,0,0,0,0,0,0,0,0,0,-1,1553,582,0,0
336,442,0,0,0,0,0,0,0,0,0,-1,1560,582,0,0
343,442,0,0,0,0,0,0,0,0,0,-1,1567,582,0,0
350,442,0,0,0,0,0,0,0,0,0,-1,1574,582,0,0
357,442,0,0,0,0,0,0,0,0,0,-1,1581,582,0,0
364,442,0,0,0,0,0,0,0,0,0,-1,1588,582,0,0
371,442,0,0,0,0,0,0,0,0,0,-1,1595,582,0,0
378,442,0,0,0,0,0,0,0,0,0,-1,1602,582,0,0
385,442,0,0,0,0,0,0,0,0,0,-1,1609,582,0,0
392,442,0,0,0,0,0,0,0,0,0,-1,1616,582,0,0
399,442,0,0,0,0,0,0,0,0,0,-1,1623,582,0,0
406,442,17.6321,4.08295,0,0,0,0,0,0,0,-1,1630,582,17.6321,-4.08293
413,442,17.6935,2.57434,0,0,0,0,0,0,0,-1,1637,582,17.6934,-2.57437
420,442,4.69055,3.09448,0,0,0,0,0,0,0,-1,1644,582,4.69054,-3.0945
427,442,2.44519,-1.35358,0,0,0,0,0,0,0,-1,1651,582,2.44514,1.35361
434,442,8.45898,-3.86719,0,0,0,0,0,0,0,-1,1658,582,8.45904,3.86719
441,442,4.89368,-7.42456,0,0,0,0,0,0,0,-1,1665,582,4.89365,7.42457
448,442,4.7749,-5.88562,0,0,0,0,0,0,0,-1,1672,582,4.7749,5.8856
455,442,4.87024,-4.60687,0,0,0,0,0,0,0,-1,1679,582,4.87019,4.60686
462,442,5.02307,-3.72821,0,0,0,0,0,0,0,-1,1686,582,5.02311,3.7282
469,442,5.12976,-2.98834,0,0,0,0,0,0,0,-1,1693,582,5.12971,2.98834
476,442,5.4624,1.76947,0,0,0,0,0,0,0,-1,1700,582,5.46234,-1.76944
483,442,5.98486,1.87042,0,0,0,0,0,0,0,-1,1707,582,5.98492,-1.87045
490,442,5.04407,-2.35834,0,0,0,0,0,0,0,-1,1714,582,5.04411,2.35837
497,442,6.20984,-3.07831,0,0,0,0,0,0,0,-1,1721,582,6.2098,3.07833
504,442,9.04663,-6.00043,0,0,0,0,0,0,0,-1,1728,582,9.04664,6.0004
511,442,9.16016,-5.5824,0.00483265,0.00413354,0.00359223,0.00809229,0.000873894,0.736897,0.00512844,0.0267444,1735,582,9.16016,5.5824
518,442,9.23987,-5.23865,0.00398669,0.00311399,0.00294161,0.00652414,0.000576538,0.711766,0.00417055,0.0117379,1742,582,9.23989,5.23865
525,442,9.21887,-4.9519,0.00312292,0.00243255,0.00233424,0.00513736,0.000418112,0.711991,0.00329439,0.0099443,1749,582,9.21893,4.95189
532,442,9.21997,-4.65027,0.00232297,0.00183033,0.0017939,0.00388738,0.000265916,0.71717,0.00250765,0.0101163,1756,582,9.21993,4.65029
539,442,9.21838,-4.34247,0.00162602,0.00120728,0.00128046,0.00271411,0.000119186,0.704358,0.00177102,0.0108176,1763,582,9.21833,4.34244
546,442,9.21777,-4.05078,0.00115876,0.000901526,0.00101845,0.00205668,3.60468e-06,0.722587,0.00136992,0.0138343,1770,582,9.21779,4.05075
553,442,9.1991,-3.73755,0.000792681,0.000690706,0.000870006,0.00161319,-0.000129805,0.756129,0.00112124,0.0156632,1777,582,9.19908,3.73752
560,442,9.21313,-3.42096,0.000445888,0.000558032,0.00081002,0.00131392,-0.000309998,0.819955,0.0009955,0.0150272,1784,582,9.21318,3.42097
567,442,9.19739,-3.112,0.000311037,0.000594811,0.000961227,0.00142457,-0.000518718,0.858674,0.00116188,0.0105,1791,582,9.19733,3.11202
574,442,9.203,-2.80273,0.000393942,0.000804657,0.00135848,0.00197322,-0.000774615,0.860414,0.001636,0.0124106,1798,582,9.20304,2.80271
581,442,9.2467,-2.43604,0.000569674,0.00120057,0.00195964,0.00286999,-0.00109974,0.8652,0.00236667,0.0201167,1805,582,9.24667,2.43604
588,442,9.20508,-2.26294,0.00100624,0.00183791,0.00287743,0.0043294,-0.00148524,0.85716,0.00348838,0.0314972,1812,582,9.2051,2.26293
595,442,9.29248,-1.74139,0.00166663,0.00295608,0.00409617,0.00645795,-0.00183525,0.863456,0.00502992,0.0461623,1819,582,9.29245,1.74142
602,442,9.46265,-1.04126,0,0,0,0,0,0,0,-1,1826,582,9.46261,1.04128
609,442,9.38428,2.86908,0,0,0,0,0,0,0,-1,1833,582,9.38429,-2.86906
616,442,9.78345,-0.103394,0,0,0,0,0,0,0,-1,1840,582,9.78341,0.103424
623,442,9.23828,0.326721,0,0,0,0,0,0,0,-1,1847,582,9.23829,-0.326727
630,442,7.74304,2.3924,0,0,0,0,0,0,0,-1,1854,582,7.7431,-2.39238
637,442,5.87805,1.84027,0,0,0,0,0,0,0,-1,1861,582,5.87807,-1.84025
644,442,0,0,0,0,0,0,0,0,0,-1,1868,582,0,0
651,442,0,0,0,0,0,0,0,0,0,-1,1875,582,0,0
658,442,0,0,0,0,0,0,0,0,0,-1,1882,582,0,0
665,442,0,0,0,0,0,0,0,0,0,-1,1889,582,0,0
672,442,0,0,0,0,0,0,0,0,0,-1,1896,582,0,0
679,442,0,0,0,0,0,0,0,0,0,-1,1903,582,0,0
686,442,0,0,0,0,0,0,0,0,0,-1,1910,582,0,0
693,442,0,0,0,0,0,0,0,0,0,-1,1917,582,0,0
700,442,0,0,0,0,0,0,0,0,0,-1,1924,582,0,0
707,442,0,0,0,0,0,0,0,0,0,-1,1931,582,0,0
714,442,0,0,0,0,0,0,0,0,0,-1,1938,582,0,0
721,442,0,0,0,0,0,0,0,0,0,-1,1945,582,0,0
728,442,0,0,0,0,0,0,0,0,0,-1,1952,582,0,0
735,442,0,0,0,0,0,0,0,0,0,-1,1959,582,0,0
742,442,0,0,0,0,0,0,0,0,0,-1,1966,582,0,0
749,442,0,0,0,0,0,0,0,0,0,-1,1973,582,0,0
756,442,0,0,0,0,0,0,0,0,0,-1,1980,582,0,0
763,442,0,0,0,0,0,0,0,0,0,-1,1987,582,0,0
770,442,0,0,0,0,0,0,0,0,0,-1,1994,582,0,0
777,442,0,0,0,0,0,0,0,0,0,-1,2001,582,0,0
784,442,0,0,0,0,0,0,0,0,0,-1,2008,582,0,0
791,442,0,0,0,0,0,0,0,0,0,-1,2015,582,0,0
798,442,0,0,0,0,0,0,0,0,0,-1,2022,582,0,0
805,442,0,0,0,0,0,0,0,0,0,-1,2029,582,0,0
812,442,0,0,0,0,0,0,0,0,0,-1,2036,582,0,0
-700,435,0,0,0,0,0,0,0,0,0,-1,524,589,0,0
-693,435,0,0,0,0,0,0,0,0,0,-1,531,589,0,0
-686,435,0,0,0,0,0,0,0,0,0,-1,538,589,0,0
-679,435,0,0,0,0,0,0,0,0,0,-1,545,589,0,0
-672,435,0,0,0,0,0,0,0,0,0,-1,552,589,0,0
-665,435,0,0,0,0,0,0,0,0,0,-1,559,589,0,0
-658,435,0,0,0,0,0,0,0,0,0,-1,566,589,0,0
-651,435,0,0,0,0,0,0,0,0,0,-1,573,589,0,0
-644,435,0,0,0,0,0,0,0,0,0,-1,580,589,0,0
-637,435,0,0,0,0,0,0,0,0,0,-1,587,589,0,0
-630,435,0,0,0,0,0,0,0,0,0,-1,594,589,0,0
-623,435,0,0,0,0,0,0,0,0,0,-1,601,589,0,0
-616,435,0,0,0,0,0,0,0,0,0,-1,608,589,0,0
-609,435,0,0,0,0,0,0,0,0,0,-1,615,589,0,0
-602,435,0,0,0,0,0,0,0,0,0,-1,622,589,0,0
-595,435,0,0,0,0,0,0,0,0,0,-1,629,589,0,0
-588,435,0,0,0,0,0,0,0,0,0,-1,636,589,0,0
-581,435,0,0,0,0,0,0,0,0,0,-1,643,589,0,0
-574,435,0,0,0,0,0,0,0,0,0,-1,650,589,0,0
-567,435,0,0,0,0,0,0,0,0,0,-1,657,589,0,0
-560,435,0,0,0,0,0,0,0,0,0,-1,664,589,0,0
-553,435,0,0,0,0,0,0,0,0,0,-1,671,589,0,0
-546,435,0,0,0,0,0,0,0,0,0,-1,678,589,0,0
-539,435,0,0,0,0,0,0,0,0,0,-1,685,589,0,0
-532,435,0,0,0,0,0,0,0,0,0,-1,692,589,0,0
-525,435,-10.0776,10.0547,0,0,0,0,0,0,0,-1,699,589,-10.0776,-10.0547
-518,435,-0.928711,-4.91492,0,0,0,0,0,0,0,-1,706,589,-0.928723,4.91489
-511,435,-2.43555,-5.38599,0,0,0,0,0,0,0,-1,713,589,-2.43553,5.38597
-504,435,-3.89355,-5.72308,0,0,0,0,0,0,0,-1,720,589,-3.89353,5.72309
-497,435,-6.31012,-5.84698,0,0,0,0,0,0,0,-1,727,589,-6.31012,5.84697
-490,435,-5.81903,-0.458679,0,0,0,0,0,0,0,-1,734,589,-5.81902,0.458684
-483,435,-6.2019,-1.34552,0,0,0,0,0,0,0,-1,741,589,-6.20193,1.34554
-476,435,-6.58484,-2.23242,0,0,0,0,0,0,0,-1,748,589,-6.58484,2.2324
-469,435,-3.30084,-3.36914,0.00565426,0.00971327,-0.0108987,0.0187698,-0.00340226,-0.877452,0.0137879,0.0280306,755,589,-3.30085,3.36913
-462,435,-3.32373,-3.9411,0.00424073,0.00752321,-0.00834861,0.0143904,-0.00262643,-0.882455,0.0105783,0.0143868,762,589,-3.32376,3.94109
-455,435,-3.39679,-4.20526,0.00327275,0.00573394,-0.00642709,0.0110472,-0.00204049,-0.879988,0.00813075,0.0143161,769,589,-3.3968,4.20527
-448,435,-3.37103,-4.50793,0.00251956,0.00447399,-0.00485575,0.00844988,-0.00145633,-0.884696,0.0061762,0.0133951,776,589,-3.37104,4.50791
-441,435,-3.35522,-4.79138,0.00183402,0.00350052,-0.00359252,0.00635515,-0.00102062,-0.899354,0.00461475,0.0115854,783,589,-3.35524,4.79139
-434,435,-3.37292,-5.05243,0.000803219,0.00228817,-0.00214962,0.00381993,-0.000728535,-0.951684,0.002821,0.0125464,790,589,-3.37294,5.05244
-427,435,-3.39423,-5.35925,-0.00018772,0.00134243,-0.0010736,0.00189567,-0.000740959,-1.09497,0.00157017,0.00969345,797,589,-3.3942,5.35923
-420,435,-3.39142,-5.65137,-0.00160332,0.000432007,0.000149246,0.000442893,-0.0016142,1.49799,0.00125019,0.00950542,804,589,-3.39141,5.65137
-413,435,-3.38763,-5.92926,-0.00339973,-0.000542389,0.00151862,0.00011396,-0.00405608,1.16284,0.00274283,0.0101319,811,589,-3.38765,5.92926
-406,435,-3.38336,-6.20679,-0.00532188,-0.00153581,0.00292673,5.67501e-05,-0.00691444,1.07246,0.00462866,0.0103395,818,589,-3.38336,6.20679
-399,435,-3.3949,-6.5083,-0.00764559,-0.00279085,0.00452552,-8.2802e-05,-0.0103536,1.03156,0.00687499,0.00875463,825,589,-3.3949,6.50833
-392,435,-3.40369,-6.78192,-0.0104842,-0.00414883,0.00637126,-0.000201226,-0.0144318,1.01609,0.00955482,0.0104249,832,589,-3.40367,6.78192
-385,435,-3.3952,-7.06177,-0.0137916,-0.00566126,0.00851634,-0.000289601,-0.0191633,1.00807,0.0126801,0.0131037,839,589,-3.39518,7.06176
-378,435,-3.39545,-7.32245,-0.0176001,-0.00745601,0.0109941,-0.000420386,-0.0246357,1.00152,0.0162855,0.0206592,846,589,-3.39544,7.32247
-371,435,-3.578,-7.55164,-0.0216717,-0.00920437,0.0137004,-0.000386138,-0.03049,0.9989,0.0201992,0.0380484,853,589,-3.578,7.55163
-364,435,-3.7276,-7.81049,-0.0261242,-0.0114268,0.0168217,-0.000418665,-0.0371324,0.991334,0.0246166,0.0468213,860,589,-3.72763,7.81047
-357,435,-3.81146,-8.15863,0,0,0,0,0,0,0,-1,867,589,-3.81144,8.15865
-350,435,-0.86676,-3.69836,0,0,0,0,0,0,0,-1,874,589,-0.866784,3.69834
-343,435,-1.60706,-2.36835,0,0,0,0,0,0,0,-1,881,589,-1.60706,2.36838
-336,435,-2.07263,-1.94012,0,0,0,0,0,0,0,-1,888,589,-2.07265,1.94014
-329,435,-2.55963,-1.5517,0,0,0,0,0,0,0,-1,895,589,-2.5596,1.55168
-322,435,-3.08545,-1.55255,0,0,0,0,0,0,0,-1,902,589,-3.08544,1.55254
-315,435,-0.404297,-2.63763,0,0,0,0,0,0,0,-1,909,589,-0.404276,2.63761
-308,435,-1.70056,-1.90369,0,0,0,0,0,0,0,-1,916,589,-1.70056,1.90367
-301,435,-1.25232,-2.05511,0,0,0,0,0,0,0,-1,923,589,-1.25234,2.05514
-294,435,-1.79974,-1.97321,0,0,0,0,0,0,0,-1,930,589,-1.79973,1.97322
-287,435,0,0,0,0,0,0,0,0,0,-1,937,589,0,0
-280,435,0,0,0,0,0,0,0,0,0,-1,944,589,0,0
-273,435,0,0,0,0,0,0,0,0,0,-1,951,589,0,0
-266,435,0,0,0,0,0,0,0,0,0,-1,958,589,0,0
-259,435,0,0,0,0,0,0,0,0,0,-1,965,589,0,0
-252,435,0,0,0,0,0,0,0,0,0,-1,972,589,0,0
-245,435,0,0,0,0,0,0,0,0,0,-1,979,589,0,0
-238,435,0,0,0,0,0,0,0,0,0,-1,986,589,0,0
-231,435,0,0,0,0,0,0,0,0,0,-1,993,589,0,0
-224,435,0,0,0,0,0,0,0,0,0,-1,1000,589,0,0
-217,435,0,0,0,0,0,0,0,0,0,-1,1007,589,0,0
-210,435,0,0,0,0,0,0,0,0,0,-1,1014,589,0,0
-203,435,0,0,0,0,0,0,0,0,0,-1,1021,589,0,0
-196,435,0,0,0,0,0,0,0,0,0,-1,1028,589,0,0
-189,435,0,0,0,0,0,0,0,0,0,-1,1035,589,0,0
-182,435,0,0,0,0,0,0,0,0,0,-1,1042,589,0,0
-175,435,0,0,0,0,0,0,0,0,0,-1,1049,589,0,0
-168,435,0,0,0,0,0,0,0,0,0,-1,1056,589,0,0
-161,435,0,0,0,0,0,0,0,0,0,-1,1063,589,0,0
-154,435,0,0,0,0,0,0,0,0,0,-1,1070,589,0,0
-147,435,0,0,0,0,0,0,0,0,0,-1,1077,589,0,0
-140,435,0,0,0,0,0,0,0,0,0,-1,1084,589,0,0
-133,435,0,0,0,0,0,0,0,0,0,-1,1091,589,0,0
-126,435,0,0,0,0,0,0,0,0,0,-1,1098,589,0,0
-119,435,0,0,0,0,0,0,0,0,0,-1,1105,589,0,0
-112,435,0,0,0,0,0,0,0,0,0,-1,1112,589,0,0
-105,435,0,0,0,0,0,0,0,0,0,-1,1119,589,0,0
-98,435,0,0,0,0,0,0,0,0,0,-1,1126,589,0,0
-91,435,0,0,0,0,0,0,0,0,0,-1,1133,589,0,0
-84,435,0,0,0,0,0,0,0,0,0,-1,1140,589,0,0
-77,435,0,0,0,0,0,0,0,0,0,-1,1147,589,0,0
-70,435,0,0,0,0,0,0,0,0,0,-1,1154,589,0,0
-63,435,0,0,0,0,0,0,0,0,0,-1,1161,589,0,0
-56,435,0,0,0,0,0,0,0,0,0,-1,1168,589,0,0
-49,435,0,0,0,0,0,0,0,0,0,-1,1175,589,0,0
-42,435,0,0,0,0,0,0,0,0,0,-1,1182,589,0,0
-35,435,0,0,0,0,0,0,0,0,0,-1,1189,589,0,0
-28,435,0,0,0,0,0,0,0,0,0,-1,1196,589,0,0
-21,435,0,0,0,0,0,0,0,0,0,-1,1203,589,0,0
-14,435,0,0,0,0,0,0,0,0,0,-1,1210,589,0,0
-7,435,0,0,0,0,0,0,0,0,0,-1,1217,589,0,0
0,435,0,0,0,0,0,0,0,0,0,-1,1224,589,0,0
7,435,0,0,0,0,0,0,0,0,0,-1,1231,589,0,0
14,435,0,0,0,0,0,0,0,0,0,-1,1238,589,0,0
21,435,0,0,0,0,0,0,0,0,0,-1,1245,589,0,0
28,435,0,0,0,0,0,0,0,0,0,-1,1252,589,0,0
35,435,0,0,0,0,0,0,0,0,0,-1,1259,589,0,0
42,435,0,0,0,0,0,0,0,0,0,-1,1266,589,0,0
49,435,0,0,0,0,0,0,0,0,0,-1,1273,589,0,0
56,435,0,0,0,0,0,0,0,0,0,-1,1280,589,0,0
63,435,0,0,0,0,0,0,0,0,0,-1,1287,589,0,0
70,435,0,0,0,0,0,0,0,0,0,-1,1294,589,0,0
77,435,0,0,0,0,0,0,0,0,0,-1,1301,589,0,0
84,435,0,0,0,0,0,0,0,0,0,-1,1308,589,0,0
91,435,0,0,0,0,0,0,0,0,0,-1,1315,589,0,0
98,435,0,0,0,0,0,0,0,0,0,-1,1322,589,0,0
105,435,0,0,0,0,0,0,0,0,0,-1,1329,589,0,0
112,435,0,0,0,0,0,0,0,0,0,-1,1336,589,0,0
119,435,0,0,0,0,0,0,0,0,0,-1,1343,589,0,0
126,435,0,0,0,0,0,0,0,0,0,-1,1350,589,0,0
133,435,0,0,0,0,0,0,0,0,0,-1,1357,589,0,0
140,435,0,0,0,0,0,0,0,0,0,-1,1364,589,0,0
147,435,0,0,0,0,0,0,0,0,0,-1,1371,589,0,0
154,435,0,0,0,0,0,0,0,0,0,-1,1378,589,0,0
161,435,0,0,0,0,0,0,0,0,0,-1,1385,589,0,0
168,435,0,0,0,0,0,0,0,0,0,-1,1392,589,0,0
175,435,0,0,0,0,0,0,0,0,0,-1,1399,589,0,0
182,435,0,0,0,0,0,0,0,0,0,-1,1406,589,0,0
189,435,0,0,0,0,0,0,0,0,0,-1,1413,589,0,0
196,435,0,0,0,0,0,0,0,0,0,-1,1420,589,0,0
203,435,0,0,0,0,0,0,0,0,0,-1,1427,589,0,0
210,435,0,0,0,0,0,0,0,0,0,-1,1434,589,0,0
217,435,0,0,0,0,0,0,0,0,0,-1,1441,589,0,0
224,435,0,0,0,0,0,0,0,0,0,-1,1448,589,0,0
231,435,0,0,0,0,0,0,0,0,0,-1,1455,589,0,0
238,435,0,0,0,0,0,0,0,0,0,-1,1462,589,0,0
245,435,0,0,0,0,0,0,0,0,0,-1,1469,589,0,0
252,435,0,0,0,0,0,0,0,0,0,-1,1476,589,0,0
259,435,0,0,0,0,0,0,0,0,0,-1,1483,589,0,0
266,435,0,0,0,0,0,0,0,0,0,-1,1490,589,0,0
273,435,0,0,0,0,0,0,0,0,0,-1,1497,589,0,0
280,435,0,0,0,0,0,0,0,0,0,-1,1504,589,0,0
287,435,0,0,0,0,0,0,0,0,0,-1,1511,589,0,0
294,435,0,0,0,0,0,0,0,0,0,-1,1518,589,0,0
301,435,0,0,0,0,0,0,0,0,0,-1,1525,589,0,0
308,435,0,0,0,0,0,0,0,0,0,-1,1532,589,0,0
315,435,0,0,0,0,0,0,0,0,0,-1,1539,589,0,0
322,435,0,0,0,0,0,0,0,0,0,-1,1546,589,0,0
329,435,0,0,0,0,0,0,0,0,0,-1,1553,589,0,0
336,435,0,0,0,0,0,0,0,0,0,-1,1560,589,0,0
343,435,0,0,0,0,0,0,0,0,0,-1,1567,589,0,0
350,435,0,0,0,0,0,0,0,0,0,-1,1574,589,0,0
357,435,0,0,0,0,0,0,0,0,0,-1,1581,589,0,0
364,435,0,0,0,0,0,0,0,0,0,-1,1588,589,0,0
371,435,0,0,0,0,0,0,0,0,0,-1,1595,589,0,0
378,435,0,0,0,0,0,0,0,0,0,-1,1602,589,0,0
385,435,0,0,0,0,0,0,0,0,0,-1,1609,589,0,0
392,435,0,0,0,0,0,0,0,0,0,-1,1616,589,0,0
399,435,0,0,0,0,0,0,0,0,0,-1,1623,589,0,0
406,435,0,0,0,0,0,0,0,0,0,-1,1630,589,0,0
413,435,3.62073,3.42682,0,0,0,0,0,0,0,-1,1637,589,3.62069,-3.4268
420,435,3.6062,3.71564,0,0,0,0,0,0,0,-1,1644,589,3.60616,-3.71562
427,435,3.11963,0.640198,0,0,0,0,0,0,0,-1,1651,589,3.11967,-0.640192
434,435,2.72107,-1.34802,0,0,0,0,0,0,0,-1,1658,589,2.7211,1.34803
441,435,7.33191,-1.57452,0,0,0,0,0,0,0,-1,1665,589,7.33193,1.57452
448,435,7.4585,-0.00292969,0,0,0,0,0,0,0,-1,1672,589,7.45848,0.00294131
455,435,5.49915,-5.047,0,0,0,0,0,0,0,-1,1679,589,5.49914,5.04703
462,435,5.60669,-4.71466,0,0,0,0,0,0,0,-1,1686,589,5.60675,4.71469
469,435,5.87708,1.22351,0,0,0,0,0,0,0,-1,1693,589,5.87703,-1.22351
476,435,6.14136,1.37714,0,0,0,0,0,0,0,-1,1700,589,6.14138,-1.37712
483,435,6.49243,1.36169,0,0,0,0,0,0,0,-1,1707,589,6.49242,-1.36171
490,435,4.38391,-1.36218,0,0,0,0,0,0,0,-1,1714,589,4.38389,1.3622
497,435,7.23499,-3.64551,0,0,0,0,0,0,0,-1,1721,589,7.23495,3.64551
504,435,7.31189,-3.75909,0,0,0,0,0,0,0,-1,1728,589,7.31184,3.75911
511,435,9.40625,-5.63251,0,0,0,0,0,0,0,-1,1735,589,9.40626,5.63253
518,435,9.53271,-5.26953,0.00469354,0.00371806,0.00359827,0.00783698,0.00057462,0.718034,0.00504403,0.0209077,1742,589,9.53272,5.26954
525,435,9.52551,-4.95569,0.00367522,0.00296287,0.00283814,0.00617945,0.000458642,0.722976,0.00397558,0.0120031,1749,589,9.52549,4.95571
532,435,9.55835,-4.63544,0.00276991,0.00224241,0.00215938,0.00468159,0.000330736,0.724628,0.00301686,0.0127238,1756,589,9.55841,4.63543
539,435,9.5614,-4.31964,0.00198711,0.00155312,0.00151839,0.00330393,0.000236294,0.714423,0.00212824,0.0140349,1763,589,9.56146,4.31962
546,435,9.53528,-4.02728,0.00143806,0.00113137,0.00111376,0.00240898,0.000160448,0.716989,0.00155527,0.0140474,1770,589,9.53531,4.02727
553,435,9.52539,-3.72986,0.0010284,0.000827916,0.00087377,0.00180766,4.86588e-05,0.728285,0.00118922,0.0106522,1777,589,9.5254,3.72985
560,435,9.50793,-3.4071,0.000648274,0.000633602,0.00073828,0.00137925,-9.73784e-05,0.78043,0.000953621,0.00913238,1784,589,9.50796,3.40713
567,435,9.51208,-3.0929,0.000476562,0.00062062,0.000816026,0.00136779,-0.000270608,0.829418,0.00101417,0.00872064,1791,589,9.5121,3.09287
574,435,9.50867,-2.79559,0.000560927,0.000800606,0.00115984,0.00184678,-0.000485251,0.836877,0.00142083,0.0100093,1798,589,9.50863,2.79557
581,435,9.50671,-2.49579,0.000726429,0.00113342,0.00166495,0.00260726,-0.000747411,0.846208,0.00203362,0.0162706,1805,589,9.50669,2.4958
588,435,9.51489,-2.1944,0.00109178,0.00172015,0.00244984,0.00387587,-0.00106394,0.849173,0.00300207,0.0243951,1812,589,9.51487,2.19441
595,435,9.47388,-1.89191,0.00168042,0.00268122,0.00353436,0.00575043,-0.00138879,0.855722,0.00437073,0.0268388,1819,589,9.47384,1.89192
602,435,9.47949,-1.45959,0.00234346,0.0039298,0.00490185,0.00810224,-0.00182898,0.865608,0.00610319,0.0454428,1826,589,9.47945,1.45957
609,435,9.54065,-1.13153,0,0,0,0,0,0,0,-1,1833,589,9.5407,1.13154
616,435,5.05151,-2.75269,0,0,0,0,0,0,0,-1,1840,589,5.05157,2.7527
623,435,11.7588,3.9704,0,0,0,0,0,0,0,-1,1847,589,11.7587,-3.97043
630,435,4.72742,-0.87561,0,0,0,0,0,0,0,-1,1854,589,4.7274,0.875636
637,435,5.05286,1.48792,0,0,0,0,0,0,0,-1,1861,589,5.05291,-1.48792
644,435,0,0,0,0,0,0,0,0,0,-1,1868,589,0,0
651,435,0,0,0,0,0,0,0,0,0,-1,1875,589,0,0
658,435,0,0,0,0,0,0,0,0,0,-1,1882,589,0,0
665,435,0,0,0,0,0,0,0,0,0,-1,1889,589,0,0
672,435,0,0,0,0,0,0,0,0,0,-1,1896,589,0,0
679,435,0,0,0,0,0,0,0,0,0,-1,1903,589,0,0
686,435,0,0,0,0,0,0,0,0,0,-1,1910,589,0,0
693,435,0,0,0,0,0,0,0,0,0,-1,1917,589,0,0
700,435,0,0,0,0,0,0,0,0,0,-1,1924,589,0,0
707,435,0,0,0,0,0,0,0,0,0,-1,1931,589,0,0
714,435,0,0,0,0,0,0,0,0,0,-1,1938,589,0,0
721,435,0,0,0,0,0,0,0,0,0,-1,1945,589,0,0
728,435,0,0,0,0,0,0,0,0,0,-1,1952,589,0,0
735,435,0,0,0,0,0,0,0,0,0,-1,1959,589,0,0
742,435,0,0,0,0,0,0,0,0,0,-1,1966,589,0,0
749,435,0,0,0,0,0,0,0,0,0,-1,1973,589,0,0
756,435,0,0,0,0,0,0,0,0,0,-1,1980,589,0,0
763,435,0,0,0,0,0,0,0,0,0,-1,1987,589,0,0
770,435,0,0,0,0,0,0,0,0,0,-1,1994,589,0,0
777,435,0,0,0,0,0,0,0,0,0,-1,2001,589,0,0
784,435,0,0,0,0,0,0,0,0,0,-1,2008,589,0,0
791,435,0,0,0,0,0,0,0,0,0,-1,2015,589,0,0
798,435,0,0,0,0,0,0,0,0,0,-1,2022,589,0,0
805,435,0,0,0,0,0,0,0,0,0,-1,2029,589,0,0
812,435,0,0,0,0,0,0,0,0,0,-1,2036,589,0,0
-700,428,0,0,0,0,0,0,0,0,0,-1,524,596,0,0
-693,428,0,0,0,0,0,0,0,0,0,-1,531,596,0,0
-686,428,0,0,0,0,0,0,0,0,0,-1,538,596,0,0
-679,428,0,0,0,0,0,0,0,0,0,-1,545,596,0,0
-672,428,0,0,0,0,0,0,0,0,0,-1,552,596,0,0
-665,428,0,0,0,0,0,0,0,0,0,-1,559,596,0,0
-658,428,0,0,0,0,0,0,0,0,0,-1,566,596,0,0
-651,428,0,0,0,0,0,0,0,0,0,-1,573,596,0,0
-644,428,0,0,0,0,0,0,0,0,0,-1,580,596,0,0
-637,428,0,0,0,0,0,0,0,0,0,-1,587,596,0,0
-630,428,0,0,0,0,0,0,0,0,0,-1,594,596,0,0
-623,428,0,0,0,0,0,0,0,0,0,-1,601,596,0,0
-616,428,0,0,0,0,0,0,0,0,0,-1,608,596,0,0
-609,428,0,0,0,0,0,0,0,0,0,-1,615,596,0,0
-602,428,0,0,0,0,0,0,0,0,0,-1,622,596,0,0
-595,428,0,0,0,0,0,0,0,0,0,-1,629,596,0,0
-588,428,0,0,0,0,0,0,0,0,0,-1,636,596,0,0
-581,428,0,0,0,0,0,0,0,0,0,-1,643,596,0,0
-574,428,0,0,0,0,0,0,0,0,0,-1,650,596,0,0
-567,428,0,0,0,0,0,0,0,0,0,-1,657,596,0,0
-560,428,0,0,0,0,0,0,0,0,0,-1,664,596,0,0
-553,428,0,0,0,0,0,0,0,0,0,-1,671,596,0,0
-546,428,0,0,0,0,0,0,0,0,0,-1,678,596,0,0
-539,428,0,0,0,0,0,0,0,0,0,-1,685,596,0,0
-532,428,0,0,0,0,0,0,0,0,0,-1,692,596,0,0
-525,428,-9.59918,7.58618,0,0,0,0,0,0,0,-1,699,596,-9.59918,-7.5862
-518,428,-1.78259,-8.1123,0,0,0,0,0,0,0,-1,706,596,-1.78261,8.11233
-511,428,-3.32758,-4.85852,0,0,0,0,0,0,0,-1,713,596,-3.32759,4.85853
-504,428,-4.19916,-4.97797,0,0,0,0,0,0,0,-1,720,596,-4.19918,4.97795
-497,428,-2.85516,-3.52179,0,0,0,0,0,0,0,-1,727,596,-2.85517,3.52181
-490,428,-5.18085,-1.86847,0,0,0,0,0,0,0,-1,734,596,-5.18087,1.86845
-483,428,-5.0661,-2.06659,0,0,0,0,0,0,0,-1,741,596,-5.0661,2.06658
-476,428,-5.55988,-2.91119,0,0,0,0,0,0,0,-1,748,596,-5.55988,2.91118
-469,428,-3.60156,-3.58331,0.00452158,0.00741164,-0.00825225,0.0143444,-0.0024112,-0.872073,0.0104597,0.0187242,755,596,-3.60154,3.58333
-462,428,-3.63519,-3.86298,0.00312837,0.00565931,-0.00624093,0.0107618,-0.00197409,-0.885427,0.00791504,0.0172596,762,596,-3.63518,3.86298
-455,428,-3.6673,-4.17999,0.00228319,0.00421432,-0.00469957,0.00804649,-0.00154899,-0.886717,0.00594827,0.0130826,769,596,-3.66729,4.18
-448,428,-3.69,-4.46967,0.00165724,0.00313059,-0.0034263,0.00589851,-0.00111068,-0.891289,0.00435009,0.0117826,776,596,-3.69001,4.46968
-441,428,-3.66626,-4.76074,0.000995198,0.00234235,-0.00238375,0.00414586,-0.000808317,-0.923093,0.00306904,0.0134344,783,596,-3.66628,4.76076
-434,428,-3.65631,-5.0849,-6.55518e-05,0.0012947,-0.00108583,0.00189582,-0.000666672,-1.06519,0.00153514,0.010017,790,596,-3.65631,5.08491
-427,428,-3.66089,-5.39722,-0.00113334,0.000461601,-0.000106009,0.000468616,-0.00114036,-1.50472,0.000955547,0.0106914,797,596,-3.66086,5.39719
-420,428,-3.66187,-5.65594,-0.00284704,-0.000404488,0.00115208,5.31673e-05,-0.0033047,1.19267,0.00222107,0.0107667,804,596,-3.66184,5.65594
-413,428,-3.64673,-5.89685,-0.00504219,-0.00134517,0.00258796,-1.33407e-05,-0.00637402,1.09552,0.00424491,0.0133915,811,596,-3.64671,5.89686
-406,428,-3.65704,-6.17761,-0.00743573,-0.00236732,0.00410625,-7.62232e-05,-0.00972682,1.06187,0.00645929,0.0162205,818,596,-3.65704,6.17763
-399,428,-3.67108,-6.48871,-0.0104243,-0.0037077,0.00592086,-0.000259042,-0.013873,1.04337,0.00916353,0.0138814,825,596,-3.67111,6.4887
-392,428,-3.66406,-6.79596,-0.0141926,-0.00519748,0.00811441,-0.000417557,-0.0189725,1.03846,0.0125115,0.0140257,832,596,-3.66409,6.79597
-385,428,-3.69171,-7.06134,-0.0187935,-0.00700534,0.0108207,-0.000577548,-0.0252213,1.03478,0.016625,0.0227813,839,596,-3.69171,7.06132
-378,428,-3.85223,-7.11902,-0.0243571,-0.00923998,0.0140841,-0.000814404,-0.0327827,1.03168,0.0215888,0.0403787,846,596,-3.85221,7.11901
-371,428,-4.46674,-7.22253,-0.0307232,-0.0117421,0.018015,-0.000870606,-0.0415946,1.02783,0.0274442,0.0491788,853,596,-4.46675,7.22256
-364,428,-4.19714,-7.67963,0,0,0,0,0,0,0,-1,860,596,-4.19713,7.6796
-357,428,-3.20996,-4.70966,0,0,0,0,0,0,0,-1,867,596,-3.20997,4.70965
-350,428,-1.62793,-3.94055,0,0,0,0,0,0,0,-1,874,596,-1.62794,3.94055
-343,428,-0.0567017,-4.80994,0,0,0,0,0,0,0,-1,881,596,-0.0567096,4.80996
-336,428,-3.29175,-1.39569,0,0,0,0,0,0,0,-1,888,596,-3.29172,1.39568
-329,428,-3.71564,-0.791321,0,0,0,0,0,0,0,-1,895,596,-3.71564,0.791299
-322,428,-5.52863,-3.59827,0,0,0,0,0,0,0,-1,902,596,-5.52865,3.59829
-315,428,-4.57172,-1.22052,0,0,0,0,0,0,0,-1,909,596,-4.57171,1.22052
-308,428,-5.26538,-1.1521,0,0,0,0,0,0,0,-1,916,596,-5.26539,1.15209
-301,428,0,0,0,0,0,0,0,0,0,-1,923,596,0,0
-294,428,0,0,0,0,0,0,0,0,0,-1,930,596,0,0
-287,428,0,0,0,0,0,0,0,0,0,-1,937,596,0,0
-280,428,0,0,0,0,0,0,0,0,0,-1,944,596,0,0
-273,428,0,0,0,0,0,0,0,0,0,-1,951,596,0,0
-266,428,0,0,0,0,0,0,0,0,0,-1,958,596,0,0
-259,428,0,0,0,0,0,0,0,0,0,-1,965,596,0,0
-252,428,0,0,0,0,0,0,0,0,0,-1,972,596,0,0
-245,428,0,0,0,0,0,0,0,0,0,-1,979,596,0,0
-238,428,0,0,0,0,0,0,0,0,0,-1,986,596,0,0
-231,428,0,0,0,0,0,0,0,0,0,-1,993,596,0,0
-224,428,0,0,0,0,0,0,0,0,0,-1,1000,596,0,0
-217,428,0,0,0,0,0,0,0,0,0,-1,1007,596,0,0
-210,428,0,0,0,0,0,0,0,0,0,-1,1014,596,0,0
-203,428,0,0,0,0,0,0,0,0,0,-1,1021,596,0,0
-196,428,0,0,0,0,0,0,0,0,0,-1,1028,596,0,0
-189,428,0,0,0,0,0,0,0,0,0,-1,1035,596,0,0
-182,428,0,0,0,0,0,0,0,0,0,-1,1042,596,0,0
-175,428,0,0,0,0,0,0,0,0,0,-1,1049,596,0,0
-168,428,0,0,0,0,0,0,0,0,0,-1,1056,596,0,0
-161,428,0,0,0,0,0,0,0,0,0,-1,1063,596,0,0
-154,428,0,0,0,0,0,0,0,0,0,-1,1070,596,0,0
-147,428,0,0,0,0,0,0,0,0,0,-1,1077,596,0,0
-140,428,0,0,0,0,0,0,0,0,0,-1,1084,596,0,0
-133,428,0,0,0,0,0,0,0,0,0,-1,1091,596,0,0
-126,428,0,0,0,0,0,0,0,0,0,-1,1098,596,0,0
-119,428,0,0,0,0,0,0,0,0,0,-1,1105,596,0,0
-112,428,0,0,0,0,0,0,0,0,0,-1,1112,596,0,0
-105,428,0,0,0,0,0,0,0,0,0,-1,1119,596,0,0
-98,428,0,0,0,0,0,0,0,0,0,-1,1126,596,0,0
-91,428,0,0,0,0,0,0,0,0,0,-1,1133,596,0,0
-84,428,0,0,0,0,0,0,0,0,0,-1,1140,596,0,0
-77,428,0,0,0,0,0,0,0,0,0,-1,1147,596,0,0
-70,428,0,0,0,0,0,0,0,0,0,-1,1154,596,0,0
-63,428,0,0,0,0,0,0,0,0,0,-1,1161,596,0,0
-56,428,0,0,0,0,0,0,0,0,0,-1,1168,596,0,0
-49,428,0,0,0,0,0,0,0,0,0,-1,1175,596,0,0
-42,428,0,0,0,0,0,0,0,0,0,-1,1182,596,0,0
-35,428,0,0,0,0,0,0,0,0,0,-1,1189,596,0,0
-28,428,0,0,0,0,0,0,0,0,0,-1,1196,596,0,0
-21,428,0,0,0,0,0,0,0,0,0,-1,1203,596,0,0
-14,428,0,0,0,0,0,0,0,0,0,-1,1210,596,0,0
-7,428,0,0,0,0,0,0,0,0,0,-1,1217,596,0,0
0,428,0,0,0,0,0,0,0,0,0,-1,1224,596,0,0
7,428,0,0,0,0,0,0,0,0,0,-1,1231,596,0,0
14,428,0,0,0,0,0,0,0,0,0,-1,1238,596,0,0
21,428,0,0,0,0,0,0,0,0,0,-1,1245,596,0,0
28,428,0,0,0,0,0,0,0,0,0,-1,1252,596,0,0
35,428,0,0,0,0,0,0,0,0,0,-1,1259,596,0,0
42,428,0,0,0,0,0,0,0,0,0,-1,1266,596,0,0
49,428,0,0,0,0,0,0,0,0,0,-1,1273,596,0,0
56,428,0,0,0,0,0,0,0,0,0,-1,1280,596,0,0
63,428,0,0,0,0,0,0,0,0,0,-1,1287,596,0,0
70,428,0,0,0,0,0,0,0,0,0,-1,1294,596,0,0
77,428,0,0,0,0,0,0,0,0,0,-1,1301,596,0,0
84,428,0,0,0,0,0,0,0,0,0,-1,1308,596,0,0
91,428,0,0,0,0,0,0,0,0,0,-1,1315,596,0,0
98,428,0,0,0,0,0,0,0,0,0,-1,1322,596,0,0
105,428,0,0,0,0,0,0,0,0,0,-1,1329,596,0,0
112,428,0,0,0,0,0,0,0,0,0,-1,1336,596,0,0
119,428,0,0,0,0,0,0,0,0,0,-1,1343,596,0,0
126,428,0,0,0,0,0,0,0,0,0,-1,1350,596,0,0
133,428,0,0,0,0,0,0,0,0,0,-1,1357,596,0,0
140,428,0,0,0,0,0,0,0,0,0,-1,1364,596,0,0
147,428,0,0,0,0,0,0,0,0,0,-1,1371,596,0,0
154,428,0,0,0,0,0,0,0,0,0,-1,1378,596,0,0
161,428,0,0,0,0,0,0,0,0,0,-1,1385,596,0,0
168,428,0,0,0,0,0,0,0,0,0,-1,1392,596,0,0
175,428,0,0,0,0,0,0,0,0,0,-1,1399,596,0,0
182,428,0,0,0,0,0,0,0,0,0,-1,1406,596,0,0
189,428,0,0,0,0,0,0,0,0,0,-1,1413,596,0,0
196,428,0,0,0,0,0,0,0,0,0,-1,1420,596,0,0
203,428,0,0,0,0,0,0,0,0,0,-1,1427,596,0,0
210,428,0,0,0,0,0,0,0,0,0,-1,1434,596,0,0
217,428,0,0,0,0,0,0,0,0,0,-1,1441,596,0,0
224,428,0,0,0,0,0,0,0,0,0,-1,1448,596,0,0
231,428,0,0,0,0,0,0,0,0,0,-1,1455,596,0,0
238,428,0,0,0,0,0,0,0,0,0,-1,1462,596,0,0
245,428,0,0,0,0,0,0,0,0,0,-1,1469,596,0,0
252,428,0,0,0,0,0,0,0,0,0,-1,1476,596,0,0
259,428,0,0,0,0,0,0,0,0,0,-1,1483,596,0,0
266,428,0,0,0,0,0,0,0,0,0,-1,1490,596,0,0
273,428,0,0,0,0,0,0,0,0,0,-1,1497,596,0,0
280,428,0,0,0,0,0,0,0,0,0,-1,1504,596,0,0
287,428,0,0,0,0,0,0,0,0,0,-1,1511,596,0,0
294,428,0,0,0,0,0,0,0,0,0,-1,1518,596,0,0
301,428,0,0,0,0,0,0,0,0,0,-1,1525,596,0,0
308,428,0,0,0,0,0,0,0,0,0,-1,1532,596,0,0
315,428,0,0,0,0,0,0,0,0,0,-1,1539,596,0,0
322,428,0,0,0,0,0,0,0,0,0,-1,1546,596,0,0
329,428,0,0,0,0,0,0,0,0,0,-1,1553,596,0,0
336,428,0,0,0,0,0,0,0,0,0,-1,1560,596,0,0
343,428,0,0,0,0,0,0,0,0,0,-1,1567,596,0,0
350,428,0,0,0,0,0,0,0,0,0,-1,1574,596,0,0
357,428,0,0,0,0,0,0,0,0,0,-1,1581,596,0,0
364,428,0,0,0,0,0,0,0,0,0,-1,1588,596,0,0
371,428,0,0,0,0,0,0,0,0,0,-1,1595,596,0,0
378,428,0,0,0,0,0,0,0,0,0,-1,1602,596,0,0
385,428,0,0,0,0,0,0,0,0,0,-1,1609,596,0,0
392,428,0,0,0,0,0,0,0,0,0,-1,1616,596,0,0
399,428,0,0,0,0,0,0,0,0,0,-1,1623,596,0,0
406,428,0,0,0,0,0,0,0,0,0,-1,1630,596,0,0
413,428,0,0,0,0,0,0,0,0,0,-1,1637,596,0,0
420,428,2.95886,0.551819,0,0,0,0,0,0,0,-1,1644,596,2.9589,-0.551797
427,428,3.19385,0.384705,0,0,0,0,0,0,0,-1,1651,596,3.19383,-0.384692
434,428,8.18152,1.80432,0,0,0,0,0,0,0,-1,1658,596,8.18148,-1.80434
441,428,8.17993,0.607483,0,0,0,0,0,0,0,-1,1665,596,8.17997,-0.607513
448,428,7.84338,-0.385986,0,0,0,0,0,0,0,-1,1672,596,7.84336,0.385978
455,428,6.64038,2.1123,0,0,0,0,0,0,0,-1,1679,596,6.64037,-2.11229
462,428,4.84106,4.12341,0,0,0,0,0,0,0,-1,1686,596,4.84107,-4.12339
469,428,7.83789,3.10083,0,0,0,0,0,0,0,-1,1693,596,7.83785,-3.10086
476,428,7.61255,1.73956,0,0,0,0,0,0,0,-1,1700,596,7.61252,-1.73958
483,428,7.22766,1.05121,0,0,0,0,0,0,0,-1,1707,596,7.2277,-1.05121
490,428,5.4071,-3.2793,0,0,0,0,0,0,0,-1,1714,596,5.40707,3.27929
497,428,7.84106,-3.65491,0,0,0,0,0,0,0,-1,1721,596,7.84107,3.65491
504,428,6.92139,-2.83356,0,0,0,0,0,0,0,-1,1728,596,6.92137,2.83353
511,428,7.88501,-3.78723,0,0,0,0,0,0,0,-1,1735,596,7.88502,3.78722
518,428,9.80396,-5.34149,0,0,0,0,0,0,0,-1,1742,596,9.80401,5.34147
525,428,9.74365,-5.04559,0.00413623,0.0037974,0.00344764,0.00741862,0.000515017,0.760848,0.00478332,0.0403846,1749,596,9.74363,5.04557
532,428,9.83435,-4.61273,0.00306415,0.00291066,0.00257871,0.00556726,0.000407553,0.770522,0.00358339,0.0186174,1756,596,9.83431,4.61271
539,428,9.86987,-4.29095,0.00214835,0.00212189,0.0017803,0.00391547,0.00035477,0.781682,0.00250046,0.0199313,1763,596,9.86982,4.29093
546,428,9.85352,-4.02386,0.00148162,0.00152715,0.00120819,0.00271279,0.000295985,0.794818,0.00171838,0.0154987,1770,596,9.85348,4.02384
553,428,9.83362,-3.73444,0.00101759,0.00108297,0.000865431,0.00191633,0.00018423,0.804276,0.00122078,0.010395,1777,596,9.83366,3.73441
560,428,9.84766,-3.39447,0.000618059,0.000785334,0.000655985,0.00136299,4.04016e-05,0.848806,0.000895498,0.0109358,1784,596,9.84769,3.39447
567,428,9.83435,-3.09882,0.00043458,0.000673843,0.000662184,0.00122712,-0.000118692,0.874765,0.000860375,0.0108201,1791,596,9.83436,3.09882
574,428,9.81555,-2.80872,0.000539489,0.000771792,0.000948966,0.00161169,-0.000300408,0.846294,0.00118733,0.0128618,1798,596,9.81559,2.80873
581,428,9.80701,-2.48291,0.000722593,0.00100039,0.00137149,0.00224,-0.000517015,0.835864,0.00169221,0.0113262,1805,596,9.80699,2.48294
588,428,9.80127,-2.15338,0.00107471,0.0015009,0.0020621,0.00336089,-0.00078528,0.836884,0.00254309,0.0151242,1812,596,9.80131,2.15336
595,428,9.78479,-1.83301,0.00163609,0.00233573,0.00302123,0.00502733,-0.00105551,0.843035,0.00375319,0.0104999,1819,596,9.78476,1.83298
602,428,9.77673,-1.53357,0.0023311,0.0034705,0.00424723,0.00718607,-0.00138447,0.852068,0.00531268,0.019557,1826,596,9.77679,1.53354
609,428,9.7522,-1.1842,0,0,0,0,0,0,0,-1,1833,596,9.75224,1.18423
616,428,5.88977,-0.239319,0,0,0,0,0,0,0,-1,1840,596,5.88983,0.239293
623,428,8.51599,1.32434,0,0,0,0,0,0,0,-1,1847,596,8.516,-1.32434
630,428,7.07996,6.88562,0,0,0,0,0,0,0,-1,1854,596,7.0799,-6.88565
637,428,3.95435,1.90857,0,0,0,0,0,0,0,-1,1861,596,3.95439,-1.90858
644,428,5.75476,0.888977,0,0,0,0,0,0,0,-1,1868,596,5.75472,-0.888955
651,428,0,0,0,0,0,0,0,0,0,-1,1875,596,0,0
658,428,0,0,0,0,0,0,0,0,0,-1,1882,596,0,0
665,428,0,0,0,0,0,0,0,0,0,-1,1889,596,0,0
672,428,0,0,0,0,0,0,0,0,0,-1,1896,596,0,0
679,428,0,0,0,0,0,0,0,0,0,-1,1903,596,0,0
686,428,0,0,0,0,0,0,0,0,0,-1,1910,596,0,0
693,428,0,0,0,0,0,0,0,0,0,-1,1917,596,0,0
700,428,0,0,0,0,0,0,0,0,0,-1,1924,596,0,0
707,428,0,0,0,0,0,0,0,0,0,-1,1931,596,0,0
714,428,0,0,0,0,0,0,0,0,0,-1,1938,596,0,0
721,428,0,0,0,0,0,0,0,0,0,-1,1945,596,0,0
728,428,0,0,0,0,0,0,0,0,0,-1,1952,596,0,0
735,428,0,0,0,0,0,0,0,0,0,-1,1959,596,0,0
742,428,0,0,0,0,0,0,0,0,0,-1,1966,596,0,0
749,428,0,0,0,0,0,0,0,0,0,-1,1973,596,0,0
756,428,0,0,0,0,0,0,0,0,0,-1,1980,596,0,0
763,428,0,0,0,0,0,0,0,0,0,-1,1987,596,0,0
770,428,0,0,0,0,0,0,0,0,0,-1,1994,596,0,0
777,428,0,0,0,0,0,0,0,0,0,-1,2001,596,0,0
784,428,0,0,0,0,0,0,0,0,0,-1,2008,596,0,0
791,428,0,0,0,0,0,0,0,0,0,-1,2015,596,0,0
798,428,0,0,0,0,0,0,0,0,0,-1,2022,596,0,0
805,428,0,0,0,0,0,0,0,0,0,-1,2029,596,0,0
812,428,0,0,0,0,0,0,0,0,0,-1,2036,596,0,0
-700,421,0,0,0,0,0,0,0,0,0,-1,524,603,0,0
-693,421,0,0,0,0,0,0,0,0,0,-1,531,603,0,0
-686,421,0,0,0,0,0,0,0,0,0,-1,538,603,0,0
-679,421,0,0,0,0,0,0,0,0,0,-1,545,603,0,0
-672,421,0,0,0,0,0,0,0,0,0,-1,552,603,0,0
-665,421,0,0,0,0,0,0,0,0,0,-1,559,603,0,0
-658,421,0,0,0,0,0,0,0,0,0,-1,566,603,0,0
-651,421,0,0,0,0,0,0,0,0,0,-1,573,603,0,0
-644,421,0,0,0,0,0,0,0,0,0,-1,580,603,0,0
-637,421,0,0,0,0,0,0,0,0,0,-1,587,603,0,0
-630,421,0,0,0,0,0,0,0,0,0,-1,594,603,0,0
-623,421,0,0,0,0,0,0,0,0,0,-1,601,603,0,0
-616,421,0,0,0,0,0,0,0,0,0,-1,608,603,0,0
-609,421,0,0,0,0,0,0,0,0,0,-1,615,603,0,0
-602,421,0,0,0,0,0,0,0,0,0,-1,622,603,0,0
-595,421,0,0,0,0,0,0,0,0,0,-1,629,603,0,0
-588,421,0,0,0,0,0,0,0,0,0,-1,636,603,0,0
-581,421,0,0,0,0,0,0,0,0,0,-1,643,603,0,0
-574,421,0,0,0,0,0,0,0,0,0,-1,650,603,0,0
-567,421,0,0,0,0,0,0,0,0,0,-1,657,603,0,0
-560,421,0,0,0,0,0,0,0,0,0,-1,664,603,0,0
-553,421,0,0,0,0,0,0,0,0,0,-1,671,603,0,0
-546,421,0,0,0,0,0,0,0,0,0,-1,678,603,0,0
-539,421,0,0,0,0,0,0,0,0,0,-1,685,603,0,0
-532,421,-8.97382,6.95636,0,0,0,0,0,0,0,-1,692,603,-8.97384,-6.95634
-525,421,-2.11481,-8.04272,0,0,0,0,0,0,0,-1,699,603,-2.11483,8.0427
-518,421,-3.05908,-5.07233,0,0,0,0,0,0,0,-1,706,603,-3.0591,5.07235
-511,421,-1.7608,-6.12946,0,0,0,0,0,0,0,-1,713,603,-1.76081,6.12944
-504,421,-4.97272,-4.38385,0,0,0,0,0,0,0,-1,720,603,-4.9727,4.38383
-497,421,-4.86371,-1.77075,0,0,0,0,0,0,0,-1,727,603,-4.86371,1.77077
-490,421,-4.71912,-2.16907,0.0135791,0.0113875,-0.0136389,0.0261662,-0.00119953,-0.745312,0.0178574,0.0499767,734,603,-4.7191,2.16906
-483,421,-4.2298,-2.70618,0.00902701,0.00913301,-0.0106817,0.0197618,-0.00160182,-0.787879,0.0137397,0.0446762,741,603,-4.22978,2.7062
-476,421,-4.05688,-3.35968,0,0,0,0,0,0,0,-1,748,603,-4.05686,3.35967
-469,421,-3.94415,-3.56677,0.00347903,0.00556199,-0.00612552,0.0107339,-0.00169293,-0.869604,0.00778189,0.017759,755,603,-3.94418,3.5668
-462,421,-3.94769,-3.88641,0.00224241,0.00425461,-0.00463641,0.00799283,-0.00149581,-0.892241,0.0058908,0.0193994,762,603,-3.94771,3.88643
-455,421,-3.94653,-4.16614,0.00154662,0.00315894,-0.00345184,0.00589751,-0.00119196,-0.900114,0.00438335,0.0203804,769,603,-3.94651,4.16615
-448,421,-3.99451,-4.44751,0.00105796,0.0022521,-0.00246465,0.00419097,-0.000880909,-0.904236,0.00312922,0.0187549,776,603,-3.99453,4.44749
-441,421,-3.98199,-4.76019,0.000425188,0.00162206,-0.00162585,0.00275612,-0.000708865,-0.961742,0.0021137,0.0136573,783,603,-3.982,4.7602
-434,421,-3.97156,-5.07886,-0.000648632,0.000727078,-0.000475242,0.000875285,-0.000796839,-1.2685,0.000965755,0.00981738,790,603,-3.97156,5.07885
-427,421,-3.95868,-5.37268,-0.00179379,-1.65623e-05,0.00043264,8.31621e-05,-0.00189351,1.34425,0.00129095,0.010002,797,603,-3.95868,5.37271
-420,421,-3.95239,-5.6424,-0.00384265,-0.000886919,0.00177201,-5.73855e-05,-0.00467219,1.13297,0.00309584,0.0115804,804,603,-3.95242,5.6424
-413,421,-3.95496,-5.90405,-0.00653295,-0.00184593,0.00334565,-0.000104664,-0.00827422,1.09092,0.00548159,0.0136942,811,603,-3.95493,5.90406
-406,421,-3.97308,-6.21216,-0.00954705,-0.00296764,0.00507015,-0.000213459,-0.0123012,1.07318,0.00813061,0.0186577,818,603,-3.97306,6.21213
-399,421,-3.94885,-6.55212,-0.0134039,-0.00446946,0.00721857,-0.000447642,-0.0174257,1.06248,0.0114708,0.0184795,825,603,-3.94883,6.55213
-392,421,-4.04016,-6.78699,-0.0184137,-0.0061838,0.00992846,-0.000638252,-0.0239592,1.06141,0.0157644,0.0220156,832,603,-4.04018,6.78698
-385,421,-4.22021,-7.04309,-0.0247831,-0.00843286,0.0134386,-0.000878075,-0.0323379,1.05866,0.0212719,0.0421058,839,603,-4.22022,7.04308
-378,421,-4.40869,-7.30542,0,0,0,0,0,0,0,-1,846,603,-4.4087,7.30539
-371,421,-5.82965,-6.89417,-0.041846,-0.0145193,0.0230094,-0.00142222,-0.054943,1.05333,0.0361639,0.0461278,853,603,-5.82965,6.89418
-364,421,-6.8114,-7.41479,-0.0523856,-0.0183292,0.0292323,-0.00152708,-0.0691877,1.04913,0.0456246,0.0484023,860,603,-6.81139,7.41481
-357,421,-7.62531,-8.26337,0,0,0,0,0,0,0,-1,867,603,-7.62532,8.26337
-350,421,-5.38019,-3.75024,0,0,0,0,0,0,0,-1,874,603,-5.38017,3.75026
-343,421,-6.22797,-2.57123,0,0,0,0,0,0,0,-1,881,603,-6.22798,2.57121
-336,421,-6.22882,-2.59369,0,0,0,0,0,0,0,-1,888,603,-6.22883,2.5937
-329,421,-4.50134,-1.49469,0,0,0,0,0,0,0,-1,895,603,-4.50137,1.49468
-322,421,-6.30377,-0.285339,0,0,0,0,0,0,0,-1,902,603,-6.30379,0.285355
-315,421,-4.47821,-1.26733,0,0,0,0,0,0,0,-1,909,603,-4.47824,1.26732
-308,421,0,0,0,0,0,0,0,0,0,-1,916,603,0,0
-301,421,0,0,0,0,0,0,0,0,0,-1,923,603,0,0
-294,421,0,0,0,0,0,0,0,0,0,-1,930,603,0,0
-287,421,0,0,0,0,0,0,0,0,0,-1,937,603,0,0
-280,421,0,0,0,0,0,0,0,0,0,-1,944,603,0,0
-273,421,0,0,0,0,0,0,0,0,0,-1,951,603,0,0
-266,421,0,0,0,0,0,0,0,0,0,-1,958,603,0,0
-259,421,0,0,0,0,0,0,0,0,0,-1,965,603,0,0
-252,421,0,0,0,0,0,0,0,0,0,-1,972,603,0,0
-245,421,0,0,0,0,0,0,0,0,0,-1,979,603,0,0
-238,421,0,0,0,0,0,0,0,0,0,-1,986,603,0,0
-231,421,0,0,0,0,0,0,0,0,0,-1,993,603,0,0
-224,421,0,0,0,0,0,0,0,0,0,-1,1000,603,0,0
-217,421,0,0,0,0,0,0,0,0,0,-1,1007,603,0,0
-210,421,0,0,0,0,0,0,0,0,0,-1,1014,603,0,0
-203,421,0,0,0,0,0,0,0,0,0,-1,1021,603,0,0
-196,421,0,0,0,0,0,0,0,0,0,-1,1028,603,0,0
-189,421,0,0,0,0,0,0,0,0,0,-1,1035,603,0,0
-182,421,0,0,0,0,0,0,0,0,0,-1,1042,603,0,0
-175,421,0,0,0,0,0,0,0,0,0,-1,1049,603,0,0
-168,421,0,0,0,0,0,0,0,0,0,-1,1056,603,0,0
-161,421,0,0,0,0,0,0,0,0,0,-1,1063,603,0,0
-154,421,0,0,0,0,0,0,0,0,0,-1,1070,603,0,0
-147,421,0,0,0,0,0,0,0,0,0,-1,1077,603,0,0
-140,421,0,0,0,0,0,0,0,0,0,-1,1084,603,0,0
-133,421,0,0,0,0,0,0,0,0,0,-1,1091,603,0,0
-126,421,0,0,0,0,0,0,0,0,0,-1,1098,603,0,0
-119,421,0,0,0,0,0,0,0,0,0,-1,1105,603,0,0
-112,421,0,0,0,0,0,0,0,0,0,-1,1112,603,0,0
-105,421,0,0,0,0,0,0,0,0,0,-1,1119,603,0,0
-98,421,0,0,0,0,0,0,0,0,0,-1,1126,603,0,0
-91,421,0,0,0,0,0,0,0,0,0,-1,1133,603,0,0
-84,421,0,0,0,0,0,0,0,0,0,-1,1140,603,0,0
-77,421,0,0,0,0,0,0,0,0,0,-1,1147,603,0,0
-70,421,0,0,0,0,0,0,0,0,0,-1,1154,603,0,0
-63,421,0,0,0,0,0,0,0,0,0,-1,1161,603,0,0
-56,421,0,0,0,0,0,0,0,0,0,-1,1168,603,0,0
-49,421,0,0,0,0,0,0,0,0,0,-1,1175,603,0,0
-42,421,0,0,0,0,0,0,0,0,0,-1,1182,603,0,0
-35,421,0,0,0,0,0,0,0,0,0,-1,1189,603,0,0
-28,421,0,0,0,0,0,0,0,0,0,-1,1196,603,0,0
-21,421,0,0,0,0,0,0,0,0,0,-1,1203,603,0,0
-14,421,0,0,0,0,0,0,0,0,0,-1,1210,603,0,0
-7,421,0,0,0,0,0,0,0,0,0,-1,1217,603,0,0
0,421,0,0,0,0,0,0,0,0,0,-1,1224,603,0,0
7,421,0,0,0,0,0,0,0,0,0,-1,1231,603,0,0
14,421,0,0,0,0,0,0,0,0,0,-1,1238,603,0,0
21,421,0,0,0,0,0,0,0,0,0,-1,1245,603,0,0
28,421,0,0,0,0,0,0,0,0,0,-1,1252,603,0,0
35,421,0,0,0,0,0,0,0,0,0,-1,1259,603,0,0
42,421,0,0,0,0,0,0,0,0,0,-1,1266,603,0,0
49,421,0,0,0,0,0,0,0,0,0,-1,1273,603,0,0
56,421,0,0,0,0,0,0,0,0,0,-1,1280,603,0,0
63,421,0,0,0,0,0,0,0,0,0,-1,1287,603,0,0
70,421,0,0,0,0,0,0,0,0,0,-1,1294,603,0,0
77,421,0,0,0,0,0,0,0,0,0,-1,1301,603,0,0
84,421,0,0,0,0,0,0,0,0,0,-1,1308,603,0,0
91,421,0,0,0,0,0,0,0,0,0,-1,1315,603,0,0
98,421,0,0,0,0,0,0,0,0,0,-1,1322,603,0,0
105,421,0,0,0,0,0,0,0,0,0,-1,1329,603,0,0
112,421,0,0,0,0,0,0,0,0,0,-1,1336,603,0,0
119,421,0,0,0,0,0,0,0,0,0,-1,1343,603,0,0
126,421,0,0,0,0,0,0,0,0,0,-1,1350,603,0,0
133,421,0,0,0,0,0,0,0,0,0,-1,1357,603,0,0
140,421,0,0,0,0,0,0,0,0,0,-1,1364,603,0,0
147,421,0,0,0,0,0,0,0,0,0,-1,1371,603,0,0
154,421,0,0,0,0,0,0,0,0,0,-1,1378,603,0,0
161,421,0,0,0,0,0,0,0,0,0,-1,1385,603,0,0
168,421,0,0,0,0,0,0,0,0,0,-1,1392,603,0,0
175,421,0,0,0,0,0,0,0,0,0,-1,1399,603,0,0
182,421,0,0,0,0,0,0,0,0,0,-1,1406,603,0,0
189,421,0,0,0,0,0,0,0,0,0,-1,1413,603,0,0
196,421,0,0,0,0,0,0,0,0,0,-1,1420,603,0,0
203,421,0,0,0,0,0,0,0,0,0,-1,1427,603,0,0
210,421,0,0,0,0,0,0,0,0,0,-1,1434,603,0,0
217,421,0,0,0,0,0,0,0,0,0,-1,1441,603,0,0
224,421,0,0,0,0,0,0,0,0,0,-1,1448,603,0,0
231,421,0,0,0,0,0,0,0,0,0,-1,1455,603,0,0
238,421,0,0,0,0,0,0,0,0,0,-1,1462,603,0,0
245,421,0,0,0,0,0,0,0,0,0,-1,1469,603,0,0
252,421,0,0,0,0,0,0,0,0,0,-1,1476,603,0,0
259,421,0,0,0,0,0,0,0,0,0,-1,1483,603,0,0
266,421,0,0,0,0,0,0,0,0,0,-1,1490,603,0,0
273,421,0,0,0,0,0,0,0,0,0,-1,1497,603,0,0
280,421,0,0,0,0,0,0,0,0,0,-1,1504,603,0,0
287,421,0,0,0,0,0,0,0,0,0,-1,1511,603,0,0
294,421,0,0,0,0,0,0,0,0,0,-1,1518,603,0,0
301,421,0,0,0,0,0,0,0,0,0,-1,1525,603,0,0
308,421,0,0,0,0,0,0,0,0,0,-1,1532,603,0,0
315,421,0,0,0,0,0,0,0,0,0,-1,1539,603,0,0
322,421,0,0,0,0,0,0,0,0,0,-1,1546,603,0,0
329,421,0,0,0,0,0,0,0,0,0,-1,1553,603,0,0
336,421,0,0,0,0,0,0,0,0,0,-1,1560,603,0,0
343,421,0,0,0,0,0,0,0,0,0,-1,1567,603,0,0
350,421,0,0,0,0,0,0,0,0,0,-1,1574,603,0,0
357,421,0,0,0,0,0,0,0,0,0,-1,1581,603,0,0
364,421,0,0,0,0,0,0,0,0,0,-1,1588,603,0,0
371,421,0,0,0,0,0,0,0,0,0,-1,1595,603,0,0
378,421,0,0,0,0,0,0,0,0,0,-1,1602,603,0,0
385,421,0,0,0,0,0,0,0,0,0,-1,1609,603,0,0
392,421,0,0,0,0,0,0,0,0,0,-1,1616,603,0,0
399,421,0,0,0,0,0,0,0,0,0,-1,1623,603,0,0
406,421,0,0,0,0,0,0,0,0,0,-1,1630,603,0,0
413,421,0,0,0,0,0,0,0,0,0,-1,1637,603,0,0
420,421,0,0,0,0,0,0,0,0,0,-1,1644,603,0,0
427,421,0,0,0,0,0,0,0,0,0,-1,1651,603,0,0
434,421,3.68176,-0.0327759,0,0,0,0,0,0,0,-1,1658,603,3.6818,0.0328037
441,421,8.06689,0.527832,0,0,0,0,0,0,0,-1,1665,603,8.06693,-0.527851
448,421,6.93921,0.802246,0,0,0,0,0,0,0,-1,1672,603,6.93923,-0.802251
455,421,7.29456,2.14825,0,0,0,0,0,0,0,-1,1679,603,7.29461,-2.14827
462,421,7.86902,3.53174,0,0,0,0,0,0,0,-1,1686,603,7.869,-3.53173
469,421,8.06604,2.81213,0,0,0,0,0,0,0,-1,1693,603,8.06606,-2.81212
476,421,8.26306,2.09253,0,0,0,0,0,0,0,-1,1700,603,8.26312,-2.09251
483,421,8.05322,0.798096,0,0,0,0,0,0,0,-1,1707,603,8.05323,-0.7981
490,421,7.51233,0.213074,0,0,0,0,0,0,0,-1,1714,603,7.51235,-0.213043
497,421,7.49634,-2.86688,0,0,0,0,0,0,0,-1,1721,603,7.4963,2.86688
504,421,6.90491,-2.18671,0,0,0,0,0,0,0,-1,1728,603,6.90491,2.18669
511,421,6.31348,-1.50653,0,0,0,0,0,0,0,-1,1735,603,6.31353,1.5065
518,421,6.27588,-2.49878,0,0,0,0,0,0,0,-1,1742,603,6.2759,2.4988
525,421,9.90112,-5.16327,0,0,0,0,0,0,0,-1,1749,603,9.90116,5.16326
532,421,10.0536,-4.66388,0.00331031,0.00416406,0.00332905,0.0070935,0.000380878,0.849164,0.00460729,0.0360715,1756,603,10.0535,4.66386
539,421,10.1731,-4.29584,0.00229478,0.00318178,0.00235643,0.00513608,0.000340478,0.878414,0.00331639,0.0209858,1763,603,10.1731,4.29586
546,421,10.165,-4.02728,0.00153839,0.00231544,0.00158842,0.00356216,0.000291668,0.905342,0.00228377,0.0120852,1770,603,10.1651,4.02729
553,421,10.1591,-3.71326,0.00104487,0.0016476,0.00110727,0.00249378,0.000198683,0.918265,0.00160041,0.0108286,1777,603,10.159,3.71326
560,421,10.1681,-3.37701,0.000640485,0.0011759,0.000784449,0.00173706,7.93202e-05,0.949835,0.00113253,0.0131164,1784,603,10.168,3.37704
567,421,10.1569,-3.09021,0.000439494,0.00089341,0.000668493,0.00137242,-3.95173e-05,0.949046,0.0009284,0.0165389,1791,603,10.1568,3.09023
574,421,10.1257,-2.79254,0.000533956,0.000841535,0.000838811,0.00154054,-0.000165048,0.876062,0.00108623,0.0188283,1798,603,10.1257,2.79257
581,421,10.1223,-2.44891,0.000698741,0.000910792,0.00112875,0.00193848,-0.00032895,0.832227,0.00141478,0.0160046,1805,603,10.1223,2.44892
588,421,10.1021,-2.15375,0.00101842,0.00126451,0.0016735,0.00281948,-0.000536556,0.822094,0.00208169,0.0115717,1812,603,10.102,2.15373
595,421,10.1064,-1.82391,0.00156481,0.00193827,0.00246778,0.00422638,-0.000723293,0.82316,0.00308706,0.0149729,1819,603,10.1064,1.82392
602,421,10.089,-1.56439,0.00226501,0.00289372,0.00350707,0.00610049,-0.00094176,0.830097,0.00441453,0.014745,1826,603,10.089,1.5644
609,421,10.0236,-1.23621,0.00325805,0.00413057,0.00487153,0.00858533,-0.00119672,0.830055,0.00616132,0.0352999,1833,603,10.0236,1.23618
616,421,10.2686,-0.816528,0,0,0,0,0,0,0,-1,1840,603,10.2686,0.816529
623,421,6.19885,0.376648,0,0,0,0,0,0,0,-1,1847,603,6.19881,-0.376624
630,421,6.54993,0.778748,0,0,0,0,0,0,0,-1,1854,603,6.54991,-0.778744
637,421,3.74512,1.65405,0,0,0,0,0,0,0,-1,1861,603,3.74517,-1.65407
644,421,3.58081,0.354675,0,0,0,0,0,0,0,-1,1868,603,3.58082,-0.354704
651,421,3.28687,3.66351,0,0,0,0,0,0,0,-1,1875,603,3.28688,-3.66353
658,421,0,0,0,0,0,0,0,0,0,-1,1882,603,0,0
665,421,0,0,0,0,0,0,0,0,0,-1,1889,603,0,0
672,421,0,0,0,0,0,0,0,0,0,-1,1896,603,0,0
679,421,0,0,0,0,0,0,0,0,0,-1,1903,603,0,0
686,421,0,0,0,0,0,0,0,0,0,-1,1910,603,0,0
693,421,0,0,0,0,0,0,0,0,0,-1,1917,603,0,0
700,421,0,0,0,0,0,0,0,0,0,-1,1924,603,0,0
707,421,0,0,0,0,0,0,0,0,0,-1,1931,603,0,0
714,421,0,0,0,0,0,0,0,0,0,-1,1938,603,0,0
721,421,0,0,0,0,0,0,0,0,0,-1,1945,603,0,0
728,421,0,0,0,0,0,0,0,0,0,-1,1952,603,0,0
735,421,0,0,0,0,0,0,0,0,0,-1,1959,603,0,0
742,421,0,0,0,0,0,0,0,0,0,-1,1966,603,0,0
749,421,0,0,0,0,0,0,0,0,0,-1,1973,603,0,0
756,421,0,0,0,0,0,0,0,0,0,-1,1980,603,0,0
763,421,0,0,0,0,0,0,0,0,0,-1,1987,603,0,0
770,421,0,0,0,0,0,0,0,0,0,-1,1994,603,0,0
777,421,0,0,0,0,0,0,0,0,0,-1,2001,603,0,0
784,421,0,0,0,0,0,0,0,0,0,-1,2008,603,0,0
791,421,0,0,0,0,0,0,0,0,0,-1,2015,603,0,0
798,421,0,0,0,0,0,0,0,0,0,-1,2022,603,0,0
805,421,0,0,0,0,0,0,0,0,0,-1,2029,603,0,0
812,421,0,0,0,0,0,0,0,0,0,-1,2036,603,0,0
-700,414,0,0,0,0,0,0,0,0,0,-1,524,610,0,0
-693,414,0,0,0,0,0,0,0,0,0,-1,531,610,0,0
-686,414,0,0,0,0,0,0,0,0,0,-1,538,610,0,0
-679,414,0,0,0,0,0,0,0,0,0,-1,545,610,0,0
-672,414,0,0,0,0,0,0,0,0,0,-1,552,610,0,0
-665,414,0,0,0,0,0,0,0,0,0,-1,559,610,0,0
-658,414,0,0,0,0,0,0,0,0,0,-1,566,610,0,0
-651,414,0,0,0,0,0,0,0,0,0,-1,573,610,0,0
-644,414,0,0,0,0,0,0,0,0,0,-1,580,610,0,0
-637,414,0,0,0,0,0,0,0,0,0,-1,587,610,0,0
-630,414,0,0,0,0,0,0,0,0,0,-1,594,610,0,0
-623,414,0,0,0,0,0,0,0,0,0,-1,601,610,0,0
-616,414,0,0,0,0,0,0,0,0,0,-1,608,610,0,0
-609,414,0,0,0,0,0,0,0,0,0,-1,615,610,0,0
-602,414,0,0,0,0,0,0,0,0,0,-1,622,610,0,0
-595,414,0,0,0,0,0,0,0,0,0,-1,629,610,0,0
-588,414,0,0,0,0,0,0,0,0,0,-1,636,610,0,0
-581,414,0,0,0,0,0,0,0,0,0,-1,643,610,0,0
-574,414,0,0,0,0,0,0,0,0,0,-1,650,610,0,0
-567,414,0,0,0,0,0,0,0,0,0,-1,657,610,0,0
-560,414,0,0,0,0,0,0,0,0,0,-1,664,610,0,0
-553,414,0,0,0,0,0,0,0,0,0,-1,671,610,0,0
-546,414,0,0,0,0,0,0,0,0,0,-1,678,610,0,0
-539,414,-7.50146,5.65619,0,0,0,0,0,0,0,-1,685,610,-7.50149,-5.65617
-532,414,-8.15204,4.01605,0,0,0,0,0,0,0,-1,692,610,-8.15206,-4.01606
-525,414,-3.47137,-3.27924,0,0,0,0,0,0,0,-1,699,610,-3.47136,3.27922
-518,414,-3.41998,-4.42413,0,0,0,0,0,0,0,-1,706,610,-3.42001,4.4241
-511,414,-3.92542,-4.97021,0,0,0,0,0,0,0,-1,713,610,-3.92542,4.97023
-504,414,-1.62408,-3.64496,0,0,0,0,0,0,0,-1,720,610,-1.62406,3.64499
-497,414,-4.38452,-2.1615,0,0,0,0,0,0,0,-1,727,610,-4.38452,2.16152
-490,414,-4.30707,-2.51898,0.0115181,0.00820663,-0.0100799,0.0200774,-0.00035265,-0.703995,0.013504,0.039784,734,610,-4.30709,2.51896
-483,414,-4.1889,-2.99243,0.00764366,0.0067281,-0.00793388,0.015133,-0.000761195,-0.756581,0.0103517,0.0187151,741,610,-4.1889,2.99246
-476,414,-4.22351,-3.29877,0.00509343,0.0054083,-0.00619706,0.0114499,-0.000948199,-0.798098,0.00796818,0.0125597,748,610,-4.22348,3.29878
-469,414,-4.25153,-3.58765,0.00286918,0.00418351,-0.00453038,0.00810414,-0.00105145,-0.857425,0.00578518,0.0124489,755,610,-4.25151,3.58765
-462,414,-4.26666,-3.89813,0.00183711,0.00324134,-0.00346305,0.00607273,-0.000994285,-0.885414,0.00441738,0.0212779,762,610,-4.26666,3.89816
-455,414,-4.2442,-4.20538,0.00126368,0.00245452,-0.00255019,0.00447788,-0.000759678,-0.900083,0.00326805,0.0247071,769,610,-4.24419,4.20537
-448,414,-4.26459,-4.49359,0.000863168,0.00169755,-0.00178124,0.0031098,-0.000549091,-0.900431,0.0022784,0.0238646,776,610,-4.26457,4.49361
-441,414,-4.26733,-4.78857,0.000196695,0.00118601,-0.00108761,0.00188617,-0.000503467,-0.998821,0.00145461,0.0158426,783,610,-4.2673,4.7886
-434,414,-4.26208,-5.07465,-0.000943205,0.000433992,-6.95652e-05,0.000437497,-0.000946709,-1.52045,0.000816998,0.00914472,790,610,-4.26206,5.07465
-427,414,-4.25964,-5.35516,-0.00223941,-0.000239281,0.000792905,3.69094e-05,-0.0025156,1.23561,0.0016895,0.0103933,797,610,-4.25963,5.35518
-420,414,-4.24268,-5.63873,-0.00472123,-0.00115485,0.0022413,-7.39233e-05,-0.00580216,1.12143,0.0038437,0.0105894,804,610,-4.24267,5.63875
-413,414,-4.25256,-5.94354,-0.00804672,-0.00217273,0.00399067,-0.00015479,-0.0100647,1.10263,0.00665878,0.0105938,811,610,-4.25256,5.94356
-406,414,-4.24725,-6.29962,-0.0118635,-0.00345093,0.00596667,-0.000356946,-0.0149575,1.09242,0.00985484,0.0170672,818,610,-4.24724,6.29963
-399,414,-4.29041,-6.48236,-0.0168216,-0.0051767,0.00851227,-0.000686065,-0.0213122,1.08535,0.0139851,0.025633,825,610,-4.29044,6.48237
-392,414,-4.41742,-6.66528,-0.0234215,-0.00720248,0.0118472,-0.000955121,-0.0296689,1.08553,0.0194687,0.0292238,832,610,-4.41742,6.66529
-385,414,-4.73059,-6.94489,-0.031952,-0.00996814,0.0162574,-0.00133545,-0.0405847,1.08266,0.0266225,0.0416908,839,610,-4.73062,6.94491
-378,414,-5.01324,-7.32379,0,0,0,0,0,0,0,-1,846,610,-5.01325,7.32381
-371,414,-5.25299,-7.8797,0,0,0,0,0,0,0,-1,853,610,-5.25302,7.8797
-364,414,-8.3443,-7.10968,0,0,0,0,0,0,0,-1,860,610,-8.34431,7.1097
-357,414,-9.08685,-8.86188,0,0,0,0,0,0,0,-1,867,610,-9.08688,8.86187
-350,414,-6.4502,-2.41821,0,0,0,0,0,0,0,-1,874,610,-6.45021,2.41822
-343,414,-6.80249,-2.32117,0,0,0,0,0,0,0,-1,881,610,-6.80252,2.32116
-336,414,-7.11017,-2.52026,0,0,0,0,0,0,0,-1,888,610,-7.11016,2.52026
-329,414,-7.59747,-2.70313,0,0,0,0,0,0,0,-1,895,610,-7.59747,2.70315
-322,414,-4.42236,-1.29163,0,0,0,0,0,0,0,-1,902,610,-4.42238,1.2916
-315,414,0,0,0,0,0,0,0,0,0,-1,909,610,0,0
-308,414,0,0,0,0,0,0,0,0,0,-1,916,610,0,0
-301,414,0,0,0,0,0,0,0,0,0,-1,923,610,0,0
-294,414,0,0,0,0,0,0,0,0,0,-1,930,610,0,0
-287,414,0,0,0,0,0,0,0,0,0,-1,937,610,0,0
-280,414,0,0,0,0,0,0,0,0,0,-1,944,610,0,0
-273,414,0,0,0,0,0,0,0,0,0,-1,951,610,0,0
-266,414,0,0,0,0,0,0,0,0,0,-1,958,610,0,0
-259,414,0,0,0,0,0,0,0,0,0,-1,965,610,0,0
-252,414,0,0,0,0,0,0,0,0,0,-1,972,610,0,0
-245,414,0,0,0,0,0,0,0,0,0,-1,979,610,0,0
-238,414,0,0,0,0,0,0,0,0,0,-1,986,610,0,0
-231,414,0,0,0,0,0,0,0,0,0,-1,993,610,0,0
-224,414,0,0,0,0,0,0,0,0,0,-1,1000,610,0,0
-217,414,0,0,0,0,0,0,0,0,0,-1,1007,610,0,0
-210,414,0,0,0,0,0,0,0,0,0,-1,1014,610,0,0
-203,414,0,0,0,0,0,0,0,0,0,-1,1021,610,0,0
-196,414,0,0,0,0,0,0,0,0,0,-1,1028,610,0,0
-189,414,0,0,0,0,0,0,0,0,0,-1,1035,610,0,0
-182,414,0,0,0,0,0,0,0,0,0,-1,1042,610,0,0
-175,414,0,0,0,0,0,0,0,0,0,-1,1049,610,0,0
-168,414,0,0,0,0,0,0,0,0,0,-1,1056,610,0,0
-161,414,0,0,0,0,0,0,0,0,0,-1,1063,610,0,0
-154,414,0,0,0,0,0,0,0,0,0,-1,1070,610,0,0
-147,414,0,0,0,0,0,0,0,0,0,-1,1077,610,0,0
-140,414,0,0,0,0,0,0,0,0,0,-1,1084,610,0,0
-133,414,0,0,0,0,0,0,0,0,0,-1,1091,610,0,0
-126,414,0,0,0,0,0,0,0,0,0,-1,1098,610,0,0
-119,414,0,0,0,0,0,0,0,0,0,-1,1105,610,0,0
-112,414,0,0,0,0,0,0,0,0,0,-1,1112,610,0,0
-105,414,0,0,0,0,0,0,0,0,0,-1,1119,610,0,0
-98,414,0,0,0,0,0,0,0,0,0,-1,1126,610,0,0
-91,414,0,0,0,0,0,0,0,0,0,-1,1133,610,0,0
-84,414,0,0,0,0,0,0,0,0,0,-1,1140,610,0,0
-77,414,0,0,0,0,0,0,0,0,0,-1,1147,610,0,0
-70,414,0,0,0,0,0,0,0,0,0,-1,1154,610,0,0
-63,414,0,0,0,0,0,0,0,0,0,-1,1161,610,0,0
-56,414,0,0,0,0,0,0,0,0,0,-1,1168,610,0,0
-49,414,0,0,0,0,0,0,0,0,0,-1,1175,610,0,0
-42,414,0,0,0,0,0,0,0,0,0,-1,1182,610,0,0
-35,414,0,0,0,0,0,0,0,0,0,-1,1189,610,0,0
-28,414,0,0,0,0,0,0,0,0,0,-1,1196,610,0,0
-21,414,0,0,0,0,0,0,0,0,0,-1,1203,610,0,0
-14,414,0,0,0,0,0,0,0,0,0,-1,1210,610,0,0
-7,414,0,0,0,0,0,0,0,0,0,-1,1217,610,0,0
0,414,0,0,0,0,0,0,0,0,0,-1,1224,610,0,0
7,414,0,0,0,0,0,0,0,0,0,-1,1231,610,0,0
14,414,0,0,0,0,0,0,0,0,0,-1,1238,610,0,0
21,414,0,0,0,0,0,0,0,0,0,-1,1245,610,0,0
28,414,0,0,0,0,0,0,0,0,0,-1,1252,610,0,0
35,414,0,0,0,0,0,0,0,0,0,-1,1259,610,0,0
42,414,0,0,0,0,0,0,0,0,0,-1,1266,610,0,0
49,414,0,0,0,0,0,0,0,0,0,-1,1273,610,0,0
56,414,0,0,0,0,0,0,0,0,0,-1,1280,610,0,0
63,414,0,0,0,0,0,0,0,0,0,-1,1287,610,0,0
70,414,0,0,0,0,0,0,0,0,0,-1,1294,610,0,0
77,414,0,0,0,0,0,0,0,0,0,-1,1301,610,0,0
84,414,0,0,0,0,0,0,0,0,0,-1,1308,610,0,0
91,414,0,0,0,0,0,0,0,0,0,-1,1315,610,0,0
98,414,0,0,0,0,0,0,0,0,0,-1,1322,610,0,0
105,414,0,0,0,0,0,0,0,0,0,-1,1329,610,0,0
112,414,0,0,0,0,0,0,0,0,0,-1,1336,610,0,0
119,414,0,0,0,0,0,0,0,0,0,-1,1343,610,0,0
126,414,0,0,0,0,0,0,0,0,0,-1,1350,610,0,0
133,414,0,0,0,0,0,0,0,0,0,-1,1357,610,0,0
140,414,0,0,0,0,0,0,0,0,0,-1,1364,610,0,0
147,414,0,0,0,0,0,0,0,0,0,-1,1371,610,0,0
154,414,0,0,0,0,0,0,0,0,0,-1,1378,610,0,0
161,414,0,0,0,0,0,0,0,0,0,-1,1385,610,0,0
168,414,0,0,0,0,0,0,0,0,0,-1,1392,610,0,0
175,414,0,0,0,0,0,0,0,0,0,-1,1399,610,0,0
182,414,0,0,0,0,0,0,0,0,0,-1,1406,610,0,0
189,414,0,0,0,0,0,0,0,0,0,-1,1413,610,0,0
196,414,0,0,0,0,0,0,0,0,0,-1,1420,610,0,0
203,414,0,0,0,0,0,0,0,0,0,-1,1427,610,0,0
210,414,0,0,0,0,0,0,0,0,0,-1,1434,610,0,0
217,414,0,0,0,0,0,0,0,0,0,-1,1441,610,0,0
224,414,0,0,0,0,0,0,0,0,0,-1,1448,610,0,0
231,414,0,0,0,0,0,0,0,0,0,-1,1455,610,0,0
238,414,0,0,0,0,0,0,0,0,0,-1,1462,610,0,0
245,414,0,0,0,0,0,0,0,0,0,-1,1469,610,0,0
252,414,0,0,0,0,0,0,0,0,0,-1,1476,610,0,0
259,414,0,0,0,0,0,0,0,0,0,-1,1483,610,0,0
266,414,0,0,0,0,0,0,0,0,0,-1,1490,610,0,0
273,414,0,0,0,0,0,0,0,0,0,-1,1497,610,0,0
280,414,0,0,0,0,0,0,0,0,0,-1,1504,610,0,0
287,414,0,0,0,0,0,0,0,0,0,-1,1511,610,0,0
294,414,0,0,0,0,0,0,0,0,0,-1,1518,610,0,0
301,414,0,0,0,0,0,0,0,0,0,-1,1525,610,0,0
308,414,0,0,0,0,0,0,0,0,0,-1,1532,610,0,0
315,414,0,0,0,0,0,0,0,0,0,-1,1539,610,0,0
322,414,0,0,0,0,0,0,0,0,0,-1,1546,610,0,0
329,414,0,0,0,0,0,0,0,0,0,-1,1553,610,0,0
336,414,0,0,0,0,0,0,0,0,0,-1,1560,610,0,0
343,414,0,0,0,0,0,0,0,0,0,-1,1567,610,0,0
350,414,0,0,0,0,0,0,0,0,0,-1,1574,610,0,0
357,414,0,0,0,0,0,0,0,0,0,-1,1581,610,0,0
364,414,0,0,0,0,0,0,0,0,0,-1,1588,610,0,0
371,414,0,0,0,0,0,0,0,0,0,-1,1595,610,0,0
378,414,0,0,0,0,0,0,0,0,0,-1,1602,610,0,0
385,414,0,0,0,0,0,0,0,0,0,-1,1609,610,0,0
392,414,0,0,0,0,0,0,0,0,0,-1,1616,610,0,0
399,414,0,0,0,0,0,0,0,0,0,-1,1623,610,0,0
406,414,0,0,0,0,0,0,0,0,0,-1,1630,610,0,0
413,414,0,0,0,0,0,0,0,0,0,-1,1637,610,0,0
420,414,0,0,0,0,0,0,0,0,0,-1,1644,610,0,0
427,414,0,0,0,0,0,0,0,0,0,-1,1651,610,0,0
434,414,0,0,0,0,0,0,0,0,0,-1,1658,610,0,0
441,414,7.84375,0.584412,0,0,0,0,0,0,0,-1,1665,610,7.84379,-0.584394
448,414,7.40808,1.25446,0,0,0,0,0,0,0,-1,1672,610,7.40807,-1.25446
455,414,6.3512,1.73846,0,0,0,0,0,0,0,-1,1679,610,6.3512,-1.73847
462,414,8.18103,3.22113,0,0,0,0,0,0,0,-1,1686,610,8.18108,-3.22112
469,414,8.38513,2.49579,0,0,0,0,0,0,0,-1,1693,610,8.38516,-2.49576
476,414,8.64099,1.71161,0,0,0,0,0,0,0,-1,1700,610,8.64097,-1.71164
483,414,8.62744,0.687622,0,0,0,0,0,0,0,-1,1707,610,8.62749,-0.687615
490,414,8.38831,-0.0302734,0,0,0,0,0,0,0,-1,1714,610,8.38835,0.0302913
497,414,4.71094,-0.110046,0,0,0,0,0,0,0,-1,1721,610,4.71089,0.110024
504,414,7.19568,-1.43835,0,0,0,0,0,0,0,-1,1728,610,7.19563,1.43836
511,414,5.94153,-1.28772,0,0,0,0,0,0,0,-1,1735,610,5.94151,1.28769
518,414,4.53381,-0.0996704,0,0,0,0,0,0,0,-1,1742,610,4.53378,0.0996819
525,414,6.18811,-1.64056,0,0,0,0,0,0,0,-1,1749,610,6.18814,1.64055
532,414,10.2968,-4.92212,0,0,0,0,0,0,0,-1,1756,610,10.2967,4.92214
539,414,10.4211,-4.427,0.0022391,0.0041587,0.00281584,0.00617382,0.000223977,0.949652,0.00404329,0.0447249,1763,610,10.4211,4.42698
546,414,10.4641,-4.02124,0.00141007,0.00302936,0.00187411,0.00426124,0.000178193,0.989298,0.00278333,0.0130097,1770,610,10.4641,4.02127
553,414,10.4771,-3.71143,0.00091641,0.00217058,0.00128787,0.00297592,0.000111073,1.01196,0.00194798,0.0119467,1777,610,10.4771,3.71142
560,414,10.4757,-3.38379,0.000540851,0.00157766,0.00089346,0.00209222,2.62916e-05,1.04827,0.00138613,0.0133623,1784,610,10.4757,3.38381
567,414,10.4585,-3.08514,0.00034585,0.00117712,0.000696789,0.00157282,-4.9851e-05,1.05432,0.00106556,0.0225397,1791,610,10.4584,3.08517
574,414,10.4459,-2.7713,0.000443302,0.00102847,0.000788416,0.00157684,-0.00010507,0.963072,0.00108794,0.0207901,1798,610,10.4459,2.77132
581,414,10.447,-2.45068,0.000614863,0.00100574,0.000998794,0.00182803,-0.000207435,0.882014,0.00129339,0.0159551,1805,610,10.4471,2.45068
588,414,10.4207,-2.15106,0.000929223,0.00127193,0.00144479,0.00255549,-0.000354343,0.844422,0.00183323,0.0159713,1812,610,10.4206,2.15107
595,414,10.4309,-1.81116,0.00146757,0.0018433,0.00212054,0.00378428,-0.000473409,0.829579,0.00269455,0.0221997,1819,610,10.4309,1.81116
602,414,10.4326,-1.48645,0.00216726,0.0026859,0.00302776,0.00546543,-0.000612262,0.828117,0.00386391,0.023825,1826,610,10.4326,1.48644
609,414,10.3595,-1.20825,0.00310184,0.00380771,0.00419921,0.00766879,-0.000759237,0.827324,0.00538348,0.0247998,1833,610,10.3595,1.20827
616,414,10.7078,-0.682068,0,0,0,0,0,0,0,-1,1840,610,10.7078,0.682057
623,414,9.6969,0.0378418,0,0,0,0,0,0,0,-1,1847,610,9.69685,-0.0378644
630,414,5.47144,0.499329,0,0,0,0,0,0,0,-1,1854,610,5.47142,-0.499303
637,414,6.57898,2.38019,0,0,0,0,0,0,0,-1,1861,610,6.579,-2.38019
644,414,5.87073,1.51422,0,0,0,0,0,0,0,-1,1868,610,5.87076,-1.51424
651,414,3.6377,0.820557,0,0,0,0,0,0,0,-1,1875,610,3.6377,-0.820543
658,414,2.29761,3.87323,0,0,0,0,0,0,0,-1,1882,610,2.29758,-3.87325
665,414,0,0,0,0,0,0,0,0,0,-1,1889,610,0,0
672,414,0,0,0,0,0,0,0,0,0,-1,1896,610,0,0
679,414,0,0,0,0,0,0,0,0,0,-1,1903,610,0,0
686,414,0,0,0,0,0,0,0,0,0,-1,1910,610,0,0
693,414,0,0,0,0,0,0,0,0,0,-1,1917,610,0,0
700,414,0,0,0,0,0,0,0,0,0,-1,1924,610,0,0
707,414,0,0,0,0,0,0,0,0,0,-1,1931,610,0,0
714,414,0,0,0,0,0,0,0,0,0,-1,1938,610,0,0
721,414,0,0,0,0,0,0,0,0,0,-1,1945,610,0,0
728,414,0,0,0,0,0,0,0,0,0,-1,1952,610,0,0
735,414,0,0,0,0,0,0,0,0,0,-1,1959,610,0,0
742,414,0,0,0,0,0,0,0,0,0,-1,1966,610,0,0
749,414,0,0,0,0,0,0,0,0,0,-1,1973,610,0,0
756,414,0,0,0,0,0,0,0,0,0,-1,1980,610,0,0
763,414,0,0,0,0,0,0,0,0,0,-1,1987,610,0,0
770,414,0,0,0,0,0,0,0,0,0,-1,1994,610,0,0
777,414,0,0,0,0,0,0,0,0,0,-1,2001,610,0,0
784,414,0,0,0,0,0,0,0,0,0,-1,2008,610,0,0
791,414,0,0,0,0,0,0,0,0,0,-1,2015,610,0,0
798,414,0,0,0,0,0,0,0,0,0,-1,2022,610,0,0
805,414,0,0,0,0,0,0,0,0,0,-1,2029,610,0,0
812,414,0,0,0,0,0,0,0,0,0,-1,2036,610,0,0
-700,407,0,0,0,0,0,0,0,0,0,-1,524,617,0,0
-693,407,0,0,0,0,0,0,0,0,0,-1,531,617,0,0
-686,407,0,0,0,0,0,0,0,0,0,-1,538,617,0,0
-679,407,0,0,0,0,0,0,0,0,0,-1,545,617,0,0
-672,407,0,0,0,0,0,0,0,0,0,-1,552,617,0,0
-665,407,0,0,0,0,0,0,0,0,0,-1,559,617,0,0
-658,407,0,0,0,0,0,0,0,0,0,-1,566,617,0,0
-651,407,0,0,0,0,0,0,0,0,0,-1,573,617,0,0
-644,407,0,0,0,0,0,0,0,0,0,-1,580,617,0,0
-637,407,0,0,0,0,0,0,0,0,0,-1,587,617,0,0
-630,407,0,0,0,0,0,0,0,0,0,-1,594,617,0,0
-623,407,0,0,0,0,0,0,0,0,0,-1,601,617,0,0
-616,407,0,0,0,0,0,0,0,0,0,-1,608,617,0,0
-609,407,0,0,0,0,0,0,0,0,0,-1,615,617,0,0
-602,407,0,0,0,0,0,0,0,0,0,-1,622,617,0,0
-595,407,0,0,0,0,0,0,0,0,0,-1,629,617,0,0
-588,407,0,0,0,0,0,0,0,0,0,-1,636,617,0,0
-581,407,0,0,0,0,0,0,0,0,0,-1,643,617,0,0
-574,407,0,0,0,0,0,0,0,0,0,-1,650,617,0,0
-567,407,0,0,0,0,0,0,0,0,0,-1,657,617,0,0
-560,407,0,0,0,0,0,0,0,0,0,-1,664,617,0,0
-553,407,0,0,0,0,0,0,0,0,0,-1,671,617,0,0
-546,407,-8.54517,-0.658142,0,0,0,0,0,0,0,-1,678,617,-8.54515,0.658112
-539,407,-6.09442,-1.01154,0,0,0,0,0,0,0,-1,685,617,-6.09441,1.01155
-532,407,-7.75665,1.62152,0,0,0,0,0,0,0,-1,692,617,-7.75667,-1.62154
-525,407,-3.78247,-2.67639,0,0,0,0,0,0,0,-1,699,617,-3.78246,2.67638
-518,407,-4.77777,-6.01947,0,0,0,0,0,0,0,-1,706,617,-4.77777,6.01945
-511,407,-4.26392,-4.37659,0,0,0,0,0,0,0,-1,713,617,-4.26393,4.37658
-504,407,-4.44946,-2.62854,0,0,0,0,0,0,0,-1,720,617,-4.44947,2.62856
-497,407,-4.43463,-2.68719,0.0151902,0.00688396,-0.00969238,0.0215818,0.000492376,-0.582985,0.0142266,0.0426295,727,617,-4.43466,2.68722
-490,407,-4.47601,-2.71033,0.00987504,0.00573857,-0.00739584,0.0154864,0.000127216,-0.649057,0.0102821,0.0222938,734,617,-4.47599,2.71036
-483,407,-4.47687,-2.9906,0.00646193,0.00476222,-0.00577939,0.0114536,-0.000229463,-0.712397,0.00771337,0.0134822,741,617,-4.47689,2.99062
-476,407,-4.51031,-3.26556,0.00423107,0.00385011,-0.00447008,0.00851472,-0.000433549,-0.764105,0.00582638,0.0105813,748,617,-4.51031,3.26557
-469,407,-4.53955,-3.56116,0.00223015,0.00297008,-0.00318945,0.00581095,-0.000610722,-0.843138,0.00409276,0.0123405,755,617,-4.53955,3.56119
-462,407,-4.56329,-3.87549,0.00137603,0.00232413,-0.00247076,0.00436591,-0.000665739,-0.880178,0.00315601,0.0183996,762,617,-4.56329,3.87548
-455,407,-4.54285,-4.19946,0.000912928,0.00181193,-0.00177739,0.00319578,-0.00047092,-0.909251,0.0023036,0.0208198,769,617,-4.54284,4.19946
-448,407,-4.51093,-4.50702,0.000595092,0.0012086,-0.00119635,0.0021369,-0.000333209,-0.910898,0.00154767,0.0188777,776,617,-4.51094,4.50703
-441,407,-4.53436,-4.78424,-8.723e-05,0.000816135,-0.000633481,0.00114247,-0.000413568,-1.0951,0.000930656,0.0138885,783,617,-4.53436,4.78426
-434,407,-4.55212,-5.0506,-0.00124323,0.000257672,0.000214699,0.00028778,-0.00127334,1.43147,0.000959318,0.00987457,790,617,-4.55212,5.05058
-427,407,-4.54919,-5.33478,-0.00264066,-0.00029125,0.00099547,7.38157e-05,-0.00300572,1.2193,0.00202887,0.0104043,797,617,-4.54919,5.33479
-420,407,-4.5285,-5.62714,-0.00552854,-0.00122012,0.00252073,-5.85048e-05,-0.00669015,1.13898,0.00444073,0.0105636,804,617,-4.52852,5.62713
-413,407,-4.51849,-5.93091,-0.00952912,-0.00226857,0.0044336,-0.000168599,-0.0116291,1.12845,0.00769715,0.0118387,811,617,-4.51848,5.93093
-406,407,-4.58356,-6.16559,-0.0142624,-0.00370909,0.00666802,-0.000482477,-0.017489,1.12012,0.0115019,0.0248286,818,617,-4.58358,6.1656
-399,407,-4.58582,-6.23694,-0.0205332,-0.00568809,0.00965601,-0.000931435,-0.0252898,1.11308,0.0165581,0.0392294,825,617,-4.58582,6.23695
-392,407,-4.68323,-6.63861,-0.028952,-0.0080955,0.0136998,-0.00130652,-0.0357409,1.11071,0.0234039,0.0492695,832,617,-4.6832,6.63863
-385,407,-5.20569,-6.84271,0,0,0,0,0,0,0,-1,839,617,-5.20567,6.84271
-378,407,-5.75385,-7.19769,0,0,0,0,0,0,0,-1,846,617,-5.75388,7.19771
-371,407,-4.8147,-5.45941,0,0,0,0,0,0,0,-1,853,617,-4.81469,5.45939
-364,407,-10.0638,-6.6228,0,0,0,0,0,0,0,-1,860,617,-10.0639,6.62279
-357,407,-6.64447,-1.83337,0,0,0,0,0,0,0,-1,867,617,-6.64446,1.8334
-350,407,-7.03351,-1.77551,0,0,0,0,0,0,0,-1,874,617,-7.03349,1.77551
-343,407,-7.40967,-1.95026,0,0,0,0,0,0,0,-1,881,617,-7.40969,1.95026
-336,407,-8.10229,-2.40662,0,0,0,0,0,0,0,-1,888,617,-8.10229,2.40664
-329,407,-8.81232,-2.76331,0,0,0,0,0,0,0,-1,895,617,-8.81235,2.76331
-322,407,0,0,0,0,0,0,0,0,0,-1,902,617,0,0
-315,407,0,0,0,0,0,0,0,0,0,-1,909,617,0,0
-308,407,0,0,0,0,0,0,0,0,0,-1,916,617,0,0
-301,407,0,0,0,0,0,0,0,0,0,-1,923,617,0,0
-294,407,0,0,0,0,0,0,0,0,0,-1,930,617,0,0
-287,407,0,0,0,0,0,0,0,0,0,-1,937,617,0,0
-280,407,0,0,0,0,0,0,0,0,0,-1,944,617,0,0
-273,407,0,0,0,0,0,0,0,0,0,-1,951,617,0,0
-266,407,0,0,0,0,0,0,0,0,0,-1,958,617,0,0
-259,407,0,0,0,0,0,0,0,0,0,-1,965,617,0,0
-252,407,0,0,0,0,0,0,0,0,0,-1,972,617,0,0
-245,407,0,0,0,0,0,0,0,0,0,-1,979,617,0,0
-238,407,0,0,0,0,0,0,0,0,0,-1,986,617,0,0
-231,407,0,0,0,0,0,0,0,0,0,-1,993,617,0,0
-224,407,0,0,0,0,0,0,0,0,0,-1,1000,617,0,0
-217,407,0,0,0,0,0,0,0,0,0,-1,1007,617,0,0
-210,407,0,0,0,0,0,0,0,0,0,-1,1014,617,0,0
-203,407,0,0,0,0,0,0,0,0,0,-1,1021,617,0,0
-196,407,0,0,0,0,0,0,0,0,0,-1,1028,617,0,0
-189,407,0,0,0,0,0,0,0,0,0,-1,1035,617,0,0
-182,407,0,0,0,0,0,0,0,0,0,-1,1042,617,0,0
-175,407,0,0,0,0,0,0,0,0,0,-1,1049,617,0,0
-168,407,0,0,0,0,0,0,0,0,0,-1,1056,617,0,0
-161,407,0,0,0,0,0,0,0,0,0,-1,1063,617,0,0
-154,407,0,0,0,0,0,0,0,0,0,-1,1070,617,0,0
-147,407,0,0,0,0,0,0,0,0,0,-1,1077,617,0,0
-140,407,0,0,0,0,0,0,0,0,0,-1,1084,617,0,0
-133,407,0,0,0,0,0,0,0,0,0,-1,1091,617,0,0
-126,407,0,0,0,0,0,0,0,0,0,-1,1098,617,0,0
-119,407,0,0,0,0,0,0,0,0,0,-1,1105,617,0,0
-112,407,0,0,0,0,0,0,0,0,0,-1,1112,617,0,0
-105,407,0,0,0,0,0,0,0,0,0,-1,1119,617,0,0
-98,407,0,0,0,0,0,0,0,0,0,-1,1126,617,0,0
-91,407,0,0,0,0,0,0,0,0,0,-1,1133,617,0,0
-84,407,0,0,0,0,0,0,0,0,0,-1,1140,617,0,0
-77,407,0,0,0,0,0,0,0,0,0,-1,1147,617,0,0
-70,407,0,0,0,0,0,0,0,0,0,-1,1154,617,0,0
-63,407,0,0,0,0,0,0,0,0,0,-1,1161,617,0,0
-56,407,0,0,0,0,0,0,0,0,0,-1,1168,617,0,0
-49,407,0,0,0,0,0,0,0,0,0,-1,1175,617,0,0
-42,407,0,0,0,0,0,0,0,0,0,-1,1182,617,0,0
-35,407,0,0,0,0,0,0,0,0,0,-1,1189,617,0,0
-28,407,0,0,0,0,0,0,0,0,0,-1,1196,617,0,0
-21,407,0,0,0,0,0,0,0,0,0,-1,1203,617,0,0
-14,407,0,0,0,0,0,0,0,0,0,-1,1210,617,0,0
-7,407,0,0,0,0,0,0,0,0,0,-1,1217,617,0,0
0,407,0,0,0,0,0,0,0,0,0,-1,1224,617,0,0
7,407,0,0,0,0,0,0,0,0,0,-1,1231,617,0,0
14,407,0,0,0,0,0,0,0,0,0,-1,1238,617,0,0
21,407,0,0,0,0,0,0,0,0,0,-1,1245,617,0,0
28,407,0,0,0,0,0,0,0,0,0,-1,1252,617,0,0
35,407,0,0,0,0,0,0,0,0,0,-1,1259,617,0,0
42,407,0,0,0,0,0,0,0,0,0,-1,1266,617,0,0
49,407,0,0,0,0,0,0,0,0,0,-1,1273,617,0,0
56,407,0,0,0,0,0,0,0,0,0,-1,1280,617,0,0
63,407,0,0,0,0,0,0,0,0,0,-1,1287,617,0,0
70,407,0,0,0,0,0,0,0,0,0,-1,1294,617,0,0
77,407,0,0,0,0,0,0,0,0,0,-1,1301,617,0,0
84,407,0,0,0,0,0,0,0,0,0,-1,1308,617,0,0
91,407,0,0,0,0,0,0,0,0,0,-1,1315,617,0,0
98,407,0,0,0,0,0,0,0,0,0,-1,1322,617,0,0
105,407,0,0,0,0,0,0,0,0,0,-1,1329,617,0,0
112,407,0,0,0,0,0,0,0,0,0,-1,1336,617,0,0
119,407,0,0,0,0,0,0,0,0,0,-1,1343,617,0,0
126,407,0,0,0,0,0,0,0,0,0,-1,1350,617,0,0
133,407,0,0,0,0,0,0,0,0,0,-1,1357,617,0,0
140,407,0,0,0,0,0,0,0,0,0,-1,1364,617,0,0
147,407,0,0,0,0,0,0,0,0,0,-1,1371,617,0,0
154,407,0,0,0,0,0,0,0,0,0,-1,1378,617,0,0
161,407,0,0,0,0,0,0,0,0,0,-1,1385,617,0,0
168,407,0,0,0,0,0,0,0,0,0,-1,1392,617,0,0
175,407,0,0,0,0,0,0,0,0,0,-1,1399,617,0,0
182,407,0,0,0,0,0,0,0,0,0,-1,1406,617,0,0
189,407,0,0,0,0,0,0,0,0,0,-1,1413,617,0,0
196,407,0,0,0,0,0,0,0,0,0,-1,1420,617,0,0
203,407,0,0,0,0,0,0,0,0,0,-1,1427,617,0,0
210,407,0,0,0,0,0,0,0,0,0,-1,1434,617,0,0
217,407,0,0,0,0,0,0,0,0,0,-1,1441,617,0,0
224,407,0,0,0,0,0,0,0,0,0,-1,1448,617,0,0
231,407,0,0,0,0,0,0,0,0,0,-1,1455,617,0,0
238,407,0,0,0,0,0,0,0,0,0,-1,1462,617,0,0
245,407,0,0,0,0,0,0,0,0,0,-1,1469,617,0,0
252,407,0,0,0,0,0,0,0,0,0,-1,1476,617,0,0
259,407,0,0,0,0,0,0,0,0,0,-1,1483,617,0,0
266,407,0,0,0,0,0,0,0,0,0,-1,1490,617,0,0
273,407,0,0,0,0,0,0,0,0,0,-1,1497,617,0,0
280,407,0,0,0,0,0,0,0,0,0,-1,1504,617,0,0
287,407,0,0,0,0,0,0,0,0,0,-1,1511,617,0,0
294,407,0,0,0,0,0,0,0,0,0,-1,1518,617,0,0
301,407,0,0,0,0,0,0,0,0,0,-1,1525,617,0,0
308,407,0,0,0,0,0,0,0,0,0,-1,1532,617,0,0
315,407,0,0,0,0,0,0,0,0,0,-1,1539,617,0,0
322,407,0,0,0,0,0,0,0,0,0,-1,1546,617,0,0
329,407,0,0,0,0,0,0,0,0,0,-1,1553,617,0,0
336,407,0,0,0,0,0,0,0,0,0,-1,1560,617,0,0
343,407,0,0,0,0,0,0,0,0,0,-1,1567,617,0,0
350,407,0,0,0,0,0,0,0,0,0,-1,1574,617,0,0
357,407,0,0,0,0,0,0,0,0,0,-1,1581,617,0,0
364,407,0,0,0,0,0,0,0,0,0,-1,1588,617,0,0
371,407,0,0,0,0,0,0,0,0,0,-1,1595,617,0,0
378,407,0,0,0,0,0,0,0,0,0,-1,1602,617,0,0
385,407,0,0,0,0,0,0,0,0,0,-1,1609,617,0,0
392,407,0,0,0,0,0,0,0,0,0,-1,1616,617,0,0
399,407,0,0,0,0,0,0,0,0,0,-1,1623,617,0,0
406,407,0,0,0,0,0,0,0,0,0,-1,1630,617,0,0
413,407,0,0,0,0,0,0,0,0,0,-1,1637,617,0,0
420,407,0,0,0,0,0,0,0,0,0,-1,1644,617,0,0
427,407,0,0,0,0,0,0,0,0,0,-1,1651,617,0,0
434,407,0,0,0,0,0,0,0,0,0,-1,1658,617,0,0
441,407,0,0,0,0,0,0,0,0,0,-1,1665,617,0,0
448,407,7.02893,2.13843,0,0,0,0,0,0,0,-1,1672,617,7.02899,-2.13844
455,407,7.55237,2.29242,0,0,0,0,0,0,0,-1,1679,617,7.55236,-2.29244
462,407,8.2926,2.46173,0,0,0,0,0,0,0,-1,1686,617,8.29261,-2.46174
469,407,8.71509,2.22681,0,0,0,0,0,0,0,-1,1693,617,8.71511,-2.22681
476,407,8.89917,1.47766,0,0,0,0,0,0,0,-1,1700,617,8.89914,-1.47768
483,407,9.02612,0.682983,0,0,0,0,0,0,0,-1,1707,617,9.02608,-0.683004
490,407,9.12659,0.000671387,0,0,0,0,0,0,0,-1,1714,617,9.12653,-0.000675931
497,407,7.76819,0.855835,0,0,0,0,0,0,0,-1,1721,617,7.7682,-0.855865
504,407,4.69336,0.160706,0,0,0,0,0,0,0,-1,1728,617,4.69337,-0.1607
511,407,4.07104,-0.00140381,0,0,0,0,0,0,0,-1,1735,617,4.07109,0.00141425
518,407,6.09534,1.9411,0,0,0,0,0,0,0,-1,1742,617,6.09532,-1.94113
525,407,5.72534,-1.35986,0,0,0,0,0,0,0,-1,1749,617,5.72529,1.35988
532,407,7.31763,-2.34937,0,0,0,0,0,0,0,-1,1756,617,7.31766,2.34937
539,407,10.6144,-4.55219,0,0,0,0,0,0,0,-1,1763,617,10.6144,4.5522
546,407,10.7675,-4.01746,0.00087619,0.00383857,0.00210719,0.00493306,-0.000218306,1.09174,0.00336384,0.0160229,1770,617,10.7674,4.01748
553,407,10.7643,-3.70642,0.000439337,0.00277374,0.00139686,0.00342686,-0.000213786,1.13343,0.00235907,0.0149631,1777,617,10.7642,3.7064
560,407,10.7803,-3.36053,0.000139904,0.00204263,0.000927682,0.00242005,-0.000237525,1.1844,0.00169809,0.0151333,1784,617,10.7803,3.36055
567,407,10.7766,-3.08484,-1.26306e-05,0.00150505,0.000652684,0.00174713,-0.000254707,1.21563,0.00125828,0.0267665,1791,617,10.7766,3.08486
574,407,10.7815,-2.78217,0.000123758,0.00124131,0.000670097,0.00155504,-0.000189969,1.13293,0.00110547,0.0229415,1798,617,10.7815,2.7822
581,407,10.7557,-2.44214,0.000357862,0.00113344,0.000824733,0.001657,-0.000165703,1.00516,0.00116384,0.0158247,1805,617,10.7557,2.44212
588,407,10.7357,-2.14587,0.000731108,0.00131802,0.00120289,0.00226274,-0.000213608,0.90504,0.0015845,0.0110273,1812,617,10.7357,2.1459
595,407,10.7556,-1.84009,0.00132146,0.00178903,0.00179286,0.00336329,-0.000252796,0.850231,0.00233103,0.0212779,1819,617,10.7557,1.84011
602,407,10.7612,-1.49835,0.00207729,0.00252139,0.00260429,0.00491307,-0.000314401,0.827927,0.00338505,0.0188558,1826,617,10.7612,1.49835
609,407,10.7247,-1.15906,0.00285874,0.00348106,0.00354556,0.00672909,-0.000389288,0.829167,0.00462129,0.0162161,1833,617,10.7248,1.15906
616,407,10.7968,-0.747314,0.00343909,0.00508017,0.00473139,0.00906164,-0.000542377,0.871257,0.00622976,0.0286198,1840,617,10.7968,0.747319
623,407,11.1572,-0.111938,0,0,0,0,0,0,0,-1,1847,617,11.1572,0.111915
630,407,7.06177,0.814575,0,0,0,0,0,0,0,-1,1854,617,7.06178,-0.814579
637,407,6.27808,1.17114,0,0,0,0,0,0,0,-1,1861,617,6.27803,-1.17116
644,407,5.09766,2.27747,0,0,0,0,0,0,0,-1,1868,617,5.09764,-2.27746
651,407,7.37524,0.0513916,0,0,0,0,0,0,0,-1,1875,617,7.3752,-0.0513923
658,407,3.76685,0.594177,0,0,0,0,0,0,0,-1,1882,617,3.76683,-0.594184
665,407,5.76123,0.375061,0,0,0,0,0,0,0,-1,1889,617,5.76118,-0.37509
672,407,0,0,0,0,0,0,0,0,0,-1,1896,617,0,0
679,407,0,0,0,0,0,0,0,0,0,-1,1903,617,0,0
686,407,0,0,0,0,0,0,0,0,0,-1,1910,617,0,0
693,407,0,0,0,0,0,0,0,0,0,-1,1917,617,0,0
700,407,0,0,0,0,0,0,0,0,0,-1,1924,617,0,0
707,407,0,0,0,0,0,0,0,0,0,-1,1931,617,0,0
714,407,0,0,0,0,0,0,0,0,0,-1,1938,617,0,0
721,407,0,0,0,0,0,0,0,0,0,-1,1945,617,0,0
728,407,0,0,0,0,0,0,0,0,0,-1,1952,617,0,0
735,407,0,0,0,0,0,0,0,0,0,-1,1959,617,0,0
742,407,0,0,0,0,0,0,0,0,0,-1,1966,617,0,0
749,407,0,0,0,0,0,0,0,0,0,-1,1973,617,0,0
756,407,0,0,0,0,0,0,0,0,0,-1,1980,617,0,0
763,407,0,0,0,0,0,0,0,0,0,-1,1987,617,0,0
770,407,0,0,0,0,0,0,0,0,0,-1,1994,617,0,0
777,407,0,0,0,0,0,0,0,0,0,-1,2001,617,0,0
784,407,0,0,0,0,0,0,0,0,0,-1,2008,617,0,0
791,407,0,0,0,0,0,0,0,0,0,-1,2015,617,0,0
798,407,0,0,0,0,0,0,0,0,0,-1,2022,617,0,0
805,407,0,0,0,0,0,0,0,0,0,-1,2029,617,0,0
812,407,0,0,0,0,0,0,0,0,0,-1,2036,617,0,0
-700,400,0,0,0,0,0,0,0,0,0,-1,524,624,0,0
-693,400,0,0,0,0,0,0,0,0,0,-1,531,624,0,0
-686,400,0,0,0,0,0,0,0,0,0,-1,538,624,0,0
-679,400,0,0,0,0,0,0,0,0,0,-1,545,624,0,0
-672,400,0,0,0,0,0,0,0,0,0,-1,552,624,0,0
-665,400,0,0,0,0,0,0,0,0,0,-1,559,624,0,0
-658,400,0,0,0,0,0,0,0,0,0,-1,566,624,0,0
-651,400,0,0,0,0,0,0,0,0,0,-1,573,624,0,0
-644,400,0,0,0,0,0,0,0,0,0,-1,580,624,0,0
-637,400,0,0,0,0,0,0,0,0,0,-1,587,624,0,0
-630,400,0,0,0,0,0,0,0,0,0,-1,594,624,0,0
-623,400,0,0,0,0,0,0,0,0,0,-1,601,624,0,0
-616,400,0,0,0,0,0,0,0,0,0,-1,608,624,0,0
-609,400,0,0,0,0,0,0,0,0,0,-1,615,624,0,0
-602,400,0,0,0,0,0,0,0,0,0,-1,622,624,0,0
-595,400,0,0,0,0,0,0,0,0,0,-1,629,624,0,0
-588,400,0,0,0,0,0,0,0,0,0,-1,636,624,0,0
-581,400,0,0,0,0,0,0,0,0,0,-1,643,624,0,0
-574,400,0,0,0,0,0,0,0,0,0,-1,650,624,0,0
-567,400,0,0,0,0,0,0,0,0,0,-1,657,624,0,0
-560,400,0,0,0,0,0,0,0,0,0,-1,664,624,0,0
-553,400,0,0,0,0,0,0,0,0,0,-1,671,624,0,0
-546,400,-8.41174,-1.4599,0,0,0,0,0,0,0,-1,678,624,-8.41173,1.45989
-539,400,-5.69104,-1.7337,0,0,0,0,0,0,0,-1,685,624,-5.69103,1.7337
-532,400,-3.03632,-2.03912,0,0,0,0,0,0,0,-1,692,624,-3.03632,2.03909
-525,400,-5.53925,-6.37646,0,0,0,0,0,0,0,-1,699,624,-5.53922,6.37643
-518,400,-4.9964,-5.26758,0,0,0,0,0,0,0,-1,706,624,-4.99638,5.26759
-511,400,-3.71442,-1.78711,0,0,0,0,0,0,0,-1,713,624,-3.71443,1.78713
-504,400,-4.8457,-2.54626,0,0,0,0,0,0,0,-1,720,624,-4.84573,2.54628
-497,400,-4.72699,-2.53387,0.0130699,0.00464191,-0.00723246,0.0172265,0.000485358,-0.521615,0.011326,0.0337054,727,624,-4.72698,2.53388
-490,400,-4.77722,-2.66711,0.0084764,0.00388801,-0.00541158,0.01206,0.000304411,-0.584911,0.00794048,0.0159983,734,624,-4.77722,2.66709
-483,400,-4.81415,-2.98468,0.00553789,0.00322681,-0.00416776,0.00870733,5.73681e-05,-0.650166,0.00578586,0.0145063,741,624,-4.81414,2.98467
-476,400,-4.82269,-3.26965,0.00364139,0.00264316,-0.00320213,0.00638307,-9.85174e-05,-0.708086,0.00428859,0.0132003,748,624,-4.82267,3.26964
-469,400,-4.83594,-3.56592,0.00188882,0.00206225,-0.00225527,0.00423247,-0.000281399,-0.804614,0.00291997,0.0139427,755,624,-4.83596,3.5659
-462,400,-4.80829,-3.90283,0.00120648,0.00167111,-0.00184018,0.00329358,-0.000415995,-0.848188,0.00234671,0.0183336,762,624,-4.80828,3.9028
-455,400,-4.81439,-4.19135,0.000833213,0.00140064,-0.00133957,0.00248621,-0.000252363,-0.889753,0.00174768,0.0198421,769,624,-4.8144,4.19132
-448,400,-4.82025,-4.47498,0.000559589,0.000945015,-0.000910254,0.00168273,-0.000178128,-0.889715,0.00118567,0.0151389,776,624,-4.82027,4.475
-441,400,-4.82703,-4.74719,-0.000169223,0.000648959,-0.000443816,0.000843463,-0.000363728,-1.15775,0.000715082,0.0141218,783,624,-4.82704,4.74719
-434,400,-4.83984,-5.01569,-0.00134911,0.000312317,0.00022977,0.000343508,-0.0013803,1.43587,0.00105354,0.0113515,790,624,-4.83982,5.01568
-427,400,-4.83453,-5.29437,-0.00286026,-7.65292e-05,0.000929936,0.000205544,-0.00314234,1.27629,0.00216666,0.00961638,797,624,-4.83452,5.29435
-420,400,-4.78491,-5.62854,-0.00617248,-0.000991242,0.00253251,4.09686e-05,-0.00720469,1.18377,0.00481684,0.0138255,804,624,-4.78489,5.62856
-413,400,-4.84503,-5.92395,-0.0109034,-0.0020253,0.00461315,-6.22887e-05,-0.0128664,1.16848,0.00855691,0.0303258,811,624,-4.84504,5.92397
-406,400,-5.33307,-6.26257,-0.016685,-0.00358608,0.00712063,-0.000460882,-0.0198102,1.15722,0.0130559,0.0393714,818,624,-5.33308,6.2626
-399,400,-4.89459,-6.03613,0,0,0,0,0,0,0,-1,825,624,-4.89461,6.03615
-392,400,-4.92285,-6.63354,0,0,0,0,0,0,0,-1,832,624,-4.92285,6.63354
-385,400,-3.68738,-5.04205,0,0,0,0,0,0,0,-1,839,624,-3.68736,5.04207
-378,400,-6.84064,-1.28662,0,0,0,0,0,0,0,-1,846,624,-6.84062,1.28662
-371,400,-6.98865,-1.2572,0,0,0,0,0,0,0,-1,853,624,-6.98865,1.25721
-364,400,-6.97247,-1.24133,0,0,0,0,0,0,0,-1,860,624,-6.97249,1.24135
-357,400,-7.18329,-1.23218,0,0,0,0,0,0,0,-1,867,624,-7.18327,1.2322
-350,400,-7.40186,-1.19409,0,0,0,0,0,0,0,-1,874,624,-7.40187,1.19407
-343,400,-8.09357,-1.51147,0,0,0,0,0,0,0,-1,881,624,-8.09355,1.51148
-336,400,0,0,0,0,0,0,0,0,0,-1,888,624,0,0
-329,400,0,0,0,0,0,0,0,0,0,-1,895,624,0,0
-322,400,0,0,0,0,0,0,0,0,0,-1,902,624,0,0
-315,400,0,0,0,0,0,0,0,0,0,-1,909,624,0,0
-308,400,0,0,0,0,0,0,0,0,0,-1,916,624,0,0
-301,400,0,0,0,0,0,0,0,0,0,-1,923,624,0,0
-294,400,0,0,0,0,0,0,0,0,0,-1,930,624,0,0
-287,400,0,0,0,0,0,0,0,0,0,-1,937,624,0,0
-280,400,0,0,0,0,0,0,0,0,0,-1,944,624,0,0
-273,400,0,0,0,0,0,0,0,0,0,-1,951,624,0,0
-266,400,0,0,0,0,0,0,0,0,0,-1,958,624,0,0
-259,400,0,0,0,0,0,0,0,0,0,-1,965,624,0,0
-252,400,0,0,0,0,0,0,0,0,0,-1,972,624,0,0
-245,400,0,0,0,0,0,0,0,0,0,-1,979,624,0,0
-238,400,0,0,0,0,0,0,0,0,0,-1,986,624,0,0
-231,400,0,0,0,0,0,0,0,0,0,-1,993,624,0,0
-224,400,0,0,0,0,0,0,0,0,0,-1,1000,624,0,0
-217,400,0,0,0,0,0,0,0,0,0,-1,1007,624,0,0
-210,400,0,0,0,0,0,0,0,0,0,-1,1014,624,0,0
-203,400,0,0,0,0,0,0,0,0,0,-1,1021,624,0,0
-196,400,0,0,0,0,0,0,0,0,0,-1,1028,624,0,0
-189,400,0,0,0,0,0,0,0,0,0,-1,1035,624,0,0
-182,400,0,0,0,0,0,0,0,0,0,-1,1042,624,0,0
-175,400,0,0,0,0,0,0,0,0,0,-1,1049,624,0,0
-168,400,0,0,0,0,0,0,0,0,0,-1,1056,624,0,0
-161,400,0,0,0,0,0,0,0,0,0,-1,1063,624,0,0
-154,400,0,0,0,0,0,0,0,0,0,-1,1070,624,0,0
-147,400,0,0,0,0,0,0,0,0,0,-1,1077,624,0,0
-140,400,0,0,0,0,0,0,0,0,0,-1,1084,624,0,0
-133,400,0,0,0,0,0,0,0,0,0,-1,1091,624,0,0
-126,400,0,0,0,0,0,0,0,0,0,-1,1098,624,0,0
-119,400,0,0,0,0,0,0,0,0,0,-1,1105,624,0,0
-112,400,0,0,0,0,0,0,0,0,0,-1,1112,624,0,0
-105,400,0,0,0,0,0,0,0,0,0,-1,1119,624,0,0
-98,400,0,0,0,0,0,0,0,0,0,-1,1126,624,0,0
-91,400,0,0,0,0,0,0,0,0,0,-1,1133,624,0,0
-84,400,0,0,0,0,0,0,0,0,0,-1,1140,624,0,0
-77,400,0,0,0,0,0,0,0,0,0,-1,1147,624,0,0
-70,400,0,0,0,0,0,0,0,0,0,-1,1154,624,0,0
-63,400,0,0,0,0,0,0,0,0,0,-1,1161,624,0,0
-56,400,0,0,0,0,0,0,0,0,0,-1,1168,624,0,0
-49,400,0,0,0,0,0,0,0,0,0,-1,1175,624,0,0
-42,400,0,0,0,0,0,0,0,0,0,-1,1182,624,0,0
-35,400,0,0,0,0,0,0,0,0,0,-1,1189,624,0,0
-28,400,0,0,0,0,0,0,0,0,0,-1,1196,624,0,0
-21,400,0,0,0,0,0,0,0,0,0,-1,1203,624,0,0
-14,400,0,0,0,0,0,0,0,0,0,-1,1210,624,0,0
-7,400,0,0,0,0,0,0,0,0,0,-1,1217,624,0,0
0,400,0,0,0,0,0,0,0,0,0,-1,1224,624,0,0
7,400,0,0,0,0,0,0,0,0,0,-1,1231,624,0,0
14,400,0,0,0,0,0,0,0,0,0,-1,1238,624,0,0
21,400,0,0,0,0,0,0,0,0,0,-1,1245,624,0,0
28,400,0,0,0,0,0,0,0,0,0,-1,1252,624,0,0
35,400,0,0,0,0,0,0,0,0,0,-1,1259,624,0,0
42,400,0,0,0,0,0,0,0,0,0,-1,1266,624,0,0
49,400,0,0,0,0,0,0,0,0,0,-1,1273,624,0,0
56,400,0,0,0,0,0,0,0,0,0,-1,1280,624,0,0
63,400,0,0,0,0,0,0,0,0,0,-1,1287,624,0,0
70,400,0,0,0,0,0,0,0,0,0,-1,1294,624,0,0
77,400,0,0,0,0,0,0,0,0,0,-1,1301,624,0,0
84,400,0,0,0,0,0,0,0,0,0,-1,1308,624,0,0
91,400,0,0,0,0,0,0,0,0,0,-1,1315,624,0,0
98,400,0,0,0,0,0,0,0,0,0,-1,1322,624,0,0
105,400,0,0,0,0,0,0,0,0,0,-1,1329,624,0,0
112,400,0,0,0,0,0,0,0,0,0,-1,1336,624,0,0
119,400,0,0,0,0,0,0,0,0,0,-1,1343,624,0,0
126,400,0,0,0,0,0,0,0,0,0,-1,1350,624,0,0
133,400,0,0,0,0,0,0,0,0,0,-1,1357,624,0,0
140,400,0,0,0,0,0,0,0,0,0,-1,1364,624,0,0
147,400,0,0,0,0,0,0,0,0,0,-1,1371,624,0,0
154,400,0,0,0,0,0,0,0,0,0,-1,1378,624,0,0
161,400,0,0,0,0,0,0,0,0,0,-1,1385,624,0,0
168,400,0,0,0,0,0,0,0,0,0,-1,1392,624,0,0
175,400,0,0,0,0,0,0,0,0,0,-1,1399,624,0,0
182,400,0,0,0,0,0,0,0,0,0,-1,1406,624,0,0
189,400,0,0,0,0,0,0,0,0,0,-1,1413,624,0,0
196,400,0,0,0,0,0,0,0,0,0,-1,1420,624,0,0
203,400,0,0,0,0,0,0,0,0,0,-1,1427,624,0,0
210,400,0,0,0,0,0,0,0,0,0,-1,1434,624,0,0
217,400,0,0,0,0,0,0,0,0,0,-1,1441,624,0,0
224,400,0,0,0,0,0,0,0,0,0,-1,1448,624,0,0
231,400,0,0,0,0,0,0,0,0,0,-1,1455,624,0,0
238,400,0,0,0,0,0,0,0,0,0,-1,1462,624,0,0
245,400,0,0,0,0,0,0,0,0,0,-1,1469,624,0,0
252,400,0,0,0,0,0,0,0,0,0,-1,1476,624,0,0
259,400,0,0,0,0,0,0,0,0,0,-1,1483,624,0,0
266,400,0,0,0,0,0,0,0,0,0,-1,1490,624,0,0
273,400,0,0,0,0,0,0,0,0,0,-1,1497,624,0,0
280,400,0,0,0,0,0,0,0,0,0,-1,1504,624,0,0
287,400,0,0,0,0,0,0,0,0,0,-1,1511,624,0,0
294,400,0,0,0,0,0,0,0,0,0,-1,1518,624,0,0
301,400,0,0,0,0,0,0,0,0,0,-1,1525,624,0,0
308,400,0,0,0,0,0,0,0,0,0,-1,1532,624,0,0
315,400,0,0,0,0,0,0,0,0,0,-1,1539,624,0,0
322,400,0,0,0,0,0,0,0,0,0,-1,1546,624,0,0
329,400,0,0,0,0,0,0,0,0,0,-1,1553,624,0,0
336,400,0,0,0,0,0,0,0,0,0,-1,1560,624,0,0
343,400,0,0,0,0,0,0,0,0,0,-1,1567,624,0,0
350,400,0,0,0,0,0,0,0,0,0,-1,1574,624,0,0
357,400,0,0,0,0,0,0,0,0,0,-1,1581,624,0,0
364,400,0,0,0,0,0,0,0,0,0,-1,1588,624,0,0
371,400,0,0,0,0,0,0,0,0,0,-1,1595,624,0,0
378,400,0,0,0,0,0,0,0,0,0,-1,1602,624,0,0
385,400,0,0,0,0,0,0,0,0,0,-1,1609,624,0,0
392,400,0,0,0,0,0,0,0,0,0,-1,1616,624,0,0
399,400,0,0,0,0,0,0,0,0,0,-1,1623,624,0,0
406,400,0,0,0,0,0,0,0,0,0,-1,1630,624,0,0
413,400,0,0,0,0,0,0,0,0,0,-1,1637,624,0,0
420,400,0,0,0,0,0,0,0,0,0,-1,1644,624,0,0
427,400,0,0,0,0,0,0,0,0,0,-1,1651,624,0,0
434,400,0,0,0,0,0,0,0,0,0,-1,1658,624,0,0
441,400,0,0,0,0,0,0,0,0,0,-1,1665,624,0,0
448,400,0,0,0,0,0,0,0,0,0,-1,1672,624,0,0
455,400,8.91309,2.75885,0,0,0,0,0,0,0,-1,1679,624,8.91312,-2.75885
462,400,8.90356,2.37878,0,0,0,0,0,0,0,-1,1686,624,8.90353,-2.37878
469,400,9.14429,1.76849,0,0,0,0,0,0,0,-1,1693,624,9.14432,-1.76847
476,400,9.23254,1.25995,0,0,0,0,0,0,0,-1,1700,624,9.23252,-1.25994
483,400,9.59766,0.562439,0,0,0,0,0,0,0,-1,1707,624,9.59771,-0.56242
490,400,9.92578,-0.213745,0,0,0,0,0,0,0,-1,1714,624,9.92579,0.21376
497,400,9.19141,0.175232,0,0,0,0,0,0,0,-1,1721,624,9.19138,-0.175209
504,400,9.23438,0.00823975,0,0,0,0,0,0,0,-1,1728,624,9.23436,-0.00823766
511,400,6.16687,3.3501,0,0,0,0,0,0,0,-1,1735,624,6.16682,-3.35007
518,400,6.55237,1.74994,0,0,0,0,0,0,0,-1,1742,624,6.55236,-1.74993
525,400,6.99731,1.08783,0,0,0,0,0,0,0,-1,1749,624,6.99736,-1.08785
532,400,6.96582,-1.74982,0,0,0,0,0,0,0,-1,1756,624,6.96585,1.74983
539,400,11.1732,-4.32617,0,0,0,0,0,0,0,-1,1763,624,11.1732,4.32617
546,400,11.1334,-4.04663,0.000273575,0.00484652,0.00234312,0.00583391,-0.000713814,1.17198,0.00414773,0.0314055,1770,624,11.1335,4.04665
553,400,11.0487,-3.69379,-8.63025e-05,0.0035313,0.00153227,0.00409307,-0.000648075,1.21939,0.00296842,0.0179375,1777,624,11.0487,3.69381
560,400,11.0883,-3.34338,-0.000285088,0.00262192,0.00100572,0.00293594,-0.000599107,1.26815,0.00218455,0.0135957,1784,624,11.0882,3.3434
567,400,11.111,-3.06195,-0.000394661,0.00191509,0.000652561,0.0020867,-0.000566274,1.31363,0.00161337,0.0172612,1791,624,11.1109,3.06196
574,400,11.1005,-2.78271,-0.000227762,0.00150865,0.000584797,0.00168724,-0.000406346,1.27441,0.00128192,0.0196154,1798,624,11.1005,2.78269
581,400,11.0514,-2.42371,6.44685e-05,0.00130571,0.000684474,0.00160903,-0.000238857,1.15365,0.00116053,0.0173484,1805,624,11.0515,2.4237
588,400,11.0453,-2.09821,0.000472372,0.00139384,0.000995051,0.00202965,-0.000163435,1.00221,0.00141074,0.0126499,1812,624,11.0453,2.09819
595,400,11.0676,-1.82349,0.00107013,0.00175521,0.00149911,0.00295042,-0.000125079,0.897718,0.00200994,0.0123767,1819,624,11.0676,1.82351
602,400,11.0669,-1.51318,0.00181142,0.00236004,0.00220707,0.00430978,-0.000138319,0.847226,0.00292038,0.0128869,1826,624,11.0669,1.51319
609,400,11.0134,-1.17065,0.00243372,0.00315692,0.0029591,0.00577643,-0.000185791,0.846196,0.00391435,0.0131133,1833,624,11.0134,1.17063
616,400,11.0287,-0.852417,0.00269066,0.00436941,0.00376107,0.00738363,-0.000323555,0.895186,0.00503374,0.0163941,1840,624,11.0287,0.852432
623,400,11.3007,-0.313171,0.003042,0.0057017,0.00466995,0.00922746,-0.00048376,0.92411,0.00631907,0.0477041,1847,624,11.3007,0.313189
630,400,11.6768,0.190552,0,0,0,0,0,0,0,-1,1854,624,11.6767,-0.190543
637,400,6.92896,1.01917,0,0,0,0,0,0,0,-1,1861,624,6.92899,-1.01918
644,400,8.65381,1.4599,0,0,0,0,0,0,0,-1,1868,624,8.65379,-1.45991
651,400,7.90601,0.424072,0,0,0,0,0,0,0,-1,1875,624,7.90598,-0.424097
658,400,8.69031,1.0484,0,0,0,0,0,0,0,-1,1882,624,8.6903,-1.0484
665,400,5.98438,0.522522,0,0,0,0,0,0,0,-1,1889,624,5.98442,-0.522552
672,400,0,0,0,0,0,0,0,0,0,-1,1896,624,0,0
679,400,0,0,0,0,0,0,0,0,0,-1,1903,624,0,0
686,400,0,0,0,0,0,0,0,0,0,-1,1910,624,0,0
693,400,0,0,0,0,0,0,0,0,0,-1,1917,624,0,0
700,400,0,0,0,0,0,0,0,0,0,-1,1924,624,0,0
707,400,0,0,0,0,0,0,0,0,0,-1,1931,624,0,0
714,400,0,0,0,0,0,0,0,0,0,-1,1938,624,0,0
721,400,0,0,0,0,0,0,0,0,0,-1,1945,624,0,0
728,400,0,0,0,0,0,0,0,0,0,-1,1952,624,0,0
735,400,0,0,0,0,0,0,0,0,0,-1,1959,624,0,0
742,400,0,0,0,0,0,0,0,0,0,-1,1966,624,0,0
749,400,0,0,0,0,0,0,0,0,0,-1,1973,624,0,0
756,400,0,0,0,0,0,0,0,0,0,-1,1980,624,0,0
763,400,0,0,0,0,0,0,0,0,0,-1,1987,624,0,0
770,400,0,0,0,0,0,0,0,0,0,-1,1994,624,0,0
777,400,0,0,0,0,0,0,0,0,0,-1,2001,624,0,0
784,400,0,0,0,0,0,0,0,0,0,-1,2008,624,0,0
791,400,0,0,0,0,0,0,0,0,0,-1,2015,624,0,0
798,400,0,0,0,0,0,0,0,0,0,-1,2022,624,0,0
805,400,0,0,0,0,0,0,0,0,0,-1,2029,624,0,0
812,400,0,0,0,0,0,0,0,0,0,-1,2036,624,0,0
-700,393,0,0,0,0,0,0,0,0,0,-1,524,631,0,0
-693,393,0,0,0,0,0,0,0,0,0,-1,531,631,0,0
-686,393,0,0,0,0,0,0,0,0,0,-1,538,631,0,0
-679,393,0,0,0,0,0,0,0,0,0,-1,545,631,0,0
-672,393,0,0,0,0,0,0,0,0,0,-1,552,631,0,0
-665,393,0,0,0,0,0,0,0,0,0,-1,559,631,0,0
-658,393,0,0,0,0,0,0,0,0,0,-1,566,631,0,0
-651,393,0,0,0,0,0,0,0,0,0,-1,573,631,0,0
-644,393,0,0,0,0,0,0,0,0,0,-1,580,631,0,0
-637,393,0,0,0,0,0,0,0,0,0,-1,587,631,0,0
-630,393,0,0,0,0,0,0,0,0,0,-1,594,631,0,0
-623,393,0,0,0,0,0,0,0,0,0,-1,601,631,0,0
-616,393,0,0,0,0,0,0,0,0,0,-1,608,631,0,0
-609,393,0,0,0,0,0,0,0,0,0,-1,615,631,0,0
-602,393,0,0,0,0,0,0,0,0,0,-1,622,631,0,0
-595,393,0,0,0,0,0,0,0,0,0,-1,629,631,0,0
-588,393,0,0,0,0,0,0,0,0,0,-1,636,631,0,0
-581,393,0,0,0,0,0,0,0,0,0,-1,643,631,0,0
-574,393,0,0,0,0,0,0,0,0,0,-1,650,631,0,0
-567,393,0,0,0,0,0,0,0,0,0,-1,657,631,0,0
-560,393,0,0,0,0,0,0,0,0,0,-1,664,631,0,0
-553,393,-2.35107,3.92633,0,0,0,0,0,0,0,-1,671,631,-2.35108,-3.92634
-546,393,-1.78778,2.4856,0,0,0,0,0,0,0,-1,678,631,-1.78778,-2.48557
-539,393,-5.2113,-2.20245,0,0,0,0,0,0,0,-1,685,631,-5.21128,2.20247
-532,393,-2.83643,-2.01624,0,0,0,0,0,0,0,-1,692,631,-2.83642,2.01626
-525,393,-5.43378,-4.97723,0,0,0,0,0,0,0,-1,699,631,-5.4338,4.97722
-518,393,-4.33289,-1.59924,0,0,0,0,0,0,0,-1,706,631,-4.33289,1.59923
-511,393,-4.37402,-1.79865,0,0,0,0,0,0,0,-1,713,631,-4.37403,1.79866
-504,393,-4.73651,-2.07385,0.017072,0.00366757,-0.00776911,0.0206304,0.000109246,-0.429494,0.0137173,0.0486111,720,631,-4.73649,2.07386
-497,393,-5.09839,-2.28839,0.011259,0.00311793,-0.0055423,0.0140649,0.000311953,-0.468662,0.00927439,0.0249696,727,631,-5.09841,2.28842
-490,393,-5.09082,-2.68671,0.00735495,0.00258454,-0.00402252,0.00964627,0.000293216,-0.517784,0.00633537,0.0142464,734,631,-5.0908,2.68669
-483,393,-5.09949,-2.98877,0.00480551,0.0021592,-0.00303466,0.00679293,0.000171782,-0.579817,0.00447246,0.018495,741,631,-5.09948,2.98876
-476,393,-5.10309,-3.27344,0.00317304,0.00183224,-0.00233787,0.00493473,7.05475e-05,-0.645766,0.00326656,0.015459,748,631,-5.10311,3.27342
-469,393,-5.1286,-3.57574,0.00166441,0.0014975,-0.00166764,0.00325068,-8.87671e-05,-0.760398,0.00219731,0.0123759,755,631,-5.12861,3.57572
-462,393,-5.10193,-3.91388,0.00114667,0.00131385,-0.00149377,0.00272637,-0.000265848,-0.81335,0.00191236,0.0148552,762,631,-5.1019,3.91387
-455,393,-5.11206,-4.20508,0.000851234,0.00124112,-0.00114866,0.00221127,-0.00011891,-0.869454,0.00151537,0.0145281,769,631,-5.11208,4.2051
-448,393,-5.13458,-4.48059,0.000594939,0.000919058,-0.000828113,0.00160082,-8.68229e-05,-0.882025,0.0010973,0.0134714,776,631,-5.13455,4.4806
-441,393,-5.13385,-4.75549,-0.000180039,0.000686034,-0.00042437,0.000859306,-0.000353312,-1.18315,0.000720136,0.0120344,783,631,-5.13383,4.75548
-434,393,-5.13507,-5.0108,-0.0013555,0.000571352,7.63912e-05,0.000574376,-0.00135852,1.53123,0.00114616,0.0112326,790,631,-5.13505,5.0108
-427,393,-5.08789,-5.32019,-0.00294944,0.000353085,0.000690434,0.000491618,-0.00308797,1.37278,0.00224057,0.0172416,797,631,-5.08788,5.3202
-420,393,-5.08221,-5.61194,-0.00664513,-0.000535201,0.00235753,0.00026869,-0.00744902,1.24217,0.00505796,0.0372841,804,631,-5.08221,5.61192
-413,393,-5.28528,-5.93604,0,0,0,0,0,0,0,-1,811,631,-5.28525,5.93602
-406,393,-6.04565,-6.5675,0,0,0,0,0,0,0,-1,818,631,-6.04563,6.56748
-399,393,-5.07343,-5.92365,0,0,0,0,0,0,0,-1,825,631,-5.07344,5.92364
-392,393,-2.08063,-3.02386,0,0,0,0,0,0,0,-1,832,631,-2.08063,3.02384
-385,393,-3.16931,-0.624756,0,0,0,0,0,0,0,-1,839,631,-3.16928,0.624764
-378,393,-7.33081,-0.872314,0,0,0,0,0,0,0,-1,846,631,-7.33081,0.872325
-371,393,-7.47858,-0.811096,0,0,0,0,0,0,0,-1,853,631,-7.47859,0.811075
-364,393,-7.64917,-0.662415,0,0,0,0,0,0,0,-1,860,631,-7.64917,0.662406
-357,393,-8.09686,-0.726013,0,0,0,0,0,0,0,-1,867,631,-8.09689,0.726029
-350,393,-8.38788,-0.511841,0,0,0,0,0,0,0,-1,874,631,-8.38785,0.511811
-343,393,0,0,0,0,0,0,0,0,0,-1,881,631,0,0
-336,393,0,0,0,0,0,0,0,0,0,-1,888,631,0,0
-329,393,0,0,0,0,0,0,0,0,0,-1,895,631,0,0
-322,393,0,0,0,0,0,0,0,0,0,-1,902,631,0,0
-315,393,0,0,0,0,0,0,0,0,0,-1,909,631,0,0
-308,393,0,0,0,0,0,0,0,0,0,-1,916,631,0,0
-301,393,0,0,0,0,0,0,0,0,0,-1,923,631,0,0
-294,393,0,0,0,0,0,0,0,0,0,-1,930,631,0,0
-287,393,0,0,0,0,0,0,0,0,0,-1,937,631,0,0
-280,393,0,0,0,0,0,0,0,0,0,-1,944,631,0,0
-273,393,0,0,0,0,0,0,0,0,0,-1,951,631,0,0
-266,393,0,0,0,0,0,0,0,0,0,-1,958,631,0,0
-259,393,0,0,0,0,0,0,0,0,0,-1,965,631,0,0
-252,393,0,0,0,0,0,0,0,0,0,-1,972,631,0,0
-245,393,0,0,0,0,0,0,0,0,0,-1,979,631,0,0
-238,393,0,0,0,0,0,0,0,0,0,-1,986,631,0,0
-231,393,0,0,0,0,0,0,0,0,0,-1,993,631,0,0
-224,393,0,0,0,0,0,0,0,0,0,-1,1000,631,0,0
-217,393,0,0,0,0,0,0,0,0,0,-1,1007,631,0,0
-210,393,0,0,0,0,0,0,0,0,0,-1,1014,631,0,0
-203,393,0,0,0,0,0,0,0,0,0,-1,1021,631,0,0
-196,393,0,0,0,0,0,0,0,0,0,-1,1028,631,0,0
-189,393,0,0,0,0,0,0,0,0,0,-1,1035,631,0,0
-182,393,0,0,0,0,0,0,0,0,0,-1,1042,631,0,0
-175,393,0,0,0,0,0,0,0,0,0,-1,1049,631,0,0
-168,393,0,0,0,0,0,0,0,0,0,-1,1056,631,0,0
-161,393,0,0,0,0,0,0,0,0,0,-1,1063,631,0,0
-154,393,0,0,0,0,0,0,0,0,0,-1,1070,631,0,0
-147,393,0,0,0,0,0,0,0,0,0,-1,1077,631,0,0
-140,393,0,0,0,0,0,0,0,0,0,-1,1084,631,0,0
-133,393,0,0,0,0,0,0,0,0,0,-1,1091,631,0,0
-126,393,0,0,0,0,0,0,0,0,0,-1,1098,631,0,0
-119,393,0,0,0,0,0,0,0,0,0,-1,1105,631,0,0
-112,393,0,0,0,0,0,0,0,0,0,-1,1112,631,0,0
-105,393,0,0,0,0,0,0,0,0,0,-1,1119,631,0,0
-98,393,0,0,0,0,0,0,0,0,0,-1,1126,631,0,0
-91,393,0,0,0,0,0,0,0,0,0,-1,1133,631,0,0
-84,393,0,0,0,0,0,0,0,0,0,-1,1140,631,0,0
-77,393,0,0,0,0,0,0,0,0,0,-1,1147,631,0,0
-70,393,0,0,0,0,0,0,0,0,0,-1,1154,631,0,0
-63,393,0,0,0,0,0,0,0,0,0,-1,1161,631,0,0
-56,393,0,0,0,0,0,0,0,0,0,-1,1168,631,0,0
-49,393,0,0,0,0,0,0,0,0,0,-1,1175,631,0,0
-42,393,0,0,0,0,0,0,0,0,0,-1,1182,631,0,0
-35,393,0,0,0,0,0,0,0,0,0,-1,1189,631,0,0
-28,393,0,0,0,0,0,0,0,0,0,-1,1196,631,0,0
-21,393,0,0,0,0,0,0,0,0,0,-1,1203,631,0,0
-14,393,0,0,0,0,0,0,0,0,0,-1,1210,631,0,0
-7,393,0,0,0,0,0,0,0,0,0,-1,1217,631,0,0
0,393,0,0,0,0,0,0,0,0,0,-1,1224,631,0,0
7,393,0,0,0,0,0,0,0,0,0,-1,1231,631,0,0
14,393,0,0,0,0,0,0,0,0,0,-1,1238,631,0,0
21,393,0,0,0,0,0,0,0,0,0,-1,1245,631,0,0
28,393,0,0,0,0,0,0,0,0,0,-1,1252,631,0,0
35,393,0,0,0,0,0,0,0,0,0,-1,1259,631,0,0
42,393,0,0,0,0,0,0,0,0,0,-1,1266,631,0,0
49,393,0,0,0,0,0,0,0,0,0,-1,1273,631,0,0
56,393,0,0,0,0,0,0,0,0,0,-1,1280,631,0,0
63,393,0,0,0,0,0,0,0,0,0,-1,1287,631,0,0
70,393,0,0,0,0,0,0,0,0,0,-1,1294,631,0,0
77,393,0,0,0,0,0,0,0,0,0,-1,1301,631,0,0
84,393,0,0,0,0,0,0,0,0,0,-1,1308,631,0,0
91,393,0,0,0,0,0,0,0,0,0,-1,1315,631,0,0
98,393,0,0,0,0,0,0,0,0,0,-1,1322,631,0,0
105,393,0,0,0,0,0,0,0,0,0,-1,1329,631,0,0
112,393,0,0,0,0,0,0,0,0,0,-1,1336,631,0,0
119,393,0,0,0,0,0,0,0,0,0,-1,1343,631,0,0
126,393,0,0,0,0,0,0,0,0,0,-1,1350,631,0,0
133,393,0,0,0,0,0,0,0,0,0,-1,1357,631,0,0
140,393,0,0,0,0,0,0,0,0,0,-1,1364,631,0,0
147,393,0,0,0,0,0,0,0,0,0,-1,1371,631,0,0
154,393,0,0,0,0,0,0,0,0,0,-1,1378,631,0,0
161,393,0,0,0,0,0,0,0,0,0,-1,1385,631,0,0
168,393,0,0,0,0,0,0,0,0,0,-1,1392,631,0,0
175,393,0,0,0,0,0,0,0,0,0,-1,1399,631,0,0
182,393,0,0,0,0,0,0,0,0,0,-1,1406,631,0,0
189,393,0,0,0,0,0,0,0,0,0,-1,1413,631,0,0
196,393,0,0,0,0,0,0,0,0,0,-1,1420,631,0,0
203,393,0,0,0,0,0,0,0,0,0,-1,1427,631,0,0
210,393,0,0,0,0,0,0,0,0,0,-1,1434,631,0,0
217,393,0,0,0,0,0,0,0,0,0,-1,1441,631,0,0
224,393,0,0,0,0,0,0,0,0,0,-1,1448,631,0,0
231,393,0,0,0,0,0,0,0,0,0,-1,1455,631,0,0
238,393,0,0,0,0,0,0,0,0,0,-1,1462,631,0,0
245,393,0,0,0,0,0,0,0,0,0,-1,1469,631,0,0
252,393,0,0,0,0,0,0,0,0,0,-1,1476,631,0,0
259,393,0,0,0,0,0,0,0,0,0,-1,1483,631,0,0
266,393,0,0,0,0,0,0,0,0,0,-1,1490,631,0,0
273,393,0,0,0,0,0,0,0,0,0,-1,1497,631,0,0
280,393,0,0,0,0,0,0,0,0,0,-1,1504,631,0,0
287,393,0,0,0,0,0,0,0,0,0,-1,1511,631,0,0
294,393,0,0,0,0,0,0,0,0,0,-1,1518,631,0,0
301,393,0,0,0,0,0,0,0,0,0,-1,1525,631,0,0
308,393,0,0,0,0,0,0,0,0,0,-1,1532,631,0,0
315,393,0,0,0,0,0,0,0,0,0,-1,1539,631,0,0
322,393,0,0,0,0,0,0,0,0,0,-1,1546,631,0,0
329,393,0,0,0,0,0,0,0,0,0,-1,1553,631,0,0
336,393,0,0,0,0,0,0,0,0,0,-1,1560,631,0,0
343,393,0,0,0,0,0,0,0,0,0,-1,1567,631,0,0
350,393,0,0,0,0,0,0,0,0,0,-1,1574,631,0,0
357,393,0,0,0,0,0,0,0,0,0,-1,1581,631,0,0
364,393,0,0,0,0,0,0,0,0,0,-1,1588,631,0,0
371,393,0,0,0,0,0,0,0,0,0,-1,1595,631,0,0
378,393,0,0,0,0,0,0,0,0,0,-1,1602,631,0,0
385,393,0,0,0,0,0,0,0,0,0,-1,1609,631,0,0
392,393,0,0,0,0,0,0,0,0,0,-1,1616,631,0,0
399,393,0,0,0,0,0,0,0,0,0,-1,1623,631,0,0
406,393,0,0,0,0,0,0,0,0,0,-1,1630,631,0,0
413,393,0,0,0,0,0,0,0,0,0,-1,1637,631,0,0
420,393,0,0,0,0,0,0,0,0,0,-1,1644,631,0,0
427,393,0,0,0,0,0,0,0,0,0,-1,1651,631,0,0
434,393,0,0,0,0,0,0,0,0,0,-1,1658,631,0,0
441,393,0,0,0,0,0,0,0,0,0,-1,1665,631,0,0
448,393,0,0,0,0,0,0,0,0,0,-1,1672,631,0,0
455,393,0,0,0,0,0,0,0,0,0,-1,1679,631,0,0
462,393,8.51099,1.89502,0,0,0,0,0,0,0,-1,1686,631,8.51103,-1.89504
469,393,9.39465,1.51703,0,0,0,0,0,0,0,-1,1693,631,9.39465,-1.51703
476,393,9.95569,1.185,0,0,0,0,0,0,0,-1,1700,631,9.95575,-1.18497
483,393,10.5267,0.887329,0,0,0,0,0,0,0,-1,1707,631,10.5267,-0.887321
490,393,10.9303,0.761414,0,0,0,0,0,0,0,-1,1714,631,10.9303,-0.761386
497,393,8.32153,1.88104,0,0,0,0,0,0,0,-1,1721,631,8.32148,-1.88103
504,393,9.46985,1.78711,0,0,0,0,0,0,0,-1,1728,631,9.46986,-1.78713
511,393,9.66565,-0.375977,0,0,0,0,0,0,0,-1,1735,631,9.66571,0.375949
518,393,7.01599,1.62482,0,0,0,0,0,0,0,-1,1742,631,7.01597,-1.62483
525,393,7.88245,-1.13422,0,0,0,0,0,0,0,-1,1749,631,7.88246,1.13423
532,393,7.06335,-1.18103,0,0,0,0,0,0,0,-1,1756,631,7.06332,1.18101
539,393,9.91626,-2.46301,0,0,0,0,0,0,0,-1,1763,631,9.91625,2.46302
546,393,11.2762,-3.92706,0,0,0,0,0,0,0,-1,1770,631,11.2762,3.92704
553,393,11.3901,-3.65906,-0.000840725,0.00451906,0.00184502,0.00509277,-0.00141443,1.26932,0.00395195,0.028828,1777,631,11.3901,3.65906
560,393,11.4132,-3.38135,-0.000894143,0.00333294,0.00119081,0.00364532,-0.00120652,1.31425,0.00291679,0.0153339,1784,631,11.4132,3.38132
567,393,11.4071,-3.05334,-0.000950473,0.00238383,0.000700436,0.002525,-0.00109164,1.37192,0.00214203,0.0137904,1791,631,11.4071,3.05331
574,393,11.4204,-2.76086,-0.000750961,0.00177025,0.000489118,0.00186182,-0.000842525,1.38574,0.00159789,0.0156267,1798,631,11.4204,2.76084
581,393,11.3765,-2.41675,-0.000385054,0.00143125,0.000505026,0.00156223,-0.000516032,1.31704,0.00124954,0.0148449,1805,631,11.3764,2.41677
588,393,11.3612,-2.09857,7.82827e-05,0.00138978,0.000728763,0.00171439,-0.000246326,1.15175,0.00123326,0.0151932,1812,631,11.3612,2.09859
595,393,11.377,-1.83539,0.000701514,0.0016271,0.00113852,0.0023933,-6.46807e-05,0.978441,0.00161752,0.0128352,1819,631,11.3769,1.83539
602,393,11.3737,-1.52679,0.00144499,0.00210608,0.00174426,0.00355084,2.30735e-07,0.87904,0.00236715,0.0150416,1826,631,11.3737,1.5268
609,393,11.3506,-1.20807,0.00197562,0.00277147,0.00234873,0.00475575,-8.65571e-06,0.869311,0.00317339,0.0154124,1833,631,11.3506,1.20807
616,393,11.3403,-0.868713,0.00210817,0.00367987,0.00286974,0.00586942,-8.1375e-05,0.919041,0.00394035,0.0151131,1840,631,11.3403,0.868717
623,393,11.3774,-0.466736,0.00228048,0.00473116,0.00345952,0.00717593,-0.000164291,0.955601,0.00483965,0.024195,1847,631,11.3774,0.466764
630,393,11.4518,-0.0114136,0,0,0,0,0,0,0,-1,1854,631,11.4518,0.0114361
637,393,11.4626,0.608887,0,0,0,0,0,0,0,-1,1861,631,11.4627,-0.608904
644,393,8.97583,1.30585,0,0,0,0,0,0,0,-1,1868,631,8.97586,-1.30584
651,393,9.58679,0.726563,0,0,0,0,0,0,0,-1,1875,631,9.58684,-0.726583
658,393,9.21338,1.50836,0,0,0,0,0,0,0,-1,1882,631,9.21338,-1.50834
665,393,6.1001,2.32129,0,0,0,0,0,0,0,-1,1889,631,6.10012,-2.3213
672,393,7.14575,2.43225,0,0,0,0,0,0,0,-1,1896,631,7.14572,-2.43222
679,393,0,0,0,0,0,0,0,0,0,-1,1903,631,0,0
686,393,0,0,0,0,0,0,0,0,0,-1,1910,631,0,0
693,393,0,0,0,0,0,0,0,0,0,-1,1917,631,0,0
700,393,0,0,0,0,0,0,0,0,0,-1,1924,631,0,0
707,393,0,0,0,0,0,0,0,0,0,-1,1931,631,0,0
714,393,0,0,0,0,0,0,0,0,0,-1,1938,631,0,0
721,393,0,0,0,0,0,0,0,0,0,-1,1945,631,0,0
728,393,0,0,0,0,0,0,0,0,0,-1,1952,631,0,0
735,393,0,0,0,0,0,0,0,0,0,-1,1959,631,0,0
742,393,0,0,0,0,0,0,0,0,0,-1,1966,631,0,0
749,393,0,0,0,0,0,0,0,0,0,-1,1973,631,0,0
756,393,0,0,0,0,0,0,0,0,0,-1,1980,631,0,0
763,393,0,0,0,0,0,0,0,0,0,-1,1987,631,0,0
770,393,0,0,0,0,0,0,0,0,0,-1,1994,631,0,0
777,393,0,0,0,0,0,0,0,0,0,-1,2001,631,0,0
784,393,0,0,0,0,0,0,0,0,0,-1,2008,631,0,0
791,393,0,0,0,0,0,0,0,0,0,-1,2015,631,0,0
798,393,0,0,0,0,0,0,0,0,0,-1,2022,631,0,0
805,393,0,0,0,0,0,0,0,0,0,-1,2029,631,0,0
812,393,0,0,0,0,0,0,0,0,0,-1,2036,631,0,0
-700,386,0,0,0,0,0,0,0,0,0,-1,524,638,0,0
-693,386,0,0,0,0,0,0,0,0,0,-1,531,638,0,0
-686,386,0,0,0,0,0,0,0,0,0,-1,538,638,0,0
-679,386,0,0,0,0,0,0,0,0,0,-1,545,638,0,0
-672,386,0,0,0,0,0,0,0,0,0,-1,552,638,0,0
-665,386,0,0,0,0,0,0,0,0,0,-1,559,638,0,0
-658,386,0,0,0,0,0,0,0,0,0,-1,566,638,0,0
-651,386,0,0,0,0,0,0,0,0,0,-1,573,638,0,0
-644,386,0,0,0,0,0,0,0,0,0,-1,580,638,0,0
-637,386,0,0,0,0,0,0,0,0,0,-1,587,638,0,0
-630,386,0,0,0,0,0,0,0,0,0,-1,594,638,0,0
-623,386,0,0,0,0,0,0,0,0,0,-1,601,638,0,0
-616,386,0,0,0,0,0,0,0,0,0,-1,608,638,0,0
-609,386,0,0,0,0,0,0,0,0,0,-1,615,638,0,0
-602,386,0,0,0,0,0,0,0,0,0,-1,622,638,0,0
-595,386,0,0,0,0,0,0,0,0,0,-1,629,638,0,0
-588,386,0,0,0,0,0,0,0,0,0,-1,636,638,0,0
-581,386,0,0,0,0,0,0,0,0,0,-1,643,638,0,0
-574,386,0,0,0,0,0,0,0,0,0,-1,650,638,0,0
-567,386,0,0,0,0,0,0,0,0,0,-1,657,638,0,0
-560,386,-3.97229,-5.13898,0,0,0,0,0,0,0,-1,664,638,-3.97232,5.13897
-553,386,-4.94244,-5.54309,0,0,0,0,0,0,0,-1,671,638,-4.94242,5.5431
-546,386,-1.78668,1.72827,0,0,0,0,0,0,0,-1,678,638,-1.78668,-1.72829
-539,386,-0.879456,-2.90009,0,0,0,0,0,0,0,-1,685,638,-0.879442,2.90008
-532,386,-4.83362,1.61053,0,0,0,0,0,0,0,-1,692,638,-4.83361,-1.61051
-525,386,-7.04608,-0.756592,0,0,0,0,0,0,0,-1,699,638,-7.0461,0.756564
-518,386,-5.5437,-1.67682,0,0,0,0,0,0,0,-1,706,638,-5.54371,1.67681
-511,386,-5.31476,-1.49341,0,0,0,0,0,0,0,-1,713,638,-5.31473,1.4934
-504,386,-5.34216,-2.03931,0.0147607,0.0030904,-0.00637572,0.0175684,0.000282698,-0.41482,0.0116192,0.0289019,720,638,-5.34218,2.03933
-497,386,-5.42303,-2.37354,0.00984759,0.00222451,-0.00431306,0.0117919,0.000280156,-0.423524,0.00776959,0.0131293,727,638,-5.42305,2.37356
-490,386,-5.39294,-2.70599,0.0064972,0.00176694,-0.00299702,0.00794992,0.000314221,-0.45135,0.00519838,0.0124958,734,638,-5.39296,2.70598
-483,386,-5.37268,-3.01801,0.00428867,0.00148683,-0.00219958,0.00549557,0.000279927,-0.501841,0.00357406,0.015721,741,638,-5.37271,3.018
-476,386,-5.37958,-3.28815,0.00289034,0.0013338,-0.00171724,0.00399743,0.000226702,-0.572637,0.00259269,0.014432,748,638,-5.37959,3.28813
-469,386,-5.41077,-3.56476,0.00164403,0.00117675,-0.00130462,0.00273577,8.50161e-05,-0.696794,0.00179618,0.0115089,755,638,-5.41077,3.56475
-462,386,-5.40143,-3.88965,0.0012922,0.00114269,-0.00135094,0.00257045,-0.000135567,-0.757757,0.00176057,0.0110136,762,638,-5.40144,3.88964
-455,386,-5.40234,-4.19666,0.00105509,0.00121757,-0.00116703,0.00230618,-3.35256e-05,-0.820149,0.00154875,0.0118533,769,638,-5.40237,4.19663
-448,386,-5.42267,-4.47607,0.000772311,0.00101453,-0.000963619,0.00186462,-7.77782e-05,-0.847912,0.0012698,0.0118853,776,638,-5.42267,4.47605
-441,386,-5.45142,-4.74347,-7.4992e-05,0.000813531,-0.000645933,0.00115323,-0.000414694,-1.08664,0.00093812,0.0123914,783,638,-5.45142,4.74348
-434,386,-5.3891,-5.06348,-0.0012575,0.000910817,-0.000366105,0.000970963,-0.00131765,-1.40797,0.00132637,0.0241987,790,638,-5.3891,5.06345
-427,386,-5.33087,-5.39087,0,0,0,0,0,0,0,-1,797,638,-5.33089,5.39089
-420,386,-5.39661,-5.6286,0,0,0,0,0,0,0,-1,804,638,-5.39658,5.62857
-413,386,-5.45691,-5.35785,0,0,0,0,0,0,0,-1,811,638,-5.45691,5.35783
-406,386,-4.51135,-4.10999,0,0,0,0,0,0,0,-1,818,638,-4.51135,4.10996
-399,386,-3.57117,-3.42126,0,0,0,0,0,0,0,-1,825,638,-3.57116,3.42129
-392,386,-4.00977,0.403625,0,0,0,0,0,0,0,-1,832,638,-4.0098,-0.403616
-385,386,-3.2406,-0.118469,0,0,0,0,0,0,0,-1,839,638,-3.24058,0.118485
-378,386,-2.55243,-1.22748,0,0,0,0,0,0,0,-1,846,638,-2.55243,1.22748
-371,386,-7.95807,-0.330261,0,0,0,0,0,0,0,-1,853,638,-7.95806,0.330284
-364,386,-8.90637,-0.665955,0,0,0,0,0,0,0,-1,860,638,-8.90635,0.665951
-357,386,-9.10364,-0.388733,0,0,0,0,0,0,0,-1,867,638,-9.10364,0.388744
-350,386,0,0,0,0,0,0,0,0,0,-1,874,638,0,0
-343,386,0,0,0,0,0,0,0,0,0,-1,881,638,0,0
-336,386,0,0,0,0,0,0,0,0,0,-1,888,638,0,0
-329,386,0,0,0,0,0,0,0,0,0,-1,895,638,0,0
-322,386,0,0,0,0,0,0,0,0,0,-1,902,638,0,0
-315,386,0,0,0,0,0,0,0,0,0,-1,909,638,0,0
-308,386,0,0,0,0,0,0,0,0,0,-1,916,638,0,0
-301,386,0,0,0,0,0,0,0,0,0,-1,923,638,0,0
-294,386,0,0,0,0,0,0,0,0,0,-1,930,638,0,0
-287,386,0,0,0,0,0,0,0,0,0,-1,937,638,0,0
-280,386,0,0,0,0,0,0,0,0,0,-1,944,638,0,0
-273,386,0,0,0,0,0,0,0,0,0,-1,951,638,0,0
-266,386,0,0,0,0,0,0,0,0,0,-1,958,638,0,0
-259,386,0,0,0,0,0,0,0,0,0,-1,965,638,0,0
-252,386,0,0,0,0,0,0,0,0,0,-1,972,638,0,0
-245,386,0,0,0,0,0,0,0,0,0,-1,979,638,0,0
-238,386,0,0,0,0,0,0,0,0,0,-1,986,638,0,0
-231,386,0,0,0,0,0,0,0,0,0,-1,993,638,0,0
-224,386,0,0,0,0,0,0,0,0,0,-1,1000,638,0,0
-217,386,0,0,0,0,0,0,0,0,0,-1,1007,638,0,0
-210,386,0,0,0,0,0,0,0,0,0,-1,1014,638,0,0
-203,386,0,0,0,0,0,0,0,0,0,-1,1021,638,0,0
-196,386,0,0,0,0,0,0,0,0,0,-1,1028,638,0,0
-189,386,0,0,0,0,0,0,0,0,0,-1,1035,638,0,0
-182,386,0,0,0,0,0,0,0,0,0,-1,1042,638,0,0
-175,386,0,0,0,0,0,0,0,0,0,-1,1049,638,0,0
-168,386,0,0,0,0,0,0,0,0,0,-1,1056,638,0,0
-161,386,0,0,0,0,0,0,0,0,0,-1,1063,638,0,0
-154,386,0,0,0,0,0,0,0,0,0,-1,1070,638,0,0
-147,386,0,0,0,0,0,0,0,0,0,-1,1077,638,0,0
-140,386,0,0,0,0,0,0,0,0,0,-1,1084,638,0,0
-133,386,0,0,0,0,0,0,0,0,0,-1,1091,638,0,0
-126,386,0,0,0,0,0,0,0,0,0,-1,1098,638,0,0
-119,386,0,0,0,0,0,0,0,0,0,-1,1105,638,0,0
-112,386,0,0,0,0,0,0,0,0,0,-1,1112,638,0,0
-105,386,0,0,0,0,0,0,0,0,0,-1,1119,638,0,0
-98,386,0,0,0,0,0,0,0,0,0,-1,1126,638,0,0
-91,386,0,0,0,0,0,0,0,0,0,-1,1133,638,0,0
-84,386,0,0,0,0,0,0,0,0,0,-1,1140,638,0,0
-77,386,0,0,0,0,0,0,0,0,0,-1,1147,638,0,0
-70,386,0,0,0,0,0,0,0,0,0,-1,1154,638,0,0
-63,386,0,0,0,0,0,0,0,0,0,-1,1161,638,0,0
-56,386,0,0,0,0,0,0,0,0,0,-1,1168,638,0,0
-49,386,0,0,0,0,0,0,0,0,0,-1,1175,638,0,0
-42,386,0,0,0,0,0,0,0,0,0,-1,1182,638,0,0
-35,386,0,0,0,0,0,0,0,0,0,-1,1189,638,0,0
-28,386,0,0,0,0,0,0,0,0,0,-1,1196,638,0,0
-21,386,0,0,0,0,0,0,0,0,0,-1,1203,638,0,0
-14,386,0,0,0,0,0,0,0,0,0,-1,1210,638,0,0
-7,386,0,0,0,0,0,0,0,0,0,-1,1217,638,0,0
0,386,0,0,0,0,0,0,0,0,0,-1,1224,638,0,0
7,386,0,0,0,0,0,0,0,0,0,-1,1231,638,0,0
14,386,0,0,0,0,0,0,0,0,0,-1,1238,638,0,0
21,386,0,0,0,0,0,0,0,0,0,-1,1245,638,0,0
28,386,0,0,0,0,0,0,0,0,0,-1,1252,638,0,0
35,386,0,0,0,0,0,0,0,0,0,-1,1259,638,0,0
42,386,0,0,0,0,0,0,0,0,0,-1,1266,638,0,0
49,386,0,0,0,0,0,0,0,0,0,-1,1273,638,0,0
56,386,0,0,0,0,0,0,0,0,0,-1,1280,638,0,0
63,386,0,0,0,0,0,0,0,0,0,-1,1287,638,0,0
70,386,0,0,0,0,0,0,0,0,0,-1,1294,638,0,0
77,386,0,0,0,0,0,0,0,0,0,-1,1301,638,0,0
84,386,0,0,0,0,0,0,0,0,0,-1,1308,638,0,0
91,386,0,0,0,0,0,0,0,0,0,-1,1315,638,0,0
98,386,0,0,0,0,0,0,0,0,0,-1,1322,638,0,0
105,386,0,0,0,0,0,0,0,0,0,-1,1329,638,0,0
112,386,0,0,0,0,0,0,0,0,0,-1,1336,638,0,0
119,386,0,0,0,0,0,0,0,0,0,-1,1343,638,0,0
126,386,0,0,0,0,0,0,0,0,0,-1,1350,638,0,0
133,386,0,0,0,0,0,0,0,0,0,-1,1357,638,0,0
140,386,0,0,0,0,0,0,0,0,0,-1,1364,638,0,0
147,386,0,0,0,0,0,0,0,0,0,-1,1371,638,0,0
154,386,0,0,0,0,0,0,0,0,0,-1,1378,638,0,0
161,386,0,0,0,0,0,0,0,0,0,-1,1385,638,0,0
168,386,0,0,0,0,0,0,0,0,0,-1,1392,638,0,0
175,386,0,0,0,0,0,0,0,0,0,-1,1399,638,0,0
182,386,0,0,0,0,0,0,0,0,0,-1,1406,638,0,0
189,386,0,0,0,0,0,0,0,0,0,-1,1413,638,0,0
196,386,0,0,0,0,0,0,0,0,0,-1,1420,638,0,0
203,386,0,0,0,0,0,0,0,0,0,-1,1427,638,0,0
210,386,0,0,0,0,0,0,0,0,0,-1,1434,638,0,0
217,386,0,0,0,0,0,0,0,0,0,-1,1441,638,0,0
224,386,0,0,0,0,0,0,0,0,0,-1,1448,638,0,0
231,386,0,0,0,0,0,0,0,0,0,-1,1455,638,0,0
238,386,0,0,0,0,0,0,0,0,0,-1,1462,638,0,0
245,386,0,0,0,0,0,0,0,0,0,-1,1469,638,0,0
252,386,0,0,0,0,0,0,0,0,0,-1,1476,638,0,0
259,386,0,0,0,0,0,0,0,0,0,-1,1483,638,0,0
266,386,0,0,0,0,0,0,0,0,0,-1,1490,638,0,0
273,386,0,0,0,0,0,0,0,0,0,-1,1497,638,0,0
280,386,0,0,0,0,0,0,0,0,0,-1,1504,638,0,0
287,386,0,0,0,0,0,0,0,0,0,-1,1511,638,0,0
294,386,0,0,0,0,0,0,0,0,0,-1,1518,638,0,0
301,386,0,0,0,0,0,0,0,0,0,-1,1525,638,0,0
308,386,0,0,0,0,0,0,0,0,0,-1,1532,638,0,0
315,386,0,0,0,0,0,0,0,0,0,-1,1539,638,0,0
322,386,0,0,0,0,0,0,0,0,0,-1,1546,638,0,0
329,386,0,0,0,0,0,0,0,0,0,-1,1553,638,0,0
336,386,0,0,0,0,0,0,0,0,0,-1,1560,638,0,0
343,386,0,0,0,0,0,0,0,0,0,-1,1567,638,0,0
350,386,0,0,0,0,0,0,0,0,0,-1,1574,638,0,0
357,386,0,0,0,0,0,0,0,0,0,-1,1581,638,0,0
364,386,0,0,0,0,0,0,0,0,0,-1,1588,638,0,0
371,386,0,0,0,0,0,0,0,0,0,-1,1595,638,0,0
378,386,0,0,0,0,0,0,0,0,0,-1,1602,638,0,0
385,386,0,0,0,0,0,0,0,0,0,-1,1609,638,0,0
392,386,0,0,0,0,0,0,0,0,0,-1,1616,638,0,0
399,386,0,0,0,0,0,0,0,0,0,-1,1623,638,0,0
406,386,0,0,0,0,0,0,0,0,0,-1,1630,638,0,0
413,386,0,0,0,0,0,0,0,0,0,-1,1637,638,0,0
420,386,0,0,0,0,0,0,0,0,0,-1,1644,638,0,0
427,386,0,0,0,0,0,0,0,0,0,-1,1651,638,0,0
434,386,0,0,0,0,0,0,0,0,0,-1,1658,638,0,0
441,386,0,0,0,0,0,0,0,0,0,-1,1665,638,0,0
448,386,0,0,0,0,0,0,0,0,0,-1,1672,638,0,0
455,386,0,0,0,0,0,0,0,0,0,-1,1679,638,0,0
462,386,0,0,0,0,0,0,0,0,0,-1,1686,638,0,0
469,386,9.84692,1.55804,0,0,0,0,0,0,0,-1,1693,638,9.84691,-1.55807
476,386,10.6145,0.986511,0,0,0,0,0,0,0,-1,1700,638,10.6145,-0.986529
483,386,11.4113,0.732971,0,0,0,0,0,0,0,-1,1707,638,11.4112,-0.732958
490,386,7.79785,1.79572,0,0,0,0,0,0,0,-1,1714,638,7.79788,-1.7957
497,386,8.96362,1.77081,0,0,0,0,0,0,0,-1,1721,638,8.96357,-1.77081
504,386,10.0555,1.69427,0,0,0,0,0,0,0,-1,1728,638,10.0555,-1.69426
511,386,11.2172,1.534,0,0,0,0,0,0,0,-1,1735,638,11.2172,-1.53398
518,386,7.41553,1.75238,0,0,0,0,0,0,0,-1,1742,638,7.41547,-1.75238
525,386,8.82422,-1.1449,0,0,0,0,0,0,0,-1,1749,638,8.82426,1.14492
532,386,10.6432,0.617371,0,0,0,0,0,0,0,-1,1756,638,10.6432,-0.617359
539,386,9.62061,-0.393616,0,0,0,0,0,0,0,-1,1763,638,9.62059,0.393634
546,386,10.7963,-2.854,0,0,0,0,0,0,0,-1,1770,638,10.7962,2.854
553,386,11.7965,-3.68542,0,0,0,0,0,0,0,-1,1777,638,11.7966,3.68543
560,386,11.7726,-3.29681,-0.00164508,0.00439061,0.0015984,0.00478777,-0.00204224,1.32725,0.00404812,0.0317143,1784,638,11.7726,3.29683
567,386,11.6647,-3.03455,-0.00160364,0.00306583,0.000893189,0.00323085,-0.00176866,1.3881,0.00292733,0.0192016,1791,638,11.6646,3.03453
574,386,11.7002,-2.73395,-0.00135762,0.002141,0.000468338,0.00220261,-0.00141922,1.44,0.00210731,0.0135182,1798,638,11.7002,2.73393
581,386,11.6934,-2.43634,-0.000907953,0.00160108,0.000357794,0.0016511,-0.000957978,1.43188,0.00152397,0.0132073,1805,638,11.6934,2.43633
588,386,11.6855,-2.13104,-0.000385871,0.00137562,0.000460304,0.00148865,-0.000498902,1.33,0.001194,0.0121677,1812,638,11.6856,2.13107
595,386,11.6755,-1.84637,0.000252586,0.00145054,0.000753236,0.00181392,-0.000110798,1.1213,0.00124786,0.0134272,1819,638,11.6756,1.84639
602,386,11.6675,-1.5224,0.0009825,0.00178018,0.0012402,0.00268409,7.85848e-05,0.940971,0.00176378,0.0153714,1826,638,11.6674,1.52239
609,386,11.6813,-1.20172,0.00143471,0.00230197,0.00170197,0.00362468,0.000111992,0.910135,0.00238,0.0149352,1833,638,11.6813,1.20173
616,386,11.6818,-0.877197,0.00147987,0.0029319,0.00199267,0.00432669,8.50772e-05,0.960096,0.00285652,0.0115695,1840,638,11.6818,0.87719
623,386,11.6622,-0.532776,0.00148372,0.00374746,0.00234148,0.00521629,1.48909e-05,1.01054,0.00347257,0.0101404,1847,638,11.6623,0.532783
630,386,11.7328,-0.204773,0.00104648,0.00447841,0.00240018,0.00571294,-0.000188049,1.09574,0.00387283,0.0240092,1854,638,11.7328,0.204773
637,386,11.696,0.191956,-0.000402229,0.00514683,0.00192395,0.00574863,-0.00100403,1.26764,0.00420722,0.0491779,1861,638,11.696,-0.191984
644,386,11.6521,0.723328,0,0,0,0,0,0,0,-1,1868,638,11.6521,-0.723355
651,386,9.3866,1.31097,0,0,0,0,0,0,0,-1,1875,638,9.3866,-1.31095
658,386,12.6449,-0.269226,0,0,0,0,0,0,0,-1,1882,638,12.6449,0.269219
665,386,6.33167,1.78601,0,0,0,0,0,0,0,-1,1889,638,6.33171,-1.78601
672,386,7.23352,2.14435,0,0,0,0,0,0,0,-1,1896,638,7.23353,-2.14433
679,386,8.07764,2.57104,0,0,0,0,0,0,0,-1,1903,638,8.07758,-2.57103
686,386,0,0,0,0,0,0,0,0,0,-1,1910,638,0,0
693,386,0,0,0,0,0,0,0,0,0,-1,1917,638,0,0
700,386,0,0,0,0,0,0,0,0,0,-1,1924,638,0,0
707,386,0,0,0,0,0,0,0,0,0,-1,1931,638,0,0
714,386,0,0,0,0,0,0,0,0,0,-1,1938,638,0,0
721,386,0,0,0,0,0,0,0,0,0,-1,1945,638,0,0
728,386,0,0,0,0,0,0,0,0,0,-1,1952,638,0,0
735,386,0,0,0,0,0,0,0,0,0,-1,1959,638,0,0
742,386,0,0,0,0,0,0,0,0,0,-1,1966,638,0,0
749,386,0,0,0,0,0,0,0,0,0,-1,1973,638,0,0
756,386,0,0,0,0,0,0,0,0,0,-1,1980,638,0,0
763,386,0,0,0,0,0,0,0,0,0,-1,1987,638,0,0
770,386,0,0,0,0,0,0,0,0,0,-1,1994,638,0,0
777,386,0,0,0,0,0,0,0,0,0,-1,2001,638,0,0
784,386,0,0,0,0,0,0,0,0,0,-1,2008,638,0,0
791,386,0,0,0,0,0,0,0,0,0,-1,2015,638,0,0
798,386,0,0,0,0,0,0,0,0,0,-1,2022,638,0,0
805,386,0,0,0,0,0,0,0,0,0,-1,2029,638,0,0
812,386,0,0,0,0,0,0,0,0,0,-1,2036,638,0,0
-700,379,0,0,0,0,0,0,0,0,0,-1,524,645,0,0
-693,379,0,0,0,0,0,0,0,0,0,-1,531,645,0,0
-686,379,0,0,0,0,0,0,0,0,0,-1,538,645,0,0
-679,379,0,0,0,0,0,0,0,0,0,-1,545,645,0,0
-672,379,0,0,0,0,0,0,0,0,0,-1,552,645,0,0
-665,379,0,0,0,0,0,0,0,0,0,-1,559,645,0,0
-658,379,0,0,0,0,0,0,0,0,0,-1,566,645,0,0
-651,379,0,0,0,0,0,0,0,0,0,-1,573,645,0,0
-644,379,0,0,0,0,0,0,0,0,0,-1,580,645,0,0
-637,379,0,0,0,0,0,0,0,0,0,-1,587,645,0,0
-630,379,0,0,0,0,0,0,0,0,0,-1,594,645,0,0
-623,379,0,0,0,0,0,0,0,0,0,-1,601,645,0,0
-616,379,0,0,0,0,0,0,0,0,0,-1,608,645,0,0
-609,379,0,0,0,0,0,0,0,0,0,-1,615,645,0,0
-602,379,0,0,0,0,0,0,0,0,0,-1,622,645,0,0
-595,379,0,0,0,0,0,0,0,0,0,-1,629,645,0,0
-588,379,0,0,0,0,0,0,0,0,0,-1,636,645,0,0
-581,379,0,0,0,0,0,0,0,0,0,-1,643,645,0,0
-574,379,0,0,0,0,0,0,0,0,0,-1,650,645,0,0
-567,379,-8.78058,0.59668,0,0,0,0,0,0,0,-1,657,645,-8.7806,-0.596692
-560,379,-9.53485,-0.211304,0,0,0,0,0,0,0,-1,664,645,-9.53487,0.211282
-553,379,-5.17108,-4.53119,0,0,0,0,0,0,0,-1,671,645,-5.17106,4.53117
-546,379,-6.23053,-4.92102,0,0,0,0,0,0,0,-1,678,645,-6.23054,4.92105
-539,379,-0.71698,-2.19427,0,0,0,0,0,0,0,-1,685,645,-0.716959,2.19427
-532,379,-7.65332,-0.536865,0,0,0,0,0,0,0,-1,692,645,-7.65335,0.536879
-525,379,-6.91882,-0.914612,0.0351428,0.0137959,-0.0173194,0.0448135,0.00412517,-0.509249,0.0286,0.0487492,699,645,-6.91885,0.914605
-518,379,-5.7948,-1.60571,0.0252902,0.00868238,-0.011796,0.0314119,0.00256059,-0.478709,0.0201421,0.0489934,706,645,-5.79481,1.60569
-511,379,-5.56659,-1.89435,0.0179271,0.0054313,-0.00795916,0.0217977,0.00156067,-0.452637,0.0140405,0.0359272,713,645,-5.56658,1.89437
-504,379,-5.64148,-2.14038,0.0123705,0.00273114,-0.00522665,0.0146605,0.000441168,-0.412943,0.00962997,0.0190221,720,645,-5.6415,2.14038
-497,379,-5.69019,-2.39355,0.00834963,0.00162079,-0.00341024,0.00977573,0.000194699,-0.39608,0.00645323,0.0107831,727,645,-5.6902,2.39357
-490,379,-5.67389,-2.6933,0.00560444,0.00116365,-0.00229311,0.00657599,0.000192103,-0.400753,0.00432138,0.01095,734,645,-5.67389,2.69327
-483,379,-5.6521,-3.00079,0.00379153,0.000954603,-0.00165696,0.00455425,0.000191882,-0.431397,0.00297427,0.0127395,741,645,-5.65211,3.00078
-476,379,-5.66992,-3.25452,0.00267531,0.0009085,-0.00134555,0.00340153,0.000182276,-0.494919,0.00220944,0.0127933,748,645,-5.6699,3.25449
-469,379,-5.69562,-3.53094,0.0017962,0.000886249,-0.00117704,0.00260314,7.93089e-05,-0.600972,0.00170961,0.0117855,755,645,-5.69563,3.53092
-462,379,-5.69751,-3.84967,0.00170104,0.000962004,-0.00140976,0.00278891,-0.00012586,-0.657224,0.00190261,0.00893883,762,645,-5.69749,3.84968
-455,379,-5.69427,-4.14948,0.00158627,0.00115736,-0.0013727,0.00276117,-1.75392e-05,-0.70791,0.00184665,0.00881514,769,645,-5.6943,4.14947
-448,379,-5.70459,-4.43951,0.00131279,0.00109017,-0.00127392,0.00248025,-7.72922e-05,-0.74182,0.00167986,0.0109836,776,645,-5.70456,4.43953
-441,379,-5.68903,-4.75134,0.000438361,0.000935053,-0.00104735,0.0017631,-0.000389683,-0.901808,0.00132454,0.0170131,783,645,-5.689,4.75134
-434,379,-5.59039,-5.16925,0,0,0,0,0,0,0,-1,790,645,-5.59041,5.16924
-427,379,-4.16113,-4.13452,0,0,0,0,0,0,0,-1,797,645,-4.16116,4.1345
-420,379,-4.63953,-3.46869,0,0,0,0,0,0,0,-1,804,645,-4.63953,3.46872
-413,379,-4.62543,-3.7912,0,0,0,0,0,0,0,-1,811,645,-4.62541,3.79123
-406,379,-4.64063,-4.38489,0,0,0,0,0,0,0,-1,818,645,-4.64065,4.3849
-399,379,-2.93536,-1.40118,0,0,0,0,0,0,0,-1,825,645,-2.93534,1.40119
-392,379,-4.16711,-0.466003,0,0,0,0,0,0,0,-1,832,645,-4.16714,0.465992
-385,379,-3.51862,0.441101,0,0,0,0,0,0,0,-1,839,645,-3.51859,-0.441072
-378,379,-5.3504,0.212219,0,0,0,0,0,0,0,-1,846,645,-5.35038,-0.212241
-371,379,-4.32092,-0.186707,0,0,0,0,0,0,0,-1,853,645,-4.3209,0.186707
-364,379,-3.40887,-0.549805,0,0,0,0,0,0,0,-1,860,645,-3.4089,0.549802
-357,379,0,0,0,0,0,0,0,0,0,-1,867,645,0,0
-350,379,0,0,0,0,0,0,0,0,0,-1,874,645,0,0
-343,379,0,0,0,0,0,0,0,0,0,-1,881,645,0,0
-336,379,0,0,0,0,0,0,0,0,0,-1,888,645,0,0
-329,379,0,0,0,0,0,0,0,0,0,-1,895,645,0,0
-322,379,0,0,0,0,0,0,0,0,0,-1,902,645,0,0
-315,379,0,0,0,0,0,0,0,0,0,-1,909,645,0,0
-308,379,0,0,0,0,0,0,0,0,0,-1,916,645,0,0
-301,379,0,0,0,0,0,0,0,0,0,-1,923,645,0,0
-294,379,0,0,0,0,0,0,0,0,0,-1,930,645,0,0
-287,379,0,0,0,0,0,0,0,0,0,-1,937,645,0,0
-280,379,0,0,0,0,0,0,0,0,0,-1,944,645,0,0
-273,379,0,0,0,0,0,0,0,0,0,-1,951,645,0,0
-266,379,0,0,0,0,0,0,0,0,0,-1,958,645,0,0
-259,379,0,0,0,0,0,0,0,0,0,-1,965,645,0,0
-252,379,0,0,0,0,0,0,0,0,0,-1,972,645,0,0
-245,379,0,0,0,0,0,0,0,0,0,-1,979,645,0,0
-238,379,0,0,0,0,0,0,0,0,0,-1,986,645,0,0
-231,379,0,0,0,0,0,0,0,0,0,-1,993,645,0,0
-224,379,0,0,0,0,0,0,0,0,0,-1,1000,645,0,0
-217,379,0,0,0,0,0,0,0,0,0,-1,1007,645,0,0
-210,379,0,0,0,0,0,0,0,0,0,-1,1014,645,0,0
-203,379,0,0,0,0,0,0,0,0,0,-1,1021,645,0,0
-196,379,0,0,0,0,0,0,0,0,0,-1,1028,645,0,0
-189,379,0,0,0,0,0,0,0,0,0,-1,1035,645,0,0
-182,379,0,0,0,0,0,0,0,0,0,-1,1042,645,0,0
-175,379,0,0,0,0,0,0,0,0,0,-1,1049,645,0,0
-168,379,0,0,0,0,0,0,0,0,0,-1,1056,645,0,0
-161,379,0,0,0,0,0,0,0,0,0,-1,1063,645,0,0
-154,379,0,0,0,0,0,0,0,0,0,-1,1070,645,0,0
-147,379,0,0,0,0,0,0,0,0,0,-1,1077,645,0,0
-140,379,0,0,0,0,0,0,0,0,0,-1,1084,645,0,0
-133,379,0,0,0,0,0,0,0,0,0,-1,1091,645,0,0
-126,379,0,0,0,0,0,0,0,0,0,-1,1098,645,0,0
-119,379,0,0,0,0,0,0,0,0,0,-1,1105,645,0,0
-112,379,0,0,0,0,0,0,0,0,0,-1,1112,645,0,0
-105,379,0,0,0,0,0,0,0,0,0,-1,1119,645,0,0
-98,379,0,0,0,0,0,0,0,0,0,-1,1126,645,0,0
-91,379,0,0,0,0,0,0,0,0,0,-1,1133,645,0,0
-84,379,0,0,0,0,0,0,0,0,0,-1,1140,645,0,0
-77,379,0,0,0,0,0,0,0,0,0,-1,1147,645,0,0
-70,379,0,0,0,0,0,0,0,0,0,-1,1154,645,0,0
-63,379,0,0,0,0,0,0,0,0,0,-1,1161,645,0,0
-56,379,0,0,0,0,0,0,0,0,0,-1,1168,645,0,0
-49,379,0,0,0,0,0,0,0,0,0,-1,1175,645,0,0
-42,379,0,0,0,0,0,0,0,0,0,-1,1182,645,0,0
-35,379,0,0,0,0,0,0,0,0,0,-1,1189,645,0,0
-28,379,0,0,0,0,0,0,0,0,0,-1,1196,645,0,0
-21,379,0,0,0,0,0,0,0,0,0,-1,1203,645,0,0
-14,379,0,0,0,0,0,0,0,0,0,-1,1210,645,0,0
-7,379,0,0,0,0,0,0,0,0,0,-1,1217,645,0,0
0,379,0,0,0,0,0,0,0,0,0,-1,1224,645,0,0
7,379,0,0,0,0,0,0,0,0,0,-1,1231,645,0,0
14,379,0,0,0,0,0,0,0,0,0,-1,1238,645,0,0
21,379,0,0,0,0,0,0,0,0,0,-1,1245,645,0,0
28,379,0,0,0,0,0,0,0,0,0,-1,1252,645,0,0
35,379,0,0,0,0,0,0,0,0,0,-1,1259,645,0,0
42,379,0,0,0,0,0,0,0,0,0,-1,1266,645,0,0
49,379,0,0,0,0,0,0,0,0,0,-1,1273,645,0,0
56,379,0,0,0,0,0,0,0,0,0,-1,1280,645,0,0
63,379,0,0,0,0,0,0,0,0,0,-1,1287,645,0,0
70,379,0,0,0,0,0,0,0,0,0,-1,1294,645,0,0
77,379,0,0,0,0,0,0,0,0,0,-1,1301,645,0,0
84,379,0,0,0,0,0,0,0,0,0,-1,1308,645,0,0
91,379,0,0,0,0,0,0,0,0,0,-1,1315,645,0,0
98,379,0,0,0,0,0,0,0,0,0,-1,1322,645,0,0
105,379,0,0,0,0,0,0,0,0,0,-1,1329,645,0,0
112,379,0,0,0,0,0,0,0,0,0,-1,1336,645,0,0
119,379,0,0,0,0,0,0,0,0,0,-1,1343,645,0,0
126,379,0,0,0,0,0,0,0,0,0,-1,1350,645,0,0
133,379,0,0,0,0,0,0,0,0,0,-1,1357,645,0,0
140,379,0,0,0,0,0,0,0,0,0,-1,1364,645,0,0
147,379,0,0,0,0,0,0,0,0,0,-1,1371,645,0,0
154,379,0,0,0,0,0,0,0,0,0,-1,1378,645,0,0
161,379,0,0,0,0,0,0,0,0,0,-1,1385,645,0,0
168,379,0,0,0,0,0,0,0,0,0,-1,1392,645,0,0
175,379,0,0,0,0,0,0,0,0,0,-1,1399,645,0,0
182,379,0,0,0,0,0,0,0,0,0,-1,1406,645,0,0
189,379,0,0,0,0,0,0,0,0,0,-1,1413,645,0,0
196,379,0,0,0,0,0,0,0,0,0,-1,1420,645,0,0
203,379,0,0,0,0,0,0,0,0,0,-1,1427,645,0,0
210,379,0,0,0,0,0,0,0,0,0,-1,1434,645,0,0
217,379,0,0,0,0,0,0,0,0,0,-1,1441,645,0,0
224,379,0,0,0,0,0,0,0,0,0,-1,1448,645,0,0
231,379,0,0,0,0,0,0,0,0,0,-1,1455,645,0,0
238,379,0,0,0,0,0,0,0,0,0,-1,1462,645,0,0
245,379,0,0,0,0,0,0,0,0,0,-1,1469,645,0,0
252,379,0,0,0,0,0,0,0,0,0,-1,1476,645,0,0
259,379,0,0,0,0,0,0,0,0,0,-1,1483,645,0,0
266,379,0,0,0,0,0,0,0,0,0,-1,1490,645,0,0
273,379,0,0,0,0,0,0,0,0,0,-1,1497,645,0,0
280,379,0,0,0,0,0,0,0,0,0,-1,1504,645,0,0
287,379,0,0,0,0,0,0,0,0,0,-1,1511,645,0,0
294,379,0,0,0,0,0,0,0,0,0,-1,1518,645,0,0
301,379,0,0,0,0,0,0,0,0,0,-1,1525,645,0,0
308,379,0,0,0,0,0,0,0,0,0,-1,1532,645,0,0
315,379,0,0,0,0,0,0,0,0,0,-1,1539,645,0,0
322,379,0,0,0,0,0,0,0,0,0,-1,1546,645,0,0
329,379,0,0,0,0,0,0,0,0,0,-1,1553,645,0,0
336,379,0,0,0,0,0,0,0,0,0,-1,1560,645,0,0
343,379,0,0,0,0,0,0,0,0,0,-1,1567,645,0,0
350,379,0,0,0,0,0,0,0,0,0,-1,1574,645,0,0
357,379,0,0,0,0,0,0,0,0,0,-1,1581,645,0,0
364,379,0,0,0,0,0,0,0,0,0,-1,1588,645,0,0
371,379,0,0,0,0,0,0,0,0,0,-1,1595,645,0,0
378,379,0,0,0,0,0,0,0,0,0,-1,1602,645,0,0
385,379,0,0,0,0,0,0,0,0,0,-1,1609,645,0,0
392,379,0,0,0,0,0,0,0,0,0,-1,1616,645,0,0
399,379,0,0,0,0,0,0,0,0,0,-1,1623,645,0,0
406,379,0,0,0,0,0,0,0,0,0,-1,1630,645,0,0
413,379,0,0,0,0,0,0,0,0,0,-1,1637,645,0,0
420,379,0,0,0,0,0,0,0,0,0,-1,1644,645,0,0
427,379,0,0,0,0,0,0,0,0,0,-1,1651,645,0,0
434,379,0,0,0,0,0,0,0,0,0,-1,1658,645,0,0
441,379,0,0,0,0,0,0,0,0,0,-1,1665,645,0,0
448,379,0,0,0,0,0,0,0,0,0,-1,1672,645,0,0
455,379,0,0,0,0,0,0,0,0,0,-1,1679,645,0,0
462,379,0,0,0,0,0,0,0,0,0,-1,1686,645,0,0
469,379,0,0,0,0,0,0,0,0,0,-1,1693,645,0,0
476,379,11.1787,0.830383,0,0,0,0,0,0,0,-1,1700,645,11.1787,-0.830365
483,379,7.4231,1.54321,0,0,0,0,0,0,0,-1,1707,645,7.42314,-1.54324
490,379,8.52881,1.56677,0,0,0,0,0,0,0,-1,1714,645,8.52878,-1.56677
497,379,9.63599,1.49573,0,0,0,0,0,0,0,-1,1721,645,9.63604,-1.4957
504,379,10.0833,1.35229,0,0,0,0,0,0,0,-1,1728,645,10.0832,-1.35227
511,379,8.14343,1.59912,0,0,0,0,0,0,0,-1,1735,645,8.14347,-1.59912
518,379,12.7955,-0.324097,0,0,0,0,0,0,0,-1,1742,645,12.7955,0.324101
525,379,6.03711,1.10352,0,0,0,0,0,0,0,-1,1749,645,6.03711,-1.10351
532,379,8.70947,0.887817,0,0,0,0,0,0,0,-1,1756,645,8.70953,-0.887808
539,379,9.87097,0.111389,0,0,0,0,0,0,0,-1,1763,645,9.87095,-0.111395
546,379,8.42383,-0.730652,0,0,0,0,0,0,0,-1,1770,645,8.42378,0.730638
553,379,12.3052,-3.71326,0,0,0,0,0,0,0,-1,1777,645,12.3051,3.71325
560,379,12.1378,-3.30298,-0.0026044,0.00571161,0.00211966,0.00622072,-0.00311351,1.33508,0.00548775,0.0387962,1784,645,12.1378,3.30299
567,379,11.916,-3.00372,-0.0023745,0.00392286,0.00116955,0.00413305,-0.0025847,1.39297,0.00391268,0.0232798,1791,645,11.9161,3.00372
574,379,12.0208,-2.7262,-0.00200569,0.00262392,0.000522739,0.00268221,-0.00206397,1.45975,0.00274795,0.0134757,1798,645,12.0207,2.72621
581,379,12.0262,-2.41742,-0.00139684,0.00186159,0.000302879,0.00188951,-0.00142475,1.47889,0.00191975,0.014706,1805,645,12.0262,2.41741
588,379,12.0173,-2.10443,-0.000763946,0.00143034,0.000297675,0.00147,-0.000803611,1.43833,0.00133133,0.0167253,1812,645,12.0174,2.10445
595,379,11.998,-1.80688,-8.41036e-05,0.0013283,0.00048717,0.00148004,-0.000235838,1.26886,0.00107397,0.0149203,1819,645,11.998,1.80687
602,379,11.9847,-1.51801,0.000641302,0.00150604,0.000862931,0.00203886,0.00010848,1.01764,0.00132456,0.0152498,1826,645,11.9847,1.518
609,379,11.9771,-1.22198,0.00102888,0.00188004,0.00119667,0.00272455,0.000184367,0.956241,0.00175814,0.0152761,1833,645,11.977,1.22196
616,379,11.9833,-0.896667,0.00100141,0.00223894,0.00128564,0.00304697,0.000193384,1.00968,0.00197002,0.0123829,1840,645,11.9833,0.896642
623,379,12.004,-0.534119,0.000832863,0.00282986,0.00142522,0.00357154,9.11751e-05,1.09096,0.00235123,0.0116395,1847,645,12.0041,0.53413
630,379,11.9966,-0.234741,0.000142065,0.00328838,0.00126544,0.00373417,-0.000303731,1.23209,0.00259662,0.0133898,1854,645,11.9966,0.234762
637,379,12.0077,0.115295,-0.00144301,0.0035909,0.000565464,0.00365364,-0.00150574,1.4603,0.00306361,0.0211834,1861,645,12.0078,-0.115266
644,379,11.9805,0.570435,-0.00389986,0.0036759,-0.000625762,0.00372724,-0.0039512,-1.48894,0.00443378,0.0357483,1868,645,11.9804,-0.570421
651,379,12.2826,1.03802,0,0,0,0,0,0,0,-1,1875,645,12.2826,-1.03803
658,379,11.9396,0.0965576,0,0,0,0,0,0,0,-1,1882,645,11.9396,-0.0965502
665,379,12.1384,0.0682373,0,0,0,0,0,0,0,-1,1889,645,12.1384,-0.0682143
672,379,7.57605,2.15326,0,0,0,0,0,0,0,-1,1896,645,7.57599,-2.15326
679,379,8.55078,2.50409,0,0,0,0,0,0,0,-1,1903,645,8.55073,-2.50406
686,379,0,0,0,0,0,0,0,0,0,-1,1910,645,0,0
693,379,0,0,0,0,0,0,0,0,0,-1,1917,645,0,0
700,379,0,0,0,0,0,0,0,0,0,-1,1924,645,0,0
707,379,0,0,0,0,0,0,0,0,0,-1,1931,645,0,0
714,379,0,0,0,0,0,0,0,0,0,-1,1938,645,0,0
721,379,0,0,0,0,0,0,0,0,0,-1,1945,645,0,0
728,379,0,0,0,0,0,0,0,0,0,-1,1952,645,0,0
735,379,0,0,0,0,0,0,0,0,0,-1,1959,645,0,0
742,379,0,0,0,0,0,0,0,0,0,-1,1966,645,0,0
749,379,0,0,0,0,0,0,0,0,0,-1,1973,645,0,0
756,379,0,0,0,0,0,0,0,0,0,-1,1980,645,0,0
763,379,0,0,0,0,0,0,0,0,0,-1,1987,645,0,0
770,379,0,0,0,0,0,0,0,0,0,-1,1994,645,0,0
777,379,0,0,0,0,0,0,0,0,0,-1,2001,645,0,0
784,379,0,0,0,0,0,0,0,0,0,-1,2008,645,0,0
791,379,0,0,0,0,0,0,0,0,0,-1,2015,645,0,0
798,379,0,0,0,0,0,0,0,0,0,-1,2022,645,0,0
805,379,0,0,0,0,0,0,0,0,0,-1,2029,645,0,0
812,379,0,0,0,0,0,0,0,0,0,-1,2036,645,0,0
-700,372,0,0,0,0,0,0,0,0,0,-1,524,652,0,0
-693,372,0,0,0,0,0,0,0,0,0,-1,531,652,0,0
-686,372,0,0,0,0,0,0,0,0,0,-1,538,652,0,0
-679,372,0,0,0,0,0,0,0,0,0,-1,545,652,0,0
-672,372,0,0,0,0,0,0,0,0,0,-1,552,652,0,0
-665,372,0,0,0,0,0,0,0,0,0,-1,559,652,0,0
-658,372,0,0,0,0,0,0,0,0,0,-1,566,652,0,0
-651,372,0,0,0,0,0,0,0,0,0,-1,573,652,0,0
-644,372,0,0,0,0,0,0,0,0,0,-1,580,652,0,0
-637,372,0,0,0,0,0,0,0,0,0,-1,587,652,0,0
-630,372,0,0,0,0,0,0,0,0,0,-1,594,652,0,0
-623,372,0,0,0,0,0,0,0,0,0,-1,601,652,0,0
-616,372,0,0,0,0,0,0,0,0,0,-1,608,652,0,0
-609,372,0,0,0,0,0,0,0,0,0,-1,615,652,0,0
-602,372,0,0,0,0,0,0,0,0,0,-1,622,652,0,0
-595,372,0,0,0,0,0,0,0,0,0,-1,629,652,0,0
-588,372,0,0,0,0,0,0,0,0,0,-1,636,652,0,0
-581,372,0,0,0,0,0,0,0,0,0,-1,643,652,0,0
-574,372,0,0,0,0,0,0,0,0,0,-1,650,652,0,0
-567,372,-7.93744,0.73407,0,0,0,0,0,0,0,-1,657,652,-7.93741,-0.734076
-560,372,-8.78552,-0.158203,0,0,0,0,0,0,0,-1,664,652,-8.78552,0.158216
-553,372,-7.95551,1.61694,0,0,0,0,0,0,0,-1,671,652,-7.95552,-1.61697
-546,372,-4.2403,-3.75372,0,0,0,0,0,0,0,-1,678,652,-4.24028,3.75369
-539,372,-6.12787,1.69818,0,0,0,0,0,0,0,-1,685,652,-6.12788,-1.69816
-532,372,-7.36914,-0.644287,0,0,0,0,0,0,0,-1,692,652,-7.36914,0.644269
-525,372,-6.7016,-1.02698,0.0274353,0.0140398,-0.0143622,0.0365847,0.00489039,-0.567216,0.0229342,0.0459167,699,652,-6.70161,1.02698
-518,372,-6.04443,-1.50305,0.0201414,0.00874071,-0.00984827,0.0258201,0.00306203,-0.523049,0.0162889,0.0331432,706,652,-6.04445,1.50306
-511,372,-5.95953,-1.83252,0.0145402,0.00532984,-0.00665159,0.0180252,0.00184481,-0.482615,0.0114515,0.0214454,713,652,-5.95952,1.83251
-504,372,-5.98486,-2.0918,0.0101939,0.00241527,-0.0043247,0.012121,0.000488254,-0.419176,0.0079229,0.0124112,720,652,-5.98484,2.09181
-497,372,-5.96893,-2.40338,0.00700253,0.00120502,-0.0027877,0.00812548,8.20775e-05,-0.382936,0.00538983,0.0111208,727,652,-5.96893,2.40337
-490,372,-5.96191,-2.67877,0.00482793,0.000771641,-0.00188623,0.00556949,3.00845e-05,-0.37458,0.003703,0.0119009,734,652,-5.96189,2.67874
-483,372,-5.97083,-2.95972,0.00339907,0.000621915,-0.00141209,0.00399094,3.00505e-05,-0.396897,0.00265066,0.0126228,741,652,-5.97083,2.95974
-476,372,-5.97137,-3.23126,0.00256531,0.000666719,-0.00126593,0.00319833,3.36895e-05,-0.463687,0.00212108,0.0136755,748,652,-5.97136,3.23127
-469,372,-5.98712,-3.51556,0.00210714,0.000773556,-0.00134841,0.00294461,-6.39156e-05,-0.555777,0.00198472,0.0109217,755,652,-5.98712,3.51559
-462,372,-5.98254,-3.83582,0.00230927,0.000950366,-0.00174319,0.00350075,-0.00024111,-0.599567,0.00241821,0.00942573,762,652,-5.98252,3.83584
-455,372,-5.98029,-4.11768,0.00234108,0.00126012,-0.00183778,0.00371621,-0.000115012,-0.642384,0.00251669,0.00966985,769,652,-5.98031,4.11768
-448,372,-5.9812,-4.41809,0.00208751,0.00135252,-0.0018207,0.00357744,-0.000137402,-0.685815,0.00243205,0.0111813,776,652,-5.98118,4.41812
-441,372,-5.87537,-4.87341,0.00121901,0.00127955,-0.00167496,0.00292452,-0.000425953,-0.794434,0.00210607,0.0356533,783,652,-5.87534,4.87342
-434,372,-5.86548,-5.41431,0,0,0,0,0,0,0,-1,790,652,-5.8655,5.41433
-427,372,-4.54248,-3.56268,0,0,0,0,0,0,0,-1,797,652,-4.54247,3.56266
-420,372,-4.66168,-2.93597,0,0,0,0,0,0,0,-1,804,652,-4.66166,2.93599
-413,372,-4.74762,-3.29541,0,0,0,0,0,0,0,-1,811,652,-4.74763,3.29542
-406,372,-0.885437,-0.583923,0,0,0,0,0,0,0,-1,818,652,-0.885437,0.5839
-399,372,-3.97357,-0.825012,0,0,0,0,0,0,0,-1,825,652,-3.97359,0.825037
-392,372,-7.64337,0.173035,0,0,0,0,0,0,0,-1,832,652,-7.64337,-0.173019
-385,372,-6.48871,-0.0271606,0,0,0,0,0,0,0,-1,839,652,-6.48874,0.0271353
-378,372,-5.33044,-0.242432,0,0,0,0,0,0,0,-1,846,652,-5.33042,0.242457
-371,372,-4.40802,-0.495667,0,0,0,0,0,0,0,-1,853,652,-4.40802,0.495661
-364,372,0,0,0,0,0,0,0,0,0,-1,860,652,0,0
-357,372,0,0,0,0,0,0,0,0,0,-1,867,652,0,0
-350,372,0,0,0,0,0,0,0,0,0,-1,874,652,0,0
-343,372,0,0,0,0,0,0,0,0,0,-1,881,652,0,0
-336,372,0,0,0,0,0,0,0,0,0,-1,888,652,0,0
-329,372,0,0,0,0,0,0,0,0,0,-1,895,652,0,0
-322,372,0,0,0,0,0,0,0,0,0,-1,902,652,0,0
-315,372,0,0,0,0,0,0,0,0,0,-1,909,652,0,0
-308,372,0,0,0,0,0,0,0,0,0,-1,916,652,0,0
-301,372,0,0,0,0,0,0,0,0,0,-1,923,652,0,0
-294,372,0,0,0,0,0,0,0,0,0,-1,930,652,0,0
-287,372,0,0,0,0,0,0,0,0,0,-1,937,652,0,0
-280,372,0,0,0,0,0,0,0,0,0,-1,944,652,0,0
-273,372,0,0,0,0,0,0,0,0,0,-1,951,652,0,0
-266,372,0,0,0,0,0,0,0,0,0,-1,958,652,0,0
-259,372,0,0,0,0,0,0,0,0,0,-1,965,652,0,0
-252,372,0,0,0,0,0,0,0,0,0,-1,972,652,0,0
-245,372,0,0,0,0,0,0,0,0,0,-1,979,652,0,0
-238,372,0,0,0,0,0,0,0,0,0,-1,986,652,0,0
-231,372,0,0,0,0,0,0,0,0,0,-1,993,652,0,0
-224,372,0,0,0,0,0,0,0,0,0,-1,1000,652,0,0
-217,372,0,0,0,0,0,0,0,0,0,-1,1007,652,0,0
-210,372,0,0,0,0,0,0,0,0,0,-1,1014,652,0,0
-203,372,0,0,0,0,0,0,0,0,0,-1,1021,652,0,0
-196,372,0,0,0,0,0,0,0,0,0,-1,1028,652,0,0
-189,372,0,0,0,0,0,0,0,0,0,-1,1035,652,0,0
-182,372,0,0,0,0,0,0,0,0,0,-1,1042,652,0,0
-175,372,0,0,0,0,0,0,0,0,0,-1,1049,652,0,0
-168,372,0,0,0,0,0,0,0,0,0,-1,1056,652,0,0
-161,372,0,0,0,0,0,0,0,0,0,-1,1063,652,0,0
-154,372,0,0,0,0,0,0,0,0,0,-1,1070,652,0,0
-147,372,0,0,0,0,0,0,0,0,0,-1,1077,652,0,0
-140,372,0,0,0,0,0,0,0,0,0,-1,1084,652,0,0
-133,372,0,0,0,0,0,0,0,0,0,-1,1091,652,0,0
-126,372,0,0,0,0,0,0,0,0,0,-1,1098,652,0,0
-119,372,0,0,0,0,0,0,0,0,0,-1,1105,652,0,0
-112,372,0,0,0,0,0,0,0,0,0,-1,1112,652,0,0
-105,372,0,0,0,0,0,0,0,0,0,-1,1119,652,0,0
-98,372,0,0,0,0,0,0,0,0,0,-1,1126,652,0,0
-91,372,0,0,0,0,0,0,0,0,0,-1,1133,652,0,0
-84,372,0,0,0,0,0,0,0,0,0,-1,1140,652,0,0
-77,372,0,0,0,0,0,0,0,0,0,-1,1147,652,0,0
-70,372,0,0,0,0,0,0,0,0,0,-1,1154,652,0,0
-63,372,0,0,0,0,0,0,0,0,0,-1,1161,652,0,0
-56,372,0,0,0,0,0,0,0,0,0,-1,1168,652,0,0
-49,372,0,0,0,0,0,0,0,0,0,-1,1175,652,0,0
-42,372,0,0,0,0,0,0,0,0,0,-1,1182,652,0,0
-35,372,0,0,0,0,0,0,0,0,0,-1,1189,652,0,0
-28,372,0,0,0,0,0,0,0,0,0,-1,1196,652,0,0
-21,372,0,0,0,0,0,0,0,0,0,-1,1203,652,0,0
-14,372,0,0,0,0,0,0,0,0,0,-1,1210,652,0,0
-7,372,0,0,0,0,0,0,0,0,0,-1,1217,652,0,0
0,372,0,0,0,0,0,0,0,0,0,-1,1224,652,0,0
7,372,0,0,0,0,0,0,0,0,0,-1,1231,652,0,0
14,372,0,0,0,0,0,0,0,0,0,-1,1238,652,0,0
21,372,0,0,0,0,0,0,0,0,0,-1,1245,652,0,0
28,372,0,0,0,0,0,0,0,0,0,-1,1252,652,0,0
35,372,0,0,0,0,0,0,0,0,0,-1,1259,652,0,0
42,372,0,0,0,0,0,0,0,0,0,-1,1266,652,0,0
49,372,0,0,0,0,0,0,0,0,0,-1,1273,652,0,0
56,372,0,0,0,0,0,0,0,0,0,-1,1280,652,0,0
63,372,0,0,0,0,0,0,0,0,0,-1,1287,652,0,0
70,372,0,0,0,0,0,0,0,0,0,-1,1294,652,0,0
77,372,0,0,0,0,0,0,0,0,0,-1,1301,652,0,0
84,372,0,0,0,0,0,0,0,0,0,-1,1308,652,0,0
91,372,0,0,0,0,0,0,0,0,0,-1,1315,652,0,0
98,372,0,0,0,0,0,0,0,0,0,-1,1322,652,0,0
105,372,0,0,0,0,0,0,0,0,0,-1,1329,652,0,0
112,372,0,0,0,0,0,0,0,0,0,-1,1336,652,0,0
119,372,0,0,0,0,0,0,0,0,0,-1,1343,652,0,0
126,372,0,0,0,0,0,0,0,0,0,-1,1350,652,0,0
133,372,0,0,0,0,0,0,0,0,0,-1,1357,652,0,0
140,372,0,0,0,0,0,0,0,0,0,-1,1364,652,0,0
147,372,0,0,0,0,0,0,0,0,0,-1,1371,652,0,0
154,372,0,0,0,0,0,0,0,0,0,-1,1378,652,0,0
161,372,0,0,0,0,0,0,0,0,0,-1,1385,652,0,0
168,372,0,0,0,0,0,0,0,0,0,-1,1392,652,0,0
175,372,0,0,0,0,0,0,0,0,0,-1,1399,652,0,0
182,372,0,0,0,0,0,0,0,0,0,-1,1406,652,0,0
189,372,0,0,0,0,0,0,0,0,0,-1,1413,652,0,0
196,372,0,0,0,0,0,0,0,0,0,-1,1420,652,0,0
203,372,0,0,0,0,0,0,0,0,0,-1,1427,652,0,0
210,372,0,0,0,0,0,0,0,0,0,-1,1434,652,0,0
217,372,0,0,0,0,0,0,0,0,0,-1,1441,652,0,0
224,372,0,0,0,0,0,0,0,0,0,-1,1448,652,0,0
231,372,0,0,0,0,0,0,0,0,0,-1,1455,652,0,0
238,372,0,0,0,0,0,0,0,0,0,-1,1462,652,0,0
245,372,0,0,0,0,0,0,0,0,0,-1,1469,652,0,0
252,372,0,0,0,0,0,0,0,0,0,-1,1476,652,0,0
259,372,0,0,0,0,0,0,0,0,0,-1,1483,652,0,0
266,372,0,0,0,0,0,0,0,0,0,-1,1490,652,0,0
273,372,0,0,0,0,0,0,0,0,0,-1,1497,652,0,0
280,372,0,0,0,0,0,0,0,0,0,-1,1504,652,0,0
287,372,0,0,0,0,0,0,0,0,0,-1,1511,652,0,0
294,372,0,0,0,0,0,0,0,0,0,-1,1518,652,0,0
301,372,0,0,0,0,0,0,0,0,0,-1,1525,652,0,0
308,372,0,0,0,0,0,0,0,0,0,-1,1532,652,0,0
315,372,0,0,0,0,0,0,0,0,0,-1,1539,652,0,0
322,372,0,0,0,0,0,0,0,0,0,-1,1546,652,0,0
329,372,0,0,0,0,0,0,0,0,0,-1,1553,652,0,0
336,372,0,0,0,0,0,0,0,0,0,-1,1560,652,0,0
343,372,0,0,0,0,0,0,0,0,0,-1,1567,652,0,0
350,372,0,0,0,0,0,0,0,0,0,-1,1574,652,0,0
357,372,0,0,0,0,0,0,0,0,0,-1,1581,652,0,0
364,372,0,0,0,0,0,0,0,0,0,-1,1588,652,0,0
371,372,0,0,0,0,0,0,0,0,0,-1,1595,652,0,0
378,372,0,0,0,0,0,0,0,0,0,-1,1602,652,0,0
385,372,0,0,0,0,0,0,0,0,0,-1,1609,652,0,0
392,372,0,0,0,0,0,0,0,0,0,-1,1616,652,0,0
399,372,0,0,0,0,0,0,0,0,0,-1,1623,652,0,0
406,372,0,0,0,0,0,0,0,0,0,-1,1630,652,0,0
413,372,0,0,0,0,0,0,0,0,0,-1,1637,652,0,0
420,372,0,0,0,0,0,0,0,0,0,-1,1644,652,0,0
427,372,0,0,0,0,0,0,0,0,0,-1,1651,652,0,0
434,372,0,0,0,0,0,0,0,0,0,-1,1658,652,0,0
441,372,0,0,0,0,0,0,0,0,0,-1,1665,652,0,0
448,372,0,0,0,0,0,0,0,0,0,-1,1672,652,0,0
455,372,0,0,0,0,0,0,0,0,0,-1,1679,652,0,0
462,372,0,0,0,0,0,0,0,0,0,-1,1686,652,0,0
469,372,0,0,0,0,0,0,0,0,0,-1,1693,652,0,0
476,372,0,0,0,0,0,0,0,0,0,-1,1700,652,0,0
483,372,8.74182,1.53125,0,0,0,0,0,0,0,-1,1707,652,8.74186,-1.53126
490,372,9.78455,1.67096,0,0,0,0,0,0,0,-1,1714,652,9.7846,-1.67093
497,372,9.97644,1.46069,0,0,0,0,0,0,0,-1,1721,652,9.97647,-1.46071
504,372,10.1216,1.28375,0,0,0,0,0,0,0,-1,1728,652,10.1216,-1.28376
511,372,11.7367,-0.0272217,0,0,0,0,0,0,0,-1,1735,652,11.7367,0.0272326
518,372,12.0657,-0.0995483,0,0,0,0,0,0,0,-1,1742,652,12.0657,0.0995285
525,372,12.3947,-0.171814,0,0,0,0,0,0,0,-1,1749,652,12.3946,0.171824
532,372,9.36597,1.72034,0,0,0,0,0,0,0,-1,1756,652,9.36597,-1.72036
539,372,7.82886,-0.0865479,0,0,0,0,0,0,0,-1,1763,652,7.82882,0.0865771
546,372,10.953,-0.187195,0,0,0,0,0,0,0,-1,1770,652,10.953,0.187181
553,372,12.2412,-4.30444,0,0,0,0,0,0,0,-1,1777,652,12.2412,4.30445
560,372,12.3289,-3.65338,-0.00396666,0.00711795,0.0025313,0.00766864,-0.00451736,1.35658,0.00711357,0.0458212,1784,652,12.3289,3.65336
567,372,12.2892,-3.04626,-0.00341233,0.00478535,0.00135205,0.00500258,-0.00362957,1.41149,0.00500474,0.0265594,1791,652,12.2892,3.04626
574,372,12.3652,-2.69965,-0.00284739,0.00306696,0.000498987,0.00310877,-0.0028892,1.48721,0.0034637,0.0182011,1798,652,12.3652,2.69963
581,372,12.3398,-2.41797,-0.00201753,0.0020835,0.000207068,0.00209393,-0.00202796,1.52048,0.00237987,0.0160138,1805,652,12.3398,2.41798
588,372,12.3291,-2.09998,-0.00123842,0.0014494,0.000122421,0.00145496,-0.00124399,1.52538,0.00155983,0.0158964,1812,652,12.3291,2.09996
595,372,12.3162,-1.78851,-0.000496877,0.00117308,0.000235151,0.00120556,-0.000529357,1.43354,0.0010267,0.0145289,1819,652,12.3161,1.78851
602,372,12.3264,-1.50415,0.000240026,0.00121947,0.00052892,0.00145057,8.92644e-06,1.15887,0.000964087,0.0147382,1826,652,12.3264,1.50417
609,372,12.2893,-1.20789,0.000619213,0.001469,0.000782371,0.00193441,0.000153802,1.03416,0.00124152,0.0147914,1833,652,12.2894,1.20789
616,372,12.3062,-0.869751,0.000596506,0.00160901,0.000739875,0.00199925,0.000206261,1.08543,0.00126968,0.014007,1840,652,12.3061,0.869775
623,372,12.318,-0.530945,0.000340512,0.00203042,0.000740498,0.00230898,6.19515e-05,1.21099,0.00151909,0.0119382,1847,652,12.318,0.530927
630,372,12.2946,-0.215942,-0.000483951,0.00229602,0.000437081,0.00236312,-0.000551051,1.41847,0.00178763,0.0156612,1854,652,12.2945,0.21592
637,372,12.3052,0.0688477,-0.0020834,0.00235146,-0.000386992,0.00238497,-0.00211692,-1.48441,0.0026007,0.0192353,1861,652,12.3052,-0.0688315
644,372,12.3903,0.466003,-0.00447912,0.00216626,-0.00168457,0.00256889,-0.00488175,-1.33618,0.00437017,0.0244599,1868,652,12.3903,-0.465994
651,372,12.4641,0.259583,0,0,0,0,0,0,0,-1,1875,652,12.4642,-0.259587
658,372,12.0502,0.254883,0,0,0,0,0,0,0,-1,1882,652,12.0502,-0.254896
665,372,11.6364,0.250183,0,0,0,0,0,0,0,-1,1889,652,11.6363,-0.250204
672,372,9.34106,1.48444,0,0,0,0,0,0,0,-1,1896,652,9.34109,-1.48444
679,372,10.7308,2.32391,0,0,0,0,0,0,0,-1,1903,652,10.7309,-2.3239
686,372,11.6295,2.52997,0,0,0,0,0,0,0,-1,1910,652,11.6296,-2.52996
693,372,0,0,0,0,0,0,0,0,0,-1,1917,652,0,0
700,372,0,0,0,0,0,0,0,0,0,-1,1924,652,0,0
707,372,0,0,0,0,0,0,0,0,0,-1,1931,652,0,0
714,372,0,0,0,0,0,0,0,0,0,-1,1938,652,0,0
721,372,0,0,0,0,0,0,0,0,0,-1,1945,652,0,0
728,372,0,0,0,0,0,0,0,0,0,-1,1952,652,0,0
735,372,0,0,0,0,0,0,0,0,0,-1,1959,652,0,0
742,372,0,0,0,0,0,0,0,0,0,-1,1966,652,0,0
749,372,0,0,0,0,0,0,0,0,0,-1,1973,652,0,0
756,372,0,0,0,0,0,0,0,0,0,-1,1980,652,0,0
763,372,0,0,0,0,0,0,0,0,0,-1,1987,652,0,0
770,372,0,0,0,0,0,0,0,0,0,-1,1994,652,0,0
777,372,0,0,0,0,0,0,0,0,0,-1,2001,652,0,0
784,372,0,0,0,0,0,0,0,0,0,-1,2008,652,0,0
791,372,0,0,0,0,0,0,0,0,0,-1,2015,652,0,0
798,372,0,0,0,0,0,0,0,0,0,-1,2022,652,0,0
805,372,0,0,0,0,0,0,0,0,0,-1,2029,652,0,0
812,372,0,0,0,0,0,0,0,0,0,-1,2036,652,0,0
-700,365,0,0,0,0,0,0,0,0,0,-1,524,659,0,0
-693,365,0,0,0,0,0,0,0,0,0,-1,531,659,0,0
-686,365,0,0,0,0,0,0,0,0,0,-1,538,659,0,0
-679,365,0,0,0,0,0,0,0,0,0,-1,545,659,0,0
-672,365,0,0,0,0,0,0,0,0,0,-1,552,659,0,0
-665,365,0,0,0,0,0,0,0,0,0,-1,559,659,0,0
-658,365,0,0,0,0,0,0,0,0,0,-1,566,659,0,0
-651,365,0,0,0,0,0,0,0,0,0,-1,573,659,0,0
-644,365,0,0,0,0,0,0,0,0,0,-1,580,659,0,0
-637,365,0,0,0,0,0,0,0,0,0,-1,587,659,0,0
-630,365,0,0,0,0,0,0,0,0,0,-1,594,659,0,0
-623,365,0,0,0,0,0,0,0,0,0,-1,601,659,0,0
-616,365,0,0,0,0,0,0,0,0,0,-1,608,659,0,0
-609,365,0,0,0,0,0,0,0,0,0,-1,615,659,0,0
-602,365,0,0,0,0,0,0,0,0,0,-1,622,659,0,0
-595,365,0,0,0,0,0,0,0,0,0,-1,629,659,0,0
-588,365,0,0,0,0,0,0,0,0,0,-1,636,659,0,0
-581,365,0,0,0,0,0,0,0,0,0,-1,643,659,0,0
-574,365,-6.86823,1.67981,0,0,0,0,0,0,0,-1,650,659,-6.8682,-1.67982
-567,365,-7.18616,0.927856,0,0,0,0,0,0,0,-1,657,659,-7.18616,-0.927844
-560,365,-7.17767,0.275757,0,0,0,0,0,0,0,-1,664,659,-7.17768,-0.27577
-553,365,-6.84509,0.0856323,0,0,0,0,0,0,0,-1,671,659,-6.8451,-0.085632
-546,365,-6.72443,-0.223755,0,0,0,0,0,0,0,-1,678,659,-6.7244,0.223756
-539,365,-6.69537,-1.20728,0,0,0,0,0,0,0,-1,685,659,-6.6954,1.20729
-532,365,-6.5293,-0.68457,0,0,0,0,0,0,0,-1,692,659,-6.52927,0.684564
-525,365,-6.27209,-1.09027,0,0,0,0,0,0,0,-1,699,659,-6.27209,1.09026
-518,365,-6.26465,-1.46216,0,0,0,0,0,0,0,-1,706,659,-6.26463,1.46218
-511,365,-6.26898,-1.79523,0.0110719,0.00496678,-0.00517816,0.0140303,0.0020084,-0.519064,0.00876114,0.0214927,713,659,-6.26898,1.7952
-504,365,-6.27081,-2.08929,0.00777357,0.00193835,-0.00323221,0.00921023,0.000501691,-0.418255,0.00597994,0.011422,720,659,-6.27079,2.08931
-497,365,-6.26831,-2.39172,0.00538605,0.000702183,-0.00199423,0.00612009,-3.18559e-05,-0.352691,0.00409072,0.0123926,727,659,-6.2683,2.39175
-490,365,-6.26544,-2.67603,0.00381485,0.000325955,-0.00135032,0.00427641,-0.000135606,-0.329365,0.0028972,0.0134216,734,659,-6.26545,2.67602
-483,365,-6.28943,-2.95508,0.00285567,0.000276828,-0.00111137,0.00326853,-0.00013603,-0.355686,0.00222575,0.0123912,741,659,-6.28944,2.95506
-476,365,-6.26111,-3.24524,0.00243236,0.000463298,-0.00122864,0.00302227,-0.000126612,-0.447627,0.00205835,0.0128446,748,659,-6.26111,3.24526
-469,365,-6.26349,-3.54816,0.00258778,0.000765846,-0.00168686,0.00359394,-0.000240307,-0.537816,0.00247994,0.0130532,755,659,-6.26347,3.54817
-462,365,-6.26324,-3.84576,0.00331477,0.00112147,-0.00237136,0.00483078,-0.000394535,-0.568816,0.00335976,0.0140441,762,659,-6.26327,3.84578
-455,365,-6.27228,-4.11896,0.00371646,0.00162455,-0.00274637,0.00560931,-0.000268305,-0.603453,0.00383211,0.0155143,769,659,-6.27231,4.11896
-448,365,-6.21283,-4.48383,0.00371346,0.0020094,-0.00297541,0.00595643,-0.00023357,-0.645952,0.00405106,0.0237691,776,659,-6.2128,4.48381
-441,365,-6.0564,-4.94537,0,0,0,0,0,0,0,-1,783,659,-6.05638,4.94536
-434,365,-5.45056,-3.98041,0,0,0,0,0,0,0,-1,790,659,-5.45055,3.98042
-427,365,-5.05377,-4.74689,0,0,0,0,0,0,0,-1,797,659,-5.05376,4.7469
-420,365,-4.58813,-3.16376,0,0,0,0,0,0,0,-1,804,659,-4.58816,3.16374
-413,365,0.141357,0.672729,0,0,0,0,0,0,0,-1,811,659,0.141365,-0.672714
-406,365,-1.75067,-0.934448,0,0,0,0,0,0,0,-1,818,659,-1.7507,0.934424
-399,365,-4.10242,-1.25439,0,0,0,0,0,0,0,-1,825,659,-4.10244,1.25438
-392,365,-7.46545,-0.779724,0,0,0,0,0,0,0,-1,832,659,-7.46543,0.779744
-385,365,-6.27875,-0.887573,0,0,0,0,0,0,0,-1,839,659,-6.27874,0.887545
-378,365,-5.34503,-0.263306,0,0,0,0,0,0,0,-1,846,659,-5.34504,0.263275
-371,365,0,0,0,0,0,0,0,0,0,-1,853,659,0,0
-364,365,0,0,0,0,0,0,0,0,0,-1,860,659,0,0
-357,365,0,0,0,0,0,0,0,0,0,-1,867,659,0,0
-350,365,0,0,0,0,0,0,0,0,0,-1,874,659,0,0
-343,365,0,0,0,0,0,0,0,0,0,-1,881,659,0,0
-336,365,0,0,0,0,0,0,0,0,0,-1,888,659,0,0
-329,365,0,0,0,0,0,0,0,0,0,-1,895,659,0,0
-322,365,0,0,0,0,0,0,0,0,0,-1,902,659,0,0
-315,365,0,0,0,0,0,0,0,0,0,-1,909,659,0,0
-308,365,0,0,0,0,0,0,0,0,0,-1,916,659,0,0
-301,365,0,0,0,0,0,0,0,0,0,-1,923,659,0,0
-294,365,0,0,0,0,0,0,0,0,0,-1,930,659,0,0
-287,365,0,0,0,0,0,0,0,0,0,-1,937,659,0,0
-280,365,0,0,0,0,0,0,0,0,0,-1,944,659,0,0
-273,365,0,0,0,0,0,0,0,0,0,-1,951,659,0,0
-266,365,0,0,0,0,0,0,0,0,0,-1,958,659,0,0
-259,365,0,0,0,0,0,0,0,0,0,-1,965,659,0,0
-252,365,0,0,0,0,0,0,0,0,0,-1,972,659,0,0
-245,365,0,0,0,0,0,0,0,0,0,-1,979,659,0,0
-238,365,0,0,0,0,0,0,0,0,0,-1,986,659,0,0
-231,365,0,0,0,0,0,0,0,0,0,-1,993,659,0,0
-224,365,0,0,0,0,0,0,0,0,0,-1,1000,659,0,0
-217,365,0,0,0,0,0,0,0,0,0,-1,1007,659,0,0
-210,365,0,0,0,0,0,0,0,0,0,-1,1014,659,0,0
-203,365,0,0,0,0,0,0,0,0,0,-1,1021,659,0,0
-196,365,0,0,0,0,0,0,0,0,0,-1,1028,659,0,0
-189,365,0,0,0,0,0,0,0,0,0,-1,1035,659,0,0
-182,365,0,0,0,0,0,0,0,0,0,-1,1042,659,0,0
-175,365,0,0,0,0,0,0,0,0,0,-1,1049,659,0,0
-168,365,0,0,0,0,0,0,0,0,0,-1,1056,659,0,0
-161,365,0,0,0,0,0,0,0,0,0,-1,1063,659,0,0
-154,365,0,0,0,0,0,0,0,0,0,-1,1070,659,0,0
-147,365,0,0,0,0,0,0,0,0,0,-1,1077,659,0,0
-140,365,0,0,0,0,0,0,0,0,0,-1,1084,659,0,0
-133,365,0,0,0,0,0,0,0,0,0,-1,1091,659,0,0
-126,365,0,0,0,0,0,0,0,0,0,-1,1098,659,0,0
-119,365,0,0,0,0,0,0,0,0,0,-1,1105,659,0,0
-112,365,0,0,0,0,0,0,0,0,0,-1,1112,659,0,0
-105,365,0,0,0,0,0,0,0,0,0,-1,1119,659,0,0
-98,365,0,0,0,0,0,0,0,0,0,-1,1126,659,0,0
-91,365,0,0,0,0,0,0,0,0,0,-1,1133,659,0,0
-84,365,0,0,0,0,0,0,0,0,0,-1,1140,659,0,0
-77,365,0,0,0,0,0,0,0,0,0,-1,1147,659,0,0
-70,365,0,0,0,0,0,0,0,0,0,-1,1154,659,0,0
-63,365,0,0,0,0,0,0,0,0,0,-1,1161,659,0,0
-56,365,0,0,0,0,0,0,0,0,0,-1,1168,659,0,0
-49,365,0,0,0,0,0,0,0,0,0,-1,1175,659,0,0
-42,365,0,0,0,0,0,0,0,0,0,-1,1182,659,0,0
-35,365,0,0,0,0,0,0,0,0,0,-1,1189,659,0,0
-28,365,0,0,0,0,0,0,0,0,0,-1,1196,659,0,0
-21,365,0,0,0,0,0,0,0,0,0,-1,1203,659,0,0
-14,365,0,0,0,0,0,0,0,0,0,-1,1210,659,0,0
-7,365,0,0,0,0,0,0,0,0,0,-1,1217,659,0,0
0,365,0,0,0,0,0,0,0,0,0,-1,1224,659,0,0
7,365,0,0,0,0,0,0,0,0,0,-1,1231,659,0,0
14,365,0,0,0,0,0,0,0,0,0,-1,1238,659,0,0
21,365,0,0,0,0,0,0,0,0,0,-1,1245,659,0,0
28,365,0,0,0,0,0,0,0,0,0,-1,1252,659,0,0
35,365,0,0,0,0,0,0,0,0,0,-1,1259,659,0,0
42,365,0,0,0,0,0,0,0,0,0,-1,1266,659,0,0
49,365,0,0,0,0,0,0,0,0,0,-1,1273,659,0,0
56,365,0,0,0,0,0,0,0,0,0,-1,1280,659,0,0
63,365,0,0,0,0,0,0,0,0,0,-1,1287,659,0,0
70,365,0,0,0,0,0,0,0,0,0,-1,1294,659,0,0
77,365,0,0,0,0,0,0,0,0,0,-1,1301,659,0,0
84,365,0,0,0,0,0,0,0,0,0,-1,1308,659,0,0
91,365,0,0,0,0,0,0,0,0,0,-1,1315,659,0,0
98,365,0,0,0,0,0,0,0,0,0,-1,1322,659,0,0
105,365,0,0,0,0,0,0,0,0,0,-1,1329,659,0,0
112,365,0,0,0,0,0,0,0,0,0,-1,1336,659,0,0
119,365,0,0,0,0,0,0,0,0,0,-1,1343,659,0,0
126,365,0,0,0,0,0,0,0,0,0,-1,1350,659,0,0
133,365,0,0,0,0,0,0,0,0,0,-1,1357,659,0,0
140,365,0,0,0,0,0,0,0,0,0,-1,1364,659,0,0
147,365,0,0,0,0,0,0,0,0,0,-1,1371,659,0,0
154,365,0,0,0,0,0,0,0,0,0,-1,1378,659,0,0
161,365,0,0,0,0,0,0,0,0,0,-1,1385,659,0,0
168,365,0,0,0,0,0,0,0,0,0,-1,1392,659,0,0
175,365,0,0,0,0,0,0,0,0,0,-1,1399,659,0,0
182,365,0,0,0,0,0,0,0,0,0,-1,1406,659,0,0
189,365,0,0,0,0,0,0,0,0,0,-1,1413,659,0,0
196,365,0,0,0,0,0,0,0,0,0,-1,1420,659,0,0
203,365,0,0,0,0,0,0,0,0,0,-1,1427,659,0,0
210,365,0,0,0,0,0,0,0,0,0,-1,1434,659,0,0
217,365,0,0,0,0,0,0,0,0,0,-1,1441,659,0,0
224,365,0,0,0,0,0,0,0,0,0,-1,1448,659,0,0
231,365,0,0,0,0,0,0,0,0,0,-1,1455,659,0,0
238,365,0,0,0,0,0,0,0,0,0,-1,1462,659,0,0
245,365,0,0,0,0,0,0,0,0,0,-1,1469,659,0,0
252,365,0,0,0,0,0,0,0,0,0,-1,1476,659,0,0
259,365,0,0,0,0,0,0,0,0,0,-1,1483,659,0,0
266,365,0,0,0,0,0,0,0,0,0,-1,1490,659,0,0
273,365,0,0,0,0,0,0,0,0,0,-1,1497,659,0,0
280,365,0,0,0,0,0,0,0,0,0,-1,1504,659,0,0
287,365,0,0,0,0,0,0,0,0,0,-1,1511,659,0,0
294,365,0,0,0,0,0,0,0,0,0,-1,1518,659,0,0
301,365,0,0,0,0,0,0,0,0,0,-1,1525,659,0,0
308,365,0,0,0,0,0,0,0,0,0,-1,1532,659,0,0
315,365,0,0,0,0,0,0,0,0,0,-1,1539,659,0,0
322,365,0,0,0,0,0,0,0,0,0,-1,1546,659,0,0
329,365,0,0,0,0,0,0,0,0,0,-1,1553,659,0,0
336,365,0,0,0,0,0,0,0,0,0,-1,1560,659,0,0
343,365,0,0,0,0,0,0,0,0,0,-1,1567,659,0,0
350,365,0,0,0,0,0,0,0,0,0,-1,1574,659,0,0
357,365,0,0,0,0,0,0,0,0,0,-1,1581,659,0,0
364,365,0,0,0,0,0,0,0,0,0,-1,1588,659,0,0
371,365,0,0,0,0,0,0,0,0,0,-1,1595,659,0,0
378,365,0,0,0,0,0,0,0,0,0,-1,1602,659,0,0
385,365,0,0,0,0,0,0,0,0,0,-1,1609,659,0,0
392,365,0,0,0,0,0,0,0,0,0,-1,1616,659,0,0
399,365,0,0,0,0,0,0,0,0,0,-1,1623,659,0,0
406,365,0,0,0,0,0,0,0,0,0,-1,1630,659,0,0
413,365,0,0,0,0,0,0,0,0,0,-1,1637,659,0,0
420,365,0,0,0,0,0,0,0,0,0,-1,1644,659,0,0
427,365,0,0,0,0,0,0,0,0,0,-1,1651,659,0,0
434,365,0,0,0,0,0,0,0,0,0,-1,1658,659,0,0
441,365,0,0,0,0,0,0,0,0,0,-1,1665,659,0,0
448,365,0,0,0,0,0,0,0,0,0,-1,1672,659,0,0
455,365,0,0,0,0,0,0,0,0,0,-1,1679,659,0,0
462,365,0,0,0,0,0,0,0,0,0,-1,1686,659,0,0
469,365,0,0,0,0,0,0,0,0,0,-1,1693,659,0,0
476,365,0,0,0,0,0,0,0,0,0,-1,1700,659,0,0
483,365,0,0,0,0,0,0,0,0,0,-1,1707,659,0,0
490,365,8.39551,0.471252,0,0,0,0,0,0,0,-1,1714,659,8.39551,-0.471241
497,365,9.89233,1.35394,0,0,0,0,0,0,0,-1,1721,659,9.89237,-1.35396
504,365,10.1414,1.18005,0,0,0,0,0,0,0,-1,1728,659,10.1413,-1.18004
511,365,10.5151,0.993896,0,0,0,0,0,0,0,-1,1735,659,10.5152,-0.993894
518,365,11.2029,0.398132,0,0,0,0,0,0,0,-1,1742,659,11.2029,-0.398136
525,365,15.5748,3.85303,0,0,0,0,0,0,0,-1,1749,659,15.5748,-3.85303
532,365,11.2446,1.00629,0,0,0,0,0,0,0,-1,1756,659,11.2446,-1.00631
539,365,12.6301,1.03204,0,0,0,0,0,0,0,-1,1763,659,12.6302,-1.03204
546,365,11.647,0.84198,0,0,0,0,0,0,0,-1,1770,659,11.6469,-0.841955
553,365,12.028,-0.558899,0,0,0,0,0,0,0,-1,1777,659,12.028,0.558873
560,365,12.7452,-4.08264,0,0,0,0,0,0,0,-1,1784,659,12.7452,4.08267
567,365,12.7611,-3.22156,0,0,0,0,0,0,0,-1,1791,659,12.761,3.22157
574,365,12.7104,-2.73621,0,0,0,0,0,0,0,-1,1798,659,12.7105,2.73623
581,365,12.6348,-2.49957,-0.00274237,0.00223611,4.73099e-05,0.00223656,-0.00274282,1.56129,0.00287979,0.024501,1805,659,12.6347,2.49954
588,365,12.6127,-2.13055,-0.0017487,0.00141288,-9.40254e-05,0.00141567,-0.00175149,-1.54109,0.00183199,0.0127828,1812,659,12.6127,2.13058
595,365,12.6306,-1.776,-0.000906851,0.000979999,-3.01552e-05,0.000980481,-0.000907333,-1.55482,0.0010902,0.0126274,1819,659,12.6306,1.77603
602,365,12.6222,-1.46582,-0.000131134,0.000923532,0.000206446,0.000962503,-0.000170105,1.38422,0.000705242,0.0150063,1826,659,12.6221,1.46579
609,365,12.5945,-1.16614,0.000306126,0.00108164,0.000424002,0.00126846,0.000119311,1.15579,0.000808807,0.0157098,1833,659,12.5945,1.16612
616,365,12.6184,-0.840027,0.000353018,0.00107004,0.00032024,0.00119224,0.000230818,1.20626,0.000730154,0.0160019,1840,659,12.6184,0.840011
623,365,12.6321,-0.526489,6.2646e-05,0.00136489,0.000235031,0.00140601,2.15257e-05,1.39759,0.000930246,0.0107953,1847,659,12.6321,0.526478
630,365,12.6041,-0.21344,-0.000816452,0.0014903,-0.000148831,0.00149987,-0.000826015,-1.50663,0.00136151,0.0143973,1854,659,12.6041,0.213446
637,365,12.5961,0.0736694,-0.00234614,0.0013841,-0.00101341,0.00164164,-0.00260368,-1.32193,0.00247192,0.0201305,1861,659,12.5961,-0.0736827
644,365,12.6202,0.36908,-0.00458935,0.00103221,-0.00232095,0.0018666,-0.00542375,-1.22568,0.00437291,0.0153928,1868,659,12.6203,-0.369074
651,365,12.5928,0.555908,0,0,0,0,0,0,0,-1,1875,659,12.5928,-0.555934
658,365,12.2683,0.607239,0,0,0,0,0,0,0,-1,1882,659,12.2683,-0.607218
665,365,11.9437,0.658508,0,0,0,0,0,0,0,-1,1889,659,11.9437,-0.658503
672,365,10.0579,2.15088,0,0,0,0,0,0,0,-1,1896,659,10.0579,-2.15088
679,365,10.9718,2.19208,0,0,0,0,0,0,0,-1,1903,659,10.9718,-2.19211
686,365,12.2134,2.17108,0,0,0,0,0,0,0,-1,1910,659,12.2134,-2.17109
693,365,13.7141,1.98279,0,0,0,0,0,0,0,-1,1917,659,13.7141,-1.98278
700,365,0,0,0,0,0,0,0,0,0,-1,1924,659,0,0
707,365,0,0,0,0,0,0,0,0,0,-1,1931,659,0,0
714,365,0,0,0,0,0,0,0,0,0,-1,1938,659,0,0
721,365,0,0,0,0,0,0,0,0,0,-1,1945,659,0,0
728,365,0,0,0,0,0,0,0,0,0,-1,1952,659,0,0
735,365,0,0,0,0,0,0,0,0,0,-1,1959,659,0,0
742,365,0,0,0,0,0,0,0,0,0,-1,1966,659,0,0
749,365,0,0,0,0,0,0,0,0,0,-1,1973,659,0,0
756,365,0,0,0,0,0,0,0,0,0,-1,1980,659,0,0
763,365,0,0,0,0,0,0,0,0,0,-1,1987,659,0,0
770,365,0,0,0,0,0,0,0,0,0,-1,1994,659,0,0
777,365,0,0,0,0,0,0,0,0,0,-1,2001,659,0,0
784,365,0,0,0,0,0,0,0,0,0,-1,2008,659,0,0
791,365,0,0,0,0,0,0,0,0,0,-1,2015,659,0,0
798,365,0,0,0,0,0,0,0,0,0,-1,2022,659,0,0
805,365,0,0,0,0,0,0,0,0,0,-1,2029,659,0,0
812,365,0,0,0,0,0,0,0,0,0,-1,2036,659,0,0
-700,358,0,0,0,0,0,0,0,0,0,-1,524,666,0,0
-693,358,0,0,0,0,0,0,0,0,0,-1,531,666,0,0
-686,358,0,0,0,0,0,0,0,0,0,-1,538,666,0,0
-679,358,0,0,0,0,0,0,0,0,0,-1,545,666,0,0
-672,358,0,0,0,0,0,0,0,0,0,-1,552,666,0,0
-665,358,0,0,0,0,0,0,0,0,0,-1,559,666,0,0
-658,358,0,0,0,0,0,0,0,0,0,-1,566,666,0,0
-651,358,0,0,0,0,0,0,0,0,0,-1,573,666,0,0
-644,358,0,0,0,0,0,0,0,0,0,-1,580,666,0,0
-637,358,0,0,0,0,0,0,0,0,0,-1,587,666,0,0
-630,358,0,0,0,0,0,0,0,0,0,-1,594,666,0,0
-623,358,0,0,0,0,0,0,0,0,0,-1,601,666,0,0
-616,358,0,0,0,0,0,0,0,0,0,-1,608,666,0,0
-609,358,0,0,0,0,0,0,0,0,0,-1,615,666,0,0
-602,358,0,0,0,0,0,0,0,0,0,-1,622,666,0,0
-595,358,0,0,0,0,0,0,0,0,0,-1,629,666,0,0
-588,358,0,0,0,0,0,0,0,0,0,-1,636,666,0,0
-581,358,-6.38348,2.40674,0,0,0,0,0,0,0,-1,643,666,-6.38347,-2.40674
-574,358,-6.60022,1.71234,0,0,0,0,0,0,0,-1,650,666,-6.60024,-1.71232
-567,358,-6.79169,1.01038,0,0,0,0,0,0,0,-1,657,666,-6.79169,-1.01039
-560,358,-6.37073,3.61011,0,0,0,0,0,0,0,-1,664,666,-6.37075,-3.61009
-553,358,-6.7887,0.0745239,0,0,0,0,0,0,0,-1,671,666,-6.78867,-0.0745217
-546,358,-6.86322,-0.23999,0,0,0,0,0,0,0,-1,678,666,-6.86319,0.239973
-539,358,-6.75269,-0.312439,0,0,0,0,0,0,0,-1,685,666,-6.75266,0.312411
-532,358,-6.67834,-0.811462,0.020121,0.0217563,-0.0136136,0.0345767,0.00730054,-0.815393,0.0210441,0.0449378,692,666,-6.67834,0.811468
-525,358,-6.47937,-1.29626,0.0155331,0.013699,-0.0095609,0.0242208,0.00501127,-0.737584,0.0147631,0.0333272,699,666,-6.47937,1.29626
-518,358,-6.45355,-1.42981,0.0117389,0.00840225,-0.00648838,0.01677,0.00337114,-0.659562,0.0102429,0.0296471,706,666,-6.45355,1.42982
-511,358,-6.54138,-1.78284,0.00869368,0.00489585,-0.00426478,0.0114632,0.00212634,-0.575948,0.0070412,0.0142435,713,666,-6.54139,1.78284
-504,358,-6.54773,-2.07397,0.00623378,0.00180254,-0.00262387,0.00745236,0.000583969,-0.434779,0.00478547,0.0107789,720,666,-6.54772,2.07399
-497,358,-6.54761,-2.37958,0.00448573,0.000536884,-0.00161867,0.00506443,-4.18178e-05,-0.343355,0.00339031,0.011269,727,666,-6.54763,2.37959
-490,358,-6.54407,-2.66418,0.00337713,0.00017011,-0.0011603,0.0037529,-0.000205658,-0.313195,0.00257322,0.010711,734,666,-6.54409,2.66417
-483,358,-6.56354,-2.94061,0.00275546,0.00016675,-0.00108994,0.00315324,-0.000231032,-0.349937,0.00218325,0.00998011,741,666,-6.56354,2.94059
-476,358,-6.54395,-3.22717,0.00260279,0.000421486,-0.00140139,0.00328792,-0.000263647,-0.454725,0.0022849,0.0112519,748,666,-6.54392,3.22718
-469,358,-6.54944,-3.53827,0.0032419,0.000842424,-0.00216861,0.00452051,-0.000436188,-0.532738,0.00316909,0.0142273,755,666,-6.54942,3.53829
-462,358,-6.57721,-3.84045,0.00436915,0.00131048,-0.00307151,0.006271,-0.000591372,-0.554412,0.00439109,0.0172553,762,666,-6.5772,3.84048
-455,358,-6.54156,-4.14459,0.00504767,0.00197623,-0.00371851,0.0075351,-0.0005112,-0.589569,0.00520218,0.0252303,769,666,-6.54156,4.14456
-448,358,-6.4137,-4.64575,0,0,0,0,0,0,0,-1,776,666,-6.41372,4.64575
-441,358,-5.56293,-3.98041,0,0,0,0,0,0,0,-1,783,666,-5.56291,3.98043
-434,358,-5.21558,-4.43127,0,0,0,0,0,0,0,-1,790,666,-5.21559,4.43125
-427,358,-3.56189,-3.15729,0,0,0,0,0,0,0,-1,797,666,-3.56192,3.15729
-420,358,0.200195,1.08234,0,0,0,0,0,0,0,-1,804,666,0.200174,-1.08231
-413,358,0.0325317,0.161072,0,0,0,0,0,0,0,-1,811,666,0.0325501,-0.161098
-406,358,-3.85846,0.753113,0,0,0,0,0,0,0,-1,818,666,-3.85846,-0.753129
-399,358,-1.31213,0.190735,0,0,0,0,0,0,0,-1,825,666,-1.31215,-0.190763
-392,358,-3.73914,-0.832214,0,0,0,0,0,0,0,-1,832,666,-3.73915,0.832202
-385,358,-5.95178,-1.69141,0,0,0,0,0,0,0,-1,839,666,-5.9518,1.69143
-378,358,0,0,0,0,0,0,0,0,0,-1,846,666,0,0
-371,358,0,0,0,0,0,0,0,0,0,-1,853,666,0,0
-364,358,0,0,0,0,0,0,0,0,0,-1,860,666,0,0
-357,358,0,0,0,0,0,0,0,0,0,-1,867,666,0,0
-350,358,0,0,0,0,0,0,0,0,0,-1,874,666,0,0
-343,358,0,0,0,0,0,0,0,0,0,-1,881,666,0,0
-336,358,0,0,0,0,0,0,0,0,0,-1,888,666,0,0
-329,358,0,0,0,0,0,0,0,0,0,-1,895,666,0,0
-322,358,0,0,0,0,0,0,0,0,0,-1,902,666,0,0
-315,358,0,0,0,0,0,0,0,0,0,-1,909,666,0,0
-308,358,0,0,0,0,0,0,0,0,0,-1,916,666,0,0
-301,358,0,0,0,0,0,0,0,0,0,-1,923,666,0,0
-294,358,0,0,0,0,0,0,0,0,0,-1,930,666,0,0
-287,358,0,0,0,0,0,0,0,0,0,-1,937,666,0,0
-280,358,0,0,0,0,0,0,0,0,0,-1,944,666,0,0
-273,358,0,0,0,0,0,0,0,0,0,-1,951,666,0,0
-266,358,0,0,0,0,0,0,0,0,0,-1,958,666,0,0
-259,358,0,0,0,0,0,0,0,0,0,-1,965,666,0,0
-252,358,0,0,0,0,0,0,0,0,0,-1,972,666,0,0
-245,358,0,0,0,0,0,0,0,0,0,-1,979,666,0,0
-238,358,0,0,0,0,0,0,0,0,0,-1,986,666,0,0
-231,358,0,0,0,0,0,0,0,0,0,-1,993,666,0,0
-224,358,0,0,0,0,0,0,0,0,0,-1,1000,666,0,0
-217,358,0,0,0,0,0,0,0,0,0,-1,1007,666,0,0
-210,358,0,0,0,0,0,0,0,0,0,-1,1014,666,0,0
-203,358,0,0,0,0,0,0,0,0,0,-1,1021,666,0,0
-196,358,0,0,0,0,0,0,0,0,0,-1,1028,666,0,0
-189,358,0,0,0,0,0,0,0,0,0,-1,1035,666,0,0
-182,358,0,0,0,0,0,0,0,0,0,-1,1042,666,0,0
-175,358,0,0,0,0,0,0,0,0,0,-1,1049,666,0,0
-168,358,0,0,0,0,0,0,0,0,0,-1,1056,666,0,0
-161,358,0,0,0,0,0,0,0,0,0,-1,1063,666,0,0
-154,358,0,0,0,0,0,0,0,0,0,-1,1070,666,0,0
-147,358,0,0,0,0,0,0,0,0,0,-1,1077,666,0,0
-140,358,0,0,0,0,0,0,0,0,0,-1,1084,666,0,0
-133,358,0,0,0,0,0,0,0,0,0,-1,1091,666,0,0
-126,358,0,0,0,0,0,0,0,0,0,-1,1098,666,0,0
-119,358,0,0,0,0,0,0,0,0,0,-1,1105,666,0,0
-112,358,0,0,0,0,0,0,0,0,0,-1,1112,666,0,0
-105,358,0,0,0,0,0,0,0,0,0,-1,1119,666,0,0
-98,358,0,0,0,0,0,0,0,0,0,-1,1126,666,0,0
-91,358,0,0,0,0,0,0,0,0,0,-1,1133,666,0,0
-84,358,0,0,0,0,0,0,0,0,0,-1,1140,666,0,0
-77,358,0,0,0,0,0,0,0,0,0,-1,1147,666,0,0
-70,358,0,0,0,0,0,0,0,0,0,-1,1154,666,0,0
-63,358,0,0,0,0,0,0,0,0,0,-1,1161,666,0,0
-56,358,0,0,0,0,0,0,0,0,0,-1,1168,666,0,0
-49,358,0,0,0,0,0,0,0,0,0,-1,1175,666,0,0
-42,358,0,0,0,0,0,0,0,0,0,-1,1182,666,0,0
-35,358,0,0,0,0,0,0,0,0,0,-1,1189,666,0,0
-28,358,0,0,0,0,0,0,0,0,0,-1,1196,666,0,0
-21,358,0,0,0,0,0,0,0,0,0,-1,1203,666,0,0
-14,358,0,0,0,0,0,0,0,0,0,-1,1210,666,0,0
-7,358,0,0,0,0,0,0,0,0,0,-1,1217,666,0,0
0,358,0,0,0,0,0,0,0,0,0,-1,1224,666,0,0
7,358,0,0,0,0,0,0,0,0,0,-1,1231,666,0,0
14,358,0,0,0,0,0,0,0,0,0,-1,1238,666,0,0
21,358,0,0,0,0,0,0,0,0,0,-1,1245,666,0,0
28,358,0,0,0,0,0,0,0,0,0,-1,1252,666,0,0
35,358,0,0,0,0,0,0,0,0,0,-1,1259,666,0,0
42,358,0,0,0,0,0,0,0,0,0,-1,1266,666,0,0
49,358,0,0,0,0,0,0,0,0,0,-1,1273,666,0,0
56,358,0,0,0,0,0,0,0,0,0,-1,1280,666,0,0
63,358,0,0,0,0,0,0,0,0,0,-1,1287,666,0,0
70,358,0,0,0,0,0,0,0,0,0,-1,1294,666,0,0
77,358,0,0,0,0,0,0,0,0,0,-1,1301,666,0,0
84,358,0,0,0,0,0,0,0,0,0,-1,1308,666,0,0
91,358,0,0,0,0,0,0,0,0,0,-1,1315,666,0,0
98,358,0,0,0,0,0,0,0,0,0,-1,1322,666,0,0
105,358,0,0,0,0,0,0,0,0,0,-1,1329,666,0,0
112,358,0,0,0,0,0,0,0,0,0,-1,1336,666,0,0
119,358,0,0,0,0,0,0,0,0,0,-1,1343,666,0,0
126,358,0,0,0,0,0,0,0,0,0,-1,1350,666,0,0
133,358,0,0,0,0,0,0,0,0,0,-1,1357,666,0,0
140,358,0,0,0,0,0,0,0,0,0,-1,1364,666,0,0
147,358,0,0,0,0,0,0,0,0,0,-1,1371,666,0,0
154,358,0,0,0,0,0,0,0,0,0,-1,1378,666,0,0
161,358,0,0,0,0,0,0,0,0,0,-1,1385,666,0,0
168,358,0,0,0,0,0,0,0,0,0,-1,1392,666,0,0
175,358,0,0,0,0,0,0,0,0,0,-1,1399,666,0,0
182,358,0,0,0,0,0,0,0,0,0,-1,1406,666,0,0
189,358,0,0,0,0,0,0,0,0,0,-1,1413,666,0,0
196,358,0,0,0,0,0,0,0,0,0,-1,1420,666,0,0
203,358,0,0,0,0,0,0,0,0,0,-1,1427,666,0,0
210,358,0,0,0,0,0,0,0,0,0,-1,1434,666,0,0
217,358,0,0,0,0,0,0,0,0,0,-1,1441,666,0,0
224,358,0,0,0,0,0,0,0,0,0,-1,1448,666,0,0
231,358,0,0,0,0,0,0,0,0,0,-1,1455,666,0,0
238,358,0,0,0,0,0,0,0,0,0,-1,1462,666,0,0
245,358,0,0,0,0,0,0,0,0,0,-1,1469,666,0,0
252,358,0,0,0,0,0,0,0,0,0,-1,1476,666,0,0
259,358,0,0,0,0,0,0,0,0,0,-1,1483,666,0,0
266,358,0,0,0,0,0,0,0,0,0,-1,1490,666,0,0
273,358,0,0,0,0,0,0,0,0,0,-1,1497,666,0,0
280,358,0,0,0,0,0,0,0,0,0,-1,1504,666,0,0
287,358,0,0,0,0,0,0,0,0,0,-1,1511,666,0,0
294,358,0,0,0,0,0,0,0,0,0,-1,1518,666,0,0
301,358,0,0,0,0,0,0,0,0,0,-1,1525,666,0,0
308,358,0,0,0,0,0,0,0,0,0,-1,1532,666,0,0
315,358,0,0,0,0,0,0,0,0,0,-1,1539,666,0,0
322,358,0,0,0,0,0,0,0,0,0,-1,1546,666,0,0
329,358,0,0,0,0,0,0,0,0,0,-1,1553,666,0,0
336,358,0,0,0,0,0,0,0,0,0,-1,1560,666,0,0
343,358,0,0,0,0,0,0,0,0,0,-1,1567,666,0,0
350,358,0,0,0,0,0,0,0,0,0,-1,1574,666,0,0
357,358,0,0,0,0,0,0,0,0,0,-1,1581,666,0,0
364,358,0,0,0,0,0,0,0,0,0,-1,1588,666,0,0
371,358,0,0,0,0,0,0,0,0,0,-1,1595,666,0,0
378,358,0,0,0,0,0,0,0,0,0,-1,1602,666,0,0
385,358,0,0,0,0,0,0,0,0,0,-1,1609,666,0,0
392,358,0,0,0,0,0,0,0,0,0,-1,1616,666,0,0
399,358,0,0,0,0,0,0,0,0,0,-1,1623,666,0,0
406,358,0,0,0,0,0,0,0,0,0,-1,1630,666,0,0
413,358,0,0,0,0,0,0,0,0,0,-1,1637,666,0,0
420,358,0,0,0,0,0,0,0,0,0,-1,1644,666,0,0
427,358,0,0,0,0,0,0,0,0,0,-1,1651,666,0,0
434,358,0,0,0,0,0,0,0,0,0,-1,1658,666,0,0
441,358,0,0,0,0,0,0,0,0,0,-1,1665,666,0,0
448,358,0,0,0,0,0,0,0,0,0,-1,1672,666,0,0
455,358,0,0,0,0,0,0,0,0,0,-1,1679,666,0,0
462,358,0,0,0,0,0,0,0,0,0,-1,1686,666,0,0
469,358,0,0,0,0,0,0,0,0,0,-1,1693,666,0,0
476,358,0,0,0,0,0,0,0,0,0,-1,1700,666,0,0
483,358,0,0,0,0,0,0,0,0,0,-1,1707,666,0,0
490,358,0,0,0,0,0,0,0,0,0,-1,1714,666,0,0
497,358,8.57239,1.1322,0,0,0,0,0,0,0,-1,1721,666,8.57234,-1.13219
504,358,10.5972,0.832947,0,0,0,0,0,0,0,-1,1728,666,10.5972,-0.832968
511,358,10.6873,0.868469,0,0,0,0,0,0,0,-1,1735,666,10.6872,-0.868484
518,358,16.5884,2.34894,0,0,0,0,0,0,0,-1,1742,666,16.5884,-2.34894
525,358,15.7626,3.65344,0,0,0,0,0,0,0,-1,1749,666,15.7626,-3.65342
532,358,14.9368,4.95789,0,0,0,0,0,0,0,-1,1756,666,14.9367,-4.9579
539,358,15.1597,3.42694,0,0,0,0,0,0,0,-1,1763,666,15.1597,-3.42692
546,358,12.3792,1.53558,0,0,0,0,0,0,0,-1,1770,666,12.3792,-1.5356
553,358,11.6584,1.26172,0,0,0,0,0,0,0,-1,1777,666,11.6585,-1.26175
560,358,10.8234,1.43042,0,0,0,0,0,0,0,-1,1784,666,10.8233,-1.43041
567,358,10.1333,-0.955139,0,0,0,0,0,0,0,-1,1791,666,10.1333,0.955132
574,358,13.423,-2.69244,0,0,0,0,0,0,0,-1,1798,666,13.4229,2.69242
581,358,13.1161,-2.38623,-0.00338832,0.00235686,-0.000147615,0.00236065,-0.00339211,-1.54513,0.00333911,0.0415624,1805,666,13.1161,2.38622
588,358,12.8851,-2.15869,-0.00220736,0.00134772,-0.00031952,0.00137621,-0.00223585,-1.48187,0.00210501,0.0193805,1812,666,12.8851,2.1587
595,358,12.9379,-1.77271,-0.00126016,0.000775233,-0.000265027,0.000809176,-0.0012941,-1.44342,0.00122504,0.0117505,1819,666,12.9379,1.77267
602,358,12.9257,-1.45251,-0.000439964,0.000631254,-6.50279e-05,0.000635187,-0.000443897,-1.51039,0.000626264,0.0128273,1826,666,12.9256,1.4525
609,358,12.894,-1.17963,0.000102202,0.00071836,0.000154145,0.000754771,6.57914e-05,1.33884,0.000482747,0.0162863,1833,666,12.8941,1.17965
616,358,12.8936,-0.844055,0.000258815,0.000612505,5.3059e-05,0.000620293,0.000251026,1.42505,0.000360289,0.014967,1840,666,12.8936,0.844082
623,358,12.917,-0.528259,-3.89994e-05,0.000810951,-8.05683e-05,0.000818521,-4.65692e-05,-1.47712,0.000561847,0.0139093,1847,666,12.9171,0.528232
630,358,12.9081,-0.211914,-0.00091581,0.000836074,-0.000503632,0.000970538,-0.00105027,-1.30989,0.00116702,0.0172286,1854,666,12.9081,0.211904
637,358,12.8929,0.083313,-0.00235355,0.000632573,-0.00135383,0.00115497,-0.00287595,-1.20253,0.00239691,0.0247764,1861,666,12.8929,-0.0833042
644,358,12.9089,0.346375,-0.0044778,0.000217263,-0.00261407,0.00138317,-0.00564371,-1.15126,0.00429836,0.0208304,1868,666,12.9089,-0.346397
651,358,13.192,0.789551,0,0,0,0,0,0,0,-1,1875,666,13.192,-0.789545
658,358,12.7201,0.975403,-0.0107259,-0.00153911,-0.00657939,0.0018917,-0.0141567,-1.09014,0.0101274,0.0379291,1882,666,12.7201,-0.975432
665,358,12.2998,1.03247,-0.0151143,-0.00305274,-0.00939401,0.00207971,-0.0202468,-1.07076,0.0142418,0.0460718,1889,666,12.2998,-1.03245
672,358,12.0066,1.24261,0,0,0,0,0,0,0,-1,1896,666,12.0066,-1.24264
679,358,12.1294,2.19702,0,0,0,0,0,0,0,-1,1903,666,12.1294,-2.19703
686,358,11.9557,2.2002,0,0,0,0,0,0,0,-1,1910,666,11.9557,-2.20021
693,358,13.188,2.52203,0,0,0,0,0,0,0,-1,1917,666,13.188,-2.52202
700,358,0,0,0,0,0,0,0,0,0,-1,1924,666,0,0
707,358,0,0,0,0,0,0,0,0,0,-1,1931,666,0,0
714,358,0,0,0,0,0,0,0,0,0,-1,1938,666,0,0
721,358,0,0,0,0,0,0,0,0,0,-1,1945,666,0,0
728,358,0,0,0,0,0,0,0,0,0,-1,1952,666,0,0
735,358,0,0,0,0,0,0,0,0,0,-1,1959,666,0,0
742,358,0,0,0,0,0,0,0,0,0,-1,1966,666,0,0
749,358,0,0,0,0,0,0,0,0,0,-1,1973,666,0,0
756,358,0,0,0,0,0,0,0,0,0,-1,1980,666,0,0
763,358,0,0,0,0,0,0,0,0,0,-1,1987,666,0,0
770,358,0,0,0,0,0,0,0,0,0,-1,1994,666,0,0
777,358,0,0,0,0,0,0,0,0,0,-1,2001,666,0,0
784,358,0,0,0,0,0,0,0,0,0,-1,2008,666,0,0
791,358,0,0,0,0,0,0,0,0,0,-1,2015,666,0,0
798,358,0,0,0,0,0,0,0,0,0,-1,2022,666,0,0
805,358,0,0,0,0,0,0,0,0,0,-1,2029,666,0,0
812,358,0,0,0,0,0,0,0,0,0,-1,2036,666,0,0
-700,351,0,0,0,0,0,0,0,0,0,-1,524,673,0,0
-693,351,0,0,0,0,0,0,0,0,0,-1,531,673,0,0
-686,351,0,0,0,0,0,0,0,0,0,-1,538,673,0,0
-679,351,0,0,0,0,0,0,0,0,0,-1,545,673,0,0
-672,351,0,0,0,0,0,0,0,0,0,-1,552,673,0,0
-665,351,0,0,0,0,0,0,0,0,0,-1,559,673,0,0
-658,351,0,0,0,0,0,0,0,0,0,-1,566,673,0,0
-651,351,0,0,0,0,0,0,0,0,0,-1,573,673,0,0
-644,351,0,0,0,0,0,0,0,0,0,-1,580,673,0,0
-637,351,0,0,0,0,0,0,0,0,0,-1,587,673,0,0
-630,351,0,0,0,0,0,0,0,0,0,-1,594,673,0,0
-623,351,0,0,0,0,0,0,0,0,0,-1,601,673,0,0
-616,351,0,0,0,0,0,0,0,0,0,-1,608,673,0,0
-609,351,0,0,0,0,0,0,0,0,0,-1,615,673,0,0
-602,351,0,0,0,0,0,0,0,0,0,-1,622,673,0,0
-595,351,0,0,0,0,0,0,0,0,0,-1,629,673,0,0
-588,351,0,0,0,0,0,0,0,0,0,-1,636,673,0,0
-581,351,-6.02448,2.47565,0,0,0,0,0,0,0,-1,643,673,-6.0245,-2.47562
-574,351,-6.27118,1.76733,0,0,0,0,0,0,0,-1,650,673,-6.27117,-1.76734
-567,351,-6.71765,4.599,0,0,0,0,0,0,0,-1,657,673,-6.71762,-4.59899
-560,351,-6.7489,2.87671,0,0,0,0,0,0,0,-1,664,673,-6.74892,-2.87674
-553,351,-6.78021,1.15448,0,0,0,0,0,0,0,-1,671,673,-6.78022,-1.15449
-546,351,-6.78033,0.235229,0,0,0,0,0,0,0,-1,678,673,-6.78033,-0.235208
-539,351,-6.75427,-0.306641,0.0177994,0.0317861,-0.0152073,0.041531,0.00805443,-1.00091,0.0254313,0.0480384,685,673,-6.75426,0.306648
-532,351,-6.73785,-0.84613,0.014325,0.0208502,-0.0111146,0.0291711,0.00600406,-0.928159,0.0177871,0.0329483,692,673,-6.73783,0.846105
-525,351,-6.80548,-1.27264,0.0113187,0.0133267,-0.00791184,0.020298,0.00434741,-0.848509,0.0123408,0.0227286,699,673,-6.8055,1.27266
-518,351,-6.85199,-1.46155,0.00878515,0.00825293,-0.00546029,0.0139858,0.00305227,-0.76105,0.00849132,0.0123759,706,673,-6.85197,1.46156
-511,351,-6.82074,-1.75677,0.00670794,0.0048324,-0.00365462,0.00954318,0.00199715,-0.659808,0.00581193,0.0106776,713,673,-6.82076,1.75676
-504,351,-6.83911,-2.0741,0.00501967,0.00180672,-0.00232252,0.00623718,0.000589215,-0.482834,0.0039763,0.0100976,720,673,-6.83911,2.07413
-497,351,-6.84601,-2.36139,0.00384743,0.000528653,-0.00150557,0.00442865,-5.25608e-05,-0.368417,0.00297011,0.010425,727,673,-6.846,2.36137
-490,351,-6.84814,-2.65143,0.00315406,0.000143047,-0.00117239,0.00355671,-0.000259601,-0.33082,0.00246224,0.00980566,734,673,-6.84817,2.65145
-483,351,-6.84875,-2.93475,0.00284472,0.000135166,-0.00120329,0.00330194,-0.000322052,-0.363124,0.00231612,0.0113621,741,673,-6.84878,2.93473
-476,351,-6.84698,-3.21259,0.00294142,0.000380247,-0.0016246,0.00372946,-0.000407793,-0.451631,0.00263279,0.0109722,748,673,-6.84697,3.21261
-469,351,-6.84839,-3.49255,0.00403623,0.000816163,-0.00258919,0.00547515,-0.000622757,-0.50724,0.0038744,0.0135963,755,673,-6.8484,3.49257
-462,351,-6.86212,-3.82983,0.00557473,0.00130744,-0.00360916,0.00763376,-0.000751585,-0.518446,0.0053573,0.0195221,762,673,-6.86212,3.82981
-455,351,-6.78253,-4.20868,0.00658155,0.0020385,-0.00454812,0.00939385,-0.0007738,-0.553798,0.00653578,0.0406947,769,673,-6.78256,4.20867
-448,351,-6.33118,-4.2309,0,0,0,0,0,0,0,-1,776,673,-6.33118,4.23088
-441,351,-4.31567,-2.3009,0,0,0,0,0,0,0,-1,783,673,-4.31565,2.30089
-434,351,-3.81708,-2.28003,0,0,0,0,0,0,0,-1,790,673,-3.81706,2.28006
-427,351,-2.05157,-2.7785,0,0,0,0,0,0,0,-1,797,673,-2.05157,2.77848
-420,351,-1.06989,-2.43665,0,0,0,0,0,0,0,-1,804,673,-1.06991,2.43663
-413,351,-0.392334,-2.06671,0,0,0,0,0,0,0,-1,811,673,-0.392363,2.06672
-406,351,-1.86316,-2.58105,0,0,0,0,0,0,0,-1,818,673,-1.86313,2.58106
-399,351,1.00952,-1.53455,0,0,0,0,0,0,0,-1,825,673,1.00954,1.53457
-392,351,-1.02197,0.877136,0,0,0,0,0,0,0,-1,832,673,-1.02195,-0.877143
-385,351,-1.47205,1.04437,0,0,0,0,0,0,0,-1,839,673,-1.47207,-1.04435
-378,351,0,0,0,0,0,0,0,0,0,-1,846,673,0,0
-371,351,0,0,0,0,0,0,0,0,0,-1,853,673,0,0
-364,351,0,0,0,0,0,0,0,0,0,-1,860,673,0,0
-357,351,0,0,0,0,0,0,0,0,0,-1,867,673,0,0
-350,351,0,0,0,0,0,0,0,0,0,-1,874,673,0,0
-343,351,0,0,0,0,0,0,0,0,0,-1,881,673,0,0
-336,351,0,0,0,0,0,0,0,0,0,-1,888,673,0,0
-329,351,0,0,0,0,0,0,0,0,0,-1,895,673,0,0
-322,351,0,0,0,0,0,0,0,0,0,-1,902,673,0,0
-315,351,0,0,0,0,0,0,0,0,0,-1,909,673,0,0
-308,351,0,0,0,0,0,0,0,0,0,-1,916,673,0,0
-301,351,0,0,0,0,0,0,0,0,0,-1,923,673,0,0
-294,351,0,0,0,0,0,0,0,0,0,-1,930,673,0,0
-287,351,0,0,0,0,0,0,0,0,0,-1,937,673,0,0
-280,351,0,0,0,0,0,0,0,0,0,-1,944,673,0,0
-273,351,0,0,0,0,0,0,0,0,0,-1,951,673,0,0
-266,351,0,0,0,0,0,0,0,0,0,-1,958,673,0,0
-259,351,0,0,0,0,0,0,0,0,0,-1,965,673,0,0
-252,351,0,0,0,0,0,0,0,0,0,-1,972,673,0,0
-245,351,0,0,0,0,0,0,0,0,0,-1,979,673,0,0
-238,351,0,0,0,0,0,0,0,0,0,-1,986,673,0,0
-231,351,0,0,0,0,0,0,0,0,0,-1,993,673,0,0
-224,351,0,0,0,0,0,0,0,0,0,-1,1000,673,0,0
-217,351,0,0,0,0,0,0,0,0,0,-1,1007,673,0,0
-210,351,0,0,0,0,0,0,0,0,0,-1,1014,673,0,0
-203,351,0,0,0,0,0,0,0,0,0,-1,1021,673,0,0
-196,351,0,0,0,0,0,0,0,0,0,-1,1028,673,0,0
-189,351,0,0,0,0,0,0,0,0,0,-1,1035,673,0,0
-182,351,0,0,0,0,0,0,0,0,0,-1,1042,673,0,0
-175,351,0,0,0,0,0,0,0,0,0,-1,1049,673,0,0
-168,351,0,0,0,0,0,0,0,0,0,-1,1056,673,0,0
-161,351,0,0,0,0,0,0,0,0,0,-1,1063,673,0,0
-154,351,0,0,0,0,0,0,0,0,0,-1,1070,673,0,0
-147,351,0,0,0,0,0,0,0,0,0,-1,1077,673,0,0
-140,351,0,0,0,0,0,0,0,0,0,-1,1084,673,0,0
-133,351,0,0,0,0,0,0,0,0,0,-1,1091,673,0,0
-126,351,0,0,0,0,0,0,0,0,0,-1,1098,673,0,0
-119,351,0,0,0,0,0,0,0,0,0,-1,1105,673,0,0
-112,351,0,0,0,0,0,0,0,0,0,-1,1112,673,0,0
-105,351,0,0,0,0,0,0,0,0,0,-1,1119,673,0,0
-98,351,0,0,0,0,0,0,0,0,0,-1,1126,673,0,0
-91,351,0,0,0,0,0,0,0,0,0,-1,1133,673,0,0
-84,351,0,0,0,0,0,0,0,0,0,-1,1140,673,0,0
-77,351,0,0,0,0,0,0,0,0,0,-1,1147,673,0,0
-70,351,0,0,0,0,0,0,0,0,0,-1,1154,673,0,0
-63,351,0,0,0,0,0,0,0,0,0,-1,1161,673,0,0
-56,351,0,0,0,0,0,0,0,0,0,-1,1168,673,0,0
-49,351,0,0,0,0,0,0,0,0,0,-1,1175,673,0,0
-42,351,0,0,0,0,0,0,0,0,0,-1,1182,673,0,0
-35,351,0,0,0,0,0,0,0,0,0,-1,1189,673,0,0
-28,351,0,0,0,0,0,0,0,0,0,-1,1196,673,0,0
-21,351,0,0,0,0,0,0,0,0,0,-1,1203,673,0,0
-14,351,0,0,0,0,0,0,0,0,0,-1,1210,673,0,0
-7,351,0,0,0,0,0,0,0,0,0,-1,1217,673,0,0
0,351,0,0,0,0,0,0,0,0,0,-1,1224,673,0,0
7,351,0,0,0,0,0,0,0,0,0,-1,1231,673,0,0
14,351,0,0,0,0,0,0,0,0,0,-1,1238,673,0,0
21,351,0,0,0,0,0,0,0,0,0,-1,1245,673,0,0
28,351,0,0,0,0,0,0,0,0,0,-1,1252,673,0,0
35,351,0,0,0,0,0,0,0,0,0,-1,1259,673,0,0
42,351,0,0,0,0,0,0,0,0,0,-1,1266,673,0,0
49,351,0,0,0,0,0,0,0,0,0,-1,1273,673,0,0
56,351,0,0,0,0,0,0,0,0,0,-1,1280,673,0,0
63,351,0,0,0,0,0,0,0,0,0,-1,1287,673,0,0
70,351,0,0,0,0,0,0,0,0,0,-1,1294,673,0,0
77,351,0,0,0,0,0,0,0,0,0,-1,1301,673,0,0
84,351,0,0,0,0,0,0,0,0,0,-1,1308,673,0,0
91,351,0,0,0,0,0,0,0,0,0,-1,1315,673,0,0
98,351,0,0,0,0,0,0,0,0,0,-1,1322,673,0,0
105,351,0,0,0,0,0,0,0,0,0,-1,1329,673,0,0
112,351,0,0,0,0,0,0,0,0,0,-1,1336,673,0,0
119,351,0,0,0,0,0,0,0,0,0,-1,1343,673,0,0
126,351,0,0,0,0,0,0,0,0,0,-1,1350,673,0,0
133,351,0,0,0,0,0,0,0,0,0,-1,1357,673,0,0
140,351,0,0,0,0,0,0,0,0,0,-1,1364,673,0,0
147,351,0,0,0,0,0,0,0,0,0,-1,1371,673,0,0
154,351,0,0,0,0,0,0,0,0,0,-1,1378,673,0,0
161,351,0,0,0,0,0,0,0,0,0,-1,1385,673,0,0
168,351,0,0,0,0,0,0,0,0,0,-1,1392,673,0,0
175,351,0,0,0,0,0,0,0,0,0,-1,1399,673,0,0
182,351,0,0,0,0,0,0,0,0,0,-1,1406,673,0,0
189,351,0,0,0,0,0,0,0,0,0,-1,1413,673,0,0
196,351,0,0,0,0,0,0,0,0,0,-1,1420,673,0,0
203,351,0,0,0,0,0,0,0,0,0,-1,1427,673,0,0
210,351,0,0,0,0,0,0,0,0,0,-1,1434,673,0,0
217,351,0,0,0,0,0,0,0,0,0,-1,1441,673,0,0
224,351,0,0,0,0,0,0,0,0,0,-1,1448,673,0,0
231,351,0,0,0,0,0,0,0,0,0,-1,1455,673,0,0
238,351,0,0,0,0,0,0,0,0,0,-1,1462,673,0,0
245,351,0,0,0,0,0,0,0,0,0,-1,1469,673,0,0
252,351,0,0,0,0,0,0,0,0,0,-1,1476,673,0,0
259,351,0,0,0,0,0,0,0,0,0,-1,1483,673,0,0
266,351,0,0,0,0,0,0,0,0,0,-1,1490,673,0,0
273,351,0,0,0,0,0,0,0,0,0,-1,1497,673,0,0
280,351,0,0,0,0,0,0,0,0,0,-1,1504,673,0,0
287,351,0,0,0,0,0,0,0,0,0,-1,1511,673,0,0
294,351,0,0,0,0,0,0,0,0,0,-1,1518,673,0,0
301,351,0,0,0,0,0,0,0,0,0,-1,1525,673,0,0
308,351,0,0,0,0,0,0,0,0,0,-1,1532,673,0,0
315,351,0,0,0,0,0,0,0,0,0,-1,1539,673,0,0
322,351,0,0,0,0,0,0,0,0,0,-1,1546,673,0,0
329,351,0,0,0,0,0,0,0,0,0,-1,1553,673,0,0
336,351,0,0,0,0,0,0,0,0,0,-1,1560,673,0,0
343,351,0,0,0,0,0,0,0,0,0,-1,1567,673,0,0
350,351,0,0,0,0,0,0,0,0,0,-1,1574,673,0,0
357,351,0,0,0,0,0,0,0,0,0,-1,1581,673,0,0
364,351,0,0,0,0,0,0,0,0,0,-1,1588,673,0,0
371,351,0,0,0,0,0,0,0,0,0,-1,1595,673,0,0
378,351,0,0,0,0,0,0,0,0,0,-1,1602,673,0,0
385,351,0,0,0,0,0,0,0,0,0,-1,1609,673,0,0
392,351,0,0,0,0,0,0,0,0,0,-1,1616,673,0,0
399,351,0,0,0,0,0,0,0,0,0,-1,1623,673,0,0
406,351,0,0,0,0,0,0,0,0,0,-1,1630,673,0,0
413,351,0,0,0,0,0,0,0,0,0,-1,1637,673,0,0
420,351,0,0,0,0,0,0,0,0,0,-1,1644,673,0,0
427,351,0,0,0,0,0,0,0,0,0,-1,1651,673,0,0
434,351,0,0,0,0,0,0,0,0,0,-1,1658,673,0,0
441,351,0,0,0,0,0,0,0,0,0,-1,1665,673,0,0
448,351,0,0,0,0,0,0,0,0,0,-1,1672,673,0,0
455,351,0,0,0,0,0,0,0,0,0,-1,1679,673,0,0
462,351,0,0,0,0,0,0,0,0,0,-1,1686,673,0,0
469,351,0,0,0,0,0,0,0,0,0,-1,1693,673,0,0
476,351,0,0,0,0,0,0,0,0,0,-1,1700,673,0,0
483,351,0,0,0,0,0,0,0,0,0,-1,1707,673,0,0
490,351,0,0,0,0,0,0,0,0,0,-1,1714,673,0,0
497,351,0,0,0,0,0,0,0,0,0,-1,1721,673,0,0
504,351,10.8842,1.61615,0,0,0,0,0,0,0,-1,1728,673,10.8842,-1.61618
511,351,15.4548,0.0236816,0,0,0,0,0,0,0,-1,1735,673,15.4549,-0.0236664
518,351,16.7448,2.49268,0,0,0,0,0,0,0,-1,1742,673,16.7448,-2.49269
525,351,16.0701,3.43225,0,0,0,0,0,0,0,-1,1749,673,16.07,-3.43227
532,351,16.4181,3.33472,0,0,0,0,0,0,0,-1,1756,673,16.4181,-3.33473
539,351,15.3387,3.54486,0,0,0,0,0,0,0,-1,1763,673,15.3387,-3.54485
546,351,13.9387,4.59357,0,0,0,0,0,0,0,-1,1770,673,13.9388,-4.59359
553,351,12.0682,2.02832,0,0,0,0,0,0,0,-1,1777,673,12.0683,-2.02831
560,351,12.0173,0.55304,0,0,0,0,0,0,0,-1,1784,673,12.0174,-0.553028
567,351,10.7827,0.130188,0,0,0,0,0,0,0,-1,1791,673,10.7827,-0.130183
574,351,13.405,-1.09204,0,0,0,0,0,0,0,-1,1798,673,13.405,1.09207
581,351,13.0004,-2.09778,0,0,0,0,0,0,0,-1,1805,673,13.0004,2.09775
588,351,13.2039,-2.09149,-0.00247731,0.00140119,-0.000289222,0.00142264,-0.00249876,-1.49677,0.00229226,0.0415962,1812,673,13.2038,2.09147
595,351,13.2212,-1.84625,-0.0014881,0.000630051,-0.000305981,0.000673366,-0.00153141,-1.43017,0.00130467,0.0219611,1819,673,13.2212,1.84627
602,351,13.2563,-1.49176,-0.000657909,0.000384802,-0.000184908,0.000416621,-0.000689729,-1.40038,0.000645206,0.0174618,1826,673,13.2564,1.49175
609,351,13.2615,-1.17883,4.53603e-06,0.000392589,2.9641e-05,0.00039484,2.285e-06,1.495,0.000262468,0.0166113,1833,673,13.2615,1.17881
616,351,13.2268,-0.843933,0.000280455,0.0002284,-4.66963e-05,0.000307888,0.000200967,-0.531152,0.000180502,0.0140906,1840,673,13.2268,0.843928
623,351,13.2201,-0.526123,-1.83941e-05,0.000350947,-0.000224897,0.000457278,-0.000124725,-1.12915,0.000353832,0.0145638,1847,673,13.2201,0.526105
630,351,13.2333,-0.216797,-0.000856182,0.00031219,-0.000669473,0.000616524,-0.00116052,-1.14413,0.00104188,0.0239378,1854,673,13.2333,0.21677
637,351,13.2372,0.101501,-0.00217544,6.24057e-05,-0.00148265,0.000800964,-0.002914,-1.10864,0.00225753,0.0282347,1861,673,13.2372,-0.101523
644,351,13.2115,0.386597,-0.00413597,-0.00036091,-0.00267606,0.00102633,-0.0055232,-1.09255,0.00406764,0.0211406,1868,673,13.2116,-0.386588
651,351,13.2483,0.713562,-0.00661905,-0.00103782,-0.00423276,0.00124146,-0.00889833,-1.07684,0.00638639,0.0159562,1875,673,13.2483,-0.713558
658,351,13.2166,1.0578,-0.00970982,-0.00200991,-0.00621438,0.00145045,-0.0131702,-1.06272,0.00930138,0.0251088,1882,673,13.2165,-1.05781
665,351,12.889,1.15173,-0.0134933,-0.00332609,-0.0086252,0.00160217,-0.0184215,-1.05169,0.0128484,0.0326808,1889,673,12.8891,-1.15173
672,351,12.655,1.36652,0,0,0,0,0,0,0,-1,1896,673,12.6551,-1.36651
679,351,12.4382,2.06042,0,0,0,0,0,0,0,-1,1903,673,12.4383,-2.06043
686,351,13.0294,2.1189,0,0,0,0,0,0,0,-1,1910,673,13.0294,-2.11892
693,351,13.5187,2.34595,0,0,0,0,0,0,0,-1,1917,673,13.5187,-2.34596
700,351,14.5629,-2.40173,0,0,0,0,0,0,0,-1,1924,673,14.5629,2.40172
707,351,0,0,0,0,0,0,0,0,0,-1,1931,673,0,0
714,351,0,0,0,0,0,0,0,0,0,-1,1938,673,0,0
721,351,0,0,0,0,0,0,0,0,0,-1,1945,673,0,0
728,351,0,0,0,0,0,0,0,0,0,-1,1952,673,0,0
735,351,0,0,0,0,0,0,0,0,0,-1,1959,673,0,0
742,351,0,0,0,0,0,0,0,0,0,-1,1966,673,0,0
749,351,0,0,0,0,0,0,0,0,0,-1,1973,673,0,0
756,351,0,0,0,0,0,0,0,0,0,-1,1980,673,0,0
763,351,0,0,0,0,0,0,0,0,0,-1,1987,673,0,0
770,351,0,0,0,0,0,0,0,0,0,-1,1994,673,0,0
777,351,0,0,0,0,0,0,0,0,0,-1,2001,673,0,0
784,351,0,0,0,0,0,0,0,0,0,-1,2008,673,0,0
791,351,0,0,0,0,0,0,0,0,0,-1,2015,673,0,0
798,351,0,0,0,0,0,0,0,0,0,-1,2022,673,0,0
805,351,0,0,0,0,0,0,0,0,0,-1,2029,673,0,0
812,351,0,0,0,0,0,0,0,0,0,-1,2036,673,0,0
-700,344,0,0,0,0,0,0,0,0,0,-1,524,680,0,0
-693,344,0,0,0,0,0,0,0,0,0,-1,531,680,0,0
-686,344,0,0,0,0,0,0,0,0,0,-1,538,680,0,0
-679,344,0,0,0,0,0,0,0,0,0,-1,545,680,0,0
-672,344,0,0,0,0,0,0,0,0,0,-1,552,680,0,0
-665,344,0,0,0,0,0,0,0,0,0,-1,559,680,0,0
-658,344,0,0,0,0,0,0,0,0,0,-1,566,680,0,0
-651,344,0,0,0,0,0,0,0,0,0,-1,573,680,0,0
-644,344,0,0,0,0,0,0,0,0,0,-1,580,680,0,0
-637,344,0,0,0,0,0,0,0,0,0,-1,587,680,0,0
-630,344,0,0,0,0,0,0,0,0,0,-1,594,680,0,0
-623,344,0,0,0,0,0,0,0,0,0,-1,601,680,0,0
-616,344,0,0,0,0,0,0,0,0,0,-1,608,680,0,0
-609,344,0,0,0,0,0,0,0,0,0,-1,615,680,0,0
-602,344,0,0,0,0,0,0,0,0,0,-1,622,680,0,0
-595,344,0,0,0,0,0,0,0,0,0,-1,629,680,0,0
-588,344,-11.2776,7.35101,0,0,0,0,0,0,0,-1,636,680,-11.2777,-7.35101
-581,344,-5.76501,2.51282,0,0,0,0,0,0,0,-1,643,680,-5.76503,-2.51283
-574,344,-6.38953,2.31018,0,0,0,0,0,0,0,-1,650,680,-6.3895,-2.3102
-567,344,-7.40356,3.08148,0,0,0,0,0,0,0,-1,657,680,-7.40357,-3.08147
-560,344,-7.38385,2.44434,0,0,0,0,0,0,0,-1,664,680,-7.38382,-2.44431
-553,344,-7.36072,1.52063,0,0,0,0,0,0,0,-1,671,680,-7.36071,-1.52062
-546,344,-6.94025,0.285522,0.0136156,0.0425624,-0.0153958,0.0492198,0.00695819,-1.16266,0.0307573,0.0407894,678,680,-6.94026,-0.285507
-539,344,-7.06512,-0.508179,0.0114284,0.0288842,-0.0116459,0.0347097,0.00560287,-1.10697,0.0215167,0.0388967,685,680,-7.06515,0.508201
-532,344,-7.01984,-0.903809,0.00947745,0.0192037,-0.00861347,0.0242321,0.00444907,-1.04239,0.0148949,0.0231407,692,680,-7.01985,0.903807
-525,344,-7.15155,-1.15588,0.00773112,0.0124056,-0.00619502,0.0166896,0.00344712,-0.965782,0.0101739,0.019857,699,680,-7.15157,1.15586
-518,344,-7.14905,-1.47827,0.00621753,0.00769607,-0.00432188,0.0113415,0.00257215,-0.870105,0.0068661,0.0195124,706,680,-7.14904,1.47826
-511,344,-7.12634,-1.77142,0.00500381,0.00447736,-0.00295387,0.00770616,0.00177501,-0.74096,0.00465985,0.0167346,713,680,-7.12632,1.77144
-504,344,-7.13019,-2.08398,0.00396491,0.00163292,-0.00191899,0.00504437,0.00055346,-0.5124,0.00319445,0.0169985,720,680,-7.13018,2.08399
-497,344,-7.12421,-2.37408,0.00333641,0.000440685,-0.00124325,0.00379695,-1.98468e-05,-0.354755,0.00253794,0.0152499,727,680,-7.12421,2.3741
-490,344,-7.14807,-2.66333,0.00307057,9.02476e-05,-0.000981746,0.0033649,-0.000204082,-0.291275,0.00231429,0.0135662,734,680,-7.14808,2.66333
-483,344,-7.12311,-2.93805,0.00314925,0.000130671,-0.00100263,0.00345193,-0.000172008,-0.293184,0.00236071,0.0130023,741,680,-7.12309,2.93806
-476,344,-7.12073,-3.20746,0.00363171,0.000431251,-0.00131319,0.00410156,-3.85926e-05,-0.343596,0.00274732,0.0130344,748,680,-7.12075,3.20745
-469,344,-7.13556,-3.50482,0.00530246,0.000979539,-0.00204493,0.00611652,0.000165488,-0.378851,0.00402365,0.0129725,755,680,-7.13557,3.5048
-462,344,-7.12567,-3.86096,0.00756185,0.00169452,-0.00254677,0.00851308,0.000743293,-0.35746,0.00544456,0.0284222,762,680,-7.1257,3.86096
-455,344,-6.90173,-3.95392,0,0,0,0,0,0,0,-1,769,680,-6.90171,3.9539
-448,344,-5.67657,-2.72864,0,0,0,0,0,0,0,-1,776,680,-5.6766,2.72863
-441,344,-5.09229,-2.34167,0,0,0,0,0,0,0,-1,783,680,-5.09229,2.34168
-434,344,-4.28778,-2.08807,0,0,0,0,0,0,0,-1,790,680,-4.28778,2.08809
-427,344,-3.06506,-1.45404,0,0,0,0,0,0,0,-1,797,680,-3.06505,1.45402
-420,344,-1.96582,-1.57574,0,0,0,0,0,0,0,-1,804,680,-1.96579,1.57574
-413,344,-0.817993,-1.4751,0,0,0,0,0,0,0,-1,811,680,-0.818017,1.47511
-406,344,-0.00714111,-1.25189,0,0,0,0,0,0,0,-1,818,680,-0.00714956,1.25191
-399,344,0.240051,-1.75769,0,0,0,0,0,0,0,-1,825,680,0.240079,1.75767
-392,344,1.11353,-2.05615,0,0,0,0,0,0,0,-1,832,680,1.11351,2.05616
-385,344,0,0,0,0,0,0,0,0,0,-1,839,680,0,0
-378,344,0,0,0,0,0,0,0,0,0,-1,846,680,0,0
-371,344,0,0,0,0,0,0,0,0,0,-1,853,680,0,0
-364,344,0,0,0,0,0,0,0,0,0,-1,860,680,0,0
-357,344,0,0,0,0,0,0,0,0,0,-1,867,680,0,0
-350,344,0,0,0,0,0,0,0,0,0,-1,874,680,0,0
-343,344,0,0,0,0,0,0,0,0,0,-1,881,680,0,0
-336,344,0,0,0,0,0,0,0,0,0,-1,888,680,0,0
-329,344,0,0,0,0,0,0,0,0,0,-1,895,680,0,0
-322,344,0,0,0,0,0,0,0,0,0,-1,902,680,0,0
-315,344,0,0,0,0,0,0,0,0,0,-1,909,680,0,0
-308,344,0,0,0,0,0,0,0,0,0,-1,916,680,0,0
-301,344,0,0,0,0,0,0,0,0,0,-1,923,680,0,0
-294,344,0,0,0,0,0,0,0,0,0,-1,930,680,0,0
-287,344,0,0,0,0,0,0,0,0,0,-1,937,680,0,0
-280,344,0,0,0,0,0,0,0,0,0,-1,944,680,0,0
-273,344,0,0,0,0,0,0,0,0,0,-1,951,680,0,0
-266,344,0,0,0,0,0,0,0,0,0,-1,958,680,0,0
-259,344,0,0,0,0,0,0,0,0,0,-1,965,680,0,0
-252,344,0,0,0,0,0,0,0,0,0,-1,972,680,0,0
-245,344,0,0,0,0,0,0,0,0,0,-1,979,680,0,0
-238,344,0,0,0,0,0,0,0,0,0,-1,986,680,0,0
-231,344,0,0,0,0,0,0,0,0,0,-1,993,680,0,0
-224,344,0,0,0,0,0,0,0,0,0,-1,1000,680,0,0
-217,344,0,0,0,0,0,0,0,0,0,-1,1007,680,0,0
-210,344,0,0,0,0,0,0,0,0,0,-1,1014,680,0,0
-203,344,0,0,0,0,0,0,0,0,0,-1,1021,680,0,0
-196,344,0,0,0,0,0,0,0,0,0,-1,1028,680,0,0
-189,344,0,0,0,0,0,0,0,0,0,-1,1035,680,0,0
-182,344,0,0,0,0,0,0,0,0,0,-1,1042,680,0,0
-175,344,0,0,0,0,0,0,0,0,0,-1,1049,680,0,0
-168,344,0,0,0,0,0,0,0,0,0,-1,1056,680,0,0
-161,344,0,0,0,0,0,0,0,0,0,-1,1063,680,0,0
-154,344,0,0,0,0,0,0,0,0,0,-1,1070,680,0,0
-147,344,0,0,0,0,0,0,0,0,0,-1,1077,680,0,0
-140,344,0,0,0,0,0,0,0,0,0,-1,1084,680,0,0
-133,344,0,0,0,0,0,0,0,0,0,-1,1091,680,0,0
-126,344,0,0,0,0,0,0,0,0,0,-1,1098,680,0,0
-119,344,0,0,0,0,0,0,0,0,0,-1,1105,680,0,0
-112,344,0,0,0,0,0,0,0,0,0,-1,1112,680,0,0
-105,344,0,0,0,0,0,0,0,0,0,-1,1119,680,0,0
-98,344,0,0,0,0,0,0,0,0,0,-1,1126,680,0,0
-91,344,0,0,0,0,0,0,0,0,0,-1,1133,680,0,0
-84,344,0,0,0,0,0,0,0,0,0,-1,1140,680,0,0
-77,344,0,0,0,0,0,0,0,0,0,-1,1147,680,0,0
-70,344,0,0,0,0,0,0,0,0,0,-1,1154,680,0,0
-63,344,0,0,0,0,0,0,0,0,0,-1,1161,680,0,0
-56,344,0,0,0,0,0,0,0,0,0,-1,1168,680,0,0
-49,344,0,0,0,0,0,0,0,0,0,-1,1175,680,0,0
-42,344,0,0,0,0,0,0,0,0,0,-1,1182,680,0,0
-35,344,0,0,0,0,0,0,0,0,0,-1,1189,680,0,0
-28,344,0,0,0,0,0,0,0,0,0,-1,1196,680,0,0
-21,344,0,0,0,0,0,0,0,0,0,-1,1203,680,0,0
-14,344,0,0,0,0,0,0,0,0,0,-1,1210,680,0,0
-7,344,0,0,0,0,0,0,0,0,0,-1,1217,680,0,0
0,344,0,0,0,0,0,0,0,0,0,-1,1224,680,0,0
7,344,0,0,0,0,0,0,0,0,0,-1,1231,680,0,0
14,344,0,0,0,0,0,0,0,0,0,-1,1238,680,0,0
21,344,0,0,0,0,0,0,0,0,0,-1,1245,680,0,0
28,344,0,0,0,0,0,0,0,0,0,-1,1252,680,0,0
35,344,0,0,0,0,0,0,0,0,0,-1,1259,680,0,0
42,344,0,0,0,0,0,0,0,0,0,-1,1266,680,0,0
49,344,0,0,0,0,0,0,0,0,0,-1,1273,680,0,0
56,344,0,0,0,0,0,0,0,0,0,-1,1280,680,0,0
63,344,0,0,0,0,0,0,0,0,0,-1,1287,680,0,0
70,344,0,0,0,0,0,0,0,0,0,-1,1294,680,0,0
77,344,0,0,0,0,0,0,0,0,0,-1,1301,680,0,0
84,344,0,0,0,0,0,0,0,0,0,-1,1308,680,0,0
91,344,0,0,0,0,0,0,0,0,0,-1,1315,680,0,0
98,344,0,0,0,0,0,0,0,0,0,-1,1322,680,0,0
105,344,0,0,0,0,0,0,0,0,0,-1,1329,680,0,0
112,344,0,0,0,0,0,0,0,0,0,-1,1336,680,0,0
119,344,0,0,0,0,0,0,0,0,0,-1,1343,680,0,0
126,344,0,0,0,0,0,0,0,0,0,-1,1350,680,0,0
133,344,0,0,0,0,0,0,0,0,0,-1,1357,680,0,0
140,344,0,0,0,0,0,0,0,0,0,-1,1364,680,0,0
147,344,0,0,0,0,0,0,0,0,0,-1,1371,680,0,0
154,344,0,0,0,0,0,0,0,0,0,-1,1378,680,0,0
161,344,0,0,0,0,0,0,0,0,0,-1,1385,680,0,0
168,344,0,0,0,0,0,0,0,0,0,-1,1392,680,0,0
175,344,0,0,0,0,0,0,0,0,0,-1,1399,680,0,0
182,344,0,0,0,0,0,0,0,0,0,-1,1406,680,0,0
189,344,0,0,0,0,0,0,0,0,0,-1,1413,680,0,0
196,344,0,0,0,0,0,0,0,0,0,-1,1420,680,0,0
203,344,0,0,0,0,0,0,0,0,0,-1,1427,680,0,0
210,344,0,0,0,0,0,0,0,0,0,-1,1434,680,0,0
217,344,0,0,0,0,0,0,0,0,0,-1,1441,680,0,0
224,344,0,0,0,0,0,0,0,0,0,-1,1448,680,0,0
231,344,0,0,0,0,0,0,0,0,0,-1,1455,680,0,0
238,344,0,0,0,0,0,0,0,0,0,-1,1462,680,0,0
245,344,0,0,0,0,0,0,0,0,0,-1,1469,680,0,0
252,344,0,0,0,0,0,0,0,0,0,-1,1476,680,0,0
259,344,0,0,0,0,0,0,0,0,0,-1,1483,680,0,0
266,344,0,0,0,0,0,0,0,0,0,-1,1490,680,0,0
273,344,0,0,0,0,0,0,0,0,0,-1,1497,680,0,0
280,344,0,0,0,0,0,0,0,0,0,-1,1504,680,0,0
287,344,0,0,0,0,0,0,0,0,0,-1,1511,680,0,0
294,344,0,0,0,0,0,0,0,0,0,-1,1518,680,0,0
301,344,0,0,0,0,0,0,0,0,0,-1,1525,680,0,0
308,344,0,0,0,0,0,0,0,0,0,-1,1532,680,0,0
315,344,0,0,0,0,0,0,0,0,0,-1,1539,680,0,0
322,344,0,0,0,0,0,0,0,0,0,-1,1546,680,0,0
329,344,0,0,0,0,0,0,0,0,0,-1,1553,680,0,0
336,344,0,0,0,0,0,0,0,0,0,-1,1560,680,0,0
343,344,0,0,0,0,0,0,0,0,0,-1,1567,680,0,0
350,344,0,0,0,0,0,0,0,0,0,-1,1574,680,0,0
357,344,0,0,0,0,0,0,0,0,0,-1,1581,680,0,0
364,344,0,0,0,0,0,0,0,0,0,-1,1588,680,0,0
371,344,0,0,0,0,0,0,0,0,0,-1,1595,680,0,0
378,344,0,0,0,0,0,0,0,0,0,-1,1602,680,0,0
385,344,0,0,0,0,0,0,0,0,0,-1,1609,680,0,0
392,344,0,0,0,0,0,0,0,0,0,-1,1616,680,0,0
399,344,0,0,0,0,0,0,0,0,0,-1,1623,680,0,0
406,344,0,0,0,0,0,0,0,0,0,-1,1630,680,0,0
413,344,0,0,0,0,0,0,0,0,0,-1,1637,680,0,0
420,344,0,0,0,0,0,0,0,0,0,-1,1644,680,0,0
427,344,0,0,0,0,0,0,0,0,0,-1,1651,680,0,0
434,344,0,0,0,0,0,0,0,0,0,-1,1658,680,0,0
441,344,0,0,0,0,0,0,0,0,0,-1,1665,680,0,0
448,344,0,0,0,0,0,0,0,0,0,-1,1672,680,0,0
455,344,0,0,0,0,0,0,0,0,0,-1,1679,680,0,0
462,344,0,0,0,0,0,0,0,0,0,-1,1686,680,0,0
469,344,0,0,0,0,0,0,0,0,0,-1,1693,680,0,0
476,344,0,0,0,0,0,0,0,0,0,-1,1700,680,0,0
483,344,0,0,0,0,0,0,0,0,0,-1,1707,680,0,0
490,344,0,0,0,0,0,0,0,0,0,-1,1714,680,0,0
497,344,0,0,0,0,0,0,0,0,0,-1,1721,680,0,0
504,344,0,0,0,0,0,0,0,0,0,-1,1728,680,0,0
511,344,15.4819,0.452637,0,0,0,0,0,0,0,-1,1735,680,15.4819,-0.452656
518,344,17.1357,2.31207,0,0,0,0,0,0,0,-1,1742,680,17.1358,-2.31207
525,344,16.4807,2.83368,0,0,0,0,0,0,0,-1,1749,680,16.4807,-2.83368
532,344,19.5029,6.32385,0,0,0,0,0,0,0,-1,1756,680,19.503,-6.32388
539,344,15.3691,3.78113,0,0,0,0,0,0,0,-1,1763,680,15.3691,-3.78113
546,344,14.6722,4.30243,0,0,0,0,0,0,0,-1,1770,680,14.6722,-4.30241
553,344,14.8136,4.35681,0,0,0,0,0,0,0,-1,1777,680,14.8136,-4.35679
560,344,11.9363,2.14185,0,0,0,0,0,0,0,-1,1784,680,11.9362,-2.14182
567,344,11.397,0.925842,0,0,0,0,0,0,0,-1,1791,680,11.397,-0.92583
574,344,10.0004,0.504639,0,0,0,0,0,0,0,-1,1798,680,10.0004,-0.504645
581,344,13.6709,-0.969604,0,0,0,0,0,0,0,-1,1805,680,13.6709,0.969629
588,344,13.6519,-2.17633,0,0,0,0,0,0,0,-1,1812,680,13.6518,2.1763
595,344,13.5624,-1.84991,0,0,0,0,0,0,0,-1,1819,680,13.5624,1.8499
602,344,13.6158,-1.47131,-0.000547959,0.000252437,-6.57705e-05,0.000257805,-0.000553328,-1.48935,0.000478556,0.0329092,1826,680,13.6159,1.47131
609,344,13.5835,-1.13348,0.000177714,0.000165439,0.000113152,0.000284894,5.82583e-05,0.758304,0.000173796,0.0151996,1833,680,13.5835,1.13345
616,344,13.5629,-0.809326,0.000504677,-3.38231e-05,5.08647e-05,0.000509439,-3.85855e-05,0.0933561,0.000353191,0.0209357,1840,680,13.5629,0.80932
623,344,13.5338,-0.520081,0.000147552,1.74573e-05,-0.00018924,0.000282612,-0.000117603,-0.619859,0.00023752,0.0181858,1847,680,13.5338,0.520052
630,344,13.5557,-0.226746,-0.000673347,-6.64362e-05,-0.000658264,0.000354951,-0.00109473,-1.00138,0.000872546,0.0244714,1854,680,13.5556,0.226728
637,344,13.5677,0.0930786,-0.00189394,-0.000333069,-0.00143227,0.00051759,-0.0027446,-1.03486,0.00202444,0.0239816,1861,680,13.5678,-0.0930748
644,344,13.5602,0.396118,-0.0036773,-0.000736637,-0.00254588,0.000732996,-0.00514693,-1.04727,0.0036999,0.0158087,1868,680,13.5602,-0.396113
651,344,13.5448,0.709473,-0.00582663,-0.00137106,-0.00391645,0.000906885,-0.00810458,-1.04399,0.00572932,0.0112081,1875,680,13.5448,-0.709463
658,344,13.5369,1.07928,-0.00831995,-0.00215239,-0.00552601,0.00109206,-0.0115644,-1.0399,0.0080982,0.0182913,1882,680,13.5369,-1.07929
665,344,13.4563,1.36877,-0.011337,-0.00319204,-0.00746373,0.00123798,-0.015767,-1.03514,0.0109473,0.0281056,1889,680,13.4563,-1.36876
672,344,13.4988,1.55896,-0.0149988,-0.00459433,-0.00989928,0.00138642,-0.0209795,-1.02732,0.0144706,0.0236012,1896,680,13.4987,-1.55894
679,344,13.5117,1.71228,0,0,0,0,0,0,0,-1,1903,680,13.5117,-1.71228
686,344,13.5959,2.00085,0,0,0,0,0,0,0,-1,1910,680,13.596,-2.00088
693,344,12.4362,-1.42346,0,0,0,0,0,0,0,-1,1917,680,12.4361,1.42348
700,344,17.5396,2.61206,0,0,0,0,0,0,0,-1,1924,680,17.5396,-2.61204
707,344,18.5829,3.29352,0,0,0,0,0,0,0,-1,1931,680,18.5828,-3.2935
714,344,0,0,0,0,0,0,0,0,0,-1,1938,680,0,0
721,344,0,0,0,0,0,0,0,0,0,-1,1945,680,0,0
728,344,0,0,0,0,0,0,0,0,0,-1,1952,680,0,0
735,344,0,0,0,0,0,0,0,0,0,-1,1959,680,0,0
742,344,0,0,0,0,0,0,0,0,0,-1,1966,680,0,0
749,344,0,0,0,0,0,0,0,0,0,-1,1973,680,0,0
756,344,0,0,0,0,0,0,0,0,0,-1,1980,680,0,0
763,344,0,0,0,0,0,0,0,0,0,-1,1987,680,0,0
770,344,0,0,0,0,0,0,0,0,0,-1,1994,680,0,0
777,344,0,0,0,0,0,0,0,0,0,-1,2001,680,0,0
784,344,0,0,0,0,0,0,0,0,0,-1,2008,680,0,0
791,344,0,0,0,0,0,0,0,0,0,-1,2015,680,0,0
798,344,0,0,0,0,0,0,0,0,0,-1,2022,680,0,0
805,344,0,0,0,0,0,0,0,0,0,-1,2029,680,0,0
812,344,0,0,0,0,0,0,0,0,0,-1,2036,680,0,0
-700,337,0,0,0,0,0,0,0,0,0,-1,524,687,0,0
-693,337,0,0,0,0,0,0,0,0,0,-1,531,687,0,0
-686,337,0,0,0,0,0,0,0,0,0,-1,538,687,0,0
-679,337,0,0,0,0,0,0,0,0,0,-1,545,687,0,0
-672,337,0,0,0,0,0,0,0,0,0,-1,552,687,0,0
-665,337,0,0,0,0,0,0,0,0,0,-1,559,687,0,0
-658,337,0,0,0,0,0,0,0,0,0,-1,566,687,0,0
-651,337,0,0,0,0,0,0,0,0,0,-1,573,687,0,0
-644,337,0,0,0,0,0,0,0,0,0,-1,580,687,0,0
-637,337,0,0,0,0,0,0,0,0,0,-1,587,687,0,0
-630,337,0,0,0,0,0,0,0,0,0,-1,594,687,0,0
-623,337,0,0,0,0,0,0,0,0,0,-1,601,687,0,0
-616,337,0,0,0,0,0,0,0,0,0,-1,608,687,0,0
-609,337,0,0,0,0,0,0,0,0,0,-1,615,687,0,0
-602,337,0,0,0,0,0,0,0,0,0,-1,622,687,0,0
-595,337,0,0,0,0,0,0,0,0,0,-1,629,687,0,0
-588,337,-11.6191,7.41553,0,0,0,0,0,0,0,-1,636,687,-11.6191,-7.41553
-581,337,-10.4758,5.91254,0,0,0,0,0,0,0,-1,643,687,-10.4758,-5.91253
-574,337,-10.0638,4.36536,0,0,0,0,0,0,0,-1,650,687,-10.0638,-4.36536
-567,337,-7.76715,2.22589,0,0,0,0,0,0,0,-1,657,687,-7.76718,-2.22588
-560,337,-7.67389,1.66241,0.0093254,0.0751365,-0.0176548,0.0795735,0.00488838,-1.32458,0.0514969,0.0435829,664,687,-7.67391,-1.66238
-553,337,-7.56116,0.945618,0.00881974,0.0529186,-0.0141949,0.0570927,0.00464563,-1.2848,0.0366117,0.0422206,671,687,-7.56117,-0.945623
-546,337,-7.44434,0.115784,0.00795587,0.0367561,-0.0111505,0.0405685,0.00414341,-1.24135,0.0257758,0.0363063,678,687,-7.44436,-0.115779
-539,337,-7.34045,-0.561035,0.00701504,0.0252717,-0.00858932,0.0286774,0.0036093,-1.1933,0.018036,0.0241562,685,687,-7.34044,0.561033
-532,337,-7.38678,-0.914612,0.00610211,0.0169563,-0.00643944,0.0199506,0.00310782,-1.13555,0.012395,0.0154504,692,687,-7.38676,0.91462
-525,337,-7.45331,-1.20776,0.00523857,0.0109901,-0.00467763,0.0136052,0.00262341,-1.06101,0.00833446,0.0147275,699,687,-7.4533,1.20778
-518,337,-7.46075,-1.49231,0.00445691,0.00674143,-0.00328807,0.00908,0.00211834,-0.952574,0.0054853,0.0232709,706,687,-7.46077,1.49233
-511,337,-7.43207,-1.76685,0.00385949,0.0038032,-0.00228837,0.00611989,0.0015428,-0.779248,0.00367523,0.0237471,713,687,-7.43204,1.76684
-504,337,-7.42438,-2.0636,0.00333857,0.00127719,-0.00144898,0.00408604,0.000529723,-0.476256,0.00256575,0.0231379,720,687,-7.42435,2.0636
-497,337,-7.40973,-2.36499,0.00319101,0.000282455,-0.000753038,0.00337442,9.90544e-05,-0.238896,0.00221733,0.0162878,727,687,-7.40975,2.36497
-490,337,-7.44543,-2.66888,0.00330467,3.53819e-05,-0.000359426,0.00334372,-3.66708e-06,-0.108218,0.00223037,0.014076,734,687,-7.44544,2.6689
-483,337,-7.43793,-2.94818,0.00375338,0.000182567,-4.93014e-05,0.00375406,0.000181886,-0.0138033,0.00244433,0.0140507,741,687,-7.43795,2.94816
-476,337,-7.41473,-3.23749,0.00462143,0.000601492,0.000254991,0.00463754,0.000585383,0.0630944,0.00291622,0.0124885,748,687,-7.41475,3.2375
-469,337,-7.40918,-3.58453,0.0067023,0.00132673,0.000563629,0.00676076,0.00126827,0.103353,0.00414953,0.0240986,755,687,-7.40917,3.58454
-462,337,-7.30579,-3.80719,0,0,0,0,0,0,0,-1,762,687,-7.30579,3.80716
-455,337,-6.00574,-3.12933,0,0,0,0,0,0,0,-1,769,687,-6.00576,3.12934
-448,337,-5.30627,-2.07202,0,0,0,0,0,0,0,-1,776,687,-5.30628,2.07205
-441,337,-4.24762,-1.49597,0,0,0,0,0,0,0,-1,783,687,-4.24762,1.49598
-434,337,-6.86908,1.37531,0,0,0,0,0,0,0,-1,790,687,-6.86908,-1.3753
-427,337,-9.92004,2.487,0,0,0,0,0,0,0,-1,797,687,-9.92002,-2.48701
-420,337,-2.95996,-1.76697,0,0,0,0,0,0,0,-1,804,687,-2.95998,1.76696
-413,337,-1.29169,-1.99487,0,0,0,0,0,0,0,-1,811,687,-1.29171,1.9949
-406,337,-1.02356,-1.89563,0,0,0,0,0,0,0,-1,818,687,-1.02357,1.89564
-399,337,-0.472839,-2.21338,0,0,0,0,0,0,0,-1,825,687,-0.472837,2.2134
-392,337,0,0,0,0,0,0,0,0,0,-1,832,687,0,0
-385,337,0,0,0,0,0,0,0,0,0,-1,839,687,0,0
-378,337,0,0,0,0,0,0,0,0,0,-1,846,687,0,0
-371,337,0,0,0,0,0,0,0,0,0,-1,853,687,0,0
-364,337,0,0,0,0,0,0,0,0,0,-1,860,687,0,0
-357,337,0,0,0,0,0,0,0,0,0,-1,867,687,0,0
-350,337,0,0,0,0,0,0,0,0,0,-1,874,687,0,0
-343,337,0,0,0,0,0,0,0,0,0,-1,881,687,0,0
-336,337,0,0,0,0,0,0,0,0,0,-1,888,687,0,0
-329,337,0,0,0,0,0,0,0,0,0,-1,895,687,0,0
-322,337,0,0,0,0,0,0,0,0,0,-1,902,687,0,0
-315,337,0,0,0,0,0,0,0,0,0,-1,909,687,0,0
-308,337,0,0,0,0,0,0,0,0,0,-1,916,687,0,0
-301,337,0,0,0,0,0,0,0,0,0,-1,923,687,0,0
-294,337,0,0,0,0,0,0,0,0,0,-1,930,687,0,0
-287,337,0,0,0,0,0,0,0,0,0,-1,937,687,0,0
-280,337,0,0,0,0,0,0,0,0,0,-1,944,687,0,0
-273,337,0,0,0,0,0,0,0,0,0,-1,951,687,0,0
-266,337,0,0,0,0,0,0,0,0,0,-1,958,687,0,0
-259,337,0,0,0,0,0,0,0,0,0,-1,965,687,0,0
-252,337,0,0,0,0,0,0,0,0,0,-1,972,687,0,0
-245,337,0,0,0,0,0,0,0,0,0,-1,979,687,0,0
-238,337,0,0,0,0,0,0,0,0,0,-1,986,687,0,0
-231,337,0,0,0,0,0,0,0,0,0,-1,993,687,0,0
-224,337,0,0,0,0,0,0,0,0,0,-1,1000,687,0,0
-217,337,0,0,0,0,0,0,0,0,0,-1,1007,687,0,0
-210,337,0,0,0,0,0,0,0,0,0,-1,1014,687,0,0
-203,337,0,0,0,0,0,0,0,0,0,-1,1021,687,0,0
-196,337,0,0,0,0,0,0,0,0,0,-1,1028,687,0,0
-189,337,0,0,0,0,0,0,0,0,0,-1,1035,687,0,0
-182,337,0,0,0,0,0,0,0,0,0,-1,1042,687,0,0
-175,337,0,0,0,0,0,0,0,0,0,-1,1049,687,0,0
-168,337,0,0,0,0,0,0,0,0,0,-1,1056,687,0,0
-161,337,0,0,0,0,0,0,0,0,0,-1,1063,687,0,0
-154,337,0,0,0,0,0,0,0,0,0,-1,1070,687,0,0
-147,337,0,0,0,0,0,0,0,0,0,-1,1077,687,0,0
-140,337,0,0,0,0,0,0,0,0,0,-1,1084,687,0,0
-133,337,0,0,0,0,0,0,0,0,0,-1,1091,687,0,0
-126,337,0,0,0,0,0,0,0,0,0,-1,1098,687,0,0
-119,337,0,0,0,0,0,0,0,0,0,-1,1105,687,0,0
-112,337,0,0,0,0,0,0,0,0,0,-1,1112,687,0,0
-105,337,0,0,0,0,0,0,0,0,0,-1,1119,687,0,0
-98,337,0,0,0,0,0,0,0,0,0,-1,1126,687,0,0
-91,337,0,0,0,0,0,0,0,0,0,-1,1133,687,0,0
-84,337,0,0,0,0,0,0,0,0,0,-1,1140,687,0,0
-77,337,0,0,0,0,0,0,0,0,0,-1,1147,687,0,0
-70,337,0,0,0,0,0,0,0,0,0,-1,1154,687,0,0
-63,337,0,0,0,0,0,0,0,0,0,-1,1161,687,0,0
-56,337,0,0,0,0,0,0,0,0,0,-1,1168,687,0,0
-49,337,0,0,0,0,0,0,0,0,0,-1,1175,687,0,0
-42,337,0,0,0,0,0,0,0,0,0,-1,1182,687,0,0
-35,337,0,0,0,0,0,0,0,0,0,-1,1189,687,0,0
-28,337,0,0,0,0,0,0,0,0,0,-1,1196,687,0,0
-21,337,0,0,0,0,0,0,0,0,0,-1,1203,687,0,0
-14,337,0,0,0,0,0,0,0,0,0,-1,1210,687,0,0
-7,337,0,0,0,0,0,0,0,0,0,-1,1217,687,0,0
0,337,0,0,0,0,0,0,0,0,0,-1,1224,687,0,0
7,337,0,0,0,0,0,0,0,0,0,-1,1231,687,0,0
14,337,0,0,0,0,0,0,0,0,0,-1,1238,687,0,0
21,337,0,0,0,0,0,0,0,0,0,-1,1245,687,0,0
28,337,0,0,0,0,0,0,0,0,0,-1,1252,687,0,0
35,337,0,0,0,0,0,0,0,0,0,-1,1259,687,0,0
42,337,0,0,0,0,0,0,0,0,0,-1,1266,687,0,0
49,337,0,0,0,0,0,0,0,0,0,-1,1273,687,0,0
56,337,0,0,0,0,0,0,0,0,0,-1,1280,687,0,0
63,337,0,0,0,0,0,0,0,0,0,-1,1287,687,0,0
70,337,0,0,0,0,0,0,0,0,0,-1,1294,687,0,0
77,337,0,0,0,0,0,0,0,0,0,-1,1301,687,0,0
84,337,0,0,0,0,0,0,0,0,0,-1,1308,687,0,0
91,337,0,0,0,0,0,0,0,0,0,-1,1315,687,0,0
98,337,0,0,0,0,0,0,0,0,0,-1,1322,687,0,0
105,337,0,0,0,0,0,0,0,0,0,-1,1329,687,0,0
112,337,0,0,0,0,0,0,0,0,0,-1,1336,687,0,0
119,337,0,0,0,0,0,0,0,0,0,-1,1343,687,0,0
126,337,0,0,0,0,0,0,0,0,0,-1,1350,687,0,0
133,337,0,0,0,0,0,0,0,0,0,-1,1357,687,0,0
140,337,0,0,0,0,0,0,0,0,0,-1,1364,687,0,0
147,337,0,0,0,0,0,0,0,0,0,-1,1371,687,0,0
154,337,0,0,0,0,0,0,0,0,0,-1,1378,687,0,0
161,337,0,0,0,0,0,0,0,0,0,-1,1385,687,0,0
168,337,0,0,0,0,0,0,0,0,0,-1,1392,687,0,0
175,337,0,0,0,0,0,0,0,0,0,-1,1399,687,0,0
182,337,0,0,0,0,0,0,0,0,0,-1,1406,687,0,0
189,337,0,0,0,0,0,0,0,0,0,-1,1413,687,0,0
196,337,0,0,0,0,0,0,0,0,0,-1,1420,687,0,0
203,337,0,0,0,0,0,0,0,0,0,-1,1427,687,0,0
210,337,0,0,0,0,0,0,0,0,0,-1,1434,687,0,0
217,337,0,0,0,0,0,0,0,0,0,-1,1441,687,0,0
224,337,0,0,0,0,0,0,0,0,0,-1,1448,687,0,0
231,337,0,0,0,0,0,0,0,0,0,-1,1455,687,0,0
238,337,0,0,0,0,0,0,0,0,0,-1,1462,687,0,0
245,337,0,0,0,0,0,0,0,0,0,-1,1469,687,0,0
252,337,0,0,0,0,0,0,0,0,0,-1,1476,687,0,0
259,337,0,0,0,0,0,0,0,0,0,-1,1483,687,0,0
266,337,0,0,0,0,0,0,0,0,0,-1,1490,687,0,0
273,337,0,0,0,0,0,0,0,0,0,-1,1497,687,0,0
280,337,0,0,0,0,0,0,0,0,0,-1,1504,687,0,0
287,337,0,0,0,0,0,0,0,0,0,-1,1511,687,0,0
294,337,0,0,0,0,0,0,0,0,0,-1,1518,687,0,0
301,337,0,0,0,0,0,0,0,0,0,-1,1525,687,0,0
308,337,0,0,0,0,0,0,0,0,0,-1,1532,687,0,0
315,337,0,0,0,0,0,0,0,0,0,-1,1539,687,0,0
322,337,0,0,0,0,0,0,0,0,0,-1,1546,687,0,0
329,337,0,0,0,0,0,0,0,0,0,-1,1553,687,0,0
336,337,0,0,0,0,0,0,0,0,0,-1,1560,687,0,0
343,337,0,0,0,0,0,0,0,0,0,-1,1567,687,0,0
350,337,0,0,0,0,0,0,0,0,0,-1,1574,687,0,0
357,337,0,0,0,0,0,0,0,0,0,-1,1581,687,0,0
364,337,0,0,0,0,0,0,0,0,0,-1,1588,687,0,0
371,337,0,0,0,0,0,0,0,0,0,-1,1595,687,0,0
378,337,0,0,0,0,0,0,0,0,0,-1,1602,687,0,0
385,337,0,0,0,0,0,0,0,0,0,-1,1609,687,0,0
392,337,0,0,0,0,0,0,0,0,0,-1,1616,687,0,0
399,337,0,0,0,0,0,0,0,0,0,-1,1623,687,0,0
406,337,0,0,0,0,0,0,0,0,0,-1,1630,687,0,0
413,337,0,0,0,0,0,0,0,0,0,-1,1637,687,0,0
420,337,0,0,0,0,0,0,0,0,0,-1,1644,687,0,0
427,337,0,0,0,0,0,0,0,0,0,-1,1651,687,0,0
434,337,0,0,0,0,0,0,0,0,0,-1,1658,687,0,0
441,337,0,0,0,0,0,0,0,0,0,-1,1665,687,0,0
448,337,0,0,0,0,0,0,0,0,0,-1,1672,687,0,0
455,337,0,0,0,0,0,0,0,0,0,-1,1679,687,0,0
462,337,0,0,0,0,0,0,0,0,0,-1,1686,687,0,0
469,337,0,0,0,0,0,0,0,0,0,-1,1693,687,0,0
476,337,0,0,0,0,0,0,0,0,0,-1,1700,687,0,0
483,337,0,0,0,0,0,0,0,0,0,-1,1707,687,0,0
490,337,0,0,0,0,0,0,0,0,0,-1,1714,687,0,0
497,337,0,0,0,0,0,0,0,0,0,-1,1721,687,0,0
504,337,0,0,0,0,0,0,0,0,0,-1,1728,687,0,0
511,337,0,0,0,0,0,0,0,0,0,-1,1735,687,0,0
518,337,18.0369,1.64581,0,0,0,0,0,0,0,-1,1742,687,18.0368,-1.64581
525,337,21.0253,4.16956,0,0,0,0,0,0,0,-1,1749,687,21.0253,-4.16956
532,337,20.4332,5.16278,0,0,0,0,0,0,0,-1,1756,687,20.4333,-5.16281
539,337,19.9229,6.04456,0,0,0,0,0,0,0,-1,1763,687,19.9228,-6.04456
546,337,15.0701,4.06219,0,0,0,0,0,0,0,-1,1770,687,15.0701,-4.06219
553,337,19.068,3.61273,0,0,0,0,0,0,0,-1,1777,687,19.068,-3.6127
560,337,18.4053,3.62793,0,0,0,0,0,0,0,-1,1784,687,18.4052,-3.6279
567,337,11.9288,1.38776,0,0,0,0,0,0,0,-1,1791,687,11.9288,-1.38777
574,337,10.704,1.19476,0,0,0,0,0,0,0,-1,1798,687,10.704,-1.19478
581,337,8.50427,0.561768,0,0,0,0,0,0,0,-1,1805,687,8.5043,-0.561754
588,337,8.5885,-0.0536499,0,0,0,0,0,0,0,-1,1812,687,8.58844,0.0536788
595,337,12.7583,-1.51886,0,0,0,0,0,0,0,-1,1819,687,12.7583,1.51888
602,337,13.8577,-1.4787,0,0,0,0,0,0,0,-1,1826,687,13.8576,1.47867
609,337,13.889,-1.08209,0.000392105,-3.14179e-06,0.000230141,0.00049783,-0.000108866,0.430634,0.000373502,0.023069,1833,687,13.8891,1.08206
616,337,13.875,-0.801514,0.000966333,-0.000173469,0.000303088,0.00104192,-0.000249052,0.244392,0.00079081,0.0170716,1840,687,13.8749,0.801492
623,337,13.8762,-0.49939,0.000610151,-0.000157016,5.35775e-05,0.000613875,-0.00016074,0.0693892,0.000472042,0.0153834,1847,687,13.8762,0.499365
630,337,13.8623,-0.203735,-0.000137092,-0.000243121,-0.000395069,0.000208504,-0.000588717,-0.718701,0.000477406,0.0195024,1854,687,13.8623,0.20372
637,337,13.8824,0.0994263,-0.00124241,-0.000487005,-0.00110044,0.000298743,-0.00202816,-0.950713,0.0014619,0.0175053,1861,687,13.8825,-0.099444
644,337,13.8781,0.419434,-0.00286698,-0.000840343,-0.00211322,0.00048995,-0.00419727,-1.00896,0.00297498,0.0113723,1868,687,13.8781,-0.419441
651,337,13.8477,0.725281,-0.00474413,-0.00139717,-0.00331056,0.000638844,-0.00678014,-1.01942,0.00474739,0.00995854,1875,687,13.8477,-0.725311
658,337,13.8441,1.04358,-0.00672678,-0.00199025,-0.0046198,0.00083294,-0.00954997,-1.02225,0.00666168,0.0109094,1882,687,13.8441,-1.0436
665,337,13.8558,1.34662,-0.00914324,-0.0027802,-0.00619315,0.00100084,-0.0129243,-1.02268,0.00896843,0.0128543,1889,687,13.8558,-1.34663
672,337,13.8208,1.60052,-0.0119032,-0.00378058,-0.00806045,0.0011839,-0.0168677,-1.01876,0.0116598,0.0190096,1896,687,13.8208,-1.60054
679,337,13.7023,1.79926,-0.0150904,-0.00503214,-0.0101908,0.00130295,-0.0214254,-1.01461,0.0147372,0.0388264,1903,687,13.7022,-1.79923
686,337,13.5059,2.30121,0,0,0,0,0,0,0,-1,1910,687,13.5059,-2.3012
693,337,13.7977,3.25104,0,0,0,0,0,0,0,-1,1917,687,13.7977,-3.25103
700,337,17.2661,2.44379,0,0,0,0,0,0,0,-1,1924,687,17.2661,-2.44378
707,337,17.3544,5.61853,0,0,0,0,0,0,0,-1,1931,687,17.3543,-5.61851
714,337,0,0,0,0,0,0,0,0,0,-1,1938,687,0,0
721,337,0,0,0,0,0,0,0,0,0,-1,1945,687,0,0
728,337,0,0,0,0,0,0,0,0,0,-1,1952,687,0,0
735,337,0,0,0,0,0,0,0,0,0,-1,1959,687,0,0
742,337,0,0,0,0,0,0,0,0,0,-1,1966,687,0,0
749,337,0,0,0,0,0,0,0,0,0,-1,1973,687,0,0
756,337,0,0,0,0,0,0,0,0,0,-1,1980,687,0,0
763,337,0,0,0,0,0,0,0,0,0,-1,1987,687,0,0
770,337,0,0,0,0,0,0,0,0,0,-1,1994,687,0,0
777,337,0,0,0,0,0,0,0,0,0,-1,2001,687,0,0
784,337,0,0,0,0,0,0,0,0,0,-1,2008,687,0,0
791,337,0,0,0,0,0,0,0,0,0,-1,2015,687,0,0
798,337,0,0,0,0,0,0,0,0,0,-1,2022,687,0,0
805,337,0,0,0,0,0,0,0,0,0,-1,2029,687,0,0
812,337,0,0,0,0,0,0,0,0,0,-1,2036,687,0,0
-700,330,0,0,0,0,0,0,0,0,0,-1,524,694,0,0
-693,330,0,0,0,0,0,0,0,0,0,-1,531,694,0,0
-686,330,0,0,0,0,0,0,0,0,0,-1,538,694,0,0
-679,330,0,0,0,0,0,0,0,0,0,-1,545,694,0,0
-672,330,0,0,0,0,0,0,0,0,0,-1,552,694,0,0
-665,330,0,0,0,0,0,0,0,0,0,-1,559,694,0,0
-658,330,0,0,0,0,0,0,0,0,0,-1,566,694,0,0
-651,330,0,0,0,0,0,0,0,0,0,-1,573,694,0,0
-644,330,0,0,0,0,0,0,0,0,0,-1,580,694,0,0
-637,330,0,0,0,0,0,0,0,0,0,-1,587,694,0,0
-630,330,0,0,0,0,0,0,0,0,0,-1,594,694,0,0
-623,330,0,0,0,0,0,0,0,0,0,-1,601,694,0,0
-616,330,0,0,0,0,0,0,0,0,0,-1,608,694,0,0
-609,330,0,0,0,0,0,0,0,0,0,-1,615,694,0,0
-602,330,0,0,0,0,0,0,0,0,0,-1,622,694,0,0
-595,330,-4.67883,1.65515,0,0,0,0,0,0,0,-1,629,694,-4.67881,-1.65515
-588,330,-8.5047,2.67346,0,0,0,0,0,0,0,-1,636,694,-8.50469,-2.67348
-581,330,-10.7915,5.82458,0,0,0,0,0,0,0,-1,643,694,-10.7915,-5.82461
-574,330,-9.02118,1.87952,0,0,0,0,0,0,0,-1,650,694,-9.02115,-1.87953
-567,330,-8.1051,0.591125,0,0,0,0,0,0,0,-1,657,694,-8.1051,-0.591123
-560,330,-7.92169,0.433899,0.00315204,0.0604525,-0.0113222,0.0626085,0.000995982,-1.38262,0.041411,0.0496157,664,694,-7.92167,-0.433872
-553,330,-7.68622,0.0797119,0.0036185,0.0431036,-0.00931709,0.0451917,0.00153042,-1.35033,0.0296309,0.041798,671,694,-7.6862,-0.0797305
-546,330,-7.61407,-0.312378,0.00366377,0.0302967,-0.00746883,0.0322482,0.00171224,-1.31522,0.0209514,0.0266837,678,694,-7.61409,0.312408
-539,330,-7.63062,-0.638977,0.00357301,0.0210752,-0.00586057,0.0228564,0.00179187,-1.27575,0.0146768,0.0122954,685,694,-7.63062,0.639004
-532,330,-7.72272,-0.902283,0.00339993,0.0142108,-0.00444487,0.0158036,0.00180711,-1.2267,0.00998801,0.0105553,692,694,-7.7227,0.90226
-525,330,-7.73657,-1.20599,0.00319776,0.00916127,-0.00324752,0.0105883,0.00177075,-1.15678,0.00654889,0.0103336,699,694,-7.73656,1.20602
-518,330,-7.7226,-1.46027,0.00300202,0.00547143,-0.00228928,0.00683774,0.00163571,-1.03271,0.00412288,0.0143778,706,694,-7.72261,1.46024
-511,330,-7.72437,-1.75775,0.00293254,0.00286827,-0.00162406,0.00452478,0.00127603,-0.775507,0.00269387,0.0199436,713,694,-7.72434,1.75774
-504,330,-7.73077,-2.0575,0.00297723,0.000787081,-0.000877895,0.00328568,0.000478629,-0.337881,0.00204963,0.0183399,720,694,-7.73079,2.0575
-497,330,-7.74579,-2.3396,0.00345924,7.31377e-05,-1.07325e-05,0.00345928,7.31037e-05,-0.00316954,0.00228221,0.0129993,727,694,-7.74578,2.3396
-490,330,-7.73608,-2.66699,0.00416679,-2.1451e-05,0.00069924,0.00428045,-0.000135107,0.161133,0.00289972,0.0133217,734,694,-7.73606,2.667
-483,330,-7.73358,-2.95404,0.005308,0.000269471,0.00163149,0.00579014,-0.000212674,0.287345,0.0039329,0.0129305,741,694,-7.73356,2.95407
-476,330,-7.7356,-3.23907,0.00699213,0.000846237,0.00296179,0.00818711,-0.000348744,0.383491,0.00557796,0.0239617,748,694,-7.73558,3.2391
-469,330,-7.56635,-3.40393,0.00987582,0.00174372,0.00484542,0.0121352,-0.000515647,0.436317,0.00826737,0.0492337,755,694,-7.56637,3.40396
-462,330,-7.26733,-3.84833,0,0,0,0,0,0,0,-1,762,694,-7.26731,3.84832
-455,330,-5.04254,-1.79303,0,0,0,0,0,0,0,-1,769,694,-5.04252,1.79305
-448,330,-4.89886,-1.66156,0,0,0,0,0,0,0,-1,776,694,-4.89886,1.66157
-441,330,-5.30676,-2.34045,0,0,0,0,0,0,0,-1,783,694,-5.30679,2.34048
-434,330,-7.20428,1.00024,0,0,0,0,0,0,0,-1,790,694,-7.20431,-1.00027
-427,330,-16.0428,2.89258,0,0,0,0,0,0,0,-1,797,694,-16.0428,-2.89259
-420,330,-15.2923,3.32672,0,0,0,0,0,0,0,-1,804,694,-15.2923,-3.32675
-413,330,-10.4567,2.56183,0,0,0,0,0,0,0,-1,811,694,-10.4567,-2.56182
-406,330,-1.65375,-1.74371,0,0,0,0,0,0,0,-1,818,694,-1.65375,1.74371
-399,330,0,0,0,0,0,0,0,0,0,-1,825,694,0,0
-392,330,0,0,0,0,0,0,0,0,0,-1,832,694,0,0
-385,330,0,0,0,0,0,0,0,0,0,-1,839,694,0,0
-378,330,0,0,0,0,0,0,0,0,0,-1,846,694,0,0
-371,330,0,0,0,0,0,0,0,0,0,-1,853,694,0,0
-364,330,0,0,0,0,0,0,0,0,0,-1,860,694,0,0
-357,330,0,0,0,0,0,0,0,0,0,-1,867,694,0,0
-350,330,0,0,0,0,0,0,0,0,0,-1,874,694,0,0
-343,330,0,0,0,0,0,0,0,0,0,-1,881,694,0,0
-336,330,0,0,0,0,0,0,0,0,0,-1,888,694,0,0
-329,330,0,0,0,0,0,0,0,0,0,-1,895,694,0,0
-322,330,0,0,0,0,0,0,0,0,0,-1,902,694,0,0
-315,330,0,0,0,0,0,0,0,0,0,-1,909,694,0,0
-308,330,0,0,0,0,0,0,0,0,0,-1,916,694,0,0
-301,330,0,0,0,0,0,0,0,0,0,-1,923,694,0,0
-294,330,0,0,0,0,0,0,0,0,0,-1,930,694,0,0
-287,330,0,0,0,0,0,0,0,0,0,-1,937,694,0,0
-280,330,0,0,0,0,0,0,0,0,0,-1,944,694,0,0
-273,330,0,0,0,0,0,0,0,0,0,-1,951,694,0,0
-266,330,0,0,0,0,0,0,0,0,0,-1,958,694,0,0
-259,330,0,0,0,0,0,0,0,0,0,-1,965,694,0,0
-252,330,0,0,0,0,0,0,0,0,0,-1,972,694,0,0
-245,330,0,0,0,0,0,0,0,0,0,-1,979,694,0,0
-238,330,0,0,0,0,0,0,0,0,0,-1,986,694,0,0
-231,330,0,0,0,0,0,0,0,0,0,-1,993,694,0,0
-224,330,0,0,0,0,0,0,0,0,0,-1,1000,694,0,0
-217,330,0,0,0,0,0,0,0,0,0,-1,1007,694,0,0
-210,330,0,0,0,0,0,0,0,0,0,-1,1014,694,0,0
-203,330,0,0,0,0,0,0,0,0,0,-1,1021,694,0,0
-196,330,0,0,0,0,0,0,0,0,0,-1,1028,694,0,0
-189,330,0,0,0,0,0,0,0,0,0,-1,1035,694,0,0
-182,330,0,0,0,0,0,0,0,0,0,-1,1042,694,0,0
-175,330,0,0,0,0,0,0,0,0,0,-1,1049,694,0,0
-168,330,0,0,0,0,0,0,0,0,0,-1,1056,694,0,0
-161,330,0,0,0,0,0,0,0,0,0,-1,1063,694,0,0
-154,330,0,0,0,0,0,0,0,0,0,-1,1070,694,0,0
-147,330,0,0,0,0,0,0,0,0,0,-1,1077,694,0,0
-140,330,0,0,0,0,0,0,0,0,0,-1,1084,694,0,0
-133,330,0,0,0,0,0,0,0,0,0,-1,1091,694,0,0
-126,330,0,0,0,0,0,0,0,0,0,-1,1098,694,0,0
-119,330,0,0,0,0,0,0,0,0,0,-1,1105,694,0,0
-112,330,0,0,0,0,0,0,0,0,0,-1,1112,694,0,0
-105,330,0,0,0,0,0,0,0,0,0,-1,1119,694,0,0
-98,330,0,0,0,0,0,0,0,0,0,-1,1126,694,0,0
-91,330,0,0,0,0,0,0,0,0,0,-1,1133,694,0,0
-84,330,0,0,0,0,0,0,0,0,0,-1,1140,694,0,0
-77,330,0,0,0,0,0,0,0,0,0,-1,1147,694,0,0
-70,330,0,0,0,0,0,0,0,0,0,-1,1154,694,0,0
-63,330,0,0,0,0,0,0,0,0,0,-1,1161,694,0,0
-56,330,0,0,0,0,0,0,0,0,0,-1,1168,694,0,0
-49,330,0,0,0,0,0,0,0,0,0,-1,1175,694,0,0
-42,330,0,0,0,0,0,0,0,0,0,-1,1182,694,0,0
-35,330,0,0,0,0,0,0,0,0,0,-1,1189,694,0,0
-28,330,0,0,0,0,0,0,0,0,0,-1,1196,694,0,0
-21,330,0,0,0,0,0,0,0,0,0,-1,1203,694,0,0
-14,330,0,0,0,0,0,0,0,0,0,-1,1210,694,0,0
-7,330,0,0,0,0,0,0,0,0,0,-1,1217,694,0,0
0,330,0,0,0,0,0,0,0,0,0,-1,1224,694,0,0
7,330,0,0,0,0,0,0,0,0,0,-1,1231,694,0,0
14,330,0,0,0,0,0,0,0,0,0,-1,1238,694,0,0
21,330,0,0,0,0,0,0,0,0,0,-1,1245,694,0,0
28,330,0,0,0,0,0,0,0,0,0,-1,1252,694,0,0
35,330,0,0,0,0,0,0,0,0,0,-1,1259,694,0,0
42,330,0,0,0,0,0,0,0,0,0,-1,1266,694,0,0
49,330,0,0,0,0,0,0,0,0,0,-1,1273,694,0,0
56,330,0,0,0,0,0,0,0,0,0,-1,1280,694,0,0
63,330,0,0,0,0,0,0,0,0,0,-1,1287,694,0,0
70,330,0,0,0,0,0,0,0,0,0,-1,1294,694,0,0
77,330,0,0,0,0,0,0,0,0,0,-1,1301,694,0,0
84,330,0,0,0,0,0,0,0,0,0,-1,1308,694,0,0
91,330,0,0,0,0,0,0,0,0,0,-1,1315,694,0,0
98,330,0,0,0,0,0,0,0,0,0,-1,1322,694,0,0
105,330,0,0,0,0,0,0,0,0,0,-1,1329,694,0,0
112,330,0,0,0,0,0,0,0,0,0,-1,1336,694,0,0
119,330,0,0,0,0,0,0,0,0,0,-1,1343,694,0,0
126,330,0,0,0,0,0,0,0,0,0,-1,1350,694,0,0
133,330,0,0,0,0,0,0,0,0,0,-1,1357,694,0,0
140,330,0,0,0,0,0,0,0,0,0,-1,1364,694,0,0
147,330,0,0,0,0,0,0,0,0,0,-1,1371,694,0,0
154,330,0,0,0,0,0,0,0,0,0,-1,1378,694,0,0
161,330,0,0,0,0,0,0,0,0,0,-1,1385,694,0,0
168,330,0,0,0,0,0,0,0,0,0,-1,1392,694,0,0
175,330,0,0,0,0,0,0,0,0,0,-1,1399,694,0,0
182,330,0,0,0,0,0,0,0,0,0,-1,1406,694,0,0
189,330,0,0,0,0,0,0,0,0,0,-1,1413,694,0,0
196,330,0,0,0,0,0,0,0,0,0,-1,1420,694,0,0
203,330,0,0,0,0,0,0,0,0,0,-1,1427,694,0,0
210,330,0,0,0,0,0,0,0,0,0,-1,1434,694,0,0
217,330,0,0,0,0,0,0,0,0,0,-1,1441,694,0,0
224,330,0,0,0,0,0,0,0,0,0,-1,1448,694,0,0
231,330,0,0,0,0,0,0,0,0,0,-1,1455,694,0,0
238,330,0,0,0,0,0,0,0,0,0,-1,1462,694,0,0
245,330,0,0,0,0,0,0,0,0,0,-1,1469,694,0,0
252,330,0,0,0,0,0,0,0,0,0,-1,1476,694,0,0
259,330,0,0,0,0,0,0,0,0,0,-1,1483,694,0,0
266,330,0,0,0,0,0,0,0,0,0,-1,1490,694,0,0
273,330,0,0,0,0,0,0,0,0,0,-1,1497,694,0,0
280,330,0,0,0,0,0,0,0,0,0,-1,1504,694,0,0
287,330,0,0,0,0,0,0,0,0,0,-1,1511,694,0,0
294,330,0,0,0,0,0,0,0,0,0,-1,1518,694,0,0
301,330,0,0,0,0,0,0,0,0,0,-1,1525,694,0,0
308,330,0,0,0,0,0,0,0,0,0,-1,1532,694,0,0
315,330,0,0,0,0,0,0,0,0,0,-1,1539,694,0,0
322,330,0,0,0,0,0,0,0,0,0,-1,1546,694,0,0
329,330,0,0,0,0,0,0,0,0,0,-1,1553,694,0,0
336,330,0,0,0,0,0,0,0,0,0,-1,1560,694,0,0
343,330,0,0,0,0,0,0,0,0,0,-1,1567,694,0,0
350,330,0,0,0,0,0,0,0,0,0,-1,1574,694,0,0
357,330,0,0,0,0,0,0,0,0,0,-1,1581,694,0,0
364,330,0,0,0,0,0,0,0,0,0,-1,1588,694,0,0
371,330,0,0,0,0,0,0,0,0,0,-1,1595,694,0,0
378,330,0,0,0,0,0,0,0,0,0,-1,1602,694,0,0
385,330,0,0,0,0,0,0,0,0,0,-1,1609,694,0,0
392,330,0,0,0,0,0,0,0,0,0,-1,1616,694,0,0
399,330,0,0,0,0,0,0,0,0,0,-1,1623,694,0,0
406,330,0,0,0,0,0,0,0,0,0,-1,1630,694,0,0
413,330,0,0,0,0,0,0,0,0,0,-1,1637,694,0,0
420,330,0,0,0,0,0,0,0,0,0,-1,1644,694,0,0
427,330,0,0,0,0,0,0,0,0,0,-1,1651,694,0,0
434,330,0,0,0,0,0,0,0,0,0,-1,1658,694,0,0
441,330,0,0,0,0,0,0,0,0,0,-1,1665,694,0,0
448,330,0,0,0,0,0,0,0,0,0,-1,1672,694,0,0
455,330,0,0,0,0,0,0,0,0,0,-1,1679,694,0,0
462,330,0,0,0,0,0,0,0,0,0,-1,1686,694,0,0
469,330,0,0,0,0,0,0,0,0,0,-1,1693,694,0,0
476,330,0,0,0,0,0,0,0,0,0,-1,1700,694,0,0
483,330,0,0,0,0,0,0,0,0,0,-1,1707,694,0,0
490,330,0,0,0,0,0,0,0,0,0,-1,1714,694,0,0
497,330,0,0,0,0,0,0,0,0,0,-1,1721,694,0,0
504,330,0,0,0,0,0,0,0,0,0,-1,1728,694,0,0
511,330,0,0,0,0,0,0,0,0,0,-1,1735,694,0,0
518,330,0,0,0,0,0,0,0,0,0,-1,1742,694,0,0
525,330,21.8806,2.67316,0,0,0,0,0,0,0,-1,1749,694,21.8806,-2.67316
532,330,21.4119,3.82379,0,0,0,0,0,0,0,-1,1756,694,21.4118,-3.82381
539,330,22.2223,4.29657,0,0,0,0,0,0,0,-1,1763,694,22.2223,-4.2966
546,330,23.2045,4.75311,0,0,0,0,0,0,0,-1,1770,694,23.2044,-4.7531
553,330,19.3512,3.78687,0,0,0,0,0,0,0,-1,1777,694,19.3512,-3.78684
560,330,18.6956,3.84155,0,0,0,0,0,0,0,-1,1784,694,18.6956,-3.84155
567,330,18.0321,3.98578,0,0,0,0,0,0,0,-1,1791,694,18.0321,-3.98576
574,330,12.0454,2.1662,0,0,0,0,0,0,0,-1,1798,694,12.0455,-2.16618
581,330,11.4215,4.50836,0,0,0,0,0,0,0,-1,1805,694,11.4215,-4.50837
588,330,6.45667,-0.0630493,0,0,0,0,0,0,0,-1,1812,694,6.45661,0.0630695
595,330,8.23193,-0.258484,0,0,0,0,0,0,0,-1,1819,694,8.23188,0.258459
602,330,13.8704,-1.61084,0,0,0,0,0,0,0,-1,1826,694,13.8704,1.61081
609,330,14.087,-1.14978,0.00487659,0.00246313,-0.000284023,0.00490956,0.00243015,-0.115579,0.00283459,0.0368379,1833,694,14.087,1.14979
616,330,14.1914,-0.805054,0.00387127,0.00126628,0.000110553,0.00387595,0.00126159,0.0423375,0.00228276,0.01132,1840,694,14.1914,0.805045
623,330,14.1982,-0.496216,0.00239432,0.000544629,3.51212e-05,0.00239499,0.000543962,0.0189785,0.00144976,0.0137403,1847,694,14.1983,0.496218
630,330,14.2008,-0.180115,0.0010743,5.9698e-05,-0.000270541,0.00114193,-7.93312e-06,-0.244964,0.000763944,0.014193,1854,694,14.2008,0.180124
637,330,14.2096,0.125488,-0.000377184,-0.000475301,-0.000802799,0.000378054,-0.00123054,-0.754881,0.000971221,0.0132828,1861,694,14.2096,-0.125516
644,330,14.187,0.429138,-0.00202299,-0.00082517,-0.00167647,0.000356153,-0.00320431,-0.956956,0.00226428,0.00857456,1868,694,14.187,-0.429128
651,330,14.1669,0.743469,-0.00368431,-0.00129453,-0.00270252,0.000465473,-0.00544431,-0.993547,0.00379422,0.0112702,1875,694,14.1669,-0.743461
658,330,14.1428,1.03851,-0.00531073,-0.00172198,-0.00374437,0.000635767,-0.00766847,-1.00884,0.00533688,0.0109741,1882,694,14.1429,-1.03854
665,330,14.1385,1.34491,-0.00729279,-0.00229559,-0.00500341,0.000798407,-0.0103868,-1.01697,0.00720542,0.0093728,1889,694,14.1386,-1.34492
672,330,14.1635,1.66083,-0.00943442,-0.00296727,-0.00641064,0.000979154,-0.0133808,-1.01898,0.00926421,0.0141016,1896,694,14.1635,-1.6608
679,330,13.9858,1.92944,-0.011751,-0.00376125,-0.00793026,0.00112352,-0.0166357,-1.01872,0.0114833,0.0280776,1903,694,13.9858,-1.92946
686,330,13.8464,2.05658,-0.0139872,-0.0046922,-0.00954028,0.00127239,-0.0199517,-1.01205,0.0137449,0.0479863,1910,694,13.8464,-2.05657
693,330,13.7375,2.02502,0,0,0,0,0,0,0,-1,1917,694,13.7376,-2.02505
700,330,17.1072,4.13,0,0,0,0,0,0,0,-1,1924,694,17.1071,-4.13002
707,330,16.663,4.88672,0,0,0,0,0,0,0,-1,1931,694,16.6629,-4.88673
714,330,16.5454,5.80896,0,0,0,0,0,0,0,-1,1938,694,16.5454,-5.80899
721,330,0,0,0,0,0,0,0,0,0,-1,1945,694,0,0
728,330,0,0,0,0,0,0,0,0,0,-1,1952,694,0,0
735,330,0,0,0,0,0,0,0,0,0,-1,1959,694,0,0
742,330,0,0,0,0,0,0,0,0,0,-1,1966,694,0,0
749,330,0,0,0,0,0,0,0,0,0,-1,1973,694,0,0
756,330,0,0,0,0,0,0,0,0,0,-1,1980,694,0,0
763,330,0,0,0,0,0,0,0,0,0,-1,1987,694,0,0
770,330,0,0,0,0,0,0,0,0,0,-1,1994,694,0,0
777,330,0,0,0,0,0,0,0,0,0,-1,2001,694,0,0
784,330,0,0,0,0,0,0,0,0,0,-1,2008,694,0,0
791,330,0,0,0,0,0,0,0,0,0,-1,2015,694,0,0
798,330,0,0,0,0,0,0,0,0,0,-1,2022,694,0,0
805,330,0,0,0,0,0,0,0,0,0,-1,2029,694,0,0
812,330,0,0,0,0,0,0,0,0,0,-1,2036,694,0,0
-700,323,0,0,0,0,0,0,0,0,0,-1,524,701,0,0
-693,323,0,0,0,0,0,0,0,0,0,-1,531,701,0,0
-686,323,0,0,0,0,0,0,0,0,0,-1,538,701,0,0
-679,323,0,0,0,0,0,0,0,0,0,-1,545,701,0,0
-672,323,0,0,0,0,0,0,0,0,0,-1,552,701,0,0
-665,323,0,0,0,0,0,0,0,0,0,-1,559,701,0,0
-658,323,0,0,0,0,0,0,0,0,0,-1,566,701,0,0
-651,323,0,0,0,0,0,0,0,0,0,-1,573,701,0,0
-644,323,0,0,0,0,0,0,0,0,0,-1,580,701,0,0
-637,323,0,0,0,0,0,0,0,0,0,-1,587,701,0,0
-630,323,0,0,0,0,0,0,0,0,0,-1,594,701,0,0
-623,323,0,0,0,0,0,0,0,0,0,-1,601,701,0,0
-616,323,0,0,0,0,0,0,0,0,0,-1,608,701,0,0
-609,323,0,0,0,0,0,0,0,0,0,-1,615,701,0,0
-602,323,-4.15833,2.12256,0,0,0,0,0,0,0,-1,622,701,-4.1583,-2.12257
-595,323,-4.052,1.79156,0,0,0,0,0,0,0,-1,629,701,-4.05198,-1.79158
-588,323,-4.07019,1.94543,0,0,0,0,0,0,0,-1,636,701,-4.07019,-1.94542
-581,323,-6.63727,0.562805,0,0,0,0,0,0,0,-1,643,701,-6.63728,-0.56279
-574,323,-6.15887,0.426697,0,0,0,0,0,0,0,-1,650,701,-6.15887,-0.426727
-567,323,-8.52582,0.432068,0,0,0,0,0,0,0,-1,657,701,-8.52583,-0.432052
-560,323,-8.14624,0.117859,0,0,0,0,0,0,0,-1,664,701,-8.14622,-0.117854
-553,323,-8.01215,-0.158691,-0.000989068,0.0328916,-0.00512003,0.0336484,-0.0017459,-1.42404,0.0230363,0.0345456,671,701,-8.01215,0.158719
-546,323,-7.98761,-0.363892,-0.000213978,0.0240168,-0.00433056,0.0247675,-0.000964683,-1.39915,0.0168424,0.013189,678,701,-7.98759,0.363909
-539,323,-7.98926,-0.597229,0.00025554,0.0169498,-0.0034511,0.0176351,-0.000429755,-1.37477,0.0119026,0.0118288,685,701,-7.98927,0.59721
-532,323,-8.00348,-0.892883,0.000647129,0.0114833,-0.0026267,0.0120865,4.39882e-05,-1.34509,0.00804302,0.00902851,692,701,-8.00347,0.892881
-525,323,-8.01727,-1.18329,0.00101175,0.00734177,-0.00190479,0.00787074,0.000482777,-1.29992,0.00509386,0.00727844,699,701,-8.01725,1.18326
-518,323,-8.01245,-1.4549,0.00140086,0.00417708,-0.0013338,0.00471403,0.000863912,-1.18807,0.00289796,0.00964085,706,701,-8.01247,1.4549
-511,323,-8.01251,-1.75525,0.00192259,0.00189287,-0.00100897,0.00291681,0.000898647,-0.778035,0.00172487,0.0135802,713,701,-8.0125,1.75525
-504,323,-8.04657,-2.03937,0.0025811,0.000203738,-0.000385648,0.00264209,0.000142745,-0.15686,0.00171579,0.0142801,720,701,-8.04659,2.03934
-497,323,-8.04712,-2.32703,0.00368621,-0.000268408,0.000580905,0.00376977,-0.000351973,0.142873,0.00263834,0.0118782,727,701,-8.04712,2.32704
-490,323,-8.03284,-2.64288,0.00499307,-0.00026202,0.00146049,0.00537169,-0.000640641,0.253658,0.00381266,0.0127968,734,701,-8.03285,2.64287
-483,323,-8.02301,-2.92334,0.00674466,0.000142085,0.00275553,0.00774354,-0.000856794,0.347767,0.00547037,0.0186412,741,701,-8.023,2.92337
-476,323,-7.89722,-3.23456,0.00900969,0.000860288,0.0046874,0.0111459,-0.00127588,0.427605,0.00789033,0.0451434,748,701,-7.89724,3.23455
-469,323,-7.46637,-3.64551,0,0,0,0,0,0,0,-1,755,701,-7.4664,3.64549
-462,323,-5.29431,-1.45697,0,0,0,0,0,0,0,-1,762,701,-5.29431,1.45699
-455,323,-5.0658,-1.36639,0,0,0,0,0,0,0,-1,769,701,-5.06578,1.3664
-448,323,-4.91608,-1.59601,0,0,0,0,0,0,0,-1,776,701,-4.91606,1.59604
-441,323,-14.4006,0.535217,0,0,0,0,0,0,0,-1,783,701,-14.4006,-0.535203
-434,323,-15.3158,2.479,0,0,0,0,0,0,0,-1,790,701,-15.3158,-2.47898
-427,323,-15.4075,2.98248,0,0,0,0,0,0,0,-1,797,701,-15.4075,-2.98248
-420,323,-14.8839,3.49579,0,0,0,0,0,0,0,-1,804,701,-14.8839,-3.49579
-413,323,-14.0645,4.22607,0,0,0,0,0,0,0,-1,811,701,-14.0645,-4.22605
-406,323,0,0,0,0,0,0,0,0,0,-1,818,701,0,0
-399,323,0,0,0,0,0,0,0,0,0,-1,825,701,0,0
-392,323,0,0,0,0,0,0,0,0,0,-1,832,701,0,0
-385,323,0,0,0,0,0,0,0,0,0,-1,839,701,0,0
-378,323,0,0,0,0,0,0,0,0,0,-1,846,701,0,0
-371,323,0,0,0,0,0,0,0,0,0,-1,853,701,0,0
-364,323,0,0,0,0,0,0,0,0,0,-1,860,701,0,0
-357,323,0,0,0,0,0,0,0,0,0,-1,867,701,0,0
-350,323,0,0,0,0,0,0,0,0,0,-1,874,701,0,0
-343,323,0,0,0,0,0,0,0,0,0,-1,881,701,0,0
-336,323,0,0,0,0,0,0,0,0,0,-1,888,701,0,0
-329,323,0,0,0,0,0,0,0,0,0,-1,895,701,0,0
-322,323,0,0,0,0,0,0,0,0,0,-1,902,701,0,0
-315,323,0,0,0,0,0,0,0,0,0,-1,909,701,0,0
-308,323,0,0,0,0,0,0,0,0,0,-1,916,701,0,0
-301,323,0,0,0,0,0,0,0,0,0,-1,923,701,0,0
-294,323,0,0,0,0,0,0,0,0,0,-1,930,701,0,0
-287,323,0,0,0,0,0,0,0,0,0,-1,937,701,0,0
-280,323,0,0,0,0,0,0,0,0,0,-1,944,701,0,0
-273,323,0,0,0,0,0,0,0,0,0,-1,951,701,0,0
-266,323,0,0,0,0,0,0,0,0,0,-1,958,701,0,0
-259,323,0,0,0,0,0,0,0,0,0,-1,965,701,0,0
-252,323,0,0,0,0,0,0,0,0,0,-1,972,701,0,0
-245,323,0,0,0,0,0,0,0,0,0,-1,979,701,0,0
-238,323,0,0,0,0,0,0,0,0,0,-1,986,701,0,0
-231,323,0,0,0,0,0,0,0,0,0,-1,993,701,0,0
-224,323,0,0,0,0,0,0,0,0,0,-1,1000,701,0,0
-217,323,0,0,0,0,0,0,0,0,0,-1,1007,701,0,0
-210,323,0,0,0,0,0,0,0,0,0,-1,1014,701,0,0
-203,323,0,0,0,0,0,0,0,0,0,-1,1021,701,0,0
-196,323,0,0,0,0,0,0,0,0,0,-1,1028,701,0,0
-189,323,0,0,0,0,0,0,0,0,0,-1,1035,701,0,0
-182,323,0,0,0,0,0,0,0,0,0,-1,1042,701,0,0
-175,323,0,0,0,0,0,0,0,0,0,-1,1049,701,0,0
-168,323,0,0,0,0,0,0,0,0,0,-1,1056,701,0,0
-161,323,0,0,0,0,0,0,0,0,0,-1,1063,701,0,0
-154,323,0,0,0,0,0,0,0,0,0,-1,1070,701,0,0
-147,323,0,0,0,0,0,0,0,0,0,-1,1077,701,0,0
-140,323,0,0,0,0,0,0,0,0,0,-1,1084,701,0,0
-133,323,0,0,0,0,0,0,0,0,0,-1,1091,701,0,0
-126,323,0,0,0,0,0,0,0,0,0,-1,1098,701,0,0
-119,323,0,0,0,0,0,0,0,0,0,-1,1105,701,0,0
-112,323,0,0,0,0,0,0,0,0,0,-1,1112,701,0,0
-105,323,0,0,0,0,0,0,0,0,0,-1,1119,701,0,0
-98,323,0,0,0,0,0,0,0,0,0,-1,1126,701,0,0
-91,323,0,0,0,0,0,0,0,0,0,-1,1133,701,0,0
-84,323,0,0,0,0,0,0,0,0,0,-1,1140,701,0,0
-77,323,0,0,0,0,0,0,0,0,0,-1,1147,701,0,0
-70,323,0,0,0,0,0,0,0,0,0,-1,1154,701,0,0
-63,323,0,0,0,0,0,0,0,0,0,-1,1161,701,0,0
-56,323,0,0,0,0,0,0,0,0,0,-1,1168,701,0,0
-49,323,0,0,0,0,0,0,0,0,0,-1,1175,701,0,0
-42,323,0,0,0,0,0,0,0,0,0,-1,1182,701,0,0
-35,323,0,0,0,0,0,0,0,0,0,-1,1189,701,0,0
-28,323,0,0,0,0,0,0,0,0,0,-1,1196,701,0,0
-21,323,0,0,0,0,0,0,0,0,0,-1,1203,701,0,0
-14,323,0,0,0,0,0,0,0,0,0,-1,1210,701,0,0
-7,323,0,0,0,0,0,0,0,0,0,-1,1217,701,0,0
0,323,0,0,0,0,0,0,0,0,0,-1,1224,701,0,0
7,323,0,0,0,0,0,0,0,0,0,-1,1231,701,0,0
14,323,0,0,0,0,0,0,0,0,0,-1,1238,701,0,0
21,323,0,0,0,0,0,0,0,0,0,-1,1245,701,0,0
28,323,0,0,0,0,0,0,0,0,0,-1,1252,701,0,0
35,323,0,0,0,0,0,0,0,0,0,-1,1259,701,0,0
42,323,0,0,0,0,0,0,0,0,0,-1,1266,701,0,0
49,323,0,0,0,0,0,0,0,0,0,-1,1273,701,0,0
56,323,0,0,0,0,0,0,0,0,0,-1,1280,701,0,0
63,323,0,0,0,0,0,0,0,0,0,-1,1287,701,0,0
70,323,0,0,0,0,0,0,0,0,0,-1,1294,701,0,0
77,323,0,0,0,0,0,0,0,0,0,-1,1301,701,0,0
84,323,0,0,0,0,0,0,0,0,0,-1,1308,701,0,0
91,323,0,0,0,0,0,0,0,0,0,-1,1315,701,0,0
98,323,0,0,0,0,0,0,0,0,0,-1,1322,701,0,0
105,323,0,0,0,0,0,0,0,0,0,-1,1329,701,0,0
112,323,0,0,0,0,0,0,0,0,0,-1,1336,701,0,0
119,323,0,0,0,0,0,0,0,0,0,-1,1343,701,0,0
126,323,0,0,0,0,0,0,0,0,0,-1,1350,701,0,0
133,323,0,0,0,0,0,0,0,0,0,-1,1357,701,0,0
140,323,0,0,0,0,0,0,0,0,0,-1,1364,701,0,0
147,323,0,0,0,0,0,0,0,0,0,-1,1371,701,0,0
154,323,0,0,0,0,0,0,0,0,0,-1,1378,701,0,0
161,323,0,0,0,0,0,0,0,0,0,-1,1385,701,0,0
168,323,0,0,0,0,0,0,0,0,0,-1,1392,701,0,0
175,323,0,0,0,0,0,0,0,0,0,-1,1399,701,0,0
182,323,0,0,0,0,0,0,0,0,0,-1,1406,701,0,0
189,323,0,0,0,0,0,0,0,0,0,-1,1413,701,0,0
196,323,0,0,0,0,0,0,0,0,0,-1,1420,701,0,0
203,323,0,0,0,0,0,0,0,0,0,-1,1427,701,0,0
210,323,0,0,0,0,0,0,0,0,0,-1,1434,701,0,0
217,323,0,0,0,0,0,0,0,0,0,-1,1441,701,0,0
224,323,0,0,0,0,0,0,0,0,0,-1,1448,701,0,0
231,323,0,0,0,0,0,0,0,0,0,-1,1455,701,0,0
238,323,0,0,0,0,0,0,0,0,0,-1,1462,701,0,0
245,323,0,0,0,0,0,0,0,0,0,-1,1469,701,0,0
252,323,0,0,0,0,0,0,0,0,0,-1,1476,701,0,0
259,323,0,0,0,0,0,0,0,0,0,-1,1483,701,0,0
266,323,0,0,0,0,0,0,0,0,0,-1,1490,701,0,0
273,323,0,0,0,0,0,0,0,0,0,-1,1497,701,0,0
280,323,0,0,0,0,0,0,0,0,0,-1,1504,701,0,0
287,323,0,0,0,0,0,0,0,0,0,-1,1511,701,0,0
294,323,0,0,0,0,0,0,0,0,0,-1,1518,701,0,0
301,323,0,0,0,0,0,0,0,0,0,-1,1525,701,0,0
308,323,0,0,0,0,0,0,0,0,0,-1,1532,701,0,0
315,323,0,0,0,0,0,0,0,0,0,-1,1539,701,0,0
322,323,0,0,0,0,0,0,0,0,0,-1,1546,701,0,0
329,323,0,0,0,0,0,0,0,0,0,-1,1553,701,0,0
336,323,0,0,0,0,0,0,0,0,0,-1,1560,701,0,0
343,323,0,0,0,0,0,0,0,0,0,-1,1567,701,0,0
350,323,0,0,0,0,0,0,0,0,0,-1,1574,701,0,0
357,323,0,0,0,0,0,0,0,0,0,-1,1581,701,0,0
364,323,0,0,0,0,0,0,0,0,0,-1,1588,701,0,0
371,323,0,0,0,0,0,0,0,0,0,-1,1595,701,0,0
378,323,0,0,0,0,0,0,0,0,0,-1,1602,701,0,0
385,323,0,0,0,0,0,0,0,0,0,-1,1609,701,0,0
392,323,0,0,0,0,0,0,0,0,0,-1,1616,701,0,0
399,323,0,0,0,0,0,0,0,0,0,-1,1623,701,0,0
406,323,0,0,0,0,0,0,0,0,0,-1,1630,701,0,0
413,323,0,0,0,0,0,0,0,0,0,-1,1637,701,0,0
420,323,0,0,0,0,0,0,0,0,0,-1,1644,701,0,0
427,323,0,0,0,0,0,0,0,0,0,-1,1651,701,0,0
434,323,0,0,0,0,0,0,0,0,0,-1,1658,701,0,0
441,323,0,0,0,0,0,0,0,0,0,-1,1665,701,0,0
448,323,0,0,0,0,0,0,0,0,0,-1,1672,701,0,0
455,323,0,0,0,0,0,0,0,0,0,-1,1679,701,0,0
462,323,0,0,0,0,0,0,0,0,0,-1,1686,701,0,0
469,323,0,0,0,0,0,0,0,0,0,-1,1693,701,0,0
476,323,0,0,0,0,0,0,0,0,0,-1,1700,701,0,0
483,323,0,0,0,0,0,0,0,0,0,-1,1707,701,0,0
490,323,0,0,0,0,0,0,0,0,0,-1,1714,701,0,0
497,323,0,0,0,0,0,0,0,0,0,-1,1721,701,0,0
504,323,0,0,0,0,0,0,0,0,0,-1,1728,701,0,0
511,323,0,0,0,0,0,0,0,0,0,-1,1735,701,0,0
518,323,0,0,0,0,0,0,0,0,0,-1,1742,701,0,0
525,323,0,0,0,0,0,0,0,0,0,-1,1749,701,0,0
532,323,22.2468,2.71307,0,0,0,0,0,0,0,-1,1756,701,22.2468,-2.71308
539,323,22.6949,3.42468,0,0,0,0,0,0,0,-1,1763,701,22.6949,-3.4247
546,323,23.5679,4.21869,0,0,0,0,0,0,0,-1,1770,701,23.5679,-4.21866
553,323,24.3749,5.09595,0,0,0,0,0,0,0,-1,1777,701,24.3749,-5.09596
560,323,19.1747,3.96667,0,0,0,0,0,0,0,-1,1784,701,19.1747,-3.96669
567,323,18.6687,4.57452,0,0,0,0,0,0,0,-1,1791,701,18.6686,-4.57453
574,323,12.514,5.89685,0,0,0,0,0,0,0,-1,1798,701,12.5141,-5.89683
581,323,11.821,5.3476,0,0,0,0,0,0,0,-1,1805,701,11.821,-5.34762
588,323,11.7933,7.00818,0,0,0,0,0,0,0,-1,1812,701,11.7933,-7.00819
595,323,6.67847,0.06604,0,0,0,0,0,0,0,-1,1819,701,6.67841,-0.0660418
602,323,11.2856,-0.595459,0,0,0,0,0,0,0,-1,1826,701,11.2856,0.595433
609,323,14.4325,-1.10809,0,0,0,0,0,0,0,-1,1833,701,14.4325,1.10807
616,323,14.4871,-0.797485,0.00741861,0.0027535,0.000402351,0.00745306,0.00271905,0.0854064,0.00435513,0.0152691,1840,701,14.487,0.797511
623,323,14.4932,-0.481079,0.00445267,0.00130565,0.000215132,0.00446731,0.00129102,0.0679393,0.00265466,0.0135812,1847,701,14.4931,0.481108
630,323,14.4801,-0.155579,0.0023564,0.000416865,-9.7344e-05,0.00236127,0.000411992,-0.0500218,0.00145641,0.014501,1854,701,14.4801,0.155571
637,323,14.4971,0.141479,0.000386237,-0.000437062,-0.000545655,0.000658104,-0.000708929,-0.462238,0.000789439,0.0109715,1861,701,14.497,-0.14145
644,323,14.5013,0.442444,-0.00134354,-0.000796647,-0.00130527,0.000263513,-0.0024037,-0.888652,0.00169714,0.00843745,1868,701,14.5014,-0.442433
651,323,14.4921,0.759033,-0.00274227,-0.00115655,-0.00215698,0.000348669,-0.00424749,-0.961523,0.00295475,0.0101837,1875,701,14.4921,-0.759018
658,323,14.4426,1.06073,-0.00398908,-0.0014201,-0.00296126,0.000523254,-0.00593243,-0.990034,0.00414041,0.0127022,1882,701,14.4427,-1.06075
665,323,14.4303,1.36517,-0.00540425,-0.00179679,-0.0039456,0.000737824,-0.00793887,-0.99979,0.00555488,0.0110161,1889,701,14.4303,-1.36519
672,323,14.4532,1.69525,-0.00645918,-0.00228906,-0.00496279,0.00100889,-0.00975713,-0.984271,0.0068658,0.00976789,1896,701,14.4533,-1.69527
679,323,14.3911,2.01324,-0.00746028,-0.00282026,-0.00600611,0.00129834,-0.0115789,-0.969707,0.00818643,0.0207149,1903,701,14.3911,-2.01327
686,323,14.2065,2.15326,-0.00786836,-0.00352926,-0.00711001,0.00173485,-0.0131325,-0.933481,0.00938685,0.0432461,1910,701,14.2065,-2.15324
693,323,14.079,2.28479,0,0,0,0,0,0,0,-1,1917,701,14.079,-2.28476
700,323,10.7705,0.828613,0,0,0,0,0,0,0,-1,1924,701,10.7705,-0.828591
707,323,16.9005,4.79193,0,0,0,0,0,0,0,-1,1931,701,16.9005,-4.7919
714,323,16.2346,6.25958,0,0,0,0,0,0,0,-1,1938,701,16.2346,-6.25956
721,323,0,0,0,0,0,0,0,0,0,-1,1945,701,0,0
728,323,0,0,0,0,0,0,0,0,0,-1,1952,701,0,0
735,323,0,0,0,0,0,0,0,0,0,-1,1959,701,0,0
742,323,0,0,0,0,0,0,0,0,0,-1,1966,701,0,0
749,323,0,0,0,0,0,0,0,0,0,-1,1973,701,0,0
756,323,0,0,0,0,0,0,0,0,0,-1,1980,701,0,0
763,323,0,0,0,0,0,0,0,0,0,-1,1987,701,0,0
770,323,0,0,0,0,0,0,0,0,0,-1,1994,701,0,0
777,323,0,0,0,0,0,0,0,0,0,-1,2001,701,0,0
784,323,0,0,0,0,0,0,0,0,0,-1,2008,701,0,0
791,323,0,0,0,0,0,0,0,0,0,-1,2015,701,0,0
798,323,0,0,0,0,0,0,0,0,0,-1,2022,701,0,0
805,323,0,0,0,0,0,0,0,0,0,-1,2029,701,0,0
812,323,0,0,0,0,0,0,0,0,0,-1,2036,701,0,0
-700,316,0,0,0,0,0,0,0,0,0,-1,524,708,0,0
-693,316,0,0,0,0,0,0,0,0,0,-1,531,708,0,0
-686,316,0,0,0,0,0,0,0,0,0,-1,538,708,0,0
-679,316,0,0,0,0,0,0,0,0,0,-1,545,708,0,0
-672,316,0,0,0,0,0,0,0,0,0,-1,552,708,0,0
-665,316,0,0,0,0,0,0,0,0,0,-1,559,708,0,0
-658,316,0,0,0,0,0,0,0,0,0,-1,566,708,0,0
-651,316,0,0,0,0,0,0,0,0,0,-1,573,708,0,0
-644,316,0,0,0,0,0,0,0,0,0,-1,580,708,0,0
-637,316,0,0,0,0,0,0,0,0,0,-1,587,708,0,0
-630,316,0,0,0,0,0,0,0,0,0,-1,594,708,0,0
-623,316,0,0,0,0,0,0,0,0,0,-1,601,708,0,0
-616,316,0,0,0,0,0,0,0,0,0,-1,608,708,0,0
-609,316,0,0,0,0,0,0,0,0,0,-1,615,708,0,0
-602,316,-0.451782,-0.0494995,0,0,0,0,0,0,0,-1,622,708,-0.451768,0.0495022
-595,316,-3.3761,2.17188,0,0,0,0,0,0,0,-1,629,708,-3.37609,-2.17189
-588,316,-5.00177,2.60675,0,0,0,0,0,0,0,-1,636,708,-5.00175,-2.60676
-581,316,-3.94653,0.393433,0,0,0,0,0,0,0,-1,643,708,-3.94655,-0.39342
-574,316,-8.38586,1.82404,0,0,0,0,0,0,0,-1,650,708,-8.38588,-1.82404
-567,316,-8.16901,1.01971,0,0,0,0,0,0,0,-1,657,708,-8.16898,-1.01969
-560,316,-8.07281,0.0852661,0,0,0,0,0,0,0,-1,664,708,-8.07281,-0.0852724
-553,316,-8.19586,-0.123962,-0.00348703,0.0237502,-0.0018877,0.0238804,-0.00361723,-1.50193,0.0172529,0.0329823,671,708,-8.19584,0.123968
-546,316,-8.3222,-0.291382,-0.00229351,0.0181259,-0.00195841,0.018312,-0.00247965,-1.47604,0.0131129,0.0179575,678,708,-8.32223,0.291407
-539,316,-8.284,-0.5979,-0.00143523,0.012944,-0.00166391,0.0131341,-0.00162526,-1.45708,0.00934502,0.0124655,685,708,-8.284,0.597923
-532,316,-8.30804,-0.901062,-0.000658836,0.00870235,-0.00124196,0.00886432,-0.000820806,-1.44111,0.00620128,0.00991482,692,708,-8.30804,0.901082
-525,316,-8.30945,-1.18701,5.73291e-05,0.00536628,-0.000828861,0.00549268,-6.90678e-05,-1.41947,0.00368503,0.00868052,699,708,-8.30946,1.18703
-518,316,-8.29938,-1.45746,0.00079513,0.00269668,-0.000513193,0.00282634,0.00066547,-1.32332,0.00170622,0.00970998,706,708,-8.29938,1.45745
-511,316,-8.30237,-1.73798,0.00164583,0.000712381,-0.000395253,0.00179071,0.000567504,-0.351335,0.00105672,0.0109054,713,708,-8.30238,1.73797
-504,316,-8.32355,-2.03229,0.00268173,-0.000702826,0.000263211,0.00270208,-0.000723173,0.0771501,0.00208468,0.0133578,720,708,-8.32355,2.03232
-497,316,-8.31012,-2.31641,0.00418237,-0.00105483,0.00146696,0.00456527,-0.00143774,0.255324,0.00361924,0.0124075,727,708,-8.31013,2.31644
-490,316,-8.31183,-2.60986,0.00584644,-0.00111988,0.00262958,0.00672758,-0.00200102,0.323328,0.00528,0.0146694,734,708,-8.31183,2.60984
-483,316,-8.18146,-2.96533,0.00794923,-0.000819228,0.00432244,0.00972171,-0.0025917,0.389151,0.0074959,0.0457914,741,708,-8.18144,2.9653
-476,316,-7.98303,-3.33606,0,0,0,0,0,0,0,-1,748,708,-7.98304,3.33605
-469,316,-6.24194,-1.42725,0,0,0,0,0,0,0,-1,755,708,-6.24192,1.42725
-462,316,-5.74237,-1.40039,0,0,0,0,0,0,0,-1,762,708,-5.74238,1.40039
-455,316,-5.44745,-1.21899,0,0,0,0,0,0,0,-1,769,708,-5.44746,1.21898
-448,316,-14.8945,0.655396,0,0,0,0,0,0,0,-1,776,708,-14.8946,-0.655396
-441,316,-14.9626,0.576111,0,0,0,0,0,0,0,-1,783,708,-14.9626,-0.576115
-434,316,-15.272,0.942993,0,0,0,0,0,0,0,-1,790,708,-15.272,-0.942979
-427,316,-14.6848,3.17792,0,0,0,0,0,0,0,-1,797,708,-14.6848,-3.1779
-420,316,-13.5587,2.737,0,0,0,0,0,0,0,-1,804,708,-13.5587,-2.73703
-413,316,0,0,0,0,0,0,0,0,0,-1,811,708,0,0
-406,316,0,0,0,0,0,0,0,0,0,-1,818,708,0,0
-399,316,0,0,0,0,0,0,0,0,0,-1,825,708,0,0
-392,316,0,0,0,0,0,0,0,0,0,-1,832,708,0,0
-385,316,0,0,0,0,0,0,0,0,0,-1,839,708,0,0
-378,316,0,0,0,0,0,0,0,0,0,-1,846,708,0,0
-371,316,0,0,0,0,0,0,0,0,0,-1,853,708,0,0
-364,316,0,0,0,0,0,0,0,0,0,-1,860,708,0,0
-357,316,0,0,0,0,0,0,0,0,0,-1,867,708,0,0
-350,316,0,0,0,0,0,0,0,0,0,-1,874,708,0,0
-343,316,0,0,0,0,0,0,0,0,0,-1,881,708,0,0
-336,316,0,0,0,0,0,0,0,0,0,-1,888,708,0,0
-329,316,0,0,0,0,0,0,0,0,0,-1,895,708,0,0
-322,316,0,0,0,0,0,0,0,0,0,-1,902,708,0,0
-315,316,0,0,0,0,0,0,0,0,0,-1,909,708,0,0
-308,316,0,0,0,0,0,0,0,0,0,-1,916,708,0,0
-301,316,0,0,0,0,0,0,0,0,0,-1,923,708,0,0
-294,316,0,0,0,0,0,0,0,0,0,-1,930,708,0,0
-287,316,0,0,0,0,0,0,0,0,0,-1,937,708,0,0
-280,316,0,0,0,0,0,0,0,0,0,-1,944,708,0,0
-273,316,0,0,0,0,0,0,0,0,0,-1,951,708,0,0
-266,316,0,0,0,0,0,0,0,0,0,-1,958,708,0,0
-259,316,0,0,0,0,0,0,0,0,0,-1,965,708,0,0
-252,316,0,0,0,0,0,0,0,0,0,-1,972,708,0,0
-245,316,0,0,0,0,0,0,0,0,0,-1,979,708,0,0
-238,316,0,0,0,0,0,0,0,0,0,-1,986,708,0,0
-231,316,0,0,0,0,0,0,0,0,0,-1,993,708,0,0
-224,316,0,0,0,0,0,0,0,0,0,-1,1000,708,0,0
-217,316,0,0,0,0,0,0,0,0,0,-1,1007,708,0,0
-210,316,0,0,0,0,0,0,0,0,0,-1,1014,708,0,0
-203,316,0,0,0,0,0,0,0,0,0,-1,1021,708,0,0
-196,316,0,0,0,0,0,0,0,0,0,-1,1028,708,0,0
-189,316,0,0,0,0,0,0,0,0,0,-1,1035,708,0,0
-182,316,0,0,0,0,0,0,0,0,0,-1,1042,708,0,0
-175,316,0,0,0,0,0,0,0,0,0,-1,1049,708,0,0
-168,316,0,0,0,0,0,0,0,0,0,-1,1056,708,0,0
-161,316,0,0,0,0,0,0,0,0,0,-1,1063,708,0,0
-154,316,0,0,0,0,0,0,0,0,0,-1,1070,708,0,0
-147,316,0,0,0,0,0,0,0,0,0,-1,1077,708,0,0
-140,316,0,0,0,0,0,0,0,0,0,-1,1084,708,0,0
-133,316,0,0,0,0,0,0,0,0,0,-1,1091,708,0,0
-126,316,0,0,0,0,0,0,0,0,0,-1,1098,708,0,0
-119,316,0,0,0,0,0,0,0,0,0,-1,1105,708,0,0
-112,316,0,0,0,0,0,0,0,0,0,-1,1112,708,0,0
-105,316,0,0,0,0,0,0,0,0,0,-1,1119,708,0,0
-98,316,0,0,0,0,0,0,0,0,0,-1,1126,708,0,0
-91,316,0,0,0,0,0,0,0,0,0,-1,1133,708,0,0
-84,316,0,0,0,0,0,0,0,0,0,-1,1140,708,0,0
-77,316,0,0,0,0,0,0,0,0,0,-1,1147,708,0,0
-70,316,0,0,0,0,0,0,0,0,0,-1,1154,708,0,0
-63,316,0,0,0,0,0,0,0,0,0,-1,1161,708,0,0
-56,316,0,0,0,0,0,0,0,0,0,-1,1168,708,0,0
-49,316,0,0,0,0,0,0,0,0,0,-1,1175,708,0,0
-42,316,0,0,0,0,0,0,0,0,0,-1,1182,708,0,0
-35,316,0,0,0,0,0,0,0,0,0,-1,1189,708,0,0
-28,316,0,0,0,0,0,0,0,0,0,-1,1196,708,0,0
-21,316,0,0,0,0,0,0,0,0,0,-1,1203,708,0,0
-14,316,0,0,0,0,0,0,0,0,0,-1,1210,708,0,0
-7,316,0,0,0,0,0,0,0,0,0,-1,1217,708,0,0
0,316,0,0,0,0,0,0,0,0,0,-1,1224,708,0,0
7,316,0,0,0,0,0,0,0,0,0,-1,1231,708,0,0
14,316,0,0,0,0,0,0,0,0,0,-1,1238,708,0,0
21,316,0,0,0,0,0,0,0,0,0,-1,1245,708,0,0
28,316,0,0,0,0,0,0,0,0,0,-1,1252,708,0,0
35,316,0,0,0,0,0,0,0,0,0,-1,1259,708,0,0
42,316,0,0,0,0,0,0,0,0,0,-1,1266,708,0,0
49,316,0,0,0,0,0,0,0,0,0,-1,1273,708,0,0
56,316,0,0,0,0,0,0,0,0,0,-1,1280,708,0,0
63,316,0,0,0,0,0,0,0,0,0,-1,1287,708,0,0
70,316,0,0,0,0,0,0,0,0,0,-1,1294,708,0,0
77,316,0,0,0,0,0,0,0,0,0,-1,1301,708,0,0
84,316,0,0,0,0,0,0,0,0,0,-1,1308,708,0,0
91,316,0,0,0,0,0,0,0,0,0,-1,1315,708,0,0
98,316,0,0,0,0,0,0,0,0,0,-1,1322,708,0,0
105,316,0,0,0,0,0,0,0,0,0,-1,1329,708,0,0
112,316,0,0,0,0,0,0,0,0,0,-1,1336,708,0,0
119,316,0,0,0,0,0,0,0,0,0,-1,1343,708,0,0
126,316,0,0,0,0,0,0,0,0,0,-1,1350,708,0,0
133,316,0,0,0,0,0,0,0,0,0,-1,1357,708,0,0
140,316,0,0,0,0,0,0,0,0,0,-1,1364,708,0,0
147,316,0,0,0,0,0,0,0,0,0,-1,1371,708,0,0
154,316,0,0,0,0,0,0,0,0,0,-1,1378,708,0,0
161,316,0,0,0,0,0,0,0,0,0,-1,1385,708,0,0
168,316,0,0,0,0,0,0,0,0,0,-1,1392,708,0,0
175,316,0,0,0,0,0,0,0,0,0,-1,1399,708,0,0
182,316,0,0,0,0,0,0,0,0,0,-1,1406,708,0,0
189,316,0,0,0,0,0,0,0,0,0,-1,1413,708,0,0
196,316,0,0,0,0,0,0,0,0,0,-1,1420,708,0,0
203,316,0,0,0,0,0,0,0,0,0,-1,1427,708,0,0
210,316,0,0,0,0,0,0,0,0,0,-1,1434,708,0,0
217,316,0,0,0,0,0,0,0,0,0,-1,1441,708,0,0
224,316,0,0,0,0,0,0,0,0,0,-1,1448,708,0,0
231,316,0,0,0,0,0,0,0,0,0,-1,1455,708,0,0
238,316,0,0,0,0,0,0,0,0,0,-1,1462,708,0,0
245,316,0,0,0,0,0,0,0,0,0,-1,1469,708,0,0
252,316,0,0,0,0,0,0,0,0,0,-1,1476,708,0,0
259,316,0,0,0,0,0,0,0,0,0,-1,1483,708,0,0
266,316,0,0,0,0,0,0,0,0,0,-1,1490,708,0,0
273,316,0,0,0,0,0,0,0,0,0,-1,1497,708,0,0
280,316,0,0,0,0,0,0,0,0,0,-1,1504,708,0,0
287,316,0,0,0,0,0,0,0,0,0,-1,1511,708,0,0
294,316,0,0,0,0,0,0,0,0,0,-1,1518,708,0,0
301,316,0,0,0,0,0,0,0,0,0,-1,1525,708,0,0
308,316,0,0,0,0,0,0,0,0,0,-1,1532,708,0,0
315,316,0,0,0,0,0,0,0,0,0,-1,1539,708,0,0
322,316,0,0,0,0,0,0,0,0,0,-1,1546,708,0,0
329,316,0,0,0,0,0,0,0,0,0,-1,1553,708,0,0
336,316,0,0,0,0,0,0,0,0,0,-1,1560,708,0,0
343,316,0,0,0,0,0,0,0,0,0,-1,1567,708,0,0
350,316,0,0,0,0,0,0,0,0,0,-1,1574,708,0,0
357,316,0,0,0,0,0,0,0,0,0,-1,1581,708,0,0
364,316,0,0,0,0,0,0,0,0,0,-1,1588,708,0,0
371,316,0,0,0,0,0,0,0,0,0,-1,1595,708,0,0
378,316,0,0,0,0,0,0,0,0,0,-1,1602,708,0,0
385,316,0,0,0,0,0,0,0,0,0,-1,1609,708,0,0
392,316,0,0,0,0,0,0,0,0,0,-1,1616,708,0,0
399,316,0,0,0,0,0,0,0,0,0,-1,1623,708,0,0
406,316,0,0,0,0,0,0,0,0,0,-1,1630,708,0,0
413,316,0,0,0,0,0,0,0,0,0,-1,1637,708,0,0
420,316,0,0,0,0,0,0,0,0,0,-1,1644,708,0,0
427,316,0,0,0,0,0,0,0,0,0,-1,1651,708,0,0
434,316,0,0,0,0,0,0,0,0,0,-1,1658,708,0,0
441,316,0,0,0,0,0,0,0,0,0,-1,1665,708,0,0
448,316,0,0,0,0,0,0,0,0,0,-1,1672,708,0,0
455,316,0,0,0,0,0,0,0,0,0,-1,1679,708,0,0
462,316,0,0,0,0,0,0,0,0,0,-1,1686,708,0,0
469,316,0,0,0,0,0,0,0,0,0,-1,1693,708,0,0
476,316,0,0,0,0,0,0,0,0,0,-1,1700,708,0,0
483,316,0,0,0,0,0,0,0,0,0,-1,1707,708,0,0
490,316,0,0,0,0,0,0,0,0,0,-1,1714,708,0,0
497,316,0,0,0,0,0,0,0,0,0,-1,1721,708,0,0
504,316,0,0,0,0,0,0,0,0,0,-1,1728,708,0,0
511,316,0,0,0,0,0,0,0,0,0,-1,1735,708,0,0
518,316,0,0,0,0,0,0,0,0,0,-1,1742,708,0,0
525,316,0,0,0,0,0,0,0,0,0,-1,1749,708,0,0
532,316,22.8335,1.74329,0,0,0,0,0,0,0,-1,1756,708,22.8335,-1.74327
539,316,23.8202,2.48529,0,0,0,0,0,0,0,-1,1763,708,23.8202,-2.48526
546,316,23.8256,3.99957,0,0,0,0,0,0,0,-1,1770,708,23.8256,-3.9996
553,316,23.8309,5.51392,0,0,0,0,0,0,0,-1,1777,708,23.8309,-5.51393
560,316,19.39,3.67322,0,0,0,0,0,0,0,-1,1784,708,19.39,-3.67322
567,316,22.0409,4.57452,0,0,0,0,0,0,0,-1,1791,708,22.0409,-4.57452
574,316,22.9047,1.6745,0,0,0,0,0,0,0,-1,1798,708,22.9047,-1.67449
581,316,23.7242,2.23938,0,0,0,0,0,0,0,-1,1805,708,23.7243,-2.23941
588,316,19.7659,2.90198,0,0,0,0,0,0,0,-1,1812,708,19.7659,-2.902
595,316,12.5363,1.50702,0,0,0,0,0,0,0,-1,1819,708,12.5363,-1.50701
602,316,7.79919,0.0422363,0,0,0,0,0,0,0,-1,1826,708,7.79923,-0.0422066
609,316,14.7306,-1.06952,0,0,0,0,0,0,0,-1,1833,708,14.7306,1.0695
616,316,14.7981,-0.761475,0.0106863,0.00351899,-0.000118509,0.0106882,0.00351704,-0.0165288,0.00628992,0.0198405,1840,708,14.7981,0.761448
623,316,14.8024,-0.473755,0.00638589,0.00169292,-0.000140348,0.00639009,0.00168872,-0.0298703,0.00382355,0.0115045,1847,708,14.8024,0.473754
630,316,14.7833,-0.181274,0.003524,0.000546987,-0.000243422,0.00354377,0.000527214,-0.0810498,0.00220786,0.0130734,1854,708,14.7833,0.181244
637,316,14.7953,0.142944,0.000943299,-0.000472803,-0.000494207,0.00109872,-0.00062822,-0.304685,0.00100931,0.0118379,1861,708,14.7952,-0.142955
644,316,14.8,0.460388,-0.000962743,-0.000807441,-0.00108387,0.00020156,-0.00197174,-0.821158,0.00138658,0.012733,1868,708,14.8,-0.460384
651,316,14.7828,0.776794,-0.00206201,-0.00101091,-0.00173384,0.000275277,-0.0033482,-0.932554,0.00232932,0.013668,1875,708,14.7828,-0.776791
658,316,14.7644,1.08661,-0.00292404,-0.00109197,-0.00229663,0.00046457,-0.00448058,-0.975161,0.00315334,0.0210514,1882,708,14.7644,-1.08662
665,316,14.7477,1.39032,-0.00377489,-0.00127382,-0.00300175,0.000727468,-0.00577617,-0.982766,0.00411476,0.0167156,1889,708,14.7477,-1.39032
672,316,14.7659,1.69128,-0.00388427,-0.00159267,-0.00364146,0.001079,-0.00655594,-0.937821,0.00477114,0.011737,1896,708,14.7659,-1.69126
679,316,14.7677,2.02411,-0.00382877,-0.00189518,-0.00426069,0.00150702,-0.00723097,-0.896964,0.00539363,0.0173143,1903,708,14.7677,-2.02413
686,316,14.6328,2.24457,-0.00290239,-0.00240983,-0.00489508,0.00224516,-0.00755738,-0.810533,0.00593005,0.032962,1910,708,14.6328,-2.24456
693,316,14.463,2.4809,0,0,0,0,0,0,0,-1,1917,708,14.463,-2.4809
700,316,12.8749,2.89136,0,0,0,0,0,0,0,-1,1924,708,12.8748,-2.89137
707,316,15.7089,5.41486,0,0,0,0,0,0,0,-1,1931,708,15.7088,-5.41487
714,316,16.1727,5.52045,0,0,0,0,0,0,0,-1,1938,708,16.1728,-5.52042
721,316,16.7094,6.53351,0,0,0,0,0,0,0,-1,1945,708,16.7094,-6.5335
728,316,0,0,0,0,0,0,0,0,0,-1,1952,708,0,0
735,316,0,0,0,0,0,0,0,0,0,-1,1959,708,0,0
742,316,0,0,0,0,0,0,0,0,0,-1,1966,708,0,0
749,316,0,0,0,0,0,0,0,0,0,-1,1973,708,0,0
756,316,0,0,0,0,0,0,0,0,0,-1,1980,708,0,0
763,316,0,0,0,0,0,0,0,0,0,-1,1987,708,0,0
770,316,0,0,0,0,0,0,0,0,0,-1,1994,708,0,0
777,316,0,0,0,0,0,0,0,0,0,-1,2001,708,0,0
784,316,0,0,0,0,0,0,0,0,0,-1,2008,708,0,0
791,316,0,0,0,0,0,0,0,0,0,-1,2015,708,0,0
798,316,0,0,0,0,0,0,0,0,0,-1,2022,708,0,0
805,316,0,0,0,0,0,0,0,0,0,-1,2029,708,0,0
812,316,0,0,0,0,0,0,0,0,0,-1,2036,708,0,0
-700,309,0,0,0,0,0,0,0,0,0,-1,524,715,0,0
-693,309,0,0,0,0,0,0,0,0,0,-1,531,715,0,0
-686,309,0,0,0,0,0,0,0,0,0,-1,538,715,0,0
-679,309,0,0,0,0,0,0,0,0,0,-1,545,715,0,0
-672,309,0,0,0,0,0,0,0,0,0,-1,552,715,0,0
-665,309,0,0,0,0,0,0,0,0,0,-1,559,715,0,0
-658,309,0,0,0,0,0,0,0,0,0,-1,566,715,0,0
-651,309,0,0,0,0,0,0,0,0,0,-1,573,715,0,0
-644,309,0,0,0,0,0,0,0,0,0,-1,580,715,0,0
-637,309,0,0,0,0,0,0,0,0,0,-1,587,715,0,0
-630,309,0,0,0,0,0,0,0,0,0,-1,594,715,0,0
-623,309,0,0,0,0,0,0,0,0,0,-1,601,715,0,0
-616,309,0,0,0,0,0,0,0,0,0,-1,608,715,0,0
-609,309,-5.95392,-3.93689,0,0,0,0,0,0,0,-1,615,715,-5.95392,3.93686
-602,309,-4.99786,-3.31287,0,0,0,0,0,0,0,-1,622,715,-4.99786,3.31284
-595,309,-6.80847,2.4046,0,0,0,0,0,0,0,-1,629,715,-6.80845,-2.40458
-588,309,-6.08795,2.19324,0,0,0,0,0,0,0,-1,636,715,-6.08793,-2.19325
-581,309,-5.97552,1.3277,0,0,0,0,0,0,0,-1,643,715,-5.97552,-1.32769
-574,309,-6.18237,0.739502,0,0,0,0,0,0,0,-1,650,715,-6.18236,-0.739503
-567,309,-6.90912,-0.142883,0,0,0,0,0,0,0,-1,657,715,-6.9091,0.142895
-560,309,-8.49707,-0.0369263,0,0,0,0,0,0,0,-1,664,715,-8.49707,0.0369553
-553,309,-8.53101,-0.0789795,-0.00448924,0.0165387,9.10378e-05,0.0165391,-0.00448963,1.56647,0.0127881,0.0323881,671,715,-8.531,0.0789768
-546,309,-8.5976,-0.309937,-0.00306757,0.0129991,-0.000404503,0.0130092,-0.00307775,-1.54564,0.00986017,0.0165976,678,715,-8.5976,0.309917
-539,309,-8.58398,-0.623352,-0.00202393,0.0092183,-0.000451217,0.00923638,-0.00204201,-1.53075,0.00693914,0.0144931,685,715,-8.58396,0.623322
-532,309,-8.60144,-0.903748,-0.00105039,0.00597065,-0.000286139,0.00598229,-0.00106203,-1.53013,0.00438528,0.011597,692,715,-8.60144,0.903752
-525,309,-8.58459,-1.19446,-0.000165252,0.00338537,-9.06114e-05,0.00338768,-0.000167563,-1.5453,0.00231633,0.0141132,699,715,-8.58457,1.19447
-518,309,-8.58093,-1.4743,0.000716525,0.00127587,2.50123e-05,0.00127698,0.000715408,1.5262,0.000739047,0.0146603,706,715,-8.58094,1.47433
-511,309,-8.59991,-1.74884,0.00166056,-0.000316961,-2.04926e-05,0.00166077,-0.000317173,-0.0103613,0.00122665,0.0122027,713,715,-8.59994,1.74884
-504,309,-8.5849,-2.0224,0.00285626,-0.00133633,0.000715293,0.00297493,-0.00145501,0.164415,0.00260733,0.0102389,720,715,-8.5849,2.02241
-497,309,-8.59064,-2.30792,0.00457552,-0.00141939,0.00215697,0.00527093,-0.0021148,0.31188,0.00439202,0.014506,727,715,-8.59061,2.30795
-490,309,-8.56879,-2.57172,0.00642432,-0.00129984,0.00351367,0.0077835,-0.00265902,0.369098,0.0062663,0.0309151,734,715,-8.56879,2.57173
-483,309,-8.33704,-2.99359,0,0,0,0,0,0,0,-1,741,715,-8.33705,2.9936
-476,309,-5.29486,-1.2262,0,0,0,0,0,0,0,-1,748,715,-5.29484,1.22622
-469,309,-4.22717,-0.592896,0,0,0,0,0,0,0,-1,755,715,-4.2272,0.592905
-462,309,-10.428,2.46948,0,0,0,0,0,0,0,-1,762,715,-10.428,-2.46947
-455,309,-15.8216,0.00915527,0,0,0,0,0,0,0,-1,769,715,-15.8216,-0.00913359
-448,309,-15.4611,0.366089,0,0,0,0,0,0,0,-1,776,715,-15.4611,-0.366079
-441,309,-15.3824,0.434998,0,0,0,0,0,0,0,-1,783,715,-15.3824,-0.434975
-434,309,-15.3519,1.06873,0,0,0,0,0,0,0,-1,790,715,-15.3519,-1.06874
-427,309,-15.1996,1.32141,0,0,0,0,0,0,0,-1,797,715,-15.1996,-1.3214
-420,309,-13.3781,3.26843,0,0,0,0,0,0,0,-1,804,715,-13.3781,-3.26842
-413,309,0,0,0,0,0,0,0,0,0,-1,811,715,0,0
-406,309,0,0,0,0,0,0,0,0,0,-1,818,715,0,0
-399,309,0,0,0,0,0,0,0,0,0,-1,825,715,0,0
-392,309,0,0,0,0,0,0,0,0,0,-1,832,715,0,0
-385,309,0,0,0,0,0,0,0,0,0,-1,839,715,0,0
-378,309,0,0,0,0,0,0,0,0,0,-1,846,715,0,0
-371,309,0,0,0,0,0,0,0,0,0,-1,853,715,0,0
-364,309,0,0,0,0,0,0,0,0,0,-1,860,715,0,0
-357,309,0,0,0,0,0,0,0,0,0,-1,867,715,0,0
-350,309,0,0,0,0,0,0,0,0,0,-1,874,715,0,0
-343,309,0,0,0,0,0,0,0,0,0,-1,881,715,0,0
-336,309,0,0,0,0,0,0,0,0,0,-1,888,715,0,0
-329,309,0,0,0,0,0,0,0,0,0,-1,895,715,0,0
-322,309,0,0,0,0,0,0,0,0,0,-1,902,715,0,0
-315,309,0,0,0,0,0,0,0,0,0,-1,909,715,0,0
-308,309,0,0,0,0,0,0,0,0,0,-1,916,715,0,0
-301,309,0,0,0,0,0,0,0,0,0,-1,923,715,0,0
-294,309,0,0,0,0,0,0,0,0,0,-1,930,715,0,0
-287,309,0,0,0,0,0,0,0,0,0,-1,937,715,0,0
-280,309,0,0,0,0,0,0,0,0,0,-1,944,715,0,0
-273,309,0,0,0,0,0,0,0,0,0,-1,951,715,0,0
-266,309,0,0,0,0,0,0,0,0,0,-1,958,715,0,0
-259,309,0,0,0,0,0,0,0,0,0,-1,965,715,0,0
-252,309,0,0,0,0,0,0,0,0,0,-1,972,715,0,0
-245,309,0,0,0,0,0,0,0,0,0,-1,979,715,0,0
-238,309,0,0,0,0,0,0,0,0,0,-1,986,715,0,0
-231,309,0,0,0,0,0,0,0,0,0,-1,993,715,0,0
-224,309,0,0,0,0,0,0,0,0,0,-1,1000,715,0,0
-217,309,0,0,0,0,0,0,0,0,0,-1,1007,715,0,0
-210,309,0,0,0,0,0,0,0,0,0,-1,1014,715,0,0
-203,309,0,0,0,0,0,0,0,0,0,-1,1021,715,0,0
-196,309,0,0,0,0,0,0,0,0,0,-1,1028,715,0,0
-189,309,0,0,0,0,0,0,0,0,0,-1,1035,715,0,0
-182,309,0,0,0,0,0,0,0,0,0,-1,1042,715,0,0
-175,309,0,0,0,0,0,0,0,0,0,-1,1049,715,0,0
-168,309,0,0,0,0,0,0,0,0,0,-1,1056,715,0,0
-161,309,0,0,0,0,0,0,0,0,0,-1,1063,715,0,0
-154,309,0,0,0,0,0,0,0,0,0,-1,1070,715,0,0
-147,309,0,0,0,0,0,0,0,0,0,-1,1077,715,0,0
-140,309,0,0,0,0,0,0,0,0,0,-1,1084,715,0,0
-133,309,0,0,0,0,0,0,0,0,0,-1,1091,715,0,0
-126,309,0,0,0,0,0,0,0,0,0,-1,1098,715,0,0
-119,309,0,0,0,0,0,0,0,0,0,-1,1105,715,0,0
-112,309,0,0,0,0,0,0,0,0,0,-1,1112,715,0,0
-105,309,0,0,0,0,0,0,0,0,0,-1,1119,715,0,0
-98,309,0,0,0,0,0,0,0,0,0,-1,1126,715,0,0
-91,309,0,0,0,0,0,0,0,0,0,-1,1133,715,0,0
-84,309,0,0,0,0,0,0,0,0,0,-1,1140,715,0,0
-77,309,0,0,0,0,0,0,0,0,0,-1,1147,715,0,0
-70,309,0,0,0,0,0,0,0,0,0,-1,1154,715,0,0
-63,309,0,0,0,0,0,0,0,0,0,-1,1161,715,0,0
-56,309,0,0,0,0,0,0,0,0,0,-1,1168,715,0,0
-49,309,0,0,0,0,0,0,0,0,0,-1,1175,715,0,0
-42,309,0,0,0,0,0,0,0,0,0,-1,1182,715,0,0
-35,309,0,0,0,0,0,0,0,0,0,-1,1189,715,0,0
-28,309,0,0,0,0,0,0,0,0,0,-1,1196,715,0,0
-21,309,0,0,0,0,0,0,0,0,0,-1,1203,715,0,0
-14,309,0,0,0,0,0,0,0,0,0,-1,1210,715,0,0
-7,309,0,0,0,0,0,0,0,0,0,-1,1217,715,0,0
0,309,0,0,0,0,0,0,0,0,0,-1,1224,715,0,0
7,309,0,0,0,0,0,0,0,0,0,-1,1231,715,0,0
14,309,0,0,0,0,0,0,0,0,0,-1,1238,715,0,0
21,309,0,0,0,0,0,0,0,0,0,-1,1245,715,0,0
28,309,0,0,0,0,0,0,0,0,0,-1,1252,715,0,0
35,309,0,0,0,0,0,0,0,0,0,-1,1259,715,0,0
42,309,0,0,0,0,0,0,0,0,0,-1,1266,715,0,0
49,309,0,0,0,0,0,0,0,0,0,-1,1273,715,0,0
56,309,0,0,0,0,0,0,0,0,0,-1,1280,715,0,0
63,309,0,0,0,0,0,0,0,0,0,-1,1287,715,0,0
70,309,0,0,0,0,0,0,0,0,0,-1,1294,715,0,0
77,309,0,0,0,0,0,0,0,0,0,-1,1301,715,0,0
84,309,0,0,0,0,0,0,0,0,0,-1,1308,715,0,0
91,309,0,0,0,0,0,0,0,0,0,-1,1315,715,0,0
98,309,0,0,0,0,0,0,0,0,0,-1,1322,715,0,0
105,309,0,0,0,0,0,0,0,0,0,-1,1329,715,0,0
112,309,0,0,0,0,0,0,0,0,0,-1,1336,715,0,0
119,309,0,0,0,0,0,0,0,0,0,-1,1343,715,0,0
126,309,0,0,0,0,0,0,0,0,0,-1,1350,715,0,0
133,309,0,0,0,0,0,0,0,0,0,-1,1357,715,0,0
140,309,0,0,0,0,0,0,0,0,0,-1,1364,715,0,0
147,309,0,0,0,0,0,0,0,0,0,-1,1371,715,0,0
154,309,0,0,0,0,0,0,0,0,0,-1,1378,715,0,0
161,309,0,0,0,0,0,0,0,0,0,-1,1385,715,0,0
168,309,0,0,0,0,0,0,0,0,0,-1,1392,715,0,0
175,309,0,0,0,0,0,0,0,0,0,-1,1399,715,0,0
182,309,0,0,0,0,0,0,0,0,0,-1,1406,715,0,0
189,309,0,0,0,0,0,0,0,0,0,-1,1413,715,0,0
196,309,0,0,0,0,0,0,0,0,0,-1,1420,715,0,0
203,309,0,0,0,0,0,0,0,0,0,-1,1427,715,0,0
210,309,0,0,0,0,0,0,0,0,0,-1,1434,715,0,0
217,309,0,0,0,0,0,0,0,0,0,-1,1441,715,0,0
224,309,0,0,0,0,0,0,0,0,0,-1,1448,715,0,0
231,309,0,0,0,0,0,0,0,0,0,-1,1455,715,0,0
238,309,0,0,0,0,0,0,0,0,0,-1,1462,715,0,0
245,309,0,0,0,0,0,0,0,0,0,-1,1469,715,0,0
252,309,0,0,0,0,0,0,0,0,0,-1,1476,715,0,0
259,309,0,0,0,0,0,0,0,0,0,-1,1483,715,0,0
266,309,0,0,0,0,0,0,0,0,0,-1,1490,715,0,0
273,309,0,0,0,0,0,0,0,0,0,-1,1497,715,0,0
280,309,0,0,0,0,0,0,0,0,0,-1,1504,715,0,0
287,309,0,0,0,0,0,0,0,0,0,-1,1511,715,0,0
294,309,0,0,0,0,0,0,0,0,0,-1,1518,715,0,0
301,309,0,0,0,0,0,0,0,0,0,-1,1525,715,0,0
308,309,0,0,0,0,0,0,0,0,0,-1,1532,715,0,0
315,309,0,0,0,0,0,0,0,0,0,-1,1539,715,0,0
322,309,0,0,0,0,0,0,0,0,0,-1,1546,715,0,0
329,309,0,0,0,0,0,0,0,0,0,-1,1553,715,0,0
336,309,0,0,0,0,0,0,0,0,0,-1,1560,715,0,0
343,309,0,0,0,0,0,0,0,0,0,-1,1567,715,0,0
350,309,0,0,0,0,0,0,0,0,0,-1,1574,715,0,0
357,309,0,0,0,0,0,0,0,0,0,-1,1581,715,0,0
364,309,0,0,0,0,0,0,0,0,0,-1,1588,715,0,0
371,309,0,0,0,0,0,0,0,0,0,-1,1595,715,0,0
378,309,0,0,0,0,0,0,0,0,0,-1,1602,715,0,0
385,309,0,0,0,0,0,0,0,0,0,-1,1609,715,0,0
392,309,0,0,0,0,0,0,0,0,0,-1,1616,715,0,0
399,309,0,0,0,0,0,0,0,0,0,-1,1623,715,0,0
406,309,0,0,0,0,0,0,0,0,0,-1,1630,715,0,0
413,309,0,0,0,0,0,0,0,0,0,-1,1637,715,0,0
420,309,0,0,0,0,0,0,0,0,0,-1,1644,715,0,0
427,309,0,0,0,0,0,0,0,0,0,-1,1651,715,0,0
434,309,0,0,0,0,0,0,0,0,0,-1,1658,715,0,0
441,309,0,0,0,0,0,0,0,0,0,-1,1665,715,0,0
448,309,0,0,0,0,0,0,0,0,0,-1,1672,715,0,0
455,309,0,0,0,0,0,0,0,0,0,-1,1679,715,0,0
462,309,0,0,0,0,0,0,0,0,0,-1,1686,715,0,0
469,309,0,0,0,0,0,0,0,0,0,-1,1693,715,0,0
476,309,0,0,0,0,0,0,0,0,0,-1,1700,715,0,0
483,309,0,0,0,0,0,0,0,0,0,-1,1707,715,0,0
490,309,0,0,0,0,0,0,0,0,0,-1,1714,715,0,0
497,309,0,0,0,0,0,0,0,0,0,-1,1721,715,0,0
504,309,0,0,0,0,0,0,0,0,0,-1,1728,715,0,0
511,309,0,0,0,0,0,0,0,0,0,-1,1735,715,0,0
518,309,0,0,0,0,0,0,0,0,0,-1,1742,715,0,0
525,309,0,0,0,0,0,0,0,0,0,-1,1749,715,0,0
532,309,0,0,0,0,0,0,0,0,0,-1,1756,715,0,0
539,309,23.7823,1.90894,0,0,0,0,0,0,0,-1,1763,715,23.7823,-1.90896
546,309,23.774,3.50403,0,0,0,0,0,0,0,-1,1770,715,23.7741,-3.50403
553,309,23.6428,3.98926,0,0,0,0,0,0,0,-1,1777,715,23.6428,-3.98926
560,309,23.3464,4.13385,0,0,0,0,0,0,0,-1,1784,715,23.3465,-4.13383
567,309,22.1604,4.20935,0,0,0,0,0,0,0,-1,1791,715,22.1604,-4.20934
574,309,22.0831,4.87201,0,0,0,0,0,0,0,-1,1798,715,22.0831,-4.872
581,309,23.4667,2.21063,0,0,0,0,0,0,0,-1,1805,715,23.4667,-2.21066
588,309,24.2113,3.86719,0,0,0,0,0,0,0,-1,1812,715,24.2113,-3.86717
595,309,19.585,3.71558,0,0,0,0,0,0,0,-1,1819,715,19.5849,-3.71555
602,309,11.0811,3.47772,0,0,0,0,0,0,0,-1,1826,715,11.0811,-3.47772
609,309,15.066,-1.06879,0,0,0,0,0,0,0,-1,1833,715,15.0661,1.06879
616,309,15.1144,-0.763428,0.0143088,0.00464852,-0.000156565,0.0143113,0.00464598,-0.0162014,0.00843034,0.0282293,1840,715,15.1144,0.763412
623,309,15.1324,-0.478882,0.00889696,0.0024109,-0.000237877,0.00890567,0.00240219,-0.0366096,0.00532033,0.0110848,1847,715,15.1324,0.478869
630,309,15.1045,-0.168091,0.00523268,0.000912597,-0.000304533,0.00525404,0.000891235,-0.0700308,0.00324665,0.0107025,1854,715,15.1045,0.16807
637,309,15.0825,0.16272,0.0017952,-0.000409325,-0.000428956,0.00187572,-0.00048985,-0.185563,0.00144177,0.0136007,1861,715,15.0825,-0.162742
644,309,15.0796,0.470581,-0.000509199,-0.000789745,-0.000890527,0.000252035,-0.00155098,-0.707282,0.00112743,0.0151856,1868,715,15.0796,-0.470574
651,309,15.0861,0.777222,-0.00138435,-0.000856839,-0.00137069,0.000275239,-0.00251643,-0.880449,0.00177649,0.0137721,1875,715,15.0861,-0.777221
658,309,15.095,1.08844,-0.00197001,-0.000801026,-0.00174546,0.000455206,-0.00322624,-0.946962,0.00231751,0.0186867,1882,715,15.095,-1.08842
665,309,15.0948,1.38794,-0.0023681,-0.000837428,-0.00222894,0.000753915,-0.00395944,-0.950773,0.00292352,0.0167426,1889,715,15.0949,-1.38794
672,309,15.0869,1.68427,-0.00171792,-0.00100665,-0.00255695,0.00121928,-0.00394385,-0.854497,0.00311621,0.0138339,1896,715,15.0869,-1.68428
679,309,15.1091,1.99762,-0.000867431,-0.00113365,-0.00285495,0.00185751,-0.0038586,-0.762103,0.00336693,0.014497,1903,715,15.1092,-1.99761
686,309,15.0601,2.27252,0.00110727,-0.0014252,-0.00307653,0.00316796,-0.00348589,-0.590174,0.00384306,0.0220316,1910,715,15.0601,-2.27252
693,309,14.676,2.53912,0.005121,-0.00174989,-0.00291108,0.00618852,-0.00281741,-0.351482,0.00531962,0.0396427,1917,715,14.676,-2.53912
700,309,14.3821,2.88446,0,0,0,0,0,0,0,-1,1924,715,14.3821,-2.88447
707,309,15.6318,4.58655,0,0,0,0,0,0,0,-1,1931,715,15.6318,-4.58657
714,309,15.7795,4.10205,0,0,0,0,0,0,0,-1,1938,715,15.7796,-4.10207
721,309,16.8337,5.4458,0,0,0,0,0,0,0,-1,1945,715,16.8338,-5.44582
728,309,0,0,0,0,0,0,0,0,0,-1,1952,715,0,0
735,309,0,0,0,0,0,0,0,0,0,-1,1959,715,0,0
742,309,0,0,0,0,0,0,0,0,0,-1,1966,715,0,0
749,309,0,0,0,0,0,0,0,0,0,-1,1973,715,0,0
756,309,0,0,0,0,0,0,0,0,0,-1,1980,715,0,0
763,309,0,0,0,0,0,0,0,0,0,-1,1987,715,0,0
770,309,0,0,0,0,0,0,0,0,0,-1,1994,715,0,0
777,309,0,0,0,0,0,0,0,0,0,-1,2001,715,0,0
784,309,0,0,0,0,0,0,0,0,0,-1,2008,715,0,0
791,309,0,0,0,0,0,0,0,0,0,-1,2015,715,0,0
798,309,0,0,0,0,0,0,0,0,0,-1,2022,715,0,0
805,309,0,0,0,0,0,0,0,0,0,-1,2029,715,0,0
812,309,0,0,0,0,0,0,0,0,0,-1,2036,715,0,0
-700,302,0,0,0,0,0,0,0,0,0,-1,524,722,0,0
-693,302,0,0,0,0,0,0,0,0,0,-1,531,722,0,0
-686,302,0,0,0,0,0,0,0,0,0,-1,538,722,0,0
-679,302,0,0,0,0,0,0,0,0,0,-1,545,722,0,0
-672,302,0,0,0,0,0,0,0,0,0,-1,552,722,0,0
-665,302,0,0,0,0,0,0,0,0,0,-1,559,722,0,0
-658,302,0,0,0,0,0,0,0,0,0,-1,566,722,0,0
-651,302,0,0,0,0,0,0,0,0,0,-1,573,722,0,0
-644,302,0,0,0,0,0,0,0,0,0,-1,580,722,0,0
-637,302,0,0,0,0,0,0,0,0,0,-1,587,722,0,0
-630,302,0,0,0,0,0,0,0,0,0,-1,594,722,0,0
-623,302,0,0,0,0,0,0,0,0,0,-1,601,722,0,0
-616,302,0,0,0,0,0,0,0,0,0,-1,608,722,0,0
-609,302,-7.79266,-3.71649,0,0,0,0,0,0,0,-1,615,722,-7.79267,3.7165
-602,302,0.92865,-1.99158,0,0,0,0,0,0,0,-1,622,722,0.928637,1.99157
-595,302,-7.89941,2.13641,0,0,0,0,0,0,0,-1,629,722,-7.89939,-2.13639
-588,302,-7.10895,1.79163,0,0,0,0,0,0,0,-1,636,722,-7.10896,-1.79163
-581,302,-6.89783,0.795593,0,0,0,0,0,0,0,-1,643,722,-6.8978,-0.795616
-574,302,-6.96332,0.838074,0,0,0,0,0,0,0,-1,650,722,-6.9633,-0.838083
-567,302,-8.20331,0.0391846,0,0,0,0,0,0,0,-1,657,722,-8.20331,-0.0391561
-560,302,-8.57904,0.0114136,-0.00702209,0.0125938,0.00281658,0.0129902,-0.0074185,1.43097,0.0119284,0.0467249,664,722,-8.57905,-0.0114204
-553,302,-8.87384,-0.0257568,-0.00495149,0.0111196,0.00144534,0.0112485,-0.00508044,1.48181,0.00964914,0.0190421,671,722,-8.87386,0.025768
-546,302,-8.87781,-0.350159,-0.0034801,0.00898016,0.000730157,0.0090228,-0.00352274,1.51246,0.00747159,0.0145571,678,722,-8.87781,0.350138
-539,302,-8.90253,-0.602234,-0.00243885,0.00624993,0.000457011,0.0062739,-0.00246282,1.51839,0.00520166,0.0142284,685,722,-8.90251,0.60225
-532,302,-8.89978,-0.884399,-0.00140806,0.00381599,0.000428912,0.00385097,-0.00144304,1.48942,0.00316013,0.0134543,692,722,-8.89979,0.884369
-525,302,-8.86682,-1.18268,-0.000460394,0.00193574,0.000426755,0.00200948,-0.00053413,1.3997,0.00154871,0.0173699,699,722,-8.86685,1.18267
-518,302,-8.87103,-1.46997,0.000484426,0.000399368,0.000345136,0.000789644,9.41503e-05,0.724095,0.000498021,0.0172512,706,722,-8.87102,1.46999
-511,302,-8.87323,-1.73438,0.0014903,-0.000755994,0.000115436,0.00149622,-0.000761911,0.0512097,0.00132651,0.0099127,713,722,-8.87321,1.7344
-504,302,-8.88251,-2.021,0.00281702,-0.001427,0.000890894,0.00299645,-0.00160643,0.198744,0.00269756,0.00989638,720,722,-8.8825,2.02102
-497,302,-8.89264,-2.29907,0.00473292,-0.0012819,0.00246885,0.00561649,-0.00216546,0.343684,0.00463784,0.0146048,727,722,-8.89264,2.29906
-490,302,-8.7901,-2.51343,0.00676536,-0.00101792,0.00389948,0.00838287,-0.00263543,0.393202,0.00664364,0.0435922,734,722,-8.7901,2.51346
-483,302,-8.40979,-2.52417,0,0,0,0,0,0,0,-1,741,722,-8.40979,2.52417
-476,302,-4.29749,-0.203491,0,0,0,0,0,0,0,-1,748,722,-4.29751,0.203464
-469,302,-12.369,1.42859,0,0,0,0,0,0,0,-1,755,722,-12.3689,-1.42857
-462,302,-11.623,2.56793,0,0,0,0,0,0,0,-1,762,722,-11.623,-2.56794
-455,302,-16.671,0.0906982,0,0,0,0,0,0,0,-1,769,722,-16.671,-0.0906873
-448,302,-15.1206,0.651978,0,0,0,0,0,0,0,-1,776,722,-15.1206,-0.651956
-441,302,-14.8055,0.903259,0,0,0,0,0,0,0,-1,783,722,-14.8055,-0.903241
-434,302,-14.3528,1.18164,0,0,0,0,0,0,0,-1,790,722,-14.3528,-1.18164
-427,302,-15.3611,1.80798,0,0,0,0,0,0,0,-1,797,722,-15.3611,-1.80801
-420,302,0,0,0,0,0,0,0,0,0,-1,804,722,0,0
-413,302,0,0,0,0,0,0,0,0,0,-1,811,722,0,0
-406,302,0,0,0,0,0,0,0,0,0,-1,818,722,0,0
-399,302,0,0,0,0,0,0,0,0,0,-1,825,722,0,0
-392,302,0,0,0,0,0,0,0,0,0,-1,832,722,0,0
-385,302,0,0,0,0,0,0,0,0,0,-1,839,722,0,0
-378,302,0,0,0,0,0,0,0,0,0,-1,846,722,0,0
-371,302,0,0,0,0,0,0,0,0,0,-1,853,722,0,0
-364,302,0,0,0,0,0,0,0,0,0,-1,860,722,0,0
-357,302,0,0,0,0,0,0,0,0,0,-1,867,722,0,0
-350,302,0,0,0,0,0,0,0,0,0,-1,874,722,0,0
-343,302,0,0,0,0,0,0,0,0,0,-1,881,722,0,0
-336,302,0,0,0,0,0,0,0,0,0,-1,888,722,0,0
-329,302,0,0,0,0,0,0,0,0,0,-1,895,722,0,0
-322,302,0,0,0,0,0,0,0,0,0,-1,902,722,0,0
-315,302,0,0,0,0,0,0,0,0,0,-1,909,722,0,0
-308,302,0,0,0,0,0,0,0,0,0,-1,916,722,0,0
-301,302,0,0,0,0,0,0,0,0,0,-1,923,722,0,0
-294,302,0,0,0,0,0,0,0,0,0,-1,930,722,0,0
-287,302,0,0,0,0,0,0,0,0,0,-1,937,722,0,0
-280,302,0,0,0,0,0,0,0,0,0,-1,944,722,0,0
-273,302,0,0,0,0,0,0,0,0,0,-1,951,722,0,0
-266,302,0,0,0,0,0,0,0,0,0,-1,958,722,0,0
-259,302,0,0,0,0,0,0,0,0,0,-1,965,722,0,0
-252,302,0,0,0,0,0,0,0,0,0,-1,972,722,0,0
-245,302,0,0,0,0,0,0,0,0,0,-1,979,722,0,0
-238,302,0,0,0,0,0,0,0,0,0,-1,986,722,0,0
-231,302,0,0,0,0,0,0,0,0,0,-1,993,722,0,0
-224,302,0,0,0,0,0,0,0,0,0,-1,1000,722,0,0
-217,302,0,0,0,0,0,0,0,0,0,-1,1007,722,0,0
-210,302,0,0,0,0,0,0,0,0,0,-1,1014,722,0,0
-203,302,0,0,0,0,0,0,0,0,0,-1,1021,722,0,0
-196,302,0,0,0,0,0,0,0,0,0,-1,1028,722,0,0
-189,302,0,0,0,0,0,0,0,0,0,-1,1035,722,0,0
-182,302,0,0,0,0,0,0,0,0,0,-1,1042,722,0,0
-175,302,0,0,0,0,0,0,0,0,0,-1,1049,722,0,0
-168,302,0,0,0,0,0,0,0,0,0,-1,1056,722,0,0
-161,302,0,0,0,0,0,0,0,0,0,-1,1063,722,0,0
-154,302,0,0,0,0,0,0,0,0,0,-1,1070,722,0,0
-147,302,0,0,0,0,0,0,0,0,0,-1,1077,722,0,0
-140,302,0,0,0,0,0,0,0,0,0,-1,1084,722,0,0
-133,302,0,0,0,0,0,0,0,0,0,-1,1091,722,0,0
-126,302,0,0,0,0,0,0,0,0,0,-1,1098,722,0,0
-119,302,0,0,0,0,0,0,0,0,0,-1,1105,722,0,0
-112,302,0,0,0,0,0,0,0,0,0,-1,1112,722,0,0
-105,302,0,0,0,0,0,0,0,0,0,-1,1119,722,0,0
-98,302,0,0,0,0,0,0,0,0,0,-1,1126,722,0,0
-91,302,0,0,0,0,0,0,0,0,0,-1,1133,722,0,0
-84,302,0,0,0,0,0,0,0,0,0,-1,1140,722,0,0
-77,302,0,0,0,0,0,0,0,0,0,-1,1147,722,0,0
-70,302,0,0,0,0,0,0,0,0,0,-1,1154,722,0,0
-63,302,0,0,0,0,0,0,0,0,0,-1,1161,722,0,0
-56,302,0,0,0,0,0,0,0,0,0,-1,1168,722,0,0
-49,302,0,0,0,0,0,0,0,0,0,-1,1175,722,0,0
-42,302,0,0,0,0,0,0,0,0,0,-1,1182,722,0,0
-35,302,0,0,0,0,0,0,0,0,0,-1,1189,722,0,0
-28,302,0,0,0,0,0,0,0,0,0,-1,1196,722,0,0
-21,302,0,0,0,0,0,0,0,0,0,-1,1203,722,0,0
-14,302,0,0,0,0,0,0,0,0,0,-1,1210,722,0,0
-7,302,0,0,0,0,0,0,0,0,0,-1,1217,722,0,0
0,302,0,0,0,0,0,0,0,0,0,-1,1224,722,0,0
7,302,0,0,0,0,0,0,0,0,0,-1,1231,722,0,0
14,302,0,0,0,0,0,0,0,0,0,-1,1238,722,0,0
21,302,0,0,0,0,0,0,0,0,0,-1,1245,722,0,0
28,302,0,0,0,0,0,0,0,0,0,-1,1252,722,0,0
35,302,0,0,0,0,0,0,0,0,0,-1,1259,722,0,0
42,302,0,0,0,0,0,0,0,0,0,-1,1266,722,0,0
49,302,0,0,0,0,0,0,0,0,0,-1,1273,722,0,0
56,302,0,0,0,0,0,0,0,0,0,-1,1280,722,0,0
63,302,0,0,0,0,0,0,0,0,0,-1,1287,722,0,0
70,302,0,0,0,0,0,0,0,0,0,-1,1294,722,0,0
77,302,0,0,0,0,0,0,0,0,0,-1,1301,722,0,0
84,302,0,0,0,0,0,0,0,0,0,-1,1308,722,0,0
91,302,0,0,0,0,0,0,0,0,0,-1,1315,722,0,0
98,302,0,0,0,0,0,0,0,0,0,-1,1322,722,0,0
105,302,0,0,0,0,0,0,0,0,0,-1,1329,722,0,0
112,302,0,0,0,0,0,0,0,0,0,-1,1336,722,0,0
119,302,0,0,0,0,0,0,0,0,0,-1,1343,722,0,0
126,302,0,0,0,0,0,0,0,0,0,-1,1350,722,0,0
133,302,0,0,0,0,0,0,0,0,0,-1,1357,722,0,0
140,302,0,0,0,0,0,0,0,0,0,-1,1364,722,0,0
147,302,0,0,0,0,0,0,0,0,0,-1,1371,722,0,0
154,302,0,0,0,0,0,0,0,0,0,-1,1378,722,0,0
161,302,0,0,0,0,0,0,0,0,0,-1,1385,722,0,0
168,302,0,0,0,0,0,0,0,0,0,-1,1392,722,0,0
175,302,0,0,0,0,0,0,0,0,0,-1,1399,722,0,0
182,302,0,0,0,0,0,0,0,0,0,-1,1406,722,0,0
189,302,0,0,0,0,0,0,0,0,0,-1,1413,722,0,0
196,302,0,0,0,0,0,0,0,0,0,-1,1420,722,0,0
203,302,0,0,0,0,0,0,0,0,0,-1,1427,722,0,0
210,302,0,0,0,0,0,0,0,0,0,-1,1434,722,0,0
217,302,0,0,0,0,0,0,0,0,0,-1,1441,722,0,0
224,302,0,0,0,0,0,0,0,0,0,-1,1448,722,0,0
231,302,0,0,0,0,0,0,0,0,0,-1,1455,722,0,0
238,302,0,0,0,0,0,0,0,0,0,-1,1462,722,0,0
245,302,0,0,0,0,0,0,0,0,0,-1,1469,722,0,0
252,302,0,0,0,0,0,0,0,0,0,-1,1476,722,0,0
259,302,0,0,0,0,0,0,0,0,0,-1,1483,722,0,0
266,302,0,0,0,0,0,0,0,0,0,-1,1490,722,0,0
273,302,0,0,0,0,0,0,0,0,0,-1,1497,722,0,0
280,302,0,0,0,0,0,0,0,0,0,-1,1504,722,0,0
287,302,0,0,0,0,0,0,0,0,0,-1,1511,722,0,0
294,302,0,0,0,0,0,0,0,0,0,-1,1518,722,0,0
301,302,0,0,0,0,0,0,0,0,0,-1,1525,722,0,0
308,302,0,0,0,0,0,0,0,0,0,-1,1532,722,0,0
315,302,0,0,0,0,0,0,0,0,0,-1,1539,722,0,0
322,302,0,0,0,0,0,0,0,0,0,-1,1546,722,0,0
329,302,0,0,0,0,0,0,0,0,0,-1,1553,722,0,0
336,302,0,0,0,0,0,0,0,0,0,-1,1560,722,0,0
343,302,0,0,0,0,0,0,0,0,0,-1,1567,722,0,0
350,302,0,0,0,0,0,0,0,0,0,-1,1574,722,0,0
357,302,0,0,0,0,0,0,0,0,0,-1,1581,722,0,0
364,302,0,0,0,0,0,0,0,0,0,-1,1588,722,0,0
371,302,0,0,0,0,0,0,0,0,0,-1,1595,722,0,0
378,302,0,0,0,0,0,0,0,0,0,-1,1602,722,0,0
385,302,0,0,0,0,0,0,0,0,0,-1,1609,722,0,0
392,302,0,0,0,0,0,0,0,0,0,-1,1616,722,0,0
399,302,0,0,0,0,0,0,0,0,0,-1,1623,722,0,0
406,302,0,0,0,0,0,0,0,0,0,-1,1630,722,0,0
413,302,0,0,0,0,0,0,0,0,0,-1,1637,722,0,0
420,302,0,0,0,0,0,0,0,0,0,-1,1644,722,0,0
427,302,0,0,0,0,0,0,0,0,0,-1,1651,722,0,0
434,302,0,0,0,0,0,0,0,0,0,-1,1658,722,0,0
441,302,0,0,0,0,0,0,0,0,0,-1,1665,722,0,0
448,302,0,0,0,0,0,0,0,0,0,-1,1672,722,0,0
455,302,0,0,0,0,0,0,0,0,0,-1,1679,722,0,0
462,302,0,0,0,0,0,0,0,0,0,-1,1686,722,0,0
469,302,0,0,0,0,0,0,0,0,0,-1,1693,722,0,0
476,302,0,0,0,0,0,0,0,0,0,-1,1700,722,0,0
483,302,0,0,0,0,0,0,0,0,0,-1,1707,722,0,0
490,302,0,0,0,0,0,0,0,0,0,-1,1714,722,0,0
497,302,0,0,0,0,0,0,0,0,0,-1,1721,722,0,0
504,302,0,0,0,0,0,0,0,0,0,-1,1728,722,0,0
511,302,0,0,0,0,0,0,0,0,0,-1,1735,722,0,0
518,302,0,0,0,0,0,0,0,0,0,-1,1742,722,0,0
525,302,0,0,0,0,0,0,0,0,0,-1,1749,722,0,0
532,302,0,0,0,0,0,0,0,0,0,-1,1756,722,0,0
539,302,0,0,0,0,0,0,0,0,0,-1,1763,722,0,0
546,302,23.9432,3.1958,0,0,0,0,0,0,0,-1,1770,722,23.9433,-3.19579
553,302,23.6431,3.60022,0,0,0,0,0,0,0,-1,1777,722,23.643,-3.60024
560,302,23.3378,3.75635,0,0,0,0,0,0,0,-1,1784,722,23.3377,-3.75634
567,302,23.2974,3.47003,0,0,0,0,0,0,0,-1,1791,722,23.2973,-3.47003
574,302,22.2272,4.58643,0,0,0,0,0,0,0,-1,1798,722,22.2272,-4.58644
581,302,23.3127,2.31232,0,0,0,0,0,0,0,-1,1805,722,23.3128,-2.31234
588,302,23.9078,3.19592,0,0,0,0,0,0,0,-1,1812,722,23.9079,-3.19592
595,302,24.4933,4.84674,0,0,0,0,0,0,0,-1,1819,722,24.4933,-4.84673
602,302,14.7349,5.21246,0,0,0,0,0,0,0,-1,1826,722,14.7349,-5.21247
609,302,11.1578,-0.125854,0,0,0,0,0,0,0,-1,1833,722,11.1579,0.125839
616,302,15.4452,-0.779785,0,0,0,0,0,0,0,-1,1840,722,15.4452,0.77977
623,302,15.4207,-0.470581,0.011524,0.00308655,4.73713e-05,0.0115243,0.00308629,0.00561414,0.00688856,0.0145452,1847,722,15.4206,0.470554
630,302,15.386,-0.147095,0.0072165,0.00130048,-0.000136753,0.00721965,0.00129732,-0.0230993,0.00444423,0.0111039,1854,722,15.386,0.147112
637,302,15.3586,0.181396,0.00281401,-0.000352894,-0.000258475,0.00283496,-0.000373851,-0.0809042,0.00202612,0.0142723,1861,722,15.3586,-0.181368
644,302,15.3876,0.479309,-5.94672e-05,-0.00081979,-0.00064582,0.000309775,-0.00118903,-0.519383,0.000913623,0.0152905,1868,722,15.3876,-0.47928
651,302,15.4116,0.789307,-0.000751655,-0.000724861,-0.000980536,0.00024237,-0.00171889,-0.792229,0.00123467,0.0147383,1875,722,15.4116,-0.789295
658,302,15.4227,1.0882,-0.00103775,-0.00054906,-0.001191,0.000422397,-0.00200921,-0.886575,0.00150023,0.0149696,1882,722,15.4228,-1.08822
665,302,15.3977,1.38641,-0.00100595,-0.000461699,-0.00148822,0.000779067,-0.00224672,-0.875826,0.00181414,0.0143096,1889,722,15.3976,-1.38641
672,302,15.3883,1.6618,0.000235273,-0.000508302,-0.00157442,0.00148121,-0.00175424,-0.669451,0.0018702,0.0113348,1896,722,15.3882,-1.6618
679,302,15.3922,1.9765,0.00163764,-0.000568449,-0.00165526,0.00252371,-0.00145452,-0.491494,0.00232432,0.00902008,1903,722,15.3922,-1.97653
686,302,15.401,2.27704,0.00422675,-0.000749716,-0.00162112,0.00470825,-0.00123122,-0.28872,0.00361973,0.0131369,1910,722,15.401,-2.27703
693,302,15.1782,2.49799,0.00877343,-0.00101463,-0.00123384,0.00892657,-0.00116777,-0.123482,0.00637605,0.0311415,1917,722,15.1783,-2.49797
700,302,15.6106,2.77209,0,0,0,0,0,0,0,-1,1924,722,15.6106,-2.77211
707,302,15.9485,3.51624,0,0,0,0,0,0,0,-1,1931,722,15.9485,-3.51623
714,302,16.1097,3.80829,0,0,0,0,0,0,0,-1,1938,722,16.1097,-3.8083
721,302,16.6721,3.78369,0,0,0,0,0,0,0,-1,1945,722,16.6721,-3.78371
728,302,17.2798,4.81702,0,0,0,0,0,0,0,-1,1952,722,17.2798,-4.81703
735,302,0,0,0,0,0,0,0,0,0,-1,1959,722,0,0
742,302,0,0,0,0,0,0,0,0,0,-1,1966,722,0,0
749,302,0,0,0,0,0,0,0,0,0,-1,1973,722,0,0
756,302,0,0,0,0,0,0,0,0,0,-1,1980,722,0,0
763,302,0,0,0,0,0,0,0,0,0,-1,1987,722,0,0
770,302,0,0,0,0,0,0,0,0,0,-1,1994,722,0,0
777,302,0,0,0,0,0,0,0,0,0,-1,2001,722,0,0
784,302,0,0,0,0,0,0,0,0,0,-1,2008,722,0,0
791,302,0,0,0,0,0,0,0,0,0,-1,2015,722,0,0
798,302,0,0,0,0,0,0,0,0,0,-1,2022,722,0,0
805,302,0,0,0,0,0,0,0,0,0,-1,2029,722,0,0
812,302,0,0,0,0,0,0,0,0,0,-1,2036,722,0,0
-700,295,0,0,0,0,0,0,0,0,0,-1,524,729,0,0
-693,295,0,0,0,0,0,0,0,0,0,-1,531,729,0,0
-686,295,0,0,0,0,0,0,0,0,0,-1,538,729,0,0
-679,295,0,0,0,0,0,0,0,0,0,-1,545,729,0,0
-672,295,0,0,0,0,0,0,0,0,0,-1,552,729,0,0
-665,295,0,0,0,0,0,0,0,0,0,-1,559,729,0,0
-658,295,0,0,0,0,0,0,0,0,0,-1,566,729,0,0
-651,295,0,0,0,0,0,0,0,0,0,-1,573,729,0,0
-644,295,0,0,0,0,0,0,0,0,0,-1,580,729,0,0
-637,295,0,0,0,0,0,0,0,0,0,-1,587,729,0,0
-630,295,0,0,0,0,0,0,0,0,0,-1,594,729,0,0
-623,295,0,0,0,0,0,0,0,0,0,-1,601,729,0,0
-616,295,-13.4911,1.31738,0,0,0,0,0,0,0,-1,608,729,-13.4911,-1.3174
-609,295,-10.2864,0.832031,0,0,0,0,0,0,0,-1,615,729,-10.2863,-0.832034
-602,295,-8.19006,3.01587,0,0,0,0,0,0,0,-1,622,729,-8.19005,-3.01588
-595,295,-0.615479,-1.95447,0,0,0,0,0,0,0,-1,629,729,-0.615481,1.95445
-588,295,-7.98999,1.56903,0,0,0,0,0,0,0,-1,636,729,-7.98997,-1.56905
-581,295,-7.76605,0.922852,0,0,0,0,0,0,0,-1,643,729,-7.76603,-0.922882
-574,295,-7.93646,0.716919,0,0,0,0,0,0,0,-1,650,729,-7.93649,-0.716948
-567,295,-8.40143,0.349365,-0.0087784,0.0073008,0.00546582,0.00898284,-0.0104604,1.27226,0.0112364,0.0464908,657,729,-8.40142,-0.349385
-560,295,-9.09406,0.225891,-0.00664139,0.00712478,0.00370909,0.00806053,-0.00757714,1.32367,0.00902985,0.027587,664,729,-9.09403,-0.225921
-553,295,-9.14209,-0.0528564,-0.00472251,0.00687973,0.00225763,0.00730356,-0.00514634,1.38523,0.00722383,0.0170559,671,729,-9.14206,0.0528614
-546,295,-9.18915,-0.325378,-0.00336081,0.00575727,0.00145543,0.00598395,-0.00358749,1.41629,0.00558351,0.0196594,678,729,-9.18917,0.32537
-539,295,-9.19812,-0.569519,-0.00245581,0.00378166,0.00109755,0.00396915,-0.0026433,1.4016,0.00384319,0.0176661,685,729,-9.19813,0.569521
-532,295,-9.18719,-0.859985,-0.00146805,0.00194414,0.000986958,0.00220905,-0.00173295,1.30857,0.00228144,0.0145743,692,729,-9.18723,0.859963
-525,295,-9.15674,-1.1662,-0.000504392,0.000589119,0.000891087,0.00108782,-0.00100309,1.06057,0.00120752,0.0136902,699,729,-9.15676,1.16618
-518,295,-9.14569,-1.44476,0.00049668,-0.000537566,0.000711691,0.000859285,-0.000900171,0.471216,0.00101591,0.00977006,706,729,-9.14568,1.44479
-511,295,-9.15869,-1.72198,0.00159336,-0.0013959,0.0004007,0.00164614,-0.00144869,0.130967,0.00178801,0.00778157,713,729,-9.15868,1.72201
-504,295,-9.1723,-2.02057,0.00309248,-0.00189351,0.0012751,0.00339964,-0.00220068,0.236392,0.00325796,0.0096718,720,729,-9.17227,2.02059
-497,295,-9.19049,-2.28131,0.00523146,-0.00165908,0.00297602,0.00633884,-0.00276645,0.356225,0.00539012,0.0165911,727,729,-9.19052,2.28132
-490,295,-9.20862,-2.52106,0,0,0,0,0,0,0,-1,734,729,-9.20861,2.52107
-483,295,-6.84503,-0.454651,0,0,0,0,0,0,0,-1,741,729,-6.84505,0.454639
-476,295,-13.1738,-0.836243,0,0,0,0,0,0,0,-1,748,729,-13.1738,0.836223
-469,295,-12.9013,1.63989,0,0,0,0,0,0,0,-1,755,729,-12.9013,-1.63986
-462,295,-17.7391,-0.14093,0,0,0,0,0,0,0,-1,762,729,-17.7391,0.140956
-455,295,-15.9146,0.253601,0,0,0,0,0,0,0,-1,769,729,-15.9146,-0.253583
-448,295,-15.7628,0.587036,0.0321302,0.00613154,0.0418222,0.0629267,-0.024665,0.63472,0.0521546,0.0481752,776,729,-15.7628,-0.587038
-441,295,-15.4731,0.781738,0,0,0,0,0,0,0,-1,783,729,-15.4731,-0.781719
-434,295,-15.0966,0.879028,0,0,0,0,0,0,0,-1,790,729,-15.0966,-0.879015
-427,295,0,0,0,0,0,0,0,0,0,-1,797,729,0,0
-420,295,0,0,0,0,0,0,0,0,0,-1,804,729,0,0
-413,295,0,0,0,0,0,0,0,0,0,-1,811,729,0,0
-406,295,0,0,0,0,0,0,0,0,0,-1,818,729,0,0
-399,295,0,0,0,0,0,0,0,0,0,-1,825,729,0,0
-392,295,0,0,0,0,0,0,0,0,0,-1,832,729,0,0
-385,295,0,0,0,0,0,0,0,0,0,-1,839,729,0,0
-378,295,0,0,0,0,0,0,0,0,0,-1,846,729,0,0
-371,295,0,0,0,0,0,0,0,0,0,-1,853,729,0,0
-364,295,0,0,0,0,0,0,0,0,0,-1,860,729,0,0
-357,295,0,0,0,0,0,0,0,0,0,-1,867,729,0,0
-350,295,0,0,0,0,0,0,0,0,0,-1,874,729,0,0
-343,295,0,0,0,0,0,0,0,0,0,-1,881,729,0,0
-336,295,0,0,0,0,0,0,0,0,0,-1,888,729,0,0
-329,295,0,0,0,0,0,0,0,0,0,-1,895,729,0,0
-322,295,0,0,0,0,0,0,0,0,0,-1,902,729,0,0
-315,295,0,0,0,0,0,0,0,0,0,-1,909,729,0,0
-308,295,0,0,0,0,0,0,0,0,0,-1,916,729,0,0
-301,295,0,0,0,0,0,0,0,0,0,-1,923,729,0,0
-294,295,0,0,0,0,0,0,0,0,0,-1,930,729,0,0
-287,295,0,0,0,0,0,0,0,0,0,-1,937,729,0,0
-280,295,0,0,0,0,0,0,0,0,0,-1,944,729,0,0
-273,295,0,0,0,0,0,0,0,0,0,-1,951,729,0,0
-266,295,0,0,0,0,0,0,0,0,0,-1,958,729,0,0
-259,295,0,0,0,0,0,0,0,0,0,-1,965,729,0,0
-252,295,0,0,0,0,0,0,0,0,0,-1,972,729,0,0
-245,295,0,0,0,0,0,0,0,0,0,-1,979,729,0,0
-238,295,0,0,0,0,0,0,0,0,0,-1,986,729,0,0
-231,295,0,0,0,0,0,0,0,0,0,-1,993,729,0,0
-224,295,0,0,0,0,0,0,0,0,0,-1,1000,729,0,0
-217,295,0,0,0,0,0,0,0,0,0,-1,1007,729,0,0
-210,295,0,0,0,0,0,0,0,0,0,-1,1014,729,0,0
-203,295,0,0,0,0,0,0,0,0,0,-1,1021,729,0,0
-196,295,0,0,0,0,0,0,0,0,0,-1,1028,729,0,0
-189,295,0,0,0,0,0,0,0,0,0,-1,1035,729,0,0
-182,295,0,0,0,0,0,0,0,0,0,-1,1042,729,0,0
-175,295,0,0,0,0,0,0,0,0,0,-1,1049,729,0,0
-168,295,0,0,0,0,0,0,0,0,0,-1,1056,729,0,0
-161,295,0,0,0,0,0,0,0,0,0,-1,1063,729,0,0
-154,295,0,0,0,0,0,0,0,0,0,-1,1070,729,0,0
-147,295,0,0,0,0,0,0,0,0,0,-1,1077,729,0,0
-140,295,0,0,0,0,0,0,0,0,0,-1,1084,729,0,0
-133,295,0,0,0,0,0,0,0,0,0,-1,1091,729,0,0
-126,295,0,0,0,0,0,0,0,0,0,-1,1098,729,0,0
-119,295,0,0,0,0,0,0,0,0,0,-1,1105,729,0,0
-112,295,0,0,0,0,0,0,0,0,0,-1,1112,729,0,0
-105,295,0,0,0,0,0,0,0,0,0,-1,1119,729,0,0
-98,295,0,0,0,0,0,0,0,0,0,-1,1126,729,0,0
-91,295,0,0,0,0,0,0,0,0,0,-1,1133,729,0,0
-84,295,0,0,0,0,0,0,0,0,0,-1,1140,729,0,0
-77,295,0,0,0,0,0,0,0,0,0,-1,1147,729,0,0
-70,295,0,0,0,0,0,0,0,0,0,-1,1154,729,0,0
-63,295,0,0,0,0,0,0,0,0,0,-1,1161,729,0,0
-56,295,0,0,0,0,0,0,0,0,0,-1,1168,729,0,0
-49,295,0,0,0,0,0,0,0,0,0,-1,1175,729,0,0
-42,295,0,0,0,0,0,0,0,0,0,-1,1182,729,0,0
-35,295,0,0,0,0,0,0,0,0,0,-1,1189,729,0,0
-28,295,0,0,0,0,0,0,0,0,0,-1,1196,729,0,0
-21,295,0,0,0,0,0,0,0,0,0,-1,1203,729,0,0
-14,295,0,0,0,0,0,0,0,0,0,-1,1210,729,0,0
-7,295,0,0,0,0,0,0,0,0,0,-1,1217,729,0,0
0,295,0,0,0,0,0,0,0,0,0,-1,1224,729,0,0
7,295,0,0,0,0,0,0,0,0,0,-1,1231,729,0,0
14,295,0,0,0,0,0,0,0,0,0,-1,1238,729,0,0
21,295,0,0,0,0,0,0,0,0,0,-1,1245,729,0,0
28,295,0,0,0,0,0,0,0,0,0,-1,1252,729,0,0
35,295,0,0,0,0,0,0,0,0,0,-1,1259,729,0,0
42,295,0,0,0,0,0,0,0,0,0,-1,1266,729,0,0
49,295,0,0,0,0,0,0,0,0,0,-1,1273,729,0,0
56,295,0,0,0,0,0,0,0,0,0,-1,1280,729,0,0
63,295,0,0,0,0,0,0,0,0,0,-1,1287,729,0,0
70,295,0,0,0,0,0,0,0,0,0,-1,1294,729,0,0
77,295,0,0,0,0,0,0,0,0,0,-1,1301,729,0,0
84,295,0,0,0,0,0,0,0,0,0,-1,1308,729,0,0
91,295,0,0,0,0,0,0,0,0,0,-1,1315,729,0,0
98,295,0,0,0,0,0,0,0,0,0,-1,1322,729,0,0
105,295,0,0,0,0,0,0,0,0,0,-1,1329,729,0,0
112,295,0,0,0,0,0,0,0,0,0,-1,1336,729,0,0
119,295,0,0,0,0,0,0,0,0,0,-1,1343,729,0,0
126,295,0,0,0,0,0,0,0,0,0,-1,1350,729,0,0
133,295,0,0,0,0,0,0,0,0,0,-1,1357,729,0,0
140,295,0,0,0,0,0,0,0,0,0,-1,1364,729,0,0
147,295,0,0,0,0,0,0,0,0,0,-1,1371,729,0,0
154,295,0,0,0,0,0,0,0,0,0,-1,1378,729,0,0
161,295,0,0,0,0,0,0,0,0,0,-1,1385,729,0,0
168,295,0,0,0,0,0,0,0,0,0,-1,1392,729,0,0
175,295,0,0,0,0,0,0,0,0,0,-1,1399,729,0,0
182,295,0,0,0,0,0,0,0,0,0,-1,1406,729,0,0
189,295,0,0,0,0,0,0,0,0,0,-1,1413,729,0,0
196,295,0,0,0,0,0,0,0,0,0,-1,1420,729,0,0
203,295,0,0,0,0,0,0,0,0,0,-1,1427,729,0,0
210,295,0,0,0,0,0,0,0,0,0,-1,1434,729,0,0
217,295,0,0,0,0,0,0,0,0,0,-1,1441,729,0,0
224,295,0,0,0,0,0,0,0,0,0,-1,1448,729,0,0
231,295,0,0,0,0,0,0,0,0,0,-1,1455,729,0,0
238,295,0,0,0,0,0,0,0,0,0,-1,1462,729,0,0
245,295,0,0,0,0,0,0,0,0,0,-1,1469,729,0,0
252,295,0,0,0,0,0,0,0,0,0,-1,1476,729,0,0
259,295,0,0,0,0,0,0,0,0,0,-1,1483,729,0,0
266,295,0,0,0,0,0,0,0,0,0,-1,1490,729,0,0
273,295,0,0,0,0,0,0,0,0,0,-1,1497,729,0,0
280,295,0,0,0,0,0,0,0,0,0,-1,1504,729,0,0
287,295,0,0,0,0,0,0,0,0,0,-1,1511,729,0,0
294,295,0,0,0,0,0,0,0,0,0,-1,1518,729,0,0
301,295,0,0,0,0,0,0,0,0,0,-1,1525,729,0,0
308,295,0,0,0,0,0,0,0,0,0,-1,1532,729,0,0
315,295,0,0,0,0,0,0,0,0,0,-1,1539,729,0,0
322,295,0,0,0,0,0,0,0,0,0,-1,1546,729,0,0
329,295,0,0,0,0,0,0,0,0,0,-1,1553,729,0,0
336,295,0,0,0,0,0,0,0,0,0,-1,1560,729,0,0
343,295,0,0,0,0,0,0,0,0,0,-1,1567,729,0,0
350,295,0,0,0,0,0,0,0,0,0,-1,1574,729,0,0
357,295,0,0,0,0,0,0,0,0,0,-1,1581,729,0,0
364,295,0,0,0,0,0,0,0,0,0,-1,1588,729,0,0
371,295,0,0,0,0,0,0,0,0,0,-1,1595,729,0,0
378,295,0,0,0,0,0,0,0,0,0,-1,1602,729,0,0
385,295,0,0,0,0,0,0,0,0,0,-1,1609,729,0,0
392,295,0,0,0,0,0,0,0,0,0,-1,1616,729,0,0
399,295,0,0,0,0,0,0,0,0,0,-1,1623,729,0,0
406,295,0,0,0,0,0,0,0,0,0,-1,1630,729,0,0
413,295,0,0,0,0,0,0,0,0,0,-1,1637,729,0,0
420,295,0,0,0,0,0,0,0,0,0,-1,1644,729,0,0
427,295,0,0,0,0,0,0,0,0,0,-1,1651,729,0,0
434,295,0,0,0,0,0,0,0,0,0,-1,1658,729,0,0
441,295,0,0,0,0,0,0,0,0,0,-1,1665,729,0,0
448,295,0,0,0,0,0,0,0,0,0,-1,1672,729,0,0
455,295,0,0,0,0,0,0,0,0,0,-1,1679,729,0,0
462,295,0,0,0,0,0,0,0,0,0,-1,1686,729,0,0
469,295,0,0,0,0,0,0,0,0,0,-1,1693,729,0,0
476,295,0,0,0,0,0,0,0,0,0,-1,1700,729,0,0
483,295,0,0,0,0,0,0,0,0,0,-1,1707,729,0,0
490,295,0,0,0,0,0,0,0,0,0,-1,1714,729,0,0
497,295,0,0,0,0,0,0,0,0,0,-1,1721,729,0,0
504,295,0,0,0,0,0,0,0,0,0,-1,1728,729,0,0
511,295,0,0,0,0,0,0,0,0,0,-1,1735,729,0,0
518,295,0,0,0,0,0,0,0,0,0,-1,1742,729,0,0
525,295,0,0,0,0,0,0,0,0,0,-1,1749,729,0,0
532,295,0,0,0,0,0,0,0,0,0,-1,1756,729,0,0
539,295,0,0,0,0,0,0,0,0,0,-1,1763,729,0,0
546,295,23.7863,2.93604,0,0,0,0,0,0,0,-1,1770,729,23.7863,-2.93602
553,295,23.6611,3.15771,0,0,0,0,0,0,0,-1,1777,729,23.6611,-3.1577
560,295,23.7084,3.203,0,0,0,0,0,0,0,-1,1784,729,23.7083,-3.20298
567,295,23.5027,3.48346,0,0,0,0,0,0,0,-1,1791,729,23.5027,-3.48345
574,295,23.6387,3.97968,0,0,0,0,0,0,0,-1,1798,729,23.6387,-3.97966
581,295,22.8427,2.10187,0,0,0,0,0,0,0,-1,1805,729,22.8427,-2.10189
588,295,23.5746,3.68939,0,0,0,0,0,0,0,-1,1812,729,23.5746,-3.68938
595,295,24.2026,3.16528,0,0,0,0,0,0,0,-1,1819,729,24.2026,-3.16531
602,295,24.8396,3.80621,0,0,0,0,0,0,0,-1,1826,729,24.8396,-3.80622
609,295,11.7737,2.19989,0,0,0,0,0,0,0,-1,1833,729,11.7736,-2.19988
616,295,15.7012,-0.713074,0,0,0,0,0,0,0,-1,1840,729,15.7012,0.713056
623,295,15.6798,-0.428101,0.0131422,0.00319956,0.000644776,0.0131839,0.00315792,0.0644893,0.00794854,0.0306869,1847,729,15.6798,0.428097
630,295,15.6725,-0.128967,0.00864143,0.00137143,0.000297373,0.00865357,0.00135929,0.0408133,0.00537357,0.0116715,1854,729,15.6725,0.128996
637,295,15.6752,0.19397,0.00363469,-0.000417632,8.97147e-05,0.00363667,-0.000419617,0.0221247,0.00257574,0.0128923,1861,729,15.6752,-0.193968
644,295,15.7051,0.494934,0.000172566,-0.000969747,-0.000391995,0.000294143,-0.00109132,-0.300742,0.000842882,0.0130423,1868,729,15.7051,-0.494957
651,295,15.7168,0.80481,-0.00040625,-0.000725163,-0.000727093,0.000178667,-0.00131008,-0.677454,0.000938627,0.013187,1875,729,15.7168,-0.804783
658,295,15.6996,1.10333,-0.000491914,-0.000457547,-0.000870799,0.000396238,-0.0013457,-0.795263,0.00105433,0.0121686,1882,729,15.6996,-1.10332
665,295,15.6876,1.36914,-0.000158042,-0.000271116,-0.00104584,0.000832783,-0.00126194,-0.758395,0.00121782,0.0119002,1889,729,15.6877,-1.36914
672,295,15.6735,1.65271,0.00149373,-0.000220574,-0.000954194,0.00191923,-0.000646074,-0.419461,0.00154068,0.0128108,1896,729,15.6735,-1.65269
679,295,15.6661,1.98535,0.00321095,-0.000218089,-0.000859136,0.00341416,-0.000421301,-0.232261,0.00242875,0.00920007,1903,729,15.6662,-1.98534
686,295,15.6847,2.28076,0.00611644,-0.000186987,-0.000728953,0.00619964,-0.000270188,-0.113646,0.00422604,0.00904914,1910,729,15.6847,-2.28077
693,295,15.6693,2.52008,0.0109876,-6.39432e-06,-0.000435596,0.0110048,-2.36263e-05,-0.0395388,0.00734443,0.0255042,1917,729,15.6693,-2.52008
700,295,15.7361,2.77258,0.0185003,9.50484e-05,0.000290615,0.0185049,9.04612e-05,0.0157845,0.0123066,0.04027,1924,729,15.7361,-2.77258
707,295,16.0911,3.33942,0.0297161,0.000253936,0.00146116,0.0297884,0.000181649,0.0494326,0.0197987,0.0492876,1931,729,16.0911,-3.33941
714,295,16.4041,3.72345,0,0,0,0,0,0,0,-1,1938,729,16.404,-3.72345
721,295,16.4104,4.23395,0,0,0,0,0,0,0,-1,1945,729,16.4104,-4.23395
728,295,17.379,3.74866,0,0,0,0,0,0,0,-1,1952,729,17.379,-3.74863
735,295,0,0,0,0,0,0,0,0,0,-1,1959,729,0,0
742,295,0,0,0,0,0,0,0,0,0,-1,1966,729,0,0
749,295,0,0,0,0,0,0,0,0,0,-1,1973,729,0,0
756,295,0,0,0,0,0,0,0,0,0,-1,1980,729,0,0
763,295,0,0,0,0,0,0,0,0,0,-1,1987,729,0,0
770,295,0,0,0,0,0,0,0,0,0,-1,1994,729,0,0
777,295,0,0,0,0,0,0,0,0,0,-1,2001,729,0,0
784,295,0,0,0,0,0,0,0,0,0,-1,2008,729,0,0
791,295,0,0,0,0,0,0,0,0,0,-1,2015,729,0,0
798,295,0,0,0,0,0,0,0,0,0,-1,2022,729,0,0
805,295,0,0,0,0,0,0,0,0,0,-1,2029,729,0,0
812,295,0,0,0,0,0,0,0,0,0,-1,2036,729,0,0
-700,288,0,0,0,0,0,0,0,0,0,-1,524,736,0,0
-693,288,0,0,0,0,0,0,0,0,0,-1,531,736,0,0
-686,288,0,0,0,0,0,0,0,0,0,-1,538,736,0,0
-679,288,0,0,0,0,0,0,0,0,0,-1,545,736,0,0
-672,288,0,0,0,0,0,0,0,0,0,-1,552,736,0,0
-665,288,0,0,0,0,0,0,0,0,0,-1,559,736,0,0
-658,288,0,0,0,0,0,0,0,0,0,-1,566,736,0,0
-651,288,0,0,0,0,0,0,0,0,0,-1,573,736,0,0
-644,288,0,0,0,0,0,0,0,0,0,-1,580,736,0,0
-637,288,0,0,0,0,0,0,0,0,0,-1,587,736,0,0
-630,288,0,0,0,0,0,0,0,0,0,-1,594,736,0,0
-623,288,0,0,0,0,0,0,0,0,0,-1,601,736,0,0
-616,288,-10.3702,1.7489,0,0,0,0,0,0,0,-1,608,736,-10.3702,-1.74891
-609,288,-9.21576,0.0622559,0,0,0,0,0,0,0,-1,615,736,-9.21577,-0.0622426
-602,288,-9.73364,0.596985,0,0,0,0,0,0,0,-1,622,736,-9.73363,-0.596981
-595,288,-7.63208,1.81769,0,0,0,0,0,0,0,-1,629,736,-7.63205,-1.81766
-588,288,-8.19269,1.50598,0,0,0,0,0,0,0,-1,636,736,-8.19268,-1.50601
-581,288,-9.11548,1.44537,0,0,0,0,0,0,0,-1,643,736,-9.11545,-1.44538
-574,288,-9.15381,0.694824,0,0,0,0,0,0,0,-1,650,736,-9.15382,-0.694836
-567,288,-9.25397,0.456299,-0.00788975,0.00263553,0.0057822,0.0051914,-0.0104456,1.15459,0.00919636,0.0277504,657,736,-9.25394,-0.456282
-560,288,-9.4295,0.205994,-0.00598789,0.00331461,0.00406621,0.0048414,-0.00751468,1.2116,0.00718923,0.0142241,664,736,-9.4295,-0.206015
-553,288,-9.41876,-0.0460205,-0.00426457,0.00377791,0.00268087,0.00458962,-0.00507628,1.27679,0.00558297,0.0173513,671,736,-9.41874,0.0460294
-546,288,-9.4422,-0.311035,-0.00305828,0.00328639,0.00190784,0.00381589,-0.00358778,1.30007,0.00427518,0.0189731,678,736,-9.44222,0.311029
-539,288,-9.4494,-0.581482,-0.00231253,0.00183226,0.00155746,0.00235226,-0.00283253,1.24856,0.00299772,0.0164155,685,736,-9.44942,0.581457
-532,288,-9.43091,-0.861511,-0.0014351,0.000419215,0.00143907,0.00120394,-0.00221983,1.07157,0.00200551,0.0125438,692,736,-9.43092,0.861494
-525,288,-9.4259,-1.15497,-0.000531318,-0.000562912,0.00128647,0.000739449,-0.00183368,0.779259,0.00152972,0.0118851,699,736,-9.42593,1.15499
-518,288,-9.4433,-1.45087,0.000469166,-0.00142028,0.00101541,0.000911364,-0.00186248,0.410721,0.00163256,0.0110525,706,736,-9.4433,1.45088
-511,288,-9.44623,-1.72949,0.00164049,-0.00208682,0.000603222,0.00173568,-0.00218201,0.156518,0.00226677,0.00783297,713,736,-9.4462,1.7295
-504,288,-9.45013,-2.02051,0.00326336,-0.00253713,0.0014261,0.00359502,-0.00286879,0.228499,0.00373972,0.00950577,720,736,-9.45016,2.02051
-497,288,-9.44861,-2.21674,0.00552542,-0.00232322,0.00302546,0.00655626,-0.00335407,0.328388,0.00582044,0.0222787,727,736,-9.44859,2.21676
-490,288,-9.3866,-2.37909,0,0,0,0,0,0,0,-1,734,736,-9.3866,2.37907
-483,288,-10.3433,0.856079,0,0,0,0,0,0,0,-1,741,736,-10.3432,-0.856069
-476,288,-16.738,-0.48175,0,0,0,0,0,0,0,-1,748,736,-16.738,0.481725
-469,288,-13.3106,1.60577,0,0,0,0,0,0,0,-1,755,736,-13.3106,-1.60578
-462,288,-16.7,0.264221,0,0,0,0,0,0,0,-1,762,736,-16.7,-0.264227
-455,288,-16.5228,0.342957,0.0276081,0.00341632,0.0291925,0.0471114,-0.016087,0.588991,0.0379248,0.0489296,769,736,-16.5228,-0.34294
-448,288,-16.3658,0.427612,0.033415,0.00531474,0.0430694,0.0646681,-0.0259383,0.62773,0.0538811,0.0470965,776,736,-16.3658,-0.427622
-441,288,-16.2127,0.511475,0,0,0,0,0,0,0,-1,783,736,-16.2127,-0.511448
-434,288,-15.8403,0.576416,0,0,0,0,0,0,0,-1,790,736,-15.8403,-0.57639
-427,288,0,0,0,0,0,0,0,0,0,-1,797,736,0,0
-420,288,0,0,0,0,0,0,0,0,0,-1,804,736,0,0
-413,288,0,0,0,0,0,0,0,0,0,-1,811,736,0,0
-406,288,0,0,0,0,0,0,0,0,0,-1,818,736,0,0
-399,288,0,0,0,0,0,0,0,0,0,-1,825,736,0,0
-392,288,0,0,0,0,0,0,0,0,0,-1,832,736,0,0
-385,288,0,0,0,0,0,0,0,0,0,-1,839,736,0,0
-378,288,0,0,0,0,0,0,0,0,0,-1,846,736,0,0
-371,288,0,0,0,0,0,0,0,0,0,-1,853,736,0,0
-364,288,0,0,0,0,0,0,0,0,0,-1,860,736,0,0
-357,288,0,0,0,0,0,0,0,0,0,-1,867,736,0,0
-350,288,0,0,0,0,0,0,0,0,0,-1,874,736,0,0
-343,288,0,0,0,0,0,0,0,0,0,-1,881,736,0,0
-336,288,0,0,0,0,0,0,0,0,0,-1,888,736,0,0
-329,288,0,0,0,0,0,0,0,0,0,-1,895,736,0,0
-322,288,0,0,0,0,0,0,0,0,0,-1,902,736,0,0
-315,288,0,0,0,0,0,0,0,0,0,-1,909,736,0,0
-308,288,0,0,0,0,0,0,0,0,0,-1,916,736,0,0
-301,288,0,0,0,0,0,0,0,0,0,-1,923,736,0,0
-294,288,0,0,0,0,0,0,0,0,0,-1,930,736,0,0
-287,288,0,0,0,0,0,0,0,0,0,-1,937,736,0,0
-280,288,0,0,0,0,0,0,0,0,0,-1,944,736,0,0
-273,288,0,0,0,0,0,0,0,0,0,-1,951,736,0,0
-266,288,0,0,0,0,0,0,0,0,0,-1,958,736,0,0
-259,288,0,0,0,0,0,0,0,0,0,-1,965,736,0,0
-252,288,0,0,0,0,0,0,0,0,0,-1,972,736,0,0
-245,288,0,0,0,0,0,0,0,0,0,-1,979,736,0,0
-238,288,0,0,0,0,0,0,0,0,0,-1,986,736,0,0
-231,288,0,0,0,0,0,0,0,0,0,-1,993,736,0,0
-224,288,0,0,0,0,0,0,0,0,0,-1,1000,736,0,0
-217,288,0,0,0,0,0,0,0,0,0,-1,1007,736,0,0
-210,288,0,0,0,0,0,0,0,0,0,-1,1014,736,0,0
-203,288,0,0,0,0,0,0,0,0,0,-1,1021,736,0,0
-196,288,0,0,0,0,0,0,0,0,0,-1,1028,736,0,0
-189,288,0,0,0,0,0,0,0,0,0,-1,1035,736,0,0
-182,288,0,0,0,0,0,0,0,0,0,-1,1042,736,0,0
-175,288,0,0,0,0,0,0,0,0,0,-1,1049,736,0,0
-168,288,0,0,0,0,0,0,0,0,0,-1,1056,736,0,0
-161,288,0,0,0,0,0,0,0,0,0,-1,1063,736,0,0
-154,288,0,0,0,0,0,0,0,0,0,-1,1070,736,0,0
-147,288,0,0,0,0,0,0,0,0,0,-1,1077,736,0,0
-140,288,0,0,0,0,0,0,0,0,0,-1,1084,736,0,0
-133,288,0,0,0,0,0,0,0,0,0,-1,1091,736,0,0
-126,288,0,0,0,0,0,0,0,0,0,-1,1098,736,0,0
-119,288,0,0,0,0,0,0,0,0,0,-1,1105,736,0,0
-112,288,0,0,0,0,0,0,0,0,0,-1,1112,736,0,0
-105,288,0,0,0,0,0,0,0,0,0,-1,1119,736,0,0
-98,288,0,0,0,0,0,0,0,0,0,-1,1126,736,0,0
-91,288,0,0,0,0,0,0,0,0,0,-1,1133,736,0,0
-84,288,0,0,0,0,0,0,0,0,0,-1,1140,736,0,0
-77,288,0,0,0,0,0,0,0,0,0,-1,1147,736,0,0
-70,288,0,0,0,0,0,0,0,0,0,-1,1154,736,0,0
-63,288,0,0,0,0,0,0,0,0,0,-1,1161,736,0,0
-56,288,0,0,0,0,0,0,0,0,0,-1,1168,736,0,0
-49,288,0,0,0,0,0,0,0,0,0,-1,1175,736,0,0
-42,288,0,0,0,0,0,0,0,0,0,-1,1182,736,0,0
-35,288,0,0,0,0,0,0,0,0,0,-1,1189,736,0,0
-28,288,0,0,0,0,0,0,0,0,0,-1,1196,736,0,0
-21,288,0,0,0,0,0,0,0,0,0,-1,1203,736,0,0
-14,288,0,0,0,0,0,0,0,0,0,-1,1210,736,0,0
-7,288,0,0,0,0,0,0,0,0,0,-1,1217,736,0,0
0,288,0,0,0,0,0,0,0,0,0,-1,1224,736,0,0
7,288,0,0,0,0,0,0,0,0,0,-1,1231,736,0,0
14,288,0,0,0,0,0,0,0,0,0,-1,1238,736,0,0
21,288,0,0,0,0,0,0,0,0,0,-1,1245,736,0,0
28,288,0,0,0,0,0,0,0,0,0,-1,1252,736,0,0
35,288,0,0,0,0,0,0,0,0,0,-1,1259,736,0,0
42,288,0,0,0,0,0,0,0,0,0,-1,1266,736,0,0
49,288,0,0,0,0,0,0,0,0,0,-1,1273,736,0,0
56,288,0,0,0,0,0,0,0,0,0,-1,1280,736,0,0
63,288,0,0,0,0,0,0,0,0,0,-1,1287,736,0,0
70,288,0,0,0,0,0,0,0,0,0,-1,1294,736,0,0
77,288,0,0,0,0,0,0,0,0,0,-1,1301,736,0,0
84,288,0,0,0,0,0,0,0,0,0,-1,1308,736,0,0
91,288,0,0,0,0,0,0,0,0,0,-1,1315,736,0,0
98,288,0,0,0,0,0,0,0,0,0,-1,1322,736,0,0
105,288,0,0,0,0,0,0,0,0,0,-1,1329,736,0,0
112,288,0,0,0,0,0,0,0,0,0,-1,1336,736,0,0
119,288,0,0,0,0,0,0,0,0,0,-1,1343,736,0,0
126,288,0,0,0,0,0,0,0,0,0,-1,1350,736,0,0
133,288,0,0,0,0,0,0,0,0,0,-1,1357,736,0,0
140,288,0,0,0,0,0,0,0,0,0,-1,1364,736,0,0
147,288,0,0,0,0,0,0,0,0,0,-1,1371,736,0,0
154,288,0,0,0,0,0,0,0,0,0,-1,1378,736,0,0
161,288,0,0,0,0,0,0,0,0,0,-1,1385,736,0,0
168,288,0,0,0,0,0,0,0,0,0,-1,1392,736,0,0
175,288,0,0,0,0,0,0,0,0,0,-1,1399,736,0,0
182,288,0,0,0,0,0,0,0,0,0,-1,1406,736,0,0
189,288,0,0,0,0,0,0,0,0,0,-1,1413,736,0,0
196,288,0,0,0,0,0,0,0,0,0,-1,1420,736,0,0
203,288,0,0,0,0,0,0,0,0,0,-1,1427,736,0,0
210,288,0,0,0,0,0,0,0,0,0,-1,1434,736,0,0
217,288,0,0,0,0,0,0,0,0,0,-1,1441,736,0,0
224,288,0,0,0,0,0,0,0,0,0,-1,1448,736,0,0
231,288,0,0,0,0,0,0,0,0,0,-1,1455,736,0,0
238,288,0,0,0,0,0,0,0,0,0,-1,1462,736,0,0
245,288,0,0,0,0,0,0,0,0,0,-1,1469,736,0,0
252,288,0,0,0,0,0,0,0,0,0,-1,1476,736,0,0
259,288,0,0,0,0,0,0,0,0,0,-1,1483,736,0,0
266,288,0,0,0,0,0,0,0,0,0,-1,1490,736,0,0
273,288,0,0,0,0,0,0,0,0,0,-1,1497,736,0,0
280,288,0,0,0,0,0,0,0,0,0,-1,1504,736,0,0
287,288,0,0,0,0,0,0,0,0,0,-1,1511,736,0,0
294,288,0,0,0,0,0,0,0,0,0,-1,1518,736,0,0
301,288,0,0,0,0,0,0,0,0,0,-1,1525,736,0,0
308,288,0,0,0,0,0,0,0,0,0,-1,1532,736,0,0
315,288,0,0,0,0,0,0,0,0,0,-1,1539,736,0,0
322,288,0,0,0,0,0,0,0,0,0,-1,1546,736,0,0
329,288,0,0,0,0,0,0,0,0,0,-1,1553,736,0,0
336,288,0,0,0,0,0,0,0,0,0,-1,1560,736,0,0
343,288,0,0,0,0,0,0,0,0,0,-1,1567,736,0,0
350,288,0,0,0,0,0,0,0,0,0,-1,1574,736,0,0
357,288,0,0,0,0,0,0,0,0,0,-1,1581,736,0,0
364,288,0,0,0,0,0,0,0,0,0,-1,1588,736,0,0
371,288,0,0,0,0,0,0,0,0,0,-1,1595,736,0,0
378,288,0,0,0,0,0,0,0,0,0,-1,1602,736,0,0
385,288,0,0,0,0,0,0,0,0,0,-1,1609,736,0,0
392,288,0,0,0,0,0,0,0,0,0,-1,1616,736,0,0
399,288,0,0,0,0,0,0,0,0,0,-1,1623,736,0,0
406,288,0,0,0,0,0,0,0,0,0,-1,1630,736,0,0
413,288,0,0,0,0,0,0,0,0,0,-1,1637,736,0,0
420,288,0,0,0,0,0,0,0,0,0,-1,1644,736,0,0
427,288,0,0,0,0,0,0,0,0,0,-1,1651,736,0,0
434,288,0,0,0,0,0,0,0,0,0,-1,1658,736,0,0
441,288,0,0,0,0,0,0,0,0,0,-1,1665,736,0,0
448,288,0,0,0,0,0,0,0,0,0,-1,1672,736,0,0
455,288,0,0,0,0,0,0,0,0,0,-1,1679,736,0,0
462,288,0,0,0,0,0,0,0,0,0,-1,1686,736,0,0
469,288,0,0,0,0,0,0,0,0,0,-1,1693,736,0,0
476,288,0,0,0,0,0,0,0,0,0,-1,1700,736,0,0
483,288,0,0,0,0,0,0,0,0,0,-1,1707,736,0,0
490,288,0,0,0,0,0,0,0,0,0,-1,1714,736,0,0
497,288,0,0,0,0,0,0,0,0,0,-1,1721,736,0,0
504,288,0,0,0,0,0,0,0,0,0,-1,1728,736,0,0
511,288,0,0,0,0,0,0,0,0,0,-1,1735,736,0,0
518,288,0,0,0,0,0,0,0,0,0,-1,1742,736,0,0
525,288,0,0,0,0,0,0,0,0,0,-1,1749,736,0,0
532,288,0,0,0,0,0,0,0,0,0,-1,1756,736,0,0
539,288,0,0,0,0,0,0,0,0,0,-1,1763,736,0,0
546,288,0,0,0,0,0,0,0,0,0,-1,1770,736,0,0
553,288,24.0759,2.66272,0,0,0,0,0,0,0,-1,1777,736,24.076,-2.6627
560,288,23.9874,3.10889,0.027827,0.0278565,-0.0138138,0.0416556,0.0140279,-0.785934,0.0244734,0.0413964,1784,736,23.9874,-3.10891
567,288,23.8281,3.56006,0,0,0,0,0,0,0,-1,1791,736,23.8281,-3.56006
574,288,23.5671,4.05145,0,0,0,0,0,0,0,-1,1798,736,23.5672,-4.05146
581,288,24.4714,3.9845,0,0,0,0,0,0,0,-1,1805,736,24.4715,-3.9845
588,288,25.3223,3.69635,0,0,0,0,0,0,0,-1,1812,736,25.3222,-3.69634
595,288,23.9858,3.51782,0,0,0,0,0,0,0,-1,1819,736,23.9858,-3.51783
602,288,20.5166,4.94885,0,0,0,0,0,0,0,-1,1826,736,20.5166,-4.94885
609,288,17.5223,4.86414,0,0,0,0,0,0,0,-1,1833,736,17.5223,-4.86412
616,288,13.4886,0.801331,0,0,0,0,0,0,0,-1,1840,736,13.4886,-0.80132
623,288,15.8512,-0.371704,0,0,0,0,0,0,0,-1,1847,736,15.8513,0.371682
630,288,15.925,-0.0847168,0.00938747,0.00153594,0.000283716,0.00939771,0.00152571,0.0360724,0.00582357,0.0202446,1854,736,15.9251,0.0847244
637,288,15.9896,0.199341,0.00423129,-0.000210376,3.29617e-06,0.00423129,-0.000210379,0.000742102,0.00289354,0.0101103,1861,736,15.9896,-0.199323
644,288,16.0051,0.486938,0.000322839,-0.000896226,-0.000528003,0.000519729,-0.00109312,-0.356925,0.000950589,0.0105705,1868,736,16.0051,-0.486958
651,288,15.9923,0.797058,-0.000254281,-0.000655052,-0.000820178,0.000389636,-0.00129897,-0.665586,0.00102095,0.011698,1875,736,15.9923,-0.797077
658,288,15.9692,1.10376,-0.000242618,-0.000415734,-0.000868589,0.000543716,-0.00120207,-0.735735,0.00103154,0.0166469,1882,736,15.9692,-1.10375
665,288,15.9705,1.39081,0.000276671,-0.00021681,-0.000901777,0.000964855,-0.000904994,-0.651859,0.00107974,0.0170401,1889,736,15.9705,-1.39081
672,288,15.9656,1.66321,0.00218331,-0.00011753,-0.000623437,0.00234137,-0.000275597,-0.24831,0.00166042,0.0141172,1896,736,15.9656,-1.66323
679,288,15.9827,1.98938,0.0041307,-7.42089e-05,-0.000383949,0.00416547,-0.000108979,-0.0903144,0.00281401,0.011565,1903,736,15.9827,-1.98939
686,288,15.9788,2.26086,0.00730156,0.000162366,-0.000270569,0.0073118,0.000152127,-0.0378268,0.00482462,0.00920656,1910,736,15.9788,-2.26089
693,288,15.991,2.56439,0.0123995,0.000729253,-0.000207701,0.0124032,0.000725557,-0.0177899,0.00803787,0.01345,1917,736,15.991,-2.56436
700,288,15.969,2.83197,0.0199034,0.00145168,-7.09759e-05,0.0199037,0.00145141,-0.00384649,0.0128128,0.027571,1924,736,15.969,-2.83195
707,288,16.2294,3.18347,0.0306158,0.00247181,0.000175072,0.0306169,0.00247072,0.00622027,0.0196396,0.0413474,1931,736,16.2293,-3.1835
714,288,16.9219,3.50031,0,0,0,0,0,0,0,-1,1938,736,16.9218,-3.50033
721,288,18.0732,3.69385,0,0,0,0,0,0,0,-1,1945,736,18.0732,-3.69387
728,288,19.3208,3.91455,0,0,0,0,0,0,0,-1,1952,736,19.3209,-3.91455
735,288,18.7712,3.51312,0,0,0,0,0,0,0,-1,1959,736,18.7713,-3.51309
742,288,0,0,0,0,0,0,0,0,0,-1,1966,736,0,0
749,288,0,0,0,0,0,0,0,0,0,-1,1973,736,0,0
756,288,0,0,0,0,0,0,0,0,0,-1,1980,736,0,0
763,288,0,0,0,0,0,0,0,0,0,-1,1987,736,0,0
770,288,0,0,0,0,0,0,0,0,0,-1,1994,736,0,0
777,288,0,0,0,0,0,0,0,0,0,-1,2001,736,0,0
784,288,0,0,0,0,0,0,0,0,0,-1,2008,736,0,0
791,288,0,0,0,0,0,0,0,0,0,-1,2015,736,0,0
798,288,0,0,0,0,0,0,0,0,0,-1,2022,736,0,0
805,288,0,0,0,0,0,0,0,0,0,-1,2029,736,0,0
812,288,0,0,0,0,0,0,0,0,0,-1,2036,736,0,0
-700,281,0,0,0,0,0,0,0,0,0,-1,524,743,0,0
-693,281,0,0,0,0,0,0,0,0,0,-1,531,743,0,0
-686,281,0,0,0,0,0,0,0,0,0,-1,538,743,0,0
-679,281,0,0,0,0,0,0,0,0,0,-1,545,743,0,0
-672,281,0,0,0,0,0,0,0,0,0,-1,552,743,0,0
-665,281,0,0,0,0,0,0,0,0,0,-1,559,743,0,0
-658,281,0,0,0,0,0,0,0,0,0,-1,566,743,0,0
-651,281,0,0,0,0,0,0,0,0,0,-1,573,743,0,0
-644,281,0,0,0,0,0,0,0,0,0,-1,580,743,0,0
-637,281,0,0,0,0,0,0,0,0,0,-1,587,743,0,0
-630,281,0,0,0,0,0,0,0,0,0,-1,594,743,0,0
-623,281,-11.6334,3.75549,0,0,0,0,0,0,0,-1,601,743,-11.6334,-3.75548
-616,281,-9.00421,0.499329,0,0,0,0,0,0,0,-1,608,743,-9.00419,-0.499299
-609,281,-9.31665,0.590759,0,0,0,0,0,0,0,-1,615,743,-9.31665,-0.590769
-602,281,-9.38623,0.555908,0,0,0,0,0,0,0,-1,622,743,-9.38624,-0.555937
-595,281,-9.37494,0.197815,0,0,0,0,0,0,0,-1,629,743,-9.37496,-0.197802
-588,281,-9.49042,0.801941,0,0,0,0,0,0,0,-1,636,743,-9.49041,-0.801943
-581,281,-9.74084,0.82019,0,0,0,0,0,0,0,-1,643,743,-9.74085,-0.820219
-574,281,-9.63049,0.675537,-0.00933411,-0.00468385,0.00845063,0.00175569,-0.0157737,0.919648,0.0111472,0.0301706,650,743,-9.63047,-0.67554
-567,281,-9.68689,0.480835,-0.0072352,-0.00206293,0.00622303,0.00208994,-0.0113881,0.982328,0.00837606,0.0137713,657,743,-9.68687,-0.480846
-560,281,-9.72174,0.218872,-0.00557367,-0.000643425,0.00454531,0.00206221,-0.0082793,1.03387,0.0063201,0.00854658,664,743,-9.72176,-0.218894
-553,281,-9.69189,-0.0457153,-0.00402948,0.0004404,0.00320423,0.00211213,-0.0057012,1.08992,0.00466697,0.0128029,671,743,-9.69187,0.045737
-546,281,-9.68506,-0.309631,-0.00294841,0.000569283,0.00242528,0.00180635,-0.00418548,1.09912,0.00354912,0.0147926,678,743,-9.68508,0.309628
-539,281,-9.70135,-0.595459,-0.00231511,-0.0003033,0.00204027,0.000965556,-0.00358396,1.01442,0.00276788,0.013493,685,743,-9.70137,0.595443
-532,281,-9.70288,-0.842773,-0.00151667,-0.00122978,0.00188161,0.000513842,-0.00326029,0.823442,0.0023635,0.0115587,692,743,-9.70287,0.84279
-525,281,-9.72736,-1.12982,-0.000641097,-0.0017935,0.00164359,0.000524367,-0.00295897,0.616804,0.00216867,0.0124071,699,743,-9.72733,1.12983
-518,281,-9.73608,-1.43512,0.000381687,-0.00236405,0.00126003,0.000872268,-0.00285463,0.371284,0.0022509,0.0118163,706,743,-9.7361,1.43513
-511,281,-9.72748,-1.73523,0.00162997,-0.00284247,0.000736638,0.00174817,-0.00296067,0.159109,0.00274853,0.0106385,713,743,-9.72746,1.73524
-504,281,-9.73676,-2.01715,0.0033462,-0.00321978,0.00142767,0.00364319,-0.00351677,0.2051,0.00413402,0.0129776,720,743,-9.73676,2.01712
-497,281,-9.61554,-2.30634,0.005659,-0.00301446,0.00282152,0.00649607,-0.00385153,0.288402,0.00603888,0.0363975,727,743,-9.61553,2.30636
-490,281,-9.43872,-2.53857,0,0,0,0,0,0,0,-1,734,743,-9.43871,2.53857
-483,281,-15.937,0.16925,0,0,0,0,0,0,0,-1,741,743,-15.9369,-0.169257
-476,281,-17.1218,0.410583,0,0,0,0,0,0,0,-1,748,743,-17.1218,-0.410556
-469,281,-17.4238,0.756226,0,0,0,0,0,0,0,-1,755,743,-17.4238,-0.75623
-462,281,-17.6046,0.172302,0,0,0,0,0,0,0,-1,762,743,-17.6046,-0.172288
-455,281,-17.4044,0.305115,0.0276366,0.00254503,0.0278285,0.0456166,-0.015435,0.573628,0.0366558,0.0453646,769,743,-17.4044,-0.305091
-448,281,-16.9859,0.524292,0.0330599,0.00400066,0.0405555,0.06161,-0.0245494,0.613389,0.0512552,0.0471868,776,743,-16.9859,-0.524318
-441,281,-16.7681,0.632202,0,0,0,0,0,0,0,-1,783,743,-16.7681,-0.632207
-434,281,0,0,0,0,0,0,0,0,0,-1,790,743,0,0
-427,281,0,0,0,0,0,0,0,0,0,-1,797,743,0,0
-420,281,0,0,0,0,0,0,0,0,0,-1,804,743,0,0
-413,281,0,0,0,0,0,0,0,0,0,-1,811,743,0,0
-406,281,0,0,0,0,0,0,0,0,0,-1,818,743,0,0
-399,281,0,0,0,0,0,0,0,0,0,-1,825,743,0,0
-392,281,0,0,0,0,0,0,0,0,0,-1,832,743,0,0
-385,281,0,0,0,0,0,0,0,0,0,-1,839,743,0,0
-378,281,0,0,0,0,0,0,0,0,0,-1,846,743,0,0
-371,281,0,0,0,0,0,0,0,0,0,-1,853,743,0,0
-364,281,0,0,0,0,0,0,0,0,0,-1,860,743,0,0
-357,281,0,0,0,0,0,0,0,0,0,-1,867,743,0,0
-350,281,0,0,0,0,0,0,0,0,0,-1,874,743,0,0
-343,281,0,0,0,0,0,0,0,0,0,-1,881,743,0,0
-336,281,0,0,0,0,0,0,0,0,0,-1,888,743,0,0
-329,281,0,0,0,0,0,0,0,0,0,-1,895,743,0,0
-322,281,0,0,0,0,0,0,0,0,0,-1,902,743,0,0
-315,281,0,0,0,0,0,0,0,0,0,-1,909,743,0,0
-308,281,0,0,0,0,0,0,0,0,0,-1,916,743,0,0
-301,281,0,0,0,0,0,0,0,0,0,-1,923,743,0,0
-294,281,0,0,0,0,0,0,0,0,0,-1,930,743,0,0
-287,281,0,0,0,0,0,0,0,0,0,-1,937,743,0,0
-280,281,0,0,0,0,0,0,0,0,0,-1,944,743,0,0
-273,281,0,0,0,0,0,0,0,0,0,-1,951,743,0,0
-266,281,0,0,0,0,0,0,0,0,0,-1,958,743,0,0
-259,281,0,0,0,0,0,0,0,0,0,-1,965,743,0,0
-252,281,0,0,0,0,0,0,0,0,0,-1,972,743,0,0
-245,281,0,0,0,0,0,0,0,0,0,-1,979,743,0,0
-238,281,0,0,0,0,0,0,0,0,0,-1,986,743,0,0
-231,281,0,0,0,0,0,0,0,0,0,-1,993,743,0,0
-224,281,0,0,0,0,0,0,0,0,0,-1,1000,743,0,0
-217,281,0,0,0,0,0,0,0,0,0,-1,1007,743,0,0
-210,281,0,0,0,0,0,0,0,0,0,-1,1014,743,0,0
-203,281,0,0,0,0,0,0,0,0,0,-1,1021,743,0,0
-196,281,0,0,0,0,0,0,0,0,0,-1,1028,743,0,0
-189,281,0,0,0,0,0,0,0,0,0,-1,1035,743,0,0
-182,281,0,0,0,0,0,0,0,0,0,-1,1042,743,0,0
-175,281,0,0,0,0,0,0,0,0,0,-1,1049,743,0,0
-168,281,0,0,0,0,0,0,0,0,0,-1,1056,743,0,0
-161,281,0,0,0,0,0,0,0,0,0,-1,1063,743,0,0
-154,281,0,0,0,0,0,0,0,0,0,-1,1070,743,0,0
-147,281,0,0,0,0,0,0,0,0,0,-1,1077,743,0,0
-140,281,0,0,0,0,0,0,0,0,0,-1,1084,743,0,0
-133,281,0,0,0,0,0,0,0,0,0,-1,1091,743,0,0
-126,281,0,0,0,0,0,0,0,0,0,-1,1098,743,0,0
-119,281,0,0,0,0,0,0,0,0,0,-1,1105,743,0,0
-112,281,0,0,0,0,0,0,0,0,0,-1,1112,743,0,0
-105,281,0,0,0,0,0,0,0,0,0,-1,1119,743,0,0
-98,281,0,0,0,0,0,0,0,0,0,-1,1126,743,0,0
-91,281,0,0,0,0,0,0,0,0,0,-1,1133,743,0,0
-84,281,0,0,0,0,0,0,0,0,0,-1,1140,743,0,0
-77,281,0,0,0,0,0,0,0,0,0,-1,1147,743,0,0
-70,281,0,0,0,0,0,0,0,0,0,-1,1154,743,0,0
-63,281,0,0,0,0,0,0,0,0,0,-1,1161,743,0,0
-56,281,0,0,0,0,0,0,0,0,0,-1,1168,743,0,0
-49,281,0,0,0,0,0,0,0,0,0,-1,1175,743,0,0
-42,281,0,0,0,0,0,0,0,0,0,-1,1182,743,0,0
-35,281,0,0,0,0,0,0,0,0,0,-1,1189,743,0,0
-28,281,0,0,0,0,0,0,0,0,0,-1,1196,743,0,0
-21,281,0,0,0,0,0,0,0,0,0,-1,1203,743,0,0
-14,281,0,0,0,0,0,0,0,0,0,-1,1210,743,0,0
-7,281,0,0,0,0,0,0,0,0,0,-1,1217,743,0,0
0,281,0,0,0,0,0,0,0,0,0,-1,1224,743,0,0
7,281,0,0,0,0,0,0,0,0,0,-1,1231,743,0,0
14,281,0,0,0,0,0,0,0,0,0,-1,1238,743,0,0
21,281,0,0,0,0,0,0,0,0,0,-1,1245,743,0,0
28,281,0,0,0,0,0,0,0,0,0,-1,1252,743,0,0
35,281,0,0,0,0,0,0,0,0,0,-1,1259,743,0,0
42,281,0,0,0,0,0,0,0,0,0,-1,1266,743,0,0
49,281,0,0,0,0,0,0,0,0,0,-1,1273,743,0,0
56,281,0,0,0,0,0,0,0,0,0,-1,1280,743,0,0
63,281,0,0,0,0,0,0,0,0,0,-1,1287,743,0,0
70,281,0,0,0,0,0,0,0,0,0,-1,1294,743,0,0
77,281,0,0,0,0,0,0,0,0,0,-1,1301,743,0,0
84,281,0,0,0,0,0,0,0,0,0,-1,1308,743,0,0
91,281,0,0,0,0,0,0,0,0,0,-1,1315,743,0,0
98,281,0,0,0,0,0,0,0,0,0,-1,1322,743,0,0
105,281,0,0,0,0,0,0,0,0,0,-1,1329,743,0,0
112,281,0,0,0,0,0,0,0,0,0,-1,1336,743,0,0
119,281,0,0,0,0,0,0,0,0,0,-1,1343,743,0,0
126,281,0,0,0,0,0,0,0,0,0,-1,1350,743,0,0
133,281,0,0,0,0,0,0,0,0,0,-1,1357,743,0,0
140,281,0,0,0,0,0,0,0,0,0,-1,1364,743,0,0
147,281,0,0,0,0,0,0,0,0,0,-1,1371,743,0,0
154,281,0,0,0,0,0,0,0,0,0,-1,1378,743,0,0
161,281,0,0,0,0,0,0,0,0,0,-1,1385,743,0,0
168,281,0,0,0,0,0,0,0,0,0,-1,1392,743,0,0
175,281,0,0,0,0,0,0,0,0,0,-1,1399,743,0,0
182,281,0,0,0,0,0,0,0,0,0,-1,1406,743,0,0
189,281,0,0,0,0,0,0,0,0,0,-1,1413,743,0,0
196,281,0,0,0,0,0,0,0,0,0,-1,1420,743,0,0
203,281,0,0,0,0,0,0,0,0,0,-1,1427,743,0,0
210,281,0,0,0,0,0,0,0,0,0,-1,1434,743,0,0
217,281,0,0,0,0,0,0,0,0,0,-1,1441,743,0,0
224,281,0,0,0,0,0,0,0,0,0,-1,1448,743,0,0
231,281,0,0,0,0,0,0,0,0,0,-1,1455,743,0,0
238,281,0,0,0,0,0,0,0,0,0,-1,1462,743,0,0
245,281,0,0,0,0,0,0,0,0,0,-1,1469,743,0,0
252,281,0,0,0,0,0,0,0,0,0,-1,1476,743,0,0
259,281,0,0,0,0,0,0,0,0,0,-1,1483,743,0,0
266,281,0,0,0,0,0,0,0,0,0,-1,1490,743,0,0
273,281,0,0,0,0,0,0,0,0,0,-1,1497,743,0,0
280,281,0,0,0,0,0,0,0,0,0,-1,1504,743,0,0
287,281,0,0,0,0,0,0,0,0,0,-1,1511,743,0,0
294,281,0,0,0,0,0,0,0,0,0,-1,1518,743,0,0
301,281,0,0,0,0,0,0,0,0,0,-1,1525,743,0,0
308,281,0,0,0,0,0,0,0,0,0,-1,1532,743,0,0
315,281,0,0,0,0,0,0,0,0,0,-1,1539,743,0,0
322,281,0,0,0,0,0,0,0,0,0,-1,1546,743,0,0
329,281,0,0,0,0,0,0,0,0,0,-1,1553,743,0,0
336,281,0,0,0,0,0,0,0,0,0,-1,1560,743,0,0
343,281,0,0,0,0,0,0,0,0,0,-1,1567,743,0,0
350,281,0,0,0,0,0,0,0,0,0,-1,1574,743,0,0
357,281,0,0,0,0,0,0,0,0,0,-1,1581,743,0,0
364,281,0,0,0,0,0,0,0,0,0,-1,1588,743,0,0
371,281,0,0,0,0,0,0,0,0,0,-1,1595,743,0,0
378,281,0,0,0,0,0,0,0,0,0,-1,1602,743,0,0
385,281,0,0,0,0,0,0,0,0,0,-1,1609,743,0,0
392,281,0,0,0,0,0,0,0,0,0,-1,1616,743,0,0
399,281,0,0,0,0,0,0,0,0,0,-1,1623,743,0,0
406,281,0,0,0,0,0,0,0,0,0,-1,1630,743,0,0
413,281,0,0,0,0,0,0,0,0,0,-1,1637,743,0,0
420,281,0,0,0,0,0,0,0,0,0,-1,1644,743,0,0
427,281,0,0,0,0,0,0,0,0,0,-1,1651,743,0,0
434,281,0,0,0,0,0,0,0,0,0,-1,1658,743,0,0
441,281,0,0,0,0,0,0,0,0,0,-1,1665,743,0,0
448,281,0,0,0,0,0,0,0,0,0,-1,1672,743,0,0
455,281,0,0,0,0,0,0,0,0,0,-1,1679,743,0,0
462,281,0,0,0,0,0,0,0,0,0,-1,1686,743,0,0
469,281,0,0,0,0,0,0,0,0,0,-1,1693,743,0,0
476,281,0,0,0,0,0,0,0,0,0,-1,1700,743,0,0
483,281,0,0,0,0,0,0,0,0,0,-1,1707,743,0,0
490,281,0,0,0,0,0,0,0,0,0,-1,1714,743,0,0
497,281,0,0,0,0,0,0,0,0,0,-1,1721,743,0,0
504,281,0,0,0,0,0,0,0,0,0,-1,1728,743,0,0
511,281,0,0,0,0,0,0,0,0,0,-1,1735,743,0,0
518,281,0,0,0,0,0,0,0,0,0,-1,1742,743,0,0
525,281,0,0,0,0,0,0,0,0,0,-1,1749,743,0,0
532,281,0,0,0,0,0,0,0,0,0,-1,1756,743,0,0
539,281,0,0,0,0,0,0,0,0,0,-1,1763,743,0,0
546,281,0,0,0,0,0,0,0,0,0,-1,1770,743,0,0
553,281,0,0,0,0,0,0,0,0,0,-1,1777,743,0,0
560,281,24.5673,3.16919,0,0,0,0,0,0,0,-1,1784,743,24.5673,-3.16917
567,281,23.5514,3.86694,0,0,0,0,0,0,0,-1,1791,743,23.5514,-3.86695
574,281,23.9279,3.51324,0,0,0,0,0,0,0,-1,1798,743,23.9278,-3.51325
581,281,24.4341,3.34381,0.0546464,0.0231316,-2.46983e-05,0.0546464,0.0231316,-0.000783706,0.0316736,0.0477691,1805,743,24.434,-3.34379
588,281,25.3098,3.32062,0.0484231,0.0186641,0.00132174,0.0484817,0.0186055,0.0442984,0.0282419,0.0460423,1812,743,25.3098,-3.32064
595,281,26.1201,3.35175,0,0,0,0,0,0,0,-1,1819,743,26.1202,-3.35175
602,281,21.3464,3.92828,0,0,0,0,0,0,0,-1,1826,743,21.3464,-3.9283
609,281,20.3328,4.56146,0,0,0,0,0,0,0,-1,1833,743,20.3328,-4.56145
616,281,18.7693,0.0219727,0,0,0,0,0,0,0,-1,1840,743,18.7693,-0.0219682
623,281,16.0216,-0.246216,0,0,0,0,0,0,0,-1,1847,743,16.0216,0.246222
630,281,16.1656,-0.0348511,0.00930299,0.00155498,6.57502e-05,0.00930355,0.00155442,0.00848527,0.00575463,0.037974,1854,743,16.1656,0.0348376
637,281,16.2651,0.202576,0.00420603,-9.31803e-05,-0.000353713,0.00423493,-0.000122087,-0.0815434,0.00286485,0.0138677,1861,743,16.2651,-0.202583
644,281,16.2836,0.491699,0.00011602,-0.000887314,-0.000981617,0.000716734,-0.00148803,-0.549169,0.00129862,0.0105849,1868,743,16.2836,-0.491685
651,281,16.2797,0.781738,-0.000445624,-0.000685686,-0.00125747,0.000697535,-0.00182885,-0.737815,0.00150657,0.0115656,1875,743,16.2797,-0.781747
658,281,16.2649,1.07489,-0.000319593,-0.000503877,-0.00121811,0.000809853,-0.00163332,-0.747648,0.00143703,0.0202548,1882,743,16.2649,-1.07487
665,281,16.2694,1.36938,0.000380189,-0.000310199,-0.00111033,0.00119775,-0.00112776,-0.634688,0.00134283,0.0201287,1889,743,16.2695,-1.36937
672,281,16.2585,1.69336,0.00250463,-0.000158146,-0.000617524,0.00264087,-0.000294385,-0.217143,0.00186647,0.0119721,1896,743,16.2586,-1.69337
679,281,16.2628,1.96118,0.00462614,-7.73265e-05,-0.000197303,0.0046344,-8.55883e-05,-0.0418505,0.00311852,0.0175522,1903,743,16.2628,-1.96119
686,281,16.2473,2.22925,0.00794099,0.00029976,2.40374e-05,0.00794107,0.000299684,0.0031457,0.00519703,0.0134579,1910,743,16.2473,-2.22925
693,281,16.254,2.53796,0.0131288,0.00117411,-4.77989e-05,0.013129,0.00117392,-0.00399824,0.00838879,0.0104261,1917,743,16.254,-2.53795
700,281,16.2706,2.79358,0.0204023,0.00234325,-0.000278151,0.0204066,0.00233897,-0.0153974,0.0128957,0.0189098,1924,743,16.2707,-2.79357
707,281,16.2761,3.07697,0.0303606,0.00387467,-0.000637733,0.030376,0.00385932,-0.0240596,0.0190947,0.0389443,1931,743,16.2761,-3.07698
714,281,16.3719,3.4668,0,0,0,0,0,0,0,-1,1938,743,16.3719,-3.46678
721,281,16.9656,3.22174,0,0,0,0,0,0,0,-1,1945,743,16.9656,-3.22172
728,281,19.0251,3.63934,0,0,0,0,0,0,0,-1,1952,743,19.0252,-3.63932
735,281,19.0869,2.50311,0,0,0,0,0,0,0,-1,1959,743,19.0869,-2.5031
742,281,0,0,0,0,0,0,0,0,0,-1,1966,743,0,0
749,281,0,0,0,0,0,0,0,0,0,-1,1973,743,0,0
756,281,0,0,0,0,0,0,0,0,0,-1,1980,743,0,0
763,281,0,0,0,0,0,0,0,0,0,-1,1987,743,0,0
770,281,0,0,0,0,0,0,0,0,0,-1,1994,743,0,0
777,281,0,0,0,0,0,0,0,0,0,-1,2001,743,0,0
784,281,0,0,0,0,0,0,0,0,0,-1,2008,743,0,0
791,281,0,0,0,0,0,0,0,0,0,-1,2015,743,0,0
798,281,0,0,0,0,0,0,0,0,0,-1,2022,743,0,0
805,281,0,0,0,0,0,0,0,0,0,-1,2029,743,0,0
812,281,0,0,0,0,0,0,0,0,0,-1,2036,743,0,0
-700,274,0,0,0,0,0,0,0,0,0,-1,524,750,0,0
-693,274,0,0,0,0,0,0,0,0,0,-1,531,750,0,0
-686,274,0,0,0,0,0,0,0,0,0,-1,538,750,0,0
-679,274,0,0,0,0,0,0,0,0,0,-1,545,750,0,0
-672,274,0,0,0,0,0,0,0,0,0,-1,552,750,0,0
-665,274,0,0,0,0,0,0,0,0,0,-1,559,750,0,0
-658,274,0,0,0,0,0,0,0,0,0,-1,566,750,0,0
-651,274,0,0,0,0,0,0,0,0,0,-1,573,750,0,0
-644,274,0,0,0,0,0,0,0,0,0,-1,580,750,0,0
-637,274,0,0,0,0,0,0,0,0,0,-1,587,750,0,0
-630,274,0,0,0,0,0,0,0,0,0,-1,594,750,0,0
-623,274,-12,4.31891,0,0,0,0,0,0,0,-1,601,750,-12,-4.31891
-616,274,-9.099,0.726379,0,0,0,0,0,0,0,-1,608,750,-9.09901,-0.726404
-609,274,-9.41357,0.88092,-0.0237611,-0.0479562,0.0278636,-0.00548217,-0.0662351,0.580592,0.0424475,0.047847,615,750,-9.41355,-0.880937
-602,274,-9.75977,1.00854,-0.0186622,-0.0344338,0.0218349,-0.00333272,-0.0497633,0.612108,0.0321223,0.0440906,622,750,-9.75977,-1.00853
-595,274,-9.56726,1.88794,0,0,0,0,0,0,0,-1,629,750,-9.56724,-1.88793
-588,274,-9.78711,1.68701,0,0,0,0,0,0,0,-1,636,750,-9.7871,-1.68703
-581,274,-9.90009,0.961975,-0.0090186,-0.0103447,0.00962691,-3.19229e-05,-0.0193314,0.751016,0.0128769,0.0415907,643,750,-9.90011,-0.961956
-574,274,-9.87469,0.72937,-0.00707651,-0.00638091,0.00710873,0.000388527,-0.0138459,0.809842,0.00936282,0.0209635,650,750,-9.87472,-0.729365
-567,274,-9.97717,0.486023,-0.00558925,-0.0038946,0.00524951,0.000575527,-0.0100594,0.865413,0.00690609,0.0185165,657,750,-9.97716,-0.486044
-560,274,-9.98444,0.230835,-0.00447376,-0.00241578,0.00394125,0.000628594,-0.00751813,0.913089,0.00523421,0.0146397,664,750,-9.98444,-0.230811
-553,274,-9.97046,-0.0466919,-0.00334351,-0.00124149,0.00291211,0.000803467,-0.00538846,0.958579,0.0038879,0.0091258,671,750,-9.97048,0.0466674
-546,274,-9.96918,-0.320923,-0.00262865,-0.000909473,0.00237899,0.000760464,-0.00429859,0.958762,0.00314996,0.0106536,678,750,-9.96918,0.320912
-539,274,-9.99121,-0.587952,-0.00226394,-0.00156076,0.00217308,0.000288989,-0.00411369,0.865599,0.00284369,0.0115486,685,750,-9.9912,0.587933
-532,274,-9.98938,-0.844788,-0.00165405,-0.00229449,0.00216241,0.000211718,-0.00416026,0.711889,0.0028467,0.0110032,692,750,-9.98935,0.844816
-525,274,-9.99121,-1.1189,-0.000861952,-0.0026652,0.00196895,0.000401992,-0.00392915,0.570687,0.00276319,0.0102548,699,750,-9.99121,1.11891
-518,274,-9.99786,-1.41699,0.000170236,-0.00309903,0.00152298,0.000769766,-0.00369856,0.375026,0.00275833,0.0109318,706,750,-9.99786,1.41699
-511,274,-10.0005,-1.72021,0.00151154,-0.00347425,0.000909814,0.00167237,-0.00363509,0.174971,0.00313333,0.0114066,713,750,-10.0005,1.72021
-504,274,-10.0172,-2.02728,0.00331432,-0.00377796,0.0013848,0.00357512,-0.00403876,0.186149,0.00439859,0.0214422,720,750,-10.0172,2.02726
-497,274,-10.0193,-2.11127,0.00565559,-0.00356319,0.00245348,0.00626789,-0.00417549,0.244568,0.0060697,0.046655,727,750,-10.0194,2.11124
-490,274,-10.5358,-1.25421,0,0,0,0,0,0,0,-1,734,750,-10.5357,1.25422
-483,274,-17.2883,1.80646,0,0,0,0,0,0,0,-1,741,750,-17.2883,-1.80648
-476,274,-17.4054,1.237,0,0,0,0,0,0,0,-1,748,750,-17.4054,-1.237
-469,274,-17.5103,0.715881,0.0181563,-0.000945581,0.0110087,0.0231797,-0.00596901,0.428092,0.01778,0.0490537,755,750,-17.5103,-0.71588
-462,274,-17.4874,0.40332,0.0222747,0.000273023,0.0165634,0.0311576,-0.00860987,0.492263,0.0241586,0.0460124,762,750,-17.4874,-0.40331
-455,274,-17.6061,0.263672,0,0,0,0,0,0,0,-1,769,750,-17.6061,-0.263668
-448,274,-17.3455,0.495117,0,0,0,0,0,0,0,-1,776,750,-17.3455,-0.495108
-441,274,0,0,0,0,0,0,0,0,0,-1,783,750,0,0
-434,274,0,0,0,0,0,0,0,0,0,-1,790,750,0,0
-427,274,0,0,0,0,0,0,0,0,0,-1,797,750,0,0
-420,274,0,0,0,0,0,0,0,0,0,-1,804,750,0,0
-413,274,0,0,0,0,0,0,0,0,0,-1,811,750,0,0
-406,274,0,0,0,0,0,0,0,0,0,-1,818,750,0,0
-399,274,0,0,0,0,0,0,0,0,0,-1,825,750,0,0
-392,274,0,0,0,0,0,0,0,0,0,-1,832,750,0,0
-385,274,0,0,0,0,0,0,0,0,0,-1,839,750,0,0
-378,274,0,0,0,0,0,0,0,0,0,-1,846,750,0,0
-371,274,0,0,0,0,0,0,0,0,0,-1,853,750,0,0
-364,274,0,0,0,0,0,0,0,0,0,-1,860,750,0,0
-357,274,0,0,0,0,0,0,0,0,0,-1,867,750,0,0
-350,274,0,0,0,0,0,0,0,0,0,-1,874,750,0,0
-343,274,0,0,0,0,0,0,0,0,0,-1,881,750,0,0
-336,274,0,0,0,0,0,0,0,0,0,-1,888,750,0,0
-329,274,0,0,0,0,0,0,0,0,0,-1,895,750,0,0
-322,274,0,0,0,0,0,0,0,0,0,-1,902,750,0,0
-315,274,0,0,0,0,0,0,0,0,0,-1,909,750,0,0
-308,274,0,0,0,0,0,0,0,0,0,-1,916,750,0,0
-301,274,0,0,0,0,0,0,0,0,0,-1,923,750,0,0
-294,274,0,0,0,0,0,0,0,0,0,-1,930,750,0,0
-287,274,0,0,0,0,0,0,0,0,0,-1,937,750,0,0
-280,274,0,0,0,0,0,0,0,0,0,-1,944,750,0,0
-273,274,0,0,0,0,0,0,0,0,0,-1,951,750,0,0
-266,274,0,0,0,0,0,0,0,0,0,-1,958,750,0,0
-259,274,0,0,0,0,0,0,0,0,0,-1,965,750,0,0
-252,274,0,0,0,0,0,0,0,0,0,-1,972,750,0,0
-245,274,0,0,0,0,0,0,0,0,0,-1,979,750,0,0
-238,274,0,0,0,0,0,0,0,0,0,-1,986,750,0,0
-231,274,0,0,0,0,0,0,0,0,0,-1,993,750,0,0
-224,274,0,0,0,0,0,0,0,0,0,-1,1000,750,0,0
-217,274,0,0,0,0,0,0,0,0,0,-1,1007,750,0,0
-210,274,0,0,0,0,0,0,0,0,0,-1,1014,750,0,0
-203,274,0,0,0,0,0,0,0,0,0,-1,1021,750,0,0
-196,274,0,0,0,0,0,0,0,0,0,-1,1028,750,0,0
-189,274,0,0,0,0,0,0,0,0,0,-1,1035,750,0,0
-182,274,0,0,0,0,0,0,0,0,0,-1,1042,750,0,0
-175,274,0,0,0,0,0,0,0,0,0,-1,1049,750,0,0
-168,274,0,0,0,0,0,0,0,0,0,-1,1056,750,0,0
-161,274,0,0,0,0,0,0,0,0,0,-1,1063,750,0,0
-154,274,0,0,0,0,0,0,0,0,0,-1,1070,750,0,0
-147,274,0,0,0,0,0,0,0,0,0,-1,1077,750,0,0
-140,274,0,0,0,0,0,0,0,0,0,-1,1084,750,0,0
-133,274,0,0,0,0,0,0,0,0,0,-1,1091,750,0,0
-126,274,0,0,0,0,0,0,0,0,0,-1,1098,750,0,0
-119,274,0,0,0,0,0,0,0,0,0,-1,1105,750,0,0
-112,274,0,0,0,0,0,0,0,0,0,-1,1112,750,0,0
-105,274,0,0,0,0,0,0,0,0,0,-1,1119,750,0,0
-98,274,0,0,0,0,0,0,0,0,0,-1,1126,750,0,0
-91,274,0,0,0,0,0,0,0,0,0,-1,1133,750,0,0
-84,274,0,0,0,0,0,0,0,0,0,-1,1140,750,0,0
-77,274,0,0,0,0,0,0,0,0,0,-1,1147,750,0,0
-70,274,0,0,0,0,0,0,0,0,0,-1,1154,750,0,0
-63,274,0,0,0,0,0,0,0,0,0,-1,1161,750,0,0
-56,274,0,0,0,0,0,0,0,0,0,-1,1168,750,0,0
-49,274,0,0,0,0,0,0,0,0,0,-1,1175,750,0,0
-42,274,0,0,0,0,0,0,0,0,0,-1,1182,750,0,0
-35,274,0,0,0,0,0,0,0,0,0,-1,1189,750,0,0
-28,274,0,0,0,0,0,0,0,0,0,-1,1196,750,0,0
-21,274,0,0,0,0,0,0,0,0,0,-1,1203,750,0,0
-14,274,0,0,0,0,0,0,0,0,0,-1,1210,750,0,0
-7,274,0,0,0,0,0,0,0,0,0,-1,1217,750,0,0
0,274,0,0,0,0,0,0,0,0,0,-1,1224,750,0,0
7,274,0,0,0,0,0,0,0,0,0,-1,1231,750,0,0
14,274,0,0,0,0,0,0,0,0,0,-1,1238,750,0,0
21,274,0,0,0,0,0,0,0,0,0,-1,1245,750,0,0
28,274,0,0,0,0,0,0,0,0,0,-1,1252,750,0,0
35,274,0,0,0,0,0,0,0,0,0,-1,1259,750,0,0
42,274,0,0,0,0,0,0,0,0,0,-1,1266,750,0,0
49,274,0,0,0,0,0,0,0,0,0,-1,1273,750,0,0
56,274,0,0,0,0,0,0,0,0,0,-1,1280,750,0,0
63,274,0,0,0,0,0,0,0,0,0,-1,1287,750,0,0
70,274,0,0,0,0,0,0,0,0,0,-1,1294,750,0,0
77,274,0,0,0,0,0,0,0,0,0,-1,1301,750,0,0
84,274,0,0,0,0,0,0,0,0,0,-1,1308,750,0,0
91,274,0,0,0,0,0,0,0,0,0,-1,1315,750,0,0
98,274,0,0,0,0,0,0,0,0,0,-1,1322,750,0,0
105,274,0,0,0,0,0,0,0,0,0,-1,1329,750,0,0
112,274,0,0,0,0,0,0,0,0,0,-1,1336,750,0,0
119,274,0,0,0,0,0,0,0,0,0,-1,1343,750,0,0
126,274,0,0,0,0,0,0,0,0,0,-1,1350,750,0,0
133,274,0,0,0,0,0,0,0,0,0,-1,1357,750,0,0
140,274,0,0,0,0,0,0,0,0,0,-1,1364,750,0,0
147,274,0,0,0,0,0,0,0,0,0,-1,1371,750,0,0
154,274,0,0,0,0,0,0,0,0,0,-1,1378,750,0,0
161,274,0,0,0,0,0,0,0,0,0,-1,1385,750,0,0
168,274,0,0,0,0,0,0,0,0,0,-1,1392,750,0,0
175,274,0,0,0,0,0,0,0,0,0,-1,1399,750,0,0
182,274,0,0,0,0,0,0,0,0,0,-1,1406,750,0,0
189,274,0,0,0,0,0,0,0,0,0,-1,1413,750,0,0
196,274,0,0,0,0,0,0,0,0,0,-1,1420,750,0,0
203,274,0,0,0,0,0,0,0,0,0,-1,1427,750,0,0
210,274,0,0,0,0,0,0,0,0,0,-1,1434,750,0,0
217,274,0,0,0,0,0,0,0,0,0,-1,1441,750,0,0
224,274,0,0,0,0,0,0,0,0,0,-1,1448,750,0,0
231,274,0,0,0,0,0,0,0,0,0,-1,1455,750,0,0
238,274,0,0,0,0,0,0,0,0,0,-1,1462,750,0,0
245,274,0,0,0,0,0,0,0,0,0,-1,1469,750,0,0
252,274,0,0,0,0,0,0,0,0,0,-1,1476,750,0,0
259,274,0,0,0,0,0,0,0,0,0,-1,1483,750,0,0
266,274,0,0,0,0,0,0,0,0,0,-1,1490,750,0,0
273,274,0,0,0,0,0,0,0,0,0,-1,1497,750,0,0
280,274,0,0,0,0,0,0,0,0,0,-1,1504,750,0,0
287,274,0,0,0,0,0,0,0,0,0,-1,1511,750,0,0
294,274,0,0,0,0,0,0,0,0,0,-1,1518,750,0,0
301,274,0,0,0,0,0,0,0,0,0,-1,1525,750,0,0
308,274,0,0,0,0,0,0,0,0,0,-1,1532,750,0,0
315,274,0,0,0,0,0,0,0,0,0,-1,1539,750,0,0
322,274,0,0,0,0,0,0,0,0,0,-1,1546,750,0,0
329,274,0,0,0,0,0,0,0,0,0,-1,1553,750,0,0
336,274,0,0,0,0,0,0,0,0,0,-1,1560,750,0,0
343,274,0,0,0,0,0,0,0,0,0,-1,1567,750,0,0
350,274,0,0,0,0,0,0,0,0,0,-1,1574,750,0,0
357,274,0,0,0,0,0,0,0,0,0,-1,1581,750,0,0
364,274,0,0,0,0,0,0,0,0,0,-1,1588,750,0,0
371,274,0,0,0,0,0,0,0,0,0,-1,1595,750,0,0
378,274,0,0,0,0,0,0,0,0,0,-1,1602,750,0,0
385,274,0,0,0,0,0,0,0,0,0,-1,1609,750,0,0
392,274,0,0,0,0,0,0,0,0,0,-1,1616,750,0,0
399,274,0,0,0,0,0,0,0,0,0,-1,1623,750,0,0
406,274,0,0,0,0,0,0,0,0,0,-1,1630,750,0,0
413,274,0,0,0,0,0,0,0,0,0,-1,1637,750,0,0
420,274,0,0,0,0,0,0,0,0,0,-1,1644,750,0,0
427,274,0,0,0,0,0,0,0,0,0,-1,1651,750,0,0
434,274,0,0,0,0,0,0,0,0,0,-1,1658,750,0,0
441,274,0,0,0,0,0,0,0,0,0,-1,1665,750,0,0
448,274,0,0,0,0,0,0,0,0,0,-1,1672,750,0,0
455,274,0,0,0,0,0,0,0,0,0,-1,1679,750,0,0
462,274,0,0,0,0,0,0,0,0,0,-1,1686,750,0,0
469,274,0,0,0,0,0,0,0,0,0,-1,1693,750,0,0
476,274,0,0,0,0,0,0,0,0,0,-1,1700,750,0,0
483,274,0,0,0,0,0,0,0,0,0,-1,1707,750,0,0
490,274,0,0,0,0,0,0,0,0,0,-1,1714,750,0,0
497,274,0,0,0,0,0,0,0,0,0,-1,1721,750,0,0
504,274,0,0,0,0,0,0,0,0,0,-1,1728,750,0,0
511,274,0,0,0,0,0,0,0,0,0,-1,1735,750,0,0
518,274,0,0,0,0,0,0,0,0,0,-1,1742,750,0,0
525,274,0,0,0,0,0,0,0,0,0,-1,1749,750,0,0
532,274,0,0,0,0,0,0,0,0,0,-1,1756,750,0,0
539,274,0,0,0,0,0,0,0,0,0,-1,1763,750,0,0
546,274,0,0,0,0,0,0,0,0,0,-1,1770,750,0,0
553,274,0,0,0,0,0,0,0,0,0,-1,1777,750,0,0
560,274,24.8618,3.04321,0,0,0,0,0,0,0,-1,1784,750,24.8619,-3.04323
567,274,24.6235,3.29657,0,0,0,0,0,0,0,-1,1791,750,24.6235,-3.29658
574,274,24.9351,3.1087,0,0,0,0,0,0,0,-1,1798,750,24.9351,-3.10872
581,274,24.7213,2.51111,0.052739,0.0201713,0.00131864,0.0527923,0.020118,0.0404011,0.0307657,0.0425931,1805,750,24.7213,-2.51111
588,274,25.4293,3.05103,0.0465225,0.0164033,0.00205622,0.0466622,0.0162636,0.0678501,0.0273493,0.0430738,1812,750,25.4293,-3.05101
595,274,26.1228,3.11957,0,0,0,0,0,0,0,-1,1819,750,26.1228,-3.11957
602,274,23.3049,2.92529,0,0,0,0,0,0,0,-1,1826,750,23.305,-2.92528
609,274,25.9839,3.09998,0,0,0,0,0,0,0,-1,1833,750,25.9839,-3.09997
616,274,17.6781,1.79578,0,0,0,0,0,0,0,-1,1840,750,17.6781,-1.79578
623,274,16.9138,-0.208923,0,0,0,0,0,0,0,-1,1847,750,16.9139,0.208915
630,274,16.7335,-0.0167236,0.00883342,0.0012985,-0.000286738,0.00884432,0.00128761,-0.0379813,0.00551732,0.0459998,1854,750,16.7335,0.0167508
637,274,16.5464,0.202576,0.00397554,-0.000158435,-0.000824631,0.00413396,-0.000316859,-0.189802,0.00286744,0.0138424,1861,750,16.5464,-0.202583
644,274,16.568,0.494324,-0.000133658,-0.000978414,-0.00156521,0.00106516,-0.00217723,-0.65361,0.00190834,0.0114885,1868,750,16.5679,-0.494353
651,274,16.5793,0.782104,-0.000754174,-0.000805189,-0.00187898,0.00109947,-0.00265883,-0.778611,0.00223124,0.0127324,1875,750,16.5793,-0.782123
658,274,16.5685,1.05835,-0.00058469,-0.000678936,-0.00179445,0.00116326,-0.00242688,-0.772271,0.00211513,0.015168,1882,750,16.5685,-1.05833
665,274,16.5623,1.39331,0.000205536,-0.000505267,-0.00157326,0.00146303,-0.00176277,-0.674312,0.00186509,0.0160744,1889,750,16.5623,-1.39333
672,274,16.5835,1.70911,0.00242483,-0.00030487,-0.000868536,0.00267775,-0.000557787,-0.283363,0.00199723,0.0137675,1896,750,16.5835,-1.70912
679,274,16.5927,1.9693,0.00463586,-0.000191443,-0.000246529,0.00464842,-0.000204001,-0.0508932,0.00316914,0.013981,1903,750,16.5927,-1.96928
686,274,16.5718,2.25415,0.00798513,0.000322229,0.000107757,0.00798665,0.000320714,0.0140584,0.00522081,0.0145976,1910,750,16.5718,-2.25414
693,274,16.5513,2.54419,0.013112,0.00140424,7.54627e-06,0.013112,0.00140424,0.000644551,0.00831291,0.0115734,1917,750,16.5512,-2.5442
700,274,16.5647,2.81458,0.0199705,0.00279935,-0.00037434,0.0199786,0.0027912,-0.0217867,0.0124931,0.0134994,1924,750,16.5646,-2.8146
707,274,16.5403,3.11401,0.0290551,0.00458067,-0.00102306,0.0290977,0.00453798,-0.0417043,0.0180767,0.0212492,1931,750,16.5402,-3.11401
714,274,16.6786,3.36017,0.0412492,0.00733202,-0.00253637,0.0414378,0.0071434,-0.0742311,0.0255787,0.0415778,1938,750,16.6786,-3.36017
721,274,17.7089,3.54272,0.0572595,0.0118945,-0.00525639,0.0578605,0.0112935,-0.113859,0.0354146,0.0471766,1945,750,17.7089,-3.54275
728,274,19.2209,3.95154,0,0,0,0,0,0,0,-1,1952,750,19.221,-3.95151
735,274,20.6608,4.10931,0,0,0,0,0,0,0,-1,1959,750,20.6607,-4.10932
742,274,11.7815,-0.740234,0,0,0,0,0,0,0,-1,1966,750,11.7815,0.740253
749,274,0,0,0,0,0,0,0,0,0,-1,1973,750,0,0
756,274,0,0,0,0,0,0,0,0,0,-1,1980,750,0,0
763,274,0,0,0,0,0,0,0,0,0,-1,1987,750,0,0
770,274,0,0,0,0,0,0,0,0,0,-1,1994,750,0,0
777,274,0,0,0,0,0,0,0,0,0,-1,2001,750,0,0
784,274,0,0,0,0,0,0,0,0,0,-1,2008,750,0,0
791,274,0,0,0,0,0,0,0,0,0,-1,2015,750,0,0
798,274,0,0,0,0,0,0,0,0,0,-1,2022,750,0,0
805,274,0,0,0,0,0,0,0,0,0,-1,2029,750,0,0
812,274,0,0,0,0,0,0,0,0,0,-1,2036,750,0,0
-700,267,0,0,0,0,0,0,0,0,0,-1,524,757,0,0
-693,267,0,0,0,0,0,0,0,0,0,-1,531,757,0,0
-686,267,0,0,0,0,0,0,0,0,0,-1,538,757,0,0
-679,267,0,0,0,0,0,0,0,0,0,-1,545,757,0,0
-672,267,0,0,0,0,0,0,0,0,0,-1,552,757,0,0
-665,267,0,0,0,0,0,0,0,0,0,-1,559,757,0,0
-658,267,0,0,0,0,0,0,0,0,0,-1,566,757,0,0
-651,267,0,0,0,0,0,0,0,0,0,-1,573,757,0,0
-644,267,0,0,0,0,0,0,0,0,0,-1,580,757,0,0
-637,267,0,0,0,0,0,0,0,0,0,-1,587,757,0,0
-630,267,-14.4028,6.72711,0,0,0,0,0,0,0,-1,594,757,-14.4029,-6.72713
-623,267,-12.4899,5.31915,0,0,0,0,0,0,0,-1,601,757,-12.49,-5.31917
-616,267,-9.62622,1.22351,0,0,0,0,0,0,0,-1,608,757,-9.62622,-1.22353
-609,267,-9.78339,1.35339,-0.0151778,-0.0391695,0.0222021,-0.0019381,-0.0524092,0.537714,0.0343117,0.0455325,615,757,-9.78338,-1.35337
-602,267,-10.0524,1.56189,-0.0115646,-0.0275648,0.017119,-0.000668602,-0.0384608,0.566816,0.0254206,0.0448083,622,757,-10.0524,-1.56189
-595,267,-9.96136,1.80872,-0.00887054,-0.0188024,0.0130462,0.00012293,-0.0277958,0.603545,0.0185717,0.0498565,629,757,-9.96136,-1.80872
-588,267,-10.1602,1.58948,-0.00701451,-0.0124176,0.00984681,0.000494634,-0.0199267,0.651514,0.0134524,0.0440341,636,757,-10.1602,-1.58948
-581,267,-10.1599,1.11786,-0.0055942,-0.00792099,0.0073348,0.000668895,-0.0141841,0.706747,0.00968672,0.0289518,643,757,-10.1599,-1.11786
-574,267,-10.2114,0.760742,-0.00450316,-0.00487708,0.00541964,0.000732738,-0.010113,0.768157,0.00699903,0.0156075,650,757,-10.2113,-0.760737
-567,267,-10.2487,0.520386,-0.00370099,-0.00302489,0.00404507,0.000696231,-0.00742211,0.827087,0.00519572,0.0221192,657,757,-10.2487,-0.520381
-560,267,-10.2303,0.230835,-0.0031398,-0.00199951,0.00314073,0.000622404,-0.00576171,0.875186,0.00406453,0.0219631,664,757,-10.2303,-0.230836
-553,267,-10.2341,-0.0239258,-0.0024668,-0.00121514,0.00245734,0.000694809,-0.00437675,0.910086,0.00317488,0.0175608,671,757,-10.2341,0.0239186
-546,267,-10.2502,-0.302368,-0.00213372,-0.00111054,0.00217564,0.000612849,-0.0038571,0.900873,0.00279815,0.011572,678,757,-10.2502,0.30238
-539,267,-10.2546,-0.584167,-0.00206705,-0.00189527,0.00213517,0.000155738,-0.00411806,0.8055,0.00279873,0.0105023,685,757,-10.2546,0.584145
-532,267,-10.2477,-0.863586,-0.00171665,-0.00271143,0.00222922,7.00001e-05,-0.00449808,0.675635,0.00302232,0.0100669,692,757,-10.2477,0.863571
-525,267,-10.2589,-1.13617,-0.00108245,-0.00306149,0.00205202,0.000206175,-0.00435011,0.560737,0.00297118,0.00940742,699,757,-10.2588,1.13615
-518,267,-10.2611,-1.41168,-0.000106522,-0.0034925,0.00156158,0.000503689,-0.00410271,0.372521,0.00291757,0.00950289,706,757,-10.2611,1.41168
-511,267,-10.2461,-1.70526,0.001233,-0.00384533,0.000910425,0.00139128,-0.00400361,0.172137,0.00323417,0.0138361,713,757,-10.2461,1.70524
-504,267,-10.2957,-1.95349,0.00299497,-0.00414613,0.00118391,0.00318613,-0.00433729,0.160084,0.00436056,0.0281993,720,757,-10.2957,1.95348
-497,267,-10.2418,-1.67334,0.00526331,-0.00398214,0.00193027,0.00565013,-0.00436896,0.197776,0.00580027,0.0490197,727,757,-10.2417,1.67333
-490,267,-10.2256,-1.31207,0,0,0,0,0,0,0,-1,734,757,-10.2257,1.31209
-483,267,-10.2834,-1.2829,0,0,0,0,0,0,0,-1,741,757,-10.2835,1.28293
-476,267,-17.8512,0.992188,0,0,0,0,0,0,0,-1,748,757,-17.8512,-0.992185
-469,267,-17.6509,0.682129,0.0175986,-0.00189991,0.00866496,0.0208927,-0.00519403,0.363291,0.0159444,0.0449524,755,757,-17.6509,-0.682156
-462,267,-17.5491,0.395813,0.0216364,-0.00103337,0.0132145,0.0277113,-0.00710829,0.430906,0.0212438,0.0452613,762,757,-17.5491,-0.395794
-455,267,-17.5185,0.452209,0.0261062,-0.000359841,0.0199295,0.036796,-0.0110496,0.492324,0.0289261,0.0450443,769,757,-17.5185,-0.452221
-448,267,-17.4464,0.57135,0,0,0,0,0,0,0,-1,776,757,-17.4463,-0.571335
-441,267,0,0,0,0,0,0,0,0,0,-1,783,757,0,0
-434,267,0,0,0,0,0,0,0,0,0,-1,790,757,0,0
-427,267,0,0,0,0,0,0,0,0,0,-1,797,757,0,0
-420,267,0,0,0,0,0,0,0,0,0,-1,804,757,0,0
-413,267,0,0,0,0,0,0,0,0,0,-1,811,757,0,0
-406,267,0,0,0,0,0,0,0,0,0,-1,818,757,0,0
-399,267,0,0,0,0,0,0,0,0,0,-1,825,757,0,0
-392,267,0,0,0,0,0,0,0,0,0,-1,832,757,0,0
-385,267,0,0,0,0,0,0,0,0,0,-1,839,757,0,0
-378,267,0,0,0,0,0,0,0,0,0,-1,846,757,0,0
-371,267,0,0,0,0,0,0,0,0,0,-1,853,757,0,0
-364,267,0,0,0,0,0,0,0,0,0,-1,860,757,0,0
-357,267,0,0,0,0,0,0,0,0,0,-1,867,757,0,0
-350,267,0,0,0,0,0,0,0,0,0,-1,874,757,0,0
-343,267,0,0,0,0,0,0,0,0,0,-1,881,757,0,0
-336,267,0,0,0,0,0,0,0,0,0,-1,888,757,0,0
-329,267,0,0,0,0,0,0,0,0,0,-1,895,757,0,0
-322,267,0,0,0,0,0,0,0,0,0,-1,902,757,0,0
-315,267,0,0,0,0,0,0,0,0,0,-1,909,757,0,0
-308,267,0,0,0,0,0,0,0,0,0,-1,916,757,0,0
-301,267,0,0,0,0,0,0,0,0,0,-1,923,757,0,0
-294,267,0,0,0,0,0,0,0,0,0,-1,930,757,0,0
-287,267,0,0,0,0,0,0,0,0,0,-1,937,757,0,0
-280,267,0,0,0,0,0,0,0,0,0,-1,944,757,0,0
-273,267,0,0,0,0,0,0,0,0,0,-1,951,757,0,0
-266,267,0,0,0,0,0,0,0,0,0,-1,958,757,0,0
-259,267,0,0,0,0,0,0,0,0,0,-1,965,757,0,0
-252,267,0,0,0,0,0,0,0,0,0,-1,972,757,0,0
-245,267,0,0,0,0,0,0,0,0,0,-1,979,757,0,0
-238,267,0,0,0,0,0,0,0,0,0,-1,986,757,0,0
-231,267,0,0,0,0,0,0,0,0,0,-1,993,757,0,0
-224,267,0,0,0,0,0,0,0,0,0,-1,1000,757,0,0
-217,267,0,0,0,0,0,0,0,0,0,-1,1007,757,0,0
-210,267,0,0,0,0,0,0,0,0,0,-1,1014,757,0,0
-203,267,0,0,0,0,0,0,0,0,0,-1,1021,757,0,0
-196,267,0,0,0,0,0,0,0,0,0,-1,1028,757,0,0
-189,267,0,0,0,0,0,0,0,0,0,-1,1035,757,0,0
-182,267,0,0,0,0,0,0,0,0,0,-1,1042,757,0,0
-175,267,0,0,0,0,0,0,0,0,0,-1,1049,757,0,0
-168,267,0,0,0,0,0,0,0,0,0,-1,1056,757,0,0
-161,267,0,0,0,0,0,0,0,0,0,-1,1063,757,0,0
-154,267,0,0,0,0,0,0,0,0,0,-1,1070,757,0,0
-147,267,0,0,0,0,0,0,0,0,0,-1,1077,757,0,0
-140,267,0,0,0,0,0,0,0,0,0,-1,1084,757,0,0
-133,267,0,0,0,0,0,0,0,0,0,-1,1091,757,0,0
-126,267,0,0,0,0,0,0,0,0,0,-1,1098,757,0,0
-119,267,0,0,0,0,0,0,0,0,0,-1,1105,757,0,0
-112,267,0,0,0,0,0,0,0,0,0,-1,1112,757,0,0
-105,267,0,0,0,0,0,0,0,0,0,-1,1119,757,0,0
-98,267,0,0,0,0,0,0,0,0,0,-1,1126,757,0,0
-91,267,0,0,0,0,0,0,0,0,0,-1,1133,757,0,0
-84,267,0,0,0,0,0,0,0,0,0,-1,1140,757,0,0
-77,267,0,0,0,0,0,0,0,0,0,-1,1147,757,0,0
-70,267,0,0,0,0,0,0,0,0,0,-1,1154,757,0,0
-63,267,0,0,0,0,0,0,0,0,0,-1,1161,757,0,0
-56,267,0,0,0,0,0,0,0,0,0,-1,1168,757,0,0
-49,267,0,0,0,0,0,0,0,0,0,-1,1175,757,0,0
-42,267,0,0,0,0,0,0,0,0,0,-1,1182,757,0,0
-35,267,0,0,0,0,0,0,0,0,0,-1,1189,757,0,0
-28,267,0,0,0,0,0,0,0,0,0,-1,1196,757,0,0
-21,267,0,0,0,0,0,0,0,0,0,-1,1203,757,0,0
-14,267,0,0,0,0,0,0,0,0,0,-1,1210,757,0,0
-7,267,0,0,0,0,0,0,0,0,0,-1,1217,757,0,0
0,267,0,0,0,0,0,0,0,0,0,-1,1224,757,0,0
7,267,0,0,0,0,0,0,0,0,0,-1,1231,757,0,0
14,267,0,0,0,0,0,0,0,0,0,-1,1238,757,0,0
21,267,0,0,0,0,0,0,0,0,0,-1,1245,757,0,0
28,267,0,0,0,0,0,0,0,0,0,-1,1252,757,0,0
35,267,0,0,0,0,0,0,0,0,0,-1,1259,757,0,0
42,267,0,0,0,0,0,0,0,0,0,-1,1266,757,0,0
49,267,0,0,0,0,0,0,0,0,0,-1,1273,757,0,0
56,267,0,0,0,0,0,0,0,0,0,-1,1280,757,0,0
63,267,0,0,0,0,0,0,0,0,0,-1,1287,757,0,0
70,267,0,0,0,0,0,0,0,0,0,-1,1294,757,0,0
77,267,0,0,0,0,0,0,0,0,0,-1,1301,757,0,0
84,267,0,0,0,0,0,0,0,0,0,-1,1308,757,0,0
91,267,0,0,0,0,0,0,0,0,0,-1,1315,757,0,0
98,267,0,0,0,0,0,0,0,0,0,-1,1322,757,0,0
105,267,0,0,0,0,0,0,0,0,0,-1,1329,757,0,0
112,267,0,0,0,0,0,0,0,0,0,-1,1336,757,0,0
119,267,0,0,0,0,0,0,0,0,0,-1,1343,757,0,0
126,267,0,0,0,0,0,0,0,0,0,-1,1350,757,0,0
133,267,0,0,0,0,0,0,0,0,0,-1,1357,757,0,0
140,267,0,0,0,0,0,0,0,0,0,-1,1364,757,0,0
147,267,0,0,0,0,0,0,0,0,0,-1,1371,757,0,0
154,267,0,0,0,0,0,0,0,0,0,-1,1378,757,0,0
161,267,0,0,0,0,0,0,0,0,0,-1,1385,757,0,0
168,267,0,0,0,0,0,0,0,0,0,-1,1392,757,0,0
175,267,0,0,0,0,0,0,0,0,0,-1,1399,757,0,0
182,267,0,0,0,0,0,0,0,0,0,-1,1406,757,0,0
189,267,0,0,0,0,0,0,0,0,0,-1,1413,757,0,0
196,267,0,0,0,0,0,0,0,0,0,-1,1420,757,0,0
203,267,0,0,0,0,0,0,0,0,0,-1,1427,757,0,0
210,267,0,0,0,0,0,0,0,0,0,-1,1434,757,0,0
217,267,0,0,0,0,0,0,0,0,0,-1,1441,757,0,0
224,267,0,0,0,0,0,0,0,0,0,-1,1448,757,0,0
231,267,0,0,0,0,0,0,0,0,0,-1,1455,757,0,0
238,267,0,0,0,0,0,0,0,0,0,-1,1462,757,0,0
245,267,0,0,0,0,0,0,0,0,0,-1,1469,757,0,0
252,267,0,0,0,0,0,0,0,0,0,-1,1476,757,0,0
259,267,0,0,0,0,0,0,0,0,0,-1,1483,757,0,0
266,267,0,0,0,0,0,0,0,0,0,-1,1490,757,0,0
273,267,0,0,0,0,0,0,0,0,0,-1,1497,757,0,0
280,267,0,0,0,0,0,0,0,0,0,-1,1504,757,0,0
287,267,0,0,0,0,0,0,0,0,0,-1,1511,757,0,0
294,267,0,0,0,0,0,0,0,0,0,-1,1518,757,0,0
301,267,0,0,0,0,0,0,0,0,0,-1,1525,757,0,0
308,267,0,0,0,0,0,0,0,0,0,-1,1532,757,0,0
315,267,0,0,0,0,0,0,0,0,0,-1,1539,757,0,0
322,267,0,0,0,0,0,0,0,0,0,-1,1546,757,0,0
329,267,0,0,0,0,0,0,0,0,0,-1,1553,757,0,0
336,267,0,0,0,0,0,0,0,0,0,-1,1560,757,0,0
343,267,0,0,0,0,0,0,0,0,0,-1,1567,757,0,0
350,267,0,0,0,0,0,0,0,0,0,-1,1574,757,0,0
357,267,0,0,0,0,0,0,0,0,0,-1,1581,757,0,0
364,267,0,0,0,0,0,0,0,0,0,-1,1588,757,0,0
371,267,0,0,0,0,0,0,0,0,0,-1,1595,757,0,0
378,267,0,0,0,0,0,0,0,0,0,-1,1602,757,0,0
385,267,0,0,0,0,0,0,0,0,0,-1,1609,757,0,0
392,267,0,0,0,0,0,0,0,0,0,-1,1616,757,0,0
399,267,0,0,0,0,0,0,0,0,0,-1,1623,757,0,0
406,267,0,0,0,0,0,0,0,0,0,-1,1630,757,0,0
413,267,0,0,0,0,0,0,0,0,0,-1,1637,757,0,0
420,267,0,0,0,0,0,0,0,0,0,-1,1644,757,0,0
427,267,0,0,0,0,0,0,0,0,0,-1,1651,757,0,0
434,267,0,0,0,0,0,0,0,0,0,-1,1658,757,0,0
441,267,0,0,0,0,0,0,0,0,0,-1,1665,757,0,0
448,267,0,0,0,0,0,0,0,0,0,-1,1672,757,0,0
455,267,0,0,0,0,0,0,0,0,0,-1,1679,757,0,0
462,267,0,0,0,0,0,0,0,0,0,-1,1686,757,0,0
469,267,0,0,0,0,0,0,0,0,0,-1,1693,757,0,0
476,267,0,0,0,0,0,0,0,0,0,-1,1700,757,0,0
483,267,0,0,0,0,0,0,0,0,0,-1,1707,757,0,0
490,267,0,0,0,0,0,0,0,0,0,-1,1714,757,0,0
497,267,0,0,0,0,0,0,0,0,0,-1,1721,757,0,0
504,267,0,0,0,0,0,0,0,0,0,-1,1728,757,0,0
511,267,0,0,0,0,0,0,0,0,0,-1,1735,757,0,0
518,267,0,0,0,0,0,0,0,0,0,-1,1742,757,0,0
525,267,0,0,0,0,0,0,0,0,0,-1,1749,757,0,0
532,267,0,0,0,0,0,0,0,0,0,-1,1756,757,0,0
539,267,0,0,0,0,0,0,0,0,0,-1,1763,757,0,0
546,267,0,0,0,0,0,0,0,0,0,-1,1770,757,0,0
553,267,0,0,0,0,0,0,0,0,0,-1,1777,757,0,0
560,267,0,0,0,0,0,0,0,0,0,-1,1784,757,0,0
567,267,24.9154,3.008,0,0,0,0,0,0,0,-1,1791,757,24.9154,-3.00802
574,267,24.941,2.9801,0.0474521,0.0174152,5.95823e-05,0.0474522,0.0174151,0.00198363,0.0277177,0.0404728,1798,757,24.9411,-2.9801
581,267,24.957,2.7049,0.0480012,0.0164534,0.0025611,0.0482078,0.0162469,0.0804793,0.0283214,0.0389589,1805,757,24.957,-2.70487
588,267,25.5482,2.95496,0.0425549,0.0136529,0.00282186,0.0428279,0.0133799,0.0964218,0.0253001,0.0416418,1812,757,25.5482,-2.95495
595,267,26.1036,2.77594,0,0,0,0,0,0,0,-1,1819,757,26.1037,-2.77593
602,267,25.5979,2.89685,0,0,0,0,0,0,0,-1,1826,757,25.5979,-2.89687
609,267,25.7546,3.06464,0,0,0,0,0,0,0,-1,1833,757,25.7547,-3.06465
616,267,25.9115,3.23242,0,0,0,0,0,0,0,-1,1840,757,25.9115,-3.23242
623,267,17.4592,-0.0423584,0,0,0,0,0,0,0,-1,1847,757,17.4593,0.0423333
630,267,17.1687,0.161255,0.00833099,0.00111362,-0.000486507,0.00836363,0.00108098,-0.0670039,0.00525264,0.0455119,1854,757,17.1687,-0.161279
637,267,16.8696,0.247986,0.0039394,-0.000112238,-0.00104453,0.00419283,-0.00036567,-0.238028,0.00292474,0.0250028,1861,757,16.8697,-0.248001
644,267,16.8632,0.514648,6.06789e-05,-0.000915754,-0.00181755,0.00145444,-0.00230951,-0.654189,0.00219173,0.011951,1868,757,16.8631,-0.514651
651,267,16.866,0.816345,-0.000658679,-0.000841245,-0.00219115,0.00144308,-0.00294301,-0.76458,0.0025812,0.0149186,1875,757,16.8659,-0.816359
658,267,16.859,1.06757,-0.000584766,-0.000811583,-0.00215496,0.00145977,-0.00285612,-0.759109,0.00253488,0.0146105,1882,757,16.859,-1.06758
665,267,16.8654,1.37903,9.29251e-05,-0.0007188,-0.00194674,0.00167567,-0.00230154,-0.682629,0.0023057,0.0154446,1889,757,16.8653,-1.37903
672,267,16.8948,1.69958,0.00214615,-0.000516974,-0.00114485,0.00257065,-0.000941472,-0.355073,0.00209919,0.0138511,1896,757,16.8948,-1.69956
679,267,16.8881,1.97321,0.0042104,-0.000408589,-0.000413324,0.00424709,-0.000445283,-0.0885462,0.00299089,0.0124636,1903,757,16.888,-1.9732
686,267,16.8777,2.27673,0.00736225,0.000196795,-2.55943e-06,0.00736225,0.000196794,-0.00035719,0.0048439,0.0128479,1910,757,16.8777,-2.27676
693,267,16.8624,2.53137,0.0122599,0.00144262,-0.000195365,0.0122634,0.00143909,-0.0180526,0.00774065,0.0128934,1917,757,16.8624,-2.53134
700,267,16.8512,2.81433,0.0185925,0.00302215,-0.000779656,0.0186314,0.0029832,-0.0499068,0.0115556,0.0145933,1924,757,16.8512,-2.81434
707,267,16.8378,3.09528,0.0267192,0.00502277,-0.00170766,0.0268527,0.00488919,-0.0780663,0.0165151,0.0143068,1931,757,16.8378,-3.0953
714,267,16.9204,3.39111,0.0373948,0.0080587,-0.00362734,0.0378366,0.00761684,-0.121216,0.0231078,0.0285522,1938,757,16.9204,-3.39113
721,267,17.8785,3.87305,0.0512913,0.0129456,-0.00692248,0.0525027,0.0117341,-0.173245,0.03182,0.0445969,1945,757,17.8786,-3.87302
728,267,18.6465,4.23816,0,0,0,0,0,0,0,-1,1952,757,18.6464,-4.23813
735,267,16.7356,5.51239,0,0,0,0,0,0,0,-1,1959,757,16.7355,-5.5124
742,267,16.1127,4.81091,0,0,0,0,0,0,0,-1,1966,757,16.1127,-4.81091
749,267,0,0,0,0,0,0,0,0,0,-1,1973,757,0,0
756,267,0,0,0,0,0,0,0,0,0,-1,1980,757,0,0
763,267,0,0,0,0,0,0,0,0,0,-1,1987,757,0,0
770,267,0,0,0,0,0,0,0,0,0,-1,1994,757,0,0
777,267,0,0,0,0,0,0,0,0,0,-1,2001,757,0,0
784,267,0,0,0,0,0,0,0,0,0,-1,2008,757,0,0
791,267,0,0,0,0,0,0,0,0,0,-1,2015,757,0,0
798,267,0,0,0,0,0,0,0,0,0,-1,2022,757,0,0
805,267,0,0,0,0,0,0,0,0,0,-1,2029,757,0,0
812,267,0,0,0,0,0,0,0,0,0,-1,2036,757,0,0
-700,260,0,0,0,0,0,0,0,0,0,-1,524,764,0,0
-693,260,0,0,0,0,0,0,0,0,0,-1,531,764,0,0
-686,260,0,0,0,0,0,0,0,0,0,-1,538,764,0,0
-679,260,0,0,0,0,0,0,0,0,0,-1,545,764,0,0
-672,260,0,0,0,0,0,0,0,0,0,-1,552,764,0,0
-665,260,0,0,0,0,0,0,0,0,0,-1,559,764,0,0
-658,260,0,0,0,0,0,0,0,0,0,-1,566,764,0,0
-651,260,0,0,0,0,0,0,0,0,0,-1,573,764,0,0
-644,260,0,0,0,0,0,0,0,0,0,-1,580,764,0,0
-637,260,0,0,0,0,0,0,0,0,0,-1,587,764,0,0
-630,260,-15.1309,7.70068,0,0,0,0,0,0,0,-1,594,764,-15.1309,-7.70068
-623,260,-11.7693,5.13202,0,0,0,0,0,0,0,-1,601,764,-11.7693,-5.132
-616,260,-9.85974,1.7478,0,0,0,0,0,0,0,-1,608,764,-9.85975,-1.74783
-609,260,-10.0258,1.9231,0,0,0,0,0,0,0,-1,615,764,-10.0258,-1.92307
-602,260,-10.6435,2.30365,0,0,0,0,0,0,0,-1,622,764,-10.6435,-2.30367
-595,260,-10.5885,1.89172,-0.00573848,-0.0131744,0.00772655,-0.000881881,-0.0180309,0.561155,0.0117377,0.0495076,629,764,-10.5885,-1.89175
-588,260,-10.5363,1.46619,-0.00371589,-0.00897,0.00682611,0.000971234,-0.0136571,0.601707,0.00944515,0.0417289,636,764,-10.5363,-1.46621
-581,260,-10.4908,1.04742,-0.00268887,-0.00578211,0.00549597,0.00147395,-0.00994493,0.648241,0.00717194,0.0238662,643,764,-10.4908,-1.04743
-574,260,-10.5148,0.759033,-0.00227969,-0.00351817,0.00407409,0.00122195,-0.00701982,0.709978,0.00513588,0.0159645,650,764,-10.5148,-0.759007
-567,260,-10.52,0.496826,-0.00204736,-0.00222083,0.00310849,0.000975601,-0.00524379,0.771451,0.00386235,0.0166869,657,764,-10.52,-0.496851
-560,260,-10.5123,0.236572,-0.00195756,-0.00161458,0.00254812,0.000767811,-0.00433995,0.818998,0.00318029,0.0183377,664,764,-10.5123,-0.236549
-553,260,-10.5242,-0.0107422,-0.00171993,-0.0011994,0.00216198,0.00071792,-0.00363725,0.8453,0.00269619,0.0169091,671,764,-10.5243,0.0107615
-546,260,-10.5261,-0.282104,-0.00174767,-0.00131371,0.00206477,0.000545449,-0.00360682,0.83775,0.00260547,0.0117094,678,764,-10.526,0.282112
-539,260,-10.5152,-0.564087,-0.00194564,-0.00219656,0.00212887,6.14652e-05,-0.00420367,0.755966,0.00282316,0.0113317,685,764,-10.5152,0.564113
-532,260,-10.5204,-0.84668,-0.00184608,-0.00304029,0.0022566,-0.000108923,-0.00477744,0.656061,0.00314928,0.0133924,692,764,-10.5204,0.846651
-525,260,-10.5236,-1.13544,-0.00136179,-0.00332932,0.00204021,-8.05527e-05,-0.00461056,0.56075,0.00304721,0.0130081,699,764,-10.5235,1.13544
-518,260,-10.5345,-1.40277,-0.000460173,-0.00374436,0.0014975,0.000120112,-0.00432465,0.369687,0.00292396,0.0136146,706,764,-10.5345,1.40276
-511,260,-10.5278,-1.6416,0.000830373,-0.00407388,0.000820601,0.000964036,-0.00420755,0.161467,0.00317553,0.0218446,713,764,-10.5278,1.64159
-504,260,-10.6321,-1.72729,0.00248235,-0.00437408,0.000867303,0.00259036,-0.00448209,0.123895,0.00413168,0.0418508,720,764,-10.6321,1.72732
-497,260,-10.7301,-1.8772,0,0,0,0,0,0,0,-1,727,764,-10.7301,1.87722
-490,260,-9.91559,-1.36993,0,0,0,0,0,0,0,-1,734,764,-9.9156,1.36996
-483,260,-17.984,1.28882,0,0,0,0,0,0,0,-1,741,764,-17.984,-1.28883
-476,260,-17.9125,1.01306,0.0130985,-0.00333525,0.00345678,0.0137961,-0.00403276,0.199108,0.0107957,0.0435354,748,764,-17.9125,-1.01304
-469,260,-17.876,0.72406,0.0167818,-0.0028104,0.00567309,0.018306,-0.00433453,0.262461,0.0138763,0.0446475,755,764,-17.876,-0.724071
-462,260,-17.8414,0.476563,0,0,0,0,0,0,0,-1,762,764,-17.8414,-0.476538
-455,260,-17.5211,0.821899,0,0,0,0,0,0,0,-1,769,764,-17.5211,-0.821924
-448,260,0,0,0,0,0,0,0,0,0,-1,776,764,0,0
-441,260,0,0,0,0,0,0,0,0,0,-1,783,764,0,0
-434,260,0,0,0,0,0,0,0,0,0,-1,790,764,0,0
-427,260,0,0,0,0,0,0,0,0,0,-1,797,764,0,0
-420,260,0,0,0,0,0,0,0,0,0,-1,804,764,0,0
-413,260,0,0,0,0,0,0,0,0,0,-1,811,764,0,0
-406,260,0,0,0,0,0,0,0,0,0,-1,818,764,0,0
-399,260,0,0,0,0,0,0,0,0,0,-1,825,764,0,0
-392,260,0,0,0,0,0,0,0,0,0,-1,832,764,0,0
-385,260,0,0,0,0,0,0,0,0,0,-1,839,764,0,0
-378,260,0,0,0,0,0,0,0,0,0,-1,846,764,0,0
-371,260,0,0,0,0,0,0,0,0,0,-1,853,764,0,0
-364,260,0,0,0,0,0,0,0,0,0,-1,860,764,0,0
-357,260,0,0,0,0,0,0,0,0,0,-1,867,764,0,0
-350,260,0,0,0,0,0,0,0,0,0,-1,874,764,0,0
-343,260,0,0,0,0,0,0,0,0,0,-1,881,764,0,0
-336,260,0,0,0,0,0,0,0,0,0,-1,888,764,0,0
-329,260,0,0,0,0,0,0,0,0,0,-1,895,764,0,0
-322,260,0,0,0,0,0,0,0,0,0,-1,902,764,0,0
-315,260,0,0,0,0,0,0,0,0,0,-1,909,764,0,0
-308,260,0,0,0,0,0,0,0,0,0,-1,916,764,0,0
-301,260,0,0,0,0,0,0,0,0,0,-1,923,764,0,0
-294,260,0,0,0,0,0,0,0,0,0,-1,930,764,0,0
-287,260,0,0,0,0,0,0,0,0,0,-1,937,764,0,0
-280,260,0,0,0,0,0,0,0,0,0,-1,944,764,0,0
-273,260,0,0,0,0,0,0,0,0,0,-1,951,764,0,0
-266,260,0,0,0,0,0,0,0,0,0,-1,958,764,0,0
-259,260,0,0,0,0,0,0,0,0,0,-1,965,764,0,0
-252,260,0,0,0,0,0,0,0,0,0,-1,972,764,0,0
-245,260,0,0,0,0,0,0,0,0,0,-1,979,764,0,0
-238,260,0,0,0,0,0,0,0,0,0,-1,986,764,0,0
-231,260,0,0,0,0,0,0,0,0,0,-1,993,764,0,0
-224,260,0,0,0,0,0,0,0,0,0,-1,1000,764,0,0
-217,260,0,0,0,0,0,0,0,0,0,-1,1007,764,0,0
-210,260,0,0,0,0,0,0,0,0,0,-1,1014,764,0,0
-203,260,0,0,0,0,0,0,0,0,0,-1,1021,764,0,0
-196,260,0,0,0,0,0,0,0,0,0,-1,1028,764,0,0
-189,260,0,0,0,0,0,0,0,0,0,-1,1035,764,0,0
-182,260,0,0,0,0,0,0,0,0,0,-1,1042,764,0,0
-175,260,0,0,0,0,0,0,0,0,0,-1,1049,764,0,0
-168,260,0,0,0,0,0,0,0,0,0,-1,1056,764,0,0
-161,260,0,0,0,0,0,0,0,0,0,-1,1063,764,0,0
-154,260,0,0,0,0,0,0,0,0,0,-1,1070,764,0,0
-147,260,0,0,0,0,0,0,0,0,0,-1,1077,764,0,0
-140,260,0,0,0,0,0,0,0,0,0,-1,1084,764,0,0
-133,260,0,0,0,0,0,0,0,0,0,-1,1091,764,0,0
-126,260,0,0,0,0,0,0,0,0,0,-1,1098,764,0,0
-119,260,0,0,0,0,0,0,0,0,0,-1,1105,764,0,0
-112,260,0,0,0,0,0,0,0,0,0,-1,1112,764,0,0
-105,260,0,0,0,0,0,0,0,0,0,-1,1119,764,0,0
-98,260,0,0,0,0,0,0,0,0,0,-1,1126,764,0,0
-91,260,0,0,0,0,0,0,0,0,0,-1,1133,764,0,0
-84,260,0,0,0,0,0,0,0,0,0,-1,1140,764,0,0
-77,260,0,0,0,0,0,0,0,0,0,-1,1147,764,0,0
-70,260,0,0,0,0,0,0,0,0,0,-1,1154,764,0,0
-63,260,0,0,0,0,0,0,0,0,0,-1,1161,764,0,0
-56,260,0,0,0,0,0,0,0,0,0,-1,1168,764,0,0
-49,260,0,0,0,0,0,0,0,0,0,-1,1175,764,0,0
-42,260,0,0,0,0,0,0,0,0,0,-1,1182,764,0,0
-35,260,0,0,0,0,0,0,0,0,0,-1,1189,764,0,0
-28,260,0,0,0,0,0,0,0,0,0,-1,1196,764,0,0
-21,260,0,0,0,0,0,0,0,0,0,-1,1203,764,0,0
-14,260,0,0,0,0,0,0,0,0,0,-1,1210,764,0,0
-7,260,0,0,0,0,0,0,0,0,0,-1,1217,764,0,0
0,260,0,0,0,0,0,0,0,0,0,-1,1224,764,0,0
7,260,0,0,0,0,0,0,0,0,0,-1,1231,764,0,0
14,260,0,0,0,0,0,0,0,0,0,-1,1238,764,0,0
21,260,0,0,0,0,0,0,0,0,0,-1,1245,764,0,0
28,260,0,0,0,0,0,0,0,0,0,-1,1252,764,0,0
35,260,0,0,0,0,0,0,0,0,0,-1,1259,764,0,0
42,260,0,0,0,0,0,0,0,0,0,-1,1266,764,0,0
49,260,0,0,0,0,0,0,0,0,0,-1,1273,764,0,0
56,260,0,0,0,0,0,0,0,0,0,-1,1280,764,0,0
63,260,0,0,0,0,0,0,0,0,0,-1,1287,764,0,0
70,260,0,0,0,0,0,0,0,0,0,-1,1294,764,0,0
77,260,0,0,0,0,0,0,0,0,0,-1,1301,764,0,0
84,260,0,0,0,0,0,0,0,0,0,-1,1308,764,0,0
91,260,0,0,0,0,0,0,0,0,0,-1,1315,764,0,0
98,260,0,0,0,0,0,0,0,0,0,-1,1322,764,0,0
105,260,0,0,0,0,0,0,0,0,0,-1,1329,764,0,0
112,260,0,0,0,0,0,0,0,0,0,-1,1336,764,0,0
119,260,0,0,0,0,0,0,0,0,0,-1,1343,764,0,0
126,260,0,0,0,0,0,0,0,0,0,-1,1350,764,0,0
133,260,0,0,0,0,0,0,0,0,0,-1,1357,764,0,0
140,260,0,0,0,0,0,0,0,0,0,-1,1364,764,0,0
147,260,0,0,0,0,0,0,0,0,0,-1,1371,764,0,0
154,260,0,0,0,0,0,0,0,0,0,-1,1378,764,0,0
161,260,0,0,0,0,0,0,0,0,0,-1,1385,764,0,0
168,260,0,0,0,0,0,0,0,0,0,-1,1392,764,0,0
175,260,0,0,0,0,0,0,0,0,0,-1,1399,764,0,0
182,260,0,0,0,0,0,0,0,0,0,-1,1406,764,0,0
189,260,0,0,0,0,0,0,0,0,0,-1,1413,764,0,0
196,260,0,0,0,0,0,0,0,0,0,-1,1420,764,0,0
203,260,0,0,0,0,0,0,0,0,0,-1,1427,764,0,0
210,260,0,0,0,0,0,0,0,0,0,-1,1434,764,0,0
217,260,0,0,0,0,0,0,0,0,0,-1,1441,764,0,0
224,260,0,0,0,0,0,0,0,0,0,-1,1448,764,0,0
231,260,0,0,0,0,0,0,0,0,0,-1,1455,764,0,0
238,260,0,0,0,0,0,0,0,0,0,-1,1462,764,0,0
245,260,0,0,0,0,0,0,0,0,0,-1,1469,764,0,0
252,260,0,0,0,0,0,0,0,0,0,-1,1476,764,0,0
259,260,0,0,0,0,0,0,0,0,0,-1,1483,764,0,0
266,260,0,0,0,0,0,0,0,0,0,-1,1490,764,0,0
273,260,0,0,0,0,0,0,0,0,0,-1,1497,764,0,0
280,260,0,0,0,0,0,0,0,0,0,-1,1504,764,0,0
287,260,0,0,0,0,0,0,0,0,0,-1,1511,764,0,0
294,260,0,0,0,0,0,0,0,0,0,-1,1518,764,0,0
301,260,0,0,0,0,0,0,0,0,0,-1,1525,764,0,0
308,260,0,0,0,0,0,0,0,0,0,-1,1532,764,0,0
315,260,0,0,0,0,0,0,0,0,0,-1,1539,764,0,0
322,260,0,0,0,0,0,0,0,0,0,-1,1546,764,0,0
329,260,0,0,0,0,0,0,0,0,0,-1,1553,764,0,0
336,260,0,0,0,0,0,0,0,0,0,-1,1560,764,0,0
343,260,0,0,0,0,0,0,0,0,0,-1,1567,764,0,0
350,260,0,0,0,0,0,0,0,0,0,-1,1574,764,0,0
357,260,0,0,0,0,0,0,0,0,0,-1,1581,764,0,0
364,260,0,0,0,0,0,0,0,0,0,-1,1588,764,0,0
371,260,0,0,0,0,0,0,0,0,0,-1,1595,764,0,0
378,260,0,0,0,0,0,0,0,0,0,-1,1602,764,0,0
385,260,0,0,0,0,0,0,0,0,0,-1,1609,764,0,0
392,260,0,0,0,0,0,0,0,0,0,-1,1616,764,0,0
399,260,0,0,0,0,0,0,0,0,0,-1,1623,764,0,0
406,260,0,0,0,0,0,0,0,0,0,-1,1630,764,0,0
413,260,0,0,0,0,0,0,0,0,0,-1,1637,764,0,0
420,260,0,0,0,0,0,0,0,0,0,-1,1644,764,0,0
427,260,0,0,0,0,0,0,0,0,0,-1,1651,764,0,0
434,260,0,0,0,0,0,0,0,0,0,-1,1658,764,0,0
441,260,0,0,0,0,0,0,0,0,0,-1,1665,764,0,0
448,260,0,0,0,0,0,0,0,0,0,-1,1672,764,0,0
455,260,0,0,0,0,0,0,0,0,0,-1,1679,764,0,0
462,260,0,0,0,0,0,0,0,0,0,-1,1686,764,0,0
469,260,0,0,0,0,0,0,0,0,0,-1,1693,764,0,0
476,260,0,0,0,0,0,0,0,0,0,-1,1700,764,0,0
483,260,0,0,0,0,0,0,0,0,0,-1,1707,764,0,0
490,260,0,0,0,0,0,0,0,0,0,-1,1714,764,0,0
497,260,0,0,0,0,0,0,0,0,0,-1,1721,764,0,0
504,260,0,0,0,0,0,0,0,0,0,-1,1728,764,0,0
511,260,0,0,0,0,0,0,0,0,0,-1,1735,764,0,0
518,260,0,0,0,0,0,0,0,0,0,-1,1742,764,0,0
525,260,0,0,0,0,0,0,0,0,0,-1,1749,764,0,0
532,260,0,0,0,0,0,0,0,0,0,-1,1756,764,0,0
539,260,0,0,0,0,0,0,0,0,0,-1,1763,764,0,0
546,260,0,0,0,0,0,0,0,0,0,-1,1770,764,0,0
553,260,0,0,0,0,0,0,0,0,0,-1,1777,764,0,0
560,260,0,0,0,0,0,0,0,0,0,-1,1784,764,0,0
567,260,0,0,0,0,0,0,0,0,0,-1,1791,764,0,0
574,260,24.9274,2.84381,0.0363121,0.0114393,0.000357997,0.0363173,0.0114342,0.0143891,0.0214417,0.0363098,1798,764,24.9274,-2.84382
581,260,24.9672,2.97247,0.0412462,0.0126852,0.0033601,0.0416362,0.0122952,0.115545,0.024701,0.0393192,1805,764,24.9672,-2.97248
588,260,25.3788,2.94788,0.0375565,0.0109943,0.00337817,0.0379794,0.0105714,0.124538,0.0226342,0.0433829,1812,764,25.3787,-2.94788
595,260,25.749,2.3689,0,0,0,0,0,0,0,-1,1819,764,25.749,-2.36889
602,260,25.5082,2.8031,0,0,0,0,0,0,0,-1,1826,764,25.5082,-2.80311
609,260,25.5856,3.06689,0,0,0,0,0,0,0,-1,1833,764,25.5856,-3.06689
616,260,25.6982,3.25623,0,0,0,0,0,0,0,-1,1840,764,25.6982,-3.25621
623,260,25.774,3.21515,0,0,0,0,0,0,0,-1,1847,764,25.7741,-3.21513
630,260,17.5205,0.353638,0,0,0,0,0,0,0,-1,1854,764,17.5205,-0.353608
637,260,17.1312,0.254761,0,0,0,0,0,0,0,-1,1861,764,17.1312,-0.254742
644,260,17.1566,0.536011,-0.00074035,-0.000159146,-0.0018277,0.00140091,-0.00230041,-0.864238,0.00215789,0.0239456,1868,764,17.1567,-0.536027
651,260,17.1881,0.816284,-0.00152164,-0.000146987,-0.00226386,0.00153159,-0.00320022,-0.93278,0.00278796,0.014083,1875,764,17.1881,-0.816284
658,260,17.1831,1.09723,-0.00145799,-0.000226432,-0.00232793,0.00156578,-0.00325021,-0.914696,0.00283663,0.0156408,1882,764,17.1831,-1.09724
665,260,17.1768,1.38782,-0.000788224,-0.000308893,-0.00220682,0.00167123,-0.00276835,-0.839487,0.00258915,0.0151335,1889,764,17.1767,-1.38784
672,260,17.1672,1.69659,0.00118459,-0.000292785,-0.00141135,0.00203888,-0.00114707,-0.544306,0.00186328,0.0132817,1896,764,17.1672,-1.69661
679,260,17.1451,1.99323,0.00314745,-0.000360694,-0.000647142,0.00326302,-0.000476265,-0.176723,0.00235024,0.0124288,1903,764,17.1452,-1.99324
686,260,17.1455,2.28046,0.0061231,0.000161276,-0.000240785,0.00613281,0.000151567,-0.0403002,0.00403897,0.0143911,1910,764,17.1455,-2.28046
693,260,17.1416,2.52521,0.010791,0.00135115,-0.0005534,0.0108233,0.00131882,-0.0583576,0.00681857,0.0147203,1917,764,17.1416,-2.52523
700,260,17.1268,2.8208,0.0166031,0.00295623,-0.00131916,0.0167295,0.00282989,-0.0954854,0.0103396,0.0142046,1924,764,17.1269,-2.82082
707,260,17.1221,3.10657,0.0237759,0.00507424,-0.00247452,0.0240978,0.00475236,-0.12935,0.0147387,0.0145982,1931,764,17.1221,-3.10655
714,260,17.1473,3.42224,0.0330403,0.0082092,-0.00469893,0.0338998,0.00734974,-0.180905,0.0205919,0.0235079,1938,764,17.1474,-3.42226
721,260,17.8901,3.85089,0.0449248,0.0131172,-0.00836971,0.0469927,0.0110493,-0.242222,0.0283719,0.0399445,1945,764,17.8901,-3.85089
728,260,17.6582,3.33716,0,0,0,0,0,0,0,-1,1952,764,17.6582,-3.33718
735,260,15.6123,4.65582,0,0,0,0,0,0,0,-1,1959,764,15.6123,-4.65579
742,260,24.4463,6.90778,0,0,0,0,0,0,0,-1,1966,764,24.4463,-6.90777
749,260,20.894,2.95435,0,0,0,0,0,0,0,-1,1973,764,20.894,-2.95435
756,260,0,0,0,0,0,0,0,0,0,-1,1980,764,0,0
763,260,0,0,0,0,0,0,0,0,0,-1,1987,764,0,0
770,260,0,0,0,0,0,0,0,0,0,-1,1994,764,0,0
777,260,0,0,0,0,0,0,0,0,0,-1,2001,764,0,0
784,260,0,0,0,0,0,0,0,0,0,-1,2008,764,0,0
791,260,0,0,0,0,0,0,0,0,0,-1,2015,764,0,0
798,260,0,0,0,0,0,0,0,0,0,-1,2022,764,0,0
805,260,0,0,0,0,0,0,0,0,0,-1,2029,764,0,0
812,260,0,0,0,0,0,0,0,0,0,-1,2036,764,0,0
-700,253,0,0,0,0,0,0,0,0,0,-1,524,771,0,0
-693,253,0,0,0,0,0,0,0,0,0,-1,531,771,0,0
-686,253,0,0,0,0,0,0,0,0,0,-1,538,771,0,0
-679,253,0,0,0,0,0,0,0,0,0,-1,545,771,0,0
-672,253,0,0,0,0,0,0,0,0,0,-1,552,771,0,0
-665,253,0,0,0,0,0,0,0,0,0,-1,559,771,0,0
-658,253,0,0,0,0,0,0,0,0,0,-1,566,771,0,0
-651,253,0,0,0,0,0,0,0,0,0,-1,573,771,0,0
-644,253,0,0,0,0,0,0,0,0,0,-1,580,771,0,0
-637,253,-13.3166,5.11633,0,0,0,0,0,0,0,-1,587,771,-13.3166,-5.11636
-630,253,-12.4828,4.85779,0,0,0,0,0,0,0,-1,594,771,-12.4828,-4.8578
-623,253,-12.0062,4.72772,0,0,0,0,0,0,0,-1,601,771,-12.0062,-4.72775
-616,253,-11.5044,4.27557,0,0,0,0,0,0,0,-1,608,771,-11.5044,-4.27557
-609,253,-11.0961,2.55084,0,0,0,0,0,0,0,-1,615,771,-11.0961,-2.55087
-602,253,-10.996,2.08423,0,0,0,0,0,0,0,-1,622,771,-10.996,-2.08421
-595,253,-10.9789,1.67731,-0.00353559,-0.00769297,0.00171705,-0.00291813,-0.00831043,0.345204,0.00486839,0.0474779,629,771,-10.9789,-1.67734
-588,253,-10.7904,1.22406,-0.00111954,-0.00571025,0.00338327,0.000673523,-0.00750332,0.487342,0.00524116,0.0380501,636,771,-10.7904,-1.22408
-581,253,-10.7628,0.994873,-0.000289998,-0.00383897,0.00349426,0.00185453,-0.0059835,0.550452,0.00472995,0.0230558,643,771,-10.7628,-0.9949
-574,253,-10.795,0.739563,-0.000497993,-0.00232281,0.00269853,0.0014382,-0.00425901,0.622375,0.00342104,0.0193643,650,771,-10.7951,-0.739553
-567,253,-10.794,0.462097,-0.000800712,-0.00156441,0.00226196,0.0011114,-0.00347652,0.70178,0.00276367,0.0163701,657,771,-10.794,-0.462078
-560,253,-10.7723,0.224609,-0.00111587,-0.0013286,0.0020649,0.000845402,-0.00328987,0.759664,0.00252272,0.0118772,664,771,-10.7723,-0.224599
-553,253,-10.7816,-0.0142822,-0.00123391,-0.00119805,0.00194414,0.000728244,-0.0031602,0.790009,0.00238687,0.0113024,671,771,-10.7816,0.0142913
-546,253,-10.7952,-0.27002,-0.00152843,-0.00146578,0.00196094,0.000464083,-0.00345829,0.793384,0.00247477,0.0106132,678,771,-10.7952,0.269994
-539,253,-10.8002,-0.541687,-0.00187943,-0.00237136,0.00205342,-5.72952e-05,-0.00419349,0.72579,0.00277676,0.0113697,685,771,-10.8002,0.541677
-532,253,-10.8109,-0.830811,-0.00191118,-0.00317279,0.00211525,-0.000334685,-0.00474929,0.640487,0.00306074,0.0157141,692,771,-10.8108,0.830835
-525,253,-10.8036,-1.13116,-0.00149339,-0.0034139,0.0018245,-0.000391871,-0.00451542,0.543161,0.00288853,0.0134039,699,771,-10.8036,1.13117
-518,253,-10.8271,-1.36633,-0.000634547,-0.00383106,0.00121705,-0.000223913,-0.0042417,0.325406,0.00275619,0.0163964,706,771,-10.8271,1.36633
-511,253,-10.9414,-1.5592,0.000601927,-0.0041631,0.000510129,0.000655928,-0.0042171,0.105464,0.00305362,0.03719,713,771,-10.9414,1.55923
-504,253,-11.5941,-1.37317,0,0,0,0,0,0,0,-1,720,771,-11.5941,1.37318
-497,253,-11.3292,-1.297,0.00412733,-0.00447947,0.000324255,0.00413953,-0.00449167,0.0376032,0.00498461,0.0481931,727,771,-11.3292,1.297
-490,253,-11.5369,-1.48651,0,0,0,0,0,0,0,-1,734,771,-11.537,1.48653
-483,253,-11.7931,-1.95258,0,0,0,0,0,0,0,-1,741,771,-11.7931,1.9526
-476,253,-17.8594,0.730896,0.012389,-0.00387685,0.000987398,0.0124487,-0.00393657,0.060408,0.00987642,0.0478014,748,771,-17.8594,-0.730913
-469,253,-17.8513,0.617737,0.0160409,-0.00353408,0.0023441,0.0163177,-0.00381087,0.117536,0.0123464,0.0429273,755,771,-17.8513,-0.61771
-462,253,-17.7095,0.749634,0.0200364,-0.00320702,0.00478092,0.0209814,-0.00415198,0.195138,0.0155574,0.0405852,762,771,-17.7096,-0.74964
-455,253,-17.4473,0.981934,0,0,0,0,0,0,0,-1,769,771,-17.4473,-0.981924
-448,253,0,0,0,0,0,0,0,0,0,-1,776,771,0,0
-441,253,0,0,0,0,0,0,0,0,0,-1,783,771,0,0
-434,253,0,0,0,0,0,0,0,0,0,-1,790,771,0,0
-427,253,0,0,0,0,0,0,0,0,0,-1,797,771,0,0
-420,253,0,0,0,0,0,0,0,0,0,-1,804,771,0,0
-413,253,0,0,0,0,0,0,0,0,0,-1,811,771,0,0
-406,253,0,0,0,0,0,0,0,0,0,-1,818,771,0,0
-399,253,0,0,0,0,0,0,0,0,0,-1,825,771,0,0
-392,253,0,0,0,0,0,0,0,0,0,-1,832,771,0,0
-385,253,0,0,0,0,0,0,0,0,0,-1,839,771,0,0
-378,253,0,0,0,0,0,0,0,0,0,-1,846,771,0,0
-371,253,0,0,0,0,0,0,0,0,0,-1,853,771,0,0
-364,253,0,0,0,0,0,0,0,0,0,-1,860,771,0,0
-357,253,0,0,0,0,0,0,0,0,0,-1,867,771,0,0
-350,253,0,0,0,0,0,0,0,0,0,-1,874,771,0,0
-343,253,0,0,0,0,0,0,0,0,0,-1,881,771,0,0
-336,253,0,0,0,0,0,0,0,0,0,-1,888,771,0,0
-329,253,0,0,0,0,0,0,0,0,0,-1,895,771,0,0
-322,253,0,0,0,0,0,0,0,0,0,-1,902,771,0,0
-315,253,0,0,0,0,0,0,0,0,0,-1,909,771,0,0
-308,253,0,0,0,0,0,0,0,0,0,-1,916,771,0,0
-301,253,0,0,0,0,0,0,0,0,0,-1,923,771,0,0
-294,253,0,0,0,0,0,0,0,0,0,-1,930,771,0,0
-287,253,0,0,0,0,0,0,0,0,0,-1,937,771,0,0
-280,253,0,0,0,0,0,0,0,0,0,-1,944,771,0,0
-273,253,0,0,0,0,0,0,0,0,0,-1,951,771,0,0
-266,253,0,0,0,0,0,0,0,0,0,-1,958,771,0,0
-259,253,0,0,0,0,0,0,0,0,0,-1,965,771,0,0
-252,253,0,0,0,0,0,0,0,0,0,-1,972,771,0,0
-245,253,0,0,0,0,0,0,0,0,0,-1,979,771,0,0
-238,253,0,0,0,0,0,0,0,0,0,-1,986,771,0,0
-231,253,0,0,0,0,0,0,0,0,0,-1,993,771,0,0
-224,253,0,0,0,0,0,0,0,0,0,-1,1000,771,0,0
-217,253,0,0,0,0,0,0,0,0,0,-1,1007,771,0,0
-210,253,0,0,0,0,0,0,0,0,0,-1,1014,771,0,0
-203,253,0,0,0,0,0,0,0,0,0,-1,1021,771,0,0
-196,253,0,0,0,0,0,0,0,0,0,-1,1028,771,0,0
-189,253,0,0,0,0,0,0,0,0,0,-1,1035,771,0,0
-182,253,0,0,0,0,0,0,0,0,0,-1,1042,771,0,0
-175,253,0,0,0,0,0,0,0,0,0,-1,1049,771,0,0
-168,253,0,0,0,0,0,0,0,0,0,-1,1056,771,0,0
-161,253,0,0,0,0,0,0,0,0,0,-1,1063,771,0,0
-154,253,0,0,0,0,0,0,0,0,0,-1,1070,771,0,0
-147,253,0,0,0,0,0,0,0,0,0,-1,1077,771,0,0
-140,253,0,0,0,0,0,0,0,0,0,-1,1084,771,0,0
-133,253,0,0,0,0,0,0,0,0,0,-1,1091,771,0,0
-126,253,0,0,0,0,0,0,0,0,0,-1,1098,771,0,0
-119,253,0,0,0,0,0,0,0,0,0,-1,1105,771,0,0
-112,253,0,0,0,0,0,0,0,0,0,-1,1112,771,0,0
-105,253,0,0,0,0,0,0,0,0,0,-1,1119,771,0,0
-98,253,0,0,0,0,0,0,0,0,0,-1,1126,771,0,0
-91,253,0,0,0,0,0,0,0,0,0,-1,1133,771,0,0
-84,253,0,0,0,0,0,0,0,0,0,-1,1140,771,0,0
-77,253,0,0,0,0,0,0,0,0,0,-1,1147,771,0,0
-70,253,0,0,0,0,0,0,0,0,0,-1,1154,771,0,0
-63,253,0,0,0,0,0,0,0,0,0,-1,1161,771,0,0
-56,253,0,0,0,0,0,0,0,0,0,-1,1168,771,0,0
-49,253,0,0,0,0,0,0,0,0,0,-1,1175,771,0,0
-42,253,0,0,0,0,0,0,0,0,0,-1,1182,771,0,0
-35,253,0,0,0,0,0,0,0,0,0,-1,1189,771,0,0
-28,253,0,0,0,0,0,0,0,0,0,-1,1196,771,0,0
-21,253,0,0,0,0,0,0,0,0,0,-1,1203,771,0,0
-14,253,0,0,0,0,0,0,0,0,0,-1,1210,771,0,0
-7,253,0,0,0,0,0,0,0,0,0,-1,1217,771,0,0
0,253,0,0,0,0,0,0,0,0,0,-1,1224,771,0,0
7,253,0,0,0,0,0,0,0,0,0,-1,1231,771,0,0
14,253,0,0,0,0,0,0,0,0,0,-1,1238,771,0,0
21,253,0,0,0,0,0,0,0,0,0,-1,1245,771,0,0
28,253,0,0,0,0,0,0,0,0,0,-1,1252,771,0,0
35,253,0,0,0,0,0,0,0,0,0,-1,1259,771,0,0
42,253,0,0,0,0,0,0,0,0,0,-1,1266,771,0,0
49,253,0,0,0,0,0,0,0,0,0,-1,1273,771,0,0
56,253,0,0,0,0,0,0,0,0,0,-1,1280,771,0,0
63,253,0,0,0,0,0,0,0,0,0,-1,1287,771,0,0
70,253,0,0,0,0,0,0,0,0,0,-1,1294,771,0,0
77,253,0,0,0,0,0,0,0,0,0,-1,1301,771,0,0
84,253,0,0,0,0,0,0,0,0,0,-1,1308,771,0,0
91,253,0,0,0,0,0,0,0,0,0,-1,1315,771,0,0
98,253,0,0,0,0,0,0,0,0,0,-1,1322,771,0,0
105,253,0,0,0,0,0,0,0,0,0,-1,1329,771,0,0
112,253,0,0,0,0,0,0,0,0,0,-1,1336,771,0,0
119,253,0,0,0,0,0,0,0,0,0,-1,1343,771,0,0
126,253,0,0,0,0,0,0,0,0,0,-1,1350,771,0,0
133,253,0,0,0,0,0,0,0,0,0,-1,1357,771,0,0
140,253,0,0,0,0,0,0,0,0,0,-1,1364,771,0,0
147,253,0,0,0,0,0,0,0,0,0,-1,1371,771,0,0
154,253,0,0,0,0,0,0,0,0,0,-1,1378,771,0,0
161,253,0,0,0,0,0,0,0,0,0,-1,1385,771,0,0
168,253,0,0,0,0,0,0,0,0,0,-1,1392,771,0,0
175,253,0,0,0,0,0,0,0,0,0,-1,1399,771,0,0
182,253,0,0,0,0,0,0,0,0,0,-1,1406,771,0,0
189,253,0,0,0,0,0,0,0,0,0,-1,1413,771,0,0
196,253,0,0,0,0,0,0,0,0,0,-1,1420,771,0,0
203,253,0,0,0,0,0,0,0,0,0,-1,1427,771,0,0
210,253,0,0,0,0,0,0,0,0,0,-1,1434,771,0,0
217,253,0,0,0,0,0,0,0,0,0,-1,1441,771,0,0
224,253,0,0,0,0,0,0,0,0,0,-1,1448,771,0,0
231,253,0,0,0,0,0,0,0,0,0,-1,1455,771,0,0
238,253,0,0,0,0,0,0,0,0,0,-1,1462,771,0,0
245,253,0,0,0,0,0,0,0,0,0,-1,1469,771,0,0
252,253,0,0,0,0,0,0,0,0,0,-1,1476,771,0,0
259,253,0,0,0,0,0,0,0,0,0,-1,1483,771,0,0
266,253,0,0,0,0,0,0,0,0,0,-1,1490,771,0,0
273,253,0,0,0,0,0,0,0,0,0,-1,1497,771,0,0
280,253,0,0,0,0,0,0,0,0,0,-1,1504,771,0,0
287,253,0,0,0,0,0,0,0,0,0,-1,1511,771,0,0
294,253,0,0,0,0,0,0,0,0,0,-1,1518,771,0,0
301,253,0,0,0,0,0,0,0,0,0,-1,1525,771,0,0
308,253,0,0,0,0,0,0,0,0,0,-1,1532,771,0,0
315,253,0,0,0,0,0,0,0,0,0,-1,1539,771,0,0
322,253,0,0,0,0,0,0,0,0,0,-1,1546,771,0,0
329,253,0,0,0,0,0,0,0,0,0,-1,1553,771,0,0
336,253,0,0,0,0,0,0,0,0,0,-1,1560,771,0,0
343,253,0,0,0,0,0,0,0,0,0,-1,1567,771,0,0
350,253,0,0,0,0,0,0,0,0,0,-1,1574,771,0,0
357,253,0,0,0,0,0,0,0,0,0,-1,1581,771,0,0
364,253,0,0,0,0,0,0,0,0,0,-1,1588,771,0,0
371,253,0,0,0,0,0,0,0,0,0,-1,1595,771,0,0
378,253,0,0,0,0,0,0,0,0,0,-1,1602,771,0,0
385,253,0,0,0,0,0,0,0,0,0,-1,1609,771,0,0
392,253,0,0,0,0,0,0,0,0,0,-1,1616,771,0,0
399,253,0,0,0,0,0,0,0,0,0,-1,1623,771,0,0
406,253,0,0,0,0,0,0,0,0,0,-1,1630,771,0,0
413,253,0,0,0,0,0,0,0,0,0,-1,1637,771,0,0
420,253,0,0,0,0,0,0,0,0,0,-1,1644,771,0,0
427,253,0,0,0,0,0,0,0,0,0,-1,1651,771,0,0
434,253,0,0,0,0,0,0,0,0,0,-1,1658,771,0,0
441,253,0,0,0,0,0,0,0,0,0,-1,1665,771,0,0
448,253,0,0,0,0,0,0,0,0,0,-1,1672,771,0,0
455,253,0,0,0,0,0,0,0,0,0,-1,1679,771,0,0
462,253,0,0,0,0,0,0,0,0,0,-1,1686,771,0,0
469,253,0,0,0,0,0,0,0,0,0,-1,1693,771,0,0
476,253,0,0,0,0,0,0,0,0,0,-1,1700,771,0,0
483,253,0,0,0,0,0,0,0,0,0,-1,1707,771,0,0
490,253,0,0,0,0,0,0,0,0,0,-1,1714,771,0,0
497,253,0,0,0,0,0,0,0,0,0,-1,1721,771,0,0
504,253,0,0,0,0,0,0,0,0,0,-1,1728,771,0,0
511,253,0,0,0,0,0,0,0,0,0,-1,1735,771,0,0
518,253,0,0,0,0,0,0,0,0,0,-1,1742,771,0,0
525,253,0,0,0,0,0,0,0,0,0,-1,1749,771,0,0
532,253,0,0,0,0,0,0,0,0,0,-1,1756,771,0,0
539,253,0,0,0,0,0,0,0,0,0,-1,1763,771,0,0
546,253,0,0,0,0,0,0,0,0,0,-1,1770,771,0,0
553,253,0,0,0,0,0,0,0,0,0,-1,1777,771,0,0
560,253,0,0,0,0,0,0,0,0,0,-1,1784,771,0,0
567,253,0,0,0,0,0,0,0,0,0,-1,1791,771,0,0
574,253,24.8738,2.70331,0.0228064,0.00554237,-0.000469046,0.0228191,0.00552963,-0.0271423,0.0137454,0.0379636,1798,771,24.8738,-2.70329
581,253,24.9041,2.82581,0.0327048,0.00896682,0.0036887,0.0332648,0.00840684,0.150661,0.019973,0.039988,1805,771,24.904,-2.82582
588,253,25.2169,2.78925,0.0315392,0.00846047,0.0037048,0.0321194,0.00788033,0.155331,0.0193292,0.0438194,1812,771,25.2169,-2.78926
595,253,25.64,2.59045,0.0273191,0.00707012,0.00322844,0.0278214,0.00656785,0.154341,0.016792,0.0427792,1819,771,25.6401,-2.59043
602,253,25.3726,2.75757,0,0,0,0,0,0,0,-1,1826,771,25.3726,-2.75755
609,253,25.4794,2.97913,0.0169603,0.00431837,0.00160281,0.0171604,0.00411832,0.124168,0.0103444,0.0434479,1833,771,25.4793,-2.97912
616,253,25.5353,3.19165,0,0,0,0,0,0,0,-1,1840,771,25.5352,-3.19163
623,253,25.5035,3.27924,0,0,0,0,0,0,0,-1,1847,771,25.5036,-3.27922
630,253,23.3596,2.67798,0,0,0,0,0,0,0,-1,1854,771,23.3596,-2.67799
637,253,17.4479,0.193909,0,0,0,0,0,0,0,-1,1861,771,17.4478,-0.193897
644,253,17.4664,0.500244,-0.00149321,0.000458104,-0.00211889,0.00181517,-0.00285027,-1.00116,0.0027156,0.0430016,1868,771,17.4664,-0.500263
651,253,17.4586,0.806763,-0.00236308,0.000452753,-0.0025745,0.00197917,-0.00388949,-1.03562,0.00344759,0.0234223,1875,771,17.4586,-0.80677
658,253,17.5,1.12585,-0.00237329,0.000297976,-0.00269656,0.00197155,-0.00404686,-1.01534,0.00354292,0.0187102,1882,771,17.5,-1.12587
665,253,17.4275,1.41132,-0.001741,9.07581e-05,-0.0026223,0.00195252,-0.00360276,-0.953408,0.00325417,0.0195411,1889,771,17.4275,-1.41133
672,253,17.386,1.69055,0.000111965,-5.1653e-05,-0.00180902,0.00184102,-0.00178071,-0.762802,0.0020911,0.0160893,1896,771,17.386,-1.69052
679,253,17.4381,2.00336,0.00193371,-0.000277574,-0.000989114,0.00231157,-0.000655438,-0.364914,0.00179976,0.0137899,1903,771,17.4381,-2.00337
686,253,17.4558,2.27356,0.0046878,0.000151922,-0.000542525,0.00475179,8.7935e-05,-0.117401,0.00313896,0.0176374,1910,771,17.4558,-2.27356
693,253,17.4237,2.55658,0.00904863,0.00126448,-0.00090576,0.00915264,0.00116048,-0.114325,0.00575407,0.0174356,1917,771,17.4237,-2.5566
700,253,17.4098,2.82855,0.0142885,0.00279567,-0.00178404,0.0145591,0.0025251,-0.150513,0.00898345,0.0161597,1924,771,17.4097,-2.82854
707,253,17.4165,3.11005,0.0205127,0.0048693,-0.00306061,0.0210902,0.00429181,-0.186491,0.0128703,0.0160625,1931,771,17.4165,-3.11002
714,253,17.4231,3.40338,0.0283382,0.00794227,-0.00542891,0.0296932,0.00658724,-0.244597,0.0180059,0.0196866,1938,771,17.4231,-3.40335
721,253,17.6465,3.62231,0.0382209,0.0126018,-0.00923423,0.0412024,0.00962037,-0.312303,0.0248891,0.033261,1945,771,17.6465,-3.62232
728,253,17.6965,3.63837,0.050968,0.0196698,-0.0150148,0.0570061,0.0136317,-0.382358,0.0343733,0.0460341,1952,771,17.6965,-3.63835
735,253,17.6439,3.92017,0,0,0,0,0,0,0,-1,1959,771,17.644,-3.92018
742,253,16.9562,5.16083,0,0,0,0,0,0,0,-1,1966,771,16.9562,-5.16083
749,253,22.672,7.68958,0,0,0,0,0,0,0,-1,1973,771,22.6719,-7.68956
756,253,0,0,0,0,0,0,0,0,0,-1,1980,771,0,0
763,253,0,0,0,0,0,0,0,0,0,-1,1987,771,0,0
770,253,0,0,0,0,0,0,0,0,0,-1,1994,771,0,0
777,253,0,0,0,0,0,0,0,0,0,-1,2001,771,0,0
784,253,0,0,0,0,0,0,0,0,0,-1,2008,771,0,0
791,253,0,0,0,0,0,0,0,0,0,-1,2015,771,0,0
798,253,0,0,0,0,0,0,0,0,0,-1,2022,771,0,0
805,253,0,0,0,0,0,0,0,0,0,-1,2029,771,0,0
812,253,0,0,0,0,0,0,0,0,0,-1,2036,771,0,0
-700,246,0,0,0,0,0,0,0,0,0,-1,524,778,0,0
-693,246,0,0,0,0,0,0,0,0,0,-1,531,778,0,0
-686,246,0,0,0,0,0,0,0,0,0,-1,538,778,0,0
-679,246,0,0,0,0,0,0,0,0,0,-1,545,778,0,0
-672,246,0,0,0,0,0,0,0,0,0,-1,552,778,0,0
-665,246,0,0,0,0,0,0,0,0,0,-1,559,778,0,0
-658,246,0,0,0,0,0,0,0,0,0,-1,566,778,0,0
-651,246,0,0,0,0,0,0,0,0,0,-1,573,778,0,0
-644,246,0,0,0,0,0,0,0,0,0,-1,580,778,0,0
-637,246,-15.1788,5.08453,0,0,0,0,0,0,0,-1,587,778,-15.1788,-5.08456
-630,246,-14.6348,4.74072,0,0,0,0,0,0,0,-1,594,778,-14.6348,-4.74073
-623,246,-12.846,4.93445,0,0,0,0,0,0,0,-1,601,778,-12.846,-4.93446
-616,246,-12.3965,4.25623,0,0,0,0,0,0,0,-1,608,778,-12.3965,-4.2562
-609,246,-11.908,3.40588,0,0,0,0,0,0,0,-1,615,778,-11.908,-3.40587
-602,246,-11.33,2.02405,0,0,0,0,0,0,0,-1,622,778,-11.33,-2.02405
-595,246,-11.3838,1.60327,-0.00199662,-0.00357413,-0.00323947,0.00054874,-0.00611949,-0.66598,0.00427433,0.0458697,629,778,-11.3838,-1.60327
-588,246,-11.0042,1.19092,0.000600467,-0.00315456,0.000426274,0.00064825,-0.00320234,0.111629,0.00238058,0.0282305,636,778,-11.0042,-1.19091
-581,246,-11.0512,1.01367,0.00127506,-0.00222462,0.00161703,0.00190781,-0.00285737,0.372986,0.00276932,0.0155851,643,778,-11.0512,-1.01369
-574,246,-11.0457,0.722168,0.000751006,-0.00131251,0.00150349,0.00154271,-0.00210421,0.484681,0.00211385,0.0170988,650,778,-11.0456,-0.722139
-567,246,-11.0564,0.456848,0.000124924,-0.000984841,0.00154828,0.00121475,-0.00207466,0.613335,0.00192065,0.016971,657,778,-11.0564,-0.456854
-560,246,-11.0489,0.225586,-0.00044906,-0.00103269,0.00165615,0.000940785,-0.00242253,0.698193,0.00200364,0.0130792,664,778,-11.0489,-0.225593
-553,246,-11.0364,-0.00543213,-0.000820623,-0.00112919,0.00174443,0.00077633,-0.00272614,0.741291,0.00212403,0.0123714,671,778,-11.0364,0.00544176
-546,246,-11.0596,-0.263306,-0.00130645,-0.00150035,0.00183465,0.000433812,-0.00324061,0.759002,0.00231858,0.0107555,678,778,-11.0596,0.263282
-539,246,-11.0611,-0.542786,-0.00169838,-0.0023669,0.00193092,-7.30024e-05,-0.00399228,0.699693,0.00263752,0.0105627,685,778,-11.0611,0.542767
-532,246,-11.0675,-0.839478,-0.00173581,-0.00309391,0.00190912,-0.000388575,-0.00444115,0.614532,0.00284012,0.0124487,692,778,-11.0675,0.839504
-525,246,-11.0747,-1.10181,-0.00132981,-0.00329,0.00156283,-0.00046518,-0.00415463,0.505334,0.00262845,0.013385,699,778,-11.0747,1.10179
-518,246,-11.1187,-1.31433,-0.000487667,-0.00371162,0.000918276,-0.000244462,-0.00395483,0.258905,0.00255896,0.0193125,706,778,-11.1186,1.31435
-511,246,-11.2113,-1.46307,0.000701871,-0.00404741,0.000199856,0.000710266,-0.00405581,0.0419823,0.00296908,0.0406801,713,778,-11.2113,1.4631
-504,246,-11.1174,-1.63818,0,0,0,0,0,0,0,-1,720,778,-11.1174,1.63821
-497,246,-10.9963,-1.74469,0,0,0,0,0,0,0,-1,727,778,-10.9963,1.74467
-490,246,-10.9312,-1.87335,0,0,0,0,0,0,0,-1,734,778,-10.9312,1.87336
-483,246,-17.794,0.788818,0,0,0,0,0,0,0,-1,741,778,-17.794,-0.788807
-476,246,-17.8962,0.524353,0.0120612,-0.00412379,-0.00126363,0.0121593,-0.00422185,-0.0774485,0.00982075,0.0456769,748,778,-17.8962,-0.524333
-469,246,-17.6591,0.741211,0.0156879,-0.00393734,-0.000659156,0.01571,-0.00395946,-0.0335367,0.0120127,0.0417506,755,778,-17.6591,-0.741214
-462,246,-17.4813,0.936096,0.0196501,-0.00379426,0.000985363,0.0196915,-0.00383561,0.0419312,0.0145754,0.0473689,762,778,-17.4814,-0.93607
-455,246,0,0,0,0,0,0,0,0,0,-1,769,778,0,0
-448,246,0,0,0,0,0,0,0,0,0,-1,776,778,0,0
-441,246,0,0,0,0,0,0,0,0,0,-1,783,778,0,0
-434,246,0,0,0,0,0,0,0,0,0,-1,790,778,0,0
-427,246,0,0,0,0,0,0,0,0,0,-1,797,778,0,0
-420,246,0,0,0,0,0,0,0,0,0,-1,804,778,0,0
-413,246,0,0,0,0,0,0,0,0,0,-1,811,778,0,0
-406,246,0,0,0,0,0,0,0,0,0,-1,818,778,0,0
-399,246,0,0,0,0,0,0,0,0,0,-1,825,778,0,0
-392,246,0,0,0,0,0,0,0,0,0,-1,832,778,0,0
-385,246,0,0,0,0,0,0,0,0,0,-1,839,778,0,0
-378,246,0,0,0,0,0,0,0,0,0,-1,846,778,0,0
-371,246,0,0,0,0,0,0,0,0,0,-1,853,778,0,0
-364,246,0,0,0,0,0,0,0,0,0,-1,860,778,0,0
-357,246,0,0,0,0,0,0,0,0,0,-1,867,778,0,0
-350,246,0,0,0,0,0,0,0,0,0,-1,874,778,0,0
-343,246,0,0,0,0,0,0,0,0,0,-1,881,778,0,0
-336,246,0,0,0,0,0,0,0,0,0,-1,888,778,0,0
-329,246,0,0,0,0,0,0,0,0,0,-1,895,778,0,0
-322,246,0,0,0,0,0,0,0,0,0,-1,902,778,0,0
-315,246,0,0,0,0,0,0,0,0,0,-1,909,778,0,0
-308,246,0,0,0,0,0,0,0,0,0,-1,916,778,0,0
-301,246,0,0,0,0,0,0,0,0,0,-1,923,778,0,0
-294,246,0,0,0,0,0,0,0,0,0,-1,930,778,0,0
-287,246,0,0,0,0,0,0,0,0,0,-1,937,778,0,0
-280,246,0,0,0,0,0,0,0,0,0,-1,944,778,0,0
-273,246,0,0,0,0,0,0,0,0,0,-1,951,778,0,0
-266,246,0,0,0,0,0,0,0,0,0,-1,958,778,0,0
-259,246,0,0,0,0,0,0,0,0,0,-1,965,778,0,0
-252,246,0,0,0,0,0,0,0,0,0,-1,972,778,0,0
-245,246,0,0,0,0,0,0,0,0,0,-1,979,778,0,0
-238,246,0,0,0,0,0,0,0,0,0,-1,986,778,0,0
-231,246,0,0,0,0,0,0,0,0,0,-1,993,778,0,0
-224,246,0,0,0,0,0,0,0,0,0,-1,1000,778,0,0
-217,246,0,0,0,0,0,0,0,0,0,-1,1007,778,0,0
-210,246,0,0,0,0,0,0,0,0,0,-1,1014,778,0,0
-203,246,0,0,0,0,0,0,0,0,0,-1,1021,778,0,0
-196,246,0,0,0,0,0,0,0,0,0,-1,1028,778,0,0
-189,246,0,0,0,0,0,0,0,0,0,-1,1035,778,0,0
-182,246,0,0,0,0,0,0,0,0,0,-1,1042,778,0,0
-175,246,0,0,0,0,0,0,0,0,0,-1,1049,778,0,0
-168,246,0,0,0,0,0,0,0,0,0,-1,1056,778,0,0
-161,246,0,0,0,0,0,0,0,0,0,-1,1063,778,0,0
-154,246,0,0,0,0,0,0,0,0,0,-1,1070,778,0,0
-147,246,0,0,0,0,0,0,0,0,0,-1,1077,778,0,0
-140,246,0,0,0,0,0,0,0,0,0,-1,1084,778,0,0
-133,246,0,0,0,0,0,0,0,0,0,-1,1091,778,0,0
-126,246,0,0,0,0,0,0,0,0,0,-1,1098,778,0,0
-119,246,0,0,0,0,0,0,0,0,0,-1,1105,778,0,0
-112,246,0,0,0,0,0,0,0,0,0,-1,1112,778,0,0
-105,246,0,0,0,0,0,0,0,0,0,-1,1119,778,0,0
-98,246,0,0,0,0,0,0,0,0,0,-1,1126,778,0,0
-91,246,0,0,0,0,0,0,0,0,0,-1,1133,778,0,0
-84,246,0,0,0,0,0,0,0,0,0,-1,1140,778,0,0
-77,246,0,0,0,0,0,0,0,0,0,-1,1147,778,0,0
-70,246,0,0,0,0,0,0,0,0,0,-1,1154,778,0,0
-63,246,0,0,0,0,0,0,0,0,0,-1,1161,778,0,0
-56,246,0,0,0,0,0,0,0,0,0,-1,1168,778,0,0
-49,246,0,0,0,0,0,0,0,0,0,-1,1175,778,0,0
-42,246,0,0,0,0,0,0,0,0,0,-1,1182,778,0,0
-35,246,0,0,0,0,0,0,0,0,0,-1,1189,778,0,0
-28,246,0,0,0,0,0,0,0,0,0,-1,1196,778,0,0
-21,246,0,0,0,0,0,0,0,0,0,-1,1203,778,0,0
-14,246,0,0,0,0,0,0,0,0,0,-1,1210,778,0,0
-7,246,0,0,0,0,0,0,0,0,0,-1,1217,778,0,0
0,246,0,0,0,0,0,0,0,0,0,-1,1224,778,0,0
7,246,0,0,0,0,0,0,0,0,0,-1,1231,778,0,0
14,246,0,0,0,0,0,0,0,0,0,-1,1238,778,0,0
21,246,0,0,0,0,0,0,0,0,0,-1,1245,778,0,0
28,246,0,0,0,0,0,0,0,0,0,-1,1252,778,0,0
35,246,0,0,0,0,0,0,0,0,0,-1,1259,778,0,0
42,246,0,0,0,0,0,0,0,0,0,-1,1266,778,0,0
49,246,0,0,0,0,0,0,0,0,0,-1,1273,778,0,0
56,246,0,0,0,0,0,0,0,0,0,-1,1280,778,0,0
63,246,0,0,0,0,0,0,0,0,0,-1,1287,778,0,0
70,246,0,0,0,0,0,0,0,0,0,-1,1294,778,0,0
77,246,0,0,0,0,0,0,0,0,0,-1,1301,778,0,0
84,246,0,0,0,0,0,0,0,0,0,-1,1308,778,0,0
91,246,0,0,0,0,0,0,0,0,0,-1,1315,778,0,0
98,246,0,0,0,0,0,0,0,0,0,-1,1322,778,0,0
105,246,0,0,0,0,0,0,0,0,0,-1,1329,778,0,0
112,246,0,0,0,0,0,0,0,0,0,-1,1336,778,0,0
119,246,0,0,0,0,0,0,0,0,0,-1,1343,778,0,0
126,246,0,0,0,0,0,0,0,0,0,-1,1350,778,0,0
133,246,0,0,0,0,0,0,0,0,0,-1,1357,778,0,0
140,246,0,0,0,0,0,0,0,0,0,-1,1364,778,0,0
147,246,0,0,0,0,0,0,0,0,0,-1,1371,778,0,0
154,246,0,0,0,0,0,0,0,0,0,-1,1378,778,0,0
161,246,0,0,0,0,0,0,0,0,0,-1,1385,778,0,0
168,246,0,0,0,0,0,0,0,0,0,-1,1392,778,0,0
175,246,0,0,0,0,0,0,0,0,0,-1,1399,778,0,0
182,246,0,0,0,0,0,0,0,0,0,-1,1406,778,0,0
189,246,0,0,0,0,0,0,0,0,0,-1,1413,778,0,0
196,246,0,0,0,0,0,0,0,0,0,-1,1420,778,0,0
203,246,0,0,0,0,0,0,0,0,0,-1,1427,778,0,0
210,246,0,0,0,0,0,0,0,0,0,-1,1434,778,0,0
217,246,0,0,0,0,0,0,0,0,0,-1,1441,778,0,0
224,246,0,0,0,0,0,0,0,0,0,-1,1448,778,0,0
231,246,0,0,0,0,0,0,0,0,0,-1,1455,778,0,0
238,246,0,0,0,0,0,0,0,0,0,-1,1462,778,0,0
245,246,0,0,0,0,0,0,0,0,0,-1,1469,778,0,0
252,246,0,0,0,0,0,0,0,0,0,-1,1476,778,0,0
259,246,0,0,0,0,0,0,0,0,0,-1,1483,778,0,0
266,246,0,0,0,0,0,0,0,0,0,-1,1490,778,0,0
273,246,0,0,0,0,0,0,0,0,0,-1,1497,778,0,0
280,246,0,0,0,0,0,0,0,0,0,-1,1504,778,0,0
287,246,0,0,0,0,0,0,0,0,0,-1,1511,778,0,0
294,246,0,0,0,0,0,0,0,0,0,-1,1518,778,0,0
301,246,0,0,0,0,0,0,0,0,0,-1,1525,778,0,0
308,246,0,0,0,0,0,0,0,0,0,-1,1532,778,0,0
315,246,0,0,0,0,0,0,0,0,0,-1,1539,778,0,0
322,246,0,0,0,0,0,0,0,0,0,-1,1546,778,0,0
329,246,0,0,0,0,0,0,0,0,0,-1,1553,778,0,0
336,246,0,0,0,0,0,0,0,0,0,-1,1560,778,0,0
343,246,0,0,0,0,0,0,0,0,0,-1,1567,778,0,0
350,246,0,0,0,0,0,0,0,0,0,-1,1574,778,0,0
357,246,0,0,0,0,0,0,0,0,0,-1,1581,778,0,0
364,246,0,0,0,0,0,0,0,0,0,-1,1588,778,0,0
371,246,0,0,0,0,0,0,0,0,0,-1,1595,778,0,0
378,246,0,0,0,0,0,0,0,0,0,-1,1602,778,0,0
385,246,0,0,0,0,0,0,0,0,0,-1,1609,778,0,0
392,246,0,0,0,0,0,0,0,0,0,-1,1616,778,0,0
399,246,0,0,0,0,0,0,0,0,0,-1,1623,778,0,0
406,246,0,0,0,0,0,0,0,0,0,-1,1630,778,0,0
413,246,0,0,0,0,0,0,0,0,0,-1,1637,778,0,0
420,246,0,0,0,0,0,0,0,0,0,-1,1644,778,0,0
427,246,0,0,0,0,0,0,0,0,0,-1,1651,778,0,0
434,246,0,0,0,0,0,0,0,0,0,-1,1658,778,0,0
441,246,0,0,0,0,0,0,0,0,0,-1,1665,778,0,0
448,246,0,0,0,0,0,0,0,0,0,-1,1672,778,0,0
455,246,0,0,0,0,0,0,0,0,0,-1,1679,778,0,0
462,246,0,0,0,0,0,0,0,0,0,-1,1686,778,0,0
469,246,0,0,0,0,0,0,0,0,0,-1,1693,778,0,0
476,246,0,0,0,0,0,0,0,0,0,-1,1700,778,0,0
483,246,0,0,0,0,0,0,0,0,0,-1,1707,778,0,0
490,246,0,0,0,0,0,0,0,0,0,-1,1714,778,0,0
497,246,0,0,0,0,0,0,0,0,0,-1,1721,778,0,0
504,246,0,0,0,0,0,0,0,0,0,-1,1728,778,0,0
511,246,0,0,0,0,0,0,0,0,0,-1,1735,778,0,0
518,246,0,0,0,0,0,0,0,0,0,-1,1742,778,0,0
525,246,0,0,0,0,0,0,0,0,0,-1,1749,778,0,0
532,246,0,0,0,0,0,0,0,0,0,-1,1756,778,0,0
539,246,0,0,0,0,0,0,0,0,0,-1,1763,778,0,0
546,246,0,0,0,0,0,0,0,0,0,-1,1770,778,0,0
553,246,0,0,0,0,0,0,0,0,0,-1,1777,778,0,0
560,246,0,0,0,0,0,0,0,0,0,-1,1784,778,0,0
567,246,0,0,0,0,0,0,0,0,0,-1,1791,778,0,0
574,246,0,0,0,0,0,0,0,0,0,-1,1798,778,0,0
581,246,24.9192,2.80798,0.0233323,0.00576066,0.00378777,0.024114,0.00497894,0.203523,0.0147002,0.0381393,1805,778,24.9192,-2.80797
588,246,25.0511,2.71918,0.0245475,0.00620296,0.003872,0.0253313,0.00541918,0.199723,0.0154023,0.0402189,1812,778,25.0511,-2.71916
595,246,25.2949,2.68915,0.0221176,0.00557431,0.00335336,0.0227715,0.00492042,0.192578,0.0138356,0.0364454,1819,778,25.2949,-2.68914
602,246,25.3374,2.81342,0.0180374,0.00476088,0.00251257,0.018497,0.00430128,0.180917,0.011177,0.0399797,1826,778,25.3374,-2.81341
609,246,25.3654,2.90588,0.0136282,0.00383645,0.00148307,0.0138479,0.00361676,0.147068,0.00829354,0.0458946,1833,778,25.3654,-2.90588
616,246,25.4045,3.06628,0,0,0,0,0,0,0,-1,1840,778,25.4045,-3.06628
623,246,24.6185,4.18268,0,0,0,0,0,0,0,-1,1847,778,24.6186,-4.18266
630,246,24.7559,3.16681,0,0,0,0,0,0,0,-1,1854,778,24.7558,-3.16682
637,246,24.3171,2.27643,0,0,0,0,0,0,0,-1,1861,778,24.3171,-2.2764
644,246,17.778,0.472412,0,0,0,0,0,0,0,-1,1868,778,17.778,-0.472431
651,246,17.6854,0.850647,-0.00332855,0.000800833,-0.00258108,0.00204143,-0.00456915,-1.12275,0.00390851,0.0342533,1875,778,17.6855,-0.850622
658,246,17.7122,1.15045,-0.00343409,0.0006028,-0.00278339,0.00202258,-0.00485387,-1.09911,0.00408075,0.0210393,1882,778,17.7122,-1.15044
665,246,17.702,1.44171,-0.00288725,0.000323204,-0.00280665,0.00195125,-0.00451529,-1.04516,0.00383004,0.0203156,1889,778,17.702,-1.4417
672,246,17.6863,1.72601,-0.00122289,7.72628e-05,-0.00205568,0.00158321,-0.00272883,-0.938539,0.00251868,0.0209126,1896,778,17.6863,-1.72599
679,246,17.7356,1.98016,0.000371689,-0.000244072,-0.00126868,0.00136932,-0.0012417,-0.666361,0.00150807,0.0216134,1903,778,17.7356,-1.98016
686,246,17.7717,2.26923,0.00284032,0.000111474,-0.000835426,0.00307577,-0.000123974,-0.274705,0.00209306,0.0209167,1910,778,17.7717,-2.26922
693,246,17.762,2.56659,0.00684244,0.00114358,-0.00125197,0.00710535,0.000880664,-0.206991,0.00447234,0.0166393,1917,778,17.762,-2.5666
700,246,17.7272,2.82996,0.011565,0.00257345,-0.00218969,0.0120699,0.00206855,-0.226618,0.00745341,0.0147183,1924,778,17.7271,-2.82996
707,246,17.7229,3.10437,0.0170013,0.0045483,-0.00347836,0.017907,0.00364259,-0.254725,0.0109281,0.0141386,1931,778,17.7229,-3.10434
714,246,17.6987,3.39557,0.0236078,0.00750908,-0.0058529,0.0255108,0.00560613,-0.314349,0.0154806,0.0128479,1938,778,17.6987,-3.39555
721,246,17.7196,3.63788,0.0318401,0.0118313,-0.00960496,0.0357045,0.00796694,-0.382516,0.0216418,0.0175254,1945,778,17.7195,-3.63787
728,246,17.7332,3.90991,0.0423634,0.0182351,-0.0151638,0.0496767,0.0109219,-0.449375,0.0301441,0.03661,1952,778,17.7331,-3.90991
735,246,17.1895,4.36371,0.0556868,0.0273584,-0.0232577,0.0687539,0.0142913,-0.511889,0.0418928,0.0437945,1959,778,17.1895,-4.36369
742,246,17.9835,4.71893,0.0720276,0.0401743,-0.0346639,0.0942486,0.0179533,-0.570051,0.0577852,0.0491935,1966,778,17.9835,-4.71891
749,246,18.7134,5.15222,0,0,0,0,0,0,0,-1,1973,778,18.7134,-5.15223
756,246,19.2545,4.45471,0,0,0,0,0,0,0,-1,1980,778,19.2545,-4.45469
763,246,0,0,0,0,0,0,0,0,0,-1,1987,778,0,0
770,246,0,0,0,0,0,0,0,0,0,-1,1994,778,0,0
777,246,0,0,0,0,0,0,0,0,0,-1,2001,778,0,0
784,246,0,0,0,0,0,0,0,0,0,-1,2008,778,0,0
791,246,0,0,0,0,0,0,0,0,0,-1,2015,778,0,0
798,246,0,0,0,0,0,0,0,0,0,-1,2022,778,0,0
805,246,0,0,0,0,0,0,0,0,0,-1,2029,778,0,0
812,246,0,0,0,0,0,0,0,0,0,-1,2036,778,0,0
-700,239,0,0,0,0,0,0,0,0,0,-1,524,785,0,0
-693,239,0,0,0,0,0,0,0,0,0,-1,531,785,0,0
-686,239,0,0,0,0,0,0,0,0,0,-1,538,785,0,0
-679,239,0,0,0,0,0,0,0,0,0,-1,545,785,0,0
-672,239,0,0,0,0,0,0,0,0,0,-1,552,785,0,0
-665,239,0,0,0,0,0,0,0,0,0,-1,559,785,0,0
-658,239,0,0,0,0,0,0,0,0,0,-1,566,785,0,0
-651,239,0,0,0,0,0,0,0,0,0,-1,573,785,0,0
-644,239,0,0,0,0,0,0,0,0,0,-1,580,785,0,0
-637,239,-15.8229,5.44464,0,0,0,0,0,0,0,-1,587,785,-15.8229,-5.44466
-630,239,-14.8631,5.19977,0,0,0,0,0,0,0,-1,594,785,-14.8631,-5.19979
-623,239,-13.8521,4.93805,0,0,0,0,0,0,0,-1,601,785,-13.8521,-4.93807
-616,239,-13.2913,4.24951,0,0,0,0,0,0,0,-1,608,785,-13.2913,-4.24953
-609,239,-12.7232,3.2514,0,0,0,0,0,0,0,-1,615,785,-12.7232,-3.25138
-602,239,-11.3044,1.86163,0,0,0,0,0,0,0,-1,622,785,-11.3044,-1.86162
-595,239,-11.2839,1.55841,-0.00135061,-0.000497671,-0.00770449,0.00679215,-0.00864042,-0.813047,0.00893127,0.0413704,629,785,-11.2839,-1.5584
-588,239,-11.2476,1.26581,0.00146313,-0.00116857,-0.00234181,0.00283345,-0.0025389,-0.529433,0.00310328,0.0175139,636,785,-11.2476,-1.26581
-581,239,-11.2959,1.00323,0.00226617,-0.00103576,1.88788e-05,0.00226627,-0.00103586,0.00571728,0.00195011,0.0109786,643,785,-11.2959,-1.00326
-574,239,-11.3069,0.728516,0.00163426,-0.00062658,0.000555913,0.00176356,-0.000755878,0.228523,0.00149288,0.0125853,650,785,-11.3069,-0.728506
-567,239,-11.3365,0.476196,0.00084513,-0.000622746,0.00104597,0.00138897,-0.00116659,0.479471,0.00147731,0.0135286,657,785,-11.3365,-0.476189
-560,239,-11.3356,0.251648,0.000146511,-0.000883014,0.00142023,0.00114239,-0.00187889,0.611537,0.00176153,0.0126428,664,785,-11.3356,-0.251636
-553,239,-11.3219,0.00640869,-0.000401778,-0.00114096,0.00168004,0.000948843,-0.00249158,0.677128,0.00205182,0.0133653,671,785,-11.3219,-0.00639472
-546,239,-11.372,-0.253723,-0.00100574,-0.00157158,0.00180903,0.000542363,-0.00311968,0.70783,0.00228216,0.0152215,678,785,-11.372,0.253742
-539,239,-11.3595,-0.546387,-0.0013958,-0.00238082,0.00187,4.54525e-05,-0.00382208,0.656635,0.00256334,0.0158256,685,785,-11.3595,0.546397
-532,239,-11.3199,-0.82428,-0.00145094,-0.00302335,0.00174412,-0.000324007,-0.00415027,0.573649,0.00266542,0.0128606,692,785,-11.3199,0.824293
-525,239,-11.3263,-1.06152,-0.00109153,-0.00318176,0.00133561,-0.000440734,-0.00383255,0.453408,0.00242153,0.0155701,699,785,-11.3263,1.06151
-518,239,-11.4277,-1.22363,-0.000317966,-0.00359856,0.000645298,-0.000195599,-0.00372093,0.187403,0.00241806,0.0366666,706,785,-11.4277,1.22361
-511,239,-11.5022,-1.42621,0.000748262,-0.00391941,-9.70741e-05,0.00075028,-0.00392143,-0.0207851,0.00289695,0.0415781,713,785,-11.5022,1.4262
-504,239,-11.4441,-1.64679,0,0,0,0,0,0,0,-1,720,785,-11.4441,1.64682
-497,239,-10.5266,-2.05756,0,0,0,0,0,0,0,-1,727,785,-10.5265,2.05756
-490,239,-17.7877,0.666138,0.00579702,-0.00443403,-0.00226556,0.00627626,-0.00491327,-0.208458,0.00647624,0.0455281,734,785,-17.7877,-0.666116
-483,239,-17.6597,0.843323,0.00837483,-0.00438692,-0.00304315,0.00906334,-0.00507544,-0.222506,0.00827056,0.0453994,741,785,-17.6598,-0.843345
-476,239,-17.587,0.842529,0.0115119,-0.00424806,-0.00365836,0.0123197,-0.00505587,-0.217324,0.0103199,0.0438004,748,785,-17.587,-0.842557
-469,239,-17.5335,0.816956,0.0150396,-0.00424087,-0.00378437,0.0157558,-0.00495706,-0.187037,0.0124886,0.0463795,755,785,-17.5335,-0.816972
-462,239,-17.3788,0.903564,0.0188109,-0.00429037,-0.00283247,0.0191531,-0.00463259,-0.120238,0.0145607,0.0483918,762,785,-17.3788,-0.903582
-455,239,0,0,0,0,0,0,0,0,0,-1,769,785,0,0
-448,239,0,0,0,0,0,0,0,0,0,-1,776,785,0,0
-441,239,0,0,0,0,0,0,0,0,0,-1,783,785,0,0
-434,239,0,0,0,0,0,0,0,0,0,-1,790,785,0,0
-427,239,0,0,0,0,0,0,0,0,0,-1,797,785,0,0
-420,239,0,0,0,0,0,0,0,0,0,-1,804,785,0,0
-413,239,0,0,0,0,0,0,0,0,0,-1,811,785,0,0
-406,239,0,0,0,0,0,0,0,0,0,-1,818,785,0,0
-399,239,0,0,0,0,0,0,0,0,0,-1,825,785,0,0
-392,239,0,0,0,0,0,0,0,0,0,-1,832,785,0,0
-385,239,0,0,0,0,0,0,0,0,0,-1,839,785,0,0
-378,239,0,0,0,0,0,0,0,0,0,-1,846,785,0,0
-371,239,0,0,0,0,0,0,0,0,0,-1,853,785,0,0
-364,239,0,0,0,0,0,0,0,0,0,-1,860,785,0,0
-357,239,0,0,0,0,0,0,0,0,0,-1,867,785,0,0
-350,239,0,0,0,0,0,0,0,0,0,-1,874,785,0,0
-343,239,0,0,0,0,0,0,0,0,0,-1,881,785,0,0
-336,239,0,0,0,0,0,0,0,0,0,-1,888,785,0,0
-329,239,0,0,0,0,0,0,0,0,0,-1,895,785,0,0
-322,239,0,0,0,0,0,0,0,0,0,-1,902,785,0,0
-315,239,0,0,0,0,0,0,0,0,0,-1,909,785,0,0
-308,239,0,0,0,0,0,0,0,0,0,-1,916,785,0,0
-301,239,0,0,0,0,0,0,0,0,0,-1,923,785,0,0
-294,239,0,0,0,0,0,0,0,0,0,-1,930,785,0,0
-287,239,0,0,0,0,0,0,0,0,0,-1,937,785,0,0
-280,239,0,0,0,0,0,0,0,0,0,-1,944,785,0,0
-273,239,0,0,0,0,0,0,0,0,0,-1,951,785,0,0
-266,239,0,0,0,0,0,0,0,0,0,-1,958,785,0,0
-259,239,0,0,0,0,0,0,0,0,0,-1,965,785,0,0
-252,239,0,0,0,0,0,0,0,0,0,-1,972,785,0,0
-245,239,0,0,0,0,0,0,0,0,0,-1,979,785,0,0
-238,239,0,0,0,0,0,0,0,0,0,-1,986,785,0,0
-231,239,0,0,0,0,0,0,0,0,0,-1,993,785,0,0
-224,239,0,0,0,0,0,0,0,0,0,-1,1000,785,0,0
-217,239,0,0,0,0,0,0,0,0,0,-1,1007,785,0,0
-210,239,0,0,0,0,0,0,0,0,0,-1,1014,785,0,0
-203,239,0,0,0,0,0,0,0,0,0,-1,1021,785,0,0
-196,239,0,0,0,0,0,0,0,0,0,-1,1028,785,0,0
-189,239,0,0,0,0,0,0,0,0,0,-1,1035,785,0,0
-182,239,0,0,0,0,0,0,0,0,0,-1,1042,785,0,0
-175,239,0,0,0,0,0,0,0,0,0,-1,1049,785,0,0
-168,239,0,0,0,0,0,0,0,0,0,-1,1056,785,0,0
-161,239,0,0,0,0,0,0,0,0,0,-1,1063,785,0,0
-154,239,0,0,0,0,0,0,0,0,0,-1,1070,785,0,0
-147,239,0,0,0,0,0,0,0,0,0,-1,1077,785,0,0
-140,239,0,0,0,0,0,0,0,0,0,-1,1084,785,0,0
-133,239,0,0,0,0,0,0,0,0,0,-1,1091,785,0,0
-126,239,0,0,0,0,0,0,0,0,0,-1,1098,785,0,0
-119,239,0,0,0,0,0,0,0,0,0,-1,1105,785,0,0
-112,239,0,0,0,0,0,0,0,0,0,-1,1112,785,0,0
-105,239,0,0,0,0,0,0,0,0,0,-1,1119,785,0,0
-98,239,0,0,0,0,0,0,0,0,0,-1,1126,785,0,0
-91,239,0,0,0,0,0,0,0,0,0,-1,1133,785,0,0
-84,239,0,0,0,0,0,0,0,0,0,-1,1140,785,0,0
-77,239,0,0,0,0,0,0,0,0,0,-1,1147,785,0,0
-70,239,0,0,0,0,0,0,0,0,0,-1,1154,785,0,0
-63,239,0,0,0,0,0,0,0,0,0,-1,1161,785,0,0
-56,239,0,0,0,0,0,0,0,0,0,-1,1168,785,0,0
-49,239,0,0,0,0,0,0,0,0,0,-1,1175,785,0,0
-42,239,0,0,0,0,0,0,0,0,0,-1,1182,785,0,0
-35,239,0,0,0,0,0,0,0,0,0,-1,1189,785,0,0
-28,239,0,0,0,0,0,0,0,0,0,-1,1196,785,0,0
-21,239,0,0,0,0,0,0,0,0,0,-1,1203,785,0,0
-14,239,0,0,0,0,0,0,0,0,0,-1,1210,785,0,0
-7,239,0,0,0,0,0,0,0,0,0,-1,1217,785,0,0
0,239,0,0,0,0,0,0,0,0,0,-1,1224,785,0,0
7,239,0,0,0,0,0,0,0,0,0,-1,1231,785,0,0
14,239,0,0,0,0,0,0,0,0,0,-1,1238,785,0,0
21,239,0,0,0,0,0,0,0,0,0,-1,1245,785,0,0
28,239,0,0,0,0,0,0,0,0,0,-1,1252,785,0,0
35,239,0,0,0,0,0,0,0,0,0,-1,1259,785,0,0
42,239,0,0,0,0,0,0,0,0,0,-1,1266,785,0,0
49,239,0,0,0,0,0,0,0,0,0,-1,1273,785,0,0
56,239,0,0,0,0,0,0,0,0,0,-1,1280,785,0,0
63,239,0,0,0,0,0,0,0,0,0,-1,1287,785,0,0
70,239,0,0,0,0,0,0,0,0,0,-1,1294,785,0,0
77,239,0,0,0,0,0,0,0,0,0,-1,1301,785,0,0
84,239,0,0,0,0,0,0,0,0,0,-1,1308,785,0,0
91,239,0,0,0,0,0,0,0,0,0,-1,1315,785,0,0
98,239,0,0,0,0,0,0,0,0,0,-1,1322,785,0,0
105,239,0,0,0,0,0,0,0,0,0,-1,1329,785,0,0
112,239,0,0,0,0,0,0,0,0,0,-1,1336,785,0,0
119,239,0,0,0,0,0,0,0,0,0,-1,1343,785,0,0
126,239,0,0,0,0,0,0,0,0,0,-1,1350,785,0,0
133,239,0,0,0,0,0,0,0,0,0,-1,1357,785,0,0
140,239,0,0,0,0,0,0,0,0,0,-1,1364,785,0,0
147,239,0,0,0,0,0,0,0,0,0,-1,1371,785,0,0
154,239,0,0,0,0,0,0,0,0,0,-1,1378,785,0,0
161,239,0,0,0,0,0,0,0,0,0,-1,1385,785,0,0
168,239,0,0,0,0,0,0,0,0,0,-1,1392,785,0,0
175,239,0,0,0,0,0,0,0,0,0,-1,1399,785,0,0
182,239,0,0,0,0,0,0,0,0,0,-1,1406,785,0,0
189,239,0,0,0,0,0,0,0,0,0,-1,1413,785,0,0
196,239,0,0,0,0,0,0,0,0,0,-1,1420,785,0,0
203,239,0,0,0,0,0,0,0,0,0,-1,1427,785,0,0
210,239,0,0,0,0,0,0,0,0,0,-1,1434,785,0,0
217,239,0,0,0,0,0,0,0,0,0,-1,1441,785,0,0
224,239,0,0,0,0,0,0,0,0,0,-1,1448,785,0,0
231,239,0,0,0,0,0,0,0,0,0,-1,1455,785,0,0
238,239,0,0,0,0,0,0,0,0,0,-1,1462,785,0,0
245,239,0,0,0,0,0,0,0,0,0,-1,1469,785,0,0
252,239,0,0,0,0,0,0,0,0,0,-1,1476,785,0,0
259,239,0,0,0,0,0,0,0,0,0,-1,1483,785,0,0
266,239,0,0,0,0,0,0,0,0,0,-1,1490,785,0,0
273,239,0,0,0,0,0,0,0,0,0,-1,1497,785,0,0
280,239,0,0,0,0,0,0,0,0,0,-1,1504,785,0,0
287,239,0,0,0,0,0,0,0,0,0,-1,1511,785,0,0
294,239,0,0,0,0,0,0,0,0,0,-1,1518,785,0,0
301,239,0,0,0,0,0,0,0,0,0,-1,1525,785,0,0
308,239,0,0,0,0,0,0,0,0,0,-1,1532,785,0,0
315,239,0,0,0,0,0,0,0,0,0,-1,1539,785,0,0
322,239,0,0,0,0,0,0,0,0,0,-1,1546,785,0,0
329,239,0,0,0,0,0,0,0,0,0,-1,1553,785,0,0
336,239,0,0,0,0,0,0,0,0,0,-1,1560,785,0,0
343,239,0,0,0,0,0,0,0,0,0,-1,1567,785,0,0
350,239,0,0,0,0,0,0,0,0,0,-1,1574,785,0,0
357,239,0,0,0,0,0,0,0,0,0,-1,1581,785,0,0
364,239,0,0,0,0,0,0,0,0,0,-1,1588,785,0,0
371,239,0,0,0,0,0,0,0,0,0,-1,1595,785,0,0
378,239,0,0,0,0,0,0,0,0,0,-1,1602,785,0,0
385,239,0,0,0,0,0,0,0,0,0,-1,1609,785,0,0
392,239,0,0,0,0,0,0,0,0,0,-1,1616,785,0,0
399,239,0,0,0,0,0,0,0,0,0,-1,1623,785,0,0
406,239,0,0,0,0,0,0,0,0,0,-1,1630,785,0,0
413,239,0,0,0,0,0,0,0,0,0,-1,1637,785,0,0
420,239,0,0,0,0,0,0,0,0,0,-1,1644,785,0,0
427,239,0,0,0,0,0,0,0,0,0,-1,1651,785,0,0
434,239,0,0,0,0,0,0,0,0,0,-1,1658,785,0,0
441,239,0,0,0,0,0,0,0,0,0,-1,1665,785,0,0
448,239,0,0,0,0,0,0,0,0,0,-1,1672,785,0,0
455,239,0,0,0,0,0,0,0,0,0,-1,1679,785,0,0
462,239,0,0,0,0,0,0,0,0,0,-1,1686,785,0,0
469,239,0,0,0,0,0,0,0,0,0,-1,1693,785,0,0
476,239,0,0,0,0,0,0,0,0,0,-1,1700,785,0,0
483,239,0,0,0,0,0,0,0,0,0,-1,1707,785,0,0
490,239,0,0,0,0,0,0,0,0,0,-1,1714,785,0,0
497,239,0,0,0,0,0,0,0,0,0,-1,1721,785,0,0
504,239,0,0,0,0,0,0,0,0,0,-1,1728,785,0,0
511,239,0,0,0,0,0,0,0,0,0,-1,1735,785,0,0
518,239,0,0,0,0,0,0,0,0,0,-1,1742,785,0,0
525,239,0,0,0,0,0,0,0,0,0,-1,1749,785,0,0
532,239,0,0,0,0,0,0,0,0,0,-1,1756,785,0,0
539,239,0,0,0,0,0,0,0,0,0,-1,1763,785,0,0
546,239,0,0,0,0,0,0,0,0,0,-1,1770,785,0,0
553,239,0,0,0,0,0,0,0,0,0,-1,1777,785,0,0
560,239,0,0,0,0,0,0,0,0,0,-1,1784,785,0,0
567,239,0,0,0,0,0,0,0,0,0,-1,1791,785,0,0
574,239,0,0,0,0,0,0,0,0,0,-1,1798,785,0,0
581,239,24.9398,3.00293,0.0152212,0.00292431,0.00404545,0.0164327,0.00171279,0.290976,0.0104312,0.0354302,1805,785,24.9398,-3.00292
588,239,24.8951,2.91516,0.0179064,0.00407631,0.00408829,0.0190246,0.00295818,0.266968,0.011821,0.0366961,1812,785,24.8951,-2.91517
595,239,25.0081,2.7511,0.0171625,0.00409279,0.00352271,0.0180515,0.00320377,0.247204,0.0111213,0.0313323,1819,785,25.008,-2.7511
602,239,25.0977,2.81445,0.0142276,0.0038804,0.0025991,0.0148437,0.00326422,0.232775,0.00900711,0.0344114,1826,785,25.0976,-2.81446
609,239,25.1694,2.90656,0.0105642,0.0033693,0.00141986,0.0108342,0.00309923,0.18796,0.00644319,0.0484334,1833,785,25.1695,-2.90658
616,239,24.8844,3.02142,0,0,0,0,0,0,0,-1,1840,785,24.8844,-3.02144
623,239,24.6744,3.07849,0.00399676,0.0024338,-0.000564818,0.0041795,0.00225106,-0.312918,0.00241543,0.0425967,1847,785,24.6744,-3.07848
630,239,24.6576,2.81091,0.00165694,0.00189699,-0.00131037,0.00309282,0.000461109,-0.831069,0.00192666,0.044778,1854,785,24.6576,-2.81094
637,239,24.6343,2.54865,0,0,0,0,0,0,0,-1,1861,785,24.6342,-2.54862
644,239,17.4896,0.691101,0,0,0,0,0,0,0,-1,1868,785,17.4897,-0.691109
651,239,17.8912,0.912659,0,0,0,0,0,0,0,-1,1875,785,17.8912,-0.912644
658,239,17.9552,1.1972,-0.00437589,0.00103326,-0.00304265,0.00239961,-0.00574224,-1.14872,0.00483095,0.0202142,1882,785,17.9552,-1.1972
665,239,17.9924,1.47083,-0.00396285,0.00076095,-0.00313495,0.00232416,-0.00552606,-1.10824,0.0046563,0.0127397,1889,785,17.9924,-1.47085
672,239,17.9963,1.73083,-0.00254854,0.000439247,-0.00245578,0.00181982,-0.00392911,-1.05865,0.0033928,0.0193559,1896,785,17.9964,-1.73081
679,239,18.0248,1.99854,-0.00122888,4.09999e-05,-0.00170174,0.00122239,-0.00241027,-0.963955,0.00213437,0.0213868,1903,785,18.0248,-1.99855
686,239,18.0283,2.2934,0.000901185,0.000261877,-0.00127266,0.00189372,-0.000730658,-0.662358,0.001564,0.0219608,1910,785,18.0284,-2.29341
693,239,18.0337,2.58502,0.00448587,0.00110085,-0.0016924,0.00518686,0.000399862,-0.392683,0.00333262,0.0146518,1917,785,18.0337,-2.58501
700,239,18.0271,2.84937,0.00868367,0.0023095,-0.00260804,0.00961476,0.0013784,-0.342905,0.00600335,0.0114757,1924,785,18.0272,-2.84939
707,239,18.0048,3.10431,0.0134278,0.00405282,-0.00380801,0.0147797,0.00270099,-0.34112,0.00908757,0.0107401,1931,785,18.0047,-3.10433
714,239,17.983,3.36987,0.0189734,0.0067598,-0.00608041,0.0214843,0.00424893,-0.391615,0.0131376,0.00985234,1938,785,17.983,-3.36989
721,239,17.9677,3.6355,0.0257941,0.0105777,-0.009601,0.0304359,0.00593579,-0.450342,0.0186299,0.0197154,1945,785,17.9677,-3.63547
728,239,17.9496,3.82037,0.0344065,0.0160804,-0.0146796,0.0425481,0.00793882,-0.506385,0.0261244,0.0360287,1952,785,17.9496,-3.82038
735,239,18.3785,3.99963,0.045334,0.0237839,-0.0219474,0.0590087,0.0101092,-0.557208,0.0364399,0.048867,1959,785,18.3786,-3.99964
742,239,19.0543,4.03625,0.0588314,0.0343981,-0.0319772,0.0808462,0.0123834,-0.602933,0.0502805,0.0488348,1966,785,19.0543,-4.03625
749,239,19.7172,4.11859,0.0751968,0.0487312,-0.0455982,0.109443,0.0144845,-0.644175,0.0686454,0.0475917,1973,785,19.7172,-4.11861
756,239,20.3889,3.92139,0,0,0,0,0,0,0,-1,1980,785,20.3889,-3.92138
763,239,0,0,0,0,0,0,0,0,0,-1,1987,785,0,0
770,239,0,0,0,0,0,0,0,0,0,-1,1994,785,0,0
777,239,0,0,0,0,0,0,0,0,0,-1,2001,785,0,0
784,239,0,0,0,0,0,0,0,0,0,-1,2008,785,0,0
791,239,0,0,0,0,0,0,0,0,0,-1,2015,785,0,0
798,239,0,0,0,0,0,0,0,0,0,-1,2022,785,0,0
805,239,0,0,0,0,0,0,0,0,0,-1,2029,785,0,0
812,239,0,0,0,0,0,0,0,0,0,-1,2036,785,0,0
-700,232,0,0,0,0,0,0,0,0,0,-1,524,792,0,0
-693,232,0,0,0,0,0,0,0,0,0,-1,531,792,0,0
-686,232,0,0,0,0,0,0,0,0,0,-1,538,792,0,0
-679,232,0,0,0,0,0,0,0,0,0,-1,545,792,0,0
-672,232,0,0,0,0,0,0,0,0,0,-1,552,792,0,0
-665,232,0,0,0,0,0,0,0,0,0,-1,559,792,0,0
-658,232,0,0,0,0,0,0,0,0,0,-1,566,792,0,0
-651,232,0,0,0,0,0,0,0,0,0,-1,573,792,0,0
-644,232,-12.0689,-0.0904541,0,0,0,0,0,0,0,-1,580,792,-12.0689,0.0904347
-637,232,-15.8266,5.8587,0,0,0,0,0,0,0,-1,587,792,-15.8266,-5.85873
-630,232,-15.3641,5.40692,0,0,0,0,0,0,0,-1,594,792,-15.3641,-5.40689
-623,232,-14.8826,4.92981,0,0,0,0,0,0,0,-1,601,792,-14.8826,-4.92982
-616,232,-14.1743,4.22638,0,0,0,0,0,0,0,-1,608,792,-14.1743,-4.22638
-609,232,-11.7072,2.1922,0,0,0,0,0,0,0,-1,615,792,-11.7071,-2.19223
-602,232,-12.1492,1.34253,0,0,0,0,0,0,0,-1,622,792,-12.1492,-1.3425
-595,232,-11.5303,1.59088,-0.00212822,0.00211593,-0.010911,0.0111093,-0.0111216,-0.881444,0.012835,0.0338115,629,792,-11.5303,-1.59088
-588,232,-11.5463,1.27649,0.0010498,0.000533785,-0.00438112,0.00518051,-0.00359692,-0.755987,0.00509507,0.0121142,636,792,-11.5463,-1.27651
-581,232,-11.5571,0.99939,0.00221732,-4.9195e-05,-0.00110991,0.00267031,-0.000502183,-0.387495,0.00196906,0.00878493,643,792,-11.5571,-0.999414
-574,232,-11.5613,0.759827,0.00171058,-0.000174751,-7.01712e-05,0.00171319,-0.000177359,-0.037151,0.0012056,0.00920213,650,792,-11.5613,-0.759824
-567,232,-11.6035,0.516541,0.000943415,-0.000452908,0.000749789,0.00126976,-0.000779253,0.41052,0.00119424,0.0100164,657,792,-11.6034,-0.516557
-560,232,-11.601,0.262024,0.000282486,-0.000860506,0.00130404,0.00113476,-0.00171279,0.578879,0.00165529,0.0112098,664,792,-11.601,-0.262022
-553,232,-11.6047,0.00604248,-0.000278015,-0.00120203,0.00167115,0.000993815,-0.00247386,0.650537,0.00206195,0.0122053,671,792,-11.6047,-0.00601532
-546,232,-11.6763,-0.242371,-0.00084225,-0.00164259,0.0017929,0.0005946,-0.00307944,0.6756,0.00227718,0.0214847,678,792,-11.6762,0.242359
-539,232,-11.653,-0.531494,-0.00111718,-0.00234073,0.00180907,0.000180758,-0.00363867,0.62235,0.00248822,0.0256872,685,792,-11.653,0.531465
-532,232,-11.6147,-0.813293,-0.00110519,-0.00286414,0.00159393,-0.0001642,-0.00380514,0.5333,0.00248383,0.0167757,692,792,-11.6147,0.813264
-525,232,-11.6584,-1.00574,-0.000751796,-0.00296377,0.00115993,-0.000255081,-0.00346048,0.404601,0.00222684,0.0282675,699,792,-11.6584,1.00576
-518,232,-11.8015,-1.17126,0,0,0,0,0,0,0,-1,706,792,-11.8015,1.17129
-511,232,-12.1885,-1.23096,0.000952235,-0.00360726,-0.000296443,0.000971428,-0.00362645,-0.0646539,0.00279822,0.0458165,713,792,-12.1885,1.23093
-504,232,-12.2571,-1.78839,0,0,0,0,0,0,0,-1,720,792,-12.2571,1.78836
-497,232,-12.2424,-2.3241,0,0,0,0,0,0,0,-1,727,792,-12.2424,2.32408
-490,232,-17.5878,0.838013,0.0055821,-0.00409763,-0.00335872,0.00663336,-0.00514889,-0.303334,0.00682045,0.0438228,734,792,-17.5878,-0.837997
-483,232,-17.5001,0.902222,0.00808737,-0.00405946,-0.0046377,0.00965559,-0.00562768,-0.326077,0.00892537,0.0423273,741,792,-17.5001,-0.902208
-476,232,-17.3845,0.944824,0.0111803,-0.00393341,-0.00590315,0.0132127,-0.00596578,-0.331575,0.0113331,0.0371176,748,792,-17.3844,-0.944811
-469,232,-17.3248,0.971558,0.0145877,-0.00403213,-0.00672447,0.0167623,-0.00620668,-0.312765,0.01372,0.037395,755,792,-17.3248,-0.971568
-462,232,0,0,0,0,0,0,0,0,0,-1,762,792,0,0
-455,232,0,0,0,0,0,0,0,0,0,-1,769,792,0,0
-448,232,0,0,0,0,0,0,0,0,0,-1,776,792,0,0
-441,232,0,0,0,0,0,0,0,0,0,-1,783,792,0,0
-434,232,0,0,0,0,0,0,0,0,0,-1,790,792,0,0
-427,232,0,0,0,0,0,0,0,0,0,-1,797,792,0,0
-420,232,0,0,0,0,0,0,0,0,0,-1,804,792,0,0
-413,232,0,0,0,0,0,0,0,0,0,-1,811,792,0,0
-406,232,0,0,0,0,0,0,0,0,0,-1,818,792,0,0
-399,232,0,0,0,0,0,0,0,0,0,-1,825,792,0,0
-392,232,0,0,0,0,0,0,0,0,0,-1,832,792,0,0
-385,232,0,0,0,0,0,0,0,0,0,-1,839,792,0,0
-378,232,0,0,0,0,0,0,0,0,0,-1,846,792,0,0
-371,232,0,0,0,0,0,0,0,0,0,-1,853,792,0,0
-364,232,0,0,0,0,0,0,0,0,0,-1,860,792,0,0
-357,232,0,0,0,0,0,0,0,0,0,-1,867,792,0,0
-350,232,0,0,0,0,0,0,0,0,0,-1,874,792,0,0
-343,232,0,0,0,0,0,0,0,0,0,-1,881,792,0,0
-336,232,0,0,0,0,0,0,0,0,0,-1,888,792,0,0
-329,232,0,0,0,0,0,0,0,0,0,-1,895,792,0,0
-322,232,0,0,0,0,0,0,0,0,0,-1,902,792,0,0
-315,232,0,0,0,0,0,0,0,0,0,-1,909,792,0,0
-308,232,0,0,0,0,0,0,0,0,0,-1,916,792,0,0
-301,232,0,0,0,0,0,0,0,0,0,-1,923,792,0,0
-294,232,0,0,0,0,0,0,0,0,0,-1,930,792,0,0
-287,232,0,0,0,0,0,0,0,0,0,-1,937,792,0,0
-280,232,0,0,0,0,0,0,0,0,0,-1,944,792,0,0
-273,232,0,0,0,0,0,0,0,0,0,-1,951,792,0,0
-266,232,0,0,0,0,0,0,0,0,0,-1,958,792,0,0
-259,232,0,0,0,0,0,0,0,0,0,-1,965,792,0,0
-252,232,0,0,0,0,0,0,0,0,0,-1,972,792,0,0
-245,232,0,0,0,0,0,0,0,0,0,-1,979,792,0,0
-238,232,0,0,0,0,0,0,0,0,0,-1,986,792,0,0
-231,232,0,0,0,0,0,0,0,0,0,-1,993,792,0,0
-224,232,0,0,0,0,0,0,0,0,0,-1,1000,792,0,0
-217,232,0,0,0,0,0,0,0,0,0,-1,1007,792,0,0
-210,232,0,0,0,0,0,0,0,0,0,-1,1014,792,0,0
-203,232,0,0,0,0,0,0,0,0,0,-1,1021,792,0,0
-196,232,0,0,0,0,0,0,0,0,0,-1,1028,792,0,0
-189,232,0,0,0,0,0,0,0,0,0,-1,1035,792,0,0
-182,232,0,0,0,0,0,0,0,0,0,-1,1042,792,0,0
-175,232,0,0,0,0,0,0,0,0,0,-1,1049,792,0,0
-168,232,0,0,0,0,0,0,0,0,0,-1,1056,792,0,0
-161,232,0,0,0,0,0,0,0,0,0,-1,1063,792,0,0
-154,232,0,0,0,0,0,0,0,0,0,-1,1070,792,0,0
-147,232,0,0,0,0,0,0,0,0,0,-1,1077,792,0,0
-140,232,0,0,0,0,0,0,0,0,0,-1,1084,792,0,0
-133,232,0,0,0,0,0,0,0,0,0,-1,1091,792,0,0
-126,232,0,0,0,0,0,0,0,0,0,-1,1098,792,0,0
-119,232,0,0,0,0,0,0,0,0,0,-1,1105,792,0,0
-112,232,0,0,0,0,0,0,0,0,0,-1,1112,792,0,0
-105,232,0,0,0,0,0,0,0,0,0,-1,1119,792,0,0
-98,232,0,0,0,0,0,0,0,0,0,-1,1126,792,0,0
-91,232,0,0,0,0,0,0,0,0,0,-1,1133,792,0,0
-84,232,0,0,0,0,0,0,0,0,0,-1,1140,792,0,0
-77,232,0,0,0,0,0,0,0,0,0,-1,1147,792,0,0
-70,232,0,0,0,0,0,0,0,0,0,-1,1154,792,0,0
-63,232,0,0,0,0,0,0,0,0,0,-1,1161,792,0,0
-56,232,0,0,0,0,0,0,0,0,0,-1,1168,792,0,0
-49,232,0,0,0,0,0,0,0,0,0,-1,1175,792,0,0
-42,232,0,0,0,0,0,0,0,0,0,-1,1182,792,0,0
-35,232,0,0,0,0,0,0,0,0,0,-1,1189,792,0,0
-28,232,0,0,0,0,0,0,0,0,0,-1,1196,792,0,0
-21,232,0,0,0,0,0,0,0,0,0,-1,1203,792,0,0
-14,232,0,0,0,0,0,0,0,0,0,-1,1210,792,0,0
-7,232,0,0,0,0,0,0,0,0,0,-1,1217,792,0,0
0,232,0,0,0,0,0,0,0,0,0,-1,1224,792,0,0
7,232,0,0,0,0,0,0,0,0,0,-1,1231,792,0,0
14,232,0,0,0,0,0,0,0,0,0,-1,1238,792,0,0
21,232,0,0,0,0,0,0,0,0,0,-1,1245,792,0,0
28,232,0,0,0,0,0,0,0,0,0,-1,1252,792,0,0
35,232,0,0,0,0,0,0,0,0,0,-1,1259,792,0,0
42,232,0,0,0,0,0,0,0,0,0,-1,1266,792,0,0
49,232,0,0,0,0,0,0,0,0,0,-1,1273,792,0,0
56,232,0,0,0,0,0,0,0,0,0,-1,1280,792,0,0
63,232,0,0,0,0,0,0,0,0,0,-1,1287,792,0,0
70,232,0,0,0,0,0,0,0,0,0,-1,1294,792,0,0
77,232,0,0,0,0,0,0,0,0,0,-1,1301,792,0,0
84,232,0,0,0,0,0,0,0,0,0,-1,1308,792,0,0
91,232,0,0,0,0,0,0,0,0,0,-1,1315,792,0,0
98,232,0,0,0,0,0,0,0,0,0,-1,1322,792,0,0
105,232,0,0,0,0,0,0,0,0,0,-1,1329,792,0,0
112,232,0,0,0,0,0,0,0,0,0,-1,1336,792,0,0
119,232,0,0,0,0,0,0,0,0,0,-1,1343,792,0,0
126,232,0,0,0,0,0,0,0,0,0,-1,1350,792,0,0
133,232,0,0,0,0,0,0,0,0,0,-1,1357,792,0,0
140,232,0,0,0,0,0,0,0,0,0,-1,1364,792,0,0
147,232,0,0,0,0,0,0,0,0,0,-1,1371,792,0,0
154,232,0,0,0,0,0,0,0,0,0,-1,1378,792,0,0
161,232,0,0,0,0,0,0,0,0,0,-1,1385,792,0,0
168,232,0,0,0,0,0,0,0,0,0,-1,1392,792,0,0
175,232,0,0,0,0,0,0,0,0,0,-1,1399,792,0,0
182,232,0,0,0,0,0,0,0,0,0,-1,1406,792,0,0
189,232,0,0,0,0,0,0,0,0,0,-1,1413,792,0,0
196,232,0,0,0,0,0,0,0,0,0,-1,1420,792,0,0
203,232,0,0,0,0,0,0,0,0,0,-1,1427,792,0,0
210,232,0,0,0,0,0,0,0,0,0,-1,1434,792,0,0
217,232,0,0,0,0,0,0,0,0,0,-1,1441,792,0,0
224,232,0,0,0,0,0,0,0,0,0,-1,1448,792,0,0
231,232,0,0,0,0,0,0,0,0,0,-1,1455,792,0,0
238,232,0,0,0,0,0,0,0,0,0,-1,1462,792,0,0
245,232,0,0,0,0,0,0,0,0,0,-1,1469,792,0,0
252,232,0,0,0,0,0,0,0,0,0,-1,1476,792,0,0
259,232,0,0,0,0,0,0,0,0,0,-1,1483,792,0,0
266,232,0,0,0,0,0,0,0,0,0,-1,1490,792,0,0
273,232,0,0,0,0,0,0,0,0,0,-1,1497,792,0,0
280,232,0,0,0,0,0,0,0,0,0,-1,1504,792,0,0
287,232,0,0,0,0,0,0,0,0,0,-1,1511,792,0,0
294,232,0,0,0,0,0,0,0,0,0,-1,1518,792,0,0
301,232,0,0,0,0,0,0,0,0,0,-1,1525,792,0,0
308,232,0,0,0,0,0,0,0,0,0,-1,1532,792,0,0
315,232,0,0,0,0,0,0,0,0,0,-1,1539,792,0,0
322,232,0,0,0,0,0,0,0,0,0,-1,1546,792,0,0
329,232,0,0,0,0,0,0,0,0,0,-1,1553,792,0,0
336,232,0,0,0,0,0,0,0,0,0,-1,1560,792,0,0
343,232,0,0,0,0,0,0,0,0,0,-1,1567,792,0,0
350,232,0,0,0,0,0,0,0,0,0,-1,1574,792,0,0
357,232,0,0,0,0,0,0,0,0,0,-1,1581,792,0,0
364,232,0,0,0,0,0,0,0,0,0,-1,1588,792,0,0
371,232,0,0,0,0,0,0,0,0,0,-1,1595,792,0,0
378,232,0,0,0,0,0,0,0,0,0,-1,1602,792,0,0
385,232,0,0,0,0,0,0,0,0,0,-1,1609,792,0,0
392,232,0,0,0,0,0,0,0,0,0,-1,1616,792,0,0
399,232,0,0,0,0,0,0,0,0,0,-1,1623,792,0,0
406,232,0,0,0,0,0,0,0,0,0,-1,1630,792,0,0
413,232,0,0,0,0,0,0,0,0,0,-1,1637,792,0,0
420,232,0,0,0,0,0,0,0,0,0,-1,1644,792,0,0
427,232,0,0,0,0,0,0,0,0,0,-1,1651,792,0,0
434,232,0,0,0,0,0,0,0,0,0,-1,1658,792,0,0
441,232,0,0,0,0,0,0,0,0,0,-1,1665,792,0,0
448,232,0,0,0,0,0,0,0,0,0,-1,1672,792,0,0
455,232,0,0,0,0,0,0,0,0,0,-1,1679,792,0,0
462,232,0,0,0,0,0,0,0,0,0,-1,1686,792,0,0
469,232,0,0,0,0,0,0,0,0,0,-1,1693,792,0,0
476,232,0,0,0,0,0,0,0,0,0,-1,1700,792,0,0
483,232,0,0,0,0,0,0,0,0,0,-1,1707,792,0,0
490,232,0,0,0,0,0,0,0,0,0,-1,1714,792,0,0
497,232,0,0,0,0,0,0,0,0,0,-1,1721,792,0,0
504,232,0,0,0,0,0,0,0,0,0,-1,1728,792,0,0
511,232,0,0,0,0,0,0,0,0,0,-1,1735,792,0,0
518,232,0,0,0,0,0,0,0,0,0,-1,1742,792,0,0
525,232,0,0,0,0,0,0,0,0,0,-1,1749,792,0,0
532,232,0,0,0,0,0,0,0,0,0,-1,1756,792,0,0
539,232,0,0,0,0,0,0,0,0,0,-1,1763,792,0,0
546,232,0,0,0,0,0,0,0,0,0,-1,1770,792,0,0
553,232,0,0,0,0,0,0,0,0,0,-1,1777,792,0,0
560,232,0,0,0,0,0,0,0,0,0,-1,1784,792,0,0
567,232,0,0,0,0,0,0,0,0,0,-1,1791,792,0,0
574,232,0,0,0,0,0,0,0,0,0,-1,1798,792,0,0
581,232,0,0,0,0,0,0,0,0,0,-1,1805,792,0,0
588,232,24.9124,2.8269,0.0125925,0.0028153,0.00424831,0.0141805,0.00122728,0.357718,0.00907228,0.0371708,1812,792,24.9123,-2.82691
595,232,24.8789,2.77612,0.0128862,0.00307146,0.00364416,0.0140913,0.00186638,0.31937,0.008838,0.0346581,1819,792,24.8789,-2.77613
602,232,24.9377,2.72723,0.0109226,0.00330467,0.00273379,0.0118021,0.00242516,0.311261,0.00719721,0.0340341,1826,792,24.9378,-2.72725
609,232,24.9663,2.85748,0.00781461,0.00322947,0.00143512,0.00822675,0.00281733,0.279655,0.00482766,0.0409903,1833,792,24.9663,-2.85751
616,232,24.8577,2.99719,0.00463792,0.00300007,0.000207215,0.00466373,0.00297427,0.123916,0.00272645,0.0458643,1840,792,24.8577,-2.9972
623,232,24.7421,2.89337,0.00191894,0.00277844,-0.000775126,0.00323498,0.0014624,-1.03852,0.00187058,0.0419603,1847,792,24.742,-2.89335
630,232,24.9208,2.78473,-0.000144298,0.00239367,-0.0015409,0.00312086,-0.000871486,-1.12986,0.00242387,0.0455865,1854,792,24.9208,-2.7847
637,232,25.3542,2.87726,0,0,0,0,0,0,0,-1,1861,792,25.3542,-2.87723
644,232,18.8917,1.35565,0,0,0,0,0,0,0,-1,1868,792,18.8917,-1.35563
651,232,18.6281,1.35785,-0.00488094,0.00177429,-0.00285806,0.00283319,-0.00593984,-1.21598,0.00516989,0.0494938,1875,792,18.6281,-1.35786
658,232,18.2988,1.25104,-0.00513866,0.00161114,-0.00314474,0.00284919,-0.00637671,-1.19574,0.00545481,0.0264337,1882,792,18.2989,-1.25105
665,232,18.2786,1.46442,-0.0048046,0.00133093,-0.00326024,0.00273981,-0.00621348,-1.16289,0.00529728,0.0116376,1889,792,18.2786,-1.46444
672,232,18.2739,1.73981,-0.00360935,0.000916234,-0.00266845,0.00215214,-0.00484525,-1.13706,0.00413848,0.0178826,1896,792,18.2739,-1.7398
679,232,18.2869,2.02881,-0.00254321,0.000432668,-0.00196685,0.00141099,-0.00352153,-1.10923,0.0029334,0.0198618,1903,792,18.2868,-2.02879
686,232,18.2738,2.32489,-0.000730895,0.000496441,-0.00154404,0.00154429,-0.00177874,-0.974549,0.00192014,0.017656,1910,792,18.2739,-2.32488
693,232,18.2777,2.58954,0.00242309,0.00108519,-0.00193554,0.00380202,-0.000293742,-0.619018,0.00263805,0.0101831,1917,792,18.2777,-2.58953
700,232,18.2999,2.84979,0.00609265,0.00198494,-0.00276636,0.00748423,0.000593351,-0.466076,0.00480393,0.0129546,1924,792,18.2999,-2.84977
707,232,18.3016,3.11182,0.0101997,0.00339015,-0.00379363,0.0118924,0.00169746,-0.419682,0.00742739,0.0131315,1931,792,18.3016,-3.11181
714,232,18.2794,3.37512,0.0147769,0.00575971,-0.00584899,0.0176533,0.00288332,-0.457046,0.0109352,0.0132087,1938,792,18.2794,-3.3751
721,232,18.2759,3.62659,0.020355,0.00900839,-0.00902007,0.0253376,0.00402581,-0.504675,0.0157225,0.0191268,1945,792,18.2759,-3.62659
728,232,18.2686,3.78601,0.0273079,0.0135763,-0.0134974,0.0355854,0.00529879,-0.550117,0.0221695,0.034957,1952,792,18.2686,-3.78603
735,232,18.4749,4.18188,0,0,0,0,0,0,0,-1,1959,792,18.4749,-4.1819
742,232,20.0389,3.56897,0.0471934,0.0285358,-0.0284492,0.0678042,0.00792494,-0.626967,0.0428064,0.0488949,1966,792,20.0389,-3.56898
749,232,20.6488,3.64832,0.0607278,0.0400051,-0.0400577,0.0917425,0.00899049,-0.658842,0.058396,0.0449425,1973,792,20.6489,-3.64829
756,232,21.2556,3.64197,0,0,0,0,0,0,0,-1,1980,792,21.2556,-3.64196
763,232,19.2281,3.3761,0,0,0,0,0,0,0,-1,1987,792,19.2281,-3.37607
770,232,0,0,0,0,0,0,0,0,0,-1,1994,792,0,0
777,232,0,0,0,0,0,0,0,0,0,-1,2001,792,0,0
784,232,0,0,0,0,0,0,0,0,0,-1,2008,792,0,0
791,232,0,0,0,0,0,0,0,0,0,-1,2015,792,0,0
798,232,0,0,0,0,0,0,0,0,0,-1,2022,792,0,0
805,232,0,0,0,0,0,0,0,0,0,-1,2029,792,0,0
812,232,0,0,0,0,0,0,0,0,0,-1,2036,792,0,0
-700,225,0,0,0,0,0,0,0,0,0,-1,524,799,0,0
-693,225,0,0,0,0,0,0,0,0,0,-1,531,799,0,0
-686,225,0,0,0,0,0,0,0,0,0,-1,538,799,0,0
-679,225,0,0,0,0,0,0,0,0,0,-1,545,799,0,0
-672,225,0,0,0,0,0,0,0,0,0,-1,552,799,0,0
-665,225,0,0,0,0,0,0,0,0,0,-1,559,799,0,0
-658,225,0,0,0,0,0,0,0,0,0,-1,566,799,0,0
-651,225,0,0,0,0,0,0,0,0,0,-1,573,799,0,0
-644,225,-12.1339,1.90027,0,0,0,0,0,0,0,-1,580,799,-12.1338,-1.90025
-637,225,-12.917,2.25183,0,0,0,0,0,0,0,-1,587,799,-12.917,-2.25181
-630,225,-16.3494,5.33722,0,0,0,0,0,0,0,-1,594,799,-16.3493,-5.33719
-623,225,-15.7315,4.7688,0,0,0,0,0,0,0,-1,601,799,-15.7315,-4.76881
-616,225,-15.1396,4.58997,0,0,0,0,0,0,0,-1,608,799,-15.1397,-4.58997
-609,225,-11.8699,1.95618,0,0,0,0,0,0,0,-1,615,799,-11.8699,-1.95616
-602,225,-12.3052,1.46973,-0.00747451,0.00814633,-0.020963,0.0227066,-0.0220348,-0.963722,0.0258325,0.047168,622,799,-12.3051,-1.46972
-595,225,-11.8834,1.51807,-0.00330762,0.00536029,-0.012626,0.0143755,-0.0123228,-0.950725,0.0154294,0.0282106,629,799,-11.8833,-1.51804
-588,225,-11.8445,1.24054,0.000133818,0.0023477,-0.0056743,0.00702202,-0.0045405,-0.881728,0.00672668,0.0121658,636,799,-11.8446,-1.24055
-581,225,-11.8218,0.997559,0.00178179,0.000791018,-0.001848,0.00319965,-0.000626839,-0.654444,0.00236984,0.0104909,643,799,-11.8219,-0.997543
-574,225,-11.8218,0.748047,0.00158182,0.00014313,-0.000411914,0.00169141,3.35413e-05,-0.260023,0.00111659,0.00848585,650,799,-11.8218,-0.748051
-567,225,-11.8524,0.491882,0.000937739,-0.000325535,0.000620793,0.00119174,-0.000579533,0.38837,0.00104281,0.00985938,657,799,-11.8524,-0.491876
-560,225,-11.8481,0.254883,0.00039353,-0.000721519,0.00129431,0.00124529,-0.00157327,0.582032,0.00163096,0.0102515,664,799,-11.8481,-0.254853
-553,225,-11.857,-0.00775146,-0.000134612,-0.000924485,0.0017201,0.00123531,-0.00229441,0.672554,0.00206824,0.0107419,671,799,-11.857,0.00772468
-546,225,-11.9254,-0.25824,-0.000640009,-0.00111902,0.00178565,0.00092213,-0.00268115,0.718733,0.00216141,0.0196666,678,799,-11.9254,0.258264
-539,225,-11.8951,-0.530212,-0.000842641,-0.0015321,0.00175494,0.000601103,-0.00297585,0.688416,0.00221166,0.0251564,685,799,-11.8951,0.530208
-532,225,-11.8868,-0.780212,-0.00081101,-0.00180649,0.00146638,0.000239808,-0.0028573,0.621783,0.00198963,0.0198962,692,799,-11.8868,0.780189
-525,225,-12.0579,-0.768372,-0.000509778,-0.00173651,0.00102139,6.82643e-05,-0.00231455,0.514997,0.00156628,0.0442488,699,799,-12.0579,0.768366
-518,225,-12.3245,-0.623291,0.00012457,-0.00194977,0.000314542,0.000171217,-0.00199642,0.147227,0.00139153,0.0432885,706,799,-12.3245,0.623298
-511,225,-12.6033,-0.808533,0,0,0,0,0,0,0,-1,713,799,-12.6033,0.808541
-504,225,-12.7021,-1.34558,0,0,0,0,0,0,0,-1,720,799,-12.7022,1.34557
-497,225,-17.5396,0.921631,0.00331919,-0.00233199,-0.00272583,0.00441968,-0.00343248,-0.383714,0.00454537,0.0424,727,799,-17.5396,-0.921646
-490,225,-17.381,0.955811,0.00512633,-0.0023985,-0.00422904,0.00702435,-0.00429653,-0.421861,0.00659906,0.0367916,734,799,-17.3811,-0.9558
-483,225,-17.3457,0.990234,0.00752828,-0.00239788,-0.00594739,0.0103114,-0.005181,-0.437686,0.00910656,0.0329927,741,799,-17.3457,-0.990233
-476,225,-17.2468,1.06525,0.0104898,-0.00230986,-0.00776359,0.0141513,-0.0059714,-0.440695,0.0119335,0.0310559,748,799,-17.2468,-1.06527
-469,225,-17.1175,1.06818,0.0136142,-0.00253993,-0.00910288,0.0177069,-0.00663255,-0.422518,0.0145291,0.0356843,755,799,-17.1175,-1.06819
-462,225,0,0,0,0,0,0,0,0,0,-1,762,799,0,0
-455,225,0,0,0,0,0,0,0,0,0,-1,769,799,0,0
-448,225,0,0,0,0,0,0,0,0,0,-1,776,799,0,0
-441,225,0,0,0,0,0,0,0,0,0,-1,783,799,0,0
-434,225,0,0,0,0,0,0,0,0,0,-1,790,799,0,0
-427,225,0,0,0,0,0,0,0,0,0,-1,797,799,0,0
-420,225,0,0,0,0,0,0,0,0,0,-1,804,799,0,0
-413,225,0,0,0,0,0,0,0,0,0,-1,811,799,0,0
-406,225,0,0,0,0,0,0,0,0,0,-1,818,799,0,0
-399,225,0,0,0,0,0,0,0,0,0,-1,825,799,0,0
-392,225,0,0,0,0,0,0,0,0,0,-1,832,799,0,0
-385,225,0,0,0,0,0,0,0,0,0,-1,839,799,0,0
-378,225,0,0,0,0,0,0,0,0,0,-1,846,799,0,0
-371,225,0,0,0,0,0,0,0,0,0,-1,853,799,0,0
-364,225,0,0,0,0,0,0,0,0,0,-1,860,799,0,0
-357,225,0,0,0,0,0,0,0,0,0,-1,867,799,0,0
-350,225,0,0,0,0,0,0,0,0,0,-1,874,799,0,0
-343,225,0,0,0,0,0,0,0,0,0,-1,881,799,0,0
-336,225,0,0,0,0,0,0,0,0,0,-1,888,799,0,0
-329,225,0,0,0,0,0,0,0,0,0,-1,895,799,0,0
-322,225,0,0,0,0,0,0,0,0,0,-1,902,799,0,0
-315,225,0,0,0,0,0,0,0,0,0,-1,909,799,0,0
-308,225,0,0,0,0,0,0,0,0,0,-1,916,799,0,0
-301,225,0,0,0,0,0,0,0,0,0,-1,923,799,0,0
-294,225,0,0,0,0,0,0,0,0,0,-1,930,799,0,0
-287,225,0,0,0,0,0,0,0,0,0,-1,937,799,0,0
-280,225,0,0,0,0,0,0,0,0,0,-1,944,799,0,0
-273,225,0,0,0,0,0,0,0,0,0,-1,951,799,0,0
-266,225,0,0,0,0,0,0,0,0,0,-1,958,799,0,0
-259,225,0,0,0,0,0,0,0,0,0,-1,965,799,0,0
-252,225,0,0,0,0,0,0,0,0,0,-1,972,799,0,0
-245,225,0,0,0,0,0,0,0,0,0,-1,979,799,0,0
-238,225,0,0,0,0,0,0,0,0,0,-1,986,799,0,0
-231,225,0,0,0,0,0,0,0,0,0,-1,993,799,0,0
-224,225,0,0,0,0,0,0,0,0,0,-1,1000,799,0,0
-217,225,0,0,0,0,0,0,0,0,0,-1,1007,799,0,0
-210,225,0,0,0,0,0,0,0,0,0,-1,1014,799,0,0
-203,225,0,0,0,0,0,0,0,0,0,-1,1021,799,0,0
-196,225,0,0,0,0,0,0,0,0,0,-1,1028,799,0,0
-189,225,0,0,0,0,0,0,0,0,0,-1,1035,799,0,0
-182,225,0,0,0,0,0,0,0,0,0,-1,1042,799,0,0
-175,225,0,0,0,0,0,0,0,0,0,-1,1049,799,0,0
-168,225,0,0,0,0,0,0,0,0,0,-1,1056,799,0,0
-161,225,0,0,0,0,0,0,0,0,0,-1,1063,799,0,0
-154,225,0,0,0,0,0,0,0,0,0,-1,1070,799,0,0
-147,225,0,0,0,0,0,0,0,0,0,-1,1077,799,0,0
-140,225,0,0,0,0,0,0,0,0,0,-1,1084,799,0,0
-133,225,0,0,0,0,0,0,0,0,0,-1,1091,799,0,0
-126,225,0,0,0,0,0,0,0,0,0,-1,1098,799,0,0
-119,225,0,0,0,0,0,0,0,0,0,-1,1105,799,0,0
-112,225,0,0,0,0,0,0,0,0,0,-1,1112,799,0,0
-105,225,0,0,0,0,0,0,0,0,0,-1,1119,799,0,0
-98,225,0,0,0,0,0,0,0,0,0,-1,1126,799,0,0
-91,225,0,0,0,0,0,0,0,0,0,-1,1133,799,0,0
-84,225,0,0,0,0,0,0,0,0,0,-1,1140,799,0,0
-77,225,0,0,0,0,0,0,0,0,0,-1,1147,799,0,0
-70,225,0,0,0,0,0,0,0,0,0,-1,1154,799,0,0
-63,225,0,0,0,0,0,0,0,0,0,-1,1161,799,0,0
-56,225,0,0,0,0,0,0,0,0,0,-1,1168,799,0,0
-49,225,0,0,0,0,0,0,0,0,0,-1,1175,799,0,0
-42,225,0,0,0,0,0,0,0,0,0,-1,1182,799,0,0
-35,225,0,0,0,0,0,0,0,0,0,-1,1189,799,0,0
-28,225,0,0,0,0,0,0,0,0,0,-1,1196,799,0,0
-21,225,0,0,0,0,0,0,0,0,0,-1,1203,799,0,0
-14,225,0,0,0,0,0,0,0,0,0,-1,1210,799,0,0
-7,225,0,0,0,0,0,0,0,0,0,-1,1217,799,0,0
0,225,0,0,0,0,0,0,0,0,0,-1,1224,799,0,0
7,225,0,0,0,0,0,0,0,0,0,-1,1231,799,0,0
14,225,0,0,0,0,0,0,0,0,0,-1,1238,799,0,0
21,225,0,0,0,0,0,0,0,0,0,-1,1245,799,0,0
28,225,0,0,0,0,0,0,0,0,0,-1,1252,799,0,0
35,225,0,0,0,0,0,0,0,0,0,-1,1259,799,0,0
42,225,0,0,0,0,0,0,0,0,0,-1,1266,799,0,0
49,225,0,0,0,0,0,0,0,0,0,-1,1273,799,0,0
56,225,0,0,0,0,0,0,0,0,0,-1,1280,799,0,0
63,225,0,0,0,0,0,0,0,0,0,-1,1287,799,0,0
70,225,0,0,0,0,0,0,0,0,0,-1,1294,799,0,0
77,225,0,0,0,0,0,0,0,0,0,-1,1301,799,0,0
84,225,0,0,0,0,0,0,0,0,0,-1,1308,799,0,0
91,225,0,0,0,0,0,0,0,0,0,-1,1315,799,0,0
98,225,0,0,0,0,0,0,0,0,0,-1,1322,799,0,0
105,225,0,0,0,0,0,0,0,0,0,-1,1329,799,0,0
112,225,0,0,0,0,0,0,0,0,0,-1,1336,799,0,0
119,225,0,0,0,0,0,0,0,0,0,-1,1343,799,0,0
126,225,0,0,0,0,0,0,0,0,0,-1,1350,799,0,0
133,225,0,0,0,0,0,0,0,0,0,-1,1357,799,0,0
140,225,0,0,0,0,0,0,0,0,0,-1,1364,799,0,0
147,225,0,0,0,0,0,0,0,0,0,-1,1371,799,0,0
154,225,0,0,0,0,0,0,0,0,0,-1,1378,799,0,0
161,225,0,0,0,0,0,0,0,0,0,-1,1385,799,0,0
168,225,0,0,0,0,0,0,0,0,0,-1,1392,799,0,0
175,225,0,0,0,0,0,0,0,0,0,-1,1399,799,0,0
182,225,0,0,0,0,0,0,0,0,0,-1,1406,799,0,0
189,225,0,0,0,0,0,0,0,0,0,-1,1413,799,0,0
196,225,0,0,0,0,0,0,0,0,0,-1,1420,799,0,0
203,225,0,0,0,0,0,0,0,0,0,-1,1427,799,0,0
210,225,0,0,0,0,0,0,0,0,0,-1,1434,799,0,0
217,225,0,0,0,0,0,0,0,0,0,-1,1441,799,0,0
224,225,0,0,0,0,0,0,0,0,0,-1,1448,799,0,0
231,225,0,0,0,0,0,0,0,0,0,-1,1455,799,0,0
238,225,0,0,0,0,0,0,0,0,0,-1,1462,799,0,0
245,225,0,0,0,0,0,0,0,0,0,-1,1469,799,0,0
252,225,0,0,0,0,0,0,0,0,0,-1,1476,799,0,0
259,225,0,0,0,0,0,0,0,0,0,-1,1483,799,0,0
266,225,0,0,0,0,0,0,0,0,0,-1,1490,799,0,0
273,225,0,0,0,0,0,0,0,0,0,-1,1497,799,0,0
280,225,0,0,0,0,0,0,0,0,0,-1,1504,799,0,0
287,225,0,0,0,0,0,0,0,0,0,-1,1511,799,0,0
294,225,0,0,0,0,0,0,0,0,0,-1,1518,799,0,0
301,225,0,0,0,0,0,0,0,0,0,-1,1525,799,0,0
308,225,0,0,0,0,0,0,0,0,0,-1,1532,799,0,0
315,225,0,0,0,0,0,0,0,0,0,-1,1539,799,0,0
322,225,0,0,0,0,0,0,0,0,0,-1,1546,799,0,0
329,225,0,0,0,0,0,0,0,0,0,-1,1553,799,0,0
336,225,0,0,0,0,0,0,0,0,0,-1,1560,799,0,0
343,225,0,0,0,0,0,0,0,0,0,-1,1567,799,0,0
350,225,0,0,0,0,0,0,0,0,0,-1,1574,799,0,0
357,225,0,0,0,0,0,0,0,0,0,-1,1581,799,0,0
364,225,0,0,0,0,0,0,0,0,0,-1,1588,799,0,0
371,225,0,0,0,0,0,0,0,0,0,-1,1595,799,0,0
378,225,0,0,0,0,0,0,0,0,0,-1,1602,799,0,0
385,225,0,0,0,0,0,0,0,0,0,-1,1609,799,0,0
392,225,0,0,0,0,0,0,0,0,0,-1,1616,799,0,0
399,225,0,0,0,0,0,0,0,0,0,-1,1623,799,0,0
406,225,0,0,0,0,0,0,0,0,0,-1,1630,799,0,0
413,225,0,0,0,0,0,0,0,0,0,-1,1637,799,0,0
420,225,0,0,0,0,0,0,0,0,0,-1,1644,799,0,0
427,225,0,0,0,0,0,0,0,0,0,-1,1651,799,0,0
434,225,0,0,0,0,0,0,0,0,0,-1,1658,799,0,0
441,225,0,0,0,0,0,0,0,0,0,-1,1665,799,0,0
448,225,0,0,0,0,0,0,0,0,0,-1,1672,799,0,0
455,225,0,0,0,0,0,0,0,0,0,-1,1679,799,0,0
462,225,0,0,0,0,0,0,0,0,0,-1,1686,799,0,0
469,225,0,0,0,0,0,0,0,0,0,-1,1693,799,0,0
476,225,0,0,0,0,0,0,0,0,0,-1,1700,799,0,0
483,225,0,0,0,0,0,0,0,0,0,-1,1707,799,0,0
490,225,0,0,0,0,0,0,0,0,0,-1,1714,799,0,0
497,225,0,0,0,0,0,0,0,0,0,-1,1721,799,0,0
504,225,0,0,0,0,0,0,0,0,0,-1,1728,799,0,0
511,225,0,0,0,0,0,0,0,0,0,-1,1735,799,0,0
518,225,0,0,0,0,0,0,0,0,0,-1,1742,799,0,0
525,225,0,0,0,0,0,0,0,0,0,-1,1749,799,0,0
532,225,0,0,0,0,0,0,0,0,0,-1,1756,799,0,0
539,225,0,0,0,0,0,0,0,0,0,-1,1763,799,0,0
546,225,0,0,0,0,0,0,0,0,0,-1,1770,799,0,0
553,225,0,0,0,0,0,0,0,0,0,-1,1777,799,0,0
560,225,0,0,0,0,0,0,0,0,0,-1,1784,799,0,0
567,225,0,0,0,0,0,0,0,0,0,-1,1791,799,0,0
574,225,0,0,0,0,0,0,0,0,0,-1,1798,799,0,0
581,225,0,0,0,0,0,0,0,0,0,-1,1805,799,0,0
588,225,24.9928,2.8219,0.00737366,0.00197521,0.00416073,0.00963403,-0.000285152,0.497654,0.00651981,0.0368325,1812,799,24.9929,-2.8219
595,225,25.0031,2.82422,0.00833865,0.00199351,0.00367075,0.0100178,0.000314314,0.429034,0.0065763,0.0346395,1819,799,25.0031,-2.82422
602,225,24.9675,2.76624,0.00739897,0.00243193,0.00297922,0.00879406,0.00103684,0.437946,0.00554948,0.0334697,1826,799,24.9675,-2.76625
609,225,24.9431,2.87756,0.00487066,0.00283234,0.00168193,0.00581812,0.00188488,0.513009,0.00342778,0.0322117,1833,799,24.9431,-2.87758
616,225,24.8815,2.93707,0.00213953,0.00296954,0.000346115,0.00309493,0.00201414,1.22323,0.00181374,0.0371295,1840,799,24.8815,-2.9371
623,225,24.9633,2.87756,-0.000225669,0.00303353,-0.000722437,0.00318649,-0.000378626,-1.36215,0.00226113,0.0382002,1847,799,24.9632,-2.87754
630,225,25.1169,2.81714,-0.00203846,0.00284648,-0.00153294,0.00328768,-0.00247966,-1.29056,0.00334066,0.042323,1854,799,25.117,-2.81711
637,225,25.3259,2.76245,0,0,0,0,0,0,0,-1,1861,799,25.326,-2.76246
644,225,19.2939,1.42822,0,0,0,0,0,0,0,-1,1868,799,19.294,-1.42823
651,225,19.0839,1.46301,-0.00565596,0.00233696,-0.00276769,0.00320175,-0.00652076,-1.26795,0.00572128,0.0461941,1875,799,19.0838,-1.46302
658,225,18.8536,1.47394,-0.00583975,0.00212632,-0.0030412,0.00315461,-0.00686805,-1.24474,0.0059175,0.0399457,1882,799,18.8536,-1.47397
665,225,18.5862,1.45758,-0.00551048,0.00180475,-0.00314911,0.00297363,-0.00667935,-1.21538,0.0057084,0.0151094,1889,799,18.5862,-1.45756
672,225,18.5525,1.76758,-0.00448803,0.00130229,-0.00266366,0.00234122,-0.00552695,-1.19891,0.00466516,0.0170774,1896,799,18.5525,-1.76757
679,225,18.5503,2.08533,-0.00363561,0.000744833,-0.00205088,0.00155514,-0.00444592,-1.19452,0.00359622,0.0182609,1903,799,18.5504,-2.08533
686,225,18.5472,2.33777,-0.00206355,0.000676873,-0.00167081,0.00146747,-0.00285414,-1.12883,0.00253754,0.0110055,1910,799,18.5473,-2.33776
693,225,18.5492,2.58466,0.000739704,0.00101969,-0.00201821,0.00290275,-0.00114336,-0.820025,0.00240852,0.00996449,1917,799,18.5492,-2.58465
700,225,18.5585,2.84863,0.00397538,0.00159218,-0.00273091,0.00576334,-0.000195784,-0.579681,0.00390912,0.0118506,1924,799,18.5585,-2.84863
707,225,18.5531,3.12073,0.00758525,0.00260856,-0.00354827,0.00943073,0.000763076,-0.479604,0.00604886,0.0123907,1931,799,18.5531,-3.1207
714,225,18.5522,3.39209,0.0113477,0.00459266,-0.0053348,0.0142842,0.00165608,-0.503194,0.00902161,0.0131302,1938,799,18.5523,-3.39208
721,225,18.5847,3.64404,0.0159091,0.00724014,-0.00810785,0.0207684,0.00238087,-0.539925,0.0131241,0.0142493,1945,799,18.5847,-3.64405
728,225,18.5607,3.82959,0.0214946,0.0108521,-0.0119463,0.0292512,0.00309547,-0.575874,0.0185552,0.0240586,1952,799,18.5606,-3.82959
735,225,18.6676,4.12268,0.0285391,0.0157681,-0.0172537,0.0405511,0.00375615,-0.608166,0.025873,0.0469051,1959,799,18.6676,-4.12268
742,225,18.7371,4.35272,0,0,0,0,0,0,0,-1,1966,799,18.7371,-4.35272
749,225,21.5807,3.21588,0,0,0,0,0,0,0,-1,1973,799,21.5806,-3.21591
756,225,18.5997,3.42017,0,0,0,0,0,0,0,-1,1980,799,18.5997,-3.42016
763,225,19.2461,3.74969,0,0,0,0,0,0,0,-1,1987,799,19.2461,-3.74967
770,225,0,0,0,0,0,0,0,0,0,-1,1994,799,0,0
777,225,0,0,0,0,0,0,0,0,0,-1,2001,799,0,0
784,225,0,0,0,0,0,0,0,0,0,-1,2008,799,0,0
791,225,0,0,0,0,0,0,0,0,0,-1,2015,799,0,0
798,225,0,0,0,0,0,0,0,0,0,-1,2022,799,0,0
805,225,0,0,0,0,0,0,0,0,0,-1,2029,799,0,0
812,225,0,0,0,0,0,0,0,0,0,-1,2036,799,0,0
-700,218,0,0,0,0,0,0,0,0,0,-1,524,806,0,0
-693,218,0,0,0,0,0,0,0,0,0,-1,531,806,0,0
-686,218,0,0,0,0,0,0,0,0,0,-1,538,806,0,0
-679,218,0,0,0,0,0,0,0,0,0,-1,545,806,0,0
-672,218,0,0,0,0,0,0,0,0,0,-1,552,806,0,0
-665,218,0,0,0,0,0,0,0,0,0,-1,559,806,0,0
-658,218,0,0,0,0,0,0,0,0,0,-1,566,806,0,0
-651,218,-11.6475,2.41718,0,0,0,0,0,0,0,-1,573,806,-11.6475,-2.41717
-644,218,-16.764,6.88428,0,0,0,0,0,0,0,-1,580,806,-16.764,-6.88428
-637,218,-17.629,5.78723,0,0,0,0,0,0,0,-1,587,806,-17.629,-5.78726
-630,218,-9.79889,3.94275,0,0,0,0,0,0,0,-1,594,806,-9.79888,-3.94275
-623,218,-16.3676,4.71802,0,0,0,0,0,0,0,-1,601,806,-16.3676,-4.71802
-616,218,-12.1453,1.92865,0,0,0,0,0,0,0,-1,608,806,-12.1453,-1.92866
-609,218,-12.1276,1.83435,-0.0130588,0.0169888,-0.0327215,0.0379706,-0.0340407,-1.00061,0.0415964,0.0499788,615,806,-12.1276,-1.83436
-602,218,-12.1058,1.65289,-0.00758977,0.0124531,-0.0218254,0.0264479,-0.0215845,-1.00062,0.0277789,0.0378502,622,806,-12.1058,-1.65291
-595,218,-12.1215,1.44379,-0.00365098,0.00851172,-0.013431,0.017174,-0.0123133,-0.997981,0.0171014,0.0167785,629,806,-12.1215,-1.4438
-588,218,-12.0993,1.2356,-0.000245387,0.00423116,-0.00641264,0.00878492,-0.00479915,-0.953308,0.00795451,0.01105,636,806,-12.0993,-1.23559
-581,218,-12.0928,1.00928,0.00157379,0.00173949,-0.00233938,0.00399749,-0.000684201,-0.803099,0.0029199,0.0103913,643,806,-12.0928,-1.00929
-574,218,-12.0988,0.758301,0.00154411,0.000623521,-0.000629694,0.00186381,0.000303825,-0.469789,0.00115467,0.00954001,650,806,-12.0988,-0.758326
-567,218,-12.0854,0.491577,0.00101847,1.70498e-05,0.000539435,0.00125376,-0.000218243,0.411305,0.000917286,0.0159526,657,806,-12.0855,-0.491567
-560,218,-12.09,0.259888,0.000596256,-0.000315934,0.00127343,0.00149281,-0.00121248,0.613434,0.00156469,0.0160596,664,806,-12.0901,-0.259901
-553,218,-12.0823,0.00378418,0.000125467,-0.000320634,0.00171924,0.00163607,-0.00183124,0.72089,0.00200291,0.0164301,671,806,-12.0823,-0.00377623
-546,218,-12.1174,-0.284729,-0.000306527,-0.000241655,0.00171666,0.00144287,-0.00199106,0.794844,0.00199098,0.0145547,678,806,-12.1174,0.284758
-539,218,-12.1314,-0.554016,-0.000446005,-0.000357987,0.00164274,0.00124134,-0.00204533,0.79879,0.00191639,0.0210206,685,806,-12.1314,0.55401
-532,218,-12.1727,-0.713806,-0.000398987,-0.000391563,0.00130042,0.000905146,-0.0016957,0.786826,0.00152454,0.0257665,692,806,-12.1727,0.71383
-525,218,-12.3506,-0.847717,0,0,0,0,0,0,0,-1,699,806,-12.3506,0.847723
-518,218,-12.8956,-0.579529,0,0,0,0,0,0,0,-1,706,806,-12.8956,0.579537
-511,218,-13.1632,-0.27771,0,0,0,0,0,0,0,-1,713,806,-13.1632,0.277707
-504,218,-17.1465,1.13208,0.00201807,-0.000122515,-0.0016293,0.00289717,-0.00100162,-0.494792,0.00233797,0.0483984,720,806,-17.1465,-1.13208
-497,218,-17.1868,1.09094,0.00323387,-0.000136077,-0.00289795,0.0049011,-0.0018033,-0.522069,0.00400615,0.0463347,727,806,-17.1868,-1.09093
-490,218,-17.2283,1.01062,0.00498545,-0.000168051,-0.00447253,0.00757041,-0.002753,-0.524057,0.00617275,0.0353429,734,806,-17.2284,-1.01061
-483,218,-17.3245,0.942627,0.00739043,-0.000152164,-0.00627328,0.0109387,-0.00370048,-0.514759,0.0087896,0.0327238,741,806,-17.3245,-0.942619
-476,218,-17.3411,0.902893,0.0102928,-2.91418e-05,-0.00806621,0.0147078,-0.00444416,-0.500804,0.0115746,0.0358218,748,806,-17.3411,-0.902882
-469,218,0,0,0,0,0,0,0,0,0,-1,755,806,0,0
-462,218,0,0,0,0,0,0,0,0,0,-1,762,806,0,0
-455,218,0,0,0,0,0,0,0,0,0,-1,769,806,0,0
-448,218,0,0,0,0,0,0,0,0,0,-1,776,806,0,0
-441,218,0,0,0,0,0,0,0,0,0,-1,783,806,0,0
-434,218,0,0,0,0,0,0,0,0,0,-1,790,806,0,0
-427,218,0,0,0,0,0,0,0,0,0,-1,797,806,0,0
-420,218,0,0,0,0,0,0,0,0,0,-1,804,806,0,0
-413,218,0,0,0,0,0,0,0,0,0,-1,811,806,0,0
-406,218,0,0,0,0,0,0,0,0,0,-1,818,806,0,0
-399,218,0,0,0,0,0,0,0,0,0,-1,825,806,0,0
-392,218,0,0,0,0,0,0,0,0,0,-1,832,806,0,0
-385,218,0,0,0,0,0,0,0,0,0,-1,839,806,0,0
-378,218,0,0,0,0,0,0,0,0,0,-1,846,806,0,0
-371,218,0,0,0,0,0,0,0,0,0,-1,853,806,0,0
-364,218,0,0,0,0,0,0,0,0,0,-1,860,806,0,0
-357,218,0,0,0,0,0,0,0,0,0,-1,867,806,0,0
-350,218,0,0,0,0,0,0,0,0,0,-1,874,806,0,0
-343,218,0,0,0,0,0,0,0,0,0,-1,881,806,0,0
-336,218,0,0,0,0,0,0,0,0,0,-1,888,806,0,0
-329,218,0,0,0,0,0,0,0,0,0,-1,895,806,0,0
-322,218,0,0,0,0,0,0,0,0,0,-1,902,806,0,0
-315,218,0,0,0,0,0,0,0,0,0,-1,909,806,0,0
-308,218,0,0,0,0,0,0,0,0,0,-1,916,806,0,0
-301,218,0,0,0,0,0,0,0,0,0,-1,923,806,0,0
-294,218,0,0,0,0,0,0,0,0,0,-1,930,806,0,0
-287,218,0,0,0,0,0,0,0,0,0,-1,937,806,0,0
-280,218,0,0,0,0,0,0,0,0,0,-1,944,806,0,0
-273,218,0,0,0,0,0,0,0,0,0,-1,951,806,0,0
-266,218,0,0,0,0,0,0,0,0,0,-1,958,806,0,0
-259,218,0,0,0,0,0,0,0,0,0,-1,965,806,0,0
-252,218,0,0,0,0,0,0,0,0,0,-1,972,806,0,0
-245,218,0,0,0,0,0,0,0,0,0,-1,979,806,0,0
-238,218,0,0,0,0,0,0,0,0,0,-1,986,806,0,0
-231,218,0,0,0,0,0,0,0,0,0,-1,993,806,0,0
-224,218,0,0,0,0,0,0,0,0,0,-1,1000,806,0,0
-217,218,0,0,0,0,0,0,0,0,0,-1,1007,806,0,0
-210,218,0,0,0,0,0,0,0,0,0,-1,1014,806,0,0
-203,218,0,0,0,0,0,0,0,0,0,-1,1021,806,0,0
-196,218,0,0,0,0,0,0,0,0,0,-1,1028,806,0,0
-189,218,0,0,0,0,0,0,0,0,0,-1,1035,806,0,0
-182,218,0,0,0,0,0,0,0,0,0,-1,1042,806,0,0
-175,218,0,0,0,0,0,0,0,0,0,-1,1049,806,0,0
-168,218,0,0,0,0,0,0,0,0,0,-1,1056,806,0,0
-161,218,0,0,0,0,0,0,0,0,0,-1,1063,806,0,0
-154,218,0,0,0,0,0,0,0,0,0,-1,1070,806,0,0
-147,218,0,0,0,0,0,0,0,0,0,-1,1077,806,0,0
-140,218,0,0,0,0,0,0,0,0,0,-1,1084,806,0,0
-133,218,0,0,0,0,0,0,0,0,0,-1,1091,806,0,0
-126,218,0,0,0,0,0,0,0,0,0,-1,1098,806,0,0
-119,218,0,0,0,0,0,0,0,0,0,-1,1105,806,0,0
-112,218,0,0,0,0,0,0,0,0,0,-1,1112,806,0,0
-105,218,0,0,0,0,0,0,0,0,0,-1,1119,806,0,0
-98,218,0,0,0,0,0,0,0,0,0,-1,1126,806,0,0
-91,218,0,0,0,0,0,0,0,0,0,-1,1133,806,0,0
-84,218,0,0,0,0,0,0,0,0,0,-1,1140,806,0,0
-77,218,0,0,0,0,0,0,0,0,0,-1,1147,806,0,0
-70,218,0,0,0,0,0,0,0,0,0,-1,1154,806,0,0
-63,218,0,0,0,0,0,0,0,0,0,-1,1161,806,0,0
-56,218,0,0,0,0,0,0,0,0,0,-1,1168,806,0,0
-49,218,0,0,0,0,0,0,0,0,0,-1,1175,806,0,0
-42,218,0,0,0,0,0,0,0,0,0,-1,1182,806,0,0
-35,218,0,0,0,0,0,0,0,0,0,-1,1189,806,0,0
-28,218,0,0,0,0,0,0,0,0,0,-1,1196,806,0,0
-21,218,0,0,0,0,0,0,0,0,0,-1,1203,806,0,0
-14,218,0,0,0,0,0,0,0,0,0,-1,1210,806,0,0
-7,218,0,0,0,0,0,0,0,0,0,-1,1217,806,0,0
0,218,0,0,0,0,0,0,0,0,0,-1,1224,806,0,0
7,218,0,0,0,0,0,0,0,0,0,-1,1231,806,0,0
14,218,0,0,0,0,0,0,0,0,0,-1,1238,806,0,0
21,218,0,0,0,0,0,0,0,0,0,-1,1245,806,0,0
28,218,0,0,0,0,0,0,0,0,0,-1,1252,806,0,0
35,218,0,0,0,0,0,0,0,0,0,-1,1259,806,0,0
42,218,0,0,0,0,0,0,0,0,0,-1,1266,806,0,0
49,218,0,0,0,0,0,0,0,0,0,-1,1273,806,0,0
56,218,0,0,0,0,0,0,0,0,0,-1,1280,806,0,0
63,218,0,0,0,0,0,0,0,0,0,-1,1287,806,0,0
70,218,0,0,0,0,0,0,0,0,0,-1,1294,806,0,0
77,218,0,0,0,0,0,0,0,0,0,-1,1301,806,0,0
84,218,0,0,0,0,0,0,0,0,0,-1,1308,806,0,0
91,218,0,0,0,0,0,0,0,0,0,-1,1315,806,0,0
98,218,0,0,0,0,0,0,0,0,0,-1,1322,806,0,0
105,218,0,0,0,0,0,0,0,0,0,-1,1329,806,0,0
112,218,0,0,0,0,0,0,0,0,0,-1,1336,806,0,0
119,218,0,0,0,0,0,0,0,0,0,-1,1343,806,0,0
126,218,0,0,0,0,0,0,0,0,0,-1,1350,806,0,0
133,218,0,0,0,0,0,0,0,0,0,-1,1357,806,0,0
140,218,0,0,0,0,0,0,0,0,0,-1,1364,806,0,0
147,218,0,0,0,0,0,0,0,0,0,-1,1371,806,0,0
154,218,0,0,0,0,0,0,0,0,0,-1,1378,806,0,0
161,218,0,0,0,0,0,0,0,0,0,-1,1385,806,0,0
168,218,0,0,0,0,0,0,0,0,0,-1,1392,806,0,0
175,218,0,0,0,0,0,0,0,0,0,-1,1399,806,0,0
182,218,0,0,0,0,0,0,0,0,0,-1,1406,806,0,0
189,218,0,0,0,0,0,0,0,0,0,-1,1413,806,0,0
196,218,0,0,0,0,0,0,0,0,0,-1,1420,806,0,0
203,218,0,0,0,0,0,0,0,0,0,-1,1427,806,0,0
210,218,0,0,0,0,0,0,0,0,0,-1,1434,806,0,0
217,218,0,0,0,0,0,0,0,0,0,-1,1441,806,0,0
224,218,0,0,0,0,0,0,0,0,0,-1,1448,806,0,0
231,218,0,0,0,0,0,0,0,0,0,-1,1455,806,0,0
238,218,0,0,0,0,0,0,0,0,0,-1,1462,806,0,0
245,218,0,0,0,0,0,0,0,0,0,-1,1469,806,0,0
252,218,0,0,0,0,0,0,0,0,0,-1,1476,806,0,0
259,218,0,0,0,0,0,0,0,0,0,-1,1483,806,0,0
266,218,0,0,0,0,0,0,0,0,0,-1,1490,806,0,0
273,218,0,0,0,0,0,0,0,0,0,-1,1497,806,0,0
280,218,0,0,0,0,0,0,0,0,0,-1,1504,806,0,0
287,218,0,0,0,0,0,0,0,0,0,-1,1511,806,0,0
294,218,0,0,0,0,0,0,0,0,0,-1,1518,806,0,0
301,218,0,0,0,0,0,0,0,0,0,-1,1525,806,0,0
308,218,0,0,0,0,0,0,0,0,0,-1,1532,806,0,0
315,218,0,0,0,0,0,0,0,0,0,-1,1539,806,0,0
322,218,0,0,0,0,0,0,0,0,0,-1,1546,806,0,0
329,218,0,0,0,0,0,0,0,0,0,-1,1553,806,0,0
336,218,0,0,0,0,0,0,0,0,0,-1,1560,806,0,0
343,218,0,0,0,0,0,0,0,0,0,-1,1567,806,0,0
350,218,0,0,0,0,0,0,0,0,0,-1,1574,806,0,0
357,218,0,0,0,0,0,0,0,0,0,-1,1581,806,0,0
364,218,0,0,0,0,0,0,0,0,0,-1,1588,806,0,0
371,218,0,0,0,0,0,0,0,0,0,-1,1595,806,0,0
378,218,0,0,0,0,0,0,0,0,0,-1,1602,806,0,0
385,218,0,0,0,0,0,0,0,0,0,-1,1609,806,0,0
392,218,0,0,0,0,0,0,0,0,0,-1,1616,806,0,0
399,218,0,0,0,0,0,0,0,0,0,-1,1623,806,0,0
406,218,0,0,0,0,0,0,0,0,0,-1,1630,806,0,0
413,218,0,0,0,0,0,0,0,0,0,-1,1637,806,0,0
420,218,0,0,0,0,0,0,0,0,0,-1,1644,806,0,0
427,218,0,0,0,0,0,0,0,0,0,-1,1651,806,0,0
434,218,0,0,0,0,0,0,0,0,0,-1,1658,806,0,0
441,218,0,0,0,0,0,0,0,0,0,-1,1665,806,0,0
448,218,0,0,0,0,0,0,0,0,0,-1,1672,806,0,0
455,218,0,0,0,0,0,0,0,0,0,-1,1679,806,0,0
462,218,0,0,0,0,0,0,0,0,0,-1,1686,806,0,0
469,218,0,0,0,0,0,0,0,0,0,-1,1693,806,0,0
476,218,0,0,0,0,0,0,0,0,0,-1,1700,806,0,0
483,218,0,0,0,0,0,0,0,0,0,-1,1707,806,0,0
490,218,0,0,0,0,0,0,0,0,0,-1,1714,806,0,0
497,218,0,0,0,0,0,0,0,0,0,-1,1721,806,0,0
504,218,0,0,0,0,0,0,0,0,0,-1,1728,806,0,0
511,218,0,0,0,0,0,0,0,0,0,-1,1735,806,0,0
518,218,0,0,0,0,0,0,0,0,0,-1,1742,806,0,0
525,218,0,0,0,0,0,0,0,0,0,-1,1749,806,0,0
532,218,0,0,0,0,0,0,0,0,0,-1,1756,806,0,0
539,218,0,0,0,0,0,0,0,0,0,-1,1763,806,0,0
546,218,0,0,0,0,0,0,0,0,0,-1,1770,806,0,0
553,218,0,0,0,0,0,0,0,0,0,-1,1777,806,0,0
560,218,0,0,0,0,0,0,0,0,0,-1,1784,806,0,0
567,218,0,0,0,0,0,0,0,0,0,-1,1791,806,0,0
574,218,0,0,0,0,0,0,0,0,0,-1,1798,806,0,0
581,218,0,0,0,0,0,0,0,0,0,-1,1805,806,0,0
588,218,0,0,0,0,0,0,0,0,0,-1,1812,806,0,0
595,218,25.0137,2.94232,0.00569419,0.00151598,0.0033449,0.00754878,-0.000338604,0.506255,0.0051491,0.0387911,1819,806,25.0137,-2.94233
602,218,24.9614,2.86261,0.00571228,0.00192401,0.00294709,0.00732144,0.000314843,0.49978,0.00477947,0.033777,1826,806,24.9614,-2.86263
609,218,24.9619,2.8819,0.00348235,0.00268807,0.00178664,0.00491546,0.00125497,0.676034,0.00294904,0.0298805,1833,806,24.962,-2.8819
616,218,24.908,2.90594,0.000968142,0.00307156,0.000464081,0.0031694,0.000870301,1.36301,0.00189082,0.0318813,1840,806,24.9079,-2.90592
623,218,24.9575,2.8316,-0.00128171,0.0033161,-0.000616007,0.0033972,-0.00136281,-1.43989,0.00283063,0.035092,1847,806,24.9576,-2.83159
630,218,25.1161,2.7619,-0.00303381,0.00326324,-0.0014254,0.00357087,-0.00334144,-1.35824,0.00399155,0.0394215,1854,806,25.1161,-2.76192
637,218,25.312,2.68298,-0.0044267,0.00325072,-0.00193154,0.00370928,-0.00488526,-1.3377,0.00497751,0.0453358,1861,806,25.312,-2.68295
644,218,24.6946,3.50531,0,0,0,0,0,0,0,-1,1868,806,24.6946,-3.50533
651,218,19.531,1.59863,0,0,0,0,0,0,0,-1,1875,806,19.531,-1.59865
658,218,19.0343,1.28436,0,0,0,0,0,0,0,-1,1882,806,19.0343,-1.28439
665,218,18.9474,1.50653,-0.00577976,0.00206035,-0.00286527,0.00299587,-0.00671528,-1.25521,0.00574218,0.0347417,1889,806,18.9474,-1.50655
672,218,18.8529,1.7713,-0.00501721,0.00151656,-0.00246883,0.00234451,-0.00584516,-1.24722,0.00487017,0.0124233,1896,806,18.8529,-1.7713
679,218,18.835,2.06458,-0.00438438,0.000963584,-0.00195675,0.00160307,-0.00502386,-1.25493,0.00399236,0.0115482,1903,806,18.835,-2.06456
686,218,18.8405,2.31586,-0.00309121,0.000825657,-0.00165601,0.00143195,-0.0036975,-1.21984,0.00305626,0.0113316,1910,806,18.8405,-2.31586
693,218,18.84,2.58032,-0.000711413,0.000980373,-0.00196807,0.00227663,-0.00200767,-0.988366,0.00247517,0.0110617,1917,806,18.84,-2.58033
700,218,18.8281,2.84985,0.00197879,0.00126931,-0.00256085,0.00420936,-0.000961252,-0.716574,0.00317553,0.00930605,1924,806,18.8281,-2.84983
707,218,18.8119,3.11804,0.00496092,0.00193367,-0.00317012,0.00696023,-6.56373e-05,-0.562669,0.00466218,0.0078619,1931,806,18.8119,-3.11807
714,218,18.8152,3.39838,0.00780199,0.00356299,-0.00467782,0.0108181,0.000546901,-0.572686,0.00703684,0.0100978,1938,806,18.8152,-3.39836
721,218,18.8501,3.63684,0.0113353,0.00567392,-0.00704745,0.0160993,0.000909919,-0.594428,0.0104428,0.0118344,1945,806,18.8501,-3.63683
728,218,18.8541,3.88416,0.0156605,0.00843307,-0.0102626,0.022927,0.00116658,-0.616114,0.014911,0.0180071,1952,806,18.8541,-3.88417
735,218,18.8643,4.10632,0.0211018,0.0120669,-0.0146085,0.0318753,0.00129334,-0.635444,0.0208325,0.035895,1959,806,18.8642,-4.10631
742,218,18.8922,4.3255,0,0,0,0,0,0,0,-1,1966,806,18.8922,-4.32548
749,218,18.7599,3.49677,0,0,0,0,0,0,0,-1,1973,806,18.7599,-3.49674
756,218,18.647,4.1012,0,0,0,0,0,0,0,-1,1980,806,18.647,-4.10117
763,218,19.1458,4.17859,0,0,0,0,0,0,0,-1,1987,806,19.1457,-4.17861
770,218,0,0,0,0,0,0,0,0,0,-1,1994,806,0,0
777,218,0,0,0,0,0,0,0,0,0,-1,2001,806,0,0
784,218,0,0,0,0,0,0,0,0,0,-1,2008,806,0,0
791,218,0,0,0,0,0,0,0,0,0,-1,2015,806,0,0
798,218,0,0,0,0,0,0,0,0,0,-1,2022,806,0,0
805,218,0,0,0,0,0,0,0,0,0,-1,2029,806,0,0
812,218,0,0,0,0,0,0,0,0,0,-1,2036,806,0,0
-700,211,0,0,0,0,0,0,0,0,0,-1,524,813,0,0
-693,211,0,0,0,0,0,0,0,0,0,-1,531,813,0,0
-686,211,0,0,0,0,0,0,0,0,0,-1,538,813,0,0
-679,211,0,0,0,0,0,0,0,0,0,-1,545,813,0,0
-672,211,0,0,0,0,0,0,0,0,0,-1,552,813,0,0
-665,211,0,0,0,0,0,0,0,0,0,-1,559,813,0,0
-658,211,0,0,0,0,0,0,0,0,0,-1,566,813,0,0
-651,211,-14.6259,7.75592,0,0,0,0,0,0,0,-1,573,813,-14.6259,-7.75595
-644,211,-15.5229,6.61963,-0.0617493,0.0359272,-0.131922,0.127761,-0.153583,-0.962678,0.162662,0.0484298,580,813,-15.5229,-6.6196
-637,211,-16.4297,5.50781,-0.0492003,0.0358854,-0.10555,0.107144,-0.120459,-0.976968,0.131481,0.0492598,587,813,-16.4298,-5.50784
-630,211,-17.342,4.28253,0,0,0,0,0,0,0,-1,594,813,-17.342,-4.28254
-623,211,-12.8696,3.4035,0,0,0,0,0,0,0,-1,601,813,-12.8696,-3.40353
-616,211,-12.4285,1.80713,0,0,0,0,0,0,0,-1,608,813,-12.4285,-1.80711
-609,211,-12.3685,1.71704,-0.0133467,0.019013,-0.032761,0.0393718,-0.0337055,-1.01477,0.0422334,0.039204,615,813,-12.3685,-1.71704
-602,211,-12.3069,1.64423,-0.00821784,0.0142508,-0.0222275,0.0279218,-0.0218888,-1.01939,0.0288284,0.0192755,622,813,-12.307,-1.64422
-595,211,-12.3439,1.45929,-0.00437357,0.00986527,-0.0139037,0.0183663,-0.0128746,-1.02202,0.0181296,0.0098943,629,813,-12.3439,-1.45929
-588,211,-12.3481,1.24323,-0.000982989,0.00509356,-0.00690763,0.00960157,-0.00549101,-0.992586,0.00882078,0.0102231,636,813,-12.3481,-1.24325
-581,211,-12.3569,1.01697,0.0010184,0.00219068,-0.00265537,0.00432383,-0.00111476,-0.894026,0.00331718,0.0109986,643,813,-12.3569,-1.01697
-574,211,-12.3616,0.764893,0.00118118,0.000868402,-0.000728354,0.00176974,0.000279836,-0.679647,0.0010985,0.0128093,650,813,-12.3616,-0.764866
-567,211,-12.3606,0.511841,0.000771186,0.000278689,0.000518039,0.00109853,-4.86496e-05,0.563532,0.000749094,0.01965,657,813,-12.3606,-0.511844
-560,211,-12.3828,0.291931,0.00045462,6.8145e-05,0.00128245,0.00155831,-0.00103554,0.710621,0.00150766,0.0210733,664,813,-12.3828,-0.291933
-553,211,-12.361,0.0470581,5.07712e-05,0.000235445,0.00172077,0.00186636,-0.00158014,0.812203,0.00199212,0.0173246,671,813,-12.3609,-0.0470608
-546,211,-12.42,-0.13385,-0.00028054,0.00048973,0.00165166,0.00180056,-0.00159137,0.899942,0.00195958,0.0248459,678,813,-12.4201,0.133844
-539,211,-12.4007,-0.435547,-0.000347213,0.000572439,0.00155388,0.0017331,-0.00150787,0.929254,0.00187268,0.0190773,685,813,-12.4007,0.43553
-532,211,-12.4297,-0.609009,0,0,0,0,0,0,0,-1,692,813,-12.4297,0.609037
-525,211,-14.3009,2.3233,0,0,0,0,0,0,0,-1,699,813,-14.3009,-2.3233
-518,211,-13.4724,-0.775391,0,0,0,0,0,0,0,-1,706,813,-13.4724,0.775391
-511,211,-17.1029,1.27502,0.00117589,0.00132069,-0.000698738,0.00195077,0.000545813,-0.837023,0.00116212,0.0480764,713,813,-17.1029,-1.27503
-504,211,-17.1546,1.09241,0.00201691,0.00143509,-0.00174183,0.00349195,-3.99563e-05,-0.702654,0.0023414,0.0485251,720,813,-17.1546,-1.09244
-497,211,-17.165,1.06104,0.00324242,0.00150105,-0.00304178,0.00553568,-0.000792205,-0.646004,0.00398088,0.0483687,727,813,-17.1651,-1.06106
-490,211,-17.1923,1.01428,0.00499238,0.00152269,-0.00465335,0.00822376,-0.00170869,-0.606971,0.00613195,0.0363366,734,813,-17.1923,-1.01426
-483,211,-17.319,0.898682,0.00745458,0.00157187,-0.0064574,0.011609,-0.00258252,-0.571689,0.00872844,0.033108,741,813,-17.3191,-0.898656
-476,211,-17.4292,0.785095,0.0103607,0.00171905,-0.00800606,0.0151375,-0.00305775,-0.53795,0.0112503,0.0387578,748,813,-17.4292,-0.78508
-469,211,0,0,0,0,0,0,0,0,0,-1,755,813,0,0
-462,211,0,0,0,0,0,0,0,0,0,-1,762,813,0,0
-455,211,0,0,0,0,0,0,0,0,0,-1,769,813,0,0
-448,211,0,0,0,0,0,0,0,0,0,-1,776,813,0,0
-441,211,0,0,0,0,0,0,0,0,0,-1,783,813,0,0
-434,211,0,0,0,0,0,0,0,0,0,-1,790,813,0,0
-427,211,0,0,0,0,0,0,0,0,0,-1,797,813,0,0
-420,211,0,0,0,0,0,0,0,0,0,-1,804,813,0,0
-413,211,0,0,0,0,0,0,0,0,0,-1,811,813,0,0
-406,211,0,0,0,0,0,0,0,0,0,-1,818,813,0,0
-399,211,0,0,0,0,0,0,0,0,0,-1,825,813,0,0
-392,211,0,0,0,0,0,0,0,0,0,-1,832,813,0,0
-385,211,0,0,0,0,0,0,0,0,0,-1,839,813,0,0
-378,211,0,0,0,0,0,0,0,0,0,-1,846,813,0,0
-371,211,0,0,0,0,0,0,0,0,0,-1,853,813,0,0
-364,211,0,0,0,0,0,0,0,0,0,-1,860,813,0,0
-357,211,0,0,0,0,0,0,0,0,0,-1,867,813,0,0
-350,211,0,0,0,0,0,0,0,0,0,-1,874,813,0,0
-343,211,0,0,0,0,0,0,0,0,0,-1,881,813,0,0
-336,211,0,0,0,0,0,0,0,0,0,-1,888,813,0,0
-329,211,0,0,0,0,0,0,0,0,0,-1,895,813,0,0
-322,211,0,0,0,0,0,0,0,0,0,-1,902,813,0,0
-315,211,0,0,0,0,0,0,0,0,0,-1,909,813,0,0
-308,211,0,0,0,0,0,0,0,0,0,-1,916,813,0,0
-301,211,0,0,0,0,0,0,0,0,0,-1,923,813,0,0
-294,211,0,0,0,0,0,0,0,0,0,-1,930,813,0,0
-287,211,0,0,0,0,0,0,0,0,0,-1,937,813,0,0
-280,211,0,0,0,0,0,0,0,0,0,-1,944,813,0,0
-273,211,0,0,0,0,0,0,0,0,0,-1,951,813,0,0
-266,211,0,0,0,0,0,0,0,0,0,-1,958,813,0,0
-259,211,0,0,0,0,0,0,0,0,0,-1,965,813,0,0
-252,211,0,0,0,0,0,0,0,0,0,-1,972,813,0,0
-245,211,0,0,0,0,0,0,0,0,0,-1,979,813,0,0
-238,211,0,0,0,0,0,0,0,0,0,-1,986,813,0,0
-231,211,0,0,0,0,0,0,0,0,0,-1,993,813,0,0
-224,211,0,0,0,0,0,0,0,0,0,-1,1000,813,0,0
-217,211,0,0,0,0,0,0,0,0,0,-1,1007,813,0,0
-210,211,0,0,0,0,0,0,0,0,0,-1,1014,813,0,0
-203,211,0,0,0,0,0,0,0,0,0,-1,1021,813,0,0
-196,211,0,0,0,0,0,0,0,0,0,-1,1028,813,0,0
-189,211,0,0,0,0,0,0,0,0,0,-1,1035,813,0,0
-182,211,0,0,0,0,0,0,0,0,0,-1,1042,813,0,0
-175,211,0,0,0,0,0,0,0,0,0,-1,1049,813,0,0
-168,211,0,0,0,0,0,0,0,0,0,-1,1056,813,0,0
-161,211,0,0,0,0,0,0,0,0,0,-1,1063,813,0,0
-154,211,0,0,0,0,0,0,0,0,0,-1,1070,813,0,0
-147,211,0,0,0,0,0,0,0,0,0,-1,1077,813,0,0
-140,211,0,0,0,0,0,0,0,0,0,-1,1084,813,0,0
-133,211,0,0,0,0,0,0,0,0,0,-1,1091,813,0,0
-126,211,0,0,0,0,0,0,0,0,0,-1,1098,813,0,0
-119,211,0,0,0,0,0,0,0,0,0,-1,1105,813,0,0
-112,211,0,0,0,0,0,0,0,0,0,-1,1112,813,0,0
-105,211,0,0,0,0,0,0,0,0,0,-1,1119,813,0,0
-98,211,0,0,0,0,0,0,0,0,0,-1,1126,813,0,0
-91,211,0,0,0,0,0,0,0,0,0,-1,1133,813,0,0
-84,211,0,0,0,0,0,0,0,0,0,-1,1140,813,0,0
-77,211,0,0,0,0,0,0,0,0,0,-1,1147,813,0,0
-70,211,0,0,0,0,0,0,0,0,0,-1,1154,813,0,0
-63,211,0,0,0,0,0,0,0,0,0,-1,1161,813,0,0
-56,211,0,0,0,0,0,0,0,0,0,-1,1168,813,0,0
-49,211,0,0,0,0,0,0,0,0,0,-1,1175,813,0,0
-42,211,0,0,0,0,0,0,0,0,0,-1,1182,813,0,0
-35,211,0,0,0,0,0,0,0,0,0,-1,1189,813,0,0
-28,211,0,0,0,0,0,0,0,0,0,-1,1196,813,0,0
-21,211,0,0,0,0,0,0,0,0,0,-1,1203,813,0,0
-14,211,0,0,0,0,0,0,0,0,0,-1,1210,813,0,0
-7,211,0,0,0,0,0,0,0,0,0,-1,1217,813,0,0
0,211,0,0,0,0,0,0,0,0,0,-1,1224,813,0,0
7,211,0,0,0,0,0,0,0,0,0,-1,1231,813,0,0
14,211,0,0,0,0,0,0,0,0,0,-1,1238,813,0,0
21,211,0,0,0,0,0,0,0,0,0,-1,1245,813,0,0
28,211,0,0,0,0,0,0,0,0,0,-1,1252,813,0,0
35,211,0,0,0,0,0,0,0,0,0,-1,1259,813,0,0
42,211,0,0,0,0,0,0,0,0,0,-1,1266,813,0,0
49,211,0,0,0,0,0,0,0,0,0,-1,1273,813,0,0
56,211,0,0,0,0,0,0,0,0,0,-1,1280,813,0,0
63,211,0,0,0,0,0,0,0,0,0,-1,1287,813,0,0
70,211,0,0,0,0,0,0,0,0,0,-1,1294,813,0,0
77,211,0,0,0,0,0,0,0,0,0,-1,1301,813,0,0
84,211,0,0,0,0,0,0,0,0,0,-1,1308,813,0,0
91,211,0,0,0,0,0,0,0,0,0,-1,1315,813,0,0
98,211,0,0,0,0,0,0,0,0,0,-1,1322,813,0,0
105,211,0,0,0,0,0,0,0,0,0,-1,1329,813,0,0
112,211,0,0,0,0,0,0,0,0,0,-1,1336,813,0,0
119,211,0,0,0,0,0,0,0,0,0,-1,1343,813,0,0
126,211,0,0,0,0,0,0,0,0,0,-1,1350,813,0,0
133,211,0,0,0,0,0,0,0,0,0,-1,1357,813,0,0
140,211,0,0,0,0,0,0,0,0,0,-1,1364,813,0,0
147,211,0,0,0,0,0,0,0,0,0,-1,1371,813,0,0
154,211,0,0,0,0,0,0,0,0,0,-1,1378,813,0,0
161,211,0,0,0,0,0,0,0,0,0,-1,1385,813,0,0
168,211,0,0,0,0,0,0,0,0,0,-1,1392,813,0,0
175,211,0,0,0,0,0,0,0,0,0,-1,1399,813,0,0
182,211,0,0,0,0,0,0,0,0,0,-1,1406,813,0,0
189,211,0,0,0,0,0,0,0,0,0,-1,1413,813,0,0
196,211,0,0,0,0,0,0,0,0,0,-1,1420,813,0,0
203,211,0,0,0,0,0,0,0,0,0,-1,1427,813,0,0
210,211,0,0,0,0,0,0,0,0,0,-1,1434,813,0,0
217,211,0,0,0,0,0,0,0,0,0,-1,1441,813,0,0
224,211,0,0,0,0,0,0,0,0,0,-1,1448,813,0,0
231,211,0,0,0,0,0,0,0,0,0,-1,1455,813,0,0
238,211,0,0,0,0,0,0,0,0,0,-1,1462,813,0,0
245,211,0,0,0,0,0,0,0,0,0,-1,1469,813,0,0
252,211,0,0,0,0,0,0,0,0,0,-1,1476,813,0,0
259,211,0,0,0,0,0,0,0,0,0,-1,1483,813,0,0
266,211,0,0,0,0,0,0,0,0,0,-1,1490,813,0,0
273,211,0,0,0,0,0,0,0,0,0,-1,1497,813,0,0
280,211,0,0,0,0,0,0,0,0,0,-1,1504,813,0,0
287,211,0,0,0,0,0,0,0,0,0,-1,1511,813,0,0
294,211,0,0,0,0,0,0,0,0,0,-1,1518,813,0,0
301,211,0,0,0,0,0,0,0,0,0,-1,1525,813,0,0
308,211,0,0,0,0,0,0,0,0,0,-1,1532,813,0,0
315,211,0,0,0,0,0,0,0,0,0,-1,1539,813,0,0
322,211,0,0,0,0,0,0,0,0,0,-1,1546,813,0,0
329,211,0,0,0,0,0,0,0,0,0,-1,1553,813,0,0
336,211,0,0,0,0,0,0,0,0,0,-1,1560,813,0,0
343,211,0,0,0,0,0,0,0,0,0,-1,1567,813,0,0
350,211,0,0,0,0,0,0,0,0,0,-1,1574,813,0,0
357,211,0,0,0,0,0,0,0,0,0,-1,1581,813,0,0
364,211,0,0,0,0,0,0,0,0,0,-1,1588,813,0,0
371,211,0,0,0,0,0,0,0,0,0,-1,1595,813,0,0
378,211,0,0,0,0,0,0,0,0,0,-1,1602,813,0,0
385,211,0,0,0,0,0,0,0,0,0,-1,1609,813,0,0
392,211,0,0,0,0,0,0,0,0,0,-1,1616,813,0,0
399,211,0,0,0,0,0,0,0,0,0,-1,1623,813,0,0
406,211,0,0,0,0,0,0,0,0,0,-1,1630,813,0,0
413,211,0,0,0,0,0,0,0,0,0,-1,1637,813,0,0
420,211,0,0,0,0,0,0,0,0,0,-1,1644,813,0,0
427,211,0,0,0,0,0,0,0,0,0,-1,1651,813,0,0
434,211,0,0,0,0,0,0,0,0,0,-1,1658,813,0,0
441,211,0,0,0,0,0,0,0,0,0,-1,1665,813,0,0
448,211,0,0,0,0,0,0,0,0,0,-1,1672,813,0,0
455,211,0,0,0,0,0,0,0,0,0,-1,1679,813,0,0
462,211,0,0,0,0,0,0,0,0,0,-1,1686,813,0,0
469,211,0,0,0,0,0,0,0,0,0,-1,1693,813,0,0
476,211,0,0,0,0,0,0,0,0,0,-1,1700,813,0,0
483,211,0,0,0,0,0,0,0,0,0,-1,1707,813,0,0
490,211,0,0,0,0,0,0,0,0,0,-1,1714,813,0,0
497,211,0,0,0,0,0,0,0,0,0,-1,1721,813,0,0
504,211,0,0,0,0,0,0,0,0,0,-1,1728,813,0,0
511,211,0,0,0,0,0,0,0,0,0,-1,1735,813,0,0
518,211,0,0,0,0,0,0,0,0,0,-1,1742,813,0,0
525,211,0,0,0,0,0,0,0,0,0,-1,1749,813,0,0
532,211,0,0,0,0,0,0,0,0,0,-1,1756,813,0,0
539,211,0,0,0,0,0,0,0,0,0,-1,1763,813,0,0
546,211,0,0,0,0,0,0,0,0,0,-1,1770,813,0,0
553,211,0,0,0,0,0,0,0,0,0,-1,1777,813,0,0
560,211,0,0,0,0,0,0,0,0,0,-1,1784,813,0,0
567,211,0,0,0,0,0,0,0,0,0,-1,1791,813,0,0
574,211,0,0,0,0,0,0,0,0,0,-1,1798,813,0,0
581,211,0,0,0,0,0,0,0,0,0,-1,1805,813,0,0
588,211,0,0,0,0,0,0,0,0,0,-1,1812,813,0,0
595,211,25.1667,2.65369,0.00446311,0.00128825,0.00375608,0.00695344,-0.00120207,0.585468,0.00508391,0.0402874,1819,813,25.1667,-2.65371
602,211,24.989,2.8064,0.00541637,0.00149158,0.00351553,0.00748013,-0.000572183,0.530837,0.00518801,0.037289,1826,813,24.989,-2.80637
609,211,24.9399,2.84485,0.00324939,0.0025538,0.00240663,0.00533323,0.000469964,0.713637,0.00340964,0.0364576,1833,813,24.9399,-2.84482
616,211,24.9116,2.89093,0.000735775,0.00315821,0.00102085,0.00353103,0.000362952,1.22064,0.00224285,0.0316355,1840,813,24.9116,-2.89094
623,211,24.9458,2.82489,-0.00161749,0.0035641,-0.000158084,0.00356892,-0.00162231,-1.54033,0.00306659,0.0311634,1847,813,24.9458,-2.82488
630,211,25.0359,2.76276,-0.00348323,0.00365173,-0.00104872,0.00380268,-0.00363419,-1.42784,0.00429405,0.0361063,1854,813,25.0359,-2.76277
637,211,25.0013,2.81299,-0.0048314,0.00359485,-0.0016015,0.00388897,-0.00512551,-1.38917,0.00522081,0.0418153,1861,813,25.0014,-2.81297
644,211,24.7473,3.18768,-0.00572908,0.00331889,-0.00195868,0.0037247,-0.00613489,-1.3665,0.00574885,0.0399188,1868,813,24.7473,-3.1877
651,211,23.9215,3.51685,-0.00609449,0.00293589,-0.00218194,0.00343546,-0.00659406,-1.34572,0.00588549,0.044805,1875,813,23.9215,-3.51686
658,211,22.7299,3.82477,0,0,0,0,0,0,0,-1,1882,813,22.7298,-3.82475
665,211,19.1017,1.63873,0,0,0,0,0,0,0,-1,1889,813,19.1017,-1.63874
672,211,19.0605,1.81775,-0.00530652,0.00164291,-0.00227205,0.00231981,-0.00598341,-1.28125,0.00494697,0.0206134,1896,813,19.0606,-1.81772
679,211,19.0973,2.04559,-0.0048272,0.001111,-0.00188315,0.00165783,-0.00537404,-1.28818,0.00424463,0.0130361,1903,813,19.0973,-2.04558
686,211,19.1034,2.32288,-0.00374304,0.000900198,-0.00167003,0.00143846,-0.0042813,-1.259,0.00343558,0.0111951,1910,813,19.1034,-2.32288
693,211,19.1038,2.58203,-0.00169787,0.000866471,-0.00194514,0.001914,-0.0027454,-1.07679,0.00270435,0.0113847,1917,813,19.1038,-2.58201
700,211,19.0577,2.83508,0.000567113,0.000866501,-0.00242074,0.00314217,-0.00170856,-0.816278,0.00284105,0.0136053,1924,813,19.0577,-2.83511
707,211,19.0674,3.12244,0.00305854,0.00115831,-0.00283688,0.00510018,-0.000883327,-0.623811,0.0037296,0.0199295,1931,813,19.0674,-3.12242
714,211,19.0652,3.4342,0.00515706,0.00239444,-0.00405661,0.00806108,-0.000509583,-0.621301,0.00555172,0.0206158,1938,813,19.0652,-3.43421
721,211,19.1156,3.6333,0.0078283,0.00390658,-0.00603153,0.0122097,-0.000474823,-0.628236,0.0083026,0.014948,1945,813,19.1156,-3.63328
728,211,19.1217,3.86621,0.0110657,0.00578195,-0.00869378,0.0175101,-0.000662517,-0.637892,0.0119004,0.0138314,1952,813,19.1216,-3.86621
735,211,19.082,4.12622,0.0150986,0.00814535,-0.0121846,0.0242929,-0.00104893,-0.646426,0.016556,0.0245714,1959,813,19.082,-4.12621
742,211,19.4137,3.9231,0.0202695,0.0110389,-0.0168789,0.0331527,-0.00184433,-0.651942,0.0227415,0.0471014,1966,813,19.4137,-3.92312
749,211,18.7136,4.35754,0,0,0,0,0,0,0,-1,1973,813,18.7137,-4.35756
756,211,18.8287,4.37402,0,0,0,0,0,0,0,-1,1980,813,18.8288,-4.37404
763,211,19.0944,4.58966,0,0,0,0,0,0,0,-1,1987,813,19.0943,-4.58969
770,211,19.3391,4.84692,0,0,0,0,0,0,0,-1,1994,813,19.3391,-4.84693
777,211,0,0,0,0,0,0,0,0,0,-1,2001,813,0,0
784,211,0,0,0,0,0,0,0,0,0,-1,2008,813,0,0
791,211,0,0,0,0,0,0,0,0,0,-1,2015,813,0,0
798,211,0,0,0,0,0,0,0,0,0,-1,2022,813,0,0
805,211,0,0,0,0,0,0,0,0,0,-1,2029,813,0,0
812,211,0,0,0,0,0,0,0,0,0,-1,2036,813,0,0
-700,204,0,0,0,0,0,0,0,0,0,-1,524,820,0,0
-693,204,0,0,0,0,0,0,0,0,0,-1,531,820,0,0
-686,204,0,0,0,0,0,0,0,0,0,-1,538,820,0,0
-679,204,0,0,0,0,0,0,0,0,0,-1,545,820,0,0
-672,204,0,0,0,0,0,0,0,0,0,-1,552,820,0,0
-665,204,0,0,0,0,0,0,0,0,0,-1,559,820,0,0
-658,204,0,0,0,0,0,0,0,0,0,-1,566,820,0,0
-651,204,-13.4556,6.84381,0,0,0,0,0,0,0,-1,573,820,-13.4556,-6.84384
-644,204,-14.1663,6.17798,-0.0566334,0.0366613,-0.113306,0.112546,-0.132519,-0.980671,0.141645,0.0463332,580,820,-14.1663,-6.17795
-637,204,-15.2318,5.19,-0.0462394,0.0359584,-0.0920561,0.0956735,-0.105954,-0.995349,0.11646,0.0488706,587,820,-15.2318,-5.19002
-630,204,-13.3211,4.15131,0,0,0,0,0,0,0,-1,594,820,-13.3211,-4.15132
-623,204,-13.0231,3.44092,-0.0277146,0.02828,-0.055674,0.0626,-0.0620346,-1.01837,0.071958,0.0452384,601,820,-13.023,-3.44094
-616,204,-12.7334,2.74487,-0.0200981,0.0230469,-0.0411578,0.0479431,-0.0449943,-1.02678,0.0536664,0.0445411,608,820,-12.7334,-2.74486
-609,204,-12.4869,1.94434,-0.0141799,0.0187588,-0.0297212,0.0362687,-0.0316898,-1.0384,0.0392656,0.0348324,615,820,-12.4869,-1.94436
-602,204,-12.5605,1.68329,-0.00931626,0.0142216,-0.0204522,0.0260492,-0.0211439,-1.04648,0.027296,0.0146114,622,820,-12.5605,-1.68328
-595,204,-12.5964,1.45056,-0.00546148,0.00981919,-0.0128508,0.0171294,-0.0127717,-1.0536,0.0173244,0.0132195,629,820,-12.5964,-1.45055
-588,204,-12.6028,1.22266,-0.00203508,0.00491067,-0.00641181,0.00872972,-0.00585413,-1.0336,0.00847438,0.0118771,636,820,-12.6029,-1.22268
-581,204,-12.6022,1.00281,0.000204785,0.00195674,-0.00243819,0.00367153,-0.00151001,-0.957854,0.00307711,0.0120545,643,820,-12.6022,-1.0028
-574,204,-12.6027,0.773376,0.000705559,0.00069986,-0.000603954,0.00130667,9.87489e-05,-0.783039,0.000840134,0.0140452,650,820,-12.6027,-0.773395
-567,204,-12.5914,0.528687,0.000544656,0.000255049,0.000502574,0.000922872,-0.000123167,0.645136,0.000660144,0.0138619,657,820,-12.5914,-0.528675
-560,204,-12.6082,0.276367,0.000416245,0.000198365,0.00116809,0.00148047,-0.000865859,0.738901,0.00137006,0.0126039,664,820,-12.6082,-0.276364
-553,204,-12.5965,0.0678711,0.000141258,0.000544073,0.00152503,0.00188094,-0.00119561,0.851052,0.00179087,0.010788,671,820,-12.5965,-0.0678888
-546,204,-12.611,-0.119507,-8.4875e-05,0.00092619,0.00140506,0.0019139,-0.00107258,0.958084,0.0017469,0.0185778,678,820,-12.6109,0.119526
-539,204,-12.6351,-0.398987,-9.51044e-05,0.00117086,0.00129526,0.00197953,-0.00090378,1.01268,0.00170287,0.0336218,685,820,-12.6351,0.399009
-532,204,-12.5916,-0.741577,0,0,0,0,0,0,0,-1,692,820,-12.5915,0.741549
-525,204,-17.251,1.60443,0,0,0,0,0,0,0,-1,699,820,-17.251,-1.60442
-518,204,-17.2161,1.41711,0.000674543,0.00208498,-7.74528e-05,0.00208922,0.000670303,-1.5161,0.00123175,0.0470431,706,820,-17.2161,-1.4171
-511,204,-17.1072,1.21143,0.00129439,0.00235973,-0.000807295,0.00279425,0.000859868,-1.07702,0.00165254,0.0494926,713,820,-17.1073,-1.21141
-504,204,-17.1668,1.05402,0,0,0,0,0,0,0,-1,720,820,-17.1668,-1.054
-497,204,-17.1536,1.12891,0.00324755,0.00269139,-0.003066,0.00604806,-0.000109114,-0.740173,0.0040689,0.0410844,727,820,-17.1536,-1.1289
-490,204,-17.23,0.992981,0.0049689,0.00276545,-0.00463442,0.00863074,-0.0008964,-0.668701,0.00607471,0.0356835,734,820,-17.23,-0.992964
-483,204,-17.2639,0.842957,0.00737842,0.00287963,-0.00638495,0.0118986,-0.00164057,-0.616039,0.00853201,0.04047,741,820,-17.2639,-0.842954
-476,204,0,0,0,0,0,0,0,0,0,-1,748,820,0,0
-469,204,0,0,0,0,0,0,0,0,0,-1,755,820,0,0
-462,204,0,0,0,0,0,0,0,0,0,-1,762,820,0,0
-455,204,0,0,0,0,0,0,0,0,0,-1,769,820,0,0
-448,204,0,0,0,0,0,0,0,0,0,-1,776,820,0,0
-441,204,0,0,0,0,0,0,0,0,0,-1,783,820,0,0
-434,204,0,0,0,0,0,0,0,0,0,-1,790,820,0,0
-427,204,0,0,0,0,0,0,0,0,0,-1,797,820,0,0
-420,204,0,0,0,0,0,0,0,0,0,-1,804,820,0,0
-413,204,0,0,0,0,0,0,0,0,0,-1,811,820,0,0
-406,204,0,0,0,0,0,0,0,0,0,-1,818,820,0,0
-399,204,0,0,0,0,0,0,0,0,0,-1,825,820,0,0
-392,204,0,0,0,0,0,0,0,0,0,-1,832,820,0,0
-385,204,0,0,0,0,0,0,0,0,0,-1,839,820,0,0
-378,204,0,0,0,0,0,0,0,0,0,-1,846,820,0,0
-371,204,0,0,0,0,0,0,0,0,0,-1,853,820,0,0
-364,204,0,0,0,0,0,0,0,0,0,-1,860,820,0,0
-357,204,0,0,0,0,0,0,0,0,0,-1,867,820,0,0
-350,204,0,0,0,0,0,0,0,0,0,-1,874,820,0,0
-343,204,0,0,0,0,0,0,0,0,0,-1,881,820,0,0
-336,204,0,0,0,0,0,0,0,0,0,-1,888,820,0,0
-329,204,0,0,0,0,0,0,0,0,0,-1,895,820,0,0
-322,204,0,0,0,0,0,0,0,0,0,-1,902,820,0,0
-315,204,0,0,0,0,0,0,0,0,0,-1,909,820,0,0
-308,204,0,0,0,0,0,0,0,0,0,-1,916,820,0,0
-301,204,0,0,0,0,0,0,0,0,0,-1,923,820,0,0
-294,204,0,0,0,0,0,0,0,0,0,-1,930,820,0,0
-287,204,0,0,0,0,0,0,0,0,0,-1,937,820,0,0
-280,204,0,0,0,0,0,0,0,0,0,-1,944,820,0,0
-273,204,0,0,0,0,0,0,0,0,0,-1,951,820,0,0
-266,204,0,0,0,0,0,0,0,0,0,-1,958,820,0,0
-259,204,0,0,0,0,0,0,0,0,0,-1,965,820,0,0
-252,204,0,0,0,0,0,0,0,0,0,-1,972,820,0,0
-245,204,0,0,0,0,0,0,0,0,0,-1,979,820,0,0
-238,204,0,0,0,0,0,0,0,0,0,-1,986,820,0,0
-231,204,0,0,0,0,0,0,0,0,0,-1,993,820,0,0
-224,204,0,0,0,0,0,0,0,0,0,-1,1000,820,0,0
-217,204,0,0,0,0,0,0,0,0,0,-1,1007,820,0,0
-210,204,0,0,0,0,0,0,0,0,0,-1,1014,820,0,0
-203,204,0,0,0,0,0,0,0,0,0,-1,1021,820,0,0
-196,204,0,0,0,0,0,0,0,0,0,-1,1028,820,0,0
-189,204,0,0,0,0,0,0,0,0,0,-1,1035,820,0,0
-182,204,0,0,0,0,0,0,0,0,0,-1,1042,820,0,0
-175,204,0,0,0,0,0,0,0,0,0,-1,1049,820,0,0
-168,204,0,0,0,0,0,0,0,0,0,-1,1056,820,0,0
-161,204,0,0,0,0,0,0,0,0,0,-1,1063,820,0,0
-154,204,0,0,0,0,0,0,0,0,0,-1,1070,820,0,0
-147,204,0,0,0,0,0,0,0,0,0,-1,1077,820,0,0
-140,204,0,0,0,0,0,0,0,0,0,-1,1084,820,0,0
-133,204,0,0,0,0,0,0,0,0,0,-1,1091,820,0,0
-126,204,0,0,0,0,0,0,0,0,0,-1,1098,820,0,0
-119,204,0,0,0,0,0,0,0,0,0,-1,1105,820,0,0
-112,204,0,0,0,0,0,0,0,0,0,-1,1112,820,0,0
-105,204,0,0,0,0,0,0,0,0,0,-1,1119,820,0,0
-98,204,0,0,0,0,0,0,0,0,0,-1,1126,820,0,0
-91,204,0,0,0,0,0,0,0,0,0,-1,1133,820,0,0
-84,204,0,0,0,0,0,0,0,0,0,-1,1140,820,0,0
-77,204,0,0,0,0,0,0,0,0,0,-1,1147,820,0,0
-70,204,0,0,0,0,0,0,0,0,0,-1,1154,820,0,0
-63,204,0,0,0,0,0,0,0,0,0,-1,1161,820,0,0
-56,204,0,0,0,0,0,0,0,0,0,-1,1168,820,0,0
-49,204,0,0,0,0,0,0,0,0,0,-1,1175,820,0,0
-42,204,0,0,0,0,0,0,0,0,0,-1,1182,820,0,0
-35,204,0,0,0,0,0,0,0,0,0,-1,1189,820,0,0
-28,204,0,0,0,0,0,0,0,0,0,-1,1196,820,0,0
-21,204,0,0,0,0,0,0,0,0,0,-1,1203,820,0,0
-14,204,0,0,0,0,0,0,0,0,0,-1,1210,820,0,0
-7,204,0,0,0,0,0,0,0,0,0,-1,1217,820,0,0
0,204,0,0,0,0,0,0,0,0,0,-1,1224,820,0,0
7,204,0,0,0,0,0,0,0,0,0,-1,1231,820,0,0
14,204,0,0,0,0,0,0,0,0,0,-1,1238,820,0,0
21,204,0,0,0,0,0,0,0,0,0,-1,1245,820,0,0
28,204,0,0,0,0,0,0,0,0,0,-1,1252,820,0,0
35,204,0,0,0,0,0,0,0,0,0,-1,1259,820,0,0
42,204,0,0,0,0,0,0,0,0,0,-1,1266,820,0,0
49,204,0,0,0,0,0,0,0,0,0,-1,1273,820,0,0
56,204,0,0,0,0,0,0,0,0,0,-1,1280,820,0,0
63,204,0,0,0,0,0,0,0,0,0,-1,1287,820,0,0
70,204,0,0,0,0,0,0,0,0,0,-1,1294,820,0,0
77,204,0,0,0,0,0,0,0,0,0,-1,1301,820,0,0
84,204,0,0,0,0,0,0,0,0,0,-1,1308,820,0,0
91,204,0,0,0,0,0,0,0,0,0,-1,1315,820,0,0
98,204,0,0,0,0,0,0,0,0,0,-1,1322,820,0,0
105,204,0,0,0,0,0,0,0,0,0,-1,1329,820,0,0
112,204,0,0,0,0,0,0,0,0,0,-1,1336,820,0,0
119,204,0,0,0,0,0,0,0,0,0,-1,1343,820,0,0
126,204,0,0,0,0,0,0,0,0,0,-1,1350,820,0,0
133,204,0,0,0,0,0,0,0,0,0,-1,1357,820,0,0
140,204,0,0,0,0,0,0,0,0,0,-1,1364,820,0,0
147,204,0,0,0,0,0,0,0,0,0,-1,1371,820,0,0
154,204,0,0,0,0,0,0,0,0,0,-1,1378,820,0,0
161,204,0,0,0,0,0,0,0,0,0,-1,1385,820,0,0
168,204,0,0,0,0,0,0,0,0,0,-1,1392,820,0,0
175,204,0,0,0,0,0,0,0,0,0,-1,1399,820,0,0
182,204,0,0,0,0,0,0,0,0,0,-1,1406,820,0,0
189,204,0,0,0,0,0,0,0,0,0,-1,1413,820,0,0
196,204,0,0,0,0,0,0,0,0,0,-1,1420,820,0,0
203,204,0,0,0,0,0,0,0,0,0,-1,1427,820,0,0
210,204,0,0,0,0,0,0,0,0,0,-1,1434,820,0,0
217,204,0,0,0,0,0,0,0,0,0,-1,1441,820,0,0
224,204,0,0,0,0,0,0,0,0,0,-1,1448,820,0,0
231,204,0,0,0,0,0,0,0,0,0,-1,1455,820,0,0
238,204,0,0,0,0,0,0,0,0,0,-1,1462,820,0,0
245,204,0,0,0,0,0,0,0,0,0,-1,1469,820,0,0
252,204,0,0,0,0,0,0,0,0,0,-1,1476,820,0,0
259,204,0,0,0,0,0,0,0,0,0,-1,1483,820,0,0
266,204,0,0,0,0,0,0,0,0,0,-1,1490,820,0,0
273,204,0,0,0,0,0,0,0,0,0,-1,1497,820,0,0
280,204,0,0,0,0,0,0,0,0,0,-1,1504,820,0,0
287,204,0,0,0,0,0,0,0,0,0,-1,1511,820,0,0
294,204,0,0,0,0,0,0,0,0,0,-1,1518,820,0,0
301,204,0,0,0,0,0,0,0,0,0,-1,1525,820,0,0
308,204,0,0,0,0,0,0,0,0,0,-1,1532,820,0,0
315,204,0,0,0,0,0,0,0,0,0,-1,1539,820,0,0
322,204,0,0,0,0,0,0,0,0,0,-1,1546,820,0,0
329,204,0,0,0,0,0,0,0,0,0,-1,1553,820,0,0
336,204,0,0,0,0,0,0,0,0,0,-1,1560,820,0,0
343,204,0,0,0,0,0,0,0,0,0,-1,1567,820,0,0
350,204,0,0,0,0,0,0,0,0,0,-1,1574,820,0,0
357,204,0,0,0,0,0,0,0,0,0,-1,1581,820,0,0
364,204,0,0,0,0,0,0,0,0,0,-1,1588,820,0,0
371,204,0,0,0,0,0,0,0,0,0,-1,1595,820,0,0
378,204,0,0,0,0,0,0,0,0,0,-1,1602,820,0,0
385,204,0,0,0,0,0,0,0,0,0,-1,1609,820,0,0
392,204,0,0,0,0,0,0,0,0,0,-1,1616,820,0,0
399,204,0,0,0,0,0,0,0,0,0,-1,1623,820,0,0
406,204,0,0,0,0,0,0,0,0,0,-1,1630,820,0,0
413,204,0,0,0,0,0,0,0,0,0,-1,1637,820,0,0
420,204,0,0,0,0,0,0,0,0,0,-1,1644,820,0,0
427,204,0,0,0,0,0,0,0,0,0,-1,1651,820,0,0
434,204,0,0,0,0,0,0,0,0,0,-1,1658,820,0,0
441,204,0,0,0,0,0,0,0,0,0,-1,1665,820,0,0
448,204,0,0,0,0,0,0,0,0,0,-1,1672,820,0,0
455,204,0,0,0,0,0,0,0,0,0,-1,1679,820,0,0
462,204,0,0,0,0,0,0,0,0,0,-1,1686,820,0,0
469,204,0,0,0,0,0,0,0,0,0,-1,1693,820,0,0
476,204,0,0,0,0,0,0,0,0,0,-1,1700,820,0,0
483,204,0,0,0,0,0,0,0,0,0,-1,1707,820,0,0
490,204,0,0,0,0,0,0,0,0,0,-1,1714,820,0,0
497,204,0,0,0,0,0,0,0,0,0,-1,1721,820,0,0
504,204,0,0,0,0,0,0,0,0,0,-1,1728,820,0,0
511,204,0,0,0,0,0,0,0,0,0,-1,1735,820,0,0
518,204,0,0,0,0,0,0,0,0,0,-1,1742,820,0,0
525,204,0,0,0,0,0,0,0,0,0,-1,1749,820,0,0
532,204,0,0,0,0,0,0,0,0,0,-1,1756,820,0,0
539,204,0,0,0,0,0,0,0,0,0,-1,1763,820,0,0
546,204,0,0,0,0,0,0,0,0,0,-1,1770,820,0,0
553,204,0,0,0,0,0,0,0,0,0,-1,1777,820,0,0
560,204,0,0,0,0,0,0,0,0,0,-1,1784,820,0,0
567,204,0,0,0,0,0,0,0,0,0,-1,1791,820,0,0
574,204,0,0,0,0,0,0,0,0,0,-1,1798,820,0,0
581,204,0,0,0,0,0,0,0,0,0,-1,1805,820,0,0
588,204,0,0,0,0,0,0,0,0,0,-1,1812,820,0,0
595,204,0,0,0,0,0,0,0,0,0,-1,1819,820,0,0
602,204,25.0259,2.81262,0.00585665,0.00112058,0.0038476,0.00800653,-0.00102931,0.509544,0.00571179,0.0377149,1826,820,25.0259,-2.8126
609,204,25.0387,2.88654,0.00356879,0.0022902,0.00282099,0.00582201,3.69761e-05,0.67397,0.00386908,0.0400671,1833,820,25.0386,-2.88656
616,204,24.9374,2.82495,0.000936341,0.00304188,0.00143071,0.00376541,0.000212808,1.10259,0.00244243,0.0375008,1840,820,24.9374,-2.82496
623,204,24.9519,2.80511,-0.0016367,0.00360458,0.000198189,0.00361206,-0.00164419,1.53306,0.00310478,0.0285817,1847,820,24.952,-2.8051
630,204,24.9803,2.81464,-0.00370058,0.00386086,-0.000727247,0.00393017,-0.00376989,-1.47578,0.00444596,0.0278499,1854,820,24.9803,-2.81462
637,204,24.974,2.79456,-0.00510141,0.00383442,-0.00130571,0.00402131,-0.0052883,-1.42863,0.00539147,0.0351439,1861,820,24.974,-2.79456
644,204,24.8438,2.83313,-0.00589536,0.00357883,-0.00165616,0.00386,-0.00617652,-1.40263,0.00584581,0.0398475,1868,820,24.8437,-2.83314
651,204,24.4294,2.80737,-0.00615253,0.0031645,-0.00186527,0.00352405,-0.00651208,-1.38037,0.00587934,0.0444835,1875,820,24.4295,-2.80738
658,204,23.2247,2.39032,0,0,0,0,0,0,0,-1,1882,820,23.2247,-2.39033
665,204,19.2743,1.52625,0,0,0,0,0,0,0,-1,1889,820,19.2743,-1.52627
672,204,19.2975,1.6839,-0.00535442,0.00178466,-0.00202523,0.00231916,-0.00588892,-1.31276,0.00488604,0.0443519,1896,820,19.2975,-1.6839
679,204,19.335,1.96613,-0.00495077,0.00125981,-0.00174223,0.00171516,-0.00540613,-1.31515,0.00429161,0.0242182,1903,820,19.3349,-1.96611
686,204,19.3687,2.32355,-0.00399347,0.000976112,-0.00159055,0.00144158,-0.00445894,-1.2861,0.00355204,0.0119643,1910,820,19.3687,-2.32357
693,204,19.3445,2.58478,-0.00221599,0.000771221,-0.0018309,0.00164047,-0.00308524,-1.12754,0.00277056,0.0168002,1917,820,19.3444,-2.58476
700,204,19.3754,2.82697,-0.000299295,0.000523813,-0.00222106,0.00237113,-0.00214661,-0.877007,0.00260939,0.0179822,1924,820,19.3754,-2.82694
707,204,19.3331,3.12799,0.00179016,0.000468707,-0.0024884,0.00370405,-0.00144519,-0.655631,0.00306679,0.0148434,1931,820,19.3332,-3.12798
714,204,19.3242,3.45441,0.00333235,0.00132049,-0.00343123,0.00590206,-0.00124922,-0.642809,0.00441049,0.0221751,1938,820,19.3242,-3.45443
721,204,19.3434,3.65417,0.00540915,0.00228315,-0.0050495,0.00913202,-0.00143972,-0.635307,0.00662031,0.0205509,1945,820,19.3434,-3.65418
728,204,19.3352,3.85199,0.0079536,0.00343735,-0.00725383,0.0132927,-0.0019017,-0.634502,0.00955893,0.0119342,1952,820,19.3352,-3.85202
735,204,19.2998,4.12689,0.0111582,0.0048153,-0.0100869,0.0185605,-0.00258693,-0.633084,0.0133199,0.0141035,1959,820,19.2998,-4.1269
742,204,19.2545,4.34033,0.0152717,0.00633684,-0.0138532,0.02536,-0.0037515,-0.629422,0.0182859,0.0298628,1966,820,19.2545,-4.34035
749,204,19.0161,4.46765,0.0206506,0.00807593,-0.018888,0.0342702,-0.0055437,-0.62473,0.0249013,0.0420832,1973,820,19.0161,-4.46768
756,204,18.7958,4.63403,0,0,0,0,0,0,0,-1,1980,820,18.7957,-4.63401
763,204,19.4365,4.99841,0,0,0,0,0,0,0,-1,1987,820,19.4366,-4.99839
770,204,19.678,5.50104,0,0,0,0,0,0,0,-1,1994,820,19.6779,-5.50106
777,204,0,0,0,0,0,0,0,0,0,-1,2001,820,0,0
784,204,0,0,0,0,0,0,0,0,0,-1,2008,820,0,0
791,204,0,0,0,0,0,0,0,0,0,-1,2015,820,0,0
798,204,0,0,0,0,0,0,0,0,0,-1,2022,820,0,0
805,204,0,0,0,0,0,0,0,0,0,-1,2029,820,0,0
812,204,0,0,0,0,0,0,0,0,0,-1,2036,820,0,0
-700,197,0,0,0,0,0,0,0,0,0,-1,524,827,0,0
-693,197,0,0,0,0,0,0,0,0,0,-1,531,827,0,0
-686,197,0,0,0,0,0,0,0,0,0,-1,538,827,0,0
-679,197,0,0,0,0,0,0,0,0,0,-1,545,827,0,0
-672,197,0,0,0,0,0,0,0,0,0,-1,552,827,0,0
-665,197,0,0,0,0,0,0,0,0,0,-1,559,827,0,0
-658,197,-11.549,7.36163,0,0,0,0,0,0,0,-1,566,827,-11.549,-7.36162
-651,197,-12.4423,6.48224,-0.0580276,0.0303994,-0.109428,0.104208,-0.131836,-0.977392,0.136591,0.0493715,573,827,-12.4423,-6.48225
-644,197,-12.9079,5.76196,-0.0507135,0.0351614,-0.0932919,0.0949226,-0.110475,-1.00107,0.118699,0.0498825,580,827,-12.9079,-5.76194
-637,197,-12.6994,4.68994,0,0,0,0,0,0,0,-1,587,827,-12.6994,-4.68991
-630,197,-12.666,3.90625,-0.034413,0.032363,-0.0616555,0.0690903,-0.0711403,-1.03356,0.0809651,0.0430233,594,827,-12.6659,-3.90627
-623,197,-12.79,3.19019,-0.0268069,0.0279701,-0.0477264,0.0556083,-0.0544451,-1.04589,0.0635406,0.0418397,601,827,-12.79,-3.19016
-616,197,-12.6782,2.47369,-0.0200295,0.0228882,-0.0356691,0.0430558,-0.0401971,-1.0562,0.0480756,0.0430105,608,827,-12.6782,-2.47367
-609,197,-12.7094,1.95129,-0.0146612,0.0188239,-0.0261195,0.0331061,-0.0289435,-1.07041,0.0358512,0.0316536,615,827,-12.7093,-1.9513
-602,197,-12.8132,1.68127,-0.0101395,0.014439,-0.0182031,0.0241129,-0.0198133,-1.08231,0.0254013,0.0153277,622,827,-12.8132,-1.6813
-595,197,-12.8301,1.45392,-0.00635804,0.00993125,-0.0114258,0.0158181,-0.0122449,-1.09504,0.0162459,0.0160102,629,827,-12.8301,-1.45394
-588,197,-12.8335,1.23199,-0.00302302,0.00478843,-0.00568867,0.00778312,-0.00601771,-1.08623,0.00798961,0.0175286,636,827,-12.8335,-1.23201
-581,197,-12.8317,1.00299,-0.000664004,0.00179973,-0.00211953,0.00301938,-0.00188365,-1.04864,0.00285597,0.0104231,643,827,-12.8317,-1.00301
-574,197,-12.8345,0.763062,8.37069e-05,0.000577807,-0.000431849,0.000828278,-0.000166764,-1.04521,0.000615353,0.012721,650,827,-12.8344,-0.763041
-567,197,-12.8428,0.48938,0.000108237,0.000232092,0.000512999,0.000686888,-0.000346559,0.845466,0.00060735,0.0141189,657,827,-12.8427,-0.489387
-560,197,-12.8644,0.273682,0.0001372,0.000263282,0.00107786,0.00127995,-0.000879464,0.814608,0.00125386,0.0138974,664,827,-12.8644,-0.273696
-553,197,-12.8911,0.0907593,-1.08909e-06,0.000695936,0.00135971,0.00175109,-0.00105624,0.910854,0.00163728,0.0156343,671,827,-12.8911,-0.0907472
-546,197,-12.8181,-0.138611,-8.11033e-05,0.00110693,0.00123554,0.00188383,-0.000858004,1.00947,0.00161951,0.0286267,678,827,-12.8181,0.13864
-539,197,-12.8491,-0.325195,0,0,0,0,0,0,0,-1,685,827,-12.8491,0.325206
-532,197,-15.5304,2.11584,0,0,0,0,0,0,0,-1,692,827,-15.5304,-2.11585
-525,197,-16.2329,1.78235,0,0,0,0,0,0,0,-1,699,827,-16.2329,-1.78234
-518,197,-17.2017,1.28247,0.000883815,0.00253826,-0.000148896,0.00255156,0.000870521,-1.48175,0.00149771,0.0459942,706,827,-17.2017,-1.28245
-511,197,-17.1434,1.10059,0.00147246,0.00289285,-0.000853823,0.00329324,0.00107208,-1.13231,0.00193955,0.0413458,713,827,-17.1434,-1.10057
-504,197,-17.0921,1.19678,0.00225562,0.0031536,-0.00184775,0.00460612,0.000803093,-0.904586,0.00284114,0.0383277,720,827,-17.0921,-1.19676
-497,197,-17.6497,0.794983,0,0,0,0,0,0,0,-1,727,827,-17.6496,-0.794977
-490,197,-17.3757,0.887939,0.005046,0.0035584,-0.00485765,0.00921647,-0.00061206,-0.709429,0.00635816,0.0379075,734,827,-17.3757,-0.887932
-483,197,-17.0869,0.920227,0.00728083,0.00391269,-0.00684098,0.012642,-0.00144846,-0.664711,0.00894997,0.0426459,741,827,-17.0868,-0.920235
-476,197,0,0,0,0,0,0,0,0,0,-1,748,827,0,0
-469,197,0,0,0,0,0,0,0,0,0,-1,755,827,0,0
-462,197,0,0,0,0,0,0,0,0,0,-1,762,827,0,0
-455,197,0,0,0,0,0,0,0,0,0,-1,769,827,0,0
-448,197,0,0,0,0,0,0,0,0,0,-1,776,827,0,0
-441,197,0,0,0,0,0,0,0,0,0,-1,783,827,0,0
-434,197,0,0,0,0,0,0,0,0,0,-1,790,827,0,0
-427,197,0,0,0,0,0,0,0,0,0,-1,797,827,0,0
-420,197,0,0,0,0,0,0,0,0,0,-1,804,827,0,0
-413,197,0,0,0,0,0,0,0,0,0,-1,811,827,0,0
-406,197,0,0,0,0,0,0,0,0,0,-1,818,827,0,0
-399,197,0,0,0,0,0,0,0,0,0,-1,825,827,0,0
-392,197,0,0,0,0,0,0,0,0,0,-1,832,827,0,0
-385,197,0,0,0,0,0,0,0,0,0,-1,839,827,0,0
-378,197,0,0,0,0,0,0,0,0,0,-1,846,827,0,0
-371,197,0,0,0,0,0,0,0,0,0,-1,853,827,0,0
-364,197,0,0,0,0,0,0,0,0,0,-1,860,827,0,0
-357,197,0,0,0,0,0,0,0,0,0,-1,867,827,0,0
-350,197,0,0,0,0,0,0,0,0,0,-1,874,827,0,0
-343,197,0,0,0,0,0,0,0,0,0,-1,881,827,0,0
-336,197,0,0,0,0,0,0,0,0,0,-1,888,827,0,0
-329,197,0,0,0,0,0,0,0,0,0,-1,895,827,0,0
-322,197,0,0,0,0,0,0,0,0,0,-1,902,827,0,0
-315,197,0,0,0,0,0,0,0,0,0,-1,909,827,0,0
-308,197,0,0,0,0,0,0,0,0,0,-1,916,827,0,0
-301,197,0,0,0,0,0,0,0,0,0,-1,923,827,0,0
-294,197,0,0,0,0,0,0,0,0,0,-1,930,827,0,0
-287,197,0,0,0,0,0,0,0,0,0,-1,937,827,0,0
-280,197,0,0,0,0,0,0,0,0,0,-1,944,827,0,0
-273,197,0,0,0,0,0,0,0,0,0,-1,951,827,0,0
-266,197,0,0,0,0,0,0,0,0,0,-1,958,827,0,0
-259,197,0,0,0,0,0,0,0,0,0,-1,965,827,0,0
-252,197,0,0,0,0,0,0,0,0,0,-1,972,827,0,0
-245,197,0,0,0,0,0,0,0,0,0,-1,979,827,0,0
-238,197,0,0,0,0,0,0,0,0,0,-1,986,827,0,0
-231,197,0,0,0,0,0,0,0,0,0,-1,993,827,0,0
-224,197,0,0,0,0,0,0,0,0,0,-1,1000,827,0,0
-217,197,0,0,0,0,0,0,0,0,0,-1,1007,827,0,0
-210,197,0,0,0,0,0,0,0,0,0,-1,1014,827,0,0
-203,197,0,0,0,0,0,0,0,0,0,-1,1021,827,0,0
-196,197,0,0,0,0,0,0,0,0,0,-1,1028,827,0,0
-189,197,0,0,0,0,0,0,0,0,0,-1,1035,827,0,0
-182,197,0,0,0,0,0,0,0,0,0,-1,1042,827,0,0
-175,197,0,0,0,0,0,0,0,0,0,-1,1049,827,0,0
-168,197,0,0,0,0,0,0,0,0,0,-1,1056,827,0,0
-161,197,0,0,0,0,0,0,0,0,0,-1,1063,827,0,0
-154,197,0,0,0,0,0,0,0,0,0,-1,1070,827,0,0
-147,197,0,0,0,0,0,0,0,0,0,-1,1077,827,0,0
-140,197,0,0,0,0,0,0,0,0,0,-1,1084,827,0,0
-133,197,0,0,0,0,0,0,0,0,0,-1,1091,827,0,0
-126,197,0,0,0,0,0,0,0,0,0,-1,1098,827,0,0
-119,197,0,0,0,0,0,0,0,0,0,-1,1105,827,0,0
-112,197,0,0,0,0,0,0,0,0,0,-1,1112,827,0,0
-105,197,0,0,0,0,0,0,0,0,0,-1,1119,827,0,0
-98,197,0,0,0,0,0,0,0,0,0,-1,1126,827,0,0
-91,197,0,0,0,0,0,0,0,0,0,-1,1133,827,0,0
-84,197,0,0,0,0,0,0,0,0,0,-1,1140,827,0,0
-77,197,0,0,0,0,0,0,0,0,0,-1,1147,827,0,0
-70,197,0,0,0,0,0,0,0,0,0,-1,1154,827,0,0
-63,197,0,0,0,0,0,0,0,0,0,-1,1161,827,0,0
-56,197,0,0,0,0,0,0,0,0,0,-1,1168,827,0,0
-49,197,0,0,0,0,0,0,0,0,0,-1,1175,827,0,0
-42,197,0,0,0,0,0,0,0,0,0,-1,1182,827,0,0
-35,197,0,0,0,0,0,0,0,0,0,-1,1189,827,0,0
-28,197,0,0,0,0,0,0,0,0,0,-1,1196,827,0,0
-21,197,0,0,0,0,0,0,0,0,0,-1,1203,827,0,0
-14,197,0,0,0,0,0,0,0,0,0,-1,1210,827,0,0
-7,197,0,0,0,0,0,0,0,0,0,-1,1217,827,0,0
0,197,0,0,0,0,0,0,0,0,0,-1,1224,827,0,0
7,197,0,0,0,0,0,0,0,0,0,-1,1231,827,0,0
14,197,0,0,0,0,0,0,0,0,0,-1,1238,827,0,0
21,197,0,0,0,0,0,0,0,0,0,-1,1245,827,0,0
28,197,0,0,0,0,0,0,0,0,0,-1,1252,827,0,0
35,197,0,0,0,0,0,0,0,0,0,-1,1259,827,0,0
42,197,0,0,0,0,0,0,0,0,0,-1,1266,827,0,0
49,197,0,0,0,0,0,0,0,0,0,-1,1273,827,0,0
56,197,0,0,0,0,0,0,0,0,0,-1,1280,827,0,0
63,197,0,0,0,0,0,0,0,0,0,-1,1287,827,0,0
70,197,0,0,0,0,0,0,0,0,0,-1,1294,827,0,0
77,197,0,0,0,0,0,0,0,0,0,-1,1301,827,0,0
84,197,0,0,0,0,0,0,0,0,0,-1,1308,827,0,0
91,197,0,0,0,0,0,0,0,0,0,-1,1315,827,0,0
98,197,0,0,0,0,0,0,0,0,0,-1,1322,827,0,0
105,197,0,0,0,0,0,0,0,0,0,-1,1329,827,0,0
112,197,0,0,0,0,0,0,0,0,0,-1,1336,827,0,0
119,197,0,0,0,0,0,0,0,0,0,-1,1343,827,0,0
126,197,0,0,0,0,0,0,0,0,0,-1,1350,827,0,0
133,197,0,0,0,0,0,0,0,0,0,-1,1357,827,0,0
140,197,0,0,0,0,0,0,0,0,0,-1,1364,827,0,0
147,197,0,0,0,0,0,0,0,0,0,-1,1371,827,0,0
154,197,0,0,0,0,0,0,0,0,0,-1,1378,827,0,0
161,197,0,0,0,0,0,0,0,0,0,-1,1385,827,0,0
168,197,0,0,0,0,0,0,0,0,0,-1,1392,827,0,0
175,197,0,0,0,0,0,0,0,0,0,-1,1399,827,0,0
182,197,0,0,0,0,0,0,0,0,0,-1,1406,827,0,0
189,197,0,0,0,0,0,0,0,0,0,-1,1413,827,0,0
196,197,0,0,0,0,0,0,0,0,0,-1,1420,827,0,0
203,197,0,0,0,0,0,0,0,0,0,-1,1427,827,0,0
210,197,0,0,0,0,0,0,0,0,0,-1,1434,827,0,0
217,197,0,0,0,0,0,0,0,0,0,-1,1441,827,0,0
224,197,0,0,0,0,0,0,0,0,0,-1,1448,827,0,0
231,197,0,0,0,0,0,0,0,0,0,-1,1455,827,0,0
238,197,0,0,0,0,0,0,0,0,0,-1,1462,827,0,0
245,197,0,0,0,0,0,0,0,0,0,-1,1469,827,0,0
252,197,0,0,0,0,0,0,0,0,0,-1,1476,827,0,0
259,197,0,0,0,0,0,0,0,0,0,-1,1483,827,0,0
266,197,0,0,0,0,0,0,0,0,0,-1,1490,827,0,0
273,197,0,0,0,0,0,0,0,0,0,-1,1497,827,0,0
280,197,0,0,0,0,0,0,0,0,0,-1,1504,827,0,0
287,197,0,0,0,0,0,0,0,0,0,-1,1511,827,0,0
294,197,0,0,0,0,0,0,0,0,0,-1,1518,827,0,0
301,197,0,0,0,0,0,0,0,0,0,-1,1525,827,0,0
308,197,0,0,0,0,0,0,0,0,0,-1,1532,827,0,0
315,197,0,0,0,0,0,0,0,0,0,-1,1539,827,0,0
322,197,0,0,0,0,0,0,0,0,0,-1,1546,827,0,0
329,197,0,0,0,0,0,0,0,0,0,-1,1553,827,0,0
336,197,0,0,0,0,0,0,0,0,0,-1,1560,827,0,0
343,197,0,0,0,0,0,0,0,0,0,-1,1567,827,0,0
350,197,0,0,0,0,0,0,0,0,0,-1,1574,827,0,0
357,197,0,0,0,0,0,0,0,0,0,-1,1581,827,0,0
364,197,0,0,0,0,0,0,0,0,0,-1,1588,827,0,0
371,197,0,0,0,0,0,0,0,0,0,-1,1595,827,0,0
378,197,0,0,0,0,0,0,0,0,0,-1,1602,827,0,0
385,197,0,0,0,0,0,0,0,0,0,-1,1609,827,0,0
392,197,0,0,0,0,0,0,0,0,0,-1,1616,827,0,0
399,197,0,0,0,0,0,0,0,0,0,-1,1623,827,0,0
406,197,0,0,0,0,0,0,0,0,0,-1,1630,827,0,0
413,197,0,0,0,0,0,0,0,0,0,-1,1637,827,0,0
420,197,0,0,0,0,0,0,0,0,0,-1,1644,827,0,0
427,197,0,0,0,0,0,0,0,0,0,-1,1651,827,0,0
434,197,0,0,0,0,0,0,0,0,0,-1,1658,827,0,0
441,197,0,0,0,0,0,0,0,0,0,-1,1665,827,0,0
448,197,0,0,0,0,0,0,0,0,0,-1,1672,827,0,0
455,197,0,0,0,0,0,0,0,0,0,-1,1679,827,0,0
462,197,0,0,0,0,0,0,0,0,0,-1,1686,827,0,0
469,197,0,0,0,0,0,0,0,0,0,-1,1693,827,0,0
476,197,0,0,0,0,0,0,0,0,0,-1,1700,827,0,0
483,197,0,0,0,0,0,0,0,0,0,-1,1707,827,0,0
490,197,0,0,0,0,0,0,0,0,0,-1,1714,827,0,0
497,197,0,0,0,0,0,0,0,0,0,-1,1721,827,0,0
504,197,0,0,0,0,0,0,0,0,0,-1,1728,827,0,0
511,197,0,0,0,0,0,0,0,0,0,-1,1735,827,0,0
518,197,0,0,0,0,0,0,0,0,0,-1,1742,827,0,0
525,197,0,0,0,0,0,0,0,0,0,-1,1749,827,0,0
532,197,0,0,0,0,0,0,0,0,0,-1,1756,827,0,0
539,197,0,0,0,0,0,0,0,0,0,-1,1763,827,0,0
546,197,0,0,0,0,0,0,0,0,0,-1,1770,827,0,0
553,197,0,0,0,0,0,0,0,0,0,-1,1777,827,0,0
560,197,0,0,0,0,0,0,0,0,0,-1,1784,827,0,0
567,197,0,0,0,0,0,0,0,0,0,-1,1791,827,0,0
574,197,0,0,0,0,0,0,0,0,0,-1,1798,827,0,0
581,197,0,0,0,0,0,0,0,0,0,-1,1805,827,0,0
588,197,0,0,0,0,0,0,0,0,0,-1,1812,827,0,0
595,197,0,0,0,0,0,0,0,0,0,-1,1819,827,0,0
602,197,25.0447,2.65466,0.00691415,0.00120595,0.00427178,0.00919756,-0.00107745,0.490891,0.0065206,0.0397229,1826,827,25.0447,-2.65465
609,197,24.9644,2.81714,0.00442352,0.00233886,0.00328862,0.00683104,-6.86615e-05,0.631931,0.00457709,0.0416235,1833,827,24.9643,-2.81716
616,197,24.9669,2.82587,0,0,0,0,0,0,0,-1,1840,827,24.9669,-2.82585
623,197,25.0093,2.5896,-0.00110359,0.00371204,0.000611862,0.00378856,-0.00118012,1.44637,0.00299754,0.037532,1847,827,25.0093,-2.58963
630,197,25.0668,2.66998,-0.00337135,0.00407547,-0.000342514,0.00409119,-0.00338707,-1.52493,0.00432395,0.031597,1854,827,25.0668,-2.66996
637,197,24.9772,2.77228,-0.00487232,0.00406935,-0.000947664,0.00416868,-0.00497165,-1.46636,0.00528396,0.0285628,1861,827,24.9771,-2.77231
644,197,24.9017,2.82605,-0.00560882,0.00380797,-0.00129452,0.00398269,-0.00578354,-1.43664,0.0056704,0.0326636,1868,827,24.9017,-2.82606
651,197,24.4733,3.20093,-0.00575972,0.00334284,-0.00148846,0.00358005,-0.00599694,-1.41276,0.00558766,0.042104,1875,827,24.4733,-3.20092
658,197,24.4714,3.24176,0,0,0,0,0,0,0,-1,1882,827,24.4715,-3.24175
665,197,14.0618,1.80304,0,0,0,0,0,0,0,-1,1889,827,14.0617,-1.80303
672,197,19.7767,1.69824,0,0,0,0,0,0,0,-1,1896,827,19.7767,-1.69825
679,197,19.7106,2.0791,-0.00458304,0.00132456,-0.00148064,0.00167488,-0.00493336,-1.33847,0.00396687,0.0310515,1903,827,19.7105,-2.07911
686,197,19.6257,2.35474,-0.00371767,0.000982274,-0.00138089,0.00135796,-0.00409336,-1.30516,0.00327674,0.0174157,1910,827,19.6257,-2.35477
693,197,19.6102,2.61047,-0.00214987,0.000675425,-0.00158706,0.00138747,-0.00286192,-1.14906,0.00250213,0.0149265,1917,827,19.6103,-2.61048
700,197,19.5947,2.88519,-0.000513242,0.000302017,-0.00190264,0.0018402,-0.00205143,-0.890925,0.00224794,0.0206999,1924,827,19.5947,-2.88517
707,197,19.6406,3.12622,0.00123823,3.29996e-05,-0.00204927,0.00277164,-0.00150042,-0.642397,0.00250261,0.00889595,1931,827,19.6406,-3.1262
714,197,19.6094,3.3855,0.00234285,0.000614171,-0.00274616,0.00435748,-0.00140046,-0.632934,0.0034674,0.010906,1938,827,19.6094,-3.3855
721,197,19.5917,3.62952,0.00392114,0.00121305,-0.00404805,0.00683559,-0.00170141,-0.624001,0.0052175,0.0116469,1945,827,19.5917,-3.62951
728,197,19.5699,3.88013,0.00588804,0.00188726,-0.00585163,0.0100718,-0.00229646,-0.6207,0.00759659,0.00987648,1952,827,19.5699,-3.88013
735,197,19.5663,4.13239,0.00838952,0.00264098,-0.00813209,0.0141403,-0.00310984,-0.615527,0.0106164,0.01019,1959,827,19.5663,-4.13241
742,197,19.5436,4.37201,0.0115592,0.00329677,-0.011134,0.0193037,-0.0044477,-0.607748,0.0145796,0.0195969,1966,827,19.5435,-4.372
749,197,19.4163,4.7052,0.0158234,0.00388298,-0.015174,0.0261594,-0.00645305,-0.597975,0.0199417,0.0411,1973,827,19.4163,-4.70521
756,197,19.5319,4.85529,0,0,0,0,0,0,0,-1,1980,827,19.5319,-4.85531
763,197,20.0248,5.09314,0,0,0,0,0,0,0,-1,1987,827,20.0248,-5.09314
770,197,20.297,5.57953,0,0,0,0,0,0,0,-1,1994,827,20.297,-5.57952
777,197,0,0,0,0,0,0,0,0,0,-1,2001,827,0,0
784,197,0,0,0,0,0,0,0,0,0,-1,2008,827,0,0
791,197,0,0,0,0,0,0,0,0,0,-1,2015,827,0,0
798,197,0,0,0,0,0,0,0,0,0,-1,2022,827,0,0
805,197,0,0,0,0,0,0,0,0,0,-1,2029,827,0,0
812,197,0,0,0,0,0,0,0,0,0,-1,2036,827,0,0
-700,190,0,0,0,0,0,0,0,0,0,-1,524,834,0,0
-693,190,0,0,0,0,0,0,0,0,0,-1,531,834,0,0
-686,190,0,0,0,0,0,0,0,0,0,-1,538,834,0,0
-679,190,0,0,0,0,0,0,0,0,0,-1,545,834,0,0
-672,190,0,0,0,0,0,0,0,0,0,-1,552,834,0,0
-665,190,0,0,0,0,0,0,0,0,0,-1,559,834,0,0
-658,190,-11.6723,7.16071,0,0,0,0,0,0,0,-1,566,834,-11.6723,-7.16069
-651,190,-11.6691,6.48804,-0.0497899,0.0271357,-0.0867153,0.0835356,-0.10619,-0.994138,0.109798,0.0488981,573,834,-11.6691,-6.48805
-644,190,-11.8002,5.82239,-0.0447822,0.0329144,-0.0746588,0.0782274,-0.0900952,-1.02529,0.0972616,0.045987,580,834,-11.8002,-5.82236
-637,190,-12.0228,4.92346,-0.0386184,0.0337822,-0.0623315,0.069663,-0.0744992,-1.04848,0.0832477,0.0474604,587,834,-12.0228,-4.92347
-630,190,-12.3305,3.96576,-0.0320659,0.0315451,-0.0504172,0.0593507,-0.0598715,-1.06679,0.0688332,0.0448406,594,834,-12.3305,-3.96577
-623,190,-12.5382,3.11694,-0.0256428,0.0274971,-0.0394157,0.048462,-0.0466077,-1.08196,0.054892,0.0448713,601,834,-12.5382,-3.11693
-616,190,-12.7694,2.50592,-0.0196561,0.0226868,-0.0297373,0.0380193,-0.0349886,-1.09475,0.0421632,0.0420688,608,834,-12.7694,-2.50592
-609,190,-13.0195,1.86932,-0.0148893,0.0189017,-0.0220266,0.0297664,-0.0257541,-1.11256,0.0320826,0.0238176,615,834,-13.0195,-1.86935
-602,190,-13.0468,1.66608,-0.0107335,0.0146686,-0.0154526,0.02197,-0.018035,-1.12938,0.0231341,0.0151275,622,834,-13.0467,-1.66605
-595,190,-13.0579,1.45844,-0.00699945,0.0100166,-0.00957122,0.0143146,-0.0112975,-1.14873,0.0148213,0.0179994,629,834,-13.0579,-1.45844
-588,190,-13.0706,1.2395,-0.00375609,0.0047606,-0.00467244,0.00682406,-0.00581955,-1.15493,0.00730747,0.0148391,636,834,-13.0706,-1.23953
-581,190,-13.0667,1.00366,-0.00133317,0.001812,-0.00163861,0.00251055,-0.00203172,-1.16782,0.00262733,0.010348,643,834,-13.0666,-1.00367
-574,190,-13.0633,0.745178,-0.000370869,0.000654062,-0.000201255,0.000692165,-0.000408971,-1.38369,0.000642711,0.0108246,650,834,-13.0633,-0.745182
-567,190,-13.0695,0.490356,-0.000188573,0.000398966,0.000543629,0.000723123,-0.00051273,1.03311,0.000716958,0.01374,657,834,-13.0695,-0.490375
-560,190,-13.1248,0.276855,-5.47086e-05,0.000463935,0.00100408,0.00124164,-0.00083241,0.911771,0.0012052,0.0233946,664,834,-13.1248,-0.276857
-553,190,-13.1514,0.071228,-0.000103562,0.000912278,0.00121501,0.00172126,-0.000912545,0.983377,0.00154434,0.0210407,671,834,-13.1514,-0.0712004
-546,190,-13.0532,-0.150757,-0.000112271,0.00137477,0.00105918,0.00192535,-0.000662849,1.09142,0.00155243,0.0404562,678,834,-13.0532,0.150752
-539,190,-12.8745,0.313049,0,0,0,0,0,0,0,-1,685,834,-12.8745,-0.313044
-532,190,-12.8996,0.901001,0,0,0,0,0,0,0,-1,692,834,-12.8996,-0.900982
-525,190,-17.3204,1.0874,0,0,0,0,0,0,0,-1,699,834,-17.3204,-1.08742
-518,190,-17.1958,1.10767,0.000784997,0.00302883,-0.000294988,0.00306696,0.000746864,-1.44224,0.00184673,0.0488933,706,834,-17.1958,-1.10768
-511,190,-17.0804,1.11279,0.00128154,0.00341129,-0.000998178,0.00380597,0.000886851,-1.19426,0.00229943,0.0390714,713,834,-17.0805,-1.11278
-504,190,-16.9188,1.23975,0.00197341,0.00363397,-0.00202609,0.00499331,0.000614073,-0.979859,0.00314423,0.039701,720,834,-16.9188,-1.23974
-497,190,-17.3856,1.10498,0,0,0,0,0,0,0,-1,727,834,-17.3856,-1.105
-490,190,-17.6641,0.967407,0,0,0,0,0,0,0,-1,734,834,-17.6642,-0.967428
-483,190,0,0,0,0,0,0,0,0,0,-1,741,834,0,0
-476,190,0,0,0,0,0,0,0,0,0,-1,748,834,0,0
-469,190,0,0,0,0,0,0,0,0,0,-1,755,834,0,0
-462,190,0,0,0,0,0,0,0,0,0,-1,762,834,0,0
-455,190,0,0,0,0,0,0,0,0,0,-1,769,834,0,0
-448,190,0,0,0,0,0,0,0,0,0,-1,776,834,0,0
-441,190,0,0,0,0,0,0,0,0,0,-1,783,834,0,0
-434,190,0,0,0,0,0,0,0,0,0,-1,790,834,0,0
-427,190,0,0,0,0,0,0,0,0,0,-1,797,834,0,0
-420,190,0,0,0,0,0,0,0,0,0,-1,804,834,0,0
-413,190,0,0,0,0,0,0,0,0,0,-1,811,834,0,0
-406,190,0,0,0,0,0,0,0,0,0,-1,818,834,0,0
-399,190,0,0,0,0,0,0,0,0,0,-1,825,834,0,0
-392,190,0,0,0,0,0,0,0,0,0,-1,832,834,0,0
-385,190,0,0,0,0,0,0,0,0,0,-1,839,834,0,0
-378,190,0,0,0,0,0,0,0,0,0,-1,846,834,0,0
-371,190,0,0,0,0,0,0,0,0,0,-1,853,834,0,0
-364,190,0,0,0,0,0,0,0,0,0,-1,860,834,0,0
-357,190,0,0,0,0,0,0,0,0,0,-1,867,834,0,0
-350,190,0,0,0,0,0,0,0,0,0,-1,874,834,0,0
-343,190,0,0,0,0,0,0,0,0,0,-1,881,834,0,0
-336,190,0,0,0,0,0,0,0,0,0,-1,888,834,0,0
-329,190,0,0,0,0,0,0,0,0,0,-1,895,834,0,0
-322,190,0,0,0,0,0,0,0,0,0,-1,902,834,0,0
-315,190,0,0,0,0,0,0,0,0,0,-1,909,834,0,0
-308,190,0,0,0,0,0,0,0,0,0,-1,916,834,0,0
-301,190,0,0,0,0,0,0,0,0,0,-1,923,834,0,0
-294,190,0,0,0,0,0,0,0,0,0,-1,930,834,0,0
-287,190,0,0,0,0,0,0,0,0,0,-1,937,834,0,0
-280,190,0,0,0,0,0,0,0,0,0,-1,944,834,0,0
-273,190,0,0,0,0,0,0,0,0,0,-1,951,834,0,0
-266,190,0,0,0,0,0,0,0,0,0,-1,958,834,0,0
-259,190,0,0,0,0,0,0,0,0,0,-1,965,834,0,0
-252,190,0,0,0,0,0,0,0,0,0,-1,972,834,0,0
-245,190,0,0,0,0,0,0,0,0,0,-1,979,834,0,0
-238,190,0,0,0,0,0,0,0,0,0,-1,986,834,0,0
-231,190,0,0,0,0,0,0,0,0,0,-1,993,834,0,0
-224,190,0,0,0,0,0,0,0,0,0,-1,1000,834,0,0
-217,190,0,0,0,0,0,0,0,0,0,-1,1007,834,0,0
-210,190,0,0,0,0,0,0,0,0,0,-1,1014,834,0,0
-203,190,0,0,0,0,0,0,0,0,0,-1,1021,834,0,0
-196,190,0,0,0,0,0,0,0,0,0,-1,1028,834,0,0
-189,190,0,0,0,0,0,0,0,0,0,-1,1035,834,0,0
-182,190,0,0,0,0,0,0,0,0,0,-1,1042,834,0,0
-175,190,0,0,0,0,0,0,0,0,0,-1,1049,834,0,0
-168,190,0,0,0,0,0,0,0,0,0,-1,1056,834,0,0
-161,190,0,0,0,0,0,0,0,0,0,-1,1063,834,0,0
-154,190,0,0,0,0,0,0,0,0,0,-1,1070,834,0,0
-147,190,0,0,0,0,0,0,0,0,0,-1,1077,834,0,0
-140,190,0,0,0,0,0,0,0,0,0,-1,1084,834,0,0
-133,190,0,0,0,0,0,0,0,0,0,-1,1091,834,0,0
-126,190,0,0,0,0,0,0,0,0,0,-1,1098,834,0,0
-119,190,0,0,0,0,0,0,0,0,0,-1,1105,834,0,0
-112,190,0,0,0,0,0,0,0,0,0,-1,1112,834,0,0
-105,190,0,0,0,0,0,0,0,0,0,-1,1119,834,0,0
-98,190,0,0,0,0,0,0,0,0,0,-1,1126,834,0,0
-91,190,0,0,0,0,0,0,0,0,0,-1,1133,834,0,0
-84,190,0,0,0,0,0,0,0,0,0,-1,1140,834,0,0
-77,190,0,0,0,0,0,0,0,0,0,-1,1147,834,0,0
-70,190,0,0,0,0,0,0,0,0,0,-1,1154,834,0,0
-63,190,0,0,0,0,0,0,0,0,0,-1,1161,834,0,0
-56,190,0,0,0,0,0,0,0,0,0,-1,1168,834,0,0
-49,190,0,0,0,0,0,0,0,0,0,-1,1175,834,0,0
-42,190,0,0,0,0,0,0,0,0,0,-1,1182,834,0,0
-35,190,0,0,0,0,0,0,0,0,0,-1,1189,834,0,0
-28,190,0,0,0,0,0,0,0,0,0,-1,1196,834,0,0
-21,190,0,0,0,0,0,0,0,0,0,-1,1203,834,0,0
-14,190,0,0,0,0,0,0,0,0,0,-1,1210,834,0,0
-7,190,0,0,0,0,0,0,0,0,0,-1,1217,834,0,0
0,190,0,0,0,0,0,0,0,0,0,-1,1224,834,0,0
7,190,0,0,0,0,0,0,0,0,0,-1,1231,834,0,0
14,190,0,0,0,0,0,0,0,0,0,-1,1238,834,0,0
21,190,0,0,0,0,0,0,0,0,0,-1,1245,834,0,0
28,190,0,0,0,0,0,0,0,0,0,-1,1252,834,0,0
35,190,0,0,0,0,0,0,0,0,0,-1,1259,834,0,0
42,190,0,0,0,0,0,0,0,0,0,-1,1266,834,0,0
49,190,0,0,0,0,0,0,0,0,0,-1,1273,834,0,0
56,190,0,0,0,0,0,0,0,0,0,-1,1280,834,0,0
63,190,0,0,0,0,0,0,0,0,0,-1,1287,834,0,0
70,190,0,0,0,0,0,0,0,0,0,-1,1294,834,0,0
77,190,0,0,0,0,0,0,0,0,0,-1,1301,834,0,0
84,190,0,0,0,0,0,0,0,0,0,-1,1308,834,0,0
91,190,0,0,0,0,0,0,0,0,0,-1,1315,834,0,0
98,190,0,0,0,0,0,0,0,0,0,-1,1322,834,0,0
105,190,0,0,0,0,0,0,0,0,0,-1,1329,834,0,0
112,190,0,0,0,0,0,0,0,0,0,-1,1336,834,0,0
119,190,0,0,0,0,0,0,0,0,0,-1,1343,834,0,0
126,190,0,0,0,0,0,0,0,0,0,-1,1350,834,0,0
133,190,0,0,0,0,0,0,0,0,0,-1,1357,834,0,0
140,190,0,0,0,0,0,0,0,0,0,-1,1364,834,0,0
147,190,0,0,0,0,0,0,0,0,0,-1,1371,834,0,0
154,190,0,0,0,0,0,0,0,0,0,-1,1378,834,0,0
161,190,0,0,0,0,0,0,0,0,0,-1,1385,834,0,0
168,190,0,0,0,0,0,0,0,0,0,-1,1392,834,0,0
175,190,0,0,0,0,0,0,0,0,0,-1,1399,834,0,0
182,190,0,0,0,0,0,0,0,0,0,-1,1406,834,0,0
189,190,0,0,0,0,0,0,0,0,0,-1,1413,834,0,0
196,190,0,0,0,0,0,0,0,0,0,-1,1420,834,0,0
203,190,0,0,0,0,0,0,0,0,0,-1,1427,834,0,0
210,190,0,0,0,0,0,0,0,0,0,-1,1434,834,0,0
217,190,0,0,0,0,0,0,0,0,0,-1,1441,834,0,0
224,190,0,0,0,0,0,0,0,0,0,-1,1448,834,0,0
231,190,0,0,0,0,0,0,0,0,0,-1,1455,834,0,0
238,190,0,0,0,0,0,0,0,0,0,-1,1462,834,0,0
245,190,0,0,0,0,0,0,0,0,0,-1,1469,834,0,0
252,190,0,0,0,0,0,0,0,0,0,-1,1476,834,0,0
259,190,0,0,0,0,0,0,0,0,0,-1,1483,834,0,0
266,190,0,0,0,0,0,0,0,0,0,-1,1490,834,0,0
273,190,0,0,0,0,0,0,0,0,0,-1,1497,834,0,0
280,190,0,0,0,0,0,0,0,0,0,-1,1504,834,0,0
287,190,0,0,0,0,0,0,0,0,0,-1,1511,834,0,0
294,190,0,0,0,0,0,0,0,0,0,-1,1518,834,0,0
301,190,0,0,0,0,0,0,0,0,0,-1,1525,834,0,0
308,190,0,0,0,0,0,0,0,0,0,-1,1532,834,0,0
315,190,0,0,0,0,0,0,0,0,0,-1,1539,834,0,0
322,190,0,0,0,0,0,0,0,0,0,-1,1546,834,0,0
329,190,0,0,0,0,0,0,0,0,0,-1,1553,834,0,0
336,190,0,0,0,0,0,0,0,0,0,-1,1560,834,0,0
343,190,0,0,0,0,0,0,0,0,0,-1,1567,834,0,0
350,190,0,0,0,0,0,0,0,0,0,-1,1574,834,0,0
357,190,0,0,0,0,0,0,0,0,0,-1,1581,834,0,0
364,190,0,0,0,0,0,0,0,0,0,-1,1588,834,0,0
371,190,0,0,0,0,0,0,0,0,0,-1,1595,834,0,0
378,190,0,0,0,0,0,0,0,0,0,-1,1602,834,0,0
385,190,0,0,0,0,0,0,0,0,0,-1,1609,834,0,0
392,190,0,0,0,0,0,0,0,0,0,-1,1616,834,0,0
399,190,0,0,0,0,0,0,0,0,0,-1,1623,834,0,0
406,190,0,0,0,0,0,0,0,0,0,-1,1630,834,0,0
413,190,0,0,0,0,0,0,0,0,0,-1,1637,834,0,0
420,190,0,0,0,0,0,0,0,0,0,-1,1644,834,0,0
427,190,0,0,0,0,0,0,0,0,0,-1,1651,834,0,0
434,190,0,0,0,0,0,0,0,0,0,-1,1658,834,0,0
441,190,0,0,0,0,0,0,0,0,0,-1,1665,834,0,0
448,190,0,0,0,0,0,0,0,0,0,-1,1672,834,0,0
455,190,0,0,0,0,0,0,0,0,0,-1,1679,834,0,0
462,190,0,0,0,0,0,0,0,0,0,-1,1686,834,0,0
469,190,0,0,0,0,0,0,0,0,0,-1,1693,834,0,0
476,190,0,0,0,0,0,0,0,0,0,-1,1700,834,0,0
483,190,0,0,0,0,0,0,0,0,0,-1,1707,834,0,0
490,190,0,0,0,0,0,0,0,0,0,-1,1714,834,0,0
497,190,0,0,0,0,0,0,0,0,0,-1,1721,834,0,0
504,190,0,0,0,0,0,0,0,0,0,-1,1728,834,0,0
511,190,0,0,0,0,0,0,0,0,0,-1,1735,834,0,0
518,190,0,0,0,0,0,0,0,0,0,-1,1742,834,0,0
525,190,0,0,0,0,0,0,0,0,0,-1,1749,834,0,0
532,190,0,0,0,0,0,0,0,0,0,-1,1756,834,0,0
539,190,0,0,0,0,0,0,0,0,0,-1,1763,834,0,0
546,190,0,0,0,0,0,0,0,0,0,-1,1770,834,0,0
553,190,0,0,0,0,0,0,0,0,0,-1,1777,834,0,0
560,190,0,0,0,0,0,0,0,0,0,-1,1784,834,0,0
567,190,0,0,0,0,0,0,0,0,0,-1,1791,834,0,0
574,190,0,0,0,0,0,0,0,0,0,-1,1798,834,0,0
581,190,0,0,0,0,0,0,0,0,0,-1,1805,834,0,0
588,190,0,0,0,0,0,0,0,0,0,-1,1812,834,0,0
595,190,0,0,0,0,0,0,0,0,0,-1,1819,834,0,0
602,190,24.7271,2.80792,0.00859683,0.00155943,0.00471526,0.0109616,-0.000805314,0.464854,0.00759041,0.041304,1826,834,24.727,-2.80791
609,190,24.9032,2.88599,0.00588461,0.00237898,0.00375245,0.00827345,-9.85386e-06,0.566902,0.00551892,0.0416134,1833,834,24.9032,-2.88601
616,190,25.0096,3.00989,0.00304478,0.00299086,0.00235705,0.00537503,0.000660612,0.77968,0.00338471,0.0420013,1840,834,25.0096,-3.00987
623,190,24.9854,2.86456,7.98671e-05,0.00347943,0.00109055,0.00379919,-0.000239898,1.28558,0.00261643,0.0406259,1847,834,24.9853,-2.86458
630,190,25.0903,2.78949,-0.00240836,0.00385448,0.000129718,0.00385717,-0.00241105,1.5501,0.00365092,0.0402378,1854,834,25.0904,-2.78951
637,190,25.0106,2.73132,-0.00408314,0.00385188,-0.000498112,0.00388303,-0.00411429,-1.50835,0.00461789,0.0337653,1861,834,25.0106,-2.73133
644,190,24.9286,2.82635,-0.00488038,0.00359286,-0.000848495,0.00367699,-0.00496451,-1.47197,0.0050076,0.0272127,1868,834,24.9286,-2.82637
651,190,24.8933,2.91339,-0.0050331,0.00312952,-0.00103798,0.00325944,-0.00516302,-1.44627,0.00490394,0.0378129,1875,834,24.8933,-2.91342
658,190,24.849,2.85486,-0.00493725,0.00273249,-0.0012664,0.00293618,-0.00514094,-1.41132,0.00472089,0.0460207,1882,834,24.8491,-2.85488
665,190,25.089,2.56268,0,0,0,0,0,0,0,-1,1889,834,25.089,-2.5627
672,190,20.2794,2.08801,0,0,0,0,0,0,0,-1,1896,834,20.2795,-2.08803
679,190,20.0166,2.28876,-0.00400517,0.00121697,-0.00115509,0.00146106,-0.00424926,-1.36255,0.00342535,0.0382955,1903,834,20.0167,-2.28875
686,190,19.8431,2.41748,-0.0032558,0.000879126,-0.00109208,0.00114983,-0.00352651,-1.32781,0.00281372,0.0157031,1910,834,19.8432,-2.4175
693,190,19.8596,2.63751,-0.0019448,0.000528709,-0.00125368,0.001053,-0.00246909,-1.1747,0.00208754,0.0124055,1917,834,19.8596,-2.63749
700,190,19.8738,2.87091,-0.000592566,0.000114359,-0.00150201,0.00130393,-0.00178214,-0.900959,0.00178886,0.0105981,1924,834,19.8738,-2.87089
707,190,19.9028,3.13147,0.000825825,-0.000320702,-0.0015438,0.00189936,-0.00139424,-0.607623,0.001909,0.0123735,1931,834,19.9029,-3.13146
714,190,19.8875,3.38336,0.00155542,-4.0581e-05,-0.00200474,0.00291515,-0.00140031,-0.595983,0.00254218,0.0111182,1938,834,19.8874,-3.38334
721,190,19.8604,3.6308,0.00268761,0.00011922,-0.00299872,0.00466554,-0.00185871,-0.583089,0.00388123,0.0102407,1945,834,19.8604,-3.63081
728,190,19.8496,3.87634,0.0042643,0.000233305,-0.00443514,0.00712042,-0.00262282,-0.572129,0.00582161,0.0119679,1952,834,19.8496,-3.87635
735,190,19.8545,4.11523,0.00626729,0.000327852,-0.00625044,0.0102176,-0.00362249,-0.563624,0.00828749,0.0113147,1959,834,19.8545,-4.11521
742,190,19.8334,4.37909,0.00881378,0.000158257,-0.00863485,0.0141447,-0.00517266,-0.553096,0.0115469,0.0159888,1966,834,19.8334,-4.3791
749,190,19.774,4.70093,0.0123181,-0.000315532,-0.0118658,0.0194437,-0.00744116,-0.540801,0.0160293,0.0388273,1973,834,19.7741,-4.70092
756,190,19.7354,5.02808,0,0,0,0,0,0,0,-1,1980,834,19.7353,-5.02809
763,190,20.641,5.05487,0.022405,-0.00256204,-0.0223119,0.0354882,-0.0156453,-0.530345,0.0302538,0.045876,1987,834,20.641,-5.05489
770,190,20.7908,5.53455,0,0,0,0,0,0,0,-1,1994,834,20.7908,-5.53455
777,190,20.818,6.04956,0,0,0,0,0,0,0,-1,2001,834,20.818,-6.04959
784,190,0,0,0,0,0,0,0,0,0,-1,2008,834,0,0
791,190,0,0,0,0,0,0,0,0,0,-1,2015,834,0,0
798,190,0,0,0,0,0,0,0,0,0,-1,2022,834,0,0
805,190,0,0,0,0,0,0,0,0,0,-1,2029,834,0,0
812,190,0,0,0,0,0,0,0,0,0,-1,2036,834,0,0
-700,183,0,0,0,0,0,0,0,0,0,-1,524,841,0,0
-693,183,0,0,0,0,0,0,0,0,0,-1,531,841,0,0
-686,183,0,0,0,0,0,0,0,0,0,-1,538,841,0,0
-679,183,0,0,0,0,0,0,0,0,0,-1,545,841,0,0
-672,183,0,0,0,0,0,0,0,0,0,-1,552,841,0,0
-665,183,0,0,0,0,0,0,0,0,0,-1,559,841,0,0
-658,183,-14.3316,-0.340454,0,0,0,0,0,0,0,-1,566,841,-14.3316,0.340431
-651,183,-10.7974,6.83789,0,0,0,0,0,0,0,-1,573,841,-10.7973,-6.8379
-644,183,-10.7123,5.91663,-0.0391405,0.0297403,-0.0579922,0.0627479,-0.0721481,-1.05335,0.0779453,0.0473418,580,841,-10.7123,-5.91663
-637,183,-11.1124,4.82562,-0.0344267,0.0313369,-0.0487317,0.0572428,-0.0603326,-1.08219,0.06789,0.0475002,587,841,-11.1124,-4.8256
-630,183,-12.2827,3.80597,-0.0291938,0.0297742,-0.0397218,0.0497587,-0.0491783,-1.10466,0.0571216,0.042445,594,841,-12.2827,-3.80594
-623,183,-12.7241,3.14136,-0.023818,0.0262619,-0.0313073,0.0413112,-0.0388673,-1.12271,0.0462982,0.0428573,601,841,-12.7241,-3.14136
-616,183,-13.2148,2.35681,-0.0185899,0.0219219,-0.023805,0.0329227,-0.0295907,-1.13791,0.0361092,0.0351172,608,841,-13.2148,-2.35682
-609,183,-13.272,1.8985,-0.014395,0.0185406,-0.0177728,0.0263021,-0.0221565,-1.15905,0.0280117,0.0157058,615,841,-13.272,-1.8985
-602,183,-13.2855,1.66687,-0.01061,0.0145418,-0.0124782,0.019682,-0.0157501,-1.18005,0.0204987,0.0107582,622,841,-13.2854,-1.66687
-595,183,-13.3004,1.43085,-0.00701395,0.00985372,-0.00757653,0.0127571,-0.00991737,-1.20485,0.0131253,0.010785,629,841,-13.3004,-1.43082
-588,183,-13.3069,1.20715,-0.0039511,0.0046312,-0.00359031,0.00593508,-0.00525497,-1.22244,0.00646455,0.0108992,636,841,-13.3069,-1.20714
-581,183,-13.3157,0.988525,-0.0015977,0.00185203,-0.00115117,0.00220089,-0.00194656,-1.27654,0.00239603,0.0116356,643,841,-13.3158,-0.988496
-574,183,-13.3078,0.767639,-0.00053823,0.000842504,-1.74493e-06,0.000842507,-0.000538232,-1.56953,0.000803596,0.0119999,650,841,-13.3078,-0.767646
-567,183,-13.2542,0.542786,-0.00026115,0.000664882,0.000563927,0.000931521,-0.00052779,1.12912,0.000853214,0.0211128,657,841,-13.2542,-0.54279
-560,183,-13.3856,0.350342,-7.06203e-05,0.000755776,0.000938207,0.00136774,-0.000682588,0.992824,0.00120559,0.0250001,664,841,-13.3856,-0.350345
-553,183,-13.3042,0.0408325,-6.02888e-05,0.00122436,0.00109932,0.00185526,-0.000691183,1.04979,0.00152053,0.0214618,671,841,-13.3042,-0.0408424
-546,183,-12.915,-0.201843,0,0,0,0,0,0,0,-1,678,841,-12.915,0.201837
-539,183,-13.2053,0.44751,0,0,0,0,0,0,0,-1,685,841,-13.2053,-0.447493
-532,183,-16.9695,1.26501,0,0,0,0,0,0,0,-1,692,841,-16.9695,-1.26499
-525,183,-17.0679,1.26324,0,0,0,0,0,0,0,-1,699,841,-17.068,-1.26323
-518,183,-17.1581,1.1001,0.000820141,0.00368391,-0.000291556,0.00371329,0.00079076,-1.47036,0.00225857,0.0465717,706,841,-17.1581,-1.10009
-511,183,-17.0386,1.22638,0.00125448,0.00408017,-0.000947006,0.00436819,0.000966455,-1.27555,0.0026494,0.0382841,713,841,-17.0386,-1.22635
-504,183,-17.0137,1.39728,0.00190259,0.00423916,-0.00194774,0.00534213,0.000799624,-1.05554,0.00332706,0.0396776,720,841,-17.0137,-1.3973
-497,183,-17.0784,1.39368,0,0,0,0,0,0,0,-1,727,841,-17.0784,-1.39365
-490,183,-17.2334,1.02667,0,0,0,0,0,0,0,-1,734,841,-17.2334,-1.02669
-483,183,0,0,0,0,0,0,0,0,0,-1,741,841,0,0
-476,183,0,0,0,0,0,0,0,0,0,-1,748,841,0,0
-469,183,0,0,0,0,0,0,0,0,0,-1,755,841,0,0
-462,183,0,0,0,0,0,0,0,0,0,-1,762,841,0,0
-455,183,0,0,0,0,0,0,0,0,0,-1,769,841,0,0
-448,183,0,0,0,0,0,0,0,0,0,-1,776,841,0,0
-441,183,0,0,0,0,0,0,0,0,0,-1,783,841,0,0
-434,183,0,0,0,0,0,0,0,0,0,-1,790,841,0,0
-427,183,0,0,0,0,0,0,0,0,0,-1,797,841,0,0
-420,183,0,0,0,0,0,0,0,0,0,-1,804,841,0,0
-413,183,0,0,0,0,0,0,0,0,0,-1,811,841,0,0
-406,183,0,0,0,0,0,0,0,0,0,-1,818,841,0,0
-399,183,0,0,0,0,0,0,0,0,0,-1,825,841,0,0
-392,183,0,0,0,0,0,0,0,0,0,-1,832,841,0,0
-385,183,0,0,0,0,0,0,0,0,0,-1,839,841,0,0
-378,183,0,0,0,0,0,0,0,0,0,-1,846,841,0,0
-371,183,0,0,0,0,0,0,0,0,0,-1,853,841,0,0
-364,183,0,0,0,0,0,0,0,0,0,-1,860,841,0,0
-357,183,0,0,0,0,0,0,0,0,0,-1,867,841,0,0
-350,183,0,0,0,0,0,0,0,0,0,-1,874,841,0,0
-343,183,0,0,0,0,0,0,0,0,0,-1,881,841,0,0
-336,183,0,0,0,0,0,0,0,0,0,-1,888,841,0,0
-329,183,0,0,0,0,0,0,0,0,0,-1,895,841,0,0
-322,183,0,0,0,0,0,0,0,0,0,-1,902,841,0,0
-315,183,0,0,0,0,0,0,0,0,0,-1,909,841,0,0
-308,183,0,0,0,0,0,0,0,0,0,-1,916,841,0,0
-301,183,0,0,0,0,0,0,0,0,0,-1,923,841,0,0
-294,183,0,0,0,0,0,0,0,0,0,-1,930,841,0,0
-287,183,0,0,0,0,0,0,0,0,0,-1,937,841,0,0
-280,183,0,0,0,0,0,0,0,0,0,-1,944,841,0,0
-273,183,0,0,0,0,0,0,0,0,0,-1,951,841,0,0
-266,183,0,0,0,0,0,0,0,0,0,-1,958,841,0,0
-259,183,0,0,0,0,0,0,0,0,0,-1,965,841,0,0
-252,183,0,0,0,0,0,0,0,0,0,-1,972,841,0,0
-245,183,0,0,0,0,0,0,0,0,0,-1,979,841,0,0
-238,183,0,0,0,0,0,0,0,0,0,-1,986,841,0,0
-231,183,0,0,0,0,0,0,0,0,0,-1,993,841,0,0
-224,183,0,0,0,0,0,0,0,0,0,-1,1000,841,0,0
-217,183,0,0,0,0,0,0,0,0,0,-1,1007,841,0,0
-210,183,0,0,0,0,0,0,0,0,0,-1,1014,841,0,0
-203,183,0,0,0,0,0,0,0,0,0,-1,1021,841,0,0
-196,183,0,0,0,0,0,0,0,0,0,-1,1028,841,0,0
-189,183,0,0,0,0,0,0,0,0,0,-1,1035,841,0,0
-182,183,0,0,0,0,0,0,0,0,0,-1,1042,841,0,0
-175,183,0,0,0,0,0,0,0,0,0,-1,1049,841,0,0
-168,183,0,0,0,0,0,0,0,0,0,-1,1056,841,0,0
-161,183,0,0,0,0,0,0,0,0,0,-1,1063,841,0,0
-154,183,0,0,0,0,0,0,0,0,0,-1,1070,841,0,0
-147,183,0,0,0,0,0,0,0,0,0,-1,1077,841,0,0
-140,183,0,0,0,0,0,0,0,0,0,-1,1084,841,0,0
-133,183,0,0,0,0,0,0,0,0,0,-1,1091,841,0,0
-126,183,0,0,0,0,0,0,0,0,0,-1,1098,841,0,0
-119,183,0,0,0,0,0,0,0,0,0,-1,1105,841,0,0
-112,183,0,0,0,0,0,0,0,0,0,-1,1112,841,0,0
-105,183,0,0,0,0,0,0,0,0,0,-1,1119,841,0,0
-98,183,0,0,0,0,0,0,0,0,0,-1,1126,841,0,0
-91,183,0,0,0,0,0,0,0,0,0,-1,1133,841,0,0
-84,183,0,0,0,0,0,0,0,0,0,-1,1140,841,0,0
-77,183,0,0,0,0,0,0,0,0,0,-1,1147,841,0,0
-70,183,0,0,0,0,0,0,0,0,0,-1,1154,841,0,0
-63,183,0,0,0,0,0,0,0,0,0,-1,1161,841,0,0
-56,183,0,0,0,0,0,0,0,0,0,-1,1168,841,0,0
-49,183,0,0,0,0,0,0,0,0,0,-1,1175,841,0,0
-42,183,0,0,0,0,0,0,0,0,0,-1,1182,841,0,0
-35,183,0,0,0,0,0,0,0,0,0,-1,1189,841,0,0
-28,183,0,0,0,0,0,0,0,0,0,-1,1196,841,0,0
-21,183,0,0,0,0,0,0,0,0,0,-1,1203,841,0,0
-14,183,0,0,0,0,0,0,0,0,0,-1,1210,841,0,0
-7,183,0,0,0,0,0,0,0,0,0,-1,1217,841,0,0
0,183,0,0,0,0,0,0,0,0,0,-1,1224,841,0,0
7,183,0,0,0,0,0,0,0,0,0,-1,1231,841,0,0
14,183,0,0,0,0,0,0,0,0,0,-1,1238,841,0,0
21,183,0,0,0,0,0,0,0,0,0,-1,1245,841,0,0
28,183,0,0,0,0,0,0,0,0,0,-1,1252,841,0,0
35,183,0,0,0,0,0,0,0,0,0,-1,1259,841,0,0
42,183,0,0,0,0,0,0,0,0,0,-1,1266,841,0,0
49,183,0,0,0,0,0,0,0,0,0,-1,1273,841,0,0
56,183,0,0,0,0,0,0,0,0,0,-1,1280,841,0,0
63,183,0,0,0,0,0,0,0,0,0,-1,1287,841,0,0
70,183,0,0,0,0,0,0,0,0,0,-1,1294,841,0,0
77,183,0,0,0,0,0,0,0,0,0,-1,1301,841,0,0
84,183,0,0,0,0,0,0,0,0,0,-1,1308,841,0,0
91,183,0,0,0,0,0,0,0,0,0,-1,1315,841,0,0
98,183,0,0,0,0,0,0,0,0,0,-1,1322,841,0,0
105,183,0,0,0,0,0,0,0,0,0,-1,1329,841,0,0
112,183,0,0,0,0,0,0,0,0,0,-1,1336,841,0,0
119,183,0,0,0,0,0,0,0,0,0,-1,1343,841,0,0
126,183,0,0,0,0,0,0,0,0,0,-1,1350,841,0,0
133,183,0,0,0,0,0,0,0,0,0,-1,1357,841,0,0
140,183,0,0,0,0,0,0,0,0,0,-1,1364,841,0,0
147,183,0,0,0,0,0,0,0,0,0,-1,1371,841,0,0
154,183,0,0,0,0,0,0,0,0,0,-1,1378,841,0,0
161,183,0,0,0,0,0,0,0,0,0,-1,1385,841,0,0
168,183,0,0,0,0,0,0,0,0,0,-1,1392,841,0,0
175,183,0,0,0,0,0,0,0,0,0,-1,1399,841,0,0
182,183,0,0,0,0,0,0,0,0,0,-1,1406,841,0,0
189,183,0,0,0,0,0,0,0,0,0,-1,1413,841,0,0
196,183,0,0,0,0,0,0,0,0,0,-1,1420,841,0,0
203,183,0,0,0,0,0,0,0,0,0,-1,1427,841,0,0
210,183,0,0,0,0,0,0,0,0,0,-1,1434,841,0,0
217,183,0,0,0,0,0,0,0,0,0,-1,1441,841,0,0
224,183,0,0,0,0,0,0,0,0,0,-1,1448,841,0,0
231,183,0,0,0,0,0,0,0,0,0,-1,1455,841,0,0
238,183,0,0,0,0,0,0,0,0,0,-1,1462,841,0,0
245,183,0,0,0,0,0,0,0,0,0,-1,1469,841,0,0
252,183,0,0,0,0,0,0,0,0,0,-1,1476,841,0,0
259,183,0,0,0,0,0,0,0,0,0,-1,1483,841,0,0
266,183,0,0,0,0,0,0,0,0,0,-1,1490,841,0,0
273,183,0,0,0,0,0,0,0,0,0,-1,1497,841,0,0
280,183,0,0,0,0,0,0,0,0,0,-1,1504,841,0,0
287,183,0,0,0,0,0,0,0,0,0,-1,1511,841,0,0
294,183,0,0,0,0,0,0,0,0,0,-1,1518,841,0,0
301,183,0,0,0,0,0,0,0,0,0,-1,1525,841,0,0
308,183,0,0,0,0,0,0,0,0,0,-1,1532,841,0,0
315,183,0,0,0,0,0,0,0,0,0,-1,1539,841,0,0
322,183,0,0,0,0,0,0,0,0,0,-1,1546,841,0,0
329,183,0,0,0,0,0,0,0,0,0,-1,1553,841,0,0
336,183,0,0,0,0,0,0,0,0,0,-1,1560,841,0,0
343,183,0,0,0,0,0,0,0,0,0,-1,1567,841,0,0
350,183,0,0,0,0,0,0,0,0,0,-1,1574,841,0,0
357,183,0,0,0,0,0,0,0,0,0,-1,1581,841,0,0
364,183,0,0,0,0,0,0,0,0,0,-1,1588,841,0,0
371,183,0,0,0,0,0,0,0,0,0,-1,1595,841,0,0
378,183,0,0,0,0,0,0,0,0,0,-1,1602,841,0,0
385,183,0,0,0,0,0,0,0,0,0,-1,1609,841,0,0
392,183,0,0,0,0,0,0,0,0,0,-1,1616,841,0,0
399,183,0,0,0,0,0,0,0,0,0,-1,1623,841,0,0
406,183,0,0,0,0,0,0,0,0,0,-1,1630,841,0,0
413,183,0,0,0,0,0,0,0,0,0,-1,1637,841,0,0
420,183,0,0,0,0,0,0,0,0,0,-1,1644,841,0,0
427,183,0,0,0,0,0,0,0,0,0,-1,1651,841,0,0
434,183,0,0,0,0,0,0,0,0,0,-1,1658,841,0,0
441,183,0,0,0,0,0,0,0,0,0,-1,1665,841,0,0
448,183,0,0,0,0,0,0,0,0,0,-1,1672,841,0,0
455,183,0,0,0,0,0,0,0,0,0,-1,1679,841,0,0
462,183,0,0,0,0,0,0,0,0,0,-1,1686,841,0,0
469,183,0,0,0,0,0,0,0,0,0,-1,1693,841,0,0
476,183,0,0,0,0,0,0,0,0,0,-1,1700,841,0,0
483,183,0,0,0,0,0,0,0,0,0,-1,1707,841,0,0
490,183,0,0,0,0,0,0,0,0,0,-1,1714,841,0,0
497,183,0,0,0,0,0,0,0,0,0,-1,1721,841,0,0
504,183,0,0,0,0,0,0,0,0,0,-1,1728,841,0,0
511,183,0,0,0,0,0,0,0,0,0,-1,1735,841,0,0
518,183,0,0,0,0,0,0,0,0,0,-1,1742,841,0,0
525,183,0,0,0,0,0,0,0,0,0,-1,1749,841,0,0
532,183,0,0,0,0,0,0,0,0,0,-1,1756,841,0,0
539,183,0,0,0,0,0,0,0,0,0,-1,1763,841,0,0
546,183,0,0,0,0,0,0,0,0,0,-1,1770,841,0,0
553,183,0,0,0,0,0,0,0,0,0,-1,1777,841,0,0
560,183,0,0,0,0,0,0,0,0,0,-1,1784,841,0,0
567,183,0,0,0,0,0,0,0,0,0,-1,1791,841,0,0
574,183,0,0,0,0,0,0,0,0,0,-1,1798,841,0,0
581,183,0,0,0,0,0,0,0,0,0,-1,1805,841,0,0
588,183,0,0,0,0,0,0,0,0,0,-1,1812,841,0,0
595,183,0,0,0,0,0,0,0,0,0,-1,1819,841,0,0
602,183,0,0,0,0,0,0,0,0,0,-1,1826,841,0,0
609,183,24.8579,3.01471,0.00756346,0.00198324,0.00417855,0.00979779,-0.000251095,0.491032,0.00661715,0.0384532,1833,841,24.8579,-3.01471
616,183,24.9948,3.0249,0.0045737,0.00235289,0.00286845,0.00653917,0.00038742,0.600725,0.00423622,0.0387835,1840,841,24.9947,-3.02491
623,183,25.0233,3.03931,0.00146557,0.0026476,0.00170448,0.00386062,0.000252551,0.952282,0.00249383,0.044613,1847,841,25.0233,-3.03931
630,183,25.1886,2.78937,-0.00119504,0.00299754,0.000782606,0.00313886,-0.00133636,1.39214,0.00265271,0.0415766,1854,841,25.1886,-2.78936
637,183,25.0226,2.7489,-0.00304634,0.00301929,0.00013328,0.00302222,-0.00304926,1.54884,0.00350538,0.0344118,1861,841,25.0226,-2.74892
644,183,24.9125,2.77631,-0.00393028,0.00281515,-0.000251157,0.00282449,-0.00393962,-1.53363,0.00392291,0.0268699,1868,841,24.9124,-2.7763
651,183,24.9475,2.78546,-0.00413054,0.00242393,-0.0004864,0.00245983,-0.00416644,-1.49713,0.00386774,0.0238777,1875,841,24.9475,-2.78547
658,183,25.1028,2.75085,-0.00406202,0.00209454,-0.000734834,0.00218103,-0.00414851,-1.45363,0.00371274,0.0423461,1882,841,25.1028,-2.75086
665,183,25.2532,2.71985,0,0,0,0,0,0,0,-1,1889,841,25.2531,-2.71985
672,183,20.2518,1.88599,0,0,0,0,0,0,0,-1,1896,841,20.2518,-1.886
679,183,20.2166,2.14923,-0.00331599,0.000839692,-0.000804104,0.000989856,-0.00346616,-1.38618,0.00270186,0.0428256,1903,841,20.2166,-2.14923
686,183,20.1614,2.40802,-0.00271375,0.000569605,-0.000784706,0.000747507,-0.00289165,-1.34785,0.0022193,0.0194155,1910,841,20.1613,-2.40805
693,183,20.157,2.66125,-0.00167025,0.000266866,-0.000896989,0.000618419,-0.00202181,-1.19727,0.0015945,0.0151864,1917,841,20.157,-2.66125
700,183,20.1398,2.90253,-0.000621554,-0.000105908,-0.00106883,0.000735754,-0.00146322,-0.903747,0.00129253,0.0149662,1924,841,20.1398,-2.90253
707,183,20.1227,3.1358,0.000451771,-0.000583377,-0.00102095,0.00107885,-0.00121045,-0.550801,0.00132246,0.0117563,1931,841,20.1227,-3.13582
714,183,20.1418,3.37714,0.000854899,-0.000498935,-0.00125393,0.00160296,-0.00124699,-0.537895,0.00164969,0.0155437,1938,841,20.1418,-3.37711
721,183,20.1105,3.62061,0.00163432,-0.000635168,-0.00192998,0.00273843,-0.00173928,-0.519639,0.00260657,0.0147101,1945,841,20.1104,-3.62064
728,183,20.0924,3.87317,0.00293742,-0.000944142,-0.00298063,0.00455343,-0.00256015,-0.496813,0.00416043,0.0125729,1952,841,20.0924,-3.87316
735,183,20.1049,4.10608,0.00459284,-0.00134022,-0.00432812,0.00687349,-0.00362087,-0.484966,0.00615516,0.0115913,1959,841,20.1048,-4.10609
742,183,20.1134,4.349,0.00678255,-0.00206808,-0.00612833,0.00991633,-0.00520186,-0.472693,0.00886883,0.0107638,1966,841,20.1134,-4.349
749,183,20.0701,4.62433,0.00989808,-0.00322545,-0.00862233,0.0141715,-0.00749887,-0.46014,0.0127076,0.0315099,1973,841,20.07,-4.62432
756,183,20.0283,4.89905,0,0,0,0,0,0,0,-1,1980,841,20.0283,-4.89904
763,183,21.5139,5.10394,0,0,0,0,0,0,0,-1,1987,841,21.5139,-5.10395
770,183,21.3953,5.55005,0,0,0,0,0,0,0,-1,1994,841,21.3953,-5.55007
777,183,21.7007,5.66132,0,0,0,0,0,0,0,-1,2001,841,21.7007,-5.66131
784,183,0,0,0,0,0,0,0,0,0,-1,2008,841,0,0
791,183,0,0,0,0,0,0,0,0,0,-1,2015,841,0,0
798,183,0,0,0,0,0,0,0,0,0,-1,2022,841,0,0
805,183,0,0,0,0,0,0,0,0,0,-1,2029,841,0,0
812,183,0,0,0,0,0,0,0,0,0,-1,2036,841,0,0
-700,176,0,0,0,0,0,0,0,0,0,-1,524,848,0,0
-693,176,0,0,0,0,0,0,0,0,0,-1,531,848,0,0
-686,176,0,0,0,0,0,0,0,0,0,-1,538,848,0,0
-679,176,0,0,0,0,0,0,0,0,0,-1,545,848,0,0
-672,176,0,0,0,0,0,0,0,0,0,-1,552,848,0,0
-665,176,-14.6694,0.722412,-0.0391033,-0.0137392,-0.0633146,0.038151,-0.0909935,-0.884241,0.0766139,0.0477408,559,848,-14.6694,-0.722398
-658,176,-14.7518,0.387695,-0.0385965,0.00692833,-0.057268,0.0457918,-0.07746,-0.97456,0.0719381,0.0437277,566,848,-14.7518,-0.387701
-651,176,-10.1855,6.60657,0,0,0,0,0,0,0,-1,573,848,-10.1855,-6.60658
-644,176,-10.2385,5.65363,-0.0333021,0.0251598,-0.0434868,0.0483268,-0.0564691,-1.0813,0.0605648,0.0475226,580,848,-10.2384,-5.65365
-637,176,-10.3393,4.76312,-0.0294246,0.0272488,-0.036482,0.0451063,-0.0472821,-1.11559,0.0533454,0.0482477,587,848,-10.3393,-4.76313
-630,176,-12.9059,2.98871,-0.0251999,0.0264065,-0.0297498,0.0399841,-0.0387776,-1.14264,0.0454749,0.0414001,594,848,-12.9059,-2.9887
-623,176,-13.2734,2.72858,-0.0208074,0.0236315,-0.0234878,0.0337444,-0.0309203,-1.16423,0.0373461,0.0387225,601,848,-13.2734,-2.72856
-616,176,-13.4716,2.22369,-0.0163776,0.020003,-0.0178597,0.027305,-0.0236796,-1.18268,0.0294607,0.0257564,608,848,-13.4715,-2.22372
-609,176,-13.5153,1.8941,-0.0128593,0.0171791,-0.0133147,0.0222312,-0.0179114,-1.20814,0.023221,0.0110503,615,848,-13.5153,-1.8941
-602,176,-13.5437,1.65161,-0.00965771,0.0135653,-0.00927304,0.0168137,-0.0129061,-1.23385,0.0172081,0.0117259,622,848,-13.5437,-1.65159
-595,176,-13.5494,1.42511,-0.00653299,0.00915673,-0.00550013,0.0108928,-0.008269,-1.26506,0.0110976,0.010847,629,848,-13.5494,-1.42514
-588,176,-13.5272,1.19794,-0.00388497,0.00420038,-0.00252741,0.00492541,-0.00461,-1.29143,0.00550627,0.0118042,636,848,-13.5272,-1.19796
-581,176,-13.5401,0.999268,-0.00179545,0.00170263,-0.000739531,0.00185255,-0.00194537,-1.37078,0.00219295,0.0113944,643,848,-13.5401,-0.999289
-574,176,-13.5474,0.781616,-0.000765037,0.000853803,0.000120841,0.000862774,-0.000774008,1.4967,0.000945459,0.013027,650,848,-13.5474,-0.781646
-567,176,-13.4811,0.621094,-0.000475035,0.000686847,0.000578261,0.000925588,-0.000713776,1.17925,0.000949117,0.0272282,657,848,-13.4812,-0.621123
-560,176,-13.6019,0.362976,-0.000279693,0.000751966,0.000936909,0.00130566,-0.000833386,1.03704,0.00124497,0.0218594,664,848,-13.6019,-0.362947
-553,176,-13.4396,0.0769653,-0.000232539,0.00120004,0.00108717,0.00178568,-0.000818178,1.07669,0.00153754,0.0396522,671,848,-13.4396,-0.0769884
-546,176,-13.143,-0.246094,0,0,0,0,0,0,0,-1,678,848,-13.143,0.246122
-539,176,-17.1306,1.00549,0,0,0,0,0,0,0,-1,685,848,-17.1305,-1.00551
-532,176,-17.105,1.08258,0.000184109,0.00270403,0.000673184,0.00287259,1.55468e-05,1.32545,0.0019099,0.0422716,692,848,-17.105,-1.0826
-525,176,-17.1116,1.14539,0.000346717,0.00328569,0.000449815,0.003353,0.000279414,1.42227,0.00214826,0.048809,699,848,-17.1116,-1.14541
-518,176,-17.1252,1.1109,0.000590948,0.00375666,8.1789e-05,0.00375877,0.000588836,1.54498,0.00233445,0.0421747,706,848,-17.1253,-1.11092
-511,176,-17.1868,0.991455,0.001027,0.00407404,-0.000477763,0.0041472,0.000953841,-1.41886,0.00250806,0.0383501,713,848,-17.1867,-0.991477
-504,176,-17.1959,1.37958,0.00168396,0.00402026,-0.00140572,0.00467984,0.00102437,-1.13208,0.00284069,0.0416972,720,848,-17.1959,-1.37957
-497,176,-17.4987,1.04767,0.0027261,0.0034032,-0.002875,0.00595952,0.000169784,-0.844007,0.00391764,0.0415294,727,848,-17.4987,-1.04769
-490,176,-17.176,0.869812,0,0,0,0,0,0,0,-1,734,848,-17.176,-0.869819
-483,176,0,0,0,0,0,0,0,0,0,-1,741,848,0,0
-476,176,0,0,0,0,0,0,0,0,0,-1,748,848,0,0
-469,176,0,0,0,0,0,0,0,0,0,-1,755,848,0,0
-462,176,0,0,0,0,0,0,0,0,0,-1,762,848,0,0
-455,176,0,0,0,0,0,0,0,0,0,-1,769,848,0,0
-448,176,0,0,0,0,0,0,0,0,0,-1,776,848,0,0
-441,176,0,0,0,0,0,0,0,0,0,-1,783,848,0,0
-434,176,0,0,0,0,0,0,0,0,0,-1,790,848,0,0
-427,176,0,0,0,0,0,0,0,0,0,-1,797,848,0,0
-420,176,0,0,0,0,0,0,0,0,0,-1,804,848,0,0
-413,176,0,0,0,0,0,0,0,0,0,-1,811,848,0,0
-406,176,0,0,0,0,0,0,0,0,0,-1,818,848,0,0
-399,176,0,0,0,0,0,0,0,0,0,-1,825,848,0,0
-392,176,0,0,0,0,0,0,0,0,0,-1,832,848,0,0
-385,176,0,0,0,0,0,0,0,0,0,-1,839,848,0,0
-378,176,0,0,0,0,0,0,0,0,0,-1,846,848,0,0
-371,176,0,0,0,0,0,0,0,0,0,-1,853,848,0,0
-364,176,0,0,0,0,0,0,0,0,0,-1,860,848,0,0
-357,176,0,0,0,0,0,0,0,0,0,-1,867,848,0,0
-350,176,0,0,0,0,0,0,0,0,0,-1,874,848,0,0
-343,176,0,0,0,0,0,0,0,0,0,-1,881,848,0,0
-336,176,0,0,0,0,0,0,0,0,0,-1,888,848,0,0
-329,176,0,0,0,0,0,0,0,0,0,-1,895,848,0,0
-322,176,0,0,0,0,0,0,0,0,0,-1,902,848,0,0
-315,176,0,0,0,0,0,0,0,0,0,-1,909,848,0,0
-308,176,0,0,0,0,0,0,0,0,0,-1,916,848,0,0
-301,176,0,0,0,0,0,0,0,0,0,-1,923,848,0,0
-294,176,0,0,0,0,0,0,0,0,0,-1,930,848,0,0
-287,176,0,0,0,0,0,0,0,0,0,-1,937,848,0,0
-280,176,0,0,0,0,0,0,0,0,0,-1,944,848,0,0
-273,176,0,0,0,0,0,0,0,0,0,-1,951,848,0,0
-266,176,0,0,0,0,0,0,0,0,0,-1,958,848,0,0
-259,176,0,0,0,0,0,0,0,0,0,-1,965,848,0,0
-252,176,0,0,0,0,0,0,0,0,0,-1,972,848,0,0
-245,176,0,0,0,0,0,0,0,0,0,-1,979,848,0,0
-238,176,0,0,0,0,0,0,0,0,0,-1,986,848,0,0
-231,176,0,0,0,0,0,0,0,0,0,-1,993,848,0,0
-224,176,0,0,0,0,0,0,0,0,0,-1,1000,848,0,0
-217,176,0,0,0,0,0,0,0,0,0,-1,1007,848,0,0
-210,176,0,0,0,0,0,0,0,0,0,-1,1014,848,0,0
-203,176,0,0,0,0,0,0,0,0,0,-1,1021,848,0,0
-196,176,0,0,0,0,0,0,0,0,0,-1,1028,848,0,0
-189,176,0,0,0,0,0,0,0,0,0,-1,1035,848,0,0
-182,176,0,0,0,0,0,0,0,0,0,-1,1042,848,0,0
-175,176,0,0,0,0,0,0,0,0,0,-1,1049,848,0,0
-168,176,0,0,0,0,0,0,0,0,0,-1,1056,848,0,0
-161,176,0,0,0,0,0,0,0,0,0,-1,1063,848,0,0
-154,176,0,0,0,0,0,0,0,0,0,-1,1070,848,0,0
-147,176,0,0,0,0,0,0,0,0,0,-1,1077,848,0,0
-140,176,0,0,0,0,0,0,0,0,0,-1,1084,848,0,0
-133,176,0,0,0,0,0,0,0,0,0,-1,1091,848,0,0
-126,176,0,0,0,0,0,0,0,0,0,-1,1098,848,0,0
-119,176,0,0,0,0,0,0,0,0,0,-1,1105,848,0,0
-112,176,0,0,0,0,0,0,0,0,0,-1,1112,848,0,0
-105,176,0,0,0,0,0,0,0,0,0,-1,1119,848,0,0
-98,176,0,0,0,0,0,0,0,0,0,-1,1126,848,0,0
-91,176,0,0,0,0,0,0,0,0,0,-1,1133,848,0,0
-84,176,0,0,0,0,0,0,0,0,0,-1,1140,848,0,0
-77,176,0,0,0,0,0,0,0,0,0,-1,1147,848,0,0
-70,176,0,0,0,0,0,0,0,0,0,-1,1154,848,0,0
-63,176,0,0,0,0,0,0,0,0,0,-1,1161,848,0,0
-56,176,0,0,0,0,0,0,0,0,0,-1,1168,848,0,0
-49,176,0,0,0,0,0,0,0,0,0,-1,1175,848,0,0
-42,176,0,0,0,0,0,0,0,0,0,-1,1182,848,0,0
-35,176,0,0,0,0,0,0,0,0,0,-1,1189,848,0,0
-28,176,0,0,0,0,0,0,0,0,0,-1,1196,848,0,0
-21,176,0,0,0,0,0,0,0,0,0,-1,1203,848,0,0
-14,176,0,0,0,0,0,0,0,0,0,-1,1210,848,0,0
-7,176,0,0,0,0,0,0,0,0,0,-1,1217,848,0,0
0,176,0,0,0,0,0,0,0,0,0,-1,1224,848,0,0
7,176,0,0,0,0,0,0,0,0,0,-1,1231,848,0,0
14,176,0,0,0,0,0,0,0,0,0,-1,1238,848,0,0
21,176,0,0,0,0,0,0,0,0,0,-1,1245,848,0,0
28,176,0,0,0,0,0,0,0,0,0,-1,1252,848,0,0
35,176,0,0,0,0,0,0,0,0,0,-1,1259,848,0,0
42,176,0,0,0,0,0,0,0,0,0,-1,1266,848,0,0
49,176,0,0,0,0,0,0,0,0,0,-1,1273,848,0,0
56,176,0,0,0,0,0,0,0,0,0,-1,1280,848,0,0
63,176,0,0,0,0,0,0,0,0,0,-1,1287,848,0,0
70,176,0,0,0,0,0,0,0,0,0,-1,1294,848,0,0
77,176,0,0,0,0,0,0,0,0,0,-1,1301,848,0,0
84,176,0,0,0,0,0,0,0,0,0,-1,1308,848,0,0
91,176,0,0,0,0,0,0,0,0,0,-1,1315,848,0,0
98,176,0,0,0,0,0,0,0,0,0,-1,1322,848,0,0
105,176,0,0,0,0,0,0,0,0,0,-1,1329,848,0,0
112,176,0,0,0,0,0,0,0,0,0,-1,1336,848,0,0
119,176,0,0,0,0,0,0,0,0,0,-1,1343,848,0,0
126,176,0,0,0,0,0,0,0,0,0,-1,1350,848,0,0
133,176,0,0,0,0,0,0,0,0,0,-1,1357,848,0,0
140,176,0,0,0,0,0,0,0,0,0,-1,1364,848,0,0
147,176,0,0,0,0,0,0,0,0,0,-1,1371,848,0,0
154,176,0,0,0,0,0,0,0,0,0,-1,1378,848,0,0
161,176,0,0,0,0,0,0,0,0,0,-1,1385,848,0,0
168,176,0,0,0,0,0,0,0,0,0,-1,1392,848,0,0
175,176,0,0,0,0,0,0,0,0,0,-1,1399,848,0,0
182,176,0,0,0,0,0,0,0,0,0,-1,1406,848,0,0
189,176,0,0,0,0,0,0,0,0,0,-1,1413,848,0,0
196,176,0,0,0,0,0,0,0,0,0,-1,1420,848,0,0
203,176,0,0,0,0,0,0,0,0,0,-1,1427,848,0,0
210,176,0,0,0,0,0,0,0,0,0,-1,1434,848,0,0
217,176,0,0,0,0,0,0,0,0,0,-1,1441,848,0,0
224,176,0,0,0,0,0,0,0,0,0,-1,1448,848,0,0
231,176,0,0,0,0,0,0,0,0,0,-1,1455,848,0,0
238,176,0,0,0,0,0,0,0,0,0,-1,1462,848,0,0
245,176,0,0,0,0,0,0,0,0,0,-1,1469,848,0,0
252,176,0,0,0,0,0,0,0,0,0,-1,1476,848,0,0
259,176,0,0,0,0,0,0,0,0,0,-1,1483,848,0,0
266,176,0,0,0,0,0,0,0,0,0,-1,1490,848,0,0
273,176,0,0,0,0,0,0,0,0,0,-1,1497,848,0,0
280,176,0,0,0,0,0,0,0,0,0,-1,1504,848,0,0
287,176,0,0,0,0,0,0,0,0,0,-1,1511,848,0,0
294,176,0,0,0,0,0,0,0,0,0,-1,1518,848,0,0
301,176,0,0,0,0,0,0,0,0,0,-1,1525,848,0,0
308,176,0,0,0,0,0,0,0,0,0,-1,1532,848,0,0
315,176,0,0,0,0,0,0,0,0,0,-1,1539,848,0,0
322,176,0,0,0,0,0,0,0,0,0,-1,1546,848,0,0
329,176,0,0,0,0,0,0,0,0,0,-1,1553,848,0,0
336,176,0,0,0,0,0,0,0,0,0,-1,1560,848,0,0
343,176,0,0,0,0,0,0,0,0,0,-1,1567,848,0,0
350,176,0,0,0,0,0,0,0,0,0,-1,1574,848,0,0
357,176,0,0,0,0,0,0,0,0,0,-1,1581,848,0,0
364,176,0,0,0,0,0,0,0,0,0,-1,1588,848,0,0
371,176,0,0,0,0,0,0,0,0,0,-1,1595,848,0,0
378,176,0,0,0,0,0,0,0,0,0,-1,1602,848,0,0
385,176,0,0,0,0,0,0,0,0,0,-1,1609,848,0,0
392,176,0,0,0,0,0,0,0,0,0,-1,1616,848,0,0
399,176,0,0,0,0,0,0,0,0,0,-1,1623,848,0,0
406,176,0,0,0,0,0,0,0,0,0,-1,1630,848,0,0
413,176,0,0,0,0,0,0,0,0,0,-1,1637,848,0,0
420,176,0,0,0,0,0,0,0,0,0,-1,1644,848,0,0
427,176,0,0,0,0,0,0,0,0,0,-1,1651,848,0,0
434,176,0,0,0,0,0,0,0,0,0,-1,1658,848,0,0
441,176,0,0,0,0,0,0,0,0,0,-1,1665,848,0,0
448,176,0,0,0,0,0,0,0,0,0,-1,1672,848,0,0
455,176,0,0,0,0,0,0,0,0,0,-1,1679,848,0,0
462,176,0,0,0,0,0,0,0,0,0,-1,1686,848,0,0
469,176,0,0,0,0,0,0,0,0,0,-1,1693,848,0,0
476,176,0,0,0,0,0,0,0,0,0,-1,1700,848,0,0
483,176,0,0,0,0,0,0,0,0,0,-1,1707,848,0,0
490,176,0,0,0,0,0,0,0,0,0,-1,1714,848,0,0
497,176,0,0,0,0,0,0,0,0,0,-1,1721,848,0,0
504,176,0,0,0,0,0,0,0,0,0,-1,1728,848,0,0
511,176,0,0,0,0,0,0,0,0,0,-1,1735,848,0,0
518,176,0,0,0,0,0,0,0,0,0,-1,1742,848,0,0
525,176,0,0,0,0,0,0,0,0,0,-1,1749,848,0,0
532,176,0,0,0,0,0,0,0,0,0,-1,1756,848,0,0
539,176,0,0,0,0,0,0,0,0,0,-1,1763,848,0,0
546,176,0,0,0,0,0,0,0,0,0,-1,1770,848,0,0
553,176,0,0,0,0,0,0,0,0,0,-1,1777,848,0,0
560,176,0,0,0,0,0,0,0,0,0,-1,1784,848,0,0
567,176,0,0,0,0,0,0,0,0,0,-1,1791,848,0,0
574,176,0,0,0,0,0,0,0,0,0,-1,1798,848,0,0
581,176,0,0,0,0,0,0,0,0,0,-1,1805,848,0,0
588,176,0,0,0,0,0,0,0,0,0,-1,1812,848,0,0
595,176,0,0,0,0,0,0,0,0,0,-1,1819,848,0,0
602,176,0,0,0,0,0,0,0,0,0,-1,1826,848,0,0
609,176,24.9392,2.8783,0.00923946,0.00159165,0.00453278,0.0113458,-0.000514742,0.435012,0.00774118,0.0371244,1833,848,24.9392,-2.8783
616,176,24.8081,2.69403,0.00607149,0.00187034,0.00327264,0.00785969,8.21359e-05,0.500082,0.00521263,0.0376884,1840,848,24.8081,-2.69405
623,176,25.0464,2.68494,0.00289746,0.00202305,0.00224127,0.00474377,0.000176736,0.689073,0.00310528,0.0453603,1847,848,25.0464,-2.68496
630,176,25.2922,2.71033,0.000169659,0.00236833,0.00140231,0.00305085,-0.000512863,1.11784,0.00222465,0.0425798,1854,848,25.2923,-2.71034
637,176,25.0221,2.75458,-0.00178565,0.00245637,0.000768533,0.00259131,-0.00192059,1.39698,0.00261453,0.0321277,1861,848,25.0221,-2.75456
644,176,24.855,2.77606,-0.00288654,0.0023111,0.000330911,0.00233209,-0.00290752,1.50747,0.00303116,0.0282582,1868,848,24.855,-2.77607
651,176,24.8859,2.75464,-0.00329882,0.00197805,2.66374e-05,0.00197819,-0.00329896,1.56575,0.0030784,0.0295662,1875,848,24.8859,-2.75466
658,176,25.0314,2.69537,-0.00338523,0.00168624,-0.000276472,0.00170126,-0.00340026,-1.5165,0.00299932,0.0371206,1882,848,25.0314,-2.69536
665,176,25.1522,2.75793,0,0,0,0,0,0,0,-1,1889,848,25.1522,-2.75794
672,176,16.9304,2.80719,0,0,0,0,0,0,0,-1,1896,848,16.9305,-2.80719
679,176,20.5903,2.18823,0,0,0,0,0,0,0,-1,1903,848,20.5903,-2.18826
686,176,20.498,2.4635,-0.00271173,0.000343074,-0.000658232,0.00047887,-0.00284753,-1.36735,0.00207646,0.0275082,1910,848,20.4981,-2.46352
693,176,20.4277,2.72284,-0.00196489,6.92211e-05,-0.000776797,0.000331937,-0.0022276,-1.24467,0.00160718,0.0143551,1917,848,20.4277,-2.72281
700,176,20.394,2.94653,-0.00117298,-0.000245061,-0.000938891,0.000338249,-0.00175629,-1.01488,0.00129838,0.015694,1924,848,20.394,-2.94651
707,176,20.3831,3.16858,-0.000319966,-0.000682329,-0.000895024,0.000412031,-0.00141433,-0.685532,0.00110611,0.0130713,1931,848,20.3831,-3.16856
714,176,20.3728,3.38861,6.3174e-05,-0.000653428,-0.00101381,0.000780135,-0.00137039,-0.615539,0.0012571,0.0116298,1938,848,20.3728,-3.38864
721,176,20.3759,3.62433,0.000946258,-0.000854717,-0.00149822,0.00179378,-0.00170224,-0.514807,0.00201866,0.0122387,1945,848,20.3759,-3.62434
728,176,20.3556,3.87848,0.00240563,-0.00128942,-0.00230249,0.0035102,-0.00239398,-0.447296,0.00342902,0.0150666,1952,848,20.3556,-3.87846
735,176,20.348,4.11151,0.004039,-0.00174165,-0.00332642,0.00555538,-0.00325803,-0.427716,0.00514572,0.0142055,1959,848,20.348,-4.11153
742,176,20.37,4.34552,0.00598175,-0.00236064,-0.00466824,0.00807085,-0.00444974,-0.420785,0.00732885,0.0160045,1966,848,20.37,-4.3455
749,176,20.3895,4.49945,0.00852622,-0.00340654,-0.00663337,0.0114817,-0.00636201,-0.419143,0.0104425,0.0267428,1973,848,20.3896,-4.49947
756,176,20.5674,4.4632,0.0116716,-0.00485739,-0.00941488,0.0159348,-0.00912053,-0.425187,0.0146429,0.0455918,1980,848,20.5673,-4.4632
763,176,20.8021,4.52142,0,0,0,0,0,0,0,-1,1987,848,20.8021,-4.5214
770,176,20.7578,5.42871,0,0,0,0,0,0,0,-1,1994,848,20.7578,-5.42874
777,176,22.6045,5.35272,0,0,0,0,0,0,0,-1,2001,848,22.6045,-5.35274
784,176,0,0,0,0,0,0,0,0,0,-1,2008,848,0,0
791,176,0,0,0,0,0,0,0,0,0,-1,2015,848,0,0
798,176,0,0,0,0,0,0,0,0,0,-1,2022,848,0,0
805,176,0,0,0,0,0,0,0,0,0,-1,2029,848,0,0
812,176,0,0,0,0,0,0,0,0,0,-1,2036,848,0,0
-700,169,0,0,0,0,0,0,0,0,0,-1,524,855,0,0
-693,169,0,0,0,0,0,0,0,0,0,-1,531,855,0,0
-686,169,0,0,0,0,0,0,0,0,0,-1,538,855,0,0
-679,169,0,0,0,0,0,0,0,0,0,-1,545,855,0,0
-672,169,0,0,0,0,0,0,0,0,0,-1,552,855,0,0
-665,169,-14.6993,1.33545,-0.034329,-0.015276,-0.0473673,0.0235133,-0.0731182,-0.884634,0.058189,0.0452017,559,855,-14.6993,-1.33544
-658,169,-14.8116,1.01227,-0.0323865,0.00253198,-0.042033,0.0305876,-0.0604421,-0.982241,0.0534899,0.046034,566,855,-14.8116,-1.01228
-651,169,-12.7716,2.86353,0,0,0,0,0,0,0,-1,573,855,-12.7716,-2.86351
-644,169,-12.996,2.53107,-0.0271857,0.0197205,-0.0312007,0.0352998,-0.042765,-1.10769,0.0451394,0.0453562,580,855,-12.996,-2.53105
-637,169,-13.1929,2.19977,-0.0240806,0.0223037,-0.0259932,0.0339472,-0.0357241,-1.14965,0.0402291,0.0401533,587,855,-13.1929,-2.19977
-630,169,-13.603,2.15753,-0.0208241,0.0222221,-0.0210921,0.030834,-0.0294361,-1.18315,0.0348001,0.0437511,594,855,-13.603,-2.15755
-623,169,-13.7914,2.32837,-0.0174283,0.0202846,-0.0166012,0.0265511,-0.0236949,-1.20986,0.0290252,0.0383846,601,855,-13.7914,-2.32835
-616,169,-13.7612,2.12286,-0.0138097,0.0174409,-0.0125094,0.0218315,-0.0182002,-1.23325,0.023144,0.0218844,608,855,-13.7612,-2.12286
-609,169,-13.7664,1.88385,-0.0110033,0.0152167,-0.00921399,0.0181307,-0.0139174,-1.26449,0.0185562,0.0137256,615,855,-13.7664,-1.88388
-602,169,-13.783,1.65234,-0.00849178,0.0121305,-0.00631954,0.013913,-0.0102743,-1.29588,0.0140171,0.0130908,622,855,-13.783,-1.65235
-595,169,-13.7768,1.4245,-0.00593428,0.00819342,-0.00362769,0.00907048,-0.00681134,-1.33358,0.00920025,0.0113467,629,855,-13.7768,-1.42447
-588,169,-13.7426,1.21985,-0.00376533,0.00368877,-0.00160576,0.00401996,-0.00409653,-1.36739,0.00468613,0.00902688,636,855,-13.7426,-1.21984
-581,169,-13.7556,1.01843,-0.00200963,0.00153858,-0.000416184,0.00158674,-0.00205779,-1.45559,0.00211002,0.00982749,643,855,-13.7556,-1.01845
-574,169,-13.8352,0.7995,-0.00107402,0.000862145,0.000171402,0.000877202,-0.00108908,1.48318,0.00113743,0.0141048,650,855,-13.8352,-0.799501
-567,169,-13.746,0.655396,-0.000764677,0.000709653,0.000508212,0.000867861,-0.000922885,1.269,0.00103405,0.025161,657,855,-13.746,-0.655402
-560,169,-13.8142,0.454529,-0.000546913,0.000740123,0.000831316,0.00114789,-0.000954681,1.11477,0.00121563,0.025755,664,855,-13.8142,-0.454511
-553,169,-13.6964,0.10968,-0.000445888,0.00114668,0.000945612,0.00158662,-0.000885828,1.13534,0.00144645,0.0355612,671,855,-13.6964,-0.109672
-546,169,-13.3161,-0.298584,0,0,0,0,0,0,0,-1,678,855,-13.3161,0.298614
-539,169,-17.3157,0.981201,0,0,0,0,0,0,0,-1,685,855,-17.3157,-0.981217
-532,169,-17.246,0.964722,3.05433e-05,0.00265896,0.000679277,0.00282413,-0.000134627,1.33227,0.00192919,0.0360321,692,855,-17.246,-0.964704
-525,169,-17.1763,0.977173,0.000174481,0.00320131,0.000526456,0.00329027,8.55288e-05,1.40341,0.00216556,0.0421388,699,855,-17.1763,-0.97716
-518,169,-17.2173,0.830933,0.000379639,0.00362745,0.00028496,0.00365226,0.000354827,1.48394,0.00232561,0.0397722,706,855,-17.2174,-0.830944
-511,169,-17.3398,0.62738,0.000802968,0.0037809,-0.000133478,0.00378687,0.000796997,-1.52609,0.00230531,0.0413949,713,855,-17.3398,-0.627363
-504,169,-17.4105,0.641357,0.00138256,0.00338932,-0.000875669,0.0037177,0.00105419,-1.21203,0.00221243,0.0430874,720,855,-17.4105,-0.641338
-497,169,-17.4485,0.689392,0.0022903,0.00212762,-0.00209874,0.00430928,0.000108638,-0.766029,0.00283733,0.0436604,727,855,-17.4485,-0.689384
-490,169,0,0,0,0,0,0,0,0,0,-1,734,855,0,0
-483,169,0,0,0,0,0,0,0,0,0,-1,741,855,0,0
-476,169,0,0,0,0,0,0,0,0,0,-1,748,855,0,0
-469,169,0,0,0,0,0,0,0,0,0,-1,755,855,0,0
-462,169,0,0,0,0,0,0,0,0,0,-1,762,855,0,0
-455,169,0,0,0,0,0,0,0,0,0,-1,769,855,0,0
-448,169,0,0,0,0,0,0,0,0,0,-1,776,855,0,0
-441,169,0,0,0,0,0,0,0,0,0,-1,783,855,0,0
-434,169,0,0,0,0,0,0,0,0,0,-1,790,855,0,0
-427,169,0,0,0,0,0,0,0,0,0,-1,797,855,0,0
-420,169,0,0,0,0,0,0,0,0,0,-1,804,855,0,0
-413,169,0,0,0,0,0,0,0,0,0,-1,811,855,0,0
-406,169,0,0,0,0,0,0,0,0,0,-1,818,855,0,0
-399,169,0,0,0,0,0,0,0,0,0,-1,825,855,0,0
-392,169,0,0,0,0,0,0,0,0,0,-1,832,855,0,0
-385,169,0,0,0,0,0,0,0,0,0,-1,839,855,0,0
-378,169,0,0,0,0,0,0,0,0,0,-1,846,855,0,0
-371,169,0,0,0,0,0,0,0,0,0,-1,853,855,0,0
-364,169,0,0,0,0,0,0,0,0,0,-1,860,855,0,0
-357,169,0,0,0,0,0,0,0,0,0,-1,867,855,0,0
-350,169,0,0,0,0,0,0,0,0,0,-1,874,855,0,0
-343,169,0,0,0,0,0,0,0,0,0,-1,881,855,0,0
-336,169,0,0,0,0,0,0,0,0,0,-1,888,855,0,0
-329,169,0,0,0,0,0,0,0,0,0,-1,895,855,0,0
-322,169,0,0,0,0,0,0,0,0,0,-1,902,855,0,0
-315,169,0,0,0,0,0,0,0,0,0,-1,909,855,0,0
-308,169,0,0,0,0,0,0,0,0,0,-1,916,855,0,0
-301,169,0,0,0,0,0,0,0,0,0,-1,923,855,0,0
-294,169,0,0,0,0,0,0,0,0,0,-1,930,855,0,0
-287,169,0,0,0,0,0,0,0,0,0,-1,937,855,0,0
-280,169,0,0,0,0,0,0,0,0,0,-1,944,855,0,0
-273,169,0,0,0,0,0,0,0,0,0,-1,951,855,0,0
-266,169,0,0,0,0,0,0,0,0,0,-1,958,855,0,0
-259,169,0,0,0,0,0,0,0,0,0,-1,965,855,0,0
-252,169,0,0,0,0,0,0,0,0,0,-1,972,855,0,0
-245,169,0,0,0,0,0,0,0,0,0,-1,979,855,0,0
-238,169,0,0,0,0,0,0,0,0,0,-1,986,855,0,0
-231,169,0,0,0,0,0,0,0,0,0,-1,993,855,0,0
-224,169,0,0,0,0,0,0,0,0,0,-1,1000,855,0,0
-217,169,0,0,0,0,0,0,0,0,0,-1,1007,855,0,0
-210,169,0,0,0,0,0,0,0,0,0,-1,1014,855,0,0
-203,169,0,0,0,0,0,0,0,0,0,-1,1021,855,0,0
-196,169,0,0,0,0,0,0,0,0,0,-1,1028,855,0,0
-189,169,0,0,0,0,0,0,0,0,0,-1,1035,855,0,0
-182,169,0,0,0,0,0,0,0,0,0,-1,1042,855,0,0
-175,169,0,0,0,0,0,0,0,0,0,-1,1049,855,0,0
-168,169,0,0,0,0,0,0,0,0,0,-1,1056,855,0,0
-161,169,0,0,0,0,0,0,0,0,0,-1,1063,855,0,0
-154,169,0,0,0,0,0,0,0,0,0,-1,1070,855,0,0
-147,169,0,0,0,0,0,0,0,0,0,-1,1077,855,0,0
-140,169,0,0,0,0,0,0,0,0,0,-1,1084,855,0,0
-133,169,0,0,0,0,0,0,0,0,0,-1,1091,855,0,0
-126,169,0,0,0,0,0,0,0,0,0,-1,1098,855,0,0
-119,169,0,0,0,0,0,0,0,0,0,-1,1105,855,0,0
-112,169,0,0,0,0,0,0,0,0,0,-1,1112,855,0,0
-105,169,0,0,0,0,0,0,0,0,0,-1,1119,855,0,0
-98,169,0,0,0,0,0,0,0,0,0,-1,1126,855,0,0
-91,169,0,0,0,0,0,0,0,0,0,-1,1133,855,0,0
-84,169,0,0,0,0,0,0,0,0,0,-1,1140,855,0,0
-77,169,0,0,0,0,0,0,0,0,0,-1,1147,855,0,0
-70,169,0,0,0,0,0,0,0,0,0,-1,1154,855,0,0
-63,169,0,0,0,0,0,0,0,0,0,-1,1161,855,0,0
-56,169,0,0,0,0,0,0,0,0,0,-1,1168,855,0,0
-49,169,0,0,0,0,0,0,0,0,0,-1,1175,855,0,0
-42,169,0,0,0,0,0,0,0,0,0,-1,1182,855,0,0
-35,169,0,0,0,0,0,0,0,0,0,-1,1189,855,0,0
-28,169,0,0,0,0,0,0,0,0,0,-1,1196,855,0,0
-21,169,0,0,0,0,0,0,0,0,0,-1,1203,855,0,0
-14,169,0,0,0,0,0,0,0,0,0,-1,1210,855,0,0
-7,169,0,0,0,0,0,0,0,0,0,-1,1217,855,0,0
0,169,0,0,0,0,0,0,0,0,0,-1,1224,855,0,0
7,169,0,0,0,0,0,0,0,0,0,-1,1231,855,0,0
14,169,0,0,0,0,0,0,0,0,0,-1,1238,855,0,0
21,169,0,0,0,0,0,0,0,0,0,-1,1245,855,0,0
28,169,0,0,0,0,0,0,0,0,0,-1,1252,855,0,0
35,169,0,0,0,0,0,0,0,0,0,-1,1259,855,0,0
42,169,0,0,0,0,0,0,0,0,0,-1,1266,855,0,0
49,169,0,0,0,0,0,0,0,0,0,-1,1273,855,0,0
56,169,0,0,0,0,0,0,0,0,0,-1,1280,855,0,0
63,169,0,0,0,0,0,0,0,0,0,-1,1287,855,0,0
70,169,0,0,0,0,0,0,0,0,0,-1,1294,855,0,0
77,169,0,0,0,0,0,0,0,0,0,-1,1301,855,0,0
84,169,0,0,0,0,0,0,0,0,0,-1,1308,855,0,0
91,169,0,0,0,0,0,0,0,0,0,-1,1315,855,0,0
98,169,0,0,0,0,0,0,0,0,0,-1,1322,855,0,0
105,169,0,0,0,0,0,0,0,0,0,-1,1329,855,0,0
112,169,0,0,0,0,0,0,0,0,0,-1,1336,855,0,0
119,169,0,0,0,0,0,0,0,0,0,-1,1343,855,0,0
126,169,0,0,0,0,0,0,0,0,0,-1,1350,855,0,0
133,169,0,0,0,0,0,0,0,0,0,-1,1357,855,0,0
140,169,0,0,0,0,0,0,0,0,0,-1,1364,855,0,0
147,169,0,0,0,0,0,0,0,0,0,-1,1371,855,0,0
154,169,0,0,0,0,0,0,0,0,0,-1,1378,855,0,0
161,169,0,0,0,0,0,0,0,0,0,-1,1385,855,0,0
168,169,0,0,0,0,0,0,0,0,0,-1,1392,855,0,0
175,169,0,0,0,0,0,0,0,0,0,-1,1399,855,0,0
182,169,0,0,0,0,0,0,0,0,0,-1,1406,855,0,0
189,169,0,0,0,0,0,0,0,0,0,-1,1413,855,0,0
196,169,0,0,0,0,0,0,0,0,0,-1,1420,855,0,0
203,169,0,0,0,0,0,0,0,0,0,-1,1427,855,0,0
210,169,0,0,0,0,0,0,0,0,0,-1,1434,855,0,0
217,169,0,0,0,0,0,0,0,0,0,-1,1441,855,0,0
224,169,0,0,0,0,0,0,0,0,0,-1,1448,855,0,0
231,169,0,0,0,0,0,0,0,0,0,-1,1455,855,0,0
238,169,0,0,0,0,0,0,0,0,0,-1,1462,855,0,0
245,169,0,0,0,0,0,0,0,0,0,-1,1469,855,0,0
252,169,0,0,0,0,0,0,0,0,0,-1,1476,855,0,0
259,169,0,0,0,0,0,0,0,0,0,-1,1483,855,0,0
266,169,0,0,0,0,0,0,0,0,0,-1,1490,855,0,0
273,169,0,0,0,0,0,0,0,0,0,-1,1497,855,0,0
280,169,0,0,0,0,0,0,0,0,0,-1,1504,855,0,0
287,169,0,0,0,0,0,0,0,0,0,-1,1511,855,0,0
294,169,0,0,0,0,0,0,0,0,0,-1,1518,855,0,0
301,169,0,0,0,0,0,0,0,0,0,-1,1525,855,0,0
308,169,0,0,0,0,0,0,0,0,0,-1,1532,855,0,0
315,169,0,0,0,0,0,0,0,0,0,-1,1539,855,0,0
322,169,0,0,0,0,0,0,0,0,0,-1,1546,855,0,0
329,169,0,0,0,0,0,0,0,0,0,-1,1553,855,0,0
336,169,0,0,0,0,0,0,0,0,0,-1,1560,855,0,0
343,169,0,0,0,0,0,0,0,0,0,-1,1567,855,0,0
350,169,0,0,0,0,0,0,0,0,0,-1,1574,855,0,0
357,169,0,0,0,0,0,0,0,0,0,-1,1581,855,0,0
364,169,0,0,0,0,0,0,0,0,0,-1,1588,855,0,0
371,169,0,0,0,0,0,0,0,0,0,-1,1595,855,0,0
378,169,0,0,0,0,0,0,0,0,0,-1,1602,855,0,0
385,169,0,0,0,0,0,0,0,0,0,-1,1609,855,0,0
392,169,0,0,0,0,0,0,0,0,0,-1,1616,855,0,0
399,169,0,0,0,0,0,0,0,0,0,-1,1623,855,0,0
406,169,0,0,0,0,0,0,0,0,0,-1,1630,855,0,0
413,169,0,0,0,0,0,0,0,0,0,-1,1637,855,0,0
420,169,0,0,0,0,0,0,0,0,0,-1,1644,855,0,0
427,169,0,0,0,0,0,0,0,0,0,-1,1651,855,0,0
434,169,0,0,0,0,0,0,0,0,0,-1,1658,855,0,0
441,169,0,0,0,0,0,0,0,0,0,-1,1665,855,0,0
448,169,0,0,0,0,0,0,0,0,0,-1,1672,855,0,0
455,169,0,0,0,0,0,0,0,0,0,-1,1679,855,0,0
462,169,0,0,0,0,0,0,0,0,0,-1,1686,855,0,0
469,169,0,0,0,0,0,0,0,0,0,-1,1693,855,0,0
476,169,0,0,0,0,0,0,0,0,0,-1,1700,855,0,0
483,169,0,0,0,0,0,0,0,0,0,-1,1707,855,0,0
490,169,0,0,0,0,0,0,0,0,0,-1,1714,855,0,0
497,169,0,0,0,0,0,0,0,0,0,-1,1721,855,0,0
504,169,0,0,0,0,0,0,0,0,0,-1,1728,855,0,0
511,169,0,0,0,0,0,0,0,0,0,-1,1735,855,0,0
518,169,0,0,0,0,0,0,0,0,0,-1,1742,855,0,0
525,169,0,0,0,0,0,0,0,0,0,-1,1749,855,0,0
532,169,0,0,0,0,0,0,0,0,0,-1,1756,855,0,0
539,169,0,0,0,0,0,0,0,0,0,-1,1763,855,0,0
546,169,0,0,0,0,0,0,0,0,0,-1,1770,855,0,0
553,169,0,0,0,0,0,0,0,0,0,-1,1777,855,0,0
560,169,0,0,0,0,0,0,0,0,0,-1,1784,855,0,0
567,169,0,0,0,0,0,0,0,0,0,-1,1791,855,0,0
574,169,0,0,0,0,0,0,0,0,0,-1,1798,855,0,0
581,169,0,0,0,0,0,0,0,0,0,-1,1805,855,0,0
588,169,0,0,0,0,0,0,0,0,0,-1,1812,855,0,0
595,169,0,0,0,0,0,0,0,0,0,-1,1819,855,0,0
602,169,0,0,0,0,0,0,0,0,0,-1,1826,855,0,0
609,169,0,0,0,0,0,0,0,0,0,-1,1833,855,0,0
616,169,24.7559,2.72815,0.00719673,0.0018956,0.00357316,0.0089951,9.72347e-05,0.466282,0.00596459,0.0437348,1840,855,24.7558,-2.72813
623,169,25.0883,2.59875,0.0040169,0.00179236,0.0026159,0.00574717,6.20817e-05,0.58438,0.00381092,0.0442546,1847,855,25.0882,-2.59873
630,169,25.2587,2.72577,0.0013302,0.00202739,0.00182895,0.00354067,-0.000183081,0.879567,0.00242378,0.0427756,1854,855,25.2586,-2.72574
637,169,25.0144,2.79364,-0.000644116,0.00212515,0.00119585,0.00257007,-0.00108903,1.21461,0.0021695,0.0377255,1861,855,25.0144,-2.79362
644,169,24.8738,2.8382,-0.00181854,0.00199388,0.000723925,0.00212672,-0.00195138,1.38932,0.00235521,0.035052,1868,855,24.8738,-2.8382
651,169,24.8268,2.81189,-0.00232398,0.0016917,0.000373959,0.00172623,-0.0023585,1.47873,0.00236772,0.0351878,1875,855,24.8268,-2.81191
658,169,24.9152,2.76312,-0.0024717,0.00140407,4.06847e-05,0.0014045,-0.00247212,1.5603,0.00226629,0.0338972,1882,855,24.9152,-2.76309
665,169,25.0874,2.73676,-0.00245115,0.00107876,-0.000125558,0.00108322,-0.00245561,-1.53529,0.00209373,0.044987,1889,855,25.0874,-2.73674
672,169,25.2804,2.69397,0,0,0,0,0,0,0,-1,1896,855,25.2804,-2.69399
679,169,20.5236,2.29694,0,0,0,0,0,0,0,-1,1903,855,20.5236,-2.29692
686,169,20.5967,2.51965,-0.00219437,0.000193578,-0.000549408,0.000313919,-0.00231471,-1.35516,0.00165772,0.0262989,1910,855,20.5967,-2.51965
693,169,20.6509,2.75446,-0.00165016,-2.83803e-05,-0.000693426,0.000227679,-0.00190622,-1.21706,0.00135311,0.0135902,1917,855,20.6508,-2.75444
700,169,20.6678,2.99005,-0.00103034,-0.000240463,-0.000880431,0.000329551,-0.00160036,-0.996232,0.00119204,0.0126282,1924,855,20.6678,-2.99005
707,169,20.6375,3.18524,-0.000369647,-0.000588197,-0.000867804,0.000395735,-0.00135358,-0.722767,0.00105923,0.0134249,1931,855,20.6375,-3.18525
714,169,20.6066,3.3891,-1.96968e-05,-0.000527761,-0.000973201,0.00073208,-0.00127954,-0.657733,0.00117566,0.0133377,1938,855,20.6065,-3.38912
721,169,20.597,3.6178,0.000921731,-0.000625332,-0.00141147,0.00175773,-0.00146134,-0.534733,0.00186116,0.0160622,1945,855,20.5971,-3.6178
728,169,20.6241,3.86212,0.002552,-0.000946794,-0.00214821,0.00357302,-0.00196781,-0.443683,0.00324344,0.0134173,1952,855,20.6242,-3.8621
735,169,20.6057,4.09851,0.00420542,-0.00113543,-0.00306869,0.00560292,-0.00253293,-0.427341,0.00480741,0.0192904,1959,855,20.6057,-4.09852
742,169,20.613,4.31616,0.00600319,-0.00126394,-0.00422829,0.00794468,-0.00320543,-0.430451,0.00662852,0.0146276,1966,855,20.6131,-4.31613
749,169,20.6372,4.45642,0.00836514,-0.00174514,-0.00593026,0.0111025,-0.00448245,-0.432446,0.00926459,0.023165,1973,855,20.6373,-4.45642
756,169,20.7366,4.53723,0.0110661,-0.00237348,-0.00826388,0.0149975,-0.00630486,-0.444044,0.0126356,0.0472069,1980,855,20.7366,-4.53725
763,169,20.8839,4.64142,0,0,0,0,0,0,0,-1,1987,855,20.8839,-4.6414
770,169,21.1854,4.95709,0,0,0,0,0,0,0,-1,1994,855,21.1855,-4.95708
777,169,20.7225,4.89478,0,0,0,0,0,0,0,-1,2001,855,20.7226,-4.8948
784,169,21.3458,6.2901,0,0,0,0,0,0,0,-1,2008,855,21.3458,-6.29011
791,169,0,0,0,0,0,0,0,0,0,-1,2015,855,0,0
798,169,0,0,0,0,0,0,0,0,0,-1,2022,855,0,0
805,169,0,0,0,0,0,0,0,0,0,-1,2029,855,0,0
812,169,0,0,0,0,0,0,0,0,0,-1,2036,855,0,0
-700,162,0,0,0,0,0,0,0,0,0,-1,524,862,0,0
-693,162,0,0,0,0,0,0,0,0,0,-1,531,862,0,0
-686,162,0,0,0,0,0,0,0,0,0,-1,538,862,0,0
-679,162,0,0,0,0,0,0,0,0,0,-1,545,862,0,0
-672,162,0,0,0,0,0,0,0,0,0,-1,552,862,0,0
-665,162,-14.8665,1.87762,-0.0310867,-0.0155192,-0.0340188,0.011595,-0.0582009,-0.897866,0.0431876,0.0467267,559,862,-14.8664,-1.87762
-658,162,-14.8397,1.46881,-0.0275508,-0.000961224,-0.0292248,0.0178507,-0.0463627,-0.998865,0.0382724,0.047582,566,862,-14.8397,-1.46879
-651,162,-12.9084,2.64642,0,0,0,0,0,0,0,-1,573,862,-12.9084,-2.64642
-644,162,-13.1519,2.40125,-0.0217295,0.0142002,-0.020735,0.0236703,-0.0311996,-1.14237,0.0317784,0.0444661,580,862,-13.1518,-2.40124
-637,162,-13.4044,2.20715,-0.0190943,0.0170248,-0.01701,0.0237743,-0.0258438,-1.19306,0.0286553,0.0396652,587,862,-13.4044,-2.20715
-630,162,-13.9365,2.23145,-0.0165513,0.017611,-0.0136487,0.0223942,-0.0213346,-1.23371,0.0252493,0.0404215,594,862,-13.9365,-2.23143
-623,162,-13.9742,2.24194,-0.013928,0.0165344,-0.0107149,0.0199257,-0.0173193,-1.26427,0.021521,0.0329828,601,862,-13.9742,-2.24195
-616,162,-13.9694,2.08472,-0.0109523,0.0145091,-0.00793022,0.016777,-0.0132203,-1.29225,0.0173595,0.0190119,608,862,-13.9694,-2.08475
-609,162,-13.9854,1.8634,-0.00880663,0.0129553,-0.00566845,0.0143433,-0.0101946,-1.33066,0.0142343,0.0131646,615,862,-13.9854,-1.86338
-602,162,-13.999,1.65137,-0.00698319,0.0105176,-0.00378069,0.0112994,-0.007765,-1.36688,0.0110697,0.0115209,622,862,-13.999,-1.65138
-595,162,-13.9915,1.44983,-0.00502954,0.00721575,-0.00208239,0.00756019,-0.00537398,-1.40688,0.00750302,0.0108225,629,862,-13.9915,-1.44985
-588,162,-13.9763,1.24243,-0.00331829,0.00328044,-0.000875937,0.00339473,-0.00343259,-1.44105,0.00394178,0.0105025,636,862,-13.9763,-1.24242
-581,162,-14.039,1.02631,-0.0019084,0.00151825,-0.000201488,0.00153005,-0.00192021,-1.51226,0.00199625,0.0133399,643,862,-14.039,-1.02633
-574,162,-14.1416,0.810547,-0.00115883,0.00101104,0.00015877,0.0010226,-0.00117039,1.49814,0.00126708,0.0193837,650,862,-14.1416,-0.810525
-567,162,-14.0922,0.633789,-0.00094471,0.000899066,0.000418492,0.000989608,-0.00103525,1.35773,0.00116915,0.0304332,657,862,-14.0922,-0.63377
-560,162,-14.0528,0.287292,-0.00079816,0.000928419,0.000706724,0.0011808,-0.00105054,1.22779,0.001289,0.0268439,664,862,-14.0528,-0.287293
-553,162,-13.9122,0.0247803,-0.000718512,0.00128463,0.000801696,0.00156597,-0.000999853,1.23329,0.00149335,0.0318947,671,862,-13.9122,-0.0247672
-546,162,-15.3575,0.393799,0,0,0,0,0,0,0,-1,678,862,-15.3575,-0.393801
-539,162,-16.6667,0.742126,0,0,0,0,0,0,0,-1,685,862,-16.6667,-0.742112
-532,162,-17.2645,0.795898,-0.000362117,0.00263743,0.000737964,0.00280916,-0.000533843,1.34216,0.00207375,0.0363012,692,862,-17.2645,-0.795884
-525,162,-17.2731,0.765137,-0.000218669,0.00305574,0.000670478,0.00318771,-0.000350639,1.37645,0.00225114,0.036426,699,862,-17.2731,-0.765165
-518,162,-17.342,0.664001,5.10464e-05,0.0033221,0.000511339,0.00340017,-2.70241e-05,1.41929,0.00227584,0.0375169,706,862,-17.342,-0.663976
-511,162,-17.4984,0.695984,0.000655333,0.00323347,0.000127311,0.00323974,0.000649061,1.52157,0.00197927,0.0428017,713,862,-17.4984,-0.696008
-504,162,-17.5027,0.745605,0.00144882,0.00251356,-0.000662244,0.00283089,0.0011315,-1.12395,0.00164534,0.0457152,720,862,-17.5027,-0.745633
-497,162,-17.3658,0.868103,0.00262599,0.000889528,-0.00209446,0.00402505,-0.000509531,-0.588911,0.00286834,0.0445448,727,862,-17.3658,-0.868105
-490,162,0,0,0,0,0,0,0,0,0,-1,734,862,0,0
-483,162,0,0,0,0,0,0,0,0,0,-1,741,862,0,0
-476,162,0,0,0,0,0,0,0,0,0,-1,748,862,0,0
-469,162,0,0,0,0,0,0,0,0,0,-1,755,862,0,0
-462,162,0,0,0,0,0,0,0,0,0,-1,762,862,0,0
-455,162,0,0,0,0,0,0,0,0,0,-1,769,862,0,0
-448,162,0,0,0,0,0,0,0,0,0,-1,776,862,0,0
-441,162,0,0,0,0,0,0,0,0,0,-1,783,862,0,0
-434,162,0,0,0,0,0,0,0,0,0,-1,790,862,0,0
-427,162,0,0,0,0,0,0,0,0,0,-1,797,862,0,0
-420,162,0,0,0,0,0,0,0,0,0,-1,804,862,0,0
-413,162,0,0,0,0,0,0,0,0,0,-1,811,862,0,0
-406,162,0,0,0,0,0,0,0,0,0,-1,818,862,0,0
-399,162,0,0,0,0,0,0,0,0,0,-1,825,862,0,0
-392,162,0,0,0,0,0,0,0,0,0,-1,832,862,0,0
-385,162,0,0,0,0,0,0,0,0,0,-1,839,862,0,0
-378,162,0,0,0,0,0,0,0,0,0,-1,846,862,0,0
-371,162,0,0,0,0,0,0,0,0,0,-1,853,862,0,0
-364,162,0,0,0,0,0,0,0,0,0,-1,860,862,0,0
-357,162,0,0,0,0,0,0,0,0,0,-1,867,862,0,0
-350,162,0,0,0,0,0,0,0,0,0,-1,874,862,0,0
-343,162,0,0,0,0,0,0,0,0,0,-1,881,862,0,0
-336,162,0,0,0,0,0,0,0,0,0,-1,888,862,0,0
-329,162,0,0,0,0,0,0,0,0,0,-1,895,862,0,0
-322,162,0,0,0,0,0,0,0,0,0,-1,902,862,0,0
-315,162,0,0,0,0,0,0,0,0,0,-1,909,862,0,0
-308,162,0,0,0,0,0,0,0,0,0,-1,916,862,0,0
-301,162,0,0,0,0,0,0,0,0,0,-1,923,862,0,0
-294,162,0,0,0,0,0,0,0,0,0,-1,930,862,0,0
-287,162,0,0,0,0,0,0,0,0,0,-1,937,862,0,0
-280,162,0,0,0,0,0,0,0,0,0,-1,944,862,0,0
-273,162,0,0,0,0,0,0,0,0,0,-1,951,862,0,0
-266,162,0,0,0,0,0,0,0,0,0,-1,958,862,0,0
-259,162,0,0,0,0,0,0,0,0,0,-1,965,862,0,0
-252,162,0,0,0,0,0,0,0,0,0,-1,972,862,0,0
-245,162,0,0,0,0,0,0,0,0,0,-1,979,862,0,0
-238,162,0,0,0,0,0,0,0,0,0,-1,986,862,0,0
-231,162,0,0,0,0,0,0,0,0,0,-1,993,862,0,0
-224,162,0,0,0,0,0,0,0,0,0,-1,1000,862,0,0
-217,162,0,0,0,0,0,0,0,0,0,-1,1007,862,0,0
-210,162,0,0,0,0,0,0,0,0,0,-1,1014,862,0,0
-203,162,0,0,0,0,0,0,0,0,0,-1,1021,862,0,0
-196,162,0,0,0,0,0,0,0,0,0,-1,1028,862,0,0
-189,162,0,0,0,0,0,0,0,0,0,-1,1035,862,0,0
-182,162,0,0,0,0,0,0,0,0,0,-1,1042,862,0,0
-175,162,0,0,0,0,0,0,0,0,0,-1,1049,862,0,0
-168,162,0,0,0,0,0,0,0,0,0,-1,1056,862,0,0
-161,162,0,0,0,0,0,0,0,0,0,-1,1063,862,0,0
-154,162,0,0,0,0,0,0,0,0,0,-1,1070,862,0,0
-147,162,0,0,0,0,0,0,0,0,0,-1,1077,862,0,0
-140,162,0,0,0,0,0,0,0,0,0,-1,1084,862,0,0
-133,162,0,0,0,0,0,0,0,0,0,-1,1091,862,0,0
-126,162,0,0,0,0,0,0,0,0,0,-1,1098,862,0,0
-119,162,0,0,0,0,0,0,0,0,0,-1,1105,862,0,0
-112,162,0,0,0,0,0,0,0,0,0,-1,1112,862,0,0
-105,162,0,0,0,0,0,0,0,0,0,-1,1119,862,0,0
-98,162,0,0,0,0,0,0,0,0,0,-1,1126,862,0,0
-91,162,0,0,0,0,0,0,0,0,0,-1,1133,862,0,0
-84,162,0,0,0,0,0,0,0,0,0,-1,1140,862,0,0
-77,162,0,0,0,0,0,0,0,0,0,-1,1147,862,0,0
-70,162,0,0,0,0,0,0,0,0,0,-1,1154,862,0,0
-63,162,0,0,0,0,0,0,0,0,0,-1,1161,862,0,0
-56,162,0,0,0,0,0,0,0,0,0,-1,1168,862,0,0
-49,162,0,0,0,0,0,0,0,0,0,-1,1175,862,0,0
-42,162,0,0,0,0,0,0,0,0,0,-1,1182,862,0,0
-35,162,0,0,0,0,0,0,0,0,0,-1,1189,862,0,0
-28,162,0,0,0,0,0,0,0,0,0,-1,1196,862,0,0
-21,162,0,0,0,0,0,0,0,0,0,-1,1203,862,0,0
-14,162,0,0,0,0,0,0,0,0,0,-1,1210,862,0,0
-7,162,0,0,0,0,0,0,0,0,0,-1,1217,862,0,0
0,162,0,0,0,0,0,0,0,0,0,-1,1224,862,0,0
7,162,0,0,0,0,0,0,0,0,0,-1,1231,862,0,0
14,162,0,0,0,0,0,0,0,0,0,-1,1238,862,0,0
21,162,0,0,0,0,0,0,0,0,0,-1,1245,862,0,0
28,162,0,0,0,0,0,0,0,0,0,-1,1252,862,0,0
35,162,0,0,0,0,0,0,0,0,0,-1,1259,862,0,0
42,162,0,0,0,0,0,0,0,0,0,-1,1266,862,0,0
49,162,0,0,0,0,0,0,0,0,0,-1,1273,862,0,0
56,162,0,0,0,0,0,0,0,0,0,-1,1280,862,0,0
63,162,0,0,0,0,0,0,0,0,0,-1,1287,862,0,0
70,162,0,0,0,0,0,0,0,0,0,-1,1294,862,0,0
77,162,0,0,0,0,0,0,0,0,0,-1,1301,862,0,0
84,162,0,0,0,0,0,0,0,0,0,-1,1308,862,0,0
91,162,0,0,0,0,0,0,0,0,0,-1,1315,862,0,0
98,162,0,0,0,0,0,0,0,0,0,-1,1322,862,0,0
105,162,0,0,0,0,0,0,0,0,0,-1,1329,862,0,0
112,162,0,0,0,0,0,0,0,0,0,-1,1336,862,0,0
119,162,0,0,0,0,0,0,0,0,0,-1,1343,862,0,0
126,162,0,0,0,0,0,0,0,0,0,-1,1350,862,0,0
133,162,0,0,0,0,0,0,0,0,0,-1,1357,862,0,0
140,162,0,0,0,0,0,0,0,0,0,-1,1364,862,0,0
147,162,0,0,0,0,0,0,0,0,0,-1,1371,862,0,0
154,162,0,0,0,0,0,0,0,0,0,-1,1378,862,0,0
161,162,0,0,0,0,0,0,0,0,0,-1,1385,862,0,0
168,162,0,0,0,0,0,0,0,0,0,-1,1392,862,0,0
175,162,0,0,0,0,0,0,0,0,0,-1,1399,862,0,0
182,162,0,0,0,0,0,0,0,0,0,-1,1406,862,0,0
189,162,0,0,0,0,0,0,0,0,0,-1,1413,862,0,0
196,162,0,0,0,0,0,0,0,0,0,-1,1420,862,0,0
203,162,0,0,0,0,0,0,0,0,0,-1,1427,862,0,0
210,162,0,0,0,0,0,0,0,0,0,-1,1434,862,0,0
217,162,0,0,0,0,0,0,0,0,0,-1,1441,862,0,0
224,162,0,0,0,0,0,0,0,0,0,-1,1448,862,0,0
231,162,0,0,0,0,0,0,0,0,0,-1,1455,862,0,0
238,162,0,0,0,0,0,0,0,0,0,-1,1462,862,0,0
245,162,0,0,0,0,0,0,0,0,0,-1,1469,862,0,0
252,162,0,0,0,0,0,0,0,0,0,-1,1476,862,0,0
259,162,0,0,0,0,0,0,0,0,0,-1,1483,862,0,0
266,162,0,0,0,0,0,0,0,0,0,-1,1490,862,0,0
273,162,0,0,0,0,0,0,0,0,0,-1,1497,862,0,0
280,162,0,0,0,0,0,0,0,0,0,-1,1504,862,0,0
287,162,0,0,0,0,0,0,0,0,0,-1,1511,862,0,0
294,162,0,0,0,0,0,0,0,0,0,-1,1518,862,0,0
301,162,0,0,0,0,0,0,0,0,0,-1,1525,862,0,0
308,162,0,0,0,0,0,0,0,0,0,-1,1532,862,0,0
315,162,0,0,0,0,0,0,0,0,0,-1,1539,862,0,0
322,162,0,0,0,0,0,0,0,0,0,-1,1546,862,0,0
329,162,0,0,0,0,0,0,0,0,0,-1,1553,862,0,0
336,162,0,0,0,0,0,0,0,0,0,-1,1560,862,0,0
343,162,0,0,0,0,0,0,0,0,0,-1,1567,862,0,0
350,162,0,0,0,0,0,0,0,0,0,-1,1574,862,0,0
357,162,0,0,0,0,0,0,0,0,0,-1,1581,862,0,0
364,162,0,0,0,0,0,0,0,0,0,-1,1588,862,0,0
371,162,0,0,0,0,0,0,0,0,0,-1,1595,862,0,0
378,162,0,0,0,0,0,0,0,0,0,-1,1602,862,0,0
385,162,0,0,0,0,0,0,0,0,0,-1,1609,862,0,0
392,162,0,0,0,0,0,0,0,0,0,-1,1616,862,0,0
399,162,0,0,0,0,0,0,0,0,0,-1,1623,862,0,0
406,162,0,0,0,0,0,0,0,0,0,-1,1630,862,0,0
413,162,0,0,0,0,0,0,0,0,0,-1,1637,862,0,0
420,162,0,0,0,0,0,0,0,0,0,-1,1644,862,0,0
427,162,0,0,0,0,0,0,0,0,0,-1,1651,862,0,0
434,162,0,0,0,0,0,0,0,0,0,-1,1658,862,0,0
441,162,0,0,0,0,0,0,0,0,0,-1,1665,862,0,0
448,162,0,0,0,0,0,0,0,0,0,-1,1672,862,0,0
455,162,0,0,0,0,0,0,0,0,0,-1,1679,862,0,0
462,162,0,0,0,0,0,0,0,0,0,-1,1686,862,0,0
469,162,0,0,0,0,0,0,0,0,0,-1,1693,862,0,0
476,162,0,0,0,0,0,0,0,0,0,-1,1700,862,0,0
483,162,0,0,0,0,0,0,0,0,0,-1,1707,862,0,0
490,162,0,0,0,0,0,0,0,0,0,-1,1714,862,0,0
497,162,0,0,0,0,0,0,0,0,0,-1,1721,862,0,0
504,162,0,0,0,0,0,0,0,0,0,-1,1728,862,0,0
511,162,0,0,0,0,0,0,0,0,0,-1,1735,862,0,0
518,162,0,0,0,0,0,0,0,0,0,-1,1742,862,0,0
525,162,0,0,0,0,0,0,0,0,0,-1,1749,862,0,0
532,162,0,0,0,0,0,0,0,0,0,-1,1756,862,0,0
539,162,0,0,0,0,0,0,0,0,0,-1,1763,862,0,0
546,162,0,0,0,0,0,0,0,0,0,-1,1770,862,0,0
553,162,0,0,0,0,0,0,0,0,0,-1,1777,862,0,0
560,162,0,0,0,0,0,0,0,0,0,-1,1784,862,0,0
567,162,0,0,0,0,0,0,0,0,0,-1,1791,862,0,0
574,162,0,0,0,0,0,0,0,0,0,-1,1798,862,0,0
581,162,0,0,0,0,0,0,0,0,0,-1,1805,862,0,0
588,162,0,0,0,0,0,0,0,0,0,-1,1812,862,0,0
595,162,0,0,0,0,0,0,0,0,0,-1,1819,862,0,0
602,162,0,0,0,0,0,0,0,0,0,-1,1826,862,0,0
609,162,0,0,0,0,0,0,0,0,0,-1,1833,862,0,0
616,162,24.9208,2.51147,0.00800875,0.0011783,0.00426399,0.0100566,-0.000869569,0.447739,0.00701226,0.044333,1840,862,24.9208,-2.5115
623,162,24.9829,2.89227,0.00478129,0.000938567,0.00317076,0.0065674,-0.000847539,0.513002,0.0046864,0.0440477,1847,862,24.9829,-2.8923
630,162,24.9963,3.01752,0.00213121,0.00113849,0.00223797,0.0039272,-0.000657499,0.676269,0.00286258,0.0411798,1854,862,24.9964,-3.01749
637,162,24.9999,2.9032,0.000133528,0.00131512,0.00145086,0.00229086,-0.000842215,0.978749,0.00187223,0.0394368,1861,862,24.9998,-2.90321
644,162,24.9591,2.758,-0.00114591,0.00126751,0.00084681,0.00153499,-0.00141339,1.26485,0.00170273,0.0363082,1868,862,24.9591,-2.75802
651,162,24.9005,2.74561,-0.0017845,0.00106913,0.000397625,0.0011235,-0.00183887,1.4349,0.00172687,0.0318534,1875,862,24.9005,-2.7456
658,162,24.9084,2.77234,-0.00202105,0.000854248,2.3448e-05,0.000854439,-0.00202124,1.56264,0.00170522,0.0316404,1882,862,24.9084,-2.77234
665,162,24.9067,2.82898,-0.0020762,0.000613874,-0.000167602,0.000624276,-0.0020866,-1.50881,0.00163927,0.039375,1889,862,24.9068,-2.82899
672,162,24.9167,2.91309,0,0,0,0,0,0,0,-1,1896,862,24.9168,-2.91311
679,162,20.8127,2.51556,0,0,0,0,0,0,0,-1,1903,862,20.8128,-2.51558
686,162,20.8375,2.63629,-0.00203661,7.8295e-06,-0.000635682,0.000189364,-0.00221815,-1.29263,0.00154576,0.0383785,1910,862,20.8376,-2.6363
693,162,20.8602,2.79889,-0.00163379,-0.000112743,-0.000766242,0.000206327,-0.00195286,-1.17622,0.00137585,0.0176281,1917,862,20.8603,-2.79887
700,162,20.9023,2.99219,-0.00115232,-0.00019238,-0.000930481,0.00037463,-0.00171933,-1.02351,0.00128937,0.0157203,1924,862,20.9023,-2.99219
707,162,20.892,3.18164,-0.00060664,-0.00042429,-0.000880698,0.00036994,-0.00140087,-0.836977,0.00107859,0.0112427,1931,862,20.892,-3.18164
714,162,20.8597,3.38245,-0.000197855,-0.000324767,-0.000932115,0.000672962,-0.00119558,-0.751412,0.00109278,0.0152844,1938,862,20.8598,-3.38246
721,162,20.7886,3.68396,0.000806934,-0.000362498,-0.00133248,0.00167734,-0.00123291,-0.57864,0.00168675,0.0291523,1945,862,20.7885,-3.68398
728,162,20.7877,3.88818,0.00257559,-0.000604275,-0.00200079,0.00354125,-0.00156993,-0.449662,0.00302322,0.022554,1952,862,20.7877,-3.88817
735,162,20.8464,4.09705,0.00430294,-0.000618844,-0.00284182,0.0056013,-0.0019172,-0.428556,0.00451117,0.0112538,1959,862,20.8465,-4.09702
742,162,20.8372,4.31665,0.00612366,-0.00043837,-0.00389046,0.00793192,-0.00224664,-0.435089,0.0061746,0.0126487,1966,862,20.8371,-4.31667
749,162,20.8303,4.50909,0.00850794,-0.000552726,-0.00541973,0.0110414,-0.0030862,-0.437274,0.0085768,0.0170564,1973,862,20.8303,-4.50911
756,162,20.8486,4.67694,0.0111232,-0.000648187,-0.00744439,0.0147275,-0.00425251,-0.450901,0.011501,0.0413682,1980,862,20.8487,-4.67693
763,162,20.854,4.87201,0,0,0,0,0,0,0,-1,1987,862,20.854,-4.87203
770,162,21.4248,4.95178,0.0162016,-0.000386452,-0.0132528,0.0235417,-0.00772656,-0.505798,0.0188067,0.0451402,1994,862,21.4248,-4.9518
777,162,21.3774,5.00977,0.0172695,0.000384322,-0.017139,0.0279325,-0.0102786,-0.556545,0.0228325,0.0466317,2001,862,21.3774,-5.00975
784,162,21.5521,5.15222,0,0,0,0,0,0,0,-1,2008,862,21.5521,-5.15222
791,162,0,0,0,0,0,0,0,0,0,-1,2015,862,0,0
798,162,0,0,0,0,0,0,0,0,0,-1,2022,862,0,0
805,162,0,0,0,0,0,0,0,0,0,-1,2029,862,0,0
812,162,0,0,0,0,0,0,0,0,0,-1,2036,862,0,0
-700,155,0,0,0,0,0,0,0,0,0,-1,524,869,0,0
-693,155,0,0,0,0,0,0,0,0,0,-1,531,869,0,0
-686,155,0,0,0,0,0,0,0,0,0,-1,538,869,0,0
-679,155,0,0,0,0,0,0,0,0,0,-1,545,869,0,0
-672,155,0,0,0,0,0,0,0,0,0,-1,552,869,0,0
-665,155,-15.2258,2.40045,-0.0287795,-0.0155741,-0.0227994,0.0015594,-0.045913,-0.926342,0.0311415,0.0463351,559,869,-15.2258,-2.40045
-658,155,-15.2117,1.92297,-0.0234351,-0.00388804,-0.0187642,0.00749537,-0.0348185,-1.0255,0.0260724,0.044251,566,869,-15.2116,-1.923
-651,155,-15.1669,1.4386,-0.0195063,0.00413542,-0.0152781,0.0116317,-0.0270026,-1.11465,0.0228865,0.044327,573,869,-15.1669,-1.43857
-644,155,-13.2703,2.21747,0,0,0,0,0,0,0,-1,580,869,-13.2703,-2.21749
-637,155,-14.1592,2.38129,0,0,0,0,0,0,0,-1,587,869,-14.1592,-2.38129
-630,155,-14.1712,2.31927,-0.011965,0.0132524,-0.00739642,0.0152617,-0.0139743,-1.30554,0.0168848,0.0403517,594,869,-14.1712,-2.3193
-623,155,-14.1437,2.29309,-0.00996139,0.0128407,-0.00563614,0.0141577,-0.0112784,-1.34124,0.0147169,0.0256817,601,869,-14.1437,-2.2931
-616,155,-14.1749,2.07196,-0.00766674,0.0114691,-0.00387441,0.0122238,-0.00842142,-1.37842,0.0119867,0.0147459,608,869,-14.1749,-2.07195
-609,155,-14.1885,1.85754,-0.00629999,0.0105347,-0.00247833,0.010892,-0.00665726,-1.42763,0.0102299,0.0133076,615,869,-14.1885,-1.85751
-602,155,-14.2098,1.65051,-0.00530389,0.0088066,-0.00148853,0.00896192,-0.00545921,-1.46683,0.00840751,0.0124133,622,869,-14.2098,-1.65049
-595,155,-14.227,1.44592,-0.00421334,0.0062507,-0.000705822,0.0062981,-0.00426073,-1.50375,0.00613385,0.0115826,629,869,-14.227,-1.44591
-588,155,-14.2033,1.24896,-0.00317128,0.00291486,-0.000239237,0.00292425,-0.00318067,-1.53157,0.00352572,0.0129364,636,869,-14.2033,-1.24895
-581,155,-14.299,1.07336,-0.00219294,0.0015439,-6.04827e-06,0.00154391,-0.00219295,-1.56918,0.0021683,0.0193123,643,869,-14.299,-1.07338
-574,155,-14.357,0.911194,-0.00164133,0.00115463,0.000176147,0.00116569,-0.00165238,1.50813,0.00163508,0.0252514,650,869,-14.357,-0.911201
-567,155,-14.3196,0.612732,-0.00150486,0.0010447,0.000376036,0.001099,-0.00155917,1.42737,0.00154234,0.0258416,657,869,-14.3196,-0.612753
-560,155,-14.279,0.307556,-0.00137555,0.00102922,0.000639087,0.00118851,-0.00153484,1.32653,0.00157656,0.022302,664,869,-14.279,-0.307569
-553,155,-14.0837,-0.0834351,0,0,0,0,0,0,0,-1,671,869,-14.0837,0.08346
-546,155,-15.7773,0.598938,0,0,0,0,0,0,0,-1,678,869,-15.7773,-0.598924
-539,155,-17.248,0.839905,-0.00113098,0.00199948,0.000809539,0.00219644,-0.00132794,1.33214,0.00205529,0.0449229,685,869,-17.2481,-0.839902
-532,155,-17.2739,0.703552,-0.000909002,0.00228427,0.00083481,0.00248935,-0.00111407,1.32991,0.00213034,0.0364375,692,869,-17.2739,-0.703582
-525,155,-17.2546,0.824219,-0.000700711,0.00249728,0.000848451,0.00270843,-0.00091187,1.32688,0.00217428,0.0370665,699,869,-17.2546,-0.824214
-518,155,-17.3372,0.920532,-0.000272033,0.00250694,0.000753749,0.00269822,-0.000463309,1.32228,0.00197148,0.0400794,706,869,-17.3371,-0.920521
-511,155,-17.4357,0.893127,0.000556355,0.00210086,0.00038283,0.00219055,0.000466672,1.34068,0.00133233,0.042884,713,869,-17.4357,-0.893124
-504,155,-17.3682,0.841492,0.00157567,0.00103819,-0.000472319,0.00185035,0.000763511,-0.526748,0.00107373,0.0428615,720,869,-17.3682,-0.841465
-497,155,0,0,0,0,0,0,0,0,0,-1,727,869,0,0
-490,155,0,0,0,0,0,0,0,0,0,-1,734,869,0,0
-483,155,0,0,0,0,0,0,0,0,0,-1,741,869,0,0
-476,155,0,0,0,0,0,0,0,0,0,-1,748,869,0,0
-469,155,0,0,0,0,0,0,0,0,0,-1,755,869,0,0
-462,155,0,0,0,0,0,0,0,0,0,-1,762,869,0,0
-455,155,0,0,0,0,0,0,0,0,0,-1,769,869,0,0
-448,155,0,0,0,0,0,0,0,0,0,-1,776,869,0,0
-441,155,0,0,0,0,0,0,0,0,0,-1,783,869,0,0
-434,155,0,0,0,0,0,0,0,0,0,-1,790,869,0,0
-427,155,0,0,0,0,0,0,0,0,0,-1,797,869,0,0
-420,155,0,0,0,0,0,0,0,0,0,-1,804,869,0,0
-413,155,0,0,0,0,0,0,0,0,0,-1,811,869,0,0
-406,155,0,0,0,0,0,0,0,0,0,-1,818,869,0,0
-399,155,0,0,0,0,0,0,0,0,0,-1,825,869,0,0
-392,155,0,0,0,0,0,0,0,0,0,-1,832,869,0,0
-385,155,0,0,0,0,0,0,0,0,0,-1,839,869,0,0
-378,155,0,0,0,0,0,0,0,0,0,-1,846,869,0,0
-371,155,0,0,0,0,0,0,0,0,0,-1,853,869,0,0
-364,155,0,0,0,0,0,0,0,0,0,-1,860,869,0,0
-357,155,0,0,0,0,0,0,0,0,0,-1,867,869,0,0
-350,155,0,0,0,0,0,0,0,0,0,-1,874,869,0,0
-343,155,0,0,0,0,0,0,0,0,0,-1,881,869,0,0
-336,155,0,0,0,0,0,0,0,0,0,-1,888,869,0,0
-329,155,0,0,0,0,0,0,0,0,0,-1,895,869,0,0
-322,155,0,0,0,0,0,0,0,0,0,-1,902,869,0,0
-315,155,0,0,0,0,0,0,0,0,0,-1,909,869,0,0
-308,155,0,0,0,0,0,0,0,0,0,-1,916,869,0,0
-301,155,0,0,0,0,0,0,0,0,0,-1,923,869,0,0
-294,155,0,0,0,0,0,0,0,0,0,-1,930,869,0,0
-287,155,0,0,0,0,0,0,0,0,0,-1,937,869,0,0
-280,155,0,0,0,0,0,0,0,0,0,-1,944,869,0,0
-273,155,0,0,0,0,0,0,0,0,0,-1,951,869,0,0
-266,155,0,0,0,0,0,0,0,0,0,-1,958,869,0,0
-259,155,0,0,0,0,0,0,0,0,0,-1,965,869,0,0
-252,155,0,0,0,0,0,0,0,0,0,-1,972,869,0,0
-245,155,0,0,0,0,0,0,0,0,0,-1,979,869,0,0
-238,155,0,0,0,0,0,0,0,0,0,-1,986,869,0,0
-231,155,0,0,0,0,0,0,0,0,0,-1,993,869,0,0
-224,155,0,0,0,0,0,0,0,0,0,-1,1000,869,0,0
-217,155,0,0,0,0,0,0,0,0,0,-1,1007,869,0,0
-210,155,0,0,0,0,0,0,0,0,0,-1,1014,869,0,0
-203,155,0,0,0,0,0,0,0,0,0,-1,1021,869,0,0
-196,155,0,0,0,0,0,0,0,0,0,-1,1028,869,0,0
-189,155,0,0,0,0,0,0,0,0,0,-1,1035,869,0,0
-182,155,0,0,0,0,0,0,0,0,0,-1,1042,869,0,0
-175,155,0,0,0,0,0,0,0,0,0,-1,1049,869,0,0
-168,155,0,0,0,0,0,0,0,0,0,-1,1056,869,0,0
-161,155,0,0,0,0,0,0,0,0,0,-1,1063,869,0,0
-154,155,0,0,0,0,0,0,0,0,0,-1,1070,869,0,0
-147,155,0,0,0,0,0,0,0,0,0,-1,1077,869,0,0
-140,155,0,0,0,0,0,0,0,0,0,-1,1084,869,0,0
-133,155,0,0,0,0,0,0,0,0,0,-1,1091,869,0,0
-126,155,0,0,0,0,0,0,0,0,0,-1,1098,869,0,0
-119,155,0,0,0,0,0,0,0,0,0,-1,1105,869,0,0
-112,155,0,0,0,0,0,0,0,0,0,-1,1112,869,0,0
-105,155,0,0,0,0,0,0,0,0,0,-1,1119,869,0,0
-98,155,0,0,0,0,0,0,0,0,0,-1,1126,869,0,0
-91,155,0,0,0,0,0,0,0,0,0,-1,1133,869,0,0
-84,155,0,0,0,0,0,0,0,0,0,-1,1140,869,0,0
-77,155,0,0,0,0,0,0,0,0,0,-1,1147,869,0,0
-70,155,0,0,0,0,0,0,0,0,0,-1,1154,869,0,0
-63,155,0,0,0,0,0,0,0,0,0,-1,1161,869,0,0
-56,155,0,0,0,0,0,0,0,0,0,-1,1168,869,0,0
-49,155,0,0,0,0,0,0,0,0,0,-1,1175,869,0,0
-42,155,0,0,0,0,0,0,0,0,0,-1,1182,869,0,0
-35,155,0,0,0,0,0,0,0,0,0,-1,1189,869,0,0
-28,155,0,0,0,0,0,0,0,0,0,-1,1196,869,0,0
-21,155,0,0,0,0,0,0,0,0,0,-1,1203,869,0,0
-14,155,0,0,0,0,0,0,0,0,0,-1,1210,869,0,0
-7,155,0,0,0,0,0,0,0,0,0,-1,1217,869,0,0
0,155,0,0,0,0,0,0,0,0,0,-1,1224,869,0,0
7,155,0,0,0,0,0,0,0,0,0,-1,1231,869,0,0
14,155,0,0,0,0,0,0,0,0,0,-1,1238,869,0,0
21,155,0,0,0,0,0,0,0,0,0,-1,1245,869,0,0
28,155,0,0,0,0,0,0,0,0,0,-1,1252,869,0,0
35,155,0,0,0,0,0,0,0,0,0,-1,1259,869,0,0
42,155,0,0,0,0,0,0,0,0,0,-1,1266,869,0,0
49,155,0,0,0,0,0,0,0,0,0,-1,1273,869,0,0
56,155,0,0,0,0,0,0,0,0,0,-1,1280,869,0,0
63,155,0,0,0,0,0,0,0,0,0,-1,1287,869,0,0
70,155,0,0,0,0,0,0,0,0,0,-1,1294,869,0,0
77,155,0,0,0,0,0,0,0,0,0,-1,1301,869,0,0
84,155,0,0,0,0,0,0,0,0,0,-1,1308,869,0,0
91,155,0,0,0,0,0,0,0,0,0,-1,1315,869,0,0
98,155,0,0,0,0,0,0,0,0,0,-1,1322,869,0,0
105,155,0,0,0,0,0,0,0,0,0,-1,1329,869,0,0
112,155,0,0,0,0,0,0,0,0,0,-1,1336,869,0,0
119,155,0,0,0,0,0,0,0,0,0,-1,1343,869,0,0
126,155,0,0,0,0,0,0,0,0,0,-1,1350,869,0,0
133,155,0,0,0,0,0,0,0,0,0,-1,1357,869,0,0
140,155,0,0,0,0,0,0,0,0,0,-1,1364,869,0,0
147,155,0,0,0,0,0,0,0,0,0,-1,1371,869,0,0
154,155,0,0,0,0,0,0,0,0,0,-1,1378,869,0,0
161,155,0,0,0,0,0,0,0,0,0,-1,1385,869,0,0
168,155,0,0,0,0,0,0,0,0,0,-1,1392,869,0,0
175,155,0,0,0,0,0,0,0,0,0,-1,1399,869,0,0
182,155,0,0,0,0,0,0,0,0,0,-1,1406,869,0,0
189,155,0,0,0,0,0,0,0,0,0,-1,1413,869,0,0
196,155,0,0,0,0,0,0,0,0,0,-1,1420,869,0,0
203,155,0,0,0,0,0,0,0,0,0,-1,1427,869,0,0
210,155,0,0,0,0,0,0,0,0,0,-1,1434,869,0,0
217,155,0,0,0,0,0,0,0,0,0,-1,1441,869,0,0
224,155,0,0,0,0,0,0,0,0,0,-1,1448,869,0,0
231,155,0,0,0,0,0,0,0,0,0,-1,1455,869,0,0
238,155,0,0,0,0,0,0,0,0,0,-1,1462,869,0,0
245,155,0,0,0,0,0,0,0,0,0,-1,1469,869,0,0
252,155,0,0,0,0,0,0,0,0,0,-1,1476,869,0,0
259,155,0,0,0,0,0,0,0,0,0,-1,1483,869,0,0
266,155,0,0,0,0,0,0,0,0,0,-1,1490,869,0,0
273,155,0,0,0,0,0,0,0,0,0,-1,1497,869,0,0
280,155,0,0,0,0,0,0,0,0,0,-1,1504,869,0,0
287,155,0,0,0,0,0,0,0,0,0,-1,1511,869,0,0
294,155,0,0,0,0,0,0,0,0,0,-1,1518,869,0,0
301,155,0,0,0,0,0,0,0,0,0,-1,1525,869,0,0
308,155,0,0,0,0,0,0,0,0,0,-1,1532,869,0,0
315,155,0,0,0,0,0,0,0,0,0,-1,1539,869,0,0
322,155,0,0,0,0,0,0,0,0,0,-1,1546,869,0,0
329,155,0,0,0,0,0,0,0,0,0,-1,1553,869,0,0
336,155,0,0,0,0,0,0,0,0,0,-1,1560,869,0,0
343,155,0,0,0,0,0,0,0,0,0,-1,1567,869,0,0
350,155,0,0,0,0,0,0,0,0,0,-1,1574,869,0,0
357,155,0,0,0,0,0,0,0,0,0,-1,1581,869,0,0
364,155,0,0,0,0,0,0,0,0,0,-1,1588,869,0,0
371,155,0,0,0,0,0,0,0,0,0,-1,1595,869,0,0
378,155,0,0,0,0,0,0,0,0,0,-1,1602,869,0,0
385,155,0,0,0,0,0,0,0,0,0,-1,1609,869,0,0
392,155,0,0,0,0,0,0,0,0,0,-1,1616,869,0,0
399,155,0,0,0,0,0,0,0,0,0,-1,1623,869,0,0
406,155,0,0,0,0,0,0,0,0,0,-1,1630,869,0,0
413,155,0,0,0,0,0,0,0,0,0,-1,1637,869,0,0
420,155,0,0,0,0,0,0,0,0,0,-1,1644,869,0,0
427,155,0,0,0,0,0,0,0,0,0,-1,1651,869,0,0
434,155,0,0,0,0,0,0,0,0,0,-1,1658,869,0,0
441,155,0,0,0,0,0,0,0,0,0,-1,1665,869,0,0
448,155,0,0,0,0,0,0,0,0,0,-1,1672,869,0,0
455,155,0,0,0,0,0,0,0,0,0,-1,1679,869,0,0
462,155,0,0,0,0,0,0,0,0,0,-1,1686,869,0,0
469,155,0,0,0,0,0,0,0,0,0,-1,1693,869,0,0
476,155,0,0,0,0,0,0,0,0,0,-1,1700,869,0,0
483,155,0,0,0,0,0,0,0,0,0,-1,1707,869,0,0
490,155,0,0,0,0,0,0,0,0,0,-1,1714,869,0,0
497,155,0,0,0,0,0,0,0,0,0,-1,1721,869,0,0
504,155,0,0,0,0,0,0,0,0,0,-1,1728,869,0,0
511,155,0,0,0,0,0,0,0,0,0,-1,1735,869,0,0
518,155,0,0,0,0,0,0,0,0,0,-1,1742,869,0,0
525,155,0,0,0,0,0,0,0,0,0,-1,1749,869,0,0
532,155,0,0,0,0,0,0,0,0,0,-1,1756,869,0,0
539,155,0,0,0,0,0,0,0,0,0,-1,1763,869,0,0
546,155,0,0,0,0,0,0,0,0,0,-1,1770,869,0,0
553,155,0,0,0,0,0,0,0,0,0,-1,1777,869,0,0
560,155,0,0,0,0,0,0,0,0,0,-1,1784,869,0,0
567,155,0,0,0,0,0,0,0,0,0,-1,1791,869,0,0
574,155,0,0,0,0,0,0,0,0,0,-1,1798,869,0,0
581,155,0,0,0,0,0,0,0,0,0,-1,1805,869,0,0
588,155,0,0,0,0,0,0,0,0,0,-1,1812,869,0,0
595,155,0,0,0,0,0,0,0,0,0,-1,1819,869,0,0
602,155,0,0,0,0,0,0,0,0,0,-1,1826,869,0,0
609,155,0,0,0,0,0,0,0,0,0,-1,1833,869,0,0
616,155,25.1998,2.6214,0.00841443,0.000273902,0.00489705,0.0107119,-0.00202358,0.438669,0.00790263,0.0450149,1840,869,25.1998,-2.62141
623,155,25.057,2.96014,0.00547175,-0.000150299,0.00366063,0.00727614,-0.00195469,0.457966,0.00561686,0.0430635,1847,869,25.057,-2.96017
630,155,24.9811,2.98083,0.00315638,-9.3745e-05,0.00257711,0.00457801,-0.00151538,0.504099,0.00366314,0.0426146,1854,869,24.9811,-2.98085
637,155,25.0553,2.85046,0.00135788,6.29568e-05,0.00162505,0.0024597,-0.00103886,0.595824,0.00207468,0.0390134,1861,869,25.0553,-2.85048
644,155,25.0282,2.7467,5.84237e-05,5.70283e-05,0.000878022,0.000935749,-0.000820297,0.785001,0.00101458,0.03568,1868,869,25.0282,-2.74673
651,155,24.9371,2.71179,-0.000769053,-1.65372e-05,0.000327652,0.00010613,-0.000891719,1.21257,0.00063283,0.0312588,1875,869,24.9371,-2.71177
658,155,24.9364,2.75848,-0.0011985,-0.00011489,-9.1189e-05,-0.00010727,-0.00120612,-1.48742,0.000770813,0.0261923,1882,869,24.9364,-2.75846
665,155,24.8582,2.82379,-0.0014257,-0.000220448,-0.000308598,-0.000146028,-0.00150012,-1.33416,0.000955129,0.0322547,1889,869,24.8582,-2.82381
672,155,24.8292,2.95081,-0.00163527,-0.000370134,-0.000473074,-0.000212802,-0.0017926,-1.24973,0.00113082,0.0432784,1896,869,24.8292,-2.95079
679,155,24.824,3.06952,0,0,0,0,0,0,0,-1,1903,869,24.8239,-3.06949
686,155,20.9513,2.62024,0,0,0,0,0,0,0,-1,1910,869,20.9513,-2.62023
693,155,21.0496,2.76862,-0.0016602,-0.000349488,-0.000880589,9.28486e-05,-0.00210254,-1.1053,0.00143364,0.0243733,1917,869,21.0496,-2.76862
700,155,21.1478,2.9801,-0.00137129,-0.000255451,-0.000996525,0.000328704,-0.00195545,-1.04059,0.00142589,0.0182615,1924,869,21.1478,-2.98013
707,155,21.2172,3.24628,-0.000991176,-0.000290155,-0.000912026,0.000336396,-0.00161773,-0.968857,0.00120635,0.0132996,1931,869,21.2172,-3.24626
714,155,21.1738,3.4046,-0.000505486,-0.000121919,-0.000907894,0.000614227,-0.00124163,-0.889488,0.0010917,0.0228035,1938,869,21.1738,-3.40463
721,155,21.0436,3.65466,0.000567233,-8.51315e-05,-0.00124329,0.00152642,-0.00104431,-0.657112,0.00149289,0.0248278,1945,869,21.0435,-3.65466
728,155,21.0459,3.87677,0.00241532,-0.000213305,-0.00180971,0.00333763,-0.00113562,-0.471334,0.00268491,0.0192001,1952,869,21.0459,-3.87677
735,155,21.0635,4.10327,0.00403439,9.5277e-05,-0.00251591,0.00525998,-0.00113032,-0.453304,0.00393788,0.016256,1959,869,21.0635,-4.10329
742,155,21.0829,4.34186,0.00559046,0.000804311,-0.00338822,0.00734549,-0.000950726,-0.47793,0.00524272,0.0179137,1966,869,21.0829,-4.34184
749,155,21.0687,4.54706,0.00770552,0.00127688,-0.00467962,0.0101684,-0.001186,-0.484466,0.00720688,0.0142542,1973,869,21.0687,-4.54705
756,155,21.0795,4.73785,0.00978743,0.00201451,-0.00632575,0.0133252,-0.00152329,-0.509933,0.00943235,0.0251005,1980,869,21.0794,-4.73783
763,155,21.3284,5.09216,0.0117146,0.00316063,-0.00833323,0.0168043,-0.00192911,-0.548305,0.0118981,0.0447236,1987,869,21.3284,-5.09218
770,155,21.842,5.29681,0.0129348,0.00496822,-0.0107301,0.0203971,-0.00249408,-0.607669,0.0145011,0.0456637,1994,869,21.8421,-5.29678
777,155,21.9983,5.14221,0.0125301,0.00777005,-0.0134575,0.0238164,-0.00351624,-0.697875,0.0171701,0.0452279,2001,869,21.9983,-5.14219
784,155,22.1604,5.30054,0.00922846,0.0119791,-0.0164908,0.0271518,-0.00594424,-0.827001,0.0203737,0.0469775,2008,869,22.1604,-5.30052
791,155,0,0,0,0,0,0,0,0,0,-1,2015,869,0,0
798,155,0,0,0,0,0,0,0,0,0,-1,2022,869,0,0
805,155,0,0,0,0,0,0,0,0,0,-1,2029,869,0,0
812,155,0,0,0,0,0,0,0,0,0,-1,2036,869,0,0
-700,148,0,0,0,0,0,0,0,0,0,-1,524,876,0,0
-693,148,0,0,0,0,0,0,0,0,0,-1,531,876,0,0
-686,148,0,0,0,0,0,0,0,0,0,-1,538,876,0,0
-679,148,0,0,0,0,0,0,0,0,0,-1,545,876,0,0
-672,148,-15.3517,3.31226,-0.0342796,-0.0253803,-0.0219329,-0.0074502,-0.0522097,-0.885478,0.032608,0.0451629,552,876,-15.3517,-3.31226
-665,148,-15.7644,2.84387,-0.0248749,-0.0139142,-0.0168905,-0.00163724,-0.0371519,-0.942271,0.0242406,0.0452878,559,876,-15.7644,-2.84389
-658,148,-15.7471,2.4126,-0.0187861,-0.00526238,-0.012842,0.00248923,-0.0265377,-1.02773,0.0185772,0.0452179,566,876,-15.7471,-2.41263
-651,148,-15.6578,1.8056,-0.0145993,0.00103761,-0.00952199,0.00553973,-0.0191014,-1.12913,0.0149275,0.0408139,573,876,-15.6578,-1.80559
-644,148,-15.537,0.96991,-0.011637,0.00537297,-0.00680087,0.00775773,-0.0140218,-1.23354,0.0127466,0.042974,580,876,-15.537,-0.969885
-637,148,-14.0689,2.74786,0,0,0,0,0,0,0,-1,587,876,-14.0689,-2.74787
-630,148,-14.1857,2.54565,-0.00804837,0.0092453,-0.00295524,0.00973636,-0.00853944,-1.40613,0.0105591,0.0445146,594,876,-14.1857,-2.54567
-623,148,-14.2796,2.2912,-0.00668272,0.00928652,-0.0017965,0.00948613,-0.00688233,-1.46014,0.0094901,0.0225096,601,876,-14.2796,-2.29119
-616,148,-14.3709,2.07312,-0.00501812,0.00833653,-0.000616595,0.00836494,-0.00504653,-1.52476,0.00782172,0.0126949,608,876,-14.3709,-2.07314
-609,148,-14.4068,1.86688,-0.00431414,0.00799807,0.000145872,0.0079998,-0.00431587,1.55895,0.00721571,0.0120982,615,876,-14.4068,-1.8669
-602,148,-14.4296,1.63422,-0.00406265,0.00690312,0.000412477,0.00691862,-0.00407814,1.53325,0.00641919,0.0130131,622,876,-14.4295,-1.63422
-595,148,-14.4419,1.43591,-0.00373378,0.00507577,0.000490889,0.00510304,-0.00376104,1.5153,0.0051372,0.0111228,629,876,-14.4419,-1.4359
-588,148,-14.444,1.21802,-0.00324022,0.00232892,0.000352046,0.00235109,-0.00326239,1.50792,0.00325515,0.0154885,636,876,-14.4439,-1.218
-581,148,-14.5205,1.05328,-0.00261751,0.00127134,0.000200946,0.00128169,-0.00262786,1.51931,0.00230135,0.0247348,643,876,-14.5205,-1.05329
-574,148,-14.361,0.895874,-0.00224339,0.000939701,0.00022819,0.000955976,-0.00225967,1.49959,0.00190674,0.0284423,650,876,-14.361,-0.895852
-567,148,-14.4624,0.636963,-0.00216659,0.000795987,0.00036051,0.000839225,-0.00220982,1.45143,0.00181869,0.0346191,657,876,-14.4624,-0.636978
-560,148,-14.4587,0.322144,-0.00205273,0.000746977,0.000580172,0.000862442,-0.00216819,1.37434,0.00180306,0.0325453,664,876,-14.4587,-0.322125
-553,148,-15.4317,0.712463,0,0,0,0,0,0,0,-1,671,876,-15.4317,-0.712452
-546,148,-16.5724,1.1358,0,0,0,0,0,0,0,-1,678,876,-16.5724,-1.13578
-539,148,-17.1971,0.860413,-0.00184574,0.00137366,0.000857908,0.001588,-0.00206008,1.32596,0.00211209,0.0368079,685,876,-17.1971,-0.860416
-532,148,-17.2432,0.793091,-0.00164434,0.00153531,0.000998207,0.00182271,-0.00193174,1.29047,0.00216793,0.0355156,692,876,-17.2432,-0.793094
-525,148,-17.1989,0.962463,-0.00144413,0.00158892,0.00111807,0.00195652,-0.00181174,1.25315,0.00217614,0.0362661,699,876,-17.1988,-0.962493
-518,148,-17.282,1.11096,-0.000952538,0.00141301,0.0011221,0.00186059,-0.00140012,1.19126,0.00188882,0.0411018,706,876,-17.282,-1.11093
-511,148,-17.311,1.07166,-0.000122337,0.000845423,0.000803594,0.00129958,-0.000576489,1.0564,0.00110964,0.0409865,713,876,-17.311,-1.07163
-504,148,-17.1476,0.752686,0.000821042,-0.000280371,-3.22874e-05,0.000821988,-0.000281316,-0.029281,0.000661997,0.0413798,720,876,-17.1476,-0.752699
-497,148,0,0,0,0,0,0,0,0,0,-1,727,876,0,0
-490,148,0,0,0,0,0,0,0,0,0,-1,734,876,0,0
-483,148,0,0,0,0,0,0,0,0,0,-1,741,876,0,0
-476,148,0,0,0,0,0,0,0,0,0,-1,748,876,0,0
-469,148,0,0,0,0,0,0,0,0,0,-1,755,876,0,0
-462,148,0,0,0,0,0,0,0,0,0,-1,762,876,0,0
-455,148,0,0,0,0,0,0,0,0,0,-1,769,876,0,0
-448,148,0,0,0,0,0,0,0,0,0,-1,776,876,0,0
-441,148,0,0,0,0,0,0,0,0,0,-1,783,876,0,0
-434,148,0,0,0,0,0,0,0,0,0,-1,790,876,0,0
-427,148,0,0,0,0,0,0,0,0,0,-1,797,876,0,0
-420,148,0,0,0,0,0,0,0,0,0,-1,804,876,0,0
-413,148,0,0,0,0,0,0,0,0,0,-1,811,876,0,0
-406,148,0,0,0,0,0,0,0,0,0,-1,818,876,0,0
-399,148,0,0,0,0,0,0,0,0,0,-1,825,876,0,0
-392,148,0,0,0,0,0,0,0,0,0,-1,832,876,0,0
-385,148,0,0,0,0,0,0,0,0,0,-1,839,876,0,0
-378,148,0,0,0,0,0,0,0,0,0,-1,846,876,0,0
-371,148,0,0,0,0,0,0,0,0,0,-1,853,876,0,0
-364,148,0,0,0,0,0,0,0,0,0,-1,860,876,0,0
-357,148,0,0,0,0,0,0,0,0,0,-1,867,876,0,0
-350,148,0,0,0,0,0,0,0,0,0,-1,874,876,0,0
-343,148,0,0,0,0,0,0,0,0,0,-1,881,876,0,0
-336,148,0,0,0,0,0,0,0,0,0,-1,888,876,0,0
-329,148,0,0,0,0,0,0,0,0,0,-1,895,876,0,0
-322,148,0,0,0,0,0,0,0,0,0,-1,902,876,0,0
-315,148,0,0,0,0,0,0,0,0,0,-1,909,876,0,0
-308,148,0,0,0,0,0,0,0,0,0,-1,916,876,0,0
-301,148,0,0,0,0,0,0,0,0,0,-1,923,876,0,0
-294,148,0,0,0,0,0,0,0,0,0,-1,930,876,0,0
-287,148,0,0,0,0,0,0,0,0,0,-1,937,876,0,0
-280,148,0,0,0,0,0,0,0,0,0,-1,944,876,0,0
-273,148,0,0,0,0,0,0,0,0,0,-1,951,876,0,0
-266,148,0,0,0,0,0,0,0,0,0,-1,958,876,0,0
-259,148,0,0,0,0,0,0,0,0,0,-1,965,876,0,0
-252,148,0,0,0,0,0,0,0,0,0,-1,972,876,0,0
-245,148,0,0,0,0,0,0,0,0,0,-1,979,876,0,0
-238,148,0,0,0,0,0,0,0,0,0,-1,986,876,0,0
-231,148,0,0,0,0,0,0,0,0,0,-1,993,876,0,0
-224,148,0,0,0,0,0,0,0,0,0,-1,1000,876,0,0
-217,148,0,0,0,0,0,0,0,0,0,-1,1007,876,0,0
-210,148,0,0,0,0,0,0,0,0,0,-1,1014,876,0,0
-203,148,0,0,0,0,0,0,0,0,0,-1,1021,876,0,0
-196,148,0,0,0,0,0,0,0,0,0,-1,1028,876,0,0
-189,148,0,0,0,0,0,0,0,0,0,-1,1035,876,0,0
-182,148,0,0,0,0,0,0,0,0,0,-1,1042,876,0,0
-175,148,0,0,0,0,0,0,0,0,0,-1,1049,876,0,0
-168,148,0,0,0,0,0,0,0,0,0,-1,1056,876,0,0
-161,148,0,0,0,0,0,0,0,0,0,-1,1063,876,0,0
-154,148,0,0,0,0,0,0,0,0,0,-1,1070,876,0,0
-147,148,0,0,0,0,0,0,0,0,0,-1,1077,876,0,0
-140,148,0,0,0,0,0,0,0,0,0,-1,1084,876,0,0
-133,148,0,0,0,0,0,0,0,0,0,-1,1091,876,0,0
-126,148,0,0,0,0,0,0,0,0,0,-1,1098,876,0,0
-119,148,0,0,0,0,0,0,0,0,0,-1,1105,876,0,0
-112,148,0,0,0,0,0,0,0,0,0,-1,1112,876,0,0
-105,148,0,0,0,0,0,0,0,0,0,-1,1119,876,0,0
-98,148,0,0,0,0,0,0,0,0,0,-1,1126,876,0,0
-91,148,0,0,0,0,0,0,0,0,0,-1,1133,876,0,0
-84,148,0,0,0,0,0,0,0,0,0,-1,1140,876,0,0
-77,148,0,0,0,0,0,0,0,0,0,-1,1147,876,0,0
-70,148,0,0,0,0,0,0,0,0,0,-1,1154,876,0,0
-63,148,0,0,0,0,0,0,0,0,0,-1,1161,876,0,0
-56,148,0,0,0,0,0,0,0,0,0,-1,1168,876,0,0
-49,148,0,0,0,0,0,0,0,0,0,-1,1175,876,0,0
-42,148,0,0,0,0,0,0,0,0,0,-1,1182,876,0,0
-35,148,0,0,0,0,0,0,0,0,0,-1,1189,876,0,0
-28,148,0,0,0,0,0,0,0,0,0,-1,1196,876,0,0
-21,148,0,0,0,0,0,0,0,0,0,-1,1203,876,0,0
-14,148,0,0,0,0,0,0,0,0,0,-1,1210,876,0,0
-7,148,0,0,0,0,0,0,0,0,0,-1,1217,876,0,0
0,148,0,0,0,0,0,0,0,0,0,-1,1224,876,0,0
7,148,0,0,0,0,0,0,0,0,0,-1,1231,876,0,0
14,148,0,0,0,0,0,0,0,0,0,-1,1238,876,0,0
21,148,0,0,0,0,0,0,0,0,0,-1,1245,876,0,0
28,148,0,0,0,0,0,0,0,0,0,-1,1252,876,0,0
35,148,0,0,0,0,0,0,0,0,0,-1,1259,876,0,0
42,148,0,0,0,0,0,0,0,0,0,-1,1266,876,0,0
49,148,0,0,0,0,0,0,0,0,0,-1,1273,876,0,0
56,148,0,0,0,0,0,0,0,0,0,-1,1280,876,0,0
63,148,0,0,0,0,0,0,0,0,0,-1,1287,876,0,0
70,148,0,0,0,0,0,0,0,0,0,-1,1294,876,0,0
77,148,0,0,0,0,0,0,0,0,0,-1,1301,876,0,0
84,148,0,0,0,0,0,0,0,0,0,-1,1308,876,0,0
91,148,0,0,0,0,0,0,0,0,0,-1,1315,876,0,0
98,148,0,0,0,0,0,0,0,0,0,-1,1322,876,0,0
105,148,0,0,0,0,0,0,0,0,0,-1,1329,876,0,0
112,148,0,0,0,0,0,0,0,0,0,-1,1336,876,0,0
119,148,0,0,0,0,0,0,0,0,0,-1,1343,876,0,0
126,148,0,0,0,0,0,0,0,0,0,-1,1350,876,0,0
133,148,0,0,0,0,0,0,0,0,0,-1,1357,876,0,0
140,148,0,0,0,0,0,0,0,0,0,-1,1364,876,0,0
147,148,0,0,0,0,0,0,0,0,0,-1,1371,876,0,0
154,148,0,0,0,0,0,0,0,0,0,-1,1378,876,0,0
161,148,0,0,0,0,0,0,0,0,0,-1,1385,876,0,0
168,148,0,0,0,0,0,0,0,0,0,-1,1392,876,0,0
175,148,0,0,0,0,0,0,0,0,0,-1,1399,876,0,0
182,148,0,0,0,0,0,0,0,0,0,-1,1406,876,0,0
189,148,0,0,0,0,0,0,0,0,0,-1,1413,876,0,0
196,148,0,0,0,0,0,0,0,0,0,-1,1420,876,0,0
203,148,0,0,0,0,0,0,0,0,0,-1,1427,876,0,0
210,148,0,0,0,0,0,0,0,0,0,-1,1434,876,0,0
217,148,0,0,0,0,0,0,0,0,0,-1,1441,876,0,0
224,148,0,0,0,0,0,0,0,0,0,-1,1448,876,0,0
231,148,0,0,0,0,0,0,0,0,0,-1,1455,876,0,0
238,148,0,0,0,0,0,0,0,0,0,-1,1462,876,0,0
245,148,0,0,0,0,0,0,0,0,0,-1,1469,876,0,0
252,148,0,0,0,0,0,0,0,0,0,-1,1476,876,0,0
259,148,0,0,0,0,0,0,0,0,0,-1,1483,876,0,0
266,148,0,0,0,0,0,0,0,0,0,-1,1490,876,0,0
273,148,0,0,0,0,0,0,0,0,0,-1,1497,876,0,0
280,148,0,0,0,0,0,0,0,0,0,-1,1504,876,0,0
287,148,0,0,0,0,0,0,0,0,0,-1,1511,876,0,0
294,148,0,0,0,0,0,0,0,0,0,-1,1518,876,0,0
301,148,0,0,0,0,0,0,0,0,0,-1,1525,876,0,0
308,148,0,0,0,0,0,0,0,0,0,-1,1532,876,0,0
315,148,0,0,0,0,0,0,0,0,0,-1,1539,876,0,0
322,148,0,0,0,0,0,0,0,0,0,-1,1546,876,0,0
329,148,0,0,0,0,0,0,0,0,0,-1,1553,876,0,0
336,148,0,0,0,0,0,0,0,0,0,-1,1560,876,0,0
343,148,0,0,0,0,0,0,0,0,0,-1,1567,876,0,0
350,148,0,0,0,0,0,0,0,0,0,-1,1574,876,0,0
357,148,0,0,0,0,0,0,0,0,0,-1,1581,876,0,0
364,148,0,0,0,0,0,0,0,0,0,-1,1588,876,0,0
371,148,0,0,0,0,0,0,0,0,0,-1,1595,876,0,0
378,148,0,0,0,0,0,0,0,0,0,-1,1602,876,0,0
385,148,0,0,0,0,0,0,0,0,0,-1,1609,876,0,0
392,148,0,0,0,0,0,0,0,0,0,-1,1616,876,0,0
399,148,0,0,0,0,0,0,0,0,0,-1,1623,876,0,0
406,148,0,0,0,0,0,0,0,0,0,-1,1630,876,0,0
413,148,0,0,0,0,0,0,0,0,0,-1,1637,876,0,0
420,148,0,0,0,0,0,0,0,0,0,-1,1644,876,0,0
427,148,0,0,0,0,0,0,0,0,0,-1,1651,876,0,0
434,148,0,0,0,0,0,0,0,0,0,-1,1658,876,0,0
441,148,0,0,0,0,0,0,0,0,0,-1,1665,876,0,0
448,148,0,0,0,0,0,0,0,0,0,-1,1672,876,0,0
455,148,0,0,0,0,0,0,0,0,0,-1,1679,876,0,0
462,148,0,0,0,0,0,0,0,0,0,-1,1686,876,0,0
469,148,0,0,0,0,0,0,0,0,0,-1,1693,876,0,0
476,148,0,0,0,0,0,0,0,0,0,-1,1700,876,0,0
483,148,0,0,0,0,0,0,0,0,0,-1,1707,876,0,0
490,148,0,0,0,0,0,0,0,0,0,-1,1714,876,0,0
497,148,0,0,0,0,0,0,0,0,0,-1,1721,876,0,0
504,148,0,0,0,0,0,0,0,0,0,-1,1728,876,0,0
511,148,0,0,0,0,0,0,0,0,0,-1,1735,876,0,0
518,148,0,0,0,0,0,0,0,0,0,-1,1742,876,0,0
525,148,0,0,0,0,0,0,0,0,0,-1,1749,876,0,0
532,148,0,0,0,0,0,0,0,0,0,-1,1756,876,0,0
539,148,0,0,0,0,0,0,0,0,0,-1,1763,876,0,0
546,148,0,0,0,0,0,0,0,0,0,-1,1770,876,0,0
553,148,0,0,0,0,0,0,0,0,0,-1,1777,876,0,0
560,148,0,0,0,0,0,0,0,0,0,-1,1784,876,0,0
567,148,0,0,0,0,0,0,0,0,0,-1,1791,876,0,0
574,148,0,0,0,0,0,0,0,0,0,-1,1798,876,0,0
581,148,0,0,0,0,0,0,0,0,0,-1,1805,876,0,0
588,148,0,0,0,0,0,0,0,0,0,-1,1812,876,0,0
595,148,0,0,0,0,0,0,0,0,0,-1,1819,876,0,0
602,148,0,0,0,0,0,0,0,0,0,-1,1826,876,0,0
609,148,0,0,0,0,0,0,0,0,0,-1,1833,876,0,0
616,148,0,0,0,0,0,0,0,0,0,-1,1840,876,0,0
623,148,24.9872,2.74615,0.00593169,-0.000819911,0.00424882,0.00798254,-0.00287075,0.449701,0.00649369,0.0447109,1847,876,24.9872,-2.74618
630,148,24.9948,2.66443,0.00387816,-0.00086535,0.0031315,0.00543469,-0.00242189,0.461292,0.00464584,0.0427772,1854,876,24.9947,-2.66446
637,148,25.085,2.64935,0.00224404,-0.000699539,0.00207429,0.00331564,-0.00177114,0.476848,0.00298164,0.0372321,1861,876,25.0849,-2.64935
644,148,24.9977,2.711,0.000926544,-0.000661965,0.00118429,0.00155825,-0.00129368,0.490017,0.00164892,0.0380858,1868,876,24.9976,-2.71102
651,148,24.9293,2.71796,-9.31229e-05,-0.000656527,0.000491319,0.000191523,-0.000941173,0.525098,0.000700078,0.0382663,1875,876,24.9293,-2.71793
658,148,24.9286,2.73511,-0.000731085,-0.000673442,-2.89488e-05,-0.000661414,-0.000743113,-1.177,0.000470546,0.0322922,1882,876,24.9286,-2.73509
665,148,24.8314,2.84894,-0.00113703,-0.000704623,-0.000325682,-0.000529913,-0.00131174,-1.07842,0.000761973,0.0250465,1889,876,24.8315,-2.84896
672,148,24.8625,2.80603,-0.00147381,-0.00075964,-0.000534994,-0.000473507,-0.00175994,-1.07967,0.00105161,0.0286916,1896,876,24.8626,-2.80605
679,148,24.8691,2.83728,0,0,0,0,0,0,0,-1,1903,876,24.8691,-2.83731
686,148,21.0192,2.6272,0,0,0,0,0,0,0,-1,1910,876,21.0191,-2.62719
693,148,21.1613,2.76312,-0.00185658,-0.000534455,-0.00101594,1.65623e-05,-0.0024076,-1.07383,0.00161061,0.0473523,1917,876,21.1613,-2.76311
700,148,21.3832,3.02075,-0.00166139,-0.000355365,-0.00111019,0.000279626,-0.00229638,-1.05125,0.00163213,0.0193125,1924,876,21.3831,-3.02073
707,148,21.4952,3.32849,-0.00136026,-0.000320949,-0.00100307,0.000289083,-0.00197029,-1.0244,0.00141973,0.0161665,1931,876,21.4953,-3.32851
714,148,21.4453,3.46039,-0.000761801,-7.34276e-05,-0.000955632,0.000598111,-0.00143334,-0.95825,0.00120545,0.0154233,1938,876,21.4453,-3.46041
721,148,21.3038,3.62708,0.000418493,6.49134e-05,-0.00121816,0.00147262,-0.000989215,-0.713337,0.00143045,0.0168672,1945,876,21.3038,-3.62705
728,148,21.286,3.85394,0.00245925,4.7494e-05,-0.00161563,0.00326941,-0.000762666,-0.464807,0.00247334,0.019008,1952,876,21.286,-3.85395
735,148,21.3035,4.09436,0.00421037,0.000746101,-0.00203411,0.00514992,-0.000193449,-0.432703,0.00349955,0.0182294,1959,876,21.3034,-4.09433
742,148,21.3014,4.35693,0.00571512,0.00203044,-0.00259475,0.00705507,0.000690495,-0.476687,0.00449094,0.0204347,1966,876,21.3014,-4.35696
749,148,21.3076,4.54633,0.00783739,0.00315874,-0.00346455,0.00967844,0.00131769,-0.488449,0.006061,0.0162296,1973,876,21.3076,-4.54632
756,148,21.3057,4.72742,0.00971094,0.00479631,-0.00450632,0.0123864,0.00212085,-0.535783,0.00764929,0.0201327,1980,876,21.3056,-4.72742
763,148,21.4609,4.97882,0.0111769,0.00716529,-0.00566842,0.0151839,0.00315826,-0.615346,0.00925134,0.0429837,1987,876,21.4609,-4.97879
770,148,21.5957,5.24713,0,0,0,0,0,0,0,-1,1994,876,21.5957,-5.24712
777,148,22.1478,5.12646,0,0,0,0,0,0,0,-1,2001,876,22.1478,-5.12645
784,148,22.7959,5.38458,0,0,0,0,0,0,0,-1,2008,876,22.7959,-5.38459
791,148,23.4503,5.60577,0,0,0,0,0,0,0,-1,2015,876,23.4503,-5.60579
798,148,0,0,0,0,0,0,0,0,0,-1,2022,876,0,0
805,148,0,0,0,0,0,0,0,0,0,-1,2029,876,0,0
812,148,0,0,0,0,0,0,0,0,0,-1,2036,876,0,0
-700,141,0,0,0,0,0,0,0,0,0,-1,524,883,0,0
-693,141,0,0,0,0,0,0,0,0,0,-1,531,883,0,0
-686,141,0,0,0,0,0,0,0,0,0,-1,538,883,0,0
-679,141,0,0,0,0,0,0,0,0,0,-1,545,883,0,0
-672,141,-15.2519,3.26239,-0.0322821,-0.0166512,-0.0169623,-0.00579041,-0.0431429,-1.00128,0.0270393,0.0477927,552,883,-15.2519,-3.26241
-665,141,-16.1484,2.80878,-0.021951,-0.0100982,-0.0115098,-0.00307861,-0.0289705,-1.02315,0.0183737,0.0456686,559,883,-16.1484,-2.80875
-658,141,-15.9249,2.74451,-0.0152716,-0.00454529,-0.00741853,-0.000754314,-0.0190626,-1.09838,0.0124645,0.0481953,566,883,-15.9249,-2.74453
-651,141,-16.1887,2.46484,0,0,0,0,0,0,0,-1,573,883,-16.1887,-2.46486
-644,141,-15.8657,-0.0441895,0,0,0,0,0,0,0,-1,580,883,-15.8657,0.0441908
-637,141,-14.3367,1.8775,0,0,0,0,0,0,0,-1,587,883,-14.3367,-1.8775
-630,141,-14.4087,2.05212,-0.0047286,0.00620072,0.000828626,0.00626319,-0.00479107,1.49555,0.00640102,0.0407729,594,883,-14.4087,-2.05213
-623,141,-14.45,2.20001,-0.00379241,0.00645377,0.00138808,0.00663849,-0.00397713,1.4385,0.0061928,0.0218932,601,883,-14.45,-2.20001
-616,141,-14.5897,2.0321,-0.00267507,0.00578964,0.00197994,0.00622986,-0.0031153,1.35201,0.00549441,0.0116044,608,883,-14.5897,-2.03212
-609,141,-14.6298,1.84064,-0.00263891,0.00584401,0.00211468,0.00634195,-0.00313685,1.33954,0.00557589,0.0127445,615,883,-14.6298,-1.84066
-602,141,-14.6404,1.6297,-0.003084,0.00516489,0.0017648,0.0055266,-0.00344571,1.36864,0.0052264,0.0125913,622,883,-14.6404,-1.62972
-595,141,-14.6429,1.43457,-0.00348194,0.00394198,0.00128961,0.00415962,-0.00369958,1.40361,0.0045401,0.0109633,629,883,-14.6429,-1.4346
-588,141,-14.7654,1.25647,-0.00348466,0.00172699,0.000753449,0.00183373,-0.0035914,1.43006,0.00318653,0.0173065,636,883,-14.7654,-1.25645
-581,141,-14.7499,1.0896,-0.00319388,0.00089229,0.000387418,0.000928698,-0.00323029,1.4771,0.00252077,0.0239613,643,883,-14.7499,-1.08962
-574,141,-14.5267,0.968994,-0.00302281,0.000599184,0.000290848,0.00062239,-0.00304601,1.49118,0.0022668,0.0287442,650,883,-14.5268,-0.968984
-567,141,-14.5784,0.792542,-0.00301803,0.000436799,0.000380394,0.000478186,-0.00305941,1.46242,0.00221627,0.031908,657,883,-14.5784,-0.792538
-560,141,-14.5996,0.645935,0,0,0,0,0,0,0,-1,664,883,-14.5996,-0.645924
-553,141,-15.9175,1.06445,0,0,0,0,0,0,0,-1,671,883,-15.9175,-1.06444
-546,141,-17.1678,0.980042,-0.00279925,0.000630154,0.000766473,0.000793665,-0.00296276,1.36062,0.00228612,0.0384922,678,883,-17.1678,-0.980069
-539,141,-17.165,0.888916,-0.00271076,0.000768465,0.000965274,0.00101833,-0.00296062,1.31751,0.00238673,0.0310697,685,883,-17.165,-0.888932
-532,141,-17.2157,0.899475,-0.00253855,0.000851573,0.00120192,0.00123445,-0.00292143,1.2624,0.00246441,0.0283158,692,883,-17.2157,-0.899487
-525,141,-17.1986,1.04749,-0.00235638,0.000808792,0.00141485,0.00134903,-0.00289662,1.20605,0.00250492,0.0355346,699,883,-17.1986,-1.04749
-518,141,-17.2281,1.20135,-0.0019196,0.000531342,0.00150289,0.00124506,-0.00263332,1.12743,0.0022865,0.0399769,706,883,-17.2282,-1.20136
-511,141,-17.2823,1.27142,-0.00148229,-6.38033e-05,0.00123087,0.000647537,-0.00219363,1.04677,0.0017194,0.0373165,713,883,-17.2823,-1.27141
-504,141,-17.2428,0.966187,-0.00122457,-0.0010724,0.000444136,-0.000697879,-0.00159909,0.870235,0.00092572,0.0392381,720,883,-17.2428,-0.966187
-497,141,0,0,0,0,0,0,0,0,0,-1,727,883,0,0
-490,141,0,0,0,0,0,0,0,0,0,-1,734,883,0,0
-483,141,0,0,0,0,0,0,0,0,0,-1,741,883,0,0
-476,141,0,0,0,0,0,0,0,0,0,-1,748,883,0,0
-469,141,0,0,0,0,0,0,0,0,0,-1,755,883,0,0
-462,141,0,0,0,0,0,0,0,0,0,-1,762,883,0,0
-455,141,0,0,0,0,0,0,0,0,0,-1,769,883,0,0
-448,141,0,0,0,0,0,0,0,0,0,-1,776,883,0,0
-441,141,0,0,0,0,0,0,0,0,0,-1,783,883,0,0
-434,141,0,0,0,0,0,0,0,0,0,-1,790,883,0,0
-427,141,0,0,0,0,0,0,0,0,0,-1,797,883,0,0
-420,141,0,0,0,0,0,0,0,0,0,-1,804,883,0,0
-413,141,0,0,0,0,0,0,0,0,0,-1,811,883,0,0
-406,141,0,0,0,0,0,0,0,0,0,-1,818,883,0,0
-399,141,0,0,0,0,0,0,0,0,0,-1,825,883,0,0
-392,141,0,0,0,0,0,0,0,0,0,-1,832,883,0,0
-385,141,0,0,0,0,0,0,0,0,0,-1,839,883,0,0
-378,141,0,0,0,0,0,0,0,0,0,-1,846,883,0,0
-371,141,0,0,0,0,0,0,0,0,0,-1,853,883,0,0
-364,141,0,0,0,0,0,0,0,0,0,-1,860,883,0,0
-357,141,0,0,0,0,0,0,0,0,0,-1,867,883,0,0
-350,141,0,0,0,0,0,0,0,0,0,-1,874,883,0,0
-343,141,0,0,0,0,0,0,0,0,0,-1,881,883,0,0
-336,141,0,0,0,0,0,0,0,0,0,-1,888,883,0,0
-329,141,0,0,0,0,0,0,0,0,0,-1,895,883,0,0
-322,141,0,0,0,0,0,0,0,0,0,-1,902,883,0,0
-315,141,0,0,0,0,0,0,0,0,0,-1,909,883,0,0
-308,141,0,0,0,0,0,0,0,0,0,-1,916,883,0,0
-301,141,0,0,0,0,0,0,0,0,0,-1,923,883,0,0
-294,141,0,0,0,0,0,0,0,0,0,-1,930,883,0,0
-287,141,0,0,0,0,0,0,0,0,0,-1,937,883,0,0
-280,141,0,0,0,0,0,0,0,0,0,-1,944,883,0,0
-273,141,0,0,0,0,0,0,0,0,0,-1,951,883,0,0
-266,141,0,0,0,0,0,0,0,0,0,-1,958,883,0,0
-259,141,0,0,0,0,0,0,0,0,0,-1,965,883,0,0
-252,141,0,0,0,0,0,0,0,0,0,-1,972,883,0,0
-245,141,0,0,0,0,0,0,0,0,0,-1,979,883,0,0
-238,141,0,0,0,0,0,0,0,0,0,-1,986,883,0,0
-231,141,0,0,0,0,0,0,0,0,0,-1,993,883,0,0
-224,141,0,0,0,0,0,0,0,0,0,-1,1000,883,0,0
-217,141,0,0,0,0,0,0,0,0,0,-1,1007,883,0,0
-210,141,0,0,0,0,0,0,0,0,0,-1,1014,883,0,0
-203,141,0,0,0,0,0,0,0,0,0,-1,1021,883,0,0
-196,141,0,0,0,0,0,0,0,0,0,-1,1028,883,0,0
-189,141,0,0,0,0,0,0,0,0,0,-1,1035,883,0,0
-182,141,0,0,0,0,0,0,0,0,0,-1,1042,883,0,0
-175,141,0,0,0,0,0,0,0,0,0,-1,1049,883,0,0
-168,141,0,0,0,0,0,0,0,0,0,-1,1056,883,0,0
-161,141,0,0,0,0,0,0,0,0,0,-1,1063,883,0,0
-154,141,0,0,0,0,0,0,0,0,0,-1,1070,883,0,0
-147,141,0,0,0,0,0,0,0,0,0,-1,1077,883,0,0
-140,141,0,0,0,0,0,0,0,0,0,-1,1084,883,0,0
-133,141,0,0,0,0,0,0,0,0,0,-1,1091,883,0,0
-126,141,0,0,0,0,0,0,0,0,0,-1,1098,883,0,0
-119,141,0,0,0,0,0,0,0,0,0,-1,1105,883,0,0
-112,141,0,0,0,0,0,0,0,0,0,-1,1112,883,0,0
-105,141,0,0,0,0,0,0,0,0,0,-1,1119,883,0,0
-98,141,0,0,0,0,0,0,0,0,0,-1,1126,883,0,0
-91,141,0,0,0,0,0,0,0,0,0,-1,1133,883,0,0
-84,141,0,0,0,0,0,0,0,0,0,-1,1140,883,0,0
-77,141,0,0,0,0,0,0,0,0,0,-1,1147,883,0,0
-70,141,0,0,0,0,0,0,0,0,0,-1,1154,883,0,0
-63,141,0,0,0,0,0,0,0,0,0,-1,1161,883,0,0
-56,141,0,0,0,0,0,0,0,0,0,-1,1168,883,0,0
-49,141,0,0,0,0,0,0,0,0,0,-1,1175,883,0,0
-42,141,0,0,0,0,0,0,0,0,0,-1,1182,883,0,0
-35,141,0,0,0,0,0,0,0,0,0,-1,1189,883,0,0
-28,141,0,0,0,0,0,0,0,0,0,-1,1196,883,0,0
-21,141,0,0,0,0,0,0,0,0,0,-1,1203,883,0,0
-14,141,0,0,0,0,0,0,0,0,0,-1,1210,883,0,0
-7,141,0,0,0,0,0,0,0,0,0,-1,1217,883,0,0
0,141,0,0,0,0,0,0,0,0,0,-1,1224,883,0,0
7,141,0,0,0,0,0,0,0,0,0,-1,1231,883,0,0
14,141,0,0,0,0,0,0,0,0,0,-1,1238,883,0,0
21,141,0,0,0,0,0,0,0,0,0,-1,1245,883,0,0
28,141,0,0,0,0,0,0,0,0,0,-1,1252,883,0,0
35,141,0,0,0,0,0,0,0,0,0,-1,1259,883,0,0
42,141,0,0,0,0,0,0,0,0,0,-1,1266,883,0,0
49,141,0,0,0,0,0,0,0,0,0,-1,1273,883,0,0
56,141,0,0,0,0,0,0,0,0,0,-1,1280,883,0,0
63,141,0,0,0,0,0,0,0,0,0,-1,1287,883,0,0
70,141,0,0,0,0,0,0,0,0,0,-1,1294,883,0,0
77,141,0,0,0,0,0,0,0,0,0,-1,1301,883,0,0
84,141,0,0,0,0,0,0,0,0,0,-1,1308,883,0,0
91,141,0,0,0,0,0,0,0,0,0,-1,1315,883,0,0
98,141,0,0,0,0,0,0,0,0,0,-1,1322,883,0,0
105,141,0,0,0,0,0,0,0,0,0,-1,1329,883,0,0
112,141,0,0,0,0,0,0,0,0,0,-1,1336,883,0,0
119,141,0,0,0,0,0,0,0,0,0,-1,1343,883,0,0
126,141,0,0,0,0,0,0,0,0,0,-1,1350,883,0,0
133,141,0,0,0,0,0,0,0,0,0,-1,1357,883,0,0
140,141,0,0,0,0,0,0,0,0,0,-1,1364,883,0,0
147,141,0,0,0,0,0,0,0,0,0,-1,1371,883,0,0
154,141,0,0,0,0,0,0,0,0,0,-1,1378,883,0,0
161,141,0,0,0,0,0,0,0,0,0,-1,1385,883,0,0
168,141,0,0,0,0,0,0,0,0,0,-1,1392,883,0,0
175,141,0,0,0,0,0,0,0,0,0,-1,1399,883,0,0
182,141,0,0,0,0,0,0,0,0,0,-1,1406,883,0,0
189,141,0,0,0,0,0,0,0,0,0,-1,1413,883,0,0
196,141,0,0,0,0,0,0,0,0,0,-1,1420,883,0,0
203,141,0,0,0,0,0,0,0,0,0,-1,1427,883,0,0
210,141,0,0,0,0,0,0,0,0,0,-1,1434,883,0,0
217,141,0,0,0,0,0,0,0,0,0,-1,1441,883,0,0
224,141,0,0,0,0,0,0,0,0,0,-1,1448,883,0,0
231,141,0,0,0,0,0,0,0,0,0,-1,1455,883,0,0
238,141,0,0,0,0,0,0,0,0,0,-1,1462,883,0,0
245,141,0,0,0,0,0,0,0,0,0,-1,1469,883,0,0
252,141,0,0,0,0,0,0,0,0,0,-1,1476,883,0,0
259,141,0,0,0,0,0,0,0,0,0,-1,1483,883,0,0
266,141,0,0,0,0,0,0,0,0,0,-1,1490,883,0,0
273,141,0,0,0,0,0,0,0,0,0,-1,1497,883,0,0
280,141,0,0,0,0,0,0,0,0,0,-1,1504,883,0,0
287,141,0,0,0,0,0,0,0,0,0,-1,1511,883,0,0
294,141,0,0,0,0,0,0,0,0,0,-1,1518,883,0,0
301,141,0,0,0,0,0,0,0,0,0,-1,1525,883,0,0
308,141,0,0,0,0,0,0,0,0,0,-1,1532,883,0,0
315,141,0,0,0,0,0,0,0,0,0,-1,1539,883,0,0
322,141,0,0,0,0,0,0,0,0,0,-1,1546,883,0,0
329,141,0,0,0,0,0,0,0,0,0,-1,1553,883,0,0
336,141,0,0,0,0,0,0,0,0,0,-1,1560,883,0,0
343,141,0,0,0,0,0,0,0,0,0,-1,1567,883,0,0
350,141,0,0,0,0,0,0,0,0,0,-1,1574,883,0,0
357,141,0,0,0,0,0,0,0,0,0,-1,1581,883,0,0
364,141,0,0,0,0,0,0,0,0,0,-1,1588,883,0,0
371,141,0,0,0,0,0,0,0,0,0,-1,1595,883,0,0
378,141,0,0,0,0,0,0,0,0,0,-1,1602,883,0,0
385,141,0,0,0,0,0,0,0,0,0,-1,1609,883,0,0
392,141,0,0,0,0,0,0,0,0,0,-1,1616,883,0,0
399,141,0,0,0,0,0,0,0,0,0,-1,1623,883,0,0
406,141,0,0,0,0,0,0,0,0,0,-1,1630,883,0,0
413,141,0,0,0,0,0,0,0,0,0,-1,1637,883,0,0
420,141,0,0,0,0,0,0,0,0,0,-1,1644,883,0,0
427,141,0,0,0,0,0,0,0,0,0,-1,1651,883,0,0
434,141,0,0,0,0,0,0,0,0,0,-1,1658,883,0,0
441,141,0,0,0,0,0,0,0,0,0,-1,1665,883,0,0
448,141,0,0,0,0,0,0,0,0,0,-1,1672,883,0,0
455,141,0,0,0,0,0,0,0,0,0,-1,1679,883,0,0
462,141,0,0,0,0,0,0,0,0,0,-1,1686,883,0,0
469,141,0,0,0,0,0,0,0,0,0,-1,1693,883,0,0
476,141,0,0,0,0,0,0,0,0,0,-1,1700,883,0,0
483,141,0,0,0,0,0,0,0,0,0,-1,1707,883,0,0
490,141,0,0,0,0,0,0,0,0,0,-1,1714,883,0,0
497,141,0,0,0,0,0,0,0,0,0,-1,1721,883,0,0
504,141,0,0,0,0,0,0,0,0,0,-1,1728,883,0,0
511,141,0,0,0,0,0,0,0,0,0,-1,1735,883,0,0
518,141,0,0,0,0,0,0,0,0,0,-1,1742,883,0,0
525,141,0,0,0,0,0,0,0,0,0,-1,1749,883,0,0
532,141,0,0,0,0,0,0,0,0,0,-1,1756,883,0,0
539,141,0,0,0,0,0,0,0,0,0,-1,1763,883,0,0
546,141,0,0,0,0,0,0,0,0,0,-1,1770,883,0,0
553,141,0,0,0,0,0,0,0,0,0,-1,1777,883,0,0
560,141,0,0,0,0,0,0,0,0,0,-1,1784,883,0,0
567,141,0,0,0,0,0,0,0,0,0,-1,1791,883,0,0
574,141,0,0,0,0,0,0,0,0,0,-1,1798,883,0,0
581,141,0,0,0,0,0,0,0,0,0,-1,1805,883,0,0
588,141,0,0,0,0,0,0,0,0,0,-1,1812,883,0,0
595,141,0,0,0,0,0,0,0,0,0,-1,1819,883,0,0
602,141,0,0,0,0,0,0,0,0,0,-1,1826,883,0,0
609,141,0,0,0,0,0,0,0,0,0,-1,1833,883,0,0
616,141,0,0,0,0,0,0,0,0,0,-1,1840,883,0,0
623,141,24.7816,2.54199,0.00739727,-0.00135637,0.00432111,0.00917094,-0.00313004,0.389496,0.00738192,0.0440141,1847,883,24.7816,-2.54196
630,141,24.8136,2.45245,0.00515577,-0.00135553,0.00322386,0.00648187,-0.00268164,0.390246,0.00544009,0.0450024,1854,883,24.8136,-2.45248
637,141,24.9036,2.55701,0.0033602,-0.00107022,0.00212965,0.00421787,-0.00192788,0.382854,0.00362943,0.0422006,1861,883,24.9035,-2.55703
644,141,24.9768,2.74536,0.00183208,-0.000923808,0.00117471,0.00226485,-0.00135657,0.352974,0.00211263,0.0409148,1868,883,24.9769,-2.74539
651,141,24.9705,2.80151,0.000481753,-0.000811564,0.000411596,0.000601632,-0.000931443,0.283412,0.000891922,0.039951,1875,883,24.9705,-2.80149
658,141,24.9384,2.7652,-0.000474976,-0.000759925,-0.000143484,-0.000415246,-0.000819655,-0.394464,0.000473242,0.037875,1882,883,24.9383,-2.76518
665,141,24.8525,2.78961,-0.00110023,-0.000745757,-0.000463849,-0.000426437,-0.00141955,-0.967888,0.000841064,0.0287324,1889,883,24.8525,-2.78964
672,141,24.8732,2.78992,-0.00156277,-0.000754534,-0.000668517,-0.000377483,-0.00193983,-1.05726,0.00118756,0.0200663,1896,883,24.8732,-2.78994
679,141,24.9103,2.75482,-0.00188927,-0.00074035,-0.000848469,-0.000290161,-0.00233945,-1.08298,0.00147248,0.0250486,1903,883,24.9102,-2.75479
686,141,24.9412,2.7049,0,0,0,0,0,0,0,-1,1910,883,24.9412,-2.70491
693,141,21.326,2.84473,0,0,0,0,0,0,0,-1,1917,883,21.326,-2.8447
700,141,21.5807,3.02209,-0.00215875,-0.000329347,-0.00112957,0.000209435,-0.00269753,-1.12574,0.00187208,0.0189948,1924,883,21.5806,-3.02211
707,141,21.6033,3.24988,-0.00186211,-0.000324014,-0.000981295,0.000153684,-0.00233981,-1.11776,0.00161354,0.0163492,1931,883,21.6032,-3.24986
714,141,21.5128,3.41431,-0.00114034,-6.87831e-05,-0.000936466,0.000474338,-0.00168346,-1.04524,0.00130938,0.0163988,1938,883,21.5128,-3.4143
721,141,21.5288,3.64325,0.000122622,0.000144177,-0.00116118,0.00129463,-0.00102784,-0.790039,0.00134382,0.0127082,1945,883,21.5288,-3.64327
728,141,21.5453,3.8446,0.00220205,0.000169367,-0.00142315,0.00293451,-0.000563096,-0.475319,0.00216855,0.0141807,1952,883,21.5452,-3.84458
735,141,21.5226,4.09961,0.003882,0.00118143,-0.00157398,0.00460552,0.000457903,-0.430873,0.00292967,0.0143554,1959,883,21.5225,-4.09962
742,141,21.5143,4.3233,0.00521175,0.00299219,-0.00184204,0.00625249,0.00195145,-0.51428,0.00369386,0.0156094,1966,883,21.5143,-4.3233
749,141,21.527,4.52258,0.0071775,0.00476254,-0.00234593,0.00860846,0.00333157,-0.547723,0.00501222,0.0136974,1973,883,21.527,-4.52256
756,141,21.5281,4.72937,0.0086994,0.00726209,-0.00287107,0.0109404,0.0050211,-0.662764,0.00632353,0.0197581,1980,883,21.5281,-4.72936
763,141,21.5345,4.94745,0.00958734,0.0107837,-0.00333322,0.013572,0.00679905,-0.874184,0.0078358,0.0416185,1987,883,21.5345,-4.94745
770,141,21.5334,5.18506,0,0,0,0,0,0,0,-1,1994,883,21.5334,-5.18508
777,141,22.6829,5.1817,0.0069218,0.0224442,-0.0038501,0.0233467,0.00601932,-1.34055,0.0139963,0.0444241,2001,883,22.6829,-5.18171
784,141,23.3922,5.43884,0,0,0,0,0,0,0,-1,2008,883,23.3922,-5.43882
791,141,24.0629,5.6673,0,0,0,0,0,0,0,-1,2015,883,24.0628,-5.66728
798,141,0,0,0,0,0,0,0,0,0,-1,2022,883,0,0
805,141,0,0,0,0,0,0,0,0,0,-1,2029,883,0,0
812,141,0,0,0,0,0,0,0,0,0,-1,2036,883,0,0
-700,134,0,0,0,0,0,0,0,0,0,-1,524,890,0,0
-693,134,0,0,0,0,0,0,0,0,0,-1,531,890,0,0
-686,134,0,0,0,0,0,0,0,0,0,-1,538,890,0,0
-679,134,0,0,0,0,0,0,0,0,0,-1,545,890,0,0
-672,134,-15.2236,3.3606,-0.0312752,-0.00858677,-0.0127274,-0.00288168,-0.0369803,-1.1494,0.0237513,0.0474625,552,890,-15.2236,-3.36061
-665,134,-15.5903,3.06543,-0.0202273,-0.00617442,-0.00716089,-0.00316845,-0.0232333,-1.17336,0.0145482,0.0458611,559,890,-15.5903,-3.06546
-658,134,-15.9096,2.76367,-0.0129435,-0.00334902,-0.0031107,-0.00242874,-0.0138637,-1.28316,0.0085487,0.0451857,566,890,-15.9096,-2.76366
-651,134,-16.1493,-0.190247,0,0,0,0,0,0,0,-1,573,890,-16.1493,0.190261
-644,134,-15.9208,0.516785,0,0,0,0,0,0,0,-1,580,890,-15.9209,-0.516769
-637,134,-14.6819,1.79016,0,0,0,0,0,0,0,-1,587,890,-14.6819,-1.79015
-630,134,-14.687,1.99072,-0.00192862,0.0037257,0.00380856,0.00564174,-0.00384466,1.10468,0.00550964,0.0404349,594,890,-14.6869,-1.99074
-623,134,-14.7025,2.1723,-0.00126561,0.00407767,0.00389614,0.00613018,-0.00331812,1.08594,0.00553492,0.0203575,601,890,-14.7025,-2.17232
-616,134,-14.8129,2.01508,-0.000602378,0.00358503,0.00404992,0.00605043,-0.00306778,1.02397,0.00535746,0.0109763,608,890,-14.8129,-2.01505
-609,134,-14.8524,1.83032,-0.0011576,0.00396992,0.00367044,0.00588333,-0.003071,1.09025,0.00525409,0.0115219,615,890,-14.8524,-1.83034
-602,134,-14.8467,1.62463,-0.00225019,0.00364561,0.00279806,0.0047621,-0.00336668,1.19113,0.00471615,0.0123055,622,890,-14.8467,-1.62462
-595,134,-14.8278,1.46545,-0.00333192,0.00296694,0.00186918,0.00347986,-0.00384483,1.30298,0.00423066,0.0129482,629,890,-14.8278,-1.46545
-588,134,-15.0214,1.34503,-0.0037863,0.00118445,0.00102639,0.00138804,-0.00398989,1.37498,0.0032238,0.0228344,636,890,-15.0214,-1.34503
-581,134,-14.9683,1.0083,-0.0038203,0.000545078,0.000448424,0.000590666,-0.00386589,1.46948,0.00279503,0.0291314,643,890,-14.9682,-1.00831
-574,134,-14.916,0.836426,-0.00385279,0.000316558,0.000244541,0.000330852,-0.00386708,1.51241,0.00269512,0.0307371,650,890,-14.9159,-0.836411
-567,134,-14.7484,0.69751,-0.00393736,0.000196531,0.000287416,0.000216418,-0.00395725,1.50171,0.00271319,0.0249007,657,890,-14.7484,-0.697488
-560,134,-14.7248,0.593689,0,0,0,0,0,0,0,-1,664,890,-14.7248,-0.593704
-553,134,-17.1924,0.841858,0,0,0,0,0,0,0,-1,671,890,-17.1924,-0.841844
-546,134,-17.1682,0.86792,-0.00373067,0.000451257,0.000696418,0.000564182,-0.0038436,1.41004,0.00276968,0.0283137,678,890,-17.1681,-0.867934
-539,134,-17.1677,0.88208,-0.00357371,0.000613936,0.000959864,0.000823466,-0.00378324,1.35588,0.00283677,0.0188939,685,890,-17.1677,-0.882087
-532,134,-17.1893,0.896301,-0.00332107,0.000733166,0.00129792,0.00111308,-0.00370098,1.28604,0.00291019,0.0218635,692,890,-17.1893,-0.896321
-525,134,-17.1949,1.02637,-0.00302694,0.000746777,0.00164555,0.00136353,-0.00364369,1.2122,0.00298916,0.0335679,699,890,-17.1949,-1.02639
-518,134,-17.0654,1.13336,-0.00251016,0.000556728,0.00190994,0.00147264,-0.00342607,1.12364,0.00290226,0.0407989,706,890,-17.0654,-1.13334
-511,134,-17.1024,1.34491,0,0,0,0,0,0,0,-1,713,890,-17.1024,-1.34493
-504,134,0,0,0,0,0,0,0,0,0,-1,720,890,0,0
-497,134,0,0,0,0,0,0,0,0,0,-1,727,890,0,0
-490,134,0,0,0,0,0,0,0,0,0,-1,734,890,0,0
-483,134,0,0,0,0,0,0,0,0,0,-1,741,890,0,0
-476,134,0,0,0,0,0,0,0,0,0,-1,748,890,0,0
-469,134,0,0,0,0,0,0,0,0,0,-1,755,890,0,0
-462,134,0,0,0,0,0,0,0,0,0,-1,762,890,0,0
-455,134,0,0,0,0,0,0,0,0,0,-1,769,890,0,0
-448,134,0,0,0,0,0,0,0,0,0,-1,776,890,0,0
-441,134,0,0,0,0,0,0,0,0,0,-1,783,890,0,0
-434,134,0,0,0,0,0,0,0,0,0,-1,790,890,0,0
-427,134,0,0,0,0,0,0,0,0,0,-1,797,890,0,0
-420,134,0,0,0,0,0,0,0,0,0,-1,804,890,0,0
-413,134,0,0,0,0,0,0,0,0,0,-1,811,890,0,0
-406,134,0,0,0,0,0,0,0,0,0,-1,818,890,0,0
-399,134,0,0,0,0,0,0,0,0,0,-1,825,890,0,0
-392,134,0,0,0,0,0,0,0,0,0,-1,832,890,0,0
-385,134,0,0,0,0,0,0,0,0,0,-1,839,890,0,0
-378,134,0,0,0,0,0,0,0,0,0,-1,846,890,0,0
-371,134,0,0,0,0,0,0,0,0,0,-1,853,890,0,0
-364,134,0,0,0,0,0,0,0,0,0,-1,860,890,0,0
-357,134,0,0,0,0,0,0,0,0,0,-1,867,890,0,0
-350,134,0,0,0,0,0,0,0,0,0,-1,874,890,0,0
-343,134,0,0,0,0,0,0,0,0,0,-1,881,890,0,0
-336,134,0,0,0,0,0,0,0,0,0,-1,888,890,0,0
-329,134,0,0,0,0,0,0,0,0,0,-1,895,890,0,0
-322,134,0,0,0,0,0,0,0,0,0,-1,902,890,0,0
-315,134,0,0,0,0,0,0,0,0,0,-1,909,890,0,0
-308,134,0,0,0,0,0,0,0,0,0,-1,916,890,0,0
-301,134,0,0,0,0,0,0,0,0,0,-1,923,890,0,0
-294,134,0,0,0,0,0,0,0,0,0,-1,930,890,0,0
-287,134,0,0,0,0,0,0,0,0,0,-1,937,890,0,0
-280,134,0,0,0,0,0,0,0,0,0,-1,944,890,0,0
-273,134,0,0,0,0,0,0,0,0,0,-1,951,890,0,0
-266,134,0,0,0,0,0,0,0,0,0,-1,958,890,0,0
-259,134,0,0,0,0,0,0,0,0,0,-1,965,890,0,0
-252,134,0,0,0,0,0,0,0,0,0,-1,972,890,0,0
-245,134,0,0,0,0,0,0,0,0,0,-1,979,890,0,0
-238,134,0,0,0,0,0,0,0,0,0,-1,986,890,0,0
-231,134,0,0,0,0,0,0,0,0,0,-1,993,890,0,0
-224,134,0,0,0,0,0,0,0,0,0,-1,1000,890,0,0
-217,134,0,0,0,0,0,0,0,0,0,-1,1007,890,0,0
-210,134,0,0,0,0,0,0,0,0,0,-1,1014,890,0,0
-203,134,0,0,0,0,0,0,0,0,0,-1,1021,890,0,0
-196,134,0,0,0,0,0,0,0,0,0,-1,1028,890,0,0
-189,134,0,0,0,0,0,0,0,0,0,-1,1035,890,0,0
-182,134,0,0,0,0,0,0,0,0,0,-1,1042,890,0,0
-175,134,0,0,0,0,0,0,0,0,0,-1,1049,890,0,0
-168,134,0,0,0,0,0,0,0,0,0,-1,1056,890,0,0
-161,134,0,0,0,0,0,0,0,0,0,-1,1063,890,0,0
-154,134,0,0,0,0,0,0,0,0,0,-1,1070,890,0,0
-147,134,0,0,0,0,0,0,0,0,0,-1,1077,890,0,0
-140,134,0,0,0,0,0,0,0,0,0,-1,1084,890,0,0
-133,134,0,0,0,0,0,0,0,0,0,-1,1091,890,0,0
-126,134,0,0,0,0,0,0,0,0,0,-1,1098,890,0,0
-119,134,0,0,0,0,0,0,0,0,0,-1,1105,890,0,0
-112,134,0,0,0,0,0,0,0,0,0,-1,1112,890,0,0
-105,134,0,0,0,0,0,0,0,0,0,-1,1119,890,0,0
-98,134,0,0,0,0,0,0,0,0,0,-1,1126,890,0,0
-91,134,0,0,0,0,0,0,0,0,0,-1,1133,890,0,0
-84,134,0,0,0,0,0,0,0,0,0,-1,1140,890,0,0
-77,134,0,0,0,0,0,0,0,0,0,-1,1147,890,0,0
-70,134,0,0,0,0,0,0,0,0,0,-1,1154,890,0,0
-63,134,0,0,0,0,0,0,0,0,0,-1,1161,890,0,0
-56,134,0,0,0,0,0,0,0,0,0,-1,1168,890,0,0
-49,134,0,0,0,0,0,0,0,0,0,-1,1175,890,0,0
-42,134,0,0,0,0,0,0,0,0,0,-1,1182,890,0,0
-35,134,0,0,0,0,0,0,0,0,0,-1,1189,890,0,0
-28,134,0,0,0,0,0,0,0,0,0,-1,1196,890,0,0
-21,134,0,0,0,0,0,0,0,0,0,-1,1203,890,0,0
-14,134,0,0,0,0,0,0,0,0,0,-1,1210,890,0,0
-7,134,0,0,0,0,0,0,0,0,0,-1,1217,890,0,0
0,134,0,0,0,0,0,0,0,0,0,-1,1224,890,0,0
7,134,0,0,0,0,0,0,0,0,0,-1,1231,890,0,0
14,134,0,0,0,0,0,0,0,0,0,-1,1238,890,0,0
21,134,0,0,0,0,0,0,0,0,0,-1,1245,890,0,0
28,134,0,0,0,0,0,0,0,0,0,-1,1252,890,0,0
35,134,0,0,0,0,0,0,0,0,0,-1,1259,890,0,0
42,134,0,0,0,0,0,0,0,0,0,-1,1266,890,0,0
49,134,0,0,0,0,0,0,0,0,0,-1,1273,890,0,0
56,134,0,0,0,0,0,0,0,0,0,-1,1280,890,0,0
63,134,0,0,0,0,0,0,0,0,0,-1,1287,890,0,0
70,134,0,0,0,0,0,0,0,0,0,-1,1294,890,0,0
77,134,0,0,0,0,0,0,0,0,0,-1,1301,890,0,0
84,134,0,0,0,0,0,0,0,0,0,-1,1308,890,0,0
91,134,0,0,0,0,0,0,0,0,0,-1,1315,890,0,0
98,134,0,0,0,0,0,0,0,0,0,-1,1322,890,0,0
105,134,0,0,0,0,0,0,0,0,0,-1,1329,890,0,0
112,134,0,0,0,0,0,0,0,0,0,-1,1336,890,0,0
119,134,0,0,0,0,0,0,0,0,0,-1,1343,890,0,0
126,134,0,0,0,0,0,0,0,0,0,-1,1350,890,0,0
133,134,0,0,0,0,0,0,0,0,0,-1,1357,890,0,0
140,134,0,0,0,0,0,0,0,0,0,-1,1364,890,0,0
147,134,0,0,0,0,0,0,0,0,0,-1,1371,890,0,0
154,134,0,0,0,0,0,0,0,0,0,-1,1378,890,0,0
161,134,0,0,0,0,0,0,0,0,0,-1,1385,890,0,0
168,134,0,0,0,0,0,0,0,0,0,-1,1392,890,0,0
175,134,0,0,0,0,0,0,0,0,0,-1,1399,890,0,0
182,134,0,0,0,0,0,0,0,0,0,-1,1406,890,0,0
189,134,0,0,0,0,0,0,0,0,0,-1,1413,890,0,0
196,134,0,0,0,0,0,0,0,0,0,-1,1420,890,0,0
203,134,0,0,0,0,0,0,0,0,0,-1,1427,890,0,0
210,134,0,0,0,0,0,0,0,0,0,-1,1434,890,0,0
217,134,0,0,0,0,0,0,0,0,0,-1,1441,890,0,0
224,134,0,0,0,0,0,0,0,0,0,-1,1448,890,0,0
231,134,0,0,0,0,0,0,0,0,0,-1,1455,890,0,0
238,134,0,0,0,0,0,0,0,0,0,-1,1462,890,0,0
245,134,0,0,0,0,0,0,0,0,0,-1,1469,890,0,0
252,134,0,0,0,0,0,0,0,0,0,-1,1476,890,0,0
259,134,0,0,0,0,0,0,0,0,0,-1,1483,890,0,0
266,134,0,0,0,0,0,0,0,0,0,-1,1490,890,0,0
273,134,0,0,0,0,0,0,0,0,0,-1,1497,890,0,0
280,134,0,0,0,0,0,0,0,0,0,-1,1504,890,0,0
287,134,0,0,0,0,0,0,0,0,0,-1,1511,890,0,0
294,134,0,0,0,0,0,0,0,0,0,-1,1518,890,0,0
301,134,0,0,0,0,0,0,0,0,0,-1,1525,890,0,0
308,134,0,0,0,0,0,0,0,0,0,-1,1532,890,0,0
315,134,0,0,0,0,0,0,0,0,0,-1,1539,890,0,0
322,134,0,0,0,0,0,0,0,0,0,-1,1546,890,0,0
329,134,0,0,0,0,0,0,0,0,0,-1,1553,890,0,0
336,134,0,0,0,0,0,0,0,0,0,-1,1560,890,0,0
343,134,0,0,0,0,0,0,0,0,0,-1,1567,890,0,0
350,134,0,0,0,0,0,0,0,0,0,-1,1574,890,0,0
357,134,0,0,0,0,0,0,0,0,0,-1,1581,890,0,0
364,134,0,0,0,0,0,0,0,0,0,-1,1588,890,0,0
371,134,0,0,0,0,0,0,0,0,0,-1,1595,890,0,0
378,134,0,0,0,0,0,0,0,0,0,-1,1602,890,0,0
385,134,0,0,0,0,0,0,0,0,0,-1,1609,890,0,0
392,134,0,0,0,0,0,0,0,0,0,-1,1616,890,0,0
399,134,0,0,0,0,0,0,0,0,0,-1,1623,890,0,0
406,134,0,0,0,0,0,0,0,0,0,-1,1630,890,0,0
413,134,0,0,0,0,0,0,0,0,0,-1,1637,890,0,0
420,134,0,0,0,0,0,0,0,0,0,-1,1644,890,0,0
427,134,0,0,0,0,0,0,0,0,0,-1,1651,890,0,0
434,134,0,0,0,0,0,0,0,0,0,-1,1658,890,0,0
441,134,0,0,0,0,0,0,0,0,0,-1,1665,890,0,0
448,134,0,0,0,0,0,0,0,0,0,-1,1672,890,0,0
455,134,0,0,0,0,0,0,0,0,0,-1,1679,890,0,0
462,134,0,0,0,0,0,0,0,0,0,-1,1686,890,0,0
469,134,0,0,0,0,0,0,0,0,0,-1,1693,890,0,0
476,134,0,0,0,0,0,0,0,0,0,-1,1700,890,0,0
483,134,0,0,0,0,0,0,0,0,0,-1,1707,890,0,0
490,134,0,0,0,0,0,0,0,0,0,-1,1714,890,0,0
497,134,0,0,0,0,0,0,0,0,0,-1,1721,890,0,0
504,134,0,0,0,0,0,0,0,0,0,-1,1728,890,0,0
511,134,0,0,0,0,0,0,0,0,0,-1,1735,890,0,0
518,134,0,0,0,0,0,0,0,0,0,-1,1742,890,0,0
525,134,0,0,0,0,0,0,0,0,0,-1,1749,890,0,0
532,134,0,0,0,0,0,0,0,0,0,-1,1756,890,0,0
539,134,0,0,0,0,0,0,0,0,0,-1,1763,890,0,0
546,134,0,0,0,0,0,0,0,0,0,-1,1770,890,0,0
553,134,0,0,0,0,0,0,0,0,0,-1,1777,890,0,0
560,134,0,0,0,0,0,0,0,0,0,-1,1784,890,0,0
567,134,0,0,0,0,0,0,0,0,0,-1,1791,890,0,0
574,134,0,0,0,0,0,0,0,0,0,-1,1798,890,0,0
581,134,0,0,0,0,0,0,0,0,0,-1,1805,890,0,0
588,134,0,0,0,0,0,0,0,0,0,-1,1812,890,0,0
595,134,0,0,0,0,0,0,0,0,0,-1,1819,890,0,0
602,134,0,0,0,0,0,0,0,0,0,-1,1826,890,0,0
609,134,0,0,0,0,0,0,0,0,0,-1,1833,890,0,0
616,134,0,0,0,0,0,0,0,0,0,-1,1840,890,0,0
623,134,24.762,2.66449,0.00819285,-0.00061839,0.00389261,0.00966616,-0.00209171,0.361828,0.00724274,0.0446529,1847,890,24.762,-2.66449
630,134,24.7686,2.72931,0.0058063,-0.000795908,0.00300593,0.00696982,-0.00195943,0.369316,0.00541908,0.0436404,1854,890,24.7685,-2.72934
637,134,24.9418,2.78101,0.00390202,-0.000652611,0.00205184,0.00469004,-0.00144062,0.366682,0.00370155,0.0422805,1861,890,24.9418,-2.78099
644,134,25.0807,2.94904,0.00225225,-0.000619791,0.00119058,0.00268161,-0.00104915,0.346112,0.00222162,0.0385675,1868,890,25.0807,-2.94906
651,134,24.9697,2.97473,0.00064068,-0.000574323,0.000451446,0.000790054,-0.000723698,0.319542,0.000874245,0.0427716,1875,890,24.9697,-2.97475
658,134,24.8735,2.89264,-0.000582013,-0.000570859,-0.000101203,-0.00047508,-0.000677793,-0.812924,0.000401718,0.0413141,1882,890,24.8736,-2.89264
665,134,24.8519,2.82196,-0.00138387,-0.000583953,-0.000441445,-0.000388227,-0.0015796,-1.15346,0.000950464,0.0351086,1889,890,24.8519,-2.82196
672,134,24.9,2.76068,-0.00193066,-0.000600745,-0.000638209,-0.00034403,-0.00218738,-1.18836,0.00135818,0.0222135,1896,890,24.9,-2.76068
679,134,24.9205,2.71265,-0.00229215,-0.000617455,-0.000802724,-0.000294838,-0.00261477,-1.18865,0.00165368,0.0161117,1903,890,24.9206,-2.71266
686,134,24.9414,2.68658,0,0,0,0,0,0,0,-1,1910,890,24.9415,-2.68658
693,134,21.7651,2.86621,0,0,0,0,0,0,0,-1,1917,890,21.7651,-2.86621
700,134,21.6733,2.9317,-0.00268402,-0.000305315,-0.0010325,8.03279e-05,-0.00306967,-1.21334,0.00207374,0.0226838,1924,890,21.6734,-2.93172
707,134,21.5521,3.04999,-0.00235069,-0.000318282,-0.000893302,1.85324e-05,-0.00268751,-1.21023,0.00179788,0.0194586,1931,890,21.5521,-3.04999
714,134,21.6161,3.34961,-0.00152549,-8.15386e-05,-0.000893473,0.000345199,-0.00195223,-1.12522,0.0014305,0.019104,1938,890,21.6161,-3.34958
721,134,21.7527,3.63684,-0.000225187,0.000176172,-0.00108715,0.00108101,-0.00113002,-0.876667,0.00127665,0.0160004,1945,890,21.7527,-3.63682
728,134,21.771,3.85339,0.00181713,0.000238919,-0.00123477,0.00249341,-0.000437356,-0.501071,0.00182561,0.0153194,1952,890,21.771,-3.85342
735,134,21.7655,4.08264,0.00334255,0.00146548,-0.00116114,0.00389703,0.000910998,-0.445512,0.00235387,0.0195335,1959,890,21.7655,-4.08265
742,134,21.7439,4.31177,0.00441287,0.00369513,-0.001157,0.00526537,0.00284262,-0.635016,0.00304318,0.0132247,1966,890,21.7439,-4.31179
749,134,21.7485,4.50604,0.00611057,0.00598324,-0.00128296,0.00733145,0.00476237,-0.760607,0.00429549,0.0125235,1973,890,21.7485,-4.50603
756,134,21.7316,4.70844,0.00720434,0.00916277,-0.00131445,0.00982266,0.00654445,-1.10553,0.00577468,0.0160838,1980,890,21.7315,-4.70843
763,134,21.7371,4.89429,0.00746649,0.0135609,-0.00113286,0.0137647,0.00726272,-1.39283,0.00795108,0.0341442,1987,890,21.737,-4.89429
770,134,22.2069,4.97998,0.00644914,0.019564,-0.000656049,0.0195967,0.0064164,-1.52094,0.0115366,0.0456596,1994,890,22.2069,-4.97997
777,134,23.0669,5.19733,0.00324568,0.0276185,0.000220553,0.0276205,0.00324369,1.56175,0.0174333,0.0497841,2001,890,23.0669,-5.19735
784,134,23.7952,5.40216,0,0,0,0,0,0,0,-1,2008,890,23.7951,-5.40218
791,134,25.2744,9.87067,0,0,0,0,0,0,0,-1,2015,890,25.2744,-9.87064
798,134,0,0,0,0,0,0,0,0,0,-1,2022,890,0,0
805,134,0,0,0,0,0,0,0,0,0,-1,2029,890,0,0
812,134,0,0,0,0,0,0,0,0,0,-1,2036,890,0,0
-700,127,0,0,0,0,0,0,0,0,0,-1,524,897,0,0
-693,127,0,0,0,0,0,0,0,0,0,-1,531,897,0,0
-686,127,0,0,0,0,0,0,0,0,0,-1,538,897,0,0
-679,127,-14.8172,3.84656,0,0,0,0,0,0,0,-1,545,897,-14.8172,-3.84654
-672,127,-15.1639,3.49164,-0.0293396,-0.00201426,-0.00907033,0.000722444,-0.0320763,-1.27776,0.021629,0.0464972,552,897,-15.164,-3.49163
-665,127,-15.5161,3.11554,-0.0179379,-0.0030211,-0.00385361,-0.00208438,-0.0188746,-1.33235,0.0119491,0.0480802,559,897,-15.516,-3.11556
-658,127,-16.5699,0.807434,0,0,0,0,0,0,0,-1,566,897,-16.5699,-0.807447
-651,127,-16.5884,0.450989,-0.0051631,-0.00146726,0.00253342,-0.000179417,-0.00645094,1.1005,0.00424209,0.0457587,573,897,-16.5885,-0.450985
-644,127,-16.0671,1.22266,-0.00192487,-0.000241583,0.00424911,0.00324843,-0.00541489,0.883171,0.00505363,0.0448383,580,897,-16.0671,-1.22265
-637,127,-15.506,1.64392,-0.000118056,0.000837008,0.00518608,0.00556749,-0.00484854,0.831308,0.00601847,0.0450129,587,897,-15.506,-1.64393
-630,127,-14.9224,2.08386,0.000841625,0.00125558,0.00555489,0.00660734,-0.00451014,0.80402,0.00645664,0.0335689,594,897,-14.9224,-2.08384
-623,127,-14.9701,2.12299,0.00116849,0.00171919,0.00533418,0.00678512,-0.00389744,0.811185,0.00624224,0.0130918,601,897,-14.9701,-2.123
-616,127,-15.0174,2.01404,0.00132658,0.00141653,0.00519812,0.00656987,-0.00382676,0.789724,0.00607175,0.009291,608,897,-15.0174,-2.01405
-609,127,-15.0359,1.82202,0.00017055,0.00214969,0.00447125,0.00573957,-0.00341933,0.894302,0.00534415,0.0138025,615,897,-15.0359,-1.822
-602,127,-15.038,1.63629,-0.00153603,0.00220637,0.00330074,0.00412942,-0.00345907,1.04326,0.00438691,0.0154588,622,897,-15.0379,-1.63632
-595,127,-14.9964,1.47247,-0.00321538,0.00203517,0.00219682,0.00283306,-0.00401328,1.22241,0.00397226,0.0166861,629,897,-14.9964,-1.47247
-588,127,-15.0889,1.33496,-0.00408158,0.000691118,0.00120328,0.000977324,-0.00436778,1.33728,0.00328643,0.0219235,636,897,-15.0889,-1.33498
-581,127,-15.1598,1.05743,-0.00443267,0.000267337,0.000512049,0.000322476,-0.00448781,1.46353,0.00310495,0.0313661,643,897,-15.1598,-1.05745
-574,127,-15.1361,0.823059,-0.0046692,0.000136298,0.000249648,0.000149232,-0.00468213,1.51903,0.00317234,0.0295881,650,897,-15.1361,-0.823086
-567,127,-14.8556,0.770813,0,0,0,0,0,0,0,-1,657,897,-14.8556,-0.770818
-560,127,-17.2344,0.726746,0,0,0,0,0,0,0,-1,664,897,-17.2344,-0.726752
-553,127,-17.1844,0.805786,-0.00470318,0.000297014,0.000466329,0.000340133,-0.0047463,1.47859,0.00328345,0.0462566,671,897,-17.1845,-0.805787
-546,127,-17.1362,0.866272,-0.00457986,0.000520984,0.000663639,0.000605912,-0.00466479,1.44352,0.00333025,0.0237826,678,897,-17.1362,-0.866258
-539,127,-17.1351,0.878601,-0.00433578,0.000772559,0.000951798,0.000944137,-0.00450736,1.39244,0.00336408,0.0211373,685,897,-17.1351,-0.878609
-532,127,-17.1707,0.866943,-0.00399565,0.00102601,0.00132573,0.00135452,-0.00432416,1.3279,0.00342476,0.0168423,692,897,-17.1707,-0.866932
-525,127,-17.2123,0.903015,-0.00360544,0.00123636,0.00170911,0.00177888,-0.00414796,1.26343,0.0035118,0.031688,699,897,-17.2123,-0.903007
-518,127,-17.2545,1.19281,-0.00317142,0.0013504,0.00201604,0.0021187,-0.00393972,1.20669,0.00355011,0.0382879,706,897,-17.2545,-1.19281
-511,127,-17.3018,1.35175,-0.00365536,0.00151568,0.00200543,0.00220226,-0.00434195,1.24094,0.00384503,0.0428667,713,897,-17.3018,-1.35172
-504,127,0,0,0,0,0,0,0,0,0,-1,720,897,0,0
-497,127,0,0,0,0,0,0,0,0,0,-1,727,897,0,0
-490,127,0,0,0,0,0,0,0,0,0,-1,734,897,0,0
-483,127,0,0,0,0,0,0,0,0,0,-1,741,897,0,0
-476,127,0,0,0,0,0,0,0,0,0,-1,748,897,0,0
-469,127,0,0,0,0,0,0,0,0,0,-1,755,897,0,0
-462,127,0,0,0,0,0,0,0,0,0,-1,762,897,0,0
-455,127,0,0,0,0,0,0,0,0,0,-1,769,897,0,0
-448,127,0,0,0,0,0,0,0,0,0,-1,776,897,0,0
-441,127,0,0,0,0,0,0,0,0,0,-1,783,897,0,0
-434,127,0,0,0,0,0,0,0,0,0,-1,790,897,0,0
-427,127,0,0,0,0,0,0,0,0,0,-1,797,897,0,0
-420,127,0,0,0,0,0,0,0,0,0,-1,804,897,0,0
-413,127,0,0,0,0,0,0,0,0,0,-1,811,897,0,0
-406,127,0,0,0,0,0,0,0,0,0,-1,818,897,0,0
-399,127,0,0,0,0,0,0,0,0,0,-1,825,897,0,0
-392,127,0,0,0,0,0,0,0,0,0,-1,832,897,0,0
-385,127,0,0,0,0,0,0,0,0,0,-1,839,897,0,0
-378,127,0,0,0,0,0,0,0,0,0,-1,846,897,0,0
-371,127,0,0,0,0,0,0,0,0,0,-1,853,897,0,0
-364,127,0,0,0,0,0,0,0,0,0,-1,860,897,0,0
-357,127,0,0,0,0,0,0,0,0,0,-1,867,897,0,0
-350,127,0,0,0,0,0,0,0,0,0,-1,874,897,0,0
-343,127,0,0,0,0,0,0,0,0,0,-1,881,897,0,0
-336,127,0,0,0,0,0,0,0,0,0,-1,888,897,0,0
-329,127,0,0,0,0,0,0,0,0,0,-1,895,897,0,0
-322,127,0,0,0,0,0,0,0,0,0,-1,902,897,0,0
-315,127,0,0,0,0,0,0,0,0,0,-1,909,897,0,0
-308,127,0,0,0,0,0,0,0,0,0,-1,916,897,0,0
-301,127,0,0,0,0,0,0,0,0,0,-1,923,897,0,0
-294,127,0,0,0,0,0,0,0,0,0,-1,930,897,0,0
-287,127,0,0,0,0,0,0,0,0,0,-1,937,897,0,0
-280,127,0,0,0,0,0,0,0,0,0,-1,944,897,0,0
-273,127,0,0,0,0,0,0,0,0,0,-1,951,897,0,0
-266,127,0,0,0,0,0,0,0,0,0,-1,958,897,0,0
-259,127,0,0,0,0,0,0,0,0,0,-1,965,897,0,0
-252,127,0,0,0,0,0,0,0,0,0,-1,972,897,0,0
-245,127,0,0,0,0,0,0,0,0,0,-1,979,897,0,0
-238,127,0,0,0,0,0,0,0,0,0,-1,986,897,0,0
-231,127,0,0,0,0,0,0,0,0,0,-1,993,897,0,0
-224,127,0,0,0,0,0,0,0,0,0,-1,1000,897,0,0
-217,127,0,0,0,0,0,0,0,0,0,-1,1007,897,0,0
-210,127,0,0,0,0,0,0,0,0,0,-1,1014,897,0,0
-203,127,0,0,0,0,0,0,0,0,0,-1,1021,897,0,0
-196,127,0,0,0,0,0,0,0,0,0,-1,1028,897,0,0
-189,127,0,0,0,0,0,0,0,0,0,-1,1035,897,0,0
-182,127,0,0,0,0,0,0,0,0,0,-1,1042,897,0,0
-175,127,0,0,0,0,0,0,0,0,0,-1,1049,897,0,0
-168,127,0,0,0,0,0,0,0,0,0,-1,1056,897,0,0
-161,127,0,0,0,0,0,0,0,0,0,-1,1063,897,0,0
-154,127,0,0,0,0,0,0,0,0,0,-1,1070,897,0,0
-147,127,0,0,0,0,0,0,0,0,0,-1,1077,897,0,0
-140,127,0,0,0,0,0,0,0,0,0,-1,1084,897,0,0
-133,127,0,0,0,0,0,0,0,0,0,-1,1091,897,0,0
-126,127,0,0,0,0,0,0,0,0,0,-1,1098,897,0,0
-119,127,0,0,0,0,0,0,0,0,0,-1,1105,897,0,0
-112,127,0,0,0,0,0,0,0,0,0,-1,1112,897,0,0
-105,127,0,0,0,0,0,0,0,0,0,-1,1119,897,0,0
-98,127,0,0,0,0,0,0,0,0,0,-1,1126,897,0,0
-91,127,0,0,0,0,0,0,0,0,0,-1,1133,897,0,0
-84,127,0,0,0,0,0,0,0,0,0,-1,1140,897,0,0
-77,127,0,0,0,0,0,0,0,0,0,-1,1147,897,0,0
-70,127,0,0,0,0,0,0,0,0,0,-1,1154,897,0,0
-63,127,0,0,0,0,0,0,0,0,0,-1,1161,897,0,0
-56,127,0,0,0,0,0,0,0,0,0,-1,1168,897,0,0
-49,127,0,0,0,0,0,0,0,0,0,-1,1175,897,0,0
-42,127,0,0,0,0,0,0,0,0,0,-1,1182,897,0,0
-35,127,0,0,0,0,0,0,0,0,0,-1,1189,897,0,0
-28,127,0,0,0,0,0,0,0,0,0,-1,1196,897,0,0
-21,127,0,0,0,0,0,0,0,0,0,-1,1203,897,0,0
-14,127,0,0,0,0,0,0,0,0,0,-1,1210,897,0,0
-7,127,0,0,0,0,0,0,0,0,0,-1,1217,897,0,0
0,127,0,0,0,0,0,0,0,0,0,-1,1224,897,0,0
7,127,0,0,0,0,0,0,0,0,0,-1,1231,897,0,0
14,127,0,0,0,0,0,0,0,0,0,-1,1238,897,0,0
21,127,0,0,0,0,0,0,0,0,0,-1,1245,897,0,0
28,127,0,0,0,0,0,0,0,0,0,-1,1252,897,0,0
35,127,0,0,0,0,0,0,0,0,0,-1,1259,897,0,0
42,127,0,0,0,0,0,0,0,0,0,-1,1266,897,0,0
49,127,0,0,0,0,0,0,0,0,0,-1,1273,897,0,0
56,127,0,0,0,0,0,0,0,0,0,-1,1280,897,0,0
63,127,0,0,0,0,0,0,0,0,0,-1,1287,897,0,0
70,127,0,0,0,0,0,0,0,0,0,-1,1294,897,0,0
77,127,0,0,0,0,0,0,0,0,0,-1,1301,897,0,0
84,127,0,0,0,0,0,0,0,0,0,-1,1308,897,0,0
91,127,0,0,0,0,0,0,0,0,0,-1,1315,897,0,0
98,127,0,0,0,0,0,0,0,0,0,-1,1322,897,0,0
105,127,0,0,0,0,0,0,0,0,0,-1,1329,897,0,0
112,127,0,0,0,0,0,0,0,0,0,-1,1336,897,0,0
119,127,0,0,0,0,0,0,0,0,0,-1,1343,897,0,0
126,127,0,0,0,0,0,0,0,0,0,-1,1350,897,0,0
133,127,0,0,0,0,0,0,0,0,0,-1,1357,897,0,0
140,127,0,0,0,0,0,0,0,0,0,-1,1364,897,0,0
147,127,0,0,0,0,0,0,0,0,0,-1,1371,897,0,0
154,127,0,0,0,0,0,0,0,0,0,-1,1378,897,0,0
161,127,0,0,0,0,0,0,0,0,0,-1,1385,897,0,0
168,127,0,0,0,0,0,0,0,0,0,-1,1392,897,0,0
175,127,0,0,0,0,0,0,0,0,0,-1,1399,897,0,0
182,127,0,0,0,0,0,0,0,0,0,-1,1406,897,0,0
189,127,0,0,0,0,0,0,0,0,0,-1,1413,897,0,0
196,127,0,0,0,0,0,0,0,0,0,-1,1420,897,0,0
203,127,0,0,0,0,0,0,0,0,0,-1,1427,897,0,0
210,127,0,0,0,0,0,0,0,0,0,-1,1434,897,0,0
217,127,0,0,0,0,0,0,0,0,0,-1,1441,897,0,0
224,127,0,0,0,0,0,0,0,0,0,-1,1448,897,0,0
231,127,0,0,0,0,0,0,0,0,0,-1,1455,897,0,0
238,127,0,0,0,0,0,0,0,0,0,-1,1462,897,0,0
245,127,0,0,0,0,0,0,0,0,0,-1,1469,897,0,0
252,127,0,0,0,0,0,0,0,0,0,-1,1476,897,0,0
259,127,0,0,0,0,0,0,0,0,0,-1,1483,897,0,0
266,127,0,0,0,0,0,0,0,0,0,-1,1490,897,0,0
273,127,0,0,0,0,0,0,0,0,0,-1,1497,897,0,0
280,127,0,0,0,0,0,0,0,0,0,-1,1504,897,0,0
287,127,0,0,0,0,0,0,0,0,0,-1,1511,897,0,0
294,127,0,0,0,0,0,0,0,0,0,-1,1518,897,0,0
301,127,0,0,0,0,0,0,0,0,0,-1,1525,897,0,0
308,127,0,0,0,0,0,0,0,0,0,-1,1532,897,0,0
315,127,0,0,0,0,0,0,0,0,0,-1,1539,897,0,0
322,127,0,0,0,0,0,0,0,0,0,-1,1546,897,0,0
329,127,0,0,0,0,0,0,0,0,0,-1,1553,897,0,0
336,127,0,0,0,0,0,0,0,0,0,-1,1560,897,0,0
343,127,0,0,0,0,0,0,0,0,0,-1,1567,897,0,0
350,127,0,0,0,0,0,0,0,0,0,-1,1574,897,0,0
357,127,0,0,0,0,0,0,0,0,0,-1,1581,897,0,0
364,127,0,0,0,0,0,0,0,0,0,-1,1588,897,0,0
371,127,0,0,0,0,0,0,0,0,0,-1,1595,897,0,0
378,127,0,0,0,0,0,0,0,0,0,-1,1602,897,0,0
385,127,0,0,0,0,0,0,0,0,0,-1,1609,897,0,0
392,127,0,0,0,0,0,0,0,0,0,-1,1616,897,0,0
399,127,0,0,0,0,0,0,0,0,0,-1,1623,897,0,0
406,127,0,0,0,0,0,0,0,0,0,-1,1630,897,0,0
413,127,0,0,0,0,0,0,0,0,0,-1,1637,897,0,0
420,127,0,0,0,0,0,0,0,0,0,-1,1644,897,0,0
427,127,0,0,0,0,0,0,0,0,0,-1,1651,897,0,0
434,127,0,0,0,0,0,0,0,0,0,-1,1658,897,0,0
441,127,0,0,0,0,0,0,0,0,0,-1,1665,897,0,0
448,127,0,0,0,0,0,0,0,0,0,-1,1672,897,0,0
455,127,0,0,0,0,0,0,0,0,0,-1,1679,897,0,0
462,127,0,0,0,0,0,0,0,0,0,-1,1686,897,0,0
469,127,0,0,0,0,0,0,0,0,0,-1,1693,897,0,0
476,127,0,0,0,0,0,0,0,0,0,-1,1700,897,0,0
483,127,0,0,0,0,0,0,0,0,0,-1,1707,897,0,0
490,127,0,0,0,0,0,0,0,0,0,-1,1714,897,0,0
497,127,0,0,0,0,0,0,0,0,0,-1,1721,897,0,0
504,127,0,0,0,0,0,0,0,0,0,-1,1728,897,0,0
511,127,0,0,0,0,0,0,0,0,0,-1,1735,897,0,0
518,127,0,0,0,0,0,0,0,0,0,-1,1742,897,0,0
525,127,0,0,0,0,0,0,0,0,0,-1,1749,897,0,0
532,127,0,0,0,0,0,0,0,0,0,-1,1756,897,0,0
539,127,0,0,0,0,0,0,0,0,0,-1,1763,897,0,0
546,127,0,0,0,0,0,0,0,0,0,-1,1770,897,0,0
553,127,0,0,0,0,0,0,0,0,0,-1,1777,897,0,0
560,127,0,0,0,0,0,0,0,0,0,-1,1784,897,0,0
567,127,0,0,0,0,0,0,0,0,0,-1,1791,897,0,0
574,127,0,0,0,0,0,0,0,0,0,-1,1798,897,0,0
581,127,0,0,0,0,0,0,0,0,0,-1,1805,897,0,0
588,127,0,0,0,0,0,0,0,0,0,-1,1812,897,0,0
595,127,0,0,0,0,0,0,0,0,0,-1,1819,897,0,0
602,127,0,0,0,0,0,0,0,0,0,-1,1826,897,0,0
609,127,0,0,0,0,0,0,0,0,0,-1,1833,897,0,0
616,127,0,0,0,0,0,0,0,0,0,-1,1840,897,0,0
623,127,0,0,0,0,0,0,0,0,0,-1,1847,897,0,0
630,127,24.8221,2.89526,0.0064315,-0.000527433,0.00284409,0.00744597,-0.00154191,0.342628,0.00554981,0.0414503,1854,897,24.8221,-2.89525
637,127,24.9681,2.98181,0.00434455,-0.00035713,0.0019408,0.00504217,-0.00105476,0.345072,0.00376264,0.040221,1861,897,24.9681,-2.98181
644,127,24.9774,3.12097,0.00255039,-0.000348848,0.00114493,0.002948,-0.000746457,0.334249,0.00225571,0.040589,1868,897,24.9775,-3.12099
651,127,24.8527,3.12091,0.00068042,-0.000346866,0.000438834,0.000842354,-0.0005088,0.353509,0.000787973,0.0467248,1875,897,24.8526,-3.12092
658,127,24.7357,2.94305,-0.000831889,-0.000359783,-8.50374e-05,-0.000344933,-0.000846739,-1.39791,0.000491654,0.0437945,1882,897,24.7357,-2.94307
665,127,24.8138,2.88013,-0.00181945,-0.000391804,-0.000415852,-0.000279506,-0.00193175,-1.30704,0.00120551,0.0400551,1889,897,24.8138,-2.88012
672,127,24.8617,2.83221,-0.002432,-0.000420465,-0.000577666,-0.000266377,-0.00258609,-1.31012,0.00164248,0.0336898,1896,897,24.8617,-2.83219
679,127,24.9464,2.72546,-0.00280444,-0.000452342,-0.000702838,-0.000258328,-0.00299846,-1.30146,0.00191867,0.0232927,1903,897,24.9464,-2.72548
686,127,24.8011,2.73407,0,0,0,0,0,0,0,-1,1910,897,24.8012,-2.73409
693,127,23.2902,2.85126,-0.00327797,-0.000282341,-0.000851665,-5.71402e-05,-0.00350317,-1.31229,0.00231663,0.0439644,1917,897,23.2902,-2.85123
700,127,21.9716,2.97314,-0.0032113,-0.000247525,-0.000826089,-3.28236e-05,-0.003426,-1.31652,0.00227314,0.0324955,1924,897,21.9716,-2.97313
707,127,21.7592,3.1073,-0.00282818,-0.00027417,-0.000702029,-9.39216e-05,-0.00300842,-1.31947,0.00197505,0.0232878,1931,897,21.7592,-3.10728
714,127,21.8524,3.36865,-0.00191,-4.46264e-05,-0.000761902,0.000227012,-0.00218164,-1.22832,0.0015357,0.0206253,1938,897,21.8525,-3.36865
721,127,22.0237,3.70612,-0.000607256,0.000242053,-0.000945614,0.000853988,-0.00121919,-0.996442,0.00120312,0.016091,1945,897,22.0237,-3.70609
728,127,21.9807,3.86755,0.00132119,0.000351181,-0.00102121,0.00196672,-0.000294341,-0.563701,0.00141947,0.0146401,1952,897,21.9807,-3.86756
735,127,21.9926,4.08191,0.00263778,0.0017378,-0.000792362,0.00309901,0.00127657,-0.527154,0.00179845,0.0186588,1959,897,21.9926,-4.08194
742,127,21.9808,4.29492,0.00341037,0.00423326,-0.000587455,0.00453902,0.0031046,-1.09089,0.00267909,0.0162856,1966,897,21.9808,-4.29494
749,127,21.9574,4.48438,0.00478308,0.00691098,-0.000397932,0.00698297,0.0047111,-1.39184,0.00411279,0.0126611,1973,897,21.9574,-4.48439
756,127,21.9321,4.66119,0.00542184,0.0106199,-8.36643e-06,0.0106199,0.00542182,-1.56919,0.00613185,0.0139703,1980,897,21.9322,-4.6612
763,127,21.927,4.83466,0.0050706,0.0157048,0.000723675,0.0157539,0.00502158,1.50316,0.00929255,0.0205588,1987,897,21.927,-4.83464
770,127,22.5482,4.79706,0.00338417,0.0224925,0.00189574,0.0226788,0.00319791,1.47286,0.014174,0.0404644,1994,897,22.5483,-4.79707
777,127,23.2195,4.79944,0,0,0,0,0,0,0,-1,2001,897,23.2194,-4.79944
784,127,25.7593,9.37195,-0.00748374,0.0430255,0.00592503,0.0437113,-0.00816947,1.45557,0.0322112,0.048459,2008,897,25.7593,-9.37196
791,127,25.0492,9.37732,-0.0193228,0.057741,0.00882515,0.0587387,-0.0203205,1.45822,0.0474073,0.0444374,2015,897,25.0492,-9.37733
798,127,0,0,0,0,0,0,0,0,0,-1,2022,897,0,0
805,127,0,0,0,0,0,0,0,0,0,-1,2029,897,0,0
812,127,0,0,0,0,0,0,0,0,0,-1,2036,897,0,0
-700,120,0,0,0,0,0,0,0,0,0,-1,524,904,0,0
-693,120,0,0,0,0,0,0,0,0,0,-1,531,904,0,0
-686,120,0,0,0,0,0,0,0,0,0,-1,538,904,0,0
-679,120,-15.1356,2.43231,0,0,0,0,0,0,0,-1,545,904,-15.1356,-2.43234
-672,120,-15.2646,3.56946,0,0,0,0,0,0,0,-1,552,904,-15.2646,-3.56948
-665,120,-16.7504,0.616394,0,0,0,0,0,0,0,-1,559,904,-16.7504,-0.616393
-658,120,-16.6327,0.885803,-0.00797686,-0.00253657,0.00142789,-0.00218457,-0.00832886,1.3291,0.00498653,0.0488918,566,904,-16.6327,-0.885832
-651,120,-16.419,1.16626,-0.00276541,-0.00291382,0.0037619,0.00092302,-0.00660225,0.775537,0.00473923,0.0474761,573,904,-16.419,-1.16623
-644,120,-16.2947,1.49176,0.000478813,-0.00258074,0.00522248,0.00439096,-0.00649289,0.642923,0.00632273,0.0454458,580,904,-16.2947,-1.49174
-637,120,-15.8646,1.91833,0.00218977,-0.00193648,0.00592712,0.00640256,-0.00614928,0.617915,0.0072473,0.040479,587,904,-15.8646,-1.91833
-630,120,-15.226,2.22809,0.00295776,-0.00166746,0.00610473,0.00717324,-0.00588294,0.604339,0.00755024,0.0226432,594,904,-15.226,-2.22808
-623,120,-15.2107,2.12067,0.00294976,-0.00101354,0.00573858,0.00703921,-0.00510298,0.619148,0.00703994,0.0106803,601,904,-15.2107,-2.12068
-616,120,-15.1965,1.99768,0.00263929,-0.00108939,0.00546206,0.00654642,-0.00499652,0.620935,0.00668431,0.0103364,608,904,-15.1965,-1.9977
-609,120,-15.2221,1.80988,0.000933421,3.92426e-05,0.00454823,0.00505648,-0.00408382,0.736406,0.0052871,0.0129519,615,904,-15.2221,-1.80991
-602,120,-15.2407,1.65222,-0.00127793,0.0005227,0.00327333,0.00301727,-0.0037725,0.919602,0.00392815,0.013268,622,904,-15.2407,-1.65222
-595,120,-15.1785,1.49609,-0.00343011,0.000906864,0.00217779,0.00181167,-0.00433491,1.17703,0.00364704,0.0192016,629,904,-15.1785,-1.49612
-588,120,-15.2072,1.30011,-0.00464498,0.000143111,0.00119829,0.000426257,-0.00492812,1.33876,0.00343632,0.024661,636,904,-15.2072,-1.30013
-581,120,-15.3718,1.11749,-0.00527324,8.96059e-06,0.000474116,5.11787e-05,-0.00531546,1.48198,0.00356082,0.029416,643,904,-15.3717,-1.11748
-574,120,-15.2636,0.828857,-0.0056583,-3.80251e-05,0.00018143,-3.21744e-05,-0.00566415,1.53856,0.00376542,0.0235051,650,904,-15.2636,-0.828884
-567,120,-15.0709,0.362122,0,0,0,0,0,0,0,-1,657,904,-15.0709,-0.362099
-560,120,-17.2229,0.775208,0,0,0,0,0,0,0,-1,664,904,-17.2229,-0.775198
-553,120,-17.1537,0.901672,-0.0055984,0.000168933,0.000399602,0.000196489,-0.00562595,1.50195,0.00381782,0.0384068,671,904,-17.1537,-0.90168
-546,120,-17.1141,0.95343,-0.00531585,0.000351637,0.000644419,0.000423987,-0.0053882,1.45899,0.00374148,0.0319272,678,904,-17.1141,-0.953423
-539,120,-17.1555,0.886047,-0.00486019,0.000589854,0.000982554,0.000761581,-0.00503192,1.39777,0.00363517,0.0264039,685,904,-17.1555,-0.886021
-532,120,-17.1635,0.825806,-0.00428105,0.000844916,0.00143287,0.00121826,-0.00465439,1.31591,0.00357881,0.029086,692,904,-17.1635,-0.825783
-525,120,-17.3548,0.950073,-0.00363703,0.0010788,0.00191829,0.00176056,-0.00431878,1.22932,0.00361201,0.0363009,699,904,-17.3548,-0.950099
-518,120,-17.5897,1.31665,-0.00324699,0.00126665,0.00239005,0.00229701,-0.00427735,1.16377,0.00385268,0.0384237,706,904,-17.5897,-1.31668
-511,120,-17.4789,1.37811,-0.00449518,0.00166043,0.0025884,0.00260415,-0.00543891,1.22118,0.00473883,0.0394656,713,904,-17.4789,-1.3781
-504,120,0,0,0,0,0,0,0,0,0,-1,720,904,0,0
-497,120,0,0,0,0,0,0,0,0,0,-1,727,904,0,0
-490,120,0,0,0,0,0,0,0,0,0,-1,734,904,0,0
-483,120,0,0,0,0,0,0,0,0,0,-1,741,904,0,0
-476,120,0,0,0,0,0,0,0,0,0,-1,748,904,0,0
-469,120,0,0,0,0,0,0,0,0,0,-1,755,904,0,0
-462,120,0,0,0,0,0,0,0,0,0,-1,762,904,0,0
-455,120,0,0,0,0,0,0,0,0,0,-1,769,904,0,0
-448,120,0,0,0,0,0,0,0,0,0,-1,776,904,0,0
-441,120,0,0,0,0,0,0,0,0,0,-1,783,904,0,0
-434,120,0,0,0,0,0,0,0,0,0,-1,790,904,0,0
-427,120,0,0,0,0,0,0,0,0,0,-1,797,904,0,0
-420,120,0,0,0,0,0,0,0,0,0,-1,804,904,0,0
-413,120,0,0,0,0,0,0,0,0,0,-1,811,904,0,0
-406,120,0,0,0,0,0,0,0,0,0,-1,818,904,0,0
-399,120,0,0,0,0,0,0,0,0,0,-1,825,904,0,0
-392,120,0,0,0,0,0,0,0,0,0,-1,832,904,0,0
-385,120,0,0,0,0,0,0,0,0,0,-1,839,904,0,0
-378,120,0,0,0,0,0,0,0,0,0,-1,846,904,0,0
-371,120,0,0,0,0,0,0,0,0,0,-1,853,904,0,0
-364,120,0,0,0,0,0,0,0,0,0,-1,860,904,0,0
-357,120,0,0,0,0,0,0,0,0,0,-1,867,904,0,0
-350,120,0,0,0,0,0,0,0,0,0,-1,874,904,0,0
-343,120,0,0,0,0,0,0,0,0,0,-1,881,904,0,0
-336,120,0,0,0,0,0,0,0,0,0,-1,888,904,0,0
-329,120,0,0,0,0,0,0,0,0,0,-1,895,904,0,0
-322,120,0,0,0,0,0,0,0,0,0,-1,902,904,0,0
-315,120,0,0,0,0,0,0,0,0,0,-1,909,904,0,0
-308,120,0,0,0,0,0,0,0,0,0,-1,916,904,0,0
-301,120,0,0,0,0,0,0,0,0,0,-1,923,904,0,0
-294,120,0,0,0,0,0,0,0,0,0,-1,930,904,0,0
-287,120,0,0,0,0,0,0,0,0,0,-1,937,904,0,0
-280,120,0,0,0,0,0,0,0,0,0,-1,944,904,0,0
-273,120,0,0,0,0,0,0,0,0,0,-1,951,904,0,0
-266,120,0,0,0,0,0,0,0,0,0,-1,958,904,0,0
-259,120,0,0,0,0,0,0,0,0,0,-1,965,904,0,0
-252,120,0,0,0,0,0,0,0,0,0,-1,972,904,0,0
-245,120,0,0,0,0,0,0,0,0,0,-1,979,904,0,0
-238,120,0,0,0,0,0,0,0,0,0,-1,986,904,0,0
-231,120,0,0,0,0,0,0,0,0,0,-1,993,904,0,0
-224,120,0,0,0,0,0,0,0,0,0,-1,1000,904,0,0
-217,120,0,0,0,0,0,0,0,0,0,-1,1007,904,0,0
-210,120,0,0,0,0,0,0,0,0,0,-1,1014,904,0,0
-203,120,0,0,0,0,0,0,0,0,0,-1,1021,904,0,0
-196,120,0,0,0,0,0,0,0,0,0,-1,1028,904,0,0
-189,120,0,0,0,0,0,0,0,0,0,-1,1035,904,0,0
-182,120,0,0,0,0,0,0,0,0,0,-1,1042,904,0,0
-175,120,0,0,0,0,0,0,0,0,0,-1,1049,904,0,0
-168,120,0,0,0,0,0,0,0,0,0,-1,1056,904,0,0
-161,120,0,0,0,0,0,0,0,0,0,-1,1063,904,0,0
-154,120,0,0,0,0,0,0,0,0,0,-1,1070,904,0,0
-147,120,0,0,0,0,0,0,0,0,0,-1,1077,904,0,0
-140,120,0,0,0,0,0,0,0,0,0,-1,1084,904,0,0
-133,120,0,0,0,0,0,0,0,0,0,-1,1091,904,0,0
-126,120,0,0,0,0,0,0,0,0,0,-1,1098,904,0,0
-119,120,0,0,0,0,0,0,0,0,0,-1,1105,904,0,0
-112,120,0,0,0,0,0,0,0,0,0,-1,1112,904,0,0
-105,120,0,0,0,0,0,0,0,0,0,-1,1119,904,0,0
-98,120,0,0,0,0,0,0,0,0,0,-1,1126,904,0,0
-91,120,0,0,0,0,0,0,0,0,0,-1,1133,904,0,0
-84,120,0,0,0,0,0,0,0,0,0,-1,1140,904,0,0
-77,120,0,0,0,0,0,0,0,0,0,-1,1147,904,0,0
-70,120,0,0,0,0,0,0,0,0,0,-1,1154,904,0,0
-63,120,0,0,0,0,0,0,0,0,0,-1,1161,904,0,0
-56,120,0,0,0,0,0,0,0,0,0,-1,1168,904,0,0
-49,120,0,0,0,0,0,0,0,0,0,-1,1175,904,0,0
-42,120,0,0,0,0,0,0,0,0,0,-1,1182,904,0,0
-35,120,0,0,0,0,0,0,0,0,0,-1,1189,904,0,0
-28,120,0,0,0,0,0,0,0,0,0,-1,1196,904,0,0
-21,120,0,0,0,0,0,0,0,0,0,-1,1203,904,0,0
-14,120,0,0,0,0,0,0,0,0,0,-1,1210,904,0,0
-7,120,0,0,0,0,0,0,0,0,0,-1,1217,904,0,0
0,120,0,0,0,0,0,0,0,0,0,-1,1224,904,0,0
7,120,0,0,0,0,0,0,0,0,0,-1,1231,904,0,0
14,120,0,0,0,0,0,0,0,0,0,-1,1238,904,0,0
21,120,0,0,0,0,0,0,0,0,0,-1,1245,904,0,0
28,120,0,0,0,0,0,0,0,0,0,-1,1252,904,0,0
35,120,0,0,0,0,0,0,0,0,0,-1,1259,904,0,0
42,120,0,0,0,0,0,0,0,0,0,-1,1266,904,0,0
49,120,0,0,0,0,0,0,0,0,0,-1,1273,904,0,0
56,120,0,0,0,0,0,0,0,0,0,-1,1280,904,0,0
63,120,0,0,0,0,0,0,0,0,0,-1,1287,904,0,0
70,120,0,0,0,0,0,0,0,0,0,-1,1294,904,0,0
77,120,0,0,0,0,0,0,0,0,0,-1,1301,904,0,0
84,120,0,0,0,0,0,0,0,0,0,-1,1308,904,0,0
91,120,0,0,0,0,0,0,0,0,0,-1,1315,904,0,0
98,120,0,0,0,0,0,0,0,0,0,-1,1322,904,0,0
105,120,0,0,0,0,0,0,0,0,0,-1,1329,904,0,0
112,120,0,0,0,0,0,0,0,0,0,-1,1336,904,0,0
119,120,0,0,0,0,0,0,0,0,0,-1,1343,904,0,0
126,120,0,0,0,0,0,0,0,0,0,-1,1350,904,0,0
133,120,0,0,0,0,0,0,0,0,0,-1,1357,904,0,0
140,120,0,0,0,0,0,0,0,0,0,-1,1364,904,0,0
147,120,0,0,0,0,0,0,0,0,0,-1,1371,904,0,0
154,120,0,0,0,0,0,0,0,0,0,-1,1378,904,0,0
161,120,0,0,0,0,0,0,0,0,0,-1,1385,904,0,0
168,120,0,0,0,0,0,0,0,0,0,-1,1392,904,0,0
175,120,0,0,0,0,0,0,0,0,0,-1,1399,904,0,0
182,120,0,0,0,0,0,0,0,0,0,-1,1406,904,0,0
189,120,0,0,0,0,0,0,0,0,0,-1,1413,904,0,0
196,120,0,0,0,0,0,0,0,0,0,-1,1420,904,0,0
203,120,0,0,0,0,0,0,0,0,0,-1,1427,904,0,0
210,120,0,0,0,0,0,0,0,0,0,-1,1434,904,0,0
217,120,0,0,0,0,0,0,0,0,0,-1,1441,904,0,0
224,120,0,0,0,0,0,0,0,0,0,-1,1448,904,0,0
231,120,0,0,0,0,0,0,0,0,0,-1,1455,904,0,0
238,120,0,0,0,0,0,0,0,0,0,-1,1462,904,0,0
245,120,0,0,0,0,0,0,0,0,0,-1,1469,904,0,0
252,120,0,0,0,0,0,0,0,0,0,-1,1476,904,0,0
259,120,0,0,0,0,0,0,0,0,0,-1,1483,904,0,0
266,120,0,0,0,0,0,0,0,0,0,-1,1490,904,0,0
273,120,0,0,0,0,0,0,0,0,0,-1,1497,904,0,0
280,120,0,0,0,0,0,0,0,0,0,-1,1504,904,0,0
287,120,0,0,0,0,0,0,0,0,0,-1,1511,904,0,0
294,120,0,0,0,0,0,0,0,0,0,-1,1518,904,0,0
301,120,0,0,0,0,0,0,0,0,0,-1,1525,904,0,0
308,120,0,0,0,0,0,0,0,0,0,-1,1532,904,0,0
315,120,0,0,0,0,0,0,0,0,0,-1,1539,904,0,0
322,120,0,0,0,0,0,0,0,0,0,-1,1546,904,0,0
329,120,0,0,0,0,0,0,0,0,0,-1,1553,904,0,0
336,120,0,0,0,0,0,0,0,0,0,-1,1560,904,0,0
343,120,0,0,0,0,0,0,0,0,0,-1,1567,904,0,0
350,120,0,0,0,0,0,0,0,0,0,-1,1574,904,0,0
357,120,0,0,0,0,0,0,0,0,0,-1,1581,904,0,0
364,120,0,0,0,0,0,0,0,0,0,-1,1588,904,0,0
371,120,0,0,0,0,0,0,0,0,0,-1,1595,904,0,0
378,120,0,0,0,0,0,0,0,0,0,-1,1602,904,0,0
385,120,0,0,0,0,0,0,0,0,0,-1,1609,904,0,0
392,120,0,0,0,0,0,0,0,0,0,-1,1616,904,0,0
399,120,0,0,0,0,0,0,0,0,0,-1,1623,904,0,0
406,120,0,0,0,0,0,0,0,0,0,-1,1630,904,0,0
413,120,0,0,0,0,0,0,0,0,0,-1,1637,904,0,0
420,120,0,0,0,0,0,0,0,0,0,-1,1644,904,0,0
427,120,0,0,0,0,0,0,0,0,0,-1,1651,904,0,0
434,120,0,0,0,0,0,0,0,0,0,-1,1658,904,0,0
441,120,0,0,0,0,0,0,0,0,0,-1,1665,904,0,0
448,120,0,0,0,0,0,0,0,0,0,-1,1672,904,0,0
455,120,0,0,0,0,0,0,0,0,0,-1,1679,904,0,0
462,120,0,0,0,0,0,0,0,0,0,-1,1686,904,0,0
469,120,0,0,0,0,0,0,0,0,0,-1,1693,904,0,0
476,120,0,0,0,0,0,0,0,0,0,-1,1700,904,0,0
483,120,0,0,0,0,0,0,0,0,0,-1,1707,904,0,0
490,120,0,0,0,0,0,0,0,0,0,-1,1714,904,0,0
497,120,0,0,0,0,0,0,0,0,0,-1,1721,904,0,0
504,120,0,0,0,0,0,0,0,0,0,-1,1728,904,0,0
511,120,0,0,0,0,0,0,0,0,0,-1,1735,904,0,0
518,120,0,0,0,0,0,0,0,0,0,-1,1742,904,0,0
525,120,0,0,0,0,0,0,0,0,0,-1,1749,904,0,0
532,120,0,0,0,0,0,0,0,0,0,-1,1756,904,0,0
539,120,0,0,0,0,0,0,0,0,0,-1,1763,904,0,0
546,120,0,0,0,0,0,0,0,0,0,-1,1770,904,0,0
553,120,0,0,0,0,0,0,0,0,0,-1,1777,904,0,0
560,120,0,0,0,0,0,0,0,0,0,-1,1784,904,0,0
567,120,0,0,0,0,0,0,0,0,0,-1,1791,904,0,0
574,120,0,0,0,0,0,0,0,0,0,-1,1798,904,0,0
581,120,0,0,0,0,0,0,0,0,0,-1,1805,904,0,0
588,120,0,0,0,0,0,0,0,0,0,-1,1812,904,0,0
595,120,0,0,0,0,0,0,0,0,0,-1,1819,904,0,0
602,120,0,0,0,0,0,0,0,0,0,-1,1826,904,0,0
609,120,0,0,0,0,0,0,0,0,0,-1,1833,904,0,0
616,120,0,0,0,0,0,0,0,0,0,-1,1840,904,0,0
623,120,0,0,0,0,0,0,0,0,0,-1,1847,904,0,0
630,120,24.8801,2.78229,0.00743067,-0.000807671,0.00308162,0.00845581,-0.00183282,0.321148,0.00633712,0.0400756,1854,904,24.8801,-2.78227
637,120,24.9963,2.80115,0.0050094,-0.000321483,0.00211845,0.00574873,-0.00106081,0.335777,0.00423065,0.0418729,1861,904,24.9964,-2.80112
644,120,24.9147,2.99597,0.00301189,-0.000119614,0.00130582,0.00348495,-0.000592674,0.347563,0.00254398,0.0420366,1868,904,24.9147,-2.99594
651,120,24.803,3.01385,0.000889639,-3.60444e-05,0.000581748,0.0011702,-0.000316609,0.44937,0.000904339,0.0429578,1875,904,24.803,-3.01386
658,120,24.803,2.82593,-0.000907566,2.92948e-06,5.69145e-05,6.47336e-06,-0.000911109,1.50861,0.000609576,0.0426023,1882,904,24.8029,-2.82591
665,120,24.8657,2.83112,-0.00211187,-9.34331e-06,-0.000289411,2.97664e-05,-0.00215098,-1.43647,0.00144401,0.0384304,1889,904,24.8658,-2.8311
672,120,24.9084,2.78973,-0.00281261,-5.51825e-05,-0.000442698,1.41483e-05,-0.00288194,-1.41545,0.00192603,0.0367904,1896,904,24.9085,-2.78973
679,120,24.9353,2.71075,-0.00320169,-0.000112775,-0.000537334,-2.19718e-05,-0.00329249,-1.40339,0.00218771,0.0308432,1903,904,24.9353,-2.71076
686,120,25.2113,2.77374,0,0,0,0,0,0,0,-1,1910,904,25.2113,-2.77375
693,120,24.0693,2.87982,0,0,0,0,0,0,0,-1,1917,904,24.0693,-2.87983
700,120,22.1564,3.09454,0,0,0,0,0,0,0,-1,1924,904,22.1563,-3.09457
707,120,22.056,3.26483,-0.00322845,-0.000117084,-0.000490877,-4.14759e-05,-0.00330405,-1.41797,0.00218901,0.0214869,1931,904,22.056,-3.26483
714,120,22.1993,3.4989,-0.00226721,7.23314e-05,-0.000600779,0.000217589,-0.00241247,-1.33357,0.00168553,0.0178781,1938,904,22.1994,-3.49893
721,120,22.2299,3.69348,-0.000997501,0.000359722,-0.000773515,0.00071011,-0.00134789,-1.14547,0.00120706,0.0154774,1945,904,22.2299,-3.69351
728,120,22.2085,3.91473,0.000757821,0.000486842,-0.000775315,0.0014094,-0.000164733,-0.698895,0.000999045,0.0109885,1952,904,22.2085,-3.91471
735,120,22.181,4.07648,0.00178412,0.0019687,-0.000426163,0.00231245,0.00144037,-0.892032,0.00134847,0.0121955,1959,904,22.181,-4.07649
742,120,22.1805,4.2926,0.00216414,0.00461984,-5.5853e-05,0.00462111,0.00216287,-1.54807,0.00266981,0.0130389,1966,904,22.1805,-4.29262
749,120,22.1742,4.46887,0.00313244,0.00757828,0.000373533,0.00760944,0.00310128,1.48756,0.00441827,0.0109053,1973,904,22.1742,-4.46886
756,120,22.1552,4.63214,0.00326754,0.0116895,0.00109026,0.0118284,0.00312869,1.44412,0.00707711,0.0117323,1980,904,22.1552,-4.63215
763,120,22.0925,4.78131,0.00230368,0.0172941,0.0022392,0.0176215,0.00197634,1.42564,0.0111474,0.0216601,1987,904,22.0926,-4.78134
770,120,22.4021,4.87292,-1.86171e-05,0.0246297,0.00391217,0.0252357,-0.000624656,1.41711,0.0170358,0.0421049,1994,904,22.4021,-4.87293
777,120,22.8099,4.92523,0,0,0,0,0,0,0,-1,2001,904,22.8099,-4.92523
784,120,25.4283,8.91724,-0.0117622,0.0464753,0.00925888,0.0479119,-0.0131988,1.41687,0.0371312,0.0477703,2008,904,25.4284,-8.91726
791,120,24.6064,8.8006,-0.0233913,0.0619011,0.0129579,0.0638262,-0.0253165,1.42331,0.0530433,0.0463361,2015,904,24.6064,-8.80058
798,120,23.8256,8.61823,0,0,0,0,0,0,0,-1,2022,904,23.8256,-8.61823
805,120,0,0,0,0,0,0,0,0,0,-1,2029,904,0,0
812,120,0,0,0,0,0,0,0,0,0,-1,2036,904,0,0
-700,113,0,0,0,0,0,0,0,0,0,-1,524,911,0,0
-693,113,0,0,0,0,0,0,0,0,0,-1,531,911,0,0
-686,113,0,0,0,0,0,0,0,0,0,-1,538,911,0,0
-679,113,-15.361,2.60809,-0.0466726,0.0198172,-0.0132882,0.0223745,-0.04923,-1.38067,0.042299,0.0470613,545,911,-15.361,-2.60812
-672,113,-15.7789,3.33093,-0.0297735,0.00908113,-0.00722324,0.0103805,-0.0310729,-1.39281,0.0249072,0.0497837,552,911,-15.7789,-3.33095
-665,113,-16.4897,3.62439,0,0,0,0,0,0,0,-1,559,911,-16.4897,-3.62438
-658,113,-16.707,0.98053,-0.00930867,-0.000738822,0.000673593,-0.0006862,-0.0093613,1.49283,0.00602517,0.0462932,566,911,-16.707,-0.980559
-651,113,-16.5086,1.20074,-0.00352276,-0.00244015,0.00294368,1.15777e-05,-0.00597449,0.876326,0.00398686,0.0478265,573,911,-16.5086,-1.20075
-644,113,-16.3998,1.49933,0,0,0,0,0,0,0,-1,580,911,-16.3998,-1.49935
-637,113,-15.676,2.06958,0,0,0,0,0,0,0,-1,587,911,-15.676,-2.0696
-630,113,-15.4156,2.24719,0,0,0,0,0,0,0,-1,594,911,-15.4156,-2.24722
-623,113,-15.3956,2.11841,0.00327726,-0.00242689,0.00511166,0.00627868,-0.00542831,0.530933,0.00676497,0.0106562,601,911,-15.3957,-2.11841
-616,113,-15.3947,1.96008,0.00278835,-0.00247722,0.00488177,0.00570203,-0.00539089,0.538099,0.00640534,0.00992387,608,911,-15.3947,-1.96007
-609,113,-15.4078,1.81287,0.000761968,-0.00118337,0.0039305,0.00383837,-0.00425977,0.664102,0.00467757,0.0109279,615,911,-15.4078,-1.81285
-602,113,-15.4309,1.65564,-0.00169389,-0.000517333,0.002719,0.0016763,-0.00388752,0.891935,0.00329575,0.0153084,622,911,-15.4309,-1.65566
-595,113,-15.4177,1.5351,-0.00408061,0.000159582,0.00176181,0.000796077,-0.0047171,1.22411,0.00344093,0.0196044,629,911,-15.4177,-1.53508
-588,113,-15.4008,1.33685,-0.00547944,-0.000209046,0.000901421,-5.91353e-05,-0.00562935,1.406,0.00373335,0.0206351,636,911,-15.4008,-1.33684
-581,113,-15.4219,1.14319,-0.00622422,-0.000156422,0.000247287,-0.00014636,-0.00623428,1.53013,0.00410827,0.0212032,643,911,-15.422,-1.14319
-574,113,-15.3105,0.871887,-0.00666469,-0.000163593,-2.34984e-05,-0.000163509,-0.00666478,-1.56718,0.0043897,0.0229599,650,911,-15.3105,-0.871874
-567,113,-15.4623,0.586182,0,0,0,0,0,0,0,-1,657,911,-15.4624,-0.586212
-560,113,-17.0888,0.991211,0,0,0,0,0,0,0,-1,664,911,-17.0888,-0.991212
-553,113,-17.1676,0.934753,-0.00644467,0.000184608,0.000224878,0.000192227,-0.00645229,1.53693,0.00436701,0.0397483,671,911,-17.1676,-0.934724
-546,113,-17.2368,0.661377,-0.00596109,0.000434243,0.000504273,0.000473761,-0.00600061,1.49259,0.00416731,0.0347577,678,911,-17.2368,-0.661362
-539,113,-17.1481,0.872009,-0.00525126,0.000773777,0.000899156,0.000905102,-0.00538259,1.42577,0.00392503,0.0367408,685,911,-17.1481,-0.872038
-532,113,-17.0219,0.877563,-0.00437936,0.00118381,0.00143116,0.00153039,-0.00472594,1.3332,0.00376588,0.0401248,692,911,-17.0219,-0.877537
-525,113,-17.1713,0.879211,-0.00345266,0.00164556,0.0020186,0.00234802,-0.00415511,1.23591,0.0038026,0.0382361,699,911,-17.1712,-0.879189
-518,113,-17.3716,1.0553,-0.0032026,0.00218696,0.00264063,0.00326508,-0.00428072,1.18317,0.0043697,0.0395908,706,911,-17.3716,-1.05529
-511,113,-17.449,1.06641,-0.00540745,0.00306407,0.00296696,0.00399982,-0.0063432,1.26528,0.00602242,0.0406804,713,911,-17.449,-1.06638
-504,113,0,0,0,0,0,0,0,0,0,-1,720,911,0,0
-497,113,0,0,0,0,0,0,0,0,0,-1,727,911,0,0
-490,113,0,0,0,0,0,0,0,0,0,-1,734,911,0,0
-483,113,0,0,0,0,0,0,0,0,0,-1,741,911,0,0
-476,113,0,0,0,0,0,0,0,0,0,-1,748,911,0,0
-469,113,0,0,0,0,0,0,0,0,0,-1,755,911,0,0
-462,113,0,0,0,0,0,0,0,0,0,-1,762,911,0,0
-455,113,0,0,0,0,0,0,0,0,0,-1,769,911,0,0
-448,113,0,0,0,0,0,0,0,0,0,-1,776,911,0,0
-441,113,0,0,0,0,0,0,0,0,0,-1,783,911,0,0
-434,113,0,0,0,0,0,0,0,0,0,-1,790,911,0,0
-427,113,0,0,0,0,0,0,0,0,0,-1,797,911,0,0
-420,113,0,0,0,0,0,0,0,0,0,-1,804,911,0,0
-413,113,0,0,0,0,0,0,0,0,0,-1,811,911,0,0
-406,113,0,0,0,0,0,0,0,0,0,-1,818,911,0,0
-399,113,0,0,0,0,0,0,0,0,0,-1,825,911,0,0
-392,113,0,0,0,0,0,0,0,0,0,-1,832,911,0,0
-385,113,0,0,0,0,0,0,0,0,0,-1,839,911,0,0
-378,113,0,0,0,0,0,0,0,0,0,-1,846,911,0,0
-371,113,0,0,0,0,0,0,0,0,0,-1,853,911,0,0
-364,113,0,0,0,0,0,0,0,0,0,-1,860,911,0,0
-357,113,0,0,0,0,0,0,0,0,0,-1,867,911,0,0
-350,113,0,0,0,0,0,0,0,0,0,-1,874,911,0,0
-343,113,0,0,0,0,0,0,0,0,0,-1,881,911,0,0
-336,113,0,0,0,0,0,0,0,0,0,-1,888,911,0,0
-329,113,0,0,0,0,0,0,0,0,0,-1,895,911,0,0
-322,113,0,0,0,0,0,0,0,0,0,-1,902,911,0,0
-315,113,0,0,0,0,0,0,0,0,0,-1,909,911,0,0
-308,113,0,0,0,0,0,0,0,0,0,-1,916,911,0,0
-301,113,0,0,0,0,0,0,0,0,0,-1,923,911,0,0
-294,113,0,0,0,0,0,0,0,0,0,-1,930,911,0,0
-287,113,0,0,0,0,0,0,0,0,0,-1,937,911,0,0
-280,113,0,0,0,0,0,0,0,0,0,-1,944,911,0,0
-273,113,0,0,0,0,0,0,0,0,0,-1,951,911,0,0
-266,113,0,0,0,0,0,0,0,0,0,-1,958,911,0,0
-259,113,0,0,0,0,0,0,0,0,0,-1,965,911,0,0
-252,113,0,0,0,0,0,0,0,0,0,-1,972,911,0,0
-245,113,0,0,0,0,0,0,0,0,0,-1,979,911,0,0
-238,113,0,0,0,0,0,0,0,0,0,-1,986,911,0,0
-231,113,0,0,0,0,0,0,0,0,0,-1,993,911,0,0
-224,113,0,0,0,0,0,0,0,0,0,-1,1000,911,0,0
-217,113,0,0,0,0,0,0,0,0,0,-1,1007,911,0,0
-210,113,0,0,0,0,0,0,0,0,0,-1,1014,911,0,0
-203,113,0,0,0,0,0,0,0,0,0,-1,1021,911,0,0
-196,113,0,0,0,0,0,0,0,0,0,-1,1028,911,0,0
-189,113,0,0,0,0,0,0,0,0,0,-1,1035,911,0,0
-182,113,0,0,0,0,0,0,0,0,0,-1,1042,911,0,0
-175,113,0,0,0,0,0,0,0,0,0,-1,1049,911,0,0
-168,113,0,0,0,0,0,0,0,0,0,-1,1056,911,0,0
-161,113,0,0,0,0,0,0,0,0,0,-1,1063,911,0,0
-154,113,0,0,0,0,0,0,0,0,0,-1,1070,911,0,0
-147,113,0,0,0,0,0,0,0,0,0,-1,1077,911,0,0
-140,113,0,0,0,0,0,0,0,0,0,-1,1084,911,0,0
-133,113,0,0,0,0,0,0,0,0,0,-1,1091,911,0,0
-126,113,0,0,0,0,0,0,0,0,0,-1,1098,911,0,0
-119,113,0,0,0,0,0,0,0,0,0,-1,1105,911,0,0
-112,113,0,0,0,0,0,0,0,0,0,-1,1112,911,0,0
-105,113,0,0,0,0,0,0,0,0,0,-1,1119,911,0,0
-98,113,0,0,0,0,0,0,0,0,0,-1,1126,911,0,0
-91,113,0,0,0,0,0,0,0,0,0,-1,1133,911,0,0
-84,113,0,0,0,0,0,0,0,0,0,-1,1140,911,0,0
-77,113,0,0,0,0,0,0,0,0,0,-1,1147,911,0,0
-70,113,0,0,0,0,0,0,0,0,0,-1,1154,911,0,0
-63,113,0,0,0,0,0,0,0,0,0,-1,1161,911,0,0
-56,113,0,0,0,0,0,0,0,0,0,-1,1168,911,0,0
-49,113,0,0,0,0,0,0,0,0,0,-1,1175,911,0,0
-42,113,0,0,0,0,0,0,0,0,0,-1,1182,911,0,0
-35,113,0,0,0,0,0,0,0,0,0,-1,1189,911,0,0
-28,113,0,0,0,0,0,0,0,0,0,-1,1196,911,0,0
-21,113,0,0,0,0,0,0,0,0,0,-1,1203,911,0,0
-14,113,0,0,0,0,0,0,0,0,0,-1,1210,911,0,0
-7,113,0,0,0,0,0,0,0,0,0,-1,1217,911,0,0
0,113,0,0,0,0,0,0,0,0,0,-1,1224,911,0,0
7,113,0,0,0,0,0,0,0,0,0,-1,1231,911,0,0
14,113,0,0,0,0,0,0,0,0,0,-1,1238,911,0,0
21,113,0,0,0,0,0,0,0,0,0,-1,1245,911,0,0
28,113,0,0,0,0,0,0,0,0,0,-1,1252,911,0,0
35,113,0,0,0,0,0,0,0,0,0,-1,1259,911,0,0
42,113,0,0,0,0,0,0,0,0,0,-1,1266,911,0,0
49,113,0,0,0,0,0,0,0,0,0,-1,1273,911,0,0
56,113,0,0,0,0,0,0,0,0,0,-1,1280,911,0,0
63,113,0,0,0,0,0,0,0,0,0,-1,1287,911,0,0
70,113,0,0,0,0,0,0,0,0,0,-1,1294,911,0,0
77,113,0,0,0,0,0,0,0,0,0,-1,1301,911,0,0
84,113,0,0,0,0,0,0,0,0,0,-1,1308,911,0,0
91,113,0,0,0,0,0,0,0,0,0,-1,1315,911,0,0
98,113,0,0,0,0,0,0,0,0,0,-1,1322,911,0,0
105,113,0,0,0,0,0,0,0,0,0,-1,1329,911,0,0
112,113,0,0,0,0,0,0,0,0,0,-1,1336,911,0,0
119,113,0,0,0,0,0,0,0,0,0,-1,1343,911,0,0
126,113,0,0,0,0,0,0,0,0,0,-1,1350,911,0,0
133,113,0,0,0,0,0,0,0,0,0,-1,1357,911,0,0
140,113,0,0,0,0,0,0,0,0,0,-1,1364,911,0,0
147,113,0,0,0,0,0,0,0,0,0,-1,1371,911,0,0
154,113,0,0,0,0,0,0,0,0,0,-1,1378,911,0,0
161,113,0,0,0,0,0,0,0,0,0,-1,1385,911,0,0
168,113,0,0,0,0,0,0,0,0,0,-1,1392,911,0,0
175,113,0,0,0,0,0,0,0,0,0,-1,1399,911,0,0
182,113,0,0,0,0,0,0,0,0,0,-1,1406,911,0,0
189,113,0,0,0,0,0,0,0,0,0,-1,1413,911,0,0
196,113,0,0,0,0,0,0,0,0,0,-1,1420,911,0,0
203,113,0,0,0,0,0,0,0,0,0,-1,1427,911,0,0
210,113,0,0,0,0,0,0,0,0,0,-1,1434,911,0,0
217,113,0,0,0,0,0,0,0,0,0,-1,1441,911,0,0
224,113,0,0,0,0,0,0,0,0,0,-1,1448,911,0,0
231,113,0,0,0,0,0,0,0,0,0,-1,1455,911,0,0
238,113,0,0,0,0,0,0,0,0,0,-1,1462,911,0,0
245,113,0,0,0,0,0,0,0,0,0,-1,1469,911,0,0
252,113,0,0,0,0,0,0,0,0,0,-1,1476,911,0,0
259,113,0,0,0,0,0,0,0,0,0,-1,1483,911,0,0
266,113,0,0,0,0,0,0,0,0,0,-1,1490,911,0,0
273,113,0,0,0,0,0,0,0,0,0,-1,1497,911,0,0
280,113,0,0,0,0,0,0,0,0,0,-1,1504,911,0,0
287,113,0,0,0,0,0,0,0,0,0,-1,1511,911,0,0
294,113,0,0,0,0,0,0,0,0,0,-1,1518,911,0,0
301,113,0,0,0,0,0,0,0,0,0,-1,1525,911,0,0
308,113,0,0,0,0,0,0,0,0,0,-1,1532,911,0,0
315,113,0,0,0,0,0,0,0,0,0,-1,1539,911,0,0
322,113,0,0,0,0,0,0,0,0,0,-1,1546,911,0,0
329,113,0,0,0,0,0,0,0,0,0,-1,1553,911,0,0
336,113,0,0,0,0,0,0,0,0,0,-1,1560,911,0,0
343,113,0,0,0,0,0,0,0,0,0,-1,1567,911,0,0
350,113,0,0,0,0,0,0,0,0,0,-1,1574,911,0,0
357,113,0,0,0,0,0,0,0,0,0,-1,1581,911,0,0
364,113,0,0,0,0,0,0,0,0,0,-1,1588,911,0,0
371,113,0,0,0,0,0,0,0,0,0,-1,1595,911,0,0
378,113,0,0,0,0,0,0,0,0,0,-1,1602,911,0,0
385,113,0,0,0,0,0,0,0,0,0,-1,1609,911,0,0
392,113,0,0,0,0,0,0,0,0,0,-1,1616,911,0,0
399,113,0,0,0,0,0,0,0,0,0,-1,1623,911,0,0
406,113,0,0,0,0,0,0,0,0,0,-1,1630,911,0,0
413,113,0,0,0,0,0,0,0,0,0,-1,1637,911,0,0
420,113,0,0,0,0,0,0,0,0,0,-1,1644,911,0,0
427,113,0,0,0,0,0,0,0,0,0,-1,1651,911,0,0
434,113,0,0,0,0,0,0,0,0,0,-1,1658,911,0,0
441,113,0,0,0,0,0,0,0,0,0,-1,1665,911,0,0
448,113,0,0,0,0,0,0,0,0,0,-1,1672,911,0,0
455,113,0,0,0,0,0,0,0,0,0,-1,1679,911,0,0
462,113,0,0,0,0,0,0,0,0,0,-1,1686,911,0,0
469,113,0,0,0,0,0,0,0,0,0,-1,1693,911,0,0
476,113,0,0,0,0,0,0,0,0,0,-1,1700,911,0,0
483,113,0,0,0,0,0,0,0,0,0,-1,1707,911,0,0
490,113,0,0,0,0,0,0,0,0,0,-1,1714,911,0,0
497,113,0,0,0,0,0,0,0,0,0,-1,1721,911,0,0
504,113,0,0,0,0,0,0,0,0,0,-1,1728,911,0,0
511,113,0,0,0,0,0,0,0,0,0,-1,1735,911,0,0
518,113,0,0,0,0,0,0,0,0,0,-1,1742,911,0,0
525,113,0,0,0,0,0,0,0,0,0,-1,1749,911,0,0
532,113,0,0,0,0,0,0,0,0,0,-1,1756,911,0,0
539,113,0,0,0,0,0,0,0,0,0,-1,1763,911,0,0
546,113,0,0,0,0,0,0,0,0,0,-1,1770,911,0,0
553,113,0,0,0,0,0,0,0,0,0,-1,1777,911,0,0
560,113,0,0,0,0,0,0,0,0,0,-1,1784,911,0,0
567,113,0,0,0,0,0,0,0,0,0,-1,1791,911,0,0
574,113,0,0,0,0,0,0,0,0,0,-1,1798,911,0,0
581,113,0,0,0,0,0,0,0,0,0,-1,1805,911,0,0
588,113,0,0,0,0,0,0,0,0,0,-1,1812,911,0,0
595,113,0,0,0,0,0,0,0,0,0,-1,1819,911,0,0
602,113,0,0,0,0,0,0,0,0,0,-1,1826,911,0,0
609,113,0,0,0,0,0,0,0,0,0,-1,1833,911,0,0
616,113,0,0,0,0,0,0,0,0,0,-1,1840,911,0,0
623,113,0,0,0,0,0,0,0,0,0,-1,1847,911,0,0
630,113,25.0161,2.73383,0.00830767,-0.000336751,0.0027018,0.00908264,-0.00111172,0.279335,0.00645765,0.0411604,1854,911,25.0161,-2.73384
637,113,24.9652,2.79559,0.00570038,0.000247586,0.00188664,0.0062895,-0.000341532,0.302665,0.00431135,0.04107,1861,911,24.9652,-2.7956
644,113,24.8608,3.02258,0.00354813,0.000475977,0.00122238,0.00397515,4.89606e-05,0.336081,0.00263393,0.0398033,1868,911,24.8609,-3.0226
651,113,25.1284,2.85938,0.00121517,0.000500998,0.000605892,0.00156138,0.000154795,0.519119,0.000993347,0.0420033,1875,911,25.1284,-2.85939
658,113,25.0916,2.8175,-0.000846467,0.000480041,0.000168448,0.000501098,-0.000867524,1.44644,0.000799558,0.0440603,1882,911,25.0915,-2.81751
665,113,24.981,2.81049,-0.00227382,0.000399487,-0.000124681,0.000405289,-0.00227962,-1.52429,0.0016713,0.0390462,1889,911,24.981,-2.81049
672,113,24.9188,2.80817,-0.00308826,0.000295691,-0.00024725,0.000313661,-0.00310623,-1.49824,0.0021829,0.035966,1896,911,24.9189,-2.80814
679,113,24.8829,2.73138,-0.0035212,0.000171643,-0.000300388,0.000195918,-0.00354548,-1.49016,0.00243159,0.0305532,1903,911,24.8829,-2.7314
686,113,24.8586,2.70203,-0.00377897,0.000249862,-0.000345233,0.000279231,-0.00380834,-1.48593,0.00263691,0.0258567,1910,911,24.8587,-2.702
693,113,24.5231,2.90051,0,0,0,0,0,0,0,-1,1917,911,24.5231,-2.90052
700,113,22.7734,3.15558,0,0,0,0,0,0,0,-1,1924,911,22.7734,-3.15558
707,113,22.3713,3.32336,0,0,0,0,0,0,0,-1,1931,911,22.3713,-3.32338
714,113,22.3423,3.42908,-0.00256831,0.000137848,-0.000396625,0.000194781,-0.00262525,-1.42823,0.00181857,0.0178024,1938,911,22.3423,-3.42908
721,113,22.3822,3.64087,-0.00133034,0.000426056,-0.000570309,0.00059499,-0.00149927,-1.28282,0.00124613,0.0163925,1945,911,22.3822,-3.64085
728,113,22.4261,3.90424,0.000258153,0.000583332,-0.000534652,0.00097957,-0.000138085,-0.933007,0.000703606,0.0171435,1952,911,22.4262,-3.90424
735,113,22.3898,4.10608,0.00106832,0.00212113,-0.000119867,0.0021346,0.00105484,-1.45885,0.00123244,0.0156739,1959,911,22.3897,-4.10607
742,113,22.379,4.28296,0.00118954,0.00482666,0.000338619,0.00485792,0.00115828,1.47875,0.00292986,0.0120085,1966,911,22.379,-4.28294
749,113,22.3893,4.4588,0.00184394,0.00794279,0.000917658,0.00807788,0.00170886,1.42464,0.00491566,0.00940355,1973,911,22.3892,-4.45878
756,113,22.3859,4.62537,0.00162117,0.0123077,0.00186585,0.0126241,0.00130476,1.40282,0.00801663,0.01046,1980,911,22.3859,-4.62539
763,113,22.3217,4.79633,0.000257267,0.0182588,0.00333241,0.0188559,-0.000339818,1.3935,0.0126854,0.0202366,1987,911,22.3217,-4.7963
770,113,22.201,4.55762,-0.00243402,0.0259279,0.00538958,0.0269176,-0.00342367,1.3892,0.0191884,0.0431423,1994,911,22.2011,-4.55764
777,113,22.1044,4.258,0,0,0,0,0,0,0,-1,2001,911,22.1043,-4.25798
784,113,25.0101,8.59186,0,0,0,0,0,0,0,-1,2008,911,25.0101,-8.59185
791,113,24.2561,8.25006,0,0,0,0,0,0,0,-1,2015,911,24.2561,-8.25007
798,113,23.5006,8.06836,0,0,0,0,0,0,0,-1,2022,911,23.5006,-8.06834
805,113,0,0,0,0,0,0,0,0,0,-1,2029,911,0,0
812,113,0,0,0,0,0,0,0,0,0,-1,2036,911,0,0
-700,106,0,0,0,0,0,0,0,0,0,-1,524,918,0,0
-693,106,0,0,0,0,0,0,0,0,0,-1,531,918,0,0
-686,106,0,0,0,0,0,0,0,0,0,-1,538,918,0,0
-679,106,-15.6254,2.58264,-0.0483962,0.0289592,-0.0119135,0.0307524,-0.0501894,-1.4214,0.0471788,0.0441122,545,918,-15.6254,-2.58263
-672,106,-16.2554,2.91797,-0.0316263,0.0168158,-0.00627566,0.0176156,-0.0324261,-1.44403,0.0293103,0.0483017,552,918,-16.2554,-2.91795
-665,106,-16.2665,1.44,0,0,0,0,0,0,0,-1,559,918,-16.2665,-1.44
-658,106,-16.5024,1.66284,-0.0105096,0.00415765,0.00103047,0.00422969,-0.0105816,1.501,0.00880954,0.0450645,566,918,-16.5024,-1.66287
-651,106,-16.7662,1.698,-0.0043543,0.00129185,0.00310299,0.00266381,-0.00572626,1.1545,0.0049504,0.0440987,573,918,-16.7662,-1.69802
-644,106,-15.8234,2.41266,-0.000376866,-0.00022888,0.00437189,0.00406964,-0.00467539,0.79386,0.00505298,0.0429691,580,918,-15.8234,-2.41263
-637,106,-15.4967,2.27271,0.00185606,-0.000896138,0.00494351,0.00561142,-0.0046515,0.649652,0.00593394,0.0286164,587,918,-15.4967,-2.27269
-630,106,-15.5442,2.27924,0.00295162,-0.00168781,0.00505935,0.0061977,-0.0049339,0.570448,0.00644062,0.0116746,594,918,-15.5442,-2.27922
-623,106,-15.5684,2.11609,0.00326119,-0.0016744,0.00490757,0.00628651,-0.00469971,0.552434,0.00636492,0.0105686,601,918,-15.5684,-2.11607
-616,106,-15.5782,1.9292,0.0025361,-0.00199814,0.00462201,0.00541707,-0.0048791,0.557387,0.0059472,0.0107943,608,918,-15.5783,-1.92922
-609,106,-15.5889,1.79071,0.000325494,-0.000953652,0.00358735,0.00332984,-0.003958,0.697182,0.00421284,0.0107732,615,918,-15.5889,-1.79069
-602,106,-15.6022,1.64789,-0.00217217,-0.000502371,0.00235903,0.00116515,-0.00383969,0.955478,0.00302395,0.0144134,622,918,-15.6022,-1.64787
-595,106,-15.6567,1.49231,-0.00463385,5.15828e-05,0.00146383,0.000471315,-0.00505358,1.29155,0.00353664,0.0181968,629,918,-15.6567,-1.49233
-588,106,-15.6177,1.28052,-0.00611037,-0.000321995,0.000635068,-0.000253138,-0.00617923,1.46279,0.00403775,0.0199581,636,918,-15.6177,-1.28053
-581,106,-15.5123,1.08588,-0.00689722,-0.000327153,5.78424e-06,-0.000327148,-0.00689723,1.56992,0.00449307,0.0149931,643,918,-15.5123,-1.08586
-574,106,-15.5673,0.948242,-0.00734184,-0.000361287,-0.000254318,-0.000352034,-0.00735109,-1.53443,0.0047877,0.0240578,650,918,-15.5673,-0.948215
-567,106,-16.3516,0.883667,-0.00752407,-0.000236581,-0.000247047,-0.000228216,-0.00753244,-1.53695,0.00494731,0.0450558,657,918,-16.3516,-0.883671
-560,106,-17.1371,0.879517,0,0,0,0,0,0,0,-1,664,918,-17.1371,-0.879533
-553,106,-17.2332,0.682007,-0.00690646,0.000195346,-1.80797e-06,0.000195346,-0.00690646,-1.57054,0.00467079,0.0359396,671,918,-17.2332,-0.681984
-546,106,-17.225,0.476929,-0.00625752,0.000608897,0.000309673,0.000622835,-0.00627146,1.52582,0.00440329,0.0374367,678,918,-17.2251,-0.47692
-539,106,-17.0436,0.727905,-0.00536615,0.00117829,0.000764563,0.00126642,-0.00545429,1.45603,0.00412367,0.0391628,685,918,-17.0436,-0.7279
-532,106,-16.893,0.914795,-0.00434482,0.00193582,0.00138502,0.00222768,-0.00463669,1.36311,0.00404368,0.0418517,692,918,-16.893,-0.914787
-525,106,-16.9274,0.866516,-0.00343131,0.00292473,0.00208776,0.00354915,-0.00405573,1.28018,0.00439392,0.039163,699,918,-16.9274,-0.866538
-518,106,-17.1546,0.824524,-0.00389362,0.00430037,0.00289343,0.00521909,-0.00481234,1.26335,0.00579323,0.0393374,706,918,-17.1546,-0.824521
-511,106,0,0,0,0,0,0,0,0,0,-1,713,918,0,0
-504,106,0,0,0,0,0,0,0,0,0,-1,720,918,0,0
-497,106,0,0,0,0,0,0,0,0,0,-1,727,918,0,0
-490,106,0,0,0,0,0,0,0,0,0,-1,734,918,0,0
-483,106,0,0,0,0,0,0,0,0,0,-1,741,918,0,0
-476,106,0,0,0,0,0,0,0,0,0,-1,748,918,0,0
-469,106,0,0,0,0,0,0,0,0,0,-1,755,918,0,0
-462,106,0,0,0,0,0,0,0,0,0,-1,762,918,0,0
-455,106,0,0,0,0,0,0,0,0,0,-1,769,918,0,0
-448,106,0,0,0,0,0,0,0,0,0,-1,776,918,0,0
-441,106,0,0,0,0,0,0,0,0,0,-1,783,918,0,0
-434,106,0,0,0,0,0,0,0,0,0,-1,790,918,0,0
-427,106,0,0,0,0,0,0,0,0,0,-1,797,918,0,0
-420,106,0,0,0,0,0,0,0,0,0,-1,804,918,0,0
-413,106,0,0,0,0,0,0,0,0,0,-1,811,918,0,0
-406,106,0,0,0,0,0,0,0,0,0,-1,818,918,0,0
-399,106,0,0,0,0,0,0,0,0,0,-1,825,918,0,0
-392,106,0,0,0,0,0,0,0,0,0,-1,832,918,0,0
-385,106,0,0,0,0,0,0,0,0,0,-1,839,918,0,0
-378,106,0,0,0,0,0,0,0,0,0,-1,846,918,0,0
-371,106,0,0,0,0,0,0,0,0,0,-1,853,918,0,0
-364,106,0,0,0,0,0,0,0,0,0,-1,860,918,0,0
-357,106,0,0,0,0,0,0,0,0,0,-1,867,918,0,0
-350,106,0,0,0,0,0,0,0,0,0,-1,874,918,0,0
-343,106,0,0,0,0,0,0,0,0,0,-1,881,918,0,0
-336,106,0,0,0,0,0,0,0,0,0,-1,888,918,0,0
-329,106,0,0,0,0,0,0,0,0,0,-1,895,918,0,0
-322,106,0,0,0,0,0,0,0,0,0,-1,902,918,0,0
-315,106,0,0,0,0,0,0,0,0,0,-1,909,918,0,0
-308,106,0,0,0,0,0,0,0,0,0,-1,916,918,0,0
-301,106,0,0,0,0,0,0,0,0,0,-1,923,918,0,0
-294,106,0,0,0,0,0,0,0,0,0,-1,930,918,0,0
-287,106,0,0,0,0,0,0,0,0,0,-1,937,918,0,0
-280,106,0,0,0,0,0,0,0,0,0,-1,944,918,0,0
-273,106,0,0,0,0,0,0,0,0,0,-1,951,918,0,0
-266,106,0,0,0,0,0,0,0,0,0,-1,958,918,0,0
-259,106,0,0,0,0,0,0,0,0,0,-1,965,918,0,0
-252,106,0,0,0,0,0,0,0,0,0,-1,972,918,0,0
-245,106,0,0,0,0,0,0,0,0,0,-1,979,918,0,0
-238,106,0,0,0,0,0,0,0,0,0,-1,986,918,0,0
-231,106,0,0,0,0,0,0,0,0,0,-1,993,918,0,0
-224,106,0,0,0,0,0,0,0,0,0,-1,1000,918,0,0
-217,106,0,0,0,0,0,0,0,0,0,-1,1007,918,0,0
-210,106,0,0,0,0,0,0,0,0,0,-1,1014,918,0,0
-203,106,0,0,0,0,0,0,0,0,0,-1,1021,918,0,0
-196,106,0,0,0,0,0,0,0,0,0,-1,1028,918,0,0
-189,106,0,0,0,0,0,0,0,0,0,-1,1035,918,0,0
-182,106,0,0,0,0,0,0,0,0,0,-1,1042,918,0,0
-175,106,0,0,0,0,0,0,0,0,0,-1,1049,918,0,0
-168,106,0,0,0,0,0,0,0,0,0,-1,1056,918,0,0
-161,106,0,0,0,0,0,0,0,0,0,-1,1063,918,0,0
-154,106,0,0,0,0,0,0,0,0,0,-1,1070,918,0,0
-147,106,0,0,0,0,0,0,0,0,0,-1,1077,918,0,0
-140,106,0,0,0,0,0,0,0,0,0,-1,1084,918,0,0
-133,106,0,0,0,0,0,0,0,0,0,-1,1091,918,0,0
-126,106,0,0,0,0,0,0,0,0,0,-1,1098,918,0,0
-119,106,0,0,0,0,0,0,0,0,0,-1,1105,918,0,0
-112,106,0,0,0,0,0,0,0,0,0,-1,1112,918,0,0
-105,106,0,0,0,0,0,0,0,0,0,-1,1119,918,0,0
-98,106,0,0,0,0,0,0,0,0,0,-1,1126,918,0,0
-91,106,0,0,0,0,0,0,0,0,0,-1,1133,918,0,0
-84,106,0,0,0,0,0,0,0,0,0,-1,1140,918,0,0
-77,106,0,0,0,0,0,0,0,0,0,-1,1147,918,0,0
-70,106,0,0,0,0,0,0,0,0,0,-1,1154,918,0,0
-63,106,0,0,0,0,0,0,0,0,0,-1,1161,918,0,0
-56,106,0,0,0,0,0,0,0,0,0,-1,1168,918,0,0
-49,106,0,0,0,0,0,0,0,0,0,-1,1175,918,0,0
-42,106,0,0,0,0,0,0,0,0,0,-1,1182,918,0,0
-35,106,0,0,0,0,0,0,0,0,0,-1,1189,918,0,0
-28,106,0,0,0,0,0,0,0,0,0,-1,1196,918,0,0
-21,106,0,0,0,0,0,0,0,0,0,-1,1203,918,0,0
-14,106,0,0,0,0,0,0,0,0,0,-1,1210,918,0,0
-7,106,0,0,0,0,0,0,0,0,0,-1,1217,918,0,0
0,106,0,0,0,0,0,0,0,0,0,-1,1224,918,0,0
7,106,0,0,0,0,0,0,0,0,0,-1,1231,918,0,0
14,106,0,0,0,0,0,0,0,0,0,-1,1238,918,0,0
21,106,0,0,0,0,0,0,0,0,0,-1,1245,918,0,0
28,106,0,0,0,0,0,0,0,0,0,-1,1252,918,0,0
35,106,0,0,0,0,0,0,0,0,0,-1,1259,918,0,0
42,106,0,0,0,0,0,0,0,0,0,-1,1266,918,0,0
49,106,0,0,0,0,0,0,0,0,0,-1,1273,918,0,0
56,106,0,0,0,0,0,0,0,0,0,-1,1280,918,0,0
63,106,0,0,0,0,0,0,0,0,0,-1,1287,918,0,0
70,106,0,0,0,0,0,0,0,0,0,-1,1294,918,0,0
77,106,0,0,0,0,0,0,0,0,0,-1,1301,918,0,0
84,106,0,0,0,0,0,0,0,0,0,-1,1308,918,0,0
91,106,0,0,0,0,0,0,0,0,0,-1,1315,918,0,0
98,106,0,0,0,0,0,0,0,0,0,-1,1322,918,0,0
105,106,0,0,0,0,0,0,0,0,0,-1,1329,918,0,0
112,106,0,0,0,0,0,0,0,0,0,-1,1336,918,0,0
119,106,0,0,0,0,0,0,0,0,0,-1,1343,918,0,0
126,106,0,0,0,0,0,0,0,0,0,-1,1350,918,0,0
133,106,0,0,0,0,0,0,0,0,0,-1,1357,918,0,0
140,106,0,0,0,0,0,0,0,0,0,-1,1364,918,0,0
147,106,0,0,0,0,0,0,0,0,0,-1,1371,918,0,0
154,106,0,0,0,0,0,0,0,0,0,-1,1378,918,0,0
161,106,0,0,0,0,0,0,0,0,0,-1,1385,918,0,0
168,106,0,0,0,0,0,0,0,0,0,-1,1392,918,0,0
175,106,0,0,0,0,0,0,0,0,0,-1,1399,918,0,0
182,106,0,0,0,0,0,0,0,0,0,-1,1406,918,0,0
189,106,0,0,0,0,0,0,0,0,0,-1,1413,918,0,0
196,106,0,0,0,0,0,0,0,0,0,-1,1420,918,0,0
203,106,0,0,0,0,0,0,0,0,0,-1,1427,918,0,0
210,106,0,0,0,0,0,0,0,0,0,-1,1434,918,0,0
217,106,0,0,0,0,0,0,0,0,0,-1,1441,918,0,0
224,106,0,0,0,0,0,0,0,0,0,-1,1448,918,0,0
231,106,0,0,0,0,0,0,0,0,0,-1,1455,918,0,0
238,106,0,0,0,0,0,0,0,0,0,-1,1462,918,0,0
245,106,0,0,0,0,0,0,0,0,0,-1,1469,918,0,0
252,106,0,0,0,0,0,0,0,0,0,-1,1476,918,0,0
259,106,0,0,0,0,0,0,0,0,0,-1,1483,918,0,0
266,106,0,0,0,0,0,0,0,0,0,-1,1490,918,0,0
273,106,0,0,0,0,0,0,0,0,0,-1,1497,918,0,0
280,106,0,0,0,0,0,0,0,0,0,-1,1504,918,0,0
287,106,0,0,0,0,0,0,0,0,0,-1,1511,918,0,0
294,106,0,0,0,0,0,0,0,0,0,-1,1518,918,0,0
301,106,0,0,0,0,0,0,0,0,0,-1,1525,918,0,0
308,106,0,0,0,0,0,0,0,0,0,-1,1532,918,0,0
315,106,0,0,0,0,0,0,0,0,0,-1,1539,918,0,0
322,106,0,0,0,0,0,0,0,0,0,-1,1546,918,0,0
329,106,0,0,0,0,0,0,0,0,0,-1,1553,918,0,0
336,106,0,0,0,0,0,0,0,0,0,-1,1560,918,0,0
343,106,0,0,0,0,0,0,0,0,0,-1,1567,918,0,0
350,106,0,0,0,0,0,0,0,0,0,-1,1574,918,0,0
357,106,0,0,0,0,0,0,0,0,0,-1,1581,918,0,0
364,106,0,0,0,0,0,0,0,0,0,-1,1588,918,0,0
371,106,0,0,0,0,0,0,0,0,0,-1,1595,918,0,0
378,106,0,0,0,0,0,0,0,0,0,-1,1602,918,0,0
385,106,0,0,0,0,0,0,0,0,0,-1,1609,918,0,0
392,106,0,0,0,0,0,0,0,0,0,-1,1616,918,0,0
399,106,0,0,0,0,0,0,0,0,0,-1,1623,918,0,0
406,106,0,0,0,0,0,0,0,0,0,-1,1630,918,0,0
413,106,0,0,0,0,0,0,0,0,0,-1,1637,918,0,0
420,106,0,0,0,0,0,0,0,0,0,-1,1644,918,0,0
427,106,0,0,0,0,0,0,0,0,0,-1,1651,918,0,0
434,106,0,0,0,0,0,0,0,0,0,-1,1658,918,0,0
441,106,0,0,0,0,0,0,0,0,0,-1,1665,918,0,0
448,106,0,0,0,0,0,0,0,0,0,-1,1672,918,0,0
455,106,0,0,0,0,0,0,0,0,0,-1,1679,918,0,0
462,106,0,0,0,0,0,0,0,0,0,-1,1686,918,0,0
469,106,0,0,0,0,0,0,0,0,0,-1,1693,918,0,0
476,106,0,0,0,0,0,0,0,0,0,-1,1700,918,0,0
483,106,0,0,0,0,0,0,0,0,0,-1,1707,918,0,0
490,106,0,0,0,0,0,0,0,0,0,-1,1714,918,0,0
497,106,0,0,0,0,0,0,0,0,0,-1,1721,918,0,0
504,106,0,0,0,0,0,0,0,0,0,-1,1728,918,0,0
511,106,0,0,0,0,0,0,0,0,0,-1,1735,918,0,0
518,106,0,0,0,0,0,0,0,0,0,-1,1742,918,0,0
525,106,0,0,0,0,0,0,0,0,0,-1,1749,918,0,0
532,106,0,0,0,0,0,0,0,0,0,-1,1756,918,0,0
539,106,0,0,0,0,0,0,0,0,0,-1,1763,918,0,0
546,106,0,0,0,0,0,0,0,0,0,-1,1770,918,0,0
553,106,0,0,0,0,0,0,0,0,0,-1,1777,918,0,0
560,106,0,0,0,0,0,0,0,0,0,-1,1784,918,0,0
567,106,0,0,0,0,0,0,0,0,0,-1,1791,918,0,0
574,106,0,0,0,0,0,0,0,0,0,-1,1798,918,0,0
581,106,0,0,0,0,0,0,0,0,0,-1,1805,918,0,0
588,106,0,0,0,0,0,0,0,0,0,-1,1812,918,0,0
595,106,0,0,0,0,0,0,0,0,0,-1,1819,918,0,0
602,106,0,0,0,0,0,0,0,0,0,-1,1826,918,0,0
609,106,0,0,0,0,0,0,0,0,0,-1,1833,918,0,0
616,106,0,0,0,0,0,0,0,0,0,-1,1840,918,0,0
623,106,0,0,0,0,0,0,0,0,0,-1,1847,918,0,0
630,106,24.7719,3.18134,0.00936587,0.00046959,0.00168935,0.00967587,0.000159596,0.181481,0.00639804,0.0425533,1854,918,24.7718,-3.18134
637,106,24.8057,3.14185,0.00641825,0.00100029,0.00131248,0.00671945,0.000699094,0.225583,0.00426574,0.0411113,1861,918,24.8056,-3.14182
644,106,24.8943,3.08948,0.00407042,0.00113468,0.00101579,0.00438761,0.00081748,0.302673,0.00269424,0.0384258,1868,918,24.8942,-3.0895
651,106,25.1068,2.90302,0.00160168,0.00100732,0.000663777,0.00203177,0.000577233,0.574923,0.00120894,0.0400509,1875,918,25.1068,-2.90303
658,106,25.1498,2.80719,-0.000624166,0.000865714,0.00042095,0.000976422,-0.000734874,1.31362,0.000991293,0.0407895,1882,918,25.1498,-2.80719
665,106,24.9791,2.76984,-0.00222403,0.000685135,0.00025156,0.000706728,-0.00224562,1.48517,0.00178005,0.0394833,1889,918,24.9791,-2.76986
672,106,24.8759,2.77972,-0.00314868,0.000508424,0.000197778,0.000519089,-0.00315934,1.51693,0.00229888,0.0386327,1896,918,24.8758,-2.77975
679,106,24.9163,2.66077,-0.00362298,0.00032422,0.000189152,0.000333264,-0.00363202,1.52302,0.00253973,0.0337734,1903,918,24.9163,-2.66074
686,106,24.8632,2.66968,-0.00386425,0.000361003,0.000147683,0.000366159,-0.00386941,1.5359,0.00270992,0.0314823,1910,918,24.8632,-2.66967
693,106,24.8783,2.65448,-0.00405211,0.000213225,0.000149332,0.000218447,-0.00405734,1.53584,0.00278057,0.0264792,1917,918,24.8782,-2.6545
700,106,24.9677,2.52954,0,0,0,0,0,0,0,-1,1924,918,24.9677,-2.52956
707,106,22.478,3.28558,0,0,0,0,0,0,0,-1,1931,918,22.4781,-3.28558
714,106,22.5533,3.45209,-0.00266732,0.000175588,-6.70734e-05,0.000177169,-0.0026689,-1.54722,0.00184117,0.0209052,1938,918,22.5533,-3.45208
721,106,22.5806,3.66187,-0.00150397,0.000496542,-0.000271895,0.000532837,-0.00154027,-1.43809,0.00124312,0.0184946,1945,918,22.5805,-3.66188
728,106,22.6241,3.91089,-0.000106494,0.000715123,-0.000233004,0.000776601,-0.000167972,-1.31283,0.000581863,0.0178834,1952,918,22.6241,-3.91087
735,106,22.606,4.10529,0.000488343,0.00230385,0.000205118,0.00232673,0.000465457,1.45968,0.00142163,0.0164113,1959,918,22.6059,-4.10526
742,106,22.5835,4.26733,0.0003943,0.00500483,0.000703727,0.00510985,0.000289279,1.42265,0.00331435,0.0114732,1966,918,22.5835,-4.26734
749,106,22.5852,4.43823,0.000765491,0.00819796,0.00138871,0.00844895,0.000514494,1.39199,0.00546921,0.00912688,1973,918,22.5852,-4.43822
756,106,22.5753,4.60181,0.000247172,0.0127244,0.00253064,0.0132181,-0.000246557,1.37812,0.00889538,0.00965467,1980,918,22.5753,-4.60181
763,106,22.5433,4.79175,-0.00141397,0.0189205,0.00428464,0.0197864,-0.0022799,1.37138,0.0140129,0.0164828,1987,918,22.5433,-4.79175
770,106,22.6301,4.91553,-0.00434561,0.0268084,0.00668476,0.0281822,-0.00571939,1.36811,0.0209564,0.0373298,1994,918,22.6302,-4.91554
777,106,25.4722,7.97113,0,0,0,0,0,0,0,-1,2001,918,25.4722,-7.97113
784,106,24.7489,7.7771,-0.0161969,0.0494458,0.013821,0.0522371,-0.0189882,1.37152,0.0425893,0.0460107,2008,918,24.7489,-7.77711
791,106,24.0334,7.55371,-0.0266324,0.0650124,0.018564,0.06863,-0.03025,1.37834,0.0585043,0.044771,2015,918,24.0335,-7.55372
798,106,23.2542,7.34515,0,0,0,0,0,0,0,-1,2022,918,23.2542,-7.34514
805,106,0,0,0,0,0,0,0,0,0,-1,2029,918,0,0
812,106,0,0,0,0,0,0,0,0,0,-1,2036,918,0,0
-700,99,0,0,0,0,0,0,0,0,0,-1,524,925,0,0
-693,99,0,0,0,0,0,0,0,0,0,-1,531,925,0,0
-686,99,0,0,0,0,0,0,0,0,0,-1,538,925,0,0
-679,99,-15.8223,2.7384,-0.0519489,0.0391021,-0.010668,0.0403353,-0.0531821,-1.45571,0.0541618,0.0441574,545,925,-15.8223,-2.73839
-672,99,-15.4881,1.75806,-0.0354456,0.0253774,-0.00559361,0.0258875,-0.0359558,-1.47985,0.0358626,0.0488048,552,925,-15.4881,-1.75807
-665,99,-15.7219,1.33392,-0.0229205,0.0159652,-0.00169803,0.0160392,-0.0229945,-1.52724,0.0226551,0.0487578,559,925,-15.7219,-1.33391
-658,99,-16.5764,2.33185,0,0,0,0,0,0,0,-1,566,925,-16.5764,-2.33182
-651,99,-15.7418,2.44061,-0.00691934,0.00547696,0.00305475,0.00618885,-0.00763123,1.34184,0.0079935,0.0493675,573,925,-15.7418,-2.44061
-644,99,-15.6243,1.47815,-0.00244017,0.00289989,0.00421802,0.00522193,-0.00476221,1.06757,0.00576638,0.0413319,580,925,-15.6243,-1.47815
-637,99,-15.6389,2.21234,0.000289818,0.00126303,0.00468791,0.00548952,-0.00393668,0.837113,0.00546678,0.0273138,587,925,-15.6388,-2.21235
-630,99,-15.6993,2.25476,0.00175062,-0.000270715,0.00474298,0.00558942,-0.00410951,0.680425,0.00562136,0.0118757,594,925,-15.6993,-2.25477
-623,99,-15.7526,2.11652,0.00236557,-0.000801682,0.00465379,0.0056978,-0.00413391,0.6214,0.00570023,0.00731026,601,925,-15.7526,-2.1165
-616,99,-15.7618,1.94598,0.00157869,-0.00136647,0.00432447,0.00467443,-0.00446221,0.621295,0.00527552,0.00901085,608,925,-15.7618,-1.94599
-609,99,-15.7603,1.79138,-0.000584137,-0.000583667,0.00323287,0.00264897,-0.00381677,0.785434,0.00375324,0.010492,615,925,-15.7602,-1.7914
-602,99,-15.7624,1.66272,-0.00299852,-0.000357881,0.00203746,0.000749657,-0.00410605,1.07289,0.00301845,0.0115188,622,925,-15.7624,-1.66272
-595,99,-15.8091,1.51538,-0.00539392,3.83672e-06,0.00121115,0.00026314,-0.00565322,1.35988,0.00385952,0.0148196,629,925,-15.8091,-1.5154
-588,99,-15.7871,1.33832,-0.00684923,-0.000406432,0.000461492,-0.000373544,-0.00688212,1.49965,0.00446877,0.0154481,636,925,-15.7871,-1.33834
-581,99,-15.6957,1.13501,-0.00763278,-0.00048649,-0.000107929,-0.00048486,-0.00763441,-1.5557,0.00493593,0.0116006,643,925,-15.6957,-1.13502
-574,99,-15.8627,0.974609,-0.00807207,-0.000554077,-0.000344481,-0.000538325,-0.00808782,-1.5251,0.0052217,0.0208042,650,925,-15.8627,-0.974581
-567,99,-16.5017,0.636108,-0.00824792,-0.000403381,-0.000336828,-0.000388945,-0.00826236,-1.52796,0.00538328,0.0472469,657,925,-16.5017,-0.636103
-560,99,-17.0839,0.30072,0,0,0,0,0,0,0,-1,664,925,-17.0839,-0.300743
-553,99,-17.1414,0.811707,-0.00743874,0.000138432,-3.61359e-05,0.000138604,-0.00743891,-1.56603,0.00500611,0.0380315,671,925,-17.1414,-0.811714
-546,99,-17.1133,0.83075,-0.00658331,0.000645732,0.00029979,0.000658144,-0.00659572,1.52942,0.00463214,0.0391833,678,925,-17.1133,-0.830725
-539,99,-17.0499,0.772888,-0.00544801,0.00136199,0.000782284,0.0014507,-0.00553672,1.45788,0.0042579,0.0377029,685,925,-17.0499,-0.772917
-532,99,-16.8371,0.823181,-0.00417564,0.00233516,0.00142411,0.00263303,-0.00447351,1.36461,0.00414858,0.041027,692,925,-16.8371,-0.823182
-525,99,-16.9579,0.979919,-0.00315789,0.00365849,0.0021284,0.00426849,-0.00376789,1.29168,0.00464281,0.0419173,699,925,-16.9579,-0.979897
-518,99,-17.1809,0.925659,-0.00412622,0.0055696,0.00297586,0.00641009,-0.00496672,1.29553,0.006586,0.0403947,706,925,-17.1809,-0.925674
-511,99,0,0,0,0,0,0,0,0,0,-1,713,925,0,0
-504,99,0,0,0,0,0,0,0,0,0,-1,720,925,0,0
-497,99,0,0,0,0,0,0,0,0,0,-1,727,925,0,0
-490,99,0,0,0,0,0,0,0,0,0,-1,734,925,0,0
-483,99,0,0,0,0,0,0,0,0,0,-1,741,925,0,0
-476,99,0,0,0,0,0,0,0,0,0,-1,748,925,0,0
-469,99,0,0,0,0,0,0,0,0,0,-1,755,925,0,0
-462,99,0,0,0,0,0,0,0,0,0,-1,762,925,0,0
-455,99,0,0,0,0,0,0,0,0,0,-1,769,925,0,0
-448,99,0,0,0,0,0,0,0,0,0,-1,776,925,0,0
-441,99,0,0,0,0,0,0,0,0,0,-1,783,925,0,0
-434,99,0,0,0,0,0,0,0,0,0,-1,790,925,0,0
-427,99,0,0,0,0,0,0,0,0,0,-1,797,925,0,0
-420,99,0,0,0,0,0,0,0,0,0,-1,804,925,0,0
-413,99,0,0,0,0,0,0,0,0,0,-1,811,925,0,0
-406,99,0,0,0,0,0,0,0,0,0,-1,818,925,0,0
-399,99,0,0,0,0,0,0,0,0,0,-1,825,925,0,0
-392,99,0,0,0,0,0,0,0,0,0,-1,832,925,0,0
-385,99,0,0,0,0,0,0,0,0,0,-1,839,925,0,0
-378,99,0,0,0,0,0,0,0,0,0,-1,846,925,0,0
-371,99,0,0,0,0,0,0,0,0,0,-1,853,925,0,0
-364,99,0,0,0,0,0,0,0,0,0,-1,860,925,0,0
-357,99,0,0,0,0,0,0,0,0,0,-1,867,925,0,0
-350,99,0,0,0,0,0,0,0,0,0,-1,874,925,0,0
-343,99,0,0,0,0,0,0,0,0,0,-1,881,925,0,0
-336,99,0,0,0,0,0,0,0,0,0,-1,888,925,0,0
-329,99,0,0,0,0,0,0,0,0,0,-1,895,925,0,0
-322,99,0,0,0,0,0,0,0,0,0,-1,902,925,0,0
-315,99,0,0,0,0,0,0,0,0,0,-1,909,925,0,0
-308,99,0,0,0,0,0,0,0,0,0,-1,916,925,0,0
-301,99,0,0,0,0,0,0,0,0,0,-1,923,925,0,0
-294,99,0,0,0,0,0,0,0,0,0,-1,930,925,0,0
-287,99,0,0,0,0,0,0,0,0,0,-1,937,925,0,0
-280,99,0,0,0,0,0,0,0,0,0,-1,944,925,0,0
-273,99,0,0,0,0,0,0,0,0,0,-1,951,925,0,0
-266,99,0,0,0,0,0,0,0,0,0,-1,958,925,0,0
-259,99,0,0,0,0,0,0,0,0,0,-1,965,925,0,0
-252,99,0,0,0,0,0,0,0,0,0,-1,972,925,0,0
-245,99,0,0,0,0,0,0,0,0,0,-1,979,925,0,0
-238,99,0,0,0,0,0,0,0,0,0,-1,986,925,0,0
-231,99,0,0,0,0,0,0,0,0,0,-1,993,925,0,0
-224,99,0,0,0,0,0,0,0,0,0,-1,1000,925,0,0
-217,99,0,0,0,0,0,0,0,0,0,-1,1007,925,0,0
-210,99,0,0,0,0,0,0,0,0,0,-1,1014,925,0,0
-203,99,0,0,0,0,0,0,0,0,0,-1,1021,925,0,0
-196,99,0,0,0,0,0,0,0,0,0,-1,1028,925,0,0
-189,99,0,0,0,0,0,0,0,0,0,-1,1035,925,0,0
-182,99,0,0,0,0,0,0,0,0,0,-1,1042,925,0,0
-175,99,0,0,0,0,0,0,0,0,0,-1,1049,925,0,0
-168,99,0,0,0,0,0,0,0,0,0,-1,1056,925,0,0
-161,99,0,0,0,0,0,0,0,0,0,-1,1063,925,0,0
-154,99,0,0,0,0,0,0,0,0,0,-1,1070,925,0,0
-147,99,0,0,0,0,0,0,0,0,0,-1,1077,925,0,0
-140,99,0,0,0,0,0,0,0,0,0,-1,1084,925,0,0
-133,99,0,0,0,0,0,0,0,0,0,-1,1091,925,0,0
-126,99,0,0,0,0,0,0,0,0,0,-1,1098,925,0,0
-119,99,0,0,0,0,0,0,0,0,0,-1,1105,925,0,0
-112,99,0,0,0,0,0,0,0,0,0,-1,1112,925,0,0
-105,99,0,0,0,0,0,0,0,0,0,-1,1119,925,0,0
-98,99,0,0,0,0,0,0,0,0,0,-1,1126,925,0,0
-91,99,0,0,0,0,0,0,0,0,0,-1,1133,925,0,0
-84,99,0,0,0,0,0,0,0,0,0,-1,1140,925,0,0
-77,99,0,0,0,0,0,0,0,0,0,-1,1147,925,0,0
-70,99,0,0,0,0,0,0,0,0,0,-1,1154,925,0,0
-63,99,0,0,0,0,0,0,0,0,0,-1,1161,925,0,0
-56,99,0,0,0,0,0,0,0,0,0,-1,1168,925,0,0
-49,99,0,0,0,0,0,0,0,0,0,-1,1175,925,0,0
-42,99,0,0,0,0,0,0,0,0,0,-1,1182,925,0,0
-35,99,0,0,0,0,0,0,0,0,0,-1,1189,925,0,0
-28,99,0,0,0,0,0,0,0,0,0,-1,1196,925,0,0
-21,99,0,0,0,0,0,0,0,0,0,-1,1203,925,0,0
-14,99,0,0,0,0,0,0,0,0,0,-1,1210,925,0,0
-7,99,0,0,0,0,0,0,0,0,0,-1,1217,925,0,0
0,99,0,0,0,0,0,0,0,0,0,-1,1224,925,0,0
7,99,0,0,0,0,0,0,0,0,0,-1,1231,925,0,0
14,99,0,0,0,0,0,0,0,0,0,-1,1238,925,0,0
21,99,0,0,0,0,0,0,0,0,0,-1,1245,925,0,0
28,99,0,0,0,0,0,0,0,0,0,-1,1252,925,0,0
35,99,0,0,0,0,0,0,0,0,0,-1,1259,925,0,0
42,99,0,0,0,0,0,0,0,0,0,-1,1266,925,0,0
49,99,0,0,0,0,0,0,0,0,0,-1,1273,925,0,0
56,99,0,0,0,0,0,0,0,0,0,-1,1280,925,0,0
63,99,0,0,0,0,0,0,0,0,0,-1,1287,925,0,0
70,99,0,0,0,0,0,0,0,0,0,-1,1294,925,0,0
77,99,0,0,0,0,0,0,0,0,0,-1,1301,925,0,0
84,99,0,0,0,0,0,0,0,0,0,-1,1308,925,0,0
91,99,0,0,0,0,0,0,0,0,0,-1,1315,925,0,0
98,99,0,0,0,0,0,0,0,0,0,-1,1322,925,0,0
105,99,0,0,0,0,0,0,0,0,0,-1,1329,925,0,0
112,99,0,0,0,0,0,0,0,0,0,-1,1336,925,0,0
119,99,0,0,0,0,0,0,0,0,0,-1,1343,925,0,0
126,99,0,0,0,0,0,0,0,0,0,-1,1350,925,0,0
133,99,0,0,0,0,0,0,0,0,0,-1,1357,925,0,0
140,99,0,0,0,0,0,0,0,0,0,-1,1364,925,0,0
147,99,0,0,0,0,0,0,0,0,0,-1,1371,925,0,0
154,99,0,0,0,0,0,0,0,0,0,-1,1378,925,0,0
161,99,0,0,0,0,0,0,0,0,0,-1,1385,925,0,0
168,99,0,0,0,0,0,0,0,0,0,-1,1392,925,0,0
175,99,0,0,0,0,0,0,0,0,0,-1,1399,925,0,0
182,99,0,0,0,0,0,0,0,0,0,-1,1406,925,0,0
189,99,0,0,0,0,0,0,0,0,0,-1,1413,925,0,0
196,99,0,0,0,0,0,0,0,0,0,-1,1420,925,0,0
203,99,0,0,0,0,0,0,0,0,0,-1,1427,925,0,0
210,99,0,0,0,0,0,0,0,0,0,-1,1434,925,0,0
217,99,0,0,0,0,0,0,0,0,0,-1,1441,925,0,0
224,99,0,0,0,0,0,0,0,0,0,-1,1448,925,0,0
231,99,0,0,0,0,0,0,0,0,0,-1,1455,925,0,0
238,99,0,0,0,0,0,0,0,0,0,-1,1462,925,0,0
245,99,0,0,0,0,0,0,0,0,0,-1,1469,925,0,0
252,99,0,0,0,0,0,0,0,0,0,-1,1476,925,0,0
259,99,0,0,0,0,0,0,0,0,0,-1,1483,925,0,0
266,99,0,0,0,0,0,0,0,0,0,-1,1490,925,0,0
273,99,0,0,0,0,0,0,0,0,0,-1,1497,925,0,0
280,99,0,0,0,0,0,0,0,0,0,-1,1504,925,0,0
287,99,0,0,0,0,0,0,0,0,0,-1,1511,925,0,0
294,99,0,0,0,0,0,0,0,0,0,-1,1518,925,0,0
301,99,0,0,0,0,0,0,0,0,0,-1,1525,925,0,0
308,99,0,0,0,0,0,0,0,0,0,-1,1532,925,0,0
315,99,0,0,0,0,0,0,0,0,0,-1,1539,925,0,0
322,99,0,0,0,0,0,0,0,0,0,-1,1546,925,0,0
329,99,0,0,0,0,0,0,0,0,0,-1,1553,925,0,0
336,99,0,0,0,0,0,0,0,0,0,-1,1560,925,0,0
343,99,0,0,0,0,0,0,0,0,0,-1,1567,925,0,0
350,99,0,0,0,0,0,0,0,0,0,-1,1574,925,0,0
357,99,0,0,0,0,0,0,0,0,0,-1,1581,925,0,0
364,99,0,0,0,0,0,0,0,0,0,-1,1588,925,0,0
371,99,0,0,0,0,0,0,0,0,0,-1,1595,925,0,0
378,99,0,0,0,0,0,0,0,0,0,-1,1602,925,0,0
385,99,0,0,0,0,0,0,0,0,0,-1,1609,925,0,0
392,99,0,0,0,0,0,0,0,0,0,-1,1616,925,0,0
399,99,0,0,0,0,0,0,0,0,0,-1,1623,925,0,0
406,99,0,0,0,0,0,0,0,0,0,-1,1630,925,0,0
413,99,0,0,0,0,0,0,0,0,0,-1,1637,925,0,0
420,99,0,0,0,0,0,0,0,0,0,-1,1644,925,0,0
427,99,0,0,0,0,0,0,0,0,0,-1,1651,925,0,0
434,99,0,0,0,0,0,0,0,0,0,-1,1658,925,0,0
441,99,0,0,0,0,0,0,0,0,0,-1,1665,925,0,0
448,99,0,0,0,0,0,0,0,0,0,-1,1672,925,0,0
455,99,0,0,0,0,0,0,0,0,0,-1,1679,925,0,0
462,99,0,0,0,0,0,0,0,0,0,-1,1686,925,0,0
469,99,0,0,0,0,0,0,0,0,0,-1,1693,925,0,0
476,99,0,0,0,0,0,0,0,0,0,-1,1700,925,0,0
483,99,0,0,0,0,0,0,0,0,0,-1,1707,925,0,0
490,99,0,0,0,0,0,0,0,0,0,-1,1714,925,0,0
497,99,0,0,0,0,0,0,0,0,0,-1,1721,925,0,0
504,99,0,0,0,0,0,0,0,0,0,-1,1728,925,0,0
511,99,0,0,0,0,0,0,0,0,0,-1,1735,925,0,0
518,99,0,0,0,0,0,0,0,0,0,-1,1742,925,0,0
525,99,0,0,0,0,0,0,0,0,0,-1,1749,925,0,0
532,99,0,0,0,0,0,0,0,0,0,-1,1756,925,0,0
539,99,0,0,0,0,0,0,0,0,0,-1,1763,925,0,0
546,99,0,0,0,0,0,0,0,0,0,-1,1770,925,0,0
553,99,0,0,0,0,0,0,0,0,0,-1,1777,925,0,0
560,99,0,0,0,0,0,0,0,0,0,-1,1784,925,0,0
567,99,0,0,0,0,0,0,0,0,0,-1,1791,925,0,0
574,99,0,0,0,0,0,0,0,0,0,-1,1798,925,0,0
581,99,0,0,0,0,0,0,0,0,0,-1,1805,925,0,0
588,99,0,0,0,0,0,0,0,0,0,-1,1812,925,0,0
595,99,0,0,0,0,0,0,0,0,0,-1,1819,925,0,0
602,99,0,0,0,0,0,0,0,0,0,-1,1826,925,0,0
609,99,0,0,0,0,0,0,0,0,0,-1,1833,925,0,0
616,99,0,0,0,0,0,0,0,0,0,-1,1840,925,0,0
623,99,0,0,0,0,0,0,0,0,0,-1,1847,925,0,0
630,99,0,0,0,0,0,0,0,0,0,-1,1854,925,0,0
637,99,24.803,2.7984,0.00721654,0.00184558,0.000788003,0.00732977,0.00173236,0.14271,0.00442361,0.0415526,1861,925,24.803,-2.79838
644,99,24.9452,2.97797,0.00458238,0.00188789,0.000863084,0.00483513,0.00163514,0.284879,0.00283988,0.0385301,1868,925,24.9452,-2.97797
651,99,25.0011,2.86224,0.00200271,0.00160881,0.000765404,0.0025961,0.00101543,0.659472,0.00151066,0.0393024,1875,925,25.0011,-2.86225
658,99,24.9471,2.95367,-0.0003128,0.00135004,0.000712137,0.00161333,-0.000576094,1.21666,0.0013105,0.0394285,1882,925,24.9471,-2.95367
665,99,24.9094,2.86298,-0.00203516,0.0011239,0.000691428,0.0012686,-0.00217986,1.36449,0.00201401,0.0381185,1889,925,24.9094,-2.86297
672,99,24.9583,2.81555,-0.00307105,0.000900907,0.000721286,0.00102783,-0.00319797,1.39661,0.00254475,0.0386458,1896,925,24.9583,-2.81554
679,99,24.9677,2.69403,-0.0035903,0.00070561,0.000756641,0.000834981,-0.00371967,1.40145,0.00279992,0.035885,1903,925,24.9676,-2.69406
686,99,24.8702,2.6554,-0.00382236,0.000733215,0.000718445,0.000843833,-0.00393298,1.41803,0.00294385,0.0311599,1910,925,24.8703,-2.65539
693,99,24.8297,2.70966,-0.00399689,0.000569606,0.000730473,0.000683609,-0.00411089,1.41598,0.00299459,0.0264962,1917,925,24.8297,-2.70968
700,99,24.7621,2.95593,0,0,0,0,0,0,0,-1,1924,925,24.7621,-2.95593
707,99,22.8219,3.29041,0,0,0,0,0,0,0,-1,1931,925,22.8219,-3.29043
714,99,22.8247,3.50067,-0.00270909,0.000506242,0.00035518,0.000545009,-0.00274786,1.46208,0.00203801,0.0211085,1938,925,22.8247,-3.50065
721,99,22.748,3.6651,-0.00168751,0.000823513,0.000113964,0.000828675,-0.00169267,1.52553,0.00148391,0.0215357,1945,925,22.7481,-3.66511
728,99,22.7999,3.87756,-0.000528134,0.00105877,0.000133019,0.00106984,-0.000539206,1.48775,0.000945674,0.0167939,1952,925,22.8,-3.87755
735,99,22.7915,4.07611,-0.00017406,0.00263,0.000544842,0.00273214,-0.000276205,1.38547,0.00192013,0.014548,1959,925,22.7915,-4.07613
742,99,22.7767,4.24457,-0.000513856,0.00520421,0.00101843,0.00538018,-0.00068983,1.3997,0.00383745,0.0121916,1966,925,22.7767,-4.24457
749,99,22.7675,4.41754,-0.000488578,0.00828464,0.00172044,0.00860996,-0.000813893,1.38391,0.00602961,0.0104024,1973,925,22.7674,-4.41752
756,99,22.748,4.57574,-0.00137378,0.01274,0.00294097,0.0133283,-0.00196208,1.37336,0.00960656,0.0105942,1980,925,22.7481,-4.57575
763,99,22.7356,4.72192,-0.00339367,0.018935,0.00486089,0.0199473,-0.00440598,1.36548,0.0149844,0.013056,1987,925,22.7356,-4.72191
770,99,22.7999,4.88354,-0.00662105,0.0268484,0.00749758,0.0284512,-0.00822384,1.36019,0.0222219,0.0262837,1994,925,22.7999,-4.88355
777,99,22.9934,5.07056,-0.0114306,0.0367389,0.0108683,0.0390775,-0.0137692,1.35885,0.0316559,0.0396703,2001,925,22.9934,-5.07053
784,99,24.2848,6.9613,-0.0184104,0.0491206,0.0151134,0.0523487,-0.0216384,1.36037,0.043926,0.0438435,2008,925,24.2848,-6.96133
791,99,23.5699,6.86566,-0.028189,0.0642502,0.020118,0.0684388,-0.0323776,1.36553,0.0594346,0.0462283,2015,925,23.57,-6.86564
798,99,22.8713,6.75085,0,0,0,0,0,0,0,-1,2022,925,22.8713,-6.75087
805,99,0,0,0,0,0,0,0,0,0,-1,2029,925,0,0
812,99,0,0,0,0,0,0,0,0,0,-1,2036,925,0,0
-700,92,0,0,0,0,0,0,0,0,0,-1,524,932,0,0
-693,92,0,0,0,0,0,0,0,0,0,-1,531,932,0,0
-686,92,-15.5171,3.40405,-0.0755212,0.0674022,-0.0128786,0.0685534,-0.0766724,-1.48164,0.0838898,0.041778,538,932,-15.5171,-3.40407
-679,92,-15.6402,2.80878,-0.0562221,0.047295,-0.00828425,0.0479538,-0.0568808,-1.49144,0.0605994,0.0478132,545,932,-15.6402,-2.80877
-672,92,-15.9754,2.10577,0,0,0,0,0,0,0,-1,552,932,-15.9754,-2.10576
-665,92,-16.0942,1.62054,-0.0272026,0.0214749,-0.000781431,0.0214874,-0.0272151,-1.55475,0.0281832,0.0475276,559,932,-16.0942,-1.62052
-658,92,-15.7992,2.47467,-0.0173375,0.0137935,0.00165844,0.0138816,-0.0174256,1.51772,0.0181138,0.0480845,566,932,-15.7992,-2.47467
-651,92,-15.8821,2.3703,-0.0100326,0.00849763,0.00331852,0.009074,-0.010609,1.39883,0.0113755,0.0491125,573,932,-15.8822,-2.37032
-644,92,-15.8909,2.35223,-0.00493282,0.004987,0.00429742,0.00658975,-0.00653557,1.21382,0.00757793,0.0425032,580,932,-15.8909,-2.35224
-637,92,-15.8658,2.32654,-0.00159759,0.00252263,0.00457266,0.00547783,-0.00455279,0.997045,0.00579938,0.0238565,587,932,-15.8659,-2.32653
-630,92,-15.8831,2.22607,0.000323453,0.000402568,0.00451321,0.0048764,-0.00415037,0.78978,0.00521722,0.0114674,594,932,-15.8831,-2.22608
-623,92,-15.9167,2.09161,0.00136458,-0.000561532,0.00446662,0.00497078,-0.00416774,0.679218,0.00528291,0.0078916,601,932,-15.9167,-2.09162
-616,92,-15.9274,1.94183,0.000585737,-0.00117606,0.00404696,0.00384656,-0.00443688,0.678235,0.00478649,0.00803311,608,932,-15.9274,-1.94183
-609,92,-15.9303,1.78888,-0.00141694,-0.000501212,0.00288828,0.00196527,-0.00388342,0.864007,0.00343675,0.00899007,615,932,-15.9303,-1.78885
-602,92,-15.9133,1.6358,-0.00368297,-0.000385231,0.00170868,0.000340426,-0.00440862,1.16919,0.00305888,0.00918206,622,932,-15.9133,-1.63579
-595,92,-15.8706,1.46228,-0.00592588,-0.000129054,0.000909945,1.04264e-05,-0.00606536,1.4187,0.00404705,0.0148668,629,932,-15.8706,-1.46229
-588,92,-15.8689,1.32703,-0.00728463,-0.000469932,0.00019844,-0.000464158,-0.00729041,1.54171,0.00471318,0.0166362,636,932,-15.8689,-1.32701
-581,92,-15.8709,1.17615,-0.00801593,-0.000608684,-0.000330246,-0.000593989,-0.00803063,-1.52633,0.00516715,0.0148979,643,932,-15.8709,-1.17616
-574,92,-16.1788,1.04553,-0.00841805,-0.000691381,-0.000572553,-0.000649185,-0.00846025,-1.49723,0.00543671,0.0261754,650,932,-16.1788,-1.04552
-567,92,-16.8258,0.738464,-0.00855615,-0.000541579,-0.000583334,-0.000499344,-0.00859838,-1.49852,0.00557327,0.0478172,657,932,-16.8258,-0.738483
-560,92,-17.1198,0.685364,-0.00822795,-0.000289124,-0.000466116,-0.000261851,-0.00825523,-1.51235,0.00541831,0.036294,664,932,-17.1198,-0.685353
-553,92,-17.1863,0.89917,-0.00752908,3.41473e-05,-0.00027289,4.39808e-05,-0.00753892,-1.53478,0.00504067,0.0381176,671,932,-17.1863,-0.899167
-546,92,-17.1791,1.26208,0,0,0,0,0,0,0,-1,678,932,-17.1791,-1.26207
-539,92,-17.1097,0.874268,-0.00515341,0.00138303,0.000529476,0.00142564,-0.00519602,1.49049,0.0040243,0.0383046,685,932,-17.1098,-0.874243
-532,92,-16.9581,0.818787,-0.00372501,0.00249069,0.00114358,0.00269441,-0.00392873,1.3945,0.00384595,0.0421167,692,932,-16.9581,-0.818775
-525,92,-17.0109,1.01385,-0.00280918,0.00406065,0.00178617,0.0044973,-0.00324583,1.33104,0.00448992,0.0399167,699,932,-17.0108,-1.01383
-518,92,-17.1244,1.09052,-0.00454466,0.00640515,0.00259885,0.00699066,-0.00513016,1.3492,0.00702539,0.0401842,706,932,-17.1244,-1.09053
-511,92,0,0,0,0,0,0,0,0,0,-1,713,932,0,0
-504,92,0,0,0,0,0,0,0,0,0,-1,720,932,0,0
-497,92,0,0,0,0,0,0,0,0,0,-1,727,932,0,0
-490,92,0,0,0,0,0,0,0,0,0,-1,734,932,0,0
-483,92,0,0,0,0,0,0,0,0,0,-1,741,932,0,0
-476,92,0,0,0,0,0,0,0,0,0,-1,748,932,0,0
-469,92,0,0,0,0,0,0,0,0,0,-1,755,932,0,0
-462,92,0,0,0,0,0,0,0,0,0,-1,762,932,0,0
-455,92,0,0,0,0,0,0,0,0,0,-1,769,932,0,0
-448,92,0,0,0,0,0,0,0,0,0,-1,776,932,0,0
-441,92,0,0,0,0,0,0,0,0,0,-1,783,932,0,0
-434,92,0,0,0,0,0,0,0,0,0,-1,790,932,0,0
-427,92,0,0,0,0,0,0,0,0,0,-1,797,932,0,0
-420,92,0,0,0,0,0,0,0,0,0,-1,804,932,0,0
-413,92,0,0,0,0,0,0,0,0,0,-1,811,932,0,0
-406,92,0,0,0,0,0,0,0,0,0,-1,818,932,0,0
-399,92,0,0,0,0,0,0,0,0,0,-1,825,932,0,0
-392,92,0,0,0,0,0,0,0,0,0,-1,832,932,0,0
-385,92,0,0,0,0,0,0,0,0,0,-1,839,932,0,0
-378,92,0,0,0,0,0,0,0,0,0,-1,846,932,0,0
-371,92,0,0,0,0,0,0,0,0,0,-1,853,932,0,0
-364,92,0,0,0,0,0,0,0,0,0,-1,860,932,0,0
-357,92,0,0,0,0,0,0,0,0,0,-1,867,932,0,0
-350,92,0,0,0,0,0,0,0,0,0,-1,874,932,0,0
-343,92,0,0,0,0,0,0,0,0,0,-1,881,932,0,0
-336,92,0,0,0,0,0,0,0,0,0,-1,888,932,0,0
-329,92,0,0,0,0,0,0,0,0,0,-1,895,932,0,0
-322,92,0,0,0,0,0,0,0,0,0,-1,902,932,0,0
-315,92,0,0,0,0,0,0,0,0,0,-1,909,932,0,0
-308,92,0,0,0,0,0,0,0,0,0,-1,916,932,0,0
-301,92,0,0,0,0,0,0,0,0,0,-1,923,932,0,0
-294,92,0,0,0,0,0,0,0,0,0,-1,930,932,0,0
-287,92,0,0,0,0,0,0,0,0,0,-1,937,932,0,0
-280,92,0,0,0,0,0,0,0,0,0,-1,944,932,0,0
-273,92,0,0,0,0,0,0,0,0,0,-1,951,932,0,0
-266,92,0,0,0,0,0,0,0,0,0,-1,958,932,0,0
-259,92,0,0,0,0,0,0,0,0,0,-1,965,932,0,0
-252,92,0,0,0,0,0,0,0,0,0,-1,972,932,0,0
-245,92,0,0,0,0,0,0,0,0,0,-1,979,932,0,0
-238,92,0,0,0,0,0,0,0,0,0,-1,986,932,0,0
-231,92,0,0,0,0,0,0,0,0,0,-1,993,932,0,0
-224,92,0,0,0,0,0,0,0,0,0,-1,1000,932,0,0
-217,92,0,0,0,0,0,0,0,0,0,-1,1007,932,0,0
-210,92,0,0,0,0,0,0,0,0,0,-1,1014,932,0,0
-203,92,0,0,0,0,0,0,0,0,0,-1,1021,932,0,0
-196,92,0,0,0,0,0,0,0,0,0,-1,1028,932,0,0
-189,92,0,0,0,0,0,0,0,0,0,-1,1035,932,0,0
-182,92,0,0,0,0,0,0,0,0,0,-1,1042,932,0,0
-175,92,0,0,0,0,0,0,0,0,0,-1,1049,932,0,0
-168,92,0,0,0,0,0,0,0,0,0,-1,1056,932,0,0
-161,92,0,0,0,0,0,0,0,0,0,-1,1063,932,0,0
-154,92,0,0,0,0,0,0,0,0,0,-1,1070,932,0,0
-147,92,0,0,0,0,0,0,0,0,0,-1,1077,932,0,0
-140,92,0,0,0,0,0,0,0,0,0,-1,1084,932,0,0
-133,92,0,0,0,0,0,0,0,0,0,-1,1091,932,0,0
-126,92,0,0,0,0,0,0,0,0,0,-1,1098,932,0,0
-119,92,0,0,0,0,0,0,0,0,0,-1,1105,932,0,0
-112,92,0,0,0,0,0,0,0,0,0,-1,1112,932,0,0
-105,92,0,0,0,0,0,0,0,0,0,-1,1119,932,0,0
-98,92,0,0,0,0,0,0,0,0,0,-1,1126,932,0,0
-91,92,0,0,0,0,0,0,0,0,0,-1,1133,932,0,0
-84,92,0,0,0,0,0,0,0,0,0,-1,1140,932,0,0
-77,92,0,0,0,0,0,0,0,0,0,-1,1147,932,0,0
-70,92,0,0,0,0,0,0,0,0,0,-1,1154,932,0,0
-63,92,0,0,0,0,0,0,0,0,0,-1,1161,932,0,0
-56,92,0,0,0,0,0,0,0,0,0,-1,1168,932,0,0
-49,92,0,0,0,0,0,0,0,0,0,-1,1175,932,0,0
-42,92,0,0,0,0,0,0,0,0,0,-1,1182,932,0,0
-35,92,0,0,0,0,0,0,0,0,0,-1,1189,932,0,0
-28,92,0,0,0,0,0,0,0,0,0,-1,1196,932,0,0
-21,92,0,0,0,0,0,0,0,0,0,-1,1203,932,0,0
-14,92,0,0,0,0,0,0,0,0,0,-1,1210,932,0,0
-7,92,0,0,0,0,0,0,0,0,0,-1,1217,932,0,0
0,92,0,0,0,0,0,0,0,0,0,-1,1224,932,0,0
7,92,0,0,0,0,0,0,0,0,0,-1,1231,932,0,0
14,92,0,0,0,0,0,0,0,0,0,-1,1238,932,0,0
21,92,0,0,0,0,0,0,0,0,0,-1,1245,932,0,0
28,92,0,0,0,0,0,0,0,0,0,-1,1252,932,0,0
35,92,0,0,0,0,0,0,0,0,0,-1,1259,932,0,0
42,92,0,0,0,0,0,0,0,0,0,-1,1266,932,0,0
49,92,0,0,0,0,0,0,0,0,0,-1,1273,932,0,0
56,92,0,0,0,0,0,0,0,0,0,-1,1280,932,0,0
63,92,0,0,0,0,0,0,0,0,0,-1,1287,932,0,0
70,92,0,0,0,0,0,0,0,0,0,-1,1294,932,0,0
77,92,0,0,0,0,0,0,0,0,0,-1,1301,932,0,0
84,92,0,0,0,0,0,0,0,0,0,-1,1308,932,0,0
91,92,0,0,0,0,0,0,0,0,0,-1,1315,932,0,0
98,92,0,0,0,0,0,0,0,0,0,-1,1322,932,0,0
105,92,0,0,0,0,0,0,0,0,0,-1,1329,932,0,0
112,92,0,0,0,0,0,0,0,0,0,-1,1336,932,0,0
119,92,0,0,0,0,0,0,0,0,0,-1,1343,932,0,0
126,92,0,0,0,0,0,0,0,0,0,-1,1350,932,0,0
133,92,0,0,0,0,0,0,0,0,0,-1,1357,932,0,0
140,92,0,0,0,0,0,0,0,0,0,-1,1364,932,0,0
147,92,0,0,0,0,0,0,0,0,0,-1,1371,932,0,0
154,92,0,0,0,0,0,0,0,0,0,-1,1378,932,0,0
161,92,0,0,0,0,0,0,0,0,0,-1,1385,932,0,0
168,92,0,0,0,0,0,0,0,0,0,-1,1392,932,0,0
175,92,0,0,0,0,0,0,0,0,0,-1,1399,932,0,0
182,92,0,0,0,0,0,0,0,0,0,-1,1406,932,0,0
189,92,0,0,0,0,0,0,0,0,0,-1,1413,932,0,0
196,92,0,0,0,0,0,0,0,0,0,-1,1420,932,0,0
203,92,0,0,0,0,0,0,0,0,0,-1,1427,932,0,0
210,92,0,0,0,0,0,0,0,0,0,-1,1434,932,0,0
217,92,0,0,0,0,0,0,0,0,0,-1,1441,932,0,0
224,92,0,0,0,0,0,0,0,0,0,-1,1448,932,0,0
231,92,0,0,0,0,0,0,0,0,0,-1,1455,932,0,0
238,92,0,0,0,0,0,0,0,0,0,-1,1462,932,0,0
245,92,0,0,0,0,0,0,0,0,0,-1,1469,932,0,0
252,92,0,0,0,0,0,0,0,0,0,-1,1476,932,0,0
259,92,0,0,0,0,0,0,0,0,0,-1,1483,932,0,0
266,92,0,0,0,0,0,0,0,0,0,-1,1490,932,0,0
273,92,0,0,0,0,0,0,0,0,0,-1,1497,932,0,0
280,92,0,0,0,0,0,0,0,0,0,-1,1504,932,0,0
287,92,0,0,0,0,0,0,0,0,0,-1,1511,932,0,0
294,92,0,0,0,0,0,0,0,0,0,-1,1518,932,0,0
301,92,0,0,0,0,0,0,0,0,0,-1,1525,932,0,0
308,92,0,0,0,0,0,0,0,0,0,-1,1532,932,0,0
315,92,0,0,0,0,0,0,0,0,0,-1,1539,932,0,0
322,92,0,0,0,0,0,0,0,0,0,-1,1546,932,0,0
329,92,0,0,0,0,0,0,0,0,0,-1,1553,932,0,0
336,92,0,0,0,0,0,0,0,0,0,-1,1560,932,0,0
343,92,0,0,0,0,0,0,0,0,0,-1,1567,932,0,0
350,92,0,0,0,0,0,0,0,0,0,-1,1574,932,0,0
357,92,0,0,0,0,0,0,0,0,0,-1,1581,932,0,0
364,92,0,0,0,0,0,0,0,0,0,-1,1588,932,0,0
371,92,0,0,0,0,0,0,0,0,0,-1,1595,932,0,0
378,92,0,0,0,0,0,0,0,0,0,-1,1602,932,0,0
385,92,0,0,0,0,0,0,0,0,0,-1,1609,932,0,0
392,92,0,0,0,0,0,0,0,0,0,-1,1616,932,0,0
399,92,0,0,0,0,0,0,0,0,0,-1,1623,932,0,0
406,92,0,0,0,0,0,0,0,0,0,-1,1630,932,0,0
413,92,0,0,0,0,0,0,0,0,0,-1,1637,932,0,0
420,92,0,0,0,0,0,0,0,0,0,-1,1644,932,0,0
427,92,0,0,0,0,0,0,0,0,0,-1,1651,932,0,0
434,92,0,0,0,0,0,0,0,0,0,-1,1658,932,0,0
441,92,0,0,0,0,0,0,0,0,0,-1,1665,932,0,0
448,92,0,0,0,0,0,0,0,0,0,-1,1672,932,0,0
455,92,0,0,0,0,0,0,0,0,0,-1,1679,932,0,0
462,92,0,0,0,0,0,0,0,0,0,-1,1686,932,0,0
469,92,0,0,0,0,0,0,0,0,0,-1,1693,932,0,0
476,92,0,0,0,0,0,0,0,0,0,-1,1700,932,0,0
483,92,0,0,0,0,0,0,0,0,0,-1,1707,932,0,0
490,92,0,0,0,0,0,0,0,0,0,-1,1714,932,0,0
497,92,0,0,0,0,0,0,0,0,0,-1,1721,932,0,0
504,92,0,0,0,0,0,0,0,0,0,-1,1728,932,0,0
511,92,0,0,0,0,0,0,0,0,0,-1,1735,932,0,0
518,92,0,0,0,0,0,0,0,0,0,-1,1742,932,0,0
525,92,0,0,0,0,0,0,0,0,0,-1,1749,932,0,0
532,92,0,0,0,0,0,0,0,0,0,-1,1756,932,0,0
539,92,0,0,0,0,0,0,0,0,0,-1,1763,932,0,0
546,92,0,0,0,0,0,0,0,0,0,-1,1770,932,0,0
553,92,0,0,0,0,0,0,0,0,0,-1,1777,932,0,0
560,92,0,0,0,0,0,0,0,0,0,-1,1784,932,0,0
567,92,0,0,0,0,0,0,0,0,0,-1,1791,932,0,0
574,92,0,0,0,0,0,0,0,0,0,-1,1798,932,0,0
581,92,0,0,0,0,0,0,0,0,0,-1,1805,932,0,0
588,92,0,0,0,0,0,0,0,0,0,-1,1812,932,0,0
595,92,0,0,0,0,0,0,0,0,0,-1,1819,932,0,0
602,92,0,0,0,0,0,0,0,0,0,-1,1826,932,0,0
609,92,0,0,0,0,0,0,0,0,0,-1,1833,932,0,0
616,92,0,0,0,0,0,0,0,0,0,-1,1840,932,0,0
623,92,0,0,0,0,0,0,0,0,0,-1,1847,932,0,0
630,92,0,0,0,0,0,0,0,0,0,-1,1854,932,0,0
637,92,24.5504,2.96991,0.00745938,0.00215236,-0.000114986,0.00746187,0.00214987,-0.0216532,0.00443518,0.0450346,1861,932,24.5504,-2.96989
644,92,25.0194,2.92426,0.0047193,0.00224538,0.00042143,0.00478912,0.00217556,0.164182,0.00276885,0.0402394,1868,932,25.0194,-2.92424
651,92,25.2466,2.49792,0.00216919,0.00195325,0.000636715,0.00270702,0.00141541,0.701411,0.00156344,0.0404326,1875,932,25.2466,-2.4979
658,92,24.92,3.04865,-0.000106933,0.00168039,0.00081908,0.00199896,-0.000425511,1.19986,0.00149481,0.0428048,1882,932,24.9201,-3.04862
665,92,24.7031,3.20917,-0.00185455,0.00146586,0.000981699,0.00173439,-0.00212308,1.30379,0.00223088,0.0422303,1889,932,24.7031,-3.20916
672,92,24.8114,3.18011,0,0,0,0,0,0,0,-1,1896,932,24.8114,-3.18012
679,92,24.9657,2.78723,-0.00350615,0.00106656,0.00120439,0.00136438,-0.00380397,1.32838,0.00309277,0.0355517,1903,932,24.9657,-2.78722
686,92,24.8945,2.70007,-0.00374004,0.00108101,0.00117981,0.00135425,-0.00401328,1.34321,0.0032232,0.0292668,1910,932,24.8945,-2.70006
693,92,24.8375,2.79004,-0.00390774,0.00089536,0.00120341,0.00118,-0.00419238,1.33853,0.00326023,0.0231662,1917,932,24.8375,-2.79003
700,92,24.8153,2.87177,-0.00391101,0.000789362,0.0012514,0.00110176,-0.00422342,1.32615,0.00324581,0.0419359,1924,932,24.8153,-2.87179
707,92,24.7551,2.98309,0,0,0,0,0,0,0,-1,1931,932,24.7552,-2.98309
714,92,23.031,3.474,0,0,0,0,0,0,0,-1,1938,932,23.031,-3.47401
721,92,22.9954,3.72845,-0.00182047,0.0010769,0.000403278,0.00113199,-0.00187555,1.43505,0.001754,0.0243985,1945,932,22.9954,-3.72847
728,92,22.9556,3.93359,-0.000876541,0.0012942,0.000369827,0.00135548,-0.000937819,1.4066,0.00133134,0.0179754,1952,932,22.9555,-3.93361
735,92,22.9558,4.08661,-0.00069552,0.00276737,0.000693064,0.00290093,-0.000829079,1.38042,0.00226155,0.0152169,1959,932,22.9558,-4.08659
742,92,22.9852,4.22858,-0.00116839,0.00509948,0.00107323,0.00527816,-0.00134707,1.40583,0.0040433,0.0166727,1966,932,22.9852,-4.22859
749,92,22.9541,4.40466,-0.00135133,0.00786222,0.00166401,0.00815353,-0.00164264,1.39748,0.00605793,0.015008,1973,932,22.9542,-4.40466
756,92,22.9044,4.58154,-0.00238486,0.0118898,0.00273857,0.0123971,-0.00289222,1.38761,0.00937867,0.0134852,1980,932,22.9044,-4.58156
763,92,22.9191,4.72375,-0.00448068,0.0175835,0.00450292,0.0184671,-0.00536427,1.37703,0.0144356,0.0155979,1987,932,22.919,-4.72377
770,92,22.9357,4.88647,-0.00766797,0.0249155,0.00700129,0.0263562,-0.00910866,1.36786,0.0212675,0.0249294,1994,932,22.9356,-4.88646
777,92,23.2117,5.15051,-0.0121652,0.0339265,0.0101444,0.0360604,-0.0142991,1.36347,0.0299663,0.0408291,2001,932,23.2117,-5.15054
784,92,23.464,5.45215,-0.0184435,0.0450806,0.0140843,0.0480633,-0.0214262,1.36211,0.0410905,0.0463739,2008,932,23.464,-5.45214
791,92,23.0334,6.15314,-0.0269013,0.0585511,0.018726,0.0624745,-0.0308248,1.36426,0.0548898,0.0451598,2015,932,23.0334,-6.15311
798,92,23.0668,5.54144,-0.0380522,0.0744702,0.0239301,0.079348,-0.0429299,1.36972,0.0716333,0.0481059,2022,932,23.0668,-5.54142
805,92,0,0,0,0,0,0,0,0,0,-1,2029,932,0,0
812,92,0,0,0,0,0,0,0,0,0,-1,2036,932,0,0
-700,85,0,0,0,0,0,0,0,0,0,-1,524,939,0,0
-693,85,0,0,0,0,0,0,0,0,0,-1,531,939,0,0
-686,85,-15.452,2.5976,-0.0817573,0.0754795,-0.00909805,0.0760042,-0.082282,-1.51319,0.0914105,0.0413425,538,939,-15.452,-2.59757
-679,85,-15.788,2.56439,-0.0627887,0.0550051,-0.00585651,0.0552955,-0.0630792,-1.52124,0.0683929,0.0452781,545,939,-15.7881,-2.5644
-672,85,-16.1595,2.26532,-0.0463158,0.0391019,-0.00277962,0.0391922,-0.0464062,-1.5383,0.0494787,0.0478369,552,939,-16.1595,-2.26532
-665,85,-16.3118,1.84332,-0.0327931,0.027095,-0.000260313,0.0270962,-0.0327942,-1.56645,0.0346299,0.0431586,559,939,-16.3117,-1.84331
-658,85,-16.4057,1.61176,-0.0220231,0.0182022,0.00165801,0.0182704,-0.0220913,1.52967,0.0233376,0.0456538,566,939,-16.4057,-1.61177
-651,85,-15.9199,2.28406,-0.0137999,0.0118054,0.00298754,0.0121494,-0.0141438,1.45617,0.015195,0.044138,573,939,-15.9199,-2.28403
-644,85,-15.9705,2.2973,-0.00785596,0.00737008,0.00376986,0.00825235,-0.00873823,1.3409,0.00981085,0.0329324,580,939,-15.9704,-2.29731
-637,85,-16.0107,2.3299,-0.00373158,0.00406176,0.00386632,0.0056544,-0.00532422,1.18005,0.00633946,0.0166421,587,939,-16.0107,-2.32991
-630,85,-16.0593,2.17926,-0.00122294,0.0013352,0.00371524,0.00398538,-0.00387312,0.951182,0.00453726,0.0107278,594,939,-16.0593,-2.17928
-623,85,-16.0856,2.04559,0.000269053,-6.54741e-05,0.00375706,0.00386257,-0.003659,0.763153,0.00434311,0.00930513,601,939,-16.0856,-2.04557
-616,85,-16.0906,1.92523,-0.000440576,-0.000745324,0.00332014,0.00273069,-0.00391659,0.762467,0.00385811,0.0091982,608,939,-16.0906,-1.92523
-609,85,-16.0856,1.78113,-0.00224625,-0.000251443,0.0021955,0.0011626,-0.00366029,0.998607,0.0029063,0.0112684,615,939,-16.0856,-1.78114
-602,85,-16.0845,1.62933,-0.00429533,-0.000278663,0.00112183,1.34178e-05,-0.00458741,1.31609,0.00306275,0.0149169,622,939,-16.0844,-1.62934
-595,85,-16.0452,1.48627,-0.00634286,-0.00018943,0.000396233,-0.000164021,-0.00636827,1.50676,0.00419191,0.0163944,629,939,-16.0451,-1.48625
-588,85,-16.0274,1.33722,-0.00757948,-0.000570842,-0.000221688,-0.000563836,-0.00758648,-1.53921,0.00488058,0.0153352,636,939,-16.0274,-1.33724
-581,85,-16.0391,1.22058,-0.00824915,-0.000787274,-0.000688414,-0.000724294,-0.00831212,-1.47956,0.00531646,0.0179345,643,939,-16.0391,-1.22059
-574,85,-16.3499,1.1156,-0.00861999,-0.000922149,-0.000911423,-0.000815708,-0.00872643,-1.45454,0.00556568,0.0308929,650,939,-16.3498,-1.11563
-567,85,-16.955,1.05121,-0.00870412,-0.000825531,-0.000924743,-0.000718446,-0.00881121,-1.45551,0.0056499,0.0411374,657,939,-16.955,-1.05122
-560,85,-17.0247,0.877197,-0.00827597,-0.000631212,-0.000825047,-0.000543184,-0.008364,-1.4645,0.00540405,0.0380115,664,939,-17.0247,-0.877206
-553,85,-17.0116,0.749817,-0.00741856,-0.000325792,-0.000645055,-0.000267605,-0.00747675,-1.48083,0.00489774,0.0436238,671,939,-17.0116,-0.749798
-546,85,-17.0682,0.939087,-0.00616909,0.000203979,-0.000357544,0.000223976,-0.00618908,-1.51493,0.0042027,0.0418567,678,939,-17.0683,-0.939085
-539,85,-17.155,0.92804,-0.00462645,0.00101257,4.62395e-05,0.00101294,-0.00462683,1.5626,0.00347181,0.0391926,685,939,-17.155,-0.928011
-532,85,-17.0667,0.991028,-0.00302442,0.00218824,0.000530818,0.00224174,-0.00307793,1.47034,0.00308393,0.0409063,692,939,-17.0667,-0.991036
-525,85,-17.1182,1.00232,-0.00221073,0.00395339,0.000951404,0.0040969,-0.00235423,1.42109,0.00376959,0.039566,699,939,-17.1182,-1.00234
-518,85,-17.1875,1.10577,-0.00457801,0.00670447,0.00143999,0.00688536,-0.0047589,1.44583,0.00676008,0.039833,706,939,-17.1875,-1.10579
-511,85,0,0,0,0,0,0,0,0,0,-1,713,939,0,0
-504,85,0,0,0,0,0,0,0,0,0,-1,720,939,0,0
-497,85,0,0,0,0,0,0,0,0,0,-1,727,939,0,0
-490,85,0,0,0,0,0,0,0,0,0,-1,734,939,0,0
-483,85,0,0,0,0,0,0,0,0,0,-1,741,939,0,0
-476,85,0,0,0,0,0,0,0,0,0,-1,748,939,0,0
-469,85,0,0,0,0,0,0,0,0,0,-1,755,939,0,0
-462,85,0,0,0,0,0,0,0,0,0,-1,762,939,0,0
-455,85,0,0,0,0,0,0,0,0,0,-1,769,939,0,0
-448,85,0,0,0,0,0,0,0,0,0,-1,776,939,0,0
-441,85,0,0,0,0,0,0,0,0,0,-1,783,939,0,0
-434,85,0,0,0,0,0,0,0,0,0,-1,790,939,0,0
-427,85,0,0,0,0,0,0,0,0,0,-1,797,939,0,0
-420,85,0,0,0,0,0,0,0,0,0,-1,804,939,0,0
-413,85,0,0,0,0,0,0,0,0,0,-1,811,939,0,0
-406,85,0,0,0,0,0,0,0,0,0,-1,818,939,0,0
-399,85,0,0,0,0,0,0,0,0,0,-1,825,939,0,0
-392,85,0,0,0,0,0,0,0,0,0,-1,832,939,0,0
-385,85,0,0,0,0,0,0,0,0,0,-1,839,939,0,0
-378,85,0,0,0,0,0,0,0,0,0,-1,846,939,0,0
-371,85,0,0,0,0,0,0,0,0,0,-1,853,939,0,0
-364,85,0,0,0,0,0,0,0,0,0,-1,860,939,0,0
-357,85,0,0,0,0,0,0,0,0,0,-1,867,939,0,0
-350,85,0,0,0,0,0,0,0,0,0,-1,874,939,0,0
-343,85,0,0,0,0,0,0,0,0,0,-1,881,939,0,0
-336,85,0,0,0,0,0,0,0,0,0,-1,888,939,0,0
-329,85,0,0,0,0,0,0,0,0,0,-1,895,939,0,0
-322,85,0,0,0,0,0,0,0,0,0,-1,902,939,0,0
-315,85,0,0,0,0,0,0,0,0,0,-1,909,939,0,0
-308,85,0,0,0,0,0,0,0,0,0,-1,916,939,0,0
-301,85,0,0,0,0,0,0,0,0,0,-1,923,939,0,0
-294,85,0,0,0,0,0,0,0,0,0,-1,930,939,0,0
-287,85,0,0,0,0,0,0,0,0,0,-1,937,939,0,0
-280,85,0,0,0,0,0,0,0,0,0,-1,944,939,0,0
-273,85,0,0,0,0,0,0,0,0,0,-1,951,939,0,0
-266,85,0,0,0,0,0,0,0,0,0,-1,958,939,0,0
-259,85,0,0,0,0,0,0,0,0,0,-1,965,939,0,0
-252,85,0,0,0,0,0,0,0,0,0,-1,972,939,0,0
-245,85,0,0,0,0,0,0,0,0,0,-1,979,939,0,0
-238,85,0,0,0,0,0,0,0,0,0,-1,986,939,0,0
-231,85,0,0,0,0,0,0,0,0,0,-1,993,939,0,0
-224,85,0,0,0,0,0,0,0,0,0,-1,1000,939,0,0
-217,85,0,0,0,0,0,0,0,0,0,-1,1007,939,0,0
-210,85,0,0,0,0,0,0,0,0,0,-1,1014,939,0,0
-203,85,0,0,0,0,0,0,0,0,0,-1,1021,939,0,0
-196,85,0,0,0,0,0,0,0,0,0,-1,1028,939,0,0
-189,85,0,0,0,0,0,0,0,0,0,-1,1035,939,0,0
-182,85,0,0,0,0,0,0,0,0,0,-1,1042,939,0,0
-175,85,0,0,0,0,0,0,0,0,0,-1,1049,939,0,0
-168,85,0,0,0,0,0,0,0,0,0,-1,1056,939,0,0
-161,85,0,0,0,0,0,0,0,0,0,-1,1063,939,0,0
-154,85,0,0,0,0,0,0,0,0,0,-1,1070,939,0,0
-147,85,0,0,0,0,0,0,0,0,0,-1,1077,939,0,0
-140,85,0,0,0,0,0,0,0,0,0,-1,1084,939,0,0
-133,85,0,0,0,0,0,0,0,0,0,-1,1091,939,0,0
-126,85,0,0,0,0,0,0,0,0,0,-1,1098,939,0,0
-119,85,0,0,0,0,0,0,0,0,0,-1,1105,939,0,0
-112,85,0,0,0,0,0,0,0,0,0,-1,1112,939,0,0
-105,85,0,0,0,0,0,0,0,0,0,-1,1119,939,0,0
-98,85,0,0,0,0,0,0,0,0,0,-1,1126,939,0,0
-91,85,0,0,0,0,0,0,0,0,0,-1,1133,939,0,0
-84,85,0,0,0,0,0,0,0,0,0,-1,1140,939,0,0
-77,85,0,0,0,0,0,0,0,0,0,-1,1147,939,0,0
-70,85,0,0,0,0,0,0,0,0,0,-1,1154,939,0,0
-63,85,0,0,0,0,0,0,0,0,0,-1,1161,939,0,0
-56,85,0,0,0,0,0,0,0,0,0,-1,1168,939,0,0
-49,85,0,0,0,0,0,0,0,0,0,-1,1175,939,0,0
-42,85,0,0,0,0,0,0,0,0,0,-1,1182,939,0,0
-35,85,0,0,0,0,0,0,0,0,0,-1,1189,939,0,0
-28,85,0,0,0,0,0,0,0,0,0,-1,1196,939,0,0
-21,85,0,0,0,0,0,0,0,0,0,-1,1203,939,0,0
-14,85,0,0,0,0,0,0,0,0,0,-1,1210,939,0,0
-7,85,0,0,0,0,0,0,0,0,0,-1,1217,939,0,0
0,85,0,0,0,0,0,0,0,0,0,-1,1224,939,0,0
7,85,0,0,0,0,0,0,0,0,0,-1,1231,939,0,0
14,85,0,0,0,0,0,0,0,0,0,-1,1238,939,0,0
21,85,0,0,0,0,0,0,0,0,0,-1,1245,939,0,0
28,85,0,0,0,0,0,0,0,0,0,-1,1252,939,0,0
35,85,0,0,0,0,0,0,0,0,0,-1,1259,939,0,0
42,85,0,0,0,0,0,0,0,0,0,-1,1266,939,0,0
49,85,0,0,0,0,0,0,0,0,0,-1,1273,939,0,0
56,85,0,0,0,0,0,0,0,0,0,-1,1280,939,0,0
63,85,0,0,0,0,0,0,0,0,0,-1,1287,939,0,0
70,85,0,0,0,0,0,0,0,0,0,-1,1294,939,0,0
77,85,0,0,0,0,0,0,0,0,0,-1,1301,939,0,0
84,85,0,0,0,0,0,0,0,0,0,-1,1308,939,0,0
91,85,0,0,0,0,0,0,0,0,0,-1,1315,939,0,0
98,85,0,0,0,0,0,0,0,0,0,-1,1322,939,0,0
105,85,0,0,0,0,0,0,0,0,0,-1,1329,939,0,0
112,85,0,0,0,0,0,0,0,0,0,-1,1336,939,0,0
119,85,0,0,0,0,0,0,0,0,0,-1,1343,939,0,0
126,85,0,0,0,0,0,0,0,0,0,-1,1350,939,0,0
133,85,0,0,0,0,0,0,0,0,0,-1,1357,939,0,0
140,85,0,0,0,0,0,0,0,0,0,-1,1364,939,0,0
147,85,0,0,0,0,0,0,0,0,0,-1,1371,939,0,0
154,85,0,0,0,0,0,0,0,0,0,-1,1378,939,0,0
161,85,0,0,0,0,0,0,0,0,0,-1,1385,939,0,0
168,85,0,0,0,0,0,0,0,0,0,-1,1392,939,0,0
175,85,0,0,0,0,0,0,0,0,0,-1,1399,939,0,0
182,85,0,0,0,0,0,0,0,0,0,-1,1406,939,0,0
189,85,0,0,0,0,0,0,0,0,0,-1,1413,939,0,0
196,85,0,0,0,0,0,0,0,0,0,-1,1420,939,0,0
203,85,0,0,0,0,0,0,0,0,0,-1,1427,939,0,0
210,85,0,0,0,0,0,0,0,0,0,-1,1434,939,0,0
217,85,0,0,0,0,0,0,0,0,0,-1,1441,939,0,0
224,85,0,0,0,0,0,0,0,0,0,-1,1448,939,0,0
231,85,0,0,0,0,0,0,0,0,0,-1,1455,939,0,0
238,85,0,0,0,0,0,0,0,0,0,-1,1462,939,0,0
245,85,0,0,0,0,0,0,0,0,0,-1,1469,939,0,0
252,85,0,0,0,0,0,0,0,0,0,-1,1476,939,0,0
259,85,0,0,0,0,0,0,0,0,0,-1,1483,939,0,0
266,85,0,0,0,0,0,0,0,0,0,-1,1490,939,0,0
273,85,0,0,0,0,0,0,0,0,0,-1,1497,939,0,0
280,85,0,0,0,0,0,0,0,0,0,-1,1504,939,0,0
287,85,0,0,0,0,0,0,0,0,0,-1,1511,939,0,0
294,85,0,0,0,0,0,0,0,0,0,-1,1518,939,0,0
301,85,0,0,0,0,0,0,0,0,0,-1,1525,939,0,0
308,85,0,0,0,0,0,0,0,0,0,-1,1532,939,0,0
315,85,0,0,0,0,0,0,0,0,0,-1,1539,939,0,0
322,85,0,0,0,0,0,0,0,0,0,-1,1546,939,0,0
329,85,0,0,0,0,0,0,0,0,0,-1,1553,939,0,0
336,85,0,0,0,0,0,0,0,0,0,-1,1560,939,0,0
343,85,0,0,0,0,0,0,0,0,0,-1,1567,939,0,0
350,85,0,0,0,0,0,0,0,0,0,-1,1574,939,0,0
357,85,0,0,0,0,0,0,0,0,0,-1,1581,939,0,0
364,85,0,0,0,0,0,0,0,0,0,-1,1588,939,0,0
371,85,0,0,0,0,0,0,0,0,0,-1,1595,939,0,0
378,85,0,0,0,0,0,0,0,0,0,-1,1602,939,0,0
385,85,0,0,0,0,0,0,0,0,0,-1,1609,939,0,0
392,85,0,0,0,0,0,0,0,0,0,-1,1616,939,0,0
399,85,0,0,0,0,0,0,0,0,0,-1,1623,939,0,0
406,85,0,0,0,0,0,0,0,0,0,-1,1630,939,0,0
413,85,0,0,0,0,0,0,0,0,0,-1,1637,939,0,0
420,85,0,0,0,0,0,0,0,0,0,-1,1644,939,0,0
427,85,0,0,0,0,0,0,0,0,0,-1,1651,939,0,0
434,85,0,0,0,0,0,0,0,0,0,-1,1658,939,0,0
441,85,0,0,0,0,0,0,0,0,0,-1,1665,939,0,0
448,85,0,0,0,0,0,0,0,0,0,-1,1672,939,0,0
455,85,0,0,0,0,0,0,0,0,0,-1,1679,939,0,0
462,85,0,0,0,0,0,0,0,0,0,-1,1686,939,0,0
469,85,0,0,0,0,0,0,0,0,0,-1,1693,939,0,0
476,85,0,0,0,0,0,0,0,0,0,-1,1700,939,0,0
483,85,0,0,0,0,0,0,0,0,0,-1,1707,939,0,0
490,85,0,0,0,0,0,0,0,0,0,-1,1714,939,0,0
497,85,0,0,0,0,0,0,0,0,0,-1,1721,939,0,0
504,85,0,0,0,0,0,0,0,0,0,-1,1728,939,0,0
511,85,0,0,0,0,0,0,0,0,0,-1,1735,939,0,0
518,85,0,0,0,0,0,0,0,0,0,-1,1742,939,0,0
525,85,0,0,0,0,0,0,0,0,0,-1,1749,939,0,0
532,85,0,0,0,0,0,0,0,0,0,-1,1756,939,0,0
539,85,0,0,0,0,0,0,0,0,0,-1,1763,939,0,0
546,85,0,0,0,0,0,0,0,0,0,-1,1770,939,0,0
553,85,0,0,0,0,0,0,0,0,0,-1,1777,939,0,0
560,85,0,0,0,0,0,0,0,0,0,-1,1784,939,0,0
567,85,0,0,0,0,0,0,0,0,0,-1,1791,939,0,0
574,85,0,0,0,0,0,0,0,0,0,-1,1798,939,0,0
581,85,0,0,0,0,0,0,0,0,0,-1,1805,939,0,0
588,85,0,0,0,0,0,0,0,0,0,-1,1812,939,0,0
595,85,0,0,0,0,0,0,0,0,0,-1,1819,939,0,0
602,85,0,0,0,0,0,0,0,0,0,-1,1826,939,0,0
609,85,0,0,0,0,0,0,0,0,0,-1,1833,939,0,0
616,85,0,0,0,0,0,0,0,0,0,-1,1840,939,0,0
623,85,0,0,0,0,0,0,0,0,0,-1,1847,939,0,0
630,85,0,0,0,0,0,0,0,0,0,-1,1854,939,0,0
637,85,25.0007,2.81317,0.00740114,0.00199128,-0.00119254,0.00765236,0.00174007,-0.20762,0.00463181,0.0499511,1861,939,25.0007,-2.8132
644,85,25.0736,2.67609,0.00453671,0.00204966,-0.000130371,0.00454353,0.00204285,-0.0522291,0.00262764,0.0429484,1868,939,25.0736,-2.67608
651,85,25.2172,2.2594,0.00210517,0.00175542,0.000428656,0.00239325,0.00146734,0.591723,0.00139348,0.0436915,1875,939,25.2172,-2.25939
658,85,24.9435,2.69202,5.59876e-06,0.00150737,0.000868925,0.0019049,-0.000391931,1.14173,0.00141874,0.0416346,1882,939,24.9435,-2.69204
665,85,24.7073,3.01788,0,0,0,0,0,0,0,-1,1889,939,24.7073,-3.0179
672,85,25.0179,2.37524,0,0,0,0,0,0,0,-1,1896,939,25.018,-2.37524
679,85,25.0209,2.61731,-0.00324685,0.000992356,0.001672,0.00157244,-0.00382693,1.23685,0.00320663,0.0381399,1903,939,25.0208,-2.61734
686,85,24.8802,2.80402,-0.00347489,0.000997525,0.00167571,0.00155571,-0.00403307,1.24925,0.00333068,0.0330049,1910,939,24.8803,-2.80402
693,85,24.8381,2.8338,-0.00363328,0.000803233,0.00171016,0.00138593,-0.00421597,1.24241,0.00336902,0.0250375,1917,939,24.8381,-2.83381
700,85,24.8618,2.75629,-0.00364753,0.000719681,0.00173694,0.00132625,-0.0042541,1.23482,0.00336639,0.0304573,1924,939,24.8618,-2.75629
707,85,24.9045,2.7207,0,0,0,0,0,0,0,-1,1931,939,24.9045,-2.72067
714,85,23.1537,3.51379,0,0,0,0,0,0,0,-1,1938,939,23.1537,-3.5138
721,85,23.1483,3.72595,-0.00187244,0.00106786,0.000733124,0.00124051,-0.00204509,1.3395,0.00191581,0.0232632,1945,939,23.1483,-3.72598
728,85,23.1285,3.96454,-0.00120591,0.00130046,0.000637247,0.00145317,-0.00135862,1.33558,0.0016237,0.0196731,1952,939,23.1285,-3.96454
735,85,23.1251,4.09668,-0.00120138,0.00269664,0.000840945,0.00287033,-0.00137506,1.36713,0.00250124,0.0177096,1959,939,23.1251,-4.09671
742,85,23.165,4.2345,-0.00181814,0.00481374,0.00111802,0.00499715,-0.00200155,1.4082,0.00416225,0.0148233,1966,939,23.165,-4.23451
749,85,23.1354,4.39978,-0.00225152,0.00728874,0.00156653,0.00753939,-0.00250217,1.41214,0.00603574,0.0134218,1973,939,23.1353,-4.39977
756,85,23.0941,4.56293,-0.00346719,0.0108867,0.00244948,0.0112932,-0.00387368,1.40635,0.00909918,0.0126564,1980,939,23.0942,-4.56291
763,85,23.0896,4.72913,-0.0056723,0.016021,0.00398776,0.0167308,-0.00638212,1.39464,0.0137829,0.0125584,1987,939,23.0896,-4.7291
770,85,23.0986,4.87091,-0.0088969,0.0226925,0.00627526,0.0238935,-0.0100978,1.38171,0.0201564,0.0178943,1994,939,23.0986,-4.87091
777,85,23.1353,4.98926,-0.0132235,0.0307718,0.00912911,0.0325909,-0.0150426,1.37411,0.0281164,0.040298,2001,939,23.1353,-4.98925
784,85,23.1455,5.19983,-0.0190392,0.0406351,0.0126993,0.0432252,-0.0216294,1.3696,0.0381295,0.046697,2008,939,23.1455,-5.19983
791,85,22.8173,5.39801,-0.0265523,0.0523929,0.0169192,0.0558662,-0.0300255,1.36832,0.0503321,0.0483543,2015,939,22.8172,-5.39803
798,85,22.7031,5.26477,-0.0360026,0.06608,0.0216828,0.0704946,-0.0404173,1.36994,0.0648151,0.0488344,2022,939,22.7032,-5.26479
805,85,22.3979,5.35663,0,0,0,0,0,0,0,-1,2029,939,22.3979,-5.35662
812,85,0,0,0,0,0,0,0,0,0,-1,2036,939,0,0
-700,78,0,0,0,0,0,0,0,0,0,-1,524,946,0,0
-693,78,0,0,0,0,0,0,0,0,0,-1,531,946,0,0
-686,78,-15.5341,2.11615,-0.0907634,0.0849759,-0.00360023,0.0850496,-0.0908371,-1.55032,0.101567,0.0421577,538,946,-15.534,-2.11616
-679,78,-15.8593,2.34253,-0.0714807,0.0634468,-0.0017894,0.0634706,-0.0715044,-1.55754,0.0779738,0.0461671,545,946,-15.8593,-2.34254
-672,78,-16.1492,2.30322,-0.0543234,0.0463543,-1.54211e-05,0.0463543,-0.0543234,-1.57064,0.0581869,0.0466563,552,946,-16.1492,-2.30321
-665,78,-16.4366,2.36127,-0.0397824,0.0330523,0.0014627,0.0330816,-0.0398118,1.55072,0.0421448,0.0443984,559,946,-16.4366,-2.36126
-658,78,-16.7032,2.03094,-0.027856,0.0228971,0.00259379,0.0230293,-0.0279882,1.51987,0.0295013,0.0462813,566,946,-16.7033,-2.03097
-651,78,-16.0153,2.53912,-0.0184779,0.0153643,0.00335569,0.0156938,-0.0188074,1.47291,0.0199463,0.0451076,573,946,-16.0153,-2.53914
-644,78,-16.0581,2.43176,-0.0114731,0.00997202,0.0037456,0.0106074,-0.0121084,1.40276,0.0131245,0.0260218,580,946,-16.0581,-2.43174
-637,78,-16.1525,2.30841,-0.00635442,0.00570553,0.00349309,0.00664423,-0.00729311,1.30827,0.00804963,0.0127781,587,946,-16.1525,-2.30842
-630,78,-16.2059,2.14923,-0.00307162,0.00238709,0.00312804,0.00380913,-0.00449365,1.14412,0.00479904,0.0117974,594,946,-16.2059,-2.14923
-623,78,-16.2396,2.0116,-0.00093093,0.00053301,0.00314056,0.00302577,-0.00342369,0.899889,0.00372596,0.0114537,601,946,-16.2396,-2.01162
-616,78,-16.2307,1.89178,-0.00142604,-0.000195767,0.00266557,0.00192472,-0.00354653,0.898799,0.00320476,0.0101238,608,946,-16.2307,-1.89177
-609,78,-16.196,1.76544,-0.00294417,0.000118826,0.00155339,0.000768725,-0.00359407,1.17455,0.00268917,0.0102085,615,946,-16.196,-1.76545
-602,78,-16.2048,1.6131,-0.00473639,-4.52975e-05,0.000563112,2.13506e-05,-0.00480304,1.45299,0.00320917,0.0144139,622,946,-16.2048,-1.61313
-595,78,-16.1834,1.47192,-0.00651456,-0.000132179,-0.000114638,-0.00013012,-0.00651662,-1.55284,0.0043017,0.0154733,629,946,-16.1834,-1.47191
-588,78,-16.1849,1.39722,-0.00758583,-0.00056551,-0.000647482,-0.000506293,-0.00764505,-1.47959,0.0049366,0.0131008,636,946,-16.1849,-1.39723
-581,78,-16.2468,1.28119,-0.00816279,-0.000870643,-0.00103596,-0.000726324,-0.00830711,-1.43238,0.00531254,0.0216919,643,946,-16.2468,-1.2812
-574,78,-16.623,1.11279,-0.00847624,-0.00112268,-0.00122838,-0.00092291,-0.008676,-1.40958,0.00550223,0.0269062,650,946,-16.6231,-1.11282
-567,78,-17.066,0.995361,0,0,0,0,0,0,0,-1,657,946,-17.066,-0.995374
-560,78,-17.045,0.919495,-0.00796473,-0.00105112,-0.00113853,-0.000868457,-0.0081474,-1.41171,0.0051665,0.033757,664,946,-17.045,-0.919464
-553,78,-16.9156,0.73999,-0.00697374,-0.000880722,-0.00097001,-0.000730023,-0.00712444,-1.41667,0.00452595,0.0425041,671,946,-16.9156,-0.740021
-546,78,-16.9741,0.751343,-0.00557269,-0.000509686,-0.000711989,-0.000411467,-0.00567091,-1.43371,0.00365119,0.0430052,678,946,-16.9741,-0.75136
-539,78,-17.0584,0.872498,-0.003881,0.000109521,-0.000368211,0.000143212,-0.00391469,-1.47955,0.00265882,0.039509,685,946,-17.0584,-0.872489
-532,78,-17.1251,0.933472,-0.00217833,0.00106558,-1.25091e-05,0.00106563,-0.00217838,-1.56694,0.0019093,0.03916,692,946,-17.1251,-0.933499
-525,78,-17.1296,0.773132,-0.00148826,0.00260639,0.00016821,0.00261329,-0.00149516,1.52981,0.00240112,0.0391419,699,946,-17.1296,-0.773118
-518,78,-17.147,0.760864,-0.00424473,0.00510019,0.000255348,0.00510716,-0.0042517,1.5435,0.00541086,0.0430814,706,946,-17.147,-0.760842
-511,78,0,0,0,0,0,0,0,0,0,-1,713,946,0,0
-504,78,0,0,0,0,0,0,0,0,0,-1,720,946,0,0
-497,78,0,0,0,0,0,0,0,0,0,-1,727,946,0,0
-490,78,0,0,0,0,0,0,0,0,0,-1,734,946,0,0
-483,78,0,0,0,0,0,0,0,0,0,-1,741,946,0,0
-476,78,0,0,0,0,0,0,0,0,0,-1,748,946,0,0
-469,78,0,0,0,0,0,0,0,0,0,-1,755,946,0,0
-462,78,0,0,0,0,0,0,0,0,0,-1,762,946,0,0
-455,78,0,0,0,0,0,0,0,0,0,-1,769,946,0,0
-448,78,0,0,0,0,0,0,0,0,0,-1,776,946,0,0
-441,78,0,0,0,0,0,0,0,0,0,-1,783,946,0,0
-434,78,0,0,0,0,0,0,0,0,0,-1,790,946,0,0
-427,78,0,0,0,0,0,0,0,0,0,-1,797,946,0,0
-420,78,0,0,0,0,0,0,0,0,0,-1,804,946,0,0
-413,78,0,0,0,0,0,0,0,0,0,-1,811,946,0,0
-406,78,0,0,0,0,0,0,0,0,0,-1,818,946,0,0
-399,78,0,0,0,0,0,0,0,0,0,-1,825,946,0,0
-392,78,0,0,0,0,0,0,0,0,0,-1,832,946,0,0
-385,78,0,0,0,0,0,0,0,0,0,-1,839,946,0,0
-378,78,0,0,0,0,0,0,0,0,0,-1,846,946,0,0
-371,78,0,0,0,0,0,0,0,0,0,-1,853,946,0,0
-364,78,0,0,0,0,0,0,0,0,0,-1,860,946,0,0
-357,78,0,0,0,0,0,0,0,0,0,-1,867,946,0,0
-350,78,0,0,0,0,0,0,0,0,0,-1,874,946,0,0
-343,78,0,0,0,0,0,0,0,0,0,-1,881,946,0,0
-336,78,0,0,0,0,0,0,0,0,0,-1,888,946,0,0
-329,78,0,0,0,0,0,0,0,0,0,-1,895,946,0,0
-322,78,0,0,0,0,0,0,0,0,0,-1,902,946,0,0
-315,78,0,0,0,0,0,0,0,0,0,-1,909,946,0,0
-308,78,0,0,0,0,0,0,0,0,0,-1,916,946,0,0
-301,78,0,0,0,0,0,0,0,0,0,-1,923,946,0,0
-294,78,0,0,0,0,0,0,0,0,0,-1,930,946,0,0
-287,78,0,0,0,0,0,0,0,0,0,-1,937,946,0,0
-280,78,0,0,0,0,0,0,0,0,0,-1,944,946,0,0
-273,78,0,0,0,0,0,0,0,0,0,-1,951,946,0,0
-266,78,0,0,0,0,0,0,0,0,0,-1,958,946,0,0
-259,78,0,0,0,0,0,0,0,0,0,-1,965,946,0,0
-252,78,0,0,0,0,0,0,0,0,0,-1,972,946,0,0
-245,78,0,0,0,0,0,0,0,0,0,-1,979,946,0,0
-238,78,0,0,0,0,0,0,0,0,0,-1,986,946,0,0
-231,78,0,0,0,0,0,0,0,0,0,-1,993,946,0,0
-224,78,0,0,0,0,0,0,0,0,0,-1,1000,946,0,0
-217,78,0,0,0,0,0,0,0,0,0,-1,1007,946,0,0
-210,78,0,0,0,0,0,0,0,0,0,-1,1014,946,0,0
-203,78,0,0,0,0,0,0,0,0,0,-1,1021,946,0,0
-196,78,0,0,0,0,0,0,0,0,0,-1,1028,946,0,0
-189,78,0,0,0,0,0,0,0,0,0,-1,1035,946,0,0
-182,78,0,0,0,0,0,0,0,0,0,-1,1042,946,0,0
-175,78,0,0,0,0,0,0,0,0,0,-1,1049,946,0,0
-168,78,0,0,0,0,0,0,0,0,0,-1,1056,946,0,0
-161,78,0,0,0,0,0,0,0,0,0,-1,1063,946,0,0
-154,78,0,0,0,0,0,0,0,0,0,-1,1070,946,0,0
-147,78,0,0,0,0,0,0,0,0,0,-1,1077,946,0,0
-140,78,0,0,0,0,0,0,0,0,0,-1,1084,946,0,0
-133,78,0,0,0,0,0,0,0,0,0,-1,1091,946,0,0
-126,78,0,0,0,0,0,0,0,0,0,-1,1098,946,0,0
-119,78,0,0,0,0,0,0,0,0,0,-1,1105,946,0,0
-112,78,0,0,0,0,0,0,0,0,0,-1,1112,946,0,0
-105,78,0,0,0,0,0,0,0,0,0,-1,1119,946,0,0
-98,78,0,0,0,0,0,0,0,0,0,-1,1126,946,0,0
-91,78,0,0,0,0,0,0,0,0,0,-1,1133,946,0,0
-84,78,0,0,0,0,0,0,0,0,0,-1,1140,946,0,0
-77,78,0,0,0,0,0,0,0,0,0,-1,1147,946,0,0
-70,78,0,0,0,0,0,0,0,0,0,-1,1154,946,0,0
-63,78,0,0,0,0,0,0,0,0,0,-1,1161,946,0,0
-56,78,0,0,0,0,0,0,0,0,0,-1,1168,946,0,0
-49,78,0,0,0,0,0,0,0,0,0,-1,1175,946,0,0
-42,78,0,0,0,0,0,0,0,0,0,-1,1182,946,0,0
-35,78,0,0,0,0,0,0,0,0,0,-1,1189,946,0,0
-28,78,0,0,0,0,0,0,0,0,0,-1,1196,946,0,0
-21,78,0,0,0,0,0,0,0,0,0,-1,1203,946,0,0
-14,78,0,0,0,0,0,0,0,0,0,-1,1210,946,0,0
-7,78,0,0,0,0,0,0,0,0,0,-1,1217,946,0,0
0,78,0,0,0,0,0,0,0,0,0,-1,1224,946,0,0
7,78,0,0,0,0,0,0,0,0,0,-1,1231,946,0,0
14,78,0,0,0,0,0,0,0,0,0,-1,1238,946,0,0
21,78,0,0,0,0,0,0,0,0,0,-1,1245,946,0,0
28,78,0,0,0,0,0,0,0,0,0,-1,1252,946,0,0
35,78,0,0,0,0,0,0,0,0,0,-1,1259,946,0,0
42,78,0,0,0,0,0,0,0,0,0,-1,1266,946,0,0
49,78,0,0,0,0,0,0,0,0,0,-1,1273,946,0,0
56,78,0,0,0,0,0,0,0,0,0,-1,1280,946,0,0
63,78,0,0,0,0,0,0,0,0,0,-1,1287,946,0,0
70,78,0,0,0,0,0,0,0,0,0,-1,1294,946,0,0
77,78,0,0,0,0,0,0,0,0,0,-1,1301,946,0,0
84,78,0,0,0,0,0,0,0,0,0,-1,1308,946,0,0
91,78,0,0,0,0,0,0,0,0,0,-1,1315,946,0,0
98,78,0,0,0,0,0,0,0,0,0,-1,1322,946,0,0
105,78,0,0,0,0,0,0,0,0,0,-1,1329,946,0,0
112,78,0,0,0,0,0,0,0,0,0,-1,1336,946,0,0
119,78,0,0,0,0,0,0,0,0,0,-1,1343,946,0,0
126,78,0,0,0,0,0,0,0,0,0,-1,1350,946,0,0
133,78,0,0,0,0,0,0,0,0,0,-1,1357,946,0,0
140,78,0,0,0,0,0,0,0,0,0,-1,1364,946,0,0
147,78,0,0,0,0,0,0,0,0,0,-1,1371,946,0,0
154,78,0,0,0,0,0,0,0,0,0,-1,1378,946,0,0
161,78,0,0,0,0,0,0,0,0,0,-1,1385,946,0,0
168,78,0,0,0,0,0,0,0,0,0,-1,1392,946,0,0
175,78,0,0,0,0,0,0,0,0,0,-1,1399,946,0,0
182,78,0,0,0,0,0,0,0,0,0,-1,1406,946,0,0
189,78,0,0,0,0,0,0,0,0,0,-1,1413,946,0,0
196,78,0,0,0,0,0,0,0,0,0,-1,1420,946,0,0
203,78,0,0,0,0,0,0,0,0,0,-1,1427,946,0,0
210,78,0,0,0,0,0,0,0,0,0,-1,1434,946,0,0
217,78,0,0,0,0,0,0,0,0,0,-1,1441,946,0,0
224,78,0,0,0,0,0,0,0,0,0,-1,1448,946,0,0
231,78,0,0,0,0,0,0,0,0,0,-1,1455,946,0,0
238,78,0,0,0,0,0,0,0,0,0,-1,1462,946,0,0
245,78,0,0,0,0,0,0,0,0,0,-1,1469,946,0,0
252,78,0,0,0,0,0,0,0,0,0,-1,1476,946,0,0
259,78,0,0,0,0,0,0,0,0,0,-1,1483,946,0,0
266,78,0,0,0,0,0,0,0,0,0,-1,1490,946,0,0
273,78,0,0,0,0,0,0,0,0,0,-1,1497,946,0,0
280,78,0,0,0,0,0,0,0,0,0,-1,1504,946,0,0
287,78,0,0,0,0,0,0,0,0,0,-1,1511,946,0,0
294,78,0,0,0,0,0,0,0,0,0,-1,1518,946,0,0
301,78,0,0,0,0,0,0,0,0,0,-1,1525,946,0,0
308,78,0,0,0,0,0,0,0,0,0,-1,1532,946,0,0
315,78,0,0,0,0,0,0,0,0,0,-1,1539,946,0,0
322,78,0,0,0,0,0,0,0,0,0,-1,1546,946,0,0
329,78,0,0,0,0,0,0,0,0,0,-1,1553,946,0,0
336,78,0,0,0,0,0,0,0,0,0,-1,1560,946,0,0
343,78,0,0,0,0,0,0,0,0,0,-1,1567,946,0,0
350,78,0,0,0,0,0,0,0,0,0,-1,1574,946,0,0
357,78,0,0,0,0,0,0,0,0,0,-1,1581,946,0,0
364,78,0,0,0,0,0,0,0,0,0,-1,1588,946,0,0
371,78,0,0,0,0,0,0,0,0,0,-1,1595,946,0,0
378,78,0,0,0,0,0,0,0,0,0,-1,1602,946,0,0
385,78,0,0,0,0,0,0,0,0,0,-1,1609,946,0,0
392,78,0,0,0,0,0,0,0,0,0,-1,1616,946,0,0
399,78,0,0,0,0,0,0,0,0,0,-1,1623,946,0,0
406,78,0,0,0,0,0,0,0,0,0,-1,1630,946,0,0
413,78,0,0,0,0,0,0,0,0,0,-1,1637,946,0,0
420,78,0,0,0,0,0,0,0,0,0,-1,1644,946,0,0
427,78,0,0,0,0,0,0,0,0,0,-1,1651,946,0,0
434,78,0,0,0,0,0,0,0,0,0,-1,1658,946,0,0
441,78,0,0,0,0,0,0,0,0,0,-1,1665,946,0,0
448,78,0,0,0,0,0,0,0,0,0,-1,1672,946,0,0
455,78,0,0,0,0,0,0,0,0,0,-1,1679,946,0,0
462,78,0,0,0,0,0,0,0,0,0,-1,1686,946,0,0
469,78,0,0,0,0,0,0,0,0,0,-1,1693,946,0,0
476,78,0,0,0,0,0,0,0,0,0,-1,1700,946,0,0
483,78,0,0,0,0,0,0,0,0,0,-1,1707,946,0,0
490,78,0,0,0,0,0,0,0,0,0,-1,1714,946,0,0
497,78,0,0,0,0,0,0,0,0,0,-1,1721,946,0,0
504,78,0,0,0,0,0,0,0,0,0,-1,1728,946,0,0
511,78,0,0,0,0,0,0,0,0,0,-1,1735,946,0,0
518,78,0,0,0,0,0,0,0,0,0,-1,1742,946,0,0
525,78,0,0,0,0,0,0,0,0,0,-1,1749,946,0,0
532,78,0,0,0,0,0,0,0,0,0,-1,1756,946,0,0
539,78,0,0,0,0,0,0,0,0,0,-1,1763,946,0,0
546,78,0,0,0,0,0,0,0,0,0,-1,1770,946,0,0
553,78,0,0,0,0,0,0,0,0,0,-1,1777,946,0,0
560,78,0,0,0,0,0,0,0,0,0,-1,1784,946,0,0
567,78,0,0,0,0,0,0,0,0,0,-1,1791,946,0,0
574,78,0,0,0,0,0,0,0,0,0,-1,1798,946,0,0
581,78,0,0,0,0,0,0,0,0,0,-1,1805,946,0,0
588,78,0,0,0,0,0,0,0,0,0,-1,1812,946,0,0
595,78,0,0,0,0,0,0,0,0,0,-1,1819,946,0,0
602,78,0,0,0,0,0,0,0,0,0,-1,1826,946,0,0
609,78,0,0,0,0,0,0,0,0,0,-1,1833,946,0,0
616,78,0,0,0,0,0,0,0,0,0,-1,1840,946,0,0
623,78,0,0,0,0,0,0,0,0,0,-1,1847,946,0,0
630,78,0,0,0,0,0,0,0,0,0,-1,1854,946,0,0
637,78,25.2192,2.58783,0.00675879,0.00259332,-0.00235508,0.00781996,0.00153214,-0.423345,0.00478507,0.0482666,1861,946,25.2193,-2.58781
644,78,25.1862,2.3053,0.00398579,0.00241134,-0.000748746,0.004285,0.00211213,-0.380176,0.00247403,0.044049,1868,946,25.1861,-2.30532
651,78,25.0538,2.26514,0.00181125,0.00196752,0.000130346,0.00204136,0.00173741,1.05541,0.00127176,0.0423382,1875,946,25.0539,-2.26513
658,78,24.8933,2.64221,1.67021e-05,0.00163908,0.000814157,0.00197718,-0.000321404,1.17718,0.00143728,0.0393912,1882,946,24.8933,-2.64224
665,78,24.7695,2.91388,-0.00139615,0.00146704,0.00141946,0.00205146,-0.00198058,1.18023,0.00232802,0.0418315,1889,946,24.7695,-2.91386
672,78,24.875,2.62073,-0.00235734,0.00130456,0.00185809,0.00208223,-0.00313501,1.17442,0.00303255,0.040194,1896,946,24.875,-2.62073
679,78,24.9694,2.58435,-0.00289919,0.00117021,0.00212136,0.00207493,-0.00380391,1.16767,0.00344273,0.0379717,1903,946,24.9694,-2.58437
686,78,24.8037,2.81622,-0.00312819,0.00115973,0.00218562,0.00207738,-0.00404585,1.17329,0.00359563,0.0362834,1910,946,24.8037,-2.81623
693,78,24.8458,2.75177,-0.00328744,0.000963228,0.00224277,0.00192773,-0.00425194,1.16466,0.00365098,0.028154,1917,946,24.8459,-2.75174
700,78,24.8438,2.72119,-0.00331961,0.000894526,0.00226369,0.00188004,-0.00430512,1.16019,0.00366136,0.0233969,1924,946,24.8437,-2.72118
707,78,24.642,3.11572,-0.00305854,0.00089074,0.00200977,0.00173361,-0.00390142,1.17369,0.00333267,0.0418987,1931,946,24.642,-3.11573
714,78,23.2505,3.63226,0,0,0,0,0,0,0,-1,1938,946,23.2505,-3.63226
721,78,23.2897,3.75745,-0.00200506,0.00121643,0.0011639,0.00159293,-0.00238156,1.25793,0.00230968,0.0228479,1945,946,23.2897,-3.75747
728,78,23.3357,3.95007,-0.0016398,0.00143899,0.00100847,0.00173991,-0.00194072,1.28082,0.00212606,0.0221977,1952,946,23.3356,-3.95006
735,78,23.3119,4.11523,-0.00181692,0.00269913,0.00106527,0.0029378,-0.00205559,1.35039,0.00289789,0.0150117,1959,946,23.3119,-4.11522
742,78,23.3225,4.25073,-0.00256694,0.00455756,0.00121704,0.00475973,-0.0027691,1.40619,0.00439712,0.0136641,1966,946,23.3225,-4.25076
749,78,23.3082,4.39404,-0.00322938,0.00672758,0.00149204,0.00694635,-0.00344815,1.42521,0.00611351,0.0131039,1973,946,23.3082,-4.39403
756,78,23.2958,4.52344,-0.00460318,0.00986368,0.00212466,0.0101693,-0.00490876,1.42795,0.00888015,0.013556,1980,946,23.2957,-4.52343
763,78,23.2897,4.69397,-0.00687725,0.0143716,0.00335299,0.0148882,-0.00739379,1.41795,0.0131048,0.0121883,1987,946,23.2897,-4.69395
770,78,23.2745,4.84674,-0.0100985,0.0203242,0.00532866,0.0212305,-0.0110049,1.40232,0.0189206,0.0155384,1994,946,23.2745,-4.84676
777,78,23.2654,4.98572,-0.0142251,0.0274843,0.00780835,0.0288982,-0.015639,1.39167,0.0260906,0.0356328,2001,946,23.2653,-4.98571
784,78,22.8541,5.07965,-0.0195581,0.0361119,0.010914,0.0381751,-0.0216213,1.38396,0.0349617,0.0463816,2008,946,22.8541,-5.07966
791,78,22.3983,5.05066,-0.0261583,0.0462799,0.0146087,0.0491151,-0.0289935,1.3791,0.045592,0.0469088,2015,946,22.3983,-5.05067
798,78,22.3577,5.03314,-0.0340462,0.0579574,0.0188224,0.0616592,-0.037748,1.3766,0.0579436,0.047702,2022,946,22.3576,-5.03313
805,78,22.0647,5.04895,0,0,0,0,0,0,0,-1,2029,946,22.0647,-5.04893
812,78,0,0,0,0,0,0,0,0,0,-1,2036,946,0,0
-700,71,0,0,0,0,0,0,0,0,0,-1,524,953,0,0
-693,71,0,0,0,0,0,0,0,0,0,-1,531,953,0,0
-686,71,-15.6034,1.69189,0,0,0,0,0,0,0,-1,538,953,-15.6034,-1.69187
-679,71,-8.31036,5.6048,0,0,0,0,0,0,0,-1,545,953,-8.31038,-5.60482
-672,71,-16.1978,2.48828,-0.0619759,0.0527389,0.00439678,0.0529072,-0.0621442,1.53254,0.0664963,0.0456768,552,953,-16.1977,-2.48826
-665,71,-16.4874,2.42065,-0.0466423,0.0385077,0.00430998,0.0387253,-0.0468599,1.52035,0.049487,0.0449691,559,953,-16.4874,-2.42063
-658,71,-16.6707,2.42389,-0.0337965,0.027386,0.00422659,0.0276766,-0.0340871,1.50215,0.0357233,0.0477071,566,953,-16.6707,-2.42387
-651,71,-16.4359,2.45209,-0.0234541,0.0189267,0.0040954,0.0193189,-0.0238462,1.47534,0.024967,0.0439162,573,953,-16.4359,-2.45209
-644,71,-16.2334,2.46344,-0.0155117,0.0127131,0.00386291,0.0132322,-0.0160308,1.43721,0.0169208,0.0314112,580,953,-16.2334,-2.46346
-637,71,-16.2957,2.30713,-0.00944305,0.00756148,0.0030497,0.00809188,-0.00997346,1.3986,0.0104489,0.0136014,587,953,-16.2957,-2.3071
-630,71,-16.3506,2.14917,-0.00534683,0.00370347,0.00236185,0.00428276,-0.00592612,1.33027,0.0059195,0.0121351,594,953,-16.3507,-2.14917
-623,71,-16.3881,1.99658,-0.00248078,0.00141015,0.00229743,0.00247517,-0.0035458,1.13671,0.00349448,0.0126399,601,953,-16.3881,-1.99658
-616,71,-16.3798,1.84619,-0.00260986,0.000644721,0.00182554,0.00146297,-0.00342811,1.14942,0.00289885,0.0131101,608,953,-16.3798,-1.84618
-609,71,-16.3337,1.75146,-0.00369779,0.000796314,0.00078858,0.000930669,-0.00383214,1.40204,0.00291494,0.0132712,615,953,-16.3337,-1.75144
-602,71,-16.3022,1.617,-0.00509827,0.000503476,-7.35058e-05,0.00050444,-0.00509924,-1.55768,0.00357951,0.0150126,622,953,-16.3023,-1.61702
-595,71,-16.318,1.51166,-0.00648821,0.000230127,-0.000679589,0.000298181,-0.00655626,-1.47099,0.00447355,0.0161476,629,953,-16.318,-1.51167
-588,71,-16.3243,1.45538,-0.00728709,-0.000261525,-0.00109602,-9.45125e-05,-0.00745411,-1.41958,0.0049382,0.0177456,636,953,-16.3243,-1.4554
-581,71,-16.4836,1.19788,-0.00769227,-0.000648601,-0.0013697,-0.000391627,-0.00794925,-1.38534,0.0051739,0.0262963,643,953,-16.4836,-1.19788
-574,71,-16.9166,1.01849,-0.00790548,-0.00100028,-0.00152537,-0.000678333,-0.00822743,-1.36279,0.0052734,0.0309355,650,953,-16.9166,-1.01847
-567,71,-17.1083,0.843994,-0.00782423,-0.00109192,-0.00151459,-0.000766871,-0.00814928,-1.35939,0.00519613,0.0200962,657,953,-17.1083,-0.843985
-560,71,-17.1006,0.854675,-0.00721491,-0.00117456,-0.00142256,-0.000856307,-0.00753316,-1.3507,0.0047624,0.0274441,664,953,-17.1007,-0.854688
-553,71,-17.0762,0.911499,-0.00614024,-0.00117289,-0.00126768,-0.000868083,-0.00644505,-1.33483,0.00403856,0.0404589,671,953,-17.0761,-0.911495
-546,71,-17.0448,0.925476,-0.00467084,-0.00100548,-0.00106079,-0.000720617,-0.00495571,-1.30845,0.00309172,0.0423919,678,953,-17.0448,-0.9255
-539,71,-17.1007,0.790283,-0.0029381,-0.000623528,-0.000828208,-0.000357705,-0.00320392,-1.26022,0.00202726,0.0408587,685,953,-17.1007,-0.790306
-532,71,-17.2794,0.751282,-0.00127147,8.68568e-05,-0.0007038,0.000385752,-0.00157036,-1.16919,0.00119641,0.0434659,692,953,-17.2794,-0.751258
-525,71,-17.0516,0.829895,-0.000835815,0.00143999,-0.000935985,0.00177548,-0.00117131,-1.22663,0.00171321,0.0419787,699,953,-17.0516,-0.829894
-518,71,0,0,0,0,0,0,0,0,0,-1,706,953,0,0
-511,71,0,0,0,0,0,0,0,0,0,-1,713,953,0,0
-504,71,0,0,0,0,0,0,0,0,0,-1,720,953,0,0
-497,71,0,0,0,0,0,0,0,0,0,-1,727,953,0,0
-490,71,0,0,0,0,0,0,0,0,0,-1,734,953,0,0
-483,71,0,0,0,0,0,0,0,0,0,-1,741,953,0,0
-476,71,0,0,0,0,0,0,0,0,0,-1,748,953,0,0
-469,71,0,0,0,0,0,0,0,0,0,-1,755,953,0,0
-462,71,0,0,0,0,0,0,0,0,0,-1,762,953,0,0
-455,71,0,0,0,0,0,0,0,0,0,-1,769,953,0,0
-448,71,0,0,0,0,0,0,0,0,0,-1,776,953,0,0
-441,71,0,0,0,0,0,0,0,0,0,-1,783,953,0,0
-434,71,0,0,0,0,0,0,0,0,0,-1,790,953,0,0
-427,71,0,0,0,0,0,0,0,0,0,-1,797,953,0,0
-420,71,0,0,0,0,0,0,0,0,0,-1,804,953,0,0
-413,71,0,0,0,0,0,0,0,0,0,-1,811,953,0,0
-406,71,0,0,0,0,0,0,0,0,0,-1,818,953,0,0
-399,71,0,0,0,0,0,0,0,0,0,-1,825,953,0,0
-392,71,0,0,0,0,0,0,0,0,0,-1,832,953,0,0
-385,71,0,0,0,0,0,0,0,0,0,-1,839,953,0,0
-378,71,0,0,0,0,0,0,0,0,0,-1,846,953,0,0
-371,71,0,0,0,0,0,0,0,0,0,-1,853,953,0,0
-364,71,0,0,0,0,0,0,0,0,0,-1,860,953,0,0
-357,71,0,0,0,0,0,0,0,0,0,-1,867,953,0,0
-350,71,0,0,0,0,0,0,0,0,0,-1,874,953,0,0
-343,71,0,0,0,0,0,0,0,0,0,-1,881,953,0,0
-336,71,0,0,0,0,0,0,0,0,0,-1,888,953,0,0
-329,71,0,0,0,0,0,0,0,0,0,-1,895,953,0,0
-322,71,0,0,0,0,0,0,0,0,0,-1,902,953,0,0
-315,71,0,0,0,0,0,0,0,0,0,-1,909,953,0,0
-308,71,0,0,0,0,0,0,0,0,0,-1,916,953,0,0
-301,71,0,0,0,0,0,0,0,0,0,-1,923,953,0,0
-294,71,0,0,0,0,0,0,0,0,0,-1,930,953,0,0
-287,71,0,0,0,0,0,0,0,0,0,-1,937,953,0,0
-280,71,0,0,0,0,0,0,0,0,0,-1,944,953,0,0
-273,71,0,0,0,0,0,0,0,0,0,-1,951,953,0,0
-266,71,0,0,0,0,0,0,0,0,0,-1,958,953,0,0
-259,71,0,0,0,0,0,0,0,0,0,-1,965,953,0,0
-252,71,0,0,0,0,0,0,0,0,0,-1,972,953,0,0
-245,71,0,0,0,0,0,0,0,0,0,-1,979,953,0,0
-238,71,0,0,0,0,0,0,0,0,0,-1,986,953,0,0
-231,71,0,0,0,0,0,0,0,0,0,-1,993,953,0,0
-224,71,0,0,0,0,0,0,0,0,0,-1,1000,953,0,0
-217,71,0,0,0,0,0,0,0,0,0,-1,1007,953,0,0
-210,71,0,0,0,0,0,0,0,0,0,-1,1014,953,0,0
-203,71,0,0,0,0,0,0,0,0,0,-1,1021,953,0,0
-196,71,0,0,0,0,0,0,0,0,0,-1,1028,953,0,0
-189,71,0,0,0,0,0,0,0,0,0,-1,1035,953,0,0
-182,71,0,0,0,0,0,0,0,0,0,-1,1042,953,0,0
-175,71,0,0,0,0,0,0,0,0,0,-1,1049,953,0,0
-168,71,0,0,0,0,0,0,0,0,0,-1,1056,953,0,0
-161,71,0,0,0,0,0,0,0,0,0,-1,1063,953,0,0
-154,71,0,0,0,0,0,0,0,0,0,-1,1070,953,0,0
-147,71,0,0,0,0,0,0,0,0,0,-1,1077,953,0,0
-140,71,0,0,0,0,0,0,0,0,0,-1,1084,953,0,0
-133,71,0,0,0,0,0,0,0,0,0,-1,1091,953,0,0
-126,71,0,0,0,0,0,0,0,0,0,-1,1098,953,0,0
-119,71,0,0,0,0,0,0,0,0,0,-1,1105,953,0,0
-112,71,0,0,0,0,0,0,0,0,0,-1,1112,953,0,0
-105,71,0,0,0,0,0,0,0,0,0,-1,1119,953,0,0
-98,71,0,0,0,0,0,0,0,0,0,-1,1126,953,0,0
-91,71,0,0,0,0,0,0,0,0,0,-1,1133,953,0,0
-84,71,0,0,0,0,0,0,0,0,0,-1,1140,953,0,0
-77,71,0,0,0,0,0,0,0,0,0,-1,1147,953,0,0
-70,71,0,0,0,0,0,0,0,0,0,-1,1154,953,0,0
-63,71,0,0,0,0,0,0,0,0,0,-1,1161,953,0,0
-56,71,0,0,0,0,0,0,0,0,0,-1,1168,953,0,0
-49,71,0,0,0,0,0,0,0,0,0,-1,1175,953,0,0
-42,71,0,0,0,0,0,0,0,0,0,-1,1182,953,0,0
-35,71,0,0,0,0,0,0,0,0,0,-1,1189,953,0,0
-28,71,0,0,0,0,0,0,0,0,0,-1,1196,953,0,0
-21,71,0,0,0,0,0,0,0,0,0,-1,1203,953,0,0
-14,71,0,0,0,0,0,0,0,0,0,-1,1210,953,0,0
-7,71,0,0,0,0,0,0,0,0,0,-1,1217,953,0,0
0,71,0,0,0,0,0,0,0,0,0,-1,1224,953,0,0
7,71,0,0,0,0,0,0,0,0,0,-1,1231,953,0,0
14,71,0,0,0,0,0,0,0,0,0,-1,1238,953,0,0
21,71,0,0,0,0,0,0,0,0,0,-1,1245,953,0,0
28,71,0,0,0,0,0,0,0,0,0,-1,1252,953,0,0
35,71,0,0,0,0,0,0,0,0,0,-1,1259,953,0,0
42,71,0,0,0,0,0,0,0,0,0,-1,1266,953,0,0
49,71,0,0,0,0,0,0,0,0,0,-1,1273,953,0,0
56,71,0,0,0,0,0,0,0,0,0,-1,1280,953,0,0
63,71,0,0,0,0,0,0,0,0,0,-1,1287,953,0,0
70,71,0,0,0,0,0,0,0,0,0,-1,1294,953,0,0
77,71,0,0,0,0,0,0,0,0,0,-1,1301,953,0,0
84,71,0,0,0,0,0,0,0,0,0,-1,1308,953,0,0
91,71,0,0,0,0,0,0,0,0,0,-1,1315,953,0,0
98,71,0,0,0,0,0,0,0,0,0,-1,1322,953,0,0
105,71,0,0,0,0,0,0,0,0,0,-1,1329,953,0,0
112,71,0,0,0,0,0,0,0,0,0,-1,1336,953,0,0
119,71,0,0,0,0,0,0,0,0,0,-1,1343,953,0,0
126,71,0,0,0,0,0,0,0,0,0,-1,1350,953,0,0
133,71,0,0,0,0,0,0,0,0,0,-1,1357,953,0,0
140,71,0,0,0,0,0,0,0,0,0,-1,1364,953,0,0
147,71,0,0,0,0,0,0,0,0,0,-1,1371,953,0,0
154,71,0,0,0,0,0,0,0,0,0,-1,1378,953,0,0
161,71,0,0,0,0,0,0,0,0,0,-1,1385,953,0,0
168,71,0,0,0,0,0,0,0,0,0,-1,1392,953,0,0
175,71,0,0,0,0,0,0,0,0,0,-1,1399,953,0,0
182,71,0,0,0,0,0,0,0,0,0,-1,1406,953,0,0
189,71,0,0,0,0,0,0,0,0,0,-1,1413,953,0,0
196,71,0,0,0,0,0,0,0,0,0,-1,1420,953,0,0
203,71,0,0,0,0,0,0,0,0,0,-1,1427,953,0,0
210,71,0,0,0,0,0,0,0,0,0,-1,1434,953,0,0
217,71,0,0,0,0,0,0,0,0,0,-1,1441,953,0,0
224,71,0,0,0,0,0,0,0,0,0,-1,1448,953,0,0
231,71,0,0,0,0,0,0,0,0,0,-1,1455,953,0,0
238,71,0,0,0,0,0,0,0,0,0,-1,1462,953,0,0
245,71,0,0,0,0,0,0,0,0,0,-1,1469,953,0,0
252,71,0,0,0,0,0,0,0,0,0,-1,1476,953,0,0
259,71,0,0,0,0,0,0,0,0,0,-1,1483,953,0,0
266,71,0,0,0,0,0,0,0,0,0,-1,1490,953,0,0
273,71,0,0,0,0,0,0,0,0,0,-1,1497,953,0,0
280,71,0,0,0,0,0,0,0,0,0,-1,1504,953,0,0
287,71,0,0,0,0,0,0,0,0,0,-1,1511,953,0,0
294,71,0,0,0,0,0,0,0,0,0,-1,1518,953,0,0
301,71,0,0,0,0,0,0,0,0,0,-1,1525,953,0,0
308,71,0,0,0,0,0,0,0,0,0,-1,1532,953,0,0
315,71,0,0,0,0,0,0,0,0,0,-1,1539,953,0,0
322,71,0,0,0,0,0,0,0,0,0,-1,1546,953,0,0
329,71,0,0,0,0,0,0,0,0,0,-1,1553,953,0,0
336,71,0,0,0,0,0,0,0,0,0,-1,1560,953,0,0
343,71,0,0,0,0,0,0,0,0,0,-1,1567,953,0,0
350,71,0,0,0,0,0,0,0,0,0,-1,1574,953,0,0
357,71,0,0,0,0,0,0,0,0,0,-1,1581,953,0,0
364,71,0,0,0,0,0,0,0,0,0,-1,1588,953,0,0
371,71,0,0,0,0,0,0,0,0,0,-1,1595,953,0,0
378,71,0,0,0,0,0,0,0,0,0,-1,1602,953,0,0
385,71,0,0,0,0,0,0,0,0,0,-1,1609,953,0,0
392,71,0,0,0,0,0,0,0,0,0,-1,1616,953,0,0
399,71,0,0,0,0,0,0,0,0,0,-1,1623,953,0,0
406,71,0,0,0,0,0,0,0,0,0,-1,1630,953,0,0
413,71,0,0,0,0,0,0,0,0,0,-1,1637,953,0,0
420,71,0,0,0,0,0,0,0,0,0,-1,1644,953,0,0
427,71,0,0,0,0,0,0,0,0,0,-1,1651,953,0,0
434,71,0,0,0,0,0,0,0,0,0,-1,1658,953,0,0
441,71,0,0,0,0,0,0,0,0,0,-1,1665,953,0,0
448,71,0,0,0,0,0,0,0,0,0,-1,1672,953,0,0
455,71,0,0,0,0,0,0,0,0,0,-1,1679,953,0,0
462,71,0,0,0,0,0,0,0,0,0,-1,1686,953,0,0
469,71,0,0,0,0,0,0,0,0,0,-1,1693,953,0,0
476,71,0,0,0,0,0,0,0,0,0,-1,1700,953,0,0
483,71,0,0,0,0,0,0,0,0,0,-1,1707,953,0,0
490,71,0,0,0,0,0,0,0,0,0,-1,1714,953,0,0
497,71,0,0,0,0,0,0,0,0,0,-1,1721,953,0,0
504,71,0,0,0,0,0,0,0,0,0,-1,1728,953,0,0
511,71,0,0,0,0,0,0,0,0,0,-1,1735,953,0,0
518,71,0,0,0,0,0,0,0,0,0,-1,1742,953,0,0
525,71,0,0,0,0,0,0,0,0,0,-1,1749,953,0,0
532,71,0,0,0,0,0,0,0,0,0,-1,1756,953,0,0
539,71,0,0,0,0,0,0,0,0,0,-1,1763,953,0,0
546,71,0,0,0,0,0,0,0,0,0,-1,1770,953,0,0
553,71,0,0,0,0,0,0,0,0,0,-1,1777,953,0,0
560,71,0,0,0,0,0,0,0,0,0,-1,1784,953,0,0
567,71,0,0,0,0,0,0,0,0,0,-1,1791,953,0,0
574,71,0,0,0,0,0,0,0,0,0,-1,1798,953,0,0
581,71,0,0,0,0,0,0,0,0,0,-1,1805,953,0,0
588,71,0,0,0,0,0,0,0,0,0,-1,1812,953,0,0
595,71,0,0,0,0,0,0,0,0,0,-1,1819,953,0,0
602,71,0,0,0,0,0,0,0,0,0,-1,1826,953,0,0
609,71,0,0,0,0,0,0,0,0,0,-1,1833,953,0,0
616,71,0,0,0,0,0,0,0,0,0,-1,1840,953,0,0
623,71,0,0,0,0,0,0,0,0,0,-1,1847,953,0,0
630,71,0,0,0,0,0,0,0,0,0,-1,1854,953,0,0
637,71,25.3342,2.38983,0,0,0,0,0,0,0,-1,1861,953,25.3342,-2.38981
644,71,25.0537,2.26331,0.00328625,0.0025613,-0.00135766,0.004329,0.00151856,-0.654948,0.00253617,0.0422385,1868,953,25.0537,-2.26328
651,71,24.9623,2.34186,0.00146054,0.00205979,-0.000201862,0.00212144,0.00139888,-1.27436,0.00124539,0.0401271,1875,953,24.9622,-2.34186
658,71,24.9354,2.61151,0.000116351,0.00169513,0.000697115,0.00195888,-0.0001474,1.2091,0.00135773,0.0369412,1882,953,24.9354,-2.61151
665,71,24.8357,2.79242,-0.000909229,0.00157944,0.00154068,0.00231552,-0.00164531,1.12509,0.00229768,0.0372569,1889,953,24.8357,-2.7924
672,71,24.7867,2.81903,-0.00160304,0.0015357,0.00220939,0.00267637,-0.00274371,1.09421,0.00312937,0.0392487,1896,953,24.7867,-2.81905
679,71,24.801,2.76038,-0.00200678,0.00150449,0.00263658,0.00291648,-0.00341876,1.07913,0.00366148,0.0392115,1903,953,24.8011,-2.76037
686,71,24.8069,2.63892,-0.00216807,0.00154951,0.00281434,0.00306349,-0.00368205,1.07725,0.0039,0.0367298,1910,953,24.8068,-2.63891
693,71,24.8595,2.57855,-0.00230964,0.00141155,0.00292833,0.00302038,-0.00391848,1.06841,0.00401732,0.0324573,1917,953,24.8595,-2.57855
700,71,24.8441,2.65741,-0.00237895,0.00138755,0.00295836,0.00301123,-0.00400263,1.06884,0.00406291,0.0294084,1924,953,24.8441,-2.65741
707,71,24.7571,2.98358,-0.00222624,0.00142623,0.00267742,0.00284094,-0.00364095,1.0847,0.00375181,0.0313589,1931,953,24.7571,-2.9836
714,71,23.7062,3.68884,0,0,0,0,0,0,0,-1,1938,953,23.7062,-3.68885
721,71,23.5752,3.79547,-0.0016616,0.00166912,0.00180146,0.00245707,-0.00244954,1.15848,0.00283283,0.0317834,1945,953,23.5752,-3.7955
728,71,23.4824,3.98492,-0.00156787,0.00187397,0.00155303,0.00247112,-0.00216502,1.20372,0.00267862,0.0188865,1952,953,23.4824,-3.98492
735,71,23.4675,4.12714,-0.00189246,0.00292748,0.00140432,0.00330678,-0.00227176,1.30699,0.0032392,0.0133553,1959,953,23.4676,-4.12715
742,71,23.4769,4.25873,-0.00271392,0.00444795,0.00135238,0.00469481,-0.00296078,1.39025,0.00445759,0.0141303,1966,953,23.477,-4.25875
749,71,23.4767,4.37878,-0.00357804,0.00624463,0.00136204,0.00643,-0.00376341,1.43553,0.00595191,0.0159794,1973,953,23.4767,-4.37879
756,71,23.4554,4.50635,-0.00487692,0.00877706,0.00164179,0.0089717,-0.00507156,1.45279,0.00821144,0.0154226,1980,953,23.4554,-4.50632
763,71,23.4387,4.66437,-0.00689507,0.0124871,0.00241838,0.0127843,-0.00719226,1.44852,0.0116831,0.0133124,1987,953,23.4387,-4.66436
770,71,23.4172,4.82257,-0.00971166,0.0175042,0.00391125,0.0180551,-0.0102626,1.43086,0.0165543,0.0152353,1994,953,23.4172,-4.82259
777,71,23.3981,4.95227,-0.0132133,0.023565,0.00588752,0.0244845,-0.0141328,1.41587,0.0225611,0.0346311,2001,953,23.398,-4.95227
784,71,22.7688,4.93073,-0.0175799,0.0307449,0.00838991,0.03216,-0.0189951,1.40369,0.0298587,0.0472136,2008,953,22.7688,-4.93074
791,71,22.1204,4.85199,-0.0227541,0.0390941,0.0114299,0.0411388,-0.0247988,1.39378,0.0384568,0.0479992,2015,953,22.1204,-4.85199
798,71,22.0006,4.61102,0,0,0,0,0,0,0,-1,2022,953,22.0006,-4.611
805,71,23.5691,2.17041,0,0,0,0,0,0,0,-1,2029,953,23.569,-2.1704
812,71,0,0,0,0,0,0,0,0,0,-1,2036,953,0,0
-700,64,0,0,0,0,0,0,0,0,0,-1,524,960,0,0
-693,64,0,0,0,0,0,0,0,0,0,-1,531,960,0,0
-686,64,-8.17126,5.06647,0,0,0,0,0,0,0,-1,538,960,-8.17125,-5.06647
-679,64,-9.2627,4.56018,-0.0859269,0.0750002,0.0116436,0.0758383,-0.086765,1.49894,0.0939497,0.0490937,545,960,-9.26267,-4.5602
-672,64,-16.0859,2.07898,-0.0678234,0.057059,0.00958,0.0577896,-0.068554,1.49468,0.0730327,0.0445406,552,960,-16.0859,-2.079
-665,64,-16.4828,2.46649,-0.0519472,0.0424804,0.00788794,0.0431347,-0.0526016,1.48803,0.0553634,0.0456352,559,960,-16.4828,-2.46651
-658,64,-16.5479,2.59277,-0.0384361,0.0308221,0.00651455,0.0314296,-0.0390435,1.47782,0.0407667,0.0470002,566,960,-16.5479,-2.59274
-651,64,-16.5169,2.46289,-0.0273553,0.0217371,0.005394,0.0223227,-0.027941,1.46264,0.0290801,0.0425346,573,960,-16.5169,-2.46289
-644,64,-16.4568,2.29053,-0.0186696,0.0149206,0.00443109,0.0154953,-0.0192443,1.44182,0.0200958,0.0297671,580,960,-16.4569,-2.29054
-637,64,-16.4424,2.24237,-0.0118246,0.00913098,0.00293502,0.0095343,-0.0122279,1.43424,0.0125965,0.0149945,587,960,-16.4424,-2.24239
-630,64,-16.4857,2.13544,-0.00702596,0.00482271,0.00182046,0.00509611,-0.00729935,1.42173,0.00719411,0.0127383,594,960,-16.4856,-2.13543
-623,64,-16.4944,2.01215,-0.00355286,0.00215459,0.00156722,0.00255662,-0.00395488,1.31969,0.0037882,0.0140568,601,960,-16.4944,-2.01215
-616,64,-16.4933,1.84906,-0.00336442,0.00141707,0.00107151,0.00164621,-0.00359356,1.36012,0.00309404,0.0171524,608,960,-16.4934,-1.84908
-609,64,-16.4704,1.7677,-0.00409201,0.00144963,9.54636e-05,0.00145128,-0.00409366,1.55358,0.00332033,0.0150508,615,960,-16.4704,-1.76768
-602,64,-16.4468,1.66937,-0.00515467,0.00107174,-0.000672331,0.00114352,-0.00522645,-1.46445,0.00392144,0.0160392,622,960,-16.4468,-1.66934
-595,64,-16.4588,1.56403,-0.00620034,0.000676656,-0.00124891,0.000896442,-0.00642012,-1.3966,0.00460805,0.0168228,629,960,-16.4588,-1.564
-588,64,-16.4677,1.53387,-0.00675745,0.000144726,-0.00158399,0.000490878,-0.0071036,-1.35565,0.00490755,0.0241814,636,960,-16.4677,-1.5339
-581,64,-16.6718,1.2464,-0.00701202,-0.000306021,-0.0017767,0.000135616,-0.00745366,-1.32716,0.00501492,0.0308254,643,960,-16.6718,-1.24637
-574,64,-17.0116,0.966309,-0.00711824,-0.000763279,-0.00189283,-0.00024222,-0.0076393,-1.30217,0.00501408,0.0319411,650,960,-17.0116,-0.966285
-567,64,-17.093,0.775391,-0.00693599,-0.000996062,-0.00183923,-0.000472682,-0.00745937,-1.29356,0.00482308,0.0238608,657,960,-17.093,-0.775414
-560,64,-17.1142,0.762939,-0.00627871,-0.00128092,-0.00171402,-0.000749577,-0.00681005,-1.27019,0.00431195,0.0317061,664,960,-17.1142,-0.762939
-553,64,-16.9941,0.793579,-0.00517441,-0.00151402,-0.00155399,-0.000943278,-0.00574515,-1.21882,0.00355761,0.0378632,671,960,-16.9941,-0.793559
-546,64,-17.046,0.736023,-0.0037171,-0.00163414,-0.00139241,-0.000936806,-0.00441444,-1.1065,0.00268571,0.0415134,678,960,-17.046,-0.736014
-539,64,-17.2999,0.669373,-0.00205205,-0.00158975,-0.0012916,-0.000508779,-0.00313302,-0.873942,0.00194144,0.0419349,685,960,-17.2999,-0.669386
-532,64,-17.0361,0.864136,-0.000571891,-0.00121993,-0.00146268,0.000602229,-0.00239405,-0.676397,0.00183011,0.0430187,692,960,-17.0361,-0.864141
-525,64,-17.0029,0.878479,-0.000560791,-0.000185902,-0.00219699,0.00183163,-0.00257832,-0.827954,0.00255822,0.0422935,699,960,-17.0029,-0.878458
-518,64,0,0,0,0,0,0,0,0,0,-1,706,960,0,0
-511,64,0,0,0,0,0,0,0,0,0,-1,713,960,0,0
-504,64,0,0,0,0,0,0,0,0,0,-1,720,960,0,0
-497,64,0,0,0,0,0,0,0,0,0,-1,727,960,0,0
-490,64,0,0,0,0,0,0,0,0,0,-1,734,960,0,0
-483,64,0,0,0,0,0,0,0,0,0,-1,741,960,0,0
-476,64,0,0,0,0,0,0,0,0,0,-1,748,960,0,0
-469,64,0,0,0,0,0,0,0,0,0,-1,755,960,0,0
-462,64,0,0,0,0,0,0,0,0,0,-1,762,960,0,0
-455,64,0,0,0,0,0,0,0,0,0,-1,769,960,0,0
-448,64,0,0,0,0,0,0,0,0,0,-1,776,960,0,0
-441,64,0,0,0,0,0,0,0,0,0,-1,783,960,0,0
-434,64,0,0,0,0,0,0,0,0,0,-1,790,960,0,0
-427,64,0,0,0,0,0,0,0,0,0,-1,797,960,0,0
-420,64,0,0,0,0,0,0,0,0,0,-1,804,960,0,0
-413,64,0,0,0,0,0,0,0,0,0,-1,811,960,0,0
-406,64,0,0,0,0,0,0,0,0,0,-1,818,960,0,0
-399,64,0,0,0,0,0,0,0,0,0,-1,825,960,0,0
-392,64,0,0,0,0,0,0,0,0,0,-1,832,960,0,0
-385,64,0,0,0,0,0,0,0,0,0,-1,839,960,0,0
-378,64,0,0,0,0,0,0,0,0,0,-1,846,960,0,0
-371,64,0,0,0,0,0,0,0,0,0,-1,853,960,0,0
-364,64,0,0,0,0,0,0,0,0,0,-1,860,960,0,0
-357,64,0,0,0,0,0,0,0,0,0,-1,867,960,0,0
-350,64,0,0,0,0,0,0,0,0,0,-1,874,960,0,0
-343,64,0,0,0,0,0,0,0,0,0,-1,881,960,0,0
-336,64,0,0,0,0,0,0,0,0,0,-1,888,960,0,0
-329,64,0,0,0,0,0,0,0,0,0,-1,895,960,0,0
-322,64,0,0,0,0,0,0,0,0,0,-1,902,960,0,0
-315,64,0,0,0,0,0,0,0,0,0,-1,909,960,0,0
-308,64,0,0,0,0,0,0,0,0,0,-1,916,960,0,0
-301,64,0,0,0,0,0,0,0,0,0,-1,923,960,0,0
-294,64,0,0,0,0,0,0,0,0,0,-1,930,960,0,0
-287,64,0,0,0,0,0,0,0,0,0,-1,937,960,0,0
-280,64,0,0,0,0,0,0,0,0,0,-1,944,960,0,0
-273,64,0,0,0,0,0,0,0,0,0,-1,951,960,0,0
-266,64,0,0,0,0,0,0,0,0,0,-1,958,960,0,0
-259,64,0,0,0,0,0,0,0,0,0,-1,965,960,0,0
-252,64,0,0,0,0,0,0,0,0,0,-1,972,960,0,0
-245,64,0,0,0,0,0,0,0,0,0,-1,979,960,0,0
-238,64,0,0,0,0,0,0,0,0,0,-1,986,960,0,0
-231,64,0,0,0,0,0,0,0,0,0,-1,993,960,0,0
-224,64,0,0,0,0,0,0,0,0,0,-1,1000,960,0,0
-217,64,0,0,0,0,0,0,0,0,0,-1,1007,960,0,0
-210,64,0,0,0,0,0,0,0,0,0,-1,1014,960,0,0
-203,64,0,0,0,0,0,0,0,0,0,-1,1021,960,0,0
-196,64,0,0,0,0,0,0,0,0,0,-1,1028,960,0,0
-189,64,0,0,0,0,0,0,0,0,0,-1,1035,960,0,0
-182,64,0,0,0,0,0,0,0,0,0,-1,1042,960,0,0
-175,64,0,0,0,0,0,0,0,0,0,-1,1049,960,0,0
-168,64,0,0,0,0,0,0,0,0,0,-1,1056,960,0,0
-161,64,0,0,0,0,0,0,0,0,0,-1,1063,960,0,0
-154,64,0,0,0,0,0,0,0,0,0,-1,1070,960,0,0
-147,64,0,0,0,0,0,0,0,0,0,-1,1077,960,0,0
-140,64,0,0,0,0,0,0,0,0,0,-1,1084,960,0,0
-133,64,0,0,0,0,0,0,0,0,0,-1,1091,960,0,0
-126,64,0,0,0,0,0,0,0,0,0,-1,1098,960,0,0
-119,64,0,0,0,0,0,0,0,0,0,-1,1105,960,0,0
-112,64,0,0,0,0,0,0,0,0,0,-1,1112,960,0,0
-105,64,0,0,0,0,0,0,0,0,0,-1,1119,960,0,0
-98,64,0,0,0,0,0,0,0,0,0,-1,1126,960,0,0
-91,64,0,0,0,0,0,0,0,0,0,-1,1133,960,0,0
-84,64,0,0,0,0,0,0,0,0,0,-1,1140,960,0,0
-77,64,0,0,0,0,0,0,0,0,0,-1,1147,960,0,0
-70,64,0,0,0,0,0,0,0,0,0,-1,1154,960,0,0
-63,64,0,0,0,0,0,0,0,0,0,-1,1161,960,0,0
-56,64,0,0,0,0,0,0,0,0,0,-1,1168,960,0,0
-49,64,0,0,0,0,0,0,0,0,0,-1,1175,960,0,0
-42,64,0,0,0,0,0,0,0,0,0,-1,1182,960,0,0
-35,64,0,0,0,0,0,0,0,0,0,-1,1189,960,0,0
-28,64,0,0,0,0,0,0,0,0,0,-1,1196,960,0,0
-21,64,0,0,0,0,0,0,0,0,0,-1,1203,960,0,0
-14,64,0,0,0,0,0,0,0,0,0,-1,1210,960,0,0
-7,64,0,0,0,0,0,0,0,0,0,-1,1217,960,0,0
0,64,0,0,0,0,0,0,0,0,0,-1,1224,960,0,0
7,64,0,0,0,0,0,0,0,0,0,-1,1231,960,0,0
14,64,0,0,0,0,0,0,0,0,0,-1,1238,960,0,0
21,64,0,0,0,0,0,0,0,0,0,-1,1245,960,0,0
28,64,0,0,0,0,0,0,0,0,0,-1,1252,960,0,0
35,64,0,0,0,0,0,0,0,0,0,-1,1259,960,0,0
42,64,0,0,0,0,0,0,0,0,0,-1,1266,960,0,0
49,64,0,0,0,0,0,0,0,0,0,-1,1273,960,0,0
56,64,0,0,0,0,0,0,0,0,0,-1,1280,960,0,0
63,64,0,0,0,0,0,0,0,0,0,-1,1287,960,0,0
70,64,0,0,0,0,0,0,0,0,0,-1,1294,960,0,0
77,64,0,0,0,0,0,0,0,0,0,-1,1301,960,0,0
84,64,0,0,0,0,0,0,0,0,0,-1,1308,960,0,0
91,64,0,0,0,0,0,0,0,0,0,-1,1315,960,0,0
98,64,0,0,0,0,0,0,0,0,0,-1,1322,960,0,0
105,64,0,0,0,0,0,0,0,0,0,-1,1329,960,0,0
112,64,0,0,0,0,0,0,0,0,0,-1,1336,960,0,0
119,64,0,0,0,0,0,0,0,0,0,-1,1343,960,0,0
126,64,0,0,0,0,0,0,0,0,0,-1,1350,960,0,0
133,64,0,0,0,0,0,0,0,0,0,-1,1357,960,0,0
140,64,0,0,0,0,0,0,0,0,0,-1,1364,960,0,0
147,64,0,0,0,0,0,0,0,0,0,-1,1371,960,0,0
154,64,0,0,0,0,0,0,0,0,0,-1,1378,960,0,0
161,64,0,0,0,0,0,0,0,0,0,-1,1385,960,0,0
168,64,0,0,0,0,0,0,0,0,0,-1,1392,960,0,0
175,64,0,0,0,0,0,0,0,0,0,-1,1399,960,0,0
182,64,0,0,0,0,0,0,0,0,0,-1,1406,960,0,0
189,64,0,0,0,0,0,0,0,0,0,-1,1413,960,0,0
196,64,0,0,0,0,0,0,0,0,0,-1,1420,960,0,0
203,64,0,0,0,0,0,0,0,0,0,-1,1427,960,0,0
210,64,0,0,0,0,0,0,0,0,0,-1,1434,960,0,0
217,64,0,0,0,0,0,0,0,0,0,-1,1441,960,0,0
224,64,0,0,0,0,0,0,0,0,0,-1,1448,960,0,0
231,64,0,0,0,0,0,0,0,0,0,-1,1455,960,0,0
238,64,0,0,0,0,0,0,0,0,0,-1,1462,960,0,0
245,64,0,0,0,0,0,0,0,0,0,-1,1469,960,0,0
252,64,0,0,0,0,0,0,0,0,0,-1,1476,960,0,0
259,64,0,0,0,0,0,0,0,0,0,-1,1483,960,0,0
266,64,0,0,0,0,0,0,0,0,0,-1,1490,960,0,0
273,64,0,0,0,0,0,0,0,0,0,-1,1497,960,0,0
280,64,0,0,0,0,0,0,0,0,0,-1,1504,960,0,0
287,64,0,0,0,0,0,0,0,0,0,-1,1511,960,0,0
294,64,0,0,0,0,0,0,0,0,0,-1,1518,960,0,0
301,64,0,0,0,0,0,0,0,0,0,-1,1525,960,0,0
308,64,0,0,0,0,0,0,0,0,0,-1,1532,960,0,0
315,64,0,0,0,0,0,0,0,0,0,-1,1539,960,0,0
322,64,0,0,0,0,0,0,0,0,0,-1,1546,960,0,0
329,64,0,0,0,0,0,0,0,0,0,-1,1553,960,0,0
336,64,0,0,0,0,0,0,0,0,0,-1,1560,960,0,0
343,64,0,0,0,0,0,0,0,0,0,-1,1567,960,0,0
350,64,0,0,0,0,0,0,0,0,0,-1,1574,960,0,0
357,64,0,0,0,0,0,0,0,0,0,-1,1581,960,0,0
364,64,0,0,0,0,0,0,0,0,0,-1,1588,960,0,0
371,64,0,0,0,0,0,0,0,0,0,-1,1595,960,0,0
378,64,0,0,0,0,0,0,0,0,0,-1,1602,960,0,0
385,64,0,0,0,0,0,0,0,0,0,-1,1609,960,0,0
392,64,0,0,0,0,0,0,0,0,0,-1,1616,960,0,0
399,64,0,0,0,0,0,0,0,0,0,-1,1623,960,0,0
406,64,0,0,0,0,0,0,0,0,0,-1,1630,960,0,0
413,64,0,0,0,0,0,0,0,0,0,-1,1637,960,0,0
420,64,0,0,0,0,0,0,0,0,0,-1,1644,960,0,0
427,64,0,0,0,0,0,0,0,0,0,-1,1651,960,0,0
434,64,0,0,0,0,0,0,0,0,0,-1,1658,960,0,0
441,64,0,0,0,0,0,0,0,0,0,-1,1665,960,0,0
448,64,0,0,0,0,0,0,0,0,0,-1,1672,960,0,0
455,64,0,0,0,0,0,0,0,0,0,-1,1679,960,0,0
462,64,0,0,0,0,0,0,0,0,0,-1,1686,960,0,0
469,64,0,0,0,0,0,0,0,0,0,-1,1693,960,0,0
476,64,0,0,0,0,0,0,0,0,0,-1,1700,960,0,0
483,64,0,0,0,0,0,0,0,0,0,-1,1707,960,0,0
490,64,0,0,0,0,0,0,0,0,0,-1,1714,960,0,0
497,64,0,0,0,0,0,0,0,0,0,-1,1721,960,0,0
504,64,0,0,0,0,0,0,0,0,0,-1,1728,960,0,0
511,64,0,0,0,0,0,0,0,0,0,-1,1735,960,0,0
518,64,0,0,0,0,0,0,0,0,0,-1,1742,960,0,0
525,64,0,0,0,0,0,0,0,0,0,-1,1749,960,0,0
532,64,0,0,0,0,0,0,0,0,0,-1,1756,960,0,0
539,64,0,0,0,0,0,0,0,0,0,-1,1763,960,0,0
546,64,0,0,0,0,0,0,0,0,0,-1,1770,960,0,0
553,64,0,0,0,0,0,0,0,0,0,-1,1777,960,0,0
560,64,0,0,0,0,0,0,0,0,0,-1,1784,960,0,0
567,64,0,0,0,0,0,0,0,0,0,-1,1791,960,0,0
574,64,0,0,0,0,0,0,0,0,0,-1,1798,960,0,0
581,64,0,0,0,0,0,0,0,0,0,-1,1805,960,0,0
588,64,0,0,0,0,0,0,0,0,0,-1,1812,960,0,0
595,64,0,0,0,0,0,0,0,0,0,-1,1819,960,0,0
602,64,0,0,0,0,0,0,0,0,0,-1,1826,960,0,0
609,64,0,0,0,0,0,0,0,0,0,-1,1833,960,0,0
616,64,0,0,0,0,0,0,0,0,0,-1,1840,960,0,0
623,64,0,0,0,0,0,0,0,0,0,-1,1847,960,0,0
630,64,0,0,0,0,0,0,0,0,0,-1,1854,960,0,0
637,64,0,0,0,0,0,0,0,0,0,-1,1861,960,0,0
644,64,24.7919,2.56299,0.0028679,0.00167589,-0.00175686,0.0041271,0.00041669,-0.621867,0.00262356,0.0419443,1868,960,24.7918,-2.56299
651,64,24.8528,2.41846,0.00130868,0.00132321,-0.00040977,0.00172578,0.000906113,-0.794264,0.000996797,0.0391872,1875,960,24.8528,-2.41846
658,64,24.9313,2.62415,0.00018003,0.00107772,0.000588196,0.00136876,-0.000111014,1.11131,0.000951675,0.0353,1882,960,24.9313,-2.62415
665,64,24.9089,2.67572,-0.000722327,0.00112112,0.00154031,0.00199443,-0.00159564,1.05502,0.00207699,0.0398236,1889,960,24.909,-2.67569
672,64,24.9512,2.6153,-0.00137221,0.00127316,0.00233314,0.00263246,-0.00273151,1.04327,0.00309706,0.0445788,1896,960,24.9511,-2.61529
679,64,24.8781,2.68921,-0.00180069,0.00141214,0.00286213,0.00308785,-0.0034764,1.04112,0.00379209,0.0421113,1903,960,24.8781,-2.68918
686,64,24.873,2.5683,-0.00200204,0.00157051,0.00312331,0.00338226,-0.00381379,1.04516,0.00415713,0.0362088,1910,960,24.873,-2.5683
693,64,24.8784,2.59399,-0.00216996,0.00154462,0.00328269,0.00345902,-0.00408435,1.04284,0.00436015,0.0324187,1917,960,24.8784,-2.59399
700,64,24.8563,2.69519,-0.00226146,0.00160297,0.00332658,0.00351778,-0.00417627,1.0485,0.00444758,0.0280847,1924,960,24.8563,-2.69519
707,64,24.8044,2.9389,-0.00216931,0.00171242,0.0030419,0.0033799,-0.00383679,1.06936,0.00416934,0.0350254,1931,960,24.8044,-2.9389
714,64,24.745,3.36932,0,0,0,0,0,0,0,-1,1938,960,24.745,-3.36931
721,64,23.6379,3.84686,0,0,0,0,0,0,0,-1,1945,960,23.6379,-3.84688
728,64,23.5916,4.0072,-0.00187733,0.00213523,0.00184261,0.00285299,-0.00259508,1.19935,0.00314662,0.0152254,1952,960,23.5916,-4.00719
735,64,23.5939,4.14014,-0.00220825,0.00298428,0.00151717,0.00339507,-0.00261904,1.30637,0.00348187,0.0200783,1959,960,23.5938,-4.14014
742,64,23.6332,4.25427,-0.0029391,0.00419511,0.00130366,0.00442587,-0.00316986,1.3956,0.00440533,0.0182269,1966,960,23.6332,-4.25428
749,64,23.6036,4.38135,-0.00375553,0.00563642,0.00111324,0.00576657,-0.00388568,1.45441,0.00560789,0.0138255,1973,960,23.6036,-4.38134
756,64,23.5886,4.50507,-0.0048641,0.00761251,0.00110222,0.00770913,-0.00496073,1.48336,0.00737209,0.0139165,1980,960,23.5886,-4.50507
763,64,23.5746,4.63574,-0.00658477,0.0105503,0.00147047,0.0106756,-0.00671004,1.48581,0.0101243,0.0131847,1987,960,23.5745,-4.63574
770,64,23.5513,4.75385,-0.00898748,0.0146086,0.00251502,0.0148737,-0.00925257,1.46578,0.0140548,0.014046,1994,960,23.5513,-4.75385
777,64,23.4563,4.85394,-0.0118861,0.0195026,0.00403019,0.0200118,-0.0123953,1.44512,0.0188817,0.0316959,2001,960,23.4563,-4.85392
784,64,23.472,4.96466,-0.0153781,0.0251582,0.00600718,0.0260297,-0.0162495,1.42673,0.0246266,0.0459165,2008,960,23.472,-4.96469
791,64,23.3826,5.12958,0,0,0,0,0,0,0,-1,2015,960,23.3826,-5.12956
798,64,21.1268,3.19067,0,0,0,0,0,0,0,-1,2022,960,21.1268,-3.19065
805,64,24.105,1.84631,0,0,0,0,0,0,0,-1,2029,960,24.1051,-1.84632
812,64,0,0,0,0,0,0,0,0,0,-1,2036,960,0,0
-700,57,0,0,0,0,0,0,0,0,0,-1,524,967,0,0
-693,57,0,0,0,0,0,0,0,0,0,-1,531,967,0,0
-686,57,-9.09796,3.98077,-0.110126,0.100755,0.0223351,0.103095,-0.112465,1.46643,0.124493,0.0486402,538,967,-9.09797,-3.98078
-679,57,-10.1887,3.47723,-0.0894952,0.0786457,0.0181617,0.0805851,-0.0914345,1.46442,0.0993814,0.049613,545,967,-10.1887,-3.47725
-672,57,-11.2283,2.91418,0,0,0,0,0,0,0,-1,552,967,-11.2284,-2.91417
-665,57,-17.2599,2.37976,0,0,0,0,0,0,0,-1,559,967,-17.2599,-2.37979
-658,57,-16.4241,2.26697,0,0,0,0,0,0,0,-1,566,967,-16.4241,-2.26698
-651,57,-16.5308,2.26892,-0.0295051,0.0238344,0.00725508,0.0248036,-0.0304743,1.43799,0.0319706,0.04329,573,967,-16.5308,-2.26894
-644,57,-16.5707,2.13245,-0.0203988,0.0165221,0.00557504,0.0173455,-0.0212223,1.42415,0.0223046,0.0278115,580,967,-16.5707,-2.13246
-637,57,-16.5695,2.13672,-0.0130584,0.0101899,0.00342649,0.0106844,-0.0135529,1.42747,0.014026,0.0157998,587,967,-16.5695,-2.13673
-630,57,-16.6135,2.08838,-0.00780899,0.00552672,0.00177441,0.00575878,-0.00804105,1.44075,0.00800357,0.0133563,594,967,-16.6136,-2.08839
-623,57,-16.5992,2.02173,-0.00401989,0.00261507,0.00120775,0.00282808,-0.0042329,1.39623,0.00410346,0.0125364,601,967,-16.5992,-2.02174
-616,57,-16.6023,1.89313,-0.00368445,0.00194135,0.000593211,0.00200322,-0.00374632,1.46687,0.00336997,0.013661,608,967,-16.6023,-1.89313
-609,57,-16.6176,1.75732,-0.00411758,0.00181434,-0.000377363,0.00183825,-0.00414149,-1.50752,0.00353674,0.0133683,615,967,-16.6176,-1.75735
-602,57,-16.6022,1.68726,-0.00486014,0.0013604,-0.0010822,0.0015433,-0.00504303,-1.40338,0.00397754,0.0110072,622,967,-16.6023,-1.68727
-595,57,-16.5853,1.59753,-0.00558536,0.000886808,-0.00165681,0.00128628,-0.00598483,-1.3342,0.00448061,0.0122283,629,967,-16.5854,-1.59751
-588,57,-16.6143,1.55341,-0.00595457,0.000338304,-0.00195687,0.00089719,-0.00651345,-1.2926,0.00467018,0.0180743,636,967,-16.6143,-1.55338
-581,57,-16.8302,1.21851,-0.00612787,-0.000140501,-0.00210462,0.000525262,-0.00679363,-1.26442,0.00471394,0.0250122,643,967,-16.8302,-1.2185
-574,57,-17.0822,0.859497,-0.00618034,-0.000693185,-0.00219453,7.65256e-05,-0.00695005,-1.23346,0.00465909,0.0269581,650,967,-17.0822,-0.859525
-567,57,-17.1197,0.690979,-0.00591679,-0.0010836,-0.0020793,-0.000312184,-0.00668821,-1.21554,0.00435847,0.030954,657,967,-17.1197,-0.69097
-560,57,-17.1091,0.761841,-0.00522683,-0.00158318,-0.00189805,-0.000774108,-0.0060359,-1.16785,0.00379232,0.0379973,664,967,-17.1091,-0.761814
-553,57,-16.806,0.791321,-0.00413411,-0.00206146,-0.00170829,-0.00109973,-0.00509584,-1.05804,0.00309644,0.039052,671,967,-16.806,-0.79132
-546,57,-16.7239,0.556824,-0.00273538,-0.00248613,-0.00156004,-0.00104574,-0.00417576,-0.825256,0.00250899,0.0437268,678,967,-16.724,-0.556819
-539,57,-16.8733,0.546936,-0.00117906,-0.00280337,-0.0015497,-0.000241592,-0.00374083,-0.544038,0.00241738,0.0443107,685,967,-16.8733,-0.546961
-532,57,-16.9139,0.792969,7.44917e-05,-0.00281239,-0.00196573,0.00106982,-0.00380772,-0.468709,0.00296024,0.0407386,692,967,-16.9139,-0.792974
-525,57,-17.0444,0.764893,-0.000309258,-0.00218816,-0.00312771,0.00201705,-0.00451446,-0.639503,0.00386176,0.0409766,699,967,-17.0444,-0.76491
-518,57,0,0,0,0,0,0,0,0,0,-1,706,967,0,0
-511,57,0,0,0,0,0,0,0,0,0,-1,713,967,0,0
-504,57,0,0,0,0,0,0,0,0,0,-1,720,967,0,0
-497,57,0,0,0,0,0,0,0,0,0,-1,727,967,0,0
-490,57,0,0,0,0,0,0,0,0,0,-1,734,967,0,0
-483,57,0,0,0,0,0,0,0,0,0,-1,741,967,0,0
-476,57,0,0,0,0,0,0,0,0,0,-1,748,967,0,0
-469,57,0,0,0,0,0,0,0,0,0,-1,755,967,0,0
-462,57,0,0,0,0,0,0,0,0,0,-1,762,967,0,0
-455,57,0,0,0,0,0,0,0,0,0,-1,769,967,0,0
-448,57,0,0,0,0,0,0,0,0,0,-1,776,967,0,0
-441,57,0,0,0,0,0,0,0,0,0,-1,783,967,0,0
-434,57,0,0,0,0,0,0,0,0,0,-1,790,967,0,0
-427,57,0,0,0,0,0,0,0,0,0,-1,797,967,0,0
-420,57,0,0,0,0,0,0,0,0,0,-1,804,967,0,0
-413,57,0,0,0,0,0,0,0,0,0,-1,811,967,0,0
-406,57,0,0,0,0,0,0,0,0,0,-1,818,967,0,0
-399,57,0,0,0,0,0,0,0,0,0,-1,825,967,0,0
-392,57,0,0,0,0,0,0,0,0,0,-1,832,967,0,0
-385,57,0,0,0,0,0,0,0,0,0,-1,839,967,0,0
-378,57,0,0,0,0,0,0,0,0,0,-1,846,967,0,0
-371,57,0,0,0,0,0,0,0,0,0,-1,853,967,0,0
-364,57,0,0,0,0,0,0,0,0,0,-1,860,967,0,0
-357,57,0,0,0,0,0,0,0,0,0,-1,867,967,0,0
-350,57,0,0,0,0,0,0,0,0,0,-1,874,967,0,0
-343,57,0,0,0,0,0,0,0,0,0,-1,881,967,0,0
-336,57,0,0,0,0,0,0,0,0,0,-1,888,967,0,0
-329,57,0,0,0,0,0,0,0,0,0,-1,895,967,0,0
-322,57,0,0,0,0,0,0,0,0,0,-1,902,967,0,0
-315,57,0,0,0,0,0,0,0,0,0,-1,909,967,0,0
-308,57,0,0,0,0,0,0,0,0,0,-1,916,967,0,0
-301,57,0,0,0,0,0,0,0,0,0,-1,923,967,0,0
-294,57,0,0,0,0,0,0,0,0,0,-1,930,967,0,0
-287,57,0,0,0,0,0,0,0,0,0,-1,937,967,0,0
-280,57,0,0,0,0,0,0,0,0,0,-1,944,967,0,0
-273,57,0,0,0,0,0,0,0,0,0,-1,951,967,0,0
-266,57,0,0,0,0,0,0,0,0,0,-1,958,967,0,0
-259,57,0,0,0,0,0,0,0,0,0,-1,965,967,0,0
-252,57,0,0,0,0,0,0,0,0,0,-1,972,967,0,0
-245,57,0,0,0,0,0,0,0,0,0,-1,979,967,0,0
-238,57,0,0,0,0,0,0,0,0,0,-1,986,967,0,0
-231,57,0,0,0,0,0,0,0,0,0,-1,993,967,0,0
-224,57,0,0,0,0,0,0,0,0,0,-1,1000,967,0,0
-217,57,0,0,0,0,0,0,0,0,0,-1,1007,967,0,0
-210,57,0,0,0,0,0,0,0,0,0,-1,1014,967,0,0
-203,57,0,0,0,0,0,0,0,0,0,-1,1021,967,0,0
-196,57,0,0,0,0,0,0,0,0,0,-1,1028,967,0,0
-189,57,0,0,0,0,0,0,0,0,0,-1,1035,967,0,0
-182,57,0,0,0,0,0,0,0,0,0,-1,1042,967,0,0
-175,57,0,0,0,0,0,0,0,0,0,-1,1049,967,0,0
-168,57,0,0,0,0,0,0,0,0,0,-1,1056,967,0,0
-161,57,0,0,0,0,0,0,0,0,0,-1,1063,967,0,0
-154,57,0,0,0,0,0,0,0,0,0,-1,1070,967,0,0
-147,57,0,0,0,0,0,0,0,0,0,-1,1077,967,0,0
-140,57,0,0,0,0,0,0,0,0,0,-1,1084,967,0,0
-133,57,0,0,0,0,0,0,0,0,0,-1,1091,967,0,0
-126,57,0,0,0,0,0,0,0,0,0,-1,1098,967,0,0
-119,57,0,0,0,0,0,0,0,0,0,-1,1105,967,0,0
-112,57,0,0,0,0,0,0,0,0,0,-1,1112,967,0,0
-105,57,0,0,0,0,0,0,0,0,0,-1,1119,967,0,0
-98,57,0,0,0,0,0,0,0,0,0,-1,1126,967,0,0
-91,57,0,0,0,0,0,0,0,0,0,-1,1133,967,0,0
-84,57,0,0,0,0,0,0,0,0,0,-1,1140,967,0,0
-77,57,0,0,0,0,0,0,0,0,0,-1,1147,967,0,0
-70,57,0,0,0,0,0,0,0,0,0,-1,1154,967,0,0
-63,57,0,0,0,0,0,0,0,0,0,-1,1161,967,0,0
-56,57,0,0,0,0,0,0,0,0,0,-1,1168,967,0,0
-49,57,0,0,0,0,0,0,0,0,0,-1,1175,967,0,0
-42,57,0,0,0,0,0,0,0,0,0,-1,1182,967,0,0
-35,57,0,0,0,0,0,0,0,0,0,-1,1189,967,0,0
-28,57,0,0,0,0,0,0,0,0,0,-1,1196,967,0,0
-21,57,0,0,0,0,0,0,0,0,0,-1,1203,967,0,0
-14,57,0,0,0,0,0,0,0,0,0,-1,1210,967,0,0
-7,57,0,0,0,0,0,0,0,0,0,-1,1217,967,0,0
0,57,0,0,0,0,0,0,0,0,0,-1,1224,967,0,0
7,57,0,0,0,0,0,0,0,0,0,-1,1231,967,0,0
14,57,0,0,0,0,0,0,0,0,0,-1,1238,967,0,0
21,57,0,0,0,0,0,0,0,0,0,-1,1245,967,0,0
28,57,0,0,0,0,0,0,0,0,0,-1,1252,967,0,0
35,57,0,0,0,0,0,0,0,0,0,-1,1259,967,0,0
42,57,0,0,0,0,0,0,0,0,0,-1,1266,967,0,0
49,57,0,0,0,0,0,0,0,0,0,-1,1273,967,0,0
56,57,0,0,0,0,0,0,0,0,0,-1,1280,967,0,0
63,57,0,0,0,0,0,0,0,0,0,-1,1287,967,0,0
70,57,0,0,0,0,0,0,0,0,0,-1,1294,967,0,0
77,57,0,0,0,0,0,0,0,0,0,-1,1301,967,0,0
84,57,0,0,0,0,0,0,0,0,0,-1,1308,967,0,0
91,57,0,0,0,0,0,0,0,0,0,-1,1315,967,0,0
98,57,0,0,0,0,0,0,0,0,0,-1,1322,967,0,0
105,57,0,0,0,0,0,0,0,0,0,-1,1329,967,0,0
112,57,0,0,0,0,0,0,0,0,0,-1,1336,967,0,0
119,57,0,0,0,0,0,0,0,0,0,-1,1343,967,0,0
126,57,0,0,0,0,0,0,0,0,0,-1,1350,967,0,0
133,57,0,0,0,0,0,0,0,0,0,-1,1357,967,0,0
140,57,0,0,0,0,0,0,0,0,0,-1,1364,967,0,0
147,57,0,0,0,0,0,0,0,0,0,-1,1371,967,0,0
154,57,0,0,0,0,0,0,0,0,0,-1,1378,967,0,0
161,57,0,0,0,0,0,0,0,0,0,-1,1385,967,0,0
168,57,0,0,0,0,0,0,0,0,0,-1,1392,967,0,0
175,57,0,0,0,0,0,0,0,0,0,-1,1399,967,0,0
182,57,0,0,0,0,0,0,0,0,0,-1,1406,967,0,0
189,57,0,0,0,0,0,0,0,0,0,-1,1413,967,0,0
196,57,0,0,0,0,0,0,0,0,0,-1,1420,967,0,0
203,57,0,0,0,0,0,0,0,0,0,-1,1427,967,0,0
210,57,0,0,0,0,0,0,0,0,0,-1,1434,967,0,0
217,57,0,0,0,0,0,0,0,0,0,-1,1441,967,0,0
224,57,0,0,0,0,0,0,0,0,0,-1,1448,967,0,0
231,57,0,0,0,0,0,0,0,0,0,-1,1455,967,0,0
238,57,0,0,0,0,0,0,0,0,0,-1,1462,967,0,0
245,57,0,0,0,0,0,0,0,0,0,-1,1469,967,0,0
252,57,0,0,0,0,0,0,0,0,0,-1,1476,967,0,0
259,57,0,0,0,0,0,0,0,0,0,-1,1483,967,0,0
266,57,0,0,0,0,0,0,0,0,0,-1,1490,967,0,0
273,57,0,0,0,0,0,0,0,0,0,-1,1497,967,0,0
280,57,0,0,0,0,0,0,0,0,0,-1,1504,967,0,0
287,57,0,0,0,0,0,0,0,0,0,-1,1511,967,0,0
294,57,0,0,0,0,0,0,0,0,0,-1,1518,967,0,0
301,57,0,0,0,0,0,0,0,0,0,-1,1525,967,0,0
308,57,0,0,0,0,0,0,0,0,0,-1,1532,967,0,0
315,57,0,0,0,0,0,0,0,0,0,-1,1539,967,0,0
322,57,0,0,0,0,0,0,0,0,0,-1,1546,967,0,0
329,57,0,0,0,0,0,0,0,0,0,-1,1553,967,0,0
336,57,0,0,0,0,0,0,0,0,0,-1,1560,967,0,0
343,57,0,0,0,0,0,0,0,0,0,-1,1567,967,0,0
350,57,0,0,0,0,0,0,0,0,0,-1,1574,967,0,0
357,57,0,0,0,0,0,0,0,0,0,-1,1581,967,0,0
364,57,0,0,0,0,0,0,0,0,0,-1,1588,967,0,0
371,57,0,0,0,0,0,0,0,0,0,-1,1595,967,0,0
378,57,0,0,0,0,0,0,0,0,0,-1,1602,967,0,0
385,57,0,0,0,0,0,0,0,0,0,-1,1609,967,0,0
392,57,0,0,0,0,0,0,0,0,0,-1,1616,967,0,0
399,57,0,0,0,0,0,0,0,0,0,-1,1623,967,0,0
406,57,0,0,0,0,0,0,0,0,0,-1,1630,967,0,0
413,57,0,0,0,0,0,0,0,0,0,-1,1637,967,0,0
420,57,0,0,0,0,0,0,0,0,0,-1,1644,967,0,0
427,57,0,0,0,0,0,0,0,0,0,-1,1651,967,0,0
434,57,0,0,0,0,0,0,0,0,0,-1,1658,967,0,0
441,57,0,0,0,0,0,0,0,0,0,-1,1665,967,0,0
448,57,0,0,0,0,0,0,0,0,0,-1,1672,967,0,0
455,57,0,0,0,0,0,0,0,0,0,-1,1679,967,0,0
462,57,0,0,0,0,0,0,0,0,0,-1,1686,967,0,0
469,57,0,0,0,0,0,0,0,0,0,-1,1693,967,0,0
476,57,0,0,0,0,0,0,0,0,0,-1,1700,967,0,0
483,57,0,0,0,0,0,0,0,0,0,-1,1707,967,0,0
490,57,0,0,0,0,0,0,0,0,0,-1,1714,967,0,0
497,57,0,0,0,0,0,0,0,0,0,-1,1721,967,0,0
504,57,0,0,0,0,0,0,0,0,0,-1,1728,967,0,0
511,57,0,0,0,0,0,0,0,0,0,-1,1735,967,0,0
518,57,0,0,0,0,0,0,0,0,0,-1,1742,967,0,0
525,57,0,0,0,0,0,0,0,0,0,-1,1749,967,0,0
532,57,0,0,0,0,0,0,0,0,0,-1,1756,967,0,0
539,57,0,0,0,0,0,0,0,0,0,-1,1763,967,0,0
546,57,0,0,0,0,0,0,0,0,0,-1,1770,967,0,0
553,57,0,0,0,0,0,0,0,0,0,-1,1777,967,0,0
560,57,0,0,0,0,0,0,0,0,0,-1,1784,967,0,0
567,57,0,0,0,0,0,0,0,0,0,-1,1791,967,0,0
574,57,0,0,0,0,0,0,0,0,0,-1,1798,967,0,0
581,57,0,0,0,0,0,0,0,0,0,-1,1805,967,0,0
588,57,0,0,0,0,0,0,0,0,0,-1,1812,967,0,0
595,57,0,0,0,0,0,0,0,0,0,-1,1819,967,0,0
602,57,0,0,0,0,0,0,0,0,0,-1,1826,967,0,0
609,57,0,0,0,0,0,0,0,0,0,-1,1833,967,0,0
616,57,0,0,0,0,0,0,0,0,0,-1,1840,967,0,0
623,57,0,0,0,0,0,0,0,0,0,-1,1847,967,0,0
630,57,0,0,0,0,0,0,0,0,0,-1,1854,967,0,0
637,57,0,0,0,0,0,0,0,0,0,-1,1861,967,0,0
644,57,24.8781,2.73315,0.00235758,0.00133625,-0.00213424,0.0040414,-0.000347572,-0.66797,0.00281728,0.0407462,1868,967,24.878,-2.73317
651,57,24.8923,2.55157,0.00114789,0.000964468,-0.000678311,0.00174066,0.000371695,-0.718204,0.00105852,0.0340093,1875,967,24.8923,-2.55156
658,57,24.8102,2.67615,0.000285402,0.000719446,0.000362205,0.000924669,8.01781e-05,1.0553,0.000591534,0.0329074,1882,967,24.8101,-2.67615
665,57,24.8104,2.63489,-0.00042351,0.000796758,0.00135987,0.00167709,-0.00130385,0.996273,0.00172554,0.0423025,1889,967,24.8104,-2.63491
672,57,24.7203,2.7215,-0.000960486,0.00104123,0.00224188,0.00249552,-0.00241477,0.995342,0.00283508,0.0460765,1896,967,24.7204,-2.7215
679,57,24.9679,2.72375,-0.00137083,0.0012766,0.0028637,0.00310773,-0.00320195,1.00189,0.00364303,0.0426826,1903,967,24.9679,-2.72376
686,57,24.9513,2.6955,-0.00160186,0.00148617,0.00321977,0.00351299,-0.00362869,1.00897,0.00412343,0.0375889,1910,967,24.9513,-2.69552
693,57,24.8715,2.63702,-0.00179372,0.00153791,0.00343934,0.00369361,-0.00394943,1.01092,0.00441353,0.0312038,1917,967,24.8714,-2.637
700,57,24.8179,2.72949,-0.00190542,0.00166009,0.00351473,0.00381834,-0.00406367,1.0201,0.00455142,0.0219981,1924,967,24.8179,-2.72952
707,57,24.8135,2.89978,-0.00188483,0.0018248,0.00325951,0.00372029,-0.00378031,1.04407,0.00433052,0.0377871,1931,967,24.8135,-2.89976
714,57,24.6746,3.6488,0,0,0,0,0,0,0,-1,1938,967,24.6745,-3.64879
721,57,23.7775,3.85883,0,0,0,0,0,0,0,-1,1945,967,23.7775,-3.85883
728,57,23.7056,4.04095,-0.0019516,0.00229669,0.00213564,0.00318468,-0.00283959,1.17675,0.00348001,0.0197247,1952,967,23.7055,-4.04098
735,57,23.754,4.17841,-0.00233283,0.00299392,0.00166031,0.00346905,-0.00280795,1.29208,0.00363072,0.0222498,1959,967,23.754,-4.17841
742,57,23.7815,4.26862,-0.00301398,0.00397496,0.00127967,0.00420189,-0.00324091,1.39528,0.00430903,0.0171637,1966,967,23.7815,-4.26862
749,57,23.7454,4.39301,-0.00377344,0.00515915,0.000898321,0.00524859,-0.00386288,1.47155,0.00528075,0.0136377,1973,967,23.7454,-4.39302
756,57,23.7251,4.48804,-0.00472942,0.00673609,0.000615798,0.00676907,-0.0047624,1.51729,0.00669121,0.0106068,1980,967,23.7251,-4.48804
763,57,23.733,4.59369,-0.00619987,0.00906889,0.0005539,0.00908895,-0.00621994,1.53458,0.00889018,0.0109202,1987,967,23.733,-4.59372
770,57,23.7036,4.68713,-0.00825449,0.0123351,0.00106011,0.0123895,-0.00830893,1.51949,0.0120274,0.0114584,1994,967,23.7037,-4.68716
777,57,23.6473,4.80505,-0.0106572,0.016276,0.00198378,0.0164214,-0.0108026,1.49767,0.0158289,0.0275304,2001,967,23.6473,-4.80503
784,57,23.5748,4.93243,-0.0134422,0.0206925,0.00325099,0.0209994,-0.0137491,1.47668,0.0202071,0.0455045,2008,967,23.5748,-4.93245
791,57,23.489,5.04156,0,0,0,0,0,0,0,-1,2015,967,23.489,-5.04159
798,57,21.3577,3.38177,0,0,0,0,0,0,0,-1,2022,967,21.3577,-3.38178
805,57,21.3274,4.16199,0,0,0,0,0,0,0,-1,2029,967,21.3273,-4.162
812,57,0,0,0,0,0,0,0,0,0,-1,2036,967,0,0
-700,50,0,0,0,0,0,0,0,0,0,-1,524,974,0,0
-693,50,-9.08362,3.48297,-0.135152,0.129547,0.0393134,0.135262,-0.140867,1.42643,0.159435,0.0458493,531,974,-9.08364,-3.48294
-686,50,-10.0234,2.94464,-0.111954,0.102339,0.0316367,0.106912,-0.116527,1.42724,0.129043,0.0436828,538,974,-10.0235,-2.94466
-679,50,-11.0593,2.36029,-0.0909961,0.0801084,0.0254393,0.0838105,-0.0946982,1.42628,0.103126,0.0457708,545,974,-11.0592,-2.36027
-672,50,-12.1584,1.77032,0,0,0,0,0,0,0,-1,552,974,-12.1584,-1.77034
-665,50,-17.8967,1.93262,0,0,0,0,0,0,0,-1,559,974,-17.8967,-1.9326
-658,50,-15.9706,1.30542,0,0,0,0,0,0,0,-1,566,974,-15.9706,-1.30543
-651,50,-16.3068,1.63611,-0.0306396,0.0245653,0.00943938,0.0261347,-0.032209,1.40604,0.0337456,0.0417148,573,974,-16.3067,-1.63608
-644,50,-16.6324,2.04822,-0.0214027,0.0170488,0.00700691,0.0182858,-0.0226398,1.39605,0.023673,0.0270679,580,974,-16.6325,-2.0482
-637,50,-16.6746,2.06689,-0.0138239,0.0104672,0.0041701,0.0111631,-0.0145199,1.40543,0.0148702,0.0149489,587,974,-16.6746,-2.0669
-630,50,-16.6973,2.04932,-0.00832731,0.00569294,0.00197089,0.00596473,-0.0085991,1.43376,0.00845416,0.0101884,594,974,-16.6973,-2.04935
-623,50,-16.7,1.99176,-0.00436646,0.0027389,0.000977362,0.00287088,-0.00449845,1.43656,0.00428913,0.0105377,601,974,-16.7,-1.99175
-616,50,-16.7073,1.92542,-0.00381805,0.00218569,0.000141083,0.002189,-0.00382137,1.54731,0.00351249,0.0111618,608,974,-16.7074,-1.92543
-609,50,-16.7151,1.79932,-0.0039081,0.00198662,-0.000885771,0.00211684,-0.00403833,-1.42482,0.00361094,0.0102045,615,974,-16.7151,-1.79933
-602,50,-16.7212,1.69415,-0.00431335,0.00151208,-0.00159305,0.00191926,-0.00472053,-1.32055,0.00394557,0.0103194,622,974,-16.7212,-1.69416
-595,50,-16.6886,1.60968,-0.00469185,0.00104247,-0.00218257,0.00177867,-0.00542805,-1.24547,0.00433498,0.0105019,629,974,-16.6886,-1.60968
-588,50,-16.7281,1.47949,-0.00481511,0.000593412,-0.00246522,0.00154843,-0.00577013,-1.2012,0.00445355,0.0119261,636,974,-16.7281,-1.47948
-581,50,-16.9385,1.11047,-0.0048777,0.000138529,-0.00259699,0.00124081,-0.00597998,-1.16939,0.00445819,0.0178686,643,974,-16.9385,-1.11047
-574,50,-17.0662,0.804565,-0.00488602,-0.000452024,-0.0026617,0.000795043,-0.00613308,-1.13265,0.00437787,0.0246196,650,974,-17.0663,-0.804594
-567,50,-17.0763,0.757507,-0.0045936,-0.000914492,-0.00249402,0.000344998,-0.00585309,-1.10315,0.00402199,0.0352819,657,974,-17.0763,-0.757518
-560,50,-17.0702,0.89917,-0.00396044,-0.00149145,-0.00226905,-0.00014281,-0.00530907,-1.03453,0.00349275,0.0395571,664,974,-17.0702,-0.899187
-553,50,-16.9509,0.986511,-0.00301735,-0.00207796,-0.00206346,-0.00043142,-0.0046639,-0.897304,0.0029759,0.0375988,671,974,-16.9509,-0.986512
-546,50,-16.9412,0.913757,-0.0018591,-0.00264844,-0.00195312,-0.000261168,-0.00424637,-0.685705,0.00274799,0.0394225,678,974,-16.9412,-0.913747
-539,50,-16.9086,0.932983,-0.000630932,-0.00313941,-0.00207965,0.000543421,-0.00431376,-0.51405,0.00307304,0.0425179,685,974,-16.9085,-0.932987
-532,50,-16.9641,0.914734,0.000147689,-0.00329359,-0.00283576,0.00174399,-0.0048899,-0.512708,0.00397104,0.0416583,692,974,-16.9641,-0.914754
-525,50,-17.074,0.753479,-0.000828566,-0.00282236,-0.00458619,0.00286782,-0.00651875,-0.678378,0.0055543,0.0428541,699,974,-17.074,-0.753478
-518,50,0,0,0,0,0,0,0,0,0,-1,706,974,0,0
-511,50,0,0,0,0,0,0,0,0,0,-1,713,974,0,0
-504,50,0,0,0,0,0,0,0,0,0,-1,720,974,0,0
-497,50,0,0,0,0,0,0,0,0,0,-1,727,974,0,0
-490,50,0,0,0,0,0,0,0,0,0,-1,734,974,0,0
-483,50,0,0,0,0,0,0,0,0,0,-1,741,974,0,0
-476,50,0,0,0,0,0,0,0,0,0,-1,748,974,0,0
-469,50,0,0,0,0,0,0,0,0,0,-1,755,974,0,0
-462,50,0,0,0,0,0,0,0,0,0,-1,762,974,0,0
-455,50,0,0,0,0,0,0,0,0,0,-1,769,974,0,0
-448,50,0,0,0,0,0,0,0,0,0,-1,776,974,0,0
-441,50,0,0,0,0,0,0,0,0,0,-1,783,974,0,0
-434,50,0,0,0,0,0,0,0,0,0,-1,790,974,0,0
-427,50,0,0,0,0,0,0,0,0,0,-1,797,974,0,0
-420,50,0,0,0,0,0,0,0,0,0,-1,804,974,0,0
-413,50,0,0,0,0,0,0,0,0,0,-1,811,974,0,0
-406,50,0,0,0,0,0,0,0,0,0,-1,818,974,0,0
-399,50,0,0,0,0,0,0,0,0,0,-1,825,974,0,0
-392,50,0,0,0,0,0,0,0,0,0,-1,832,974,0,0
-385,50,0,0,0,0,0,0,0,0,0,-1,839,974,0,0
-378,50,0,0,0,0,0,0,0,0,0,-1,846,974,0,0
-371,50,0,0,0,0,0,0,0,0,0,-1,853,974,0,0
-364,50,0,0,0,0,0,0,0,0,0,-1,860,974,0,0
-357,50,0,0,0,0,0,0,0,0,0,-1,867,974,0,0
-350,50,0,0,0,0,0,0,0,0,0,-1,874,974,0,0
-343,50,0,0,0,0,0,0,0,0,0,-1,881,974,0,0
-336,50,0,0,0,0,0,0,0,0,0,-1,888,974,0,0
-329,50,0,0,0,0,0,0,0,0,0,-1,895,974,0,0
-322,50,0,0,0,0,0,0,0,0,0,-1,902,974,0,0
-315,50,0,0,0,0,0,0,0,0,0,-1,909,974,0,0
-308,50,0,0,0,0,0,0,0,0,0,-1,916,974,0,0
-301,50,0,0,0,0,0,0,0,0,0,-1,923,974,0,0
-294,50,0,0,0,0,0,0,0,0,0,-1,930,974,0,0
-287,50,0,0,0,0,0,0,0,0,0,-1,937,974,0,0
-280,50,0,0,0,0,0,0,0,0,0,-1,944,974,0,0
-273,50,0,0,0,0,0,0,0,0,0,-1,951,974,0,0
-266,50,0,0,0,0,0,0,0,0,0,-1,958,974,0,0
-259,50,0,0,0,0,0,0,0,0,0,-1,965,974,0,0
-252,50,0,0,0,0,0,0,0,0,0,-1,972,974,0,0
-245,50,0,0,0,0,0,0,0,0,0,-1,979,974,0,0
-238,50,0,0,0,0,0,0,0,0,0,-1,986,974,0,0
-231,50,0,0,0,0,0,0,0,0,0,-1,993,974,0,0
-224,50,0,0,0,0,0,0,0,0,0,-1,1000,974,0,0
-217,50,0,0,0,0,0,0,0,0,0,-1,1007,974,0,0
-210,50,0,0,0,0,0,0,0,0,0,-1,1014,974,0,0
-203,50,0,0,0,0,0,0,0,0,0,-1,1021,974,0,0
-196,50,0,0,0,0,0,0,0,0,0,-1,1028,974,0,0
-189,50,0,0,0,0,0,0,0,0,0,-1,1035,974,0,0
-182,50,0,0,0,0,0,0,0,0,0,-1,1042,974,0,0
-175,50,0,0,0,0,0,0,0,0,0,-1,1049,974,0,0
-168,50,0,0,0,0,0,0,0,0,0,-1,1056,974,0,0
-161,50,0,0,0,0,0,0,0,0,0,-1,1063,974,0,0
-154,50,0,0,0,0,0,0,0,0,0,-1,1070,974,0,0
-147,50,0,0,0,0,0,0,0,0,0,-1,1077,974,0,0
-140,50,0,0,0,0,0,0,0,0,0,-1,1084,974,0,0
-133,50,0,0,0,0,0,0,0,0,0,-1,1091,974,0,0
-126,50,0,0,0,0,0,0,0,0,0,-1,1098,974,0,0
-119,50,0,0,0,0,0,0,0,0,0,-1,1105,974,0,0
-112,50,0,0,0,0,0,0,0,0,0,-1,1112,974,0,0
-105,50,0,0,0,0,0,0,0,0,0,-1,1119,974,0,0
-98,50,0,0,0,0,0,0,0,0,0,-1,1126,974,0,0
-91,50,0,0,0,0,0,0,0,0,0,-1,1133,974,0,0
-84,50,0,0,0,0,0,0,0,0,0,-1,1140,974,0,0
-77,50,0,0,0,0,0,0,0,0,0,-1,1147,974,0,0
-70,50,0,0,0,0,0,0,0,0,0,-1,1154,974,0,0
-63,50,0,0,0,0,0,0,0,0,0,-1,1161,974,0,0
-56,50,0,0,0,0,0,0,0,0,0,-1,1168,974,0,0
-49,50,0,0,0,0,0,0,0,0,0,-1,1175,974,0,0
-42,50,0,0,0,0,0,0,0,0,0,-1,1182,974,0,0
-35,50,0,0,0,0,0,0,0,0,0,-1,1189,974,0,0
-28,50,0,0,0,0,0,0,0,0,0,-1,1196,974,0,0
-21,50,0,0,0,0,0,0,0,0,0,-1,1203,974,0,0
-14,50,0,0,0,0,0,0,0,0,0,-1,1210,974,0,0
-7,50,0,0,0,0,0,0,0,0,0,-1,1217,974,0,0
0,50,0,0,0,0,0,0,0,0,0,-1,1224,974,0,0
7,50,0,0,0,0,0,0,0,0,0,-1,1231,974,0,0
14,50,0,0,0,0,0,0,0,0,0,-1,1238,974,0,0
21,50,0,0,0,0,0,0,0,0,0,-1,1245,974,0,0
28,50,0,0,0,0,0,0,0,0,0,-1,1252,974,0,0
35,50,0,0,0,0,0,0,0,0,0,-1,1259,974,0,0
42,50,0,0,0,0,0,0,0,0,0,-1,1266,974,0,0
49,50,0,0,0,0,0,0,0,0,0,-1,1273,974,0,0
56,50,0,0,0,0,0,0,0,0,0,-1,1280,974,0,0
63,50,0,0,0,0,0,0,0,0,0,-1,1287,974,0,0
70,50,0,0,0,0,0,0,0,0,0,-1,1294,974,0,0
77,50,0,0,0,0,0,0,0,0,0,-1,1301,974,0,0
84,50,0,0,0,0,0,0,0,0,0,-1,1308,974,0,0
91,50,0,0,0,0,0,0,0,0,0,-1,1315,974,0,0
98,50,0,0,0,0,0,0,0,0,0,-1,1322,974,0,0
105,50,0,0,0,0,0,0,0,0,0,-1,1329,974,0,0
112,50,0,0,0,0,0,0,0,0,0,-1,1336,974,0,0
119,50,0,0,0,0,0,0,0,0,0,-1,1343,974,0,0
126,50,0,0,0,0,0,0,0,0,0,-1,1350,974,0,0
133,50,0,0,0,0,0,0,0,0,0,-1,1357,974,0,0
140,50,0,0,0,0,0,0,0,0,0,-1,1364,974,0,0
147,50,0,0,0,0,0,0,0,0,0,-1,1371,974,0,0
154,50,0,0,0,0,0,0,0,0,0,-1,1378,974,0,0
161,50,0,0,0,0,0,0,0,0,0,-1,1385,974,0,0
168,50,0,0,0,0,0,0,0,0,0,-1,1392,974,0,0
175,50,0,0,0,0,0,0,0,0,0,-1,1399,974,0,0
182,50,0,0,0,0,0,0,0,0,0,-1,1406,974,0,0
189,50,0,0,0,0,0,0,0,0,0,-1,1413,974,0,0
196,50,0,0,0,0,0,0,0,0,0,-1,1420,974,0,0
203,50,0,0,0,0,0,0,0,0,0,-1,1427,974,0,0
210,50,0,0,0,0,0,0,0,0,0,-1,1434,974,0,0
217,50,0,0,0,0,0,0,0,0,0,-1,1441,974,0,0
224,50,0,0,0,0,0,0,0,0,0,-1,1448,974,0,0
231,50,0,0,0,0,0,0,0,0,0,-1,1455,974,0,0
238,50,0,0,0,0,0,0,0,0,0,-1,1462,974,0,0
245,50,0,0,0,0,0,0,0,0,0,-1,1469,974,0,0
252,50,0,0,0,0,0,0,0,0,0,-1,1476,974,0,0
259,50,0,0,0,0,0,0,0,0,0,-1,1483,974,0,0
266,50,0,0,0,0,0,0,0,0,0,-1,1490,974,0,0
273,50,0,0,0,0,0,0,0,0,0,-1,1497,974,0,0
280,50,0,0,0,0,0,0,0,0,0,-1,1504,974,0,0
287,50,0,0,0,0,0,0,0,0,0,-1,1511,974,0,0
294,50,0,0,0,0,0,0,0,0,0,-1,1518,974,0,0
301,50,0,0,0,0,0,0,0,0,0,-1,1525,974,0,0
308,50,0,0,0,0,0,0,0,0,0,-1,1532,974,0,0
315,50,0,0,0,0,0,0,0,0,0,-1,1539,974,0,0
322,50,0,0,0,0,0,0,0,0,0,-1,1546,974,0,0
329,50,0,0,0,0,0,0,0,0,0,-1,1553,974,0,0
336,50,0,0,0,0,0,0,0,0,0,-1,1560,974,0,0
343,50,0,0,0,0,0,0,0,0,0,-1,1567,974,0,0
350,50,0,0,0,0,0,0,0,0,0,-1,1574,974,0,0
357,50,0,0,0,0,0,0,0,0,0,-1,1581,974,0,0
364,50,0,0,0,0,0,0,0,0,0,-1,1588,974,0,0
371,50,0,0,0,0,0,0,0,0,0,-1,1595,974,0,0
378,50,0,0,0,0,0,0,0,0,0,-1,1602,974,0,0
385,50,0,0,0,0,0,0,0,0,0,-1,1609,974,0,0
392,50,0,0,0,0,0,0,0,0,0,-1,1616,974,0,0
399,50,0,0,0,0,0,0,0,0,0,-1,1623,974,0,0
406,50,0,0,0,0,0,0,0,0,0,-1,1630,974,0,0
413,50,0,0,0,0,0,0,0,0,0,-1,1637,974,0,0
420,50,0,0,0,0,0,0,0,0,0,-1,1644,974,0,0
427,50,0,0,0,0,0,0,0,0,0,-1,1651,974,0,0
434,50,0,0,0,0,0,0,0,0,0,-1,1658,974,0,0
441,50,0,0,0,0,0,0,0,0,0,-1,1665,974,0,0
448,50,0,0,0,0,0,0,0,0,0,-1,1672,974,0,0
455,50,0,0,0,0,0,0,0,0,0,-1,1679,974,0,0
462,50,0,0,0,0,0,0,0,0,0,-1,1686,974,0,0
469,50,0,0,0,0,0,0,0,0,0,-1,1693,974,0,0
476,50,0,0,0,0,0,0,0,0,0,-1,1700,974,0,0
483,50,0,0,0,0,0,0,0,0,0,-1,1707,974,0,0
490,50,0,0,0,0,0,0,0,0,0,-1,1714,974,0,0
497,50,0,0,0,0,0,0,0,0,0,-1,1721,974,0,0
504,50,0,0,0,0,0,0,0,0,0,-1,1728,974,0,0
511,50,0,0,0,0,0,0,0,0,0,-1,1735,974,0,0
518,50,0,0,0,0,0,0,0,0,0,-1,1742,974,0,0
525,50,0,0,0,0,0,0,0,0,0,-1,1749,974,0,0
532,50,0,0,0,0,0,0,0,0,0,-1,1756,974,0,0
539,50,0,0,0,0,0,0,0,0,0,-1,1763,974,0,0
546,50,0,0,0,0,0,0,0,0,0,-1,1770,974,0,0
553,50,0,0,0,0,0,0,0,0,0,-1,1777,974,0,0
560,50,0,0,0,0,0,0,0,0,0,-1,1784,974,0,0
567,50,0,0,0,0,0,0,0,0,0,-1,1791,974,0,0
574,50,0,0,0,0,0,0,0,0,0,-1,1798,974,0,0
581,50,0,0,0,0,0,0,0,0,0,-1,1805,974,0,0
588,50,0,0,0,0,0,0,0,0,0,-1,1812,974,0,0
595,50,0,0,0,0,0,0,0,0,0,-1,1819,974,0,0
602,50,0,0,0,0,0,0,0,0,0,-1,1826,974,0,0
609,50,0,0,0,0,0,0,0,0,0,-1,1833,974,0,0
616,50,0,0,0,0,0,0,0,0,0,-1,1840,974,0,0
623,50,0,0,0,0,0,0,0,0,0,-1,1847,974,0,0
630,50,0,0,0,0,0,0,0,0,0,-1,1854,974,0,0
637,50,0,0,0,0,0,0,0,0,0,-1,1861,974,0,0
644,50,24.7797,2.77258,0.00160638,0.00116679,-0.00260002,0.00399588,-0.00122271,-0.74323,0.00315157,0.0389981,1868,974,24.7797,-2.77261
651,50,24.7939,2.64496,0.000839262,0.000737249,-0.00109033,0.00187978,-0.00030327,-0.762025,0.00136555,0.032719,1875,974,24.794,-2.64497
658,50,24.6638,2.59235,0.000282252,0.000457693,-2.99392e-05,0.000462661,0.000277283,-1.40634,0.000268869,0.0353249,1882,974,24.6639,-2.59236
665,50,24.6808,2.61951,-0.000223154,0.0005247,0.000997628,0.00121618,-0.00091463,0.964703,0.00123432,0.0396259,1889,974,24.6808,-2.61949
672,50,24.7426,2.65454,-0.00065515,0.000815909,0.00200249,0.00221368,-0.00205292,0.961403,0.0024639,0.0397585,1896,974,24.7426,-2.65454
679,50,24.8138,2.76025,-0.00107484,0.00109362,0.00279203,0.00300455,-0.00298577,0.970601,0.00345852,0.0401552,1903,974,24.8138,-2.76027
686,50,24.8353,2.78778,-0.00136256,0.00131147,0.00331629,0.00355012,-0.00360121,0.977015,0.00412885,0.0408733,1910,974,24.8353,-2.78776
693,50,24.7728,2.72089,-0.00160558,0.00142261,0.00365632,0.00386593,-0.0040489,0.9817,0.00457004,0.0369244,1917,974,24.7728,-2.72089
700,50,24.7555,2.75446,-0.00176854,0.00157547,0.00382178,0.00407499,-0.00426806,0.991601,0.00481729,0.0199013,1924,974,24.7555,-2.75446
707,50,24.8037,2.81854,-0.00184325,0.00176274,0.0036657,0.00404486,-0.00412537,1.01395,0.00471716,0.0306972,1931,974,24.8037,-2.81854
714,50,24.7396,3.1972,-0.00190255,0.00187875,0.00330966,0.00379972,-0.00382352,1.0449,0.00440128,0.0496231,1938,974,24.7396,-3.19721
721,50,23.8734,3.80121,0,0,0,0,0,0,0,-1,1945,974,23.8734,-3.80119
728,50,23.8483,4.0116,-0.00226129,0.00227119,0.00268384,0.00351762,-0.00350772,1.13602,0.00405608,0.0210252,1952,974,23.8483,-4.01158
735,50,23.894,4.13141,-0.00260311,0.0028178,0.00206383,0.0035141,-0.00329941,1.24541,0.00393443,0.0177349,1959,974,23.894,-4.13144
742,50,23.9069,4.25189,-0.00314524,0.00356732,0.00147981,0.00387907,-0.00345699,1.36316,0.00423781,0.0143061,1966,974,23.9069,-4.25187
749,50,23.8793,4.36401,-0.00374102,0.00452649,0.000840167,0.00461101,-0.00382554,1.47054,0.00487787,0.0157535,1973,974,23.8793,-4.364
756,50,23.8655,4.46765,-0.00439483,0.00573868,0.00024026,0.00574438,-0.00440053,1.5471,0.00587427,0.0122953,1980,974,23.8655,-4.46767
763,50,23.8735,4.56665,-0.00539108,0.00749975,-0.000309544,0.00750717,-0.0053985,-1.5468,0.00748418,0.0115369,1987,974,23.8735,-4.56663
770,50,23.8394,4.64587,-0.00679413,0.00997569,-0.000427822,0.00998659,-0.00680504,-1.54531,0.00975249,0.0110801,1994,974,23.8394,-4.64588
777,50,23.8137,4.74036,-0.00838361,0.0129689,-0.00014358,0.0129699,-0.00838458,-1.56407,0.0124234,0.0225964,2001,974,23.8137,-4.74035
784,50,23.7391,4.74744,-0.0101709,0.0162076,0.000444907,0.0162151,-0.0101784,1.55394,0.0153706,0.040576,2008,974,23.7391,-4.74744
791,50,23.6787,4.68158,0,0,0,0,0,0,0,-1,2015,974,23.6787,-4.6816
798,50,23.0458,4.75635,0,0,0,0,0,0,0,-1,2022,974,23.0458,-4.75633
805,50,23.1062,4.21075,0,0,0,0,0,0,0,-1,2029,974,23.1063,-4.21078
812,50,0,0,0,0,0,0,0,0,0,-1,2036,974,0,0
-700,43,0,0,0,0,0,0,0,0,0,-1,524,981,0,0
-693,43,-10.2895,2.20728,-0.136856,0.12862,0.0532615,0.138907,-0.147143,1.38,0.165174,0.0416426,531,981,-10.2895,-2.20729
-686,43,-11.0507,2.30597,-0.11337,0.102009,0.0429611,0.110262,-0.121623,1.381,0.133932,0.0450754,538,981,-11.0507,-2.306
-679,43,-11.9238,1.66064,-0.0922026,0.0800797,0.0344533,0.0867142,-0.0988371,1.38056,0.107204,0.0443581,545,981,-11.9238,-1.66063
-672,43,-13.0135,1.10168,0,0,0,0,0,0,0,-1,552,981,-13.0135,-1.10167
-665,43,-16.8846,2.40076,0,0,0,0,0,0,0,-1,559,981,-16.8846,-2.40076
-658,43,-16.3203,1.89209,0,0,0,0,0,0,0,-1,566,981,-16.3203,-1.89208
-651,43,-16.5326,1.99835,-0.0311593,0.0246954,0.0122362,0.0272584,-0.0337223,1.36432,0.0352731,0.040205,573,981,-16.5326,-1.99836
-644,43,-16.7822,2.12762,-0.0217536,0.0171359,0.00884937,0.0190549,-0.0236726,1.35725,0.0247167,0.0205274,580,981,-16.7822,-2.12762
-637,43,-16.7899,2.08026,-0.0139829,0.0104855,0.00519675,0.0115435,-0.0150408,1.36996,0.0153927,0.0136608,587,981,-16.7898,-2.08024
-630,43,-16.7713,2.03027,-0.00832677,0.00574896,0.00235703,0.00613317,-0.00871097,1.40921,0.00861323,0.0119238,594,981,-16.7713,-2.03029
-623,43,-16.7806,1.95868,-0.00427909,0.00287933,0.000809863,0.00296981,-0.00436957,1.45954,0.004263,0.0112062,601,981,-16.7807,-1.95865
-616,43,-16.7856,1.88123,-0.00360474,0.00248214,-0.00030739,0.00249763,-0.00362022,-1.52047,0.00355191,0.0103065,608,981,-16.7856,-1.8812
-609,43,-16.7963,1.78711,-0.00348531,0.00225173,-0.00138338,0.00256788,-0.00380146,-1.34612,0.00370026,0.0118472,615,981,-16.7964,-1.78709
-602,43,-16.8174,1.67737,-0.00363849,0.00182017,-0.00208662,0.00252642,-0.00434475,-1.24443,0.0040131,0.0136964,622,981,-16.8174,-1.67739
-595,43,-16.7856,1.6062,-0.00376895,0.0014187,-0.00269917,0.00256833,-0.00491858,-1.16815,0.00439299,0.0120035,629,981,-16.7856,-1.60623
-588,43,-16.7834,1.41345,-0.0037387,0.00104872,-0.00293765,0.00244442,-0.0051344,-1.12726,0.00446656,0.0121739,636,981,-16.7834,-1.41342
-581,43,-16.9513,1.03333,-0.00374078,0.000665576,-0.00300648,0.00218972,-0.00526492,-1.1016,0.00442433,0.0174729,643,981,-16.9513,-1.03334
-574,43,-17.0446,0.845703,-0.00372645,0.000105419,-0.00302394,0.00176929,-0.00539032,-1.06777,0.00430622,0.0250164,650,981,-17.0446,-0.845673
-567,43,-17.0562,0.801331,-0.00344326,-0.000335594,-0.0027865,0.00130102,-0.00507988,-1.03974,0.00389341,0.0355048,657,981,-17.0562,-0.801343
-560,43,-17.0944,0.879456,-0.00290315,-0.00090033,-0.00249848,0.000789954,-0.00459343,-0.975999,0.00335673,0.039388,664,981,-17.0944,-0.879426
-553,43,-17.1244,1.12018,-0.00214556,-0.00151053,-0.00225747,0.000451646,-0.00410774,-0.855266,0.00290078,0.0370769,671,981,-17.1244,-1.12018
-546,43,-17.1462,1.00031,-0.00126457,-0.00215552,-0.00216617,0.000501459,-0.00392155,-0.683987,0.00279654,0.0385154,678,981,-17.1462,-1.0003
-539,43,-16.9352,1.10455,-0.000410622,-0.00276461,-0.00241366,0.00109773,-0.00427297,-0.558543,0.00327643,0.0428115,685,981,-16.9352,-1.10455
-532,43,-16.8698,1.07123,-0.000156071,-0.00303056,-0.00350524,0.00219514,-0.00538177,-0.590838,0.00450164,0.0435306,692,981,-16.8698,-1.0712
-525,43,-16.9773,0.806885,-0.00172781,-0.00274976,-0.00583266,0.00361621,-0.00809378,-0.741706,0.00692355,0.0449647,699,981,-16.9773,-0.806858
-518,43,0,0,0,0,0,0,0,0,0,-1,706,981,0,0
-511,43,0,0,0,0,0,0,0,0,0,-1,713,981,0,0
-504,43,0,0,0,0,0,0,0,0,0,-1,720,981,0,0
-497,43,0,0,0,0,0,0,0,0,0,-1,727,981,0,0
-490,43,0,0,0,0,0,0,0,0,0,-1,734,981,0,0
-483,43,0,0,0,0,0,0,0,0,0,-1,741,981,0,0
-476,43,0,0,0,0,0,0,0,0,0,-1,748,981,0,0
-469,43,0,0,0,0,0,0,0,0,0,-1,755,981,0,0
-462,43,0,0,0,0,0,0,0,0,0,-1,762,981,0,0
-455,43,0,0,0,0,0,0,0,0,0,-1,769,981,0,0
-448,43,0,0,0,0,0,0,0,0,0,-1,776,981,0,0
-441,43,0,0,0,0,0,0,0,0,0,-1,783,981,0,0
-434,43,0,0,0,0,0,0,0,0,0,-1,790,981,0,0
-427,43,0,0,0,0,0,0,0,0,0,-1,797,981,0,0
-420,43,0,0,0,0,0,0,0,0,0,-1,804,981,0,0
-413,43,0,0,0,0,0,0,0,0,0,-1,811,981,0,0
-406,43,0,0,0,0,0,0,0,0,0,-1,818,981,0,0
-399,43,0,0,0,0,0,0,0,0,0,-1,825,981,0,0
-392,43,0,0,0,0,0,0,0,0,0,-1,832,981,0,0
-385,43,0,0,0,0,0,0,0,0,0,-1,839,981,0,0
-378,43,0,0,0,0,0,0,0,0,0,-1,846,981,0,0
-371,43,0,0,0,0,0,0,0,0,0,-1,853,981,0,0
-364,43,0,0,0,0,0,0,0,0,0,-1,860,981,0,0
-357,43,0,0,0,0,0,0,0,0,0,-1,867,981,0,0
-350,43,0,0,0,0,0,0,0,0,0,-1,874,981,0,0
-343,43,0,0,0,0,0,0,0,0,0,-1,881,981,0,0
-336,43,0,0,0,0,0,0,0,0,0,-1,888,981,0,0
-329,43,0,0,0,0,0,0,0,0,0,-1,895,981,0,0
-322,43,0,0,0,0,0,0,0,0,0,-1,902,981,0,0
-315,43,0,0,0,0,0,0,0,0,0,-1,909,981,0,0
-308,43,0,0,0,0,0,0,0,0,0,-1,916,981,0,0
-301,43,0,0,0,0,0,0,0,0,0,-1,923,981,0,0
-294,43,0,0,0,0,0,0,0,0,0,-1,930,981,0,0
-287,43,0,0,0,0,0,0,0,0,0,-1,937,981,0,0
-280,43,0,0,0,0,0,0,0,0,0,-1,944,981,0,0
-273,43,0,0,0,0,0,0,0,0,0,-1,951,981,0,0
-266,43,0,0,0,0,0,0,0,0,0,-1,958,981,0,0
-259,43,0,0,0,0,0,0,0,0,0,-1,965,981,0,0
-252,43,0,0,0,0,0,0,0,0,0,-1,972,981,0,0
-245,43,0,0,0,0,0,0,0,0,0,-1,979,981,0,0
-238,43,0,0,0,0,0,0,0,0,0,-1,986,981,0,0
-231,43,0,0,0,0,0,0,0,0,0,-1,993,981,0,0
-224,43,0,0,0,0,0,0,0,0,0,-1,1000,981,0,0
-217,43,0,0,0,0,0,0,0,0,0,-1,1007,981,0,0
-210,43,0,0,0,0,0,0,0,0,0,-1,1014,981,0,0
-203,43,0,0,0,0,0,0,0,0,0,-1,1021,981,0,0
-196,43,0,0,0,0,0,0,0,0,0,-1,1028,981,0,0
-189,43,0,0,0,0,0,0,0,0,0,-1,1035,981,0,0
-182,43,0,0,0,0,0,0,0,0,0,-1,1042,981,0,0
-175,43,0,0,0,0,0,0,0,0,0,-1,1049,981,0,0
-168,43,0,0,0,0,0,0,0,0,0,-1,1056,981,0,0
-161,43,0,0,0,0,0,0,0,0,0,-1,1063,981,0,0
-154,43,0,0,0,0,0,0,0,0,0,-1,1070,981,0,0
-147,43,0,0,0,0,0,0,0,0,0,-1,1077,981,0,0
-140,43,0,0,0,0,0,0,0,0,0,-1,1084,981,0,0
-133,43,0,0,0,0,0,0,0,0,0,-1,1091,981,0,0
-126,43,0,0,0,0,0,0,0,0,0,-1,1098,981,0,0
-119,43,0,0,0,0,0,0,0,0,0,-1,1105,981,0,0
-112,43,0,0,0,0,0,0,0,0,0,-1,1112,981,0,0
-105,43,0,0,0,0,0,0,0,0,0,-1,1119,981,0,0
-98,43,0,0,0,0,0,0,0,0,0,-1,1126,981,0,0
-91,43,0,0,0,0,0,0,0,0,0,-1,1133,981,0,0
-84,43,0,0,0,0,0,0,0,0,0,-1,1140,981,0,0
-77,43,0,0,0,0,0,0,0,0,0,-1,1147,981,0,0
-70,43,0,0,0,0,0,0,0,0,0,-1,1154,981,0,0
-63,43,0,0,0,0,0,0,0,0,0,-1,1161,981,0,0
-56,43,0,0,0,0,0,0,0,0,0,-1,1168,981,0,0
-49,43,0,0,0,0,0,0,0,0,0,-1,1175,981,0,0
-42,43,0,0,0,0,0,0,0,0,0,-1,1182,981,0,0
-35,43,0,0,0,0,0,0,0,0,0,-1,1189,981,0,0
-28,43,0,0,0,0,0,0,0,0,0,-1,1196,981,0,0
-21,43,0,0,0,0,0,0,0,0,0,-1,1203,981,0,0
-14,43,0,0,0,0,0,0,0,0,0,-1,1210,981,0,0
-7,43,0,0,0,0,0,0,0,0,0,-1,1217,981,0,0
0,43,0,0,0,0,0,0,0,0,0,-1,1224,981,0,0
7,43,0,0,0,0,0,0,0,0,0,-1,1231,981,0,0
14,43,0,0,0,0,0,0,0,0,0,-1,1238,981,0,0
21,43,0,0,0,0,0,0,0,0,0,-1,1245,981,0,0
28,43,0,0,0,0,0,0,0,0,0,-1,1252,981,0,0
35,43,0,0,0,0,0,0,0,0,0,-1,1259,981,0,0
42,43,0,0,0,0,0,0,0,0,0,-1,1266,981,0,0
49,43,0,0,0,0,0,0,0,0,0,-1,1273,981,0,0
56,43,0,0,0,0,0,0,0,0,0,-1,1280,981,0,0
63,43,0,0,0,0,0,0,0,0,0,-1,1287,981,0,0
70,43,0,0,0,0,0,0,0,0,0,-1,1294,981,0,0
77,43,0,0,0,0,0,0,0,0,0,-1,1301,981,0,0
84,43,0,0,0,0,0,0,0,0,0,-1,1308,981,0,0
91,43,0,0,0,0,0,0,0,0,0,-1,1315,981,0,0
98,43,0,0,0,0,0,0,0,0,0,-1,1322,981,0,0
105,43,0,0,0,0,0,0,0,0,0,-1,1329,981,0,0
112,43,0,0,0,0,0,0,0,0,0,-1,1336,981,0,0
119,43,0,0,0,0,0,0,0,0,0,-1,1343,981,0,0
126,43,0,0,0,0,0,0,0,0,0,-1,1350,981,0,0
133,43,0,0,0,0,0,0,0,0,0,-1,1357,981,0,0
140,43,0,0,0,0,0,0,0,0,0,-1,1364,981,0,0
147,43,0,0,0,0,0,0,0,0,0,-1,1371,981,0,0
154,43,0,0,0,0,0,0,0,0,0,-1,1378,981,0,0
161,43,0,0,0,0,0,0,0,0,0,-1,1385,981,0,0
168,43,0,0,0,0,0,0,0,0,0,-1,1392,981,0,0
175,43,0,0,0,0,0,0,0,0,0,-1,1399,981,0,0
182,43,0,0,0,0,0,0,0,0,0,-1,1406,981,0,0
189,43,0,0,0,0,0,0,0,0,0,-1,1413,981,0,0
196,43,0,0,0,0,0,0,0,0,0,-1,1420,981,0,0
203,43,0,0,0,0,0,0,0,0,0,-1,1427,981,0,0
210,43,0,0,0,0,0,0,0,0,0,-1,1434,981,0,0
217,43,0,0,0,0,0,0,0,0,0,-1,1441,981,0,0
224,43,0,0,0,0,0,0,0,0,0,-1,1448,981,0,0
231,43,0,0,0,0,0,0,0,0,0,-1,1455,981,0,0
238,43,0,0,0,0,0,0,0,0,0,-1,1462,981,0,0
245,43,0,0,0,0,0,0,0,0,0,-1,1469,981,0,0
252,43,0,0,0,0,0,0,0,0,0,-1,1476,981,0,0
259,43,0,0,0,0,0,0,0,0,0,-1,1483,981,0,0
266,43,0,0,0,0,0,0,0,0,0,-1,1490,981,0,0
273,43,0,0,0,0,0,0,0,0,0,-1,1497,981,0,0
280,43,0,0,0,0,0,0,0,0,0,-1,1504,981,0,0
287,43,0,0,0,0,0,0,0,0,0,-1,1511,981,0,0
294,43,0,0,0,0,0,0,0,0,0,-1,1518,981,0,0
301,43,0,0,0,0,0,0,0,0,0,-1,1525,981,0,0
308,43,0,0,0,0,0,0,0,0,0,-1,1532,981,0,0
315,43,0,0,0,0,0,0,0,0,0,-1,1539,981,0,0
322,43,0,0,0,0,0,0,0,0,0,-1,1546,981,0,0
329,43,0,0,0,0,0,0,0,0,0,-1,1553,981,0,0
336,43,0,0,0,0,0,0,0,0,0,-1,1560,981,0,0
343,43,0,0,0,0,0,0,0,0,0,-1,1567,981,0,0
350,43,0,0,0,0,0,0,0,0,0,-1,1574,981,0,0
357,43,0,0,0,0,0,0,0,0,0,-1,1581,981,0,0
364,43,0,0,0,0,0,0,0,0,0,-1,1588,981,0,0
371,43,0,0,0,0,0,0,0,0,0,-1,1595,981,0,0
378,43,0,0,0,0,0,0,0,0,0,-1,1602,981,0,0
385,43,0,0,0,0,0,0,0,0,0,-1,1609,981,0,0
392,43,0,0,0,0,0,0,0,0,0,-1,1616,981,0,0
399,43,0,0,0,0,0,0,0,0,0,-1,1623,981,0,0
406,43,0,0,0,0,0,0,0,0,0,-1,1630,981,0,0
413,43,0,0,0,0,0,0,0,0,0,-1,1637,981,0,0
420,43,0,0,0,0,0,0,0,0,0,-1,1644,981,0,0
427,43,0,0,0,0,0,0,0,0,0,-1,1651,981,0,0
434,43,0,0,0,0,0,0,0,0,0,-1,1658,981,0,0
441,43,0,0,0,0,0,0,0,0,0,-1,1665,981,0,0
448,43,0,0,0,0,0,0,0,0,0,-1,1672,981,0,0
455,43,0,0,0,0,0,0,0,0,0,-1,1679,981,0,0
462,43,0,0,0,0,0,0,0,0,0,-1,1686,981,0,0
469,43,0,0,0,0,0,0,0,0,0,-1,1693,981,0,0
476,43,0,0,0,0,0,0,0,0,0,-1,1700,981,0,0
483,43,0,0,0,0,0,0,0,0,0,-1,1707,981,0,0
490,43,0,0,0,0,0,0,0,0,0,-1,1714,981,0,0
497,43,0,0,0,0,0,0,0,0,0,-1,1721,981,0,0
504,43,0,0,0,0,0,0,0,0,0,-1,1728,981,0,0
511,43,0,0,0,0,0,0,0,0,0,-1,1735,981,0,0
518,43,0,0,0,0,0,0,0,0,0,-1,1742,981,0,0
525,43,0,0,0,0,0,0,0,0,0,-1,1749,981,0,0
532,43,0,0,0,0,0,0,0,0,0,-1,1756,981,0,0
539,43,0,0,0,0,0,0,0,0,0,-1,1763,981,0,0
546,43,0,0,0,0,0,0,0,0,0,-1,1770,981,0,0
553,43,0,0,0,0,0,0,0,0,0,-1,1777,981,0,0
560,43,0,0,0,0,0,0,0,0,0,-1,1784,981,0,0
567,43,0,0,0,0,0,0,0,0,0,-1,1791,981,0,0
574,43,0,0,0,0,0,0,0,0,0,-1,1798,981,0,0
581,43,0,0,0,0,0,0,0,0,0,-1,1805,981,0,0
588,43,0,0,0,0,0,0,0,0,0,-1,1812,981,0,0
595,43,0,0,0,0,0,0,0,0,0,-1,1819,981,0,0
602,43,0,0,0,0,0,0,0,0,0,-1,1826,981,0,0
609,43,0,0,0,0,0,0,0,0,0,-1,1833,981,0,0
616,43,0,0,0,0,0,0,0,0,0,-1,1840,981,0,0
623,43,0,0,0,0,0,0,0,0,0,-1,1847,981,0,0
630,43,0,0,0,0,0,0,0,0,0,-1,1854,981,0,0
637,43,0,0,0,0,0,0,0,0,0,-1,1861,981,0,0
644,43,24.6996,2.64771,0.00084497,5.74458e-05,-0.00336873,0.00384287,-0.00294045,-0.727218,0.00392789,0.037888,1868,981,24.6996,-2.64773
651,43,24.7097,2.56659,0.000459393,-4.23447e-05,-0.00177456,0.00200072,-0.00158368,-0.715179,0.00207412,0.0364603,1875,981,24.7097,-2.56659
658,43,24.6669,2.47198,0.000168769,-0.000116457,-0.000647041,0.000688727,-0.000636415,-0.676929,0.00076527,0.0375443,1882,981,24.6669,-2.47199
665,43,24.749,2.47333,-0.000151517,6.95465e-05,0.000439043,0.000411757,-0.000493727,0.908713,0.000523495,0.0391508,1889,981,24.749,-2.47332
672,43,24.8561,2.51239,-0.000466793,0.000468584,0.00160316,0.00167088,-0.00166909,0.927324,0.00192834,0.0381917,1896,981,24.8561,-2.51237
679,43,24.7782,2.63098,-0.000869817,0.000811785,0.00261264,0.00271559,-0.00277362,0.941075,0.00316925,0.0382449,1903,981,24.7782,-2.63101
686,43,24.7021,2.81458,-0.00118411,0.00106807,0.00333917,0.00346591,-0.00358196,0.948028,0.00406927,0.0410357,1910,981,24.7021,-2.81457
693,43,24.7698,2.60522,-0.0014507,0.00122074,0.0038499,0.00396005,-0.00419001,0.952375,0.00470606,0.0371499,1917,981,24.7698,-2.60521
700,43,24.7671,2.65466,-0.0016504,0.00138532,0.00414084,0.00427773,-0.00454281,0.961073,0.00509331,0.0317168,1924,981,24.7671,-2.65468
707,43,24.8097,2.68597,-0.00180245,0.0015919,0.00411682,0.00434766,-0.00455821,0.980911,0.00514229,0.027522,1931,981,24.8096,-2.68596
714,43,24.8434,2.84052,-0.0019714,0.00170814,0.00388008,0.00416253,-0.00442579,1.00678,0.00495924,0.0340901,1938,981,24.8434,-2.84052
721,43,24.1674,3.79547,0,0,0,0,0,0,0,-1,1945,981,24.1674,-3.79549
728,43,24.0973,3.96252,-0.00252217,0.00211156,0.00326465,0.00379792,-0.00420852,1.094,0.00462455,0.0203224,1952,981,24.0973,-3.96251
735,43,24.0018,4.11456,-0.00290163,0.0025214,0.00247174,0.00347892,-0.00385915,1.20121,0.00423854,0.0128911,1959,981,24.0019,-4.11458
742,43,23.9899,4.22577,-0.00337644,0.00307918,0.00165463,0.00347857,-0.00377583,1.33395,0.0041895,0.0151005,1966,981,23.9899,-4.22575
749,43,23.9801,4.35474,-0.00393079,0.00384542,0.000728385,0.00391306,-0.00399843,1.4782,0.00456779,0.0176921,1973,981,23.9801,-4.35475
756,43,23.9924,4.44489,-0.00444849,0.00474313,-0.000225134,0.00474864,-0.004454,-1.54632,0.00531406,0.0172132,1980,981,23.9924,-4.44488
763,43,23.9978,4.51807,-0.0051968,0.00600968,-0.00130739,0.00616018,-0.00534731,-1.45618,0.00664937,0.0194962,1987,981,23.9978,-4.51806
770,43,23.965,4.60846,-0.00622491,0.00777354,-0.00212169,0.00808805,-0.00653942,-1.42363,0.00846093,0.0152139,1994,981,23.965,-4.60847
777,43,23.9362,4.67126,-0.00731815,0.00990113,-0.00253133,0.0102655,-0.00768256,-1.42782,0.0103981,0.019832,2001,981,23.9361,-4.67125
784,43,23.7958,4.53113,-0.00846256,0.0120783,-0.00262896,0.0124094,-0.00879369,-1.4455,0.0123008,0.0396075,2008,981,23.7957,-4.53113
791,43,23.6885,4.3988,0,0,0,0,0,0,0,-1,2015,981,23.6885,-4.39881
798,43,23.2628,4.64752,-0.00971399,0.0163872,-0.00158548,0.0164832,-0.00980994,-1.51035,0.0153424,0.0460484,2022,981,23.2628,-4.64752
805,43,23.2476,4.93268,-0.00935616,0.0182431,9.95491e-05,0.0182434,-0.00935652,1.56719,0.0162078,0.0448978,2029,981,23.2475,-4.93268
812,43,23.25,5.1377,0,0,0,0,0,0,0,-1,2036,981,23.25,-5.13771
-700,36,0,0,0,0,0,0,0,0,0,-1,524,988,0,0
-693,36,-10.9958,1.7641,-0.132962,0.124634,0.0613059,0.13848,-0.146808,1.34867,0.164735,0.0439111,531,988,-10.9958,-1.76412
-686,36,-12.0602,1.76385,-0.110364,0.0993285,0.0496207,0.110478,-0.121513,1.34978,0.13399,0.0453303,538,988,-12.0602,-1.76384
-679,36,-13.4032,1.79089,0,0,0,0,0,0,0,-1,545,988,-13.4032,-1.7909
-672,36,-16.5306,3.05157,0,0,0,0,0,0,0,-1,552,988,-16.5307,-3.05156
-665,36,-16.5292,2.48523,0,0,0,0,0,0,0,-1,559,988,-16.5292,-2.48525
-658,36,-16.618,2.35107,-0.0422962,0.0343194,0.0185409,0.0385704,-0.0465472,1.34541,0.0492145,0.0458711,566,988,-16.618,-2.35109
-651,36,-16.7112,2.18048,-0.030879,0.0246851,0.0136716,0.0278669,-0.0340607,1.34214,0.0358134,0.0363312,573,988,-16.7112,-2.18046
-644,36,-16.8727,2.11383,-0.0215918,0.0171984,0.00964501,0.0194643,-0.0238577,1.34006,0.0250548,0.0203711,580,988,-16.8727,-2.11383
-637,36,-16.8895,2.06659,-0.0138284,0.0105284,0.00548635,0.0117072,-0.0150071,1.35916,0.0154627,0.0148784,587,988,-16.8895,-2.06656
-630,36,-16.8666,2.02991,-0.00809575,0.00587392,0.00218367,0.0062073,-0.00842913,1.41929,0.00848274,0.0119336,594,988,-16.8666,-2.02993
-623,36,-16.8669,1.94836,-0.00408379,0.00310679,0.000249251,0.00311542,-0.00409242,1.53619,0.00417417,0.0113307,601,988,-16.8669,-1.94839
-616,36,-16.868,1.85773,-0.0033117,0.00273776,-0.0009632,0.00288742,-0.00346136,-1.41665,0.00367046,0.0095192,608,988,-16.868,-1.85774
-609,36,-16.8759,1.79181,-0.00296595,0.0024933,-0.00199863,0.00314678,-0.00361943,-1.25479,0.00390965,0.0144379,615,988,-16.8759,-1.79183
-602,36,-16.8827,1.69153,-0.00290867,0.00213937,-0.00266364,0.00328491,-0.00405421,-1.16464,0.004245,0.0187789,622,988,-16.8827,-1.69154
-595,36,-16.8491,1.61224,-0.00286047,0.00179641,-0.0032246,0.00344537,-0.00450943,-1.0981,0.00460638,0.0191625,629,988,-16.8491,-1.61223
-588,36,-16.8788,1.32269,-0.00271563,0.00144053,-0.00339499,0.00334295,-0.00461805,-1.06003,0.0046159,0.0183596,636,988,-16.8788,-1.32268
-581,36,-16.9743,0.948975,-0.002654,0.00113009,-0.00341244,0.00313991,-0.00466382,-1.03853,0.00453403,0.0205127,643,988,-16.9743,-0.948998
-574,36,-17.0166,0.837219,-0.00262226,0.000598066,-0.00335613,0.0027103,-0.00473449,-1.00906,0.00435089,0.0233834,650,988,-17.0166,-0.837217
-567,36,-17.0546,0.788391,-0.00237113,0.000167517,-0.00302254,0.00217644,-0.00438006,-0.984192,0.003856,0.0324622,657,988,-17.0546,-0.788395
-560,36,-17.1564,1.15442,-0.00194492,-0.000403483,-0.0026357,0.00157187,-0.00392027,-0.92764,0.00326609,0.0397129,664,988,-17.1564,-1.15444
-553,36,-17.1873,1.3183,-0.0013965,-0.00106772,-0.00231954,0.00109325,-0.00355747,-0.820775,0.00280793,0.0422973,671,988,-17.1873,-1.3183
-546,36,-17.0447,1.10022,-0.000825294,-0.0018316,-0.002207,0.000935178,-0.00359207,-0.673323,0.00275977,0.0435094,678,988,-17.0447,-1.1002
-539,36,-16.8284,1.07416,-0.000391752,-0.00260895,-0.00255073,0.00128088,-0.00428158,-0.580403,0.00336364,0.04301,685,988,-16.8284,-1.07417
-532,36,-16.6119,1.19397,-0.000702381,-0.00304588,-0.00399624,0.00229036,-0.00603862,-0.642789,0.0049684,0.0452614,692,988,-16.6119,-1.19397
-525,36,-16.8739,0.862793,-0.00289941,-0.0030398,-0.00695676,0.00398751,-0.00992672,-0.780353,0.00827373,0.0489054,699,988,-16.8739,-0.862798
-518,36,0,0,0,0,0,0,0,0,0,-1,706,988,0,0
-511,36,0,0,0,0,0,0,0,0,0,-1,713,988,0,0
-504,36,0,0,0,0,0,0,0,0,0,-1,720,988,0,0
-497,36,0,0,0,0,0,0,0,0,0,-1,727,988,0,0
-490,36,0,0,0,0,0,0,0,0,0,-1,734,988,0,0
-483,36,0,0,0,0,0,0,0,0,0,-1,741,988,0,0
-476,36,0,0,0,0,0,0,0,0,0,-1,748,988,0,0
-469,36,0,0,0,0,0,0,0,0,0,-1,755,988,0,0
-462,36,0,0,0,0,0,0,0,0,0,-1,762,988,0,0
-455,36,0,0,0,0,0,0,0,0,0,-1,769,988,0,0
-448,36,0,0,0,0,0,0,0,0,0,-1,776,988,0,0
-441,36,0,0,0,0,0,0,0,0,0,-1,783,988,0,0
-434,36,0,0,0,0,0,0,0,0,0,-1,790,988,0,0
-427,36,0,0,0,0,0,0,0,0,0,-1,797,988,0,0
-420,36,0,0,0,0,0,0,0,0,0,-1,804,988,0,0
-413,36,0,0,0,0,0,0,0,0,0,-1,811,988,0,0
-406,36,0,0,0,0,0,0,0,0,0,-1,818,988,0,0
-399,36,0,0,0,0,0,0,0,0,0,-1,825,988,0,0
-392,36,0,0,0,0,0,0,0,0,0,-1,832,988,0,0
-385,36,0,0,0,0,0,0,0,0,0,-1,839,988,0,0
-378,36,0,0,0,0,0,0,0,0,0,-1,846,988,0,0
-371,36,0,0,0,0,0,0,0,0,0,-1,853,988,0,0
-364,36,0,0,0,0,0,0,0,0,0,-1,860,988,0,0
-357,36,0,0,0,0,0,0,0,0,0,-1,867,988,0,0
-350,36,0,0,0,0,0,0,0,0,0,-1,874,988,0,0
-343,36,0,0,0,0,0,0,0,0,0,-1,881,988,0,0
-336,36,0,0,0,0,0,0,0,0,0,-1,888,988,0,0
-329,36,0,0,0,0,0,0,0,0,0,-1,895,988,0,0
-322,36,0,0,0,0,0,0,0,0,0,-1,902,988,0,0
-315,36,0,0,0,0,0,0,0,0,0,-1,909,988,0,0
-308,36,0,0,0,0,0,0,0,0,0,-1,916,988,0,0
-301,36,0,0,0,0,0,0,0,0,0,-1,923,988,0,0
-294,36,0,0,0,0,0,0,0,0,0,-1,930,988,0,0
-287,36,0,0,0,0,0,0,0,0,0,-1,937,988,0,0
-280,36,0,0,0,0,0,0,0,0,0,-1,944,988,0,0
-273,36,0,0,0,0,0,0,0,0,0,-1,951,988,0,0
-266,36,0,0,0,0,0,0,0,0,0,-1,958,988,0,0
-259,36,0,0,0,0,0,0,0,0,0,-1,965,988,0,0
-252,36,0,0,0,0,0,0,0,0,0,-1,972,988,0,0
-245,36,0,0,0,0,0,0,0,0,0,-1,979,988,0,0
-238,36,0,0,0,0,0,0,0,0,0,-1,986,988,0,0
-231,36,0,0,0,0,0,0,0,0,0,-1,993,988,0,0
-224,36,0,0,0,0,0,0,0,0,0,-1,1000,988,0,0
-217,36,0,0,0,0,0,0,0,0,0,-1,1007,988,0,0
-210,36,0,0,0,0,0,0,0,0,0,-1,1014,988,0,0
-203,36,0,0,0,0,0,0,0,0,0,-1,1021,988,0,0
-196,36,0,0,0,0,0,0,0,0,0,-1,1028,988,0,0
-189,36,0,0,0,0,0,0,0,0,0,-1,1035,988,0,0
-182,36,0,0,0,0,0,0,0,0,0,-1,1042,988,0,0
-175,36,0,0,0,0,0,0,0,0,0,-1,1049,988,0,0
-168,36,0,0,0,0,0,0,0,0,0,-1,1056,988,0,0
-161,36,0,0,0,0,0,0,0,0,0,-1,1063,988,0,0
-154,36,0,0,0,0,0,0,0,0,0,-1,1070,988,0,0
-147,36,0,0,0,0,0,0,0,0,0,-1,1077,988,0,0
-140,36,0,0,0,0,0,0,0,0,0,-1,1084,988,0,0
-133,36,0,0,0,0,0,0,0,0,0,-1,1091,988,0,0
-126,36,0,0,0,0,0,0,0,0,0,-1,1098,988,0,0
-119,36,0,0,0,0,0,0,0,0,0,-1,1105,988,0,0
-112,36,0,0,0,0,0,0,0,0,0,-1,1112,988,0,0
-105,36,0,0,0,0,0,0,0,0,0,-1,1119,988,0,0
-98,36,0,0,0,0,0,0,0,0,0,-1,1126,988,0,0
-91,36,0,0,0,0,0,0,0,0,0,-1,1133,988,0,0
-84,36,0,0,0,0,0,0,0,0,0,-1,1140,988,0,0
-77,36,0,0,0,0,0,0,0,0,0,-1,1147,988,0,0
-70,36,0,0,0,0,0,0,0,0,0,-1,1154,988,0,0
-63,36,0,0,0,0,0,0,0,0,0,-1,1161,988,0,0
-56,36,0,0,0,0,0,0,0,0,0,-1,1168,988,0,0
-49,36,0,0,0,0,0,0,0,0,0,-1,1175,988,0,0
-42,36,0,0,0,0,0,0,0,0,0,-1,1182,988,0,0
-35,36,0,0,0,0,0,0,0,0,0,-1,1189,988,0,0
-28,36,0,0,0,0,0,0,0,0,0,-1,1196,988,0,0
-21,36,0,0,0,0,0,0,0,0,0,-1,1203,988,0,0
-14,36,0,0,0,0,0,0,0,0,0,-1,1210,988,0,0
-7,36,0,0,0,0,0,0,0,0,0,-1,1217,988,0,0
0,36,0,0,0,0,0,0,0,0,0,-1,1224,988,0,0
7,36,0,0,0,0,0,0,0,0,0,-1,1231,988,0,0
14,36,0,0,0,0,0,0,0,0,0,-1,1238,988,0,0
21,36,0,0,0,0,0,0,0,0,0,-1,1245,988,0,0
28,36,0,0,0,0,0,0,0,0,0,-1,1252,988,0,0
35,36,0,0,0,0,0,0,0,0,0,-1,1259,988,0,0
42,36,0,0,0,0,0,0,0,0,0,-1,1266,988,0,0
49,36,0,0,0,0,0,0,0,0,0,-1,1273,988,0,0
56,36,0,0,0,0,0,0,0,0,0,-1,1280,988,0,0
63,36,0,0,0,0,0,0,0,0,0,-1,1287,988,0,0
70,36,0,0,0,0,0,0,0,0,0,-1,1294,988,0,0
77,36,0,0,0,0,0,0,0,0,0,-1,1301,988,0,0
84,36,0,0,0,0,0,0,0,0,0,-1,1308,988,0,0
91,36,0,0,0,0,0,0,0,0,0,-1,1315,988,0,0
98,36,0,0,0,0,0,0,0,0,0,-1,1322,988,0,0
105,36,0,0,0,0,0,0,0,0,0,-1,1329,988,0,0
112,36,0,0,0,0,0,0,0,0,0,-1,1336,988,0,0
119,36,0,0,0,0,0,0,0,0,0,-1,1343,988,0,0
126,36,0,0,0,0,0,0,0,0,0,-1,1350,988,0,0
133,36,0,0,0,0,0,0,0,0,0,-1,1357,988,0,0
140,36,0,0,0,0,0,0,0,0,0,-1,1364,988,0,0
147,36,0,0,0,0,0,0,0,0,0,-1,1371,988,0,0
154,36,0,0,0,0,0,0,0,0,0,-1,1378,988,0,0
161,36,0,0,0,0,0,0,0,0,0,-1,1385,988,0,0
168,36,0,0,0,0,0,0,0,0,0,-1,1392,988,0,0
175,36,0,0,0,0,0,0,0,0,0,-1,1399,988,0,0
182,36,0,0,0,0,0,0,0,0,0,-1,1406,988,0,0
189,36,0,0,0,0,0,0,0,0,0,-1,1413,988,0,0
196,36,0,0,0,0,0,0,0,0,0,-1,1420,988,0,0
203,36,0,0,0,0,0,0,0,0,0,-1,1427,988,0,0
210,36,0,0,0,0,0,0,0,0,0,-1,1434,988,0,0
217,36,0,0,0,0,0,0,0,0,0,-1,1441,988,0,0
224,36,0,0,0,0,0,0,0,0,0,-1,1448,988,0,0
231,36,0,0,0,0,0,0,0,0,0,-1,1455,988,0,0
238,36,0,0,0,0,0,0,0,0,0,-1,1462,988,0,0
245,36,0,0,0,0,0,0,0,0,0,-1,1469,988,0,0
252,36,0,0,0,0,0,0,0,0,0,-1,1476,988,0,0
259,36,0,0,0,0,0,0,0,0,0,-1,1483,988,0,0
266,36,0,0,0,0,0,0,0,0,0,-1,1490,988,0,0
273,36,0,0,0,0,0,0,0,0,0,-1,1497,988,0,0
280,36,0,0,0,0,0,0,0,0,0,-1,1504,988,0,0
287,36,0,0,0,0,0,0,0,0,0,-1,1511,988,0,0
294,36,0,0,0,0,0,0,0,0,0,-1,1518,988,0,0
301,36,0,0,0,0,0,0,0,0,0,-1,1525,988,0,0
308,36,0,0,0,0,0,0,0,0,0,-1,1532,988,0,0
315,36,0,0,0,0,0,0,0,0,0,-1,1539,988,0,0
322,36,0,0,0,0,0,0,0,0,0,-1,1546,988,0,0
329,36,0,0,0,0,0,0,0,0,0,-1,1553,988,0,0
336,36,0,0,0,0,0,0,0,0,0,-1,1560,988,0,0
343,36,0,0,0,0,0,0,0,0,0,-1,1567,988,0,0
350,36,0,0,0,0,0,0,0,0,0,-1,1574,988,0,0
357,36,0,0,0,0,0,0,0,0,0,-1,1581,988,0,0
364,36,0,0,0,0,0,0,0,0,0,-1,1588,988,0,0
371,36,0,0,0,0,0,0,0,0,0,-1,1595,988,0,0
378,36,0,0,0,0,0,0,0,0,0,-1,1602,988,0,0
385,36,0,0,0,0,0,0,0,0,0,-1,1609,988,0,0
392,36,0,0,0,0,0,0,0,0,0,-1,1616,988,0,0
399,36,0,0,0,0,0,0,0,0,0,-1,1623,988,0,0
406,36,0,0,0,0,0,0,0,0,0,-1,1630,988,0,0
413,36,0,0,0,0,0,0,0,0,0,-1,1637,988,0,0
420,36,0,0,0,0,0,0,0,0,0,-1,1644,988,0,0
427,36,0,0,0,0,0,0,0,0,0,-1,1651,988,0,0
434,36,0,0,0,0,0,0,0,0,0,-1,1658,988,0,0
441,36,0,0,0,0,0,0,0,0,0,-1,1665,988,0,0
448,36,0,0,0,0,0,0,0,0,0,-1,1672,988,0,0
455,36,0,0,0,0,0,0,0,0,0,-1,1679,988,0,0
462,36,0,0,0,0,0,0,0,0,0,-1,1686,988,0,0
469,36,0,0,0,0,0,0,0,0,0,-1,1693,988,0,0
476,36,0,0,0,0,0,0,0,0,0,-1,1700,988,0,0
483,36,0,0,0,0,0,0,0,0,0,-1,1707,988,0,0
490,36,0,0,0,0,0,0,0,0,0,-1,1714,988,0,0
497,36,0,0,0,0,0,0,0,0,0,-1,1721,988,0,0
504,36,0,0,0,0,0,0,0,0,0,-1,1728,988,0,0
511,36,0,0,0,0,0,0,0,0,0,-1,1735,988,0,0
518,36,0,0,0,0,0,0,0,0,0,-1,1742,988,0,0
525,36,0,0,0,0,0,0,0,0,0,-1,1749,988,0,0
532,36,0,0,0,0,0,0,0,0,0,-1,1756,988,0,0
539,36,0,0,0,0,0,0,0,0,0,-1,1763,988,0,0
546,36,0,0,0,0,0,0,0,0,0,-1,1770,988,0,0
553,36,0,0,0,0,0,0,0,0,0,-1,1777,988,0,0
560,36,0,0,0,0,0,0,0,0,0,-1,1784,988,0,0
567,36,0,0,0,0,0,0,0,0,0,-1,1791,988,0,0
574,36,0,0,0,0,0,0,0,0,0,-1,1798,988,0,0
581,36,0,0,0,0,0,0,0,0,0,-1,1805,988,0,0
588,36,0,0,0,0,0,0,0,0,0,-1,1812,988,0,0
595,36,0,0,0,0,0,0,0,0,0,-1,1819,988,0,0
602,36,0,0,0,0,0,0,0,0,0,-1,1826,988,0,0
609,36,0,0,0,0,0,0,0,0,0,-1,1833,988,0,0
616,36,0,0,0,0,0,0,0,0,0,-1,1840,988,0,0
623,36,0,0,0,0,0,0,0,0,0,-1,1847,988,0,0
630,36,0,0,0,0,0,0,0,0,0,-1,1854,988,0,0
637,36,0,0,0,0,0,0,0,0,0,-1,1861,988,0,0
644,36,24.7295,2.76685,-0.000510194,-0.000945293,-0.00354595,0.00282488,-0.00428036,-0.754761,0.0041308,0.0401844,1868,988,24.7295,-2.76687
651,36,24.6949,2.71161,-0.000342768,-0.00081192,-0.00211908,0.00155468,-0.00270937,-0.730274,0.00249176,0.0397646,1875,988,24.6949,-2.71161
658,36,24.8162,2.66656,-0.000244158,-0.000724469,-0.00108947,0.000631315,-0.00159994,-0.676917,0.00132806,0.0394378,1882,988,24.8162,-2.66654
665,36,24.9221,2.51703,-0.000305232,-0.000439777,-6.52038e-05,-0.000278818,-0.000466191,-0.384892,0.000270876,0.0422385,1889,988,24.9222,-2.51705
672,36,24.9569,2.52856,-0.000443824,5.36388e-05,0.0011369,0.000968698,-0.00135888,0.893092,0.00135011,0.0418491,1896,988,24.9569,-2.52859
679,36,24.8293,2.67462,-0.000773278,0.00046418,0.00227438,0.00220249,-0.00251159,0.918205,0.00272363,0.0386532,1903,988,24.8294,-2.67462
686,36,24.6414,2.8941,-0.00107386,0.000765443,0.00314291,0.00312049,-0.0034289,0.92773,0.00378269,0.0384068,1910,988,24.6414,-2.89408
693,36,24.8162,2.64191,-0.00132739,0.000956453,0.00377746,0.00376082,-0.00413175,0.93218,0.00455846,0.0404051,1917,988,24.8162,-2.64189
700,36,24.8662,2.65955,-0.00153443,0.00113904,0.00417001,0.00418133,-0.00457672,0.940503,0.00505818,0.0367083,1924,988,24.8662,-2.65956
707,36,24.8171,2.71326,-0.0017385,0.0013663,0.00426532,0.00435294,-0.00472514,0.959926,0.0052427,0.0260376,1931,988,24.8172,-2.71323
714,36,24.8495,2.89459,-0.00198933,0.00151252,0.00414608,0.00426223,-0.00473903,0.985192,0.00519931,0.0290485,1938,988,24.8495,-2.89461
721,36,24.4656,3.849,0,0,0,0,0,0,0,-1,1945,988,24.4656,-3.84902
728,36,24.2837,4.01099,-0.00260723,0.00192894,0.00361037,0.00392454,-0.00460282,1.06585,0.00492846,0.0217221,1952,988,24.2836,-4.01098
735,36,24.1084,4.16284,-0.00293342,0.00225178,0.0027421,0.00343286,-0.0041145,1.16409,0.00436339,0.0160268,1959,988,24.1084,-4.16287
742,36,24.0968,4.22351,-0.00333138,0.00265765,0.00178459,0.00314909,-0.00382282,1.30208,0.00403149,0.0135635,1966,988,24.0969,-4.2235
749,36,24.1099,4.33685,-0.0037504,0.00329888,0.000665591,0.00336117,-0.0038127,1.47748,0.00414457,0.0159537,1973,988,24.1098,-4.33688
756,36,24.099,4.42261,-0.00402347,0.00399615,-0.000520944,0.00402985,-0.00405717,-1.5062,0.00466905,0.0151112,1980,988,24.099,-4.42262
763,36,24.0806,4.48877,-0.0044499,0.00491907,-0.002018,0.00533525,-0.00486608,-1.36742,0.00589181,0.0161172,1987,988,24.0806,-4.48878
770,36,24.0518,4.565,-0.00499661,0.00617914,-0.00341027,0.00713758,-0.00595506,-1.29682,0.00756931,0.0128917,1994,988,24.0518,-4.56499
777,36,24.0087,4.68127,-0.00553015,0.0077048,-0.00445587,0.00906515,-0.00689051,-1.27449,0.00924048,0.0203854,2001,988,24.0087,-4.68128
784,36,23.847,4.54346,-0.00606137,0.00916804,-0.0052471,0.0108008,-0.00769414,-1.26912,0.0107282,0.0405851,2008,988,23.8471,-4.54347
791,36,23.6956,4.41644,0,0,0,0,0,0,0,-1,2015,988,23.6955,-4.41642
798,36,23.5028,4.48944,-0.00602709,0.0117179,-0.00601562,0.013565,-0.00787415,-1.27289,0.0125224,0.043807,2022,988,23.5028,-4.48947
805,36,23.2612,4.79736,-0.0051922,0.0126177,-0.00546602,0.0141615,-0.00673596,-1.29554,0.0123164,0.0491606,2029,988,23.2612,-4.79739
812,36,23.0527,5.05725,0,0,0,0,0,0,0,-1,2036,988,23.0528,-5.05724
-700,29,0,0,0,0,0,0,0,0,0,-1,524,995,0,0
-693,29,-11.94,1.13184,-0.126298,0.117623,0.0644871,0.133623,-0.142298,1.3276,0.159329,0.0442214,531,995,-11.94,-1.13183
-686,29,-13.1411,1.12823,-0.104644,0.094546,0.0520614,0.107332,-0.11743,1.32996,0.12981,0.0456752,538,995,-13.1411,-1.12826
-679,29,-14.2487,1.38995,-0.0851946,0.0751746,0.0416107,0.0853284,-0.0953484,1.33146,0.104367,0.0471908,545,995,-14.2487,-1.38997
-672,29,-15.8673,2.28253,0,0,0,0,0,0,0,-1,552,995,-15.8673,-2.28255
-665,29,-16.2048,2.2821,-0.0527133,0.0450262,0.0252586,0.0511678,-0.058855,1.33228,0.0635734,0.0431264,559,995,-16.2048,-2.2821
-658,29,-16.608,2.32361,-0.0397197,0.0336027,0.0189851,0.0382268,-0.0443438,1.33188,0.0477157,0.0439674,566,995,-16.608,-2.32363
-651,29,-16.7169,2.19843,-0.0289062,0.0243352,0.0138269,0.0277119,-0.0322829,1.33127,0.0346715,0.0362379,573,995,-16.7169,-2.19845
-644,29,-16.8533,2.04871,-0.0201074,0.0170611,0.00954088,0.0193671,-0.0224134,1.33365,0.0241434,0.0192902,580,995,-16.8532,-2.04872
-637,29,-16.9465,1.98914,-0.0126856,0.0105344,0.00519225,0.0116425,-0.0137938,1.36053,0.0147031,0.0132732,587,995,-16.9465,-1.98913
-630,29,-16.9517,1.98895,-0.0072194,0.00601828,0.00170004,0.00623312,-0.00743424,1.44509,0.007901,0.0104474,594,995,-16.9517,-1.98897
-623,29,-16.9488,1.94781,-0.00351511,0.00342792,-0.000398699,0.00345074,-0.00353793,-1.51362,0.00403502,0.0101211,601,995,-16.9488,-1.94782
-616,29,-16.952,1.86725,-0.00281216,0.0029816,-0.00167497,0.00343098,-0.00326154,-1.30868,0.00386434,0.012099,608,995,-16.952,-1.86726
-609,29,-16.9588,1.82794,-0.00243946,0.00260573,-0.00261236,0.00371465,-0.00354838,-1.16936,0.00419368,0.0192187,615,995,-16.9588,-1.82792
-602,29,-16.9498,1.75201,-0.00226785,0.0022959,-0.00324241,0.0039789,-0.00395084,-1.09202,0.00457824,0.0218522,622,995,-16.9499,-1.75199
-595,29,-16.8981,1.65332,-0.00210377,0.00200181,-0.00374432,0.00421914,-0.0043211,-1.03614,0.00493082,0.0209205,629,995,-16.8981,-1.6533
-588,29,-16.9277,1.31653,-0.00189607,0.00169193,-0.00386372,0.00415783,-0.00436197,-1.00275,0.00491938,0.0260379,636,995,-16.9278,-1.31651
-581,29,-16.9955,0.956665,-0.00180262,0.00144508,-0.00383808,0.00398869,-0.00434623,-0.985524,0.00481365,0.0328696,643,995,-16.9956,-0.956693
-574,29,-16.9863,0.841919,-0.00178266,0.000952424,-0.00370187,0.00353127,-0.00436151,-0.962333,0.0045653,0.0284132,650,995,-16.9863,-0.841944
-567,29,-17.0311,0.847351,-0.00160036,0.000528612,-0.00326995,0.00290297,-0.00397472,-0.942757,0.00398688,0.0318913,657,995,-17.0311,-0.847357
-560,29,-17.196,1.12396,-0.00131317,-4.66202e-05,-0.00277532,0.00216676,-0.00352655,-0.897569,0.00331814,0.0378375,664,995,-17.196,-1.12395
-553,29,-17.178,1.34705,-0.000976851,-0.000772836,-0.00236588,0.00149324,-0.00324292,-0.806943,0.00279593,0.0413754,671,995,-17.178,-1.34704
-546,29,-16.863,1.16504,-0.000685003,-0.00168611,-0.00220327,0.00107386,-0.00344497,-0.673701,0.00272604,0.0438923,678,995,-16.863,-1.16504
-539,29,-16.8749,0.95813,-0.00060184,-0.00267988,-0.00261658,0.00117447,-0.00445619,-0.5964,0.00342997,0.0426308,685,995,-16.8749,-0.958151
-532,29,-16.7665,1.21069,-0.00133052,-0.00339587,-0.00440076,0.0021571,-0.0068835,-0.670154,0.00545218,0.0456935,692,995,-16.7665,-1.21068
-525,29,-16.802,1.23645,-0.00388152,-0.00390205,-0.00795255,0.00406077,-0.0118443,-0.784753,0.00954231,0.0464682,699,995,-16.802,-1.23643
-518,29,0,0,0,0,0,0,0,0,0,-1,706,995,0,0
-511,29,0,0,0,0,0,0,0,0,0,-1,713,995,0,0
-504,29,0,0,0,0,0,0,0,0,0,-1,720,995,0,0
-497,29,0,0,0,0,0,0,0,0,0,-1,727,995,0,0
-490,29,0,0,0,0,0,0,0,0,0,-1,734,995,0,0
-483,29,0,0,0,0,0,0,0,0,0,-1,741,995,0,0
-476,29,0,0,0,0,0,0,0,0,0,-1,748,995,0,0
-469,29,0,0,0,0,0,0,0,0,0,-1,755,995,0,0
-462,29,0,0,0,0,0,0,0,0,0,-1,762,995,0,0
-455,29,0,0,0,0,0,0,0,0,0,-1,769,995,0,0
-448,29,0,0,0,0,0,0,0,0,0,-1,776,995,0,0
-441,29,0,0,0,0,0,0,0,0,0,-1,783,995,0,0
-434,29,0,0,0,0,0,0,0,0,0,-1,790,995,0,0
-427,29,0,0,0,0,0,0,0,0,0,-1,797,995,0,0
-420,29,0,0,0,0,0,0,0,0,0,-1,804,995,0,0
-413,29,0,0,0,0,0,0,0,0,0,-1,811,995,0,0
-406,29,0,0,0,0,0,0,0,0,0,-1,818,995,0,0
-399,29,0,0,0,0,0,0,0,0,0,-1,825,995,0,0
-392,29,0,0,0,0,0,0,0,0,0,-1,832,995,0,0
-385,29,0,0,0,0,0,0,0,0,0,-1,839,995,0,0
-378,29,0,0,0,0,0,0,0,0,0,-1,846,995,0,0
-371,29,0,0,0,0,0,0,0,0,0,-1,853,995,0,0
-364,29,0,0,0,0,0,0,0,0,0,-1,860,995,0,0
-357,29,0,0,0,0,0,0,0,0,0,-1,867,995,0,0
-350,29,0,0,0,0,0,0,0,0,0,-1,874,995,0,0
-343,29,0,0,0,0,0,0,0,0,0,-1,881,995,0,0
-336,29,0,0,0,0,0,0,0,0,0,-1,888,995,0,0
-329,29,0,0,0,0,0,0,0,0,0,-1,895,995,0,0
-322,29,0,0,0,0,0,0,0,0,0,-1,902,995,0,0
-315,29,0,0,0,0,0,0,0,0,0,-1,909,995,0,0
-308,29,0,0,0,0,0,0,0,0,0,-1,916,995,0,0
-301,29,0,0,0,0,0,0,0,0,0,-1,923,995,0,0
-294,29,0,0,0,0,0,0,0,0,0,-1,930,995,0,0
-287,29,0,0,0,0,0,0,0,0,0,-1,937,995,0,0
-280,29,0,0,0,0,0,0,0,0,0,-1,944,995,0,0
-273,29,0,0,0,0,0,0,0,0,0,-1,951,995,0,0
-266,29,0,0,0,0,0,0,0,0,0,-1,958,995,0,0
-259,29,0,0,0,0,0,0,0,0,0,-1,965,995,0,0
-252,29,0,0,0,0,0,0,0,0,0,-1,972,995,0,0
-245,29,0,0,0,0,0,0,0,0,0,-1,979,995,0,0
-238,29,0,0,0,0,0,0,0,0,0,-1,986,995,0,0
-231,29,0,0,0,0,0,0,0,0,0,-1,993,995,0,0
-224,29,0,0,0,0,0,0,0,0,0,-1,1000,995,0,0
-217,29,0,0,0,0,0,0,0,0,0,-1,1007,995,0,0
-210,29,0,0,0,0,0,0,0,0,0,-1,1014,995,0,0
-203,29,0,0,0,0,0,0,0,0,0,-1,1021,995,0,0
-196,29,0,0,0,0,0,0,0,0,0,-1,1028,995,0,0
-189,29,0,0,0,0,0,0,0,0,0,-1,1035,995,0,0
-182,29,0,0,0,0,0,0,0,0,0,-1,1042,995,0,0
-175,29,0,0,0,0,0,0,0,0,0,-1,1049,995,0,0
-168,29,0,0,0,0,0,0,0,0,0,-1,1056,995,0,0
-161,29,0,0,0,0,0,0,0,0,0,-1,1063,995,0,0
-154,29,0,0,0,0,0,0,0,0,0,-1,1070,995,0,0
-147,29,0,0,0,0,0,0,0,0,0,-1,1077,995,0,0
-140,29,0,0,0,0,0,0,0,0,0,-1,1084,995,0,0
-133,29,0,0,0,0,0,0,0,0,0,-1,1091,995,0,0
-126,29,0,0,0,0,0,0,0,0,0,-1,1098,995,0,0
-119,29,0,0,0,0,0,0,0,0,0,-1,1105,995,0,0
-112,29,0,0,0,0,0,0,0,0,0,-1,1112,995,0,0
-105,29,0,0,0,0,0,0,0,0,0,-1,1119,995,0,0
-98,29,0,0,0,0,0,0,0,0,0,-1,1126,995,0,0
-91,29,0,0,0,0,0,0,0,0,0,-1,1133,995,0,0
-84,29,0,0,0,0,0,0,0,0,0,-1,1140,995,0,0
-77,29,0,0,0,0,0,0,0,0,0,-1,1147,995,0,0
-70,29,0,0,0,0,0,0,0,0,0,-1,1154,995,0,0
-63,29,0,0,0,0,0,0,0,0,0,-1,1161,995,0,0
-56,29,0,0,0,0,0,0,0,0,0,-1,1168,995,0,0
-49,29,0,0,0,0,0,0,0,0,0,-1,1175,995,0,0
-42,29,0,0,0,0,0,0,0,0,0,-1,1182,995,0,0
-35,29,0,0,0,0,0,0,0,0,0,-1,1189,995,0,0
-28,29,0,0,0,0,0,0,0,0,0,-1,1196,995,0,0
-21,29,0,0,0,0,0,0,0,0,0,-1,1203,995,0,0
-14,29,0,0,0,0,0,0,0,0,0,-1,1210,995,0,0
-7,29,0,0,0,0,0,0,0,0,0,-1,1217,995,0,0
0,29,0,0,0,0,0,0,0,0,0,-1,1224,995,0,0
7,29,0,0,0,0,0,0,0,0,0,-1,1231,995,0,0
14,29,0,0,0,0,0,0,0,0,0,-1,1238,995,0,0
21,29,0,0,0,0,0,0,0,0,0,-1,1245,995,0,0
28,29,0,0,0,0,0,0,0,0,0,-1,1252,995,0,0
35,29,0,0,0,0,0,0,0,0,0,-1,1259,995,0,0
42,29,0,0,0,0,0,0,0,0,0,-1,1266,995,0,0
49,29,0,0,0,0,0,0,0,0,0,-1,1273,995,0,0
56,29,0,0,0,0,0,0,0,0,0,-1,1280,995,0,0
63,29,0,0,0,0,0,0,0,0,0,-1,1287,995,0,0
70,29,0,0,0,0,0,0,0,0,0,-1,1294,995,0,0
77,29,0,0,0,0,0,0,0,0,0,-1,1301,995,0,0
84,29,0,0,0,0,0,0,0,0,0,-1,1308,995,0,0
91,29,0,0,0,0,0,0,0,0,0,-1,1315,995,0,0
98,29,0,0,0,0,0,0,0,0,0,-1,1322,995,0,0
105,29,0,0,0,0,0,0,0,0,0,-1,1329,995,0,0
112,29,0,0,0,0,0,0,0,0,0,-1,1336,995,0,0
119,29,0,0,0,0,0,0,0,0,0,-1,1343,995,0,0
126,29,0,0,0,0,0,0,0,0,0,-1,1350,995,0,0
133,29,0,0,0,0,0,0,0,0,0,-1,1357,995,0,0
140,29,0,0,0,0,0,0,0,0,0,-1,1364,995,0,0
147,29,0,0,0,0,0,0,0,0,0,-1,1371,995,0,0
154,29,0,0,0,0,0,0,0,0,0,-1,1378,995,0,0
161,29,0,0,0,0,0,0,0,0,0,-1,1385,995,0,0
168,29,0,0,0,0,0,0,0,0,0,-1,1392,995,0,0
175,29,0,0,0,0,0,0,0,0,0,-1,1399,995,0,0
182,29,0,0,0,0,0,0,0,0,0,-1,1406,995,0,0
189,29,0,0,0,0,0,0,0,0,0,-1,1413,995,0,0
196,29,0,0,0,0,0,0,0,0,0,-1,1420,995,0,0
203,29,0,0,0,0,0,0,0,0,0,-1,1427,995,0,0
210,29,0,0,0,0,0,0,0,0,0,-1,1434,995,0,0
217,29,0,0,0,0,0,0,0,0,0,-1,1441,995,0,0
224,29,0,0,0,0,0,0,0,0,0,-1,1448,995,0,0
231,29,0,0,0,0,0,0,0,0,0,-1,1455,995,0,0
238,29,0,0,0,0,0,0,0,0,0,-1,1462,995,0,0
245,29,0,0,0,0,0,0,0,0,0,-1,1469,995,0,0
252,29,0,0,0,0,0,0,0,0,0,-1,1476,995,0,0
259,29,0,0,0,0,0,0,0,0,0,-1,1483,995,0,0
266,29,0,0,0,0,0,0,0,0,0,-1,1490,995,0,0
273,29,0,0,0,0,0,0,0,0,0,-1,1497,995,0,0
280,29,0,0,0,0,0,0,0,0,0,-1,1504,995,0,0
287,29,0,0,0,0,0,0,0,0,0,-1,1511,995,0,0
294,29,0,0,0,0,0,0,0,0,0,-1,1518,995,0,0
301,29,0,0,0,0,0,0,0,0,0,-1,1525,995,0,0
308,29,0,0,0,0,0,0,0,0,0,-1,1532,995,0,0
315,29,0,0,0,0,0,0,0,0,0,-1,1539,995,0,0
322,29,0,0,0,0,0,0,0,0,0,-1,1546,995,0,0
329,29,0,0,0,0,0,0,0,0,0,-1,1553,995,0,0
336,29,0,0,0,0,0,0,0,0,0,-1,1560,995,0,0
343,29,0,0,0,0,0,0,0,0,0,-1,1567,995,0,0
350,29,0,0,0,0,0,0,0,0,0,-1,1574,995,0,0
357,29,0,0,0,0,0,0,0,0,0,-1,1581,995,0,0
364,29,0,0,0,0,0,0,0,0,0,-1,1588,995,0,0
371,29,0,0,0,0,0,0,0,0,0,-1,1595,995,0,0
378,29,0,0,0,0,0,0,0,0,0,-1,1602,995,0,0
385,29,0,0,0,0,0,0,0,0,0,-1,1609,995,0,0
392,29,0,0,0,0,0,0,0,0,0,-1,1616,995,0,0
399,29,0,0,0,0,0,0,0,0,0,-1,1623,995,0,0
406,29,0,0,0,0,0,0,0,0,0,-1,1630,995,0,0
413,29,0,0,0,0,0,0,0,0,0,-1,1637,995,0,0
420,29,0,0,0,0,0,0,0,0,0,-1,1644,995,0,0
427,29,0,0,0,0,0,0,0,0,0,-1,1651,995,0,0
434,29,0,0,0,0,0,0,0,0,0,-1,1658,995,0,0
441,29,0,0,0,0,0,0,0,0,0,-1,1665,995,0,0
448,29,0,0,0,0,0,0,0,0,0,-1,1672,995,0,0
455,29,0,0,0,0,0,0,0,0,0,-1,1679,995,0,0
462,29,0,0,0,0,0,0,0,0,0,-1,1686,995,0,0
469,29,0,0,0,0,0,0,0,0,0,-1,1693,995,0,0
476,29,0,0,0,0,0,0,0,0,0,-1,1700,995,0,0
483,29,0,0,0,0,0,0,0,0,0,-1,1707,995,0,0
490,29,0,0,0,0,0,0,0,0,0,-1,1714,995,0,0
497,29,0,0,0,0,0,0,0,0,0,-1,1721,995,0,0
504,29,0,0,0,0,0,0,0,0,0,-1,1728,995,0,0
511,29,0,0,0,0,0,0,0,0,0,-1,1735,995,0,0
518,29,0,0,0,0,0,0,0,0,0,-1,1742,995,0,0
525,29,0,0,0,0,0,0,0,0,0,-1,1749,995,0,0
532,29,0,0,0,0,0,0,0,0,0,-1,1756,995,0,0
539,29,0,0,0,0,0,0,0,0,0,-1,1763,995,0,0
546,29,0,0,0,0,0,0,0,0,0,-1,1770,995,0,0
553,29,0,0,0,0,0,0,0,0,0,-1,1777,995,0,0
560,29,0,0,0,0,0,0,0,0,0,-1,1784,995,0,0
567,29,0,0,0,0,0,0,0,0,0,-1,1791,995,0,0
574,29,0,0,0,0,0,0,0,0,0,-1,1798,995,0,0
581,29,0,0,0,0,0,0,0,0,0,-1,1805,995,0,0
588,29,0,0,0,0,0,0,0,0,0,-1,1812,995,0,0
595,29,0,0,0,0,0,0,0,0,0,-1,1819,995,0,0
602,29,0,0,0,0,0,0,0,0,0,-1,1826,995,0,0
609,29,0,0,0,0,0,0,0,0,0,-1,1833,995,0,0
616,29,0,0,0,0,0,0,0,0,0,-1,1840,995,0,0
623,29,0,0,0,0,0,0,0,0,0,-1,1847,995,0,0
630,29,0,0,0,0,0,0,0,0,0,-1,1854,995,0,0
637,29,0,0,0,0,0,0,0,0,0,-1,1861,995,0,0
644,29,24.7289,3.08698,-0.000504975,-0.00198411,-0.00326089,0.00209916,-0.00458825,-0.673885,0.00394912,0.0423945,1868,995,24.7289,-3.08698
651,29,24.5559,2.82941,-0.00029061,-0.00164225,-0.00213428,0.0012723,-0.00320515,-0.632068,0.00266414,0.0423686,1875,995,24.5559,-2.8294
658,29,24.7262,3.06927,-0.000149869,-0.00138629,-0.00129736,0.000669042,-0.0022052,-0.563056,0.00173665,0.0421007,1882,995,24.7262,-3.06929
665,29,24.7704,3.14905,-0.000193888,-0.000991191,-0.000414265,-1.76153e-05,-0.00116746,-0.402301,0.000772505,0.0422857,1889,995,24.7703,-3.14902
672,29,24.8666,2.62274,-0.000329432,-0.000395854,0.000747766,0.00038586,-0.00111115,0.763206,0.000897473,0.0409205,1896,995,24.8665,-2.62274
679,29,24.7787,2.71948,-0.000689627,9.59493e-05,0.00196349,0.00170556,-0.00229923,0.884118,0.00232062,0.0378042,1903,995,24.7787,-2.71947
686,29,24.6896,2.76416,-0.00102705,0.000451539,0.00294236,0.00274606,-0.00332157,0.90848,0.0035084,0.0370465,1910,995,24.6895,-2.76413
693,29,24.7662,2.80402,-0.0013126,0.000689361,0.00368261,0.0035046,-0.00412784,0.918099,0.00441149,0.0413391,1917,995,24.7662,-2.80399
700,29,24.8301,2.79749,-0.00153865,0.000884855,0.00417421,0.00401964,-0.00467344,0.926663,0.00502368,0.0374981,1924,995,24.83,-2.79751
707,29,24.7682,2.74432,-0.00178004,0.00110327,0.00438595,0.00427843,-0.0049552,0.944185,0.00533581,0.0230881,1931,995,24.7682,-2.7443
714,29,24.7921,3.00708,-0.00208095,0.00128187,0.00438107,0.0042931,-0.00509218,0.968626,0.00542514,0.0255907,1938,995,24.7921,-3.00705
721,29,24.5571,3.80219,0,0,0,0,0,0,0,-1,1945,995,24.5571,-3.8022
728,29,24.3311,4.03076,-0.00266637,0.00173577,0.00395866,0.00406413,-0.00499473,1.03912,0.00523932,0.0224737,1952,995,24.3311,-4.03079
735,29,24.2023,4.20819,-0.00291039,0.00203789,0.00309815,0.00352858,-0.00440108,1.12234,0.00458742,0.013981,1959,995,24.2023,-4.20821
742,29,24.189,4.25256,-0.00317454,0.00234522,0.0020568,0.00302734,-0.00385666,1.25057,0.00398408,0.0119253,1966,995,24.189,-4.25256
749,29,24.1875,4.33051,-0.00336968,0.00291175,0.000789739,0.00300952,-0.00346744,1.44762,0.00374259,0.0131827,1973,995,24.1875,-4.33048
756,29,24.175,4.41608,-0.00334731,0.00351828,-0.000564658,0.00356441,-0.00339344,-1.48928,0.00401752,0.0130572,1980,995,24.1751,-4.4161
763,29,24.181,4.4693,-0.00340778,0.00423942,-0.0023782,0.00491868,-0.00408704,-1.29258,0.00520684,0.0122892,1987,995,24.181,-4.4693
770,29,24.1268,4.53149,-0.00342179,0.00518762,-0.00424261,0.00692694,-0.0051611,-1.18173,0.00700381,0.0127197,1994,995,24.1269,-4.53147
777,29,24.0773,4.66547,-0.00335178,0.00630345,-0.00582684,0.00904273,-0.00609106,-1.13134,0.00879272,0.0197627,2001,995,24.0773,-4.66544
784,29,24.0107,4.52942,-0.00326941,0.00724071,-0.00719156,0.0108926,-0.00692132,-1.10092,0.0103697,0.0400305,2008,995,24.0107,-4.52945
791,29,23.9298,4.42249,0,0,0,0,0,0,0,-1,2015,995,23.9298,-4.42249
798,29,23.7117,4.32416,0,0,0,0,0,0,0,-1,2022,995,23.7116,-4.32419
805,29,23.4775,4.66156,0,0,0,0,0,0,0,-1,2029,995,23.4775,-4.66159
812,29,25.3762,2.51471,0,0,0,0,0,0,0,-1,2036,995,25.3761,-2.51472
-700,22,0,0,0,0,0,0,0,0,0,-1,524,1002,0,0
-693,22,-13.3014,-0.615051,-0.115355,0.108895,0.0641849,0.125967,-0.132427,1.31084,0.149199,0.0402172,531,1002,-13.3014,0.615039
-686,22,-14.2534,0.279663,-0.0952491,0.0885082,0.0524979,0.102449,-0.10919,1.31124,0.12221,0.0416657,538,1002,-14.2534,-0.279655
-679,22,-15.0814,0.976868,-0.0772864,0.0710383,0.0423302,0.0822685,-0.0885166,1.31147,0.0986249,0.0449351,545,1002,-15.0814,-0.976884
-672,22,-15.9334,1.44434,0,0,0,0,0,0,0,-1,552,1002,-15.9334,-1.44433
-665,22,-16.6636,2.34686,-0.0474627,0.0432837,0.0259292,0.0501699,-0.0543489,1.31121,0.0603601,0.0423732,559,1002,-16.6636,-2.34683
-658,22,-17.067,2.06433,-0.0356237,0.0325838,0.0195008,0.0377655,-0.0408054,1.31108,0.0453742,0.0422024,566,1002,-17.067,-2.06431
-651,22,-16.8027,2.12628,-0.0258314,0.0238123,0.0141682,0.0275713,-0.0295903,1.31146,0.0330092,0.037402,573,1002,-16.8027,-2.12625
-644,22,-16.9044,2.03528,-0.0178586,0.0168322,0.00967057,0.0193459,-0.0203723,1.31649,0.0229338,0.0198653,580,1002,-16.9044,-2.03525
-637,22,-16.9778,1.96686,-0.0110631,0.0105813,0.00520733,0.0117689,-0.0122507,1.34656,0.0138687,0.0138821,587,1002,-16.9778,-1.96686
-630,22,-17.0021,1.9491,-0.00614123,0.00623923,0.00154874,0.00643003,-0.00633202,1.44822,0.00736825,0.0104871,594,1002,-17.0021,-1.94911
-623,22,-17.0121,1.91205,-0.00294782,0.00379775,-0.000769501,0.00388442,-0.00303449,-1.45864,0.00400467,0.00991664,601,1002,-17.0121,-1.91205
-616,22,-17.0062,1.8551,-0.00235604,0.00315341,-0.00220531,0.00392741,-0.00313004,-1.23326,0.00408328,0.0154327,608,1002,-17.0061,-1.85513
-609,22,-17.0076,1.80933,-0.00195204,0.00257522,-0.00314109,0.00418334,-0.00356017,-1.09762,0.00447554,0.0257933,615,1002,-17.0076,-1.80932
-602,22,-17.0228,1.77429,-0.00166664,0.00226867,-0.00378752,0.00456915,-0.00396711,-1.02497,0.0049325,0.0272621,622,1002,-17.0228,-1.77431
-595,22,-16.9984,1.63928,-0.00141975,0.0020341,-0.00425653,0.00490068,-0.00428633,-0.978108,0.00530808,0.0233839,629,1002,-16.9984,-1.63929
-588,22,-16.9802,1.25793,-0.00117452,0.00177147,-0.00435006,0.00489116,-0.0042942,-0.948646,0.0053069,0.0299888,636,1002,-16.9801,-1.25794
-581,22,-17.0195,0.889648,-0.00106028,0.00158944,-0.00429787,0.00476201,-0.00423286,-0.934907,0.00519618,0.0387063,643,1002,-17.0195,-0.889674
-574,22,-16.9942,0.80957,-0.00105159,0.00118023,-0.00408457,0.00429857,-0.00416994,-0.918745,0.00488949,0.0331161,650,1002,-16.9942,-0.809575
-567,22,-17.0034,0.844055,-0.000943633,0.000821315,-0.00355074,0.0035976,-0.00371992,-0.907197,0.00422497,0.0316962,657,1002,-17.0034,-0.844033
-560,22,-17.1212,1.06604,-0.000786162,0.00033015,-0.00292901,0.00275371,-0.00320972,-0.87955,0.00344634,0.0352836,664,1002,-17.1212,-1.06607
-553,22,-17.0663,1.31519,-0.000636784,-0.000348049,-0.00237742,0.00188939,-0.00287422,-0.815723,0.00276979,0.0383517,671,1002,-17.0663,-1.31517
-546,22,-16.93,1.20532,-0.00057873,-0.00128815,-0.00207536,0.00117202,-0.0030389,-0.700758,0.00250955,0.0410838,678,1002,-16.93,-1.20529
-539,22,-17.0692,1.08392,-0.000769556,-0.00236345,-0.00241885,0.000980249,-0.00411326,-0.626262,0.00312067,0.0422877,685,1002,-17.0691,-1.08391
-532,22,-17.0634,1.10718,-0.00178025,-0.00326468,-0.00434943,0.00188984,-0.00693476,-0.700889,0.00536524,0.0447965,692,1002,-17.0634,-1.10716
-525,22,0,0,0,0,0,0,0,0,0,-1,699,1002,0,0
-518,22,0,0,0,0,0,0,0,0,0,-1,706,1002,0,0
-511,22,0,0,0,0,0,0,0,0,0,-1,713,1002,0,0
-504,22,0,0,0,0,0,0,0,0,0,-1,720,1002,0,0
-497,22,0,0,0,0,0,0,0,0,0,-1,727,1002,0,0
-490,22,0,0,0,0,0,0,0,0,0,-1,734,1002,0,0
-483,22,0,0,0,0,0,0,0,0,0,-1,741,1002,0,0
-476,22,0,0,0,0,0,0,0,0,0,-1,748,1002,0,0
-469,22,0,0,0,0,0,0,0,0,0,-1,755,1002,0,0
-462,22,0,0,0,0,0,0,0,0,0,-1,762,1002,0,0
-455,22,0,0,0,0,0,0,0,0,0,-1,769,1002,0,0
-448,22,0,0,0,0,0,0,0,0,0,-1,776,1002,0,0
-441,22,0,0,0,0,0,0,0,0,0,-1,783,1002,0,0
-434,22,0,0,0,0,0,0,0,0,0,-1,790,1002,0,0
-427,22,0,0,0,0,0,0,0,0,0,-1,797,1002,0,0
-420,22,0,0,0,0,0,0,0,0,0,-1,804,1002,0,0
-413,22,0,0,0,0,0,0,0,0,0,-1,811,1002,0,0
-406,22,0,0,0,0,0,0,0,0,0,-1,818,1002,0,0
-399,22,0,0,0,0,0,0,0,0,0,-1,825,1002,0,0
-392,22,0,0,0,0,0,0,0,0,0,-1,832,1002,0,0
-385,22,0,0,0,0,0,0,0,0,0,-1,839,1002,0,0
-378,22,0,0,0,0,0,0,0,0,0,-1,846,1002,0,0
-371,22,0,0,0,0,0,0,0,0,0,-1,853,1002,0,0
-364,22,0,0,0,0,0,0,0,0,0,-1,860,1002,0,0
-357,22,0,0,0,0,0,0,0,0,0,-1,867,1002,0,0
-350,22,0,0,0,0,0,0,0,0,0,-1,874,1002,0,0
-343,22,0,0,0,0,0,0,0,0,0,-1,881,1002,0,0
-336,22,0,0,0,0,0,0,0,0,0,-1,888,1002,0,0
-329,22,0,0,0,0,0,0,0,0,0,-1,895,1002,0,0
-322,22,0,0,0,0,0,0,0,0,0,-1,902,1002,0,0
-315,22,0,0,0,0,0,0,0,0,0,-1,909,1002,0,0
-308,22,0,0,0,0,0,0,0,0,0,-1,916,1002,0,0
-301,22,0,0,0,0,0,0,0,0,0,-1,923,1002,0,0
-294,22,0,0,0,0,0,0,0,0,0,-1,930,1002,0,0
-287,22,0,0,0,0,0,0,0,0,0,-1,937,1002,0,0
-280,22,0,0,0,0,0,0,0,0,0,-1,944,1002,0,0
-273,22,0,0,0,0,0,0,0,0,0,-1,951,1002,0,0
-266,22,0,0,0,0,0,0,0,0,0,-1,958,1002,0,0
-259,22,0,0,0,0,0,0,0,0,0,-1,965,1002,0,0
-252,22,0,0,0,0,0,0,0,0,0,-1,972,1002,0,0
-245,22,0,0,0,0,0,0,0,0,0,-1,979,1002,0,0
-238,22,0,0,0,0,0,0,0,0,0,-1,986,1002,0,0
-231,22,0,0,0,0,0,0,0,0,0,-1,993,1002,0,0
-224,22,0,0,0,0,0,0,0,0,0,-1,1000,1002,0,0
-217,22,0,0,0,0,0,0,0,0,0,-1,1007,1002,0,0
-210,22,0,0,0,0,0,0,0,0,0,-1,1014,1002,0,0
-203,22,0,0,0,0,0,0,0,0,0,-1,1021,1002,0,0
-196,22,0,0,0,0,0,0,0,0,0,-1,1028,1002,0,0
-189,22,0,0,0,0,0,0,0,0,0,-1,1035,1002,0,0
-182,22,0,0,0,0,0,0,0,0,0,-1,1042,1002,0,0
-175,22,0,0,0,0,0,0,0,0,0,-1,1049,1002,0,0
-168,22,0,0,0,0,0,0,0,0,0,-1,1056,1002,0,0
-161,22,0,0,0,0,0,0,0,0,0,-1,1063,1002,0,0
-154,22,0,0,0,0,0,0,0,0,0,-1,1070,1002,0,0
-147,22,0,0,0,0,0,0,0,0,0,-1,1077,1002,0,0
-140,22,0,0,0,0,0,0,0,0,0,-1,1084,1002,0,0
-133,22,0,0,0,0,0,0,0,0,0,-1,1091,1002,0,0
-126,22,0,0,0,0,0,0,0,0,0,-1,1098,1002,0,0
-119,22,0,0,0,0,0,0,0,0,0,-1,1105,1002,0,0
-112,22,0,0,0,0,0,0,0,0,0,-1,1112,1002,0,0
-105,22,0,0,0,0,0,0,0,0,0,-1,1119,1002,0,0
-98,22,0,0,0,0,0,0,0,0,0,-1,1126,1002,0,0
-91,22,0,0,0,0,0,0,0,0,0,-1,1133,1002,0,0
-84,22,0,0,0,0,0,0,0,0,0,-1,1140,1002,0,0
-77,22,0,0,0,0,0,0,0,0,0,-1,1147,1002,0,0
-70,22,0,0,0,0,0,0,0,0,0,-1,1154,1002,0,0
-63,22,0,0,0,0,0,0,0,0,0,-1,1161,1002,0,0
-56,22,0,0,0,0,0,0,0,0,0,-1,1168,1002,0,0
-49,22,0,0,0,0,0,0,0,0,0,-1,1175,1002,0,0
-42,22,0,0,0,0,0,0,0,0,0,-1,1182,1002,0,0
-35,22,0,0,0,0,0,0,0,0,0,-1,1189,1002,0,0
-28,22,0,0,0,0,0,0,0,0,0,-1,1196,1002,0,0
-21,22,0,0,0,0,0,0,0,0,0,-1,1203,1002,0,0
-14,22,0,0,0,0,0,0,0,0,0,-1,1210,1002,0,0
-7,22,0,0,0,0,0,0,0,0,0,-1,1217,1002,0,0
0,22,0,0,0,0,0,0,0,0,0,-1,1224,1002,0,0
7,22,0,0,0,0,0,0,0,0,0,-1,1231,1002,0,0
14,22,0,0,0,0,0,0,0,0,0,-1,1238,1002,0,0
21,22,0,0,0,0,0,0,0,0,0,-1,1245,1002,0,0
28,22,0,0,0,0,0,0,0,0,0,-1,1252,1002,0,0
35,22,0,0,0,0,0,0,0,0,0,-1,1259,1002,0,0
42,22,0,0,0,0,0,0,0,0,0,-1,1266,1002,0,0
49,22,0,0,0,0,0,0,0,0,0,-1,1273,1002,0,0
56,22,0,0,0,0,0,0,0,0,0,-1,1280,1002,0,0
63,22,0,0,0,0,0,0,0,0,0,-1,1287,1002,0,0
70,22,0,0,0,0,0,0,0,0,0,-1,1294,1002,0,0
77,22,0,0,0,0,0,0,0,0,0,-1,1301,1002,0,0
84,22,0,0,0,0,0,0,0,0,0,-1,1308,1002,0,0
91,22,0,0,0,0,0,0,0,0,0,-1,1315,1002,0,0
98,22,0,0,0,0,0,0,0,0,0,-1,1322,1002,0,0
105,22,0,0,0,0,0,0,0,0,0,-1,1329,1002,0,0
112,22,0,0,0,0,0,0,0,0,0,-1,1336,1002,0,0
119,22,0,0,0,0,0,0,0,0,0,-1,1343,1002,0,0
126,22,0,0,0,0,0,0,0,0,0,-1,1350,1002,0,0
133,22,0,0,0,0,0,0,0,0,0,-1,1357,1002,0,0
140,22,0,0,0,0,0,0,0,0,0,-1,1364,1002,0,0
147,22,0,0,0,0,0,0,0,0,0,-1,1371,1002,0,0
154,22,0,0,0,0,0,0,0,0,0,-1,1378,1002,0,0
161,22,0,0,0,0,0,0,0,0,0,-1,1385,1002,0,0
168,22,0,0,0,0,0,0,0,0,0,-1,1392,1002,0,0
175,22,0,0,0,0,0,0,0,0,0,-1,1399,1002,0,0
182,22,0,0,0,0,0,0,0,0,0,-1,1406,1002,0,0
189,22,0,0,0,0,0,0,0,0,0,-1,1413,1002,0,0
196,22,0,0,0,0,0,0,0,0,0,-1,1420,1002,0,0
203,22,0,0,0,0,0,0,0,0,0,-1,1427,1002,0,0
210,22,0,0,0,0,0,0,0,0,0,-1,1434,1002,0,0
217,22,0,0,0,0,0,0,0,0,0,-1,1441,1002,0,0
224,22,0,0,0,0,0,0,0,0,0,-1,1448,1002,0,0
231,22,0,0,0,0,0,0,0,0,0,-1,1455,1002,0,0
238,22,0,0,0,0,0,0,0,0,0,-1,1462,1002,0,0
245,22,0,0,0,0,0,0,0,0,0,-1,1469,1002,0,0
252,22,0,0,0,0,0,0,0,0,0,-1,1476,1002,0,0
259,22,0,0,0,0,0,0,0,0,0,-1,1483,1002,0,0
266,22,0,0,0,0,0,0,0,0,0,-1,1490,1002,0,0
273,22,0,0,0,0,0,0,0,0,0,-1,1497,1002,0,0
280,22,0,0,0,0,0,0,0,0,0,-1,1504,1002,0,0
287,22,0,0,0,0,0,0,0,0,0,-1,1511,1002,0,0
294,22,0,0,0,0,0,0,0,0,0,-1,1518,1002,0,0
301,22,0,0,0,0,0,0,0,0,0,-1,1525,1002,0,0
308,22,0,0,0,0,0,0,0,0,0,-1,1532,1002,0,0
315,22,0,0,0,0,0,0,0,0,0,-1,1539,1002,0,0
322,22,0,0,0,0,0,0,0,0,0,-1,1546,1002,0,0
329,22,0,0,0,0,0,0,0,0,0,-1,1553,1002,0,0
336,22,0,0,0,0,0,0,0,0,0,-1,1560,1002,0,0
343,22,0,0,0,0,0,0,0,0,0,-1,1567,1002,0,0
350,22,0,0,0,0,0,0,0,0,0,-1,1574,1002,0,0
357,22,0,0,0,0,0,0,0,0,0,-1,1581,1002,0,0
364,22,0,0,0,0,0,0,0,0,0,-1,1588,1002,0,0
371,22,0,0,0,0,0,0,0,0,0,-1,1595,1002,0,0
378,22,0,0,0,0,0,0,0,0,0,-1,1602,1002,0,0
385,22,0,0,0,0,0,0,0,0,0,-1,1609,1002,0,0
392,22,0,0,0,0,0,0,0,0,0,-1,1616,1002,0,0
399,22,0,0,0,0,0,0,0,0,0,-1,1623,1002,0,0
406,22,0,0,0,0,0,0,0,0,0,-1,1630,1002,0,0
413,22,0,0,0,0,0,0,0,0,0,-1,1637,1002,0,0
420,22,0,0,0,0,0,0,0,0,0,-1,1644,1002,0,0
427,22,0,0,0,0,0,0,0,0,0,-1,1651,1002,0,0
434,22,0,0,0,0,0,0,0,0,0,-1,1658,1002,0,0
441,22,0,0,0,0,0,0,0,0,0,-1,1665,1002,0,0
448,22,0,0,0,0,0,0,0,0,0,-1,1672,1002,0,0
455,22,0,0,0,0,0,0,0,0,0,-1,1679,1002,0,0
462,22,0,0,0,0,0,0,0,0,0,-1,1686,1002,0,0
469,22,0,0,0,0,0,0,0,0,0,-1,1693,1002,0,0
476,22,0,0,0,0,0,0,0,0,0,-1,1700,1002,0,0
483,22,0,0,0,0,0,0,0,0,0,-1,1707,1002,0,0
490,22,0,0,0,0,0,0,0,0,0,-1,1714,1002,0,0
497,22,0,0,0,0,0,0,0,0,0,-1,1721,1002,0,0
504,22,0,0,0,0,0,0,0,0,0,-1,1728,1002,0,0
511,22,0,0,0,0,0,0,0,0,0,-1,1735,1002,0,0
518,22,0,0,0,0,0,0,0,0,0,-1,1742,1002,0,0
525,22,0,0,0,0,0,0,0,0,0,-1,1749,1002,0,0
532,22,0,0,0,0,0,0,0,0,0,-1,1756,1002,0,0
539,22,0,0,0,0,0,0,0,0,0,-1,1763,1002,0,0
546,22,0,0,0,0,0,0,0,0,0,-1,1770,1002,0,0
553,22,0,0,0,0,0,0,0,0,0,-1,1777,1002,0,0
560,22,0,0,0,0,0,0,0,0,0,-1,1784,1002,0,0
567,22,0,0,0,0,0,0,0,0,0,-1,1791,1002,0,0
574,22,0,0,0,0,0,0,0,0,0,-1,1798,1002,0,0
581,22,0,0,0,0,0,0,0,0,0,-1,1805,1002,0,0
588,22,0,0,0,0,0,0,0,0,0,-1,1812,1002,0,0
595,22,0,0,0,0,0,0,0,0,0,-1,1819,1002,0,0
602,22,0,0,0,0,0,0,0,0,0,-1,1826,1002,0,0
609,22,0,0,0,0,0,0,0,0,0,-1,1833,1002,0,0
616,22,0,0,0,0,0,0,0,0,0,-1,1840,1002,0,0
623,22,0,0,0,0,0,0,0,0,0,-1,1847,1002,0,0
630,22,0,0,0,0,0,0,0,0,0,-1,1854,1002,0,0
637,22,0,0,0,0,0,0,0,0,0,-1,1861,1002,0,0
644,22,24.6578,2.70923,-0.000498222,-0.00211934,-0.00288553,0.00168843,-0.00430599,-0.648474,0.00356917,0.0406818,1868,1002,24.6578,-2.70925
651,22,24.6329,2.72833,-0.000372204,-0.00176276,-0.00199855,0.00104855,-0.00318352,-0.618001,0.00254492,0.0420871,1875,1002,24.6329,-2.72831
658,22,24.8,2.78229,-0.000247835,-0.00149904,-0.00134838,0.000613,-0.00235987,-0.568194,0.00181247,0.0428395,1882,1002,24.8,-2.78228
665,22,24.8372,2.78644,-0.000273745,-0.00115317,-0.000630672,5.53694e-05,-0.00148228,-0.480972,0.00100715,0.0399992,1889,1002,24.8372,-2.78643
672,22,24.788,2.68604,-0.000381166,-0.000614357,0.000443389,-3.9299e-05,-0.000956224,0.656827,0.000624795,0.0378903,1896,1002,24.788,-2.68604
679,22,24.8018,2.57019,-0.000732603,-0.000181331,0.00168809,0.00125348,-0.00216741,0.866325,0.00199841,0.0366818,1903,1002,24.8017,-2.57017
686,22,24.7328,2.59326,-0.00106383,0.000122393,0.00273376,0.00232664,-0.00326808,0.892221,0.00324532,0.0367524,1910,1002,24.7328,-2.59328
693,22,24.8055,2.80896,-0.00134655,0.000330673,0.00355394,0.0031436,-0.00415948,0.901262,0.00423001,0.0388098,1917,1002,24.8056,-2.80895
700,22,24.8298,2.78607,-0.00157229,0.000491325,0.00413273,0.00371911,-0.00480007,0.907731,0.00493173,0.0342388,1924,1002,24.8298,-2.78609
707,22,24.7209,2.67633,-0.00181894,0.000671463,0.00443917,0.00403676,-0.00518424,0.922136,0.00533747,0.0291637,1931,1002,24.721,-2.67634
714,22,24.7678,2.82507,-0.00212774,0.000855327,0.00452762,0.00413077,-0.00540317,0.944515,0.00552074,0.0266096,1938,1002,24.7678,-2.82505
721,22,24.7256,3.41412,-0.00241922,0.00106394,0.00451992,0.0041662,-0.00552148,0.969289,0.0056114,0.0312157,1945,1002,24.7256,-3.41413
728,22,24.2437,4.14624,0,0,0,0,0,0,0,-1,1952,1002,24.2437,-4.14627
735,22,24.2749,4.21875,-0.0028035,0.00166667,0.00345052,0.00354275,-0.00467958,1.07279,0.00476227,0.0151027,1959,1002,24.2749,-4.21876
742,22,24.2773,4.27472,-0.00295952,0.00195437,0.00238805,0.0029237,-0.00392885,1.18521,0.00397048,0.015309,1966,1002,24.2774,-4.2747
749,22,24.2581,4.33502,-0.00294416,0.00248169,0.00103145,0.00267115,-0.00313363,1.38914,0.00335493,0.0122089,1973,1002,24.2581,-4.33501
756,22,24.257,4.3717,-0.0026415,0.00303533,-0.000374896,0.00305998,-0.00266615,-1.50514,0.00330858,0.017272,1980,1002,24.257,-4.37173
763,22,24.2145,4.45898,-0.00235495,0.00361458,-0.00232379,0.00441252,-0.00315289,-1.24003,0.00438802,0.018812,1987,1002,24.2145,-4.45901
770,22,24.2076,4.49664,-0.00185865,0.00431322,-0.00445463,0.00664639,-0.00419182,-1.08832,0.00631071,0.0122213,1994,1002,24.2077,-4.49662
777,22,24.1545,4.55676,-0.00119004,0.00507862,-0.006349,0.00902481,-0.00513624,-1.01468,0.00827799,0.0202433,2001,1002,24.1545,-4.55675
784,22,24.1433,4.44464,-0.000495459,0.00557372,-0.00799873,0.0110942,-0.00601589,-0.966702,0.0100225,0.0406991,2008,1002,24.1433,-4.44462
791,22,23.9896,4.13593,0,0,0,0,0,0,0,-1,2015,1002,23.9896,-4.13594
798,22,23.7838,4.0564,0,0,0,0,0,0,0,-1,2022,1002,23.7839,-4.05637
805,22,24.9104,3.16077,0.00330316,0.00438988,-0.0120483,0.015907,-0.00821398,-0.807932,0.0141604,0.0486683,2029,1002,24.9104,-3.16079
812,22,25.1736,2.68628,0,0,0,0,0,0,0,-1,2036,1002,25.1736,-2.68631
-700,15,0,0,0,0,0,0,0,0,0,-1,524,1009,0,0
-693,15,-14.851,-0.347412,-0.10209,0.0967126,0.0595966,0.113209,-0.118587,1.30075,0.13384,0.0460914,531,1009,-14.851,0.347396
-686,15,-15.3446,0.0584106,-0.0834632,0.0794922,0.0498692,0.0935423,-0.0975133,1.29618,0.110314,0.0414422,538,1009,-15.3446,-0.0584136
-679,15,-15.8297,0.554077,-0.0671834,0.0644573,0.0408778,0.076118,-0.0788441,1.29292,0.089472,0.0453089,545,1009,-15.8297,-0.55405
-672,15,-16.5981,0.950439,0,0,0,0,0,0,0,-1,552,1009,-16.5981,-0.950434
-665,15,-17.1567,1.59753,0,0,0,0,0,0,0,-1,559,1009,-17.1566,-1.59754
-658,15,-17.1075,1.80029,-0.0303457,0.0305348,0.0193756,0.0361781,-0.035989,1.28738,0.0416658,0.0443542,566,1009,-17.1075,-1.80031
-651,15,-16.9121,1.95514,-0.0218785,0.0225933,0.0141322,0.0267042,-0.0259894,1.28772,0.0304236,0.0393861,573,1009,-16.9121,-1.95515
-644,15,-16.968,1.96942,-0.0149887,0.0161897,0.00960917,0.0189133,-0.0177123,1.2946,0.0211496,0.0218483,580,1009,-16.9679,-1.96944
-637,15,-16.9846,1.98108,-0.00904158,0.01042,0.00517765,0.0117117,-0.0103333,1.3263,0.012736,0.0163743,587,1009,-16.9845,-1.9811
-630,15,-17.0189,1.9389,-0.00482016,0.00637108,0.00146069,0.00655859,-0.00500767,1.44312,0.00669776,0.0109116,594,1009,-17.0189,-1.9389
-623,15,-17.0458,1.91168,-0.00221059,0.00411168,-0.0010378,0.00427768,-0.00237659,-1.41219,0.00389376,0.00915967,601,1009,-17.0458,-1.91168
-616,15,-17.0488,1.86432,-0.00177188,0.00329091,-0.00264275,0.00441904,-0.00290001,-1.16734,0.00425588,0.0135404,608,1009,-17.0488,-1.8643
-609,15,-17.0295,1.82971,-0.00141559,0.00251527,-0.00363195,0.00467949,-0.00357981,-1.03341,0.00478258,0.0200932,615,1009,-17.0295,-1.82973
-602,15,-17.0068,1.78577,-0.00110022,0.00217409,-0.00432987,0.00516598,-0.00409211,-0.966144,0.00535714,0.0215492,622,1009,-17.0068,-1.78575
-595,15,-16.9851,1.4267,-0.000817823,0.00196708,-0.00474924,0.00552379,-0.00437453,-0.927999,0.00572762,0.0256472,629,1009,-16.9851,-1.42671
-588,15,-16.9703,1.01886,-0.000556291,0.00174135,-0.00480929,0.00553713,-0.00435207,-0.902639,0.00572318,0.0302603,636,1009,-16.9703,-1.01887
-581,15,-17.0203,0.719849,-0.000441328,0.00161508,-0.0047337,0.00543096,-0.00425721,-0.892342,0.00560713,0.0369072,643,1009,-17.0203,-0.719842
-574,15,-16.998,0.756531,-0.000482004,0.00129549,-0.00444721,0.00494189,-0.00412841,-0.884021,0.00524375,0.0324154,650,1009,-16.998,-0.756541
-567,15,-17.0458,0.786316,-0.00048763,0.00105182,-0.00381593,0.00417489,-0.00361069,-0.88492,0.00449894,0.03209,657,1009,-17.0459,-0.786296
-560,15,-17.082,0.990723,-0.000508451,0.000710089,-0.0030562,0.00321716,-0.00301552,-0.883786,0.00359907,0.0367026,664,1009,-17.082,-0.990723
-553,15,-17.1183,1.23242,-0.000603042,0.000203432,-0.00233169,0.00216649,-0.0025661,-0.87102,0.00273561,0.0392328,671,1009,-17.1184,-1.23243
-546,15,-17.0734,1.27625,-0.000847531,-0.000556693,-0.00183658,0.00114022,-0.00254444,-0.824905,0.00217823,0.0405342,678,1009,-17.0733,-1.27622
-539,15,-17.0878,1.24347,-0.00137646,-0.00140251,-0.00203031,0.000640863,-0.00341983,-0.78219,0.00252081,0.0404632,685,1009,-17.0878,-1.24348
-532,15,-17.1851,0.977478,-0.00269726,-0.00206563,-0.00399794,0.00162894,-0.00639184,-0.824813,0.0048954,0.0420255,692,1009,-17.1851,-0.977481
-525,15,0,0,0,0,0,0,0,0,0,-1,699,1009,0,0
-518,15,0,0,0,0,0,0,0,0,0,-1,706,1009,0,0
-511,15,0,0,0,0,0,0,0,0,0,-1,713,1009,0,0
-504,15,0,0,0,0,0,0,0,0,0,-1,720,1009,0,0
-497,15,0,0,0,0,0,0,0,0,0,-1,727,1009,0,0
-490,15,0,0,0,0,0,0,0,0,0,-1,734,1009,0,0
-483,15,0,0,0,0,0,0,0,0,0,-1,741,1009,0,0
-476,15,0,0,0,0,0,0,0,0,0,-1,748,1009,0,0
-469,15,0,0,0,0,0,0,0,0,0,-1,755,1009,0,0
-462,15,0,0,0,0,0,0,0,0,0,-1,762,1009,0,0
-455,15,0,0,0,0,0,0,0,0,0,-1,769,1009,0,0
-448,15,0,0,0,0,0,0,0,0,0,-1,776,1009,0,0
-441,15,0,0,0,0,0,0,0,0,0,-1,783,1009,0,0
-434,15,0,0,0,0,0,0,0,0,0,-1,790,1009,0,0
-427,15,0,0,0,0,0,0,0,0,0,-1,797,1009,0,0
-420,15,0,0,0,0,0,0,0,0,0,-1,804,1009,0,0
-413,15,0,0,0,0,0,0,0,0,0,-1,811,1009,0,0
-406,15,0,0,0,0,0,0,0,0,0,-1,818,1009,0,0
-399,15,0,0,0,0,0,0,0,0,0,-1,825,1009,0,0
-392,15,0,0,0,0,0,0,0,0,0,-1,832,1009,0,0
-385,15,0,0,0,0,0,0,0,0,0,-1,839,1009,0,0
-378,15,0,0,0,0,0,0,0,0,0,-1,846,1009,0,0
-371,15,0,0,0,0,0,0,0,0,0,-1,853,1009,0,0
-364,15,0,0,0,0,0,0,0,0,0,-1,860,1009,0,0
-357,15,0,0,0,0,0,0,0,0,0,-1,867,1009,0,0
-350,15,0,0,0,0,0,0,0,0,0,-1,874,1009,0,0
-343,15,0,0,0,0,0,0,0,0,0,-1,881,1009,0,0
-336,15,0,0,0,0,0,0,0,0,0,-1,888,1009,0,0
-329,15,0,0,0,0,0,0,0,0,0,-1,895,1009,0,0
-322,15,0,0,0,0,0,0,0,0,0,-1,902,1009,0,0
-315,15,0,0,0,0,0,0,0,0,0,-1,909,1009,0,0
-308,15,0,0,0,0,0,0,0,0,0,-1,916,1009,0,0
-301,15,0,0,0,0,0,0,0,0,0,-1,923,1009,0,0
-294,15,0,0,0,0,0,0,0,0,0,-1,930,1009,0,0
-287,15,0,0,0,0,0,0,0,0,0,-1,937,1009,0,0
-280,15,0,0,0,0,0,0,0,0,0,-1,944,1009,0,0
-273,15,0,0,0,0,0,0,0,0,0,-1,951,1009,0,0
-266,15,0,0,0,0,0,0,0,0,0,-1,958,1009,0,0
-259,15,0,0,0,0,0,0,0,0,0,-1,965,1009,0,0
-252,15,0,0,0,0,0,0,0,0,0,-1,972,1009,0,0
-245,15,0,0,0,0,0,0,0,0,0,-1,979,1009,0,0
-238,15,0,0,0,0,0,0,0,0,0,-1,986,1009,0,0
-231,15,0,0,0,0,0,0,0,0,0,-1,993,1009,0,0
-224,15,0,0,0,0,0,0,0,0,0,-1,1000,1009,0,0
-217,15,0,0,0,0,0,0,0,0,0,-1,1007,1009,0,0
-210,15,0,0,0,0,0,0,0,0,0,-1,1014,1009,0,0
-203,15,0,0,0,0,0,0,0,0,0,-1,1021,1009,0,0
-196,15,0,0,0,0,0,0,0,0,0,-1,1028,1009,0,0
-189,15,0,0,0,0,0,0,0,0,0,-1,1035,1009,0,0
-182,15,0,0,0,0,0,0,0,0,0,-1,1042,1009,0,0
-175,15,0,0,0,0,0,0,0,0,0,-1,1049,1009,0,0
-168,15,0,0,0,0,0,0,0,0,0,-1,1056,1009,0,0
-161,15,0,0,0,0,0,0,0,0,0,-1,1063,1009,0,0
-154,15,0,0,0,0,0,0,0,0,0,-1,1070,1009,0,0
-147,15,0,0,0,0,0,0,0,0,0,-1,1077,1009,0,0
-140,15,0,0,0,0,0,0,0,0,0,-1,1084,1009,0,0
-133,15,0,0,0,0,0,0,0,0,0,-1,1091,1009,0,0
-126,15,0,0,0,0,0,0,0,0,0,-1,1098,1009,0,0
-119,15,0,0,0,0,0,0,0,0,0,-1,1105,1009,0,0
-112,15,0,0,0,0,0,0,0,0,0,-1,1112,1009,0,0
-105,15,0,0,0,0,0,0,0,0,0,-1,1119,1009,0,0
-98,15,0,0,0,0,0,0,0,0,0,-1,1126,1009,0,0
-91,15,0,0,0,0,0,0,0,0,0,-1,1133,1009,0,0
-84,15,0,0,0,0,0,0,0,0,0,-1,1140,1009,0,0
-77,15,0,0,0,0,0,0,0,0,0,-1,1147,1009,0,0
-70,15,0,0,0,0,0,0,0,0,0,-1,1154,1009,0,0
-63,15,0,0,0,0,0,0,0,0,0,-1,1161,1009,0,0
-56,15,0,0,0,0,0,0,0,0,0,-1,1168,1009,0,0
-49,15,0,0,0,0,0,0,0,0,0,-1,1175,1009,0,0
-42,15,0,0,0,0,0,0,0,0,0,-1,1182,1009,0,0
-35,15,0,0,0,0,0,0,0,0,0,-1,1189,1009,0,0
-28,15,0,0,0,0,0,0,0,0,0,-1,1196,1009,0,0
-21,15,0,0,0,0,0,0,0,0,0,-1,1203,1009,0,0
-14,15,0,0,0,0,0,0,0,0,0,-1,1210,1009,0,0
-7,15,0,0,0,0,0,0,0,0,0,-1,1217,1009,0,0
0,15,0,0,0,0,0,0,0,0,0,-1,1224,1009,0,0
7,15,0,0,0,0,0,0,0,0,0,-1,1231,1009,0,0
14,15,0,0,0,0,0,0,0,0,0,-1,1238,1009,0,0
21,15,0,0,0,0,0,0,0,0,0,-1,1245,1009,0,0
28,15,0,0,0,0,0,0,0,0,0,-1,1252,1009,0,0
35,15,0,0,0,0,0,0,0,0,0,-1,1259,1009,0,0
42,15,0,0,0,0,0,0,0,0,0,-1,1266,1009,0,0
49,15,0,0,0,0,0,0,0,0,0,-1,1273,1009,0,0
56,15,0,0,0,0,0,0,0,0,0,-1,1280,1009,0,0
63,15,0,0,0,0,0,0,0,0,0,-1,1287,1009,0,0
70,15,0,0,0,0,0,0,0,0,0,-1,1294,1009,0,0
77,15,0,0,0,0,0,0,0,0,0,-1,1301,1009,0,0
84,15,0,0,0,0,0,0,0,0,0,-1,1308,1009,0,0
91,15,0,0,0,0,0,0,0,0,0,-1,1315,1009,0,0
98,15,0,0,0,0,0,0,0,0,0,-1,1322,1009,0,0
105,15,0,0,0,0,0,0,0,0,0,-1,1329,1009,0,0
112,15,0,0,0,0,0,0,0,0,0,-1,1336,1009,0,0
119,15,0,0,0,0,0,0,0,0,0,-1,1343,1009,0,0
126,15,0,0,0,0,0,0,0,0,0,-1,1350,1009,0,0
133,15,0,0,0,0,0,0,0,0,0,-1,1357,1009,0,0
140,15,0,0,0,0,0,0,0,0,0,-1,1364,1009,0,0
147,15,0,0,0,0,0,0,0,0,0,-1,1371,1009,0,0
154,15,0,0,0,0,0,0,0,0,0,-1,1378,1009,0,0
161,15,0,0,0,0,0,0,0,0,0,-1,1385,1009,0,0
168,15,0,0,0,0,0,0,0,0,0,-1,1392,1009,0,0
175,15,0,0,0,0,0,0,0,0,0,-1,1399,1009,0,0
182,15,0,0,0,0,0,0,0,0,0,-1,1406,1009,0,0
189,15,0,0,0,0,0,0,0,0,0,-1,1413,1009,0,0
196,15,0,0,0,0,0,0,0,0,0,-1,1420,1009,0,0
203,15,0,0,0,0,0,0,0,0,0,-1,1427,1009,0,0
210,15,0,0,0,0,0,0,0,0,0,-1,1434,1009,0,0
217,15,0,0,0,0,0,0,0,0,0,-1,1441,1009,0,0
224,15,0,0,0,0,0,0,0,0,0,-1,1448,1009,0,0
231,15,0,0,0,0,0,0,0,0,0,-1,1455,1009,0,0
238,15,0,0,0,0,0,0,0,0,0,-1,1462,1009,0,0
245,15,0,0,0,0,0,0,0,0,0,-1,1469,1009,0,0
252,15,0,0,0,0,0,0,0,0,0,-1,1476,1009,0,0
259,15,0,0,0,0,0,0,0,0,0,-1,1483,1009,0,0
266,15,0,0,0,0,0,0,0,0,0,-1,1490,1009,0,0
273,15,0,0,0,0,0,0,0,0,0,-1,1497,1009,0,0
280,15,0,0,0,0,0,0,0,0,0,-1,1504,1009,0,0
287,15,0,0,0,0,0,0,0,0,0,-1,1511,1009,0,0
294,15,0,0,0,0,0,0,0,0,0,-1,1518,1009,0,0
301,15,0,0,0,0,0,0,0,0,0,-1,1525,1009,0,0
308,15,0,0,0,0,0,0,0,0,0,-1,1532,1009,0,0
315,15,0,0,0,0,0,0,0,0,0,-1,1539,1009,0,0
322,15,0,0,0,0,0,0,0,0,0,-1,1546,1009,0,0
329,15,0,0,0,0,0,0,0,0,0,-1,1553,1009,0,0
336,15,0,0,0,0,0,0,0,0,0,-1,1560,1009,0,0
343,15,0,0,0,0,0,0,0,0,0,-1,1567,1009,0,0
350,15,0,0,0,0,0,0,0,0,0,-1,1574,1009,0,0
357,15,0,0,0,0,0,0,0,0,0,-1,1581,1009,0,0
364,15,0,0,0,0,0,0,0,0,0,-1,1588,1009,0,0
371,15,0,0,0,0,0,0,0,0,0,-1,1595,1009,0,0
378,15,0,0,0,0,0,0,0,0,0,-1,1602,1009,0,0
385,15,0,0,0,0,0,0,0,0,0,-1,1609,1009,0,0
392,15,0,0,0,0,0,0,0,0,0,-1,1616,1009,0,0
399,15,0,0,0,0,0,0,0,0,0,-1,1623,1009,0,0
406,15,0,0,0,0,0,0,0,0,0,-1,1630,1009,0,0
413,15,0,0,0,0,0,0,0,0,0,-1,1637,1009,0,0
420,15,0,0,0,0,0,0,0,0,0,-1,1644,1009,0,0
427,15,0,0,0,0,0,0,0,0,0,-1,1651,1009,0,0
434,15,0,0,0,0,0,0,0,0,0,-1,1658,1009,0,0
441,15,0,0,0,0,0,0,0,0,0,-1,1665,1009,0,0
448,15,0,0,0,0,0,0,0,0,0,-1,1672,1009,0,0
455,15,0,0,0,0,0,0,0,0,0,-1,1679,1009,0,0
462,15,0,0,0,0,0,0,0,0,0,-1,1686,1009,0,0
469,15,0,0,0,0,0,0,0,0,0,-1,1693,1009,0,0
476,15,0,0,0,0,0,0,0,0,0,-1,1700,1009,0,0
483,15,0,0,0,0,0,0,0,0,0,-1,1707,1009,0,0
490,15,0,0,0,0,0,0,0,0,0,-1,1714,1009,0,0
497,15,0,0,0,0,0,0,0,0,0,-1,1721,1009,0,0
504,15,0,0,0,0,0,0,0,0,0,-1,1728,1009,0,0
511,15,0,0,0,0,0,0,0,0,0,-1,1735,1009,0,0
518,15,0,0,0,0,0,0,0,0,0,-1,1742,1009,0,0
525,15,0,0,0,0,0,0,0,0,0,-1,1749,1009,0,0
532,15,0,0,0,0,0,0,0,0,0,-1,1756,1009,0,0
539,15,0,0,0,0,0,0,0,0,0,-1,1763,1009,0,0
546,15,0,0,0,0,0,0,0,0,0,-1,1770,1009,0,0
553,15,0,0,0,0,0,0,0,0,0,-1,1777,1009,0,0
560,15,0,0,0,0,0,0,0,0,0,-1,1784,1009,0,0
567,15,0,0,0,0,0,0,0,0,0,-1,1791,1009,0,0
574,15,0,0,0,0,0,0,0,0,0,-1,1798,1009,0,0
581,15,0,0,0,0,0,0,0,0,0,-1,1805,1009,0,0
588,15,0,0,0,0,0,0,0,0,0,-1,1812,1009,0,0
595,15,0,0,0,0,0,0,0,0,0,-1,1819,1009,0,0
602,15,0,0,0,0,0,0,0,0,0,-1,1826,1009,0,0
609,15,0,0,0,0,0,0,0,0,0,-1,1833,1009,0,0
616,15,0,0,0,0,0,0,0,0,0,-1,1840,1009,0,0
623,15,0,0,0,0,0,0,0,0,0,-1,1847,1009,0,0
630,15,0,0,0,0,0,0,0,0,0,-1,1854,1009,0,0
637,15,0,0,0,0,0,0,0,0,0,-1,1861,1009,0,0
644,15,24.7478,2.65912,-0.00113814,-0.000894711,-0.002991,0.00197705,-0.0040099,-0.805734,0.00352236,0.040056,1868,1009,24.7478,-2.65912
651,15,24.7595,2.67584,-0.000943741,-0.00102875,-0.00210968,0.00112386,-0.00309635,-0.775326,0.00252369,0.0387938,1875,1009,24.7595,-2.67582
658,15,24.9099,2.53503,-0.000719759,-0.00108871,-0.00149365,0.000600764,-0.00240923,-0.723957,0.0018394,0.0413737,1882,1009,24.9099,-2.53504
665,15,24.9194,2.56226,-0.000652272,-0.00100824,-0.000842594,3.09285e-05,-0.00169145,-0.68131,0.00113808,0.0422373,1889,1009,24.9194,-2.56224
672,15,24.7813,2.70752,-0.000669198,-0.000684222,0.000191389,-0.000485174,-0.000868246,0.765784,0.000502436,0.0394759,1896,1009,24.7813,-2.70753
679,15,24.7427,2.69757,-0.000949155,-0.000412895,0.00147855,0.000821638,-0.00218369,0.875097,0.00179354,0.0382468,1903,1009,24.7426,-2.69757
686,15,24.6654,2.6438,-0.00122732,-0.000213181,0.00258114,0.00191023,-0.00335073,0.882389,0.00307514,0.0425172,1910,1009,24.6654,-2.6438
693,15,24.72,2.74408,-0.00146633,-6.83894e-05,0.00347149,0.0027738,-0.00430851,0.884743,0.00412085,0.041368,1917,1009,24.7199,-2.74408
700,15,24.8246,2.70203,-0.0016624,4.71755e-05,0.0041186,0.00339875,-0.00501398,0.887718,0.00488684,0.0318245,1924,1009,24.8246,-2.70201
707,15,24.7552,2.72437,-0.00187276,0.000201195,0.00447957,0.00376225,-0.00543381,0.89914,0.0053385,0.0269043,1931,1009,24.7552,-2.72436
714,15,24.9094,1.99921,0,0,0,0,0,0,0,-1,1938,1009,24.9094,-1.99922
721,15,24.7925,3.20819,0,0,0,0,0,0,0,-1,1945,1009,24.7925,-3.20818
728,15,24.3401,4.13629,0,0,0,0,0,0,0,-1,1952,1009,24.3401,-4.13629
735,15,24.3247,4.21313,-0.00266814,0.00128553,0.00374442,0.00354291,-0.00492552,1.02827,0.00491092,0.0160083,1959,1009,24.3247,-4.21313
742,15,24.3372,4.28693,-0.00272065,0.0016008,0.00269229,0.0028922,-0.00401205,1.12355,0.00400361,0.0173311,1966,1009,24.3372,-4.28691
749,15,24.3092,4.34509,-0.00253695,0.00208154,0.00133659,0.00244046,-0.00289587,1.30845,0.00308467,0.0114395,1973,1009,24.3092,-4.34507
756,15,24.3093,4.36603,-0.00201288,0.00259717,-3.9954e-05,0.00259752,-0.00201323,-1.56213,0.00266913,0.012927,1980,1009,24.3093,-4.366
763,15,24.2911,4.41962,-0.00144327,0.00309698,-0.00197294,0.00383451,-0.00218079,-1.21306,0.00351641,0.0125886,1987,1009,24.2912,-4.41964
770,15,24.2726,4.44244,-0.000533251,0.00364898,-0.00417865,0.00623053,-0.00311481,-1.01739,0.00549458,0.0116771,1994,1009,24.2725,-4.44242
777,15,24.2133,4.48126,0.00065429,0.00420543,-0.00619237,0.00887175,-0.00401204,-0.92502,0.00761281,0.0205959,2001,1009,24.2133,-4.48126
784,15,24.1682,4.47229,0.0019201,0.00446466,-0.00791493,0.0112089,-0.00482416,-0.865089,0.0094982,0.0391918,2008,1009,24.1682,-4.47229
791,15,24.1245,4.46326,0,0,0,0,0,0,0,-1,2015,1009,24.1245,-4.46323
798,15,24.6606,3.5708,0.00548219,0.00363326,-0.0112268,0.0158226,-0.00670711,-0.744319,0.0133577,0.0497099,2022,1009,24.6606,-3.57077
805,15,24.6873,3.30725,0.00759589,0.00233634,-0.0124607,0.0177013,-0.0077691,-0.681402,0.0150734,0.0473443,2029,1009,24.6872,-3.30725
812,15,24.9429,2.96497,0,0,0,0,0,0,0,-1,2036,1009,24.9428,-2.96496
-700,8,0,0,0,0,0,0,0,0,0,-1,524,1016,0,0
-693,8,-15.9378,-0.96106,0,0,0,0,0,0,0,-1,531,1016,-15.9378,0.961074
-686,8,-16.3177,-0.493713,-0.0690933,0.0689517,0.0476086,0.0837784,-0.0839199,1.26889,0.0968207,0.0441666,538,1016,-16.3177,0.493728
-679,8,-16.7643,0.0309448,-0.0543912,0.0563983,0.0397074,0.0691597,-0.0671526,1.25984,0.0787028,0.0435266,545,1016,-16.7643,-0.0309414
-672,8,-16.8712,0.684814,-0.0419998,0.0453646,0.0322464,0.0559775,-0.0526128,1.25284,0.0627047,0.0446841,552,1016,-16.8712,-0.684821
-665,8,-16.8072,1.6225,-0.0316403,0.0357738,0.0254204,0.0442848,-0.0401513,1.24772,0.0487687,0.0447342,559,1016,-16.8072,-1.62251
-658,8,-16.9919,1.67999,-0.023167,0.0275662,0.019381,0.0341228,-0.0297236,1.24458,0.0368909,0.0359914,566,1016,-16.9919,-1.67998
-651,8,-16.9225,1.79932,-0.0164228,0.0206792,0.0141985,0.0254892,-0.0212328,1.24416,0.0270123,0.0218249,573,1016,-16.9225,-1.79933
-644,8,-16.8947,1.84064,-0.011028,0.0150777,0.00962903,0.0182451,-0.0141954,1.25301,0.0187781,0.0234386,580,1016,-16.8946,-1.84064
-637,8,-16.9476,1.88727,-0.00624727,0.00994121,0.00523873,0.0114886,-0.00779466,1.28359,0.0112011,0.0197312,587,1016,-16.9477,-1.8873
-630,8,-17.0424,1.89954,-0.00299166,0.00630788,0.00147924,0.00653751,-0.00322129,1.41679,0.00574166,0.0138215,594,1016,-17.0424,-1.89953
-623,8,-17.0389,1.89618,-0.00130425,0.0043535,-0.00124803,0.00461657,-0.00156731,-1.36305,0.00371213,0.0129252,601,1016,-17.0389,-1.89616
-616,8,-17.0523,1.86414,-0.00116431,0.0033643,-0.00303395,0.00488575,-0.00268576,-1.10597,0.00443249,0.0128074,608,1016,-17.0523,-1.86411
-609,8,-17.0336,1.83734,-0.000905003,0.00239572,-0.00406069,0.00512861,-0.00363789,-0.978414,0.00508568,0.0160821,615,1016,-17.0336,-1.83732
-602,8,-17.0101,1.83472,-0.000603464,0.00197934,-0.00483321,0.0056907,-0.00431482,-0.915945,0.00579487,0.0220455,622,1016,-17.0102,-1.8347
-595,8,-16.9793,1.3172,0,0,0,0,0,0,0,-1,629,1016,-16.9793,-1.31723
-588,8,-16.985,0.767273,0,0,0,0,0,0,0,-1,636,1016,-16.985,-0.767265
-581,8,-16.9766,0.803589,4.93456e-05,0.00151493,-0.00516135,0.00599525,-0.00443097,-0.855915,0.00604212,0.0299148,643,1016,-16.9766,-0.803587
-574,8,-16.9997,0.756592,-2.24358e-05,0.00129295,-0.00479852,0.00547864,-0.00420812,-0.853505,0.00560867,0.0358578,650,1016,-16.9997,-0.756563
-567,8,-17.0577,0.725342,-0.000128221,0.00118002,-0.00406421,0.00464241,-0.00359061,-0.865187,0.00476625,0.0389155,657,1016,-17.0578,-0.725321
-560,8,-17.027,1.06287,-0.000302313,0.00101886,-0.0031509,0.00357768,-0.00286113,-0.888727,0.00372511,0.0401511,664,1016,-17.027,-1.06288
-553,8,-17.032,1.14093,-0.000599141,0.000739373,-0.00222303,0.0023917,-0.00225147,-0.931611,0.00268114,0.0402554,671,1016,-17.032,-1.14094
-546,8,-16.9664,1.11261,-0.00108576,0.000243306,-0.00148916,0.00120948,-0.00205194,-0.995262,0.00190381,0.0403484,678,1016,-16.9664,-1.11259
-539,8,-16.9425,1.138,-0.00185742,-0.000275041,-0.00148018,0.000612139,-0.0027446,-1.03084,0.00206426,0.0400863,685,1016,-16.9425,-1.13799
-532,8,-17.0021,0.979736,-0.00334145,-0.000618399,-0.00344788,0.00172705,-0.00568689,-0.973444,0.00447933,0.0404393,692,1016,-17.0021,-0.979708
-525,8,0,0,0,0,0,0,0,0,0,-1,699,1016,0,0
-518,8,0,0,0,0,0,0,0,0,0,-1,706,1016,0,0
-511,8,0,0,0,0,0,0,0,0,0,-1,713,1016,0,0
-504,8,0,0,0,0,0,0,0,0,0,-1,720,1016,0,0
-497,8,0,0,0,0,0,0,0,0,0,-1,727,1016,0,0
-490,8,0,0,0,0,0,0,0,0,0,-1,734,1016,0,0
-483,8,0,0,0,0,0,0,0,0,0,-1,741,1016,0,0
-476,8,0,0,0,0,0,0,0,0,0,-1,748,1016,0,0
-469,8,0,0,0,0,0,0,0,0,0,-1,755,1016,0,0
-462,8,0,0,0,0,0,0,0,0,0,-1,762,1016,0,0
-455,8,0,0,0,0,0,0,0,0,0,-1,769,1016,0,0
-448,8,0,0,0,0,0,0,0,0,0,-1,776,1016,0,0
-441,8,0,0,0,0,0,0,0,0,0,-1,783,1016,0,0
-434,8,0,0,0,0,0,0,0,0,0,-1,790,1016,0,0
-427,8,0,0,0,0,0,0,0,0,0,-1,797,1016,0,0
-420,8,0,0,0,0,0,0,0,0,0,-1,804,1016,0,0
-413,8,0,0,0,0,0,0,0,0,0,-1,811,1016,0,0
-406,8,0,0,0,0,0,0,0,0,0,-1,818,1016,0,0
-399,8,0,0,0,0,0,0,0,0,0,-1,825,1016,0,0
-392,8,0,0,0,0,0,0,0,0,0,-1,832,1016,0,0
-385,8,0,0,0,0,0,0,0,0,0,-1,839,1016,0,0
-378,8,0,0,0,0,0,0,0,0,0,-1,846,1016,0,0
-371,8,0,0,0,0,0,0,0,0,0,-1,853,1016,0,0
-364,8,0,0,0,0,0,0,0,0,0,-1,860,1016,0,0
-357,8,0,0,0,0,0,0,0,0,0,-1,867,1016,0,0
-350,8,0,0,0,0,0,0,0,0,0,-1,874,1016,0,0
-343,8,0,0,0,0,0,0,0,0,0,-1,881,1016,0,0
-336,8,0,0,0,0,0,0,0,0,0,-1,888,1016,0,0
-329,8,0,0,0,0,0,0,0,0,0,-1,895,1016,0,0
-322,8,0,0,0,0,0,0,0,0,0,-1,902,1016,0,0
-315,8,0,0,0,0,0,0,0,0,0,-1,909,1016,0,0
-308,8,0,0,0,0,0,0,0,0,0,-1,916,1016,0,0
-301,8,0,0,0,0,0,0,0,0,0,-1,923,1016,0,0
-294,8,0,0,0,0,0,0,0,0,0,-1,930,1016,0,0
-287,8,0,0,0,0,0,0,0,0,0,-1,937,1016,0,0
-280,8,0,0,0,0,0,0,0,0,0,-1,944,1016,0,0
-273,8,0,0,0,0,0,0,0,0,0,-1,951,1016,0,0
-266,8,0,0,0,0,0,0,0,0,0,-1,958,1016,0,0
-259,8,0,0,0,0,0,0,0,0,0,-1,965,1016,0,0
-252,8,0,0,0,0,0,0,0,0,0,-1,972,1016,0,0
-245,8,0,0,0,0,0,0,0,0,0,-1,979,1016,0,0
-238,8,0,0,0,0,0,0,0,0,0,-1,986,1016,0,0
-231,8,0,0,0,0,0,0,0,0,0,-1,993,1016,0,0
-224,8,0,0,0,0,0,0,0,0,0,-1,1000,1016,0,0
-217,8,0,0,0,0,0,0,0,0,0,-1,1007,1016,0,0
-210,8,0,0,0,0,0,0,0,0,0,-1,1014,1016,0,0
-203,8,0,0,0,0,0,0,0,0,0,-1,1021,1016,0,0
-196,8,0,0,0,0,0,0,0,0,0,-1,1028,1016,0,0
-189,8,0,0,0,0,0,0,0,0,0,-1,1035,1016,0,0
-182,8,0,0,0,0,0,0,0,0,0,-1,1042,1016,0,0
-175,8,0,0,0,0,0,0,0,0,0,-1,1049,1016,0,0
-168,8,0,0,0,0,0,0,0,0,0,-1,1056,1016,0,0
-161,8,0,0,0,0,0,0,0,0,0,-1,1063,1016,0,0
-154,8,0,0,0,0,0,0,0,0,0,-1,1070,1016,0,0
-147,8,0,0,0,0,0,0,0,0,0,-1,1077,1016,0,0
-140,8,0,0,0,0,0,0,0,0,0,-1,1084,1016,0,0
-133,8,0,0,0,0,0,0,0,0,0,-1,1091,1016,0,0
-126,8,0,0,0,0,0,0,0,0,0,-1,1098,1016,0,0
-119,8,0,0,0,0,0,0,0,0,0,-1,1105,1016,0,0
-112,8,0,0,0,0,0,0,0,0,0,-1,1112,1016,0,0
-105,8,0,0,0,0,0,0,0,0,0,-1,1119,1016,0,0
-98,8,0,0,0,0,0,0,0,0,0,-1,1126,1016,0,0
-91,8,0,0,0,0,0,0,0,0,0,-1,1133,1016,0,0
-84,8,0,0,0,0,0,0,0,0,0,-1,1140,1016,0,0
-77,8,0,0,0,0,0,0,0,0,0,-1,1147,1016,0,0
-70,8,0,0,0,0,0,0,0,0,0,-1,1154,1016,0,0
-63,8,0,0,0,0,0,0,0,0,0,-1,1161,1016,0,0
-56,8,0,0,0,0,0,0,0,0,0,-1,1168,1016,0,0
-49,8,0,0,0,0,0,0,0,0,0,-1,1175,1016,0,0
-42,8,0,0,0,0,0,0,0,0,0,-1,1182,1016,0,0
-35,8,0,0,0,0,0,0,0,0,0,-1,1189,1016,0,0
-28,8,0,0,0,0,0,0,0,0,0,-1,1196,1016,0,0
-21,8,0,0,0,0,0,0,0,0,0,-1,1203,1016,0,0
-14,8,0,0,0,0,0,0,0,0,0,-1,1210,1016,0,0
-7,8,0,0,0,0,0,0,0,0,0,-1,1217,1016,0,0
0,8,0,0,0,0,0,0,0,0,0,-1,1224,1016,0,0
7,8,0,0,0,0,0,0,0,0,0,-1,1231,1016,0,0
14,8,0,0,0,0,0,0,0,0,0,-1,1238,1016,0,0
21,8,0,0,0,0,0,0,0,0,0,-1,1245,1016,0,0
28,8,0,0,0,0,0,0,0,0,0,-1,1252,1016,0,0
35,8,0,0,0,0,0,0,0,0,0,-1,1259,1016,0,0
42,8,0,0,0,0,0,0,0,0,0,-1,1266,1016,0,0
49,8,0,0,0,0,0,0,0,0,0,-1,1273,1016,0,0
56,8,0,0,0,0,0,0,0,0,0,-1,1280,1016,0,0
63,8,0,0,0,0,0,0,0,0,0,-1,1287,1016,0,0
70,8,0,0,0,0,0,0,0,0,0,-1,1294,1016,0,0
77,8,0,0,0,0,0,0,0,0,0,-1,1301,1016,0,0
84,8,0,0,0,0,0,0,0,0,0,-1,1308,1016,0,0
91,8,0,0,0,0,0,0,0,0,0,-1,1315,1016,0,0
98,8,0,0,0,0,0,0,0,0,0,-1,1322,1016,0,0
105,8,0,0,0,0,0,0,0,0,0,-1,1329,1016,0,0
112,8,0,0,0,0,0,0,0,0,0,-1,1336,1016,0,0
119,8,0,0,0,0,0,0,0,0,0,-1,1343,1016,0,0
126,8,0,0,0,0,0,0,0,0,0,-1,1350,1016,0,0
133,8,0,0,0,0,0,0,0,0,0,-1,1357,1016,0,0
140,8,0,0,0,0,0,0,0,0,0,-1,1364,1016,0,0
147,8,0,0,0,0,0,0,0,0,0,-1,1371,1016,0,0
154,8,0,0,0,0,0,0,0,0,0,-1,1378,1016,0,0
161,8,0,0,0,0,0,0,0,0,0,-1,1385,1016,0,0
168,8,0,0,0,0,0,0,0,0,0,-1,1392,1016,0,0
175,8,0,0,0,0,0,0,0,0,0,-1,1399,1016,0,0
182,8,0,0,0,0,0,0,0,0,0,-1,1406,1016,0,0
189,8,0,0,0,0,0,0,0,0,0,-1,1413,1016,0,0
196,8,0,0,0,0,0,0,0,0,0,-1,1420,1016,0,0
203,8,0,0,0,0,0,0,0,0,0,-1,1427,1016,0,0
210,8,0,0,0,0,0,0,0,0,0,-1,1434,1016,0,0
217,8,0,0,0,0,0,0,0,0,0,-1,1441,1016,0,0
224,8,0,0,0,0,0,0,0,0,0,-1,1448,1016,0,0
231,8,0,0,0,0,0,0,0,0,0,-1,1455,1016,0,0
238,8,0,0,0,0,0,0,0,0,0,-1,1462,1016,0,0
245,8,0,0,0,0,0,0,0,0,0,-1,1469,1016,0,0
252,8,0,0,0,0,0,0,0,0,0,-1,1476,1016,0,0
259,8,0,0,0,0,0,0,0,0,0,-1,1483,1016,0,0
266,8,0,0,0,0,0,0,0,0,0,-1,1490,1016,0,0
273,8,0,0,0,0,0,0,0,0,0,-1,1497,1016,0,0
280,8,0,0,0,0,0,0,0,0,0,-1,1504,1016,0,0
287,8,0,0,0,0,0,0,0,0,0,-1,1511,1016,0,0
294,8,0,0,0,0,0,0,0,0,0,-1,1518,1016,0,0
301,8,0,0,0,0,0,0,0,0,0,-1,1525,1016,0,0
308,8,0,0,0,0,0,0,0,0,0,-1,1532,1016,0,0
315,8,0,0,0,0,0,0,0,0,0,-1,1539,1016,0,0
322,8,0,0,0,0,0,0,0,0,0,-1,1546,1016,0,0
329,8,0,0,0,0,0,0,0,0,0,-1,1553,1016,0,0
336,8,0,0,0,0,0,0,0,0,0,-1,1560,1016,0,0
343,8,0,0,0,0,0,0,0,0,0,-1,1567,1016,0,0
350,8,0,0,0,0,0,0,0,0,0,-1,1574,1016,0,0
357,8,0,0,0,0,0,0,0,0,0,-1,1581,1016,0,0
364,8,0,0,0,0,0,0,0,0,0,-1,1588,1016,0,0
371,8,0,0,0,0,0,0,0,0,0,-1,1595,1016,0,0
378,8,0,0,0,0,0,0,0,0,0,-1,1602,1016,0,0
385,8,0,0,0,0,0,0,0,0,0,-1,1609,1016,0,0
392,8,0,0,0,0,0,0,0,0,0,-1,1616,1016,0,0
399,8,0,0,0,0,0,0,0,0,0,-1,1623,1016,0,0
406,8,0,0,0,0,0,0,0,0,0,-1,1630,1016,0,0
413,8,0,0,0,0,0,0,0,0,0,-1,1637,1016,0,0
420,8,0,0,0,0,0,0,0,0,0,-1,1644,1016,0,0
427,8,0,0,0,0,0,0,0,0,0,-1,1651,1016,0,0
434,8,0,0,0,0,0,0,0,0,0,-1,1658,1016,0,0
441,8,0,0,0,0,0,0,0,0,0,-1,1665,1016,0,0
448,8,0,0,0,0,0,0,0,0,0,-1,1672,1016,0,0
455,8,0,0,0,0,0,0,0,0,0,-1,1679,1016,0,0
462,8,0,0,0,0,0,0,0,0,0,-1,1686,1016,0,0
469,8,0,0,0,0,0,0,0,0,0,-1,1693,1016,0,0
476,8,0,0,0,0,0,0,0,0,0,-1,1700,1016,0,0
483,8,0,0,0,0,0,0,0,0,0,-1,1707,1016,0,0
490,8,0,0,0,0,0,0,0,0,0,-1,1714,1016,0,0
497,8,0,0,0,0,0,0,0,0,0,-1,1721,1016,0,0
504,8,0,0,0,0,0,0,0,0,0,-1,1728,1016,0,0
511,8,0,0,0,0,0,0,0,0,0,-1,1735,1016,0,0
518,8,0,0,0,0,0,0,0,0,0,-1,1742,1016,0,0
525,8,0,0,0,0,0,0,0,0,0,-1,1749,1016,0,0
532,8,0,0,0,0,0,0,0,0,0,-1,1756,1016,0,0
539,8,0,0,0,0,0,0,0,0,0,-1,1763,1016,0,0
546,8,0,0,0,0,0,0,0,0,0,-1,1770,1016,0,0
553,8,0,0,0,0,0,0,0,0,0,-1,1777,1016,0,0
560,8,0,0,0,0,0,0,0,0,0,-1,1784,1016,0,0
567,8,0,0,0,0,0,0,0,0,0,-1,1791,1016,0,0
574,8,0,0,0,0,0,0,0,0,0,-1,1798,1016,0,0
581,8,0,0,0,0,0,0,0,0,0,-1,1805,1016,0,0
588,8,0,0,0,0,0,0,0,0,0,-1,1812,1016,0,0
595,8,0,0,0,0,0,0,0,0,0,-1,1819,1016,0,0
602,8,0,0,0,0,0,0,0,0,0,-1,1826,1016,0,0
609,8,0,0,0,0,0,0,0,0,0,-1,1833,1016,0,0
616,8,0,0,0,0,0,0,0,0,0,-1,1840,1016,0,0
623,8,0,0,0,0,0,0,0,0,0,-1,1847,1016,0,0
630,8,0,0,0,0,0,0,0,0,0,-1,1854,1016,0,0
637,8,0,0,0,0,0,0,0,0,0,-1,1861,1016,0,0
644,8,24.7919,2.67267,-0.00208306,0.000681766,-0.00227967,0.00196543,-0.00336673,-1.05796,0.00311376,0.041177,1868,1016,24.7918,-2.67266
651,8,24.7979,2.72589,-0.00176446,7.08727e-05,-0.00157261,0.000973979,-0.00266756,-1.04951,0.00217692,0.0378744,1875,1016,24.7978,-2.72589
658,8,24.7455,2.84546,-0.00137213,-0.000305665,-0.00114175,0.000421239,-0.00209903,-1.00386,0.00155885,0.0409966,1882,1016,24.7455,-2.84545
665,8,24.7837,2.73651,-0.00116504,-0.000482439,-0.000677325,-6.52831e-05,-0.00158219,-1.01878,0.00103372,0.0446639,1889,1016,24.7837,-2.73652
672,8,24.7723,2.6181,-0.00103843,-0.000405916,0.000218063,-0.000338024,-0.00110632,1.26897,0.000654637,0.0423362,1896,1016,24.7724,-2.61809
679,8,24.7307,2.54205,-0.00119605,-0.000352142,0.00146444,0.000749922,-0.00229812,0.925666,0.0018339,0.0382655,1903,1016,24.7308,-2.54203
686,8,24.7639,2.60852,-0.00138852,-0.000326114,0.0025723,0.00176926,-0.00348389,0.887221,0.00308629,0.0409818,1910,1016,24.7639,-2.60849
693,8,24.7974,2.70251,-0.00156066,-0.000320065,0.00350112,0.00261529,-0.00449601,0.873074,0.00415329,0.0380799,1917,1016,24.7973,-2.70249
700,8,24.8479,2.76129,-0.00170688,-0.000310967,0.00419128,0.00324007,-0.00525792,0.867904,0.00495221,0.0302714,1924,1016,24.8478,-2.76128
707,8,24.8014,2.79193,-0.00187453,-0.000240264,0.00459156,0.00360631,-0.0057211,0.873459,0.00543112,0.0243631,1931,1016,24.8014,-2.79196
714,8,24.868,2.12756,0,0,0,0,0,0,0,-1,1938,1016,24.868,-2.12759
721,8,24.8622,3.16144,0,0,0,0,0,0,0,-1,1945,1016,24.8622,-3.16144
728,8,24.3245,4.18903,0,0,0,0,0,0,0,-1,1952,1016,24.3245,-4.18902
735,8,24.3032,4.22247,-0.00256407,0.000791619,0.00405996,0.00350677,-0.00527922,0.981343,0.00510689,0.0191749,1959,1016,24.3032,-4.22245
742,8,24.3369,4.24902,-0.00262145,0.00113724,0.00304055,0.00283237,-0.00431658,1.06221,0.004157,0.0198563,1966,1016,24.337,-4.24904
749,8,24.3402,4.3183,-0.00237938,0.00162341,0.00170053,0.0022483,-0.00300427,1.21864,0.00304302,0.0147913,1973,1016,24.3402,-4.31828
756,8,24.3268,4.33344,-0.00176816,0.00217357,0.000351769,0.00220471,-0.0017993,1.48248,0.00231567,0.0149497,1980,1016,24.3267,-4.33342
763,8,24.3461,4.36792,-0.00111906,0.00268994,-0.00156936,0.00325323,-0.00168236,-1.22619,0.00289727,0.014481,1987,1016,24.3461,-4.36791
770,8,24.3337,4.39386,-7.72297e-05,0.00324354,-0.00382764,0.00575541,-0.0025891,-0.990043,0.00493196,0.015034,1994,1016,24.3337,-4.39383
777,8,24.2585,4.47601,0.00130814,0.00373794,-0.0059494,0.00859522,-0.00354914,-0.886116,0.00721048,0.0178396,2001,1016,24.2585,-4.47601
784,8,24.1746,4.52496,0.00280356,0.00389365,-0.00775683,0.0111246,-0.00442735,-0.820474,0.00925226,0.0348626,2008,1016,24.1746,-4.52494
791,8,24.1748,4.07581,0.00462324,0.00358222,-0.00959101,0.0137079,-0.00550239,-0.758289,0.0114233,0.0474075,2015,1016,24.1749,-4.07584
798,8,24.5157,3.72668,0.00684775,0.00269251,-0.011387,0.0163451,-0.00680483,-0.695163,0.0137387,0.0461196,2022,1016,24.5157,-3.72668
805,8,24.4636,3.88519,0,0,0,0,0,0,0,-1,2029,1016,24.4637,-3.88522
812,8,25.0657,2.93542,0,0,0,0,0,0,0,-1,2036,1016,25.0657,-2.93541
-700,1,0,0,0,0,0,0,0,0,0,-1,524,1023,0,0
-693,1,-17.2228,1.68933,0,0,0,0,0,0,0,-1,531,1023,-17.2228,-1.68936
-686,1,-16.7547,-0.210876,0,0,0,0,0,0,0,-1,538,1023,-16.7547,0.210905
-679,1,-16.8249,0.215576,-0.0439062,0.0471372,0.0358742,0.0595739,-0.0563429,1.23709,0.0669333,0.0469387,545,1023,-16.8249,-0.215606
-672,1,-16.8727,0.669556,-0.0329881,0.0382582,0.0292897,0.0487533,-0.0434832,1.22673,0.0532817,0.0434222,552,1023,-16.8727,-0.669575
-665,1,-16.9758,1.13013,-0.0241801,0.0305176,0.0232127,0.0390406,-0.0327031,1.21891,0.0414751,0.04218,559,1023,-16.9758,-1.13015
-658,1,-16.9921,1.63947,-0.0172351,0.0238512,0.0177986,0.0304892,-0.023873,1.21383,0.0314634,0.0317509,566,1023,-16.9921,-1.63948
-651,1,-16.9677,1.84546,-0.0119102,0.0181897,0.0131163,0.0231032,-0.0168237,1.21237,0.0231466,0.0167358,573,1023,-16.9676,-1.84544
-644,1,-16.9035,1.92596,-0.0077379,0.0135514,0.00888903,0.0167748,-0.0109613,1.22291,0.0161303,0.0225969,580,1023,-16.9035,-1.92596
-637,1,-16.9862,1.86279,-0.00399184,0.00916539,0.00481336,0.0107383,-0.0055647,1.25496,0.00956919,0.0188662,587,1023,-16.9862,-1.86278
-630,1,-17.0923,1.84418,-0.00162702,0.0060863,0.00123296,0.0062786,-0.00181931,1.41608,0.00490593,0.017933,594,1023,-17.0923,-1.84417
-623,1,-17.0499,1.86023,-0.000536836,0.00439817,-0.00143426,0.00478473,-0.000923395,-1.30753,0.00353802,0.0129424,601,1023,-17.0499,-1.86025
-616,1,-17.0842,1.83691,-0.00055712,0.00323626,-0.00333393,0.00517526,-0.00249612,-1.04402,0.00451821,0.0157639,608,1023,-17.0842,-1.83689
-609,1,-17.0682,1.85767,-0.000446318,0.00210801,-0.00443958,0.00545048,-0.00378879,-0.925455,0.00536297,0.0172292,615,1023,-17.0682,-1.85768
-602,1,-17.0071,1.86176,-0.000218185,0.00166772,-0.0053019,0.00610986,-0.00466033,-0.873404,0.00623692,0.0136128,622,1023,-17.0072,-1.86177
-595,1,-16.9555,1.90002,0,0,0,0,0,0,0,-1,629,1023,-16.9555,-1.90002
-588,1,-16.9517,1.35028,0.00026649,0.00134819,-0.0057275,0.00656032,-0.00494564,-0.832474,0.00666474,0.0273346,636,1023,-16.9516,-1.35028
-581,1,-16.9611,0.876038,0.00036673,0.00132365,-0.00559097,0.0064566,-0.00476622,-0.828083,0.00650395,0.0273555,643,1023,-16.9611,-0.876059
-574,1,-16.9788,0.728516,0.000276578,0.00121745,-0.00515331,0.00592176,-0.00442773,-0.830916,0.005996,0.0354276,650,1023,-16.9788,-0.728514
-567,1,-17.0026,0.683167,9.31058e-05,0.00125635,-0.00430848,0.00502229,-0.00367284,-0.85249,0.00504025,0.0415343,657,1023,-17.0026,-0.683154
-560,1,-16.8835,1.09949,-0.000189282,0.00129446,-0.00321583,0.00385289,-0.00274771,-0.898762,0.00382862,0.0400351,664,1023,-16.8835,-1.09951
-553,1,-16.7898,1.14203,-0.000605565,0.00125463,-0.00202815,0.00255578,-0.00190672,-1.00039,0.00258549,0.0386222,671,1023,-16.7898,-1.14202
-546,1,-16.8087,1.24207,-0.00120375,0.00101707,-0.00095169,0.0013691,-0.00155578,-1.21651,0.00168982,0.0415948,678,1023,-16.8086,-1.24204
-539,1,-17.0205,1.34198,-0.0020211,0.000752085,-0.000583624,0.000869905,-0.00213892,-1.3716,0.00178791,0.0436962,685,1023,-17.0205,-1.34197
-532,1,-17.0495,0.71106,-0.00339161,0.000545572,-0.00235591,0.00164711,-0.00449314,-1.13343,0.00366981,0.0442642,692,1023,-17.0495,-0.711087
-525,1,0,0,0,0,0,0,0,0,0,-1,699,1023,0,0
-518,1,0,0,0,0,0,0,0,0,0,-1,706,1023,0,0
-511,1,0,0,0,0,0,0,0,0,0,-1,713,1023,0,0
-504,1,0,0,0,0,0,0,0,0,0,-1,720,1023,0,0
-497,1,0,0,0,0,0,0,0,0,0,-1,727,1023,0,0
-490,1,0,0,0,0,0,0,0,0,0,-1,734,1023,0,0
-483,1,0,0,0,0,0,0,0,0,0,-1,741,1023,0,0
-476,1,0,0,0,0,0,0,0,0,0,-1,748,1023,0,0
-469,1,0,0,0,0,0,0,0,0,0,-1,755,1023,0,0
-462,1,0,0,0,0,0,0,0,0,0,-1,762,1023,0,0
-455,1,0,0,0,0,0,0,0,0,0,-1,769,1023,0,0
-448,1,0,0,0,0,0,0,0,0,0,-1,776,1023,0,0
-441,1,0,0,0,0,0,0,0,0,0,-1,783,1023,0,0
-434,1,0,0,0,0,0,0,0,0,0,-1,790,1023,0,0
-427,1,0,0,0,0,0,0,0,0,0,-1,797,1023,0,0
-420,1,0,0,0,0,0,0,0,0,0,-1,804,1023,0,0
-413,1,0,0,0,0,0,0,0,0,0,-1,811,1023,0,0
-406,1,0,0,0,0,0,0,0,0,0,-1,818,1023,0,0
-399,1,0,0,0,0,0,0,0,0,0,-1,825,1023,0,0
-392,1,0,0,0,0,0,0,0,0,0,-1,832,1023,0,0
-385,1,0,0,0,0,0,0,0,0,0,-1,839,1023,0,0
-378,1,0,0,0,0,0,0,0,0,0,-1,846,1023,0,0
-371,1,0,0,0,0,0,0,0,0,0,-1,853,1023,0,0
-364,1,0,0,0,0,0,0,0,0,0,-1,860,1023,0,0
-357,1,0,0,0,0,0,0,0,0,0,-1,867,1023,0,0
-350,1,0,0,0,0,0,0,0,0,0,-1,874,1023,0,0
-343,1,0,0,0,0,0,0,0,0,0,-1,881,1023,0,0
-336,1,0,0,0,0,0,0,0,0,0,-1,888,1023,0,0
-329,1,0,0,0,0,0,0,0,0,0,-1,895,1023,0,0
-322,1,0,0,0,0,0,0,0,0,0,-1,902,1023,0,0
-315,1,0,0,0,0,0,0,0,0,0,-1,909,1023,0,0
-308,1,0,0,0,0,0,0,0,0,0,-1,916,1023,0,0
-301,1,0,0,0,0,0,0,0,0,0,-1,923,1023,0,0
-294,1,0,0,0,0,0,0,0,0,0,-1,930,1023,0,0
-287,1,0,0,0,0,0,0,0,0,0,-1,937,1023,0,0
-280,1,0,0,0,0,0,0,0,0,0,-1,944,1023,0,0
-273,1,0,0,0,0,0,0,0,0,0,-1,951,1023,0,0
-266,1,0,0,0,0,0,0,0,0,0,-1,958,1023,0,0
-259,1,0,0,0,0,0,0,0,0,0,-1,965,1023,0,0
-252,1,0,0,0,0,0,0,0,0,0,-1,972,1023,0,0
-245,1,0,0,0,0,0,0,0,0,0,-1,979,1023,0,0
-238,1,0,0,0,0,0,0,0,0,0,-1,986,1023,0,0
-231,1,0,0,0,0,0,0,0,0,0,-1,993,1023,0,0
-224,1,0,0,0,0,0,0,0,0,0,-1,1000,1023,0,0
-217,1,0,0,0,0,0,0,0,0,0,-1,1007,1023,0,0
-210,1,0,0,0,0,0,0,0,0,0,-1,1014,1023,0,0
-203,1,0,0,0,0,0,0,0,0,0,-1,1021,1023,0,0
-196,1,0,0,0,0,0,0,0,0,0,-1,1028,1023,0,0
-189,1,0,0,0,0,0,0,0,0,0,-1,1035,1023,0,0
-182,1,0,0,0,0,0,0,0,0,0,-1,1042,1023,0,0
-175,1,0,0,0,0,0,0,0,0,0,-1,1049,1023,0,0
-168,1,0,0,0,0,0,0,0,0,0,-1,1056,1023,0,0
-161,1,0,0,0,0,0,0,0,0,0,-1,1063,1023,0,0
-154,1,0,0,0,0,0,0,0,0,0,-1,1070,1023,0,0
-147,1,0,0,0,0,0,0,0,0,0,-1,1077,1023,0,0
-140,1,0,0,0,0,0,0,0,0,0,-1,1084,1023,0,0
-133,1,0,0,0,0,0,0,0,0,0,-1,1091,1023,0,0
-126,1,0,0,0,0,0,0,0,0,0,-1,1098,1023,0,0
-119,1,0,0,0,0,0,0,0,0,0,-1,1105,1023,0,0
-112,1,0,0,0,0,0,0,0,0,0,-1,1112,1023,0,0
-105,1,0,0,0,0,0,0,0,0,0,-1,1119,1023,0,0
-98,1,0,0,0,0,0,0,0,0,0,-1,1126,1023,0,0
-91,1,0,0,0,0,0,0,0,0,0,-1,1133,1023,0,0
-84,1,0,0,0,0,0,0,0,0,0,-1,1140,1023,0,0
-77,1,0,0,0,0,0,0,0,0,0,-1,1147,1023,0,0
-70,1,0,0,0,0,0,0,0,0,0,-1,1154,1023,0,0
-63,1,0,0,0,0,0,0,0,0,0,-1,1161,1023,0,0
-56,1,0,0,0,0,0,0,0,0,0,-1,1168,1023,0,0
-49,1,0,0,0,0,0,0,0,0,0,-1,1175,1023,0,0
-42,1,0,0,0,0,0,0,0,0,0,-1,1182,1023,0,0
-35,1,0,0,0,0,0,0,0,0,0,-1,1189,1023,0,0
-28,1,0,0,0,0,0,0,0,0,0,-1,1196,1023,0,0
-21,1,0,0,0,0,0,0,0,0,0,-1,1203,1023,0,0
-14,1,0,0,0,0,0,0,0,0,0,-1,1210,1023,0,0
-7,1,0,0,0,0,0,0,0,0,0,-1,1217,1023,0,0
0,1,0,0,0,0,0,0,0,0,0,-1,1224,1023,0,0
7,1,0,0,0,0,0,0,0,0,0,-1,1231,1023,0,0
14,1,0,0,0,0,0,0,0,0,0,-1,1238,1023,0,0
21,1,0,0,0,0,0,0,0,0,0,-1,1245,1023,0,0
28,1,0,0,0,0,0,0,0,0,0,-1,1252,1023,0,0
35,1,0,0,0,0,0,0,0,0,0,-1,1259,1023,0,0
42,1,0,0,0,0,0,0,0,0,0,-1,1266,1023,0,0
49,1,0,0,0,0,0,0,0,0,0,-1,1273,1023,0,0
56,1,0,0,0,0,0,0,0,0,0,-1,1280,1023,0,0
63,1,0,0,0,0,0,0,0,0,0,-1,1287,1023,0,0
70,1,0,0,0,0,0,0,0,0,0,-1,1294,1023,0,0
77,1,0,0,0,0,0,0,0,0,0,-1,1301,1023,0,0
84,1,0,0,0,0,0,0,0,0,0,-1,1308,1023,0,0
91,1,0,0,0,0,0,0,0,0,0,-1,1315,1023,0,0
98,1,0,0,0,0,0,0,0,0,0,-1,1322,1023,0,0
105,1,0,0,0,0,0,0,0,0,0,-1,1329,1023,0,0
112,1,0,0,0,0,0,0,0,0,0,-1,1336,1023,0,0
119,1,0,0,0,0,0,0,0,0,0,-1,1343,1023,0,0
126,1,0,0,0,0,0,0,0,0,0,-1,1350,1023,0,0
133,1,0,0,0,0,0,0,0,0,0,-1,1357,1023,0,0
140,1,0,0,0,0,0,0,0,0,0,-1,1364,1023,0,0
147,1,0,0,0,0,0,0,0,0,0,-1,1371,1023,0,0
154,1,0,0,0,0,0,0,0,0,0,-1,1378,1023,0,0
161,1,0,0,0,0,0,0,0,0,0,-1,1385,1023,0,0
168,1,0,0,0,0,0,0,0,0,0,-1,1392,1023,0,0
175,1,0,0,0,0,0,0,0,0,0,-1,1399,1023,0,0
182,1,0,0,0,0,0,0,0,0,0,-1,1406,1023,0,0
189,1,0,0,0,0,0,0,0,0,0,-1,1413,1023,0,0
196,1,0,0,0,0,0,0,0,0,0,-1,1420,1023,0,0
203,1,0,0,0,0,0,0,0,0,0,-1,1427,1023,0,0
210,1,0,0,0,0,0,0,0,0,0,-1,1434,1023,0,0
217,1,0,0,0,0,0,0,0,0,0,-1,1441,1023,0,0
224,1,0,0,0,0,0,0,0,0,0,-1,1448,1023,0,0
231,1,0,0,0,0,0,0,0,0,0,-1,1455,1023,0,0
238,1,0,0,0,0,0,0,0,0,0,-1,1462,1023,0,0
245,1,0,0,0,0,0,0,0,0,0,-1,1469,1023,0,0
252,1,0,0,0,0,0,0,0,0,0,-1,1476,1023,0,0
259,1,0,0,0,0,0,0,0,0,0,-1,1483,1023,0,0
266,1,0,0,0,0,0,0,0,0,0,-1,1490,1023,0,0
273,1,0,0,0,0,0,0,0,0,0,-1,1497,1023,0,0
280,1,0,0,0,0,0,0,0,0,0,-1,1504,1023,0,0
287,1,0,0,0,0,0,0,0,0,0,-1,1511,1023,0,0
294,1,0,0,0,0,0,0,0,0,0,-1,1518,1023,0,0
301,1,0,0,0,0,0,0,0,0,0,-1,1525,1023,0,0
308,1,0,0,0,0,0,0,0,0,0,-1,1532,1023,0,0
315,1,0,0,0,0,0,0,0,0,0,-1,1539,1023,0,0
322,1,0,0,0,0,0,0,0,0,0,-1,1546,1023,0,0
329,1,0,0,0,0,0,0,0,0,0,-1,1553,1023,0,0
336,1,0,0,0,0,0,0,0,0,0,-1,1560,1023,0,0
343,1,0,0,0,0,0,0,0,0,0,-1,1567,1023,0,0
350,1,0,0,0,0,0,0,0,0,0,-1,1574,1023,0,0
357,1,0,0,0,0,0,0,0,0,0,-1,1581,1023,0,0
364,1,0,0,0,0,0,0,0,0,0,-1,1588,1023,0,0
371,1,0,0,0,0,0,0,0,0,0,-1,1595,1023,0,0
378,1,0,0,0,0,0,0,0,0,0,-1,1602,1023,0,0
385,1,0,0,0,0,0,0,0,0,0,-1,1609,1023,0,0
392,1,0,0,0,0,0,0,0,0,0,-1,1616,1023,0,0
399,1,0,0,0,0,0,0,0,0,0,-1,1623,1023,0,0
406,1,0,0,0,0,0,0,0,0,0,-1,1630,1023,0,0
413,1,0,0,0,0,0,0,0,0,0,-1,1637,1023,0,0
420,1,0,0,0,0,0,0,0,0,0,-1,1644,1023,0,0
427,1,0,0,0,0,0,0,0,0,0,-1,1651,1023,0,0
434,1,0,0,0,0,0,0,0,0,0,-1,1658,1023,0,0
441,1,0,0,0,0,0,0,0,0,0,-1,1665,1023,0,0
448,1,0,0,0,0,0,0,0,0,0,-1,1672,1023,0,0
455,1,0,0,0,0,0,0,0,0,0,-1,1679,1023,0,0
462,1,0,0,0,0,0,0,0,0,0,-1,1686,1023,0,0
469,1,0,0,0,0,0,0,0,0,0,-1,1693,1023,0,0
476,1,0,0,0,0,0,0,0,0,0,-1,1700,1023,0,0
483,1,0,0,0,0,0,0,0,0,0,-1,1707,1023,0,0
490,1,0,0,0,0,0,0,0,0,0,-1,1714,1023,0,0
497,1,0,0,0,0,0,0,0,0,0,-1,1721,1023,0,0
504,1,0,0,0,0,0,0,0,0,0,-1,1728,1023,0,0
511,1,0,0,0,0,0,0,0,0,0,-1,1735,1023,0,0
518,1,0,0,0,0,0,0,0,0,0,-1,1742,1023,0,0
525,1,0,0,0,0,0,0,0,0,0,-1,1749,1023,0,0
532,1,0,0,0,0,0,0,0,0,0,-1,1756,1023,0,0
539,1,0,0,0,0,0,0,0,0,0,-1,1763,1023,0,0
546,1,0,0,0,0,0,0,0,0,0,-1,1770,1023,0,0
553,1,0,0,0,0,0,0,0,0,0,-1,1777,1023,0,0
560,1,0,0,0,0,0,0,0,0,0,-1,1784,1023,0,0
567,1,0,0,0,0,0,0,0,0,0,-1,1791,1023,0,0
574,1,0,0,0,0,0,0,0,0,0,-1,1798,1023,0,0
581,1,0,0,0,0,0,0,0,0,0,-1,1805,1023,0,0
588,1,0,0,0,0,0,0,0,0,0,-1,1812,1023,0,0
595,1,0,0,0,0,0,0,0,0,0,-1,1819,1023,0,0
602,1,0,0,0,0,0,0,0,0,0,-1,1826,1023,0,0
609,1,0,0,0,0,0,0,0,0,0,-1,1833,1023,0,0
616,1,0,0,0,0,0,0,0,0,0,-1,1840,1023,0,0
623,1,0,0,0,0,0,0,0,0,0,-1,1847,1023,0,0
630,1,0,0,0,0,0,0,0,0,0,-1,1854,1023,0,0
637,1,0,0,0,0,0,0,0,0,0,-1,1861,1023,0,0
644,1,0,0,0,0,0,0,0,0,0,-1,1868,1023,0,0
651,1,24.8037,2.67499,-0.00244441,0.000748537,-0.000903322,0.000986381,-0.00268225,-1.31334,0.00219222,0.0380013,1875,1023,24.8037,-2.67501
658,1,24.7986,2.69153,-0.00190792,0.000296349,-0.000691022,0.000495065,-0.00210664,-1.29078,0.00159526,0.0412594,1882,1023,24.7986,-2.69155
665,1,24.8553,2.77386,-0.00159119,2.97629e-05,-0.000427062,0.000135395,-0.00169682,-1.32832,0.00117894,0.043306,1889,1023,24.8554,-2.77387
672,1,24.885,2.68793,-0.00134935,-2.70252e-05,0.000327387,4.95915e-05,-0.00142597,1.34091,0.000967602,0.0420609,1896,1023,24.885,-2.68795
679,1,24.7059,2.52539,-0.00140467,-0.000127451,0.00153604,0.000897441,-0.00242956,0.982404,0.00198758,0.0376187,1903,1023,24.706,-2.52539
686,1,24.6664,2.55249,-0.00153065,-0.000258628,0.00265919,0.00183955,-0.00362883,0.902781,0.00321302,0.0356521,1910,1023,24.6663,-2.55249
693,1,24.8477,2.76733,-0.00164968,-0.000399526,0.00363311,0.00266188,-0.00471109,0.870589,0.00431124,0.0346286,1917,1023,24.8477,-2.76734
700,1,24.8533,2.8028,-0.00175804,-0.000511628,0.00436769,0.0032771,-0.00554676,0.856262,0.00515032,0.0302719,1924,1023,24.8533,-2.80278
707,1,24.7805,2.74768,-0.00189584,-0.000542602,0.00481529,0.00364337,-0.00608181,0.855199,0.00567336,0.0258279,1931,1023,24.7805,-2.74766
714,1,24.8787,2.17786,0,0,0,0,0,0,0,-1,1938,1023,24.8787,-2.17785
721,1,24.7853,3.23254,-0.00233379,-0.000349479,0.00516051,0.00391338,-0.00659665,0.880369,0.00613354,0.0332926,1945,1023,24.7852,-3.23256
728,1,24.4114,4.04486,-0.00245214,-4.10421e-05,0.00503383,0.00392958,-0.00642277,0.902929,0.00603443,0.0289021,1952,1023,24.4113,-4.04487
735,1,24.3201,4.25409,-0.00249078,0.000316314,0.00443602,0.00356553,-0.00574,0.938614,0.00542122,0.0175114,1959,1023,24.3201,-4.25407
742,1,24.3549,4.25262,-0.00260808,0.000659117,0.00345195,0.0028445,-0.00479346,1.0064,0.00445737,0.018833,1966,1023,24.3548,-4.25261
749,1,24.3317,4.27911,-0.0024042,0.00118113,0.00210455,0.00215302,-0.00337609,1.13817,0.00321816,0.0169477,1973,1023,24.3316,-4.27913
756,1,24.3312,4.31982,-0.00182878,0.00184009,0.000732189,0.00198082,-0.00196951,1.38092,0.00228072,0.0145768,1980,1023,24.3311,-4.31981
763,1,24.3401,4.34534,-0.00122897,0.00243885,-0.00119578,0.00279426,-0.00158438,-1.28189,0.00255998,0.0145622,1987,1023,24.3401,-4.34536
770,1,24.3368,4.36328,-0.000275237,0.00310881,-0.00352042,0.00532272,-0.00248914,-1.00942,0.00460802,0.0135171,1994,1023,24.3368,-4.36326
777,1,24.2847,4.40979,0.00102401,0.0037034,-0.00576688,0.00828415,-0.00355674,-0.899528,0.00701561,0.0147236,2001,1023,24.2847,-4.4098
784,1,24.2412,4.35248,0.00242887,0.00394605,-0.00767082,0.0108957,-0.00452078,-0.834684,0.00915085,0.0331329,2008,1023,24.2412,-4.3525
791,1,24.4742,4.05273,0.004122,0.00371658,-0.00962342,0.0135448,-0.00570626,-0.774867,0.0114176,0.0443272,2015,1023,24.4742,-4.05272
798,1,24.8147,3.69537,0.00622453,0.0029025,-0.0116115,0.0162933,-0.00716622,-0.714356,0.0138818,0.0461094,2022,1023,24.8147,-3.69538
805,1,25.6272,3.66785,0,0,0,0,0,0,0,-1,2029,1023,25.6271,-3.66784
812,1,25.3376,2.59601,0,0,0,0,0,0,0,-1,2036,1023,25.3375,-2.596
-700,-6,0,0,0,0,0,0,0,0,0,-1,524,1030,0,0
-693,-6,-17.2747,1.49182,0,0,0,0,0,0,0,-1,531,1030,-17.2747,-1.49178
-686,-6,-16.6316,-0.176147,0,0,0,0,0,0,0,-1,538,1030,-16.6316,0.176102
-679,-6,-16.6847,0.287842,0,0,0,0,0,0,0,-1,545,1030,-16.6847,-0.287799
-672,-6,-17.1447,1.1178,0,0,0,0,0,0,0,-1,552,1030,-17.1447,-1.11777
-665,-6,-17.1263,1.49048,-0.0169996,0.0258868,0.0205118,0.0341175,-0.0252304,1.1892,0.0343923,0.0452494,559,1030,-17.1263,-1.4905
-658,-6,-16.9718,1.81213,-0.0114513,0.0206592,0.015827,0.0271486,-0.0179407,1.18168,0.0262127,0.0404872,566,1030,-16.9718,-1.81218
-651,-6,-16.9602,1.83435,-0.00743777,0.0161049,0.0117387,0.0209577,-0.0122906,1.17879,0.0194121,0.0368917,573,1030,-16.9602,-1.83437
-644,-6,-16.9321,1.91138,-0.0044108,0.0122844,0.00796291,0.0154733,-0.00759968,1.18989,0.0135773,0.0376063,580,1030,-16.9321,-1.91143
-637,-6,-17.0083,1.92773,-0.00171061,0.0085901,0.00425156,0.0101182,-0.00323872,1.22575,0.00804536,0.0221077,587,1030,-17.0083,-1.92777
-630,-6,-17.0527,1.86096,-0.00019145,0.00593524,0.000921194,0.00607075,-0.000326962,1.42474,0.00416044,0.0146643,594,1030,-17.0527,-1.8609
-623,-6,-17.0374,1.84924,0.000304147,0.0044035,-0.00161951,0.0049661,-0.000258455,-1.23645,0.00340016,0.0126609,601,1030,-17.0374,-1.8492
-616,-6,-17.046,1.84607,3.15355e-05,0.00305418,-0.00359481,0.00544245,-0.00235673,-0.98439,0.00461884,0.0135778,608,1030,-17.046,-1.8461
-609,-6,-17.0181,1.87756,-8.60802e-05,0.00177198,-0.00476747,0.00570009,-0.00401419,-0.881626,0.00563663,0.0153374,615,1030,-17.0181,-1.87759
-602,-6,-16.9955,1.89417,2.58786e-05,0.00127546,-0.00572257,0.00640725,-0.00510591,-0.839773,0.00666126,0.012558,622,1030,-16.9955,-1.89416
-595,-6,-16.8912,1.88171,0,0,0,0,0,0,0,-1,629,1030,-16.8912,-1.88166
-588,-6,-16.9395,1.32019,0.00037558,0.000948627,-0.00613657,0.00680536,-0.00548115,-0.808727,0.00710734,0.0173814,636,1030,-16.9395,-1.32013
-581,-6,-16.988,0.86731,0.000484031,0.000949954,-0.00596467,0.00668621,-0.00525222,-0.804917,0.00690921,0.022333,643,1030,-16.9881,-0.867294
-574,-6,-16.9859,0.776245,0.000392207,0.000946815,-0.0054534,0.00612995,-0.00479093,-0.810801,0.00632096,0.0307382,650,1030,-16.9859,-0.776305
-567,-6,-16.9687,0.720459,0.000176718,0.00111838,-0.00449387,0.00516602,-0.00387092,-0.837594,0.00523531,0.0402358,657,1030,-16.9687,-0.72051
-560,-6,-16.8644,1.12122,-0.000146678,0.00133759,-0.00320409,0.00388437,-0.00269345,-0.899202,0.0038184,0.0399322,664,1030,-16.8645,-1.12122
-553,-6,-16.7685,1.10828,-0.000594833,0.00152153,-0.00171415,0.00247781,-0.00155111,-1.06193,0.00234652,0.0398297,671,1030,-16.7685,-1.10829
-546,-6,-16.8978,0.890137,-0.00119897,0.00153972,-0.000207513,0.00155536,-0.00121461,-1.4956,0.00160327,0.0423596,678,1030,-16.8977,-0.890095
-539,-6,-16.8658,0.666382,-0.00194135,0.00151394,0.00065995,0.0016357,-0.00206311,1.38835,0.00214026,0.04584,685,1030,-16.8658,-0.66638
-532,-6,-17.0482,0.757813,-0.00310368,0.00143716,-0.000728183,0.00155108,-0.0032176,-1.41562,0.00280868,0.0466,692,1030,-17.0482,-0.757755
-525,-6,0,0,0,0,0,0,0,0,0,-1,699,1030,0,0
-518,-6,0,0,0,0,0,0,0,0,0,-1,706,1030,0,0
-511,-6,0,0,0,0,0,0,0,0,0,-1,713,1030,0,0
-504,-6,0,0,0,0,0,0,0,0,0,-1,720,1030,0,0
-497,-6,0,0,0,0,0,0,0,0,0,-1,727,1030,0,0
-490,-6,0,0,0,0,0,0,0,0,0,-1,734,1030,0,0
-483,-6,0,0,0,0,0,0,0,0,0,-1,741,1030,0,0
-476,-6,0,0,0,0,0,0,0,0,0,-1,748,1030,0,0
-469,-6,0,0,0,0,0,0,0,0,0,-1,755,1030,0,0
-462,-6,0,0,0,0,0,0,0,0,0,-1,762,1030,0,0
-455,-6,0,0,0,0,0,0,0,0,0,-1,769,1030,0,0
-448,-6,0,0,0,0,0,0,0,0,0,-1,776,1030,0,0
-441,-6,0,0,0,0,0,0,0,0,0,-1,783,1030,0,0
-434,-6,0,0,0,0,0,0,0,0,0,-1,790,1030,0,0
-427,-6,0,0,0,0,0,0,0,0,0,-1,797,1030,0,0
-420,-6,0,0,0,0,0,0,0,0,0,-1,804,1030,0,0
-413,-6,0,0,0,0,0,0,0,0,0,-1,811,1030,0,0
-406,-6,0,0,0,0,0,0,0,0,0,-1,818,1030,0,0
-399,-6,0,0,0,0,0,0,0,0,0,-1,825,1030,0,0
-392,-6,0,0,0,0,0,0,0,0,0,-1,832,1030,0,0
-385,-6,0,0,0,0,0,0,0,0,0,-1,839,1030,0,0
-378,-6,0,0,0,0,0,0,0,0,0,-1,846,1030,0,0
-371,-6,0,0,0,0,0,0,0,0,0,-1,853,1030,0,0
-364,-6,0,0,0,0,0,0,0,0,0,-1,860,1030,0,0
-357,-6,0,0,0,0,0,0,0,0,0,-1,867,1030,0,0
-350,-6,0,0,0,0,0,0,0,0,0,-1,874,1030,0,0
-343,-6,0,0,0,0,0,0,0,0,0,-1,881,1030,0,0
-336,-6,0,0,0,0,0,0,0,0,0,-1,888,1030,0,0
-329,-6,0,0,0,0,0,0,0,0,0,-1,895,1030,0,0
-322,-6,0,0,0,0,0,0,0,0,0,-1,902,1030,0,0
-315,-6,0,0,0,0,0,0,0,0,0,-1,909,1030,0,0
-308,-6,0,0,0,0,0,0,0,0,0,-1,916,1030,0,0
-301,-6,0,0,0,0,0,0,0,0,0,-1,923,1030,0,0
-294,-6,0,0,0,0,0,0,0,0,0,-1,930,1030,0,0
-287,-6,0,0,0,0,0,0,0,0,0,-1,937,1030,0,0
-280,-6,0,0,0,0,0,0,0,0,0,-1,944,1030,0,0
-273,-6,0,0,0,0,0,0,0,0,0,-1,951,1030,0,0
-266,-6,0,0,0,0,0,0,0,0,0,-1,958,1030,0,0
-259,-6,0,0,0,0,0,0,0,0,0,-1,965,1030,0,0
-252,-6,0,0,0,0,0,0,0,0,0,-1,972,1030,0,0
-245,-6,0,0,0,0,0,0,0,0,0,-1,979,1030,0,0
-238,-6,0,0,0,0,0,0,0,0,0,-1,986,1030,0,0
-231,-6,0,0,0,0,0,0,0,0,0,-1,993,1030,0,0
-224,-6,0,0,0,0,0,0,0,0,0,-1,1000,1030,0,0
-217,-6,0,0,0,0,0,0,0,0,0,-1,1007,1030,0,0
-210,-6,0,0,0,0,0,0,0,0,0,-1,1014,1030,0,0
-203,-6,0,0,0,0,0,0,0,0,0,-1,1021,1030,0,0
-196,-6,0,0,0,0,0,0,0,0,0,-1,1028,1030,0,0
-189,-6,0,0,0,0,0,0,0,0,0,-1,1035,1030,0,0
-182,-6,0,0,0,0,0,0,0,0,0,-1,1042,1030,0,0
-175,-6,0,0,0,0,0,0,0,0,0,-1,1049,1030,0,0
-168,-6,0,0,0,0,0,0,0,0,0,-1,1056,1030,0,0
-161,-6,0,0,0,0,0,0,0,0,0,-1,1063,1030,0,0
-154,-6,0,0,0,0,0,0,0,0,0,-1,1070,1030,0,0
-147,-6,0,0,0,0,0,0,0,0,0,-1,1077,1030,0,0
-140,-6,0,0,0,0,0,0,0,0,0,-1,1084,1030,0,0
-133,-6,0,0,0,0,0,0,0,0,0,-1,1091,1030,0,0
-126,-6,0,0,0,0,0,0,0,0,0,-1,1098,1030,0,0
-119,-6,0,0,0,0,0,0,0,0,0,-1,1105,1030,0,0
-112,-6,0,0,0,0,0,0,0,0,0,-1,1112,1030,0,0
-105,-6,0,0,0,0,0,0,0,0,0,-1,1119,1030,0,0
-98,-6,0,0,0,0,0,0,0,0,0,-1,1126,1030,0,0
-91,-6,0,0,0,0,0,0,0,0,0,-1,1133,1030,0,0
-84,-6,0,0,0,0,0,0,0,0,0,-1,1140,1030,0,0
-77,-6,0,0,0,0,0,0,0,0,0,-1,1147,1030,0,0
-70,-6,0,0,0,0,0,0,0,0,0,-1,1154,1030,0,0
-63,-6,0,0,0,0,0,0,0,0,0,-1,1161,1030,0,0
-56,-6,0,0,0,0,0,0,0,0,0,-1,1168,1030,0,0
-49,-6,0,0,0,0,0,0,0,0,0,-1,1175,1030,0,0
-42,-6,0,0,0,0,0,0,0,0,0,-1,1182,1030,0,0
-35,-6,0,0,0,0,0,0,0,0,0,-1,1189,1030,0,0
-28,-6,0,0,0,0,0,0,0,0,0,-1,1196,1030,0,0
-21,-6,0,0,0,0,0,0,0,0,0,-1,1203,1030,0,0
-14,-6,0,0,0,0,0,0,0,0,0,-1,1210,1030,0,0
-7,-6,0,0,0,0,0,0,0,0,0,-1,1217,1030,0,0
0,-6,0,0,0,0,0,0,0,0,0,-1,1224,1030,0,0
7,-6,0,0,0,0,0,0,0,0,0,-1,1231,1030,0,0
14,-6,0,0,0,0,0,0,0,0,0,-1,1238,1030,0,0
21,-6,0,0,0,0,0,0,0,0,0,-1,1245,1030,0,0
28,-6,0,0,0,0,0,0,0,0,0,-1,1252,1030,0,0
35,-6,0,0,0,0,0,0,0,0,0,-1,1259,1030,0,0
42,-6,0,0,0,0,0,0,0,0,0,-1,1266,1030,0,0
49,-6,0,0,0,0,0,0,0,0,0,-1,1273,1030,0,0
56,-6,0,0,0,0,0,0,0,0,0,-1,1280,1030,0,0
63,-6,0,0,0,0,0,0,0,0,0,-1,1287,1030,0,0
70,-6,0,0,0,0,0,0,0,0,0,-1,1294,1030,0,0
77,-6,0,0,0,0,0,0,0,0,0,-1,1301,1030,0,0
84,-6,0,0,0,0,0,0,0,0,0,-1,1308,1030,0,0
91,-6,0,0,0,0,0,0,0,0,0,-1,1315,1030,0,0
98,-6,0,0,0,0,0,0,0,0,0,-1,1322,1030,0,0
105,-6,0,0,0,0,0,0,0,0,0,-1,1329,1030,0,0
112,-6,0,0,0,0,0,0,0,0,0,-1,1336,1030,0,0
119,-6,0,0,0,0,0,0,0,0,0,-1,1343,1030,0,0
126,-6,0,0,0,0,0,0,0,0,0,-1,1350,1030,0,0
133,-6,0,0,0,0,0,0,0,0,0,-1,1357,1030,0,0
140,-6,0,0,0,0,0,0,0,0,0,-1,1364,1030,0,0
147,-6,0,0,0,0,0,0,0,0,0,-1,1371,1030,0,0
154,-6,0,0,0,0,0,0,0,0,0,-1,1378,1030,0,0
161,-6,0,0,0,0,0,0,0,0,0,-1,1385,1030,0,0
168,-6,0,0,0,0,0,0,0,0,0,-1,1392,1030,0,0
175,-6,0,0,0,0,0,0,0,0,0,-1,1399,1030,0,0
182,-6,0,0,0,0,0,0,0,0,0,-1,1406,1030,0,0
189,-6,0,0,0,0,0,0,0,0,0,-1,1413,1030,0,0
196,-6,0,0,0,0,0,0,0,0,0,-1,1420,1030,0,0
203,-6,0,0,0,0,0,0,0,0,0,-1,1427,1030,0,0
210,-6,0,0,0,0,0,0,0,0,0,-1,1434,1030,0,0
217,-6,0,0,0,0,0,0,0,0,0,-1,1441,1030,0,0
224,-6,0,0,0,0,0,0,0,0,0,-1,1448,1030,0,0
231,-6,0,0,0,0,0,0,0,0,0,-1,1455,1030,0,0
238,-6,0,0,0,0,0,0,0,0,0,-1,1462,1030,0,0
245,-6,0,0,0,0,0,0,0,0,0,-1,1469,1030,0,0
252,-6,0,0,0,0,0,0,0,0,0,-1,1476,1030,0,0
259,-6,0,0,0,0,0,0,0,0,0,-1,1483,1030,0,0
266,-6,0,0,0,0,0,0,0,0,0,-1,1490,1030,0,0
273,-6,0,0,0,0,0,0,0,0,0,-1,1497,1030,0,0
280,-6,0,0,0,0,0,0,0,0,0,-1,1504,1030,0,0
287,-6,0,0,0,0,0,0,0,0,0,-1,1511,1030,0,0
294,-6,0,0,0,0,0,0,0,0,0,-1,1518,1030,0,0
301,-6,0,0,0,0,0,0,0,0,0,-1,1525,1030,0,0
308,-6,0,0,0,0,0,0,0,0,0,-1,1532,1030,0,0
315,-6,0,0,0,0,0,0,0,0,0,-1,1539,1030,0,0
322,-6,0,0,0,0,0,0,0,0,0,-1,1546,1030,0,0
329,-6,0,0,0,0,0,0,0,0,0,-1,1553,1030,0,0
336,-6,0,0,0,0,0,0,0,0,0,-1,1560,1030,0,0
343,-6,0,0,0,0,0,0,0,0,0,-1,1567,1030,0,0
350,-6,0,0,0,0,0,0,0,0,0,-1,1574,1030,0,0
357,-6,0,0,0,0,0,0,0,0,0,-1,1581,1030,0,0
364,-6,0,0,0,0,0,0,0,0,0,-1,1588,1030,0,0
371,-6,0,0,0,0,0,0,0,0,0,-1,1595,1030,0,0
378,-6,0,0,0,0,0,0,0,0,0,-1,1602,1030,0,0
385,-6,0,0,0,0,0,0,0,0,0,-1,1609,1030,0,0
392,-6,0,0,0,0,0,0,0,0,0,-1,1616,1030,0,0
399,-6,0,0,0,0,0,0,0,0,0,-1,1623,1030,0,0
406,-6,0,0,0,0,0,0,0,0,0,-1,1630,1030,0,0
413,-6,0,0,0,0,0,0,0,0,0,-1,1637,1030,0,0
420,-6,0,0,0,0,0,0,0,0,0,-1,1644,1030,0,0
427,-6,0,0,0,0,0,0,0,0,0,-1,1651,1030,0,0
434,-6,0,0,0,0,0,0,0,0,0,-1,1658,1030,0,0
441,-6,0,0,0,0,0,0,0,0,0,-1,1665,1030,0,0
448,-6,0,0,0,0,0,0,0,0,0,-1,1672,1030,0,0
455,-6,0,0,0,0,0,0,0,0,0,-1,1679,1030,0,0
462,-6,0,0,0,0,0,0,0,0,0,-1,1686,1030,0,0
469,-6,0,0,0,0,0,0,0,0,0,-1,1693,1030,0,0
476,-6,0,0,0,0,0,0,0,0,0,-1,1700,1030,0,0
483,-6,0,0,0,0,0,0,0,0,0,-1,1707,1030,0,0
490,-6,0,0,0,0,0,0,0,0,0,-1,1714,1030,0,0
497,-6,0,0,0,0,0,0,0,0,0,-1,1721,1030,0,0
504,-6,0,0,0,0,0,0,0,0,0,-1,1728,1030,0,0
511,-6,0,0,0,0,0,0,0,0,0,-1,1735,1030,0,0
518,-6,0,0,0,0,0,0,0,0,0,-1,1742,1030,0,0
525,-6,0,0,0,0,0,0,0,0,0,-1,1749,1030,0,0
532,-6,0,0,0,0,0,0,0,0,0,-1,1756,1030,0,0
539,-6,0,0,0,0,0,0,0,0,0,-1,1763,1030,0,0
546,-6,0,0,0,0,0,0,0,0,0,-1,1770,1030,0,0
553,-6,0,0,0,0,0,0,0,0,0,-1,1777,1030,0,0
560,-6,0,0,0,0,0,0,0,0,0,-1,1784,1030,0,0
567,-6,0,0,0,0,0,0,0,0,0,-1,1791,1030,0,0
574,-6,0,0,0,0,0,0,0,0,0,-1,1798,1030,0,0
581,-6,0,0,0,0,0,0,0,0,0,-1,1805,1030,0,0
588,-6,0,0,0,0,0,0,0,0,0,-1,1812,1030,0,0
595,-6,0,0,0,0,0,0,0,0,0,-1,1819,1030,0,0
602,-6,0,0,0,0,0,0,0,0,0,-1,1826,1030,0,0
609,-6,0,0,0,0,0,0,0,0,0,-1,1833,1030,0,0
616,-6,0,0,0,0,0,0,0,0,0,-1,1840,1030,0,0
623,-6,0,0,0,0,0,0,0,0,0,-1,1847,1030,0,0
630,-6,0,0,0,0,0,0,0,0,0,-1,1854,1030,0,0
637,-6,0,0,0,0,0,0,0,0,0,-1,1861,1030,0,0
644,-6,0,0,0,0,0,0,0,0,0,-1,1868,1030,0,0
651,-6,24.9871,2.80164,-0.0033702,0.000695865,-0.000424812,0.000739774,-0.00341411,-1.4678,0.00255857,0.0361962,1875,1030,24.9871,-2.80165
658,-6,24.9083,2.65259,-0.00261923,0.000310432,-0.000373146,0.000357212,-0.00266601,-1.44608,0.00190759,0.0404983,1882,1030,24.9083,-2.65261
665,-6,24.9111,2.65295,-0.00213684,8.09281e-05,-0.00025712,0.000110347,-0.00216626,-1.45687,0.00148232,0.0448445,1889,1030,24.9111,-2.65301
672,-6,24.8831,2.79138,-0.00172947,-2.23096e-05,0.000389541,6.23755e-05,-0.00181415,1.35673,0.00123075,0.0422206,1896,1030,24.8831,-2.79139
679,-6,24.7119,2.71826,-0.00163555,-0.00020848,0.00158382,0.000815115,-0.00265914,0.997039,0.00209793,0.0396867,1903,1030,24.7119,-2.71824
686,-6,24.6453,2.71326,-0.00165699,-0.000437812,0.00273638,0.00175605,-0.00385086,0.894995,0.00331161,0.0352732,1910,1030,24.6452,-2.71321
693,-6,24.733,2.87598,-0.0016944,-0.000674554,0.00375976,0.0026097,-0.00497866,0.8528,0.00445174,0.0349305,1917,1030,24.733,-2.87593
700,-6,24.8002,2.80286,-0.00174654,-0.000864487,0.00454325,0.0032591,-0.00587012,0.833783,0.00534213,0.0306351,1924,1030,24.8002,-2.80285
707,-6,24.7737,2.73584,-0.001841,-0.000951834,0.00503536,0.00365854,-0.00645137,0.82943,0.00591073,0.0271019,1931,1030,24.7737,-2.7359
714,-6,24.7164,2.177,0,0,0,0,0,0,0,-1,1938,1030,24.7165,-2.17705
721,-6,24.6595,3.29688,-0.00219966,-0.000822182,0.00543461,0.00396716,-0.006989,0.848428,0.00640524,0.0413244,1945,1030,24.6595,-3.2969
728,-6,24.3523,4.20898,-0.00230733,-0.00052266,0.00532903,0.00398823,-0.00681822,0.868352,0.00631002,0.0348903,1952,1030,24.3523,-4.20901
735,-6,24.344,4.24792,-0.00236614,-0.000160527,0.00479426,0.00365613,-0.00618279,0.898445,0.0057426,0.0175616,1959,1030,24.344,-4.24787
742,-6,24.3918,4.25195,-0.00257238,0.000199213,0.00384201,0.00289771,-0.00527088,0.958484,0.00478202,0.0153052,1966,1030,24.3918,-4.252
749,-6,24.3687,4.30542,-0.00244391,0.00075694,0.00247302,0.00210222,-0.00378919,1.07258,0.00344758,0.013818,1973,1030,24.3686,-4.30545
756,-6,24.3856,4.29688,-0.00195881,0.00153229,0.00106219,0.00183007,-0.00225659,1.29747,0.00236371,0.0143484,1980,1030,24.3857,-4.29691
763,-6,24.3534,4.2926,-0.00148813,0.00221896,-0.000864203,0.00241052,-0.00167969,-1.35266,0.00237402,0.0134807,1987,1030,24.3534,-4.29255
770,-6,24.3386,4.31409,-0.000731654,0.00303106,-0.00323439,0.00489147,-0.00259206,-1.04882,0.00438807,0.0118267,1994,1030,24.3386,-4.31411
777,-6,24.2947,4.34558,0.000361308,0.00375156,-0.00557944,0.00788769,-0.00377483,-0.932875,0.00687151,0.0135413,2001,1030,24.2947,-4.34556
784,-6,24.2889,4.26624,0.00155248,0.00411674,-0.0075412,0.010484,-0.00481481,-0.869601,0.00903267,0.0324706,2008,1030,24.2889,-4.2662
791,-6,24.547,4.01685,0.00299903,0.00402992,-0.0095508,0.0130792,-0.00605023,-0.812356,0.0112902,0.0449458,2015,1030,24.547,-4.01681
798,-6,24.27,4.13245,0,0,0,0,0,0,0,-1,2022,1030,24.2701,-4.13241
805,-6,25.3137,3.59717,0,0,0,0,0,0,0,-1,2029,1030,25.3138,-3.59717
812,-6,25.1621,2.46033,0,0,0,0,0,0,0,-1,2036,1030,25.1622,-2.46034
-700,-13,0,0,0,0,0,0,0,0,0,-1,524,1037,0,0
-693,-13,-17.2273,0.81543,-0.0497512,0.042176,0.0344196,0.053635,-0.0612102,1.24942,0.066354,0.0443505,531,1037,-17.2273,-0.815391
-686,-13,-17.548,0.13208,-0.0351684,0.0366046,0.0304517,0.0477835,-0.0463473,1.21897,0.0543485,0.0430399,538,1037,-17.548,-0.132138
-679,-13,-16.5678,0.327515,0,0,0,0,0,0,0,-1,545,1037,-16.5678,-0.327516
-672,-13,-17.2509,1.50146,0,0,0,0,0,0,0,-1,552,1037,-17.2509,-1.50152
-665,-13,-17.2181,1.99719,0,0,0,0,0,0,0,-1,559,1037,-17.2181,-1.99719
-658,-13,-16.9106,2.03943,0,0,0,0,0,0,0,-1,566,1037,-16.9106,-2.03946
-651,-13,-16.9269,1.8241,0,0,0,0,0,0,0,-1,573,1037,-16.9269,-1.82416
-644,-13,-16.9401,1.81567,-0.00140496,0.0115107,0.00707128,0.0146292,-0.00452348,1.15544,0.0115595,0.0297714,580,1037,-16.9401,-1.81571
-637,-13,-16.9718,1.82336,0.000301239,0.00831622,0.00375235,0.00979873,-0.00118127,1.19453,0.00695974,0.0226292,587,1037,-16.9718,-1.82342
-630,-13,-17.0106,1.81836,0.00102721,0.00593773,0.000683533,0.0060311,0.000933838,1.43504,0.00374843,0.0142127,594,1037,-17.0106,-1.8184
-623,-13,-17.0081,1.85889,0.000969458,0.00445614,-0.00171509,0.00515836,0.00026724,-1.18218,0.00335338,0.0112315,601,1037,-17.0081,-1.85888
-616,-13,-16.9774,1.85828,0.000409742,0.00285807,-0.00376115,0.00558926,-0.00232145,-0.942729,0.00469535,0.0106411,608,1037,-16.9773,-1.85824
-609,-13,-16.9429,1.86646,4.9104e-05,0.001377,-0.00504867,0.0058052,-0.00437909,-0.850778,0.00589909,0.0159147,615,1037,-16.943,-1.86643
-602,-13,-16.9589,1.89575,4.81228e-05,0.000776727,-0.00611149,0.00653476,-0.00570991,-0.815168,0.00707481,0.0112113,622,1037,-16.9589,-1.89576
-595,-13,-16.9311,1.87512,0.000130084,0.000472171,-0.00656131,0.00686466,-0.00626241,-0.798429,0.00758158,0.0173946,629,1037,-16.9311,-1.87511
-588,-13,-16.8633,1.24744,0.000271967,0.000344961,-0.00656966,0.00687823,-0.0062613,-0.788176,0.0075889,0.0182425,636,1037,-16.8633,-1.24747
-581,-13,-16.9529,0.822388,0.000405269,0.000356534,-0.00636797,0.00674892,-0.00598711,-0.783485,0.00735753,0.0165136,643,1037,-16.953,-0.822345
-574,-13,-16.9485,0.777954,0.000340659,0.000430682,-0.00579584,0.00618169,-0.00541035,-0.789281,0.0066976,0.0336889,650,1037,-16.9485,-0.777994
-567,-13,-16.9666,0.795776,0.000149474,0.000715348,-0.004726,0.00516687,-0.00430205,-0.815297,0.00547448,0.0424421,657,1037,-16.9666,-0.795817
-560,-13,-16.8996,1.09338,-0.00013584,0.00111617,-0.00322937,0.00377965,-0.00279931,-0.881135,0.0038124,0.0430423,664,1037,-16.8996,-1.09337
-553,-13,-16.7024,1.21838,0,0,0,0,0,0,0,-1,671,1037,-16.7024,-1.21834
-546,-13,-17.1209,0.622681,-0.00102878,0.00190891,0.000587169,0.00202193,-0.00114179,1.38065,0.00184998,0.0402001,678,1037,-17.1209,-0.622723
-539,-13,-17.1804,0.750732,-0.00160789,0.00224638,0.00203447,0.00312155,-0.00248306,1.16455,0.00324281,0.042373,685,1037,-17.1804,-0.750788
-532,-13,-17.2044,0.895386,0,0,0,0,0,0,0,-1,692,1037,-17.2044,-0.895333
-525,-13,0,0,0,0,0,0,0,0,0,-1,699,1037,0,0
-518,-13,0,0,0,0,0,0,0,0,0,-1,706,1037,0,0
-511,-13,0,0,0,0,0,0,0,0,0,-1,713,1037,0,0
-504,-13,0,0,0,0,0,0,0,0,0,-1,720,1037,0,0
-497,-13,0,0,0,0,0,0,0,0,0,-1,727,1037,0,0
-490,-13,0,0,0,0,0,0,0,0,0,-1,734,1037,0,0
-483,-13,0,0,0,0,0,0,0,0,0,-1,741,1037,0,0
-476,-13,0,0,0,0,0,0,0,0,0,-1,748,1037,0,0
-469,-13,0,0,0,0,0,0,0,0,0,-1,755,1037,0,0
-462,-13,0,0,0,0,0,0,0,0,0,-1,762,1037,0,0
-455,-13,0,0,0,0,0,0,0,0,0,-1,769,1037,0,0
-448,-13,0,0,0,0,0,0,0,0,0,-1,776,1037,0,0
-441,-13,0,0,0,0,0,0,0,0,0,-1,783,1037,0,0
-434,-13,0,0,0,0,0,0,0,0,0,-1,790,1037,0,0
-427,-13,0,0,0,0,0,0,0,0,0,-1,797,1037,0,0
-420,-13,0,0,0,0,0,0,0,0,0,-1,804,1037,0,0
-413,-13,0,0,0,0,0,0,0,0,0,-1,811,1037,0,0
-406,-13,0,0,0,0,0,0,0,0,0,-1,818,1037,0,0
-399,-13,0,0,0,0,0,0,0,0,0,-1,825,1037,0,0
-392,-13,0,0,0,0,0,0,0,0,0,-1,832,1037,0,0
-385,-13,0,0,0,0,0,0,0,0,0,-1,839,1037,0,0
-378,-13,0,0,0,0,0,0,0,0,0,-1,846,1037,0,0
-371,-13,0,0,0,0,0,0,0,0,0,-1,853,1037,0,0
-364,-13,0,0,0,0,0,0,0,0,0,-1,860,1037,0,0
-357,-13,0,0,0,0,0,0,0,0,0,-1,867,1037,0,0
-350,-13,0,0,0,0,0,0,0,0,0,-1,874,1037,0,0
-343,-13,0,0,0,0,0,0,0,0,0,-1,881,1037,0,0
-336,-13,0,0,0,0,0,0,0,0,0,-1,888,1037,0,0
-329,-13,0,0,0,0,0,0,0,0,0,-1,895,1037,0,0
-322,-13,0,0,0,0,0,0,0,0,0,-1,902,1037,0,0
-315,-13,0,0,0,0,0,0,0,0,0,-1,909,1037,0,0
-308,-13,0,0,0,0,0,0,0,0,0,-1,916,1037,0,0
-301,-13,0,0,0,0,0,0,0,0,0,-1,923,1037,0,0
-294,-13,0,0,0,0,0,0,0,0,0,-1,930,1037,0,0
-287,-13,0,0,0,0,0,0,0,0,0,-1,937,1037,0,0
-280,-13,0,0,0,0,0,0,0,0,0,-1,944,1037,0,0
-273,-13,0,0,0,0,0,0,0,0,0,-1,951,1037,0,0
-266,-13,0,0,0,0,0,0,0,0,0,-1,958,1037,0,0
-259,-13,0,0,0,0,0,0,0,0,0,-1,965,1037,0,0
-252,-13,0,0,0,0,0,0,0,0,0,-1,972,1037,0,0
-245,-13,0,0,0,0,0,0,0,0,0,-1,979,1037,0,0
-238,-13,0,0,0,0,0,0,0,0,0,-1,986,1037,0,0
-231,-13,0,0,0,0,0,0,0,0,0,-1,993,1037,0,0
-224,-13,0,0,0,0,0,0,0,0,0,-1,1000,1037,0,0
-217,-13,0,0,0,0,0,0,0,0,0,-1,1007,1037,0,0
-210,-13,0,0,0,0,0,0,0,0,0,-1,1014,1037,0,0
-203,-13,0,0,0,0,0,0,0,0,0,-1,1021,1037,0,0
-196,-13,0,0,0,0,0,0,0,0,0,-1,1028,1037,0,0
-189,-13,0,0,0,0,0,0,0,0,0,-1,1035,1037,0,0
-182,-13,0,0,0,0,0,0,0,0,0,-1,1042,1037,0,0
-175,-13,0,0,0,0,0,0,0,0,0,-1,1049,1037,0,0
-168,-13,0,0,0,0,0,0,0,0,0,-1,1056,1037,0,0
-161,-13,0,0,0,0,0,0,0,0,0,-1,1063,1037,0,0
-154,-13,0,0,0,0,0,0,0,0,0,-1,1070,1037,0,0
-147,-13,0,0,0,0,0,0,0,0,0,-1,1077,1037,0,0
-140,-13,0,0,0,0,0,0,0,0,0,-1,1084,1037,0,0
-133,-13,0,0,0,0,0,0,0,0,0,-1,1091,1037,0,0
-126,-13,0,0,0,0,0,0,0,0,0,-1,1098,1037,0,0
-119,-13,0,0,0,0,0,0,0,0,0,-1,1105,1037,0,0
-112,-13,0,0,0,0,0,0,0,0,0,-1,1112,1037,0,0
-105,-13,0,0,0,0,0,0,0,0,0,-1,1119,1037,0,0
-98,-13,0,0,0,0,0,0,0,0,0,-1,1126,1037,0,0
-91,-13,0,0,0,0,0,0,0,0,0,-1,1133,1037,0,0
-84,-13,0,0,0,0,0,0,0,0,0,-1,1140,1037,0,0
-77,-13,0,0,0,0,0,0,0,0,0,-1,1147,1037,0,0
-70,-13,0,0,0,0,0,0,0,0,0,-1,1154,1037,0,0
-63,-13,0,0,0,0,0,0,0,0,0,-1,1161,1037,0,0
-56,-13,0,0,0,0,0,0,0,0,0,-1,1168,1037,0,0
-49,-13,0,0,0,0,0,0,0,0,0,-1,1175,1037,0,0
-42,-13,0,0,0,0,0,0,0,0,0,-1,1182,1037,0,0
-35,-13,0,0,0,0,0,0,0,0,0,-1,1189,1037,0,0
-28,-13,0,0,0,0,0,0,0,0,0,-1,1196,1037,0,0
-21,-13,0,0,0,0,0,0,0,0,0,-1,1203,1037,0,0
-14,-13,0,0,0,0,0,0,0,0,0,-1,1210,1037,0,0
-7,-13,0,0,0,0,0,0,0,0,0,-1,1217,1037,0,0
0,-13,0,0,0,0,0,0,0,0,0,-1,1224,1037,0,0
7,-13,0,0,0,0,0,0,0,0,0,-1,1231,1037,0,0
14,-13,0,0,0,0,0,0,0,0,0,-1,1238,1037,0,0
21,-13,0,0,0,0,0,0,0,0,0,-1,1245,1037,0,0
28,-13,0,0,0,0,0,0,0,0,0,-1,1252,1037,0,0
35,-13,0,0,0,0,0,0,0,0,0,-1,1259,1037,0,0
42,-13,0,0,0,0,0,0,0,0,0,-1,1266,1037,0,0
49,-13,0,0,0,0,0,0,0,0,0,-1,1273,1037,0,0
56,-13,0,0,0,0,0,0,0,0,0,-1,1280,1037,0,0
63,-13,0,0,0,0,0,0,0,0,0,-1,1287,1037,0,0
70,-13,0,0,0,0,0,0,0,0,0,-1,1294,1037,0,0
77,-13,0,0,0,0,0,0,0,0,0,-1,1301,1037,0,0
84,-13,0,0,0,0,0,0,0,0,0,-1,1308,1037,0,0
91,-13,0,0,0,0,0,0,0,0,0,-1,1315,1037,0,0
98,-13,0,0,0,0,0,0,0,0,0,-1,1322,1037,0,0
105,-13,0,0,0,0,0,0,0,0,0,-1,1329,1037,0,0
112,-13,0,0,0,0,0,0,0,0,0,-1,1336,1037,0,0
119,-13,0,0,0,0,0,0,0,0,0,-1,1343,1037,0,0
126,-13,0,0,0,0,0,0,0,0,0,-1,1350,1037,0,0
133,-13,0,0,0,0,0,0,0,0,0,-1,1357,1037,0,0
140,-13,0,0,0,0,0,0,0,0,0,-1,1364,1037,0,0
147,-13,0,0,0,0,0,0,0,0,0,-1,1371,1037,0,0
154,-13,0,0,0,0,0,0,0,0,0,-1,1378,1037,0,0
161,-13,0,0,0,0,0,0,0,0,0,-1,1385,1037,0,0
168,-13,0,0,0,0,0,0,0,0,0,-1,1392,1037,0,0
175,-13,0,0,0,0,0,0,0,0,0,-1,1399,1037,0,0
182,-13,0,0,0,0,0,0,0,0,0,-1,1406,1037,0,0
189,-13,0,0,0,0,0,0,0,0,0,-1,1413,1037,0,0
196,-13,0,0,0,0,0,0,0,0,0,-1,1420,1037,0,0
203,-13,0,0,0,0,0,0,0,0,0,-1,1427,1037,0,0
210,-13,0,0,0,0,0,0,0,0,0,-1,1434,1037,0,0
217,-13,0,0,0,0,0,0,0,0,0,-1,1441,1037,0,0
224,-13,0,0,0,0,0,0,0,0,0,-1,1448,1037,0,0
231,-13,0,0,0,0,0,0,0,0,0,-1,1455,1037,0,0
238,-13,0,0,0,0,0,0,0,0,0,-1,1462,1037,0,0
245,-13,0,0,0,0,0,0,0,0,0,-1,1469,1037,0,0
252,-13,0,0,0,0,0,0,0,0,0,-1,1476,1037,0,0
259,-13,0,0,0,0,0,0,0,0,0,-1,1483,1037,0,0
266,-13,0,0,0,0,0,0,0,0,0,-1,1490,1037,0,0
273,-13,0,0,0,0,0,0,0,0,0,-1,1497,1037,0,0
280,-13,0,0,0,0,0,0,0,0,0,-1,1504,1037,0,0
287,-13,0,0,0,0,0,0,0,0,0,-1,1511,1037,0,0
294,-13,0,0,0,0,0,0,0,0,0,-1,1518,1037,0,0
301,-13,0,0,0,0,0,0,0,0,0,-1,1525,1037,0,0
308,-13,0,0,0,0,0,0,0,0,0,-1,1532,1037,0,0
315,-13,0,0,0,0,0,0,0,0,0,-1,1539,1037,0,0
322,-13,0,0,0,0,0,0,0,0,0,-1,1546,1037,0,0
329,-13,0,0,0,0,0,0,0,0,0,-1,1553,1037,0,0
336,-13,0,0,0,0,0,0,0,0,0,-1,1560,1037,0,0
343,-13,0,0,0,0,0,0,0,0,0,-1,1567,1037,0,0
350,-13,0,0,0,0,0,0,0,0,0,-1,1574,1037,0,0
357,-13,0,0,0,0,0,0,0,0,0,-1,1581,1037,0,0
364,-13,0,0,0,0,0,0,0,0,0,-1,1588,1037,0,0
371,-13,0,0,0,0,0,0,0,0,0,-1,1595,1037,0,0
378,-13,0,0,0,0,0,0,0,0,0,-1,1602,1037,0,0
385,-13,0,0,0,0,0,0,0,0,0,-1,1609,1037,0,0
392,-13,0,0,0,0,0,0,0,0,0,-1,1616,1037,0,0
399,-13,0,0,0,0,0,0,0,0,0,-1,1623,1037,0,0
406,-13,0,0,0,0,0,0,0,0,0,-1,1630,1037,0,0
413,-13,0,0,0,0,0,0,0,0,0,-1,1637,1037,0,0
420,-13,0,0,0,0,0,0,0,0,0,-1,1644,1037,0,0
427,-13,0,0,0,0,0,0,0,0,0,-1,1651,1037,0,0
434,-13,0,0,0,0,0,0,0,0,0,-1,1658,1037,0,0
441,-13,0,0,0,0,0,0,0,0,0,-1,1665,1037,0,0
448,-13,0,0,0,0,0,0,0,0,0,-1,1672,1037,0,0
455,-13,0,0,0,0,0,0,0,0,0,-1,1679,1037,0,0
462,-13,0,0,0,0,0,0,0,0,0,-1,1686,1037,0,0
469,-13,0,0,0,0,0,0,0,0,0,-1,1693,1037,0,0
476,-13,0,0,0,0,0,0,0,0,0,-1,1700,1037,0,0
483,-13,0,0,0,0,0,0,0,0,0,-1,1707,1037,0,0
490,-13,0,0,0,0,0,0,0,0,0,-1,1714,1037,0,0
497,-13,0,0,0,0,0,0,0,0,0,-1,1721,1037,0,0
504,-13,0,0,0,0,0,0,0,0,0,-1,1728,1037,0,0
511,-13,0,0,0,0,0,0,0,0,0,-1,1735,1037,0,0
518,-13,0,0,0,0,0,0,0,0,0,-1,1742,1037,0,0
525,-13,0,0,0,0,0,0,0,0,0,-1,1749,1037,0,0
532,-13,0,0,0,0,0,0,0,0,0,-1,1756,1037,0,0
539,-13,0,0,0,0,0,0,0,0,0,-1,1763,1037,0,0
546,-13,0,0,0,0,0,0,0,0,0,-1,1770,1037,0,0
553,-13,0,0,0,0,0,0,0,0,0,-1,1777,1037,0,0
560,-13,0,0,0,0,0,0,0,0,0,-1,1784,1037,0,0
567,-13,0,0,0,0,0,0,0,0,0,-1,1791,1037,0,0
574,-13,0,0,0,0,0,0,0,0,0,-1,1798,1037,0,0
581,-13,0,0,0,0,0,0,0,0,0,-1,1805,1037,0,0
588,-13,0,0,0,0,0,0,0,0,0,-1,1812,1037,0,0
595,-13,0,0,0,0,0,0,0,0,0,-1,1819,1037,0,0
602,-13,0,0,0,0,0,0,0,0,0,-1,1826,1037,0,0
609,-13,0,0,0,0,0,0,0,0,0,-1,1833,1037,0,0
616,-13,0,0,0,0,0,0,0,0,0,-1,1840,1037,0,0
623,-13,0,0,0,0,0,0,0,0,0,-1,1847,1037,0,0
630,-13,0,0,0,0,0,0,0,0,0,-1,1854,1037,0,0
637,-13,0,0,0,0,0,0,0,0,0,-1,1861,1037,0,0
644,-13,0,0,0,0,0,0,0,0,0,-1,1868,1037,0,0
651,-13,25.1113,2.7915,-0.00450889,0.000965312,2.02826e-05,0.000965388,-0.00450896,1.56709,0.00337412,0.0364373,1875,1037,25.1113,-2.79146
658,-13,25.0168,2.69849,-0.00348104,0.000588546,-3.96794e-05,0.000588933,-0.00348143,-1.56105,0.00254013,0.0435746,1882,1037,25.0168,-2.69848
665,-13,24.9493,2.65344,-0.00278358,0.00034524,-3.14032e-05,0.000345555,-0.0027839,-1.56076,0.00198119,0.0449258,1889,1037,24.9494,-2.6534
672,-13,24.9122,2.72839,-0.0021722,0.000183843,0.000560546,0.000310408,-0.00229877,1.34873,0.00164577,0.03692,1896,1037,24.9122,-2.72842
679,-13,24.7017,2.74524,-0.00187577,-8.79225e-05,0.00177853,0.0010087,-0.00297239,1.01827,0.00238987,0.0372155,1903,1037,24.7017,-2.74521
686,-13,24.6097,2.84094,-0.00174556,-0.00040669,0.00298214,0.00198023,-0.00413248,0.895808,0.00360135,0.0381496,1910,1037,24.6098,-2.84093
693,-13,24.6312,2.94995,-0.0016676,-0.000727062,0.00406266,0.00289246,-0.00528711,0.843018,0.00478946,0.0386914,1917,1037,24.6313,-2.94998
700,-13,24.7555,2.77991,-0.00163952,-0.00098557,0.00489869,0.00359705,-0.00622213,0.818722,0.00573624,0.0370629,1924,1037,24.7555,-2.77991
707,-13,24.8077,2.72864,-0.00167438,-0.00112479,0.00542885,0.00403622,-0.00683538,0.810685,0.0063457,0.0308729,1931,1037,24.8078,-2.7286
714,-13,24.767,2.83813,-0.00177114,-0.00116889,0.00573578,0.00427367,-0.0072137,0.811624,0.00670425,0.0288728,1938,1037,24.767,-2.83814
721,-13,24.5508,3.38721,0,0,0,0,0,0,0,-1,1945,1037,24.5508,-3.38726
728,-13,24.3826,4.28552,-0.00202304,-0.000804078,0.00573466,0.0043534,-0.00718051,0.83834,0.00672546,0.0305377,1952,1037,24.3826,-4.28549
735,-13,24.3678,4.29517,-0.00212026,-0.000433993,0.00523563,0.00402596,-0.00658021,0.865231,0.00618238,0.0193795,1959,1037,24.3678,-4.29521
742,-13,24.3821,4.29492,-0.00242026,-7.96867e-05,0.00428914,0.00319596,-0.0056959,0.91858,0.00520091,0.0120588,1966,1037,24.382,-4.29488
749,-13,24.391,4.31165,-0.00240746,0.000427662,0.0028501,0.00219327,-0.00417306,1.01617,0.00373438,0.0163306,1973,1037,24.391,-4.31164
756,-13,24.3894,4.30591,-0.00208332,0.00124916,0.00132913,0.00171434,-0.0025485,1.23413,0.00247681,0.0137057,1980,1037,24.3894,-4.30587
763,-13,24.3815,4.29932,-0.00181363,0.00194148,-0.000654292,0.00205222,-0.00192437,-1.40314,0.00229628,0.0145465,1987,1037,24.3815,-4.29931
770,-13,24.3639,4.3136,-0.00136812,0.00278424,-0.00314604,0.00447742,-0.0030613,-1.07706,0.00437801,0.012863,1994,1037,24.3638,-4.31364
777,-13,24.309,4.2981,-0.000620535,0.00354584,-0.00566044,0.00749425,-0.00456895,-0.961719,0.00703262,0.011289,2001,1037,24.309,-4.29807
784,-13,24.3035,4.26624,0.00021422,0.00394251,-0.00777285,0.0100716,-0.0059149,-0.903089,0.00933325,0.0263448,2008,1037,24.3034,-4.26629
791,-13,24.2876,4.16089,0.00126914,0.0039113,-0.00996587,0.0126433,-0.00746283,-0.851294,0.011736,0.0444021,2015,1037,24.2876,-4.16092
798,-13,24.2468,4.01477,0.00271381,0.00335098,-0.0122882,0.0153247,-0.00925989,-0.798358,0.0143371,0.0478275,2022,1037,24.2468,-4.01475
805,-13,25.1887,3.63379,0.00446106,0.00213535,-0.0145862,0.0179307,-0.0113343,-0.745621,0.0170386,0.045077,2029,1037,25.1888,-3.63375
812,-13,24.7954,2.77527,0.00603336,1.11413e-05,-0.016573,0.0198666,-0.0138221,-0.695535,0.0195543,0.0407098,2036,1037,24.7953,-2.77529
-700,-20,-16.5352,0.43811,0,0,0,0,0,0,0,-1,524,1044,-16.5352,-0.438114
-693,-20,-17.0903,0.112915,-0.0362711,0.0314285,0.0270497,0.0409088,-0.0457514,1.2337,0.0500593,0.0450568,531,1044,-17.0902,-0.11287
-686,-20,-17.6755,-0.217896,-0.0237509,0.0281454,0.024534,0.0379075,-0.0335129,1.1921,0.0412606,0.0444166,538,1044,-17.6756,0.217929
-679,-20,-18.2189,-0.500854,-0.0147563,0.0249456,0.0215198,0.034372,-0.0241827,1.15794,0.0339768,0.0467693,545,1044,-18.2189,0.500796
-672,-20,-17.5333,2.0835,0,0,0,0,0,0,0,-1,552,1044,-17.5333,-2.08354
-665,-20,-17.4637,2.55823,-0.00402909,0.0188302,0.0151683,0.026393,-0.0115919,1.10827,0.0224787,0.0443388,559,1044,-17.4637,-2.55823
-658,-20,-16.7284,1.81494,-0.00125904,0.015902,0.0121471,0.0221935,-0.00755052,1.0929,0.0178529,0.0445264,566,1044,-16.7284,-1.81496
-651,-20,-16.8488,1.68811,0.000314095,0.0130682,0.00935668,0.0180143,-0.00463204,1.08452,0.0138149,0.0403311,573,1044,-16.8487,-1.68816
-644,-20,-16.8911,1.69324,0.00124089,0.0105076,0.00653492,0.0138851,-0.00213656,1.09377,0.0100449,0.0266164,580,1044,-16.8911,-1.6932
-637,-20,-16.9263,1.71399,0.00201797,0.00778594,0.00348974,0.00942917,0.000374749,1.13072,0.00616499,0.019266,587,1044,-16.9263,-1.71402
-630,-20,-16.9427,1.79797,0.00202052,0.0057288,0.000611105,0.00582691,0.0019224,1.41161,0.00342843,0.0154055,594,1044,-16.9427,-1.79797
-623,-20,-16.9678,1.83521,0.00150038,0.00433825,-0.00167392,0.00511371,0.000724919,-1.13697,0.00319503,0.0134054,601,1044,-16.9678,-1.83524
-616,-20,-16.9569,1.85059,0.000667348,0.00262658,-0.00381513,0.00558586,-0.00229193,-0.911069,0.00467889,0.0129807,608,1044,-16.9569,-1.85054
-609,-20,-16.9319,1.87158,6.60347e-05,0.00101107,-0.0053049,0.00586445,-0.00478735,-0.829817,0.00616029,0.0149973,615,1044,-16.9319,-1.87155
-602,-20,-16.9404,1.90601,-9.33022e-05,0.000336946,-0.00653399,0.00665935,-0.00641571,-0.801854,0.00754933,0.0109492,622,1044,-16.9404,-1.90596
-595,-20,-16.9445,1.88855,-0.000101022,-1.91057e-05,-0.00706433,0.00700439,-0.00712452,-0.788297,0.00815743,0.0140057,629,1044,-16.9445,-1.88856
-588,-20,-16.9496,1.28943,5.54325e-06,-0.000155542,-0.00711023,0.00703569,-0.00718569,-0.779735,0.00821087,0.015218,636,1044,-16.9497,-1.28945
-581,-20,-16.9284,0.831055,0.00017444,-0.000143242,-0.00689567,0.00691309,-0.0068819,-0.773883,0.00796455,0.0214809,643,1044,-16.9284,-0.831072
-574,-20,-16.9432,0.808838,0.000160532,-1.52986e-06,-0.00629029,0.00637031,-0.00621131,-0.778958,0.00726419,0.0381916,650,1044,-16.9433,-0.808893
-567,-20,-16.9234,0.746582,3.6467e-05,0.000374306,-0.00512806,0.00533623,-0.00492545,-0.801862,0.00592617,0.046724,657,1044,-16.9234,-0.746618
-560,-20,-16.8186,0.976807,-0.00014077,0.000933565,-0.00342937,0.00386759,-0.00307479,-0.863086,0.00401689,0.0461055,664,1044,-16.8186,-0.976746
-553,-20,-16.7844,0.714111,-0.000362623,0.00160827,-0.00126307,0.00222484,-0.000979193,-1.11667,0.00189588,0.0420496,671,1044,-16.7844,-0.714162
-546,-20,-17.0867,0.78064,-0.00063721,0.00230174,0.00126457,0.00277095,-0.00110642,1.2155,0.00230633,0.0394731,678,1044,-17.0867,-0.780632
-539,-20,-17.21,1.03638,-0.000895713,0.00301536,0.00335155,0.00494016,-0.00282051,1.04949,0.00453599,0.0418797,685,1044,-17.21,-1.0364
-532,-20,-17.0876,1.06616,-0.00147251,0.00364471,0.00311327,0.00511585,-0.00294366,1.12936,0.00470916,0.0423956,692,1044,-17.0876,-1.06611
-525,-20,0,0,0,0,0,0,0,0,0,-1,699,1044,0,0
-518,-20,0,0,0,0,0,0,0,0,0,-1,706,1044,0,0
-511,-20,0,0,0,0,0,0,0,0,0,-1,713,1044,0,0
-504,-20,0,0,0,0,0,0,0,0,0,-1,720,1044,0,0
-497,-20,0,0,0,0,0,0,0,0,0,-1,727,1044,0,0
-490,-20,0,0,0,0,0,0,0,0,0,-1,734,1044,0,0
-483,-20,0,0,0,0,0,0,0,0,0,-1,741,1044,0,0
-476,-20,0,0,0,0,0,0,0,0,0,-1,748,1044,0,0
-469,-20,0,0,0,0,0,0,0,0,0,-1,755,1044,0,0
-462,-20,0,0,0,0,0,0,0,0,0,-1,762,1044,0,0
-455,-20,0,0,0,0,0,0,0,0,0,-1,769,1044,0,0
-448,-20,0,0,0,0,0,0,0,0,0,-1,776,1044,0,0
-441,-20,0,0,0,0,0,0,0,0,0,-1,783,1044,0,0
-434,-20,0,0,0,0,0,0,0,0,0,-1,790,1044,0,0
-427,-20,0,0,0,0,0,0,0,0,0,-1,797,1044,0,0
-420,-20,0,0,0,0,0,0,0,0,0,-1,804,1044,0,0
-413,-20,0,0,0,0,0,0,0,0,0,-1,811,1044,0,0
-406,-20,0,0,0,0,0,0,0,0,0,-1,818,1044,0,0
-399,-20,0,0,0,0,0,0,0,0,0,-1,825,1044,0,0
-392,-20,0,0,0,0,0,0,0,0,0,-1,832,1044,0,0
-385,-20,0,0,0,0,0,0,0,0,0,-1,839,1044,0,0
-378,-20,0,0,0,0,0,0,0,0,0,-1,846,1044,0,0
-371,-20,0,0,0,0,0,0,0,0,0,-1,853,1044,0,0
-364,-20,0,0,0,0,0,0,0,0,0,-1,860,1044,0,0
-357,-20,0,0,0,0,0,0,0,0,0,-1,867,1044,0,0
-350,-20,0,0,0,0,0,0,0,0,0,-1,874,1044,0,0
-343,-20,0,0,0,0,0,0,0,0,0,-1,881,1044,0,0
-336,-20,0,0,0,0,0,0,0,0,0,-1,888,1044,0,0
-329,-20,0,0,0,0,0,0,0,0,0,-1,895,1044,0,0
-322,-20,0,0,0,0,0,0,0,0,0,-1,902,1044,0,0
-315,-20,0,0,0,0,0,0,0,0,0,-1,909,1044,0,0
-308,-20,0,0,0,0,0,0,0,0,0,-1,916,1044,0,0
-301,-20,0,0,0,0,0,0,0,0,0,-1,923,1044,0,0
-294,-20,0,0,0,0,0,0,0,0,0,-1,930,1044,0,0
-287,-20,0,0,0,0,0,0,0,0,0,-1,937,1044,0,0
-280,-20,0,0,0,0,0,0,0,0,0,-1,944,1044,0,0
-273,-20,0,0,0,0,0,0,0,0,0,-1,951,1044,0,0
-266,-20,0,0,0,0,0,0,0,0,0,-1,958,1044,0,0
-259,-20,0,0,0,0,0,0,0,0,0,-1,965,1044,0,0
-252,-20,0,0,0,0,0,0,0,0,0,-1,972,1044,0,0
-245,-20,0,0,0,0,0,0,0,0,0,-1,979,1044,0,0
-238,-20,0,0,0,0,0,0,0,0,0,-1,986,1044,0,0
-231,-20,0,0,0,0,0,0,0,0,0,-1,993,1044,0,0
-224,-20,0,0,0,0,0,0,0,0,0,-1,1000,1044,0,0
-217,-20,0,0,0,0,0,0,0,0,0,-1,1007,1044,0,0
-210,-20,0,0,0,0,0,0,0,0,0,-1,1014,1044,0,0
-203,-20,0,0,0,0,0,0,0,0,0,-1,1021,1044,0,0
-196,-20,0,0,0,0,0,0,0,0,0,-1,1028,1044,0,0
-189,-20,0,0,0,0,0,0,0,0,0,-1,1035,1044,0,0
-182,-20,0,0,0,0,0,0,0,0,0,-1,1042,1044,0,0
-175,-20,0,0,0,0,0,0,0,0,0,-1,1049,1044,0,0
-168,-20,0,0,0,0,0,0,0,0,0,-1,1056,1044,0,0
-161,-20,0,0,0,0,0,0,0,0,0,-1,1063,1044,0,0
-154,-20,0,0,0,0,0,0,0,0,0,-1,1070,1044,0,0
-147,-20,0,0,0,0,0,0,0,0,0,-1,1077,1044,0,0
-140,-20,0,0,0,0,0,0,0,0,0,-1,1084,1044,0,0
-133,-20,0,0,0,0,0,0,0,0,0,-1,1091,1044,0,0
-126,-20,0,0,0,0,0,0,0,0,0,-1,1098,1044,0,0
-119,-20,0,0,0,0,0,0,0,0,0,-1,1105,1044,0,0
-112,-20,0,0,0,0,0,0,0,0,0,-1,1112,1044,0,0
-105,-20,0,0,0,0,0,0,0,0,0,-1,1119,1044,0,0
-98,-20,0,0,0,0,0,0,0,0,0,-1,1126,1044,0,0
-91,-20,0,0,0,0,0,0,0,0,0,-1,1133,1044,0,0
-84,-20,0,0,0,0,0,0,0,0,0,-1,1140,1044,0,0
-77,-20,0,0,0,0,0,0,0,0,0,-1,1147,1044,0,0
-70,-20,0,0,0,0,0,0,0,0,0,-1,1154,1044,0,0
-63,-20,0,0,0,0,0,0,0,0,0,-1,1161,1044,0,0
-56,-20,0,0,0,0,0,0,0,0,0,-1,1168,1044,0,0
-49,-20,0,0,0,0,0,0,0,0,0,-1,1175,1044,0,0
-42,-20,0,0,0,0,0,0,0,0,0,-1,1182,1044,0,0
-35,-20,0,0,0,0,0,0,0,0,0,-1,1189,1044,0,0
-28,-20,0,0,0,0,0,0,0,0,0,-1,1196,1044,0,0
-21,-20,0,0,0,0,0,0,0,0,0,-1,1203,1044,0,0
-14,-20,0,0,0,0,0,0,0,0,0,-1,1210,1044,0,0
-7,-20,0,0,0,0,0,0,0,0,0,-1,1217,1044,0,0
0,-20,0,0,0,0,0,0,0,0,0,-1,1224,1044,0,0
7,-20,0,0,0,0,0,0,0,0,0,-1,1231,1044,0,0
14,-20,0,0,0,0,0,0,0,0,0,-1,1238,1044,0,0
21,-20,0,0,0,0,0,0,0,0,0,-1,1245,1044,0,0
28,-20,0,0,0,0,0,0,0,0,0,-1,1252,1044,0,0
35,-20,0,0,0,0,0,0,0,0,0,-1,1259,1044,0,0
42,-20,0,0,0,0,0,0,0,0,0,-1,1266,1044,0,0
49,-20,0,0,0,0,0,0,0,0,0,-1,1273,1044,0,0
56,-20,0,0,0,0,0,0,0,0,0,-1,1280,1044,0,0
63,-20,0,0,0,0,0,0,0,0,0,-1,1287,1044,0,0
70,-20,0,0,0,0,0,0,0,0,0,-1,1294,1044,0,0
77,-20,0,0,0,0,0,0,0,0,0,-1,1301,1044,0,0
84,-20,0,0,0,0,0,0,0,0,0,-1,1308,1044,0,0
91,-20,0,0,0,0,0,0,0,0,0,-1,1315,1044,0,0
98,-20,0,0,0,0,0,0,0,0,0,-1,1322,1044,0,0
105,-20,0,0,0,0,0,0,0,0,0,-1,1329,1044,0,0
112,-20,0,0,0,0,0,0,0,0,0,-1,1336,1044,0,0
119,-20,0,0,0,0,0,0,0,0,0,-1,1343,1044,0,0
126,-20,0,0,0,0,0,0,0,0,0,-1,1350,1044,0,0
133,-20,0,0,0,0,0,0,0,0,0,-1,1357,1044,0,0
140,-20,0,0,0,0,0,0,0,0,0,-1,1364,1044,0,0
147,-20,0,0,0,0,0,0,0,0,0,-1,1371,1044,0,0
154,-20,0,0,0,0,0,0,0,0,0,-1,1378,1044,0,0
161,-20,0,0,0,0,0,0,0,0,0,-1,1385,1044,0,0
168,-20,0,0,0,0,0,0,0,0,0,-1,1392,1044,0,0
175,-20,0,0,0,0,0,0,0,0,0,-1,1399,1044,0,0
182,-20,0,0,0,0,0,0,0,0,0,-1,1406,1044,0,0
189,-20,0,0,0,0,0,0,0,0,0,-1,1413,1044,0,0
196,-20,0,0,0,0,0,0,0,0,0,-1,1420,1044,0,0
203,-20,0,0,0,0,0,0,0,0,0,-1,1427,1044,0,0
210,-20,0,0,0,0,0,0,0,0,0,-1,1434,1044,0,0
217,-20,0,0,0,0,0,0,0,0,0,-1,1441,1044,0,0
224,-20,0,0,0,0,0,0,0,0,0,-1,1448,1044,0,0
231,-20,0,0,0,0,0,0,0,0,0,-1,1455,1044,0,0
238,-20,0,0,0,0,0,0,0,0,0,-1,1462,1044,0,0
245,-20,0,0,0,0,0,0,0,0,0,-1,1469,1044,0,0
252,-20,0,0,0,0,0,0,0,0,0,-1,1476,1044,0,0
259,-20,0,0,0,0,0,0,0,0,0,-1,1483,1044,0,0
266,-20,0,0,0,0,0,0,0,0,0,-1,1490,1044,0,0
273,-20,0,0,0,0,0,0,0,0,0,-1,1497,1044,0,0
280,-20,0,0,0,0,0,0,0,0,0,-1,1504,1044,0,0
287,-20,0,0,0,0,0,0,0,0,0,-1,1511,1044,0,0
294,-20,0,0,0,0,0,0,0,0,0,-1,1518,1044,0,0
301,-20,0,0,0,0,0,0,0,0,0,-1,1525,1044,0,0
308,-20,0,0,0,0,0,0,0,0,0,-1,1532,1044,0,0
315,-20,0,0,0,0,0,0,0,0,0,-1,1539,1044,0,0
322,-20,0,0,0,0,0,0,0,0,0,-1,1546,1044,0,0
329,-20,0,0,0,0,0,0,0,0,0,-1,1553,1044,0,0
336,-20,0,0,0,0,0,0,0,0,0,-1,1560,1044,0,0
343,-20,0,0,0,0,0,0,0,0,0,-1,1567,1044,0,0
350,-20,0,0,0,0,0,0,0,0,0,-1,1574,1044,0,0
357,-20,0,0,0,0,0,0,0,0,0,-1,1581,1044,0,0
364,-20,0,0,0,0,0,0,0,0,0,-1,1588,1044,0,0
371,-20,0,0,0,0,0,0,0,0,0,-1,1595,1044,0,0
378,-20,0,0,0,0,0,0,0,0,0,-1,1602,1044,0,0
385,-20,0,0,0,0,0,0,0,0,0,-1,1609,1044,0,0
392,-20,0,0,0,0,0,0,0,0,0,-1,1616,1044,0,0
399,-20,0,0,0,0,0,0,0,0,0,-1,1623,1044,0,0
406,-20,0,0,0,0,0,0,0,0,0,-1,1630,1044,0,0
413,-20,0,0,0,0,0,0,0,0,0,-1,1637,1044,0,0
420,-20,0,0,0,0,0,0,0,0,0,-1,1644,1044,0,0
427,-20,0,0,0,0,0,0,0,0,0,-1,1651,1044,0,0
434,-20,0,0,0,0,0,0,0,0,0,-1,1658,1044,0,0
441,-20,0,0,0,0,0,0,0,0,0,-1,1665,1044,0,0
448,-20,0,0,0,0,0,0,0,0,0,-1,1672,1044,0,0
455,-20,0,0,0,0,0,0,0,0,0,-1,1679,1044,0,0
462,-20,0,0,0,0,0,0,0,0,0,-1,1686,1044,0,0
469,-20,0,0,0,0,0,0,0,0,0,-1,1693,1044,0,0
476,-20,0,0,0,0,0,0,0,0,0,-1,1700,1044,0,0
483,-20,0,0,0,0,0,0,0,0,0,-1,1707,1044,0,0
490,-20,0,0,0,0,0,0,0,0,0,-1,1714,1044,0,0
497,-20,0,0,0,0,0,0,0,0,0,-1,1721,1044,0,0
504,-20,0,0,0,0,0,0,0,0,0,-1,1728,1044,0,0
511,-20,0,0,0,0,0,0,0,0,0,-1,1735,1044,0,0
518,-20,0,0,0,0,0,0,0,0,0,-1,1742,1044,0,0
525,-20,0,0,0,0,0,0,0,0,0,-1,1749,1044,0,0
532,-20,0,0,0,0,0,0,0,0,0,-1,1756,1044,0,0
539,-20,0,0,0,0,0,0,0,0,0,-1,1763,1044,0,0
546,-20,0,0,0,0,0,0,0,0,0,-1,1770,1044,0,0
553,-20,0,0,0,0,0,0,0,0,0,-1,1777,1044,0,0
560,-20,0,0,0,0,0,0,0,0,0,-1,1784,1044,0,0
567,-20,0,0,0,0,0,0,0,0,0,-1,1791,1044,0,0
574,-20,0,0,0,0,0,0,0,0,0,-1,1798,1044,0,0
581,-20,0,0,0,0,0,0,0,0,0,-1,1805,1044,0,0
588,-20,0,0,0,0,0,0,0,0,0,-1,1812,1044,0,0
595,-20,0,0,0,0,0,0,0,0,0,-1,1819,1044,0,0
602,-20,0,0,0,0,0,0,0,0,0,-1,1826,1044,0,0
609,-20,0,0,0,0,0,0,0,0,0,-1,1833,1044,0,0
616,-20,0,0,0,0,0,0,0,0,0,-1,1840,1044,0,0
623,-20,0,0,0,0,0,0,0,0,0,-1,1847,1044,0,0
630,-20,0,0,0,0,0,0,0,0,0,-1,1854,1044,0,0
637,-20,0,0,0,0,0,0,0,0,0,-1,1861,1044,0,0
644,-20,0,0,0,0,0,0,0,0,0,-1,1868,1044,0,0
651,-20,24.8086,2.82642,-0.00555148,0.0017852,0.000477826,0.00181619,-0.00558247,1.50603,0.00445228,0.0409162,1875,1044,24.8086,-2.82643
658,-20,24.8602,2.87317,-0.00426859,0.00140282,0.000331882,0.00142217,-0.00428795,1.51254,0.00343235,0.0439211,1882,1044,24.8602,-2.87313
665,-20,24.9027,2.84082,-0.0033559,0.00109802,0.000248759,0.00111187,-0.00336975,1.51518,0.0026947,0.0395381,1889,1044,24.9027,-2.84085
672,-20,24.9114,2.78052,-0.00253964,0.000851631,0.000772677,0.00101938,-0.00270739,1.35701,0.00222401,0.0251035,1896,1044,24.9114,-2.7805
679,-20,24.7351,2.74438,-0.00202512,0.00045881,0.00197078,0.00154632,-0.00311263,1.06656,0.00274005,0.0294842,1903,1044,24.7351,-2.74442
686,-20,24.8136,2.79199,-0.00172678,1.2619e-05,0.00317764,0.00243742,-0.00415159,0.918974,0.00384684,0.0397023,1910,1044,24.8137,-2.79195
693,-20,24.7719,2.67676,-0.00152809,-0.00042651,0.00426688,0.00332498,-0.00527958,0.849586,0.00501039,0.0436126,1917,1044,24.7718,-2.67676
700,-20,24.7986,2.67102,-0.00141507,-0.000792925,0.00511564,0.00402109,-0.00622909,0.815765,0.00596354,0.0411614,1924,1044,24.7986,-2.67097
707,-20,24.8064,2.68384,-0.00138667,-0.00100822,0.00565423,0.00445995,-0.00685484,0.802125,0.00658119,0.0312105,1931,1044,24.8064,-2.6839
714,-20,24.7902,2.81116,-0.00141655,-0.00112787,0.00595995,0.00468949,-0.00723391,0.797505,0.00693603,0.0245428,1938,1044,24.7902,-2.81117
721,-20,24.7897,2.96204,0,0,0,0,0,0,0,-1,1945,1044,24.7896,-2.96207
728,-20,24.3867,4.24219,0,0,0,0,0,0,0,-1,1952,1044,24.3868,-4.24214
735,-20,24.3541,4.28662,-0.00177993,-0.000555568,0.00546591,0.00433234,-0.00666783,0.841166,0.00639849,0.0170611,1959,1044,24.3542,-4.2866
742,-20,24.3643,4.30664,-0.00217692,-0.000207595,0.00456752,0.00348019,-0.0058647,0.891563,0.00545351,0.0156761,1966,1044,24.3643,-4.30659
749,-20,24.4117,4.28113,-0.00227437,0.000177429,0.00312011,0.00230383,-0.00440078,0.972585,0.00393351,0.0179129,1973,1044,24.4118,-4.28118
756,-20,24.4054,4.27673,-0.00210484,0.000983724,0.00156511,0.00163816,-0.00275928,1.17475,0.00256622,0.0136605,1980,1044,24.4054,-4.27677
763,-20,24.3671,4.28882,-0.00202574,0.00162572,-0.000392567,0.00166745,-0.00206747,-1.4649,0.00216047,0.0159714,1987,1044,24.3671,-4.28886
770,-20,24.3579,4.32019,-0.00186716,0.00240507,-0.00288442,0.00385823,-0.00332032,-1.10412,0.00414841,0.0145294,1994,1044,24.358,-4.32023
777,-20,24.3082,4.28394,-0.00144664,0.00313358,-0.0054436,0.00674917,-0.00506223,-0.984508,0.00684246,0.0122773,2001,1044,24.3082,-4.28388
784,-20,24.2944,4.2937,-0.000965628,0.00347928,-0.00758538,0.00916108,-0.00664743,-0.927906,0.00916543,0.0184973,2008,1044,24.2944,-4.2937
791,-20,24.2347,3.98047,-0.000317007,0.00343736,-0.00983705,0.0115747,-0.00845438,-0.879679,0.0116105,0.0362729,2015,1044,24.2347,-3.98052
798,-20,24.5688,3.51624,0.000649904,0.00292868,-0.0122661,0.0141082,-0.0105296,-0.83171,0.0142746,0.0414578,2022,1044,24.5688,-3.51628
805,-20,24.9744,3.51428,0.00187663,0.0018634,-0.0147189,0.0165889,-0.0128489,-0.785173,0.0170416,0.042857,2029,1044,24.9743,-3.51432
812,-20,24.6235,2.81812,0.00291395,6.00126e-05,-0.0169175,0.0184646,-0.0154906,-0.743323,0.0196291,0.0432626,2036,1044,24.6236,-2.81813
-700,-27,-16.6665,0.00817871,0,0,0,0,0,0,0,-1,524,1051,-16.6665,-0.00821584
-693,-27,-17.1678,-0.22876,-0.023221,0.0200631,0.0209649,0.0285525,-0.0317104,1.18604,0.0348087,0.0472479,531,1051,-17.1678,0.228818
-686,-27,-17.6957,-0.462646,-0.0126422,0.0188783,0.0195636,0.0282402,-0.0220041,1.12447,0.0290829,0.0456697,538,1051,-17.6958,0.462648
-679,-27,-17.0819,0.0447998,-0.00543285,0.0175461,0.0176054,0.0270794,-0.0149662,1.0745,0.0246085,0.0458558,545,1051,-17.0819,-0.0447397
-672,-27,-16.7369,0.680908,-0.000697353,0.0160587,0.0153636,0.0251801,-0.00981879,1.03502,0.0208453,0.0449547,552,1051,-16.7369,-0.680858
-665,-27,-16.3812,1.70386,0.0021702,0.0144061,0.0129946,0.0226509,-0.00607466,1.00541,0.017481,0.0430531,559,1051,-16.3812,-1.70392
-658,-27,-16.7228,1.77966,0.00362019,0.0126014,0.01063,0.0196504,-0.00342879,0.985251,0.0143801,0.0417354,566,1051,-16.7229,-1.7796
-651,-27,-16.8248,1.70093,0.00404859,0.0106737,0.00835769,0.0163514,-0.00162905,0.974076,0.0114825,0.0332171,573,1051,-16.8248,-1.70091
-644,-27,-16.8544,1.64368,0.00397524,0.00881978,0.00592805,0.0128013,-6.33439e-06,0.979352,0.00853635,0.0159353,580,1051,-16.8544,-1.64363
-637,-27,-16.8775,1.66211,0.0038164,0.00671974,0.00311056,0.0087007,0.00183544,1.00372,0.00529576,0.0132627,587,1051,-16.8775,-1.66217
-630,-27,-16.9227,1.77942,0.00306582,0.00510494,0.000392915,0.00517803,0.00299273,1.38688,0.00300163,0.0178474,594,1051,-16.9227,-1.77941
-623,-27,-16.9171,1.81848,0.00198824,0.00394395,-0.00175436,0.00497457,0.000957623,-1.03965,0.00304774,0.0158518,601,1051,-16.9171,-1.81846
-616,-27,-16.8904,1.85583,0.00084253,0.00225309,-0.00392814,0.00553876,-0.00244314,-0.874224,0.00472247,0.0136137,608,1051,-16.8904,-1.85583
-609,-27,-16.903,1.90564,-4.97706e-05,0.000614701,-0.0055717,0.00586406,-0.00529913,-0.815178,0.00644782,0.0140485,615,1051,-16.9029,-1.90567
-602,-27,-16.8997,1.97021,-0.000405363,-9.2386e-05,-0.00694289,0.00669578,-0.00719353,-0.796666,0.00802071,0.0117891,622,1051,-16.8997,-1.97026
-595,-27,-16.9322,2.20874,0,0,0,0,0,0,0,-1,629,1051,-16.9322,-2.20876
-588,-27,-16.9493,1.41553,-0.000438498,-0.000645675,-0.00764125,0.00709986,-0.00818403,-0.77862,0.00883156,0.0146693,636,1051,-16.9493,-1.41548
-581,-27,-16.9323,0.873047,-0.000235351,-0.000644307,-0.00741186,0.00697485,-0.00785451,-0.771608,0.00856676,0.0192836,643,1051,-16.9322,-0.87301
-574,-27,-16.9464,0.921021,-0.000203364,-0.000457076,-0.00679326,0.00646422,-0.00712466,-0.776062,0.00784864,0.0354821,650,1051,-16.9464,-0.921048
-567,-27,-16.9014,0.810791,-0.000234855,-2.6583e-05,-0.00555948,0.00542974,-0.00569118,-0.794763,0.00642125,0.0451105,657,1051,-16.9014,-0.810825
-560,-27,-16.8297,0.665771,-0.000266857,0.000640097,-0.00369648,0.00391081,-0.00353757,-0.846432,0.00430212,0.0463012,664,1051,-16.8297,-0.665721
-553,-27,-16.7582,0.52832,-0.000284059,0.00149578,-0.00124337,0.00213489,-0.000923169,-1.096,0.00181118,0.0430729,671,1051,-16.7582,-0.528356
-546,-27,-16.7785,0.463989,0,0,0,0,0,0,0,-1,678,1051,-16.7785,-0.463965
-539,-27,-17.0452,1.07251,-0.000256226,0.00350897,0.00434915,0.00636549,-0.00311275,0.989655,0.00557865,0.0421346,685,1051,-17.0452,-1.07253
-532,-27,-17.0082,1.22864,-0.00057883,0.00451154,0.00463034,0.0072501,-0.0033174,1.0367,0.00624039,0.0423266,692,1051,-17.0082,-1.22864
-525,-27,0,0,0,0,0,0,0,0,0,-1,699,1051,0,0
-518,-27,0,0,0,0,0,0,0,0,0,-1,706,1051,0,0
-511,-27,0,0,0,0,0,0,0,0,0,-1,713,1051,0,0
-504,-27,0,0,0,0,0,0,0,0,0,-1,720,1051,0,0
-497,-27,0,0,0,0,0,0,0,0,0,-1,727,1051,0,0
-490,-27,0,0,0,0,0,0,0,0,0,-1,734,1051,0,0
-483,-27,0,0,0,0,0,0,0,0,0,-1,741,1051,0,0
-476,-27,0,0,0,0,0,0,0,0,0,-1,748,1051,0,0
-469,-27,0,0,0,0,0,0,0,0,0,-1,755,1051,0,0
-462,-27,0,0,0,0,0,0,0,0,0,-1,762,1051,0,0
-455,-27,0,0,0,0,0,0,0,0,0,-1,769,1051,0,0
-448,-27,0,0,0,0,0,0,0,0,0,-1,776,1051,0,0
-441,-27,0,0,0,0,0,0,0,0,0,-1,783,1051,0,0
-434,-27,0,0,0,0,0,0,0,0,0,-1,790,1051,0,0
-427,-27,0,0,0,0,0,0,0,0,0,-1,797,1051,0,0
-420,-27,0,0,0,0,0,0,0,0,0,-1,804,1051,0,0
-413,-27,0,0,0,0,0,0,0,0,0,-1,811,1051,0,0
-406,-27,0,0,0,0,0,0,0,0,0,-1,818,1051,0,0
-399,-27,0,0,0,0,0,0,0,0,0,-1,825,1051,0,0
-392,-27,0,0,0,0,0,0,0,0,0,-1,832,1051,0,0
-385,-27,0,0,0,0,0,0,0,0,0,-1,839,1051,0,0
-378,-27,0,0,0,0,0,0,0,0,0,-1,846,1051,0,0
-371,-27,0,0,0,0,0,0,0,0,0,-1,853,1051,0,0
-364,-27,0,0,0,0,0,0,0,0,0,-1,860,1051,0,0
-357,-27,0,0,0,0,0,0,0,0,0,-1,867,1051,0,0
-350,-27,0,0,0,0,0,0,0,0,0,-1,874,1051,0,0
-343,-27,0,0,0,0,0,0,0,0,0,-1,881,1051,0,0
-336,-27,0,0,0,0,0,0,0,0,0,-1,888,1051,0,0
-329,-27,0,0,0,0,0,0,0,0,0,-1,895,1051,0,0
-322,-27,0,0,0,0,0,0,0,0,0,-1,902,1051,0,0
-315,-27,0,0,0,0,0,0,0,0,0,-1,909,1051,0,0
-308,-27,0,0,0,0,0,0,0,0,0,-1,916,1051,0,0
-301,-27,0,0,0,0,0,0,0,0,0,-1,923,1051,0,0
-294,-27,0,0,0,0,0,0,0,0,0,-1,930,1051,0,0
-287,-27,0,0,0,0,0,0,0,0,0,-1,937,1051,0,0
-280,-27,0,0,0,0,0,0,0,0,0,-1,944,1051,0,0
-273,-27,0,0,0,0,0,0,0,0,0,-1,951,1051,0,0
-266,-27,0,0,0,0,0,0,0,0,0,-1,958,1051,0,0
-259,-27,0,0,0,0,0,0,0,0,0,-1,965,1051,0,0
-252,-27,0,0,0,0,0,0,0,0,0,-1,972,1051,0,0
-245,-27,0,0,0,0,0,0,0,0,0,-1,979,1051,0,0
-238,-27,0,0,0,0,0,0,0,0,0,-1,986,1051,0,0
-231,-27,0,0,0,0,0,0,0,0,0,-1,993,1051,0,0
-224,-27,0,0,0,0,0,0,0,0,0,-1,1000,1051,0,0
-217,-27,0,0,0,0,0,0,0,0,0,-1,1007,1051,0,0
-210,-27,0,0,0,0,0,0,0,0,0,-1,1014,1051,0,0
-203,-27,0,0,0,0,0,0,0,0,0,-1,1021,1051,0,0
-196,-27,0,0,0,0,0,0,0,0,0,-1,1028,1051,0,0
-189,-27,0,0,0,0,0,0,0,0,0,-1,1035,1051,0,0
-182,-27,0,0,0,0,0,0,0,0,0,-1,1042,1051,0,0
-175,-27,0,0,0,0,0,0,0,0,0,-1,1049,1051,0,0
-168,-27,0,0,0,0,0,0,0,0,0,-1,1056,1051,0,0
-161,-27,0,0,0,0,0,0,0,0,0,-1,1063,1051,0,0
-154,-27,0,0,0,0,0,0,0,0,0,-1,1070,1051,0,0
-147,-27,0,0,0,0,0,0,0,0,0,-1,1077,1051,0,0
-140,-27,0,0,0,0,0,0,0,0,0,-1,1084,1051,0,0
-133,-27,0,0,0,0,0,0,0,0,0,-1,1091,1051,0,0
-126,-27,0,0,0,0,0,0,0,0,0,-1,1098,1051,0,0
-119,-27,0,0,0,0,0,0,0,0,0,-1,1105,1051,0,0
-112,-27,0,0,0,0,0,0,0,0,0,-1,1112,1051,0,0
-105,-27,0,0,0,0,0,0,0,0,0,-1,1119,1051,0,0
-98,-27,0,0,0,0,0,0,0,0,0,-1,1126,1051,0,0
-91,-27,0,0,0,0,0,0,0,0,0,-1,1133,1051,0,0
-84,-27,0,0,0,0,0,0,0,0,0,-1,1140,1051,0,0
-77,-27,0,0,0,0,0,0,0,0,0,-1,1147,1051,0,0
-70,-27,0,0,0,0,0,0,0,0,0,-1,1154,1051,0,0
-63,-27,0,0,0,0,0,0,0,0,0,-1,1161,1051,0,0
-56,-27,0,0,0,0,0,0,0,0,0,-1,1168,1051,0,0
-49,-27,0,0,0,0,0,0,0,0,0,-1,1175,1051,0,0
-42,-27,0,0,0,0,0,0,0,0,0,-1,1182,1051,0,0
-35,-27,0,0,0,0,0,0,0,0,0,-1,1189,1051,0,0
-28,-27,0,0,0,0,0,0,0,0,0,-1,1196,1051,0,0
-21,-27,0,0,0,0,0,0,0,0,0,-1,1203,1051,0,0
-14,-27,0,0,0,0,0,0,0,0,0,-1,1210,1051,0,0
-7,-27,0,0,0,0,0,0,0,0,0,-1,1217,1051,0,0
0,-27,0,0,0,0,0,0,0,0,0,-1,1224,1051,0,0
7,-27,0,0,0,0,0,0,0,0,0,-1,1231,1051,0,0
14,-27,0,0,0,0,0,0,0,0,0,-1,1238,1051,0,0
21,-27,0,0,0,0,0,0,0,0,0,-1,1245,1051,0,0
28,-27,0,0,0,0,0,0,0,0,0,-1,1252,1051,0,0
35,-27,0,0,0,0,0,0,0,0,0,-1,1259,1051,0,0
42,-27,0,0,0,0,0,0,0,0,0,-1,1266,1051,0,0
49,-27,0,0,0,0,0,0,0,0,0,-1,1273,1051,0,0
56,-27,0,0,0,0,0,0,0,0,0,-1,1280,1051,0,0
63,-27,0,0,0,0,0,0,0,0,0,-1,1287,1051,0,0
70,-27,0,0,0,0,0,0,0,0,0,-1,1294,1051,0,0
77,-27,0,0,0,0,0,0,0,0,0,-1,1301,1051,0,0
84,-27,0,0,0,0,0,0,0,0,0,-1,1308,1051,0,0
91,-27,0,0,0,0,0,0,0,0,0,-1,1315,1051,0,0
98,-27,0,0,0,0,0,0,0,0,0,-1,1322,1051,0,0
105,-27,0,0,0,0,0,0,0,0,0,-1,1329,1051,0,0
112,-27,0,0,0,0,0,0,0,0,0,-1,1336,1051,0,0
119,-27,0,0,0,0,0,0,0,0,0,-1,1343,1051,0,0
126,-27,0,0,0,0,0,0,0,0,0,-1,1350,1051,0,0
133,-27,0,0,0,0,0,0,0,0,0,-1,1357,1051,0,0
140,-27,0,0,0,0,0,0,0,0,0,-1,1364,1051,0,0
147,-27,0,0,0,0,0,0,0,0,0,-1,1371,1051,0,0
154,-27,0,0,0,0,0,0,0,0,0,-1,1378,1051,0,0
161,-27,0,0,0,0,0,0,0,0,0,-1,1385,1051,0,0
168,-27,0,0,0,0,0,0,0,0,0,-1,1392,1051,0,0
175,-27,0,0,0,0,0,0,0,0,0,-1,1399,1051,0,0
182,-27,0,0,0,0,0,0,0,0,0,-1,1406,1051,0,0
189,-27,0,0,0,0,0,0,0,0,0,-1,1413,1051,0,0
196,-27,0,0,0,0,0,0,0,0,0,-1,1420,1051,0,0
203,-27,0,0,0,0,0,0,0,0,0,-1,1427,1051,0,0
210,-27,0,0,0,0,0,0,0,0,0,-1,1434,1051,0,0
217,-27,0,0,0,0,0,0,0,0,0,-1,1441,1051,0,0
224,-27,0,0,0,0,0,0,0,0,0,-1,1448,1051,0,0
231,-27,0,0,0,0,0,0,0,0,0,-1,1455,1051,0,0
238,-27,0,0,0,0,0,0,0,0,0,-1,1462,1051,0,0
245,-27,0,0,0,0,0,0,0,0,0,-1,1469,1051,0,0
252,-27,0,0,0,0,0,0,0,0,0,-1,1476,1051,0,0
259,-27,0,0,0,0,0,0,0,0,0,-1,1483,1051,0,0
266,-27,0,0,0,0,0,0,0,0,0,-1,1490,1051,0,0
273,-27,0,0,0,0,0,0,0,0,0,-1,1497,1051,0,0
280,-27,0,0,0,0,0,0,0,0,0,-1,1504,1051,0,0
287,-27,0,0,0,0,0,0,0,0,0,-1,1511,1051,0,0
294,-27,0,0,0,0,0,0,0,0,0,-1,1518,1051,0,0
301,-27,0,0,0,0,0,0,0,0,0,-1,1525,1051,0,0
308,-27,0,0,0,0,0,0,0,0,0,-1,1532,1051,0,0
315,-27,0,0,0,0,0,0,0,0,0,-1,1539,1051,0,0
322,-27,0,0,0,0,0,0,0,0,0,-1,1546,1051,0,0
329,-27,0,0,0,0,0,0,0,0,0,-1,1553,1051,0,0
336,-27,0,0,0,0,0,0,0,0,0,-1,1560,1051,0,0
343,-27,0,0,0,0,0,0,0,0,0,-1,1567,1051,0,0
350,-27,0,0,0,0,0,0,0,0,0,-1,1574,1051,0,0
357,-27,0,0,0,0,0,0,0,0,0,-1,1581,1051,0,0
364,-27,0,0,0,0,0,0,0,0,0,-1,1588,1051,0,0
371,-27,0,0,0,0,0,0,0,0,0,-1,1595,1051,0,0
378,-27,0,0,0,0,0,0,0,0,0,-1,1602,1051,0,0
385,-27,0,0,0,0,0,0,0,0,0,-1,1609,1051,0,0
392,-27,0,0,0,0,0,0,0,0,0,-1,1616,1051,0,0
399,-27,0,0,0,0,0,0,0,0,0,-1,1623,1051,0,0
406,-27,0,0,0,0,0,0,0,0,0,-1,1630,1051,0,0
413,-27,0,0,0,0,0,0,0,0,0,-1,1637,1051,0,0
420,-27,0,0,0,0,0,0,0,0,0,-1,1644,1051,0,0
427,-27,0,0,0,0,0,0,0,0,0,-1,1651,1051,0,0
434,-27,0,0,0,0,0,0,0,0,0,-1,1658,1051,0,0
441,-27,0,0,0,0,0,0,0,0,0,-1,1665,1051,0,0
448,-27,0,0,0,0,0,0,0,0,0,-1,1672,1051,0,0
455,-27,0,0,0,0,0,0,0,0,0,-1,1679,1051,0,0
462,-27,0,0,0,0,0,0,0,0,0,-1,1686,1051,0,0
469,-27,0,0,0,0,0,0,0,0,0,-1,1693,1051,0,0
476,-27,0,0,0,0,0,0,0,0,0,-1,1700,1051,0,0
483,-27,0,0,0,0,0,0,0,0,0,-1,1707,1051,0,0
490,-27,0,0,0,0,0,0,0,0,0,-1,1714,1051,0,0
497,-27,0,0,0,0,0,0,0,0,0,-1,1721,1051,0,0
504,-27,0,0,0,0,0,0,0,0,0,-1,1728,1051,0,0
511,-27,0,0,0,0,0,0,0,0,0,-1,1735,1051,0,0
518,-27,0,0,0,0,0,0,0,0,0,-1,1742,1051,0,0
525,-27,0,0,0,0,0,0,0,0,0,-1,1749,1051,0,0
532,-27,0,0,0,0,0,0,0,0,0,-1,1756,1051,0,0
539,-27,0,0,0,0,0,0,0,0,0,-1,1763,1051,0,0
546,-27,0,0,0,0,0,0,0,0,0,-1,1770,1051,0,0
553,-27,0,0,0,0,0,0,0,0,0,-1,1777,1051,0,0
560,-27,0,0,0,0,0,0,0,0,0,-1,1784,1051,0,0
567,-27,0,0,0,0,0,0,0,0,0,-1,1791,1051,0,0
574,-27,0,0,0,0,0,0,0,0,0,-1,1798,1051,0,0
581,-27,0,0,0,0,0,0,0,0,0,-1,1805,1051,0,0
588,-27,0,0,0,0,0,0,0,0,0,-1,1812,1051,0,0
595,-27,0,0,0,0,0,0,0,0,0,-1,1819,1051,0,0
602,-27,0,0,0,0,0,0,0,0,0,-1,1826,1051,0,0
609,-27,0,0,0,0,0,0,0,0,0,-1,1833,1051,0,0
616,-27,0,0,0,0,0,0,0,0,0,-1,1840,1051,0,0
623,-27,0,0,0,0,0,0,0,0,0,-1,1847,1051,0,0
630,-27,0,0,0,0,0,0,0,0,0,-1,1854,1051,0,0
637,-27,0,0,0,0,0,0,0,0,0,-1,1861,1051,0,0
644,-27,0,0,0,0,0,0,0,0,0,-1,1868,1051,0,0
651,-27,24.8933,2.62134,-0.00622499,0.00130693,0.000926322,0.00141918,-0.00633724,1.4502,0.00476881,0.0416699,1875,1051,24.8932,-2.62132
658,-27,24.8187,2.98218,-0.00478852,0.0011766,0.000697475,0.00125707,-0.00486898,1.45593,0.00373618,0.041728,1882,1051,24.8187,-2.98221
665,-27,24.7452,2.96631,-0.00372834,0.00101711,0.000534654,0.0010766,-0.00378783,1.45998,0.00295031,0.0372535,1889,1051,24.7452,-2.96635
672,-27,24.6754,2.85059,-0.00276781,0.000848201,0.00101062,0.00111149,-0.00303109,1.31594,0.00247583,0.02871,1896,1051,24.6754,-2.85062
679,-27,24.7317,2.75452,-0.00207922,0.00047162,0.00219679,0.00173639,-0.00334399,1.04841,0.00298171,0.0287902,1903,1051,24.7316,-2.7545
686,-27,24.8611,2.54272,-0.0016295,9.15813e-06,0.00340464,0.00269166,-0.004312,0.903478,0.00407948,0.0407235,1910,1051,24.8611,-2.5427
693,-27,24.9309,2.42188,0,0,0,0,0,0,0,-1,1917,1051,24.9309,-2.42192
700,-27,24.8391,2.71912,-0.00111973,-0.000853985,0.00533699,0.00435178,-0.0063255,0.797844,0.00619954,0.0392723,1924,1051,24.8391,-2.7191
707,-27,24.7656,2.72241,-0.00103042,-0.00108965,0.00586807,0.00480811,-0.00692819,0.782875,0.00681271,0.0245513,1931,1051,24.7656,-2.72236
714,-27,24.7847,2.82153,-0.000997909,-0.00121253,0.00616613,0.00506185,-0.00727229,0.776697,0.00715913,0.0191002,1938,1051,24.7846,-2.82149
721,-27,24.8165,2.98767,0,0,0,0,0,0,0,-1,1945,1051,24.8165,-2.98773
728,-27,24.3923,4.26514,0,0,0,0,0,0,0,-1,1952,1051,24.3923,-4.26511
735,-27,24.3181,4.32153,-0.00137695,-0.000714095,0.00563814,0.00460235,-0.00669339,0.814756,0.00655874,0.0182404,1959,1051,24.3181,-4.32152
742,-27,24.3077,4.33594,-0.0018889,-0.000331136,0.00479253,0.00374539,-0.00596542,0.865954,0.00565517,0.0172348,1966,1051,24.3078,-4.3359
749,-27,24.3773,4.30408,-0.00217442,1.64286e-05,0.00337242,0.00246687,-0.00462486,0.942432,0.00415712,0.0132458,1973,1051,24.3773,-4.30404
756,-27,24.3768,4.28271,-0.00224484,0.000866095,0.00180646,0.00169448,-0.00307322,1.14084,0.00279074,0.0120162,1980,1051,24.3769,-4.28268
763,-27,24.3518,4.25598,-0.00244154,0.00153816,-0.000104864,0.00154092,-0.0024443,-1.54447,0.00232049,0.0131798,1987,1051,24.3518,-4.25599
770,-27,24.3199,4.22815,-0.00270656,0.00236033,-0.00255874,0.00342765,-0.00377388,-1.17561,0.0041594,0.0144365,1994,1051,24.3199,-4.2281
777,-27,24.2775,4.24829,-0.00284599,0.00317226,-0.00509291,0.00607859,-0.00575231,-1.05223,0.00683144,0.015513,2001,1051,24.2774,-4.24833
784,-27,24.2218,4.25098,-0.00301541,0.00360572,-0.00718843,0.00820928,-0.00761897,-1.00119,0.00914056,0.0245907,2008,1051,24.2218,-4.25102
791,-27,24.0699,4.12476,-0.00314339,0.00372479,-0.00942855,0.0103252,-0.00974377,-0.960043,0.0115884,0.0426059,2015,1051,24.0699,-4.12476
798,-27,24.0682,3.66724,-0.00312502,0.00346458,-0.0118914,0.0125091,-0.0121696,-0.920545,0.0142487,0.0467601,2022,1051,24.0682,-3.66723
805,-27,24.4104,3.50659,-0.00301479,0.00276441,-0.0144478,0.0146087,-0.0148591,-0.884098,0.0170134,0.04359,2029,1051,24.4104,-3.50657
812,-27,24.334,3.29395,-0.0032264,0.00148985,-0.0168399,0.0161359,-0.0178724,-0.854962,0.0196433,0.0435412,2036,1051,24.3339,-3.29392
-700,-34,-16.6888,-0.465332,-0.0255478,0.00991988,0.0149808,0.0154006,-0.0310285,1.22007,0.0273073,0.0445055,524,1058,-16.6888,0.465303
-693,-34,-16.9719,-0.481323,-0.0123034,0.0106638,0.0153657,0.018363,-0.0200026,1.1063,0.0221571,0.0464862,531,1058,-16.972,0.481374
-686,-34,-17.442,-0.552734,-0.00350406,0.0112141,0.0150053,0.0205678,-0.0128577,1.01338,0.0194686,0.0460861,538,1058,-17.442,0.552735
-679,-34,-17.2268,-0.321655,0.00212671,0.0114341,0.0140494,0.0215805,-0.00801965,0.94533,0.0176773,0.0445528,545,1058,-17.2268,0.321609
-672,-34,-17.1604,0.356079,0.00545438,0.011284,0.0126979,0.0213973,-0.00465894,0.898219,0.0160449,0.0445828,552,1058,-17.1604,-0.356035
-665,-34,-16.9549,0.802979,0.00707559,0.0107521,0.0110794,0.0201447,-0.00231707,0.867606,0.014265,0.0446284,559,1058,-16.9549,-0.80296
-658,-34,-16.5169,2.02454,0.00744026,0.00986359,0.00931701,0.0180474,-0.000743544,0.850059,0.0122869,0.0434476,566,1058,-16.5169,-2.02456
-651,-34,-16.7447,1.67456,0.00694724,0.00866692,0.00751232,0.0153685,0.000245712,0.842379,0.0101647,0.0275606,573,1058,-16.7447,-1.6746
-644,-34,-16.8376,1.59863,0.00606862,0.00738155,0.00542698,0.0121916,0.00125854,0.845587,0.00774241,0.012157,580,1058,-16.8376,-1.59858
-637,-34,-16.8563,1.62671,0.00514076,0.005732,0.0028222,0.00827403,0.00259874,0.837582,0.00488585,0.013395,587,1058,-16.8563,-1.62666
-630,-34,-16.8692,1.72327,0.00379237,0.00442661,0.000245881,0.00451076,0.00370821,1.24103,0.00277857,0.0156136,594,1058,-16.8692,-1.72331
-623,-34,-16.8475,1.79443,0.00227793,0.00340909,-0.00177297,0.0047045,0.000982521,-0.939797,0.00286554,0.0125179,601,1058,-16.8475,-1.79442
-616,-34,-16.8198,1.8855,0.000846651,0.00172964,-0.00394268,0.00525546,-0.00267918,-0.841155,0.00466086,0.0189379,608,1058,-16.8198,-1.88552
-609,-34,-16.827,1.94714,-0.000291446,9.83305e-05,-0.00572878,0.00563554,-0.00582865,-0.802401,0.00661916,0.0193334,615,1058,-16.827,-1.94718
-602,-34,-16.8449,1.98474,-0.000798879,-0.000665355,-0.00720614,0.00647433,-0.00793856,-0.79003,0.00833559,0.0149158,622,1058,-16.8449,-1.98475
-595,-34,-16.8987,2.15552,0,0,0,0,0,0,0,-1,629,1058,-16.8988,-2.15553
-588,-34,-16.9314,1.42334,-0.000921071,-0.00135723,-0.00800815,0.00687197,-0.00915027,-0.771785,0.00928157,0.0193786,636,1058,-16.9314,-1.42328
-581,-34,-16.9283,0.856445,-0.000665488,-0.00138389,-0.0077749,0.0067585,-0.00880788,-0.762314,0.00901318,0.0212908,643,1058,-16.9283,-0.856418
-574,-34,-16.8973,0.925171,-0.000559368,-0.00122405,-0.00717201,0.00628799,-0.00807141,-0.762245,0.00831169,0.036858,650,1058,-16.8973,-0.925214
-567,-34,-16.8668,0.910156,-0.000448688,-0.000796208,-0.00591521,0.00529531,-0.00654021,-0.770715,0.00684583,0.0431059,657,1058,-16.8668,-0.910188
-560,-34,-16.8621,0.717651,-0.000268462,-9.88885e-05,-0.00396478,0.00378201,-0.00414936,-0.796089,0.00458082,0.0421509,664,1058,-16.8621,-0.717645
-553,-34,-16.8252,0.52063,1.63717e-06,0.000831203,-0.00133188,0.00181139,-0.000978554,-0.936351,0.00163453,0.0431445,671,1058,-16.8252,-0.520689
-546,-34,-16.985,0.674561,0.000364982,0.00193524,0.00195029,0.00325251,-0.000952286,0.976758,0.00254584,0.0441425,678,1058,-16.985,-0.674526
-539,-34,-17.0832,1.1239,0.000773229,0.00308662,0.0049779,0.00704045,-0.0031806,0.899555,0.00603976,0.0442784,685,1058,-17.0832,-1.12391
-532,-34,-17.0256,1.19421,0.000760033,0.00414087,0.00571314,0.00840842,-0.00350752,0.929236,0.00707097,0.0421358,692,1058,-17.0256,-1.1942
-525,-34,0,0,0,0,0,0,0,0,0,-1,699,1058,0,0
-518,-34,0,0,0,0,0,0,0,0,0,-1,706,1058,0,0
-511,-34,0,0,0,0,0,0,0,0,0,-1,713,1058,0,0
-504,-34,0,0,0,0,0,0,0,0,0,-1,720,1058,0,0
-497,-34,0,0,0,0,0,0,0,0,0,-1,727,1058,0,0
-490,-34,0,0,0,0,0,0,0,0,0,-1,734,1058,0,0
-483,-34,0,0,0,0,0,0,0,0,0,-1,741,1058,0,0
-476,-34,0,0,0,0,0,0,0,0,0,-1,748,1058,0,0
-469,-34,0,0,0,0,0,0,0,0,0,-1,755,1058,0,0
-462,-34,0,0,0,0,0,0,0,0,0,-1,762,1058,0,0
-455,-34,0,0,0,0,0,0,0,0,0,-1,769,1058,0,0
-448,-34,0,0,0,0,0,0,0,0,0,-1,776,1058,0,0
-441,-34,0,0,0,0,0,0,0,0,0,-1,783,1058,0,0
-434,-34,0,0,0,0,0,0,0,0,0,-1,790,1058,0,0
-427,-34,0,0,0,0,0,0,0,0,0,-1,797,1058,0,0
-420,-34,0,0,0,0,0,0,0,0,0,-1,804,1058,0,0
-413,-34,0,0,0,0,0,0,0,0,0,-1,811,1058,0,0
-406,-34,0,0,0,0,0,0,0,0,0,-1,818,1058,0,0
-399,-34,0,0,0,0,0,0,0,0,0,-1,825,1058,0,0
-392,-34,0,0,0,0,0,0,0,0,0,-1,832,1058,0,0
-385,-34,0,0,0,0,0,0,0,0,0,-1,839,1058,0,0
-378,-34,0,0,0,0,0,0,0,0,0,-1,846,1058,0,0
-371,-34,0,0,0,0,0,0,0,0,0,-1,853,1058,0,0
-364,-34,0,0,0,0,0,0,0,0,0,-1,860,1058,0,0
-357,-34,0,0,0,0,0,0,0,0,0,-1,867,1058,0,0
-350,-34,0,0,0,0,0,0,0,0,0,-1,874,1058,0,0
-343,-34,0,0,0,0,0,0,0,0,0,-1,881,1058,0,0
-336,-34,0,0,0,0,0,0,0,0,0,-1,888,1058,0,0
-329,-34,0,0,0,0,0,0,0,0,0,-1,895,1058,0,0
-322,-34,0,0,0,0,0,0,0,0,0,-1,902,1058,0,0
-315,-34,0,0,0,0,0,0,0,0,0,-1,909,1058,0,0
-308,-34,0,0,0,0,0,0,0,0,0,-1,916,1058,0,0
-301,-34,0,0,0,0,0,0,0,0,0,-1,923,1058,0,0
-294,-34,0,0,0,0,0,0,0,0,0,-1,930,1058,0,0
-287,-34,0,0,0,0,0,0,0,0,0,-1,937,1058,0,0
-280,-34,0,0,0,0,0,0,0,0,0,-1,944,1058,0,0
-273,-34,0,0,0,0,0,0,0,0,0,-1,951,1058,0,0
-266,-34,0,0,0,0,0,0,0,0,0,-1,958,1058,0,0
-259,-34,0,0,0,0,0,0,0,0,0,-1,965,1058,0,0
-252,-34,0,0,0,0,0,0,0,0,0,-1,972,1058,0,0
-245,-34,0,0,0,0,0,0,0,0,0,-1,979,1058,0,0
-238,-34,0,0,0,0,0,0,0,0,0,-1,986,1058,0,0
-231,-34,0,0,0,0,0,0,0,0,0,-1,993,1058,0,0
-224,-34,0,0,0,0,0,0,0,0,0,-1,1000,1058,0,0
-217,-34,0,0,0,0,0,0,0,0,0,-1,1007,1058,0,0
-210,-34,0,0,0,0,0,0,0,0,0,-1,1014,1058,0,0
-203,-34,0,0,0,0,0,0,0,0,0,-1,1021,1058,0,0
-196,-34,0,0,0,0,0,0,0,0,0,-1,1028,1058,0,0
-189,-34,0,0,0,0,0,0,0,0,0,-1,1035,1058,0,0
-182,-34,0,0,0,0,0,0,0,0,0,-1,1042,1058,0,0
-175,-34,0,0,0,0,0,0,0,0,0,-1,1049,1058,0,0
-168,-34,0,0,0,0,0,0,0,0,0,-1,1056,1058,0,0
-161,-34,0,0,0,0,0,0,0,0,0,-1,1063,1058,0,0
-154,-34,0,0,0,0,0,0,0,0,0,-1,1070,1058,0,0
-147,-34,0,0,0,0,0,0,0,0,0,-1,1077,1058,0,0
-140,-34,0,0,0,0,0,0,0,0,0,-1,1084,1058,0,0
-133,-34,0,0,0,0,0,0,0,0,0,-1,1091,1058,0,0
-126,-34,0,0,0,0,0,0,0,0,0,-1,1098,1058,0,0
-119,-34,0,0,0,0,0,0,0,0,0,-1,1105,1058,0,0
-112,-34,0,0,0,0,0,0,0,0,0,-1,1112,1058,0,0
-105,-34,0,0,0,0,0,0,0,0,0,-1,1119,1058,0,0
-98,-34,0,0,0,0,0,0,0,0,0,-1,1126,1058,0,0
-91,-34,0,0,0,0,0,0,0,0,0,-1,1133,1058,0,0
-84,-34,0,0,0,0,0,0,0,0,0,-1,1140,1058,0,0
-77,-34,0,0,0,0,0,0,0,0,0,-1,1147,1058,0,0
-70,-34,0,0,0,0,0,0,0,0,0,-1,1154,1058,0,0
-63,-34,0,0,0,0,0,0,0,0,0,-1,1161,1058,0,0
-56,-34,0,0,0,0,0,0,0,0,0,-1,1168,1058,0,0
-49,-34,0,0,0,0,0,0,0,0,0,-1,1175,1058,0,0
-42,-34,0,0,0,0,0,0,0,0,0,-1,1182,1058,0,0
-35,-34,0,0,0,0,0,0,0,0,0,-1,1189,1058,0,0
-28,-34,0,0,0,0,0,0,0,0,0,-1,1196,1058,0,0
-21,-34,0,0,0,0,0,0,0,0,0,-1,1203,1058,0,0
-14,-34,0,0,0,0,0,0,0,0,0,-1,1210,1058,0,0
-7,-34,0,0,0,0,0,0,0,0,0,-1,1217,1058,0,0
0,-34,0,0,0,0,0,0,0,0,0,-1,1224,1058,0,0
7,-34,0,0,0,0,0,0,0,0,0,-1,1231,1058,0,0
14,-34,0,0,0,0,0,0,0,0,0,-1,1238,1058,0,0
21,-34,0,0,0,0,0,0,0,0,0,-1,1245,1058,0,0
28,-34,0,0,0,0,0,0,0,0,0,-1,1252,1058,0,0
35,-34,0,0,0,0,0,0,0,0,0,-1,1259,1058,0,0
42,-34,0,0,0,0,0,0,0,0,0,-1,1266,1058,0,0
49,-34,0,0,0,0,0,0,0,0,0,-1,1273,1058,0,0
56,-34,0,0,0,0,0,0,0,0,0,-1,1280,1058,0,0
63,-34,0,0,0,0,0,0,0,0,0,-1,1287,1058,0,0
70,-34,0,0,0,0,0,0,0,0,0,-1,1294,1058,0,0
77,-34,0,0,0,0,0,0,0,0,0,-1,1301,1058,0,0
84,-34,0,0,0,0,0,0,0,0,0,-1,1308,1058,0,0
91,-34,0,0,0,0,0,0,0,0,0,-1,1315,1058,0,0
98,-34,0,0,0,0,0,0,0,0,0,-1,1322,1058,0,0
105,-34,0,0,0,0,0,0,0,0,0,-1,1329,1058,0,0
112,-34,0,0,0,0,0,0,0,0,0,-1,1336,1058,0,0
119,-34,0,0,0,0,0,0,0,0,0,-1,1343,1058,0,0
126,-34,0,0,0,0,0,0,0,0,0,-1,1350,1058,0,0
133,-34,0,0,0,0,0,0,0,0,0,-1,1357,1058,0,0
140,-34,0,0,0,0,0,0,0,0,0,-1,1364,1058,0,0
147,-34,0,0,0,0,0,0,0,0,0,-1,1371,1058,0,0
154,-34,0,0,0,0,0,0,0,0,0,-1,1378,1058,0,0
161,-34,0,0,0,0,0,0,0,0,0,-1,1385,1058,0,0
168,-34,0,0,0,0,0,0,0,0,0,-1,1392,1058,0,0
175,-34,0,0,0,0,0,0,0,0,0,-1,1399,1058,0,0
182,-34,0,0,0,0,0,0,0,0,0,-1,1406,1058,0,0
189,-34,0,0,0,0,0,0,0,0,0,-1,1413,1058,0,0
196,-34,0,0,0,0,0,0,0,0,0,-1,1420,1058,0,0
203,-34,0,0,0,0,0,0,0,0,0,-1,1427,1058,0,0
210,-34,0,0,0,0,0,0,0,0,0,-1,1434,1058,0,0
217,-34,0,0,0,0,0,0,0,0,0,-1,1441,1058,0,0
224,-34,0,0,0,0,0,0,0,0,0,-1,1448,1058,0,0
231,-34,0,0,0,0,0,0,0,0,0,-1,1455,1058,0,0
238,-34,0,0,0,0,0,0,0,0,0,-1,1462,1058,0,0
245,-34,0,0,0,0,0,0,0,0,0,-1,1469,1058,0,0
252,-34,0,0,0,0,0,0,0,0,0,-1,1476,1058,0,0
259,-34,0,0,0,0,0,0,0,0,0,-1,1483,1058,0,0
266,-34,0,0,0,0,0,0,0,0,0,-1,1490,1058,0,0
273,-34,0,0,0,0,0,0,0,0,0,-1,1497,1058,0,0
280,-34,0,0,0,0,0,0,0,0,0,-1,1504,1058,0,0
287,-34,0,0,0,0,0,0,0,0,0,-1,1511,1058,0,0
294,-34,0,0,0,0,0,0,0,0,0,-1,1518,1058,0,0
301,-34,0,0,0,0,0,0,0,0,0,-1,1525,1058,0,0
308,-34,0,0,0,0,0,0,0,0,0,-1,1532,1058,0,0
315,-34,0,0,0,0,0,0,0,0,0,-1,1539,1058,0,0
322,-34,0,0,0,0,0,0,0,0,0,-1,1546,1058,0,0
329,-34,0,0,0,0,0,0,0,0,0,-1,1553,1058,0,0
336,-34,0,0,0,0,0,0,0,0,0,-1,1560,1058,0,0
343,-34,0,0,0,0,0,0,0,0,0,-1,1567,1058,0,0
350,-34,0,0,0,0,0,0,0,0,0,-1,1574,1058,0,0
357,-34,0,0,0,0,0,0,0,0,0,-1,1581,1058,0,0
364,-34,0,0,0,0,0,0,0,0,0,-1,1588,1058,0,0
371,-34,0,0,0,0,0,0,0,0,0,-1,1595,1058,0,0
378,-34,0,0,0,0,0,0,0,0,0,-1,1602,1058,0,0
385,-34,0,0,0,0,0,0,0,0,0,-1,1609,1058,0,0
392,-34,0,0,0,0,0,0,0,0,0,-1,1616,1058,0,0
399,-34,0,0,0,0,0,0,0,0,0,-1,1623,1058,0,0
406,-34,0,0,0,0,0,0,0,0,0,-1,1630,1058,0,0
413,-34,0,0,0,0,0,0,0,0,0,-1,1637,1058,0,0
420,-34,0,0,0,0,0,0,0,0,0,-1,1644,1058,0,0
427,-34,0,0,0,0,0,0,0,0,0,-1,1651,1058,0,0
434,-34,0,0,0,0,0,0,0,0,0,-1,1658,1058,0,0
441,-34,0,0,0,0,0,0,0,0,0,-1,1665,1058,0,0
448,-34,0,0,0,0,0,0,0,0,0,-1,1672,1058,0,0
455,-34,0,0,0,0,0,0,0,0,0,-1,1679,1058,0,0
462,-34,0,0,0,0,0,0,0,0,0,-1,1686,1058,0,0
469,-34,0,0,0,0,0,0,0,0,0,-1,1693,1058,0,0
476,-34,0,0,0,0,0,0,0,0,0,-1,1700,1058,0,0
483,-34,0,0,0,0,0,0,0,0,0,-1,1707,1058,0,0
490,-34,0,0,0,0,0,0,0,0,0,-1,1714,1058,0,0
497,-34,0,0,0,0,0,0,0,0,0,-1,1721,1058,0,0
504,-34,0,0,0,0,0,0,0,0,0,-1,1728,1058,0,0
511,-34,0,0,0,0,0,0,0,0,0,-1,1735,1058,0,0
518,-34,0,0,0,0,0,0,0,0,0,-1,1742,1058,0,0
525,-34,0,0,0,0,0,0,0,0,0,-1,1749,1058,0,0
532,-34,0,0,0,0,0,0,0,0,0,-1,1756,1058,0,0
539,-34,0,0,0,0,0,0,0,0,0,-1,1763,1058,0,0
546,-34,0,0,0,0,0,0,0,0,0,-1,1770,1058,0,0
553,-34,0,0,0,0,0,0,0,0,0,-1,1777,1058,0,0
560,-34,0,0,0,0,0,0,0,0,0,-1,1784,1058,0,0
567,-34,0,0,0,0,0,0,0,0,0,-1,1791,1058,0,0
574,-34,0,0,0,0,0,0,0,0,0,-1,1798,1058,0,0
581,-34,0,0,0,0,0,0,0,0,0,-1,1805,1058,0,0
588,-34,0,0,0,0,0,0,0,0,0,-1,1812,1058,0,0
595,-34,0,0,0,0,0,0,0,0,0,-1,1819,1058,0,0
602,-34,0,0,0,0,0,0,0,0,0,-1,1826,1058,0,0
609,-34,0,0,0,0,0,0,0,0,0,-1,1833,1058,0,0
616,-34,0,0,0,0,0,0,0,0,0,-1,1840,1058,0,0
623,-34,0,0,0,0,0,0,0,0,0,-1,1847,1058,0,0
630,-34,0,0,0,0,0,0,0,0,0,-1,1854,1058,0,0
637,-34,0,0,0,0,0,0,0,0,0,-1,1861,1058,0,0
644,-34,0,0,0,0,0,0,0,0,0,-1,1868,1058,0,0
651,-34,24.9437,2.68469,-0.00656783,4.90297e-05,0.00143555,0.000347055,-0.00686585,1.3661,0.0046972,0.040921,1875,1058,24.9437,-2.68469
658,-34,24.8127,2.8656,-0.00503078,0.0002748,0.00110662,0.000496363,-0.00525234,1.37319,0.0036782,0.0418577,1882,1058,24.8128,-2.86561
665,-34,24.6705,2.91431,-0.00386633,0.000373436,0.000862531,0.000542191,-0.00403508,1.37759,0.0028878,0.0406258,1889,1058,24.6706,-2.91432
672,-34,24.7107,2.85901,-0.00280642,0.000372867,0.00128278,0.000825891,-0.00325944,1.23131,0.00249426,0.0378075,1896,1058,24.7106,-2.859
679,-34,24.7511,2.82385,-0.00198766,9.64108e-05,0.00242443,0.00169325,-0.00358451,0.988366,0.00311165,0.0375078,1903,1058,24.7511,-2.82391
686,-34,24.7942,2.77686,-0.00142741,-0.000313272,0.00360079,0.00277329,-0.00451397,0.862143,0.00424712,0.0429149,1910,1058,24.7942,-2.77686
693,-34,24.8658,2.68884,-0.0010249,-0.000754274,0.00466272,0.0037751,-0.00555427,0.799904,0.00541887,0.043187,1917,1058,24.8658,-2.68882
700,-34,24.7845,2.7196,-0.000769423,-0.00111812,0.00547946,0.00453846,-0.006426,0.769494,0.00636152,0.038688,1924,1058,24.7845,-2.71955
707,-34,24.7441,2.74561,-0.000641013,-0.00133626,0.00598845,0.00500989,-0.00698716,0.756406,0.00695779,0.0248989,1931,1058,24.7442,-2.7456
714,-34,24.7709,2.82092,-0.000565639,-0.00143077,0.00626111,0.00527784,-0.00727424,0.750909,0.00727744,0.0175971,1938,1058,24.7709,-2.82093
721,-34,24.8383,3.41748,0,0,0,0,0,0,0,-1,1945,1058,24.8382,-3.41752
728,-34,24.585,4.02209,0,0,0,0,0,0,0,-1,1952,1058,24.585,-4.02204
735,-34,24.291,4.36963,-0.00100147,-0.000912718,0.0056932,0.00473628,-0.00665047,0.789296,0.00660504,0.0160107,1959,1058,24.291,-4.36966
742,-34,24.2703,4.33911,-0.00161384,-0.000496465,0.00492086,0.00389732,-0.00600763,0.841923,0.00576172,0.0154935,1966,1058,24.2703,-4.33914
749,-34,24.3125,4.31506,-0.00209274,-0.000162229,0.00354295,0.0025446,-0.00479957,0.918392,0.00430627,0.0132836,1973,1058,24.3125,-4.31501
756,-34,24.3324,4.29211,-0.00242156,0.000759298,0.00196109,0.00169381,-0.00335607,1.1261,0.00296773,0.0102046,1980,1058,24.3323,-4.29216
763,-34,24.3086,4.25037,-0.00288935,0.00148426,8.12852e-05,0.00148577,-0.00289086,1.55222,0.00256989,0.0107553,1987,1058,24.3087,-4.25031
770,-34,24.2664,4.20642,-0.00356878,0.00237577,-0.00234761,0.00319107,-0.00438408,-1.23654,0.00439155,0.0151272,1994,1058,24.2664,-4.20639
777,-34,24.236,4.19128,-0.00427283,0.00328241,-0.00486277,0.00566246,-0.00665288,-1.11563,0.00711793,0.016511,2001,1058,24.2359,-4.19133
784,-34,24.1531,4.15942,-0.00509549,0.00381681,-0.00697355,0.00763639,-0.00891507,-1.0697,0.00956549,0.0322655,2008,1058,24.1531,-4.1594
791,-34,23.849,4.2323,-0.00599551,0.00410636,-0.00930801,0.00964557,-0.0115347,-1.03399,0.0122446,0.0437907,2015,1058,23.849,-4.23228
798,-34,23.6001,4.21021,-0.0068991,0.0041029,-0.0119601,0.0117664,-0.0145626,-1.00095,0.0152296,0.0485634,2022,1058,23.6001,-4.21026
805,-34,23.4937,3.58154,-0.00785209,0.00377915,-0.0148418,0.013904,-0.017977,-0.972125,0.0184565,0.0465473,2029,1058,23.4937,-3.58157
812,-34,23.5876,3.28516,-0.00924237,0.00303422,-0.0177378,0.0156658,-0.021874,-0.951977,0.0217722,0.0482873,2036,1058,23.5877,-3.28514
-700,-41,-17.0436,-0.607544,-0.0137665,0.00297259,0.012784,0.00988313,-0.020677,1.07523,0.018007,0.0440605,524,1065,-17.0437,0.607581
-693,-41,-17.2125,-0.629883,-0.0023647,0.00462869,0.0128259,0.014426,-0.012162,0.918478,0.0153691,0.0423474,531,1065,-17.2124,0.629897
-686,-41,-17.3297,-0.442017,0.00479963,0.00609994,0.0125511,0.0180177,-0.00711812,0.811275,0.01496,0.0434298,538,1065,-17.3296,0.442048
-679,-41,-17.3268,-0.172485,0.00896747,0.00718681,0.0118851,0.0199956,-0.0038413,0.748012,0.0147782,0.0450279,545,1065,-17.3268,0.17252
-672,-41,-17.2236,0.178711,0.0109857,0.00782429,0.0109063,0.0204253,-0.00161527,0.713431,0.014186,0.0428919,552,1065,-17.2237,-0.178764
-665,-41,-16.9324,0.562134,0.0114493,0.00798621,0.00967652,0.019548,-0.000112471,0.696864,0.0130696,0.0413826,559,1065,-16.9324,-0.562184
-658,-41,-16.6577,1.02576,0.0108115,0.0076949,0.0082764,0.017675,0.00083139,0.692345,0.0115162,0.0415117,566,1065,-16.6577,-1.02574
-651,-41,-16.6085,1.39795,0.00948027,0.00700223,0.00679472,0.015148,0.00133448,0.695214,0.00968455,0.0286232,573,1065,-16.6085,-1.39791
-644,-41,-16.7721,1.55188,0.00786506,0.00613301,0.00497525,0.0120491,0.00194897,0.699228,0.00746833,0.0130497,580,1065,-16.7721,-1.55184
-637,-41,-16.7861,1.60645,0.00621918,0.00475956,0.00250275,0.00809636,0.00288238,0.64353,0.00473861,0.0137935,587,1065,-16.7861,-1.60641
-630,-41,-16.8,1.69287,0.00433433,0.00368801,5.96402e-05,0.00433979,0.00368256,0.0912498,0.0027009,0.0125938,594,1065,-16.8001,-1.69286
-623,-41,-16.7705,1.77612,0.00241683,0.0027835,-0.00177553,0.00438514,0.000815198,-0.836844,0.00269314,0.0113071,601,1065,-16.7705,-1.77614
-616,-41,-16.7615,1.87659,0.000708432,0.00119254,-0.0038799,0.00483792,-0.00293695,-0.816551,0.00453333,0.0149232,608,1065,-16.7615,-1.87665
-609,-41,-16.7512,1.96741,-0.000596528,-0.000352982,-0.00578329,0.00530981,-0.00625932,-0.795925,0.00668694,0.020964,615,1065,-16.7511,-1.96743
-602,-41,-16.7689,1.99365,-0.00121971,-0.001163,-0.0073393,0.006148,-0.00853071,-0.78733,0.0085119,0.012941,622,1065,-16.7689,-1.99364
-595,-41,-16.8416,2.07654,0,0,0,0,0,0,0,-1,629,1065,-16.8416,-2.07653
-588,-41,-16.8946,1.44324,-0.00143671,-0.0019453,-0.00823486,0.00654778,-0.00992979,-0.769963,0.0095799,0.0244593,636,1065,-16.8946,-1.44323
-581,-41,-16.917,0.819092,-0.00112843,-0.0019843,-0.00798213,0.00643723,-0.00954996,-0.758618,0.00928834,0.0332185,643,1065,-16.917,-0.819032
-574,-41,-16.8678,0.883057,-0.000941572,-0.00184582,-0.00738345,0.00600358,-0.00879098,-0.754819,0.00859203,0.0385171,650,1065,-16.8678,-0.883109
-567,-41,-16.8483,0.960205,-0.000672993,-0.00142439,-0.00609098,0.00505386,-0.00715124,-0.754597,0.00708122,0.0435238,657,1065,-16.8483,-0.96016
-560,-41,-16.8058,0.782349,-0.000254022,-0.000713456,-0.00403326,0.00355606,-0.00452354,-0.756951,0.00467589,0.0410007,664,1065,-16.8058,-0.782408
-553,-41,-16.7978,0.609985,0.000340176,0.000257862,-0.00118655,0.00148629,-0.000888249,-0.768062,0.00138536,0.0412329,671,1065,-16.7978,-0.610043
-546,-41,-16.8607,0.75769,0.00112328,0.00144297,0.00246413,0.00375244,-0.00118619,0.817787,0.00297687,0.0413708,678,1065,-16.8607,-0.757653
-539,-41,-16.8691,1.00842,0.00196522,0.00266365,0.0059926,0.0083172,-0.00368833,0.814503,0.00710105,0.0421003,685,1065,-16.8691,-1.00842
-532,-41,-16.8763,1.04736,0.0023254,0.00368268,0.007332,0.0103674,-0.0043593,0.831546,0.00873513,0.0405311,692,1065,-16.8763,-1.0474
-525,-41,0,0,0,0,0,0,0,0,0,-1,699,1065,0,0
-518,-41,0,0,0,0,0,0,0,0,0,-1,706,1065,0,0
-511,-41,0,0,0,0,0,0,0,0,0,-1,713,1065,0,0
-504,-41,0,0,0,0,0,0,0,0,0,-1,720,1065,0,0
-497,-41,0,0,0,0,0,0,0,0,0,-1,727,1065,0,0
-490,-41,0,0,0,0,0,0,0,0,0,-1,734,1065,0,0
-483,-41,0,0,0,0,0,0,0,0,0,-1,741,1065,0,0
-476,-41,0,0,0,0,0,0,0,0,0,-1,748,1065,0,0
-469,-41,0,0,0,0,0,0,0,0,0,-1,755,1065,0,0
-462,-41,0,0,0,0,0,0,0,0,0,-1,762,1065,0,0
-455,-41,0,0,0,0,0,0,0,0,0,-1,769,1065,0,0
-448,-41,0,0,0,0,0,0,0,0,0,-1,776,1065,0,0
-441,-41,0,0,0,0,0,0,0,0,0,-1,783,1065,0,0
-434,-41,0,0,0,0,0,0,0,0,0,-1,790,1065,0,0
-427,-41,0,0,0,0,0,0,0,0,0,-1,797,1065,0,0
-420,-41,0,0,0,0,0,0,0,0,0,-1,804,1065,0,0
-413,-41,0,0,0,0,0,0,0,0,0,-1,811,1065,0,0
-406,-41,0,0,0,0,0,0,0,0,0,-1,818,1065,0,0
-399,-41,0,0,0,0,0,0,0,0,0,-1,825,1065,0,0
-392,-41,0,0,0,0,0,0,0,0,0,-1,832,1065,0,0
-385,-41,0,0,0,0,0,0,0,0,0,-1,839,1065,0,0
-378,-41,0,0,0,0,0,0,0,0,0,-1,846,1065,0,0
-371,-41,0,0,0,0,0,0,0,0,0,-1,853,1065,0,0
-364,-41,0,0,0,0,0,0,0,0,0,-1,860,1065,0,0
-357,-41,0,0,0,0,0,0,0,0,0,-1,867,1065,0,0
-350,-41,0,0,0,0,0,0,0,0,0,-1,874,1065,0,0
-343,-41,0,0,0,0,0,0,0,0,0,-1,881,1065,0,0
-336,-41,0,0,0,0,0,0,0,0,0,-1,888,1065,0,0
-329,-41,0,0,0,0,0,0,0,0,0,-1,895,1065,0,0
-322,-41,0,0,0,0,0,0,0,0,0,-1,902,1065,0,0
-315,-41,0,0,0,0,0,0,0,0,0,-1,909,1065,0,0
-308,-41,0,0,0,0,0,0,0,0,0,-1,916,1065,0,0
-301,-41,0,0,0,0,0,0,0,0,0,-1,923,1065,0,0
-294,-41,0,0,0,0,0,0,0,0,0,-1,930,1065,0,0
-287,-41,0,0,0,0,0,0,0,0,0,-1,937,1065,0,0
-280,-41,0,0,0,0,0,0,0,0,0,-1,944,1065,0,0
-273,-41,0,0,0,0,0,0,0,0,0,-1,951,1065,0,0
-266,-41,0,0,0,0,0,0,0,0,0,-1,958,1065,0,0
-259,-41,0,0,0,0,0,0,0,0,0,-1,965,1065,0,0
-252,-41,0,0,0,0,0,0,0,0,0,-1,972,1065,0,0
-245,-41,0,0,0,0,0,0,0,0,0,-1,979,1065,0,0
-238,-41,0,0,0,0,0,0,0,0,0,-1,986,1065,0,0
-231,-41,0,0,0,0,0,0,0,0,0,-1,993,1065,0,0
-224,-41,0,0,0,0,0,0,0,0,0,-1,1000,1065,0,0
-217,-41,0,0,0,0,0,0,0,0,0,-1,1007,1065,0,0
-210,-41,0,0,0,0,0,0,0,0,0,-1,1014,1065,0,0
-203,-41,0,0,0,0,0,0,0,0,0,-1,1021,1065,0,0
-196,-41,0,0,0,0,0,0,0,0,0,-1,1028,1065,0,0
-189,-41,0,0,0,0,0,0,0,0,0,-1,1035,1065,0,0
-182,-41,0,0,0,0,0,0,0,0,0,-1,1042,1065,0,0
-175,-41,0,0,0,0,0,0,0,0,0,-1,1049,1065,0,0
-168,-41,0,0,0,0,0,0,0,0,0,-1,1056,1065,0,0
-161,-41,0,0,0,0,0,0,0,0,0,-1,1063,1065,0,0
-154,-41,0,0,0,0,0,0,0,0,0,-1,1070,1065,0,0
-147,-41,0,0,0,0,0,0,0,0,0,-1,1077,1065,0,0
-140,-41,0,0,0,0,0,0,0,0,0,-1,1084,1065,0,0
-133,-41,0,0,0,0,0,0,0,0,0,-1,1091,1065,0,0
-126,-41,0,0,0,0,0,0,0,0,0,-1,1098,1065,0,0
-119,-41,0,0,0,0,0,0,0,0,0,-1,1105,1065,0,0
-112,-41,0,0,0,0,0,0,0,0,0,-1,1112,1065,0,0
-105,-41,0,0,0,0,0,0,0,0,0,-1,1119,1065,0,0
-98,-41,0,0,0,0,0,0,0,0,0,-1,1126,1065,0,0
-91,-41,0,0,0,0,0,0,0,0,0,-1,1133,1065,0,0
-84,-41,0,0,0,0,0,0,0,0,0,-1,1140,1065,0,0
-77,-41,0,0,0,0,0,0,0,0,0,-1,1147,1065,0,0
-70,-41,0,0,0,0,0,0,0,0,0,-1,1154,1065,0,0
-63,-41,0,0,0,0,0,0,0,0,0,-1,1161,1065,0,0
-56,-41,0,0,0,0,0,0,0,0,0,-1,1168,1065,0,0
-49,-41,0,0,0,0,0,0,0,0,0,-1,1175,1065,0,0
-42,-41,0,0,0,0,0,0,0,0,0,-1,1182,1065,0,0
-35,-41,0,0,0,0,0,0,0,0,0,-1,1189,1065,0,0
-28,-41,0,0,0,0,0,0,0,0,0,-1,1196,1065,0,0
-21,-41,0,0,0,0,0,0,0,0,0,-1,1203,1065,0,0
-14,-41,0,0,0,0,0,0,0,0,0,-1,1210,1065,0,0
-7,-41,0,0,0,0,0,0,0,0,0,-1,1217,1065,0,0
0,-41,0,0,0,0,0,0,0,0,0,-1,1224,1065,0,0
7,-41,0,0,0,0,0,0,0,0,0,-1,1231,1065,0,0
14,-41,0,0,0,0,0,0,0,0,0,-1,1238,1065,0,0
21,-41,0,0,0,0,0,0,0,0,0,-1,1245,1065,0,0
28,-41,0,0,0,0,0,0,0,0,0,-1,1252,1065,0,0
35,-41,0,0,0,0,0,0,0,0,0,-1,1259,1065,0,0
42,-41,0,0,0,0,0,0,0,0,0,-1,1266,1065,0,0
49,-41,0,0,0,0,0,0,0,0,0,-1,1273,1065,0,0
56,-41,0,0,0,0,0,0,0,0,0,-1,1280,1065,0,0
63,-41,0,0,0,0,0,0,0,0,0,-1,1287,1065,0,0
70,-41,0,0,0,0,0,0,0,0,0,-1,1294,1065,0,0
77,-41,0,0,0,0,0,0,0,0,0,-1,1301,1065,0,0
84,-41,0,0,0,0,0,0,0,0,0,-1,1308,1065,0,0
91,-41,0,0,0,0,0,0,0,0,0,-1,1315,1065,0,0
98,-41,0,0,0,0,0,0,0,0,0,-1,1322,1065,0,0
105,-41,0,0,0,0,0,0,0,0,0,-1,1329,1065,0,0
112,-41,0,0,0,0,0,0,0,0,0,-1,1336,1065,0,0
119,-41,0,0,0,0,0,0,0,0,0,-1,1343,1065,0,0
126,-41,0,0,0,0,0,0,0,0,0,-1,1350,1065,0,0
133,-41,0,0,0,0,0,0,0,0,0,-1,1357,1065,0,0
140,-41,0,0,0,0,0,0,0,0,0,-1,1364,1065,0,0
147,-41,0,0,0,0,0,0,0,0,0,-1,1371,1065,0,0
154,-41,0,0,0,0,0,0,0,0,0,-1,1378,1065,0,0
161,-41,0,0,0,0,0,0,0,0,0,-1,1385,1065,0,0
168,-41,0,0,0,0,0,0,0,0,0,-1,1392,1065,0,0
175,-41,0,0,0,0,0,0,0,0,0,-1,1399,1065,0,0
182,-41,0,0,0,0,0,0,0,0,0,-1,1406,1065,0,0
189,-41,0,0,0,0,0,0,0,0,0,-1,1413,1065,0,0
196,-41,0,0,0,0,0,0,0,0,0,-1,1420,1065,0,0
203,-41,0,0,0,0,0,0,0,0,0,-1,1427,1065,0,0
210,-41,0,0,0,0,0,0,0,0,0,-1,1434,1065,0,0
217,-41,0,0,0,0,0,0,0,0,0,-1,1441,1065,0,0
224,-41,0,0,0,0,0,0,0,0,0,-1,1448,1065,0,0
231,-41,0,0,0,0,0,0,0,0,0,-1,1455,1065,0,0
238,-41,0,0,0,0,0,0,0,0,0,-1,1462,1065,0,0
245,-41,0,0,0,0,0,0,0,0,0,-1,1469,1065,0,0
252,-41,0,0,0,0,0,0,0,0,0,-1,1476,1065,0,0
259,-41,0,0,0,0,0,0,0,0,0,-1,1483,1065,0,0
266,-41,0,0,0,0,0,0,0,0,0,-1,1490,1065,0,0
273,-41,0,0,0,0,0,0,0,0,0,-1,1497,1065,0,0
280,-41,0,0,0,0,0,0,0,0,0,-1,1504,1065,0,0
287,-41,0,0,0,0,0,0,0,0,0,-1,1511,1065,0,0
294,-41,0,0,0,0,0,0,0,0,0,-1,1518,1065,0,0
301,-41,0,0,0,0,0,0,0,0,0,-1,1525,1065,0,0
308,-41,0,0,0,0,0,0,0,0,0,-1,1532,1065,0,0
315,-41,0,0,0,0,0,0,0,0,0,-1,1539,1065,0,0
322,-41,0,0,0,0,0,0,0,0,0,-1,1546,1065,0,0
329,-41,0,0,0,0,0,0,0,0,0,-1,1553,1065,0,0
336,-41,0,0,0,0,0,0,0,0,0,-1,1560,1065,0,0
343,-41,0,0,0,0,0,0,0,0,0,-1,1567,1065,0,0
350,-41,0,0,0,0,0,0,0,0,0,-1,1574,1065,0,0
357,-41,0,0,0,0,0,0,0,0,0,-1,1581,1065,0,0
364,-41,0,0,0,0,0,0,0,0,0,-1,1588,1065,0,0
371,-41,0,0,0,0,0,0,0,0,0,-1,1595,1065,0,0
378,-41,0,0,0,0,0,0,0,0,0,-1,1602,1065,0,0
385,-41,0,0,0,0,0,0,0,0,0,-1,1609,1065,0,0
392,-41,0,0,0,0,0,0,0,0,0,-1,1616,1065,0,0
399,-41,0,0,0,0,0,0,0,0,0,-1,1623,1065,0,0
406,-41,0,0,0,0,0,0,0,0,0,-1,1630,1065,0,0
413,-41,0,0,0,0,0,0,0,0,0,-1,1637,1065,0,0
420,-41,0,0,0,0,0,0,0,0,0,-1,1644,1065,0,0
427,-41,0,0,0,0,0,0,0,0,0,-1,1651,1065,0,0
434,-41,0,0,0,0,0,0,0,0,0,-1,1658,1065,0,0
441,-41,0,0,0,0,0,0,0,0,0,-1,1665,1065,0,0
448,-41,0,0,0,0,0,0,0,0,0,-1,1672,1065,0,0
455,-41,0,0,0,0,0,0,0,0,0,-1,1679,1065,0,0
462,-41,0,0,0,0,0,0,0,0,0,-1,1686,1065,0,0
469,-41,0,0,0,0,0,0,0,0,0,-1,1693,1065,0,0
476,-41,0,0,0,0,0,0,0,0,0,-1,1700,1065,0,0
483,-41,0,0,0,0,0,0,0,0,0,-1,1707,1065,0,0
490,-41,0,0,0,0,0,0,0,0,0,-1,1714,1065,0,0
497,-41,0,0,0,0,0,0,0,0,0,-1,1721,1065,0,0
504,-41,0,0,0,0,0,0,0,0,0,-1,1728,1065,0,0
511,-41,0,0,0,0,0,0,0,0,0,-1,1735,1065,0,0
518,-41,0,0,0,0,0,0,0,0,0,-1,1742,1065,0,0
525,-41,0,0,0,0,0,0,0,0,0,-1,1749,1065,0,0
532,-41,0,0,0,0,0,0,0,0,0,-1,1756,1065,0,0
539,-41,0,0,0,0,0,0,0,0,0,-1,1763,1065,0,0
546,-41,0,0,0,0,0,0,0,0,0,-1,1770,1065,0,0
553,-41,0,0,0,0,0,0,0,0,0,-1,1777,1065,0,0
560,-41,0,0,0,0,0,0,0,0,0,-1,1784,1065,0,0
567,-41,0,0,0,0,0,0,0,0,0,-1,1791,1065,0,0
574,-41,0,0,0,0,0,0,0,0,0,-1,1798,1065,0,0
581,-41,0,0,0,0,0,0,0,0,0,-1,1805,1065,0,0
588,-41,0,0,0,0,0,0,0,0,0,-1,1812,1065,0,0
595,-41,0,0,0,0,0,0,0,0,0,-1,1819,1065,0,0
602,-41,0,0,0,0,0,0,0,0,0,-1,1826,1065,0,0
609,-41,0,0,0,0,0,0,0,0,0,-1,1833,1065,0,0
616,-41,0,0,0,0,0,0,0,0,0,-1,1840,1065,0,0
623,-41,0,0,0,0,0,0,0,0,0,-1,1847,1065,0,0
630,-41,0,0,0,0,0,0,0,0,0,-1,1854,1065,0,0
637,-41,0,0,0,0,0,0,0,0,0,-1,1861,1065,0,0
644,-41,0,0,0,0,0,0,0,0,0,-1,1868,1065,0,0
651,-41,24.7936,2.63196,-0.00661656,-0.00024186,0.00160925,0.00014135,-0.00699977,1.33702,0.00471433,0.034899,1875,1065,24.7936,-2.63195
658,-41,24.7982,2.65601,-0.00505581,4.60072e-05,0.00120257,0.000315261,-0.00532506,1.35053,0.00365966,0.0385836,1882,1065,24.7982,-2.65599
665,-41,24.7665,2.70886,-0.0038485,0.000192881,0.000924365,0.000394271,-0.00404989,1.35628,0.00284049,0.042603,1889,1065,24.7665,-2.70886
672,-41,24.8523,2.81189,-0.00274533,0.000233025,0.00136471,0.000763772,-0.00327608,1.19989,0.00247819,0.0435871,1896,1065,24.8523,-2.81184
679,-41,24.799,2.96094,-0.00187386,-6.76919e-06,0.00252585,0.00175254,-0.00363317,0.962411,0.003172,0.0421649,1903,1065,24.7989,-2.96095
686,-41,24.5874,3.05664,-0.0012682,-0.000386831,0.0037155,0.00291403,-0.00456906,0.844426,0.00435545,0.0422267,1910,1065,24.5874,-3.0566
693,-41,24.7838,2.8302,-0.000833598,-0.000802041,0.00478077,0.00396298,-0.00559862,0.787048,0.00554725,0.0427845,1917,1065,24.7838,-2.83023
700,-41,24.9525,2.63489,-0.000562033,-0.00114018,0.0055903,0.00474666,-0.00644887,0.759566,0.0064886,0.0377782,1924,1065,24.9526,-2.63493
707,-41,24.7754,2.72937,-0.000428733,-0.00133554,0.00609412,0.00522883,-0.0069931,0.748267,0.0070808,0.0272472,1931,1065,24.7754,-2.72934
714,-41,24.7455,2.74573,-0.000327514,-0.00142633,0.00636278,0.00550953,-0.00726338,0.742331,0.00739758,0.0161536,1938,1065,24.7455,-2.74572
721,-41,24.8208,3.33032,-0.00034581,-0.00143712,0.00636365,0.00549554,-0.00727847,0.74263,0.00739898,0.0340051,1945,1065,24.8208,-3.33029
728,-41,24.3328,4.42139,0,0,0,0,0,0,0,-1,1952,1065,24.3327,-4.42137
735,-41,24.2783,4.39685,-0.000846294,-0.000902047,0.00573184,0.00485774,-0.00660608,0.782966,0.00664424,0.0162495,1959,1065,24.2784,-4.39684
742,-41,24.2509,4.36597,-0.00155002,-0.000464038,0.00499563,0.00401802,-0.00603208,0.839532,0.00584114,0.0137711,1966,1065,24.2508,-4.36601
749,-41,24.2935,4.33142,-0.00218703,-0.000158851,0.00362286,0.00258918,-0.00493505,0.921862,0.00441393,0.0129783,1973,1065,24.2935,-4.33142
756,-41,24.3148,4.29102,-0.00272136,0.000790856,0.00198944,0.00168839,-0.00361889,1.14699,0.003131,0.0131287,1980,1065,24.3148,-4.29103
763,-41,24.2557,4.23169,-0.00342424,0.00153434,0.000103596,0.0015365,-0.0034264,1.54992,0.00293377,0.0113665,1987,1065,24.2557,-4.23165
770,-41,24.2189,4.18506,-0.00445986,0.00245495,-0.00233981,0.00317228,-0.00517718,-1.27332,0.00486667,0.0117778,1994,1065,24.2188,-4.18509
777,-41,24.205,4.13477,-0.00564993,0.0034193,-0.00487112,0.0055398,-0.00777043,-1.16022,0.00772055,0.0126718,2001,1065,24.2049,-4.13473
784,-41,24.1427,4.07727,-0.00705736,0.00404716,-0.00707292,0.00748677,-0.010497,-1.11816,0.0104313,0.0236015,2008,1065,24.1427,-4.07731
791,-41,24.0121,4.09924,-0.00863674,0.004481,-0.00961472,0.00956092,-0.0137167,-1.08473,0.0135105,0.0430361,2015,1065,24.012,-4.09923
798,-41,23.8722,4.04736,0,0,0,0,0,0,0,-1,2022,1065,23.8722,-4.04734
805,-41,22.8621,3.41675,0,0,0,0,0,0,0,-1,2029,1065,22.862,-3.41672
812,-41,22.4656,3.01514,0,0,0,0,0,0,0,-1,2036,1065,22.4656,-3.01512
-700,-48,-17.5858,-0.584961,0.000325473,-0.00234582,0.0129628,0.0120212,-0.0140416,0.734061,0.0150624,0.0453966,524,1072,-17.5858,0.584988
-693,-48,-17.6261,-0.445313,0.00921072,0.000167421,0.0121086,0.0176144,-0.00823624,0.606704,0.0152487,0.0435862,531,1072,-17.6261,0.445318
-686,-48,-17.5473,-0.290771,0.0142076,0.00237948,0.0114355,0.0211678,-0.00458075,0.546756,0.0158608,0.0474442,538,1072,-17.5473,0.290822
-679,-48,-17.5439,-0.0333252,0.0165308,0.00409917,0.0106615,0.0226561,-0.00202614,0.521479,0.0158228,0.0462474,545,1072,-17.5439,0.033295
-672,-48,-17.384,0.0323486,0.0169813,0.00527955,0.00974709,0.0224987,-0.000237896,0.51509,0.0150791,0.0421468,552,1072,-17.384,-0.0323259
-665,-48,-17.0961,0.42041,0.0161207,0.00590783,0.00867737,0.0210826,0.000945882,0.519446,0.0137506,0.042886,559,1072,-17.0962,-0.420414
-658,-48,-16.6265,0.890747,0.0143774,0.00602064,0.00747709,0.0187644,0.00163363,0.530602,0.0120022,0.0446344,566,1072,-16.6265,-0.890794
-651,-48,-16.5592,1.18799,0.012147,0.0056782,0.00619788,0.0159036,0.00192152,0.54491,0.0100235,0.0313994,573,1072,-16.5592,-1.18803
-644,-48,-16.6429,1.53772,0.00976954,0.00511817,0.00455836,0.0125612,0.00232649,0.54951,0.00771646,0.0153669,580,1072,-16.6429,-1.53774
-637,-48,-16.6449,1.58179,0.00739404,0.00398318,0.00214698,0.00843051,0.00294671,0.449758,0.00494028,0.0149718,587,1072,-16.6449,-1.58176
-630,-48,-16.6613,1.67859,0.00491274,0.00312155,-0.000187578,0.00493218,0.00310212,-0.10323,0.00287899,0.0162065,594,1072,-16.6613,-1.67864
-623,-48,-16.6934,1.77246,0.00257296,0.00230973,-0.00187786,0.00432381,0.000558882,-0.750411,0.00271548,0.0100424,601,1072,-16.6934,-1.77251
-616,-48,-16.6843,1.86597,0.000564917,0.000797208,-0.00391856,0.00460135,-0.00323922,-0.800214,0.00454947,0.00920642,608,1072,-16.6843,-1.86591
-609,-48,-16.6628,1.93896,-0.000913013,-0.000555926,-0.0059282,0.00519641,-0.00666535,-0.800452,0.00686588,0.0110114,615,1072,-16.6629,-1.93894
-602,-48,-16.6719,2.02234,-0.00167064,-0.0013645,-0.0075627,0.00604668,-0.00908182,-0.795517,0.00879284,0.0120363,622,1072,-16.6719,-2.02236
-595,-48,-16.6825,2.10071,0,0,0,0,0,0,0,-1,629,1072,-16.6825,-2.10068
-588,-48,-16.8134,1.50256,-0.00201611,-0.00217954,-0.00857053,0.0064731,-0.0106687,-0.780631,0.00999518,0.0312758,636,1072,-16.8134,-1.50254
-581,-48,-16.8954,0.831421,-0.00167812,-0.00222661,-0.00830083,0.00635299,-0.0102577,-0.768885,0.00967812,0.0367914,643,1072,-16.8954,-0.831451
-574,-48,-16.8148,0.913208,-0.00142361,-0.00211788,-0.00770493,0.005942,-0.00948349,-0.762887,0.00898381,0.039521,650,1072,-16.8148,-0.913192
-567,-48,-16.7732,1.08813,-0.00100719,-0.00173405,-0.0063848,0.00502452,-0.00776576,-0.756968,0.00744079,0.0397694,657,1072,-16.7732,-1.08814
-560,-48,-16.7245,0.949707,-0.000361105,-0.0010668,-0.00424634,0.00354702,-0.00497493,-0.743946,0.00494312,0.0371848,664,1072,-16.7245,-0.949737
-553,-48,-16.7407,0.694214,0.000538997,-0.00013772,-0.00124356,0.00148941,-0.00108813,-0.652569,0.00149414,0.0391644,671,1072,-16.7407,-0.694175
-546,-48,-16.8363,0.596191,0.00171345,0.00102045,0.00266521,0.00405459,-0.00132069,0.720757,0.00323445,0.0410732,678,1072,-16.8363,-0.596219
-539,-48,-16.897,0.661133,0.00296587,0.00222916,0.00657258,0.00918041,-0.00398538,0.757405,0.00779603,0.0418183,685,1072,-16.897,-0.66112
-532,-48,-16.8713,0.943848,0.00366418,0.00318193,0.00839043,0.011817,-0.00497084,0.771033,0.00995746,0.0396034,692,1072,-16.8714,-0.943868
-525,-48,0,0,0,0,0,0,0,0,0,-1,699,1072,0,0
-518,-48,0,0,0,0,0,0,0,0,0,-1,706,1072,0,0
-511,-48,0,0,0,0,0,0,0,0,0,-1,713,1072,0,0
-504,-48,0,0,0,0,0,0,0,0,0,-1,720,1072,0,0
-497,-48,0,0,0,0,0,0,0,0,0,-1,727,1072,0,0
-490,-48,0,0,0,0,0,0,0,0,0,-1,734,1072,0,0
-483,-48,0,0,0,0,0,0,0,0,0,-1,741,1072,0,0
-476,-48,0,0,0,0,0,0,0,0,0,-1,748,1072,0,0
-469,-48,0,0,0,0,0,0,0,0,0,-1,755,1072,0,0
-462,-48,0,0,0,0,0,0,0,0,0,-1,762,1072,0,0
-455,-48,0,0,0,0,0,0,0,0,0,-1,769,1072,0,0
-448,-48,0,0,0,0,0,0,0,0,0,-1,776,1072,0,0
-441,-48,0,0,0,0,0,0,0,0,0,-1,783,1072,0,0
-434,-48,0,0,0,0,0,0,0,0,0,-1,790,1072,0,0
-427,-48,0,0,0,0,0,0,0,0,0,-1,797,1072,0,0
-420,-48,0,0,0,0,0,0,0,0,0,-1,804,1072,0,0
-413,-48,0,0,0,0,0,0,0,0,0,-1,811,1072,0,0
-406,-48,0,0,0,0,0,0,0,0,0,-1,818,1072,0,0
-399,-48,0,0,0,0,0,0,0,0,0,-1,825,1072,0,0
-392,-48,0,0,0,0,0,0,0,0,0,-1,832,1072,0,0
-385,-48,0,0,0,0,0,0,0,0,0,-1,839,1072,0,0
-378,-48,0,0,0,0,0,0,0,0,0,-1,846,1072,0,0
-371,-48,0,0,0,0,0,0,0,0,0,-1,853,1072,0,0
-364,-48,0,0,0,0,0,0,0,0,0,-1,860,1072,0,0
-357,-48,0,0,0,0,0,0,0,0,0,-1,867,1072,0,0
-350,-48,0,0,0,0,0,0,0,0,0,-1,874,1072,0,0
-343,-48,0,0,0,0,0,0,0,0,0,-1,881,1072,0,0
-336,-48,0,0,0,0,0,0,0,0,0,-1,888,1072,0,0
-329,-48,0,0,0,0,0,0,0,0,0,-1,895,1072,0,0
-322,-48,0,0,0,0,0,0,0,0,0,-1,902,1072,0,0
-315,-48,0,0,0,0,0,0,0,0,0,-1,909,1072,0,0
-308,-48,0,0,0,0,0,0,0,0,0,-1,916,1072,0,0
-301,-48,0,0,0,0,0,0,0,0,0,-1,923,1072,0,0
-294,-48,0,0,0,0,0,0,0,0,0,-1,930,1072,0,0
-287,-48,0,0,0,0,0,0,0,0,0,-1,937,1072,0,0
-280,-48,0,0,0,0,0,0,0,0,0,-1,944,1072,0,0
-273,-48,0,0,0,0,0,0,0,0,0,-1,951,1072,0,0
-266,-48,0,0,0,0,0,0,0,0,0,-1,958,1072,0,0
-259,-48,0,0,0,0,0,0,0,0,0,-1,965,1072,0,0
-252,-48,0,0,0,0,0,0,0,0,0,-1,972,1072,0,0
-245,-48,0,0,0,0,0,0,0,0,0,-1,979,1072,0,0
-238,-48,0,0,0,0,0,0,0,0,0,-1,986,1072,0,0
-231,-48,0,0,0,0,0,0,0,0,0,-1,993,1072,0,0
-224,-48,0,0,0,0,0,0,0,0,0,-1,1000,1072,0,0
-217,-48,0,0,0,0,0,0,0,0,0,-1,1007,1072,0,0
-210,-48,0,0,0,0,0,0,0,0,0,-1,1014,1072,0,0
-203,-48,0,0,0,0,0,0,0,0,0,-1,1021,1072,0,0
-196,-48,0,0,0,0,0,0,0,0,0,-1,1028,1072,0,0
-189,-48,0,0,0,0,0,0,0,0,0,-1,1035,1072,0,0
-182,-48,0,0,0,0,0,0,0,0,0,-1,1042,1072,0,0
-175,-48,0,0,0,0,0,0,0,0,0,-1,1049,1072,0,0
-168,-48,0,0,0,0,0,0,0,0,0,-1,1056,1072,0,0
-161,-48,0,0,0,0,0,0,0,0,0,-1,1063,1072,0,0
-154,-48,0,0,0,0,0,0,0,0,0,-1,1070,1072,0,0
-147,-48,0,0,0,0,0,0,0,0,0,-1,1077,1072,0,0
-140,-48,0,0,0,0,0,0,0,0,0,-1,1084,1072,0,0
-133,-48,0,0,0,0,0,0,0,0,0,-1,1091,1072,0,0
-126,-48,0,0,0,0,0,0,0,0,0,-1,1098,1072,0,0
-119,-48,0,0,0,0,0,0,0,0,0,-1,1105,1072,0,0
-112,-48,0,0,0,0,0,0,0,0,0,-1,1112,1072,0,0
-105,-48,0,0,0,0,0,0,0,0,0,-1,1119,1072,0,0
-98,-48,0,0,0,0,0,0,0,0,0,-1,1126,1072,0,0
-91,-48,0,0,0,0,0,0,0,0,0,-1,1133,1072,0,0
-84,-48,0,0,0,0,0,0,0,0,0,-1,1140,1072,0,0
-77,-48,0,0,0,0,0,0,0,0,0,-1,1147,1072,0,0
-70,-48,0,0,0,0,0,0,0,0,0,-1,1154,1072,0,0
-63,-48,0,0,0,0,0,0,0,0,0,-1,1161,1072,0,0
-56,-48,0,0,0,0,0,0,0,0,0,-1,1168,1072,0,0
-49,-48,0,0,0,0,0,0,0,0,0,-1,1175,1072,0,0
-42,-48,0,0,0,0,0,0,0,0,0,-1,1182,1072,0,0
-35,-48,0,0,0,0,0,0,0,0,0,-1,1189,1072,0,0
-28,-48,0,0,0,0,0,0,0,0,0,-1,1196,1072,0,0
-21,-48,0,0,0,0,0,0,0,0,0,-1,1203,1072,0,0
-14,-48,0,0,0,0,0,0,0,0,0,-1,1210,1072,0,0
-7,-48,0,0,0,0,0,0,0,0,0,-1,1217,1072,0,0
0,-48,0,0,0,0,0,0,0,0,0,-1,1224,1072,0,0
7,-48,0,0,0,0,0,0,0,0,0,-1,1231,1072,0,0
14,-48,0,0,0,0,0,0,0,0,0,-1,1238,1072,0,0
21,-48,0,0,0,0,0,0,0,0,0,-1,1245,1072,0,0
28,-48,0,0,0,0,0,0,0,0,0,-1,1252,1072,0,0
35,-48,0,0,0,0,0,0,0,0,0,-1,1259,1072,0,0
42,-48,0,0,0,0,0,0,0,0,0,-1,1266,1072,0,0
49,-48,0,0,0,0,0,0,0,0,0,-1,1273,1072,0,0
56,-48,0,0,0,0,0,0,0,0,0,-1,1280,1072,0,0
63,-48,0,0,0,0,0,0,0,0,0,-1,1287,1072,0,0
70,-48,0,0,0,0,0,0,0,0,0,-1,1294,1072,0,0
77,-48,0,0,0,0,0,0,0,0,0,-1,1301,1072,0,0
84,-48,0,0,0,0,0,0,0,0,0,-1,1308,1072,0,0
91,-48,0,0,0,0,0,0,0,0,0,-1,1315,1072,0,0
98,-48,0,0,0,0,0,0,0,0,0,-1,1322,1072,0,0
105,-48,0,0,0,0,0,0,0,0,0,-1,1329,1072,0,0
112,-48,0,0,0,0,0,0,0,0,0,-1,1336,1072,0,0
119,-48,0,0,0,0,0,0,0,0,0,-1,1343,1072,0,0
126,-48,0,0,0,0,0,0,0,0,0,-1,1350,1072,0,0
133,-48,0,0,0,0,0,0,0,0,0,-1,1357,1072,0,0
140,-48,0,0,0,0,0,0,0,0,0,-1,1364,1072,0,0
147,-48,0,0,0,0,0,0,0,0,0,-1,1371,1072,0,0
154,-48,0,0,0,0,0,0,0,0,0,-1,1378,1072,0,0
161,-48,0,0,0,0,0,0,0,0,0,-1,1385,1072,0,0
168,-48,0,0,0,0,0,0,0,0,0,-1,1392,1072,0,0
175,-48,0,0,0,0,0,0,0,0,0,-1,1399,1072,0,0
182,-48,0,0,0,0,0,0,0,0,0,-1,1406,1072,0,0
189,-48,0,0,0,0,0,0,0,0,0,-1,1413,1072,0,0
196,-48,0,0,0,0,0,0,0,0,0,-1,1420,1072,0,0
203,-48,0,0,0,0,0,0,0,0,0,-1,1427,1072,0,0
210,-48,0,0,0,0,0,0,0,0,0,-1,1434,1072,0,0
217,-48,0,0,0,0,0,0,0,0,0,-1,1441,1072,0,0
224,-48,0,0,0,0,0,0,0,0,0,-1,1448,1072,0,0
231,-48,0,0,0,0,0,0,0,0,0,-1,1455,1072,0,0
238,-48,0,0,0,0,0,0,0,0,0,-1,1462,1072,0,0
245,-48,0,0,0,0,0,0,0,0,0,-1,1469,1072,0,0
252,-48,0,0,0,0,0,0,0,0,0,-1,1476,1072,0,0
259,-48,0,0,0,0,0,0,0,0,0,-1,1483,1072,0,0
266,-48,0,0,0,0,0,0,0,0,0,-1,1490,1072,0,0
273,-48,0,0,0,0,0,0,0,0,0,-1,1497,1072,0,0
280,-48,0,0,0,0,0,0,0,0,0,-1,1504,1072,0,0
287,-48,0,0,0,0,0,0,0,0,0,-1,1511,1072,0,0
294,-48,0,0,0,0,0,0,0,0,0,-1,1518,1072,0,0
301,-48,0,0,0,0,0,0,0,0,0,-1,1525,1072,0,0
308,-48,0,0,0,0,0,0,0,0,0,-1,1532,1072,0,0
315,-48,0,0,0,0,0,0,0,0,0,-1,1539,1072,0,0
322,-48,0,0,0,0,0,0,0,0,0,-1,1546,1072,0,0
329,-48,0,0,0,0,0,0,0,0,0,-1,1553,1072,0,0
336,-48,0,0,0,0,0,0,0,0,0,-1,1560,1072,0,0
343,-48,0,0,0,0,0,0,0,0,0,-1,1567,1072,0,0
350,-48,0,0,0,0,0,0,0,0,0,-1,1574,1072,0,0
357,-48,0,0,0,0,0,0,0,0,0,-1,1581,1072,0,0
364,-48,0,0,0,0,0,0,0,0,0,-1,1588,1072,0,0
371,-48,0,0,0,0,0,0,0,0,0,-1,1595,1072,0,0
378,-48,0,0,0,0,0,0,0,0,0,-1,1602,1072,0,0
385,-48,0,0,0,0,0,0,0,0,0,-1,1609,1072,0,0
392,-48,0,0,0,0,0,0,0,0,0,-1,1616,1072,0,0
399,-48,0,0,0,0,0,0,0,0,0,-1,1623,1072,0,0
406,-48,0,0,0,0,0,0,0,0,0,-1,1630,1072,0,0
413,-48,0,0,0,0,0,0,0,0,0,-1,1637,1072,0,0
420,-48,0,0,0,0,0,0,0,0,0,-1,1644,1072,0,0
427,-48,0,0,0,0,0,0,0,0,0,-1,1651,1072,0,0
434,-48,0,0,0,0,0,0,0,0,0,-1,1658,1072,0,0
441,-48,0,0,0,0,0,0,0,0,0,-1,1665,1072,0,0
448,-48,0,0,0,0,0,0,0,0,0,-1,1672,1072,0,0
455,-48,0,0,0,0,0,0,0,0,0,-1,1679,1072,0,0
462,-48,0,0,0,0,0,0,0,0,0,-1,1686,1072,0,0
469,-48,0,0,0,0,0,0,0,0,0,-1,1693,1072,0,0
476,-48,0,0,0,0,0,0,0,0,0,-1,1700,1072,0,0
483,-48,0,0,0,0,0,0,0,0,0,-1,1707,1072,0,0
490,-48,0,0,0,0,0,0,0,0,0,-1,1714,1072,0,0
497,-48,0,0,0,0,0,0,0,0,0,-1,1721,1072,0,0
504,-48,0,0,0,0,0,0,0,0,0,-1,1728,1072,0,0
511,-48,0,0,0,0,0,0,0,0,0,-1,1735,1072,0,0
518,-48,0,0,0,0,0,0,0,0,0,-1,1742,1072,0,0
525,-48,0,0,0,0,0,0,0,0,0,-1,1749,1072,0,0
532,-48,0,0,0,0,0,0,0,0,0,-1,1756,1072,0,0
539,-48,0,0,0,0,0,0,0,0,0,-1,1763,1072,0,0
546,-48,0,0,0,0,0,0,0,0,0,-1,1770,1072,0,0
553,-48,0,0,0,0,0,0,0,0,0,-1,1777,1072,0,0
560,-48,0,0,0,0,0,0,0,0,0,-1,1784,1072,0,0
567,-48,0,0,0,0,0,0,0,0,0,-1,1791,1072,0,0
574,-48,0,0,0,0,0,0,0,0,0,-1,1798,1072,0,0
581,-48,0,0,0,0,0,0,0,0,0,-1,1805,1072,0,0
588,-48,0,0,0,0,0,0,0,0,0,-1,1812,1072,0,0
595,-48,0,0,0,0,0,0,0,0,0,-1,1819,1072,0,0
602,-48,0,0,0,0,0,0,0,0,0,-1,1826,1072,0,0
609,-48,0,0,0,0,0,0,0,0,0,-1,1833,1072,0,0
616,-48,0,0,0,0,0,0,0,0,0,-1,1840,1072,0,0
623,-48,0,0,0,0,0,0,0,0,0,-1,1847,1072,0,0
630,-48,0,0,0,0,0,0,0,0,0,-1,1854,1072,0,0
637,-48,0,0,0,0,0,0,0,0,0,-1,1861,1072,0,0
644,-48,0,0,0,0,0,0,0,0,0,-1,1868,1072,0,0
651,-48,24.7465,2.55737,-0.00620489,-0.00046473,0.00153878,-7.82453e-05,-0.00659138,1.32472,0.0043684,0.0312775,1875,1072,24.7465,-2.55737
658,-48,24.7506,2.39502,-0.00479043,-0.000237359,0.00113378,2.93457e-05,-0.00505714,1.33976,0.00338125,0.0367548,1882,1072,24.7507,-2.39497
665,-48,24.6855,2.53076,-0.00366578,-0.000105035,0.00088325,0.000102017,-0.00387283,1.34053,0.00261656,0.0420897,1889,1072,24.6855,-2.53081
672,-48,24.7888,2.81421,-0.002605,-6.45285e-05,0.00136456,0.000529508,-0.00319904,1.16021,0.00232934,0.0434801,1896,1072,24.7888,-2.81426
679,-48,24.6691,2.82971,-0.00176066,-0.000274673,0.00253329,0.00162233,-0.00365766,0.928044,0.00312299,0.0405732,1903,1072,24.669,-2.82973
686,-48,24.5085,2.7738,-0.00116358,-0.000606432,0.00371588,0.0028413,-0.00461131,0.822812,0.00434303,0.0381632,1910,1072,24.5086,-2.77377
693,-48,24.7323,2.77283,-0.000736465,-0.000966286,0.00476229,0.0039123,-0.00561505,0.773336,0.00552982,0.039116,1917,1072,24.7323,-2.77281
700,-48,24.9602,2.69067,-0.000481719,-0.00125353,0.00554183,0.00468762,-0.00642287,0.750637,0.00644067,0.0344507,1924,1072,24.9602,-2.69061
707,-48,24.7823,2.70752,-0.000364691,-0.00139768,0.00603845,0.00517931,-0.00694168,0.742735,0.00702267,0.0260895,1931,1072,24.7824,-2.70752
714,-48,24.7321,2.85706,-0.000251021,-0.00145139,0.00630331,0.00548061,-0.00718302,0.737933,0.00733334,0.0251634,1938,1072,24.7321,-2.85707
721,-48,24.6226,3.74829,-0.000243037,-0.00143442,0.00629324,0.00548264,-0.0071601,0.738211,0.00732067,0.0425723,1945,1072,24.6226,-3.74832
728,-48,24.2534,4.50488,0,0,0,0,0,0,0,-1,1952,1072,24.2534,-4.50492
735,-48,24.2352,4.46948,-0.000802289,-0.000881118,0.00564086,0.0047993,-0.00648271,0.781905,0.00653779,0.0166746,1959,1072,24.2352,-4.46945
742,-48,24.2018,4.40417,-0.00158595,-0.000412367,0.00497193,0.00400728,-0.00600559,0.844137,0.00581918,0.0137902,1966,1072,24.2017,-4.40412
749,-48,24.2435,4.32434,-0.0023651,-0.000152955,0.00364389,0.00254904,-0.00506709,0.932749,0.00447657,0.0123361,1973,1072,24.2435,-4.32434
756,-48,24.2394,4.271,-0.00308258,0.000774905,0.00200014,0.00162476,-0.00393243,1.16901,0.00329937,0.0118869,1980,1072,24.2394,-4.27095
763,-48,24.1904,4.21838,-0.00400353,0.0015042,0.000138475,0.00150768,-0.00400701,1.54568,0.0032911,0.0120306,1987,1072,24.1904,-4.21837
770,-48,24.1853,4.15271,-0.00538344,0.00239928,-0.00227652,0.00301627,-0.00600043,-1.30613,0.00529998,0.0112121,1994,1072,24.1853,-4.15277
777,-48,24.1552,4.09473,-0.00703333,0.0033375,-0.00477638,0.00520207,-0.0088979,-1.19862,0.00823331,0.00995647,2001,1072,24.1552,-4.09476
784,-48,24.0765,4.01294,-0.00900652,0.00397475,-0.0070575,0.00707248,-0.0121042,-1.15719,0.011198,0.0226276,2008,1072,24.0765,-4.01293
791,-48,23.7784,3.92944,-0.0112496,0.0044577,-0.0098225,0.00918028,-0.0159721,-1.12263,0.0146972,0.0405062,2015,1072,23.7784,-3.92944
798,-48,23.1655,3.73938,-0.013711,0.00476638,-0.0132442,0.0116758,-0.0206205,-1.08994,0.0188831,0.0462789,2022,1072,23.1655,-3.73942
805,-48,22.6826,3.28809,-0.0164001,0.00493548,-0.0173626,0.0146457,-0.0261102,-1.06087,0.0238387,0.045954,2029,1072,22.6827,-3.28809
812,-48,22.2634,2.87195,0,0,0,0,0,0,0,-1,2036,1072,22.2635,-2.87195
-700,-55,-18.2368,-0.470093,0,0,0,0,0,0,0,-1,524,1079,-18.2367,0.470043
-693,-55,-17.9661,-0.231201,0,0,0,0,0,0,0,-1,531,1079,-17.966,0.231169
-686,-55,-17.6628,0.0113525,0.0232359,-0.000175714,0.0122796,0.0284952,-0.00543503,0.404659,0.0210437,0.0472238,538,1079,-17.6628,-0.0113724
-679,-55,-17.7609,0.0201416,0.0236826,0.001998,0.0112815,0.0284872,-0.00280665,0.402623,0.0199928,0.0497945,545,1079,-17.7608,-0.0201341
-672,-55,-17.6428,-0.130737,0.0225521,0.00355524,0.0102077,0.0269971,-0.000889714,0.410688,0.0183018,0.0449057,552,1079,-17.6427,0.130745
-665,-55,-17.2144,0.418091,0.0203787,0.00450157,0.00902501,0.0244597,0.000420487,0.424679,0.0161682,0.0438075,559,1079,-17.2144,-0.418077
-658,-55,-16.7959,0.952026,0.0175672,0.00488752,0.00774424,0.0212357,0.00121903,0.442392,0.0137688,0.0463519,566,1079,-16.7959,-0.95202
-651,-55,-16.6307,1.12073,0.0144948,0.00478116,0.0064086,0.017679,0.00159689,0.461143,0.0112914,0.0351943,573,1079,-16.6307,-1.12074
-644,-55,-16.5759,1.48279,0.0114161,0.00442459,0.0047335,0.0138047,0.00203593,0.467344,0.00860517,0.0173256,580,1079,-16.5759,-1.48274
-637,-55,-16.5647,1.55701,0.00837011,0.00347093,0.00226544,0.00925709,0.00258395,0.37318,0.00551566,0.0137913,587,1079,-16.5647,-1.55702
-630,-55,-16.5577,1.6687,0.00535652,0.00271202,-0.000127753,0.00536268,0.00270586,-0.0481597,0.00309619,0.0146778,594,1079,-16.5577,-1.66872
-623,-55,-16.5964,1.78503,0.00261029,0.00194735,-0.00177925,0.00408868,0.000468954,-0.693305,0.0025837,0.013339,601,1079,-16.5964,-1.78499
-616,-55,-16.6039,1.86279,0.000263612,0.000455824,-0.00385773,0.00421864,-0.00349921,-0.797852,0.00446235,0.0126311,608,1079,-16.6039,-1.86277
-609,-55,-16.5812,1.95715,-0.00140385,-0.000714733,-0.00595164,0.00490231,-0.0070209,-0.814313,0.00691999,0.0126,615,1079,-16.5812,-1.95712
-602,-55,-16.5864,2.05078,-0.00230539,-0.00150198,-0.00762341,0.0057303,-0.00953767,-0.811721,0.00890586,0.0122972,622,1079,-16.5864,-2.05082
-595,-55,-16.4955,2.22998,0,0,0,0,0,0,0,-1,629,1079,-16.4955,-2.22995
-588,-55,-16.6165,1.53259,-0.00276202,-0.00237103,-0.00869674,0.00613241,-0.0112655,-0.796636,0.0101893,0.0331619,636,1079,-16.6165,-1.53265
-581,-55,-16.8662,0.796387,-0.00241108,-0.00243394,-0.00841407,0.00599157,-0.0108366,-0.784719,0.00984906,0.0377508,643,1079,-16.8662,-0.796431
-574,-55,-16.8276,0.87561,-0.00209833,-0.00235968,-0.00783351,0.00560559,-0.0100636,-0.777058,0.00916785,0.0390837,650,1079,-16.8276,-0.875657
-567,-55,-16.6985,1.09265,-0.0015235,-0.00203035,-0.00651925,0.00474725,-0.0083011,-0.765971,0.00762604,0.0377774,657,1079,-16.6985,-1.09271
-560,-55,-16.9565,1.0387,-0.000627116,-0.00143291,-0.00435213,0.00334073,-0.00540076,-0.739242,0.0050934,0.0381251,664,1079,-16.9565,-1.03864
-553,-55,-16.8738,0.827759,0.000607845,-0.0005825,-0.0012641,0.00140988,-0.00138454,-0.56538,0.00161338,0.0394313,671,1079,-16.8737,-0.827765
-546,-55,-16.9178,0.622192,0.00219738,0.000499145,0.00281736,0.0042908,-0.00159427,0.639033,0.00351462,0.0380526,678,1079,-16.9179,-0.622218
-539,-55,-17.0081,0.892944,0.00385813,0.00164011,0.00705979,0.00989549,-0.00439725,0.707491,0.00845299,0.040497,685,1079,-17.0081,-0.892913
-532,-55,-16.8684,1.16187,0.00479926,0.00247489,0.00938151,0.0130903,-0.00581615,0.723772,0.0111817,0.040951,692,1079,-16.8684,-1.16181
-525,-55,0,0,0,0,0,0,0,0,0,-1,699,1079,0,0
-518,-55,0,0,0,0,0,0,0,0,0,-1,706,1079,0,0
-511,-55,0,0,0,0,0,0,0,0,0,-1,713,1079,0,0
-504,-55,0,0,0,0,0,0,0,0,0,-1,720,1079,0,0
-497,-55,0,0,0,0,0,0,0,0,0,-1,727,1079,0,0
-490,-55,0,0,0,0,0,0,0,0,0,-1,734,1079,0,0
-483,-55,0,0,0,0,0,0,0,0,0,-1,741,1079,0,0
-476,-55,0,0,0,0,0,0,0,0,0,-1,748,1079,0,0
-469,-55,0,0,0,0,0,0,0,0,0,-1,755,1079,0,0
-462,-55,0,0,0,0,0,0,0,0,0,-1,762,1079,0,0
-455,-55,0,0,0,0,0,0,0,0,0,-1,769,1079,0,0
-448,-55,0,0,0,0,0,0,0,0,0,-1,776,1079,0,0
-441,-55,0,0,0,0,0,0,0,0,0,-1,783,1079,0,0
-434,-55,0,0,0,0,0,0,0,0,0,-1,790,1079,0,0
-427,-55,0,0,0,0,0,0,0,0,0,-1,797,1079,0,0
-420,-55,0,0,0,0,0,0,0,0,0,-1,804,1079,0,0
-413,-55,0,0,0,0,0,0,0,0,0,-1,811,1079,0,0
-406,-55,0,0,0,0,0,0,0,0,0,-1,818,1079,0,0
-399,-55,0,0,0,0,0,0,0,0,0,-1,825,1079,0,0
-392,-55,0,0,0,0,0,0,0,0,0,-1,832,1079,0,0
-385,-55,0,0,0,0,0,0,0,0,0,-1,839,1079,0,0
-378,-55,0,0,0,0,0,0,0,0,0,-1,846,1079,0,0
-371,-55,0,0,0,0,0,0,0,0,0,-1,853,1079,0,0
-364,-55,0,0,0,0,0,0,0,0,0,-1,860,1079,0,0
-357,-55,0,0,0,0,0,0,0,0,0,-1,867,1079,0,0
-350,-55,0,0,0,0,0,0,0,0,0,-1,874,1079,0,0
-343,-55,0,0,0,0,0,0,0,0,0,-1,881,1079,0,0
-336,-55,0,0,0,0,0,0,0,0,0,-1,888,1079,0,0
-329,-55,0,0,0,0,0,0,0,0,0,-1,895,1079,0,0
-322,-55,0,0,0,0,0,0,0,0,0,-1,902,1079,0,0
-315,-55,0,0,0,0,0,0,0,0,0,-1,909,1079,0,0
-308,-55,0,0,0,0,0,0,0,0,0,-1,916,1079,0,0
-301,-55,0,0,0,0,0,0,0,0,0,-1,923,1079,0,0
-294,-55,0,0,0,0,0,0,0,0,0,-1,930,1079,0,0
-287,-55,0,0,0,0,0,0,0,0,0,-1,937,1079,0,0
-280,-55,0,0,0,0,0,0,0,0,0,-1,944,1079,0,0
-273,-55,0,0,0,0,0,0,0,0,0,-1,951,1079,0,0
-266,-55,0,0,0,0,0,0,0,0,0,-1,958,1079,0,0
-259,-55,0,0,0,0,0,0,0,0,0,-1,965,1079,0,0
-252,-55,0,0,0,0,0,0,0,0,0,-1,972,1079,0,0
-245,-55,0,0,0,0,0,0,0,0,0,-1,979,1079,0,0
-238,-55,0,0,0,0,0,0,0,0,0,-1,986,1079,0,0
-231,-55,0,0,0,0,0,0,0,0,0,-1,993,1079,0,0
-224,-55,0,0,0,0,0,0,0,0,0,-1,1000,1079,0,0
-217,-55,0,0,0,0,0,0,0,0,0,-1,1007,1079,0,0
-210,-55,0,0,0,0,0,0,0,0,0,-1,1014,1079,0,0
-203,-55,0,0,0,0,0,0,0,0,0,-1,1021,1079,0,0
-196,-55,0,0,0,0,0,0,0,0,0,-1,1028,1079,0,0
-189,-55,0,0,0,0,0,0,0,0,0,-1,1035,1079,0,0
-182,-55,0,0,0,0,0,0,0,0,0,-1,1042,1079,0,0
-175,-55,0,0,0,0,0,0,0,0,0,-1,1049,1079,0,0
-168,-55,0,0,0,0,0,0,0,0,0,-1,1056,1079,0,0
-161,-55,0,0,0,0,0,0,0,0,0,-1,1063,1079,0,0
-154,-55,0,0,0,0,0,0,0,0,0,-1,1070,1079,0,0
-147,-55,0,0,0,0,0,0,0,0,0,-1,1077,1079,0,0
-140,-55,0,0,0,0,0,0,0,0,0,-1,1084,1079,0,0
-133,-55,0,0,0,0,0,0,0,0,0,-1,1091,1079,0,0
-126,-55,0,0,0,0,0,0,0,0,0,-1,1098,1079,0,0
-119,-55,0,0,0,0,0,0,0,0,0,-1,1105,1079,0,0
-112,-55,0,0,0,0,0,0,0,0,0,-1,1112,1079,0,0
-105,-55,0,0,0,0,0,0,0,0,0,-1,1119,1079,0,0
-98,-55,0,0,0,0,0,0,0,0,0,-1,1126,1079,0,0
-91,-55,0,0,0,0,0,0,0,0,0,-1,1133,1079,0,0
-84,-55,0,0,0,0,0,0,0,0,0,-1,1140,1079,0,0
-77,-55,0,0,0,0,0,0,0,0,0,-1,1147,1079,0,0
-70,-55,0,0,0,0,0,0,0,0,0,-1,1154,1079,0,0
-63,-55,0,0,0,0,0,0,0,0,0,-1,1161,1079,0,0
-56,-55,0,0,0,0,0,0,0,0,0,-1,1168,1079,0,0
-49,-55,0,0,0,0,0,0,0,0,0,-1,1175,1079,0,0
-42,-55,0,0,0,0,0,0,0,0,0,-1,1182,1079,0,0
-35,-55,0,0,0,0,0,0,0,0,0,-1,1189,1079,0,0
-28,-55,0,0,0,0,0,0,0,0,0,-1,1196,1079,0,0
-21,-55,0,0,0,0,0,0,0,0,0,-1,1203,1079,0,0
-14,-55,0,0,0,0,0,0,0,0,0,-1,1210,1079,0,0
-7,-55,0,0,0,0,0,0,0,0,0,-1,1217,1079,0,0
0,-55,0,0,0,0,0,0,0,0,0,-1,1224,1079,0,0
7,-55,0,0,0,0,0,0,0,0,0,-1,1231,1079,0,0
14,-55,0,0,0,0,0,0,0,0,0,-1,1238,1079,0,0
21,-55,0,0,0,0,0,0,0,0,0,-1,1245,1079,0,0
28,-55,0,0,0,0,0,0,0,0,0,-1,1252,1079,0,0
35,-55,0,0,0,0,0,0,0,0,0,-1,1259,1079,0,0
42,-55,0,0,0,0,0,0,0,0,0,-1,1266,1079,0,0
49,-55,0,0,0,0,0,0,0,0,0,-1,1273,1079,0,0
56,-55,0,0,0,0,0,0,0,0,0,-1,1280,1079,0,0
63,-55,0,0,0,0,0,0,0,0,0,-1,1287,1079,0,0
70,-55,0,0,0,0,0,0,0,0,0,-1,1294,1079,0,0
77,-55,0,0,0,0,0,0,0,0,0,-1,1301,1079,0,0
84,-55,0,0,0,0,0,0,0,0,0,-1,1308,1079,0,0
91,-55,0,0,0,0,0,0,0,0,0,-1,1315,1079,0,0
98,-55,0,0,0,0,0,0,0,0,0,-1,1322,1079,0,0
105,-55,0,0,0,0,0,0,0,0,0,-1,1329,1079,0,0
112,-55,0,0,0,0,0,0,0,0,0,-1,1336,1079,0,0
119,-55,0,0,0,0,0,0,0,0,0,-1,1343,1079,0,0
126,-55,0,0,0,0,0,0,0,0,0,-1,1350,1079,0,0
133,-55,0,0,0,0,0,0,0,0,0,-1,1357,1079,0,0
140,-55,0,0,0,0,0,0,0,0,0,-1,1364,1079,0,0
147,-55,0,0,0,0,0,0,0,0,0,-1,1371,1079,0,0
154,-55,0,0,0,0,0,0,0,0,0,-1,1378,1079,0,0
161,-55,0,0,0,0,0,0,0,0,0,-1,1385,1079,0,0
168,-55,0,0,0,0,0,0,0,0,0,-1,1392,1079,0,0
175,-55,0,0,0,0,0,0,0,0,0,-1,1399,1079,0,0
182,-55,0,0,0,0,0,0,0,0,0,-1,1406,1079,0,0
189,-55,0,0,0,0,0,0,0,0,0,-1,1413,1079,0,0
196,-55,0,0,0,0,0,0,0,0,0,-1,1420,1079,0,0
203,-55,0,0,0,0,0,0,0,0,0,-1,1427,1079,0,0
210,-55,0,0,0,0,0,0,0,0,0,-1,1434,1079,0,0
217,-55,0,0,0,0,0,0,0,0,0,-1,1441,1079,0,0
224,-55,0,0,0,0,0,0,0,0,0,-1,1448,1079,0,0
231,-55,0,0,0,0,0,0,0,0,0,-1,1455,1079,0,0
238,-55,0,0,0,0,0,0,0,0,0,-1,1462,1079,0,0
245,-55,0,0,0,0,0,0,0,0,0,-1,1469,1079,0,0
252,-55,0,0,0,0,0,0,0,0,0,-1,1476,1079,0,0
259,-55,0,0,0,0,0,0,0,0,0,-1,1483,1079,0,0
266,-55,0,0,0,0,0,0,0,0,0,-1,1490,1079,0,0
273,-55,0,0,0,0,0,0,0,0,0,-1,1497,1079,0,0
280,-55,0,0,0,0,0,0,0,0,0,-1,1504,1079,0,0
287,-55,0,0,0,0,0,0,0,0,0,-1,1511,1079,0,0
294,-55,0,0,0,0,0,0,0,0,0,-1,1518,1079,0,0
301,-55,0,0,0,0,0,0,0,0,0,-1,1525,1079,0,0
308,-55,0,0,0,0,0,0,0,0,0,-1,1532,1079,0,0
315,-55,0,0,0,0,0,0,0,0,0,-1,1539,1079,0,0
322,-55,0,0,0,0,0,0,0,0,0,-1,1546,1079,0,0
329,-55,0,0,0,0,0,0,0,0,0,-1,1553,1079,0,0
336,-55,0,0,0,0,0,0,0,0,0,-1,1560,1079,0,0
343,-55,0,0,0,0,0,0,0,0,0,-1,1567,1079,0,0
350,-55,0,0,0,0,0,0,0,0,0,-1,1574,1079,0,0
357,-55,0,0,0,0,0,0,0,0,0,-1,1581,1079,0,0
364,-55,0,0,0,0,0,0,0,0,0,-1,1588,1079,0,0
371,-55,0,0,0,0,0,0,0,0,0,-1,1595,1079,0,0
378,-55,0,0,0,0,0,0,0,0,0,-1,1602,1079,0,0
385,-55,0,0,0,0,0,0,0,0,0,-1,1609,1079,0,0
392,-55,0,0,0,0,0,0,0,0,0,-1,1616,1079,0,0
399,-55,0,0,0,0,0,0,0,0,0,-1,1623,1079,0,0
406,-55,0,0,0,0,0,0,0,0,0,-1,1630,1079,0,0
413,-55,0,0,0,0,0,0,0,0,0,-1,1637,1079,0,0
420,-55,0,0,0,0,0,0,0,0,0,-1,1644,1079,0,0
427,-55,0,0,0,0,0,0,0,0,0,-1,1651,1079,0,0
434,-55,0,0,0,0,0,0,0,0,0,-1,1658,1079,0,0
441,-55,0,0,0,0,0,0,0,0,0,-1,1665,1079,0,0
448,-55,0,0,0,0,0,0,0,0,0,-1,1672,1079,0,0
455,-55,0,0,0,0,0,0,0,0,0,-1,1679,1079,0,0
462,-55,0,0,0,0,0,0,0,0,0,-1,1686,1079,0,0
469,-55,0,0,0,0,0,0,0,0,0,-1,1693,1079,0,0
476,-55,0,0,0,0,0,0,0,0,0,-1,1700,1079,0,0
483,-55,0,0,0,0,0,0,0,0,0,-1,1707,1079,0,0
490,-55,0,0,0,0,0,0,0,0,0,-1,1714,1079,0,0
497,-55,0,0,0,0,0,0,0,0,0,-1,1721,1079,0,0
504,-55,0,0,0,0,0,0,0,0,0,-1,1728,1079,0,0
511,-55,0,0,0,0,0,0,0,0,0,-1,1735,1079,0,0
518,-55,0,0,0,0,0,0,0,0,0,-1,1742,1079,0,0
525,-55,0,0,0,0,0,0,0,0,0,-1,1749,1079,0,0
532,-55,0,0,0,0,0,0,0,0,0,-1,1756,1079,0,0
539,-55,0,0,0,0,0,0,0,0,0,-1,1763,1079,0,0
546,-55,0,0,0,0,0,0,0,0,0,-1,1770,1079,0,0
553,-55,0,0,0,0,0,0,0,0,0,-1,1777,1079,0,0
560,-55,0,0,0,0,0,0,0,0,0,-1,1784,1079,0,0
567,-55,0,0,0,0,0,0,0,0,0,-1,1791,1079,0,0
574,-55,0,0,0,0,0,0,0,0,0,-1,1798,1079,0,0
581,-55,0,0,0,0,0,0,0,0,0,-1,1805,1079,0,0
588,-55,0,0,0,0,0,0,0,0,0,-1,1812,1079,0,0
595,-55,0,0,0,0,0,0,0,0,0,-1,1819,1079,0,0
602,-55,0,0,0,0,0,0,0,0,0,-1,1826,1079,0,0
609,-55,0,0,0,0,0,0,0,0,0,-1,1833,1079,0,0
616,-55,0,0,0,0,0,0,0,0,0,-1,1840,1079,0,0
623,-55,0,0,0,0,0,0,0,0,0,-1,1847,1079,0,0
630,-55,0,0,0,0,0,0,0,0,0,-1,1854,1079,0,0
637,-55,0,0,0,0,0,0,0,0,0,-1,1861,1079,0,0
644,-55,0,0,0,0,0,0,0,0,0,-1,1868,1079,0,0
651,-55,24.9049,2.66858,-0.00511477,-0.000821941,0.00173211,-0.000210221,-0.00572649,1.23131,0.00374955,0.0356668,1875,1079,24.9049,-2.66853
658,-55,24.838,2.58569,-0.00408176,-0.00066022,0.00121961,-0.000269992,-0.00447198,1.26113,0.00289552,0.0338323,1882,1079,24.838,-2.58571
665,-55,24.6687,2.59729,-0.00316034,-0.000528444,0.000903747,-0.000247997,-0.00344079,1.2699,0.00221583,0.0368418,1889,1079,24.6687,-2.59734
672,-55,24.712,2.72437,-0.00230629,-0.000493133,0.00141206,0.000278326,-0.00307774,1.07077,0.00215062,0.0386332,1896,1079,24.712,-2.72437
679,-55,24.6547,2.61035,-0.00163652,-0.000649079,0.00256585,0.00147012,-0.00375572,0.880446,0.00311184,0.0371419,1903,1079,24.6547,-2.61033
686,-55,24.6266,2.60217,-0.00115305,-0.000906807,0.0037291,0.0027012,-0.00476106,0.801901,0.00436271,0.0375757,1910,1079,24.6266,-2.60212
693,-55,24.7761,2.66882,-0.000806935,-0.00118403,0.00475543,0.00376368,-0.00575464,0.765584,0.00553533,0.0390828,1917,1079,24.7761,-2.66876
700,-55,24.7865,2.72375,-0.000626385,-0.00140216,0.00549976,0.00449915,-0.0065277,0.750192,0.00640216,0.0325088,1924,1079,24.7865,-2.72379
707,-55,24.7532,2.76843,-0.000545218,-0.00148214,0.00598498,0.00498961,-0.00701697,0.746341,0.00696486,0.0246837,1931,1079,24.7532,-2.76841
714,-55,24.7446,2.92334,-0.000420001,-0.00146526,0.00624766,0.00532685,-0.00721211,0.743669,0.00726659,0.030186,1938,1079,24.7446,-2.92332
721,-55,24.6217,3.82898,-0.000376094,-0.00139434,0.00623806,0.00537358,-0.00714401,0.744681,0.00725109,0.0413126,1945,1079,24.6217,-3.82894
728,-55,24.1627,4.50598,0,0,0,0,0,0,0,-1,1952,1079,24.1627,-4.50601
735,-55,24.1302,4.44629,-0.000908889,-0.000839227,0.00558213,0.00470818,-0.00645629,0.788518,0.0064721,0.015531,1959,1079,24.1303,-4.44631
742,-55,24.1486,4.38354,-0.00168374,-0.000353809,0.00497103,0.00399654,-0.00603408,0.851887,0.00583087,0.0146982,1966,1079,24.1486,-4.38357
749,-55,24.1833,4.30444,-0.00250702,-0.000142568,0.0037068,0.00256597,-0.00521556,0.939766,0.00457866,0.0114942,1973,1079,24.1833,-4.30447
756,-55,24.1545,4.24927,-0.00332108,0.000748224,0.00207055,0.0016165,-0.00418936,1.17373,0.00345999,0.0110642,1980,1079,24.1546,-4.24927
763,-55,24.1256,4.2052,-0.00437103,0.00144422,0.000225056,0.00145292,-0.00437972,1.53217,0.00350595,0.0141334,1987,1079,24.1256,-4.20518
770,-55,24.1326,4.13354,-0.00593633,0.00228172,-0.00217438,0.00282157,-0.00647617,-1.32744,0.00550455,0.0139164,1994,1079,24.1326,-4.13349
777,-55,24.1119,4.05676,-0.00790554,0.00312304,-0.00459388,0.00478588,-0.00956838,-1.2235,0.00843936,0.0119789,2001,1079,24.1119,-4.05679
784,-55,23.9987,3.95508,-0.0102662,0.003715,-0.00694508,0.00657846,-0.0131297,-1.17973,0.0115862,0.0297933,2008,1079,23.9986,-3.95511
791,-55,23.6349,3.86707,-0.012969,0.00418523,-0.00994619,0.0087418,-0.0175256,-1.14121,0.0154455,0.0438771,2015,1079,23.6349,-3.8671
798,-55,23.2737,3.2312,-0.0159603,0.00453133,-0.0138261,0.0114941,-0.0229231,-1.10427,0.0202327,0.0466158,2022,1079,23.2737,-3.23115
805,-55,23.1069,2.87488,-0.0192293,0.00482365,-0.0187406,0.0150648,-0.0294704,-1.07067,0.026157,0.0485484,2029,1079,23.1068,-2.87492
812,-55,22.1257,2.78552,0,0,0,0,0,0,0,-1,2036,1079,22.1256,-2.78553
-700,-62,-18.1446,-0.344604,0.0303278,-0.00499804,0.0142429,0.0353549,-0.0100252,0.339308,0.0275271,0.0474797,524,1086,-18.1446,0.344615
-693,-62,-17.8261,0.0246582,0.0341176,-0.00204857,0.0126335,0.0380936,-0.00602458,0.304905,0.0276238,0.0484216,531,1086,-17.8261,-0.0246277
-686,-62,-17.6567,0.351074,0.034361,0.000417861,0.0114971,0.0378886,-0.00310978,0.29771,0.0263569,0.0459232,538,1086,-17.6567,-0.351075
-679,-62,-17.4948,0.239136,0.032476,0.00229276,0.0104581,0.0357454,-0.000976678,0.302997,0.0241624,0.0459596,545,1086,-17.4947,-0.23916
-672,-62,-17.5942,-0.334106,0.029306,0.00359051,0.00941917,0.032387,0.000509543,0.316125,0.0214235,0.0439076,552,1086,-17.5943,0.334084
-665,-62,-16.8237,0.802368,0.0254098,0.00434217,0.00831734,0.0282976,0.00145438,0.334179,0.0183995,0.0455454,559,1086,-16.8237,-0.802316
-658,-62,-16.7781,0.954102,0.0212046,0.00460368,0.00714385,0.0238555,0.00195279,0.355323,0.0152944,0.0459606,566,1086,-16.7781,-0.954116
-651,-62,-16.5444,1.22864,0.0170614,0.00443862,0.00592855,0.0194092,0.00209084,0.377065,0.0123019,0.0363978,573,1086,-16.5444,-1.22864
-644,-62,-16.4924,1.45056,0.0131297,0.00406037,0.00439595,0.0149107,0.00227938,0.384932,0.00927453,0.012913,580,1086,-16.4924,-1.45055
-637,-62,-16.4921,1.56836,0.00934657,0.00315888,0.0020403,0.00995876,0.00254668,0.291502,0.00597404,0.0110705,587,1086,-16.4921,-1.5683
-630,-62,-16.493,1.65686,0.00573418,0.00237887,-0.000245299,0.00575202,0.00236103,-0.0725932,0.00333863,0.0113806,594,1086,-16.493,-1.65685
-623,-62,-16.4942,1.78735,0.00258841,0.00158259,-0.00175784,0.00391387,0.000257144,-0.646072,0.00252789,0.0128414,601,1086,-16.4942,-1.78733
-616,-62,-16.4952,1.89636,-4.47982e-06,0.000146145,-0.00374549,0.00381708,-0.00367541,-0.795451,0.00432605,0.012654,608,1086,-16.4952,-1.89633
-609,-62,-16.4843,1.9834,-0.00173527,-0.0008324,-0.00586111,0.00459463,-0.00716231,-0.823834,0.00684162,0.0122392,615,1086,-16.4843,-1.98345
-602,-62,-16.4794,2.0863,-0.00270448,-0.00157408,-0.00753118,0.00541308,-0.00969164,-0.822852,0.00883656,0.0125235,622,1086,-16.4795,-2.08626
-595,-62,-16.3625,2.28967,0,0,0,0,0,0,0,-1,629,1086,-16.3625,-2.28972
-588,-62,-16.5478,1.68335,-0.00321141,-0.00244599,-0.00864309,0.00582286,-0.0114803,-0.807523,0.0101664,0.0318439,636,1086,-16.5478,-1.68331
-581,-62,-16.8743,0.998169,-0.00283244,-0.0024957,-0.0084025,0.00574012,-0.0110683,-0.795416,0.0098655,0.0371889,643,1086,-16.8742,-0.998145
-574,-62,-17.0059,0.857544,-0.00247935,-0.0024436,-0.00789953,0.00543807,-0.010361,-0.786529,0.00926804,0.0365711,650,1086,-17.0059,-0.857531
-567,-62,-17.0719,1.04138,-0.00179673,-0.00216161,-0.00669481,0.00471813,-0.00867647,-0.771776,0.00784512,0.0386938,657,1086,-17.0719,-1.04133
-560,-62,-17.0967,1.1189,-0.000737505,-0.00162927,-0.00465638,0.00349429,-0.00586107,-0.737665,0.00545864,0.0396739,664,1086,-17.0968,-1.11884
-553,-62,-16.9545,0.987915,0.000700853,-0.000852627,-0.00170128,0.00179432,-0.0019461,-0.571249,0.00216012,0.0380689,671,1086,-16.9545,-0.987941
-546,-62,-16.9158,0.807007,0.00254225,0.0001572,0.00226721,0.00391144,-0.00121198,0.543287,0.00309184,0.0320644,678,1086,-16.9158,-0.806962
-539,-62,-16.9711,0.858276,0.00447879,0.00124892,0.00654762,0.00960769,-0.00387998,0.664489,0.00801775,0.0362808,685,1086,-16.9711,-0.858256
-532,-62,-16.8218,1.09119,0.0055587,0.00203057,0.00906074,0.0130255,-0.00543623,0.689254,0.010955,0.0402326,692,1086,-16.8218,-1.09121
-525,-62,0,0,0,0,0,0,0,0,0,-1,699,1086,0,0
-518,-62,0,0,0,0,0,0,0,0,0,-1,706,1086,0,0
-511,-62,0,0,0,0,0,0,0,0,0,-1,713,1086,0,0
-504,-62,0,0,0,0,0,0,0,0,0,-1,720,1086,0,0
-497,-62,0,0,0,0,0,0,0,0,0,-1,727,1086,0,0
-490,-62,0,0,0,0,0,0,0,0,0,-1,734,1086,0,0
-483,-62,0,0,0,0,0,0,0,0,0,-1,741,1086,0,0
-476,-62,0,0,0,0,0,0,0,0,0,-1,748,1086,0,0
-469,-62,0,0,0,0,0,0,0,0,0,-1,755,1086,0,0
-462,-62,0,0,0,0,0,0,0,0,0,-1,762,1086,0,0
-455,-62,0,0,0,0,0,0,0,0,0,-1,769,1086,0,0
-448,-62,0,0,0,0,0,0,0,0,0,-1,776,1086,0,0
-441,-62,0,0,0,0,0,0,0,0,0,-1,783,1086,0,0
-434,-62,0,0,0,0,0,0,0,0,0,-1,790,1086,0,0
-427,-62,0,0,0,0,0,0,0,0,0,-1,797,1086,0,0
-420,-62,0,0,0,0,0,0,0,0,0,-1,804,1086,0,0
-413,-62,0,0,0,0,0,0,0,0,0,-1,811,1086,0,0
-406,-62,0,0,0,0,0,0,0,0,0,-1,818,1086,0,0
-399,-62,0,0,0,0,0,0,0,0,0,-1,825,1086,0,0
-392,-62,0,0,0,0,0,0,0,0,0,-1,832,1086,0,0
-385,-62,0,0,0,0,0,0,0,0,0,-1,839,1086,0,0
-378,-62,0,0,0,0,0,0,0,0,0,-1,846,1086,0,0
-371,-62,0,0,0,0,0,0,0,0,0,-1,853,1086,0,0
-364,-62,0,0,0,0,0,0,0,0,0,-1,860,1086,0,0
-357,-62,0,0,0,0,0,0,0,0,0,-1,867,1086,0,0
-350,-62,0,0,0,0,0,0,0,0,0,-1,874,1086,0,0
-343,-62,0,0,0,0,0,0,0,0,0,-1,881,1086,0,0
-336,-62,0,0,0,0,0,0,0,0,0,-1,888,1086,0,0
-329,-62,0,0,0,0,0,0,0,0,0,-1,895,1086,0,0
-322,-62,0,0,0,0,0,0,0,0,0,-1,902,1086,0,0
-315,-62,0,0,0,0,0,0,0,0,0,-1,909,1086,0,0
-308,-62,0,0,0,0,0,0,0,0,0,-1,916,1086,0,0
-301,-62,0,0,0,0,0,0,0,0,0,-1,923,1086,0,0
-294,-62,0,0,0,0,0,0,0,0,0,-1,930,1086,0,0
-287,-62,0,0,0,0,0,0,0,0,0,-1,937,1086,0,0
-280,-62,0,0,0,0,0,0,0,0,0,-1,944,1086,0,0
-273,-62,0,0,0,0,0,0,0,0,0,-1,951,1086,0,0
-266,-62,0,0,0,0,0,0,0,0,0,-1,958,1086,0,0
-259,-62,0,0,0,0,0,0,0,0,0,-1,965,1086,0,0
-252,-62,0,0,0,0,0,0,0,0,0,-1,972,1086,0,0
-245,-62,0,0,0,0,0,0,0,0,0,-1,979,1086,0,0
-238,-62,0,0,0,0,0,0,0,0,0,-1,986,1086,0,0
-231,-62,0,0,0,0,0,0,0,0,0,-1,993,1086,0,0
-224,-62,0,0,0,0,0,0,0,0,0,-1,1000,1086,0,0
-217,-62,0,0,0,0,0,0,0,0,0,-1,1007,1086,0,0
-210,-62,0,0,0,0,0,0,0,0,0,-1,1014,1086,0,0
-203,-62,0,0,0,0,0,0,0,0,0,-1,1021,1086,0,0
-196,-62,0,0,0,0,0,0,0,0,0,-1,1028,1086,0,0
-189,-62,0,0,0,0,0,0,0,0,0,-1,1035,1086,0,0
-182,-62,0,0,0,0,0,0,0,0,0,-1,1042,1086,0,0
-175,-62,0,0,0,0,0,0,0,0,0,-1,1049,1086,0,0
-168,-62,0,0,0,0,0,0,0,0,0,-1,1056,1086,0,0
-161,-62,0,0,0,0,0,0,0,0,0,-1,1063,1086,0,0
-154,-62,0,0,0,0,0,0,0,0,0,-1,1070,1086,0,0
-147,-62,0,0,0,0,0,0,0,0,0,-1,1077,1086,0,0
-140,-62,0,0,0,0,0,0,0,0,0,-1,1084,1086,0,0
-133,-62,0,0,0,0,0,0,0,0,0,-1,1091,1086,0,0
-126,-62,0,0,0,0,0,0,0,0,0,-1,1098,1086,0,0
-119,-62,0,0,0,0,0,0,0,0,0,-1,1105,1086,0,0
-112,-62,0,0,0,0,0,0,0,0,0,-1,1112,1086,0,0
-105,-62,0,0,0,0,0,0,0,0,0,-1,1119,1086,0,0
-98,-62,0,0,0,0,0,0,0,0,0,-1,1126,1086,0,0
-91,-62,0,0,0,0,0,0,0,0,0,-1,1133,1086,0,0
-84,-62,0,0,0,0,0,0,0,0,0,-1,1140,1086,0,0
-77,-62,0,0,0,0,0,0,0,0,0,-1,1147,1086,0,0
-70,-62,0,0,0,0,0,0,0,0,0,-1,1154,1086,0,0
-63,-62,0,0,0,0,0,0,0,0,0,-1,1161,1086,0,0
-56,-62,0,0,0,0,0,0,0,0,0,-1,1168,1086,0,0
-49,-62,0,0,0,0,0,0,0,0,0,-1,1175,1086,0,0
-42,-62,0,0,0,0,0,0,0,0,0,-1,1182,1086,0,0
-35,-62,0,0,0,0,0,0,0,0,0,-1,1189,1086,0,0
-28,-62,0,0,0,0,0,0,0,0,0,-1,1196,1086,0,0
-21,-62,0,0,0,0,0,0,0,0,0,-1,1203,1086,0,0
-14,-62,0,0,0,0,0,0,0,0,0,-1,1210,1086,0,0
-7,-62,0,0,0,0,0,0,0,0,0,-1,1217,1086,0,0
0,-62,0,0,0,0,0,0,0,0,0,-1,1224,1086,0,0
7,-62,0,0,0,0,0,0,0,0,0,-1,1231,1086,0,0
14,-62,0,0,0,0,0,0,0,0,0,-1,1238,1086,0,0
21,-62,0,0,0,0,0,0,0,0,0,-1,1245,1086,0,0
28,-62,0,0,0,0,0,0,0,0,0,-1,1252,1086,0,0
35,-62,0,0,0,0,0,0,0,0,0,-1,1259,1086,0,0
42,-62,0,0,0,0,0,0,0,0,0,-1,1266,1086,0,0
49,-62,0,0,0,0,0,0,0,0,0,-1,1273,1086,0,0
56,-62,0,0,0,0,0,0,0,0,0,-1,1280,1086,0,0
63,-62,0,0,0,0,0,0,0,0,0,-1,1287,1086,0,0
70,-62,0,0,0,0,0,0,0,0,0,-1,1294,1086,0,0
77,-62,0,0,0,0,0,0,0,0,0,-1,1301,1086,0,0
84,-62,0,0,0,0,0,0,0,0,0,-1,1308,1086,0,0
91,-62,0,0,0,0,0,0,0,0,0,-1,1315,1086,0,0
98,-62,0,0,0,0,0,0,0,0,0,-1,1322,1086,0,0
105,-62,0,0,0,0,0,0,0,0,0,-1,1329,1086,0,0
112,-62,0,0,0,0,0,0,0,0,0,-1,1336,1086,0,0
119,-62,0,0,0,0,0,0,0,0,0,-1,1343,1086,0,0
126,-62,0,0,0,0,0,0,0,0,0,-1,1350,1086,0,0
133,-62,0,0,0,0,0,0,0,0,0,-1,1357,1086,0,0
140,-62,0,0,0,0,0,0,0,0,0,-1,1364,1086,0,0
147,-62,0,0,0,0,0,0,0,0,0,-1,1371,1086,0,0
154,-62,0,0,0,0,0,0,0,0,0,-1,1378,1086,0,0
161,-62,0,0,0,0,0,0,0,0,0,-1,1385,1086,0,0
168,-62,0,0,0,0,0,0,0,0,0,-1,1392,1086,0,0
175,-62,0,0,0,0,0,0,0,0,0,-1,1399,1086,0,0
182,-62,0,0,0,0,0,0,0,0,0,-1,1406,1086,0,0
189,-62,0,0,0,0,0,0,0,0,0,-1,1413,1086,0,0
196,-62,0,0,0,0,0,0,0,0,0,-1,1420,1086,0,0
203,-62,0,0,0,0,0,0,0,0,0,-1,1427,1086,0,0
210,-62,0,0,0,0,0,0,0,0,0,-1,1434,1086,0,0
217,-62,0,0,0,0,0,0,0,0,0,-1,1441,1086,0,0
224,-62,0,0,0,0,0,0,0,0,0,-1,1448,1086,0,0
231,-62,0,0,0,0,0,0,0,0,0,-1,1455,1086,0,0
238,-62,0,0,0,0,0,0,0,0,0,-1,1462,1086,0,0
245,-62,0,0,0,0,0,0,0,0,0,-1,1469,1086,0,0
252,-62,0,0,0,0,0,0,0,0,0,-1,1476,1086,0,0
259,-62,0,0,0,0,0,0,0,0,0,-1,1483,1086,0,0
266,-62,0,0,0,0,0,0,0,0,0,-1,1490,1086,0,0
273,-62,0,0,0,0,0,0,0,0,0,-1,1497,1086,0,0
280,-62,0,0,0,0,0,0,0,0,0,-1,1504,1086,0,0
287,-62,0,0,0,0,0,0,0,0,0,-1,1511,1086,0,0
294,-62,0,0,0,0,0,0,0,0,0,-1,1518,1086,0,0
301,-62,0,0,0,0,0,0,0,0,0,-1,1525,1086,0,0
308,-62,0,0,0,0,0,0,0,0,0,-1,1532,1086,0,0
315,-62,0,0,0,0,0,0,0,0,0,-1,1539,1086,0,0
322,-62,0,0,0,0,0,0,0,0,0,-1,1546,1086,0,0
329,-62,0,0,0,0,0,0,0,0,0,-1,1553,1086,0,0
336,-62,0,0,0,0,0,0,0,0,0,-1,1560,1086,0,0
343,-62,0,0,0,0,0,0,0,0,0,-1,1567,1086,0,0
350,-62,0,0,0,0,0,0,0,0,0,-1,1574,1086,0,0
357,-62,0,0,0,0,0,0,0,0,0,-1,1581,1086,0,0
364,-62,0,0,0,0,0,0,0,0,0,-1,1588,1086,0,0
371,-62,0,0,0,0,0,0,0,0,0,-1,1595,1086,0,0
378,-62,0,0,0,0,0,0,0,0,0,-1,1602,1086,0,0
385,-62,0,0,0,0,0,0,0,0,0,-1,1609,1086,0,0
392,-62,0,0,0,0,0,0,0,0,0,-1,1616,1086,0,0
399,-62,0,0,0,0,0,0,0,0,0,-1,1623,1086,0,0
406,-62,0,0,0,0,0,0,0,0,0,-1,1630,1086,0,0
413,-62,0,0,0,0,0,0,0,0,0,-1,1637,1086,0,0
420,-62,0,0,0,0,0,0,0,0,0,-1,1644,1086,0,0
427,-62,0,0,0,0,0,0,0,0,0,-1,1651,1086,0,0
434,-62,0,0,0,0,0,0,0,0,0,-1,1658,1086,0,0
441,-62,0,0,0,0,0,0,0,0,0,-1,1665,1086,0,0
448,-62,0,0,0,0,0,0,0,0,0,-1,1672,1086,0,0
455,-62,0,0,0,0,0,0,0,0,0,-1,1679,1086,0,0
462,-62,0,0,0,0,0,0,0,0,0,-1,1686,1086,0,0
469,-62,0,0,0,0,0,0,0,0,0,-1,1693,1086,0,0
476,-62,0,0,0,0,0,0,0,0,0,-1,1700,1086,0,0
483,-62,0,0,0,0,0,0,0,0,0,-1,1707,1086,0,0
490,-62,0,0,0,0,0,0,0,0,0,-1,1714,1086,0,0
497,-62,0,0,0,0,0,0,0,0,0,-1,1721,1086,0,0
504,-62,0,0,0,0,0,0,0,0,0,-1,1728,1086,0,0
511,-62,0,0,0,0,0,0,0,0,0,-1,1735,1086,0,0
518,-62,0,0,0,0,0,0,0,0,0,-1,1742,1086,0,0
525,-62,0,0,0,0,0,0,0,0,0,-1,1749,1086,0,0
532,-62,0,0,0,0,0,0,0,0,0,-1,1756,1086,0,0
539,-62,0,0,0,0,0,0,0,0,0,-1,1763,1086,0,0
546,-62,0,0,0,0,0,0,0,0,0,-1,1770,1086,0,0
553,-62,0,0,0,0,0,0,0,0,0,-1,1777,1086,0,0
560,-62,0,0,0,0,0,0,0,0,0,-1,1784,1086,0,0
567,-62,0,0,0,0,0,0,0,0,0,-1,1791,1086,0,0
574,-62,0,0,0,0,0,0,0,0,0,-1,1798,1086,0,0
581,-62,0,0,0,0,0,0,0,0,0,-1,1805,1086,0,0
588,-62,0,0,0,0,0,0,0,0,0,-1,1812,1086,0,0
595,-62,0,0,0,0,0,0,0,0,0,-1,1819,1086,0,0
602,-62,0,0,0,0,0,0,0,0,0,-1,1826,1086,0,0
609,-62,0,0,0,0,0,0,0,0,0,-1,1833,1086,0,0
616,-62,0,0,0,0,0,0,0,0,0,-1,1840,1086,0,0
623,-62,0,0,0,0,0,0,0,0,0,-1,1847,1086,0,0
630,-62,0,0,0,0,0,0,0,0,0,-1,1854,1086,0,0
637,-62,0,0,0,0,0,0,0,0,0,-1,1861,1086,0,0
644,-62,0,0,0,0,0,0,0,0,0,-1,1868,1086,0,0
651,-62,25.0648,2.81873,-0.00343151,-0.00064855,0.00228036,0.000631348,-0.0047114,1.05934,0.00337115,0.0403617,1875,1086,25.0648,-2.8187
658,-62,25.0304,2.65588,-0.00294752,-0.000731664,0.00157509,8.61314e-05,-0.00376532,1.0919,0.00253941,0.0384077,1882,1086,25.0304,-2.65584
665,-62,24.8158,2.6145,-0.00235899,-0.00073488,0.00112191,-0.000161974,-0.00293189,1.09866,0.0019029,0.0379404,1889,1086,24.8157,-2.61446
672,-62,24.6783,2.69153,-0.00184488,-0.00081044,0.00159389,0.000348051,-0.00300337,0.942288,0.00212777,0.0366113,1896,1086,24.6784,-2.69156
679,-62,24.7122,2.63855,-0.00149105,-0.000990879,0.00267972,0.0014504,-0.00393234,0.831926,0.00321596,0.0371343,1903,1086,24.7122,-2.63861
686,-62,24.7026,2.56079,-0.00123125,-0.0012219,0.00379205,0.00256548,-0.00501863,0.786014,0.00445438,0.0398215,1910,1086,24.7026,-2.56074
693,-62,24.7789,2.63892,-0.00104769,-0.00143811,0.00477709,0.00353817,-0.00602398,0.764978,0.00558254,0.03872,1917,1086,24.7789,-2.63889
700,-62,24.7836,2.69897,-0.00100503,-0.00159663,0.00547316,0.00418031,-0.00678198,0.758401,0.00638822,0.0317356,1924,1086,24.7836,-2.69892
707,-62,24.7385,2.76538,-0.000991819,-0.00161795,0.00593424,0.00463761,-0.00724738,0.759045,0.00691672,0.0220298,1931,1086,24.7385,-2.76539
714,-62,24.7845,2.81604,-0.000868779,-0.00153552,0.00618823,0.00499506,-0.00739936,0.758488,0.00720066,0.0259994,1938,1086,24.7845,-2.81603
721,-62,24.7747,3.77319,-0.000787839,-0.00139241,0.00619009,0.00510734,-0.0072876,0.761001,0.00719303,0.0396467,1945,1086,24.7747,-3.77324
728,-62,24.0856,4.50818,0,0,0,0,0,0,0,-1,1952,1086,24.0856,-4.50819
735,-62,24.0719,4.41052,-0.00123784,-0.000790273,0.0055527,0.00454315,-0.00657126,0.805538,0.00645242,0.017742,1959,1086,24.0719,-4.41055
742,-62,24.0615,4.37939,-0.00196027,-0.000275495,0.004984,0.00393681,-0.00617257,0.869116,0.00588404,0.0153475,1966,1086,24.0616,-4.37937
749,-62,24.0648,4.29285,-0.00272358,-8.18162e-05,0.00377144,0.00259337,-0.00539876,0.953839,0.00470806,0.0133971,1973,1086,24.0648,-4.29282
756,-62,24.0283,4.27759,-0.00352532,0.000782555,0.00215256,0.00167377,-0.00441654,1.17826,0.00363315,0.0137535,1980,1086,24.0284,-4.27756
763,-62,24.0425,4.198,-0.00457246,0.00145486,0.000323056,0.00147212,-0.00458973,1.5174,0.00365084,0.0143362,1987,1086,24.0425,-4.19804
770,-62,24.0621,4.10071,-0.00613604,0.00224704,-0.00204083,0.00271747,-0.00660647,-1.34424,0.00553707,0.0110225,1994,1086,24.0622,-4.10066
777,-62,24.0233,3.99646,-0.00820803,0.00297892,-0.00434381,0.00446751,-0.00969662,-1.24065,0.00836136,0.0130709,2001,1086,24.0233,-3.99647
784,-62,23.9557,3.84631,-0.0107392,0.00350884,-0.00672771,0.00618348,-0.0134138,-1.1924,0.0115684,0.0286658,2008,1086,23.9556,-3.84628
791,-62,23.8572,3.68225,-0.0136882,0.00391761,-0.00989695,0.00836011,-0.0181307,-1.14888,0.0156374,0.0457586,2015,1086,23.8571,-3.68231
798,-62,23.7369,3.27124,-0.016989,0.00421988,-0.0141468,0.0112955,-0.0240647,-1.10702,0.0208542,0.0454368,2022,1086,23.7369,-3.27123
805,-62,23.3677,2.58899,-0.0206405,0.00451076,-0.0197346,0.015336,-0.0314657,-1.06907,0.0275507,0.0465829,2029,1086,23.3678,-2.58904
812,-62,23.1025,2.84607,0,0,0,0,0,0,0,-1,2036,1086,23.1025,-2.84613
-700,-69,-18.1513,-0.298218,0.0476418,8.05426e-05,0.0133512,0.0511333,-0.00341105,0.25579,0.0352809,0.0459232,524,1093,-18.1513,0.298198
-693,-69,-17.7325,0.218872,0.0491063,0.0021412,0.0115571,0.0517961,-0.000548694,0.228677,0.0347151,0.0455263,531,1093,-17.7325,-0.218816
-686,-69,-17.494,0.602905,0.0468421,0.00364274,0.0103582,0.0491974,0.0012875,0.223578,0.0323776,0.0441586,538,1093,-17.494,-0.602887
-679,-69,-17.2243,0.658081,0.0425064,0.00458416,0.0093398,0.0446819,0.00240868,0.228846,0.0290184,0.0463126,545,1093,-17.2243,-0.658122
-672,-69,-16.9801,-0.799927,0.0370886,0.00506182,0.00837558,0.0391467,0.00300371,0.240953,0.0251564,0.0444424,552,1093,-16.9801,0.799868
-665,-69,-16.967,0.0220947,0.0312206,0.00514988,0.00738381,0.0331666,0.00320388,0.25769,0.0211243,0.0440395,559,1093,-16.9671,-0.0220979
-658,-69,-16.5726,0.897339,0.0253746,0.00492037,0.00634075,0.0271808,0.00311425,0.277495,0.0171768,0.0467604,566,1093,-16.5726,-0.897388
-651,-69,-16.3973,1.29382,0.0199449,0.00442892,0.00526758,0.0215642,0.00280961,0.298242,0.0135372,0.0327881,573,1093,-16.3973,-1.29379
-644,-69,-16.3707,1.44263,0.0150136,0.00382191,0.00391763,0.0162487,0.00258685,0.305395,0.0100814,0.00987414,580,1093,-16.3707,-1.44262
-637,-69,-16.3924,1.57007,0.0103988,0.00288598,0.00172696,0.0107768,0.00250803,0.215461,0.00651154,0.0118236,587,1093,-16.3924,-1.57002
-630,-69,-16.3952,1.6521,0.00609688,0.00199488,-0.000403568,0.0061362,0.00195555,-0.0971422,0.00361955,0.0132151,594,1093,-16.3952,-1.65208
-623,-69,-16.3661,1.76672,0.00253024,0.00112339,-0.0017594,0.00372162,-6.79911e-05,-0.595227,0.00250405,0.012486,601,1093,-16.3661,-1.76668
-616,-69,-16.3537,1.8949,-0.000214342,-0.000211618,-0.0036543,0.00344132,-0.00386728,-0.785585,0.00422202,0.0131476,608,1093,-16.3537,-1.89488
-609,-69,-16.355,1.96326,-0.00193985,-0.000945469,-0.00572993,0.0043088,-0.00719412,-0.828675,0.00671049,0.0120358,615,1093,-16.3551,-1.96324
-602,-69,-16.3489,2.09985,-0.00292744,-0.00159557,-0.00734658,0.00511519,-0.0096382,-0.830597,0.00865028,0.0156726,622,1093,-16.3489,-2.09985
-595,-69,-16.2507,2.42151,0,0,0,0,0,0,0,-1,629,1093,-16.2507,-2.42147
-588,-69,-16.5028,1.86304,-0.00344572,-0.0023486,-0.00848538,0.00560594,-0.0114003,-0.817677,0.0100067,0.0301091,636,1093,-16.5028,-1.86307
-581,-69,-16.7996,1.22937,-0.00306314,-0.00234683,-0.00829743,0.00560017,-0.0110101,-0.806967,0.00975805,0.0357482,643,1093,-16.7996,-1.22936
-574,-69,-16.9677,0.882935,-0.00271362,-0.00226673,-0.00789452,0.00540751,-0.0103879,-0.799546,0.00926934,0.0336579,650,1093,-16.9677,-0.882948
-567,-69,-16.9594,1.14758,-0.00199491,-0.00197105,-0.00685497,0.00487201,-0.00883796,-0.786268,0.00802509,0.0386084,657,1093,-16.9594,-1.14759
-560,-69,-16.8578,1.17981,-0.000892745,-0.00143993,-0.00503273,0.00387382,-0.0062065,-0.758244,0.00587159,0.0387418,664,1093,-16.8578,-1.17976
-553,-69,-16.826,0.960693,0.000567879,-0.000674958,-0.00233375,0.00236153,-0.00246861,-0.65528,0.00278891,0.0379807,671,1093,-16.826,-0.960748
-546,-69,-16.8773,0.760254,0.00240231,0.000317874,0.00136274,0.00307569,-0.000355503,0.458946,0.00217865,0.0339795,678,1093,-16.8772,-0.76028
-539,-69,-16.9256,0.691528,0.00431645,0.00140177,0.00551688,0.00856523,-0.00284701,0.656268,0.00685902,0.0368208,685,1093,-16.9256,-0.69158
-532,-69,-16.7234,0.92334,0.00525073,0.002154,0.0081372,0.0119856,-0.00458084,0.691381,0.00987796,0.0404979,692,1093,-16.7234,-0.923361
-525,-69,0,0,0,0,0,0,0,0,0,-1,699,1093,0,0
-518,-69,0,0,0,0,0,0,0,0,0,-1,706,1093,0,0
-511,-69,0,0,0,0,0,0,0,0,0,-1,713,1093,0,0
-504,-69,0,0,0,0,0,0,0,0,0,-1,720,1093,0,0
-497,-69,0,0,0,0,0,0,0,0,0,-1,727,1093,0,0
-490,-69,0,0,0,0,0,0,0,0,0,-1,734,1093,0,0
-483,-69,0,0,0,0,0,0,0,0,0,-1,741,1093,0,0
-476,-69,0,0,0,0,0,0,0,0,0,-1,748,1093,0,0
-469,-69,0,0,0,0,0,0,0,0,0,-1,755,1093,0,0
-462,-69,0,0,0,0,0,0,0,0,0,-1,762,1093,0,0
-455,-69,0,0,0,0,0,0,0,0,0,-1,769,1093,0,0
-448,-69,0,0,0,0,0,0,0,0,0,-1,776,1093,0,0
-441,-69,0,0,0,0,0,0,0,0,0,-1,783,1093,0,0
-434,-69,0,0,0,0,0,0,0,0,0,-1,790,1093,0,0
-427,-69,0,0,0,0,0,0,0,0,0,-1,797,1093,0,0
-420,-69,0,0,0,0,0,0,0,0,0,-1,804,1093,0,0
-413,-69,0,0,0,0,0,0,0,0,0,-1,811,1093,0,0
-406,-69,0,0,0,0,0,0,0,0,0,-1,818,1093,0,0
-399,-69,0,0,0,0,0,0,0,0,0,-1,825,1093,0,0
-392,-69,0,0,0,0,0,0,0,0,0,-1,832,1093,0,0
-385,-69,0,0,0,0,0,0,0,0,0,-1,839,1093,0,0
-378,-69,0,0,0,0,0,0,0,0,0,-1,846,1093,0,0
-371,-69,0,0,0,0,0,0,0,0,0,-1,853,1093,0,0
-364,-69,0,0,0,0,0,0,0,0,0,-1,860,1093,0,0
-357,-69,0,0,0,0,0,0,0,0,0,-1,867,1093,0,0
-350,-69,0,0,0,0,0,0,0,0,0,-1,874,1093,0,0
-343,-69,0,0,0,0,0,0,0,0,0,-1,881,1093,0,0
-336,-69,0,0,0,0,0,0,0,0,0,-1,888,1093,0,0
-329,-69,0,0,0,0,0,0,0,0,0,-1,895,1093,0,0
-322,-69,0,0,0,0,0,0,0,0,0,-1,902,1093,0,0
-315,-69,0,0,0,0,0,0,0,0,0,-1,909,1093,0,0
-308,-69,0,0,0,0,0,0,0,0,0,-1,916,1093,0,0
-301,-69,0,0,0,0,0,0,0,0,0,-1,923,1093,0,0
-294,-69,0,0,0,0,0,0,0,0,0,-1,930,1093,0,0
-287,-69,0,0,0,0,0,0,0,0,0,-1,937,1093,0,0
-280,-69,0,0,0,0,0,0,0,0,0,-1,944,1093,0,0
-273,-69,0,0,0,0,0,0,0,0,0,-1,951,1093,0,0
-266,-69,0,0,0,0,0,0,0,0,0,-1,958,1093,0,0
-259,-69,0,0,0,0,0,0,0,0,0,-1,965,1093,0,0
-252,-69,0,0,0,0,0,0,0,0,0,-1,972,1093,0,0
-245,-69,0,0,0,0,0,0,0,0,0,-1,979,1093,0,0
-238,-69,0,0,0,0,0,0,0,0,0,-1,986,1093,0,0
-231,-69,0,0,0,0,0,0,0,0,0,-1,993,1093,0,0
-224,-69,0,0,0,0,0,0,0,0,0,-1,1000,1093,0,0
-217,-69,0,0,0,0,0,0,0,0,0,-1,1007,1093,0,0
-210,-69,0,0,0,0,0,0,0,0,0,-1,1014,1093,0,0
-203,-69,0,0,0,0,0,0,0,0,0,-1,1021,1093,0,0
-196,-69,0,0,0,0,0,0,0,0,0,-1,1028,1093,0,0
-189,-69,0,0,0,0,0,0,0,0,0,-1,1035,1093,0,0
-182,-69,0,0,0,0,0,0,0,0,0,-1,1042,1093,0,0
-175,-69,0,0,0,0,0,0,0,0,0,-1,1049,1093,0,0
-168,-69,0,0,0,0,0,0,0,0,0,-1,1056,1093,0,0
-161,-69,0,0,0,0,0,0,0,0,0,-1,1063,1093,0,0
-154,-69,0,0,0,0,0,0,0,0,0,-1,1070,1093,0,0
-147,-69,0,0,0,0,0,0,0,0,0,-1,1077,1093,0,0
-140,-69,0,0,0,0,0,0,0,0,0,-1,1084,1093,0,0
-133,-69,0,0,0,0,0,0,0,0,0,-1,1091,1093,0,0
-126,-69,0,0,0,0,0,0,0,0,0,-1,1098,1093,0,0
-119,-69,0,0,0,0,0,0,0,0,0,-1,1105,1093,0,0
-112,-69,0,0,0,0,0,0,0,0,0,-1,1112,1093,0,0
-105,-69,0,0,0,0,0,0,0,0,0,-1,1119,1093,0,0
-98,-69,0,0,0,0,0,0,0,0,0,-1,1126,1093,0,0
-91,-69,0,0,0,0,0,0,0,0,0,-1,1133,1093,0,0
-84,-69,0,0,0,0,0,0,0,0,0,-1,1140,1093,0,0
-77,-69,0,0,0,0,0,0,0,0,0,-1,1147,1093,0,0
-70,-69,0,0,0,0,0,0,0,0,0,-1,1154,1093,0,0
-63,-69,0,0,0,0,0,0,0,0,0,-1,1161,1093,0,0
-56,-69,0,0,0,0,0,0,0,0,0,-1,1168,1093,0,0
-49,-69,0,0,0,0,0,0,0,0,0,-1,1175,1093,0,0
-42,-69,0,0,0,0,0,0,0,0,0,-1,1182,1093,0,0
-35,-69,0,0,0,0,0,0,0,0,0,-1,1189,1093,0,0
-28,-69,0,0,0,0,0,0,0,0,0,-1,1196,1093,0,0
-21,-69,0,0,0,0,0,0,0,0,0,-1,1203,1093,0,0
-14,-69,0,0,0,0,0,0,0,0,0,-1,1210,1093,0,0
-7,-69,0,0,0,0,0,0,0,0,0,-1,1217,1093,0,0
0,-69,0,0,0,0,0,0,0,0,0,-1,1224,1093,0,0
7,-69,0,0,0,0,0,0,0,0,0,-1,1231,1093,0,0
14,-69,0,0,0,0,0,0,0,0,0,-1,1238,1093,0,0
21,-69,0,0,0,0,0,0,0,0,0,-1,1245,1093,0,0
28,-69,0,0,0,0,0,0,0,0,0,-1,1252,1093,0,0
35,-69,0,0,0,0,0,0,0,0,0,-1,1259,1093,0,0
42,-69,0,0,0,0,0,0,0,0,0,-1,1266,1093,0,0
49,-69,0,0,0,0,0,0,0,0,0,-1,1273,1093,0,0
56,-69,0,0,0,0,0,0,0,0,0,-1,1280,1093,0,0
63,-69,0,0,0,0,0,0,0,0,0,-1,1287,1093,0,0
70,-69,0,0,0,0,0,0,0,0,0,-1,1294,1093,0,0
77,-69,0,0,0,0,0,0,0,0,0,-1,1301,1093,0,0
84,-69,0,0,0,0,0,0,0,0,0,-1,1308,1093,0,0
91,-69,0,0,0,0,0,0,0,0,0,-1,1315,1093,0,0
98,-69,0,0,0,0,0,0,0,0,0,-1,1322,1093,0,0
105,-69,0,0,0,0,0,0,0,0,0,-1,1329,1093,0,0
112,-69,0,0,0,0,0,0,0,0,0,-1,1336,1093,0,0
119,-69,0,0,0,0,0,0,0,0,0,-1,1343,1093,0,0
126,-69,0,0,0,0,0,0,0,0,0,-1,1350,1093,0,0
133,-69,0,0,0,0,0,0,0,0,0,-1,1357,1093,0,0
140,-69,0,0,0,0,0,0,0,0,0,-1,1364,1093,0,0
147,-69,0,0,0,0,0,0,0,0,0,-1,1371,1093,0,0
154,-69,0,0,0,0,0,0,0,0,0,-1,1378,1093,0,0
161,-69,0,0,0,0,0,0,0,0,0,-1,1385,1093,0,0
168,-69,0,0,0,0,0,0,0,0,0,-1,1392,1093,0,0
175,-69,0,0,0,0,0,0,0,0,0,-1,1399,1093,0,0
182,-69,0,0,0,0,0,0,0,0,0,-1,1406,1093,0,0
189,-69,0,0,0,0,0,0,0,0,0,-1,1413,1093,0,0
196,-69,0,0,0,0,0,0,0,0,0,-1,1420,1093,0,0
203,-69,0,0,0,0,0,0,0,0,0,-1,1427,1093,0,0
210,-69,0,0,0,0,0,0,0,0,0,-1,1434,1093,0,0
217,-69,0,0,0,0,0,0,0,0,0,-1,1441,1093,0,0
224,-69,0,0,0,0,0,0,0,0,0,-1,1448,1093,0,0
231,-69,0,0,0,0,0,0,0,0,0,-1,1455,1093,0,0
238,-69,0,0,0,0,0,0,0,0,0,-1,1462,1093,0,0
245,-69,0,0,0,0,0,0,0,0,0,-1,1469,1093,0,0
252,-69,0,0,0,0,0,0,0,0,0,-1,1476,1093,0,0
259,-69,0,0,0,0,0,0,0,0,0,-1,1483,1093,0,0
266,-69,0,0,0,0,0,0,0,0,0,-1,1490,1093,0,0
273,-69,0,0,0,0,0,0,0,0,0,-1,1497,1093,0,0
280,-69,0,0,0,0,0,0,0,0,0,-1,1504,1093,0,0
287,-69,0,0,0,0,0,0,0,0,0,-1,1511,1093,0,0
294,-69,0,0,0,0,0,0,0,0,0,-1,1518,1093,0,0
301,-69,0,0,0,0,0,0,0,0,0,-1,1525,1093,0,0
308,-69,0,0,0,0,0,0,0,0,0,-1,1532,1093,0,0
315,-69,0,0,0,0,0,0,0,0,0,-1,1539,1093,0,0
322,-69,0,0,0,0,0,0,0,0,0,-1,1546,1093,0,0
329,-69,0,0,0,0,0,0,0,0,0,-1,1553,1093,0,0
336,-69,0,0,0,0,0,0,0,0,0,-1,1560,1093,0,0
343,-69,0,0,0,0,0,0,0,0,0,-1,1567,1093,0,0
350,-69,0,0,0,0,0,0,0,0,0,-1,1574,1093,0,0
357,-69,0,0,0,0,0,0,0,0,0,-1,1581,1093,0,0
364,-69,0,0,0,0,0,0,0,0,0,-1,1588,1093,0,0
371,-69,0,0,0,0,0,0,0,0,0,-1,1595,1093,0,0
378,-69,0,0,0,0,0,0,0,0,0,-1,1602,1093,0,0
385,-69,0,0,0,0,0,0,0,0,0,-1,1609,1093,0,0
392,-69,0,0,0,0,0,0,0,0,0,-1,1616,1093,0,0
399,-69,0,0,0,0,0,0,0,0,0,-1,1623,1093,0,0
406,-69,0,0,0,0,0,0,0,0,0,-1,1630,1093,0,0
413,-69,0,0,0,0,0,0,0,0,0,-1,1637,1093,0,0
420,-69,0,0,0,0,0,0,0,0,0,-1,1644,1093,0,0
427,-69,0,0,0,0,0,0,0,0,0,-1,1651,1093,0,0
434,-69,0,0,0,0,0,0,0,0,0,-1,1658,1093,0,0
441,-69,0,0,0,0,0,0,0,0,0,-1,1665,1093,0,0
448,-69,0,0,0,0,0,0,0,0,0,-1,1672,1093,0,0
455,-69,0,0,0,0,0,0,0,0,0,-1,1679,1093,0,0
462,-69,0,0,0,0,0,0,0,0,0,-1,1686,1093,0,0
469,-69,0,0,0,0,0,0,0,0,0,-1,1693,1093,0,0
476,-69,0,0,0,0,0,0,0,0,0,-1,1700,1093,0,0
483,-69,0,0,0,0,0,0,0,0,0,-1,1707,1093,0,0
490,-69,0,0,0,0,0,0,0,0,0,-1,1714,1093,0,0
497,-69,0,0,0,0,0,0,0,0,0,-1,1721,1093,0,0
504,-69,0,0,0,0,0,0,0,0,0,-1,1728,1093,0,0
511,-69,0,0,0,0,0,0,0,0,0,-1,1735,1093,0,0
518,-69,0,0,0,0,0,0,0,0,0,-1,1742,1093,0,0
525,-69,0,0,0,0,0,0,0,0,0,-1,1749,1093,0,0
532,-69,0,0,0,0,0,0,0,0,0,-1,1756,1093,0,0
539,-69,0,0,0,0,0,0,0,0,0,-1,1763,1093,0,0
546,-69,0,0,0,0,0,0,0,0,0,-1,1770,1093,0,0
553,-69,0,0,0,0,0,0,0,0,0,-1,1777,1093,0,0
560,-69,0,0,0,0,0,0,0,0,0,-1,1784,1093,0,0
567,-69,0,0,0,0,0,0,0,0,0,-1,1791,1093,0,0
574,-69,0,0,0,0,0,0,0,0,0,-1,1798,1093,0,0
581,-69,0,0,0,0,0,0,0,0,0,-1,1805,1093,0,0
588,-69,0,0,0,0,0,0,0,0,0,-1,1812,1093,0,0
595,-69,0,0,0,0,0,0,0,0,0,-1,1819,1093,0,0
602,-69,0,0,0,0,0,0,0,0,0,-1,1826,1093,0,0
609,-69,0,0,0,0,0,0,0,0,0,-1,1833,1093,0,0
616,-69,0,0,0,0,0,0,0,0,0,-1,1840,1093,0,0
623,-69,0,0,0,0,0,0,0,0,0,-1,1847,1093,0,0
630,-69,0,0,0,0,0,0,0,0,0,-1,1854,1093,0,0
637,-69,0,0,0,0,0,0,0,0,0,-1,1861,1093,0,0
644,-69,0,0,0,0,0,0,0,0,0,-1,1868,1093,0,0
651,-69,24.9689,2.83179,-0.00163962,6.57314e-05,0.00287821,0.00221492,-0.00378881,0.929405,0.00350573,0.0434359,1875,1093,24.9689,-2.83183
658,-69,24.9922,2.61353,-0.00171113,-0.000477608,0.00203685,0.00103381,-0.00322256,0.932411,0.00256343,0.0437666,1882,1093,24.9922,-2.61354
665,-69,24.8632,2.47815,-0.00147006,-0.00078477,0.00145844,0.000370729,-0.00262556,0.900777,0.00188614,0.0429421,1889,1093,24.8631,-2.47821
672,-69,24.6578,2.6134,-0.00138045,-0.00111356,0.00190087,0.000658537,-0.00315255,0.820443,0.00235214,0.0379323,1896,1093,24.6579,-2.61344
679,-69,24.6458,2.80823,-0.00145528,-0.00143852,0.00293894,0.00149205,-0.00438586,0.786823,0.00352804,0.0388795,1903,1093,24.6458,-2.80828
686,-69,24.7332,2.66956,-0.00151139,-0.00171691,0.00401466,0.00240183,-0.00563013,0.772603,0.00476047,0.0402426,1910,1093,24.7332,-2.66954
693,-69,24.6895,2.64246,-0.00156279,-0.00191092,0.00497207,0.00323826,-0.00671197,0.767901,0.0058603,0.0373281,1917,1093,24.6894,-2.64248
700,-69,24.7223,2.67175,-0.0017141,-0.0020349,0.00563057,0.00375836,-0.00750735,0.771158,0.00662322,0.0296194,1924,1093,24.7223,-2.67171
707,-69,24.7273,2.73413,-0.00179874,-0.00201153,0.00607713,0.00417293,-0.0079832,0.776645,0.00713234,0.0213582,1931,1093,24.7273,-2.73407
714,-69,24.8215,2.77576,-0.00169683,-0.00186199,0.00632564,0.00454677,-0.00810559,0.778871,0.00740054,0.0245663,1938,1093,24.8215,-2.77576
721,-69,24.6052,3.63049,0,0,0,0,0,0,0,-1,1945,1093,24.6052,-3.63051
728,-69,24.2329,4.45496,0,0,0,0,0,0,0,-1,1952,1093,24.2329,-4.45499
735,-69,23.9896,4.49426,-0.00189408,-0.000880379,0.00570715,0.00434239,-0.00711684,0.829687,0.00668031,0.0201051,1959,1093,23.9897,-4.49427
742,-69,23.9774,4.41003,-0.00249028,-0.000301958,0.00515094,0.00386975,-0.00666198,0.890052,0.00615132,0.014965,1966,1093,23.9774,-4.41004
749,-69,23.9004,4.32385,-0.0031315,-9.47544e-05,0.00397208,0.00263927,-0.00586553,0.967959,0.00502664,0.0166714,1973,1093,23.9004,-4.3238
756,-69,23.9331,4.26965,-0.00384974,0.000755521,0.0023682,0.00175599,-0.00485021,1.17108,0.00395109,0.0149527,1980,1093,23.9331,-4.26971
763,-69,23.9409,4.177,-0.00478897,0.00142252,0.00057562,0.00147541,-0.00484186,1.47917,0.003816,0.0147004,1987,1093,23.941,-4.17695
770,-69,23.9462,4.08545,-0.00624456,0.00218005,-0.00167982,0.00250265,-0.00656715,-1.38107,0.00540888,0.0136037,1994,1093,23.9462,-4.08546
777,-69,23.933,3.98535,-0.00836789,0.00278829,-0.00373238,0.00392181,-0.00950142,-1.27595,0.00796995,0.0187279,2001,1093,23.9329,-3.98533
784,-69,23.9579,3.99927,-0.0110584,0.00323177,-0.00596012,0.00539127,-0.0132179,-1.22318,0.0110562,0.0331817,2008,1093,23.9578,-3.99926
791,-69,24.0813,4.11145,-0.0142466,0.00354312,-0.0090549,0.00734116,-0.0180447,-1.17364,0.0150845,0.0461063,2015,1093,24.0813,-4.1114
798,-69,24.2418,4.26331,-0.0178615,0.00377081,-0.0133702,0.0101521,-0.0242428,-1.12549,0.0204058,0.0497617,2022,1093,24.2419,-4.26331
805,-69,24.3628,4.4447,0,0,0,0,0,0,0,-1,2029,1093,24.3628,-4.44465
812,-69,24.1165,1.56262,0,0,0,0,0,0,0,-1,2036,1093,24.1165,-1.56265
-700,-76,0,0,0,0,0,0,0,0,0,-1,524,1100,0,0
-693,-76,-17.8593,0.644897,0.067148,0.0115966,0.00957947,0.0687536,0.00999112,0.166056,0.042895,0.0443537,531,1100,-17.8593,-0.644932
-686,-76,-17.5908,1.02869,0.0615912,0.0113398,0.00887921,0.063114,0.00981707,0.169847,0.0392154,0.0489219,538,1100,-17.5908,-1.02871
-679,-76,-17.242,1.42334,0.0541409,0.0105615,0.00824156,0.0556474,0.009055,0.180801,0.0344786,0.0464349,545,1100,-17.242,-1.42336
-672,-76,-17.1193,0.578735,0.0459567,0.00948278,0.00756469,0.0474634,0.0079761,0.1966,0.0293471,0.0456942,552,1100,-17.1193,-0.578792
-665,-76,-16.7448,0.581665,0.0377325,0.00824654,0.00679079,0.0392213,0.00675776,0.215821,0.0242114,0.0444453,559,1100,-16.7448,-0.581682
-658,-76,-16.4146,1.08569,0.0299628,0.00695849,0.00590872,0.0313917,0.00552957,0.237276,0.0193498,0.0447448,566,1100,-16.4145,-1.08566
-651,-76,-16.186,1.33411,0.0230426,0.00567923,0.00495763,0.0243584,0.00436343,0.259428,0.0149976,0.0282105,573,1100,-16.186,-1.33406
-644,-76,-16.2054,1.42639,0.0170204,0.00446919,0.00374926,0.0180551,0.00343451,0.269265,0.0110709,0.0101272,580,1100,-16.2054,-1.42639
-637,-76,-16.2562,1.54858,0.0115525,0.0032155,0.00173161,0.0118978,0.00287014,0.196858,0.00716929,0.0126447,587,1100,-16.2562,-1.54853
-630,-76,-16.2631,1.62866,0.00650281,0.00199416,-0.000261034,0.00651787,0.0019791,-0.0576396,0.00385861,0.0140261,594,1100,-16.2631,-1.6287
-623,-76,-16.2389,1.7428,0.00243933,0.000904577,-0.00157374,0.00342282,-7.89128e-05,-0.558554,0.00230864,0.0135615,601,1100,-16.2389,-1.7428
-616,-76,-16.2372,1.89246,-0.000398819,-0.000387051,-0.00343264,0.00303971,-0.00382558,-0.786255,0.00397232,0.0124978,608,1100,-16.2372,-1.89251
-609,-76,-16.2525,1.98645,-0.0020278,-0.00087187,-0.00548922,0.00406973,-0.0069694,-0.83785,0.00644632,0.01271,615,1100,-16.2525,-1.98641
-602,-76,-16.2316,2.09924,-0.0029636,-0.00144989,-0.0070376,0.00487144,-0.00928493,-0.838964,0.00830453,0.0171084,622,1100,-16.2316,-2.09924
-595,-76,-16.2108,2.18359,-0.00345202,-0.00186602,-0.00780892,0.00519007,-0.0105081,-0.836,0.00923507,0.0215537,629,1100,-16.2108,-2.18365
-588,-76,-16.4014,1.896,-0.00341718,-0.00208997,-0.00813596,0.00540941,-0.0109166,-0.82609,0.00960289,0.0311063,636,1100,-16.4015,-1.89605
-581,-76,-16.6873,1.13379,-0.00303468,-0.00204192,-0.0079778,0.00545493,-0.0105315,-0.816468,0.00938363,0.0341273,643,1100,-16.6872,-1.13377
-574,-76,-16.9434,0.830444,-0.00270801,-0.00193975,-0.00764127,0.00532705,-0.0099748,-0.810512,0.00896934,0.0369021,650,1100,-16.9434,-0.830449
-567,-76,-16.8936,1.14307,-0.00199,-0.00163869,-0.00674302,0.00493096,-0.00855965,-0.79842,0.00788217,0.0436472,657,1100,-16.8936,-1.14311
-560,-76,-16.6974,1.12073,-0.000906408,-0.00113306,-0.00512183,0.00410335,-0.00614282,-0.774337,0.00595456,0.0424438,664,1100,-16.6975,-1.12067
-553,-76,-16.7325,0.70813,0.000490342,-0.000422398,-0.0026777,0.00275028,-0.00268234,-0.700992,0.00313661,0.042777,671,1100,-16.7325,-0.708156
-546,-76,-16.7829,0.534302,0.00220431,0.000492189,0.000730722,0.00247377,0.00022273,0.353287,0.00158018,0.0414135,678,1100,-16.7829,-0.534285
-539,-76,-16.9565,0.593506,0.00400097,0.00149617,0.00474193,0.0076531,-0.00215596,0.65629,0.00595232,0.0427978,685,1100,-16.9565,-0.593536
-532,-76,-16.8325,0.960327,0.00475816,0.00215248,0.00749066,0.0110584,-0.0041478,0.699295,0.0090765,0.0443124,692,1100,-16.8325,-0.960349
-525,-76,0,0,0,0,0,0,0,0,0,-1,699,1100,0,0
-518,-76,0,0,0,0,0,0,0,0,0,-1,706,1100,0,0
-511,-76,0,0,0,0,0,0,0,0,0,-1,713,1100,0,0
-504,-76,0,0,0,0,0,0,0,0,0,-1,720,1100,0,0
-497,-76,0,0,0,0,0,0,0,0,0,-1,727,1100,0,0
-490,-76,0,0,0,0,0,0,0,0,0,-1,734,1100,0,0
-483,-76,0,0,0,0,0,0,0,0,0,-1,741,1100,0,0
-476,-76,0,0,0,0,0,0,0,0,0,-1,748,1100,0,0
-469,-76,0,0,0,0,0,0,0,0,0,-1,755,1100,0,0
-462,-76,0,0,0,0,0,0,0,0,0,-1,762,1100,0,0
-455,-76,0,0,0,0,0,0,0,0,0,-1,769,1100,0,0
-448,-76,0,0,0,0,0,0,0,0,0,-1,776,1100,0,0
-441,-76,0,0,0,0,0,0,0,0,0,-1,783,1100,0,0
-434,-76,0,0,0,0,0,0,0,0,0,-1,790,1100,0,0
-427,-76,0,0,0,0,0,0,0,0,0,-1,797,1100,0,0
-420,-76,0,0,0,0,0,0,0,0,0,-1,804,1100,0,0
-413,-76,0,0,0,0,0,0,0,0,0,-1,811,1100,0,0
-406,-76,0,0,0,0,0,0,0,0,0,-1,818,1100,0,0
-399,-76,0,0,0,0,0,0,0,0,0,-1,825,1100,0,0
-392,-76,0,0,0,0,0,0,0,0,0,-1,832,1100,0,0
-385,-76,0,0,0,0,0,0,0,0,0,-1,839,1100,0,0
-378,-76,0,0,0,0,0,0,0,0,0,-1,846,1100,0,0
-371,-76,0,0,0,0,0,0,0,0,0,-1,853,1100,0,0
-364,-76,0,0,0,0,0,0,0,0,0,-1,860,1100,0,0
-357,-76,0,0,0,0,0,0,0,0,0,-1,867,1100,0,0
-350,-76,0,0,0,0,0,0,0,0,0,-1,874,1100,0,0
-343,-76,0,0,0,0,0,0,0,0,0,-1,881,1100,0,0
-336,-76,0,0,0,0,0,0,0,0,0,-1,888,1100,0,0
-329,-76,0,0,0,0,0,0,0,0,0,-1,895,1100,0,0
-322,-76,0,0,0,0,0,0,0,0,0,-1,902,1100,0,0
-315,-76,0,0,0,0,0,0,0,0,0,-1,909,1100,0,0
-308,-76,0,0,0,0,0,0,0,0,0,-1,916,1100,0,0
-301,-76,0,0,0,0,0,0,0,0,0,-1,923,1100,0,0
-294,-76,0,0,0,0,0,0,0,0,0,-1,930,1100,0,0
-287,-76,0,0,0,0,0,0,0,0,0,-1,937,1100,0,0
-280,-76,0,0,0,0,0,0,0,0,0,-1,944,1100,0,0
-273,-76,0,0,0,0,0,0,0,0,0,-1,951,1100,0,0
-266,-76,0,0,0,0,0,0,0,0,0,-1,958,1100,0,0
-259,-76,0,0,0,0,0,0,0,0,0,-1,965,1100,0,0
-252,-76,0,0,0,0,0,0,0,0,0,-1,972,1100,0,0
-245,-76,0,0,0,0,0,0,0,0,0,-1,979,1100,0,0
-238,-76,0,0,0,0,0,0,0,0,0,-1,986,1100,0,0
-231,-76,0,0,0,0,0,0,0,0,0,-1,993,1100,0,0
-224,-76,0,0,0,0,0,0,0,0,0,-1,1000,1100,0,0
-217,-76,0,0,0,0,0,0,0,0,0,-1,1007,1100,0,0
-210,-76,0,0,0,0,0,0,0,0,0,-1,1014,1100,0,0
-203,-76,0,0,0,0,0,0,0,0,0,-1,1021,1100,0,0
-196,-76,0,0,0,0,0,0,0,0,0,-1,1028,1100,0,0
-189,-76,0,0,0,0,0,0,0,0,0,-1,1035,1100,0,0
-182,-76,0,0,0,0,0,0,0,0,0,-1,1042,1100,0,0
-175,-76,0,0,0,0,0,0,0,0,0,-1,1049,1100,0,0
-168,-76,0,0,0,0,0,0,0,0,0,-1,1056,1100,0,0
-161,-76,0,0,0,0,0,0,0,0,0,-1,1063,1100,0,0
-154,-76,0,0,0,0,0,0,0,0,0,-1,1070,1100,0,0
-147,-76,0,0,0,0,0,0,0,0,0,-1,1077,1100,0,0
-140,-76,0,0,0,0,0,0,0,0,0,-1,1084,1100,0,0
-133,-76,0,0,0,0,0,0,0,0,0,-1,1091,1100,0,0
-126,-76,0,0,0,0,0,0,0,0,0,-1,1098,1100,0,0
-119,-76,0,0,0,0,0,0,0,0,0,-1,1105,1100,0,0
-112,-76,0,0,0,0,0,0,0,0,0,-1,1112,1100,0,0
-105,-76,0,0,0,0,0,0,0,0,0,-1,1119,1100,0,0
-98,-76,0,0,0,0,0,0,0,0,0,-1,1126,1100,0,0
-91,-76,0,0,0,0,0,0,0,0,0,-1,1133,1100,0,0
-84,-76,0,0,0,0,0,0,0,0,0,-1,1140,1100,0,0
-77,-76,0,0,0,0,0,0,0,0,0,-1,1147,1100,0,0
-70,-76,0,0,0,0,0,0,0,0,0,-1,1154,1100,0,0
-63,-76,0,0,0,0,0,0,0,0,0,-1,1161,1100,0,0
-56,-76,0,0,0,0,0,0,0,0,0,-1,1168,1100,0,0
-49,-76,0,0,0,0,0,0,0,0,0,-1,1175,1100,0,0
-42,-76,0,0,0,0,0,0,0,0,0,-1,1182,1100,0,0
-35,-76,0,0,0,0,0,0,0,0,0,-1,1189,1100,0,0
-28,-76,0,0,0,0,0,0,0,0,0,-1,1196,1100,0,0
-21,-76,0,0,0,0,0,0,0,0,0,-1,1203,1100,0,0
-14,-76,0,0,0,0,0,0,0,0,0,-1,1210,1100,0,0
-7,-76,0,0,0,0,0,0,0,0,0,-1,1217,1100,0,0
0,-76,0,0,0,0,0,0,0,0,0,-1,1224,1100,0,0
7,-76,0,0,0,0,0,0,0,0,0,-1,1231,1100,0,0
14,-76,0,0,0,0,0,0,0,0,0,-1,1238,1100,0,0
21,-76,0,0,0,0,0,0,0,0,0,-1,1245,1100,0,0
28,-76,0,0,0,0,0,0,0,0,0,-1,1252,1100,0,0
35,-76,0,0,0,0,0,0,0,0,0,-1,1259,1100,0,0
42,-76,0,0,0,0,0,0,0,0,0,-1,1266,1100,0,0
49,-76,0,0,0,0,0,0,0,0,0,-1,1273,1100,0,0
56,-76,0,0,0,0,0,0,0,0,0,-1,1280,1100,0,0
63,-76,0,0,0,0,0,0,0,0,0,-1,1287,1100,0,0
70,-76,0,0,0,0,0,0,0,0,0,-1,1294,1100,0,0
77,-76,0,0,0,0,0,0,0,0,0,-1,1301,1100,0,0
84,-76,0,0,0,0,0,0,0,0,0,-1,1308,1100,0,0
91,-76,0,0,0,0,0,0,0,0,0,-1,1315,1100,0,0
98,-76,0,0,0,0,0,0,0,0,0,-1,1322,1100,0,0
105,-76,0,0,0,0,0,0,0,0,0,-1,1329,1100,0,0
112,-76,0,0,0,0,0,0,0,0,0,-1,1336,1100,0,0
119,-76,0,0,0,0,0,0,0,0,0,-1,1343,1100,0,0
126,-76,0,0,0,0,0,0,0,0,0,-1,1350,1100,0,0
133,-76,0,0,0,0,0,0,0,0,0,-1,1357,1100,0,0
140,-76,0,0,0,0,0,0,0,0,0,-1,1364,1100,0,0
147,-76,0,0,0,0,0,0,0,0,0,-1,1371,1100,0,0
154,-76,0,0,0,0,0,0,0,0,0,-1,1378,1100,0,0
161,-76,0,0,0,0,0,0,0,0,0,-1,1385,1100,0,0
168,-76,0,0,0,0,0,0,0,0,0,-1,1392,1100,0,0
175,-76,0,0,0,0,0,0,0,0,0,-1,1399,1100,0,0
182,-76,0,0,0,0,0,0,0,0,0,-1,1406,1100,0,0
189,-76,0,0,0,0,0,0,0,0,0,-1,1413,1100,0,0
196,-76,0,0,0,0,0,0,0,0,0,-1,1420,1100,0,0
203,-76,0,0,0,0,0,0,0,0,0,-1,1427,1100,0,0
210,-76,0,0,0,0,0,0,0,0,0,-1,1434,1100,0,0
217,-76,0,0,0,0,0,0,0,0,0,-1,1441,1100,0,0
224,-76,0,0,0,0,0,0,0,0,0,-1,1448,1100,0,0
231,-76,0,0,0,0,0,0,0,0,0,-1,1455,1100,0,0
238,-76,0,0,0,0,0,0,0,0,0,-1,1462,1100,0,0
245,-76,0,0,0,0,0,0,0,0,0,-1,1469,1100,0,0
252,-76,0,0,0,0,0,0,0,0,0,-1,1476,1100,0,0
259,-76,0,0,0,0,0,0,0,0,0,-1,1483,1100,0,0
266,-76,0,0,0,0,0,0,0,0,0,-1,1490,1100,0,0
273,-76,0,0,0,0,0,0,0,0,0,-1,1497,1100,0,0
280,-76,0,0,0,0,0,0,0,0,0,-1,1504,1100,0,0
287,-76,0,0,0,0,0,0,0,0,0,-1,1511,1100,0,0
294,-76,0,0,0,0,0,0,0,0,0,-1,1518,1100,0,0
301,-76,0,0,0,0,0,0,0,0,0,-1,1525,1100,0,0
308,-76,0,0,0,0,0,0,0,0,0,-1,1532,1100,0,0
315,-76,0,0,0,0,0,0,0,0,0,-1,1539,1100,0,0
322,-76,0,0,0,0,0,0,0,0,0,-1,1546,1100,0,0
329,-76,0,0,0,0,0,0,0,0,0,-1,1553,1100,0,0
336,-76,0,0,0,0,0,0,0,0,0,-1,1560,1100,0,0
343,-76,0,0,0,0,0,0,0,0,0,-1,1567,1100,0,0
350,-76,0,0,0,0,0,0,0,0,0,-1,1574,1100,0,0
357,-76,0,0,0,0,0,0,0,0,0,-1,1581,1100,0,0
364,-76,0,0,0,0,0,0,0,0,0,-1,1588,1100,0,0
371,-76,0,0,0,0,0,0,0,0,0,-1,1595,1100,0,0
378,-76,0,0,0,0,0,0,0,0,0,-1,1602,1100,0,0
385,-76,0,0,0,0,0,0,0,0,0,-1,1609,1100,0,0
392,-76,0,0,0,0,0,0,0,0,0,-1,1616,1100,0,0
399,-76,0,0,0,0,0,0,0,0,0,-1,1623,1100,0,0
406,-76,0,0,0,0,0,0,0,0,0,-1,1630,1100,0,0
413,-76,0,0,0,0,0,0,0,0,0,-1,1637,1100,0,0
420,-76,0,0,0,0,0,0,0,0,0,-1,1644,1100,0,0
427,-76,0,0,0,0,0,0,0,0,0,-1,1651,1100,0,0
434,-76,0,0,0,0,0,0,0,0,0,-1,1658,1100,0,0
441,-76,0,0,0,0,0,0,0,0,0,-1,1665,1100,0,0
448,-76,0,0,0,0,0,0,0,0,0,-1,1672,1100,0,0
455,-76,0,0,0,0,0,0,0,0,0,-1,1679,1100,0,0
462,-76,0,0,0,0,0,0,0,0,0,-1,1686,1100,0,0
469,-76,0,0,0,0,0,0,0,0,0,-1,1693,1100,0,0
476,-76,0,0,0,0,0,0,0,0,0,-1,1700,1100,0,0
483,-76,0,0,0,0,0,0,0,0,0,-1,1707,1100,0,0
490,-76,0,0,0,0,0,0,0,0,0,-1,1714,1100,0,0
497,-76,0,0,0,0,0,0,0,0,0,-1,1721,1100,0,0
504,-76,0,0,0,0,0,0,0,0,0,-1,1728,1100,0,0
511,-76,0,0,0,0,0,0,0,0,0,-1,1735,1100,0,0
518,-76,0,0,0,0,0,0,0,0,0,-1,1742,1100,0,0
525,-76,0,0,0,0,0,0,0,0,0,-1,1749,1100,0,0
532,-76,0,0,0,0,0,0,0,0,0,-1,1756,1100,0,0
539,-76,0,0,0,0,0,0,0,0,0,-1,1763,1100,0,0
546,-76,0,0,0,0,0,0,0,0,0,-1,1770,1100,0,0
553,-76,0,0,0,0,0,0,0,0,0,-1,1777,1100,0,0
560,-76,0,0,0,0,0,0,0,0,0,-1,1784,1100,0,0
567,-76,0,0,0,0,0,0,0,0,0,-1,1791,1100,0,0
574,-76,0,0,0,0,0,0,0,0,0,-1,1798,1100,0,0
581,-76,0,0,0,0,0,0,0,0,0,-1,1805,1100,0,0
588,-76,0,0,0,0,0,0,0,0,0,-1,1812,1100,0,0
595,-76,0,0,0,0,0,0,0,0,0,-1,1819,1100,0,0
602,-76,0,0,0,0,0,0,0,0,0,-1,1826,1100,0,0
609,-76,0,0,0,0,0,0,0,0,0,-1,1833,1100,0,0
616,-76,0,0,0,0,0,0,0,0,0,-1,1840,1100,0,0
623,-76,0,0,0,0,0,0,0,0,0,-1,1847,1100,0,0
630,-76,0,0,0,0,0,0,0,0,0,-1,1854,1100,0,0
637,-76,0,0,0,0,0,0,0,0,0,-1,1861,1100,0,0
644,-76,0,0,0,0,0,0,0,0,0,-1,1868,1100,0,0
651,-76,24.7609,2.87561,-0.000558449,0.000890119,0.00372347,0.00395909,-0.00362742,0.881458,0.00438147,0.0438457,1875,1100,24.7609,-2.87561
658,-76,24.7368,2.91479,-0.000962202,-0.000111449,0.00271933,0.00221558,-0.00328923,0.862983,0.00319829,0.0427739,1882,1100,24.7368,-2.91481
665,-76,24.7762,2.43298,-0.000918257,-0.000735134,0.00197783,0.00115325,-0.00280664,0.808529,0.00235173,0.0374616,1889,1100,24.7762,-2.43297
672,-76,24.6552,2.46655,-0.00118294,-0.00134908,0.00233582,0.00107129,-0.00360331,0.767623,0.00282777,0.0360659,1896,1100,24.6552,-2.46659
679,-76,24.6252,2.56909,-0.00163339,-0.00186565,0.00324684,0.0014994,-0.00499843,0.767522,0.00392865,0.0375713,1903,1100,24.6253,-2.56909
686,-76,24.6606,2.84192,-0.00197646,-0.00223121,0.00421829,0.00211637,-0.00632405,0.770305,0.0050709,0.0393017,1910,1100,24.6607,-2.84196
693,-76,24.6378,2.73987,-0.00225082,-0.00243946,0.00509891,0.00275464,-0.00744492,0.77615,0.00609273,0.0391396,1917,1100,24.6378,-2.73992
700,-76,24.6841,2.67957,-0.00258347,-0.00256379,0.00569177,0.00311814,-0.00826541,0.786262,0.00679256,0.0324767,1924,1100,24.6841,-2.67956
707,-76,24.7246,2.76343,-0.00276406,-0.00252029,0.00609357,0.00345261,-0.00873697,0.795398,0.00725475,0.0232853,1931,1100,24.7246,-2.76339
714,-76,24.7494,3.21741,0,0,0,0,0,0,0,-1,1938,1100,24.7494,-3.21736
721,-76,24.4204,3.96899,0,0,0,0,0,0,0,-1,1945,1100,24.4204,-3.96898
728,-76,24.0914,4.72058,0,0,0,0,0,0,0,-1,1952,1100,24.0914,-4.72061
735,-76,23.7502,4.51526,-0.00270856,-0.00111013,0.00571434,0.00386061,-0.0076793,0.854878,0.00678308,0.0222538,1959,1100,23.7503,-4.51532
742,-76,23.8671,4.41943,-0.00316239,-0.000449532,0.00518334,0.00355192,-0.00716385,0.913373,0.00630281,0.0148542,1966,1100,23.867,-4.41948
749,-76,23.8286,4.31812,-0.00364271,-0.000168303,0.00404329,0.00249518,-0.00630619,0.9883,0.00523786,0.0152345,1973,1100,23.8286,-4.3181
756,-76,23.8464,4.23303,-0.00421489,0.000695551,0.00247607,0.00172731,-0.00524665,1.17598,0.00419384,0.015066,1980,1100,23.8464,-4.23302
763,-76,23.8529,4.11963,-0.00497425,0.00142543,0.000738708,0.00150959,-0.00505842,1.45735,0.00397227,0.0149992,1987,1100,23.853,-4.11967
770,-76,23.8645,4.03357,-0.00623398,0.00223905,-0.00135535,0.00245058,-0.0064455,-1.41598,0.00530597,0.0138823,1994,1100,23.8645,-4.03353
777,-76,23.8708,3.99536,-0.00834665,0.00284222,-0.00312227,0.00365452,-0.00915895,-1.31628,0.007622,0.0170781,2001,1100,23.8709,-3.99535
784,-76,23.8994,3.99023,-0.0111212,0.00333194,-0.0051822,0.00499799,-0.0127872,-1.25974,0.0105915,0.0301364,2008,1100,23.8994,-3.99024
791,-76,23.9476,4.02759,-0.0144437,0.00371529,-0.00818276,0.0068585,-0.017587,-1.20405,0.0145596,0.042574,2015,1100,23.9476,-4.02759
798,-76,23.9954,4.00598,0,0,0,0,0,0,0,-1,2022,1100,23.9953,-4.00604
805,-76,23.5984,2.09241,0,0,0,0,0,0,0,-1,2029,1100,23.5985,-2.09242
812,-76,23.8564,1.35583,0,0,0,0,0,0,0,-1,2036,1100,23.8565,-1.3558
-700,-83,0,0,0,0,0,0,0,0,0,-1,524,1107,0,0
-693,-83,-18.1001,0.59729,0,0,0,0,0,0,0,-1,531,1107,-18.1001,-0.597342
-686,-83,-17.7242,1.38208,0,0,0,0,0,0,0,-1,538,1107,-17.7242,-1.38211
-679,-83,-17.0244,0.539673,0,0,0,0,0,0,0,-1,545,1107,-17.0244,-0.539688
-672,-83,-16.7256,0.666992,0.0545968,0.0153995,0.0059593,0.0554827,0.0145135,0.147592,0.0332247,0.0458585,552,1107,-16.7256,-0.667008
-665,-83,-16.3672,1.03894,0.0442013,0.0125112,0.00547726,0.0451212,0.0115912,0.166409,0.0270577,0.0437535,559,1107,-16.3672,-1.03889
-658,-83,-16.169,1.33252,0.0346555,0.00989286,0.00485201,0.0355723,0.0089761,0.186744,0.021361,0.0426199,566,1107,-16.169,-1.33254
-651,-83,-16.0854,1.27478,0.0263329,0.00760426,0.00412715,0.027202,0.00673511,0.20756,0.0163585,0.0327719,573,1107,-16.0854,-1.27475
-644,-83,-16.0679,1.35388,0.019318,0.00564534,0.00312816,0.0199997,0.00496364,0.214568,0.0120251,0.0150256,580,1107,-16.0679,-1.35393
-637,-83,-16.09,1.52246,0.0130217,0.00391797,0.00141107,0.0132354,0.00370427,0.150302,0.00788441,0.0108275,587,1107,-16.09,-1.52241
-630,-83,-16.108,1.65161,0.0072192,0.00225422,-0.000328698,0.00724087,0.00223256,-0.0658204,0.00428168,0.0162696,594,1107,-16.108,-1.65158
-623,-83,-16.1019,1.75854,0.00265323,0.000890597,-0.00150459,0.00351562,2.82128e-05,-0.520459,0.0023344,0.0156767,601,1107,-16.1019,-1.7586
-616,-83,-16.1129,1.87439,-0.000388586,-0.000431278,-0.00329469,0.00288482,-0.00370469,-0.782159,0.00381426,0.0120345,608,1107,-16.1129,-1.87434
-609,-83,-16.1355,1.99402,-0.00207591,-0.000748055,-0.00523461,0.00386456,-0.00668853,-0.848478,0.00616512,0.0116678,615,1107,-16.1355,-1.99404
-602,-83,-16.1351,2.13831,-0.00308161,-0.00128085,-0.00670715,0.00458608,-0.00894854,-0.85212,0.00794837,0.0135462,622,1107,-16.1351,-2.13827
-595,-83,-16.0786,2.27087,-0.00362322,-0.00167096,-0.00744246,0.00485911,-0.0101533,-0.850605,0.00884524,0.0168303,629,1107,-16.0786,-2.27084
-588,-83,-16.2761,1.90601,-0.00361753,-0.00187203,-0.00778803,0.00509199,-0.0105816,-0.841197,0.00923229,0.0353225,636,1107,-16.2761,-1.90606
-581,-83,-16.8005,0.732422,0,0,0,0,0,0,0,-1,643,1107,-16.8005,-0.732438
-574,-83,-16.8859,0.980835,-0.00300648,-0.00170019,-0.00736552,0.00504109,-0.00974776,-0.829621,0.00868129,0.0387193,650,1107,-16.8859,-0.980854
-567,-83,-16.9602,1.23523,-0.00231426,-0.00141518,-0.00658546,0.00473606,-0.0084655,-0.819477,0.00772264,0.0445838,657,1107,-16.9602,-1.23523
-560,-83,-16.8754,0.945801,-0.00127359,-0.00095954,-0.00513807,0.0040239,-0.00625704,-0.800674,0.0059822,0.0441701,664,1107,-16.8754,-0.945753
-553,-83,-16.723,0.575073,4.45581e-05,-0.000331803,-0.00292533,0.00278776,-0.003075,-0.753278,0.00338622,0.0449009,671,1107,-16.7229,-0.575045
-546,-83,-16.7759,0.656494,0.00161733,0.000463394,0.000200528,0.00165118,0.000429541,0.167247,0.0009892,0.0424755,678,1107,-16.7759,-0.656552
-539,-83,-16.9019,0.759766,0.00327489,0.00133145,0.00404715,0.00646534,-0.001859,0.667579,0.00504538,0.044708,685,1107,-16.9019,-0.759734
-532,-83,-16.8358,0.802124,0.00382885,0.00184785,0.00694728,0.00985588,-0.00417918,0.714588,0.00832115,0.0457906,692,1107,-16.8357,-0.802146
-525,-83,0,0,0,0,0,0,0,0,0,-1,699,1107,0,0
-518,-83,0,0,0,0,0,0,0,0,0,-1,706,1107,0,0
-511,-83,0,0,0,0,0,0,0,0,0,-1,713,1107,0,0
-504,-83,0,0,0,0,0,0,0,0,0,-1,720,1107,0,0
-497,-83,0,0,0,0,0,0,0,0,0,-1,727,1107,0,0
-490,-83,0,0,0,0,0,0,0,0,0,-1,734,1107,0,0
-483,-83,0,0,0,0,0,0,0,0,0,-1,741,1107,0,0
-476,-83,0,0,0,0,0,0,0,0,0,-1,748,1107,0,0
-469,-83,0,0,0,0,0,0,0,0,0,-1,755,1107,0,0
-462,-83,0,0,0,0,0,0,0,0,0,-1,762,1107,0,0
-455,-83,0,0,0,0,0,0,0,0,0,-1,769,1107,0,0
-448,-83,0,0,0,0,0,0,0,0,0,-1,776,1107,0,0
-441,-83,0,0,0,0,0,0,0,0,0,-1,783,1107,0,0
-434,-83,0,0,0,0,0,0,0,0,0,-1,790,1107,0,0
-427,-83,0,0,0,0,0,0,0,0,0,-1,797,1107,0,0
-420,-83,0,0,0,0,0,0,0,0,0,-1,804,1107,0,0
-413,-83,0,0,0,0,0,0,0,0,0,-1,811,1107,0,0
-406,-83,0,0,0,0,0,0,0,0,0,-1,818,1107,0,0
-399,-83,0,0,0,0,0,0,0,0,0,-1,825,1107,0,0
-392,-83,0,0,0,0,0,0,0,0,0,-1,832,1107,0,0
-385,-83,0,0,0,0,0,0,0,0,0,-1,839,1107,0,0
-378,-83,0,0,0,0,0,0,0,0,0,-1,846,1107,0,0
-371,-83,0,0,0,0,0,0,0,0,0,-1,853,1107,0,0
-364,-83,0,0,0,0,0,0,0,0,0,-1,860,1107,0,0
-357,-83,0,0,0,0,0,0,0,0,0,-1,867,1107,0,0
-350,-83,0,0,0,0,0,0,0,0,0,-1,874,1107,0,0
-343,-83,0,0,0,0,0,0,0,0,0,-1,881,1107,0,0
-336,-83,0,0,0,0,0,0,0,0,0,-1,888,1107,0,0
-329,-83,0,0,0,0,0,0,0,0,0,-1,895,1107,0,0
-322,-83,0,0,0,0,0,0,0,0,0,-1,902,1107,0,0
-315,-83,0,0,0,0,0,0,0,0,0,-1,909,1107,0,0
-308,-83,0,0,0,0,0,0,0,0,0,-1,916,1107,0,0
-301,-83,0,0,0,0,0,0,0,0,0,-1,923,1107,0,0
-294,-83,0,0,0,0,0,0,0,0,0,-1,930,1107,0,0
-287,-83,0,0,0,0,0,0,0,0,0,-1,937,1107,0,0
-280,-83,0,0,0,0,0,0,0,0,0,-1,944,1107,0,0
-273,-83,0,0,0,0,0,0,0,0,0,-1,951,1107,0,0
-266,-83,0,0,0,0,0,0,0,0,0,-1,958,1107,0,0
-259,-83,0,0,0,0,0,0,0,0,0,-1,965,1107,0,0
-252,-83,0,0,0,0,0,0,0,0,0,-1,972,1107,0,0
-245,-83,0,0,0,0,0,0,0,0,0,-1,979,1107,0,0
-238,-83,0,0,0,0,0,0,0,0,0,-1,986,1107,0,0
-231,-83,0,0,0,0,0,0,0,0,0,-1,993,1107,0,0
-224,-83,0,0,0,0,0,0,0,0,0,-1,1000,1107,0,0
-217,-83,0,0,0,0,0,0,0,0,0,-1,1007,1107,0,0
-210,-83,0,0,0,0,0,0,0,0,0,-1,1014,1107,0,0
-203,-83,0,0,0,0,0,0,0,0,0,-1,1021,1107,0,0
-196,-83,0,0,0,0,0,0,0,0,0,-1,1028,1107,0,0
-189,-83,0,0,0,0,0,0,0,0,0,-1,1035,1107,0,0
-182,-83,0,0,0,0,0,0,0,0,0,-1,1042,1107,0,0
-175,-83,0,0,0,0,0,0,0,0,0,-1,1049,1107,0,0
-168,-83,0,0,0,0,0,0,0,0,0,-1,1056,1107,0,0
-161,-83,0,0,0,0,0,0,0,0,0,-1,1063,1107,0,0
-154,-83,0,0,0,0,0,0,0,0,0,-1,1070,1107,0,0
-147,-83,0,0,0,0,0,0,0,0,0,-1,1077,1107,0,0
-140,-83,0,0,0,0,0,0,0,0,0,-1,1084,1107,0,0
-133,-83,0,0,0,0,0,0,0,0,0,-1,1091,1107,0,0
-126,-83,0,0,0,0,0,0,0,0,0,-1,1098,1107,0,0
-119,-83,0,0,0,0,0,0,0,0,0,-1,1105,1107,0,0
-112,-83,0,0,0,0,0,0,0,0,0,-1,1112,1107,0,0
-105,-83,0,0,0,0,0,0,0,0,0,-1,1119,1107,0,0
-98,-83,0,0,0,0,0,0,0,0,0,-1,1126,1107,0,0
-91,-83,0,0,0,0,0,0,0,0,0,-1,1133,1107,0,0
-84,-83,0,0,0,0,0,0,0,0,0,-1,1140,1107,0,0
-77,-83,0,0,0,0,0,0,0,0,0,-1,1147,1107,0,0
-70,-83,0,0,0,0,0,0,0,0,0,-1,1154,1107,0,0
-63,-83,0,0,0,0,0,0,0,0,0,-1,1161,1107,0,0
-56,-83,0,0,0,0,0,0,0,0,0,-1,1168,1107,0,0
-49,-83,0,0,0,0,0,0,0,0,0,-1,1175,1107,0,0
-42,-83,0,0,0,0,0,0,0,0,0,-1,1182,1107,0,0
-35,-83,0,0,0,0,0,0,0,0,0,-1,1189,1107,0,0
-28,-83,0,0,0,0,0,0,0,0,0,-1,1196,1107,0,0
-21,-83,0,0,0,0,0,0,0,0,0,-1,1203,1107,0,0
-14,-83,0,0,0,0,0,0,0,0,0,-1,1210,1107,0,0
-7,-83,0,0,0,0,0,0,0,0,0,-1,1217,1107,0,0
0,-83,0,0,0,0,0,0,0,0,0,-1,1224,1107,0,0
7,-83,0,0,0,0,0,0,0,0,0,-1,1231,1107,0,0
14,-83,0,0,0,0,0,0,0,0,0,-1,1238,1107,0,0
21,-83,0,0,0,0,0,0,0,0,0,-1,1245,1107,0,0
28,-83,0,0,0,0,0,0,0,0,0,-1,1252,1107,0,0
35,-83,0,0,0,0,0,0,0,0,0,-1,1259,1107,0,0
42,-83,0,0,0,0,0,0,0,0,0,-1,1266,1107,0,0
49,-83,0,0,0,0,0,0,0,0,0,-1,1273,1107,0,0
56,-83,0,0,0,0,0,0,0,0,0,-1,1280,1107,0,0
63,-83,0,0,0,0,0,0,0,0,0,-1,1287,1107,0,0
70,-83,0,0,0,0,0,0,0,0,0,-1,1294,1107,0,0
77,-83,0,0,0,0,0,0,0,0,0,-1,1301,1107,0,0
84,-83,0,0,0,0,0,0,0,0,0,-1,1308,1107,0,0
91,-83,0,0,0,0,0,0,0,0,0,-1,1315,1107,0,0
98,-83,0,0,0,0,0,0,0,0,0,-1,1322,1107,0,0
105,-83,0,0,0,0,0,0,0,0,0,-1,1329,1107,0,0
112,-83,0,0,0,0,0,0,0,0,0,-1,1336,1107,0,0
119,-83,0,0,0,0,0,0,0,0,0,-1,1343,1107,0,0
126,-83,0,0,0,0,0,0,0,0,0,-1,1350,1107,0,0
133,-83,0,0,0,0,0,0,0,0,0,-1,1357,1107,0,0
140,-83,0,0,0,0,0,0,0,0,0,-1,1364,1107,0,0
147,-83,0,0,0,0,0,0,0,0,0,-1,1371,1107,0,0
154,-83,0,0,0,0,0,0,0,0,0,-1,1378,1107,0,0
161,-83,0,0,0,0,0,0,0,0,0,-1,1385,1107,0,0
168,-83,0,0,0,0,0,0,0,0,0,-1,1392,1107,0,0
175,-83,0,0,0,0,0,0,0,0,0,-1,1399,1107,0,0
182,-83,0,0,0,0,0,0,0,0,0,-1,1406,1107,0,0
189,-83,0,0,0,0,0,0,0,0,0,-1,1413,1107,0,0
196,-83,0,0,0,0,0,0,0,0,0,-1,1420,1107,0,0
203,-83,0,0,0,0,0,0,0,0,0,-1,1427,1107,0,0
210,-83,0,0,0,0,0,0,0,0,0,-1,1434,1107,0,0
217,-83,0,0,0,0,0,0,0,0,0,-1,1441,1107,0,0
224,-83,0,0,0,0,0,0,0,0,0,-1,1448,1107,0,0
231,-83,0,0,0,0,0,0,0,0,0,-1,1455,1107,0,0
238,-83,0,0,0,0,0,0,0,0,0,-1,1462,1107,0,0
245,-83,0,0,0,0,0,0,0,0,0,-1,1469,1107,0,0
252,-83,0,0,0,0,0,0,0,0,0,-1,1476,1107,0,0
259,-83,0,0,0,0,0,0,0,0,0,-1,1483,1107,0,0
266,-83,0,0,0,0,0,0,0,0,0,-1,1490,1107,0,0
273,-83,0,0,0,0,0,0,0,0,0,-1,1497,1107,0,0
280,-83,0,0,0,0,0,0,0,0,0,-1,1504,1107,0,0
287,-83,0,0,0,0,0,0,0,0,0,-1,1511,1107,0,0
294,-83,0,0,0,0,0,0,0,0,0,-1,1518,1107,0,0
301,-83,0,0,0,0,0,0,0,0,0,-1,1525,1107,0,0
308,-83,0,0,0,0,0,0,0,0,0,-1,1532,1107,0,0
315,-83,0,0,0,0,0,0,0,0,0,-1,1539,1107,0,0
322,-83,0,0,0,0,0,0,0,0,0,-1,1546,1107,0,0
329,-83,0,0,0,0,0,0,0,0,0,-1,1553,1107,0,0
336,-83,0,0,0,0,0,0,0,0,0,-1,1560,1107,0,0
343,-83,0,0,0,0,0,0,0,0,0,-1,1567,1107,0,0
350,-83,0,0,0,0,0,0,0,0,0,-1,1574,1107,0,0
357,-83,0,0,0,0,0,0,0,0,0,-1,1581,1107,0,0
364,-83,0,0,0,0,0,0,0,0,0,-1,1588,1107,0,0
371,-83,0,0,0,0,0,0,0,0,0,-1,1595,1107,0,0
378,-83,0,0,0,0,0,0,0,0,0,-1,1602,1107,0,0
385,-83,0,0,0,0,0,0,0,0,0,-1,1609,1107,0,0
392,-83,0,0,0,0,0,0,0,0,0,-1,1616,1107,0,0
399,-83,0,0,0,0,0,0,0,0,0,-1,1623,1107,0,0
406,-83,0,0,0,0,0,0,0,0,0,-1,1630,1107,0,0
413,-83,0,0,0,0,0,0,0,0,0,-1,1637,1107,0,0
420,-83,0,0,0,0,0,0,0,0,0,-1,1644,1107,0,0
427,-83,0,0,0,0,0,0,0,0,0,-1,1651,1107,0,0
434,-83,0,0,0,0,0,0,0,0,0,-1,1658,1107,0,0
441,-83,0,0,0,0,0,0,0,0,0,-1,1665,1107,0,0
448,-83,0,0,0,0,0,0,0,0,0,-1,1672,1107,0,0
455,-83,0,0,0,0,0,0,0,0,0,-1,1679,1107,0,0
462,-83,0,0,0,0,0,0,0,0,0,-1,1686,1107,0,0
469,-83,0,0,0,0,0,0,0,0,0,-1,1693,1107,0,0
476,-83,0,0,0,0,0,0,0,0,0,-1,1700,1107,0,0
483,-83,0,0,0,0,0,0,0,0,0,-1,1707,1107,0,0
490,-83,0,0,0,0,0,0,0,0,0,-1,1714,1107,0,0
497,-83,0,0,0,0,0,0,0,0,0,-1,1721,1107,0,0
504,-83,0,0,0,0,0,0,0,0,0,-1,1728,1107,0,0
511,-83,0,0,0,0,0,0,0,0,0,-1,1735,1107,0,0
518,-83,0,0,0,0,0,0,0,0,0,-1,1742,1107,0,0
525,-83,0,0,0,0,0,0,0,0,0,-1,1749,1107,0,0
532,-83,0,0,0,0,0,0,0,0,0,-1,1756,1107,0,0
539,-83,0,0,0,0,0,0,0,0,0,-1,1763,1107,0,0
546,-83,0,0,0,0,0,0,0,0,0,-1,1770,1107,0,0
553,-83,0,0,0,0,0,0,0,0,0,-1,1777,1107,0,0
560,-83,0,0,0,0,0,0,0,0,0,-1,1784,1107,0,0
567,-83,0,0,0,0,0,0,0,0,0,-1,1791,1107,0,0
574,-83,0,0,0,0,0,0,0,0,0,-1,1798,1107,0,0
581,-83,0,0,0,0,0,0,0,0,0,-1,1805,1107,0,0
588,-83,0,0,0,0,0,0,0,0,0,-1,1812,1107,0,0
595,-83,0,0,0,0,0,0,0,0,0,-1,1819,1107,0,0
602,-83,0,0,0,0,0,0,0,0,0,-1,1826,1107,0,0
609,-83,0,0,0,0,0,0,0,0,0,-1,1833,1107,0,0
616,-83,0,0,0,0,0,0,0,0,0,-1,1840,1107,0,0
623,-83,0,0,0,0,0,0,0,0,0,-1,1847,1107,0,0
630,-83,0,0,0,0,0,0,0,0,0,-1,1854,1107,0,0
637,-83,0,0,0,0,0,0,0,0,0,-1,1861,1107,0,0
644,-83,24.7367,2.71936,0.00228899,0.00252428,0.00594805,0.00835585,-0.00354258,0.795286,0.00705443,0.0367127,1868,1107,24.7367,-2.71936
651,-83,24.7823,2.88257,0.000549332,0.000985165,0.0046385,0.00541087,-0.00387637,0.808871,0.00538633,0.0438633,1875,1107,24.7824,-2.88258
658,-83,24.838,3.02686,0,0,0,0,0,0,0,-1,1882,1107,24.838,-3.02687
665,-83,24.6206,2.5022,-0.00035382,-0.000803585,0.00252807,0.00195935,-0.00311675,0.741038,0.00295597,0.0379151,1889,1107,24.6206,-2.50226
672,-83,24.6885,2.60352,-0.000959344,-0.00149585,0.00274827,0.00153373,-0.00398893,0.736748,0.00329187,0.0350722,1896,1107,24.6885,-2.60349
679,-83,24.7391,2.68176,-0.00172853,-0.00205816,0.0034747,0.00158526,-0.00537195,0.761699,0.0042104,0.0369633,1903,1107,24.7391,-2.68178
686,-83,24.7056,2.83496,-0.00231023,-0.00243836,0.00429712,0.00192331,-0.0066719,0.777945,0.00520877,0.0370507,1910,1107,24.7056,-2.83497
693,-83,24.6713,2.77454,-0.00277006,-0.00263888,0.00506833,0.00236429,-0.00777322,0.791869,0.00612431,0.0382789,1917,1107,24.6713,-2.77457
700,-83,24.7236,2.70874,-0.0032428,-0.0027561,0.00557657,0.00258242,-0.00858133,0.807203,0.00674846,0.0333085,1924,1107,24.7237,-2.70877
707,-83,24.7338,2.77966,-0.00352487,-0.00270846,0.00592171,0.0028191,-0.00905243,0.81981,0.00716204,0.0236018,1931,1107,24.7338,-2.77964
714,-83,24.6631,3.58142,0,0,0,0,0,0,0,-1,1938,1107,24.6631,-3.58141
721,-83,24.0607,4.29675,0,0,0,0,0,0,0,-1,1945,1107,24.0607,-4.29678
728,-83,23.4583,5.01221,0,0,0,0,0,0,0,-1,1952,1107,23.4583,-5.01216
735,-83,23.662,4.45825,-0.00335796,-0.00118431,0.00557461,0.00340843,-0.00795069,0.88167,0.0067307,0.0227756,1959,1107,23.662,-4.4582
742,-83,23.7383,4.42236,-0.0036545,-0.00049206,0.00508797,0.00325473,-0.00740129,0.936055,0.00630561,0.0145797,1966,1107,23.7382,-4.42232
749,-83,23.7756,4.32983,-0.00395354,-0.000136638,0.00402739,0.0024116,-0.00650178,1.00666,0.00532368,0.0124855,1973,1107,23.7756,-4.32982
756,-83,23.7766,4.22388,-0.00436635,0.000750103,0.00251658,0.00178042,-0.00539667,1.1822,0.00431547,0.0146635,1980,1107,23.7766,-4.2239
763,-83,23.7791,4.11414,-0.00493253,0.00156434,0.000817316,0.00166558,-0.00503377,1.44755,0.00402752,0.012002,1987,1107,23.7791,-4.11417
770,-83,23.7891,4.02014,-0.00601583,0.00245856,-0.00110566,0.00260044,-0.00615771,-1.44317,0.00519369,0.0138939,1994,1107,23.7891,-4.02013
777,-83,23.7695,3.93225,-0.00812325,0.00313054,-0.00262954,0.00371464,-0.00870735,-1.35222,0.0073624,0.0148811,2001,1107,23.7695,-3.93224
784,-83,23.7236,3.91443,-0.0109796,0.00375048,-0.0046033,0.00507073,-0.0122998,-1.29149,0.0103143,0.0228704,2008,1107,23.7236,-3.91442
791,-83,23.7289,3.87244,-0.0144731,0.0043115,-0.00762258,0.00701545,-0.017177,-1.22992,0.0143724,0.0402132,2015,1107,23.7289,-3.8725
798,-83,23.7861,3.73865,0,0,0,0,0,0,0,-1,2022,1107,23.7862,-3.73864
805,-83,23.8323,3.57922,0,0,0,0,0,0,0,-1,2029,1107,23.8322,-3.57922
812,-83,24.0476,0.974854,0,0,0,0,0,0,0,-1,2036,1107,24.0477,-0.974822
-700,-90,0,0,0,0,0,0,0,0,0,-1,524,1114,0,0
-693,-90,-18.4019,0.476807,0.104315,0.0395344,0.00441973,0.104615,0.0392343,0.0678076,0.061025,0.0437738,531,1114,-18.4019,-0.476756
-686,-90,-17.923,0.537476,0.0917027,0.0342685,0.00441003,0.0920394,0.0339318,0.0761887,0.0537465,0.0410302,538,1114,-17.923,-0.537501
-679,-90,-17.6722,0.705322,0.0777854,0.0285899,0.0044596,0.0781864,0.0281889,0.0896765,0.0457225,0.0408138,545,1114,-17.6722,-0.705263
-672,-90,-16.3696,0.705078,0.0640028,0.023067,0.00440744,0.0644719,0.0225978,0.106048,0.0377734,0.0446963,552,1114,-16.3697,-0.705041
-665,-90,-16.1032,1.06201,0.0511017,0.0180346,0.00419077,0.0516246,0.0175117,0.124121,0.0303148,0.0466008,559,1114,-16.1032,-1.06199
-658,-90,-16.0369,1.24292,0.0395243,0.0136797,0.0037896,0.0400685,0.0131355,0.142631,0.0235863,0.0454792,566,1114,-16.0369,-1.24288
-651,-90,-15.9831,1.04626,0.0296096,0.0100568,0.00326213,0.0301395,0.00952694,0.161029,0.0177891,0.0330116,573,1114,-15.9831,-1.04623
-644,-90,-15.9694,1.28406,0.0214626,0.00715154,0.00246388,0.0218749,0.00673922,0.165808,0.0129359,0.0141495,580,1114,-15.9694,-1.28404
-637,-90,-15.9608,1.50159,0.014355,0.00477211,0.00106524,0.0144719,0.00465512,0.109382,0.0085307,0.0118172,587,1114,-15.9608,-1.50159
-630,-90,-15.9681,1.63354,0.00782682,0.00251913,-0.000387999,0.00785503,0.00249091,-0.0725869,0.00463513,0.0115734,594,1114,-15.9681,-1.63355
-623,-90,-15.9679,1.75232,0.00279805,0.000811092,-0.00140434,0.0035248,8.43457e-05,-0.477549,0.00232226,0.00920687,601,1114,-15.9679,-1.75236
-616,-90,-15.9735,1.90332,-0.000357112,-0.000579433,-0.00312474,0.00265844,-0.00359499,-0.767618,0.00362389,0.00797801,608,1114,-15.9735,-1.90338
-609,-90,-15.9966,2.03076,-0.00200501,-0.0007759,-0.00488719,0.00353522,-0.00631613,-0.847944,0.00576272,0.0106811,615,1114,-15.9966,-2.0308
-602,-90,-16.0057,2.16089,-0.00297687,-0.00123752,-0.00624466,0.00419773,-0.00841212,-0.854586,0.0074146,0.0111765,622,1114,-16.0058,-2.16095
-595,-90,-15.9117,2.3075,-0.00350857,-0.00158971,-0.00694039,0.00445725,-0.00955553,-0.854082,0.00826684,0.0127599,629,1114,-15.9117,-2.30746
-588,-90,-16.0555,2.1239,-0.00350578,-0.00179261,-0.00729186,0.0046928,-0.00999119,-0.843866,0.00865982,0.0307468,636,1114,-16.0555,-2.12392
-581,-90,-16.8082,0.719604,0,0,0,0,0,0,0,-1,643,1114,-16.8082,-0.719628
-574,-90,-16.8643,0.952759,-0.00300704,-0.00164467,-0.00692134,0.00462893,-0.00928063,-0.834449,0.00817901,0.0362946,650,1114,-16.8642,-0.952813
-567,-90,-16.9251,1.12756,-0.00237378,-0.00139596,-0.00625336,0.00438758,-0.00815731,-0.82441,0.00735099,0.0368356,657,1114,-16.9251,-1.12755
-560,-90,-16.8391,0.880493,-0.00143728,-0.00100393,-0.00498068,0.00376478,-0.00620599,-0.807136,0.00581386,0.0399963,664,1114,-16.8391,-0.880549
-553,-90,-16.7172,0.738647,-0.000284267,-0.000469334,-0.0030104,0.00263503,-0.00338863,-0.770034,0.00348682,0.0426753,671,1114,-16.7172,-0.738672
-546,-90,-16.7645,1.03857,0.00102749,0.000197192,-0.000190294,0.00106902,0.000155656,-0.2149,0.000666879,0.0431562,678,1114,-16.7645,-1.03856
-539,-90,-16.9035,1.05664,0,0,0,0,0,0,0,-1,685,1114,-16.9035,-1.05665
-532,-90,-16.7323,0.781372,0,0,0,0,0,0,0,-1,692,1114,-16.7323,-0.781387
-525,-90,0,0,0,0,0,0,0,0,0,-1,699,1114,0,0
-518,-90,0,0,0,0,0,0,0,0,0,-1,706,1114,0,0
-511,-90,0,0,0,0,0,0,0,0,0,-1,713,1114,0,0
-504,-90,0,0,0,0,0,0,0,0,0,-1,720,1114,0,0
-497,-90,0,0,0,0,0,0,0,0,0,-1,727,1114,0,0
-490,-90,0,0,0,0,0,0,0,0,0,-1,734,1114,0,0
-483,-90,0,0,0,0,0,0,0,0,0,-1,741,1114,0,0
-476,-90,0,0,0,0,0,0,0,0,0,-1,748,1114,0,0
-469,-90,0,0,0,0,0,0,0,0,0,-1,755,1114,0,0
-462,-90,0,0,0,0,0,0,0,0,0,-1,762,1114,0,0
-455,-90,0,0,0,0,0,0,0,0,0,-1,769,1114,0,0
-448,-90,0,0,0,0,0,0,0,0,0,-1,776,1114,0,0
-441,-90,0,0,0,0,0,0,0,0,0,-1,783,1114,0,0
-434,-90,0,0,0,0,0,0,0,0,0,-1,790,1114,0,0
-427,-90,0,0,0,0,0,0,0,0,0,-1,797,1114,0,0
-420,-90,0,0,0,0,0,0,0,0,0,-1,804,1114,0,0
-413,-90,0,0,0,0,0,0,0,0,0,-1,811,1114,0,0
-406,-90,0,0,0,0,0,0,0,0,0,-1,818,1114,0,0
-399,-90,0,0,0,0,0,0,0,0,0,-1,825,1114,0,0
-392,-90,0,0,0,0,0,0,0,0,0,-1,832,1114,0,0
-385,-90,0,0,0,0,0,0,0,0,0,-1,839,1114,0,0
-378,-90,0,0,0,0,0,0,0,0,0,-1,846,1114,0,0
-371,-90,0,0,0,0,0,0,0,0,0,-1,853,1114,0,0
-364,-90,0,0,0,0,0,0,0,0,0,-1,860,1114,0,0
-357,-90,0,0,0,0,0,0,0,0,0,-1,867,1114,0,0
-350,-90,0,0,0,0,0,0,0,0,0,-1,874,1114,0,0
-343,-90,0,0,0,0,0,0,0,0,0,-1,881,1114,0,0
-336,-90,0,0,0,0,0,0,0,0,0,-1,888,1114,0,0
-329,-90,0,0,0,0,0,0,0,0,0,-1,895,1114,0,0
-322,-90,0,0,0,0,0,0,0,0,0,-1,902,1114,0,0
-315,-90,0,0,0,0,0,0,0,0,0,-1,909,1114,0,0
-308,-90,0,0,0,0,0,0,0,0,0,-1,916,1114,0,0
-301,-90,0,0,0,0,0,0,0,0,0,-1,923,1114,0,0
-294,-90,0,0,0,0,0,0,0,0,0,-1,930,1114,0,0
-287,-90,0,0,0,0,0,0,0,0,0,-1,937,1114,0,0
-280,-90,0,0,0,0,0,0,0,0,0,-1,944,1114,0,0
-273,-90,0,0,0,0,0,0,0,0,0,-1,951,1114,0,0
-266,-90,0,0,0,0,0,0,0,0,0,-1,958,1114,0,0
-259,-90,0,0,0,0,0,0,0,0,0,-1,965,1114,0,0
-252,-90,0,0,0,0,0,0,0,0,0,-1,972,1114,0,0
-245,-90,0,0,0,0,0,0,0,0,0,-1,979,1114,0,0
-238,-90,0,0,0,0,0,0,0,0,0,-1,986,1114,0,0
-231,-90,0,0,0,0,0,0,0,0,0,-1,993,1114,0,0
-224,-90,0,0,0,0,0,0,0,0,0,-1,1000,1114,0,0
-217,-90,0,0,0,0,0,0,0,0,0,-1,1007,1114,0,0
-210,-90,0,0,0,0,0,0,0,0,0,-1,1014,1114,0,0
-203,-90,0,0,0,0,0,0,0,0,0,-1,1021,1114,0,0
-196,-90,0,0,0,0,0,0,0,0,0,-1,1028,1114,0,0
-189,-90,0,0,0,0,0,0,0,0,0,-1,1035,1114,0,0
-182,-90,0,0,0,0,0,0,0,0,0,-1,1042,1114,0,0
-175,-90,0,0,0,0,0,0,0,0,0,-1,1049,1114,0,0
-168,-90,0,0,0,0,0,0,0,0,0,-1,1056,1114,0,0
-161,-90,0,0,0,0,0,0,0,0,0,-1,1063,1114,0,0
-154,-90,0,0,0,0,0,0,0,0,0,-1,1070,1114,0,0
-147,-90,0,0,0,0,0,0,0,0,0,-1,1077,1114,0,0
-140,-90,0,0,0,0,0,0,0,0,0,-1,1084,1114,0,0
-133,-90,0,0,0,0,0,0,0,0,0,-1,1091,1114,0,0
-126,-90,0,0,0,0,0,0,0,0,0,-1,1098,1114,0,0
-119,-90,0,0,0,0,0,0,0,0,0,-1,1105,1114,0,0
-112,-90,0,0,0,0,0,0,0,0,0,-1,1112,1114,0,0
-105,-90,0,0,0,0,0,0,0,0,0,-1,1119,1114,0,0
-98,-90,0,0,0,0,0,0,0,0,0,-1,1126,1114,0,0
-91,-90,0,0,0,0,0,0,0,0,0,-1,1133,1114,0,0
-84,-90,0,0,0,0,0,0,0,0,0,-1,1140,1114,0,0
-77,-90,0,0,0,0,0,0,0,0,0,-1,1147,1114,0,0
-70,-90,0,0,0,0,0,0,0,0,0,-1,1154,1114,0,0
-63,-90,0,0,0,0,0,0,0,0,0,-1,1161,1114,0,0
-56,-90,0,0,0,0,0,0,0,0,0,-1,1168,1114,0,0
-49,-90,0,0,0,0,0,0,0,0,0,-1,1175,1114,0,0
-42,-90,0,0,0,0,0,0,0,0,0,-1,1182,1114,0,0
-35,-90,0,0,0,0,0,0,0,0,0,-1,1189,1114,0,0
-28,-90,0,0,0,0,0,0,0,0,0,-1,1196,1114,0,0
-21,-90,0,0,0,0,0,0,0,0,0,-1,1203,1114,0,0
-14,-90,0,0,0,0,0,0,0,0,0,-1,1210,1114,0,0
-7,-90,0,0,0,0,0,0,0,0,0,-1,1217,1114,0,0
0,-90,0,0,0,0,0,0,0,0,0,-1,1224,1114,0,0
7,-90,0,0,0,0,0,0,0,0,0,-1,1231,1114,0,0
14,-90,0,0,0,0,0,0,0,0,0,-1,1238,1114,0,0
21,-90,0,0,0,0,0,0,0,0,0,-1,1245,1114,0,0
28,-90,0,0,0,0,0,0,0,0,0,-1,1252,1114,0,0
35,-90,0,0,0,0,0,0,0,0,0,-1,1259,1114,0,0
42,-90,0,0,0,0,0,0,0,0,0,-1,1266,1114,0,0
49,-90,0,0,0,0,0,0,0,0,0,-1,1273,1114,0,0
56,-90,0,0,0,0,0,0,0,0,0,-1,1280,1114,0,0
63,-90,0,0,0,0,0,0,0,0,0,-1,1287,1114,0,0
70,-90,0,0,0,0,0,0,0,0,0,-1,1294,1114,0,0
77,-90,0,0,0,0,0,0,0,0,0,-1,1301,1114,0,0
84,-90,0,0,0,0,0,0,0,0,0,-1,1308,1114,0,0
91,-90,0,0,0,0,0,0,0,0,0,-1,1315,1114,0,0
98,-90,0,0,0,0,0,0,0,0,0,-1,1322,1114,0,0
105,-90,0,0,0,0,0,0,0,0,0,-1,1329,1114,0,0
112,-90,0,0,0,0,0,0,0,0,0,-1,1336,1114,0,0
119,-90,0,0,0,0,0,0,0,0,0,-1,1343,1114,0,0
126,-90,0,0,0,0,0,0,0,0,0,-1,1350,1114,0,0
133,-90,0,0,0,0,0,0,0,0,0,-1,1357,1114,0,0
140,-90,0,0,0,0,0,0,0,0,0,-1,1364,1114,0,0
147,-90,0,0,0,0,0,0,0,0,0,-1,1371,1114,0,0
154,-90,0,0,0,0,0,0,0,0,0,-1,1378,1114,0,0
161,-90,0,0,0,0,0,0,0,0,0,-1,1385,1114,0,0
168,-90,0,0,0,0,0,0,0,0,0,-1,1392,1114,0,0
175,-90,0,0,0,0,0,0,0,0,0,-1,1399,1114,0,0
182,-90,0,0,0,0,0,0,0,0,0,-1,1406,1114,0,0
189,-90,0,0,0,0,0,0,0,0,0,-1,1413,1114,0,0
196,-90,0,0,0,0,0,0,0,0,0,-1,1420,1114,0,0
203,-90,0,0,0,0,0,0,0,0,0,-1,1427,1114,0,0
210,-90,0,0,0,0,0,0,0,0,0,-1,1434,1114,0,0
217,-90,0,0,0,0,0,0,0,0,0,-1,1441,1114,0,0
224,-90,0,0,0,0,0,0,0,0,0,-1,1448,1114,0,0
231,-90,0,0,0,0,0,0,0,0,0,-1,1455,1114,0,0
238,-90,0,0,0,0,0,0,0,0,0,-1,1462,1114,0,0
245,-90,0,0,0,0,0,0,0,0,0,-1,1469,1114,0,0
252,-90,0,0,0,0,0,0,0,0,0,-1,1476,1114,0,0
259,-90,0,0,0,0,0,0,0,0,0,-1,1483,1114,0,0
266,-90,0,0,0,0,0,0,0,0,0,-1,1490,1114,0,0
273,-90,0,0,0,0,0,0,0,0,0,-1,1497,1114,0,0
280,-90,0,0,0,0,0,0,0,0,0,-1,1504,1114,0,0
287,-90,0,0,0,0,0,0,0,0,0,-1,1511,1114,0,0
294,-90,0,0,0,0,0,0,0,0,0,-1,1518,1114,0,0
301,-90,0,0,0,0,0,0,0,0,0,-1,1525,1114,0,0
308,-90,0,0,0,0,0,0,0,0,0,-1,1532,1114,0,0
315,-90,0,0,0,0,0,0,0,0,0,-1,1539,1114,0,0
322,-90,0,0,0,0,0,0,0,0,0,-1,1546,1114,0,0
329,-90,0,0,0,0,0,0,0,0,0,-1,1553,1114,0,0
336,-90,0,0,0,0,0,0,0,0,0,-1,1560,1114,0,0
343,-90,0,0,0,0,0,0,0,0,0,-1,1567,1114,0,0
350,-90,0,0,0,0,0,0,0,0,0,-1,1574,1114,0,0
357,-90,0,0,0,0,0,0,0,0,0,-1,1581,1114,0,0
364,-90,0,0,0,0,0,0,0,0,0,-1,1588,1114,0,0
371,-90,0,0,0,0,0,0,0,0,0,-1,1595,1114,0,0
378,-90,0,0,0,0,0,0,0,0,0,-1,1602,1114,0,0
385,-90,0,0,0,0,0,0,0,0,0,-1,1609,1114,0,0
392,-90,0,0,0,0,0,0,0,0,0,-1,1616,1114,0,0
399,-90,0,0,0,0,0,0,0,0,0,-1,1623,1114,0,0
406,-90,0,0,0,0,0,0,0,0,0,-1,1630,1114,0,0
413,-90,0,0,0,0,0,0,0,0,0,-1,1637,1114,0,0
420,-90,0,0,0,0,0,0,0,0,0,-1,1644,1114,0,0
427,-90,0,0,0,0,0,0,0,0,0,-1,1651,1114,0,0
434,-90,0,0,0,0,0,0,0,0,0,-1,1658,1114,0,0
441,-90,0,0,0,0,0,0,0,0,0,-1,1665,1114,0,0
448,-90,0,0,0,0,0,0,0,0,0,-1,1672,1114,0,0
455,-90,0,0,0,0,0,0,0,0,0,-1,1679,1114,0,0
462,-90,0,0,0,0,0,0,0,0,0,-1,1686,1114,0,0
469,-90,0,0,0,0,0,0,0,0,0,-1,1693,1114,0,0
476,-90,0,0,0,0,0,0,0,0,0,-1,1700,1114,0,0
483,-90,0,0,0,0,0,0,0,0,0,-1,1707,1114,0,0
490,-90,0,0,0,0,0,0,0,0,0,-1,1714,1114,0,0
497,-90,0,0,0,0,0,0,0,0,0,-1,1721,1114,0,0
504,-90,0,0,0,0,0,0,0,0,0,-1,1728,1114,0,0
511,-90,0,0,0,0,0,0,0,0,0,-1,1735,1114,0,0
518,-90,0,0,0,0,0,0,0,0,0,-1,1742,1114,0,0
525,-90,0,0,0,0,0,0,0,0,0,-1,1749,1114,0,0
532,-90,0,0,0,0,0,0,0,0,0,-1,1756,1114,0,0
539,-90,0,0,0,0,0,0,0,0,0,-1,1763,1114,0,0
546,-90,0,0,0,0,0,0,0,0,0,-1,1770,1114,0,0
553,-90,0,0,0,0,0,0,0,0,0,-1,1777,1114,0,0
560,-90,0,0,0,0,0,0,0,0,0,-1,1784,1114,0,0
567,-90,0,0,0,0,0,0,0,0,0,-1,1791,1114,0,0
574,-90,0,0,0,0,0,0,0,0,0,-1,1798,1114,0,0
581,-90,0,0,0,0,0,0,0,0,0,-1,1805,1114,0,0
588,-90,0,0,0,0,0,0,0,0,0,-1,1812,1114,0,0
595,-90,0,0,0,0,0,0,0,0,0,-1,1819,1114,0,0
602,-90,0,0,0,0,0,0,0,0,0,-1,1826,1114,0,0
609,-90,0,0,0,0,0,0,0,0,0,-1,1833,1114,0,0
616,-90,0,0,0,0,0,0,0,0,0,-1,1840,1114,0,0
623,-90,0,0,0,0,0,0,0,0,0,-1,1847,1114,0,0
630,-90,0,0,0,0,0,0,0,0,0,-1,1854,1114,0,0
637,-90,0,0,0,0,0,0,0,0,0,-1,1861,1114,0,0
644,-90,24.7385,2.73633,0.00359071,0.00216201,0.0072061,0.0101178,-0.00436507,0.735994,0.00857874,0.0368573,1868,1114,24.7385,-2.73627
651,-90,24.8246,2.89453,0.00150991,0.000717108,0.00560602,0.00673353,-0.00450651,0.750102,0.00653176,0.042635,1875,1114,24.8245,-2.89459
658,-90,24.858,3.08325,0.000640323,-0.000296791,0.00410936,0.00430775,-0.00396422,0.728632,0.00477719,0.0448604,1882,1114,24.858,-3.08319
665,-90,24.6202,2.61597,0.000120689,-0.000956553,0.00303123,0.00266078,-0.00349665,0.697471,0.0035659,0.0408348,1889,1114,24.6203,-2.61594
672,-90,24.623,2.75354,-0.000958475,-0.00165342,0.00316468,0.00187775,-0.00448964,0.730719,0.0037779,0.0389483,1896,1114,24.6231,-2.75359
679,-90,24.7405,2.83252,-0.00215162,-0.00221989,0.00377802,0.00159242,-0.00596393,0.78088,0.00459958,0.0370717,1903,1114,24.7405,-2.83256
686,-90,24.7721,2.77405,-0.00305887,-0.00260814,0.00451953,0.00169164,-0.00735865,0.81031,0.00555616,0.0347862,1910,1114,24.7721,-2.77408
693,-90,24.7793,2.76355,-0.00375803,-0.00281613,0.00523459,0.00196866,-0.00854282,0.830262,0.00645233,0.0347507,1917,1114,24.7793,-2.76355
700,-90,24.7994,2.71338,-0.00439183,-0.0029439,0.00570279,0.0020807,-0.00941643,0.848535,0.00707393,0.0292753,1924,1114,24.7995,-2.71342
707,-90,24.7504,2.7605,-0.00478611,-0.00291241,0.00600984,0.00223316,-0.00993168,0.862719,0.0074775,0.0224685,1931,1114,24.7504,-2.76049
714,-90,24.6805,4.40979,0,0,0,0,0,0,0,-1,1938,1114,24.6805,-4.40974
721,-90,23.9116,4.62817,-0.00463346,-0.00228381,0.00623639,0.00288744,-0.00980472,0.878498,0.00768202,0.028555,1945,1114,23.9116,-4.62818
728,-90,23.6938,4.64185,-0.00448731,-0.00184838,0.00599447,0.00297013,-0.00930581,0.893728,0.00739547,0.0181015,1952,1114,23.6938,-4.64189
735,-90,23.6748,4.51685,-0.00438575,-0.00132484,0.00566195,0.00300985,-0.00872044,0.917396,0.00703491,0.0198759,1959,1114,23.6748,-4.51688
742,-90,23.6714,4.40942,-0.00444845,-0.000631499,0.00518245,0.00298271,-0.00806266,0.961822,0.00659804,0.018924,1966,1114,23.6714,-4.40937
749,-90,23.7283,4.27893,-0.00443527,-0.000169277,0.00415379,0.00236716,-0.0069717,1.0226,0.005606,0.0143375,1973,1114,23.7282,-4.27898
756,-90,23.7107,4.20264,-0.00452741,0.000776649,0.00267851,0.00189393,-0.00564469,1.17561,0.00452844,0.0147331,1980,1114,23.7107,-4.20267
763,-90,23.6954,4.10596,-0.00471052,0.00168882,0.0010022,0.0018421,-0.00486381,1.41903,0.00400053,0.012827,1987,1114,23.6955,-4.10601
770,-90,23.6936,3.99121,-0.00551882,0.00264223,-0.000693346,0.00270072,-0.0055773,-1.48664,0.00487456,0.0146842,1994,1114,23.6935,-3.99117
777,-90,23.651,3.91699,-0.00753275,0.00336837,-0.00192416,0.00369804,-0.00786242,-1.40111,0.00681725,0.0132778,2001,1114,23.651,-3.91698
784,-90,23.593,3.87354,-0.0103483,0.00407659,-0.00373404,0.00498587,-0.0112576,-1.33193,0.00960836,0.0267146,2008,1114,23.593,-3.87357
791,-90,23.3079,3.67188,-0.0138832,0.00474567,-0.00666326,0.00688365,-0.0160212,-1.26031,0.0135703,0.0432282,2015,1114,23.3079,-3.6719
798,-90,23.103,3.54175,0,0,0,0,0,0,0,-1,2022,1114,23.1031,-3.54178
805,-90,23.8396,1.81641,0,0,0,0,0,0,0,-1,2029,1114,23.8396,-1.81641
812,-90,24.1045,1.31982,0,0,0,0,0,0,0,-1,2036,1114,24.1044,-1.31983
-700,-97,0,0,0,0,0,0,0,0,0,-1,524,1121,0,0
-693,-97,-18.7439,0.281372,0.117188,0.0529344,0.0007035,0.117195,0.0529267,0.0109471,0.0677684,0.044651,531,1121,-18.7439,-0.281406
-686,-97,-17.6188,0.0629883,0.102295,0.0458454,0.00144733,0.102332,0.0458083,0.0256169,0.0591894,0.0461656,538,1121,-17.6188,-0.0629331
-679,-97,-16.7978,0.0235596,0.0862428,0.038115,0.00209806,0.0863341,0.0380237,0.0434835,0.0499628,0.047316,545,1121,-16.7978,-0.023537
-672,-97,-15.8769,0.591064,0.0705738,0.0305848,0.00252162,0.0707322,0.0304264,0.0627268,0.0409698,0.046236,552,1121,-15.8769,-0.591064
-665,-97,-15.832,1.11609,0.056053,0.0237193,0.00268323,0.0562742,0.0234981,0.0822359,0.0326368,0.0489043,559,1121,-15.832,-1.11609
-658,-97,-15.874,1.08118,0,0,0,0,0,0,0,-1,566,1121,-15.874,-1.08121
-651,-97,-15.8236,1.09595,0.0320091,0.0128673,0.00229704,0.0322809,0.0125955,0.117773,0.0187866,0.0291957,573,1121,-15.8236,-1.096
-644,-97,-15.8226,1.3075,0.023002,0.00899983,0.00173972,0.0232149,0.00878691,0.12178,0.0135344,0.0113778,580,1121,-15.8226,-1.30749
-637,-97,-15.8212,1.46484,0.015314,0.00590431,0.000677147,0.0153625,0.00585583,0.0714716,0.00895265,0.0124177,587,1121,-15.8211,-1.46487
-630,-97,-15.8268,1.60571,0.00820836,0.00301794,-0.000457483,0.00824837,0.00297793,-0.0872437,0.00482312,0.00984896,594,1121,-15.8269,-1.60566
-623,-97,-15.8284,1.75476,0.00281705,0.000891649,-0.00132154,0.00348936,0.000219336,-0.47061,0.00225668,0.0106084,601,1121,-15.8284,-1.7547
-616,-97,-15.8192,1.89563,-0.00038838,-0.000591449,-0.00300115,0.00251295,-0.00349278,-0.768489,0.00348276,0.0120229,608,1121,-15.8192,-1.89563
-609,-97,-15.8475,2.03748,-0.00197558,-0.000726637,-0.0045997,0.00329079,-0.00599301,-0.852867,0.00543516,0.0148734,615,1121,-15.8475,-2.03746
-602,-97,-15.843,2.15112,-0.00290283,-0.00112621,-0.00582272,0.00387557,-0.00790462,-0.861094,0.00693263,0.0134256,622,1121,-15.843,-2.15113
-595,-97,-15.7715,2.28015,-0.00341459,-0.00143468,-0.00645269,0.00410355,-0.00895282,-0.861513,0.00770946,0.0160357,629,1121,-15.7715,-2.28013
-588,-97,-16.0857,2.25037,0,0,0,0,0,0,0,-1,636,1121,-16.0857,-2.25032
-581,-97,-16.5516,1.40039,-0.00320461,-0.00163959,-0.0067029,0.00432632,-0.00917052,-0.843506,0.00795795,0.0434111,643,1121,-16.5517,-1.40045
-574,-97,-16.8365,0.888062,-0.00307733,-0.00158391,-0.00646361,0.00417598,-0.00883722,-0.842906,0.00767215,0.0390559,650,1121,-16.8365,-0.888069
-567,-97,-16.8598,0.914429,-0.00253128,-0.00140686,-0.00589293,0.00395062,-0.00788875,-0.832956,0.00696038,0.0360665,657,1121,-16.8598,-0.914489
-560,-97,-16.8528,0.804565,-0.00172786,-0.00112485,-0.00477399,0.00335715,-0.00620986,-0.816934,0.00560477,0.0398644,664,1121,-16.8528,-0.804587
-553,-97,-16.6152,0.899414,-0.000754283,-0.000750035,-0.00302162,0.00226946,-0.00377378,-0.78575,0.00352492,0.0463527,671,1121,-16.6152,-0.899431
-546,-97,-16.6534,0.810425,0.000299404,-0.00030549,-0.000480676,0.000564869,-0.000570955,-0.504587,0.000655771,0.0468769,678,1121,-16.6534,-0.810426
-539,-97,-16.6388,0.727661,0.00138505,0.000133694,0.00291099,0.00373684,-0.0022181,0.679541,0.00347516,0.0428993,685,1121,-16.6388,-0.7277
-532,-97,-16.6639,0.752563,0.00153832,0.000232185,0.00607302,0.00699329,-0.00522278,0.731836,0.0070776,0.0417989,692,1121,-16.6639,-0.752577
-525,-97,0,0,0,0,0,0,0,0,0,-1,699,1121,0,0
-518,-97,0,0,0,0,0,0,0,0,0,-1,706,1121,0,0
-511,-97,0,0,0,0,0,0,0,0,0,-1,713,1121,0,0
-504,-97,0,0,0,0,0,0,0,0,0,-1,720,1121,0,0
-497,-97,0,0,0,0,0,0,0,0,0,-1,727,1121,0,0
-490,-97,0,0,0,0,0,0,0,0,0,-1,734,1121,0,0
-483,-97,0,0,0,0,0,0,0,0,0,-1,741,1121,0,0
-476,-97,0,0,0,0,0,0,0,0,0,-1,748,1121,0,0
-469,-97,0,0,0,0,0,0,0,0,0,-1,755,1121,0,0
-462,-97,0,0,0,0,0,0,0,0,0,-1,762,1121,0,0
-455,-97,0,0,0,0,0,0,0,0,0,-1,769,1121,0,0
-448,-97,0,0,0,0,0,0,0,0,0,-1,776,1121,0,0
-441,-97,0,0,0,0,0,0,0,0,0,-1,783,1121,0,0
-434,-97,0,0,0,0,0,0,0,0,0,-1,790,1121,0,0
-427,-97,0,0,0,0,0,0,0,0,0,-1,797,1121,0,0
-420,-97,0,0,0,0,0,0,0,0,0,-1,804,1121,0,0
-413,-97,0,0,0,0,0,0,0,0,0,-1,811,1121,0,0
-406,-97,0,0,0,0,0,0,0,0,0,-1,818,1121,0,0
-399,-97,0,0,0,0,0,0,0,0,0,-1,825,1121,0,0
-392,-97,0,0,0,0,0,0,0,0,0,-1,832,1121,0,0
-385,-97,0,0,0,0,0,0,0,0,0,-1,839,1121,0,0
-378,-97,0,0,0,0,0,0,0,0,0,-1,846,1121,0,0
-371,-97,0,0,0,0,0,0,0,0,0,-1,853,1121,0,0
-364,-97,0,0,0,0,0,0,0,0,0,-1,860,1121,0,0
-357,-97,0,0,0,0,0,0,0,0,0,-1,867,1121,0,0
-350,-97,0,0,0,0,0,0,0,0,0,-1,874,1121,0,0
-343,-97,0,0,0,0,0,0,0,0,0,-1,881,1121,0,0
-336,-97,0,0,0,0,0,0,0,0,0,-1,888,1121,0,0
-329,-97,0,0,0,0,0,0,0,0,0,-1,895,1121,0,0
-322,-97,0,0,0,0,0,0,0,0,0,-1,902,1121,0,0
-315,-97,0,0,0,0,0,0,0,0,0,-1,909,1121,0,0
-308,-97,0,0,0,0,0,0,0,0,0,-1,916,1121,0,0
-301,-97,0,0,0,0,0,0,0,0,0,-1,923,1121,0,0
-294,-97,0,0,0,0,0,0,0,0,0,-1,930,1121,0,0
-287,-97,0,0,0,0,0,0,0,0,0,-1,937,1121,0,0
-280,-97,0,0,0,0,0,0,0,0,0,-1,944,1121,0,0
-273,-97,0,0,0,0,0,0,0,0,0,-1,951,1121,0,0
-266,-97,0,0,0,0,0,0,0,0,0,-1,958,1121,0,0
-259,-97,0,0,0,0,0,0,0,0,0,-1,965,1121,0,0
-252,-97,0,0,0,0,0,0,0,0,0,-1,972,1121,0,0
-245,-97,0,0,0,0,0,0,0,0,0,-1,979,1121,0,0
-238,-97,0,0,0,0,0,0,0,0,0,-1,986,1121,0,0
-231,-97,0,0,0,0,0,0,0,0,0,-1,993,1121,0,0
-224,-97,0,0,0,0,0,0,0,0,0,-1,1000,1121,0,0
-217,-97,0,0,0,0,0,0,0,0,0,-1,1007,1121,0,0
-210,-97,0,0,0,0,0,0,0,0,0,-1,1014,1121,0,0
-203,-97,0,0,0,0,0,0,0,0,0,-1,1021,1121,0,0
-196,-97,0,0,0,0,0,0,0,0,0,-1,1028,1121,0,0
-189,-97,0,0,0,0,0,0,0,0,0,-1,1035,1121,0,0
-182,-97,0,0,0,0,0,0,0,0,0,-1,1042,1121,0,0
-175,-97,0,0,0,0,0,0,0,0,0,-1,1049,1121,0,0
-168,-97,0,0,0,0,0,0,0,0,0,-1,1056,1121,0,0
-161,-97,0,0,0,0,0,0,0,0,0,-1,1063,1121,0,0
-154,-97,0,0,0,0,0,0,0,0,0,-1,1070,1121,0,0
-147,-97,0,0,0,0,0,0,0,0,0,-1,1077,1121,0,0
-140,-97,0,0,0,0,0,0,0,0,0,-1,1084,1121,0,0
-133,-97,0,0,0,0,0,0,0,0,0,-1,1091,1121,0,0
-126,-97,0,0,0,0,0,0,0,0,0,-1,1098,1121,0,0
-119,-97,0,0,0,0,0,0,0,0,0,-1,1105,1121,0,0
-112,-97,0,0,0,0,0,0,0,0,0,-1,1112,1121,0,0
-105,-97,0,0,0,0,0,0,0,0,0,-1,1119,1121,0,0
-98,-97,0,0,0,0,0,0,0,0,0,-1,1126,1121,0,0
-91,-97,0,0,0,0,0,0,0,0,0,-1,1133,1121,0,0
-84,-97,0,0,0,0,0,0,0,0,0,-1,1140,1121,0,0
-77,-97,0,0,0,0,0,0,0,0,0,-1,1147,1121,0,0
-70,-97,0,0,0,0,0,0,0,0,0,-1,1154,1121,0,0
-63,-97,0,0,0,0,0,0,0,0,0,-1,1161,1121,0,0
-56,-97,0,0,0,0,0,0,0,0,0,-1,1168,1121,0,0
-49,-97,0,0,0,0,0,0,0,0,0,-1,1175,1121,0,0
-42,-97,0,0,0,0,0,0,0,0,0,-1,1182,1121,0,0
-35,-97,0,0,0,0,0,0,0,0,0,-1,1189,1121,0,0
-28,-97,0,0,0,0,0,0,0,0,0,-1,1196,1121,0,0
-21,-97,0,0,0,0,0,0,0,0,0,-1,1203,1121,0,0
-14,-97,0,0,0,0,0,0,0,0,0,-1,1210,1121,0,0
-7,-97,0,0,0,0,0,0,0,0,0,-1,1217,1121,0,0
0,-97,0,0,0,0,0,0,0,0,0,-1,1224,1121,0,0
7,-97,0,0,0,0,0,0,0,0,0,-1,1231,1121,0,0
14,-97,0,0,0,0,0,0,0,0,0,-1,1238,1121,0,0
21,-97,0,0,0,0,0,0,0,0,0,-1,1245,1121,0,0
28,-97,0,0,0,0,0,0,0,0,0,-1,1252,1121,0,0
35,-97,0,0,0,0,0,0,0,0,0,-1,1259,1121,0,0
42,-97,0,0,0,0,0,0,0,0,0,-1,1266,1121,0,0
49,-97,0,0,0,0,0,0,0,0,0,-1,1273,1121,0,0
56,-97,0,0,0,0,0,0,0,0,0,-1,1280,1121,0,0
63,-97,0,0,0,0,0,0,0,0,0,-1,1287,1121,0,0
70,-97,0,0,0,0,0,0,0,0,0,-1,1294,1121,0,0
77,-97,0,0,0,0,0,0,0,0,0,-1,1301,1121,0,0
84,-97,0,0,0,0,0,0,0,0,0,-1,1308,1121,0,0
91,-97,0,0,0,0,0,0,0,0,0,-1,1315,1121,0,0
98,-97,0,0,0,0,0,0,0,0,0,-1,1322,1121,0,0
105,-97,0,0,0,0,0,0,0,0,0,-1,1329,1121,0,0
112,-97,0,0,0,0,0,0,0,0,0,-1,1336,1121,0,0
119,-97,0,0,0,0,0,0,0,0,0,-1,1343,1121,0,0
126,-97,0,0,0,0,0,0,0,0,0,-1,1350,1121,0,0
133,-97,0,0,0,0,0,0,0,0,0,-1,1357,1121,0,0
140,-97,0,0,0,0,0,0,0,0,0,-1,1364,1121,0,0
147,-97,0,0,0,0,0,0,0,0,0,-1,1371,1121,0,0
154,-97,0,0,0,0,0,0,0,0,0,-1,1378,1121,0,0
161,-97,0,0,0,0,0,0,0,0,0,-1,1385,1121,0,0
168,-97,0,0,0,0,0,0,0,0,0,-1,1392,1121,0,0
175,-97,0,0,0,0,0,0,0,0,0,-1,1399,1121,0,0
182,-97,0,0,0,0,0,0,0,0,0,-1,1406,1121,0,0
189,-97,0,0,0,0,0,0,0,0,0,-1,1413,1121,0,0
196,-97,0,0,0,0,0,0,0,0,0,-1,1420,1121,0,0
203,-97,0,0,0,0,0,0,0,0,0,-1,1427,1121,0,0
210,-97,0,0,0,0,0,0,0,0,0,-1,1434,1121,0,0
217,-97,0,0,0,0,0,0,0,0,0,-1,1441,1121,0,0
224,-97,0,0,0,0,0,0,0,0,0,-1,1448,1121,0,0
231,-97,0,0,0,0,0,0,0,0,0,-1,1455,1121,0,0
238,-97,0,0,0,0,0,0,0,0,0,-1,1462,1121,0,0
245,-97,0,0,0,0,0,0,0,0,0,-1,1469,1121,0,0
252,-97,0,0,0,0,0,0,0,0,0,-1,1476,1121,0,0
259,-97,0,0,0,0,0,0,0,0,0,-1,1483,1121,0,0
266,-97,0,0,0,0,0,0,0,0,0,-1,1490,1121,0,0
273,-97,0,0,0,0,0,0,0,0,0,-1,1497,1121,0,0
280,-97,0,0,0,0,0,0,0,0,0,-1,1504,1121,0,0
287,-97,0,0,0,0,0,0,0,0,0,-1,1511,1121,0,0
294,-97,0,0,0,0,0,0,0,0,0,-1,1518,1121,0,0
301,-97,0,0,0,0,0,0,0,0,0,-1,1525,1121,0,0
308,-97,0,0,0,0,0,0,0,0,0,-1,1532,1121,0,0
315,-97,0,0,0,0,0,0,0,0,0,-1,1539,1121,0,0
322,-97,0,0,0,0,0,0,0,0,0,-1,1546,1121,0,0
329,-97,0,0,0,0,0,0,0,0,0,-1,1553,1121,0,0
336,-97,0,0,0,0,0,0,0,0,0,-1,1560,1121,0,0
343,-97,0,0,0,0,0,0,0,0,0,-1,1567,1121,0,0
350,-97,0,0,0,0,0,0,0,0,0,-1,1574,1121,0,0
357,-97,0,0,0,0,0,0,0,0,0,-1,1581,1121,0,0
364,-97,0,0,0,0,0,0,0,0,0,-1,1588,1121,0,0
371,-97,0,0,0,0,0,0,0,0,0,-1,1595,1121,0,0
378,-97,0,0,0,0,0,0,0,0,0,-1,1602,1121,0,0
385,-97,0,0,0,0,0,0,0,0,0,-1,1609,1121,0,0
392,-97,0,0,0,0,0,0,0,0,0,-1,1616,1121,0,0
399,-97,0,0,0,0,0,0,0,0,0,-1,1623,1121,0,0
406,-97,0,0,0,0,0,0,0,0,0,-1,1630,1121,0,0
413,-97,0,0,0,0,0,0,0,0,0,-1,1637,1121,0,0
420,-97,0,0,0,0,0,0,0,0,0,-1,1644,1121,0,0
427,-97,0,0,0,0,0,0,0,0,0,-1,1651,1121,0,0
434,-97,0,0,0,0,0,0,0,0,0,-1,1658,1121,0,0
441,-97,0,0,0,0,0,0,0,0,0,-1,1665,1121,0,0
448,-97,0,0,0,0,0,0,0,0,0,-1,1672,1121,0,0
455,-97,0,0,0,0,0,0,0,0,0,-1,1679,1121,0,0
462,-97,0,0,0,0,0,0,0,0,0,-1,1686,1121,0,0
469,-97,0,0,0,0,0,0,0,0,0,-1,1693,1121,0,0
476,-97,0,0,0,0,0,0,0,0,0,-1,1700,1121,0,0
483,-97,0,0,0,0,0,0,0,0,0,-1,1707,1121,0,0
490,-97,0,0,0,0,0,0,0,0,0,-1,1714,1121,0,0
497,-97,0,0,0,0,0,0,0,0,0,-1,1721,1121,0,0
504,-97,0,0,0,0,0,0,0,0,0,-1,1728,1121,0,0
511,-97,0,0,0,0,0,0,0,0,0,-1,1735,1121,0,0
518,-97,0,0,0,0,0,0,0,0,0,-1,1742,1121,0,0
525,-97,0,0,0,0,0,0,0,0,0,-1,1749,1121,0,0
532,-97,0,0,0,0,0,0,0,0,0,-1,1756,1121,0,0
539,-97,0,0,0,0,0,0,0,0,0,-1,1763,1121,0,0
546,-97,0,0,0,0,0,0,0,0,0,-1,1770,1121,0,0
553,-97,0,0,0,0,0,0,0,0,0,-1,1777,1121,0,0
560,-97,0,0,0,0,0,0,0,0,0,-1,1784,1121,0,0
567,-97,0,0,0,0,0,0,0,0,0,-1,1791,1121,0,0
574,-97,0,0,0,0,0,0,0,0,0,-1,1798,1121,0,0
581,-97,0,0,0,0,0,0,0,0,0,-1,1805,1121,0,0
588,-97,0,0,0,0,0,0,0,0,0,-1,1812,1121,0,0
595,-97,0,0,0,0,0,0,0,0,0,-1,1819,1121,0,0
602,-97,0,0,0,0,0,0,0,0,0,-1,1826,1121,0,0
609,-97,0,0,0,0,0,0,0,0,0,-1,1833,1121,0,0
616,-97,0,0,0,0,0,0,0,0,0,-1,1840,1121,0,0
623,-97,0,0,0,0,0,0,0,0,0,-1,1847,1121,0,0
630,-97,0,0,0,0,0,0,0,0,0,-1,1854,1121,0,0
637,-97,0,0,0,0,0,0,0,0,0,-1,1861,1121,0,0
644,-97,24.7615,2.78528,0.00427296,0.00186379,0.00849427,0.0116476,-0.00551088,0.714962,0.0101155,0.0395699,1868,1121,24.7615,-2.78525
651,-97,24.8348,2.86548,0.00207795,0.000597336,0.00659297,0.00797205,-0.00529676,0.729489,0.00771248,0.0411998,1875,1121,24.8348,-2.86552
658,-97,24.8325,2.9292,0.00117619,-0.000291457,0.00478686,0.00528514,-0.00440041,0.709341,0.00559973,0.0415309,1882,1121,24.8325,-2.92915
665,-97,24.7059,2.83533,0.000370423,-0.000948144,0.00356953,0.00334105,-0.00391877,0.694079,0.00419588,0.0415135,1889,1121,24.7059,-2.83539
672,-97,24.7062,2.78589,-0.00112849,-0.00165994,0.00359413,0.00220972,-0.00499816,0.748498,0.00426401,0.0399491,1896,1121,24.7061,-2.78585
679,-97,24.7511,2.98621,-0.00269003,-0.00225383,0.00408154,0.00161543,-0.0065593,0.812091,0.00499911,0.0402946,1903,1121,24.7511,-2.98617
686,-97,24.7631,2.96362,-0.00388797,-0.00266453,0.00472636,0.00148953,-0.00804203,0.849754,0.00592066,0.0370824,1910,1121,24.7631,-2.96358
693,-97,24.7815,2.80664,-0.00480805,-0.00288649,0.00536822,0.00160625,-0.00930079,0.873948,0.00679948,0.0325985,1917,1121,24.7815,-2.80659
700,-97,24.7802,2.69348,-0.00558876,-0.00303138,0.00578227,0.00161189,-0.010232,0.894217,0.00741727,0.0256141,1924,1121,24.7801,-2.69353
707,-97,24.7303,2.72656,-0.00608413,-0.00301914,0.00602663,0.00166679,-0.0107701,0.909903,0.00779527,0.0206784,1931,1121,24.7304,-2.7266
714,-97,24.5537,4.55408,0,0,0,0,0,0,0,-1,1938,1121,24.5537,-4.55409
721,-97,23.8102,4.67676,-0.00594875,-0.00237585,0.00621478,0.00230414,-0.0106287,0.925351,0.00796574,0.0322534,1945,1121,23.8101,-4.67679
728,-97,23.6177,4.68689,-0.00571997,-0.00192662,0.00599564,0.00246519,-0.0101118,0.938589,0.00769568,0.0183346,1952,1121,23.6176,-4.68693
735,-97,23.604,4.54346,-0.00547982,-0.00139314,0.00567806,0.00259805,-0.00947101,0.958117,0.00733503,0.0190766,1959,1121,23.604,-4.54348
742,-97,23.59,4.41711,-0.00536092,-0.000683406,0.00523164,0.00270844,-0.00875277,0.995594,0.00691706,0.0156302,1966,1121,23.5899,-4.41714
749,-97,23.6102,4.28308,-0.0050943,-0.000168017,0.00428558,0.00231184,-0.00757416,1.04622,0.00597114,0.0168773,1973,1121,23.6102,-4.28305
756,-97,23.5935,4.17883,-0.00492611,0.00079164,0.00294918,0.00204018,-0.00617465,1.17032,0.004939,0.0149351,1980,1121,23.5935,-4.17881
763,-97,23.5667,4.09448,-0.00485255,0.00174432,0.00149848,0.00206874,-0.00517697,1.35758,0.00430971,0.012597,1987,1121,23.5666,-4.09453
770,-97,23.5546,3.99597,-0.00560848,0.00268528,0.000273441,0.00269428,-0.00561749,1.53787,0.00489673,0.00999136,1994,1121,23.5546,-3.99593
777,-97,23.5476,3.90369,-0.00778093,0.00344029,-0.000367013,0.00345228,-0.00779292,-1.53814,0.00665169,0.0124764,2001,1121,23.5476,-3.90369
784,-97,23.5519,3.85059,-0.0108234,0.00418377,-0.00145999,0.00432449,-0.0109641,-1.47471,0.0091001,0.0317803,2008,1121,23.5519,-3.85056
791,-97,23.1255,3.56702,-0.0147287,0.00490989,-0.00337416,0.00547345,-0.0152923,-1.4053,0.0124278,0.0434887,2015,1121,23.1255,-3.56701
798,-97,22.7361,3.27686,0,0,0,0,0,0,0,-1,2022,1121,22.7361,-3.27683
805,-97,23.5483,2.09143,0,0,0,0,0,0,0,-1,2029,1121,23.5484,-2.09139
812,-97,23.6958,1.62817,0,0,0,0,0,0,0,-1,2036,1121,23.6957,-1.62813
-700,-104,0,0,0,0,0,0,0,0,0,-1,524,1128,0,0
-693,-104,-18.969,-0.459106,0,0,0,0,0,0,0,-1,531,1128,-18.969,0.459057
-686,-104,-17.4418,-0.303467,0,0,0,0,0,0,0,-1,538,1128,-17.4419,0.303419
-679,-104,-16.3643,-0.392944,0,0,0,0,0,0,0,-1,545,1128,-16.3642,0.39292
-672,-104,-15.9575,-1.34192,0.0735756,0.0375712,0.000545412,0.0735839,0.037563,0.0151439,0.0424868,0.0478545,552,1128,-15.9575,1.34191
-665,-104,-15.6685,1.17932,0.0583803,0.0293606,0.00118833,0.0584289,0.029312,0.0408577,0.033734,0.0490224,559,1128,-15.6685,-1.17931
-658,-104,-15.5912,0.838745,0,0,0,0,0,0,0,-1,566,1128,-15.5912,-0.83875
-651,-104,-15.6602,1.17053,0.0331554,0.0161043,0.00143027,0.0332746,0.0159851,0.0831075,0.019216,0.0354812,573,1128,-15.6602,-1.17054
-644,-104,-15.6607,1.31177,0.0236777,0.0112923,0.00112477,0.023779,0.011191,0.0898347,0.0137367,0.0150936,580,1128,-15.6607,-1.31183
-637,-104,-15.6504,1.43738,0.015722,0.00745074,0.000359729,0.0157377,0.00743513,0.0433821,0.00909074,0.0109336,587,1128,-15.6504,-1.43733
-630,-104,-15.6712,1.57813,0.00835826,0.00388567,-0.00044325,0.00840176,0.00384217,-0.0978359,0.00485665,0.0123832,594,1128,-15.6712,-1.57814
-623,-104,-15.6917,1.74341,0.00279414,0.00127185,-0.00116716,0.00342641,0.00063958,-0.496462,0.00210374,0.0141674,601,1128,-15.6917,-1.74337
-616,-104,-15.7188,1.89673,-0.000353543,-0.000373553,-0.00279289,0.00242936,-0.00315645,-0.783607,0.00323406,0.0155823,608,1128,-15.7188,-1.89668
-609,-104,-15.7775,1.98853,-0.00182206,-0.000609761,-0.00423421,0.00306147,-0.00549329,-0.856493,0.00500516,0.0195987,615,1128,-15.7776,-1.98855
-602,-104,-15.6998,2.14746,-0.00266386,-0.00100983,-0.00532358,0.00355059,-0.00722427,-0.862457,0.00634025,0.016324,622,1128,-15.6998,-2.14745
-595,-104,-15.649,2.33606,-0.00313154,-0.00128547,-0.00589364,0.00375698,-0.00817399,-0.863075,0.00704395,0.0152919,629,1128,-15.649,-2.33607
-588,-104,-15.7579,2.37927,0,0,0,0,0,0,0,-1,636,1128,-15.758,-2.37927
-581,-104,-16.2849,1.4502,-0.00300417,-0.0014497,-0.00615559,0.00397754,-0.0084314,-0.848198,0.00731651,0.0480164,643,1128,-16.2848,-1.45015
-574,-104,-16.8005,0.842407,-0.00294969,-0.00139858,-0.00594528,0.00382152,-0.00816978,-0.850256,0.00707328,0.0433755,650,1128,-16.8005,-0.842405
-567,-104,-16.9532,1.06677,-0.00250871,-0.00123225,-0.00548555,0.00365208,-0.00739303,-0.843311,0.00649768,0.0355317,657,1128,-16.9533,-1.06679
-560,-104,-16.9088,0.974121,-0.00186894,-0.000972772,-0.00454434,0.00314552,-0.00598724,-0.834541,0.00535721,0.0414114,664,1128,-16.9087,-0.974124
-553,-104,-17.1708,0.150757,0,0,0,0,0,0,0,-1,671,1128,-17.1709,-0.150752
-546,-104,-16.8662,0.768066,-0.000364264,-0.00025659,-0.000849577,0.000540853,-0.00116171,-0.817041,0.00100452,0.0473064,678,1128,-16.8662,-0.768039
-539,-104,-16.616,0.854126,0.000347076,8.71287e-05,0.00218718,0.00240814,-0.00197394,0.75572,0.00253413,0.0412715,685,1128,-16.616,-0.85418
-532,-104,-16.6351,0.767822,0.000297852,0.000120535,0.00530086,0.00551079,-0.00509241,0.777036,0.00612335,0.0415748,692,1128,-16.6351,-0.76788
-525,-104,-16.8076,0.839233,-0.00339606,-0.000332063,0.00638434,0.00470152,-0.00842964,0.903153,0.00768245,0.039199,699,1128,-16.8076,-0.839277
-518,-104,0,0,0,0,0,0,0,0,0,-1,706,1128,0,0
-511,-104,0,0,0,0,0,0,0,0,0,-1,713,1128,0,0
-504,-104,0,0,0,0,0,0,0,0,0,-1,720,1128,0,0
-497,-104,0,0,0,0,0,0,0,0,0,-1,727,1128,0,0
-490,-104,0,0,0,0,0,0,0,0,0,-1,734,1128,0,0
-483,-104,0,0,0,0,0,0,0,0,0,-1,741,1128,0,0
-476,-104,0,0,0,0,0,0,0,0,0,-1,748,1128,0,0
-469,-104,0,0,0,0,0,0,0,0,0,-1,755,1128,0,0
-462,-104,0,0,0,0,0,0,0,0,0,-1,762,1128,0,0
-455,-104,0,0,0,0,0,0,0,0,0,-1,769,1128,0,0
-448,-104,0,0,0,0,0,0,0,0,0,-1,776,1128,0,0
-441,-104,0,0,0,0,0,0,0,0,0,-1,783,1128,0,0
-434,-104,0,0,0,0,0,0,0,0,0,-1,790,1128,0,0
-427,-104,0,0,0,0,0,0,0,0,0,-1,797,1128,0,0
-420,-104,0,0,0,0,0,0,0,0,0,-1,804,1128,0,0
-413,-104,0,0,0,0,0,0,0,0,0,-1,811,1128,0,0
-406,-104,0,0,0,0,0,0,0,0,0,-1,818,1128,0,0
-399,-104,0,0,0,0,0,0,0,0,0,-1,825,1128,0,0
-392,-104,0,0,0,0,0,0,0,0,0,-1,832,1128,0,0
-385,-104,0,0,0,0,0,0,0,0,0,-1,839,1128,0,0
-378,-104,0,0,0,0,0,0,0,0,0,-1,846,1128,0,0
-371,-104,0,0,0,0,0,0,0,0,0,-1,853,1128,0,0
-364,-104,0,0,0,0,0,0,0,0,0,-1,860,1128,0,0
-357,-104,0,0,0,0,0,0,0,0,0,-1,867,1128,0,0
-350,-104,0,0,0,0,0,0,0,0,0,-1,874,1128,0,0
-343,-104,0,0,0,0,0,0,0,0,0,-1,881,1128,0,0
-336,-104,0,0,0,0,0,0,0,0,0,-1,888,1128,0,0
-329,-104,0,0,0,0,0,0,0,0,0,-1,895,1128,0,0
-322,-104,0,0,0,0,0,0,0,0,0,-1,902,1128,0,0
-315,-104,0,0,0,0,0,0,0,0,0,-1,909,1128,0,0
-308,-104,0,0,0,0,0,0,0,0,0,-1,916,1128,0,0
-301,-104,0,0,0,0,0,0,0,0,0,-1,923,1128,0,0
-294,-104,0,0,0,0,0,0,0,0,0,-1,930,1128,0,0
-287,-104,0,0,0,0,0,0,0,0,0,-1,937,1128,0,0
-280,-104,0,0,0,0,0,0,0,0,0,-1,944,1128,0,0
-273,-104,0,0,0,0,0,0,0,0,0,-1,951,1128,0,0
-266,-104,0,0,0,0,0,0,0,0,0,-1,958,1128,0,0
-259,-104,0,0,0,0,0,0,0,0,0,-1,965,1128,0,0
-252,-104,0,0,0,0,0,0,0,0,0,-1,972,1128,0,0
-245,-104,0,0,0,0,0,0,0,0,0,-1,979,1128,0,0
-238,-104,0,0,0,0,0,0,0,0,0,-1,986,1128,0,0
-231,-104,0,0,0,0,0,0,0,0,0,-1,993,1128,0,0
-224,-104,0,0,0,0,0,0,0,0,0,-1,1000,1128,0,0
-217,-104,0,0,0,0,0,0,0,0,0,-1,1007,1128,0,0
-210,-104,0,0,0,0,0,0,0,0,0,-1,1014,1128,0,0
-203,-104,0,0,0,0,0,0,0,0,0,-1,1021,1128,0,0
-196,-104,0,0,0,0,0,0,0,0,0,-1,1028,1128,0,0
-189,-104,0,0,0,0,0,0,0,0,0,-1,1035,1128,0,0
-182,-104,0,0,0,0,0,0,0,0,0,-1,1042,1128,0,0
-175,-104,0,0,0,0,0,0,0,0,0,-1,1049,1128,0,0
-168,-104,0,0,0,0,0,0,0,0,0,-1,1056,1128,0,0
-161,-104,0,0,0,0,0,0,0,0,0,-1,1063,1128,0,0
-154,-104,0,0,0,0,0,0,0,0,0,-1,1070,1128,0,0
-147,-104,0,0,0,0,0,0,0,0,0,-1,1077,1128,0,0
-140,-104,0,0,0,0,0,0,0,0,0,-1,1084,1128,0,0
-133,-104,0,0,0,0,0,0,0,0,0,-1,1091,1128,0,0
-126,-104,0,0,0,0,0,0,0,0,0,-1,1098,1128,0,0
-119,-104,0,0,0,0,0,0,0,0,0,-1,1105,1128,0,0
-112,-104,0,0,0,0,0,0,0,0,0,-1,1112,1128,0,0
-105,-104,0,0,0,0,0,0,0,0,0,-1,1119,1128,0,0
-98,-104,0,0,0,0,0,0,0,0,0,-1,1126,1128,0,0
-91,-104,0,0,0,0,0,0,0,0,0,-1,1133,1128,0,0
-84,-104,0,0,0,0,0,0,0,0,0,-1,1140,1128,0,0
-77,-104,0,0,0,0,0,0,0,0,0,-1,1147,1128,0,0
-70,-104,0,0,0,0,0,0,0,0,0,-1,1154,1128,0,0
-63,-104,0,0,0,0,0,0,0,0,0,-1,1161,1128,0,0
-56,-104,0,0,0,0,0,0,0,0,0,-1,1168,1128,0,0
-49,-104,0,0,0,0,0,0,0,0,0,-1,1175,1128,0,0
-42,-104,0,0,0,0,0,0,0,0,0,-1,1182,1128,0,0
-35,-104,0,0,0,0,0,0,0,0,0,-1,1189,1128,0,0
-28,-104,0,0,0,0,0,0,0,0,0,-1,1196,1128,0,0
-21,-104,0,0,0,0,0,0,0,0,0,-1,1203,1128,0,0
-14,-104,0,0,0,0,0,0,0,0,0,-1,1210,1128,0,0
-7,-104,0,0,0,0,0,0,0,0,0,-1,1217,1128,0,0
0,-104,0,0,0,0,0,0,0,0,0,-1,1224,1128,0,0
7,-104,0,0,0,0,0,0,0,0,0,-1,1231,1128,0,0
14,-104,0,0,0,0,0,0,0,0,0,-1,1238,1128,0,0
21,-104,0,0,0,0,0,0,0,0,0,-1,1245,1128,0,0
28,-104,0,0,0,0,0,0,0,0,0,-1,1252,1128,0,0
35,-104,0,0,0,0,0,0,0,0,0,-1,1259,1128,0,0
42,-104,0,0,0,0,0,0,0,0,0,-1,1266,1128,0,0
49,-104,0,0,0,0,0,0,0,0,0,-1,1273,1128,0,0
56,-104,0,0,0,0,0,0,0,0,0,-1,1280,1128,0,0
63,-104,0,0,0,0,0,0,0,0,0,-1,1287,1128,0,0
70,-104,0,0,0,0,0,0,0,0,0,-1,1294,1128,0,0
77,-104,0,0,0,0,0,0,0,0,0,-1,1301,1128,0,0
84,-104,0,0,0,0,0,0,0,0,0,-1,1308,1128,0,0
91,-104,0,0,0,0,0,0,0,0,0,-1,1315,1128,0,0
98,-104,0,0,0,0,0,0,0,0,0,-1,1322,1128,0,0
105,-104,0,0,0,0,0,0,0,0,0,-1,1329,1128,0,0
112,-104,0,0,0,0,0,0,0,0,0,-1,1336,1128,0,0
119,-104,0,0,0,0,0,0,0,0,0,-1,1343,1128,0,0
126,-104,0,0,0,0,0,0,0,0,0,-1,1350,1128,0,0
133,-104,0,0,0,0,0,0,0,0,0,-1,1357,1128,0,0
140,-104,0,0,0,0,0,0,0,0,0,-1,1364,1128,0,0
147,-104,0,0,0,0,0,0,0,0,0,-1,1371,1128,0,0
154,-104,0,0,0,0,0,0,0,0,0,-1,1378,1128,0,0
161,-104,0,0,0,0,0,0,0,0,0,-1,1385,1128,0,0
168,-104,0,0,0,0,0,0,0,0,0,-1,1392,1128,0,0
175,-104,0,0,0,0,0,0,0,0,0,-1,1399,1128,0,0
182,-104,0,0,0,0,0,0,0,0,0,-1,1406,1128,0,0
189,-104,0,0,0,0,0,0,0,0,0,-1,1413,1128,0,0
196,-104,0,0,0,0,0,0,0,0,0,-1,1420,1128,0,0
203,-104,0,0,0,0,0,0,0,0,0,-1,1427,1128,0,0
210,-104,0,0,0,0,0,0,0,0,0,-1,1434,1128,0,0
217,-104,0,0,0,0,0,0,0,0,0,-1,1441,1128,0,0
224,-104,0,0,0,0,0,0,0,0,0,-1,1448,1128,0,0
231,-104,0,0,0,0,0,0,0,0,0,-1,1455,1128,0,0
238,-104,0,0,0,0,0,0,0,0,0,-1,1462,1128,0,0
245,-104,0,0,0,0,0,0,0,0,0,-1,1469,1128,0,0
252,-104,0,0,0,0,0,0,0,0,0,-1,1476,1128,0,0
259,-104,0,0,0,0,0,0,0,0,0,-1,1483,1128,0,0
266,-104,0,0,0,0,0,0,0,0,0,-1,1490,1128,0,0
273,-104,0,0,0,0,0,0,0,0,0,-1,1497,1128,0,0
280,-104,0,0,0,0,0,0,0,0,0,-1,1504,1128,0,0
287,-104,0,0,0,0,0,0,0,0,0,-1,1511,1128,0,0
294,-104,0,0,0,0,0,0,0,0,0,-1,1518,1128,0,0
301,-104,0,0,0,0,0,0,0,0,0,-1,1525,1128,0,0
308,-104,0,0,0,0,0,0,0,0,0,-1,1532,1128,0,0
315,-104,0,0,0,0,0,0,0,0,0,-1,1539,1128,0,0
322,-104,0,0,0,0,0,0,0,0,0,-1,1546,1128,0,0
329,-104,0,0,0,0,0,0,0,0,0,-1,1553,1128,0,0
336,-104,0,0,0,0,0,0,0,0,0,-1,1560,1128,0,0
343,-104,0,0,0,0,0,0,0,0,0,-1,1567,1128,0,0
350,-104,0,0,0,0,0,0,0,0,0,-1,1574,1128,0,0
357,-104,0,0,0,0,0,0,0,0,0,-1,1581,1128,0,0
364,-104,0,0,0,0,0,0,0,0,0,-1,1588,1128,0,0
371,-104,0,0,0,0,0,0,0,0,0,-1,1595,1128,0,0
378,-104,0,0,0,0,0,0,0,0,0,-1,1602,1128,0,0
385,-104,0,0,0,0,0,0,0,0,0,-1,1609,1128,0,0
392,-104,0,0,0,0,0,0,0,0,0,-1,1616,1128,0,0
399,-104,0,0,0,0,0,0,0,0,0,-1,1623,1128,0,0
406,-104,0,0,0,0,0,0,0,0,0,-1,1630,1128,0,0
413,-104,0,0,0,0,0,0,0,0,0,-1,1637,1128,0,0
420,-104,0,0,0,0,0,0,0,0,0,-1,1644,1128,0,0
427,-104,0,0,0,0,0,0,0,0,0,-1,1651,1128,0,0
434,-104,0,0,0,0,0,0,0,0,0,-1,1658,1128,0,0
441,-104,0,0,0,0,0,0,0,0,0,-1,1665,1128,0,0
448,-104,0,0,0,0,0,0,0,0,0,-1,1672,1128,0,0
455,-104,0,0,0,0,0,0,0,0,0,-1,1679,1128,0,0
462,-104,0,0,0,0,0,0,0,0,0,-1,1686,1128,0,0
469,-104,0,0,0,0,0,0,0,0,0,-1,1693,1128,0,0
476,-104,0,0,0,0,0,0,0,0,0,-1,1700,1128,0,0
483,-104,0,0,0,0,0,0,0,0,0,-1,1707,1128,0,0
490,-104,0,0,0,0,0,0,0,0,0,-1,1714,1128,0,0
497,-104,0,0,0,0,0,0,0,0,0,-1,1721,1128,0,0
504,-104,0,0,0,0,0,0,0,0,0,-1,1728,1128,0,0
511,-104,0,0,0,0,0,0,0,0,0,-1,1735,1128,0,0
518,-104,0,0,0,0,0,0,0,0,0,-1,1742,1128,0,0
525,-104,0,0,0,0,0,0,0,0,0,-1,1749,1128,0,0
532,-104,0,0,0,0,0,0,0,0,0,-1,1756,1128,0,0
539,-104,0,0,0,0,0,0,0,0,0,-1,1763,1128,0,0
546,-104,0,0,0,0,0,0,0,0,0,-1,1770,1128,0,0
553,-104,0,0,0,0,0,0,0,0,0,-1,1777,1128,0,0
560,-104,0,0,0,0,0,0,0,0,0,-1,1784,1128,0,0
567,-104,0,0,0,0,0,0,0,0,0,-1,1791,1128,0,0
574,-104,0,0,0,0,0,0,0,0,0,-1,1798,1128,0,0
581,-104,0,0,0,0,0,0,0,0,0,-1,1805,1128,0,0
588,-104,0,0,0,0,0,0,0,0,0,-1,1812,1128,0,0
595,-104,0,0,0,0,0,0,0,0,0,-1,1819,1128,0,0
602,-104,0,0,0,0,0,0,0,0,0,-1,1826,1128,0,0
609,-104,0,0,0,0,0,0,0,0,0,-1,1833,1128,0,0
616,-104,0,0,0,0,0,0,0,0,0,-1,1840,1128,0,0
623,-104,0,0,0,0,0,0,0,0,0,-1,1847,1128,0,0
630,-104,0,0,0,0,0,0,0,0,0,-1,1854,1128,0,0
637,-104,0,0,0,0,0,0,0,0,0,-1,1861,1128,0,0
644,-104,24.6932,2.73584,0.00458454,0.00179283,0.00965036,0.0129395,-0.0065621,0.713575,0.0114582,0.0376067,1868,1128,24.6932,-2.73585
651,-104,24.8363,2.89807,0.00242331,0.000797264,0.00753064,0.00918469,-0.00596412,0.731626,0.0088118,0.0399619,1875,1128,24.8363,-2.89812
658,-104,24.907,2.99353,0.00151922,5.71308e-05,0.00548544,0.00632211,-0.00474576,0.719153,0.00641161,0.0441297,1882,1128,24.907,-2.99358
665,-104,24.8927,2.93848,0.0004896,-0.000596588,0.00413269,0.00411473,-0.00422172,0.720065,0.00481318,0.0454044,1889,1128,24.8927,-2.9385
672,-104,24.8862,2.94568,-0.00128506,-0.00134541,0.00400416,0.00268903,-0.00531951,0.781631,0.00470614,0.0425058,1896,1128,24.8862,-2.94565
679,-104,24.7917,3.04785,-0.00305811,-0.00200454,0.00432588,0.00182651,-0.00688916,0.845987,0.00530743,0.0419547,1903,1128,24.7917,-3.04789
686,-104,24.7418,2.99927,-0.00443993,-0.00248707,0.00483668,0.00147075,-0.00839776,0.884999,0.00614768,0.0400665,1910,1128,24.7419,-2.99932
693,-104,24.7648,2.86768,-0.0054983,-0.00276531,0.00537387,0.00141308,-0.0096767,0.909902,0.00697007,0.0343852,1917,1128,24.7648,-2.86766
700,-104,24.7648,2.71863,-0.00636898,-0.00295809,0.00571671,0.00130214,-0.0106292,0.930359,0.00755767,0.026225,1924,1128,24.7647,-2.7186
707,-104,24.7277,2.76868,0,0,0,0,0,0,0,-1,1931,1128,24.7277,-2.76869
714,-104,24.2299,3.76819,-0.00707366,-0.00285835,0.00596472,0.00136014,-0.0112922,0.955228,0.00802002,0.0459011,1938,1128,24.2299,-3.76819
721,-104,23.5575,4.77527,-0.00688165,-0.002466,0.00603525,0.00175258,-0.0111002,0.960748,0.00804821,0.02669,1945,1128,23.5575,-4.77526
728,-104,23.5204,4.66956,-0.00659895,-0.00201962,0.00585315,0.00197577,-0.0105943,0.971841,0.00780529,0.0232438,1952,1128,23.5204,-4.66955
735,-104,23.5266,4.53442,-0.00624169,-0.00146796,0.00555771,0.00219375,-0.0099034,0.988223,0.00744209,0.0236775,1959,1128,23.5266,-4.53442
742,-104,23.4928,4.42529,-0.00593171,-0.000720052,0.00515817,0.00245313,-0.0091049,1.01929,0.00703176,0.0160082,1966,1128,23.4928,-4.42526
749,-104,23.4851,4.30432,-0.00540588,-0.000159277,0.00433969,0.00228838,-0.00785353,1.05726,0.00614226,0.0176094,1973,1128,23.4851,-4.30434
756,-104,23.4514,4.18738,-0.00491151,0.000779247,0.00321065,0.00222391,-0.00635617,1.14798,0.00514165,0.0161656,1980,1128,23.4515,-4.18733
763,-104,23.4231,4.08923,-0.00451281,0.00172019,0.00206844,0.00234415,-0.00513677,1.27782,0.00441829,0.014524,1987,1128,23.423,-4.08921
770,-104,23.4131,3.98792,-0.00503914,0.00256521,0.00137268,0.00280541,-0.00527934,1.39756,0.00474002,0.0119503,1994,1128,23.4131,-3.98797
777,-104,23.413,3.88074,-0.00697301,0.00319361,0.00136339,0.00337327,-0.00715268,1.43978,0.00620636,0.018758,2001,1128,23.413,-3.88072
784,-104,23.4564,3.89575,-0.00967204,0.00370928,0.00111933,0.00380227,-0.00976503,1.48792,0.00808132,0.0368595,2008,1128,23.4564,-3.8957
791,-104,23.4993,3.88708,0,0,0,0,0,0,0,-1,2015,1128,23.4993,-3.88707
798,-104,22.9241,2.76672,0,0,0,0,0,0,0,-1,2022,1128,22.9241,-2.76674
805,-104,23.2236,2.23938,0,0,0,0,0,0,0,-1,2029,1128,23.2236,-2.23937
812,-104,21.0288,2.12695,0,0,0,0,0,0,0,-1,2036,1128,21.0289,-2.12695
-700,-111,0,0,0,0,0,0,0,0,0,-1,524,1135,0,0
-693,-111,-19.344,-0.953369,0,0,0,0,0,0,0,-1,531,1135,-19.344,0.953401
-686,-111,-18.1124,-0.862793,0.102465,0.0619193,-0.00465588,0.102992,0.0613916,-0.112874,0.0598275,0.0492099,538,1135,-18.1124,0.862822
-679,-111,-17.0119,-1.36865,0.0860972,0.0523344,-0.00257113,0.0862919,0.0521397,-0.0755719,0.0501801,0.0456475,545,1135,-17.0119,1.3687
-672,-111,-16.2935,-2.06287,0.0704847,0.0428179,-0.00108532,0.0705273,0.0427754,-0.0391479,0.0410257,0.0471828,552,1135,-16.2935,2.0629
-665,-111,-15.6137,-2.55164,0,0,0,0,0,0,0,-1,559,1135,-15.6137,2.55162
-658,-111,-15.4816,1.36951,0,0,0,0,0,0,0,-1,566,1135,-15.4815,-1.36954
-651,-111,-15.4741,1.35217,0.0320435,0.0190443,0.000633427,0.0320743,0.0190135,0.0485746,0.0186241,0.0382591,573,1135,-15.4741,-1.35219
-644,-111,-15.4863,1.3092,0.022871,0.0134767,0.000525076,0.0229003,0.0134474,0.0556616,0.0132884,0.0233334,580,1135,-15.4863,-1.30915
-637,-111,-15.5017,1.43701,0.0151904,0.00900451,8.35346e-06,0.0151904,0.0090045,0.00135041,0.00882036,0.00909377,587,1135,-15.5017,-1.43698
-630,-111,-15.5194,1.56091,0.00795403,0.00481419,-0.000499203,0.00803149,0.00473673,-0.153935,0.00466183,0.0147256,594,1135,-15.5194,-1.56097
-623,-111,-15.5302,1.71094,0.00250189,0.00172137,-0.0011005,0.00327928,0.000943982,-0.615004,0.00194927,0.0135581,601,1135,-15.5302,-1.71098
-616,-111,-15.5661,1.85205,-0.000429219,-0.000120319,-0.00265029,0.00238001,-0.00292955,-0.814504,0.00307095,0.0141866,608,1135,-15.5661,-1.85201
-609,-111,-15.6593,1.9989,-0.00173209,-0.000521264,-0.00395607,0.00287545,-0.0051288,-0.861326,0.0046819,0.0188356,615,1135,-15.6593,-1.99888
-602,-111,-15.6102,2.15271,-0.00248155,-0.000926045,-0.00495099,0.00330791,-0.00671551,-0.863307,0.00589744,0.0184828,622,1135,-15.6103,-2.15265
-595,-111,-15.5653,2.35413,-0.00290162,-0.00118251,-0.00550211,0.00352678,-0.00761091,-0.862883,0.00657288,0.0131448,629,1135,-15.5653,-2.35414
-588,-111,-15.5142,2.53455,-0.0029425,-0.00129911,-0.0058306,0.00376741,-0.00800903,-0.855401,0.00694458,0.0341134,636,1135,-15.5142,-2.53454
-581,-111,-16.0366,1.52222,0,0,0,0,0,0,0,-1,643,1135,-16.0366,-1.52225
-574,-111,-16.8284,0.822876,0,0,0,0,0,0,0,-1,650,1135,-16.8284,-0.82287
-567,-111,-16.8324,0.969116,-0.00244916,-0.000987962,-0.00529794,0.00362952,-0.00706664,-0.853917,0.00628081,0.0381679,657,1135,-16.8324,-0.969132
-560,-111,-16.7686,0.915527,-0.00193322,-0.000690246,-0.00453812,0.00326875,-0.00589221,-0.853449,0.00536089,0.0416959,664,1135,-16.7686,-0.915555
-553,-111,-16.9155,0.726807,-0.00133812,-0.000300507,-0.0032921,0.00251341,-0.00415204,-0.863551,0.00388687,0.0463833,671,1135,-16.9155,-0.726807
-546,-111,-16.954,0.871948,-0.000806337,0.000149223,-0.00142318,0.00117268,-0.0018298,-0.947343,0.00174727,0.0418777,678,1135,-16.9541,-0.871918
-539,-111,-16.7343,0.859619,-0.000390676,0.000586159,0.00124196,0.00143229,-0.00123681,0.97274,0.00154238,0.0399618,685,1135,-16.7343,-0.859632
-532,-111,-16.6764,0.785889,-0.000562709,0.000797359,0.00422096,0.00439271,-0.00415806,0.865266,0.00493741,0.0402435,692,1135,-16.6764,-0.785865
-525,-111,-16.8068,0.769287,-0.00444144,0.000418413,0.00517788,0.00370819,-0.00773122,1.00479,0.00673931,0.0387397,699,1135,-16.8068,-0.769342
-518,-111,0,0,0,0,0,0,0,0,0,-1,706,1135,0,0
-511,-111,0,0,0,0,0,0,0,0,0,-1,713,1135,0,0
-504,-111,0,0,0,0,0,0,0,0,0,-1,720,1135,0,0
-497,-111,0,0,0,0,0,0,0,0,0,-1,727,1135,0,0
-490,-111,0,0,0,0,0,0,0,0,0,-1,734,1135,0,0
-483,-111,0,0,0,0,0,0,0,0,0,-1,741,1135,0,0
-476,-111,0,0,0,0,0,0,0,0,0,-1,748,1135,0,0
-469,-111,0,0,0,0,0,0,0,0,0,-1,755,1135,0,0
-462,-111,0,0,0,0,0,0,0,0,0,-1,762,1135,0,0
-455,-111,0,0,0,0,0,0,0,0,0,-1,769,1135,0,0
-448,-111,0,0,0,0,0,0,0,0,0,-1,776,1135,0,0
-441,-111,0,0,0,0,0,0,0,0,0,-1,783,1135,0,0
-434,-111,0,0,0,0,0,0,0,0,0,-1,790,1135,0,0
-427,-111,0,0,0,0,0,0,0,0,0,-1,797,1135,0,0
-420,-111,0,0,0,0,0,0,0,0,0,-1,804,1135,0,0
-413,-111,0,0,0,0,0,0,0,0,0,-1,811,1135,0,0
-406,-111,0,0,0,0,0,0,0,0,0,-1,818,1135,0,0
-399,-111,0,0,0,0,0,0,0,0,0,-1,825,1135,0,0
-392,-111,0,0,0,0,0,0,0,0,0,-1,832,1135,0,0
-385,-111,0,0,0,0,0,0,0,0,0,-1,839,1135,0,0
-378,-111,0,0,0,0,0,0,0,0,0,-1,846,1135,0,0
-371,-111,0,0,0,0,0,0,0,0,0,-1,853,1135,0,0
-364,-111,0,0,0,0,0,0,0,0,0,-1,860,1135,0,0
-357,-111,0,0,0,0,0,0,0,0,0,-1,867,1135,0,0
-350,-111,0,0,0,0,0,0,0,0,0,-1,874,1135,0,0
-343,-111,0,0,0,0,0,0,0,0,0,-1,881,1135,0,0
-336,-111,0,0,0,0,0,0,0,0,0,-1,888,1135,0,0
-329,-111,0,0,0,0,0,0,0,0,0,-1,895,1135,0,0
-322,-111,0,0,0,0,0,0,0,0,0,-1,902,1135,0,0
-315,-111,0,0,0,0,0,0,0,0,0,-1,909,1135,0,0
-308,-111,0,0,0,0,0,0,0,0,0,-1,916,1135,0,0
-301,-111,0,0,0,0,0,0,0,0,0,-1,923,1135,0,0
-294,-111,0,0,0,0,0,0,0,0,0,-1,930,1135,0,0
-287,-111,0,0,0,0,0,0,0,0,0,-1,937,1135,0,0
-280,-111,0,0,0,0,0,0,0,0,0,-1,944,1135,0,0
-273,-111,0,0,0,0,0,0,0,0,0,-1,951,1135,0,0
-266,-111,0,0,0,0,0,0,0,0,0,-1,958,1135,0,0
-259,-111,0,0,0,0,0,0,0,0,0,-1,965,1135,0,0
-252,-111,0,0,0,0,0,0,0,0,0,-1,972,1135,0,0
-245,-111,0,0,0,0,0,0,0,0,0,-1,979,1135,0,0
-238,-111,0,0,0,0,0,0,0,0,0,-1,986,1135,0,0
-231,-111,0,0,0,0,0,0,0,0,0,-1,993,1135,0,0
-224,-111,0,0,0,0,0,0,0,0,0,-1,1000,1135,0,0
-217,-111,0,0,0,0,0,0,0,0,0,-1,1007,1135,0,0
-210,-111,0,0,0,0,0,0,0,0,0,-1,1014,1135,0,0
-203,-111,0,0,0,0,0,0,0,0,0,-1,1021,1135,0,0
-196,-111,0,0,0,0,0,0,0,0,0,-1,1028,1135,0,0
-189,-111,0,0,0,0,0,0,0,0,0,-1,1035,1135,0,0
-182,-111,0,0,0,0,0,0,0,0,0,-1,1042,1135,0,0
-175,-111,0,0,0,0,0,0,0,0,0,-1,1049,1135,0,0
-168,-111,0,0,0,0,0,0,0,0,0,-1,1056,1135,0,0
-161,-111,0,0,0,0,0,0,0,0,0,-1,1063,1135,0,0
-154,-111,0,0,0,0,0,0,0,0,0,-1,1070,1135,0,0
-147,-111,0,0,0,0,0,0,0,0,0,-1,1077,1135,0,0
-140,-111,0,0,0,0,0,0,0,0,0,-1,1084,1135,0,0
-133,-111,0,0,0,0,0,0,0,0,0,-1,1091,1135,0,0
-126,-111,0,0,0,0,0,0,0,0,0,-1,1098,1135,0,0
-119,-111,0,0,0,0,0,0,0,0,0,-1,1105,1135,0,0
-112,-111,0,0,0,0,0,0,0,0,0,-1,1112,1135,0,0
-105,-111,0,0,0,0,0,0,0,0,0,-1,1119,1135,0,0
-98,-111,0,0,0,0,0,0,0,0,0,-1,1126,1135,0,0
-91,-111,0,0,0,0,0,0,0,0,0,-1,1133,1135,0,0
-84,-111,0,0,0,0,0,0,0,0,0,-1,1140,1135,0,0
-77,-111,0,0,0,0,0,0,0,0,0,-1,1147,1135,0,0
-70,-111,0,0,0,0,0,0,0,0,0,-1,1154,1135,0,0
-63,-111,0,0,0,0,0,0,0,0,0,-1,1161,1135,0,0
-56,-111,0,0,0,0,0,0,0,0,0,-1,1168,1135,0,0
-49,-111,0,0,0,0,0,0,0,0,0,-1,1175,1135,0,0
-42,-111,0,0,0,0,0,0,0,0,0,-1,1182,1135,0,0
-35,-111,0,0,0,0,0,0,0,0,0,-1,1189,1135,0,0
-28,-111,0,0,0,0,0,0,0,0,0,-1,1196,1135,0,0
-21,-111,0,0,0,0,0,0,0,0,0,-1,1203,1135,0,0
-14,-111,0,0,0,0,0,0,0,0,0,-1,1210,1135,0,0
-7,-111,0,0,0,0,0,0,0,0,0,-1,1217,1135,0,0
0,-111,0,0,0,0,0,0,0,0,0,-1,1224,1135,0,0
7,-111,0,0,0,0,0,0,0,0,0,-1,1231,1135,0,0
14,-111,0,0,0,0,0,0,0,0,0,-1,1238,1135,0,0
21,-111,0,0,0,0,0,0,0,0,0,-1,1245,1135,0,0
28,-111,0,0,0,0,0,0,0,0,0,-1,1252,1135,0,0
35,-111,0,0,0,0,0,0,0,0,0,-1,1259,1135,0,0
42,-111,0,0,0,0,0,0,0,0,0,-1,1266,1135,0,0
49,-111,0,0,0,0,0,0,0,0,0,-1,1273,1135,0,0
56,-111,0,0,0,0,0,0,0,0,0,-1,1280,1135,0,0
63,-111,0,0,0,0,0,0,0,0,0,-1,1287,1135,0,0
70,-111,0,0,0,0,0,0,0,0,0,-1,1294,1135,0,0
77,-111,0,0,0,0,0,0,0,0,0,-1,1301,1135,0,0
84,-111,0,0,0,0,0,0,0,0,0,-1,1308,1135,0,0
91,-111,0,0,0,0,0,0,0,0,0,-1,1315,1135,0,0
98,-111,0,0,0,0,0,0,0,0,0,-1,1322,1135,0,0
105,-111,0,0,0,0,0,0,0,0,0,-1,1329,1135,0,0
112,-111,0,0,0,0,0,0,0,0,0,-1,1336,1135,0,0
119,-111,0,0,0,0,0,0,0,0,0,-1,1343,1135,0,0
126,-111,0,0,0,0,0,0,0,0,0,-1,1350,1135,0,0
133,-111,0,0,0,0,0,0,0,0,0,-1,1357,1135,0,0
140,-111,0,0,0,0,0,0,0,0,0,-1,1364,1135,0,0
147,-111,0,0,0,0,0,0,0,0,0,-1,1371,1135,0,0
154,-111,0,0,0,0,0,0,0,0,0,-1,1378,1135,0,0
161,-111,0,0,0,0,0,0,0,0,0,-1,1385,1135,0,0
168,-111,0,0,0,0,0,0,0,0,0,-1,1392,1135,0,0
175,-111,0,0,0,0,0,0,0,0,0,-1,1399,1135,0,0
182,-111,0,0,0,0,0,0,0,0,0,-1,1406,1135,0,0
189,-111,0,0,0,0,0,0,0,0,0,-1,1413,1135,0,0
196,-111,0,0,0,0,0,0,0,0,0,-1,1420,1135,0,0
203,-111,0,0,0,0,0,0,0,0,0,-1,1427,1135,0,0
210,-111,0,0,0,0,0,0,0,0,0,-1,1434,1135,0,0
217,-111,0,0,0,0,0,0,0,0,0,-1,1441,1135,0,0
224,-111,0,0,0,0,0,0,0,0,0,-1,1448,1135,0,0
231,-111,0,0,0,0,0,0,0,0,0,-1,1455,1135,0,0
238,-111,0,0,0,0,0,0,0,0,0,-1,1462,1135,0,0
245,-111,0,0,0,0,0,0,0,0,0,-1,1469,1135,0,0
252,-111,0,0,0,0,0,0,0,0,0,-1,1476,1135,0,0
259,-111,0,0,0,0,0,0,0,0,0,-1,1483,1135,0,0
266,-111,0,0,0,0,0,0,0,0,0,-1,1490,1135,0,0
273,-111,0,0,0,0,0,0,0,0,0,-1,1497,1135,0,0
280,-111,0,0,0,0,0,0,0,0,0,-1,1504,1135,0,0
287,-111,0,0,0,0,0,0,0,0,0,-1,1511,1135,0,0
294,-111,0,0,0,0,0,0,0,0,0,-1,1518,1135,0,0
301,-111,0,0,0,0,0,0,0,0,0,-1,1525,1135,0,0
308,-111,0,0,0,0,0,0,0,0,0,-1,1532,1135,0,0
315,-111,0,0,0,0,0,0,0,0,0,-1,1539,1135,0,0
322,-111,0,0,0,0,0,0,0,0,0,-1,1546,1135,0,0
329,-111,0,0,0,0,0,0,0,0,0,-1,1553,1135,0,0
336,-111,0,0,0,0,0,0,0,0,0,-1,1560,1135,0,0
343,-111,0,0,0,0,0,0,0,0,0,-1,1567,1135,0,0
350,-111,0,0,0,0,0,0,0,0,0,-1,1574,1135,0,0
357,-111,0,0,0,0,0,0,0,0,0,-1,1581,1135,0,0
364,-111,0,0,0,0,0,0,0,0,0,-1,1588,1135,0,0
371,-111,0,0,0,0,0,0,0,0,0,-1,1595,1135,0,0
378,-111,0,0,0,0,0,0,0,0,0,-1,1602,1135,0,0
385,-111,0,0,0,0,0,0,0,0,0,-1,1609,1135,0,0
392,-111,0,0,0,0,0,0,0,0,0,-1,1616,1135,0,0
399,-111,0,0,0,0,0,0,0,0,0,-1,1623,1135,0,0
406,-111,0,0,0,0,0,0,0,0,0,-1,1630,1135,0,0
413,-111,0,0,0,0,0,0,0,0,0,-1,1637,1135,0,0
420,-111,0,0,0,0,0,0,0,0,0,-1,1644,1135,0,0
427,-111,0,0,0,0,0,0,0,0,0,-1,1651,1135,0,0
434,-111,0,0,0,0,0,0,0,0,0,-1,1658,1135,0,0
441,-111,0,0,0,0,0,0,0,0,0,-1,1665,1135,0,0
448,-111,0,0,0,0,0,0,0,0,0,-1,1672,1135,0,0
455,-111,0,0,0,0,0,0,0,0,0,-1,1679,1135,0,0
462,-111,0,0,0,0,0,0,0,0,0,-1,1686,1135,0,0
469,-111,0,0,0,0,0,0,0,0,0,-1,1693,1135,0,0
476,-111,0,0,0,0,0,0,0,0,0,-1,1700,1135,0,0
483,-111,0,0,0,0,0,0,0,0,0,-1,1707,1135,0,0
490,-111,0,0,0,0,0,0,0,0,0,-1,1714,1135,0,0
497,-111,0,0,0,0,0,0,0,0,0,-1,1721,1135,0,0
504,-111,0,0,0,0,0,0,0,0,0,-1,1728,1135,0,0
511,-111,0,0,0,0,0,0,0,0,0,-1,1735,1135,0,0
518,-111,0,0,0,0,0,0,0,0,0,-1,1742,1135,0,0
525,-111,0,0,0,0,0,0,0,0,0,-1,1749,1135,0,0
532,-111,0,0,0,0,0,0,0,0,0,-1,1756,1135,0,0
539,-111,0,0,0,0,0,0,0,0,0,-1,1763,1135,0,0
546,-111,0,0,0,0,0,0,0,0,0,-1,1770,1135,0,0
553,-111,0,0,0,0,0,0,0,0,0,-1,1777,1135,0,0
560,-111,0,0,0,0,0,0,0,0,0,-1,1784,1135,0,0
567,-111,0,0,0,0,0,0,0,0,0,-1,1791,1135,0,0
574,-111,0,0,0,0,0,0,0,0,0,-1,1798,1135,0,0
581,-111,0,0,0,0,0,0,0,0,0,-1,1805,1135,0,0
588,-111,0,0,0,0,0,0,0,0,0,-1,1812,1135,0,0
595,-111,0,0,0,0,0,0,0,0,0,-1,1819,1135,0,0
602,-111,0,0,0,0,0,0,0,0,0,-1,1826,1135,0,0
609,-111,0,0,0,0,0,0,0,0,0,-1,1833,1135,0,0
616,-111,0,0,0,0,0,0,0,0,0,-1,1840,1135,0,0
623,-111,0,0,0,0,0,0,0,0,0,-1,1847,1135,0,0
630,-111,0,0,0,0,0,0,0,0,0,-1,1854,1135,0,0
637,-111,0,0,0,0,0,0,0,0,0,-1,1861,1135,0,0
644,-111,24.7101,2.5957,0.00453227,0.000867775,0.0101817,0.0130453,-0.00764523,0.696374,0.0120805,0.0362681,1868,1135,24.7101,-2.59567
651,-111,24.9012,2.79236,0.00255634,0.000378184,0.0080792,0.00961953,-0.00668501,0.718402,0.00946412,0.0388122,1875,1135,24.9012,-2.79232
658,-111,25.0287,3.04529,0.00173012,-2.6541e-05,0.0059564,0.0068726,-0.00516902,0.712196,0.00697538,0.0452145,1882,1135,25.0287,-3.04535
665,-111,25.0255,3.06934,0.000511374,-0.000533076,0.00459401,0.00461275,-0.00463445,0.728804,0.00533888,0.0460431,1889,1135,25.0255,-3.06934
672,-111,24.8755,2.92053,-0.00146186,-0.00120448,0.00437747,0.00304619,-0.00571254,0.800093,0.00513437,0.0442633,1896,1135,24.8755,-2.92049
679,-111,24.7081,3.0708,-0.00337872,-0.00184221,0.00458477,0.00203823,-0.00725915,0.86841,0.00564291,0.0421171,1903,1135,24.7082,-3.07079
686,-111,24.7019,3.00757,-0.00490399,-0.00235712,0.00498281,0.00151241,-0.00877352,0.910503,0.00641287,0.0399189,1910,1135,24.7019,-3.00753
693,-111,24.7412,2.83728,-0.00606538,-0.00266888,0.00542202,0.00131462,-0.0100489,0.937166,0.00717771,0.035,1917,1135,24.7412,-2.83729
700,-111,24.7682,2.78186,-0.00700203,-0.00290379,0.00570059,0.00110477,-0.0110106,0.957936,0.007735,0.0261301,1924,1135,24.7682,-2.78184
707,-111,24.6074,3.01526,0,0,0,0,0,0,0,-1,1931,1135,24.6075,-3.01523
714,-111,23.905,3.95801,-0.00786586,-0.00294369,0.00581395,0.000908619,-0.0117182,0.985616,0.00813192,0.0320483,1938,1135,23.905,-3.95805
721,-111,23.3765,4.78479,-0.00770315,-0.00261924,0.00587103,0.0012365,-0.0115589,0.989698,0.00814942,0.0142259,1945,1135,23.3765,-4.78477
728,-111,23.3729,4.64722,-0.00737853,-0.0022034,0.00570262,0.00147125,-0.0110532,0.998382,0.00790498,0.0178614,1952,1135,23.3729,-4.64722
735,-111,23.373,4.52258,-0.00689606,-0.00166193,0.00540997,0.00173073,-0.0102887,1.01068,0.0075029,0.0175709,1959,1135,23.3731,-4.52257
742,-111,23.3525,4.43457,-0.00642552,-0.000887778,0.00504274,0.00209625,-0.00940955,1.03647,0.00707605,0.0122934,1966,1135,23.3526,-4.43459
749,-111,23.3187,4.32935,-0.00570697,-0.000235619,0.00435082,0.00216812,-0.00811071,1.06605,0.00625635,0.0153113,1973,1135,23.3187,-4.32932
756,-111,23.2952,4.21301,-0.00495991,0.00075074,0.00340606,0.00233998,-0.00654915,1.13423,0.00532047,0.0161586,1980,1135,23.2952,-4.21306
763,-111,23.2971,4.09241,-0.00432168,0.00174384,0.00254959,0.00267316,-0.005251,1.22127,0.00465501,0.0133051,1987,1135,23.2971,-4.09236
770,-111,23.2966,3.96326,-0.00470279,0.00257062,0.00231684,0.00324591,-0.00537809,1.28718,0.00502954,0.0104739,1994,1135,23.2967,-3.96329
777,-111,23.2615,3.83862,-0.00644566,0.00315136,0.00287102,0.00394468,-0.00723897,1.30121,0.00654959,0.0225772,2001,1135,23.2614,-3.83865
784,-111,23.2822,3.92859,-0.0088813,0.00354644,0.00347337,0.00445131,-0.00978617,1.31594,0.00841017,0.0410367,2008,1135,23.2822,-3.92856
791,-111,23.4382,4.31665,0,0,0,0,0,0,0,-1,2015,1135,23.4383,-4.3167
798,-111,23.7222,4.47046,0,0,0,0,0,0,0,-1,2022,1135,23.7222,-4.47046
805,-111,21.5217,1.89648,0,0,0,0,0,0,0,-1,2029,1135,21.5217,-1.89645
812,-111,20.8225,1.32239,0,0,0,0,0,0,0,-1,2036,1135,20.8225,-1.32237
-700,-118,0,0,0,0,0,0,0,0,0,-1,524,1142,0,0
-693,-118,-19.5596,-1.3009,0,0,0,0,0,0,0,-1,531,1142,-19.5596,1.30089
-686,-118,-18.2945,-1.29004,0.094476,0.0673457,-0.00736041,0.0963442,0.0654775,-0.248571,0.0568082,0.0470818,538,1142,-18.2945,1.29
-679,-118,-17.2595,-2.04016,0.0789126,0.0571896,-0.00462418,0.079856,0.0562463,-0.201249,0.047371,0.0456143,545,1142,-17.2595,2.04015
-672,-118,-16.6414,-2.79004,0,0,0,0,0,0,0,-1,552,1142,-16.6414,2.78999
-665,-118,-14.3644,-2.047,0,0,0,0,0,0,0,-1,559,1142,-14.3644,2.04697
-658,-118,-15.6158,1.42883,0,0,0,0,0,0,0,-1,566,1142,-15.6158,-1.42889
-651,-118,-15.453,1.37378,0.0294494,0.0217055,-0.00014743,0.0294522,0.0217027,-0.0190292,0.0176288,0.0366017,573,1142,-15.453,-1.37381
-644,-118,-15.3097,1.30396,0.021009,0.0154968,-4.61422e-05,0.0210094,0.0154965,-0.00837022,0.012578,0.0235623,580,1142,-15.3097,-1.30395
-637,-118,-15.3317,1.44055,0.0139734,0.0104786,-0.00033358,0.014005,0.0104471,-0.0943157,0.00840554,0.0145071,587,1142,-15.3317,-1.44061
-630,-118,-15.3334,1.57385,0.00727351,0.00581409,-0.000574644,0.00747262,0.00561499,-0.333535,0.00449244,0.0188373,594,1142,-15.3335,-1.5739
-623,-118,-15.3483,1.70544,0.00222842,0.00230328,-0.0010586,0.00332511,0.00120659,-0.80307,0.00194367,0.0159073,601,1142,-15.3483,-1.70543
-616,-118,-15.3688,1.85254,-0.000368018,0.000291935,-0.00249771,0.00248138,-0.00255746,-0.851073,0.00290928,0.0141706,608,1142,-15.3688,-1.85259
-609,-118,-15.4283,1.97253,-0.00148352,-0.00026105,-0.0036745,0.00285271,-0.00459728,-0.867816,0.00434038,0.0173666,615,1142,-15.4283,-1.97253
-602,-118,-15.4339,2.18176,-0.00214401,-0.000685323,-0.00458558,0.00322856,-0.00605789,-0.864263,0.00544385,0.0164025,622,1142,-15.4339,-2.18179
-595,-118,-15.4822,2.32605,-0.00253384,-0.000975458,-0.00510568,0.00341015,-0.00691944,-0.86112,0.00607743,0.014065,629,1142,-15.4822,-2.32603
-588,-118,-15.294,2.51746,-0.00257728,-0.00109154,-0.00542289,0.00363912,-0.00730794,-0.853468,0.00643752,0.0256051,636,1142,-15.294,-2.51751
-581,-118,-15.1463,2.62561,0,0,0,0,0,0,0,-1,643,1142,-15.1463,-2.62563
-574,-118,-16.8458,0.875732,0,0,0,0,0,0,0,-1,650,1142,-16.8458,-0.875729
-567,-118,-16.7945,0.908447,-0.00216036,-0.000831514,-0.0050118,0.00355972,-0.00655159,-0.8513,0.00592234,0.0407449,657,1142,-16.7945,-0.908415
-560,-118,-16.7382,0.930176,-0.0017558,-0.000577645,-0.00437871,0.00325143,-0.00558488,-0.852263,0.0051606,0.0363409,664,1142,-16.7382,-0.930196
-553,-118,-16.7369,0.87207,-0.00130969,-0.000245977,-0.00330104,0.00256578,-0.00412145,-0.86527,0.00389554,0.0393739,671,1142,-16.7369,-0.872071
-546,-118,-16.7906,0.812866,-0.000981622,0.00012833,-0.00164179,0.00130641,-0.0021597,-0.948385,0.00202127,0.0403184,678,1142,-16.7906,-0.812921
-539,-118,-16.6976,0.71167,-0.000858123,0.000482798,0.000808863,0.000862946,-0.00123827,1.13145,0.00121957,0.0422112,685,1142,-16.6977,-0.711724
-532,-118,-16.6646,0.655884,-0.00121252,0.000664046,0.00380868,0.00364832,-0.00419679,0.90617,0.00453307,0.0420772,692,1142,-16.6646,-0.655858
-525,-118,-16.8336,0.780273,-0.00512973,0.00020654,0.00501681,0.0032206,-0.00814379,1.02979,0.00676335,0.0408672,699,1142,-16.8336,-0.780254
-518,-118,0,0,0,0,0,0,0,0,0,-1,706,1142,0,0
-511,-118,0,0,0,0,0,0,0,0,0,-1,713,1142,0,0
-504,-118,0,0,0,0,0,0,0,0,0,-1,720,1142,0,0
-497,-118,0,0,0,0,0,0,0,0,0,-1,727,1142,0,0
-490,-118,0,0,0,0,0,0,0,0,0,-1,734,1142,0,0
-483,-118,0,0,0,0,0,0,0,0,0,-1,741,1142,0,0
-476,-118,0,0,0,0,0,0,0,0,0,-1,748,1142,0,0
-469,-118,0,0,0,0,0,0,0,0,0,-1,755,1142,0,0
-462,-118,0,0,0,0,0,0,0,0,0,-1,762,1142,0,0
-455,-118,0,0,0,0,0,0,0,0,0,-1,769,1142,0,0
-448,-118,0,0,0,0,0,0,0,0,0,-1,776,1142,0,0
-441,-118,0,0,0,0,0,0,0,0,0,-1,783,1142,0,0
-434,-118,0,0,0,0,0,0,0,0,0,-1,790,1142,0,0
-427,-118,0,0,0,0,0,0,0,0,0,-1,797,1142,0,0
-420,-118,0,0,0,0,0,0,0,0,0,-1,804,1142,0,0
-413,-118,0,0,0,0,0,0,0,0,0,-1,811,1142,0,0
-406,-118,0,0,0,0,0,0,0,0,0,-1,818,1142,0,0
-399,-118,0,0,0,0,0,0,0,0,0,-1,825,1142,0,0
-392,-118,0,0,0,0,0,0,0,0,0,-1,832,1142,0,0
-385,-118,0,0,0,0,0,0,0,0,0,-1,839,1142,0,0
-378,-118,0,0,0,0,0,0,0,0,0,-1,846,1142,0,0
-371,-118,0,0,0,0,0,0,0,0,0,-1,853,1142,0,0
-364,-118,0,0,0,0,0,0,0,0,0,-1,860,1142,0,0
-357,-118,0,0,0,0,0,0,0,0,0,-1,867,1142,0,0
-350,-118,0,0,0,0,0,0,0,0,0,-1,874,1142,0,0
-343,-118,0,0,0,0,0,0,0,0,0,-1,881,1142,0,0
-336,-118,0,0,0,0,0,0,0,0,0,-1,888,1142,0,0
-329,-118,0,0,0,0,0,0,0,0,0,-1,895,1142,0,0
-322,-118,0,0,0,0,0,0,0,0,0,-1,902,1142,0,0
-315,-118,0,0,0,0,0,0,0,0,0,-1,909,1142,0,0
-308,-118,0,0,0,0,0,0,0,0,0,-1,916,1142,0,0
-301,-118,0,0,0,0,0,0,0,0,0,-1,923,1142,0,0
-294,-118,0,0,0,0,0,0,0,0,0,-1,930,1142,0,0
-287,-118,0,0,0,0,0,0,0,0,0,-1,937,1142,0,0
-280,-118,0,0,0,0,0,0,0,0,0,-1,944,1142,0,0
-273,-118,0,0,0,0,0,0,0,0,0,-1,951,1142,0,0
-266,-118,0,0,0,0,0,0,0,0,0,-1,958,1142,0,0
-259,-118,0,0,0,0,0,0,0,0,0,-1,965,1142,0,0
-252,-118,0,0,0,0,0,0,0,0,0,-1,972,1142,0,0
-245,-118,0,0,0,0,0,0,0,0,0,-1,979,1142,0,0
-238,-118,0,0,0,0,0,0,0,0,0,-1,986,1142,0,0
-231,-118,0,0,0,0,0,0,0,0,0,-1,993,1142,0,0
-224,-118,0,0,0,0,0,0,0,0,0,-1,1000,1142,0,0
-217,-118,0,0,0,0,0,0,0,0,0,-1,1007,1142,0,0
-210,-118,0,0,0,0,0,0,0,0,0,-1,1014,1142,0,0
-203,-118,0,0,0,0,0,0,0,0,0,-1,1021,1142,0,0
-196,-118,0,0,0,0,0,0,0,0,0,-1,1028,1142,0,0
-189,-118,0,0,0,0,0,0,0,0,0,-1,1035,1142,0,0
-182,-118,0,0,0,0,0,0,0,0,0,-1,1042,1142,0,0
-175,-118,0,0,0,0,0,0,0,0,0,-1,1049,1142,0,0
-168,-118,0,0,0,0,0,0,0,0,0,-1,1056,1142,0,0
-161,-118,0,0,0,0,0,0,0,0,0,-1,1063,1142,0,0
-154,-118,0,0,0,0,0,0,0,0,0,-1,1070,1142,0,0
-147,-118,0,0,0,0,0,0,0,0,0,-1,1077,1142,0,0
-140,-118,0,0,0,0,0,0,0,0,0,-1,1084,1142,0,0
-133,-118,0,0,0,0,0,0,0,0,0,-1,1091,1142,0,0
-126,-118,0,0,0,0,0,0,0,0,0,-1,1098,1142,0,0
-119,-118,0,0,0,0,0,0,0,0,0,-1,1105,1142,0,0
-112,-118,0,0,0,0,0,0,0,0,0,-1,1112,1142,0,0
-105,-118,0,0,0,0,0,0,0,0,0,-1,1119,1142,0,0
-98,-118,0,0,0,0,0,0,0,0,0,-1,1126,1142,0,0
-91,-118,0,0,0,0,0,0,0,0,0,-1,1133,1142,0,0
-84,-118,0,0,0,0,0,0,0,0,0,-1,1140,1142,0,0
-77,-118,0,0,0,0,0,0,0,0,0,-1,1147,1142,0,0
-70,-118,0,0,0,0,0,0,0,0,0,-1,1154,1142,0,0
-63,-118,0,0,0,0,0,0,0,0,0,-1,1161,1142,0,0
-56,-118,0,0,0,0,0,0,0,0,0,-1,1168,1142,0,0
-49,-118,0,0,0,0,0,0,0,0,0,-1,1175,1142,0,0
-42,-118,0,0,0,0,0,0,0,0,0,-1,1182,1142,0,0
-35,-118,0,0,0,0,0,0,0,0,0,-1,1189,1142,0,0
-28,-118,0,0,0,0,0,0,0,0,0,-1,1196,1142,0,0
-21,-118,0,0,0,0,0,0,0,0,0,-1,1203,1142,0,0
-14,-118,0,0,0,0,0,0,0,0,0,-1,1210,1142,0,0
-7,-118,0,0,0,0,0,0,0,0,0,-1,1217,1142,0,0
0,-118,0,0,0,0,0,0,0,0,0,-1,1224,1142,0,0
7,-118,0,0,0,0,0,0,0,0,0,-1,1231,1142,0,0
14,-118,0,0,0,0,0,0,0,0,0,-1,1238,1142,0,0
21,-118,0,0,0,0,0,0,0,0,0,-1,1245,1142,0,0
28,-118,0,0,0,0,0,0,0,0,0,-1,1252,1142,0,0
35,-118,0,0,0,0,0,0,0,0,0,-1,1259,1142,0,0
42,-118,0,0,0,0,0,0,0,0,0,-1,1266,1142,0,0
49,-118,0,0,0,0,0,0,0,0,0,-1,1273,1142,0,0
56,-118,0,0,0,0,0,0,0,0,0,-1,1280,1142,0,0
63,-118,0,0,0,0,0,0,0,0,0,-1,1287,1142,0,0
70,-118,0,0,0,0,0,0,0,0,0,-1,1294,1142,0,0
77,-118,0,0,0,0,0,0,0,0,0,-1,1301,1142,0,0
84,-118,0,0,0,0,0,0,0,0,0,-1,1308,1142,0,0
91,-118,0,0,0,0,0,0,0,0,0,-1,1315,1142,0,0
98,-118,0,0,0,0,0,0,0,0,0,-1,1322,1142,0,0
105,-118,0,0,0,0,0,0,0,0,0,-1,1329,1142,0,0
112,-118,0,0,0,0,0,0,0,0,0,-1,1336,1142,0,0
119,-118,0,0,0,0,0,0,0,0,0,-1,1343,1142,0,0
126,-118,0,0,0,0,0,0,0,0,0,-1,1350,1142,0,0
133,-118,0,0,0,0,0,0,0,0,0,-1,1357,1142,0,0
140,-118,0,0,0,0,0,0,0,0,0,-1,1364,1142,0,0
147,-118,0,0,0,0,0,0,0,0,0,-1,1371,1142,0,0
154,-118,0,0,0,0,0,0,0,0,0,-1,1378,1142,0,0
161,-118,0,0,0,0,0,0,0,0,0,-1,1385,1142,0,0
168,-118,0,0,0,0,0,0,0,0,0,-1,1392,1142,0,0
175,-118,0,0,0,0,0,0,0,0,0,-1,1399,1142,0,0
182,-118,0,0,0,0,0,0,0,0,0,-1,1406,1142,0,0
189,-118,0,0,0,0,0,0,0,0,0,-1,1413,1142,0,0
196,-118,0,0,0,0,0,0,0,0,0,-1,1420,1142,0,0
203,-118,0,0,0,0,0,0,0,0,0,-1,1427,1142,0,0
210,-118,0,0,0,0,0,0,0,0,0,-1,1434,1142,0,0
217,-118,0,0,0,0,0,0,0,0,0,-1,1441,1142,0,0
224,-118,0,0,0,0,0,0,0,0,0,-1,1448,1142,0,0
231,-118,0,0,0,0,0,0,0,0,0,-1,1455,1142,0,0
238,-118,0,0,0,0,0,0,0,0,0,-1,1462,1142,0,0
245,-118,0,0,0,0,0,0,0,0,0,-1,1469,1142,0,0
252,-118,0,0,0,0,0,0,0,0,0,-1,1476,1142,0,0
259,-118,0,0,0,0,0,0,0,0,0,-1,1483,1142,0,0
266,-118,0,0,0,0,0,0,0,0,0,-1,1490,1142,0,0
273,-118,0,0,0,0,0,0,0,0,0,-1,1497,1142,0,0
280,-118,0,0,0,0,0,0,0,0,0,-1,1504,1142,0,0
287,-118,0,0,0,0,0,0,0,0,0,-1,1511,1142,0,0
294,-118,0,0,0,0,0,0,0,0,0,-1,1518,1142,0,0
301,-118,0,0,0,0,0,0,0,0,0,-1,1525,1142,0,0
308,-118,0,0,0,0,0,0,0,0,0,-1,1532,1142,0,0
315,-118,0,0,0,0,0,0,0,0,0,-1,1539,1142,0,0
322,-118,0,0,0,0,0,0,0,0,0,-1,1546,1142,0,0
329,-118,0,0,0,0,0,0,0,0,0,-1,1553,1142,0,0
336,-118,0,0,0,0,0,0,0,0,0,-1,1560,1142,0,0
343,-118,0,0,0,0,0,0,0,0,0,-1,1567,1142,0,0
350,-118,0,0,0,0,0,0,0,0,0,-1,1574,1142,0,0
357,-118,0,0,0,0,0,0,0,0,0,-1,1581,1142,0,0
364,-118,0,0,0,0,0,0,0,0,0,-1,1588,1142,0,0
371,-118,0,0,0,0,0,0,0,0,0,-1,1595,1142,0,0
378,-118,0,0,0,0,0,0,0,0,0,-1,1602,1142,0,0
385,-118,0,0,0,0,0,0,0,0,0,-1,1609,1142,0,0
392,-118,0,0,0,0,0,0,0,0,0,-1,1616,1142,0,0
399,-118,0,0,0,0,0,0,0,0,0,-1,1623,1142,0,0
406,-118,0,0,0,0,0,0,0,0,0,-1,1630,1142,0,0
413,-118,0,0,0,0,0,0,0,0,0,-1,1637,1142,0,0
420,-118,0,0,0,0,0,0,0,0,0,-1,1644,1142,0,0
427,-118,0,0,0,0,0,0,0,0,0,-1,1651,1142,0,0
434,-118,0,0,0,0,0,0,0,0,0,-1,1658,1142,0,0
441,-118,0,0,0,0,0,0,0,0,0,-1,1665,1142,0,0
448,-118,0,0,0,0,0,0,0,0,0,-1,1672,1142,0,0
455,-118,0,0,0,0,0,0,0,0,0,-1,1679,1142,0,0
462,-118,0,0,0,0,0,0,0,0,0,-1,1686,1142,0,0
469,-118,0,0,0,0,0,0,0,0,0,-1,1693,1142,0,0
476,-118,0,0,0,0,0,0,0,0,0,-1,1700,1142,0,0
483,-118,0,0,0,0,0,0,0,0,0,-1,1707,1142,0,0
490,-118,0,0,0,0,0,0,0,0,0,-1,1714,1142,0,0
497,-118,0,0,0,0,0,0,0,0,0,-1,1721,1142,0,0
504,-118,0,0,0,0,0,0,0,0,0,-1,1728,1142,0,0
511,-118,0,0,0,0,0,0,0,0,0,-1,1735,1142,0,0
518,-118,0,0,0,0,0,0,0,0,0,-1,1742,1142,0,0
525,-118,0,0,0,0,0,0,0,0,0,-1,1749,1142,0,0
532,-118,0,0,0,0,0,0,0,0,0,-1,1756,1142,0,0
539,-118,0,0,0,0,0,0,0,0,0,-1,1763,1142,0,0
546,-118,0,0,0,0,0,0,0,0,0,-1,1770,1142,0,0
553,-118,0,0,0,0,0,0,0,0,0,-1,1777,1142,0,0
560,-118,0,0,0,0,0,0,0,0,0,-1,1784,1142,0,0
567,-118,0,0,0,0,0,0,0,0,0,-1,1791,1142,0,0
574,-118,0,0,0,0,0,0,0,0,0,-1,1798,1142,0,0
581,-118,0,0,0,0,0,0,0,0,0,-1,1805,1142,0,0
588,-118,0,0,0,0,0,0,0,0,0,-1,1812,1142,0,0
595,-118,0,0,0,0,0,0,0,0,0,-1,1819,1142,0,0
602,-118,0,0,0,0,0,0,0,0,0,-1,1826,1142,0,0
609,-118,0,0,0,0,0,0,0,0,0,-1,1833,1142,0,0
616,-118,0,0,0,0,0,0,0,0,0,-1,1840,1142,0,0
623,-118,0,0,0,0,0,0,0,0,0,-1,1847,1142,0,0
630,-118,0,0,0,0,0,0,0,0,0,-1,1854,1142,0,0
637,-118,0,0,0,0,0,0,0,0,0,-1,1861,1142,0,0
644,-118,24.7373,2.48181,0.00427158,-0.000973853,0.0103151,0.0122922,-0.00899447,0.660907,0.0123389,0.0382278,1868,1142,24.7373,-2.4818
651,-118,24.9167,2.62097,0.00251127,-0.000750409,0.00823077,0.00927121,-0.00751035,0.687595,0.0097066,0.0407591,1875,1142,24.9167,-2.62093
658,-118,24.9054,2.85046,0.00175426,-0.000629553,0.00607366,0.00675186,-0.00562716,0.688509,0.00715685,0.0448118,1882,1142,24.9055,-2.85048
665,-118,24.9102,3.05017,0.000416662,-0.000816664,0.00475053,0.00459038,-0.00499038,0.720854,0.00553306,0.0437732,1889,1142,24.9101,-3.05022
672,-118,24.8002,2.89575,-0.00162143,-0.00126157,0.00447816,0.00304027,-0.00592328,0.805477,0.00526358,0.0450598,1896,1142,24.8002,-2.89569
679,-118,24.6334,3.16296,-0.00356432,-0.00177063,0.00461276,0.00203166,-0.00736661,0.881414,0.00571007,0.041921,1903,1142,24.6334,-3.16295
686,-118,24.6385,2.99756,-0.00513905,-0.0022397,0.00493166,0.00145094,-0.00882969,0.928348,0.00642495,0.0352954,1910,1142,24.6385,-2.99761
693,-118,24.6531,2.84497,-0.00633492,-0.00253248,0.00529403,0.00119137,-0.0100588,0.957789,0.00713619,0.0321494,1917,1142,24.6531,-2.84501
700,-118,24.7432,2.81567,-0.00728406,-0.00277678,0.00553014,0.00094129,-0.0110021,0.978884,0.0076678,0.0204335,1924,1142,24.7432,-2.81573
707,-118,24.6521,3.33899,0,0,0,0,0,0,0,-1,1931,1142,24.6521,-3.33898
714,-118,23.8821,4.13574,-0.0082725,-0.00291005,0.00556812,0.000588773,-0.0117713,1.00978,0.00805098,0.0461815,1938,1142,23.8821,-4.13569
721,-118,23.2301,4.79932,-0.00815207,-0.00266704,0.0056276,0.000850742,-0.0116698,1.01213,0.00807843,0.0121956,1945,1142,23.2301,-4.79937
728,-118,23.2297,4.67432,-0.00779809,-0.00230587,0.00547375,0.00107199,-0.011176,1.0179,0.00783246,0.0156297,1952,1142,23.2298,-4.67434
735,-118,23.2186,4.55725,-0.0072161,-0.00179139,0.00517417,0.00133826,-0.0103457,1.02681,0.00738378,0.014445,1959,1142,23.2187,-4.55723
742,-118,23.2509,4.41846,-0.0066251,-0.000979415,0.00481059,0.0017754,-0.00937991,1.05073,0.0069214,0.0203582,1966,1142,23.2508,-4.41843
749,-118,23.2473,4.2738,-0.00576624,-0.000155185,0.00420167,0.00209151,-0.00801294,1.07976,0.00615867,0.0197528,1973,1142,23.2473,-4.27375
756,-118,23.2002,4.18384,-0.0048021,0.00099425,0.00339639,0.00256092,-0.00636877,1.1386,0.00530951,0.0180564,1980,1142,23.2001,-4.18383
763,-118,23.203,4.07581,-0.00396305,0.00219989,0.00274947,0.00324819,-0.00501135,1.20653,0.00480473,0.0104951,1987,1142,23.2031,-4.07586
770,-118,23.1903,3.95752,-0.0041591,0.00325573,0.00283616,0.00421615,-0.00511952,1.24428,0.00539835,0.0114519,1994,1142,23.1904,-3.95751
777,-118,23.1305,3.80701,-0.00562868,0.00416222,0.00380245,0.00546548,-0.00693195,1.2406,0.00717433,0.0242802,2001,1142,23.1305,-3.80704
784,-118,23.1705,3.91553,-0.00773341,0.00498075,0.00513857,0.00679786,-0.00955051,1.2309,0.00948323,0.0437814,2008,1142,23.1706,-3.91552
791,-118,23.2135,4.08374,0,0,0,0,0,0,0,-1,2015,1142,23.2135,-4.08373
798,-118,23.113,4.19275,0,0,0,0,0,0,0,-1,2022,1142,23.1131,-4.19269
805,-118,21.3228,1.38977,0,0,0,0,0,0,0,-1,2029,1142,21.3227,-1.38978
812,-118,20.6318,0.646729,0,0,0,0,0,0,0,-1,2036,1142,20.6319,-0.646703
-700,-125,0,0,0,0,0,0,0,0,0,-1,524,1149,0,0
-693,-125,-19.5766,-1.54944,0,0,0,0,0,0,0,-1,531,1149,-19.5766,1.54946
-686,-125,-18.7676,-2.1731,0.0821337,0.0731417,-0.0107542,0.0892939,0.0659815,-0.587406,0.0534798,0.0475777,538,1149,-18.7677,2.17304
-679,-125,-17.6447,-2.73743,0.0676885,0.0622557,-0.00729138,0.072753,0.0571911,-0.607089,0.0442367,0.0450673,545,1149,-17.6447,2.73745
-672,-125,-15.9457,-2.83105,0,0,0,0,0,0,0,-1,552,1149,-15.9458,2.83109
-665,-125,-14.4067,-2.86121,0,0,0,0,0,0,0,-1,559,1149,-14.4067,2.86118
-658,-125,-15.2029,1.16418,0,0,0,0,0,0,0,-1,566,1149,-15.2029,-1.16415
-651,-125,-15.1624,1.2373,0.0248512,0.0244125,-0.00119945,0.0258512,0.0234125,-0.694961,0.0164815,0.0363365,573,1149,-15.1624,-1.23731
-644,-125,-15.1408,1.31067,0.017684,0.0175547,-0.000805826,0.0184278,0.0168109,-0.745375,0.0117833,0.0227065,580,1149,-15.1408,-1.31066
-637,-125,-15.1585,1.42322,0.0117423,0.0119793,-0.000804908,0.0126744,0.0110472,-0.85848,0.00796282,0.0132482,587,1149,-15.1585,-1.42322
-630,-125,-15.1513,1.56335,0.00597291,0.00687555,-0.000740805,0.00729169,0.00555677,-1.05899,0.00439839,0.0149983,594,1149,-15.1513,-1.56341
-623,-125,-15.1705,1.72888,0.00168701,0.00292082,-0.00106747,0.00353683,0.00107101,-1.04741,0.00209425,0.0132689,601,1149,-15.1705,-1.72886
-616,-125,-15.1762,1.87366,-0.000425886,0.000631344,-0.00232802,0.00249001,-0.00228455,-0.897038,0.00275744,0.0126669,608,1149,-15.1762,-1.8736
-609,-125,-15.2295,1.99292,-0.00144319,-7.89652e-05,-0.00335417,0.00266174,-0.0041839,-0.885712,0.00398477,0.0170727,615,1149,-15.2295,-1.99286
-602,-125,-15.2841,2.19385,-0.00205338,-0.00055721,-0.00414363,0.00290532,-0.00551591,-0.874705,0.00493926,0.0156584,622,1149,-15.2841,-2.19379
-595,-125,-15.2745,2.36646,-0.00244665,-0.000912273,-0.00461247,0.00299638,-0.0063553,-0.867808,0.00551407,0.0147748,629,1149,-15.2745,-2.36642
-588,-125,-15.0662,2.58057,-0.0025282,-0.00104894,-0.00489893,0.00316588,-0.00674303,-0.860321,0.00584385,0.0213924,636,1149,-15.0663,-2.58056
-581,-125,-14.8621,2.79272,0,0,0,0,0,0,0,-1,643,1149,-14.8621,-2.79271
-574,-125,-16.7318,0.755371,0,0,0,0,0,0,0,-1,650,1149,-16.7317,-0.75535
-567,-125,-16.7645,0.834961,-0.00221356,-0.00090498,-0.00451052,0.00299846,-0.006117,-0.857425,0.00536449,0.0373459,657,1149,-16.7645,-0.834912
-560,-125,-16.777,0.886108,-0.00189763,-0.000717727,-0.003964,0.00269999,-0.00531534,-0.859269,0.00470905,0.0347205,664,1149,-16.777,-0.886125
-553,-125,-16.7353,0.76123,-0.00153215,-0.000472861,-0.00302076,0.00206434,-0.00406934,-0.872183,0.00360379,0.0372436,671,1149,-16.7353,-0.761234
-546,-125,-16.6968,0.783325,-0.00127054,-0.000207646,-0.0015533,0.000902606,-0.00238079,-0.950226,0.00195866,0.0423059,678,1149,-16.6968,-0.783386
-539,-125,-16.706,0.719238,-0.00123049,2.61935e-05,0.000652424,0.000303649,-0.00150795,1.1687,0.00112032,0.045362,685,1149,-16.706,-0.719194
-532,-125,-16.592,0.718628,-0.00152499,0.000129413,0.00353799,0.00293562,-0.0043312,0.900238,0.00422121,0.042289,692,1149,-16.592,-0.718686
-525,-125,-16.7024,0.846924,-0.00507575,-0.00045325,0.00491812,0.00266963,-0.00819863,1.00506,0.00653985,0.0397844,699,1149,-16.7024,-0.846886
-518,-125,0,0,0,0,0,0,0,0,0,-1,706,1149,0,0
-511,-125,0,0,0,0,0,0,0,0,0,-1,713,1149,0,0
-504,-125,0,0,0,0,0,0,0,0,0,-1,720,1149,0,0
-497,-125,0,0,0,0,0,0,0,0,0,-1,727,1149,0,0
-490,-125,0,0,0,0,0,0,0,0,0,-1,734,1149,0,0
-483,-125,0,0,0,0,0,0,0,0,0,-1,741,1149,0,0
-476,-125,0,0,0,0,0,0,0,0,0,-1,748,1149,0,0
-469,-125,0,0,0,0,0,0,0,0,0,-1,755,1149,0,0
-462,-125,0,0,0,0,0,0,0,0,0,-1,762,1149,0,0
-455,-125,0,0,0,0,0,0,0,0,0,-1,769,1149,0,0
-448,-125,0,0,0,0,0,0,0,0,0,-1,776,1149,0,0
-441,-125,0,0,0,0,0,0,0,0,0,-1,783,1149,0,0
-434,-125,0,0,0,0,0,0,0,0,0,-1,790,1149,0,0
-427,-125,0,0,0,0,0,0,0,0,0,-1,797,1149,0,0
-420,-125,0,0,0,0,0,0,0,0,0,-1,804,1149,0,0
-413,-125,0,0,0,0,0,0,0,0,0,-1,811,1149,0,0
-406,-125,0,0,0,0,0,0,0,0,0,-1,818,1149,0,0
-399,-125,0,0,0,0,0,0,0,0,0,-1,825,1149,0,0
-392,-125,0,0,0,0,0,0,0,0,0,-1,832,1149,0,0
-385,-125,0,0,0,0,0,0,0,0,0,-1,839,1149,0,0
-378,-125,0,0,0,0,0,0,0,0,0,-1,846,1149,0,0
-371,-125,0,0,0,0,0,0,0,0,0,-1,853,1149,0,0
-364,-125,0,0,0,0,0,0,0,0,0,-1,860,1149,0,0
-357,-125,0,0,0,0,0,0,0,0,0,-1,867,1149,0,0
-350,-125,0,0,0,0,0,0,0,0,0,-1,874,1149,0,0
-343,-125,0,0,0,0,0,0,0,0,0,-1,881,1149,0,0
-336,-125,0,0,0,0,0,0,0,0,0,-1,888,1149,0,0
-329,-125,0,0,0,0,0,0,0,0,0,-1,895,1149,0,0
-322,-125,0,0,0,0,0,0,0,0,0,-1,902,1149,0,0
-315,-125,0,0,0,0,0,0,0,0,0,-1,909,1149,0,0
-308,-125,0,0,0,0,0,0,0,0,0,-1,916,1149,0,0
-301,-125,0,0,0,0,0,0,0,0,0,-1,923,1149,0,0
-294,-125,0,0,0,0,0,0,0,0,0,-1,930,1149,0,0
-287,-125,0,0,0,0,0,0,0,0,0,-1,937,1149,0,0
-280,-125,0,0,0,0,0,0,0,0,0,-1,944,1149,0,0
-273,-125,0,0,0,0,0,0,0,0,0,-1,951,1149,0,0
-266,-125,0,0,0,0,0,0,0,0,0,-1,958,1149,0,0
-259,-125,0,0,0,0,0,0,0,0,0,-1,965,1149,0,0
-252,-125,0,0,0,0,0,0,0,0,0,-1,972,1149,0,0
-245,-125,0,0,0,0,0,0,0,0,0,-1,979,1149,0,0
-238,-125,0,0,0,0,0,0,0,0,0,-1,986,1149,0,0
-231,-125,0,0,0,0,0,0,0,0,0,-1,993,1149,0,0
-224,-125,0,0,0,0,0,0,0,0,0,-1,1000,1149,0,0
-217,-125,0,0,0,0,0,0,0,0,0,-1,1007,1149,0,0
-210,-125,0,0,0,0,0,0,0,0,0,-1,1014,1149,0,0
-203,-125,0,0,0,0,0,0,0,0,0,-1,1021,1149,0,0
-196,-125,0,0,0,0,0,0,0,0,0,-1,1028,1149,0,0
-189,-125,0,0,0,0,0,0,0,0,0,-1,1035,1149,0,0
-182,-125,0,0,0,0,0,0,0,0,0,-1,1042,1149,0,0
-175,-125,0,0,0,0,0,0,0,0,0,-1,1049,1149,0,0
-168,-125,0,0,0,0,0,0,0,0,0,-1,1056,1149,0,0
-161,-125,0,0,0,0,0,0,0,0,0,-1,1063,1149,0,0
-154,-125,0,0,0,0,0,0,0,0,0,-1,1070,1149,0,0
-147,-125,0,0,0,0,0,0,0,0,0,-1,1077,1149,0,0
-140,-125,0,0,0,0,0,0,0,0,0,-1,1084,1149,0,0
-133,-125,0,0,0,0,0,0,0,0,0,-1,1091,1149,0,0
-126,-125,0,0,0,0,0,0,0,0,0,-1,1098,1149,0,0
-119,-125,0,0,0,0,0,0,0,0,0,-1,1105,1149,0,0
-112,-125,0,0,0,0,0,0,0,0,0,-1,1112,1149,0,0
-105,-125,0,0,0,0,0,0,0,0,0,-1,1119,1149,0,0
-98,-125,0,0,0,0,0,0,0,0,0,-1,1126,1149,0,0
-91,-125,0,0,0,0,0,0,0,0,0,-1,1133,1149,0,0
-84,-125,0,0,0,0,0,0,0,0,0,-1,1140,1149,0,0
-77,-125,0,0,0,0,0,0,0,0,0,-1,1147,1149,0,0
-70,-125,0,0,0,0,0,0,0,0,0,-1,1154,1149,0,0
-63,-125,0,0,0,0,0,0,0,0,0,-1,1161,1149,0,0
-56,-125,0,0,0,0,0,0,0,0,0,-1,1168,1149,0,0
-49,-125,0,0,0,0,0,0,0,0,0,-1,1175,1149,0,0
-42,-125,0,0,0,0,0,0,0,0,0,-1,1182,1149,0,0
-35,-125,0,0,0,0,0,0,0,0,0,-1,1189,1149,0,0
-28,-125,0,0,0,0,0,0,0,0,0,-1,1196,1149,0,0
-21,-125,0,0,0,0,0,0,0,0,0,-1,1203,1149,0,0
-14,-125,0,0,0,0,0,0,0,0,0,-1,1210,1149,0,0
-7,-125,0,0,0,0,0,0,0,0,0,-1,1217,1149,0,0
0,-125,0,0,0,0,0,0,0,0,0,-1,1224,1149,0,0
7,-125,0,0,0,0,0,0,0,0,0,-1,1231,1149,0,0
14,-125,0,0,0,0,0,0,0,0,0,-1,1238,1149,0,0
21,-125,0,0,0,0,0,0,0,0,0,-1,1245,1149,0,0
28,-125,0,0,0,0,0,0,0,0,0,-1,1252,1149,0,0
35,-125,0,0,0,0,0,0,0,0,0,-1,1259,1149,0,0
42,-125,0,0,0,0,0,0,0,0,0,-1,1266,1149,0,0
49,-125,0,0,0,0,0,0,0,0,0,-1,1273,1149,0,0
56,-125,0,0,0,0,0,0,0,0,0,-1,1280,1149,0,0
63,-125,0,0,0,0,0,0,0,0,0,-1,1287,1149,0,0
70,-125,0,0,0,0,0,0,0,0,0,-1,1294,1149,0,0
77,-125,0,0,0,0,0,0,0,0,0,-1,1301,1149,0,0
84,-125,0,0,0,0,0,0,0,0,0,-1,1308,1149,0,0
91,-125,0,0,0,0,0,0,0,0,0,-1,1315,1149,0,0
98,-125,0,0,0,0,0,0,0,0,0,-1,1322,1149,0,0
105,-125,0,0,0,0,0,0,0,0,0,-1,1329,1149,0,0
112,-125,0,0,0,0,0,0,0,0,0,-1,1336,1149,0,0
119,-125,0,0,0,0,0,0,0,0,0,-1,1343,1149,0,0
126,-125,0,0,0,0,0,0,0,0,0,-1,1350,1149,0,0
133,-125,0,0,0,0,0,0,0,0,0,-1,1357,1149,0,0
140,-125,0,0,0,0,0,0,0,0,0,-1,1364,1149,0,0
147,-125,0,0,0,0,0,0,0,0,0,-1,1371,1149,0,0
154,-125,0,0,0,0,0,0,0,0,0,-1,1378,1149,0,0
161,-125,0,0,0,0,0,0,0,0,0,-1,1385,1149,0,0
168,-125,0,0,0,0,0,0,0,0,0,-1,1392,1149,0,0
175,-125,0,0,0,0,0,0,0,0,0,-1,1399,1149,0,0
182,-125,0,0,0,0,0,0,0,0,0,-1,1406,1149,0,0
189,-125,0,0,0,0,0,0,0,0,0,-1,1413,1149,0,0
196,-125,0,0,0,0,0,0,0,0,0,-1,1420,1149,0,0
203,-125,0,0,0,0,0,0,0,0,0,-1,1427,1149,0,0
210,-125,0,0,0,0,0,0,0,0,0,-1,1434,1149,0,0
217,-125,0,0,0,0,0,0,0,0,0,-1,1441,1149,0,0
224,-125,0,0,0,0,0,0,0,0,0,-1,1448,1149,0,0
231,-125,0,0,0,0,0,0,0,0,0,-1,1455,1149,0,0
238,-125,0,0,0,0,0,0,0,0,0,-1,1462,1149,0,0
245,-125,0,0,0,0,0,0,0,0,0,-1,1469,1149,0,0
252,-125,0,0,0,0,0,0,0,0,0,-1,1476,1149,0,0
259,-125,0,0,0,0,0,0,0,0,0,-1,1483,1149,0,0
266,-125,0,0,0,0,0,0,0,0,0,-1,1490,1149,0,0
273,-125,0,0,0,0,0,0,0,0,0,-1,1497,1149,0,0
280,-125,0,0,0,0,0,0,0,0,0,-1,1504,1149,0,0
287,-125,0,0,0,0,0,0,0,0,0,-1,1511,1149,0,0
294,-125,0,0,0,0,0,0,0,0,0,-1,1518,1149,0,0
301,-125,0,0,0,0,0,0,0,0,0,-1,1525,1149,0,0
308,-125,0,0,0,0,0,0,0,0,0,-1,1532,1149,0,0
315,-125,0,0,0,0,0,0,0,0,0,-1,1539,1149,0,0
322,-125,0,0,0,0,0,0,0,0,0,-1,1546,1149,0,0
329,-125,0,0,0,0,0,0,0,0,0,-1,1553,1149,0,0
336,-125,0,0,0,0,0,0,0,0,0,-1,1560,1149,0,0
343,-125,0,0,0,0,0,0,0,0,0,-1,1567,1149,0,0
350,-125,0,0,0,0,0,0,0,0,0,-1,1574,1149,0,0
357,-125,0,0,0,0,0,0,0,0,0,-1,1581,1149,0,0
364,-125,0,0,0,0,0,0,0,0,0,-1,1588,1149,0,0
371,-125,0,0,0,0,0,0,0,0,0,-1,1595,1149,0,0
378,-125,0,0,0,0,0,0,0,0,0,-1,1602,1149,0,0
385,-125,0,0,0,0,0,0,0,0,0,-1,1609,1149,0,0
392,-125,0,0,0,0,0,0,0,0,0,-1,1616,1149,0,0
399,-125,0,0,0,0,0,0,0,0,0,-1,1623,1149,0,0
406,-125,0,0,0,0,0,0,0,0,0,-1,1630,1149,0,0
413,-125,0,0,0,0,0,0,0,0,0,-1,1637,1149,0,0
420,-125,0,0,0,0,0,0,0,0,0,-1,1644,1149,0,0
427,-125,0,0,0,0,0,0,0,0,0,-1,1651,1149,0,0
434,-125,0,0,0,0,0,0,0,0,0,-1,1658,1149,0,0
441,-125,0,0,0,0,0,0,0,0,0,-1,1665,1149,0,0
448,-125,0,0,0,0,0,0,0,0,0,-1,1672,1149,0,0
455,-125,0,0,0,0,0,0,0,0,0,-1,1679,1149,0,0
462,-125,0,0,0,0,0,0,0,0,0,-1,1686,1149,0,0
469,-125,0,0,0,0,0,0,0,0,0,-1,1693,1149,0,0
476,-125,0,0,0,0,0,0,0,0,0,-1,1700,1149,0,0
483,-125,0,0,0,0,0,0,0,0,0,-1,1707,1149,0,0
490,-125,0,0,0,0,0,0,0,0,0,-1,1714,1149,0,0
497,-125,0,0,0,0,0,0,0,0,0,-1,1721,1149,0,0
504,-125,0,0,0,0,0,0,0,0,0,-1,1728,1149,0,0
511,-125,0,0,0,0,0,0,0,0,0,-1,1735,1149,0,0
518,-125,0,0,0,0,0,0,0,0,0,-1,1742,1149,0,0
525,-125,0,0,0,0,0,0,0,0,0,-1,1749,1149,0,0
532,-125,0,0,0,0,0,0,0,0,0,-1,1756,1149,0,0
539,-125,0,0,0,0,0,0,0,0,0,-1,1763,1149,0,0
546,-125,0,0,0,0,0,0,0,0,0,-1,1770,1149,0,0
553,-125,0,0,0,0,0,0,0,0,0,-1,1777,1149,0,0
560,-125,0,0,0,0,0,0,0,0,0,-1,1784,1149,0,0
567,-125,0,0,0,0,0,0,0,0,0,-1,1791,1149,0,0
574,-125,0,0,0,0,0,0,0,0,0,-1,1798,1149,0,0
581,-125,0,0,0,0,0,0,0,0,0,-1,1805,1149,0,0
588,-125,0,0,0,0,0,0,0,0,0,-1,1812,1149,0,0
595,-125,0,0,0,0,0,0,0,0,0,-1,1819,1149,0,0
602,-125,0,0,0,0,0,0,0,0,0,-1,1826,1149,0,0
609,-125,0,0,0,0,0,0,0,0,0,-1,1833,1149,0,0
616,-125,0,0,0,0,0,0,0,0,0,-1,1840,1149,0,0
623,-125,0,0,0,0,0,0,0,0,0,-1,1847,1149,0,0
630,-125,0,0,0,0,0,0,0,0,0,-1,1854,1149,0,0
637,-125,0,0,0,0,0,0,0,0,0,-1,1861,1149,0,0
644,-125,24.7222,2.23621,0.00397479,-0.00231812,0.00990266,0.0112189,-0.00956218,0.631573,0.0120106,0.0406181,1868,1149,24.7221,-2.23623
651,-125,24.675,2.26697,0.00238064,-0.00148488,0.00787122,0.00855293,-0.00765716,0.665006,0.00936366,0.0394883,1875,1149,24.675,-2.267
658,-125,24.7086,2.83801,0.00165455,-0.000905059,0.0057487,0.00626418,-0.00551469,0.675872,0.00680512,0.0428772,1882,1149,24.7086,-2.83795
665,-125,24.6621,3.11243,0.000207093,-0.000799346,0.00454115,0.00427282,-0.00486507,0.730217,0.00527946,0.0445787,1889,1149,24.6621,-3.11243
672,-125,24.6862,3.13171,-0.00182535,-0.00103107,0.00429338,0.00288349,-0.00573992,0.831517,0.00506896,0.0449923,1896,1149,24.6861,-3.13168
679,-125,24.6783,3.16626,-0.00373093,-0.00142483,0.00443143,0.0020011,-0.00715686,0.912675,0.00555964,0.0395036,1903,1149,24.6783,-3.16631
686,-125,24.6378,2.97363,-0.00529048,-0.00184496,0.00473255,0.00146864,-0.00860408,0.959954,0.00628308,0.0353533,1910,1149,24.6379,-2.97358
693,-125,24.6084,2.76929,-0.0064665,-0.00211597,0.00506196,0.00121833,-0.0098008,0.988332,0.00697553,0.0309727,1917,1149,24.6084,-2.76928
700,-125,24.74,2.82581,-0.00738757,-0.00236108,0.00529277,0.000984841,-0.0107335,1.00706,0.00750551,0.0151284,1924,1149,24.7399,-2.8258
707,-125,24.4836,3.93945,0,0,0,0,0,0,0,-1,1931,1149,24.4837,-3.93949
714,-125,23.672,4.45044,-0.00842979,-0.00262275,0.00534661,0.000557859,-0.0116104,1.03415,0.00793276,0.0454519,1938,1149,23.672,-4.4505
721,-125,23.0481,4.82898,-0.00832874,-0.00248739,0.00542868,0.000756419,-0.0115726,1.03219,0.00797913,0.020308,1945,1149,23.0482,-4.82897
728,-125,23.0765,4.6897,-0.00793142,-0.00219113,0.00529411,0.000960799,-0.0110833,1.03379,0.00772909,0.0150499,1952,1149,23.0765,-4.68966
735,-125,23.0896,4.5675,-0.00723494,-0.00168957,0.00496144,0.00122137,-0.0101459,1.0402,0.00720563,0.0174955,1959,1149,23.0896,-4.56746
742,-125,23.1412,4.41248,-0.0065368,-0.00085992,0.00454741,0.00166221,-0.00905893,1.06441,0.00666283,0.0214831,1966,1149,23.1413,-4.41249
749,-125,23.1362,4.30334,-0.00559398,0.000122536,0.00393308,0.00212625,-0.0075977,1.09962,0.00590294,0.023339,1973,1149,23.1362,-4.3033
756,-125,23.1039,4.19751,-0.0045143,0.00146546,0.00310689,0.00278744,-0.00583628,1.1685,0.00508157,0.0199161,1980,1149,23.1039,-4.19749
763,-125,23.0763,4.06213,-0.00359273,0.00292758,0.00246438,0.00375421,-0.00441935,1.24716,0.00472421,0.0117332,1987,1149,23.0762,-4.06215
770,-125,23.0651,3.92151,-0.00375033,0.00433303,0.00255662,0.00507376,-0.00449107,1.28879,0.00552567,0.0134772,1994,1149,23.065,-3.9215
777,-125,23.0162,3.78687,-0.00519115,0.00577421,0.00350737,0.00680009,-0.00621703,1.28624,0.00751795,0.0245315,2001,1149,23.0162,-3.78686
784,-125,22.9248,3.64551,-0.00742554,0.00735183,0.00495491,0.00885943,-0.00893314,1.27543,0.0102726,0.0446023,2008,1149,22.9248,-3.64555
791,-125,22.8555,3.51477,0,0,0,0,0,0,0,-1,2015,1149,22.8555,-3.51474
798,-125,23.1649,4.34399,0,0,0,0,0,0,0,-1,2022,1149,23.1649,-4.34403
805,-125,23.6433,2.99487,0,0,0,0,0,0,0,-1,2029,1149,23.6432,-2.99492
812,-125,24.0825,3.47314,0,0,0,0,0,0,0,-1,2036,1149,24.0825,-3.47314
-700,-132,0,0,0,0,0,0,0,0,0,-1,524,1156,0,0
-693,-132,-20.5292,-2.25134,0,0,0,0,0,0,0,-1,531,1156,-20.5292,2.25139
-686,-132,-19.4816,-2.7998,0,0,0,0,0,0,0,-1,538,1156,-19.4816,2.79976
-679,-132,-18.1989,-3.34216,0,0,0,0,0,0,0,-1,545,1156,-18.1989,3.3421
-672,-132,-13.9946,1.31116,0,0,0,0,0,0,0,-1,552,1156,-13.9946,-1.31111
-665,-132,-14.8335,-3.52039,0,0,0,0,0,0,0,-1,559,1156,-14.8335,3.5204
-658,-132,-16.2134,0.0444336,0,0,0,0,0,0,0,-1,566,1156,-16.2134,-0.0444801
-651,-132,-15.6318,0.635376,0.0189401,0.0272576,-0.00236176,0.0278815,0.0183163,-1.31255,0.0163595,0.038773,573,1156,-15.6319,-0.635377
-644,-132,-15.0009,1.28735,0.0133008,0.0198195,-0.00165582,0.020216,0.0129043,-1.33578,0.0118196,0.0213082,580,1156,-15.0009,-1.28734
-637,-132,-14.9851,1.39014,0.00870587,0.0136619,-0.00132454,0.0139937,0.00837409,-1.32536,0.00813128,0.0113559,587,1156,-14.9851,-1.39011
-630,-132,-14.9871,1.53735,0.0041298,0.00814193,-0.000954202,0.0083573,0.00391442,-1.3488,0.0048283,0.0101022,594,1156,-14.9871,-1.53738
-623,-132,-15.0235,1.7384,0.000802268,0.00371488,-0.00109574,0.00408107,0.000436086,-1.24828,0.00258763,0.0153012,601,1156,-15.0235,-1.73835
-616,-132,-15.0064,1.88684,-0.000755993,0.00103565,-0.0021592,0.00247748,-0.00219783,-0.982034,0.0027009,0.0195723,608,1156,-15.0064,-1.88681
-609,-132,-14.96,2.0238,-0.00160696,2.1804e-06,-0.00311209,0.00241202,-0.0040168,-0.911893,0.00375003,0.015511,615,1156,-14.96,-2.02378
-602,-132,-15.0676,2.16785,-0.00215799,-0.000610369,-0.0038314,0.00252458,-0.00529294,-0.885041,0.00460682,0.0144213,622,1156,-15.0676,-2.16789
-595,-132,-15.0822,2.37048,-0.00257727,-0.00102082,-0.00427007,0.00254136,-0.00613945,-0.875534,0.00515338,0.01762,629,1156,-15.0821,-2.37054
-588,-132,-14.9398,2.62378,-0.00269676,-0.00117405,-0.00453732,0.00266535,-0.00653616,-0.868523,0.00546694,0.0170036,636,1156,-14.9398,-2.62372
-581,-132,-15.5217,2.39282,-0.00265556,-0.00124344,-0.00451873,0.00262406,-0.00652306,-0.862898,0.00543867,0.0481123,643,1156,-15.5216,-2.39284
-574,-132,-16.6204,0.693481,0,0,0,0,0,0,0,-1,650,1156,-16.6204,-0.693492
-567,-132,-16.723,0.777222,-0.00238629,-0.00111973,-0.00420167,0.00249612,-0.00600214,-0.860196,0.00504373,0.036387,657,1156,-16.723,-0.777179
-560,-132,-16.7938,0.801758,-0.00209454,-0.000960591,-0.00373649,0.00225169,-0.00530683,-0.860694,0.00448116,0.0340281,664,1156,-16.7938,-0.80178
-553,-132,-16.7611,0.611572,-0.00171173,-0.000732307,-0.00291974,0.00173851,-0.00418254,-0.868487,0.00351426,0.038866,671,1156,-16.7611,-0.611618
-546,-132,-16.665,0.656494,-0.00136895,-0.000461642,-0.00163797,0.000784337,-0.00261493,-0.920492,0.00205524,0.0452719,678,1156,-16.6649,-0.656548
-539,-132,-16.4093,0.661255,-0.0012178,-0.000176324,0.000304723,-9.37184e-05,-0.00130041,1.30607,0.00083745,0.0450261,685,1156,-16.4093,-0.661271
-532,-132,-16.6073,0.785034,-0.0012423,7.3561e-05,0.00296209,0.00244992,-0.00361865,0.894682,0.00352528,0.0399483,692,1156,-16.6073,-0.785004
-525,-132,-16.7235,0.889893,-0.00415225,-0.000314188,0.0043857,0.00255396,-0.0070204,0.991631,0.00572474,0.0389756,699,1156,-16.7235,-0.889877
-518,-132,0,0,0,0,0,0,0,0,0,-1,706,1156,0,0
-511,-132,0,0,0,0,0,0,0,0,0,-1,713,1156,0,0
-504,-132,0,0,0,0,0,0,0,0,0,-1,720,1156,0,0
-497,-132,0,0,0,0,0,0,0,0,0,-1,727,1156,0,0
-490,-132,0,0,0,0,0,0,0,0,0,-1,734,1156,0,0
-483,-132,0,0,0,0,0,0,0,0,0,-1,741,1156,0,0
-476,-132,0,0,0,0,0,0,0,0,0,-1,748,1156,0,0
-469,-132,0,0,0,0,0,0,0,0,0,-1,755,1156,0,0
-462,-132,0,0,0,0,0,0,0,0,0,-1,762,1156,0,0
-455,-132,0,0,0,0,0,0,0,0,0,-1,769,1156,0,0
-448,-132,0,0,0,0,0,0,0,0,0,-1,776,1156,0,0
-441,-132,0,0,0,0,0,0,0,0,0,-1,783,1156,0,0
-434,-132,0,0,0,0,0,0,0,0,0,-1,790,1156,0,0
-427,-132,0,0,0,0,0,0,0,0,0,-1,797,1156,0,0
-420,-132,0,0,0,0,0,0,0,0,0,-1,804,1156,0,0
-413,-132,0,0,0,0,0,0,0,0,0,-1,811,1156,0,0
-406,-132,0,0,0,0,0,0,0,0,0,-1,818,1156,0,0
-399,-132,0,0,0,0,0,0,0,0,0,-1,825,1156,0,0
-392,-132,0,0,0,0,0,0,0,0,0,-1,832,1156,0,0
-385,-132,0,0,0,0,0,0,0,0,0,-1,839,1156,0,0
-378,-132,0,0,0,0,0,0,0,0,0,-1,846,1156,0,0
-371,-132,0,0,0,0,0,0,0,0,0,-1,853,1156,0,0
-364,-132,0,0,0,0,0,0,0,0,0,-1,860,1156,0,0
-357,-132,0,0,0,0,0,0,0,0,0,-1,867,1156,0,0
-350,-132,0,0,0,0,0,0,0,0,0,-1,874,1156,0,0
-343,-132,0,0,0,0,0,0,0,0,0,-1,881,1156,0,0
-336,-132,0,0,0,0,0,0,0,0,0,-1,888,1156,0,0
-329,-132,0,0,0,0,0,0,0,0,0,-1,895,1156,0,0
-322,-132,0,0,0,0,0,0,0,0,0,-1,902,1156,0,0
-315,-132,0,0,0,0,0,0,0,0,0,-1,909,1156,0,0
-308,-132,0,0,0,0,0,0,0,0,0,-1,916,1156,0,0
-301,-132,0,0,0,0,0,0,0,0,0,-1,923,1156,0,0
-294,-132,0,0,0,0,0,0,0,0,0,-1,930,1156,0,0
-287,-132,0,0,0,0,0,0,0,0,0,-1,937,1156,0,0
-280,-132,0,0,0,0,0,0,0,0,0,-1,944,1156,0,0
-273,-132,0,0,0,0,0,0,0,0,0,-1,951,1156,0,0
-266,-132,0,0,0,0,0,0,0,0,0,-1,958,1156,0,0
-259,-132,0,0,0,0,0,0,0,0,0,-1,965,1156,0,0
-252,-132,0,0,0,0,0,0,0,0,0,-1,972,1156,0,0
-245,-132,0,0,0,0,0,0,0,0,0,-1,979,1156,0,0
-238,-132,0,0,0,0,0,0,0,0,0,-1,986,1156,0,0
-231,-132,0,0,0,0,0,0,0,0,0,-1,993,1156,0,0
-224,-132,0,0,0,0,0,0,0,0,0,-1,1000,1156,0,0
-217,-132,0,0,0,0,0,0,0,0,0,-1,1007,1156,0,0
-210,-132,0,0,0,0,0,0,0,0,0,-1,1014,1156,0,0
-203,-132,0,0,0,0,0,0,0,0,0,-1,1021,1156,0,0
-196,-132,0,0,0,0,0,0,0,0,0,-1,1028,1156,0,0
-189,-132,0,0,0,0,0,0,0,0,0,-1,1035,1156,0,0
-182,-132,0,0,0,0,0,0,0,0,0,-1,1042,1156,0,0
-175,-132,0,0,0,0,0,0,0,0,0,-1,1049,1156,0,0
-168,-132,0,0,0,0,0,0,0,0,0,-1,1056,1156,0,0
-161,-132,0,0,0,0,0,0,0,0,0,-1,1063,1156,0,0
-154,-132,0,0,0,0,0,0,0,0,0,-1,1070,1156,0,0
-147,-132,0,0,0,0,0,0,0,0,0,-1,1077,1156,0,0
-140,-132,0,0,0,0,0,0,0,0,0,-1,1084,1156,0,0
-133,-132,0,0,0,0,0,0,0,0,0,-1,1091,1156,0,0
-126,-132,0,0,0,0,0,0,0,0,0,-1,1098,1156,0,0
-119,-132,0,0,0,0,0,0,0,0,0,-1,1105,1156,0,0
-112,-132,0,0,0,0,0,0,0,0,0,-1,1112,1156,0,0
-105,-132,0,0,0,0,0,0,0,0,0,-1,1119,1156,0,0
-98,-132,0,0,0,0,0,0,0,0,0,-1,1126,1156,0,0
-91,-132,0,0,0,0,0,0,0,0,0,-1,1133,1156,0,0
-84,-132,0,0,0,0,0,0,0,0,0,-1,1140,1156,0,0
-77,-132,0,0,0,0,0,0,0,0,0,-1,1147,1156,0,0
-70,-132,0,0,0,0,0,0,0,0,0,-1,1154,1156,0,0
-63,-132,0,0,0,0,0,0,0,0,0,-1,1161,1156,0,0
-56,-132,0,0,0,0,0,0,0,0,0,-1,1168,1156,0,0
-49,-132,0,0,0,0,0,0,0,0,0,-1,1175,1156,0,0
-42,-132,0,0,0,0,0,0,0,0,0,-1,1182,1156,0,0
-35,-132,0,0,0,0,0,0,0,0,0,-1,1189,1156,0,0
-28,-132,0,0,0,0,0,0,0,0,0,-1,1196,1156,0,0
-21,-132,0,0,0,0,0,0,0,0,0,-1,1203,1156,0,0
-14,-132,0,0,0,0,0,0,0,0,0,-1,1210,1156,0,0
-7,-132,0,0,0,0,0,0,0,0,0,-1,1217,1156,0,0
0,-132,0,0,0,0,0,0,0,0,0,-1,1224,1156,0,0
7,-132,0,0,0,0,0,0,0,0,0,-1,1231,1156,0,0
14,-132,0,0,0,0,0,0,0,0,0,-1,1238,1156,0,0
21,-132,0,0,0,0,0,0,0,0,0,-1,1245,1156,0,0
28,-132,0,0,0,0,0,0,0,0,0,-1,1252,1156,0,0
35,-132,0,0,0,0,0,0,0,0,0,-1,1259,1156,0,0
42,-132,0,0,0,0,0,0,0,0,0,-1,1266,1156,0,0
49,-132,0,0,0,0,0,0,0,0,0,-1,1273,1156,0,0
56,-132,0,0,0,0,0,0,0,0,0,-1,1280,1156,0,0
63,-132,0,0,0,0,0,0,0,0,0,-1,1287,1156,0,0
70,-132,0,0,0,0,0,0,0,0,0,-1,1294,1156,0,0
77,-132,0,0,0,0,0,0,0,0,0,-1,1301,1156,0,0
84,-132,0,0,0,0,0,0,0,0,0,-1,1308,1156,0,0
91,-132,0,0,0,0,0,0,0,0,0,-1,1315,1156,0,0
98,-132,0,0,0,0,0,0,0,0,0,-1,1322,1156,0,0
105,-132,0,0,0,0,0,0,0,0,0,-1,1329,1156,0,0
112,-132,0,0,0,0,0,0,0,0,0,-1,1336,1156,0,0
119,-132,0,0,0,0,0,0,0,0,0,-1,1343,1156,0,0
126,-132,0,0,0,0,0,0,0,0,0,-1,1350,1156,0,0
133,-132,0,0,0,0,0,0,0,0,0,-1,1357,1156,0,0
140,-132,0,0,0,0,0,0,0,0,0,-1,1364,1156,0,0
147,-132,0,0,0,0,0,0,0,0,0,-1,1371,1156,0,0
154,-132,0,0,0,0,0,0,0,0,0,-1,1378,1156,0,0
161,-132,0,0,0,0,0,0,0,0,0,-1,1385,1156,0,0
168,-132,0,0,0,0,0,0,0,0,0,-1,1392,1156,0,0
175,-132,0,0,0,0,0,0,0,0,0,-1,1399,1156,0,0
182,-132,0,0,0,0,0,0,0,0,0,-1,1406,1156,0,0
189,-132,0,0,0,0,0,0,0,0,0,-1,1413,1156,0,0
196,-132,0,0,0,0,0,0,0,0,0,-1,1420,1156,0,0
203,-132,0,0,0,0,0,0,0,0,0,-1,1427,1156,0,0
210,-132,0,0,0,0,0,0,0,0,0,-1,1434,1156,0,0
217,-132,0,0,0,0,0,0,0,0,0,-1,1441,1156,0,0
224,-132,0,0,0,0,0,0,0,0,0,-1,1448,1156,0,0
231,-132,0,0,0,0,0,0,0,0,0,-1,1455,1156,0,0
238,-132,0,0,0,0,0,0,0,0,0,-1,1462,1156,0,0
245,-132,0,0,0,0,0,0,0,0,0,-1,1469,1156,0,0
252,-132,0,0,0,0,0,0,0,0,0,-1,1476,1156,0,0
259,-132,0,0,0,0,0,0,0,0,0,-1,1483,1156,0,0
266,-132,0,0,0,0,0,0,0,0,0,-1,1490,1156,0,0
273,-132,0,0,0,0,0,0,0,0,0,-1,1497,1156,0,0
280,-132,0,0,0,0,0,0,0,0,0,-1,1504,1156,0,0
287,-132,0,0,0,0,0,0,0,0,0,-1,1511,1156,0,0
294,-132,0,0,0,0,0,0,0,0,0,-1,1518,1156,0,0
301,-132,0,0,0,0,0,0,0,0,0,-1,1525,1156,0,0
308,-132,0,0,0,0,0,0,0,0,0,-1,1532,1156,0,0
315,-132,0,0,0,0,0,0,0,0,0,-1,1539,1156,0,0
322,-132,0,0,0,0,0,0,0,0,0,-1,1546,1156,0,0
329,-132,0,0,0,0,0,0,0,0,0,-1,1553,1156,0,0
336,-132,0,0,0,0,0,0,0,0,0,-1,1560,1156,0,0
343,-132,0,0,0,0,0,0,0,0,0,-1,1567,1156,0,0
350,-132,0,0,0,0,0,0,0,0,0,-1,1574,1156,0,0
357,-132,0,0,0,0,0,0,0,0,0,-1,1581,1156,0,0
364,-132,0,0,0,0,0,0,0,0,0,-1,1588,1156,0,0
371,-132,0,0,0,0,0,0,0,0,0,-1,1595,1156,0,0
378,-132,0,0,0,0,0,0,0,0,0,-1,1602,1156,0,0
385,-132,0,0,0,0,0,0,0,0,0,-1,1609,1156,0,0
392,-132,0,0,0,0,0,0,0,0,0,-1,1616,1156,0,0
399,-132,0,0,0,0,0,0,0,0,0,-1,1623,1156,0,0
406,-132,0,0,0,0,0,0,0,0,0,-1,1630,1156,0,0
413,-132,0,0,0,0,0,0,0,0,0,-1,1637,1156,0,0
420,-132,0,0,0,0,0,0,0,0,0,-1,1644,1156,0,0
427,-132,0,0,0,0,0,0,0,0,0,-1,1651,1156,0,0
434,-132,0,0,0,0,0,0,0,0,0,-1,1658,1156,0,0
441,-132,0,0,0,0,0,0,0,0,0,-1,1665,1156,0,0
448,-132,0,0,0,0,0,0,0,0,0,-1,1672,1156,0,0
455,-132,0,0,0,0,0,0,0,0,0,-1,1679,1156,0,0
462,-132,0,0,0,0,0,0,0,0,0,-1,1686,1156,0,0
469,-132,0,0,0,0,0,0,0,0,0,-1,1693,1156,0,0
476,-132,0,0,0,0,0,0,0,0,0,-1,1700,1156,0,0
483,-132,0,0,0,0,0,0,0,0,0,-1,1707,1156,0,0
490,-132,0,0,0,0,0,0,0,0,0,-1,1714,1156,0,0
497,-132,0,0,0,0,0,0,0,0,0,-1,1721,1156,0,0
504,-132,0,0,0,0,0,0,0,0,0,-1,1728,1156,0,0
511,-132,0,0,0,0,0,0,0,0,0,-1,1735,1156,0,0
518,-132,0,0,0,0,0,0,0,0,0,-1,1742,1156,0,0
525,-132,0,0,0,0,0,0,0,0,0,-1,1749,1156,0,0
532,-132,0,0,0,0,0,0,0,0,0,-1,1756,1156,0,0
539,-132,0,0,0,0,0,0,0,0,0,-1,1763,1156,0,0
546,-132,0,0,0,0,0,0,0,0,0,-1,1770,1156,0,0
553,-132,0,0,0,0,0,0,0,0,0,-1,1777,1156,0,0
560,-132,0,0,0,0,0,0,0,0,0,-1,1784,1156,0,0
567,-132,0,0,0,0,0,0,0,0,0,-1,1791,1156,0,0
574,-132,0,0,0,0,0,0,0,0,0,-1,1798,1156,0,0
581,-132,0,0,0,0,0,0,0,0,0,-1,1805,1156,0,0
588,-132,0,0,0,0,0,0,0,0,0,-1,1812,1156,0,0
595,-132,0,0,0,0,0,0,0,0,0,-1,1819,1156,0,0
602,-132,0,0,0,0,0,0,0,0,0,-1,1826,1156,0,0
609,-132,0,0,0,0,0,0,0,0,0,-1,1833,1156,0,0
616,-132,0,0,0,0,0,0,0,0,0,-1,1840,1156,0,0
623,-132,0,0,0,0,0,0,0,0,0,-1,1847,1156,0,0
630,-132,0,0,0,0,0,0,0,0,0,-1,1854,1156,0,0
637,-132,0,0,0,0,0,0,0,0,0,-1,1861,1156,0,0
644,-132,24.7125,2.12097,0.00322281,-0.00306685,0.00925634,0.00985396,-0.00969801,0.621642,0.0112885,0.0444895,1868,1156,24.7125,-2.12102
651,-132,24.5503,2.19678,0.00195175,-0.00183655,0.00731583,0.00761466,-0.00749946,0.658724,0.00872623,0.0378146,1875,1156,24.5503,-2.19681
658,-132,24.6742,2.73767,0.00134661,-0.000922373,0.00529905,0.00563125,-0.00520701,0.679943,0.00625907,0.0378243,1882,1156,24.6742,-2.73769
665,-132,24.5649,2.98218,-8.07225e-05,-0.000594845,0.00425187,0.00392185,-0.00459741,0.755206,0.00492375,0.040742,1889,1156,24.5649,-2.98217
672,-132,24.5453,3.05505,-0.0019758,-0.000658661,0.00403324,0.00276943,-0.00540388,0.866326,0.00479988,0.0412132,1896,1156,24.5453,-3.05507
679,-132,24.6577,3.06042,-0.00375353,-0.000962189,0.00417464,0.0020439,-0.00675963,0.946718,0.00532024,0.0402546,1903,1156,24.6577,-3.06045
686,-132,24.6532,2.9364,-0.00522794,-0.00134665,0.00444437,0.0015623,-0.00813689,0.991247,0.00601339,0.0363682,1910,1156,24.6531,-2.93635
693,-132,24.6471,2.78088,-0.00633992,-0.00160052,0.00472679,0.00131732,-0.00925775,1.01776,0.00665455,0.0287848,1917,1156,24.6471,-2.7809
700,-132,24.7656,2.85437,-0.00721477,-0.00183623,0.00494619,0.0011045,-0.0101555,1.0344,0.00716693,0.0316452,1924,1156,24.7657,-2.85439
707,-132,23.8876,3.98291,0,0,0,0,0,0,0,-1,1931,1156,23.8876,-3.9829
714,-132,22.8474,4.99182,0,0,0,0,0,0,0,-1,1938,1156,22.8474,-4.9918
721,-132,22.9067,4.86023,-0.00821675,-0.0022073,0.00512237,0.000726573,-0.0111506,1.05065,0.0076874,0.0240838,1945,1156,22.9068,-4.86021
728,-132,22.9315,4.71985,-0.00779656,-0.00199638,0.00499507,0.000879447,-0.0106724,1.04841,0.00742546,0.0150206,1952,1156,22.9315,-4.71982
735,-132,22.9609,4.5824,-0.00703576,-0.00153552,0.00464088,0.00110888,-0.00968017,1.05287,0.00685304,0.017059,1959,1156,22.9609,-4.58236
742,-132,22.9739,4.41687,-0.00624677,-0.000725781,0.00418946,0.00153089,-0.00850344,1.07671,0.00624215,0.0186012,1966,1156,22.9739,-4.41689
749,-132,22.9945,4.31689,-0.00522238,0.00025104,0.00356366,0.00200757,-0.00697892,1.11284,0.00544656,0.022304,1973,1156,22.9945,-4.31688
756,-132,23.0094,4.19812,-0.00402809,0.00160477,0.00272108,0.00270453,-0.00512785,1.18671,0.0045936,0.0202227,1980,1156,23.0093,-4.19812
763,-132,22.9526,4.07019,-0.0030029,0.00306075,0.00206752,0.00369861,-0.00364076,1.27155,0.00423743,0.012982,1987,1156,22.9526,-4.07017
770,-132,22.9303,3.9425,-0.00303482,0.00445446,0.00210812,0.00500708,-0.00358745,1.31442,0.00498457,0.012925,1994,1156,22.9303,-3.94252
777,-132,22.8895,3.7887,-0.00428332,0.00588389,0.00292722,0.00666642,-0.00506585,1.30957,0.00679461,0.0213418,2001,1156,22.8896,-3.78867
784,-132,22.8059,3.61987,-0.00639567,0.00740482,0.0042888,0.00862906,-0.00761991,1.29274,0.00938737,0.0452754,2008,1156,22.8059,-3.61989
791,-132,22.73,3.45703,0,0,0,0,0,0,0,-1,2015,1156,22.7299,-3.45706
798,-132,23.6902,2.6665,0,0,0,0,0,0,0,-1,2022,1156,23.6902,-2.66656
805,-132,23.2488,3.1543,0,0,0,0,0,0,0,-1,2029,1156,23.2489,-3.15424
812,-132,22.8076,3.64197,0,0,0,0,0,0,0,-1,2036,1156,22.8075,-3.64193
-700,-139,0,0,0,0,0,0,0,0,0,-1,524,1163,0,0
-693,-139,-13.257,-2.7821,0,0,0,0,0,0,0,-1,531,1163,-13.257,2.78209
-686,-139,-14.6901,-0.179565,0,0,0,0,0,0,0,-1,538,1163,-14.6901,0.1796
-679,-139,-14.1247,0.100342,0,0,0,0,0,0,0,-1,545,1163,-14.1247,-0.100342
-672,-139,-14.0754,0.458618,0,0,0,0,0,0,0,-1,552,1163,-14.0754,-0.458638
-665,-139,-15.3421,-0.755005,0,0,0,0,0,0,0,-1,559,1163,-15.3421,0.75499
-658,-139,-15.1579,-0.203003,0,0,0,0,0,0,0,-1,566,1163,-15.1579,0.203056
-651,-139,-15.0725,0.618896,0.0120575,0.0284729,-0.00362027,0.0292359,0.0112945,-1.36309,0.0170241,0.0426526,573,1163,-15.0725,-0.618903
-644,-139,-14.8176,1.25244,0.00824942,0.0210115,-0.00262717,0.0215312,0.00772976,-1.37551,0.0125947,0.0227291,580,1163,-14.8176,-1.25239
-637,-139,-14.8061,1.38123,0.00524818,0.0147295,-0.00200292,0.0151352,0.00484243,-1.37092,0.00892519,0.0120015,587,1163,-14.8061,-1.38117
-630,-139,-14.813,1.5365,0.00198827,0.00914949,-0.00138784,0.00940904,0.00172872,-1.38591,0.00578323,0.0104548,594,1163,-14.813,-1.53646
-623,-139,-14.8466,1.74084,-0.000203925,0.00451729,-0.00128463,0.0048442,-0.000530832,-1.32161,0.00342017,0.0164397,601,1163,-14.8466,-1.7409
-616,-139,-14.8362,1.86279,-0.00110718,0.00153934,-0.00211105,0.00270757,-0.00227541,-1.06535,0.00288053,0.0175332,608,1163,-14.8363,-1.86285
-609,-139,-14.7958,2.02539,-0.00177942,0.000210198,-0.00299989,0.00237592,-0.00394515,-0.9455,0.00368677,0.0222852,615,1163,-14.7959,-2.02541
-602,-139,-14.9048,2.21912,-0.00229677,-0.000514022,-0.00367434,0.00237552,-0.00518631,-0.904396,0.00446522,0.0169974,622,1163,-14.9048,-2.21908
-595,-139,-14.9223,2.41382,-0.00275874,-0.000942019,-0.00409722,0.00234632,-0.00604708,-0.894485,0.00500048,0.0165173,629,1163,-14.9223,-2.41387
-588,-139,-14.8151,2.62207,-0.00291409,-0.00108232,-0.00435248,0.0024496,-0.00644601,-0.889099,0.00530583,0.0176996,636,1163,-14.8151,-2.62206
-581,-139,-14.9798,2.64233,-0.00286917,-0.00115497,-0.00433587,0.0024077,-0.00643184,-0.882978,0.00527685,0.0457548,643,1163,-14.9798,-2.64236
-574,-139,-16.6119,0.641357,0,0,0,0,0,0,0,-1,650,1163,-16.612,-0.641336
-567,-139,-16.7235,0.776611,-0.00256406,-0.00100792,-0.00405714,0.00234509,-0.00591707,-0.880136,0.00491651,0.0426963,657,1163,-16.7235,-0.776575
-560,-139,-16.8217,0.919189,-0.00227001,-0.000851468,-0.00363756,0.00214532,-0.0052668,-0.881683,0.00440407,0.0363632,664,1163,-16.8217,-0.919139
-553,-139,-16.7762,0.641479,-0.00184039,-0.000617028,-0.00290358,0.0017386,-0.00419602,-0.889212,0.00352291,0.0410543,671,1163,-16.7762,-0.641451
-546,-139,-16.5744,0.783936,-0.00136695,-0.000328464,-0.00174009,0.000968202,-0.00266361,-0.930392,0.00217165,0.0448021,678,1163,-16.5744,-0.783884
-539,-139,-16.5728,0.6875,-0.00102757,5.60822e-06,3.06516e-05,6.51676e-06,-0.00102847,1.54116,0.000687832,0.0413798,685,1163,-16.5728,-0.687559
-532,-139,-16.7846,0.747559,-0.000711518,0.000373182,0.00254116,0.00242922,-0.00276756,0.890534,0.00300248,0.0374959,692,1163,-16.7846,-0.747503
-525,-139,-16.8907,0.779785,-0.00274889,0.000243844,0.00417237,0.00318006,-0.00568511,0.957573,0.00518597,0.0394798,699,1163,-16.8907,-0.77981
-518,-139,0,0,0,0,0,0,0,0,0,-1,706,1163,0,0
-511,-139,0,0,0,0,0,0,0,0,0,-1,713,1163,0,0
-504,-139,0,0,0,0,0,0,0,0,0,-1,720,1163,0,0
-497,-139,0,0,0,0,0,0,0,0,0,-1,727,1163,0,0
-490,-139,0,0,0,0,0,0,0,0,0,-1,734,1163,0,0
-483,-139,0,0,0,0,0,0,0,0,0,-1,741,1163,0,0
-476,-139,0,0,0,0,0,0,0,0,0,-1,748,1163,0,0
-469,-139,0,0,0,0,0,0,0,0,0,-1,755,1163,0,0
-462,-139,0,0,0,0,0,0,0,0,0,-1,762,1163,0,0
-455,-139,0,0,0,0,0,0,0,0,0,-1,769,1163,0,0
-448,-139,0,0,0,0,0,0,0,0,0,-1,776,1163,0,0
-441,-139,0,0,0,0,0,0,0,0,0,-1,783,1163,0,0
-434,-139,0,0,0,0,0,0,0,0,0,-1,790,1163,0,0
-427,-139,0,0,0,0,0,0,0,0,0,-1,797,1163,0,0
-420,-139,0,0,0,0,0,0,0,0,0,-1,804,1163,0,0
-413,-139,0,0,0,0,0,0,0,0,0,-1,811,1163,0,0
-406,-139,0,0,0,0,0,0,0,0,0,-1,818,1163,0,0
-399,-139,0,0,0,0,0,0,0,0,0,-1,825,1163,0,0
-392,-139,0,0,0,0,0,0,0,0,0,-1,832,1163,0,0
-385,-139,0,0,0,0,0,0,0,0,0,-1,839,1163,0,0
-378,-139,0,0,0,0,0,0,0,0,0,-1,846,1163,0,0
-371,-139,0,0,0,0,0,0,0,0,0,-1,853,1163,0,0
-364,-139,0,0,0,0,0,0,0,0,0,-1,860,1163,0,0
-357,-139,0,0,0,0,0,0,0,0,0,-1,867,1163,0,0
-350,-139,0,0,0,0,0,0,0,0,0,-1,874,1163,0,0
-343,-139,0,0,0,0,0,0,0,0,0,-1,881,1163,0,0
-336,-139,0,0,0,0,0,0,0,0,0,-1,888,1163,0,0
-329,-139,0,0,0,0,0,0,0,0,0,-1,895,1163,0,0
-322,-139,0,0,0,0,0,0,0,0,0,-1,902,1163,0,0
-315,-139,0,0,0,0,0,0,0,0,0,-1,909,1163,0,0
-308,-139,0,0,0,0,0,0,0,0,0,-1,916,1163,0,0
-301,-139,0,0,0,0,0,0,0,0,0,-1,923,1163,0,0
-294,-139,0,0,0,0,0,0,0,0,0,-1,930,1163,0,0
-287,-139,0,0,0,0,0,0,0,0,0,-1,937,1163,0,0
-280,-139,0,0,0,0,0,0,0,0,0,-1,944,1163,0,0
-273,-139,0,0,0,0,0,0,0,0,0,-1,951,1163,0,0
-266,-139,0,0,0,0,0,0,0,0,0,-1,958,1163,0,0
-259,-139,0,0,0,0,0,0,0,0,0,-1,965,1163,0,0
-252,-139,0,0,0,0,0,0,0,0,0,-1,972,1163,0,0
-245,-139,0,0,0,0,0,0,0,0,0,-1,979,1163,0,0
-238,-139,0,0,0,0,0,0,0,0,0,-1,986,1163,0,0
-231,-139,0,0,0,0,0,0,0,0,0,-1,993,1163,0,0
-224,-139,0,0,0,0,0,0,0,0,0,-1,1000,1163,0,0
-217,-139,0,0,0,0,0,0,0,0,0,-1,1007,1163,0,0
-210,-139,0,0,0,0,0,0,0,0,0,-1,1014,1163,0,0
-203,-139,0,0,0,0,0,0,0,0,0,-1,1021,1163,0,0
-196,-139,0,0,0,0,0,0,0,0,0,-1,1028,1163,0,0
-189,-139,0,0,0,0,0,0,0,0,0,-1,1035,1163,0,0
-182,-139,0,0,0,0,0,0,0,0,0,-1,1042,1163,0,0
-175,-139,0,0,0,0,0,0,0,0,0,-1,1049,1163,0,0
-168,-139,0,0,0,0,0,0,0,0,0,-1,1056,1163,0,0
-161,-139,0,0,0,0,0,0,0,0,0,-1,1063,1163,0,0
-154,-139,0,0,0,0,0,0,0,0,0,-1,1070,1163,0,0
-147,-139,0,0,0,0,0,0,0,0,0,-1,1077,1163,0,0
-140,-139,0,0,0,0,0,0,0,0,0,-1,1084,1163,0,0
-133,-139,0,0,0,0,0,0,0,0,0,-1,1091,1163,0,0
-126,-139,0,0,0,0,0,0,0,0,0,-1,1098,1163,0,0
-119,-139,0,0,0,0,0,0,0,0,0,-1,1105,1163,0,0
-112,-139,0,0,0,0,0,0,0,0,0,-1,1112,1163,0,0
-105,-139,0,0,0,0,0,0,0,0,0,-1,1119,1163,0,0
-98,-139,0,0,0,0,0,0,0,0,0,-1,1126,1163,0,0
-91,-139,0,0,0,0,0,0,0,0,0,-1,1133,1163,0,0
-84,-139,0,0,0,0,0,0,0,0,0,-1,1140,1163,0,0
-77,-139,0,0,0,0,0,0,0,0,0,-1,1147,1163,0,0
-70,-139,0,0,0,0,0,0,0,0,0,-1,1154,1163,0,0
-63,-139,0,0,0,0,0,0,0,0,0,-1,1161,1163,0,0
-56,-139,0,0,0,0,0,0,0,0,0,-1,1168,1163,0,0
-49,-139,0,0,0,0,0,0,0,0,0,-1,1175,1163,0,0
-42,-139,0,0,0,0,0,0,0,0,0,-1,1182,1163,0,0
-35,-139,0,0,0,0,0,0,0,0,0,-1,1189,1163,0,0
-28,-139,0,0,0,0,0,0,0,0,0,-1,1196,1163,0,0
-21,-139,0,0,0,0,0,0,0,0,0,-1,1203,1163,0,0
-14,-139,0,0,0,0,0,0,0,0,0,-1,1210,1163,0,0
-7,-139,0,0,0,0,0,0,0,0,0,-1,1217,1163,0,0
0,-139,0,0,0,0,0,0,0,0,0,-1,1224,1163,0,0
7,-139,0,0,0,0,0,0,0,0,0,-1,1231,1163,0,0
14,-139,0,0,0,0,0,0,0,0,0,-1,1238,1163,0,0
21,-139,0,0,0,0,0,0,0,0,0,-1,1245,1163,0,0
28,-139,0,0,0,0,0,0,0,0,0,-1,1252,1163,0,0
35,-139,0,0,0,0,0,0,0,0,0,-1,1259,1163,0,0
42,-139,0,0,0,0,0,0,0,0,0,-1,1266,1163,0,0
49,-139,0,0,0,0,0,0,0,0,0,-1,1273,1163,0,0
56,-139,0,0,0,0,0,0,0,0,0,-1,1280,1163,0,0
63,-139,0,0,0,0,0,0,0,0,0,-1,1287,1163,0,0
70,-139,0,0,0,0,0,0,0,0,0,-1,1294,1163,0,0
77,-139,0,0,0,0,0,0,0,0,0,-1,1301,1163,0,0
84,-139,0,0,0,0,0,0,0,0,0,-1,1308,1163,0,0
91,-139,0,0,0,0,0,0,0,0,0,-1,1315,1163,0,0
98,-139,0,0,0,0,0,0,0,0,0,-1,1322,1163,0,0
105,-139,0,0,0,0,0,0,0,0,0,-1,1329,1163,0,0
112,-139,0,0,0,0,0,0,0,0,0,-1,1336,1163,0,0
119,-139,0,0,0,0,0,0,0,0,0,-1,1343,1163,0,0
126,-139,0,0,0,0,0,0,0,0,0,-1,1350,1163,0,0
133,-139,0,0,0,0,0,0,0,0,0,-1,1357,1163,0,0
140,-139,0,0,0,0,0,0,0,0,0,-1,1364,1163,0,0
147,-139,0,0,0,0,0,0,0,0,0,-1,1371,1163,0,0
154,-139,0,0,0,0,0,0,0,0,0,-1,1378,1163,0,0
161,-139,0,0,0,0,0,0,0,0,0,-1,1385,1163,0,0
168,-139,0,0,0,0,0,0,0,0,0,-1,1392,1163,0,0
175,-139,0,0,0,0,0,0,0,0,0,-1,1399,1163,0,0
182,-139,0,0,0,0,0,0,0,0,0,-1,1406,1163,0,0
189,-139,0,0,0,0,0,0,0,0,0,-1,1413,1163,0,0
196,-139,0,0,0,0,0,0,0,0,0,-1,1420,1163,0,0
203,-139,0,0,0,0,0,0,0,0,0,-1,1427,1163,0,0
210,-139,0,0,0,0,0,0,0,0,0,-1,1434,1163,0,0
217,-139,0,0,0,0,0,0,0,0,0,-1,1441,1163,0,0
224,-139,0,0,0,0,0,0,0,0,0,-1,1448,1163,0,0
231,-139,0,0,0,0,0,0,0,0,0,-1,1455,1163,0,0
238,-139,0,0,0,0,0,0,0,0,0,-1,1462,1163,0,0
245,-139,0,0,0,0,0,0,0,0,0,-1,1469,1163,0,0
252,-139,0,0,0,0,0,0,0,0,0,-1,1476,1163,0,0
259,-139,0,0,0,0,0,0,0,0,0,-1,1483,1163,0,0
266,-139,0,0,0,0,0,0,0,0,0,-1,1490,1163,0,0
273,-139,0,0,0,0,0,0,0,0,0,-1,1497,1163,0,0
280,-139,0,0,0,0,0,0,0,0,0,-1,1504,1163,0,0
287,-139,0,0,0,0,0,0,0,0,0,-1,1511,1163,0,0
294,-139,0,0,0,0,0,0,0,0,0,-1,1518,1163,0,0
301,-139,0,0,0,0,0,0,0,0,0,-1,1525,1163,0,0
308,-139,0,0,0,0,0,0,0,0,0,-1,1532,1163,0,0
315,-139,0,0,0,0,0,0,0,0,0,-1,1539,1163,0,0
322,-139,0,0,0,0,0,0,0,0,0,-1,1546,1163,0,0
329,-139,0,0,0,0,0,0,0,0,0,-1,1553,1163,0,0
336,-139,0,0,0,0,0,0,0,0,0,-1,1560,1163,0,0
343,-139,0,0,0,0,0,0,0,0,0,-1,1567,1163,0,0
350,-139,0,0,0,0,0,0,0,0,0,-1,1574,1163,0,0
357,-139,0,0,0,0,0,0,0,0,0,-1,1581,1163,0,0
364,-139,0,0,0,0,0,0,0,0,0,-1,1588,1163,0,0
371,-139,0,0,0,0,0,0,0,0,0,-1,1595,1163,0,0
378,-139,0,0,0,0,0,0,0,0,0,-1,1602,1163,0,0
385,-139,0,0,0,0,0,0,0,0,0,-1,1609,1163,0,0
392,-139,0,0,0,0,0,0,0,0,0,-1,1616,1163,0,0
399,-139,0,0,0,0,0,0,0,0,0,-1,1623,1163,0,0
406,-139,0,0,0,0,0,0,0,0,0,-1,1630,1163,0,0
413,-139,0,0,0,0,0,0,0,0,0,-1,1637,1163,0,0
420,-139,0,0,0,0,0,0,0,0,0,-1,1644,1163,0,0
427,-139,0,0,0,0,0,0,0,0,0,-1,1651,1163,0,0
434,-139,0,0,0,0,0,0,0,0,0,-1,1658,1163,0,0
441,-139,0,0,0,0,0,0,0,0,0,-1,1665,1163,0,0
448,-139,0,0,0,0,0,0,0,0,0,-1,1672,1163,0,0
455,-139,0,0,0,0,0,0,0,0,0,-1,1679,1163,0,0
462,-139,0,0,0,0,0,0,0,0,0,-1,1686,1163,0,0
469,-139,0,0,0,0,0,0,0,0,0,-1,1693,1163,0,0
476,-139,0,0,0,0,0,0,0,0,0,-1,1700,1163,0,0
483,-139,0,0,0,0,0,0,0,0,0,-1,1707,1163,0,0
490,-139,0,0,0,0,0,0,0,0,0,-1,1714,1163,0,0
497,-139,0,0,0,0,0,0,0,0,0,-1,1721,1163,0,0
504,-139,0,0,0,0,0,0,0,0,0,-1,1728,1163,0,0
511,-139,0,0,0,0,0,0,0,0,0,-1,1735,1163,0,0
518,-139,0,0,0,0,0,0,0,0,0,-1,1742,1163,0,0
525,-139,0,0,0,0,0,0,0,0,0,-1,1749,1163,0,0
532,-139,0,0,0,0,0,0,0,0,0,-1,1756,1163,0,0
539,-139,0,0,0,0,0,0,0,0,0,-1,1763,1163,0,0
546,-139,0,0,0,0,0,0,0,0,0,-1,1770,1163,0,0
553,-139,0,0,0,0,0,0,0,0,0,-1,1777,1163,0,0
560,-139,0,0,0,0,0,0,0,0,0,-1,1784,1163,0,0
567,-139,0,0,0,0,0,0,0,0,0,-1,1791,1163,0,0
574,-139,0,0,0,0,0,0,0,0,0,-1,1798,1163,0,0
581,-139,0,0,0,0,0,0,0,0,0,-1,1805,1163,0,0
588,-139,0,0,0,0,0,0,0,0,0,-1,1812,1163,0,0
595,-139,0,0,0,0,0,0,0,0,0,-1,1819,1163,0,0
602,-139,0,0,0,0,0,0,0,0,0,-1,1826,1163,0,0
609,-139,0,0,0,0,0,0,0,0,0,-1,1833,1163,0,0
616,-139,0,0,0,0,0,0,0,0,0,-1,1840,1163,0,0
623,-139,0,0,0,0,0,0,0,0,0,-1,1847,1163,0,0
630,-139,0,0,0,0,0,0,0,0,0,-1,1854,1163,0,0
637,-139,0,0,0,0,0,0,0,0,0,-1,1861,1163,0,0
644,-139,24.7959,2.51892,0.00224681,-0.00397211,0.00817592,0.0078846,-0.00960989,0.603685,0.0101168,0.0406255,1868,1163,24.7959,-2.51897
651,-139,24.6211,2.48645,0.00135872,-0.00240043,0.00635779,0.00610895,-0.00715066,0.641675,0.00766331,0.0384924,1875,1163,24.621,-2.48641
658,-139,24.7853,2.88318,0.000937174,-0.00115412,0.00452107,0.00453194,-0.00474888,0.671755,0.00535877,0.0407887,1882,1163,24.7853,-2.88322
665,-139,24.6787,2.95068,-0.000358565,-0.000604191,0.00369204,0.0032127,-0.00417546,0.768772,0.00427761,0.0404222,1889,1163,24.6787,-2.95073
672,-139,24.6578,2.90784,-0.00202025,-0.000499579,0.00355137,0.00237194,-0.00489176,0.890854,0.00427699,0.0390473,1896,1163,24.6579,-2.90787
679,-139,24.6857,2.81128,-0.00360176,-0.000702396,0.00374174,0.00186068,-0.00616484,0.970212,0.00485057,0.036456,1903,1163,24.6857,-2.81122
686,-139,24.7052,2.82544,-0.00492215,-0.00102528,0.00401158,0.00148601,-0.00743345,1.01147,0.00551807,0.032312,1910,1163,24.7052,-2.82547
693,-139,24.6753,2.77795,-0.00592647,-0.00124092,0.00426775,0.0012848,-0.00845219,1.03642,0.00610827,0.0222721,1917,1163,24.6753,-2.77799
700,-139,24.657,3.3634,0,0,0,0,0,0,0,-1,1924,1163,24.657,-3.36336
707,-139,23.7194,4.14575,-0.00743647,-0.00159174,0.00459639,0.000932637,-0.00996085,1.06856,0.00697227,0.0330133,1931,1163,23.7194,-4.14572
714,-139,22.8234,5.01294,-0.00782507,-0.00184696,0.00464444,0.000687146,-0.0103592,1.07132,0.00714619,0.0314128,1938,1163,22.8233,-5.01298
721,-139,22.8162,4.82629,-0.00775813,-0.00193283,0.00475694,0.00073233,-0.0104233,1.0601,0.00720539,0.0222006,1945,1163,22.8161,-4.82624
728,-139,22.8068,4.7356,-0.00729473,-0.00178803,0.00463324,0.000848229,-0.00993099,1.05349,0.00692075,0.0220864,1952,1163,22.8068,-4.73554
735,-139,22.7904,4.62561,-0.00648266,-0.00136147,0.00424788,0.00103789,-0.00888202,1.05663,0.00629589,0.0167392,1959,1163,22.7904,-4.62561
742,-139,22.8203,4.40039,-0.00558542,-0.000528032,0.0037516,0.00146752,-0.00758098,1.08194,0.00560754,0.020377,1966,1163,22.8203,-4.40042
749,-139,22.816,4.27625,-0.00444201,0.000478195,0.00311385,0.00198648,-0.0059503,1.11972,0.00476899,0.0180094,1973,1163,22.8161,-4.27619
756,-139,22.7697,4.177,-0.00307878,0.00186781,0.00225632,0.00274238,-0.00395334,1.20102,0.00388679,0.0105001,1980,1163,22.7697,-4.17695
763,-139,22.759,4.03357,-0.00187724,0.00334812,0.00158442,0.00379101,-0.00232013,1.29823,0.00356217,0.0105789,1987,1163,22.759,-4.03354
770,-139,22.7607,3.89868,-0.00167024,0.00475801,0.00155484,0.00511433,-0.00202657,1.34551,0.00424934,0.0117824,1994,1163,22.7608,-3.89869
777,-139,22.7257,3.78174,-0.00257867,0.00620159,0.00220731,0.00672526,-0.00310234,1.33786,0.00580106,0.0217873,2001,1163,22.7257,-3.78171
784,-139,22.6957,3.59338,-0.00440009,0.00768524,0.00342327,0.00858754,-0.00530239,1.31308,0.00809378,0.0434664,2008,1163,22.6957,-3.59333
791,-139,23.9595,3.98535,0,0,0,0,0,0,0,-1,2015,1163,23.9595,-3.98536
798,-139,22.8458,3.48901,0,0,0,0,0,0,0,-1,2022,1163,22.8459,-3.48901
805,-139,22.8286,3.34192,0,0,0,0,0,0,0,-1,2029,1163,22.8287,-3.3419
812,-139,0,0,0,0,0,0,0,0,0,-1,2036,1163,0,0
-700,-146,0,0,0,0,0,0,0,0,0,-1,524,1170,0,0
-693,-146,-14.3835,0.0212402,0,0,0,0,0,0,0,-1,531,1170,-14.3835,-0.0212384
-686,-146,-14.1509,0.00488281,0.029867,0.0736332,-0.0195316,0.0810819,0.0224183,-1.20646,0.0483466,0.0457554,538,1170,-14.1509,-0.00491643
-679,-146,-14.0073,-0.123047,0.0218992,0.0650005,-0.0147997,0.069593,0.0173067,-1.26991,0.0418371,0.0480638,545,1170,-14.0073,0.123094
-672,-146,-14.202,-0.317261,0,0,0,0,0,0,0,-1,552,1170,-14.202,0.3173
-665,-146,-14.2116,1.22729,0,0,0,0,0,0,0,-1,559,1170,-14.2116,-1.22735
-658,-146,-14.5688,0.876709,0,0,0,0,0,0,0,-1,566,1170,-14.5689,-0.876767
-651,-146,-14.5813,1.03735,0.0043502,0.0291996,-0.00507697,0.0301969,0.00335295,-1.37684,0.0191119,0.0392424,573,1170,-14.5813,-1.03739
-644,-146,-14.6,1.20789,0.00257577,0.02187,-0.00385965,0.0226134,0.00183232,-1.38051,0.0145035,0.0192268,580,1170,-14.6001,-1.20793
-637,-146,-14.6169,1.36523,0.00136006,0.0155924,-0.00295411,0.0161812,0.000771258,-1.37406,0.0105398,0.0101405,587,1170,-14.6169,-1.36524
-630,-146,-14.6295,1.54321,-0.000432853,0.0100913,-0.00212342,0.0105036,-0.000845136,-1.37902,0.00730043,0.00982734,594,1170,-14.6295,-1.54324
-623,-146,-14.6538,1.72229,-0.00127376,0.00539255,-0.00177163,0.00583412,-0.00171533,-1.32653,0.00456979,0.0125295,601,1170,-14.6538,-1.72226
-616,-146,-14.6744,1.89917,-0.00143373,0.00212295,-0.00229433,0.00324744,-0.00255823,-1.11508,0.00335977,0.0186972,608,1170,-14.6744,-1.89917
-609,-146,-14.5827,2.03894,-0.0019792,0.000532321,-0.00308112,0.00260376,-0.00405064,-0.978904,0.00387207,0.017299,615,1170,-14.5827,-2.039
-602,-146,-14.6865,2.35046,-0.00249325,-0.000285747,-0.00369467,0.00246652,-0.00524551,-0.930549,0.00454788,0.0272105,622,1170,-14.6865,-2.35042
-595,-146,-14.7855,2.44275,-0.00300556,-0.000773078,-0.00409699,0.00235701,-0.00613565,-0.918397,0.00506243,0.0161925,629,1170,-14.7855,-2.44269
-588,-146,-14.6924,2.63196,-0.00318894,-0.000979633,-0.00431684,0.00237164,-0.00654022,-0.910658,0.00532959,0.0175294,636,1170,-14.6924,-2.63199
-581,-146,-14.5743,2.82947,-0.00310379,-0.00105657,-0.00431039,0.00235008,-0.00651045,-0.901976,0.00530027,0.0328634,643,1170,-14.5743,-2.8295
-574,-146,-15.6415,1.80127,0,0,0,0,0,0,0,-1,650,1170,-15.6415,-1.80128
-567,-146,-16.6917,0.687744,0,0,0,0,0,0,0,-1,657,1170,-16.6917,-0.68773
-560,-146,-16.7916,0.894897,-0.00243515,-0.000814606,-0.00374445,0.00220623,-0.00545599,-0.891952,0.00455448,0.0385502,664,1170,-16.7916,-0.894887
-553,-146,-16.7755,0.843506,-0.00195078,-0.000621553,-0.00311333,0.00189731,-0.00446964,-0.890557,0.00377464,0.038979,671,1170,-16.7754,-0.843524
-546,-146,-16.7287,1.01001,-0.00134398,-0.000380871,-0.00208225,0.00127478,-0.00299963,-0.899034,0.00253393,0.0423256,678,1170,-16.7287,-1.01004
-539,-146,-16.8676,0.822632,-0.00082205,-8.62583e-05,-0.000484527,0.000154215,-0.00106252,-1.11011,0.000764954,0.0412714,685,1170,-16.8676,-0.822677
-532,-146,-17.0092,0.767822,-0.000251952,0.000269654,0.00185808,0.00188515,-0.00186745,0.855123,0.00216657,0.0382917,692,1170,-17.0091,-0.767861
-525,-146,-17.0122,0.855835,-0.00153012,0.000273952,0.00370083,0.00318109,-0.00443726,0.904937,0.00441834,0.0412681,699,1170,-17.0122,-0.855844
-518,-146,0,0,0,0,0,0,0,0,0,-1,706,1170,0,0
-511,-146,0,0,0,0,0,0,0,0,0,-1,713,1170,0,0
-504,-146,0,0,0,0,0,0,0,0,0,-1,720,1170,0,0
-497,-146,0,0,0,0,0,0,0,0,0,-1,727,1170,0,0
-490,-146,0,0,0,0,0,0,0,0,0,-1,734,1170,0,0
-483,-146,0,0,0,0,0,0,0,0,0,-1,741,1170,0,0
-476,-146,0,0,0,0,0,0,0,0,0,-1,748,1170,0,0
-469,-146,0,0,0,0,0,0,0,0,0,-1,755,1170,0,0
-462,-146,0,0,0,0,0,0,0,0,0,-1,762,1170,0,0
-455,-146,0,0,0,0,0,0,0,0,0,-1,769,1170,0,0
-448,-146,0,0,0,0,0,0,0,0,0,-1,776,1170,0,0
-441,-146,0,0,0,0,0,0,0,0,0,-1,783,1170,0,0
-434,-146,0,0,0,0,0,0,0,0,0,-1,790,1170,0,0
-427,-146,0,0,0,0,0,0,0,0,0,-1,797,1170,0,0
-420,-146,0,0,0,0,0,0,0,0,0,-1,804,1170,0,0
-413,-146,0,0,0,0,0,0,0,0,0,-1,811,1170,0,0
-406,-146,0,0,0,0,0,0,0,0,0,-1,818,1170,0,0
-399,-146,0,0,0,0,0,0,0,0,0,-1,825,1170,0,0
-392,-146,0,0,0,0,0,0,0,0,0,-1,832,1170,0,0
-385,-146,0,0,0,0,0,0,0,0,0,-1,839,1170,0,0
-378,-146,0,0,0,0,0,0,0,0,0,-1,846,1170,0,0
-371,-146,0,0,0,0,0,0,0,0,0,-1,853,1170,0,0
-364,-146,0,0,0,0,0,0,0,0,0,-1,860,1170,0,0
-357,-146,0,0,0,0,0,0,0,0,0,-1,867,1170,0,0
-350,-146,0,0,0,0,0,0,0,0,0,-1,874,1170,0,0
-343,-146,0,0,0,0,0,0,0,0,0,-1,881,1170,0,0
-336,-146,0,0,0,0,0,0,0,0,0,-1,888,1170,0,0
-329,-146,0,0,0,0,0,0,0,0,0,-1,895,1170,0,0
-322,-146,0,0,0,0,0,0,0,0,0,-1,902,1170,0,0
-315,-146,0,0,0,0,0,0,0,0,0,-1,909,1170,0,0
-308,-146,0,0,0,0,0,0,0,0,0,-1,916,1170,0,0
-301,-146,0,0,0,0,0,0,0,0,0,-1,923,1170,0,0
-294,-146,0,0,0,0,0,0,0,0,0,-1,930,1170,0,0
-287,-146,0,0,0,0,0,0,0,0,0,-1,937,1170,0,0
-280,-146,0,0,0,0,0,0,0,0,0,-1,944,1170,0,0
-273,-146,0,0,0,0,0,0,0,0,0,-1,951,1170,0,0
-266,-146,0,0,0,0,0,0,0,0,0,-1,958,1170,0,0
-259,-146,0,0,0,0,0,0,0,0,0,-1,965,1170,0,0
-252,-146,0,0,0,0,0,0,0,0,0,-1,972,1170,0,0
-245,-146,0,0,0,0,0,0,0,0,0,-1,979,1170,0,0
-238,-146,0,0,0,0,0,0,0,0,0,-1,986,1170,0,0
-231,-146,0,0,0,0,0,0,0,0,0,-1,993,1170,0,0
-224,-146,0,0,0,0,0,0,0,0,0,-1,1000,1170,0,0
-217,-146,0,0,0,0,0,0,0,0,0,-1,1007,1170,0,0
-210,-146,0,0,0,0,0,0,0,0,0,-1,1014,1170,0,0
-203,-146,0,0,0,0,0,0,0,0,0,-1,1021,1170,0,0
-196,-146,0,0,0,0,0,0,0,0,0,-1,1028,1170,0,0
-189,-146,0,0,0,0,0,0,0,0,0,-1,1035,1170,0,0
-182,-146,0,0,0,0,0,0,0,0,0,-1,1042,1170,0,0
-175,-146,0,0,0,0,0,0,0,0,0,-1,1049,1170,0,0
-168,-146,0,0,0,0,0,0,0,0,0,-1,1056,1170,0,0
-161,-146,0,0,0,0,0,0,0,0,0,-1,1063,1170,0,0
-154,-146,0,0,0,0,0,0,0,0,0,-1,1070,1170,0,0
-147,-146,0,0,0,0,0,0,0,0,0,-1,1077,1170,0,0
-140,-146,0,0,0,0,0,0,0,0,0,-1,1084,1170,0,0
-133,-146,0,0,0,0,0,0,0,0,0,-1,1091,1170,0,0
-126,-146,0,0,0,0,0,0,0,0,0,-1,1098,1170,0,0
-119,-146,0,0,0,0,0,0,0,0,0,-1,1105,1170,0,0
-112,-146,0,0,0,0,0,0,0,0,0,-1,1112,1170,0,0
-105,-146,0,0,0,0,0,0,0,0,0,-1,1119,1170,0,0
-98,-146,0,0,0,0,0,0,0,0,0,-1,1126,1170,0,0
-91,-146,0,0,0,0,0,0,0,0,0,-1,1133,1170,0,0
-84,-146,0,0,0,0,0,0,0,0,0,-1,1140,1170,0,0
-77,-146,0,0,0,0,0,0,0,0,0,-1,1147,1170,0,0
-70,-146,0,0,0,0,0,0,0,0,0,-1,1154,1170,0,0
-63,-146,0,0,0,0,0,0,0,0,0,-1,1161,1170,0,0
-56,-146,0,0,0,0,0,0,0,0,0,-1,1168,1170,0,0
-49,-146,0,0,0,0,0,0,0,0,0,-1,1175,1170,0,0
-42,-146,0,0,0,0,0,0,0,0,0,-1,1182,1170,0,0
-35,-146,0,0,0,0,0,0,0,0,0,-1,1189,1170,0,0
-28,-146,0,0,0,0,0,0,0,0,0,-1,1196,1170,0,0
-21,-146,0,0,0,0,0,0,0,0,0,-1,1203,1170,0,0
-14,-146,0,0,0,0,0,0,0,0,0,-1,1210,1170,0,0
-7,-146,0,0,0,0,0,0,0,0,0,-1,1217,1170,0,0
0,-146,0,0,0,0,0,0,0,0,0,-1,1224,1170,0,0
7,-146,0,0,0,0,0,0,0,0,0,-1,1231,1170,0,0
14,-146,0,0,0,0,0,0,0,0,0,-1,1238,1170,0,0
21,-146,0,0,0,0,0,0,0,0,0,-1,1245,1170,0,0
28,-146,0,0,0,0,0,0,0,0,0,-1,1252,1170,0,0
35,-146,0,0,0,0,0,0,0,0,0,-1,1259,1170,0,0
42,-146,0,0,0,0,0,0,0,0,0,-1,1266,1170,0,0
49,-146,0,0,0,0,0,0,0,0,0,-1,1273,1170,0,0
56,-146,0,0,0,0,0,0,0,0,0,-1,1280,1170,0,0
63,-146,0,0,0,0,0,0,0,0,0,-1,1287,1170,0,0
70,-146,0,0,0,0,0,0,0,0,0,-1,1294,1170,0,0
77,-146,0,0,0,0,0,0,0,0,0,-1,1301,1170,0,0
84,-146,0,0,0,0,0,0,0,0,0,-1,1308,1170,0,0
91,-146,0,0,0,0,0,0,0,0,0,-1,1315,1170,0,0
98,-146,0,0,0,0,0,0,0,0,0,-1,1322,1170,0,0
105,-146,0,0,0,0,0,0,0,0,0,-1,1329,1170,0,0
112,-146,0,0,0,0,0,0,0,0,0,-1,1336,1170,0,0
119,-146,0,0,0,0,0,0,0,0,0,-1,1343,1170,0,0
126,-146,0,0,0,0,0,0,0,0,0,-1,1350,1170,0,0
133,-146,0,0,0,0,0,0,0,0,0,-1,1357,1170,0,0
140,-146,0,0,0,0,0,0,0,0,0,-1,1364,1170,0,0
147,-146,0,0,0,0,0,0,0,0,0,-1,1371,1170,0,0
154,-146,0,0,0,0,0,0,0,0,0,-1,1378,1170,0,0
161,-146,0,0,0,0,0,0,0,0,0,-1,1385,1170,0,0
168,-146,0,0,0,0,0,0,0,0,0,-1,1392,1170,0,0
175,-146,0,0,0,0,0,0,0,0,0,-1,1399,1170,0,0
182,-146,0,0,0,0,0,0,0,0,0,-1,1406,1170,0,0
189,-146,0,0,0,0,0,0,0,0,0,-1,1413,1170,0,0
196,-146,0,0,0,0,0,0,0,0,0,-1,1420,1170,0,0
203,-146,0,0,0,0,0,0,0,0,0,-1,1427,1170,0,0
210,-146,0,0,0,0,0,0,0,0,0,-1,1434,1170,0,0
217,-146,0,0,0,0,0,0,0,0,0,-1,1441,1170,0,0
224,-146,0,0,0,0,0,0,0,0,0,-1,1448,1170,0,0
231,-146,0,0,0,0,0,0,0,0,0,-1,1455,1170,0,0
238,-146,0,0,0,0,0,0,0,0,0,-1,1462,1170,0,0
245,-146,0,0,0,0,0,0,0,0,0,-1,1469,1170,0,0
252,-146,0,0,0,0,0,0,0,0,0,-1,1476,1170,0,0
259,-146,0,0,0,0,0,0,0,0,0,-1,1483,1170,0,0
266,-146,0,0,0,0,0,0,0,0,0,-1,1490,1170,0,0
273,-146,0,0,0,0,0,0,0,0,0,-1,1497,1170,0,0
280,-146,0,0,0,0,0,0,0,0,0,-1,1504,1170,0,0
287,-146,0,0,0,0,0,0,0,0,0,-1,1511,1170,0,0
294,-146,0,0,0,0,0,0,0,0,0,-1,1518,1170,0,0
301,-146,0,0,0,0,0,0,0,0,0,-1,1525,1170,0,0
308,-146,0,0,0,0,0,0,0,0,0,-1,1532,1170,0,0
315,-146,0,0,0,0,0,0,0,0,0,-1,1539,1170,0,0
322,-146,0,0,0,0,0,0,0,0,0,-1,1546,1170,0,0
329,-146,0,0,0,0,0,0,0,0,0,-1,1553,1170,0,0
336,-146,0,0,0,0,0,0,0,0,0,-1,1560,1170,0,0
343,-146,0,0,0,0,0,0,0,0,0,-1,1567,1170,0,0
350,-146,0,0,0,0,0,0,0,0,0,-1,1574,1170,0,0
357,-146,0,0,0,0,0,0,0,0,0,-1,1581,1170,0,0
364,-146,0,0,0,0,0,0,0,0,0,-1,1588,1170,0,0
371,-146,0,0,0,0,0,0,0,0,0,-1,1595,1170,0,0
378,-146,0,0,0,0,0,0,0,0,0,-1,1602,1170,0,0
385,-146,0,0,0,0,0,0,0,0,0,-1,1609,1170,0,0
392,-146,0,0,0,0,0,0,0,0,0,-1,1616,1170,0,0
399,-146,0,0,0,0,0,0,0,0,0,-1,1623,1170,0,0
406,-146,0,0,0,0,0,0,0,0,0,-1,1630,1170,0,0
413,-146,0,0,0,0,0,0,0,0,0,-1,1637,1170,0,0
420,-146,0,0,0,0,0,0,0,0,0,-1,1644,1170,0,0
427,-146,0,0,0,0,0,0,0,0,0,-1,1651,1170,0,0
434,-146,0,0,0,0,0,0,0,0,0,-1,1658,1170,0,0
441,-146,0,0,0,0,0,0,0,0,0,-1,1665,1170,0,0
448,-146,0,0,0,0,0,0,0,0,0,-1,1672,1170,0,0
455,-146,0,0,0,0,0,0,0,0,0,-1,1679,1170,0,0
462,-146,0,0,0,0,0,0,0,0,0,-1,1686,1170,0,0
469,-146,0,0,0,0,0,0,0,0,0,-1,1693,1170,0,0
476,-146,0,0,0,0,0,0,0,0,0,-1,1700,1170,0,0
483,-146,0,0,0,0,0,0,0,0,0,-1,1707,1170,0,0
490,-146,0,0,0,0,0,0,0,0,0,-1,1714,1170,0,0
497,-146,0,0,0,0,0,0,0,0,0,-1,1721,1170,0,0
504,-146,0,0,0,0,0,0,0,0,0,-1,1728,1170,0,0
511,-146,0,0,0,0,0,0,0,0,0,-1,1735,1170,0,0
518,-146,0,0,0,0,0,0,0,0,0,-1,1742,1170,0,0
525,-146,0,0,0,0,0,0,0,0,0,-1,1749,1170,0,0
532,-146,0,0,0,0,0,0,0,0,0,-1,1756,1170,0,0
539,-146,0,0,0,0,0,0,0,0,0,-1,1763,1170,0,0
546,-146,0,0,0,0,0,0,0,0,0,-1,1770,1170,0,0
553,-146,0,0,0,0,0,0,0,0,0,-1,1777,1170,0,0
560,-146,0,0,0,0,0,0,0,0,0,-1,1784,1170,0,0
567,-146,0,0,0,0,0,0,0,0,0,-1,1791,1170,0,0
574,-146,0,0,0,0,0,0,0,0,0,-1,1798,1170,0,0
581,-146,0,0,0,0,0,0,0,0,0,-1,1805,1170,0,0
588,-146,0,0,0,0,0,0,0,0,0,-1,1812,1170,0,0
595,-146,0,0,0,0,0,0,0,0,0,-1,1819,1170,0,0
602,-146,0,0,0,0,0,0,0,0,0,-1,1826,1170,0,0
609,-146,0,0,0,0,0,0,0,0,0,-1,1833,1170,0,0
616,-146,0,0,0,0,0,0,0,0,0,-1,1840,1170,0,0
623,-146,0,0,0,0,0,0,0,0,0,-1,1847,1170,0,0
630,-146,0,0,0,0,0,0,0,0,0,-1,1854,1170,0,0
637,-146,24.6722,2.54785,0.00232399,-0.0067764,0.00868614,0.00757958,-0.012032,0.544127,0.0114196,0.0375881,1861,1170,24.6723,-2.5478
644,-146,24.6942,2.5769,0.0014605,-0.00471029,0.00705309,0.00607353,-0.00932332,0.579213,0.00895514,0.0362834,1868,1170,24.6942,-2.57695
651,-146,24.7574,2.76672,0.000950952,-0.00288695,0.00530197,0.00467055,-0.00660655,0.611766,0.00654274,0.0347445,1875,1170,24.7574,-2.76668
658,-146,24.7354,2.87622,0.000649718,-0.00143826,0.00369597,0.00344631,-0.00423485,0.647751,0.0044425,0.0381602,1882,1170,24.7354,-2.87619
665,-146,24.7092,2.93127,-0.000515472,-0.000750757,0.00308579,0.00245492,-0.00372115,0.766345,0.00359065,0.0391593,1889,1170,24.7092,-2.93129
672,-146,24.7351,2.9281,-0.00194221,-0.000529228,0.00302615,0.0018718,-0.00434324,0.900076,0.00368161,0.0367351,1896,1170,24.7351,-2.9281
679,-146,24.7256,2.77356,-0.00333778,-0.00065169,0.00328156,0.00155103,-0.0055405,0.979634,0.00430484,0.0295937,1903,1170,24.7256,-2.77351
686,-146,24.6725,2.74988,-0.00449384,-0.000908789,0.00356772,0.0012914,-0.00669403,1.01819,0.00494963,0.0221462,1910,1170,24.6725,-2.74984
693,-146,24.7288,2.75305,-0.00538591,-0.00107429,0.00381571,0.0011525,-0.0076127,1.04253,0.0054997,0.015848,1917,1170,24.7288,-2.753
700,-146,24.4728,3.60229,0,0,0,0,0,0,0,-1,1924,1170,24.4727,-3.60225
707,-146,23.4545,4.39099,-0.00676461,-0.00131419,0.00419582,0.000963767,-0.00904256,1.07341,0.00637397,0.038831,1931,1170,23.4544,-4.39098
714,-146,22.7321,5.03284,-0.00716303,-0.00156499,0.00426979,0.000741436,-0.00946946,1.07553,0.00657407,0.0304004,1938,1170,22.7321,-5.03281
721,-146,22.7322,4.86987,-0.00709397,-0.00169561,0.00437224,0.000743506,-0.00953308,1.06194,0.00661716,0.0386289,1945,1170,22.7322,-4.86986
728,-146,22.7487,4.73682,0,0,0,0,0,0,0,-1,1952,1170,22.7486,-4.73678
735,-146,22.6355,4.63098,-0.00567204,-0.00111748,0.00381529,0.00104849,-0.00783801,1.05446,0.0056076,0.0166639,1959,1170,22.6355,-4.63101
742,-146,22.6484,4.43945,-0.00461974,-0.000228708,0.00325416,0.00150131,-0.00634976,1.08216,0.00481232,0.0165102,1966,1170,22.6484,-4.43945
749,-146,22.6379,4.31873,-0.00330752,0.000848414,0.00258524,0.00208728,-0.00454639,1.12392,0.00391669,0.0151944,1973,1170,22.638,-4.31873
756,-146,22.6091,4.17139,-0.0017012,0.00232733,0.00168603,0.00293984,-0.00231371,1.22233,0.00304031,0.0111617,1980,1170,22.6092,-4.17144
763,-146,22.5894,3.99365,-0.000235277,0.00388225,0.000983278,0.00410501,-0.000458035,1.34801,0.00290143,0.0109064,1987,1170,22.5893,-3.99365
770,-146,22.6055,3.86658,0.000354875,0.00538015,0.000869294,0.00552627,0.00020875,1.40426,0.00361661,0.0118194,1994,1170,22.6055,-3.86656
777,-146,22.5861,3.77881,5.34815e-06,0.00693065,0.00134062,0.00718111,-0.000245115,1.3861,0.00487117,0.0192128,2001,1170,22.586,-3.77876
784,-146,22.7711,3.83594,0,0,0,0,0,0,0,-1,2008,1170,22.7711,-3.8359
791,-146,23.2853,3.65515,-0.00369251,0.0100099,0.00411147,0.0111489,-0.0048315,1.30055,0.00946354,0.0451794,2015,1170,23.2853,-3.65515
798,-146,22.5944,3.52051,-0.00778164,0.0112581,0.00690646,0.0134995,-0.010023,1.25699,0.0136301,0.0463679,2022,1170,22.5943,-3.52045
805,-146,22.741,3.67944,0,0,0,0,0,0,0,-1,2029,1170,22.7409,-3.67939
812,-146,0,0,0,0,0,0,0,0,0,-1,2036,1170,0,0
-700,-153,0,0,0,0,0,0,0,0,0,-1,524,1177,0,0
-693,-153,0,0,0,0,0,0,0,0,0,-1,531,1177,0,0
-686,-153,-13.8323,-0.0368652,0.00580206,0.0687039,-0.0219028,0.0755791,-0.00107319,-1.26664,0.0507476,0.0462634,538,1177,-13.8324,0.036875
-679,-153,-13.874,-0.30835,0.00136685,0.0617665,-0.0171954,0.0663189,-0.00318549,-1.31199,0.0453118,0.0497227,545,1177,-13.8739,0.308371
-672,-153,-14.2589,0.205444,0,0,0,0,0,0,0,-1,552,1177,-14.2589,-0.205411
-665,-153,-14.356,0.473999,-0.00314475,0.0454472,-0.0108141,0.0477452,-0.00544274,-1.36141,0.0337908,0.0448536,559,1177,-14.356,-0.474048
-658,-153,-14.4124,0.764404,0,0,0,0,0,0,0,-1,566,1177,-14.4123,-0.764461
-651,-153,-14.3572,0.980957,-0.00367759,0.0296396,-0.00668008,0.0309291,-0.00496704,-1.38011,0.0224589,0.0450414,573,1177,-14.3572,-0.980917
-644,-153,-14.3498,1.18884,-0.00319259,0.0226238,-0.0051667,0.0236194,-0.00418822,-1.38043,0.0173121,0.0260738,580,1177,-14.3498,-1.18886
-637,-153,-14.4092,1.34045,-0.00249368,0.0164916,-0.003971,0.0172887,-0.0032908,-1.37269,0.0127649,0.0111278,587,1177,-14.4092,-1.34043
-630,-153,-14.4404,1.51807,-0.00275669,0.0110934,-0.0028941,0.0116738,-0.00333711,-1.37287,0.00910119,0.00997455,594,1177,-14.4404,-1.51808
-623,-153,-14.4632,1.70129,-0.00236268,0.0063349,-0.00226811,0.00689083,-0.00291861,-1.33043,0.0058162,0.0098825,601,1177,-14.4632,-1.70131
-616,-153,-14.467,1.87292,-0.00184897,0.00282503,-0.00245342,0.00387637,-0.00290031,-1.16595,0.00392602,0.0125965,608,1177,-14.467,-1.87288
-609,-153,-14.4117,2.04688,-0.00222878,0.000927379,-0.00312999,0.00285461,-0.00415601,-1.01889,0.00407076,0.0171504,615,1177,-14.4117,-2.04682
-602,-153,-14.405,2.23328,-0.00271842,-4.69904e-05,-0.00367227,0.00252494,-0.00529035,-0.959825,0.00460536,0.0294764,622,1177,-14.4049,-2.23328
-595,-153,-14.5917,2.42737,-0.00326991,-0.00064865,-0.00401297,0.00226229,-0.00618085,-0.943237,0.00504662,0.025872,629,1177,-14.5917,-2.42735
-588,-153,-14.588,2.63,-0.00346992,-0.000951515,-0.00420331,0.00217716,-0.00659859,-0.930931,0.00527668,0.0153924,636,1177,-14.588,-2.62997
-581,-153,-14.4516,2.77319,-0.00333902,-0.00105932,-0.00421673,0.0021689,-0.00656724,-0.917401,0.00525257,0.0213491,643,1177,-14.4516,-2.77318
-574,-153,-14.5005,2.84155,0,0,0,0,0,0,0,-1,650,1177,-14.5005,-2.84161
-567,-153,-16.7125,0.740112,0,0,0,0,0,0,0,-1,657,1177,-16.7125,-0.740113
-560,-153,-16.7773,0.935547,-0.00260648,-0.000948034,-0.00370651,0.00202088,-0.00557539,-0.895446,0.00454294,0.0406839,664,1177,-16.7773,-0.935537
-553,-153,-16.7538,0.883667,-0.00208373,-0.000819528,-0.00315149,0.00176263,-0.00466588,-0.884371,0.00383559,0.0365992,671,1177,-16.7538,-0.883633
-546,-153,-16.6736,0.727417,-0.00137412,-0.000651098,-0.00223224,0.00124872,-0.00327394,-0.865676,0.00269701,0.0380141,678,1177,-16.6736,-0.727377
-539,-153,-16.879,0.801636,-0.000687871,-0.000419026,-0.000793824,0.000251676,-0.00135857,-0.86927,0.00100022,0.0407763,685,1177,-16.879,-0.801695
-532,-153,-17.0444,0.933228,0.000109789,-0.00010073,0.00134547,0.00135411,-0.00134505,0.746362,0.00155837,0.0427914,692,1177,-17.0444,-0.933264
-525,-153,-16.9553,1.12183,-0.000404113,2.93533e-05,0.00331395,0.00313365,-0.00350841,0.818052,0.00383683,0.0428542,699,1177,-16.9553,-1.12185
-518,-153,0,0,0,0,0,0,0,0,0,-1,706,1177,0,0
-511,-153,0,0,0,0,0,0,0,0,0,-1,713,1177,0,0
-504,-153,0,0,0,0,0,0,0,0,0,-1,720,1177,0,0
-497,-153,0,0,0,0,0,0,0,0,0,-1,727,1177,0,0
-490,-153,0,0,0,0,0,0,0,0,0,-1,734,1177,0,0
-483,-153,0,0,0,0,0,0,0,0,0,-1,741,1177,0,0
-476,-153,0,0,0,0,0,0,0,0,0,-1,748,1177,0,0
-469,-153,0,0,0,0,0,0,0,0,0,-1,755,1177,0,0
-462,-153,0,0,0,0,0,0,0,0,0,-1,762,1177,0,0
-455,-153,0,0,0,0,0,0,0,0,0,-1,769,1177,0,0
-448,-153,0,0,0,0,0,0,0,0,0,-1,776,1177,0,0
-441,-153,0,0,0,0,0,0,0,0,0,-1,783,1177,0,0
-434,-153,0,0,0,0,0,0,0,0,0,-1,790,1177,0,0
-427,-153,0,0,0,0,0,0,0,0,0,-1,797,1177,0,0
-420,-153,0,0,0,0,0,0,0,0,0,-1,804,1177,0,0
-413,-153,0,0,0,0,0,0,0,0,0,-1,811,1177,0,0
-406,-153,0,0,0,0,0,0,0,0,0,-1,818,1177,0,0
-399,-153,0,0,0,0,0,0,0,0,0,-1,825,1177,0,0
-392,-153,0,0,0,0,0,0,0,0,0,-1,832,1177,0,0
-385,-153,0,0,0,0,0,0,0,0,0,-1,839,1177,0,0
-378,-153,0,0,0,0,0,0,0,0,0,-1,846,1177,0,0
-371,-153,0,0,0,0,0,0,0,0,0,-1,853,1177,0,0
-364,-153,0,0,0,0,0,0,0,0,0,-1,860,1177,0,0
-357,-153,0,0,0,0,0,0,0,0,0,-1,867,1177,0,0
-350,-153,0,0,0,0,0,0,0,0,0,-1,874,1177,0,0
-343,-153,0,0,0,0,0,0,0,0,0,-1,881,1177,0,0
-336,-153,0,0,0,0,0,0,0,0,0,-1,888,1177,0,0
-329,-153,0,0,0,0,0,0,0,0,0,-1,895,1177,0,0
-322,-153,0,0,0,0,0,0,0,0,0,-1,902,1177,0,0
-315,-153,0,0,0,0,0,0,0,0,0,-1,909,1177,0,0
-308,-153,0,0,0,0,0,0,0,0,0,-1,916,1177,0,0
-301,-153,0,0,0,0,0,0,0,0,0,-1,923,1177,0,0
-294,-153,0,0,0,0,0,0,0,0,0,-1,930,1177,0,0
-287,-153,0,0,0,0,0,0,0,0,0,-1,937,1177,0,0
-280,-153,0,0,0,0,0,0,0,0,0,-1,944,1177,0,0
-273,-153,0,0,0,0,0,0,0,0,0,-1,951,1177,0,0
-266,-153,0,0,0,0,0,0,0,0,0,-1,958,1177,0,0
-259,-153,0,0,0,0,0,0,0,0,0,-1,965,1177,0,0
-252,-153,0,0,0,0,0,0,0,0,0,-1,972,1177,0,0
-245,-153,0,0,0,0,0,0,0,0,0,-1,979,1177,0,0
-238,-153,0,0,0,0,0,0,0,0,0,-1,986,1177,0,0
-231,-153,0,0,0,0,0,0,0,0,0,-1,993,1177,0,0
-224,-153,0,0,0,0,0,0,0,0,0,-1,1000,1177,0,0
-217,-153,0,0,0,0,0,0,0,0,0,-1,1007,1177,0,0
-210,-153,0,0,0,0,0,0,0,0,0,-1,1014,1177,0,0
-203,-153,0,0,0,0,0,0,0,0,0,-1,1021,1177,0,0
-196,-153,0,0,0,0,0,0,0,0,0,-1,1028,1177,0,0
-189,-153,0,0,0,0,0,0,0,0,0,-1,1035,1177,0,0
-182,-153,0,0,0,0,0,0,0,0,0,-1,1042,1177,0,0
-175,-153,0,0,0,0,0,0,0,0,0,-1,1049,1177,0,0
-168,-153,0,0,0,0,0,0,0,0,0,-1,1056,1177,0,0
-161,-153,0,0,0,0,0,0,0,0,0,-1,1063,1177,0,0
-154,-153,0,0,0,0,0,0,0,0,0,-1,1070,1177,0,0
-147,-153,0,0,0,0,0,0,0,0,0,-1,1077,1177,0,0
-140,-153,0,0,0,0,0,0,0,0,0,-1,1084,1177,0,0
-133,-153,0,0,0,0,0,0,0,0,0,-1,1091,1177,0,0
-126,-153,0,0,0,0,0,0,0,0,0,-1,1098,1177,0,0
-119,-153,0,0,0,0,0,0,0,0,0,-1,1105,1177,0,0
-112,-153,0,0,0,0,0,0,0,0,0,-1,1112,1177,0,0
-105,-153,0,0,0,0,0,0,0,0,0,-1,1119,1177,0,0
-98,-153,0,0,0,0,0,0,0,0,0,-1,1126,1177,0,0
-91,-153,0,0,0,0,0,0,0,0,0,-1,1133,1177,0,0
-84,-153,0,0,0,0,0,0,0,0,0,-1,1140,1177,0,0
-77,-153,0,0,0,0,0,0,0,0,0,-1,1147,1177,0,0
-70,-153,0,0,0,0,0,0,0,0,0,-1,1154,1177,0,0
-63,-153,0,0,0,0,0,0,0,0,0,-1,1161,1177,0,0
-56,-153,0,0,0,0,0,0,0,0,0,-1,1168,1177,0,0
-49,-153,0,0,0,0,0,0,0,0,0,-1,1175,1177,0,0
-42,-153,0,0,0,0,0,0,0,0,0,-1,1182,1177,0,0
-35,-153,0,0,0,0,0,0,0,0,0,-1,1189,1177,0,0
-28,-153,0,0,0,0,0,0,0,0,0,-1,1196,1177,0,0
-21,-153,0,0,0,0,0,0,0,0,0,-1,1203,1177,0,0
-14,-153,0,0,0,0,0,0,0,0,0,-1,1210,1177,0,0
-7,-153,0,0,0,0,0,0,0,0,0,-1,1217,1177,0,0
0,-153,0,0,0,0,0,0,0,0,0,-1,1224,1177,0,0
7,-153,0,0,0,0,0,0,0,0,0,-1,1231,1177,0,0
14,-153,0,0,0,0,0,0,0,0,0,-1,1238,1177,0,0
21,-153,0,0,0,0,0,0,0,0,0,-1,1245,1177,0,0
28,-153,0,0,0,0,0,0,0,0,0,-1,1252,1177,0,0
35,-153,0,0,0,0,0,0,0,0,0,-1,1259,1177,0,0
42,-153,0,0,0,0,0,0,0,0,0,-1,1266,1177,0,0
49,-153,0,0,0,0,0,0,0,0,0,-1,1273,1177,0,0
56,-153,0,0,0,0,0,0,0,0,0,-1,1280,1177,0,0
63,-153,0,0,0,0,0,0,0,0,0,-1,1287,1177,0,0
70,-153,0,0,0,0,0,0,0,0,0,-1,1294,1177,0,0
77,-153,0,0,0,0,0,0,0,0,0,-1,1301,1177,0,0
84,-153,0,0,0,0,0,0,0,0,0,-1,1308,1177,0,0
91,-153,0,0,0,0,0,0,0,0,0,-1,1315,1177,0,0
98,-153,0,0,0,0,0,0,0,0,0,-1,1322,1177,0,0
105,-153,0,0,0,0,0,0,0,0,0,-1,1329,1177,0,0
112,-153,0,0,0,0,0,0,0,0,0,-1,1336,1177,0,0
119,-153,0,0,0,0,0,0,0,0,0,-1,1343,1177,0,0
126,-153,0,0,0,0,0,0,0,0,0,-1,1350,1177,0,0
133,-153,0,0,0,0,0,0,0,0,0,-1,1357,1177,0,0
140,-153,0,0,0,0,0,0,0,0,0,-1,1364,1177,0,0
147,-153,0,0,0,0,0,0,0,0,0,-1,1371,1177,0,0
154,-153,0,0,0,0,0,0,0,0,0,-1,1378,1177,0,0
161,-153,0,0,0,0,0,0,0,0,0,-1,1385,1177,0,0
168,-153,0,0,0,0,0,0,0,0,0,-1,1392,1177,0,0
175,-153,0,0,0,0,0,0,0,0,0,-1,1399,1177,0,0
182,-153,0,0,0,0,0,0,0,0,0,-1,1406,1177,0,0
189,-153,0,0,0,0,0,0,0,0,0,-1,1413,1177,0,0
196,-153,0,0,0,0,0,0,0,0,0,-1,1420,1177,0,0
203,-153,0,0,0,0,0,0,0,0,0,-1,1427,1177,0,0
210,-153,0,0,0,0,0,0,0,0,0,-1,1434,1177,0,0
217,-153,0,0,0,0,0,0,0,0,0,-1,1441,1177,0,0
224,-153,0,0,0,0,0,0,0,0,0,-1,1448,1177,0,0
231,-153,0,0,0,0,0,0,0,0,0,-1,1455,1177,0,0
238,-153,0,0,0,0,0,0,0,0,0,-1,1462,1177,0,0
245,-153,0,0,0,0,0,0,0,0,0,-1,1469,1177,0,0
252,-153,0,0,0,0,0,0,0,0,0,-1,1476,1177,0,0
259,-153,0,0,0,0,0,0,0,0,0,-1,1483,1177,0,0
266,-153,0,0,0,0,0,0,0,0,0,-1,1490,1177,0,0
273,-153,0,0,0,0,0,0,0,0,0,-1,1497,1177,0,0
280,-153,0,0,0,0,0,0,0,0,0,-1,1504,1177,0,0
287,-153,0,0,0,0,0,0,0,0,0,-1,1511,1177,0,0
294,-153,0,0,0,0,0,0,0,0,0,-1,1518,1177,0,0
301,-153,0,0,0,0,0,0,0,0,0,-1,1525,1177,0,0
308,-153,0,0,0,0,0,0,0,0,0,-1,1532,1177,0,0
315,-153,0,0,0,0,0,0,0,0,0,-1,1539,1177,0,0
322,-153,0,0,0,0,0,0,0,0,0,-1,1546,1177,0,0
329,-153,0,0,0,0,0,0,0,0,0,-1,1553,1177,0,0
336,-153,0,0,0,0,0,0,0,0,0,-1,1560,1177,0,0
343,-153,0,0,0,0,0,0,0,0,0,-1,1567,1177,0,0
350,-153,0,0,0,0,0,0,0,0,0,-1,1574,1177,0,0
357,-153,0,0,0,0,0,0,0,0,0,-1,1581,1177,0,0
364,-153,0,0,0,0,0,0,0,0,0,-1,1588,1177,0,0
371,-153,0,0,0,0,0,0,0,0,0,-1,1595,1177,0,0
378,-153,0,0,0,0,0,0,0,0,0,-1,1602,1177,0,0
385,-153,0,0,0,0,0,0,0,0,0,-1,1609,1177,0,0
392,-153,0,0,0,0,0,0,0,0,0,-1,1616,1177,0,0
399,-153,0,0,0,0,0,0,0,0,0,-1,1623,1177,0,0
406,-153,0,0,0,0,0,0,0,0,0,-1,1630,1177,0,0
413,-153,0,0,0,0,0,0,0,0,0,-1,1637,1177,0,0
420,-153,0,0,0,0,0,0,0,0,0,-1,1644,1177,0,0
427,-153,0,0,0,0,0,0,0,0,0,-1,1651,1177,0,0
434,-153,0,0,0,0,0,0,0,0,0,-1,1658,1177,0,0
441,-153,0,0,0,0,0,0,0,0,0,-1,1665,1177,0,0
448,-153,0,0,0,0,0,0,0,0,0,-1,1672,1177,0,0
455,-153,0,0,0,0,0,0,0,0,0,-1,1679,1177,0,0
462,-153,0,0,0,0,0,0,0,0,0,-1,1686,1177,0,0
469,-153,0,0,0,0,0,0,0,0,0,-1,1693,1177,0,0
476,-153,0,0,0,0,0,0,0,0,0,-1,1700,1177,0,0
483,-153,0,0,0,0,0,0,0,0,0,-1,1707,1177,0,0
490,-153,0,0,0,0,0,0,0,0,0,-1,1714,1177,0,0
497,-153,0,0,0,0,0,0,0,0,0,-1,1721,1177,0,0
504,-153,0,0,0,0,0,0,0,0,0,-1,1728,1177,0,0
511,-153,0,0,0,0,0,0,0,0,0,-1,1735,1177,0,0
518,-153,0,0,0,0,0,0,0,0,0,-1,1742,1177,0,0
525,-153,0,0,0,0,0,0,0,0,0,-1,1749,1177,0,0
532,-153,0,0,0,0,0,0,0,0,0,-1,1756,1177,0,0
539,-153,0,0,0,0,0,0,0,0,0,-1,1763,1177,0,0
546,-153,0,0,0,0,0,0,0,0,0,-1,1770,1177,0,0
553,-153,0,0,0,0,0,0,0,0,0,-1,1777,1177,0,0
560,-153,0,0,0,0,0,0,0,0,0,-1,1784,1177,0,0
567,-153,0,0,0,0,0,0,0,0,0,-1,1791,1177,0,0
574,-153,0,0,0,0,0,0,0,0,0,-1,1798,1177,0,0
581,-153,0,0,0,0,0,0,0,0,0,-1,1805,1177,0,0
588,-153,0,0,0,0,0,0,0,0,0,-1,1812,1177,0,0
595,-153,0,0,0,0,0,0,0,0,0,-1,1819,1177,0,0
602,-153,0,0,0,0,0,0,0,0,0,-1,1826,1177,0,0
609,-153,0,0,0,0,0,0,0,0,0,-1,1833,1177,0,0
616,-153,0,0,0,0,0,0,0,0,0,-1,1840,1177,0,0
623,-153,0,0,0,0,0,0,0,0,0,-1,1847,1177,0,0
630,-153,0,0,0,0,0,0,0,0,0,-1,1854,1177,0,0
637,-153,24.6387,2.62598,0.00143496,-0.00684523,0.00761867,0.00596576,-0.011376,0.536512,0.0101734,0.0385934,1861,1177,24.6387,-2.62595
644,-153,24.6395,2.69263,0.000970061,-0.00480394,0.00596552,0.00471044,-0.00854432,0.560036,0.00775862,0.03664,1868,1177,24.6395,-2.69257
651,-153,24.6875,2.72009,0.000747741,-0.00289998,0.00425158,0.00355015,-0.00570239,0.582778,0.00538991,0.0301563,1875,1177,24.6875,-2.72008
658,-153,24.7469,2.6825,0.000548994,-0.00142396,0.00286212,0.00258987,-0.00346484,0.61944,0.00350784,0.0340039,1882,1177,24.7469,-2.68252
665,-153,24.7704,2.72107,-0.00042715,-0.000718446,0.00241098,0.00184258,-0.00298818,0.75523,0.00281506,0.0364599,1889,1177,24.7703,-2.72103
672,-153,24.7612,2.73816,-0.00159447,-0.000467491,0.00240192,0.00143615,-0.00349812,0.900615,0.00293054,0.035262,1896,1177,24.7612,-2.73819
679,-153,24.6923,2.70398,-0.00279259,-0.000564061,0.00270188,0.0012443,-0.00460095,0.980975,0.0035554,0.0283263,1903,1177,24.6923,-2.70397
686,-153,24.7039,2.74622,-0.00378197,-0.000795752,0.00298328,0.0010472,-0.00562493,1.01742,0.00414337,0.0185163,1910,1177,24.7039,-2.74621
693,-153,24.7644,2.70984,-0.00457017,-0.000929801,0.00321922,0.000948184,-0.00644816,1.0427,0.00464719,0.029202,1917,1177,24.7644,-2.7098
700,-153,24.8606,2.62061,0,0,0,0,0,0,0,-1,1924,1177,24.8605,-2.62061
707,-153,22.4625,5.21814,0,0,0,0,0,0,0,-1,1931,1177,22.4625,-5.21813
714,-153,22.616,4.92432,-0.00624305,-0.00132729,0.00376273,0.000709193,-0.00827953,1.07472,0.00577063,0.0324619,1938,1177,22.616,-4.92431
721,-153,22.627,4.79858,-0.00620263,-0.00148348,0.00385705,0.000678499,-0.00836461,1.05991,0.00581578,0.0260129,1945,1177,22.6269,-4.79856
728,-153,22.7004,4.6571,-0.00566332,-0.00134701,0.00370775,0.000784948,-0.00779527,1.04896,0.00547728,0.0311061,1952,1177,22.7004,-4.65714
735,-153,22.4811,4.61523,-0.00475306,-0.000899262,0.00325112,0.000953089,-0.00660541,1.05291,0.00475326,0.0174292,1959,1177,22.4811,-4.61523
742,-153,22.4894,4.47363,-0.00356792,4.67312e-05,0.00262569,0.00142699,-0.00494817,1.08682,0.00386331,0.0151675,1966,1177,22.4894,-4.47363
749,-153,22.4792,4.31702,-0.00209993,0.00119109,0.00192217,0.00207588,-0.00298473,1.1394,0.00293741,0.0157089,1973,1177,22.4793,-4.31707
756,-153,22.4688,4.16077,-0.000269705,0.0027477,0.000986144,0.0030414,-0.000563408,1.28133,0.00223916,0.00998321,1980,1177,22.4688,-4.16075
763,-153,22.45,3.99731,0.00145108,0.00436659,0.000248219,0.00438758,0.0014301,1.48647,0.00258382,0.00967636,1987,1177,22.45,-3.99734
770,-153,22.4661,3.86694,0.00246716,0.00597068,2.66427e-05,0.00597088,0.00246696,1.56319,0.00346458,0.00984657,1994,1177,22.4661,-3.86699
777,-153,22.4348,3.74377,0.00277968,0.00768203,0.000274907,0.0076974,0.00276431,1.51495,0.00450251,0.0203194,2001,1177,22.4348,-3.74381
784,-153,22.4668,3.59155,0.00231736,0.00939903,0.00108471,0.00956145,0.00215494,1.42216,0.00579121,0.0411323,2008,1177,22.4668,-3.59158
791,-153,22.4786,3.50256,0.000712686,0.0110933,0.00256559,0.0116928,0.000113216,1.34126,0.00775774,0.0470391,2015,1177,22.4787,-3.5025
798,-153,22.3446,3.55945,-0.00240176,0.0124787,0.00512551,0.0140732,-0.00399635,1.26918,0.0109599,0.0496886,2022,1177,22.3446,-3.55941
805,-153,22.4805,3.72229,0,0,0,0,0,0,0,-1,2029,1177,22.4804,-3.72234
812,-153,0,0,0,0,0,0,0,0,0,-1,2036,1177,0,0
-700,-160,0,0,0,0,0,0,0,0,0,-1,524,1184,0,0
-693,-160,0,0,0,0,0,0,0,0,0,-1,531,1184,0,0
-686,-160,-13.4495,-0.393799,-0.0181059,0.0653375,-0.0271007,0.0733667,-0.0261351,-1.28276,0.0595657,0.0481662,538,1184,-13.4495,0.393812
-679,-160,-13.7036,-0.407349,-0.0184206,0.0599606,-0.0221107,0.0657677,-0.0242276,-1.31396,0.0537722,0.0493571,545,1184,-13.7036,0.407324
-672,-160,-14.2323,-0.369385,-0.0174746,0.0530561,-0.0180376,0.0574014,-0.0218198,-1.3344,0.0472511,0.0447333,552,1184,-14.2323,0.369407
-665,-160,-14.4862,-0.281006,-0.0156666,0.0456005,-0.0145972,0.0489006,-0.0189667,-1.34846,0.0404337,0.0437671,559,1184,-14.4862,0.281058
-658,-160,-14.5472,0.0509033,0,0,0,0,0,0,0,-1,566,1184,-14.5473,-0.0509492
-651,-160,-14.1146,0.911987,0,0,0,0,0,0,0,-1,573,1184,-14.1146,-0.911941
-644,-160,-14.0878,1.4176,-0.00823315,0.023805,-0.00709946,0.0253078,-0.00973586,-1.36221,0.0208877,0.0351389,580,1184,-14.0878,-1.41762
-637,-160,-14.2026,1.35034,-0.00596567,0.0176563,-0.0054069,0.0188351,-0.00714445,-1.35614,0.0154972,0.0142039,587,1184,-14.2025,-1.35038
-630,-160,-14.2578,1.49377,-0.00489546,0.0122451,-0.00393772,0.0131064,-0.0057568,-1.35545,0.0111628,0.00900053,594,1184,-14.2578,-1.49375
-623,-160,-14.2932,1.66394,-0.00340531,0.00732155,-0.00290936,0.00805983,-0.00414359,-1.32228,0.00716556,0.011271,601,1184,-14.2932,-1.66399
-616,-160,-14.2947,1.86084,-0.00218668,0.00354596,-0.00263224,0.00457123,-0.00321195,-1.19937,0.00451641,0.00981404,608,1184,-14.2947,-1.86088
-609,-160,-14.2559,2.08105,-0.0023616,0.00132784,-0.0031708,0.00315149,-0.00418525,-1.04886,0.00424986,0.0123106,615,1184,-14.2559,-2.08102
-602,-160,-14.2108,2.30383,-0.00282992,0.000156187,-0.0036461,0.00260309,-0.00527683,-0.97973,0.00463595,0.0214131,622,1184,-14.2108,-2.30389
-595,-160,-14.2686,2.52417,-0.00345521,-0.00056569,-0.00394081,0.00218685,-0.00620775,-0.961098,0.00502854,0.0277427,629,1184,-14.2686,-2.52411
-588,-160,-14.4072,2.63574,-0.00368554,-0.000970632,-0.00412469,0.00201423,-0.00667041,-0.944368,0.0052488,0.024929,636,1184,-14.4072,-2.63573
-581,-160,-14.2786,2.83643,-0.00353048,-0.00114909,-0.0041722,0.00199899,-0.00667856,-0.924397,0.0052472,0.0187331,643,1184,-14.2786,-2.83641
-574,-160,-14.9368,2.43127,0,0,0,0,0,0,0,-1,650,1184,-14.9368,-2.43125
-567,-160,-16.8037,0.894775,0,0,0,0,0,0,0,-1,657,1184,-16.8037,-0.894828
-560,-160,-16.8034,1.01343,-0.00274659,-0.00123614,-0.00374961,0.00183355,-0.00581628,-0.884775,0.00461184,0.0421789,664,1184,-16.8034,-1.01338
-553,-160,-16.728,0.850708,-0.00218429,-0.00118371,-0.00327314,0.00162715,-0.00499516,-0.861234,0.00398481,0.0376401,671,1184,-16.7279,-0.850737
-546,-160,-16.643,0.60376,-0.00137809,-0.00108823,-0.00246722,0.00123831,-0.00370463,-0.814735,0.00296987,0.0361074,678,1184,-16.643,-0.603799
-539,-160,-16.7657,0.65332,-0.000518608,-0.000906916,-0.00119493,0.000497838,-0.00192336,-0.704861,0.00147644,0.0409731,685,1184,-16.7657,-0.653353
-532,-160,-16.8179,0.797974,0.000521067,-0.000589728,0.000717752,0.000873213,-0.000941874,0.456118,0.00104819,0.0445729,692,1184,-16.818,-0.797989
-525,-160,-16.6498,0.890015,0.000766464,-0.000284379,0.00272742,0.00301861,-0.00253653,0.690242,0.00321129,0.0422736,699,1184,-16.6498,-0.890068
-518,-160,-16.5477,0.88916,-8.51865e-05,0.000377937,0.0044265,0.00457892,-0.00428617,0.811531,0.0051192,0.0422448,706,1184,-16.5477,-0.889216
-511,-160,0,0,0,0,0,0,0,0,0,-1,713,1184,0,0
-504,-160,0,0,0,0,0,0,0,0,0,-1,720,1184,0,0
-497,-160,0,0,0,0,0,0,0,0,0,-1,727,1184,0,0
-490,-160,0,0,0,0,0,0,0,0,0,-1,734,1184,0,0
-483,-160,0,0,0,0,0,0,0,0,0,-1,741,1184,0,0
-476,-160,0,0,0,0,0,0,0,0,0,-1,748,1184,0,0
-469,-160,0,0,0,0,0,0,0,0,0,-1,755,1184,0,0
-462,-160,0,0,0,0,0,0,0,0,0,-1,762,1184,0,0
-455,-160,0,0,0,0,0,0,0,0,0,-1,769,1184,0,0
-448,-160,0,0,0,0,0,0,0,0,0,-1,776,1184,0,0
-441,-160,0,0,0,0,0,0,0,0,0,-1,783,1184,0,0
-434,-160,0,0,0,0,0,0,0,0,0,-1,790,1184,0,0
-427,-160,0,0,0,0,0,0,0,0,0,-1,797,1184,0,0
-420,-160,0,0,0,0,0,0,0,0,0,-1,804,1184,0,0
-413,-160,0,0,0,0,0,0,0,0,0,-1,811,1184,0,0
-406,-160,0,0,0,0,0,0,0,0,0,-1,818,1184,0,0
-399,-160,0,0,0,0,0,0,0,0,0,-1,825,1184,0,0
-392,-160,0,0,0,0,0,0,0,0,0,-1,832,1184,0,0
-385,-160,0,0,0,0,0,0,0,0,0,-1,839,1184,0,0
-378,-160,0,0,0,0,0,0,0,0,0,-1,846,1184,0,0
-371,-160,0,0,0,0,0,0,0,0,0,-1,853,1184,0,0
-364,-160,0,0,0,0,0,0,0,0,0,-1,860,1184,0,0
-357,-160,0,0,0,0,0,0,0,0,0,-1,867,1184,0,0
-350,-160,0,0,0,0,0,0,0,0,0,-1,874,1184,0,0
-343,-160,0,0,0,0,0,0,0,0,0,-1,881,1184,0,0
-336,-160,0,0,0,0,0,0,0,0,0,-1,888,1184,0,0
-329,-160,0,0,0,0,0,0,0,0,0,-1,895,1184,0,0
-322,-160,0,0,0,0,0,0,0,0,0,-1,902,1184,0,0
-315,-160,0,0,0,0,0,0,0,0,0,-1,909,1184,0,0
-308,-160,0,0,0,0,0,0,0,0,0,-1,916,1184,0,0
-301,-160,0,0,0,0,0,0,0,0,0,-1,923,1184,0,0
-294,-160,0,0,0,0,0,0,0,0,0,-1,930,1184,0,0
-287,-160,0,0,0,0,0,0,0,0,0,-1,937,1184,0,0
-280,-160,0,0,0,0,0,0,0,0,0,-1,944,1184,0,0
-273,-160,0,0,0,0,0,0,0,0,0,-1,951,1184,0,0
-266,-160,0,0,0,0,0,0,0,0,0,-1,958,1184,0,0
-259,-160,0,0,0,0,0,0,0,0,0,-1,965,1184,0,0
-252,-160,0,0,0,0,0,0,0,0,0,-1,972,1184,0,0
-245,-160,0,0,0,0,0,0,0,0,0,-1,979,1184,0,0
-238,-160,0,0,0,0,0,0,0,0,0,-1,986,1184,0,0
-231,-160,0,0,0,0,0,0,0,0,0,-1,993,1184,0,0
-224,-160,0,0,0,0,0,0,0,0,0,-1,1000,1184,0,0
-217,-160,0,0,0,0,0,0,0,0,0,-1,1007,1184,0,0
-210,-160,0,0,0,0,0,0,0,0,0,-1,1014,1184,0,0
-203,-160,0,0,0,0,0,0,0,0,0,-1,1021,1184,0,0
-196,-160,0,0,0,0,0,0,0,0,0,-1,1028,1184,0,0
-189,-160,0,0,0,0,0,0,0,0,0,-1,1035,1184,0,0
-182,-160,0,0,0,0,0,0,0,0,0,-1,1042,1184,0,0
-175,-160,0,0,0,0,0,0,0,0,0,-1,1049,1184,0,0
-168,-160,0,0,0,0,0,0,0,0,0,-1,1056,1184,0,0
-161,-160,0,0,0,0,0,0,0,0,0,-1,1063,1184,0,0
-154,-160,0,0,0,0,0,0,0,0,0,-1,1070,1184,0,0
-147,-160,0,0,0,0,0,0,0,0,0,-1,1077,1184,0,0
-140,-160,0,0,0,0,0,0,0,0,0,-1,1084,1184,0,0
-133,-160,0,0,0,0,0,0,0,0,0,-1,1091,1184,0,0
-126,-160,0,0,0,0,0,0,0,0,0,-1,1098,1184,0,0
-119,-160,0,0,0,0,0,0,0,0,0,-1,1105,1184,0,0
-112,-160,0,0,0,0,0,0,0,0,0,-1,1112,1184,0,0
-105,-160,0,0,0,0,0,0,0,0,0,-1,1119,1184,0,0
-98,-160,0,0,0,0,0,0,0,0,0,-1,1126,1184,0,0
-91,-160,0,0,0,0,0,0,0,0,0,-1,1133,1184,0,0
-84,-160,0,0,0,0,0,0,0,0,0,-1,1140,1184,0,0
-77,-160,0,0,0,0,0,0,0,0,0,-1,1147,1184,0,0
-70,-160,0,0,0,0,0,0,0,0,0,-1,1154,1184,0,0
-63,-160,0,0,0,0,0,0,0,0,0,-1,1161,1184,0,0
-56,-160,0,0,0,0,0,0,0,0,0,-1,1168,1184,0,0
-49,-160,0,0,0,0,0,0,0,0,0,-1,1175,1184,0,0
-42,-160,0,0,0,0,0,0,0,0,0,-1,1182,1184,0,0
-35,-160,0,0,0,0,0,0,0,0,0,-1,1189,1184,0,0
-28,-160,0,0,0,0,0,0,0,0,0,-1,1196,1184,0,0
-21,-160,0,0,0,0,0,0,0,0,0,-1,1203,1184,0,0
-14,-160,0,0,0,0,0,0,0,0,0,-1,1210,1184,0,0
-7,-160,0,0,0,0,0,0,0,0,0,-1,1217,1184,0,0
0,-160,0,0,0,0,0,0,0,0,0,-1,1224,1184,0,0
7,-160,0,0,0,0,0,0,0,0,0,-1,1231,1184,0,0
14,-160,0,0,0,0,0,0,0,0,0,-1,1238,1184,0,0
21,-160,0,0,0,0,0,0,0,0,0,-1,1245,1184,0,0
28,-160,0,0,0,0,0,0,0,0,0,-1,1252,1184,0,0
35,-160,0,0,0,0,0,0,0,0,0,-1,1259,1184,0,0
42,-160,0,0,0,0,0,0,0,0,0,-1,1266,1184,0,0
49,-160,0,0,0,0,0,0,0,0,0,-1,1273,1184,0,0
56,-160,0,0,0,0,0,0,0,0,0,-1,1280,1184,0,0
63,-160,0,0,0,0,0,0,0,0,0,-1,1287,1184,0,0
70,-160,0,0,0,0,0,0,0,0,0,-1,1294,1184,0,0
77,-160,0,0,0,0,0,0,0,0,0,-1,1301,1184,0,0
84,-160,0,0,0,0,0,0,0,0,0,-1,1308,1184,0,0
91,-160,0,0,0,0,0,0,0,0,0,-1,1315,1184,0,0
98,-160,0,0,0,0,0,0,0,0,0,-1,1322,1184,0,0
105,-160,0,0,0,0,0,0,0,0,0,-1,1329,1184,0,0
112,-160,0,0,0,0,0,0,0,0,0,-1,1336,1184,0,0
119,-160,0,0,0,0,0,0,0,0,0,-1,1343,1184,0,0
126,-160,0,0,0,0,0,0,0,0,0,-1,1350,1184,0,0
133,-160,0,0,0,0,0,0,0,0,0,-1,1357,1184,0,0
140,-160,0,0,0,0,0,0,0,0,0,-1,1364,1184,0,0
147,-160,0,0,0,0,0,0,0,0,0,-1,1371,1184,0,0
154,-160,0,0,0,0,0,0,0,0,0,-1,1378,1184,0,0
161,-160,0,0,0,0,0,0,0,0,0,-1,1385,1184,0,0
168,-160,0,0,0,0,0,0,0,0,0,-1,1392,1184,0,0
175,-160,0,0,0,0,0,0,0,0,0,-1,1399,1184,0,0
182,-160,0,0,0,0,0,0,0,0,0,-1,1406,1184,0,0
189,-160,0,0,0,0,0,0,0,0,0,-1,1413,1184,0,0
196,-160,0,0,0,0,0,0,0,0,0,-1,1420,1184,0,0
203,-160,0,0,0,0,0,0,0,0,0,-1,1427,1184,0,0
210,-160,0,0,0,0,0,0,0,0,0,-1,1434,1184,0,0
217,-160,0,0,0,0,0,0,0,0,0,-1,1441,1184,0,0
224,-160,0,0,0,0,0,0,0,0,0,-1,1448,1184,0,0
231,-160,0,0,0,0,0,0,0,0,0,-1,1455,1184,0,0
238,-160,0,0,0,0,0,0,0,0,0,-1,1462,1184,0,0
245,-160,0,0,0,0,0,0,0,0,0,-1,1469,1184,0,0
252,-160,0,0,0,0,0,0,0,0,0,-1,1476,1184,0,0
259,-160,0,0,0,0,0,0,0,0,0,-1,1483,1184,0,0
266,-160,0,0,0,0,0,0,0,0,0,-1,1490,1184,0,0
273,-160,0,0,0,0,0,0,0,0,0,-1,1497,1184,0,0
280,-160,0,0,0,0,0,0,0,0,0,-1,1504,1184,0,0
287,-160,0,0,0,0,0,0,0,0,0,-1,1511,1184,0,0
294,-160,0,0,0,0,0,0,0,0,0,-1,1518,1184,0,0
301,-160,0,0,0,0,0,0,0,0,0,-1,1525,1184,0,0
308,-160,0,0,0,0,0,0,0,0,0,-1,1532,1184,0,0
315,-160,0,0,0,0,0,0,0,0,0,-1,1539,1184,0,0
322,-160,0,0,0,0,0,0,0,0,0,-1,1546,1184,0,0
329,-160,0,0,0,0,0,0,0,0,0,-1,1553,1184,0,0
336,-160,0,0,0,0,0,0,0,0,0,-1,1560,1184,0,0
343,-160,0,0,0,0,0,0,0,0,0,-1,1567,1184,0,0
350,-160,0,0,0,0,0,0,0,0,0,-1,1574,1184,0,0
357,-160,0,0,0,0,0,0,0,0,0,-1,1581,1184,0,0
364,-160,0,0,0,0,0,0,0,0,0,-1,1588,1184,0,0
371,-160,0,0,0,0,0,0,0,0,0,-1,1595,1184,0,0
378,-160,0,0,0,0,0,0,0,0,0,-1,1602,1184,0,0
385,-160,0,0,0,0,0,0,0,0,0,-1,1609,1184,0,0
392,-160,0,0,0,0,0,0,0,0,0,-1,1616,1184,0,0
399,-160,0,0,0,0,0,0,0,0,0,-1,1623,1184,0,0
406,-160,0,0,0,0,0,0,0,0,0,-1,1630,1184,0,0
413,-160,0,0,0,0,0,0,0,0,0,-1,1637,1184,0,0
420,-160,0,0,0,0,0,0,0,0,0,-1,1644,1184,0,0
427,-160,0,0,0,0,0,0,0,0,0,-1,1651,1184,0,0
434,-160,0,0,0,0,0,0,0,0,0,-1,1658,1184,0,0
441,-160,0,0,0,0,0,0,0,0,0,-1,1665,1184,0,0
448,-160,0,0,0,0,0,0,0,0,0,-1,1672,1184,0,0
455,-160,0,0,0,0,0,0,0,0,0,-1,1679,1184,0,0
462,-160,0,0,0,0,0,0,0,0,0,-1,1686,1184,0,0
469,-160,0,0,0,0,0,0,0,0,0,-1,1693,1184,0,0
476,-160,0,0,0,0,0,0,0,0,0,-1,1700,1184,0,0
483,-160,0,0,0,0,0,0,0,0,0,-1,1707,1184,0,0
490,-160,0,0,0,0,0,0,0,0,0,-1,1714,1184,0,0
497,-160,0,0,0,0,0,0,0,0,0,-1,1721,1184,0,0
504,-160,0,0,0,0,0,0,0,0,0,-1,1728,1184,0,0
511,-160,0,0,0,0,0,0,0,0,0,-1,1735,1184,0,0
518,-160,0,0,0,0,0,0,0,0,0,-1,1742,1184,0,0
525,-160,0,0,0,0,0,0,0,0,0,-1,1749,1184,0,0
532,-160,0,0,0,0,0,0,0,0,0,-1,1756,1184,0,0
539,-160,0,0,0,0,0,0,0,0,0,-1,1763,1184,0,0
546,-160,0,0,0,0,0,0,0,0,0,-1,1770,1184,0,0
553,-160,0,0,0,0,0,0,0,0,0,-1,1777,1184,0,0
560,-160,0,0,0,0,0,0,0,0,0,-1,1784,1184,0,0
567,-160,0,0,0,0,0,0,0,0,0,-1,1791,1184,0,0
574,-160,0,0,0,0,0,0,0,0,0,-1,1798,1184,0,0
581,-160,0,0,0,0,0,0,0,0,0,-1,1805,1184,0,0
588,-160,0,0,0,0,0,0,0,0,0,-1,1812,1184,0,0
595,-160,0,0,0,0,0,0,0,0,0,-1,1819,1184,0,0
602,-160,0,0,0,0,0,0,0,0,0,-1,1826,1184,0,0
609,-160,0,0,0,0,0,0,0,0,0,-1,1833,1184,0,0
616,-160,0,0,0,0,0,0,0,0,0,-1,1840,1184,0,0
623,-160,0,0,0,0,0,0,0,0,0,-1,1847,1184,0,0
630,-160,0,0,0,0,0,0,0,0,0,-1,1854,1184,0,0
637,-160,24.6636,2.79248,0.000680494,-0.00640176,0.00655143,0.00458657,-0.0103078,0.537633,0.00880822,0.0409908,1861,1184,24.6635,-2.79253
644,-160,24.5999,2.81628,0.000546737,-0.0045122,0.00488845,0.00352138,-0.00748684,0.546648,0.00649159,0.041288,1868,1184,24.5999,-2.81629
651,-160,24.6816,2.7832,0.000575083,-0.00263934,0.00323069,0.00257627,-0.00464052,0.554583,0.00422305,0.0392852,1875,1184,24.6816,-2.78318
658,-160,24.6508,2.604,0.000469199,-0.00125134,0.00205531,0.00183702,-0.00261915,0.587197,0.00258595,0.040678,1882,1184,24.6507,-2.60395
665,-160,24.7253,2.58923,-0.000262878,-0.000590242,0.00168107,0.00126246,-0.00211558,0.736867,0.00197093,0.0379073,1889,1184,24.7254,-2.58918
672,-160,24.7052,2.68494,-0.00114921,-0.000360611,0.00166099,0.00095224,-0.00246206,0.901935,0.00203448,0.0320674,1896,1184,24.7052,-2.68488
679,-160,24.7001,2.71387,-0.00213102,-0.000458865,0.00194832,0.000825193,-0.00341508,0.988079,0.00259588,0.0264627,1903,1184,24.7001,-2.71384
686,-160,24.7273,2.72119,-0.00293854,-0.0006795,0.00218704,0.000652474,-0.00427052,1.02376,0.00308757,0.0175122,1910,1184,24.7273,-2.72119
693,-160,24.7032,2.69983,-0.00361038,-0.000804115,0.00238374,0.000558796,-0.00497329,1.05141,0.00351662,0.0459725,1917,1184,24.7033,-2.69978
700,-160,23.4779,4.35999,0,0,0,0,0,0,0,-1,1924,1184,23.478,-4.36002
707,-160,22.476,5.50684,0,0,0,0,0,0,0,-1,1931,1184,22.476,-5.50681
714,-160,22.5078,5.06458,-0.00510646,-0.00113173,0.00295813,0.00044463,-0.00668283,1.08118,0.00461058,0.0424904,1938,1184,22.5079,-5.06453
721,-160,22.5168,4.73083,-0.00507181,-0.00129311,0.00304414,0.000400333,-0.00676526,1.06313,0.00464936,0.020457,1945,1184,22.5168,-4.73086
728,-160,22.4991,4.68384,-0.00453132,-0.00116224,0.00289125,0.000499415,-0.00619297,1.04917,0.00430479,0.0181096,1952,1184,22.4991,-4.68386
735,-160,22.3506,4.599,-0.00356712,-0.000689485,0.00241926,0.000686485,-0.00494309,1.05367,0.00354644,0.0148424,1959,1184,22.3506,-4.59897
742,-160,22.3438,4.4165,-0.00220914,0.000317718,0.00176607,0.00122575,-0.00311718,1.09589,0.00258544,0.0160232,1966,1184,22.3437,-4.41647
749,-160,22.3375,4.24512,-0.000517262,0.00152331,0.00106388,0.00197708,-0.000971027,1.16764,0.00173481,0.0170772,1973,1184,22.3375,-4.24508
756,-160,22.3247,4.1311,0.0016572,0.00312965,0.000129329,0.00314093,0.00164593,1.48385,0.00181411,0.0104041,1980,1184,22.3247,-4.13106
763,-160,22.3165,3.99536,0.00384321,0.00479342,-0.000638544,0.00511422,0.00352241,-1.10524,0.00302201,0.0102277,1987,1184,22.3165,-3.99531
770,-160,22.3026,3.85413,0.00563643,0.00649874,-0.001026,0.00718049,0.00495467,-0.98431,0.00424428,0.016872,1994,1184,22.3026,-3.85412
777,-160,22.1786,3.65295,0.00709122,0.00835216,-0.00109617,0.00898624,0.00645714,-1.04637,0.00535088,0.0319802,2001,1184,22.1786,-3.65299
784,-160,22.3701,3.5498,0.00799671,0.0102088,-0.000640908,0.0103811,0.00782444,-1.30821,0.00624544,0.0437817,2008,1184,22.3701,-3.54978
791,-160,22.5068,3.4137,0.00806397,0.0120531,0.000417517,0.0120963,0.00802074,1.46762,0.00710655,0.0476454,2015,1184,22.5068,-3.41371
798,-160,22.0917,3.59631,0.0069563,0.0135691,0.00248512,0.0143988,0.00612651,1.24853,0.00834389,0.047921,2022,1184,22.0917,-3.59626
805,-160,22.5605,3.67383,0,0,0,0,0,0,0,-1,2029,1184,22.5606,-3.67388
812,-160,0,0,0,0,0,0,0,0,0,-1,2036,1184,0,0
-700,-167,0,0,0,0,0,0,0,0,0,-1,524,1191,0,0
-693,-167,0,0,0,0,0,0,0,0,0,-1,531,1191,0,0
-686,-167,-13.0975,-0.742065,-0.0420865,0.0640356,-0.0289826,0.071435,-0.0494859,-1.32083,0.070196,0.0457088,538,1191,-13.0975,0.742094
-679,-167,-13.3447,-0.749756,-0.0383587,0.0599774,-0.0238728,0.0654666,-0.0438478,-1.34479,0.0635228,0.045588,545,1191,-13.3447,0.749695
-672,-167,-14.0973,-0.767212,-0.0335989,0.053902,-0.0196669,0.0581192,-0.037816,-1.35957,0.0558001,0.0472571,552,1191,-14.0973,0.767159
-665,-167,-14.4007,-0.612793,-0.028318,0.0469449,-0.016057,0.0502275,-0.0316006,-1.36915,0.0476497,0.0463834,559,1191,-14.4007,0.612784
-658,-167,-14.4926,1.30627,0,0,0,0,0,0,0,-1,566,1191,-14.4926,-1.30626
-651,-167,-14.168,1.33289,-0.0178309,0.0323836,-0.0102592,0.0343987,-0.019846,-1.37684,0.0316917,0.0498145,573,1191,-14.1679,-1.33294
-644,-167,-13.8902,1.43665,-0.0132831,0.0254388,-0.00797609,0.0270174,-0.0148617,-1.37541,0.0245161,0.0383146,580,1191,-13.8902,-1.43661
-637,-167,-14.0219,1.35278,-0.00942326,0.0191097,-0.00609208,0.020356,-0.0106695,-1.36901,0.0182013,0.0163444,587,1191,-14.0218,-1.35277
-630,-167,-14.0641,1.49731,-0.00695702,0.0135938,-0.00444507,0.0145141,-0.00787727,-1.36665,0.0131156,0.00856005,594,1191,-14.0641,-1.4973
-623,-167,-14.0712,1.65576,-0.00439945,0.00849238,-0.00322216,0.00925286,-0.00515993,-1.33902,0.00843233,0.0108815,601,1191,-14.0712,-1.65574
-616,-167,-14.0804,1.86035,-0.00256216,0.00433574,-0.00277992,0.0053166,-0.00354302,-1.2316,0.00514916,0.0139964,608,1191,-14.0805,-1.86039
-609,-167,-14.0922,2.07129,-0.0025923,0.00177336,-0.00323176,0.00349041,-0.00430935,-1.08242,0.00451146,0.01356,615,1191,-14.0922,-2.07133
-602,-167,-14.0981,2.22876,-0.00307995,0.0003757,-0.00365423,0.00269,-0.00539425,-1.00624,0.00475369,0.0147076,622,1191,-14.0981,-2.2288
-595,-167,-14.081,2.45789,-0.00379217,-0.000466741,-0.00390974,0.00211915,-0.00637807,-0.98645,0.00510715,0.022416,629,1191,-14.081,-2.45793
-588,-167,-14.1038,2.68921,-0.00405208,-0.00102007,-0.00409379,0.0018294,-0.00690156,-0.962728,0.0053168,0.0224576,636,1191,-14.1038,-2.68925
-581,-167,-14.1,2.797,-0.00387041,-0.0012911,-0.00417588,0.00178974,-0.00695124,-0.935169,0.00533183,0.0239508,643,1191,-14.1001,-2.79696
-574,-167,-14.3162,3.15112,0,0,0,0,0,0,0,-1,650,1191,-14.3162,-3.15113
-567,-167,-17.0576,1.44617,0,0,0,0,0,0,0,-1,657,1191,-17.0576,-1.44621
-560,-167,-16.8516,1.09009,-0.00300494,-0.00159965,-0.00381112,0.00157305,-0.00617765,-0.876558,0.00473078,0.0411418,664,1191,-16.8516,-1.09009
-553,-167,-16.6346,0.728027,-0.00240779,-0.0015901,-0.00339452,0.00142011,-0.005418,-0.845331,0.00416683,0.0386061,671,1191,-16.6346,-0.728042
-546,-167,-16.7216,0.722412,-0.0015249,-0.00154576,-0.00268465,0.00114934,-0.00422,-0.783456,0.0032646,0.0330938,678,1191,-16.7216,-0.722395
-539,-167,-16.7081,0.665527,-0.000530493,-0.00135943,-0.00156407,0.000673092,-0.00256301,-0.655879,0.00197171,0.0367524,685,1191,-16.7081,-0.665555
-532,-167,-16.5591,0.594604,0.00066052,-0.00093092,0.000125483,0.000670353,-0.000940754,0.0782045,0.00093453,0.0409355,692,1191,-16.5591,-0.59462
-525,-167,-16.3953,0.65625,0.00142567,-0.000226749,0.00210285,0.0028588,-0.00165988,0.598212,0.00263929,0.0417938,699,1191,-16.3953,-0.65631
-518,-167,-16.3563,0.863403,0.000910854,0.000970001,0.003808,0.00474855,-0.00286769,0.789281,0.00444171,0.0446652,706,1191,-16.3563,-0.863343
-511,-167,0,0,0,0,0,0,0,0,0,-1,713,1191,0,0
-504,-167,0,0,0,0,0,0,0,0,0,-1,720,1191,0,0
-497,-167,0,0,0,0,0,0,0,0,0,-1,727,1191,0,0
-490,-167,0,0,0,0,0,0,0,0,0,-1,734,1191,0,0
-483,-167,0,0,0,0,0,0,0,0,0,-1,741,1191,0,0
-476,-167,0,0,0,0,0,0,0,0,0,-1,748,1191,0,0
-469,-167,0,0,0,0,0,0,0,0,0,-1,755,1191,0,0
-462,-167,0,0,0,0,0,0,0,0,0,-1,762,1191,0,0
-455,-167,0,0,0,0,0,0,0,0,0,-1,769,1191,0,0
-448,-167,0,0,0,0,0,0,0,0,0,-1,776,1191,0,0
-441,-167,0,0,0,0,0,0,0,0,0,-1,783,1191,0,0
-434,-167,0,0,0,0,0,0,0,0,0,-1,790,1191,0,0
-427,-167,0,0,0,0,0,0,0,0,0,-1,797,1191,0,0
-420,-167,0,0,0,0,0,0,0,0,0,-1,804,1191,0,0
-413,-167,0,0,0,0,0,0,0,0,0,-1,811,1191,0,0
-406,-167,0,0,0,0,0,0,0,0,0,-1,818,1191,0,0
-399,-167,0,0,0,0,0,0,0,0,0,-1,825,1191,0,0
-392,-167,0,0,0,0,0,0,0,0,0,-1,832,1191,0,0
-385,-167,0,0,0,0,0,0,0,0,0,-1,839,1191,0,0
-378,-167,0,0,0,0,0,0,0,0,0,-1,846,1191,0,0
-371,-167,0,0,0,0,0,0,0,0,0,-1,853,1191,0,0
-364,-167,0,0,0,0,0,0,0,0,0,-1,860,1191,0,0
-357,-167,0,0,0,0,0,0,0,0,0,-1,867,1191,0,0
-350,-167,0,0,0,0,0,0,0,0,0,-1,874,1191,0,0
-343,-167,0,0,0,0,0,0,0,0,0,-1,881,1191,0,0
-336,-167,0,0,0,0,0,0,0,0,0,-1,888,1191,0,0
-329,-167,0,0,0,0,0,0,0,0,0,-1,895,1191,0,0
-322,-167,0,0,0,0,0,0,0,0,0,-1,902,1191,0,0
-315,-167,0,0,0,0,0,0,0,0,0,-1,909,1191,0,0
-308,-167,0,0,0,0,0,0,0,0,0,-1,916,1191,0,0
-301,-167,0,0,0,0,0,0,0,0,0,-1,923,1191,0,0
-294,-167,0,0,0,0,0,0,0,0,0,-1,930,1191,0,0
-287,-167,0,0,0,0,0,0,0,0,0,-1,937,1191,0,0
-280,-167,0,0,0,0,0,0,0,0,0,-1,944,1191,0,0
-273,-167,0,0,0,0,0,0,0,0,0,-1,951,1191,0,0
-266,-167,0,0,0,0,0,0,0,0,0,-1,958,1191,0,0
-259,-167,0,0,0,0,0,0,0,0,0,-1,965,1191,0,0
-252,-167,0,0,0,0,0,0,0,0,0,-1,972,1191,0,0
-245,-167,0,0,0,0,0,0,0,0,0,-1,979,1191,0,0
-238,-167,0,0,0,0,0,0,0,0,0,-1,986,1191,0,0
-231,-167,0,0,0,0,0,0,0,0,0,-1,993,1191,0,0
-224,-167,0,0,0,0,0,0,0,0,0,-1,1000,1191,0,0
-217,-167,0,0,0,0,0,0,0,0,0,-1,1007,1191,0,0
-210,-167,0,0,0,0,0,0,0,0,0,-1,1014,1191,0,0
-203,-167,0,0,0,0,0,0,0,0,0,-1,1021,1191,0,0
-196,-167,0,0,0,0,0,0,0,0,0,-1,1028,1191,0,0
-189,-167,0,0,0,0,0,0,0,0,0,-1,1035,1191,0,0
-182,-167,0,0,0,0,0,0,0,0,0,-1,1042,1191,0,0
-175,-167,0,0,0,0,0,0,0,0,0,-1,1049,1191,0,0
-168,-167,0,0,0,0,0,0,0,0,0,-1,1056,1191,0,0
-161,-167,0,0,0,0,0,0,0,0,0,-1,1063,1191,0,0
-154,-167,0,0,0,0,0,0,0,0,0,-1,1070,1191,0,0
-147,-167,0,0,0,0,0,0,0,0,0,-1,1077,1191,0,0
-140,-167,0,0,0,0,0,0,0,0,0,-1,1084,1191,0,0
-133,-167,0,0,0,0,0,0,0,0,0,-1,1091,1191,0,0
-126,-167,0,0,0,0,0,0,0,0,0,-1,1098,1191,0,0
-119,-167,0,0,0,0,0,0,0,0,0,-1,1105,1191,0,0
-112,-167,0,0,0,0,0,0,0,0,0,-1,1112,1191,0,0
-105,-167,0,0,0,0,0,0,0,0,0,-1,1119,1191,0,0
-98,-167,0,0,0,0,0,0,0,0,0,-1,1126,1191,0,0
-91,-167,0,0,0,0,0,0,0,0,0,-1,1133,1191,0,0
-84,-167,0,0,0,0,0,0,0,0,0,-1,1140,1191,0,0
-77,-167,0,0,0,0,0,0,0,0,0,-1,1147,1191,0,0
-70,-167,0,0,0,0,0,0,0,0,0,-1,1154,1191,0,0
-63,-167,0,0,0,0,0,0,0,0,0,-1,1161,1191,0,0
-56,-167,0,0,0,0,0,0,0,0,0,-1,1168,1191,0,0
-49,-167,0,0,0,0,0,0,0,0,0,-1,1175,1191,0,0
-42,-167,0,0,0,0,0,0,0,0,0,-1,1182,1191,0,0
-35,-167,0,0,0,0,0,0,0,0,0,-1,1189,1191,0,0
-28,-167,0,0,0,0,0,0,0,0,0,-1,1196,1191,0,0
-21,-167,0,0,0,0,0,0,0,0,0,-1,1203,1191,0,0
-14,-167,0,0,0,0,0,0,0,0,0,-1,1210,1191,0,0
-7,-167,0,0,0,0,0,0,0,0,0,-1,1217,1191,0,0
0,-167,0,0,0,0,0,0,0,0,0,-1,1224,1191,0,0
7,-167,0,0,0,0,0,0,0,0,0,-1,1231,1191,0,0
14,-167,0,0,0,0,0,0,0,0,0,-1,1238,1191,0,0
21,-167,0,0,0,0,0,0,0,0,0,-1,1245,1191,0,0
28,-167,0,0,0,0,0,0,0,0,0,-1,1252,1191,0,0
35,-167,0,0,0,0,0,0,0,0,0,-1,1259,1191,0,0
42,-167,0,0,0,0,0,0,0,0,0,-1,1266,1191,0,0
49,-167,0,0,0,0,0,0,0,0,0,-1,1273,1191,0,0
56,-167,0,0,0,0,0,0,0,0,0,-1,1280,1191,0,0
63,-167,0,0,0,0,0,0,0,0,0,-1,1287,1191,0,0
70,-167,0,0,0,0,0,0,0,0,0,-1,1294,1191,0,0
77,-167,0,0,0,0,0,0,0,0,0,-1,1301,1191,0,0
84,-167,0,0,0,0,0,0,0,0,0,-1,1308,1191,0,0
91,-167,0,0,0,0,0,0,0,0,0,-1,1315,1191,0,0
98,-167,0,0,0,0,0,0,0,0,0,-1,1322,1191,0,0
105,-167,0,0,0,0,0,0,0,0,0,-1,1329,1191,0,0
112,-167,0,0,0,0,0,0,0,0,0,-1,1336,1191,0,0
119,-167,0,0,0,0,0,0,0,0,0,-1,1343,1191,0,0
126,-167,0,0,0,0,0,0,0,0,0,-1,1350,1191,0,0
133,-167,0,0,0,0,0,0,0,0,0,-1,1357,1191,0,0
140,-167,0,0,0,0,0,0,0,0,0,-1,1364,1191,0,0
147,-167,0,0,0,0,0,0,0,0,0,-1,1371,1191,0,0
154,-167,0,0,0,0,0,0,0,0,0,-1,1378,1191,0,0
161,-167,0,0,0,0,0,0,0,0,0,-1,1385,1191,0,0
168,-167,0,0,0,0,0,0,0,0,0,-1,1392,1191,0,0
175,-167,0,0,0,0,0,0,0,0,0,-1,1399,1191,0,0
182,-167,0,0,0,0,0,0,0,0,0,-1,1406,1191,0,0
189,-167,0,0,0,0,0,0,0,0,0,-1,1413,1191,0,0
196,-167,0,0,0,0,0,0,0,0,0,-1,1420,1191,0,0
203,-167,0,0,0,0,0,0,0,0,0,-1,1427,1191,0,0
210,-167,0,0,0,0,0,0,0,0,0,-1,1434,1191,0,0
217,-167,0,0,0,0,0,0,0,0,0,-1,1441,1191,0,0
224,-167,0,0,0,0,0,0,0,0,0,-1,1448,1191,0,0
231,-167,0,0,0,0,0,0,0,0,0,-1,1455,1191,0,0
238,-167,0,0,0,0,0,0,0,0,0,-1,1462,1191,0,0
245,-167,0,0,0,0,0,0,0,0,0,-1,1469,1191,0,0
252,-167,0,0,0,0,0,0,0,0,0,-1,1476,1191,0,0
259,-167,0,0,0,0,0,0,0,0,0,-1,1483,1191,0,0
266,-167,0,0,0,0,0,0,0,0,0,-1,1490,1191,0,0
273,-167,0,0,0,0,0,0,0,0,0,-1,1497,1191,0,0
280,-167,0,0,0,0,0,0,0,0,0,-1,1504,1191,0,0
287,-167,0,0,0,0,0,0,0,0,0,-1,1511,1191,0,0
294,-167,0,0,0,0,0,0,0,0,0,-1,1518,1191,0,0
301,-167,0,0,0,0,0,0,0,0,0,-1,1525,1191,0,0
308,-167,0,0,0,0,0,0,0,0,0,-1,1532,1191,0,0
315,-167,0,0,0,0,0,0,0,0,0,-1,1539,1191,0,0
322,-167,0,0,0,0,0,0,0,0,0,-1,1546,1191,0,0
329,-167,0,0,0,0,0,0,0,0,0,-1,1553,1191,0,0
336,-167,0,0,0,0,0,0,0,0,0,-1,1560,1191,0,0
343,-167,0,0,0,0,0,0,0,0,0,-1,1567,1191,0,0
350,-167,0,0,0,0,0,0,0,0,0,-1,1574,1191,0,0
357,-167,0,0,0,0,0,0,0,0,0,-1,1581,1191,0,0
364,-167,0,0,0,0,0,0,0,0,0,-1,1588,1191,0,0
371,-167,0,0,0,0,0,0,0,0,0,-1,1595,1191,0,0
378,-167,0,0,0,0,0,0,0,0,0,-1,1602,1191,0,0
385,-167,0,0,0,0,0,0,0,0,0,-1,1609,1191,0,0
392,-167,0,0,0,0,0,0,0,0,0,-1,1616,1191,0,0
399,-167,0,0,0,0,0,0,0,0,0,-1,1623,1191,0,0
406,-167,0,0,0,0,0,0,0,0,0,-1,1630,1191,0,0
413,-167,0,0,0,0,0,0,0,0,0,-1,1637,1191,0,0
420,-167,0,0,0,0,0,0,0,0,0,-1,1644,1191,0,0
427,-167,0,0,0,0,0,0,0,0,0,-1,1651,1191,0,0
434,-167,0,0,0,0,0,0,0,0,0,-1,1658,1191,0,0
441,-167,0,0,0,0,0,0,0,0,0,-1,1665,1191,0,0
448,-167,0,0,0,0,0,0,0,0,0,-1,1672,1191,0,0
455,-167,0,0,0,0,0,0,0,0,0,-1,1679,1191,0,0
462,-167,0,0,0,0,0,0,0,0,0,-1,1686,1191,0,0
469,-167,0,0,0,0,0,0,0,0,0,-1,1693,1191,0,0
476,-167,0,0,0,0,0,0,0,0,0,-1,1700,1191,0,0
483,-167,0,0,0,0,0,0,0,0,0,-1,1707,1191,0,0
490,-167,0,0,0,0,0,0,0,0,0,-1,1714,1191,0,0
497,-167,0,0,0,0,0,0,0,0,0,-1,1721,1191,0,0
504,-167,0,0,0,0,0,0,0,0,0,-1,1728,1191,0,0
511,-167,0,0,0,0,0,0,0,0,0,-1,1735,1191,0,0
518,-167,0,0,0,0,0,0,0,0,0,-1,1742,1191,0,0
525,-167,0,0,0,0,0,0,0,0,0,-1,1749,1191,0,0
532,-167,0,0,0,0,0,0,0,0,0,-1,1756,1191,0,0
539,-167,0,0,0,0,0,0,0,0,0,-1,1763,1191,0,0
546,-167,0,0,0,0,0,0,0,0,0,-1,1770,1191,0,0
553,-167,0,0,0,0,0,0,0,0,0,-1,1777,1191,0,0
560,-167,0,0,0,0,0,0,0,0,0,-1,1784,1191,0,0
567,-167,0,0,0,0,0,0,0,0,0,-1,1791,1191,0,0
574,-167,0,0,0,0,0,0,0,0,0,-1,1798,1191,0,0
581,-167,0,0,0,0,0,0,0,0,0,-1,1805,1191,0,0
588,-167,0,0,0,0,0,0,0,0,0,-1,1812,1191,0,0
595,-167,0,0,0,0,0,0,0,0,0,-1,1819,1191,0,0
602,-167,0,0,0,0,0,0,0,0,0,-1,1826,1191,0,0
609,-167,0,0,0,0,0,0,0,0,0,-1,1833,1191,0,0
616,-167,0,0,0,0,0,0,0,0,0,-1,1840,1191,0,0
623,-167,0,0,0,0,0,0,0,0,0,-1,1847,1191,0,0
630,-167,0,0,0,0,0,0,0,0,0,-1,1854,1191,0,0
637,-167,24.7432,2.98474,0.000176326,-0.00577373,0.0056244,0.00356405,-0.00916145,0.542129,0.00758028,0.0397435,1861,1191,24.7431,-2.98474
644,-167,24.8452,3.08801,0.000382287,-0.00411281,0.00384854,0.0025915,-0.00632202,0.521112,0.00529433,0.0412727,1868,1191,24.8453,-3.08797
651,-167,24.7433,3.26868,0.000670603,-0.00241246,0.0022121,0.00182531,-0.00356717,0.481089,0.00316703,0.041154,1875,1191,24.7432,-3.26872
658,-167,24.7167,3.15381,0.000677975,-0.00123399,0.00119541,0.00125265,-0.00180866,0.448116,0.00177714,0.0437275,1882,1191,24.7167,-3.15375
665,-167,24.7532,2.83655,0.000172309,-0.000674275,0.000870994,0.000717421,-0.00121939,0.559211,0.00113067,0.0379082,1889,1191,24.7532,-2.83657
672,-167,24.6879,2.76575,-0.000507963,-0.000490794,0.00086572,0.000366384,-0.00136514,0.790356,0.00105367,0.0270151,1896,1191,24.6879,-2.76577
679,-167,24.6675,2.73425,-0.00134206,-0.000578989,0.00115984,0.00026046,-0.00218151,0.944301,0.00154848,0.0217262,1903,1191,24.6674,-2.73422
686,-167,24.6836,2.72729,-0.00203171,-0.000759625,0.00138653,0.000129785,-0.00292112,1.00044,0.00199208,0.0310072,1910,1191,24.6836,-2.72725
693,-167,24.4396,3.34521,0,0,0,0,0,0,0,-1,1917,1191,24.4396,-3.34523
700,-167,23.2329,4.32568,0,0,0,0,0,0,0,-1,1924,1191,23.2329,-4.32572
707,-167,22.1235,5.28589,-0.00365553,-0.00084892,0.0020666,0.000245797,-0.00475024,1.08366,0.00325186,0.0429156,1931,1191,22.1236,-5.28594
714,-167,22.3772,5.1001,-0.00405743,-0.00105376,0.00225888,0.000156979,-0.00526817,1.07877,0.00356559,0.0304402,1938,1191,22.3772,-5.10005
721,-167,22.4183,4.77881,-0.00405529,-0.00117565,0.0023732,0.000160346,-0.00539129,1.05806,0.00364881,0.0258768,1945,1191,22.4183,-4.77876
728,-167,22.307,4.72998,-0.00353795,-0.00100147,0.00224539,0.000309089,-0.00484851,1.04247,0.00334014,0.0186097,1952,1191,22.307,-4.72998
735,-167,22.173,4.63,-0.00248654,-0.000465545,0.001756,0.000549944,-0.00350203,1.04649,0.00253794,0.0146645,1959,1191,22.173,-4.62996
742,-167,22.1414,4.44788,-0.000860117,0.000609647,0.0010768,0.00117844,-0.00142891,1.08483,0.00150766,0.0153885,1966,1191,22.1414,-4.44786
749,-167,22.14,4.27307,0.00116664,0.00188382,0.000366826,0.00203821,0.00101225,1.17242,0.00117677,0.0147972,1973,1191,22.14,-4.27306
756,-167,22.1738,4.14014,0.00382991,0.00354622,-0.000560441,0.00426618,0.00310995,-0.661452,0.00254772,0.0109357,1980,1191,22.1739,-4.14017
763,-167,22.1554,3.9845,0.00668236,0.0052777,-0.00134431,0.00749674,0.00446331,-0.544676,0.00435441,0.0112913,1987,1191,22.1554,-3.98449
770,-167,22.121,3.85547,0.00954785,0.00711545,-0.00186335,0.0105568,0.00610652,-0.496264,0.00611992,0.0222681,1994,1191,22.121,-3.85546
777,-167,22.2589,3.74377,0.0125271,0.00913422,-0.00215719,0.013575,0.00808634,-0.452195,0.00788523,0.0406767,2001,1191,22.2589,-3.74376
784,-167,22.5275,3.54871,0.0153215,0.0111649,-0.00192482,0.0160759,0.0104105,-0.373539,0.00941523,0.0472499,2008,1191,22.5275,-3.54866
791,-167,22.7111,3.2998,0.0177897,0.0131954,-0.00111435,0.0180457,0.0129394,-0.225831,0.0107409,0.0465049,2015,1191,22.7111,-3.29975
798,-167,22.855,3.0968,0,0,0,0,0,0,0,-1,2022,1191,22.8549,-3.09678
805,-167,21.8589,3.50244,0,0,0,0,0,0,0,-1,2029,1191,21.8589,-3.50238
812,-167,0,0,0,0,0,0,0,0,0,-1,2036,1191,0,0
-700,-174,0,0,0,0,0,0,0,0,0,-1,524,1198,0,0
-693,-174,0,0,0,0,0,0,0,0,0,-1,531,1198,0,0
-686,-174,-12.7921,-1.14868,-0.0627047,0.0651365,-0.03217,0.0727753,-0.0703435,-1.33766,0.0826336,0.0458819,538,1198,-12.7921,1.14864
-679,-174,-13.1178,-1.21558,-0.0550768,0.062021,-0.0267557,0.0678447,-0.0609006,-1.35647,0.0743672,0.0454275,545,1198,-13.1178,1.21553
-672,-174,-14.4858,-1.14966,-0.0466803,0.0562451,-0.0221681,0.0608166,-0.0512518,-1.36743,0.0647812,0.0471548,552,1198,-14.4858,1.14971
-665,-174,-14.4218,-0.878052,0,0,0,0,0,0,0,-1,559,1198,-14.4218,0.87807
-658,-174,-13.8182,0.734863,0,0,0,0,0,0,0,-1,566,1198,-13.8183,-0.734917
-651,-174,-13.7802,0.928955,-0.0232767,0.0344264,-0.0116458,0.0366882,-0.0255384,-1.37897,0.0361183,0.0487766,573,1198,-13.7802,-0.928997
-644,-174,-13.7703,1.10632,-0.0171022,0.0272002,-0.00905522,0.0289796,-0.0188816,-1.37677,0.0278369,0.0427981,580,1198,-13.7703,-1.10635
-637,-174,-13.801,1.30701,-0.0119931,0.0205469,-0.00690248,0.0219505,-0.0133967,-1.37018,0.020606,0.0224361,587,1198,-13.801,-1.30695
-630,-174,-13.8433,1.48267,-0.00841359,0.0148359,-0.00502577,0.0158758,-0.00945348,-1.36676,0.0147797,0.0118698,594,1198,-13.8433,-1.48264
-623,-174,-13.8578,1.65369,-0.00500674,0.00952218,-0.00357192,0.0103528,-0.0058374,-1.3423,0.00946784,0.0134956,601,1198,-13.8578,-1.65366
-616,-174,-13.8517,1.86938,-0.00269806,0.00500867,-0.00292092,0.00599061,-0.00368001,-1.24649,0.0056362,0.0188062,608,1198,-13.8517,-1.86933
-609,-174,-13.8812,2.06995,-0.00253608,0.00216171,-0.00324201,0.0038163,-0.00419067,-1.09889,0.00462451,0.0204223,615,1198,-13.8812,-2.06998
-602,-174,-13.9194,2.23584,-0.00299541,0.000549335,-0.00359501,0.00278513,-0.00523121,-1.01442,0.00469951,0.0143124,622,1198,-13.9194,-2.23587
-595,-174,-13.9105,2.46606,-0.00373181,-0.000396952,-0.00379293,0.00207888,-0.00620765,-0.99249,0.00497825,0.014455,629,1198,-13.9105,-2.46612
-588,-174,-13.9944,2.64465,-0.00399386,-0.00112949,-0.00400215,0.00168901,-0.00681237,-0.957225,0.00519689,0.0181856,636,1198,-13.9944,-2.64465
-581,-174,-13.9694,2.82898,-0.00379266,-0.00151652,-0.00414474,0.00164356,-0.00695274,-0.919387,0.00526916,0.0219933,643,1198,-13.9694,-2.82894
-574,-174,-14.5403,2.97253,0,0,0,0,0,0,0,-1,650,1198,-14.5403,-2.97248
-567,-174,-16.1146,0.495483,0,0,0,0,0,0,0,-1,657,1198,-16.1146,-0.495505
-560,-174,-16.3556,0.654785,-0.00293538,-0.00208007,-0.00393031,0.00144578,-0.00646124,-0.83959,0.00486161,0.0472377,664,1198,-16.3556,-0.654784
-553,-174,-16.6528,0.806274,-0.00237969,-0.00213521,-0.00361557,0.00136018,-0.00587508,-0.802296,0.00444012,0.0369721,671,1198,-16.6528,-0.806299
-546,-174,-16.7188,0.89502,-0.00155044,-0.00216465,-0.00305228,0.00121015,-0.00492524,-0.73526,0.00375249,0.0280615,678,1198,-16.7188,-0.895073
-539,-174,-16.7773,0.830933,-0.000595481,-0.00200257,-0.00213504,0.000948946,-0.003547,-0.626239,0.00273639,0.0326837,685,1198,-16.7774,-0.830919
-532,-174,-16.5308,0.694702,0.000528275,-0.00150593,-0.000712997,0.000753292,-0.00173094,-0.305702,0.00147083,0.0411777,692,1198,-16.5308,-0.694725
-525,-174,-16.4597,0.750122,0.00147219,-0.000486613,0.00113222,0.00198983,-0.00100426,0.428821,0.00175958,0.0425398,699,1198,-16.4596,-0.750143
-518,-174,-16.5164,0.74585,0.00128341,0.00129216,0.00287711,0.0041649,-0.00158933,0.786159,0.00343134,0.0428654,706,1198,-16.5164,-0.745898
-511,-174,0,0,0,0,0,0,0,0,0,-1,713,1198,0,0
-504,-174,0,0,0,0,0,0,0,0,0,-1,720,1198,0,0
-497,-174,0,0,0,0,0,0,0,0,0,-1,727,1198,0,0
-490,-174,0,0,0,0,0,0,0,0,0,-1,734,1198,0,0
-483,-174,0,0,0,0,0,0,0,0,0,-1,741,1198,0,0
-476,-174,0,0,0,0,0,0,0,0,0,-1,748,1198,0,0
-469,-174,0,0,0,0,0,0,0,0,0,-1,755,1198,0,0
-462,-174,0,0,0,0,0,0,0,0,0,-1,762,1198,0,0
-455,-174,0,0,0,0,0,0,0,0,0,-1,769,1198,0,0
-448,-174,0,0,0,0,0,0,0,0,0,-1,776,1198,0,0
-441,-174,0,0,0,0,0,0,0,0,0,-1,783,1198,0,0
-434,-174,0,0,0,0,0,0,0,0,0,-1,790,1198,0,0
-427,-174,0,0,0,0,0,0,0,0,0,-1,797,1198,0,0
-420,-174,0,0,0,0,0,0,0,0,0,-1,804,1198,0,0
-413,-174,0,0,0,0,0,0,0,0,0,-1,811,1198,0,0
-406,-174,0,0,0,0,0,0,0,0,0,-1,818,1198,0,0
-399,-174,0,0,0,0,0,0,0,0,0,-1,825,1198,0,0
-392,-174,0,0,0,0,0,0,0,0,0,-1,832,1198,0,0
-385,-174,0,0,0,0,0,0,0,0,0,-1,839,1198,0,0
-378,-174,0,0,0,0,0,0,0,0,0,-1,846,1198,0,0
-371,-174,0,0,0,0,0,0,0,0,0,-1,853,1198,0,0
-364,-174,0,0,0,0,0,0,0,0,0,-1,860,1198,0,0
-357,-174,0,0,0,0,0,0,0,0,0,-1,867,1198,0,0
-350,-174,0,0,0,0,0,0,0,0,0,-1,874,1198,0,0
-343,-174,0,0,0,0,0,0,0,0,0,-1,881,1198,0,0
-336,-174,0,0,0,0,0,0,0,0,0,-1,888,1198,0,0
-329,-174,0,0,0,0,0,0,0,0,0,-1,895,1198,0,0
-322,-174,0,0,0,0,0,0,0,0,0,-1,902,1198,0,0
-315,-174,0,0,0,0,0,0,0,0,0,-1,909,1198,0,0
-308,-174,0,0,0,0,0,0,0,0,0,-1,916,1198,0,0
-301,-174,0,0,0,0,0,0,0,0,0,-1,923,1198,0,0
-294,-174,0,0,0,0,0,0,0,0,0,-1,930,1198,0,0
-287,-174,0,0,0,0,0,0,0,0,0,-1,937,1198,0,0
-280,-174,0,0,0,0,0,0,0,0,0,-1,944,1198,0,0
-273,-174,0,0,0,0,0,0,0,0,0,-1,951,1198,0,0
-266,-174,0,0,0,0,0,0,0,0,0,-1,958,1198,0,0
-259,-174,0,0,0,0,0,0,0,0,0,-1,965,1198,0,0
-252,-174,0,0,0,0,0,0,0,0,0,-1,972,1198,0,0
-245,-174,0,0,0,0,0,0,0,0,0,-1,979,1198,0,0
-238,-174,0,0,0,0,0,0,0,0,0,-1,986,1198,0,0
-231,-174,0,0,0,0,0,0,0,0,0,-1,993,1198,0,0
-224,-174,0,0,0,0,0,0,0,0,0,-1,1000,1198,0,0
-217,-174,0,0,0,0,0,0,0,0,0,-1,1007,1198,0,0
-210,-174,0,0,0,0,0,0,0,0,0,-1,1014,1198,0,0
-203,-174,0,0,0,0,0,0,0,0,0,-1,1021,1198,0,0
-196,-174,0,0,0,0,0,0,0,0,0,-1,1028,1198,0,0
-189,-174,0,0,0,0,0,0,0,0,0,-1,1035,1198,0,0
-182,-174,0,0,0,0,0,0,0,0,0,-1,1042,1198,0,0
-175,-174,0,0,0,0,0,0,0,0,0,-1,1049,1198,0,0
-168,-174,0,0,0,0,0,0,0,0,0,-1,1056,1198,0,0
-161,-174,0,0,0,0,0,0,0,0,0,-1,1063,1198,0,0
-154,-174,0,0,0,0,0,0,0,0,0,-1,1070,1198,0,0
-147,-174,0,0,0,0,0,0,0,0,0,-1,1077,1198,0,0
-140,-174,0,0,0,0,0,0,0,0,0,-1,1084,1198,0,0
-133,-174,0,0,0,0,0,0,0,0,0,-1,1091,1198,0,0
-126,-174,0,0,0,0,0,0,0,0,0,-1,1098,1198,0,0
-119,-174,0,0,0,0,0,0,0,0,0,-1,1105,1198,0,0
-112,-174,0,0,0,0,0,0,0,0,0,-1,1112,1198,0,0
-105,-174,0,0,0,0,0,0,0,0,0,-1,1119,1198,0,0
-98,-174,0,0,0,0,0,0,0,0,0,-1,1126,1198,0,0
-91,-174,0,0,0,0,0,0,0,0,0,-1,1133,1198,0,0
-84,-174,0,0,0,0,0,0,0,0,0,-1,1140,1198,0,0
-77,-174,0,0,0,0,0,0,0,0,0,-1,1147,1198,0,0
-70,-174,0,0,0,0,0,0,0,0,0,-1,1154,1198,0,0
-63,-174,0,0,0,0,0,0,0,0,0,-1,1161,1198,0,0
-56,-174,0,0,0,0,0,0,0,0,0,-1,1168,1198,0,0
-49,-174,0,0,0,0,0,0,0,0,0,-1,1175,1198,0,0
-42,-174,0,0,0,0,0,0,0,0,0,-1,1182,1198,0,0
-35,-174,0,0,0,0,0,0,0,0,0,-1,1189,1198,0,0
-28,-174,0,0,0,0,0,0,0,0,0,-1,1196,1198,0,0
-21,-174,0,0,0,0,0,0,0,0,0,-1,1203,1198,0,0
-14,-174,0,0,0,0,0,0,0,0,0,-1,1210,1198,0,0
-7,-174,0,0,0,0,0,0,0,0,0,-1,1217,1198,0,0
0,-174,0,0,0,0,0,0,0,0,0,-1,1224,1198,0,0
7,-174,0,0,0,0,0,0,0,0,0,-1,1231,1198,0,0
14,-174,0,0,0,0,0,0,0,0,0,-1,1238,1198,0,0
21,-174,0,0,0,0,0,0,0,0,0,-1,1245,1198,0,0
28,-174,0,0,0,0,0,0,0,0,0,-1,1252,1198,0,0
35,-174,0,0,0,0,0,0,0,0,0,-1,1259,1198,0,0
42,-174,0,0,0,0,0,0,0,0,0,-1,1266,1198,0,0
49,-174,0,0,0,0,0,0,0,0,0,-1,1273,1198,0,0
56,-174,0,0,0,0,0,0,0,0,0,-1,1280,1198,0,0
63,-174,0,0,0,0,0,0,0,0,0,-1,1287,1198,0,0
70,-174,0,0,0,0,0,0,0,0,0,-1,1294,1198,0,0
77,-174,0,0,0,0,0,0,0,0,0,-1,1301,1198,0,0
84,-174,0,0,0,0,0,0,0,0,0,-1,1308,1198,0,0
91,-174,0,0,0,0,0,0,0,0,0,-1,1315,1198,0,0
98,-174,0,0,0,0,0,0,0,0,0,-1,1322,1198,0,0
105,-174,0,0,0,0,0,0,0,0,0,-1,1329,1198,0,0
112,-174,0,0,0,0,0,0,0,0,0,-1,1336,1198,0,0
119,-174,0,0,0,0,0,0,0,0,0,-1,1343,1198,0,0
126,-174,0,0,0,0,0,0,0,0,0,-1,1350,1198,0,0
133,-174,0,0,0,0,0,0,0,0,0,-1,1357,1198,0,0
140,-174,0,0,0,0,0,0,0,0,0,-1,1364,1198,0,0
147,-174,0,0,0,0,0,0,0,0,0,-1,1371,1198,0,0
154,-174,0,0,0,0,0,0,0,0,0,-1,1378,1198,0,0
161,-174,0,0,0,0,0,0,0,0,0,-1,1385,1198,0,0
168,-174,0,0,0,0,0,0,0,0,0,-1,1392,1198,0,0
175,-174,0,0,0,0,0,0,0,0,0,-1,1399,1198,0,0
182,-174,0,0,0,0,0,0,0,0,0,-1,1406,1198,0,0
189,-174,0,0,0,0,0,0,0,0,0,-1,1413,1198,0,0
196,-174,0,0,0,0,0,0,0,0,0,-1,1420,1198,0,0
203,-174,0,0,0,0,0,0,0,0,0,-1,1427,1198,0,0
210,-174,0,0,0,0,0,0,0,0,0,-1,1434,1198,0,0
217,-174,0,0,0,0,0,0,0,0,0,-1,1441,1198,0,0
224,-174,0,0,0,0,0,0,0,0,0,-1,1448,1198,0,0
231,-174,0,0,0,0,0,0,0,0,0,-1,1455,1198,0,0
238,-174,0,0,0,0,0,0,0,0,0,-1,1462,1198,0,0
245,-174,0,0,0,0,0,0,0,0,0,-1,1469,1198,0,0
252,-174,0,0,0,0,0,0,0,0,0,-1,1476,1198,0,0
259,-174,0,0,0,0,0,0,0,0,0,-1,1483,1198,0,0
266,-174,0,0,0,0,0,0,0,0,0,-1,1490,1198,0,0
273,-174,0,0,0,0,0,0,0,0,0,-1,1497,1198,0,0
280,-174,0,0,0,0,0,0,0,0,0,-1,1504,1198,0,0
287,-174,0,0,0,0,0,0,0,0,0,-1,1511,1198,0,0
294,-174,0,0,0,0,0,0,0,0,0,-1,1518,1198,0,0
301,-174,0,0,0,0,0,0,0,0,0,-1,1525,1198,0,0
308,-174,0,0,0,0,0,0,0,0,0,-1,1532,1198,0,0
315,-174,0,0,0,0,0,0,0,0,0,-1,1539,1198,0,0
322,-174,0,0,0,0,0,0,0,0,0,-1,1546,1198,0,0
329,-174,0,0,0,0,0,0,0,0,0,-1,1553,1198,0,0
336,-174,0,0,0,0,0,0,0,0,0,-1,1560,1198,0,0
343,-174,0,0,0,0,0,0,0,0,0,-1,1567,1198,0,0
350,-174,0,0,0,0,0,0,0,0,0,-1,1574,1198,0,0
357,-174,0,0,0,0,0,0,0,0,0,-1,1581,1198,0,0
364,-174,0,0,0,0,0,0,0,0,0,-1,1588,1198,0,0
371,-174,0,0,0,0,0,0,0,0,0,-1,1595,1198,0,0
378,-174,0,0,0,0,0,0,0,0,0,-1,1602,1198,0,0
385,-174,0,0,0,0,0,0,0,0,0,-1,1609,1198,0,0
392,-174,0,0,0,0,0,0,0,0,0,-1,1616,1198,0,0
399,-174,0,0,0,0,0,0,0,0,0,-1,1623,1198,0,0
406,-174,0,0,0,0,0,0,0,0,0,-1,1630,1198,0,0
413,-174,0,0,0,0,0,0,0,0,0,-1,1637,1198,0,0
420,-174,0,0,0,0,0,0,0,0,0,-1,1644,1198,0,0
427,-174,0,0,0,0,0,0,0,0,0,-1,1651,1198,0,0
434,-174,0,0,0,0,0,0,0,0,0,-1,1658,1198,0,0
441,-174,0,0,0,0,0,0,0,0,0,-1,1665,1198,0,0
448,-174,0,0,0,0,0,0,0,0,0,-1,1672,1198,0,0
455,-174,0,0,0,0,0,0,0,0,0,-1,1679,1198,0,0
462,-174,0,0,0,0,0,0,0,0,0,-1,1686,1198,0,0
469,-174,0,0,0,0,0,0,0,0,0,-1,1693,1198,0,0
476,-174,0,0,0,0,0,0,0,0,0,-1,1700,1198,0,0
483,-174,0,0,0,0,0,0,0,0,0,-1,1707,1198,0,0
490,-174,0,0,0,0,0,0,0,0,0,-1,1714,1198,0,0
497,-174,0,0,0,0,0,0,0,0,0,-1,1721,1198,0,0
504,-174,0,0,0,0,0,0,0,0,0,-1,1728,1198,0,0
511,-174,0,0,0,0,0,0,0,0,0,-1,1735,1198,0,0
518,-174,0,0,0,0,0,0,0,0,0,-1,1742,1198,0,0
525,-174,0,0,0,0,0,0,0,0,0,-1,1749,1198,0,0
532,-174,0,0,0,0,0,0,0,0,0,-1,1756,1198,0,0
539,-174,0,0,0,0,0,0,0,0,0,-1,1763,1198,0,0
546,-174,0,0,0,0,0,0,0,0,0,-1,1770,1198,0,0
553,-174,0,0,0,0,0,0,0,0,0,-1,1777,1198,0,0
560,-174,0,0,0,0,0,0,0,0,0,-1,1784,1198,0,0
567,-174,0,0,0,0,0,0,0,0,0,-1,1791,1198,0,0
574,-174,0,0,0,0,0,0,0,0,0,-1,1798,1198,0,0
581,-174,0,0,0,0,0,0,0,0,0,-1,1805,1198,0,0
588,-174,0,0,0,0,0,0,0,0,0,-1,1812,1198,0,0
595,-174,0,0,0,0,0,0,0,0,0,-1,1819,1198,0,0
602,-174,0,0,0,0,0,0,0,0,0,-1,1826,1198,0,0
609,-174,0,0,0,0,0,0,0,0,0,-1,1833,1198,0,0
616,-174,0,0,0,0,0,0,0,0,0,-1,1840,1198,0,0
623,-174,0,0,0,0,0,0,0,0,0,-1,1847,1198,0,0
630,-174,0,0,0,0,0,0,0,0,0,-1,1854,1198,0,0
637,-174,24.6578,3.16113,1.62553e-06,-0.00484751,0.00460069,0.00277752,-0.00762341,0.542891,0.00621844,0.0387752,1861,1198,24.6579,-3.16116
644,-174,24.8613,3.16687,0.000430238,-0.00341379,0.00282908,0.00192843,-0.00491198,0.487023,0.00407261,0.0404958,1868,1198,24.8613,-3.16683
651,-174,24.8322,3.22888,0.000876463,-0.00194358,0.00131203,0.00139247,-0.00245959,0.374707,0.00225226,0.0410053,1875,1198,24.8321,-3.22882
658,-174,24.7728,3.1853,0.000961569,-0.0010216,0.000476825,0.00107026,-0.00113029,0.224114,0.00127065,0.0405413,1882,1198,24.7728,-3.18531
665,-174,24.7458,2.85754,0.000649674,-0.000598699,0.000225677,0.000689218,-0.000638244,0.173465,0.000766599,0.0358911,1889,1198,24.7459,-2.85755
672,-174,24.6823,2.76306,0.000132875,-0.000493813,0.000260802,0.00022721,-0.000588148,0.34707,0.000485879,0.0272751,1896,1198,24.6823,-2.76312
679,-174,24.6648,2.73669,-0.000573775,-0.000594625,0.000567817,-1.62877e-05,-0.00115211,0.77622,0.000762704,0.0229718,1903,1198,24.6648,-2.73671
686,-174,24.6689,2.72131,0,0,0,0,0,0,0,-1,1910,1198,24.6689,-2.72131
693,-174,24.1687,2.86902,0,0,0,0,0,0,0,-1,1917,1198,24.1687,-2.86901
700,-174,22.0321,5.56848,0,0,0,0,0,0,0,-1,1924,1198,22.032,-5.56843
707,-174,22.1826,5.33484,-0.00264592,-0.000784304,0.00151036,5.90343e-05,-0.00348926,1.06155,0.0023461,0.0424377,1931,1198,22.1826,-5.33481
714,-174,22.2771,5.10303,-0.00305524,-0.000948818,0.00175067,4.10343e-05,-0.0040451,1.0562,0.00271051,0.0259467,1938,1198,22.277,-5.10304
721,-174,22.2196,4.88245,-0.00307918,-0.0010277,0.0018955,0.000101797,-0.00420868,1.03341,0.00284033,0.0201034,1945,1198,22.2196,-4.88242
728,-174,22.0574,4.77966,-0.0025815,-0.000820969,0.00177931,0.00028391,-0.00368638,1.01511,0.00255748,0.0139916,1952,1198,22.0574,-4.7797
735,-174,22.0178,4.63855,-0.0014708,-0.00023283,0.00126294,0.000554656,-0.00225829,1.01325,0.00172047,0.0119039,1959,1198,22.0178,-4.63853
742,-174,21.9806,4.47485,0.000376596,0.000899501,0.000538747,0.00123688,3.92115e-05,1.01131,0.000811835,0.0199892,1966,1198,21.9806,-4.4748
749,-174,21.9896,4.30188,0.00268346,0.0022193,-0.000203819,0.00276026,0.00214251,-0.360327,0.00167272,0.0180112,1973,1198,21.9896,-4.30191
756,-174,21.996,4.12756,0.0057427,0.00390204,-0.00115467,0.00629894,0.0033458,-0.448928,0.00363905,0.010691,1980,1198,21.996,-4.12751
763,-174,21.9751,3.96326,0.00918054,0.00566898,-0.00199435,0.0100819,0.00476765,-0.424465,0.00582362,0.0121894,1987,1198,21.9751,-3.9633
770,-174,21.9973,3.80627,0.0130511,0.00760978,-0.00268348,0.0141518,0.00650904,-0.38926,0.00817929,0.0233286,1994,1198,21.9973,-3.80628
777,-174,22.3324,3.5387,0.0174873,0.00976214,-0.00322924,0.0186593,0.00859008,-0.348165,0.0107843,0.0425692,2001,1198,22.3324,-3.53868
784,-174,22.7188,3.22632,0.0221391,0.0119463,-0.00325642,0.0230907,0.0109948,-0.284289,0.0133365,0.0487231,2008,1198,22.7187,-3.22635
791,-174,22.9131,3.18774,0,0,0,0,0,0,0,-1,2015,1198,22.913,-3.1878
798,-174,21.5925,4.43286,0,0,0,0,0,0,0,-1,2022,1198,21.5926,-4.43291
805,-174,21.4304,4.56799,0,0,0,0,0,0,0,-1,2029,1198,21.4305,-4.56801
812,-174,0,0,0,0,0,0,0,0,0,-1,2036,1198,0,0
-700,-181,0,0,0,0,0,0,0,0,0,-1,524,1205,0,0
-693,-181,0,0,0,0,0,0,0,0,0,-1,531,1205,0,0
-686,-181,-12.3939,-1.42871,-0.078579,0.0689574,-0.0367957,0.0776251,-0.0872467,-1.33945,0.0952428,0.047113,538,1205,-12.3939,1.42876
-679,-181,-12.7407,-1.5293,-0.0676666,0.06577,-0.0308185,0.072544,-0.0744406,-1.35444,0.0848639,0.0450091,545,1205,-12.7407,1.52935
-672,-181,-13.0615,-1.63452,-0.0565518,0.0595587,-0.0255645,0.0649381,-0.0619312,-1.3634,0.0732549,0.0473392,552,1205,-13.0615,1.63451
-665,-181,-13.5425,-1.5824,-0.046046,0.0521853,-0.0209494,0.0564665,-0.0503272,-1.36921,0.0616913,0.0474139,559,1205,-13.5425,1.58245
-658,-181,-13.9984,-0.959229,-0.0363393,0.0443627,-0.016943,0.0477755,-0.0397521,-1.37203,0.0506048,0.0434862,566,1205,-13.9984,0.959194
-651,-181,-13.5428,0.862915,0,0,0,0,0,0,0,-1,573,1205,-13.5428,-0.862908
-644,-181,-13.5369,1.16077,-0.0202027,0.0288641,-0.0104682,0.0310042,-0.0223427,-1.36914,0.0309348,0.0404847,580,1205,-13.5369,-1.16074
-637,-181,-13.6054,1.29236,-0.0140884,0.0218382,-0.00797062,0.0235271,-0.0157773,-1.36199,0.022839,0.0229213,587,1205,-13.6054,-1.29233
-630,-181,-13.6346,1.46912,-0.00958181,0.0158927,-0.00579176,0.0171477,-0.0108368,-1.35741,0.0162932,0.012215,594,1205,-13.6346,-1.46908
-623,-181,-13.6746,1.64673,-0.00545606,0.0103749,-0.00404529,0.0113487,-0.00642986,-1.33457,0.0103946,0.014752,601,1205,-13.6746,-1.64677
-616,-181,-13.6575,1.8667,-0.00276299,0.00560307,-0.00315332,0.00665847,-0.00381839,-1.24782,0.00612246,0.0148109,608,1205,-13.6575,-1.86672
-609,-181,-13.647,2.0752,-0.00240686,0.00250547,-0.00327453,0.00414263,-0.00404402,-1.10717,0.00472667,0.013979,615,1205,-13.647,-2.07517
-602,-181,-13.6668,2.26904,-0.00280344,0.000667761,-0.00351068,0.00284844,-0.00498411,-1.01497,0.00457782,0.0121104,622,1205,-13.6668,-2.26906
-595,-181,-13.709,2.46094,-0.00352419,-0.000389214,-0.00362076,0.00198879,-0.00590219,-0.989677,0.00473893,0.0128636,629,1205,-13.709,-2.46099
-588,-181,-13.7723,2.68787,-0.00375691,-0.00127693,-0.00381941,0.00149873,-0.00653257,-0.942358,0.00493114,0.0148091,636,1205,-13.7723,-2.68782
-581,-181,-13.7456,2.95471,-0.00352517,-0.00176934,-0.00399966,0.00144762,-0.00674213,-0.893434,0.00504698,0.0171768,643,1205,-13.7456,-2.95472
-574,-181,-14.1129,2.96191,-0.00320831,-0.00208418,-0.00403285,0.00142558,-0.00671808,-0.854638,0.00502182,0.0429525,650,1205,-14.1129,-2.96191
-567,-181,-14.7492,2.86511,0,0,0,0,0,0,0,-1,657,1205,-14.7492,-2.8651
-560,-181,-16.5427,0.698486,0,0,0,0,0,0,0,-1,664,1205,-16.5427,-0.698539
-553,-181,-16.6247,0.823242,-0.00219348,-0.00268682,-0.00362829,0.00119652,-0.00607681,-0.751458,0.00450335,0.0416685,671,1205,-16.6247,-0.823247
-546,-181,-16.7134,0.960083,-0.00148836,-0.00278219,-0.00320629,0.00113563,-0.00540618,-0.685852,0.00403627,0.0340033,678,1205,-16.7134,-0.960128
-539,-181,-16.7943,0.976807,-0.000691957,-0.002666,-0.00250562,0.00101404,-0.00437199,-0.59777,0.00330494,0.037153,685,1205,-16.7942,-0.976775
-532,-181,-16.648,0.928711,0.000190833,-0.00217532,-0.00138758,0.00083123,-0.00281572,-0.432392,0.00220703,0.0443769,692,1205,-16.648,-0.928691
-525,-181,-16.668,0.916138,0.00097478,-0.0010548,0.000178362,0.000990335,-0.00107036,0.0869925,0.00119004,0.0435323,699,1205,-16.668,-0.916109
-518,-181,-16.6772,0.711304,0.000751951,0.000976003,0.00178146,0.00264896,-0.000921006,0.816799,0.00214009,0.0402451,706,1205,-16.6772,-0.711268
-511,-181,0,0,0,0,0,0,0,0,0,-1,713,1205,0,0
-504,-181,0,0,0,0,0,0,0,0,0,-1,720,1205,0,0
-497,-181,0,0,0,0,0,0,0,0,0,-1,727,1205,0,0
-490,-181,0,0,0,0,0,0,0,0,0,-1,734,1205,0,0
-483,-181,0,0,0,0,0,0,0,0,0,-1,741,1205,0,0
-476,-181,0,0,0,0,0,0,0,0,0,-1,748,1205,0,0
-469,-181,0,0,0,0,0,0,0,0,0,-1,755,1205,0,0
-462,-181,0,0,0,0,0,0,0,0,0,-1,762,1205,0,0
-455,-181,0,0,0,0,0,0,0,0,0,-1,769,1205,0,0
-448,-181,0,0,0,0,0,0,0,0,0,-1,776,1205,0,0
-441,-181,0,0,0,0,0,0,0,0,0,-1,783,1205,0,0
-434,-181,0,0,0,0,0,0,0,0,0,-1,790,1205,0,0
-427,-181,0,0,0,0,0,0,0,0,0,-1,797,1205,0,0
-420,-181,0,0,0,0,0,0,0,0,0,-1,804,1205,0,0
-413,-181,0,0,0,0,0,0,0,0,0,-1,811,1205,0,0
-406,-181,0,0,0,0,0,0,0,0,0,-1,818,1205,0,0
-399,-181,0,0,0,0,0,0,0,0,0,-1,825,1205,0,0
-392,-181,0,0,0,0,0,0,0,0,0,-1,832,1205,0,0
-385,-181,0,0,0,0,0,0,0,0,0,-1,839,1205,0,0
-378,-181,0,0,0,0,0,0,0,0,0,-1,846,1205,0,0
-371,-181,0,0,0,0,0,0,0,0,0,-1,853,1205,0,0
-364,-181,0,0,0,0,0,0,0,0,0,-1,860,1205,0,0
-357,-181,0,0,0,0,0,0,0,0,0,-1,867,1205,0,0
-350,-181,0,0,0,0,0,0,0,0,0,-1,874,1205,0,0
-343,-181,0,0,0,0,0,0,0,0,0,-1,881,1205,0,0
-336,-181,0,0,0,0,0,0,0,0,0,-1,888,1205,0,0
-329,-181,0,0,0,0,0,0,0,0,0,-1,895,1205,0,0
-322,-181,0,0,0,0,0,0,0,0,0,-1,902,1205,0,0
-315,-181,0,0,0,0,0,0,0,0,0,-1,909,1205,0,0
-308,-181,0,0,0,0,0,0,0,0,0,-1,916,1205,0,0
-301,-181,0,0,0,0,0,0,0,0,0,-1,923,1205,0,0
-294,-181,0,0,0,0,0,0,0,0,0,-1,930,1205,0,0
-287,-181,0,0,0,0,0,0,0,0,0,-1,937,1205,0,0
-280,-181,0,0,0,0,0,0,0,0,0,-1,944,1205,0,0
-273,-181,0,0,0,0,0,0,0,0,0,-1,951,1205,0,0
-266,-181,0,0,0,0,0,0,0,0,0,-1,958,1205,0,0
-259,-181,0,0,0,0,0,0,0,0,0,-1,965,1205,0,0
-252,-181,0,0,0,0,0,0,0,0,0,-1,972,1205,0,0
-245,-181,0,0,0,0,0,0,0,0,0,-1,979,1205,0,0
-238,-181,0,0,0,0,0,0,0,0,0,-1,986,1205,0,0
-231,-181,0,0,0,0,0,0,0,0,0,-1,993,1205,0,0
-224,-181,0,0,0,0,0,0,0,0,0,-1,1000,1205,0,0
-217,-181,0,0,0,0,0,0,0,0,0,-1,1007,1205,0,0
-210,-181,0,0,0,0,0,0,0,0,0,-1,1014,1205,0,0
-203,-181,0,0,0,0,0,0,0,0,0,-1,1021,1205,0,0
-196,-181,0,0,0,0,0,0,0,0,0,-1,1028,1205,0,0
-189,-181,0,0,0,0,0,0,0,0,0,-1,1035,1205,0,0
-182,-181,0,0,0,0,0,0,0,0,0,-1,1042,1205,0,0
-175,-181,0,0,0,0,0,0,0,0,0,-1,1049,1205,0,0
-168,-181,0,0,0,0,0,0,0,0,0,-1,1056,1205,0,0
-161,-181,0,0,0,0,0,0,0,0,0,-1,1063,1205,0,0
-154,-181,0,0,0,0,0,0,0,0,0,-1,1070,1205,0,0
-147,-181,0,0,0,0,0,0,0,0,0,-1,1077,1205,0,0
-140,-181,0,0,0,0,0,0,0,0,0,-1,1084,1205,0,0
-133,-181,0,0,0,0,0,0,0,0,0,-1,1091,1205,0,0
-126,-181,0,0,0,0,0,0,0,0,0,-1,1098,1205,0,0
-119,-181,0,0,0,0,0,0,0,0,0,-1,1105,1205,0,0
-112,-181,0,0,0,0,0,0,0,0,0,-1,1112,1205,0,0
-105,-181,0,0,0,0,0,0,0,0,0,-1,1119,1205,0,0
-98,-181,0,0,0,0,0,0,0,0,0,-1,1126,1205,0,0
-91,-181,0,0,0,0,0,0,0,0,0,-1,1133,1205,0,0
-84,-181,0,0,0,0,0,0,0,0,0,-1,1140,1205,0,0
-77,-181,0,0,0,0,0,0,0,0,0,-1,1147,1205,0,0
-70,-181,0,0,0,0,0,0,0,0,0,-1,1154,1205,0,0
-63,-181,0,0,0,0,0,0,0,0,0,-1,1161,1205,0,0
-56,-181,0,0,0,0,0,0,0,0,0,-1,1168,1205,0,0
-49,-181,0,0,0,0,0,0,0,0,0,-1,1175,1205,0,0
-42,-181,0,0,0,0,0,0,0,0,0,-1,1182,1205,0,0
-35,-181,0,0,0,0,0,0,0,0,0,-1,1189,1205,0,0
-28,-181,0,0,0,0,0,0,0,0,0,-1,1196,1205,0,0
-21,-181,0,0,0,0,0,0,0,0,0,-1,1203,1205,0,0
-14,-181,0,0,0,0,0,0,0,0,0,-1,1210,1205,0,0
-7,-181,0,0,0,0,0,0,0,0,0,-1,1217,1205,0,0
0,-181,0,0,0,0,0,0,0,0,0,-1,1224,1205,0,0
7,-181,0,0,0,0,0,0,0,0,0,-1,1231,1205,0,0
14,-181,0,0,0,0,0,0,0,0,0,-1,1238,1205,0,0
21,-181,0,0,0,0,0,0,0,0,0,-1,1245,1205,0,0
28,-181,0,0,0,0,0,0,0,0,0,-1,1252,1205,0,0
35,-181,0,0,0,0,0,0,0,0,0,-1,1259,1205,0,0
42,-181,0,0,0,0,0,0,0,0,0,-1,1266,1205,0,0
49,-181,0,0,0,0,0,0,0,0,0,-1,1273,1205,0,0
56,-181,0,0,0,0,0,0,0,0,0,-1,1280,1205,0,0
63,-181,0,0,0,0,0,0,0,0,0,-1,1287,1205,0,0
70,-181,0,0,0,0,0,0,0,0,0,-1,1294,1205,0,0
77,-181,0,0,0,0,0,0,0,0,0,-1,1301,1205,0,0
84,-181,0,0,0,0,0,0,0,0,0,-1,1308,1205,0,0
91,-181,0,0,0,0,0,0,0,0,0,-1,1315,1205,0,0
98,-181,0,0,0,0,0,0,0,0,0,-1,1322,1205,0,0
105,-181,0,0,0,0,0,0,0,0,0,-1,1329,1205,0,0
112,-181,0,0,0,0,0,0,0,0,0,-1,1336,1205,0,0
119,-181,0,0,0,0,0,0,0,0,0,-1,1343,1205,0,0
126,-181,0,0,0,0,0,0,0,0,0,-1,1350,1205,0,0
133,-181,0,0,0,0,0,0,0,0,0,-1,1357,1205,0,0
140,-181,0,0,0,0,0,0,0,0,0,-1,1364,1205,0,0
147,-181,0,0,0,0,0,0,0,0,0,-1,1371,1205,0,0
154,-181,0,0,0,0,0,0,0,0,0,-1,1378,1205,0,0
161,-181,0,0,0,0,0,0,0,0,0,-1,1385,1205,0,0
168,-181,0,0,0,0,0,0,0,0,0,-1,1392,1205,0,0
175,-181,0,0,0,0,0,0,0,0,0,-1,1399,1205,0,0
182,-181,0,0,0,0,0,0,0,0,0,-1,1406,1205,0,0
189,-181,0,0,0,0,0,0,0,0,0,-1,1413,1205,0,0
196,-181,0,0,0,0,0,0,0,0,0,-1,1420,1205,0,0
203,-181,0,0,0,0,0,0,0,0,0,-1,1427,1205,0,0
210,-181,0,0,0,0,0,0,0,0,0,-1,1434,1205,0,0
217,-181,0,0,0,0,0,0,0,0,0,-1,1441,1205,0,0
224,-181,0,0,0,0,0,0,0,0,0,-1,1448,1205,0,0
231,-181,0,0,0,0,0,0,0,0,0,-1,1455,1205,0,0
238,-181,0,0,0,0,0,0,0,0,0,-1,1462,1205,0,0
245,-181,0,0,0,0,0,0,0,0,0,-1,1469,1205,0,0
252,-181,0,0,0,0,0,0,0,0,0,-1,1476,1205,0,0
259,-181,0,0,0,0,0,0,0,0,0,-1,1483,1205,0,0
266,-181,0,0,0,0,0,0,0,0,0,-1,1490,1205,0,0
273,-181,0,0,0,0,0,0,0,0,0,-1,1497,1205,0,0
280,-181,0,0,0,0,0,0,0,0,0,-1,1504,1205,0,0
287,-181,0,0,0,0,0,0,0,0,0,-1,1511,1205,0,0
294,-181,0,0,0,0,0,0,0,0,0,-1,1518,1205,0,0
301,-181,0,0,0,0,0,0,0,0,0,-1,1525,1205,0,0
308,-181,0,0,0,0,0,0,0,0,0,-1,1532,1205,0,0
315,-181,0,0,0,0,0,0,0,0,0,-1,1539,1205,0,0
322,-181,0,0,0,0,0,0,0,0,0,-1,1546,1205,0,0
329,-181,0,0,0,0,0,0,0,0,0,-1,1553,1205,0,0
336,-181,0,0,0,0,0,0,0,0,0,-1,1560,1205,0,0
343,-181,0,0,0,0,0,0,0,0,0,-1,1567,1205,0,0
350,-181,0,0,0,0,0,0,0,0,0,-1,1574,1205,0,0
357,-181,0,0,0,0,0,0,0,0,0,-1,1581,1205,0,0
364,-181,0,0,0,0,0,0,0,0,0,-1,1588,1205,0,0
371,-181,0,0,0,0,0,0,0,0,0,-1,1595,1205,0,0
378,-181,0,0,0,0,0,0,0,0,0,-1,1602,1205,0,0
385,-181,0,0,0,0,0,0,0,0,0,-1,1609,1205,0,0
392,-181,0,0,0,0,0,0,0,0,0,-1,1616,1205,0,0
399,-181,0,0,0,0,0,0,0,0,0,-1,1623,1205,0,0
406,-181,0,0,0,0,0,0,0,0,0,-1,1630,1205,0,0
413,-181,0,0,0,0,0,0,0,0,0,-1,1637,1205,0,0
420,-181,0,0,0,0,0,0,0,0,0,-1,1644,1205,0,0
427,-181,0,0,0,0,0,0,0,0,0,-1,1651,1205,0,0
434,-181,0,0,0,0,0,0,0,0,0,-1,1658,1205,0,0
441,-181,0,0,0,0,0,0,0,0,0,-1,1665,1205,0,0
448,-181,0,0,0,0,0,0,0,0,0,-1,1672,1205,0,0
455,-181,0,0,0,0,0,0,0,0,0,-1,1679,1205,0,0
462,-181,0,0,0,0,0,0,0,0,0,-1,1686,1205,0,0
469,-181,0,0,0,0,0,0,0,0,0,-1,1693,1205,0,0
476,-181,0,0,0,0,0,0,0,0,0,-1,1700,1205,0,0
483,-181,0,0,0,0,0,0,0,0,0,-1,1707,1205,0,0
490,-181,0,0,0,0,0,0,0,0,0,-1,1714,1205,0,0
497,-181,0,0,0,0,0,0,0,0,0,-1,1721,1205,0,0
504,-181,0,0,0,0,0,0,0,0,0,-1,1728,1205,0,0
511,-181,0,0,0,0,0,0,0,0,0,-1,1735,1205,0,0
518,-181,0,0,0,0,0,0,0,0,0,-1,1742,1205,0,0
525,-181,0,0,0,0,0,0,0,0,0,-1,1749,1205,0,0
532,-181,0,0,0,0,0,0,0,0,0,-1,1756,1205,0,0
539,-181,0,0,0,0,0,0,0,0,0,-1,1763,1205,0,0
546,-181,0,0,0,0,0,0,0,0,0,-1,1770,1205,0,0
553,-181,0,0,0,0,0,0,0,0,0,-1,1777,1205,0,0
560,-181,0,0,0,0,0,0,0,0,0,-1,1784,1205,0,0
567,-181,0,0,0,0,0,0,0,0,0,-1,1791,1205,0,0
574,-181,0,0,0,0,0,0,0,0,0,-1,1798,1205,0,0
581,-181,0,0,0,0,0,0,0,0,0,-1,1805,1205,0,0
588,-181,0,0,0,0,0,0,0,0,0,-1,1812,1205,0,0
595,-181,0,0,0,0,0,0,0,0,0,-1,1819,1205,0,0
602,-181,0,0,0,0,0,0,0,0,0,-1,1826,1205,0,0
609,-181,0,0,0,0,0,0,0,0,0,-1,1833,1205,0,0
616,-181,0,0,0,0,0,0,0,0,0,-1,1840,1205,0,0
623,-181,0,0,0,0,0,0,0,0,0,-1,1847,1205,0,0
630,-181,24.6539,2.78381,-0.000690426,-0.00370916,0.00564179,0.00364041,-0.00804,0.654693,0.00690131,0.0354687,1854,1205,24.6539,-2.78379
637,-181,24.6096,2.98157,-3.5618e-05,-0.0029997,0.00370658,0.00247423,-0.00550955,0.595214,0.00471917,0.0372731,1861,1205,24.6096,-2.98162
644,-181,24.6399,3.00439,0.000572741,-0.00198439,0.00195222,0.00162782,-0.00303947,0.495481,0.00273543,0.0419199,1868,1205,24.6399,-3.00444
651,-181,24.6671,2.8573,0,0,0,0,0,0,0,-1,1875,1205,24.6671,-2.85727
658,-181,24.6675,2.8291,0.00126918,-0.000495984,-9.9269e-05,0.00127475,-0.000501549,-0.0560023,0.00105744,0.0374397,1882,1205,24.6675,-2.82911
665,-181,24.6442,2.75793,0.0011153,-0.00032856,-0.000278297,0.00116708,-0.000380343,-0.183968,0.000931101,0.0338833,1889,1205,24.6441,-2.75789
672,-181,24.6641,2.75085,0.000736595,-0.000389871,-0.000204131,0.000772446,-0.000425721,-0.173851,0.00070135,0.0257072,1896,1205,24.6641,-2.75087
679,-181,24.7418,2.80945,0.000141484,-0.000571836,0.000117433,0.000160319,-0.000590671,0.159039,0.000456698,0.0299858,1903,1205,24.7419,-2.8095
686,-181,24.8683,2.88269,0,0,0,0,0,0,0,-1,1910,1205,24.8683,-2.88271
693,-181,24.1648,2.84448,0,0,0,0,0,0,0,-1,1917,1205,24.1647,-2.84452
700,-181,22.2174,5.30444,0,0,0,0,0,0,0,-1,1924,1205,22.2174,-5.30442
707,-181,22.1476,5.18164,-0.00174878,-0.00079778,0.00111413,-6.19254e-05,-0.00248463,0.987091,0.00163617,0.0333988,1931,1205,22.1475,-5.1817
714,-181,22.1262,5.05273,-0.00216514,-0.000918668,0.00140888,-1.33377e-06,-0.00308248,0.993641,0.00205454,0.0235495,1938,1205,22.1262,-5.05279
721,-181,21.969,4.9281,-0.00221432,-0.000929078,0.00157741,0.000131584,-0.00327498,0.978829,0.00222848,0.0151435,1945,1205,21.9689,-4.92811
728,-181,21.8315,4.79468,-0.00172913,-0.00066739,0.00146281,0.000357904,-0.00275443,0.959463,0.00196647,0.0103554,1952,1205,21.8316,-4.79472
735,-181,21.8407,4.62231,-0.000540383,-4.03342e-06,0.000908605,0.000675146,-0.00121956,0.928899,0.00110886,0.0110103,1959,1205,21.8407,-4.62237
742,-181,21.8402,4.46704,0.00153591,0.00117864,0.000144299,0.00158691,0.00112764,0.339737,0.000942902,0.0164029,1966,1205,21.8402,-4.467
749,-181,21.8247,4.28699,0.00412389,0.00253479,-0.000628042,0.00434213,0.00231655,-0.334442,0.00250881,0.0152249,1973,1205,21.8247,-4.28698
756,-181,21.8224,4.11816,0.00758555,0.00422361,-0.00158359,0.008214,0.00359516,-0.377789,0.00475461,0.011233,1980,1205,21.8224,-4.11812
763,-181,21.8164,3.94958,0.0116795,0.00601936,-0.00245806,0.012598,0.00510092,-0.357581,0.00731716,0.0106239,1987,1205,21.8164,-3.94961
770,-181,21.8507,3.75916,0.016662,0.0080519,-0.0032667,0.0177611,0.0069528,-0.324557,0.0103346,0.0225818,1994,1205,21.8507,-3.75916
777,-181,22.1404,3.46326,0.0226852,0.0103075,-0.00396839,0.0238482,0.00914452,-0.285089,0.0138929,0.0439106,2001,1205,22.1404,-3.46322
784,-181,22.4454,3.17285,0,0,0,0,0,0,0,-1,2008,1205,22.4455,-3.17279
791,-181,20.698,3.5686,0,0,0,0,0,0,0,-1,2015,1205,20.6981,-3.56861
798,-181,22.9846,3.83875,0,0,0,0,0,0,0,-1,2022,1205,22.9846,-3.83869
805,-181,0,0,0,0,0,0,0,0,0,-1,2029,1205,0,0
812,-181,0,0,0,0,0,0,0,0,0,-1,2036,1205,0,0
-700,-188,0,0,0,0,0,0,0,0,0,-1,524,1212,0,0
-693,-188,0,0,0,0,0,0,0,0,0,-1,531,1212,0,0
-686,-188,0,0,0,0,0,0,0,0,0,-1,538,1212,0,0
-679,-188,-12.2028,-1.96082,-0.0744328,0.0699499,-0.034059,0.0775809,-0.0820638,-1.35038,0.092183,0.0452809,545,1212,-12.2028,1.96077
-672,-188,-12.6039,-2.00171,-0.0617127,0.0628916,-0.0279339,0.0688673,-0.0676884,-1.36005,0.0788415,0.0466448,552,1212,-12.6039,2.00168
-665,-188,-13.0154,-2.0769,-0.0500609,0.0549126,-0.022681,0.0596035,-0.0547518,-1.36685,0.0660429,0.0491022,559,1212,-13.0154,2.07691
-658,-188,-13.5955,-1.71191,-0.0394745,0.0465821,-0.0182165,0.0502794,-0.0431718,-1.37056,0.054006,0.0447053,566,1212,-13.5955,1.71187
-651,-188,-13.8583,-1.18494,0,0,0,0,0,0,0,-1,573,1212,-13.8583,1.18497
-644,-188,-13.389,1.2594,0,0,0,0,0,0,0,-1,580,1212,-13.389,-1.25941
-637,-188,-13.4474,1.31165,-0.0153858,0.022814,-0.00839933,0.0245792,-0.0171511,-1.36364,0.0242199,0.0210047,587,1212,-13.4475,-1.31166
-630,-188,-13.4404,1.47729,-0.0104418,0.0165827,-0.00604975,0.0178752,-0.0117343,-1.36032,0.0172171,0.00981143,594,1212,-13.4404,-1.47735
-623,-188,-13.4492,1.68042,-0.00593845,0.0108884,-0.00411545,0.011841,-0.00689106,-1.34333,0.0109401,0.0110477,601,1212,-13.4492,-1.6804
-616,-188,-13.4306,1.88403,-0.00288238,0.00601873,-0.00306832,0.00697391,-0.00383756,-1.269,0.00632895,0.0113619,608,1212,-13.4306,-1.88401
-609,-188,-13.4107,2.08948,-0.00219824,0.00280238,-0.00301288,0.0042173,-0.00361316,-1.13174,0.0045254,0.0135288,615,1212,-13.4107,-2.08943
-602,-188,-13.4253,2.30896,-0.00235588,0.000829489,-0.00313348,0.00275182,-0.00427821,-1.02052,0.00409056,0.015441,622,1212,-13.4253,-2.30898
-595,-188,-13.4641,2.51001,-0.00291774,-0.000284785,-0.00314791,0.00181084,-0.00501337,-0.98345,0.00408202,0.0124655,629,1212,-13.4641,-2.51006
-588,-188,-13.4965,2.71057,-0.00307054,-0.00128856,-0.00334583,0.00128289,-0.00564198,-0.915527,0.00425393,0.0111015,636,1212,-13.4965,-2.7106
-581,-188,-13.5179,2.9314,-0.00280074,-0.00188463,-0.0035918,0.00127821,-0.00596358,-0.848819,0.00446322,0.0114076,643,1212,-13.5179,-2.9314
-574,-188,-13.6282,3.01819,-0.00246601,-0.00231286,-0.00367502,0.00128638,-0.00606525,-0.795815,0.00453354,0.0314989,650,1212,-13.6282,-3.01816
-567,-188,-13.743,3.03662,0,0,0,0,0,0,0,-1,657,1212,-13.743,-3.03663
-560,-188,-16.6262,0.802124,0,0,0,0,0,0,0,-1,664,1212,-16.6262,-0.802141
-553,-188,-16.6985,0.942627,-0.00168524,-0.00310643,-0.00344843,0.00112505,-0.00591672,-0.683788,0.00436806,0.048341,671,1212,-16.6985,-0.94267
-546,-188,-16.7891,1.12,-0.00120444,-0.00331646,-0.00318821,0.0010981,-0.00561899,-0.625473,0.00416062,0.0421585,678,1212,-16.7891,-1.12002
-539,-188,-16.731,1.02393,-0.00068854,-0.00330436,-0.00273205,0.00103253,-0.00502544,-0.562155,0.00374225,0.0372719,685,1212,-16.7309,-1.02389
-532,-188,-16.7169,0.900879,-0.000191059,-0.00292584,-0.00196224,0.000833236,-0.00395014,-0.481094,0.00295065,0.0426413,692,1212,-16.7169,-0.900818
-525,-188,-16.7325,0.665161,0.00025041,-0.00191704,-0.000770283,0.00049627,-0.0021629,-0.30896,0.00163269,0.0419369,699,1212,-16.7325,-0.665207
-518,-188,-16.6835,0.723511,-0.000159583,2.81673e-05,0.000565225,0.00050726,-0.000638676,0.867689,0.000663055,0.0413718,706,1212,-16.6835,-0.723481
-511,-188,-16.6437,0.829712,-0.00039401,0.00282176,0.00253246,0.00421365,-0.0017859,1.06825,0.00355712,0.0365606,713,1212,-16.6437,-0.829727
-504,-188,0,0,0,0,0,0,0,0,0,-1,720,1212,0,0
-497,-188,0,0,0,0,0,0,0,0,0,-1,727,1212,0,0
-490,-188,0,0,0,0,0,0,0,0,0,-1,734,1212,0,0
-483,-188,0,0,0,0,0,0,0,0,0,-1,741,1212,0,0
-476,-188,0,0,0,0,0,0,0,0,0,-1,748,1212,0,0
-469,-188,0,0,0,0,0,0,0,0,0,-1,755,1212,0,0
-462,-188,0,0,0,0,0,0,0,0,0,-1,762,1212,0,0
-455,-188,0,0,0,0,0,0,0,0,0,-1,769,1212,0,0
-448,-188,0,0,0,0,0,0,0,0,0,-1,776,1212,0,0
-441,-188,0,0,0,0,0,0,0,0,0,-1,783,1212,0,0
-434,-188,0,0,0,0,0,0,0,0,0,-1,790,1212,0,0
-427,-188,0,0,0,0,0,0,0,0,0,-1,797,1212,0,0
-420,-188,0,0,0,0,0,0,0,0,0,-1,804,1212,0,0
-413,-188,0,0,0,0,0,0,0,0,0,-1,811,1212,0,0
-406,-188,0,0,0,0,0,0,0,0,0,-1,818,1212,0,0
-399,-188,0,0,0,0,0,0,0,0,0,-1,825,1212,0,0
-392,-188,0,0,0,0,0,0,0,0,0,-1,832,1212,0,0
-385,-188,0,0,0,0,0,0,0,0,0,-1,839,1212,0,0
-378,-188,0,0,0,0,0,0,0,0,0,-1,846,1212,0,0
-371,-188,0,0,0,0,0,0,0,0,0,-1,853,1212,0,0
-364,-188,0,0,0,0,0,0,0,0,0,-1,860,1212,0,0
-357,-188,0,0,0,0,0,0,0,0,0,-1,867,1212,0,0
-350,-188,0,0,0,0,0,0,0,0,0,-1,874,1212,0,0
-343,-188,0,0,0,0,0,0,0,0,0,-1,881,1212,0,0
-336,-188,0,0,0,0,0,0,0,0,0,-1,888,1212,0,0
-329,-188,0,0,0,0,0,0,0,0,0,-1,895,1212,0,0
-322,-188,0,0,0,0,0,0,0,0,0,-1,902,1212,0,0
-315,-188,0,0,0,0,0,0,0,0,0,-1,909,1212,0,0
-308,-188,0,0,0,0,0,0,0,0,0,-1,916,1212,0,0
-301,-188,0,0,0,0,0,0,0,0,0,-1,923,1212,0,0
-294,-188,0,0,0,0,0,0,0,0,0,-1,930,1212,0,0
-287,-188,0,0,0,0,0,0,0,0,0,-1,937,1212,0,0
-280,-188,0,0,0,0,0,0,0,0,0,-1,944,1212,0,0
-273,-188,0,0,0,0,0,0,0,0,0,-1,951,1212,0,0
-266,-188,0,0,0,0,0,0,0,0,0,-1,958,1212,0,0
-259,-188,0,0,0,0,0,0,0,0,0,-1,965,1212,0,0
-252,-188,0,0,0,0,0,0,0,0,0,-1,972,1212,0,0
-245,-188,0,0,0,0,0,0,0,0,0,-1,979,1212,0,0
-238,-188,0,0,0,0,0,0,0,0,0,-1,986,1212,0,0
-231,-188,0,0,0,0,0,0,0,0,0,-1,993,1212,0,0
-224,-188,0,0,0,0,0,0,0,0,0,-1,1000,1212,0,0
-217,-188,0,0,0,0,0,0,0,0,0,-1,1007,1212,0,0
-210,-188,0,0,0,0,0,0,0,0,0,-1,1014,1212,0,0
-203,-188,0,0,0,0,0,0,0,0,0,-1,1021,1212,0,0
-196,-188,0,0,0,0,0,0,0,0,0,-1,1028,1212,0,0
-189,-188,0,0,0,0,0,0,0,0,0,-1,1035,1212,0,0
-182,-188,0,0,0,0,0,0,0,0,0,-1,1042,1212,0,0
-175,-188,0,0,0,0,0,0,0,0,0,-1,1049,1212,0,0
-168,-188,0,0,0,0,0,0,0,0,0,-1,1056,1212,0,0
-161,-188,0,0,0,0,0,0,0,0,0,-1,1063,1212,0,0
-154,-188,0,0,0,0,0,0,0,0,0,-1,1070,1212,0,0
-147,-188,0,0,0,0,0,0,0,0,0,-1,1077,1212,0,0
-140,-188,0,0,0,0,0,0,0,0,0,-1,1084,1212,0,0
-133,-188,0,0,0,0,0,0,0,0,0,-1,1091,1212,0,0
-126,-188,0,0,0,0,0,0,0,0,0,-1,1098,1212,0,0
-119,-188,0,0,0,0,0,0,0,0,0,-1,1105,1212,0,0
-112,-188,0,0,0,0,0,0,0,0,0,-1,1112,1212,0,0
-105,-188,0,0,0,0,0,0,0,0,0,-1,1119,1212,0,0
-98,-188,0,0,0,0,0,0,0,0,0,-1,1126,1212,0,0
-91,-188,0,0,0,0,0,0,0,0,0,-1,1133,1212,0,0
-84,-188,0,0,0,0,0,0,0,0,0,-1,1140,1212,0,0
-77,-188,0,0,0,0,0,0,0,0,0,-1,1147,1212,0,0
-70,-188,0,0,0,0,0,0,0,0,0,-1,1154,1212,0,0
-63,-188,0,0,0,0,0,0,0,0,0,-1,1161,1212,0,0
-56,-188,0,0,0,0,0,0,0,0,0,-1,1168,1212,0,0
-49,-188,0,0,0,0,0,0,0,0,0,-1,1175,1212,0,0
-42,-188,0,0,0,0,0,0,0,0,0,-1,1182,1212,0,0
-35,-188,0,0,0,0,0,0,0,0,0,-1,1189,1212,0,0
-28,-188,0,0,0,0,0,0,0,0,0,-1,1196,1212,0,0
-21,-188,0,0,0,0,0,0,0,0,0,-1,1203,1212,0,0
-14,-188,0,0,0,0,0,0,0,0,0,-1,1210,1212,0,0
-7,-188,0,0,0,0,0,0,0,0,0,-1,1217,1212,0,0
0,-188,0,0,0,0,0,0,0,0,0,-1,1224,1212,0,0
7,-188,0,0,0,0,0,0,0,0,0,-1,1231,1212,0,0
14,-188,0,0,0,0,0,0,0,0,0,-1,1238,1212,0,0
21,-188,0,0,0,0,0,0,0,0,0,-1,1245,1212,0,0
28,-188,0,0,0,0,0,0,0,0,0,-1,1252,1212,0,0
35,-188,0,0,0,0,0,0,0,0,0,-1,1259,1212,0,0
42,-188,0,0,0,0,0,0,0,0,0,-1,1266,1212,0,0
49,-188,0,0,0,0,0,0,0,0,0,-1,1273,1212,0,0
56,-188,0,0,0,0,0,0,0,0,0,-1,1280,1212,0,0
63,-188,0,0,0,0,0,0,0,0,0,-1,1287,1212,0,0
70,-188,0,0,0,0,0,0,0,0,0,-1,1294,1212,0,0
77,-188,0,0,0,0,0,0,0,0,0,-1,1301,1212,0,0
84,-188,0,0,0,0,0,0,0,0,0,-1,1308,1212,0,0
91,-188,0,0,0,0,0,0,0,0,0,-1,1315,1212,0,0
98,-188,0,0,0,0,0,0,0,0,0,-1,1322,1212,0,0
105,-188,0,0,0,0,0,0,0,0,0,-1,1329,1212,0,0
112,-188,0,0,0,0,0,0,0,0,0,-1,1336,1212,0,0
119,-188,0,0,0,0,0,0,0,0,0,-1,1343,1212,0,0
126,-188,0,0,0,0,0,0,0,0,0,-1,1350,1212,0,0
133,-188,0,0,0,0,0,0,0,0,0,-1,1357,1212,0,0
140,-188,0,0,0,0,0,0,0,0,0,-1,1364,1212,0,0
147,-188,0,0,0,0,0,0,0,0,0,-1,1371,1212,0,0
154,-188,0,0,0,0,0,0,0,0,0,-1,1378,1212,0,0
161,-188,0,0,0,0,0,0,0,0,0,-1,1385,1212,0,0
168,-188,0,0,0,0,0,0,0,0,0,-1,1392,1212,0,0
175,-188,0,0,0,0,0,0,0,0,0,-1,1399,1212,0,0
182,-188,0,0,0,0,0,0,0,0,0,-1,1406,1212,0,0
189,-188,0,0,0,0,0,0,0,0,0,-1,1413,1212,0,0
196,-188,0,0,0,0,0,0,0,0,0,-1,1420,1212,0,0
203,-188,0,0,0,0,0,0,0,0,0,-1,1427,1212,0,0
210,-188,0,0,0,0,0,0,0,0,0,-1,1434,1212,0,0
217,-188,0,0,0,0,0,0,0,0,0,-1,1441,1212,0,0
224,-188,0,0,0,0,0,0,0,0,0,-1,1448,1212,0,0
231,-188,0,0,0,0,0,0,0,0,0,-1,1455,1212,0,0
238,-188,0,0,0,0,0,0,0,0,0,-1,1462,1212,0,0
245,-188,0,0,0,0,0,0,0,0,0,-1,1469,1212,0,0
252,-188,0,0,0,0,0,0,0,0,0,-1,1476,1212,0,0
259,-188,0,0,0,0,0,0,0,0,0,-1,1483,1212,0,0
266,-188,0,0,0,0,0,0,0,0,0,-1,1490,1212,0,0
273,-188,0,0,0,0,0,0,0,0,0,-1,1497,1212,0,0
280,-188,0,0,0,0,0,0,0,0,0,-1,1504,1212,0,0
287,-188,0,0,0,0,0,0,0,0,0,-1,1511,1212,0,0
294,-188,0,0,0,0,0,0,0,0,0,-1,1518,1212,0,0
301,-188,0,0,0,0,0,0,0,0,0,-1,1525,1212,0,0
308,-188,0,0,0,0,0,0,0,0,0,-1,1532,1212,0,0
315,-188,0,0,0,0,0,0,0,0,0,-1,1539,1212,0,0
322,-188,0,0,0,0,0,0,0,0,0,-1,1546,1212,0,0
329,-188,0,0,0,0,0,0,0,0,0,-1,1553,1212,0,0
336,-188,0,0,0,0,0,0,0,0,0,-1,1560,1212,0,0
343,-188,0,0,0,0,0,0,0,0,0,-1,1567,1212,0,0
350,-188,0,0,0,0,0,0,0,0,0,-1,1574,1212,0,0
357,-188,0,0,0,0,0,0,0,0,0,-1,1581,1212,0,0
364,-188,0,0,0,0,0,0,0,0,0,-1,1588,1212,0,0
371,-188,0,0,0,0,0,0,0,0,0,-1,1595,1212,0,0
378,-188,0,0,0,0,0,0,0,0,0,-1,1602,1212,0,0
385,-188,0,0,0,0,0,0,0,0,0,-1,1609,1212,0,0
392,-188,0,0,0,0,0,0,0,0,0,-1,1616,1212,0,0
399,-188,0,0,0,0,0,0,0,0,0,-1,1623,1212,0,0
406,-188,0,0,0,0,0,0,0,0,0,-1,1630,1212,0,0
413,-188,0,0,0,0,0,0,0,0,0,-1,1637,1212,0,0
420,-188,0,0,0,0,0,0,0,0,0,-1,1644,1212,0,0
427,-188,0,0,0,0,0,0,0,0,0,-1,1651,1212,0,0
434,-188,0,0,0,0,0,0,0,0,0,-1,1658,1212,0,0
441,-188,0,0,0,0,0,0,0,0,0,-1,1665,1212,0,0
448,-188,0,0,0,0,0,0,0,0,0,-1,1672,1212,0,0
455,-188,0,0,0,0,0,0,0,0,0,-1,1679,1212,0,0
462,-188,0,0,0,0,0,0,0,0,0,-1,1686,1212,0,0
469,-188,0,0,0,0,0,0,0,0,0,-1,1693,1212,0,0
476,-188,0,0,0,0,0,0,0,0,0,-1,1700,1212,0,0
483,-188,0,0,0,0,0,0,0,0,0,-1,1707,1212,0,0
490,-188,0,0,0,0,0,0,0,0,0,-1,1714,1212,0,0
497,-188,0,0,0,0,0,0,0,0,0,-1,1721,1212,0,0
504,-188,0,0,0,0,0,0,0,0,0,-1,1728,1212,0,0
511,-188,0,0,0,0,0,0,0,0,0,-1,1735,1212,0,0
518,-188,0,0,0,0,0,0,0,0,0,-1,1742,1212,0,0
525,-188,0,0,0,0,0,0,0,0,0,-1,1749,1212,0,0
532,-188,0,0,0,0,0,0,0,0,0,-1,1756,1212,0,0
539,-188,0,0,0,0,0,0,0,0,0,-1,1763,1212,0,0
546,-188,0,0,0,0,0,0,0,0,0,-1,1770,1212,0,0
553,-188,0,0,0,0,0,0,0,0,0,-1,1777,1212,0,0
560,-188,0,0,0,0,0,0,0,0,0,-1,1784,1212,0,0
567,-188,0,0,0,0,0,0,0,0,0,-1,1791,1212,0,0
574,-188,0,0,0,0,0,0,0,0,0,-1,1798,1212,0,0
581,-188,0,0,0,0,0,0,0,0,0,-1,1805,1212,0,0
588,-188,0,0,0,0,0,0,0,0,0,-1,1812,1212,0,0
595,-188,0,0,0,0,0,0,0,0,0,-1,1819,1212,0,0
602,-188,0,0,0,0,0,0,0,0,0,-1,1826,1212,0,0
609,-188,0,0,0,0,0,0,0,0,0,-1,1833,1212,0,0
616,-188,0,0,0,0,0,0,0,0,0,-1,1840,1212,0,0
623,-188,0,0,0,0,0,0,0,0,0,-1,1847,1212,0,0
630,-188,24.6984,2.72302,-0.000603266,-0.000942143,0.00498403,0.00421421,-0.00575962,0.768407,0.00578138,0.0406358,1854,1212,24.6984,-2.72307
637,-188,24.6216,2.87561,0.000214962,-0.000661113,0.00304303,0.00285132,-0.00329747,0.713915,0.00355312,0.0386133,1861,1212,24.6216,-2.87563
644,-188,24.5695,2.91223,0.000818447,-0.00016552,0.00136814,0.00178037,-0.00112744,0.612797,0.00169288,0.0362906,1868,1212,24.5695,-2.91221
651,-188,24.606,2.78479,0.00124664,0.000205104,0.000157459,0.00126992,0.00018182,0.146811,0.000792985,0.0320102,1875,1212,24.606,-2.78485
658,-188,24.6573,2.71924,0.00131728,0.000201544,-0.000381121,0.00143503,8.37859e-05,-0.299672,0.00093002,0.0311571,1882,1212,24.6573,-2.71928
665,-188,24.62,2.69629,0.00116143,3.89327e-05,-0.000492278,0.00134673,-0.00014637,-0.360014,0.000950373,0.0291099,1889,1212,24.62,-2.69634
672,-188,24.6726,2.73694,0.000797607,-0.000241446,-0.000385902,0.00092525,-0.000369089,-0.319437,0.000769939,0.0244927,1896,1212,24.6726,-2.73692
679,-188,24.7593,2.78101,0.000260411,-0.000543991,-6.99667e-05,0.000266451,-0.000550031,-0.0861181,0.00048078,0.0462926,1903,1212,24.7593,-2.78106
686,-188,24.9448,2.82495,0,0,0,0,0,0,0,-1,1910,1212,24.9449,-2.82496
693,-188,25.1136,2.84497,0,0,0,0,0,0,0,-1,1917,1212,25.1136,-2.84493
700,-188,22.0665,5.37073,0,0,0,0,0,0,0,-1,1924,1212,22.0665,-5.37069
707,-188,21.8608,5.22937,-0.00148691,-0.000994404,0.000956798,-0.000252679,-0.00222864,0.911352,0.0014091,0.0182693,1931,1212,21.8608,-5.22932
714,-188,21.8099,5.12134,-0.00188487,-0.00107221,0.00127332,-0.000141962,-0.00281512,0.939846,0.00183126,0.014062,1938,1212,21.8099,-5.12137
721,-188,21.6908,4.97839,-0.00191206,-0.00099685,0.00143343,5.02443e-05,-0.00295916,0.939904,0.00198973,0.0120715,1945,1212,21.6908,-4.97839
728,-188,21.6537,4.79688,-0.00135922,-0.000754494,0.00132041,0.000297726,-0.00241144,0.897954,0.0017155,0.00847183,1952,1212,21.6537,-4.79688
735,-188,21.6442,4.63416,1.55467e-05,-7.7044e-05,0.000731464,0.000702179,-0.000763676,0.753795,0.00084656,0.0116893,1959,1212,21.6441,-4.63414
742,-188,21.6327,4.46216,0.00243014,0.000983558,-5.03997e-05,0.0024319,0.000981804,-0.0347843,0.00141271,0.0136285,1966,1212,21.6327,-4.4622
749,-188,21.6257,4.27551,0.00534248,0.00212849,-0.000805963,0.00553326,0.00193771,-0.232437,0.00324207,0.0129534,1973,1212,21.6257,-4.27547
756,-188,21.6357,4.11072,0.00920882,0.00348293,-0.00169288,0.00967188,0.00301987,-0.267002,0.00571381,0.011493,1980,1212,21.6358,-4.11074
763,-188,21.6412,3.93848,0.0139787,0.00488152,-0.00250234,0.0146216,0.00423864,-0.251474,0.00868666,0.0123498,1987,1212,21.6412,-3.93853
770,-188,21.6804,3.72229,0.0200392,0.00642083,-0.0032478,0.0207741,0.00568593,-0.222529,0.0123966,0.0203187,1994,1212,21.6805,-3.72231
777,-188,22.1365,3.43469,0.0275507,0.00804096,-0.00383431,0.0282772,0.00731445,-0.187257,0.0169479,0.0433196,2001,1212,22.1365,-3.43464
784,-188,22.5555,3.12329,0,0,0,0,0,0,0,-1,2008,1212,22.5555,-3.12332
791,-188,22.6498,3.51526,0,0,0,0,0,0,0,-1,2015,1212,22.6498,-3.51524
798,-188,23.1676,3.66748,0,0,0,0,0,0,0,-1,2022,1212,23.1676,-3.6675
805,-188,0,0,0,0,0,0,0,0,0,-1,2029,1212,0,0
812,-188,0,0,0,0,0,0,0,0,0,-1,2036,1212,0,0
-700,-195,0,0,0,0,0,0,0,0,0,-1,524,1219,0,0
-693,-195,0,0,0,0,0,0,0,0,0,-1,531,1219,0,0
-686,-195,0,0,0,0,0,0,0,0,0,-1,538,1219,0,0
-679,-195,-11.2625,-2.32349,-0.0798592,0.0721289,-0.0374849,0.080871,-0.0886012,-1.34168,0.0978788,0.045971,545,1219,-11.2624,2.32352
-672,-195,-12.1082,-2.35425,-0.0655602,0.0647794,-0.0302631,0.0714633,-0.0722441,-1.35343,0.08297,0.0498235,552,1219,-12.1082,2.3542
-665,-195,-12.5298,-2.45581,0,0,0,0,0,0,0,-1,559,1219,-12.5298,2.45585
-658,-195,-13.0974,-2.59619,0,0,0,0,0,0,0,-1,566,1219,-13.0973,2.59615
-651,-195,-13.3641,2.0979,0,0,0,0,0,0,0,-1,573,1219,-13.3641,-2.09796
-644,-195,-13.2653,1.74609,-0.0228256,0.0313953,-0.0116474,0.0337915,-0.0252218,-1.3679,0.0341908,0.0411943,580,1219,-13.2653,-1.74608
-637,-195,-13.1743,1.31824,-0.0158548,0.0237248,-0.00872657,0.0255635,-0.0176934,-1.36314,0.0251118,0.0220274,587,1219,-13.1743,-1.31829
-630,-195,-13.2241,1.47888,-0.0105877,0.0172472,-0.00623123,0.0185784,-0.011919,-1.36031,0.0177471,0.00800932,594,1219,-13.2241,-1.47884
-623,-195,-13.2368,1.67651,-0.00586286,0.0114018,-0.00413713,0.012342,-0.00680304,-1.34734,0.0112065,0.00825524,601,1219,-13.2368,-1.67645
-616,-195,-13.2172,1.89502,-0.00269783,0.00647739,-0.00299119,0.0073664,-0.00358684,-1.2819,0.00644813,0.009956,608,1219,-13.2172,-1.89501
-609,-195,-13.2082,2.10693,-0.00187064,0.00316258,-0.00279739,0.00440878,-0.00311684,-1.1517,0.00436621,0.017544,615,1219,-13.2082,-2.10691
-602,-195,-13.2291,2.30029,-0.00187608,0.00111497,-0.0028122,0.00280458,-0.00356568,-1.02978,0.00368662,0.0212629,622,1219,-13.2291,-2.30032
-595,-195,-13.2644,2.51953,-0.00232088,-3.06212e-05,-0.0027506,0.0018037,-0.0041552,-0.982646,0.00352853,0.015926,629,1219,-13.2644,-2.51952
-588,-195,-13.2641,2.72717,-0.00239654,-0.00108314,-0.00294083,0.00127342,-0.0047531,-0.895248,0.00366765,0.00849432,636,1219,-13.2641,-2.72717
-581,-195,-13.2958,2.88147,-0.00207796,-0.00176101,-0.00320289,0.00128732,-0.00512629,-0.810117,0.00391778,0.0114557,643,1219,-13.2959,-2.88145
-574,-195,-13.3903,2.84729,-0.00170727,-0.00224312,-0.00333431,0.00136986,-0.00532025,-0.745307,0.00408083,0.0277477,650,1219,-13.3903,-2.84734
-567,-195,-13.4518,2.78052,0,0,0,0,0,0,0,-1,657,1219,-13.4518,-2.78051
-560,-195,-15.0869,0.962646,0,0,0,0,0,0,0,-1,664,1219,-15.0869,-0.962705
-553,-195,-16.7649,1.06104,0,0,0,0,0,0,0,-1,671,1219,-16.7649,-1.06101
-546,-195,-16.8131,1.13525,0,0,0,0,0,0,0,-1,678,1219,-16.8131,-1.13522
-539,-195,-16.6997,0.979614,-0.00068908,-0.0032129,-0.00279836,0.00111874,-0.00502071,-0.573578,0.00377571,0.0387966,685,1219,-16.6997,-0.97963
-532,-195,-16.6324,0.777832,-0.000629624,-0.00287184,-0.00232392,0.000829474,-0.00433094,-0.560655,0.00319982,0.0369367,692,1219,-16.6325,-0.777874
-525,-195,-16.5073,0.612427,-0.000711852,-0.00194693,-0.00151558,0.000307167,-0.00296595,-0.591937,0.00208724,0.041112,699,1219,-16.5073,-0.61242
-518,-195,-16.6833,0.813721,-0.00159344,-0.000134623,-0.00053797,4.23068e-05,-0.00177037,-1.25306,0.0011946,0.040949,706,1219,-16.6833,-0.813777
-511,-195,-16.7457,0.856812,-0.0023274,0.00266348,0.00105676,0.00287801,-0.00254194,1.37051,0.00313121,0.0366085,713,1219,-16.7457,-0.856859
-504,-195,0,0,0,0,0,0,0,0,0,-1,720,1219,0,0
-497,-195,0,0,0,0,0,0,0,0,0,-1,727,1219,0,0
-490,-195,0,0,0,0,0,0,0,0,0,-1,734,1219,0,0
-483,-195,0,0,0,0,0,0,0,0,0,-1,741,1219,0,0
-476,-195,0,0,0,0,0,0,0,0,0,-1,748,1219,0,0
-469,-195,0,0,0,0,0,0,0,0,0,-1,755,1219,0,0
-462,-195,0,0,0,0,0,0,0,0,0,-1,762,1219,0,0
-455,-195,0,0,0,0,0,0,0,0,0,-1,769,1219,0,0
-448,-195,0,0,0,0,0,0,0,0,0,-1,776,1219,0,0
-441,-195,0,0,0,0,0,0,0,0,0,-1,783,1219,0,0
-434,-195,0,0,0,0,0,0,0,0,0,-1,790,1219,0,0
-427,-195,0,0,0,0,0,0,0,0,0,-1,797,1219,0,0
-420,-195,0,0,0,0,0,0,0,0,0,-1,804,1219,0,0
-413,-195,0,0,0,0,0,0,0,0,0,-1,811,1219,0,0
-406,-195,0,0,0,0,0,0,0,0,0,-1,818,1219,0,0
-399,-195,0,0,0,0,0,0,0,0,0,-1,825,1219,0,0
-392,-195,0,0,0,0,0,0,0,0,0,-1,832,1219,0,0
-385,-195,0,0,0,0,0,0,0,0,0,-1,839,1219,0,0
-378,-195,0,0,0,0,0,0,0,0,0,-1,846,1219,0,0
-371,-195,0,0,0,0,0,0,0,0,0,-1,853,1219,0,0
-364,-195,0,0,0,0,0,0,0,0,0,-1,860,1219,0,0
-357,-195,0,0,0,0,0,0,0,0,0,-1,867,1219,0,0
-350,-195,0,0,0,0,0,0,0,0,0,-1,874,1219,0,0
-343,-195,0,0,0,0,0,0,0,0,0,-1,881,1219,0,0
-336,-195,0,0,0,0,0,0,0,0,0,-1,888,1219,0,0
-329,-195,0,0,0,0,0,0,0,0,0,-1,895,1219,0,0
-322,-195,0,0,0,0,0,0,0,0,0,-1,902,1219,0,0
-315,-195,0,0,0,0,0,0,0,0,0,-1,909,1219,0,0
-308,-195,0,0,0,0,0,0,0,0,0,-1,916,1219,0,0
-301,-195,0,0,0,0,0,0,0,0,0,-1,923,1219,0,0
-294,-195,0,0,0,0,0,0,0,0,0,-1,930,1219,0,0
-287,-195,0,0,0,0,0,0,0,0,0,-1,937,1219,0,0
-280,-195,0,0,0,0,0,0,0,0,0,-1,944,1219,0,0
-273,-195,0,0,0,0,0,0,0,0,0,-1,951,1219,0,0
-266,-195,0,0,0,0,0,0,0,0,0,-1,958,1219,0,0
-259,-195,0,0,0,0,0,0,0,0,0,-1,965,1219,0,0
-252,-195,0,0,0,0,0,0,0,0,0,-1,972,1219,0,0
-245,-195,0,0,0,0,0,0,0,0,0,-1,979,1219,0,0
-238,-195,0,0,0,0,0,0,0,0,0,-1,986,1219,0,0
-231,-195,0,0,0,0,0,0,0,0,0,-1,993,1219,0,0
-224,-195,0,0,0,0,0,0,0,0,0,-1,1000,1219,0,0
-217,-195,0,0,0,0,0,0,0,0,0,-1,1007,1219,0,0
-210,-195,0,0,0,0,0,0,0,0,0,-1,1014,1219,0,0
-203,-195,0,0,0,0,0,0,0,0,0,-1,1021,1219,0,0
-196,-195,0,0,0,0,0,0,0,0,0,-1,1028,1219,0,0
-189,-195,0,0,0,0,0,0,0,0,0,-1,1035,1219,0,0
-182,-195,0,0,0,0,0,0,0,0,0,-1,1042,1219,0,0
-175,-195,0,0,0,0,0,0,0,0,0,-1,1049,1219,0,0
-168,-195,0,0,0,0,0,0,0,0,0,-1,1056,1219,0,0
-161,-195,0,0,0,0,0,0,0,0,0,-1,1063,1219,0,0
-154,-195,0,0,0,0,0,0,0,0,0,-1,1070,1219,0,0
-147,-195,0,0,0,0,0,0,0,0,0,-1,1077,1219,0,0
-140,-195,0,0,0,0,0,0,0,0,0,-1,1084,1219,0,0
-133,-195,0,0,0,0,0,0,0,0,0,-1,1091,1219,0,0
-126,-195,0,0,0,0,0,0,0,0,0,-1,1098,1219,0,0
-119,-195,0,0,0,0,0,0,0,0,0,-1,1105,1219,0,0
-112,-195,0,0,0,0,0,0,0,0,0,-1,1112,1219,0,0
-105,-195,0,0,0,0,0,0,0,0,0,-1,1119,1219,0,0
-98,-195,0,0,0,0,0,0,0,0,0,-1,1126,1219,0,0
-91,-195,0,0,0,0,0,0,0,0,0,-1,1133,1219,0,0
-84,-195,0,0,0,0,0,0,0,0,0,-1,1140,1219,0,0
-77,-195,0,0,0,0,0,0,0,0,0,-1,1147,1219,0,0
-70,-195,0,0,0,0,0,0,0,0,0,-1,1154,1219,0,0
-63,-195,0,0,0,0,0,0,0,0,0,-1,1161,1219,0,0
-56,-195,0,0,0,0,0,0,0,0,0,-1,1168,1219,0,0
-49,-195,0,0,0,0,0,0,0,0,0,-1,1175,1219,0,0
-42,-195,0,0,0,0,0,0,0,0,0,-1,1182,1219,0,0
-35,-195,0,0,0,0,0,0,0,0,0,-1,1189,1219,0,0
-28,-195,0,0,0,0,0,0,0,0,0,-1,1196,1219,0,0
-21,-195,0,0,0,0,0,0,0,0,0,-1,1203,1219,0,0
-14,-195,0,0,0,0,0,0,0,0,0,-1,1210,1219,0,0
-7,-195,0,0,0,0,0,0,0,0,0,-1,1217,1219,0,0
0,-195,0,0,0,0,0,0,0,0,0,-1,1224,1219,0,0
7,-195,0,0,0,0,0,0,0,0,0,-1,1231,1219,0,0
14,-195,0,0,0,0,0,0,0,0,0,-1,1238,1219,0,0
21,-195,0,0,0,0,0,0,0,0,0,-1,1245,1219,0,0
28,-195,0,0,0,0,0,0,0,0,0,-1,1252,1219,0,0
35,-195,0,0,0,0,0,0,0,0,0,-1,1259,1219,0,0
42,-195,0,0,0,0,0,0,0,0,0,-1,1266,1219,0,0
49,-195,0,0,0,0,0,0,0,0,0,-1,1273,1219,0,0
56,-195,0,0,0,0,0,0,0,0,0,-1,1280,1219,0,0
63,-195,0,0,0,0,0,0,0,0,0,-1,1287,1219,0,0
70,-195,0,0,0,0,0,0,0,0,0,-1,1294,1219,0,0
77,-195,0,0,0,0,0,0,0,0,0,-1,1301,1219,0,0
84,-195,0,0,0,0,0,0,0,0,0,-1,1308,1219,0,0
91,-195,0,0,0,0,0,0,0,0,0,-1,1315,1219,0,0
98,-195,0,0,0,0,0,0,0,0,0,-1,1322,1219,0,0
105,-195,0,0,0,0,0,0,0,0,0,-1,1329,1219,0,0
112,-195,0,0,0,0,0,0,0,0,0,-1,1336,1219,0,0
119,-195,0,0,0,0,0,0,0,0,0,-1,1343,1219,0,0
126,-195,0,0,0,0,0,0,0,0,0,-1,1350,1219,0,0
133,-195,0,0,0,0,0,0,0,0,0,-1,1357,1219,0,0
140,-195,0,0,0,0,0,0,0,0,0,-1,1364,1219,0,0
147,-195,0,0,0,0,0,0,0,0,0,-1,1371,1219,0,0
154,-195,0,0,0,0,0,0,0,0,0,-1,1378,1219,0,0
161,-195,0,0,0,0,0,0,0,0,0,-1,1385,1219,0,0
168,-195,0,0,0,0,0,0,0,0,0,-1,1392,1219,0,0
175,-195,0,0,0,0,0,0,0,0,0,-1,1399,1219,0,0
182,-195,0,0,0,0,0,0,0,0,0,-1,1406,1219,0,0
189,-195,0,0,0,0,0,0,0,0,0,-1,1413,1219,0,0
196,-195,0,0,0,0,0,0,0,0,0,-1,1420,1219,0,0
203,-195,0,0,0,0,0,0,0,0,0,-1,1427,1219,0,0
210,-195,0,0,0,0,0,0,0,0,0,-1,1434,1219,0,0
217,-195,0,0,0,0,0,0,0,0,0,-1,1441,1219,0,0
224,-195,0,0,0,0,0,0,0,0,0,-1,1448,1219,0,0
231,-195,0,0,0,0,0,0,0,0,0,-1,1455,1219,0,0
238,-195,0,0,0,0,0,0,0,0,0,-1,1462,1219,0,0
245,-195,0,0,0,0,0,0,0,0,0,-1,1469,1219,0,0
252,-195,0,0,0,0,0,0,0,0,0,-1,1476,1219,0,0
259,-195,0,0,0,0,0,0,0,0,0,-1,1483,1219,0,0
266,-195,0,0,0,0,0,0,0,0,0,-1,1490,1219,0,0
273,-195,0,0,0,0,0,0,0,0,0,-1,1497,1219,0,0
280,-195,0,0,0,0,0,0,0,0,0,-1,1504,1219,0,0
287,-195,0,0,0,0,0,0,0,0,0,-1,1511,1219,0,0
294,-195,0,0,0,0,0,0,0,0,0,-1,1518,1219,0,0
301,-195,0,0,0,0,0,0,0,0,0,-1,1525,1219,0,0
308,-195,0,0,0,0,0,0,0,0,0,-1,1532,1219,0,0
315,-195,0,0,0,0,0,0,0,0,0,-1,1539,1219,0,0
322,-195,0,0,0,0,0,0,0,0,0,-1,1546,1219,0,0
329,-195,0,0,0,0,0,0,0,0,0,-1,1553,1219,0,0
336,-195,0,0,0,0,0,0,0,0,0,-1,1560,1219,0,0
343,-195,0,0,0,0,0,0,0,0,0,-1,1567,1219,0,0
350,-195,0,0,0,0,0,0,0,0,0,-1,1574,1219,0,0
357,-195,0,0,0,0,0,0,0,0,0,-1,1581,1219,0,0
364,-195,0,0,0,0,0,0,0,0,0,-1,1588,1219,0,0
371,-195,0,0,0,0,0,0,0,0,0,-1,1595,1219,0,0
378,-195,0,0,0,0,0,0,0,0,0,-1,1602,1219,0,0
385,-195,0,0,0,0,0,0,0,0,0,-1,1609,1219,0,0
392,-195,0,0,0,0,0,0,0,0,0,-1,1616,1219,0,0
399,-195,0,0,0,0,0,0,0,0,0,-1,1623,1219,0,0
406,-195,0,0,0,0,0,0,0,0,0,-1,1630,1219,0,0
413,-195,0,0,0,0,0,0,0,0,0,-1,1637,1219,0,0
420,-195,0,0,0,0,0,0,0,0,0,-1,1644,1219,0,0
427,-195,0,0,0,0,0,0,0,0,0,-1,1651,1219,0,0
434,-195,0,0,0,0,0,0,0,0,0,-1,1658,1219,0,0
441,-195,0,0,0,0,0,0,0,0,0,-1,1665,1219,0,0
448,-195,0,0,0,0,0,0,0,0,0,-1,1672,1219,0,0
455,-195,0,0,0,0,0,0,0,0,0,-1,1679,1219,0,0
462,-195,0,0,0,0,0,0,0,0,0,-1,1686,1219,0,0
469,-195,0,0,0,0,0,0,0,0,0,-1,1693,1219,0,0
476,-195,0,0,0,0,0,0,0,0,0,-1,1700,1219,0,0
483,-195,0,0,0,0,0,0,0,0,0,-1,1707,1219,0,0
490,-195,0,0,0,0,0,0,0,0,0,-1,1714,1219,0,0
497,-195,0,0,0,0,0,0,0,0,0,-1,1721,1219,0,0
504,-195,0,0,0,0,0,0,0,0,0,-1,1728,1219,0,0
511,-195,0,0,0,0,0,0,0,0,0,-1,1735,1219,0,0
518,-195,0,0,0,0,0,0,0,0,0,-1,1742,1219,0,0
525,-195,0,0,0,0,0,0,0,0,0,-1,1749,1219,0,0
532,-195,0,0,0,0,0,0,0,0,0,-1,1756,1219,0,0
539,-195,0,0,0,0,0,0,0,0,0,-1,1763,1219,0,0
546,-195,0,0,0,0,0,0,0,0,0,-1,1770,1219,0,0
553,-195,0,0,0,0,0,0,0,0,0,-1,1777,1219,0,0
560,-195,0,0,0,0,0,0,0,0,0,-1,1784,1219,0,0
567,-195,0,0,0,0,0,0,0,0,0,-1,1791,1219,0,0
574,-195,0,0,0,0,0,0,0,0,0,-1,1798,1219,0,0
581,-195,0,0,0,0,0,0,0,0,0,-1,1805,1219,0,0
588,-195,0,0,0,0,0,0,0,0,0,-1,1812,1219,0,0
595,-195,0,0,0,0,0,0,0,0,0,-1,1819,1219,0,0
602,-195,0,0,0,0,0,0,0,0,0,-1,1826,1219,0,0
609,-195,0,0,0,0,0,0,0,0,0,-1,1833,1219,0,0
616,-195,0,0,0,0,0,0,0,0,0,-1,1840,1219,0,0
623,-195,0,0,0,0,0,0,0,0,0,-1,1847,1219,0,0
630,-195,24.7496,2.77307,-0.000326103,0.00134592,0.0046152,0.00520022,-0.0041804,0.874998,0.00542656,0.041587,1854,1219,24.7496,-2.77309
637,-195,24.6765,2.76941,0.000372933,0.00120063,0.00264546,0.00346442,-0.00189085,0.862988,0.00313604,0.0375729,1861,1219,24.6765,-2.76935
644,-195,24.5995,2.85144,0.000818402,0.00119318,0.00104171,0.00206422,-5.2641e-05,0.874389,0.00139403,0.0338898,1868,1219,24.5994,-2.85147
651,-195,24.6039,2.81738,0.00111128,0.00104138,-7.52848e-06,0.00111209,0.00104058,-0.106081,0.000718742,0.02659,1875,1219,24.6039,-2.81739
658,-195,24.629,2.74683,0.00122723,0.000716119,-0.000484364,0.00151932,0.000424027,-0.542653,0.000905268,0.0238418,1882,1219,24.6291,-2.74679
665,-195,24.6576,2.72205,0.00120109,0.000351354,-0.000595773,0.00150797,4.4472e-05,-0.475653,0.000990825,0.022031,1889,1219,24.6575,-2.72207
672,-195,24.7064,2.6969,0.000962461,-5.25351e-05,-0.000519071,0.0011809,-0.000270977,-0.398336,0.00089143,0.0332889,1896,1219,24.7065,-2.69689
679,-195,24.7172,2.67896,0.000586354,-0.000415468,-0.000265502,0.000652367,-0.000481482,-0.243694,0.000657102,0.0473193,1903,1219,24.7172,-2.67901
686,-195,24.9569,2.71057,0,0,0,0,0,0,0,-1,1910,1219,24.957,-2.71062
693,-195,21.9082,5.26367,0,0,0,0,0,0,0,-1,1917,1219,21.9082,-5.26372
700,-195,21.7103,5.34436,-0.000292979,-0.00109126,0.00028014,-0.000204481,-0.00117976,0.305985,0.000727984,0.0418814,1924,1219,21.7103,-5.3444
707,-195,21.5177,5.36426,-0.000688774,-0.00102789,0.000625779,-0.000209988,-0.00150667,0.653098,0.000942285,0.0195736,1931,1219,21.5177,-5.36423
714,-195,21.4844,5.14893,-0.00106125,-0.0010725,0.000921297,-0.000145559,-0.00198819,0.782345,0.0012797,0.0184918,1938,1219,21.4844,-5.14891
721,-195,21.4783,4.97681,-0.00113909,-0.000983333,0.00111967,6.11607e-05,-0.00218358,0.82012,0.00147653,0.0121607,1945,1219,21.4783,-4.97686
728,-195,21.4723,4.80164,-0.000694188,-0.000834496,0.00110933,0.000347202,-0.00187589,0.75382,0.00138095,0.00942612,1952,1219,21.4723,-4.80166
735,-195,21.4551,4.63831,0.000570784,-0.000248801,0.000695393,0.000968148,-0.000646165,0.519142,0.000938184,0.011077,1959,1219,21.4551,-4.63827
742,-195,21.4474,4.45642,0.00287516,0.000523695,0.000211412,0.00289401,0.000504839,0.0889562,0.00178502,0.0131321,1966,1219,21.4474,-4.45639
749,-195,21.4541,4.26599,0.00557729,0.00128297,-0.000145986,0.00558225,0.00127801,-0.0339429,0.00337709,0.0132844,1973,1219,21.4541,-4.26595
756,-195,21.4608,4.09082,0.00924177,0.00213566,-0.000513665,0.00927871,0.00209872,-0.0717875,0.00561845,0.0124165,1980,1219,21.4608,-4.09087
763,-195,21.4681,3.90271,0.0139976,0.00297103,-0.000738667,0.0140469,0.00292177,-0.066593,0.00855857,0.0139862,1987,1219,21.4682,-3.90275
770,-195,21.4888,3.57507,0.0202339,0.00384221,-0.000776088,0.0202706,0.00380555,-0.0472056,0.0124408,0.0272352,1994,1219,21.4888,-3.57505
777,-195,21.8252,3.07813,0.0280698,0.00468764,-0.000458339,0.0280788,0.00467866,-0.019592,0.017371,0.0470645,2001,1219,21.8251,-3.07811
784,-195,22.2716,2.82068,0,0,0,0,0,0,0,-1,2008,1219,22.2716,-2.82065
791,-195,22.6749,2.84143,0,0,0,0,0,0,0,-1,2015,1219,22.6749,-2.84144
798,-195,23.2595,3.24731,0,0,0,0,0,0,0,-1,2022,1219,23.2596,-3.24731
805,-195,0,0,0,0,0,0,0,0,0,-1,2029,1219,0,0
812,-195,0,0,0,0,0,0,0,0,0,-1,2036,1219,0,0
-700,-202,0,0,0,0,0,0,0,0,0,-1,524,1226,0,0
-693,-202,0,0,0,0,0,0,0,0,0,-1,531,1226,0,0
-686,-202,0,0,0,0,0,0,0,0,0,-1,538,1226,0,0
-679,-202,-10.4796,-2.6405,0,0,0,0,0,0,0,-1,545,1226,-10.4796,2.64055
-672,-202,-11.6325,-2.77161,0,0,0,0,0,0,0,-1,552,1226,-11.6325,2.77156
-665,-202,-12.7605,0.465942,0,0,0,0,0,0,0,-1,559,1226,-12.7605,-0.465987
-658,-202,-12.6779,-3.5697,0,0,0,0,0,0,0,-1,566,1226,-12.6779,3.56967
-651,-202,-12.817,0.963257,0,0,0,0,0,0,0,-1,573,1226,-12.8169,-0.963244
-644,-202,-12.8636,1.13538,-0.0230404,0.0321101,-0.0119975,0.034607,-0.0255373,-1.36561,0.0348557,0.0466845,580,1226,-12.8636,-1.13539
-637,-202,-12.9218,1.29785,-0.0156236,0.024189,-0.00888016,0.0260799,-0.0175145,-1.36099,0.0253307,0.0326004,587,1226,-12.9218,-1.29781
-630,-202,-12.9758,1.45398,-0.010005,0.0174504,-0.00627758,0.0188177,-0.0113722,-1.35635,0.017606,0.0133272,594,1226,-12.9758,-1.45404
-623,-202,-13.0074,1.6593,-0.00511525,0.0114975,-0.0040496,0.012432,-0.00604983,-1.34399,0.0108805,0.00815659,601,1226,-13.0074,-1.65927
-616,-202,-13.0114,1.88098,-0.00200772,0.00662372,-0.00284344,0.00747623,-0.00286023,-1.27951,0.00616293,0.00835987,608,1226,-13.0113,-1.88098
-609,-202,-13.0266,2.07739,-0.0011697,0.00330748,-0.00253848,0.00445344,-0.00231565,-1.14675,0.00397257,0.0193733,615,1226,-13.0266,-2.07733
-602,-202,-13.0543,2.27405,-0.00108202,0.00123681,-0.00247452,0.00281006,-0.00265528,-1.00448,0.00315584,0.020626,622,1226,-13.0543,-2.274
-595,-202,-13.0748,2.51575,-0.00141765,6.04966e-05,-0.00234783,0.00178283,-0.00313999,-0.937883,0.00287797,0.0162922,629,1226,-13.0748,-2.51574
-588,-202,-13.0146,2.75439,-0.00142345,-0.00104661,-0.00251009,0.00128212,-0.00375218,-0.82286,0.00302092,0.00804057,636,1226,-13.0146,-2.75437
-581,-202,-13.024,2.8855,-0.00108073,-0.00177623,-0.00278505,0.0013782,-0.00423516,-0.723288,0.00337789,0.014283,643,1226,-13.024,-2.88554
-574,-202,-13.1429,2.89465,-0.000692288,-0.00229492,-0.00295696,0.00157001,-0.00455721,-0.653079,0.00367502,0.0239899,650,1226,-13.143,-2.89468
-567,-202,-13.2213,2.88831,0,0,0,0,0,0,0,-1,657,1226,-13.2213,-2.88832
-560,-202,-10.929,2.73096,0,0,0,0,0,0,0,-1,664,1226,-10.929,-2.73092
-553,-202,-16.5641,1.12805,0,0,0,0,0,0,0,-1,671,1226,-16.5641,-1.12808
-546,-202,-16.5936,1.02661,-0.000532874,-0.0029122,-0.0028827,0.00139599,-0.00484107,-0.589699,0.00377964,0.0461986,678,1226,-16.5936,-1.02662
-539,-202,-16.65,0.971436,-0.00073596,-0.00276572,-0.00277139,0.00120053,-0.00470221,-0.609882,0.00360229,0.0415921,685,1226,-16.65,-0.971451
-532,-202,-16.6749,0.897705,-0.00121951,-0.00224752,-0.00251512,0.000833594,-0.00430062,-0.684604,0.00318156,0.0307642,692,1226,-16.6748,-0.897738
-525,-202,-16.5985,0.77832,-0.00198767,-0.0011365,-0.0019916,0.000474483,-0.00359865,-0.890659,0.00257189,0.037531,699,1226,-16.5985,-0.778319
-518,-202,-16.6272,0.834351,-0.00355562,0.000861333,-0.00124426,0.00118773,-0.00388201,-1.31426,0.0030617,0.0406875,706,1226,-16.6272,-0.834337
-511,-202,-16.6724,0.921875,-0.00515707,0.00390899,0.000120577,0.00391059,-0.00515867,1.5575,0.00525264,0.0383193,713,1226,-16.6724,-0.921833
-504,-202,0,0,0,0,0,0,0,0,0,-1,720,1226,0,0
-497,-202,0,0,0,0,0,0,0,0,0,-1,727,1226,0,0
-490,-202,0,0,0,0,0,0,0,0,0,-1,734,1226,0,0
-483,-202,0,0,0,0,0,0,0,0,0,-1,741,1226,0,0
-476,-202,0,0,0,0,0,0,0,0,0,-1,748,1226,0,0
-469,-202,0,0,0,0,0,0,0,0,0,-1,755,1226,0,0
-462,-202,0,0,0,0,0,0,0,0,0,-1,762,1226,0,0
-455,-202,0,0,0,0,0,0,0,0,0,-1,769,1226,0,0
-448,-202,0,0,0,0,0,0,0,0,0,-1,776,1226,0,0
-441,-202,0,0,0,0,0,0,0,0,0,-1,783,1226,0,0
-434,-202,0,0,0,0,0,0,0,0,0,-1,790,1226,0,0
-427,-202,0,0,0,0,0,0,0,0,0,-1,797,1226,0,0
-420,-202,0,0,0,0,0,0,0,0,0,-1,804,1226,0,0
-413,-202,0,0,0,0,0,0,0,0,0,-1,811,1226,0,0
-406,-202,0,0,0,0,0,0,0,0,0,-1,818,1226,0,0
-399,-202,0,0,0,0,0,0,0,0,0,-1,825,1226,0,0
-392,-202,0,0,0,0,0,0,0,0,0,-1,832,1226,0,0
-385,-202,0,0,0,0,0,0,0,0,0,-1,839,1226,0,0
-378,-202,0,0,0,0,0,0,0,0,0,-1,846,1226,0,0
-371,-202,0,0,0,0,0,0,0,0,0,-1,853,1226,0,0
-364,-202,0,0,0,0,0,0,0,0,0,-1,860,1226,0,0
-357,-202,0,0,0,0,0,0,0,0,0,-1,867,1226,0,0
-350,-202,0,0,0,0,0,0,0,0,0,-1,874,1226,0,0
-343,-202,0,0,0,0,0,0,0,0,0,-1,881,1226,0,0
-336,-202,0,0,0,0,0,0,0,0,0,-1,888,1226,0,0
-329,-202,0,0,0,0,0,0,0,0,0,-1,895,1226,0,0
-322,-202,0,0,0,0,0,0,0,0,0,-1,902,1226,0,0
-315,-202,0,0,0,0,0,0,0,0,0,-1,909,1226,0,0
-308,-202,0,0,0,0,0,0,0,0,0,-1,916,1226,0,0
-301,-202,0,0,0,0,0,0,0,0,0,-1,923,1226,0,0
-294,-202,0,0,0,0,0,0,0,0,0,-1,930,1226,0,0
-287,-202,0,0,0,0,0,0,0,0,0,-1,937,1226,0,0
-280,-202,0,0,0,0,0,0,0,0,0,-1,944,1226,0,0
-273,-202,0,0,0,0,0,0,0,0,0,-1,951,1226,0,0
-266,-202,0,0,0,0,0,0,0,0,0,-1,958,1226,0,0
-259,-202,0,0,0,0,0,0,0,0,0,-1,965,1226,0,0
-252,-202,0,0,0,0,0,0,0,0,0,-1,972,1226,0,0
-245,-202,0,0,0,0,0,0,0,0,0,-1,979,1226,0,0
-238,-202,0,0,0,0,0,0,0,0,0,-1,986,1226,0,0
-231,-202,0,0,0,0,0,0,0,0,0,-1,993,1226,0,0
-224,-202,0,0,0,0,0,0,0,0,0,-1,1000,1226,0,0
-217,-202,0,0,0,0,0,0,0,0,0,-1,1007,1226,0,0
-210,-202,0,0,0,0,0,0,0,0,0,-1,1014,1226,0,0
-203,-202,0,0,0,0,0,0,0,0,0,-1,1021,1226,0,0
-196,-202,0,0,0,0,0,0,0,0,0,-1,1028,1226,0,0
-189,-202,0,0,0,0,0,0,0,0,0,-1,1035,1226,0,0
-182,-202,0,0,0,0,0,0,0,0,0,-1,1042,1226,0,0
-175,-202,0,0,0,0,0,0,0,0,0,-1,1049,1226,0,0
-168,-202,0,0,0,0,0,0,0,0,0,-1,1056,1226,0,0
-161,-202,0,0,0,0,0,0,0,0,0,-1,1063,1226,0,0
-154,-202,0,0,0,0,0,0,0,0,0,-1,1070,1226,0,0
-147,-202,0,0,0,0,0,0,0,0,0,-1,1077,1226,0,0
-140,-202,0,0,0,0,0,0,0,0,0,-1,1084,1226,0,0
-133,-202,0,0,0,0,0,0,0,0,0,-1,1091,1226,0,0
-126,-202,0,0,0,0,0,0,0,0,0,-1,1098,1226,0,0
-119,-202,0,0,0,0,0,0,0,0,0,-1,1105,1226,0,0
-112,-202,0,0,0,0,0,0,0,0,0,-1,1112,1226,0,0
-105,-202,0,0,0,0,0,0,0,0,0,-1,1119,1226,0,0
-98,-202,0,0,0,0,0,0,0,0,0,-1,1126,1226,0,0
-91,-202,0,0,0,0,0,0,0,0,0,-1,1133,1226,0,0
-84,-202,0,0,0,0,0,0,0,0,0,-1,1140,1226,0,0
-77,-202,0,0,0,0,0,0,0,0,0,-1,1147,1226,0,0
-70,-202,0,0,0,0,0,0,0,0,0,-1,1154,1226,0,0
-63,-202,0,0,0,0,0,0,0,0,0,-1,1161,1226,0,0
-56,-202,0,0,0,0,0,0,0,0,0,-1,1168,1226,0,0
-49,-202,0,0,0,0,0,0,0,0,0,-1,1175,1226,0,0
-42,-202,0,0,0,0,0,0,0,0,0,-1,1182,1226,0,0
-35,-202,0,0,0,0,0,0,0,0,0,-1,1189,1226,0,0
-28,-202,0,0,0,0,0,0,0,0,0,-1,1196,1226,0,0
-21,-202,0,0,0,0,0,0,0,0,0,-1,1203,1226,0,0
-14,-202,0,0,0,0,0,0,0,0,0,-1,1210,1226,0,0
-7,-202,0,0,0,0,0,0,0,0,0,-1,1217,1226,0,0
0,-202,0,0,0,0,0,0,0,0,0,-1,1224,1226,0,0
7,-202,0,0,0,0,0,0,0,0,0,-1,1231,1226,0,0
14,-202,0,0,0,0,0,0,0,0,0,-1,1238,1226,0,0
21,-202,0,0,0,0,0,0,0,0,0,-1,1245,1226,0,0
28,-202,0,0,0,0,0,0,0,0,0,-1,1252,1226,0,0
35,-202,0,0,0,0,0,0,0,0,0,-1,1259,1226,0,0
42,-202,0,0,0,0,0,0,0,0,0,-1,1266,1226,0,0
49,-202,0,0,0,0,0,0,0,0,0,-1,1273,1226,0,0
56,-202,0,0,0,0,0,0,0,0,0,-1,1280,1226,0,0
63,-202,0,0,0,0,0,0,0,0,0,-1,1287,1226,0,0
70,-202,0,0,0,0,0,0,0,0,0,-1,1294,1226,0,0
77,-202,0,0,0,0,0,0,0,0,0,-1,1301,1226,0,0
84,-202,0,0,0,0,0,0,0,0,0,-1,1308,1226,0,0
91,-202,0,0,0,0,0,0,0,0,0,-1,1315,1226,0,0
98,-202,0,0,0,0,0,0,0,0,0,-1,1322,1226,0,0
105,-202,0,0,0,0,0,0,0,0,0,-1,1329,1226,0,0
112,-202,0,0,0,0,0,0,0,0,0,-1,1336,1226,0,0
119,-202,0,0,0,0,0,0,0,0,0,-1,1343,1226,0,0
126,-202,0,0,0,0,0,0,0,0,0,-1,1350,1226,0,0
133,-202,0,0,0,0,0,0,0,0,0,-1,1357,1226,0,0
140,-202,0,0,0,0,0,0,0,0,0,-1,1364,1226,0,0
147,-202,0,0,0,0,0,0,0,0,0,-1,1371,1226,0,0
154,-202,0,0,0,0,0,0,0,0,0,-1,1378,1226,0,0
161,-202,0,0,0,0,0,0,0,0,0,-1,1385,1226,0,0
168,-202,0,0,0,0,0,0,0,0,0,-1,1392,1226,0,0
175,-202,0,0,0,0,0,0,0,0,0,-1,1399,1226,0,0
182,-202,0,0,0,0,0,0,0,0,0,-1,1406,1226,0,0
189,-202,0,0,0,0,0,0,0,0,0,-1,1413,1226,0,0
196,-202,0,0,0,0,0,0,0,0,0,-1,1420,1226,0,0
203,-202,0,0,0,0,0,0,0,0,0,-1,1427,1226,0,0
210,-202,0,0,0,0,0,0,0,0,0,-1,1434,1226,0,0
217,-202,0,0,0,0,0,0,0,0,0,-1,1441,1226,0,0
224,-202,0,0,0,0,0,0,0,0,0,-1,1448,1226,0,0
231,-202,0,0,0,0,0,0,0,0,0,-1,1455,1226,0,0
238,-202,0,0,0,0,0,0,0,0,0,-1,1462,1226,0,0
245,-202,0,0,0,0,0,0,0,0,0,-1,1469,1226,0,0
252,-202,0,0,0,0,0,0,0,0,0,-1,1476,1226,0,0
259,-202,0,0,0,0,0,0,0,0,0,-1,1483,1226,0,0
266,-202,0,0,0,0,0,0,0,0,0,-1,1490,1226,0,0
273,-202,0,0,0,0,0,0,0,0,0,-1,1497,1226,0,0
280,-202,0,0,0,0,0,0,0,0,0,-1,1504,1226,0,0
287,-202,0,0,0,0,0,0,0,0,0,-1,1511,1226,0,0
294,-202,0,0,0,0,0,0,0,0,0,-1,1518,1226,0,0
301,-202,0,0,0,0,0,0,0,0,0,-1,1525,1226,0,0
308,-202,0,0,0,0,0,0,0,0,0,-1,1532,1226,0,0
315,-202,0,0,0,0,0,0,0,0,0,-1,1539,1226,0,0
322,-202,0,0,0,0,0,0,0,0,0,-1,1546,1226,0,0
329,-202,0,0,0,0,0,0,0,0,0,-1,1553,1226,0,0
336,-202,0,0,0,0,0,0,0,0,0,-1,1560,1226,0,0
343,-202,0,0,0,0,0,0,0,0,0,-1,1567,1226,0,0
350,-202,0,0,0,0,0,0,0,0,0,-1,1574,1226,0,0
357,-202,0,0,0,0,0,0,0,0,0,-1,1581,1226,0,0
364,-202,0,0,0,0,0,0,0,0,0,-1,1588,1226,0,0
371,-202,0,0,0,0,0,0,0,0,0,-1,1595,1226,0,0
378,-202,0,0,0,0,0,0,0,0,0,-1,1602,1226,0,0
385,-202,0,0,0,0,0,0,0,0,0,-1,1609,1226,0,0
392,-202,0,0,0,0,0,0,0,0,0,-1,1616,1226,0,0
399,-202,0,0,0,0,0,0,0,0,0,-1,1623,1226,0,0
406,-202,0,0,0,0,0,0,0,0,0,-1,1630,1226,0,0
413,-202,0,0,0,0,0,0,0,0,0,-1,1637,1226,0,0
420,-202,0,0,0,0,0,0,0,0,0,-1,1644,1226,0,0
427,-202,0,0,0,0,0,0,0,0,0,-1,1651,1226,0,0
434,-202,0,0,0,0,0,0,0,0,0,-1,1658,1226,0,0
441,-202,0,0,0,0,0,0,0,0,0,-1,1665,1226,0,0
448,-202,0,0,0,0,0,0,0,0,0,-1,1672,1226,0,0
455,-202,0,0,0,0,0,0,0,0,0,-1,1679,1226,0,0
462,-202,0,0,0,0,0,0,0,0,0,-1,1686,1226,0,0
469,-202,0,0,0,0,0,0,0,0,0,-1,1693,1226,0,0
476,-202,0,0,0,0,0,0,0,0,0,-1,1700,1226,0,0
483,-202,0,0,0,0,0,0,0,0,0,-1,1707,1226,0,0
490,-202,0,0,0,0,0,0,0,0,0,-1,1714,1226,0,0
497,-202,0,0,0,0,0,0,0,0,0,-1,1721,1226,0,0
504,-202,0,0,0,0,0,0,0,0,0,-1,1728,1226,0,0
511,-202,0,0,0,0,0,0,0,0,0,-1,1735,1226,0,0
518,-202,0,0,0,0,0,0,0,0,0,-1,1742,1226,0,0
525,-202,0,0,0,0,0,0,0,0,0,-1,1749,1226,0,0
532,-202,0,0,0,0,0,0,0,0,0,-1,1756,1226,0,0
539,-202,0,0,0,0,0,0,0,0,0,-1,1763,1226,0,0
546,-202,0,0,0,0,0,0,0,0,0,-1,1770,1226,0,0
553,-202,0,0,0,0,0,0,0,0,0,-1,1777,1226,0,0
560,-202,0,0,0,0,0,0,0,0,0,-1,1784,1226,0,0
567,-202,0,0,0,0,0,0,0,0,0,-1,1791,1226,0,0
574,-202,0,0,0,0,0,0,0,0,0,-1,1798,1226,0,0
581,-202,0,0,0,0,0,0,0,0,0,-1,1805,1226,0,0
588,-202,0,0,0,0,0,0,0,0,0,-1,1812,1226,0,0
595,-202,0,0,0,0,0,0,0,0,0,-1,1819,1226,0,0
602,-202,0,0,0,0,0,0,0,0,0,-1,1826,1226,0,0
609,-202,0,0,0,0,0,0,0,0,0,-1,1833,1226,0,0
616,-202,0,0,0,0,0,0,0,0,0,-1,1840,1226,0,0
623,-202,0,0,0,0,0,0,0,0,0,-1,1847,1226,0,0
630,-202,24.7067,2.74561,-0.000368048,0.00235835,0.00388579,0.00511312,-0.00312282,0.954099,0.00480108,0.0367885,1854,1226,24.7067,-2.74558
637,-202,24.7267,2.84143,1.25265e-05,0.00181067,0.00196188,0.00306968,-0.00124648,1.00025,0.00256498,0.0350573,1861,1226,24.7267,-2.84141
644,-202,24.7778,2.80664,0.00020966,0.00140677,0.000519994,0.0016011,1.53327e-05,1.21316,0.00106232,0.0327729,1868,1226,24.7779,-2.8066
651,-202,24.6833,2.80127,0.000393626,0.000959993,-0.00030168,0.00109058,0.000263042,-1.16229,0.000657159,0.0268409,1875,1226,24.6833,-2.80132
658,-202,24.6932,2.77966,0.00059543,0.00054118,-0.000666176,0.00123503,-9.8423e-05,-0.765051,0.000858046,0.0226822,1882,1226,24.6933,-2.77969
665,-202,24.7213,2.74854,0.000727012,0.000168126,-0.00072525,0.00122479,-0.000329654,-0.601511,0.000945761,0.0209361,1889,1226,24.7213,-2.74856
672,-202,24.7909,2.72156,0.000652668,-0.000217317,-0.00064949,0.000999376,-0.000564025,-0.490333,0.000914221,0.0417663,1896,1226,24.7909,-2.72153
679,-202,24.8528,2.71729,0.000466216,-0.000547148,-0.000432713,0.000625842,-0.000706775,-0.35341,0.00076986,0.0455742,1903,1226,24.8528,-2.71726
686,-202,24.969,2.78833,0,0,0,0,0,0,0,-1,1910,1226,24.969,-2.78838
693,-202,21.2889,5.78149,0,0,0,0,0,0,0,-1,1917,1226,21.2889,-5.78144
700,-202,21.2395,5.56384,0.000143788,-0.00113325,0.000109608,0.000153128,-0.00114259,0.0850014,0.00081756,0.0308778,1924,1226,21.2395,-5.5638
707,-202,21.2384,5.30945,-0.000141419,-0.00108224,0.000431373,2.64251e-05,-0.00125008,0.371068,0.000842334,0.0265703,1931,1226,21.2384,-5.30942
714,-202,21.2795,5.14343,-0.00049678,-0.00106838,0.000724644,-3.61155e-06,-0.00156155,0.597564,0.00103983,0.016872,1938,1226,21.2796,-5.14338
721,-202,21.3074,4.97412,-0.000596276,-0.00102646,0.00098354,0.000195416,-0.00181815,0.677747,0.00128221,0.0131774,1945,1226,21.3074,-4.97413
728,-202,21.293,4.81201,-0.000245273,-0.00105377,0.00111034,0.000532118,-0.00183116,0.610818,0.0014315,0.0107341,1952,1226,21.293,-4.81201
735,-202,21.272,4.64148,0.000908281,-0.000718377,0.000921198,0.00132382,-0.00113391,0.423754,0.00142038,0.0103252,1959,1226,21.272,-4.64152
742,-202,21.2815,4.45789,0.00313445,-0.000435944,0.000758744,0.003289,-0.000590495,0.200943,0.0024137,0.0100295,1966,1226,21.2815,-4.45787
749,-202,21.2933,4.26208,0.0056966,-0.000270927,0.000780003,0.00579687,-0.000371195,0.127847,0.00399406,0.0100182,1973,1226,21.2933,-4.2621
756,-202,21.2802,4.07458,0.00925339,-0.000149552,0.00085999,0.0093314,-0.000227559,0.0904597,0.00629815,0.0104099,1980,1226,21.2801,-4.07458
763,-202,21.2793,3.89709,0.014109,-0.000144315,0.00109641,0.0141929,-0.000228161,0.0763246,0.00953889,0.0152234,1987,1226,21.2793,-3.89715
770,-202,21.2727,3.5022,0.0206917,-0.000234145,0.00155007,0.0208059,-0.000348343,0.0735393,0.0139882,0.0390872,1994,1226,21.2728,-3.5022
777,-202,21.2852,3.04956,0,0,0,0,0,0,0,-1,2001,1226,21.2851,-3.04952
784,-202,21.9501,1.71143,0,0,0,0,0,0,0,-1,2008,1226,21.9501,-1.71145
791,-202,22.7001,2.1676,0,0,0,0,0,0,0,-1,2015,1226,22.7,-2.16764
798,-202,23.8676,3.01599,0,0,0,0,0,0,0,-1,2022,1226,23.8675,-3.01601
805,-202,0,0,0,0,0,0,0,0,0,-1,2029,1226,0,0
812,-202,0,0,0,0,0,0,0,0,0,-1,2036,1226,0,0
-700,-209,0,0,0,0,0,0,0,0,0,-1,524,1233,0,0
-693,-209,0,0,0,0,0,0,0,0,0,-1,531,1233,0,0
-686,-209,0,0,0,0,0,0,0,0,0,-1,538,1233,0,0
-679,-209,-9.73761,-2.98828,0,0,0,0,0,0,0,-1,545,1233,-9.7376,2.98827
-672,-209,-12.9376,0.38501,0,0,0,0,0,0,0,-1,552,1233,-12.9375,-0.385005
-665,-209,-12.7741,0.471802,0,0,0,0,0,0,0,-1,559,1233,-12.7741,-0.471763
-658,-209,-12.5325,0.518188,0,0,0,0,0,0,0,-1,566,1233,-12.5325,-0.518179
-651,-209,-11.2495,0.689819,0,0,0,0,0,0,0,-1,573,1233,-11.2495,-0.68977
-644,-209,-12.6795,1.08435,0,0,0,0,0,0,0,-1,580,1233,-12.6795,-1.0843
-637,-209,-12.8006,1.20532,-0.0169141,0.0249539,-0.00734258,0.0262042,-0.0181644,-1.40213,0.0257561,0.0407267,587,1233,-12.8006,-1.20537
-630,-209,-12.7155,1.33411,-0.0107313,0.0179464,-0.00502518,0.0188015,-0.0115863,-1.40225,0.0177085,0.0213978,594,1233,-12.7154,-1.33408
-623,-209,-12.7689,1.65186,-0.00554649,0.0118773,-0.00301437,0.0123841,-0.00605324,-1.40424,0.0108519,0.0111598,601,1233,-12.7688,-1.65189
-616,-209,-12.7828,1.88635,-0.00234218,0.00705056,-0.00204823,0.00747777,-0.0027694,-1.36517,0.00612084,0.0111218,608,1233,-12.7827,-1.88636
-609,-209,-12.8008,2.08496,-0.00125999,0.00377207,-0.00187734,0.00439528,-0.0018832,-1.25028,0.00372034,0.0126587,615,1233,-12.8008,-2.08495
-602,-209,-12.8182,2.29456,-0.000860303,0.00159112,-0.0019203,0.00264355,-0.00191273,-1.06945,0.00264182,0.0156272,622,1233,-12.8182,-2.29457
-595,-209,-12.7939,2.50684,-0.000898487,0.000283289,-0.00184039,0.00162532,-0.00224052,-0.940733,0.00224135,0.0117435,629,1233,-12.7939,-2.5068
-588,-209,-12.7666,2.72473,-0.000724383,-0.000971293,-0.00201505,0.00117099,-0.00286667,-0.754803,0.00239869,0.0125795,636,1233,-12.7666,-2.72474
-581,-209,-12.717,2.96021,-0.000287136,-0.00183441,-0.00230974,0.00137508,-0.00349663,-0.623797,0.00290023,0.015574,643,1233,-12.7171,-2.96022
-574,-209,-12.8803,3.09998,0.000199876,-0.00246192,-0.00252342,0.00172186,-0.0039839,-0.542728,0.00337942,0.0220278,650,1233,-12.8803,-3.09995
-567,-209,-13.1212,3.40198,0.000541062,-0.00289691,-0.00260388,0.00194219,-0.00429804,-0.493655,0.00368739,0.0481271,657,1233,-13.1212,-3.40194
-560,-209,-13.3882,3.87439,0,0,0,0,0,0,0,-1,664,1233,-13.3882,-3.87444
-553,-209,-16.8702,1.2157,0,0,0,0,0,0,0,-1,671,1233,-16.8702,-1.21574
-546,-209,-16.7426,1.08386,-0.000543289,-0.00250493,-0.0027274,0.00137429,-0.00442251,-0.612789,0.00349762,0.0490459,678,1233,-16.7426,-1.08381
-539,-209,-16.7513,0.979004,-0.00125254,-0.00207399,-0.00280573,0.00117237,-0.0044989,-0.71272,0.00345697,0.0390247,685,1233,-16.7513,-0.978946
-532,-209,-16.6182,0.991821,-0.00236937,-0.00122546,-0.00281857,0.00107861,-0.00467343,-0.885501,0.00353051,0.0308779,692,1233,-16.6182,-0.991881
-525,-209,-16.6757,0.944092,-0.00388502,0.000207181,-0.00264827,0.0015077,-0.00518554,-1.11431,0.00405414,0.033861,699,1233,-16.6757,-0.944135
-518,-209,-16.6407,0.914185,-0.00617863,0.00244558,-0.00226334,0.00300348,-0.00673653,-1.32912,0.00575943,0.0408133,706,1233,-16.6407,-0.914137
-511,-209,-16.6533,1.01587,-0.00858128,0.00554583,-0.00124431,0.00565459,-0.00869004,-1.48361,0.00834345,0.041171,713,1233,-16.6532,-1.01581
-504,-209,0,0,0,0,0,0,0,0,0,-1,720,1233,0,0
-497,-209,0,0,0,0,0,0,0,0,0,-1,727,1233,0,0
-490,-209,0,0,0,0,0,0,0,0,0,-1,734,1233,0,0
-483,-209,0,0,0,0,0,0,0,0,0,-1,741,1233,0,0
-476,-209,0,0,0,0,0,0,0,0,0,-1,748,1233,0,0
-469,-209,0,0,0,0,0,0,0,0,0,-1,755,1233,0,0
-462,-209,0,0,0,0,0,0,0,0,0,-1,762,1233,0,0
-455,-209,0,0,0,0,0,0,0,0,0,-1,769,1233,0,0
-448,-209,0,0,0,0,0,0,0,0,0,-1,776,1233,0,0
-441,-209,0,0,0,0,0,0,0,0,0,-1,783,1233,0,0
-434,-209,0,0,0,0,0,0,0,0,0,-1,790,1233,0,0
-427,-209,0,0,0,0,0,0,0,0,0,-1,797,1233,0,0
-420,-209,0,0,0,0,0,0,0,0,0,-1,804,1233,0,0
-413,-209,0,0,0,0,0,0,0,0,0,-1,811,1233,0,0
-406,-209,0,0,0,0,0,0,0,0,0,-1,818,1233,0,0
-399,-209,0,0,0,0,0,0,0,0,0,-1,825,1233,0,0
-392,-209,0,0,0,0,0,0,0,0,0,-1,832,1233,0,0
-385,-209,0,0,0,0,0,0,0,0,0,-1,839,1233,0,0
-378,-209,0,0,0,0,0,0,0,0,0,-1,846,1233,0,0
-371,-209,0,0,0,0,0,0,0,0,0,-1,853,1233,0,0
-364,-209,0,0,0,0,0,0,0,0,0,-1,860,1233,0,0
-357,-209,0,0,0,0,0,0,0,0,0,-1,867,1233,0,0
-350,-209,0,0,0,0,0,0,0,0,0,-1,874,1233,0,0
-343,-209,0,0,0,0,0,0,0,0,0,-1,881,1233,0,0
-336,-209,0,0,0,0,0,0,0,0,0,-1,888,1233,0,0
-329,-209,0,0,0,0,0,0,0,0,0,-1,895,1233,0,0
-322,-209,0,0,0,0,0,0,0,0,0,-1,902,1233,0,0
-315,-209,0,0,0,0,0,0,0,0,0,-1,909,1233,0,0
-308,-209,0,0,0,0,0,0,0,0,0,-1,916,1233,0,0
-301,-209,0,0,0,0,0,0,0,0,0,-1,923,1233,0,0
-294,-209,0,0,0,0,0,0,0,0,0,-1,930,1233,0,0
-287,-209,0,0,0,0,0,0,0,0,0,-1,937,1233,0,0
-280,-209,0,0,0,0,0,0,0,0,0,-1,944,1233,0,0
-273,-209,0,0,0,0,0,0,0,0,0,-1,951,1233,0,0
-266,-209,0,0,0,0,0,0,0,0,0,-1,958,1233,0,0
-259,-209,0,0,0,0,0,0,0,0,0,-1,965,1233,0,0
-252,-209,0,0,0,0,0,0,0,0,0,-1,972,1233,0,0
-245,-209,0,0,0,0,0,0,0,0,0,-1,979,1233,0,0
-238,-209,0,0,0,0,0,0,0,0,0,-1,986,1233,0,0
-231,-209,0,0,0,0,0,0,0,0,0,-1,993,1233,0,0
-224,-209,0,0,0,0,0,0,0,0,0,-1,1000,1233,0,0
-217,-209,0,0,0,0,0,0,0,0,0,-1,1007,1233,0,0
-210,-209,0,0,0,0,0,0,0,0,0,-1,1014,1233,0,0
-203,-209,0,0,0,0,0,0,0,0,0,-1,1021,1233,0,0
-196,-209,0,0,0,0,0,0,0,0,0,-1,1028,1233,0,0
-189,-209,0,0,0,0,0,0,0,0,0,-1,1035,1233,0,0
-182,-209,0,0,0,0,0,0,0,0,0,-1,1042,1233,0,0
-175,-209,0,0,0,0,0,0,0,0,0,-1,1049,1233,0,0
-168,-209,0,0,0,0,0,0,0,0,0,-1,1056,1233,0,0
-161,-209,0,0,0,0,0,0,0,0,0,-1,1063,1233,0,0
-154,-209,0,0,0,0,0,0,0,0,0,-1,1070,1233,0,0
-147,-209,0,0,0,0,0,0,0,0,0,-1,1077,1233,0,0
-140,-209,0,0,0,0,0,0,0,0,0,-1,1084,1233,0,0
-133,-209,0,0,0,0,0,0,0,0,0,-1,1091,1233,0,0
-126,-209,0,0,0,0,0,0,0,0,0,-1,1098,1233,0,0
-119,-209,0,0,0,0,0,0,0,0,0,-1,1105,1233,0,0
-112,-209,0,0,0,0,0,0,0,0,0,-1,1112,1233,0,0
-105,-209,0,0,0,0,0,0,0,0,0,-1,1119,1233,0,0
-98,-209,0,0,0,0,0,0,0,0,0,-1,1126,1233,0,0
-91,-209,0,0,0,0,0,0,0,0,0,-1,1133,1233,0,0
-84,-209,0,0,0,0,0,0,0,0,0,-1,1140,1233,0,0
-77,-209,0,0,0,0,0,0,0,0,0,-1,1147,1233,0,0
-70,-209,0,0,0,0,0,0,0,0,0,-1,1154,1233,0,0
-63,-209,0,0,0,0,0,0,0,0,0,-1,1161,1233,0,0
-56,-209,0,0,0,0,0,0,0,0,0,-1,1168,1233,0,0
-49,-209,0,0,0,0,0,0,0,0,0,-1,1175,1233,0,0
-42,-209,0,0,0,0,0,0,0,0,0,-1,1182,1233,0,0
-35,-209,0,0,0,0,0,0,0,0,0,-1,1189,1233,0,0
-28,-209,0,0,0,0,0,0,0,0,0,-1,1196,1233,0,0
-21,-209,0,0,0,0,0,0,0,0,0,-1,1203,1233,0,0
-14,-209,0,0,0,0,0,0,0,0,0,-1,1210,1233,0,0
-7,-209,0,0,0,0,0,0,0,0,0,-1,1217,1233,0,0
0,-209,0,0,0,0,0,0,0,0,0,-1,1224,1233,0,0
7,-209,0,0,0,0,0,0,0,0,0,-1,1231,1233,0,0
14,-209,0,0,0,0,0,0,0,0,0,-1,1238,1233,0,0
21,-209,0,0,0,0,0,0,0,0,0,-1,1245,1233,0,0
28,-209,0,0,0,0,0,0,0,0,0,-1,1252,1233,0,0
35,-209,0,0,0,0,0,0,0,0,0,-1,1259,1233,0,0
42,-209,0,0,0,0,0,0,0,0,0,-1,1266,1233,0,0
49,-209,0,0,0,0,0,0,0,0,0,-1,1273,1233,0,0
56,-209,0,0,0,0,0,0,0,0,0,-1,1280,1233,0,0
63,-209,0,0,0,0,0,0,0,0,0,-1,1287,1233,0,0
70,-209,0,0,0,0,0,0,0,0,0,-1,1294,1233,0,0
77,-209,0,0,0,0,0,0,0,0,0,-1,1301,1233,0,0
84,-209,0,0,0,0,0,0,0,0,0,-1,1308,1233,0,0
91,-209,0,0,0,0,0,0,0,0,0,-1,1315,1233,0,0
98,-209,0,0,0,0,0,0,0,0,0,-1,1322,1233,0,0
105,-209,0,0,0,0,0,0,0,0,0,-1,1329,1233,0,0
112,-209,0,0,0,0,0,0,0,0,0,-1,1336,1233,0,0
119,-209,0,0,0,0,0,0,0,0,0,-1,1343,1233,0,0
126,-209,0,0,0,0,0,0,0,0,0,-1,1350,1233,0,0
133,-209,0,0,0,0,0,0,0,0,0,-1,1357,1233,0,0
140,-209,0,0,0,0,0,0,0,0,0,-1,1364,1233,0,0
147,-209,0,0,0,0,0,0,0,0,0,-1,1371,1233,0,0
154,-209,0,0,0,0,0,0,0,0,0,-1,1378,1233,0,0
161,-209,0,0,0,0,0,0,0,0,0,-1,1385,1233,0,0
168,-209,0,0,0,0,0,0,0,0,0,-1,1392,1233,0,0
175,-209,0,0,0,0,0,0,0,0,0,-1,1399,1233,0,0
182,-209,0,0,0,0,0,0,0,0,0,-1,1406,1233,0,0
189,-209,0,0,0,0,0,0,0,0,0,-1,1413,1233,0,0
196,-209,0,0,0,0,0,0,0,0,0,-1,1420,1233,0,0
203,-209,0,0,0,0,0,0,0,0,0,-1,1427,1233,0,0
210,-209,0,0,0,0,0,0,0,0,0,-1,1434,1233,0,0
217,-209,0,0,0,0,0,0,0,0,0,-1,1441,1233,0,0
224,-209,0,0,0,0,0,0,0,0,0,-1,1448,1233,0,0
231,-209,0,0,0,0,0,0,0,0,0,-1,1455,1233,0,0
238,-209,0,0,0,0,0,0,0,0,0,-1,1462,1233,0,0
245,-209,0,0,0,0,0,0,0,0,0,-1,1469,1233,0,0
252,-209,0,0,0,0,0,0,0,0,0,-1,1476,1233,0,0
259,-209,0,0,0,0,0,0,0,0,0,-1,1483,1233,0,0
266,-209,0,0,0,0,0,0,0,0,0,-1,1490,1233,0,0
273,-209,0,0,0,0,0,0,0,0,0,-1,1497,1233,0,0
280,-209,0,0,0,0,0,0,0,0,0,-1,1504,1233,0,0
287,-209,0,0,0,0,0,0,0,0,0,-1,1511,1233,0,0
294,-209,0,0,0,0,0,0,0,0,0,-1,1518,1233,0,0
301,-209,0,0,0,0,0,0,0,0,0,-1,1525,1233,0,0
308,-209,0,0,0,0,0,0,0,0,0,-1,1532,1233,0,0
315,-209,0,0,0,0,0,0,0,0,0,-1,1539,1233,0,0
322,-209,0,0,0,0,0,0,0,0,0,-1,1546,1233,0,0
329,-209,0,0,0,0,0,0,0,0,0,-1,1553,1233,0,0
336,-209,0,0,0,0,0,0,0,0,0,-1,1560,1233,0,0
343,-209,0,0,0,0,0,0,0,0,0,-1,1567,1233,0,0
350,-209,0,0,0,0,0,0,0,0,0,-1,1574,1233,0,0
357,-209,0,0,0,0,0,0,0,0,0,-1,1581,1233,0,0
364,-209,0,0,0,0,0,0,0,0,0,-1,1588,1233,0,0
371,-209,0,0,0,0,0,0,0,0,0,-1,1595,1233,0,0
378,-209,0,0,0,0,0,0,0,0,0,-1,1602,1233,0,0
385,-209,0,0,0,0,0,0,0,0,0,-1,1609,1233,0,0
392,-209,0,0,0,0,0,0,0,0,0,-1,1616,1233,0,0
399,-209,0,0,0,0,0,0,0,0,0,-1,1623,1233,0,0
406,-209,0,0,0,0,0,0,0,0,0,-1,1630,1233,0,0
413,-209,0,0,0,0,0,0,0,0,0,-1,1637,1233,0,0
420,-209,0,0,0,0,0,0,0,0,0,-1,1644,1233,0,0
427,-209,0,0,0,0,0,0,0,0,0,-1,1651,1233,0,0
434,-209,0,0,0,0,0,0,0,0,0,-1,1658,1233,0,0
441,-209,0,0,0,0,0,0,0,0,0,-1,1665,1233,0,0
448,-209,0,0,0,0,0,0,0,0,0,-1,1672,1233,0,0
455,-209,0,0,0,0,0,0,0,0,0,-1,1679,1233,0,0
462,-209,0,0,0,0,0,0,0,0,0,-1,1686,1233,0,0
469,-209,0,0,0,0,0,0,0,0,0,-1,1693,1233,0,0
476,-209,0,0,0,0,0,0,0,0,0,-1,1700,1233,0,0
483,-209,0,0,0,0,0,0,0,0,0,-1,1707,1233,0,0
490,-209,0,0,0,0,0,0,0,0,0,-1,1714,1233,0,0
497,-209,0,0,0,0,0,0,0,0,0,-1,1721,1233,0,0
504,-209,0,0,0,0,0,0,0,0,0,-1,1728,1233,0,0
511,-209,0,0,0,0,0,0,0,0,0,-1,1735,1233,0,0
518,-209,0,0,0,0,0,0,0,0,0,-1,1742,1233,0,0
525,-209,0,0,0,0,0,0,0,0,0,-1,1749,1233,0,0
532,-209,0,0,0,0,0,0,0,0,0,-1,1756,1233,0,0
539,-209,0,0,0,0,0,0,0,0,0,-1,1763,1233,0,0
546,-209,0,0,0,0,0,0,0,0,0,-1,1770,1233,0,0
553,-209,0,0,0,0,0,0,0,0,0,-1,1777,1233,0,0
560,-209,0,0,0,0,0,0,0,0,0,-1,1784,1233,0,0
567,-209,0,0,0,0,0,0,0,0,0,-1,1791,1233,0,0
574,-209,0,0,0,0,0,0,0,0,0,-1,1798,1233,0,0
581,-209,0,0,0,0,0,0,0,0,0,-1,1805,1233,0,0
588,-209,0,0,0,0,0,0,0,0,0,-1,1812,1233,0,0
595,-209,0,0,0,0,0,0,0,0,0,-1,1819,1233,0,0
602,-209,0,0,0,0,0,0,0,0,0,-1,1826,1233,0,0
609,-209,0,0,0,0,0,0,0,0,0,-1,1833,1233,0,0
616,-209,0,0,0,0,0,0,0,0,0,-1,1840,1233,0,0
623,-209,24.6454,2.68799,8.39089e-05,0.00442549,0.00524927,0.00793512,-0.00342572,0.981461,0.00672921,0.0325894,1847,1233,24.6453,-2.68794
630,-209,24.6783,2.59778,-0.000328905,0.00278173,0.00310163,0.00469616,-0.00224333,1.0178,0.00408909,0.0361441,1854,1233,24.6783,-2.59776
637,-209,24.6705,2.71301,-0.000232843,0.00184216,0.00131415,0.00247899,-0.000869675,1.11955,0.0020064,0.0363118,1861,1233,24.6705,-2.71297
644,-209,24.6857,2.74292,-0.000238894,0.00117268,0.000113859,0.0011818,-0.000248019,1.49082,0.000882239,0.0305565,1868,1233,24.6857,-2.7429
651,-209,24.7197,2.77283,-0.000140769,0.000613637,-0.000474176,0.000842342,-0.000369474,-1.12139,0.000717178,0.025118,1875,1233,24.7197,-2.77289
658,-209,24.7518,2.79956,5.00856e-05,0.000210291,-0.00070925,0.000843947,-0.000583571,-0.84163,0.000828735,0.0223491,1882,1233,24.7518,-2.7995
665,-209,24.796,2.74475,0.000217648,-9.32e-05,-0.000707714,0.000786803,-0.000662356,-0.677307,0.0008377,0.0364766,1889,1233,24.796,-2.74472
672,-209,24.8328,2.62769,0.000212621,-0.000415443,-0.00063763,0.000609355,-0.000812177,-0.556584,0.000823501,0.0494694,1896,1233,24.8328,-2.62766
679,-209,24.7522,2.59375,0.000122473,-0.000687126,-0.000447269,0.000320925,-0.000885578,-0.4176,0.000721556,0.049426,1903,1233,24.7523,-2.59376
686,-209,24.6409,2.51636,0,0,0,0,0,0,0,-1,1910,1233,24.6409,-2.51631
693,-209,21.0089,6.01416,0,0,0,0,0,0,0,-1,1917,1233,21.0089,-6.01412
700,-209,21.002,5.66809,0.00016931,-0.00117939,0.000109236,0.000178101,-0.00118818,0.0802961,0.000857675,0.0262535,1924,1233,21.0019,-5.66807
707,-209,21.043,5.35193,-5.27763e-05,-0.00114528,0.000418509,8.91144e-05,-0.00128717,0.326877,0.00088931,0.0214008,1931,1233,21.043,-5.35197
714,-209,21.0906,5.16809,-0.000389033,-0.00108203,0.000716258,6.01356e-05,-0.0015312,0.560111,0.00104142,0.0137464,1938,1233,21.0906,-5.16811
721,-209,21.113,4.98694,-0.000481023,-0.00106261,0.00102677,0.000295341,-0.00183897,0.647406,0.00133536,0.0129092,1945,1233,21.113,-4.98692
728,-209,21.1254,4.82056,-0.000183626,-0.0013075,0.00131782,0.000687066,-0.00217819,0.583865,0.00172732,0.0123366,1952,1233,21.1253,-4.82054
735,-209,21.1049,4.63818,0.000887904,-0.00128353,0.00139231,0.00156778,-0.0019634,0.454249,0.00204299,0.0127055,1959,1233,21.1049,-4.63816
742,-209,21.1069,4.45093,0.00297235,-0.00148412,0.00158203,0.00347686,-0.00198862,0.308701,0.00319425,0.0106795,1966,1233,21.1069,-4.45096
749,-209,21.1096,4.26355,0.00530779,-0.00190365,0.00201854,0.00583435,-0.0024302,0.255174,0.00490461,0.00929125,1973,1233,21.1096,-4.26349
756,-209,21.0905,4.08582,0.00862672,-0.00251049,0.00260266,0.00920492,-0.00308869,0.218607,0.00738472,0.00988063,1980,1233,21.0904,-4.08579
763,-209,21.064,3.93091,0.0133331,-0.0033815,0.00341571,0.0140042,-0.00405258,0.193996,0.0109401,0.0174182,1987,1233,21.064,-3.93095
770,-209,21.1493,3.53357,0.0198992,-0.00449651,0.00451557,0.0207082,-0.0053055,0.177275,0.0158724,0.0435839,1994,1233,21.1493,-3.53358
777,-209,21.2653,3.13892,0,0,0,0,0,0,0,-1,2001,1233,21.2653,-3.13896
784,-209,23.1278,2.64465,0.0401775,-0.00718983,0.0079852,0.0414874,-0.00849975,0.162595,0.0308839,0.0425656,2008,1233,23.1278,-2.64463
791,-209,23.9913,2.78406,0.0552416,-0.00831809,0.0104009,0.0569004,-0.00997681,0.158147,0.0416593,0.040557,2015,1233,23.9914,-2.78407
798,-209,24.4996,2.79785,0,0,0,0,0,0,0,-1,2022,1233,24.4997,-2.79791
805,-209,0,0,0,0,0,0,0,0,0,-1,2029,1233,0,0
812,-209,0,0,0,0,0,0,0,0,0,-1,2036,1233,0,0
-700,-216,0,0,0,0,0,0,0,0,0,-1,524,1240,0,0
-693,-216,0,0,0,0,0,0,0,0,0,-1,531,1240,0,0
-686,-216,0,0,0,0,0,0,0,0,0,-1,538,1240,0,0
-679,-216,-13.1852,-4.3584,0,0,0,0,0,0,0,-1,545,1240,-13.1853,4.35844
-672,-216,-13.1575,-4.80737,0,0,0,0,0,0,0,-1,552,1240,-13.1575,4.80735
-665,-216,-12.7122,0.506714,0,0,0,0,0,0,0,-1,559,1240,-12.7122,-0.506665
-658,-216,-12.0923,0.273438,0,0,0,0,0,0,0,-1,566,1240,-12.0924,-0.273435
-651,-216,-12.2419,0.479492,0,0,0,0,0,0,0,-1,573,1240,-12.242,-0.479542
-644,-216,-12.6832,0.89502,0,0,0,0,0,0,0,-1,580,1240,-12.6832,-0.895061
-637,-216,-12.5895,1.02698,0,0,0,0,0,0,0,-1,587,1240,-12.5895,-1.02702
-630,-216,-12.4958,1.15894,0,0,0,0,0,0,0,-1,594,1240,-12.4958,-1.15898
-623,-216,-12.5431,1.63379,-0.00546538,0.0140503,-0.00184428,0.014223,-0.00563814,-1.4774,0.0118185,0.0127322,601,1240,-12.5431,-1.63375
-616,-216,-12.5788,1.8811,-0.00250944,0.00878973,-0.0011717,0.00890995,-0.00262966,-1.46855,0.00698355,0.0131478,608,1240,-12.5788,-1.88104
-609,-216,-12.572,2.08875,-0.00132681,0.00509764,-0.00116119,0.00530107,-0.00153024,-1.39736,0.00413951,0.0128829,615,1240,-12.572,-2.08874
-602,-216,-12.561,2.28003,-0.000636284,0.00250008,-0.00127754,0.00295459,-0.0010908,-1.22899,0.00241682,0.0128922,622,1240,-12.5611,-2.27998
-595,-216,-12.5457,2.46155,-0.000341695,0.000865481,-0.00122655,0.00162891,-0.00110512,-1.01405,0.00158812,0.0166827,629,1240,-12.5457,-2.4616
-588,-216,-12.5494,2.69592,3.01064e-05,-0.000658114,-0.00137718,0.00110552,-0.00173353,-0.662972,0.00165244,0.0180627,636,1240,-12.5494,-2.69593
-581,-216,-12.5464,2.9657,0.000560401,-0.00170706,-0.00164878,0.00142762,-0.00257428,-0.484214,0.0023419,0.0169509,643,1240,-12.5464,-2.96569
-574,-216,-12.5541,3.30042,0.00110039,-0.0024662,-0.00186569,0.00189798,-0.00326378,-0.403987,0.00301472,0.0205435,650,1240,-12.5541,-3.30037
-567,-216,-12.6509,3.58118,0.00145665,-0.00300196,-0.00194381,0.00218508,-0.00373039,-0.358546,0.00345392,0.0332597,657,1240,-12.6509,-3.58114
-560,-216,-12.7985,3.92212,0,0,0,0,0,0,0,-1,664,1240,-12.7985,-3.92214
-553,-216,-14.8184,-0.0878906,0,0,0,0,0,0,0,-1,671,1240,-14.8184,0.0878798
-546,-216,-16.8882,1.28638,0,0,0,0,0,0,0,-1,678,1240,-16.8882,-1.28633
-539,-216,-16.6474,0.962402,-0.00163739,-0.00126468,-0.00247105,0.00102703,-0.0039291,-0.823035,0.00302051,0.0418846,685,1240,-16.6474,-0.962393
-532,-216,-16.6331,1.10449,-0.00331107,-8.95788e-05,-0.00268576,0.00143142,-0.00483206,-1.05551,0.00378972,0.0398742,692,1240,-16.633,-1.10447
-525,-216,-16.6503,1.02185,-0.00549809,0.00164706,-0.00279555,0.00261082,-0.00646186,-1.23881,0.00539311,0.0384401,699,1240,-16.6503,-1.02185
-518,-216,-16.6002,0.911621,-0.00847822,0.00407701,-0.0027436,0.00465036,-0.00905157,-1.36478,0.0080457,0.0381228,706,1240,-16.6002,-0.911657
-511,-216,-16.5964,0.976318,-0.0117736,0.00714948,-0.00214424,0.00738941,-0.0120135,-1.45937,0.0113078,0.0382935,713,1240,-16.5964,-0.976375
-504,-216,-16.6407,1.03064,-0.0129583,0.0112572,0.00056012,0.0112701,-0.0129712,1.54768,0.0140072,0.0425731,720,1240,-16.6407,-1.03059
-497,-216,0,0,0,0,0,0,0,0,0,-1,727,1240,0,0
-490,-216,0,0,0,0,0,0,0,0,0,-1,734,1240,0,0
-483,-216,0,0,0,0,0,0,0,0,0,-1,741,1240,0,0
-476,-216,0,0,0,0,0,0,0,0,0,-1,748,1240,0,0
-469,-216,0,0,0,0,0,0,0,0,0,-1,755,1240,0,0
-462,-216,0,0,0,0,0,0,0,0,0,-1,762,1240,0,0
-455,-216,0,0,0,0,0,0,0,0,0,-1,769,1240,0,0
-448,-216,0,0,0,0,0,0,0,0,0,-1,776,1240,0,0
-441,-216,0,0,0,0,0,0,0,0,0,-1,783,1240,0,0
-434,-216,0,0,0,0,0,0,0,0,0,-1,790,1240,0,0
-427,-216,0,0,0,0,0,0,0,0,0,-1,797,1240,0,0
-420,-216,0,0,0,0,0,0,0,0,0,-1,804,1240,0,0
-413,-216,0,0,0,0,0,0,0,0,0,-1,811,1240,0,0
-406,-216,0,0,0,0,0,0,0,0,0,-1,818,1240,0,0
-399,-216,0,0,0,0,0,0,0,0,0,-1,825,1240,0,0
-392,-216,0,0,0,0,0,0,0,0,0,-1,832,1240,0,0
-385,-216,0,0,0,0,0,0,0,0,0,-1,839,1240,0,0
-378,-216,0,0,0,0,0,0,0,0,0,-1,846,1240,0,0
-371,-216,0,0,0,0,0,0,0,0,0,-1,853,1240,0,0
-364,-216,0,0,0,0,0,0,0,0,0,-1,860,1240,0,0
-357,-216,0,0,0,0,0,0,0,0,0,-1,867,1240,0,0
-350,-216,0,0,0,0,0,0,0,0,0,-1,874,1240,0,0
-343,-216,0,0,0,0,0,0,0,0,0,-1,881,1240,0,0
-336,-216,0,0,0,0,0,0,0,0,0,-1,888,1240,0,0
-329,-216,0,0,0,0,0,0,0,0,0,-1,895,1240,0,0
-322,-216,0,0,0,0,0,0,0,0,0,-1,902,1240,0,0
-315,-216,0,0,0,0,0,0,0,0,0,-1,909,1240,0,0
-308,-216,0,0,0,0,0,0,0,0,0,-1,916,1240,0,0
-301,-216,0,0,0,0,0,0,0,0,0,-1,923,1240,0,0
-294,-216,0,0,0,0,0,0,0,0,0,-1,930,1240,0,0
-287,-216,0,0,0,0,0,0,0,0,0,-1,937,1240,0,0
-280,-216,0,0,0,0,0,0,0,0,0,-1,944,1240,0,0
-273,-216,0,0,0,0,0,0,0,0,0,-1,951,1240,0,0
-266,-216,0,0,0,0,0,0,0,0,0,-1,958,1240,0,0
-259,-216,0,0,0,0,0,0,0,0,0,-1,965,1240,0,0
-252,-216,0,0,0,0,0,0,0,0,0,-1,972,1240,0,0
-245,-216,0,0,0,0,0,0,0,0,0,-1,979,1240,0,0
-238,-216,0,0,0,0,0,0,0,0,0,-1,986,1240,0,0
-231,-216,0,0,0,0,0,0,0,0,0,-1,993,1240,0,0
-224,-216,0,0,0,0,0,0,0,0,0,-1,1000,1240,0,0
-217,-216,0,0,0,0,0,0,0,0,0,-1,1007,1240,0,0
-210,-216,0,0,0,0,0,0,0,0,0,-1,1014,1240,0,0
-203,-216,0,0,0,0,0,0,0,0,0,-1,1021,1240,0,0
-196,-216,0,0,0,0,0,0,0,0,0,-1,1028,1240,0,0
-189,-216,0,0,0,0,0,0,0,0,0,-1,1035,1240,0,0
-182,-216,0,0,0,0,0,0,0,0,0,-1,1042,1240,0,0
-175,-216,0,0,0,0,0,0,0,0,0,-1,1049,1240,0,0
-168,-216,0,0,0,0,0,0,0,0,0,-1,1056,1240,0,0
-161,-216,0,0,0,0,0,0,0,0,0,-1,1063,1240,0,0
-154,-216,0,0,0,0,0,0,0,0,0,-1,1070,1240,0,0
-147,-216,0,0,0,0,0,0,0,0,0,-1,1077,1240,0,0
-140,-216,0,0,0,0,0,0,0,0,0,-1,1084,1240,0,0
-133,-216,0,0,0,0,0,0,0,0,0,-1,1091,1240,0,0
-126,-216,0,0,0,0,0,0,0,0,0,-1,1098,1240,0,0
-119,-216,0,0,0,0,0,0,0,0,0,-1,1105,1240,0,0
-112,-216,0,0,0,0,0,0,0,0,0,-1,1112,1240,0,0
-105,-216,0,0,0,0,0,0,0,0,0,-1,1119,1240,0,0
-98,-216,0,0,0,0,0,0,0,0,0,-1,1126,1240,0,0
-91,-216,0,0,0,0,0,0,0,0,0,-1,1133,1240,0,0
-84,-216,0,0,0,0,0,0,0,0,0,-1,1140,1240,0,0
-77,-216,0,0,0,0,0,0,0,0,0,-1,1147,1240,0,0
-70,-216,0,0,0,0,0,0,0,0,0,-1,1154,1240,0,0
-63,-216,0,0,0,0,0,0,0,0,0,-1,1161,1240,0,0
-56,-216,0,0,0,0,0,0,0,0,0,-1,1168,1240,0,0
-49,-216,0,0,0,0,0,0,0,0,0,-1,1175,1240,0,0
-42,-216,0,0,0,0,0,0,0,0,0,-1,1182,1240,0,0
-35,-216,0,0,0,0,0,0,0,0,0,-1,1189,1240,0,0
-28,-216,0,0,0,0,0,0,0,0,0,-1,1196,1240,0,0
-21,-216,0,0,0,0,0,0,0,0,0,-1,1203,1240,0,0
-14,-216,0,0,0,0,0,0,0,0,0,-1,1210,1240,0,0
-7,-216,0,0,0,0,0,0,0,0,0,-1,1217,1240,0,0
0,-216,0,0,0,0,0,0,0,0,0,-1,1224,1240,0,0
7,-216,0,0,0,0,0,0,0,0,0,-1,1231,1240,0,0
14,-216,0,0,0,0,0,0,0,0,0,-1,1238,1240,0,0
21,-216,0,0,0,0,0,0,0,0,0,-1,1245,1240,0,0
28,-216,0,0,0,0,0,0,0,0,0,-1,1252,1240,0,0
35,-216,0,0,0,0,0,0,0,0,0,-1,1259,1240,0,0
42,-216,0,0,0,0,0,0,0,0,0,-1,1266,1240,0,0
49,-216,0,0,0,0,0,0,0,0,0,-1,1273,1240,0,0
56,-216,0,0,0,0,0,0,0,0,0,-1,1280,1240,0,0
63,-216,0,0,0,0,0,0,0,0,0,-1,1287,1240,0,0
70,-216,0,0,0,0,0,0,0,0,0,-1,1294,1240,0,0
77,-216,0,0,0,0,0,0,0,0,0,-1,1301,1240,0,0
84,-216,0,0,0,0,0,0,0,0,0,-1,1308,1240,0,0
91,-216,0,0,0,0,0,0,0,0,0,-1,1315,1240,0,0
98,-216,0,0,0,0,0,0,0,0,0,-1,1322,1240,0,0
105,-216,0,0,0,0,0,0,0,0,0,-1,1329,1240,0,0
112,-216,0,0,0,0,0,0,0,0,0,-1,1336,1240,0,0
119,-216,0,0,0,0,0,0,0,0,0,-1,1343,1240,0,0
126,-216,0,0,0,0,0,0,0,0,0,-1,1350,1240,0,0
133,-216,0,0,0,0,0,0,0,0,0,-1,1357,1240,0,0
140,-216,0,0,0,0,0,0,0,0,0,-1,1364,1240,0,0
147,-216,0,0,0,0,0,0,0,0,0,-1,1371,1240,0,0
154,-216,0,0,0,0,0,0,0,0,0,-1,1378,1240,0,0
161,-216,0,0,0,0,0,0,0,0,0,-1,1385,1240,0,0
168,-216,0,0,0,0,0,0,0,0,0,-1,1392,1240,0,0
175,-216,0,0,0,0,0,0,0,0,0,-1,1399,1240,0,0
182,-216,0,0,0,0,0,0,0,0,0,-1,1406,1240,0,0
189,-216,0,0,0,0,0,0,0,0,0,-1,1413,1240,0,0
196,-216,0,0,0,0,0,0,0,0,0,-1,1420,1240,0,0
203,-216,0,0,0,0,0,0,0,0,0,-1,1427,1240,0,0
210,-216,0,0,0,0,0,0,0,0,0,-1,1434,1240,0,0
217,-216,0,0,0,0,0,0,0,0,0,-1,1441,1240,0,0
224,-216,0,0,0,0,0,0,0,0,0,-1,1448,1240,0,0
231,-216,0,0,0,0,0,0,0,0,0,-1,1455,1240,0,0
238,-216,0,0,0,0,0,0,0,0,0,-1,1462,1240,0,0
245,-216,0,0,0,0,0,0,0,0,0,-1,1469,1240,0,0
252,-216,0,0,0,0,0,0,0,0,0,-1,1476,1240,0,0
259,-216,0,0,0,0,0,0,0,0,0,-1,1483,1240,0,0
266,-216,0,0,0,0,0,0,0,0,0,-1,1490,1240,0,0
273,-216,0,0,0,0,0,0,0,0,0,-1,1497,1240,0,0
280,-216,0,0,0,0,0,0,0,0,0,-1,1504,1240,0,0
287,-216,0,0,0,0,0,0,0,0,0,-1,1511,1240,0,0
294,-216,0,0,0,0,0,0,0,0,0,-1,1518,1240,0,0
301,-216,0,0,0,0,0,0,0,0,0,-1,1525,1240,0,0
308,-216,0,0,0,0,0,0,0,0,0,-1,1532,1240,0,0
315,-216,0,0,0,0,0,0,0,0,0,-1,1539,1240,0,0
322,-216,0,0,0,0,0,0,0,0,0,-1,1546,1240,0,0
329,-216,0,0,0,0,0,0,0,0,0,-1,1553,1240,0,0
336,-216,0,0,0,0,0,0,0,0,0,-1,1560,1240,0,0
343,-216,0,0,0,0,0,0,0,0,0,-1,1567,1240,0,0
350,-216,0,0,0,0,0,0,0,0,0,-1,1574,1240,0,0
357,-216,0,0,0,0,0,0,0,0,0,-1,1581,1240,0,0
364,-216,0,0,0,0,0,0,0,0,0,-1,1588,1240,0,0
371,-216,0,0,0,0,0,0,0,0,0,-1,1595,1240,0,0
378,-216,0,0,0,0,0,0,0,0,0,-1,1602,1240,0,0
385,-216,0,0,0,0,0,0,0,0,0,-1,1609,1240,0,0
392,-216,0,0,0,0,0,0,0,0,0,-1,1616,1240,0,0
399,-216,0,0,0,0,0,0,0,0,0,-1,1623,1240,0,0
406,-216,0,0,0,0,0,0,0,0,0,-1,1630,1240,0,0
413,-216,0,0,0,0,0,0,0,0,0,-1,1637,1240,0,0
420,-216,0,0,0,0,0,0,0,0,0,-1,1644,1240,0,0
427,-216,0,0,0,0,0,0,0,0,0,-1,1651,1240,0,0
434,-216,0,0,0,0,0,0,0,0,0,-1,1658,1240,0,0
441,-216,0,0,0,0,0,0,0,0,0,-1,1665,1240,0,0
448,-216,0,0,0,0,0,0,0,0,0,-1,1672,1240,0,0
455,-216,0,0,0,0,0,0,0,0,0,-1,1679,1240,0,0
462,-216,0,0,0,0,0,0,0,0,0,-1,1686,1240,0,0
469,-216,0,0,0,0,0,0,0,0,0,-1,1693,1240,0,0
476,-216,0,0,0,0,0,0,0,0,0,-1,1700,1240,0,0
483,-216,0,0,0,0,0,0,0,0,0,-1,1707,1240,0,0
490,-216,0,0,0,0,0,0,0,0,0,-1,1714,1240,0,0
497,-216,0,0,0,0,0,0,0,0,0,-1,1721,1240,0,0
504,-216,0,0,0,0,0,0,0,0,0,-1,1728,1240,0,0
511,-216,0,0,0,0,0,0,0,0,0,-1,1735,1240,0,0
518,-216,0,0,0,0,0,0,0,0,0,-1,1742,1240,0,0
525,-216,0,0,0,0,0,0,0,0,0,-1,1749,1240,0,0
532,-216,0,0,0,0,0,0,0,0,0,-1,1756,1240,0,0
539,-216,0,0,0,0,0,0,0,0,0,-1,1763,1240,0,0
546,-216,0,0,0,0,0,0,0,0,0,-1,1770,1240,0,0
553,-216,0,0,0,0,0,0,0,0,0,-1,1777,1240,0,0
560,-216,0,0,0,0,0,0,0,0,0,-1,1784,1240,0,0
567,-216,0,0,0,0,0,0,0,0,0,-1,1791,1240,0,0
574,-216,0,0,0,0,0,0,0,0,0,-1,1798,1240,0,0
581,-216,0,0,0,0,0,0,0,0,0,-1,1805,1240,0,0
588,-216,0,0,0,0,0,0,0,0,0,-1,1812,1240,0,0
595,-216,0,0,0,0,0,0,0,0,0,-1,1819,1240,0,0
602,-216,0,0,0,0,0,0,0,0,0,-1,1826,1240,0,0
609,-216,0,0,0,0,0,0,0,0,0,-1,1833,1240,0,0
616,-216,0,0,0,0,0,0,0,0,0,-1,1840,1240,0,0
623,-216,24.5272,2.70984,0.00178189,0.00502297,0.00444089,0.00812976,-0.0013249,0.960347,0.00591117,0.0397837,1847,1240,24.5272,-2.70987
630,-216,24.5697,2.69263,0.000254933,0.00317204,0.00243924,0.00455554,-0.00112857,1.05486,0.00347485,0.0377711,1854,1240,24.5697,-2.69269
637,-216,24.6475,2.69958,-0.000551098,0.00201566,0.000810559,0.0022502,-0.000785634,1.28914,0.00181946,0.0336617,1861,1240,24.6475,-2.69952
644,-216,24.6542,2.73584,-0.00106703,0.0012768,-0.000132119,0.00128422,-0.00107445,-1.51466,0.00136357,0.0267551,1868,1240,24.6541,-2.73578
651,-216,24.7032,2.79077,-0.00113871,0.000728625,-0.000513226,0.000860386,-0.00127047,-1.31949,0.00123782,0.0228347,1875,1240,24.7032,-2.79075
658,-216,24.786,2.84729,-0.000960085,0.000362379,-0.000645447,0.000625176,-0.00122288,-1.18414,0.00108542,0.0325307,1882,1240,24.786,-2.84724
665,-216,24.8973,2.81238,-0.000717128,0.000117404,-0.000599537,0.000430587,-0.00103031,-1.08941,0.000866817,0.0453049,1889,1240,24.8974,-2.81242
672,-216,24.9928,2.50647,-0.000613372,-0.000160694,-0.000548464,0.000206298,-0.000980364,-0.981092,0.000732096,0.047044,1896,1240,24.9928,-2.50642
679,-216,24.8959,2.49548,0,0,0,0,0,0,0,-1,1903,1240,24.8958,-2.49548
686,-216,20.869,5.82507,0,0,0,0,0,0,0,-1,1910,1240,20.869,-5.82507
693,-216,20.8743,5.77893,-8.2055e-05,-0.000679732,-6.26901e-05,-7.55502e-05,-0.000686237,-0.10339,0.000434503,0.0464816,1917,1240,20.8743,-5.77893
700,-216,20.8536,5.68286,0.000183496,-0.000918653,0.000159162,0.00020602,-0.000941177,0.140585,0.000706214,0.0218214,1924,1240,20.8536,-5.68286
707,-216,20.8749,5.40649,5.11232e-05,-0.000939621,0.00042934,0.000211286,-0.00109978,0.357056,0.000812824,0.0175169,1931,1240,20.8748,-5.40651
714,-216,20.918,5.19556,-0.000250286,-0.000895908,0.000712824,0.000209415,-0.00135561,0.572782,0.000981023,0.0137364,1938,1240,20.918,-5.19552
721,-216,20.9443,5.01184,-0.000329857,-0.000975171,0.00108283,0.000477361,-0.00178239,0.640598,0.00137528,0.0128589,1945,1240,20.9443,-5.01189
728,-216,20.9597,4.82092,-0.000116246,-0.00153407,0.0015676,0.000895286,-0.0025456,0.573046,0.00206135,0.0108453,1952,1240,20.9597,-4.82089
735,-216,20.9508,4.63257,0.000789693,-0.00187305,0.00194008,0.00181129,-0.00289465,0.48468,0.00274087,0.00999419,1959,1240,20.9508,-4.63262
742,-216,20.9409,4.46179,0.00263879,-0.00260176,0.00252556,0.00365779,-0.00362076,0.383497,0.00420229,0.0103972,1966,1240,20.941,-4.46178
749,-216,20.9338,4.27051,0.00461823,-0.00366891,0.00343176,0.00585482,-0.0049055,0.345854,0.00622053,0.00841333,1973,1240,20.9338,-4.27054
756,-216,20.9093,4.08533,0.00753697,-0.00509223,0.00461403,0.00904308,-0.00659834,0.315515,0.00906727,0.00916767,1980,1240,20.9093,-4.08535
763,-216,20.8887,3.90674,0.0118461,-0.00696141,0.00615433,0.0136809,-0.00879627,0.28975,0.013079,0.0152402,1987,1240,20.8887,-3.90677
770,-216,20.9623,3.61182,0.0180635,-0.00922508,0.00810397,0.0202887,-0.0114503,0.267978,0.0185598,0.0389355,1994,1240,20.9623,-3.61181
777,-216,21.0494,3.31763,0,0,0,0,0,0,0,-1,2001,1240,21.0495,-3.31766
784,-216,23.2867,2.48694,0.0386295,-0.0142555,0.013279,0.0417765,-0.0174025,0.232697,0.0351197,0.0430635,2008,1240,23.2868,-2.48695
791,-216,24.0902,2.84351,0.055146,-0.0161066,0.0162431,0.0586742,-0.0196347,0.213887,0.0470472,0.0455913,2015,1240,24.0902,-2.84356
798,-216,0,0,0,0,0,0,0,0,0,-1,2022,1240,0,0
805,-216,0,0,0,0,0,0,0,0,0,-1,2029,1240,0,0
812,-216,0,0,0,0,0,0,0,0,0,-1,2036,1240,0,0
-700,-223,0,0,0,0,0,0,0,0,0,-1,524,1247,0,0
-693,-223,0,0,0,0,0,0,0,0,0,-1,531,1247,0,0
-686,-223,0,0,0,0,0,0,0,0,0,-1,538,1247,0,0
-679,-223,0,0,0,0,0,0,0,0,0,-1,545,1247,0,0
-672,-223,-13.0599,-3.47363,0,0,0,0,0,0,0,-1,552,1247,-13.0599,3.4736
-665,-223,-13.2565,-3.95703,0,0,0,0,0,0,0,-1,559,1247,-13.2566,3.95707
-658,-223,-11.9458,0.156372,0,0,0,0,0,0,0,-1,566,1247,-11.9458,-0.156429
-651,-223,-13.5803,0.385986,0,0,0,0,0,0,0,-1,573,1247,-13.5803,-0.385933
-644,-223,-12.9193,0.809326,0,0,0,0,0,0,0,-1,580,1247,-12.9193,-0.809344
-637,-223,-12.4394,1.1322,0,0,0,0,0,0,0,-1,587,1247,-12.4394,-1.13226
-630,-223,-12.4804,1.36194,-0.00851022,0.0244341,-0.00170274,0.0245219,-0.00859799,-1.51929,0.0198448,0.036034,594,1247,-12.4804,-1.36196
-623,-223,-12.3512,1.5979,-0.00454925,0.0166729,-0.000337659,0.0166783,-0.00455462,-1.55489,0.0129078,0.020492,601,1247,-12.3512,-1.59794
-616,-223,-12.3593,1.87439,-0.00226967,0.0107283,3.15428e-05,0.0107284,-0.00226974,1.56837,0.00801667,0.0151496,608,1247,-12.3592,-1.87437
-609,-223,-12.3417,2.07324,-0.0012607,0.00646991,-0.00018115,0.00647415,-0.00126494,-1.54738,0.0047937,0.0115716,615,1247,-12.3417,-2.07325
-602,-223,-12.3418,2.27576,-0.000472032,0.00341658,-0.000452886,0.00346862,-0.00052408,-1.45637,0.00250545,0.0139885,622,1247,-12.3418,-2.27581
-595,-223,-12.3154,2.51025,2.60138e-05,0.00139426,-0.000510879,0.00156396,-0.000143691,-1.25008,0.00109369,0.018724,629,1247,-12.3154,-2.51025
-588,-223,-12.3177,2.7323,0.000562261,-0.000362453,-0.000696774,0.000936127,-0.000736319,-0.492471,0.000967881,0.0208838,636,1247,-12.3177,-2.73224
-581,-223,-12.3226,2.99731,0.00118639,-0.00152407,-0.000985182,0.00150664,-0.00184432,-0.314292,0.00193795,0.0197478,643,1247,-12.3226,-2.99728
-574,-223,-12.3117,3.22449,0.00177856,-0.00233523,-0.00125113,0.00212918,-0.00268585,-0.273236,0.00278615,0.0178545,650,1247,-12.3117,-3.22444
-567,-223,-12.0715,3.49316,0.00214162,-0.002895,-0.00138971,0.00249962,-0.00325301,-0.252129,0.00333076,0.0273481,657,1247,-12.0716,-3.49322
-560,-223,-11.8156,3.78894,0.00167619,-0.00283903,-0.00143497,0.00209364,-0.00325648,-0.283098,0.00311311,0.0486268,664,1247,-11.8156,-3.7889
-553,-223,-11.4025,4.14722,0,0,0,0,0,0,0,-1,671,1247,-11.4025,-4.14719
-546,-223,-16.335,1.50732,0,0,0,0,0,0,0,-1,678,1247,-16.335,-1.50734
-539,-223,-16.3198,1.38086,-0.00217697,-2.15249e-05,-0.00233944,0.0014765,-0.00367499,-1.00125,0.00306317,0.046689,685,1247,-16.3198,-1.38092
-532,-223,-16.4656,1.19446,-0.00435855,0.00158079,-0.00273894,0.00265102,-0.00542878,-1.19829,0.00475587,0.046329,692,1247,-16.4656,-1.19447
-525,-223,-16.5878,1.03442,-0.00718184,0.00378496,-0.00310016,0.00460067,-0.00799754,-1.31351,0.00736118,0.0471126,699,1247,-16.5879,-1.03444
-518,-223,-16.5583,0.856445,-0.0108775,0.00667368,-0.00338384,0.00730348,-0.0115073,-1.38678,0.0109504,0.039463,706,1247,-16.5583,-0.85639
-511,-223,-16.566,0.731812,-0.0150769,0.0101412,-0.00328092,0.010561,-0.0154967,-1.44352,0.0151342,0.0356266,713,1247,-16.566,-0.731852
-504,-223,-16.5968,0.733643,-0.0177642,0.0142171,-0.00141133,0.0142792,-0.0178264,-1.52678,0.0185738,0.0389179,720,1247,-16.5968,-0.733651
-497,-223,0,0,0,0,0,0,0,0,0,-1,727,1247,0,0
-490,-223,0,0,0,0,0,0,0,0,0,-1,734,1247,0,0
-483,-223,0,0,0,0,0,0,0,0,0,-1,741,1247,0,0
-476,-223,0,0,0,0,0,0,0,0,0,-1,748,1247,0,0
-469,-223,0,0,0,0,0,0,0,0,0,-1,755,1247,0,0
-462,-223,0,0,0,0,0,0,0,0,0,-1,762,1247,0,0
-455,-223,0,0,0,0,0,0,0,0,0,-1,769,1247,0,0
-448,-223,0,0,0,0,0,0,0,0,0,-1,776,1247,0,0
-441,-223,0,0,0,0,0,0,0,0,0,-1,783,1247,0,0
-434,-223,0,0,0,0,0,0,0,0,0,-1,790,1247,0,0
-427,-223,0,0,0,0,0,0,0,0,0,-1,797,1247,0,0
-420,-223,0,0,0,0,0,0,0,0,0,-1,804,1247,0,0
-413,-223,0,0,0,0,0,0,0,0,0,-1,811,1247,0,0
-406,-223,0,0,0,0,0,0,0,0,0,-1,818,1247,0,0
-399,-223,0,0,0,0,0,0,0,0,0,-1,825,1247,0,0
-392,-223,0,0,0,0,0,0,0,0,0,-1,832,1247,0,0
-385,-223,0,0,0,0,0,0,0,0,0,-1,839,1247,0,0
-378,-223,0,0,0,0,0,0,0,0,0,-1,846,1247,0,0
-371,-223,0,0,0,0,0,0,0,0,0,-1,853,1247,0,0
-364,-223,0,0,0,0,0,0,0,0,0,-1,860,1247,0,0
-357,-223,0,0,0,0,0,0,0,0,0,-1,867,1247,0,0
-350,-223,0,0,0,0,0,0,0,0,0,-1,874,1247,0,0
-343,-223,0,0,0,0,0,0,0,0,0,-1,881,1247,0,0
-336,-223,0,0,0,0,0,0,0,0,0,-1,888,1247,0,0
-329,-223,0,0,0,0,0,0,0,0,0,-1,895,1247,0,0
-322,-223,0,0,0,0,0,0,0,0,0,-1,902,1247,0,0
-315,-223,0,0,0,0,0,0,0,0,0,-1,909,1247,0,0
-308,-223,0,0,0,0,0,0,0,0,0,-1,916,1247,0,0
-301,-223,0,0,0,0,0,0,0,0,0,-1,923,1247,0,0
-294,-223,0,0,0,0,0,0,0,0,0,-1,930,1247,0,0
-287,-223,0,0,0,0,0,0,0,0,0,-1,937,1247,0,0
-280,-223,0,0,0,0,0,0,0,0,0,-1,944,1247,0,0
-273,-223,0,0,0,0,0,0,0,0,0,-1,951,1247,0,0
-266,-223,0,0,0,0,0,0,0,0,0,-1,958,1247,0,0
-259,-223,0,0,0,0,0,0,0,0,0,-1,965,1247,0,0
-252,-223,0,0,0,0,0,0,0,0,0,-1,972,1247,0,0
-245,-223,0,0,0,0,0,0,0,0,0,-1,979,1247,0,0
-238,-223,0,0,0,0,0,0,0,0,0,-1,986,1247,0,0
-231,-223,0,0,0,0,0,0,0,0,0,-1,993,1247,0,0
-224,-223,0,0,0,0,0,0,0,0,0,-1,1000,1247,0,0
-217,-223,0,0,0,0,0,0,0,0,0,-1,1007,1247,0,0
-210,-223,0,0,0,0,0,0,0,0,0,-1,1014,1247,0,0
-203,-223,0,0,0,0,0,0,0,0,0,-1,1021,1247,0,0
-196,-223,0,0,0,0,0,0,0,0,0,-1,1028,1247,0,0
-189,-223,0,0,0,0,0,0,0,0,0,-1,1035,1247,0,0
-182,-223,0,0,0,0,0,0,0,0,0,-1,1042,1247,0,0
-175,-223,0,0,0,0,0,0,0,0,0,-1,1049,1247,0,0
-168,-223,0,0,0,0,0,0,0,0,0,-1,1056,1247,0,0
-161,-223,0,0,0,0,0,0,0,0,0,-1,1063,1247,0,0
-154,-223,0,0,0,0,0,0,0,0,0,-1,1070,1247,0,0
-147,-223,0,0,0,0,0,0,0,0,0,-1,1077,1247,0,0
-140,-223,0,0,0,0,0,0,0,0,0,-1,1084,1247,0,0
-133,-223,0,0,0,0,0,0,0,0,0,-1,1091,1247,0,0
-126,-223,0,0,0,0,0,0,0,0,0,-1,1098,1247,0,0
-119,-223,0,0,0,0,0,0,0,0,0,-1,1105,1247,0,0
-112,-223,0,0,0,0,0,0,0,0,0,-1,1112,1247,0,0
-105,-223,0,0,0,0,0,0,0,0,0,-1,1119,1247,0,0
-98,-223,0,0,0,0,0,0,0,0,0,-1,1126,1247,0,0
-91,-223,0,0,0,0,0,0,0,0,0,-1,1133,1247,0,0
-84,-223,0,0,0,0,0,0,0,0,0,-1,1140,1247,0,0
-77,-223,0,0,0,0,0,0,0,0,0,-1,1147,1247,0,0
-70,-223,0,0,0,0,0,0,0,0,0,-1,1154,1247,0,0
-63,-223,0,0,0,0,0,0,0,0,0,-1,1161,1247,0,0
-56,-223,0,0,0,0,0,0,0,0,0,-1,1168,1247,0,0
-49,-223,0,0,0,0,0,0,0,0,0,-1,1175,1247,0,0
-42,-223,0,0,0,0,0,0,0,0,0,-1,1182,1247,0,0
-35,-223,0,0,0,0,0,0,0,0,0,-1,1189,1247,0,0
-28,-223,0,0,0,0,0,0,0,0,0,-1,1196,1247,0,0
-21,-223,0,0,0,0,0,0,0,0,0,-1,1203,1247,0,0
-14,-223,0,0,0,0,0,0,0,0,0,-1,1210,1247,0,0
-7,-223,0,0,0,0,0,0,0,0,0,-1,1217,1247,0,0
0,-223,0,0,0,0,0,0,0,0,0,-1,1224,1247,0,0
7,-223,0,0,0,0,0,0,0,0,0,-1,1231,1247,0,0
14,-223,0,0,0,0,0,0,0,0,0,-1,1238,1247,0,0
21,-223,0,0,0,0,0,0,0,0,0,-1,1245,1247,0,0
28,-223,0,0,0,0,0,0,0,0,0,-1,1252,1247,0,0
35,-223,0,0,0,0,0,0,0,0,0,-1,1259,1247,0,0
42,-223,0,0,0,0,0,0,0,0,0,-1,1266,1247,0,0
49,-223,0,0,0,0,0,0,0,0,0,-1,1273,1247,0,0
56,-223,0,0,0,0,0,0,0,0,0,-1,1280,1247,0,0
63,-223,0,0,0,0,0,0,0,0,0,-1,1287,1247,0,0
70,-223,0,0,0,0,0,0,0,0,0,-1,1294,1247,0,0
77,-223,0,0,0,0,0,0,0,0,0,-1,1301,1247,0,0
84,-223,0,0,0,0,0,0,0,0,0,-1,1308,1247,0,0
91,-223,0,0,0,0,0,0,0,0,0,-1,1315,1247,0,0
98,-223,0,0,0,0,0,0,0,0,0,-1,1322,1247,0,0
105,-223,0,0,0,0,0,0,0,0,0,-1,1329,1247,0,0
112,-223,0,0,0,0,0,0,0,0,0,-1,1336,1247,0,0
119,-223,0,0,0,0,0,0,0,0,0,-1,1343,1247,0,0
126,-223,0,0,0,0,0,0,0,0,0,-1,1350,1247,0,0
133,-223,0,0,0,0,0,0,0,0,0,-1,1357,1247,0,0
140,-223,0,0,0,0,0,0,0,0,0,-1,1364,1247,0,0
147,-223,0,0,0,0,0,0,0,0,0,-1,1371,1247,0,0
154,-223,0,0,0,0,0,0,0,0,0,-1,1378,1247,0,0
161,-223,0,0,0,0,0,0,0,0,0,-1,1385,1247,0,0
168,-223,0,0,0,0,0,0,0,0,0,-1,1392,1247,0,0
175,-223,0,0,0,0,0,0,0,0,0,-1,1399,1247,0,0
182,-223,0,0,0,0,0,0,0,0,0,-1,1406,1247,0,0
189,-223,0,0,0,0,0,0,0,0,0,-1,1413,1247,0,0
196,-223,0,0,0,0,0,0,0,0,0,-1,1420,1247,0,0
203,-223,0,0,0,0,0,0,0,0,0,-1,1427,1247,0,0
210,-223,0,0,0,0,0,0,0,0,0,-1,1434,1247,0,0
217,-223,0,0,0,0,0,0,0,0,0,-1,1441,1247,0,0
224,-223,0,0,0,0,0,0,0,0,0,-1,1448,1247,0,0
231,-223,0,0,0,0,0,0,0,0,0,-1,1455,1247,0,0
238,-223,0,0,0,0,0,0,0,0,0,-1,1462,1247,0,0
245,-223,0,0,0,0,0,0,0,0,0,-1,1469,1247,0,0
252,-223,0,0,0,0,0,0,0,0,0,-1,1476,1247,0,0
259,-223,0,0,0,0,0,0,0,0,0,-1,1483,1247,0,0
266,-223,0,0,0,0,0,0,0,0,0,-1,1490,1247,0,0
273,-223,0,0,0,0,0,0,0,0,0,-1,1497,1247,0,0
280,-223,0,0,0,0,0,0,0,0,0,-1,1504,1247,0,0
287,-223,0,0,0,0,0,0,0,0,0,-1,1511,1247,0,0
294,-223,0,0,0,0,0,0,0,0,0,-1,1518,1247,0,0
301,-223,0,0,0,0,0,0,0,0,0,-1,1525,1247,0,0
308,-223,0,0,0,0,0,0,0,0,0,-1,1532,1247,0,0
315,-223,0,0,0,0,0,0,0,0,0,-1,1539,1247,0,0
322,-223,0,0,0,0,0,0,0,0,0,-1,1546,1247,0,0
329,-223,0,0,0,0,0,0,0,0,0,-1,1553,1247,0,0
336,-223,0,0,0,0,0,0,0,0,0,-1,1560,1247,0,0
343,-223,0,0,0,0,0,0,0,0,0,-1,1567,1247,0,0
350,-223,0,0,0,0,0,0,0,0,0,-1,1574,1247,0,0
357,-223,0,0,0,0,0,0,0,0,0,-1,1581,1247,0,0
364,-223,0,0,0,0,0,0,0,0,0,-1,1588,1247,0,0
371,-223,0,0,0,0,0,0,0,0,0,-1,1595,1247,0,0
378,-223,0,0,0,0,0,0,0,0,0,-1,1602,1247,0,0
385,-223,0,0,0,0,0,0,0,0,0,-1,1609,1247,0,0
392,-223,0,0,0,0,0,0,0,0,0,-1,1616,1247,0,0
399,-223,0,0,0,0,0,0,0,0,0,-1,1623,1247,0,0
406,-223,0,0,0,0,0,0,0,0,0,-1,1630,1247,0,0
413,-223,0,0,0,0,0,0,0,0,0,-1,1637,1247,0,0
420,-223,0,0,0,0,0,0,0,0,0,-1,1644,1247,0,0
427,-223,0,0,0,0,0,0,0,0,0,-1,1651,1247,0,0
434,-223,0,0,0,0,0,0,0,0,0,-1,1658,1247,0,0
441,-223,0,0,0,0,0,0,0,0,0,-1,1665,1247,0,0
448,-223,0,0,0,0,0,0,0,0,0,-1,1672,1247,0,0
455,-223,0,0,0,0,0,0,0,0,0,-1,1679,1247,0,0
462,-223,0,0,0,0,0,0,0,0,0,-1,1686,1247,0,0
469,-223,0,0,0,0,0,0,0,0,0,-1,1693,1247,0,0
476,-223,0,0,0,0,0,0,0,0,0,-1,1700,1247,0,0
483,-223,0,0,0,0,0,0,0,0,0,-1,1707,1247,0,0
490,-223,0,0,0,0,0,0,0,0,0,-1,1714,1247,0,0
497,-223,0,0,0,0,0,0,0,0,0,-1,1721,1247,0,0
504,-223,0,0,0,0,0,0,0,0,0,-1,1728,1247,0,0
511,-223,0,0,0,0,0,0,0,0,0,-1,1735,1247,0,0
518,-223,0,0,0,0,0,0,0,0,0,-1,1742,1247,0,0
525,-223,0,0,0,0,0,0,0,0,0,-1,1749,1247,0,0
532,-223,0,0,0,0,0,0,0,0,0,-1,1756,1247,0,0
539,-223,0,0,0,0,0,0,0,0,0,-1,1763,1247,0,0
546,-223,0,0,0,0,0,0,0,0,0,-1,1770,1247,0,0
553,-223,0,0,0,0,0,0,0,0,0,-1,1777,1247,0,0
560,-223,0,0,0,0,0,0,0,0,0,-1,1784,1247,0,0
567,-223,0,0,0,0,0,0,0,0,0,-1,1791,1247,0,0
574,-223,0,0,0,0,0,0,0,0,0,-1,1798,1247,0,0
581,-223,0,0,0,0,0,0,0,0,0,-1,1805,1247,0,0
588,-223,0,0,0,0,0,0,0,0,0,-1,1812,1247,0,0
595,-223,0,0,0,0,0,0,0,0,0,-1,1819,1247,0,0
602,-223,0,0,0,0,0,0,0,0,0,-1,1826,1247,0,0
609,-223,0,0,0,0,0,0,0,0,0,-1,1833,1247,0,0
616,-223,0,0,0,0,0,0,0,0,0,-1,1840,1247,0,0
623,-223,24.3854,2.70032,0,0,0,0,0,0,0,-1,1847,1247,24.3853,-2.70037
630,-223,24.4543,2.77124,0,0,0,0,0,0,0,-1,1854,1247,24.4543,-2.77128
637,-223,24.6121,2.71326,-0.00117407,0.00147074,0.000114135,0.00147566,-0.00117898,1.52775,0.00153585,0.0299246,1861,1247,24.612,-2.71326
644,-223,24.6011,2.72852,-0.00189039,0.000700011,-0.000493594,0.000790876,-0.00198126,-1.38874,0.00164895,0.0226791,1868,1247,24.601,-2.72856
651,-223,24.6466,2.76501,-0.00198603,0.000241378,-0.000639508,0.000411928,-0.00215658,-1.31017,0.00159288,0.0270282,1875,1247,24.6466,-2.76497
658,-223,24.6989,2.8833,-0.00181477,-1.29629e-05,-0.000630131,0.000185539,-0.00201327,-1.26562,0.00140811,0.0480818,1882,1247,24.6989,-2.88333
665,-223,24.7371,3.0249,0,0,0,0,0,0,0,-1,1889,1247,24.737,-3.02496
672,-223,25.0585,2.83398,0,0,0,0,0,0,0,-1,1896,1247,25.0584,-2.83398
679,-223,25.2079,2.67761,0,0,0,0,0,0,0,-1,1903,1247,25.2079,-2.67766
686,-223,20.6093,5.91052,0,0,0,0,0,0,0,-1,1910,1247,20.6092,-5.91047
693,-223,20.6891,5.77966,-0.000454797,-0.000476551,0.000129895,-0.000335324,-0.000596024,0.743627,0.000345012,0.0285209,1917,1247,20.6891,-5.77966
700,-223,20.7375,5.60413,3.46084e-05,-0.000690617,0.00035724,0.000181023,-0.000837031,0.388967,0.000627132,0.0132371,1924,1247,20.7376,-5.60416
707,-223,20.7225,5.41064,-1.37509e-05,-0.00071708,0.000571543,0.00030565,-0.00103648,0.509605,0.000812272,0.0135796,1931,1247,20.7225,-5.4107
714,-223,20.7463,5.20898,-0.000274996,-0.000671833,0.000811529,0.000362019,-0.00130885,0.665501,0.00101499,0.0117511,1938,1247,20.7464,-5.20894
721,-223,20.7512,4.99597,-0.000348203,-0.000865018,0.00123297,0.000653142,-0.00186636,0.682102,0.00150981,0.0139817,1945,1247,20.7512,-4.99594
728,-223,20.7577,4.80359,-0.000248379,-0.00178567,0.00195304,0.00108183,-0.00311588,0.597925,0.0025166,0.0144246,1952,1247,20.7577,-4.80355
735,-223,20.7502,4.64111,0.000416393,-0.00253534,0.00269113,0.00200978,-0.00412873,0.534583,0.00361377,0.0128457,1959,1247,20.7502,-4.64114
742,-223,20.7263,4.45776,0.0018986,-0.00383964,0.00374689,0.0037487,-0.00568974,0.458651,0.00548756,0.0110935,1966,1247,20.7263,-4.45781
749,-223,20.7281,4.24377,0.00335394,-0.00565552,0.00524955,0.00576661,-0.00806819,0.430804,0.00802428,0.00949884,1973,1247,20.7281,-4.24376
756,-223,20.7231,4.04932,0.00558956,-0.00807423,0.00720373,0.00868583,-0.0111705,0.405942,0.0114939,0.0107155,1980,1247,20.7232,-4.04938
763,-223,20.7028,3.86511,0.00901521,-0.0112037,0.00971905,0.0129293,-0.0151178,0.382856,0.0162095,0.0141983,1987,1247,20.7027,-3.86512
770,-223,20.7228,3.58997,0.0141199,-0.0149861,0.012849,0.0189805,-0.0198467,0.361647,0.0224187,0.0367132,1994,1247,20.7228,-3.59002
777,-223,20.7451,3.30872,0,0,0,0,0,0,0,-1,2001,1247,20.7451,-3.3087
784,-223,23.6134,1.97522,0,0,0,0,0,0,0,-1,2008,1247,23.6134,-1.97528
791,-223,24.2224,2.84827,0,0,0,0,0,0,0,-1,2015,1247,24.2224,-2.84822
798,-223,0,0,0,0,0,0,0,0,0,-1,2022,1247,0,0
805,-223,0,0,0,0,0,0,0,0,0,-1,2029,1247,0,0
812,-223,0,0,0,0,0,0,0,0,0,-1,2036,1247,0,0
-700,-230,0,0,0,0,0,0,0,0,0,-1,524,1254,0,0
-693,-230,0,0,0,0,0,0,0,0,0,-1,531,1254,0,0
-686,-230,0,0,0,0,0,0,0,0,0,-1,538,1254,0,0
-679,-230,0,0,0,0,0,0,0,0,0,-1,545,1254,0,0
-672,-230,-12.7479,-2.39294,0,0,0,0,0,0,0,-1,552,1254,-12.7479,2.3929
-665,-230,-12.702,-2.78357,0,0,0,0,0,0,0,-1,559,1254,-12.702,2.78361
-658,-230,-11.697,1.12036,0,0,0,0,0,0,0,-1,566,1254,-11.697,-1.12039
-651,-230,-12.4305,0.688599,0,0,0,0,0,0,0,-1,573,1254,-12.4305,-0.688577
-644,-230,-11.9334,1.12524,0,0,0,0,0,0,0,-1,580,1254,-11.9334,-1.12522
-637,-230,-12.3996,1.47278,0,0,0,0,0,0,0,-1,587,1254,-12.3996,-1.47279
-630,-230,-11.9986,1.56213,-0.00651104,0.0303533,0.00122249,0.0303938,-0.00655153,1.53768,0.0227628,0.0394558,594,1254,-11.9986,-1.56214
-623,-230,-12.0752,1.56848,-0.00402273,0.0213174,0.00208991,0.0214886,-0.00419394,1.48906,0.015909,0.0256587,601,1254,-12.0752,-1.56847
-616,-230,-12.1213,1.85645,-0.00258326,0.0144225,0.00198579,0.0146513,-0.00281206,1.45608,0.0108273,0.0151672,608,1254,-12.1213,-1.85644
-609,-230,-12.1169,2.0802,-0.00161556,0.00927872,0.00141756,0.00946015,-0.00179699,1.4435,0.00698327,0.011369,615,1254,-12.1169,-2.08024
-602,-230,-12.1102,2.29602,-0.000665171,0.00536971,0.000828923,0.0054815,-0.000776957,1.43675,0.00393894,0.0114021,622,1254,-12.1102,-2.29602
-595,-230,-12.1069,2.55652,0.000160067,0.00266901,0.000464401,0.00275221,7.68661e-05,1.39352,0.00180973,0.0175511,629,1254,-12.1069,-2.55653
-588,-230,-12.0972,2.82129,0.00102834,0.000490334,6.97117e-05,0.00103723,0.000481448,0.126784,0.000599358,0.0246547,636,1254,-12.0972,-2.82133
-581,-230,-12.0844,3.04883,0.00190197,-0.000918588,-0.000363319,0.00194801,-0.000964636,-0.12607,0.00171327,0.0227549,643,1254,-12.0844,-3.04883
-574,-230,-12.1091,3.21777,0.00264733,-0.00185441,-0.000738391,0.00276535,-0.00197243,-0.158493,0.0027481,0.0161127,650,1254,-12.1091,-3.21777
-567,-230,-11.9374,3.47363,0.00304571,-0.00251874,-0.000994881,0.00321824,-0.00269127,-0.171708,0.00341637,0.0231204,657,1254,-11.9375,-3.4736
-560,-230,-11.6856,3.77173,0.00237602,-0.00237168,-0.00114,0.00263556,-0.00263123,-0.223855,0.00304078,0.040305,664,1254,-11.6856,-3.7717
-553,-230,-11.2497,4.07605,0,0,0,0,0,0,0,-1,671,1254,-11.2497,-4.07609
-546,-230,-10.7707,1.62012,0,0,0,0,0,0,0,-1,678,1254,-10.7707,-1.62008
-539,-230,-16.3252,1.57239,0,0,0,0,0,0,0,-1,685,1254,-16.3252,-1.57243
-532,-230,-16.4333,1.39355,0,0,0,0,0,0,0,-1,692,1254,-16.4333,-1.39356
-525,-230,-16.5852,1.06677,0,0,0,0,0,0,0,-1,699,1254,-16.5852,-1.06675
-518,-230,-16.4792,0.839233,-0.0135572,0.00990368,-0.00386631,0.0105244,-0.014178,-1.4116,0.0143138,0.0441849,706,1254,-16.4792,-0.839227
-511,-230,-16.5591,0.763672,-0.0186711,0.0140643,-0.00413728,0.0145791,-0.0191859,-1.447,0.0195546,0.0392608,713,1254,-16.5591,-0.76365
-504,-230,-16.6289,0.765503,-0.0227661,0.0186466,-0.00309294,0.0188763,-0.0229958,-1.49666,0.0242139,0.0383531,720,1254,-16.6289,-0.765475
-497,-230,0,0,0,0,0,0,0,0,0,-1,727,1254,0,0
-490,-230,0,0,0,0,0,0,0,0,0,-1,734,1254,0,0
-483,-230,0,0,0,0,0,0,0,0,0,-1,741,1254,0,0
-476,-230,0,0,0,0,0,0,0,0,0,-1,748,1254,0,0
-469,-230,0,0,0,0,0,0,0,0,0,-1,755,1254,0,0
-462,-230,0,0,0,0,0,0,0,0,0,-1,762,1254,0,0
-455,-230,0,0,0,0,0,0,0,0,0,-1,769,1254,0,0
-448,-230,0,0,0,0,0,0,0,0,0,-1,776,1254,0,0
-441,-230,0,0,0,0,0,0,0,0,0,-1,783,1254,0,0
-434,-230,0,0,0,0,0,0,0,0,0,-1,790,1254,0,0
-427,-230,0,0,0,0,0,0,0,0,0,-1,797,1254,0,0
-420,-230,0,0,0,0,0,0,0,0,0,-1,804,1254,0,0
-413,-230,0,0,0,0,0,0,0,0,0,-1,811,1254,0,0
-406,-230,0,0,0,0,0,0,0,0,0,-1,818,1254,0,0
-399,-230,0,0,0,0,0,0,0,0,0,-1,825,1254,0,0
-392,-230,0,0,0,0,0,0,0,0,0,-1,832,1254,0,0
-385,-230,0,0,0,0,0,0,0,0,0,-1,839,1254,0,0
-378,-230,0,0,0,0,0,0,0,0,0,-1,846,1254,0,0
-371,-230,0,0,0,0,0,0,0,0,0,-1,853,1254,0,0
-364,-230,0,0,0,0,0,0,0,0,0,-1,860,1254,0,0
-357,-230,0,0,0,0,0,0,0,0,0,-1,867,1254,0,0
-350,-230,0,0,0,0,0,0,0,0,0,-1,874,1254,0,0
-343,-230,0,0,0,0,0,0,0,0,0,-1,881,1254,0,0
-336,-230,0,0,0,0,0,0,0,0,0,-1,888,1254,0,0
-329,-230,0,0,0,0,0,0,0,0,0,-1,895,1254,0,0
-322,-230,0,0,0,0,0,0,0,0,0,-1,902,1254,0,0
-315,-230,0,0,0,0,0,0,0,0,0,-1,909,1254,0,0
-308,-230,0,0,0,0,0,0,0,0,0,-1,916,1254,0,0
-301,-230,0,0,0,0,0,0,0,0,0,-1,923,1254,0,0
-294,-230,0,0,0,0,0,0,0,0,0,-1,930,1254,0,0
-287,-230,0,0,0,0,0,0,0,0,0,-1,937,1254,0,0
-280,-230,0,0,0,0,0,0,0,0,0,-1,944,1254,0,0
-273,-230,0,0,0,0,0,0,0,0,0,-1,951,1254,0,0
-266,-230,0,0,0,0,0,0,0,0,0,-1,958,1254,0,0
-259,-230,0,0,0,0,0,0,0,0,0,-1,965,1254,0,0
-252,-230,0,0,0,0,0,0,0,0,0,-1,972,1254,0,0
-245,-230,0,0,0,0,0,0,0,0,0,-1,979,1254,0,0
-238,-230,0,0,0,0,0,0,0,0,0,-1,986,1254,0,0
-231,-230,0,0,0,0,0,0,0,0,0,-1,993,1254,0,0
-224,-230,0,0,0,0,0,0,0,0,0,-1,1000,1254,0,0
-217,-230,0,0,0,0,0,0,0,0,0,-1,1007,1254,0,0
-210,-230,0,0,0,0,0,0,0,0,0,-1,1014,1254,0,0
-203,-230,0,0,0,0,0,0,0,0,0,-1,1021,1254,0,0
-196,-230,0,0,0,0,0,0,0,0,0,-1,1028,1254,0,0
-189,-230,0,0,0,0,0,0,0,0,0,-1,1035,1254,0,0
-182,-230,0,0,0,0,0,0,0,0,0,-1,1042,1254,0,0
-175,-230,0,0,0,0,0,0,0,0,0,-1,1049,1254,0,0
-168,-230,0,0,0,0,0,0,0,0,0,-1,1056,1254,0,0
-161,-230,0,0,0,0,0,0,0,0,0,-1,1063,1254,0,0
-154,-230,0,0,0,0,0,0,0,0,0,-1,1070,1254,0,0
-147,-230,0,0,0,0,0,0,0,0,0,-1,1077,1254,0,0
-140,-230,0,0,0,0,0,0,0,0,0,-1,1084,1254,0,0
-133,-230,0,0,0,0,0,0,0,0,0,-1,1091,1254,0,0
-126,-230,0,0,0,0,0,0,0,0,0,-1,1098,1254,0,0
-119,-230,0,0,0,0,0,0,0,0,0,-1,1105,1254,0,0
-112,-230,0,0,0,0,0,0,0,0,0,-1,1112,1254,0,0
-105,-230,0,0,0,0,0,0,0,0,0,-1,1119,1254,0,0
-98,-230,0,0,0,0,0,0,0,0,0,-1,1126,1254,0,0
-91,-230,0,0,0,0,0,0,0,0,0,-1,1133,1254,0,0
-84,-230,0,0,0,0,0,0,0,0,0,-1,1140,1254,0,0
-77,-230,0,0,0,0,0,0,0,0,0,-1,1147,1254,0,0
-70,-230,0,0,0,0,0,0,0,0,0,-1,1154,1254,0,0
-63,-230,0,0,0,0,0,0,0,0,0,-1,1161,1254,0,0
-56,-230,0,0,0,0,0,0,0,0,0,-1,1168,1254,0,0
-49,-230,0,0,0,0,0,0,0,0,0,-1,1175,1254,0,0
-42,-230,0,0,0,0,0,0,0,0,0,-1,1182,1254,0,0
-35,-230,0,0,0,0,0,0,0,0,0,-1,1189,1254,0,0
-28,-230,0,0,0,0,0,0,0,0,0,-1,1196,1254,0,0
-21,-230,0,0,0,0,0,0,0,0,0,-1,1203,1254,0,0
-14,-230,0,0,0,0,0,0,0,0,0,-1,1210,1254,0,0
-7,-230,0,0,0,0,0,0,0,0,0,-1,1217,1254,0,0
0,-230,0,0,0,0,0,0,0,0,0,-1,1224,1254,0,0
7,-230,0,0,0,0,0,0,0,0,0,-1,1231,1254,0,0
14,-230,0,0,0,0,0,0,0,0,0,-1,1238,1254,0,0
21,-230,0,0,0,0,0,0,0,0,0,-1,1245,1254,0,0
28,-230,0,0,0,0,0,0,0,0,0,-1,1252,1254,0,0
35,-230,0,0,0,0,0,0,0,0,0,-1,1259,1254,0,0
42,-230,0,0,0,0,0,0,0,0,0,-1,1266,1254,0,0
49,-230,0,0,0,0,0,0,0,0,0,-1,1273,1254,0,0
56,-230,0,0,0,0,0,0,0,0,0,-1,1280,1254,0,0
63,-230,0,0,0,0,0,0,0,0,0,-1,1287,1254,0,0
70,-230,0,0,0,0,0,0,0,0,0,-1,1294,1254,0,0
77,-230,0,0,0,0,0,0,0,0,0,-1,1301,1254,0,0
84,-230,0,0,0,0,0,0,0,0,0,-1,1308,1254,0,0
91,-230,0,0,0,0,0,0,0,0,0,-1,1315,1254,0,0
98,-230,0,0,0,0,0,0,0,0,0,-1,1322,1254,0,0
105,-230,0,0,0,0,0,0,0,0,0,-1,1329,1254,0,0
112,-230,0,0,0,0,0,0,0,0,0,-1,1336,1254,0,0
119,-230,0,0,0,0,0,0,0,0,0,-1,1343,1254,0,0
126,-230,0,0,0,0,0,0,0,0,0,-1,1350,1254,0,0
133,-230,0,0,0,0,0,0,0,0,0,-1,1357,1254,0,0
140,-230,0,0,0,0,0,0,0,0,0,-1,1364,1254,0,0
147,-230,0,0,0,0,0,0,0,0,0,-1,1371,1254,0,0
154,-230,0,0,0,0,0,0,0,0,0,-1,1378,1254,0,0
161,-230,0,0,0,0,0,0,0,0,0,-1,1385,1254,0,0
168,-230,0,0,0,0,0,0,0,0,0,-1,1392,1254,0,0
175,-230,0,0,0,0,0,0,0,0,0,-1,1399,1254,0,0
182,-230,0,0,0,0,0,0,0,0,0,-1,1406,1254,0,0
189,-230,0,0,0,0,0,0,0,0,0,-1,1413,1254,0,0
196,-230,0,0,0,0,0,0,0,0,0,-1,1420,1254,0,0
203,-230,0,0,0,0,0,0,0,0,0,-1,1427,1254,0,0
210,-230,0,0,0,0,0,0,0,0,0,-1,1434,1254,0,0
217,-230,0,0,0,0,0,0,0,0,0,-1,1441,1254,0,0
224,-230,0,0,0,0,0,0,0,0,0,-1,1448,1254,0,0
231,-230,0,0,0,0,0,0,0,0,0,-1,1455,1254,0,0
238,-230,0,0,0,0,0,0,0,0,0,-1,1462,1254,0,0
245,-230,0,0,0,0,0,0,0,0,0,-1,1469,1254,0,0
252,-230,0,0,0,0,0,0,0,0,0,-1,1476,1254,0,0
259,-230,0,0,0,0,0,0,0,0,0,-1,1483,1254,0,0
266,-230,0,0,0,0,0,0,0,0,0,-1,1490,1254,0,0
273,-230,0,0,0,0,0,0,0,0,0,-1,1497,1254,0,0
280,-230,0,0,0,0,0,0,0,0,0,-1,1504,1254,0,0
287,-230,0,0,0,0,0,0,0,0,0,-1,1511,1254,0,0
294,-230,0,0,0,0,0,0,0,0,0,-1,1518,1254,0,0
301,-230,0,0,0,0,0,0,0,0,0,-1,1525,1254,0,0
308,-230,0,0,0,0,0,0,0,0,0,-1,1532,1254,0,0
315,-230,0,0,0,0,0,0,0,0,0,-1,1539,1254,0,0
322,-230,0,0,0,0,0,0,0,0,0,-1,1546,1254,0,0
329,-230,0,0,0,0,0,0,0,0,0,-1,1553,1254,0,0
336,-230,0,0,0,0,0,0,0,0,0,-1,1560,1254,0,0
343,-230,0,0,0,0,0,0,0,0,0,-1,1567,1254,0,0
350,-230,0,0,0,0,0,0,0,0,0,-1,1574,1254,0,0
357,-230,0,0,0,0,0,0,0,0,0,-1,1581,1254,0,0
364,-230,0,0,0,0,0,0,0,0,0,-1,1588,1254,0,0
371,-230,0,0,0,0,0,0,0,0,0,-1,1595,1254,0,0
378,-230,0,0,0,0,0,0,0,0,0,-1,1602,1254,0,0
385,-230,0,0,0,0,0,0,0,0,0,-1,1609,1254,0,0
392,-230,0,0,0,0,0,0,0,0,0,-1,1616,1254,0,0
399,-230,0,0,0,0,0,0,0,0,0,-1,1623,1254,0,0
406,-230,0,0,0,0,0,0,0,0,0,-1,1630,1254,0,0
413,-230,0,0,0,0,0,0,0,0,0,-1,1637,1254,0,0
420,-230,0,0,0,0,0,0,0,0,0,-1,1644,1254,0,0
427,-230,0,0,0,0,0,0,0,0,0,-1,1651,1254,0,0
434,-230,0,0,0,0,0,0,0,0,0,-1,1658,1254,0,0
441,-230,0,0,0,0,0,0,0,0,0,-1,1665,1254,0,0
448,-230,0,0,0,0,0,0,0,0,0,-1,1672,1254,0,0
455,-230,0,0,0,0,0,0,0,0,0,-1,1679,1254,0,0
462,-230,0,0,0,0,0,0,0,0,0,-1,1686,1254,0,0
469,-230,0,0,0,0,0,0,0,0,0,-1,1693,1254,0,0
476,-230,0,0,0,0,0,0,0,0,0,-1,1700,1254,0,0
483,-230,0,0,0,0,0,0,0,0,0,-1,1707,1254,0,0
490,-230,0,0,0,0,0,0,0,0,0,-1,1714,1254,0,0
497,-230,0,0,0,0,0,0,0,0,0,-1,1721,1254,0,0
504,-230,0,0,0,0,0,0,0,0,0,-1,1728,1254,0,0
511,-230,0,0,0,0,0,0,0,0,0,-1,1735,1254,0,0
518,-230,0,0,0,0,0,0,0,0,0,-1,1742,1254,0,0
525,-230,0,0,0,0,0,0,0,0,0,-1,1749,1254,0,0
532,-230,0,0,0,0,0,0,0,0,0,-1,1756,1254,0,0
539,-230,0,0,0,0,0,0,0,0,0,-1,1763,1254,0,0
546,-230,0,0,0,0,0,0,0,0,0,-1,1770,1254,0,0
553,-230,0,0,0,0,0,0,0,0,0,-1,1777,1254,0,0
560,-230,0,0,0,0,0,0,0,0,0,-1,1784,1254,0,0
567,-230,0,0,0,0,0,0,0,0,0,-1,1791,1254,0,0
574,-230,0,0,0,0,0,0,0,0,0,-1,1798,1254,0,0
581,-230,0,0,0,0,0,0,0,0,0,-1,1805,1254,0,0
588,-230,0,0,0,0,0,0,0,0,0,-1,1812,1254,0,0
595,-230,0,0,0,0,0,0,0,0,0,-1,1819,1254,0,0
602,-230,0,0,0,0,0,0,0,0,0,-1,1826,1254,0,0
609,-230,0,0,0,0,0,0,0,0,0,-1,1833,1254,0,0
616,-230,24.7261,2.87891,0.0056475,0.00675279,0.00316256,0.00941063,0.00298967,0.871898,0.00555231,0.0381858,1840,1254,24.7261,-2.87893
623,-230,24.641,3.03381,0.00218775,0.00408617,0.00199847,0.0053494,0.00092453,1.00711,0.00330152,0.0355692,1847,1254,24.641,-3.03381
630,-230,24.668,2.89392,-0.000647263,0.00146726,0.0003991,0.00154008,-0.000720082,1.39032,0.00133322,0.0314144,1854,1254,24.668,-2.89392
637,-230,24.5935,2.76086,-0.00240197,-2.83304e-05,-0.000527503,8.3619e-05,-0.00251392,-1.36167,0.0017045,0.0275199,1861,1254,24.5935,-2.76089
644,-230,24.5222,2.70264,-0.00314841,-0.000650203,-0.000805837,-0.000412824,-0.00338579,-1.28432,0.00213294,0.0217234,1868,1254,24.5223,-2.70265
651,-230,24.5873,2.74854,-0.00315611,-0.000912568,-0.000766899,-0.000675478,-0.0033932,-1.27096,0.00207397,0.0417803,1875,1254,24.5872,-2.74856
658,-230,24.6666,2.84534,0,0,0,0,0,0,0,-1,1882,1254,24.6666,-2.8454
665,-230,23.8575,0.460571,0,0,0,0,0,0,0,-1,1889,1254,23.8575,-0.460581
672,-230,25.1437,3.28955,0,0,0,0,0,0,0,-1,1896,1254,25.1437,-3.28957
679,-230,19.139,6.00427,0,0,0,0,0,0,0,-1,1903,1254,19.139,-6.0043
686,-230,20.3616,5.90613,0,0,0,0,0,0,0,-1,1910,1254,20.3615,-5.90617
693,-230,20.4523,5.77747,-0.000878503,-0.000650896,0.000271165,-0.000470621,-0.00105878,0.984077,0.00061254,0.0234519,1917,1254,20.4522,-5.7775
700,-230,20.5353,5.63232,-9.37569e-05,-0.000763242,0.00050624,0.000178403,-0.0010354,0.493282,0.000756778,0.0110093,1924,1254,20.5353,-5.63236
707,-230,20.5322,5.4292,-1.90234e-05,-0.000703462,0.0006601,0.000382294,-0.00110478,0.546255,0.000891699,0.00988434,1931,1254,20.5323,-5.42918
714,-230,20.5325,5.20447,-0.000242078,-0.000571512,0.000872496,0.000481113,-0.0012947,0.692102,0.00106053,0.0130558,1938,1254,20.5325,-5.20443
721,-230,20.5424,4.99365,-0.000357528,-0.000869177,0.00137417,0.000784425,-0.00201113,0.693368,0.00166501,0.0133057,1945,1254,20.5424,-4.99371
728,-230,20.5433,4.82324,-0.000455447,-0.00216761,0.00236117,0.00120005,-0.00382311,0.611485,0.00302906,0.0139417,1952,1254,20.5434,-4.82321
735,-230,20.5295,4.65601,-0.00016109,-0.00333662,0.00349008,0.00208542,-0.00558313,0.571922,0.00457838,0.0141498,1959,1254,20.5295,-4.65602
742,-230,20.511,4.45178,0.000823368,-0.00517798,0.00499114,0.0036464,-0.00800101,0.514747,0.00687951,0.0107238,1966,1254,20.511,-4.45184
749,-230,20.52,4.22473,0.00162071,-0.00775507,0.00710004,0.00544087,-0.0115752,0.49362,0.0100348,0.00990728,1973,1254,20.52,-4.22477
756,-230,20.507,4.02551,0.00297348,-0.0112313,0.00985715,0.00802047,-0.0162783,0.473211,0.0142964,0.0123308,1980,1254,20.5069,-4.02546
763,-230,20.4741,3.79895,0.00521247,-0.015735,0.0133886,0.0117374,-0.0222599,0.453474,0.0199393,0.0246755,1987,1254,20.4742,-3.79898
770,-230,20.5134,3.56262,0.00875103,-0.0212178,0.0177381,0.0169867,-0.0294535,0.434676,0.0271323,0.0414737,1994,1254,20.5134,-3.56266
777,-230,20.5455,3.34412,0,0,0,0,0,0,0,-1,2001,1254,20.5455,-3.34409
784,-230,23.7999,1.21106,0,0,0,0,0,0,0,-1,2008,1254,23.7999,-1.21101
791,-230,24.4008,1.1853,0,0,0,0,0,0,0,-1,2015,1254,24.4008,-1.18527
798,-230,0,0,0,0,0,0,0,0,0,-1,2022,1254,0,0
805,-230,0,0,0,0,0,0,0,0,0,-1,2029,1254,0,0
812,-230,0,0,0,0,0,0,0,0,0,-1,2036,1254,0,0
-700,-237,0,0,0,0,0,0,0,0,0,-1,524,1261,0,0
-693,-237,0,0,0,0,0,0,0,0,0,-1,531,1261,0,0
-686,-237,0,0,0,0,0,0,0,0,0,-1,538,1261,0,0
-679,-237,0,0,0,0,0,0,0,0,0,-1,545,1261,0,0
-672,-237,-12.7062,-1.4635,0,0,0,0,0,0,0,-1,552,1261,-12.7062,1.46353
-665,-237,-12.3812,-1.56299,0,0,0,0,0,0,0,-1,559,1261,-12.3812,1.56295
-658,-237,-10.8753,0.164795,0,0,0,0,0,0,0,-1,566,1261,-10.8753,-0.164836
-651,-237,-11.6917,-0.297119,0,0,0,0,0,0,0,-1,573,1261,-11.6916,0.297099
-644,-237,-11.6223,0.372559,0,0,0,0,0,0,0,-1,580,1261,-11.6223,-0.37255
-637,-237,-11.5848,0.987427,-0.00695801,0.0486721,0.003193,0.0488548,-0.00714068,1.51365,0.0351924,0.0445116,587,1261,-11.5849,-0.987395
-630,-237,-11.6559,1.32532,-0.00558399,0.0359759,0.00443027,0.036443,-0.006051,1.46577,0.0265432,0.0425961,594,1261,-11.6559,-1.32536
-623,-237,-11.8078,1.59497,-0.00409828,0.0260811,0.00479679,0.0268251,-0.00484235,1.4169,0.019697,0.028279,601,1261,-11.8078,-1.59491
-616,-237,-11.8547,1.84985,-0.00306493,0.0184414,0.00421702,0.0192387,-0.00386225,1.38393,0.0142883,0.0135026,608,1261,-11.8548,-1.84985
-609,-237,-11.8906,2.08826,-0.00207665,0.0125754,0.0033136,0.0132899,-0.00279119,1.35841,0.00992209,0.0152695,615,1261,-11.8906,-2.0882
-602,-237,-11.8889,2.29834,-0.000926481,0.00795423,0.00240773,0.008565,-0.00153726,1.32236,0.0062854,0.0119353,622,1261,-11.8888,-2.2983
-595,-237,-11.8885,2.53674,0.000201444,0.00448798,0.00169584,0.00507775,-0.000388321,1.23611,0.00352175,0.0144733,629,1261,-11.8885,-2.53677
-588,-237,-11.8837,2.79797,0.00137238,0.0017697,0.00101237,0.00260272,0.000539364,0.882285,0.00158622,0.0255318,636,1261,-11.8837,-2.79794
-581,-237,-11.8615,3.07251,0.00250856,3.19553e-06,0.000343811,0.00255489,-4.3129e-05,0.133932,0.00171781,0.0245897,643,1261,-11.8615,-3.07251
-574,-237,-11.875,3.25024,0.00343547,-0.00115289,-0.000189439,0.00344328,-0.00116069,-0.0411934,0.00276485,0.0149626,650,1261,-11.875,-3.25026
-567,-237,-11.827,3.48828,0.00384827,-0.00195205,-0.000552672,0.00390046,-0.00200424,-0.0941542,0.00346718,0.0158803,657,1261,-11.827,-3.48834
-560,-237,-11.6132,3.8512,0.0029161,-0.00175757,-0.000815185,0.0030542,-0.00189568,-0.167821,0.00288379,0.0320086,664,1261,-11.6131,-3.85114
-553,-237,-11.3952,4.14063,0,0,0,0,0,0,0,-1,671,1261,-11.3952,-4.14057
-546,-237,-11.192,1.14014,0,0,0,0,0,0,0,-1,678,1261,-11.192,-1.14011
-539,-237,-16.0547,1.37524,0,0,0,0,0,0,0,-1,685,1261,-16.0547,-1.37518
-532,-237,-16.0311,1.59167,0,0,0,0,0,0,0,-1,692,1261,-16.0311,-1.59168
-525,-237,-16.3097,1.37256,0,0,0,0,0,0,0,-1,699,1261,-16.3097,-1.3726
-518,-237,-16.5938,1.12659,0,0,0,0,0,0,0,-1,706,1261,-16.5938,-1.12661
-511,-237,-16.4865,0.781006,-0.0225692,0.0183102,-0.00472363,0.0188489,-0.0231079,-1.45724,0.0242653,0.0438456,713,1261,-16.4865,-0.780999
-504,-237,-16.6609,0.946655,-0.0281058,0.0239553,-0.00426468,0.0243023,-0.0284528,-1.4896,0.0304896,0.0424287,720,1261,-16.6609,-0.946668
-497,-237,-16.7204,0.862183,-0.0316825,0.0298138,-0.00222008,0.0298938,-0.0317625,-1.53476,0.0356028,0.0439781,727,1261,-16.7204,-0.862215
-490,-237,0,0,0,0,0,0,0,0,0,-1,734,1261,0,0
-483,-237,0,0,0,0,0,0,0,0,0,-1,741,1261,0,0
-476,-237,0,0,0,0,0,0,0,0,0,-1,748,1261,0,0
-469,-237,0,0,0,0,0,0,0,0,0,-1,755,1261,0,0
-462,-237,0,0,0,0,0,0,0,0,0,-1,762,1261,0,0
-455,-237,0,0,0,0,0,0,0,0,0,-1,769,1261,0,0
-448,-237,0,0,0,0,0,0,0,0,0,-1,776,1261,0,0
-441,-237,0,0,0,0,0,0,0,0,0,-1,783,1261,0,0
-434,-237,0,0,0,0,0,0,0,0,0,-1,790,1261,0,0
-427,-237,0,0,0,0,0,0,0,0,0,-1,797,1261,0,0
-420,-237,0,0,0,0,0,0,0,0,0,-1,804,1261,0,0
-413,-237,0,0,0,0,0,0,0,0,0,-1,811,1261,0,0
-406,-237,0,0,0,0,0,0,0,0,0,-1,818,1261,0,0
-399,-237,0,0,0,0,0,0,0,0,0,-1,825,1261,0,0
-392,-237,0,0,0,0,0,0,0,0,0,-1,832,1261,0,0
-385,-237,0,0,0,0,0,0,0,0,0,-1,839,1261,0,0
-378,-237,0,0,0,0,0,0,0,0,0,-1,846,1261,0,0
-371,-237,0,0,0,0,0,0,0,0,0,-1,853,1261,0,0
-364,-237,0,0,0,0,0,0,0,0,0,-1,860,1261,0,0
-357,-237,0,0,0,0,0,0,0,0,0,-1,867,1261,0,0
-350,-237,0,0,0,0,0,0,0,0,0,-1,874,1261,0,0
-343,-237,0,0,0,0,0,0,0,0,0,-1,881,1261,0,0
-336,-237,0,0,0,0,0,0,0,0,0,-1,888,1261,0,0
-329,-237,0,0,0,0,0,0,0,0,0,-1,895,1261,0,0
-322,-237,0,0,0,0,0,0,0,0,0,-1,902,1261,0,0
-315,-237,0,0,0,0,0,0,0,0,0,-1,909,1261,0,0
-308,-237,0,0,0,0,0,0,0,0,0,-1,916,1261,0,0
-301,-237,0,0,0,0,0,0,0,0,0,-1,923,1261,0,0
-294,-237,0,0,0,0,0,0,0,0,0,-1,930,1261,0,0
-287,-237,0,0,0,0,0,0,0,0,0,-1,937,1261,0,0
-280,-237,0,0,0,0,0,0,0,0,0,-1,944,1261,0,0
-273,-237,0,0,0,0,0,0,0,0,0,-1,951,1261,0,0
-266,-237,0,0,0,0,0,0,0,0,0,-1,958,1261,0,0
-259,-237,0,0,0,0,0,0,0,0,0,-1,965,1261,0,0
-252,-237,0,0,0,0,0,0,0,0,0,-1,972,1261,0,0
-245,-237,0,0,0,0,0,0,0,0,0,-1,979,1261,0,0
-238,-237,0,0,0,0,0,0,0,0,0,-1,986,1261,0,0
-231,-237,0,0,0,0,0,0,0,0,0,-1,993,1261,0,0
-224,-237,0,0,0,0,0,0,0,0,0,-1,1000,1261,0,0
-217,-237,0,0,0,0,0,0,0,0,0,-1,1007,1261,0,0
-210,-237,0,0,0,0,0,0,0,0,0,-1,1014,1261,0,0
-203,-237,0,0,0,0,0,0,0,0,0,-1,1021,1261,0,0
-196,-237,0,0,0,0,0,0,0,0,0,-1,1028,1261,0,0
-189,-237,0,0,0,0,0,0,0,0,0,-1,1035,1261,0,0
-182,-237,0,0,0,0,0,0,0,0,0,-1,1042,1261,0,0
-175,-237,0,0,0,0,0,0,0,0,0,-1,1049,1261,0,0
-168,-237,0,0,0,0,0,0,0,0,0,-1,1056,1261,0,0
-161,-237,0,0,0,0,0,0,0,0,0,-1,1063,1261,0,0
-154,-237,0,0,0,0,0,0,0,0,0,-1,1070,1261,0,0
-147,-237,0,0,0,0,0,0,0,0,0,-1,1077,1261,0,0
-140,-237,0,0,0,0,0,0,0,0,0,-1,1084,1261,0,0
-133,-237,0,0,0,0,0,0,0,0,0,-1,1091,1261,0,0
-126,-237,0,0,0,0,0,0,0,0,0,-1,1098,1261,0,0
-119,-237,0,0,0,0,0,0,0,0,0,-1,1105,1261,0,0
-112,-237,0,0,0,0,0,0,0,0,0,-1,1112,1261,0,0
-105,-237,0,0,0,0,0,0,0,0,0,-1,1119,1261,0,0
-98,-237,0,0,0,0,0,0,0,0,0,-1,1126,1261,0,0
-91,-237,0,0,0,0,0,0,0,0,0,-1,1133,1261,0,0
-84,-237,0,0,0,0,0,0,0,0,0,-1,1140,1261,0,0
-77,-237,0,0,0,0,0,0,0,0,0,-1,1147,1261,0,0
-70,-237,0,0,0,0,0,0,0,0,0,-1,1154,1261,0,0
-63,-237,0,0,0,0,0,0,0,0,0,-1,1161,1261,0,0
-56,-237,0,0,0,0,0,0,0,0,0,-1,1168,1261,0,0
-49,-237,0,0,0,0,0,0,0,0,0,-1,1175,1261,0,0
-42,-237,0,0,0,0,0,0,0,0,0,-1,1182,1261,0,0
-35,-237,0,0,0,0,0,0,0,0,0,-1,1189,1261,0,0
-28,-237,0,0,0,0,0,0,0,0,0,-1,1196,1261,0,0
-21,-237,0,0,0,0,0,0,0,0,0,-1,1203,1261,0,0
-14,-237,0,0,0,0,0,0,0,0,0,-1,1210,1261,0,0
-7,-237,0,0,0,0,0,0,0,0,0,-1,1217,1261,0,0
0,-237,0,0,0,0,0,0,0,0,0,-1,1224,1261,0,0
7,-237,0,0,0,0,0,0,0,0,0,-1,1231,1261,0,0
14,-237,0,0,0,0,0,0,0,0,0,-1,1238,1261,0,0
21,-237,0,0,0,0,0,0,0,0,0,-1,1245,1261,0,0
28,-237,0,0,0,0,0,0,0,0,0,-1,1252,1261,0,0
35,-237,0,0,0,0,0,0,0,0,0,-1,1259,1261,0,0
42,-237,0,0,0,0,0,0,0,0,0,-1,1266,1261,0,0
49,-237,0,0,0,0,0,0,0,0,0,-1,1273,1261,0,0
56,-237,0,0,0,0,0,0,0,0,0,-1,1280,1261,0,0
63,-237,0,0,0,0,0,0,0,0,0,-1,1287,1261,0,0
70,-237,0,0,0,0,0,0,0,0,0,-1,1294,1261,0,0
77,-237,0,0,0,0,0,0,0,0,0,-1,1301,1261,0,0
84,-237,0,0,0,0,0,0,0,0,0,-1,1308,1261,0,0
91,-237,0,0,0,0,0,0,0,0,0,-1,1315,1261,0,0
98,-237,0,0,0,0,0,0,0,0,0,-1,1322,1261,0,0
105,-237,0,0,0,0,0,0,0,0,0,-1,1329,1261,0,0
112,-237,0,0,0,0,0,0,0,0,0,-1,1336,1261,0,0
119,-237,0,0,0,0,0,0,0,0,0,-1,1343,1261,0,0
126,-237,0,0,0,0,0,0,0,0,0,-1,1350,1261,0,0
133,-237,0,0,0,0,0,0,0,0,0,-1,1357,1261,0,0
140,-237,0,0,0,0,0,0,0,0,0,-1,1364,1261,0,0
147,-237,0,0,0,0,0,0,0,0,0,-1,1371,1261,0,0
154,-237,0,0,0,0,0,0,0,0,0,-1,1378,1261,0,0
161,-237,0,0,0,0,0,0,0,0,0,-1,1385,1261,0,0
168,-237,0,0,0,0,0,0,0,0,0,-1,1392,1261,0,0
175,-237,0,0,0,0,0,0,0,0,0,-1,1399,1261,0,0
182,-237,0,0,0,0,0,0,0,0,0,-1,1406,1261,0,0
189,-237,0,0,0,0,0,0,0,0,0,-1,1413,1261,0,0
196,-237,0,0,0,0,0,0,0,0,0,-1,1420,1261,0,0
203,-237,0,0,0,0,0,0,0,0,0,-1,1427,1261,0,0
210,-237,0,0,0,0,0,0,0,0,0,-1,1434,1261,0,0
217,-237,0,0,0,0,0,0,0,0,0,-1,1441,1261,0,0
224,-237,0,0,0,0,0,0,0,0,0,-1,1448,1261,0,0
231,-237,0,0,0,0,0,0,0,0,0,-1,1455,1261,0,0
238,-237,0,0,0,0,0,0,0,0,0,-1,1462,1261,0,0
245,-237,0,0,0,0,0,0,0,0,0,-1,1469,1261,0,0
252,-237,0,0,0,0,0,0,0,0,0,-1,1476,1261,0,0
259,-237,0,0,0,0,0,0,0,0,0,-1,1483,1261,0,0
266,-237,0,0,0,0,0,0,0,0,0,-1,1490,1261,0,0
273,-237,0,0,0,0,0,0,0,0,0,-1,1497,1261,0,0
280,-237,0,0,0,0,0,0,0,0,0,-1,1504,1261,0,0
287,-237,0,0,0,0,0,0,0,0,0,-1,1511,1261,0,0
294,-237,0,0,0,0,0,0,0,0,0,-1,1518,1261,0,0
301,-237,0,0,0,0,0,0,0,0,0,-1,1525,1261,0,0
308,-237,0,0,0,0,0,0,0,0,0,-1,1532,1261,0,0
315,-237,0,0,0,0,0,0,0,0,0,-1,1539,1261,0,0
322,-237,0,0,0,0,0,0,0,0,0,-1,1546,1261,0,0
329,-237,0,0,0,0,0,0,0,0,0,-1,1553,1261,0,0
336,-237,0,0,0,0,0,0,0,0,0,-1,1560,1261,0,0
343,-237,0,0,0,0,0,0,0,0,0,-1,1567,1261,0,0
350,-237,0,0,0,0,0,0,0,0,0,-1,1574,1261,0,0
357,-237,0,0,0,0,0,0,0,0,0,-1,1581,1261,0,0
364,-237,0,0,0,0,0,0,0,0,0,-1,1588,1261,0,0
371,-237,0,0,0,0,0,0,0,0,0,-1,1595,1261,0,0
378,-237,0,0,0,0,0,0,0,0,0,-1,1602,1261,0,0
385,-237,0,0,0,0,0,0,0,0,0,-1,1609,1261,0,0
392,-237,0,0,0,0,0,0,0,0,0,-1,1616,1261,0,0
399,-237,0,0,0,0,0,0,0,0,0,-1,1623,1261,0,0
406,-237,0,0,0,0,0,0,0,0,0,-1,1630,1261,0,0
413,-237,0,0,0,0,0,0,0,0,0,-1,1637,1261,0,0
420,-237,0,0,0,0,0,0,0,0,0,-1,1644,1261,0,0
427,-237,0,0,0,0,0,0,0,0,0,-1,1651,1261,0,0
434,-237,0,0,0,0,0,0,0,0,0,-1,1658,1261,0,0
441,-237,0,0,0,0,0,0,0,0,0,-1,1665,1261,0,0
448,-237,0,0,0,0,0,0,0,0,0,-1,1672,1261,0,0
455,-237,0,0,0,0,0,0,0,0,0,-1,1679,1261,0,0
462,-237,0,0,0,0,0,0,0,0,0,-1,1686,1261,0,0
469,-237,0,0,0,0,0,0,0,0,0,-1,1693,1261,0,0
476,-237,0,0,0,0,0,0,0,0,0,-1,1700,1261,0,0
483,-237,0,0,0,0,0,0,0,0,0,-1,1707,1261,0,0
490,-237,0,0,0,0,0,0,0,0,0,-1,1714,1261,0,0
497,-237,0,0,0,0,0,0,0,0,0,-1,1721,1261,0,0
504,-237,0,0,0,0,0,0,0,0,0,-1,1728,1261,0,0
511,-237,0,0,0,0,0,0,0,0,0,-1,1735,1261,0,0
518,-237,0,0,0,0,0,0,0,0,0,-1,1742,1261,0,0
525,-237,0,0,0,0,0,0,0,0,0,-1,1749,1261,0,0
532,-237,0,0,0,0,0,0,0,0,0,-1,1756,1261,0,0
539,-237,0,0,0,0,0,0,0,0,0,-1,1763,1261,0,0
546,-237,0,0,0,0,0,0,0,0,0,-1,1770,1261,0,0
553,-237,0,0,0,0,0,0,0,0,0,-1,1777,1261,0,0
560,-237,0,0,0,0,0,0,0,0,0,-1,1784,1261,0,0
567,-237,0,0,0,0,0,0,0,0,0,-1,1791,1261,0,0
574,-237,0,0,0,0,0,0,0,0,0,-1,1798,1261,0,0
581,-237,0,0,0,0,0,0,0,0,0,-1,1805,1261,0,0
588,-237,0,0,0,0,0,0,0,0,0,-1,1812,1261,0,0
595,-237,0,0,0,0,0,0,0,0,0,-1,1819,1261,0,0
602,-237,0,0,0,0,0,0,0,0,0,-1,1826,1261,0,0
609,-237,0,0,0,0,0,0,0,0,0,-1,1833,1261,0,0
616,-237,24.6448,2.79102,0.00709915,0.00500483,0.00117927,0.00762908,0.00447489,0.422334,0.0044266,0.0378619,1840,1261,24.6448,-2.79105
623,-237,24.7113,2.8147,0.00250702,0.00210671,0.000447896,0.00279745,0.00181628,0.575267,0.00163892,0.0324112,1847,1261,24.7113,-2.81469
630,-237,24.6829,2.77637,-0.00149899,-0.000446393,-0.000475718,-0.000263257,-0.00168212,-1.20331,0.00104478,0.0250942,1854,1261,24.6829,-2.77642
637,-237,24.5079,2.6947,-0.00384613,-0.00163576,-0.000807376,-0.00137226,-0.00410963,-1.25533,0.00241593,0.0216178,1861,1261,24.5079,-2.69472
644,-237,24.432,2.5719,-0.00466415,-0.00196417,-0.000809265,-0.00174019,-0.00488813,-1.30078,0.00286091,0.0439647,1868,1261,24.4319,-2.57196
651,-237,24.5549,2.7771,0,0,0,0,0,0,0,-1,1875,1261,24.555,-2.77705
658,-237,24.2235,1.521,0,0,0,0,0,0,0,-1,1882,1261,24.2235,-1.521
665,-237,23.8748,0.961304,0,0,0,0,0,0,0,-1,1889,1261,23.8748,-0.961292
672,-237,23.4561,0.798218,0,0,0,0,0,0,0,-1,1896,1261,23.4561,-0.798271
679,-237,21.0903,6.32031,0,0,0,0,0,0,0,-1,1903,1261,21.0904,-6.32037
686,-237,20.6952,6.06848,-0.00244978,-0.00115188,6.60726e-05,-0.00114852,-0.00245314,1.52006,0.00141728,0.0383101,1910,1261,20.6952,-6.06851
693,-237,20.277,5.83948,-0.00153921,-0.000795925,0.000314874,-0.00068047,-0.00165466,1.21935,0.000960323,0.021508,1917,1261,20.277,-5.83944
700,-237,20.3104,5.64563,-0.000415054,-0.000805817,0.000529482,-4.60551e-05,-0.00117482,0.608646,0.000768319,0.0109567,1924,1261,20.3104,-5.64557
707,-237,20.3271,5.44116,-0.000154449,-0.000671018,0.00061916,0.000258139,-0.00108361,0.587795,0.000822072,0.00998132,1931,1261,20.3271,-5.44114
714,-237,20.3265,5.21875,-0.000297025,-0.000470555,0.000817796,0.000438596,-0.00120618,0.732548,0.000983474,0.0125223,1938,1261,20.3265,-5.21875
721,-237,20.3247,5.01404,-0.000445983,-0.000893247,0.00142089,0.000768766,-0.002108,0.707344,0.00171984,0.0141637,1945,1261,20.3248,-5.01399
728,-237,20.3431,4.82532,-0.000719125,-0.00254799,0.00266894,0.00118769,-0.0044548,0.620356,0.0034349,0.014586,1952,1261,20.3431,-4.82536
735,-237,20.3148,4.63782,-0.000787164,-0.00407797,0.00414545,0.00202749,-0.00689262,0.596475,0.00539933,0.0191578,1959,1261,20.3148,-4.63786
742,-237,20.3202,4.46301,-0.000326885,-0.00638874,0.00605582,0.00341415,-0.0101298,0.553375,0.0081337,0.013869,1966,1261,20.3202,-4.463
749,-237,20.3074,4.25574,-0.000180288,-0.00965618,0.00873294,0.00501717,-0.0148536,0.53685,0.0119318,0.00921991,1973,1261,20.3073,-4.25572
756,-237,20.2672,4.01074,0.000279749,-0.0141146,0.012261,0.00729984,-0.0211347,0.519996,0.0170521,0.0130335,1980,1261,20.2673,-4.0107
763,-237,20.2655,3.75574,0.00129504,-0.019904,0.0167675,0.0105323,-0.0291412,0.503538,0.0237306,0.0264266,1987,1261,20.2654,-3.75573
770,-237,20.4014,3.48389,0.0031751,-0.0269923,0.0222932,0.0150081,-0.0388253,0.487972,0.0320786,0.0397852,1994,1261,20.4014,-3.48386
777,-237,20.5682,3.32898,0.00634654,-0.035153,0.0287813,0.021078,-0.0498844,0.473076,0.0420804,0.0419133,2001,1261,20.5682,-3.32898
784,-237,18.7219,6.32874,0,0,0,0,0,0,0,-1,2008,1261,18.7219,-6.32876
791,-237,24.0978,0.45166,0,0,0,0,0,0,0,-1,2015,1261,24.0978,-0.451683
798,-237,0,0,0,0,0,0,0,0,0,-1,2022,1261,0,0
805,-237,0,0,0,0,0,0,0,0,0,-1,2029,1261,0,0
812,-237,0,0,0,0,0,0,0,0,0,-1,2036,1261,0,0
-700,-244,0,0,0,0,0,0,0,0,0,-1,524,1268,0,0
-693,-244,0,0,0,0,0,0,0,0,0,-1,531,1268,0,0
-686,-244,0,0,0,0,0,0,0,0,0,-1,538,1268,0,0
-679,-244,0,0,0,0,0,0,0,0,0,-1,545,1268,0,0
-672,-244,-14.0414,1.27966,0,0,0,0,0,0,0,-1,552,1268,-14.0414,-1.27971
-665,-244,-12.7167,-0.0720215,0,0,0,0,0,0,0,-1,559,1268,-12.7167,0.0720799
-658,-244,-11.6539,0.781006,0,0,0,0,0,0,0,-1,566,1268,-11.654,-0.781037
-651,-244,-11.5634,0.908081,0,0,0,0,0,0,0,-1,573,1268,-11.5634,-0.908125
-644,-244,-8.55084,0.271973,0,0,0,0,0,0,0,-1,580,1268,-8.55084,-0.271959
-637,-244,-11.7117,0.97168,-0.00315051,0.0556936,0.00656368,0.0564169,-0.00387376,1.46105,0.0389667,0.0490735,587,1268,-11.7116,-0.971724
-630,-244,-11.8788,1.43018,-0.00409402,0.041715,0.0075466,0.0429262,-0.00530523,1.41166,0.0305399,0.0435881,594,1268,-11.8788,-1.43018
-623,-244,-11.7419,1.71143,-0.00398698,0.0307617,0.00735266,0.0322534,-0.00547873,1.37063,0.023542,0.0316951,601,1268,-11.7419,-1.71141
-616,-244,-11.6362,1.87,-0.00352441,0.0221965,0.00633493,0.0236721,-0.00500001,1.34195,0.0176853,0.0165472,608,1268,-11.6362,-1.87002
-609,-244,-11.6345,2.07288,-0.0026602,0.0155542,0.00506975,0.0168702,-0.00397621,1.31682,0.0127801,0.0149317,615,1268,-11.6344,-2.07292
-602,-244,-11.6566,2.30017,-0.00147237,0.010234,0.00384862,0.0113859,-0.0026243,1.27997,0.00859989,0.0149766,622,1268,-11.6566,-2.30015
-595,-244,-11.6528,2.53271,-0.000215515,0.0060713,0.00282538,0.00715445,-0.00129867,1.20471,0.00525627,0.0155731,629,1268,-11.6528,-2.5327
-588,-244,-11.6366,2.78613,0.0011706,0.00286649,0.00186542,0.00406765,-3.05513e-05,0.998718,0.002722,0.0205434,636,1268,-11.6366,-2.78618
-581,-244,-11.6367,3.04285,0.00256229,0.000736413,0.000958829,0.00297329,0.000325414,0.404955,0.00188312,0.0187825,643,1268,-11.6367,-3.04287
-574,-244,-11.6429,3.26294,0.00370649,-0.000668715,0.000278472,0.00372415,-0.000686368,0.0633072,0.00274036,0.0134458,650,1268,-11.6429,-3.263
-567,-244,-11.6368,3.50525,0.00420083,-0.00157787,-0.000150807,0.00420476,-0.0015818,-0.0260735,0.00345338,0.0103039,657,1268,-11.6368,-3.50527
-560,-244,-11.6005,3.77429,0.00311238,-0.00133463,-0.000520787,0.00317255,-0.0013948,-0.115036,0.00270273,0.0185171,664,1268,-11.6005,-3.77427
-553,-244,-11.4183,4.19263,0.000896844,0.00080688,-0.00118687,0.00203958,-0.000335855,-0.766457,0.00148439,0.0492351,671,1268,-11.4183,-4.19264
-546,-244,-11.103,4.5813,0,0,0,0,0,0,0,-1,678,1268,-11.103,-4.58125
-539,-244,-12.8706,0.3302,0,0,0,0,0,0,0,-1,685,1268,-12.8706,-0.330156
-532,-244,-15.8347,1.51428,0,0,0,0,0,0,0,-1,692,1268,-15.8347,-1.51427
-525,-244,-16.168,1.27026,0,0,0,0,0,0,0,-1,699,1268,-16.168,-1.27028
-518,-244,-16.3318,1.0199,0,0,0,0,0,0,0,-1,706,1268,-16.3318,-1.01984
-511,-244,-16.3766,0.651489,-0.0267153,0.0228285,-0.00535108,0.0233999,-0.0272867,-1.46442,0.0292926,0.0494594,713,1268,-16.3766,-0.651445
-504,-244,-16.5592,0.974731,-0.0336293,0.030017,-0.00530405,0.030456,-0.0340683,-1.48822,0.0372726,0.0470259,720,1268,-16.5592,-0.974757
-497,-244,-16.8106,1.0874,-0.039307,0.037538,-0.00439215,0.0377883,-0.0395572,-1.51389,0.0446593,0.0467457,727,1268,-16.8106,-1.0874
-490,-244,0,0,0,0,0,0,0,0,0,-1,734,1268,0,0
-483,-244,0,0,0,0,0,0,0,0,0,-1,741,1268,0,0
-476,-244,0,0,0,0,0,0,0,0,0,-1,748,1268,0,0
-469,-244,0,0,0,0,0,0,0,0,0,-1,755,1268,0,0
-462,-244,0,0,0,0,0,0,0,0,0,-1,762,1268,0,0
-455,-244,0,0,0,0,0,0,0,0,0,-1,769,1268,0,0
-448,-244,0,0,0,0,0,0,0,0,0,-1,776,1268,0,0
-441,-244,0,0,0,0,0,0,0,0,0,-1,783,1268,0,0
-434,-244,0,0,0,0,0,0,0,0,0,-1,790,1268,0,0
-427,-244,0,0,0,0,0,0,0,0,0,-1,797,1268,0,0
-420,-244,0,0,0,0,0,0,0,0,0,-1,804,1268,0,0
-413,-244,0,0,0,0,0,0,0,0,0,-1,811,1268,0,0
-406,-244,0,0,0,0,0,0,0,0,0,-1,818,1268,0,0
-399,-244,0,0,0,0,0,0,0,0,0,-1,825,1268,0,0
-392,-244,0,0,0,0,0,0,0,0,0,-1,832,1268,0,0
-385,-244,0,0,0,0,0,0,0,0,0,-1,839,1268,0,0
-378,-244,0,0,0,0,0,0,0,0,0,-1,846,1268,0,0
-371,-244,0,0,0,0,0,0,0,0,0,-1,853,1268,0,0
-364,-244,0,0,0,0,0,0,0,0,0,-1,860,1268,0,0
-357,-244,0,0,0,0,0,0,0,0,0,-1,867,1268,0,0
-350,-244,0,0,0,0,0,0,0,0,0,-1,874,1268,0,0
-343,-244,0,0,0,0,0,0,0,0,0,-1,881,1268,0,0
-336,-244,0,0,0,0,0,0,0,0,0,-1,888,1268,0,0
-329,-244,0,0,0,0,0,0,0,0,0,-1,895,1268,0,0
-322,-244,0,0,0,0,0,0,0,0,0,-1,902,1268,0,0
-315,-244,0,0,0,0,0,0,0,0,0,-1,909,1268,0,0
-308,-244,0,0,0,0,0,0,0,0,0,-1,916,1268,0,0
-301,-244,0,0,0,0,0,0,0,0,0,-1,923,1268,0,0
-294,-244,0,0,0,0,0,0,0,0,0,-1,930,1268,0,0
-287,-244,0,0,0,0,0,0,0,0,0,-1,937,1268,0,0
-280,-244,0,0,0,0,0,0,0,0,0,-1,944,1268,0,0
-273,-244,0,0,0,0,0,0,0,0,0,-1,951,1268,0,0
-266,-244,0,0,0,0,0,0,0,0,0,-1,958,1268,0,0
-259,-244,0,0,0,0,0,0,0,0,0,-1,965,1268,0,0
-252,-244,0,0,0,0,0,0,0,0,0,-1,972,1268,0,0
-245,-244,0,0,0,0,0,0,0,0,0,-1,979,1268,0,0
-238,-244,0,0,0,0,0,0,0,0,0,-1,986,1268,0,0
-231,-244,0,0,0,0,0,0,0,0,0,-1,993,1268,0,0
-224,-244,0,0,0,0,0,0,0,0,0,-1,1000,1268,0,0
-217,-244,0,0,0,0,0,0,0,0,0,-1,1007,1268,0,0
-210,-244,0,0,0,0,0,0,0,0,0,-1,1014,1268,0,0
-203,-244,0,0,0,0,0,0,0,0,0,-1,1021,1268,0,0
-196,-244,0,0,0,0,0,0,0,0,0,-1,1028,1268,0,0
-189,-244,0,0,0,0,0,0,0,0,0,-1,1035,1268,0,0
-182,-244,0,0,0,0,0,0,0,0,0,-1,1042,1268,0,0
-175,-244,0,0,0,0,0,0,0,0,0,-1,1049,1268,0,0
-168,-244,0,0,0,0,0,0,0,0,0,-1,1056,1268,0,0
-161,-244,0,0,0,0,0,0,0,0,0,-1,1063,1268,0,0
-154,-244,0,0,0,0,0,0,0,0,0,-1,1070,1268,0,0
-147,-244,0,0,0,0,0,0,0,0,0,-1,1077,1268,0,0
-140,-244,0,0,0,0,0,0,0,0,0,-1,1084,1268,0,0
-133,-244,0,0,0,0,0,0,0,0,0,-1,1091,1268,0,0
-126,-244,0,0,0,0,0,0,0,0,0,-1,1098,1268,0,0
-119,-244,0,0,0,0,0,0,0,0,0,-1,1105,1268,0,0
-112,-244,0,0,0,0,0,0,0,0,0,-1,1112,1268,0,0
-105,-244,0,0,0,0,0,0,0,0,0,-1,1119,1268,0,0
-98,-244,0,0,0,0,0,0,0,0,0,-1,1126,1268,0,0
-91,-244,0,0,0,0,0,0,0,0,0,-1,1133,1268,0,0
-84,-244,0,0,0,0,0,0,0,0,0,-1,1140,1268,0,0
-77,-244,0,0,0,0,0,0,0,0,0,-1,1147,1268,0,0
-70,-244,0,0,0,0,0,0,0,0,0,-1,1154,1268,0,0
-63,-244,0,0,0,0,0,0,0,0,0,-1,1161,1268,0,0
-56,-244,0,0,0,0,0,0,0,0,0,-1,1168,1268,0,0
-49,-244,0,0,0,0,0,0,0,0,0,-1,1175,1268,0,0
-42,-244,0,0,0,0,0,0,0,0,0,-1,1182,1268,0,0
-35,-244,0,0,0,0,0,0,0,0,0,-1,1189,1268,0,0
-28,-244,0,0,0,0,0,0,0,0,0,-1,1196,1268,0,0
-21,-244,0,0,0,0,0,0,0,0,0,-1,1203,1268,0,0
-14,-244,0,0,0,0,0,0,0,0,0,-1,1210,1268,0,0
-7,-244,0,0,0,0,0,0,0,0,0,-1,1217,1268,0,0
0,-244,0,0,0,0,0,0,0,0,0,-1,1224,1268,0,0
7,-244,0,0,0,0,0,0,0,0,0,-1,1231,1268,0,0
14,-244,0,0,0,0,0,0,0,0,0,-1,1238,1268,0,0
21,-244,0,0,0,0,0,0,0,0,0,-1,1245,1268,0,0
28,-244,0,0,0,0,0,0,0,0,0,-1,1252,1268,0,0
35,-244,0,0,0,0,0,0,0,0,0,-1,1259,1268,0,0
42,-244,0,0,0,0,0,0,0,0,0,-1,1266,1268,0,0
49,-244,0,0,0,0,0,0,0,0,0,-1,1273,1268,0,0
56,-244,0,0,0,0,0,0,0,0,0,-1,1280,1268,0,0
63,-244,0,0,0,0,0,0,0,0,0,-1,1287,1268,0,0
70,-244,0,0,0,0,0,0,0,0,0,-1,1294,1268,0,0
77,-244,0,0,0,0,0,0,0,0,0,-1,1301,1268,0,0
84,-244,0,0,0,0,0,0,0,0,0,-1,1308,1268,0,0
91,-244,0,0,0,0,0,0,0,0,0,-1,1315,1268,0,0
98,-244,0,0,0,0,0,0,0,0,0,-1,1322,1268,0,0
105,-244,0,0,0,0,0,0,0,0,0,-1,1329,1268,0,0
112,-244,0,0,0,0,0,0,0,0,0,-1,1336,1268,0,0
119,-244,0,0,0,0,0,0,0,0,0,-1,1343,1268,0,0
126,-244,0,0,0,0,0,0,0,0,0,-1,1350,1268,0,0
133,-244,0,0,0,0,0,0,0,0,0,-1,1357,1268,0,0
140,-244,0,0,0,0,0,0,0,0,0,-1,1364,1268,0,0
147,-244,0,0,0,0,0,0,0,0,0,-1,1371,1268,0,0
154,-244,0,0,0,0,0,0,0,0,0,-1,1378,1268,0,0
161,-244,0,0,0,0,0,0,0,0,0,-1,1385,1268,0,0
168,-244,0,0,0,0,0,0,0,0,0,-1,1392,1268,0,0
175,-244,0,0,0,0,0,0,0,0,0,-1,1399,1268,0,0
182,-244,0,0,0,0,0,0,0,0,0,-1,1406,1268,0,0
189,-244,0,0,0,0,0,0,0,0,0,-1,1413,1268,0,0
196,-244,0,0,0,0,0,0,0,0,0,-1,1420,1268,0,0
203,-244,0,0,0,0,0,0,0,0,0,-1,1427,1268,0,0
210,-244,0,0,0,0,0,0,0,0,0,-1,1434,1268,0,0
217,-244,0,0,0,0,0,0,0,0,0,-1,1441,1268,0,0
224,-244,0,0,0,0,0,0,0,0,0,-1,1448,1268,0,0
231,-244,0,0,0,0,0,0,0,0,0,-1,1455,1268,0,0
238,-244,0,0,0,0,0,0,0,0,0,-1,1462,1268,0,0
245,-244,0,0,0,0,0,0,0,0,0,-1,1469,1268,0,0
252,-244,0,0,0,0,0,0,0,0,0,-1,1476,1268,0,0
259,-244,0,0,0,0,0,0,0,0,0,-1,1483,1268,0,0
266,-244,0,0,0,0,0,0,0,0,0,-1,1490,1268,0,0
273,-244,0,0,0,0,0,0,0,0,0,-1,1497,1268,0,0
280,-244,0,0,0,0,0,0,0,0,0,-1,1504,1268,0,0
287,-244,0,0,0,0,0,0,0,0,0,-1,1511,1268,0,0
294,-244,0,0,0,0,0,0,0,0,0,-1,1518,1268,0,0
301,-244,0,0,0,0,0,0,0,0,0,-1,1525,1268,0,0
308,-244,0,0,0,0,0,0,0,0,0,-1,1532,1268,0,0
315,-244,0,0,0,0,0,0,0,0,0,-1,1539,1268,0,0
322,-244,0,0,0,0,0,0,0,0,0,-1,1546,1268,0,0
329,-244,0,0,0,0,0,0,0,0,0,-1,1553,1268,0,0
336,-244,0,0,0,0,0,0,0,0,0,-1,1560,1268,0,0
343,-244,0,0,0,0,0,0,0,0,0,-1,1567,1268,0,0
350,-244,0,0,0,0,0,0,0,0,0,-1,1574,1268,0,0
357,-244,0,0,0,0,0,0,0,0,0,-1,1581,1268,0,0
364,-244,0,0,0,0,0,0,0,0,0,-1,1588,1268,0,0
371,-244,0,0,0,0,0,0,0,0,0,-1,1595,1268,0,0
378,-244,0,0,0,0,0,0,0,0,0,-1,1602,1268,0,0
385,-244,0,0,0,0,0,0,0,0,0,-1,1609,1268,0,0
392,-244,0,0,0,0,0,0,0,0,0,-1,1616,1268,0,0
399,-244,0,0,0,0,0,0,0,0,0,-1,1623,1268,0,0
406,-244,0,0,0,0,0,0,0,0,0,-1,1630,1268,0,0
413,-244,0,0,0,0,0,0,0,0,0,-1,1637,1268,0,0
420,-244,0,0,0,0,0,0,0,0,0,-1,1644,1268,0,0
427,-244,0,0,0,0,0,0,0,0,0,-1,1651,1268,0,0
434,-244,0,0,0,0,0,0,0,0,0,-1,1658,1268,0,0
441,-244,0,0,0,0,0,0,0,0,0,-1,1665,1268,0,0
448,-244,0,0,0,0,0,0,0,0,0,-1,1672,1268,0,0
455,-244,0,0,0,0,0,0,0,0,0,-1,1679,1268,0,0
462,-244,0,0,0,0,0,0,0,0,0,-1,1686,1268,0,0
469,-244,0,0,0,0,0,0,0,0,0,-1,1693,1268,0,0
476,-244,0,0,0,0,0,0,0,0,0,-1,1700,1268,0,0
483,-244,0,0,0,0,0,0,0,0,0,-1,1707,1268,0,0
490,-244,0,0,0,0,0,0,0,0,0,-1,1714,1268,0,0
497,-244,0,0,0,0,0,0,0,0,0,-1,1721,1268,0,0
504,-244,0,0,0,0,0,0,0,0,0,-1,1728,1268,0,0
511,-244,0,0,0,0,0,0,0,0,0,-1,1735,1268,0,0
518,-244,0,0,0,0,0,0,0,0,0,-1,1742,1268,0,0
525,-244,0,0,0,0,0,0,0,0,0,-1,1749,1268,0,0
532,-244,0,0,0,0,0,0,0,0,0,-1,1756,1268,0,0
539,-244,0,0,0,0,0,0,0,0,0,-1,1763,1268,0,0
546,-244,0,0,0,0,0,0,0,0,0,-1,1770,1268,0,0
553,-244,0,0,0,0,0,0,0,0,0,-1,1777,1268,0,0
560,-244,0,0,0,0,0,0,0,0,0,-1,1784,1268,0,0
567,-244,0,0,0,0,0,0,0,0,0,-1,1791,1268,0,0
574,-244,0,0,0,0,0,0,0,0,0,-1,1798,1268,0,0
581,-244,0,0,0,0,0,0,0,0,0,-1,1805,1268,0,0
588,-244,0,0,0,0,0,0,0,0,0,-1,1812,1268,0,0
595,-244,0,0,0,0,0,0,0,0,0,-1,1819,1268,0,0
602,-244,0,0,0,0,0,0,0,0,0,-1,1826,1268,0,0
609,-244,0,0,0,0,0,0,0,0,0,-1,1833,1268,0,0
616,-244,24.5403,2.70374,0.00696493,0.00277874,-0.000154846,0.00697066,0.00277302,-0.0369225,0.00405243,0.035555,1840,1268,24.5403,-2.70373
623,-244,24.6458,2.77649,0.00157841,-5.87146e-05,-0.000645558,0.00180234,-0.000282644,-0.333891,0.00130601,0.0285005,1847,1268,24.6457,-2.77647
630,-244,24.653,2.76965,-0.0029319,-0.00211643,-0.00105606,-0.00139213,-0.0036562,-0.969628,0.00213082,0.024522,1854,1268,24.653,-2.76965
637,-244,24.5775,2.74719,-0.00535126,-0.00282341,-0.000992253,-0.00248046,-0.00569422,-1.23801,0.00329664,0.0393494,1861,1268,24.5776,-2.74725
644,-244,24.4362,2.47363,-0.00608546,-0.00285988,-0.000835966,-0.0026561,-0.00628924,-1.33169,0.00364567,0.0482831,1868,1268,24.4362,-2.47363
651,-244,24.2432,2.1748,-0.00594996,-0.00267661,-0.000628986,-0.00255991,-0.00606666,-1.38734,0.00351678,0.0477088,1875,1268,24.2432,-2.17484
658,-244,23.9021,1.76953,0,0,0,0,0,0,0,-1,1882,1268,23.9021,-1.76959
665,-244,23.3805,1.43835,0,0,0,0,0,0,0,-1,1889,1268,23.3804,-1.43834
672,-244,22.9312,1.276,0,0,0,0,0,0,0,-1,1896,1268,22.9312,-1.27605
679,-244,20.2114,6.1051,0,0,0,0,0,0,0,-1,1903,1268,20.2114,-6.10504
686,-244,20.189,6.09485,-0.00345956,-0.00131871,0.000135769,-0.00131014,-0.00346813,1.50771,0.00202218,0.033708,1910,1268,20.189,-6.09482
693,-244,20.0944,5.8927,-0.00233806,-0.000804181,0.000386422,-0.000712331,-0.00242991,1.33743,0.00144237,0.0129679,1917,1268,20.0943,-5.89276
700,-244,20.0878,5.64844,-0.000868911,-0.00074107,0.000549361,-0.000251923,-0.00135806,0.843315,0.000834175,0.00889257,1924,1268,20.0878,-5.64845
707,-244,20.0992,5.44226,-0.00040226,-0.000558918,0.000574105,9.88354e-05,-0.00106001,0.717599,0.000741818,0.0106385,1931,1268,20.0993,-5.44225
714,-244,20.1311,5.23877,-0.000412695,-0.000379207,0.000772321,0.000376552,-0.00116845,0.796236,0.000930247,0.010733,1938,1268,20.1311,-5.23875
721,-244,20.1012,5.04126,-0.000569667,-0.000924041,0.0014524,0.000716315,-0.00221002,0.7247,0.00176136,0.011444,1945,1268,20.1012,-5.0413
728,-244,20.0991,4.8064,-0.00100906,-0.00289479,0.00290946,0.0011065,-0.00501034,0.628703,0.00376368,0.015694,1952,1268,20.0991,-4.80634
735,-244,20.1008,4.59766,-0.00141747,-0.00475661,0.00467109,0.00187346,-0.00804753,0.613761,0.00608639,0.0216768,1959,1268,20.1008,-4.59771
742,-244,20.1379,4.44836,-0.00145324,-0.00750222,0.00692989,0.00308341,-0.0120389,0.579637,0.00922708,0.0144246,1966,1268,20.138,-4.4484
749,-244,20.1061,4.2312,-0.00191581,-0.0114205,0.0101069,0.00450025,-0.0178366,0.565631,0.0136409,0.0173162,1973,1268,20.1061,-4.2312
756,-244,19.9797,4.00439,-0.00231549,-0.0168086,0.0143348,0.00650031,-0.0256244,0.551371,0.0196121,0.0234671,1980,1268,19.9797,-4.00435
763,-244,19.5587,4.55115,0,0,0,0,0,0,0,-1,1987,1268,19.5588,-4.55117
770,-244,20.5535,3.51514,-0.00227528,-0.0324121,0.0263596,0.0130188,-0.0477062,0.525742,0.036917,0.0427872,1994,1268,20.5535,-3.51514
777,-244,19.637,5.39771,-0.00138797,-0.0424356,0.0341769,0.0179541,-0.0617776,0.514998,0.0482953,0.0444648,2001,1268,19.6369,-5.39768
784,-244,18.9825,6.49463,0.000735849,-0.0533702,0.0429798,0.024468,-0.0771023,0.504507,0.0612099,0.0475162,2008,1268,18.9826,-6.49458
791,-244,0,0,0,0,0,0,0,0,0,-1,2015,1268,0,0
798,-244,0,0,0,0,0,0,0,0,0,-1,2022,1268,0,0
805,-244,0,0,0,0,0,0,0,0,0,-1,2029,1268,0,0
812,-244,0,0,0,0,0,0,0,0,0,-1,2036,1268,0,0
-700,-251,0,0,0,0,0,0,0,0,0,-1,524,1275,0,0
-693,-251,0,0,0,0,0,0,0,0,0,-1,531,1275,0,0
-686,-251,0,0,0,0,0,0,0,0,0,-1,538,1275,0,0
-679,-251,0,0,0,0,0,0,0,0,0,-1,545,1275,0,0
-672,-251,0,0,0,0,0,0,0,0,0,-1,552,1275,0,0
-665,-251,-12.4661,0.0537109,0,0,0,0,0,0,0,-1,559,1275,-12.4661,-0.0536935
-658,-251,-11.7831,0.266113,0,0,0,0,0,0,0,-1,566,1275,-11.7831,-0.266058
-651,-251,-9.13672,-0.978027,0,0,0,0,0,0,0,-1,573,1275,-9.13672,0.977994
-644,-251,-9.04706,-0.28894,0,0,0,0,0,0,0,-1,580,1275,-9.04707,0.288904
-637,-251,-9.06152,0.324829,0,0,0,0,0,0,0,-1,587,1275,-9.06154,-0.324849
-630,-251,-12.0634,1.86194,0,0,0,0,0,0,0,-1,594,1275,-12.0634,-1.862
-623,-251,-11.7308,1.8667,-0.00181807,0.0356783,0.00874025,0.0376155,-0.00375529,1.35268,0.0264179,0.0371878,601,1275,-11.7308,-1.86665
-616,-251,-11.3721,1.8634,-0.00259497,0.0262656,0.00786288,0.0282688,-0.00459812,1.32134,0.0205507,0.0204172,608,1275,-11.3721,-1.86339
-609,-251,-11.3753,2.07727,-0.00229582,0.0188193,0.00660713,0.0207163,-0.00419282,1.2912,0.0153999,0.0204904,615,1275,-11.3753,-2.07727
-602,-251,-11.3914,2.30334,-0.00148942,0.0127313,0.00527663,0.0144753,-0.00323344,1.25158,0.0108892,0.0149964,622,1275,-11.3914,-2.30329
-595,-251,-11.3887,2.53479,-0.000610871,0.00787609,0.00415972,0.00957486,-0.00230965,1.18308,0.00727635,0.0132143,629,1275,-11.3887,-2.53478
-588,-251,-11.3731,2.76721,0.00070835,0.00417296,0.00295076,0.00586233,-0.000981024,1.05083,0.00427294,0.0155277,636,1275,-11.3731,-2.76723
-581,-251,-11.3803,3.02942,0.00220751,0.00159098,0.001708,0.00363484,0.000163644,0.696118,0.00237056,0.0144208,643,1275,-11.3803,-3.02939
-574,-251,-11.3881,3.27893,0.00349929,-0.000136318,0.000783292,0.00366087,-0.000297898,0.203429,0.00254569,0.0130633,650,1275,-11.3881,-3.27888
-567,-251,-11.3947,3.52002,0.00407567,-0.00125496,0.000235914,0.00408609,-0.00126538,0.0441412,0.00322957,0.0112658,657,1275,-11.3947,-3.51999
-560,-251,-11.3682,3.79883,0.00293827,-0.00102969,-0.000245867,0.00295345,-0.00104486,-0.0616488,0.00239449,0.0171005,664,1275,-11.3682,-3.7988
-553,-251,-11.2189,3.83838,0.000444454,0.00132647,-0.00105601,0.00202985,-0.000258932,-0.983199,0.00144729,0.0411538,671,1275,-11.2188,-3.83843
-546,-251,-11.1619,3.7865,0,0,0,0,0,0,0,-1,678,1275,-11.1619,-3.78649
-539,-251,-10.7916,0.366333,0,0,0,0,0,0,0,-1,685,1275,-10.7916,-0.366282
-532,-251,-10.7391,-0.00769043,0,0,0,0,0,0,0,-1,692,1275,-10.7391,0.00773227
-525,-251,-15.9981,1.30847,0,0,0,0,0,0,0,-1,699,1275,-15.9981,-1.30848
-518,-251,-16.079,1.52441,0,0,0,0,0,0,0,-1,706,1275,-16.079,-1.52439
-511,-251,-16.2992,0.58728,0,0,0,0,0,0,0,-1,713,1275,-16.2992,-0.587297
-504,-251,-15.9441,0.26355,-0.0388982,0.0352511,-0.00660466,0.0358348,-0.0394819,-1.48265,0.0435011,0.0472202,720,1275,-15.9441,-0.263549
-497,-251,-16.3866,0.763428,-0.0465365,0.0453093,-0.00632776,0.0457432,-0.0469704,-1.50233,0.0535298,0.0492761,727,1275,-16.3866,-0.763447
-490,-251,0,0,0,0,0,0,0,0,0,-1,734,1275,0,0
-483,-251,0,0,0,0,0,0,0,0,0,-1,741,1275,0,0
-476,-251,0,0,0,0,0,0,0,0,0,-1,748,1275,0,0
-469,-251,0,0,0,0,0,0,0,0,0,-1,755,1275,0,0
-462,-251,0,0,0,0,0,0,0,0,0,-1,762,1275,0,0
-455,-251,0,0,0,0,0,0,0,0,0,-1,769,1275,0,0
-448,-251,0,0,0,0,0,0,0,0,0,-1,776,1275,0,0
-441,-251,0,0,0,0,0,0,0,0,0,-1,783,1275,0,0
-434,-251,0,0,0,0,0,0,0,0,0,-1,790,1275,0,0
-427,-251,0,0,0,0,0,0,0,0,0,-1,797,1275,0,0
-420,-251,0,0,0,0,0,0,0,0,0,-1,804,1275,0,0
-413,-251,0,0,0,0,0,0,0,0,0,-1,811,1275,0,0
-406,-251,0,0,0,0,0,0,0,0,0,-1,818,1275,0,0
-399,-251,0,0,0,0,0,0,0,0,0,-1,825,1275,0,0
-392,-251,0,0,0,0,0,0,0,0,0,-1,832,1275,0,0
-385,-251,0,0,0,0,0,0,0,0,0,-1,839,1275,0,0
-378,-251,0,0,0,0,0,0,0,0,0,-1,846,1275,0,0
-371,-251,0,0,0,0,0,0,0,0,0,-1,853,1275,0,0
-364,-251,0,0,0,0,0,0,0,0,0,-1,860,1275,0,0
-357,-251,0,0,0,0,0,0,0,0,0,-1,867,1275,0,0
-350,-251,0,0,0,0,0,0,0,0,0,-1,874,1275,0,0
-343,-251,0,0,0,0,0,0,0,0,0,-1,881,1275,0,0
-336,-251,0,0,0,0,0,0,0,0,0,-1,888,1275,0,0
-329,-251,0,0,0,0,0,0,0,0,0,-1,895,1275,0,0
-322,-251,0,0,0,0,0,0,0,0,0,-1,902,1275,0,0
-315,-251,0,0,0,0,0,0,0,0,0,-1,909,1275,0,0
-308,-251,0,0,0,0,0,0,0,0,0,-1,916,1275,0,0
-301,-251,0,0,0,0,0,0,0,0,0,-1,923,1275,0,0
-294,-251,0,0,0,0,0,0,0,0,0,-1,930,1275,0,0
-287,-251,0,0,0,0,0,0,0,0,0,-1,937,1275,0,0
-280,-251,0,0,0,0,0,0,0,0,0,-1,944,1275,0,0
-273,-251,0,0,0,0,0,0,0,0,0,-1,951,1275,0,0
-266,-251,0,0,0,0,0,0,0,0,0,-1,958,1275,0,0
-259,-251,0,0,0,0,0,0,0,0,0,-1,965,1275,0,0
-252,-251,0,0,0,0,0,0,0,0,0,-1,972,1275,0,0
-245,-251,0,0,0,0,0,0,0,0,0,-1,979,1275,0,0
-238,-251,0,0,0,0,0,0,0,0,0,-1,986,1275,0,0
-231,-251,0,0,0,0,0,0,0,0,0,-1,993,1275,0,0
-224,-251,0,0,0,0,0,0,0,0,0,-1,1000,1275,0,0
-217,-251,0,0,0,0,0,0,0,0,0,-1,1007,1275,0,0
-210,-251,0,0,0,0,0,0,0,0,0,-1,1014,1275,0,0
-203,-251,0,0,0,0,0,0,0,0,0,-1,1021,1275,0,0
-196,-251,0,0,0,0,0,0,0,0,0,-1,1028,1275,0,0
-189,-251,0,0,0,0,0,0,0,0,0,-1,1035,1275,0,0
-182,-251,0,0,0,0,0,0,0,0,0,-1,1042,1275,0,0
-175,-251,0,0,0,0,0,0,0,0,0,-1,1049,1275,0,0
-168,-251,0,0,0,0,0,0,0,0,0,-1,1056,1275,0,0
-161,-251,0,0,0,0,0,0,0,0,0,-1,1063,1275,0,0
-154,-251,0,0,0,0,0,0,0,0,0,-1,1070,1275,0,0
-147,-251,0,0,0,0,0,0,0,0,0,-1,1077,1275,0,0
-140,-251,0,0,0,0,0,0,0,0,0,-1,1084,1275,0,0
-133,-251,0,0,0,0,0,0,0,0,0,-1,1091,1275,0,0
-126,-251,0,0,0,0,0,0,0,0,0,-1,1098,1275,0,0
-119,-251,0,0,0,0,0,0,0,0,0,-1,1105,1275,0,0
-112,-251,0,0,0,0,0,0,0,0,0,-1,1112,1275,0,0
-105,-251,0,0,0,0,0,0,0,0,0,-1,1119,1275,0,0
-98,-251,0,0,0,0,0,0,0,0,0,-1,1126,1275,0,0
-91,-251,0,0,0,0,0,0,0,0,0,-1,1133,1275,0,0
-84,-251,0,0,0,0,0,0,0,0,0,-1,1140,1275,0,0
-77,-251,0,0,0,0,0,0,0,0,0,-1,1147,1275,0,0
-70,-251,0,0,0,0,0,0,0,0,0,-1,1154,1275,0,0
-63,-251,0,0,0,0,0,0,0,0,0,-1,1161,1275,0,0
-56,-251,0,0,0,0,0,0,0,0,0,-1,1168,1275,0,0
-49,-251,0,0,0,0,0,0,0,0,0,-1,1175,1275,0,0
-42,-251,0,0,0,0,0,0,0,0,0,-1,1182,1275,0,0
-35,-251,0,0,0,0,0,0,0,0,0,-1,1189,1275,0,0
-28,-251,0,0,0,0,0,0,0,0,0,-1,1196,1275,0,0
-21,-251,0,0,0,0,0,0,0,0,0,-1,1203,1275,0,0
-14,-251,0,0,0,0,0,0,0,0,0,-1,1210,1275,0,0
-7,-251,0,0,0,0,0,0,0,0,0,-1,1217,1275,0,0
0,-251,0,0,0,0,0,0,0,0,0,-1,1224,1275,0,0
7,-251,0,0,0,0,0,0,0,0,0,-1,1231,1275,0,0
14,-251,0,0,0,0,0,0,0,0,0,-1,1238,1275,0,0
21,-251,0,0,0,0,0,0,0,0,0,-1,1245,1275,0,0
28,-251,0,0,0,0,0,0,0,0,0,-1,1252,1275,0,0
35,-251,0,0,0,0,0,0,0,0,0,-1,1259,1275,0,0
42,-251,0,0,0,0,0,0,0,0,0,-1,1266,1275,0,0
49,-251,0,0,0,0,0,0,0,0,0,-1,1273,1275,0,0
56,-251,0,0,0,0,0,0,0,0,0,-1,1280,1275,0,0
63,-251,0,0,0,0,0,0,0,0,0,-1,1287,1275,0,0
70,-251,0,0,0,0,0,0,0,0,0,-1,1294,1275,0,0
77,-251,0,0,0,0,0,0,0,0,0,-1,1301,1275,0,0
84,-251,0,0,0,0,0,0,0,0,0,-1,1308,1275,0,0
91,-251,0,0,0,0,0,0,0,0,0,-1,1315,1275,0,0
98,-251,0,0,0,0,0,0,0,0,0,-1,1322,1275,0,0
105,-251,0,0,0,0,0,0,0,0,0,-1,1329,1275,0,0
112,-251,0,0,0,0,0,0,0,0,0,-1,1336,1275,0,0
119,-251,0,0,0,0,0,0,0,0,0,-1,1343,1275,0,0
126,-251,0,0,0,0,0,0,0,0,0,-1,1350,1275,0,0
133,-251,0,0,0,0,0,0,0,0,0,-1,1357,1275,0,0
140,-251,0,0,0,0,0,0,0,0,0,-1,1364,1275,0,0
147,-251,0,0,0,0,0,0,0,0,0,-1,1371,1275,0,0
154,-251,0,0,0,0,0,0,0,0,0,-1,1378,1275,0,0
161,-251,0,0,0,0,0,0,0,0,0,-1,1385,1275,0,0
168,-251,0,0,0,0,0,0,0,0,0,-1,1392,1275,0,0
175,-251,0,0,0,0,0,0,0,0,0,-1,1399,1275,0,0
182,-251,0,0,0,0,0,0,0,0,0,-1,1406,1275,0,0
189,-251,0,0,0,0,0,0,0,0,0,-1,1413,1275,0,0
196,-251,0,0,0,0,0,0,0,0,0,-1,1420,1275,0,0
203,-251,0,0,0,0,0,0,0,0,0,-1,1427,1275,0,0
210,-251,0,0,0,0,0,0,0,0,0,-1,1434,1275,0,0
217,-251,0,0,0,0,0,0,0,0,0,-1,1441,1275,0,0
224,-251,0,0,0,0,0,0,0,0,0,-1,1448,1275,0,0
231,-251,0,0,0,0,0,0,0,0,0,-1,1455,1275,0,0
238,-251,0,0,0,0,0,0,0,0,0,-1,1462,1275,0,0
245,-251,0,0,0,0,0,0,0,0,0,-1,1469,1275,0,0
252,-251,0,0,0,0,0,0,0,0,0,-1,1476,1275,0,0
259,-251,0,0,0,0,0,0,0,0,0,-1,1483,1275,0,0
266,-251,0,0,0,0,0,0,0,0,0,-1,1490,1275,0,0
273,-251,0,0,0,0,0,0,0,0,0,-1,1497,1275,0,0
280,-251,0,0,0,0,0,0,0,0,0,-1,1504,1275,0,0
287,-251,0,0,0,0,0,0,0,0,0,-1,1511,1275,0,0
294,-251,0,0,0,0,0,0,0,0,0,-1,1518,1275,0,0
301,-251,0,0,0,0,0,0,0,0,0,-1,1525,1275,0,0
308,-251,0,0,0,0,0,0,0,0,0,-1,1532,1275,0,0
315,-251,0,0,0,0,0,0,0,0,0,-1,1539,1275,0,0
322,-251,0,0,0,0,0,0,0,0,0,-1,1546,1275,0,0
329,-251,0,0,0,0,0,0,0,0,0,-1,1553,1275,0,0
336,-251,0,0,0,0,0,0,0,0,0,-1,1560,1275,0,0
343,-251,0,0,0,0,0,0,0,0,0,-1,1567,1275,0,0
350,-251,0,0,0,0,0,0,0,0,0,-1,1574,1275,0,0
357,-251,0,0,0,0,0,0,0,0,0,-1,1581,1275,0,0
364,-251,0,0,0,0,0,0,0,0,0,-1,1588,1275,0,0
371,-251,0,0,0,0,0,0,0,0,0,-1,1595,1275,0,0
378,-251,0,0,0,0,0,0,0,0,0,-1,1602,1275,0,0
385,-251,0,0,0,0,0,0,0,0,0,-1,1609,1275,0,0
392,-251,0,0,0,0,0,0,0,0,0,-1,1616,1275,0,0
399,-251,0,0,0,0,0,0,0,0,0,-1,1623,1275,0,0
406,-251,0,0,0,0,0,0,0,0,0,-1,1630,1275,0,0
413,-251,0,0,0,0,0,0,0,0,0,-1,1637,1275,0,0
420,-251,0,0,0,0,0,0,0,0,0,-1,1644,1275,0,0
427,-251,0,0,0,0,0,0,0,0,0,-1,1651,1275,0,0
434,-251,0,0,0,0,0,0,0,0,0,-1,1658,1275,0,0
441,-251,0,0,0,0,0,0,0,0,0,-1,1665,1275,0,0
448,-251,0,0,0,0,0,0,0,0,0,-1,1672,1275,0,0
455,-251,0,0,0,0,0,0,0,0,0,-1,1679,1275,0,0
462,-251,0,0,0,0,0,0,0,0,0,-1,1686,1275,0,0
469,-251,0,0,0,0,0,0,0,0,0,-1,1693,1275,0,0
476,-251,0,0,0,0,0,0,0,0,0,-1,1700,1275,0,0
483,-251,0,0,0,0,0,0,0,0,0,-1,1707,1275,0,0
490,-251,0,0,0,0,0,0,0,0,0,-1,1714,1275,0,0
497,-251,0,0,0,0,0,0,0,0,0,-1,1721,1275,0,0
504,-251,0,0,0,0,0,0,0,0,0,-1,1728,1275,0,0
511,-251,0,0,0,0,0,0,0,0,0,-1,1735,1275,0,0
518,-251,0,0,0,0,0,0,0,0,0,-1,1742,1275,0,0
525,-251,0,0,0,0,0,0,0,0,0,-1,1749,1275,0,0
532,-251,0,0,0,0,0,0,0,0,0,-1,1756,1275,0,0
539,-251,0,0,0,0,0,0,0,0,0,-1,1763,1275,0,0
546,-251,0,0,0,0,0,0,0,0,0,-1,1770,1275,0,0
553,-251,0,0,0,0,0,0,0,0,0,-1,1777,1275,0,0
560,-251,0,0,0,0,0,0,0,0,0,-1,1784,1275,0,0
567,-251,0,0,0,0,0,0,0,0,0,-1,1791,1275,0,0
574,-251,0,0,0,0,0,0,0,0,0,-1,1798,1275,0,0
581,-251,0,0,0,0,0,0,0,0,0,-1,1805,1275,0,0
588,-251,0,0,0,0,0,0,0,0,0,-1,1812,1275,0,0
595,-251,0,0,0,0,0,0,0,0,0,-1,1819,1275,0,0
602,-251,0,0,0,0,0,0,0,0,0,-1,1826,1275,0,0
609,-251,24.6024,2.69507,0.0123177,0.0030363,-0.00129091,0.0124939,0.0028601,-0.135656,0.0075585,0.0316335,1833,1275,24.6024,-2.69511
616,-251,24.5627,2.68677,0.00607425,0.000334669,-0.00136483,0.00638227,2.6651e-05,-0.221963,0.00424599,0.0287016,1840,1275,24.5627,-2.68677
623,-251,24.6145,2.77393,3.72772e-06,-0.00211527,-0.00134519,0.000656555,-0.0027681,-0.451824,0.00209877,0.0256778,1847,1275,24.6145,-2.77398
630,-251,24.6306,2.77466,-0.00455405,-0.0034467,-0.00120828,-0.00267128,-0.00532947,-1.00024,0.00307697,0.0386839,1854,1275,24.6306,-2.77467
637,-251,24.686,2.84485,-0.00678842,-0.003658,-0.000838095,-0.00344774,-0.00699868,-1.32499,0.00404084,0.0429893,1861,1275,24.686,-2.84481
644,-251,24.2649,2.58606,-0.00739566,-0.00343711,-0.000574196,-0.0033555,-0.00747727,-1.42962,0.00432455,0.0430655,1868,1275,24.2649,-2.58609
651,-251,23.8931,2.30261,-0.00716721,-0.00306449,-0.000356456,-0.00303375,-0.00719795,-1.48477,0.00417279,0.0441519,1875,1275,23.8931,-2.30258
658,-251,23.5806,2.01819,0,0,0,0,0,0,0,-1,1882,1275,23.5806,-2.01817
665,-251,22.7694,1.93909,0,0,0,0,0,0,0,-1,1889,1275,22.7694,-1.93906
672,-251,22.2653,1.81604,0,0,0,0,0,0,0,-1,1896,1275,22.2653,-1.81599
679,-251,19.8096,6.20618,0,0,0,0,0,0,0,-1,1903,1275,19.8095,-6.20617
686,-251,19.8654,6.07874,-0.00431302,-0.00127037,0.000331581,-0.00123465,-0.00434874,1.4635,0.00258772,0.0309874,1910,1275,19.8653,-6.07879
693,-251,19.9047,5.87695,-0.0029616,-0.000629,0.000543281,-0.000508673,-0.00308193,1.35283,0.0019078,0.00985054,1917,1275,19.9047,-5.87697
700,-251,19.8917,5.65259,-0.00118048,-0.000532049,0.00062552,-0.000151713,-0.00156081,1.02449,0.000993837,0.0082799,1924,1275,19.8917,-5.65254
707,-251,19.8989,5.45459,-0.000560233,-0.000353836,0.000589581,0.00014151,-0.00105558,0.872039,0.000755322,0.0113567,1931,1275,19.8989,-5.45453
714,-251,19.9103,5.24719,-0.00046353,-0.000247435,0.000777231,0.000429223,-0.00114019,0.854464,0.000936579,0.0115254,1938,1275,19.9102,-5.24715
721,-251,19.8627,5.03235,-0.000662617,-0.000906448,0.00153765,0.000757947,-0.00232701,0.745838,0.00185631,0.010709,1945,1275,19.8627,-5.03239
728,-251,19.8679,4.82104,-0.00127133,-0.00309909,0.00317294,0.00111672,-0.00548714,0.645181,0.00408158,0.0122305,1952,1275,19.868,-4.82103
735,-251,19.8911,4.60779,-0.00199558,-0.00521669,0.00517195,0.00181078,-0.00902305,0.634456,0.00670101,0.0134831,1959,1275,19.8911,-4.6078
742,-251,19.9248,4.41931,-0.00249086,-0.00831386,0.00774499,0.0028718,-0.0136765,0.60561,0.0102105,0.0145277,1966,1275,19.9248,-4.41932
749,-251,19.8917,4.22913,-0.00349766,-0.0127918,0.011366,0.00413455,-0.020424,0.591338,0.015183,0.0234189,1973,1275,19.8917,-4.22918
756,-251,19.7832,4.271,-0.00463984,-0.0189635,0.0161808,0.00589322,-0.0294966,0.577051,0.0218948,0.0385719,1980,1275,19.7832,-4.27099
763,-251,19.7172,4.80713,-0.00586386,-0.0270068,0.0223295,0.0082702,-0.0411409,0.564315,0.0305593,0.044494,1987,1275,19.7171,-4.80713
770,-251,19.8103,5.19958,-0.00713169,-0.0369536,0.0299037,0.0113724,-0.0554577,0.554121,0.041288,0.0444191,1994,1275,19.8104,-5.1996
777,-251,19.6548,5.68652,-0.00834118,-0.0486269,0.0388643,0.01529,-0.0722581,0.546313,0.0539953,0.0474053,2001,1275,19.6547,-5.68657
784,-251,19.3999,6.2146,-0.00913219,-0.061545,0.0490015,0.0202305,-0.0909076,0.539846,0.0683539,0.0462206,2008,1275,19.3999,-6.21465
791,-251,0,0,0,0,0,0,0,0,0,-1,2015,1275,0,0
798,-251,0,0,0,0,0,0,0,0,0,-1,2022,1275,0,0
805,-251,0,0,0,0,0,0,0,0,0,-1,2029,1275,0,0
812,-251,0,0,0,0,0,0,0,0,0,-1,2036,1275,0,0
-700,-258,0,0,0,0,0,0,0,0,0,-1,524,1282,0,0
-693,-258,0,0,0,0,0,0,0,0,0,-1,531,1282,0,0
-686,-258,0,0,0,0,0,0,0,0,0,-1,538,1282,0,0
-679,-258,0,0,0,0,0,0,0,0,0,-1,545,1282,0,0
-672,-258,0,0,0,0,0,0,0,0,0,-1,552,1282,0,0
-665,-258,-12.2534,0.151611,0,0,0,0,0,0,0,-1,559,1282,-12.2533,-0.151659
-658,-258,-11.4107,0.401489,0,0,0,0,0,0,0,-1,566,1282,-11.4107,-0.401544
-651,-258,-11.1243,-0.0887451,0,0,0,0,0,0,0,-1,573,1282,-11.1243,0.0887461
-644,-258,-9.53851,-0.741577,0,0,0,0,0,0,0,-1,580,1282,-9.53852,0.741542
-637,-258,-9.52057,-0.019043,0.0124249,0.0676527,0.00486697,0.0680784,0.0119992,1.48357,0.0419617,0.0445916,587,1282,-9.52057,0.0190871
-630,-258,-9.72577,0.645142,0.00538687,0.0528765,0.00799994,0.0541879,0.00407544,1.40831,0.0348463,0.0456765,594,1282,-9.72576,-0.645171
-623,-258,-11.7024,1.8905,0.0012408,0.0405845,0.0090232,0.0425552,-0.000729894,1.35577,0.0286165,0.0467629,601,1282,-11.7024,-1.89055
-616,-258,-11.1036,1.76257,-0.000882246,0.0304673,0.00871006,0.0327248,-0.00313967,1.3172,0.0229348,0.0327984,608,1282,-11.1036,-1.76257
-609,-258,-11.1006,2.05005,-0.00150675,0.0222682,0.00769574,0.0245419,-0.00378036,1.28353,0.017756,0.0175225,615,1282,-11.1006,-2.05004
-602,-258,-11.1158,2.30261,-0.0013404,0.0154172,0.00641451,0.0175906,-0.00351387,1.2441,0.013057,0.0143087,622,1282,-11.1158,-2.30259
-595,-258,-11.1215,2.52856,-0.00110405,0.00985507,0.00535592,0.0120378,-0.00328683,1.1838,0.00931616,0.0113589,629,1282,-11.1215,-2.52861
-588,-258,-11.1086,2.76038,4.76483e-06,0.00565176,0.0039888,0.00771525,-0.00205872,1.09339,0.00594968,0.0121399,636,1282,-11.1086,-2.76035
-581,-258,-11.1301,3.00061,0.00166078,0.00262441,0.00236845,0.00455956,-0.000274364,0.885744,0.00313516,0.0149243,643,1282,-11.13,-3.00065
-574,-258,-11.1273,3.25317,0.00316354,0.000558309,0.00112577,0.0035826,0.000139249,0.356351,0.00234336,0.0154798,650,1282,-11.1273,-3.25311
-567,-258,-11.1401,3.53674,0.00390241,-0.000807379,0.000407359,0.00393739,-0.000842352,0.0856444,0.00294613,0.0138739,657,1282,-11.1402,-3.53673
-560,-258,-11.1326,3.79553,0.00287532,-0.000637323,-0.000178218,0.00288434,-0.000646343,-0.0505631,0.00217066,0.0229359,664,1282,-11.1325,-3.79548
-553,-258,-11.0519,3.95459,0.000273857,0.00182826,-0.00109415,0.00239315,-0.000291035,-1.09421,0.00170077,0.0363448,671,1282,-11.0519,-3.95455
-546,-258,-11.2717,4.42822,0,0,0,0,0,0,0,-1,678,1282,-11.2717,-4.42826
-539,-258,-10.2228,4.05823,0,0,0,0,0,0,0,-1,685,1282,-10.2228,-4.05823
-532,-258,-10.2173,-0.353882,0,0,0,0,0,0,0,-1,692,1282,-10.2173,0.353836
-525,-258,-15.8561,1.55481,0,0,0,0,0,0,0,-1,699,1282,-15.8561,-1.55484
-518,-258,-13.8783,-0.977905,0,0,0,0,0,0,0,-1,706,1282,-13.8783,0.977949
-511,-258,-14.4391,-0.693726,-0.0339259,0.0284938,-0.00740098,0.0293594,-0.0347914,-1.45438,0.0370817,0.0470773,713,1282,-14.4391,0.693675
-504,-258,-15.0515,-0.403198,-0.0437558,0.039369,-0.0077274,0.0400812,-0.0444681,-1.47888,0.0488365,0.0481822,720,1282,-15.0515,0.403215
-497,-258,-15.9686,0.183716,0,0,0,0,0,0,0,-1,727,1282,-15.9686,-0.183713
-490,-258,-15.4346,0.632935,0,0,0,0,0,0,0,-1,734,1282,-15.4346,-0.632917
-483,-258,0,0,0,0,0,0,0,0,0,-1,741,1282,0,0
-476,-258,0,0,0,0,0,0,0,0,0,-1,748,1282,0,0
-469,-258,0,0,0,0,0,0,0,0,0,-1,755,1282,0,0
-462,-258,0,0,0,0,0,0,0,0,0,-1,762,1282,0,0
-455,-258,0,0,0,0,0,0,0,0,0,-1,769,1282,0,0
-448,-258,0,0,0,0,0,0,0,0,0,-1,776,1282,0,0
-441,-258,0,0,0,0,0,0,0,0,0,-1,783,1282,0,0
-434,-258,0,0,0,0,0,0,0,0,0,-1,790,1282,0,0
-427,-258,0,0,0,0,0,0,0,0,0,-1,797,1282,0,0
-420,-258,0,0,0,0,0,0,0,0,0,-1,804,1282,0,0
-413,-258,0,0,0,0,0,0,0,0,0,-1,811,1282,0,0
-406,-258,0,0,0,0,0,0,0,0,0,-1,818,1282,0,0
-399,-258,0,0,0,0,0,0,0,0,0,-1,825,1282,0,0
-392,-258,0,0,0,0,0,0,0,0,0,-1,832,1282,0,0
-385,-258,0,0,0,0,0,0,0,0,0,-1,839,1282,0,0
-378,-258,0,0,0,0,0,0,0,0,0,-1,846,1282,0,0
-371,-258,0,0,0,0,0,0,0,0,0,-1,853,1282,0,0
-364,-258,0,0,0,0,0,0,0,0,0,-1,860,1282,0,0
-357,-258,0,0,0,0,0,0,0,0,0,-1,867,1282,0,0
-350,-258,0,0,0,0,0,0,0,0,0,-1,874,1282,0,0
-343,-258,0,0,0,0,0,0,0,0,0,-1,881,1282,0,0
-336,-258,0,0,0,0,0,0,0,0,0,-1,888,1282,0,0
-329,-258,0,0,0,0,0,0,0,0,0,-1,895,1282,0,0
-322,-258,0,0,0,0,0,0,0,0,0,-1,902,1282,0,0
-315,-258,0,0,0,0,0,0,0,0,0,-1,909,1282,0,0
-308,-258,0,0,0,0,0,0,0,0,0,-1,916,1282,0,0
-301,-258,0,0,0,0,0,0,0,0,0,-1,923,1282,0,0
-294,-258,0,0,0,0,0,0,0,0,0,-1,930,1282,0,0
-287,-258,0,0,0,0,0,0,0,0,0,-1,937,1282,0,0
-280,-258,0,0,0,0,0,0,0,0,0,-1,944,1282,0,0
-273,-258,0,0,0,0,0,0,0,0,0,-1,951,1282,0,0
-266,-258,0,0,0,0,0,0,0,0,0,-1,958,1282,0,0
-259,-258,0,0,0,0,0,0,0,0,0,-1,965,1282,0,0
-252,-258,0,0,0,0,0,0,0,0,0,-1,972,1282,0,0
-245,-258,0,0,0,0,0,0,0,0,0,-1,979,1282,0,0
-238,-258,0,0,0,0,0,0,0,0,0,-1,986,1282,0,0
-231,-258,0,0,0,0,0,0,0,0,0,-1,993,1282,0,0
-224,-258,0,0,0,0,0,0,0,0,0,-1,1000,1282,0,0
-217,-258,0,0,0,0,0,0,0,0,0,-1,1007,1282,0,0
-210,-258,0,0,0,0,0,0,0,0,0,-1,1014,1282,0,0
-203,-258,0,0,0,0,0,0,0,0,0,-1,1021,1282,0,0
-196,-258,0,0,0,0,0,0,0,0,0,-1,1028,1282,0,0
-189,-258,0,0,0,0,0,0,0,0,0,-1,1035,1282,0,0
-182,-258,0,0,0,0,0,0,0,0,0,-1,1042,1282,0,0
-175,-258,0,0,0,0,0,0,0,0,0,-1,1049,1282,0,0
-168,-258,0,0,0,0,0,0,0,0,0,-1,1056,1282,0,0
-161,-258,0,0,0,0,0,0,0,0,0,-1,1063,1282,0,0
-154,-258,0,0,0,0,0,0,0,0,0,-1,1070,1282,0,0
-147,-258,0,0,0,0,0,0,0,0,0,-1,1077,1282,0,0
-140,-258,0,0,0,0,0,0,0,0,0,-1,1084,1282,0,0
-133,-258,0,0,0,0,0,0,0,0,0,-1,1091,1282,0,0
-126,-258,0,0,0,0,0,0,0,0,0,-1,1098,1282,0,0
-119,-258,0,0,0,0,0,0,0,0,0,-1,1105,1282,0,0
-112,-258,0,0,0,0,0,0,0,0,0,-1,1112,1282,0,0
-105,-258,0,0,0,0,0,0,0,0,0,-1,1119,1282,0,0
-98,-258,0,0,0,0,0,0,0,0,0,-1,1126,1282,0,0
-91,-258,0,0,0,0,0,0,0,0,0,-1,1133,1282,0,0
-84,-258,0,0,0,0,0,0,0,0,0,-1,1140,1282,0,0
-77,-258,0,0,0,0,0,0,0,0,0,-1,1147,1282,0,0
-70,-258,0,0,0,0,0,0,0,0,0,-1,1154,1282,0,0
-63,-258,0,0,0,0,0,0,0,0,0,-1,1161,1282,0,0
-56,-258,0,0,0,0,0,0,0,0,0,-1,1168,1282,0,0
-49,-258,0,0,0,0,0,0,0,0,0,-1,1175,1282,0,0
-42,-258,0,0,0,0,0,0,0,0,0,-1,1182,1282,0,0
-35,-258,0,0,0,0,0,0,0,0,0,-1,1189,1282,0,0
-28,-258,0,0,0,0,0,0,0,0,0,-1,1196,1282,0,0
-21,-258,0,0,0,0,0,0,0,0,0,-1,1203,1282,0,0
-14,-258,0,0,0,0,0,0,0,0,0,-1,1210,1282,0,0
-7,-258,0,0,0,0,0,0,0,0,0,-1,1217,1282,0,0
0,-258,0,0,0,0,0,0,0,0,0,-1,1224,1282,0,0
7,-258,0,0,0,0,0,0,0,0,0,-1,1231,1282,0,0
14,-258,0,0,0,0,0,0,0,0,0,-1,1238,1282,0,0
21,-258,0,0,0,0,0,0,0,0,0,-1,1245,1282,0,0
28,-258,0,0,0,0,0,0,0,0,0,-1,1252,1282,0,0
35,-258,0,0,0,0,0,0,0,0,0,-1,1259,1282,0,0
42,-258,0,0,0,0,0,0,0,0,0,-1,1266,1282,0,0
49,-258,0,0,0,0,0,0,0,0,0,-1,1273,1282,0,0
56,-258,0,0,0,0,0,0,0,0,0,-1,1280,1282,0,0
63,-258,0,0,0,0,0,0,0,0,0,-1,1287,1282,0,0
70,-258,0,0,0,0,0,0,0,0,0,-1,1294,1282,0,0
77,-258,0,0,0,0,0,0,0,0,0,-1,1301,1282,0,0
84,-258,0,0,0,0,0,0,0,0,0,-1,1308,1282,0,0
91,-258,0,0,0,0,0,0,0,0,0,-1,1315,1282,0,0
98,-258,0,0,0,0,0,0,0,0,0,-1,1322,1282,0,0
105,-258,0,0,0,0,0,0,0,0,0,-1,1329,1282,0,0
112,-258,0,0,0,0,0,0,0,0,0,-1,1336,1282,0,0
119,-258,0,0,0,0,0,0,0,0,0,-1,1343,1282,0,0
126,-258,0,0,0,0,0,0,0,0,0,-1,1350,1282,0,0
133,-258,0,0,0,0,0,0,0,0,0,-1,1357,1282,0,0
140,-258,0,0,0,0,0,0,0,0,0,-1,1364,1282,0,0
147,-258,0,0,0,0,0,0,0,0,0,-1,1371,1282,0,0
154,-258,0,0,0,0,0,0,0,0,0,-1,1378,1282,0,0
161,-258,0,0,0,0,0,0,0,0,0,-1,1385,1282,0,0
168,-258,0,0,0,0,0,0,0,0,0,-1,1392,1282,0,0
175,-258,0,0,0,0,0,0,0,0,0,-1,1399,1282,0,0
182,-258,0,0,0,0,0,0,0,0,0,-1,1406,1282,0,0
189,-258,0,0,0,0,0,0,0,0,0,-1,1413,1282,0,0
196,-258,0,0,0,0,0,0,0,0,0,-1,1420,1282,0,0
203,-258,0,0,0,0,0,0,0,0,0,-1,1427,1282,0,0
210,-258,0,0,0,0,0,0,0,0,0,-1,1434,1282,0,0
217,-258,0,0,0,0,0,0,0,0,0,-1,1441,1282,0,0
224,-258,0,0,0,0,0,0,0,0,0,-1,1448,1282,0,0
231,-258,0,0,0,0,0,0,0,0,0,-1,1455,1282,0,0
238,-258,0,0,0,0,0,0,0,0,0,-1,1462,1282,0,0
245,-258,0,0,0,0,0,0,0,0,0,-1,1469,1282,0,0
252,-258,0,0,0,0,0,0,0,0,0,-1,1476,1282,0,0
259,-258,0,0,0,0,0,0,0,0,0,-1,1483,1282,0,0
266,-258,0,0,0,0,0,0,0,0,0,-1,1490,1282,0,0
273,-258,0,0,0,0,0,0,0,0,0,-1,1497,1282,0,0
280,-258,0,0,0,0,0,0,0,0,0,-1,1504,1282,0,0
287,-258,0,0,0,0,0,0,0,0,0,-1,1511,1282,0,0
294,-258,0,0,0,0,0,0,0,0,0,-1,1518,1282,0,0
301,-258,0,0,0,0,0,0,0,0,0,-1,1525,1282,0,0
308,-258,0,0,0,0,0,0,0,0,0,-1,1532,1282,0,0
315,-258,0,0,0,0,0,0,0,0,0,-1,1539,1282,0,0
322,-258,0,0,0,0,0,0,0,0,0,-1,1546,1282,0,0
329,-258,0,0,0,0,0,0,0,0,0,-1,1553,1282,0,0
336,-258,0,0,0,0,0,0,0,0,0,-1,1560,1282,0,0
343,-258,0,0,0,0,0,0,0,0,0,-1,1567,1282,0,0
350,-258,0,0,0,0,0,0,0,0,0,-1,1574,1282,0,0
357,-258,0,0,0,0,0,0,0,0,0,-1,1581,1282,0,0
364,-258,0,0,0,0,0,0,0,0,0,-1,1588,1282,0,0
371,-258,0,0,0,0,0,0,0,0,0,-1,1595,1282,0,0
378,-258,0,0,0,0,0,0,0,0,0,-1,1602,1282,0,0
385,-258,0,0,0,0,0,0,0,0,0,-1,1609,1282,0,0
392,-258,0,0,0,0,0,0,0,0,0,-1,1616,1282,0,0
399,-258,0,0,0,0,0,0,0,0,0,-1,1623,1282,0,0
406,-258,0,0,0,0,0,0,0,0,0,-1,1630,1282,0,0
413,-258,0,0,0,0,0,0,0,0,0,-1,1637,1282,0,0
420,-258,0,0,0,0,0,0,0,0,0,-1,1644,1282,0,0
427,-258,0,0,0,0,0,0,0,0,0,-1,1651,1282,0,0
434,-258,0,0,0,0,0,0,0,0,0,-1,1658,1282,0,0
441,-258,0,0,0,0,0,0,0,0,0,-1,1665,1282,0,0
448,-258,0,0,0,0,0,0,0,0,0,-1,1672,1282,0,0
455,-258,0,0,0,0,0,0,0,0,0,-1,1679,1282,0,0
462,-258,0,0,0,0,0,0,0,0,0,-1,1686,1282,0,0
469,-258,0,0,0,0,0,0,0,0,0,-1,1693,1282,0,0
476,-258,0,0,0,0,0,0,0,0,0,-1,1700,1282,0,0
483,-258,0,0,0,0,0,0,0,0,0,-1,1707,1282,0,0
490,-258,0,0,0,0,0,0,0,0,0,-1,1714,1282,0,0
497,-258,0,0,0,0,0,0,0,0,0,-1,1721,1282,0,0
504,-258,0,0,0,0,0,0,0,0,0,-1,1728,1282,0,0
511,-258,0,0,0,0,0,0,0,0,0,-1,1735,1282,0,0
518,-258,0,0,0,0,0,0,0,0,0,-1,1742,1282,0,0
525,-258,0,0,0,0,0,0,0,0,0,-1,1749,1282,0,0
532,-258,0,0,0,0,0,0,0,0,0,-1,1756,1282,0,0
539,-258,0,0,0,0,0,0,0,0,0,-1,1763,1282,0,0
546,-258,0,0,0,0,0,0,0,0,0,-1,1770,1282,0,0
553,-258,0,0,0,0,0,0,0,0,0,-1,1777,1282,0,0
560,-258,0,0,0,0,0,0,0,0,0,-1,1784,1282,0,0
567,-258,0,0,0,0,0,0,0,0,0,-1,1791,1282,0,0
574,-258,0,0,0,0,0,0,0,0,0,-1,1798,1282,0,0
581,-258,0,0,0,0,0,0,0,0,0,-1,1805,1282,0,0
588,-258,0,0,0,0,0,0,0,0,0,-1,1812,1282,0,0
595,-258,0,0,0,0,0,0,0,0,0,-1,1819,1282,0,0
602,-258,0,0,0,0,0,0,0,0,0,-1,1826,1282,0,0
609,-258,24.6738,2.80737,0.012279,-0.001646,-0.00341537,0.0130716,-0.00243857,-0.228025,0.00963069,0.0254836,1833,1282,24.6738,-2.80734
616,-258,24.6396,2.80066,0.00526071,-0.00426672,-0.0030773,0.00616821,-0.00517423,-0.286774,0.00655694,0.0243968,1840,1282,24.6397,-2.80066
623,-258,24.6461,2.82568,-0.00121171,-0.00594404,-0.00247199,-0.000155965,-0.00699979,-0.403635,0.00461542,0.0349227,1847,1282,24.6461,-2.82571
630,-258,24.842,2.91138,-0.00554948,-0.00618981,-0.0018171,-0.00402456,-0.00771473,-0.698196,0.0044555,0.044664,1854,1282,24.842,-2.91137
637,-258,24.7528,2.91016,-0.00757489,-0.0056077,-0.00114564,-0.00508134,-0.00810124,-1.14012,0.00472746,0.0445462,1861,1282,24.7528,-2.91015
644,-258,24.7046,3.30481,-0.00813602,-0.00487301,-0.000716707,-0.00472253,-0.0082865,-1.36384,0.00479977,0.0443186,1868,1282,24.7046,-3.30484
651,-258,24.4565,3.63562,0,0,0,0,0,0,0,-1,1875,1282,24.4566,-3.63565
658,-258,22.5057,2.87573,0,0,0,0,0,0,0,-1,1882,1282,22.5057,-2.87571
665,-258,22.1644,2.54761,0,0,0,0,0,0,0,-1,1889,1282,22.1644,-2.54762
672,-258,19.9105,6.33252,0,0,0,0,0,0,0,-1,1896,1282,19.9105,-6.3325
679,-258,19.6245,6.34229,-0.00624247,-0.00227289,0.000413946,-0.00223018,-0.00628517,1.46799,0.00367937,0.0490913,1903,1282,19.6246,-6.34226
686,-258,19.6332,6.15771,-0.00509178,-0.00132069,0.000540557,-0.00124474,-0.00516773,1.4312,0.00311429,0.0305149,1910,1282,19.6331,-6.15767
693,-258,19.71,5.87732,-0.00354037,-0.000548244,0.000737488,-0.000376347,-0.00371227,1.3418,0.00235943,0.00990373,1917,1282,19.71,-5.87734
700,-258,19.6968,5.64709,-0.00154043,-0.00040773,0.0007547,-3.05106e-05,-0.00191765,1.10729,0.00126839,0.00827724,1924,1282,19.6968,-5.64712
707,-258,19.7045,5.4491,-0.000808868,-0.000186132,0.000643819,0.000217659,-0.00121266,1.01063,0.00088991,0.0105939,1931,1282,19.7044,-5.44914
714,-258,19.7034,5.24121,-0.000579819,-3.99828e-05,0.000742201,0.000479857,-0.00109966,0.9598,0.000935044,0.0107788,1938,1282,19.7034,-5.2412
721,-258,19.6875,5.01648,-0.000711142,-0.00065318,0.0014193,0.000737433,-0.00210176,0.795606,0.00170112,0.0108438,1945,1282,19.6876,-5.01645
728,-258,19.6697,4.81934,-0.00129258,-0.00275712,0.00298587,0.0010495,-0.0050992,0.665149,0.00379795,0.0106632,1952,1282,19.6696,-4.81936
735,-258,19.6779,4.63,-0.00212411,-0.00486831,0.00495962,0.00164972,-0.00864213,0.650447,0.00638279,0.0143507,1959,1282,19.6779,-4.63001
742,-258,19.7013,4.42444,-0.00285202,-0.00800561,0.00755754,0.00255594,-0.0134136,0.6211,0.0099049,0.0168079,1966,1282,19.7012,-4.42439
749,-258,19.7284,4.26025,-0.00413379,-0.0126673,0.0112809,0.0036603,-0.0204614,0.604599,0.0150106,0.0298759,1973,1282,19.7284,-4.26027
756,-258,19.7557,4.427,-0.00570895,-0.0191746,0.0163028,0.0051966,-0.0300802,0.589573,0.0219913,0.0408964,1980,1282,19.7558,-4.42705
763,-258,19.6747,4.73792,-0.00762817,-0.0277955,0.0228045,0.00722257,-0.0426463,0.577233,0.031119,0.0459698,1987,1282,19.6747,-4.73793
770,-258,19.4672,5.01074,0,0,0,0,0,0,0,-1,1994,1282,19.4672,-5.01069
777,-258,19.6219,6.11499,-0.0128645,-0.0514683,0.0406288,0.0128144,-0.0771471,0.563642,0.0561921,0.0443362,2001,1282,19.6219,-6.11501
784,-258,19.5262,6.87292,-0.0161168,-0.065989,0.0517872,0.0164251,-0.098531,0.561025,0.0717914,0.0440399,2008,1282,19.5262,-6.87288
791,-258,0,0,0,0,0,0,0,0,0,-1,2015,1282,0,0
798,-258,0,0,0,0,0,0,0,0,0,-1,2022,1282,0,0
805,-258,0,0,0,0,0,0,0,0,0,-1,2029,1282,0,0
812,-258,0,0,0,0,0,0,0,0,0,-1,2036,1282,0,0
-700,-265,0,0,0,0,0,0,0,0,0,-1,524,1289,0,0
-693,-265,0,0,0,0,0,0,0,0,0,-1,531,1289,0,0
-686,-265,0,0,0,0,0,0,0,0,0,-1,538,1289,0,0
-679,-265,0,0,0,0,0,0,0,0,0,-1,545,1289,0,0
-672,-265,0,0,0,0,0,0,0,0,0,-1,552,1289,0,0
-665,-265,-11.958,0.136719,0,0,0,0,0,0,0,-1,559,1289,-11.958,-0.136669
-658,-265,-11.4376,0.552734,0,0,0,0,0,0,0,-1,566,1289,-11.4376,-0.552784
-651,-265,-10.3544,-1.00281,0,0,0,0,0,0,0,-1,573,1289,-10.3544,1.00281
-644,-265,-10.0416,-0.790527,0.0305114,0.0919176,-0.00373712,0.0921442,0.0302848,-1.51024,0.0542306,0.0482348,580,1289,-10.0416,0.790472
-637,-265,-9.75806,-0.319702,0.0175747,0.074223,0.00381374,0.0744786,0.0173191,1.50388,0.0450043,0.0429335,587,1289,-9.75806,0.319713
-630,-265,-9.91498,0.425781,0.00893854,0.0589772,0.00799576,0.0602238,0.00769194,1.41613,0.0378467,0.0450997,594,1289,-9.915,-0.425763
-623,-265,-10.3021,1.17969,0.00345565,0.0459396,0.00976043,0.0480747,0.00132055,1.35544,0.0316188,0.0430474,601,1289,-10.3021,-1.17974
-616,-265,-10.78,1.60742,0.000324333,0.0349489,0.00987103,0.0375653,-0.00229207,1.3117,0.0258414,0.0363612,608,1289,-10.78,-1.60738
-609,-265,-10.8764,2.04907,-0.00101276,0.0258806,0.0089905,0.0286093,-0.00374144,1.27613,0.0204345,0.0170463,615,1289,-10.8764,-2.04901
-602,-265,-10.876,2.28845,-0.00134729,0.0181994,0.00768,0.0208559,-0.00400377,1.23778,0.0154128,0.0147326,622,1289,-10.876,-2.28844
-595,-265,-10.8659,2.53198,-0.00164393,0.0119308,0.00662304,0.0146267,-0.00433987,1.18422,0.0114747,0.0118402,629,1289,-10.8659,-2.53194
-588,-265,-10.8693,2.77917,-0.000724082,0.00721696,0.00507845,0.00969281,-0.00319993,1.11718,0.00775189,0.0103152,636,1289,-10.8693,-2.7792
-581,-265,-10.8911,3.02466,0.00107392,0.00378206,0.00306869,0.00578215,-0.000926171,0.993176,0.00419769,0.0133202,643,1289,-10.891,-3.0247
-574,-265,-10.9036,3.3075,0.00277023,0.00135908,0.0014863,0.00370993,0.000419384,0.563789,0.00234602,0.0153442,650,1289,-10.9036,-3.30746
-567,-265,-10.9348,3.57874,0.00367381,-0.000311076,0.000559884,0.00375098,-0.000388247,0.13697,0.00263961,0.0201966,657,1289,-10.9348,-3.57874
-560,-265,-10.9406,3.82495,0.00285661,-0.000280077,-0.000110904,0.00286053,-0.000283993,-0.0352983,0.00200839,0.021012,664,1289,-10.9406,-3.82501
-553,-265,-10.8503,4.10583,0.000328965,0.002145,-0.00106947,0.00263993,-0.000165963,-1.13737,0.0018178,0.0266948,671,1289,-10.8504,-4.10579
-546,-265,-10.8467,4.39771,-0.00287489,0.00400567,-0.00183041,0.0044623,-0.00333152,-1.32632,0.00451552,0.0387681,678,1289,-10.8467,-4.39772
-539,-265,-10.6962,4.48962,0,0,0,0,0,0,0,-1,685,1289,-10.6962,-4.48965
-532,-265,-8.53998,3.41467,0,0,0,0,0,0,0,-1,692,1289,-8.53996,-3.41473
-525,-265,-12.1317,0.514648,0,0,0,0,0,0,0,-1,699,1289,-12.1317,-0.514634
-518,-265,-13.3636,-1.27075,0,0,0,0,0,0,0,-1,706,1289,-13.3636,1.27075
-511,-265,-13.5303,-0.970825,0,0,0,0,0,0,0,-1,713,1289,-13.5303,0.970851
-504,-265,-14.5399,-0.948364,0,0,0,0,0,0,0,-1,720,1289,-14.5398,0.948337
-497,-265,-14.4535,-0.0441895,0,0,0,0,0,0,0,-1,727,1289,-14.4535,0.0442016
-490,-265,-15.1696,0.492676,0,0,0,0,0,0,0,-1,734,1289,-15.1696,-0.492688
-483,-265,0,0,0,0,0,0,0,0,0,-1,741,1289,0,0
-476,-265,0,0,0,0,0,0,0,0,0,-1,748,1289,0,0
-469,-265,0,0,0,0,0,0,0,0,0,-1,755,1289,0,0
-462,-265,0,0,0,0,0,0,0,0,0,-1,762,1289,0,0
-455,-265,0,0,0,0,0,0,0,0,0,-1,769,1289,0,0
-448,-265,0,0,0,0,0,0,0,0,0,-1,776,1289,0,0
-441,-265,0,0,0,0,0,0,0,0,0,-1,783,1289,0,0
-434,-265,0,0,0,0,0,0,0,0,0,-1,790,1289,0,0
-427,-265,0,0,0,0,0,0,0,0,0,-1,797,1289,0,0
-420,-265,0,0,0,0,0,0,0,0,0,-1,804,1289,0,0
-413,-265,0,0,0,0,0,0,0,0,0,-1,811,1289,0,0
-406,-265,0,0,0,0,0,0,0,0,0,-1,818,1289,0,0
-399,-265,0,0,0,0,0,0,0,0,0,-1,825,1289,0,0
-392,-265,0,0,0,0,0,0,0,0,0,-1,832,1289,0,0
-385,-265,0,0,0,0,0,0,0,0,0,-1,839,1289,0,0
-378,-265,0,0,0,0,0,0,0,0,0,-1,846,1289,0,0
-371,-265,0,0,0,0,0,0,0,0,0,-1,853,1289,0,0
-364,-265,0,0,0,0,0,0,0,0,0,-1,860,1289,0,0
-357,-265,0,0,0,0,0,0,0,0,0,-1,867,1289,0,0
-350,-265,0,0,0,0,0,0,0,0,0,-1,874,1289,0,0
-343,-265,0,0,0,0,0,0,0,0,0,-1,881,1289,0,0
-336,-265,0,0,0,0,0,0,0,0,0,-1,888,1289,0,0
-329,-265,0,0,0,0,0,0,0,0,0,-1,895,1289,0,0
-322,-265,0,0,0,0,0,0,0,0,0,-1,902,1289,0,0
-315,-265,0,0,0,0,0,0,0,0,0,-1,909,1289,0,0
-308,-265,0,0,0,0,0,0,0,0,0,-1,916,1289,0,0
-301,-265,0,0,0,0,0,0,0,0,0,-1,923,1289,0,0
-294,-265,0,0,0,0,0,0,0,0,0,-1,930,1289,0,0
-287,-265,0,0,0,0,0,0,0,0,0,-1,937,1289,0,0
-280,-265,0,0,0,0,0,0,0,0,0,-1,944,1289,0,0
-273,-265,0,0,0,0,0,0,0,0,0,-1,951,1289,0,0
-266,-265,0,0,0,0,0,0,0,0,0,-1,958,1289,0,0
-259,-265,0,0,0,0,0,0,0,0,0,-1,965,1289,0,0
-252,-265,0,0,0,0,0,0,0,0,0,-1,972,1289,0,0
-245,-265,0,0,0,0,0,0,0,0,0,-1,979,1289,0,0
-238,-265,0,0,0,0,0,0,0,0,0,-1,986,1289,0,0
-231,-265,0,0,0,0,0,0,0,0,0,-1,993,1289,0,0
-224,-265,0,0,0,0,0,0,0,0,0,-1,1000,1289,0,0
-217,-265,0,0,0,0,0,0,0,0,0,-1,1007,1289,0,0
-210,-265,0,0,0,0,0,0,0,0,0,-1,1014,1289,0,0
-203,-265,0,0,0,0,0,0,0,0,0,-1,1021,1289,0,0
-196,-265,0,0,0,0,0,0,0,0,0,-1,1028,1289,0,0
-189,-265,0,0,0,0,0,0,0,0,0,-1,1035,1289,0,0
-182,-265,0,0,0,0,0,0,0,0,0,-1,1042,1289,0,0
-175,-265,0,0,0,0,0,0,0,0,0,-1,1049,1289,0,0
-168,-265,0,0,0,0,0,0,0,0,0,-1,1056,1289,0,0
-161,-265,0,0,0,0,0,0,0,0,0,-1,1063,1289,0,0
-154,-265,0,0,0,0,0,0,0,0,0,-1,1070,1289,0,0
-147,-265,0,0,0,0,0,0,0,0,0,-1,1077,1289,0,0
-140,-265,0,0,0,0,0,0,0,0,0,-1,1084,1289,0,0
-133,-265,0,0,0,0,0,0,0,0,0,-1,1091,1289,0,0
-126,-265,0,0,0,0,0,0,0,0,0,-1,1098,1289,0,0
-119,-265,0,0,0,0,0,0,0,0,0,-1,1105,1289,0,0
-112,-265,0,0,0,0,0,0,0,0,0,-1,1112,1289,0,0
-105,-265,0,0,0,0,0,0,0,0,0,-1,1119,1289,0,0
-98,-265,0,0,0,0,0,0,0,0,0,-1,1126,1289,0,0
-91,-265,0,0,0,0,0,0,0,0,0,-1,1133,1289,0,0
-84,-265,0,0,0,0,0,0,0,0,0,-1,1140,1289,0,0
-77,-265,0,0,0,0,0,0,0,0,0,-1,1147,1289,0,0
-70,-265,0,0,0,0,0,0,0,0,0,-1,1154,1289,0,0
-63,-265,0,0,0,0,0,0,0,0,0,-1,1161,1289,0,0
-56,-265,0,0,0,0,0,0,0,0,0,-1,1168,1289,0,0
-49,-265,0,0,0,0,0,0,0,0,0,-1,1175,1289,0,0
-42,-265,0,0,0,0,0,0,0,0,0,-1,1182,1289,0,0
-35,-265,0,0,0,0,0,0,0,0,0,-1,1189,1289,0,0
-28,-265,0,0,0,0,0,0,0,0,0,-1,1196,1289,0,0
-21,-265,0,0,0,0,0,0,0,0,0,-1,1203,1289,0,0
-14,-265,0,0,0,0,0,0,0,0,0,-1,1210,1289,0,0
-7,-265,0,0,0,0,0,0,0,0,0,-1,1217,1289,0,0
0,-265,0,0,0,0,0,0,0,0,0,-1,1224,1289,0,0
7,-265,0,0,0,0,0,0,0,0,0,-1,1231,1289,0,0
14,-265,0,0,0,0,0,0,0,0,0,-1,1238,1289,0,0
21,-265,0,0,0,0,0,0,0,0,0,-1,1245,1289,0,0
28,-265,0,0,0,0,0,0,0,0,0,-1,1252,1289,0,0
35,-265,0,0,0,0,0,0,0,0,0,-1,1259,1289,0,0
42,-265,0,0,0,0,0,0,0,0,0,-1,1266,1289,0,0
49,-265,0,0,0,0,0,0,0,0,0,-1,1273,1289,0,0
56,-265,0,0,0,0,0,0,0,0,0,-1,1280,1289,0,0
63,-265,0,0,0,0,0,0,0,0,0,-1,1287,1289,0,0
70,-265,0,0,0,0,0,0,0,0,0,-1,1294,1289,0,0
77,-265,0,0,0,0,0,0,0,0,0,-1,1301,1289,0,0
84,-265,0,0,0,0,0,0,0,0,0,-1,1308,1289,0,0
91,-265,0,0,0,0,0,0,0,0,0,-1,1315,1289,0,0
98,-265,0,0,0,0,0,0,0,0,0,-1,1322,1289,0,0
105,-265,0,0,0,0,0,0,0,0,0,-1,1329,1289,0,0
112,-265,0,0,0,0,0,0,0,0,0,-1,1336,1289,0,0
119,-265,0,0,0,0,0,0,0,0,0,-1,1343,1289,0,0
126,-265,0,0,0,0,0,0,0,0,0,-1,1350,1289,0,0
133,-265,0,0,0,0,0,0,0,0,0,-1,1357,1289,0,0
140,-265,0,0,0,0,0,0,0,0,0,-1,1364,1289,0,0
147,-265,0,0,0,0,0,0,0,0,0,-1,1371,1289,0,0
154,-265,0,0,0,0,0,0,0,0,0,-1,1378,1289,0,0
161,-265,0,0,0,0,0,0,0,0,0,-1,1385,1289,0,0
168,-265,0,0,0,0,0,0,0,0,0,-1,1392,1289,0,0
175,-265,0,0,0,0,0,0,0,0,0,-1,1399,1289,0,0
182,-265,0,0,0,0,0,0,0,0,0,-1,1406,1289,0,0
189,-265,0,0,0,0,0,0,0,0,0,-1,1413,1289,0,0
196,-265,0,0,0,0,0,0,0,0,0,-1,1420,1289,0,0
203,-265,0,0,0,0,0,0,0,0,0,-1,1427,1289,0,0
210,-265,0,0,0,0,0,0,0,0,0,-1,1434,1289,0,0
217,-265,0,0,0,0,0,0,0,0,0,-1,1441,1289,0,0
224,-265,0,0,0,0,0,0,0,0,0,-1,1448,1289,0,0
231,-265,0,0,0,0,0,0,0,0,0,-1,1455,1289,0,0
238,-265,0,0,0,0,0,0,0,0,0,-1,1462,1289,0,0
245,-265,0,0,0,0,0,0,0,0,0,-1,1469,1289,0,0
252,-265,0,0,0,0,0,0,0,0,0,-1,1476,1289,0,0
259,-265,0,0,0,0,0,0,0,0,0,-1,1483,1289,0,0
266,-265,0,0,0,0,0,0,0,0,0,-1,1490,1289,0,0
273,-265,0,0,0,0,0,0,0,0,0,-1,1497,1289,0,0
280,-265,0,0,0,0,0,0,0,0,0,-1,1504,1289,0,0
287,-265,0,0,0,0,0,0,0,0,0,-1,1511,1289,0,0
294,-265,0,0,0,0,0,0,0,0,0,-1,1518,1289,0,0
301,-265,0,0,0,0,0,0,0,0,0,-1,1525,1289,0,0
308,-265,0,0,0,0,0,0,0,0,0,-1,1532,1289,0,0
315,-265,0,0,0,0,0,0,0,0,0,-1,1539,1289,0,0
322,-265,0,0,0,0,0,0,0,0,0,-1,1546,1289,0,0
329,-265,0,0,0,0,0,0,0,0,0,-1,1553,1289,0,0
336,-265,0,0,0,0,0,0,0,0,0,-1,1560,1289,0,0
343,-265,0,0,0,0,0,0,0,0,0,-1,1567,1289,0,0
350,-265,0,0,0,0,0,0,0,0,0,-1,1574,1289,0,0
357,-265,0,0,0,0,0,0,0,0,0,-1,1581,1289,0,0
364,-265,0,0,0,0,0,0,0,0,0,-1,1588,1289,0,0
371,-265,0,0,0,0,0,0,0,0,0,-1,1595,1289,0,0
378,-265,0,0,0,0,0,0,0,0,0,-1,1602,1289,0,0
385,-265,0,0,0,0,0,0,0,0,0,-1,1609,1289,0,0
392,-265,0,0,0,0,0,0,0,0,0,-1,1616,1289,0,0
399,-265,0,0,0,0,0,0,0,0,0,-1,1623,1289,0,0
406,-265,0,0,0,0,0,0,0,0,0,-1,1630,1289,0,0
413,-265,0,0,0,0,0,0,0,0,0,-1,1637,1289,0,0
420,-265,0,0,0,0,0,0,0,0,0,-1,1644,1289,0,0
427,-265,0,0,0,0,0,0,0,0,0,-1,1651,1289,0,0
434,-265,0,0,0,0,0,0,0,0,0,-1,1658,1289,0,0
441,-265,0,0,0,0,0,0,0,0,0,-1,1665,1289,0,0
448,-265,0,0,0,0,0,0,0,0,0,-1,1672,1289,0,0
455,-265,0,0,0,0,0,0,0,0,0,-1,1679,1289,0,0
462,-265,0,0,0,0,0,0,0,0,0,-1,1686,1289,0,0
469,-265,0,0,0,0,0,0,0,0,0,-1,1693,1289,0,0
476,-265,0,0,0,0,0,0,0,0,0,-1,1700,1289,0,0
483,-265,0,0,0,0,0,0,0,0,0,-1,1707,1289,0,0
490,-265,0,0,0,0,0,0,0,0,0,-1,1714,1289,0,0
497,-265,0,0,0,0,0,0,0,0,0,-1,1721,1289,0,0
504,-265,0,0,0,0,0,0,0,0,0,-1,1728,1289,0,0
511,-265,0,0,0,0,0,0,0,0,0,-1,1735,1289,0,0
518,-265,0,0,0,0,0,0,0,0,0,-1,1742,1289,0,0
525,-265,0,0,0,0,0,0,0,0,0,-1,1749,1289,0,0
532,-265,0,0,0,0,0,0,0,0,0,-1,1756,1289,0,0
539,-265,0,0,0,0,0,0,0,0,0,-1,1763,1289,0,0
546,-265,0,0,0,0,0,0,0,0,0,-1,1770,1289,0,0
553,-265,0,0,0,0,0,0,0,0,0,-1,1777,1289,0,0
560,-265,0,0,0,0,0,0,0,0,0,-1,1784,1289,0,0
567,-265,0,0,0,0,0,0,0,0,0,-1,1791,1289,0,0
574,-265,0,0,0,0,0,0,0,0,0,-1,1798,1289,0,0
581,-265,0,0,0,0,0,0,0,0,0,-1,1805,1289,0,0
588,-265,0,0,0,0,0,0,0,0,0,-1,1812,1289,0,0
595,-265,0,0,0,0,0,0,0,0,0,-1,1819,1289,0,0
602,-265,24.5797,2.76123,0.0198959,-0.00234066,-0.00645417,0.0216334,-0.00407821,-0.26298,0.0159564,0.0244633,1826,1289,24.5798,-2.76123
609,-265,24.6451,2.75659,0.0126509,-0.00782436,-0.00618967,0.0143766,-0.00955005,-0.271897,0.0139074,0.0258997,1833,1289,24.6452,-2.75658
616,-265,24.7317,2.84351,0.00506597,-0.0100887,-0.00526313,0.0067145,-0.0117372,-0.303542,0.0107839,0.0309158,1840,1289,24.7317,-2.84354
623,-265,24.9943,3.03748,-0.00159562,-0.0105689,-0.00385606,-0.000166256,-0.0119983,-0.354978,0.007944,0.0436427,1847,1289,24.9942,-3.03742
630,-265,25.0824,3.09778,-0.00578815,-0.00954918,-0.00257721,-0.00447831,-0.010859,-0.470216,0.00630144,0.0458166,1854,1289,25.0823,-3.09772
637,-265,24.8663,3.03003,0,0,0,0,0,0,0,-1,1861,1289,24.8663,-3.03
644,-265,24.9081,2.95874,-0.0085247,-0.00673842,-0.000864353,-0.00638866,-0.00887446,-1.18629,0.00528626,0.0442731,1868,1289,24.9081,-2.95876
651,-265,23.9574,3.32458,0,0,0,0,0,0,0,-1,1875,1289,23.9573,-3.32454
658,-265,22.9952,3.89099,0,0,0,0,0,0,0,-1,1882,1289,22.9953,-3.89099
665,-265,21.6199,3.14197,0,0,0,0,0,0,0,-1,1889,1289,21.6199,-3.14198
672,-265,19.3741,6.26099,0,0,0,0,0,0,0,-1,1896,1289,19.3742,-6.26096
679,-265,19.4265,6.25452,-0.00713062,-0.00263924,0.000840192,-0.00248722,-0.00728265,1.39179,0.00427445,0.0464624,1903,1289,19.4265,-6.25448
686,-265,19.4554,6.11523,-0.00575441,-0.00150337,0.000910193,-0.00131669,-0.0059411,1.3685,0.00360294,0.0178043,1910,1289,19.4555,-6.11529
693,-265,19.4801,5.87451,-0.0039973,-0.000601801,0.00106111,-0.000297473,-0.00430163,1.29149,0.00277392,0.00976191,1917,1289,19.4801,-5.8745
700,-265,19.4823,5.65405,-0.0018311,-0.000370994,0.000970061,0.000113036,-0.00231513,1.10797,0.00158244,0.0101663,1924,1289,19.4823,-5.65403
707,-265,19.5105,5.42725,-0.000964637,-5.42248e-06,0.000708086,0.000370194,-0.00134025,1.08307,0.00103912,0.0102623,1931,1289,19.5105,-5.42719
714,-265,19.5114,5.23315,-0.000541493,0.000348165,0.000589178,0.00064158,-0.000834907,1.10874,0.000854882,0.00984694,1938,1289,19.5114,-5.23317
721,-265,19.4924,5.04126,-0.00054527,-5.83659e-07,0.00102743,0.000789984,-0.00133584,0.914955,0.00124076,0.00905427,1945,1289,19.4924,-5.04126
728,-265,19.4668,4.84497,-0.00101272,-0.00170969,0.00232154,0.000986348,-0.00370876,0.710899,0.00285858,0.0123197,1952,1289,19.4668,-4.84497
735,-265,19.4653,4.64453,-0.00191447,-0.00355389,0.00406564,0.00141328,-0.00688164,0.685922,0.00512423,0.0166665,1959,1289,19.4654,-4.64454
742,-265,19.5082,4.4176,-0.00287316,-0.00640845,0.00646263,0.00205921,-0.0113408,0.651904,0.00833221,0.0204042,1966,1289,19.5082,-4.41754
749,-265,19.5566,4.19348,-0.00438285,-0.0108394,0.00998674,0.00288444,-0.0181067,0.629071,0.0131386,0.0407204,1973,1289,19.5567,-4.19345
756,-265,19.6833,3.9635,0,0,0,0,0,0,0,-1,1980,1289,19.6833,-3.9635
763,-265,19.488,4.54492,0,0,0,0,0,0,0,-1,1987,1289,19.488,-4.54498
770,-265,19.406,5.64819,0,0,0,0,0,0,0,-1,1994,1289,19.406,-5.64814
777,-265,19.6052,6.32446,0,0,0,0,0,0,0,-1,2001,1289,19.6052,-6.32447
784,-265,0,0,0,0,0,0,0,0,0,-1,2008,1289,0,0
791,-265,0,0,0,0,0,0,0,0,0,-1,2015,1289,0,0
798,-265,0,0,0,0,0,0,0,0,0,-1,2022,1289,0,0
805,-265,0,0,0,0,0,0,0,0,0,-1,2029,1289,0,0
812,-265,0,0,0,0,0,0,0,0,0,-1,2036,1289,0,0
-700,-272,0,0,0,0,0,0,0,0,0,-1,524,1296,0,0
-693,-272,0,0,0,0,0,0,0,0,0,-1,531,1296,0,0
-686,-272,0,0,0,0,0,0,0,0,0,-1,538,1296,0,0
-679,-272,0,0,0,0,0,0,0,0,0,-1,545,1296,0,0
-672,-272,0,0,0,0,0,0,0,0,0,-1,552,1296,0,0
-665,-272,0,0,0,0,0,0,0,0,0,-1,559,1296,0,0
-658,-272,-10.8917,-1.94958,0,0,0,0,0,0,0,-1,566,1296,-10.8916,1.94964
-651,-272,-10.0993,-1.83142,0.0605989,0.115807,-0.0215555,0.123226,0.0531797,-1.23931,0.0713663,0.044206,573,1296,-10.0993,1.83144
-644,-272,-9.38422,-1.78491,0.0402119,0.0962477,-0.00775515,0.0973011,0.0391584,-1.43578,0.0565321,0.0455793,580,1296,-9.38421,1.78492
-637,-272,-9.51239,-1.59814,0.0251057,0.0790184,0.00133019,0.0790512,0.0250729,1.54614,0.0466462,0.0469813,587,1296,-9.51236,1.59814
-630,-272,-9.61017,0.0484619,0.0143961,0.063817,0.00684505,0.0647475,0.0134656,1.43568,0.0394501,0.0466877,594,1296,-9.61014,-0.0484734
-623,-272,-10.2205,1.26868,0,0,0,0,0,0,0,-1,601,1296,-10.2205,-1.26868
-616,-272,-10.4064,1.70593,0.00254152,0.0389042,0.0104159,0.0416765,-0.000230711,1.31067,0.0278615,0.0365008,608,1296,-10.4064,-1.70591
-609,-272,-10.6075,2.12683,0.000133238,0.0291465,0.00985783,0.0321789,-0.00289921,1.27237,0.0224814,0.019757,615,1296,-10.6075,-2.12679
-602,-272,-10.6169,2.28955,-0.000965914,0.0207352,0.0086483,0.02376,-0.0039908,1.23433,0.0173242,0.013836,622,1296,-10.617,-2.28958
-595,-272,-10.6218,2.54565,-0.00207187,0.0138496,0.00775322,0.0170013,-0.00522355,1.1847,0.0134187,0.0114612,629,1296,-10.6218,-2.5456
-588,-272,-10.6238,2.80603,-0.00153718,0.00870481,0.00613119,0.0115723,-0.00440468,1.13333,0.00952872,0.0102696,636,1296,-10.6238,-2.80604
-581,-272,-10.6449,3.06482,0.000294522,0.00489577,0.00377459,0.0070156,-0.0018253,1.05909,0.00538953,0.00989845,643,1296,-10.6449,-3.06485
-574,-272,-10.6741,3.33057,0.00208004,0.00212296,0.00189298,0.0039946,0.000208395,0.791066,0.00259639,0.0157104,650,1296,-10.6741,-3.33061
-567,-272,-10.6943,3.58801,0.0030764,8.09143e-05,0.000746787,0.00325225,-9.49394e-05,0.231267,0.0022005,0.0218014,657,1296,-10.6943,-3.58796
-560,-272,-10.7108,3.84399,0.00252164,-0.000133137,2.97997e-05,0.00252198,-0.000133471,0.011223,0.00172753,0.0199378,664,1296,-10.7108,-3.84395
-553,-272,-10.6463,4.07153,0.000317685,0.00198895,-0.000888025,0.00237269,-6.60565e-05,-1.1629,0.00160426,0.0140221,671,1296,-10.6463,-4.07152
-546,-272,-10.5671,4.35217,-0.00278552,0.00387395,-0.00161035,0.00424291,-0.00315448,-1.34556,0.00428627,0.0212724,678,1296,-10.5671,-4.35217
-539,-272,-10.5455,4.44885,-0.00673054,0.00650632,-0.00267723,0.0070273,-0.00725152,-1.3786,0.00824422,0.0492072,685,1296,-10.5454,-4.44882
-532,-272,-10.5572,4.53943,0,0,0,0,0,0,0,-1,692,1296,-10.5572,-4.53943
-525,-272,-11.9599,0.0393066,0,0,0,0,0,0,0,-1,699,1296,-11.9599,-0.0393577
-518,-272,-14.7915,0.260254,0,0,0,0,0,0,0,-1,706,1296,-14.7915,-0.260206
-511,-272,-12.883,-1.40942,0,0,0,0,0,0,0,-1,713,1296,-12.883,1.40948
-504,-272,-13.4428,-0.668579,0,0,0,0,0,0,0,-1,720,1296,-13.4428,0.668521
-497,-272,-14.1154,-0.147827,0,0,0,0,0,0,0,-1,727,1296,-14.1154,0.147771
-490,-272,-14.7272,0.464966,0,0,0,0,0,0,0,-1,734,1296,-14.7272,-0.464958
-483,-272,-15.3736,0.792603,0,0,0,0,0,0,0,-1,741,1296,-15.3736,-0.79263
-476,-272,0,0,0,0,0,0,0,0,0,-1,748,1296,0,0
-469,-272,0,0,0,0,0,0,0,0,0,-1,755,1296,0,0
-462,-272,0,0,0,0,0,0,0,0,0,-1,762,1296,0,0
-455,-272,0,0,0,0,0,0,0,0,0,-1,769,1296,0,0
-448,-272,0,0,0,0,0,0,0,0,0,-1,776,1296,0,0
-441,-272,0,0,0,0,0,0,0,0,0,-1,783,1296,0,0
-434,-272,0,0,0,0,0,0,0,0,0,-1,790,1296,0,0
-427,-272,0,0,0,0,0,0,0,0,0,-1,797,1296,0,0
-420,-272,0,0,0,0,0,0,0,0,0,-1,804,1296,0,0
-413,-272,0,0,0,0,0,0,0,0,0,-1,811,1296,0,0
-406,-272,0,0,0,0,0,0,0,0,0,-1,818,1296,0,0
-399,-272,0,0,0,0,0,0,0,0,0,-1,825,1296,0,0
-392,-272,0,0,0,0,0,0,0,0,0,-1,832,1296,0,0
-385,-272,0,0,0,0,0,0,0,0,0,-1,839,1296,0,0
-378,-272,0,0,0,0,0,0,0,0,0,-1,846,1296,0,0
-371,-272,0,0,0,0,0,0,0,0,0,-1,853,1296,0,0
-364,-272,0,0,0,0,0,0,0,0,0,-1,860,1296,0,0
-357,-272,0,0,0,0,0,0,0,0,0,-1,867,1296,0,0
-350,-272,0,0,0,0,0,0,0,0,0,-1,874,1296,0,0
-343,-272,0,0,0,0,0,0,0,0,0,-1,881,1296,0,0
-336,-272,0,0,0,0,0,0,0,0,0,-1,888,1296,0,0
-329,-272,0,0,0,0,0,0,0,0,0,-1,895,1296,0,0
-322,-272,0,0,0,0,0,0,0,0,0,-1,902,1296,0,0
-315,-272,0,0,0,0,0,0,0,0,0,-1,909,1296,0,0
-308,-272,0,0,0,0,0,0,0,0,0,-1,916,1296,0,0
-301,-272,0,0,0,0,0,0,0,0,0,-1,923,1296,0,0
-294,-272,0,0,0,0,0,0,0,0,0,-1,930,1296,0,0
-287,-272,0,0,0,0,0,0,0,0,0,-1,937,1296,0,0
-280,-272,0,0,0,0,0,0,0,0,0,-1,944,1296,0,0
-273,-272,0,0,0,0,0,0,0,0,0,-1,951,1296,0,0
-266,-272,0,0,0,0,0,0,0,0,0,-1,958,1296,0,0
-259,-272,0,0,0,0,0,0,0,0,0,-1,965,1296,0,0
-252,-272,0,0,0,0,0,0,0,0,0,-1,972,1296,0,0
-245,-272,0,0,0,0,0,0,0,0,0,-1,979,1296,0,0
-238,-272,0,0,0,0,0,0,0,0,0,-1,986,1296,0,0
-231,-272,0,0,0,0,0,0,0,0,0,-1,993,1296,0,0
-224,-272,0,0,0,0,0,0,0,0,0,-1,1000,1296,0,0
-217,-272,0,0,0,0,0,0,0,0,0,-1,1007,1296,0,0
-210,-272,0,0,0,0,0,0,0,0,0,-1,1014,1296,0,0
-203,-272,0,0,0,0,0,0,0,0,0,-1,1021,1296,0,0
-196,-272,0,0,0,0,0,0,0,0,0,-1,1028,1296,0,0
-189,-272,0,0,0,0,0,0,0,0,0,-1,1035,1296,0,0
-182,-272,0,0,0,0,0,0,0,0,0,-1,1042,1296,0,0
-175,-272,0,0,0,0,0,0,0,0,0,-1,1049,1296,0,0
-168,-272,0,0,0,0,0,0,0,0,0,-1,1056,1296,0,0
-161,-272,0,0,0,0,0,0,0,0,0,-1,1063,1296,0,0
-154,-272,0,0,0,0,0,0,0,0,0,-1,1070,1296,0,0
-147,-272,0,0,0,0,0,0,0,0,0,-1,1077,1296,0,0
-140,-272,0,0,0,0,0,0,0,0,0,-1,1084,1296,0,0
-133,-272,0,0,0,0,0,0,0,0,0,-1,1091,1296,0,0
-126,-272,0,0,0,0,0,0,0,0,0,-1,1098,1296,0,0
-119,-272,0,0,0,0,0,0,0,0,0,-1,1105,1296,0,0
-112,-272,0,0,0,0,0,0,0,0,0,-1,1112,1296,0,0
-105,-272,0,0,0,0,0,0,0,0,0,-1,1119,1296,0,0
-98,-272,0,0,0,0,0,0,0,0,0,-1,1126,1296,0,0
-91,-272,0,0,0,0,0,0,0,0,0,-1,1133,1296,0,0
-84,-272,0,0,0,0,0,0,0,0,0,-1,1140,1296,0,0
-77,-272,0,0,0,0,0,0,0,0,0,-1,1147,1296,0,0
-70,-272,0,0,0,0,0,0,0,0,0,-1,1154,1296,0,0
-63,-272,0,0,0,0,0,0,0,0,0,-1,1161,1296,0,0
-56,-272,0,0,0,0,0,0,0,0,0,-1,1168,1296,0,0
-49,-272,0,0,0,0,0,0,0,0,0,-1,1175,1296,0,0
-42,-272,0,0,0,0,0,0,0,0,0,-1,1182,1296,0,0
-35,-272,0,0,0,0,0,0,0,0,0,-1,1189,1296,0,0
-28,-272,0,0,0,0,0,0,0,0,0,-1,1196,1296,0,0
-21,-272,0,0,0,0,0,0,0,0,0,-1,1203,1296,0,0
-14,-272,0,0,0,0,0,0,0,0,0,-1,1210,1296,0,0
-7,-272,0,0,0,0,0,0,0,0,0,-1,1217,1296,0,0
0,-272,0,0,0,0,0,0,0,0,0,-1,1224,1296,0,0
7,-272,0,0,0,0,0,0,0,0,0,-1,1231,1296,0,0
14,-272,0,0,0,0,0,0,0,0,0,-1,1238,1296,0,0
21,-272,0,0,0,0,0,0,0,0,0,-1,1245,1296,0,0
28,-272,0,0,0,0,0,0,0,0,0,-1,1252,1296,0,0
35,-272,0,0,0,0,0,0,0,0,0,-1,1259,1296,0,0
42,-272,0,0,0,0,0,0,0,0,0,-1,1266,1296,0,0
49,-272,0,0,0,0,0,0,0,0,0,-1,1273,1296,0,0
56,-272,0,0,0,0,0,0,0,0,0,-1,1280,1296,0,0
63,-272,0,0,0,0,0,0,0,0,0,-1,1287,1296,0,0
70,-272,0,0,0,0,0,0,0,0,0,-1,1294,1296,0,0
77,-272,0,0,0,0,0,0,0,0,0,-1,1301,1296,0,0
84,-272,0,0,0,0,0,0,0,0,0,-1,1308,1296,0,0
91,-272,0,0,0,0,0,0,0,0,0,-1,1315,1296,0,0
98,-272,0,0,0,0,0,0,0,0,0,-1,1322,1296,0,0
105,-272,0,0,0,0,0,0,0,0,0,-1,1329,1296,0,0
112,-272,0,0,0,0,0,0,0,0,0,-1,1336,1296,0,0
119,-272,0,0,0,0,0,0,0,0,0,-1,1343,1296,0,0
126,-272,0,0,0,0,0,0,0,0,0,-1,1350,1296,0,0
133,-272,0,0,0,0,0,0,0,0,0,-1,1357,1296,0,0
140,-272,0,0,0,0,0,0,0,0,0,-1,1364,1296,0,0
147,-272,0,0,0,0,0,0,0,0,0,-1,1371,1296,0,0
154,-272,0,0,0,0,0,0,0,0,0,-1,1378,1296,0,0
161,-272,0,0,0,0,0,0,0,0,0,-1,1385,1296,0,0
168,-272,0,0,0,0,0,0,0,0,0,-1,1392,1296,0,0
175,-272,0,0,0,0,0,0,0,0,0,-1,1399,1296,0,0
182,-272,0,0,0,0,0,0,0,0,0,-1,1406,1296,0,0
189,-272,0,0,0,0,0,0,0,0,0,-1,1413,1296,0,0
196,-272,0,0,0,0,0,0,0,0,0,-1,1420,1296,0,0
203,-272,0,0,0,0,0,0,0,0,0,-1,1427,1296,0,0
210,-272,0,0,0,0,0,0,0,0,0,-1,1434,1296,0,0
217,-272,0,0,0,0,0,0,0,0,0,-1,1441,1296,0,0
224,-272,0,0,0,0,0,0,0,0,0,-1,1448,1296,0,0
231,-272,0,0,0,0,0,0,0,0,0,-1,1455,1296,0,0
238,-272,0,0,0,0,0,0,0,0,0,-1,1462,1296,0,0
245,-272,0,0,0,0,0,0,0,0,0,-1,1469,1296,0,0
252,-272,0,0,0,0,0,0,0,0,0,-1,1476,1296,0,0
259,-272,0,0,0,0,0,0,0,0,0,-1,1483,1296,0,0
266,-272,0,0,0,0,0,0,0,0,0,-1,1490,1296,0,0
273,-272,0,0,0,0,0,0,0,0,0,-1,1497,1296,0,0
280,-272,0,0,0,0,0,0,0,0,0,-1,1504,1296,0,0
287,-272,0,0,0,0,0,0,0,0,0,-1,1511,1296,0,0
294,-272,0,0,0,0,0,0,0,0,0,-1,1518,1296,0,0
301,-272,0,0,0,0,0,0,0,0,0,-1,1525,1296,0,0
308,-272,0,0,0,0,0,0,0,0,0,-1,1532,1296,0,0
315,-272,0,0,0,0,0,0,0,0,0,-1,1539,1296,0,0
322,-272,0,0,0,0,0,0,0,0,0,-1,1546,1296,0,0
329,-272,0,0,0,0,0,0,0,0,0,-1,1553,1296,0,0
336,-272,0,0,0,0,0,0,0,0,0,-1,1560,1296,0,0
343,-272,0,0,0,0,0,0,0,0,0,-1,1567,1296,0,0
350,-272,0,0,0,0,0,0,0,0,0,-1,1574,1296,0,0
357,-272,0,0,0,0,0,0,0,0,0,-1,1581,1296,0,0
364,-272,0,0,0,0,0,0,0,0,0,-1,1588,1296,0,0
371,-272,0,0,0,0,0,0,0,0,0,-1,1595,1296,0,0
378,-272,0,0,0,0,0,0,0,0,0,-1,1602,1296,0,0
385,-272,0,0,0,0,0,0,0,0,0,-1,1609,1296,0,0
392,-272,0,0,0,0,0,0,0,0,0,-1,1616,1296,0,0
399,-272,0,0,0,0,0,0,0,0,0,-1,1623,1296,0,0
406,-272,0,0,0,0,0,0,0,0,0,-1,1630,1296,0,0
413,-272,0,0,0,0,0,0,0,0,0,-1,1637,1296,0,0
420,-272,0,0,0,0,0,0,0,0,0,-1,1644,1296,0,0
427,-272,0,0,0,0,0,0,0,0,0,-1,1651,1296,0,0
434,-272,0,0,0,0,0,0,0,0,0,-1,1658,1296,0,0
441,-272,0,0,0,0,0,0,0,0,0,-1,1665,1296,0,0
448,-272,0,0,0,0,0,0,0,0,0,-1,1672,1296,0,0
455,-272,0,0,0,0,0,0,0,0,0,-1,1679,1296,0,0
462,-272,0,0,0,0,0,0,0,0,0,-1,1686,1296,0,0
469,-272,0,0,0,0,0,0,0,0,0,-1,1693,1296,0,0
476,-272,0,0,0,0,0,0,0,0,0,-1,1700,1296,0,0
483,-272,0,0,0,0,0,0,0,0,0,-1,1707,1296,0,0
490,-272,0,0,0,0,0,0,0,0,0,-1,1714,1296,0,0
497,-272,0,0,0,0,0,0,0,0,0,-1,1721,1296,0,0
504,-272,0,0,0,0,0,0,0,0,0,-1,1728,1296,0,0
511,-272,0,0,0,0,0,0,0,0,0,-1,1735,1296,0,0
518,-272,0,0,0,0,0,0,0,0,0,-1,1742,1296,0,0
525,-272,0,0,0,0,0,0,0,0,0,-1,1749,1296,0,0
532,-272,0,0,0,0,0,0,0,0,0,-1,1756,1296,0,0
539,-272,0,0,0,0,0,0,0,0,0,-1,1763,1296,0,0
546,-272,0,0,0,0,0,0,0,0,0,-1,1770,1296,0,0
553,-272,0,0,0,0,0,0,0,0,0,-1,1777,1296,0,0
560,-272,0,0,0,0,0,0,0,0,0,-1,1784,1296,0,0
567,-272,0,0,0,0,0,0,0,0,0,-1,1791,1296,0,0
574,-272,0,0,0,0,0,0,0,0,0,-1,1798,1296,0,0
581,-272,0,0,0,0,0,0,0,0,0,-1,1805,1296,0,0
588,-272,0,0,0,0,0,0,0,0,0,-1,1812,1296,0,0
595,-272,0,0,0,0,0,0,0,0,0,-1,1819,1296,0,0
602,-272,24.5839,2.70813,0.0208185,-0.00931656,-0.00958642,0.0236096,-0.0121076,-0.283317,0.0209747,0.0293153,1826,1296,24.5839,-2.70818
609,-272,24.6492,2.70801,0.0128321,-0.0147938,-0.0087752,0.0153838,-0.0173455,-0.282981,0.0189076,0.0359487,1833,1296,24.6491,-2.708
616,-272,25.0695,3.01587,0,0,0,0,0,0,0,-1,1840,1296,25.0695,-3.0159
623,-272,25.2054,3.10547,-0.00156893,-0.0147177,-0.00486622,3.60878e-05,-0.0163227,-0.318592,0.0108939,0.0434191,1847,1296,25.2054,-3.10552
630,-272,25.2811,3.21985,-0.00561787,-0.0124375,-0.00312003,-0.00440584,-0.0136495,-0.370525,0.00804386,0.0456978,1854,1296,25.2811,-3.2199
637,-272,25.2751,3.29688,-0.00777987,-0.0101273,-0.00179733,-0.00680694,-0.0111002,-0.49615,0.00646324,0.0480515,1861,1296,25.2751,-3.29684
644,-272,25.3422,3.30225,0,0,0,0,0,0,0,-1,1868,1296,25.3421,-3.30224
651,-272,23.3164,2.35876,0,0,0,0,0,0,0,-1,1875,1296,23.3164,-2.35872
658,-272,20.2897,3.00378,0,0,0,0,0,0,0,-1,1882,1296,20.2896,-3.00373
665,-272,18.9618,4.08997,0,0,0,0,0,0,0,-1,1889,1296,18.9617,-4.08994
672,-272,19.0065,6.09778,0,0,0,0,0,0,0,-1,1896,1296,19.0064,-6.09775
679,-272,19.2483,6.21423,-0.00796608,-0.00264106,0.0012814,-0.00234876,-0.00825838,1.34652,0.0049135,0.0348544,1903,1296,19.2483,-6.21423
686,-272,19.2634,6.1123,-0.00631386,-0.00139197,0.00127075,-0.00108325,-0.00662258,1.33247,0.00410193,0.0138175,1910,1296,19.2635,-6.11227
693,-272,19.2527,5.87598,-0.00434377,-0.000456418,0.00132208,-4.93946e-05,-0.00475079,1.27214,0.00315086,0.0116467,1917,1296,19.2527,-5.876
700,-272,19.2664,5.67725,-0.00205327,-0.000171487,0.00105737,0.000303005,-0.00252777,1.14899,0.00179473,0.011338,1924,1296,19.2664,-5.6773
707,-272,19.29,5.44702,-0.000994572,0.000317513,0.00058878,0.000542976,-0.00122004,1.20509,0.0010426,0.0107628,1931,1296,19.2901,-5.44698
714,-272,19.2903,5.22461,-0.000306103,0.000874679,0.000195103,0.000906082,-0.000337505,1.41121,0.000742578,0.010601,1938,1296,19.2903,-5.22466
721,-272,19.2704,5.04285,-8.99935e-05,0.000859619,0.000286619,0.000939422,-0.000169797,1.29924,0.000689881,0.0108596,1945,1296,19.2704,-5.04285
728,-272,19.2638,4.83752,-0.000341847,-0.000313673,0.00116476,0.000837081,-0.0014926,0.791445,0.00136268,0.0130328,1952,1296,19.2638,-4.83749
735,-272,19.2728,4.62549,-0.00116668,-0.001742,0.00251662,0.00107866,-0.00398735,0.728492,0.00308137,0.0130051,1959,1296,19.2728,-4.62552
742,-272,19.2709,4.40442,-0.00222608,-0.0040972,0.00449787,0.0014325,-0.00775578,0.682859,0.00570825,0.0231326,1966,1296,19.2709,-4.40439
749,-272,19.2734,4.25378,-0.00382712,-0.00800693,0.00757113,0.00193725,-0.0137713,0.650734,0.00989006,0.042216,1973,1296,19.2734,-4.25376
756,-272,19.4045,4.17236,0,0,0,0,0,0,0,-1,1980,1296,19.4045,-4.17233
763,-272,18.0247,2.45325,0,0,0,0,0,0,0,-1,1987,1296,18.0247,-2.45329
770,-272,19.6461,6.34717,0,0,0,0,0,0,0,-1,1994,1296,19.6462,-6.34717
777,-272,19.6044,6.65063,0,0,0,0,0,0,0,-1,2001,1296,19.6044,-6.65062
784,-272,0,0,0,0,0,0,0,0,0,-1,2008,1296,0,0
791,-272,0,0,0,0,0,0,0,0,0,-1,2015,1296,0,0
798,-272,0,0,0,0,0,0,0,0,0,-1,2022,1296,0,0
805,-272,0,0,0,0,0,0,0,0,0,-1,2029,1296,0,0
812,-272,0,0,0,0,0,0,0,0,0,-1,2036,1296,0,0
-700,-279,0,0,0,0,0,0,0,0,0,-1,524,1303,0,0
-693,-279,0,0,0,0,0,0,0,0,0,-1,531,1303,0,0
-686,-279,0,0,0,0,0,0,0,0,0,-1,538,1303,0,0
-679,-279,0,0,0,0,0,0,0,0,0,-1,545,1303,0,0
-672,-279,0,0,0,0,0,0,0,0,0,-1,552,1303,0,0
-665,-279,0,0,0,0,0,0,0,0,0,-1,559,1303,0,0
-658,-279,-9.83771,-3.41785,0.104722,0.138371,-0.0507188,0.174983,0.0681101,-0.945548,0.101849,0.0448876,566,1303,-9.83769,3.41786
-651,-279,-9.35162,-2.96399,0.0758239,0.11624,-0.0295575,0.131837,0.0602268,-1.08525,0.0762109,0.0463548,573,1303,-9.35164,2.96403
-644,-279,-8.75049,-1.20081,0,0,0,0,0,0,0,-1,580,1303,-8.75047,1.20076
-637,-279,-8.98694,-0.832642,0.0353648,0.0818182,-0.00308043,0.0820216,0.0351614,-1.50487,0.0475155,0.048625,587,1303,-8.98694,0.832653
-630,-279,-9.29816,-0.333008,0.0220255,0.0671461,0.00414895,0.0675244,0.0216471,1.47986,0.0398131,0.0492387,594,1303,-9.29815,0.33298
-623,-279,-9.57794,0.472168,0.0123853,0.0539038,0.00836684,0.0555265,0.0107627,1.37923,0.0340027,0.0447715,601,1303,-9.57792,-0.472223
-616,-279,-10.4008,1.83667,0.00588243,0.0421107,0.0101758,0.0447732,0.00321993,1.31488,0.0288355,0.0411783,608,1303,-10.4008,-1.83672
-609,-279,-10.4586,1.99036,0.0019807,0.0318871,0.0102267,0.0350498,-0.00118195,1.27087,0.0237703,0.030857,615,1303,-10.4586,-1.99032
-602,-279,-10.337,2.29565,-0.000198877,0.0228754,0.00930635,0.026161,-0.00348448,1.23141,0.0187106,0.0125151,622,1303,-10.337,-2.29565
-595,-279,-10.3726,2.55383,-0.00239117,0.0154772,0.00874776,0.0190468,-0.0059607,1.18337,0.0150826,0.0101554,629,1303,-10.3726,-2.55384
-588,-279,-10.3674,2.82129,-0.0024182,0.0100062,0.00714795,0.0132642,-0.00567619,1.14313,0.0112239,0.0100319,636,1303,-10.3674,-2.82126
-581,-279,-10.3895,3.06799,-0.000624333,0.00589971,0.00449403,0.0081908,-0.00291543,1.09933,0.00664893,0.0119438,643,1303,-10.3895,-3.06796
-574,-279,-10.4228,3.30908,0.00118373,0.00282398,0.00235323,0.00449589,-0.000488191,0.953072,0.00317254,0.0127093,650,1303,-10.4228,-3.30909
-567,-279,-10.4265,3.5564,0.00219824,0.000455509,0.000989588,0.00264542,8.32905e-06,0.424421,0.00176084,0.0166787,657,1303,-10.4265,-3.55642
-560,-279,-10.4036,3.83643,0.00181955,-2.47903e-05,0.000204217,0.00184189,-4.71318e-05,0.108968,0.00124394,0.0159832,664,1303,-10.4036,-3.83643
-553,-279,-10.3882,4.09216,7.68847e-05,0.00169324,-0.000626741,0.00190778,-0.000137657,-1.24099,0.00132013,0.0114665,671,1303,-10.3882,-4.09217
-546,-279,-10.3777,4.32605,-0.00270408,0.00350197,-0.00126387,0.00374948,-0.0029516,-1.3774,0.003878,0.0141805,678,1303,-10.3777,-4.32602
-539,-279,-10.3945,4.61279,-0.00652545,0.00605943,-0.00229961,0.00646647,-0.00693248,-1.39561,0.00773745,0.0435709,685,1303,-10.3945,-4.61285
-532,-279,-10.4053,4.90894,0,0,0,0,0,0,0,-1,692,1303,-10.4053,-4.90899
-525,-279,-11.7063,-0.539185,0,0,0,0,0,0,0,-1,699,1303,-11.7063,0.539166
-518,-279,-15.0099,0.104492,0,0,0,0,0,0,0,-1,706,1303,-15.0099,-0.104444
-511,-279,-13.4995,2.44275,0,0,0,0,0,0,0,-1,713,1303,-13.4995,-2.44275
-504,-279,-13.1187,-1.10254,0,0,0,0,0,0,0,-1,720,1303,-13.1187,1.10255
-497,-279,-13.7728,-0.434814,0,0,0,0,0,0,0,-1,727,1303,-13.7728,0.434844
-490,-279,-14.2626,0.385986,0,0,0,0,0,0,0,-1,734,1303,-14.2626,-0.385938
-483,-279,-14.9331,0.736816,0,0,0,0,0,0,0,-1,741,1303,-14.9331,-0.736782
-476,-279,0,0,0,0,0,0,0,0,0,-1,748,1303,0,0
-469,-279,0,0,0,0,0,0,0,0,0,-1,755,1303,0,0
-462,-279,0,0,0,0,0,0,0,0,0,-1,762,1303,0,0
-455,-279,0,0,0,0,0,0,0,0,0,-1,769,1303,0,0
-448,-279,0,0,0,0,0,0,0,0,0,-1,776,1303,0,0
-441,-279,0,0,0,0,0,0,0,0,0,-1,783,1303,0,0
-434,-279,0,0,0,0,0,0,0,0,0,-1,790,1303,0,0
-427,-279,0,0,0,0,0,0,0,0,0,-1,797,1303,0,0
-420,-279,0,0,0,0,0,0,0,0,0,-1,804,1303,0,0
-413,-279,0,0,0,0,0,0,0,0,0,-1,811,1303,0,0
-406,-279,0,0,0,0,0,0,0,0,0,-1,818,1303,0,0
-399,-279,0,0,0,0,0,0,0,0,0,-1,825,1303,0,0
-392,-279,0,0,0,0,0,0,0,0,0,-1,832,1303,0,0
-385,-279,0,0,0,0,0,0,0,0,0,-1,839,1303,0,0
-378,-279,0,0,0,0,0,0,0,0,0,-1,846,1303,0,0
-371,-279,0,0,0,0,0,0,0,0,0,-1,853,1303,0,0
-364,-279,0,0,0,0,0,0,0,0,0,-1,860,1303,0,0
-357,-279,0,0,0,0,0,0,0,0,0,-1,867,1303,0,0
-350,-279,0,0,0,0,0,0,0,0,0,-1,874,1303,0,0
-343,-279,0,0,0,0,0,0,0,0,0,-1,881,1303,0,0
-336,-279,0,0,0,0,0,0,0,0,0,-1,888,1303,0,0
-329,-279,0,0,0,0,0,0,0,0,0,-1,895,1303,0,0
-322,-279,0,0,0,0,0,0,0,0,0,-1,902,1303,0,0
-315,-279,0,0,0,0,0,0,0,0,0,-1,909,1303,0,0
-308,-279,0,0,0,0,0,0,0,0,0,-1,916,1303,0,0
-301,-279,0,0,0,0,0,0,0,0,0,-1,923,1303,0,0
-294,-279,0,0,0,0,0,0,0,0,0,-1,930,1303,0,0
-287,-279,0,0,0,0,0,0,0,0,0,-1,937,1303,0,0
-280,-279,0,0,0,0,0,0,0,0,0,-1,944,1303,0,0
-273,-279,0,0,0,0,0,0,0,0,0,-1,951,1303,0,0
-266,-279,0,0,0,0,0,0,0,0,0,-1,958,1303,0,0
-259,-279,0,0,0,0,0,0,0,0,0,-1,965,1303,0,0
-252,-279,0,0,0,0,0,0,0,0,0,-1,972,1303,0,0
-245,-279,0,0,0,0,0,0,0,0,0,-1,979,1303,0,0
-238,-279,0,0,0,0,0,0,0,0,0,-1,986,1303,0,0
-231,-279,0,0,0,0,0,0,0,0,0,-1,993,1303,0,0
-224,-279,0,0,0,0,0,0,0,0,0,-1,1000,1303,0,0
-217,-279,0,0,0,0,0,0,0,0,0,-1,1007,1303,0,0
-210,-279,0,0,0,0,0,0,0,0,0,-1,1014,1303,0,0
-203,-279,0,0,0,0,0,0,0,0,0,-1,1021,1303,0,0
-196,-279,0,0,0,0,0,0,0,0,0,-1,1028,1303,0,0
-189,-279,0,0,0,0,0,0,0,0,0,-1,1035,1303,0,0
-182,-279,0,0,0,0,0,0,0,0,0,-1,1042,1303,0,0
-175,-279,0,0,0,0,0,0,0,0,0,-1,1049,1303,0,0
-168,-279,0,0,0,0,0,0,0,0,0,-1,1056,1303,0,0
-161,-279,0,0,0,0,0,0,0,0,0,-1,1063,1303,0,0
-154,-279,0,0,0,0,0,0,0,0,0,-1,1070,1303,0,0
-147,-279,0,0,0,0,0,0,0,0,0,-1,1077,1303,0,0
-140,-279,0,0,0,0,0,0,0,0,0,-1,1084,1303,0,0
-133,-279,0,0,0,0,0,0,0,0,0,-1,1091,1303,0,0
-126,-279,0,0,0,0,0,0,0,0,0,-1,1098,1303,0,0
-119,-279,0,0,0,0,0,0,0,0,0,-1,1105,1303,0,0
-112,-279,0,0,0,0,0,0,0,0,0,-1,1112,1303,0,0
-105,-279,0,0,0,0,0,0,0,0,0,-1,1119,1303,0,0
-98,-279,0,0,0,0,0,0,0,0,0,-1,1126,1303,0,0
-91,-279,0,0,0,0,0,0,0,0,0,-1,1133,1303,0,0
-84,-279,0,0,0,0,0,0,0,0,0,-1,1140,1303,0,0
-77,-279,0,0,0,0,0,0,0,0,0,-1,1147,1303,0,0
-70,-279,0,0,0,0,0,0,0,0,0,-1,1154,1303,0,0
-63,-279,0,0,0,0,0,0,0,0,0,-1,1161,1303,0,0
-56,-279,0,0,0,0,0,0,0,0,0,-1,1168,1303,0,0
-49,-279,0,0,0,0,0,0,0,0,0,-1,1175,1303,0,0
-42,-279,0,0,0,0,0,0,0,0,0,-1,1182,1303,0,0
-35,-279,0,0,0,0,0,0,0,0,0,-1,1189,1303,0,0
-28,-279,0,0,0,0,0,0,0,0,0,-1,1196,1303,0,0
-21,-279,0,0,0,0,0,0,0,0,0,-1,1203,1303,0,0
-14,-279,0,0,0,0,0,0,0,0,0,-1,1210,1303,0,0
-7,-279,0,0,0,0,0,0,0,0,0,-1,1217,1303,0,0
0,-279,0,0,0,0,0,0,0,0,0,-1,1224,1303,0,0
7,-279,0,0,0,0,0,0,0,0,0,-1,1231,1303,0,0
14,-279,0,0,0,0,0,0,0,0,0,-1,1238,1303,0,0
21,-279,0,0,0,0,0,0,0,0,0,-1,1245,1303,0,0
28,-279,0,0,0,0,0,0,0,0,0,-1,1252,1303,0,0
35,-279,0,0,0,0,0,0,0,0,0,-1,1259,1303,0,0
42,-279,0,0,0,0,0,0,0,0,0,-1,1266,1303,0,0
49,-279,0,0,0,0,0,0,0,0,0,-1,1273,1303,0,0
56,-279,0,0,0,0,0,0,0,0,0,-1,1280,1303,0,0
63,-279,0,0,0,0,0,0,0,0,0,-1,1287,1303,0,0
70,-279,0,0,0,0,0,0,0,0,0,-1,1294,1303,0,0
77,-279,0,0,0,0,0,0,0,0,0,-1,1301,1303,0,0
84,-279,0,0,0,0,0,0,0,0,0,-1,1308,1303,0,0
91,-279,0,0,0,0,0,0,0,0,0,-1,1315,1303,0,0
98,-279,0,0,0,0,0,0,0,0,0,-1,1322,1303,0,0
105,-279,0,0,0,0,0,0,0,0,0,-1,1329,1303,0,0
112,-279,0,0,0,0,0,0,0,0,0,-1,1336,1303,0,0
119,-279,0,0,0,0,0,0,0,0,0,-1,1343,1303,0,0
126,-279,0,0,0,0,0,0,0,0,0,-1,1350,1303,0,0
133,-279,0,0,0,0,0,0,0,0,0,-1,1357,1303,0,0
140,-279,0,0,0,0,0,0,0,0,0,-1,1364,1303,0,0
147,-279,0,0,0,0,0,0,0,0,0,-1,1371,1303,0,0
154,-279,0,0,0,0,0,0,0,0,0,-1,1378,1303,0,0
161,-279,0,0,0,0,0,0,0,0,0,-1,1385,1303,0,0
168,-279,0,0,0,0,0,0,0,0,0,-1,1392,1303,0,0
175,-279,0,0,0,0,0,0,0,0,0,-1,1399,1303,0,0
182,-279,0,0,0,0,0,0,0,0,0,-1,1406,1303,0,0
189,-279,0,0,0,0,0,0,0,0,0,-1,1413,1303,0,0
196,-279,0,0,0,0,0,0,0,0,0,-1,1420,1303,0,0
203,-279,0,0,0,0,0,0,0,0,0,-1,1427,1303,0,0
210,-279,0,0,0,0,0,0,0,0,0,-1,1434,1303,0,0
217,-279,0,0,0,0,0,0,0,0,0,-1,1441,1303,0,0
224,-279,0,0,0,0,0,0,0,0,0,-1,1448,1303,0,0
231,-279,0,0,0,0,0,0,0,0,0,-1,1455,1303,0,0
238,-279,0,0,0,0,0,0,0,0,0,-1,1462,1303,0,0
245,-279,0,0,0,0,0,0,0,0,0,-1,1469,1303,0,0
252,-279,0,0,0,0,0,0,0,0,0,-1,1476,1303,0,0
259,-279,0,0,0,0,0,0,0,0,0,-1,1483,1303,0,0
266,-279,0,0,0,0,0,0,0,0,0,-1,1490,1303,0,0
273,-279,0,0,0,0,0,0,0,0,0,-1,1497,1303,0,0
280,-279,0,0,0,0,0,0,0,0,0,-1,1504,1303,0,0
287,-279,0,0,0,0,0,0,0,0,0,-1,1511,1303,0,0
294,-279,0,0,0,0,0,0,0,0,0,-1,1518,1303,0,0
301,-279,0,0,0,0,0,0,0,0,0,-1,1525,1303,0,0
308,-279,0,0,0,0,0,0,0,0,0,-1,1532,1303,0,0
315,-279,0,0,0,0,0,0,0,0,0,-1,1539,1303,0,0
322,-279,0,0,0,0,0,0,0,0,0,-1,1546,1303,0,0
329,-279,0,0,0,0,0,0,0,0,0,-1,1553,1303,0,0
336,-279,0,0,0,0,0,0,0,0,0,-1,1560,1303,0,0
343,-279,0,0,0,0,0,0,0,0,0,-1,1567,1303,0,0
350,-279,0,0,0,0,0,0,0,0,0,-1,1574,1303,0,0
357,-279,0,0,0,0,0,0,0,0,0,-1,1581,1303,0,0
364,-279,0,0,0,0,0,0,0,0,0,-1,1588,1303,0,0
371,-279,0,0,0,0,0,0,0,0,0,-1,1595,1303,0,0
378,-279,0,0,0,0,0,0,0,0,0,-1,1602,1303,0,0
385,-279,0,0,0,0,0,0,0,0,0,-1,1609,1303,0,0
392,-279,0,0,0,0,0,0,0,0,0,-1,1616,1303,0,0
399,-279,0,0,0,0,0,0,0,0,0,-1,1623,1303,0,0
406,-279,0,0,0,0,0,0,0,0,0,-1,1630,1303,0,0
413,-279,0,0,0,0,0,0,0,0,0,-1,1637,1303,0,0
420,-279,0,0,0,0,0,0,0,0,0,-1,1644,1303,0,0
427,-279,0,0,0,0,0,0,0,0,0,-1,1651,1303,0,0
434,-279,0,0,0,0,0,0,0,0,0,-1,1658,1303,0,0
441,-279,0,0,0,0,0,0,0,0,0,-1,1665,1303,0,0
448,-279,0,0,0,0,0,0,0,0,0,-1,1672,1303,0,0
455,-279,0,0,0,0,0,0,0,0,0,-1,1679,1303,0,0
462,-279,0,0,0,0,0,0,0,0,0,-1,1686,1303,0,0
469,-279,0,0,0,0,0,0,0,0,0,-1,1693,1303,0,0
476,-279,0,0,0,0,0,0,0,0,0,-1,1700,1303,0,0
483,-279,0,0,0,0,0,0,0,0,0,-1,1707,1303,0,0
490,-279,0,0,0,0,0,0,0,0,0,-1,1714,1303,0,0
497,-279,0,0,0,0,0,0,0,0,0,-1,1721,1303,0,0
504,-279,0,0,0,0,0,0,0,0,0,-1,1728,1303,0,0
511,-279,0,0,0,0,0,0,0,0,0,-1,1735,1303,0,0
518,-279,0,0,0,0,0,0,0,0,0,-1,1742,1303,0,0
525,-279,0,0,0,0,0,0,0,0,0,-1,1749,1303,0,0
532,-279,0,0,0,0,0,0,0,0,0,-1,1756,1303,0,0
539,-279,0,0,0,0,0,0,0,0,0,-1,1763,1303,0,0
546,-279,0,0,0,0,0,0,0,0,0,-1,1770,1303,0,0
553,-279,0,0,0,0,0,0,0,0,0,-1,1777,1303,0,0
560,-279,0,0,0,0,0,0,0,0,0,-1,1784,1303,0,0
567,-279,0,0,0,0,0,0,0,0,0,-1,1791,1303,0,0
574,-279,0,0,0,0,0,0,0,0,0,-1,1798,1303,0,0
581,-279,0,0,0,0,0,0,0,0,0,-1,1805,1303,0,0
588,-279,0,0,0,0,0,0,0,0,0,-1,1812,1303,0,0
595,-279,0,0,0,0,0,0,0,0,0,-1,1819,1303,0,0
602,-279,24.6218,2.71704,0.0224169,-0.0189544,-0.0133255,0.0263374,-0.0228749,-0.286141,0.0284362,0.0430201,1826,1303,24.6218,-2.71702
609,-279,24.6099,2.60229,0.0136532,-0.0237187,-0.0117427,0.0170365,-0.0271021,-0.280528,0.0257034,0.0471966,1833,1303,24.6098,-2.60231
616,-279,25.3973,2.42139,0,0,0,0,0,0,0,-1,1840,1303,25.3974,-2.42138
623,-279,25.7295,2.96191,-0.000411829,-0.0197609,-0.00623806,0.00142493,-0.0215977,-0.286352,0.0148962,0.0459372,1847,1303,25.7295,-2.96192
630,-279,25.5244,3.42981,-0.00439801,-0.0161434,-0.00403408,-0.00314593,-0.0173955,-0.300948,0.0107036,0.0438157,1854,1303,25.5244,-3.42985
637,-279,25.4769,3.61047,-0.0068343,-0.0128126,-0.00236724,-0.00601047,-0.0136364,-0.334906,0.00789137,0.0477841,1861,1303,25.477,-3.61048
644,-279,25.4348,3.73328,0,0,0,0,0,0,0,-1,1868,1303,25.4348,-3.73327
651,-279,20.5229,2.6499,0,0,0,0,0,0,0,-1,1875,1303,20.523,-2.64987
658,-279,19.2148,6.17822,0,0,0,0,0,0,0,-1,1882,1303,19.2148,-6.17828
665,-279,18.9794,6.09607,0,0,0,0,0,0,0,-1,1889,1303,18.9793,-6.09601
672,-279,19.0566,6.3302,0,0,0,0,0,0,0,-1,1896,1303,19.0566,-6.33014
679,-279,19.0962,6.38086,-0.00815843,-0.00265093,0.00145134,-0.00229187,-0.00851748,1.32827,0.00508939,0.0339052,1903,1303,19.0961,-6.38085
686,-279,19.0322,6.11926,-0.0062896,-0.00133415,0.00131773,-0.00100554,-0.00661822,1.3264,0.00411809,0.0202225,1910,1303,19.0322,-6.11929
693,-279,19.0234,5.89087,-0.00421451,-0.000387823,0.00125262,-1.42627e-05,-0.00458807,1.28097,0.00305397,0.016669,1917,1303,19.0235,-5.89084
700,-279,19.0468,5.6925,-0.00194169,5.95814e-06,0.000841523,0.000319182,-0.00225492,1.21447,0.00162019,0.0113915,1924,1303,19.0468,-5.69256
707,-279,19.0477,5.47131,-0.000665141,0.000628063,0.000235592,0.000669645,-0.000706723,1.39609,0.000794743,0.00877078,1931,1303,19.0477,-5.4713
714,-279,19.0293,5.23682,0.000385475,0.0013459,-0.000360149,0.00146595,0.000265429,-1.24905,0.000901938,0.00981183,1938,1303,19.0293,-5.23677
721,-279,19.0441,5.02856,0.00103196,0.00162458,-0.000585596,0.00198456,0.000671976,-1.01961,0.00116552,0.0115763,1945,1303,19.044,-5.02858
728,-279,19.062,4.82251,0.00130526,0.000958766,-0.000153517,0.00136349,0.000900535,-0.362548,0.00080061,0.0128908,1952,1303,19.062,-4.82257
735,-279,19.0527,4.62231,0.00112962,3.64954e-06,0.000709626,0.00147246,-0.000339191,0.450059,0.00111208,0.0126331,1959,1303,19.0527,-4.62232
742,-279,18.9742,4.38184,0.000869801,-0.00175497,0.00210853,0.00204101,-0.00292618,0.507027,0.00288295,0.0240298,1966,1303,18.9743,-4.38182
749,-279,18.7849,4.02234,0.000262324,-0.00496202,0.00449922,0.00285269,-0.00755239,0.522388,0.00620827,0.0429925,1973,1303,18.7849,-4.0223
756,-279,18.7014,3.6792,0,0,0,0,0,0,0,-1,1980,1303,18.7014,-3.67919
763,-279,18.1707,3.07861,0,0,0,0,0,0,0,-1,1987,1303,18.1707,-3.07866
770,-279,18.2202,3.3125,0,0,0,0,0,0,0,-1,1994,1303,18.2202,-3.31256
777,-279,15.3864,1.55225,0,0,0,0,0,0,0,-1,2001,1303,15.3863,-1.55222
784,-279,0,0,0,0,0,0,0,0,0,-1,2008,1303,0,0
791,-279,0,0,0,0,0,0,0,0,0,-1,2015,1303,0,0
798,-279,0,0,0,0,0,0,0,0,0,-1,2022,1303,0,0
805,-279,0,0,0,0,0,0,0,0,0,-1,2029,1303,0,0
812,-279,0,0,0,0,0,0,0,0,0,-1,2036,1303,0,0
-700,-286,0,0,0,0,0,0,0,0,0,-1,524,1310,0,0
-693,-286,0,0,0,0,0,0,0,0,0,-1,531,1310,0,0
-686,-286,0,0,0,0,0,0,0,0,0,-1,538,1310,0,0
-679,-286,0,0,0,0,0,0,0,0,0,-1,545,1310,0,0
-672,-286,0,0,0,0,0,0,0,0,0,-1,552,1310,0,0
-665,-286,0,0,0,0,0,0,0,0,0,-1,559,1310,0,0
-658,-286,-9.18164,-4.71216,0,0,0,0,0,0,0,-1,566,1310,-9.18162,4.71218
-651,-286,-8.6734,-4.27454,0,0,0,0,0,0,0,-1,573,1310,-8.67342,4.2745
-644,-286,-8.68896,-1.70825,0,0,0,0,0,0,0,-1,580,1310,-8.68896,1.70824
-637,-286,-8.7464,-1.18005,0.0493347,0.0814757,-0.0102153,0.0844476,0.0463628,-1.28768,0.0488339,0.0462214,587,1310,-8.74637,1.18002
-630,-286,-8.87561,-0.672485,0.0325384,0.0679188,-0.000693383,0.0679324,0.0325248,-1.55121,0.0392325,0.0485368,594,1310,-8.87559,0.672542
-623,-286,-10.8625,-0.764038,0.0198186,0.0552882,0.00550643,0.0561233,0.0189834,1.42027,0.0329632,0.0443141,601,1310,-10.8625,0.76407
-616,-286,-10.5184,0.414917,0.0107967,0.0436853,0.0088294,0.0459058,0.00857626,1.32442,0.0281835,0.0441081,608,1310,-10.5184,-0.414869
-609,-286,-10.185,1.47766,0.00495172,0.0333562,0.00986944,0.0364488,0.00185918,1.26714,0.0237038,0.0360525,615,1310,-10.185,-1.4777
-602,-286,-10.0892,2.25525,0.00137449,0.0240362,0.00949304,0.0274873,-0.0020766,1.22211,0.0190548,0.0149731,622,1310,-10.0892,-2.25522
-595,-286,-10.1158,2.55347,-0.0021309,0.0163732,0.00946822,0.0203593,-0.00611696,1.17232,0.0160063,0.0105891,629,1310,-10.1158,-2.55344
-588,-286,-10.1089,2.80103,-0.00286541,0.010801,0.0079928,0.0144833,-0.0065478,1.13907,0.0124271,0.010546,636,1310,-10.109,-2.80105
-581,-286,-10.105,3.0498,-0.00120115,0.00658828,0.00510216,0.00911235,-0.00372522,1.11139,0.00762621,0.0136824,643,1310,-10.105,-3.0498
-574,-286,-10.1401,3.30298,0.000483781,0.00338384,0.00273295,0.00502761,-0.00115999,1.0293,0.00379792,0.0151656,650,1310,-10.1401,-3.30301
-567,-286,-10.144,3.56152,0.00138809,0.000758846,0.00107072,0.00218945,-4.25183e-05,0.6425,0.00147401,0.0139778,657,1310,-10.1441,-3.5615
-560,-286,-10.1218,3.83386,0.00105254,-3.52156e-05,7.14655e-05,0.00105722,-3.98907e-05,0.0653255,0.000718478,0.0132743,664,1310,-10.1218,-3.83387
-553,-286,-10.1089,4.09949,-0.000223219,0.00105571,-0.000804098,0.00144362,-0.000611124,-1.12132,0.00121833,0.0100607,671,1310,-10.1089,-4.09943
-546,-286,-10.1085,4.37219,-0.00248455,0.00248461,-0.00147479,0.00288934,-0.00288928,-1.30296,0.00333629,0.0127951,678,1310,-10.1085,-4.37215
-539,-286,-10.1379,4.66382,-0.00587822,0.00466021,-0.00251821,0.00523103,-0.00644904,-1.34789,0.0067557,0.0330961,685,1310,-10.1379,-4.66386
-532,-286,-10.1348,4.9657,0,0,0,0,0,0,0,-1,692,1310,-10.1348,-4.96572
-525,-286,-11.4528,-1.11768,0,0,0,0,0,0,0,-1,699,1310,-11.4528,1.11769
-518,-286,-11.0701,1.37329,0,0,0,0,0,0,0,-1,706,1310,-11.0701,-1.37332
-511,-286,-12.5867,1.32056,0,0,0,0,0,0,0,-1,713,1310,-12.5867,-1.32051
-504,-286,-12.8685,-1.54395,0,0,0,0,0,0,0,-1,720,1310,-12.8684,1.54394
-497,-286,-13.5206,-0.774414,0,0,0,0,0,0,0,-1,727,1310,-13.5206,0.774359
-490,-286,-13.923,0.170776,0,0,0,0,0,0,0,-1,734,1310,-13.923,-0.170776
-483,-286,-14.7314,0.420166,0,0,0,0,0,0,0,-1,741,1310,-14.7314,-0.420166
-476,-286,-15.3409,0.904541,0,0,0,0,0,0,0,-1,748,1310,-15.3409,-0.904512
-469,-286,0,0,0,0,0,0,0,0,0,-1,755,1310,0,0
-462,-286,0,0,0,0,0,0,0,0,0,-1,762,1310,0,0
-455,-286,0,0,0,0,0,0,0,0,0,-1,769,1310,0,0
-448,-286,0,0,0,0,0,0,0,0,0,-1,776,1310,0,0
-441,-286,0,0,0,0,0,0,0,0,0,-1,783,1310,0,0
-434,-286,0,0,0,0,0,0,0,0,0,-1,790,1310,0,0
-427,-286,0,0,0,0,0,0,0,0,0,-1,797,1310,0,0
-420,-286,0,0,0,0,0,0,0,0,0,-1,804,1310,0,0
-413,-286,0,0,0,0,0,0,0,0,0,-1,811,1310,0,0
-406,-286,0,0,0,0,0,0,0,0,0,-1,818,1310,0,0
-399,-286,0,0,0,0,0,0,0,0,0,-1,825,1310,0,0
-392,-286,0,0,0,0,0,0,0,0,0,-1,832,1310,0,0
-385,-286,0,0,0,0,0,0,0,0,0,-1,839,1310,0,0
-378,-286,0,0,0,0,0,0,0,0,0,-1,846,1310,0,0
-371,-286,0,0,0,0,0,0,0,0,0,-1,853,1310,0,0
-364,-286,0,0,0,0,0,0,0,0,0,-1,860,1310,0,0
-357,-286,0,0,0,0,0,0,0,0,0,-1,867,1310,0,0
-350,-286,0,0,0,0,0,0,0,0,0,-1,874,1310,0,0
-343,-286,0,0,0,0,0,0,0,0,0,-1,881,1310,0,0
-336,-286,0,0,0,0,0,0,0,0,0,-1,888,1310,0,0
-329,-286,0,0,0,0,0,0,0,0,0,-1,895,1310,0,0
-322,-286,0,0,0,0,0,0,0,0,0,-1,902,1310,0,0
-315,-286,0,0,0,0,0,0,0,0,0,-1,909,1310,0,0
-308,-286,0,0,0,0,0,0,0,0,0,-1,916,1310,0,0
-301,-286,0,0,0,0,0,0,0,0,0,-1,923,1310,0,0
-294,-286,0,0,0,0,0,0,0,0,0,-1,930,1310,0,0
-287,-286,0,0,0,0,0,0,0,0,0,-1,937,1310,0,0
-280,-286,0,0,0,0,0,0,0,0,0,-1,944,1310,0,0
-273,-286,0,0,0,0,0,0,0,0,0,-1,951,1310,0,0
-266,-286,0,0,0,0,0,0,0,0,0,-1,958,1310,0,0
-259,-286,0,0,0,0,0,0,0,0,0,-1,965,1310,0,0
-252,-286,0,0,0,0,0,0,0,0,0,-1,972,1310,0,0
-245,-286,0,0,0,0,0,0,0,0,0,-1,979,1310,0,0
-238,-286,0,0,0,0,0,0,0,0,0,-1,986,1310,0,0
-231,-286,0,0,0,0,0,0,0,0,0,-1,993,1310,0,0
-224,-286,0,0,0,0,0,0,0,0,0,-1,1000,1310,0,0
-217,-286,0,0,0,0,0,0,0,0,0,-1,1007,1310,0,0
-210,-286,0,0,0,0,0,0,0,0,0,-1,1014,1310,0,0
-203,-286,0,0,0,0,0,0,0,0,0,-1,1021,1310,0,0
-196,-286,0,0,0,0,0,0,0,0,0,-1,1028,1310,0,0
-189,-286,0,0,0,0,0,0,0,0,0,-1,1035,1310,0,0
-182,-286,0,0,0,0,0,0,0,0,0,-1,1042,1310,0,0
-175,-286,0,0,0,0,0,0,0,0,0,-1,1049,1310,0,0
-168,-286,0,0,0,0,0,0,0,0,0,-1,1056,1310,0,0
-161,-286,0,0,0,0,0,0,0,0,0,-1,1063,1310,0,0
-154,-286,0,0,0,0,0,0,0,0,0,-1,1070,1310,0,0
-147,-286,0,0,0,0,0,0,0,0,0,-1,1077,1310,0,0
-140,-286,0,0,0,0,0,0,0,0,0,-1,1084,1310,0,0
-133,-286,0,0,0,0,0,0,0,0,0,-1,1091,1310,0,0
-126,-286,0,0,0,0,0,0,0,0,0,-1,1098,1310,0,0
-119,-286,0,0,0,0,0,0,0,0,0,-1,1105,1310,0,0
-112,-286,0,0,0,0,0,0,0,0,0,-1,1112,1310,0,0
-105,-286,0,0,0,0,0,0,0,0,0,-1,1119,1310,0,0
-98,-286,0,0,0,0,0,0,0,0,0,-1,1126,1310,0,0
-91,-286,0,0,0,0,0,0,0,0,0,-1,1133,1310,0,0
-84,-286,0,0,0,0,0,0,0,0,0,-1,1140,1310,0,0
-77,-286,0,0,0,0,0,0,0,0,0,-1,1147,1310,0,0
-70,-286,0,0,0,0,0,0,0,0,0,-1,1154,1310,0,0
-63,-286,0,0,0,0,0,0,0,0,0,-1,1161,1310,0,0
-56,-286,0,0,0,0,0,0,0,0,0,-1,1168,1310,0,0
-49,-286,0,0,0,0,0,0,0,0,0,-1,1175,1310,0,0
-42,-286,0,0,0,0,0,0,0,0,0,-1,1182,1310,0,0
-35,-286,0,0,0,0,0,0,0,0,0,-1,1189,1310,0,0
-28,-286,0,0,0,0,0,0,0,0,0,-1,1196,1310,0,0
-21,-286,0,0,0,0,0,0,0,0,0,-1,1203,1310,0,0
-14,-286,0,0,0,0,0,0,0,0,0,-1,1210,1310,0,0
-7,-286,0,0,0,0,0,0,0,0,0,-1,1217,1310,0,0
0,-286,0,0,0,0,0,0,0,0,0,-1,1224,1310,0,0
7,-286,0,0,0,0,0,0,0,0,0,-1,1231,1310,0,0
14,-286,0,0,0,0,0,0,0,0,0,-1,1238,1310,0,0
21,-286,0,0,0,0,0,0,0,0,0,-1,1245,1310,0,0
28,-286,0,0,0,0,0,0,0,0,0,-1,1252,1310,0,0
35,-286,0,0,0,0,0,0,0,0,0,-1,1259,1310,0,0
42,-286,0,0,0,0,0,0,0,0,0,-1,1266,1310,0,0
49,-286,0,0,0,0,0,0,0,0,0,-1,1273,1310,0,0
56,-286,0,0,0,0,0,0,0,0,0,-1,1280,1310,0,0
63,-286,0,0,0,0,0,0,0,0,0,-1,1287,1310,0,0
70,-286,0,0,0,0,0,0,0,0,0,-1,1294,1310,0,0
77,-286,0,0,0,0,0,0,0,0,0,-1,1301,1310,0,0
84,-286,0,0,0,0,0,0,0,0,0,-1,1308,1310,0,0
91,-286,0,0,0,0,0,0,0,0,0,-1,1315,1310,0,0
98,-286,0,0,0,0,0,0,0,0,0,-1,1322,1310,0,0
105,-286,0,0,0,0,0,0,0,0,0,-1,1329,1310,0,0
112,-286,0,0,0,0,0,0,0,0,0,-1,1336,1310,0,0
119,-286,0,0,0,0,0,0,0,0,0,-1,1343,1310,0,0
126,-286,0,0,0,0,0,0,0,0,0,-1,1350,1310,0,0
133,-286,0,0,0,0,0,0,0,0,0,-1,1357,1310,0,0
140,-286,0,0,0,0,0,0,0,0,0,-1,1364,1310,0,0
147,-286,0,0,0,0,0,0,0,0,0,-1,1371,1310,0,0
154,-286,0,0,0,0,0,0,0,0,0,-1,1378,1310,0,0
161,-286,0,0,0,0,0,0,0,0,0,-1,1385,1310,0,0
168,-286,0,0,0,0,0,0,0,0,0,-1,1392,1310,0,0
175,-286,0,0,0,0,0,0,0,0,0,-1,1399,1310,0,0
182,-286,0,0,0,0,0,0,0,0,0,-1,1406,1310,0,0
189,-286,0,0,0,0,0,0,0,0,0,-1,1413,1310,0,0
196,-286,0,0,0,0,0,0,0,0,0,-1,1420,1310,0,0
203,-286,0,0,0,0,0,0,0,0,0,-1,1427,1310,0,0
210,-286,0,0,0,0,0,0,0,0,0,-1,1434,1310,0,0
217,-286,0,0,0,0,0,0,0,0,0,-1,1441,1310,0,0
224,-286,0,0,0,0,0,0,0,0,0,-1,1448,1310,0,0
231,-286,0,0,0,0,0,0,0,0,0,-1,1455,1310,0,0
238,-286,0,0,0,0,0,0,0,0,0,-1,1462,1310,0,0
245,-286,0,0,0,0,0,0,0,0,0,-1,1469,1310,0,0
252,-286,0,0,0,0,0,0,0,0,0,-1,1476,1310,0,0
259,-286,0,0,0,0,0,0,0,0,0,-1,1483,1310,0,0
266,-286,0,0,0,0,0,0,0,0,0,-1,1490,1310,0,0
273,-286,0,0,0,0,0,0,0,0,0,-1,1497,1310,0,0
280,-286,0,0,0,0,0,0,0,0,0,-1,1504,1310,0,0
287,-286,0,0,0,0,0,0,0,0,0,-1,1511,1310,0,0
294,-286,0,0,0,0,0,0,0,0,0,-1,1518,1310,0,0
301,-286,0,0,0,0,0,0,0,0,0,-1,1525,1310,0,0
308,-286,0,0,0,0,0,0,0,0,0,-1,1532,1310,0,0
315,-286,0,0,0,0,0,0,0,0,0,-1,1539,1310,0,0
322,-286,0,0,0,0,0,0,0,0,0,-1,1546,1310,0,0
329,-286,0,0,0,0,0,0,0,0,0,-1,1553,1310,0,0
336,-286,0,0,0,0,0,0,0,0,0,-1,1560,1310,0,0
343,-286,0,0,0,0,0,0,0,0,0,-1,1567,1310,0,0
350,-286,0,0,0,0,0,0,0,0,0,-1,1574,1310,0,0
357,-286,0,0,0,0,0,0,0,0,0,-1,1581,1310,0,0
364,-286,0,0,0,0,0,0,0,0,0,-1,1588,1310,0,0
371,-286,0,0,0,0,0,0,0,0,0,-1,1595,1310,0,0
378,-286,0,0,0,0,0,0,0,0,0,-1,1602,1310,0,0
385,-286,0,0,0,0,0,0,0,0,0,-1,1609,1310,0,0
392,-286,0,0,0,0,0,0,0,0,0,-1,1616,1310,0,0
399,-286,0,0,0,0,0,0,0,0,0,-1,1623,1310,0,0
406,-286,0,0,0,0,0,0,0,0,0,-1,1630,1310,0,0
413,-286,0,0,0,0,0,0,0,0,0,-1,1637,1310,0,0
420,-286,0,0,0,0,0,0,0,0,0,-1,1644,1310,0,0
427,-286,0,0,0,0,0,0,0,0,0,-1,1651,1310,0,0
434,-286,0,0,0,0,0,0,0,0,0,-1,1658,1310,0,0
441,-286,0,0,0,0,0,0,0,0,0,-1,1665,1310,0,0
448,-286,0,0,0,0,0,0,0,0,0,-1,1672,1310,0,0
455,-286,0,0,0,0,0,0,0,0,0,-1,1679,1310,0,0
462,-286,0,0,0,0,0,0,0,0,0,-1,1686,1310,0,0
469,-286,0,0,0,0,0,0,0,0,0,-1,1693,1310,0,0
476,-286,0,0,0,0,0,0,0,0,0,-1,1700,1310,0,0
483,-286,0,0,0,0,0,0,0,0,0,-1,1707,1310,0,0
490,-286,0,0,0,0,0,0,0,0,0,-1,1714,1310,0,0
497,-286,0,0,0,0,0,0,0,0,0,-1,1721,1310,0,0
504,-286,0,0,0,0,0,0,0,0,0,-1,1728,1310,0,0
511,-286,0,0,0,0,0,0,0,0,0,-1,1735,1310,0,0
518,-286,0,0,0,0,0,0,0,0,0,-1,1742,1310,0,0
525,-286,0,0,0,0,0,0,0,0,0,-1,1749,1310,0,0
532,-286,0,0,0,0,0,0,0,0,0,-1,1756,1310,0,0
539,-286,0,0,0,0,0,0,0,0,0,-1,1763,1310,0,0
546,-286,0,0,0,0,0,0,0,0,0,-1,1770,1310,0,0
553,-286,0,0,0,0,0,0,0,0,0,-1,1777,1310,0,0
560,-286,0,0,0,0,0,0,0,0,0,-1,1784,1310,0,0
567,-286,0,0,0,0,0,0,0,0,0,-1,1791,1310,0,0
574,-286,0,0,0,0,0,0,0,0,0,-1,1798,1310,0,0
581,-286,0,0,0,0,0,0,0,0,0,-1,1805,1310,0,0
588,-286,0,0,0,0,0,0,0,0,0,-1,1812,1310,0,0
595,-286,24.7893,2.8855,0,0,0,0,0,0,0,-1,1819,1310,24.7893,-2.88552
602,-286,24.7744,2.77039,0.0244975,-0.0308958,-0.0180022,0.0298339,-0.0362322,-0.288181,0.0382029,0.048948,1826,1310,24.7744,-2.77041
609,-286,24.6285,2.68579,0.0151152,-0.0337581,-0.0152838,0.0195012,-0.0381441,-0.279461,0.0338567,0.0455267,1833,1310,24.6285,-2.68577
616,-286,26.3273,2.17163,0,0,0,0,0,0,0,-1,1840,1310,26.3272,-2.17161
623,-286,26.3158,2.7644,0.00158785,-0.025418,-0.00805003,0.00380536,-0.0276355,-0.268799,0.0198143,0.0479971,1847,1310,26.3158,-2.76441
630,-286,25.7286,3.6814,-0.0026054,-0.0204199,-0.00524171,-0.00117754,-0.0218478,-0.265951,0.014189,0.0434343,1854,1310,25.7287,-3.68142
637,-286,25.7689,3.68579,0,0,0,0,0,0,0,-1,1861,1310,25.7689,-3.68577
644,-286,22.1676,2.08484,0,0,0,0,0,0,0,-1,1868,1310,22.1675,-2.08479
651,-286,18.3739,6.07556,0,0,0,0,0,0,0,-1,1875,1310,18.3738,-6.07553
658,-286,19.7037,7.47058,0,0,0,0,0,0,0,-1,1882,1310,19.7037,-7.4706
665,-286,19.3043,6.76245,0,0,0,0,0,0,0,-1,1889,1310,19.3043,-6.76245
672,-286,19.0454,6.63525,-0.00968715,-0.00301382,0.00191328,-0.00250419,-0.0101968,1.31048,0.00613589,0.0354653,1896,1310,19.0455,-6.63524
679,-286,18.7833,6.38428,-0.00802929,-0.00267852,0.0017304,-0.00216769,-0.00854012,1.28374,0.00512598,0.0238631,1903,1310,18.7833,-6.38423
686,-286,18.7903,6.13293,-0.00596198,-0.00128958,0.00141054,-0.000896777,-0.00635479,1.2992,0.00397149,0.0200876,1910,1310,18.7902,-6.13289
693,-286,18.8016,5.90698,-0.00389078,-0.000306756,0.00116064,3.62692e-05,-0.00423381,1.28343,0.00283471,0.0162383,1917,1310,18.8016,-5.90696
700,-286,18.8236,5.69128,-0.00169677,0.000247342,0.000553554,0.000393908,-0.00184334,1.31196,0.00137907,0.0113641,1924,1310,18.8236,-5.69123
707,-286,18.814,5.50256,-0.000193276,0.00102545,-0.000248126,0.00107403,-0.000241856,-1.37745,0.000808786,0.00850837,1931,1310,18.814,-5.50251
714,-286,18.7996,5.27429,0.00120434,0.00188713,-0.00109439,0.00269213,0.000399329,-0.936591,0.00167756,0.00844029,1938,1310,18.7995,-5.27429
721,-286,18.8226,5.03699,0.00232686,0.00245287,-0.00170808,0.0040991,0.000680627,-0.803833,0.00253648,0.0105173,1945,1310,18.8227,-5.037
728,-286,18.8079,4.81152,0.00322688,0.00228946,-0.00183917,0.00465612,0.000860215,-0.660629,0.00286078,0.0136298,1952,1310,18.8078,-4.81152
735,-286,18.8101,4.60559,0.00387252,0.001819,-0.00164107,0.00478156,0.00090995,-0.50586,0.00293185,0.0157866,1959,1310,18.8101,-4.60557
742,-286,18.7737,4.38354,0.00465741,0.000662077,-0.001066,0.00492404,0.000395452,-0.24509,0.00315914,0.0291156,1966,1310,18.7737,-4.3835
749,-286,18.5677,3.98547,0.00534062,-0.00185544,0.000354255,0.00535802,-0.00187283,0.0490709,0.00433336,0.0427699,1973,1310,18.5678,-3.98547
756,-286,18.3098,3.69031,0,0,0,0,0,0,0,-1,1980,1310,18.3098,-3.69026
763,-286,18.3213,3.69092,0,0,0,0,0,0,0,-1,1987,1310,18.3213,-3.69086
770,-286,18.3326,3.9071,0,0,0,0,0,0,0,-1,1994,1310,18.3327,-3.90709
777,-286,0,0,0,0,0,0,0,0,0,-1,2001,1310,0,0
784,-286,0,0,0,0,0,0,0,0,0,-1,2008,1310,0,0
791,-286,0,0,0,0,0,0,0,0,0,-1,2015,1310,0,0
798,-286,0,0,0,0,0,0,0,0,0,-1,2022,1310,0,0
805,-286,0,0,0,0,0,0,0,0,0,-1,2029,1310,0,0
812,-286,0,0,0,0,0,0,0,0,0,-1,2036,1310,0,0
-700,-293,0,0,0,0,0,0,0,0,0,-1,524,1317,0,0
-693,-293,0,0,0,0,0,0,0,0,0,-1,531,1317,0,0
-686,-293,0,0,0,0,0,0,0,0,0,-1,538,1317,0,0
-679,-293,0,0,0,0,0,0,0,0,0,-1,545,1317,0,0
-672,-293,0,0,0,0,0,0,0,0,0,-1,552,1317,0,0
-665,-293,0,0,0,0,0,0,0,0,0,-1,559,1317,0,0
-658,-293,0,0,0,0,0,0,0,0,0,-1,566,1317,0,0
-651,-293,-11.9097,0.0355225,0,0,0,0,0,0,0,-1,573,1317,-11.9096,-0.0355521
-644,-293,-10.8839,-0.45874,0,0,0,0,0,0,0,-1,580,1317,-10.8839,0.458747
-637,-293,-8.31055,-1.80322,0,0,0,0,0,0,0,-1,587,1317,-8.31056,1.80316
-630,-293,-8.41046,-1.00989,0,0,0,0,0,0,0,-1,594,1317,-8.41044,1.00985
-623,-293,-8.15833,-0.577881,0,0,0,0,0,0,0,-1,601,1317,-8.1583,0.577898
-616,-293,-9.58173,0.931641,0.0156808,0.0451442,0.00602494,0.0463286,0.0144964,1.37669,0.0273649,0.0421592,608,1317,-9.58175,-0.931591
-609,-293,-9.58289,1.62061,0.00767563,0.0349756,0.00841196,0.0373595,0.00529181,1.29465,0.0233432,0.0394953,615,1317,-9.58286,-1.62059
-602,-293,-9.76166,2.1543,0.00262943,0.025486,0.00884182,0.0285071,-0.000391628,1.24155,0.0191366,0.0304602,622,1317,-9.76167,-2.15433
-595,-293,-9.87817,2.52087,-0.00216342,0.0176093,0.00953585,0.0214588,-0.00601287,1.18712,0.0166755,0.0149261,629,1317,-9.87819,-2.52083
-588,-293,-9.86621,2.77551,-0.0035022,0.0119053,0.00833482,0.0155513,-0.0071482,1.15843,0.0134016,0.01379,636,1317,-9.86624,-2.77554
-581,-293,-9.84357,3.03979,-0.00183238,0.00749665,0.00537801,0.00995117,-0.0042869,1.14263,0.0084344,0.0169327,643,1317,-9.84355,-3.0398
-574,-293,-9.85468,3.32605,-0.000158778,0.00410064,0.00296541,0.00562187,-0.00168,1.09681,0.00441576,0.0165735,650,1317,-9.85465,-3.32605
-567,-293,-9.8822,3.59888,0.00074358,0.00121517,0.00114802,0.00215136,-0.000192616,0.886685,0.00150257,0.0155959,657,1317,-9.88219,-3.59888
-560,-293,-9.86823,3.85657,0.000532299,4.60558e-05,-1.16834e-05,0.000532579,4.57752e-05,-0.0240095,0.000340821,0.0159978,664,1317,-9.8682,-3.85659
-553,-293,-9.85199,4.1051,-0.000261137,0.000420099,-0.000925472,0.00106564,-0.000906682,-0.961729,0.00113996,0.0111941,671,1317,-9.85198,-4.10513
-546,-293,-9.85193,4.38147,-0.00193263,0.00140636,-0.00166829,0.00209704,-0.00262331,-1.17828,0.00273093,0.00980345,678,1317,-9.85195,-4.38153
-539,-293,-9.84399,4.6532,-0.00468808,0.00304072,-0.00277313,0.00393277,-0.00558013,-1.25957,0.00551966,0.0266525,685,1317,-9.844,-4.65325
-532,-293,-9.82397,4.87427,0,0,0,0,0,0,0,-1,692,1317,-9.82399,-4.87427
-525,-293,-8.20642,3.62256,0,0,0,0,0,0,0,-1,699,1317,-8.20639,-3.6226
-518,-293,-10.1053,0.314209,0,0,0,0,0,0,0,-1,706,1317,-10.1053,-0.314234
-511,-293,-11.6276,0.235352,0,0,0,0,0,0,0,-1,713,1317,-11.6276,-0.235372
-504,-293,-12.7952,-0.503662,0,0,0,0,0,0,0,-1,720,1317,-12.7952,0.503708
-497,-293,-13.2831,-0.993774,0,0,0,0,0,0,0,-1,727,1317,-13.2832,0.993781
-490,-293,-13.5778,-0.0212402,0,0,0,0,0,0,0,-1,734,1317,-13.5778,0.0211991
-483,-293,-14.1409,0.455566,0,0,0,0,0,0,0,-1,741,1317,-14.1409,-0.455583
-476,-293,-13.4256,0.298706,0,0,0,0,0,0,0,-1,748,1317,-13.4256,-0.298756
-469,-293,0,0,0,0,0,0,0,0,0,-1,755,1317,0,0
-462,-293,0,0,0,0,0,0,0,0,0,-1,762,1317,0,0
-455,-293,0,0,0,0,0,0,0,0,0,-1,769,1317,0,0
-448,-293,0,0,0,0,0,0,0,0,0,-1,776,1317,0,0
-441,-293,0,0,0,0,0,0,0,0,0,-1,783,1317,0,0
-434,-293,0,0,0,0,0,0,0,0,0,-1,790,1317,0,0
-427,-293,0,0,0,0,0,0,0,0,0,-1,797,1317,0,0
-420,-293,0,0,0,0,0,0,0,0,0,-1,804,1317,0,0
-413,-293,0,0,0,0,0,0,0,0,0,-1,811,1317,0,0
-406,-293,0,0,0,0,0,0,0,0,0,-1,818,1317,0,0
-399,-293,0,0,0,0,0,0,0,0,0,-1,825,1317,0,0
-392,-293,0,0,0,0,0,0,0,0,0,-1,832,1317,0,0
-385,-293,0,0,0,0,0,0,0,0,0,-1,839,1317,0,0
-378,-293,0,0,0,0,0,0,0,0,0,-1,846,1317,0,0
-371,-293,0,0,0,0,0,0,0,0,0,-1,853,1317,0,0
-364,-293,0,0,0,0,0,0,0,0,0,-1,860,1317,0,0
-357,-293,0,0,0,0,0,0,0,0,0,-1,867,1317,0,0
-350,-293,0,0,0,0,0,0,0,0,0,-1,874,1317,0,0
-343,-293,0,0,0,0,0,0,0,0,0,-1,881,1317,0,0
-336,-293,0,0,0,0,0,0,0,0,0,-1,888,1317,0,0
-329,-293,0,0,0,0,0,0,0,0,0,-1,895,1317,0,0
-322,-293,0,0,0,0,0,0,0,0,0,-1,902,1317,0,0
-315,-293,0,0,0,0,0,0,0,0,0,-1,909,1317,0,0
-308,-293,0,0,0,0,0,0,0,0,0,-1,916,1317,0,0
-301,-293,0,0,0,0,0,0,0,0,0,-1,923,1317,0,0
-294,-293,0,0,0,0,0,0,0,0,0,-1,930,1317,0,0
-287,-293,0,0,0,0,0,0,0,0,0,-1,937,1317,0,0
-280,-293,0,0,0,0,0,0,0,0,0,-1,944,1317,0,0
-273,-293,0,0,0,0,0,0,0,0,0,-1,951,1317,0,0
-266,-293,0,0,0,0,0,0,0,0,0,-1,958,1317,0,0
-259,-293,0,0,0,0,0,0,0,0,0,-1,965,1317,0,0
-252,-293,0,0,0,0,0,0,0,0,0,-1,972,1317,0,0
-245,-293,0,0,0,0,0,0,0,0,0,-1,979,1317,0,0
-238,-293,0,0,0,0,0,0,0,0,0,-1,986,1317,0,0
-231,-293,0,0,0,0,0,0,0,0,0,-1,993,1317,0,0
-224,-293,0,0,0,0,0,0,0,0,0,-1,1000,1317,0,0
-217,-293,0,0,0,0,0,0,0,0,0,-1,1007,1317,0,0
-210,-293,0,0,0,0,0,0,0,0,0,-1,1014,1317,0,0
-203,-293,0,0,0,0,0,0,0,0,0,-1,1021,1317,0,0
-196,-293,0,0,0,0,0,0,0,0,0,-1,1028,1317,0,0
-189,-293,0,0,0,0,0,0,0,0,0,-1,1035,1317,0,0
-182,-293,0,0,0,0,0,0,0,0,0,-1,1042,1317,0,0
-175,-293,0,0,0,0,0,0,0,0,0,-1,1049,1317,0,0
-168,-293,0,0,0,0,0,0,0,0,0,-1,1056,1317,0,0
-161,-293,0,0,0,0,0,0,0,0,0,-1,1063,1317,0,0
-154,-293,0,0,0,0,0,0,0,0,0,-1,1070,1317,0,0
-147,-293,0,0,0,0,0,0,0,0,0,-1,1077,1317,0,0
-140,-293,0,0,0,0,0,0,0,0,0,-1,1084,1317,0,0
-133,-293,0,0,0,0,0,0,0,0,0,-1,1091,1317,0,0
-126,-293,0,0,0,0,0,0,0,0,0,-1,1098,1317,0,0
-119,-293,0,0,0,0,0,0,0,0,0,-1,1105,1317,0,0
-112,-293,0,0,0,0,0,0,0,0,0,-1,1112,1317,0,0
-105,-293,0,0,0,0,0,0,0,0,0,-1,1119,1317,0,0
-98,-293,0,0,0,0,0,0,0,0,0,-1,1126,1317,0,0
-91,-293,0,0,0,0,0,0,0,0,0,-1,1133,1317,0,0
-84,-293,0,0,0,0,0,0,0,0,0,-1,1140,1317,0,0
-77,-293,0,0,0,0,0,0,0,0,0,-1,1147,1317,0,0
-70,-293,0,0,0,0,0,0,0,0,0,-1,1154,1317,0,0
-63,-293,0,0,0,0,0,0,0,0,0,-1,1161,1317,0,0
-56,-293,0,0,0,0,0,0,0,0,0,-1,1168,1317,0,0
-49,-293,0,0,0,0,0,0,0,0,0,-1,1175,1317,0,0
-42,-293,0,0,0,0,0,0,0,0,0,-1,1182,1317,0,0
-35,-293,0,0,0,0,0,0,0,0,0,-1,1189,1317,0,0
-28,-293,0,0,0,0,0,0,0,0,0,-1,1196,1317,0,0
-21,-293,0,0,0,0,0,0,0,0,0,-1,1203,1317,0,0
-14,-293,0,0,0,0,0,0,0,0,0,-1,1210,1317,0,0
-7,-293,0,0,0,0,0,0,0,0,0,-1,1217,1317,0,0
0,-293,0,0,0,0,0,0,0,0,0,-1,1224,1317,0,0
7,-293,0,0,0,0,0,0,0,0,0,-1,1231,1317,0,0
14,-293,0,0,0,0,0,0,0,0,0,-1,1238,1317,0,0
21,-293,0,0,0,0,0,0,0,0,0,-1,1245,1317,0,0
28,-293,0,0,0,0,0,0,0,0,0,-1,1252,1317,0,0
35,-293,0,0,0,0,0,0,0,0,0,-1,1259,1317,0,0
42,-293,0,0,0,0,0,0,0,0,0,-1,1266,1317,0,0
49,-293,0,0,0,0,0,0,0,0,0,-1,1273,1317,0,0
56,-293,0,0,0,0,0,0,0,0,0,-1,1280,1317,0,0
63,-293,0,0,0,0,0,0,0,0,0,-1,1287,1317,0,0
70,-293,0,0,0,0,0,0,0,0,0,-1,1294,1317,0,0
77,-293,0,0,0,0,0,0,0,0,0,-1,1301,1317,0,0
84,-293,0,0,0,0,0,0,0,0,0,-1,1308,1317,0,0
91,-293,0,0,0,0,0,0,0,0,0,-1,1315,1317,0,0
98,-293,0,0,0,0,0,0,0,0,0,-1,1322,1317,0,0
105,-293,0,0,0,0,0,0,0,0,0,-1,1329,1317,0,0
112,-293,0,0,0,0,0,0,0,0,0,-1,1336,1317,0,0
119,-293,0,0,0,0,0,0,0,0,0,-1,1343,1317,0,0
126,-293,0,0,0,0,0,0,0,0,0,-1,1350,1317,0,0
133,-293,0,0,0,0,0,0,0,0,0,-1,1357,1317,0,0
140,-293,0,0,0,0,0,0,0,0,0,-1,1364,1317,0,0
147,-293,0,0,0,0,0,0,0,0,0,-1,1371,1317,0,0
154,-293,0,0,0,0,0,0,0,0,0,-1,1378,1317,0,0
161,-293,0,0,0,0,0,0,0,0,0,-1,1385,1317,0,0
168,-293,0,0,0,0,0,0,0,0,0,-1,1392,1317,0,0
175,-293,0,0,0,0,0,0,0,0,0,-1,1399,1317,0,0
182,-293,0,0,0,0,0,0,0,0,0,-1,1406,1317,0,0
189,-293,0,0,0,0,0,0,0,0,0,-1,1413,1317,0,0
196,-293,0,0,0,0,0,0,0,0,0,-1,1420,1317,0,0
203,-293,0,0,0,0,0,0,0,0,0,-1,1427,1317,0,0
210,-293,0,0,0,0,0,0,0,0,0,-1,1434,1317,0,0
217,-293,0,0,0,0,0,0,0,0,0,-1,1441,1317,0,0
224,-293,0,0,0,0,0,0,0,0,0,-1,1448,1317,0,0
231,-293,0,0,0,0,0,0,0,0,0,-1,1455,1317,0,0
238,-293,0,0,0,0,0,0,0,0,0,-1,1462,1317,0,0
245,-293,0,0,0,0,0,0,0,0,0,-1,1469,1317,0,0
252,-293,0,0,0,0,0,0,0,0,0,-1,1476,1317,0,0
259,-293,0,0,0,0,0,0,0,0,0,-1,1483,1317,0,0
266,-293,0,0,0,0,0,0,0,0,0,-1,1490,1317,0,0
273,-293,0,0,0,0,0,0,0,0,0,-1,1497,1317,0,0
280,-293,0,0,0,0,0,0,0,0,0,-1,1504,1317,0,0
287,-293,0,0,0,0,0,0,0,0,0,-1,1511,1317,0,0
294,-293,0,0,0,0,0,0,0,0,0,-1,1518,1317,0,0
301,-293,0,0,0,0,0,0,0,0,0,-1,1525,1317,0,0
308,-293,0,0,0,0,0,0,0,0,0,-1,1532,1317,0,0
315,-293,0,0,0,0,0,0,0,0,0,-1,1539,1317,0,0
322,-293,0,0,0,0,0,0,0,0,0,-1,1546,1317,0,0
329,-293,0,0,0,0,0,0,0,0,0,-1,1553,1317,0,0
336,-293,0,0,0,0,0,0,0,0,0,-1,1560,1317,0,0
343,-293,0,0,0,0,0,0,0,0,0,-1,1567,1317,0,0
350,-293,0,0,0,0,0,0,0,0,0,-1,1574,1317,0,0
357,-293,0,0,0,0,0,0,0,0,0,-1,1581,1317,0,0
364,-293,0,0,0,0,0,0,0,0,0,-1,1588,1317,0,0
371,-293,0,0,0,0,0,0,0,0,0,-1,1595,1317,0,0
378,-293,0,0,0,0,0,0,0,0,0,-1,1602,1317,0,0
385,-293,0,0,0,0,0,0,0,0,0,-1,1609,1317,0,0
392,-293,0,0,0,0,0,0,0,0,0,-1,1616,1317,0,0
399,-293,0,0,0,0,0,0,0,0,0,-1,1623,1317,0,0
406,-293,0,0,0,0,0,0,0,0,0,-1,1630,1317,0,0
413,-293,0,0,0,0,0,0,0,0,0,-1,1637,1317,0,0
420,-293,0,0,0,0,0,0,0,0,0,-1,1644,1317,0,0
427,-293,0,0,0,0,0,0,0,0,0,-1,1651,1317,0,0
434,-293,0,0,0,0,0,0,0,0,0,-1,1658,1317,0,0
441,-293,0,0,0,0,0,0,0,0,0,-1,1665,1317,0,0
448,-293,0,0,0,0,0,0,0,0,0,-1,1672,1317,0,0
455,-293,0,0,0,0,0,0,0,0,0,-1,1679,1317,0,0
462,-293,0,0,0,0,0,0,0,0,0,-1,1686,1317,0,0
469,-293,0,0,0,0,0,0,0,0,0,-1,1693,1317,0,0
476,-293,0,0,0,0,0,0,0,0,0,-1,1700,1317,0,0
483,-293,0,0,0,0,0,0,0,0,0,-1,1707,1317,0,0
490,-293,0,0,0,0,0,0,0,0,0,-1,1714,1317,0,0
497,-293,0,0,0,0,0,0,0,0,0,-1,1721,1317,0,0
504,-293,0,0,0,0,0,0,0,0,0,-1,1728,1317,0,0
511,-293,0,0,0,0,0,0,0,0,0,-1,1735,1317,0,0
518,-293,0,0,0,0,0,0,0,0,0,-1,1742,1317,0,0
525,-293,0,0,0,0,0,0,0,0,0,-1,1749,1317,0,0
532,-293,0,0,0,0,0,0,0,0,0,-1,1756,1317,0,0
539,-293,0,0,0,0,0,0,0,0,0,-1,1763,1317,0,0
546,-293,0,0,0,0,0,0,0,0,0,-1,1770,1317,0,0
553,-293,0,0,0,0,0,0,0,0,0,-1,1777,1317,0,0
560,-293,0,0,0,0,0,0,0,0,0,-1,1784,1317,0,0
567,-293,0,0,0,0,0,0,0,0,0,-1,1791,1317,0,0
574,-293,0,0,0,0,0,0,0,0,0,-1,1798,1317,0,0
581,-293,0,0,0,0,0,0,0,0,0,-1,1805,1317,0,0
588,-293,0,0,0,0,0,0,0,0,0,-1,1812,1317,0,0
595,-293,24.9669,2.9541,0,0,0,0,0,0,0,-1,1819,1317,24.967,-2.95413
602,-293,24.9025,2.79944,0,0,0,0,0,0,0,-1,1826,1317,24.9024,-2.79942
609,-293,24.8124,3.05298,0,0,0,0,0,0,0,-1,1833,1317,24.8124,-3.053
616,-293,26.8087,2.0802,0,0,0,0,0,0,0,-1,1840,1317,26.8087,-2.08024
623,-293,26.5493,2.50122,0,0,0,0,0,0,0,-1,1847,1317,26.5493,-2.50128
630,-293,26.3525,2.75952,0,0,0,0,0,0,0,-1,1854,1317,26.3525,-2.75956
637,-293,24.1708,1.6488,0,0,0,0,0,0,0,-1,1861,1317,24.1708,-1.64884
644,-293,22.5355,3.37354,0,0,0,0,0,0,0,-1,1868,1317,22.5355,-3.37358
651,-293,19.4924,7.27051,0,0,0,0,0,0,0,-1,1875,1317,19.4924,-7.27048
658,-293,19.1099,7.23401,-0.00907743,-0.00798106,0.000856138,-0.00751264,-0.00954585,1.07016,0.00580607,0.0434612,1882,1317,19.1098,-7.23402
665,-293,18.8832,6.69727,-0.0104855,-0.00514814,0.00187736,-0.00455395,-0.0110797,1.26427,0.00643055,0.0382527,1889,1317,18.8831,-6.69724
672,-293,18.6073,6.63293,-0.00918374,-0.00298854,0.00226885,-0.0022465,-0.00992578,1.25471,0.00600998,0.0191595,1896,1317,18.6073,-6.63295
679,-293,18.5913,6.38477,-0.00722069,-0.00254575,0.00191708,-0.00186015,-0.00790629,1.22734,0.0047732,0.0131158,1903,1317,18.5913,-6.38481
686,-293,18.5986,6.14832,-0.00507871,-0.00118108,0.00142334,-0.000716644,-0.00554314,1.25539,0.00348122,0.0153046,1910,1317,18.5986,-6.14832
693,-293,18.6033,5.9187,-0.00312449,-0.000183511,0.000972149,0.000108785,-0.00341679,1.27873,0.00231497,0.0121909,1917,1317,18.6032,-5.91866
700,-293,18.5892,5.69336,-0.00107229,0.00052547,0.000154035,0.000540185,-0.00108701,1.47556,0.00095698,0.0104513,1924,1317,18.5892,-5.69333
707,-293,18.5829,5.51135,0.000555881,0.00146478,-0.000834588,0.00196063,6.0036e-05,-1.03471,0.00128754,0.011,1931,1317,18.5828,-5.51137
714,-293,18.5824,5.28357,0.00219191,0.00250934,-0.00192671,0.00428387,0.00041739,-0.826493,0.00272745,0.00760393,1938,1317,18.5824,-5.28361
721,-293,18.5928,5.03711,0.00369193,0.00342937,-0.00292086,0.00648446,0.000636846,-0.762941,0.0041271,0.0085134,1945,1317,18.5928,-5.03715
728,-293,18.5979,4.7959,0.00512683,0.00409751,-0.00367984,0.00832782,0.000896514,-0.715919,0.00527848,0.0111441,1952,1317,18.598,-4.79584
735,-293,18.5889,4.55322,0.00653561,0.00446819,-0.00422906,0.00985546,0.00114834,-0.665533,0.00622295,0.0162982,1959,1317,18.5889,-4.55321
742,-293,18.5229,4.35193,0.00829062,0.00445985,-0.00458693,0.011346,0.00140446,-0.587616,0.00714203,0.0315759,1966,1317,18.523,-4.35194
749,-293,18.5391,4.07263,0.0101329,0.00341951,-0.00424204,0.0121857,0.00136674,-0.450693,0.0077087,0.0428916,1973,1317,18.539,-4.07259
756,-293,18.7352,3.60498,0,0,0,0,0,0,0,-1,1980,1317,18.7352,-3.60493
763,-293,18.4631,4.3269,0,0,0,0,0,0,0,-1,1987,1317,18.4632,-4.32694
770,-293,18.6544,1.7428,0,0,0,0,0,0,0,-1,1994,1317,18.6544,-1.74274
777,-293,0,0,0,0,0,0,0,0,0,-1,2001,1317,0,0
784,-293,0,0,0,0,0,0,0,0,0,-1,2008,1317,0,0
791,-293,0,0,0,0,0,0,0,0,0,-1,2015,1317,0,0
798,-293,0,0,0,0,0,0,0,0,0,-1,2022,1317,0,0
805,-293,0,0,0,0,0,0,0,0,0,-1,2029,1317,0,0
812,-293,0,0,0,0,0,0,0,0,0,-1,2036,1317,0,0
-700,-300,0,0,0,0,0,0,0,0,0,-1,524,1324,0,0
-693,-300,0,0,0,0,0,0,0,0,0,-1,531,1324,0,0
-686,-300,0,0,0,0,0,0,0,0,0,-1,538,1324,0,0
-679,-300,0,0,0,0,0,0,0,0,0,-1,545,1324,0,0
-672,-300,0,0,0,0,0,0,0,0,0,-1,552,1324,0,0
-665,-300,0,0,0,0,0,0,0,0,0,-1,559,1324,0,0
-658,-300,0,0,0,0,0,0,0,0,0,-1,566,1324,0,0
-651,-300,-11.5593,0.464111,0.152475,0.0910597,-0.0770825,0.204741,0.0387933,-0.595848,0.125576,0.0463121,573,1324,-11.5593,-0.464133
-644,-300,-10.2073,-0.614868,0.115086,0.0837011,-0.0521851,0.153887,0.0449001,-0.639345,0.0913788,0.0466135,580,1324,-10.2073,0.614884
-637,-300,-9.13019,-1.1521,0,0,0,0,0,0,0,-1,587,1324,-9.13019,1.15204
-630,-300,-8.05353,-1.31445,0,0,0,0,0,0,0,-1,594,1324,-8.05351,1.31442
-623,-300,-7.05054,-1.34192,0,0,0,0,0,0,0,-1,601,1324,-7.05055,1.34198
-616,-300,-9.59564,0.704712,0.0208991,0.0469008,0.00282987,0.0472052,0.0205947,1.46363,0.0273276,0.0430672,608,1324,-9.59566,-0.704693
-609,-300,-9.33777,1.4104,0.0105985,0.0370124,0.00675245,0.0386385,0.00897239,1.33448,0.0233501,0.0457564,615,1324,-9.33775,-1.4104
-602,-300,-9.41974,2.10535,0.00405176,0.0274355,0.00810627,0.0299708,0.00151649,1.26768,0.0194947,0.038563,622,1324,-9.41972,-2.10535
-595,-300,-9.62964,2.50024,-0.00203879,0.0193094,0.00954334,0.0229535,-0.00568292,1.20603,0.0175069,0.0206311,629,1324,-9.62964,-2.5002
-588,-300,-9.60468,2.7948,-0.00397551,0.0133651,0.0086057,0.0169109,-0.00752127,1.17997,0.014449,0.0195056,636,1324,-9.60469,-2.7948
-581,-300,-9.59741,3.07129,-0.00232573,0.00865929,0.00557098,0.01099,-0.00465648,1.17455,0.00927694,0.0199508,643,1324,-9.59741,-3.07125
-574,-300,-9.5957,3.33337,-0.000687765,0.00493538,0.0031788,0.00636759,-0.00211998,1.14748,0.00510075,0.0158485,650,1324,-9.59569,-3.33343
-567,-300,-9.63,3.59509,0.000223252,0.00173336,0.00127663,0.00246151,-0.000504898,1.05245,0.00183264,0.0157046,657,1324,-9.63,-3.59512
-560,-300,-9.63757,3.86157,0.000127177,0.00012687,-6.91541e-06,0.000133941,0.000120106,-0.774286,8.50581e-05,0.0148846,664,1324,-9.63754,-3.86159
-553,-300,-9.60852,4.11987,-0.000261863,-0.000315558,-0.000953103,0.000664771,-0.00124219,-0.771318,0.00111768,0.01042,671,1324,-9.60855,-4.11991
-546,-300,-9.59412,4.36951,-0.00126978,-0.000108053,-0.00174603,0.0011512,-0.00252903,-0.945978,0.00217385,0.00840737,678,1324,-9.59413,-4.36945
-539,-300,-9.57104,4.64502,-0.00318417,0.000620055,-0.00286206,0.00215442,-0.00471854,-1.07868,0.00405911,0.0159661,685,1324,-9.57106,-4.64496
-532,-300,-9.79596,4.77637,-0.00652277,0.00227289,-0.00457706,0.00422253,-0.00847241,-1.16811,0.00746508,0.0423831,692,1324,-9.79598,-4.77641
-525,-300,-10.0656,4.77551,0,0,0,0,0,0,0,-1,699,1324,-10.0656,-4.77552
-518,-300,-9.8349,-0.537109,0,0,0,0,0,0,0,-1,706,1324,-9.83487,0.537068
-511,-300,-10.9606,-0.611328,0,0,0,0,0,0,0,-1,713,1324,-10.9606,0.611334
-504,-300,-11.9684,-0.761963,0,0,0,0,0,0,0,-1,720,1324,-11.9684,0.761981
-497,-300,-12.8073,-0.66626,0,0,0,0,0,0,0,-1,727,1324,-12.8073,0.666219
-490,-300,-13.2748,-0.221191,0,0,0,0,0,0,0,-1,734,1324,-13.2748,0.221223
-483,-300,-13.2533,0.178101,0,0,0,0,0,0,0,-1,741,1324,-13.2533,-0.178142
-476,-300,-13.1127,0.436401,0,0,0,0,0,0,0,-1,748,1324,-13.1126,-0.436348
-469,-300,0,0,0,0,0,0,0,0,0,-1,755,1324,0,0
-462,-300,0,0,0,0,0,0,0,0,0,-1,762,1324,0,0
-455,-300,0,0,0,0,0,0,0,0,0,-1,769,1324,0,0
-448,-300,0,0,0,0,0,0,0,0,0,-1,776,1324,0,0
-441,-300,0,0,0,0,0,0,0,0,0,-1,783,1324,0,0
-434,-300,0,0,0,0,0,0,0,0,0,-1,790,1324,0,0
-427,-300,0,0,0,0,0,0,0,0,0,-1,797,1324,0,0
-420,-300,0,0,0,0,0,0,0,0,0,-1,804,1324,0,0
-413,-300,0,0,0,0,0,0,0,0,0,-1,811,1324,0,0
-406,-300,0,0,0,0,0,0,0,0,0,-1,818,1324,0,0
-399,-300,0,0,0,0,0,0,0,0,0,-1,825,1324,0,0
-392,-300,0,0,0,0,0,0,0,0,0,-1,832,1324,0,0
-385,-300,0,0,0,0,0,0,0,0,0,-1,839,1324,0,0
-378,-300,0,0,0,0,0,0,0,0,0,-1,846,1324,0,0
-371,-300,0,0,0,0,0,0,0,0,0,-1,853,1324,0,0
-364,-300,0,0,0,0,0,0,0,0,0,-1,860,1324,0,0
-357,-300,0,0,0,0,0,0,0,0,0,-1,867,1324,0,0
-350,-300,0,0,0,0,0,0,0,0,0,-1,874,1324,0,0
-343,-300,0,0,0,0,0,0,0,0,0,-1,881,1324,0,0
-336,-300,0,0,0,0,0,0,0,0,0,-1,888,1324,0,0
-329,-300,0,0,0,0,0,0,0,0,0,-1,895,1324,0,0
-322,-300,0,0,0,0,0,0,0,0,0,-1,902,1324,0,0
-315,-300,0,0,0,0,0,0,0,0,0,-1,909,1324,0,0
-308,-300,0,0,0,0,0,0,0,0,0,-1,916,1324,0,0
-301,-300,0,0,0,0,0,0,0,0,0,-1,923,1324,0,0
-294,-300,0,0,0,0,0,0,0,0,0,-1,930,1324,0,0
-287,-300,0,0,0,0,0,0,0,0,0,-1,937,1324,0,0
-280,-300,0,0,0,0,0,0,0,0,0,-1,944,1324,0,0
-273,-300,0,0,0,0,0,0,0,0,0,-1,951,1324,0,0
-266,-300,0,0,0,0,0,0,0,0,0,-1,958,1324,0,0
-259,-300,0,0,0,0,0,0,0,0,0,-1,965,1324,0,0
-252,-300,0,0,0,0,0,0,0,0,0,-1,972,1324,0,0
-245,-300,0,0,0,0,0,0,0,0,0,-1,979,1324,0,0
-238,-300,0,0,0,0,0,0,0,0,0,-1,986,1324,0,0
-231,-300,0,0,0,0,0,0,0,0,0,-1,993,1324,0,0
-224,-300,0,0,0,0,0,0,0,0,0,-1,1000,1324,0,0
-217,-300,0,0,0,0,0,0,0,0,0,-1,1007,1324,0,0
-210,-300,0,0,0,0,0,0,0,0,0,-1,1014,1324,0,0
-203,-300,0,0,0,0,0,0,0,0,0,-1,1021,1324,0,0
-196,-300,0,0,0,0,0,0,0,0,0,-1,1028,1324,0,0
-189,-300,0,0,0,0,0,0,0,0,0,-1,1035,1324,0,0
-182,-300,0,0,0,0,0,0,0,0,0,-1,1042,1324,0,0
-175,-300,0,0,0,0,0,0,0,0,0,-1,1049,1324,0,0
-168,-300,0,0,0,0,0,0,0,0,0,-1,1056,1324,0,0
-161,-300,0,0,0,0,0,0,0,0,0,-1,1063,1324,0,0
-154,-300,0,0,0,0,0,0,0,0,0,-1,1070,1324,0,0
-147,-300,0,0,0,0,0,0,0,0,0,-1,1077,1324,0,0
-140,-300,0,0,0,0,0,0,0,0,0,-1,1084,1324,0,0
-133,-300,0,0,0,0,0,0,0,0,0,-1,1091,1324,0,0
-126,-300,0,0,0,0,0,0,0,0,0,-1,1098,1324,0,0
-119,-300,0,0,0,0,0,0,0,0,0,-1,1105,1324,0,0
-112,-300,0,0,0,0,0,0,0,0,0,-1,1112,1324,0,0
-105,-300,0,0,0,0,0,0,0,0,0,-1,1119,1324,0,0
-98,-300,0,0,0,0,0,0,0,0,0,-1,1126,1324,0,0
-91,-300,0,0,0,0,0,0,0,0,0,-1,1133,1324,0,0
-84,-300,0,0,0,0,0,0,0,0,0,-1,1140,1324,0,0
-77,-300,0,0,0,0,0,0,0,0,0,-1,1147,1324,0,0
-70,-300,0,0,0,0,0,0,0,0,0,-1,1154,1324,0,0
-63,-300,0,0,0,0,0,0,0,0,0,-1,1161,1324,0,0
-56,-300,0,0,0,0,0,0,0,0,0,-1,1168,1324,0,0
-49,-300,0,0,0,0,0,0,0,0,0,-1,1175,1324,0,0
-42,-300,0,0,0,0,0,0,0,0,0,-1,1182,1324,0,0
-35,-300,0,0,0,0,0,0,0,0,0,-1,1189,1324,0,0
-28,-300,0,0,0,0,0,0,0,0,0,-1,1196,1324,0,0
-21,-300,0,0,0,0,0,0,0,0,0,-1,1203,1324,0,0
-14,-300,0,0,0,0,0,0,0,0,0,-1,1210,1324,0,0
-7,-300,0,0,0,0,0,0,0,0,0,-1,1217,1324,0,0
0,-300,0,0,0,0,0,0,0,0,0,-1,1224,1324,0,0
7,-300,0,0,0,0,0,0,0,0,0,-1,1231,1324,0,0
14,-300,0,0,0,0,0,0,0,0,0,-1,1238,1324,0,0
21,-300,0,0,0,0,0,0,0,0,0,-1,1245,1324,0,0
28,-300,0,0,0,0,0,0,0,0,0,-1,1252,1324,0,0
35,-300,0,0,0,0,0,0,0,0,0,-1,1259,1324,0,0
42,-300,0,0,0,0,0,0,0,0,0,-1,1266,1324,0,0
49,-300,0,0,0,0,0,0,0,0,0,-1,1273,1324,0,0
56,-300,0,0,0,0,0,0,0,0,0,-1,1280,1324,0,0
63,-300,0,0,0,0,0,0,0,0,0,-1,1287,1324,0,0
70,-300,0,0,0,0,0,0,0,0,0,-1,1294,1324,0,0
77,-300,0,0,0,0,0,0,0,0,0,-1,1301,1324,0,0
84,-300,0,0,0,0,0,0,0,0,0,-1,1308,1324,0,0
91,-300,0,0,0,0,0,0,0,0,0,-1,1315,1324,0,0
98,-300,0,0,0,0,0,0,0,0,0,-1,1322,1324,0,0
105,-300,0,0,0,0,0,0,0,0,0,-1,1329,1324,0,0
112,-300,0,0,0,0,0,0,0,0,0,-1,1336,1324,0,0
119,-300,0,0,0,0,0,0,0,0,0,-1,1343,1324,0,0
126,-300,0,0,0,0,0,0,0,0,0,-1,1350,1324,0,0
133,-300,0,0,0,0,0,0,0,0,0,-1,1357,1324,0,0
140,-300,0,0,0,0,0,0,0,0,0,-1,1364,1324,0,0
147,-300,0,0,0,0,0,0,0,0,0,-1,1371,1324,0,0
154,-300,0,0,0,0,0,0,0,0,0,-1,1378,1324,0,0
161,-300,0,0,0,0,0,0,0,0,0,-1,1385,1324,0,0
168,-300,0,0,0,0,0,0,0,0,0,-1,1392,1324,0,0
175,-300,0,0,0,0,0,0,0,0,0,-1,1399,1324,0,0
182,-300,0,0,0,0,0,0,0,0,0,-1,1406,1324,0,0
189,-300,0,0,0,0,0,0,0,0,0,-1,1413,1324,0,0
196,-300,0,0,0,0,0,0,0,0,0,-1,1420,1324,0,0
203,-300,0,0,0,0,0,0,0,0,0,-1,1427,1324,0,0
210,-300,0,0,0,0,0,0,0,0,0,-1,1434,1324,0,0
217,-300,0,0,0,0,0,0,0,0,0,-1,1441,1324,0,0
224,-300,0,0,0,0,0,0,0,0,0,-1,1448,1324,0,0
231,-300,0,0,0,0,0,0,0,0,0,-1,1455,1324,0,0
238,-300,0,0,0,0,0,0,0,0,0,-1,1462,1324,0,0
245,-300,0,0,0,0,0,0,0,0,0,-1,1469,1324,0,0
252,-300,0,0,0,0,0,0,0,0,0,-1,1476,1324,0,0
259,-300,0,0,0,0,0,0,0,0,0,-1,1483,1324,0,0
266,-300,0,0,0,0,0,0,0,0,0,-1,1490,1324,0,0
273,-300,0,0,0,0,0,0,0,0,0,-1,1497,1324,0,0
280,-300,0,0,0,0,0,0,0,0,0,-1,1504,1324,0,0
287,-300,0,0,0,0,0,0,0,0,0,-1,1511,1324,0,0
294,-300,0,0,0,0,0,0,0,0,0,-1,1518,1324,0,0
301,-300,0,0,0,0,0,0,0,0,0,-1,1525,1324,0,0
308,-300,0,0,0,0,0,0,0,0,0,-1,1532,1324,0,0
315,-300,0,0,0,0,0,0,0,0,0,-1,1539,1324,0,0
322,-300,0,0,0,0,0,0,0,0,0,-1,1546,1324,0,0
329,-300,0,0,0,0,0,0,0,0,0,-1,1553,1324,0,0
336,-300,0,0,0,0,0,0,0,0,0,-1,1560,1324,0,0
343,-300,0,0,0,0,0,0,0,0,0,-1,1567,1324,0,0
350,-300,0,0,0,0,0,0,0,0,0,-1,1574,1324,0,0
357,-300,0,0,0,0,0,0,0,0,0,-1,1581,1324,0,0
364,-300,0,0,0,0,0,0,0,0,0,-1,1588,1324,0,0
371,-300,0,0,0,0,0,0,0,0,0,-1,1595,1324,0,0
378,-300,0,0,0,0,0,0,0,0,0,-1,1602,1324,0,0
385,-300,0,0,0,0,0,0,0,0,0,-1,1609,1324,0,0
392,-300,0,0,0,0,0,0,0,0,0,-1,1616,1324,0,0
399,-300,0,0,0,0,0,0,0,0,0,-1,1623,1324,0,0
406,-300,0,0,0,0,0,0,0,0,0,-1,1630,1324,0,0
413,-300,0,0,0,0,0,0,0,0,0,-1,1637,1324,0,0
420,-300,0,0,0,0,0,0,0,0,0,-1,1644,1324,0,0
427,-300,0,0,0,0,0,0,0,0,0,-1,1651,1324,0,0
434,-300,0,0,0,0,0,0,0,0,0,-1,1658,1324,0,0
441,-300,0,0,0,0,0,0,0,0,0,-1,1665,1324,0,0
448,-300,0,0,0,0,0,0,0,0,0,-1,1672,1324,0,0
455,-300,0,0,0,0,0,0,0,0,0,-1,1679,1324,0,0
462,-300,0,0,0,0,0,0,0,0,0,-1,1686,1324,0,0
469,-300,0,0,0,0,0,0,0,0,0,-1,1693,1324,0,0
476,-300,0,0,0,0,0,0,0,0,0,-1,1700,1324,0,0
483,-300,0,0,0,0,0,0,0,0,0,-1,1707,1324,0,0
490,-300,0,0,0,0,0,0,0,0,0,-1,1714,1324,0,0
497,-300,0,0,0,0,0,0,0,0,0,-1,1721,1324,0,0
504,-300,0,0,0,0,0,0,0,0,0,-1,1728,1324,0,0
511,-300,0,0,0,0,0,0,0,0,0,-1,1735,1324,0,0
518,-300,0,0,0,0,0,0,0,0,0,-1,1742,1324,0,0
525,-300,0,0,0,0,0,0,0,0,0,-1,1749,1324,0,0
532,-300,0,0,0,0,0,0,0,0,0,-1,1756,1324,0,0
539,-300,0,0,0,0,0,0,0,0,0,-1,1763,1324,0,0
546,-300,0,0,0,0,0,0,0,0,0,-1,1770,1324,0,0
553,-300,0,0,0,0,0,0,0,0,0,-1,1777,1324,0,0
560,-300,0,0,0,0,0,0,0,0,0,-1,1784,1324,0,0
567,-300,0,0,0,0,0,0,0,0,0,-1,1791,1324,0,0
574,-300,0,0,0,0,0,0,0,0,0,-1,1798,1324,0,0
581,-300,0,0,0,0,0,0,0,0,0,-1,1805,1324,0,0
588,-300,23.6748,2.36597,0,0,0,0,0,0,0,-1,1812,1324,23.6748,-2.36599
595,-300,23.9714,2.64722,0,0,0,0,0,0,0,-1,1819,1324,23.9715,-2.64717
602,-300,25.1635,4.00537,0,0,0,0,0,0,0,-1,1826,1324,25.1634,-4.00532
609,-300,25.2804,3.30029,0,0,0,0,0,0,0,-1,1833,1324,25.2804,-3.30024
616,-300,25.3975,2.59521,0,0,0,0,0,0,0,-1,1840,1324,25.3974,-2.59516
623,-300,26.8914,2.48315,0,0,0,0,0,0,0,-1,1847,1324,26.8914,-2.48319
630,-300,24.1906,1.40613,0,0,0,0,0,0,0,-1,1854,1324,24.1905,-1.40607
637,-300,23.5313,3.25256,0,0,0,0,0,0,0,-1,1861,1324,23.5312,-3.25255
644,-300,19.2581,3.37158,0,0,0,0,0,0,0,-1,1868,1324,19.2581,-3.37159
651,-300,19.2808,6.84143,0,0,0,0,0,0,0,-1,1875,1324,19.2808,-6.8414
658,-300,18.7581,6.98779,-0.00867618,-0.00860936,0.000939133,-0.00770305,-0.0095825,0.803177,0.00586313,0.0438515,1882,1324,18.758,-6.98773
665,-300,18.4175,6.90881,-0.0102035,-0.00517105,0.00218347,-0.00435576,-0.0110187,1.21344,0.00640799,0.0319399,1889,1324,18.4175,-6.90886
672,-300,18.3271,6.66321,-0.00863675,-0.00269035,0.00261443,-0.00170437,-0.00962274,1.21016,0.00592926,0.0123475,1896,1324,18.3272,-6.66323
679,-300,18.3613,6.39014,-0.00648888,-0.00222489,0.00209205,-0.0013699,-0.00734388,1.18282,0.00450919,0.012558,1903,1324,18.3614,-6.39012
686,-300,18.3752,6.15869,-0.00436507,-0.000969243,0.00143377,-0.00044486,-0.00488945,1.22017,0.00312193,0.0128718,1910,1324,18.3753,-6.15865
693,-300,18.365,5.93945,-0.00250924,2.3369e-05,0.000765342,0.000236685,-0.00272256,1.29898,0.00189886,0.0108751,1917,1324,18.365,-5.93949
700,-300,18.3557,5.70789,-0.000483799,0.000871923,-0.000278988,0.00092709,-0.000538965,-1.37558,0.000856258,0.011526,1924,1324,18.3557,-5.70791
707,-300,18.3607,5.47412,0.00140626,0.0019924,-0.00148583,0.00321378,0.000184875,-0.882771,0.00208363,0.00847127,1931,1324,18.3607,-5.47415
714,-300,18.3759,5.26123,0.00340498,0.00323902,-0.00284685,0.00617006,0.000473937,-0.770829,0.00396485,0.00971134,1938,1324,18.3759,-5.26119
721,-300,18.3732,5.04761,0.00552813,0.00459822,-0.00436869,0.00945654,0.000669817,-0.732383,0.00609337,0.0103936,1945,1324,18.3731,-5.04766
728,-300,18.3796,4.79871,0.00789873,0.00600782,-0.00595503,0.0129829,0.00092366,-0.706672,0.0083644,0.0102091,1952,1324,18.3797,-4.79875
735,-300,18.286,4.64917,0.0106868,0.00723238,-0.0076516,0.0168037,0.00111546,-0.674394,0.0108498,0.017906,1959,1324,18.286,-4.64911
742,-300,18.334,4.54028,0.0142037,0.00840892,-0.00952034,0.0212578,0.00135482,-0.637684,0.0137425,0.0316552,1966,1324,18.334,-4.54027
749,-300,18.4518,3.71667,0,0,0,0,0,0,0,-1,1973,1324,18.4518,-3.71672
756,-300,18.772,3.75854,0,0,0,0,0,0,0,-1,1980,1324,18.772,-3.75849
763,-300,22.6136,5.1571,0,0,0,0,0,0,0,-1,1987,1324,22.6136,-5.15706
770,-300,16.4082,5.24438,0,0,0,0,0,0,0,-1,1994,1324,16.4082,-5.24439
777,-300,0,0,0,0,0,0,0,0,0,-1,2001,1324,0,0
784,-300,0,0,0,0,0,0,0,0,0,-1,2008,1324,0,0
791,-300,0,0,0,0,0,0,0,0,0,-1,2015,1324,0,0
798,-300,0,0,0,0,0,0,0,0,0,-1,2022,1324,0,0
805,-300,0,0,0,0,0,0,0,0,0,-1,2029,1324,0,0
812,-300,0,0,0,0,0,0,0,0,0,-1,2036,1324,0,0
-700,-307,0,0,0,0,0,0,0,0,0,-1,524,1331,0,0
-693,-307,0,0,0,0,0,0,0,0,0,-1,531,1331,0,0
-686,-307,0,0,0,0,0,0,0,0,0,-1,538,1331,0,0
-679,-307,0,0,0,0,0,0,0,0,0,-1,545,1331,0,0
-672,-307,0,0,0,0,0,0,0,0,0,-1,552,1331,0,0
-665,-307,0,0,0,0,0,0,0,0,0,-1,559,1331,0,0
-658,-307,0,0,0,0,0,0,0,0,0,-1,566,1331,0,0
-651,-307,-10.8737,0.088501,0.186565,0.0772185,-0.100068,0.245921,0.0178618,-0.535377,0.15833,0.0464749,573,1331,-10.8737,-0.0885047
-644,-307,-9.46448,-0.662964,0.141544,0.0752593,-0.0705786,0.186375,0.0304289,-0.565889,0.115451,0.045375,580,1331,-9.46446,0.663015
-637,-307,-8.85291,-1.65735,0,0,0,0,0,0,0,-1,587,1331,-8.85293,1.65733
-630,-307,-7.7522,-1.77185,0,0,0,0,0,0,0,-1,594,1331,-7.75222,1.77189
-623,-307,-6.65149,-1.88647,0,0,0,0,0,0,0,-1,601,1331,-6.6515,1.88644
-616,-307,-9.02325,0.382202,0,0,0,0,0,0,0,-1,608,1331,-9.02326,-0.382255
-609,-307,-9.25085,1.32507,0,0,0,0,0,0,0,-1,615,1331,-9.25082,-1.32504
-602,-307,-9.17468,2.03333,0.00533945,0.0286382,0.00688316,0.0305198,0.0034579,1.30396,0.0192974,0.0405876,622,1331,-9.17469,-2.03333
-595,-307,-9.36316,2.51135,-0.00214012,0.0203749,0.00923298,0.0236769,-0.00544212,1.22734,0.0178769,0.0218049,629,1331,-9.36313,-2.51134
-588,-307,-9.33344,2.82813,-0.0046595,0.0143168,0.0086604,0.0176749,-0.00801766,1.20089,0.0151789,0.0191987,636,1331,-9.33342,-2.82813
-581,-307,-9.3186,3.08337,-0.0029634,0.00943465,0.00568457,0.0116465,-0.00517522,1.19973,0.00994867,0.0171611,643,1331,-9.31858,-3.08332
-574,-307,-9.32971,3.33289,-0.00131052,0.00560072,0.00337378,0.00697457,-0.00268437,1.18409,0.00575703,0.0136545,650,1331,-9.32974,-3.33288
-567,-307,-9.36481,3.60486,-0.0003144,0.00231999,0.00149214,0.00299314,-0.000987553,1.147,0.00239351,0.0130121,657,1331,-9.36482,-3.60488
-560,-307,-9.3656,3.86743,-0.000276747,0.000532124,0.000214068,0.000585283,-0.000329906,1.32739,0.000535198,0.0129871,664,1331,-9.36561,-3.8674
-553,-307,-9.35345,4.1178,-0.000305746,-0.000463795,-0.000681375,0.000301172,-0.00107071,-0.727667,0.00083256,0.0102034,671,1331,-9.35343,-4.11781
-546,-307,-9.3363,4.3739,-0.000685101,-0.000987613,-0.00146842,0.000639835,-0.00231255,-0.734076,0.00179344,0.0101009,678,1331,-9.33631,-4.37391
-539,-307,-9.30042,4.67273,-0.00174365,-0.00118772,-0.00247566,0.00102553,-0.0039569,-0.841303,0.00303803,0.0129325,685,1331,-9.30043,-4.67275
-532,-307,-9.29608,4.89539,-0.0037607,-0.00113384,-0.0040599,0.0018198,-0.00671434,-0.941841,0.00519028,0.0356475,692,1331,-9.29606,-4.89544
-525,-307,-9.50232,5.10925,0,0,0,0,0,0,0,-1,699,1331,-9.50233,-5.10928
-518,-307,-9.77777,-1.56653,0,0,0,0,0,0,0,-1,706,1331,-9.77777,1.56651
-511,-307,-10.3354,-1.02979,0,0,0,0,0,0,0,-1,713,1331,-10.3354,1.02976
-504,-307,-11.1548,-0.647827,0,0,0,0,0,0,0,-1,720,1331,-11.1548,0.647776
-497,-307,-11.8691,-0.187988,0,0,0,0,0,0,0,-1,727,1331,-11.8691,0.187963
-490,-307,-12.9172,-0.579102,0,0,0,0,0,0,0,-1,734,1331,-12.9172,0.579057
-483,-307,-12.8444,0.123901,0,0,0,0,0,0,0,-1,741,1331,-12.8444,-0.123895
-476,-307,-12.8369,0.472534,0,0,0,0,0,0,0,-1,748,1331,-12.8368,-0.472485
-469,-307,-12.987,0.623047,0,0,0,0,0,0,0,-1,755,1331,-12.987,-0.622992
-462,-307,0,0,0,0,0,0,0,0,0,-1,762,1331,0,0
-455,-307,0,0,0,0,0,0,0,0,0,-1,769,1331,0,0
-448,-307,0,0,0,0,0,0,0,0,0,-1,776,1331,0,0
-441,-307,0,0,0,0,0,0,0,0,0,-1,783,1331,0,0
-434,-307,0,0,0,0,0,0,0,0,0,-1,790,1331,0,0
-427,-307,0,0,0,0,0,0,0,0,0,-1,797,1331,0,0
-420,-307,0,0,0,0,0,0,0,0,0,-1,804,1331,0,0
-413,-307,0,0,0,0,0,0,0,0,0,-1,811,1331,0,0
-406,-307,0,0,0,0,0,0,0,0,0,-1,818,1331,0,0
-399,-307,0,0,0,0,0,0,0,0,0,-1,825,1331,0,0
-392,-307,0,0,0,0,0,0,0,0,0,-1,832,1331,0,0
-385,-307,0,0,0,0,0,0,0,0,0,-1,839,1331,0,0
-378,-307,0,0,0,0,0,0,0,0,0,-1,846,1331,0,0
-371,-307,0,0,0,0,0,0,0,0,0,-1,853,1331,0,0
-364,-307,0,0,0,0,0,0,0,0,0,-1,860,1331,0,0
-357,-307,0,0,0,0,0,0,0,0,0,-1,867,1331,0,0
-350,-307,0,0,0,0,0,0,0,0,0,-1,874,1331,0,0
-343,-307,0,0,0,0,0,0,0,0,0,-1,881,1331,0,0
-336,-307,0,0,0,0,0,0,0,0,0,-1,888,1331,0,0
-329,-307,0,0,0,0,0,0,0,0,0,-1,895,1331,0,0
-322,-307,0,0,0,0,0,0,0,0,0,-1,902,1331,0,0
-315,-307,0,0,0,0,0,0,0,0,0,-1,909,1331,0,0
-308,-307,0,0,0,0,0,0,0,0,0,-1,916,1331,0,0
-301,-307,0,0,0,0,0,0,0,0,0,-1,923,1331,0,0
-294,-307,0,0,0,0,0,0,0,0,0,-1,930,1331,0,0
-287,-307,0,0,0,0,0,0,0,0,0,-1,937,1331,0,0
-280,-307,0,0,0,0,0,0,0,0,0,-1,944,1331,0,0
-273,-307,0,0,0,0,0,0,0,0,0,-1,951,1331,0,0
-266,-307,0,0,0,0,0,0,0,0,0,-1,958,1331,0,0
-259,-307,0,0,0,0,0,0,0,0,0,-1,965,1331,0,0
-252,-307,0,0,0,0,0,0,0,0,0,-1,972,1331,0,0
-245,-307,0,0,0,0,0,0,0,0,0,-1,979,1331,0,0
-238,-307,0,0,0,0,0,0,0,0,0,-1,986,1331,0,0
-231,-307,0,0,0,0,0,0,0,0,0,-1,993,1331,0,0
-224,-307,0,0,0,0,0,0,0,0,0,-1,1000,1331,0,0
-217,-307,0,0,0,0,0,0,0,0,0,-1,1007,1331,0,0
-210,-307,0,0,0,0,0,0,0,0,0,-1,1014,1331,0,0
-203,-307,0,0,0,0,0,0,0,0,0,-1,1021,1331,0,0
-196,-307,0,0,0,0,0,0,0,0,0,-1,1028,1331,0,0
-189,-307,0,0,0,0,0,0,0,0,0,-1,1035,1331,0,0
-182,-307,0,0,0,0,0,0,0,0,0,-1,1042,1331,0,0
-175,-307,0,0,0,0,0,0,0,0,0,-1,1049,1331,0,0
-168,-307,0,0,0,0,0,0,0,0,0,-1,1056,1331,0,0
-161,-307,0,0,0,0,0,0,0,0,0,-1,1063,1331,0,0
-154,-307,0,0,0,0,0,0,0,0,0,-1,1070,1331,0,0
-147,-307,0,0,0,0,0,0,0,0,0,-1,1077,1331,0,0
-140,-307,0,0,0,0,0,0,0,0,0,-1,1084,1331,0,0
-133,-307,0,0,0,0,0,0,0,0,0,-1,1091,1331,0,0
-126,-307,0,0,0,0,0,0,0,0,0,-1,1098,1331,0,0
-119,-307,0,0,0,0,0,0,0,0,0,-1,1105,1331,0,0
-112,-307,0,0,0,0,0,0,0,0,0,-1,1112,1331,0,0
-105,-307,0,0,0,0,0,0,0,0,0,-1,1119,1331,0,0
-98,-307,0,0,0,0,0,0,0,0,0,-1,1126,1331,0,0
-91,-307,0,0,0,0,0,0,0,0,0,-1,1133,1331,0,0
-84,-307,0,0,0,0,0,0,0,0,0,-1,1140,1331,0,0
-77,-307,0,0,0,0,0,0,0,0,0,-1,1147,1331,0,0
-70,-307,0,0,0,0,0,0,0,0,0,-1,1154,1331,0,0
-63,-307,0,0,0,0,0,0,0,0,0,-1,1161,1331,0,0
-56,-307,0,0,0,0,0,0,0,0,0,-1,1168,1331,0,0
-49,-307,0,0,0,0,0,0,0,0,0,-1,1175,1331,0,0
-42,-307,0,0,0,0,0,0,0,0,0,-1,1182,1331,0,0
-35,-307,0,0,0,0,0,0,0,0,0,-1,1189,1331,0,0
-28,-307,0,0,0,0,0,0,0,0,0,-1,1196,1331,0,0
-21,-307,0,0,0,0,0,0,0,0,0,-1,1203,1331,0,0
-14,-307,0,0,0,0,0,0,0,0,0,-1,1210,1331,0,0
-7,-307,0,0,0,0,0,0,0,0,0,-1,1217,1331,0,0
0,-307,0,0,0,0,0,0,0,0,0,-1,1224,1331,0,0
7,-307,0,0,0,0,0,0,0,0,0,-1,1231,1331,0,0
14,-307,0,0,0,0,0,0,0,0,0,-1,1238,1331,0,0
21,-307,0,0,0,0,0,0,0,0,0,-1,1245,1331,0,0
28,-307,0,0,0,0,0,0,0,0,0,-1,1252,1331,0,0
35,-307,0,0,0,0,0,0,0,0,0,-1,1259,1331,0,0
42,-307,0,0,0,0,0,0,0,0,0,-1,1266,1331,0,0
49,-307,0,0,0,0,0,0,0,0,0,-1,1273,1331,0,0
56,-307,0,0,0,0,0,0,0,0,0,-1,1280,1331,0,0
63,-307,0,0,0,0,0,0,0,0,0,-1,1287,1331,0,0
70,-307,0,0,0,0,0,0,0,0,0,-1,1294,1331,0,0
77,-307,0,0,0,0,0,0,0,0,0,-1,1301,1331,0,0
84,-307,0,0,0,0,0,0,0,0,0,-1,1308,1331,0,0
91,-307,0,0,0,0,0,0,0,0,0,-1,1315,1331,0,0
98,-307,0,0,0,0,0,0,0,0,0,-1,1322,1331,0,0
105,-307,0,0,0,0,0,0,0,0,0,-1,1329,1331,0,0
112,-307,0,0,0,0,0,0,0,0,0,-1,1336,1331,0,0
119,-307,0,0,0,0,0,0,0,0,0,-1,1343,1331,0,0
126,-307,0,0,0,0,0,0,0,0,0,-1,1350,1331,0,0
133,-307,0,0,0,0,0,0,0,0,0,-1,1357,1331,0,0
140,-307,0,0,0,0,0,0,0,0,0,-1,1364,1331,0,0
147,-307,0,0,0,0,0,0,0,0,0,-1,1371,1331,0,0
154,-307,0,0,0,0,0,0,0,0,0,-1,1378,1331,0,0
161,-307,0,0,0,0,0,0,0,0,0,-1,1385,1331,0,0
168,-307,0,0,0,0,0,0,0,0,0,-1,1392,1331,0,0
175,-307,0,0,0,0,0,0,0,0,0,-1,1399,1331,0,0
182,-307,0,0,0,0,0,0,0,0,0,-1,1406,1331,0,0
189,-307,0,0,0,0,0,0,0,0,0,-1,1413,1331,0,0
196,-307,0,0,0,0,0,0,0,0,0,-1,1420,1331,0,0
203,-307,0,0,0,0,0,0,0,0,0,-1,1427,1331,0,0
210,-307,0,0,0,0,0,0,0,0,0,-1,1434,1331,0,0
217,-307,0,0,0,0,0,0,0,0,0,-1,1441,1331,0,0
224,-307,0,0,0,0,0,0,0,0,0,-1,1448,1331,0,0
231,-307,0,0,0,0,0,0,0,0,0,-1,1455,1331,0,0
238,-307,0,0,0,0,0,0,0,0,0,-1,1462,1331,0,0
245,-307,0,0,0,0,0,0,0,0,0,-1,1469,1331,0,0
252,-307,0,0,0,0,0,0,0,0,0,-1,1476,1331,0,0
259,-307,0,0,0,0,0,0,0,0,0,-1,1483,1331,0,0
266,-307,0,0,0,0,0,0,0,0,0,-1,1490,1331,0,0
273,-307,0,0,0,0,0,0,0,0,0,-1,1497,1331,0,0
280,-307,0,0,0,0,0,0,0,0,0,-1,1504,1331,0,0
287,-307,0,0,0,0,0,0,0,0,0,-1,1511,1331,0,0
294,-307,0,0,0,0,0,0,0,0,0,-1,1518,1331,0,0
301,-307,0,0,0,0,0,0,0,0,0,-1,1525,1331,0,0
308,-307,0,0,0,0,0,0,0,0,0,-1,1532,1331,0,0
315,-307,0,0,0,0,0,0,0,0,0,-1,1539,1331,0,0
322,-307,0,0,0,0,0,0,0,0,0,-1,1546,1331,0,0
329,-307,0,0,0,0,0,0,0,0,0,-1,1553,1331,0,0
336,-307,0,0,0,0,0,0,0,0,0,-1,1560,1331,0,0
343,-307,0,0,0,0,0,0,0,0,0,-1,1567,1331,0,0
350,-307,0,0,0,0,0,0,0,0,0,-1,1574,1331,0,0
357,-307,0,0,0,0,0,0,0,0,0,-1,1581,1331,0,0
364,-307,0,0,0,0,0,0,0,0,0,-1,1588,1331,0,0
371,-307,0,0,0,0,0,0,0,0,0,-1,1595,1331,0,0
378,-307,0,0,0,0,0,0,0,0,0,-1,1602,1331,0,0
385,-307,0,0,0,0,0,0,0,0,0,-1,1609,1331,0,0
392,-307,0,0,0,0,0,0,0,0,0,-1,1616,1331,0,0
399,-307,0,0,0,0,0,0,0,0,0,-1,1623,1331,0,0
406,-307,0,0,0,0,0,0,0,0,0,-1,1630,1331,0,0
413,-307,0,0,0,0,0,0,0,0,0,-1,1637,1331,0,0
420,-307,0,0,0,0,0,0,0,0,0,-1,1644,1331,0,0
427,-307,0,0,0,0,0,0,0,0,0,-1,1651,1331,0,0
434,-307,0,0,0,0,0,0,0,0,0,-1,1658,1331,0,0
441,-307,0,0,0,0,0,0,0,0,0,-1,1665,1331,0,0
448,-307,0,0,0,0,0,0,0,0,0,-1,1672,1331,0,0
455,-307,0,0,0,0,0,0,0,0,0,-1,1679,1331,0,0
462,-307,0,0,0,0,0,0,0,0,0,-1,1686,1331,0,0
469,-307,0,0,0,0,0,0,0,0,0,-1,1693,1331,0,0
476,-307,0,0,0,0,0,0,0,0,0,-1,1700,1331,0,0
483,-307,0,0,0,0,0,0,0,0,0,-1,1707,1331,0,0
490,-307,0,0,0,0,0,0,0,0,0,-1,1714,1331,0,0
497,-307,0,0,0,0,0,0,0,0,0,-1,1721,1331,0,0
504,-307,0,0,0,0,0,0,0,0,0,-1,1728,1331,0,0
511,-307,0,0,0,0,0,0,0,0,0,-1,1735,1331,0,0
518,-307,0,0,0,0,0,0,0,0,0,-1,1742,1331,0,0
525,-307,0,0,0,0,0,0,0,0,0,-1,1749,1331,0,0
532,-307,0,0,0,0,0,0,0,0,0,-1,1756,1331,0,0
539,-307,0,0,0,0,0,0,0,0,0,-1,1763,1331,0,0
546,-307,0,0,0,0,0,0,0,0,0,-1,1770,1331,0,0
553,-307,0,0,0,0,0,0,0,0,0,-1,1777,1331,0,0
560,-307,0,0,0,0,0,0,0,0,0,-1,1784,1331,0,0
567,-307,0,0,0,0,0,0,0,0,0,-1,1791,1331,0,0
574,-307,0,0,0,0,0,0,0,0,0,-1,1798,1331,0,0
581,-307,0,0,0,0,0,0,0,0,0,-1,1805,1331,0,0
588,-307,23.6001,2.33496,0,0,0,0,0,0,0,-1,1812,1331,23.6001,-2.33493
595,-307,24.9288,5.23755,0,0,0,0,0,0,0,-1,1819,1331,24.9289,-5.23758
602,-307,25.177,4.46814,0.0337491,-0.0769832,-0.0365617,0.0447318,-0.0879659,-0.291812,0.0779567,0.0497574,1826,1331,25.177,-4.46818
609,-307,25.5337,3.6637,0.023994,-0.0669328,-0.0292961,0.0326156,-0.0755543,-0.28621,0.0640711,0.0474503,1833,1331,25.5337,-3.66372
616,-307,25.3793,3.10669,0.0162011,-0.0542357,-0.0224329,0.0227388,-0.0607734,-0.283579,0.0498548,0.046096,1840,1331,25.3792,-3.10673
623,-307,25.3007,2.34424,0,0,0,0,0,0,0,-1,1847,1331,25.3007,-2.34422
630,-307,23.9779,2.86987,0,0,0,0,0,0,0,-1,1854,1331,23.9778,-2.86989
637,-307,16.6766,1.98096,0,0,0,0,0,0,0,-1,1861,1331,16.6766,-1.98096
644,-307,16.6293,5.94641,0,0,0,0,0,0,0,-1,1868,1331,16.6293,-5.94645
651,-307,17.5013,5.80078,0,0,0,0,0,0,0,-1,1875,1331,17.5014,-5.80072
658,-307,18.6412,6.62378,0,0,0,0,0,0,0,-1,1882,1331,18.6413,-6.62383
665,-307,18.1582,6.86621,-0.00926094,-0.00471869,0.00239144,-0.00369178,-0.0102878,1.1652,0.00601807,0.0199295,1889,1331,18.1582,-6.86624
672,-307,18.1423,6.65356,-0.00757953,-0.00212694,0.00279762,-0.000946914,-0.00875955,1.17164,0.00555105,0.009434,1896,1331,18.1424,-6.65362
679,-307,18.1465,6.40161,-0.00546322,-0.00172399,0.00211467,-0.000770973,-0.00641624,1.14738,0.00404507,0.0102809,1903,1331,18.1464,-6.4016
686,-307,18.1384,6.16162,-0.00349695,-0.000658447,0.00131291,-0.000144305,-0.00401109,1.19755,0.00262728,0.00963267,1910,1331,18.1384,-6.16159
693,-307,18.1272,5.95557,-0.00178444,0.000320872,0.000448235,0.000412332,-0.0018759,1.36952,0.00140831,0.0108062,1917,1331,18.1272,-5.95556
700,-307,18.1295,5.70898,0.000247993,0.00125411,-0.000809463,0.0017041,-0.000201996,-1.06343,0.00120903,0.0111309,1924,1331,18.1295,-5.70902
707,-307,18.1343,5.46753,0.00243909,0.00255293,-0.00224665,0.00474338,0.000248635,-0.798063,0.00308272,0.0117085,1931,1331,18.1343,-5.46756
714,-307,18.144,5.27661,0.00483243,0.00398977,-0.00391208,0.0083458,0.000476398,-0.731755,0.00541206,0.0113294,1938,1331,18.1441,-5.27659
721,-307,18.1613,5.06421,0.00755504,0.00578167,-0.00589983,0.0126344,0.000702266,-0.710812,0.00819891,0.0138518,1945,1331,18.1612,-5.06419
728,-307,18.1138,4.87964,0.0108214,0.00777378,-0.00816961,0.0176081,0.000987095,-0.693196,0.0114239,0.0218582,1952,1331,18.1138,-4.87959
735,-307,17.9825,4.58655,0.0149066,0.00991274,-0.0108527,0.0235459,0.00127345,-0.672329,0.0152905,0.0317378,1959,1331,17.9826,-4.58649
742,-307,18.265,4.24829,0.0200129,0.0123477,-0.0139994,0.0306948,0.00166575,-0.651787,0.0199312,0.0376099,1966,1331,18.265,-4.24823
749,-307,18.4106,3.5022,0.026099,0.0146913,-0.0173119,0.0386225,0.00216776,-0.62626,0.025057,0.0468212,1973,1331,18.4106,-3.50219
756,-307,18.6036,3.10229,0,0,0,0,0,0,0,-1,1980,1331,18.6036,-3.10225
763,-307,18.6041,2.86731,0,0,0,0,0,0,0,-1,1987,1331,18.6042,-2.86734
770,-307,0,0,0,0,0,0,0,0,0,-1,1994,1331,0,0
777,-307,0,0,0,0,0,0,0,0,0,-1,2001,1331,0,0
784,-307,0,0,0,0,0,0,0,0,0,-1,2008,1331,0,0
791,-307,0,0,0,0,0,0,0,0,0,-1,2015,1331,0,0
798,-307,0,0,0,0,0,0,0,0,0,-1,2022,1331,0,0
805,-307,0,0,0,0,0,0,0,0,0,-1,2029,1331,0,0
812,-307,0,0,0,0,0,0,0,0,0,-1,2036,1331,0,0
-700,-314,0,0,0,0,0,0,0,0,0,-1,524,1338,0,0
-693,-314,0,0,0,0,0,0,0,0,0,-1,531,1338,0,0
-686,-314,0,0,0,0,0,0,0,0,0,-1,538,1338,0,0
-679,-314,0,0,0,0,0,0,0,0,0,-1,545,1338,0,0
-672,-314,0,0,0,0,0,0,0,0,0,-1,552,1338,0,0
-665,-314,0,0,0,0,0,0,0,0,0,-1,559,1338,0,0
-658,-314,0,0,0,0,0,0,0,0,0,-1,566,1338,0,0
-651,-314,0,0,0,0,0,0,0,0,0,-1,573,1338,0,0
-644,-314,-8.66516,-0.667603,0,0,0,0,0,0,0,-1,580,1338,-8.66518,0.667593
-637,-314,-8.63501,-2.2428,0,0,0,0,0,0,0,-1,587,1338,-8.63501,2.24274
-630,-314,-7.50208,-2.35657,0,0,0,0,0,0,0,-1,594,1338,-7.5021,2.35661
-623,-314,-6.3692,-2.47046,0,0,0,0,0,0,0,-1,601,1338,-6.36918,2.47048
-616,-314,-8.27008,0.173096,0,0,0,0,0,0,0,-1,608,1338,-8.27007,-0.173063
-609,-314,-9.1225,1.18652,0,0,0,0,0,0,0,-1,615,1338,-9.12249,-1.18656
-602,-314,-8.90619,1.72302,0.00677528,0.0297922,0.00539144,0.0309925,0.00557499,1.35174,0.0190769,0.0452905,622,1338,-8.90621,-1.72306
-595,-314,-8.91064,2.52856,-0.00206407,0.0213053,0.00866299,0.0241663,-0.00492515,1.25181,0.0179789,0.0399064,629,1338,-8.91066,-2.52862
-588,-314,-9.08582,2.79297,-0.0051913,0.0150951,0.00846085,0.0181606,-0.00825683,1.22319,0.0156053,0.0177188,636,1338,-9.08583,-2.79301
-581,-314,-9.05017,3.07764,-0.00353694,0.0100723,0.00560962,0.0120865,-0.00555108,1.22608,0.0104135,0.0134693,643,1338,-9.05014,-3.0776
-574,-314,-9.07227,3.32263,-0.00197519,0.00620033,0.00343681,0.00745311,-0.00322797,1.22124,0.00632551,0.0127859,650,1338,-9.07226,-3.32264
-567,-314,-9.08362,3.59961,-0.000927494,0.00298456,0.00161433,0.0035647,-0.00150763,1.2258,0.00300771,0.0153587,657,1338,-9.0836,-3.59962
-560,-314,-9.05676,3.8717,-0.000628528,0.00105963,0.000376985,0.00113999,-0.000708888,1.36077,0.00107708,0.015734,664,1338,-9.05674,-3.87168
-553,-314,-9.06989,4.12256,-0.000236172,-0.000286809,-0.000418298,0.000157573,-0.000680554,-0.755171,0.000514337,0.0169092,671,1338,-9.06987,-4.12253
-546,-314,-9.10046,4.39746,-6.74483e-05,-0.00124679,-0.00109979,0.000590775,-0.00190502,-0.539317,0.00150607,0.0177349,678,1338,-9.10047,-4.39745
-539,-314,-9.07062,4.68872,-0.00030956,-0.0019883,-0.00183718,0.000870917,-0.00316877,-0.571119,0.00245487,0.0171537,685,1338,-9.0706,-4.68877
-532,-314,-8.90405,4.98669,-0.00102727,-0.0029217,-0.00293488,0.00110947,-0.00505844,-0.629303,0.00379654,0.0316609,692,1338,-8.90402,-4.98667
-525,-314,-8.86115,5.20801,0,0,0,0,0,0,0,-1,699,1338,-8.86117,-5.20802
-518,-314,-8.52753,4.70032,0,0,0,0,0,0,0,-1,706,1338,-8.52755,-4.70034
-511,-314,-9.62854,-1.08521,0,0,0,0,0,0,0,-1,713,1338,-9.62852,1.08521
-504,-314,-10.2526,-0.388672,0,0,0,0,0,0,0,-1,720,1338,-10.2526,0.388728
-497,-314,-10.8138,0.151123,0,0,0,0,0,0,0,-1,727,1338,-10.8138,-0.151183
-490,-314,-11.5034,0.731689,0,0,0,0,0,0,0,-1,734,1338,-11.5034,-0.731652
-483,-314,-12.3753,1.21509,0,0,0,0,0,0,0,-1,741,1338,-12.3753,-1.21503
-476,-314,-12.684,0.322632,0,0,0,0,0,0,0,-1,748,1338,-12.684,-0.322641
-469,-314,-12.9529,0.492676,0,0,0,0,0,0,0,-1,755,1338,-12.9529,-0.492656
-462,-314,0,0,0,0,0,0,0,0,0,-1,762,1338,0,0
-455,-314,0,0,0,0,0,0,0,0,0,-1,769,1338,0,0
-448,-314,0,0,0,0,0,0,0,0,0,-1,776,1338,0,0
-441,-314,0,0,0,0,0,0,0,0,0,-1,783,1338,0,0
-434,-314,0,0,0,0,0,0,0,0,0,-1,790,1338,0,0
-427,-314,0,0,0,0,0,0,0,0,0,-1,797,1338,0,0
-420,-314,0,0,0,0,0,0,0,0,0,-1,804,1338,0,0
-413,-314,0,0,0,0,0,0,0,0,0,-1,811,1338,0,0
-406,-314,0,0,0,0,0,0,0,0,0,-1,818,1338,0,0
-399,-314,0,0,0,0,0,0,0,0,0,-1,825,1338,0,0
-392,-314,0,0,0,0,0,0,0,0,0,-1,832,1338,0,0
-385,-314,0,0,0,0,0,0,0,0,0,-1,839,1338,0,0
-378,-314,0,0,0,0,0,0,0,0,0,-1,846,1338,0,0
-371,-314,0,0,0,0,0,0,0,0,0,-1,853,1338,0,0
-364,-314,0,0,0,0,0,0,0,0,0,-1,860,1338,0,0
-357,-314,0,0,0,0,0,0,0,0,0,-1,867,1338,0,0
-350,-314,0,0,0,0,0,0,0,0,0,-1,874,1338,0,0
-343,-314,0,0,0,0,0,0,0,0,0,-1,881,1338,0,0
-336,-314,0,0,0,0,0,0,0,0,0,-1,888,1338,0,0
-329,-314,0,0,0,0,0,0,0,0,0,-1,895,1338,0,0
-322,-314,0,0,0,0,0,0,0,0,0,-1,902,1338,0,0
-315,-314,0,0,0,0,0,0,0,0,0,-1,909,1338,0,0
-308,-314,0,0,0,0,0,0,0,0,0,-1,916,1338,0,0
-301,-314,0,0,0,0,0,0,0,0,0,-1,923,1338,0,0
-294,-314,0,0,0,0,0,0,0,0,0,-1,930,1338,0,0
-287,-314,0,0,0,0,0,0,0,0,0,-1,937,1338,0,0
-280,-314,0,0,0,0,0,0,0,0,0,-1,944,1338,0,0
-273,-314,0,0,0,0,0,0,0,0,0,-1,951,1338,0,0
-266,-314,0,0,0,0,0,0,0,0,0,-1,958,1338,0,0
-259,-314,0,0,0,0,0,0,0,0,0,-1,965,1338,0,0
-252,-314,0,0,0,0,0,0,0,0,0,-1,972,1338,0,0
-245,-314,0,0,0,0,0,0,0,0,0,-1,979,1338,0,0
-238,-314,0,0,0,0,0,0,0,0,0,-1,986,1338,0,0
-231,-314,0,0,0,0,0,0,0,0,0,-1,993,1338,0,0
-224,-314,0,0,0,0,0,0,0,0,0,-1,1000,1338,0,0
-217,-314,0,0,0,0,0,0,0,0,0,-1,1007,1338,0,0
-210,-314,0,0,0,0,0,0,0,0,0,-1,1014,1338,0,0
-203,-314,0,0,0,0,0,0,0,0,0,-1,1021,1338,0,0
-196,-314,0,0,0,0,0,0,0,0,0,-1,1028,1338,0,0
-189,-314,0,0,0,0,0,0,0,0,0,-1,1035,1338,0,0
-182,-314,0,0,0,0,0,0,0,0,0,-1,1042,1338,0,0
-175,-314,0,0,0,0,0,0,0,0,0,-1,1049,1338,0,0
-168,-314,0,0,0,0,0,0,0,0,0,-1,1056,1338,0,0
-161,-314,0,0,0,0,0,0,0,0,0,-1,1063,1338,0,0
-154,-314,0,0,0,0,0,0,0,0,0,-1,1070,1338,0,0
-147,-314,0,0,0,0,0,0,0,0,0,-1,1077,1338,0,0
-140,-314,0,0,0,0,0,0,0,0,0,-1,1084,1338,0,0
-133,-314,0,0,0,0,0,0,0,0,0,-1,1091,1338,0,0
-126,-314,0,0,0,0,0,0,0,0,0,-1,1098,1338,0,0
-119,-314,0,0,0,0,0,0,0,0,0,-1,1105,1338,0,0
-112,-314,0,0,0,0,0,0,0,0,0,-1,1112,1338,0,0
-105,-314,0,0,0,0,0,0,0,0,0,-1,1119,1338,0,0
-98,-314,0,0,0,0,0,0,0,0,0,-1,1126,1338,0,0
-91,-314,0,0,0,0,0,0,0,0,0,-1,1133,1338,0,0
-84,-314,0,0,0,0,0,0,0,0,0,-1,1140,1338,0,0
-77,-314,0,0,0,0,0,0,0,0,0,-1,1147,1338,0,0
-70,-314,0,0,0,0,0,0,0,0,0,-1,1154,1338,0,0
-63,-314,0,0,0,0,0,0,0,0,0,-1,1161,1338,0,0
-56,-314,0,0,0,0,0,0,0,0,0,-1,1168,1338,0,0
-49,-314,0,0,0,0,0,0,0,0,0,-1,1175,1338,0,0
-42,-314,0,0,0,0,0,0,0,0,0,-1,1182,1338,0,0
-35,-314,0,0,0,0,0,0,0,0,0,-1,1189,1338,0,0
-28,-314,0,0,0,0,0,0,0,0,0,-1,1196,1338,0,0
-21,-314,0,0,0,0,0,0,0,0,0,-1,1203,1338,0,0
-14,-314,0,0,0,0,0,0,0,0,0,-1,1210,1338,0,0
-7,-314,0,0,0,0,0,0,0,0,0,-1,1217,1338,0,0
0,-314,0,0,0,0,0,0,0,0,0,-1,1224,1338,0,0
7,-314,0,0,0,0,0,0,0,0,0,-1,1231,1338,0,0
14,-314,0,0,0,0,0,0,0,0,0,-1,1238,1338,0,0
21,-314,0,0,0,0,0,0,0,0,0,-1,1245,1338,0,0
28,-314,0,0,0,0,0,0,0,0,0,-1,1252,1338,0,0
35,-314,0,0,0,0,0,0,0,0,0,-1,1259,1338,0,0
42,-314,0,0,0,0,0,0,0,0,0,-1,1266,1338,0,0
49,-314,0,0,0,0,0,0,0,0,0,-1,1273,1338,0,0
56,-314,0,0,0,0,0,0,0,0,0,-1,1280,1338,0,0
63,-314,0,0,0,0,0,0,0,0,0,-1,1287,1338,0,0
70,-314,0,0,0,0,0,0,0,0,0,-1,1294,1338,0,0
77,-314,0,0,0,0,0,0,0,0,0,-1,1301,1338,0,0
84,-314,0,0,0,0,0,0,0,0,0,-1,1308,1338,0,0
91,-314,0,0,0,0,0,0,0,0,0,-1,1315,1338,0,0
98,-314,0,0,0,0,0,0,0,0,0,-1,1322,1338,0,0
105,-314,0,0,0,0,0,0,0,0,0,-1,1329,1338,0,0
112,-314,0,0,0,0,0,0,0,0,0,-1,1336,1338,0,0
119,-314,0,0,0,0,0,0,0,0,0,-1,1343,1338,0,0
126,-314,0,0,0,0,0,0,0,0,0,-1,1350,1338,0,0
133,-314,0,0,0,0,0,0,0,0,0,-1,1357,1338,0,0
140,-314,0,0,0,0,0,0,0,0,0,-1,1364,1338,0,0
147,-314,0,0,0,0,0,0,0,0,0,-1,1371,1338,0,0
154,-314,0,0,0,0,0,0,0,0,0,-1,1378,1338,0,0
161,-314,0,0,0,0,0,0,0,0,0,-1,1385,1338,0,0
168,-314,0,0,0,0,0,0,0,0,0,-1,1392,1338,0,0
175,-314,0,0,0,0,0,0,0,0,0,-1,1399,1338,0,0
182,-314,0,0,0,0,0,0,0,0,0,-1,1406,1338,0,0
189,-314,0,0,0,0,0,0,0,0,0,-1,1413,1338,0,0
196,-314,0,0,0,0,0,0,0,0,0,-1,1420,1338,0,0
203,-314,0,0,0,0,0,0,0,0,0,-1,1427,1338,0,0
210,-314,0,0,0,0,0,0,0,0,0,-1,1434,1338,0,0
217,-314,0,0,0,0,0,0,0,0,0,-1,1441,1338,0,0
224,-314,0,0,0,0,0,0,0,0,0,-1,1448,1338,0,0
231,-314,0,0,0,0,0,0,0,0,0,-1,1455,1338,0,0
238,-314,0,0,0,0,0,0,0,0,0,-1,1462,1338,0,0
245,-314,0,0,0,0,0,0,0,0,0,-1,1469,1338,0,0
252,-314,0,0,0,0,0,0,0,0,0,-1,1476,1338,0,0
259,-314,0,0,0,0,0,0,0,0,0,-1,1483,1338,0,0
266,-314,0,0,0,0,0,0,0,0,0,-1,1490,1338,0,0
273,-314,0,0,0,0,0,0,0,0,0,-1,1497,1338,0,0
280,-314,0,0,0,0,0,0,0,0,0,-1,1504,1338,0,0
287,-314,0,0,0,0,0,0,0,0,0,-1,1511,1338,0,0
294,-314,0,0,0,0,0,0,0,0,0,-1,1518,1338,0,0
301,-314,0,0,0,0,0,0,0,0,0,-1,1525,1338,0,0
308,-314,0,0,0,0,0,0,0,0,0,-1,1532,1338,0,0
315,-314,0,0,0,0,0,0,0,0,0,-1,1539,1338,0,0
322,-314,0,0,0,0,0,0,0,0,0,-1,1546,1338,0,0
329,-314,0,0,0,0,0,0,0,0,0,-1,1553,1338,0,0
336,-314,0,0,0,0,0,0,0,0,0,-1,1560,1338,0,0
343,-314,0,0,0,0,0,0,0,0,0,-1,1567,1338,0,0
350,-314,0,0,0,0,0,0,0,0,0,-1,1574,1338,0,0
357,-314,0,0,0,0,0,0,0,0,0,-1,1581,1338,0,0
364,-314,0,0,0,0,0,0,0,0,0,-1,1588,1338,0,0
371,-314,0,0,0,0,0,0,0,0,0,-1,1595,1338,0,0
378,-314,0,0,0,0,0,0,0,0,0,-1,1602,1338,0,0
385,-314,0,0,0,0,0,0,0,0,0,-1,1609,1338,0,0
392,-314,0,0,0,0,0,0,0,0,0,-1,1616,1338,0,0
399,-314,0,0,0,0,0,0,0,0,0,-1,1623,1338,0,0
406,-314,0,0,0,0,0,0,0,0,0,-1,1630,1338,0,0
413,-314,0,0,0,0,0,0,0,0,0,-1,1637,1338,0,0
420,-314,0,0,0,0,0,0,0,0,0,-1,1644,1338,0,0
427,-314,0,0,0,0,0,0,0,0,0,-1,1651,1338,0,0
434,-314,0,0,0,0,0,0,0,0,0,-1,1658,1338,0,0
441,-314,0,0,0,0,0,0,0,0,0,-1,1665,1338,0,0
448,-314,0,0,0,0,0,0,0,0,0,-1,1672,1338,0,0
455,-314,0,0,0,0,0,0,0,0,0,-1,1679,1338,0,0
462,-314,0,0,0,0,0,0,0,0,0,-1,1686,1338,0,0
469,-314,0,0,0,0,0,0,0,0,0,-1,1693,1338,0,0
476,-314,0,0,0,0,0,0,0,0,0,-1,1700,1338,0,0
483,-314,0,0,0,0,0,0,0,0,0,-1,1707,1338,0,0
490,-314,0,0,0,0,0,0,0,0,0,-1,1714,1338,0,0
497,-314,0,0,0,0,0,0,0,0,0,-1,1721,1338,0,0
504,-314,0,0,0,0,0,0,0,0,0,-1,1728,1338,0,0
511,-314,0,0,0,0,0,0,0,0,0,-1,1735,1338,0,0
518,-314,0,0,0,0,0,0,0,0,0,-1,1742,1338,0,0
525,-314,0,0,0,0,0,0,0,0,0,-1,1749,1338,0,0
532,-314,0,0,0,0,0,0,0,0,0,-1,1756,1338,0,0
539,-314,0,0,0,0,0,0,0,0,0,-1,1763,1338,0,0
546,-314,0,0,0,0,0,0,0,0,0,-1,1770,1338,0,0
553,-314,0,0,0,0,0,0,0,0,0,-1,1777,1338,0,0
560,-314,0,0,0,0,0,0,0,0,0,-1,1784,1338,0,0
567,-314,0,0,0,0,0,0,0,0,0,-1,1791,1338,0,0
574,-314,0,0,0,0,0,0,0,0,0,-1,1798,1338,0,0
581,-314,21.4202,0.310669,0,0,0,0,0,0,0,-1,1805,1338,21.4202,-0.310636
588,-314,24.0861,6.47852,0,0,0,0,0,0,0,-1,1812,1338,24.086,-6.47857
595,-314,24.5223,5.8584,0,0,0,0,0,0,0,-1,1819,1338,24.5223,-5.85834
602,-314,25.0625,5.20728,0.040639,-0.0911724,-0.0427296,0.0532788,-0.103812,-0.287605,0.0922474,0.0447952,1826,1338,25.0625,-5.20724
609,-314,25.3845,4.48315,0.0296049,-0.074878,-0.0331754,0.0392486,-0.0845218,-0.282893,0.073035,0.0428458,1833,1338,25.3845,-4.4831
616,-314,25.3721,3.75061,0.0203591,-0.0587139,-0.0248884,0.0275406,-0.0658954,-0.280916,0.0554396,0.0462747,1840,1338,25.372,-3.75057
623,-314,25.5664,2.9259,0,0,0,0,0,0,0,-1,1847,1338,25.5664,-2.9259
630,-314,22.5269,2.75024,0,0,0,0,0,0,0,-1,1854,1338,22.5269,-2.75025
637,-314,20.881,5.42261,0,0,0,0,0,0,0,-1,1861,1338,20.881,-5.42265
644,-314,17.0294,5.60413,0,0,0,0,0,0,0,-1,1868,1338,17.0295,-5.60408
651,-314,18.3259,6.61926,0,0,0,0,0,0,0,-1,1875,1338,18.3259,-6.61932
658,-314,18.1301,6.80347,-0.00705981,-0.00883329,0.000901029,-0.00668236,-0.00921073,0.396695,0.00549513,0.0438295,1882,1338,18.1301,-6.80343
665,-314,17.8933,6.89905,-0.00836607,-0.00448387,0.00236394,-0.0033662,-0.00948375,1.12914,0.00555172,0.017059,1889,1338,17.8933,-6.899
672,-314,17.9296,6.68469,-0.00659929,-0.00189509,0.00269311,-0.000671547,-0.00782283,1.14435,0.00500641,0.0120053,1896,1338,17.9295,-6.68471
679,-314,17.9253,6.4209,-0.00457045,-0.00148708,0.00190799,-0.000575765,-0.00548177,1.1252,0.00347851,0.0100531,1903,1338,17.9253,-6.42093
686,-314,17.9086,6.17163,-0.00275319,-0.000527256,0.00103382,-0.000121183,-0.00315926,1.19652,0.00206697,0.0110804,1910,1338,17.9085,-6.17159
693,-314,17.9041,5.9447,-0.00114049,0.000540725,5.0848e-05,0.000542262,-0.00114203,1.54059,0.000992765,0.0107281,1917,1338,17.904,-5.94469
700,-314,17.8903,5.71191,0.000999199,0.00158256,-0.0013643,0.00268601,-0.000104257,-0.89071,0.00182642,0.0112302,1924,1338,17.8903,-5.71197
707,-314,17.9081,5.47876,0.00351719,0.00302019,-0.00299953,0.0062785,0.000258886,-0.744069,0.00410209,0.0113679,1931,1338,17.9081,-5.4787
714,-314,17.9075,5.26514,0.00631302,0.00460815,-0.00492816,0.0104619,0.000459244,-0.69976,0.00682669,0.0108744,1938,1338,17.9075,-5.26509
721,-314,17.933,5.05945,0.00967552,0.00652591,-0.00725152,0.0155213,0.000680163,-0.678474,0.0101284,0.0170516,1945,1338,17.9329,-5.05942
728,-314,17.8076,4.89172,0.0139188,0.00879271,-0.0100934,0.0217695,0.000942024,-0.661059,0.0142094,0.0333594,1952,1338,17.8076,-4.89174
735,-314,17.9259,4.3783,0.0193906,0.0114712,-0.013625,0.0296196,0.00124225,-0.643983,0.0193456,0.0414511,1959,1338,17.9259,-4.37833
742,-314,18.1226,3.81982,0.0262235,0.0145683,-0.0178407,0.0391643,0.00162748,-0.627539,0.0255843,0.0475503,1966,1338,18.1225,-3.81979
749,-314,18.3912,3.29553,0.034427,0.0180477,-0.02268,0.0503507,0.00212403,-0.612135,0.032882,0.0480117,1973,1338,18.3912,-3.29554
756,-314,18.4928,2.86865,0.0438433,0.0219049,-0.0280179,0.0629628,0.00278544,-0.598817,0.0410782,0.0445583,1980,1338,18.4928,-2.86867
763,-314,18.5018,2.60217,0,0,0,0,0,0,0,-1,1987,1338,18.5018,-2.60218
770,-314,0,0,0,0,0,0,0,0,0,-1,1994,1338,0,0
777,-314,0,0,0,0,0,0,0,0,0,-1,2001,1338,0,0
784,-314,0,0,0,0,0,0,0,0,0,-1,2008,1338,0,0
791,-314,0,0,0,0,0,0,0,0,0,-1,2015,1338,0,0
798,-314,0,0,0,0,0,0,0,0,0,-1,2022,1338,0,0
805,-314,0,0,0,0,0,0,0,0,0,-1,2029,1338,0,0
812,-314,0,0,0,0,0,0,0,0,0,-1,2036,1338,0,0
-700,-321,0,0,0,0,0,0,0,0,0,-1,524,1345,0,0
-693,-321,0,0,0,0,0,0,0,0,0,-1,531,1345,0,0
-686,-321,0,0,0,0,0,0,0,0,0,-1,538,1345,0,0
-679,-321,0,0,0,0,0,0,0,0,0,-1,545,1345,0,0
-672,-321,0,0,0,0,0,0,0,0,0,-1,552,1345,0,0
-665,-321,0,0,0,0,0,0,0,0,0,-1,559,1345,0,0
-658,-321,0,0,0,0,0,0,0,0,0,-1,566,1345,0,0
-651,-321,0,0,0,0,0,0,0,0,0,-1,573,1345,0,0
-644,-321,-9.83881,4.51257,0,0,0,0,0,0,0,-1,580,1345,-9.8388,-4.51252
-637,-321,-8.50763,-2.72925,0,0,0,0,0,0,0,-1,587,1345,-8.50761,2.72922
-630,-321,-7.20203,-2.84583,0,0,0,0,0,0,0,-1,594,1345,-7.20204,2.84586
-623,-321,-5.89648,-2.96252,0,0,0,0,0,0,0,-1,601,1345,-5.89646,2.96249
-616,-321,-7.65869,-0.0435791,0,0,0,0,0,0,0,-1,608,1345,-7.65869,0.0435267
-609,-321,-7.95209,1.14758,0,0,0,0,0,0,0,-1,615,1345,-7.95208,-1.14757
-602,-321,-8.58807,1.15747,0,0,0,0,0,0,0,-1,622,1345,-8.58808,-1.15751
-595,-321,-8.46918,2.58179,0,0,0,0,0,0,0,-1,629,1345,-8.46916,-2.58173
-588,-321,-8.84167,2.74219,-0.0060396,0.0156987,0.00806445,0.0183637,-0.00870461,1.25163,0.0159561,0.0225286,636,1345,-8.84167,-2.74216
-581,-321,-8.80798,3.08228,-0.00433124,0.0106168,0.00530216,0.0123065,-0.00602095,1.26229,0.0107868,0.0120554,643,1345,-8.80799,-3.08224
-574,-321,-8.81024,3.33069,-0.00275984,0.00670245,0.00325866,0.00771609,-0.00377349,1.26922,0.00676244,0.0152013,650,1345,-8.81023,-3.33075
-567,-321,-8.80145,3.58044,-0.00163221,0.00358643,0.00154371,0.00400887,-0.00205465,1.30368,0.00356087,0.0225862,657,1345,-8.80145,-3.5805
-560,-321,-8.74335,3.89441,-0.0011667,0.00159236,0.000385351,0.00164517,-0.00121951,1.4346,0.00166,0.0270713,664,1345,-8.74336,-3.89443
-553,-321,-8.74261,4.10071,-0.000584247,0.000188802,-0.000356217,0.000327912,-0.000723358,-1.19849,0.0006211,0.0277869,671,1345,-8.74259,-4.10071
-546,-321,-8.84406,4.34534,-0.000170741,-0.000904259,-0.00102717,0.000553179,-0.00162818,-0.613923,0.00130939,0.0258078,678,1345,-8.84404,-4.34537
-539,-321,-8.84534,4.66614,-0.000174982,-0.00159951,-0.00168258,0.000939879,-0.00271437,-0.585176,0.00219113,0.024165,685,1345,-8.84533,-4.66614
-532,-321,-8.74225,4.96362,-0.000582374,-0.00242441,-0.00261714,0.00127108,-0.00427787,-0.616207,0.00335681,0.0201022,692,1345,-8.74226,-4.96367
-525,-321,-8.76733,5.32788,-0.00209374,-0.00360626,-0.00397974,0.00120096,-0.00690096,-0.691504,0.0050488,0.0409655,699,1345,-8.76732,-5.32787
-518,-321,-8.685,5.49756,0,0,0,0,0,0,0,-1,706,1345,-8.685,-5.4975
-511,-321,-9.3302,5.29297,0,0,0,0,0,0,0,-1,713,1345,-9.33023,-5.29294
-504,-321,-8.73346,5.01123,0,0,0,0,0,0,0,-1,720,1345,-8.73345,-5.01118
-497,-321,-9.73969,0.28894,0,0,0,0,0,0,0,-1,727,1345,-9.73969,-0.288964
-490,-321,-10.5172,0.833252,0,0,0,0,0,0,0,-1,734,1345,-10.5172,-0.833304
-483,-321,-11.4693,1.27173,0,0,0,0,0,0,0,-1,741,1345,-11.4693,-1.27173
-476,-321,-12.3351,0.269897,0,0,0,0,0,0,0,-1,748,1345,-12.3351,-0.269887
-469,-321,-12.7842,0.195679,0,0,0,0,0,0,0,-1,755,1345,-12.7842,-0.195644
-462,-321,-13.8533,0.309937,0,0,0,0,0,0,0,-1,762,1345,-13.8533,-0.309916
-455,-321,0,0,0,0,0,0,0,0,0,-1,769,1345,0,0
-448,-321,0,0,0,0,0,0,0,0,0,-1,776,1345,0,0
-441,-321,0,0,0,0,0,0,0,0,0,-1,783,1345,0,0
-434,-321,0,0,0,0,0,0,0,0,0,-1,790,1345,0,0
-427,-321,0,0,0,0,0,0,0,0,0,-1,797,1345,0,0
-420,-321,0,0,0,0,0,0,0,0,0,-1,804,1345,0,0
-413,-321,0,0,0,0,0,0,0,0,0,-1,811,1345,0,0
-406,-321,0,0,0,0,0,0,0,0,0,-1,818,1345,0,0
-399,-321,0,0,0,0,0,0,0,0,0,-1,825,1345,0,0
-392,-321,0,0,0,0,0,0,0,0,0,-1,832,1345,0,0
-385,-321,0,0,0,0,0,0,0,0,0,-1,839,1345,0,0
-378,-321,0,0,0,0,0,0,0,0,0,-1,846,1345,0,0
-371,-321,0,0,0,0,0,0,0,0,0,-1,853,1345,0,0
-364,-321,0,0,0,0,0,0,0,0,0,-1,860,1345,0,0
-357,-321,0,0,0,0,0,0,0,0,0,-1,867,1345,0,0
-350,-321,0,0,0,0,0,0,0,0,0,-1,874,1345,0,0
-343,-321,0,0,0,0,0,0,0,0,0,-1,881,1345,0,0
-336,-321,0,0,0,0,0,0,0,0,0,-1,888,1345,0,0
-329,-321,0,0,0,0,0,0,0,0,0,-1,895,1345,0,0
-322,-321,0,0,0,0,0,0,0,0,0,-1,902,1345,0,0
-315,-321,0,0,0,0,0,0,0,0,0,-1,909,1345,0,0
-308,-321,0,0,0,0,0,0,0,0,0,-1,916,1345,0,0
-301,-321,0,0,0,0,0,0,0,0,0,-1,923,1345,0,0
-294,-321,0,0,0,0,0,0,0,0,0,-1,930,1345,0,0
-287,-321,0,0,0,0,0,0,0,0,0,-1,937,1345,0,0
-280,-321,0,0,0,0,0,0,0,0,0,-1,944,1345,0,0
-273,-321,0,0,0,0,0,0,0,0,0,-1,951,1345,0,0
-266,-321,0,0,0,0,0,0,0,0,0,-1,958,1345,0,0
-259,-321,0,0,0,0,0,0,0,0,0,-1,965,1345,0,0
-252,-321,0,0,0,0,0,0,0,0,0,-1,972,1345,0,0
-245,-321,0,0,0,0,0,0,0,0,0,-1,979,1345,0,0
-238,-321,0,0,0,0,0,0,0,0,0,-1,986,1345,0,0
-231,-321,0,0,0,0,0,0,0,0,0,-1,993,1345,0,0
-224,-321,0,0,0,0,0,0,0,0,0,-1,1000,1345,0,0
-217,-321,0,0,0,0,0,0,0,0,0,-1,1007,1345,0,0
-210,-321,0,0,0,0,0,0,0,0,0,-1,1014,1345,0,0
-203,-321,0,0,0,0,0,0,0,0,0,-1,1021,1345,0,0
-196,-321,0,0,0,0,0,0,0,0,0,-1,1028,1345,0,0
-189,-321,0,0,0,0,0,0,0,0,0,-1,1035,1345,0,0
-182,-321,0,0,0,0,0,0,0,0,0,-1,1042,1345,0,0
-175,-321,0,0,0,0,0,0,0,0,0,-1,1049,1345,0,0
-168,-321,0,0,0,0,0,0,0,0,0,-1,1056,1345,0,0
-161,-321,0,0,0,0,0,0,0,0,0,-1,1063,1345,0,0
-154,-321,0,0,0,0,0,0,0,0,0,-1,1070,1345,0,0
-147,-321,0,0,0,0,0,0,0,0,0,-1,1077,1345,0,0
-140,-321,0,0,0,0,0,0,0,0,0,-1,1084,1345,0,0
-133,-321,0,0,0,0,0,0,0,0,0,-1,1091,1345,0,0
-126,-321,0,0,0,0,0,0,0,0,0,-1,1098,1345,0,0
-119,-321,0,0,0,0,0,0,0,0,0,-1,1105,1345,0,0
-112,-321,0,0,0,0,0,0,0,0,0,-1,1112,1345,0,0
-105,-321,0,0,0,0,0,0,0,0,0,-1,1119,1345,0,0
-98,-321,0,0,0,0,0,0,0,0,0,-1,1126,1345,0,0
-91,-321,0,0,0,0,0,0,0,0,0,-1,1133,1345,0,0
-84,-321,0,0,0,0,0,0,0,0,0,-1,1140,1345,0,0
-77,-321,0,0,0,0,0,0,0,0,0,-1,1147,1345,0,0
-70,-321,0,0,0,0,0,0,0,0,0,-1,1154,1345,0,0
-63,-321,0,0,0,0,0,0,0,0,0,-1,1161,1345,0,0
-56,-321,0,0,0,0,0,0,0,0,0,-1,1168,1345,0,0
-49,-321,0,0,0,0,0,0,0,0,0,-1,1175,1345,0,0
-42,-321,0,0,0,0,0,0,0,0,0,-1,1182,1345,0,0
-35,-321,0,0,0,0,0,0,0,0,0,-1,1189,1345,0,0
-28,-321,0,0,0,0,0,0,0,0,0,-1,1196,1345,0,0
-21,-321,0,0,0,0,0,0,0,0,0,-1,1203,1345,0,0
-14,-321,0,0,0,0,0,0,0,0,0,-1,1210,1345,0,0
-7,-321,0,0,0,0,0,0,0,0,0,-1,1217,1345,0,0
0,-321,0,0,0,0,0,0,0,0,0,-1,1224,1345,0,0
7,-321,0,0,0,0,0,0,0,0,0,-1,1231,1345,0,0
14,-321,0,0,0,0,0,0,0,0,0,-1,1238,1345,0,0
21,-321,0,0,0,0,0,0,0,0,0,-1,1245,1345,0,0
28,-321,0,0,0,0,0,0,0,0,0,-1,1252,1345,0,0
35,-321,0,0,0,0,0,0,0,0,0,-1,1259,1345,0,0
42,-321,0,0,0,0,0,0,0,0,0,-1,1266,1345,0,0
49,-321,0,0,0,0,0,0,0,0,0,-1,1273,1345,0,0
56,-321,0,0,0,0,0,0,0,0,0,-1,1280,1345,0,0
63,-321,0,0,0,0,0,0,0,0,0,-1,1287,1345,0,0
70,-321,0,0,0,0,0,0,0,0,0,-1,1294,1345,0,0
77,-321,0,0,0,0,0,0,0,0,0,-1,1301,1345,0,0
84,-321,0,0,0,0,0,0,0,0,0,-1,1308,1345,0,0
91,-321,0,0,0,0,0,0,0,0,0,-1,1315,1345,0,0
98,-321,0,0,0,0,0,0,0,0,0,-1,1322,1345,0,0
105,-321,0,0,0,0,0,0,0,0,0,-1,1329,1345,0,0
112,-321,0,0,0,0,0,0,0,0,0,-1,1336,1345,0,0
119,-321,0,0,0,0,0,0,0,0,0,-1,1343,1345,0,0
126,-321,0,0,0,0,0,0,0,0,0,-1,1350,1345,0,0
133,-321,0,0,0,0,0,0,0,0,0,-1,1357,1345,0,0
140,-321,0,0,0,0,0,0,0,0,0,-1,1364,1345,0,0
147,-321,0,0,0,0,0,0,0,0,0,-1,1371,1345,0,0
154,-321,0,0,0,0,0,0,0,0,0,-1,1378,1345,0,0
161,-321,0,0,0,0,0,0,0,0,0,-1,1385,1345,0,0
168,-321,0,0,0,0,0,0,0,0,0,-1,1392,1345,0,0
175,-321,0,0,0,0,0,0,0,0,0,-1,1399,1345,0,0
182,-321,0,0,0,0,0,0,0,0,0,-1,1406,1345,0,0
189,-321,0,0,0,0,0,0,0,0,0,-1,1413,1345,0,0
196,-321,0,0,0,0,0,0,0,0,0,-1,1420,1345,0,0
203,-321,0,0,0,0,0,0,0,0,0,-1,1427,1345,0,0
210,-321,0,0,0,0,0,0,0,0,0,-1,1434,1345,0,0
217,-321,0,0,0,0,0,0,0,0,0,-1,1441,1345,0,0
224,-321,0,0,0,0,0,0,0,0,0,-1,1448,1345,0,0
231,-321,0,0,0,0,0,0,0,0,0,-1,1455,1345,0,0
238,-321,0,0,0,0,0,0,0,0,0,-1,1462,1345,0,0
245,-321,0,0,0,0,0,0,0,0,0,-1,1469,1345,0,0
252,-321,0,0,0,0,0,0,0,0,0,-1,1476,1345,0,0
259,-321,0,0,0,0,0,0,0,0,0,-1,1483,1345,0,0
266,-321,0,0,0,0,0,0,0,0,0,-1,1490,1345,0,0
273,-321,0,0,0,0,0,0,0,0,0,-1,1497,1345,0,0
280,-321,0,0,0,0,0,0,0,0,0,-1,1504,1345,0,0
287,-321,0,0,0,0,0,0,0,0,0,-1,1511,1345,0,0
294,-321,0,0,0,0,0,0,0,0,0,-1,1518,1345,0,0
301,-321,0,0,0,0,0,0,0,0,0,-1,1525,1345,0,0
308,-321,0,0,0,0,0,0,0,0,0,-1,1532,1345,0,0
315,-321,0,0,0,0,0,0,0,0,0,-1,1539,1345,0,0
322,-321,0,0,0,0,0,0,0,0,0,-1,1546,1345,0,0
329,-321,0,0,0,0,0,0,0,0,0,-1,1553,1345,0,0
336,-321,0,0,0,0,0,0,0,0,0,-1,1560,1345,0,0
343,-321,0,0,0,0,0,0,0,0,0,-1,1567,1345,0,0
350,-321,0,0,0,0,0,0,0,0,0,-1,1574,1345,0,0
357,-321,0,0,0,0,0,0,0,0,0,-1,1581,1345,0,0
364,-321,0,0,0,0,0,0,0,0,0,-1,1588,1345,0,0
371,-321,0,0,0,0,0,0,0,0,0,-1,1595,1345,0,0
378,-321,0,0,0,0,0,0,0,0,0,-1,1602,1345,0,0
385,-321,0,0,0,0,0,0,0,0,0,-1,1609,1345,0,0
392,-321,0,0,0,0,0,0,0,0,0,-1,1616,1345,0,0
399,-321,0,0,0,0,0,0,0,0,0,-1,1623,1345,0,0
406,-321,0,0,0,0,0,0,0,0,0,-1,1630,1345,0,0
413,-321,0,0,0,0,0,0,0,0,0,-1,1637,1345,0,0
420,-321,0,0,0,0,0,0,0,0,0,-1,1644,1345,0,0
427,-321,0,0,0,0,0,0,0,0,0,-1,1651,1345,0,0
434,-321,0,0,0,0,0,0,0,0,0,-1,1658,1345,0,0
441,-321,0,0,0,0,0,0,0,0,0,-1,1665,1345,0,0
448,-321,0,0,0,0,0,0,0,0,0,-1,1672,1345,0,0
455,-321,0,0,0,0,0,0,0,0,0,-1,1679,1345,0,0
462,-321,0,0,0,0,0,0,0,0,0,-1,1686,1345,0,0
469,-321,0,0,0,0,0,0,0,0,0,-1,1693,1345,0,0
476,-321,0,0,0,0,0,0,0,0,0,-1,1700,1345,0,0
483,-321,0,0,0,0,0,0,0,0,0,-1,1707,1345,0,0
490,-321,0,0,0,0,0,0,0,0,0,-1,1714,1345,0,0
497,-321,0,0,0,0,0,0,0,0,0,-1,1721,1345,0,0
504,-321,0,0,0,0,0,0,0,0,0,-1,1728,1345,0,0
511,-321,0,0,0,0,0,0,0,0,0,-1,1735,1345,0,0
518,-321,0,0,0,0,0,0,0,0,0,-1,1742,1345,0,0
525,-321,0,0,0,0,0,0,0,0,0,-1,1749,1345,0,0
532,-321,0,0,0,0,0,0,0,0,0,-1,1756,1345,0,0
539,-321,0,0,0,0,0,0,0,0,0,-1,1763,1345,0,0
546,-321,0,0,0,0,0,0,0,0,0,-1,1770,1345,0,0
553,-321,0,0,0,0,0,0,0,0,0,-1,1777,1345,0,0
560,-321,0,0,0,0,0,0,0,0,0,-1,1784,1345,0,0
567,-321,0,0,0,0,0,0,0,0,0,-1,1791,1345,0,0
574,-321,0,0,0,0,0,0,0,0,0,-1,1798,1345,0,0
581,-321,21.9177,1.24182,0,0,0,0,0,0,0,-1,1805,1345,21.9177,-1.24186
588,-321,22.4376,1.17017,0,0,0,0,0,0,0,-1,1812,1345,22.4376,-1.17019
595,-321,24.5834,6.63318,0,0,0,0,0,0,0,-1,1819,1345,24.5834,-6.63314
602,-321,25.1714,5.8252,0,0,0,0,0,0,0,-1,1826,1345,25.1714,-5.82524
609,-321,25.3066,5.27185,0,0,0,0,0,0,0,-1,1833,1345,25.3066,-5.27184
616,-321,25.2438,4.55066,0,0,0,0,0,0,0,-1,1840,1345,25.2438,-4.55071
623,-321,22.6586,2.66235,0,0,0,0,0,0,0,-1,1847,1345,22.6586,-2.66237
630,-321,22.0284,3.99402,0,0,0,0,0,0,0,-1,1854,1345,22.0284,-3.99406
637,-321,21.3214,5.34619,0,0,0,0,0,0,0,-1,1861,1345,21.3214,-5.34617
644,-321,16.8844,6.71973,0,0,0,0,0,0,0,-1,1868,1345,16.8844,-6.71971
651,-321,18.1409,6.98145,0,0,0,0,0,0,0,-1,1875,1345,18.1409,-6.98147
658,-321,17.7659,7.06714,-0.00592964,-0.0092295,0.000897037,-0.00570155,-0.00945758,0.24899,0.00549871,0.0345364,1882,1345,17.7659,-7.06715
665,-321,17.6499,6.91162,-0.00675223,-0.00461603,0.0022181,-0.00322226,-0.008146,1.00978,0.00473717,0.0168485,1889,1345,17.6498,-6.91158
672,-321,17.6958,6.66956,-0.00505209,-0.00200296,0.00240504,-0.000679977,-0.00637508,1.06789,0.0040425,0.0122677,1896,1345,17.6958,-6.66958
679,-321,17.6902,6.41479,-0.00332281,-0.00141636,0.00155804,-0.000543084,-0.00419609,1.05993,0.00263509,0.0107282,1903,1345,17.6902,-6.41474
686,-321,17.6545,6.17896,-0.00175843,-0.000412602,0.000625733,-0.000166628,-0.0020044,1.19625,0.00128433,0.011351,1910,1345,17.6545,-6.1789
693,-321,17.6569,5.95215,-0.000309102,0.000774247,-0.000437791,0.000929044,-0.000463899,-1.23093,0.000819026,0.0115976,1917,1345,17.6568,-5.95217
700,-321,17.6716,5.70093,0.00190587,0.0019108,-0.00196152,0.00386986,-5.31885e-05,-0.786026,0.00259782,0.0114993,1924,1345,17.6717,-5.70098
707,-321,17.6818,5.46533,0.00475816,0.00341529,-0.00374957,0.00789593,0.000277513,-0.696802,0.00517393,0.0128962,1931,1345,17.6817,-5.46538
714,-321,17.6678,5.24512,0.00794413,0.00508274,-0.00586331,0.0125488,0.000478102,-0.665733,0.00821112,0.0126256,1938,1345,17.6678,-5.24511
721,-321,17.6584,4.9895,0.0119713,0.00702936,-0.00844828,0.0183026,0.000698118,-0.643125,0.0119758,0.0224227,1945,1345,17.6585,-4.98955
728,-321,17.569,4.86975,0.0172059,0.0093327,-0.0116482,0.0255647,0.00097393,-0.622443,0.016728,0.0356444,1952,1345,17.5689,-4.86976
735,-321,17.8285,4.22473,0.0240123,0.0119808,-0.0156171,0.0347322,0.00126085,-0.601557,0.0227462,0.0460385,1959,1345,17.8284,-4.2247
742,-321,18.0637,3.49683,0.0324887,0.0149689,-0.0202833,0.0458229,0.00163479,-0.581558,0.0300185,0.0499786,1966,1345,18.0638,-3.49678
749,-321,18.5192,2.4917,0.0426004,0.0182454,-0.0255624,0.0587377,0.00210815,-0.56311,0.038475,0.0470113,1973,1345,18.5192,-2.4917
756,-321,18.3896,2.6571,0.0540982,0.0218197,-0.0312946,0.0731701,0.00274779,-0.547326,0.0478904,0.0457083,1980,1345,18.3897,-2.65705
763,-321,18.5568,2.37817,0,0,0,0,0,0,0,-1,1987,1345,18.5568,-2.37812
770,-321,0,0,0,0,0,0,0,0,0,-1,1994,1345,0,0
777,-321,0,0,0,0,0,0,0,0,0,-1,2001,1345,0,0
784,-321,0,0,0,0,0,0,0,0,0,-1,2008,1345,0,0
791,-321,0,0,0,0,0,0,0,0,0,-1,2015,1345,0,0
798,-321,0,0,0,0,0,0,0,0,0,-1,2022,1345,0,0
805,-321,0,0,0,0,0,0,0,0,0,-1,2029,1345,0,0
812,-321,0,0,0,0,0,0,0,0,0,-1,2036,1345,0,0
-700,-328,0,0,0,0,0,0,0,0,0,-1,524,1352,0,0
-693,-328,0,0,0,0,0,0,0,0,0,-1,531,1352,0,0
-686,-328,0,0,0,0,0,0,0,0,0,-1,538,1352,0,0
-679,-328,0,0,0,0,0,0,0,0,0,-1,545,1352,0,0
-672,-328,0,0,0,0,0,0,0,0,0,-1,552,1352,0,0
-665,-328,0,0,0,0,0,0,0,0,0,-1,559,1352,0,0
-658,-328,0,0,0,0,0,0,0,0,0,-1,566,1352,0,0
-651,-328,0,0,0,0,0,0,0,0,0,-1,573,1352,0,0
-644,-328,0,0,0,0,0,0,0,0,0,-1,580,1352,0,0
-637,-328,-8.59222,-2.56287,0,0,0,0,0,0,0,-1,587,1352,-8.59223,2.56281
-630,-328,-6.66809,-2.92493,0,0,0,0,0,0,0,-1,594,1352,-6.66812,2.92493
-623,-328,-4.74402,-3.28699,0,0,0,0,0,0,0,-1,601,1352,-4.744,3.28704
-616,-328,-8.22198,-0.25708,0,0,0,0,0,0,0,-1,608,1352,-8.22201,0.257067
-609,-328,-7.87439,0.192871,0,0,0,0,0,0,0,-1,615,1352,-7.87441,-0.192822
-602,-328,-7.63062,1.31665,0,0,0,0,0,0,0,-1,622,1352,-7.63064,-1.3166
-595,-328,-8.71185,2.32202,0,0,0,0,0,0,0,-1,629,1352,-8.71185,-2.32203
-588,-328,-8.47815,2.65405,-0.00735992,0.0171733,0.0072412,0.0191512,-0.00933777,1.30416,0.0167702,0.0439067,636,1352,-8.47818,-2.65407
-581,-328,-8.55048,3.05237,-0.00551274,0.0116482,0.00472525,0.0128633,-0.0067278,1.31911,0.0114943,0.014604,643,1352,-8.55048,-3.05233
-574,-328,-8.52954,3.33459,-0.00381408,0.0075102,0.00295077,0.00823295,-0.00453683,1.33059,0.00747487,0.0144608,650,1352,-8.52953,-3.33463
-567,-328,-8.52484,3.61145,-0.00251863,0.00430772,0.00144804,0.00460218,-0.00281309,1.37018,0.00432255,0.0199807,657,1352,-8.52484,-3.61149
-560,-328,-8.46344,3.91028,-0.00182886,0.00218871,0.00041745,0.00223163,-0.00187178,1.46835,0.00237214,0.0284779,664,1352,-8.46347,-3.91027
-553,-328,-8.47192,4.14038,-0.00102438,0.000698334,-0.000239874,0.000731111,-0.00105716,-1.435,0.00103816,0.0300245,671,1352,-8.47191,-4.14033
-546,-328,-8.56726,4.36926,-0.000306169,-0.000566362,-0.00084801,0.000421666,-0.0012942,-0.709285,0.00103247,0.0268762,678,1352,-8.56723,-4.3692
-539,-328,-8.60498,4.66748,-2.717e-05,-0.00126468,-0.0013843,0.000870367,-0.00216221,-0.575228,0.00180304,0.0233554,685,1352,-8.605,-4.66748
-532,-328,-8.57013,4.97241,-5.62215e-05,-0.00202476,-0.00212229,0.00129894,-0.00337992,-0.568273,0.00278898,0.0163109,692,1352,-8.57011,-4.97242
-525,-328,-8.51758,5.26453,-0.00093099,-0.0030705,-0.00316207,0.00133738,-0.00533887,-0.622287,0.00407879,0.0142182,699,1352,-8.51756,-5.26449
-518,-328,-8.46588,5.50867,-0.00279103,-0.00449884,-0.00486368,0.00129313,-0.00858301,-0.6985,0.00619818,0.0438059,706,1352,-8.46589,-5.50869
-511,-328,-8.8717,5.36755,-0.00561303,-0.00646438,-0.00759176,0.00156498,-0.0136424,-0.757392,0.00965894,0.0496939,713,1352,-8.8717,-5.36754
-504,-328,-9.46851,5.29456,0,0,0,0,0,0,0,-1,720,1352,-9.46849,-5.29452
-497,-328,-8.28729,5.14795,0,0,0,0,0,0,0,-1,727,1352,-8.28729,-5.14791
-490,-328,-9.54718,0.767334,0,0,0,0,0,0,0,-1,734,1352,-9.54719,-0.767333
-483,-328,-11.28,-0.205811,0,0,0,0,0,0,0,-1,741,1352,-11.28,0.205839
-476,-328,-12.1125,-0.0240479,0,0,0,0,0,0,0,-1,748,1352,-12.1125,0.024076
-469,-328,-12.9481,0.130005,0,0,0,0,0,0,0,-1,755,1352,-12.9481,-0.130043
-462,-328,-13.758,0.238892,0,0,0,0,0,0,0,-1,762,1352,-13.758,-0.238923
-455,-328,0,0,0,0,0,0,0,0,0,-1,769,1352,0,0
-448,-328,0,0,0,0,0,0,0,0,0,-1,776,1352,0,0
-441,-328,0,0,0,0,0,0,0,0,0,-1,783,1352,0,0
-434,-328,0,0,0,0,0,0,0,0,0,-1,790,1352,0,0
-427,-328,0,0,0,0,0,0,0,0,0,-1,797,1352,0,0
-420,-328,0,0,0,0,0,0,0,0,0,-1,804,1352,0,0
-413,-328,0,0,0,0,0,0,0,0,0,-1,811,1352,0,0
-406,-328,0,0,0,0,0,0,0,0,0,-1,818,1352,0,0
-399,-328,0,0,0,0,0,0,0,0,0,-1,825,1352,0,0
-392,-328,0,0,0,0,0,0,0,0,0,-1,832,1352,0,0
-385,-328,0,0,0,0,0,0,0,0,0,-1,839,1352,0,0
-378,-328,0,0,0,0,0,0,0,0,0,-1,846,1352,0,0
-371,-328,0,0,0,0,0,0,0,0,0,-1,853,1352,0,0
-364,-328,0,0,0,0,0,0,0,0,0,-1,860,1352,0,0
-357,-328,0,0,0,0,0,0,0,0,0,-1,867,1352,0,0
-350,-328,0,0,0,0,0,0,0,0,0,-1,874,1352,0,0
-343,-328,0,0,0,0,0,0,0,0,0,-1,881,1352,0,0
-336,-328,0,0,0,0,0,0,0,0,0,-1,888,1352,0,0
-329,-328,0,0,0,0,0,0,0,0,0,-1,895,1352,0,0
-322,-328,0,0,0,0,0,0,0,0,0,-1,902,1352,0,0
-315,-328,0,0,0,0,0,0,0,0,0,-1,909,1352,0,0
-308,-328,0,0,0,0,0,0,0,0,0,-1,916,1352,0,0
-301,-328,0,0,0,0,0,0,0,0,0,-1,923,1352,0,0
-294,-328,0,0,0,0,0,0,0,0,0,-1,930,1352,0,0
-287,-328,0,0,0,0,0,0,0,0,0,-1,937,1352,0,0
-280,-328,0,0,0,0,0,0,0,0,0,-1,944,1352,0,0
-273,-328,0,0,0,0,0,0,0,0,0,-1,951,1352,0,0
-266,-328,0,0,0,0,0,0,0,0,0,-1,958,1352,0,0
-259,-328,0,0,0,0,0,0,0,0,0,-1,965,1352,0,0
-252,-328,0,0,0,0,0,0,0,0,0,-1,972,1352,0,0
-245,-328,0,0,0,0,0,0,0,0,0,-1,979,1352,0,0
-238,-328,0,0,0,0,0,0,0,0,0,-1,986,1352,0,0
-231,-328,0,0,0,0,0,0,0,0,0,-1,993,1352,0,0
-224,-328,0,0,0,0,0,0,0,0,0,-1,1000,1352,0,0
-217,-328,0,0,0,0,0,0,0,0,0,-1,1007,1352,0,0
-210,-328,0,0,0,0,0,0,0,0,0,-1,1014,1352,0,0
-203,-328,0,0,0,0,0,0,0,0,0,-1,1021,1352,0,0
-196,-328,0,0,0,0,0,0,0,0,0,-1,1028,1352,0,0
-189,-328,0,0,0,0,0,0,0,0,0,-1,1035,1352,0,0
-182,-328,0,0,0,0,0,0,0,0,0,-1,1042,1352,0,0
-175,-328,0,0,0,0,0,0,0,0,0,-1,1049,1352,0,0
-168,-328,0,0,0,0,0,0,0,0,0,-1,1056,1352,0,0
-161,-328,0,0,0,0,0,0,0,0,0,-1,1063,1352,0,0
-154,-328,0,0,0,0,0,0,0,0,0,-1,1070,1352,0,0
-147,-328,0,0,0,0,0,0,0,0,0,-1,1077,1352,0,0
-140,-328,0,0,0,0,0,0,0,0,0,-1,1084,1352,0,0
-133,-328,0,0,0,0,0,0,0,0,0,-1,1091,1352,0,0
-126,-328,0,0,0,0,0,0,0,0,0,-1,1098,1352,0,0
-119,-328,0,0,0,0,0,0,0,0,0,-1,1105,1352,0,0
-112,-328,0,0,0,0,0,0,0,0,0,-1,1112,1352,0,0
-105,-328,0,0,0,0,0,0,0,0,0,-1,1119,1352,0,0
-98,-328,0,0,0,0,0,0,0,0,0,-1,1126,1352,0,0
-91,-328,0,0,0,0,0,0,0,0,0,-1,1133,1352,0,0
-84,-328,0,0,0,0,0,0,0,0,0,-1,1140,1352,0,0
-77,-328,0,0,0,0,0,0,0,0,0,-1,1147,1352,0,0
-70,-328,0,0,0,0,0,0,0,0,0,-1,1154,1352,0,0
-63,-328,0,0,0,0,0,0,0,0,0,-1,1161,1352,0,0
-56,-328,0,0,0,0,0,0,0,0,0,-1,1168,1352,0,0
-49,-328,0,0,0,0,0,0,0,0,0,-1,1175,1352,0,0
-42,-328,0,0,0,0,0,0,0,0,0,-1,1182,1352,0,0
-35,-328,0,0,0,0,0,0,0,0,0,-1,1189,1352,0,0
-28,-328,0,0,0,0,0,0,0,0,0,-1,1196,1352,0,0
-21,-328,0,0,0,0,0,0,0,0,0,-1,1203,1352,0,0
-14,-328,0,0,0,0,0,0,0,0,0,-1,1210,1352,0,0
-7,-328,0,0,0,0,0,0,0,0,0,-1,1217,1352,0,0
0,-328,0,0,0,0,0,0,0,0,0,-1,1224,1352,0,0
7,-328,0,0,0,0,0,0,0,0,0,-1,1231,1352,0,0
14,-328,0,0,0,0,0,0,0,0,0,-1,1238,1352,0,0
21,-328,0,0,0,0,0,0,0,0,0,-1,1245,1352,0,0
28,-328,0,0,0,0,0,0,0,0,0,-1,1252,1352,0,0
35,-328,0,0,0,0,0,0,0,0,0,-1,1259,1352,0,0
42,-328,0,0,0,0,0,0,0,0,0,-1,1266,1352,0,0
49,-328,0,0,0,0,0,0,0,0,0,-1,1273,1352,0,0
56,-328,0,0,0,0,0,0,0,0,0,-1,1280,1352,0,0
63,-328,0,0,0,0,0,0,0,0,0,-1,1287,1352,0,0
70,-328,0,0,0,0,0,0,0,0,0,-1,1294,1352,0,0
77,-328,0,0,0,0,0,0,0,0,0,-1,1301,1352,0,0
84,-328,0,0,0,0,0,0,0,0,0,-1,1308,1352,0,0
91,-328,0,0,0,0,0,0,0,0,0,-1,1315,1352,0,0
98,-328,0,0,0,0,0,0,0,0,0,-1,1322,1352,0,0
105,-328,0,0,0,0,0,0,0,0,0,-1,1329,1352,0,0
112,-328,0,0,0,0,0,0,0,0,0,-1,1336,1352,0,0
119,-328,0,0,0,0,0,0,0,0,0,-1,1343,1352,0,0
126,-328,0,0,0,0,0,0,0,0,0,-1,1350,1352,0,0
133,-328,0,0,0,0,0,0,0,0,0,-1,1357,1352,0,0
140,-328,0,0,0,0,0,0,0,0,0,-1,1364,1352,0,0
147,-328,0,0,0,0,0,0,0,0,0,-1,1371,1352,0,0
154,-328,0,0,0,0,0,0,0,0,0,-1,1378,1352,0,0
161,-328,0,0,0,0,0,0,0,0,0,-1,1385,1352,0,0
168,-328,0,0,0,0,0,0,0,0,0,-1,1392,1352,0,0
175,-328,0,0,0,0,0,0,0,0,0,-1,1399,1352,0,0
182,-328,0,0,0,0,0,0,0,0,0,-1,1406,1352,0,0
189,-328,0,0,0,0,0,0,0,0,0,-1,1413,1352,0,0
196,-328,0,0,0,0,0,0,0,0,0,-1,1420,1352,0,0
203,-328,0,0,0,0,0,0,0,0,0,-1,1427,1352,0,0
210,-328,0,0,0,0,0,0,0,0,0,-1,1434,1352,0,0
217,-328,0,0,0,0,0,0,0,0,0,-1,1441,1352,0,0
224,-328,0,0,0,0,0,0,0,0,0,-1,1448,1352,0,0
231,-328,0,0,0,0,0,0,0,0,0,-1,1455,1352,0,0
238,-328,0,0,0,0,0,0,0,0,0,-1,1462,1352,0,0
245,-328,0,0,0,0,0,0,0,0,0,-1,1469,1352,0,0
252,-328,0,0,0,0,0,0,0,0,0,-1,1476,1352,0,0
259,-328,0,0,0,0,0,0,0,0,0,-1,1483,1352,0,0
266,-328,0,0,0,0,0,0,0,0,0,-1,1490,1352,0,0
273,-328,0,0,0,0,0,0,0,0,0,-1,1497,1352,0,0
280,-328,0,0,0,0,0,0,0,0,0,-1,1504,1352,0,0
287,-328,0,0,0,0,0,0,0,0,0,-1,1511,1352,0,0
294,-328,0,0,0,0,0,0,0,0,0,-1,1518,1352,0,0
301,-328,0,0,0,0,0,0,0,0,0,-1,1525,1352,0,0
308,-328,0,0,0,0,0,0,0,0,0,-1,1532,1352,0,0
315,-328,0,0,0,0,0,0,0,0,0,-1,1539,1352,0,0
322,-328,0,0,0,0,0,0,0,0,0,-1,1546,1352,0,0
329,-328,0,0,0,0,0,0,0,0,0,-1,1553,1352,0,0
336,-328,0,0,0,0,0,0,0,0,0,-1,1560,1352,0,0
343,-328,0,0,0,0,0,0,0,0,0,-1,1567,1352,0,0
350,-328,0,0,0,0,0,0,0,0,0,-1,1574,1352,0,0
357,-328,0,0,0,0,0,0,0,0,0,-1,1581,1352,0,0
364,-328,0,0,0,0,0,0,0,0,0,-1,1588,1352,0,0
371,-328,0,0,0,0,0,0,0,0,0,-1,1595,1352,0,0
378,-328,0,0,0,0,0,0,0,0,0,-1,1602,1352,0,0
385,-328,0,0,0,0,0,0,0,0,0,-1,1609,1352,0,0
392,-328,0,0,0,0,0,0,0,0,0,-1,1616,1352,0,0
399,-328,0,0,0,0,0,0,0,0,0,-1,1623,1352,0,0
406,-328,0,0,0,0,0,0,0,0,0,-1,1630,1352,0,0
413,-328,0,0,0,0,0,0,0,0,0,-1,1637,1352,0,0
420,-328,0,0,0,0,0,0,0,0,0,-1,1644,1352,0,0
427,-328,0,0,0,0,0,0,0,0,0,-1,1651,1352,0,0
434,-328,0,0,0,0,0,0,0,0,0,-1,1658,1352,0,0
441,-328,0,0,0,0,0,0,0,0,0,-1,1665,1352,0,0
448,-328,0,0,0,0,0,0,0,0,0,-1,1672,1352,0,0
455,-328,0,0,0,0,0,0,0,0,0,-1,1679,1352,0,0
462,-328,0,0,0,0,0,0,0,0,0,-1,1686,1352,0,0
469,-328,0,0,0,0,0,0,0,0,0,-1,1693,1352,0,0
476,-328,0,0,0,0,0,0,0,0,0,-1,1700,1352,0,0
483,-328,0,0,0,0,0,0,0,0,0,-1,1707,1352,0,0
490,-328,0,0,0,0,0,0,0,0,0,-1,1714,1352,0,0
497,-328,0,0,0,0,0,0,0,0,0,-1,1721,1352,0,0
504,-328,0,0,0,0,0,0,0,0,0,-1,1728,1352,0,0
511,-328,0,0,0,0,0,0,0,0,0,-1,1735,1352,0,0
518,-328,0,0,0,0,0,0,0,0,0,-1,1742,1352,0,0
525,-328,0,0,0,0,0,0,0,0,0,-1,1749,1352,0,0
532,-328,0,0,0,0,0,0,0,0,0,-1,1756,1352,0,0
539,-328,0,0,0,0,0,0,0,0,0,-1,1763,1352,0,0
546,-328,0,0,0,0,0,0,0,0,0,-1,1770,1352,0,0
553,-328,0,0,0,0,0,0,0,0,0,-1,1777,1352,0,0
560,-328,0,0,0,0,0,0,0,0,0,-1,1784,1352,0,0
567,-328,0,0,0,0,0,0,0,0,0,-1,1791,1352,0,0
574,-328,22.1106,2.47656,0,0,0,0,0,0,0,-1,1798,1352,22.1106,-2.47659
581,-328,22.4137,2.21326,0,0,0,0,0,0,0,-1,1805,1352,22.4137,-2.21325
588,-328,22.8654,1.48975,0,0,0,0,0,0,0,-1,1812,1352,22.8653,-1.48973
595,-328,23.4211,1.05029,0,0,0,0,0,0,0,-1,1819,1352,23.4212,-1.05029
602,-328,25.5443,6.25415,0,0,0,0,0,0,0,-1,1826,1352,25.5444,-6.25412
609,-328,24.2654,0.741699,0,0,0,0,0,0,0,-1,1833,1352,24.2654,-0.741759
616,-328,20.8577,2.55371,0,0,0,0,0,0,0,-1,1840,1352,20.8577,-2.55375
623,-328,21.952,3.66797,0,0,0,0,0,0,0,-1,1847,1352,21.952,-3.66798
630,-328,21.6896,4.96326,0,0,0,0,0,0,0,-1,1854,1352,21.6896,-4.96326
637,-328,16.8966,7.19812,0,0,0,0,0,0,0,-1,1861,1352,16.8966,-7.19806
644,-328,16.9579,6.3396,0,0,0,0,0,0,0,-1,1868,1352,16.9579,-6.33959
651,-328,17.604,7.0166,0,0,0,0,0,0,0,-1,1875,1352,17.6041,-7.01666
658,-328,17.4182,7.14941,-0.00506504,-0.00834943,0.000926662,-0.00482163,-0.00859284,0.256872,0.00497342,0.0254662,1882,1352,17.4183,-7.14943
665,-328,17.4214,6.90833,-0.0053942,-0.00388734,0.00197831,-0.00252385,-0.00675769,0.96734,0.00394297,0.0142493,1889,1352,17.4214,-6.90835
672,-328,17.4451,6.66309,-0.00386385,-0.00159052,0.00201464,-0.000414005,-0.00504037,1.04224,0.0032311,0.0111632,1896,1352,17.445,-6.66314
679,-328,17.4459,6.40979,-0.00236447,-0.000998204,0.00115582,-0.000338728,-0.00302394,1.0523,0.00191307,0.0128741,1903,1352,17.446,-6.40973
686,-328,17.3983,6.17163,-0.000962721,-0.000120556,0.000220232,-6.64411e-05,-0.00101684,1.32985,0.000656864,0.0126631,1910,1352,17.3983,-6.17168
693,-328,17.4178,5.94116,0.000406503,0.00102476,-0.000893975,0.00166155,-0.00023028,-0.951859,0.0011919,0.00885988,1917,1352,17.4178,-5.94115
700,-328,17.4377,5.68469,0.0027849,0.00209761,-0.00249948,0.00496425,-8.17426e-05,-0.717082,0.00333708,0.0129471,1924,1352,17.4377,-5.68475
707,-328,17.4403,5.45654,0.0059575,0.0035814,-0.00441751,0.00934393,0.000194964,-0.654036,0.00616533,0.0149792,1931,1352,17.4403,-5.45654
714,-328,17.4595,5.25159,0.00952739,0.00522857,-0.00668739,0.0144023,0.000353656,-0.629906,0.00948585,0.0138431,1938,1352,17.4595,-5.2516
721,-328,17.3727,5.03015,0.0142545,0.00710847,-0.00951604,0.0208462,0.000516763,-0.605806,0.0137284,0.0300717,1945,1352,17.3726,-5.03015
728,-328,17.4285,4.73328,0.0205721,0.0093265,-0.0130602,0.0291685,0.000730088,-0.582127,0.0192069,0.0416317,1952,1352,17.4285,-4.73327
735,-328,17.7129,4.28967,0.0288236,0.011794,-0.0174352,0.0397121,0.000905547,-0.558248,0.0261781,0.0484673,1959,1352,17.7129,-4.28971
742,-328,18.0233,3.83337,0,0,0,0,0,0,0,-1,1966,1352,18.0233,-3.83333
749,-328,18.0767,2.55139,0.0513861,0.0172614,-0.0281684,0.0672567,0.00139074,-0.513088,0.0443815,0.044955,1973,1352,18.0767,-2.55134
756,-328,18.8743,2.41199,0.0653907,0.0202438,-0.0342489,0.0838361,0.00179834,-0.494025,0.055301,0.0470543,1980,1352,18.8743,-2.41197
763,-328,0,0,0,0,0,0,0,0,0,-1,1987,1352,0,0
770,-328,0,0,0,0,0,0,0,0,0,-1,1994,1352,0,0
777,-328,0,0,0,0,0,0,0,0,0,-1,2001,1352,0,0
784,-328,0,0,0,0,0,0,0,0,0,-1,2008,1352,0,0
791,-328,0,0,0,0,0,0,0,0,0,-1,2015,1352,0,0
798,-328,0,0,0,0,0,0,0,0,0,-1,2022,1352,0,0
805,-328,0,0,0,0,0,0,0,0,0,-1,2029,1352,0,0
812,-328,0,0,0,0,0,0,0,0,0,-1,2036,1352,0,0
-700,-335,0,0,0,0,0,0,0,0,0,-1,524,1359,0,0
-693,-335,0,0,0,0,0,0,0,0,0,-1,531,1359,0,0
-686,-335,0,0,0,0,0,0,0,0,0,-1,538,1359,0,0
-679,-335,0,0,0,0,0,0,0,0,0,-1,545,1359,0,0
-672,-335,0,0,0,0,0,0,0,0,0,-1,552,1359,0,0
-665,-335,0,0,0,0,0,0,0,0,0,-1,559,1359,0,0
-658,-335,0,0,0,0,0,0,0,0,0,-1,566,1359,0,0
-651,-335,0,0,0,0,0,0,0,0,0,-1,573,1359,0,0
-644,-335,0,0,0,0,0,0,0,0,0,-1,580,1359,0,0
-637,-335,-9.40179,4.18787,0,0,0,0,0,0,0,-1,587,1359,-9.40178,-4.18782
-630,-335,-6.07397,-2.99902,0,0,0,0,0,0,0,-1,594,1359,-6.07397,2.99902
-623,-335,-8.43304,1.09509,0,0,0,0,0,0,0,-1,601,1359,-8.43301,-1.09507
-616,-335,-7.80927,-0.485352,0,0,0,0,0,0,0,-1,608,1359,-7.80926,0.485291
-609,-335,-7.12256,-2.03601,0,0,0,0,0,0,0,-1,615,1359,-7.12253,2.03601
-602,-335,-7.65723,3.04053,0,0,0,0,0,0,0,-1,622,1359,-7.65725,-3.04057
-595,-335,-8.23169,2.4054,-0.00496264,0.0246443,0.00562955,0.0256786,-0.00599693,1.3891,0.0194291,0.0472686,629,1359,-8.23169,-2.40539
-588,-335,-8.06799,2.82727,-0.00853587,0.0176083,0.00612775,0.0189732,-0.00990084,1.35162,0.0169425,0.0429297,636,1359,-8.06799,-2.82724
-581,-335,-8.25336,3.06323,-0.00673432,0.0117888,0.00398313,0.012609,-0.00755452,1.36772,0.0117627,0.0225864,643,1359,-8.25337,-3.06321
-574,-335,-8.26349,3.34668,-0.00498235,0.0076473,0.00251408,0.00812936,-0.00546441,1.38135,0.00789848,0.0118996,650,1359,-8.26346,-3.34666
-567,-335,-8.2533,3.62842,-0.00352817,0.00462578,0.00138467,0.0048545,-0.0037569,1.40709,0.00498524,0.0163774,657,1359,-8.25332,-3.62848
-560,-335,-8.22943,3.85803,-0.0025645,0.00252516,0.000501355,0.00257408,-0.00261341,1.47354,0.00299503,0.0254181,664,1359,-8.22945,-3.85807
-553,-335,-8.29028,4.10669,-0.00149933,0.00102609,-9.9369e-05,0.00103,-0.00150323,-1.53153,0.00147104,0.027389,671,1359,-8.29025,-4.10669
-546,-335,-8.32239,4.39746,-0.000473573,-0.000348791,-0.000665984,0.000257718,-0.00108008,-0.832103,0.000819581,0.0244166,678,1359,-8.32241,-4.39745
-539,-335,-8.31,4.6842,0.000104739,-0.00100171,-0.00110231,0.000784857,-0.00168183,-0.552823,0.00145519,0.0204487,685,1359,-8.31,-4.68422
-532,-335,-8.29602,4.97864,0.000448196,-0.0016357,-0.00167998,0.00138311,-0.00257061,-0.507823,0.00231675,0.0149373,692,1359,-8.29605,-4.97868
-525,-335,-8.23639,5.26514,0.00019683,-0.00247254,-0.00244529,0.00164797,-0.00392368,-0.535584,0.00330502,0.00976651,699,1359,-8.23639,-5.26513
-518,-335,-8.22192,5.51843,-0.000786105,-0.00355296,-0.00366317,0.00174617,-0.00608523,-0.604849,0.00474716,0.0216607,706,1359,-8.22193,-5.51842
-511,-335,-8.50201,5.52966,-0.00244402,-0.00510866,-0.00553466,0.00191642,-0.0094691,-0.667284,0.00703904,0.047772,713,1359,-8.50202,-5.52962
-504,-335,-9.10675,5.60474,0,0,0,0,0,0,0,-1,720,1359,-9.10674,-5.60469
-497,-335,-8.97333,5.53125,0,0,0,0,0,0,0,-1,727,1359,-8.97332,-5.53119
-490,-335,-10.8923,4.43506,0,0,0,0,0,0,0,-1,734,1359,-10.8923,-4.43506
-483,-335,-10.9349,4.52917,0,0,0,0,0,0,0,-1,741,1359,-10.9349,-4.52922
-476,-335,-11.9938,-0.173462,0,0,0,0,0,0,0,-1,748,1359,-11.9938,0.173429
-469,-335,-12.8704,-0.204102,0,0,0,0,0,0,0,-1,755,1359,-12.8704,0.204117
-462,-335,-13.486,0.0218506,0,0,0,0,0,0,0,-1,762,1359,-13.4859,-0.0217908
-455,-335,-14.1504,0.549561,0,0,0,0,0,0,0,-1,769,1359,-14.1504,-0.549583
-448,-335,0,0,0,0,0,0,0,0,0,-1,776,1359,0,0
-441,-335,0,0,0,0,0,0,0,0,0,-1,783,1359,0,0
-434,-335,0,0,0,0,0,0,0,0,0,-1,790,1359,0,0
-427,-335,0,0,0,0,0,0,0,0,0,-1,797,1359,0,0
-420,-335,0,0,0,0,0,0,0,0,0,-1,804,1359,0,0
-413,-335,0,0,0,0,0,0,0,0,0,-1,811,1359,0,0
-406,-335,0,0,0,0,0,0,0,0,0,-1,818,1359,0,0
-399,-335,0,0,0,0,0,0,0,0,0,-1,825,1359,0,0
-392,-335,0,0,0,0,0,0,0,0,0,-1,832,1359,0,0
-385,-335,0,0,0,0,0,0,0,0,0,-1,839,1359,0,0
-378,-335,0,0,0,0,0,0,0,0,0,-1,846,1359,0,0
-371,-335,0,0,0,0,0,0,0,0,0,-1,853,1359,0,0
-364,-335,0,0,0,0,0,0,0,0,0,-1,860,1359,0,0
-357,-335,0,0,0,0,0,0,0,0,0,-1,867,1359,0,0
-350,-335,0,0,0,0,0,0,0,0,0,-1,874,1359,0,0
-343,-335,0,0,0,0,0,0,0,0,0,-1,881,1359,0,0
-336,-335,0,0,0,0,0,0,0,0,0,-1,888,1359,0,0
-329,-335,0,0,0,0,0,0,0,0,0,-1,895,1359,0,0
-322,-335,0,0,0,0,0,0,0,0,0,-1,902,1359,0,0
-315,-335,0,0,0,0,0,0,0,0,0,-1,909,1359,0,0
-308,-335,0,0,0,0,0,0,0,0,0,-1,916,1359,0,0
-301,-335,0,0,0,0,0,0,0,0,0,-1,923,1359,0,0
-294,-335,0,0,0,0,0,0,0,0,0,-1,930,1359,0,0
-287,-335,0,0,0,0,0,0,0,0,0,-1,937,1359,0,0
-280,-335,0,0,0,0,0,0,0,0,0,-1,944,1359,0,0
-273,-335,0,0,0,0,0,0,0,0,0,-1,951,1359,0,0
-266,-335,0,0,0,0,0,0,0,0,0,-1,958,1359,0,0
-259,-335,0,0,0,0,0,0,0,0,0,-1,965,1359,0,0
-252,-335,0,0,0,0,0,0,0,0,0,-1,972,1359,0,0
-245,-335,0,0,0,0,0,0,0,0,0,-1,979,1359,0,0
-238,-335,0,0,0,0,0,0,0,0,0,-1,986,1359,0,0
-231,-335,0,0,0,0,0,0,0,0,0,-1,993,1359,0,0
-224,-335,0,0,0,0,0,0,0,0,0,-1,1000,1359,0,0
-217,-335,0,0,0,0,0,0,0,0,0,-1,1007,1359,0,0
-210,-335,0,0,0,0,0,0,0,0,0,-1,1014,1359,0,0
-203,-335,0,0,0,0,0,0,0,0,0,-1,1021,1359,0,0
-196,-335,0,0,0,0,0,0,0,0,0,-1,1028,1359,0,0
-189,-335,0,0,0,0,0,0,0,0,0,-1,1035,1359,0,0
-182,-335,0,0,0,0,0,0,0,0,0,-1,1042,1359,0,0
-175,-335,0,0,0,0,0,0,0,0,0,-1,1049,1359,0,0
-168,-335,0,0,0,0,0,0,0,0,0,-1,1056,1359,0,0
-161,-335,0,0,0,0,0,0,0,0,0,-1,1063,1359,0,0
-154,-335,0,0,0,0,0,0,0,0,0,-1,1070,1359,0,0
-147,-335,0,0,0,0,0,0,0,0,0,-1,1077,1359,0,0
-140,-335,0,0,0,0,0,0,0,0,0,-1,1084,1359,0,0
-133,-335,0,0,0,0,0,0,0,0,0,-1,1091,1359,0,0
-126,-335,0,0,0,0,0,0,0,0,0,-1,1098,1359,0,0
-119,-335,0,0,0,0,0,0,0,0,0,-1,1105,1359,0,0
-112,-335,0,0,0,0,0,0,0,0,0,-1,1112,1359,0,0
-105,-335,0,0,0,0,0,0,0,0,0,-1,1119,1359,0,0
-98,-335,0,0,0,0,0,0,0,0,0,-1,1126,1359,0,0
-91,-335,0,0,0,0,0,0,0,0,0,-1,1133,1359,0,0
-84,-335,0,0,0,0,0,0,0,0,0,-1,1140,1359,0,0
-77,-335,0,0,0,0,0,0,0,0,0,-1,1147,1359,0,0
-70,-335,0,0,0,0,0,0,0,0,0,-1,1154,1359,0,0
-63,-335,0,0,0,0,0,0,0,0,0,-1,1161,1359,0,0
-56,-335,0,0,0,0,0,0,0,0,0,-1,1168,1359,0,0
-49,-335,0,0,0,0,0,0,0,0,0,-1,1175,1359,0,0
-42,-335,0,0,0,0,0,0,0,0,0,-1,1182,1359,0,0
-35,-335,0,0,0,0,0,0,0,0,0,-1,1189,1359,0,0
-28,-335,0,0,0,0,0,0,0,0,0,-1,1196,1359,0,0
-21,-335,0,0,0,0,0,0,0,0,0,-1,1203,1359,0,0
-14,-335,0,0,0,0,0,0,0,0,0,-1,1210,1359,0,0
-7,-335,0,0,0,0,0,0,0,0,0,-1,1217,1359,0,0
0,-335,0,0,0,0,0,0,0,0,0,-1,1224,1359,0,0
7,-335,0,0,0,0,0,0,0,0,0,-1,1231,1359,0,0
14,-335,0,0,0,0,0,0,0,0,0,-1,1238,1359,0,0
21,-335,0,0,0,0,0,0,0,0,0,-1,1245,1359,0,0
28,-335,0,0,0,0,0,0,0,0,0,-1,1252,1359,0,0
35,-335,0,0,0,0,0,0,0,0,0,-1,1259,1359,0,0
42,-335,0,0,0,0,0,0,0,0,0,-1,1266,1359,0,0
49,-335,0,0,0,0,0,0,0,0,0,-1,1273,1359,0,0
56,-335,0,0,0,0,0,0,0,0,0,-1,1280,1359,0,0
63,-335,0,0,0,0,0,0,0,0,0,-1,1287,1359,0,0
70,-335,0,0,0,0,0,0,0,0,0,-1,1294,1359,0,0
77,-335,0,0,0,0,0,0,0,0,0,-1,1301,1359,0,0
84,-335,0,0,0,0,0,0,0,0,0,-1,1308,1359,0,0
91,-335,0,0,0,0,0,0,0,0,0,-1,1315,1359,0,0
98,-335,0,0,0,0,0,0,0,0,0,-1,1322,1359,0,0
105,-335,0,0,0,0,0,0,0,0,0,-1,1329,1359,0,0
112,-335,0,0,0,0,0,0,0,0,0,-1,1336,1359,0,0
119,-335,0,0,0,0,0,0,0,0,0,-1,1343,1359,0,0
126,-335,0,0,0,0,0,0,0,0,0,-1,1350,1359,0,0
133,-335,0,0,0,0,0,0,0,0,0,-1,1357,1359,0,0
140,-335,0,0,0,0,0,0,0,0,0,-1,1364,1359,0,0
147,-335,0,0,0,0,0,0,0,0,0,-1,1371,1359,0,0
154,-335,0,0,0,0,0,0,0,0,0,-1,1378,1359,0,0
161,-335,0,0,0,0,0,0,0,0,0,-1,1385,1359,0,0
168,-335,0,0,0,0,0,0,0,0,0,-1,1392,1359,0,0
175,-335,0,0,0,0,0,0,0,0,0,-1,1399,1359,0,0
182,-335,0,0,0,0,0,0,0,0,0,-1,1406,1359,0,0
189,-335,0,0,0,0,0,0,0,0,0,-1,1413,1359,0,0
196,-335,0,0,0,0,0,0,0,0,0,-1,1420,1359,0,0
203,-335,0,0,0,0,0,0,0,0,0,-1,1427,1359,0,0
210,-335,0,0,0,0,0,0,0,0,0,-1,1434,1359,0,0
217,-335,0,0,0,0,0,0,0,0,0,-1,1441,1359,0,0
224,-335,0,0,0,0,0,0,0,0,0,-1,1448,1359,0,0
231,-335,0,0,0,0,0,0,0,0,0,-1,1455,1359,0,0
238,-335,0,0,0,0,0,0,0,0,0,-1,1462,1359,0,0
245,-335,0,0,0,0,0,0,0,0,0,-1,1469,1359,0,0
252,-335,0,0,0,0,0,0,0,0,0,-1,1476,1359,0,0
259,-335,0,0,0,0,0,0,0,0,0,-1,1483,1359,0,0
266,-335,0,0,0,0,0,0,0,0,0,-1,1490,1359,0,0
273,-335,0,0,0,0,0,0,0,0,0,-1,1497,1359,0,0
280,-335,0,0,0,0,0,0,0,0,0,-1,1504,1359,0,0
287,-335,0,0,0,0,0,0,0,0,0,-1,1511,1359,0,0
294,-335,0,0,0,0,0,0,0,0,0,-1,1518,1359,0,0
301,-335,0,0,0,0,0,0,0,0,0,-1,1525,1359,0,0
308,-335,0,0,0,0,0,0,0,0,0,-1,1532,1359,0,0
315,-335,0,0,0,0,0,0,0,0,0,-1,1539,1359,0,0
322,-335,0,0,0,0,0,0,0,0,0,-1,1546,1359,0,0
329,-335,0,0,0,0,0,0,0,0,0,-1,1553,1359,0,0
336,-335,0,0,0,0,0,0,0,0,0,-1,1560,1359,0,0
343,-335,0,0,0,0,0,0,0,0,0,-1,1567,1359,0,0
350,-335,0,0,0,0,0,0,0,0,0,-1,1574,1359,0,0
357,-335,0,0,0,0,0,0,0,0,0,-1,1581,1359,0,0
364,-335,0,0,0,0,0,0,0,0,0,-1,1588,1359,0,0
371,-335,0,0,0,0,0,0,0,0,0,-1,1595,1359,0,0
378,-335,0,0,0,0,0,0,0,0,0,-1,1602,1359,0,0
385,-335,0,0,0,0,0,0,0,0,0,-1,1609,1359,0,0
392,-335,0,0,0,0,0,0,0,0,0,-1,1616,1359,0,0
399,-335,0,0,0,0,0,0,0,0,0,-1,1623,1359,0,0
406,-335,0,0,0,0,0,0,0,0,0,-1,1630,1359,0,0
413,-335,0,0,0,0,0,0,0,0,0,-1,1637,1359,0,0
420,-335,0,0,0,0,0,0,0,0,0,-1,1644,1359,0,0
427,-335,0,0,0,0,0,0,0,0,0,-1,1651,1359,0,0
434,-335,0,0,0,0,0,0,0,0,0,-1,1658,1359,0,0
441,-335,0,0,0,0,0,0,0,0,0,-1,1665,1359,0,0
448,-335,0,0,0,0,0,0,0,0,0,-1,1672,1359,0,0
455,-335,0,0,0,0,0,0,0,0,0,-1,1679,1359,0,0
462,-335,0,0,0,0,0,0,0,0,0,-1,1686,1359,0,0
469,-335,0,0,0,0,0,0,0,0,0,-1,1693,1359,0,0
476,-335,0,0,0,0,0,0,0,0,0,-1,1700,1359,0,0
483,-335,0,0,0,0,0,0,0,0,0,-1,1707,1359,0,0
490,-335,0,0,0,0,0,0,0,0,0,-1,1714,1359,0,0
497,-335,0,0,0,0,0,0,0,0,0,-1,1721,1359,0,0
504,-335,0,0,0,0,0,0,0,0,0,-1,1728,1359,0,0
511,-335,0,0,0,0,0,0,0,0,0,-1,1735,1359,0,0
518,-335,0,0,0,0,0,0,0,0,0,-1,1742,1359,0,0
525,-335,0,0,0,0,0,0,0,0,0,-1,1749,1359,0,0
532,-335,0,0,0,0,0,0,0,0,0,-1,1756,1359,0,0
539,-335,0,0,0,0,0,0,0,0,0,-1,1763,1359,0,0
546,-335,0,0,0,0,0,0,0,0,0,-1,1770,1359,0,0
553,-335,0,0,0,0,0,0,0,0,0,-1,1777,1359,0,0
560,-335,0,0,0,0,0,0,0,0,0,-1,1784,1359,0,0
567,-335,0,0,0,0,0,0,0,0,0,-1,1791,1359,0,0
574,-335,22.5725,3.32751,0,0,0,0,0,0,0,-1,1798,1359,22.5725,-3.32753
581,-335,22.8922,3.07654,0,0,0,0,0,0,0,-1,1805,1359,22.8923,-3.07655
588,-335,23.3821,2.9187,0,0,0,0,0,0,0,-1,1812,1359,23.3821,-2.91873
595,-335,24.0004,2.88684,0,0,0,0,0,0,0,-1,1819,1359,24.0004,-2.8869
602,-335,25.3571,1.45105,0,0,0,0,0,0,0,-1,1826,1359,25.3571,-1.45106
609,-335,20.9849,2.70349,0,0,0,0,0,0,0,-1,1833,1359,20.9848,-2.70344
616,-335,20.4086,3.1228,0,0,0,0,0,0,0,-1,1840,1359,20.4086,-3.12281
623,-335,20.153,3.948,0,0,0,0,0,0,0,-1,1847,1359,20.1529,-3.94804
630,-335,19.8549,4.85107,0,0,0,0,0,0,0,-1,1854,1359,19.8548,-4.85111
637,-335,16.7556,6.72754,0,0,0,0,0,0,0,-1,1861,1359,16.7556,-6.72754
644,-335,17.3206,7.52051,0,0,0,0,0,0,0,-1,1868,1359,17.3206,-7.52049
651,-335,17.2341,7.34229,-0.00205914,-0.0129358,-0.00142352,-0.00187592,-0.013119,-0.128006,0.0081926,0.026717,1875,1359,17.2342,-7.34227
658,-335,17.1691,7.1886,-0.00366328,-0.00707832,0.000797486,-0.00348623,-0.00725537,0.218468,0.00418995,0.01644,1882,1359,17.1691,-7.1886
665,-335,17.1747,6.92883,-0.00372629,-0.00311766,0.00157597,-0.00181689,-0.00502706,0.880774,0.0029393,0.0151729,1889,1359,17.1747,-6.92878
672,-335,17.1799,6.68127,-0.00252986,-0.00123874,0.00155179,-0.000203583,-0.00356501,0.982513,0.0023118,0.0167404,1896,1359,17.1799,-6.68126
679,-335,17.1984,6.44446,-0.00138675,-0.000690858,0.000813621,-0.000153905,-0.0019237,0.987455,0.00123437,0.0140865,1903,1359,17.1984,-6.44441
686,-335,17.1954,6.19446,-0.000190221,1.55555e-05,-4.58205e-05,2.52972e-05,-0.000199963,-1.36131,0.000142492,0.0111464,1910,1359,17.1955,-6.19446
693,-335,17.1973,5.93774,0.0010647,0.00106567,-0.00112579,0.00219098,-6.06088e-05,-0.785613,0.00148127,0.00925494,1917,1359,17.1973,-5.93777
700,-335,17.1879,5.70129,0.00357995,0.00199175,-0.00273795,0.00563663,-6.49411e-05,-0.644254,0.00377959,0.0102159,1924,1359,17.1878,-5.70126
707,-335,17.1924,5.46863,0.00704223,0.00337486,-0.00473545,0.0102866,0.000130464,-0.600675,0.00681468,0.0135227,1931,1359,17.1924,-5.46865
714,-335,17.2405,5.19641,0.0109754,0.00489526,-0.00710245,0.0156611,0.000209608,-0.58318,0.0103716,0.0220748,1938,1359,17.2405,-5.19637
721,-335,17.0443,4.92212,0.0164032,0.00660638,-0.0101289,0.022756,0.000253631,-0.560174,0.0150868,0.0407652,1945,1359,17.0443,-4.92207
728,-335,17.051,4.66895,0.0238372,0.00859682,-0.0139779,0.032137,0.000296956,-0.535838,0.0213264,0.0493237,1952,1359,17.051,-4.66895
735,-335,17.0853,4.42688,0,0,0,0,0,0,0,-1,1959,1359,17.0853,-4.4269
742,-335,18.3574,3.75244,0,0,0,0,0,0,0,-1,1966,1359,18.3574,-3.75249
749,-335,18.3149,2.8949,0.0602303,0.0147441,-0.0301289,0.0752363,-0.000261988,-0.462096,0.0502451,0.0437412,1973,1359,18.3149,-2.89494
756,-335,18.9956,2.39343,0.077198,0.0168206,-0.036587,0.0944431,-0.000424545,-0.440462,0.0631041,0.045775,1980,1359,18.9956,-2.39348
763,-335,0,0,0,0,0,0,0,0,0,-1,1987,1359,0,0
770,-335,0,0,0,0,0,0,0,0,0,-1,1994,1359,0,0
777,-335,0,0,0,0,0,0,0,0,0,-1,2001,1359,0,0
784,-335,0,0,0,0,0,0,0,0,0,-1,2008,1359,0,0
791,-335,0,0,0,0,0,0,0,0,0,-1,2015,1359,0,0
798,-335,0,0,0,0,0,0,0,0,0,-1,2022,1359,0,0
805,-335,0,0,0,0,0,0,0,0,0,-1,2029,1359,0,0
812,-335,0,0,0,0,0,0,0,0,0,-1,2036,1359,0,0
-700,-342,0,0,0,0,0,0,0,0,0,-1,524,1366,0,0
-693,-342,0,0,0,0,0,0,0,0,0,-1,531,1366,0,0
-686,-342,0,0,0,0,0,0,0,0,0,-1,538,1366,0,0
-679,-342,0,0,0,0,0,0,0,0,0,-1,545,1366,0,0
-672,-342,0,0,0,0,0,0,0,0,0,-1,552,1366,0,0
-665,-342,0,0,0,0,0,0,0,0,0,-1,559,1366,0,0
-658,-342,0,0,0,0,0,0,0,0,0,-1,566,1366,0,0
-651,-342,0,0,0,0,0,0,0,0,0,-1,573,1366,0,0
-644,-342,0,0,0,0,0,0,0,0,0,-1,580,1366,0,0
-637,-342,-8.67786,-4.58557,0,0,0,0,0,0,0,-1,587,1366,-8.67788,4.5856
-630,-342,-8.60132,2.71777,0,0,0,0,0,0,0,-1,594,1366,-8.60135,-2.71779
-623,-342,-8.41168,0.662476,0,0,0,0,0,0,0,-1,601,1366,-8.41168,-0.662442
-616,-342,-6.625,-1.28015,0,0,0,0,0,0,0,-1,608,1366,-6.62499,1.28011
-609,-342,-7.11993,2.21887,0,0,0,0,0,0,0,-1,615,1366,-7.11996,-2.2189
-602,-342,-7.47638,2.38354,0.00528344,0.0351357,-0.000815912,0.035158,0.00526116,-1.54349,0.0218967,0.0499973,622,1366,-7.47638,-2.38355
-595,-342,-8.08368,2.65076,-0.00621849,0.0254608,0.00441609,0.0260649,-0.00682257,1.43485,0.0200417,0.0409966,629,1366,-8.08366,-2.65081
-588,-342,-7.64984,2.78918,-0.00973001,0.0179202,0.00511958,0.0188377,-0.0106475,1.39347,0.0172408,0.0475403,636,1366,-7.64981,-2.78923
-581,-342,-7.94098,2.97827,-0.00781557,0.011866,0.00331824,0.0124104,-0.00835996,1.40819,0.0120675,0.0401451,643,1366,-7.94095,-2.97831
-574,-342,-8.01337,3.34058,-0.00600802,0.00761877,0.00206614,0.00792515,-0.0063144,1.42358,0.00823873,0.011685,650,1366,-8.01335,-3.3406
-567,-342,-7.97571,3.62939,-0.00433805,0.00470421,0.00123112,0.00486883,-0.00450268,1.43787,0.00541202,0.0153037,657,1366,-7.97571,-3.6294
-560,-342,-8.01556,3.83765,-0.00303746,0.00261668,0.000506223,0.00266164,-0.00308242,1.4822,0.0033193,0.0246277,664,1366,-8.01555,-3.83764
-553,-342,-8.09662,4.04004,-0.00177602,0.00114143,-3.99245e-06,0.00114143,-0.00177602,-1.56943,0.00169762,0.0280105,671,1366,-8.09659,-4.03998
-546,-342,-8.07385,4.32935,-0.00055086,-0.000273692,-0.000500063,0.000106635,-0.000931187,-0.920573,0.000659217,0.025581,678,1366,-8.07383,-4.32933
-539,-342,-8.01709,4.68103,0.00020324,-0.000847609,-0.00081814,0.000650144,-0.00129451,-0.499956,0.00114311,0.0223288,685,1366,-8.0171,-4.68103
-532,-342,-7.99902,4.98975,0.000784678,-0.00132232,-0.0012259,0.00134756,-0.00188521,-0.430445,0.00187502,0.017542,692,1366,-7.99904,-4.98972
-525,-342,-7.94214,5.28406,0.000978932,-0.00191907,-0.00172316,0.00178135,-0.00272149,-0.435805,0.00261854,0.0114328,699,1366,-7.94214,-5.2841
-518,-342,-7.93994,5.55859,0.000622188,-0.00264525,-0.0024867,0.00196382,-0.00398688,-0.494763,0.0035012,0.0161452,706,1366,-7.93996,-5.55863
-511,-342,-8.01044,5.70984,-2.27269e-05,-0.0038138,-0.00360452,0.00215428,-0.0059908,-0.543331,0.00487335,0.0461439,713,1366,-8.01042,-5.7098
-504,-342,-7.98737,5.84302,0,0,0,0,0,0,0,-1,720,1366,-7.98734,-5.84307
-497,-342,-6.69183,5.16785,0,0,0,0,0,0,0,-1,727,1366,-6.69185,-5.16783
-490,-342,-10.7191,5.06116,0,0,0,0,0,0,0,-1,734,1366,-10.719,-5.06113
-483,-342,-10.5609,5.42004,0,0,0,0,0,0,0,-1,741,1366,-10.5609,-5.42006
-476,-342,-11.6371,-0.736328,0,0,0,0,0,0,0,-1,748,1366,-11.6371,0.736281
-469,-342,-12.6245,-0.987549,0,0,0,0,0,0,0,-1,755,1366,-12.6245,0.987553
-462,-342,-13.0912,-0.533203,0,0,0,0,0,0,0,-1,762,1366,-13.0912,0.533224
-455,-342,-13.7612,0.122925,0,0,0,0,0,0,0,-1,769,1366,-13.7612,-0.122896
-448,-342,-14.5278,0.826904,0,0,0,0,0,0,0,-1,776,1366,-14.5277,-0.826861
-441,-342,0,0,0,0,0,0,0,0,0,-1,783,1366,0,0
-434,-342,0,0,0,0,0,0,0,0,0,-1,790,1366,0,0
-427,-342,0,0,0,0,0,0,0,0,0,-1,797,1366,0,0
-420,-342,0,0,0,0,0,0,0,0,0,-1,804,1366,0,0
-413,-342,0,0,0,0,0,0,0,0,0,-1,811,1366,0,0
-406,-342,0,0,0,0,0,0,0,0,0,-1,818,1366,0,0
-399,-342,0,0,0,0,0,0,0,0,0,-1,825,1366,0,0
-392,-342,0,0,0,0,0,0,0,0,0,-1,832,1366,0,0
-385,-342,0,0,0,0,0,0,0,0,0,-1,839,1366,0,0
-378,-342,0,0,0,0,0,0,0,0,0,-1,846,1366,0,0
-371,-342,0,0,0,0,0,0,0,0,0,-1,853,1366,0,0
-364,-342,0,0,0,0,0,0,0,0,0,-1,860,1366,0,0
-357,-342,0,0,0,0,0,0,0,0,0,-1,867,1366,0,0
-350,-342,0,0,0,0,0,0,0,0,0,-1,874,1366,0,0
-343,-342,0,0,0,0,0,0,0,0,0,-1,881,1366,0,0
-336,-342,0,0,0,0,0,0,0,0,0,-1,888,1366,0,0
-329,-342,0,0,0,0,0,0,0,0,0,-1,895,1366,0,0
-322,-342,0,0,0,0,0,0,0,0,0,-1,902,1366,0,0
-315,-342,0,0,0,0,0,0,0,0,0,-1,909,1366,0,0
-308,-342,0,0,0,0,0,0,0,0,0,-1,916,1366,0,0
-301,-342,0,0,0,0,0,0,0,0,0,-1,923,1366,0,0
-294,-342,0,0,0,0,0,0,0,0,0,-1,930,1366,0,0
-287,-342,0,0,0,0,0,0,0,0,0,-1,937,1366,0,0
-280,-342,0,0,0,0,0,0,0,0,0,-1,944,1366,0,0
-273,-342,0,0,0,0,0,0,0,0,0,-1,951,1366,0,0
-266,-342,0,0,0,0,0,0,0,0,0,-1,958,1366,0,0
-259,-342,0,0,0,0,0,0,0,0,0,-1,965,1366,0,0
-252,-342,0,0,0,0,0,0,0,0,0,-1,972,1366,0,0
-245,-342,0,0,0,0,0,0,0,0,0,-1,979,1366,0,0
-238,-342,0,0,0,0,0,0,0,0,0,-1,986,1366,0,0
-231,-342,0,0,0,0,0,0,0,0,0,-1,993,1366,0,0
-224,-342,0,0,0,0,0,0,0,0,0,-1,1000,1366,0,0
-217,-342,0,0,0,0,0,0,0,0,0,-1,1007,1366,0,0
-210,-342,0,0,0,0,0,0,0,0,0,-1,1014,1366,0,0
-203,-342,0,0,0,0,0,0,0,0,0,-1,1021,1366,0,0
-196,-342,0,0,0,0,0,0,0,0,0,-1,1028,1366,0,0
-189,-342,0,0,0,0,0,0,0,0,0,-1,1035,1366,0,0
-182,-342,0,0,0,0,0,0,0,0,0,-1,1042,1366,0,0
-175,-342,0,0,0,0,0,0,0,0,0,-1,1049,1366,0,0
-168,-342,0,0,0,0,0,0,0,0,0,-1,1056,1366,0,0
-161,-342,0,0,0,0,0,0,0,0,0,-1,1063,1366,0,0
-154,-342,0,0,0,0,0,0,0,0,0,-1,1070,1366,0,0
-147,-342,0,0,0,0,0,0,0,0,0,-1,1077,1366,0,0
-140,-342,0,0,0,0,0,0,0,0,0,-1,1084,1366,0,0
-133,-342,0,0,0,0,0,0,0,0,0,-1,1091,1366,0,0
-126,-342,0,0,0,0,0,0,0,0,0,-1,1098,1366,0,0
-119,-342,0,0,0,0,0,0,0,0,0,-1,1105,1366,0,0
-112,-342,0,0,0,0,0,0,0,0,0,-1,1112,1366,0,0
-105,-342,0,0,0,0,0,0,0,0,0,-1,1119,1366,0,0
-98,-342,0,0,0,0,0,0,0,0,0,-1,1126,1366,0,0
-91,-342,0,0,0,0,0,0,0,0,0,-1,1133,1366,0,0
-84,-342,0,0,0,0,0,0,0,0,0,-1,1140,1366,0,0
-77,-342,0,0,0,0,0,0,0,0,0,-1,1147,1366,0,0
-70,-342,0,0,0,0,0,0,0,0,0,-1,1154,1366,0,0
-63,-342,0,0,0,0,0,0,0,0,0,-1,1161,1366,0,0
-56,-342,0,0,0,0,0,0,0,0,0,-1,1168,1366,0,0
-49,-342,0,0,0,0,0,0,0,0,0,-1,1175,1366,0,0
-42,-342,0,0,0,0,0,0,0,0,0,-1,1182,1366,0,0
-35,-342,0,0,0,0,0,0,0,0,0,-1,1189,1366,0,0
-28,-342,0,0,0,0,0,0,0,0,0,-1,1196,1366,0,0
-21,-342,0,0,0,0,0,0,0,0,0,-1,1203,1366,0,0
-14,-342,0,0,0,0,0,0,0,0,0,-1,1210,1366,0,0
-7,-342,0,0,0,0,0,0,0,0,0,-1,1217,1366,0,0
0,-342,0,0,0,0,0,0,0,0,0,-1,1224,1366,0,0
7,-342,0,0,0,0,0,0,0,0,0,-1,1231,1366,0,0
14,-342,0,0,0,0,0,0,0,0,0,-1,1238,1366,0,0
21,-342,0,0,0,0,0,0,0,0,0,-1,1245,1366,0,0
28,-342,0,0,0,0,0,0,0,0,0,-1,1252,1366,0,0
35,-342,0,0,0,0,0,0,0,0,0,-1,1259,1366,0,0
42,-342,0,0,0,0,0,0,0,0,0,-1,1266,1366,0,0
49,-342,0,0,0,0,0,0,0,0,0,-1,1273,1366,0,0
56,-342,0,0,0,0,0,0,0,0,0,-1,1280,1366,0,0
63,-342,0,0,0,0,0,0,0,0,0,-1,1287,1366,0,0
70,-342,0,0,0,0,0,0,0,0,0,-1,1294,1366,0,0
77,-342,0,0,0,0,0,0,0,0,0,-1,1301,1366,0,0
84,-342,0,0,0,0,0,0,0,0,0,-1,1308,1366,0,0
91,-342,0,0,0,0,0,0,0,0,0,-1,1315,1366,0,0
98,-342,0,0,0,0,0,0,0,0,0,-1,1322,1366,0,0
105,-342,0,0,0,0,0,0,0,0,0,-1,1329,1366,0,0
112,-342,0,0,0,0,0,0,0,0,0,-1,1336,1366,0,0
119,-342,0,0,0,0,0,0,0,0,0,-1,1343,1366,0,0
126,-342,0,0,0,0,0,0,0,0,0,-1,1350,1366,0,0
133,-342,0,0,0,0,0,0,0,0,0,-1,1357,1366,0,0
140,-342,0,0,0,0,0,0,0,0,0,-1,1364,1366,0,0
147,-342,0,0,0,0,0,0,0,0,0,-1,1371,1366,0,0
154,-342,0,0,0,0,0,0,0,0,0,-1,1378,1366,0,0
161,-342,0,0,0,0,0,0,0,0,0,-1,1385,1366,0,0
168,-342,0,0,0,0,0,0,0,0,0,-1,1392,1366,0,0
175,-342,0,0,0,0,0,0,0,0,0,-1,1399,1366,0,0
182,-342,0,0,0,0,0,0,0,0,0,-1,1406,1366,0,0
189,-342,0,0,0,0,0,0,0,0,0,-1,1413,1366,0,0
196,-342,0,0,0,0,0,0,0,0,0,-1,1420,1366,0,0
203,-342,0,0,0,0,0,0,0,0,0,-1,1427,1366,0,0
210,-342,0,0,0,0,0,0,0,0,0,-1,1434,1366,0,0
217,-342,0,0,0,0,0,0,0,0,0,-1,1441,1366,0,0
224,-342,0,0,0,0,0,0,0,0,0,-1,1448,1366,0,0
231,-342,0,0,0,0,0,0,0,0,0,-1,1455,1366,0,0
238,-342,0,0,0,0,0,0,0,0,0,-1,1462,1366,0,0
245,-342,0,0,0,0,0,0,0,0,0,-1,1469,1366,0,0
252,-342,0,0,0,0,0,0,0,0,0,-1,1476,1366,0,0
259,-342,0,0,0,0,0,0,0,0,0,-1,1483,1366,0,0
266,-342,0,0,0,0,0,0,0,0,0,-1,1490,1366,0,0
273,-342,0,0,0,0,0,0,0,0,0,-1,1497,1366,0,0
280,-342,0,0,0,0,0,0,0,0,0,-1,1504,1366,0,0
287,-342,0,0,0,0,0,0,0,0,0,-1,1511,1366,0,0
294,-342,0,0,0,0,0,0,0,0,0,-1,1518,1366,0,0
301,-342,0,0,0,0,0,0,0,0,0,-1,1525,1366,0,0
308,-342,0,0,0,0,0,0,0,0,0,-1,1532,1366,0,0
315,-342,0,0,0,0,0,0,0,0,0,-1,1539,1366,0,0
322,-342,0,0,0,0,0,0,0,0,0,-1,1546,1366,0,0
329,-342,0,0,0,0,0,0,0,0,0,-1,1553,1366,0,0
336,-342,0,0,0,0,0,0,0,0,0,-1,1560,1366,0,0
343,-342,0,0,0,0,0,0,0,0,0,-1,1567,1366,0,0
350,-342,0,0,0,0,0,0,0,0,0,-1,1574,1366,0,0
357,-342,0,0,0,0,0,0,0,0,0,-1,1581,1366,0,0
364,-342,0,0,0,0,0,0,0,0,0,-1,1588,1366,0,0
371,-342,0,0,0,0,0,0,0,0,0,-1,1595,1366,0,0
378,-342,0,0,0,0,0,0,0,0,0,-1,1602,1366,0,0
385,-342,0,0,0,0,0,0,0,0,0,-1,1609,1366,0,0
392,-342,0,0,0,0,0,0,0,0,0,-1,1616,1366,0,0
399,-342,0,0,0,0,0,0,0,0,0,-1,1623,1366,0,0
406,-342,0,0,0,0,0,0,0,0,0,-1,1630,1366,0,0
413,-342,0,0,0,0,0,0,0,0,0,-1,1637,1366,0,0
420,-342,0,0,0,0,0,0,0,0,0,-1,1644,1366,0,0
427,-342,0,0,0,0,0,0,0,0,0,-1,1651,1366,0,0
434,-342,0,0,0,0,0,0,0,0,0,-1,1658,1366,0,0
441,-342,0,0,0,0,0,0,0,0,0,-1,1665,1366,0,0
448,-342,0,0,0,0,0,0,0,0,0,-1,1672,1366,0,0
455,-342,0,0,0,0,0,0,0,0,0,-1,1679,1366,0,0
462,-342,0,0,0,0,0,0,0,0,0,-1,1686,1366,0,0
469,-342,0,0,0,0,0,0,0,0,0,-1,1693,1366,0,0
476,-342,0,0,0,0,0,0,0,0,0,-1,1700,1366,0,0
483,-342,0,0,0,0,0,0,0,0,0,-1,1707,1366,0,0
490,-342,0,0,0,0,0,0,0,0,0,-1,1714,1366,0,0
497,-342,0,0,0,0,0,0,0,0,0,-1,1721,1366,0,0
504,-342,0,0,0,0,0,0,0,0,0,-1,1728,1366,0,0
511,-342,0,0,0,0,0,0,0,0,0,-1,1735,1366,0,0
518,-342,0,0,0,0,0,0,0,0,0,-1,1742,1366,0,0
525,-342,0,0,0,0,0,0,0,0,0,-1,1749,1366,0,0
532,-342,0,0,0,0,0,0,0,0,0,-1,1756,1366,0,0
539,-342,0,0,0,0,0,0,0,0,0,-1,1763,1366,0,0
546,-342,0,0,0,0,0,0,0,0,0,-1,1770,1366,0,0
553,-342,0,0,0,0,0,0,0,0,0,-1,1777,1366,0,0
560,-342,0,0,0,0,0,0,0,0,0,-1,1784,1366,0,0
567,-342,23.0826,4.1853,0,0,0,0,0,0,0,-1,1791,1366,23.0826,-4.18534
574,-342,22.8624,4.10181,0,0,0,0,0,0,0,-1,1798,1366,22.8624,-4.10181
581,-342,23.3296,3.77417,0,0,0,0,0,0,0,-1,1805,1366,23.3296,-3.77419
588,-342,23.7622,3.34668,0,0,0,0,0,0,0,-1,1812,1366,23.7622,-3.34663
595,-342,24.2549,3.302,0,0,0,0,0,0,0,-1,1819,1366,24.2549,-3.30198
602,-342,20.436,3.20898,0,0,0,0,0,0,0,-1,1826,1366,20.4361,-3.20903
609,-342,20.4921,3.50903,0,0,0,0,0,0,0,-1,1833,1366,20.492,-3.50909
616,-342,19.7004,3.62073,0,0,0,0,0,0,0,-1,1840,1366,19.7005,-3.6207
623,-342,18.9089,3.7323,0,0,0,0,0,0,0,-1,1847,1366,18.9089,-3.73231
630,-342,15.5282,6.36682,0,0,0,0,0,0,0,-1,1854,1366,15.5281,-6.36686
637,-342,16.196,6.76172,0,0,0,0,0,0,0,-1,1861,1366,16.1961,-6.76174
644,-342,16.8759,7.64502,0,0,0,0,0,0,0,-1,1868,1366,16.8759,-7.64496
651,-342,16.964,7.46375,-0.000779302,-0.011069,-0.00165799,-0.000518746,-0.0113296,-0.155877,0.00738621,0.0231271,1875,1366,16.9639,-7.46371
658,-342,16.9388,7.19128,-0.00202215,-0.00583419,0.000251034,-0.00200569,-0.00585065,0.065476,0.00343306,0.0181873,1882,1366,16.9389,-7.19127
665,-342,16.9351,6.93591,-0.00181586,-0.00263374,0.000877138,-0.00125702,-0.00319258,0.567269,0.00185706,0.0157864,1889,1366,16.9351,-6.93592
672,-342,16.9448,6.69629,-0.00111878,-0.00111138,0.000927573,-0.000187495,-0.00204266,0.787393,0.00130377,0.0127385,1896,1366,16.9448,-6.69634
679,-342,16.9463,6.45862,-0.0004187,-0.000556396,0.000429685,-5.23821e-05,-0.000922714,0.705959,0.000598447,0.0125229,1903,1366,16.9463,-6.45857
686,-342,16.9775,6.21741,0.000523468,5.2237e-05,-0.000306181,0.000674196,-9.84916e-05,-0.457457,0.000485635,0.0104714,1910,1366,16.9775,-6.21737
693,-342,16.9731,5.96387,0.00162929,0.0010224,-0.00131481,0.00267521,-2.35287e-05,-0.671988,0.00179137,0.0109201,1917,1366,16.9731,-5.96385
700,-342,16.9542,5.7251,0.00423691,0.00181033,-0.00289722,0.00616463,-0.000117393,-0.587104,0.00414944,0.0125415,1924,1366,16.9542,-5.72507
707,-342,16.9492,5.45947,0.0079567,0.00307435,-0.00495341,0.0110378,-6.76373e-06,-0.556452,0.00736079,0.0124899,1931,1366,16.9492,-5.45944
714,-342,16.9706,5.23438,0.0122386,0.00441931,-0.00738592,0.0166858,-2.7908e-05,-0.541977,0.0111332,0.0344256,1938,1366,16.9706,-5.23439
721,-342,16.8551,4.88623,0.0183784,0.00589071,-0.010585,0.0244239,-0.000154755,-0.518926,0.0163344,0.0461452,1945,1366,16.855,-4.8862
728,-342,16.793,4.38501,0,0,0,0,0,0,0,-1,1952,1366,16.7929,-4.38503
735,-342,18.0839,3.66992,0,0,0,0,0,0,0,-1,1959,1366,18.0838,-3.66997
742,-342,18.3851,4.146,0,0,0,0,0,0,0,-1,1966,1366,18.3851,-4.14598
749,-342,18.4576,3.37354,0,0,0,0,0,0,0,-1,1973,1366,18.4576,-3.37358
756,-342,0,0,0,0,0,0,0,0,0,-1,1980,1366,0,0
763,-342,0,0,0,0,0,0,0,0,0,-1,1987,1366,0,0
770,-342,0,0,0,0,0,0,0,0,0,-1,1994,1366,0,0
777,-342,0,0,0,0,0,0,0,0,0,-1,2001,1366,0,0
784,-342,0,0,0,0,0,0,0,0,0,-1,2008,1366,0,0
791,-342,0,0,0,0,0,0,0,0,0,-1,2015,1366,0,0
798,-342,0,0,0,0,0,0,0,0,0,-1,2022,1366,0,0
805,-342,0,0,0,0,0,0,0,0,0,-1,2029,1366,0,0
812,-342,0,0,0,0,0,0,0,0,0,-1,2036,1366,0,0
-700,-349,0,0,0,0,0,0,0,0,0,-1,524,1373,0,0
-693,-349,0,0,0,0,0,0,0,0,0,-1,531,1373,0,0
-686,-349,0,0,0,0,0,0,0,0,0,-1,538,1373,0,0
-679,-349,0,0,0,0,0,0,0,0,0,-1,545,1373,0,0
-672,-349,0,0,0,0,0,0,0,0,0,-1,552,1373,0,0
-665,-349,0,0,0,0,0,0,0,0,0,-1,559,1373,0,0
-658,-349,0,0,0,0,0,0,0,0,0,-1,566,1373,0,0
-651,-349,0,0,0,0,0,0,0,0,0,-1,573,1373,0,0
-644,-349,0,0,0,0,0,0,0,0,0,-1,580,1373,0,0
-637,-349,0,0,0,0,0,0,0,0,0,-1,587,1373,0,0
-630,-349,-7.64117,-5.06177,0,0,0,0,0,0,0,-1,594,1373,-7.64118,5.0618
-623,-349,-8.63507,0.51123,0,0,0,0,0,0,0,-1,601,1373,-8.63505,-0.511275
-616,-349,-5.2066,-0.188232,0,0,0,0,0,0,0,-1,608,1373,-5.20659,0.188211
-609,-349,-7.12073,1.37048,0,0,0,0,0,0,0,-1,615,1373,-7.12072,-1.37044
-602,-349,-7.35431,1.61914,0.00156705,0.0404886,0.000329753,0.0404914,0.00156425,1.56232,0.0264882,0.0497977,622,1373,-7.35432,-1.61914
-595,-349,-7.47186,2.04578,-0.00846381,0.0288939,0.00472706,0.0294828,-0.00905266,1.44686,0.0232674,0.045392,629,1373,-7.47187,-2.04573
-588,-349,-7.38763,2.63306,-0.0109467,0.0198009,0.00493673,0.0205741,-0.0117198,1.41544,0.0188771,0.0467504,636,1373,-7.38764,-2.63311
-581,-349,-7.46521,3.10974,-0.00869408,0.0127438,0.00309933,0.0131829,-0.00913317,1.43006,0.0129547,0.0437095,643,1373,-7.46519,-3.10969
-574,-349,-7.70477,3.32129,-0.00664182,0.00794355,0.00185081,0.00817475,-0.00687301,1.44652,0.00869866,0.0226137,650,1373,-7.70476,-3.32132
-567,-349,-7.7312,3.63599,-0.00477511,0.00476418,0.00105639,0.00487977,-0.0048907,1.46181,0.00564098,0.0160315,657,1373,-7.73121,-3.63596
-560,-349,-7.73273,3.88916,-0.00328012,0.00259761,0.000433066,0.00262935,-0.00331186,1.49764,0.00343769,0.0212655,664,1373,-7.73272,-3.88912
-553,-349,-7.78827,4.09717,-0.00192328,0.00114348,-1.22303e-06,0.00114348,-0.00192328,-1.5704,0.00178958,0.0271582,671,1373,-7.78824,-4.09712
-546,-349,-7.79547,4.34351,-0.0005795,-0.000275697,-0.000410421,1.00308e-05,-0.000865228,-0.962637,0.000580191,0.0276463,678,1373,-7.79547,-4.34347
-539,-349,-7.76825,4.66357,0.000302598,-0.000781143,-0.000596054,0.000566274,-0.00104482,-0.416489,0.000943743,0.0222434,685,1373,-7.76824,-4.66359
-532,-349,-7.73187,4.98889,0.00105994,-0.00111104,-0.00083535,0.00134416,-0.00139525,-0.327952,0.00158169,0.0169033,692,1373,-7.73187,-4.98891
-525,-349,-7.68903,5.29248,0.00156892,-0.00158698,-0.00114558,0.00194091,-0.00195897,-0.313978,0.00225161,0.0130426,699,1373,-7.68901,-5.2925
-518,-349,-7.68719,5.57703,0.00166736,-0.00211088,-0.00157503,0.00223781,-0.00268133,-0.347488,0.00284391,0.0141317,706,1373,-7.68722,-5.57705
-511,-349,-7.56683,5.85999,0.00166399,-0.00305781,-0.00223035,0.0025509,-0.00394473,-0.378485,0.00377892,0.0381023,713,1373,-7.56681,-5.86004
-504,-349,-7.45422,6.07068,0,0,0,0,0,0,0,-1,720,1373,-7.45422,-6.07074
-497,-349,-7.9339,5.58789,0,0,0,0,0,0,0,-1,727,1373,-7.93388,-5.58785
-490,-349,-6.74347,4.78418,0,0,0,0,0,0,0,-1,734,1373,-6.74346,-4.78422
-483,-349,-5.66974,3.7395,0,0,0,0,0,0,0,-1,741,1373,-5.66975,-3.73949
-476,-349,-10.8496,1.15759,0,0,0,0,0,0,0,-1,748,1373,-10.8496,-1.15756
-469,-349,-12.3314,-1.74878,0,0,0,0,0,0,0,-1,755,1373,-12.3314,1.74882
-462,-349,-12.6559,-0.995361,0,0,0,0,0,0,0,-1,762,1373,-12.656,0.995351
-455,-349,-13.2897,-0.234253,0,0,0,0,0,0,0,-1,769,1373,-13.2897,0.234261
-448,-349,-14.045,0.712891,0,0,0,0,0,0,0,-1,776,1373,-14.045,-0.712838
-441,-349,0,0,0,0,0,0,0,0,0,-1,783,1373,0,0
-434,-349,0,0,0,0,0,0,0,0,0,-1,790,1373,0,0
-427,-349,0,0,0,0,0,0,0,0,0,-1,797,1373,0,0
-420,-349,0,0,0,0,0,0,0,0,0,-1,804,1373,0,0
-413,-349,0,0,0,0,0,0,0,0,0,-1,811,1373,0,0
-406,-349,0,0,0,0,0,0,0,0,0,-1,818,1373,0,0
-399,-349,0,0,0,0,0,0,0,0,0,-1,825,1373,0,0
-392,-349,0,0,0,0,0,0,0,0,0,-1,832,1373,0,0
-385,-349,0,0,0,0,0,0,0,0,0,-1,839,1373,0,0
-378,-349,0,0,0,0,0,0,0,0,0,-1,846,1373,0,0
-371,-349,0,0,0,0,0,0,0,0,0,-1,853,1373,0,0
-364,-349,0,0,0,0,0,0,0,0,0,-1,860,1373,0,0
-357,-349,0,0,0,0,0,0,0,0,0,-1,867,1373,0,0
-350,-349,0,0,0,0,0,0,0,0,0,-1,874,1373,0,0
-343,-349,0,0,0,0,0,0,0,0,0,-1,881,1373,0,0
-336,-349,0,0,0,0,0,0,0,0,0,-1,888,1373,0,0
-329,-349,0,0,0,0,0,0,0,0,0,-1,895,1373,0,0
-322,-349,0,0,0,0,0,0,0,0,0,-1,902,1373,0,0
-315,-349,0,0,0,0,0,0,0,0,0,-1,909,1373,0,0
-308,-349,0,0,0,0,0,0,0,0,0,-1,916,1373,0,0
-301,-349,0,0,0,0,0,0,0,0,0,-1,923,1373,0,0
-294,-349,0,0,0,0,0,0,0,0,0,-1,930,1373,0,0
-287,-349,0,0,0,0,0,0,0,0,0,-1,937,1373,0,0
-280,-349,0,0,0,0,0,0,0,0,0,-1,944,1373,0,0
-273,-349,0,0,0,0,0,0,0,0,0,-1,951,1373,0,0
-266,-349,0,0,0,0,0,0,0,0,0,-1,958,1373,0,0
-259,-349,0,0,0,0,0,0,0,0,0,-1,965,1373,0,0
-252,-349,0,0,0,0,0,0,0,0,0,-1,972,1373,0,0
-245,-349,0,0,0,0,0,0,0,0,0,-1,979,1373,0,0
-238,-349,0,0,0,0,0,0,0,0,0,-1,986,1373,0,0
-231,-349,0,0,0,0,0,0,0,0,0,-1,993,1373,0,0
-224,-349,0,0,0,0,0,0,0,0,0,-1,1000,1373,0,0
-217,-349,0,0,0,0,0,0,0,0,0,-1,1007,1373,0,0
-210,-349,0,0,0,0,0,0,0,0,0,-1,1014,1373,0,0
-203,-349,0,0,0,0,0,0,0,0,0,-1,1021,1373,0,0
-196,-349,0,0,0,0,0,0,0,0,0,-1,1028,1373,0,0
-189,-349,0,0,0,0,0,0,0,0,0,-1,1035,1373,0,0
-182,-349,0,0,0,0,0,0,0,0,0,-1,1042,1373,0,0
-175,-349,0,0,0,0,0,0,0,0,0,-1,1049,1373,0,0
-168,-349,0,0,0,0,0,0,0,0,0,-1,1056,1373,0,0
-161,-349,0,0,0,0,0,0,0,0,0,-1,1063,1373,0,0
-154,-349,0,0,0,0,0,0,0,0,0,-1,1070,1373,0,0
-147,-349,0,0,0,0,0,0,0,0,0,-1,1077,1373,0,0
-140,-349,0,0,0,0,0,0,0,0,0,-1,1084,1373,0,0
-133,-349,0,0,0,0,0,0,0,0,0,-1,1091,1373,0,0
-126,-349,0,0,0,0,0,0,0,0,0,-1,1098,1373,0,0
-119,-349,0,0,0,0,0,0,0,0,0,-1,1105,1373,0,0
-112,-349,0,0,0,0,0,0,0,0,0,-1,1112,1373,0,0
-105,-349,0,0,0,0,0,0,0,0,0,-1,1119,1373,0,0
-98,-349,0,0,0,0,0,0,0,0,0,-1,1126,1373,0,0
-91,-349,0,0,0,0,0,0,0,0,0,-1,1133,1373,0,0
-84,-349,0,0,0,0,0,0,0,0,0,-1,1140,1373,0,0
-77,-349,0,0,0,0,0,0,0,0,0,-1,1147,1373,0,0
-70,-349,0,0,0,0,0,0,0,0,0,-1,1154,1373,0,0
-63,-349,0,0,0,0,0,0,0,0,0,-1,1161,1373,0,0
-56,-349,0,0,0,0,0,0,0,0,0,-1,1168,1373,0,0
-49,-349,0,0,0,0,0,0,0,0,0,-1,1175,1373,0,0
-42,-349,0,0,0,0,0,0,0,0,0,-1,1182,1373,0,0
-35,-349,0,0,0,0,0,0,0,0,0,-1,1189,1373,0,0
-28,-349,0,0,0,0,0,0,0,0,0,-1,1196,1373,0,0
-21,-349,0,0,0,0,0,0,0,0,0,-1,1203,1373,0,0
-14,-349,0,0,0,0,0,0,0,0,0,-1,1210,1373,0,0
-7,-349,0,0,0,0,0,0,0,0,0,-1,1217,1373,0,0
0,-349,0,0,0,0,0,0,0,0,0,-1,1224,1373,0,0
7,-349,0,0,0,0,0,0,0,0,0,-1,1231,1373,0,0
14,-349,0,0,0,0,0,0,0,0,0,-1,1238,1373,0,0
21,-349,0,0,0,0,0,0,0,0,0,-1,1245,1373,0,0
28,-349,0,0,0,0,0,0,0,0,0,-1,1252,1373,0,0
35,-349,0,0,0,0,0,0,0,0,0,-1,1259,1373,0,0
42,-349,0,0,0,0,0,0,0,0,0,-1,1266,1373,0,0
49,-349,0,0,0,0,0,0,0,0,0,-1,1273,1373,0,0
56,-349,0,0,0,0,0,0,0,0,0,-1,1280,1373,0,0
63,-349,0,0,0,0,0,0,0,0,0,-1,1287,1373,0,0
70,-349,0,0,0,0,0,0,0,0,0,-1,1294,1373,0,0
77,-349,0,0,0,0,0,0,0,0,0,-1,1301,1373,0,0
84,-349,0,0,0,0,0,0,0,0,0,-1,1308,1373,0,0
91,-349,0,0,0,0,0,0,0,0,0,-1,1315,1373,0,0
98,-349,0,0,0,0,0,0,0,0,0,-1,1322,1373,0,0
105,-349,0,0,0,0,0,0,0,0,0,-1,1329,1373,0,0
112,-349,0,0,0,0,0,0,0,0,0,-1,1336,1373,0,0
119,-349,0,0,0,0,0,0,0,0,0,-1,1343,1373,0,0
126,-349,0,0,0,0,0,0,0,0,0,-1,1350,1373,0,0
133,-349,0,0,0,0,0,0,0,0,0,-1,1357,1373,0,0
140,-349,0,0,0,0,0,0,0,0,0,-1,1364,1373,0,0
147,-349,0,0,0,0,0,0,0,0,0,-1,1371,1373,0,0
154,-349,0,0,0,0,0,0,0,0,0,-1,1378,1373,0,0
161,-349,0,0,0,0,0,0,0,0,0,-1,1385,1373,0,0
168,-349,0,0,0,0,0,0,0,0,0,-1,1392,1373,0,0
175,-349,0,0,0,0,0,0,0,0,0,-1,1399,1373,0,0
182,-349,0,0,0,0,0,0,0,0,0,-1,1406,1373,0,0
189,-349,0,0,0,0,0,0,0,0,0,-1,1413,1373,0,0
196,-349,0,0,0,0,0,0,0,0,0,-1,1420,1373,0,0
203,-349,0,0,0,0,0,0,0,0,0,-1,1427,1373,0,0
210,-349,0,0,0,0,0,0,0,0,0,-1,1434,1373,0,0
217,-349,0,0,0,0,0,0,0,0,0,-1,1441,1373,0,0
224,-349,0,0,0,0,0,0,0,0,0,-1,1448,1373,0,0
231,-349,0,0,0,0,0,0,0,0,0,-1,1455,1373,0,0
238,-349,0,0,0,0,0,0,0,0,0,-1,1462,1373,0,0
245,-349,0,0,0,0,0,0,0,0,0,-1,1469,1373,0,0
252,-349,0,0,0,0,0,0,0,0,0,-1,1476,1373,0,0
259,-349,0,0,0,0,0,0,0,0,0,-1,1483,1373,0,0
266,-349,0,0,0,0,0,0,0,0,0,-1,1490,1373,0,0
273,-349,0,0,0,0,0,0,0,0,0,-1,1497,1373,0,0
280,-349,0,0,0,0,0,0,0,0,0,-1,1504,1373,0,0
287,-349,0,0,0,0,0,0,0,0,0,-1,1511,1373,0,0
294,-349,0,0,0,0,0,0,0,0,0,-1,1518,1373,0,0
301,-349,0,0,0,0,0,0,0,0,0,-1,1525,1373,0,0
308,-349,0,0,0,0,0,0,0,0,0,-1,1532,1373,0,0
315,-349,0,0,0,0,0,0,0,0,0,-1,1539,1373,0,0
322,-349,0,0,0,0,0,0,0,0,0,-1,1546,1373,0,0
329,-349,0,0,0,0,0,0,0,0,0,-1,1553,1373,0,0
336,-349,0,0,0,0,0,0,0,0,0,-1,1560,1373,0,0
343,-349,0,0,0,0,0,0,0,0,0,-1,1567,1373,0,0
350,-349,0,0,0,0,0,0,0,0,0,-1,1574,1373,0,0
357,-349,0,0,0,0,0,0,0,0,0,-1,1581,1373,0,0
364,-349,0,0,0,0,0,0,0,0,0,-1,1588,1373,0,0
371,-349,0,0,0,0,0,0,0,0,0,-1,1595,1373,0,0
378,-349,0,0,0,0,0,0,0,0,0,-1,1602,1373,0,0
385,-349,0,0,0,0,0,0,0,0,0,-1,1609,1373,0,0
392,-349,0,0,0,0,0,0,0,0,0,-1,1616,1373,0,0
399,-349,0,0,0,0,0,0,0,0,0,-1,1623,1373,0,0
406,-349,0,0,0,0,0,0,0,0,0,-1,1630,1373,0,0
413,-349,0,0,0,0,0,0,0,0,0,-1,1637,1373,0,0
420,-349,0,0,0,0,0,0,0,0,0,-1,1644,1373,0,0
427,-349,0,0,0,0,0,0,0,0,0,-1,1651,1373,0,0
434,-349,0,0,0,0,0,0,0,0,0,-1,1658,1373,0,0
441,-349,0,0,0,0,0,0,0,0,0,-1,1665,1373,0,0
448,-349,0,0,0,0,0,0,0,0,0,-1,1672,1373,0,0
455,-349,0,0,0,0,0,0,0,0,0,-1,1679,1373,0,0
462,-349,0,0,0,0,0,0,0,0,0,-1,1686,1373,0,0
469,-349,0,0,0,0,0,0,0,0,0,-1,1693,1373,0,0
476,-349,0,0,0,0,0,0,0,0,0,-1,1700,1373,0,0
483,-349,0,0,0,0,0,0,0,0,0,-1,1707,1373,0,0
490,-349,0,0,0,0,0,0,0,0,0,-1,1714,1373,0,0
497,-349,0,0,0,0,0,0,0,0,0,-1,1721,1373,0,0
504,-349,0,0,0,0,0,0,0,0,0,-1,1728,1373,0,0
511,-349,0,0,0,0,0,0,0,0,0,-1,1735,1373,0,0
518,-349,0,0,0,0,0,0,0,0,0,-1,1742,1373,0,0
525,-349,0,0,0,0,0,0,0,0,0,-1,1749,1373,0,0
532,-349,0,0,0,0,0,0,0,0,0,-1,1756,1373,0,0
539,-349,0,0,0,0,0,0,0,0,0,-1,1763,1373,0,0
546,-349,0,0,0,0,0,0,0,0,0,-1,1770,1373,0,0
553,-349,0,0,0,0,0,0,0,0,0,-1,1777,1373,0,0
560,-349,23.067,4.71936,0,0,0,0,0,0,0,-1,1784,1373,23.067,-4.71936
567,-349,23.2136,4.72485,0,0,0,0,0,0,0,-1,1791,1373,23.2137,-4.72481
574,-349,23.274,4.7428,0,0,0,0,0,0,0,-1,1798,1373,23.274,-4.74285
581,-349,24.0012,4.5387,0,0,0,0,0,0,0,-1,1805,1373,24.0012,-4.53866
588,-349,23.9573,4.00342,0,0,0,0,0,0,0,-1,1812,1373,23.9573,-4.00347
595,-349,24.2389,4.22632,0,0,0,0,0,0,0,-1,1819,1373,24.2389,-4.22634
602,-349,24.3673,4.55383,0,0,0,0,0,0,0,-1,1826,1373,24.3673,-4.55389
609,-349,19.9764,3.80725,0,0,0,0,0,0,0,-1,1833,1373,19.9764,-3.8072
616,-349,19.0972,3.85474,0,0,0,0,0,0,0,-1,1840,1373,19.0972,-3.85479
623,-349,18.218,3.90234,0,0,0,0,0,0,0,-1,1847,1373,18.218,-3.90237
630,-349,15.4948,6.47644,0,0,0,0,0,0,0,-1,1854,1373,15.4947,-6.4765
637,-349,16.5161,6.92639,0,0,0,0,0,0,0,-1,1861,1373,16.5161,-6.92636
644,-349,16.7189,7.86169,0,0,0,0,0,0,0,-1,1868,1373,16.7189,-7.86167
651,-349,16.7997,7.39795,-8.14506e-05,-0.00862427,-0.00098007,2.95453e-05,-0.00873527,-0.112772,0.00583338,0.0250018,1875,1373,16.7996,-7.39794
658,-349,16.7035,7.16199,-0.000838021,-0.00460891,0.000296385,-0.000814868,-0.00463206,0.0779603,0.00285544,0.0259678,1882,1373,16.7035,-7.16194
665,-349,16.7166,6.93286,-0.000642938,-0.00218414,0.000645836,-0.000408089,-0.00241899,0.348771,0.00149531,0.0198084,1889,1373,16.7166,-6.93286
672,-349,16.686,6.69958,-0.000166591,-0.000985704,0.000592995,0.000144533,-0.00129683,0.483184,0.000916536,0.014207,1896,1373,16.686,-6.69963
679,-349,16.6984,6.45264,0.000331776,-0.000471879,0.0001791,0.000369883,-0.000509985,0.209642,0.000510134,0.013685,1903,1373,16.6984,-6.45266
686,-349,16.739,6.23254,0.0010966,5.59935e-05,-0.000482627,0.00128598,-0.000133382,-0.373925,0.000905061,0.0130227,1910,1373,16.739,-6.23258
693,-349,16.7428,5.98132,0.00204332,0.000904346,-0.00140506,0.00298991,-4.22476e-05,-0.592859,0.00200751,0.015051,1917,1373,16.7428,-5.98133
700,-349,16.7277,5.73718,0.00468286,0.0015352,-0.00293626,0.00644049,-0.000222419,-0.539383,0.00436969,0.0158251,1924,1373,16.7276,-5.73719
707,-349,16.759,5.47314,0.00863335,0.00263742,-0.00503931,0.011499,-0.000228269,-0.517062,0.00774324,0.0235235,1931,1373,16.759,-5.47311
714,-349,16.7986,5.32959,0,0,0,0,0,0,0,-1,1938,1373,16.7986,-5.32954
721,-349,16.7727,4.90808,0,0,0,0,0,0,0,-1,1945,1373,16.7727,-4.90814
728,-349,16.6234,4.37646,0,0,0,0,0,0,0,-1,1952,1373,16.6235,-4.37645
735,-349,19.3564,7.11121,0,0,0,0,0,0,0,-1,1959,1373,19.3565,-7.11119
742,-349,19.2164,5.57288,0,0,0,0,0,0,0,-1,1966,1373,19.2165,-5.57289
749,-349,19.0682,3.96838,0,0,0,0,0,0,0,-1,1973,1373,19.0683,-3.96841
756,-349,0,0,0,0,0,0,0,0,0,-1,1980,1373,0,0
763,-349,0,0,0,0,0,0,0,0,0,-1,1987,1373,0,0
770,-349,0,0,0,0,0,0,0,0,0,-1,1994,1373,0,0
777,-349,0,0,0,0,0,0,0,0,0,-1,2001,1373,0,0
784,-349,0,0,0,0,0,0,0,0,0,-1,2008,1373,0,0
791,-349,0,0,0,0,0,0,0,0,0,-1,2015,1373,0,0
798,-349,0,0,0,0,0,0,0,0,0,-1,2022,1373,0,0
805,-349,0,0,0,0,0,0,0,0,0,-1,2029,1373,0,0
812,-349,0,0,0,0,0,0,0,0,0,-1,2036,1373,0,0
-700,-356,0,0,0,0,0,0,0,0,0,-1,524,1380,0,0
-693,-356,0,0,0,0,0,0,0,0,0,-1,531,1380,0,0
-686,-356,0,0,0,0,0,0,0,0,0,-1,538,1380,0,0
-679,-356,0,0,0,0,0,0,0,0,0,-1,545,1380,0,0
-672,-356,0,0,0,0,0,0,0,0,0,-1,552,1380,0,0
-665,-356,0,0,0,0,0,0,0,0,0,-1,559,1380,0,0
-658,-356,0,0,0,0,0,0,0,0,0,-1,566,1380,0,0
-651,-356,0,0,0,0,0,0,0,0,0,-1,573,1380,0,0
-644,-356,0,0,0,0,0,0,0,0,0,-1,580,1380,0,0
-637,-356,0,0,0,0,0,0,0,0,0,-1,587,1380,0,0
-630,-356,-8.23126,-5.01917,0,0,0,0,0,0,0,-1,594,1380,-8.23124,5.0192
-623,-356,-0.263855,-0.675781,0,0,0,0,0,0,0,-1,601,1380,-0.263835,0.675841
-616,-356,-8.26532,-3.43945,0,0,0,0,0,0,0,-1,608,1380,-8.2653,3.43948
-609,-356,-4.88483,0.734497,0,0,0,0,0,0,0,-1,615,1380,-4.88485,-0.734532
-602,-356,-7.30939,1.00916,0,0,0,0,0,0,0,-1,622,1380,-7.3094,-1.00913
-595,-356,-7.20746,1.83862,0,0,0,0,0,0,0,-1,629,1380,-7.20748,-1.83863
-588,-356,-7.12659,2.65601,0,0,0,0,0,0,0,-1,636,1380,-7.12656,-2.65599
-581,-356,-7.12372,2.94397,-0.00954434,0.0128781,0.00257443,0.0131699,-0.00983613,1.45794,0.0133289,0.0408146,643,1380,-7.12372,-2.94392
-574,-356,-7.29559,3.42761,-0.00712336,0.00770615,0.00138679,0.00783473,-0.00725193,1.47835,0.00871245,0.0300924,650,1380,-7.29562,-3.42763
-567,-356,-7.4646,3.59009,-0.00499902,0.00440415,0.000679573,0.00445301,-0.00504788,1.49902,0.00548892,0.0170102,657,1380,-7.4646,-3.59014
-560,-356,-7.42188,3.89978,-0.00327112,0.00230306,0.000208013,0.00231081,-0.00327887,1.53355,0.0032433,0.0188478,664,1380,-7.42185,-3.89984
-553,-356,-7.45551,4.16589,-0.00182485,0.000947717,-0.000110041,0.000952077,-0.00182921,-1.53119,0.00163218,0.0209803,671,1380,-7.4555,-4.16586
-546,-356,-7.48743,4.40271,-0.000406412,-0.000391259,-0.000389993,-8.7693e-06,-0.000788903,-0.795111,0.000523037,0.0229699,678,1380,-7.48742,-4.40268
-539,-356,-7.46735,4.68469,0.000561044,-0.000787501,-0.000413336,0.000677651,-0.000904108,-0.274965,0.000916343,0.0157729,685,1380,-7.46735,-4.68469
-532,-356,-7.46088,4.98486,0.00143876,-0.000950124,-0.000452474,0.00152159,-0.00103295,-0.181056,0.00148383,0.0143778,692,1380,-7.4609,-4.9848
-525,-356,-7.44183,5.27405,0.00217915,-0.00128175,-0.000549547,0.00226431,-0.00136692,-0.153751,0.00211772,0.0125964,699,1380,-7.44184,-5.2741
-518,-356,-7.41571,5.57959,0.00259829,-0.00165602,-0.000684669,0.00270576,-0.00176349,-0.1557,0.00259937,0.0123771,706,1380,-7.41573,-5.57964
-511,-356,-7.29077,5.89001,0.00299864,-0.00239638,-0.000917447,0.00315039,-0.00254813,-0.163918,0.00329616,0.0264836,713,1380,-7.29078,-5.88997
-504,-356,-7.17896,6.25928,0,0,0,0,0,0,0,-1,720,1380,-7.17897,-6.25933
-497,-356,-5.68604,4.96387,0,0,0,0,0,0,0,-1,727,1380,-5.68605,-4.96385
-490,-356,-7.95288,5.5625,0,0,0,0,0,0,0,-1,734,1380,-7.95285,-5.56246
-483,-356,-7.2627,4.07446,0,0,0,0,0,0,0,-1,741,1380,-7.2627,-4.07441
-476,-356,-5.1936,4.16016,0,0,0,0,0,0,0,-1,748,1380,-5.1936,-4.16012
-469,-356,-10.0883,0.536011,0,0,0,0,0,0,0,-1,755,1380,-10.0883,-0.535989
-462,-356,-12.3481,-0.215698,0,0,0,0,0,0,0,-1,762,1380,-12.3481,0.215641
-455,-356,-13.1367,-0.264648,0,0,0,0,0,0,0,-1,769,1380,-13.1367,0.264647
-448,-356,-13.9116,-0.310181,0,0,0,0,0,0,0,-1,776,1380,-13.9115,0.310207
-441,-356,-13.1602,3.05603,0,0,0,0,0,0,0,-1,783,1380,-13.1602,-3.05609
-434,-356,0,0,0,0,0,0,0,0,0,-1,790,1380,0,0
-427,-356,0,0,0,0,0,0,0,0,0,-1,797,1380,0,0
-420,-356,0,0,0,0,0,0,0,0,0,-1,804,1380,0,0
-413,-356,0,0,0,0,0,0,0,0,0,-1,811,1380,0,0
-406,-356,0,0,0,0,0,0,0,0,0,-1,818,1380,0,0
-399,-356,0,0,0,0,0,0,0,0,0,-1,825,1380,0,0
-392,-356,0,0,0,0,0,0,0,0,0,-1,832,1380,0,0
-385,-356,0,0,0,0,0,0,0,0,0,-1,839,1380,0,0
-378,-356,0,0,0,0,0,0,0,0,0,-1,846,1380,0,0
-371,-356,0,0,0,0,0,0,0,0,0,-1,853,1380,0,0
-364,-356,0,0,0,0,0,0,0,0,0,-1,860,1380,0,0
-357,-356,0,0,0,0,0,0,0,0,0,-1,867,1380,0,0
-350,-356,0,0,0,0,0,0,0,0,0,-1,874,1380,0,0
-343,-356,0,0,0,0,0,0,0,0,0,-1,881,1380,0,0
-336,-356,0,0,0,0,0,0,0,0,0,-1,888,1380,0,0
-329,-356,0,0,0,0,0,0,0,0,0,-1,895,1380,0,0
-322,-356,0,0,0,0,0,0,0,0,0,-1,902,1380,0,0
-315,-356,0,0,0,0,0,0,0,0,0,-1,909,1380,0,0
-308,-356,0,0,0,0,0,0,0,0,0,-1,916,1380,0,0
-301,-356,0,0,0,0,0,0,0,0,0,-1,923,1380,0,0
-294,-356,0,0,0,0,0,0,0,0,0,-1,930,1380,0,0
-287,-356,0,0,0,0,0,0,0,0,0,-1,937,1380,0,0
-280,-356,0,0,0,0,0,0,0,0,0,-1,944,1380,0,0
-273,-356,0,0,0,0,0,0,0,0,0,-1,951,1380,0,0
-266,-356,0,0,0,0,0,0,0,0,0,-1,958,1380,0,0
-259,-356,0,0,0,0,0,0,0,0,0,-1,965,1380,0,0
-252,-356,0,0,0,0,0,0,0,0,0,-1,972,1380,0,0
-245,-356,0,0,0,0,0,0,0,0,0,-1,979,1380,0,0
-238,-356,0,0,0,0,0,0,0,0,0,-1,986,1380,0,0
-231,-356,0,0,0,0,0,0,0,0,0,-1,993,1380,0,0
-224,-356,0,0,0,0,0,0,0,0,0,-1,1000,1380,0,0
-217,-356,0,0,0,0,0,0,0,0,0,-1,1007,1380,0,0
-210,-356,0,0,0,0,0,0,0,0,0,-1,1014,1380,0,0
-203,-356,0,0,0,0,0,0,0,0,0,-1,1021,1380,0,0
-196,-356,0,0,0,0,0,0,0,0,0,-1,1028,1380,0,0
-189,-356,0,0,0,0,0,0,0,0,0,-1,1035,1380,0,0
-182,-356,0,0,0,0,0,0,0,0,0,-1,1042,1380,0,0
-175,-356,0,0,0,0,0,0,0,0,0,-1,1049,1380,0,0
-168,-356,0,0,0,0,0,0,0,0,0,-1,1056,1380,0,0
-161,-356,0,0,0,0,0,0,0,0,0,-1,1063,1380,0,0
-154,-356,0,0,0,0,0,0,0,0,0,-1,1070,1380,0,0
-147,-356,0,0,0,0,0,0,0,0,0,-1,1077,1380,0,0
-140,-356,0,0,0,0,0,0,0,0,0,-1,1084,1380,0,0
-133,-356,0,0,0,0,0,0,0,0,0,-1,1091,1380,0,0
-126,-356,0,0,0,0,0,0,0,0,0,-1,1098,1380,0,0
-119,-356,0,0,0,0,0,0,0,0,0,-1,1105,1380,0,0
-112,-356,0,0,0,0,0,0,0,0,0,-1,1112,1380,0,0
-105,-356,0,0,0,0,0,0,0,0,0,-1,1119,1380,0,0
-98,-356,0,0,0,0,0,0,0,0,0,-1,1126,1380,0,0
-91,-356,0,0,0,0,0,0,0,0,0,-1,1133,1380,0,0
-84,-356,0,0,0,0,0,0,0,0,0,-1,1140,1380,0,0
-77,-356,0,0,0,0,0,0,0,0,0,-1,1147,1380,0,0
-70,-356,0,0,0,0,0,0,0,0,0,-1,1154,1380,0,0
-63,-356,0,0,0,0,0,0,0,0,0,-1,1161,1380,0,0
-56,-356,0,0,0,0,0,0,0,0,0,-1,1168,1380,0,0
-49,-356,0,0,0,0,0,0,0,0,0,-1,1175,1380,0,0
-42,-356,0,0,0,0,0,0,0,0,0,-1,1182,1380,0,0
-35,-356,0,0,0,0,0,0,0,0,0,-1,1189,1380,0,0
-28,-356,0,0,0,0,0,0,0,0,0,-1,1196,1380,0,0
-21,-356,0,0,0,0,0,0,0,0,0,-1,1203,1380,0,0
-14,-356,0,0,0,0,0,0,0,0,0,-1,1210,1380,0,0
-7,-356,0,0,0,0,0,0,0,0,0,-1,1217,1380,0,0
0,-356,0,0,0,0,0,0,0,0,0,-1,1224,1380,0,0
7,-356,0,0,0,0,0,0,0,0,0,-1,1231,1380,0,0
14,-356,0,0,0,0,0,0,0,0,0,-1,1238,1380,0,0
21,-356,0,0,0,0,0,0,0,0,0,-1,1245,1380,0,0
28,-356,0,0,0,0,0,0,0,0,0,-1,1252,1380,0,0
35,-356,0,0,0,0,0,0,0,0,0,-1,1259,1380,0,0
42,-356,0,0,0,0,0,0,0,0,0,-1,1266,1380,0,0
49,-356,0,0,0,0,0,0,0,0,0,-1,1273,1380,0,0
56,-356,0,0,0,0,0,0,0,0,0,-1,1280,1380,0,0
63,-356,0,0,0,0,0,0,0,0,0,-1,1287,1380,0,0
70,-356,0,0,0,0,0,0,0,0,0,-1,1294,1380,0,0
77,-356,0,0,0,0,0,0,0,0,0,-1,1301,1380,0,0
84,-356,0,0,0,0,0,0,0,0,0,-1,1308,1380,0,0
91,-356,0,0,0,0,0,0,0,0,0,-1,1315,1380,0,0
98,-356,0,0,0,0,0,0,0,0,0,-1,1322,1380,0,0
105,-356,0,0,0,0,0,0,0,0,0,-1,1329,1380,0,0
112,-356,0,0,0,0,0,0,0,0,0,-1,1336,1380,0,0
119,-356,0,0,0,0,0,0,0,0,0,-1,1343,1380,0,0
126,-356,0,0,0,0,0,0,0,0,0,-1,1350,1380,0,0
133,-356,0,0,0,0,0,0,0,0,0,-1,1357,1380,0,0
140,-356,0,0,0,0,0,0,0,0,0,-1,1364,1380,0,0
147,-356,0,0,0,0,0,0,0,0,0,-1,1371,1380,0,0
154,-356,0,0,0,0,0,0,0,0,0,-1,1378,1380,0,0
161,-356,0,0,0,0,0,0,0,0,0,-1,1385,1380,0,0
168,-356,0,0,0,0,0,0,0,0,0,-1,1392,1380,0,0
175,-356,0,0,0,0,0,0,0,0,0,-1,1399,1380,0,0
182,-356,0,0,0,0,0,0,0,0,0,-1,1406,1380,0,0
189,-356,0,0,0,0,0,0,0,0,0,-1,1413,1380,0,0
196,-356,0,0,0,0,0,0,0,0,0,-1,1420,1380,0,0
203,-356,0,0,0,0,0,0,0,0,0,-1,1427,1380,0,0
210,-356,0,0,0,0,0,0,0,0,0,-1,1434,1380,0,0
217,-356,0,0,0,0,0,0,0,0,0,-1,1441,1380,0,0
224,-356,0,0,0,0,0,0,0,0,0,-1,1448,1380,0,0
231,-356,0,0,0,0,0,0,0,0,0,-1,1455,1380,0,0
238,-356,0,0,0,0,0,0,0,0,0,-1,1462,1380,0,0
245,-356,0,0,0,0,0,0,0,0,0,-1,1469,1380,0,0
252,-356,0,0,0,0,0,0,0,0,0,-1,1476,1380,0,0
259,-356,0,0,0,0,0,0,0,0,0,-1,1483,1380,0,0
266,-356,0,0,0,0,0,0,0,0,0,-1,1490,1380,0,0
273,-356,0,0,0,0,0,0,0,0,0,-1,1497,1380,0,0
280,-356,0,0,0,0,0,0,0,0,0,-1,1504,1380,0,0
287,-356,0,0,0,0,0,0,0,0,0,-1,1511,1380,0,0
294,-356,0,0,0,0,0,0,0,0,0,-1,1518,1380,0,0
301,-356,0,0,0,0,0,0,0,0,0,-1,1525,1380,0,0
308,-356,0,0,0,0,0,0,0,0,0,-1,1532,1380,0,0
315,-356,0,0,0,0,0,0,0,0,0,-1,1539,1380,0,0
322,-356,0,0,0,0,0,0,0,0,0,-1,1546,1380,0,0
329,-356,0,0,0,0,0,0,0,0,0,-1,1553,1380,0,0
336,-356,0,0,0,0,0,0,0,0,0,-1,1560,1380,0,0
343,-356,0,0,0,0,0,0,0,0,0,-1,1567,1380,0,0
350,-356,0,0,0,0,0,0,0,0,0,-1,1574,1380,0,0
357,-356,0,0,0,0,0,0,0,0,0,-1,1581,1380,0,0
364,-356,0,0,0,0,0,0,0,0,0,-1,1588,1380,0,0
371,-356,0,0,0,0,0,0,0,0,0,-1,1595,1380,0,0
378,-356,0,0,0,0,0,0,0,0,0,-1,1602,1380,0,0
385,-356,0,0,0,0,0,0,0,0,0,-1,1609,1380,0,0
392,-356,0,0,0,0,0,0,0,0,0,-1,1616,1380,0,0
399,-356,0,0,0,0,0,0,0,0,0,-1,1623,1380,0,0
406,-356,0,0,0,0,0,0,0,0,0,-1,1630,1380,0,0
413,-356,0,0,0,0,0,0,0,0,0,-1,1637,1380,0,0
420,-356,0,0,0,0,0,0,0,0,0,-1,1644,1380,0,0
427,-356,0,0,0,0,0,0,0,0,0,-1,1651,1380,0,0
434,-356,0,0,0,0,0,0,0,0,0,-1,1658,1380,0,0
441,-356,0,0,0,0,0,0,0,0,0,-1,1665,1380,0,0
448,-356,0,0,0,0,0,0,0,0,0,-1,1672,1380,0,0
455,-356,0,0,0,0,0,0,0,0,0,-1,1679,1380,0,0
462,-356,0,0,0,0,0,0,0,0,0,-1,1686,1380,0,0
469,-356,0,0,0,0,0,0,0,0,0,-1,1693,1380,0,0
476,-356,0,0,0,0,0,0,0,0,0,-1,1700,1380,0,0
483,-356,0,0,0,0,0,0,0,0,0,-1,1707,1380,0,0
490,-356,0,0,0,0,0,0,0,0,0,-1,1714,1380,0,0
497,-356,0,0,0,0,0,0,0,0,0,-1,1721,1380,0,0
504,-356,0,0,0,0,0,0,0,0,0,-1,1728,1380,0,0
511,-356,0,0,0,0,0,0,0,0,0,-1,1735,1380,0,0
518,-356,0,0,0,0,0,0,0,0,0,-1,1742,1380,0,0
525,-356,0,0,0,0,0,0,0,0,0,-1,1749,1380,0,0
532,-356,0,0,0,0,0,0,0,0,0,-1,1756,1380,0,0
539,-356,0,0,0,0,0,0,0,0,0,-1,1763,1380,0,0
546,-356,0,0,0,0,0,0,0,0,0,-1,1770,1380,0,0
553,-356,0,0,0,0,0,0,0,0,0,-1,1777,1380,0,0
560,-356,23.1122,5.60339,0,0,0,0,0,0,0,-1,1784,1380,23.1122,-5.60343
567,-356,23.2485,5.34192,0,0,0,0,0,0,0,-1,1791,1380,23.2485,-5.34194
574,-356,23.0302,4.17493,0,0,0,0,0,0,0,-1,1798,1380,23.0301,-4.17491
581,-356,23.6389,4.64893,0,0,0,0,0,0,0,-1,1805,1380,23.6389,-4.64897
588,-356,24.3447,5.09766,0,0,0,0,0,0,0,-1,1812,1380,24.3448,-5.0977
595,-356,25.0372,5.63025,0,0,0,0,0,0,0,-1,1819,1380,25.0372,-5.63023
602,-356,17.934,2.41858,0,0,0,0,0,0,0,-1,1826,1380,17.9339,-2.41856
609,-356,17.91,3.41785,0,0,0,0,0,0,0,-1,1833,1380,17.91,-3.41785
616,-356,15.4355,6.68579,0,0,0,0,0,0,0,-1,1840,1380,15.4356,-6.68578
623,-356,16.0044,6.83008,0,0,0,0,0,0,0,-1,1847,1380,16.0044,-6.83013
630,-356,16.4138,6.91553,0,0,0,0,0,0,0,-1,1854,1380,16.4138,-6.9155
637,-356,16.3136,7.74292,0,0,0,0,0,0,0,-1,1861,1380,16.3136,-7.74288
644,-356,16.4437,7.77209,0.000110735,-0.0109576,-0.00117378,0.000233845,-0.0110807,-0.104501,0.00746628,0.0319015,1868,1380,16.4437,-7.77216
651,-356,16.5179,7.40588,-3.08366e-06,-0.0066585,-0.000339302,1.41696e-05,-0.00667575,-0.0508057,0.00445523,0.0175564,1875,1380,16.518,-7.40591
658,-356,16.4836,7.12024,-3.29532e-05,-0.00357678,0.00021023,-2.05254e-05,-0.00358921,0.0590469,0.00238599,0.0156545,1882,1380,16.4836,-7.12028
665,-356,16.4836,6.92615,0.00021836,-0.00181024,0.000358006,0.000279686,-0.00187156,0.169654,0.00135063,0.0142853,1889,1380,16.4836,-6.92618
672,-356,16.4414,6.7207,0.00049447,-0.000894834,0.000284663,0.000550534,-0.000950898,0.19446,0.000877065,0.014875,1896,1380,16.4414,-6.72075
679,-356,16.4498,6.48071,0.000818301,-0.000441131,-5.09651e-06,0.000818321,-0.000441151,-0.00404659,0.000737946,0.0168303,1903,1380,16.4499,-6.48067
686,-356,16.4564,6.22998,0.00140415,-2.35773e-05,-0.000543678,0.00158761,-0.000207036,-0.325442,0.00113373,0.0163063,1910,1380,16.4564,-6.23003
693,-356,16.4875,5.99048,0.00218906,0.00064117,-0.00133758,0.00296046,-0.000130238,-0.523125,0.00201846,0.0140467,1917,1380,16.4876,-5.99045
700,-356,16.4973,5.72327,0.00480787,0.00107175,-0.00278553,0.00629374,-0.00041412,-0.490028,0.00434046,0.018319,1924,1380,16.4973,-5.72327
707,-356,16.564,5.24133,0.00892884,0.00194807,-0.00489878,0.0114535,-0.000576601,-0.475865,0.00783494,0.0453924,1931,1380,16.564,-5.24138
714,-356,16.7426,4.80554,0,0,0,0,0,0,0,-1,1938,1380,16.7426,-4.80549
721,-356,16.2679,4.47583,0,0,0,0,0,0,0,-1,1945,1380,16.268,-4.47577
728,-356,19.1846,2.31519,0,0,0,0,0,0,0,-1,1952,1380,19.1846,-2.31514
735,-356,20.3132,2.13538,0,0,0,0,0,0,0,-1,1959,1380,20.3133,-2.13536
742,-356,19.4596,6.38098,0,0,0,0,0,0,0,-1,1966,1380,19.4596,-6.38098
749,-356,19.3773,4.76184,0,0,0,0,0,0,0,-1,1973,1380,19.3773,-4.76179
756,-356,0,0,0,0,0,0,0,0,0,-1,1980,1380,0,0
763,-356,0,0,0,0,0,0,0,0,0,-1,1987,1380,0,0
770,-356,0,0,0,0,0,0,0,0,0,-1,1994,1380,0,0
777,-356,0,0,0,0,0,0,0,0,0,-1,2001,1380,0,0
784,-356,0,0,0,0,0,0,0,0,0,-1,2008,1380,0,0
791,-356,0,0,0,0,0,0,0,0,0,-1,2015,1380,0,0
798,-356,0,0,0,0,0,0,0,0,0,-1,2022,1380,0,0
805,-356,0,0,0,0,0,0,0,0,0,-1,2029,1380,0,0
812,-356,0,0,0,0,0,0,0,0,0,-1,2036,1380,0,0
-700,-363,0,0,0,0,0,0,0,0,0,-1,524,1387,0,0
-693,-363,0,0,0,0,0,0,0,0,0,-1,531,1387,0,0
-686,-363,0,0,0,0,0,0,0,0,0,-1,538,1387,0,0
-679,-363,0,0,0,0,0,0,0,0,0,-1,545,1387,0,0
-672,-363,0,0,0,0,0,0,0,0,0,-1,552,1387,0,0
-665,-363,0,0,0,0,0,0,0,0,0,-1,559,1387,0,0
-658,-363,0,0,0,0,0,0,0,0,0,-1,566,1387,0,0
-651,-363,0,0,0,0,0,0,0,0,0,-1,573,1387,0,0
-644,-363,0,0,0,0,0,0,0,0,0,-1,580,1387,0,0
-637,-363,0,0,0,0,0,0,0,0,0,-1,587,1387,0,0
-630,-363,0,0,0,0,0,0,0,0,0,-1,594,1387,0,0
-623,-363,-9.67566,-5.91846,0,0,0,0,0,0,0,-1,601,1387,-9.67563,5.91847
-616,-363,-9.02985,-2.98083,0,0,0,0,0,0,0,-1,608,1387,-9.02987,2.98079
-609,-363,-4.90265,0.195679,0,0,0,0,0,0,0,-1,615,1387,-4.90263,-0.195721
-602,-363,-7.79889,2.63611,0,0,0,0,0,0,0,-1,622,1387,-7.7989,-2.63609
-595,-363,-7.53015,2.95227,0,0,0,0,0,0,0,-1,629,1387,-7.53014,-2.95231
-588,-363,-6.59753,2.06665,0,0,0,0,0,0,0,-1,636,1387,-6.59751,-2.06667
-581,-363,-6.77924,2.82617,-0.00968712,0.0122634,0.00222998,0.0124877,-0.00991138,1.47057,0.0129606,0.0384203,643,1387,-6.77926,-2.82621
-574,-363,-6.97791,3.51917,-0.00724292,0.00689102,0.000948802,0.00695443,-0.00730633,1.50407,0.00823429,0.033212,650,1387,-6.9779,-3.51923
-567,-363,-7.16492,3.61841,-0.00510092,0.00358993,0.000225465,0.00359578,-0.00510677,1.54488,0.0050496,0.0230235,657,1387,-7.16493,-3.61846
-560,-363,-7.15631,3.87244,-0.00335264,0.00162703,-0.000184286,0.00163384,-0.00335945,-1.53386,0.0029397,0.0132445,664,1387,-7.15631,-3.87239
-553,-363,-7.17004,4.17969,-0.00192873,0.000431853,-0.000440768,0.000511469,-0.00200834,-1.3921,0.001538,0.0138428,671,1387,-7.17007,-4.1797
-546,-363,-7.16052,4.43079,-0.000513604,-0.000726427,-0.000603882,-6.83003e-06,-0.0012332,-0.698187,0.000819867,0.0145153,678,1387,-7.16052,-4.43079
-539,-363,-7.14594,4.68079,0.000495159,-0.000967212,-0.000480648,0.00063899,-0.00111104,-0.290764,0.00102256,0.0161678,685,1387,-7.14593,-4.68073
-532,-363,-7.17035,4.9906,0.00145371,-0.000938349,-0.000335277,0.00149982,-0.000984453,-0.136655,0.00144454,0.0135387,692,1387,-7.17037,-4.99057
-525,-363,-7.15527,5.27527,0.00236958,-0.0010871,-0.000242042,0.00238645,-0.00110397,-0.0695691,0.00206004,0.0110402,699,1387,-7.15527,-5.27531
-518,-363,-7.13855,5.56848,0.00306618,-0.00130756,-0.000136059,0.0030704,-0.00131179,-0.0310681,0.00259709,0.00964411,706,1387,-7.13853,-5.56844
-511,-363,-7.0921,5.86536,0.00383178,-0.00193679,-8.7282e-05,0.00383311,-0.00193812,-0.015126,0.00339136,0.0168453,713,1387,-7.09211,-5.86538
-504,-363,-6.96448,6.177,0.00483641,-0.00305837,-0.000286982,0.00484682,-0.00306879,-0.036287,0.00460835,0.0456554,720,1387,-6.96446,-6.17701
-497,-363,-6.65436,6.3728,0,0,0,0,0,0,0,-1,727,1387,-6.65435,-6.37283
-490,-363,-5.42413,4.6958,0,0,0,0,0,0,0,-1,734,1387,-5.42412,-4.69583
-483,-363,-6.28375,4.1394,0,0,0,0,0,0,0,-1,741,1387,-6.28374,-4.13944
-476,-363,-5.83807,4.31018,0,0,0,0,0,0,0,-1,748,1387,-5.8381,-4.31013
-469,-363,-10.7125,0.697754,0,0,0,0,0,0,0,-1,755,1387,-10.7125,-0.697811
-462,-363,-9.55951,-0.0830078,0,0,0,0,0,0,0,-1,762,1387,-9.55949,0.0830163
-455,-363,-13.1008,-0.290894,0,0,0,0,0,0,0,-1,769,1387,-13.1008,0.290921
-448,-363,-11.7324,2.46606,0,0,0,0,0,0,0,-1,776,1387,-11.7324,-2.46605
-441,-363,-12.4464,2.5354,0,0,0,0,0,0,0,-1,783,1387,-12.4463,-2.53537
-434,-363,-13.6918,2.14661,0,0,0,0,0,0,0,-1,790,1387,-13.6918,-2.14662
-427,-363,0,0,0,0,0,0,0,0,0,-1,797,1387,0,0
-420,-363,0,0,0,0,0,0,0,0,0,-1,804,1387,0,0
-413,-363,0,0,0,0,0,0,0,0,0,-1,811,1387,0,0
-406,-363,0,0,0,0,0,0,0,0,0,-1,818,1387,0,0
-399,-363,0,0,0,0,0,0,0,0,0,-1,825,1387,0,0
-392,-363,0,0,0,0,0,0,0,0,0,-1,832,1387,0,0
-385,-363,0,0,0,0,0,0,0,0,0,-1,839,1387,0,0
-378,-363,0,0,0,0,0,0,0,0,0,-1,846,1387,0,0
-371,-363,0,0,0,0,0,0,0,0,0,-1,853,1387,0,0
-364,-363,0,0,0,0,0,0,0,0,0,-1,860,1387,0,0
-357,-363,0,0,0,0,0,0,0,0,0,-1,867,1387,0,0
-350,-363,0,0,0,0,0,0,0,0,0,-1,874,1387,0,0
-343,-363,0,0,0,0,0,0,0,0,0,-1,881,1387,0,0
-336,-363,0,0,0,0,0,0,0,0,0,-1,888,1387,0,0
-329,-363,0,0,0,0,0,0,0,0,0,-1,895,1387,0,0
-322,-363,0,0,0,0,0,0,0,0,0,-1,902,1387,0,0
-315,-363,0,0,0,0,0,0,0,0,0,-1,909,1387,0,0
-308,-363,0,0,0,0,0,0,0,0,0,-1,916,1387,0,0
-301,-363,0,0,0,0,0,0,0,0,0,-1,923,1387,0,0
-294,-363,0,0,0,0,0,0,0,0,0,-1,930,1387,0,0
-287,-363,0,0,0,0,0,0,0,0,0,-1,937,1387,0,0
-280,-363,0,0,0,0,0,0,0,0,0,-1,944,1387,0,0
-273,-363,0,0,0,0,0,0,0,0,0,-1,951,1387,0,0
-266,-363,0,0,0,0,0,0,0,0,0,-1,958,1387,0,0
-259,-363,0,0,0,0,0,0,0,0,0,-1,965,1387,0,0
-252,-363,0,0,0,0,0,0,0,0,0,-1,972,1387,0,0
-245,-363,0,0,0,0,0,0,0,0,0,-1,979,1387,0,0
-238,-363,0,0,0,0,0,0,0,0,0,-1,986,1387,0,0
-231,-363,0,0,0,0,0,0,0,0,0,-1,993,1387,0,0
-224,-363,0,0,0,0,0,0,0,0,0,-1,1000,1387,0,0
-217,-363,0,0,0,0,0,0,0,0,0,-1,1007,1387,0,0
-210,-363,0,0,0,0,0,0,0,0,0,-1,1014,1387,0,0
-203,-363,0,0,0,0,0,0,0,0,0,-1,1021,1387,0,0
-196,-363,0,0,0,0,0,0,0,0,0,-1,1028,1387,0,0
-189,-363,0,0,0,0,0,0,0,0,0,-1,1035,1387,0,0
-182,-363,0,0,0,0,0,0,0,0,0,-1,1042,1387,0,0
-175,-363,0,0,0,0,0,0,0,0,0,-1,1049,1387,0,0
-168,-363,0,0,0,0,0,0,0,0,0,-1,1056,1387,0,0
-161,-363,0,0,0,0,0,0,0,0,0,-1,1063,1387,0,0
-154,-363,0,0,0,0,0,0,0,0,0,-1,1070,1387,0,0
-147,-363,0,0,0,0,0,0,0,0,0,-1,1077,1387,0,0
-140,-363,0,0,0,0,0,0,0,0,0,-1,1084,1387,0,0
-133,-363,0,0,0,0,0,0,0,0,0,-1,1091,1387,0,0
-126,-363,0,0,0,0,0,0,0,0,0,-1,1098,1387,0,0
-119,-363,0,0,0,0,0,0,0,0,0,-1,1105,1387,0,0
-112,-363,0,0,0,0,0,0,0,0,0,-1,1112,1387,0,0
-105,-363,0,0,0,0,0,0,0,0,0,-1,1119,1387,0,0
-98,-363,0,0,0,0,0,0,0,0,0,-1,1126,1387,0,0
-91,-363,0,0,0,0,0,0,0,0,0,-1,1133,1387,0,0
-84,-363,0,0,0,0,0,0,0,0,0,-1,1140,1387,0,0
-77,-363,0,0,0,0,0,0,0,0,0,-1,1147,1387,0,0
-70,-363,0,0,0,0,0,0,0,0,0,-1,1154,1387,0,0
-63,-363,0,0,0,0,0,0,0,0,0,-1,1161,1387,0,0
-56,-363,0,0,0,0,0,0,0,0,0,-1,1168,1387,0,0
-49,-363,0,0,0,0,0,0,0,0,0,-1,1175,1387,0,0
-42,-363,0,0,0,0,0,0,0,0,0,-1,1182,1387,0,0
-35,-363,0,0,0,0,0,0,0,0,0,-1,1189,1387,0,0
-28,-363,0,0,0,0,0,0,0,0,0,-1,1196,1387,0,0
-21,-363,0,0,0,0,0,0,0,0,0,-1,1203,1387,0,0
-14,-363,0,0,0,0,0,0,0,0,0,-1,1210,1387,0,0
-7,-363,0,0,0,0,0,0,0,0,0,-1,1217,1387,0,0
0,-363,0,0,0,0,0,0,0,0,0,-1,1224,1387,0,0
7,-363,0,0,0,0,0,0,0,0,0,-1,1231,1387,0,0
14,-363,0,0,0,0,0,0,0,0,0,-1,1238,1387,0,0
21,-363,0,0,0,0,0,0,0,0,0,-1,1245,1387,0,0
28,-363,0,0,0,0,0,0,0,0,0,-1,1252,1387,0,0
35,-363,0,0,0,0,0,0,0,0,0,-1,1259,1387,0,0
42,-363,0,0,0,0,0,0,0,0,0,-1,1266,1387,0,0
49,-363,0,0,0,0,0,0,0,0,0,-1,1273,1387,0,0
56,-363,0,0,0,0,0,0,0,0,0,-1,1280,1387,0,0
63,-363,0,0,0,0,0,0,0,0,0,-1,1287,1387,0,0
70,-363,0,0,0,0,0,0,0,0,0,-1,1294,1387,0,0
77,-363,0,0,0,0,0,0,0,0,0,-1,1301,1387,0,0
84,-363,0,0,0,0,0,0,0,0,0,-1,1308,1387,0,0
91,-363,0,0,0,0,0,0,0,0,0,-1,1315,1387,0,0
98,-363,0,0,0,0,0,0,0,0,0,-1,1322,1387,0,0
105,-363,0,0,0,0,0,0,0,0,0,-1,1329,1387,0,0
112,-363,0,0,0,0,0,0,0,0,0,-1,1336,1387,0,0
119,-363,0,0,0,0,0,0,0,0,0,-1,1343,1387,0,0
126,-363,0,0,0,0,0,0,0,0,0,-1,1350,1387,0,0
133,-363,0,0,0,0,0,0,0,0,0,-1,1357,1387,0,0
140,-363,0,0,0,0,0,0,0,0,0,-1,1364,1387,0,0
147,-363,0,0,0,0,0,0,0,0,0,-1,1371,1387,0,0
154,-363,0,0,0,0,0,0,0,0,0,-1,1378,1387,0,0
161,-363,0,0,0,0,0,0,0,0,0,-1,1385,1387,0,0
168,-363,0,0,0,0,0,0,0,0,0,-1,1392,1387,0,0
175,-363,0,0,0,0,0,0,0,0,0,-1,1399,1387,0,0
182,-363,0,0,0,0,0,0,0,0,0,-1,1406,1387,0,0
189,-363,0,0,0,0,0,0,0,0,0,-1,1413,1387,0,0
196,-363,0,0,0,0,0,0,0,0,0,-1,1420,1387,0,0
203,-363,0,0,0,0,0,0,0,0,0,-1,1427,1387,0,0
210,-363,0,0,0,0,0,0,0,0,0,-1,1434,1387,0,0
217,-363,0,0,0,0,0,0,0,0,0,-1,1441,1387,0,0
224,-363,0,0,0,0,0,0,0,0,0,-1,1448,1387,0,0
231,-363,0,0,0,0,0,0,0,0,0,-1,1455,1387,0,0
238,-363,0,0,0,0,0,0,0,0,0,-1,1462,1387,0,0
245,-363,0,0,0,0,0,0,0,0,0,-1,1469,1387,0,0
252,-363,0,0,0,0,0,0,0,0,0,-1,1476,1387,0,0
259,-363,0,0,0,0,0,0,0,0,0,-1,1483,1387,0,0
266,-363,0,0,0,0,0,0,0,0,0,-1,1490,1387,0,0
273,-363,0,0,0,0,0,0,0,0,0,-1,1497,1387,0,0
280,-363,0,0,0,0,0,0,0,0,0,-1,1504,1387,0,0
287,-363,0,0,0,0,0,0,0,0,0,-1,1511,1387,0,0
294,-363,0,0,0,0,0,0,0,0,0,-1,1518,1387,0,0
301,-363,0,0,0,0,0,0,0,0,0,-1,1525,1387,0,0
308,-363,0,0,0,0,0,0,0,0,0,-1,1532,1387,0,0
315,-363,0,0,0,0,0,0,0,0,0,-1,1539,1387,0,0
322,-363,0,0,0,0,0,0,0,0,0,-1,1546,1387,0,0
329,-363,0,0,0,0,0,0,0,0,0,-1,1553,1387,0,0
336,-363,0,0,0,0,0,0,0,0,0,-1,1560,1387,0,0
343,-363,0,0,0,0,0,0,0,0,0,-1,1567,1387,0,0
350,-363,0,0,0,0,0,0,0,0,0,-1,1574,1387,0,0
357,-363,0,0,0,0,0,0,0,0,0,-1,1581,1387,0,0
364,-363,0,0,0,0,0,0,0,0,0,-1,1588,1387,0,0
371,-363,0,0,0,0,0,0,0,0,0,-1,1595,1387,0,0
378,-363,0,0,0,0,0,0,0,0,0,-1,1602,1387,0,0
385,-363,0,0,0,0,0,0,0,0,0,-1,1609,1387,0,0
392,-363,0,0,0,0,0,0,0,0,0,-1,1616,1387,0,0
399,-363,0,0,0,0,0,0,0,0,0,-1,1623,1387,0,0
406,-363,0,0,0,0,0,0,0,0,0,-1,1630,1387,0,0
413,-363,0,0,0,0,0,0,0,0,0,-1,1637,1387,0,0
420,-363,0,0,0,0,0,0,0,0,0,-1,1644,1387,0,0
427,-363,0,0,0,0,0,0,0,0,0,-1,1651,1387,0,0
434,-363,0,0,0,0,0,0,0,0,0,-1,1658,1387,0,0
441,-363,0,0,0,0,0,0,0,0,0,-1,1665,1387,0,0
448,-363,0,0,0,0,0,0,0,0,0,-1,1672,1387,0,0
455,-363,0,0,0,0,0,0,0,0,0,-1,1679,1387,0,0
462,-363,0,0,0,0,0,0,0,0,0,-1,1686,1387,0,0
469,-363,0,0,0,0,0,0,0,0,0,-1,1693,1387,0,0
476,-363,0,0,0,0,0,0,0,0,0,-1,1700,1387,0,0
483,-363,0,0,0,0,0,0,0,0,0,-1,1707,1387,0,0
490,-363,0,0,0,0,0,0,0,0,0,-1,1714,1387,0,0
497,-363,0,0,0,0,0,0,0,0,0,-1,1721,1387,0,0
504,-363,0,0,0,0,0,0,0,0,0,-1,1728,1387,0,0
511,-363,0,0,0,0,0,0,0,0,0,-1,1735,1387,0,0
518,-363,0,0,0,0,0,0,0,0,0,-1,1742,1387,0,0
525,-363,0,0,0,0,0,0,0,0,0,-1,1749,1387,0,0
532,-363,0,0,0,0,0,0,0,0,0,-1,1756,1387,0,0
539,-363,0,0,0,0,0,0,0,0,0,-1,1763,1387,0,0
546,-363,0,0,0,0,0,0,0,0,0,-1,1770,1387,0,0
553,-363,20.5176,1.28699,0,0,0,0,0,0,0,-1,1777,1387,20.5176,-1.28699
560,-363,23.1362,6.22974,0,0,0,0,0,0,0,-1,1784,1387,23.1362,-6.22979
567,-363,20.1196,3.49683,0,0,0,0,0,0,0,-1,1791,1387,20.1196,-3.49686
574,-363,13.896,5.84314,0,0,0,0,0,0,0,-1,1798,1387,13.896,-5.84314
581,-363,23.7521,5.67395,0,0,0,0,0,0,0,-1,1805,1387,23.752,-5.6739
588,-363,24.6947,6.22327,0,0,0,0,0,0,0,-1,1812,1387,24.6946,-6.22327
595,-363,17.8364,0.548096,0,0,0,0,0,0,0,-1,1819,1387,17.8364,-0.548141
602,-363,14.0654,6.11243,0,0,0,0,0,0,0,-1,1826,1387,14.0654,-6.11239
609,-363,15.4229,7.11267,0,0,0,0,0,0,0,-1,1833,1387,15.4228,-7.11269
616,-363,15.5396,7.01343,0,0,0,0,0,0,0,-1,1840,1387,15.5396,-7.01341
623,-363,15.7283,7.16663,0,0,0,0,0,0,0,-1,1847,1387,15.7282,-7.16665
630,-363,15.8832,7.98792,0,0,0,0,0,0,0,-1,1854,1387,15.8832,-7.98796
637,-363,16.0013,7.83044,-0.00283101,-0.0108838,0.00131157,-0.00262278,-0.011092,0.157451,0.00669395,0.0404278,1861,1387,16.0013,-7.83047
644,-363,16.2087,7.69348,-0.00156881,-0.00690264,0.000979236,-0.00139472,-0.00707674,0.175948,0.00432848,0.012278,1868,1387,16.2088,-7.69343
651,-363,16.2358,7.39551,-0.000485179,-0.00406562,0.000603458,-0.000386206,-0.00416459,0.162562,0.00265703,0.0124823,1875,1387,16.2359,-7.39547
658,-363,16.2516,7.15027,0.00023651,-0.00226156,0.000395503,0.000297632,-0.00232268,0.153329,0.0016566,0.0126704,1882,1387,16.2516,-7.15027
665,-363,16.2343,6.94604,0.000614393,-0.00132836,0.000308314,0.000662149,-0.00137611,0.153671,0.00120061,0.0112157,1889,1387,16.2342,-6.94606
672,-363,16.2036,6.73621,0.00083786,-0.000799287,0.000173425,0.00085603,-0.000817457,0.104387,0.000966273,0.0131268,1896,1387,16.2036,-6.73623
679,-363,16.2103,6.49658,0.00113847,-0.000484415,-3.15562e-05,0.00113908,-0.000485028,-0.0194347,0.000962693,0.0152499,1903,1387,16.2103,-6.4966
686,-363,16.2146,6.229,0.00163953,-0.000276457,-0.000438515,0.00173513,-0.00037205,-0.214637,0.00129866,0.0150776,1910,1387,16.2146,-6.22902
693,-363,16.2219,5.96143,0.0023195,5.03322e-05,-0.00105274,0.00273267,-0.000362838,-0.374,0.00195399,0.0136961,1917,1387,16.2219,-5.96148
700,-363,16.2987,5.6687,0.00488051,0.00014117,-0.00228297,0.00580133,-0.000779642,-0.383382,0.0041519,0.0190467,1924,1387,16.2987,-5.66866
707,-363,16.2278,5.28796,0.00911716,0.000645167,-0.00428317,0.0109052,-0.00114289,-0.395468,0.00767951,0.047115,1931,1387,16.2278,-5.28796
714,-363,16.2971,5.30188,0,0,0,0,0,0,0,-1,1938,1387,16.2971,-5.30193
721,-363,14.4045,4.51685,0,0,0,0,0,0,0,-1,1945,1387,14.4045,-4.51685
728,-363,13.8644,4.52063,0,0,0,0,0,0,0,-1,1952,1387,13.8644,-4.52064
735,-363,20.9434,1.19971,0,0,0,0,0,0,0,-1,1959,1387,20.9434,-1.19971
742,-363,18.7352,1.20129,0,0,0,0,0,0,0,-1,1966,1387,18.7353,-1.20129
749,-363,0,0,0,0,0,0,0,0,0,-1,1973,1387,0,0
756,-363,0,0,0,0,0,0,0,0,0,-1,1980,1387,0,0
763,-363,0,0,0,0,0,0,0,0,0,-1,1987,1387,0,0
770,-363,0,0,0,0,0,0,0,0,0,-1,1994,1387,0,0
777,-363,0,0,0,0,0,0,0,0,0,-1,2001,1387,0,0
784,-363,0,0,0,0,0,0,0,0,0,-1,2008,1387,0,0
791,-363,0,0,0,0,0,0,0,0,0,-1,2015,1387,0,0
798,-363,0,0,0,0,0,0,0,0,0,-1,2022,1387,0,0
805,-363,0,0,0,0,0,0,0,0,0,-1,2029,1387,0,0
812,-363,0,0,0,0,0,0,0,0,0,-1,2036,1387,0,0
-700,-370,0,0,0,0,0,0,0,0,0,-1,524,1394,0,0
-693,-370,0,0,0,0,0,0,0,0,0,-1,531,1394,0,0
-686,-370,0,0,0,0,0,0,0,0,0,-1,538,1394,0,0
-679,-370,0,0,0,0,0,0,0,0,0,-1,545,1394,0,0
-672,-370,0,0,0,0,0,0,0,0,0,-1,552,1394,0,0
-665,-370,0,0,0,0,0,0,0,0,0,-1,559,1394,0,0
-658,-370,0,0,0,0,0,0,0,0,0,-1,566,1394,0,0
-651,-370,0,0,0,0,0,0,0,0,0,-1,573,1394,0,0
-644,-370,0,0,0,0,0,0,0,0,0,-1,580,1394,0,0
-637,-370,0,0,0,0,0,0,0,0,0,-1,587,1394,0,0
-630,-370,0,0,0,0,0,0,0,0,0,-1,594,1394,0,0
-623,-370,-10.1758,-7.10486,0,0,0,0,0,0,0,-1,601,1394,-10.1758,7.10483
-616,-370,-8.85925,-1.61475,0,0,0,0,0,0,0,-1,608,1394,-8.85925,1.61476
-609,-370,-5.39325,0.0421143,0,0,0,0,0,0,0,-1,615,1394,-5.39328,-0.0421372
-602,-370,-7.19305,0.585815,0,0,0,0,0,0,0,-1,622,1394,-7.19304,-0.585771
-595,-370,-7.78735,3.60046,0,0,0,0,0,0,0,-1,629,1394,-7.78736,-3.60046
-588,-370,-6.2262,2.38013,0,0,0,0,0,0,0,-1,636,1394,-6.22619,-2.38013
-581,-370,-6.46301,3.06592,-0.00915451,0.0106726,0.00137844,0.010768,-0.00924988,1.50172,0.0115684,0.0459182,643,1394,-6.46302,-3.06593
-574,-370,-6.64087,3.44946,-0.00683782,0.00532822,4.20259e-05,0.00532837,-0.00683796,1.56734,0.00704224,0.0384774,650,1394,-6.64088,-3.44943
-567,-370,-6.76392,3.64294,-0.00482542,0.00220526,-0.000659248,0.00226655,-0.0048867,-1.47811,0.00422127,0.0272699,657,1394,-6.7639,-3.64291
-560,-370,-6.89435,3.8479,-0.00320488,0.000508653,-0.000979778,0.000751303,-0.00344753,-1.32802,0.00258543,0.0156509,664,1394,-6.89436,-3.84793
-553,-370,-6.88818,4.16199,-0.00192288,-0.000439316,-0.00114907,0.000186599,-0.00254879,-1.07202,0.00176469,0.0115662,671,1394,-6.88816,-4.16201
-546,-370,-6.8606,4.43774,-0.000616337,-0.00131755,-0.00116133,0.000246161,-0.00218004,-0.6388,0.00154198,0.0156647,678,1394,-6.8606,-4.43779
-539,-370,-6.84576,4.7428,0.000335745,-0.0013585,-0.000878358,0.000708922,-0.00173168,-0.401749,0.00144974,0.0192722,685,1394,-6.84579,-4.7428
-532,-370,-6.88721,5.01697,0.00127606,-0.00112285,-0.000540917,0.00139239,-0.00123917,-0.21183,0.00152019,0.0213334,692,1394,-6.8872,-5.01692
-525,-370,-6.87677,5.28687,0.00225983,-0.00108757,-0.000257955,0.00227959,-0.00110734,-0.0764597,0.0019941,0.014523,699,1394,-6.87675,-5.28691
-518,-370,-6.85437,5.54199,0.00312194,-0.00116503,7.74609e-05,0.00312334,-0.00116643,0.0180611,0.00256116,0.0104724,706,1394,-6.85435,-5.54197
-511,-370,-6.84125,5.828,0.00402908,-0.00166039,0.000355539,0.00405121,-0.00168253,0.0621683,0.00340323,0.0135005,713,1394,-6.84125,-5.82803
-504,-370,-6.77216,6.14844,0.00507843,-0.00263193,0.000286689,0.00508908,-0.00264257,0.037114,0.00453775,0.0269179,720,1394,-6.77215,-6.14843
-497,-370,-6.67627,6.43506,0,0,0,0,0,0,0,-1,727,1394,-6.67627,-6.435
-490,-370,-5.30695,4.5271,0,0,0,0,0,0,0,-1,734,1394,-5.30698,-4.52704
-483,-370,-6.02997,4.59253,0,0,0,0,0,0,0,-1,741,1394,-6.02994,-4.5925
-476,-370,-6.75293,4.65796,0,0,0,0,0,0,0,-1,748,1394,-6.7529,-4.65795
-469,-370,-10.584,1.14294,0,0,0,0,0,0,0,-1,755,1394,-10.584,-1.14293
-462,-370,-9.54462,0.387207,0,0,0,0,0,0,0,-1,762,1394,-9.5446,-0.387176
-455,-370,-8.50525,-0.36853,0,0,0,0,0,0,0,-1,769,1394,-8.50523,0.368582
-448,-370,-10.9543,2.28833,0,0,0,0,0,0,0,-1,776,1394,-10.9543,-2.28835
-441,-370,-11.8699,1.8313,0,0,0,0,0,0,0,-1,783,1394,-11.8699,-1.83127
-434,-370,-12.7855,1.37415,0,0,0,0,0,0,0,-1,790,1394,-12.7855,-1.37419
-427,-370,0,0,0,0,0,0,0,0,0,-1,797,1394,0,0
-420,-370,0,0,0,0,0,0,0,0,0,-1,804,1394,0,0
-413,-370,0,0,0,0,0,0,0,0,0,-1,811,1394,0,0
-406,-370,0,0,0,0,0,0,0,0,0,-1,818,1394,0,0
-399,-370,0,0,0,0,0,0,0,0,0,-1,825,1394,0,0
-392,-370,0,0,0,0,0,0,0,0,0,-1,832,1394,0,0
-385,-370,0,0,0,0,0,0,0,0,0,-1,839,1394,0,0
-378,-370,0,0,0,0,0,0,0,0,0,-1,846,1394,0,0
-371,-370,0,0,0,0,0,0,0,0,0,-1,853,1394,0,0
-364,-370,0,0,0,0,0,0,0,0,0,-1,860,1394,0,0
-357,-370,0,0,0,0,0,0,0,0,0,-1,867,1394,0,0
-350,-370,0,0,0,0,0,0,0,0,0,-1,874,1394,0,0
-343,-370,0,0,0,0,0,0,0,0,0,-1,881,1394,0,0
-336,-370,0,0,0,0,0,0,0,0,0,-1,888,1394,0,0
-329,-370,0,0,0,0,0,0,0,0,0,-1,895,1394,0,0
-322,-370,0,0,0,0,0,0,0,0,0,-1,902,1394,0,0
-315,-370,0,0,0,0,0,0,0,0,0,-1,909,1394,0,0
-308,-370,0,0,0,0,0,0,0,0,0,-1,916,1394,0,0
-301,-370,0,0,0,0,0,0,0,0,0,-1,923,1394,0,0
-294,-370,0,0,0,0,0,0,0,0,0,-1,930,1394,0,0
-287,-370,0,0,0,0,0,0,0,0,0,-1,937,1394,0,0
-280,-370,0,0,0,0,0,0,0,0,0,-1,944,1394,0,0
-273,-370,0,0,0,0,0,0,0,0,0,-1,951,1394,0,0
-266,-370,0,0,0,0,0,0,0,0,0,-1,958,1394,0,0
-259,-370,0,0,0,0,0,0,0,0,0,-1,965,1394,0,0
-252,-370,0,0,0,0,0,0,0,0,0,-1,972,1394,0,0
-245,-370,0,0,0,0,0,0,0,0,0,-1,979,1394,0,0
-238,-370,0,0,0,0,0,0,0,0,0,-1,986,1394,0,0
-231,-370,0,0,0,0,0,0,0,0,0,-1,993,1394,0,0
-224,-370,0,0,0,0,0,0,0,0,0,-1,1000,1394,0,0
-217,-370,0,0,0,0,0,0,0,0,0,-1,1007,1394,0,0
-210,-370,0,0,0,0,0,0,0,0,0,-1,1014,1394,0,0
-203,-370,0,0,0,0,0,0,0,0,0,-1,1021,1394,0,0
-196,-370,0,0,0,0,0,0,0,0,0,-1,1028,1394,0,0
-189,-370,0,0,0,0,0,0,0,0,0,-1,1035,1394,0,0
-182,-370,0,0,0,0,0,0,0,0,0,-1,1042,1394,0,0
-175,-370,0,0,0,0,0,0,0,0,0,-1,1049,1394,0,0
-168,-370,0,0,0,0,0,0,0,0,0,-1,1056,1394,0,0
-161,-370,0,0,0,0,0,0,0,0,0,-1,1063,1394,0,0
-154,-370,0,0,0,0,0,0,0,0,0,-1,1070,1394,0,0
-147,-370,0,0,0,0,0,0,0,0,0,-1,1077,1394,0,0
-140,-370,0,0,0,0,0,0,0,0,0,-1,1084,1394,0,0
-133,-370,0,0,0,0,0,0,0,0,0,-1,1091,1394,0,0
-126,-370,0,0,0,0,0,0,0,0,0,-1,1098,1394,0,0
-119,-370,0,0,0,0,0,0,0,0,0,-1,1105,1394,0,0
-112,-370,0,0,0,0,0,0,0,0,0,-1,1112,1394,0,0
-105,-370,0,0,0,0,0,0,0,0,0,-1,1119,1394,0,0
-98,-370,0,0,0,0,0,0,0,0,0,-1,1126,1394,0,0
-91,-370,0,0,0,0,0,0,0,0,0,-1,1133,1394,0,0
-84,-370,0,0,0,0,0,0,0,0,0,-1,1140,1394,0,0
-77,-370,0,0,0,0,0,0,0,0,0,-1,1147,1394,0,0
-70,-370,0,0,0,0,0,0,0,0,0,-1,1154,1394,0,0
-63,-370,0,0,0,0,0,0,0,0,0,-1,1161,1394,0,0
-56,-370,0,0,0,0,0,0,0,0,0,-1,1168,1394,0,0
-49,-370,0,0,0,0,0,0,0,0,0,-1,1175,1394,0,0
-42,-370,0,0,0,0,0,0,0,0,0,-1,1182,1394,0,0
-35,-370,0,0,0,0,0,0,0,0,0,-1,1189,1394,0,0
-28,-370,0,0,0,0,0,0,0,0,0,-1,1196,1394,0,0
-21,-370,0,0,0,0,0,0,0,0,0,-1,1203,1394,0,0
-14,-370,0,0,0,0,0,0,0,0,0,-1,1210,1394,0,0
-7,-370,0,0,0,0,0,0,0,0,0,-1,1217,1394,0,0
0,-370,0,0,0,0,0,0,0,0,0,-1,1224,1394,0,0
7,-370,0,0,0,0,0,0,0,0,0,-1,1231,1394,0,0
14,-370,0,0,0,0,0,0,0,0,0,-1,1238,1394,0,0
21,-370,0,0,0,0,0,0,0,0,0,-1,1245,1394,0,0
28,-370,0,0,0,0,0,0,0,0,0,-1,1252,1394,0,0
35,-370,0,0,0,0,0,0,0,0,0,-1,1259,1394,0,0
42,-370,0,0,0,0,0,0,0,0,0,-1,1266,1394,0,0
49,-370,0,0,0,0,0,0,0,0,0,-1,1273,1394,0,0
56,-370,0,0,0,0,0,0,0,0,0,-1,1280,1394,0,0
63,-370,0,0,0,0,0,0,0,0,0,-1,1287,1394,0,0
70,-370,0,0,0,0,0,0,0,0,0,-1,1294,1394,0,0
77,-370,0,0,0,0,0,0,0,0,0,-1,1301,1394,0,0
84,-370,0,0,0,0,0,0,0,0,0,-1,1308,1394,0,0
91,-370,0,0,0,0,0,0,0,0,0,-1,1315,1394,0,0
98,-370,0,0,0,0,0,0,0,0,0,-1,1322,1394,0,0
105,-370,0,0,0,0,0,0,0,0,0,-1,1329,1394,0,0
112,-370,0,0,0,0,0,0,0,0,0,-1,1336,1394,0,0
119,-370,0,0,0,0,0,0,0,0,0,-1,1343,1394,0,0
126,-370,0,0,0,0,0,0,0,0,0,-1,1350,1394,0,0
133,-370,0,0,0,0,0,0,0,0,0,-1,1357,1394,0,0
140,-370,0,0,0,0,0,0,0,0,0,-1,1364,1394,0,0
147,-370,0,0,0,0,0,0,0,0,0,-1,1371,1394,0,0
154,-370,0,0,0,0,0,0,0,0,0,-1,1378,1394,0,0
161,-370,0,0,0,0,0,0,0,0,0,-1,1385,1394,0,0
168,-370,0,0,0,0,0,0,0,0,0,-1,1392,1394,0,0
175,-370,0,0,0,0,0,0,0,0,0,-1,1399,1394,0,0
182,-370,0,0,0,0,0,0,0,0,0,-1,1406,1394,0,0
189,-370,0,0,0,0,0,0,0,0,0,-1,1413,1394,0,0
196,-370,0,0,0,0,0,0,0,0,0,-1,1420,1394,0,0
203,-370,0,0,0,0,0,0,0,0,0,-1,1427,1394,0,0
210,-370,0,0,0,0,0,0,0,0,0,-1,1434,1394,0,0
217,-370,0,0,0,0,0,0,0,0,0,-1,1441,1394,0,0
224,-370,0,0,0,0,0,0,0,0,0,-1,1448,1394,0,0
231,-370,0,0,0,0,0,0,0,0,0,-1,1455,1394,0,0
238,-370,0,0,0,0,0,0,0,0,0,-1,1462,1394,0,0
245,-370,0,0,0,0,0,0,0,0,0,-1,1469,1394,0,0
252,-370,0,0,0,0,0,0,0,0,0,-1,1476,1394,0,0
259,-370,0,0,0,0,0,0,0,0,0,-1,1483,1394,0,0
266,-370,0,0,0,0,0,0,0,0,0,-1,1490,1394,0,0
273,-370,0,0,0,0,0,0,0,0,0,-1,1497,1394,0,0
280,-370,0,0,0,0,0,0,0,0,0,-1,1504,1394,0,0
287,-370,0,0,0,0,0,0,0,0,0,-1,1511,1394,0,0
294,-370,0,0,0,0,0,0,0,0,0,-1,1518,1394,0,0
301,-370,0,0,0,0,0,0,0,0,0,-1,1525,1394,0,0
308,-370,0,0,0,0,0,0,0,0,0,-1,1532,1394,0,0
315,-370,0,0,0,0,0,0,0,0,0,-1,1539,1394,0,0
322,-370,0,0,0,0,0,0,0,0,0,-1,1546,1394,0,0
329,-370,0,0,0,0,0,0,0,0,0,-1,1553,1394,0,0
336,-370,0,0,0,0,0,0,0,0,0,-1,1560,1394,0,0
343,-370,0,0,0,0,0,0,0,0,0,-1,1567,1394,0,0
350,-370,0,0,0,0,0,0,0,0,0,-1,1574,1394,0,0
357,-370,0,0,0,0,0,0,0,0,0,-1,1581,1394,0,0
364,-370,0,0,0,0,0,0,0,0,0,-1,1588,1394,0,0
371,-370,0,0,0,0,0,0,0,0,0,-1,1595,1394,0,0
378,-370,0,0,0,0,0,0,0,0,0,-1,1602,1394,0,0
385,-370,0,0,0,0,0,0,0,0,0,-1,1609,1394,0,0
392,-370,0,0,0,0,0,0,0,0,0,-1,1616,1394,0,0
399,-370,0,0,0,0,0,0,0,0,0,-1,1623,1394,0,0
406,-370,0,0,0,0,0,0,0,0,0,-1,1630,1394,0,0
413,-370,0,0,0,0,0,0,0,0,0,-1,1637,1394,0,0
420,-370,0,0,0,0,0,0,0,0,0,-1,1644,1394,0,0
427,-370,0,0,0,0,0,0,0,0,0,-1,1651,1394,0,0
434,-370,0,0,0,0,0,0,0,0,0,-1,1658,1394,0,0
441,-370,0,0,0,0,0,0,0,0,0,-1,1665,1394,0,0
448,-370,0,0,0,0,0,0,0,0,0,-1,1672,1394,0,0
455,-370,0,0,0,0,0,0,0,0,0,-1,1679,1394,0,0
462,-370,0,0,0,0,0,0,0,0,0,-1,1686,1394,0,0
469,-370,0,0,0,0,0,0,0,0,0,-1,1693,1394,0,0
476,-370,0,0,0,0,0,0,0,0,0,-1,1700,1394,0,0
483,-370,0,0,0,0,0,0,0,0,0,-1,1707,1394,0,0
490,-370,0,0,0,0,0,0,0,0,0,-1,1714,1394,0,0
497,-370,0,0,0,0,0,0,0,0,0,-1,1721,1394,0,0
504,-370,0,0,0,0,0,0,0,0,0,-1,1728,1394,0,0
511,-370,0,0,0,0,0,0,0,0,0,-1,1735,1394,0,0
518,-370,0,0,0,0,0,0,0,0,0,-1,1742,1394,0,0
525,-370,0,0,0,0,0,0,0,0,0,-1,1749,1394,0,0
532,-370,0,0,0,0,0,0,0,0,0,-1,1756,1394,0,0
539,-370,0,0,0,0,0,0,0,0,0,-1,1763,1394,0,0
546,-370,21.7084,0.258667,0,0,0,0,0,0,0,-1,1770,1394,21.7084,-0.258678
553,-370,20.9537,1.46118,0,0,0,0,0,0,0,-1,1777,1394,20.9537,-1.46115
560,-370,20.2441,2.65051,0,0,0,0,0,0,0,-1,1784,1394,20.2442,-2.65048
567,-370,19.6786,3.53052,0,0,0,0,0,0,0,-1,1791,1394,19.6786,-3.53051
574,-370,13.203,4.47705,0,0,0,0,0,0,0,-1,1798,1394,13.203,-4.47703
581,-370,14.5411,3.60901,0,0,0,0,0,0,0,-1,1805,1394,14.5411,-3.60901
588,-370,15.6494,2.86951,0,0,0,0,0,0,0,-1,1812,1394,15.6494,-2.86946
595,-370,14.8816,2.97034,0,0,0,0,0,0,0,-1,1819,1394,14.8816,-2.97028
602,-370,13.8323,4.88599,0,0,0,0,0,0,0,-1,1826,1394,13.8323,-4.88596
609,-370,14.3762,6.26929,0,0,0,0,0,0,0,-1,1833,1394,14.3763,-6.26928
616,-370,15.6436,7.34106,0,0,0,0,0,0,0,-1,1840,1394,15.6436,-7.34104
623,-370,16.2238,7.69666,0,0,0,0,0,0,0,-1,1847,1394,16.2238,-7.6967
630,-370,16.0564,7.97876,-0.00905567,-0.0089607,0.00616616,-0.00284184,-0.0151745,0.789249,0.00931471,0.0451266,1854,1394,16.0564,-7.9788
637,-370,15.8334,8.00769,-0.00491971,-0.00596795,0.00364372,-0.00176261,-0.00912505,0.713967,0.00558926,0.0318262,1861,1394,15.8334,-8.00774
644,-370,15.9734,7.66589,-0.00245496,-0.00387181,0.00208646,-0.000959938,-0.00536683,0.621738,0.00330471,0.0117234,1868,1394,15.9734,-7.66592
651,-370,16.0012,7.40759,-0.00060786,-0.00220517,0.000980304,-0.000142061,-0.00267097,0.443577,0.00173523,0.0122006,1875,1394,16.0012,-7.40758
658,-370,16.0135,7.18335,0.000534576,-0.00128577,0.000361203,0.000603628,-0.00135482,0.188895,0.0011581,0.012311,1882,1394,16.0135,-7.18331
665,-370,15.9885,6.95679,0.000930819,-0.000911284,0.000216278,0.000955871,-0.000936336,0.115319,0.00109249,0.0126236,1889,1394,15.9885,-6.95676
672,-370,15.9828,6.71704,0.00106627,-0.000677493,0.000144749,0.0010782,-0.000689427,0.0822593,0.00102874,0.0136067,1896,1394,15.9828,-6.71701
679,-370,15.9836,6.46167,0.00125765,-0.000557185,0.000100406,0.00126319,-0.000562723,0.0551008,0.00107974,0.01376,1903,1394,15.9836,-6.46165
686,-370,15.9802,6.203,0.00156862,-0.00064173,-5.92517e-05,0.00157021,-0.000643318,-0.0267808,0.0013148,0.0138047,1910,1394,15.9802,-6.20299
693,-370,15.9789,5.9425,0.00204666,-0.000769243,-0.000376682,0.00209618,-0.000818761,-0.130708,0.00173597,0.0121586,1917,1394,15.9789,-5.94249
700,-370,16.0681,5.64771,0.00439213,-0.00125594,-0.00125991,0.00466043,-0.00152424,-0.209819,0.00372061,0.0194927,1924,1394,16.0681,-5.64766
707,-370,16.2229,5.31042,0,0,0,0,0,0,0,-1,1931,1394,16.2229,-5.31037
714,-370,16.5219,4.94604,0,0,0,0,0,0,0,-1,1938,1394,16.5218,-4.946
721,-370,17.2167,4.35889,0,0,0,0,0,0,0,-1,1945,1394,17.2167,-4.35894
728,-370,14.614,4.88318,0,0,0,0,0,0,0,-1,1952,1394,14.6141,-4.88324
735,-370,15.9586,5.35278,0,0,0,0,0,0,0,-1,1959,1394,15.9586,-5.35274
742,-370,12.6914,4.10376,0,0,0,0,0,0,0,-1,1966,1394,12.6914,-4.10374
749,-370,0,0,0,0,0,0,0,0,0,-1,1973,1394,0,0
756,-370,0,0,0,0,0,0,0,0,0,-1,1980,1394,0,0
763,-370,0,0,0,0,0,0,0,0,0,-1,1987,1394,0,0
770,-370,0,0,0,0,0,0,0,0,0,-1,1994,1394,0,0
777,-370,0,0,0,0,0,0,0,0,0,-1,2001,1394,0,0
784,-370,0,0,0,0,0,0,0,0,0,-1,2008,1394,0,0
791,-370,0,0,0,0,0,0,0,0,0,-1,2015,1394,0,0
798,-370,0,0,0,0,0,0,0,0,0,-1,2022,1394,0,0
805,-370,0,0,0,0,0,0,0,0,0,-1,2029,1394,0,0
812,-370,0,0,0,0,0,0,0,0,0,-1,2036,1394,0,0
-700,-377,0,0,0,0,0,0,0,0,0,-1,524,1401,0,0
-693,-377,0,0,0,0,0,0,0,0,0,-1,531,1401,0,0
-686,-377,0,0,0,0,0,0,0,0,0,-1,538,1401,0,0
-679,-377,0,0,0,0,0,0,0,0,0,-1,545,1401,0,0
-672,-377,0,0,0,0,0,0,0,0,0,-1,552,1401,0,0
-665,-377,0,0,0,0,0,0,0,0,0,-1,559,1401,0,0
-658,-377,0,0,0,0,0,0,0,0,0,-1,566,1401,0,0
-651,-377,0,0,0,0,0,0,0,0,0,-1,573,1401,0,0
-644,-377,0,0,0,0,0,0,0,0,0,-1,580,1401,0,0
-637,-377,0,0,0,0,0,0,0,0,0,-1,587,1401,0,0
-630,-377,0,0,0,0,0,0,0,0,0,-1,594,1401,0,0
-623,-377,0,0,0,0,0,0,0,0,0,-1,601,1401,0,0
-616,-377,-9.43915,-2.4906,0,0,0,0,0,0,0,-1,608,1401,-9.43915,2.49062
-609,-377,-7.2821,-1.35278,0,0,0,0,0,0,0,-1,615,1401,-7.28208,1.35279
-602,-377,-5.72253,0.430298,0,0,0,0,0,0,0,-1,622,1401,-5.72251,-0.430334
-595,-377,-6.73059,1.52393,0,0,0,0,0,0,0,-1,629,1401,-6.73059,-1.52392
-588,-377,-4.87274,1.41235,0,0,0,0,0,0,0,-1,636,1401,-4.87272,-1.41239
-581,-377,-6.1076,2.90759,0,0,0,0,0,0,0,-1,643,1401,-6.10763,-2.90762
-574,-377,-6.25989,3.30127,-0.00583202,0.00342313,-0.000675412,0.00347216,-0.00588105,-1.49833,0.00545945,0.0455315,650,1401,-6.25988,-3.30128
-567,-377,-6.4043,3.61438,-0.00416295,0.000679095,-0.0013997,0.00105459,-0.00453844,-1.3087,0.00343161,0.0304917,657,1401,-6.40431,-3.61437
-560,-377,-6.62354,3.87964,-0.00282511,-0.000631236,-0.00166981,0.000269713,-0.00372606,-1.07601,0.00257865,0.0235763,664,1401,-6.62356,-3.87968
-553,-377,-6.58276,4.13342,-0.00178164,-0.00127336,-0.00178699,0.000277472,-0.00333247,-0.856033,0.00231968,0.0126652,671,1401,-6.58277,-4.1334
-546,-377,-6.61102,4.48438,-0.00066784,-0.00185307,-0.00170981,0.000549146,-0.00307006,-0.618578,0.00225218,0.0165219,678,1401,-6.61105,-4.48437
-539,-377,-6.58881,4.72339,0.000189151,-0.00169877,-0.00131703,0.000865573,-0.00237519,-0.474464,0.00193754,0.021927,685,1401,-6.5888,-4.72344
-532,-377,-6.60541,4.96606,0.00108165,-0.00130244,-0.000850079,0.00135371,-0.0015745,-0.309741,0.0016922,0.0208676,692,1401,-6.6054,-4.9661
-525,-377,-6.57489,5.29382,0.00207794,-0.00115345,-0.00045917,0.00214191,-0.00121743,-0.138447,0.00196385,0.0185726,699,1401,-6.5749,-5.29378
-518,-377,-6.58673,5.56592,0.00303993,-0.00117574,-8.40984e-06,0.00303995,-0.00117576,-0.00199489,0.00251201,0.0119738,706,1401,-6.58671,-5.56593
-511,-377,-6.58862,5.84229,0.00402629,-0.00159806,0.000353724,0.00404845,-0.00162022,0.0625628,0.00337141,0.0111739,713,1401,-6.58862,-5.84224
-504,-377,-6.5932,6.14136,0.00509842,-0.00251524,0.000281207,0.00510879,-0.00252561,0.0368675,0.00449104,0.0119378,720,1401,-6.59321,-6.14135
-497,-377,-6.35211,6.43433,0.00591771,-0.00437664,-0.00103712,0.00602116,-0.00448009,-0.0994156,0.00608462,0.0277778,727,1401,-6.3521,-6.43432
-490,-377,-6.01984,6.823,0,0,0,0,0,0,0,-1,734,1401,-6.01982,-6.82299
-483,-377,-5.6524,5.07324,0,0,0,0,0,0,0,-1,741,1401,-5.6524,-5.07325
-476,-377,-6.11682,5.10535,0,0,0,0,0,0,0,-1,748,1401,-6.11681,-5.10537
-469,-377,-10.3211,1.9281,0,0,0,0,0,0,0,-1,755,1401,-10.3211,-1.92808
-462,-377,-9.2204,1.0022,0,0,0,0,0,0,0,-1,762,1401,-9.22039,-1.00218
-455,-377,-8.11969,0.0762939,0,0,0,0,0,0,0,-1,769,1401,-8.11968,-0.0762759
-448,-377,-9.05334,0.877319,0,0,0,0,0,0,0,-1,776,1401,-9.05332,-0.877324
-441,-377,-11.212,0.763428,0,0,0,0,0,0,0,-1,783,1401,-11.212,-0.763415
-434,-377,-11.0984,0.996216,0,0,0,0,0,0,0,-1,790,1401,-11.0984,-0.996265
-427,-377,-11.1733,1.25732,0,0,0,0,0,0,0,-1,797,1401,-11.1733,-1.25732
-420,-377,0,0,0,0,0,0,0,0,0,-1,804,1401,0,0
-413,-377,0,0,0,0,0,0,0,0,0,-1,811,1401,0,0
-406,-377,0,0,0,0,0,0,0,0,0,-1,818,1401,0,0
-399,-377,0,0,0,0,0,0,0,0,0,-1,825,1401,0,0
-392,-377,0,0,0,0,0,0,0,0,0,-1,832,1401,0,0
-385,-377,0,0,0,0,0,0,0,0,0,-1,839,1401,0,0
-378,-377,0,0,0,0,0,0,0,0,0,-1,846,1401,0,0
-371,-377,0,0,0,0,0,0,0,0,0,-1,853,1401,0,0
-364,-377,0,0,0,0,0,0,0,0,0,-1,860,1401,0,0
-357,-377,0,0,0,0,0,0,0,0,0,-1,867,1401,0,0
-350,-377,0,0,0,0,0,0,0,0,0,-1,874,1401,0,0
-343,-377,0,0,0,0,0,0,0,0,0,-1,881,1401,0,0
-336,-377,0,0,0,0,0,0,0,0,0,-1,888,1401,0,0
-329,-377,0,0,0,0,0,0,0,0,0,-1,895,1401,0,0
-322,-377,0,0,0,0,0,0,0,0,0,-1,902,1401,0,0
-315,-377,0,0,0,0,0,0,0,0,0,-1,909,1401,0,0
-308,-377,0,0,0,0,0,0,0,0,0,-1,916,1401,0,0
-301,-377,0,0,0,0,0,0,0,0,0,-1,923,1401,0,0
-294,-377,0,0,0,0,0,0,0,0,0,-1,930,1401,0,0
-287,-377,0,0,0,0,0,0,0,0,0,-1,937,1401,0,0
-280,-377,0,0,0,0,0,0,0,0,0,-1,944,1401,0,0
-273,-377,0,0,0,0,0,0,0,0,0,-1,951,1401,0,0
-266,-377,0,0,0,0,0,0,0,0,0,-1,958,1401,0,0
-259,-377,0,0,0,0,0,0,0,0,0,-1,965,1401,0,0
-252,-377,0,0,0,0,0,0,0,0,0,-1,972,1401,0,0
-245,-377,0,0,0,0,0,0,0,0,0,-1,979,1401,0,0
-238,-377,0,0,0,0,0,0,0,0,0,-1,986,1401,0,0
-231,-377,0,0,0,0,0,0,0,0,0,-1,993,1401,0,0
-224,-377,0,0,0,0,0,0,0,0,0,-1,1000,1401,0,0
-217,-377,0,0,0,0,0,0,0,0,0,-1,1007,1401,0,0
-210,-377,0,0,0,0,0,0,0,0,0,-1,1014,1401,0,0
-203,-377,0,0,0,0,0,0,0,0,0,-1,1021,1401,0,0
-196,-377,0,0,0,0,0,0,0,0,0,-1,1028,1401,0,0
-189,-377,0,0,0,0,0,0,0,0,0,-1,1035,1401,0,0
-182,-377,0,0,0,0,0,0,0,0,0,-1,1042,1401,0,0
-175,-377,0,0,0,0,0,0,0,0,0,-1,1049,1401,0,0
-168,-377,0,0,0,0,0,0,0,0,0,-1,1056,1401,0,0
-161,-377,0,0,0,0,0,0,0,0,0,-1,1063,1401,0,0
-154,-377,0,0,0,0,0,0,0,0,0,-1,1070,1401,0,0
-147,-377,0,0,0,0,0,0,0,0,0,-1,1077,1401,0,0
-140,-377,0,0,0,0,0,0,0,0,0,-1,1084,1401,0,0
-133,-377,0,0,0,0,0,0,0,0,0,-1,1091,1401,0,0
-126,-377,0,0,0,0,0,0,0,0,0,-1,1098,1401,0,0
-119,-377,0,0,0,0,0,0,0,0,0,-1,1105,1401,0,0
-112,-377,0,0,0,0,0,0,0,0,0,-1,1112,1401,0,0
-105,-377,0,0,0,0,0,0,0,0,0,-1,1119,1401,0,0
-98,-377,0,0,0,0,0,0,0,0,0,-1,1126,1401,0,0
-91,-377,0,0,0,0,0,0,0,0,0,-1,1133,1401,0,0
-84,-377,0,0,0,0,0,0,0,0,0,-1,1140,1401,0,0
-77,-377,0,0,0,0,0,0,0,0,0,-1,1147,1401,0,0
-70,-377,0,0,0,0,0,0,0,0,0,-1,1154,1401,0,0
-63,-377,0,0,0,0,0,0,0,0,0,-1,1161,1401,0,0
-56,-377,0,0,0,0,0,0,0,0,0,-1,1168,1401,0,0
-49,-377,0,0,0,0,0,0,0,0,0,-1,1175,1401,0,0
-42,-377,0,0,0,0,0,0,0,0,0,-1,1182,1401,0,0
-35,-377,0,0,0,0,0,0,0,0,0,-1,1189,1401,0,0
-28,-377,0,0,0,0,0,0,0,0,0,-1,1196,1401,0,0
-21,-377,0,0,0,0,0,0,0,0,0,-1,1203,1401,0,0
-14,-377,0,0,0,0,0,0,0,0,0,-1,1210,1401,0,0
-7,-377,0,0,0,0,0,0,0,0,0,-1,1217,1401,0,0
0,-377,0,0,0,0,0,0,0,0,0,-1,1224,1401,0,0
7,-377,0,0,0,0,0,0,0,0,0,-1,1231,1401,0,0
14,-377,0,0,0,0,0,0,0,0,0,-1,1238,1401,0,0
21,-377,0,0,0,0,0,0,0,0,0,-1,1245,1401,0,0
28,-377,0,0,0,0,0,0,0,0,0,-1,1252,1401,0,0
35,-377,0,0,0,0,0,0,0,0,0,-1,1259,1401,0,0
42,-377,0,0,0,0,0,0,0,0,0,-1,1266,1401,0,0
49,-377,0,0,0,0,0,0,0,0,0,-1,1273,1401,0,0
56,-377,0,0,0,0,0,0,0,0,0,-1,1280,1401,0,0
63,-377,0,0,0,0,0,0,0,0,0,-1,1287,1401,0,0
70,-377,0,0,0,0,0,0,0,0,0,-1,1294,1401,0,0
77,-377,0,0,0,0,0,0,0,0,0,-1,1301,1401,0,0
84,-377,0,0,0,0,0,0,0,0,0,-1,1308,1401,0,0
91,-377,0,0,0,0,0,0,0,0,0,-1,1315,1401,0,0
98,-377,0,0,0,0,0,0,0,0,0,-1,1322,1401,0,0
105,-377,0,0,0,0,0,0,0,0,0,-1,1329,1401,0,0
112,-377,0,0,0,0,0,0,0,0,0,-1,1336,1401,0,0
119,-377,0,0,0,0,0,0,0,0,0,-1,1343,1401,0,0
126,-377,0,0,0,0,0,0,0,0,0,-1,1350,1401,0,0
133,-377,0,0,0,0,0,0,0,0,0,-1,1357,1401,0,0
140,-377,0,0,0,0,0,0,0,0,0,-1,1364,1401,0,0
147,-377,0,0,0,0,0,0,0,0,0,-1,1371,1401,0,0
154,-377,0,0,0,0,0,0,0,0,0,-1,1378,1401,0,0
161,-377,0,0,0,0,0,0,0,0,0,-1,1385,1401,0,0
168,-377,0,0,0,0,0,0,0,0,0,-1,1392,1401,0,0
175,-377,0,0,0,0,0,0,0,0,0,-1,1399,1401,0,0
182,-377,0,0,0,0,0,0,0,0,0,-1,1406,1401,0,0
189,-377,0,0,0,0,0,0,0,0,0,-1,1413,1401,0,0
196,-377,0,0,0,0,0,0,0,0,0,-1,1420,1401,0,0
203,-377,0,0,0,0,0,0,0,0,0,-1,1427,1401,0,0
210,-377,0,0,0,0,0,0,0,0,0,-1,1434,1401,0,0
217,-377,0,0,0,0,0,0,0,0,0,-1,1441,1401,0,0
224,-377,0,0,0,0,0,0,0,0,0,-1,1448,1401,0,0
231,-377,0,0,0,0,0,0,0,0,0,-1,1455,1401,0,0
238,-377,0,0,0,0,0,0,0,0,0,-1,1462,1401,0,0
245,-377,0,0,0,0,0,0,0,0,0,-1,1469,1401,0,0
252,-377,0,0,0,0,0,0,0,0,0,-1,1476,1401,0,0
259,-377,0,0,0,0,0,0,0,0,0,-1,1483,1401,0,0
266,-377,0,0,0,0,0,0,0,0,0,-1,1490,1401,0,0
273,-377,0,0,0,0,0,0,0,0,0,-1,1497,1401,0,0
280,-377,0,0,0,0,0,0,0,0,0,-1,1504,1401,0,0
287,-377,0,0,0,0,0,0,0,0,0,-1,1511,1401,0,0
294,-377,0,0,0,0,0,0,0,0,0,-1,1518,1401,0,0
301,-377,0,0,0,0,0,0,0,0,0,-1,1525,1401,0,0
308,-377,0,0,0,0,0,0,0,0,0,-1,1532,1401,0,0
315,-377,0,0,0,0,0,0,0,0,0,-1,1539,1401,0,0
322,-377,0,0,0,0,0,0,0,0,0,-1,1546,1401,0,0
329,-377,0,0,0,0,0,0,0,0,0,-1,1553,1401,0,0
336,-377,0,0,0,0,0,0,0,0,0,-1,1560,1401,0,0
343,-377,0,0,0,0,0,0,0,0,0,-1,1567,1401,0,0
350,-377,0,0,0,0,0,0,0,0,0,-1,1574,1401,0,0
357,-377,0,0,0,0,0,0,0,0,0,-1,1581,1401,0,0
364,-377,0,0,0,0,0,0,0,0,0,-1,1588,1401,0,0
371,-377,0,0,0,0,0,0,0,0,0,-1,1595,1401,0,0
378,-377,0,0,0,0,0,0,0,0,0,-1,1602,1401,0,0
385,-377,0,0,0,0,0,0,0,0,0,-1,1609,1401,0,0
392,-377,0,0,0,0,0,0,0,0,0,-1,1616,1401,0,0
399,-377,0,0,0,0,0,0,0,0,0,-1,1623,1401,0,0
406,-377,0,0,0,0,0,0,0,0,0,-1,1630,1401,0,0
413,-377,0,0,0,0,0,0,0,0,0,-1,1637,1401,0,0
420,-377,0,0,0,0,0,0,0,0,0,-1,1644,1401,0,0
427,-377,0,0,0,0,0,0,0,0,0,-1,1651,1401,0,0
434,-377,0,0,0,0,0,0,0,0,0,-1,1658,1401,0,0
441,-377,0,0,0,0,0,0,0,0,0,-1,1665,1401,0,0
448,-377,0,0,0,0,0,0,0,0,0,-1,1672,1401,0,0
455,-377,0,0,0,0,0,0,0,0,0,-1,1679,1401,0,0
462,-377,0,0,0,0,0,0,0,0,0,-1,1686,1401,0,0
469,-377,0,0,0,0,0,0,0,0,0,-1,1693,1401,0,0
476,-377,0,0,0,0,0,0,0,0,0,-1,1700,1401,0,0
483,-377,0,0,0,0,0,0,0,0,0,-1,1707,1401,0,0
490,-377,0,0,0,0,0,0,0,0,0,-1,1714,1401,0,0
497,-377,0,0,0,0,0,0,0,0,0,-1,1721,1401,0,0
504,-377,0,0,0,0,0,0,0,0,0,-1,1728,1401,0,0
511,-377,0,0,0,0,0,0,0,0,0,-1,1735,1401,0,0
518,-377,0,0,0,0,0,0,0,0,0,-1,1742,1401,0,0
525,-377,0,0,0,0,0,0,0,0,0,-1,1749,1401,0,0
532,-377,0,0,0,0,0,0,0,0,0,-1,1756,1401,0,0
539,-377,0,0,0,0,0,0,0,0,0,-1,1763,1401,0,0
546,-377,22.3663,0.877319,0,0,0,0,0,0,0,-1,1770,1401,22.3663,-0.877268
553,-377,21.2521,1.89001,0,0,0,0,0,0,0,-1,1777,1401,21.252,-1.89003
560,-377,20.1377,2.90283,0,0,0,0,0,0,0,-1,1784,1401,20.1378,-2.90279
567,-377,15.1582,2.81689,0,0,0,0,0,0,0,-1,1791,1401,15.1583,-2.81688
574,-377,12.252,3.49695,0,0,0,0,0,0,0,-1,1798,1401,12.2519,-3.49692
581,-377,13.7461,2.83679,0,0,0,0,0,0,0,-1,1805,1401,13.7461,-2.8368
588,-377,15.2402,2.17664,0,0,0,0,0,0,0,-1,1812,1401,15.2402,-2.17669
595,-377,13.0044,2.7074,0,0,0,0,0,0,0,-1,1819,1401,13.0044,-2.70745
602,-377,13.0537,3.23193,0,0,0,0,0,0,0,-1,1826,1401,13.0537,-3.23191
609,-377,15.0223,4.76135,0,0,0,0,0,0,0,-1,1833,1401,15.0224,-4.76129
616,-377,14.1842,5.78992,0,0,0,0,0,0,0,-1,1840,1401,14.1842,-5.78987
623,-377,15.8248,8.76721,0,0,0,0,0,0,0,-1,1847,1401,15.8248,-8.76725
630,-377,15.6945,8.30444,-0.00919841,-0.007875,0.00610711,-0.00239385,-0.0146796,0.839363,0.00909406,0.0471566,1854,1401,15.6945,-8.30449
637,-377,15.6929,7.94678,-0.00509425,-0.00520967,0.00364486,-0.00150664,-0.00879728,0.777482,0.00543273,0.0169349,1861,1401,15.6929,-7.9468
644,-377,15.7244,7.68005,-0.00253574,-0.00333466,0.00209725,-0.000800243,-0.00507016,0.691292,0.00314745,0.0107861,1868,1401,15.7243,-7.68
651,-377,15.7386,7.42529,-0.000557478,-0.00186201,0.000944816,-6.1646e-05,-0.00235784,0.483284,0.00155175,0.0120327,1875,1401,15.7386,-7.42532
658,-377,15.7534,7.19556,0.000658031,-0.00103724,0.000309398,0.000712733,-0.00109194,0.174993,0.00104957,0.0137247,1882,1401,15.7534,-7.19557
665,-377,15.7522,6.93958,0.00104382,-0.000794032,0.000218973,0.00106955,-0.000819762,0.116965,0.00109397,0.0159376,1889,1401,15.7522,-6.93962
672,-377,15.759,6.69458,0.00115258,-0.000704895,0.000220991,0.00117851,-0.000730825,0.116801,0.00111241,0.0162233,1896,1401,15.759,-6.69458
679,-377,15.7188,6.46082,0.00128408,-0.000774971,0.000287605,0.0013235,-0.000814389,0.136206,0.00124592,0.0168405,1903,1401,15.7188,-6.46076
686,-377,15.7083,6.20349,0.0014207,-0.00113943,0.000359812,0.0014703,-0.00118903,0.13701,0.00153823,0.0144482,1910,1401,15.7083,-6.20355
693,-377,15.7668,5.95837,0.00164682,-0.00173366,0.000415906,0.00169724,-0.00178408,0.120635,0.00201014,0.0124403,1917,1401,15.7669,-5.95836
700,-377,15.7803,5.73083,0.00361465,-0.00284627,-1.14931e-05,0.00361467,-0.00284629,-0.00177886,0.00373902,0.0264222,1924,1401,15.7802,-5.73089
707,-377,15.7628,5.5791,0,0,0,0,0,0,0,-1,1931,1401,15.7628,-5.57908
714,-377,16.3973,5.05176,0,0,0,0,0,0,0,-1,1938,1401,16.3974,-5.05175
721,-377,17.0398,4.47253,0,0,0,0,0,0,0,-1,1945,1401,17.0398,-4.47248
728,-377,14.5396,2.79724,0,0,0,0,0,0,0,-1,1952,1401,14.5396,-2.7972
735,-377,16.2814,5.49353,0,0,0,0,0,0,0,-1,1959,1401,16.2814,-5.49358
742,-377,0,0,0,0,0,0,0,0,0,-1,1966,1401,0,0
749,-377,0,0,0,0,0,0,0,0,0,-1,1973,1401,0,0
756,-377,0,0,0,0,0,0,0,0,0,-1,1980,1401,0,0
763,-377,0,0,0,0,0,0,0,0,0,-1,1987,1401,0,0
770,-377,0,0,0,0,0,0,0,0,0,-1,1994,1401,0,0
777,-377,0,0,0,0,0,0,0,0,0,-1,2001,1401,0,0
784,-377,0,0,0,0,0,0,0,0,0,-1,2008,1401,0,0
791,-377,0,0,0,0,0,0,0,0,0,-1,2015,1401,0,0
798,-377,0,0,0,0,0,0,0,0,0,-1,2022,1401,0,0
805,-377,0,0,0,0,0,0,0,0,0,-1,2029,1401,0,0
812,-377,0,0,0,0,0,0,0,0,0,-1,2036,1401,0,0
-700,-384,0,0,0,0,0,0,0,0,0,-1,524,1408,0,0
-693,-384,0,0,0,0,0,0,0,0,0,-1,531,1408,0,0
-686,-384,0,0,0,0,0,0,0,0,0,-1,538,1408,0,0
-679,-384,0,0,0,0,0,0,0,0,0,-1,545,1408,0,0
-672,-384,0,0,0,0,0,0,0,0,0,-1,552,1408,0,0
-665,-384,0,0,0,0,0,0,0,0,0,-1,559,1408,0,0
-658,-384,0,0,0,0,0,0,0,0,0,-1,566,1408,0,0
-651,-384,0,0,0,0,0,0,0,0,0,-1,573,1408,0,0
-644,-384,0,0,0,0,0,0,0,0,0,-1,580,1408,0,0
-637,-384,0,0,0,0,0,0,0,0,0,-1,587,1408,0,0
-630,-384,0,0,0,0,0,0,0,0,0,-1,594,1408,0,0
-623,-384,0,0,0,0,0,0,0,0,0,-1,601,1408,0,0
-616,-384,-10.019,-3.36646,0,0,0,0,0,0,0,-1,608,1408,-10.019,3.36648
-609,-384,-7.72357,-2.3418,0,0,0,0,0,0,0,-1,615,1408,-7.72358,2.34182
-602,-384,-5.59833,-1.04639,0,0,0,0,0,0,0,-1,622,1408,-5.59835,1.04638
-595,-384,-5.45123,0.327026,0,0,0,0,0,0,0,-1,629,1408,-5.45121,-0.327055
-588,-384,-5.42987,1.25208,0,0,0,0,0,0,0,-1,636,1408,-5.42988,-1.25212
-581,-384,-5.59631,2.37524,0,0,0,0,0,0,0,-1,643,1408,-5.59631,-2.37523
-574,-384,-5.97845,3.33362,0,0,0,0,0,0,0,-1,650,1408,-5.97847,-3.33365
-567,-384,-6.12195,3.50513,-0.0029244,-0.000942652,-0.00222781,0.000504705,-0.00437176,-0.994648,0.00309648,0.0411326,657,1408,-6.12195,-3.5051
-560,-384,-6.19067,3.83215,-0.00211898,-0.00176719,-0.00242129,0.000484587,-0.00437075,-0.821657,0.00308806,0.0308134,664,1408,-6.19065,-3.83221
-553,-384,-6.27789,4.13904,-0.00141647,-0.0020155,-0.0024105,0.000713055,-0.00414502,-0.723588,0.00302914,0.0198768,671,1408,-6.27788,-4.13906
-546,-384,-6.30591,4.48792,-0.000564605,-0.00222849,-0.00218419,0.000940722,-0.00373382,-0.603435,0.00285492,0.0140713,678,1408,-6.30588,-4.48786
-539,-384,-6.36176,4.74011,0.000161636,-0.00184982,-0.00164272,0.00108205,-0.00277024,-0.510715,0.0022942,0.0163102,685,1408,-6.36175,-4.74015
-532,-384,-6.32111,4.97974,0.00098634,-0.00130212,-0.00102196,0.00137628,-0.00169206,-0.364506,0.00177463,0.0224122,692,1408,-6.32112,-4.97973
-525,-384,-6.29523,5.3219,0.00198054,-0.00104944,-0.000509013,0.00206376,-0.00113267,-0.162067,0.00187137,0.0207362,699,1408,-6.29525,-5.32194
-518,-384,-6.32581,5.6001,0.0030191,-0.00104246,3.67947e-05,0.00301943,-0.0010428,0.00905825,0.00243612,0.0120341,706,1408,-6.3258,-5.60007
-511,-384,-6.33734,5.88025,0.00406766,-0.00141989,0.000450238,0.00410436,-0.00145659,0.0813223,0.00332971,0.0102212,713,1408,-6.33734,-5.88028
-504,-384,-6.31598,6.17737,0.00516864,-0.0022981,0.000383727,0.00518831,-0.00231776,0.0512117,0.00443801,0.0114504,720,1408,-6.31598,-6.17737
-497,-384,-6.27423,6.47717,0.00606958,-0.00415907,-0.000957373,0.00615841,-0.00424791,-0.0925264,0.00604175,0.0175966,727,1408,-6.2742,-6.47716
-490,-384,-6.13763,6.75891,0.00626384,-0.00607787,-0.00401038,0.00745251,-0.00726654,-0.288149,0.00849827,0.0455942,734,1408,-6.13765,-6.75897
-483,-384,-5.91162,7.09326,0,0,0,0,0,0,0,-1,741,1408,-5.91162,-7.09328
-476,-384,-6.02734,5.67761,0,0,0,0,0,0,0,-1,748,1408,-6.02736,-5.6776
-469,-384,-10.206,2.63721,0,0,0,0,0,0,0,-1,755,1408,-10.206,-2.6372
-462,-384,-9.04291,1.43542,0,0,0,0,0,0,0,-1,762,1408,-9.04293,-1.43545
-455,-384,-7.87988,0.233765,0,0,0,0,0,0,0,-1,769,1408,-7.87986,-0.233709
-448,-384,-9.35529,7.19226,0,0,0,0,0,0,0,-1,776,1408,-9.35531,-7.19226
-441,-384,-10.4697,1.79004,0,0,0,0,0,0,0,-1,783,1408,-10.4697,-1.79003
-434,-384,-10.6449,0.552246,0,0,0,0,0,0,0,-1,790,1408,-10.6449,-0.552216
-427,-384,-10.968,1.10583,0,0,0,0,0,0,0,-1,797,1408,-10.968,-1.10588
-420,-384,-12.5607,4.54858,0,0,0,0,0,0,0,-1,804,1408,-12.5607,-4.54859
-413,-384,0,0,0,0,0,0,0,0,0,-1,811,1408,0,0
-406,-384,0,0,0,0,0,0,0,0,0,-1,818,1408,0,0
-399,-384,0,0,0,0,0,0,0,0,0,-1,825,1408,0,0
-392,-384,0,0,0,0,0,0,0,0,0,-1,832,1408,0,0
-385,-384,0,0,0,0,0,0,0,0,0,-1,839,1408,0,0
-378,-384,0,0,0,0,0,0,0,0,0,-1,846,1408,0,0
-371,-384,0,0,0,0,0,0,0,0,0,-1,853,1408,0,0
-364,-384,0,0,0,0,0,0,0,0,0,-1,860,1408,0,0
-357,-384,0,0,0,0,0,0,0,0,0,-1,867,1408,0,0
-350,-384,0,0,0,0,0,0,0,0,0,-1,874,1408,0,0
-343,-384,0,0,0,0,0,0,0,0,0,-1,881,1408,0,0
-336,-384,0,0,0,0,0,0,0,0,0,-1,888,1408,0,0
-329,-384,0,0,0,0,0,0,0,0,0,-1,895,1408,0,0
-322,-384,0,0,0,0,0,0,0,0,0,-1,902,1408,0,0
-315,-384,0,0,0,0,0,0,0,0,0,-1,909,1408,0,0
-308,-384,0,0,0,0,0,0,0,0,0,-1,916,1408,0,0
-301,-384,0,0,0,0,0,0,0,0,0,-1,923,1408,0,0
-294,-384,0,0,0,0,0,0,0,0,0,-1,930,1408,0,0
-287,-384,0,0,0,0,0,0,0,0,0,-1,937,1408,0,0
-280,-384,0,0,0,0,0,0,0,0,0,-1,944,1408,0,0
-273,-384,0,0,0,0,0,0,0,0,0,-1,951,1408,0,0
-266,-384,0,0,0,0,0,0,0,0,0,-1,958,1408,0,0
-259,-384,0,0,0,0,0,0,0,0,0,-1,965,1408,0,0
-252,-384,0,0,0,0,0,0,0,0,0,-1,972,1408,0,0
-245,-384,0,0,0,0,0,0,0,0,0,-1,979,1408,0,0
-238,-384,0,0,0,0,0,0,0,0,0,-1,986,1408,0,0
-231,-384,0,0,0,0,0,0,0,0,0,-1,993,1408,0,0
-224,-384,0,0,0,0,0,0,0,0,0,-1,1000,1408,0,0
-217,-384,0,0,0,0,0,0,0,0,0,-1,1007,1408,0,0
-210,-384,0,0,0,0,0,0,0,0,0,-1,1014,1408,0,0
-203,-384,0,0,0,0,0,0,0,0,0,-1,1021,1408,0,0
-196,-384,0,0,0,0,0,0,0,0,0,-1,1028,1408,0,0
-189,-384,0,0,0,0,0,0,0,0,0,-1,1035,1408,0,0
-182,-384,0,0,0,0,0,0,0,0,0,-1,1042,1408,0,0
-175,-384,0,0,0,0,0,0,0,0,0,-1,1049,1408,0,0
-168,-384,0,0,0,0,0,0,0,0,0,-1,1056,1408,0,0
-161,-384,0,0,0,0,0,0,0,0,0,-1,1063,1408,0,0
-154,-384,0,0,0,0,0,0,0,0,0,-1,1070,1408,0,0
-147,-384,0,0,0,0,0,0,0,0,0,-1,1077,1408,0,0
-140,-384,0,0,0,0,0,0,0,0,0,-1,1084,1408,0,0
-133,-384,0,0,0,0,0,0,0,0,0,-1,1091,1408,0,0
-126,-384,0,0,0,0,0,0,0,0,0,-1,1098,1408,0,0
-119,-384,0,0,0,0,0,0,0,0,0,-1,1105,1408,0,0
-112,-384,0,0,0,0,0,0,0,0,0,-1,1112,1408,0,0
-105,-384,0,0,0,0,0,0,0,0,0,-1,1119,1408,0,0
-98,-384,0,0,0,0,0,0,0,0,0,-1,1126,1408,0,0
-91,-384,0,0,0,0,0,0,0,0,0,-1,1133,1408,0,0
-84,-384,0,0,0,0,0,0,0,0,0,-1,1140,1408,0,0
-77,-384,0,0,0,0,0,0,0,0,0,-1,1147,1408,0,0
-70,-384,0,0,0,0,0,0,0,0,0,-1,1154,1408,0,0
-63,-384,0,0,0,0,0,0,0,0,0,-1,1161,1408,0,0
-56,-384,0,0,0,0,0,0,0,0,0,-1,1168,1408,0,0
-49,-384,0,0,0,0,0,0,0,0,0,-1,1175,1408,0,0
-42,-384,0,0,0,0,0,0,0,0,0,-1,1182,1408,0,0
-35,-384,0,0,0,0,0,0,0,0,0,-1,1189,1408,0,0
-28,-384,0,0,0,0,0,0,0,0,0,-1,1196,1408,0,0
-21,-384,0,0,0,0,0,0,0,0,0,-1,1203,1408,0,0
-14,-384,0,0,0,0,0,0,0,0,0,-1,1210,1408,0,0
-7,-384,0,0,0,0,0,0,0,0,0,-1,1217,1408,0,0
0,-384,0,0,0,0,0,0,0,0,0,-1,1224,1408,0,0
7,-384,0,0,0,0,0,0,0,0,0,-1,1231,1408,0,0
14,-384,0,0,0,0,0,0,0,0,0,-1,1238,1408,0,0
21,-384,0,0,0,0,0,0,0,0,0,-1,1245,1408,0,0
28,-384,0,0,0,0,0,0,0,0,0,-1,1252,1408,0,0
35,-384,0,0,0,0,0,0,0,0,0,-1,1259,1408,0,0
42,-384,0,0,0,0,0,0,0,0,0,-1,1266,1408,0,0
49,-384,0,0,0,0,0,0,0,0,0,-1,1273,1408,0,0
56,-384,0,0,0,0,0,0,0,0,0,-1,1280,1408,0,0
63,-384,0,0,0,0,0,0,0,0,0,-1,1287,1408,0,0
70,-384,0,0,0,0,0,0,0,0,0,-1,1294,1408,0,0
77,-384,0,0,0,0,0,0,0,0,0,-1,1301,1408,0,0
84,-384,0,0,0,0,0,0,0,0,0,-1,1308,1408,0,0
91,-384,0,0,0,0,0,0,0,0,0,-1,1315,1408,0,0
98,-384,0,0,0,0,0,0,0,0,0,-1,1322,1408,0,0
105,-384,0,0,0,0,0,0,0,0,0,-1,1329,1408,0,0
112,-384,0,0,0,0,0,0,0,0,0,-1,1336,1408,0,0
119,-384,0,0,0,0,0,0,0,0,0,-1,1343,1408,0,0
126,-384,0,0,0,0,0,0,0,0,0,-1,1350,1408,0,0
133,-384,0,0,0,0,0,0,0,0,0,-1,1357,1408,0,0
140,-384,0,0,0,0,0,0,0,0,0,-1,1364,1408,0,0
147,-384,0,0,0,0,0,0,0,0,0,-1,1371,1408,0,0
154,-384,0,0,0,0,0,0,0,0,0,-1,1378,1408,0,0
161,-384,0,0,0,0,0,0,0,0,0,-1,1385,1408,0,0
168,-384,0,0,0,0,0,0,0,0,0,-1,1392,1408,0,0
175,-384,0,0,0,0,0,0,0,0,0,-1,1399,1408,0,0
182,-384,0,0,0,0,0,0,0,0,0,-1,1406,1408,0,0
189,-384,0,0,0,0,0,0,0,0,0,-1,1413,1408,0,0
196,-384,0,0,0,0,0,0,0,0,0,-1,1420,1408,0,0
203,-384,0,0,0,0,0,0,0,0,0,-1,1427,1408,0,0
210,-384,0,0,0,0,0,0,0,0,0,-1,1434,1408,0,0
217,-384,0,0,0,0,0,0,0,0,0,-1,1441,1408,0,0
224,-384,0,0,0,0,0,0,0,0,0,-1,1448,1408,0,0
231,-384,0,0,0,0,0,0,0,0,0,-1,1455,1408,0,0
238,-384,0,0,0,0,0,0,0,0,0,-1,1462,1408,0,0
245,-384,0,0,0,0,0,0,0,0,0,-1,1469,1408,0,0
252,-384,0,0,0,0,0,0,0,0,0,-1,1476,1408,0,0
259,-384,0,0,0,0,0,0,0,0,0,-1,1483,1408,0,0
266,-384,0,0,0,0,0,0,0,0,0,-1,1490,1408,0,0
273,-384,0,0,0,0,0,0,0,0,0,-1,1497,1408,0,0
280,-384,0,0,0,0,0,0,0,0,0,-1,1504,1408,0,0
287,-384,0,0,0,0,0,0,0,0,0,-1,1511,1408,0,0
294,-384,0,0,0,0,0,0,0,0,0,-1,1518,1408,0,0
301,-384,0,0,0,0,0,0,0,0,0,-1,1525,1408,0,0
308,-384,0,0,0,0,0,0,0,0,0,-1,1532,1408,0,0
315,-384,0,0,0,0,0,0,0,0,0,-1,1539,1408,0,0
322,-384,0,0,0,0,0,0,0,0,0,-1,1546,1408,0,0
329,-384,0,0,0,0,0,0,0,0,0,-1,1553,1408,0,0
336,-384,0,0,0,0,0,0,0,0,0,-1,1560,1408,0,0
343,-384,0,0,0,0,0,0,0,0,0,-1,1567,1408,0,0
350,-384,0,0,0,0,0,0,0,0,0,-1,1574,1408,0,0
357,-384,0,0,0,0,0,0,0,0,0,-1,1581,1408,0,0
364,-384,0,0,0,0,0,0,0,0,0,-1,1588,1408,0,0
371,-384,0,0,0,0,0,0,0,0,0,-1,1595,1408,0,0
378,-384,0,0,0,0,0,0,0,0,0,-1,1602,1408,0,0
385,-384,0,0,0,0,0,0,0,0,0,-1,1609,1408,0,0
392,-384,0,0,0,0,0,0,0,0,0,-1,1616,1408,0,0
399,-384,0,0,0,0,0,0,0,0,0,-1,1623,1408,0,0
406,-384,0,0,0,0,0,0,0,0,0,-1,1630,1408,0,0
413,-384,0,0,0,0,0,0,0,0,0,-1,1637,1408,0,0
420,-384,0,0,0,0,0,0,0,0,0,-1,1644,1408,0,0
427,-384,0,0,0,0,0,0,0,0,0,-1,1651,1408,0,0
434,-384,0,0,0,0,0,0,0,0,0,-1,1658,1408,0,0
441,-384,0,0,0,0,0,0,0,0,0,-1,1665,1408,0,0
448,-384,0,0,0,0,0,0,0,0,0,-1,1672,1408,0,0
455,-384,0,0,0,0,0,0,0,0,0,-1,1679,1408,0,0
462,-384,0,0,0,0,0,0,0,0,0,-1,1686,1408,0,0
469,-384,0,0,0,0,0,0,0,0,0,-1,1693,1408,0,0
476,-384,0,0,0,0,0,0,0,0,0,-1,1700,1408,0,0
483,-384,0,0,0,0,0,0,0,0,0,-1,1707,1408,0,0
490,-384,0,0,0,0,0,0,0,0,0,-1,1714,1408,0,0
497,-384,0,0,0,0,0,0,0,0,0,-1,1721,1408,0,0
504,-384,0,0,0,0,0,0,0,0,0,-1,1728,1408,0,0
511,-384,0,0,0,0,0,0,0,0,0,-1,1735,1408,0,0
518,-384,0,0,0,0,0,0,0,0,0,-1,1742,1408,0,0
525,-384,0,0,0,0,0,0,0,0,0,-1,1749,1408,0,0
532,-384,0,0,0,0,0,0,0,0,0,-1,1756,1408,0,0
539,-384,23.4208,1.19556,0,0,0,0,0,0,0,-1,1763,1408,23.4207,-1.19561
546,-384,22.3715,1.52161,0,0,0,0,0,0,0,-1,1770,1408,22.3715,-1.52159
553,-384,21.0801,2.1532,0,0,0,0,0,0,0,-1,1777,1408,21.0801,-2.15317
560,-384,19.7887,2.78479,0,0,0,0,0,0,0,-1,1784,1408,19.7887,-2.78475
567,-384,19.0348,2.75549,0,0,0,0,0,0,0,-1,1791,1408,19.0348,-2.75544
574,-384,11.5477,2.34216,0,0,0,0,0,0,0,-1,1798,1408,11.5477,-2.34214
581,-384,13.024,2.0072,0,0,0,0,0,0,0,-1,1805,1408,13.024,-2.00726
588,-384,14.5002,1.67236,0,0,0,0,0,0,0,-1,1812,1408,14.5002,-1.67238
595,-384,17.2017,4.63574,0,0,0,0,0,0,0,-1,1819,1408,17.2016,-4.63576
602,-384,14.5807,4.99976,0,0,0,0,0,0,0,-1,1826,1408,14.5806,-4.99972
609,-384,14.158,5.49475,0,0,0,0,0,0,0,-1,1833,1408,14.158,-5.49474
616,-384,14.7997,7.6908,0,0,0,0,0,0,0,-1,1840,1408,14.7996,-7.69079
623,-384,15.2896,8.58435,0,0,0,0,0,0,0,-1,1847,1408,15.2896,-8.58431
630,-384,15.5027,8.17065,-0.00912779,-0.00704269,0.00586008,-0.00213314,-0.0140373,0.873431,0.00873444,0.0279706,1854,1408,15.5027,-8.17064
637,-384,15.4689,7.95581,-0.00526962,-0.00465701,0.00359219,-0.00135809,-0.00856854,0.82793,0.00531779,0.0157285,1861,1408,15.4689,-7.95582
644,-384,15.4606,7.70056,-0.00270035,-0.00294414,0.00211867,-0.000700069,-0.00494441,0.756663,0.00308947,0.0151192,1868,1408,15.4606,-7.70057
651,-384,15.4554,7.43115,-0.00064715,-0.00164156,0.00100626,-2.19611e-05,-0.00226675,0.555935,0.0015039,0.0140284,1875,1408,15.4554,-7.43112
658,-384,15.4769,7.18713,0.000593101,-0.000914004,0.000425103,0.000704739,-0.00102564,0.256814,0.00100475,0.0137707,1882,1408,15.4769,-7.18709
665,-384,15.5026,6.95313,0.000962426,-0.000781513,0.000429494,0.00106246,-0.000881549,0.228837,0.00112399,0.0147026,1889,1408,15.5025,-6.95309
672,-384,15.51,6.6936,0.00104623,-0.000818793,0.000543478,0.00119304,-0.000965609,0.263843,0.0012486,0.0140728,1896,1408,15.51,-6.69356
679,-384,15.4738,6.43213,0.00110994,-0.00106762,0.000744912,0.00134038,-0.00129806,0.300011,0.00152337,0.0151369,1903,1408,15.4738,-6.43212
686,-384,15.4523,6.18823,0.00105761,-0.00169502,0.00104848,0.00141148,-0.0020489,0.325506,0.00200912,0.0119136,1910,1408,15.4522,-6.18818
693,-384,15.5242,5.95728,0.00113812,-0.00264532,0.00133394,0.00156113,-0.00306834,0.307086,0.00271964,0.0171756,1917,1408,15.5241,-5.95723
700,-384,15.5065,6.04041,0.00224177,-0.00401091,0.00121631,0.00247004,-0.00423918,0.185517,0.0039182,0.0454762,1924,1408,15.5065,-6.04041
707,-384,15.6895,6.13892,0,0,0,0,0,0,0,-1,1931,1408,15.6894,-6.13887
714,-384,16.3687,5.16992,0,0,0,0,0,0,0,-1,1938,1408,16.3687,-5.16991
721,-384,13.8843,2.8717,0,0,0,0,0,0,0,-1,1945,1408,13.8843,-2.87171
728,-384,15.4409,6.25745,0,0,0,0,0,0,0,-1,1952,1408,15.4409,-6.2574
735,-384,16.7598,6.71289,0,0,0,0,0,0,0,-1,1959,1408,16.7598,-6.71287
742,-384,0,0,0,0,0,0,0,0,0,-1,1966,1408,0,0
749,-384,0,0,0,0,0,0,0,0,0,-1,1973,1408,0,0
756,-384,0,0,0,0,0,0,0,0,0,-1,1980,1408,0,0
763,-384,0,0,0,0,0,0,0,0,0,-1,1987,1408,0,0
770,-384,0,0,0,0,0,0,0,0,0,-1,1994,1408,0,0
777,-384,0,0,0,0,0,0,0,0,0,-1,2001,1408,0,0
784,-384,0,0,0,0,0,0,0,0,0,-1,2008,1408,0,0
791,-384,0,0,0,0,0,0,0,0,0,-1,2015,1408,0,0
798,-384,0,0,0,0,0,0,0,0,0,-1,2022,1408,0,0
805,-384,0,0,0,0,0,0,0,0,0,-1,2029,1408,0,0
812,-384,0,0,0,0,0,0,0,0,0,-1,2036,1408,0,0
-700,-391,0,0,0,0,0,0,0,0,0,-1,524,1415,0,0
-693,-391,0,0,0,0,0,0,0,0,0,-1,531,1415,0,0
-686,-391,0,0,0,0,0,0,0,0,0,-1,538,1415,0,0
-679,-391,0,0,0,0,0,0,0,0,0,-1,545,1415,0,0
-672,-391,0,0,0,0,0,0,0,0,0,-1,552,1415,0,0
-665,-391,0,0,0,0,0,0,0,0,0,-1,559,1415,0,0
-658,-391,0,0,0,0,0,0,0,0,0,-1,566,1415,0,0
-651,-391,0,0,0,0,0,0,0,0,0,-1,573,1415,0,0
-644,-391,0,0,0,0,0,0,0,0,0,-1,580,1415,0,0
-637,-391,0,0,0,0,0,0,0,0,0,-1,587,1415,0,0
-630,-391,0,0,0,0,0,0,0,0,0,-1,594,1415,0,0
-623,-391,0,0,0,0,0,0,0,0,0,-1,601,1415,0,0
-616,-391,0,0,0,0,0,0,0,0,0,-1,608,1415,0,0
-609,-391,-7.71753,-3.69763,0,0,0,0,0,0,0,-1,615,1415,-7.71751,3.69759
-602,-391,-3.36749,-2.07458,0,0,0,0,0,0,0,-1,622,1415,-3.36751,2.07453
-595,-391,-5.84406,-0.57605,0,0,0,0,0,0,0,-1,629,1415,-5.84403,0.575992
-588,-391,-5.92084,0.890869,0,0,0,0,0,0,0,-1,636,1415,-5.92085,-0.890925
-581,-391,-7.66266,2.94653,0,0,0,0,0,0,0,-1,643,1415,-7.66265,-2.94654
-574,-391,-7.04407,3.43811,0,0,0,0,0,0,0,-1,650,1415,-7.04406,-3.43814
-567,-391,-6.34766,3.91003,-0.001428,-0.00264002,-0.00339067,0.00141039,-0.00547841,-0.696967,0.00420206,0.0443326,657,1415,-6.34767,-3.91
-560,-391,-5.96753,4.16138,-0.00128512,-0.00296357,-0.00344403,0.00142046,-0.00566915,-0.66589,0.00433127,0.0366751,664,1415,-5.96753,-4.1614
-553,-391,-5.98578,4.14868,-0.00102982,-0.00278067,-0.00324244,0.0014533,-0.00526378,-0.653547,0.00408081,0.0279899,671,1415,-5.98576,-4.14873
-546,-391,-6.03387,4.45447,-0.000528425,-0.00259902,-0.00283143,0.00145104,-0.00457849,-0.610126,0.0036339,0.0118522,678,1415,-6.03387,-4.45451
-539,-391,-6.01642,4.75525,3.33629e-06,-0.00199971,-0.00212127,0.00134762,-0.003344,-0.564844,0.00278925,0.0139653,685,1415,-6.01644,-4.75529
-532,-391,-6.04419,5.02942,0.000682503,-0.00130525,-0.00136119,0.00137404,-0.00199679,-0.470059,0.00195719,0.0255575,692,1415,-6.04422,-5.02947
-525,-391,-6.05597,5.32654,0.0015787,-0.00094451,-0.000739831,0.00177963,-0.00114544,-0.265187,0.00170196,0.0226959,699,1415,-6.05595,-5.32658
-518,-391,-6.07153,5.60901,0.0025835,-0.000908951,-0.000129908,0.00258832,-0.000913776,-0.0371286,0.00209757,0.0132957,706,1415,-6.07156,-5.60904
-511,-391,-6.05554,5.88318,0.003561,-0.00124592,0.000286319,0.003578,-0.00126291,0.0592846,0.00289948,0.0124114,713,1415,-6.05554,-5.88322
-504,-391,-6.03296,6.17285,0.00454386,-0.00206133,0.0002092,0.00455048,-0.00206795,0.0316298,0.00390973,0.0112059,720,1415,-6.03297,-6.17285
-497,-391,-6.02625,6.44092,0.0053157,-0.00383603,-0.00108474,0.00544252,-0.00396284,-0.11638,0.00545254,0.0101706,727,1415,-6.02626,-6.44086
-490,-391,-5.99658,6.7666,0.00533613,-0.0056709,-0.00404445,0.00666242,-0.00699719,-0.316879,0.00788717,0.0201668,734,1415,-5.99659,-6.76656
-483,-391,-5.92438,7.15271,0,0,0,0,0,0,0,-1,741,1415,-5.92436,-7.15267
-476,-391,-6.05731,6.85303,0,0,0,0,0,0,0,-1,748,1415,-6.05728,-6.85304
-469,-391,-3.88953,5.0979,0,0,0,0,0,0,0,-1,755,1415,-3.88955,-5.09794
-462,-391,-8.67688,2.03125,0,0,0,0,0,0,0,-1,762,1415,-8.67685,-2.03121
-455,-391,-8.65576,6.46997,0,0,0,0,0,0,0,-1,769,1415,-8.65579,-6.46999
-448,-391,-8.39618,4.38403,0,0,0,0,0,0,0,-1,776,1415,-8.39617,-4.38405
-441,-391,-9.77704,2.5946,0,0,0,0,0,0,0,-1,783,1415,-9.77702,-2.5946
-434,-391,-11.5403,2.12878,0,0,0,0,0,0,0,-1,790,1415,-11.5403,-2.12881
-427,-391,-10.5311,2.50403,0,0,0,0,0,0,0,-1,797,1415,-10.5311,-2.504
-420,-391,-14.7087,1.24365,0,0,0,0,0,0,0,-1,804,1415,-14.7088,-1.24365
-413,-391,0,0,0,0,0,0,0,0,0,-1,811,1415,0,0
-406,-391,0,0,0,0,0,0,0,0,0,-1,818,1415,0,0
-399,-391,0,0,0,0,0,0,0,0,0,-1,825,1415,0,0
-392,-391,0,0,0,0,0,0,0,0,0,-1,832,1415,0,0
-385,-391,0,0,0,0,0,0,0,0,0,-1,839,1415,0,0
-378,-391,0,0,0,0,0,0,0,0,0,-1,846,1415,0,0
-371,-391,0,0,0,0,0,0,0,0,0,-1,853,1415,0,0
-364,-391,0,0,0,0,0,0,0,0,0,-1,860,1415,0,0
-357,-391,0,0,0,0,0,0,0,0,0,-1,867,1415,0,0
-350,-391,0,0,0,0,0,0,0,0,0,-1,874,1415,0,0
-343,-391,0,0,0,0,0,0,0,0,0,-1,881,1415,0,0
-336,-391,0,0,0,0,0,0,0,0,0,-1,888,1415,0,0
-329,-391,0,0,0,0,0,0,0,0,0,-1,895,1415,0,0
-322,-391,0,0,0,0,0,0,0,0,0,-1,902,1415,0,0
-315,-391,0,0,0,0,0,0,0,0,0,-1,909,1415,0,0
-308,-391,0,0,0,0,0,0,0,0,0,-1,916,1415,0,0
-301,-391,0,0,0,0,0,0,0,0,0,-1,923,1415,0,0
-294,-391,0,0,0,0,0,0,0,0,0,-1,930,1415,0,0
-287,-391,0,0,0,0,0,0,0,0,0,-1,937,1415,0,0
-280,-391,0,0,0,0,0,0,0,0,0,-1,944,1415,0,0
-273,-391,0,0,0,0,0,0,0,0,0,-1,951,1415,0,0
-266,-391,0,0,0,0,0,0,0,0,0,-1,958,1415,0,0
-259,-391,0,0,0,0,0,0,0,0,0,-1,965,1415,0,0
-252,-391,0,0,0,0,0,0,0,0,0,-1,972,1415,0,0
-245,-391,0,0,0,0,0,0,0,0,0,-1,979,1415,0,0
-238,-391,0,0,0,0,0,0,0,0,0,-1,986,1415,0,0
-231,-391,0,0,0,0,0,0,0,0,0,-1,993,1415,0,0
-224,-391,0,0,0,0,0,0,0,0,0,-1,1000,1415,0,0
-217,-391,0,0,0,0,0,0,0,0,0,-1,1007,1415,0,0
-210,-391,0,0,0,0,0,0,0,0,0,-1,1014,1415,0,0
-203,-391,0,0,0,0,0,0,0,0,0,-1,1021,1415,0,0
-196,-391,0,0,0,0,0,0,0,0,0,-1,1028,1415,0,0
-189,-391,0,0,0,0,0,0,0,0,0,-1,1035,1415,0,0
-182,-391,0,0,0,0,0,0,0,0,0,-1,1042,1415,0,0
-175,-391,0,0,0,0,0,0,0,0,0,-1,1049,1415,0,0
-168,-391,0,0,0,0,0,0,0,0,0,-1,1056,1415,0,0
-161,-391,0,0,0,0,0,0,0,0,0,-1,1063,1415,0,0
-154,-391,0,0,0,0,0,0,0,0,0,-1,1070,1415,0,0
-147,-391,0,0,0,0,0,0,0,0,0,-1,1077,1415,0,0
-140,-391,0,0,0,0,0,0,0,0,0,-1,1084,1415,0,0
-133,-391,0,0,0,0,0,0,0,0,0,-1,1091,1415,0,0
-126,-391,0,0,0,0,0,0,0,0,0,-1,1098,1415,0,0
-119,-391,0,0,0,0,0,0,0,0,0,-1,1105,1415,0,0
-112,-391,0,0,0,0,0,0,0,0,0,-1,1112,1415,0,0
-105,-391,0,0,0,0,0,0,0,0,0,-1,1119,1415,0,0
-98,-391,0,0,0,0,0,0,0,0,0,-1,1126,1415,0,0
-91,-391,0,0,0,0,0,0,0,0,0,-1,1133,1415,0,0
-84,-391,0,0,0,0,0,0,0,0,0,-1,1140,1415,0,0
-77,-391,0,0,0,0,0,0,0,0,0,-1,1147,1415,0,0
-70,-391,0,0,0,0,0,0,0,0,0,-1,1154,1415,0,0
-63,-391,0,0,0,0,0,0,0,0,0,-1,1161,1415,0,0
-56,-391,0,0,0,0,0,0,0,0,0,-1,1168,1415,0,0
-49,-391,0,0,0,0,0,0,0,0,0,-1,1175,1415,0,0
-42,-391,0,0,0,0,0,0,0,0,0,-1,1182,1415,0,0
-35,-391,0,0,0,0,0,0,0,0,0,-1,1189,1415,0,0
-28,-391,0,0,0,0,0,0,0,0,0,-1,1196,1415,0,0
-21,-391,0,0,0,0,0,0,0,0,0,-1,1203,1415,0,0
-14,-391,0,0,0,0,0,0,0,0,0,-1,1210,1415,0,0
-7,-391,0,0,0,0,0,0,0,0,0,-1,1217,1415,0,0
0,-391,0,0,0,0,0,0,0,0,0,-1,1224,1415,0,0
7,-391,0,0,0,0,0,0,0,0,0,-1,1231,1415,0,0
14,-391,0,0,0,0,0,0,0,0,0,-1,1238,1415,0,0
21,-391,0,0,0,0,0,0,0,0,0,-1,1245,1415,0,0
28,-391,0,0,0,0,0,0,0,0,0,-1,1252,1415,0,0
35,-391,0,0,0,0,0,0,0,0,0,-1,1259,1415,0,0
42,-391,0,0,0,0,0,0,0,0,0,-1,1266,1415,0,0
49,-391,0,0,0,0,0,0,0,0,0,-1,1273,1415,0,0
56,-391,0,0,0,0,0,0,0,0,0,-1,1280,1415,0,0
63,-391,0,0,0,0,0,0,0,0,0,-1,1287,1415,0,0
70,-391,0,0,0,0,0,0,0,0,0,-1,1294,1415,0,0
77,-391,0,0,0,0,0,0,0,0,0,-1,1301,1415,0,0
84,-391,0,0,0,0,0,0,0,0,0,-1,1308,1415,0,0
91,-391,0,0,0,0,0,0,0,0,0,-1,1315,1415,0,0
98,-391,0,0,0,0,0,0,0,0,0,-1,1322,1415,0,0
105,-391,0,0,0,0,0,0,0,0,0,-1,1329,1415,0,0
112,-391,0,0,0,0,0,0,0,0,0,-1,1336,1415,0,0
119,-391,0,0,0,0,0,0,0,0,0,-1,1343,1415,0,0
126,-391,0,0,0,0,0,0,0,0,0,-1,1350,1415,0,0
133,-391,0,0,0,0,0,0,0,0,0,-1,1357,1415,0,0
140,-391,0,0,0,0,0,0,0,0,0,-1,1364,1415,0,0
147,-391,0,0,0,0,0,0,0,0,0,-1,1371,1415,0,0
154,-391,0,0,0,0,0,0,0,0,0,-1,1378,1415,0,0
161,-391,0,0,0,0,0,0,0,0,0,-1,1385,1415,0,0
168,-391,0,0,0,0,0,0,0,0,0,-1,1392,1415,0,0
175,-391,0,0,0,0,0,0,0,0,0,-1,1399,1415,0,0
182,-391,0,0,0,0,0,0,0,0,0,-1,1406,1415,0,0
189,-391,0,0,0,0,0,0,0,0,0,-1,1413,1415,0,0
196,-391,0,0,0,0,0,0,0,0,0,-1,1420,1415,0,0
203,-391,0,0,0,0,0,0,0,0,0,-1,1427,1415,0,0
210,-391,0,0,0,0,0,0,0,0,0,-1,1434,1415,0,0
217,-391,0,0,0,0,0,0,0,0,0,-1,1441,1415,0,0
224,-391,0,0,0,0,0,0,0,0,0,-1,1448,1415,0,0
231,-391,0,0,0,0,0,0,0,0,0,-1,1455,1415,0,0
238,-391,0,0,0,0,0,0,0,0,0,-1,1462,1415,0,0
245,-391,0,0,0,0,0,0,0,0,0,-1,1469,1415,0,0
252,-391,0,0,0,0,0,0,0,0,0,-1,1476,1415,0,0
259,-391,0,0,0,0,0,0,0,0,0,-1,1483,1415,0,0
266,-391,0,0,0,0,0,0,0,0,0,-1,1490,1415,0,0
273,-391,0,0,0,0,0,0,0,0,0,-1,1497,1415,0,0
280,-391,0,0,0,0,0,0,0,0,0,-1,1504,1415,0,0
287,-391,0,0,0,0,0,0,0,0,0,-1,1511,1415,0,0
294,-391,0,0,0,0,0,0,0,0,0,-1,1518,1415,0,0
301,-391,0,0,0,0,0,0,0,0,0,-1,1525,1415,0,0
308,-391,0,0,0,0,0,0,0,0,0,-1,1532,1415,0,0
315,-391,0,0,0,0,0,0,0,0,0,-1,1539,1415,0,0
322,-391,0,0,0,0,0,0,0,0,0,-1,1546,1415,0,0
329,-391,0,0,0,0,0,0,0,0,0,-1,1553,1415,0,0
336,-391,0,0,0,0,0,0,0,0,0,-1,1560,1415,0,0
343,-391,0,0,0,0,0,0,0,0,0,-1,1567,1415,0,0
350,-391,0,0,0,0,0,0,0,0,0,-1,1574,1415,0,0
357,-391,0,0,0,0,0,0,0,0,0,-1,1581,1415,0,0
364,-391,0,0,0,0,0,0,0,0,0,-1,1588,1415,0,0
371,-391,0,0,0,0,0,0,0,0,0,-1,1595,1415,0,0
378,-391,0,0,0,0,0,0,0,0,0,-1,1602,1415,0,0
385,-391,0,0,0,0,0,0,0,0,0,-1,1609,1415,0,0
392,-391,0,0,0,0,0,0,0,0,0,-1,1616,1415,0,0
399,-391,0,0,0,0,0,0,0,0,0,-1,1623,1415,0,0
406,-391,0,0,0,0,0,0,0,0,0,-1,1630,1415,0,0
413,-391,0,0,0,0,0,0,0,0,0,-1,1637,1415,0,0
420,-391,0,0,0,0,0,0,0,0,0,-1,1644,1415,0,0
427,-391,0,0,0,0,0,0,0,0,0,-1,1651,1415,0,0
434,-391,0,0,0,0,0,0,0,0,0,-1,1658,1415,0,0
441,-391,0,0,0,0,0,0,0,0,0,-1,1665,1415,0,0
448,-391,0,0,0,0,0,0,0,0,0,-1,1672,1415,0,0
455,-391,0,0,0,0,0,0,0,0,0,-1,1679,1415,0,0
462,-391,0,0,0,0,0,0,0,0,0,-1,1686,1415,0,0
469,-391,0,0,0,0,0,0,0,0,0,-1,1693,1415,0,0
476,-391,0,0,0,0,0,0,0,0,0,-1,1700,1415,0,0
483,-391,0,0,0,0,0,0,0,0,0,-1,1707,1415,0,0
490,-391,0,0,0,0,0,0,0,0,0,-1,1714,1415,0,0
497,-391,0,0,0,0,0,0,0,0,0,-1,1721,1415,0,0
504,-391,0,0,0,0,0,0,0,0,0,-1,1728,1415,0,0
511,-391,0,0,0,0,0,0,0,0,0,-1,1735,1415,0,0
518,-391,0,0,0,0,0,0,0,0,0,-1,1742,1415,0,0
525,-391,0,0,0,0,0,0,0,0,0,-1,1749,1415,0,0
532,-391,23.3541,1.15771,0,0,0,0,0,0,0,-1,1756,1415,23.3541,-1.15771
539,-391,22.6211,1.52905,0,0,0,0,0,0,0,-1,1763,1415,22.6211,-1.529
546,-391,21.671,2.0199,0,0,0,0,0,0,0,-1,1770,1415,21.671,-2.01994
553,-391,20.5422,2.27222,0,0,0,0,0,0,0,-1,1777,1415,20.5423,-2.27224
560,-391,19.1654,2.27197,0,0,0,0,0,0,0,-1,1784,1415,19.1654,-2.27193
567,-391,18.4855,3.01099,0,0,0,0,0,0,0,-1,1791,1415,18.4854,-3.01096
574,-391,17.8459,3.70581,0,0,0,0,0,0,0,-1,1798,1415,17.8459,-3.70584
581,-391,12.551,1.32678,0,0,0,0,0,0,0,-1,1805,1415,12.5511,-1.32684
588,-391,16.6328,4.5874,0,0,0,0,0,0,0,-1,1812,1415,16.6328,-4.5874
595,-391,18.2269,5.96387,0,0,0,0,0,0,0,-1,1819,1415,18.2269,-5.96392
602,-391,15.1635,5.69849,0,0,0,0,0,0,0,-1,1826,1415,15.1635,-5.69847
609,-391,14.8285,7.50476,0,0,0,0,0,0,0,-1,1833,1415,14.8285,-7.50479
616,-391,15.2607,8.65662,0,0,0,0,0,0,0,-1,1840,1415,15.2608,-8.65664
623,-391,15.2557,8.42566,-0.0142985,-0.00936857,0.00877517,-0.00271873,-0.0209483,0.922321,0.0131533,0.028491,1847,1415,15.2558,-8.42567
630,-391,15.2461,8.17542,-0.00888397,-0.00627465,0.0055901,-0.00183899,-0.0133196,0.90004,0.00833466,0.0180098,1854,1415,15.246,-8.17541
637,-391,15.215,7.94946,-0.00524258,-0.00410125,0.00348098,-0.00114448,-0.00819936,0.866644,0.0051275,0.0148868,1861,1415,15.215,-7.94943
644,-391,15.1962,7.7074,-0.00269288,-0.00251291,0.00207965,-0.000521298,-0.00468449,0.80702,0.00296455,0.0160114,1868,1415,15.1962,-7.70742
651,-391,15.2034,7.45459,-0.000601093,-0.00131847,0.00100623,0.000108469,-0.00202803,0.614186,0.00138959,0.0161887,1875,1415,15.2034,-7.45455
658,-391,15.229,7.20911,0.000650594,-0.000643702,0.000473039,0.000805048,-0.000798156,0.315601,0.000925614,0.0145818,1882,1415,15.229,-7.20907
665,-391,15.2423,6.97351,0.00102583,-0.00054624,0.000540249,0.00119358,-0.000713998,0.301079,0.00111288,0.0119188,1889,1415,15.2423,-6.97353
672,-391,15.2369,6.70325,0.00112455,-0.0006435,0.00074229,0.00139486,-0.000913812,0.349233,0.00134252,0.0117399,1896,1415,15.237,-6.70328
679,-391,15.223,6.45349,0.00119104,-0.001004,0.00103901,0.00160485,-0.0014178,0.37901,0.00174624,0.0119537,1903,1415,15.2231,-6.45352
686,-391,15.2286,6.1936,0.00111088,-0.00186545,0.00150645,0.00174027,-0.00249484,0.395753,0.00245804,0.0141838,1910,1415,15.2287,-6.19356
693,-391,15.2482,6.0304,0.00121987,-0.00318619,0.00196828,0.00197107,-0.00393739,0.364591,0.00347365,0.0310053,1917,1415,15.2482,-6.03041
700,-391,15.3234,5.89819,0,0,0,0,0,0,0,-1,1924,1415,15.3233,-5.89818
707,-391,12.9524,5.96851,0,0,0,0,0,0,0,-1,1931,1415,12.9524,-5.96849
714,-391,15.6875,7.67896,0,0,0,0,0,0,0,-1,1938,1415,15.6875,-7.67893
721,-391,14.1808,8.08435,0,0,0,0,0,0,0,-1,1945,1415,14.1808,-8.08439
728,-391,13.8102,7.28174,0,0,0,0,0,0,0,-1,1952,1415,13.8102,-7.28174
735,-391,0,0,0,0,0,0,0,0,0,-1,1959,1415,0,0
742,-391,0,0,0,0,0,0,0,0,0,-1,1966,1415,0,0
749,-391,0,0,0,0,0,0,0,0,0,-1,1973,1415,0,0
756,-391,0,0,0,0,0,0,0,0,0,-1,1980,1415,0,0
763,-391,0,0,0,0,0,0,0,0,0,-1,1987,1415,0,0
770,-391,0,0,0,0,0,0,0,0,0,-1,1994,1415,0,0
777,-391,0,0,0,0,0,0,0,0,0,-1,2001,1415,0,0
784,-391,0,0,0,0,0,0,0,0,0,-1,2008,1415,0,0
791,-391,0,0,0,0,0,0,0,0,0,-1,2015,1415,0,0
798,-391,0,0,0,0,0,0,0,0,0,-1,2022,1415,0,0
805,-391,0,0,0,0,0,0,0,0,0,-1,2029,1415,0,0
812,-391,0,0,0,0,0,0,0,0,0,-1,2036,1415,0,0
-700,-398,0,0,0,0,0,0,0,0,0,-1,524,1422,0,0
-693,-398,0,0,0,0,0,0,0,0,0,-1,531,1422,0,0
-686,-398,0,0,0,0,0,0,0,0,0,-1,538,1422,0,0
-679,-398,0,0,0,0,0,0,0,0,0,-1,545,1422,0,0
-672,-398,0,0,0,0,0,0,0,0,0,-1,552,1422,0,0
-665,-398,0,0,0,0,0,0,0,0,0,-1,559,1422,0,0
-658,-398,0,0,0,0,0,0,0,0,0,-1,566,1422,0,0
-651,-398,0,0,0,0,0,0,0,0,0,-1,573,1422,0,0
-644,-398,0,0,0,0,0,0,0,0,0,-1,580,1422,0,0
-637,-398,0,0,0,0,0,0,0,0,0,-1,587,1422,0,0
-630,-398,0,0,0,0,0,0,0,0,0,-1,594,1422,0,0
-623,-398,0,0,0,0,0,0,0,0,0,-1,601,1422,0,0
-616,-398,0,0,0,0,0,0,0,0,0,-1,608,1422,0,0
-609,-398,-7.47125,-4.05322,0,0,0,0,0,0,0,-1,615,1422,-7.47128,4.05317
-602,-398,-4.58868,-2.77026,0,0,0,0,0,0,0,-1,622,1422,-4.58869,2.77023
-595,-398,-6.81799,-1.06433,0,0,0,0,0,0,0,-1,629,1422,-6.81797,1.06429
-588,-398,-6.61115,0.746948,0,0,0,0,0,0,0,-1,636,1422,-6.61114,-0.746938
-581,-398,-5.2644,1.91797,0,0,0,0,0,0,0,-1,643,1422,-5.26439,-1.91792
-574,-398,-6.24786,3.62231,0,0,0,0,0,0,0,-1,650,1422,-6.24787,-3.62226
-567,-398,-6.09412,3.96472,0.00166217,-0.00524031,-0.00416123,0.00361713,-0.00719526,-0.439198,0.00635545,0.0459826,657,1422,-6.09411,-3.96476
-560,-398,-5.88855,4.16394,0.000673014,-0.00438946,-0.00405862,0.00292504,-0.00664148,-0.506577,0.00566046,0.0401076,664,1422,-5.88853,-4.16388
-553,-398,-5.69312,4.30151,0.000144798,-0.0033989,-0.0036474,0.00242795,-0.00568205,-0.559293,0.00480631,0.0351696,671,1422,-5.69311,-4.30148
-546,-398,-5.7641,4.46387,8.05869e-06,-0.00256057,-0.00305862,0.00204106,-0.00459357,-0.586626,0.00392387,0.016765,678,1422,-5.7641,-4.46383
-539,-398,-5.71918,4.78247,0.000174512,-0.00171149,-0.00226235,0.00168252,-0.00321951,-0.587935,0.00287619,0.011744,685,1422,-5.71917,-4.78245
-532,-398,-5.74677,5.05542,0.000579291,-0.000947648,-0.00144791,0.00145269,-0.00182105,-0.542778,0.00189408,0.0201493,692,1422,-5.74676,-5.05543
-525,-398,-5.76636,5.32556,0.00122078,-0.000570288,-0.000809137,0.00153218,-0.000881685,-0.367379,0.00141041,0.0190982,699,1422,-5.76637,-5.32561
-518,-398,-5.74921,5.60205,0.00201841,-0.000588225,-0.00024389,0.00204103,-0.000610849,-0.0924952,0.00160357,0.016401,706,1422,-5.74923,-5.60209
-511,-398,-5.73358,5.86597,0.00275686,-0.000961957,7.00805e-05,0.00275818,-0.000963277,0.0188359,0.00223033,0.0131309,713,1422,-5.73357,-5.86596
-504,-398,-5.72235,6.15027,0.00345155,-0.00178477,-0.000117162,0.00345417,-0.00178739,-0.02236,0.00307679,0.0130676,720,1422,-5.72234,-6.15031
-497,-398,-5.74738,6.43079,0.00398207,-0.00346356,-0.00141151,0.00424067,-0.00372216,-0.181202,0.00460059,0.0100323,727,1422,-5.7474,-6.43081
-490,-398,-5.75214,6.73816,0.00384305,-0.00519308,-0.00426884,0.00554076,-0.0068908,-0.378522,0.00719146,0.0109023,734,1422,-5.75211,-6.73818
-483,-398,-5.63324,7.09131,0.00334734,-0.00736251,-0.00771417,0.00738303,-0.0113982,-0.481998,0.0109256,0.024552,741,1422,-5.63326,-7.09126
-476,-398,-5.70111,6.99646,0.00221062,-0.00993781,-0.012783,0.0102892,-0.0180163,-0.563601,0.0165439,0.0488435,748,1422,-5.70114,-6.99647
-469,-398,-5.85443,6.94263,0,0,0,0,0,0,0,-1,755,1422,-5.85446,-6.94257
-462,-398,-5.98248,6.97974,0,0,0,0,0,0,0,-1,762,1422,-5.98246,-6.97979
-455,-398,-7.46521,7.30774,0,0,0,0,0,0,0,-1,769,1422,-7.46523,-7.30778
-448,-398,-7.4505,5.25293,0,0,0,0,0,0,0,-1,776,1422,-7.4505,-5.25291
-441,-398,-7.61639,3.32141,0,0,0,0,0,0,0,-1,783,1422,-7.61637,-3.32145
-434,-398,-10.7618,3.297,0,0,0,0,0,0,0,-1,790,1422,-10.7618,-3.29704
-427,-398,-11.9061,2.24939,0,0,0,0,0,0,0,-1,797,1422,-11.9061,-2.24941
-420,-398,-13.467,2.32788,0,0,0,0,0,0,0,-1,804,1422,-13.467,-2.32787
-413,-398,-14.7983,2.15515,0,0,0,0,0,0,0,-1,811,1422,-14.7983,-2.15516
-406,-398,0,0,0,0,0,0,0,0,0,-1,818,1422,0,0
-399,-398,0,0,0,0,0,0,0,0,0,-1,825,1422,0,0
-392,-398,0,0,0,0,0,0,0,0,0,-1,832,1422,0,0
-385,-398,0,0,0,0,0,0,0,0,0,-1,839,1422,0,0
-378,-398,0,0,0,0,0,0,0,0,0,-1,846,1422,0,0
-371,-398,0,0,0,0,0,0,0,0,0,-1,853,1422,0,0
-364,-398,0,0,0,0,0,0,0,0,0,-1,860,1422,0,0
-357,-398,0,0,0,0,0,0,0,0,0,-1,867,1422,0,0
-350,-398,0,0,0,0,0,0,0,0,0,-1,874,1422,0,0
-343,-398,0,0,0,0,0,0,0,0,0,-1,881,1422,0,0
-336,-398,0,0,0,0,0,0,0,0,0,-1,888,1422,0,0
-329,-398,0,0,0,0,0,0,0,0,0,-1,895,1422,0,0
-322,-398,0,0,0,0,0,0,0,0,0,-1,902,1422,0,0
-315,-398,0,0,0,0,0,0,0,0,0,-1,909,1422,0,0
-308,-398,0,0,0,0,0,0,0,0,0,-1,916,1422,0,0
-301,-398,0,0,0,0,0,0,0,0,0,-1,923,1422,0,0
-294,-398,0,0,0,0,0,0,0,0,0,-1,930,1422,0,0
-287,-398,0,0,0,0,0,0,0,0,0,-1,937,1422,0,0
-280,-398,0,0,0,0,0,0,0,0,0,-1,944,1422,0,0
-273,-398,0,0,0,0,0,0,0,0,0,-1,951,1422,0,0
-266,-398,0,0,0,0,0,0,0,0,0,-1,958,1422,0,0
-259,-398,0,0,0,0,0,0,0,0,0,-1,965,1422,0,0
-252,-398,0,0,0,0,0,0,0,0,0,-1,972,1422,0,0
-245,-398,0,0,0,0,0,0,0,0,0,-1,979,1422,0,0
-238,-398,0,0,0,0,0,0,0,0,0,-1,986,1422,0,0
-231,-398,0,0,0,0,0,0,0,0,0,-1,993,1422,0,0
-224,-398,0,0,0,0,0,0,0,0,0,-1,1000,1422,0,0
-217,-398,0,0,0,0,0,0,0,0,0,-1,1007,1422,0,0
-210,-398,0,0,0,0,0,0,0,0,0,-1,1014,1422,0,0
-203,-398,0,0,0,0,0,0,0,0,0,-1,1021,1422,0,0
-196,-398,0,0,0,0,0,0,0,0,0,-1,1028,1422,0,0
-189,-398,0,0,0,0,0,0,0,0,0,-1,1035,1422,0,0
-182,-398,0,0,0,0,0,0,0,0,0,-1,1042,1422,0,0
-175,-398,0,0,0,0,0,0,0,0,0,-1,1049,1422,0,0
-168,-398,0,0,0,0,0,0,0,0,0,-1,1056,1422,0,0
-161,-398,0,0,0,0,0,0,0,0,0,-1,1063,1422,0,0
-154,-398,0,0,0,0,0,0,0,0,0,-1,1070,1422,0,0
-147,-398,0,0,0,0,0,0,0,0,0,-1,1077,1422,0,0
-140,-398,0,0,0,0,0,0,0,0,0,-1,1084,1422,0,0
-133,-398,0,0,0,0,0,0,0,0,0,-1,1091,1422,0,0
-126,-398,0,0,0,0,0,0,0,0,0,-1,1098,1422,0,0
-119,-398,0,0,0,0,0,0,0,0,0,-1,1105,1422,0,0
-112,-398,0,0,0,0,0,0,0,0,0,-1,1112,1422,0,0
-105,-398,0,0,0,0,0,0,0,0,0,-1,1119,1422,0,0
-98,-398,0,0,0,0,0,0,0,0,0,-1,1126,1422,0,0
-91,-398,0,0,0,0,0,0,0,0,0,-1,1133,1422,0,0
-84,-398,0,0,0,0,0,0,0,0,0,-1,1140,1422,0,0
-77,-398,0,0,0,0,0,0,0,0,0,-1,1147,1422,0,0
-70,-398,0,0,0,0,0,0,0,0,0,-1,1154,1422,0,0
-63,-398,0,0,0,0,0,0,0,0,0,-1,1161,1422,0,0
-56,-398,0,0,0,0,0,0,0,0,0,-1,1168,1422,0,0
-49,-398,0,0,0,0,0,0,0,0,0,-1,1175,1422,0,0
-42,-398,0,0,0,0,0,0,0,0,0,-1,1182,1422,0,0
-35,-398,0,0,0,0,0,0,0,0,0,-1,1189,1422,0,0
-28,-398,0,0,0,0,0,0,0,0,0,-1,1196,1422,0,0
-21,-398,0,0,0,0,0,0,0,0,0,-1,1203,1422,0,0
-14,-398,0,0,0,0,0,0,0,0,0,-1,1210,1422,0,0
-7,-398,0,0,0,0,0,0,0,0,0,-1,1217,1422,0,0
0,-398,0,0,0,0,0,0,0,0,0,-1,1224,1422,0,0
7,-398,0,0,0,0,0,0,0,0,0,-1,1231,1422,0,0
14,-398,0,0,0,0,0,0,0,0,0,-1,1238,1422,0,0
21,-398,0,0,0,0,0,0,0,0,0,-1,1245,1422,0,0
28,-398,0,0,0,0,0,0,0,0,0,-1,1252,1422,0,0
35,-398,0,0,0,0,0,0,0,0,0,-1,1259,1422,0,0
42,-398,0,0,0,0,0,0,0,0,0,-1,1266,1422,0,0
49,-398,0,0,0,0,0,0,0,0,0,-1,1273,1422,0,0
56,-398,0,0,0,0,0,0,0,0,0,-1,1280,1422,0,0
63,-398,0,0,0,0,0,0,0,0,0,-1,1287,1422,0,0
70,-398,0,0,0,0,0,0,0,0,0,-1,1294,1422,0,0
77,-398,0,0,0,0,0,0,0,0,0,-1,1301,1422,0,0
84,-398,0,0,0,0,0,0,0,0,0,-1,1308,1422,0,0
91,-398,0,0,0,0,0,0,0,0,0,-1,1315,1422,0,0
98,-398,0,0,0,0,0,0,0,0,0,-1,1322,1422,0,0
105,-398,0,0,0,0,0,0,0,0,0,-1,1329,1422,0,0
112,-398,0,0,0,0,0,0,0,0,0,-1,1336,1422,0,0
119,-398,0,0,0,0,0,0,0,0,0,-1,1343,1422,0,0
126,-398,0,0,0,0,0,0,0,0,0,-1,1350,1422,0,0
133,-398,0,0,0,0,0,0,0,0,0,-1,1357,1422,0,0
140,-398,0,0,0,0,0,0,0,0,0,-1,1364,1422,0,0
147,-398,0,0,0,0,0,0,0,0,0,-1,1371,1422,0,0
154,-398,0,0,0,0,0,0,0,0,0,-1,1378,1422,0,0
161,-398,0,0,0,0,0,0,0,0,0,-1,1385,1422,0,0
168,-398,0,0,0,0,0,0,0,0,0,-1,1392,1422,0,0
175,-398,0,0,0,0,0,0,0,0,0,-1,1399,1422,0,0
182,-398,0,0,0,0,0,0,0,0,0,-1,1406,1422,0,0
189,-398,0,0,0,0,0,0,0,0,0,-1,1413,1422,0,0
196,-398,0,0,0,0,0,0,0,0,0,-1,1420,1422,0,0
203,-398,0,0,0,0,0,0,0,0,0,-1,1427,1422,0,0
210,-398,0,0,0,0,0,0,0,0,0,-1,1434,1422,0,0
217,-398,0,0,0,0,0,0,0,0,0,-1,1441,1422,0,0
224,-398,0,0,0,0,0,0,0,0,0,-1,1448,1422,0,0
231,-398,0,0,0,0,0,0,0,0,0,-1,1455,1422,0,0
238,-398,0,0,0,0,0,0,0,0,0,-1,1462,1422,0,0
245,-398,0,0,0,0,0,0,0,0,0,-1,1469,1422,0,0
252,-398,0,0,0,0,0,0,0,0,0,-1,1476,1422,0,0
259,-398,0,0,0,0,0,0,0,0,0,-1,1483,1422,0,0
266,-398,0,0,0,0,0,0,0,0,0,-1,1490,1422,0,0
273,-398,0,0,0,0,0,0,0,0,0,-1,1497,1422,0,0
280,-398,0,0,0,0,0,0,0,0,0,-1,1504,1422,0,0
287,-398,0,0,0,0,0,0,0,0,0,-1,1511,1422,0,0
294,-398,0,0,0,0,0,0,0,0,0,-1,1518,1422,0,0
301,-398,0,0,0,0,0,0,0,0,0,-1,1525,1422,0,0
308,-398,0,0,0,0,0,0,0,0,0,-1,1532,1422,0,0
315,-398,0,0,0,0,0,0,0,0,0,-1,1539,1422,0,0
322,-398,0,0,0,0,0,0,0,0,0,-1,1546,1422,0,0
329,-398,0,0,0,0,0,0,0,0,0,-1,1553,1422,0,0
336,-398,0,0,0,0,0,0,0,0,0,-1,1560,1422,0,0
343,-398,0,0,0,0,0,0,0,0,0,-1,1567,1422,0,0
350,-398,0,0,0,0,0,0,0,0,0,-1,1574,1422,0,0
357,-398,0,0,0,0,0,0,0,0,0,-1,1581,1422,0,0
364,-398,0,0,0,0,0,0,0,0,0,-1,1588,1422,0,0
371,-398,0,0,0,0,0,0,0,0,0,-1,1595,1422,0,0
378,-398,0,0,0,0,0,0,0,0,0,-1,1602,1422,0,0
385,-398,0,0,0,0,0,0,0,0,0,-1,1609,1422,0,0
392,-398,0,0,0,0,0,0,0,0,0,-1,1616,1422,0,0
399,-398,0,0,0,0,0,0,0,0,0,-1,1623,1422,0,0
406,-398,0,0,0,0,0,0,0,0,0,-1,1630,1422,0,0
413,-398,0,0,0,0,0,0,0,0,0,-1,1637,1422,0,0
420,-398,0,0,0,0,0,0,0,0,0,-1,1644,1422,0,0
427,-398,0,0,0,0,0,0,0,0,0,-1,1651,1422,0,0
434,-398,0,0,0,0,0,0,0,0,0,-1,1658,1422,0,0
441,-398,0,0,0,0,0,0,0,0,0,-1,1665,1422,0,0
448,-398,0,0,0,0,0,0,0,0,0,-1,1672,1422,0,0
455,-398,0,0,0,0,0,0,0,0,0,-1,1679,1422,0,0
462,-398,0,0,0,0,0,0,0,0,0,-1,1686,1422,0,0
469,-398,0,0,0,0,0,0,0,0,0,-1,1693,1422,0,0
476,-398,0,0,0,0,0,0,0,0,0,-1,1700,1422,0,0
483,-398,0,0,0,0,0,0,0,0,0,-1,1707,1422,0,0
490,-398,0,0,0,0,0,0,0,0,0,-1,1714,1422,0,0
497,-398,0,0,0,0,0,0,0,0,0,-1,1721,1422,0,0
504,-398,0,0,0,0,0,0,0,0,0,-1,1728,1422,0,0
511,-398,0,0,0,0,0,0,0,0,0,-1,1735,1422,0,0
518,-398,0,0,0,0,0,0,0,0,0,-1,1742,1422,0,0
525,-398,0,0,0,0,0,0,0,0,0,-1,1749,1422,0,0
532,-398,23.488,1.61963,0,0,0,0,0,0,0,-1,1756,1422,23.4881,-1.61959
539,-398,21.8323,1.8689,0,0,0,0,0,0,0,-1,1763,1422,21.8322,-1.86887
546,-398,20.865,2.10522,0,0,0,0,0,0,0,-1,1770,1422,20.865,-2.10518
553,-398,19.873,2.31494,0,0,0,0,0,0,0,-1,1777,1422,19.873,-2.31496
560,-398,18.7664,2.58093,0,0,0,0,0,0,0,-1,1784,1422,18.7664,-2.58089
567,-398,17.8256,3.19897,0,0,0,0,0,0,0,-1,1791,1422,17.8255,-3.199
574,-398,17.1724,3.84631,0,0,0,0,0,0,0,-1,1798,1422,17.1723,-3.84628
581,-398,16.6462,4.40747,0,0,0,0,0,0,0,-1,1805,1422,16.6463,-4.40747
588,-398,18.2119,6.75757,0,0,0,0,0,0,0,-1,1812,1422,18.2119,-6.75756
595,-398,18.062,7.2041,0,0,0,0,0,0,0,-1,1819,1422,18.062,-7.20405
602,-398,16.3687,8.3197,0,0,0,0,0,0,0,-1,1826,1422,16.3687,-8.3197
609,-398,15.0433,8.99194,0,0,0,0,0,0,0,-1,1833,1422,15.0434,-8.99196
616,-398,15.0635,8.7074,-0.0197629,-0.0122781,0.0121559,-0.00330155,-0.0287394,0.934729,0.0181594,0.0233501,1840,1422,15.0635,-8.70735
623,-398,14.9806,8.46313,-0.0131346,-0.00815129,0.00812396,-0.00214548,-0.0191404,0.934197,0.0121087,0.0116505,1847,1422,14.9806,-8.46316
630,-398,14.9816,8.20337,-0.0083489,-0.00549187,0.00525914,-0.00147069,-0.0123701,0.918011,0.00780283,0.010683,1854,1422,14.9816,-8.2034
637,-398,14.9846,7.96252,-0.00500571,-0.00356074,0.00331969,-0.000885828,-0.00768063,0.892545,0.00485217,0.0118962,1861,1422,14.9846,-7.96256
644,-398,14.937,7.70728,-0.00256544,-0.00212361,0.00200058,-0.000331783,-0.00435727,0.840389,0.00280081,0.0177665,1868,1422,14.937,-7.70732
651,-398,14.985,7.44592,-0.00052768,-0.00104903,0.000977154,0.00022297,-0.00179968,0.655048,0.0012806,0.0264774,1875,1422,14.9849,-7.44587
658,-398,15.0061,7.22693,0.000651135,-0.000448315,0.000504246,0.000847373,-0.000644554,0.371137,0.000864014,0.0204027,1882,1422,15.0061,-7.22694
665,-398,14.9766,6.96985,0.000987205,-0.000363924,0.000611298,0.00122272,-0.000599443,0.36775,0.00107235,0.0139171,1889,1422,14.9765,-6.96988
672,-398,14.9745,6.71631,0.00108364,-0.000484942,0.000888352,0.00148437,-0.000885675,0.423766,0.00138282,0.0131153,1896,1422,14.9745,-6.71635
679,-398,14.9727,6.46692,0.00114064,-0.000886548,0.00128459,0.00176337,-0.00150928,0.451387,0.00189136,0.012526,1903,1422,14.9727,-6.46695
686,-398,15.0139,6.1969,0.00103122,-0.00188068,0.00193945,0.0020004,-0.00284986,0.463422,0.00281458,0.0204709,1910,1422,15.0139,-6.19695
693,-398,15.0498,5.95032,0,0,0,0,0,0,0,-1,1917,1422,15.0498,-5.95026
700,-398,14.0787,6.53918,0,0,0,0,0,0,0,-1,1924,1422,14.0787,-6.53921
707,-398,10.9731,5.479,0,0,0,0,0,0,0,-1,1931,1422,10.9732,-5.47896
714,-398,11.7313,6.17346,0,0,0,0,0,0,0,-1,1938,1422,11.7313,-6.17348
721,-398,13.9371,8.05103,0,0,0,0,0,0,0,-1,1945,1422,13.9372,-8.05102
728,-398,14.786,7.0282,0,0,0,0,0,0,0,-1,1952,1422,14.786,-7.0282
735,-398,0,0,0,0,0,0,0,0,0,-1,1959,1422,0,0
742,-398,0,0,0,0,0,0,0,0,0,-1,1966,1422,0,0
749,-398,0,0,0,0,0,0,0,0,0,-1,1973,1422,0,0
756,-398,0,0,0,0,0,0,0,0,0,-1,1980,1422,0,0
763,-398,0,0,0,0,0,0,0,0,0,-1,1987,1422,0,0
770,-398,0,0,0,0,0,0,0,0,0,-1,1994,1422,0,0
777,-398,0,0,0,0,0,0,0,0,0,-1,2001,1422,0,0
784,-398,0,0,0,0,0,0,0,0,0,-1,2008,1422,0,0
791,-398,0,0,0,0,0,0,0,0,0,-1,2015,1422,0,0
798,-398,0,0,0,0,0,0,0,0,0,-1,2022,1422,0,0
805,-398,0,0,0,0,0,0,0,0,0,-1,2029,1422,0,0
812,-398,0,0,0,0,0,0,0,0,0,-1,2036,1422,0,0
-700,-405,0,0,0,0,0,0,0,0,0,-1,524,1429,0,0
-693,-405,0,0,0,0,0,0,0,0,0,-1,531,1429,0,0
-686,-405,0,0,0,0,0,0,0,0,0,-1,538,1429,0,0
-679,-405,0,0,0,0,0,0,0,0,0,-1,545,1429,0,0
-672,-405,0,0,0,0,0,0,0,0,0,-1,552,1429,0,0
-665,-405,0,0,0,0,0,0,0,0,0,-1,559,1429,0,0
-658,-405,0,0,0,0,0,0,0,0,0,-1,566,1429,0,0
-651,-405,0,0,0,0,0,0,0,0,0,-1,573,1429,0,0
-644,-405,0,0,0,0,0,0,0,0,0,-1,580,1429,0,0
-637,-405,0,0,0,0,0,0,0,0,0,-1,587,1429,0,0
-630,-405,0,0,0,0,0,0,0,0,0,-1,594,1429,0,0
-623,-405,0,0,0,0,0,0,0,0,0,-1,601,1429,0,0
-616,-405,0,0,0,0,0,0,0,0,0,-1,608,1429,0,0
-609,-405,0,0,0,0,0,0,0,0,0,-1,615,1429,0,0
-602,-405,-5.80988,-3.46594,0,0,0,0,0,0,0,-1,622,1429,-5.80987,3.46592
-595,-405,-9.35413,2.01477,0,0,0,0,0,0,0,-1,629,1429,-9.35411,-2.01476
-588,-405,-7.35693,0.507202,0,0,0,0,0,0,0,-1,636,1429,-7.35696,-0.507187
-581,-405,-5.81323,0.708984,0,0,0,0,0,0,0,-1,643,1429,-5.81325,-0.708986
-574,-405,-5.09467,2.51709,0,0,0,0,0,0,0,-1,650,1429,-5.09466,-2.5171
-567,-405,-5.79132,3.922,0,0,0,0,0,0,0,-1,657,1429,-5.79135,-3.92198
-560,-405,-5.65869,4.25818,0.00258778,-0.00568301,-0.00469682,0.00471031,-0.00780553,-0.424439,0.00729931,0.0485587,664,1429,-5.65872,-4.25814
-553,-405,-5.29724,4.36902,0.00123808,-0.00351493,-0.00384989,0.00338589,-0.00566274,-0.50888,0.00527907,0.0477241,671,1429,-5.29725,-4.369
-546,-405,-5.46533,4.45715,0.000514688,-0.00188129,-0.00296258,0.00251233,-0.00387893,-0.593262,0.003718,0.0256801,678,1429,-5.46531,-4.45718
-539,-405,-5.46539,4.75488,0.000285758,-0.000741001,-0.00205688,0.00189236,-0.0023476,-0.663101,0.00245264,0.0109196,685,1429,-5.46541,-4.75491
-532,-405,-5.46973,5.04797,0.000400069,7.60831e-06,-0.00120329,0.00142302,-0.00101534,-0.70457,0.00141433,0.014153,692,1429,-5.4697,-5.04793
-525,-405,-5.47314,5.32776,0.000793527,0.000312724,-0.000595763,0.00119556,-8.93121e-05,-0.59363,0.000828419,0.0147809,699,1429,-5.47313,-5.32777
-518,-405,-5.4458,5.61365,0.00137866,0.000146581,-0.000138831,0.00139411,0.000131131,-0.110829,0.000888923,0.0151954,706,1429,-5.44581,-5.61365
-511,-405,-5.44189,5.88013,0.0019077,-0.000353783,2.96959e-05,0.00190809,-0.000354173,0.0131282,0.00140507,0.0156443,713,1429,-5.44192,-5.88011
-504,-405,-5.43433,6.14502,0.00237561,-0.00128073,-0.000301809,0.00240036,-0.00130547,-0.0818061,0.00217047,0.0169862,720,1429,-5.43432,-6.14499
-497,-405,-5.43903,6.44043,0.00273648,-0.00294418,-0.00161658,0.0031643,-0.003372,-0.258714,0.00377437,0.0133177,727,1429,-5.43905,-6.44044
-490,-405,-5.46228,6.74731,0.00253463,-0.0046495,-0.00436331,0.00459424,-0.00670911,-0.441021,0.00656396,0.0111658,734,1429,-5.4623,-6.74734
-483,-405,-5.4433,7.06152,0.002007,-0.00676594,-0.00765952,0.00644716,-0.0112061,-0.525353,0.0103148,0.0119042,741,1429,-5.44332,-7.06151
-476,-405,-5.40686,7.34302,0.000784216,-0.00918282,-0.0124569,0.00921744,-0.0176161,-0.595118,0.0157432,0.0307243,748,1429,-5.40687,-7.34302
-469,-405,-5.37897,7.42261,-0.00122354,-0.0120481,-0.0192324,0.0133436,-0.0266152,-0.648238,0.0234906,0.0440209,755,1429,-5.37894,-7.42264
-462,-405,-5.27716,7.65405,0,0,0,0,0,0,0,-1,762,1429,-5.27718,-7.65401
-455,-405,-5.63007,7.35876,0,0,0,0,0,0,0,-1,769,1429,-5.63007,-7.35873
-448,-405,-6.44812,6.12097,0,0,0,0,0,0,0,-1,776,1429,-6.44811,-6.12098
-441,-405,-6.6712,4.23767,0,0,0,0,0,0,0,-1,783,1429,-6.67121,-4.23764
-434,-405,-9.62549,3.94189,0,0,0,0,0,0,0,-1,790,1429,-9.62546,-3.94191
-427,-405,-10.9764,3.73926,0,0,0,0,0,0,0,-1,797,1429,-10.9764,-3.73923
-420,-405,-12.1187,3.68506,0,0,0,0,0,0,0,-1,804,1429,-12.1187,-3.68512
-413,-405,-13.5353,3.75659,0,0,0,0,0,0,0,-1,811,1429,-13.5353,-3.75655
-406,-405,-14.7374,3.99817,0,0,0,0,0,0,0,-1,818,1429,-14.7374,-3.99814
-399,-405,0,0,0,0,0,0,0,0,0,-1,825,1429,0,0
-392,-405,0,0,0,0,0,0,0,0,0,-1,832,1429,0,0
-385,-405,0,0,0,0,0,0,0,0,0,-1,839,1429,0,0
-378,-405,0,0,0,0,0,0,0,0,0,-1,846,1429,0,0
-371,-405,0,0,0,0,0,0,0,0,0,-1,853,1429,0,0
-364,-405,0,0,0,0,0,0,0,0,0,-1,860,1429,0,0
-357,-405,0,0,0,0,0,0,0,0,0,-1,867,1429,0,0
-350,-405,0,0,0,0,0,0,0,0,0,-1,874,1429,0,0
-343,-405,0,0,0,0,0,0,0,0,0,-1,881,1429,0,0
-336,-405,0,0,0,0,0,0,0,0,0,-1,888,1429,0,0
-329,-405,0,0,0,0,0,0,0,0,0,-1,895,1429,0,0
-322,-405,0,0,0,0,0,0,0,0,0,-1,902,1429,0,0
-315,-405,0,0,0,0,0,0,0,0,0,-1,909,1429,0,0
-308,-405,0,0,0,0,0,0,0,0,0,-1,916,1429,0,0
-301,-405,0,0,0,0,0,0,0,0,0,-1,923,1429,0,0
-294,-405,0,0,0,0,0,0,0,0,0,-1,930,1429,0,0
-287,-405,0,0,0,0,0,0,0,0,0,-1,937,1429,0,0
-280,-405,0,0,0,0,0,0,0,0,0,-1,944,1429,0,0
-273,-405,0,0,0,0,0,0,0,0,0,-1,951,1429,0,0
-266,-405,0,0,0,0,0,0,0,0,0,-1,958,1429,0,0
-259,-405,0,0,0,0,0,0,0,0,0,-1,965,1429,0,0
-252,-405,0,0,0,0,0,0,0,0,0,-1,972,1429,0,0
-245,-405,0,0,0,0,0,0,0,0,0,-1,979,1429,0,0
-238,-405,0,0,0,0,0,0,0,0,0,-1,986,1429,0,0
-231,-405,0,0,0,0,0,0,0,0,0,-1,993,1429,0,0
-224,-405,0,0,0,0,0,0,0,0,0,-1,1000,1429,0,0
-217,-405,0,0,0,0,0,0,0,0,0,-1,1007,1429,0,0
-210,-405,0,0,0,0,0,0,0,0,0,-1,1014,1429,0,0
-203,-405,0,0,0,0,0,0,0,0,0,-1,1021,1429,0,0
-196,-405,0,0,0,0,0,0,0,0,0,-1,1028,1429,0,0
-189,-405,0,0,0,0,0,0,0,0,0,-1,1035,1429,0,0
-182,-405,0,0,0,0,0,0,0,0,0,-1,1042,1429,0,0
-175,-405,0,0,0,0,0,0,0,0,0,-1,1049,1429,0,0
-168,-405,0,0,0,0,0,0,0,0,0,-1,1056,1429,0,0
-161,-405,0,0,0,0,0,0,0,0,0,-1,1063,1429,0,0
-154,-405,0,0,0,0,0,0,0,0,0,-1,1070,1429,0,0
-147,-405,0,0,0,0,0,0,0,0,0,-1,1077,1429,0,0
-140,-405,0,0,0,0,0,0,0,0,0,-1,1084,1429,0,0
-133,-405,0,0,0,0,0,0,0,0,0,-1,1091,1429,0,0
-126,-405,0,0,0,0,0,0,0,0,0,-1,1098,1429,0,0
-119,-405,0,0,0,0,0,0,0,0,0,-1,1105,1429,0,0
-112,-405,0,0,0,0,0,0,0,0,0,-1,1112,1429,0,0
-105,-405,0,0,0,0,0,0,0,0,0,-1,1119,1429,0,0
-98,-405,0,0,0,0,0,0,0,0,0,-1,1126,1429,0,0
-91,-405,0,0,0,0,0,0,0,0,0,-1,1133,1429,0,0
-84,-405,0,0,0,0,0,0,0,0,0,-1,1140,1429,0,0
-77,-405,0,0,0,0,0,0,0,0,0,-1,1147,1429,0,0
-70,-405,0,0,0,0,0,0,0,0,0,-1,1154,1429,0,0
-63,-405,0,0,0,0,0,0,0,0,0,-1,1161,1429,0,0
-56,-405,0,0,0,0,0,0,0,0,0,-1,1168,1429,0,0
-49,-405,0,0,0,0,0,0,0,0,0,-1,1175,1429,0,0
-42,-405,0,0,0,0,0,0,0,0,0,-1,1182,1429,0,0
-35,-405,0,0,0,0,0,0,0,0,0,-1,1189,1429,0,0
-28,-405,0,0,0,0,0,0,0,0,0,-1,1196,1429,0,0
-21,-405,0,0,0,0,0,0,0,0,0,-1,1203,1429,0,0
-14,-405,0,0,0,0,0,0,0,0,0,-1,1210,1429,0,0
-7,-405,0,0,0,0,0,0,0,0,0,-1,1217,1429,0,0
0,-405,0,0,0,0,0,0,0,0,0,-1,1224,1429,0,0
7,-405,0,0,0,0,0,0,0,0,0,-1,1231,1429,0,0
14,-405,0,0,0,0,0,0,0,0,0,-1,1238,1429,0,0
21,-405,0,0,0,0,0,0,0,0,0,-1,1245,1429,0,0
28,-405,0,0,0,0,0,0,0,0,0,-1,1252,1429,0,0
35,-405,0,0,0,0,0,0,0,0,0,-1,1259,1429,0,0
42,-405,0,0,0,0,0,0,0,0,0,-1,1266,1429,0,0
49,-405,0,0,0,0,0,0,0,0,0,-1,1273,1429,0,0
56,-405,0,0,0,0,0,0,0,0,0,-1,1280,1429,0,0
63,-405,0,0,0,0,0,0,0,0,0,-1,1287,1429,0,0
70,-405,0,0,0,0,0,0,0,0,0,-1,1294,1429,0,0
77,-405,0,0,0,0,0,0,0,0,0,-1,1301,1429,0,0
84,-405,0,0,0,0,0,0,0,0,0,-1,1308,1429,0,0
91,-405,0,0,0,0,0,0,0,0,0,-1,1315,1429,0,0
98,-405,0,0,0,0,0,0,0,0,0,-1,1322,1429,0,0
105,-405,0,0,0,0,0,0,0,0,0,-1,1329,1429,0,0
112,-405,0,0,0,0,0,0,0,0,0,-1,1336,1429,0,0
119,-405,0,0,0,0,0,0,0,0,0,-1,1343,1429,0,0
126,-405,0,0,0,0,0,0,0,0,0,-1,1350,1429,0,0
133,-405,0,0,0,0,0,0,0,0,0,-1,1357,1429,0,0
140,-405,0,0,0,0,0,0,0,0,0,-1,1364,1429,0,0
147,-405,0,0,0,0,0,0,0,0,0,-1,1371,1429,0,0
154,-405,0,0,0,0,0,0,0,0,0,-1,1378,1429,0,0
161,-405,0,0,0,0,0,0,0,0,0,-1,1385,1429,0,0
168,-405,0,0,0,0,0,0,0,0,0,-1,1392,1429,0,0
175,-405,0,0,0,0,0,0,0,0,0,-1,1399,1429,0,0
182,-405,0,0,0,0,0,0,0,0,0,-1,1406,1429,0,0
189,-405,0,0,0,0,0,0,0,0,0,-1,1413,1429,0,0
196,-405,0,0,0,0,0,0,0,0,0,-1,1420,1429,0,0
203,-405,0,0,0,0,0,0,0,0,0,-1,1427,1429,0,0
210,-405,0,0,0,0,0,0,0,0,0,-1,1434,1429,0,0
217,-405,0,0,0,0,0,0,0,0,0,-1,1441,1429,0,0
224,-405,0,0,0,0,0,0,0,0,0,-1,1448,1429,0,0
231,-405,0,0,0,0,0,0,0,0,0,-1,1455,1429,0,0
238,-405,0,0,0,0,0,0,0,0,0,-1,1462,1429,0,0
245,-405,0,0,0,0,0,0,0,0,0,-1,1469,1429,0,0
252,-405,0,0,0,0,0,0,0,0,0,-1,1476,1429,0,0
259,-405,0,0,0,0,0,0,0,0,0,-1,1483,1429,0,0
266,-405,0,0,0,0,0,0,0,0,0,-1,1490,1429,0,0
273,-405,0,0,0,0,0,0,0,0,0,-1,1497,1429,0,0
280,-405,0,0,0,0,0,0,0,0,0,-1,1504,1429,0,0
287,-405,0,0,0,0,0,0,0,0,0,-1,1511,1429,0,0
294,-405,0,0,0,0,0,0,0,0,0,-1,1518,1429,0,0
301,-405,0,0,0,0,0,0,0,0,0,-1,1525,1429,0,0
308,-405,0,0,0,0,0,0,0,0,0,-1,1532,1429,0,0
315,-405,0,0,0,0,0,0,0,0,0,-1,1539,1429,0,0
322,-405,0,0,0,0,0,0,0,0,0,-1,1546,1429,0,0
329,-405,0,0,0,0,0,0,0,0,0,-1,1553,1429,0,0
336,-405,0,0,0,0,0,0,0,0,0,-1,1560,1429,0,0
343,-405,0,0,0,0,0,0,0,0,0,-1,1567,1429,0,0
350,-405,0,0,0,0,0,0,0,0,0,-1,1574,1429,0,0
357,-405,0,0,0,0,0,0,0,0,0,-1,1581,1429,0,0
364,-405,0,0,0,0,0,0,0,0,0,-1,1588,1429,0,0
371,-405,0,0,0,0,0,0,0,0,0,-1,1595,1429,0,0
378,-405,0,0,0,0,0,0,0,0,0,-1,1602,1429,0,0
385,-405,0,0,0,0,0,0,0,0,0,-1,1609,1429,0,0
392,-405,0,0,0,0,0,0,0,0,0,-1,1616,1429,0,0
399,-405,0,0,0,0,0,0,0,0,0,-1,1623,1429,0,0
406,-405,0,0,0,0,0,0,0,0,0,-1,1630,1429,0,0
413,-405,0,0,0,0,0,0,0,0,0,-1,1637,1429,0,0
420,-405,0,0,0,0,0,0,0,0,0,-1,1644,1429,0,0
427,-405,0,0,0,0,0,0,0,0,0,-1,1651,1429,0,0
434,-405,0,0,0,0,0,0,0,0,0,-1,1658,1429,0,0
441,-405,0,0,0,0,0,0,0,0,0,-1,1665,1429,0,0
448,-405,0,0,0,0,0,0,0,0,0,-1,1672,1429,0,0
455,-405,0,0,0,0,0,0,0,0,0,-1,1679,1429,0,0
462,-405,0,0,0,0,0,0,0,0,0,-1,1686,1429,0,0
469,-405,0,0,0,0,0,0,0,0,0,-1,1693,1429,0,0
476,-405,0,0,0,0,0,0,0,0,0,-1,1700,1429,0,0
483,-405,0,0,0,0,0,0,0,0,0,-1,1707,1429,0,0
490,-405,0,0,0,0,0,0,0,0,0,-1,1714,1429,0,0
497,-405,0,0,0,0,0,0,0,0,0,-1,1721,1429,0,0
504,-405,0,0,0,0,0,0,0,0,0,-1,1728,1429,0,0
511,-405,0,0,0,0,0,0,0,0,0,-1,1735,1429,0,0
518,-405,0,0,0,0,0,0,0,0,0,-1,1742,1429,0,0
525,-405,14.6423,1.7583,0,0,0,0,0,0,0,-1,1749,1429,14.6424,-1.75824
532,-405,22.7542,1.85034,0,0,0,0,0,0,0,-1,1756,1429,22.7541,-1.85038
539,-405,21.1149,1.93384,0,0,0,0,0,0,0,-1,1763,1429,21.1149,-1.93381
546,-405,20.1537,2.11157,0,0,0,0,0,0,0,-1,1770,1429,20.1537,-2.11163
553,-405,19.1523,2.2356,0,0,0,0,0,0,0,-1,1777,1429,19.1523,-2.23566
560,-405,17.9702,2.44043,0,0,0,0,0,0,0,-1,1784,1429,17.9703,-2.44041
567,-405,16.8976,3.23425,0,0,0,0,0,0,0,-1,1791,1429,16.8976,-3.2343
574,-405,16.168,4.06287,0,0,0,0,0,0,0,-1,1798,1429,16.168,-4.06291
581,-405,15.5306,4.74963,0,0,0,0,0,0,0,-1,1805,1429,15.5306,-4.74958
588,-405,18.2679,7.79907,0,0,0,0,0,0,0,-1,1812,1429,18.268,-7.79906
595,-405,16.6508,8.31018,0,0,0,0,0,0,0,-1,1819,1429,16.6507,-8.31021
602,-405,15.7086,8.59998,-0.0356977,-0.0217033,0.0192965,-0.00817452,-0.0492265,0.959332,0.0304607,0.0461684,1826,1429,15.7086,-8.59995
609,-405,14.7893,8.96252,-0.0250766,-0.0150892,0.0145497,-0.00470012,-0.0354657,0.950707,0.0222432,0.0227569,1833,1429,14.7893,-8.96253
616,-405,14.7345,8.7655,-0.0172045,-0.010407,0.0106263,-0.00264917,-0.0249624,0.940179,0.0158326,0.0100657,1840,1429,14.7345,-8.76549
623,-405,14.7167,8.50366,-0.0115991,-0.00689075,0.00721635,-0.00165429,-0.0168356,0.943069,0.0107149,0.00947711,1847,1429,14.7167,-8.50361
630,-405,14.7228,8.22925,-0.00747819,-0.00469165,0.00473092,-0.0011531,-0.0110167,0.928602,0.00699189,0.00995237,1854,1429,14.7227,-8.22925
637,-405,14.7328,7.97034,-0.00449063,-0.00305756,0.00300486,-0.000684985,-0.00686321,0.902441,0.00436509,0.0100368,1861,1429,14.7328,-7.97038
644,-405,14.7186,7.6991,-0.00222912,-0.00182166,0.00180581,-0.000208119,-0.00384266,0.841571,0.00249529,0.0255249,1868,1429,14.7187,-7.69906
651,-405,14.7413,7.42676,-0.000339067,-0.000921647,0.000889995,0.000306094,-0.00156681,0.627246,0.00116011,0.0296794,1875,1429,14.7413,-7.42682
658,-405,14.7117,7.19885,0.000678978,-0.000462094,0.000535188,0.000890706,-0.000673822,0.37672,0.000906169,0.0222289,1882,1429,14.7116,-7.19889
665,-405,14.7358,6.97131,0.000921685,-0.00041826,0.000701731,0.00122191,-0.000718488,0.404273,0.00113279,0.0179911,1889,1429,14.7358,-6.97135
672,-405,14.7642,6.73279,0.00095188,-0.000562488,0.00104772,0.00148738,-0.00109799,0.472499,0.0014983,0.0224427,1896,1429,14.7642,-6.73277
679,-405,14.7758,6.43823,0.000925874,-0.000988147,0.0015361,0.00177869,-0.00184096,0.506814,0.00208991,0.0216048,1903,1429,14.7758,-6.43828
686,-405,14.7118,6.18054,0.000677979,-0.00205208,0.00235639,0.00203616,-0.00341027,0.522873,0.00317768,0.0368953,1910,1429,14.7118,-6.18054
693,-405,14.5967,6.04688,0,0,0,0,0,0,0,-1,1917,1429,14.5967,-6.04693
700,-405,9.1958,4.02026,0,0,0,0,0,0,0,-1,1924,1429,9.19579,-4.02025
707,-405,7.40308,3.83191,0,0,0,0,0,0,0,-1,1931,1429,7.40311,-3.83194
714,-405,7.33252,3.47388,0,0,0,0,0,0,0,-1,1938,1429,7.33255,-3.47383
721,-405,9.23523,0.993896,0,0,0,0,0,0,0,-1,1945,1429,9.23523,-0.993884
728,-405,0,0,0,0,0,0,0,0,0,-1,1952,1429,0,0
735,-405,0,0,0,0,0,0,0,0,0,-1,1959,1429,0,0
742,-405,0,0,0,0,0,0,0,0,0,-1,1966,1429,0,0
749,-405,0,0,0,0,0,0,0,0,0,-1,1973,1429,0,0
756,-405,0,0,0,0,0,0,0,0,0,-1,1980,1429,0,0
763,-405,0,0,0,0,0,0,0,0,0,-1,1987,1429,0,0
770,-405,0,0,0,0,0,0,0,0,0,-1,1994,1429,0,0
777,-405,0,0,0,0,0,0,0,0,0,-1,2001,1429,0,0
784,-405,0,0,0,0,0,0,0,0,0,-1,2008,1429,0,0
791,-405,0,0,0,0,0,0,0,0,0,-1,2015,1429,0,0
798,-405,0,0,0,0,0,0,0,0,0,-1,2022,1429,0,0
805,-405,0,0,0,0,0,0,0,0,0,-1,2029,1429,0,0
812,-405,0,0,0,0,0,0,0,0,0,-1,2036,1429,0,0
-700,-412,0,0,0,0,0,0,0,0,0,-1,524,1436,0,0
-693,-412,0,0,0,0,0,0,0,0,0,-1,531,1436,0,0
-686,-412,0,0,0,0,0,0,0,0,0,-1,538,1436,0,0
-679,-412,0,0,0,0,0,0,0,0,0,-1,545,1436,0,0
-672,-412,0,0,0,0,0,0,0,0,0,-1,552,1436,0,0
-665,-412,0,0,0,0,0,0,0,0,0,-1,559,1436,0,0
-658,-412,0,0,0,0,0,0,0,0,0,-1,566,1436,0,0
-651,-412,0,0,0,0,0,0,0,0,0,-1,573,1436,0,0
-644,-412,0,0,0,0,0,0,0,0,0,-1,580,1436,0,0
-637,-412,0,0,0,0,0,0,0,0,0,-1,587,1436,0,0
-630,-412,0,0,0,0,0,0,0,0,0,-1,594,1436,0,0
-623,-412,0,0,0,0,0,0,0,0,0,-1,601,1436,0,0
-616,-412,0,0,0,0,0,0,0,0,0,-1,608,1436,0,0
-609,-412,0,0,0,0,0,0,0,0,0,-1,615,1436,0,0
-602,-412,-3.72766,-3.50012,0,0,0,0,0,0,0,-1,622,1436,-3.72764,3.50017
-595,-412,-10.3706,0.65564,0,0,0,0,0,0,0,-1,629,1436,-10.3706,-0.655672
-588,-412,-8.17957,1.94934,0,0,0,0,0,0,0,-1,636,1436,-8.17956,-1.94939
-581,-412,-6.60065,-0.0554199,0,0,0,0,0,0,0,-1,643,1436,-6.60063,0.0554733
-574,-412,-5.41547,3.68811,0,0,0,0,0,0,0,-1,650,1436,-5.41549,-3.68817
-567,-412,-4.06519,2.4209,0,0,0,0,0,0,0,-1,657,1436,-4.06521,-2.42089
-560,-412,-5.64081,4.45264,0,0,0,0,0,0,0,-1,664,1436,-5.64081,-4.45264
-553,-412,-4.88135,4.53625,0.00298515,-0.00190998,-0.00245188,0.00400201,-0.00292684,-0.393139,0.0040164,0.0453607,671,1436,-4.88132,-4.53629
-546,-412,-4.95465,4.58533,0.0016735,-0.000135583,-0.00140956,0.00244378,-0.000905872,-0.500133,0.00200072,0.0377576,678,1436,-4.95467,-4.58538
-539,-412,-5.15967,4.72034,0.00101609,0.000958559,-0.000517049,0.00150517,0.000469474,-0.757612,0.000889271,0.0175703,685,1436,-5.15966,-4.72032
-532,-412,-5.17505,5.04492,0.000802389,0.00153462,0.000206949,0.00158907,0.000747947,1.31356,0.000917973,0.0139988,692,1436,-5.17507,-5.0449
-525,-412,-5.18237,5.33887,0.00089811,0.00167855,0.000631846,0.00203096,0.000545699,1.06202,0.00121368,0.0162161,699,1436,-5.1824,-5.33883
-518,-412,-5.15576,5.62268,0.00120386,0.00128746,0.000809634,0.00205637,0.000434947,0.81119,0.00125139,0.0164188,706,1436,-5.15575,-5.6227
-511,-412,-5.16962,5.8916,0.00147415,0.000602244,0.000672651,0.00183977,0.000236627,0.497875,0.00115574,0.019044,713,1436,-5.1696,-5.89165
-504,-412,-5.17261,6.16467,0.0016982,-0.000469011,6.23717e-05,0.0017,-0.000470804,0.028748,0.00131859,0.0180169,720,1436,-5.17263,-6.16469
-497,-412,-5.16846,6.4563,0.00186574,-0.00214339,-0.00138172,0.0022958,-0.00257346,-0.30175,0.00281279,0.0131395,727,1436,-5.16849,-6.45632
-490,-412,-5.18738,6.74622,0.00157054,-0.00385913,-0.00409841,0.00377173,-0.00606032,-0.492873,0.00572757,0.0115129,734,1436,-5.18737,-6.74625
-483,-412,-5.19385,7.02087,0.00101779,-0.00594828,-0.00729366,0.00561739,-0.0105479,-0.562637,0.00947662,0.00848347,741,1436,-5.19388,-7.02083
-476,-412,-5.12225,7.3938,-0.000238789,-0.00825417,-0.011797,0.00821267,-0.0167056,-0.621654,0.0146625,0.0177721,748,1436,-5.12224,-7.39374
-469,-412,-5.11243,7.56421,-0.0021098,-0.0109289,-0.0177015,0.0117231,-0.0247618,-0.66333,0.0215083,0.0307101,755,1436,-5.11243,-7.56419
-462,-412,-4.96539,7.54932,-0.00502859,-0.014135,-0.0258667,0.0166826,-0.0358461,-0.698278,0.0309929,0.0385141,762,1436,-4.96538,-7.54929
-455,-412,-5.508,7.65833,0,0,0,0,0,0,0,-1,769,1436,-5.50797,-7.65829
-448,-412,-5.67664,7.62927,0,0,0,0,0,0,0,-1,776,1436,-5.67666,-7.62929
-441,-412,-6.25177,6.89502,0,0,0,0,0,0,0,-1,783,1436,-6.25175,-6.89499
-434,-412,-7.16119,5.89392,0,0,0,0,0,0,0,-1,790,1436,-7.16121,-5.89396
-427,-412,-10.0004,5.15271,0,0,0,0,0,0,0,-1,797,1436,-10.0004,-5.15266
-420,-412,-10.4468,4.9043,0,0,0,0,0,0,0,-1,804,1436,-10.4468,-4.90429
-413,-412,-11.5704,4.97766,0,0,0,0,0,0,0,-1,811,1436,-11.5704,-4.97771
-406,-412,-13.1968,5.70093,0,0,0,0,0,0,0,-1,818,1436,-13.1968,-5.70096
-399,-412,-10.5506,0.771973,0,0,0,0,0,0,0,-1,825,1436,-10.5506,-0.771954
-392,-412,0,0,0,0,0,0,0,0,0,-1,832,1436,0,0
-385,-412,0,0,0,0,0,0,0,0,0,-1,839,1436,0,0
-378,-412,0,0,0,0,0,0,0,0,0,-1,846,1436,0,0
-371,-412,0,0,0,0,0,0,0,0,0,-1,853,1436,0,0
-364,-412,0,0,0,0,0,0,0,0,0,-1,860,1436,0,0
-357,-412,0,0,0,0,0,0,0,0,0,-1,867,1436,0,0
-350,-412,0,0,0,0,0,0,0,0,0,-1,874,1436,0,0
-343,-412,0,0,0,0,0,0,0,0,0,-1,881,1436,0,0
-336,-412,0,0,0,0,0,0,0,0,0,-1,888,1436,0,0
-329,-412,0,0,0,0,0,0,0,0,0,-1,895,1436,0,0
-322,-412,0,0,0,0,0,0,0,0,0,-1,902,1436,0,0
-315,-412,0,0,0,0,0,0,0,0,0,-1,909,1436,0,0
-308,-412,0,0,0,0,0,0,0,0,0,-1,916,1436,0,0
-301,-412,0,0,0,0,0,0,0,0,0,-1,923,1436,0,0
-294,-412,0,0,0,0,0,0,0,0,0,-1,930,1436,0,0
-287,-412,0,0,0,0,0,0,0,0,0,-1,937,1436,0,0
-280,-412,0,0,0,0,0,0,0,0,0,-1,944,1436,0,0
-273,-412,0,0,0,0,0,0,0,0,0,-1,951,1436,0,0
-266,-412,0,0,0,0,0,0,0,0,0,-1,958,1436,0,0
-259,-412,0,0,0,0,0,0,0,0,0,-1,965,1436,0,0
-252,-412,0,0,0,0,0,0,0,0,0,-1,972,1436,0,0
-245,-412,0,0,0,0,0,0,0,0,0,-1,979,1436,0,0
-238,-412,0,0,0,0,0,0,0,0,0,-1,986,1436,0,0
-231,-412,0,0,0,0,0,0,0,0,0,-1,993,1436,0,0
-224,-412,0,0,0,0,0,0,0,0,0,-1,1000,1436,0,0
-217,-412,0,0,0,0,0,0,0,0,0,-1,1007,1436,0,0
-210,-412,0,0,0,0,0,0,0,0,0,-1,1014,1436,0,0
-203,-412,0,0,0,0,0,0,0,0,0,-1,1021,1436,0,0
-196,-412,0,0,0,0,0,0,0,0,0,-1,1028,1436,0,0
-189,-412,0,0,0,0,0,0,0,0,0,-1,1035,1436,0,0
-182,-412,0,0,0,0,0,0,0,0,0,-1,1042,1436,0,0
-175,-412,0,0,0,0,0,0,0,0,0,-1,1049,1436,0,0
-168,-412,0,0,0,0,0,0,0,0,0,-1,1056,1436,0,0
-161,-412,0,0,0,0,0,0,0,0,0,-1,1063,1436,0,0
-154,-412,0,0,0,0,0,0,0,0,0,-1,1070,1436,0,0
-147,-412,0,0,0,0,0,0,0,0,0,-1,1077,1436,0,0
-140,-412,0,0,0,0,0,0,0,0,0,-1,1084,1436,0,0
-133,-412,0,0,0,0,0,0,0,0,0,-1,1091,1436,0,0
-126,-412,0,0,0,0,0,0,0,0,0,-1,1098,1436,0,0
-119,-412,0,0,0,0,0,0,0,0,0,-1,1105,1436,0,0
-112,-412,0,0,0,0,0,0,0,0,0,-1,1112,1436,0,0
-105,-412,0,0,0,0,0,0,0,0,0,-1,1119,1436,0,0
-98,-412,0,0,0,0,0,0,0,0,0,-1,1126,1436,0,0
-91,-412,0,0,0,0,0,0,0,0,0,-1,1133,1436,0,0
-84,-412,0,0,0,0,0,0,0,0,0,-1,1140,1436,0,0
-77,-412,0,0,0,0,0,0,0,0,0,-1,1147,1436,0,0
-70,-412,0,0,0,0,0,0,0,0,0,-1,1154,1436,0,0
-63,-412,0,0,0,0,0,0,0,0,0,-1,1161,1436,0,0
-56,-412,0,0,0,0,0,0,0,0,0,-1,1168,1436,0,0
-49,-412,0,0,0,0,0,0,0,0,0,-1,1175,1436,0,0
-42,-412,0,0,0,0,0,0,0,0,0,-1,1182,1436,0,0
-35,-412,0,0,0,0,0,0,0,0,0,-1,1189,1436,0,0
-28,-412,0,0,0,0,0,0,0,0,0,-1,1196,1436,0,0
-21,-412,0,0,0,0,0,0,0,0,0,-1,1203,1436,0,0
-14,-412,0,0,0,0,0,0,0,0,0,-1,1210,1436,0,0
-7,-412,0,0,0,0,0,0,0,0,0,-1,1217,1436,0,0
0,-412,0,0,0,0,0,0,0,0,0,-1,1224,1436,0,0
7,-412,0,0,0,0,0,0,0,0,0,-1,1231,1436,0,0
14,-412,0,0,0,0,0,0,0,0,0,-1,1238,1436,0,0
21,-412,0,0,0,0,0,0,0,0,0,-1,1245,1436,0,0
28,-412,0,0,0,0,0,0,0,0,0,-1,1252,1436,0,0
35,-412,0,0,0,0,0,0,0,0,0,-1,1259,1436,0,0
42,-412,0,0,0,0,0,0,0,0,0,-1,1266,1436,0,0
49,-412,0,0,0,0,0,0,0,0,0,-1,1273,1436,0,0
56,-412,0,0,0,0,0,0,0,0,0,-1,1280,1436,0,0
63,-412,0,0,0,0,0,0,0,0,0,-1,1287,1436,0,0
70,-412,0,0,0,0,0,0,0,0,0,-1,1294,1436,0,0
77,-412,0,0,0,0,0,0,0,0,0,-1,1301,1436,0,0
84,-412,0,0,0,0,0,0,0,0,0,-1,1308,1436,0,0
91,-412,0,0,0,0,0,0,0,0,0,-1,1315,1436,0,0
98,-412,0,0,0,0,0,0,0,0,0,-1,1322,1436,0,0
105,-412,0,0,0,0,0,0,0,0,0,-1,1329,1436,0,0
112,-412,0,0,0,0,0,0,0,0,0,-1,1336,1436,0,0
119,-412,0,0,0,0,0,0,0,0,0,-1,1343,1436,0,0
126,-412,0,0,0,0,0,0,0,0,0,-1,1350,1436,0,0
133,-412,0,0,0,0,0,0,0,0,0,-1,1357,1436,0,0
140,-412,0,0,0,0,0,0,0,0,0,-1,1364,1436,0,0
147,-412,0,0,0,0,0,0,0,0,0,-1,1371,1436,0,0
154,-412,0,0,0,0,0,0,0,0,0,-1,1378,1436,0,0
161,-412,0,0,0,0,0,0,0,0,0,-1,1385,1436,0,0
168,-412,0,0,0,0,0,0,0,0,0,-1,1392,1436,0,0
175,-412,0,0,0,0,0,0,0,0,0,-1,1399,1436,0,0
182,-412,0,0,0,0,0,0,0,0,0,-1,1406,1436,0,0
189,-412,0,0,0,0,0,0,0,0,0,-1,1413,1436,0,0
196,-412,0,0,0,0,0,0,0,0,0,-1,1420,1436,0,0
203,-412,0,0,0,0,0,0,0,0,0,-1,1427,1436,0,0
210,-412,0,0,0,0,0,0,0,0,0,-1,1434,1436,0,0
217,-412,0,0,0,0,0,0,0,0,0,-1,1441,1436,0,0
224,-412,0,0,0,0,0,0,0,0,0,-1,1448,1436,0,0
231,-412,0,0,0,0,0,0,0,0,0,-1,1455,1436,0,0
238,-412,0,0,0,0,0,0,0,0,0,-1,1462,1436,0,0
245,-412,0,0,0,0,0,0,0,0,0,-1,1469,1436,0,0
252,-412,0,0,0,0,0,0,0,0,0,-1,1476,1436,0,0
259,-412,0,0,0,0,0,0,0,0,0,-1,1483,1436,0,0
266,-412,0,0,0,0,0,0,0,0,0,-1,1490,1436,0,0
273,-412,0,0,0,0,0,0,0,0,0,-1,1497,1436,0,0
280,-412,0,0,0,0,0,0,0,0,0,-1,1504,1436,0,0
287,-412,0,0,0,0,0,0,0,0,0,-1,1511,1436,0,0
294,-412,0,0,0,0,0,0,0,0,0,-1,1518,1436,0,0
301,-412,0,0,0,0,0,0,0,0,0,-1,1525,1436,0,0
308,-412,0,0,0,0,0,0,0,0,0,-1,1532,1436,0,0
315,-412,0,0,0,0,0,0,0,0,0,-1,1539,1436,0,0
322,-412,0,0,0,0,0,0,0,0,0,-1,1546,1436,0,0
329,-412,0,0,0,0,0,0,0,0,0,-1,1553,1436,0,0
336,-412,0,0,0,0,0,0,0,0,0,-1,1560,1436,0,0
343,-412,0,0,0,0,0,0,0,0,0,-1,1567,1436,0,0
350,-412,0,0,0,0,0,0,0,0,0,-1,1574,1436,0,0
357,-412,0,0,0,0,0,0,0,0,0,-1,1581,1436,0,0
364,-412,0,0,0,0,0,0,0,0,0,-1,1588,1436,0,0
371,-412,0,0,0,0,0,0,0,0,0,-1,1595,1436,0,0
378,-412,0,0,0,0,0,0,0,0,0,-1,1602,1436,0,0
385,-412,0,0,0,0,0,0,0,0,0,-1,1609,1436,0,0
392,-412,0,0,0,0,0,0,0,0,0,-1,1616,1436,0,0
399,-412,0,0,0,0,0,0,0,0,0,-1,1623,1436,0,0
406,-412,0,0,0,0,0,0,0,0,0,-1,1630,1436,0,0
413,-412,0,0,0,0,0,0,0,0,0,-1,1637,1436,0,0
420,-412,0,0,0,0,0,0,0,0,0,-1,1644,1436,0,0
427,-412,0,0,0,0,0,0,0,0,0,-1,1651,1436,0,0
434,-412,0,0,0,0,0,0,0,0,0,-1,1658,1436,0,0
441,-412,0,0,0,0,0,0,0,0,0,-1,1665,1436,0,0
448,-412,0,0,0,0,0,0,0,0,0,-1,1672,1436,0,0
455,-412,0,0,0,0,0,0,0,0,0,-1,1679,1436,0,0
462,-412,0,0,0,0,0,0,0,0,0,-1,1686,1436,0,0
469,-412,0,0,0,0,0,0,0,0,0,-1,1693,1436,0,0
476,-412,0,0,0,0,0,0,0,0,0,-1,1700,1436,0,0
483,-412,0,0,0,0,0,0,0,0,0,-1,1707,1436,0,0
490,-412,0,0,0,0,0,0,0,0,0,-1,1714,1436,0,0
497,-412,0,0,0,0,0,0,0,0,0,-1,1721,1436,0,0
504,-412,0,0,0,0,0,0,0,0,0,-1,1728,1436,0,0
511,-412,0,0,0,0,0,0,0,0,0,-1,1735,1436,0,0
518,-412,13.5378,1.3866,0,0,0,0,0,0,0,-1,1742,1436,13.5379,-1.38663
525,-412,22.8384,2.03333,0,0,0,0,0,0,0,-1,1749,1436,22.8384,-2.03331
532,-412,21.8945,2.29199,0,0,0,0,0,0,0,-1,1756,1436,21.8946,-2.29203
539,-412,20.7961,2.47241,0,0,0,0,0,0,0,-1,1763,1436,20.7962,-2.47239
546,-412,19.4315,2.4071,0,0,0,0,0,0,0,-1,1770,1436,19.4315,-2.40706
553,-412,18.1896,2.19727,0,0,0,0,0,0,0,-1,1777,1436,18.1896,-2.19725
560,-412,16.8402,2.41418,0,0,0,0,0,0,0,-1,1784,1436,16.8402,-2.41425
567,-412,15.9099,3.43774,0,0,0,0,0,0,0,-1,1791,1436,15.9099,-3.43772
574,-412,15.1012,4.30872,0,0,0,0,0,0,0,-1,1798,1436,15.1012,-4.30869
581,-412,13.5082,7.22974,0,0,0,0,0,0,0,-1,1805,1436,13.5082,-7.22971
588,-412,16.7408,8.49084,0,0,0,0,0,0,0,-1,1812,1436,16.7408,-8.4909
595,-412,15.8263,8.74829,-0.0404485,-0.0255941,0.0206278,-0.0110971,-0.0549454,0.958202,0.0335487,0.042942,1819,1436,15.8263,-8.74826
602,-412,14.7776,9.1853,-0.0301008,-0.0186418,0.0160958,-0.00728613,-0.0414565,0.956387,0.0255575,0.0273744,1826,1436,14.7776,-9.18531
609,-412,14.5133,8.99817,-0.021255,-0.0128949,0.012266,-0.00411626,-0.0300337,0.949618,0.0188012,0.00909144,1833,1436,14.5133,-8.99811
616,-412,14.4752,8.75305,-0.0146651,-0.00884424,0.0091006,-0.00220001,-0.0213093,0.940162,0.0135326,0.00753327,1840,1436,14.4752,-8.75306
623,-412,14.4639,8.50024,-0.0100025,-0.00579395,0.006266,-0.00128835,-0.0145081,0.947395,0.00927253,0.0093831,1847,1436,14.4639,-8.50027
630,-412,14.4659,8.23389,-0.00648446,-0.00394589,0.0041407,-0.000884299,-0.00954605,0.93412,0.0060907,0.0108023,1854,1436,14.4659,-8.23387
637,-412,14.4768,7.97766,-0.00384411,-0.00253099,0.00262859,-0.000478205,-0.00589689,0.907783,0.00378195,0.0119734,1861,1436,14.4769,-7.97769
644,-412,14.4795,7.71826,-0.00178145,-0.00144235,0.00155974,-4.29767e-05,-0.00318082,0.839537,0.00210637,0.0128653,1868,1436,14.4794,-7.71831
651,-412,14.4769,7.40588,-8.61744e-05,-0.000680693,0.000785522,0.000456452,-0.00122332,0.604514,0.00100294,0.0226214,1875,1436,14.4769,-7.40587
658,-412,14.46,7.18774,0.00073391,-0.000329511,0.000581155,0.000989891,-0.000585492,0.4149,0.000919482,0.0162199,1882,1436,14.46,-7.18777
665,-412,14.4878,7.01135,0.000887457,-0.000281445,0.000812629,0.00130398,-0.000697968,0.473647,0.00117334,0.0212561,1889,1436,14.4878,-7.01131
672,-412,14.5293,6.75439,0.000869033,-0.000407504,0.00123587,0.00162172,-0.00116019,0.547037,0.00161349,0.0261538,1896,1436,14.5292,-6.7544
679,-412,14.5588,6.41614,0.000770075,-0.000817305,0.00183691,0.00197743,-0.00202466,0.581473,0.00231066,0.0361418,1903,1436,14.5588,-6.41611
686,-412,14.4922,6.01526,0,0,0,0,0,0,0,-1,1910,1436,14.4922,-6.01527
693,-412,11.9346,6.02344,0,0,0,0,0,0,0,-1,1917,1436,11.9346,-6.02343
700,-412,8.82764,5.8844,0,0,0,0,0,0,0,-1,1924,1436,8.82761,-5.88444
707,-412,6.59998,1.68994,0,0,0,0,0,0,0,-1,1931,1436,6.60002,-1.68995
714,-412,4.77283,-2.39832,0,0,0,0,0,0,0,-1,1938,1436,4.77288,2.39835
721,-412,0,0,0,0,0,0,0,0,0,-1,1945,1436,0,0
728,-412,0,0,0,0,0,0,0,0,0,-1,1952,1436,0,0
735,-412,0,0,0,0,0,0,0,0,0,-1,1959,1436,0,0
742,-412,0,0,0,0,0,0,0,0,0,-1,1966,1436,0,0
749,-412,0,0,0,0,0,0,0,0,0,-1,1973,1436,0,0
756,-412,0,0,0,0,0,0,0,0,0,-1,1980,1436,0,0
763,-412,0,0,0,0,0,0,0,0,0,-1,1987,1436,0,0
770,-412,0,0,0,0,0,0,0,0,0,-1,1994,1436,0,0
777,-412,0,0,0,0,0,0,0,0,0,-1,2001,1436,0,0
784,-412,0,0,0,0,0,0,0,0,0,-1,2008,1436,0,0
791,-412,0,0,0,0,0,0,0,0,0,-1,2015,1436,0,0
798,-412,0,0,0,0,0,0,0,0,0,-1,2022,1436,0,0
805,-412,0,0,0,0,0,0,0,0,0,-1,2029,1436,0,0
812,-412,0,0,0,0,0,0,0,0,0,-1,2036,1436,0,0
-700,-419,0,0,0,0,0,0,0,0,0,-1,524,1443,0,0
-693,-419,0,0,0,0,0,0,0,0,0,-1,531,1443,0,0
-686,-419,0,0,0,0,0,0,0,0,0,-1,538,1443,0,0
-679,-419,0,0,0,0,0,0,0,0,0,-1,545,1443,0,0
-672,-419,0,0,0,0,0,0,0,0,0,-1,552,1443,0,0
-665,-419,0,0,0,0,0,0,0,0,0,-1,559,1443,0,0
-658,-419,0,0,0,0,0,0,0,0,0,-1,566,1443,0,0
-651,-419,0,0,0,0,0,0,0,0,0,-1,573,1443,0,0
-644,-419,0,0,0,0,0,0,0,0,0,-1,580,1443,0,0
-637,-419,0,0,0,0,0,0,0,0,0,-1,587,1443,0,0
-630,-419,0,0,0,0,0,0,0,0,0,-1,594,1443,0,0
-623,-419,0,0,0,0,0,0,0,0,0,-1,601,1443,0,0
-616,-419,0,0,0,0,0,0,0,0,0,-1,608,1443,0,0
-609,-419,0,0,0,0,0,0,0,0,0,-1,615,1443,0,0
-602,-419,0,0,0,0,0,0,0,0,0,-1,622,1443,0,0
-595,-419,-11.4904,-0.622681,0,0,0,0,0,0,0,-1,629,1443,-11.4903,0.622714
-588,-419,-9.09369,0.742432,0,0,0,0,0,0,0,-1,636,1443,-9.09366,-0.742482
-581,-419,-6.39172,2.14673,0,0,0,0,0,0,0,-1,643,1443,-6.39175,-2.14668
-574,-419,-4.09772,3.54773,0,0,0,0,0,0,0,-1,650,1443,-4.09772,-3.54767
-567,-419,-6.14038,3.22498,0,0,0,0,0,0,0,-1,657,1443,-6.14037,-3.22497
-560,-419,-4.68323,4.74756,0,0,0,0,0,0,0,-1,664,1443,-4.68323,-4.74761
-553,-419,-4.50964,4.79199,0.0060234,-0.000905968,0.00120383,0.00622658,-0.00110915,0.167204,0.0045659,0.0449287,671,1443,-4.50963,-4.79194
-546,-419,-4.48376,4.69934,0.00400468,0.00100182,0.0020881,0.0050751,-6.86101e-05,0.473702,0.0034065,0.0461442,678,1443,-4.48376,-4.69933
-539,-419,-4.70605,4.75305,0.00281627,0.00207262,0.00265577,0.00512612,-0.000237232,0.715847,0.00349917,0.0346635,685,1443,-4.70604,-4.75301
-532,-419,-4.86725,5.02197,0.00217549,0.00253466,0.00296481,0.00532532,-0.00061517,0.815647,0.00377203,0.0160885,692,1443,-4.86724,-5.02193
-525,-419,-4.86029,5.35962,0.00186553,0.00258626,0.00295547,0.00520325,-0.000751466,0.846065,0.00374454,0.0140847,699,1443,-4.8603,-5.35961
-518,-419,-4.85199,5.6239,0.0017831,0.00210258,0.0026425,0.00459017,-0.000704486,0.815586,0.00331995,0.0174492,706,1443,-4.85198,-5.62385
-511,-419,-4.86548,5.90576,0.00170709,0.00135871,0.00203826,0.00357859,-0.000512793,0.742772,0.00257374,0.0189053,713,1443,-4.86546,-5.90573
-504,-419,-4.89911,6.1936,0.00162133,0.00027613,0.00104578,0.00219213,-0.000294674,0.499625,0.0015689,0.0176423,720,1443,-4.89913,-6.1936
-497,-419,-4.9024,6.45911,0.00153552,-0.00129549,-0.000589723,0.00165345,-0.00141342,-0.197374,0.00177247,0.0120436,727,1443,-4.9024,-6.45915
-490,-419,-4.90436,6.73401,0.00107871,-0.00293027,-0.00330756,0.00294177,-0.00479333,-0.512976,0.00450831,0.0104582,734,1443,-4.90437,-6.73403
-483,-419,-4.90686,7.0282,0.000434899,-0.00490071,-0.00640816,0.0047084,-0.00917421,-0.588153,0.00815219,0.00924687,741,1443,-4.90683,-7.02824
-476,-419,-4.89801,7.3313,-0.000863998,-0.00707416,-0.010579,0.00705624,-0.0149944,-0.642651,0.013003,0.00989851,748,1443,-4.89801,-7.33125
-469,-419,-4.85297,7.66418,-0.00262739,-0.00963572,-0.0157521,0.0100056,-0.0222687,-0.675952,0.0190766,0.0155401,755,1443,-4.85297,-7.66424
-462,-419,-4.7782,7.87964,-0.00518395,-0.0125462,-0.0226617,0.0140937,-0.0318238,-0.704883,0.0271612,0.0305325,762,1443,-4.77818,-7.87968
-455,-419,-5.07416,7.77808,-0.00894022,-0.0160256,-0.031998,0.0197106,-0.0446765,-0.730264,0.038094,0.0444493,769,1443,-5.07417,-7.77812
-448,-419,-5.31036,7.36572,-0.0143756,-0.0200191,-0.0441038,0.0269966,-0.0613913,-0.753451,0.0523028,0.0473275,776,1443,-5.31038,-7.36578
-441,-419,-5.55145,6.74194,-0.0218437,-0.0244377,-0.0593167,0.0361902,-0.0824716,-0.774467,0.0702249,0.0469537,783,1443,-5.55143,-6.7419
-434,-419,-5.73944,6.37537,0,0,0,0,0,0,0,-1,790,1443,-5.73946,-6.37532
-427,-419,-5.86658,7.24878,0,0,0,0,0,0,0,-1,797,1443,-5.86657,-7.24873
-420,-419,-8.74091,6.36597,0,0,0,0,0,0,0,-1,804,1443,-8.74089,-6.366
-413,-419,-9.88391,6.53955,0,0,0,0,0,0,0,-1,811,1443,-9.8839,-6.53955
-406,-419,-10.3372,2.75195,0,0,0,0,0,0,0,-1,818,1443,-10.3372,-2.75201
-399,-419,-11.5999,1.40002,0,0,0,0,0,0,0,-1,825,1443,-11.5999,-1.39998
-392,-419,0,0,0,0,0,0,0,0,0,-1,832,1443,0,0
-385,-419,0,0,0,0,0,0,0,0,0,-1,839,1443,0,0
-378,-419,0,0,0,0,0,0,0,0,0,-1,846,1443,0,0
-371,-419,0,0,0,0,0,0,0,0,0,-1,853,1443,0,0
-364,-419,0,0,0,0,0,0,0,0,0,-1,860,1443,0,0
-357,-419,0,0,0,0,0,0,0,0,0,-1,867,1443,0,0
-350,-419,0,0,0,0,0,0,0,0,0,-1,874,1443,0,0
-343,-419,0,0,0,0,0,0,0,0,0,-1,881,1443,0,0
-336,-419,0,0,0,0,0,0,0,0,0,-1,888,1443,0,0
-329,-419,0,0,0,0,0,0,0,0,0,-1,895,1443,0,0
-322,-419,0,0,0,0,0,0,0,0,0,-1,902,1443,0,0
-315,-419,0,0,0,0,0,0,0,0,0,-1,909,1443,0,0
-308,-419,0,0,0,0,0,0,0,0,0,-1,916,1443,0,0
-301,-419,0,0,0,0,0,0,0,0,0,-1,923,1443,0,0
-294,-419,0,0,0,0,0,0,0,0,0,-1,930,1443,0,0
-287,-419,0,0,0,0,0,0,0,0,0,-1,937,1443,0,0
-280,-419,0,0,0,0,0,0,0,0,0,-1,944,1443,0,0
-273,-419,0,0,0,0,0,0,0,0,0,-1,951,1443,0,0
-266,-419,0,0,0,0,0,0,0,0,0,-1,958,1443,0,0
-259,-419,0,0,0,0,0,0,0,0,0,-1,965,1443,0,0
-252,-419,0,0,0,0,0,0,0,0,0,-1,972,1443,0,0
-245,-419,0,0,0,0,0,0,0,0,0,-1,979,1443,0,0
-238,-419,0,0,0,0,0,0,0,0,0,-1,986,1443,0,0
-231,-419,0,0,0,0,0,0,0,0,0,-1,993,1443,0,0
-224,-419,0,0,0,0,0,0,0,0,0,-1,1000,1443,0,0
-217,-419,0,0,0,0,0,0,0,0,0,-1,1007,1443,0,0
-210,-419,0,0,0,0,0,0,0,0,0,-1,1014,1443,0,0
-203,-419,0,0,0,0,0,0,0,0,0,-1,1021,1443,0,0
-196,-419,0,0,0,0,0,0,0,0,0,-1,1028,1443,0,0
-189,-419,0,0,0,0,0,0,0,0,0,-1,1035,1443,0,0
-182,-419,0,0,0,0,0,0,0,0,0,-1,1042,1443,0,0
-175,-419,0,0,0,0,0,0,0,0,0,-1,1049,1443,0,0
-168,-419,0,0,0,0,0,0,0,0,0,-1,1056,1443,0,0
-161,-419,0,0,0,0,0,0,0,0,0,-1,1063,1443,0,0
-154,-419,0,0,0,0,0,0,0,0,0,-1,1070,1443,0,0
-147,-419,0,0,0,0,0,0,0,0,0,-1,1077,1443,0,0
-140,-419,0,0,0,0,0,0,0,0,0,-1,1084,1443,0,0
-133,-419,0,0,0,0,0,0,0,0,0,-1,1091,1443,0,0
-126,-419,0,0,0,0,0,0,0,0,0,-1,1098,1443,0,0
-119,-419,0,0,0,0,0,0,0,0,0,-1,1105,1443,0,0
-112,-419,0,0,0,0,0,0,0,0,0,-1,1112,1443,0,0
-105,-419,0,0,0,0,0,0,0,0,0,-1,1119,1443,0,0
-98,-419,0,0,0,0,0,0,0,0,0,-1,1126,1443,0,0
-91,-419,0,0,0,0,0,0,0,0,0,-1,1133,1443,0,0
-84,-419,0,0,0,0,0,0,0,0,0,-1,1140,1443,0,0
-77,-419,0,0,0,0,0,0,0,0,0,-1,1147,1443,0,0
-70,-419,0,0,0,0,0,0,0,0,0,-1,1154,1443,0,0
-63,-419,0,0,0,0,0,0,0,0,0,-1,1161,1443,0,0
-56,-419,0,0,0,0,0,0,0,0,0,-1,1168,1443,0,0
-49,-419,0,0,0,0,0,0,0,0,0,-1,1175,1443,0,0
-42,-419,0,0,0,0,0,0,0,0,0,-1,1182,1443,0,0
-35,-419,0,0,0,0,0,0,0,0,0,-1,1189,1443,0,0
-28,-419,0,0,0,0,0,0,0,0,0,-1,1196,1443,0,0
-21,-419,0,0,0,0,0,0,0,0,0,-1,1203,1443,0,0
-14,-419,0,0,0,0,0,0,0,0,0,-1,1210,1443,0,0
-7,-419,0,0,0,0,0,0,0,0,0,-1,1217,1443,0,0
0,-419,0,0,0,0,0,0,0,0,0,-1,1224,1443,0,0
7,-419,0,0,0,0,0,0,0,0,0,-1,1231,1443,0,0
14,-419,0,0,0,0,0,0,0,0,0,-1,1238,1443,0,0
21,-419,0,0,0,0,0,0,0,0,0,-1,1245,1443,0,0
28,-419,0,0,0,0,0,0,0,0,0,-1,1252,1443,0,0
35,-419,0,0,0,0,0,0,0,0,0,-1,1259,1443,0,0
42,-419,0,0,0,0,0,0,0,0,0,-1,1266,1443,0,0
49,-419,0,0,0,0,0,0,0,0,0,-1,1273,1443,0,0
56,-419,0,0,0,0,0,0,0,0,0,-1,1280,1443,0,0
63,-419,0,0,0,0,0,0,0,0,0,-1,1287,1443,0,0
70,-419,0,0,0,0,0,0,0,0,0,-1,1294,1443,0,0
77,-419,0,0,0,0,0,0,0,0,0,-1,1301,1443,0,0
84,-419,0,0,0,0,0,0,0,0,0,-1,1308,1443,0,0
91,-419,0,0,0,0,0,0,0,0,0,-1,1315,1443,0,0
98,-419,0,0,0,0,0,0,0,0,0,-1,1322,1443,0,0
105,-419,0,0,0,0,0,0,0,0,0,-1,1329,1443,0,0
112,-419,0,0,0,0,0,0,0,0,0,-1,1336,1443,0,0
119,-419,0,0,0,0,0,0,0,0,0,-1,1343,1443,0,0
126,-419,0,0,0,0,0,0,0,0,0,-1,1350,1443,0,0
133,-419,0,0,0,0,0,0,0,0,0,-1,1357,1443,0,0
140,-419,0,0,0,0,0,0,0,0,0,-1,1364,1443,0,0
147,-419,0,0,0,0,0,0,0,0,0,-1,1371,1443,0,0
154,-419,0,0,0,0,0,0,0,0,0,-1,1378,1443,0,0
161,-419,0,0,0,0,0,0,0,0,0,-1,1385,1443,0,0
168,-419,0,0,0,0,0,0,0,0,0,-1,1392,1443,0,0
175,-419,0,0,0,0,0,0,0,0,0,-1,1399,1443,0,0
182,-419,0,0,0,0,0,0,0,0,0,-1,1406,1443,0,0
189,-419,0,0,0,0,0,0,0,0,0,-1,1413,1443,0,0
196,-419,0,0,0,0,0,0,0,0,0,-1,1420,1443,0,0
203,-419,0,0,0,0,0,0,0,0,0,-1,1427,1443,0,0
210,-419,0,0,0,0,0,0,0,0,0,-1,1434,1443,0,0
217,-419,0,0,0,0,0,0,0,0,0,-1,1441,1443,0,0
224,-419,0,0,0,0,0,0,0,0,0,-1,1448,1443,0,0
231,-419,0,0,0,0,0,0,0,0,0,-1,1455,1443,0,0
238,-419,0,0,0,0,0,0,0,0,0,-1,1462,1443,0,0
245,-419,0,0,0,0,0,0,0,0,0,-1,1469,1443,0,0
252,-419,0,0,0,0,0,0,0,0,0,-1,1476,1443,0,0
259,-419,0,0,0,0,0,0,0,0,0,-1,1483,1443,0,0
266,-419,0,0,0,0,0,0,0,0,0,-1,1490,1443,0,0
273,-419,0,0,0,0,0,0,0,0,0,-1,1497,1443,0,0
280,-419,0,0,0,0,0,0,0,0,0,-1,1504,1443,0,0
287,-419,0,0,0,0,0,0,0,0,0,-1,1511,1443,0,0
294,-419,0,0,0,0,0,0,0,0,0,-1,1518,1443,0,0
301,-419,0,0,0,0,0,0,0,0,0,-1,1525,1443,0,0
308,-419,0,0,0,0,0,0,0,0,0,-1,1532,1443,0,0
315,-419,0,0,0,0,0,0,0,0,0,-1,1539,1443,0,0
322,-419,0,0,0,0,0,0,0,0,0,-1,1546,1443,0,0
329,-419,0,0,0,0,0,0,0,0,0,-1,1553,1443,0,0
336,-419,0,0,0,0,0,0,0,0,0,-1,1560,1443,0,0
343,-419,0,0,0,0,0,0,0,0,0,-1,1567,1443,0,0
350,-419,0,0,0,0,0,0,0,0,0,-1,1574,1443,0,0
357,-419,0,0,0,0,0,0,0,0,0,-1,1581,1443,0,0
364,-419,0,0,0,0,0,0,0,0,0,-1,1588,1443,0,0
371,-419,0,0,0,0,0,0,0,0,0,-1,1595,1443,0,0
378,-419,0,0,0,0,0,0,0,0,0,-1,1602,1443,0,0
385,-419,0,0,0,0,0,0,0,0,0,-1,1609,1443,0,0
392,-419,0,0,0,0,0,0,0,0,0,-1,1616,1443,0,0
399,-419,0,0,0,0,0,0,0,0,0,-1,1623,1443,0,0
406,-419,0,0,0,0,0,0,0,0,0,-1,1630,1443,0,0
413,-419,0,0,0,0,0,0,0,0,0,-1,1637,1443,0,0
420,-419,0,0,0,0,0,0,0,0,0,-1,1644,1443,0,0
427,-419,0,0,0,0,0,0,0,0,0,-1,1651,1443,0,0
434,-419,0,0,0,0,0,0,0,0,0,-1,1658,1443,0,0
441,-419,0,0,0,0,0,0,0,0,0,-1,1665,1443,0,0
448,-419,0,0,0,0,0,0,0,0,0,-1,1672,1443,0,0
455,-419,0,0,0,0,0,0,0,0,0,-1,1679,1443,0,0
462,-419,0,0,0,0,0,0,0,0,0,-1,1686,1443,0,0
469,-419,0,0,0,0,0,0,0,0,0,-1,1693,1443,0,0
476,-419,0,0,0,0,0,0,0,0,0,-1,1700,1443,0,0
483,-419,0,0,0,0,0,0,0,0,0,-1,1707,1443,0,0
490,-419,0,0,0,0,0,0,0,0,0,-1,1714,1443,0,0
497,-419,0,0,0,0,0,0,0,0,0,-1,1721,1443,0,0
504,-419,0,0,0,0,0,0,0,0,0,-1,1728,1443,0,0
511,-419,20.3005,3.7959,0,0,0,0,0,0,0,-1,1735,1443,20.3005,-3.79584
518,-419,21.3154,2.03027,0,0,0,0,0,0,0,-1,1742,1443,21.3155,-2.03029
525,-419,20.1991,2.2738,0,0,0,0,0,0,0,-1,1749,1443,20.1991,-2.2738
532,-419,21.035,2.73364,0,0,0,0,0,0,0,-1,1756,1443,21.035,-2.73368
539,-419,20.0294,2.92896,0,0,0,0,0,0,0,-1,1763,1443,20.0294,-2.929
546,-419,18.7786,2.69104,0,0,0,0,0,0,0,-1,1770,1443,18.7785,-2.69107
553,-419,17.1881,2.40491,0,0,0,0,0,0,0,-1,1777,1443,17.1881,-2.40488
560,-419,11.8199,8.26343,0,0,0,0,0,0,0,-1,1784,1443,11.82,-8.26341
567,-419,15.7008,5.70764,0,0,0,0,0,0,0,-1,1791,1443,15.7009,-5.70764
574,-419,13.748,7.5249,0,0,0,0,0,0,0,-1,1798,1443,13.7481,-7.5249
581,-419,13.1829,7.57349,0,0,0,0,0,0,0,-1,1805,1443,13.1829,-7.57347
588,-419,15.3225,9.84338,0,0,0,0,0,0,0,-1,1812,1443,15.3225,-9.84333
595,-419,14.808,9.5365,-0.0332096,-0.0215502,0.0166158,-0.00977109,-0.0449887,0.954117,0.0273241,0.037631,1819,1443,14.808,-9.53647
602,-419,14.2693,9.25659,-0.0249272,-0.0156962,0.0130885,-0.00643326,-0.0341902,0.95491,0.0209804,0.0158392,1826,1443,14.2693,-9.25663
609,-419,14.233,9.01111,-0.0176084,-0.0107488,0.0100188,-0.00358897,-0.0247682,0.950314,0.0154554,0.0107221,1833,1443,14.233,-9.01113
616,-419,14.2263,8.76868,-0.0121441,-0.0072523,0.00750063,-0.00180884,-0.0175875,0.943007,0.011171,0.0114957,1840,1443,14.2263,-8.76867
623,-419,14.2305,8.49048,-0.00833257,-0.00463255,0.00519451,-0.000968445,-0.0119967,0.956468,0.00769531,0.00957794,1847,1443,14.2304,-8.49042
630,-419,14.2274,8.23621,-0.00538452,-0.00311554,0.003419,-0.000647719,-0.00785234,0.945592,0.0050329,0.0110772,1854,1443,14.2274,-8.23625
637,-419,14.2214,7.99097,-0.00308656,-0.00192618,0.00213188,-0.000296949,-0.00471579,0.918255,0.0030497,0.0114298,1861,1443,14.2214,-7.99098
644,-419,14.2185,7.74475,-0.00123483,-0.00100457,0.00121665,0.000102391,-0.00234179,0.832572,0.00159642,0.0101282,1868,1443,14.2185,-7.74472
651,-419,14.2217,7.49805,0.00024109,-0.00040813,0.000620595,0.000616844,-0.000783884,0.544435,0.000810625,0.0105615,1875,1443,14.2216,-7.49809
658,-419,14.2179,7.25537,0.000878371,-0.000170803,0.000584694,0.00113932,-0.000431747,0.419765,0.000937216,0.013262,1882,1443,14.2179,-7.25535
665,-419,14.2349,7.02039,0.000993815,-0.000111923,0.000887823,0.00148684,-0.000604948,0.506917,0.00124296,0.0201746,1889,1443,14.2349,-7.02042
672,-419,14.2638,6.68799,0.00101148,-0.000194603,0.00138668,0.00192056,-0.00110369,0.580293,0.00176716,0.025377,1896,1443,14.2638,-6.68794
679,-419,14.1356,6.50525,0.000952661,-0.000533234,0.0020908,0.00242859,-0.00200916,0.614685,0.00256595,0.047486,1903,1443,14.1357,-6.50526
686,-419,13.8801,6.50366,0,0,0,0,0,0,0,-1,1910,1443,13.8801,-6.50364
693,-419,8.76086,5.60535,0,0,0,0,0,0,0,-1,1917,1443,8.76091,-5.6054
700,-419,11.0498,4.85156,0,0,0,0,0,0,0,-1,1924,1443,11.0498,-4.85153
707,-419,9.5752,1.80042,0,0,0,0,0,0,0,-1,1931,1443,9.57523,-1.80037
714,-419,5.77576,-1.25061,0,0,0,0,0,0,0,-1,1938,1443,5.7757,1.25056
721,-419,0,0,0,0,0,0,0,0,0,-1,1945,1443,0,0
728,-419,0,0,0,0,0,0,0,0,0,-1,1952,1443,0,0
735,-419,0,0,0,0,0,0,0,0,0,-1,1959,1443,0,0
742,-419,0,0,0,0,0,0,0,0,0,-1,1966,1443,0,0
749,-419,0,0,0,0,0,0,0,0,0,-1,1973,1443,0,0
756,-419,0,0,0,0,0,0,0,0,0,-1,1980,1443,0,0
763,-419,0,0,0,0,0,0,0,0,0,-1,1987,1443,0,0
770,-419,0,0,0,0,0,0,0,0,0,-1,1994,1443,0,0
777,-419,0,0,0,0,0,0,0,0,0,-1,2001,1443,0,0
784,-419,0,0,0,0,0,0,0,0,0,-1,2008,1443,0,0
791,-419,0,0,0,0,0,0,0,0,0,-1,2015,1443,0,0
798,-419,0,0,0,0,0,0,0,0,0,-1,2022,1443,0,0
805,-419,0,0,0,0,0,0,0,0,0,-1,2029,1443,0,0
812,-419,0,0,0,0,0,0,0,0,0,-1,2036,1443,0,0
-700,-426,0,0,0,0,0,0,0,0,0,-1,524,1450,0,0
-693,-426,0,0,0,0,0,0,0,0,0,-1,531,1450,0,0
-686,-426,0,0,0,0,0,0,0,0,0,-1,538,1450,0,0
-679,-426,0,0,0,0,0,0,0,0,0,-1,545,1450,0,0
-672,-426,0,0,0,0,0,0,0,0,0,-1,552,1450,0,0
-665,-426,0,0,0,0,0,0,0,0,0,-1,559,1450,0,0
-658,-426,0,0,0,0,0,0,0,0,0,-1,566,1450,0,0
-651,-426,0,0,0,0,0,0,0,0,0,-1,573,1450,0,0
-644,-426,0,0,0,0,0,0,0,0,0,-1,580,1450,0,0
-637,-426,0,0,0,0,0,0,0,0,0,-1,587,1450,0,0
-630,-426,0,0,0,0,0,0,0,0,0,-1,594,1450,0,0
-623,-426,0,0,0,0,0,0,0,0,0,-1,601,1450,0,0
-616,-426,0,0,0,0,0,0,0,0,0,-1,608,1450,0,0
-609,-426,0,0,0,0,0,0,0,0,0,-1,615,1450,0,0
-602,-426,0,0,0,0,0,0,0,0,0,-1,622,1450,0,0
-595,-426,0,0,0,0,0,0,0,0,0,-1,629,1450,0,0
-588,-426,-10.184,-0.554321,0,0,0,0,0,0,0,-1,636,1450,-10.184,0.554321
-581,-426,-7.3349,1.48157,0,0,0,0,0,0,0,-1,643,1450,-7.33491,-1.48152
-574,-426,-5.02856,2.89319,0,0,0,0,0,0,0,-1,650,1450,-5.02858,-2.89319
-567,-426,-3.04797,1.72644,0,0,0,0,0,0,0,-1,657,1450,-3.04797,-1.72639
-560,-426,-5.55682,3.44397,0,0,0,0,0,0,0,-1,664,1450,-5.55684,-3.44399
-553,-426,-4.15692,4.94214,0,0,0,0,0,0,0,-1,671,1450,-4.15695,-4.94208
-546,-426,-4.11731,4.81189,0,0,0,0,0,0,0,-1,678,1450,-4.11732,-4.81185
-539,-426,-4.32208,4.74585,0.00476406,0.00368288,0.00590833,0.0101565,-0.00170954,0.739777,0.00740689,0.0417512,685,1450,-4.32208,-4.74581
-532,-426,-4.5025,5.02429,0.00368312,0.00390113,0.0057104,0.00950357,-0.00191932,0.794941,0.00706295,0.0277379,692,1450,-4.50253,-5.02428
-525,-426,-4.5813,5.32874,0.00298118,0.00372754,0.00521828,0.00858597,-0.00187725,0.821094,0.00644157,0.0146643,699,1450,-4.58133,-5.32868
-518,-426,-4.56763,5.63391,0.00254961,0.00308466,0.00444394,0.00726912,-0.00163485,0.815462,0.00547303,0.0160936,706,1450,-4.56762,-5.63391
-511,-426,-4.57825,5.91321,0.00218583,0.00222828,0.0034539,0.00566101,-0.00124691,0.788471,0.00425105,0.0148977,713,1450,-4.57825,-5.91318
-504,-426,-4.6059,6.20044,0.00187103,0.00109172,0.00219307,0.00370879,-0.000746041,0.697478,0.00275509,0.0145642,720,1450,-4.60589,-6.20048
-497,-426,-4.61414,6.47705,0.00161304,-0.00041479,0.000471612,0.00171735,-0.000519107,0.217686,0.00135159,0.0120911,727,1450,-4.61413,-6.4771
-490,-426,-4.60687,6.76587,0.00105581,-0.00200259,-0.00215364,0.00216794,-0.00311472,-0.476678,0.00306623,0.0119136,734,1450,-4.60686,-6.76585
-483,-426,-4.61346,7.04785,0.000361908,-0.00386407,-0.00508881,0.00375897,-0.00726114,-0.588618,0.00646867,0.0112757,741,1450,-4.61349,-7.04785
-476,-426,-4.61682,7.33313,-0.000954414,-0.00587696,-0.00892763,0.00584501,-0.0126764,-0.650894,0.0109331,0.00883639,748,1450,-4.6168,-7.33314
-469,-426,-4.60907,7.61816,-0.00259727,-0.0083177,-0.0134804,0.008323,-0.019238,-0.680861,0.016323,0.00751696,755,1450,-4.60906,-7.61818
-462,-426,-4.50592,7.96729,-0.00478673,-0.0110101,-0.0192943,0.0116452,-0.0274421,-0.705449,0.0231732,0.0177028,762,1450,-4.50589,-7.96729
-455,-426,-4.58685,7.93665,-0.00794695,-0.0141749,-0.0269572,0.0160755,-0.0381973,-0.727896,0.0321904,0.0373176,769,1450,-4.58687,-7.93661
-448,-426,-4.69257,7.55237,-0.0124468,-0.0179377,-0.0367683,0.0216784,-0.0520629,-0.748133,0.0437627,0.0455242,776,1450,-4.69255,-7.5524
-441,-426,-4.8847,6.63379,-0.0185647,-0.0222891,-0.049033,0.0286414,-0.0694953,-0.766418,0.0582728,0.0470575,783,1450,-4.88469,-6.63379
-434,-426,-4.84772,6.37329,0,0,0,0,0,0,0,-1,790,1450,-4.84775,-6.3733
-427,-426,-8.29462,8.21924,0,0,0,0,0,0,0,-1,797,1450,-8.29461,-8.21924
-420,-426,-5.00806,7.83728,0,0,0,0,0,0,0,-1,804,1450,-5.00805,-7.83733
-413,-426,-10.1148,5.0415,0,0,0,0,0,0,0,-1,811,1450,-10.1148,-5.04152
-406,-426,-11.4199,3.6438,0,0,0,0,0,0,0,-1,818,1450,-11.4198,-3.64382
-399,-426,-12.7595,2.29004,0,0,0,0,0,0,0,-1,825,1450,-12.7595,-2.29003
-392,-426,-12.4147,0.537354,0,0,0,0,0,0,0,-1,832,1450,-12.4147,-0.53731
-385,-426,0,0,0,0,0,0,0,0,0,-1,839,1450,0,0
-378,-426,0,0,0,0,0,0,0,0,0,-1,846,1450,0,0
-371,-426,0,0,0,0,0,0,0,0,0,-1,853,1450,0,0
-364,-426,0,0,0,0,0,0,0,0,0,-1,860,1450,0,0
-357,-426,0,0,0,0,0,0,0,0,0,-1,867,1450,0,0
-350,-426,0,0,0,0,0,0,0,0,0,-1,874,1450,0,0
-343,-426,0,0,0,0,0,0,0,0,0,-1,881,1450,0,0
-336,-426,0,0,0,0,0,0,0,0,0,-1,888,1450,0,0
-329,-426,0,0,0,0,0,0,0,0,0,-1,895,1450,0,0
-322,-426,0,0,0,0,0,0,0,0,0,-1,902,1450,0,0
-315,-426,0,0,0,0,0,0,0,0,0,-1,909,1450,0,0
-308,-426,0,0,0,0,0,0,0,0,0,-1,916,1450,0,0
-301,-426,0,0,0,0,0,0,0,0,0,-1,923,1450,0,0
-294,-426,0,0,0,0,0,0,0,0,0,-1,930,1450,0,0
-287,-426,0,0,0,0,0,0,0,0,0,-1,937,1450,0,0
-280,-426,0,0,0,0,0,0,0,0,0,-1,944,1450,0,0
-273,-426,0,0,0,0,0,0,0,0,0,-1,951,1450,0,0
-266,-426,0,0,0,0,0,0,0,0,0,-1,958,1450,0,0
-259,-426,0,0,0,0,0,0,0,0,0,-1,965,1450,0,0
-252,-426,0,0,0,0,0,0,0,0,0,-1,972,1450,0,0
-245,-426,0,0,0,0,0,0,0,0,0,-1,979,1450,0,0
-238,-426,0,0,0,0,0,0,0,0,0,-1,986,1450,0,0
-231,-426,0,0,0,0,0,0,0,0,0,-1,993,1450,0,0
-224,-426,0,0,0,0,0,0,0,0,0,-1,1000,1450,0,0
-217,-426,0,0,0,0,0,0,0,0,0,-1,1007,1450,0,0
-210,-426,0,0,0,0,0,0,0,0,0,-1,1014,1450,0,0
-203,-426,0,0,0,0,0,0,0,0,0,-1,1021,1450,0,0
-196,-426,0,0,0,0,0,0,0,0,0,-1,1028,1450,0,0
-189,-426,0,0,0,0,0,0,0,0,0,-1,1035,1450,0,0
-182,-426,0,0,0,0,0,0,0,0,0,-1,1042,1450,0,0
-175,-426,0,0,0,0,0,0,0,0,0,-1,1049,1450,0,0
-168,-426,0,0,0,0,0,0,0,0,0,-1,1056,1450,0,0
-161,-426,0,0,0,0,0,0,0,0,0,-1,1063,1450,0,0
-154,-426,0,0,0,0,0,0,0,0,0,-1,1070,1450,0,0
-147,-426,0,0,0,0,0,0,0,0,0,-1,1077,1450,0,0
-140,-426,0,0,0,0,0,0,0,0,0,-1,1084,1450,0,0
-133,-426,0,0,0,0,0,0,0,0,0,-1,1091,1450,0,0
-126,-426,0,0,0,0,0,0,0,0,0,-1,1098,1450,0,0
-119,-426,0,0,0,0,0,0,0,0,0,-1,1105,1450,0,0
-112,-426,0,0,0,0,0,0,0,0,0,-1,1112,1450,0,0
-105,-426,0,0,0,0,0,0,0,0,0,-1,1119,1450,0,0
-98,-426,0,0,0,0,0,0,0,0,0,-1,1126,1450,0,0
-91,-426,0,0,0,0,0,0,0,0,0,-1,1133,1450,0,0
-84,-426,0,0,0,0,0,0,0,0,0,-1,1140,1450,0,0
-77,-426,0,0,0,0,0,0,0,0,0,-1,1147,1450,0,0
-70,-426,0,0,0,0,0,0,0,0,0,-1,1154,1450,0,0
-63,-426,0,0,0,0,0,0,0,0,0,-1,1161,1450,0,0
-56,-426,0,0,0,0,0,0,0,0,0,-1,1168,1450,0,0
-49,-426,0,0,0,0,0,0,0,0,0,-1,1175,1450,0,0
-42,-426,0,0,0,0,0,0,0,0,0,-1,1182,1450,0,0
-35,-426,0,0,0,0,0,0,0,0,0,-1,1189,1450,0,0
-28,-426,0,0,0,0,0,0,0,0,0,-1,1196,1450,0,0
-21,-426,0,0,0,0,0,0,0,0,0,-1,1203,1450,0,0
-14,-426,0,0,0,0,0,0,0,0,0,-1,1210,1450,0,0
-7,-426,0,0,0,0,0,0,0,0,0,-1,1217,1450,0,0
0,-426,0,0,0,0,0,0,0,0,0,-1,1224,1450,0,0
7,-426,0,0,0,0,0,0,0,0,0,-1,1231,1450,0,0
14,-426,0,0,0,0,0,0,0,0,0,-1,1238,1450,0,0
21,-426,0,0,0,0,0,0,0,0,0,-1,1245,1450,0,0
28,-426,0,0,0,0,0,0,0,0,0,-1,1252,1450,0,0
35,-426,0,0,0,0,0,0,0,0,0,-1,1259,1450,0,0
42,-426,0,0,0,0,0,0,0,0,0,-1,1266,1450,0,0
49,-426,0,0,0,0,0,0,0,0,0,-1,1273,1450,0,0
56,-426,0,0,0,0,0,0,0,0,0,-1,1280,1450,0,0
63,-426,0,0,0,0,0,0,0,0,0,-1,1287,1450,0,0
70,-426,0,0,0,0,0,0,0,0,0,-1,1294,1450,0,0
77,-426,0,0,0,0,0,0,0,0,0,-1,1301,1450,0,0
84,-426,0,0,0,0,0,0,0,0,0,-1,1308,1450,0,0
91,-426,0,0,0,0,0,0,0,0,0,-1,1315,1450,0,0
98,-426,0,0,0,0,0,0,0,0,0,-1,1322,1450,0,0
105,-426,0,0,0,0,0,0,0,0,0,-1,1329,1450,0,0
112,-426,0,0,0,0,0,0,0,0,0,-1,1336,1450,0,0
119,-426,0,0,0,0,0,0,0,0,0,-1,1343,1450,0,0
126,-426,0,0,0,0,0,0,0,0,0,-1,1350,1450,0,0
133,-426,0,0,0,0,0,0,0,0,0,-1,1357,1450,0,0
140,-426,0,0,0,0,0,0,0,0,0,-1,1364,1450,0,0
147,-426,0,0,0,0,0,0,0,0,0,-1,1371,1450,0,0
154,-426,0,0,0,0,0,0,0,0,0,-1,1378,1450,0,0
161,-426,0,0,0,0,0,0,0,0,0,-1,1385,1450,0,0
168,-426,0,0,0,0,0,0,0,0,0,-1,1392,1450,0,0
175,-426,0,0,0,0,0,0,0,0,0,-1,1399,1450,0,0
182,-426,0,0,0,0,0,0,0,0,0,-1,1406,1450,0,0
189,-426,0,0,0,0,0,0,0,0,0,-1,1413,1450,0,0
196,-426,0,0,0,0,0,0,0,0,0,-1,1420,1450,0,0
203,-426,0,0,0,0,0,0,0,0,0,-1,1427,1450,0,0
210,-426,0,0,0,0,0,0,0,0,0,-1,1434,1450,0,0
217,-426,0,0,0,0,0,0,0,0,0,-1,1441,1450,0,0
224,-426,0,0,0,0,0,0,0,0,0,-1,1448,1450,0,0
231,-426,0,0,0,0,0,0,0,0,0,-1,1455,1450,0,0
238,-426,0,0,0,0,0,0,0,0,0,-1,1462,1450,0,0
245,-426,0,0,0,0,0,0,0,0,0,-1,1469,1450,0,0
252,-426,0,0,0,0,0,0,0,0,0,-1,1476,1450,0,0
259,-426,0,0,0,0,0,0,0,0,0,-1,1483,1450,0,0
266,-426,0,0,0,0,0,0,0,0,0,-1,1490,1450,0,0
273,-426,0,0,0,0,0,0,0,0,0,-1,1497,1450,0,0
280,-426,0,0,0,0,0,0,0,0,0,-1,1504,1450,0,0
287,-426,0,0,0,0,0,0,0,0,0,-1,1511,1450,0,0
294,-426,0,0,0,0,0,0,0,0,0,-1,1518,1450,0,0
301,-426,0,0,0,0,0,0,0,0,0,-1,1525,1450,0,0
308,-426,0,0,0,0,0,0,0,0,0,-1,1532,1450,0,0
315,-426,0,0,0,0,0,0,0,0,0,-1,1539,1450,0,0
322,-426,0,0,0,0,0,0,0,0,0,-1,1546,1450,0,0
329,-426,0,0,0,0,0,0,0,0,0,-1,1553,1450,0,0
336,-426,0,0,0,0,0,0,0,0,0,-1,1560,1450,0,0
343,-426,0,0,0,0,0,0,0,0,0,-1,1567,1450,0,0
350,-426,0,0,0,0,0,0,0,0,0,-1,1574,1450,0,0
357,-426,0,0,0,0,0,0,0,0,0,-1,1581,1450,0,0
364,-426,0,0,0,0,0,0,0,0,0,-1,1588,1450,0,0
371,-426,0,0,0,0,0,0,0,0,0,-1,1595,1450,0,0
378,-426,0,0,0,0,0,0,0,0,0,-1,1602,1450,0,0
385,-426,0,0,0,0,0,0,0,0,0,-1,1609,1450,0,0
392,-426,0,0,0,0,0,0,0,0,0,-1,1616,1450,0,0
399,-426,0,0,0,0,0,0,0,0,0,-1,1623,1450,0,0
406,-426,0,0,0,0,0,0,0,0,0,-1,1630,1450,0,0
413,-426,0,0,0,0,0,0,0,0,0,-1,1637,1450,0,0
420,-426,0,0,0,0,0,0,0,0,0,-1,1644,1450,0,0
427,-426,0,0,0,0,0,0,0,0,0,-1,1651,1450,0,0
434,-426,0,0,0,0,0,0,0,0,0,-1,1658,1450,0,0
441,-426,0,0,0,0,0,0,0,0,0,-1,1665,1450,0,0
448,-426,0,0,0,0,0,0,0,0,0,-1,1672,1450,0,0
455,-426,0,0,0,0,0,0,0,0,0,-1,1679,1450,0,0
462,-426,0,0,0,0,0,0,0,0,0,-1,1686,1450,0,0
469,-426,0,0,0,0,0,0,0,0,0,-1,1693,1450,0,0
476,-426,0,0,0,0,0,0,0,0,0,-1,1700,1450,0,0
483,-426,0,0,0,0,0,0,0,0,0,-1,1707,1450,0,0
490,-426,0,0,0,0,0,0,0,0,0,-1,1714,1450,0,0
497,-426,0,0,0,0,0,0,0,0,0,-1,1721,1450,0,0
504,-426,20.6873,3.38367,0,0,0,0,0,0,0,-1,1728,1450,20.6873,-3.38361
511,-426,19.6676,3.53748,0,0,0,0,0,0,0,-1,1735,1450,19.6676,-3.53749
518,-426,18.6853,3.32288,0,0,0,0,0,0,0,-1,1742,1450,18.6853,-3.3229
525,-426,18.9552,2.71033,0,0,0,0,0,0,0,-1,1749,1450,18.9552,-2.71034
532,-426,17.764,2.81616,0,0,0,0,0,0,0,-1,1756,1450,17.764,-2.81611
539,-426,16.9565,3.07593,0,0,0,0,0,0,0,-1,1763,1450,16.9566,-3.07593
546,-426,16.1915,3.49744,0,0,0,0,0,0,0,-1,1770,1450,16.1916,-3.4975
553,-426,14.0023,8.82373,0,0,0,0,0,0,0,-1,1777,1450,14.0023,-8.82378
560,-426,13.2921,9.22375,0,0,0,0,0,0,0,-1,1784,1450,13.2921,-9.22373
567,-426,11.1727,8.76721,0,0,0,0,0,0,0,-1,1791,1450,11.1727,-8.76724
574,-426,12.8683,8.1709,0,0,0,0,0,0,0,-1,1798,1450,12.8683,-8.17084
581,-426,14.0277,9.49695,0,0,0,0,0,0,0,-1,1805,1450,14.0278,-9.49691
588,-426,14.0911,9.36792,0,0,0,0,0,0,0,-1,1812,1450,14.0911,-9.36795
595,-426,14.0394,9.51416,-0.0265098,-0.0178289,0.0131882,-0.00828523,-0.0360535,0.944374,0.0218051,0.0265767,1819,1450,14.0395,-9.51413
602,-426,13.9648,9.2384,-0.0198955,-0.0129118,0.0103956,-0.00543726,-0.02737,0.947425,0.0167314,0.0149856,1826,1450,13.9648,-9.23839
609,-426,13.9762,8.99402,-0.013873,-0.0086997,0.00790469,-0.00296921,-0.0196035,0.943522,0.0122003,0.0116428,1833,1450,13.9762,-8.99407
616,-426,13.9838,8.74817,-0.00938656,-0.00571358,0.00590764,-0.00136356,-0.0137366,0.936096,0.00873873,0.0133199,1840,1450,13.9838,-8.74818
623,-426,13.9915,8.47546,-0.00632746,-0.00350981,0.00406343,-0.000617913,-0.00921936,0.952268,0.00595097,0.0108743,1847,1450,13.9914,-8.47545
630,-426,13.9834,8.23035,-0.00392224,-0.00231945,0.00261253,-0.000388158,-0.00585353,0.934218,0.00377962,0.0113248,1854,1450,13.9834,-8.23037
637,-426,13.974,7.98779,-0.00199515,-0.00137732,0.00154946,-0.000106276,-0.00326619,0.883794,0.00214292,0.011828,1861,1450,13.974,-7.98775
644,-426,13.9445,7.74622,-0.000418772,-0.000652459,0.000801402,0.00027426,-0.00134549,0.713009,0.00100102,0.0113384,1868,1450,13.9444,-7.74625
651,-426,13.9301,7.4967,0.000728902,-0.000248689,0.000406328,0.000875735,-0.000395522,0.346764,0.000751213,0.0109562,1875,1450,13.93,-7.49667
658,-426,13.9501,7.21057,0.00106813,-0.000148767,0.000546781,0.00127771,-0.000358352,0.366035,0.00099305,0.0121301,1882,1450,13.95,-7.21061
665,-426,14.0063,6.88171,0.00104617,-7.26112e-05,0.000914171,0.00155852,-0.000584961,0.510834,0.00127938,0.0190704,1889,1450,14.0064,-6.88169
672,-426,13.9639,6.5636,0.000991237,-7.64607e-05,0.00146768,0.00201914,-0.00110437,0.610968,0.00182896,0.0331116,1896,1450,13.9639,-6.56355
679,-426,13.6936,6.56213,0,0,0,0,0,0,0,-1,1903,1450,13.6936,-6.56219
686,-426,12.615,7.23596,0,0,0,0,0,0,0,-1,1910,1450,12.615,-7.23598
693,-426,11.8607,6.45215,0,0,0,0,0,0,0,-1,1917,1450,11.8607,-6.45215
700,-426,9.24304,2.95447,0,0,0,0,0,0,0,-1,1924,1450,9.24305,-2.95442
707,-426,8.44519,-1.21448,0,0,0,0,0,0,0,-1,1931,1450,8.44514,1.21454
714,-426,0,0,0,0,0,0,0,0,0,-1,1938,1450,0,0
721,-426,0,0,0,0,0,0,0,0,0,-1,1945,1450,0,0
728,-426,0,0,0,0,0,0,0,0,0,-1,1952,1450,0,0
735,-426,0,0,0,0,0,0,0,0,0,-1,1959,1450,0,0
742,-426,0,0,0,0,0,0,0,0,0,-1,1966,1450,0,0
749,-426,0,0,0,0,0,0,0,0,0,-1,1973,1450,0,0
756,-426,0,0,0,0,0,0,0,0,0,-1,1980,1450,0,0
763,-426,0,0,0,0,0,0,0,0,0,-1,1987,1450,0,0
770,-426,0,0,0,0,0,0,0,0,0,-1,1994,1450,0,0
777,-426,0,0,0,0,0,0,0,0,0,-1,2001,1450,0,0
784,-426,0,0,0,0,0,0,0,0,0,-1,2008,1450,0,0
791,-426,0,0,0,0,0,0,0,0,0,-1,2015,1450,0,0
798,-426,0,0,0,0,0,0,0,0,0,-1,2022,1450,0,0
805,-426,0,0,0,0,0,0,0,0,0,-1,2029,1450,0,0
812,-426,0,0,0,0,0,0,0,0,0,-1,2036,1450,0,0
-700,-433,0,0,0,0,0,0,0,0,0,-1,524,1457,0,0
-693,-433,0,0,0,0,0,0,0,0,0,-1,531,1457,0,0
-686,-433,0,0,0,0,0,0,0,0,0,-1,538,1457,0,0
-679,-433,0,0,0,0,0,0,0,0,0,-1,545,1457,0,0
-672,-433,0,0,0,0,0,0,0,0,0,-1,552,1457,0,0
-665,-433,0,0,0,0,0,0,0,0,0,-1,559,1457,0,0
-658,-433,0,0,0,0,0,0,0,0,0,-1,566,1457,0,0
-651,-433,0,0,0,0,0,0,0,0,0,-1,573,1457,0,0
-644,-433,0,0,0,0,0,0,0,0,0,-1,580,1457,0,0
-637,-433,0,0,0,0,0,0,0,0,0,-1,587,1457,0,0
-630,-433,0,0,0,0,0,0,0,0,0,-1,594,1457,0,0
-623,-433,0,0,0,0,0,0,0,0,0,-1,601,1457,0,0
-616,-433,0,0,0,0,0,0,0,0,0,-1,608,1457,0,0
-609,-433,0,0,0,0,0,0,0,0,0,-1,615,1457,0,0
-602,-433,0,0,0,0,0,0,0,0,0,-1,622,1457,0,0
-595,-433,0,0,0,0,0,0,0,0,0,-1,629,1457,0,0
-588,-433,-10.3756,-0.467041,0,0,0,0,0,0,0,-1,636,1457,-10.3756,0.467081
-581,-433,-8.12201,0.884033,0,0,0,0,0,0,0,-1,643,1457,-8.12204,-0.884056
-574,-433,-5.86847,2.23523,0,0,0,0,0,0,0,-1,650,1457,-5.86844,-2.23519
-567,-433,-5.42255,1.16833,0,0,0,0,0,0,0,-1,657,1457,-5.42254,-1.1683
-560,-433,-6.84027,1.86414,0,0,0,0,0,0,0,-1,664,1457,-6.84026,-1.86412
-553,-433,-5.74017,1.79163,0,0,0,0,0,0,0,-1,671,1457,-5.74015,-1.79166
-546,-433,-4.19904,3.78625,0,0,0,0,0,0,0,-1,678,1457,-4.19902,-3.7863
-539,-433,-4.19159,4.42859,0.00754557,0.00579866,0.0107421,0.0174497,-0.00410547,0.744832,0.0132159,0.0464372,685,1457,-4.19161,-4.42858
-532,-433,-4.16132,5.00342,0.00586246,0.00575048,0.00962416,0.0154308,-0.00381785,0.782489,0.0117681,0.0324152,692,1457,-4.16131,-5.00336
-525,-433,-4.2738,5.3479,0.00463687,0.00531177,0.00829062,0.0132718,-0.00332316,0.805738,0.0101388,0.0202406,699,1457,-4.27383,-5.34795
-518,-433,-4.29431,5.63403,0.00372099,0.00443095,0.00679307,0.0108783,-0.00272637,0.811503,0.00831141,0.0166682,706,1457,-4.2943,-5.63399
-511,-433,-4.30261,5.91846,0.00297123,0.00338977,0.00523384,0.00841852,-0.00205752,0.80538,0.00640924,0.0163109,713,1457,-4.3026,-5.91841
-504,-433,-4.2934,6.18713,0.00236822,0.00213247,0.00357892,0.0058312,-0.00133051,0.768936,0.00439857,0.0129889,720,1457,-4.29337,-6.18715
-497,-433,-4.29456,6.46729,0.00189949,0.000624313,0.00168913,0.00306736,-0.000543554,0.604933,0.0022481,0.0134261,727,1457,-4.29457,-6.46729
-490,-433,-4.31989,6.76501,0.00121911,-0.000976613,-0.00088966,0.00153433,-0.00129183,-0.340512,0.00163368,0.0152197,734,1457,-4.31986,-6.765
-483,-433,-4.33008,7.06201,0.000459217,-0.00277922,-0.00368484,0.00286492,-0.00518491,-0.578385,0.00471147,0.0151274,741,1457,-4.33008,-7.06204
-476,-433,-4.33594,7.35608,-0.000864733,-0.00468884,-0.00721393,0.00468624,-0.0102398,-0.655852,0.00881415,0.0101303,748,1457,-4.33596,-7.35608
-469,-433,-4.33752,7.6394,-0.00237962,-0.00707373,-0.0112216,0.00673777,-0.0161911,-0.682307,0.0136079,0.00997516,755,1457,-4.33753,-7.63946
-462,-433,-4.34027,7.91943,-0.00421702,-0.00952184,-0.0160141,0.00936281,-0.0231017,-0.703328,0.0192947,0.010053,762,1457,-4.34029,-7.91949
-455,-433,-4.18195,8.22375,-0.00680516,-0.012407,-0.0221604,0.0127306,-0.0319428,-0.722535,0.0265754,0.0274157,769,1457,-4.18192,-8.22374
-448,-433,-4.19543,7.93616,-0.0103887,-0.0159096,-0.0300228,0.0170003,-0.0432986,-0.739555,0.0359003,0.0407389,776,1457,-4.19545,-7.93615
-441,-433,-3.94409,6.74414,0,0,0,0,0,0,0,-1,783,1457,-3.94409,-6.74409
-434,-433,-6.60754,7.84338,0,0,0,0,0,0,0,-1,790,1457,-6.60756,-7.84334
-427,-433,-7.12756,8.35364,0,0,0,0,0,0,0,-1,797,1457,-7.12757,-8.35364
-420,-433,-7.66504,8.89319,0,0,0,0,0,0,0,-1,804,1457,-7.66506,-8.89324
-413,-433,-3.63074,5.5813,0,0,0,0,0,0,0,-1,811,1457,-3.63072,-5.58129
-406,-433,-12.3472,4.69373,0,0,0,0,0,0,0,-1,818,1457,-12.3472,-4.69374
-399,-433,-12.055,2.83594,0,0,0,0,0,0,0,-1,825,1457,-12.055,-2.83594
-392,-433,-12.9772,1.6228,0,0,0,0,0,0,0,-1,832,1457,-12.9772,-1.62282
-385,-433,-13.7999,0.514771,0,0,0,0,0,0,0,-1,839,1457,-13.7999,-0.514788
-378,-433,0,0,0,0,0,0,0,0,0,-1,846,1457,0,0
-371,-433,0,0,0,0,0,0,0,0,0,-1,853,1457,0,0
-364,-433,0,0,0,0,0,0,0,0,0,-1,860,1457,0,0
-357,-433,0,0,0,0,0,0,0,0,0,-1,867,1457,0,0
-350,-433,0,0,0,0,0,0,0,0,0,-1,874,1457,0,0
-343,-433,0,0,0,0,0,0,0,0,0,-1,881,1457,0,0
-336,-433,0,0,0,0,0,0,0,0,0,-1,888,1457,0,0
-329,-433,0,0,0,0,0,0,0,0,0,-1,895,1457,0,0
-322,-433,0,0,0,0,0,0,0,0,0,-1,902,1457,0,0
-315,-433,0,0,0,0,0,0,0,0,0,-1,909,1457,0,0
-308,-433,0,0,0,0,0,0,0,0,0,-1,916,1457,0,0
-301,-433,0,0,0,0,0,0,0,0,0,-1,923,1457,0,0
-294,-433,0,0,0,0,0,0,0,0,0,-1,930,1457,0,0
-287,-433,0,0,0,0,0,0,0,0,0,-1,937,1457,0,0
-280,-433,0,0,0,0,0,0,0,0,0,-1,944,1457,0,0
-273,-433,0,0,0,0,0,0,0,0,0,-1,951,1457,0,0
-266,-433,0,0,0,0,0,0,0,0,0,-1,958,1457,0,0
-259,-433,0,0,0,0,0,0,0,0,0,-1,965,1457,0,0
-252,-433,0,0,0,0,0,0,0,0,0,-1,972,1457,0,0
-245,-433,0,0,0,0,0,0,0,0,0,-1,979,1457,0,0
-238,-433,0,0,0,0,0,0,0,0,0,-1,986,1457,0,0
-231,-433,0,0,0,0,0,0,0,0,0,-1,993,1457,0,0
-224,-433,0,0,0,0,0,0,0,0,0,-1,1000,1457,0,0
-217,-433,0,0,0,0,0,0,0,0,0,-1,1007,1457,0,0
-210,-433,0,0,0,0,0,0,0,0,0,-1,1014,1457,0,0
-203,-433,0,0,0,0,0,0,0,0,0,-1,1021,1457,0,0
-196,-433,0,0,0,0,0,0,0,0,0,-1,1028,1457,0,0
-189,-433,0,0,0,0,0,0,0,0,0,-1,1035,1457,0,0
-182,-433,0,0,0,0,0,0,0,0,0,-1,1042,1457,0,0
-175,-433,0,0,0,0,0,0,0,0,0,-1,1049,1457,0,0
-168,-433,0,0,0,0,0,0,0,0,0,-1,1056,1457,0,0
-161,-433,0,0,0,0,0,0,0,0,0,-1,1063,1457,0,0
-154,-433,0,0,0,0,0,0,0,0,0,-1,1070,1457,0,0
-147,-433,0,0,0,0,0,0,0,0,0,-1,1077,1457,0,0
-140,-433,0,0,0,0,0,0,0,0,0,-1,1084,1457,0,0
-133,-433,0,0,0,0,0,0,0,0,0,-1,1091,1457,0,0
-126,-433,0,0,0,0,0,0,0,0,0,-1,1098,1457,0,0
-119,-433,0,0,0,0,0,0,0,0,0,-1,1105,1457,0,0
-112,-433,0,0,0,0,0,0,0,0,0,-1,1112,1457,0,0
-105,-433,0,0,0,0,0,0,0,0,0,-1,1119,1457,0,0
-98,-433,0,0,0,0,0,0,0,0,0,-1,1126,1457,0,0
-91,-433,0,0,0,0,0,0,0,0,0,-1,1133,1457,0,0
-84,-433,0,0,0,0,0,0,0,0,0,-1,1140,1457,0,0
-77,-433,0,0,0,0,0,0,0,0,0,-1,1147,1457,0,0
-70,-433,0,0,0,0,0,0,0,0,0,-1,1154,1457,0,0
-63,-433,0,0,0,0,0,0,0,0,0,-1,1161,1457,0,0
-56,-433,0,0,0,0,0,0,0,0,0,-1,1168,1457,0,0
-49,-433,0,0,0,0,0,0,0,0,0,-1,1175,1457,0,0
-42,-433,0,0,0,0,0,0,0,0,0,-1,1182,1457,0,0
-35,-433,0,0,0,0,0,0,0,0,0,-1,1189,1457,0,0
-28,-433,0,0,0,0,0,0,0,0,0,-1,1196,1457,0,0
-21,-433,0,0,0,0,0,0,0,0,0,-1,1203,1457,0,0
-14,-433,0,0,0,0,0,0,0,0,0,-1,1210,1457,0,0
-7,-433,0,0,0,0,0,0,0,0,0,-1,1217,1457,0,0
0,-433,0,0,0,0,0,0,0,0,0,-1,1224,1457,0,0
7,-433,0,0,0,0,0,0,0,0,0,-1,1231,1457,0,0
14,-433,0,0,0,0,0,0,0,0,0,-1,1238,1457,0,0
21,-433,0,0,0,0,0,0,0,0,0,-1,1245,1457,0,0
28,-433,0,0,0,0,0,0,0,0,0,-1,1252,1457,0,0
35,-433,0,0,0,0,0,0,0,0,0,-1,1259,1457,0,0
42,-433,0,0,0,0,0,0,0,0,0,-1,1266,1457,0,0
49,-433,0,0,0,0,0,0,0,0,0,-1,1273,1457,0,0
56,-433,0,0,0,0,0,0,0,0,0,-1,1280,1457,0,0
63,-433,0,0,0,0,0,0,0,0,0,-1,1287,1457,0,0
70,-433,0,0,0,0,0,0,0,0,0,-1,1294,1457,0,0
77,-433,0,0,0,0,0,0,0,0,0,-1,1301,1457,0,0
84,-433,0,0,0,0,0,0,0,0,0,-1,1308,1457,0,0
91,-433,0,0,0,0,0,0,0,0,0,-1,1315,1457,0,0
98,-433,0,0,0,0,0,0,0,0,0,-1,1322,1457,0,0
105,-433,0,0,0,0,0,0,0,0,0,-1,1329,1457,0,0
112,-433,0,0,0,0,0,0,0,0,0,-1,1336,1457,0,0
119,-433,0,0,0,0,0,0,0,0,0,-1,1343,1457,0,0
126,-433,0,0,0,0,0,0,0,0,0,-1,1350,1457,0,0
133,-433,0,0,0,0,0,0,0,0,0,-1,1357,1457,0,0
140,-433,0,0,0,0,0,0,0,0,0,-1,1364,1457,0,0
147,-433,0,0,0,0,0,0,0,0,0,-1,1371,1457,0,0
154,-433,0,0,0,0,0,0,0,0,0,-1,1378,1457,0,0
161,-433,0,0,0,0,0,0,0,0,0,-1,1385,1457,0,0
168,-433,0,0,0,0,0,0,0,0,0,-1,1392,1457,0,0
175,-433,0,0,0,0,0,0,0,0,0,-1,1399,1457,0,0
182,-433,0,0,0,0,0,0,0,0,0,-1,1406,1457,0,0
189,-433,0,0,0,0,0,0,0,0,0,-1,1413,1457,0,0
196,-433,0,0,0,0,0,0,0,0,0,-1,1420,1457,0,0
203,-433,0,0,0,0,0,0,0,0,0,-1,1427,1457,0,0
210,-433,0,0,0,0,0,0,0,0,0,-1,1434,1457,0,0
217,-433,0,0,0,0,0,0,0,0,0,-1,1441,1457,0,0
224,-433,0,0,0,0,0,0,0,0,0,-1,1448,1457,0,0
231,-433,0,0,0,0,0,0,0,0,0,-1,1455,1457,0,0
238,-433,0,0,0,0,0,0,0,0,0,-1,1462,1457,0,0
245,-433,0,0,0,0,0,0,0,0,0,-1,1469,1457,0,0
252,-433,0,0,0,0,0,0,0,0,0,-1,1476,1457,0,0
259,-433,0,0,0,0,0,0,0,0,0,-1,1483,1457,0,0
266,-433,0,0,0,0,0,0,0,0,0,-1,1490,1457,0,0
273,-433,0,0,0,0,0,0,0,0,0,-1,1497,1457,0,0
280,-433,0,0,0,0,0,0,0,0,0,-1,1504,1457,0,0
287,-433,0,0,0,0,0,0,0,0,0,-1,1511,1457,0,0
294,-433,0,0,0,0,0,0,0,0,0,-1,1518,1457,0,0
301,-433,0,0,0,0,0,0,0,0,0,-1,1525,1457,0,0
308,-433,0,0,0,0,0,0,0,0,0,-1,1532,1457,0,0
315,-433,0,0,0,0,0,0,0,0,0,-1,1539,1457,0,0
322,-433,0,0,0,0,0,0,0,0,0,-1,1546,1457,0,0
329,-433,0,0,0,0,0,0,0,0,0,-1,1553,1457,0,0
336,-433,0,0,0,0,0,0,0,0,0,-1,1560,1457,0,0
343,-433,0,0,0,0,0,0,0,0,0,-1,1567,1457,0,0
350,-433,0,0,0,0,0,0,0,0,0,-1,1574,1457,0,0
357,-433,0,0,0,0,0,0,0,0,0,-1,1581,1457,0,0
364,-433,0,0,0,0,0,0,0,0,0,-1,1588,1457,0,0
371,-433,0,0,0,0,0,0,0,0,0,-1,1595,1457,0,0
378,-433,0,0,0,0,0,0,0,0,0,-1,1602,1457,0,0
385,-433,0,0,0,0,0,0,0,0,0,-1,1609,1457,0,0
392,-433,0,0,0,0,0,0,0,0,0,-1,1616,1457,0,0
399,-433,0,0,0,0,0,0,0,0,0,-1,1623,1457,0,0
406,-433,0,0,0,0,0,0,0,0,0,-1,1630,1457,0,0
413,-433,0,0,0,0,0,0,0,0,0,-1,1637,1457,0,0
420,-433,0,0,0,0,0,0,0,0,0,-1,1644,1457,0,0
427,-433,0,0,0,0,0,0,0,0,0,-1,1651,1457,0,0
434,-433,0,0,0,0,0,0,0,0,0,-1,1658,1457,0,0
441,-433,0,0,0,0,0,0,0,0,0,-1,1665,1457,0,0
448,-433,0,0,0,0,0,0,0,0,0,-1,1672,1457,0,0
455,-433,0,0,0,0,0,0,0,0,0,-1,1679,1457,0,0
462,-433,0,0,0,0,0,0,0,0,0,-1,1686,1457,0,0
469,-433,0,0,0,0,0,0,0,0,0,-1,1693,1457,0,0
476,-433,0,0,0,0,0,0,0,0,0,-1,1700,1457,0,0
483,-433,0,0,0,0,0,0,0,0,0,-1,1707,1457,0,0
490,-433,0,0,0,0,0,0,0,0,0,-1,1714,1457,0,0
497,-433,0,0,0,0,0,0,0,0,0,-1,1721,1457,0,0
504,-433,19.9058,3.03662,0,0,0,0,0,0,0,-1,1728,1457,19.9058,-3.03656
511,-433,19.0145,3.07837,0,0,0,0,0,0,0,-1,1735,1457,19.0146,-3.07834
518,-433,18.071,3.06433,0,0,0,0,0,0,0,-1,1742,1457,18.071,-3.06432
525,-433,17.2048,3.37085,0,0,0,0,0,0,0,-1,1749,1457,17.2049,-3.37083
532,-433,16.5637,3.36646,0,0,0,0,0,0,0,-1,1756,1457,16.5637,-3.36643
539,-433,15.9193,3.30396,0,0,0,0,0,0,0,-1,1763,1457,15.9193,-3.30394
546,-433,14.8995,8.79517,0,0,0,0,0,0,0,-1,1770,1457,14.8995,-8.79514
553,-433,14.3823,8.85925,-0.0818551,-0.0623732,0.0265706,-0.0438142,-0.100414,0.961094,0.0581305,0.0462039,1777,1457,14.3823,-8.8592
560,-433,13.6516,9.18445,-0.0684589,-0.0523125,0.0239757,-0.0350873,-0.0856842,0.947797,0.0497392,0.0465919,1784,1457,13.6516,-9.18451
567,-433,13.7703,8.98328,0,0,0,0,0,0,0,-1,1791,1457,13.7703,-8.98327
574,-433,13.5016,10.2913,0,0,0,0,0,0,0,-1,1798,1457,13.5016,-10.2913
581,-433,13.8271,9.91003,-0.0350907,-0.0264084,0.015611,-0.0145462,-0.0469529,0.921013,0.0277543,0.0446037,1805,1457,13.8272,-9.91003
588,-433,13.8678,9.64001,-0.0272177,-0.0199426,0.0128428,-0.0102322,-0.0369282,0.923402,0.0220155,0.0419372,1812,1457,13.8678,-9.63998
595,-433,13.6835,9.53796,-0.0207192,-0.0146859,0.0103287,-0.00694228,-0.0284628,0.92748,0.0171364,0.0232436,1819,1457,13.6834,-9.53792
602,-433,13.724,9.25854,-0.0154474,-0.0105843,0.00812858,-0.00453136,-0.0215003,0.930732,0.0130873,0.0199275,1826,1457,13.724,-9.25852
609,-433,13.7246,8.99121,-0.0105392,-0.00704265,0.00611467,-0.00243125,-0.0151506,0.924642,0.00939545,0.0152699,1833,1457,13.7246,-8.99125
616,-433,13.7139,8.74451,-0.00689728,-0.00452619,0.00454238,-0.00101719,-0.0104063,0.913049,0.00662454,0.0128892,1840,1457,13.7138,-8.74449
623,-433,13.7018,8.48865,-0.00446024,-0.00269967,0.00308707,-0.000369831,-0.00679008,0.924288,0.00440862,0.0102603,1847,1457,13.7018,-8.48864
630,-433,13.692,8.24634,-0.00251193,-0.00178179,0.00191493,-0.000197444,-0.00409628,0.879591,0.00266747,0.013171,1854,1457,13.6921,-8.24637
637,-433,13.7028,7.99866,-0.000903116,-0.00104523,0.00104057,6.8825e-05,-0.00201717,0.751308,0.0013683,0.0140992,1861,1457,13.7027,-7.99862
644,-433,13.6931,7.75793,0.00043704,-0.000476376,0.000422936,0.000602793,-0.000642128,0.373512,0.000718875,0.0146934,1868,1457,13.6931,-7.75793
651,-433,13.6882,7.49854,0.00128876,-0.000202446,0.000187577,0.00131199,-0.00022568,0.123231,0.000958783,0.0110375,1875,1457,13.6883,-7.49856
658,-433,13.6976,7.19055,0.00138555,-0.000159051,0.000436275,0.00150025,-0.000273759,0.257107,0.00110281,0.0148478,1882,1457,13.6976,-7.19057
665,-433,13.6449,6.87512,0.00130766,4.50004e-05,0.000782554,0.0016818,-0.000329139,0.445975,0.00124549,0.0224219,1889,1457,13.6449,-6.87511
672,-433,13.6952,6.96094,0.0012831,0.000281071,0.00128678,0.00216296,-0.00059879,0.59975,0.00167758,0.0428043,1896,1457,13.6952,-6.96096
679,-433,13.4553,7.31689,0,0,0,0,0,0,0,-1,1903,1457,13.4553,-7.31695
686,-433,13.4137,7.65076,0,0,0,0,0,0,0,-1,1910,1457,13.4137,-7.65075
693,-433,11.3199,7.60999,0,0,0,0,0,0,0,-1,1917,1457,11.3199,-7.61004
700,-433,7.16809,-1.5166,0,0,0,0,0,0,0,-1,1924,1457,7.16806,1.51656
707,-433,8.68359,-2.82202,0,0,0,0,0,0,0,-1,1931,1457,8.68359,2.82197
714,-433,0,0,0,0,0,0,0,0,0,-1,1938,1457,0,0
721,-433,0,0,0,0,0,0,0,0,0,-1,1945,1457,0,0
728,-433,0,0,0,0,0,0,0,0,0,-1,1952,1457,0,0
735,-433,0,0,0,0,0,0,0,0,0,-1,1959,1457,0,0
742,-433,0,0,0,0,0,0,0,0,0,-1,1966,1457,0,0
749,-433,0,0,0,0,0,0,0,0,0,-1,1973,1457,0,0
756,-433,0,0,0,0,0,0,0,0,0,-1,1980,1457,0,0
763,-433,0,0,0,0,0,0,0,0,0,-1,1987,1457,0,0
770,-433,0,0,0,0,0,0,0,0,0,-1,1994,1457,0,0
777,-433,0,0,0,0,0,0,0,0,0,-1,2001,1457,0,0
784,-433,0,0,0,0,0,0,0,0,0,-1,2008,1457,0,0
791,-433,0,0,0,0,0,0,0,0,0,-1,2015,1457,0,0
798,-433,0,0,0,0,0,0,0,0,0,-1,2022,1457,0,0
805,-433,0,0,0,0,0,0,0,0,0,-1,2029,1457,0,0
812,-433,0,0,0,0,0,0,0,0,0,-1,2036,1457,0,0
-700,-440,0,0,0,0,0,0,0,0,0,-1,524,1464,0,0
-693,-440,0,0,0,0,0,0,0,0,0,-1,531,1464,0,0
-686,-440,0,0,0,0,0,0,0,0,0,-1,538,1464,0,0
-679,-440,0,0,0,0,0,0,0,0,0,-1,545,1464,0,0
-672,-440,0,0,0,0,0,0,0,0,0,-1,552,1464,0,0
-665,-440,0,0,0,0,0,0,0,0,0,-1,559,1464,0,0
-658,-440,0,0,0,0,0,0,0,0,0,-1,566,1464,0,0
-651,-440,0,0,0,0,0,0,0,0,0,-1,573,1464,0,0
-644,-440,0,0,0,0,0,0,0,0,0,-1,580,1464,0,0
-637,-440,0,0,0,0,0,0,0,0,0,-1,587,1464,0,0
-630,-440,0,0,0,0,0,0,0,0,0,-1,594,1464,0,0
-623,-440,0,0,0,0,0,0,0,0,0,-1,601,1464,0,0
-616,-440,0,0,0,0,0,0,0,0,0,-1,608,1464,0,0
-609,-440,0,0,0,0,0,0,0,0,0,-1,615,1464,0,0
-602,-440,0,0,0,0,0,0,0,0,0,-1,622,1464,0,0
-595,-440,0,0,0,0,0,0,0,0,0,-1,629,1464,0,0
-588,-440,0,0,0,0,0,0,0,0,0,-1,636,1464,0,0
-581,-440,-8.97278,0.254517,0,0,0,0,0,0,0,-1,643,1464,-8.97276,-0.254526
-574,-440,-7.00818,-0.918579,0,0,0,0,0,0,0,-1,650,1464,-7.00817,0.918538
-567,-440,-6.12152,-0.0766602,0,0,0,0,0,0,0,-1,657,1464,-6.12151,0.0767097
-560,-440,-5.46747,0.82251,0,0,0,0,0,0,0,-1,664,1464,-5.46748,-0.822551
-553,-440,-6.84729,0.0831299,0,0,0,0,0,0,0,-1,671,1464,-6.84732,-0.083136
-546,-440,-5.63446,-0.153198,0,0,0,0,0,0,0,-1,678,1464,-5.63447,0.153147
-539,-440,-4.04401,4.26086,0,0,0,0,0,0,0,-1,685,1464,-4.04399,-4.26092
-532,-440,-4.00128,4.88257,0.00887848,0.00801341,0.0142799,0.0227324,-0.00584048,0.770258,0.017431,0.0401676,692,1464,-4.00131,-4.88259
-525,-440,-4.03192,5.34387,0.00703142,0.00713678,0.0117795,0.0188637,-0.00469554,0.787634,0.0143985,0.0223259,699,1464,-4.03189,-5.34382
-518,-440,-4.0473,5.59094,0.00555615,0.00588977,0.00932943,0.0150539,-0.00360796,0.794337,0.01143,0.0149208,706,1464,-4.04731,-5.59098
-511,-440,-4.00739,5.90479,0.00434613,0.00457927,0.00706089,0.0115246,-0.00259916,0.793652,0.00868012,0.0156983,713,1464,-4.00739,-5.90484
-504,-440,-3.98694,6.18225,0.00337938,0.0031608,0.00492953,0.00820083,-0.00166065,0.774314,0.00609663,0.0181314,720,1464,-3.98696,-6.18227
-497,-440,-4.00623,6.45703,0.00262822,0.00162965,0.00282664,0.00499933,-0.000741464,0.697982,0.00360555,0.0216894,727,1464,-4.00624,-6.45707
-490,-440,-4.02435,6.74463,0.00176674,1.11489e-05,0.000286502,0.00181231,-3.44235e-05,0.157743,0.00121985,0.0230283,734,1464,-4.02435,-6.74468
-483,-440,-4.04645,7.04688,0.000884981,-0.0017311,-0.00235362,0.00226962,-0.00311574,-0.531772,0.003122,0.0198952,741,1464,-4.04645,-7.04693
-476,-440,-4.07281,7.34363,-0.000482894,-0.00353569,-0.0055643,0.00376057,-0.00777915,-0.651531,0.00679579,0.0128962,748,1464,-4.07281,-7.34366
-469,-440,-4.06775,7.64807,-0.00190699,-0.00584571,-0.0090752,0.00541007,-0.0131628,-0.678552,0.01103,0.0114988,755,1464,-4.06777,-7.64804
-462,-440,-4.05316,7.94617,-0.00342747,-0.00803885,-0.0129555,0.0074259,-0.0188922,-0.697335,0.0156681,0.0137361,762,1464,-4.05314,-7.9462
-455,-440,-3.97711,8.26746,-0.00550619,-0.0106307,-0.017798,0.00991305,-0.0260499,-0.713908,0.0214487,0.0190266,769,1464,-3.97711,-8.26744
-448,-440,-3.78674,8.41553,-0.00826063,-0.0138033,-0.0240098,0.0131373,-0.0352012,-0.72794,0.028861,0.0331397,776,1464,-3.78675,-8.4155
-441,-440,-4.32391,8.3728,-0.0118687,-0.0175703,-0.0317543,0.0171626,-0.0466015,-0.74063,0.0380996,0.0392229,783,1464,-4.32389,-8.37283
-434,-440,-4.70947,8.44531,0,0,0,0,0,0,0,-1,790,1464,-4.70945,-8.44533
-427,-440,-5.83582,8.70508,0,0,0,0,0,0,0,-1,797,1464,-5.83579,-8.70503
-420,-440,-6.56091,8.99402,0,0,0,0,0,0,0,-1,804,1464,-6.5609,-8.99404
-413,-440,-3.46796,5.72278,0,0,0,0,0,0,0,-1,811,1464,-3.46797,-5.72276
-406,-440,-5.2887,5.20264,0,0,0,0,0,0,0,-1,818,1464,-5.2887,-5.20261
-399,-440,-12.7318,3.94421,0,0,0,0,0,0,0,-1,825,1464,-12.7318,-3.94419
-392,-440,-13.5565,2.51855,0,0,0,0,0,0,0,-1,832,1464,-13.5565,-2.51861
-385,-440,-14.6741,1.39795,0,0,0,0,0,0,0,-1,839,1464,-14.6741,-1.39801
-378,-440,-15.8063,0.293457,0,0,0,0,0,0,0,-1,846,1464,-15.8063,-0.293412
-371,-440,0,0,0,0,0,0,0,0,0,-1,853,1464,0,0
-364,-440,0,0,0,0,0,0,0,0,0,-1,860,1464,0,0
-357,-440,0,0,0,0,0,0,0,0,0,-1,867,1464,0,0
-350,-440,0,0,0,0,0,0,0,0,0,-1,874,1464,0,0
-343,-440,0,0,0,0,0,0,0,0,0,-1,881,1464,0,0
-336,-440,0,0,0,0,0,0,0,0,0,-1,888,1464,0,0
-329,-440,0,0,0,0,0,0,0,0,0,-1,895,1464,0,0
-322,-440,0,0,0,0,0,0,0,0,0,-1,902,1464,0,0
-315,-440,0,0,0,0,0,0,0,0,0,-1,909,1464,0,0
-308,-440,0,0,0,0,0,0,0,0,0,-1,916,1464,0,0
-301,-440,0,0,0,0,0,0,0,0,0,-1,923,1464,0,0
-294,-440,0,0,0,0,0,0,0,0,0,-1,930,1464,0,0
-287,-440,0,0,0,0,0,0,0,0,0,-1,937,1464,0,0
-280,-440,0,0,0,0,0,0,0,0,0,-1,944,1464,0,0
-273,-440,0,0,0,0,0,0,0,0,0,-1,951,1464,0,0
-266,-440,0,0,0,0,0,0,0,0,0,-1,958,1464,0,0
-259,-440,0,0,0,0,0,0,0,0,0,-1,965,1464,0,0
-252,-440,0,0,0,0,0,0,0,0,0,-1,972,1464,0,0
-245,-440,0,0,0,0,0,0,0,0,0,-1,979,1464,0,0
-238,-440,0,0,0,0,0,0,0,0,0,-1,986,1464,0,0
-231,-440,0,0,0,0,0,0,0,0,0,-1,993,1464,0,0
-224,-440,0,0,0,0,0,0,0,0,0,-1,1000,1464,0,0
-217,-440,0,0,0,0,0,0,0,0,0,-1,1007,1464,0,0
-210,-440,0,0,0,0,0,0,0,0,0,-1,1014,1464,0,0
-203,-440,0,0,0,0,0,0,0,0,0,-1,1021,1464,0,0
-196,-440,0,0,0,0,0,0,0,0,0,-1,1028,1464,0,0
-189,-440,0,0,0,0,0,0,0,0,0,-1,1035,1464,0,0
-182,-440,0,0,0,0,0,0,0,0,0,-1,1042,1464,0,0
-175,-440,0,0,0,0,0,0,0,0,0,-1,1049,1464,0,0
-168,-440,0,0,0,0,0,0,0,0,0,-1,1056,1464,0,0
-161,-440,0,0,0,0,0,0,0,0,0,-1,1063,1464,0,0
-154,-440,0,0,0,0,0,0,0,0,0,-1,1070,1464,0,0
-147,-440,0,0,0,0,0,0,0,0,0,-1,1077,1464,0,0
-140,-440,0,0,0,0,0,0,0,0,0,-1,1084,1464,0,0
-133,-440,0,0,0,0,0,0,0,0,0,-1,1091,1464,0,0
-126,-440,0,0,0,0,0,0,0,0,0,-1,1098,1464,0,0
-119,-440,0,0,0,0,0,0,0,0,0,-1,1105,1464,0,0
-112,-440,0,0,0,0,0,0,0,0,0,-1,1112,1464,0,0
-105,-440,0,0,0,0,0,0,0,0,0,-1,1119,1464,0,0
-98,-440,0,0,0,0,0,0,0,0,0,-1,1126,1464,0,0
-91,-440,0,0,0,0,0,0,0,0,0,-1,1133,1464,0,0
-84,-440,0,0,0,0,0,0,0,0,0,-1,1140,1464,0,0
-77,-440,0,0,0,0,0,0,0,0,0,-1,1147,1464,0,0
-70,-440,0,0,0,0,0,0,0,0,0,-1,1154,1464,0,0
-63,-440,0,0,0,0,0,0,0,0,0,-1,1161,1464,0,0
-56,-440,0,0,0,0,0,0,0,0,0,-1,1168,1464,0,0
-49,-440,0,0,0,0,0,0,0,0,0,-1,1175,1464,0,0
-42,-440,0,0,0,0,0,0,0,0,0,-1,1182,1464,0,0
-35,-440,0,0,0,0,0,0,0,0,0,-1,1189,1464,0,0
-28,-440,0,0,0,0,0,0,0,0,0,-1,1196,1464,0,0
-21,-440,0,0,0,0,0,0,0,0,0,-1,1203,1464,0,0
-14,-440,0,0,0,0,0,0,0,0,0,-1,1210,1464,0,0
-7,-440,0,0,0,0,0,0,0,0,0,-1,1217,1464,0,0
0,-440,0,0,0,0,0,0,0,0,0,-1,1224,1464,0,0
7,-440,0,0,0,0,0,0,0,0,0,-1,1231,1464,0,0
14,-440,0,0,0,0,0,0,0,0,0,-1,1238,1464,0,0
21,-440,0,0,0,0,0,0,0,0,0,-1,1245,1464,0,0
28,-440,0,0,0,0,0,0,0,0,0,-1,1252,1464,0,0
35,-440,0,0,0,0,0,0,0,0,0,-1,1259,1464,0,0
42,-440,0,0,0,0,0,0,0,0,0,-1,1266,1464,0,0
49,-440,0,0,0,0,0,0,0,0,0,-1,1273,1464,0,0
56,-440,0,0,0,0,0,0,0,0,0,-1,1280,1464,0,0
63,-440,0,0,0,0,0,0,0,0,0,-1,1287,1464,0,0
70,-440,0,0,0,0,0,0,0,0,0,-1,1294,1464,0,0
77,-440,0,0,0,0,0,0,0,0,0,-1,1301,1464,0,0
84,-440,0,0,0,0,0,0,0,0,0,-1,1308,1464,0,0
91,-440,0,0,0,0,0,0,0,0,0,-1,1315,1464,0,0
98,-440,0,0,0,0,0,0,0,0,0,-1,1322,1464,0,0
105,-440,0,0,0,0,0,0,0,0,0,-1,1329,1464,0,0
112,-440,0,0,0,0,0,0,0,0,0,-1,1336,1464,0,0
119,-440,0,0,0,0,0,0,0,0,0,-1,1343,1464,0,0
126,-440,0,0,0,0,0,0,0,0,0,-1,1350,1464,0,0
133,-440,0,0,0,0,0,0,0,0,0,-1,1357,1464,0,0
140,-440,0,0,0,0,0,0,0,0,0,-1,1364,1464,0,0
147,-440,0,0,0,0,0,0,0,0,0,-1,1371,1464,0,0
154,-440,0,0,0,0,0,0,0,0,0,-1,1378,1464,0,0
161,-440,0,0,0,0,0,0,0,0,0,-1,1385,1464,0,0
168,-440,0,0,0,0,0,0,0,0,0,-1,1392,1464,0,0
175,-440,0,0,0,0,0,0,0,0,0,-1,1399,1464,0,0
182,-440,0,0,0,0,0,0,0,0,0,-1,1406,1464,0,0
189,-440,0,0,0,0,0,0,0,0,0,-1,1413,1464,0,0
196,-440,0,0,0,0,0,0,0,0,0,-1,1420,1464,0,0
203,-440,0,0,0,0,0,0,0,0,0,-1,1427,1464,0,0
210,-440,0,0,0,0,0,0,0,0,0,-1,1434,1464,0,0
217,-440,0,0,0,0,0,0,0,0,0,-1,1441,1464,0,0
224,-440,0,0,0,0,0,0,0,0,0,-1,1448,1464,0,0
231,-440,0,0,0,0,0,0,0,0,0,-1,1455,1464,0,0
238,-440,0,0,0,0,0,0,0,0,0,-1,1462,1464,0,0
245,-440,0,0,0,0,0,0,0,0,0,-1,1469,1464,0,0
252,-440,0,0,0,0,0,0,0,0,0,-1,1476,1464,0,0
259,-440,0,0,0,0,0,0,0,0,0,-1,1483,1464,0,0
266,-440,0,0,0,0,0,0,0,0,0,-1,1490,1464,0,0
273,-440,0,0,0,0,0,0,0,0,0,-1,1497,1464,0,0
280,-440,0,0,0,0,0,0,0,0,0,-1,1504,1464,0,0
287,-440,0,0,0,0,0,0,0,0,0,-1,1511,1464,0,0
294,-440,0,0,0,0,0,0,0,0,0,-1,1518,1464,0,0
301,-440,0,0,0,0,0,0,0,0,0,-1,1525,1464,0,0
308,-440,0,0,0,0,0,0,0,0,0,-1,1532,1464,0,0
315,-440,0,0,0,0,0,0,0,0,0,-1,1539,1464,0,0
322,-440,0,0,0,0,0,0,0,0,0,-1,1546,1464,0,0
329,-440,0,0,0,0,0,0,0,0,0,-1,1553,1464,0,0
336,-440,0,0,0,0,0,0,0,0,0,-1,1560,1464,0,0
343,-440,0,0,0,0,0,0,0,0,0,-1,1567,1464,0,0
350,-440,0,0,0,0,0,0,0,0,0,-1,1574,1464,0,0
357,-440,0,0,0,0,0,0,0,0,0,-1,1581,1464,0,0
364,-440,0,0,0,0,0,0,0,0,0,-1,1588,1464,0,0
371,-440,0,0,0,0,0,0,0,0,0,-1,1595,1464,0,0
378,-440,0,0,0,0,0,0,0,0,0,-1,1602,1464,0,0
385,-440,0,0,0,0,0,0,0,0,0,-1,1609,1464,0,0
392,-440,0,0,0,0,0,0,0,0,0,-1,1616,1464,0,0
399,-440,0,0,0,0,0,0,0,0,0,-1,1623,1464,0,0
406,-440,0,0,0,0,0,0,0,0,0,-1,1630,1464,0,0
413,-440,0,0,0,0,0,0,0,0,0,-1,1637,1464,0,0
420,-440,0,0,0,0,0,0,0,0,0,-1,1644,1464,0,0
427,-440,0,0,0,0,0,0,0,0,0,-1,1651,1464,0,0
434,-440,0,0,0,0,0,0,0,0,0,-1,1658,1464,0,0
441,-440,0,0,0,0,0,0,0,0,0,-1,1665,1464,0,0
448,-440,0,0,0,0,0,0,0,0,0,-1,1672,1464,0,0
455,-440,0,0,0,0,0,0,0,0,0,-1,1679,1464,0,0
462,-440,0,0,0,0,0,0,0,0,0,-1,1686,1464,0,0
469,-440,0,0,0,0,0,0,0,0,0,-1,1693,1464,0,0
476,-440,0,0,0,0,0,0,0,0,0,-1,1700,1464,0,0
483,-440,0,0,0,0,0,0,0,0,0,-1,1707,1464,0,0
490,-440,0,0,0,0,0,0,0,0,0,-1,1714,1464,0,0
497,-440,16.965,-0.528442,0,0,0,0,0,0,0,-1,1721,1464,16.965,0.528492
504,-440,15.8052,0.670166,0,0,0,0,0,0,0,-1,1728,1464,15.8052,-0.670145
511,-440,17.5754,2.77832,0,0,0,0,0,0,0,-1,1735,1464,17.5754,-2.77826
518,-440,16.9017,3.07861,0,0,0,0,0,0,0,-1,1742,1464,16.9018,-3.07859
525,-440,18.4495,12.0867,0,0,0,0,0,0,0,-1,1749,1464,18.4495,-12.0867
532,-440,15.4319,3.64392,0,0,0,0,0,0,0,-1,1756,1464,15.4318,-3.64391
539,-440,14.8214,3.41321,0,0,0,0,0,0,0,-1,1763,1464,14.8214,-3.4132
546,-440,14.6238,8.86365,0,0,0,0,0,0,0,-1,1770,1464,14.6238,-8.86367
553,-440,14.4431,9.09753,-0.0665118,-0.0543672,0.0242521,-0.0354388,-0.0854402,0.908068,0.0495672,0.0450519,1777,1464,14.4431,-9.0975
560,-440,13.9136,9.32996,-0.0547667,-0.0448803,0.0208127,-0.0284319,-0.0712152,0.901992,0.0413935,0.0433905,1784,1464,13.9136,-9.32994
567,-440,13.6542,9.45801,-0.0441063,-0.0362242,0.0177292,-0.0220034,-0.0583272,0.894766,0.0340119,0.0472194,1791,1464,13.6542,-9.45799
574,-440,13.3981,10.1082,0,0,0,0,0,0,0,-1,1798,1464,13.3981,-10.1081
581,-440,13.5403,9.98425,-0.0271626,-0.0218393,0.0123572,-0.0118604,-0.0371416,0.891472,0.0219054,0.0443144,1805,1464,13.5403,-9.98427
588,-440,13.4303,9.85474,-0.020855,-0.0163273,0.00993839,-0.00839818,-0.0287841,0.897383,0.0170922,0.0337034,1812,1464,13.4303,-9.85476
595,-440,13.4349,9.5647,-0.0156724,-0.0119183,0.00786696,-0.00570759,-0.0218832,0.902509,0.0131072,0.0207598,1819,1464,13.435,-9.56474
602,-440,13.4772,9.27441,-0.0114936,-0.00854788,0.0061393,-0.00370724,-0.0163342,0.903127,0.00988818,0.0183087,1826,1464,13.4772,-9.27442
609,-440,13.4658,9.00146,-0.00754571,-0.00563132,0.00452537,-0.00196302,-0.011214,0.889621,0.00691517,0.015158,1833,1464,13.4658,-9.00152
616,-440,13.4521,8.78796,-0.00463656,-0.00356598,0.00330559,-0.000752616,-0.00744993,0.865669,0.00473572,0.0160654,1840,1464,13.4522,-8.78793
623,-440,13.4631,8.51965,-0.00271748,-0.00211037,0.00219322,-0.000199796,-0.00462805,0.854164,0.00302097,0.012529,1847,1464,13.4631,-8.51971
630,-440,13.4447,8.24744,-0.00116009,-0.00143949,0.00128686,-5.37059e-06,-0.00259421,0.731332,0.00172768,0.0108705,1854,1464,13.4447,-8.2474
637,-440,13.4442,8.01453,0.000168086,-0.000893391,0.000602584,0.000440337,-0.00116564,0.424353,0.000958214,0.0155649,1861,1464,13.4442,-8.01455
644,-440,13.4496,7.76709,0.00129424,-0.000467358,0.000112102,0.00130135,-0.000474463,0.0632961,0.00106167,0.0150259,1868,1464,13.4495,-7.76707
651,-440,13.4749,7.48132,0.00186328,-0.000287756,1.53772e-05,0.00186339,-0.000287866,0.00714825,0.00134849,0.0132311,1875,1464,13.4748,-7.48127
658,-440,13.4365,7.24426,0.00174724,-0.000249773,0.000330244,0.00180044,-0.000302968,0.159706,0.00131299,0.0201393,1882,1464,13.4366,-7.24423
665,-440,13.4564,6.922,0.00164224,0.000150492,0.000595503,0.0018508,-5.80719e-05,0.336881,0.00125368,0.0312874,1889,1464,13.4565,-6.92203
672,-440,13.5986,6.71985,0.0016844,0.000756857,0.000936031,0.00226525,0.000176006,0.55539,0.00145505,0.0489503,1896,1464,13.5986,-6.7199
679,-440,13.8584,6.58374,0,0,0,0,0,0,0,-1,1903,1464,13.8584,-6.58373
686,-440,11.1976,7.25854,0,0,0,0,0,0,0,-1,1910,1464,11.1976,-7.25856
693,-440,9.88635,2.89795,0,0,0,0,0,0,0,-1,1917,1464,9.88638,-2.89798
700,-440,7.07825,-2.62061,0,0,0,0,0,0,0,-1,1924,1464,7.07829,2.62057
707,-440,0,0,0,0,0,0,0,0,0,-1,1931,1464,0,0
714,-440,0,0,0,0,0,0,0,0,0,-1,1938,1464,0,0
721,-440,0,0,0,0,0,0,0,0,0,-1,1945,1464,0,0
728,-440,0,0,0,0,0,0,0,0,0,-1,1952,1464,0,0
735,-440,0,0,0,0,0,0,0,0,0,-1,1959,1464,0,0
742,-440,0,0,0,0,0,0,0,0,0,-1,1966,1464,0,0
749,-440,0,0,0,0,0,0,0,0,0,-1,1973,1464,0,0
756,-440,0,0,0,0,0,0,0,0,0,-1,1980,1464,0,0
763,-440,0,0,0,0,0,0,0,0,0,-1,1987,1464,0,0
770,-440,0,0,0,0,0,0,0,0,0,-1,1994,1464,0,0
777,-440,0,0,0,0,0,0,0,0,0,-1,2001,1464,0,0
784,-440,0,0,0,0,0,0,0,0,0,-1,2008,1464,0,0
791,-440,0,0,0,0,0,0,0,0,0,-1,2015,1464,0,0
798,-440,0,0,0,0,0,0,0,0,0,-1,2022,1464,0,0
805,-440,0,0,0,0,0,0,0,0,0,-1,2029,1464,0,0
812,-440,0,0,0,0,0,0,0,0,0,-1,2036,1464,0,0
-700,-447,0,0,0,0,0,0,0,0,0,-1,524,1471,0,0
-693,-447,0,0,0,0,0,0,0,0,0,-1,531,1471,0,0
-686,-447,0,0,0,0,0,0,0,0,0,-1,538,1471,0,0
-679,-447,0,0,0,0,0,0,0,0,0,-1,545,1471,0,0
-672,-447,0,0,0,0,0,0,0,0,0,-1,552,1471,0,0
-665,-447,0,0,0,0,0,0,0,0,0,-1,559,1471,0,0
-658,-447,0,0,0,0,0,0,0,0,0,-1,566,1471,0,0
-651,-447,0,0,0,0,0,0,0,0,0,-1,573,1471,0,0
-644,-447,0,0,0,0,0,0,0,0,0,-1,580,1471,0,0
-637,-447,0,0,0,0,0,0,0,0,0,-1,587,1471,0,0
-630,-447,0,0,0,0,0,0,0,0,0,-1,594,1471,0,0
-623,-447,0,0,0,0,0,0,0,0,0,-1,601,1471,0,0
-616,-447,0,0,0,0,0,0,0,0,0,-1,608,1471,0,0
-609,-447,0,0,0,0,0,0,0,0,0,-1,615,1471,0,0
-602,-447,0,0,0,0,0,0,0,0,0,-1,622,1471,0,0
-595,-447,0,0,0,0,0,0,0,0,0,-1,629,1471,0,0
-588,-447,0,0,0,0,0,0,0,0,0,-1,636,1471,0,0
-581,-447,-7.06482,-1.50476,0,0,0,0,0,0,0,-1,643,1471,-7.0648,1.50474
-574,-447,-6.88092,-0.00585938,0,0,0,0,0,0,0,-1,650,1471,-6.88095,0.00589852
-567,-447,-6.8205,-1.32178,0,0,0,0,0,0,0,-1,657,1471,-6.82047,1.32172
-560,-447,-8.85748,2.80774,0,0,0,0,0,0,0,-1,664,1471,-8.85748,-2.80775
-553,-447,-7.60486,3.26794,0,0,0,0,0,0,0,-1,671,1471,-7.60487,-3.26799
-546,-447,-3.94501,1.8656,0,0,0,0,0,0,0,-1,678,1471,-3.945,-1.86554
-539,-447,-4.43756,3.77979,0,0,0,0,0,0,0,-1,685,1471,-4.43755,-3.77974
-532,-447,-3.98206,4.4834,0.0121981,0.0102744,0.0204024,0.0316613,-0.00918883,0.761844,0.0247459,0.0479789,692,1471,-3.98208,-4.48341
-525,-447,-3.57996,5.34888,0.00975,0.00882585,0.016304,0.0255984,-0.00702259,0.771231,0.0198255,0.0327123,699,1471,-3.57995,-5.34884
-518,-447,-3.73761,5.58398,0.00768732,0.00713956,0.0125838,0.0200002,-0.00517332,0.774518,0.0153513,0.0247696,706,1471,-3.73758,-5.58398
-511,-447,-3.72186,5.88574,0.00601014,0.00551326,0.00936263,0.0151276,-0.00360422,0.772134,0.0114767,0.0160138,713,1471,-3.72185,-5.88579
-504,-447,-3.72205,6.21411,0.00463311,0.00393026,0.0065951,0.0108861,-0.00232277,0.758781,0.00814287,0.0194881,720,1471,-3.72202,-6.21406
-497,-447,-3.74677,6.51074,0.00355242,0.00238732,0.00415822,0.0071687,-0.00122896,0.715803,0.00523708,0.0255714,727,1471,-3.74675,-6.51069
-490,-447,-3.73657,6.78027,0.00249167,0.000783003,0.00157754,0.00343136,-0.000156681,0.537227,0.00234155,0.0261113,734,1471,-3.73657,-6.78026
-483,-447,-3.76471,7.06152,0.00148202,-0.000861189,-0.000971885,0.00183266,-0.00121183,-0.346245,0.00176987,0.0225272,741,1471,-3.76471,-7.06149
-476,-447,-3.78827,7.34192,8.63033e-05,-0.00251597,-0.00393074,0.00292566,-0.00535532,-0.625567,0.00484914,0.0137561,748,1471,-3.78826,-7.34195
-469,-447,-3.78253,7.65051,-0.00124581,-0.00469809,-0.00706087,0.00429685,-0.0102407,-0.665517,0.00862397,0.0121924,755,1471,-3.78254,-7.65046
-462,-447,-3.7605,7.95813,-0.00249181,-0.00660445,-0.0101995,0.00585658,-0.0149528,-0.685926,0.012391,0.0127704,762,1471,-3.7605,-7.95818
-455,-447,-3.77576,8.24988,-0.00412738,-0.00887527,-0.0139863,0.00768503,-0.0206877,-0.701333,0.0169447,0.0137519,769,1471,-3.77575,-8.24989
-448,-447,-3.70239,8.53491,-0.00617961,-0.0116565,-0.0187601,0.0100408,-0.0278769,-0.712924,0.0226848,0.0204501,776,1471,-3.70241,-8.53497
-441,-447,-3.745,8.73779,-0.00877949,-0.0149922,-0.0246818,0.0129907,-0.0367624,-0.722799,0.0297979,0.0295943,783,1471,-3.74501,-8.73781
-434,-447,-4.01483,8.92029,-0.0119976,-0.0191027,-0.03146,0.0161098,-0.0472101,-0.729175,0.0379992,0.0408261,790,1471,-4.01482,-8.92031
-427,-447,-4.55927,8.77905,-0.0159879,-0.0244388,-0.0396028,0.0196143,-0.060041,-0.732252,0.0479226,0.0430344,797,1471,-4.55925,-8.77901
-420,-447,-5.11346,8.77087,0,0,0,0,0,0,0,-1,804,1471,-5.11344,-8.77091
-413,-447,-4.52795,7.78223,0,0,0,0,0,0,0,-1,811,1471,-4.52796,-7.78222
-406,-447,-1.04279,6.18591,0,0,0,0,0,0,0,-1,818,1471,-1.04276,-6.18586
-399,-447,0.0134888,0.687622,0,0,0,0,0,0,0,-1,825,1471,0.0134841,-0.68767
-392,-447,-14.0646,3.76147,0,0,0,0,0,0,0,-1,832,1471,-14.0646,-3.7615
-385,-447,-15.1695,2.61865,0,0,0,0,0,0,0,-1,839,1471,-15.1695,-2.61871
-378,-447,-15.9424,1.49316,0,0,0,0,0,0,0,-1,846,1471,-15.9424,-1.49313
-371,-447,-17.3655,0.73291,0,0,0,0,0,0,0,-1,853,1471,-17.3655,-0.732946
-364,-447,0,0,0,0,0,0,0,0,0,-1,860,1471,0,0
-357,-447,0,0,0,0,0,0,0,0,0,-1,867,1471,0,0
-350,-447,0,0,0,0,0,0,0,0,0,-1,874,1471,0,0
-343,-447,0,0,0,0,0,0,0,0,0,-1,881,1471,0,0
-336,-447,0,0,0,0,0,0,0,0,0,-1,888,1471,0,0
-329,-447,0,0,0,0,0,0,0,0,0,-1,895,1471,0,0
-322,-447,0,0,0,0,0,0,0,0,0,-1,902,1471,0,0
-315,-447,0,0,0,0,0,0,0,0,0,-1,909,1471,0,0
-308,-447,0,0,0,0,0,0,0,0,0,-1,916,1471,0,0
-301,-447,0,0,0,0,0,0,0,0,0,-1,923,1471,0,0
-294,-447,0,0,0,0,0,0,0,0,0,-1,930,1471,0,0
-287,-447,0,0,0,0,0,0,0,0,0,-1,937,1471,0,0
-280,-447,0,0,0,0,0,0,0,0,0,-1,944,1471,0,0
-273,-447,0,0,0,0,0,0,0,0,0,-1,951,1471,0,0
-266,-447,0,0,0,0,0,0,0,0,0,-1,958,1471,0,0
-259,-447,0,0,0,0,0,0,0,0,0,-1,965,1471,0,0
-252,-447,0,0,0,0,0,0,0,0,0,-1,972,1471,0,0
-245,-447,0,0,0,0,0,0,0,0,0,-1,979,1471,0,0
-238,-447,0,0,0,0,0,0,0,0,0,-1,986,1471,0,0
-231,-447,0,0,0,0,0,0,0,0,0,-1,993,1471,0,0
-224,-447,0,0,0,0,0,0,0,0,0,-1,1000,1471,0,0
-217,-447,0,0,0,0,0,0,0,0,0,-1,1007,1471,0,0
-210,-447,0,0,0,0,0,0,0,0,0,-1,1014,1471,0,0
-203,-447,0,0,0,0,0,0,0,0,0,-1,1021,1471,0,0
-196,-447,0,0,0,0,0,0,0,0,0,-1,1028,1471,0,0
-189,-447,0,0,0,0,0,0,0,0,0,-1,1035,1471,0,0
-182,-447,0,0,0,0,0,0,0,0,0,-1,1042,1471,0,0
-175,-447,0,0,0,0,0,0,0,0,0,-1,1049,1471,0,0
-168,-447,0,0,0,0,0,0,0,0,0,-1,1056,1471,0,0
-161,-447,0,0,0,0,0,0,0,0,0,-1,1063,1471,0,0
-154,-447,0,0,0,0,0,0,0,0,0,-1,1070,1471,0,0
-147,-447,0,0,0,0,0,0,0,0,0,-1,1077,1471,0,0
-140,-447,0,0,0,0,0,0,0,0,0,-1,1084,1471,0,0
-133,-447,0,0,0,0,0,0,0,0,0,-1,1091,1471,0,0
-126,-447,0,0,0,0,0,0,0,0,0,-1,1098,1471,0,0
-119,-447,0,0,0,0,0,0,0,0,0,-1,1105,1471,0,0
-112,-447,0,0,0,0,0,0,0,0,0,-1,1112,1471,0,0
-105,-447,0,0,0,0,0,0,0,0,0,-1,1119,1471,0,0
-98,-447,0,0,0,0,0,0,0,0,0,-1,1126,1471,0,0
-91,-447,0,0,0,0,0,0,0,0,0,-1,1133,1471,0,0
-84,-447,0,0,0,0,0,0,0,0,0,-1,1140,1471,0,0
-77,-447,0,0,0,0,0,0,0,0,0,-1,1147,1471,0,0
-70,-447,0,0,0,0,0,0,0,0,0,-1,1154,1471,0,0
-63,-447,0,0,0,0,0,0,0,0,0,-1,1161,1471,0,0
-56,-447,0,0,0,0,0,0,0,0,0,-1,1168,1471,0,0
-49,-447,0,0,0,0,0,0,0,0,0,-1,1175,1471,0,0
-42,-447,0,0,0,0,0,0,0,0,0,-1,1182,1471,0,0
-35,-447,0,0,0,0,0,0,0,0,0,-1,1189,1471,0,0
-28,-447,0,0,0,0,0,0,0,0,0,-1,1196,1471,0,0
-21,-447,0,0,0,0,0,0,0,0,0,-1,1203,1471,0,0
-14,-447,0,0,0,0,0,0,0,0,0,-1,1210,1471,0,0
-7,-447,0,0,0,0,0,0,0,0,0,-1,1217,1471,0,0
0,-447,0,0,0,0,0,0,0,0,0,-1,1224,1471,0,0
7,-447,0,0,0,0,0,0,0,0,0,-1,1231,1471,0,0
14,-447,0,0,0,0,0,0,0,0,0,-1,1238,1471,0,0
21,-447,0,0,0,0,0,0,0,0,0,-1,1245,1471,0,0
28,-447,0,0,0,0,0,0,0,0,0,-1,1252,1471,0,0
35,-447,0,0,0,0,0,0,0,0,0,-1,1259,1471,0,0
42,-447,0,0,0,0,0,0,0,0,0,-1,1266,1471,0,0
49,-447,0,0,0,0,0,0,0,0,0,-1,1273,1471,0,0
56,-447,0,0,0,0,0,0,0,0,0,-1,1280,1471,0,0
63,-447,0,0,0,0,0,0,0,0,0,-1,1287,1471,0,0
70,-447,0,0,0,0,0,0,0,0,0,-1,1294,1471,0,0
77,-447,0,0,0,0,0,0,0,0,0,-1,1301,1471,0,0
84,-447,0,0,0,0,0,0,0,0,0,-1,1308,1471,0,0
91,-447,0,0,0,0,0,0,0,0,0,-1,1315,1471,0,0
98,-447,0,0,0,0,0,0,0,0,0,-1,1322,1471,0,0
105,-447,0,0,0,0,0,0,0,0,0,-1,1329,1471,0,0
112,-447,0,0,0,0,0,0,0,0,0,-1,1336,1471,0,0
119,-447,0,0,0,0,0,0,0,0,0,-1,1343,1471,0,0
126,-447,0,0,0,0,0,0,0,0,0,-1,1350,1471,0,0
133,-447,0,0,0,0,0,0,0,0,0,-1,1357,1471,0,0
140,-447,0,0,0,0,0,0,0,0,0,-1,1364,1471,0,0
147,-447,0,0,0,0,0,0,0,0,0,-1,1371,1471,0,0
154,-447,0,0,0,0,0,0,0,0,0,-1,1378,1471,0,0
161,-447,0,0,0,0,0,0,0,0,0,-1,1385,1471,0,0
168,-447,0,0,0,0,0,0,0,0,0,-1,1392,1471,0,0
175,-447,0,0,0,0,0,0,0,0,0,-1,1399,1471,0,0
182,-447,0,0,0,0,0,0,0,0,0,-1,1406,1471,0,0
189,-447,0,0,0,0,0,0,0,0,0,-1,1413,1471,0,0
196,-447,0,0,0,0,0,0,0,0,0,-1,1420,1471,0,0
203,-447,0,0,0,0,0,0,0,0,0,-1,1427,1471,0,0
210,-447,0,0,0,0,0,0,0,0,0,-1,1434,1471,0,0
217,-447,0,0,0,0,0,0,0,0,0,-1,1441,1471,0,0
224,-447,0,0,0,0,0,0,0,0,0,-1,1448,1471,0,0
231,-447,0,0,0,0,0,0,0,0,0,-1,1455,1471,0,0
238,-447,0,0,0,0,0,0,0,0,0,-1,1462,1471,0,0
245,-447,0,0,0,0,0,0,0,0,0,-1,1469,1471,0,0
252,-447,0,0,0,0,0,0,0,0,0,-1,1476,1471,0,0
259,-447,0,0,0,0,0,0,0,0,0,-1,1483,1471,0,0
266,-447,0,0,0,0,0,0,0,0,0,-1,1490,1471,0,0
273,-447,0,0,0,0,0,0,0,0,0,-1,1497,1471,0,0
280,-447,0,0,0,0,0,0,0,0,0,-1,1504,1471,0,0
287,-447,0,0,0,0,0,0,0,0,0,-1,1511,1471,0,0
294,-447,0,0,0,0,0,0,0,0,0,-1,1518,1471,0,0
301,-447,0,0,0,0,0,0,0,0,0,-1,1525,1471,0,0
308,-447,0,0,0,0,0,0,0,0,0,-1,1532,1471,0,0
315,-447,0,0,0,0,0,0,0,0,0,-1,1539,1471,0,0
322,-447,0,0,0,0,0,0,0,0,0,-1,1546,1471,0,0
329,-447,0,0,0,0,0,0,0,0,0,-1,1553,1471,0,0
336,-447,0,0,0,0,0,0,0,0,0,-1,1560,1471,0,0
343,-447,0,0,0,0,0,0,0,0,0,-1,1567,1471,0,0
350,-447,0,0,0,0,0,0,0,0,0,-1,1574,1471,0,0
357,-447,0,0,0,0,0,0,0,0,0,-1,1581,1471,0,0
364,-447,0,0,0,0,0,0,0,0,0,-1,1588,1471,0,0
371,-447,0,0,0,0,0,0,0,0,0,-1,1595,1471,0,0
378,-447,0,0,0,0,0,0,0,0,0,-1,1602,1471,0,0
385,-447,0,0,0,0,0,0,0,0,0,-1,1609,1471,0,0
392,-447,0,0,0,0,0,0,0,0,0,-1,1616,1471,0,0
399,-447,0,0,0,0,0,0,0,0,0,-1,1623,1471,0,0
406,-447,0,0,0,0,0,0,0,0,0,-1,1630,1471,0,0
413,-447,0,0,0,0,0,0,0,0,0,-1,1637,1471,0,0
420,-447,0,0,0,0,0,0,0,0,0,-1,1644,1471,0,0
427,-447,0,0,0,0,0,0,0,0,0,-1,1651,1471,0,0
434,-447,0,0,0,0,0,0,0,0,0,-1,1658,1471,0,0
441,-447,0,0,0,0,0,0,0,0,0,-1,1665,1471,0,0
448,-447,0,0,0,0,0,0,0,0,0,-1,1672,1471,0,0
455,-447,0,0,0,0,0,0,0,0,0,-1,1679,1471,0,0
462,-447,0,0,0,0,0,0,0,0,0,-1,1686,1471,0,0
469,-447,0,0,0,0,0,0,0,0,0,-1,1693,1471,0,0
476,-447,0,0,0,0,0,0,0,0,0,-1,1700,1471,0,0
483,-447,0,0,0,0,0,0,0,0,0,-1,1707,1471,0,0
490,-447,18.2214,-0.810303,0,0,0,0,0,0,0,-1,1714,1471,18.2215,0.810307
497,-447,17.0237,0.352417,0,0,0,0,0,0,0,-1,1721,1471,17.0237,-0.352442
504,-447,15.8998,1.53479,0,0,0,0,0,0,0,-1,1728,1471,15.8997,-1.53478
511,-447,14.7201,2.76111,0,0,0,0,0,0,0,-1,1735,1471,14.7201,-2.76107
518,-447,17.7618,13.2864,0,0,0,0,0,0,0,-1,1742,1471,17.7619,-13.2863
525,-447,17.1191,11.9014,0,0,0,0,0,0,0,-1,1749,1471,17.1191,-11.9013
532,-447,16.3959,10.0455,0,0,0,0,0,0,0,-1,1756,1471,16.3959,-10.0456
539,-447,14.1699,10.0204,0,0,0,0,0,0,0,-1,1763,1471,14.1699,-10.0204
546,-447,15.3717,9.94324,0,0,0,0,0,0,0,-1,1770,1471,15.3717,-9.94319
553,-447,14.6873,9.92847,-0.0532735,-0.0466036,0.0222524,-0.0274376,-0.0724395,0.859779,0.0422308,0.0467725,1777,1471,14.6873,-9.92844
560,-447,13.9214,9.97864,-0.0432556,-0.0379517,0.0183112,-0.0221014,-0.0591059,0.857313,0.0344845,0.0473645,1784,1471,13.9214,-9.97858
567,-447,13.5084,10.0881,-0.0344022,-0.0302348,0.0150043,-0.0171702,-0.0474668,0.854393,0.0277521,0.043729,1791,1471,13.5084,-10.0881
574,-447,13.3309,10.1844,-0.0269279,-0.0235499,0.0121935,-0.012929,-0.0375488,0.854219,0.0220263,0.0333356,1798,1471,13.3309,-10.1845
581,-447,13.1963,10.1312,-0.0207349,-0.0178997,0.00981341,-0.00940204,-0.0292326,0.857128,0.0172317,0.019373,1805,1471,13.1963,-10.1312
588,-447,13.2211,9.81787,-0.0156743,-0.0132075,0.00765024,-0.00669188,-0.0221899,0.865323,0.0131433,0.0142697,1812,1471,13.2211,-9.81781
595,-447,13.2047,9.547,-0.0115366,-0.00949764,0.00592494,-0.00450509,-0.0165291,0.870595,0.00986671,0.0122832,1819,1471,13.2047,-9.547
602,-447,13.1938,9.27295,-0.00822218,-0.00671429,0.004578,-0.00282856,-0.0121079,0.86701,0.00731374,0.0107474,1826,1471,13.1938,-9.273
609,-447,13.2053,9.0083,-0.00506646,-0.00431111,0.00330318,-0.00136408,-0.00801349,0.842319,0.00495067,0.0112472,1833,1471,13.2054,-9.00829
616,-447,13.2202,8.76038,-0.00275228,-0.00261218,0.00237647,-0.000304729,-0.00505973,0.800131,0.00327631,0.0134764,1840,1471,13.2202,-8.76037
623,-447,13.2267,8.53125,-0.001223,-0.00145657,0.00156073,0.000225306,-0.00290488,0.748055,0.00201589,0.0152079,1847,1471,13.2267,-8.53127
630,-447,13.2043,8.25842,4.68478e-05,-0.000952546,0.000896513,0.000573519,-0.00147922,0.531153,0.001223,0.00913568,1854,1471,13.2044,-8.25839
637,-447,13.2006,8.00208,0.00117856,-0.000542053,0.000387737,0.0012619,-0.000625392,0.211716,0.00111009,0.010234,1861,1471,13.2006,-8.00211
644,-447,13.2052,7.7356,0.00216074,-0.000225781,1.87971e-05,0.00216089,-0.000225929,0.00787571,0.00152151,0.0109869,1868,1471,13.2052,-7.73554
651,-447,13.2526,7.47437,0.00251137,-0.000182331,7.81094e-05,0.00251363,-0.000184594,0.0289646,0.00174055,0.0233768,1875,1471,13.2526,-7.47436
658,-447,13.1127,7.3042,0.00225429,-0.000203496,0.000460963,0.0023379,-0.000287106,0.179431,0.00166259,0.0326299,1882,1471,13.1127,-7.30416
665,-447,13.1653,6.78406,0.0021702,0.000263236,0.000685049,0.00239078,4.26568e-05,0.311507,0.00157983,0.0471338,1889,1471,13.1653,-6.784
672,-447,13.3484,6.45178,0,0,0,0,0,0,0,-1,1896,1471,13.3484,-6.45176
679,-447,12.1326,7.48804,0,0,0,0,0,0,0,-1,1903,1471,12.1326,-7.48808
686,-447,9.81079,4.30859,0,0,0,0,0,0,0,-1,1910,1471,9.8108,-4.30864
693,-447,10.48,2.08643,0,0,0,0,0,0,0,-1,1917,1471,10.48,-2.08642
700,-447,0,0,0,0,0,0,0,0,0,-1,1924,1471,0,0
707,-447,0,0,0,0,0,0,0,0,0,-1,1931,1471,0,0
714,-447,0,0,0,0,0,0,0,0,0,-1,1938,1471,0,0
721,-447,0,0,0,0,0,0,0,0,0,-1,1945,1471,0,0
728,-447,0,0,0,0,0,0,0,0,0,-1,1952,1471,0,0
735,-447,0,0,0,0,0,0,0,0,0,-1,1959,1471,0,0
742,-447,0,0,0,0,0,0,0,0,0,-1,1966,1471,0,0
749,-447,0,0,0,0,0,0,0,0,0,-1,1973,1471,0,0
756,-447,0,0,0,0,0,0,0,0,0,-1,1980,1471,0,0
763,-447,0,0,0,0,0,0,0,0,0,-1,1987,1471,0,0
770,-447,0,0,0,0,0,0,0,0,0,-1,1994,1471,0,0
777,-447,0,0,0,0,0,0,0,0,0,-1,2001,1471,0,0
784,-447,0,0,0,0,0,0,0,0,0,-1,2008,1471,0,0
791,-447,0,0,0,0,0,0,0,0,0,-1,2015,1471,0,0
798,-447,0,0,0,0,0,0,0,0,0,-1,2022,1471,0,0
805,-447,0,0,0,0,0,0,0,0,0,-1,2029,1471,0,0
812,-447,0,0,0,0,0,0,0,0,0,-1,2036,1471,0,0
-700,-454,0,0,0,0,0,0,0,0,0,-1,524,1478,0,0
-693,-454,0,0,0,0,0,0,0,0,0,-1,531,1478,0,0
-686,-454,0,0,0,0,0,0,0,0,0,-1,538,1478,0,0
-679,-454,0,0,0,0,0,0,0,0,0,-1,545,1478,0,0
-672,-454,0,0,0,0,0,0,0,0,0,-1,552,1478,0,0
-665,-454,0,0,0,0,0,0,0,0,0,-1,559,1478,0,0
-658,-454,0,0,0,0,0,0,0,0,0,-1,566,1478,0,0
-651,-454,0,0,0,0,0,0,0,0,0,-1,573,1478,0,0
-644,-454,0,0,0,0,0,0,0,0,0,-1,580,1478,0,0
-637,-454,0,0,0,0,0,0,0,0,0,-1,587,1478,0,0
-630,-454,0,0,0,0,0,0,0,0,0,-1,594,1478,0,0
-623,-454,0,0,0,0,0,0,0,0,0,-1,601,1478,0,0
-616,-454,0,0,0,0,0,0,0,0,0,-1,608,1478,0,0
-609,-454,0,0,0,0,0,0,0,0,0,-1,615,1478,0,0
-602,-454,0,0,0,0,0,0,0,0,0,-1,622,1478,0,0
-595,-454,0,0,0,0,0,0,0,0,0,-1,629,1478,0,0
-588,-454,0,0,0,0,0,0,0,0,0,-1,636,1478,0,0
-581,-454,0,0,0,0,0,0,0,0,0,-1,643,1478,0,0
-574,-454,-8.4881,-0.465942,0,0,0,0,0,0,0,-1,650,1478,-8.4881,0.465885
-567,-454,-8.10046,0.922974,0,0,0,0,0,0,0,-1,657,1478,-8.10047,-0.923034
-560,-454,-10.656,3.51172,0,0,0,0,0,0,0,-1,664,1478,-10.656,-3.51176
-553,-454,-9.01129,3.95251,0,0,0,0,0,0,0,-1,671,1478,-9.0113,-3.95256
-546,-454,-7.63965,4.38733,0,0,0,0,0,0,0,-1,678,1478,-7.63964,-4.3873
-539,-454,-4.83545,3.25732,0,0,0,0,0,0,0,-1,685,1478,-4.83545,-3.25729
-532,-454,-3.48352,3.90332,0,0,0,0,0,0,0,-1,692,1478,-3.48351,-3.90334
-525,-454,-3.45947,4.82263,0.0132088,0.00994278,0.0213353,0.0329735,-0.00982187,0.747202,0.025885,0.0422932,699,1478,-3.45947,-4.82258
-518,-454,-3.42932,5.77783,0.0103149,0.00792318,0.0159647,0.0251284,-0.0068904,0.748015,0.0194601,0.031143,706,1478,-3.42933,-5.77784
-511,-454,-3.49298,5.88879,0.00796795,0.0060888,0.0115561,0.0186226,-0.00456584,0.744835,0.0141841,0.0193327,713,1478,-3.49296,-5.88885
-504,-454,-3.45667,6.21191,0.00606459,0.0044225,0.00806716,0.0133524,-0.00286529,0.734685,0.00999454,0.0153647,720,1478,-3.45664,-6.21197
-497,-454,-3.44318,6.52893,0.00458625,0.00292515,0.00526247,0.00908331,-0.00157191,0.707131,0.0066418,0.0199437,727,1478,-3.44318,-6.52892
-490,-454,-3.44482,6.81274,0.00328261,0.00139053,0.00263405,0.00513536,-0.000462221,0.612993,0.00358759,0.0183257,734,1478,-3.4448,-6.81279
-483,-454,-3.47284,7.0874,0.00212082,-0.000116776,0.000189214,0.00213671,-0.000132663,0.0837685,0.00147069,0.0157045,741,1478,-3.47285,-7.08737
-476,-454,-3.49091,7.34143,0.000696537,-0.0015874,-0.00251343,0.00231526,-0.00320612,-0.572167,0.00320157,0.0133515,748,1478,-3.49089,-7.34144
-469,-454,-3.48572,7.64783,-0.000560525,-0.0036024,-0.0052989,0.00343139,-0.00759432,-0.645641,0.00651519,0.00984524,755,1478,-3.48573,-7.64788
-462,-454,-3.49707,7.93958,-0.00158446,-0.00522577,-0.0078079,0.00461225,-0.0114225,-0.670855,0.00953191,0.0101862,762,1478,-3.49707,-7.9396
-455,-454,-3.49896,8.21069,-0.00283215,-0.0071778,-0.010695,0.00590848,-0.0159184,-0.68518,0.013036,0.0110749,769,1478,-3.49895,-8.21066
-448,-454,-3.48383,8.49353,-0.00425045,-0.00952275,-0.0142241,0.00757969,-0.0213529,-0.693773,0.0173237,0.0127796,776,1478,-3.48384,-8.49352
-441,-454,-3.36084,8.78979,-0.0059616,-0.0123193,-0.0185829,0.00971237,-0.0279933,-0.700686,0.0226061,0.0238256,783,1478,-3.36082,-8.78978
-434,-454,-3.25006,8.98291,-0.00796556,-0.0158201,-0.0235197,0.0119525,-0.0357382,-0.702672,0.028653,0.0332481,790,1478,-3.25009,-8.98294
-427,-454,-3.52393,8.96387,-0.0100302,-0.0201889,-0.0291836,0.0145129,-0.0447319,-0.699237,0.0356573,0.0428738,797,1478,-3.52394,-8.96389
-420,-454,-3.81226,8.61829,-0.0113912,-0.0242872,-0.0347517,0.0175056,-0.053184,-0.693669,0.0425101,0.0476602,804,1478,-3.81228,-8.61825
-413,-454,-4.21368,7.93445,0,0,0,0,0,0,0,-1,811,1478,-4.21368,-7.93447
-406,-454,-2.38208,10.0308,0,0,0,0,0,0,0,-1,818,1478,-2.38209,-10.0308
-399,-454,-1.21033,6.95447,0,0,0,0,0,0,0,-1,825,1478,-1.21035,-6.95452
-392,-454,0.0967407,0.985474,0,0,0,0,0,0,0,-1,832,1478,0.0967364,-0.985529
-385,-454,2.38629,3.297,0,0,0,0,0,0,0,-1,839,1478,2.38629,-3.29702
-378,-454,-15.9756,2.83997,0,0,0,0,0,0,0,-1,846,1478,-15.9756,-2.83994
-371,-454,-17.2753,2.01453,0,0,0,0,0,0,0,-1,853,1478,-17.2753,-2.01455
-364,-454,1.08124,0.819458,0,0,0,0,0,0,0,-1,860,1478,1.08124,-0.819513
-357,-454,0,0,0,0,0,0,0,0,0,-1,867,1478,0,0
-350,-454,0,0,0,0,0,0,0,0,0,-1,874,1478,0,0
-343,-454,0,0,0,0,0,0,0,0,0,-1,881,1478,0,0
-336,-454,0,0,0,0,0,0,0,0,0,-1,888,1478,0,0
-329,-454,0,0,0,0,0,0,0,0,0,-1,895,1478,0,0
-322,-454,0,0,0,0,0,0,0,0,0,-1,902,1478,0,0
-315,-454,0,0,0,0,0,0,0,0,0,-1,909,1478,0,0
-308,-454,0,0,0,0,0,0,0,0,0,-1,916,1478,0,0
-301,-454,0,0,0,0,0,0,0,0,0,-1,923,1478,0,0
-294,-454,0,0,0,0,0,0,0,0,0,-1,930,1478,0,0
-287,-454,0,0,0,0,0,0,0,0,0,-1,937,1478,0,0
-280,-454,0,0,0,0,0,0,0,0,0,-1,944,1478,0,0
-273,-454,0,0,0,0,0,0,0,0,0,-1,951,1478,0,0
-266,-454,0,0,0,0,0,0,0,0,0,-1,958,1478,0,0
-259,-454,0,0,0,0,0,0,0,0,0,-1,965,1478,0,0
-252,-454,0,0,0,0,0,0,0,0,0,-1,972,1478,0,0
-245,-454,0,0,0,0,0,0,0,0,0,-1,979,1478,0,0
-238,-454,0,0,0,0,0,0,0,0,0,-1,986,1478,0,0
-231,-454,0,0,0,0,0,0,0,0,0,-1,993,1478,0,0
-224,-454,0,0,0,0,0,0,0,0,0,-1,1000,1478,0,0
-217,-454,0,0,0,0,0,0,0,0,0,-1,1007,1478,0,0
-210,-454,0,0,0,0,0,0,0,0,0,-1,1014,1478,0,0
-203,-454,0,0,0,0,0,0,0,0,0,-1,1021,1478,0,0
-196,-454,0,0,0,0,0,0,0,0,0,-1,1028,1478,0,0
-189,-454,0,0,0,0,0,0,0,0,0,-1,1035,1478,0,0
-182,-454,0,0,0,0,0,0,0,0,0,-1,1042,1478,0,0
-175,-454,0,0,0,0,0,0,0,0,0,-1,1049,1478,0,0
-168,-454,0,0,0,0,0,0,0,0,0,-1,1056,1478,0,0
-161,-454,0,0,0,0,0,0,0,0,0,-1,1063,1478,0,0
-154,-454,0,0,0,0,0,0,0,0,0,-1,1070,1478,0,0
-147,-454,0,0,0,0,0,0,0,0,0,-1,1077,1478,0,0
-140,-454,0,0,0,0,0,0,0,0,0,-1,1084,1478,0,0
-133,-454,0,0,0,0,0,0,0,0,0,-1,1091,1478,0,0
-126,-454,0,0,0,0,0,0,0,0,0,-1,1098,1478,0,0
-119,-454,0,0,0,0,0,0,0,0,0,-1,1105,1478,0,0
-112,-454,0,0,0,0,0,0,0,0,0,-1,1112,1478,0,0
-105,-454,0,0,0,0,0,0,0,0,0,-1,1119,1478,0,0
-98,-454,0,0,0,0,0,0,0,0,0,-1,1126,1478,0,0
-91,-454,0,0,0,0,0,0,0,0,0,-1,1133,1478,0,0
-84,-454,0,0,0,0,0,0,0,0,0,-1,1140,1478,0,0
-77,-454,0,0,0,0,0,0,0,0,0,-1,1147,1478,0,0
-70,-454,0,0,0,0,0,0,0,0,0,-1,1154,1478,0,0
-63,-454,0,0,0,0,0,0,0,0,0,-1,1161,1478,0,0
-56,-454,0,0,0,0,0,0,0,0,0,-1,1168,1478,0,0
-49,-454,0,0,0,0,0,0,0,0,0,-1,1175,1478,0,0
-42,-454,0,0,0,0,0,0,0,0,0,-1,1182,1478,0,0
-35,-454,0,0,0,0,0,0,0,0,0,-1,1189,1478,0,0
-28,-454,0,0,0,0,0,0,0,0,0,-1,1196,1478,0,0
-21,-454,0,0,0,0,0,0,0,0,0,-1,1203,1478,0,0
-14,-454,0,0,0,0,0,0,0,0,0,-1,1210,1478,0,0
-7,-454,0,0,0,0,0,0,0,0,0,-1,1217,1478,0,0
0,-454,0,0,0,0,0,0,0,0,0,-1,1224,1478,0,0
7,-454,0,0,0,0,0,0,0,0,0,-1,1231,1478,0,0
14,-454,0,0,0,0,0,0,0,0,0,-1,1238,1478,0,0
21,-454,0,0,0,0,0,0,0,0,0,-1,1245,1478,0,0
28,-454,0,0,0,0,0,0,0,0,0,-1,1252,1478,0,0
35,-454,0,0,0,0,0,0,0,0,0,-1,1259,1478,0,0
42,-454,0,0,0,0,0,0,0,0,0,-1,1266,1478,0,0
49,-454,0,0,0,0,0,0,0,0,0,-1,1273,1478,0,0
56,-454,0,0,0,0,0,0,0,0,0,-1,1280,1478,0,0
63,-454,0,0,0,0,0,0,0,0,0,-1,1287,1478,0,0
70,-454,0,0,0,0,0,0,0,0,0,-1,1294,1478,0,0
77,-454,0,0,0,0,0,0,0,0,0,-1,1301,1478,0,0
84,-454,0,0,0,0,0,0,0,0,0,-1,1308,1478,0,0
91,-454,0,0,0,0,0,0,0,0,0,-1,1315,1478,0,0
98,-454,0,0,0,0,0,0,0,0,0,-1,1322,1478,0,0
105,-454,0,0,0,0,0,0,0,0,0,-1,1329,1478,0,0
112,-454,0,0,0,0,0,0,0,0,0,-1,1336,1478,0,0
119,-454,0,0,0,0,0,0,0,0,0,-1,1343,1478,0,0
126,-454,0,0,0,0,0,0,0,0,0,-1,1350,1478,0,0
133,-454,0,0,0,0,0,0,0,0,0,-1,1357,1478,0,0
140,-454,0,0,0,0,0,0,0,0,0,-1,1364,1478,0,0
147,-454,0,0,0,0,0,0,0,0,0,-1,1371,1478,0,0
154,-454,0,0,0,0,0,0,0,0,0,-1,1378,1478,0,0
161,-454,0,0,0,0,0,0,0,0,0,-1,1385,1478,0,0
168,-454,0,0,0,0,0,0,0,0,0,-1,1392,1478,0,0
175,-454,0,0,0,0,0,0,0,0,0,-1,1399,1478,0,0
182,-454,0,0,0,0,0,0,0,0,0,-1,1406,1478,0,0
189,-454,0,0,0,0,0,0,0,0,0,-1,1413,1478,0,0
196,-454,0,0,0,0,0,0,0,0,0,-1,1420,1478,0,0
203,-454,0,0,0,0,0,0,0,0,0,-1,1427,1478,0,0
210,-454,0,0,0,0,0,0,0,0,0,-1,1434,1478,0,0
217,-454,0,0,0,0,0,0,0,0,0,-1,1441,1478,0,0
224,-454,0,0,0,0,0,0,0,0,0,-1,1448,1478,0,0
231,-454,0,0,0,0,0,0,0,0,0,-1,1455,1478,0,0
238,-454,0,0,0,0,0,0,0,0,0,-1,1462,1478,0,0
245,-454,0,0,0,0,0,0,0,0,0,-1,1469,1478,0,0
252,-454,0,0,0,0,0,0,0,0,0,-1,1476,1478,0,0
259,-454,0,0,0,0,0,0,0,0,0,-1,1483,1478,0,0
266,-454,0,0,0,0,0,0,0,0,0,-1,1490,1478,0,0
273,-454,0,0,0,0,0,0,0,0,0,-1,1497,1478,0,0
280,-454,0,0,0,0,0,0,0,0,0,-1,1504,1478,0,0
287,-454,0,0,0,0,0,0,0,0,0,-1,1511,1478,0,0
294,-454,0,0,0,0,0,0,0,0,0,-1,1518,1478,0,0
301,-454,0,0,0,0,0,0,0,0,0,-1,1525,1478,0,0
308,-454,0,0,0,0,0,0,0,0,0,-1,1532,1478,0,0
315,-454,0,0,0,0,0,0,0,0,0,-1,1539,1478,0,0
322,-454,0,0,0,0,0,0,0,0,0,-1,1546,1478,0,0
329,-454,0,0,0,0,0,0,0,0,0,-1,1553,1478,0,0
336,-454,0,0,0,0,0,0,0,0,0,-1,1560,1478,0,0
343,-454,0,0,0,0,0,0,0,0,0,-1,1567,1478,0,0
350,-454,0,0,0,0,0,0,0,0,0,-1,1574,1478,0,0
357,-454,0,0,0,0,0,0,0,0,0,-1,1581,1478,0,0
364,-454,0,0,0,0,0,0,0,0,0,-1,1588,1478,0,0
371,-454,0,0,0,0,0,0,0,0,0,-1,1595,1478,0,0
378,-454,0,0,0,0,0,0,0,0,0,-1,1602,1478,0,0
385,-454,0,0,0,0,0,0,0,0,0,-1,1609,1478,0,0
392,-454,0,0,0,0,0,0,0,0,0,-1,1616,1478,0,0
399,-454,0,0,0,0,0,0,0,0,0,-1,1623,1478,0,0
406,-454,0,0,0,0,0,0,0,0,0,-1,1630,1478,0,0
413,-454,0,0,0,0,0,0,0,0,0,-1,1637,1478,0,0
420,-454,0,0,0,0,0,0,0,0,0,-1,1644,1478,0,0
427,-454,0,0,0,0,0,0,0,0,0,-1,1651,1478,0,0
434,-454,0,0,0,0,0,0,0,0,0,-1,1658,1478,0,0
441,-454,0,0,0,0,0,0,0,0,0,-1,1665,1478,0,0
448,-454,0,0,0,0,0,0,0,0,0,-1,1672,1478,0,0
455,-454,0,0,0,0,0,0,0,0,0,-1,1679,1478,0,0
462,-454,0,0,0,0,0,0,0,0,0,-1,1686,1478,0,0
469,-454,0,0,0,0,0,0,0,0,0,-1,1693,1478,0,0
476,-454,0,0,0,0,0,0,0,0,0,-1,1700,1478,0,0
483,-454,14.2399,3.97498,0,0,0,0,0,0,0,-1,1707,1478,14.2399,-3.97502
490,-454,18.1821,-0.175781,0,0,0,0,0,0,0,-1,1714,1478,18.1821,0.175822
497,-454,16.8854,1.01208,0,0,0,0,0,0,0,-1,1721,1478,16.8854,-1.01209
504,-454,15.587,2.05994,0,0,0,0,0,0,0,-1,1728,1478,15.5871,-2.05998
511,-454,17.0273,14.5258,0,0,0,0,0,0,0,-1,1735,1478,17.0273,-14.5258
518,-454,16.4158,13.1039,0,0,0,0,0,0,0,-1,1742,1478,16.4157,-13.1038
525,-454,15.7842,11.6628,0,0,0,0,0,0,0,-1,1749,1478,15.7841,-11.6629
532,-454,15.1094,10.2476,0,0,0,0,0,0,0,-1,1756,1478,15.1094,-10.2475
539,-454,13.7905,10.9373,0,0,0,0,0,0,0,-1,1763,1478,13.7906,-10.9372
546,-454,12.978,10.0884,0,0,0,0,0,0,0,-1,1770,1478,12.978,-10.0884
553,-454,12.8917,10.0046,0,0,0,0,0,0,0,-1,1777,1478,12.8917,-10.0046
560,-454,12.7957,10.6985,0,0,0,0,0,0,0,-1,1784,1478,12.7957,-10.6985
567,-454,13.2455,10.6813,0,0,0,0,0,0,0,-1,1791,1478,13.2455,-10.6813
574,-454,12.9531,10.2952,-0.0204968,-0.0191813,0.0100413,-0.00977618,-0.0299019,0.818104,0.0176052,0.0159798,1798,1478,12.9532,-10.2952
581,-454,12.9579,10.0508,-0.0155649,-0.0144735,0.00784994,-0.00715034,-0.0228881,0.8201,0.0135209,0.012194,1805,1478,12.9579,-10.0508
588,-454,12.974,9.79321,-0.0114886,-0.0104731,0.00588635,-0.00507264,-0.0168891,0.828421,0.0100067,0.0126968,1812,1478,12.974,-9.79327
595,-454,12.9495,9.53772,-0.00816529,-0.00732535,0.00441479,-0.0033106,-0.01218,0.832819,0.00727218,0.0119477,1819,1478,12.9495,-9.53775
602,-454,12.9352,9.27661,-0.0055193,-0.00498475,0.00334367,-0.00189768,-0.00860636,0.82528,0.00522126,0.00871231,1826,1478,12.9352,-9.27656
609,-454,12.9598,9.03394,-0.00299707,-0.0029693,0.0023259,-0.000657244,-0.00530913,0.788383,0.00334195,0.00989376,1833,1478,12.9598,-9.03393
616,-454,12.9761,8.77722,-0.00114556,-0.00152313,0.00160576,0.00028248,-0.00295116,0.726883,0.00206804,0.0135815,1840,1478,12.976,-8.77718
623,-454,12.9702,8.51758,0.000114815,-0.000549818,0.00100133,0.000837534,-0.00127254,0.62518,0.00122685,0.0114078,1847,1478,12.9702,-8.51754
630,-454,12.9561,8.26636,0.00120589,-8.23734e-05,0.000511894,0.00138452,-0.000261006,0.335752,0.0010212,0.00983533,1854,1478,12.9561,-8.2664
637,-454,12.9514,8.01978,0.00223058,0.000312426,0.000127496,0.00223902,0.000303988,0.0660808,0.00140237,0.00960709,1861,1478,12.9514,-8.01976
644,-454,13.0049,7.75354,0.00315148,0.000613594,-0.000149661,0.00316028,0.000604799,-0.0586994,0.00193698,0.0167976,1868,1478,13.0049,-7.75351
651,-454,12.8744,7.62317,0.00338977,0.000632391,2.05073e-05,0.00338992,0.000632238,0.0074367,0.00208146,0.0316409,1875,1478,12.8744,-7.6232
658,-454,12.9053,7.35791,0.00309985,0.00063696,0.000433864,0.00317404,0.000562766,0.169371,0.00195562,0.0388433,1882,1478,12.9053,-7.35795
665,-454,13.0402,7.03821,0,0,0,0,0,0,0,-1,1889,1478,13.0402,-7.03825
672,-454,12.6014,5.61816,0,0,0,0,0,0,0,-1,1896,1478,12.6014,-5.61811
679,-454,14.2161,5.45007,0,0,0,0,0,0,0,-1,1903,1478,14.2161,-5.45013
686,-454,10.3767,2.12842,0,0,0,0,0,0,0,-1,1910,1478,10.3767,-2.12839
693,-454,11.1857,1.48486,0,0,0,0,0,0,0,-1,1917,1478,11.1857,-1.48487
700,-454,0,0,0,0,0,0,0,0,0,-1,1924,1478,0,0
707,-454,0,0,0,0,0,0,0,0,0,-1,1931,1478,0,0
714,-454,0,0,0,0,0,0,0,0,0,-1,1938,1478,0,0
721,-454,0,0,0,0,0,0,0,0,0,-1,1945,1478,0,0
728,-454,0,0,0,0,0,0,0,0,0,-1,1952,1478,0,0
735,-454,0,0,0,0,0,0,0,0,0,-1,1959,1478,0,0
742,-454,0,0,0,0,0,0,0,0,0,-1,1966,1478,0,0
749,-454,0,0,0,0,0,0,0,0,0,-1,1973,1478,0,0
756,-454,0,0,0,0,0,0,0,0,0,-1,1980,1478,0,0
763,-454,0,0,0,0,0,0,0,0,0,-1,1987,1478,0,0
770,-454,0,0,0,0,0,0,0,0,0,-1,1994,1478,0,0
777,-454,0,0,0,0,0,0,0,0,0,-1,2001,1478,0,0
784,-454,0,0,0,0,0,0,0,0,0,-1,2008,1478,0,0
791,-454,0,0,0,0,0,0,0,0,0,-1,2015,1478,0,0
798,-454,0,0,0,0,0,0,0,0,0,-1,2022,1478,0,0
805,-454,0,0,0,0,0,0,0,0,0,-1,2029,1478,0,0
812,-454,0,0,0,0,0,0,0,0,0,-1,2036,1478,0,0
-700,-461,0,0,0,0,0,0,0,0,0,-1,524,1485,0,0
-693,-461,0,0,0,0,0,0,0,0,0,-1,531,1485,0,0
-686,-461,0,0,0,0,0,0,0,0,0,-1,538,1485,0,0
-679,-461,0,0,0,0,0,0,0,0,0,-1,545,1485,0,0
-672,-461,0,0,0,0,0,0,0,0,0,-1,552,1485,0,0
-665,-461,0,0,0,0,0,0,0,0,0,-1,559,1485,0,0
-658,-461,0,0,0,0,0,0,0,0,0,-1,566,1485,0,0
-651,-461,0,0,0,0,0,0,0,0,0,-1,573,1485,0,0
-644,-461,0,0,0,0,0,0,0,0,0,-1,580,1485,0,0
-637,-461,0,0,0,0,0,0,0,0,0,-1,587,1485,0,0
-630,-461,0,0,0,0,0,0,0,0,0,-1,594,1485,0,0
-623,-461,0,0,0,0,0,0,0,0,0,-1,601,1485,0,0
-616,-461,0,0,0,0,0,0,0,0,0,-1,608,1485,0,0
-609,-461,0,0,0,0,0,0,0,0,0,-1,615,1485,0,0
-602,-461,0,0,0,0,0,0,0,0,0,-1,622,1485,0,0
-595,-461,0,0,0,0,0,0,0,0,0,-1,629,1485,0,0
-588,-461,0,0,0,0,0,0,0,0,0,-1,636,1485,0,0
-581,-461,0,0,0,0,0,0,0,0,0,-1,643,1485,0,0
-574,-461,0,0,0,0,0,0,0,0,0,-1,650,1485,0,0
-567,-461,-9.69031,0.513306,0,0,0,0,0,0,0,-1,657,1485,-9.69032,-0.513305
-560,-461,-7.28815,1.54004,0,0,0,0,0,0,0,-1,664,1485,-7.28817,-1.54005
-553,-461,-10.1774,4.61963,0,0,0,0,0,0,0,-1,671,1485,-10.1774,-4.61957
-546,-461,-5.84113,2.38074,0,0,0,0,0,0,0,-1,678,1485,-5.8411,-2.38071
-539,-461,-3.9635,1.92151,0,0,0,0,0,0,0,-1,685,1485,-3.96353,-1.9215
-532,-461,-3.59796,2.81763,0,0,0,0,0,0,0,-1,692,1485,-3.59795,-2.81768
-525,-461,-3.39392,3.91016,0.0174118,0.0104709,0.0264182,0.0405865,-0.0127039,0.720089,0.0321404,0.0406586,699,1485,-3.39393,-3.91017
-518,-461,-3.20044,5.37305,0.0135235,0.0082627,0.0190676,0.0301412,-0.00835506,0.716855,0.0233822,0.0381665,706,1485,-3.20045,-5.3731
-511,-461,-3.1554,5.9823,0.0103234,0.0063692,0.0133101,0.0218025,-0.00510983,0.711666,0.0165041,0.0220305,713,1485,-3.15538,-5.98225
-504,-461,-3.20154,6.2135,0.00779407,0.00469693,0.009008,0.0153856,-0.00289463,0.700275,0.0113457,0.0124511,720,1485,-3.20156,-6.21346
-497,-461,-3.15167,6.52429,0.00583446,0.00330384,0.00581608,0.0105213,-0.00138297,0.67829,0.00751769,0.0105354,727,1485,-3.15169,-6.52433
-490,-461,-3.16772,6.8114,0.00422345,0.0018753,0.00314835,0.00640952,-0.000310767,0.606927,0.00438028,0.0113554,734,1485,-3.16772,-6.81135
-483,-461,-3.18677,7.09924,0.00286238,0.000511929,0.000835554,0.00312913,0.000245175,0.309026,0.00200936,0.0118583,741,1485,-3.18674,-7.09924
-476,-461,-3.19812,7.38672,0.00138087,-0.000774977,-0.00158148,0.00221684,-0.00161095,-0.486266,0.00221918,0.0107605,748,1485,-3.19809,-7.38669
-469,-461,-3.20422,7.65222,0.000150473,-0.00261019,-0.00401419,0.00301502,-0.00547474,-0.619799,0.00496967,0.0117802,755,1485,-3.20424,-7.65225
-462,-461,-3.21625,7.92114,-0.000733057,-0.00398927,-0.00595471,0.00381212,-0.00853444,-0.651952,0.00730002,0.0166732,762,1485,-3.21626,-7.9211
-455,-461,-3.2171,8.20483,-0.00169732,-0.00566982,-0.00806712,0.00462447,-0.0119916,-0.664692,0.00990262,0.0202163,769,1485,-3.21708,-8.20478
-448,-461,-3.16858,8.49158,-0.00263755,-0.00763297,-0.0105538,0.00571004,-0.0159806,-0.669203,0.0129826,0.0183157,776,1485,-3.1686,-8.49153
-441,-461,-3.18121,8.78906,-0.00367004,-0.00994082,-0.0136274,0.00717797,-0.0207888,-0.672326,0.0167719,0.0155621,783,1485,-3.1812,-8.789
-434,-461,-3.00598,9.02527,-0.00479676,-0.0128668,-0.0171629,0.00879906,-0.0264627,-0.669944,0.0211927,0.0201009,790,1485,-3.00596,-9.02522
-427,-461,-2.96283,9.2179,-0.00556366,-0.0164143,-0.0211669,0.0108621,-0.0328401,-0.659943,0.0262735,0.0286924,797,1485,-2.96281,-9.21796
-420,-461,-3.10669,9.28418,-0.0052981,-0.018741,-0.0245775,0.0134605,-0.0374996,-0.651922,0.0304935,0.0464148,804,1485,-3.10668,-9.28419
-413,-461,-3.30066,9.52283,0,0,0,0,0,0,0,-1,811,1485,-3.30069,-9.52289
-406,-461,-3.70245,9.56335,0,0,0,0,0,0,0,-1,818,1485,-3.70245,-9.5634
-399,-461,-1.93439,9.82849,0,0,0,0,0,0,0,-1,825,1485,-1.9344,-9.82846
-392,-461,-0.357544,5.55225,0,0,0,0,0,0,0,-1,832,1485,-0.357536,-5.55228
-385,-461,1.71509,3.35254,0,0,0,0,0,0,0,-1,839,1485,1.71511,-3.35255
-378,-461,1.95996,3.01111,0,0,0,0,0,0,0,-1,846,1485,1.95993,-3.01111
-371,-461,0.702881,2.33459,0,0,0,0,0,0,0,-1,853,1485,0.702859,-2.33459
-364,-461,-1.93097,2.56458,0,0,0,0,0,0,0,-1,860,1485,-1.93095,-2.56456
-357,-461,-2.41516,3.49487,0,0,0,0,0,0,0,-1,867,1485,-2.41517,-3.49487
-350,-461,0,0,0,0,0,0,0,0,0,-1,874,1485,0,0
-343,-461,0,0,0,0,0,0,0,0,0,-1,881,1485,0,0
-336,-461,0,0,0,0,0,0,0,0,0,-1,888,1485,0,0
-329,-461,0,0,0,0,0,0,0,0,0,-1,895,1485,0,0
-322,-461,0,0,0,0,0,0,0,0,0,-1,902,1485,0,0
-315,-461,0,0,0,0,0,0,0,0,0,-1,909,1485,0,0
-308,-461,0,0,0,0,0,0,0,0,0,-1,916,1485,0,0
-301,-461,0,0,0,0,0,0,0,0,0,-1,923,1485,0,0
-294,-461,0,0,0,0,0,0,0,0,0,-1,930,1485,0,0
-287,-461,0,0,0,0,0,0,0,0,0,-1,937,1485,0,0
-280,-461,0,0,0,0,0,0,0,0,0,-1,944,1485,0,0
-273,-461,0,0,0,0,0,0,0,0,0,-1,951,1485,0,0
-266,-461,0,0,0,0,0,0,0,0,0,-1,958,1485,0,0
-259,-461,0,0,0,0,0,0,0,0,0,-1,965,1485,0,0
-252,-461,0,0,0,0,0,0,0,0,0,-1,972,1485,0,0
-245,-461,0,0,0,0,0,0,0,0,0,-1,979,1485,0,0
-238,-461,0,0,0,0,0,0,0,0,0,-1,986,1485,0,0
-231,-461,0,0,0,0,0,0,0,0,0,-1,993,1485,0,0
-224,-461,0,0,0,0,0,0,0,0,0,-1,1000,1485,0,0
-217,-461,0,0,0,0,0,0,0,0,0,-1,1007,1485,0,0
-210,-461,0,0,0,0,0,0,0,0,0,-1,1014,1485,0,0
-203,-461,0,0,0,0,0,0,0,0,0,-1,1021,1485,0,0
-196,-461,0,0,0,0,0,0,0,0,0,-1,1028,1485,0,0
-189,-461,0,0,0,0,0,0,0,0,0,-1,1035,1485,0,0
-182,-461,0,0,0,0,0,0,0,0,0,-1,1042,1485,0,0
-175,-461,0,0,0,0,0,0,0,0,0,-1,1049,1485,0,0
-168,-461,0,0,0,0,0,0,0,0,0,-1,1056,1485,0,0
-161,-461,0,0,0,0,0,0,0,0,0,-1,1063,1485,0,0
-154,-461,0,0,0,0,0,0,0,0,0,-1,1070,1485,0,0
-147,-461,0,0,0,0,0,0,0,0,0,-1,1077,1485,0,0
-140,-461,0,0,0,0,0,0,0,0,0,-1,1084,1485,0,0
-133,-461,0,0,0,0,0,0,0,0,0,-1,1091,1485,0,0
-126,-461,0,0,0,0,0,0,0,0,0,-1,1098,1485,0,0
-119,-461,0,0,0,0,0,0,0,0,0,-1,1105,1485,0,0
-112,-461,0,0,0,0,0,0,0,0,0,-1,1112,1485,0,0
-105,-461,0,0,0,0,0,0,0,0,0,-1,1119,1485,0,0
-98,-461,0,0,0,0,0,0,0,0,0,-1,1126,1485,0,0
-91,-461,0,0,0,0,0,0,0,0,0,-1,1133,1485,0,0
-84,-461,0,0,0,0,0,0,0,0,0,-1,1140,1485,0,0
-77,-461,0,0,0,0,0,0,0,0,0,-1,1147,1485,0,0
-70,-461,0,0,0,0,0,0,0,0,0,-1,1154,1485,0,0
-63,-461,0,0,0,0,0,0,0,0,0,-1,1161,1485,0,0
-56,-461,0,0,0,0,0,0,0,0,0,-1,1168,1485,0,0
-49,-461,0,0,0,0,0,0,0,0,0,-1,1175,1485,0,0
-42,-461,0,0,0,0,0,0,0,0,0,-1,1182,1485,0,0
-35,-461,0,0,0,0,0,0,0,0,0,-1,1189,1485,0,0
-28,-461,0,0,0,0,0,0,0,0,0,-1,1196,1485,0,0
-21,-461,0,0,0,0,0,0,0,0,0,-1,1203,1485,0,0
-14,-461,0,0,0,0,0,0,0,0,0,-1,1210,1485,0,0
-7,-461,0,0,0,0,0,0,0,0,0,-1,1217,1485,0,0
0,-461,0,0,0,0,0,0,0,0,0,-1,1224,1485,0,0
7,-461,0,0,0,0,0,0,0,0,0,-1,1231,1485,0,0
14,-461,0,0,0,0,0,0,0,0,0,-1,1238,1485,0,0
21,-461,0,0,0,0,0,0,0,0,0,-1,1245,1485,0,0
28,-461,0,0,0,0,0,0,0,0,0,-1,1252,1485,0,0
35,-461,0,0,0,0,0,0,0,0,0,-1,1259,1485,0,0
42,-461,0,0,0,0,0,0,0,0,0,-1,1266,1485,0,0
49,-461,0,0,0,0,0,0,0,0,0,-1,1273,1485,0,0
56,-461,0,0,0,0,0,0,0,0,0,-1,1280,1485,0,0
63,-461,0,0,0,0,0,0,0,0,0,-1,1287,1485,0,0
70,-461,0,0,0,0,0,0,0,0,0,-1,1294,1485,0,0
77,-461,0,0,0,0,0,0,0,0,0,-1,1301,1485,0,0
84,-461,0,0,0,0,0,0,0,0,0,-1,1308,1485,0,0
91,-461,0,0,0,0,0,0,0,0,0,-1,1315,1485,0,0
98,-461,0,0,0,0,0,0,0,0,0,-1,1322,1485,0,0
105,-461,0,0,0,0,0,0,0,0,0,-1,1329,1485,0,0
112,-461,0,0,0,0,0,0,0,0,0,-1,1336,1485,0,0
119,-461,0,0,0,0,0,0,0,0,0,-1,1343,1485,0,0
126,-461,0,0,0,0,0,0,0,0,0,-1,1350,1485,0,0
133,-461,0,0,0,0,0,0,0,0,0,-1,1357,1485,0,0
140,-461,0,0,0,0,0,0,0,0,0,-1,1364,1485,0,0
147,-461,0,0,0,0,0,0,0,0,0,-1,1371,1485,0,0
154,-461,0,0,0,0,0,0,0,0,0,-1,1378,1485,0,0
161,-461,0,0,0,0,0,0,0,0,0,-1,1385,1485,0,0
168,-461,0,0,0,0,0,0,0,0,0,-1,1392,1485,0,0
175,-461,0,0,0,0,0,0,0,0,0,-1,1399,1485,0,0
182,-461,0,0,0,0,0,0,0,0,0,-1,1406,1485,0,0
189,-461,0,0,0,0,0,0,0,0,0,-1,1413,1485,0,0
196,-461,0,0,0,0,0,0,0,0,0,-1,1420,1485,0,0
203,-461,0,0,0,0,0,0,0,0,0,-1,1427,1485,0,0
210,-461,0,0,0,0,0,0,0,0,0,-1,1434,1485,0,0
217,-461,0,0,0,0,0,0,0,0,0,-1,1441,1485,0,0
224,-461,0,0,0,0,0,0,0,0,0,-1,1448,1485,0,0
231,-461,0,0,0,0,0,0,0,0,0,-1,1455,1485,0,0
238,-461,0,0,0,0,0,0,0,0,0,-1,1462,1485,0,0
245,-461,0,0,0,0,0,0,0,0,0,-1,1469,1485,0,0
252,-461,0,0,0,0,0,0,0,0,0,-1,1476,1485,0,0
259,-461,0,0,0,0,0,0,0,0,0,-1,1483,1485,0,0
266,-461,0,0,0,0,0,0,0,0,0,-1,1490,1485,0,0
273,-461,0,0,0,0,0,0,0,0,0,-1,1497,1485,0,0
280,-461,0,0,0,0,0,0,0,0,0,-1,1504,1485,0,0
287,-461,0,0,0,0,0,0,0,0,0,-1,1511,1485,0,0
294,-461,0,0,0,0,0,0,0,0,0,-1,1518,1485,0,0
301,-461,0,0,0,0,0,0,0,0,0,-1,1525,1485,0,0
308,-461,0,0,0,0,0,0,0,0,0,-1,1532,1485,0,0
315,-461,0,0,0,0,0,0,0,0,0,-1,1539,1485,0,0
322,-461,0,0,0,0,0,0,0,0,0,-1,1546,1485,0,0
329,-461,0,0,0,0,0,0,0,0,0,-1,1553,1485,0,0
336,-461,0,0,0,0,0,0,0,0,0,-1,1560,1485,0,0
343,-461,0,0,0,0,0,0,0,0,0,-1,1567,1485,0,0
350,-461,0,0,0,0,0,0,0,0,0,-1,1574,1485,0,0
357,-461,0,0,0,0,0,0,0,0,0,-1,1581,1485,0,0
364,-461,0,0,0,0,0,0,0,0,0,-1,1588,1485,0,0
371,-461,0,0,0,0,0,0,0,0,0,-1,1595,1485,0,0
378,-461,0,0,0,0,0,0,0,0,0,-1,1602,1485,0,0
385,-461,0,0,0,0,0,0,0,0,0,-1,1609,1485,0,0
392,-461,0,0,0,0,0,0,0,0,0,-1,1616,1485,0,0
399,-461,0,0,0,0,0,0,0,0,0,-1,1623,1485,0,0
406,-461,0,0,0,0,0,0,0,0,0,-1,1630,1485,0,0
413,-461,0,0,0,0,0,0,0,0,0,-1,1637,1485,0,0
420,-461,0,0,0,0,0,0,0,0,0,-1,1644,1485,0,0
427,-461,0,0,0,0,0,0,0,0,0,-1,1651,1485,0,0
434,-461,0,0,0,0,0,0,0,0,0,-1,1658,1485,0,0
441,-461,0,0,0,0,0,0,0,0,0,-1,1665,1485,0,0
448,-461,0,0,0,0,0,0,0,0,0,-1,1672,1485,0,0
455,-461,0,0,0,0,0,0,0,0,0,-1,1679,1485,0,0
462,-461,0,0,0,0,0,0,0,0,0,-1,1686,1485,0,0
469,-461,0,0,0,0,0,0,0,0,0,-1,1693,1485,0,0
476,-461,14.1906,0.690552,0,0,0,0,0,0,0,-1,1700,1485,14.1906,-0.690525
483,-461,10.6361,3.09106,0,0,0,0,0,0,0,-1,1707,1485,10.6361,-3.091
490,-461,17.9972,0.665894,0,0,0,0,0,0,0,-1,1714,1485,17.9972,-0.665876
497,-461,16.6829,1.87732,0,0,0,0,0,0,0,-1,1721,1485,16.6828,-1.87736
504,-461,15.3884,3.09216,0,0,0,0,0,0,0,-1,1728,1485,15.3885,-3.09212
511,-461,15.4292,14.3512,0,0,0,0,0,0,0,-1,1735,1485,15.4292,-14.3512
518,-461,14.8081,10.0085,0,0,0,0,0,0,0,-1,1742,1485,14.8081,-10.0086
525,-461,14.0022,10.8033,0,0,0,0,0,0,0,-1,1749,1485,14.0022,-10.8033
532,-461,13.4508,11.2866,0,0,0,0,0,0,0,-1,1756,1485,13.4508,-11.2866
539,-461,12.6163,8.87024,0,0,0,0,0,0,0,-1,1763,1485,12.6163,-8.87027
546,-461,12.6344,10.5289,0,0,0,0,0,0,0,-1,1770,1485,12.6344,-10.5289
553,-461,12.7235,10.4812,-0.0327476,-0.0323633,0.0179673,-0.0145871,-0.0505238,0.790745,0.0300255,0.0479645,1777,1485,12.7235,-10.4812
560,-461,12.6321,10.6578,-0.0257859,-0.0257302,0.0138872,-0.0118709,-0.0396453,0.786401,0.0234951,0.0366102,1784,1485,12.632,-10.6578
567,-461,12.7018,10.5087,-0.0199146,-0.0200266,0.0106472,-0.00932327,-0.0306179,0.782768,0.0181221,0.015853,1791,1485,12.7018,-10.5087
574,-461,12.7004,10.2767,-0.0150656,-0.0152572,0.00807551,-0.00708532,-0.0232375,0.779466,0.0137524,0.0151938,1798,1485,12.7004,-10.2767
581,-461,12.7166,10.0374,-0.0111075,-0.0113247,0.0060607,-0.00515439,-0.0172777,0.776439,0.0102422,0.0142493,1805,1485,12.7166,-10.0374
588,-461,12.7119,9.81091,-0.0077931,-0.00792104,0.00426515,-0.00359144,-0.0121227,0.7779,0.00719013,0.0114629,1812,1485,12.712,-9.81086
595,-461,12.6981,9.54736,-0.00511471,-0.0052686,0.00300543,-0.00218524,-0.00819807,0.772599,0.0049021,0.00902511,1819,1485,12.6982,-9.54733
602,-461,12.6964,9.27771,-0.00302263,-0.00333426,0.00217622,-0.000996649,-0.00536024,0.749661,0.00329196,0.00942357,1826,1485,12.6965,-9.27766
609,-461,12.7025,9.02441,-0.00107521,-0.00170431,0.00141591,6.06652e-05,-0.00284018,0.676096,0.001914,0.0106362,1833,1485,12.7025,-9.02441
616,-461,12.7196,8.77332,0.00030655,-0.000547475,0.000925721,0.000898998,-0.00113992,0.569303,0.00117991,0.0131981,1840,1485,12.7196,-8.77331
623,-461,12.7034,8.521,0.00124605,0.000182584,0.000576659,0.00149871,-7.00786e-05,0.412955,0.0010233,0.0122694,1847,1485,12.7034,-8.521
630,-461,12.7006,8.27454,0.00208836,0.000548602,0.000331922,0.00215687,0.000480098,0.203528,0.0013076,0.0104494,1854,1485,12.7006,-8.27448
637,-461,12.7185,8.02661,0.00293116,0.000863394,0.000153672,0.00294252,0.000852036,0.0737775,0.0017483,0.0117751,1861,1485,12.7185,-8.02665
644,-461,12.7509,7.81384,0.00371494,0.00110073,5.1141e-05,0.00371594,0.00109973,0.0195528,0.00220414,0.0239422,1868,1485,12.7509,-7.81389
651,-461,12.824,7.50427,0,0,0,0,0,0,0,-1,1875,1485,12.824,-7.50422
658,-461,12.916,7.66309,0,0,0,0,0,0,0,-1,1882,1485,12.916,-7.66308
665,-461,13.2434,7.66821,0,0,0,0,0,0,0,-1,1889,1485,13.2435,-7.66822
672,-461,14.4877,6.89429,0,0,0,0,0,0,0,-1,1896,1485,14.4876,-6.89431
679,-461,10.0535,2.16321,0,0,0,0,0,0,0,-1,1903,1485,10.0535,-2.16317
686,-461,10.8195,1.84192,0,0,0,0,0,0,0,-1,1910,1485,10.8194,-1.84195
693,-461,0,0,0,0,0,0,0,0,0,-1,1917,1485,0,0
700,-461,0,0,0,0,0,0,0,0,0,-1,1924,1485,0,0
707,-461,0,0,0,0,0,0,0,0,0,-1,1931,1485,0,0
714,-461,0,0,0,0,0,0,0,0,0,-1,1938,1485,0,0
721,-461,0,0,0,0,0,0,0,0,0,-1,1945,1485,0,0
728,-461,0,0,0,0,0,0,0,0,0,-1,1952,1485,0,0
735,-461,0,0,0,0,0,0,0,0,0,-1,1959,1485,0,0
742,-461,0,0,0,0,0,0,0,0,0,-1,1966,1485,0,0
749,-461,0,0,0,0,0,0,0,0,0,-1,1973,1485,0,0
756,-461,0,0,0,0,0,0,0,0,0,-1,1980,1485,0,0
763,-461,0,0,0,0,0,0,0,0,0,-1,1987,1485,0,0
770,-461,0,0,0,0,0,0,0,0,0,-1,1994,1485,0,0
777,-461,0,0,0,0,0,0,0,0,0,-1,2001,1485,0,0
784,-461,0,0,0,0,0,0,0,0,0,-1,2008,1485,0,0
791,-461,0,0,0,0,0,0,0,0,0,-1,2015,1485,0,0
798,-461,0,0,0,0,0,0,0,0,0,-1,2022,1485,0,0
805,-461,0,0,0,0,0,0,0,0,0,-1,2029,1485,0,0
812,-461,0,0,0,0,0,0,0,0,0,-1,2036,1485,0,0
-700,-468,0,0,0,0,0,0,0,0,0,-1,524,1492,0,0
-693,-468,0,0,0,0,0,0,0,0,0,-1,531,1492,0,0
-686,-468,0,0,0,0,0,0,0,0,0,-1,538,1492,0,0
-679,-468,0,0,0,0,0,0,0,0,0,-1,545,1492,0,0
-672,-468,0,0,0,0,0,0,0,0,0,-1,552,1492,0,0
-665,-468,0,0,0,0,0,0,0,0,0,-1,559,1492,0,0
-658,-468,0,0,0,0,0,0,0,0,0,-1,566,1492,0,0
-651,-468,0,0,0,0,0,0,0,0,0,-1,573,1492,0,0
-644,-468,0,0,0,0,0,0,0,0,0,-1,580,1492,0,0
-637,-468,0,0,0,0,0,0,0,0,0,-1,587,1492,0,0
-630,-468,0,0,0,0,0,0,0,0,0,-1,594,1492,0,0
-623,-468,0,0,0,0,0,0,0,0,0,-1,601,1492,0,0
-616,-468,0,0,0,0,0,0,0,0,0,-1,608,1492,0,0
-609,-468,0,0,0,0,0,0,0,0,0,-1,615,1492,0,0
-602,-468,0,0,0,0,0,0,0,0,0,-1,622,1492,0,0
-595,-468,0,0,0,0,0,0,0,0,0,-1,629,1492,0,0
-588,-468,0,0,0,0,0,0,0,0,0,-1,636,1492,0,0
-581,-468,0,0,0,0,0,0,0,0,0,-1,643,1492,0,0
-574,-468,0,0,0,0,0,0,0,0,0,-1,650,1492,0,0
-567,-468,-11.2603,1.8042,0,0,0,0,0,0,0,-1,657,1492,-11.2603,-1.80424
-560,-468,-8.77441,2.23694,0,0,0,0,0,0,0,-1,664,1492,-8.77443,-2.23692
-553,-468,-5.94061,9.26318,0,0,0,0,0,0,0,-1,671,1492,-5.94062,-9.26322
-546,-468,-4.7998,1.08606,0,0,0,0,0,0,0,-1,678,1492,-4.79979,-1.08604
-539,-468,-4.17371,2.18201,0,0,0,0,0,0,0,-1,685,1492,-4.17368,-2.18197
-532,-468,-3.70251,3.16235,0.0285259,0.0125928,0.0429184,0.0642109,-0.0230922,0.693632,0.0522348,0.0407666,692,1492,-3.70253,-3.16236
-525,-468,-3.55267,4.0824,0.0225514,0.0102317,0.0309636,0.0479619,-0.0151788,0.687211,0.0380569,0.0393122,699,1492,-3.55266,-4.08245
-518,-468,-3.38446,5.14453,0.0173342,0.00801185,0.0216466,0.0348157,-0.00946973,0.679353,0.0269279,0.0424184,706,1492,-3.38444,-5.14456
-511,-468,-2.90845,5.94653,0.0131229,0.006099,0.0146452,0.0246713,-0.00544942,0.667719,0.018533,0.0361724,713,1492,-2.90845,-5.94659
-504,-468,-2.87793,6.24084,0.00976967,0.00450993,0.00965097,0.0171427,-0.00286306,0.652379,0.0124926,0.0170282,720,1492,-2.8779,-6.24087
-497,-468,-2.89496,6.52332,0.00721595,0.00323793,0.00612555,0.0116673,-0.00121344,0.628415,0.00821263,0.0094205,727,1492,-2.89498,-6.52326
-490,-468,-2.883,6.82556,0.00522825,0.0019434,0.00344495,0.00740226,-0.000230617,0.562955,0.00501348,0.00718153,734,1492,-2.883,-6.82555
-483,-468,-2.90436,7.11194,0.00361627,0.000739884,0.00127603,0.00410075,0.000255409,0.362862,0.0026528,0.00795462,741,1492,-2.90437,-7.11199
-476,-468,-2.90448,7.39417,0.00204316,-0.000334525,-0.000856858,0.00231977,-0.000611135,-0.312258,0.00178544,0.00872963,748,1492,-2.9045,-7.39411
-469,-468,-2.90448,7.64478,0.000793663,-0.00192389,-0.00296051,0.00269233,-0.00382255,-0.570256,0.00378019,0.0121003,755,1492,-2.90446,-7.64483
-462,-468,-2.89795,7.93481,-1.92374e-05,-0.00302977,-0.00444202,0.00316563,-0.00621464,-0.622036,0.00551025,0.0213145,762,1492,-2.89796,-7.93476
-455,-468,-2.90515,8.1936,-0.000781006,-0.00440502,-0.005953,0.00362965,-0.00881567,-0.63766,0.00739033,0.0225964,769,1492,-2.90517,-8.19357
-448,-468,-2.90466,8.48486,-0.001371,-0.00595989,-0.00764529,0.00431672,-0.0116476,-0.639618,0.00953543,0.0142779,776,1492,-2.90466,-8.48488
-441,-468,-2.91003,8.78931,-0.00190182,-0.00775456,-0.00974997,0.00535147,-0.0150079,-0.639605,0.0121872,0.0136431,783,1492,-2.91002,-8.78928
-434,-468,-2.87799,9.08069,-0.00238318,-0.0100564,-0.0122624,0.00662881,-0.0190684,-0.633784,0.0154048,0.0134128,790,1492,-2.87799,-9.08065
-427,-468,-2.81946,9.33057,-0.00231977,-0.0128438,-0.01502,0.00833327,-0.0234969,-0.616912,0.0190596,0.0180258,797,1492,-2.81947,-9.33058
-420,-468,-2.75763,9.54041,-0.00113414,-0.0142613,-0.0169685,0.010496,-0.0258914,-0.600856,0.021626,0.0314399,804,1492,-2.75763,-9.54037
-413,-468,-2.56793,9.76453,0,0,0,0,0,0,0,-1,811,1492,-2.5679,-9.7645
-406,-468,-2.2356,9.396,0,0,0,0,0,0,0,-1,818,1492,-2.2356,-9.396
-399,-468,-0.940369,8.1936,0,0,0,0,0,0,0,-1,825,1492,-0.940365,-8.19357
-392,-468,-0.35144,8.14673,0,0,0,0,0,0,0,-1,832,1492,-0.351449,-8.14674
-385,-468,0.465759,5.35864,0,0,0,0,0,0,0,-1,839,1492,0.465732,-5.35864
-378,-468,1.99835,3.25391,0,0,0,0,0,0,0,-1,846,1492,1.99837,-3.2539
-371,-468,-0.31842,3.1532,0,0,0,0,0,0,0,-1,853,1492,-0.318441,-3.15324
-364,-468,-0.966736,2.14563,0,0,0,0,0,0,0,-1,860,1492,-0.966735,-2.14557
-357,-468,-3.06787,3.22742,0,0,0,0,0,0,0,-1,867,1492,-3.06784,-3.2274
-350,-468,-3.18658,4.12659,0,0,0,0,0,0,0,-1,874,1492,-3.18659,-4.12658
-343,-468,0,0,0,0,0,0,0,0,0,-1,881,1492,0,0
-336,-468,0,0,0,0,0,0,0,0,0,-1,888,1492,0,0
-329,-468,0,0,0,0,0,0,0,0,0,-1,895,1492,0,0
-322,-468,0,0,0,0,0,0,0,0,0,-1,902,1492,0,0
-315,-468,0,0,0,0,0,0,0,0,0,-1,909,1492,0,0
-308,-468,0,0,0,0,0,0,0,0,0,-1,916,1492,0,0
-301,-468,0,0,0,0,0,0,0,0,0,-1,923,1492,0,0
-294,-468,0,0,0,0,0,0,0,0,0,-1,930,1492,0,0
-287,-468,0,0,0,0,0,0,0,0,0,-1,937,1492,0,0
-280,-468,0,0,0,0,0,0,0,0,0,-1,944,1492,0,0
-273,-468,0,0,0,0,0,0,0,0,0,-1,951,1492,0,0
-266,-468,0,0,0,0,0,0,0,0,0,-1,958,1492,0,0
-259,-468,0,0,0,0,0,0,0,0,0,-1,965,1492,0,0
-252,-468,0,0,0,0,0,0,0,0,0,-1,972,1492,0,0
-245,-468,0,0,0,0,0,0,0,0,0,-1,979,1492,0,0
-238,-468,0,0,0,0,0,0,0,0,0,-1,986,1492,0,0
-231,-468,0,0,0,0,0,0,0,0,0,-1,993,1492,0,0
-224,-468,0,0,0,0,0,0,0,0,0,-1,1000,1492,0,0
-217,-468,0,0,0,0,0,0,0,0,0,-1,1007,1492,0,0
-210,-468,0,0,0,0,0,0,0,0,0,-1,1014,1492,0,0
-203,-468,0,0,0,0,0,0,0,0,0,-1,1021,1492,0,0
-196,-468,0,0,0,0,0,0,0,0,0,-1,1028,1492,0,0
-189,-468,0,0,0,0,0,0,0,0,0,-1,1035,1492,0,0
-182,-468,0,0,0,0,0,0,0,0,0,-1,1042,1492,0,0
-175,-468,0,0,0,0,0,0,0,0,0,-1,1049,1492,0,0
-168,-468,0,0,0,0,0,0,0,0,0,-1,1056,1492,0,0
-161,-468,0,0,0,0,0,0,0,0,0,-1,1063,1492,0,0
-154,-468,0,0,0,0,0,0,0,0,0,-1,1070,1492,0,0
-147,-468,0,0,0,0,0,0,0,0,0,-1,1077,1492,0,0
-140,-468,0,0,0,0,0,0,0,0,0,-1,1084,1492,0,0
-133,-468,0,0,0,0,0,0,0,0,0,-1,1091,1492,0,0
-126,-468,0,0,0,0,0,0,0,0,0,-1,1098,1492,0,0
-119,-468,0,0,0,0,0,0,0,0,0,-1,1105,1492,0,0
-112,-468,0,0,0,0,0,0,0,0,0,-1,1112,1492,0,0
-105,-468,0,0,0,0,0,0,0,0,0,-1,1119,1492,0,0
-98,-468,0,0,0,0,0,0,0,0,0,-1,1126,1492,0,0
-91,-468,0,0,0,0,0,0,0,0,0,-1,1133,1492,0,0
-84,-468,0,0,0,0,0,0,0,0,0,-1,1140,1492,0,0
-77,-468,0,0,0,0,0,0,0,0,0,-1,1147,1492,0,0
-70,-468,0,0,0,0,0,0,0,0,0,-1,1154,1492,0,0
-63,-468,0,0,0,0,0,0,0,0,0,-1,1161,1492,0,0
-56,-468,0,0,0,0,0,0,0,0,0,-1,1168,1492,0,0
-49,-468,0,0,0,0,0,0,0,0,0,-1,1175,1492,0,0
-42,-468,0,0,0,0,0,0,0,0,0,-1,1182,1492,0,0
-35,-468,0,0,0,0,0,0,0,0,0,-1,1189,1492,0,0
-28,-468,0,0,0,0,0,0,0,0,0,-1,1196,1492,0,0
-21,-468,0,0,0,0,0,0,0,0,0,-1,1203,1492,0,0
-14,-468,0,0,0,0,0,0,0,0,0,-1,1210,1492,0,0
-7,-468,0,0,0,0,0,0,0,0,0,-1,1217,1492,0,0
0,-468,0,0,0,0,0,0,0,0,0,-1,1224,1492,0,0
7,-468,0,0,0,0,0,0,0,0,0,-1,1231,1492,0,0
14,-468,0,0,0,0,0,0,0,0,0,-1,1238,1492,0,0
21,-468,0,0,0,0,0,0,0,0,0,-1,1245,1492,0,0
28,-468,0,0,0,0,0,0,0,0,0,-1,1252,1492,0,0
35,-468,0,0,0,0,0,0,0,0,0,-1,1259,1492,0,0
42,-468,0,0,0,0,0,0,0,0,0,-1,1266,1492,0,0
49,-468,0,0,0,0,0,0,0,0,0,-1,1273,1492,0,0
56,-468,0,0,0,0,0,0,0,0,0,-1,1280,1492,0,0
63,-468,0,0,0,0,0,0,0,0,0,-1,1287,1492,0,0
70,-468,0,0,0,0,0,0,0,0,0,-1,1294,1492,0,0
77,-468,0,0,0,0,0,0,0,0,0,-1,1301,1492,0,0
84,-468,0,0,0,0,0,0,0,0,0,-1,1308,1492,0,0
91,-468,0,0,0,0,0,0,0,0,0,-1,1315,1492,0,0
98,-468,0,0,0,0,0,0,0,0,0,-1,1322,1492,0,0
105,-468,0,0,0,0,0,0,0,0,0,-1,1329,1492,0,0
112,-468,0,0,0,0,0,0,0,0,0,-1,1336,1492,0,0
119,-468,0,0,0,0,0,0,0,0,0,-1,1343,1492,0,0
126,-468,0,0,0,0,0,0,0,0,0,-1,1350,1492,0,0
133,-468,0,0,0,0,0,0,0,0,0,-1,1357,1492,0,0
140,-468,0,0,0,0,0,0,0,0,0,-1,1364,1492,0,0
147,-468,0,0,0,0,0,0,0,0,0,-1,1371,1492,0,0
154,-468,0,0,0,0,0,0,0,0,0,-1,1378,1492,0,0
161,-468,0,0,0,0,0,0,0,0,0,-1,1385,1492,0,0
168,-468,0,0,0,0,0,0,0,0,0,-1,1392,1492,0,0
175,-468,0,0,0,0,0,0,0,0,0,-1,1399,1492,0,0
182,-468,0,0,0,0,0,0,0,0,0,-1,1406,1492,0,0
189,-468,0,0,0,0,0,0,0,0,0,-1,1413,1492,0,0
196,-468,0,0,0,0,0,0,0,0,0,-1,1420,1492,0,0
203,-468,0,0,0,0,0,0,0,0,0,-1,1427,1492,0,0
210,-468,0,0,0,0,0,0,0,0,0,-1,1434,1492,0,0
217,-468,0,0,0,0,0,0,0,0,0,-1,1441,1492,0,0
224,-468,0,0,0,0,0,0,0,0,0,-1,1448,1492,0,0
231,-468,0,0,0,0,0,0,0,0,0,-1,1455,1492,0,0
238,-468,0,0,0,0,0,0,0,0,0,-1,1462,1492,0,0
245,-468,0,0,0,0,0,0,0,0,0,-1,1469,1492,0,0
252,-468,0,0,0,0,0,0,0,0,0,-1,1476,1492,0,0
259,-468,0,0,0,0,0,0,0,0,0,-1,1483,1492,0,0
266,-468,0,0,0,0,0,0,0,0,0,-1,1490,1492,0,0
273,-468,0,0,0,0,0,0,0,0,0,-1,1497,1492,0,0
280,-468,0,0,0,0,0,0,0,0,0,-1,1504,1492,0,0
287,-468,0,0,0,0,0,0,0,0,0,-1,1511,1492,0,0
294,-468,0,0,0,0,0,0,0,0,0,-1,1518,1492,0,0
301,-468,0,0,0,0,0,0,0,0,0,-1,1525,1492,0,0
308,-468,0,0,0,0,0,0,0,0,0,-1,1532,1492,0,0
315,-468,0,0,0,0,0,0,0,0,0,-1,1539,1492,0,0
322,-468,0,0,0,0,0,0,0,0,0,-1,1546,1492,0,0
329,-468,0,0,0,0,0,0,0,0,0,-1,1553,1492,0,0
336,-468,0,0,0,0,0,0,0,0,0,-1,1560,1492,0,0
343,-468,0,0,0,0,0,0,0,0,0,-1,1567,1492,0,0
350,-468,0,0,0,0,0,0,0,0,0,-1,1574,1492,0,0
357,-468,0,0,0,0,0,0,0,0,0,-1,1581,1492,0,0
364,-468,0,0,0,0,0,0,0,0,0,-1,1588,1492,0,0
371,-468,0,0,0,0,0,0,0,0,0,-1,1595,1492,0,0
378,-468,0,0,0,0,0,0,0,0,0,-1,1602,1492,0,0
385,-468,0,0,0,0,0,0,0,0,0,-1,1609,1492,0,0
392,-468,0,0,0,0,0,0,0,0,0,-1,1616,1492,0,0
399,-468,0,0,0,0,0,0,0,0,0,-1,1623,1492,0,0
406,-468,0,0,0,0,0,0,0,0,0,-1,1630,1492,0,0
413,-468,0,0,0,0,0,0,0,0,0,-1,1637,1492,0,0
420,-468,0,0,0,0,0,0,0,0,0,-1,1644,1492,0,0
427,-468,0,0,0,0,0,0,0,0,0,-1,1651,1492,0,0
434,-468,0,0,0,0,0,0,0,0,0,-1,1658,1492,0,0
441,-468,0,0,0,0,0,0,0,0,0,-1,1665,1492,0,0
448,-468,0,0,0,0,0,0,0,0,0,-1,1672,1492,0,0
455,-468,0,0,0,0,0,0,0,0,0,-1,1679,1492,0,0
462,-468,0,0,0,0,0,0,0,0,0,-1,1686,1492,0,0
469,-468,15.6879,1.2677,0,0,0,0,0,0,0,-1,1693,1492,15.6879,-1.26772
476,-468,14.9318,1.61865,0,0,0,0,0,0,0,-1,1700,1492,14.9318,-1.61869
483,-468,11.265,4.64795,0,0,0,0,0,0,0,-1,1707,1492,11.265,-4.64798
490,-468,12.1316,3.51624,0,0,0,0,0,0,0,-1,1714,1492,12.1316,-3.51628
497,-468,16.5355,3.14587,0,0,0,0,0,0,0,-1,1721,1492,16.5356,-3.14583
504,-468,15.0642,4.10437,0,0,0,0,0,0,0,-1,1728,1492,15.0643,-4.10431
511,-468,15.6575,9.59875,0,0,0,0,0,0,0,-1,1735,1492,15.6575,-9.59878
518,-468,14.371,10.0905,0,0,0,0,0,0,0,-1,1742,1492,14.371,-10.0904
525,-468,13.2682,11.7788,0,0,0,0,0,0,0,-1,1749,1492,13.2682,-11.7788
532,-468,13.3601,10.255,0,0,0,0,0,0,0,-1,1756,1492,13.3601,-10.2551
539,-468,13.0997,10.5697,0,0,0,0,0,0,0,-1,1763,1492,13.0997,-10.5697
546,-468,12.6849,11.0713,0,0,0,0,0,0,0,-1,1770,1492,12.6849,-11.0713
553,-468,12.6475,10.9117,-0.0249831,-0.0259432,0.0156964,-0.00975942,-0.0411668,0.770112,0.024839,0.0365784,1777,1492,12.6474,-10.9118
560,-468,12.4773,10.7548,-0.0193607,-0.0204637,0.0118401,-0.00805934,-0.0317651,0.762125,0.0190668,0.0219382,1784,1492,12.4773,-10.7548
567,-468,12.4437,10.5612,-0.014625,-0.0157542,0.00877756,-0.00639388,-0.0239853,0.753281,0.0143421,0.0147666,1791,1492,12.4437,-10.5611
574,-468,12.454,10.2892,-0.0106815,-0.0117523,0.00637721,-0.00481724,-0.0176165,0.743516,0.0105132,0.0142381,1798,1492,12.454,-10.2891
581,-468,12.4581,10.0471,-0.00745617,-0.00842891,0.00452057,-0.00339588,-0.0124892,0.731809,0.00745655,0.0144293,1805,1492,12.4581,-10.0471
588,-468,12.4542,9.80859,-0.00470903,-0.00549227,0.0028537,-0.0022202,-0.00798109,0.717208,0.00475663,0.0125691,1812,1492,12.4542,-9.80861
595,-468,12.4618,9.53845,-0.00250454,-0.00321681,0.00174791,-0.00107685,-0.00464449,0.684899,0.00280709,0.0101152,1819,1492,12.4617,-9.53847
602,-468,12.4586,9.28149,-0.000813974,-0.0015714,0.00109382,-3.51651e-05,-0.00235021,0.618742,0.00155522,0.00877007,1826,1492,12.4587,-9.2815
609,-468,12.4404,9.0249,0.000681447,-0.000228365,0.000548115,0.000938839,-0.000485758,0.43903,0.000836242,0.00924084,1833,1492,12.4404,-9.02491
616,-468,12.4312,8.77112,0.00169432,0.000719529,0.000252287,0.00175574,0.000658104,0.238823,0.00102421,0.00933234,1840,1492,12.4311,-8.77106
623,-468,12.4296,8.52979,0.00239452,0.00127763,0.000130813,0.00240963,0.00126251,0.115048,0.00139173,0.00967182,1847,1492,12.4295,-8.52984
630,-468,12.4454,8.26221,0.00304523,0.00161975,0.000121009,0.00305543,0.00160955,0.0840881,0.0017649,0.0100395,1854,1492,12.4455,-8.26224
637,-468,12.4585,7.97327,0.0037288,0.00193335,0.000164764,0.0037438,0.00191836,0.0907574,0.0021617,0.0143321,1861,1492,12.4585,-7.97329
644,-468,12.4672,7.77246,0.00439295,0.00218802,0.000254868,0.00442202,0.00215894,0.113594,0.00255329,0.0363753,1868,1492,12.4672,-7.77241
651,-468,12.566,7.43433,0,0,0,0,0,0,0,-1,1875,1492,12.5661,-7.43431
658,-468,12.7784,7.71008,0,0,0,0,0,0,0,-1,1882,1492,12.7784,-7.71006
665,-468,13.1189,7.71924,0,0,0,0,0,0,0,-1,1889,1492,13.1189,-7.71922
672,-468,9.96814,3.61133,0,0,0,0,0,0,0,-1,1896,1492,9.96817,-3.61139
679,-468,11.2191,1.91968,0,0,0,0,0,0,0,-1,1903,1492,11.2191,-1.91965
686,-468,11.9252,1.42285,0,0,0,0,0,0,0,-1,1910,1492,11.9252,-1.42291
693,-468,0,0,0,0,0,0,0,0,0,-1,1917,1492,0,0
700,-468,0,0,0,0,0,0,0,0,0,-1,1924,1492,0,0
707,-468,0,0,0,0,0,0,0,0,0,-1,1931,1492,0,0
714,-468,0,0,0,0,0,0,0,0,0,-1,1938,1492,0,0
721,-468,0,0,0,0,0,0,0,0,0,-1,1945,1492,0,0
728,-468,0,0,0,0,0,0,0,0,0,-1,1952,1492,0,0
735,-468,0,0,0,0,0,0,0,0,0,-1,1959,1492,0,0
742,-468,0,0,0,0,0,0,0,0,0,-1,1966,1492,0,0
749,-468,0,0,0,0,0,0,0,0,0,-1,1973,1492,0,0
756,-468,0,0,0,0,0,0,0,0,0,-1,1980,1492,0,0
763,-468,0,0,0,0,0,0,0,0,0,-1,1987,1492,0,0
770,-468,0,0,0,0,0,0,0,0,0,-1,1994,1492,0,0
777,-468,0,0,0,0,0,0,0,0,0,-1,2001,1492,0,0
784,-468,0,0,0,0,0,0,0,0,0,-1,2008,1492,0,0
791,-468,0,0,0,0,0,0,0,0,0,-1,2015,1492,0,0
798,-468,0,0,0,0,0,0,0,0,0,-1,2022,1492,0,0
805,-468,0,0,0,0,0,0,0,0,0,-1,2029,1492,0,0
812,-468,0,0,0,0,0,0,0,0,0,-1,2036,1492,0,0
-700,-475,0,0,0,0,0,0,0,0,0,-1,524,1499,0,0
-693,-475,0,0,0,0,0,0,0,0,0,-1,531,1499,0,0
-686,-475,0,0,0,0,0,0,0,0,0,-1,538,1499,0,0
-679,-475,0,0,0,0,0,0,0,0,0,-1,545,1499,0,0
-672,-475,0,0,0,0,0,0,0,0,0,-1,552,1499,0,0
-665,-475,0,0,0,0,0,0,0,0,0,-1,559,1499,0,0
-658,-475,0,0,0,0,0,0,0,0,0,-1,566,1499,0,0
-651,-475,0,0,0,0,0,0,0,0,0,-1,573,1499,0,0
-644,-475,0,0,0,0,0,0,0,0,0,-1,580,1499,0,0
-637,-475,0,0,0,0,0,0,0,0,0,-1,587,1499,0,0
-630,-475,0,0,0,0,0,0,0,0,0,-1,594,1499,0,0
-623,-475,0,0,0,0,0,0,0,0,0,-1,601,1499,0,0
-616,-475,0,0,0,0,0,0,0,0,0,-1,608,1499,0,0
-609,-475,0,0,0,0,0,0,0,0,0,-1,615,1499,0,0
-602,-475,0,0,0,0,0,0,0,0,0,-1,622,1499,0,0
-595,-475,0,0,0,0,0,0,0,0,0,-1,629,1499,0,0
-588,-475,0,0,0,0,0,0,0,0,0,-1,636,1499,0,0
-581,-475,0,0,0,0,0,0,0,0,0,-1,643,1499,0,0
-574,-475,0,0,0,0,0,0,0,0,0,-1,650,1499,0,0
-567,-475,0,0,0,0,0,0,0,0,0,-1,657,1499,0,0
-560,-475,-9.42731,9.29517,0,0,0,0,0,0,0,-1,664,1499,-9.42731,-9.29519
-553,-475,-8.15131,8.78369,0,0,0,0,0,0,0,-1,671,1499,-8.15131,-8.78367
-546,-475,-8.41254,8.20654,0,0,0,0,0,0,0,-1,678,1499,-8.41251,-8.20655
-539,-475,-4.38385,2.4425,0,0,0,0,0,0,0,-1,685,1499,-4.38382,-2.44245
-532,-475,-3.83789,3.47888,0,0,0,0,0,0,0,-1,692,1499,-3.83788,-3.47893
-525,-475,-2.86938,5.1825,0,0,0,0,0,0,0,-1,699,1499,-2.86939,-5.18255
-518,-475,-2.78589,5.59949,0.0214153,0.00690036,0.024402,0.0396162,-0.0113005,0.640857,0.0308749,0.0488234,706,1499,-2.78591,-5.59945
-511,-475,-2.67407,5.88293,0.0162164,0.00503189,0.0162293,0.0277899,-0.00654166,0.619481,0.0210488,0.0484552,713,1499,-2.67408,-5.88297
-504,-475,-2.59204,6.28088,0.0120777,0.00353182,0.0105263,0.0191653,-0.00355574,0.592594,0.0141122,0.028717,720,1499,-2.59204,-6.28086
-497,-475,-2.62329,6.56409,0.00896914,0.00238112,0.00660384,0.0130549,-0.00170465,0.554054,0.00932358,0.0150543,727,1499,-2.62327,-6.56403
-490,-475,-2.61432,6.82166,0.00662953,0.00127321,0.00387115,0.00865864,-0.000755895,0.482789,0.00604018,0.00837763,734,1499,-2.61431,-6.82171
-483,-475,-2.61011,7.12622,0.00479403,0.000259835,0.00185659,0.00545724,-0.00040337,0.343089,0.0037798,0.00839432,741,1499,-2.61012,-7.12616
-476,-475,-2.60321,7.4021,0.00314465,-0.000562885,1.58529e-05,0.00314471,-0.000562952,0.00427575,0.00230714,0.0098164,748,1499,-2.6032,-7.40214
-469,-475,-2.5874,7.67163,0.00187102,-0.0018382,-0.00174492,0.00256284,-0.00253002,-0.377466,0.00294039,0.0119199,755,1499,-2.58739,-7.67165
-462,-475,-2.58185,7.9447,0.00108737,-0.00264111,-0.00281907,0.00260285,-0.00415659,-0.493261,0.00393679,0.0168145,762,1499,-2.58186,-7.94467
-455,-475,-2.61816,8.22632,0.000446158,-0.00367887,-0.00383304,0.00273637,-0.00596908,-0.538572,0.0051403,0.0156087,769,1499,-2.61817,-8.22633
-448,-475,-2.63733,8.526,5.42944e-05,-0.00480945,-0.00490407,0.00309635,-0.0078515,-0.555222,0.00651646,0.0135611,776,1499,-2.63731,-8.52596
-441,-475,-2.60736,8.83948,-0.000203823,-0.00609737,-0.0062789,0.0037854,-0.0100866,-0.565999,0.00827984,0.0162916,783,1499,-2.60737,-8.83953
-434,-475,-2.61932,9.06128,-0.000339548,-0.00779851,-0.00801193,0.00476839,-0.0129065,-0.567568,0.010559,0.0105931,790,1499,-2.6193,-9.06129
-427,-475,-2.5744,9.36951,0.00018099,-0.00984916,-0.00977546,0.00615275,-0.0158209,-0.548391,0.0130894,0.0147718,797,1499,-2.57441,-9.3695
-420,-475,-2.49017,9.63074,0.00193549,-0.010497,-0.0106206,0.00802531,-0.0165869,-0.520628,0.0144936,0.0249566,804,1499,-2.4902,-9.63068
-413,-475,-2.30219,9.61572,0.00385969,-0.0117448,-0.0115719,0.0100139,-0.017899,-0.488784,0.0163285,0.0450236,811,1499,-2.30221,-9.61575
-406,-475,-1.89679,9.74133,0,0,0,0,0,0,0,-1,818,1499,-1.89676,-9.74136
-399,-475,-1.39667,6.1615,0,0,0,0,0,0,0,-1,825,1499,-1.39664,-6.16155
-392,-475,0.217163,8.61389,0,0,0,0,0,0,0,-1,832,1499,0.217167,-8.6139
-385,-475,1.18372,2.73999,0,0,0,0,0,0,0,-1,839,1499,1.18372,-2.73995
-378,-475,1.31409,2.90149,0,0,0,0,0,0,0,-1,846,1499,1.31411,-2.90151
-371,-475,2.3476,3.31116,0,0,0,0,0,0,0,-1,853,1499,2.34761,-3.31121
-364,-475,1.04462,9.05823,0,0,0,0,0,0,0,-1,860,1499,1.04461,-9.05825
-357,-475,-0.262756,7.97205,0,0,0,0,0,0,0,-1,867,1499,-0.262784,-7.97205
-350,-475,-2.77173,4.35486,0,0,0,0,0,0,0,-1,874,1499,-2.77175,-4.35491
-343,-475,-6.81641,-1.95203,0,0,0,0,0,0,0,-1,881,1499,-6.81643,1.95198
-336,-475,0,0,0,0,0,0,0,0,0,-1,888,1499,0,0
-329,-475,0,0,0,0,0,0,0,0,0,-1,895,1499,0,0
-322,-475,0,0,0,0,0,0,0,0,0,-1,902,1499,0,0
-315,-475,0,0,0,0,0,0,0,0,0,-1,909,1499,0,0
-308,-475,0,0,0,0,0,0,0,0,0,-1,916,1499,0,0
-301,-475,0,0,0,0,0,0,0,0,0,-1,923,1499,0,0
-294,-475,0,0,0,0,0,0,0,0,0,-1,930,1499,0,0
-287,-475,0,0,0,0,0,0,0,0,0,-1,937,1499,0,0
-280,-475,0,0,0,0,0,0,0,0,0,-1,944,1499,0,0
-273,-475,0,0,0,0,0,0,0,0,0,-1,951,1499,0,0
-266,-475,0,0,0,0,0,0,0,0,0,-1,958,1499,0,0
-259,-475,0,0,0,0,0,0,0,0,0,-1,965,1499,0,0
-252,-475,0,0,0,0,0,0,0,0,0,-1,972,1499,0,0
-245,-475,0,0,0,0,0,0,0,0,0,-1,979,1499,0,0
-238,-475,0,0,0,0,0,0,0,0,0,-1,986,1499,0,0
-231,-475,0,0,0,0,0,0,0,0,0,-1,993,1499,0,0
-224,-475,0,0,0,0,0,0,0,0,0,-1,1000,1499,0,0
-217,-475,0,0,0,0,0,0,0,0,0,-1,1007,1499,0,0
-210,-475,0,0,0,0,0,0,0,0,0,-1,1014,1499,0,0
-203,-475,0,0,0,0,0,0,0,0,0,-1,1021,1499,0,0
-196,-475,0,0,0,0,0,0,0,0,0,-1,1028,1499,0,0
-189,-475,0,0,0,0,0,0,0,0,0,-1,1035,1499,0,0
-182,-475,0,0,0,0,0,0,0,0,0,-1,1042,1499,0,0
-175,-475,0,0,0,0,0,0,0,0,0,-1,1049,1499,0,0
-168,-475,0,0,0,0,0,0,0,0,0,-1,1056,1499,0,0
-161,-475,0,0,0,0,0,0,0,0,0,-1,1063,1499,0,0
-154,-475,0,0,0,0,0,0,0,0,0,-1,1070,1499,0,0
-147,-475,0,0,0,0,0,0,0,0,0,-1,1077,1499,0,0
-140,-475,0,0,0,0,0,0,0,0,0,-1,1084,1499,0,0
-133,-475,0,0,0,0,0,0,0,0,0,-1,1091,1499,0,0
-126,-475,0,0,0,0,0,0,0,0,0,-1,1098,1499,0,0
-119,-475,0,0,0,0,0,0,0,0,0,-1,1105,1499,0,0
-112,-475,0,0,0,0,0,0,0,0,0,-1,1112,1499,0,0
-105,-475,0,0,0,0,0,0,0,0,0,-1,1119,1499,0,0
-98,-475,0,0,0,0,0,0,0,0,0,-1,1126,1499,0,0
-91,-475,0,0,0,0,0,0,0,0,0,-1,1133,1499,0,0
-84,-475,0,0,0,0,0,0,0,0,0,-1,1140,1499,0,0
-77,-475,0,0,0,0,0,0,0,0,0,-1,1147,1499,0,0
-70,-475,0,0,0,0,0,0,0,0,0,-1,1154,1499,0,0
-63,-475,0,0,0,0,0,0,0,0,0,-1,1161,1499,0,0
-56,-475,0,0,0,0,0,0,0,0,0,-1,1168,1499,0,0
-49,-475,0,0,0,0,0,0,0,0,0,-1,1175,1499,0,0
-42,-475,0,0,0,0,0,0,0,0,0,-1,1182,1499,0,0
-35,-475,0,0,0,0,0,0,0,0,0,-1,1189,1499,0,0
-28,-475,0,0,0,0,0,0,0,0,0,-1,1196,1499,0,0
-21,-475,0,0,0,0,0,0,0,0,0,-1,1203,1499,0,0
-14,-475,0,0,0,0,0,0,0,0,0,-1,1210,1499,0,0
-7,-475,0,0,0,0,0,0,0,0,0,-1,1217,1499,0,0
0,-475,0,0,0,0,0,0,0,0,0,-1,1224,1499,0,0
7,-475,0,0,0,0,0,0,0,0,0,-1,1231,1499,0,0
14,-475,0,0,0,0,0,0,0,0,0,-1,1238,1499,0,0
21,-475,0,0,0,0,0,0,0,0,0,-1,1245,1499,0,0
28,-475,0,0,0,0,0,0,0,0,0,-1,1252,1499,0,0
35,-475,0,0,0,0,0,0,0,0,0,-1,1259,1499,0,0
42,-475,0,0,0,0,0,0,0,0,0,-1,1266,1499,0,0
49,-475,0,0,0,0,0,0,0,0,0,-1,1273,1499,0,0
56,-475,0,0,0,0,0,0,0,0,0,-1,1280,1499,0,0
63,-475,0,0,0,0,0,0,0,0,0,-1,1287,1499,0,0
70,-475,0,0,0,0,0,0,0,0,0,-1,1294,1499,0,0
77,-475,0,0,0,0,0,0,0,0,0,-1,1301,1499,0,0
84,-475,0,0,0,0,0,0,0,0,0,-1,1308,1499,0,0
91,-475,0,0,0,0,0,0,0,0,0,-1,1315,1499,0,0
98,-475,0,0,0,0,0,0,0,0,0,-1,1322,1499,0,0
105,-475,0,0,0,0,0,0,0,0,0,-1,1329,1499,0,0
112,-475,0,0,0,0,0,0,0,0,0,-1,1336,1499,0,0
119,-475,0,0,0,0,0,0,0,0,0,-1,1343,1499,0,0
126,-475,0,0,0,0,0,0,0,0,0,-1,1350,1499,0,0
133,-475,0,0,0,0,0,0,0,0,0,-1,1357,1499,0,0
140,-475,0,0,0,0,0,0,0,0,0,-1,1364,1499,0,0
147,-475,0,0,0,0,0,0,0,0,0,-1,1371,1499,0,0
154,-475,0,0,0,0,0,0,0,0,0,-1,1378,1499,0,0
161,-475,0,0,0,0,0,0,0,0,0,-1,1385,1499,0,0
168,-475,0,0,0,0,0,0,0,0,0,-1,1392,1499,0,0
175,-475,0,0,0,0,0,0,0,0,0,-1,1399,1499,0,0
182,-475,0,0,0,0,0,0,0,0,0,-1,1406,1499,0,0
189,-475,0,0,0,0,0,0,0,0,0,-1,1413,1499,0,0
196,-475,0,0,0,0,0,0,0,0,0,-1,1420,1499,0,0
203,-475,0,0,0,0,0,0,0,0,0,-1,1427,1499,0,0
210,-475,0,0,0,0,0,0,0,0,0,-1,1434,1499,0,0
217,-475,0,0,0,0,0,0,0,0,0,-1,1441,1499,0,0
224,-475,0,0,0,0,0,0,0,0,0,-1,1448,1499,0,0
231,-475,0,0,0,0,0,0,0,0,0,-1,1455,1499,0,0
238,-475,0,0,0,0,0,0,0,0,0,-1,1462,1499,0,0
245,-475,0,0,0,0,0,0,0,0,0,-1,1469,1499,0,0
252,-475,0,0,0,0,0,0,0,0,0,-1,1476,1499,0,0
259,-475,0,0,0,0,0,0,0,0,0,-1,1483,1499,0,0
266,-475,0,0,0,0,0,0,0,0,0,-1,1490,1499,0,0
273,-475,0,0,0,0,0,0,0,0,0,-1,1497,1499,0,0
280,-475,0,0,0,0,0,0,0,0,0,-1,1504,1499,0,0
287,-475,0,0,0,0,0,0,0,0,0,-1,1511,1499,0,0
294,-475,0,0,0,0,0,0,0,0,0,-1,1518,1499,0,0
301,-475,0,0,0,0,0,0,0,0,0,-1,1525,1499,0,0
308,-475,0,0,0,0,0,0,0,0,0,-1,1532,1499,0,0
315,-475,0,0,0,0,0,0,0,0,0,-1,1539,1499,0,0
322,-475,0,0,0,0,0,0,0,0,0,-1,1546,1499,0,0
329,-475,0,0,0,0,0,0,0,0,0,-1,1553,1499,0,0
336,-475,0,0,0,0,0,0,0,0,0,-1,1560,1499,0,0
343,-475,0,0,0,0,0,0,0,0,0,-1,1567,1499,0,0
350,-475,0,0,0,0,0,0,0,0,0,-1,1574,1499,0,0
357,-475,0,0,0,0,0,0,0,0,0,-1,1581,1499,0,0
364,-475,0,0,0,0,0,0,0,0,0,-1,1588,1499,0,0
371,-475,0,0,0,0,0,0,0,0,0,-1,1595,1499,0,0
378,-475,0,0,0,0,0,0,0,0,0,-1,1602,1499,0,0
385,-475,0,0,0,0,0,0,0,0,0,-1,1609,1499,0,0
392,-475,0,0,0,0,0,0,0,0,0,-1,1616,1499,0,0
399,-475,0,0,0,0,0,0,0,0,0,-1,1623,1499,0,0
406,-475,0,0,0,0,0,0,0,0,0,-1,1630,1499,0,0
413,-475,0,0,0,0,0,0,0,0,0,-1,1637,1499,0,0
420,-475,0,0,0,0,0,0,0,0,0,-1,1644,1499,0,0
427,-475,0,0,0,0,0,0,0,0,0,-1,1651,1499,0,0
434,-475,0,0,0,0,0,0,0,0,0,-1,1658,1499,0,0
441,-475,0,0,0,0,0,0,0,0,0,-1,1665,1499,0,0
448,-475,0,0,0,0,0,0,0,0,0,-1,1672,1499,0,0
455,-475,0,0,0,0,0,0,0,0,0,-1,1679,1499,0,0
462,-475,12.6372,0.275391,0,0,0,0,0,0,0,-1,1686,1499,12.6372,-0.27536
469,-475,15.6437,2.28296,0,0,0,0,0,0,0,-1,1693,1499,15.6437,-2.28293
476,-475,15.3302,2.71436,0,0,0,0,0,0,0,-1,1700,1499,15.3303,-2.7143
483,-475,10.7461,5.91479,0,0,0,0,0,0,0,-1,1707,1499,10.7461,-5.91476
490,-475,11.9305,4.4364,0,0,0,0,0,0,0,-1,1714,1499,11.9305,-4.43644
497,-475,15.3451,4.3479,0,0,0,0,0,0,0,-1,1721,1499,15.3451,-4.34789
504,-475,16.1669,8.5481,0,0,0,0,0,0,0,-1,1728,1499,16.1669,-8.54806
511,-475,14.9714,9.62366,0,0,0,0,0,0,0,-1,1735,1499,14.9715,-9.62361
518,-475,13.7964,10.4025,0,0,0,0,0,0,0,-1,1742,1499,13.7964,-10.4025
525,-475,13.1656,10.2712,0,0,0,0,0,0,0,-1,1749,1499,13.1657,-10.2712
532,-475,12.9298,10.5673,-0.0390216,-0.0406114,0.0323079,-0.00749887,-0.0721341,0.773099,0.0457949,0.0467159,1756,1499,12.9298,-10.5673
539,-475,12.6661,10.8704,-0.0309887,-0.0327137,0.0242706,-0.00756524,-0.0561372,0.767638,0.0351753,0.0441297,1763,1499,12.6662,-10.8704
546,-475,12.376,11.1169,-0.0243815,-0.0260172,0.0182024,-0.00697863,-0.0434201,0.762949,0.0269237,0.0373971,1770,1499,12.376,-11.117
553,-475,12.3127,10.9926,-0.0190206,-0.0205458,0.0136088,-0.00615307,-0.0334133,0.757407,0.0205342,0.020063,1777,1499,12.3128,-10.9926
560,-475,12.1512,10.8306,-0.0145691,-0.0161282,0.0101662,-0.00515257,-0.0255447,0.747134,0.0155986,0.0151663,1784,1499,12.1513,-10.8306
567,-475,12.2155,10.5529,-0.0107227,-0.0122791,0.00733117,-0.00412856,-0.0188733,0.732522,0.0114567,0.0138291,1791,1499,12.2155,-10.5529
574,-475,12.2025,10.302,-0.00742889,-0.00891,0.00507591,-0.00303979,-0.0132991,0.712961,0.00804653,0.0143026,1798,1499,12.2026,-10.302
581,-475,12.1981,10.0565,-0.00467162,-0.00602799,0.00330236,-0.00197852,-0.00872108,0.684124,0.0052796,0.0115684,1805,1499,12.1982,-10.0565
588,-475,12.2034,9.79614,-0.00224913,-0.00341236,0.001662,-0.00106992,-0.00459157,0.617083,0.00277406,0.0103208,1812,1499,12.2034,-9.79619
595,-475,12.2153,9.53613,-0.000264693,-0.00134594,0.000557722,-2.85759e-05,-0.00158206,0.400481,0.00104531,0.0110656,1819,1499,12.2154,-9.53618
602,-475,12.2118,9.27759,0.00129657,0.000211017,-0.000114272,0.00130847,0.000199118,-0.103751,0.0008141,0.0124134,1826,1499,12.2118,-9.27753
609,-475,12.1985,9.03369,0.00262121,0.00147918,-0.000633569,0.00290311,0.00119728,-0.418641,0.00168466,0.0114296,1833,1499,12.1985,-9.03373
616,-475,12.1831,8.79431,0.00355984,0.00244621,-0.000931956,0.00408865,0.0019174,-0.516121,0.0023621,0.0103367,1840,1499,12.1832,-8.79431
623,-475,12.1689,8.54236,0.00431193,0.00307237,-0.00103068,0.00489482,0.00248948,-0.5147,0.00282617,0.00990777,1847,1499,12.1689,-8.5424
630,-475,12.1991,8.2804,0.00506163,0.00363114,-0.000994802,0.00557162,0.00312115,-0.473722,0.00322454,0.0140165,1854,1499,12.1991,-8.28042
637,-475,12.2244,8.03223,0.0058566,0.00419683,-0.000886218,0.00624084,0.00381259,-0.409106,0.00363258,0.0289156,1861,1499,12.2243,-8.03228
644,-475,12.2876,7.73926,0,0,0,0,0,0,0,-1,1868,1499,12.2876,-7.73922
651,-475,11.7965,7.57593,0,0,0,0,0,0,0,-1,1875,1499,11.7965,-7.5759
658,-475,12.6487,7.75757,0,0,0,0,0,0,0,-1,1882,1499,12.6487,-7.75751
665,-475,9.33435,5.43335,0,0,0,0,0,0,0,-1,1889,1499,9.33439,-5.43332
672,-475,9.38635,1.10474,0,0,0,0,0,0,0,-1,1896,1499,9.38629,-1.10475
679,-475,12.2594,1.31079,0,0,0,0,0,0,0,-1,1903,1499,12.2594,-1.31077
686,-475,0,0,0,0,0,0,0,0,0,-1,1910,1499,0,0
693,-475,0,0,0,0,0,0,0,0,0,-1,1917,1499,0,0
700,-475,0,0,0,0,0,0,0,0,0,-1,1924,1499,0,0
707,-475,0,0,0,0,0,0,0,0,0,-1,1931,1499,0,0
714,-475,0,0,0,0,0,0,0,0,0,-1,1938,1499,0,0
721,-475,0,0,0,0,0,0,0,0,0,-1,1945,1499,0,0
728,-475,0,0,0,0,0,0,0,0,0,-1,1952,1499,0,0
735,-475,0,0,0,0,0,0,0,0,0,-1,1959,1499,0,0
742,-475,0,0,0,0,0,0,0,0,0,-1,1966,1499,0,0
749,-475,0,0,0,0,0,0,0,0,0,-1,1973,1499,0,0
756,-475,0,0,0,0,0,0,0,0,0,-1,1980,1499,0,0
763,-475,0,0,0,0,0,0,0,0,0,-1,1987,1499,0,0
770,-475,0,0,0,0,0,0,0,0,0,-1,1994,1499,0,0
777,-475,0,0,0,0,0,0,0,0,0,-1,2001,1499,0,0
784,-475,0,0,0,0,0,0,0,0,0,-1,2008,1499,0,0
791,-475,0,0,0,0,0,0,0,0,0,-1,2015,1499,0,0
798,-475,0,0,0,0,0,0,0,0,0,-1,2022,1499,0,0
805,-475,0,0,0,0,0,0,0,0,0,-1,2029,1499,0,0
812,-475,0,0,0,0,0,0,0,0,0,-1,2036,1499,0,0
-700,-482,0,0,0,0,0,0,0,0,0,-1,524,1506,0,0
-693,-482,0,0,0,0,0,0,0,0,0,-1,531,1506,0,0
-686,-482,0,0,0,0,0,0,0,0,0,-1,538,1506,0,0
-679,-482,0,0,0,0,0,0,0,0,0,-1,545,1506,0,0
-672,-482,0,0,0,0,0,0,0,0,0,-1,552,1506,0,0
-665,-482,0,0,0,0,0,0,0,0,0,-1,559,1506,0,0
-658,-482,0,0,0,0,0,0,0,0,0,-1,566,1506,0,0
-651,-482,0,0,0,0,0,0,0,0,0,-1,573,1506,0,0
-644,-482,0,0,0,0,0,0,0,0,0,-1,580,1506,0,0
-637,-482,0,0,0,0,0,0,0,0,0,-1,587,1506,0,0
-630,-482,0,0,0,0,0,0,0,0,0,-1,594,1506,0,0
-623,-482,0,0,0,0,0,0,0,0,0,-1,601,1506,0,0
-616,-482,0,0,0,0,0,0,0,0,0,-1,608,1506,0,0
-609,-482,0,0,0,0,0,0,0,0,0,-1,615,1506,0,0
-602,-482,0,0,0,0,0,0,0,0,0,-1,622,1506,0,0
-595,-482,0,0,0,0,0,0,0,0,0,-1,629,1506,0,0
-588,-482,0,0,0,0,0,0,0,0,0,-1,636,1506,0,0
-581,-482,0,0,0,0,0,0,0,0,0,-1,643,1506,0,0
-574,-482,0,0,0,0,0,0,0,0,0,-1,650,1506,0,0
-567,-482,0,0,0,0,0,0,0,0,0,-1,657,1506,0,0
-560,-482,0,0,0,0,0,0,0,0,0,-1,664,1506,0,0
-553,-482,-9.06055,9.34314,0,0,0,0,0,0,0,-1,671,1506,-9.06056,-9.34312
-546,-482,-4.08624,8.34241,0,0,0,0,0,0,0,-1,678,1506,-4.08624,-8.3424
-539,-482,-2.54572,4.26294,0,0,0,0,0,0,0,-1,685,1506,-2.54573,-4.2629
-532,-482,-3.91901,3.73352,0,0,0,0,0,0,0,-1,692,1506,-3.91901,-3.73349
-525,-482,-3.47754,3.82959,0,0,0,0,0,0,0,-1,699,1506,-3.47751,-3.8296
-518,-482,-2.58417,5.48718,0,0,0,0,0,0,0,-1,706,1506,-2.58417,-5.48713
-511,-482,-2.43427,5.79053,0,0,0,0,0,0,0,-1,713,1506,-2.43428,-5.79047
-504,-482,-2.32532,6.29822,0.0151347,0.00189462,0.0115034,0.0217869,-0.00475765,0.5243,0.016343,0.042837,720,1506,-2.32531,-6.29818
-497,-482,-2.24884,6.48755,0.0114844,0.000964744,0.00728033,0.0152061,-0.00275703,0.472575,0.0111704,0.0252012,727,1506,-2.24885,-6.48759
-490,-482,-2.32977,6.78125,0.00873282,0.000106834,0.00445965,0.0106239,-0.00178423,0.401057,0.00774614,0.0143124,734,1506,-2.32978,-6.78123
-483,-482,-2.31561,7.10254,0.00656574,-0.00067772,0.00254293,0.00736932,-0.00148131,0.306078,0.00547387,0.00820053,741,1506,-2.31561,-7.10258
-476,-482,-2.30872,7.38879,0.00470955,-0.00123355,0.00090746,0.00484502,-0.00136902,0.148194,0.00377014,0.00934118,748,1506,-2.3087,-7.38875
-469,-482,-2.31201,7.67944,0.00326882,-0.00215948,-0.000586105,0.00333138,-0.00222204,-0.106339,0.00322753,0.0108006,755,1506,-2.31201,-7.67946
-462,-482,-2.32556,7.96497,0.00234987,-0.00264328,-0.00138147,0.0027066,-0.00300001,-0.252704,0.00329616,0.0118513,762,1506,-2.32553,-7.96499
-455,-482,-2.34723,8.23999,0.0016435,-0.00331946,-0.002071,0.00239417,-0.00407013,-0.347738,0.00377374,0.0122578,769,1506,-2.34722,-8.23994
-448,-482,-2.33862,8.54248,0.00123467,-0.00401694,-0.00272951,0.00239635,-0.00517863,-0.402381,0.00447067,0.0128596,776,1506,-2.3386,-8.54251
-441,-482,-2.31952,8.82129,0.0010049,-0.00480445,-0.0036094,0.00273324,-0.0065328,-0.446582,0.00549763,0.0128272,783,1506,-2.31951,-8.82126
-434,-482,-2.3515,9.09497,0.000946242,-0.00593429,-0.00482251,0.00342983,-0.00841787,-0.475575,0.00703945,0.0148852,790,1506,-2.35151,-9.09501
-427,-482,-2.3653,9.41284,0.00160474,-0.00727298,-0.00590806,0.00455564,-0.0102239,-0.463225,0.00873964,0.0162341,797,1506,-2.36532,-9.41278
-420,-482,-2.30157,9.823,0.00353617,-0.00722079,-0.00603301,0.00624009,-0.00992471,-0.421346,0.00941322,0.0273775,804,1506,-2.30157,-9.82305
-413,-482,-2.14026,9.85071,0.00560049,-0.00780551,-0.00626958,0.00807561,-0.0102806,-0.376,0.0106234,0.0410182,811,1506,-2.14024,-9.85072
-406,-482,-1.95319,9.97754,0,0,0,0,0,0,0,-1,818,1506,-1.95317,-9.97754
-399,-482,-1.3822,9.22595,0,0,0,0,0,0,0,-1,825,1506,-1.38221,-9.22598
-392,-482,-1.06836,9.22729,0,0,0,0,0,0,0,-1,832,1506,-1.06835,-9.2273
-385,-482,0.0647583,8.90649,0,0,0,0,0,0,0,-1,839,1506,0.0647778,-8.90644
-378,-482,0.215698,5.96948,0,0,0,0,0,0,0,-1,846,1506,0.215681,-5.9695
-371,-482,-0.10907,8.10437,0,0,0,0,0,0,0,-1,853,1506,-0.109063,-8.10433
-364,-482,-0.154968,10.5032,0,0,0,0,0,0,0,-1,860,1506,-0.154976,-10.5032
-357,-482,2.14807,4.60144,0,0,0,0,0,0,0,-1,867,1506,2.14807,-4.60144
-350,-482,-7.5813,-1.45935,0,0,0,0,0,0,0,-1,874,1506,-7.58133,1.45937
-343,-482,-7.19983,-1.26416,0,0,0,0,0,0,0,-1,881,1506,-7.19981,1.26414
-336,-482,-6.78491,-1.18127,0,0,0,0,0,0,0,-1,888,1506,-6.78488,1.18125
-329,-482,0,0,0,0,0,0,0,0,0,-1,895,1506,0,0
-322,-482,0,0,0,0,0,0,0,0,0,-1,902,1506,0,0
-315,-482,0,0,0,0,0,0,0,0,0,-1,909,1506,0,0
-308,-482,0,0,0,0,0,0,0,0,0,-1,916,1506,0,0
-301,-482,0,0,0,0,0,0,0,0,0,-1,923,1506,0,0
-294,-482,0,0,0,0,0,0,0,0,0,-1,930,1506,0,0
-287,-482,0,0,0,0,0,0,0,0,0,-1,937,1506,0,0
-280,-482,0,0,0,0,0,0,0,0,0,-1,944,1506,0,0
-273,-482,0,0,0,0,0,0,0,0,0,-1,951,1506,0,0
-266,-482,0,0,0,0,0,0,0,0,0,-1,958,1506,0,0
-259,-482,0,0,0,0,0,0,0,0,0,-1,965,1506,0,0
-252,-482,0,0,0,0,0,0,0,0,0,-1,972,1506,0,0
-245,-482,0,0,0,0,0,0,0,0,0,-1,979,1506,0,0
-238,-482,0,0,0,0,0,0,0,0,0,-1,986,1506,0,0
-231,-482,0,0,0,0,0,0,0,0,0,-1,993,1506,0,0
-224,-482,0,0,0,0,0,0,0,0,0,-1,1000,1506,0,0
-217,-482,0,0,0,0,0,0,0,0,0,-1,1007,1506,0,0
-210,-482,0,0,0,0,0,0,0,0,0,-1,1014,1506,0,0
-203,-482,0,0,0,0,0,0,0,0,0,-1,1021,1506,0,0
-196,-482,0,0,0,0,0,0,0,0,0,-1,1028,1506,0,0
-189,-482,0,0,0,0,0,0,0,0,0,-1,1035,1506,0,0
-182,-482,0,0,0,0,0,0,0,0,0,-1,1042,1506,0,0
-175,-482,0,0,0,0,0,0,0,0,0,-1,1049,1506,0,0
-168,-482,0,0,0,0,0,0,0,0,0,-1,1056,1506,0,0
-161,-482,0,0,0,0,0,0,0,0,0,-1,1063,1506,0,0
-154,-482,0,0,0,0,0,0,0,0,0,-1,1070,1506,0,0
-147,-482,0,0,0,0,0,0,0,0,0,-1,1077,1506,0,0
-140,-482,0,0,0,0,0,0,0,0,0,-1,1084,1506,0,0
-133,-482,0,0,0,0,0,0,0,0,0,-1,1091,1506,0,0
-126,-482,0,0,0,0,0,0,0,0,0,-1,1098,1506,0,0
-119,-482,0,0,0,0,0,0,0,0,0,-1,1105,1506,0,0
-112,-482,0,0,0,0,0,0,0,0,0,-1,1112,1506,0,0
-105,-482,0,0,0,0,0,0,0,0,0,-1,1119,1506,0,0
-98,-482,0,0,0,0,0,0,0,0,0,-1,1126,1506,0,0
-91,-482,0,0,0,0,0,0,0,0,0,-1,1133,1506,0,0
-84,-482,0,0,0,0,0,0,0,0,0,-1,1140,1506,0,0
-77,-482,0,0,0,0,0,0,0,0,0,-1,1147,1506,0,0
-70,-482,0,0,0,0,0,0,0,0,0,-1,1154,1506,0,0
-63,-482,0,0,0,0,0,0,0,0,0,-1,1161,1506,0,0
-56,-482,0,0,0,0,0,0,0,0,0,-1,1168,1506,0,0
-49,-482,0,0,0,0,0,0,0,0,0,-1,1175,1506,0,0
-42,-482,0,0,0,0,0,0,0,0,0,-1,1182,1506,0,0
-35,-482,0,0,0,0,0,0,0,0,0,-1,1189,1506,0,0
-28,-482,0,0,0,0,0,0,0,0,0,-1,1196,1506,0,0
-21,-482,0,0,0,0,0,0,0,0,0,-1,1203,1506,0,0
-14,-482,0,0,0,0,0,0,0,0,0,-1,1210,1506,0,0
-7,-482,0,0,0,0,0,0,0,0,0,-1,1217,1506,0,0
0,-482,0,0,0,0,0,0,0,0,0,-1,1224,1506,0,0
7,-482,0,0,0,0,0,0,0,0,0,-1,1231,1506,0,0
14,-482,0,0,0,0,0,0,0,0,0,-1,1238,1506,0,0
21,-482,0,0,0,0,0,0,0,0,0,-1,1245,1506,0,0
28,-482,0,0,0,0,0,0,0,0,0,-1,1252,1506,0,0
35,-482,0,0,0,0,0,0,0,0,0,-1,1259,1506,0,0
42,-482,0,0,0,0,0,0,0,0,0,-1,1266,1506,0,0
49,-482,0,0,0,0,0,0,0,0,0,-1,1273,1506,0,0
56,-482,0,0,0,0,0,0,0,0,0,-1,1280,1506,0,0
63,-482,0,0,0,0,0,0,0,0,0,-1,1287,1506,0,0
70,-482,0,0,0,0,0,0,0,0,0,-1,1294,1506,0,0
77,-482,0,0,0,0,0,0,0,0,0,-1,1301,1506,0,0
84,-482,0,0,0,0,0,0,0,0,0,-1,1308,1506,0,0
91,-482,0,0,0,0,0,0,0,0,0,-1,1315,1506,0,0
98,-482,0,0,0,0,0,0,0,0,0,-1,1322,1506,0,0
105,-482,0,0,0,0,0,0,0,0,0,-1,1329,1506,0,0
112,-482,0,0,0,0,0,0,0,0,0,-1,1336,1506,0,0
119,-482,0,0,0,0,0,0,0,0,0,-1,1343,1506,0,0
126,-482,0,0,0,0,0,0,0,0,0,-1,1350,1506,0,0
133,-482,0,0,0,0,0,0,0,0,0,-1,1357,1506,0,0
140,-482,0,0,0,0,0,0,0,0,0,-1,1364,1506,0,0
147,-482,0,0,0,0,0,0,0,0,0,-1,1371,1506,0,0
154,-482,0,0,0,0,0,0,0,0,0,-1,1378,1506,0,0
161,-482,0,0,0,0,0,0,0,0,0,-1,1385,1506,0,0
168,-482,0,0,0,0,0,0,0,0,0,-1,1392,1506,0,0
175,-482,0,0,0,0,0,0,0,0,0,-1,1399,1506,0,0
182,-482,0,0,0,0,0,0,0,0,0,-1,1406,1506,0,0
189,-482,0,0,0,0,0,0,0,0,0,-1,1413,1506,0,0
196,-482,0,0,0,0,0,0,0,0,0,-1,1420,1506,0,0
203,-482,0,0,0,0,0,0,0,0,0,-1,1427,1506,0,0
210,-482,0,0,0,0,0,0,0,0,0,-1,1434,1506,0,0
217,-482,0,0,0,0,0,0,0,0,0,-1,1441,1506,0,0
224,-482,0,0,0,0,0,0,0,0,0,-1,1448,1506,0,0
231,-482,0,0,0,0,0,0,0,0,0,-1,1455,1506,0,0
238,-482,0,0,0,0,0,0,0,0,0,-1,1462,1506,0,0
245,-482,0,0,0,0,0,0,0,0,0,-1,1469,1506,0,0
252,-482,0,0,0,0,0,0,0,0,0,-1,1476,1506,0,0
259,-482,0,0,0,0,0,0,0,0,0,-1,1483,1506,0,0
266,-482,0,0,0,0,0,0,0,0,0,-1,1490,1506,0,0
273,-482,0,0,0,0,0,0,0,0,0,-1,1497,1506,0,0
280,-482,0,0,0,0,0,0,0,0,0,-1,1504,1506,0,0
287,-482,0,0,0,0,0,0,0,0,0,-1,1511,1506,0,0
294,-482,0,0,0,0,0,0,0,0,0,-1,1518,1506,0,0
301,-482,0,0,0,0,0,0,0,0,0,-1,1525,1506,0,0
308,-482,0,0,0,0,0,0,0,0,0,-1,1532,1506,0,0
315,-482,0,0,0,0,0,0,0,0,0,-1,1539,1506,0,0
322,-482,0,0,0,0,0,0,0,0,0,-1,1546,1506,0,0
329,-482,0,0,0,0,0,0,0,0,0,-1,1553,1506,0,0
336,-482,0,0,0,0,0,0,0,0,0,-1,1560,1506,0,0
343,-482,0,0,0,0,0,0,0,0,0,-1,1567,1506,0,0
350,-482,0,0,0,0,0,0,0,0,0,-1,1574,1506,0,0
357,-482,0,0,0,0,0,0,0,0,0,-1,1581,1506,0,0
364,-482,0,0,0,0,0,0,0,0,0,-1,1588,1506,0,0
371,-482,0,0,0,0,0,0,0,0,0,-1,1595,1506,0,0
378,-482,0,0,0,0,0,0,0,0,0,-1,1602,1506,0,0
385,-482,0,0,0,0,0,0,0,0,0,-1,1609,1506,0,0
392,-482,0,0,0,0,0,0,0,0,0,-1,1616,1506,0,0
399,-482,0,0,0,0,0,0,0,0,0,-1,1623,1506,0,0
406,-482,0,0,0,0,0,0,0,0,0,-1,1630,1506,0,0
413,-482,0,0,0,0,0,0,0,0,0,-1,1637,1506,0,0
420,-482,0,0,0,0,0,0,0,0,0,-1,1644,1506,0,0
427,-482,0,0,0,0,0,0,0,0,0,-1,1651,1506,0,0
434,-482,0,0,0,0,0,0,0,0,0,-1,1658,1506,0,0
441,-482,0,0,0,0,0,0,0,0,0,-1,1665,1506,0,0
448,-482,4.24146,1.55383,0,0,0,0,0,0,0,-1,1672,1506,4.24149,-1.55381
455,-482,12.4122,1.09729,0,0,0,0,0,0,0,-1,1679,1506,12.4122,-1.09734
462,-482,15.0673,3.13135,0,0,0,0,0,0,0,-1,1686,1506,15.0672,-3.13134
469,-482,15.3793,3.46301,0,0,0,0,0,0,0,-1,1693,1506,15.3793,-3.46307
476,-482,8.69751,9.18738,0,0,0,0,0,0,0,-1,1700,1506,8.69753,-9.18739
483,-482,10.0902,7.17432,0,0,0,0,0,0,0,-1,1707,1506,10.0902,-7.1743
490,-482,11.6289,5.4928,0,0,0,0,0,0,0,-1,1714,1506,11.6289,-5.49283
497,-482,15.9539,7.40222,0,0,0,0,0,0,0,-1,1721,1506,15.9538,-7.40219
504,-482,14.9746,12.1082,0,0,0,0,0,0,0,-1,1728,1506,14.9746,-12.1081
511,-482,14.1112,9.73108,0,0,0,0,0,0,0,-1,1735,1506,14.1112,-9.73106
518,-482,14.0035,10.4705,0,0,0,0,0,0,0,-1,1742,1506,14.0035,-10.4704
525,-482,12.7439,10.6071,0,0,0,0,0,0,0,-1,1749,1506,12.7438,-10.607
532,-482,12.496,10.8977,-0.0307369,-0.0334003,0.0289499,-0.00308811,-0.0610491,0.762414,0.03971,0.0414814,1756,1506,12.496,-10.8977
539,-482,12.2205,11.2749,-0.0241005,-0.0262572,0.021157,-0.00399435,-0.0463634,0.759937,0.0296672,0.0309193,1763,1506,12.2205,-11.2749
546,-482,11.9979,11.2737,-0.0186515,-0.0204991,0.0155816,-0.00396633,-0.0351843,0.755789,0.0222522,0.0169339,1770,1506,11.9979,-11.2736
553,-482,11.9371,11.0396,-0.0143417,-0.016022,0.0115055,-0.00364572,-0.026718,0.748951,0.0167297,0.0147054,1777,1506,11.9371,-11.0396
560,-482,11.9216,10.8046,-0.0107796,-0.0124107,0.00843281,-0.00312297,-0.0200673,0.737194,0.0124683,0.0121997,1784,1506,11.9216,-10.8046
567,-482,11.9675,10.5479,-0.00767522,-0.00928592,0.00588586,-0.00253987,-0.0144213,0.717406,0.00888934,0.0138097,1791,1506,11.9676,-10.5479
574,-482,11.9564,10.3248,-0.00492843,-0.00644607,0.00382427,-0.00178842,-0.00958607,0.687459,0.00588585,0.0132228,1798,1506,11.9564,-10.3248
581,-482,11.9552,10.0693,-0.0025707,-0.00392036,0.0021828,-0.000960791,-0.00553027,0.635479,0.00341197,0.00962309,1805,1506,11.9552,-10.0694
588,-482,11.9558,9.80078,-0.000441609,-0.00158709,0.000632002,-0.000161437,-0.00186726,0.417275,0.00119467,0.0106736,1812,1506,11.9559,-9.80083
595,-482,11.9584,9.53455,0.00135841,0.000314039,-0.000425219,0.00150964,0.000162809,-0.341702,0.000956787,0.0167078,1819,1506,11.9584,-9.53453
602,-482,11.9734,9.25903,0.00284263,0.00184061,-0.00108914,0.00354047,0.00114277,-0.569826,0.00208645,0.0209867,1826,1506,11.9734,-9.25903
609,-482,11.95,9.02869,0.00409493,0.00311763,-0.00157292,0.00525335,0.0019592,-0.634792,0.00306549,0.0155866,1833,1506,11.95,-9.02872
616,-482,11.9446,8.79285,0.00509703,0.00422189,-0.00187179,0.00658172,0.0027372,-0.670575,0.00381784,0.0104924,1840,1506,11.9445,-8.79279
623,-482,11.9377,8.53613,0.00605788,0.00510974,-0.00195273,0.00759326,0.00357436,-0.666315,0.00438648,0.0116589,1847,1506,11.9377,-8.53615
630,-482,11.9922,8.3219,0.00706272,0.00608282,-0.00185757,0.00849386,0.00465168,-0.656455,0.00491135,0.0239527,1854,1506,11.9922,-8.32194
637,-482,11.957,8.15393,0,0,0,0,0,0,0,-1,1861,1506,11.957,-8.15395
644,-482,11.149,7.69128,0,0,0,0,0,0,0,-1,1868,1506,11.1491,-7.69124
651,-482,4.03845,7.05273,0,0,0,0,0,0,0,-1,1875,1506,4.03843,-7.05279
658,-482,10.0278,5.87903,0,0,0,0,0,0,0,-1,1882,1506,10.0279,-5.87902
665,-482,8.15198,3.22229,0,0,0,0,0,0,0,-1,1889,1506,8.15199,-3.22232
672,-482,9.87415,1.3147,0,0,0,0,0,0,0,-1,1896,1506,9.87416,-1.31473
679,-482,0,0,0,0,0,0,0,0,0,-1,1903,1506,0,0
686,-482,0,0,0,0,0,0,0,0,0,-1,1910,1506,0,0
693,-482,0,0,0,0,0,0,0,0,0,-1,1917,1506,0,0
700,-482,0,0,0,0,0,0,0,0,0,-1,1924,1506,0,0
707,-482,0,0,0,0,0,0,0,0,0,-1,1931,1506,0,0
714,-482,0,0,0,0,0,0,0,0,0,-1,1938,1506,0,0
721,-482,0,0,0,0,0,0,0,0,0,-1,1945,1506,0,0
728,-482,0,0,0,0,0,0,0,0,0,-1,1952,1506,0,0
735,-482,0,0,0,0,0,0,0,0,0,-1,1959,1506,0,0
742,-482,0,0,0,0,0,0,0,0,0,-1,1966,1506,0,0
749,-482,0,0,0,0,0,0,0,0,0,-1,1973,1506,0,0
756,-482,0,0,0,0,0,0,0,0,0,-1,1980,1506,0,0
763,-482,0,0,0,0,0,0,0,0,0,-1,1987,1506,0,0
770,-482,0,0,0,0,0,0,0,0,0,-1,1994,1506,0,0
777,-482,0,0,0,0,0,0,0,0,0,-1,2001,1506,0,0
784,-482,0,0,0,0,0,0,0,0,0,-1,2008,1506,0,0
791,-482,0,0,0,0,0,0,0,0,0,-1,2015,1506,0,0
798,-482,0,0,0,0,0,0,0,0,0,-1,2022,1506,0,0
805,-482,0,0,0,0,0,0,0,0,0,-1,2029,1506,0,0
812,-482,0,0,0,0,0,0,0,0,0,-1,2036,1506,0,0
-700,-489,0,0,0,0,0,0,0,0,0,-1,524,1513,0,0
-693,-489,0,0,0,0,0,0,0,0,0,-1,531,1513,0,0
-686,-489,0,0,0,0,0,0,0,0,0,-1,538,1513,0,0
-679,-489,0,0,0,0,0,0,0,0,0,-1,545,1513,0,0
-672,-489,0,0,0,0,0,0,0,0,0,-1,552,1513,0,0
-665,-489,0,0,0,0,0,0,0,0,0,-1,559,1513,0,0
-658,-489,0,0,0,0,0,0,0,0,0,-1,566,1513,0,0
-651,-489,0,0,0,0,0,0,0,0,0,-1,573,1513,0,0
-644,-489,0,0,0,0,0,0,0,0,0,-1,580,1513,0,0
-637,-489,0,0,0,0,0,0,0,0,0,-1,587,1513,0,0
-630,-489,0,0,0,0,0,0,0,0,0,-1,594,1513,0,0
-623,-489,0,0,0,0,0,0,0,0,0,-1,601,1513,0,0
-616,-489,0,0,0,0,0,0,0,0,0,-1,608,1513,0,0
-609,-489,0,0,0,0,0,0,0,0,0,-1,615,1513,0,0
-602,-489,0,0,0,0,0,0,0,0,0,-1,622,1513,0,0
-595,-489,0,0,0,0,0,0,0,0,0,-1,629,1513,0,0
-588,-489,0,0,0,0,0,0,0,0,0,-1,636,1513,0,0
-581,-489,0,0,0,0,0,0,0,0,0,-1,643,1513,0,0
-574,-489,0,0,0,0,0,0,0,0,0,-1,650,1513,0,0
-567,-489,0,0,0,0,0,0,0,0,0,-1,657,1513,0,0
-560,-489,0,0,0,0,0,0,0,0,0,-1,664,1513,0,0
-553,-489,-9.42206,8.5116,0,0,0,0,0,0,0,-1,671,1513,-9.42205,-8.51158
-546,-489,-7.80951,8.18506,0,0,0,0,0,0,0,-1,678,1513,-7.8095,-8.18503
-539,-489,-3.61237,7.19727,0,0,0,0,0,0,0,-1,685,1513,-3.61238,-7.19723
-532,-489,-2.74719,3.00769,0,0,0,0,0,0,0,-1,692,1513,-2.74722,-3.00764
-525,-489,-3.41302,3.48218,0,0,0,0,0,0,0,-1,699,1513,-3.41305,-3.48213
-518,-489,-3.28333,6.16943,0,0,0,0,0,0,0,-1,706,1513,-3.28335,-6.16941
-511,-489,-2.42987,6.19214,0,0,0,0,0,0,0,-1,713,1513,-2.42986,-6.19215
-504,-489,-1.70331,6.22473,0.0184094,-1.18072e-05,0.0119824,0.0243122,-0.00591456,0.457724,0.0184976,0.0454317,720,1513,-1.70334,-6.22469
-497,-489,-1.55054,6.31091,0.0142648,-0.000719737,0.00754661,0.0174067,-0.00386164,0.394506,0.013083,0.038264,727,1513,-1.55052,-6.31095
-490,-489,-1.92157,6.82837,0,0,0,0,0,0,0,-1,734,1513,-1.92155,-6.82838
-483,-489,-2.05298,7.08215,0.00859191,-0.00177832,0.00290598,0.00935072,-0.00253712,0.255414,0.00722947,0.0105626,741,1513,-2.05301,-7.0822
-476,-489,-2.04877,7.38586,0.00649339,-0.00203616,0.00141765,0.00672284,-0.00226561,0.16046,0.00539798,0.00864768,748,1513,-2.04878,-7.38585
-469,-489,-2.05115,7.67639,0.00482328,-0.00258356,0.00011002,0.00482492,-0.00258519,0.0148495,0.00434288,0.00977271,755,1513,-2.05113,-7.67637
-462,-489,-2.0506,7.96582,0.00369373,-0.00274022,-0.000532553,0.00373751,-0.002784,-0.0820285,0.00377859,0.0149899,762,1513,-2.0506,-7.96588
-455,-489,-2.07202,8.24097,0.0028419,-0.0030662,-0.00106427,0.00302777,-0.00325206,-0.172899,0.00362643,0.0181333,769,1513,-2.07203,-8.24101
-448,-489,-2.08508,8.52161,0.0023084,-0.00337428,-0.00150185,0.0026809,-0.00374678,-0.243122,0.00372799,0.0158696,776,1513,-2.08511,-8.52163
-441,-489,-2.0625,8.83398,0.00197635,-0.00373342,-0.00209299,0.00266137,-0.00441845,-0.316306,0.00412928,0.0144535,783,1513,-2.06249,-8.834
-434,-489,-2.10199,9.12439,0.00183591,-0.00438637,-0.00300037,0.00304697,-0.00559743,-0.383638,0.00506274,0.0163041,790,1513,-2.10199,-9.12437
-427,-489,-2.13239,9.41504,0.00241701,-0.00516623,-0.00366965,0.003902,-0.00665123,-0.384526,0.00616144,0.0176891,797,1513,-2.1324,-9.415
-420,-489,-2.14825,9.7561,0.00423352,-0.00459457,-0.00339153,0.00538601,-0.00574705,-0.327571,0.0064288,0.0187221,804,1513,-2.14828,-9.75611
-413,-489,-1.82916,9.93335,0.00614114,-0.00465709,-0.00323296,0.00703508,-0.00555102,-0.269766,0.0072834,0.032142,811,1513,-1.82915,-9.93332
-406,-489,-1.65234,10.3439,0,0,0,0,0,0,0,-1,818,1513,-1.65232,-10.3438
-399,-489,-1.41241,9.10718,0,0,0,0,0,0,0,-1,825,1513,-1.41244,-9.10722
-392,-489,-1.0368,9.30469,0,0,0,0,0,0,0,-1,832,1513,-1.03682,-9.30466
-385,-489,-1.75165,10.6559,0,0,0,0,0,0,0,-1,839,1513,-1.75165,-10.6559
-378,-489,-0.401428,9.87048,0,0,0,0,0,0,0,-1,846,1513,-0.401415,-9.87047
-371,-489,-1.11633,10.6606,0,0,0,0,0,0,0,-1,853,1513,-1.11633,-10.6606
-364,-489,-0.503113,8.98486,0,0,0,0,0,0,0,-1,860,1513,-0.503097,-8.98482
-357,-489,-0.609924,10.9606,0,0,0,0,0,0,0,-1,867,1513,-0.609947,-10.9605
-350,-489,-7.94659,-0.358887,0,0,0,0,0,0,0,-1,874,1513,-7.94657,0.358912
-343,-489,-7.49323,-0.437866,0,0,0,0,0,0,0,-1,881,1513,-7.49322,0.437823
-336,-489,-7.02332,-0.53125,0,0,0,0,0,0,0,-1,888,1513,-7.0233,0.531295
-329,-489,-6.70221,-0.242432,0,0,0,0,0,0,0,-1,895,1513,-6.70221,0.2424
-322,-489,0,0,0,0,0,0,0,0,0,-1,902,1513,0,0
-315,-489,0,0,0,0,0,0,0,0,0,-1,909,1513,0,0
-308,-489,0,0,0,0,0,0,0,0,0,-1,916,1513,0,0
-301,-489,0,0,0,0,0,0,0,0,0,-1,923,1513,0,0
-294,-489,0,0,0,0,0,0,0,0,0,-1,930,1513,0,0
-287,-489,0,0,0,0,0,0,0,0,0,-1,937,1513,0,0
-280,-489,0,0,0,0,0,0,0,0,0,-1,944,1513,0,0
-273,-489,0,0,0,0,0,0,0,0,0,-1,951,1513,0,0
-266,-489,0,0,0,0,0,0,0,0,0,-1,958,1513,0,0
-259,-489,0,0,0,0,0,0,0,0,0,-1,965,1513,0,0
-252,-489,0,0,0,0,0,0,0,0,0,-1,972,1513,0,0
-245,-489,0,0,0,0,0,0,0,0,0,-1,979,1513,0,0
-238,-489,0,0,0,0,0,0,0,0,0,-1,986,1513,0,0
-231,-489,0,0,0,0,0,0,0,0,0,-1,993,1513,0,0
-224,-489,0,0,0,0,0,0,0,0,0,-1,1000,1513,0,0
-217,-489,0,0,0,0,0,0,0,0,0,-1,1007,1513,0,0
-210,-489,0,0,0,0,0,0,0,0,0,-1,1014,1513,0,0
-203,-489,0,0,0,0,0,0,0,0,0,-1,1021,1513,0,0
-196,-489,0,0,0,0,0,0,0,0,0,-1,1028,1513,0,0
-189,-489,0,0,0,0,0,0,0,0,0,-1,1035,1513,0,0
-182,-489,0,0,0,0,0,0,0,0,0,-1,1042,1513,0,0
-175,-489,0,0,0,0,0,0,0,0,0,-1,1049,1513,0,0
-168,-489,0,0,0,0,0,0,0,0,0,-1,1056,1513,0,0
-161,-489,0,0,0,0,0,0,0,0,0,-1,1063,1513,0,0
-154,-489,0,0,0,0,0,0,0,0,0,-1,1070,1513,0,0
-147,-489,0,0,0,0,0,0,0,0,0,-1,1077,1513,0,0
-140,-489,0,0,0,0,0,0,0,0,0,-1,1084,1513,0,0
-133,-489,0,0,0,0,0,0,0,0,0,-1,1091,1513,0,0
-126,-489,0,0,0,0,0,0,0,0,0,-1,1098,1513,0,0
-119,-489,0,0,0,0,0,0,0,0,0,-1,1105,1513,0,0
-112,-489,0,0,0,0,0,0,0,0,0,-1,1112,1513,0,0
-105,-489,0,0,0,0,0,0,0,0,0,-1,1119,1513,0,0
-98,-489,0,0,0,0,0,0,0,0,0,-1,1126,1513,0,0
-91,-489,0,0,0,0,0,0,0,0,0,-1,1133,1513,0,0
-84,-489,0,0,0,0,0,0,0,0,0,-1,1140,1513,0,0
-77,-489,0,0,0,0,0,0,0,0,0,-1,1147,1513,0,0
-70,-489,0,0,0,0,0,0,0,0,0,-1,1154,1513,0,0
-63,-489,0,0,0,0,0,0,0,0,0,-1,1161,1513,0,0
-56,-489,0,0,0,0,0,0,0,0,0,-1,1168,1513,0,0
-49,-489,0,0,0,0,0,0,0,0,0,-1,1175,1513,0,0
-42,-489,0,0,0,0,0,0,0,0,0,-1,1182,1513,0,0
-35,-489,0,0,0,0,0,0,0,0,0,-1,1189,1513,0,0
-28,-489,0,0,0,0,0,0,0,0,0,-1,1196,1513,0,0
-21,-489,0,0,0,0,0,0,0,0,0,-1,1203,1513,0,0
-14,-489,0,0,0,0,0,0,0,0,0,-1,1210,1513,0,0
-7,-489,0,0,0,0,0,0,0,0,0,-1,1217,1513,0,0
0,-489,0,0,0,0,0,0,0,0,0,-1,1224,1513,0,0
7,-489,0,0,0,0,0,0,0,0,0,-1,1231,1513,0,0
14,-489,0,0,0,0,0,0,0,0,0,-1,1238,1513,0,0
21,-489,0,0,0,0,0,0,0,0,0,-1,1245,1513,0,0
28,-489,0,0,0,0,0,0,0,0,0,-1,1252,1513,0,0
35,-489,0,0,0,0,0,0,0,0,0,-1,1259,1513,0,0
42,-489,0,0,0,0,0,0,0,0,0,-1,1266,1513,0,0
49,-489,0,0,0,0,0,0,0,0,0,-1,1273,1513,0,0
56,-489,0,0,0,0,0,0,0,0,0,-1,1280,1513,0,0
63,-489,0,0,0,0,0,0,0,0,0,-1,1287,1513,0,0
70,-489,0,0,0,0,0,0,0,0,0,-1,1294,1513,0,0
77,-489,0,0,0,0,0,0,0,0,0,-1,1301,1513,0,0
84,-489,0,0,0,0,0,0,0,0,0,-1,1308,1513,0,0
91,-489,0,0,0,0,0,0,0,0,0,-1,1315,1513,0,0
98,-489,0,0,0,0,0,0,0,0,0,-1,1322,1513,0,0
105,-489,0,0,0,0,0,0,0,0,0,-1,1329,1513,0,0
112,-489,0,0,0,0,0,0,0,0,0,-1,1336,1513,0,0
119,-489,0,0,0,0,0,0,0,0,0,-1,1343,1513,0,0
126,-489,0,0,0,0,0,0,0,0,0,-1,1350,1513,0,0
133,-489,0,0,0,0,0,0,0,0,0,-1,1357,1513,0,0
140,-489,0,0,0,0,0,0,0,0,0,-1,1364,1513,0,0
147,-489,0,0,0,0,0,0,0,0,0,-1,1371,1513,0,0
154,-489,0,0,0,0,0,0,0,0,0,-1,1378,1513,0,0
161,-489,0,0,0,0,0,0,0,0,0,-1,1385,1513,0,0
168,-489,0,0,0,0,0,0,0,0,0,-1,1392,1513,0,0
175,-489,0,0,0,0,0,0,0,0,0,-1,1399,1513,0,0
182,-489,0,0,0,0,0,0,0,0,0,-1,1406,1513,0,0
189,-489,0,0,0,0,0,0,0,0,0,-1,1413,1513,0,0
196,-489,0,0,0,0,0,0,0,0,0,-1,1420,1513,0,0
203,-489,0,0,0,0,0,0,0,0,0,-1,1427,1513,0,0
210,-489,0,0,0,0,0,0,0,0,0,-1,1434,1513,0,0
217,-489,0,0,0,0,0,0,0,0,0,-1,1441,1513,0,0
224,-489,0,0,0,0,0,0,0,0,0,-1,1448,1513,0,0
231,-489,0,0,0,0,0,0,0,0,0,-1,1455,1513,0,0
238,-489,0,0,0,0,0,0,0,0,0,-1,1462,1513,0,0
245,-489,0,0,0,0,0,0,0,0,0,-1,1469,1513,0,0
252,-489,0,0,0,0,0,0,0,0,0,-1,1476,1513,0,0
259,-489,0,0,0,0,0,0,0,0,0,-1,1483,1513,0,0
266,-489,0,0,0,0,0,0,0,0,0,-1,1490,1513,0,0
273,-489,0,0,0,0,0,0,0,0,0,-1,1497,1513,0,0
280,-489,0,0,0,0,0,0,0,0,0,-1,1504,1513,0,0
287,-489,0,0,0,0,0,0,0,0,0,-1,1511,1513,0,0
294,-489,0,0,0,0,0,0,0,0,0,-1,1518,1513,0,0
301,-489,0,0,0,0,0,0,0,0,0,-1,1525,1513,0,0
308,-489,0,0,0,0,0,0,0,0,0,-1,1532,1513,0,0
315,-489,0,0,0,0,0,0,0,0,0,-1,1539,1513,0,0
322,-489,0,0,0,0,0,0,0,0,0,-1,1546,1513,0,0
329,-489,0,0,0,0,0,0,0,0,0,-1,1553,1513,0,0
336,-489,0,0,0,0,0,0,0,0,0,-1,1560,1513,0,0
343,-489,0,0,0,0,0,0,0,0,0,-1,1567,1513,0,0
350,-489,0,0,0,0,0,0,0,0,0,-1,1574,1513,0,0
357,-489,0,0,0,0,0,0,0,0,0,-1,1581,1513,0,0
364,-489,0,0,0,0,0,0,0,0,0,-1,1588,1513,0,0
371,-489,0,0,0,0,0,0,0,0,0,-1,1595,1513,0,0
378,-489,0,0,0,0,0,0,0,0,0,-1,1602,1513,0,0
385,-489,0,0,0,0,0,0,0,0,0,-1,1609,1513,0,0
392,-489,0,0,0,0,0,0,0,0,0,-1,1616,1513,0,0
399,-489,0,0,0,0,0,0,0,0,0,-1,1623,1513,0,0
406,-489,0,0,0,0,0,0,0,0,0,-1,1630,1513,0,0
413,-489,0,0,0,0,0,0,0,0,0,-1,1637,1513,0,0
420,-489,0,0,0,0,0,0,0,0,0,-1,1644,1513,0,0
427,-489,0,0,0,0,0,0,0,0,0,-1,1651,1513,0,0
434,-489,0,0,0,0,0,0,0,0,0,-1,1658,1513,0,0
441,-489,11.4602,2.56787,0,0,0,0,0,0,0,-1,1665,1513,11.4602,-2.56786
448,-489,12.4425,1.72351,0,0,0,0,0,0,0,-1,1672,1513,12.4425,-1.72349
455,-489,12.5575,1.37463,0,0,0,0,0,0,0,-1,1679,1513,12.5575,-1.37469
462,-489,14.9784,3.84888,0,0,0,0,0,0,0,-1,1686,1513,14.9784,-3.84892
469,-489,15.1367,4.53101,0,0,0,0,0,0,0,-1,1693,1513,15.1368,-4.531
476,-489,15.5536,5.09338,0,0,0,0,0,0,0,-1,1700,1513,15.5536,-5.09339
483,-489,8.96912,8.37805,0,0,0,0,0,0,0,-1,1707,1513,8.96909,-8.37809
490,-489,10.5366,7.49561,0,0,0,0,0,0,0,-1,1714,1513,10.5367,-7.49558
497,-489,14.6051,11.8397,0,0,0,0,0,0,0,-1,1721,1513,14.6051,-11.8397
504,-489,14.2772,11.9772,0,0,0,0,0,0,0,-1,1728,1513,14.2773,-11.9772
511,-489,13.5791,11.649,0,0,0,0,0,0,0,-1,1735,1513,13.5791,-11.649
518,-489,11.6432,10.1964,0,0,0,0,0,0,0,-1,1742,1513,11.6432,-10.1964
525,-489,12.121,11.4359,0,0,0,0,0,0,0,-1,1749,1513,12.1209,-11.4359
532,-489,12.0118,11.4674,-0.0234814,-0.0271773,0.0252482,-1.3575e-05,-0.0506451,0.748868,0.0337589,0.0359783,1756,1513,12.0119,-11.4674
539,-489,11.7627,11.4784,-0.0179996,-0.0208886,0.0181361,-0.0012506,-0.0376376,0.745658,0.0246854,0.0171894,1763,1513,11.7627,-11.4784
546,-489,11.6738,11.3287,-0.0136015,-0.0159538,0.0131644,-0.00156073,-0.0279945,0.740845,0.0181651,0.0110042,1770,1513,11.6738,-11.3287
553,-489,11.6641,11.0945,-0.0101606,-0.0122422,0.00955986,-0.00158502,-0.0208177,0.731176,0.0133815,0.0141783,1777,1513,11.664,-11.0945
560,-489,11.6836,10.8162,-0.0073082,-0.00921177,0.00680144,-0.00139227,-0.0151277,0.71588,0.00965456,0.0135254,1784,1513,11.6836,-10.8161
567,-489,11.7125,10.571,-0.00481807,-0.0066321,0.00450542,-0.00112927,-0.0103209,0.686068,0.00653677,0.0140066,1791,1513,11.7125,-10.571
574,-489,11.6876,10.3552,-0.00252486,-0.00418146,0.00260319,-0.000621364,-0.00608495,0.63137,0.00386619,0.0139746,1798,1513,11.6876,-10.3552
581,-489,11.7047,10.0945,-0.000491121,-0.0018949,0.00105555,7.45974e-05,-0.00246062,0.49199,0.00166584,0.0102133,1805,1513,11.7047,-10.0944
588,-489,11.7067,9.82263,0.00140084,0.000239392,-0.000439747,0.00154856,9.16812e-05,-0.324058,0.00100321,0.0128688,1812,1513,11.7066,-9.82267
595,-489,11.6957,9.57336,0.00307556,0.00206063,-0.00150266,0.00415413,0.00098206,-0.622555,0.00250702,0.0197031,1819,1513,11.6957,-9.57336
602,-489,11.7048,9.30664,0.004555,0.00365631,-0.00222877,0.00637927,0.00183204,-0.685926,0.00379265,0.0259664,1826,1513,11.7048,-9.30663
609,-489,11.6851,9.05591,0.00588193,0.00507921,-0.00276985,0.00827935,0.00268179,-0.713447,0.00487789,0.0174114,1833,1513,11.6851,-9.05592
616,-489,11.6775,8.78918,0.00714776,0.00648725,-0.00316986,0.0100045,0.00363049,-0.733492,0.00584807,0.0101924,1840,1513,11.6775,-8.7892
623,-489,11.6838,8.56201,0.00849279,0.00782778,-0.00337521,0.0115518,0.00476874,-0.7363,0.00670316,0.0164358,1847,1513,11.6839,-8.56204
630,-489,11.7161,8.50049,0.00993128,0.00944322,-0.00335163,0.0130478,0.00632675,-0.749058,0.00753427,0.0388806,1854,1513,11.7161,-8.50047
637,-489,11.6996,8.58264,0,0,0,0,0,0,0,-1,1861,1513,11.6995,-8.58265
644,-489,9.67578,8.45874,0,0,0,0,0,0,0,-1,1868,1513,9.67576,-8.45879
651,-489,6.13818,6.85095,0,0,0,0,0,0,0,-1,1875,1513,6.13823,-6.85097
658,-489,5.43848,7.75513,0,0,0,0,0,0,0,-1,1882,1513,5.43844,-7.75509
665,-489,5.48438,8.59912,0,0,0,0,0,0,0,-1,1889,1513,5.48434,-8.59907
672,-489,0,0,0,0,0,0,0,0,0,-1,1896,1513,0,0
679,-489,0,0,0,0,0,0,0,0,0,-1,1903,1513,0,0
686,-489,0,0,0,0,0,0,0,0,0,-1,1910,1513,0,0
693,-489,0,0,0,0,0,0,0,0,0,-1,1917,1513,0,0
700,-489,0,0,0,0,0,0,0,0,0,-1,1924,1513,0,0
707,-489,0,0,0,0,0,0,0,0,0,-1,1931,1513,0,0
714,-489,0,0,0,0,0,0,0,0,0,-1,1938,1513,0,0
721,-489,0,0,0,0,0,0,0,0,0,-1,1945,1513,0,0
728,-489,0,0,0,0,0,0,0,0,0,-1,1952,1513,0,0
735,-489,0,0,0,0,0,0,0,0,0,-1,1959,1513,0,0
742,-489,0,0,0,0,0,0,0,0,0,-1,1966,1513,0,0
749,-489,0,0,0,0,0,0,0,0,0,-1,1973,1513,0,0
756,-489,0,0,0,0,0,0,0,0,0,-1,1980,1513,0,0
763,-489,0,0,0,0,0,0,0,0,0,-1,1987,1513,0,0
770,-489,0,0,0,0,0,0,0,0,0,-1,1994,1513,0,0
777,-489,0,0,0,0,0,0,0,0,0,-1,2001,1513,0,0
784,-489,0,0,0,0,0,0,0,0,0,-1,2008,1513,0,0
791,-489,0,0,0,0,0,0,0,0,0,-1,2015,1513,0,0
798,-489,0,0,0,0,0,0,0,0,0,-1,2022,1513,0,0
805,-489,0,0,0,0,0,0,0,0,0,-1,2029,1513,0,0
812,-489,0,0,0,0,0,0,0,0,0,-1,2036,1513,0,0
-700,-496,0,0,0,0,0,0,0,0,0,-1,524,1520,0,0
-693,-496,0,0,0,0,0,0,0,0,0,-1,531,1520,0,0
-686,-496,0,0,0,0,0,0,0,0,0,-1,538,1520,0,0
-679,-496,0,0,0,0,0,0,0,0,0,-1,545,1520,0,0
-672,-496,0,0,0,0,0,0,0,0,0,-1,552,1520,0,0
-665,-496,0,0,0,0,0,0,0,0,0,-1,559,1520,0,0
-658,-496,0,0,0,0,0,0,0,0,0,-1,566,1520,0,0
-651,-496,0,0,0,0,0,0,0,0,0,-1,573,1520,0,0
-644,-496,0,0,0,0,0,0,0,0,0,-1,580,1520,0,0
-637,-496,0,0,0,0,0,0,0,0,0,-1,587,1520,0,0
-630,-496,0,0,0,0,0,0,0,0,0,-1,594,1520,0,0
-623,-496,0,0,0,0,0,0,0,0,0,-1,601,1520,0,0
-616,-496,0,0,0,0,0,0,0,0,0,-1,608,1520,0,0
-609,-496,0,0,0,0,0,0,0,0,0,-1,615,1520,0,0
-602,-496,0,0,0,0,0,0,0,0,0,-1,622,1520,0,0
-595,-496,0,0,0,0,0,0,0,0,0,-1,629,1520,0,0
-588,-496,0,0,0,0,0,0,0,0,0,-1,636,1520,0,0
-581,-496,0,0,0,0,0,0,0,0,0,-1,643,1520,0,0
-574,-496,0,0,0,0,0,0,0,0,0,-1,650,1520,0,0
-567,-496,0,0,0,0,0,0,0,0,0,-1,657,1520,0,0
-560,-496,0,0,0,0,0,0,0,0,0,-1,664,1520,0,0
-553,-496,0,0,0,0,0,0,0,0,0,-1,671,1520,0,0
-546,-496,-8.09711,7.94836,0,0,0,0,0,0,0,-1,678,1520,-8.09712,-7.94842
-539,-496,-3.43286,1.45349,0,0,0,0,0,0,0,-1,685,1520,-3.43288,-1.45344
-532,-496,-3.34003,2.69983,0,0,0,0,0,0,0,-1,692,1520,-3.34,-2.69981
-525,-496,-3.31244,3.69531,0,0,0,0,0,0,0,-1,699,1520,-3.31242,-3.69534
-518,-496,-3.58716,4.63257,0,0,0,0,0,0,0,-1,706,1520,-3.58716,-4.63252
-511,-496,-1.76331,5.15051,0,0,0,0,0,0,0,-1,713,1520,-1.7633,-5.15056
-504,-496,-0.928711,5.86719,0,0,0,0,0,0,0,-1,720,1520,-0.928715,-5.86713
-497,-496,-1.10034,6.28479,0,0,0,0,0,0,0,-1,727,1520,-1.10032,-6.28477
-490,-496,-1.64801,7.09814,0,0,0,0,0,0,0,-1,734,1520,-1.64802,-7.09816
-483,-496,-1.75385,7.1593,0.0107083,-0.00332396,0.00349038,0.0115285,-0.00414421,0.230815,0.00937746,0.0200257,741,1520,-1.75387,-7.15928
-476,-496,-1.78967,7.38794,0.00834905,-0.0032208,0.00208475,0.00871324,-0.00358499,0.172945,0.00730326,0.010504,748,1520,-1.78965,-7.38794
-469,-496,-1.78931,7.69507,0.00643465,-0.00334288,0.000895131,0.00651592,-0.00342415,0.0905469,0.00583071,0.00969408,755,1520,-1.78928,-7.69506
-462,-496,-1.77838,7.97754,0.00507109,-0.0031398,0.000312552,0.00508298,-0.00315168,0.0379922,0.00479767,0.01507,762,1520,-1.77841,-7.97759
-455,-496,-1.78967,8.25146,0.00405307,-0.00309302,-0.000167161,0.00405697,-0.00309693,-0.0233749,0.00414269,0.0195686,769,1520,-1.78964,-8.25148
-448,-496,-1.789,8.54443,0.00336901,-0.00302248,-0.000504344,0.00340857,-0.00306204,-0.078263,0.00373759,0.0174622,776,1520,-1.78902,-8.54443
-441,-496,-1.78656,8.83118,0.00291594,-0.00299663,-0.000935004,0.00306028,-0.00314097,-0.153161,0.00358039,0.0138217,783,1520,-1.78659,-8.83117
-434,-496,-1.80054,9.10339,0.0026781,-0.00325425,-0.00166791,0.00311488,-0.00369103,-0.256122,0.00393409,0.0127479,790,1520,-1.80056,-9.10341
-427,-496,-1.83142,9.38904,0.00314823,-0.00360833,-0.00208356,0.00373908,-0.00419918,-0.276324,0.00458572,0.0159013,797,1520,-1.83144,-9.38904
-420,-496,-1.82391,9.66028,0.0047879,-0.00273101,-0.0016194,0.00512185,-0.00306496,-0.203367,0.00477612,0.0177633,804,1520,-1.82389,-9.66025
-413,-496,-1.74915,9.94653,0.00650687,-0.00248742,-0.00127967,0.0066854,-0.00266594,-0.138612,0.00556276,0.0188766,811,1520,-1.74912,-9.94659
-406,-496,-1.63544,10.33,0,0,0,0,0,0,0,-1,818,1520,-1.63546,-10.3299
-399,-496,-1.45129,10.7222,0,0,0,0,0,0,0,-1,825,1520,-1.45128,-10.7221
-392,-496,-1.3313,10.9386,0,0,0,0,0,0,0,-1,832,1520,-1.33128,-10.9386
-385,-496,-1.54156,10.738,0,0,0,0,0,0,0,-1,839,1520,-1.54156,-10.7381
-378,-496,-1.3526,10.9933,0,0,0,0,0,0,0,-1,846,1520,-1.35257,-10.9933
-371,-496,0.0877075,12.5299,0,0,0,0,0,0,0,-1,853,1520,0.0876896,-12.5299
-364,-496,0.0881348,10.6422,0,0,0,0,0,0,0,-1,860,1520,0.0881368,-10.6423
-357,-496,0.323792,7.56812,0,0,0,0,0,0,0,-1,867,1520,0.323782,-7.56806
-350,-496,2.1535,7.18945,0,0,0,0,0,0,0,-1,874,1520,2.15348,-7.1894
-343,-496,-7.56244,0.335327,0,0,0,0,0,0,0,-1,881,1520,-7.56242,-0.335322
-336,-496,-3.99249,6.02222,0,0,0,0,0,0,0,-1,888,1520,-3.99246,-6.0222
-329,-496,-6.93689,-0.100342,0,0,0,0,0,0,0,-1,895,1520,-6.93686,0.1003
-322,-496,-6.17505,0.494385,0,0,0,0,0,0,0,-1,902,1520,-6.17507,-0.49437
-315,-496,-5.46338,1.0459,0,0,0,0,0,0,0,-1,909,1520,-5.46338,-1.04587
-308,-496,0,0,0,0,0,0,0,0,0,-1,916,1520,0,0
-301,-496,0,0,0,0,0,0,0,0,0,-1,923,1520,0,0
-294,-496,0,0,0,0,0,0,0,0,0,-1,930,1520,0,0
-287,-496,0,0,0,0,0,0,0,0,0,-1,937,1520,0,0
-280,-496,0,0,0,0,0,0,0,0,0,-1,944,1520,0,0
-273,-496,0,0,0,0,0,0,0,0,0,-1,951,1520,0,0
-266,-496,0,0,0,0,0,0,0,0,0,-1,958,1520,0,0
-259,-496,0,0,0,0,0,0,0,0,0,-1,965,1520,0,0
-252,-496,0,0,0,0,0,0,0,0,0,-1,972,1520,0,0
-245,-496,0,0,0,0,0,0,0,0,0,-1,979,1520,0,0
-238,-496,0,0,0,0,0,0,0,0,0,-1,986,1520,0,0
-231,-496,0,0,0,0,0,0,0,0,0,-1,993,1520,0,0
-224,-496,0,0,0,0,0,0,0,0,0,-1,1000,1520,0,0
-217,-496,0,0,0,0,0,0,0,0,0,-1,1007,1520,0,0
-210,-496,0,0,0,0,0,0,0,0,0,-1,1014,1520,0,0
-203,-496,0,0,0,0,0,0,0,0,0,-1,1021,1520,0,0
-196,-496,0,0,0,0,0,0,0,0,0,-1,1028,1520,0,0
-189,-496,0,0,0,0,0,0,0,0,0,-1,1035,1520,0,0
-182,-496,0,0,0,0,0,0,0,0,0,-1,1042,1520,0,0
-175,-496,0,0,0,0,0,0,0,0,0,-1,1049,1520,0,0
-168,-496,0,0,0,0,0,0,0,0,0,-1,1056,1520,0,0
-161,-496,0,0,0,0,0,0,0,0,0,-1,1063,1520,0,0
-154,-496,0,0,0,0,0,0,0,0,0,-1,1070,1520,0,0
-147,-496,0,0,0,0,0,0,0,0,0,-1,1077,1520,0,0
-140,-496,0,0,0,0,0,0,0,0,0,-1,1084,1520,0,0
-133,-496,0,0,0,0,0,0,0,0,0,-1,1091,1520,0,0
-126,-496,0,0,0,0,0,0,0,0,0,-1,1098,1520,0,0
-119,-496,0,0,0,0,0,0,0,0,0,-1,1105,1520,0,0
-112,-496,0,0,0,0,0,0,0,0,0,-1,1112,1520,0,0
-105,-496,0,0,0,0,0,0,0,0,0,-1,1119,1520,0,0
-98,-496,0,0,0,0,0,0,0,0,0,-1,1126,1520,0,0
-91,-496,0,0,0,0,0,0,0,0,0,-1,1133,1520,0,0
-84,-496,0,0,0,0,0,0,0,0,0,-1,1140,1520,0,0
-77,-496,0,0,0,0,0,0,0,0,0,-1,1147,1520,0,0
-70,-496,0,0,0,0,0,0,0,0,0,-1,1154,1520,0,0
-63,-496,0,0,0,0,0,0,0,0,0,-1,1161,1520,0,0
-56,-496,0,0,0,0,0,0,0,0,0,-1,1168,1520,0,0
-49,-496,0,0,0,0,0,0,0,0,0,-1,1175,1520,0,0
-42,-496,0,0,0,0,0,0,0,0,0,-1,1182,1520,0,0
-35,-496,0,0,0,0,0,0,0,0,0,-1,1189,1520,0,0
-28,-496,0,0,0,0,0,0,0,0,0,-1,1196,1520,0,0
-21,-496,0,0,0,0,0,0,0,0,0,-1,1203,1520,0,0
-14,-496,0,0,0,0,0,0,0,0,0,-1,1210,1520,0,0
-7,-496,0,0,0,0,0,0,0,0,0,-1,1217,1520,0,0
0,-496,0,0,0,0,0,0,0,0,0,-1,1224,1520,0,0
7,-496,0,0,0,0,0,0,0,0,0,-1,1231,1520,0,0
14,-496,0,0,0,0,0,0,0,0,0,-1,1238,1520,0,0
21,-496,0,0,0,0,0,0,0,0,0,-1,1245,1520,0,0
28,-496,0,0,0,0,0,0,0,0,0,-1,1252,1520,0,0
35,-496,0,0,0,0,0,0,0,0,0,-1,1259,1520,0,0
42,-496,0,0,0,0,0,0,0,0,0,-1,1266,1520,0,0
49,-496,0,0,0,0,0,0,0,0,0,-1,1273,1520,0,0
56,-496,0,0,0,0,0,0,0,0,0,-1,1280,1520,0,0
63,-496,0,0,0,0,0,0,0,0,0,-1,1287,1520,0,0
70,-496,0,0,0,0,0,0,0,0,0,-1,1294,1520,0,0
77,-496,0,0,0,0,0,0,0,0,0,-1,1301,1520,0,0
84,-496,0,0,0,0,0,0,0,0,0,-1,1308,1520,0,0
91,-496,0,0,0,0,0,0,0,0,0,-1,1315,1520,0,0
98,-496,0,0,0,0,0,0,0,0,0,-1,1322,1520,0,0
105,-496,0,0,0,0,0,0,0,0,0,-1,1329,1520,0,0
112,-496,0,0,0,0,0,0,0,0,0,-1,1336,1520,0,0
119,-496,0,0,0,0,0,0,0,0,0,-1,1343,1520,0,0
126,-496,0,0,0,0,0,0,0,0,0,-1,1350,1520,0,0
133,-496,0,0,0,0,0,0,0,0,0,-1,1357,1520,0,0
140,-496,0,0,0,0,0,0,0,0,0,-1,1364,1520,0,0
147,-496,0,0,0,0,0,0,0,0,0,-1,1371,1520,0,0
154,-496,0,0,0,0,0,0,0,0,0,-1,1378,1520,0,0
161,-496,0,0,0,0,0,0,0,0,0,-1,1385,1520,0,0
168,-496,0,0,0,0,0,0,0,0,0,-1,1392,1520,0,0
175,-496,0,0,0,0,0,0,0,0,0,-1,1399,1520,0,0
182,-496,0,0,0,0,0,0,0,0,0,-1,1406,1520,0,0
189,-496,0,0,0,0,0,0,0,0,0,-1,1413,1520,0,0
196,-496,0,0,0,0,0,0,0,0,0,-1,1420,1520,0,0
203,-496,0,0,0,0,0,0,0,0,0,-1,1427,1520,0,0
210,-496,0,0,0,0,0,0,0,0,0,-1,1434,1520,0,0
217,-496,0,0,0,0,0,0,0,0,0,-1,1441,1520,0,0
224,-496,0,0,0,0,0,0,0,0,0,-1,1448,1520,0,0
231,-496,0,0,0,0,0,0,0,0,0,-1,1455,1520,0,0
238,-496,0,0,0,0,0,0,0,0,0,-1,1462,1520,0,0
245,-496,0,0,0,0,0,0,0,0,0,-1,1469,1520,0,0
252,-496,0,0,0,0,0,0,0,0,0,-1,1476,1520,0,0
259,-496,0,0,0,0,0,0,0,0,0,-1,1483,1520,0,0
266,-496,0,0,0,0,0,0,0,0,0,-1,1490,1520,0,0
273,-496,0,0,0,0,0,0,0,0,0,-1,1497,1520,0,0
280,-496,0,0,0,0,0,0,0,0,0,-1,1504,1520,0,0
287,-496,0,0,0,0,0,0,0,0,0,-1,1511,1520,0,0
294,-496,0,0,0,0,0,0,0,0,0,-1,1518,1520,0,0
301,-496,0,0,0,0,0,0,0,0,0,-1,1525,1520,0,0
308,-496,0,0,0,0,0,0,0,0,0,-1,1532,1520,0,0
315,-496,0,0,0,0,0,0,0,0,0,-1,1539,1520,0,0
322,-496,0,0,0,0,0,0,0,0,0,-1,1546,1520,0,0
329,-496,0,0,0,0,0,0,0,0,0,-1,1553,1520,0,0
336,-496,0,0,0,0,0,0,0,0,0,-1,1560,1520,0,0
343,-496,0,0,0,0,0,0,0,0,0,-1,1567,1520,0,0
350,-496,0,0,0,0,0,0,0,0,0,-1,1574,1520,0,0
357,-496,0,0,0,0,0,0,0,0,0,-1,1581,1520,0,0
364,-496,0,0,0,0,0,0,0,0,0,-1,1588,1520,0,0
371,-496,0,0,0,0,0,0,0,0,0,-1,1595,1520,0,0
378,-496,0,0,0,0,0,0,0,0,0,-1,1602,1520,0,0
385,-496,0,0,0,0,0,0,0,0,0,-1,1609,1520,0,0
392,-496,0,0,0,0,0,0,0,0,0,-1,1616,1520,0,0
399,-496,0,0,0,0,0,0,0,0,0,-1,1623,1520,0,0
406,-496,0,0,0,0,0,0,0,0,0,-1,1630,1520,0,0
413,-496,0,0,0,0,0,0,0,0,0,-1,1637,1520,0,0
420,-496,0,0,0,0,0,0,0,0,0,-1,1644,1520,0,0
427,-496,0,0,0,0,0,0,0,0,0,-1,1651,1520,0,0
434,-496,11.0457,3.37732,0,0,0,0,0,0,0,-1,1658,1520,11.0456,-3.37736
441,-496,11.788,2.75488,0,0,0,0,0,0,0,-1,1665,1520,11.7879,-2.75485
448,-496,12.2146,2.18494,0,0,0,0,0,0,0,-1,1672,1520,12.2146,-2.18489
455,-496,12.3489,1.65173,0,0,0,0,0,0,0,-1,1679,1520,12.3489,-1.65178
462,-496,12.1912,1.32361,0,0,0,0,0,0,0,-1,1686,1520,12.1911,-1.32357
469,-496,14.8138,5.77954,0,0,0,0,0,0,0,-1,1693,1520,14.8138,-5.77958
476,-496,15.2449,6.27942,0,0,0,0,0,0,0,-1,1700,1520,15.2449,-6.27936
483,-496,9.19812,6.88367,0,0,0,0,0,0,0,-1,1707,1520,9.19812,-6.88361
490,-496,10.2123,7.97144,0,0,0,0,0,0,0,-1,1714,1520,10.2122,-7.97145
497,-496,13.9297,12.2981,0,0,0,0,0,0,0,-1,1721,1520,13.9297,-12.2982
504,-496,13.5739,12.1079,0,0,0,0,0,0,0,-1,1728,1520,13.5739,-12.108
511,-496,13.0331,11.9064,0,0,0,0,0,0,0,-1,1735,1520,13.0331,-11.9063
518,-496,11.7749,11.657,0,0,0,0,0,0,0,-1,1742,1520,11.7749,-11.657
525,-496,11.6473,11.6755,-0.023631,-0.0273605,0.0289869,0.00355103,-0.0545425,0.753277,0.0376013,0.0456179,1749,1520,11.6474,-11.6756
532,-496,11.4597,11.7277,-0.0182949,-0.0210005,0.021548,0.00194268,-0.0412381,0.754049,0.028162,0.0258627,1756,1520,11.4597,-11.7277
539,-496,11.4449,11.5615,-0.0137346,-0.0156969,0.0152304,0.000546223,-0.0299778,0.753231,0.0201697,0.0127677,1763,1520,11.445,-11.5615
546,-496,11.3962,11.3243,-0.0100612,-0.0115425,0.0108555,7.88607e-05,-0.0216826,0.751339,0.0144814,0.00980203,1770,1520,11.3962,-11.3244
553,-496,11.4182,11.0889,-0.00716768,-0.00853588,0.00768776,-0.000133641,-0.0155699,0.741022,0.0103357,0.0145009,1777,1520,11.4182,-11.0889
560,-496,11.4366,10.844,-0.00471622,-0.00601052,0.00519622,-0.000127004,-0.0105997,0.723446,0.00702454,0.0136126,1784,1520,11.4366,-10.844
567,-496,11.4448,10.5769,-0.00258632,-0.00394532,0.00312663,-6.62059e-05,-0.00646544,0.678399,0.00428839,0.01136,1791,1520,11.4448,-10.5769
574,-496,11.4545,10.3353,-0.000533748,-0.0018738,0.00135737,0.000309958,-0.0027175,0.556133,0.00192333,0.0115197,1798,1520,11.4545,-10.3353
581,-496,11.4626,10.0967,0.00136238,0.000187287,-0.000131324,0.00137688,0.000172789,-0.109949,0.000866087,0.0123426,1805,1520,11.4627,-10.0967
588,-496,11.4507,9.82874,0.00317954,0.00212703,-0.00160685,0.00434412,0.000962452,-0.62715,0.00263453,0.0152131,1812,1520,11.4507,-9.82872
595,-496,11.4321,9.58423,0.00488609,0.00390047,-0.00274058,0.00717781,0.00160875,-0.696439,0.00434929,0.0171536,1819,1520,11.4321,-9.58418
602,-496,11.4392,9.32654,0.00652283,0.00564237,-0.003627,0.00973623,0.00242898,-0.725006,0.00585168,0.0190335,1826,1520,11.4392,-9.3266
609,-496,11.4429,9.05188,0.00812394,0.00737541,-0.00435595,0.0121217,0.00337767,-0.742543,0.00722344,0.0154149,1833,1520,11.4429,-9.05187
616,-496,11.4456,8.76501,0.00981625,0.00930519,-0.00497895,0.0145462,0.00457522,-0.75976,0.0085887,0.013359,1840,1520,11.4455,-8.76502
623,-496,11.4825,8.6073,0.0116757,0.0113993,-0.00538551,0.0169248,0.00615021,-0.772571,0.00989236,0.0272226,1847,1520,11.4825,-8.60726
630,-496,11.5579,8.63867,0.0136435,0.0139278,-0.00548335,0.0192708,0.00830046,-0.798361,0.0111616,0.0455679,1854,1520,11.5579,-8.63862
637,-496,11.6096,8.75952,0,0,0,0,0,0,0,-1,1861,1520,11.6097,-8.75947
644,-496,11.175,6.72961,0,0,0,0,0,0,0,-1,1868,1520,11.175,-6.72963
651,-496,8.18506,5.47803,0,0,0,0,0,0,0,-1,1875,1520,8.18505,-5.47806
658,-496,7.79993,4.02563,0,0,0,0,0,0,0,-1,1882,1520,7.79997,-4.02568
665,-496,5.47583,7.90625,0,0,0,0,0,0,0,-1,1889,1520,5.47581,-7.90628
672,-496,0,0,0,0,0,0,0,0,0,-1,1896,1520,0,0
679,-496,0,0,0,0,0,0,0,0,0,-1,1903,1520,0,0
686,-496,0,0,0,0,0,0,0,0,0,-1,1910,1520,0,0
693,-496,0,0,0,0,0,0,0,0,0,-1,1917,1520,0,0
700,-496,0,0,0,0,0,0,0,0,0,-1,1924,1520,0,0
707,-496,0,0,0,0,0,0,0,0,0,-1,1931,1520,0,0
714,-496,0,0,0,0,0,0,0,0,0,-1,1938,1520,0,0
721,-496,0,0,0,0,0,0,0,0,0,-1,1945,1520,0,0
728,-496,0,0,0,0,0,0,0,0,0,-1,1952,1520,0,0
735,-496,0,0,0,0,0,0,0,0,0,-1,1959,1520,0,0
742,-496,0,0,0,0,0,0,0,0,0,-1,1966,1520,0,0
749,-496,0,0,0,0,0,0,0,0,0,-1,1973,1520,0,0
756,-496,0,0,0,0,0,0,0,0,0,-1,1980,1520,0,0
763,-496,0,0,0,0,0,0,0,0,0,-1,1987,1520,0,0
770,-496,0,0,0,0,0,0,0,0,0,-1,1994,1520,0,0
777,-496,0,0,0,0,0,0,0,0,0,-1,2001,1520,0,0
784,-496,0,0,0,0,0,0,0,0,0,-1,2008,1520,0,0
791,-496,0,0,0,0,0,0,0,0,0,-1,2015,1520,0,0
798,-496,0,0,0,0,0,0,0,0,0,-1,2022,1520,0,0
805,-496,0,0,0,0,0,0,0,0,0,-1,2029,1520,0,0
812,-496,0,0,0,0,0,0,0,0,0,-1,2036,1520,0,0
-700,-503,0,0,0,0,0,0,0,0,0,-1,524,1527,0,0
-693,-503,0,0,0,0,0,0,0,0,0,-1,531,1527,0,0
-686,-503,0,0,0,0,0,0,0,0,0,-1,538,1527,0,0
-679,-503,0,0,0,0,0,0,0,0,0,-1,545,1527,0,0
-672,-503,0,0,0,0,0,0,0,0,0,-1,552,1527,0,0
-665,-503,0,0,0,0,0,0,0,0,0,-1,559,1527,0,0
-658,-503,0,0,0,0,0,0,0,0,0,-1,566,1527,0,0
-651,-503,0,0,0,0,0,0,0,0,0,-1,573,1527,0,0
-644,-503,0,0,0,0,0,0,0,0,0,-1,580,1527,0,0
-637,-503,0,0,0,0,0,0,0,0,0,-1,587,1527,0,0
-630,-503,0,0,0,0,0,0,0,0,0,-1,594,1527,0,0
-623,-503,0,0,0,0,0,0,0,0,0,-1,601,1527,0,0
-616,-503,0,0,0,0,0,0,0,0,0,-1,608,1527,0,0
-609,-503,0,0,0,0,0,0,0,0,0,-1,615,1527,0,0
-602,-503,0,0,0,0,0,0,0,0,0,-1,622,1527,0,0
-595,-503,0,0,0,0,0,0,0,0,0,-1,629,1527,0,0
-588,-503,0,0,0,0,0,0,0,0,0,-1,636,1527,0,0
-581,-503,0,0,0,0,0,0,0,0,0,-1,643,1527,0,0
-574,-503,0,0,0,0,0,0,0,0,0,-1,650,1527,0,0
-567,-503,0,0,0,0,0,0,0,0,0,-1,657,1527,0,0
-560,-503,0,0,0,0,0,0,0,0,0,-1,664,1527,0,0
-553,-503,0,0,0,0,0,0,0,0,0,-1,671,1527,0,0
-546,-503,0,0,0,0,0,0,0,0,0,-1,678,1527,0,0
-539,-503,3.50177,4.26428,0,0,0,0,0,0,0,-1,685,1527,3.50177,-4.26424
-532,-503,-3.62512,2.224,0,0,0,0,0,0,0,-1,692,1527,-3.62512,-2.22401
-525,-503,-3.59149,3.31226,0,0,0,0,0,0,0,-1,699,1527,-3.59147,-3.31226
-518,-503,-3.64612,4.39063,0,0,0,0,0,0,0,-1,706,1527,-3.6461,-4.39059
-511,-503,-1.33124,3.46472,0,0,0,0,0,0,0,-1,713,1527,-1.33124,-3.46471
-504,-503,-0.994873,4.12793,0,0,0,0,0,0,0,-1,720,1527,-0.994875,-4.12791
-497,-503,-1.07184,6.81213,0,0,0,0,0,0,0,-1,727,1527,-1.07185,-6.8121
-490,-503,-1.37146,7.33264,0,0,0,0,0,0,0,-1,734,1527,-1.37148,-7.33263
-483,-503,-1.45129,7.33203,0.0132506,-0.0052333,0.00448758,0.0142825,-0.0062652,0.226017,0.0121605,0.0392392,741,1527,-1.4513,-7.33199
-476,-503,-1.4353,7.44543,0.0106075,-0.0047562,0.00308718,0.0112046,-0.00535333,0.191063,0.00975667,0.0186203,748,1527,-1.43533,-7.44541
-469,-503,-1.49738,7.70422,0.00837474,-0.00442431,0.00196061,0.00866834,-0.00471791,0.148644,0.00783993,0.00998578,755,1527,-1.49739,-7.70422
-462,-503,-1.4975,8.01599,0.00666897,-0.0038759,0.00135738,0.00684089,-0.00404783,0.125988,0.00635517,0.0115584,762,1527,-1.49748,-8.01599
-455,-503,-1.47076,8.30371,0.00539341,-0.00347266,0.000859991,0.00547606,-0.0035553,0.095808,0.00525342,0.0167228,769,1527,-1.47074,-8.30367
-448,-503,-1.47833,8.5752,0.00447932,-0.00306475,0.000547699,0.00451888,-0.0031043,0.072096,0.00442643,0.0148243,776,1527,-1.47832,-8.57524
-441,-503,-1.50171,8.83337,0.00384209,-0.00271432,0.000203675,0.00384841,-0.00272064,0.0310252,0.00381123,0.0125606,783,1527,-1.5017,-8.83337
-434,-503,-1.51105,9.09399,0.0034491,-0.00265325,-0.000421365,0.00347806,-0.00268221,-0.0686156,0.00356651,0.0109835,790,1527,-1.51106,-9.09397
-427,-503,-1.54199,9.34802,0.00374014,-0.00267574,-0.000675283,0.00381044,-0.00274604,-0.103737,0.00380198,0.0166162,797,1527,-1.54202,-9.34802
-420,-503,-1.51532,9.62488,0.00511498,-0.00161494,-0.000152189,0.00511842,-0.00161838,-0.0225984,0.0040607,0.0180966,804,1527,-1.51532,-9.62493
-413,-503,-1.51086,9.92334,0.00657409,-0.00116959,0.000242287,0.00658166,-0.00117716,0.0312476,0.00482824,0.0150747,811,1527,-1.51084,-9.9233
-406,-503,-1.50165,10.1866,0.00852901,-0.000635119,0.000882417,0.0086132,-0.000719314,0.0951258,0.0059963,0.0155838,818,1527,-1.50165,-10.1866
-399,-503,-1.40771,10.5558,0.0111698,0.000535949,0.00195869,0.0115191,0.000186646,0.17648,0.00761797,0.0232429,825,1527,-1.40769,-10.5558
-392,-503,-1.26056,10.879,0.0142743,0.00266564,0.00335881,0.0151761,0.00176386,0.262295,0.0095837,0.0436747,832,1527,-1.26055,-10.879
-385,-503,-1.43146,10.7292,0.0180862,0.00630733,0.00509965,0.0199873,0.00440627,0.356825,0.012126,0.046967,839,1527,-1.43143,-10.7293
-378,-503,-1.24677,10.9431,0.0244858,0.0104817,0.00789087,0.0280334,0.00693414,0.422504,0.0168598,0.0475992,846,1527,-1.24677,-10.9432
-371,-503,-0.512939,11.7736,0.0320506,0.016757,0.0116364,0.0383279,0.0104797,0.494707,0.0228734,0.0491253,853,1527,-0.512951,-11.7736
-364,-503,0.181396,12.3768,0,0,0,0,0,0,0,-1,860,1527,0.18138,-12.3768
-357,-503,0.558533,9.25452,0,0,0,0,0,0,0,-1,867,1527,0.558542,-9.25446
-350,-503,0.219971,6.84827,0,0,0,0,0,0,0,-1,874,1527,0.21996,-6.84831
-343,-503,-3.5802,4.43274,0,0,0,0,0,0,0,-1,881,1527,-3.58018,-4.43276
-336,-503,-3.2384,6.40637,0,0,0,0,0,0,0,-1,888,1527,-3.2384,-6.40643
-329,-503,-1.70691,11.886,0,0,0,0,0,0,0,-1,895,1527,-1.70689,-11.886
-322,-503,-3.31317,8.81519,0,0,0,0,0,0,0,-1,902,1527,-3.31315,-8.81524
-315,-503,-3.90265,7.73853,0,0,0,0,0,0,0,-1,909,1527,-3.90264,-7.73854
-308,-503,-4.07867,7.25977,0,0,0,0,0,0,0,-1,916,1527,-4.07868,-7.25973
-301,-503,0,0,0,0,0,0,0,0,0,-1,923,1527,0,0
-294,-503,0,0,0,0,0,0,0,0,0,-1,930,1527,0,0
-287,-503,0,0,0,0,0,0,0,0,0,-1,937,1527,0,0
-280,-503,0,0,0,0,0,0,0,0,0,-1,944,1527,0,0
-273,-503,0,0,0,0,0,0,0,0,0,-1,951,1527,0,0
-266,-503,0,0,0,0,0,0,0,0,0,-1,958,1527,0,0
-259,-503,0,0,0,0,0,0,0,0,0,-1,965,1527,0,0
-252,-503,0,0,0,0,0,0,0,0,0,-1,972,1527,0,0
-245,-503,0,0,0,0,0,0,0,0,0,-1,979,1527,0,0
-238,-503,0,0,0,0,0,0,0,0,0,-1,986,1527,0,0
-231,-503,0,0,0,0,0,0,0,0,0,-1,993,1527,0,0
-224,-503,0,0,0,0,0,0,0,0,0,-1,1000,1527,0,0
-217,-503,0,0,0,0,0,0,0,0,0,-1,1007,1527,0,0
-210,-503,0,0,0,0,0,0,0,0,0,-1,1014,1527,0,0
-203,-503,0,0,0,0,0,0,0,0,0,-1,1021,1527,0,0
-196,-503,0,0,0,0,0,0,0,0,0,-1,1028,1527,0,0
-189,-503,0,0,0,0,0,0,0,0,0,-1,1035,1527,0,0
-182,-503,0,0,0,0,0,0,0,0,0,-1,1042,1527,0,0
-175,-503,0,0,0,0,0,0,0,0,0,-1,1049,1527,0,0
-168,-503,0,0,0,0,0,0,0,0,0,-1,1056,1527,0,0
-161,-503,0,0,0,0,0,0,0,0,0,-1,1063,1527,0,0
-154,-503,0,0,0,0,0,0,0,0,0,-1,1070,1527,0,0
-147,-503,0,0,0,0,0,0,0,0,0,-1,1077,1527,0,0
-140,-503,0,0,0,0,0,0,0,0,0,-1,1084,1527,0,0
-133,-503,0,0,0,0,0,0,0,0,0,-1,1091,1527,0,0
-126,-503,0,0,0,0,0,0,0,0,0,-1,1098,1527,0,0
-119,-503,0,0,0,0,0,0,0,0,0,-1,1105,1527,0,0
-112,-503,0,0,0,0,0,0,0,0,0,-1,1112,1527,0,0
-105,-503,0,0,0,0,0,0,0,0,0,-1,1119,1527,0,0
-98,-503,0,0,0,0,0,0,0,0,0,-1,1126,1527,0,0
-91,-503,0,0,0,0,0,0,0,0,0,-1,1133,1527,0,0
-84,-503,0,0,0,0,0,0,0,0,0,-1,1140,1527,0,0
-77,-503,0,0,0,0,0,0,0,0,0,-1,1147,1527,0,0
-70,-503,0,0,0,0,0,0,0,0,0,-1,1154,1527,0,0
-63,-503,0,0,0,0,0,0,0,0,0,-1,1161,1527,0,0
-56,-503,0,0,0,0,0,0,0,0,0,-1,1168,1527,0,0
-49,-503,0,0,0,0,0,0,0,0,0,-1,1175,1527,0,0
-42,-503,0,0,0,0,0,0,0,0,0,-1,1182,1527,0,0
-35,-503,0,0,0,0,0,0,0,0,0,-1,1189,1527,0,0
-28,-503,0,0,0,0,0,0,0,0,0,-1,1196,1527,0,0
-21,-503,0,0,0,0,0,0,0,0,0,-1,1203,1527,0,0
-14,-503,0,0,0,0,0,0,0,0,0,-1,1210,1527,0,0
-7,-503,0,0,0,0,0,0,0,0,0,-1,1217,1527,0,0
0,-503,0,0,0,0,0,0,0,0,0,-1,1224,1527,0,0
7,-503,0,0,0,0,0,0,0,0,0,-1,1231,1527,0,0
14,-503,0,0,0,0,0,0,0,0,0,-1,1238,1527,0,0
21,-503,0,0,0,0,0,0,0,0,0,-1,1245,1527,0,0
28,-503,0,0,0,0,0,0,0,0,0,-1,1252,1527,0,0
35,-503,0,0,0,0,0,0,0,0,0,-1,1259,1527,0,0
42,-503,0,0,0,0,0,0,0,0,0,-1,1266,1527,0,0
49,-503,0,0,0,0,0,0,0,0,0,-1,1273,1527,0,0
56,-503,0,0,0,0,0,0,0,0,0,-1,1280,1527,0,0
63,-503,0,0,0,0,0,0,0,0,0,-1,1287,1527,0,0
70,-503,0,0,0,0,0,0,0,0,0,-1,1294,1527,0,0
77,-503,0,0,0,0,0,0,0,0,0,-1,1301,1527,0,0
84,-503,0,0,0,0,0,0,0,0,0,-1,1308,1527,0,0
91,-503,0,0,0,0,0,0,0,0,0,-1,1315,1527,0,0
98,-503,0,0,0,0,0,0,0,0,0,-1,1322,1527,0,0
105,-503,0,0,0,0,0,0,0,0,0,-1,1329,1527,0,0
112,-503,0,0,0,0,0,0,0,0,0,-1,1336,1527,0,0
119,-503,0,0,0,0,0,0,0,0,0,-1,1343,1527,0,0
126,-503,0,0,0,0,0,0,0,0,0,-1,1350,1527,0,0
133,-503,0,0,0,0,0,0,0,0,0,-1,1357,1527,0,0
140,-503,0,0,0,0,0,0,0,0,0,-1,1364,1527,0,0
147,-503,0,0,0,0,0,0,0,0,0,-1,1371,1527,0,0
154,-503,0,0,0,0,0,0,0,0,0,-1,1378,1527,0,0
161,-503,0,0,0,0,0,0,0,0,0,-1,1385,1527,0,0
168,-503,0,0,0,0,0,0,0,0,0,-1,1392,1527,0,0
175,-503,0,0,0,0,0,0,0,0,0,-1,1399,1527,0,0
182,-503,0,0,0,0,0,0,0,0,0,-1,1406,1527,0,0
189,-503,0,0,0,0,0,0,0,0,0,-1,1413,1527,0,0
196,-503,0,0,0,0,0,0,0,0,0,-1,1420,1527,0,0
203,-503,0,0,0,0,0,0,0,0,0,-1,1427,1527,0,0
210,-503,0,0,0,0,0,0,0,0,0,-1,1434,1527,0,0
217,-503,0,0,0,0,0,0,0,0,0,-1,1441,1527,0,0
224,-503,0,0,0,0,0,0,0,0,0,-1,1448,1527,0,0
231,-503,0,0,0,0,0,0,0,0,0,-1,1455,1527,0,0
238,-503,0,0,0,0,0,0,0,0,0,-1,1462,1527,0,0
245,-503,0,0,0,0,0,0,0,0,0,-1,1469,1527,0,0
252,-503,0,0,0,0,0,0,0,0,0,-1,1476,1527,0,0
259,-503,0,0,0,0,0,0,0,0,0,-1,1483,1527,0,0
266,-503,0,0,0,0,0,0,0,0,0,-1,1490,1527,0,0
273,-503,0,0,0,0,0,0,0,0,0,-1,1497,1527,0,0
280,-503,0,0,0,0,0,0,0,0,0,-1,1504,1527,0,0
287,-503,0,0,0,0,0,0,0,0,0,-1,1511,1527,0,0
294,-503,0,0,0,0,0,0,0,0,0,-1,1518,1527,0,0
301,-503,0,0,0,0,0,0,0,0,0,-1,1525,1527,0,0
308,-503,0,0,0,0,0,0,0,0,0,-1,1532,1527,0,0
315,-503,0,0,0,0,0,0,0,0,0,-1,1539,1527,0,0
322,-503,0,0,0,0,0,0,0,0,0,-1,1546,1527,0,0
329,-503,0,0,0,0,0,0,0,0,0,-1,1553,1527,0,0
336,-503,0,0,0,0,0,0,0,0,0,-1,1560,1527,0,0
343,-503,0,0,0,0,0,0,0,0,0,-1,1567,1527,0,0
350,-503,0,0,0,0,0,0,0,0,0,-1,1574,1527,0,0
357,-503,0,0,0,0,0,0,0,0,0,-1,1581,1527,0,0
364,-503,0,0,0,0,0,0,0,0,0,-1,1588,1527,0,0
371,-503,0,0,0,0,0,0,0,0,0,-1,1595,1527,0,0
378,-503,0,0,0,0,0,0,0,0,0,-1,1602,1527,0,0
385,-503,0,0,0,0,0,0,0,0,0,-1,1609,1527,0,0
392,-503,0,0,0,0,0,0,0,0,0,-1,1616,1527,0,0
399,-503,0,0,0,0,0,0,0,0,0,-1,1623,1527,0,0
406,-503,0,0,0,0,0,0,0,0,0,-1,1630,1527,0,0
413,-503,0,0,0,0,0,0,0,0,0,-1,1637,1527,0,0
420,-503,0,0,0,0,0,0,0,0,0,-1,1644,1527,0,0
427,-503,10.5968,4.9856,0,0,0,0,0,0,0,-1,1651,1527,10.5969,-4.98563
434,-503,11.4329,3.97217,0,0,0,0,0,0,0,-1,1658,1527,11.4328,-3.97222
441,-503,12.0957,2.96509,0,0,0,0,0,0,0,-1,1665,1527,12.0957,-2.96512
448,-503,12.3259,2.53894,0,0,0,0,0,0,0,-1,1672,1527,12.326,-2.53895
455,-503,12.1669,2.18762,0,0,0,0,0,0,0,-1,1679,1527,12.1668,-2.18767
462,-503,11.59,2.60791,0,0,0,0,0,0,0,-1,1686,1527,11.5899,-2.60794
469,-503,11.1625,1.61853,0,0,0,0,0,0,0,-1,1693,1527,11.1625,-1.61856
476,-503,9.07703,5.81042,0,0,0,0,0,0,0,-1,1700,1527,9.07699,-5.81047
483,-503,9.74414,6.92432,0,0,0,0,0,0,0,-1,1707,1527,9.74417,-6.9243
490,-503,10.5033,10.1071,0,0,0,0,0,0,0,-1,1714,1527,10.5032,-10.107
497,-503,13.2313,12.5819,0,0,0,0,0,0,0,-1,1721,1527,13.2314,-12.5819
504,-503,13.0325,11.578,0,0,0,0,0,0,0,-1,1728,1527,13.0324,-11.578
511,-503,11.7167,12.1193,0,0,0,0,0,0,0,-1,1735,1527,11.7167,-12.1193
518,-503,11.5339,11.9288,-0.02421,-0.0284856,0.0329085,0.00663005,-0.0593256,0.752962,0.0419355,0.0448347,1742,1527,11.5339,-11.9288
525,-503,11.2716,11.9316,-0.0185617,-0.0216058,0.0243466,0.00431034,-0.0444778,0.75418,0.0311881,0.035147,1749,1527,11.2716,-11.9316
532,-503,11.1709,11.8073,-0.014058,-0.0161868,0.0179025,0.00281165,-0.0330565,0.755705,0.0230322,0.0133611,1756,1527,11.171,-11.8073
539,-503,11.1851,11.585,-0.0101787,-0.0116468,0.012289,0.00139813,-0.0232236,0.755567,0.0159689,0.0120301,1763,1527,11.185,-11.5849
546,-503,11.1542,11.3402,-0.00705059,-0.00808903,0.00844978,0.000895912,-0.0160355,0.754713,0.0110012,0.0112807,1770,1527,11.1542,-11.3402
553,-503,11.1654,11.0957,-0.00455731,-0.00562254,0.00567846,0.000613463,-0.0107933,0.738637,0.0074085,0.0134623,1777,1527,11.1654,-11.0957
560,-503,11.1737,10.8428,-0.00237413,-0.00342284,0.00341348,0.000555033,-0.006352,0.709187,0.00443128,0.0130153,1784,1527,11.1737,-10.8427
567,-503,11.1888,10.5713,-0.000522631,-0.00173303,0.00156549,0.000550564,-0.00280623,0.600952,0.00207878,0.0117462,1791,1527,11.1889,-10.5713
574,-503,11.2042,10.3309,0.0013498,7.11118e-05,-7.60716e-05,0.00135431,6.66021e-05,-0.0592137,0.000881509,0.012046,1798,1527,11.2042,-10.3309
581,-503,11.186,10.1025,0.00317005,0.00201994,-0.0015219,0.00422191,0.000968077,-0.604762,0.00255383,0.013404,1805,1527,11.186,-10.1026
588,-503,11.1694,9.85254,0.00498688,0.00387888,-0.00300474,0.00748827,0.00137749,-0.694235,0.00460225,0.0161604,1812,1527,11.1694,-9.85258
595,-503,11.1658,9.58313,0.00682773,0.00575616,-0.0042758,0.0106012,0.0019827,-0.72307,0.00650802,0.012505,1819,1527,11.1657,-9.58316
602,-503,11.2006,9.31348,0.00876314,0.00785165,-0.00543881,0.0137653,0.00284952,-0.743598,0.00838989,0.0147152,1826,1527,11.2005,-9.31343
609,-503,11.2456,9.02026,0.0108898,0.0101598,-0.00654701,0.017082,0.00396766,-0.757552,0.0103228,0.0210992,1833,1527,11.2456,-9.02024
616,-503,11.1597,8.85913,0.013309,0.0129902,-0.00754897,0.0207003,0.00559898,-0.774842,0.0123639,0.0213627,1840,1527,11.1596,-8.85916
623,-503,11.1785,8.48022,0.016035,0.0163772,-0.00834943,0.0245573,0.00785495,-0.795644,0.0144816,0.0366326,1847,1527,11.1785,-8.48021
630,-503,11.3689,8.02673,0.0189331,0.0203845,-0.00879744,0.0284861,0.0108314,-0.82655,0.016603,0.0461154,1854,1527,11.3689,-8.02673
637,-503,11.6042,7.81055,0,0,0,0,0,0,0,-1,1861,1527,11.6043,-7.81061
644,-503,11.8354,7.78711,0,0,0,0,0,0,0,-1,1868,1527,11.8355,-7.78712
651,-503,11.5718,6.5448,0,0,0,0,0,0,0,-1,1875,1527,11.5718,-6.54476
658,-503,8.25635,3.10498,0,0,0,0,0,0,0,-1,1882,1527,8.2563,-3.10493
665,-503,0,0,0,0,0,0,0,0,0,-1,1889,1527,0,0
672,-503,0,0,0,0,0,0,0,0,0,-1,1896,1527,0,0
679,-503,0,0,0,0,0,0,0,0,0,-1,1903,1527,0,0
686,-503,0,0,0,0,0,0,0,0,0,-1,1910,1527,0,0
693,-503,0,0,0,0,0,0,0,0,0,-1,1917,1527,0,0
700,-503,0,0,0,0,0,0,0,0,0,-1,1924,1527,0,0
707,-503,0,0,0,0,0,0,0,0,0,-1,1931,1527,0,0
714,-503,0,0,0,0,0,0,0,0,0,-1,1938,1527,0,0
721,-503,0,0,0,0,0,0,0,0,0,-1,1945,1527,0,0
728,-503,0,0,0,0,0,0,0,0,0,-1,1952,1527,0,0
735,-503,0,0,0,0,0,0,0,0,0,-1,1959,1527,0,0
742,-503,0,0,0,0,0,0,0,0,0,-1,1966,1527,0,0
749,-503,0,0,0,0,0,0,0,0,0,-1,1973,1527,0,0
756,-503,0,0,0,0,0,0,0,0,0,-1,1980,1527,0,0
763,-503,0,0,0,0,0,0,0,0,0,-1,1987,1527,0,0
770,-503,0,0,0,0,0,0,0,0,0,-1,1994,1527,0,0
777,-503,0,0,0,0,0,0,0,0,0,-1,2001,1527,0,0
784,-503,0,0,0,0,0,0,0,0,0,-1,2008,1527,0,0
791,-503,0,0,0,0,0,0,0,0,0,-1,2015,1527,0,0
798,-503,0,0,0,0,0,0,0,0,0,-1,2022,1527,0,0
805,-503,0,0,0,0,0,0,0,0,0,-1,2029,1527,0,0
812,-503,0,0,0,0,0,0,0,0,0,-1,2036,1527,0,0
-700,-510,0,0,0,0,0,0,0,0,0,-1,524,1534,0,0
-693,-510,0,0,0,0,0,0,0,0,0,-1,531,1534,0,0
-686,-510,0,0,0,0,0,0,0,0,0,-1,538,1534,0,0
-679,-510,0,0,0,0,0,0,0,0,0,-1,545,1534,0,0
-672,-510,0,0,0,0,0,0,0,0,0,-1,552,1534,0,0
-665,-510,0,0,0,0,0,0,0,0,0,-1,559,1534,0,0
-658,-510,0,0,0,0,0,0,0,0,0,-1,566,1534,0,0
-651,-510,0,0,0,0,0,0,0,0,0,-1,573,1534,0,0
-644,-510,0,0,0,0,0,0,0,0,0,-1,580,1534,0,0
-637,-510,0,0,0,0,0,0,0,0,0,-1,587,1534,0,0
-630,-510,0,0,0,0,0,0,0,0,0,-1,594,1534,0,0
-623,-510,0,0,0,0,0,0,0,0,0,-1,601,1534,0,0
-616,-510,0,0,0,0,0,0,0,0,0,-1,608,1534,0,0
-609,-510,0,0,0,0,0,0,0,0,0,-1,615,1534,0,0
-602,-510,0,0,0,0,0,0,0,0,0,-1,622,1534,0,0
-595,-510,0,0,0,0,0,0,0,0,0,-1,629,1534,0,0
-588,-510,0,0,0,0,0,0,0,0,0,-1,636,1534,0,0
-581,-510,0,0,0,0,0,0,0,0,0,-1,643,1534,0,0
-574,-510,0,0,0,0,0,0,0,0,0,-1,650,1534,0,0
-567,-510,0,0,0,0,0,0,0,0,0,-1,657,1534,0,0
-560,-510,0,0,0,0,0,0,0,0,0,-1,664,1534,0,0
-553,-510,0,0,0,0,0,0,0,0,0,-1,671,1534,0,0
-546,-510,0,0,0,0,0,0,0,0,0,-1,678,1534,0,0
-539,-510,0,0,0,0,0,0,0,0,0,-1,685,1534,0,0
-532,-510,2.29291,4.35352,0,0,0,0,0,0,0,-1,692,1534,2.29289,-4.35348
-525,-510,-2.76245,5.60095,0,0,0,0,0,0,0,-1,699,1534,-2.76244,-5.60094
-518,-510,-2.302,5.00061,0,0,0,0,0,0,0,-1,706,1534,-2.30202,-5.00055
-511,-510,-1.84161,4.40015,0,0,0,0,0,0,0,-1,713,1534,-1.8416,-4.40017
-504,-510,-0.332153,3.54688,0,0,0,0,0,0,0,-1,720,1534,-0.332171,-3.54682
-497,-510,-0.728149,7.08826,0,0,0,0,0,0,0,-1,727,1534,-0.728155,-7.08831
-490,-510,-1.59174,7.82324,0,0,0,0,0,0,0,-1,734,1534,-1.59176,-7.82327
-483,-510,-1.30225,7.61963,0.0166177,-0.00765024,0.00609479,0.0180624,-0.00909492,0.23274,0.0159617,0.0415136,741,1534,-1.30225,-7.61963
-476,-510,-1.0528,7.36755,0.0134783,-0.00682159,0.00447545,0.0144212,-0.00776448,0.207644,0.0129997,0.0299529,748,1534,-1.0528,-7.36754
-469,-510,-1.21936,7.7019,0.0107218,-0.00597937,0.00325977,0.0113355,-0.00659307,0.186086,0.0104711,0.012049,755,1534,-1.21937,-7.70191
-462,-510,-1.2204,8.01001,0.00848704,-0.00500939,0.00248837,0.00893121,-0.00545356,0.176637,0.00838556,0.0116226,762,1534,-1.22042,-8.01007
-455,-510,-1.22076,8.31628,0.006764,-0.00420909,0.00182856,0.00706069,-0.00450578,0.160852,0.00673199,0.0137725,769,1534,-1.22075,-8.31634
-448,-510,-1.2179,8.59058,0.00544399,-0.00342732,0.00141646,0.00566466,-0.003648,0.15455,0.00541853,0.0117719,776,1534,-1.21792,-8.59062
-441,-510,-1.23621,8.83923,0.00446634,-0.00271683,0.00105755,0.0046188,-0.00286929,0.143179,0.00436241,0.0125111,783,1534,-1.23618,-8.83924
-434,-510,-1.26385,9.07324,0.00378852,-0.00230345,0.000465665,0.00382391,-0.00233883,0.0758519,0.00359233,0.0140175,790,1534,-1.26385,-9.07321
-427,-510,-1.25763,9.32996,0.00377833,-0.00197002,0.000296772,0.00379361,-0.0019853,0.051445,0.00339047,0.0218456,797,1534,-1.25761,-9.32998
-420,-510,-1.25079,9.62488,0.00477322,-0.000737402,0.000791476,0.00488465,-0.000848826,0.139862,0.00357314,0.0214144,804,1534,-1.25082,-9.62483
-413,-510,-1.24377,9.94312,0.00589822,-8.35732e-05,0.00118088,0.0061229,-0.000308255,0.188019,0.00418847,0.0109166,811,1534,-1.24377,-9.94313
-406,-510,-1.24902,10.2026,0.00736785,0.000525808,0.00172954,0.0077802,0.000113462,0.234044,0.0051494,0.00973484,818,1534,-1.24901,-10.2027
-399,-510,-1.24884,10.4629,0.00937482,0.00159412,0.002613,0.0101709,0.000798046,0.295726,0.00653086,0.0113381,825,1534,-1.24883,-10.4629
-392,-510,-1.14758,10.8336,0.0116788,0.00336248,0.00365143,0.0130545,0.00198682,0.360302,0.00812211,0.0253374,832,1534,-1.14757,-10.8336
-385,-510,-1.18402,11.0581,0.0144246,0.00625941,0.00478783,0.0166341,0.00404988,0.432368,0.0100162,0.0416496,839,1534,-1.184,-11.0581
-378,-510,-1.19879,10.8109,0.0192375,0.00932313,0.00664068,0.0225672,0.00599344,0.464774,0.013498,0.0412356,846,1534,-1.1988,-10.8109
-371,-510,-0.860657,11.0155,0.0243017,0.0137442,0.00871932,0.0292157,0.00883022,0.513204,0.0173019,0.0447195,853,1534,-0.860682,-11.0155
-364,-510,-0.293823,11.1865,0,0,0,0,0,0,0,-1,860,1534,-0.293831,-11.1865
-357,-510,-0.254395,8.89575,0,0,0,0,0,0,0,-1,867,1534,-0.254397,-8.89569
-350,-510,0.471191,6.06458,0,0,0,0,0,0,0,-1,874,1534,0.47118,-6.06453
-343,-510,-2.94617,5.00989,0,0,0,0,0,0,0,-1,881,1534,-2.94615,-5.00992
-336,-510,-1.92963,11.3776,0,0,0,0,0,0,0,-1,888,1534,-1.92962,-11.3775
-329,-510,-1.09058,11.6753,0,0,0,0,0,0,0,-1,895,1534,-1.09056,-11.6753
-322,-510,-0.251526,11.973,0,0,0,0,0,0,0,-1,902,1534,-0.251497,-11.9731
-315,-510,-1.73047,10.9796,0,0,0,0,0,0,0,-1,909,1534,-1.73049,-10.9796
-308,-510,-2.05328,9.72034,0,0,0,0,0,0,0,-1,916,1534,-2.05327,-9.72036
-301,-510,-2.2074,10.1814,0,0,0,0,0,0,0,-1,923,1534,-2.20741,-10.1814
-294,-510,0,0,0,0,0,0,0,0,0,-1,930,1534,0,0
-287,-510,0,0,0,0,0,0,0,0,0,-1,937,1534,0,0
-280,-510,0,0,0,0,0,0,0,0,0,-1,944,1534,0,0
-273,-510,0,0,0,0,0,0,0,0,0,-1,951,1534,0,0
-266,-510,0,0,0,0,0,0,0,0,0,-1,958,1534,0,0
-259,-510,0,0,0,0,0,0,0,0,0,-1,965,1534,0,0
-252,-510,0,0,0,0,0,0,0,0,0,-1,972,1534,0,0
-245,-510,0,0,0,0,0,0,0,0,0,-1,979,1534,0,0
-238,-510,0,0,0,0,0,0,0,0,0,-1,986,1534,0,0
-231,-510,0,0,0,0,0,0,0,0,0,-1,993,1534,0,0
-224,-510,0,0,0,0,0,0,0,0,0,-1,1000,1534,0,0
-217,-510,0,0,0,0,0,0,0,0,0,-1,1007,1534,0,0
-210,-510,0,0,0,0,0,0,0,0,0,-1,1014,1534,0,0
-203,-510,0,0,0,0,0,0,0,0,0,-1,1021,1534,0,0
-196,-510,0,0,0,0,0,0,0,0,0,-1,1028,1534,0,0
-189,-510,0,0,0,0,0,0,0,0,0,-1,1035,1534,0,0
-182,-510,0,0,0,0,0,0,0,0,0,-1,1042,1534,0,0
-175,-510,0,0,0,0,0,0,0,0,0,-1,1049,1534,0,0
-168,-510,0,0,0,0,0,0,0,0,0,-1,1056,1534,0,0
-161,-510,0,0,0,0,0,0,0,0,0,-1,1063,1534,0,0
-154,-510,0,0,0,0,0,0,0,0,0,-1,1070,1534,0,0
-147,-510,0,0,0,0,0,0,0,0,0,-1,1077,1534,0,0
-140,-510,0,0,0,0,0,0,0,0,0,-1,1084,1534,0,0
-133,-510,0,0,0,0,0,0,0,0,0,-1,1091,1534,0,0
-126,-510,0,0,0,0,0,0,0,0,0,-1,1098,1534,0,0
-119,-510,0,0,0,0,0,0,0,0,0,-1,1105,1534,0,0
-112,-510,0,0,0,0,0,0,0,0,0,-1,1112,1534,0,0
-105,-510,0,0,0,0,0,0,0,0,0,-1,1119,1534,0,0
-98,-510,0,0,0,0,0,0,0,0,0,-1,1126,1534,0,0
-91,-510,0,0,0,0,0,0,0,0,0,-1,1133,1534,0,0
-84,-510,0,0,0,0,0,0,0,0,0,-1,1140,1534,0,0
-77,-510,0,0,0,0,0,0,0,0,0,-1,1147,1534,0,0
-70,-510,0,0,0,0,0,0,0,0,0,-1,1154,1534,0,0
-63,-510,0,0,0,0,0,0,0,0,0,-1,1161,1534,0,0
-56,-510,0,0,0,0,0,0,0,0,0,-1,1168,1534,0,0
-49,-510,0,0,0,0,0,0,0,0,0,-1,1175,1534,0,0
-42,-510,0,0,0,0,0,0,0,0,0,-1,1182,1534,0,0
-35,-510,0,0,0,0,0,0,0,0,0,-1,1189,1534,0,0
-28,-510,0,0,0,0,0,0,0,0,0,-1,1196,1534,0,0
-21,-510,0,0,0,0,0,0,0,0,0,-1,1203,1534,0,0
-14,-510,0,0,0,0,0,0,0,0,0,-1,1210,1534,0,0
-7,-510,0,0,0,0,0,0,0,0,0,-1,1217,1534,0,0
0,-510,0,0,0,0,0,0,0,0,0,-1,1224,1534,0,0
7,-510,0,0,0,0,0,0,0,0,0,-1,1231,1534,0,0
14,-510,0,0,0,0,0,0,0,0,0,-1,1238,1534,0,0
21,-510,0,0,0,0,0,0,0,0,0,-1,1245,1534,0,0
28,-510,0,0,0,0,0,0,0,0,0,-1,1252,1534,0,0
35,-510,0,0,0,0,0,0,0,0,0,-1,1259,1534,0,0
42,-510,0,0,0,0,0,0,0,0,0,-1,1266,1534,0,0
49,-510,0,0,0,0,0,0,0,0,0,-1,1273,1534,0,0
56,-510,0,0,0,0,0,0,0,0,0,-1,1280,1534,0,0
63,-510,0,0,0,0,0,0,0,0,0,-1,1287,1534,0,0
70,-510,0,0,0,0,0,0,0,0,0,-1,1294,1534,0,0
77,-510,0,0,0,0,0,0,0,0,0,-1,1301,1534,0,0
84,-510,0,0,0,0,0,0,0,0,0,-1,1308,1534,0,0
91,-510,0,0,0,0,0,0,0,0,0,-1,1315,1534,0,0
98,-510,0,0,0,0,0,0,0,0,0,-1,1322,1534,0,0
105,-510,0,0,0,0,0,0,0,0,0,-1,1329,1534,0,0
112,-510,0,0,0,0,0,0,0,0,0,-1,1336,1534,0,0
119,-510,0,0,0,0,0,0,0,0,0,-1,1343,1534,0,0
126,-510,0,0,0,0,0,0,0,0,0,-1,1350,1534,0,0
133,-510,0,0,0,0,0,0,0,0,0,-1,1357,1534,0,0
140,-510,0,0,0,0,0,0,0,0,0,-1,1364,1534,0,0
147,-510,0,0,0,0,0,0,0,0,0,-1,1371,1534,0,0
154,-510,0,0,0,0,0,0,0,0,0,-1,1378,1534,0,0
161,-510,0,0,0,0,0,0,0,0,0,-1,1385,1534,0,0
168,-510,0,0,0,0,0,0,0,0,0,-1,1392,1534,0,0
175,-510,0,0,0,0,0,0,0,0,0,-1,1399,1534,0,0
182,-510,0,0,0,0,0,0,0,0,0,-1,1406,1534,0,0
189,-510,0,0,0,0,0,0,0,0,0,-1,1413,1534,0,0
196,-510,0,0,0,0,0,0,0,0,0,-1,1420,1534,0,0
203,-510,0,0,0,0,0,0,0,0,0,-1,1427,1534,0,0
210,-510,0,0,0,0,0,0,0,0,0,-1,1434,1534,0,0
217,-510,0,0,0,0,0,0,0,0,0,-1,1441,1534,0,0
224,-510,0,0,0,0,0,0,0,0,0,-1,1448,1534,0,0
231,-510,0,0,0,0,0,0,0,0,0,-1,1455,1534,0,0
238,-510,0,0,0,0,0,0,0,0,0,-1,1462,1534,0,0
245,-510,0,0,0,0,0,0,0,0,0,-1,1469,1534,0,0
252,-510,0,0,0,0,0,0,0,0,0,-1,1476,1534,0,0
259,-510,0,0,0,0,0,0,0,0,0,-1,1483,1534,0,0
266,-510,0,0,0,0,0,0,0,0,0,-1,1490,1534,0,0
273,-510,0,0,0,0,0,0,0,0,0,-1,1497,1534,0,0
280,-510,0,0,0,0,0,0,0,0,0,-1,1504,1534,0,0
287,-510,0,0,0,0,0,0,0,0,0,-1,1511,1534,0,0
294,-510,0,0,0,0,0,0,0,0,0,-1,1518,1534,0,0
301,-510,0,0,0,0,0,0,0,0,0,-1,1525,1534,0,0
308,-510,0,0,0,0,0,0,0,0,0,-1,1532,1534,0,0
315,-510,0,0,0,0,0,0,0,0,0,-1,1539,1534,0,0
322,-510,0,0,0,0,0,0,0,0,0,-1,1546,1534,0,0
329,-510,0,0,0,0,0,0,0,0,0,-1,1553,1534,0,0
336,-510,0,0,0,0,0,0,0,0,0,-1,1560,1534,0,0
343,-510,0,0,0,0,0,0,0,0,0,-1,1567,1534,0,0
350,-510,0,0,0,0,0,0,0,0,0,-1,1574,1534,0,0
357,-510,0,0,0,0,0,0,0,0,0,-1,1581,1534,0,0
364,-510,0,0,0,0,0,0,0,0,0,-1,1588,1534,0,0
371,-510,0,0,0,0,0,0,0,0,0,-1,1595,1534,0,0
378,-510,0,0,0,0,0,0,0,0,0,-1,1602,1534,0,0
385,-510,0,0,0,0,0,0,0,0,0,-1,1609,1534,0,0
392,-510,0,0,0,0,0,0,0,0,0,-1,1616,1534,0,0
399,-510,0,0,0,0,0,0,0,0,0,-1,1623,1534,0,0
406,-510,0,0,0,0,0,0,0,0,0,-1,1630,1534,0,0
413,-510,0,0,0,0,0,0,0,0,0,-1,1637,1534,0,0
420,-510,13.1918,5.99402,0,0,0,0,0,0,0,-1,1644,1534,13.1917,-5.994
427,-510,10.9799,5.12341,0,0,0,0,0,0,0,-1,1651,1534,10.9798,-5.12337
434,-510,11.8219,4.07898,0,0,0,0,0,0,0,-1,1658,1534,11.8219,-4.07895
441,-510,12.6812,3.02991,0,0,0,0,0,0,0,-1,1665,1534,12.6811,-3.0299
448,-510,13.2379,2.2804,0,0,0,0,0,0,0,-1,1672,1534,13.2379,-2.28037
455,-510,9.76892,2.20642,0,0,0,0,0,0,0,-1,1679,1534,9.76894,-2.20647
462,-510,9.84692,2.49182,0,0,0,0,0,0,0,-1,1686,1534,9.84695,-2.49185
469,-510,16.6072,7.26941,0,0,0,0,0,0,0,-1,1693,1534,16.6072,-7.26945
476,-510,15.9199,7.8645,0,0,0,0,0,0,0,-1,1700,1534,15.9199,-7.86455
483,-510,9.9469,7.28748,0,0,0,0,0,0,0,-1,1707,1534,9.94686,-7.28747
490,-510,12.4388,10.5884,0,0,0,0,0,0,0,-1,1714,1534,12.4388,-10.5884
497,-510,11.6442,12.0823,0,0,0,0,0,0,0,-1,1721,1534,11.6441,-12.0822
504,-510,11.9211,11.9969,0,0,0,0,0,0,0,-1,1728,1534,11.9212,-11.9969
511,-510,12.1982,11.9115,0,0,0,0,0,0,0,-1,1735,1534,12.1982,-11.9116
518,-510,11.1857,12.1648,-0.0196597,-0.0228845,0.027374,0.00614937,-0.0486936,0.755981,0.0346943,0.0384284,1742,1534,11.1856,-12.1648
525,-510,10.9568,12.0769,-0.0149675,-0.0171661,0.0201257,0.00408891,-0.0362225,0.758114,0.0256203,0.0208627,1749,1534,10.9568,-12.0769
532,-510,10.9415,11.8164,-0.0112149,-0.0126324,0.0146378,0.00273124,-0.0265786,0.761208,0.0186961,0.0125624,1756,1534,10.9416,-11.8164
539,-510,10.9448,11.5686,-0.00791774,-0.00878847,0.00971907,0.00137571,-0.0180819,0.763016,0.0125384,0.0123926,1763,1534,10.9448,-11.5686
546,-510,10.9299,11.3438,-0.00522424,-0.00575009,0.00639534,0.000913581,-0.0118879,0.764854,0.00824669,0.0113198,1770,1534,10.93,-11.3437
553,-510,10.9502,11.0939,-0.00298089,-0.00371556,0.00397792,0.000646619,-0.00734307,0.739357,0.00512454,0.0125757,1777,1534,10.9502,-11.0938
560,-510,10.9423,10.8301,-0.000868727,-0.00168311,0.00186443,0.000632461,-0.0031843,0.677886,0.00236208,0.0132268,1784,1534,10.9423,-10.83
567,-510,10.9447,10.5728,0.000911307,-0.000186016,0.000165296,0.000935666,-0.000210375,0.146312,0.000704452,0.0126066,1791,1534,10.9447,-10.5728
574,-510,10.9454,10.3279,0.00280784,0.00152643,-0.00143158,0.00373555,0.000598727,-0.57499,0.00231672,0.0139444,1798,1534,10.9455,-10.3279
581,-510,10.9236,10.1124,0.00477126,0.00354579,-0.00293371,0.00715554,0.00116151,-0.682448,0.00443419,0.0126573,1805,1534,10.9236,-10.1124
588,-510,10.9154,9.86218,0.00683036,0.00553178,-0.00454027,0.0107675,0.00159461,-0.714376,0.00671027,0.0122737,1812,1534,10.9155,-9.86221
595,-510,10.9639,9.53601,0.00908282,0.00776579,-0.00611029,0.01457,0.00227863,-0.73172,0.0090499,0.0127597,1819,1534,10.9638,-9.53598
602,-510,10.9401,9.23303,0.0116102,0.0105055,-0.00775573,0.0188332,0.0032825,-0.749849,0.011617,0.0259923,1826,1534,10.94,-9.23302
609,-510,10.9027,9.10071,0.0145254,0.0137665,-0.00947711,0.0236306,0.00466121,-0.76539,0.0144528,0.0342969,1833,1534,10.9028,-9.10074
616,-510,10.9618,8.83557,0.0179582,0.0178874,-0.0112166,0.0291395,0.00670618,-0.78382,0.0176216,0.0437408,1840,1534,10.9618,-8.83559
623,-510,10.8579,8.46545,0,0,0,0,0,0,0,-1,1847,1534,10.8579,-8.46548
630,-510,10.787,7.81519,0,0,0,0,0,0,0,-1,1854,1534,10.787,-7.81524
637,-510,11.553,7.00403,0,0,0,0,0,0,0,-1,1861,1534,11.553,-7.00406
644,-510,11.5809,7.17126,0,0,0,0,0,0,0,-1,1868,1534,11.5809,-7.17123
651,-510,8.70471,3.5061,0,0,0,0,0,0,0,-1,1875,1534,8.70475,-3.50611
658,-510,0,0,0,0,0,0,0,0,0,-1,1882,1534,0,0
665,-510,0,0,0,0,0,0,0,0,0,-1,1889,1534,0,0
672,-510,0,0,0,0,0,0,0,0,0,-1,1896,1534,0,0
679,-510,0,0,0,0,0,0,0,0,0,-1,1903,1534,0,0
686,-510,0,0,0,0,0,0,0,0,0,-1,1910,1534,0,0
693,-510,0,0,0,0,0,0,0,0,0,-1,1917,1534,0,0
700,-510,0,0,0,0,0,0,0,0,0,-1,1924,1534,0,0
707,-510,0,0,0,0,0,0,0,0,0,-1,1931,1534,0,0
714,-510,0,0,0,0,0,0,0,0,0,-1,1938,1534,0,0
721,-510,0,0,0,0,0,0,0,0,0,-1,1945,1534,0,0
728,-510,0,0,0,0,0,0,0,0,0,-1,1952,1534,0,0
735,-510,0,0,0,0,0,0,0,0,0,-1,1959,1534,0,0
742,-510,0,0,0,0,0,0,0,0,0,-1,1966,1534,0,0
749,-510,0,0,0,0,0,0,0,0,0,-1,1973,1534,0,0
756,-510,0,0,0,0,0,0,0,0,0,-1,1980,1534,0,0
763,-510,0,0,0,0,0,0,0,0,0,-1,1987,1534,0,0
770,-510,0,0,0,0,0,0,0,0,0,-1,1994,1534,0,0
777,-510,0,0,0,0,0,0,0,0,0,-1,2001,1534,0,0
784,-510,0,0,0,0,0,0,0,0,0,-1,2008,1534,0,0
791,-510,0,0,0,0,0,0,0,0,0,-1,2015,1534,0,0
798,-510,0,0,0,0,0,0,0,0,0,-1,2022,1534,0,0
805,-510,0,0,0,0,0,0,0,0,0,-1,2029,1534,0,0
812,-510,0,0,0,0,0,0,0,0,0,-1,2036,1534,0,0
-700,-517,0,0,0,0,0,0,0,0,0,-1,524,1541,0,0
-693,-517,0,0,0,0,0,0,0,0,0,-1,531,1541,0,0
-686,-517,0,0,0,0,0,0,0,0,0,-1,538,1541,0,0
-679,-517,0,0,0,0,0,0,0,0,0,-1,545,1541,0,0
-672,-517,0,0,0,0,0,0,0,0,0,-1,552,1541,0,0
-665,-517,0,0,0,0,0,0,0,0,0,-1,559,1541,0,0
-658,-517,0,0,0,0,0,0,0,0,0,-1,566,1541,0,0
-651,-517,0,0,0,0,0,0,0,0,0,-1,573,1541,0,0
-644,-517,0,0,0,0,0,0,0,0,0,-1,580,1541,0,0
-637,-517,0,0,0,0,0,0,0,0,0,-1,587,1541,0,0
-630,-517,0,0,0,0,0,0,0,0,0,-1,594,1541,0,0
-623,-517,0,0,0,0,0,0,0,0,0,-1,601,1541,0,0
-616,-517,0,0,0,0,0,0,0,0,0,-1,608,1541,0,0
-609,-517,0,0,0,0,0,0,0,0,0,-1,615,1541,0,0
-602,-517,0,0,0,0,0,0,0,0,0,-1,622,1541,0,0
-595,-517,0,0,0,0,0,0,0,0,0,-1,629,1541,0,0
-588,-517,0,0,0,0,0,0,0,0,0,-1,636,1541,0,0
-581,-517,0,0,0,0,0,0,0,0,0,-1,643,1541,0,0
-574,-517,0,0,0,0,0,0,0,0,0,-1,650,1541,0,0
-567,-517,0,0,0,0,0,0,0,0,0,-1,657,1541,0,0
-560,-517,0,0,0,0,0,0,0,0,0,-1,664,1541,0,0
-553,-517,0,0,0,0,0,0,0,0,0,-1,671,1541,0,0
-546,-517,0,0,0,0,0,0,0,0,0,-1,678,1541,0,0
-539,-517,0,0,0,0,0,0,0,0,0,-1,685,1541,0,0
-532,-517,0,0,0,0,0,0,0,0,0,-1,692,1541,0,0
-525,-517,0.467896,4.35828,0,0,0,0,0,0,0,-1,699,1541,0.467905,-4.35823
-518,-517,-2.71826,4.89087,0,0,0,0,0,0,0,-1,706,1541,-2.71826,-4.89084
-511,-517,-2.72321,2.45251,0,0,0,0,0,0,0,-1,713,1541,-2.72323,-2.45249
-504,-517,-0.883362,4.79858,0,0,0,0,0,0,0,-1,720,1541,-0.88337,-4.79854
-497,-517,-1.35449,7.19312,0,0,0,0,0,0,0,-1,727,1541,-1.35451,-7.19311
-490,-517,-1.11938,7.69214,0.0243112,-0.0111921,0.0102457,0.0270558,-0.0139367,0.261732,0.0240677,0.0428806,734,1541,-1.11941,-7.69208
-483,-517,-0.957581,7.42322,0.0205615,-0.0103577,0.00827121,0.0226351,-0.0124313,0.245635,0.0205293,0.0436141,741,1541,-0.957565,-7.42322
-476,-517,-0.819275,7.39368,0.0169982,-0.00913844,0.00645571,0.0185058,-0.010646,0.229417,0.0170335,0.0358621,748,1541,-0.819271,-7.39365
-469,-517,-0.896667,7.69763,0.013679,-0.00780723,0.00503872,0.014802,-0.00893017,0.219278,0.0138409,0.015416,755,1541,-0.896687,-7.69758
-462,-517,-0.958801,7.98499,0.0107906,-0.00632882,0.00391628,0.011644,-0.00718218,0.214547,0.0109706,0.0151103,762,1541,-0.958815,-7.98493
-455,-517,-0.952576,8.30627,0.00849012,-0.00510816,0.00290767,0.00908576,-0.00570381,0.202058,0.00861286,0.0130134,769,1541,-0.952577,-8.30623
-448,-517,-0.94751,8.58533,0.00662939,-0.00397083,0.00219817,0.00706715,-0.00440858,0.196574,0.00668452,0.0120427,776,1541,-0.947494,-8.58533
-441,-517,-0.971558,8.83838,0.00519063,-0.00294724,0.00163586,0.00550715,-0.00326377,0.19113,0.00511881,0.0109196,783,1541,-0.971585,-8.83834
-434,-517,-0.950806,9.09302,0.00412119,-0.00224463,0.000912655,0.00424945,-0.00237289,0.139622,0.00387424,0.0132148,790,1541,-0.950833,-9.09297
-427,-517,-0.945374,9.37146,0.00368569,-0.00163854,0.000657065,0.00376558,-0.00171843,0.120992,0.00323889,0.0131896,797,1541,-0.945348,-9.37149
-420,-517,-0.957092,9.69263,0.00416789,-0.000372751,0.00094599,0.00435709,-0.000561953,0.1974,0.00310902,0.0189248,804,1541,-0.957078,-9.6926
-413,-517,-0.974121,9.94812,0.00486021,0.000353255,0.00118807,0.00515421,5.92505e-05,0.242591,0.00341656,0.0101105,811,1541,-0.974112,-9.94809
-406,-517,-0.97821,10.2024,0.00578543,0.000908588,0.00154162,0.00623188,0.000462134,0.281888,0.00400943,0.00963702,818,1541,-0.978193,-10.2024
-399,-517,-0.973389,10.4749,0.00715936,0.0017644,0.00217957,0.00792986,0.000993896,0.339801,0.00498839,0.00967309,825,1541,-0.973385,-10.4749
-392,-517,-0.961731,10.7495,0.00873641,0.00312387,0.00287175,0.00994537,0.00191491,0.398465,0.00609308,0.0114621,832,1541,-0.96174,-10.7495
-385,-517,-0.903625,11.1476,0.0105914,0.00532229,0.0035053,0.0123418,0.00357187,0.46314,0.00733318,0.0201005,839,1541,-0.903606,-11.1476
-378,-517,-0.920471,11.2251,0.0141368,0.00749279,0.00469397,0.0165654,0.00506422,0.477455,0.00980175,0.0434022,846,1541,-0.920483,-11.2251
-371,-517,-0.389893,10.6431,0,0,0,0,0,0,0,-1,853,1541,-0.389922,-10.643
-364,-517,-0.801208,11.4482,0,0,0,0,0,0,0,-1,860,1541,-0.801232,-11.4482
-357,-517,-0.552185,10.8964,0,0,0,0,0,0,0,-1,867,1541,-0.552171,-10.8963
-350,-517,0.722412,10.0829,0,0,0,0,0,0,0,-1,874,1541,0.722399,-10.0828
-343,-517,-2.56708,6.12415,0,0,0,0,0,0,0,-1,881,1541,-2.56708,-6.12418
-336,-517,-1.58478,11.4652,0,0,0,0,0,0,0,-1,888,1541,-1.58478,-11.4652
-329,-517,-0.658691,11.7365,0,0,0,0,0,0,0,-1,895,1541,-0.658693,-11.7364
-322,-517,0.267395,12.0076,0,0,0,0,0,0,0,-1,902,1541,0.267396,-12.0076
-315,-517,-0.987976,7.29749,0,0,0,0,0,0,0,-1,909,1541,-0.987993,-7.29743
-308,-517,4.07715,15.229,0,0,0,0,0,0,0,-1,916,1541,4.07714,-15.229
-301,-517,-1.69141,8.87488,0,0,0,0,0,0,0,-1,923,1541,-1.69141,-8.87485
-294,-517,-1.72583,9.92566,0,0,0,0,0,0,0,-1,930,1541,-1.72584,-9.92571
-287,-517,-2.77466,11.749,0,0,0,0,0,0,0,-1,937,1541,-2.77467,-11.749
-280,-517,0,0,0,0,0,0,0,0,0,-1,944,1541,0,0
-273,-517,0,0,0,0,0,0,0,0,0,-1,951,1541,0,0
-266,-517,0,0,0,0,0,0,0,0,0,-1,958,1541,0,0
-259,-517,0,0,0,0,0,0,0,0,0,-1,965,1541,0,0
-252,-517,0,0,0,0,0,0,0,0,0,-1,972,1541,0,0
-245,-517,0,0,0,0,0,0,0,0,0,-1,979,1541,0,0
-238,-517,0,0,0,0,0,0,0,0,0,-1,986,1541,0,0
-231,-517,0,0,0,0,0,0,0,0,0,-1,993,1541,0,0
-224,-517,0,0,0,0,0,0,0,0,0,-1,1000,1541,0,0
-217,-517,0,0,0,0,0,0,0,0,0,-1,1007,1541,0,0
-210,-517,0,0,0,0,0,0,0,0,0,-1,1014,1541,0,0
-203,-517,0,0,0,0,0,0,0,0,0,-1,1021,1541,0,0
-196,-517,0,0,0,0,0,0,0,0,0,-1,1028,1541,0,0
-189,-517,0,0,0,0,0,0,0,0,0,-1,1035,1541,0,0
-182,-517,0,0,0,0,0,0,0,0,0,-1,1042,1541,0,0
-175,-517,0,0,0,0,0,0,0,0,0,-1,1049,1541,0,0
-168,-517,0,0,0,0,0,0,0,0,0,-1,1056,1541,0,0
-161,-517,0,0,0,0,0,0,0,0,0,-1,1063,1541,0,0
-154,-517,0,0,0,0,0,0,0,0,0,-1,1070,1541,0,0
-147,-517,0,0,0,0,0,0,0,0,0,-1,1077,1541,0,0
-140,-517,0,0,0,0,0,0,0,0,0,-1,1084,1541,0,0
-133,-517,0,0,0,0,0,0,0,0,0,-1,1091,1541,0,0
-126,-517,0,0,0,0,0,0,0,0,0,-1,1098,1541,0,0
-119,-517,0,0,0,0,0,0,0,0,0,-1,1105,1541,0,0
-112,-517,0,0,0,0,0,0,0,0,0,-1,1112,1541,0,0
-105,-517,0,0,0,0,0,0,0,0,0,-1,1119,1541,0,0
-98,-517,0,0,0,0,0,0,0,0,0,-1,1126,1541,0,0
-91,-517,0,0,0,0,0,0,0,0,0,-1,1133,1541,0,0
-84,-517,0,0,0,0,0,0,0,0,0,-1,1140,1541,0,0
-77,-517,0,0,0,0,0,0,0,0,0,-1,1147,1541,0,0
-70,-517,0,0,0,0,0,0,0,0,0,-1,1154,1541,0,0
-63,-517,0,0,0,0,0,0,0,0,0,-1,1161,1541,0,0
-56,-517,0,0,0,0,0,0,0,0,0,-1,1168,1541,0,0
-49,-517,0,0,0,0,0,0,0,0,0,-1,1175,1541,0,0
-42,-517,0,0,0,0,0,0,0,0,0,-1,1182,1541,0,0
-35,-517,0,0,0,0,0,0,0,0,0,-1,1189,1541,0,0
-28,-517,0,0,0,0,0,0,0,0,0,-1,1196,1541,0,0
-21,-517,0,0,0,0,0,0,0,0,0,-1,1203,1541,0,0
-14,-517,0,0,0,0,0,0,0,0,0,-1,1210,1541,0,0
-7,-517,0,0,0,0,0,0,0,0,0,-1,1217,1541,0,0
0,-517,0,0,0,0,0,0,0,0,0,-1,1224,1541,0,0
7,-517,0,0,0,0,0,0,0,0,0,-1,1231,1541,0,0
14,-517,0,0,0,0,0,0,0,0,0,-1,1238,1541,0,0
21,-517,0,0,0,0,0,0,0,0,0,-1,1245,1541,0,0
28,-517,0,0,0,0,0,0,0,0,0,-1,1252,1541,0,0
35,-517,0,0,0,0,0,0,0,0,0,-1,1259,1541,0,0
42,-517,0,0,0,0,0,0,0,0,0,-1,1266,1541,0,0
49,-517,0,0,0,0,0,0,0,0,0,-1,1273,1541,0,0
56,-517,0,0,0,0,0,0,0,0,0,-1,1280,1541,0,0
63,-517,0,0,0,0,0,0,0,0,0,-1,1287,1541,0,0
70,-517,0,0,0,0,0,0,0,0,0,-1,1294,1541,0,0
77,-517,0,0,0,0,0,0,0,0,0,-1,1301,1541,0,0
84,-517,0,0,0,0,0,0,0,0,0,-1,1308,1541,0,0
91,-517,0,0,0,0,0,0,0,0,0,-1,1315,1541,0,0
98,-517,0,0,0,0,0,0,0,0,0,-1,1322,1541,0,0
105,-517,0,0,0,0,0,0,0,0,0,-1,1329,1541,0,0
112,-517,0,0,0,0,0,0,0,0,0,-1,1336,1541,0,0
119,-517,0,0,0,0,0,0,0,0,0,-1,1343,1541,0,0
126,-517,0,0,0,0,0,0,0,0,0,-1,1350,1541,0,0
133,-517,0,0,0,0,0,0,0,0,0,-1,1357,1541,0,0
140,-517,0,0,0,0,0,0,0,0,0,-1,1364,1541,0,0
147,-517,0,0,0,0,0,0,0,0,0,-1,1371,1541,0,0
154,-517,0,0,0,0,0,0,0,0,0,-1,1378,1541,0,0
161,-517,0,0,0,0,0,0,0,0,0,-1,1385,1541,0,0
168,-517,0,0,0,0,0,0,0,0,0,-1,1392,1541,0,0
175,-517,0,0,0,0,0,0,0,0,0,-1,1399,1541,0,0
182,-517,0,0,0,0,0,0,0,0,0,-1,1406,1541,0,0
189,-517,0,0,0,0,0,0,0,0,0,-1,1413,1541,0,0
196,-517,0,0,0,0,0,0,0,0,0,-1,1420,1541,0,0
203,-517,0,0,0,0,0,0,0,0,0,-1,1427,1541,0,0
210,-517,0,0,0,0,0,0,0,0,0,-1,1434,1541,0,0
217,-517,0,0,0,0,0,0,0,0,0,-1,1441,1541,0,0
224,-517,0,0,0,0,0,0,0,0,0,-1,1448,1541,0,0
231,-517,0,0,0,0,0,0,0,0,0,-1,1455,1541,0,0
238,-517,0,0,0,0,0,0,0,0,0,-1,1462,1541,0,0
245,-517,0,0,0,0,0,0,0,0,0,-1,1469,1541,0,0
252,-517,0,0,0,0,0,0,0,0,0,-1,1476,1541,0,0
259,-517,0,0,0,0,0,0,0,0,0,-1,1483,1541,0,0
266,-517,0,0,0,0,0,0,0,0,0,-1,1490,1541,0,0
273,-517,0,0,0,0,0,0,0,0,0,-1,1497,1541,0,0
280,-517,0,0,0,0,0,0,0,0,0,-1,1504,1541,0,0
287,-517,0,0,0,0,0,0,0,0,0,-1,1511,1541,0,0
294,-517,0,0,0,0,0,0,0,0,0,-1,1518,1541,0,0
301,-517,0,0,0,0,0,0,0,0,0,-1,1525,1541,0,0
308,-517,0,0,0,0,0,0,0,0,0,-1,1532,1541,0,0
315,-517,0,0,0,0,0,0,0,0,0,-1,1539,1541,0,0
322,-517,0,0,0,0,0,0,0,0,0,-1,1546,1541,0,0
329,-517,0,0,0,0,0,0,0,0,0,-1,1553,1541,0,0
336,-517,0,0,0,0,0,0,0,0,0,-1,1560,1541,0,0
343,-517,0,0,0,0,0,0,0,0,0,-1,1567,1541,0,0
350,-517,0,0,0,0,0,0,0,0,0,-1,1574,1541,0,0
357,-517,0,0,0,0,0,0,0,0,0,-1,1581,1541,0,0
364,-517,0,0,0,0,0,0,0,0,0,-1,1588,1541,0,0
371,-517,0,0,0,0,0,0,0,0,0,-1,1595,1541,0,0
378,-517,0,0,0,0,0,0,0,0,0,-1,1602,1541,0,0
385,-517,0,0,0,0,0,0,0,0,0,-1,1609,1541,0,0
392,-517,0,0,0,0,0,0,0,0,0,-1,1616,1541,0,0
399,-517,0,0,0,0,0,0,0,0,0,-1,1623,1541,0,0
406,-517,13.1395,7.01978,0,0,0,0,0,0,0,-1,1630,1541,13.1396,-7.01981
413,-517,12.2695,6.3324,0,0,0,0,0,0,0,-1,1637,1541,12.2696,-6.33243
420,-517,12.4789,6.20337,0,0,0,0,0,0,0,-1,1644,1541,12.4789,-6.20333
427,-517,11.647,4.66516,0,0,0,0,0,0,0,-1,1651,1541,11.647,-4.66519
434,-517,12.3719,3.92773,0,0,0,0,0,0,0,-1,1658,1541,12.3719,-3.92776
441,-517,13.146,3.14124,0,0,0,0,0,0,0,-1,1665,1541,13.146,-3.14121
448,-517,13.8861,2.36682,0,0,0,0,0,0,0,-1,1672,1541,13.8861,-2.36684
455,-517,13.6012,4.06335,0,0,0,0,0,0,0,-1,1679,1541,13.6012,-4.06335
462,-517,14.8956,7.0752,0,0,0,0,0,0,0,-1,1686,1541,14.8956,-7.07525
469,-517,14.3939,7.823,0,0,0,0,0,0,0,-1,1693,1541,14.3939,-7.82296
476,-517,13.8374,8.68164,0,0,0,0,0,0,0,-1,1700,1541,13.8374,-8.68166
483,-517,11.9915,10.6746,0,0,0,0,0,0,0,-1,1707,1541,11.9915,-10.6746
490,-517,11.8319,11.4026,-0.0374799,-0.0578676,0.0632531,0.0163955,-0.111743,0.705505,0.0805189,0.0487103,1714,1541,11.8319,-11.4025
497,-517,11.4513,12.1653,-0.0309106,-0.0443232,0.0500784,0.0129085,-0.0881424,0.718836,0.0635032,0.0437907,1721,1541,11.4513,-12.1652
504,-517,11.024,12.4216,-0.0253479,-0.0336424,0.0390558,0.00978021,-0.0687705,0.732503,0.0494307,0.0401675,1728,1541,11.024,-12.4216
511,-517,10.9115,12.6656,-0.0202011,-0.0254529,0.0298839,0.00717206,-0.0528261,0.741575,0.0378353,0.0423121,1735,1541,10.9115,-12.6657
518,-517,10.6669,12.3674,-0.0156262,-0.0179708,0.0223092,0.00554146,-0.0391384,0.759148,0.028122,0.0292447,1742,1541,10.6669,-12.3674
525,-517,10.6667,12.0575,-0.0117722,-0.0132595,0.0162714,0.00377254,-0.0288042,0.762563,0.0205759,0.0127056,1749,1541,10.6667,-12.0575
532,-517,10.7053,11.7928,-0.00866693,-0.00948623,0.011656,0.00258666,-0.0207398,0.767833,0.0147645,0.0104738,1756,1541,10.7054,-11.7928
539,-517,10.7148,11.5427,-0.00588651,-0.00626861,0.00741366,0.00133857,-0.0134937,0.772516,0.00947355,0.0111231,1763,1541,10.7149,-11.5427
546,-517,10.7142,11.3051,-0.00358104,-0.00370187,0.00457243,0.000931376,-0.00821428,0.778792,0.00581158,0.0110672,1770,1541,10.7142,-11.305
553,-517,10.7115,11.069,-0.00154433,-0.00204469,0.00246954,0.000687669,-0.00427669,0.734918,0.00310583,0.0144691,1777,1541,10.7115,-11.069
560,-517,10.6971,10.8387,0.000551402,-0.000139518,0.000462877,0.000783522,-0.000371637,0.464823,0.000680916,0.0152096,1784,1541,10.6972,-10.8388
567,-517,10.6942,10.6016,0.00232235,0.00121738,-0.00113594,0.00303303,0.000506694,-0.559057,0.00187607,0.012574,1791,1541,10.6942,-10.6016
574,-517,10.6991,10.333,0.00429683,0.00286369,-0.0027386,0.00641106,0.000749468,-0.657438,0.00404741,0.0134941,1798,1541,10.6991,-10.333
581,-517,10.6884,10.078,0.00647762,0.00497326,-0.00436336,0.0101532,0.00129772,-0.700044,0.00638035,0.0153559,1805,1541,10.6883,-10.078
588,-517,10.6843,9.83459,0.00890609,0.00714153,-0.00619345,0.0142798,0.00176783,-0.714647,0.00898871,0.015142,1812,1541,10.6843,-9.83457
595,-517,10.7039,9.56689,0.0117335,0.00983592,-0.00821116,0.0190505,0.00251889,-0.72788,0.0119495,0.019702,1819,1541,10.7039,-9.56686
602,-517,10.6255,9.27625,0.0150724,0.0133664,-0.0105391,0.0247929,0.00364586,-0.745017,0.0154573,0.024477,1826,1541,10.6254,-9.2763
609,-517,11.0342,8.86133,0.0190783,0.0178751,-0.0132213,0.0317117,0.00524169,-0.762662,0.0196286,0.0432624,1833,1541,11.0342,-8.86134
616,-517,11.4255,8.46021,0,0,0,0,0,0,0,-1,1840,1541,11.4256,-8.46023
623,-517,12.0471,7.74597,0,0,0,0,0,0,0,-1,1847,1541,12.0471,-7.746
630,-517,11.7035,7.47815,0,0,0,0,0,0,0,-1,1854,1541,11.7035,-7.47812
637,-517,11.5172,5.79822,0,0,0,0,0,0,0,-1,1861,1541,11.5173,-5.79825
644,-517,11.4232,3.30579,0,0,0,0,0,0,0,-1,1868,1541,11.4232,-3.30574
651,-517,0,0,0,0,0,0,0,0,0,-1,1875,1541,0,0
658,-517,0,0,0,0,0,0,0,0,0,-1,1882,1541,0,0
665,-517,0,0,0,0,0,0,0,0,0,-1,1889,1541,0,0
672,-517,0,0,0,0,0,0,0,0,0,-1,1896,1541,0,0
679,-517,0,0,0,0,0,0,0,0,0,-1,1903,1541,0,0
686,-517,0,0,0,0,0,0,0,0,0,-1,1910,1541,0,0
693,-517,0,0,0,0,0,0,0,0,0,-1,1917,1541,0,0
700,-517,0,0,0,0,0,0,0,0,0,-1,1924,1541,0,0
707,-517,0,0,0,0,0,0,0,0,0,-1,1931,1541,0,0
714,-517,0,0,0,0,0,0,0,0,0,-1,1938,1541,0,0
721,-517,0,0,0,0,0,0,0,0,0,-1,1945,1541,0,0
728,-517,0,0,0,0,0,0,0,0,0,-1,1952,1541,0,0
735,-517,0,0,0,0,0,0,0,0,0,-1,1959,1541,0,0
742,-517,0,0,0,0,0,0,0,0,0,-1,1966,1541,0,0
749,-517,0,0,0,0,0,0,0,0,0,-1,1973,1541,0,0
756,-517,0,0,0,0,0,0,0,0,0,-1,1980,1541,0,0
763,-517,0,0,0,0,0,0,0,0,0,-1,1987,1541,0,0
770,-517,0,0,0,0,0,0,0,0,0,-1,1994,1541,0,0
777,-517,0,0,0,0,0,0,0,0,0,-1,2001,1541,0,0
784,-517,0,0,0,0,0,0,0,0,0,-1,2008,1541,0,0
791,-517,0,0,0,0,0,0,0,0,0,-1,2015,1541,0,0
798,-517,0,0,0,0,0,0,0,0,0,-1,2022,1541,0,0
805,-517,0,0,0,0,0,0,0,0,0,-1,2029,1541,0,0
812,-517,0,0,0,0,0,0,0,0,0,-1,2036,1541,0,0
-700,-524,0,0,0,0,0,0,0,0,0,-1,524,1548,0,0
-693,-524,0,0,0,0,0,0,0,0,0,-1,531,1548,0,0
-686,-524,0,0,0,0,0,0,0,0,0,-1,538,1548,0,0
-679,-524,0,0,0,0,0,0,0,0,0,-1,545,1548,0,0
-672,-524,0,0,0,0,0,0,0,0,0,-1,552,1548,0,0
-665,-524,0,0,0,0,0,0,0,0,0,-1,559,1548,0,0
-658,-524,0,0,0,0,0,0,0,0,0,-1,566,1548,0,0
-651,-524,0,0,0,0,0,0,0,0,0,-1,573,1548,0,0
-644,-524,0,0,0,0,0,0,0,0,0,-1,580,1548,0,0
-637,-524,0,0,0,0,0,0,0,0,0,-1,587,1548,0,0
-630,-524,0,0,0,0,0,0,0,0,0,-1,594,1548,0,0
-623,-524,0,0,0,0,0,0,0,0,0,-1,601,1548,0,0
-616,-524,0,0,0,0,0,0,0,0,0,-1,608,1548,0,0
-609,-524,0,0,0,0,0,0,0,0,0,-1,615,1548,0,0
-602,-524,0,0,0,0,0,0,0,0,0,-1,622,1548,0,0
-595,-524,0,0,0,0,0,0,0,0,0,-1,629,1548,0,0
-588,-524,0,0,0,0,0,0,0,0,0,-1,636,1548,0,0
-581,-524,0,0,0,0,0,0,0,0,0,-1,643,1548,0,0
-574,-524,0,0,0,0,0,0,0,0,0,-1,650,1548,0,0
-567,-524,0,0,0,0,0,0,0,0,0,-1,657,1548,0,0
-560,-524,0,0,0,0,0,0,0,0,0,-1,664,1548,0,0
-553,-524,0,0,0,0,0,0,0,0,0,-1,671,1548,0,0
-546,-524,0,0,0,0,0,0,0,0,0,-1,678,1548,0,0
-539,-524,0,0,0,0,0,0,0,0,0,-1,685,1548,0,0
-532,-524,0,0,0,0,0,0,0,0,0,-1,692,1548,0,0
-525,-524,-0.215515,3.97131,0,0,0,0,0,0,0,-1,699,1548,-0.215501,-3.97136
-518,-524,-0.806274,4.35632,0,0,0,0,0,0,0,-1,706,1548,-0.806259,-4.35633
-511,-524,-1.08301,4.29004,0,0,0,0,0,0,0,-1,713,1548,-1.08301,-4.29006
-504,-524,-1.28821,3.98145,0,0,0,0,0,0,0,-1,720,1548,-1.28822,-3.98151
-497,-524,-1.69482,7.29102,0,0,0,0,0,0,0,-1,727,1548,-1.6948,-7.29106
-490,-524,-1.47345,7.63269,0.028662,-0.0134021,0.0133005,0.0325147,-0.0172548,0.281949,0.0291812,0.0456844,734,1548,-1.47345,-7.63268
-483,-524,-1.40375,7.73682,0.0250254,-0.0127565,0.0114465,0.0282227,-0.0159538,0.272383,0.0258311,0.0449492,741,1548,-1.40373,-7.73679
-476,-524,-1.19861,7.82092,0.0211261,-0.0114143,0.00936323,0.023628,-0.0139162,0.261098,0.0219165,0.0418033,748,1548,-1.19862,-7.82093
-469,-524,-0.789368,7.87756,0.0172546,-0.00969685,0.00739429,0.01915,-0.0115922,0.250927,0.0179269,0.031586,755,1548,-0.789345,-7.87753
-462,-524,-0.684448,8.08264,0.0136392,-0.00771795,0.00564215,0.0150381,-0.00911687,0.243039,0.0140849,0.0246775,762,1548,-0.684476,-8.08269
-455,-524,-0.69812,8.30176,0.0106856,-0.00606898,0.00414704,0.0116558,-0.00703926,0.229834,0.0109028,0.0172661,769,1548,-0.698148,-8.30174
-448,-524,-0.66925,8.57898,0.00819918,-0.00460854,0.00302227,0.00887652,-0.00528589,0.220476,0.00826381,0.0119069,776,1548,-0.669274,-8.57902
-441,-524,-0.675232,8.85437,0.00622816,-0.00332724,0.00215911,0.00669338,-0.00379246,0.212222,0.00613074,0.0108704,783,1548,-0.675223,-8.85435
-434,-524,-0.650513,9.10352,0.00471502,-0.00238816,0.00124051,0.00492543,-0.00259857,0.168017,0.00441268,0.0123368,790,1548,-0.65052,-9.10346
-427,-524,-0.639099,9.3938,0.00379147,-0.00156921,0.000835528,0.00391867,-0.00169642,0.151089,0.00332543,0.0120577,797,1548,-0.639079,-9.3938
-420,-524,-0.68042,9.67676,0.00370462,-0.000359311,0.000874742,0.0038849,-0.000539597,0.203256,0.00278727,0.0105877,804,1548,-0.680445,-9.67672
-413,-524,-0.689636,9.94543,0.00394119,0.000367544,0.00096367,0.00418449,0.000124244,0.247304,0.00274918,0.010378,811,1548,-0.689653,-9.94546
-406,-524,-0.697998,10.2096,0.00434787,0.000834334,0.00114825,0.00468984,0.000492363,0.289456,0.00297605,0.0105431,818,1548,-0.698015,-10.2096
-399,-524,-0.700256,10.4718,0.00516105,0.00147488,0.00159271,0.00575388,0.000882047,0.356327,0.00357833,0.00911666,825,1548,-0.700257,-10.4718
-392,-524,-0.690552,10.7288,0.00614964,0.00247945,0.00203078,0.00705163,0.00157746,0.417987,0.00427344,0.00951895,832,1548,-0.690558,-10.7287
-385,-524,-0.705017,11.0125,0.00733363,0.00411092,0.00231064,0.00853928,0.00290527,0.480921,0.00501336,0.0115814,839,1548,-0.705026,-11.0125
-378,-524,-0.652039,11.4346,0.00992846,0.00564866,0.00304883,0.0115134,0.00406371,0.479406,0.00674241,0.0255656,846,1548,-0.652047,-11.4346
-371,-524,-0.585083,11.8313,0,0,0,0,0,0,0,-1,853,1548,-0.585068,-11.8313
-364,-524,-0.611328,11.5066,0,0,0,0,0,0,0,-1,860,1548,-0.611314,-11.5066
-357,-524,-0.732117,11.5651,0,0,0,0,0,0,0,-1,867,1548,-0.732111,-11.565
-350,-524,-1.18591,11.6433,0,0,0,0,0,0,0,-1,874,1548,-1.18592,-11.6433
-343,-524,-1.2887,6.94836,0,0,0,0,0,0,0,-1,881,1548,-1.28868,-6.94831
-336,-524,-0.817383,11.87,0,0,0,0,0,0,0,-1,888,1548,-0.817363,-11.87
-329,-524,-0.342041,13.0787,0,0,0,0,0,0,0,-1,895,1548,-0.342064,-13.0787
-322,-524,0.915771,11.7336,0,0,0,0,0,0,0,-1,902,1548,0.915752,-11.7336
-315,-524,6.14465,15.038,0,0,0,0,0,0,0,-1,909,1548,6.14467,-15.0379
-308,-524,2.1142,12.7362,0,0,0,0,0,0,0,-1,916,1548,2.11419,-12.7362
-301,-524,4.10406,15.9458,0,0,0,0,0,0,0,-1,923,1548,4.10409,-15.9458
-294,-524,-1.52515,9.05408,0,0,0,0,0,0,0,-1,930,1548,-1.52512,-9.05411
-287,-524,-1.52618,9.99182,0,0,0,0,0,0,0,-1,937,1548,-1.52619,-9.99178
-280,-524,-1.6156,10.4597,0,0,0,0,0,0,0,-1,944,1548,-1.6156,-10.4597
-273,-524,0,0,0,0,0,0,0,0,0,-1,951,1548,0,0
-266,-524,0,0,0,0,0,0,0,0,0,-1,958,1548,0,0
-259,-524,0,0,0,0,0,0,0,0,0,-1,965,1548,0,0
-252,-524,0,0,0,0,0,0,0,0,0,-1,972,1548,0,0
-245,-524,0,0,0,0,0,0,0,0,0,-1,979,1548,0,0
-238,-524,0,0,0,0,0,0,0,0,0,-1,986,1548,0,0
-231,-524,0,0,0,0,0,0,0,0,0,-1,993,1548,0,0
-224,-524,0,0,0,0,0,0,0,0,0,-1,1000,1548,0,0
-217,-524,0,0,0,0,0,0,0,0,0,-1,1007,1548,0,0
-210,-524,0,0,0,0,0,0,0,0,0,-1,1014,1548,0,0
-203,-524,0,0,0,0,0,0,0,0,0,-1,1021,1548,0,0
-196,-524,0,0,0,0,0,0,0,0,0,-1,1028,1548,0,0
-189,-524,0,0,0,0,0,0,0,0,0,-1,1035,1548,0,0
-182,-524,0,0,0,0,0,0,0,0,0,-1,1042,1548,0,0
-175,-524,0,0,0,0,0,0,0,0,0,-1,1049,1548,0,0
-168,-524,0,0,0,0,0,0,0,0,0,-1,1056,1548,0,0
-161,-524,0,0,0,0,0,0,0,0,0,-1,1063,1548,0,0
-154,-524,0,0,0,0,0,0,0,0,0,-1,1070,1548,0,0
-147,-524,0,0,0,0,0,0,0,0,0,-1,1077,1548,0,0
-140,-524,0,0,0,0,0,0,0,0,0,-1,1084,1548,0,0
-133,-524,0,0,0,0,0,0,0,0,0,-1,1091,1548,0,0
-126,-524,0,0,0,0,0,0,0,0,0,-1,1098,1548,0,0
-119,-524,0,0,0,0,0,0,0,0,0,-1,1105,1548,0,0
-112,-524,0,0,0,0,0,0,0,0,0,-1,1112,1548,0,0
-105,-524,0,0,0,0,0,0,0,0,0,-1,1119,1548,0,0
-98,-524,0,0,0,0,0,0,0,0,0,-1,1126,1548,0,0
-91,-524,0,0,0,0,0,0,0,0,0,-1,1133,1548,0,0
-84,-524,0,0,0,0,0,0,0,0,0,-1,1140,1548,0,0
-77,-524,0,0,0,0,0,0,0,0,0,-1,1147,1548,0,0
-70,-524,0,0,0,0,0,0,0,0,0,-1,1154,1548,0,0
-63,-524,0,0,0,0,0,0,0,0,0,-1,1161,1548,0,0
-56,-524,0,0,0,0,0,0,0,0,0,-1,1168,1548,0,0
-49,-524,0,0,0,0,0,0,0,0,0,-1,1175,1548,0,0
-42,-524,0,0,0,0,0,0,0,0,0,-1,1182,1548,0,0
-35,-524,0,0,0,0,0,0,0,0,0,-1,1189,1548,0,0
-28,-524,0,0,0,0,0,0,0,0,0,-1,1196,1548,0,0
-21,-524,0,0,0,0,0,0,0,0,0,-1,1203,1548,0,0
-14,-524,0,0,0,0,0,0,0,0,0,-1,1210,1548,0,0
-7,-524,0,0,0,0,0,0,0,0,0,-1,1217,1548,0,0
0,-524,0,0,0,0,0,0,0,0,0,-1,1224,1548,0,0
7,-524,0,0,0,0,0,0,0,0,0,-1,1231,1548,0,0
14,-524,0,0,0,0,0,0,0,0,0,-1,1238,1548,0,0
21,-524,0,0,0,0,0,0,0,0,0,-1,1245,1548,0,0
28,-524,0,0,0,0,0,0,0,0,0,-1,1252,1548,0,0
35,-524,0,0,0,0,0,0,0,0,0,-1,1259,1548,0,0
42,-524,0,0,0,0,0,0,0,0,0,-1,1266,1548,0,0
49,-524,0,0,0,0,0,0,0,0,0,-1,1273,1548,0,0
56,-524,0,0,0,0,0,0,0,0,0,-1,1280,1548,0,0
63,-524,0,0,0,0,0,0,0,0,0,-1,1287,1548,0,0
70,-524,0,0,0,0,0,0,0,0,0,-1,1294,1548,0,0
77,-524,0,0,0,0,0,0,0,0,0,-1,1301,1548,0,0
84,-524,0,0,0,0,0,0,0,0,0,-1,1308,1548,0,0
91,-524,0,0,0,0,0,0,0,0,0,-1,1315,1548,0,0
98,-524,0,0,0,0,0,0,0,0,0,-1,1322,1548,0,0
105,-524,0,0,0,0,0,0,0,0,0,-1,1329,1548,0,0
112,-524,0,0,0,0,0,0,0,0,0,-1,1336,1548,0,0
119,-524,0,0,0,0,0,0,0,0,0,-1,1343,1548,0,0
126,-524,0,0,0,0,0,0,0,0,0,-1,1350,1548,0,0
133,-524,0,0,0,0,0,0,0,0,0,-1,1357,1548,0,0
140,-524,0,0,0,0,0,0,0,0,0,-1,1364,1548,0,0
147,-524,0,0,0,0,0,0,0,0,0,-1,1371,1548,0,0
154,-524,0,0,0,0,0,0,0,0,0,-1,1378,1548,0,0
161,-524,0,0,0,0,0,0,0,0,0,-1,1385,1548,0,0
168,-524,0,0,0,0,0,0,0,0,0,-1,1392,1548,0,0
175,-524,0,0,0,0,0,0,0,0,0,-1,1399,1548,0,0
182,-524,0,0,0,0,0,0,0,0,0,-1,1406,1548,0,0
189,-524,0,0,0,0,0,0,0,0,0,-1,1413,1548,0,0
196,-524,0,0,0,0,0,0,0,0,0,-1,1420,1548,0,0
203,-524,0,0,0,0,0,0,0,0,0,-1,1427,1548,0,0
210,-524,0,0,0,0,0,0,0,0,0,-1,1434,1548,0,0
217,-524,0,0,0,0,0,0,0,0,0,-1,1441,1548,0,0
224,-524,0,0,0,0,0,0,0,0,0,-1,1448,1548,0,0
231,-524,0,0,0,0,0,0,0,0,0,-1,1455,1548,0,0
238,-524,0,0,0,0,0,0,0,0,0,-1,1462,1548,0,0
245,-524,0,0,0,0,0,0,0,0,0,-1,1469,1548,0,0
252,-524,0,0,0,0,0,0,0,0,0,-1,1476,1548,0,0
259,-524,0,0,0,0,0,0,0,0,0,-1,1483,1548,0,0
266,-524,0,0,0,0,0,0,0,0,0,-1,1490,1548,0,0
273,-524,0,0,0,0,0,0,0,0,0,-1,1497,1548,0,0
280,-524,0,0,0,0,0,0,0,0,0,-1,1504,1548,0,0
287,-524,0,0,0,0,0,0,0,0,0,-1,1511,1548,0,0
294,-524,0,0,0,0,0,0,0,0,0,-1,1518,1548,0,0
301,-524,0,0,0,0,0,0,0,0,0,-1,1525,1548,0,0
308,-524,0,0,0,0,0,0,0,0,0,-1,1532,1548,0,0
315,-524,0,0,0,0,0,0,0,0,0,-1,1539,1548,0,0
322,-524,0,0,0,0,0,0,0,0,0,-1,1546,1548,0,0
329,-524,0,0,0,0,0,0,0,0,0,-1,1553,1548,0,0
336,-524,0,0,0,0,0,0,0,0,0,-1,1560,1548,0,0
343,-524,0,0,0,0,0,0,0,0,0,-1,1567,1548,0,0
350,-524,0,0,0,0,0,0,0,0,0,-1,1574,1548,0,0
357,-524,0,0,0,0,0,0,0,0,0,-1,1581,1548,0,0
364,-524,0,0,0,0,0,0,0,0,0,-1,1588,1548,0,0
371,-524,0,0,0,0,0,0,0,0,0,-1,1595,1548,0,0
378,-524,0,0,0,0,0,0,0,0,0,-1,1602,1548,0,0
385,-524,0,0,0,0,0,0,0,0,0,-1,1609,1548,0,0
392,-524,0,0,0,0,0,0,0,0,0,-1,1616,1548,0,0
399,-524,8.81848,5.05774,0,0,0,0,0,0,0,-1,1623,1548,8.81843,-5.05769
406,-524,8.64294,6.06799,0,0,0,0,0,0,0,-1,1630,1548,8.6429,-6.06805
413,-524,11.677,6.41858,0,0,0,0,0,0,0,-1,1637,1548,11.677,-6.41864
420,-524,11.4913,6.36401,0,0,0,0,0,0,0,-1,1644,1548,11.4913,-6.36402
427,-524,7.68335,6.17249,0,0,0,0,0,0,0,-1,1651,1548,7.68341,-6.17245
434,-524,10.432,11.6801,0,0,0,0,0,0,0,-1,1658,1548,10.432,-11.68
441,-524,8.78552,4.12305,0,0,0,0,0,0,0,-1,1665,1548,8.78553,-4.12301
448,-524,14.1854,4.78674,0,0,0,0,0,0,0,-1,1672,1548,14.1854,-4.78674
455,-524,12.4784,3.65576,0,0,0,0,0,0,0,-1,1679,1548,12.4784,-3.65572
462,-524,14.5009,9.41125,0,0,0,0,0,0,0,-1,1686,1548,14.5009,-9.41123
469,-524,12.1188,7.98254,0,0,0,0,0,0,0,-1,1693,1548,12.1187,-7.98256
476,-524,13.2761,10.2461,0,0,0,0,0,0,0,-1,1700,1548,13.2761,-10.2461
483,-524,12.1805,11.1678,-0.0340453,-0.0595686,0.062048,0.0165398,-0.110154,0.683975,0.0795245,0.0453491,1707,1548,12.1806,-11.1679
490,-524,11.3523,11.939,-0.0287822,-0.0463845,0.050376,0.0135556,-0.0887224,0.698917,0.064146,0.0431494,1714,1548,11.3523,-11.939
497,-524,10.6515,12.6635,-0.0238713,-0.0355449,0.0400366,0.0107517,-0.070168,0.713015,0.0507437,0.0366883,1721,1548,10.6515,-12.6635
504,-524,10.4714,12.6842,-0.0197039,-0.0269152,0.0314149,0.00831153,-0.0549307,0.728261,0.0396822,0.0213977,1728,1548,10.4715,-12.6843
511,-524,10.4063,12.5327,-0.0156838,-0.0201642,0.0239895,0.00616985,-0.0420178,0.738842,0.0302788,0.0194607,1735,1548,10.4063,-12.5328
518,-524,10.4607,12.2677,-0.0119893,-0.0139013,0.0177667,0.00484709,-0.0307377,0.758519,0.0222839,0.0169731,1742,1548,10.4607,-12.2678
525,-524,10.4684,12.0574,-0.00882135,-0.0100374,0.0127888,0.00337394,-0.0222327,0.761645,0.0160649,0.0142297,1749,1548,10.4684,-12.0574
532,-524,10.4668,11.8014,-0.00624092,-0.00690802,0.00894456,0.0023763,-0.0155252,0.766761,0.0112264,0.00964752,1756,1548,10.4668,-11.8014
539,-524,10.4661,11.5424,-0.00390356,-0.00425026,0.0053529,0.0012788,-0.00943262,0.769212,0.00675515,0.0102679,1763,1548,10.466,-11.5424
546,-524,10.4574,11.3141,-0.00194235,-0.00211176,0.00296441,0.000938567,-0.00499268,0.771115,0.00368141,0.0133319,1770,1548,10.4573,-11.3141
553,-524,10.4448,11.1104,-8.70758e-05,-0.000773151,0.00114084,0.000761187,-0.00162141,0.639354,0.00140516,0.0205194,1777,1548,10.4448,-11.1104
560,-524,10.3879,10.8258,0.00201958,0.0010609,-0.000805523,0.0024776,0.000602886,-0.517006,0.00149194,0.0284779,1784,1548,10.388,-10.8258
567,-524,10.4207,10.6023,0.00381026,0.00236387,-0.00235967,0.00555507,0.000619056,-0.636702,0.00351525,0.0166593,1791,1548,10.4206,-10.6023
574,-524,10.4507,10.3346,0.00587905,0.00400038,-0.00402915,0.00907691,0.000802517,-0.670876,0.0058023,0.0121533,1798,1548,10.4507,-10.3346
581,-524,10.4568,10.0591,0.00831317,0.00625149,-0.00585526,0.0132276,0.00133702,-0.698264,0.00840826,0.0143172,1805,1548,10.4568,-10.0591
588,-524,10.4731,9.79626,0.0112023,0.0086956,-0.00802682,0.018073,0.00182487,-0.707951,0.0114888,0.0163994,1812,1548,10.4731,-9.79621
595,-524,10.4679,9.54919,0.0147469,0.0119939,-0.01067,0.0241288,0.00261199,-0.721251,0.0152898,0.0185425,1819,1548,10.4679,-9.54916
602,-524,10.6517,9.24084,0.0191091,0.0165442,-0.0139252,0.0318107,0.00384249,-0.73948,0.0200494,0.0337149,1826,1548,10.6517,-9.24088
609,-524,11.3673,8.04456,0.0245487,0.0225709,-0.0178767,0.0414638,0.00565581,-0.757768,0.0259634,0.0464497,1833,1548,11.3673,-8.04458
616,-524,11.9309,7.04114,0,0,0,0,0,0,0,-1,1840,1548,11.9309,-7.04111
623,-524,9.38452,5.15356,0,0,0,0,0,0,0,-1,1847,1548,9.38456,-5.15359
630,-524,11.0541,3.57434,0,0,0,0,0,0,0,-1,1854,1548,11.0541,-3.57438
637,-524,11.6067,3.20728,0,0,0,0,0,0,0,-1,1861,1548,11.6067,-3.20724
644,-524,12.2134,0.727173,0,0,0,0,0,0,0,-1,1868,1548,12.2134,-0.727222
651,-524,0,0,0,0,0,0,0,0,0,-1,1875,1548,0,0
658,-524,0,0,0,0,0,0,0,0,0,-1,1882,1548,0,0
665,-524,0,0,0,0,0,0,0,0,0,-1,1889,1548,0,0
672,-524,0,0,0,0,0,0,0,0,0,-1,1896,1548,0,0
679,-524,0,0,0,0,0,0,0,0,0,-1,1903,1548,0,0
686,-524,0,0,0,0,0,0,0,0,0,-1,1910,1548,0,0
693,-524,0,0,0,0,0,0,0,0,0,-1,1917,1548,0,0
700,-524,0,0,0,0,0,0,0,0,0,-1,1924,1548,0,0
707,-524,0,0,0,0,0,0,0,0,0,-1,1931,1548,0,0
714,-524,0,0,0,0,0,0,0,0,0,-1,1938,1548,0,0
721,-524,0,0,0,0,0,0,0,0,0,-1,1945,1548,0,0
728,-524,0,0,0,0,0,0,0,0,0,-1,1952,1548,0,0
735,-524,0,0,0,0,0,0,0,0,0,-1,1959,1548,0,0
742,-524,0,0,0,0,0,0,0,0,0,-1,1966,1548,0,0
749,-524,0,0,0,0,0,0,0,0,0,-1,1973,1548,0,0
756,-524,0,0,0,0,0,0,0,0,0,-1,1980,1548,0,0
763,-524,0,0,0,0,0,0,0,0,0,-1,1987,1548,0,0
770,-524,0,0,0,0,0,0,0,0,0,-1,1994,1548,0,0
777,-524,0,0,0,0,0,0,0,0,0,-1,2001,1548,0,0
784,-524,0,0,0,0,0,0,0,0,0,-1,2008,1548,0,0
791,-524,0,0,0,0,0,0,0,0,0,-1,2015,1548,0,0
798,-524,0,0,0,0,0,0,0,0,0,-1,2022,1548,0,0
805,-524,0,0,0,0,0,0,0,0,0,-1,2029,1548,0,0
812,-524,0,0,0,0,0,0,0,0,0,-1,2036,1548,0,0
-700,-531,0,0,0,0,0,0,0,0,0,-1,524,1555,0,0
-693,-531,0,0,0,0,0,0,0,0,0,-1,531,1555,0,0
-686,-531,0,0,0,0,0,0,0,0,0,-1,538,1555,0,0
-679,-531,0,0,0,0,0,0,0,0,0,-1,545,1555,0,0
-672,-531,0,0,0,0,0,0,0,0,0,-1,552,1555,0,0
-665,-531,0,0,0,0,0,0,0,0,0,-1,559,1555,0,0
-658,-531,0,0,0,0,0,0,0,0,0,-1,566,1555,0,0
-651,-531,0,0,0,0,0,0,0,0,0,-1,573,1555,0,0
-644,-531,0,0,0,0,0,0,0,0,0,-1,580,1555,0,0
-637,-531,0,0,0,0,0,0,0,0,0,-1,587,1555,0,0
-630,-531,0,0,0,0,0,0,0,0,0,-1,594,1555,0,0
-623,-531,0,0,0,0,0,0,0,0,0,-1,601,1555,0,0
-616,-531,0,0,0,0,0,0,0,0,0,-1,608,1555,0,0
-609,-531,0,0,0,0,0,0,0,0,0,-1,615,1555,0,0
-602,-531,0,0,0,0,0,0,0,0,0,-1,622,1555,0,0
-595,-531,0,0,0,0,0,0,0,0,0,-1,629,1555,0,0
-588,-531,0,0,0,0,0,0,0,0,0,-1,636,1555,0,0
-581,-531,0,0,0,0,0,0,0,0,0,-1,643,1555,0,0
-574,-531,0,0,0,0,0,0,0,0,0,-1,650,1555,0,0
-567,-531,0,0,0,0,0,0,0,0,0,-1,657,1555,0,0
-560,-531,0,0,0,0,0,0,0,0,0,-1,664,1555,0,0
-553,-531,0,0,0,0,0,0,0,0,0,-1,671,1555,0,0
-546,-531,0,0,0,0,0,0,0,0,0,-1,678,1555,0,0
-539,-531,0,0,0,0,0,0,0,0,0,-1,685,1555,0,0
-532,-531,0,0,0,0,0,0,0,0,0,-1,692,1555,0,0
-525,-531,0,0,0,0,0,0,0,0,0,-1,699,1555,0,0
-518,-531,-1.63983,4.03821,0,0,0,0,0,0,0,-1,706,1555,-1.63982,-4.03821
-511,-531,-2.9682,8.07483,0,0,0,0,0,0,0,-1,713,1555,-2.9682,-8.07479
-504,-531,-2.95978,0.557861,0,0,0,0,0,0,0,-1,720,1555,-2.95978,-0.557917
-497,-531,-2.11096,7.31128,0,0,0,0,0,0,0,-1,727,1555,-2.11095,-7.31124
-490,-531,-1.82318,7.68701,0.0349204,-0.0161177,0.0201418,0.0419115,-0.0231089,0.334086,0.0380592,0.0487088,734,1555,-1.82316,-7.68707
-483,-531,-1.64868,7.80273,0.0308421,-0.0154408,0.0168604,0.0363328,-0.0209315,0.314825,0.0334578,0.0459978,741,1555,-1.64871,-7.80273
-476,-531,-1.39874,8.07385,0.0261986,-0.013733,0.0134974,0.0303328,-0.0178673,0.297227,0.0281369,0.0451451,748,1555,-1.39876,-8.07385
-469,-531,-1.11426,8.14429,0.0215385,-0.011601,0.010417,0.024541,-0.0146035,0.280619,0.0228415,0.0416116,755,1555,-1.11423,-8.14432
-462,-531,-0.699463,8.2699,0.0170284,-0.00921797,0.00772758,0.0191346,-0.0113241,0.26609,0.017777,0.0386915,762,1555,-0.69949,-8.26991
-455,-531,-0.47583,8.45642,0.0132056,-0.00714927,0.00559801,0.0146436,-0.00858726,0.251438,0.0135634,0.0278667,769,1555,-0.475844,-8.45643
-448,-531,-0.367188,8.58459,0.00995052,-0.00537489,0.00397436,0.0109199,-0.00634425,0.239233,0.0100835,0.01355,776,1555,-0.367201,-8.58457
-441,-531,-0.402344,8.85608,0.00735001,-0.00383818,0.00275001,0.00798941,-0.00447758,0.22845,0.00729239,0.0116515,783,1555,-0.402349,-8.85613
-434,-531,-0.390381,9.13806,0.00533604,-0.00265628,0.00161038,0.00564831,-0.00296856,0.191538,0.00505451,0.011529,790,1555,-0.390376,-9.13806
-427,-531,-0.390808,9.4082,0.00388919,-0.00161678,0.00103356,0.00407681,-0.0018044,0.179575,0.00347898,0.0127168,797,1555,-0.390782,-9.40824
-420,-531,-0.418457,9.67517,0.00324233,-0.000465297,0.000824365,0.00341736,-0.000640326,0.209213,0.00251896,0.0121763,804,1555,-0.418477,-9.67516
-413,-531,-0.429565,9.95056,0.00308448,0.000277772,0.000778273,0.00328584,7.64105e-05,0.253176,0.00216554,0.0109599,811,1555,-0.429554,-9.9506
-406,-531,-0.420227,10.2104,0.00309827,0.000706409,0.000833295,0.00335995,0.000444728,0.304279,0.00210742,0.0114713,818,1555,-0.420238,-10.2105
-399,-531,-0.411072,10.4745,0.0035259,0.00120147,0.00113372,0.00398728,0.000740091,0.386494,0.00244906,0.0135805,825,1555,-0.411083,-10.4745
-392,-531,-0.403076,10.7485,0.00414513,0.00195159,0.00138884,0.00481805,0.00127868,0.451184,0.00288197,0.0163775,832,1555,-0.403087,-10.7485
-385,-531,-0.430847,11.0151,0.0049284,0.00316335,0.00143621,0.00573156,0.00236019,0.509899,0.00332624,0.0135044,839,1555,-0.430876,-11.0152
-378,-531,-0.436462,11.2552,0.00688308,0.00428569,0.00187776,0.00786749,0.00330128,0.482858,0.00456183,0.0125011,846,1555,-0.436454,-11.2552
-371,-531,-0.385376,11.59,0.00848253,0.00585268,0.00215455,0.00969171,0.00464351,0.511418,0.00559714,0.0188322,853,1555,-0.385396,-11.59
-364,-531,-0.315002,11.8475,0.0105828,0.0076986,0.00237271,0.0119173,0.00636413,0.512333,0.00688577,0.0388854,860,1555,-0.314975,-11.8476
-357,-531,-0.590881,11.8229,0.0132367,0.0098108,0.00250155,0.0145556,0.00849192,0.485188,0.00844256,0.045159,867,1555,-0.590891,-11.8229
-350,-531,-0.771606,11.8544,0,0,0,0,0,0,0,-1,874,1555,-0.771591,-11.8543
-343,-531,-0.989624,13.0509,0,0,0,0,0,0,0,-1,881,1555,-0.989626,-13.051
-336,-531,-1.04492,13.4574,0,0,0,0,0,0,0,-1,888,1555,-1.04491,-13.4574
-329,-531,-0.266663,13.1613,0,0,0,0,0,0,0,-1,895,1555,-0.266682,-13.1613
-322,-531,2.05884,14.3542,0,0,0,0,0,0,0,-1,902,1555,2.05885,-14.3543
-315,-531,1.83698,13.8148,0,0,0,0,0,0,0,-1,909,1555,1.83696,-13.8148
-308,-531,1.82147,13.101,0,0,0,0,0,0,0,-1,916,1555,1.82145,-13.101
-301,-531,1.80597,12.3872,0,0,0,0,0,0,0,-1,923,1555,1.80594,-12.3872
-294,-531,-1.3244,8.1825,0,0,0,0,0,0,0,-1,930,1555,-1.3244,-8.18251
-287,-531,-1.41095,9.08215,0,0,0,0,0,0,0,-1,937,1555,-1.41095,-9.08216
-280,-531,-2.0166,16.6165,0,0,0,0,0,0,0,-1,944,1555,-2.01659,-16.6165
-273,-531,-3.34735,17.3546,0,0,0,0,0,0,0,-1,951,1555,-3.34733,-17.3546
-266,-531,-4.58264,18.4968,0,0,0,0,0,0,0,-1,958,1555,-4.58265,-18.4969
-259,-531,0,0,0,0,0,0,0,0,0,-1,965,1555,0,0
-252,-531,0,0,0,0,0,0,0,0,0,-1,972,1555,0,0
-245,-531,0,0,0,0,0,0,0,0,0,-1,979,1555,0,0
-238,-531,0,0,0,0,0,0,0,0,0,-1,986,1555,0,0
-231,-531,0,0,0,0,0,0,0,0,0,-1,993,1555,0,0
-224,-531,0,0,0,0,0,0,0,0,0,-1,1000,1555,0,0
-217,-531,0,0,0,0,0,0,0,0,0,-1,1007,1555,0,0
-210,-531,0,0,0,0,0,0,0,0,0,-1,1014,1555,0,0
-203,-531,0,0,0,0,0,0,0,0,0,-1,1021,1555,0,0
-196,-531,0,0,0,0,0,0,0,0,0,-1,1028,1555,0,0
-189,-531,0,0,0,0,0,0,0,0,0,-1,1035,1555,0,0
-182,-531,0,0,0,0,0,0,0,0,0,-1,1042,1555,0,0
-175,-531,0,0,0,0,0,0,0,0,0,-1,1049,1555,0,0
-168,-531,0,0,0,0,0,0,0,0,0,-1,1056,1555,0,0
-161,-531,0,0,0,0,0,0,0,0,0,-1,1063,1555,0,0
-154,-531,0,0,0,0,0,0,0,0,0,-1,1070,1555,0,0
-147,-531,0,0,0,0,0,0,0,0,0,-1,1077,1555,0,0
-140,-531,0,0,0,0,0,0,0,0,0,-1,1084,1555,0,0
-133,-531,0,0,0,0,0,0,0,0,0,-1,1091,1555,0,0
-126,-531,0,0,0,0,0,0,0,0,0,-1,1098,1555,0,0
-119,-531,0,0,0,0,0,0,0,0,0,-1,1105,1555,0,0
-112,-531,0,0,0,0,0,0,0,0,0,-1,1112,1555,0,0
-105,-531,0,0,0,0,0,0,0,0,0,-1,1119,1555,0,0
-98,-531,0,0,0,0,0,0,0,0,0,-1,1126,1555,0,0
-91,-531,0,0,0,0,0,0,0,0,0,-1,1133,1555,0,0
-84,-531,0,0,0,0,0,0,0,0,0,-1,1140,1555,0,0
-77,-531,0,0,0,0,0,0,0,0,0,-1,1147,1555,0,0
-70,-531,0,0,0,0,0,0,0,0,0,-1,1154,1555,0,0
-63,-531,0,0,0,0,0,0,0,0,0,-1,1161,1555,0,0
-56,-531,0,0,0,0,0,0,0,0,0,-1,1168,1555,0,0
-49,-531,0,0,0,0,0,0,0,0,0,-1,1175,1555,0,0
-42,-531,0,0,0,0,0,0,0,0,0,-1,1182,1555,0,0
-35,-531,0,0,0,0,0,0,0,0,0,-1,1189,1555,0,0
-28,-531,0,0,0,0,0,0,0,0,0,-1,1196,1555,0,0
-21,-531,0,0,0,0,0,0,0,0,0,-1,1203,1555,0,0
-14,-531,0,0,0,0,0,0,0,0,0,-1,1210,1555,0,0
-7,-531,0,0,0,0,0,0,0,0,0,-1,1217,1555,0,0
0,-531,0,0,0,0,0,0,0,0,0,-1,1224,1555,0,0
7,-531,0,0,0,0,0,0,0,0,0,-1,1231,1555,0,0
14,-531,0,0,0,0,0,0,0,0,0,-1,1238,1555,0,0
21,-531,0,0,0,0,0,0,0,0,0,-1,1245,1555,0,0
28,-531,0,0,0,0,0,0,0,0,0,-1,1252,1555,0,0
35,-531,0,0,0,0,0,0,0,0,0,-1,1259,1555,0,0
42,-531,0,0,0,0,0,0,0,0,0,-1,1266,1555,0,0
49,-531,0,0,0,0,0,0,0,0,0,-1,1273,1555,0,0
56,-531,0,0,0,0,0,0,0,0,0,-1,1280,1555,0,0
63,-531,0,0,0,0,0,0,0,0,0,-1,1287,1555,0,0
70,-531,0,0,0,0,0,0,0,0,0,-1,1294,1555,0,0
77,-531,0,0,0,0,0,0,0,0,0,-1,1301,1555,0,0
84,-531,0,0,0,0,0,0,0,0,0,-1,1308,1555,0,0
91,-531,0,0,0,0,0,0,0,0,0,-1,1315,1555,0,0
98,-531,0,0,0,0,0,0,0,0,0,-1,1322,1555,0,0
105,-531,0,0,0,0,0,0,0,0,0,-1,1329,1555,0,0
112,-531,0,0,0,0,0,0,0,0,0,-1,1336,1555,0,0
119,-531,0,0,0,0,0,0,0,0,0,-1,1343,1555,0,0
126,-531,0,0,0,0,0,0,0,0,0,-1,1350,1555,0,0
133,-531,0,0,0,0,0,0,0,0,0,-1,1357,1555,0,0
140,-531,0,0,0,0,0,0,0,0,0,-1,1364,1555,0,0
147,-531,0,0,0,0,0,0,0,0,0,-1,1371,1555,0,0
154,-531,0,0,0,0,0,0,0,0,0,-1,1378,1555,0,0
161,-531,0,0,0,0,0,0,0,0,0,-1,1385,1555,0,0
168,-531,0,0,0,0,0,0,0,0,0,-1,1392,1555,0,0
175,-531,0,0,0,0,0,0,0,0,0,-1,1399,1555,0,0
182,-531,0,0,0,0,0,0,0,0,0,-1,1406,1555,0,0
189,-531,0,0,0,0,0,0,0,0,0,-1,1413,1555,0,0
196,-531,0,0,0,0,0,0,0,0,0,-1,1420,1555,0,0
203,-531,0,0,0,0,0,0,0,0,0,-1,1427,1555,0,0
210,-531,0,0,0,0,0,0,0,0,0,-1,1434,1555,0,0
217,-531,0,0,0,0,0,0,0,0,0,-1,1441,1555,0,0
224,-531,0,0,0,0,0,0,0,0,0,-1,1448,1555,0,0
231,-531,0,0,0,0,0,0,0,0,0,-1,1455,1555,0,0
238,-531,0,0,0,0,0,0,0,0,0,-1,1462,1555,0,0
245,-531,0,0,0,0,0,0,0,0,0,-1,1469,1555,0,0
252,-531,0,0,0,0,0,0,0,0,0,-1,1476,1555,0,0
259,-531,0,0,0,0,0,0,0,0,0,-1,1483,1555,0,0
266,-531,0,0,0,0,0,0,0,0,0,-1,1490,1555,0,0
273,-531,0,0,0,0,0,0,0,0,0,-1,1497,1555,0,0
280,-531,0,0,0,0,0,0,0,0,0,-1,1504,1555,0,0
287,-531,0,0,0,0,0,0,0,0,0,-1,1511,1555,0,0
294,-531,0,0,0,0,0,0,0,0,0,-1,1518,1555,0,0
301,-531,0,0,0,0,0,0,0,0,0,-1,1525,1555,0,0
308,-531,0,0,0,0,0,0,0,0,0,-1,1532,1555,0,0
315,-531,0,0,0,0,0,0,0,0,0,-1,1539,1555,0,0
322,-531,0,0,0,0,0,0,0,0,0,-1,1546,1555,0,0
329,-531,0,0,0,0,0,0,0,0,0,-1,1553,1555,0,0
336,-531,0,0,0,0,0,0,0,0,0,-1,1560,1555,0,0
343,-531,0,0,0,0,0,0,0,0,0,-1,1567,1555,0,0
350,-531,0,0,0,0,0,0,0,0,0,-1,1574,1555,0,0
357,-531,0,0,0,0,0,0,0,0,0,-1,1581,1555,0,0
364,-531,0,0,0,0,0,0,0,0,0,-1,1588,1555,0,0
371,-531,0,0,0,0,0,0,0,0,0,-1,1595,1555,0,0
378,-531,0,0,0,0,0,0,0,0,0,-1,1602,1555,0,0
385,-531,3.13403,1.88721,0,0,0,0,0,0,0,-1,1609,1555,3.13401,-1.88726
392,-531,10.5293,8.8125,0,0,0,0,0,0,0,-1,1616,1555,10.5293,-8.81247
399,-531,8.26306,5.29602,0,0,0,0,0,0,0,-1,1623,1555,8.26302,-5.29607
406,-531,8.26147,5.42712,0,0,0,0,0,0,0,-1,1630,1555,8.26145,-5.42716
413,-531,8.20618,5.75012,0,0,0,0,0,0,0,-1,1637,1555,8.20619,-5.75017
420,-531,7.64868,7.09558,0,0,0,0,0,0,0,-1,1644,1555,7.64867,-7.09564
427,-531,9.93054,11.8412,0,0,0,0,0,0,0,-1,1651,1555,9.93059,-11.8412
434,-531,10.244,11.7072,0,0,0,0,0,0,0,-1,1658,1555,10.244,-11.7071
441,-531,11.4528,12.9397,0,0,0,0,0,0,0,-1,1665,1555,11.4528,-12.9397
448,-531,8.70752,11.1261,0,0,0,0,0,0,0,-1,1672,1555,8.70751,-11.126
455,-531,12.9326,9.57043,0,0,0,0,0,0,0,-1,1679,1555,12.9327,-9.57042
462,-531,12.7446,10.3729,0,0,0,0,0,0,0,-1,1686,1555,12.7446,-10.373
469,-531,11.5894,11.324,0,0,0,0,0,0,0,-1,1693,1555,11.5893,-11.324
476,-531,10.9968,11.8568,0,0,0,0,0,0,0,-1,1700,1555,10.9969,-11.8568
483,-531,10.5748,12.0574,-0.0254483,-0.0468378,0.0482769,0.0133043,-0.0855904,0.676394,0.0619729,0.0497497,1707,1555,10.5748,-12.0573
490,-531,10.5024,12.8223,-0.0216539,-0.0366042,0.0395087,0.0110806,-0.0693388,0.691902,0.0503276,0.036425,1714,1555,10.5024,-12.8222
497,-531,10.2096,12.9727,-0.0180309,-0.0281296,0.0315394,0.00886082,-0.0550213,0.706024,0.0399633,0.0195623,1721,1555,10.2096,-12.9727
504,-531,10.1891,12.7908,-0.0148959,-0.0211874,0.0247269,0.00688454,-0.0429678,0.722128,0.0311943,0.0121103,1728,1555,10.1891,-12.7908
511,-531,10.1913,12.5173,-0.0117441,-0.0156095,0.0186709,0.00509392,-0.0324474,0.733825,0.0235142,0.0128404,1735,1555,10.1913,-12.5173
518,-531,10.2047,12.2646,-0.0087493,-0.0103824,0.0135344,0.00399318,-0.0231249,0.755269,0.0169056,0.0138512,1742,1555,10.2047,-12.2646
525,-531,10.2177,12.0586,-0.00613963,-0.00721363,0.00943358,0.00277223,-0.0161255,0.756967,0.0117836,0.0130249,1749,1555,10.2177,-12.0586
532,-531,10.2351,11.8043,-0.00399108,-0.00463184,0.00625389,0.00195063,-0.0105735,0.759806,0.00778117,0.00990599,1756,1555,10.2351,-11.8043
539,-531,10.2194,11.5598,-0.00204944,-0.00249243,0.00330188,0.00103837,-0.00558024,0.751908,0.00411024,0.0122227,1763,1555,10.2194,-11.5598
546,-531,10.1829,11.3391,-0.000418771,-0.000785957,0.0013877,0.000797425,-0.00200215,0.71963,0.00166548,0.0154969,1770,1555,10.1829,-11.3392
553,-531,10.1913,11.1407,0.00124379,0.000229066,-0.000106517,0.00125485,0.000218005,-0.103469,0.000774197,0.0274726,1777,1555,10.1913,-11.1408
560,-531,10.1342,10.8893,0.00335545,0.00197281,-0.00193875,0.00472244,0.000605817,-0.614136,0.00296704,0.0320777,1784,1555,10.1342,-10.8892
567,-531,10.1294,10.6053,0.00518604,0.00324807,-0.00340998,0.00776204,0.000672071,-0.646967,0.00496585,0.0195535,1791,1555,10.1294,-10.6054
574,-531,10.1906,10.3568,0.00738468,0.00488182,-0.00512363,0.0114075,0.00085901,-0.66562,0.00733545,0.0128435,1798,1555,10.1906,-10.3568
581,-531,10.2156,10.0702,0.0101517,0.00729236,-0.00716921,0.0160324,0.00141168,-0.686979,0.0102502,0.0115852,1805,1555,10.2155,-10.0702
588,-531,10.2198,9.755,0.0136679,0.0101316,-0.00980881,0.0218666,0.00193285,-0.696226,0.0139781,0.0168377,1812,1555,10.2199,-9.75495
595,-531,10.2032,9.43115,0.018146,0.0142356,-0.0132728,0.0296068,0.00277481,-0.712269,0.018881,0.0349618,1819,1555,10.2033,-9.43121
602,-531,10.3713,9.01001,0,0,0,0,0,0,0,-1,1826,1555,10.3713,-9.01007
609,-531,11.5801,7.81152,0,0,0,0,0,0,0,-1,1833,1555,11.5801,-7.8115
616,-531,10.5723,7.17859,0,0,0,0,0,0,0,-1,1840,1555,10.5723,-7.17855
623,-531,10.0674,5.08984,0,0,0,0,0,0,0,-1,1847,1555,10.0674,-5.08981
630,-531,11.672,3.18909,0,0,0,0,0,0,0,-1,1854,1555,11.672,-3.18904
637,-531,13.2546,1.38965,0,0,0,0,0,0,0,-1,1861,1555,13.2547,-1.3896
644,-531,0,0,0,0,0,0,0,0,0,-1,1868,1555,0,0
651,-531,0,0,0,0,0,0,0,0,0,-1,1875,1555,0,0
658,-531,0,0,0,0,0,0,0,0,0,-1,1882,1555,0,0
665,-531,0,0,0,0,0,0,0,0,0,-1,1889,1555,0,0
672,-531,0,0,0,0,0,0,0,0,0,-1,1896,1555,0,0
679,-531,0,0,0,0,0,0,0,0,0,-1,1903,1555,0,0
686,-531,0,0,0,0,0,0,0,0,0,-1,1910,1555,0,0
693,-531,0,0,0,0,0,0,0,0,0,-1,1917,1555,0,0
700,-531,0,0,0,0,0,0,0,0,0,-1,1924,1555,0,0
707,-531,0,0,0,0,0,0,0,0,0,-1,1931,1555,0,0
714,-531,0,0,0,0,0,0,0,0,0,-1,1938,1555,0,0
721,-531,0,0,0,0,0,0,0,0,0,-1,1945,1555,0,0
728,-531,0,0,0,0,0,0,0,0,0,-1,1952,1555,0,0
735,-531,0,0,0,0,0,0,0,0,0,-1,1959,1555,0,0
742,-531,0,0,0,0,0,0,0,0,0,-1,1966,1555,0,0
749,-531,0,0,0,0,0,0,0,0,0,-1,1973,1555,0,0
756,-531,0,0,0,0,0,0,0,0,0,-1,1980,1555,0,0
763,-531,0,0,0,0,0,0,0,0,0,-1,1987,1555,0,0
770,-531,0,0,0,0,0,0,0,0,0,-1,1994,1555,0,0
777,-531,0,0,0,0,0,0,0,0,0,-1,2001,1555,0,0
784,-531,0,0,0,0,0,0,0,0,0,-1,2008,1555,0,0
791,-531,0,0,0,0,0,0,0,0,0,-1,2015,1555,0,0
798,-531,0,0,0,0,0,0,0,0,0,-1,2022,1555,0,0
805,-531,0,0,0,0,0,0,0,0,0,-1,2029,1555,0,0
812,-531,0,0,0,0,0,0,0,0,0,-1,2036,1555,0,0
-700,-538,0,0,0,0,0,0,0,0,0,-1,524,1562,0,0
-693,-538,0,0,0,0,0,0,0,0,0,-1,531,1562,0,0
-686,-538,0,0,0,0,0,0,0,0,0,-1,538,1562,0,0
-679,-538,0,0,0,0,0,0,0,0,0,-1,545,1562,0,0
-672,-538,0,0,0,0,0,0,0,0,0,-1,552,1562,0,0
-665,-538,0,0,0,0,0,0,0,0,0,-1,559,1562,0,0
-658,-538,0,0,0,0,0,0,0,0,0,-1,566,1562,0,0
-651,-538,0,0,0,0,0,0,0,0,0,-1,573,1562,0,0
-644,-538,0,0,0,0,0,0,0,0,0,-1,580,1562,0,0
-637,-538,0,0,0,0,0,0,0,0,0,-1,587,1562,0,0
-630,-538,0,0,0,0,0,0,0,0,0,-1,594,1562,0,0
-623,-538,0,0,0,0,0,0,0,0,0,-1,601,1562,0,0
-616,-538,0,0,0,0,0,0,0,0,0,-1,608,1562,0,0
-609,-538,0,0,0,0,0,0,0,0,0,-1,615,1562,0,0
-602,-538,0,0,0,0,0,0,0,0,0,-1,622,1562,0,0
-595,-538,0,0,0,0,0,0,0,0,0,-1,629,1562,0,0
-588,-538,0,0,0,0,0,0,0,0,0,-1,636,1562,0,0
-581,-538,0,0,0,0,0,0,0,0,0,-1,643,1562,0,0
-574,-538,0,0,0,0,0,0,0,0,0,-1,650,1562,0,0
-567,-538,0,0,0,0,0,0,0,0,0,-1,657,1562,0,0
-560,-538,0,0,0,0,0,0,0,0,0,-1,664,1562,0,0
-553,-538,0,0,0,0,0,0,0,0,0,-1,671,1562,0,0
-546,-538,0,0,0,0,0,0,0,0,0,-1,678,1562,0,0
-539,-538,0,0,0,0,0,0,0,0,0,-1,685,1562,0,0
-532,-538,0,0,0,0,0,0,0,0,0,-1,692,1562,0,0
-525,-538,0,0,0,0,0,0,0,0,0,-1,699,1562,0,0
-518,-538,0,0,0,0,0,0,0,0,0,-1,706,1562,0,0
-511,-538,-2.6582,-1.54321,0,0,0,0,0,0,0,-1,713,1562,-2.65821,1.54327
-504,-538,-2.66455,-0.71167,0,0,0,0,0,0,0,-1,720,1562,-2.66456,0.711667
-497,-538,-0.763855,6.77747,0,0,0,0,0,0,0,-1,727,1562,-0.76385,-6.77743
-490,-538,-1.9967,7.75867,0,0,0,0,0,0,0,-1,734,1562,-1.99668,-7.75863
-483,-538,-1.99213,7.823,0,0,0,0,0,0,0,-1,741,1562,-1.99211,-7.82294
-476,-538,-1.70392,8.24719,0,0,0,0,0,0,0,-1,748,1562,-1.70393,-8.24722
-469,-538,-1.44592,8.42029,0,0,0,0,0,0,0,-1,755,1562,-1.4459,-8.42034
-462,-538,-0.783691,8.3479,0.0208821,-0.0104876,0.0102425,0.0239302,-0.0135357,0.289248,0.0219067,0.0439752,762,1562,-0.783686,-8.34794
-455,-538,-0.297241,8.56592,0.0161069,-0.00808755,0.00733037,0.0181546,-0.0101352,0.272393,0.0165504,0.0379789,769,1562,-0.297221,-8.5659
-448,-538,-0.0844727,8.6333,0.0120161,-0.00603337,0.00505999,0.0133379,-0.0073551,0.255503,0.0121124,0.0169109,776,1562,-0.084465,-8.63334
-441,-538,-0.118958,8.91223,0.00874813,-0.00427736,0.00337143,0.00956903,-0.00509826,0.23884,0.0085983,0.0157896,783,1562,-0.118977,-8.91226
-434,-538,-0.137024,9.13586,0.00621928,-0.00289158,0.00195877,0.00662255,-0.00329485,0.203043,0.00583227,0.0116384,790,1562,-0.137053,-9.13591
-427,-538,-0.135803,9.40601,0.00425178,-0.00166933,0.00117132,0.00447507,-0.00189262,0.188372,0.00377582,0.0130174,797,1562,-0.13581,-9.40606
-420,-538,-0.173584,9.68384,0.00307354,-0.000614528,0.000708039,0.0032048,-0.000745786,0.183302,0.00242368,0.0173885,804,1562,-0.173602,-9.68384
-413,-538,-0.200928,9.98584,0.00255892,0.00011285,0.0005332,0.00267009,1.67498e-06,0.205561,0.0017795,0.0178821,811,1562,-0.200899,-9.98581
-406,-538,-0.157959,10.23,0.00224592,0.00050333,0.000489522,0.00237402,0.000375232,0.255941,0.00147361,0.0140983,818,1562,-0.157971,-10.23
-399,-538,-0.135742,10.4945,0.00236675,0.000869726,0.000687582,0.00263462,0.000601852,0.371498,0.00159413,0.0135316,825,1562,-0.135728,-10.4945
-392,-538,-0.128357,10.7661,0.00270467,0.00140605,0.000825688,0.00310577,0.00100495,0.452206,0.00182995,0.0143571,832,1562,-0.128336,-10.7661
-385,-538,-0.143921,11.0229,0.0031999,0.00226812,0.000745882,0.00361344,0.00185458,0.506235,0.00208646,0.0117415,839,1562,-0.143898,-11.0229
-378,-538,-0.148193,11.2769,0.00465432,0.00309738,0.00101197,0.0051526,0.0025991,0.457539,0.0029749,0.00954228,846,1562,-0.148208,-11.2768
-371,-538,-0.158752,11.5303,0.0057637,0.00424956,0.00111239,0.0063522,0.00366105,0.486611,0.00368167,0.0111459,853,1562,-0.158777,-11.5303
-364,-538,-0.141113,11.8353,0.00725373,0.00558868,0.00113061,0.00782526,0.00501715,0.468044,0.00457753,0.0121146,860,1562,-0.141137,-11.8353
-357,-538,-0.140015,12.0854,0.00920809,0.00703107,0.00105636,0.00963641,0.00660276,0.385206,0.00568936,0.0222446,867,1562,-0.140001,-12.0855
-350,-538,-0.30719,12.3231,0.0116457,0.00841666,0.000895351,0.0118774,0.00818502,0.253168,0.00701902,0.034024,874,1562,-0.307197,-12.3232
-343,-538,-0.458496,12.801,0.0147487,0.00983843,0.000712574,0.01485,0.00973711,0.141238,0.00871113,0.0445936,881,1562,-0.458499,-12.801
-336,-538,-0.47168,13.1997,0.0186729,0.0110781,0.000534688,0.0187104,0.0110406,0.0699418,0.0108607,0.0442623,888,1562,-0.471696,-13.1997
-329,-538,-0.163818,13.1158,0.0236427,0.0129004,0.000718929,0.0236906,0.0128525,0.0665297,0.0136942,0.0443959,895,1562,-0.163826,-13.1159
-322,-538,1.68494,14.9458,0,0,0,0,0,0,0,-1,902,1562,1.68496,-14.9459
-315,-538,1.56982,14.2257,0,0,0,0,0,0,0,-1,909,1562,1.56984,-14.2257
-308,-538,1.53809,13.5022,0,0,0,0,0,0,0,-1,916,1562,1.53811,-13.5021
-301,-538,1.48761,12.7886,0,0,0,0,0,0,0,-1,923,1562,1.48761,-12.7886
-294,-538,1.23138,14.0757,0,0,0,0,0,0,0,-1,930,1562,1.23137,-14.0757
-287,-538,-2.15009,12.8256,0,0,0,0,0,0,0,-1,937,1562,-2.15011,-12.8256
-280,-538,-3.13525,14.0911,0,0,0,0,0,0,0,-1,944,1562,-3.13524,-14.091
-273,-538,-4.22534,15.1093,0,0,0,0,0,0,0,-1,951,1562,-4.22532,-15.1093
-266,-538,-5.1861,15.9336,0,0,0,0,0,0,0,-1,958,1562,-5.18609,-15.9336
-259,-538,-5.89642,16.5184,0,0,0,0,0,0,0,-1,965,1562,-5.89644,-16.5184
-252,-538,0,0,0,0,0,0,0,0,0,-1,972,1562,0,0
-245,-538,0,0,0,0,0,0,0,0,0,-1,979,1562,0,0
-238,-538,0,0,0,0,0,0,0,0,0,-1,986,1562,0,0
-231,-538,0,0,0,0,0,0,0,0,0,-1,993,1562,0,0
-224,-538,0,0,0,0,0,0,0,0,0,-1,1000,1562,0,0
-217,-538,0,0,0,0,0,0,0,0,0,-1,1007,1562,0,0
-210,-538,0,0,0,0,0,0,0,0,0,-1,1014,1562,0,0
-203,-538,0,0,0,0,0,0,0,0,0,-1,1021,1562,0,0
-196,-538,0,0,0,0,0,0,0,0,0,-1,1028,1562,0,0
-189,-538,0,0,0,0,0,0,0,0,0,-1,1035,1562,0,0
-182,-538,0,0,0,0,0,0,0,0,0,-1,1042,1562,0,0
-175,-538,0,0,0,0,0,0,0,0,0,-1,1049,1562,0,0
-168,-538,0,0,0,0,0,0,0,0,0,-1,1056,1562,0,0
-161,-538,0,0,0,0,0,0,0,0,0,-1,1063,1562,0,0
-154,-538,0,0,0,0,0,0,0,0,0,-1,1070,1562,0,0
-147,-538,0,0,0,0,0,0,0,0,0,-1,1077,1562,0,0
-140,-538,0,0,0,0,0,0,0,0,0,-1,1084,1562,0,0
-133,-538,0,0,0,0,0,0,0,0,0,-1,1091,1562,0,0
-126,-538,0,0,0,0,0,0,0,0,0,-1,1098,1562,0,0
-119,-538,0,0,0,0,0,0,0,0,0,-1,1105,1562,0,0
-112,-538,0,0,0,0,0,0,0,0,0,-1,1112,1562,0,0
-105,-538,0,0,0,0,0,0,0,0,0,-1,1119,1562,0,0
-98,-538,0,0,0,0,0,0,0,0,0,-1,1126,1562,0,0
-91,-538,0,0,0,0,0,0,0,0,0,-1,1133,1562,0,0
-84,-538,0,0,0,0,0,0,0,0,0,-1,1140,1562,0,0
-77,-538,0,0,0,0,0,0,0,0,0,-1,1147,1562,0,0
-70,-538,0,0,0,0,0,0,0,0,0,-1,1154,1562,0,0
-63,-538,0,0,0,0,0,0,0,0,0,-1,1161,1562,0,0
-56,-538,0,0,0,0,0,0,0,0,0,-1,1168,1562,0,0
-49,-538,0,0,0,0,0,0,0,0,0,-1,1175,1562,0,0
-42,-538,0,0,0,0,0,0,0,0,0,-1,1182,1562,0,0
-35,-538,0,0,0,0,0,0,0,0,0,-1,1189,1562,0,0
-28,-538,0,0,0,0,0,0,0,0,0,-1,1196,1562,0,0
-21,-538,0,0,0,0,0,0,0,0,0,-1,1203,1562,0,0
-14,-538,0,0,0,0,0,0,0,0,0,-1,1210,1562,0,0
-7,-538,0,0,0,0,0,0,0,0,0,-1,1217,1562,0,0
0,-538,0,0,0,0,0,0,0,0,0,-1,1224,1562,0,0
7,-538,0,0,0,0,0,0,0,0,0,-1,1231,1562,0,0
14,-538,0,0,0,0,0,0,0,0,0,-1,1238,1562,0,0
21,-538,0,0,0,0,0,0,0,0,0,-1,1245,1562,0,0
28,-538,0,0,0,0,0,0,0,0,0,-1,1252,1562,0,0
35,-538,0,0,0,0,0,0,0,0,0,-1,1259,1562,0,0
42,-538,0,0,0,0,0,0,0,0,0,-1,1266,1562,0,0
49,-538,0,0,0,0,0,0,0,0,0,-1,1273,1562,0,0
56,-538,0,0,0,0,0,0,0,0,0,-1,1280,1562,0,0
63,-538,0,0,0,0,0,0,0,0,0,-1,1287,1562,0,0
70,-538,0,0,0,0,0,0,0,0,0,-1,1294,1562,0,0
77,-538,0,0,0,0,0,0,0,0,0,-1,1301,1562,0,0
84,-538,0,0,0,0,0,0,0,0,0,-1,1308,1562,0,0
91,-538,0,0,0,0,0,0,0,0,0,-1,1315,1562,0,0
98,-538,0,0,0,0,0,0,0,0,0,-1,1322,1562,0,0
105,-538,0,0,0,0,0,0,0,0,0,-1,1329,1562,0,0
112,-538,0,0,0,0,0,0,0,0,0,-1,1336,1562,0,0
119,-538,0,0,0,0,0,0,0,0,0,-1,1343,1562,0,0
126,-538,0,0,0,0,0,0,0,0,0,-1,1350,1562,0,0
133,-538,0,0,0,0,0,0,0,0,0,-1,1357,1562,0,0
140,-538,0,0,0,0,0,0,0,0,0,-1,1364,1562,0,0
147,-538,0,0,0,0,0,0,0,0,0,-1,1371,1562,0,0
154,-538,0,0,0,0,0,0,0,0,0,-1,1378,1562,0,0
161,-538,0,0,0,0,0,0,0,0,0,-1,1385,1562,0,0
168,-538,0,0,0,0,0,0,0,0,0,-1,1392,1562,0,0
175,-538,0,0,0,0,0,0,0,0,0,-1,1399,1562,0,0
182,-538,0,0,0,0,0,0,0,0,0,-1,1406,1562,0,0
189,-538,0,0,0,0,0,0,0,0,0,-1,1413,1562,0,0
196,-538,0,0,0,0,0,0,0,0,0,-1,1420,1562,0,0
203,-538,0,0,0,0,0,0,0,0,0,-1,1427,1562,0,0
210,-538,0,0,0,0,0,0,0,0,0,-1,1434,1562,0,0
217,-538,0,0,0,0,0,0,0,0,0,-1,1441,1562,0,0
224,-538,0,0,0,0,0,0,0,0,0,-1,1448,1562,0,0
231,-538,0,0,0,0,0,0,0,0,0,-1,1455,1562,0,0
238,-538,0,0,0,0,0,0,0,0,0,-1,1462,1562,0,0
245,-538,0,0,0,0,0,0,0,0,0,-1,1469,1562,0,0
252,-538,0,0,0,0,0,0,0,0,0,-1,1476,1562,0,0
259,-538,0,0,0,0,0,0,0,0,0,-1,1483,1562,0,0
266,-538,0,0,0,0,0,0,0,0,0,-1,1490,1562,0,0
273,-538,0,0,0,0,0,0,0,0,0,-1,1497,1562,0,0
280,-538,0,0,0,0,0,0,0,0,0,-1,1504,1562,0,0
287,-538,0,0,0,0,0,0,0,0,0,-1,1511,1562,0,0
294,-538,0,0,0,0,0,0,0,0,0,-1,1518,1562,0,0
301,-538,0,0,0,0,0,0,0,0,0,-1,1525,1562,0,0
308,-538,0,0,0,0,0,0,0,0,0,-1,1532,1562,0,0
315,-538,0,0,0,0,0,0,0,0,0,-1,1539,1562,0,0
322,-538,0,0,0,0,0,0,0,0,0,-1,1546,1562,0,0
329,-538,0,0,0,0,0,0,0,0,0,-1,1553,1562,0,0
336,-538,0,0,0,0,0,0,0,0,0,-1,1560,1562,0,0
343,-538,0,0,0,0,0,0,0,0,0,-1,1567,1562,0,0
350,-538,0,0,0,0,0,0,0,0,0,-1,1574,1562,0,0
357,-538,0,0,0,0,0,0,0,0,0,-1,1581,1562,0,0
364,-538,0,0,0,0,0,0,0,0,0,-1,1588,1562,0,0
371,-538,0,0,0,0,0,0,0,0,0,-1,1595,1562,0,0
378,-538,9.65479,5.82434,0,0,0,0,0,0,0,-1,1602,1562,9.6548,-5.82439
385,-538,9.65552,8.01746,0,0,0,0,0,0,0,-1,1609,1562,9.65546,-8.01741
392,-538,8.20361,7.07214,0,0,0,0,0,0,0,-1,1616,1562,8.20362,-7.07211
399,-538,7.85425,4.70508,0,0,0,0,0,0,0,-1,1623,1562,7.85425,-4.70512
406,-538,7.77734,4.96094,0,0,0,0,0,0,0,-1,1630,1562,7.77729,-4.96097
413,-538,13.0446,13.1765,0,0,0,0,0,0,0,-1,1637,1562,13.0446,-13.1765
420,-538,9.96216,12.7653,0,0,0,0,0,0,0,-1,1644,1562,9.96221,-12.7653
427,-538,10.1732,14.5863,0,0,0,0,0,0,0,-1,1651,1562,10.1732,-14.5863
434,-538,9.7074,12.6926,0,0,0,0,0,0,0,-1,1658,1562,9.70735,-12.6926
441,-538,10.821,12.9027,0,0,0,0,0,0,0,-1,1665,1562,10.8211,-12.9028
448,-538,11.9348,13.1129,0,0,0,0,0,0,0,-1,1672,1562,11.9348,-13.1129
455,-538,11.25,10.3341,0,0,0,0,0,0,0,-1,1679,1562,11.25,-10.3341
462,-538,11.0485,11.1138,-0.0249271,-0.0665907,0.0591161,0.0169202,-0.108438,0.615998,0.078542,0.0444376,1686,1562,11.0484,-11.1137
469,-538,10.819,11.8206,0,0,0,0,0,0,0,-1,1693,1562,10.819,-11.8206
476,-538,10.4567,12.5045,0,0,0,0,0,0,0,-1,1700,1562,10.4566,-12.5045
483,-538,10.111,13.054,0,0,0,0,0,0,0,-1,1707,1562,10.111,-13.0539
490,-538,9.95789,13.1709,-0.0158551,-0.0282538,0.0302509,0.00882511,-0.0529341,0.684332,0.0385691,0.0147521,1714,1562,9.95788,-13.1709
497,-538,9.96729,13.0076,-0.0131926,-0.0217398,0.024183,0.00709154,-0.0420239,0.697942,0.0306545,0.0100294,1721,1562,9.96732,-13.0076
504,-538,9.96875,12.7797,-0.0108462,-0.0162356,0.0188722,0.00552274,-0.0326045,0.714484,0.0237919,0.0089831,1728,1562,9.9687,-12.7797
511,-538,9.96216,12.5317,-0.00839681,-0.0116987,0.0140062,0.00405535,-0.0241509,0.726732,0.0176087,0.00937646,1735,1562,9.96221,-12.5318
518,-538,9.96411,12.2941,-0.00598298,-0.00743752,0.00983242,0.00314903,-0.0165695,0.748482,0.0122319,0.010281,1742,1562,9.96406,-12.2941
525,-538,9.9646,12.0504,-0.00383526,-0.00488594,0.00651144,0.002172,-0.0108932,0.745146,0.00808399,0.0112445,1749,1562,9.9646,-12.0504
532,-538,9.97363,11.7988,-0.00202696,-0.00280007,0.00392168,0.00152717,-0.0063542,0.736273,0.00482641,0.0120525,1756,1562,9.9736,-11.7988
539,-538,9.94568,11.5737,-0.000413294,-0.00115915,0.00159989,0.000856552,-0.002429,0.670894,0.001968,0.015106,1763,1562,9.94563,-11.5737
546,-538,9.92419,11.3403,0.000935189,0.000102757,0.000149856,0.000961344,7.66014e-05,0.172798,0.00061695,0.0167172,1770,1562,9.92424,-11.3403
553,-538,9.97266,11.0902,0.00243913,0.000803,-0.00102736,0.00293434,0.000307784,-0.449165,0.00186213,0.0254148,1777,1562,9.97263,-11.0902
560,-538,9.94287,10.8694,0.0045936,0.00244812,-0.00276393,0.00648566,0.000556053,-0.600286,0.00415085,0.027403,1784,1562,9.94283,-10.8694
567,-538,9.87964,10.5892,0.00652534,0.00373039,-0.00419425,0.0095488,0.000706923,-0.624589,0.0061438,0.0206445,1791,1562,9.87966,-10.5893
574,-538,9.93018,10.3322,0.00892009,0.00536315,-0.00599648,0.0133963,0.000886965,-0.641238,0.00865037,0.0129211,1798,1562,9.93014,-10.3322
581,-538,9.98877,10.0521,0.0121214,0.00793542,-0.00832479,0.0186123,0.00144456,-0.662241,0.0119558,0.0145748,1805,1562,9.98873,-10.0521
588,-538,10.0201,9.8324,0.0163841,0.0112585,-0.0115987,0.0256998,0.00194282,-0.676668,0.0165237,0.0316544,1812,1562,10.0202,-9.83236
595,-538,9.92603,9.38757,0,0,0,0,0,0,0,-1,1819,1562,9.92599,-9.38763
602,-538,10.1614,8.05017,0,0,0,0,0,0,0,-1,1826,1562,10.1614,-8.05018
609,-538,10.1046,7.05713,0,0,0,0,0,0,0,-1,1833,1562,10.1046,-7.05719
616,-538,9.92249,5.43506,0,0,0,0,0,0,0,-1,1840,1562,9.92254,-5.43507
623,-538,11.1711,4.31604,0,0,0,0,0,0,0,-1,1847,1562,11.1711,-4.316
630,-538,12.6112,2.61633,0,0,0,0,0,0,0,-1,1854,1562,12.6112,-2.61637
637,-538,0,0,0,0,0,0,0,0,0,-1,1861,1562,0,0
644,-538,0,0,0,0,0,0,0,0,0,-1,1868,1562,0,0
651,-538,0,0,0,0,0,0,0,0,0,-1,1875,1562,0,0
658,-538,0,0,0,0,0,0,0,0,0,-1,1882,1562,0,0
665,-538,0,0,0,0,0,0,0,0,0,-1,1889,1562,0,0
672,-538,0,0,0,0,0,0,0,0,0,-1,1896,1562,0,0
679,-538,0,0,0,0,0,0,0,0,0,-1,1903,1562,0,0
686,-538,0,0,0,0,0,0,0,0,0,-1,1910,1562,0,0
693,-538,0,0,0,0,0,0,0,0,0,-1,1917,1562,0,0
700,-538,0,0,0,0,0,0,0,0,0,-1,1924,1562,0,0
707,-538,0,0,0,0,0,0,0,0,0,-1,1931,1562,0,0
714,-538,0,0,0,0,0,0,0,0,0,-1,1938,1562,0,0
721,-538,0,0,0,0,0,0,0,0,0,-1,1945,1562,0,0
728,-538,0,0,0,0,0,0,0,0,0,-1,1952,1562,0,0
735,-538,0,0,0,0,0,0,0,0,0,-1,1959,1562,0,0
742,-538,0,0,0,0,0,0,0,0,0,-1,1966,1562,0,0
749,-538,0,0,0,0,0,0,0,0,0,-1,1973,1562,0,0
756,-538,0,0,0,0,0,0,0,0,0,-1,1980,1562,0,0
763,-538,0,0,0,0,0,0,0,0,0,-1,1987,1562,0,0
770,-538,0,0,0,0,0,0,0,0,0,-1,1994,1562,0,0
777,-538,0,0,0,0,0,0,0,0,0,-1,2001,1562,0,0
784,-538,0,0,0,0,0,0,0,0,0,-1,2008,1562,0,0
791,-538,0,0,0,0,0,0,0,0,0,-1,2015,1562,0,0
798,-538,0,0,0,0,0,0,0,0,0,-1,2022,1562,0,0
805,-538,0,0,0,0,0,0,0,0,0,-1,2029,1562,0,0
812,-538,0,0,0,0,0,0,0,0,0,-1,2036,1562,0,0
-700,-545,0,0,0,0,0,0,0,0,0,-1,524,1569,0,0
-693,-545,0,0,0,0,0,0,0,0,0,-1,531,1569,0,0
-686,-545,0,0,0,0,0,0,0,0,0,-1,538,1569,0,0
-679,-545,0,0,0,0,0,0,0,0,0,-1,545,1569,0,0
-672,-545,0,0,0,0,0,0,0,0,0,-1,552,1569,0,0
-665,-545,0,0,0,0,0,0,0,0,0,-1,559,1569,0,0
-658,-545,0,0,0,0,0,0,0,0,0,-1,566,1569,0,0
-651,-545,0,0,0,0,0,0,0,0,0,-1,573,1569,0,0
-644,-545,0,0,0,0,0,0,0,0,0,-1,580,1569,0,0
-637,-545,0,0,0,0,0,0,0,0,0,-1,587,1569,0,0
-630,-545,0,0,0,0,0,0,0,0,0,-1,594,1569,0,0
-623,-545,0,0,0,0,0,0,0,0,0,-1,601,1569,0,0
-616,-545,0,0,0,0,0,0,0,0,0,-1,608,1569,0,0
-609,-545,0,0,0,0,0,0,0,0,0,-1,615,1569,0,0
-602,-545,0,0,0,0,0,0,0,0,0,-1,622,1569,0,0
-595,-545,0,0,0,0,0,0,0,0,0,-1,629,1569,0,0
-588,-545,0,0,0,0,0,0,0,0,0,-1,636,1569,0,0
-581,-545,0,0,0,0,0,0,0,0,0,-1,643,1569,0,0
-574,-545,0,0,0,0,0,0,0,0,0,-1,650,1569,0,0
-567,-545,0,0,0,0,0,0,0,0,0,-1,657,1569,0,0
-560,-545,0,0,0,0,0,0,0,0,0,-1,664,1569,0,0
-553,-545,0,0,0,0,0,0,0,0,0,-1,671,1569,0,0
-546,-545,0,0,0,0,0,0,0,0,0,-1,678,1569,0,0
-539,-545,0,0,0,0,0,0,0,0,0,-1,685,1569,0,0
-532,-545,0,0,0,0,0,0,0,0,0,-1,692,1569,0,0
-525,-545,0,0,0,0,0,0,0,0,0,-1,699,1569,0,0
-518,-545,0,0,0,0,0,0,0,0,0,-1,706,1569,0,0
-511,-545,0,0,0,0,0,0,0,0,0,-1,713,1569,0,0
-504,-545,-3.55237,-2.5354,0,0,0,0,0,0,0,-1,720,1569,-3.55236,2.53545
-497,-545,2.26575,5.69214,0,0,0,0,0,0,0,-1,727,1569,2.26573,-5.6922
-490,-545,1.79315,6.35181,0,0,0,0,0,0,0,-1,734,1569,1.79317,-6.35185
-483,-545,-2.34454,7.82666,0,0,0,0,0,0,0,-1,741,1569,-2.34454,-7.82668
-476,-545,-1.50543,7.26208,0,0,0,0,0,0,0,-1,748,1569,-1.50542,-7.26206
-469,-545,-0.592041,7.63538,0,0,0,0,0,0,0,-1,755,1569,-0.592054,-7.63538
-462,-545,-0.600159,8.31641,0,0,0,0,0,0,0,-1,762,1569,-0.600152,-8.31644
-455,-545,-0.0356445,8.51379,0,0,0,0,0,0,0,-1,769,1569,-0.035649,-8.51375
-448,-545,0.188049,8.49133,0,0,0,0,0,0,0,-1,776,1569,0.188046,-8.49134
-441,-545,0.235474,8.89734,0.0103998,-0.00439067,0.00406027,0.0114411,-0.00543198,0.251052,0.00994548,0.0201092,783,1569,0.235503,-8.89732
-434,-545,0.111511,9.15637,0.00731366,-0.00291303,0.00234609,0.00782618,-0.00342555,0.215081,0.00665975,0.0163872,790,1569,0.111489,-9.15634
-427,-545,0.118408,9.40967,0.00479923,-0.00160272,0.00132922,0.00506424,-0.00186774,0.196794,0.00414159,0.0170109,797,1569,0.118422,-9.40966
-420,-545,0.126282,9.67517,0.00310554,-0.000694241,0.000629904,0.00320724,-0.000795941,0.160071,0.00244701,0.0234241,804,1569,0.126306,-9.67523
-413,-545,0.100586,9.9718,0.00225211,-2.84817e-05,0.000338669,0.00230134,-7.77115e-05,0.144352,0.00156078,0.0231694,811,1569,0.1006,-9.97183
-406,-545,0.103943,10.2352,0.00166362,0.000315019,0.000222669,0.00169943,0.000279205,0.159474,0.00105231,0.0168747,818,1569,0.103917,-10.2353
-399,-545,0.135681,10.4944,0.00154032,0.000565441,0.000342629,0.00164869,0.000457068,0.306341,0.000982858,0.0111915,825,1569,0.135669,-10.4944
-392,-545,0.117676,10.7573,0.00166826,0.000921185,0.000403572,0.00184463,0.000744813,0.412014,0.00107155,0.0115388,832,1569,0.117695,-10.7573
-385,-545,0.125854,11.0211,0.00196442,0.00149595,0.000260393,0.00208043,0.00137994,0.419115,0.0012223,0.00999362,839,1569,0.125851,-11.0211
-378,-545,0.122681,11.2919,0.00303079,0.00212535,0.000416949,0.00319353,0.0019626,0.372146,0.00185985,0.0113963,846,1569,0.122656,-11.2918
-371,-545,0.107117,11.5609,0.0038112,0.00299051,0.000426486,0.00399269,0.00280902,0.402343,0.00236799,0.0145382,853,1569,0.10711,-11.5609
-364,-545,0.10907,11.8099,0.00488643,0.00399933,0.0003638,0.00501654,0.00386922,0.343469,0.00303509,0.00979498,860,1569,0.10908,-11.81
-357,-545,0.142944,12.1005,0.00638903,0.0050208,0.000253801,0.00643459,0.00497524,0.177626,0.00389549,0.0111707,867,1569,0.142942,-12.1005
-350,-545,0.137817,12.3539,0.00819775,0.00599724,6.55857e-05,0.0081997,0.00599529,0.0297696,0.00489984,0.0154628,874,1569,0.137792,-12.3539
-343,-545,0.110352,12.6089,0.0104704,0.00703918,-0.000120924,0.0104746,0.00703492,-0.0351846,0.00616512,0.0237214,881,1569,0.110376,-12.6089
-336,-545,0.141296,12.8341,0.0132404,0.00786545,-0.000316662,0.013259,0.00784686,-0.0586439,0.00769799,0.033466,888,1569,0.14127,-12.8341
-329,-545,0.107605,13.1344,0.0166119,0.00893596,-0.000334985,0.0166265,0.00892137,-0.0435307,0.00960785,0.0431506,895,1569,0.107616,-13.1344
-322,-545,0.0283813,13.6578,0,0,0,0,0,0,0,-1,902,1569,0.0283509,-13.6579
-315,-545,1.54529,13.7765,0,0,0,0,0,0,0,-1,909,1569,1.5453,-13.7765
-308,-545,1.33862,13.5959,0,0,0,0,0,0,0,-1,916,1569,1.33861,-13.5959
-301,-545,1.1319,13.4154,0,0,0,0,0,0,0,-1,923,1569,1.13191,-13.4154
-294,-545,-2.69287,8.42102,0,0,0,0,0,0,0,-1,930,1569,-2.69287,-8.42097
-287,-545,-3.47784,9.96021,0,0,0,0,0,0,0,-1,937,1569,-3.47785,-9.96021
-280,-545,-4.26422,11.527,0,0,0,0,0,0,0,-1,944,1569,-4.26422,-11.527
-273,-545,-5.10333,12.864,0,0,0,0,0,0,0,-1,951,1569,-5.10331,-12.864
-266,-545,-5.78955,13.3704,0,0,0,0,0,0,0,-1,958,1569,-5.78952,-13.3703
-259,-545,-6.32184,13.8101,0,0,0,0,0,0,0,-1,965,1569,-6.32182,-13.81
-252,-545,0.369263,7.54053,0,0,0,0,0,0,0,-1,972,1569,0.369276,-7.54056
-245,-545,-0.236633,6.65564,0,0,0,0,0,0,0,-1,979,1569,-0.236605,-6.65566
-238,-545,0,0,0,0,0,0,0,0,0,-1,986,1569,0,0
-231,-545,0,0,0,0,0,0,0,0,0,-1,993,1569,0,0
-224,-545,0,0,0,0,0,0,0,0,0,-1,1000,1569,0,0
-217,-545,0,0,0,0,0,0,0,0,0,-1,1007,1569,0,0
-210,-545,0,0,0,0,0,0,0,0,0,-1,1014,1569,0,0
-203,-545,0,0,0,0,0,0,0,0,0,-1,1021,1569,0,0
-196,-545,0,0,0,0,0,0,0,0,0,-1,1028,1569,0,0
-189,-545,0,0,0,0,0,0,0,0,0,-1,1035,1569,0,0
-182,-545,0,0,0,0,0,0,0,0,0,-1,1042,1569,0,0
-175,-545,0,0,0,0,0,0,0,0,0,-1,1049,1569,0,0
-168,-545,0,0,0,0,0,0,0,0,0,-1,1056,1569,0,0
-161,-545,0,0,0,0,0,0,0,0,0,-1,1063,1569,0,0
-154,-545,0,0,0,0,0,0,0,0,0,-1,1070,1569,0,0
-147,-545,0,0,0,0,0,0,0,0,0,-1,1077,1569,0,0
-140,-545,0,0,0,0,0,0,0,0,0,-1,1084,1569,0,0
-133,-545,0,0,0,0,0,0,0,0,0,-1,1091,1569,0,0
-126,-545,0,0,0,0,0,0,0,0,0,-1,1098,1569,0,0
-119,-545,0,0,0,0,0,0,0,0,0,-1,1105,1569,0,0
-112,-545,0,0,0,0,0,0,0,0,0,-1,1112,1569,0,0
-105,-545,0,0,0,0,0,0,0,0,0,-1,1119,1569,0,0
-98,-545,0,0,0,0,0,0,0,0,0,-1,1126,1569,0,0
-91,-545,0,0,0,0,0,0,0,0,0,-1,1133,1569,0,0
-84,-545,0,0,0,0,0,0,0,0,0,-1,1140,1569,0,0
-77,-545,0,0,0,0,0,0,0,0,0,-1,1147,1569,0,0
-70,-545,0,0,0,0,0,0,0,0,0,-1,1154,1569,0,0
-63,-545,0,0,0,0,0,0,0,0,0,-1,1161,1569,0,0
-56,-545,0,0,0,0,0,0,0,0,0,-1,1168,1569,0,0
-49,-545,0,0,0,0,0,0,0,0,0,-1,1175,1569,0,0
-42,-545,0,0,0,0,0,0,0,0,0,-1,1182,1569,0,0
-35,-545,0,0,0,0,0,0,0,0,0,-1,1189,1569,0,0
-28,-545,0,0,0,0,0,0,0,0,0,-1,1196,1569,0,0
-21,-545,0,0,0,0,0,0,0,0,0,-1,1203,1569,0,0
-14,-545,0,0,0,0,0,0,0,0,0,-1,1210,1569,0,0
-7,-545,0,0,0,0,0,0,0,0,0,-1,1217,1569,0,0
0,-545,0,0,0,0,0,0,0,0,0,-1,1224,1569,0,0
7,-545,0,0,0,0,0,0,0,0,0,-1,1231,1569,0,0
14,-545,0,0,0,0,0,0,0,0,0,-1,1238,1569,0,0
21,-545,0,0,0,0,0,0,0,0,0,-1,1245,1569,0,0
28,-545,0,0,0,0,0,0,0,0,0,-1,1252,1569,0,0
35,-545,0,0,0,0,0,0,0,0,0,-1,1259,1569,0,0
42,-545,0,0,0,0,0,0,0,0,0,-1,1266,1569,0,0
49,-545,0,0,0,0,0,0,0,0,0,-1,1273,1569,0,0
56,-545,0,0,0,0,0,0,0,0,0,-1,1280,1569,0,0
63,-545,0,0,0,0,0,0,0,0,0,-1,1287,1569,0,0
70,-545,0,0,0,0,0,0,0,0,0,-1,1294,1569,0,0
77,-545,0,0,0,0,0,0,0,0,0,-1,1301,1569,0,0
84,-545,0,0,0,0,0,0,0,0,0,-1,1308,1569,0,0
91,-545,0,0,0,0,0,0,0,0,0,-1,1315,1569,0,0
98,-545,0,0,0,0,0,0,0,0,0,-1,1322,1569,0,0
105,-545,0,0,0,0,0,0,0,0,0,-1,1329,1569,0,0
112,-545,0,0,0,0,0,0,0,0,0,-1,1336,1569,0,0
119,-545,0,0,0,0,0,0,0,0,0,-1,1343,1569,0,0
126,-545,0,0,0,0,0,0,0,0,0,-1,1350,1569,0,0
133,-545,0,0,0,0,0,0,0,0,0,-1,1357,1569,0,0
140,-545,0,0,0,0,0,0,0,0,0,-1,1364,1569,0,0
147,-545,0,0,0,0,0,0,0,0,0,-1,1371,1569,0,0
154,-545,0,0,0,0,0,0,0,0,0,-1,1378,1569,0,0
161,-545,0,0,0,0,0,0,0,0,0,-1,1385,1569,0,0
168,-545,0,0,0,0,0,0,0,0,0,-1,1392,1569,0,0
175,-545,0,0,0,0,0,0,0,0,0,-1,1399,1569,0,0
182,-545,0,0,0,0,0,0,0,0,0,-1,1406,1569,0,0
189,-545,0,0,0,0,0,0,0,0,0,-1,1413,1569,0,0
196,-545,0,0,0,0,0,0,0,0,0,-1,1420,1569,0,0
203,-545,0,0,0,0,0,0,0,0,0,-1,1427,1569,0,0
210,-545,0,0,0,0,0,0,0,0,0,-1,1434,1569,0,0
217,-545,0,0,0,0,0,0,0,0,0,-1,1441,1569,0,0
224,-545,0,0,0,0,0,0,0,0,0,-1,1448,1569,0,0
231,-545,0,0,0,0,0,0,0,0,0,-1,1455,1569,0,0
238,-545,0,0,0,0,0,0,0,0,0,-1,1462,1569,0,0
245,-545,0,0,0,0,0,0,0,0,0,-1,1469,1569,0,0
252,-545,0,0,0,0,0,0,0,0,0,-1,1476,1569,0,0
259,-545,0,0,0,0,0,0,0,0,0,-1,1483,1569,0,0
266,-545,0,0,0,0,0,0,0,0,0,-1,1490,1569,0,0
273,-545,0,0,0,0,0,0,0,0,0,-1,1497,1569,0,0
280,-545,0,0,0,0,0,0,0,0,0,-1,1504,1569,0,0
287,-545,0,0,0,0,0,0,0,0,0,-1,1511,1569,0,0
294,-545,0,0,0,0,0,0,0,0,0,-1,1518,1569,0,0
301,-545,0,0,0,0,0,0,0,0,0,-1,1525,1569,0,0
308,-545,0,0,0,0,0,0,0,0,0,-1,1532,1569,0,0
315,-545,0,0,0,0,0,0,0,0,0,-1,1539,1569,0,0
322,-545,0,0,0,0,0,0,0,0,0,-1,1546,1569,0,0
329,-545,0,0,0,0,0,0,0,0,0,-1,1553,1569,0,0
336,-545,0,0,0,0,0,0,0,0,0,-1,1560,1569,0,0
343,-545,0,0,0,0,0,0,0,0,0,-1,1567,1569,0,0
350,-545,0,0,0,0,0,0,0,0,0,-1,1574,1569,0,0
357,-545,0,0,0,0,0,0,0,0,0,-1,1581,1569,0,0
364,-545,7.19495,4.88098,0,0,0,0,0,0,0,-1,1588,1569,7.19497,-4.88095
371,-545,7.82324,3.84302,0,0,0,0,0,0,0,-1,1595,1569,7.82324,-3.84307
378,-545,7.24146,4.54224,0,0,0,0,0,0,0,-1,1602,1569,7.24145,-4.54226
385,-545,8.58447,1.16125,0,0,0,0,0,0,0,-1,1609,1569,8.5845,-1.1612
392,-545,12.5654,3.89526,0,0,0,0,0,0,0,-1,1616,1569,12.5655,-3.89532
399,-545,11.5869,5.6333,0,0,0,0,0,0,0,-1,1623,1569,11.5869,-5.63326
406,-545,11.234,6.36414,0,0,0,0,0,0,0,-1,1630,1569,11.234,-6.3641
413,-545,12.1521,13.4817,0,0,0,0,0,0,0,-1,1637,1569,12.1521,-13.4817
420,-545,11.1954,13.6047,0,0,0,0,0,0,0,-1,1644,1569,11.1954,-13.6047
427,-545,8.54468,12.5972,0,0,0,0,0,0,0,-1,1651,1569,8.54464,-12.5971
434,-545,9.30994,12.7308,0,0,0,0,0,0,0,-1,1658,1569,9.30989,-12.7308
441,-545,10.0999,13.0399,0,0,0,0,0,0,0,-1,1665,1569,10.0998,-13.0399
448,-545,10.619,13.7047,0,0,0,0,0,0,0,-1,1672,1569,10.619,-13.7047
455,-545,10.6846,13.5569,0,0,0,0,0,0,0,-1,1679,1569,10.6846,-13.5569
462,-545,10.9292,13.1294,0,0,0,0,0,0,0,-1,1686,1569,10.9292,-13.1294
469,-545,9.63477,13.365,0,0,0,0,0,0,0,-1,1693,1569,9.63471,-13.365
476,-545,9.72241,13.3807,-0.0151977,-0.0339848,0.0329983,0.00971807,-0.0589006,0.646733,0.0428751,0.0389204,1700,1569,9.7224,-13.3807
483,-545,9.72266,13.4337,-0.0132572,-0.0272356,0.0275619,0.00818792,-0.0486807,0.661225,0.0354992,0.0150077,1707,1569,9.72261,-13.4337
490,-545,9.71313,13.2281,-0.0112755,-0.0213195,0.0226544,0.00690685,-0.0395018,0.676323,0.0289131,0.0107704,1714,1569,9.71315,-13.2282
497,-545,9.73169,13.0208,-0.00930697,-0.0164026,0.018066,0.00555626,-0.0312659,0.688441,0.0229216,0.0147029,1721,1569,9.73165,-13.0207
504,-545,9.76245,12.7914,-0.00753427,-0.0121076,0.0139642,0.00432921,-0.0239711,0.704242,0.0176022,0.0140333,1728,1569,9.7625,-12.7914
511,-545,9.7533,12.5322,-0.005632,-0.00848773,0.0101085,0.00314899,-0.0172687,0.715235,0.012693,0.0107977,1735,1569,9.75333,-12.5322
518,-545,9.74634,12.2933,-0.00369043,-0.00511621,0.00676656,0.00240069,-0.0112073,0.732914,0.00838711,0.0127162,1742,1569,9.7463,-12.2933
525,-545,9.7395,12.0355,-0.00191516,-0.00310389,0.00410936,0.00164259,-0.00666164,0.713578,0.00507797,0.0135518,1749,1569,9.73954,-12.0355
532,-545,9.72522,11.7861,-0.000361957,-0.00145748,0.00200815,0.0011718,-0.00299124,0.652252,0.00247886,0.0132304,1756,1569,9.72517,-11.7861
539,-545,9.69763,11.569,0.00100238,-0.000272545,0.000253607,0.00105098,-0.00032114,0.189321,0.000828705,0.0161258,1763,1569,9.69758,-11.5689
546,-545,9.67151,11.3302,0.00214007,0.000559566,-0.000790441,0.00246753,0.000232099,-0.392759,0.00157337,0.018465,1770,1569,9.67148,-11.3301
553,-545,9.72339,11.052,0.00353897,0.000970724,-0.00170154,0.00438656,0.000123127,-0.462153,0.00288421,0.0252793,1777,1569,9.72336,-11.052
560,-545,9.71863,10.7292,0.00578364,0.00250659,-0.00337849,0.00789998,0.000390258,-0.559615,0.0051415,0.0267337,1784,1569,9.71866,-10.7292
567,-545,9.60571,10.5999,0.00789555,0.00381972,-0.0048257,0.011096,0.00061927,-0.585606,0.00719979,0.043609,1791,1569,9.60569,-10.5998
574,-545,9.60156,10.3459,0.0105755,0.00545027,-0.00677914,0.0152602,0.00076557,-0.604692,0.00992814,0.0357617,1798,1569,9.60155,-10.3459
581,-545,9.78503,10.0433,0.0143164,0.00817593,-0.00947849,0.0212095,0.00128284,-0.628772,0.0137321,0.0477515,1805,1569,9.78505,-10.0433
588,-545,9.8988,9.78784,0,0,0,0,0,0,0,-1,1812,1569,9.89882,-9.78779
595,-545,10.4009,8.23193,0,0,0,0,0,0,0,-1,1819,1569,10.4009,-8.23194
602,-545,8.82117,6.32214,0,0,0,0,0,0,0,-1,1826,1569,8.82121,-6.32217
609,-545,10.2406,5.22351,0,0,0,0,0,0,0,-1,1833,1569,10.2406,-5.22353
616,-545,11.701,3.93188,0,0,0,0,0,0,0,-1,1840,1569,11.701,-3.93191
623,-545,13.2139,2.32043,0,0,0,0,0,0,0,-1,1847,1569,13.2139,-2.32042
630,-545,0,0,0,0,0,0,0,0,0,-1,1854,1569,0,0
637,-545,0,0,0,0,0,0,0,0,0,-1,1861,1569,0,0
644,-545,0,0,0,0,0,0,0,0,0,-1,1868,1569,0,0
651,-545,0,0,0,0,0,0,0,0,0,-1,1875,1569,0,0
658,-545,0,0,0,0,0,0,0,0,0,-1,1882,1569,0,0
665,-545,0,0,0,0,0,0,0,0,0,-1,1889,1569,0,0
672,-545,0,0,0,0,0,0,0,0,0,-1,1896,1569,0,0
679,-545,0,0,0,0,0,0,0,0,0,-1,1903,1569,0,0
686,-545,0,0,0,0,0,0,0,0,0,-1,1910,1569,0,0
693,-545,0,0,0,0,0,0,0,0,0,-1,1917,1569,0,0
700,-545,0,0,0,0,0,0,0,0,0,-1,1924,1569,0,0
707,-545,0,0,0,0,0,0,0,0,0,-1,1931,1569,0,0
714,-545,0,0,0,0,0,0,0,0,0,-1,1938,1569,0,0
721,-545,0,0,0,0,0,0,0,0,0,-1,1945,1569,0,0
728,-545,0,0,0,0,0,0,0,0,0,-1,1952,1569,0,0
735,-545,0,0,0,0,0,0,0,0,0,-1,1959,1569,0,0
742,-545,0,0,0,0,0,0,0,0,0,-1,1966,1569,0,0
749,-545,0,0,0,0,0,0,0,0,0,-1,1973,1569,0,0
756,-545,0,0,0,0,0,0,0,0,0,-1,1980,1569,0,0
763,-545,0,0,0,0,0,0,0,0,0,-1,1987,1569,0,0
770,-545,0,0,0,0,0,0,0,0,0,-1,1994,1569,0,0
777,-545,0,0,0,0,0,0,0,0,0,-1,2001,1569,0,0
784,-545,0,0,0,0,0,0,0,0,0,-1,2008,1569,0,0
791,-545,0,0,0,0,0,0,0,0,0,-1,2015,1569,0,0
798,-545,0,0,0,0,0,0,0,0,0,-1,2022,1569,0,0
805,-545,0,0,0,0,0,0,0,0,0,-1,2029,1569,0,0
812,-545,0,0,0,0,0,0,0,0,0,-1,2036,1569,0,0
-700,-552,0,0,0,0,0,0,0,0,0,-1,524,1576,0,0
-693,-552,0,0,0,0,0,0,0,0,0,-1,531,1576,0,0
-686,-552,0,0,0,0,0,0,0,0,0,-1,538,1576,0,0
-679,-552,0,0,0,0,0,0,0,0,0,-1,545,1576,0,0
-672,-552,0,0,0,0,0,0,0,0,0,-1,552,1576,0,0
-665,-552,0,0,0,0,0,0,0,0,0,-1,559,1576,0,0
-658,-552,0,0,0,0,0,0,0,0,0,-1,566,1576,0,0
-651,-552,0,0,0,0,0,0,0,0,0,-1,573,1576,0,0
-644,-552,0,0,0,0,0,0,0,0,0,-1,580,1576,0,0
-637,-552,0,0,0,0,0,0,0,0,0,-1,587,1576,0,0
-630,-552,0,0,0,0,0,0,0,0,0,-1,594,1576,0,0
-623,-552,0,0,0,0,0,0,0,0,0,-1,601,1576,0,0
-616,-552,0,0,0,0,0,0,0,0,0,-1,608,1576,0,0
-609,-552,0,0,0,0,0,0,0,0,0,-1,615,1576,0,0
-602,-552,0,0,0,0,0,0,0,0,0,-1,622,1576,0,0
-595,-552,0,0,0,0,0,0,0,0,0,-1,629,1576,0,0
-588,-552,0,0,0,0,0,0,0,0,0,-1,636,1576,0,0
-581,-552,0,0,0,0,0,0,0,0,0,-1,643,1576,0,0
-574,-552,0,0,0,0,0,0,0,0,0,-1,650,1576,0,0
-567,-552,0,0,0,0,0,0,0,0,0,-1,657,1576,0,0
-560,-552,0,0,0,0,0,0,0,0,0,-1,664,1576,0,0
-553,-552,0,0,0,0,0,0,0,0,0,-1,671,1576,0,0
-546,-552,0,0,0,0,0,0,0,0,0,-1,678,1576,0,0
-539,-552,0,0,0,0,0,0,0,0,0,-1,685,1576,0,0
-532,-552,0,0,0,0,0,0,0,0,0,-1,692,1576,0,0
-525,-552,0,0,0,0,0,0,0,0,0,-1,699,1576,0,0
-518,-552,0,0,0,0,0,0,0,0,0,-1,706,1576,0,0
-511,-552,0,0,0,0,0,0,0,0,0,-1,713,1576,0,0
-504,-552,0,0,0,0,0,0,0,0,0,-1,720,1576,0,0
-497,-552,1.51282,3.96924,0,0,0,0,0,0,0,-1,727,1576,1.5128,-3.96924
-490,-552,1.07428,4.69812,0,0,0,0,0,0,0,-1,734,1576,1.07429,-4.69816
-483,-552,0.41156,5.25769,0,0,0,0,0,0,0,-1,741,1576,0.411537,-5.25764
-476,-552,-0.19696,5.93909,0,0,0,0,0,0,0,-1,748,1576,-0.196953,-5.93912
-469,-552,-0.00726318,6.04614,0,0,0,0,0,0,0,-1,755,1576,-0.00723389,-6.04609
-462,-552,-0.015625,8.28796,0,0,0,0,0,0,0,-1,762,1576,-0.0156217,-8.28802
-455,-552,0.293091,8.29956,0,0,0,0,0,0,0,-1,769,1576,0.293072,-8.29962
-448,-552,0.601746,8.31116,0,0,0,0,0,0,0,-1,776,1576,0.601765,-8.31122
-441,-552,0.43158,8.68115,0.012085,-0.00416479,0.00476701,0.0133802,-0.00546,0.265297,0.0111932,0.0398663,783,1576,0.431578,-8.68117
-434,-552,0.457031,9.19958,0.00847424,-0.00267175,0.00274926,0.00911548,-0.00331299,0.229144,0.00743169,0.0229112,790,1576,0.457006,-9.19958
-427,-552,0.352295,9.4054,0.00546994,-0.00141529,0.00148498,0.00577656,-0.00172191,0.203619,0.00453531,0.0169297,797,1576,0.352299,-9.4054
-420,-552,0.398682,9.69287,0.00334338,-0.000699699,0.000569652,0.00342211,-0.000778427,0.137334,0.00258032,0.0194592,804,1576,0.398688,-9.69283
-413,-552,0.397217,9.96851,0.002211,-0.00013534,0.000172151,0.00222356,-0.000147903,0.0728501,0.00153405,0.0179216,811,1576,0.397219,-9.96847
-406,-552,0.378479,10.2424,0.00141446,0.00015395,4.728e-06,0.00141448,0.000153932,0.0037508,0.000896091,0.0134695,818,1576,0.378493,-10.2425
-399,-552,0.386597,10.4984,0.00110721,0.000300263,6.9164e-05,0.0011131,0.000294377,0.0848856,0.000665989,0.0129764,825,1576,0.386573,-10.4985
-392,-552,0.378723,10.7595,0.00107316,0.000505457,8.987e-05,0.00108704,0.00049157,0.153313,0.00062856,0.0150598,832,1576,0.378734,-10.7595
-385,-552,0.369263,11.0354,0.00121676,0.000848371,-6.507e-05,0.00122792,0.000837215,-0.169791,0.000724394,0.0145665,839,1576,0.369233,-11.0353
-378,-552,0.360046,11.2888,0.00195343,0.0013488,3.31585e-05,0.00195525,0.00134699,0.0546222,0.00115541,0.0148209,846,1576,0.360072,-11.2888
-371,-552,0.350098,11.5576,0.00249753,0.00202064,1.45724e-05,0.00249798,0.0020202,0.030519,0.00153111,0.0183515,853,1576,0.350083,-11.5576
-364,-552,0.363708,11.8069,0.00325774,0.00280553,-5.63247e-05,0.00326465,0.00279862,-0.122068,0.00203892,0.0147816,860,1576,0.363733,-11.8069
-357,-552,0.386108,12.0619,0.00441791,0.00355453,-0.000127912,0.00443646,0.00353598,-0.144031,0.00270786,0.00979983,867,1576,0.386138,-12.0619
-350,-552,0.378601,12.3279,0.00582001,0.00425058,-0.000290602,0.00587209,0.0041985,-0.177335,0.00349316,0.00910514,874,1576,0.378588,-12.3279
-343,-552,0.371582,12.5725,0.00750103,0.00496802,-0.000442235,0.00757602,0.00489303,-0.167971,0.00443562,0.00974438,881,1576,0.371593,-12.5726
-336,-552,0.438416,12.7959,0.00946385,0.00545736,-0.00060991,0.00955464,0.00536657,-0.147772,0.00553034,0.0155291,888,1576,0.438388,-12.7959
-329,-552,0.419861,13.1239,0.011757,0.0060222,-0.000714358,0.0118446,0.00593456,-0.122081,0.00683851,0.0327477,895,1576,0.419863,-13.1239
-322,-552,0.532043,13.8024,0,0,0,0,0,0,0,-1,902,1576,0.532041,-13.8024
-315,-552,0.892395,13.8258,0,0,0,0,0,0,0,-1,909,1576,0.892423,-13.8258
-308,-552,1.17603,13.5283,0,0,0,0,0,0,0,-1,916,1576,1.17605,-13.5283
-301,-552,1.08893,13.5028,0,0,0,0,0,0,0,-1,923,1576,1.08895,-13.5028
-294,-552,0.842163,13.7863,0,0,0,0,0,0,0,-1,930,1576,0.842149,-13.7863
-287,-552,-0.663757,13.3474,0,0,0,0,0,0,0,-1,937,1576,-0.663744,-13.3474
-280,-552,-5.47241,8.96765,0,0,0,0,0,0,0,-1,944,1576,-5.47239,-8.96766
-273,-552,1.64587,10.6685,0,0,0,0,0,0,0,-1,951,1576,1.6459,-10.6685
-266,-552,-1.32678,8.05688,0,0,0,0,0,0,0,-1,958,1576,-1.32677,-8.05683
-259,-552,-5.54321,8.31213,0,0,0,0,0,0,0,-1,965,1576,-5.54324,-8.31214
-252,-552,-1.93445,7.81543,0,0,0,0,0,0,0,-1,972,1576,-1.93445,-7.81546
-245,-552,-2.53613,6.92212,0,0,0,0,0,0,0,-1,979,1576,-2.53614,-6.92216
-238,-552,-6.5365,2.81885,0,0,0,0,0,0,0,-1,986,1576,-6.53649,-2.8188
-231,-552,-4.32239,4.34583,0,0,0,0,0,0,0,-1,993,1576,-4.32239,-4.34587
-224,-552,0,0,0,0,0,0,0,0,0,-1,1000,1576,0,0
-217,-552,0,0,0,0,0,0,0,0,0,-1,1007,1576,0,0
-210,-552,0,0,0,0,0,0,0,0,0,-1,1014,1576,0,0
-203,-552,0,0,0,0,0,0,0,0,0,-1,1021,1576,0,0
-196,-552,0,0,0,0,0,0,0,0,0,-1,1028,1576,0,0
-189,-552,0,0,0,0,0,0,0,0,0,-1,1035,1576,0,0
-182,-552,0,0,0,0,0,0,0,0,0,-1,1042,1576,0,0
-175,-552,0,0,0,0,0,0,0,0,0,-1,1049,1576,0,0
-168,-552,0,0,0,0,0,0,0,0,0,-1,1056,1576,0,0
-161,-552,0,0,0,0,0,0,0,0,0,-1,1063,1576,0,0
-154,-552,0,0,0,0,0,0,0,0,0,-1,1070,1576,0,0
-147,-552,0,0,0,0,0,0,0,0,0,-1,1077,1576,0,0
-140,-552,0,0,0,0,0,0,0,0,0,-1,1084,1576,0,0
-133,-552,0,0,0,0,0,0,0,0,0,-1,1091,1576,0,0
-126,-552,0,0,0,0,0,0,0,0,0,-1,1098,1576,0,0
-119,-552,0,0,0,0,0,0,0,0,0,-1,1105,1576,0,0
-112,-552,0,0,0,0,0,0,0,0,0,-1,1112,1576,0,0
-105,-552,0,0,0,0,0,0,0,0,0,-1,1119,1576,0,0
-98,-552,0,0,0,0,0,0,0,0,0,-1,1126,1576,0,0
-91,-552,0,0,0,0,0,0,0,0,0,-1,1133,1576,0,0
-84,-552,0,0,0,0,0,0,0,0,0,-1,1140,1576,0,0
-77,-552,0,0,0,0,0,0,0,0,0,-1,1147,1576,0,0
-70,-552,0,0,0,0,0,0,0,0,0,-1,1154,1576,0,0
-63,-552,0,0,0,0,0,0,0,0,0,-1,1161,1576,0,0
-56,-552,0,0,0,0,0,0,0,0,0,-1,1168,1576,0,0
-49,-552,0,0,0,0,0,0,0,0,0,-1,1175,1576,0,0
-42,-552,0,0,0,0,0,0,0,0,0,-1,1182,1576,0,0
-35,-552,0,0,0,0,0,0,0,0,0,-1,1189,1576,0,0
-28,-552,0,0,0,0,0,0,0,0,0,-1,1196,1576,0,0
-21,-552,0,0,0,0,0,0,0,0,0,-1,1203,1576,0,0
-14,-552,0,0,0,0,0,0,0,0,0,-1,1210,1576,0,0
-7,-552,0,0,0,0,0,0,0,0,0,-1,1217,1576,0,0
0,-552,0,0,0,0,0,0,0,0,0,-1,1224,1576,0,0
7,-552,0,0,0,0,0,0,0,0,0,-1,1231,1576,0,0
14,-552,0,0,0,0,0,0,0,0,0,-1,1238,1576,0,0
21,-552,0,0,0,0,0,0,0,0,0,-1,1245,1576,0,0
28,-552,0,0,0,0,0,0,0,0,0,-1,1252,1576,0,0
35,-552,0,0,0,0,0,0,0,0,0,-1,1259,1576,0,0
42,-552,0,0,0,0,0,0,0,0,0,-1,1266,1576,0,0
49,-552,0,0,0,0,0,0,0,0,0,-1,1273,1576,0,0
56,-552,0,0,0,0,0,0,0,0,0,-1,1280,1576,0,0
63,-552,0,0,0,0,0,0,0,0,0,-1,1287,1576,0,0
70,-552,0,0,0,0,0,0,0,0,0,-1,1294,1576,0,0
77,-552,0,0,0,0,0,0,0,0,0,-1,1301,1576,0,0
84,-552,0,0,0,0,0,0,0,0,0,-1,1308,1576,0,0
91,-552,0,0,0,0,0,0,0,0,0,-1,1315,1576,0,0
98,-552,0,0,0,0,0,0,0,0,0,-1,1322,1576,0,0
105,-552,0,0,0,0,0,0,0,0,0,-1,1329,1576,0,0
112,-552,0,0,0,0,0,0,0,0,0,-1,1336,1576,0,0
119,-552,0,0,0,0,0,0,0,0,0,-1,1343,1576,0,0
126,-552,0,0,0,0,0,0,0,0,0,-1,1350,1576,0,0
133,-552,0,0,0,0,0,0,0,0,0,-1,1357,1576,0,0
140,-552,0,0,0,0,0,0,0,0,0,-1,1364,1576,0,0
147,-552,0,0,0,0,0,0,0,0,0,-1,1371,1576,0,0
154,-552,0,0,0,0,0,0,0,0,0,-1,1378,1576,0,0
161,-552,0,0,0,0,0,0,0,0,0,-1,1385,1576,0,0
168,-552,0,0,0,0,0,0,0,0,0,-1,1392,1576,0,0
175,-552,0,0,0,0,0,0,0,0,0,-1,1399,1576,0,0
182,-552,0,0,0,0,0,0,0,0,0,-1,1406,1576,0,0
189,-552,0,0,0,0,0,0,0,0,0,-1,1413,1576,0,0
196,-552,0,0,0,0,0,0,0,0,0,-1,1420,1576,0,0
203,-552,0,0,0,0,0,0,0,0,0,-1,1427,1576,0,0
210,-552,0,0,0,0,0,0,0,0,0,-1,1434,1576,0,0
217,-552,0,0,0,0,0,0,0,0,0,-1,1441,1576,0,0
224,-552,0,0,0,0,0,0,0,0,0,-1,1448,1576,0,0
231,-552,0,0,0,0,0,0,0,0,0,-1,1455,1576,0,0
238,-552,0,0,0,0,0,0,0,0,0,-1,1462,1576,0,0
245,-552,0,0,0,0,0,0,0,0,0,-1,1469,1576,0,0
252,-552,0,0,0,0,0,0,0,0,0,-1,1476,1576,0,0
259,-552,0,0,0,0,0,0,0,0,0,-1,1483,1576,0,0
266,-552,0,0,0,0,0,0,0,0,0,-1,1490,1576,0,0
273,-552,0,0,0,0,0,0,0,0,0,-1,1497,1576,0,0
280,-552,0,0,0,0,0,0,0,0,0,-1,1504,1576,0,0
287,-552,0,0,0,0,0,0,0,0,0,-1,1511,1576,0,0
294,-552,0,0,0,0,0,0,0,0,0,-1,1518,1576,0,0
301,-552,0,0,0,0,0,0,0,0,0,-1,1525,1576,0,0
308,-552,0,0,0,0,0,0,0,0,0,-1,1532,1576,0,0
315,-552,0,0,0,0,0,0,0,0,0,-1,1539,1576,0,0
322,-552,0,0,0,0,0,0,0,0,0,-1,1546,1576,0,0
329,-552,0,0,0,0,0,0,0,0,0,-1,1553,1576,0,0
336,-552,0,0,0,0,0,0,0,0,0,-1,1560,1576,0,0
343,-552,0,0,0,0,0,0,0,0,0,-1,1567,1576,0,0
350,-552,4.97876,4.09888,0,0,0,0,0,0,0,-1,1574,1576,4.97875,-4.09883
357,-552,5.18469,4.10706,0,0,0,0,0,0,0,-1,1581,1576,5.1847,-4.10702
364,-552,5.80872,5.07031,0,0,0,0,0,0,0,-1,1588,1576,5.80874,-5.07037
371,-552,7.10657,5.64783,0,0,0,0,0,0,0,-1,1595,1576,7.10651,-5.64786
378,-552,6.44446,4.91492,0,0,0,0,0,0,0,-1,1602,1576,6.44448,-4.91496
385,-552,12.8276,3.16504,0,0,0,0,0,0,0,-1,1609,1576,12.8276,-3.16503
392,-552,12.1301,4.3363,0,0,0,0,0,0,0,-1,1616,1576,12.1302,-4.33631
399,-552,11.3486,5.6012,0,0,0,0,0,0,0,-1,1623,1576,11.3486,-5.60115
406,-552,10.7863,6.42542,0,0,0,0,0,0,0,-1,1630,1576,10.7863,-6.42536
413,-552,8.39307,10.365,0,0,0,0,0,0,0,-1,1637,1576,8.3931,-10.365
420,-552,10.2306,12.7225,0,0,0,0,0,0,0,-1,1644,1576,10.2305,-12.7226
427,-552,9.88354,14.6724,0,0,0,0,0,0,0,-1,1651,1576,9.88358,-14.6724
434,-552,8.73828,12.6775,0,0,0,0,0,0,0,-1,1658,1576,8.73825,-12.6775
441,-552,9.46558,13.0439,0,0,0,0,0,0,0,-1,1665,1576,9.46554,-13.0439
448,-552,9.92786,13.6923,-0.01292,-0.0489537,0.0416381,0.0144321,-0.0763058,0.58121,0.0563012,0.0483088,1672,1576,9.92781,-13.6923
455,-552,10.1266,13.7069,-0.0130585,-0.0425762,0.0373166,0.0123118,-0.0679466,0.597086,0.0499104,0.0432758,1679,1576,10.1266,-13.7069
462,-552,10.0463,13.8197,-0.0125537,-0.0362352,0.0329331,0.0106026,-0.0593915,0.612825,0.0435608,0.0420258,1686,1576,10.0463,-13.8197
469,-552,9.73267,13.7998,-0.0116583,-0.0303719,0.0285133,0.0089942,-0.0510245,0.626856,0.0373769,0.0385118,1693,1576,9.73262,-13.7998
476,-552,9.47485,13.6951,-0.0106245,-0.0250453,0.0242737,0.00748706,-0.0431569,0.641027,0.0315643,0.018414,1700,1576,9.47488,-13.6951
483,-552,9.50244,13.4512,-0.00923495,-0.0201675,0.0202409,0.00626478,-0.0356672,0.653513,0.0261181,0.0147731,1707,1576,9.5025,-13.4511
490,-552,9.48145,13.2228,-0.00777862,-0.0157251,0.0165679,0.00528577,-0.0287895,0.667712,0.021176,0.0138685,1714,1576,9.48139,-13.2227
497,-552,9.53296,13.0046,-0.00630832,-0.0120614,0.0130924,0.00421984,-0.0225896,0.677261,0.0166456,0.0201519,1721,1576,9.53301,-13.0046
504,-552,9.52466,12.7806,-0.00494873,-0.00875147,0.00992453,0.00325492,-0.0169551,0.690754,0.0125301,0.0213927,1728,1576,9.52463,-12.7806
511,-552,9.50757,12.5178,-0.00346932,-0.00591508,0.00689536,0.00231076,-0.0116952,0.697636,0.00867028,0.0166308,1735,1576,9.5076,-12.5179
518,-552,9.5166,12.2622,-0.00191403,-0.00333501,0.00425183,0.00168627,-0.0069353,0.702612,0.00527622,0.0147244,1742,1576,9.5166,-12.2622
525,-552,9.50452,12.0355,-0.000440464,-0.0017814,0.00214696,0.00113828,-0.00336015,0.634052,0.0027007,0.0142599,1749,1576,9.50448,-12.0355
532,-552,9.49719,11.8031,0.000931364,-0.000520705,0.000448359,0.00105865,-0.000647989,0.27661,0.00099479,0.0142133,1756,1576,9.49723,-11.8031
539,-552,9.47046,11.5964,0.0021258,0.000256606,-0.000797816,0.00242002,-3.76109e-05,-0.353304,0.00162603,0.0171327,1763,1576,9.4704,-11.5964
546,-552,9.45435,11.3624,0.0031343,0.000675517,-0.00147066,0.00382174,-1.19208e-05,-0.437259,0.00255181,0.0216932,1770,1576,9.45436,-11.3624
553,-552,9.51794,11.0486,0.00450111,0.000808915,-0.00212895,0.0054729,-0.000162877,-0.428218,0.00370409,0.024807,1777,1576,9.51794,-11.0486
560,-552,9.56006,10.5287,0,0,0,0,0,0,0,-1,1784,1576,9.56003,-10.5287
567,-552,9.55237,10.3734,0,0,0,0,0,0,0,-1,1791,1576,9.55238,-10.3734
574,-552,9.57751,10.2657,0,0,0,0,0,0,0,-1,1798,1576,9.57756,-10.2657
581,-552,9.76184,9.93921,0,0,0,0,0,0,0,-1,1805,1576,9.76182,-9.93924
588,-552,10.5619,9.34924,0,0,0,0,0,0,0,-1,1812,1576,10.5619,-9.34921
595,-552,5.36194,6.62744,0,0,0,0,0,0,0,-1,1819,1576,5.36193,-6.62742
602,-552,10.6863,4.31616,0,0,0,0,0,0,0,-1,1826,1576,10.6862,-4.31619
609,-552,12.146,3.18286,0,0,0,0,0,0,0,-1,1833,1576,12.1459,-3.18281
616,-552,13.8762,2.08167,0,0,0,0,0,0,0,-1,1840,1576,13.8763,-2.08167
623,-552,0,0,0,0,0,0,0,0,0,-1,1847,1576,0,0
630,-552,0,0,0,0,0,0,0,0,0,-1,1854,1576,0,0
637,-552,0,0,0,0,0,0,0,0,0,-1,1861,1576,0,0
644,-552,0,0,0,0,0,0,0,0,0,-1,1868,1576,0,0
651,-552,0,0,0,0,0,0,0,0,0,-1,1875,1576,0,0
658,-552,0,0,0,0,0,0,0,0,0,-1,1882,1576,0,0
665,-552,0,0,0,0,0,0,0,0,0,-1,1889,1576,0,0
672,-552,0,0,0,0,0,0,0,0,0,-1,1896,1576,0,0
679,-552,0,0,0,0,0,0,0,0,0,-1,1903,1576,0,0
686,-552,0,0,0,0,0,0,0,0,0,-1,1910,1576,0,0
693,-552,0,0,0,0,0,0,0,0,0,-1,1917,1576,0,0
700,-552,0,0,0,0,0,0,0,0,0,-1,1924,1576,0,0
707,-552,0,0,0,0,0,0,0,0,0,-1,1931,1576,0,0
714,-552,0,0,0,0,0,0,0,0,0,-1,1938,1576,0,0
721,-552,0,0,0,0,0,0,0,0,0,-1,1945,1576,0,0
728,-552,0,0,0,0,0,0,0,0,0,-1,1952,1576,0,0
735,-552,0,0,0,0,0,0,0,0,0,-1,1959,1576,0,0
742,-552,0,0,0,0,0,0,0,0,0,-1,1966,1576,0,0
749,-552,0,0,0,0,0,0,0,0,0,-1,1973,1576,0,0
756,-552,0,0,0,0,0,0,0,0,0,-1,1980,1576,0,0
763,-552,0,0,0,0,0,0,0,0,0,-1,1987,1576,0,0
770,-552,0,0,0,0,0,0,0,0,0,-1,1994,1576,0,0
777,-552,0,0,0,0,0,0,0,0,0,-1,2001,1576,0,0
784,-552,0,0,0,0,0,0,0,0,0,-1,2008,1576,0,0
791,-552,0,0,0,0,0,0,0,0,0,-1,2015,1576,0,0
798,-552,0,0,0,0,0,0,0,0,0,-1,2022,1576,0,0
805,-552,0,0,0,0,0,0,0,0,0,-1,2029,1576,0,0
812,-552,0,0,0,0,0,0,0,0,0,-1,2036,1576,0,0
-700,-559,0,0,0,0,0,0,0,0,0,-1,524,1583,0,0
-693,-559,0,0,0,0,0,0,0,0,0,-1,531,1583,0,0
-686,-559,0,0,0,0,0,0,0,0,0,-1,538,1583,0,0
-679,-559,0,0,0,0,0,0,0,0,0,-1,545,1583,0,0
-672,-559,0,0,0,0,0,0,0,0,0,-1,552,1583,0,0
-665,-559,0,0,0,0,0,0,0,0,0,-1,559,1583,0,0
-658,-559,0,0,0,0,0,0,0,0,0,-1,566,1583,0,0
-651,-559,0,0,0,0,0,0,0,0,0,-1,573,1583,0,0
-644,-559,0,0,0,0,0,0,0,0,0,-1,580,1583,0,0
-637,-559,0,0,0,0,0,0,0,0,0,-1,587,1583,0,0
-630,-559,0,0,0,0,0,0,0,0,0,-1,594,1583,0,0
-623,-559,0,0,0,0,0,0,0,0,0,-1,601,1583,0,0
-616,-559,0,0,0,0,0,0,0,0,0,-1,608,1583,0,0
-609,-559,0,0,0,0,0,0,0,0,0,-1,615,1583,0,0
-602,-559,0,0,0,0,0,0,0,0,0,-1,622,1583,0,0
-595,-559,0,0,0,0,0,0,0,0,0,-1,629,1583,0,0
-588,-559,0,0,0,0,0,0,0,0,0,-1,636,1583,0,0
-581,-559,0,0,0,0,0,0,0,0,0,-1,643,1583,0,0
-574,-559,0,0,0,0,0,0,0,0,0,-1,650,1583,0,0
-567,-559,0,0,0,0,0,0,0,0,0,-1,657,1583,0,0
-560,-559,0,0,0,0,0,0,0,0,0,-1,664,1583,0,0
-553,-559,0,0,0,0,0,0,0,0,0,-1,671,1583,0,0
-546,-559,0,0,0,0,0,0,0,0,0,-1,678,1583,0,0
-539,-559,0,0,0,0,0,0,0,0,0,-1,685,1583,0,0
-532,-559,0,0,0,0,0,0,0,0,0,-1,692,1583,0,0
-525,-559,0,0,0,0,0,0,0,0,0,-1,699,1583,0,0
-518,-559,0,0,0,0,0,0,0,0,0,-1,706,1583,0,0
-511,-559,0,0,0,0,0,0,0,0,0,-1,713,1583,0,0
-504,-559,0,0,0,0,0,0,0,0,0,-1,720,1583,0,0
-497,-559,0,0,0,0,0,0,0,0,0,-1,727,1583,0,0
-490,-559,0.365601,3.07288,0,0,0,0,0,0,0,-1,734,1583,0.36563,-3.07291
-483,-559,-0.112427,4.25476,0,0,0,0,0,0,0,-1,741,1583,-0.112397,-4.25473
-476,-559,-0.671204,4.94214,0,0,0,0,0,0,0,-1,748,1583,-0.671186,-4.9422
-469,-559,-1.06,4.95776,0,0,0,0,0,0,0,-1,755,1583,-1.05997,-4.95782
-462,-559,-1.28772,5.69495,0,0,0,0,0,0,0,-1,762,1583,-1.28774,-5.69495
-455,-559,0.514099,8.04651,0,0,0,0,0,0,0,-1,769,1583,0.514095,-8.04653
-448,-559,0.413086,7.54138,0,0,0,0,0,0,0,-1,776,1583,0.413092,-7.54135
-441,-559,0.621582,8.44788,0,0,0,0,0,0,0,-1,783,1583,0.621583,-8.44785
-434,-559,0.682068,9.31848,0.00994416,-0.00225391,0.00318767,0.010727,-0.00303669,0.240802,0.00834968,0.0345989,790,1583,0.682067,-9.31853
-427,-559,0.678284,9.49805,0.00647487,-0.00120202,0.0016188,0.00680226,-0.00152941,0.19955,0.00512134,0.0231732,797,1583,0.678308,-9.49806
-420,-559,0.632629,9.70105,0.00398658,-0.000557754,0.000557046,0.00405386,-0.00062504,0.12021,0.0029332,0.0250837,804,1583,0.632638,-9.70101
-413,-559,0.655884,9.96582,0.00246622,-0.000158842,7.46091e-06,0.00246624,-0.000158863,0.00284216,0.00169959,0.0137539,811,1583,0.655856,-9.96586
-406,-559,0.649536,10.2474,0.00137005,1.39942e-05,-0.000253611,0.00141593,-3.18842e-05,-0.178965,0.000954761,0.0102109,818,1583,0.649507,-10.2474
-399,-559,0.671631,10.5116,0.000785529,-4.4459e-06,-0.00029354,0.00088266,-0.000101577,-0.319555,0.000625056,0.0127522,825,1583,0.67165,-10.5115
-392,-559,0.651489,10.7656,0.000494974,5.71162e-06,-0.000356204,0.000682461,-0.000181775,-0.484502,0.000526139,0.0151524,832,1583,0.651464,-10.7656
-385,-559,0.619934,11.0349,0.000406453,0.000105076,-0.000557203,0.000832984,-0.000321455,-0.653338,0.00068798,0.0153043,839,1583,0.619949,-11.0349
-378,-559,0.615051,11.2887,0.000790793,0.000468047,-0.000535042,0.00118827,7.0572e-05,-0.638933,0.000769734,0.0132502,846,1583,0.615054,-11.2887
-371,-559,0.610596,11.5587,0.00110257,0.000960922,-0.000587514,0.00162351,0.000439977,-0.725415,0.00096955,0.0205435,853,1583,0.610603,-11.5587
-364,-559,0.639099,11.7834,0.00159521,0.00156081,-0.000649671,0.00222791,0.00092811,-0.772161,0.00129224,0.019732,860,1583,0.639092,-11.7834
-357,-559,0.639709,12.0353,0.0024996,0.00211948,-0.000663478,0.00299971,0.00161938,-0.645903,0.00173371,0.0117106,867,1583,0.639733,-12.0353
-350,-559,0.648254,12.2964,0.00364582,0.00263738,-0.000755439,0.00404985,0.00223335,-0.491126,0.00234231,0.00961087,874,1583,0.648233,-12.2964
-343,-559,0.648987,12.5562,0.00496169,0.00315272,-0.000817606,0.00527646,0.00283796,-0.367496,0.00304927,0.0109056,881,1583,0.649003,-12.5561
-336,-559,0.623596,12.7981,0.0064213,0.00344117,-0.000906751,0.0066755,0.00318696,-0.273335,0.00385542,0.0115342,888,1583,0.623616,-12.7981
-329,-559,0.674194,13.1376,0.00806048,0.00368089,-0.0010123,0.00828314,0.00345823,-0.216509,0.00480392,0.0168876,895,1583,0.67417,-13.1376
-322,-559,0.775757,13.4996,0.00963113,0.00319285,-0.00145745,0.00994569,0.00287829,-0.212567,0.00590949,0.0412142,902,1583,0.775748,-13.4996
-315,-559,0.824585,13.6403,0.0110312,0.00192977,-0.00209966,0.0114923,0.00146874,-0.216143,0.00722189,0.0404316,909,1583,0.82458,-13.6402
-308,-559,0.98938,13.6166,0.0123102,0.000212058,-0.00298134,0.013005,-0.000482728,-0.228958,0.00883533,0.0390539,916,1583,0.989392,-13.6166
-301,-559,1.10681,13.6941,0,0,0,0,0,0,0,-1,923,1583,1.10684,-13.6942
-294,-559,-0.329346,13.3246,0,0,0,0,0,0,0,-1,930,1583,-0.329348,-13.3246
-287,-559,0.556274,14.382,0,0,0,0,0,0,0,-1,937,1583,0.556282,-14.382
-280,-559,0.191467,13.5093,0,0,0,0,0,0,0,-1,944,1583,0.191441,-13.5093
-273,-559,2.12836,10.3059,0,0,0,0,0,0,0,-1,951,1583,2.12839,-10.3059
-266,-559,-0.597046,6.68933,0,0,0,0,0,0,0,-1,958,1583,-0.597031,-6.68937
-259,-559,-7.00311,8.62756,0,0,0,0,0,0,0,-1,965,1583,-7.00312,-8.6275
-252,-559,-9.4483,2.87805,0,0,0,0,0,0,0,-1,972,1583,-9.44829,-2.87805
-245,-559,-4.80804,7.1803,0,0,0,0,0,0,0,-1,979,1583,-4.80804,-7.18027
-238,-559,-8.45764,2.54858,0,0,0,0,0,0,0,-1,986,1583,-8.45763,-2.54862
-231,-559,-5.86914,4.34021,0,0,0,0,0,0,0,-1,993,1583,-5.86914,-4.34019
-224,-559,-3.30505,6.22864,0,0,0,0,0,0,0,-1,1000,1583,-3.30505,-6.22859
-217,-559,0,0,0,0,0,0,0,0,0,-1,1007,1583,0,0
-210,-559,0,0,0,0,0,0,0,0,0,-1,1014,1583,0,0
-203,-559,0,0,0,0,0,0,0,0,0,-1,1021,1583,0,0
-196,-559,0,0,0,0,0,0,0,0,0,-1,1028,1583,0,0
-189,-559,0,0,0,0,0,0,0,0,0,-1,1035,1583,0,0
-182,-559,0,0,0,0,0,0,0,0,0,-1,1042,1583,0,0
-175,-559,0,0,0,0,0,0,0,0,0,-1,1049,1583,0,0
-168,-559,0,0,0,0,0,0,0,0,0,-1,1056,1583,0,0
-161,-559,0,0,0,0,0,0,0,0,0,-1,1063,1583,0,0
-154,-559,0,0,0,0,0,0,0,0,0,-1,1070,1583,0,0
-147,-559,0,0,0,0,0,0,0,0,0,-1,1077,1583,0,0
-140,-559,0,0,0,0,0,0,0,0,0,-1,1084,1583,0,0
-133,-559,0,0,0,0,0,0,0,0,0,-1,1091,1583,0,0
-126,-559,0,0,0,0,0,0,0,0,0,-1,1098,1583,0,0
-119,-559,0,0,0,0,0,0,0,0,0,-1,1105,1583,0,0
-112,-559,0,0,0,0,0,0,0,0,0,-1,1112,1583,0,0
-105,-559,0,0,0,0,0,0,0,0,0,-1,1119,1583,0,0
-98,-559,0,0,0,0,0,0,0,0,0,-1,1126,1583,0,0
-91,-559,0,0,0,0,0,0,0,0,0,-1,1133,1583,0,0
-84,-559,0,0,0,0,0,0,0,0,0,-1,1140,1583,0,0
-77,-559,0,0,0,0,0,0,0,0,0,-1,1147,1583,0,0
-70,-559,0,0,0,0,0,0,0,0,0,-1,1154,1583,0,0
-63,-559,0,0,0,0,0,0,0,0,0,-1,1161,1583,0,0
-56,-559,0,0,0,0,0,0,0,0,0,-1,1168,1583,0,0
-49,-559,0,0,0,0,0,0,0,0,0,-1,1175,1583,0,0
-42,-559,0,0,0,0,0,0,0,0,0,-1,1182,1583,0,0
-35,-559,0,0,0,0,0,0,0,0,0,-1,1189,1583,0,0
-28,-559,0,0,0,0,0,0,0,0,0,-1,1196,1583,0,0
-21,-559,0,0,0,0,0,0,0,0,0,-1,1203,1583,0,0
-14,-559,0,0,0,0,0,0,0,0,0,-1,1210,1583,0,0
-7,-559,0,0,0,0,0,0,0,0,0,-1,1217,1583,0,0
0,-559,0,0,0,0,0,0,0,0,0,-1,1224,1583,0,0
7,-559,0,0,0,0,0,0,0,0,0,-1,1231,1583,0,0
14,-559,0,0,0,0,0,0,0,0,0,-1,1238,1583,0,0
21,-559,0,0,0,0,0,0,0,0,0,-1,1245,1583,0,0
28,-559,0,0,0,0,0,0,0,0,0,-1,1252,1583,0,0
35,-559,0,0,0,0,0,0,0,0,0,-1,1259,1583,0,0
42,-559,0,0,0,0,0,0,0,0,0,-1,1266,1583,0,0
49,-559,0,0,0,0,0,0,0,0,0,-1,1273,1583,0,0
56,-559,0,0,0,0,0,0,0,0,0,-1,1280,1583,0,0
63,-559,0,0,0,0,0,0,0,0,0,-1,1287,1583,0,0
70,-559,0,0,0,0,0,0,0,0,0,-1,1294,1583,0,0
77,-559,0,0,0,0,0,0,0,0,0,-1,1301,1583,0,0
84,-559,0,0,0,0,0,0,0,0,0,-1,1308,1583,0,0
91,-559,0,0,0,0,0,0,0,0,0,-1,1315,1583,0,0
98,-559,0,0,0,0,0,0,0,0,0,-1,1322,1583,0,0
105,-559,0,0,0,0,0,0,0,0,0,-1,1329,1583,0,0
112,-559,0,0,0,0,0,0,0,0,0,-1,1336,1583,0,0
119,-559,0,0,0,0,0,0,0,0,0,-1,1343,1583,0,0
126,-559,0,0,0,0,0,0,0,0,0,-1,1350,1583,0,0
133,-559,0,0,0,0,0,0,0,0,0,-1,1357,1583,0,0
140,-559,0,0,0,0,0,0,0,0,0,-1,1364,1583,0,0
147,-559,0,0,0,0,0,0,0,0,0,-1,1371,1583,0,0
154,-559,0,0,0,0,0,0,0,0,0,-1,1378,1583,0,0
161,-559,0,0,0,0,0,0,0,0,0,-1,1385,1583,0,0
168,-559,0,0,0,0,0,0,0,0,0,-1,1392,1583,0,0
175,-559,0,0,0,0,0,0,0,0,0,-1,1399,1583,0,0
182,-559,0,0,0,0,0,0,0,0,0,-1,1406,1583,0,0
189,-559,0,0,0,0,0,0,0,0,0,-1,1413,1583,0,0
196,-559,0,0,0,0,0,0,0,0,0,-1,1420,1583,0,0
203,-559,0,0,0,0,0,0,0,0,0,-1,1427,1583,0,0
210,-559,0,0,0,0,0,0,0,0,0,-1,1434,1583,0,0
217,-559,0,0,0,0,0,0,0,0,0,-1,1441,1583,0,0
224,-559,0,0,0,0,0,0,0,0,0,-1,1448,1583,0,0
231,-559,0,0,0,0,0,0,0,0,0,-1,1455,1583,0,0
238,-559,0,0,0,0,0,0,0,0,0,-1,1462,1583,0,0
245,-559,0,0,0,0,0,0,0,0,0,-1,1469,1583,0,0
252,-559,0,0,0,0,0,0,0,0,0,-1,1476,1583,0,0
259,-559,0,0,0,0,0,0,0,0,0,-1,1483,1583,0,0
266,-559,0,0,0,0,0,0,0,0,0,-1,1490,1583,0,0
273,-559,0,0,0,0,0,0,0,0,0,-1,1497,1583,0,0
280,-559,0,0,0,0,0,0,0,0,0,-1,1504,1583,0,0
287,-559,0,0,0,0,0,0,0,0,0,-1,1511,1583,0,0
294,-559,0,0,0,0,0,0,0,0,0,-1,1518,1583,0,0
301,-559,0,0,0,0,0,0,0,0,0,-1,1525,1583,0,0
308,-559,0,0,0,0,0,0,0,0,0,-1,1532,1583,0,0
315,-559,0,0,0,0,0,0,0,0,0,-1,1539,1583,0,0
322,-559,0,0,0,0,0,0,0,0,0,-1,1546,1583,0,0
329,-559,0,0,0,0,0,0,0,0,0,-1,1553,1583,0,0
336,-559,5.97668,3.09827,0,0,0,0,0,0,0,-1,1560,1583,5.97667,-3.09824
343,-559,5.44824,2.88696,0,0,0,0,0,0,0,-1,1567,1583,5.44819,-2.88693
350,-559,4.69775,3.27051,0,0,0,0,0,0,0,-1,1574,1583,4.69771,-3.27048
357,-559,3.88025,3.60999,0,0,0,0,0,0,0,-1,1581,1583,3.88027,-3.60998
364,-559,5.00928,5.32605,0,0,0,0,0,0,0,-1,1588,1583,5.00928,-5.32607
371,-559,1.84436,2.52441,0,0,0,0,0,0,0,-1,1595,1583,1.84441,-2.52447
378,-559,6.34753,1.53137,0,0,0,0,0,0,0,-1,1602,1583,6.34752,-1.53139
385,-559,6.95911,1.48181,0,0,0,0,0,0,0,-1,1609,1583,6.95916,-1.48175
392,-559,11.6949,4.77734,0,0,0,0,0,0,0,-1,1616,1583,11.6949,-4.77731
399,-559,11.1104,5.56909,0,0,0,0,0,0,0,-1,1623,1583,11.1103,-5.56905
406,-559,10.3385,6.48657,0,0,0,0,0,0,0,-1,1630,1583,10.3385,-6.48661
413,-559,9.76147,6.97571,0,0,0,0,0,0,0,-1,1637,1583,9.76143,-6.97574
420,-559,7.77124,10.5851,0,0,0,0,0,0,0,-1,1644,1583,7.77128,-10.585
427,-559,10.1022,12.5565,0,0,0,0,0,0,0,-1,1651,1583,10.1021,-12.5565
434,-559,9.09399,13.8361,0,0,0,0,0,0,0,-1,1658,1583,9.09398,-13.8361
441,-559,9.45935,13.9716,0,0,0,0,0,0,0,-1,1665,1583,9.4593,-13.9715
448,-559,9.46191,13.9825,-0.00932495,-0.0350194,0.0310187,0.0114018,-0.0557462,0.589064,0.0414903,0.0483122,1672,1583,9.46193,-13.9826
455,-559,9.53674,13.9041,-0.00927687,-0.0304611,0.0275714,0.009667,-0.0494049,0.602005,0.0365872,0.0443751,1679,1583,9.53673,-13.904
462,-559,9.39771,13.9647,-0.00879017,-0.0259571,0.0240917,0.00820146,-0.0429487,0.614268,0.0317217,0.0399327,1686,1583,9.39769,-13.9647
469,-559,9.24524,13.9489,-0.00804358,-0.0218776,0.0207718,0.00693266,-0.0368539,0.624673,0.0271765,0.0194651,1693,1583,9.24522,-13.9488
476,-559,9.22791,13.7177,-0.00729307,-0.0181161,0.0175941,0.0057029,-0.0311121,0.636201,0.0228805,0.0102566,1700,1583,9.22789,-13.7177
483,-559,9.2533,13.4634,-0.00624524,-0.0146082,0.0145643,0.00472591,-0.0255794,0.645605,0.018827,0.012432,1707,1583,9.25331,-13.4634
490,-559,9.24976,13.2266,-0.00512644,-0.0112714,0.0117818,0.00397689,-0.0203747,0.657848,0.0150845,0.0148658,1714,1583,9.24973,-13.2266
497,-559,9.27588,13.014,-0.00398469,-0.00855759,0.00911794,0.00312911,-0.0156714,0.66255,0.0116318,0.0178306,1721,1583,9.27594,-13.0141
504,-559,9.26929,12.7841,-0.00289338,-0.00603242,0.00665287,0.0023726,-0.0112984,0.669559,0.00843511,0.0234129,1728,1583,9.26931,-12.784
511,-559,9.26428,12.5308,-0.00171132,-0.00385178,0.00427915,0.0016294,-0.0071925,0.66286,0.00542039,0.0211194,1735,1583,9.26426,-12.5308
518,-559,9.29041,12.2716,-0.000452982,-0.0019664,0.00220644,0.0011229,-0.00354228,0.620206,0.00281159,0.0129173,1742,1583,9.29037,-12.2716
525,-559,9.28003,12.0431,0.000784135,-0.000806021,0.000542936,0.000951829,-0.000973714,0.299569,0.00111174,0.0121087,1749,1583,9.27998,-12.043
532,-559,9.24707,11.8262,0.00202465,0.000102308,-0.00084117,0.00234075,-0.00021379,-0.359458,0.00163642,0.0133947,1756,1583,9.24706,-11.8262
539,-559,9.24207,11.6055,0.00309484,0.000500812,-0.00165554,0.00390093,-0.000305285,-0.453119,0.00270813,0.0166653,1763,1583,9.2421,-11.6055
546,-559,9.22327,11.3672,0.00401392,0.000502748,-0.00201034,0.00492733,-0.000410663,-0.426471,0.00342998,0.0161231,1770,1583,9.22333,-11.3672
553,-559,9.34485,11.0342,0.00537715,0.000340763,-0.00245348,0.00637476,-0.000656844,-0.386191,0.00448485,0.0258056,1777,1583,9.3448,-11.0342
560,-559,9.37939,10.6814,0,0,0,0,0,0,0,-1,1784,1583,9.37942,-10.6814
567,-559,9.41101,10.62,0,0,0,0,0,0,0,-1,1791,1583,9.41101,-10.62
574,-559,9.94812,10.3971,0,0,0,0,0,0,0,-1,1798,1583,9.94807,-10.3971
581,-559,5.97095,5.96179,0,0,0,0,0,0,0,-1,1805,1583,5.97093,-5.96181
588,-559,5.79102,5.89954,0,0,0,0,0,0,0,-1,1812,1583,5.79098,-5.89949
595,-559,5.79089,6.24231,0,0,0,0,0,0,0,-1,1819,1583,5.7909,-6.24227
602,-559,12.478,2.35669,0,0,0,0,0,0,0,-1,1826,1583,12.4781,-2.35675
609,-559,14.0479,1.22681,0,0,0,0,0,0,0,-1,1833,1583,14.0479,-1.22681
616,-559,0,0,0,0,0,0,0,0,0,-1,1840,1583,0,0
623,-559,0,0,0,0,0,0,0,0,0,-1,1847,1583,0,0
630,-559,0,0,0,0,0,0,0,0,0,-1,1854,1583,0,0
637,-559,0,0,0,0,0,0,0,0,0,-1,1861,1583,0,0
644,-559,0,0,0,0,0,0,0,0,0,-1,1868,1583,0,0
651,-559,0,0,0,0,0,0,0,0,0,-1,1875,1583,0,0
658,-559,0,0,0,0,0,0,0,0,0,-1,1882,1583,0,0
665,-559,0,0,0,0,0,0,0,0,0,-1,1889,1583,0,0
672,-559,0,0,0,0,0,0,0,0,0,-1,1896,1583,0,0
679,-559,0,0,0,0,0,0,0,0,0,-1,1903,1583,0,0
686,-559,0,0,0,0,0,0,0,0,0,-1,1910,1583,0,0
693,-559,0,0,0,0,0,0,0,0,0,-1,1917,1583,0,0
700,-559,0,0,0,0,0,0,0,0,0,-1,1924,1583,0,0
707,-559,0,0,0,0,0,0,0,0,0,-1,1931,1583,0,0
714,-559,0,0,0,0,0,0,0,0,0,-1,1938,1583,0,0
721,-559,0,0,0,0,0,0,0,0,0,-1,1945,1583,0,0
728,-559,0,0,0,0,0,0,0,0,0,-1,1952,1583,0,0
735,-559,0,0,0,0,0,0,0,0,0,-1,1959,1583,0,0
742,-559,0,0,0,0,0,0,0,0,0,-1,1966,1583,0,0
749,-559,0,0,0,0,0,0,0,0,0,-1,1973,1583,0,0
756,-559,0,0,0,0,0,0,0,0,0,-1,1980,1583,0,0
763,-559,0,0,0,0,0,0,0,0,0,-1,1987,1583,0,0
770,-559,0,0,0,0,0,0,0,0,0,-1,1994,1583,0,0
777,-559,0,0,0,0,0,0,0,0,0,-1,2001,1583,0,0
784,-559,0,0,0,0,0,0,0,0,0,-1,2008,1583,0,0
791,-559,0,0,0,0,0,0,0,0,0,-1,2015,1583,0,0
798,-559,0,0,0,0,0,0,0,0,0,-1,2022,1583,0,0
805,-559,0,0,0,0,0,0,0,0,0,-1,2029,1583,0,0
812,-559,0,0,0,0,0,0,0,0,0,-1,2036,1583,0,0
-700,-566,0,0,0,0,0,0,0,0,0,-1,524,1590,0,0
-693,-566,0,0,0,0,0,0,0,0,0,-1,531,1590,0,0
-686,-566,0,0,0,0,0,0,0,0,0,-1,538,1590,0,0
-679,-566,0,0,0,0,0,0,0,0,0,-1,545,1590,0,0
-672,-566,0,0,0,0,0,0,0,0,0,-1,552,1590,0,0
-665,-566,0,0,0,0,0,0,0,0,0,-1,559,1590,0,0
-658,-566,0,0,0,0,0,0,0,0,0,-1,566,1590,0,0
-651,-566,0,0,0,0,0,0,0,0,0,-1,573,1590,0,0
-644,-566,0,0,0,0,0,0,0,0,0,-1,580,1590,0,0
-637,-566,0,0,0,0,0,0,0,0,0,-1,587,1590,0,0
-630,-566,0,0,0,0,0,0,0,0,0,-1,594,1590,0,0
-623,-566,0,0,0,0,0,0,0,0,0,-1,601,1590,0,0
-616,-566,0,0,0,0,0,0,0,0,0,-1,608,1590,0,0
-609,-566,0,0,0,0,0,0,0,0,0,-1,615,1590,0,0
-602,-566,0,0,0,0,0,0,0,0,0,-1,622,1590,0,0
-595,-566,0,0,0,0,0,0,0,0,0,-1,629,1590,0,0
-588,-566,0,0,0,0,0,0,0,0,0,-1,636,1590,0,0
-581,-566,0,0,0,0,0,0,0,0,0,-1,643,1590,0,0
-574,-566,0,0,0,0,0,0,0,0,0,-1,650,1590,0,0
-567,-566,0,0,0,0,0,0,0,0,0,-1,657,1590,0,0
-560,-566,0,0,0,0,0,0,0,0,0,-1,664,1590,0,0
-553,-566,0,0,0,0,0,0,0,0,0,-1,671,1590,0,0
-546,-566,0,0,0,0,0,0,0,0,0,-1,678,1590,0,0
-539,-566,0,0,0,0,0,0,0,0,0,-1,685,1590,0,0
-532,-566,0,0,0,0,0,0,0,0,0,-1,692,1590,0,0
-525,-566,0,0,0,0,0,0,0,0,0,-1,699,1590,0,0
-518,-566,0,0,0,0,0,0,0,0,0,-1,706,1590,0,0
-511,-566,0,0,0,0,0,0,0,0,0,-1,713,1590,0,0
-504,-566,0,0,0,0,0,0,0,0,0,-1,720,1590,0,0
-497,-566,0,0,0,0,0,0,0,0,0,-1,727,1590,0,0
-490,-566,0,0,0,0,0,0,0,0,0,-1,734,1590,0,0
-483,-566,-2.4743,2.07825,0,0,0,0,0,0,0,-1,741,1590,-2.47428,-2.07829
-476,-566,-1.80646,2.39294,0,0,0,0,0,0,0,-1,748,1590,-1.80644,-2.39298
-469,-566,-1.15375,3.03284,0,0,0,0,0,0,0,-1,755,1590,-1.15378,-3.03283
-462,-566,-0.459106,3.89343,0,0,0,0,0,0,0,-1,762,1590,-0.459095,-3.89341
-455,-566,0.280212,4.74023,0,0,0,0,0,0,0,-1,769,1590,0.280207,-4.74023
-448,-566,0.436951,5.51306,0,0,0,0,0,0,0,-1,776,1590,0.436971,-5.51301
-441,-566,0.951965,7.96814,0,0,0,0,0,0,0,-1,783,1590,0.951945,-7.96812
-434,-566,0.812927,9.45886,0,0,0,0,0,0,0,-1,790,1590,0.812908,-9.45892
-427,-566,0.730835,9.46863,0.00756696,-0.000955692,0.00158762,0.0078531,-0.00124183,0.178317,0.00569466,0.0433057,797,1590,0.730848,-9.46862
-420,-566,0.849365,9.78833,0.00473448,-0.000225222,0.000418153,0.00476949,-0.000260229,0.0835245,0.00326985,0.0397271,804,1590,0.849394,-9.78832
-413,-566,0.9151,9.97119,0.00288504,3.48775e-05,-0.000188622,0.00289747,2.24488e-05,-0.065797,0.00192421,0.0196999,811,1590,0.915121,-9.97114
-406,-566,0.91394,10.2323,0.00157957,0.00011739,-0.000439048,0.00170128,-4.31226e-06,-0.270407,0.00113563,0.0105267,818,1590,0.91394,-10.2323
-399,-566,0.922424,10.5024,0.000827227,-4.47412e-05,-0.000477659,0.00103796,-0.000255472,-0.41549,0.000791003,0.0103357,825,1590,0.922402,-10.5024
-392,-566,0.900879,10.7578,0.000406186,-0.000208929,-0.000507203,0.000691795,-0.000494537,-0.51285,0.000688078,0.0118324,832,1590,0.900863,-10.7578
-385,-566,0.90094,11.0394,0.000196632,-0.000322591,-0.00064867,0.000635713,-0.000761672,-0.59505,0.000807873,0.0136282,839,1590,0.900938,-11.0394
-378,-566,0.885681,11.3176,0.000327955,-8.13642e-05,-0.000626377,0.000782259,-0.000535669,-0.627498,0.000765333,0.0135601,846,1590,0.885671,-11.3176
-371,-566,0.876648,11.6011,0.000511567,0.000250029,-0.000650692,0.0010445,-0.000282904,-0.686234,0.000807329,0.0192895,853,1590,0.876673,-11.6011
-364,-566,0.885559,11.8174,0.00082585,0.000687545,-0.000666256,0.00142653,8.68622e-05,-0.733687,0.000923431,0.0208261,860,1590,0.885555,-11.8173
-357,-566,0.904663,12.0587,0.00154684,0.00109622,-0.000620674,0.00198183,0.000661222,-0.61129,0.00116513,0.0174537,867,1590,0.904652,-12.0587
-350,-566,0.928345,12.3024,0.00249886,0.00148795,-0.000665834,0.00282936,0.00115745,-0.460738,0.00164251,0.0199397,874,1590,0.928348,-12.3024
-343,-566,0.925049,12.5184,0.00351972,0.00184757,-0.000691728,0.00376877,0.00159852,-0.3456,0.00218423,0.0264527,881,1590,0.925071,-12.5184
-336,-566,0.859802,12.7661,0.00460357,0.00201059,-0.000748688,0.00480422,0.00180994,-0.261845,0.00280167,0.0228656,888,1590,0.859777,-12.7661
-329,-566,0.90271,13.0188,0.0057648,0.00210545,-0.000889456,0.00596954,0.00190071,-0.226244,0.00352147,0.0138871,895,1590,0.90272,-13.0188
-322,-566,0.938904,13.3374,0.00680638,0.00150903,-0.00135269,0.0071318,0.00118361,-0.236087,0.00441322,0.0170608,902,1590,0.938887,-13.3374
-315,-566,0.826843,13.5455,0.00770895,0.000554495,-0.00188015,0.00817294,9.04966e-05,-0.241954,0.00541872,0.0302339,909,1590,0.826873,-13.5455
-308,-566,0.905945,13.6112,0.00841398,-0.00102121,-0.00272957,0.00914673,-0.00175396,-0.262266,0.00675876,0.037317,916,1590,0.905918,-13.6112
-301,-566,1.00159,13.7213,0.00904183,-0.00308706,-0.00374666,0.0101058,-0.00415108,-0.276705,0.00846718,0.0452455,923,1590,1.00157,-13.7214
-294,-566,1.07214,13.8885,0,0,0,0,0,0,0,-1,930,1590,1.07216,-13.8885
-287,-566,0.97052,14.2141,0,0,0,0,0,0,0,-1,937,1590,0.970497,-14.2142
-280,-566,0.862,14.4189,0,0,0,0,0,0,0,-1,944,1590,0.862006,-14.4189
-273,-566,0.49762,11.2427,0,0,0,0,0,0,0,-1,951,1590,0.497591,-11.2426
-266,-566,0.392151,6.90295,0,0,0,0,0,0,0,-1,958,1590,0.392151,-6.90294
-259,-566,0.343628,6.47437,0,0,0,0,0,0,0,-1,965,1590,0.34363,-6.47438
-252,-566,-7.68311,1.01343,0,0,0,0,0,0,0,-1,972,1590,-7.68308,-1.01348
-245,-566,-11.1835,1.97522,0,0,0,0,0,0,0,-1,979,1590,-11.1835,-1.97527
-238,-566,-10.4883,2.40491,0,0,0,0,0,0,0,-1,986,1590,-10.4883,-2.40487
-231,-566,-7.41827,4.22803,0,0,0,0,0,0,0,-1,993,1590,-7.41827,-4.22803
-224,-566,-4.67188,6.30859,0,0,0,0,0,0,0,-1,1000,1590,-4.67185,-6.30853
-217,-566,-2.82867,7.52527,0,0,0,0,0,0,0,-1,1007,1590,-2.82869,-7.52531
-210,-566,-1.03436,8.67737,0,0,0,0,0,0,0,-1,1014,1590,-1.03439,-8.67733
-203,-566,0,0,0,0,0,0,0,0,0,-1,1021,1590,0,0
-196,-566,0,0,0,0,0,0,0,0,0,-1,1028,1590,0,0
-189,-566,0,0,0,0,0,0,0,0,0,-1,1035,1590,0,0
-182,-566,0,0,0,0,0,0,0,0,0,-1,1042,1590,0,0
-175,-566,0,0,0,0,0,0,0,0,0,-1,1049,1590,0,0
-168,-566,0,0,0,0,0,0,0,0,0,-1,1056,1590,0,0
-161,-566,0,0,0,0,0,0,0,0,0,-1,1063,1590,0,0
-154,-566,0,0,0,0,0,0,0,0,0,-1,1070,1590,0,0
-147,-566,0,0,0,0,0,0,0,0,0,-1,1077,1590,0,0
-140,-566,0,0,0,0,0,0,0,0,0,-1,1084,1590,0,0
-133,-566,0,0,0,0,0,0,0,0,0,-1,1091,1590,0,0
-126,-566,0,0,0,0,0,0,0,0,0,-1,1098,1590,0,0
-119,-566,0,0,0,0,0,0,0,0,0,-1,1105,1590,0,0
-112,-566,0,0,0,0,0,0,0,0,0,-1,1112,1590,0,0
-105,-566,0,0,0,0,0,0,0,0,0,-1,1119,1590,0,0
-98,-566,0,0,0,0,0,0,0,0,0,-1,1126,1590,0,0
-91,-566,0,0,0,0,0,0,0,0,0,-1,1133,1590,0,0
-84,-566,0,0,0,0,0,0,0,0,0,-1,1140,1590,0,0
-77,-566,0,0,0,0,0,0,0,0,0,-1,1147,1590,0,0
-70,-566,0,0,0,0,0,0,0,0,0,-1,1154,1590,0,0
-63,-566,0,0,0,0,0,0,0,0,0,-1,1161,1590,0,0
-56,-566,0,0,0,0,0,0,0,0,0,-1,1168,1590,0,0
-49,-566,0,0,0,0,0,0,0,0,0,-1,1175,1590,0,0
-42,-566,0,0,0,0,0,0,0,0,0,-1,1182,1590,0,0
-35,-566,0,0,0,0,0,0,0,0,0,-1,1189,1590,0,0
-28,-566,0,0,0,0,0,0,0,0,0,-1,1196,1590,0,0
-21,-566,0,0,0,0,0,0,0,0,0,-1,1203,1590,0,0
-14,-566,0,0,0,0,0,0,0,0,0,-1,1210,1590,0,0
-7,-566,0,0,0,0,0,0,0,0,0,-1,1217,1590,0,0
0,-566,0,0,0,0,0,0,0,0,0,-1,1224,1590,0,0
7,-566,0,0,0,0,0,0,0,0,0,-1,1231,1590,0,0
14,-566,0,0,0,0,0,0,0,0,0,-1,1238,1590,0,0
21,-566,0,0,0,0,0,0,0,0,0,-1,1245,1590,0,0
28,-566,0,0,0,0,0,0,0,0,0,-1,1252,1590,0,0
35,-566,0,0,0,0,0,0,0,0,0,-1,1259,1590,0,0
42,-566,0,0,0,0,0,0,0,0,0,-1,1266,1590,0,0
49,-566,0,0,0,0,0,0,0,0,0,-1,1273,1590,0,0
56,-566,0,0,0,0,0,0,0,0,0,-1,1280,1590,0,0
63,-566,0,0,0,0,0,0,0,0,0,-1,1287,1590,0,0
70,-566,0,0,0,0,0,0,0,0,0,-1,1294,1590,0,0
77,-566,0,0,0,0,0,0,0,0,0,-1,1301,1590,0,0
84,-566,0,0,0,0,0,0,0,0,0,-1,1308,1590,0,0
91,-566,0,0,0,0,0,0,0,0,0,-1,1315,1590,0,0
98,-566,0,0,0,0,0,0,0,0,0,-1,1322,1590,0,0
105,-566,0,0,0,0,0,0,0,0,0,-1,1329,1590,0,0
112,-566,0,0,0,0,0,0,0,0,0,-1,1336,1590,0,0
119,-566,0,0,0,0,0,0,0,0,0,-1,1343,1590,0,0
126,-566,0,0,0,0,0,0,0,0,0,-1,1350,1590,0,0
133,-566,0,0,0,0,0,0,0,0,0,-1,1357,1590,0,0
140,-566,0,0,0,0,0,0,0,0,0,-1,1364,1590,0,0
147,-566,0,0,0,0,0,0,0,0,0,-1,1371,1590,0,0
154,-566,0,0,0,0,0,0,0,0,0,-1,1378,1590,0,0
161,-566,0,0,0,0,0,0,0,0,0,-1,1385,1590,0,0
168,-566,0,0,0,0,0,0,0,0,0,-1,1392,1590,0,0
175,-566,0,0,0,0,0,0,0,0,0,-1,1399,1590,0,0
182,-566,0,0,0,0,0,0,0,0,0,-1,1406,1590,0,0
189,-566,0,0,0,0,0,0,0,0,0,-1,1413,1590,0,0
196,-566,0,0,0,0,0,0,0,0,0,-1,1420,1590,0,0
203,-566,0,0,0,0,0,0,0,0,0,-1,1427,1590,0,0
210,-566,0,0,0,0,0,0,0,0,0,-1,1434,1590,0,0
217,-566,0,0,0,0,0,0,0,0,0,-1,1441,1590,0,0
224,-566,0,0,0,0,0,0,0,0,0,-1,1448,1590,0,0
231,-566,0,0,0,0,0,0,0,0,0,-1,1455,1590,0,0
238,-566,0,0,0,0,0,0,0,0,0,-1,1462,1590,0,0
245,-566,0,0,0,0,0,0,0,0,0,-1,1469,1590,0,0
252,-566,0,0,0,0,0,0,0,0,0,-1,1476,1590,0,0
259,-566,0,0,0,0,0,0,0,0,0,-1,1483,1590,0,0
266,-566,0,0,0,0,0,0,0,0,0,-1,1490,1590,0,0
273,-566,0,0,0,0,0,0,0,0,0,-1,1497,1590,0,0
280,-566,0,0,0,0,0,0,0,0,0,-1,1504,1590,0,0
287,-566,0,0,0,0,0,0,0,0,0,-1,1511,1590,0,0
294,-566,0,0,0,0,0,0,0,0,0,-1,1518,1590,0,0
301,-566,0,0,0,0,0,0,0,0,0,-1,1525,1590,0,0
308,-566,0,0,0,0,0,0,0,0,0,-1,1532,1590,0,0
315,-566,0,0,0,0,0,0,0,0,0,-1,1539,1590,0,0
322,-566,6.07983,4.44873,0,0,0,0,0,0,0,-1,1546,1590,6.07983,-4.44873
329,-566,5.77026,3.47534,0,0,0,0,0,0,0,-1,1553,1590,5.77026,-3.47535
336,-566,5.41138,2.62915,0,0,0,0,0,0,0,-1,1560,1590,5.41138,-2.62909
343,-566,4.81873,1.79089,0,0,0,0,0,0,0,-1,1567,1590,4.81878,-1.79095
350,-566,4.41663,2.44214,0,0,0,0,0,0,0,-1,1574,1590,4.41666,-2.44214
357,-566,6.34058,5.18579,0,0,0,0,0,0,0,-1,1581,1590,6.34059,-5.1858
364,-566,6.06262,4.20251,0,0,0,0,0,0,0,-1,1588,1590,6.06259,-4.20246
371,-566,5.78455,3.21912,0,0,0,0,0,0,0,-1,1595,1590,5.7846,-3.21912
378,-566,5.7439,0.695557,0,0,0,0,0,0,0,-1,1602,1590,5.74392,-0.695531
385,-566,5.67615,-0.573975,0,0,0,0,0,0,0,-1,1609,1590,5.67612,0.573956
392,-566,5.78638,1.82434,0,0,0,0,0,0,0,-1,1616,1590,5.78637,-1.82439
399,-566,5.36621,1.7373,0,0,0,0,0,0,0,-1,1623,1590,5.36627,-1.7373
406,-566,4.30359,5.26868,0,0,0,0,0,0,0,-1,1630,1590,4.30364,-5.26867
413,-566,4.27124,5.79492,0,0,0,0,0,0,0,-1,1637,1590,4.27123,-5.7949
420,-566,7.19812,8.25146,0,0,0,0,0,0,0,-1,1644,1590,7.19817,-8.25149
427,-566,10.455,10.6842,0,0,0,0,0,0,0,-1,1651,1590,10.455,-10.6842
434,-566,9.18567,14.3304,0,0,0,0,0,0,0,-1,1658,1590,9.18571,-14.3305
441,-566,9.27356,14.8594,0,0,0,0,0,0,0,-1,1665,1590,9.27353,-14.8594
448,-566,9.17859,14.3038,-0.00673052,-0.0247122,0.0228705,0.00885288,-0.0402956,0.598117,0.0302496,0.0362959,1672,1590,9.17858,-14.3039
455,-566,9.01758,14.3066,-0.0066029,-0.021444,0.0201404,0.00744052,-0.0354874,0.608894,0.0264891,0.0281211,1679,1590,9.01762,-14.3067
462,-566,8.98254,14.1761,-0.00616548,-0.0182987,0.0174208,0.00621482,-0.030679,0.617846,0.0228083,0.0174533,1686,1590,8.98254,-14.1761
469,-566,8.98706,13.9233,-0.00550695,-0.0154325,0.0148702,0.00520678,-0.0261462,0.62434,0.0194007,0.0130439,1693,1590,8.98707,-13.9233
476,-566,8.99854,13.6971,-0.00492143,-0.012776,0.0124533,0.00420919,-0.0219066,0.632654,0.0161909,0.0102,1700,1590,8.99854,-13.6972
483,-566,9.00208,13.4615,-0.0040764,-0.0102556,0.0101452,0.00343923,-0.0177712,0.637591,0.0131447,0.00993328,1707,1590,9.00207,-13.4615
490,-566,9.0022,13.224,-0.00316918,-0.00775054,0.00802047,0.0028813,-0.013801,0.646299,0.0102964,0.0104995,1714,1590,9.00216,-13.224
497,-566,9.04041,13.0134,-0.00223913,-0.00575926,0.00596543,0.00222047,-0.0102189,0.641946,0.00766076,0.0140405,1721,1590,9.04034,-13.0134
504,-566,9.04944,12.7864,-0.00131345,-0.00387117,0.00404669,0.00165165,-0.00683627,0.632351,0.00519631,0.0207158,1728,1590,9.04948,-12.7864
511,-566,9.02393,12.5491,-0.000328959,-0.00224607,0.0022075,0.00111912,-0.00369415,0.580568,0.00290849,0.02019,1735,1590,9.02392,-12.549
518,-566,9.03772,12.3143,0.000713004,-0.00096309,0.000614249,0.000914007,-0.00116409,0.316251,0.00120268,0.0109409,1742,1590,9.03773,-12.3143
525,-566,9.03906,12.0574,0.0017841,-0.000133554,-0.000689221,0.00200611,-0.000355563,-0.311622,0.00147033,0.0108687,1749,1590,9.03908,-12.0573
532,-566,9.01855,11.8268,0.00295367,0.000464683,-0.00182496,0.00391808,-0.000499728,-0.486151,0.00279357,0.0132044,1756,1590,9.01855,-11.8267
539,-566,9.01318,11.5771,0.00396595,0.000543899,-0.00229265,0.00511567,-0.000605822,-0.464831,0.00362928,0.0161527,1763,1590,9.01323,-11.5772
546,-566,9.07068,11.2743,0.00487681,0.000184946,-0.00239916,0.00588638,-0.00082462,-0.398307,0.00422603,0.0209584,1770,1590,9.07066,-11.2743
553,-566,9.10535,11.1121,0.0063197,-0.000257292,-0.0026918,0.00728091,-0.0012185,-0.342975,0.00530694,0.0396005,1777,1590,9.10532,-11.112
560,-566,8.91736,10.8813,0,0,0,0,0,0,0,-1,1784,1590,8.91731,-10.8813
567,-566,9.07861,10.5883,0,0,0,0,0,0,0,-1,1791,1590,9.07863,-10.5883
574,-566,7.99548,3.14514,0,0,0,0,0,0,0,-1,1798,1590,7.99543,-3.14511
581,-566,2.54102,5.1311,0,0,0,0,0,0,0,-1,1805,1590,2.54099,-5.13111
588,-566,-1.91321,8.39197,0,0,0,0,0,0,0,-1,1812,1590,-1.91316,-8.39199
595,-566,9.0271,4.66467,0,0,0,0,0,0,0,-1,1819,1590,9.02705,-4.66468
602,-566,9.953,3.54895,0,0,0,0,0,0,0,-1,1826,1590,9.953,-3.54898
609,-566,0,0,0,0,0,0,0,0,0,-1,1833,1590,0,0
616,-566,0,0,0,0,0,0,0,0,0,-1,1840,1590,0,0
623,-566,0,0,0,0,0,0,0,0,0,-1,1847,1590,0,0
630,-566,0,0,0,0,0,0,0,0,0,-1,1854,1590,0,0
637,-566,0,0,0,0,0,0,0,0,0,-1,1861,1590,0,0
644,-566,0,0,0,0,0,0,0,0,0,-1,1868,1590,0,0
651,-566,0,0,0,0,0,0,0,0,0,-1,1875,1590,0,0
658,-566,0,0,0,0,0,0,0,0,0,-1,1882,1590,0,0
665,-566,0,0,0,0,0,0,0,0,0,-1,1889,1590,0,0
672,-566,0,0,0,0,0,0,0,0,0,-1,1896,1590,0,0
679,-566,0,0,0,0,0,0,0,0,0,-1,1903,1590,0,0
686,-566,0,0,0,0,0,0,0,0,0,-1,1910,1590,0,0
693,-566,0,0,0,0,0,0,0,0,0,-1,1917,1590,0,0
700,-566,0,0,0,0,0,0,0,0,0,-1,1924,1590,0,0
707,-566,0,0,0,0,0,0,0,0,0,-1,1931,1590,0,0
714,-566,0,0,0,0,0,0,0,0,0,-1,1938,1590,0,0
721,-566,0,0,0,0,0,0,0,0,0,-1,1945,1590,0,0
728,-566,0,0,0,0,0,0,0,0,0,-1,1952,1590,0,0
735,-566,0,0,0,0,0,0,0,0,0,-1,1959,1590,0,0
742,-566,0,0,0,0,0,0,0,0,0,-1,1966,1590,0,0
749,-566,0,0,0,0,0,0,0,0,0,-1,1973,1590,0,0
756,-566,0,0,0,0,0,0,0,0,0,-1,1980,1590,0,0
763,-566,0,0,0,0,0,0,0,0,0,-1,1987,1590,0,0
770,-566,0,0,0,0,0,0,0,0,0,-1,1994,1590,0,0
777,-566,0,0,0,0,0,0,0,0,0,-1,2001,1590,0,0
784,-566,0,0,0,0,0,0,0,0,0,-1,2008,1590,0,0
791,-566,0,0,0,0,0,0,0,0,0,-1,2015,1590,0,0
798,-566,0,0,0,0,0,0,0,0,0,-1,2022,1590,0,0
805,-566,0,0,0,0,0,0,0,0,0,-1,2029,1590,0,0
812,-566,0,0,0,0,0,0,0,0,0,-1,2036,1590,0,0
-700,-573,0,0,0,0,0,0,0,0,0,-1,524,1597,0,0
-693,-573,0,0,0,0,0,0,0,0,0,-1,531,1597,0,0
-686,-573,0,0,0,0,0,0,0,0,0,-1,538,1597,0,0
-679,-573,0,0,0,0,0,0,0,0,0,-1,545,1597,0,0
-672,-573,0,0,0,0,0,0,0,0,0,-1,552,1597,0,0
-665,-573,0,0,0,0,0,0,0,0,0,-1,559,1597,0,0
-658,-573,0,0,0,0,0,0,0,0,0,-1,566,1597,0,0
-651,-573,0,0,0,0,0,0,0,0,0,-1,573,1597,0,0
-644,-573,0,0,0,0,0,0,0,0,0,-1,580,1597,0,0
-637,-573,0,0,0,0,0,0,0,0,0,-1,587,1597,0,0
-630,-573,0,0,0,0,0,0,0,0,0,-1,594,1597,0,0
-623,-573,0,0,0,0,0,0,0,0,0,-1,601,1597,0,0
-616,-573,0,0,0,0,0,0,0,0,0,-1,608,1597,0,0
-609,-573,0,0,0,0,0,0,0,0,0,-1,615,1597,0,0
-602,-573,0,0,0,0,0,0,0,0,0,-1,622,1597,0,0
-595,-573,0,0,0,0,0,0,0,0,0,-1,629,1597,0,0
-588,-573,0,0,0,0,0,0,0,0,0,-1,636,1597,0,0
-581,-573,0,0,0,0,0,0,0,0,0,-1,643,1597,0,0
-574,-573,0,0,0,0,0,0,0,0,0,-1,650,1597,0,0
-567,-573,0,0,0,0,0,0,0,0,0,-1,657,1597,0,0
-560,-573,0,0,0,0,0,0,0,0,0,-1,664,1597,0,0
-553,-573,0,0,0,0,0,0,0,0,0,-1,671,1597,0,0
-546,-573,0,0,0,0,0,0,0,0,0,-1,678,1597,0,0
-539,-573,0,0,0,0,0,0,0,0,0,-1,685,1597,0,0
-532,-573,0,0,0,0,0,0,0,0,0,-1,692,1597,0,0
-525,-573,0,0,0,0,0,0,0,0,0,-1,699,1597,0,0
-518,-573,0,0,0,0,0,0,0,0,0,-1,706,1597,0,0
-511,-573,0,0,0,0,0,0,0,0,0,-1,713,1597,0,0
-504,-573,0,0,0,0,0,0,0,0,0,-1,720,1597,0,0
-497,-573,0,0,0,0,0,0,0,0,0,-1,727,1597,0,0
-490,-573,0,0,0,0,0,0,0,0,0,-1,734,1597,0,0
-483,-573,0,0,0,0,0,0,0,0,0,-1,741,1597,0,0
-476,-573,-1.86273,0.293091,0,0,0,0,0,0,0,-1,748,1597,-1.86276,-0.29314
-469,-573,-1.41681,1.13379,0,0,0,0,0,0,0,-1,755,1597,-1.41681,-1.13382
-462,-573,-0.748535,2.02588,0,0,0,0,0,0,0,-1,762,1597,-0.748533,-2.02584
-455,-573,-0.112976,2.70703,0,0,0,0,0,0,0,-1,769,1597,-0.112988,-2.70697
-448,-573,-1.26172,3.33252,0,0,0,0,0,0,0,-1,776,1597,-1.26173,-3.33248
-441,-573,0.108582,5.06726,0,0,0,0,0,0,0,-1,783,1597,0.108584,-5.06721
-434,-573,1.61768,7.05444,0,0,0,0,0,0,0,-1,790,1597,1.61767,-7.05446
-427,-573,0.782532,9.40894,0,0,0,0,0,0,0,-1,797,1597,0.78254,-9.40889
-420,-573,0.988708,9.70935,0.00535933,-0.000133109,-6.95948e-06,0.00535934,-0.000133118,-0.0012671,0.00361808,0.0492917,804,1597,0.988736,-9.70935
-413,-573,1.34888,9.88672,0.00319436,6.0129e-05,-0.000566181,0.0032935,-3.90124e-05,-0.173348,0.00220879,0.0425502,811,1597,1.3489,-9.88667
-406,-573,1.18945,10.1997,0.00171513,0.000133326,-0.000714547,0.00199011,-0.000141653,-0.367361,0.00137639,0.0204932,818,1597,1.18946,-10.1997
-399,-573,1.15845,10.5082,0.000839574,-8.89767e-05,-0.0006874,0.0012048,-0.000454202,-0.488383,0.000989963,0.0114073,825,1597,1.15843,-10.5082
-392,-573,1.172,10.7759,0.000350355,-0.000333059,-0.000626433,0.000722217,-0.000704921,-0.535715,0.000823979,0.0116623,832,1597,1.17201,-10.7759
-385,-573,1.16663,11.0642,8.7372e-05,-0.000540774,-0.000659278,0.000503566,-0.000956967,-0.563108,0.000856676,0.0141861,839,1597,1.16661,-11.0642
-378,-573,1.16156,11.3235,3.89142e-05,-0.000335095,-0.000598179,0.000478638,-0.000774818,-0.6339,0.000730387,0.0152246,846,1597,1.16156,-11.3235
-371,-573,1.16693,11.5923,0.000154636,-8.89322e-05,-0.000569791,0.000615512,-0.000549808,-0.680115,0.000673154,0.0150988,853,1597,1.16693,-11.5923
-364,-573,1.14178,11.8553,0.00035347,0.000248097,-0.000525865,0.000829281,-0.000227714,-0.73547,0.000642357,0.0174412,860,1597,1.14176,-11.8553
-357,-573,1.15033,12.0709,0.000944645,0.000556586,-0.000426448,0.00121913,0.000282102,-0.5719,0.000736942,0.0204377,867,1597,1.15031,-12.0709
-350,-573,1.17017,12.3143,0.0017544,0.00085307,-0.000435852,0.00193068,0.000676784,-0.384347,0.00113116,0.0164684,874,1597,1.17015,-12.3143
-343,-573,1.16608,12.5393,0.00254933,0.00107403,-0.000451183,0.00267637,0.000946985,-0.274471,0.00156706,0.0205541,881,1597,1.1661,-12.5393
-336,-573,1.13501,12.8148,0.00335933,0.00113168,-0.000506515,0.00346909,0.00102192,-0.2134,0.00205845,0.0170737,888,1597,1.13501,-12.8149
-329,-573,1.14966,13.0581,0.00419117,0.00114658,-0.000671613,0.00433274,0.00100501,-0.207749,0.00261859,0.0176378,895,1597,1.14965,-13.0581
-322,-573,1.15033,13.3232,0.0048604,0.000519698,-0.00113753,0.00514044,0.000239661,-0.24138,0.00334993,0.0133225,902,1597,1.15034,-13.3233
-315,-573,1.22662,13.627,0.00540381,-0.000356505,-0.00165156,0.00584374,-0.00079643,-0.260325,0.00418663,0.0207822,909,1597,1.22665,-13.627
-308,-573,1.24249,13.7156,0.00576321,-0.00172086,-0.00243926,0.00648803,-0.00244568,-0.288839,0.00533098,0.0311398,916,1597,1.24249,-13.7156
-301,-573,1.28467,13.843,0.00603359,-0.00352609,-0.00339002,0.00711371,-0.00460621,-0.308448,0.00681793,0.0322826,923,1597,1.28466,-13.843
-294,-573,1.31854,14.0648,0.00591461,-0.00602144,-0.0046696,0.00752435,-0.00763118,-0.331969,0.00875012,0.0366493,930,1597,1.31857,-14.0649
-287,-573,1.33777,14.1948,0.00549057,-0.00944791,-0.00627213,0.00777475,-0.0117321,-0.34925,0.0113393,0.0467839,937,1597,1.33775,-14.1948
-280,-573,1.35339,14.3363,0,0,0,0,0,0,0,-1,944,1597,1.35337,-14.3363
-273,-573,-0.225037,10.6533,0,0,0,0,0,0,0,-1,951,1597,-0.225018,-10.6533
-266,-573,1.31116,7.1814,0,0,0,0,0,0,0,-1,958,1597,1.31118,-7.18142
-259,-573,1.2514,6.70959,0,0,0,0,0,0,0,-1,965,1597,1.25137,-6.70965
-252,-573,2.07874,5.27161,0,0,0,0,0,0,0,-1,972,1597,2.07875,-5.27157
-245,-573,-10.2592,1.09827,0,0,0,0,0,0,0,-1,979,1597,-10.2592,-1.09823
-238,-573,-11.5463,4.44141,0,0,0,0,0,0,0,-1,986,1597,-11.5463,-4.44146
-231,-573,-9.23431,4.14539,0,0,0,0,0,0,0,-1,993,1597,-9.23431,-4.14534
-224,-573,-6.70044,7.40857,0,0,0,0,0,0,0,-1,1000,1597,-6.70045,-7.40851
-217,-573,-4.25824,8.59119,0,0,0,0,0,0,0,-1,1007,1597,-4.25824,-8.59122
-210,-573,-2.39661,9.73914,0,0,0,0,0,0,0,-1,1014,1597,-2.39658,-9.73915
-203,-573,-0.557373,10.9005,0,0,0,0,0,0,0,-1,1021,1597,-0.557387,-10.9006
-196,-573,-1.65344,9.02246,0,0,0,0,0,0,0,-1,1028,1597,-1.65349,-9.02241
-189,-573,-6.12915,6.66882,0,0,0,0,0,0,0,-1,1035,1597,-6.12913,-6.66884
-182,-573,0,0,0,0,0,0,0,0,0,-1,1042,1597,0,0
-175,-573,0,0,0,0,0,0,0,0,0,-1,1049,1597,0,0
-168,-573,0,0,0,0,0,0,0,0,0,-1,1056,1597,0,0
-161,-573,0,0,0,0,0,0,0,0,0,-1,1063,1597,0,0
-154,-573,0,0,0,0,0,0,0,0,0,-1,1070,1597,0,0
-147,-573,0,0,0,0,0,0,0,0,0,-1,1077,1597,0,0
-140,-573,0,0,0,0,0,0,0,0,0,-1,1084,1597,0,0
-133,-573,0,0,0,0,0,0,0,0,0,-1,1091,1597,0,0
-126,-573,0,0,0,0,0,0,0,0,0,-1,1098,1597,0,0
-119,-573,0,0,0,0,0,0,0,0,0,-1,1105,1597,0,0
-112,-573,0,0,0,0,0,0,0,0,0,-1,1112,1597,0,0
-105,-573,0,0,0,0,0,0,0,0,0,-1,1119,1597,0,0
-98,-573,0,0,0,0,0,0,0,0,0,-1,1126,1597,0,0
-91,-573,0,0,0,0,0,0,0,0,0,-1,1133,1597,0,0
-84,-573,0,0,0,0,0,0,0,0,0,-1,1140,1597,0,0
-77,-573,0,0,0,0,0,0,0,0,0,-1,1147,1597,0,0
-70,-573,0,0,0,0,0,0,0,0,0,-1,1154,1597,0,0
-63,-573,0,0,0,0,0,0,0,0,0,-1,1161,1597,0,0
-56,-573,0,0,0,0,0,0,0,0,0,-1,1168,1597,0,0
-49,-573,0,0,0,0,0,0,0,0,0,-1,1175,1597,0,0
-42,-573,0,0,0,0,0,0,0,0,0,-1,1182,1597,0,0
-35,-573,0,0,0,0,0,0,0,0,0,-1,1189,1597,0,0
-28,-573,0,0,0,0,0,0,0,0,0,-1,1196,1597,0,0
-21,-573,0,0,0,0,0,0,0,0,0,-1,1203,1597,0,0
-14,-573,0,0,0,0,0,0,0,0,0,-1,1210,1597,0,0
-7,-573,0,0,0,0,0,0,0,0,0,-1,1217,1597,0,0
0,-573,0,0,0,0,0,0,0,0,0,-1,1224,1597,0,0
7,-573,0,0,0,0,0,0,0,0,0,-1,1231,1597,0,0
14,-573,0,0,0,0,0,0,0,0,0,-1,1238,1597,0,0
21,-573,0,0,0,0,0,0,0,0,0,-1,1245,1597,0,0
28,-573,0,0,0,0,0,0,0,0,0,-1,1252,1597,0,0
35,-573,0,0,0,0,0,0,0,0,0,-1,1259,1597,0,0
42,-573,0,0,0,0,0,0,0,0,0,-1,1266,1597,0,0
49,-573,0,0,0,0,0,0,0,0,0,-1,1273,1597,0,0
56,-573,0,0,0,0,0,0,0,0,0,-1,1280,1597,0,0
63,-573,0,0,0,0,0,0,0,0,0,-1,1287,1597,0,0
70,-573,0,0,0,0,0,0,0,0,0,-1,1294,1597,0,0
77,-573,0,0,0,0,0,0,0,0,0,-1,1301,1597,0,0
84,-573,0,0,0,0,0,0,0,0,0,-1,1308,1597,0,0
91,-573,0,0,0,0,0,0,0,0,0,-1,1315,1597,0,0
98,-573,0,0,0,0,0,0,0,0,0,-1,1322,1597,0,0
105,-573,0,0,0,0,0,0,0,0,0,-1,1329,1597,0,0
112,-573,0,0,0,0,0,0,0,0,0,-1,1336,1597,0,0
119,-573,0,0,0,0,0,0,0,0,0,-1,1343,1597,0,0
126,-573,0,0,0,0,0,0,0,0,0,-1,1350,1597,0,0
133,-573,0,0,0,0,0,0,0,0,0,-1,1357,1597,0,0
140,-573,0,0,0,0,0,0,0,0,0,-1,1364,1597,0,0
147,-573,0,0,0,0,0,0,0,0,0,-1,1371,1597,0,0
154,-573,0,0,0,0,0,0,0,0,0,-1,1378,1597,0,0
161,-573,0,0,0,0,0,0,0,0,0,-1,1385,1597,0,0
168,-573,0,0,0,0,0,0,0,0,0,-1,1392,1597,0,0
175,-573,0,0,0,0,0,0,0,0,0,-1,1399,1597,0,0
182,-573,0,0,0,0,0,0,0,0,0,-1,1406,1597,0,0
189,-573,0,0,0,0,0,0,0,0,0,-1,1413,1597,0,0
196,-573,0,0,0,0,0,0,0,0,0,-1,1420,1597,0,0
203,-573,0,0,0,0,0,0,0,0,0,-1,1427,1597,0,0
210,-573,0,0,0,0,0,0,0,0,0,-1,1434,1597,0,0
217,-573,0,0,0,0,0,0,0,0,0,-1,1441,1597,0,0
224,-573,0,0,0,0,0,0,0,0,0,-1,1448,1597,0,0
231,-573,0,0,0,0,0,0,0,0,0,-1,1455,1597,0,0
238,-573,0,0,0,0,0,0,0,0,0,-1,1462,1597,0,0
245,-573,0,0,0,0,0,0,0,0,0,-1,1469,1597,0,0
252,-573,0,0,0,0,0,0,0,0,0,-1,1476,1597,0,0
259,-573,0,0,0,0,0,0,0,0,0,-1,1483,1597,0,0
266,-573,0,0,0,0,0,0,0,0,0,-1,1490,1597,0,0
273,-573,0,0,0,0,0,0,0,0,0,-1,1497,1597,0,0
280,-573,0,0,0,0,0,0,0,0,0,-1,1504,1597,0,0
287,-573,0,0,0,0,0,0,0,0,0,-1,1511,1597,0,0
294,-573,0,0,0,0,0,0,0,0,0,-1,1518,1597,0,0
301,-573,0,0,0,0,0,0,0,0,0,-1,1525,1597,0,0
308,-573,5.93042,9.71143,0,0,0,0,0,0,0,-1,1532,1597,5.93046,-9.71144
315,-573,4.34204,11.719,0,0,0,0,0,0,0,-1,1539,1597,4.34205,-11.719
322,-573,10.3269,7.77563,0,0,0,0,0,0,0,-1,1546,1597,10.327,-7.77565
329,-573,4.99573,3.80273,0,0,0,0,0,0,0,-1,1553,1597,4.9957,-3.80273
336,-573,4.85693,2.53455,0,0,0,0,0,0,0,-1,1560,1597,4.8569,-2.53459
343,-573,4.11877,0.735596,0,0,0,0,0,0,0,-1,1567,1597,4.11878,-0.735585
350,-573,2.53748,1.56433,0,0,0,0,0,0,0,-1,1574,1597,2.53753,-1.5643
357,-573,7.40247,4.03613,0,0,0,0,0,0,0,-1,1581,1597,7.40244,-4.03614
364,-573,7.14551,3.02087,0,0,0,0,0,0,0,-1,1588,1597,7.14556,-3.02084
371,-573,6.88867,2.00549,0,0,0,0,0,0,0,-1,1595,1597,6.88868,-2.00553
378,-573,8.62012,6.09106,0,0,0,0,0,0,0,-1,1602,1597,8.62012,-6.09103
385,-573,6.54346,-0.951904,0,0,0,0,0,0,0,-1,1609,1597,6.54349,0.951901
392,-573,6.41833,-2.18225,0,0,0,0,0,0,0,-1,1616,1597,6.41831,2.18228
399,-573,4.26282,4.73657,0,0,0,0,0,0,0,-1,1623,1597,4.26285,-4.73652
406,-573,6.82715,10.823,0,0,0,0,0,0,0,-1,1630,1597,6.82719,-10.823
413,-573,8.90552,13.1737,0,0,0,0,0,0,0,-1,1637,1597,8.90553,-13.1737
420,-573,9.56421,15.2781,0,0,0,0,0,0,0,-1,1644,1597,9.56426,-15.2781
427,-573,10.0957,15.0084,0,0,0,0,0,0,0,-1,1651,1597,10.0957,-15.0084
434,-573,8.92151,14.4764,-0.00521601,-0.0215548,0.0212751,0.00940426,-0.036175,0.602085,0.0277871,0.0497693,1658,1597,8.92154,-14.4765
441,-573,8.91138,14.7441,-0.00513906,-0.0194641,0.0189983,0.00800209,-0.0326052,0.605134,0.0248377,0.0343694,1665,1597,8.91142,-14.7441
448,-573,8.79614,14.6267,-0.00472601,-0.0171431,0.0165854,0.00677485,-0.0286439,0.606304,0.0217095,0.0208327,1672,1597,8.7962,-14.6268
455,-573,8.73633,14.3842,-0.00450607,-0.0147776,0.0143746,0.0056227,-0.0249064,0.613825,0.0187615,0.0164708,1679,1597,8.73629,-14.3842
462,-573,8.76086,14.1244,-0.0040792,-0.012552,0.0121572,0.00455857,-0.0211898,0.617743,0.0158659,0.0190573,1686,1597,8.76082,-14.1243
469,-573,8.78101,13.9142,-0.00347414,-0.0104864,0.0101063,0.00371694,-0.0176775,0.618432,0.0131996,0.0154157,1693,1597,8.78103,-13.9142
476,-573,8.80859,13.6971,-0.00298743,-0.00856503,0.00818754,0.00287323,-0.0144257,0.621253,0.0107042,0.0137855,1700,1597,8.80865,-13.6971
483,-573,8.81787,13.4612,-0.00227785,-0.00672323,0.00636623,0.00224255,-0.0112436,0.617445,0.00834432,0.0109717,1707,1597,8.81782,-13.4612
490,-573,8.79956,13.2295,-0.00153659,-0.0048319,0.00472022,0.00181528,-0.00818377,0.617479,0.00615089,0.0102411,1714,1597,8.79953,-13.2295
497,-573,8.79688,13.0089,-0.000787886,-0.00338491,0.00314612,0.00131716,-0.00548996,0.58968,0.00416897,0.0159715,1721,1597,8.79687,-13.0089
504,-573,8.79346,12.7618,-2.38027e-05,-0.0020283,0.00170803,0.000954316,-0.00300642,0.520074,0.00238685,0.0168763,1728,1597,8.79342,-12.7618
511,-573,8.78613,12.516,0.000754263,-0.000908108,0.000393664,0.000842773,-0.000996619,0.22116,0.00106321,0.0175038,1735,1597,8.78616,-12.516
518,-573,8.79236,12.2977,0.00155338,-0.000190581,-0.000671928,0.00178223,-0.000419435,-0.32827,0.00134987,0.0129097,1742,1597,8.79231,-12.2977
525,-573,8.80444,12.0775,0.00242271,0.000287968,-0.00152873,0.00321982,-0.000509141,-0.480637,0.00233484,0.015566,1749,1597,8.80445,-12.0775
532,-573,8.80945,11.8363,0.00349106,0.000540051,-0.00230847,0.00475529,-0.000724179,-0.501036,0.00343711,0.0152653,1756,1597,8.80944,-11.8364
539,-573,8.76624,11.6133,0.00444833,0.00027159,-0.00233511,0.0054927,-0.000772774,-0.42056,0.0039447,0.0223335,1763,1597,8.76623,-11.6133
546,-573,8.87671,11.3572,0.00548085,-0.00033948,-0.00223434,0.00623966,-0.00109829,-0.327389,0.00457007,0.038215,1770,1597,8.87673,-11.3571
553,-573,8.69739,11.204,0,0,0,0,0,0,0,-1,1777,1597,8.69734,-11.204
560,-573,8.41785,10.6366,0,0,0,0,0,0,0,-1,1784,1597,8.4178,-10.6366
567,-573,4.99597,2.77759,0,0,0,0,0,0,0,-1,1791,1597,4.99596,-2.7776
574,-573,0.83374,5.7041,0,0,0,0,0,0,0,-1,1798,1597,0.833718,-5.70405
581,-573,-0.224854,7.41602,0,0,0,0,0,0,0,-1,1805,1597,-0.224904,-7.41596
588,-573,-0.134033,7.67065,0,0,0,0,0,0,0,-1,1812,1597,-0.134037,-7.67063
595,-573,-0.0825195,8.35083,0,0,0,0,0,0,0,-1,1819,1597,-0.0824684,-8.35088
602,-573,0,0,0,0,0,0,0,0,0,-1,1826,1597,0,0
609,-573,0,0,0,0,0,0,0,0,0,-1,1833,1597,0,0
616,-573,0,0,0,0,0,0,0,0,0,-1,1840,1597,0,0
623,-573,0,0,0,0,0,0,0,0,0,-1,1847,1597,0,0
630,-573,0,0,0,0,0,0,0,0,0,-1,1854,1597,0,0
637,-573,0,0,0,0,0,0,0,0,0,-1,1861,1597,0,0
644,-573,0,0,0,0,0,0,0,0,0,-1,1868,1597,0,0
651,-573,0,0,0,0,0,0,0,0,0,-1,1875,1597,0,0
658,-573,0,0,0,0,0,0,0,0,0,-1,1882,1597,0,0
665,-573,0,0,0,0,0,0,0,0,0,-1,1889,1597,0,0
672,-573,0,0,0,0,0,0,0,0,0,-1,1896,1597,0,0
679,-573,0,0,0,0,0,0,0,0,0,-1,1903,1597,0,0
686,-573,0,0,0,0,0,0,0,0,0,-1,1910,1597,0,0
693,-573,0,0,0,0,0,0,0,0,0,-1,1917,1597,0,0
700,-573,0,0,0,0,0,0,0,0,0,-1,1924,1597,0,0
707,-573,0,0,0,0,0,0,0,0,0,-1,1931,1597,0,0
714,-573,0,0,0,0,0,0,0,0,0,-1,1938,1597,0,0
721,-573,0,0,0,0,0,0,0,0,0,-1,1945,1597,0,0
728,-573,0,0,0,0,0,0,0,0,0,-1,1952,1597,0,0
735,-573,0,0,0,0,0,0,0,0,0,-1,1959,1597,0,0
742,-573,0,0,0,0,0,0,0,0,0,-1,1966,1597,0,0
749,-573,0,0,0,0,0,0,0,0,0,-1,1973,1597,0,0
756,-573,0,0,0,0,0,0,0,0,0,-1,1980,1597,0,0
763,-573,0,0,0,0,0,0,0,0,0,-1,1987,1597,0,0
770,-573,0,0,0,0,0,0,0,0,0,-1,1994,1597,0,0
777,-573,0,0,0,0,0,0,0,0,0,-1,2001,1597,0,0
784,-573,0,0,0,0,0,0,0,0,0,-1,2008,1597,0,0
791,-573,0,0,0,0,0,0,0,0,0,-1,2015,1597,0,0
798,-573,0,0,0,0,0,0,0,0,0,-1,2022,1597,0,0
805,-573,0,0,0,0,0,0,0,0,0,-1,2029,1597,0,0
812,-573,0,0,0,0,0,0,0,0,0,-1,2036,1597,0,0
-700,-580,0,0,0,0,0,0,0,0,0,-1,524,1604,0,0
-693,-580,0,0,0,0,0,0,0,0,0,-1,531,1604,0,0
-686,-580,0,0,0,0,0,0,0,0,0,-1,538,1604,0,0
-679,-580,0,0,0,0,0,0,0,0,0,-1,545,1604,0,0
-672,-580,0,0,0,0,0,0,0,0,0,-1,552,1604,0,0
-665,-580,0,0,0,0,0,0,0,0,0,-1,559,1604,0,0
-658,-580,0,0,0,0,0,0,0,0,0,-1,566,1604,0,0
-651,-580,0,0,0,0,0,0,0,0,0,-1,573,1604,0,0
-644,-580,0,0,0,0,0,0,0,0,0,-1,580,1604,0,0
-637,-580,0,0,0,0,0,0,0,0,0,-1,587,1604,0,0
-630,-580,0,0,0,0,0,0,0,0,0,-1,594,1604,0,0
-623,-580,0,0,0,0,0,0,0,0,0,-1,601,1604,0,0
-616,-580,0,0,0,0,0,0,0,0,0,-1,608,1604,0,0
-609,-580,0,0,0,0,0,0,0,0,0,-1,615,1604,0,0
-602,-580,0,0,0,0,0,0,0,0,0,-1,622,1604,0,0
-595,-580,0,0,0,0,0,0,0,0,0,-1,629,1604,0,0
-588,-580,0,0,0,0,0,0,0,0,0,-1,636,1604,0,0
-581,-580,0,0,0,0,0,0,0,0,0,-1,643,1604,0,0
-574,-580,0,0,0,0,0,0,0,0,0,-1,650,1604,0,0
-567,-580,0,0,0,0,0,0,0,0,0,-1,657,1604,0,0
-560,-580,0,0,0,0,0,0,0,0,0,-1,664,1604,0,0
-553,-580,0,0,0,0,0,0,0,0,0,-1,671,1604,0,0
-546,-580,0,0,0,0,0,0,0,0,0,-1,678,1604,0,0
-539,-580,0,0,0,0,0,0,0,0,0,-1,685,1604,0,0
-532,-580,0,0,0,0,0,0,0,0,0,-1,692,1604,0,0
-525,-580,0,0,0,0,0,0,0,0,0,-1,699,1604,0,0
-518,-580,0,0,0,0,0,0,0,0,0,-1,706,1604,0,0
-511,-580,0,0,0,0,0,0,0,0,0,-1,713,1604,0,0
-504,-580,0,0,0,0,0,0,0,0,0,-1,720,1604,0,0
-497,-580,0,0,0,0,0,0,0,0,0,-1,727,1604,0,0
-490,-580,0,0,0,0,0,0,0,0,0,-1,734,1604,0,0
-483,-580,0,0,0,0,0,0,0,0,0,-1,741,1604,0,0
-476,-580,0,0,0,0,0,0,0,0,0,-1,748,1604,0,0
-469,-580,-1.69189,-0.38916,0,0,0,0,0,0,0,-1,755,1604,-1.69192,0.389188
-462,-580,-0.859863,0.675293,0,0,0,0,0,0,0,-1,762,1604,-0.859834,-0.675245
-455,-580,-0.730164,0.651978,0,0,0,0,0,0,0,-1,769,1604,-0.730153,-0.651957
-448,-580,-3.31891,2.07544,0,0,0,0,0,0,0,-1,776,1604,-3.3189,-2.07539
-441,-580,-1.63843,3.9469,0,0,0,0,0,0,0,-1,783,1604,-1.63842,-3.94695
-434,-580,0.23291,5.97876,0,0,0,0,0,0,0,-1,790,1604,0.232901,-5.97878
-427,-580,1.62756,8.05493,0,0,0,0,0,0,0,-1,797,1604,1.62758,-8.05488
-420,-580,1.3147,9.45313,0,0,0,0,0,0,0,-1,804,1604,1.31472,-9.45318
-413,-580,1.74738,9.81824,0,0,0,0,0,0,0,-1,811,1604,1.7474,-9.81821
-406,-580,1.55725,10.2751,0.00179658,0.000129983,-0.00108973,0.00233511,-0.000408544,-0.458983,0.00170927,0.0438034,818,1604,1.55722,-10.2752
-399,-580,1.4079,10.5415,0.000783825,-0.000244359,-0.00101767,0.00140988,-0.000870414,-0.551512,0.00132875,0.0172915,825,1604,1.40792,-10.5415
-392,-580,1.4104,10.8038,0.000252893,-0.000650398,-0.000901221,0.000809307,-0.00120681,-0.553115,0.00117152,0.0113532,832,1604,1.41039,-10.8039
-385,-580,1.43225,11.0691,-4.74028e-05,-0.000975657,-0.000848911,0.000455974,-0.00147903,-0.535233,0.00116807,0.0122126,839,1604,1.43223,-11.069
-378,-580,1.42834,11.329,-0.000236906,-0.000830261,-0.000758364,0.000280746,-0.00134791,-0.598946,0.00100534,0.0152323,846,1604,1.42835,-11.329
-371,-580,1.43365,11.6053,-0.000164629,-0.000667655,-0.00068562,0.000314155,-0.00114644,-0.609599,0.000887738,0.0135844,853,1604,1.43364,-11.6053
-364,-580,1.39398,11.8387,-4.50697e-05,-0.000405049,-0.000580563,0.000382764,-0.000832883,-0.635083,0.000717712,0.0186748,860,1604,1.39398,-11.8387
-357,-580,1.40637,12.0634,0.000452927,-0.000142471,-0.000419126,0.000669321,-0.000358865,-0.476601,0.000602576,0.0125639,867,1604,1.4064,-12.0634
-350,-580,1.42023,12.3311,0.00116118,0.000132987,-0.000372997,0.00128223,1.19283e-05,-0.313831,0.000850875,0.00980603,874,1604,1.42021,-12.331
-343,-580,1.40552,12.5635,0.00179575,0.000305843,-0.000351422,0.00187448,0.000227113,-0.220391,0.00118125,0.0103097,881,1604,1.4055,-12.5635
-336,-580,1.39288,12.7657,0.00241714,0.000354297,-0.000375882,0.0024835,0.00028794,-0.174736,0.00156852,0.0187144,888,1604,1.39288,-12.7658
-329,-580,1.40399,13.0514,0.00303213,0.000384815,-0.000512528,0.00312789,0.000289052,-0.184714,0.0019959,0.0183817,895,1604,1.40398,-13.0514
-322,-580,1.39636,13.3386,0.00347948,-0.000122413,-0.000901397,0.00369247,-0.000335399,-0.232029,0.00258072,0.019306,902,1604,1.39635,-13.3386
-315,-580,1.40979,13.5646,0.00379897,-0.000877362,-0.00135798,0.00416471,-0.00124311,-0.263087,0.00327056,0.0159314,909,1604,1.4098,-13.5646
-308,-580,1.44775,13.8262,0.00394337,-0.00204947,-0.00206303,0.00458489,-0.00269099,-0.301482,0.0042479,0.0186436,916,1604,1.44778,-13.8261
-301,-580,1.50983,13.9919,0.0040178,-0.00357646,-0.00291917,0.00501021,-0.00456888,-0.327707,0.00553245,0.0172298,923,1604,1.50985,-13.992
-294,-580,1.53156,14.1431,0.00385161,-0.00553828,-0.00398117,0.00531233,-0.006999,-0.351657,0.00713015,0.0203407,930,1604,1.53155,-14.143
-287,-580,1.50677,14.2361,0.00352909,-0.00825245,-0.00532944,0.00558213,-0.0103055,-0.367705,0.00930686,0.0408215,937,1604,1.50678,-14.236
-280,-580,1.44763,14.3521,0,0,0,0,0,0,0,-1,944,1604,1.44764,-14.3521
-273,-580,1.13904,14.1741,0,0,0,0,0,0,0,-1,951,1604,1.13907,-14.1741
-266,-580,0.494202,8.78955,0,0,0,0,0,0,0,-1,958,1604,0.494174,-8.78958
-259,-580,1.31091,9.11536,0,0,0,0,0,0,0,-1,965,1604,1.31092,-9.11539
-252,-580,1.07629,7.74097,0,0,0,0,0,0,0,-1,972,1604,1.07627,-7.74101
-245,-580,3.80304,9.16028,0,0,0,0,0,0,0,-1,979,1604,3.80306,-9.16034
-238,-580,-10.3588,1.57556,0,0,0,0,0,0,0,-1,986,1604,-10.3588,-1.5755
-231,-580,-10.576,6.43787,0,0,0,0,0,0,0,-1,993,1604,-10.576,-6.43783
-224,-580,-8.27435,7.58972,0,0,0,0,0,0,0,-1,1000,1604,-8.27435,-7.5897
-217,-580,-5.85632,9.51221,0,0,0,0,0,0,0,-1,1007,1604,-5.85632,-9.5122
-210,-580,-3.6684,11.1569,0,0,0,0,0,0,0,-1,1014,1604,-3.66839,-11.1569
-203,-580,-1.92474,12.7845,0,0,0,0,0,0,0,-1,1021,1604,-1.92477,-12.7845
-196,-580,-2.28552,10.3289,0,0,0,0,0,0,0,-1,1028,1604,-2.28552,-10.3288
-189,-580,-4.58252,7.59058,0,0,0,0,0,0,0,-1,1035,1604,-4.58256,-7.59057
-182,-580,-5.45874,7.65942,0,0,0,0,0,0,0,-1,1042,1604,-5.45876,-7.65939
-175,-580,-6.38977,7.55005,0,0,0,0,0,0,0,-1,1049,1604,-6.38981,-7.5501
-168,-580,0,0,0,0,0,0,0,0,0,-1,1056,1604,0,0
-161,-580,0,0,0,0,0,0,0,0,0,-1,1063,1604,0,0
-154,-580,0,0,0,0,0,0,0,0,0,-1,1070,1604,0,0
-147,-580,0,0,0,0,0,0,0,0,0,-1,1077,1604,0,0
-140,-580,0,0,0,0,0,0,0,0,0,-1,1084,1604,0,0
-133,-580,0,0,0,0,0,0,0,0,0,-1,1091,1604,0,0
-126,-580,0,0,0,0,0,0,0,0,0,-1,1098,1604,0,0
-119,-580,0,0,0,0,0,0,0,0,0,-1,1105,1604,0,0
-112,-580,0,0,0,0,0,0,0,0,0,-1,1112,1604,0,0
-105,-580,0,0,0,0,0,0,0,0,0,-1,1119,1604,0,0
-98,-580,0,0,0,0,0,0,0,0,0,-1,1126,1604,0,0
-91,-580,0,0,0,0,0,0,0,0,0,-1,1133,1604,0,0
-84,-580,0,0,0,0,0,0,0,0,0,-1,1140,1604,0,0
-77,-580,0,0,0,0,0,0,0,0,0,-1,1147,1604,0,0
-70,-580,0,0,0,0,0,0,0,0,0,-1,1154,1604,0,0
-63,-580,0,0,0,0,0,0,0,0,0,-1,1161,1604,0,0
-56,-580,0,0,0,0,0,0,0,0,0,-1,1168,1604,0,0
-49,-580,0,0,0,0,0,0,0,0,0,-1,1175,1604,0,0
-42,-580,0,0,0,0,0,0,0,0,0,-1,1182,1604,0,0
-35,-580,0,0,0,0,0,0,0,0,0,-1,1189,1604,0,0
-28,-580,0,0,0,0,0,0,0,0,0,-1,1196,1604,0,0
-21,-580,0,0,0,0,0,0,0,0,0,-1,1203,1604,0,0
-14,-580,0,0,0,0,0,0,0,0,0,-1,1210,1604,0,0
-7,-580,0,0,0,0,0,0,0,0,0,-1,1217,1604,0,0
0,-580,0,0,0,0,0,0,0,0,0,-1,1224,1604,0,0
7,-580,0,0,0,0,0,0,0,0,0,-1,1231,1604,0,0
14,-580,0,0,0,0,0,0,0,0,0,-1,1238,1604,0,0
21,-580,0,0,0,0,0,0,0,0,0,-1,1245,1604,0,0
28,-580,0,0,0,0,0,0,0,0,0,-1,1252,1604,0,0
35,-580,0,0,0,0,0,0,0,0,0,-1,1259,1604,0,0
42,-580,0,0,0,0,0,0,0,0,0,-1,1266,1604,0,0
49,-580,0,0,0,0,0,0,0,0,0,-1,1273,1604,0,0
56,-580,0,0,0,0,0,0,0,0,0,-1,1280,1604,0,0
63,-580,0,0,0,0,0,0,0,0,0,-1,1287,1604,0,0
70,-580,0,0,0,0,0,0,0,0,0,-1,1294,1604,0,0
77,-580,0,0,0,0,0,0,0,0,0,-1,1301,1604,0,0
84,-580,0,0,0,0,0,0,0,0,0,-1,1308,1604,0,0
91,-580,0,0,0,0,0,0,0,0,0,-1,1315,1604,0,0
98,-580,0,0,0,0,0,0,0,0,0,-1,1322,1604,0,0
105,-580,0,0,0,0,0,0,0,0,0,-1,1329,1604,0,0
112,-580,0,0,0,0,0,0,0,0,0,-1,1336,1604,0,0
119,-580,0,0,0,0,0,0,0,0,0,-1,1343,1604,0,0
126,-580,0,0,0,0,0,0,0,0,0,-1,1350,1604,0,0
133,-580,0,0,0,0,0,0,0,0,0,-1,1357,1604,0,0
140,-580,0,0,0,0,0,0,0,0,0,-1,1364,1604,0,0
147,-580,0,0,0,0,0,0,0,0,0,-1,1371,1604,0,0
154,-580,0,0,0,0,0,0,0,0,0,-1,1378,1604,0,0
161,-580,0,0,0,0,0,0,0,0,0,-1,1385,1604,0,0
168,-580,0,0,0,0,0,0,0,0,0,-1,1392,1604,0,0
175,-580,0,0,0,0,0,0,0,0,0,-1,1399,1604,0,0
182,-580,0,0,0,0,0,0,0,0,0,-1,1406,1604,0,0
189,-580,0,0,0,0,0,0,0,0,0,-1,1413,1604,0,0
196,-580,0,0,0,0,0,0,0,0,0,-1,1420,1604,0,0
203,-580,0,0,0,0,0,0,0,0,0,-1,1427,1604,0,0
210,-580,0,0,0,0,0,0,0,0,0,-1,1434,1604,0,0
217,-580,0,0,0,0,0,0,0,0,0,-1,1441,1604,0,0
224,-580,0,0,0,0,0,0,0,0,0,-1,1448,1604,0,0
231,-580,0,0,0,0,0,0,0,0,0,-1,1455,1604,0,0
238,-580,0,0,0,0,0,0,0,0,0,-1,1462,1604,0,0
245,-580,0,0,0,0,0,0,0,0,0,-1,1469,1604,0,0
252,-580,0,0,0,0,0,0,0,0,0,-1,1476,1604,0,0
259,-580,0,0,0,0,0,0,0,0,0,-1,1483,1604,0,0
266,-580,0,0,0,0,0,0,0,0,0,-1,1490,1604,0,0
273,-580,0,0,0,0,0,0,0,0,0,-1,1497,1604,0,0
280,-580,0,0,0,0,0,0,0,0,0,-1,1504,1604,0,0
287,-580,0,0,0,0,0,0,0,0,0,-1,1511,1604,0,0
294,-580,4.0437,0.177368,0,0,0,0,0,0,0,-1,1518,1604,4.04369,-0.177371
301,-580,7.55164,8.05798,0,0,0,0,0,0,0,-1,1525,1604,7.55158,-8.05802
308,-580,5.9126,9.99341,0,0,0,0,0,0,0,-1,1532,1604,5.91255,-9.99337
315,-580,4.27356,11.9287,0,0,0,0,0,0,0,-1,1539,1604,4.27352,-11.9287
322,-580,10.2366,7.50281,0,0,0,0,0,0,0,-1,1546,1604,10.2366,-7.50282
329,-580,10.5962,8.69641,0,0,0,0,0,0,0,-1,1553,1604,10.5962,-8.69642
336,-580,3.66431,1.58862,0,0,0,0,0,0,0,-1,1560,1604,3.6643,-1.58864
343,-580,3.32227,1.39636,0,0,0,0,0,0,0,-1,1567,1604,3.32222,-1.39633
350,-580,8.71277,4.0564,0,0,0,0,0,0,0,-1,1574,1604,8.71271,-4.05638
357,-580,8.52332,3.08154,0,0,0,0,0,0,0,-1,1581,1604,8.52332,-3.08157
364,-580,8.25818,2.07605,0,0,0,0,0,0,0,-1,1588,1604,8.25812,-2.07608
371,-580,7.42114,7.14282,0,0,0,0,0,0,0,-1,1595,1604,7.42119,-7.14281
378,-580,7.9718,6.6731,0,0,0,0,0,0,0,-1,1602,1604,7.9718,-6.67307
385,-580,8.52246,6.20337,0,0,0,0,0,0,0,-1,1609,1604,8.52241,-6.20334
392,-580,6.5498,-2.15625,0,0,0,0,0,0,0,-1,1616,1604,6.54984,2.15626
399,-580,6.52625,10.7247,0,0,0,0,0,0,0,-1,1623,1604,6.52628,-10.7248
406,-580,9.03577,15.1766,0,0,0,0,0,0,0,-1,1630,1604,9.03573,-15.1767
413,-580,8.98254,15.207,0,0,0,0,0,0,0,-1,1637,1604,8.98253,-15.207
420,-580,8.92542,15.3137,-0.00473906,-0.0185345,0.0199318,0.00945477,-0.0327283,0.618815,0.0255602,0.0432308,1644,1604,8.92541,-15.3137
427,-580,9.14783,15.1254,-0.00432695,-0.0167222,0.0176062,0.00814056,-0.0291897,0.616164,0.022666,0.0386867,1651,1604,9.14786,-15.1253
434,-580,8.65979,14.86,-0.00395229,-0.0149829,0.0156809,0.00715493,-0.0260901,0.616294,0.0202052,0.0284261,1658,1604,8.65982,-14.86
441,-580,8.53967,14.7396,-0.00359769,-0.0132974,0.0136714,0.00605856,-0.0229537,0.614949,0.0176716,0.0129274,1665,1604,8.53962,-14.7396
448,-580,8.53516,14.5525,-0.00300938,-0.0115172,0.0116113,0.00510267,-0.0196293,0.609811,0.0150777,0.0115717,1672,1604,8.53512,-14.5525
455,-580,8.55725,14.337,-0.00271104,-0.00974087,0.00978369,0.00416997,-0.0166219,0.612947,0.0127015,0.0185283,1679,1604,8.55723,-14.3371
462,-580,8.51953,14.1122,-0.00228652,-0.00811002,0.00794053,0.00325929,-0.0136558,0.609664,0.0103626,0.0227461,1686,1604,8.51958,-14.1122
469,-580,8.55786,13.9039,-0.00172124,-0.00660288,0.00626074,0.00255765,-0.0108818,0.599531,0.00824045,0.0192705,1693,1604,8.55782,-13.904
476,-580,8.58972,13.6841,-0.00129877,-0.00521054,0.00472778,0.00186173,-0.00837104,0.589268,0.00629373,0.0147912,1700,1604,8.58978,-13.6841
483,-580,8.56934,13.4596,-0.000710729,-0.00388629,0.00330932,0.001372,-0.00596902,0.561723,0.00450683,0.0128506,1707,1604,8.5693,-13.4596
490,-580,8.54102,13.2555,-0.000143919,-0.00250998,0.002085,0.00107029,-0.00372419,0.527346,0.00290602,0.0152431,1714,1604,8.54105,-13.2556
497,-580,8.52771,13.017,0.000399347,-0.00152609,0.000955232,0.000792835,-0.00191958,0.390747,0.00161042,0.0121601,1721,1604,8.52771,-13.0169
504,-580,8.51489,12.7708,0.000959484,-0.000668213,-1.0945e-05,0.000959558,-0.000668287,-0.0067238,0.000944838,0.0160874,1728,1604,8.51484,-12.7707
511,-580,8.54846,12.5482,0.00148944,-4.03219e-05,-0.000803214,0.0018337,-0.000384583,-0.40492,0.00136879,0.0170737,1735,1604,8.54848,-12.5482
518,-580,8.55969,12.321,0.00200176,0.000121803,-0.00133982,0.00269845,-0.000574889,-0.479509,0.00201808,0.0159678,1742,1604,8.55966,-12.3211
525,-580,8.53088,12.0679,0.00263912,0.000229185,-0.0017539,0.00356209,-0.000693783,-0.484417,0.00263659,0.0171231,1749,1604,8.53087,-12.0679
532,-580,8.53625,11.8108,0.00359228,0.000109315,-0.00218055,0.00464142,-0.000939824,-0.448442,0.00345049,0.0198468,1756,1604,8.53622,-11.8108
539,-580,8.56714,11.5265,0,0,0,0,0,0,0,-1,1763,1604,8.56718,-11.5265
546,-580,8.85071,11.3766,0,0,0,0,0,0,0,-1,1770,1604,8.85071,-11.3766
553,-580,9.26685,10.9806,0,0,0,0,0,0,0,-1,1777,1604,9.26681,-10.9806
560,-580,7.09021,6.49438,0,0,0,0,0,0,0,-1,1784,1604,7.09016,-6.4944
567,-580,3.87708,4.0647,0,0,0,0,0,0,0,-1,1791,1604,3.87711,-4.06471
574,-580,2.31653,5.62952,0,0,0,0,0,0,0,-1,1798,1604,2.31654,-5.62947
581,-580,1.60876,6.67664,0,0,0,0,0,0,0,-1,1805,1604,1.60873,-6.67667
588,-580,1.38684,7.14441,0,0,0,0,0,0,0,-1,1812,1604,1.38689,-7.14443
595,-580,0,0,0,0,0,0,0,0,0,-1,1819,1604,0,0
602,-580,0,0,0,0,0,0,0,0,0,-1,1826,1604,0,0
609,-580,0,0,0,0,0,0,0,0,0,-1,1833,1604,0,0
616,-580,0,0,0,0,0,0,0,0,0,-1,1840,1604,0,0
623,-580,0,0,0,0,0,0,0,0,0,-1,1847,1604,0,0
630,-580,0,0,0,0,0,0,0,0,0,-1,1854,1604,0,0
637,-580,0,0,0,0,0,0,0,0,0,-1,1861,1604,0,0
644,-580,0,0,0,0,0,0,0,0,0,-1,1868,1604,0,0
651,-580,0,0,0,0,0,0,0,0,0,-1,1875,1604,0,0
658,-580,0,0,0,0,0,0,0,0,0,-1,1882,1604,0,0
665,-580,0,0,0,0,0,0,0,0,0,-1,1889,1604,0,0
672,-580,0,0,0,0,0,0,0,0,0,-1,1896,1604,0,0
679,-580,0,0,0,0,0,0,0,0,0,-1,1903,1604,0,0
686,-580,0,0,0,0,0,0,0,0,0,-1,1910,1604,0,0
693,-580,0,0,0,0,0,0,0,0,0,-1,1917,1604,0,0
700,-580,0,0,0,0,0,0,0,0,0,-1,1924,1604,0,0
707,-580,0,0,0,0,0,0,0,0,0,-1,1931,1604,0,0
714,-580,0,0,0,0,0,0,0,0,0,-1,1938,1604,0,0
721,-580,0,0,0,0,0,0,0,0,0,-1,1945,1604,0,0
728,-580,0,0,0,0,0,0,0,0,0,-1,1952,1604,0,0
735,-580,0,0,0,0,0,0,0,0,0,-1,1959,1604,0,0
742,-580,0,0,0,0,0,0,0,0,0,-1,1966,1604,0,0
749,-580,0,0,0,0,0,0,0,0,0,-1,1973,1604,0,0
756,-580,0,0,0,0,0,0,0,0,0,-1,1980,1604,0,0
763,-580,0,0,0,0,0,0,0,0,0,-1,1987,1604,0,0
770,-580,0,0,0,0,0,0,0,0,0,-1,1994,1604,0,0
777,-580,0,0,0,0,0,0,0,0,0,-1,2001,1604,0,0
784,-580,0,0,0,0,0,0,0,0,0,-1,2008,1604,0,0
791,-580,0,0,0,0,0,0,0,0,0,-1,2015,1604,0,0
798,-580,0,0,0,0,0,0,0,0,0,-1,2022,1604,0,0
805,-580,0,0,0,0,0,0,0,0,0,-1,2029,1604,0,0
812,-580,0,0,0,0,0,0,0,0,0,-1,2036,1604,0,0
-700,-587,0,0,0,0,0,0,0,0,0,-1,524,1611,0,0
-693,-587,0,0,0,0,0,0,0,0,0,-1,531,1611,0,0
-686,-587,0,0,0,0,0,0,0,0,0,-1,538,1611,0,0
-679,-587,0,0,0,0,0,0,0,0,0,-1,545,1611,0,0
-672,-587,0,0,0,0,0,0,0,0,0,-1,552,1611,0,0
-665,-587,0,0,0,0,0,0,0,0,0,-1,559,1611,0,0
-658,-587,0,0,0,0,0,0,0,0,0,-1,566,1611,0,0
-651,-587,0,0,0,0,0,0,0,0,0,-1,573,1611,0,0
-644,-587,0,0,0,0,0,0,0,0,0,-1,580,1611,0,0
-637,-587,0,0,0,0,0,0,0,0,0,-1,587,1611,0,0
-630,-587,0,0,0,0,0,0,0,0,0,-1,594,1611,0,0
-623,-587,0,0,0,0,0,0,0,0,0,-1,601,1611,0,0
-616,-587,0,0,0,0,0,0,0,0,0,-1,608,1611,0,0
-609,-587,0,0,0,0,0,0,0,0,0,-1,615,1611,0,0
-602,-587,0,0,0,0,0,0,0,0,0,-1,622,1611,0,0
-595,-587,0,0,0,0,0,0,0,0,0,-1,629,1611,0,0
-588,-587,0,0,0,0,0,0,0,0,0,-1,636,1611,0,0
-581,-587,0,0,0,0,0,0,0,0,0,-1,643,1611,0,0
-574,-587,0,0,0,0,0,0,0,0,0,-1,650,1611,0,0
-567,-587,0,0,0,0,0,0,0,0,0,-1,657,1611,0,0
-560,-587,0,0,0,0,0,0,0,0,0,-1,664,1611,0,0
-553,-587,0,0,0,0,0,0,0,0,0,-1,671,1611,0,0
-546,-587,0,0,0,0,0,0,0,0,0,-1,678,1611,0,0
-539,-587,0,0,0,0,0,0,0,0,0,-1,685,1611,0,0
-532,-587,0,0,0,0,0,0,0,0,0,-1,692,1611,0,0
-525,-587,0,0,0,0,0,0,0,0,0,-1,699,1611,0,0
-518,-587,0,0,0,0,0,0,0,0,0,-1,706,1611,0,0
-511,-587,0,0,0,0,0,0,0,0,0,-1,713,1611,0,0
-504,-587,0,0,0,0,0,0,0,0,0,-1,720,1611,0,0
-497,-587,0,0,0,0,0,0,0,0,0,-1,727,1611,0,0
-490,-587,0,0,0,0,0,0,0,0,0,-1,734,1611,0,0
-483,-587,0,0,0,0,0,0,0,0,0,-1,741,1611,0,0
-476,-587,0,0,0,0,0,0,0,0,0,-1,748,1611,0,0
-469,-587,0,0,0,0,0,0,0,0,0,-1,755,1611,0,0
-462,-587,-0.714355,-0.418457,0,0,0,0,0,0,0,-1,762,1611,-0.714359,0.418483
-455,-587,-0.619812,-0.522461,0,0,0,0,0,0,0,-1,769,1611,-0.619802,0.522515
-448,-587,-0.461731,-0.686523,0,0,0,0,0,0,0,-1,776,1611,-0.461739,0.686559
-441,-587,-3.56555,2.72253,0,0,0,0,0,0,0,-1,783,1611,-3.56555,-2.72259
-434,-587,-1.77319,4.76318,0,0,0,0,0,0,0,-1,790,1611,-1.77318,-4.76323
-427,-587,0.0346069,6.92944,0,0,0,0,0,0,0,-1,797,1611,0.034587,-6.92941
-420,-587,-0.647156,10.1157,0,0,0,0,0,0,0,-1,804,1611,-0.647128,-10.1158
-413,-587,2.0481,8.28052,0,0,0,0,0,0,0,-1,811,1611,2.0481,-8.28049
-406,-587,1.92743,10.3236,0,0,0,0,0,0,0,-1,818,1611,1.92745,-10.3236
-399,-587,1.71948,10.5881,0.000441349,-0.000525985,-0.00165099,0.00167806,-0.00176269,-0.642907,0.00198672,0.0341377,825,1611,1.71948,-10.5882
-392,-587,1.70941,10.7708,-8.37629e-05,-0.0010722,-0.00138378,0.000891404,-0.00204737,-0.613882,0.0017399,0.0241696,832,1611,1.7094,-10.7707
-385,-587,1.65851,11.0345,-0.000345549,-0.00146066,-0.00115637,0.000380666,-0.00218687,-0.560762,0.00159997,0.0153785,839,1611,1.65852,-11.0345
-378,-587,1.66162,11.3159,-0.000580755,-0.00133715,-0.000961845,7.45755e-05,-0.00199248,-0.598084,0.00135386,0.0135259,846,1611,1.66159,-11.3159
-371,-587,1.65759,11.6157,-0.000481212,-0.00121604,-0.000792688,2.50702e-05,-0.00172233,-0.568384,0.00115667,0.0137425,853,1611,1.6576,-11.6157
-364,-587,1.65143,11.849,-0.000365681,-0.000985481,-0.000589179,-9.87051e-06,-0.00134129,-0.543288,0.000890922,0.0173638,860,1611,1.65143,-11.849
-357,-587,1.64642,12.0413,0.000101267,-0.000723205,-0.000350057,0.000229844,-0.000851782,-0.352005,0.00065799,0.0165907,867,1611,1.6464,-12.0413
-350,-587,1.64008,12.3353,0.000758408,-0.000426622,-0.00024364,0.000806545,-0.000474758,-0.19506,0.000747982,0.00921661,874,1611,1.64008,-12.3353
-343,-587,1.6181,12.6018,0.00129236,-0.00026094,-0.000189402,0.00131513,-0.000283702,-0.1196,0.000985031,0.0116487,881,1611,1.6181,-12.6018
-336,-587,1.62646,12.8049,0.00179287,-0.000184787,-0.000195269,0.00181197,-0.000203884,-0.0974833,0.00128136,0.0120358,888,1611,1.62644,-12.8049
-329,-587,1.63141,13.0461,0.00226448,-0.000122278,-0.000321125,0.00230693,-0.000164728,-0.131431,0.0015957,0.0142605,895,1611,1.63143,-13.0461
-322,-587,1.65082,13.3162,0.00257695,-0.000472727,-0.000644613,0.00270761,-0.000603382,-0.199978,0.00203622,0.017811,902,1611,1.65083,-13.3161
-315,-587,1.64966,13.52,0.00276325,-0.00110065,-0.00105041,0.00303035,-0.00136774,-0.248998,0.00259901,0.0143026,909,1611,1.64965,-13.52
-308,-587,1.65411,13.7687,0.00277716,-0.00209243,-0.001688,0.00330506,-0.00262032,-0.303101,0.00342863,0.0136516,916,1611,1.65413,-13.7687
-301,-587,1.68085,14.0068,0.00273434,-0.00337592,-0.00246906,0.00360732,-0.00424891,-0.339851,0.00454084,0.0126467,923,1611,1.68082,-14.0068
-294,-587,1.73395,14.2299,0.00259142,-0.00488411,-0.00333497,0.00386294,-0.00615563,-0.364255,0.00583449,0.0135428,930,1611,1.73396,-14.2299
-287,-587,1.73022,14.4745,0.00235377,-0.00695171,-0.00440038,0.00410504,-0.00870298,-0.378765,0.00755187,0.0237838,937,1611,1.73021,-14.4745
-280,-587,1.66449,14.6869,0.00207411,-0.00940414,-0.0056092,0.00435999,-0.01169,-0.386975,0.00958319,0.0371672,944,1611,1.66449,-14.6869
-273,-587,1.54462,14.4413,0.0012205,-0.0120549,-0.00726124,0.00442072,-0.0152552,-0.415115,0.0119201,0.0466762,951,1611,1.54462,-14.4412
-266,-587,1.63147,14.7826,0,0,0,0,0,0,0,-1,958,1611,1.63144,-14.7825
-259,-587,1.49408,14.7959,0,0,0,0,0,0,0,-1,965,1611,1.49411,-14.7959
-252,-587,1.30188,10.3103,0,0,0,0,0,0,0,-1,972,1611,1.30188,-10.3104
-245,-587,2.97797,12.0387,0,0,0,0,0,0,0,-1,979,1611,2.97798,-12.0387
-238,-587,2.87799,9.53821,0,0,0,0,0,0,0,-1,986,1611,2.87797,-9.53823
-231,-587,2.49548,9.14465,0,0,0,0,0,0,0,-1,993,1611,2.49551,-9.14468
-224,-587,-9.72528,9.21069,0,0,0,0,0,0,0,-1,1000,1611,-9.72529,-9.21072
-217,-587,-7.07495,10.7847,0,0,0,0,0,0,0,-1,1007,1611,-7.07495,-10.7847
-210,-587,-4.72308,12.5889,0,0,0,0,0,0,0,-1,1014,1611,-4.72307,-12.5888
-203,-587,-3.2583,13.7289,0,0,0,0,0,0,0,-1,1021,1611,-3.25828,-13.7289
-196,-587,-1.953,14.8145,0,0,0,0,0,0,0,-1,1028,1611,-1.95302,-14.8144
-189,-587,-3.04138,8.66638,0,0,0,0,0,0,0,-1,1035,1611,-3.04136,-8.66635
-182,-587,-3.97095,9.7146,0,0,0,0,0,0,0,-1,1042,1611,-3.97093,-9.71461
-175,-587,-4.80969,8.37878,0,0,0,0,0,0,0,-1,1049,1611,-4.80964,-8.37883
-168,-587,-5.91394,8.72546,0,0,0,0,0,0,0,-1,1056,1611,-5.91398,-8.72542
-161,-587,-7.06946,8.88501,0,0,0,0,0,0,0,-1,1063,1611,-7.06947,-8.885
-154,-587,-2.24731,6.56519,0,0,0,0,0,0,0,-1,1070,1611,-2.24728,-6.56517
-147,-587,0,0,0,0,0,0,0,0,0,-1,1077,1611,0,0
-140,-587,0,0,0,0,0,0,0,0,0,-1,1084,1611,0,0
-133,-587,0,0,0,0,0,0,0,0,0,-1,1091,1611,0,0
-126,-587,0,0,0,0,0,0,0,0,0,-1,1098,1611,0,0
-119,-587,0,0,0,0,0,0,0,0,0,-1,1105,1611,0,0
-112,-587,0,0,0,0,0,0,0,0,0,-1,1112,1611,0,0
-105,-587,0,0,0,0,0,0,0,0,0,-1,1119,1611,0,0
-98,-587,0,0,0,0,0,0,0,0,0,-1,1126,1611,0,0
-91,-587,0,0,0,0,0,0,0,0,0,-1,1133,1611,0,0
-84,-587,0,0,0,0,0,0,0,0,0,-1,1140,1611,0,0
-77,-587,0,0,0,0,0,0,0,0,0,-1,1147,1611,0,0
-70,-587,0,0,0,0,0,0,0,0,0,-1,1154,1611,0,0
-63,-587,0,0,0,0,0,0,0,0,0,-1,1161,1611,0,0
-56,-587,0,0,0,0,0,0,0,0,0,-1,1168,1611,0,0
-49,-587,0,0,0,0,0,0,0,0,0,-1,1175,1611,0,0
-42,-587,0,0,0,0,0,0,0,0,0,-1,1182,1611,0,0
-35,-587,0,0,0,0,0,0,0,0,0,-1,1189,1611,0,0
-28,-587,0,0,0,0,0,0,0,0,0,-1,1196,1611,0,0
-21,-587,0,0,0,0,0,0,0,0,0,-1,1203,1611,0,0
-14,-587,0,0,0,0,0,0,0,0,0,-1,1210,1611,0,0
-7,-587,0,0,0,0,0,0,0,0,0,-1,1217,1611,0,0
0,-587,0,0,0,0,0,0,0,0,0,-1,1224,1611,0,0
7,-587,0,0,0,0,0,0,0,0,0,-1,1231,1611,0,0
14,-587,0,0,0,0,0,0,0,0,0,-1,1238,1611,0,0
21,-587,0,0,0,0,0,0,0,0,0,-1,1245,1611,0,0
28,-587,0,0,0,0,0,0,0,0,0,-1,1252,1611,0,0
35,-587,0,0,0,0,0,0,0,0,0,-1,1259,1611,0,0
42,-587,0,0,0,0,0,0,0,0,0,-1,1266,1611,0,0
49,-587,0,0,0,0,0,0,0,0,0,-1,1273,1611,0,0
56,-587,0,0,0,0,0,0,0,0,0,-1,1280,1611,0,0
63,-587,0,0,0,0,0,0,0,0,0,-1,1287,1611,0,0
70,-587,0,0,0,0,0,0,0,0,0,-1,1294,1611,0,0
77,-587,0,0,0,0,0,0,0,0,0,-1,1301,1611,0,0
84,-587,0,0,0,0,0,0,0,0,0,-1,1308,1611,0,0
91,-587,0,0,0,0,0,0,0,0,0,-1,1315,1611,0,0
98,-587,0,0,0,0,0,0,0,0,0,-1,1322,1611,0,0
105,-587,0,0,0,0,0,0,0,0,0,-1,1329,1611,0,0
112,-587,0,0,0,0,0,0,0,0,0,-1,1336,1611,0,0
119,-587,0,0,0,0,0,0,0,0,0,-1,1343,1611,0,0
126,-587,0,0,0,0,0,0,0,0,0,-1,1350,1611,0,0
133,-587,0,0,0,0,0,0,0,0,0,-1,1357,1611,0,0
140,-587,0,0,0,0,0,0,0,0,0,-1,1364,1611,0,0
147,-587,0,0,0,0,0,0,0,0,0,-1,1371,1611,0,0
154,-587,0,0,0,0,0,0,0,0,0,-1,1378,1611,0,0
161,-587,0,0,0,0,0,0,0,0,0,-1,1385,1611,0,0
168,-587,0,0,0,0,0,0,0,0,0,-1,1392,1611,0,0
175,-587,0,0,0,0,0,0,0,0,0,-1,1399,1611,0,0
182,-587,0,0,0,0,0,0,0,0,0,-1,1406,1611,0,0
189,-587,0,0,0,0,0,0,0,0,0,-1,1413,1611,0,0
196,-587,0,0,0,0,0,0,0,0,0,-1,1420,1611,0,0
203,-587,0,0,0,0,0,0,0,0,0,-1,1427,1611,0,0
210,-587,0,0,0,0,0,0,0,0,0,-1,1434,1611,0,0
217,-587,0,0,0,0,0,0,0,0,0,-1,1441,1611,0,0
224,-587,0,0,0,0,0,0,0,0,0,-1,1448,1611,0,0
231,-587,0,0,0,0,0,0,0,0,0,-1,1455,1611,0,0
238,-587,0,0,0,0,0,0,0,0,0,-1,1462,1611,0,0
245,-587,0,0,0,0,0,0,0,0,0,-1,1469,1611,0,0
252,-587,0,0,0,0,0,0,0,0,0,-1,1476,1611,0,0
259,-587,0,0,0,0,0,0,0,0,0,-1,1483,1611,0,0
266,-587,0,0,0,0,0,0,0,0,0,-1,1490,1611,0,0
273,-587,10.2936,6.35083,0,0,0,0,0,0,0,-1,1497,1611,10.2936,-6.35087
280,-587,2.09204,1.1217,0,0,0,0,0,0,0,-1,1504,1611,2.092,-1.12176
287,-587,3.2865,0.671509,0,0,0,0,0,0,0,-1,1511,1611,3.28656,-0.671538
294,-587,4.24646,1.58765,0,0,0,0,0,0,0,-1,1518,1611,4.24648,-1.58761
301,-587,7.60474,8.37085,0,0,0,0,0,0,0,-1,1525,1611,7.60478,-8.37084
308,-587,5.99316,10.2291,0,0,0,0,0,0,0,-1,1532,1611,5.99315,-10.2291
315,-587,4.34558,12.3289,0,0,0,0,0,0,0,-1,1539,1611,4.34556,-12.3288
322,-587,10.4526,6.38245,0,0,0,0,0,0,0,-1,1546,1611,10.4526,-6.38245
329,-587,10.7738,8.42444,0,0,0,0,0,0,0,-1,1553,1611,10.7738,-8.42438
336,-587,7.5531,5.96619,0,0,0,0,0,0,0,-1,1560,1611,7.55311,-5.96617
343,-587,9.57495,4.38391,0,0,0,0,0,0,0,-1,1567,1611,9.57494,-4.38397
350,-587,9.50378,3.45093,0,0,0,0,0,0,0,-1,1574,1611,9.50376,-3.4509
357,-587,9.40027,2.50806,0,0,0,0,0,0,0,-1,1581,1611,9.40022,-2.50803
364,-587,9.26477,1.34131,0,0,0,0,0,0,0,-1,1588,1611,9.26479,-1.34126
371,-587,6.98926,7.87561,0,0,0,0,0,0,0,-1,1595,1611,6.98928,-7.87564
378,-587,9.25146,13.8358,0,0,0,0,0,0,0,-1,1602,1611,9.2515,-13.8359
385,-587,7.17224,7.03772,0,0,0,0,0,0,0,-1,1609,1611,7.1722,-7.03778
392,-587,5.3916,8.21436,0,0,0,0,0,0,0,-1,1616,1611,5.39157,-8.21437
399,-587,8.20886,15.3087,0,0,0,0,0,0,0,-1,1623,1611,8.2089,-15.3088
406,-587,8.63867,15.3971,-0.00409614,-0.0156092,0.0180418,0.00908521,-0.0287905,0.63097,0.0228327,0.0447202,1630,1611,8.6387,-15.3971
413,-587,8.56543,15.3879,-0.0040793,-0.014924,0.0167628,0.00811637,-0.0271197,0.628972,0.0213069,0.0342803,1637,1611,8.5654,-15.3879
420,-587,8.43884,15.3748,-0.00386774,-0.0132299,0.0150366,0.00719957,-0.0242972,0.634497,0.0190569,0.0329695,1644,1611,8.43885,-15.3748
427,-587,8.4469,15.2012,-0.00343438,-0.0117605,0.0131836,0.00622786,-0.0214227,0.632465,0.0167483,0.0262037,1651,1611,8.44687,-15.2012
434,-587,8.3335,14.9933,-0.00308025,-0.0103491,0.0114222,0.00527181,-0.0187011,0.631369,0.0145467,0.0157288,1658,1611,8.33345,-14.9933
441,-587,8.31458,14.7759,-0.00271561,-0.00901228,0.00970588,0.00433979,-0.0160677,0.628566,0.0124139,0.0168336,1665,1611,8.31461,-14.7759
448,-587,8.34009,14.5526,-0.00214158,-0.00763956,0.00798445,0.00355386,-0.013335,0.619607,0.0102814,0.0149333,1672,1611,8.34009,-14.5526
455,-587,8.34949,14.3564,-0.00186749,-0.00630987,0.00648396,0.00276518,-0.0109425,0.62038,0.00837041,0.0143191,1679,1611,8.34953,-14.3564
462,-587,8.3252,14.1222,-0.00150813,-0.00510855,0.00496104,0.00196923,-0.0085859,0.611352,0.00648085,0.0175825,1686,1611,8.32525,-14.1221
469,-587,8.34656,13.9114,-0.00101064,-0.00400529,0.0035866,0.00137864,-0.00639457,0.587658,0.0047892,0.0158711,1693,1611,8.34662,-13.9114
476,-587,8.35193,13.7162,-0.000634273,-0.00299534,0.00236666,0.000829949,-0.00445956,0.554047,0.00328483,0.0107879,1700,1611,8.35198,-13.7162
483,-587,8.30188,13.4907,-0.000111326,-0.00204873,0.00127105,0.000518081,-0.00267814,0.459789,0.00198083,0.0145305,1707,1611,8.30182,-13.4908
490,-587,8.28943,13.2491,0.000378784,-0.0010699,0.000379324,0.000472096,-0.00116321,0.241207,0.000971843,0.0176933,1714,1611,8.28937,-13.2491
497,-587,8.28687,13.0157,0.000862165,-0.000420457,-0.000402992,0.000978272,-0.000536564,-0.280516,0.000886898,0.0128798,1721,1611,8.28686,-13.0158
504,-587,8.27649,12.8,0.00138491,3.60195e-05,-0.000989163,0.00190768,-0.000486749,-0.486184,0.00146131,0.0118024,1728,1611,8.27653,-12.8
511,-587,8.31738,12.5836,0.00188035,0.000271958,-0.00136376,0.00265937,-0.000507064,-0.518996,0.00196388,0.0140493,1735,1611,8.3174,-12.5836
518,-587,8.33374,12.3346,0.00233621,-1.21966e-06,-0.00147795,0.0030517,-0.00071671,-0.450855,0.00231072,0.0145362,1742,1611,8.33371,-12.3346
525,-587,8.32629,12.059,0.002959,-0.000201018,-0.00154435,0.00358839,-0.000830409,-0.386993,0.00271178,0.0178678,1749,1611,8.32632,-12.059
532,-587,8.31372,11.8335,0.00398959,-0.000663638,-0.00169591,0.00454208,-0.00121613,-0.314936,0.00350448,0.0323538,1756,1611,8.31368,-11.8335
539,-587,8.56433,11.7401,0,0,0,0,0,0,0,-1,1763,1611,8.56428,-11.7401
546,-587,8.76111,11.4771,0,0,0,0,0,0,0,-1,1770,1611,8.7611,-11.477
553,-587,7.5813,8.45068,0,0,0,0,0,0,0,-1,1777,1611,7.58125,-8.45068
560,-587,4.21179,5.23547,0,0,0,0,0,0,0,-1,1784,1611,4.21185,-5.23553
567,-587,4.03711,5.46387,0,0,0,0,0,0,0,-1,1791,1611,4.03715,-5.46382
574,-587,3.83142,5.68884,0,0,0,0,0,0,0,-1,1798,1611,3.83141,-5.68881
581,-587,3.47168,6.00977,0,0,0,0,0,0,0,-1,1805,1611,3.47167,-6.00983
588,-587,0,0,0,0,0,0,0,0,0,-1,1812,1611,0,0
595,-587,0,0,0,0,0,0,0,0,0,-1,1819,1611,0,0
602,-587,0,0,0,0,0,0,0,0,0,-1,1826,1611,0,0
609,-587,0,0,0,0,0,0,0,0,0,-1,1833,1611,0,0
616,-587,0,0,0,0,0,0,0,0,0,-1,1840,1611,0,0
623,-587,0,0,0,0,0,0,0,0,0,-1,1847,1611,0,0
630,-587,0,0,0,0,0,0,0,0,0,-1,1854,1611,0,0
637,-587,0,0,0,0,0,0,0,0,0,-1,1861,1611,0,0
644,-587,0,0,0,0,0,0,0,0,0,-1,1868,1611,0,0
651,-587,0,0,0,0,0,0,0,0,0,-1,1875,1611,0,0
658,-587,0,0,0,0,0,0,0,0,0,-1,1882,1611,0,0
665,-587,0,0,0,0,0,0,0,0,0,-1,1889,1611,0,0
672,-587,0,0,0,0,0,0,0,0,0,-1,1896,1611,0,0
679,-587,0,0,0,0,0,0,0,0,0,-1,1903,1611,0,0
686,-587,0,0,0,0,0,0,0,0,0,-1,1910,1611,0,0
693,-587,0,0,0,0,0,0,0,0,0,-1,1917,1611,0,0
700,-587,0,0,0,0,0,0,0,0,0,-1,1924,1611,0,0
707,-587,0,0,0,0,0,0,0,0,0,-1,1931,1611,0,0
714,-587,0,0,0,0,0,0,0,0,0,-1,1938,1611,0,0
721,-587,0,0,0,0,0,0,0,0,0,-1,1945,1611,0,0
728,-587,0,0,0,0,0,0,0,0,0,-1,1952,1611,0,0
735,-587,0,0,0,0,0,0,0,0,0,-1,1959,1611,0,0
742,-587,0,0,0,0,0,0,0,0,0,-1,1966,1611,0,0
749,-587,0,0,0,0,0,0,0,0,0,-1,1973,1611,0,0
756,-587,0,0,0,0,0,0,0,0,0,-1,1980,1611,0,0
763,-587,0,0,0,0,0,0,0,0,0,-1,1987,1611,0,0
770,-587,0,0,0,0,0,0,0,0,0,-1,1994,1611,0,0
777,-587,0,0,0,0,0,0,0,0,0,-1,2001,1611,0,0
784,-587,0,0,0,0,0,0,0,0,0,-1,2008,1611,0,0
791,-587,0,0,0,0,0,0,0,0,0,-1,2015,1611,0,0
798,-587,0,0,0,0,0,0,0,0,0,-1,2022,1611,0,0
805,-587,0,0,0,0,0,0,0,0,0,-1,2029,1611,0,0
812,-587,0,0,0,0,0,0,0,0,0,-1,2036,1611,0,0
-700,-594,0,0,0,0,0,0,0,0,0,-1,524,1618,0,0
-693,-594,0,0,0,0,0,0,0,0,0,-1,531,1618,0,0
-686,-594,0,0,0,0,0,0,0,0,0,-1,538,1618,0,0
-679,-594,0,0,0,0,0,0,0,0,0,-1,545,1618,0,0
-672,-594,0,0,0,0,0,0,0,0,0,-1,552,1618,0,0
-665,-594,0,0,0,0,0,0,0,0,0,-1,559,1618,0,0
-658,-594,0,0,0,0,0,0,0,0,0,-1,566,1618,0,0
-651,-594,0,0,0,0,0,0,0,0,0,-1,573,1618,0,0
-644,-594,0,0,0,0,0,0,0,0,0,-1,580,1618,0,0
-637,-594,0,0,0,0,0,0,0,0,0,-1,587,1618,0,0
-630,-594,0,0,0,0,0,0,0,0,0,-1,594,1618,0,0
-623,-594,0,0,0,0,0,0,0,0,0,-1,601,1618,0,0
-616,-594,0,0,0,0,0,0,0,0,0,-1,608,1618,0,0
-609,-594,0,0,0,0,0,0,0,0,0,-1,615,1618,0,0
-602,-594,0,0,0,0,0,0,0,0,0,-1,622,1618,0,0
-595,-594,0,0,0,0,0,0,0,0,0,-1,629,1618,0,0
-588,-594,0,0,0,0,0,0,0,0,0,-1,636,1618,0,0
-581,-594,0,0,0,0,0,0,0,0,0,-1,643,1618,0,0
-574,-594,0,0,0,0,0,0,0,0,0,-1,650,1618,0,0
-567,-594,0,0,0,0,0,0,0,0,0,-1,657,1618,0,0
-560,-594,0,0,0,0,0,0,0,0,0,-1,664,1618,0,0
-553,-594,0,0,0,0,0,0,0,0,0,-1,671,1618,0,0
-546,-594,0,0,0,0,0,0,0,0,0,-1,678,1618,0,0
-539,-594,0,0,0,0,0,0,0,0,0,-1,685,1618,0,0
-532,-594,0,0,0,0,0,0,0,0,0,-1,692,1618,0,0
-525,-594,0,0,0,0,0,0,0,0,0,-1,699,1618,0,0
-518,-594,0,0,0,0,0,0,0,0,0,-1,706,1618,0,0
-511,-594,0,0,0,0,0,0,0,0,0,-1,713,1618,0,0
-504,-594,0,0,0,0,0,0,0,0,0,-1,720,1618,0,0
-497,-594,0,0,0,0,0,0,0,0,0,-1,727,1618,0,0
-490,-594,0,0,0,0,0,0,0,0,0,-1,734,1618,0,0
-483,-594,0,0,0,0,0,0,0,0,0,-1,741,1618,0,0
-476,-594,0,0,0,0,0,0,0,0,0,-1,748,1618,0,0
-469,-594,0,0,0,0,0,0,0,0,0,-1,755,1618,0,0
-462,-594,0,0,0,0,0,0,0,0,0,-1,762,1618,0,0
-455,-594,-0.509216,-1.58411,0,0,0,0,0,0,0,-1,769,1618,-0.509245,1.58415
-448,-594,-7.71887,-0.0559082,0,0,0,0,0,0,0,-1,776,1618,-7.71885,0.055939
-441,-594,-5.78473,1.18298,0,0,0,0,0,0,0,-1,783,1618,-5.78474,-1.18295
-434,-594,-3.93628,3.06213,0,0,0,0,0,0,0,-1,790,1618,-3.93631,-3.06208
-427,-594,-3.97693,6.77759,0,0,0,0,0,0,0,-1,797,1618,-3.97695,-6.77764
-420,-594,-2.53046,7.71606,0,0,0,0,0,0,0,-1,804,1618,-2.53047,-7.71609
-413,-594,-0.860413,8.00391,0,0,0,0,0,0,0,-1,811,1618,-0.860423,-8.00389
-406,-594,1.96338,10.2605,0,0,0,0,0,0,0,-1,818,1618,1.96336,-10.2605
-399,-594,2.01874,10.478,-5.37111e-05,-0.00097895,-0.00241691,0.00194446,-0.00297712,-0.690837,0.00286225,0.0493908,825,1618,2.01874,-10.478
-392,-594,2.05847,10.771,-0.000573219,-0.00155666,-0.00200175,0.00099632,-0.0031262,-0.66496,0.00248377,0.0411317,832,1618,2.05846,-10.771
-385,-594,1.96021,11.0898,-0.000742144,-0.00184909,-0.00164426,0.000439293,-0.00303053,-0.623049,0.00218158,0.0259875,839,1618,1.96022,-11.0899
-378,-594,1.89752,11.327,-0.000758231,-0.0017662,-0.00126345,9.80449e-05,-0.00262247,-0.595622,0.0017819,0.0114889,846,1618,1.89753,-11.327
-371,-594,1.90259,11.5963,-0.000670018,-0.00170928,-0.000984967,-7.60163e-05,-0.00230328,-0.542672,0.00151082,0.0108522,853,1618,1.90262,-11.5963
-364,-594,1.89081,11.8398,-0.000608282,-0.00154,-0.000674937,-0.000254041,-0.00189424,-0.483329,0.00118724,0.0106859,860,1618,1.89082,-11.8398
-357,-594,1.89722,12.0901,-0.000239964,-0.0013046,-0.000360591,-0.00012933,-0.00141523,-0.297698,0.00090347,0.0111087,867,1618,1.8972,-12.09
-350,-594,1.88458,12.363,0.000285973,-0.00101384,-0.000195962,0.000314874,-0.00104274,-0.146427,0.000820512,0.0149896,874,1618,1.88458,-12.3631
-343,-594,1.8587,12.6239,0.000656855,-0.000869911,-0.000110736,0.000664844,-0.000877901,-0.0720276,0.000893531,0.0163218,881,1618,1.85869,-12.6239
-336,-594,1.85583,12.8464,0.000993642,-0.000769189,-9.76599e-05,0.000999036,-0.000774583,-0.0551744,0.00102673,0.0139292,888,1618,1.85581,-12.8464
-329,-594,1.86865,13.0708,0.00130111,-0.000672784,-0.000206247,0.00132243,-0.000694104,-0.103005,0.00118294,0.0139241,895,1618,1.86864,-13.0708
-322,-594,1.89069,13.3135,0.0014907,-0.000856628,-0.000456828,0.00157647,-0.000942399,-0.185595,0.00146955,0.0161299,902,1618,1.89066,-13.3134
-315,-594,1.92877,13.5194,0.00157913,-0.00133988,-0.000807009,0.00178738,-0.00154813,-0.252546,0.00192741,0.01627,909,1618,1.9288,-13.5194
-308,-594,1.91888,13.7727,0.0015454,-0.00213145,-0.00136607,0.00199738,-0.00258343,-0.319524,0.00265194,0.014584,916,1618,1.91886,-13.7727
-301,-594,1.8949,14.0013,0.00150319,-0.00313092,-0.00203977,0.00227311,-0.00390084,-0.36092,0.00360559,0.0112811,923,1618,1.89489,-14.0013
-294,-594,1.90759,14.2186,0.00142403,-0.00423322,-0.00273912,0.00253291,-0.0053421,-0.384662,0.00464206,0.0105467,930,1618,1.90761,-14.2186
-287,-594,1.914,14.4409,0.00130277,-0.00573568,-0.00357063,0.00279696,-0.00722987,-0.396325,0.0059746,0.0115199,937,1618,1.914,-14.4409
-280,-594,1.91589,14.6724,0.00123658,-0.00746916,-0.00450342,0.00314696,-0.00937954,-0.401198,0.00752466,0.0154732,944,1618,1.9159,-14.6724
-273,-594,1.94684,14.8177,0.00114167,-0.00945904,-0.00558366,0.00354009,-0.0118575,-0.405711,0.00931207,0.0269062,951,1618,1.94686,-14.8177
-266,-594,1.87152,14.9135,0.0010942,-0.0118091,-0.00662231,0.00388804,-0.0146029,-0.399226,0.0112573,0.0375763,958,1618,1.87152,-14.9134
-259,-594,1.79547,15.0085,0.000987099,-0.0142184,-0.00759995,0.00413428,-0.0173656,-0.392607,0.0131732,0.0477259,965,1618,1.79549,-15.0086
-252,-594,1.76086,15.1815,0,0,0,0,0,0,0,-1,972,1618,1.76084,-15.1815
-245,-594,1.62286,13.5688,0,0,0,0,0,0,0,-1,979,1618,1.62287,-13.5689
-238,-594,2.48499,13.0104,0,0,0,0,0,0,0,-1,986,1618,2.48501,-13.0104
-231,-594,1.93774,9.35388,0,0,0,0,0,0,0,-1,993,1618,1.93776,-9.35393
-224,-594,1.81824,8.62744,0,0,0,0,0,0,0,-1,1000,1618,1.81822,-8.62745
-217,-594,-8.24066,12.0752,0,0,0,0,0,0,0,-1,1007,1618,-8.24068,-12.0751
-210,-594,-5.61438,14.2119,0,0,0,0,0,0,0,-1,1014,1618,-5.6144,-14.212
-203,-594,-3.94507,15.5768,0,0,0,0,0,0,0,-1,1021,1618,-3.94506,-15.5768
-196,-594,2.78613,10.5815,0,0,0,0,0,0,0,-1,1028,1618,2.78612,-10.5815
-189,-594,2.60913,9.48865,0,0,0,0,0,0,0,-1,1035,1618,2.6091,-9.48871
-182,-594,1.2395,9.38806,0,0,0,0,0,0,0,-1,1042,1618,1.23951,-9.38804
-175,-594,0.234863,8.73792,0,0,0,0,0,0,0,-1,1049,1618,0.234812,-8.73786
-168,-594,-0.495483,8.46289,0,0,0,0,0,0,0,-1,1056,1618,-0.495513,-8.46285
-161,-594,-1.39734,8.28699,0,0,0,0,0,0,0,-1,1063,1618,-1.39729,-8.28699
-154,-594,-0.000854492,7.68445,0,0,0,0,0,0,0,-1,1070,1618,-0.000805755,-7.6845
-147,-594,0.348267,9.3385,0,0,0,0,0,0,0,-1,1077,1618,0.348237,-9.33849
-140,-594,0.675171,11.5884,0,0,0,0,0,0,0,-1,1084,1618,0.675204,-11.5884
-133,-594,0,0,0,0,0,0,0,0,0,-1,1091,1618,0,0
-126,-594,0,0,0,0,0,0,0,0,0,-1,1098,1618,0,0
-119,-594,0,0,0,0,0,0,0,0,0,-1,1105,1618,0,0
-112,-594,0,0,0,0,0,0,0,0,0,-1,1112,1618,0,0
-105,-594,0,0,0,0,0,0,0,0,0,-1,1119,1618,0,0
-98,-594,0,0,0,0,0,0,0,0,0,-1,1126,1618,0,0
-91,-594,0,0,0,0,0,0,0,0,0,-1,1133,1618,0,0
-84,-594,0,0,0,0,0,0,0,0,0,-1,1140,1618,0,0
-77,-594,0,0,0,0,0,0,0,0,0,-1,1147,1618,0,0
-70,-594,0,0,0,0,0,0,0,0,0,-1,1154,1618,0,0
-63,-594,0,0,0,0,0,0,0,0,0,-1,1161,1618,0,0
-56,-594,0,0,0,0,0,0,0,0,0,-1,1168,1618,0,0
-49,-594,0,0,0,0,0,0,0,0,0,-1,1175,1618,0,0
-42,-594,0,0,0,0,0,0,0,0,0,-1,1182,1618,0,0
-35,-594,0,0,0,0,0,0,0,0,0,-1,1189,1618,0,0
-28,-594,0,0,0,0,0,0,0,0,0,-1,1196,1618,0,0
-21,-594,0,0,0,0,0,0,0,0,0,-1,1203,1618,0,0
-14,-594,0,0,0,0,0,0,0,0,0,-1,1210,1618,0,0
-7,-594,0,0,0,0,0,0,0,0,0,-1,1217,1618,0,0
0,-594,0,0,0,0,0,0,0,0,0,-1,1224,1618,0,0
7,-594,0,0,0,0,0,0,0,0,0,-1,1231,1618,0,0
14,-594,0,0,0,0,0,0,0,0,0,-1,1238,1618,0,0
21,-594,0,0,0,0,0,0,0,0,0,-1,1245,1618,0,0
28,-594,0,0,0,0,0,0,0,0,0,-1,1252,1618,0,0
35,-594,0,0,0,0,0,0,0,0,0,-1,1259,1618,0,0
42,-594,0,0,0,0,0,0,0,0,0,-1,1266,1618,0,0
49,-594,0,0,0,0,0,0,0,0,0,-1,1273,1618,0,0
56,-594,0,0,0,0,0,0,0,0,0,-1,1280,1618,0,0
63,-594,0,0,0,0,0,0,0,0,0,-1,1287,1618,0,0
70,-594,0,0,0,0,0,0,0,0,0,-1,1294,1618,0,0
77,-594,0,0,0,0,0,0,0,0,0,-1,1301,1618,0,0
84,-594,0,0,0,0,0,0,0,0,0,-1,1308,1618,0,0
91,-594,0,0,0,0,0,0,0,0,0,-1,1315,1618,0,0
98,-594,0,0,0,0,0,0,0,0,0,-1,1322,1618,0,0
105,-594,0,0,0,0,0,0,0,0,0,-1,1329,1618,0,0
112,-594,0,0,0,0,0,0,0,0,0,-1,1336,1618,0,0
119,-594,0,0,0,0,0,0,0,0,0,-1,1343,1618,0,0
126,-594,0,0,0,0,0,0,0,0,0,-1,1350,1618,0,0
133,-594,0,0,0,0,0,0,0,0,0,-1,1357,1618,0,0
140,-594,0,0,0,0,0,0,0,0,0,-1,1364,1618,0,0
147,-594,0,0,0,0,0,0,0,0,0,-1,1371,1618,0,0
154,-594,0,0,0,0,0,0,0,0,0,-1,1378,1618,0,0
161,-594,0,0,0,0,0,0,0,0,0,-1,1385,1618,0,0
168,-594,0,0,0,0,0,0,0,0,0,-1,1392,1618,0,0
175,-594,0,0,0,0,0,0,0,0,0,-1,1399,1618,0,0
182,-594,0,0,0,0,0,0,0,0,0,-1,1406,1618,0,0
189,-594,0,0,0,0,0,0,0,0,0,-1,1413,1618,0,0
196,-594,0,0,0,0,0,0,0,0,0,-1,1420,1618,0,0
203,-594,0,0,0,0,0,0,0,0,0,-1,1427,1618,0,0
210,-594,0,0,0,0,0,0,0,0,0,-1,1434,1618,0,0
217,-594,0,0,0,0,0,0,0,0,0,-1,1441,1618,0,0
224,-594,0,0,0,0,0,0,0,0,0,-1,1448,1618,0,0
231,-594,0,0,0,0,0,0,0,0,0,-1,1455,1618,0,0
238,-594,0,0,0,0,0,0,0,0,0,-1,1462,1618,0,0
245,-594,0,0,0,0,0,0,0,0,0,-1,1469,1618,0,0
252,-594,3.03674,1.20996,0,0,0,0,0,0,0,-1,1476,1618,3.0368,-1.20999
259,-594,4.79834,1.53113,0,0,0,0,0,0,0,-1,1483,1618,4.79837,-1.53118
266,-594,3.71606,2.68152,0,0,0,0,0,0,0,-1,1490,1618,3.71609,-2.68149
273,-594,9.7655,6.33557,0,0,0,0,0,0,0,-1,1497,1618,9.76555,-6.33554
280,-594,3.13281,0.911255,0,0,0,0,0,0,0,-1,1504,1618,3.13277,-0.911207
287,-594,4.42749,1.51563,0,0,0,0,0,0,0,-1,1511,1618,4.42747,-1.51564
294,-594,5.36475,3.34937,0,0,0,0,0,0,0,-1,1518,1618,5.36475,-3.3494
301,-594,7.97144,9.04333,0,0,0,0,0,0,0,-1,1525,1618,7.9714,-9.04328
308,-594,6.30347,10.4633,0,0,0,0,0,0,0,-1,1532,1618,6.30351,-10.4633
315,-594,4.62012,11.934,0,0,0,0,0,0,0,-1,1539,1618,4.62006,-11.934
322,-594,2.91528,13.3134,0,0,0,0,0,0,0,-1,1546,1618,2.91523,-13.3133
329,-594,4.19861,9.77258,0,0,0,0,0,0,0,-1,1553,1618,4.19865,-9.77264
336,-594,10.1353,4.66528,0,0,0,0,0,0,0,-1,1560,1618,10.1353,-4.66533
343,-594,10.5729,3.71228,0,0,0,0,0,0,0,-1,1567,1618,10.5729,-3.71232
350,-594,10.219,2.98792,0,0,0,0,0,0,0,-1,1574,1618,10.219,-2.98797
357,-594,9.83154,1.96326,0,0,0,0,0,0,0,-1,1581,1618,9.8315,-1.96321
364,-594,9.74939,0.700562,0,0,0,0,0,0,0,-1,1588,1618,9.74939,-0.700615
371,-594,8.54297,14.3988,0,0,0,0,0,0,0,-1,1595,1618,8.54296,-14.3989
378,-594,8.9137,16.3073,0,0,0,0,0,0,0,-1,1602,1618,8.91369,-16.3072
385,-594,8.62561,13.6674,0,0,0,0,0,0,0,-1,1609,1618,8.6256,-13.6674
392,-594,7.81042,15.6503,0,0,0,0,0,0,0,-1,1616,1618,7.81037,-15.6503
399,-594,8.00159,15.5835,-0.00365862,-0.0124202,0.0144645,0.00707397,-0.0231528,0.638357,0.0182559,0.0450668,1623,1618,8.00153,-15.5834
406,-594,8.23303,15.6031,-0.00334426,-0.0113523,0.0133667,0.00660525,-0.0213018,0.639876,0.0168404,0.0275952,1630,1618,8.23301,-15.6031
413,-594,8.20239,15.4764,-0.00323858,-0.010179,0.0123548,0.00612408,-0.0195416,0.648486,0.0154784,0.0213623,1637,1618,8.20238,-15.4764
420,-594,8.16504,15.2808,-0.00302397,-0.0088077,0.0110475,0.00550387,-0.0173355,0.657387,0.0137635,0.01782,1644,1618,8.1651,-15.2807
427,-594,8.14893,15.1658,-0.00260661,-0.00769493,0.00963796,0.00481733,-0.0151189,0.656355,0.0120115,0.0124221,1651,1618,8.14896,-15.1658
434,-594,8.12793,14.9811,-0.00225351,-0.0066448,0.00827391,0.00411113,-0.0130094,0.655702,0.01032,0.015921,1658,1618,8.12796,-14.9811
441,-594,8.1145,14.7645,-0.00188399,-0.00565926,0.00691891,0.00340016,-0.0109434,0.652228,0.00865457,0.0155522,1665,1618,8.11453,-14.7646
448,-594,8.12451,14.5457,-0.00132791,-0.00465159,0.00553972,0.00279386,-0.00877336,0.639676,0.00696943,0.0161308,1672,1618,8.12454,-14.5457
455,-594,8.12292,14.345,-0.00104872,-0.00373532,0.00434515,0.00215603,-0.00694008,0.635483,0.00548842,0.0121236,1679,1618,8.12295,-14.345
462,-594,8.13318,14.135,-0.000725703,-0.00294326,0.00311285,0.00146994,-0.00513891,0.614307,0.00400683,0.0128448,1686,1618,8.13314,-14.135
469,-594,8.12769,13.9353,-0.000272775,-0.00223705,0.00199122,0.000965348,-0.00347518,0.556288,0.00269679,0.0117156,1693,1618,8.12772,-13.9353
476,-594,8.11365,13.735,8.0452e-05,-0.00159795,0.00100131,0.000547725,-0.00206522,0.436624,0.00159113,0.0130407,1700,1618,8.1136,-13.735
483,-594,8.10095,13.4919,0.00054983,-0.0010065,0.000109022,0.00055743,-0.0010141,0.0695979,0.000920002,0.0171311,1707,1618,8.10091,-13.4919
490,-594,8.08362,13.2434,0.000966746,-0.000397244,-0.000609873,0.00119966,-0.00063016,-0.364814,0.00107337,0.0139743,1714,1618,8.08358,-13.2434
497,-594,8.09033,13.011,0.00139871,-5.3801e-06,-0.0012384,0.00212022,-0.000726885,-0.527536,0.00170813,0.00962485,1721,1618,8.09028,-13.0109
504,-594,8.09668,12.7889,0.00189241,0.000154352,-0.0016709,0.00290676,-0.000859994,-0.5456,0.00227924,0.0096865,1728,1618,8.09663,-12.7889
511,-594,8.11255,12.5547,0.00236642,0.000136976,-0.00189965,0.00345426,-0.000950864,-0.520068,0.0026767,0.0119444,1735,1618,8.11253,-12.5547
518,-594,8.10486,12.2938,0.00280688,-3.2489e-05,-0.00190337,0.00376171,-0.00098732,-0.464969,0.00289361,0.0162386,1742,1618,8.10488,-12.2939
525,-594,8.14404,12.0541,0.00340271,-0.000336211,-0.00182664,0.00414696,-0.00108046,-0.386907,0.00318645,0.0293183,1749,1618,8.14408,-12.0541
532,-594,8.21362,11.8811,0.00454816,-0.00103649,-0.00188475,0.00512472,-0.00161304,-0.296866,0.00406235,0.0469368,1756,1618,8.21362,-11.8812
539,-594,8.20813,11.5951,0,0,0,0,0,0,0,-1,1763,1618,8.20816,-11.5951
546,-594,7.48645,8.54785,0,0,0,0,0,0,0,-1,1770,1618,7.48639,-8.54789
553,-594,3.69714,5.68762,0,0,0,0,0,0,0,-1,1777,1618,3.69715,-5.68764
560,-594,6.06616,4.44482,0,0,0,0,0,0,0,-1,1784,1618,6.06621,-4.44477
567,-594,5.97266,4.73303,0,0,0,0,0,0,0,-1,1791,1618,5.97271,-4.73309
574,-594,5.9906,4.96326,0,0,0,0,0,0,0,-1,1798,1618,5.99065,-4.96326
581,-594,0,0,0,0,0,0,0,0,0,-1,1805,1618,0,0
588,-594,0,0,0,0,0,0,0,0,0,-1,1812,1618,0,0
595,-594,0,0,0,0,0,0,0,0,0,-1,1819,1618,0,0
602,-594,0,0,0,0,0,0,0,0,0,-1,1826,1618,0,0
609,-594,0,0,0,0,0,0,0,0,0,-1,1833,1618,0,0
616,-594,0,0,0,0,0,0,0,0,0,-1,1840,1618,0,0
623,-594,0,0,0,0,0,0,0,0,0,-1,1847,1618,0,0
630,-594,0,0,0,0,0,0,0,0,0,-1,1854,1618,0,0
637,-594,0,0,0,0,0,0,0,0,0,-1,1861,1618,0,0
644,-594,0,0,0,0,0,0,0,0,0,-1,1868,1618,0,0
651,-594,0,0,0,0,0,0,0,0,0,-1,1875,1618,0,0
658,-594,0,0,0,0,0,0,0,0,0,-1,1882,1618,0,0
665,-594,0,0,0,0,0,0,0,0,0,-1,1889,1618,0,0
672,-594,0,0,0,0,0,0,0,0,0,-1,1896,1618,0,0
679,-594,0,0,0,0,0,0,0,0,0,-1,1903,1618,0,0
686,-594,0,0,0,0,0,0,0,0,0,-1,1910,1618,0,0
693,-594,0,0,0,0,0,0,0,0,0,-1,1917,1618,0,0
700,-594,0,0,0,0,0,0,0,0,0,-1,1924,1618,0,0
707,-594,0,0,0,0,0,0,0,0,0,-1,1931,1618,0,0
714,-594,0,0,0,0,0,0,0,0,0,-1,1938,1618,0,0
721,-594,0,0,0,0,0,0,0,0,0,-1,1945,1618,0,0
728,-594,0,0,0,0,0,0,0,0,0,-1,1952,1618,0,0
735,-594,0,0,0,0,0,0,0,0,0,-1,1959,1618,0,0
742,-594,0,0,0,0,0,0,0,0,0,-1,1966,1618,0,0
749,-594,0,0,0,0,0,0,0,0,0,-1,1973,1618,0,0
756,-594,0,0,0,0,0,0,0,0,0,-1,1980,1618,0,0
763,-594,0,0,0,0,0,0,0,0,0,-1,1987,1618,0,0
770,-594,0,0,0,0,0,0,0,0,0,-1,1994,1618,0,0
777,-594,0,0,0,0,0,0,0,0,0,-1,2001,1618,0,0
784,-594,0,0,0,0,0,0,0,0,0,-1,2008,1618,0,0
791,-594,0,0,0,0,0,0,0,0,0,-1,2015,1618,0,0
798,-594,0,0,0,0,0,0,0,0,0,-1,2022,1618,0,0
805,-594,0,0,0,0,0,0,0,0,0,-1,2029,1618,0,0
812,-594,0,0,0,0,0,0,0,0,0,-1,2036,1618,0,0
-700,-601,0,0,0,0,0,0,0,0,0,-1,524,1625,0,0
-693,-601,0,0,0,0,0,0,0,0,0,-1,531,1625,0,0
-686,-601,0,0,0,0,0,0,0,0,0,-1,538,1625,0,0
-679,-601,0,0,0,0,0,0,0,0,0,-1,545,1625,0,0
-672,-601,0,0,0,0,0,0,0,0,0,-1,552,1625,0,0
-665,-601,0,0,0,0,0,0,0,0,0,-1,559,1625,0,0
-658,-601,0,0,0,0,0,0,0,0,0,-1,566,1625,0,0
-651,-601,0,0,0,0,0,0,0,0,0,-1,573,1625,0,0
-644,-601,0,0,0,0,0,0,0,0,0,-1,580,1625,0,0
-637,-601,0,0,0,0,0,0,0,0,0,-1,587,1625,0,0
-630,-601,0,0,0,0,0,0,0,0,0,-1,594,1625,0,0
-623,-601,0,0,0,0,0,0,0,0,0,-1,601,1625,0,0
-616,-601,0,0,0,0,0,0,0,0,0,-1,608,1625,0,0
-609,-601,0,0,0,0,0,0,0,0,0,-1,615,1625,0,0
-602,-601,0,0,0,0,0,0,0,0,0,-1,622,1625,0,0
-595,-601,0,0,0,0,0,0,0,0,0,-1,629,1625,0,0
-588,-601,0,0,0,0,0,0,0,0,0,-1,636,1625,0,0
-581,-601,0,0,0,0,0,0,0,0,0,-1,643,1625,0,0
-574,-601,0,0,0,0,0,0,0,0,0,-1,650,1625,0,0
-567,-601,0,0,0,0,0,0,0,0,0,-1,657,1625,0,0
-560,-601,0,0,0,0,0,0,0,0,0,-1,664,1625,0,0
-553,-601,0,0,0,0,0,0,0,0,0,-1,671,1625,0,0
-546,-601,0,0,0,0,0,0,0,0,0,-1,678,1625,0,0
-539,-601,0,0,0,0,0,0,0,0,0,-1,685,1625,0,0
-532,-601,0,0,0,0,0,0,0,0,0,-1,692,1625,0,0
-525,-601,0,0,0,0,0,0,0,0,0,-1,699,1625,0,0
-518,-601,0,0,0,0,0,0,0,0,0,-1,706,1625,0,0
-511,-601,0,0,0,0,0,0,0,0,0,-1,713,1625,0,0
-504,-601,0,0,0,0,0,0,0,0,0,-1,720,1625,0,0
-497,-601,0,0,0,0,0,0,0,0,0,-1,727,1625,0,0
-490,-601,0,0,0,0,0,0,0,0,0,-1,734,1625,0,0
-483,-601,0,0,0,0,0,0,0,0,0,-1,741,1625,0,0
-476,-601,0,0,0,0,0,0,0,0,0,-1,748,1625,0,0
-469,-601,0,0,0,0,0,0,0,0,0,-1,755,1625,0,0
-462,-601,0,0,0,0,0,0,0,0,0,-1,762,1625,0,0
-455,-601,0,0,0,0,0,0,0,0,0,-1,769,1625,0,0
-448,-601,-7.07623,2.7616,0,0,0,0,0,0,0,-1,776,1625,-7.07626,-2.76161
-441,-601,-6.06689,3.33447,0,0,0,0,0,0,0,-1,783,1625,-6.06691,-3.33448
-434,-601,-5.02655,3.8468,0,0,0,0,0,0,0,-1,790,1625,-5.02657,-3.84674
-427,-601,-5.78601,4.2406,0,0,0,0,0,0,0,-1,797,1625,-5.786,-4.24058
-420,-601,-5.5191,5.60364,0,0,0,0,0,0,0,-1,804,1625,-5.51907,-5.60368
-413,-601,-4.30756,5.86047,0,0,0,0,0,0,0,-1,811,1625,-4.30757,-5.86046
-406,-601,-1.67493,7.20422,0,0,0,0,0,0,0,-1,818,1625,-1.67493,-7.20428
-399,-601,2.37573,10.3953,0,0,0,0,0,0,0,-1,825,1625,2.37574,-10.3953
-392,-601,2.35394,10.7869,0,0,0,0,0,0,0,-1,832,1625,2.35395,-10.7868
-385,-601,2.21375,11.2517,0,0,0,0,0,0,0,-1,839,1625,2.21372,-11.2517
-378,-601,2.1637,11.3816,-0.00106789,-0.00211491,-0.00168355,0.000171669,-0.00335447,-0.634661,0.00229568,0.0293137,846,1625,2.16369,-11.3816
-371,-601,2.15356,11.5876,-0.000948558,-0.00210645,-0.00127057,-0.000131253,-0.00292376,-0.571623,0.00190693,0.0135877,853,1625,2.15356,-11.5877
-364,-601,2.14075,11.8472,-0.000854283,-0.00199617,-0.000831755,-0.000416369,-0.00243408,-0.484618,0.00150328,0.0103865,860,1625,2.14075,-11.8472
-357,-601,2.12897,12.1208,-0.000469892,-0.00178456,-0.000419331,-0.00034753,-0.00190692,-0.28392,0.00117273,0.0106612,867,1625,2.12899,-12.1209
-350,-601,2.14063,12.3887,5.35738e-05,-0.00149052,-0.000173769,7.28878e-05,-0.00150983,-0.110693,0.00103171,0.021408,874,1625,2.14062,-12.3886
-343,-601,2.10815,12.6642,0.000408147,-0.0013529,-3.51095e-05,0.000408847,-0.0013536,-0.0199262,0.00106516,0.0220464,881,1625,2.10813,-12.6642
-336,-601,2.08087,12.9132,0.000728612,-0.00121303,1.92262e-05,0.000728803,-0.00121322,0.00990073,0.00113279,0.018222,888,1625,2.0809,-12.9132
-329,-601,2.09705,13.1187,0.00101049,-0.00107614,-4.49236e-05,0.00101145,-0.00107711,-0.021516,0.00120603,0.0149684,895,1625,2.09704,-13.1186
-322,-601,2.10846,13.3206,0.00118572,-0.00108473,-0.000197967,0.00120285,-0.00110186,-0.0863247,0.00133105,0.0123926,902,1625,2.10845,-13.3206
-315,-601,2.1427,13.5439,0.00125167,-0.00142455,-0.000482677,0.00133607,-0.00150894,-0.173094,0.00164358,0.0127089,909,1625,2.1427,-13.544
-308,-601,2.12109,13.7808,0.00120837,-0.00202442,-0.000963545,0.00147377,-0.00228982,-0.268776,0.00218987,0.011771,916,1625,2.12107,-13.7807
-301,-601,2.12268,14.0211,0.0011777,-0.00274077,-0.00153051,0.00170464,-0.00326771,-0.331579,0.00291768,0.010053,923,1625,2.12266,-14.0211
-294,-601,2.12897,14.2351,0.0011399,-0.00348104,-0.00208963,0.00194469,-0.00428583,-0.367625,0.00368087,0.00990364,930,1625,2.12894,-14.2351
-287,-601,2.11896,14.4437,0.0010676,-0.00452419,-0.00273316,0.00218159,-0.00563818,-0.387026,0.00465945,0.0092545,937,1625,2.11895,-14.4437
-280,-601,2.13336,14.6759,0.00106986,-0.0057404,-0.00342635,0.00249534,-0.00716588,-0.394252,0.0057911,0.00959011,944,1625,2.13336,-14.6758
-273,-601,2.14801,14.9069,0.00109707,-0.00715403,-0.00418547,0.00284845,-0.00890541,-0.396304,0.00708007,0.00981196,951,1625,2.14799,-14.9068
-266,-601,2.15503,15.0981,0.00117797,-0.00888579,-0.00489843,0.00316852,-0.0108763,-0.38598,0.0085061,0.012455,958,1625,2.155,-15.0982
-259,-601,2.15948,15.2532,0.00123621,-0.0106485,-0.00555496,0.0034283,-0.0128406,-0.375857,0.00990301,0.0252974,965,1625,2.15947,-15.2531
-252,-601,2.15277,15.2722,0.00123111,-0.0129372,-0.0064093,0.00370018,-0.0154063,-0.367712,0.0117009,0.0454225,972,1625,2.15276,-15.2722
-245,-601,2.07001,15.2914,0,0,0,0,0,0,0,-1,979,1625,2.07003,-15.2914
-238,-601,2.38098,15.6315,0,0,0,0,0,0,0,-1,986,1625,2.38096,-15.6314
-231,-601,2.66772,13.7051,0,0,0,0,0,0,0,-1,993,1625,2.6677,-13.7051
-224,-601,-0.0305176,9.13684,0,0,0,0,0,0,0,-1,1000,1625,-0.030498,-9.13681
-217,-601,3.39429,10.3898,0,0,0,0,0,0,0,-1,1007,1625,3.39431,-10.3898
-210,-601,-6.53699,15.7931,0,0,0,0,0,0,0,-1,1014,1625,-6.53697,-15.7931
-203,-601,2.76324,16.6864,0,0,0,0,0,0,0,-1,1021,1625,2.76327,-16.6864
-196,-601,3.06592,16.7297,0,0,0,0,0,0,0,-1,1028,1625,3.06592,-16.7297
-189,-601,2.92981,15.1824,0,0,0,0,0,0,0,-1,1035,1625,2.92986,-15.1823
-182,-601,1.82153,13.9752,0,0,0,0,0,0,0,-1,1042,1625,1.82155,-13.9752
-175,-601,0.544922,9.28687,0,0,0,0,0,0,0,-1,1049,1625,0.544879,-9.28685
-168,-601,-0.247559,8.97461,0,0,0,0,0,0,0,-1,1056,1625,-0.247598,-8.97466
-161,-601,-1.16833,8.80078,0,0,0,0,0,0,0,-1,1063,1625,-1.16837,-8.80081
-154,-601,1.12756,7.94861,0,0,0,0,0,0,0,-1,1070,1625,1.12762,-7.94855
-147,-601,1.35352,9.55432,0,0,0,0,0,0,0,-1,1077,1625,1.35351,-9.55429
-140,-601,1.72437,11.1498,0,0,0,0,0,0,0,-1,1084,1625,1.72432,-11.1498
-133,-601,2.13281,12.8347,0,0,0,0,0,0,0,-1,1091,1625,2.13287,-12.8348
-126,-601,3.09534,15.427,0,0,0,0,0,0,0,-1,1098,1625,3.0953,-15.4271
-119,-601,1.22485,9.43457,0,0,0,0,0,0,0,-1,1105,1625,1.22489,-9.43456
-112,-601,0,0,0,0,0,0,0,0,0,-1,1112,1625,0,0
-105,-601,0,0,0,0,0,0,0,0,0,-1,1119,1625,0,0
-98,-601,0,0,0,0,0,0,0,0,0,-1,1126,1625,0,0
-91,-601,0,0,0,0,0,0,0,0,0,-1,1133,1625,0,0
-84,-601,0,0,0,0,0,0,0,0,0,-1,1140,1625,0,0
-77,-601,0,0,0,0,0,0,0,0,0,-1,1147,1625,0,0
-70,-601,0,0,0,0,0,0,0,0,0,-1,1154,1625,0,0
-63,-601,0,0,0,0,0,0,0,0,0,-1,1161,1625,0,0
-56,-601,0,0,0,0,0,0,0,0,0,-1,1168,1625,0,0
-49,-601,0,0,0,0,0,0,0,0,0,-1,1175,1625,0,0
-42,-601,0,0,0,0,0,0,0,0,0,-1,1182,1625,0,0
-35,-601,0,0,0,0,0,0,0,0,0,-1,1189,1625,0,0
-28,-601,0,0,0,0,0,0,0,0,0,-1,1196,1625,0,0
-21,-601,0,0,0,0,0,0,0,0,0,-1,1203,1625,0,0
-14,-601,0,0,0,0,0,0,0,0,0,-1,1210,1625,0,0
-7,-601,0,0,0,0,0,0,0,0,0,-1,1217,1625,0,0
0,-601,0,0,0,0,0,0,0,0,0,-1,1224,1625,0,0
7,-601,0,0,0,0,0,0,0,0,0,-1,1231,1625,0,0
14,-601,0,0,0,0,0,0,0,0,0,-1,1238,1625,0,0
21,-601,0,0,0,0,0,0,0,0,0,-1,1245,1625,0,0
28,-601,0,0,0,0,0,0,0,0,0,-1,1252,1625,0,0
35,-601,0,0,0,0,0,0,0,0,0,-1,1259,1625,0,0
42,-601,0,0,0,0,0,0,0,0,0,-1,1266,1625,0,0
49,-601,0,0,0,0,0,0,0,0,0,-1,1273,1625,0,0
56,-601,0,0,0,0,0,0,0,0,0,-1,1280,1625,0,0
63,-601,0,0,0,0,0,0,0,0,0,-1,1287,1625,0,0
70,-601,0,0,0,0,0,0,0,0,0,-1,1294,1625,0,0
77,-601,0,0,0,0,0,0,0,0,0,-1,1301,1625,0,0
84,-601,0,0,0,0,0,0,0,0,0,-1,1308,1625,0,0
91,-601,0,0,0,0,0,0,0,0,0,-1,1315,1625,0,0
98,-601,0,0,0,0,0,0,0,0,0,-1,1322,1625,0,0
105,-601,0,0,0,0,0,0,0,0,0,-1,1329,1625,0,0
112,-601,0,0,0,0,0,0,0,0,0,-1,1336,1625,0,0
119,-601,0,0,0,0,0,0,0,0,0,-1,1343,1625,0,0
126,-601,0,0,0,0,0,0,0,0,0,-1,1350,1625,0,0
133,-601,0,0,0,0,0,0,0,0,0,-1,1357,1625,0,0
140,-601,0,0,0,0,0,0,0,0,0,-1,1364,1625,0,0
147,-601,0,0,0,0,0,0,0,0,0,-1,1371,1625,0,0
154,-601,0,0,0,0,0,0,0,0,0,-1,1378,1625,0,0
161,-601,0,0,0,0,0,0,0,0,0,-1,1385,1625,0,0
168,-601,0,0,0,0,0,0,0,0,0,-1,1392,1625,0,0
175,-601,0,0,0,0,0,0,0,0,0,-1,1399,1625,0,0
182,-601,0,0,0,0,0,0,0,0,0,-1,1406,1625,0,0
189,-601,0,0,0,0,0,0,0,0,0,-1,1413,1625,0,0
196,-601,0,0,0,0,0,0,0,0,0,-1,1420,1625,0,0
203,-601,0,0,0,0,0,0,0,0,0,-1,1427,1625,0,0
210,-601,0,0,0,0,0,0,0,0,0,-1,1434,1625,0,0
217,-601,0,0,0,0,0,0,0,0,0,-1,1441,1625,0,0
224,-601,0,0,0,0,0,0,0,0,0,-1,1448,1625,0,0
231,-601,-0.0371094,0.525879,0,0,0,0,0,0,0,-1,1455,1625,-0.0371518,-0.525824
238,-601,2.03369,-1.32861,0,0,0,0,0,0,0,-1,1462,1625,2.03364,1.32858
245,-601,2.71375,2.44983,0,0,0,0,0,0,0,-1,1469,1625,2.71371,-2.44979
252,-601,4.66943,2.28381,0,0,0,0,0,0,0,-1,1476,1625,4.66947,-2.28376
259,-601,6.42712,2.61987,0,0,0,0,0,0,0,-1,1483,1625,6.42711,-2.61985
266,-601,6.75317,1.68701,0,0,0,0,0,0,0,-1,1490,1625,6.75323,-1.687
273,-601,5.4314,2.92053,0,0,0,0,0,0,0,-1,1497,1625,5.43144,-2.92051
280,-601,4.64722,1.17786,0,0,0,0,0,0,0,-1,1504,1625,4.64722,-1.1779
287,-601,5.32532,2.6217,0,0,0,0,0,0,0,-1,1511,1625,5.32535,-2.62171
294,-601,5.97693,4.22693,0,0,0,0,0,0,0,-1,1518,1625,5.97697,-4.22694
301,-601,7.28162,9.50024,0,0,0,0,0,0,0,-1,1525,1625,7.28162,-9.50025
308,-601,6.53528,10.3927,0,0,0,0,0,0,0,-1,1532,1625,6.53529,-10.3927
315,-601,4.88013,11.7184,0,0,0,0,0,0,0,-1,1539,1625,4.88015,-11.7184
322,-601,3.38098,12.7864,0,0,0,0,0,0,0,-1,1546,1625,3.38104,-12.7864
329,-601,1.8772,13.8768,0,0,0,0,0,0,0,-1,1553,1625,1.87716,-13.8768
336,-601,4.67847,9.53308,0,0,0,0,0,0,0,-1,1560,1625,4.67848,-9.53309
343,-601,11.1404,3.14575,0,0,0,0,0,0,0,-1,1567,1625,11.1404,-3.1458
350,-601,10.9462,2.37769,0,0,0,0,0,0,0,-1,1574,1625,10.9461,-2.37764
357,-601,10.7518,1.6095,0,0,0,0,0,0,0,-1,1581,1625,10.7518,-1.60948
364,-601,5.33643,9.74426,0,0,0,0,0,0,0,-1,1588,1625,5.33637,-9.74429
371,-601,8.46387,16.2725,0,0,0,0,0,0,0,-1,1595,1625,8.46385,-16.2725
378,-601,8.14954,16.4496,0,0,0,0,0,0,0,-1,1602,1625,8.14949,-16.4496
385,-601,8.1925,16.1044,0,0,0,0,0,0,0,-1,1609,1625,8.19248,-16.1044
392,-601,8.24133,15.8555,-0.00283937,-0.00969228,0.0110977,0.00534875,-0.0178804,0.635664,0.0140468,0.0433702,1616,1625,8.24134,-15.8554
399,-601,7.84607,15.8361,-0.00264418,-0.00897971,0.0105989,0.00525023,-0.0168741,0.640185,0.0133482,0.0209687,1623,1625,7.84608,-15.8361
406,-601,7.92432,15.689,-0.0023842,-0.00818185,0.00971543,0.00485565,-0.0154217,0.640416,0.0122255,0.0145031,1630,1625,7.92437,-15.6889
413,-601,7.92639,15.5142,-0.0023226,-0.00741714,0.00901175,0.00449496,-0.0142347,0.647661,0.0112904,0.0129818,1637,1625,7.92636,-15.5141
420,-601,7.90063,15.3639,-0.00216732,-0.00645036,0.00804996,0.0040211,-0.0126388,0.655395,0.0100384,0.0103978,1644,1625,7.90066,-15.3639
427,-601,7.91541,15.1824,-0.00187967,-0.00565235,0.00699593,0.00347977,-0.0110118,0.653713,0.00873528,0.0146529,1651,1625,7.91543,-15.1824
434,-601,7.92773,14.9724,-0.0016382,-0.00491148,0.00595871,0.00290455,-0.00945423,0.651372,0.00746188,0.0153016,1658,1625,7.92777,-14.9724
441,-601,7.93079,14.759,-0.00135836,-0.00419957,0.00489748,0.0023204,-0.00787832,0.644238,0.00617281,0.0169389,1665,1625,7.93082,-14.759
448,-601,7.90674,14.5616,-0.000904897,-0.0034286,0.00379078,0.00182853,-0.00616202,0.62473,0.00483421,0.0154261,1672,1625,7.90676,-14.5616
455,-601,7.91248,14.3427,-0.000666728,-0.00276537,0.00282661,0.00129905,-0.00473115,0.607668,0.00366468,0.0130923,1679,1625,7.91242,-14.3427
462,-601,7.91394,14.1361,-0.000391646,-0.00219043,0.00181336,0.000733113,-0.00331519,0.555185,0.00249073,0.0106142,1686,1625,7.91397,-14.1361
469,-601,7.91602,13.9324,3.15719e-05,-0.00165473,0.0008681,0.000398587,-0.00202174,0.399988,0.00149847,0.0103205,1693,1625,7.91599,-13.9324
476,-601,7.89941,13.7155,0.000409764,-0.0011496,2.91556e-05,0.000410308,-0.00115014,0.0186885,0.000934068,0.0136835,1700,1625,7.89935,-13.7154
483,-601,7.88281,13.4723,0.000888264,-0.000672562,-0.000739983,0.00118331,-0.000967611,-0.379406,0.00124392,0.0178568,1707,1625,7.88281,-13.4723
490,-601,7.88794,13.2357,0.00130534,-0.000202986,-0.00137023,0.00211524,-0.00101289,-0.533826,0.00184303,0.0132498,1714,1625,7.88793,-13.2357
497,-601,7.90454,13.0068,0.00177429,0.000160727,-0.00191809,0.00304836,-0.00111335,-0.586322,0.00248783,0.00981496,1721,1625,7.90452,-13.0068
504,-601,7.92737,12.7802,0.00234257,0.000246303,-0.00228882,0.00381183,-0.00122296,-0.570681,0.00303223,0.0126441,1728,1625,7.9274,-12.7802
511,-601,7.87964,12.5618,0.00291656,0.000175986,-0.00248525,0.00438426,-0.00129171,-0.533452,0.00343533,0.0225745,1735,1625,7.87964,-12.5618
518,-601,7.82922,12.3142,0.00335497,-5.36828e-05,-0.00236625,0.00456678,-0.00126549,-0.473299,0.00354252,0.0369646,1742,1625,7.82921,-12.3142
525,-601,7.81763,12.0929,0.00393919,-0.000436867,-0.00215238,0.00482039,-0.00131807,-0.388593,0.00373138,0.0479857,1749,1625,7.81768,-12.093
532,-601,7.87512,11.9166,0,0,0,0,0,0,0,-1,1756,1625,7.87515,-11.9166
539,-601,7.67151,11.5184,0,0,0,0,0,0,0,-1,1763,1625,7.67154,-11.5184
546,-601,6.56873,3.62354,0,0,0,0,0,0,0,-1,1770,1625,6.56867,-3.62352
553,-601,7.03015,4.25049,0,0,0,0,0,0,0,-1,1777,1625,7.03011,-4.25048
560,-601,7.50745,4.83374,0,0,0,0,0,0,0,-1,1784,1625,7.50744,-4.83376
567,-601,7.82043,3.83301,0,0,0,0,0,0,0,-1,1791,1625,7.82041,-3.83303
574,-601,0,0,0,0,0,0,0,0,0,-1,1798,1625,0,0
581,-601,0,0,0,0,0,0,0,0,0,-1,1805,1625,0,0
588,-601,0,0,0,0,0,0,0,0,0,-1,1812,1625,0,0
595,-601,0,0,0,0,0,0,0,0,0,-1,1819,1625,0,0
602,-601,0,0,0,0,0,0,0,0,0,-1,1826,1625,0,0
609,-601,0,0,0,0,0,0,0,0,0,-1,1833,1625,0,0
616,-601,0,0,0,0,0,0,0,0,0,-1,1840,1625,0,0
623,-601,0,0,0,0,0,0,0,0,0,-1,1847,1625,0,0
630,-601,0,0,0,0,0,0,0,0,0,-1,1854,1625,0,0
637,-601,0,0,0,0,0,0,0,0,0,-1,1861,1625,0,0
644,-601,0,0,0,0,0,0,0,0,0,-1,1868,1625,0,0
651,-601,0,0,0,0,0,0,0,0,0,-1,1875,1625,0,0
658,-601,0,0,0,0,0,0,0,0,0,-1,1882,1625,0,0
665,-601,0,0,0,0,0,0,0,0,0,-1,1889,1625,0,0
672,-601,0,0,0,0,0,0,0,0,0,-1,1896,1625,0,0
679,-601,0,0,0,0,0,0,0,0,0,-1,1903,1625,0,0
686,-601,0,0,0,0,0,0,0,0,0,-1,1910,1625,0,0
693,-601,0,0,0,0,0,0,0,0,0,-1,1917,1625,0,0
700,-601,0,0,0,0,0,0,0,0,0,-1,1924,1625,0,0
707,-601,0,0,0,0,0,0,0,0,0,-1,1931,1625,0,0
714,-601,0,0,0,0,0,0,0,0,0,-1,1938,1625,0,0
721,-601,0,0,0,0,0,0,0,0,0,-1,1945,1625,0,0
728,-601,0,0,0,0,0,0,0,0,0,-1,1952,1625,0,0
735,-601,0,0,0,0,0,0,0,0,0,-1,1959,1625,0,0
742,-601,0,0,0,0,0,0,0,0,0,-1,1966,1625,0,0
749,-601,0,0,0,0,0,0,0,0,0,-1,1973,1625,0,0
756,-601,0,0,0,0,0,0,0,0,0,-1,1980,1625,0,0
763,-601,0,0,0,0,0,0,0,0,0,-1,1987,1625,0,0
770,-601,0,0,0,0,0,0,0,0,0,-1,1994,1625,0,0
777,-601,0,0,0,0,0,0,0,0,0,-1,2001,1625,0,0
784,-601,0,0,0,0,0,0,0,0,0,-1,2008,1625,0,0
791,-601,0,0,0,0,0,0,0,0,0,-1,2015,1625,0,0
798,-601,0,0,0,0,0,0,0,0,0,-1,2022,1625,0,0
805,-601,0,0,0,0,0,0,0,0,0,-1,2029,1625,0,0
812,-601,0,0,0,0,0,0,0,0,0,-1,2036,1625,0,0
-700,-608,0,0,0,0,0,0,0,0,0,-1,524,1632,0,0
-693,-608,0,0,0,0,0,0,0,0,0,-1,531,1632,0,0
-686,-608,0,0,0,0,0,0,0,0,0,-1,538,1632,0,0
-679,-608,0,0,0,0,0,0,0,0,0,-1,545,1632,0,0
-672,-608,0,0,0,0,0,0,0,0,0,-1,552,1632,0,0
-665,-608,0,0,0,0,0,0,0,0,0,-1,559,1632,0,0
-658,-608,0,0,0,0,0,0,0,0,0,-1,566,1632,0,0
-651,-608,0,0,0,0,0,0,0,0,0,-1,573,1632,0,0
-644,-608,0,0,0,0,0,0,0,0,0,-1,580,1632,0,0
-637,-608,0,0,0,0,0,0,0,0,0,-1,587,1632,0,0
-630,-608,0,0,0,0,0,0,0,0,0,-1,594,1632,0,0
-623,-608,0,0,0,0,0,0,0,0,0,-1,601,1632,0,0
-616,-608,0,0,0,0,0,0,0,0,0,-1,608,1632,0,0
-609,-608,0,0,0,0,0,0,0,0,0,-1,615,1632,0,0
-602,-608,0,0,0,0,0,0,0,0,0,-1,622,1632,0,0
-595,-608,0,0,0,0,0,0,0,0,0,-1,629,1632,0,0
-588,-608,0,0,0,0,0,0,0,0,0,-1,636,1632,0,0
-581,-608,0,0,0,0,0,0,0,0,0,-1,643,1632,0,0
-574,-608,0,0,0,0,0,0,0,0,0,-1,650,1632,0,0
-567,-608,0,0,0,0,0,0,0,0,0,-1,657,1632,0,0
-560,-608,0,0,0,0,0,0,0,0,0,-1,664,1632,0,0
-553,-608,0,0,0,0,0,0,0,0,0,-1,671,1632,0,0
-546,-608,0,0,0,0,0,0,0,0,0,-1,678,1632,0,0
-539,-608,0,0,0,0,0,0,0,0,0,-1,685,1632,0,0
-532,-608,0,0,0,0,0,0,0,0,0,-1,692,1632,0,0
-525,-608,0,0,0,0,0,0,0,0,0,-1,699,1632,0,0
-518,-608,0,0,0,0,0,0,0,0,0,-1,706,1632,0,0
-511,-608,0,0,0,0,0,0,0,0,0,-1,713,1632,0,0
-504,-608,0,0,0,0,0,0,0,0,0,-1,720,1632,0,0
-497,-608,0,0,0,0,0,0,0,0,0,-1,727,1632,0,0
-490,-608,0,0,0,0,0,0,0,0,0,-1,734,1632,0,0
-483,-608,0,0,0,0,0,0,0,0,0,-1,741,1632,0,0
-476,-608,0,0,0,0,0,0,0,0,0,-1,748,1632,0,0
-469,-608,0,0,0,0,0,0,0,0,0,-1,755,1632,0,0
-462,-608,0,0,0,0,0,0,0,0,0,-1,762,1632,0,0
-455,-608,0,0,0,0,0,0,0,0,0,-1,769,1632,0,0
-448,-608,0,0,0,0,0,0,0,0,0,-1,776,1632,0,0
-441,-608,-7.34601,2.78052,0,0,0,0,0,0,0,-1,783,1632,-7.346,-2.78056
-434,-608,-6.34558,3.27405,0,0,0,0,0,0,0,-1,790,1632,-6.34555,-3.27406
-427,-608,-7.74335,4.17688,0,0,0,0,0,0,0,-1,797,1632,-7.74334,-4.17693
-420,-608,-6.82794,4.34839,0,0,0,0,0,0,0,-1,804,1632,-6.82794,-4.34838
-413,-608,-5.41919,5.66138,0,0,0,0,0,0,0,-1,811,1632,-5.41917,-5.66133
-406,-608,-4.79681,4.98999,0,0,0,0,0,0,0,-1,818,1632,-4.79684,-4.98997
-399,-608,-2.60645,6.34167,0,0,0,0,0,0,0,-1,825,1632,-2.60643,-6.34169
-392,-608,2.66022,10.8722,0,0,0,0,0,0,0,-1,832,1632,2.66022,-10.8722
-385,-608,2.81531,11.7963,0,0,0,0,0,0,0,-1,839,1632,2.81528,-11.7963
-378,-608,2.50708,11.7467,-0.00126177,-0.00242992,-0.00204134,0.000277406,-0.0039691,-0.64606,0.00274321,0.0478542,846,1632,2.50708,-11.7467
-371,-608,2.39276,11.613,-0.0011625,-0.00245791,-0.00147084,-0.000203064,-0.00341735,-0.577994,0.00221365,0.0411849,853,1632,2.39278,-11.6131
-364,-608,2.39148,11.7926,-0.00108004,-0.00246246,-0.000860776,-0.000667297,-0.0028752,-0.44711,0.00173762,0.0182129,860,1632,2.3915,-11.7926
-357,-608,2.35339,12.0626,-0.000702633,-0.00234769,-0.000354498,-0.000629493,-0.00242083,-0.203465,0.00145033,0.0145942,867,1632,2.3534,-12.0626
-350,-608,2.36591,12.3608,-0.000195102,-0.00210302,-4.42306e-05,-0.000194077,-0.00210405,-0.0231661,0.00134269,0.0192184,874,1632,2.36592,-12.3608
-343,-608,2.36798,12.6184,0.000137126,-0.00199177,0.000133551,0.000145471,-0.00200012,0.0624065,0.00138445,0.0229262,881,1632,2.36797,-12.6184
-336,-608,2.35913,12.9008,0.000439979,-0.00183079,0.000213017,0.000459789,-0.0018506,0.0927302,0.00141217,0.0154354,888,1632,2.35914,-12.9008
-329,-608,2.33813,13.1274,0.000700137,-0.00167497,0.000184379,0.000714365,-0.00168919,0.077015,0.00142523,0.0138327,895,1632,2.33815,-13.1275
-322,-608,2.33185,13.335,0.000873467,-0.00152602,0.000116533,0.000879114,-0.00153166,0.048414,0.00140876,0.0146191,902,1632,2.33187,-13.3349
-315,-608,2.37842,13.5519,0.000933946,-0.00172613,-0.000117848,0.000939157,-0.00173134,-0.0441872,0.00156426,0.0134869,909,1632,2.37841,-13.5519
-308,-608,2.35577,13.7844,0.000898399,-0.00213762,-0.000538351,0.000991034,-0.00223026,-0.170402,0.00190513,0.0135166,916,1632,2.35576,-13.7844
-301,-608,2.35052,14.0215,0.000893434,-0.00257134,-0.00102333,0.0011731,-0.00285101,-0.266778,0.0023897,0.010741,923,1632,2.35052,-14.0214
-294,-608,2.35986,14.248,0.000903655,-0.00296004,-0.00147442,0.00140202,-0.00345841,-0.325954,0.00288868,0.0100614,930,1632,2.35988,-14.248
-287,-608,2.34216,14.4452,0.000877118,-0.00358025,-0.00197168,0.00162409,-0.00432723,-0.362144,0.00355218,0.0096877,937,1632,2.34219,-14.4451
-280,-608,2.35541,14.6666,0.000932424,-0.00435358,-0.00248614,0.00191797,-0.00533913,-0.377413,0.00434231,0.00845093,944,1632,2.35538,-14.6666
-273,-608,2.35999,14.8943,0.00104658,-0.00525831,-0.00302997,0.00226662,-0.00647835,-0.382795,0.00524047,0.0082653,951,1632,2.35999,-14.8943
-266,-608,2.37982,15.1105,0.00120245,-0.00644379,-0.00351311,0.00257146,-0.0078128,-0.371583,0.00624473,0.00810519,958,1632,2.37981,-15.1104
-259,-608,2.40106,15.3005,0.00133329,-0.00768241,-0.00393261,0.00280759,-0.00915671,-0.358675,0.00722453,0.0114531,965,1632,2.40103,-15.3005
-252,-608,2.42157,15.4659,0.00146546,-0.00948242,-0.00453568,0.00310042,-0.0111174,-0.345968,0.00863268,0.0253161,972,1632,2.4216,-15.466
-245,-608,2.54968,15.7052,0.00178859,-0.0111402,-0.00488514,0.00342685,-0.0127785,-0.323569,0.00986178,0.0376294,979,1632,2.54969,-15.7053
-238,-608,2.54089,15.7587,0.00213665,-0.0130294,-0.00528899,0.00379893,-0.0146917,-0.304516,0.0112761,0.0443672,986,1632,2.54091,-15.7587
-231,-608,2.52856,16.0269,0,0,0,0,0,0,0,-1,993,1632,2.52859,-16.0269
-224,-608,2.51642,15.3452,0,0,0,0,0,0,0,-1,1000,1632,2.5164,-15.3452
-217,-608,1.04419,12.8451,0,0,0,0,0,0,0,-1,1007,1632,1.04418,-12.8451
-210,-608,2.94293,16.2939,0,0,0,0,0,0,0,-1,1014,1632,2.94295,-16.294
-203,-608,3.14099,16.3833,0,0,0,0,0,0,0,-1,1021,1632,3.14103,-16.3833
-196,-608,3.40698,16.4789,0,0,0,0,0,0,0,-1,1028,1632,3.40695,-16.4789
-189,-608,1.74658,16.2288,0,0,0,0,0,0,0,-1,1035,1632,1.74659,-16.2288
-182,-608,2.85425,15.5198,0,0,0,0,0,0,0,-1,1042,1632,2.85429,-15.5198
-175,-608,0.219116,15.1643,0,0,0,0,0,0,0,-1,1049,1632,0.219173,-15.1644
-168,-608,0.000366211,9.48645,0,0,0,0,0,0,0,-1,1056,1632,0.000317105,-9.48648
-161,-608,2.27832,15.4423,0,0,0,0,0,0,0,-1,1063,1632,2.27826,-15.4423
-154,-608,1.3999,16.4037,0,0,0,0,0,0,0,-1,1070,1632,1.39987,-16.4037
-147,-608,2.4386,9.50317,0,0,0,0,0,0,0,-1,1077,1632,2.43858,-9.50313
-140,-608,2.60132,10.8401,0,0,0,0,0,0,0,-1,1084,1632,2.60134,-10.8401
-133,-608,3.2312,12.4738,0,0,0,0,0,0,0,-1,1091,1632,3.23116,-12.4738
-126,-608,3.76465,13.9644,0,0,0,0,0,0,0,-1,1098,1632,3.76466,-13.9644
-119,-608,4.28906,15.4196,0,0,0,0,0,0,0,-1,1105,1632,4.28911,-15.4195
-112,-608,0.745117,10.5587,0,0,0,0,0,0,0,-1,1112,1632,0.745145,-10.5587
-105,-608,-0.252319,1.42419,0,0,0,0,0,0,0,-1,1119,1632,-0.252331,-1.42418
-98,-608,-2.8595,3.0863,0,0,0,0,0,0,0,-1,1126,1632,-2.85948,-3.08625
-91,-608,-3.71948,1.73608,0,0,0,0,0,0,0,-1,1133,1632,-3.7195,-1.73607
-84,-608,0,0,0,0,0,0,0,0,0,-1,1140,1632,0,0
-77,-608,0,0,0,0,0,0,0,0,0,-1,1147,1632,0,0
-70,-608,0,0,0,0,0,0,0,0,0,-1,1154,1632,0,0
-63,-608,0,0,0,0,0,0,0,0,0,-1,1161,1632,0,0
-56,-608,0,0,0,0,0,0,0,0,0,-1,1168,1632,0,0
-49,-608,0,0,0,0,0,0,0,0,0,-1,1175,1632,0,0
-42,-608,0,0,0,0,0,0,0,0,0,-1,1182,1632,0,0
-35,-608,0,0,0,0,0,0,0,0,0,-1,1189,1632,0,0
-28,-608,0,0,0,0,0,0,0,0,0,-1,1196,1632,0,0
-21,-608,0,0,0,0,0,0,0,0,0,-1,1203,1632,0,0
-14,-608,0,0,0,0,0,0,0,0,0,-1,1210,1632,0,0
-7,-608,0,0,0,0,0,0,0,0,0,-1,1217,1632,0,0
0,-608,0,0,0,0,0,0,0,0,0,-1,1224,1632,0,0
7,-608,0,0,0,0,0,0,0,0,0,-1,1231,1632,0,0
14,-608,0,0,0,0,0,0,0,0,0,-1,1238,1632,0,0
21,-608,0,0,0,0,0,0,0,0,0,-1,1245,1632,0,0
28,-608,0,0,0,0,0,0,0,0,0,-1,1252,1632,0,0
35,-608,0,0,0,0,0,0,0,0,0,-1,1259,1632,0,0
42,-608,0,0,0,0,0,0,0,0,0,-1,1266,1632,0,0
49,-608,0,0,0,0,0,0,0,0,0,-1,1273,1632,0,0
56,-608,0,0,0,0,0,0,0,0,0,-1,1280,1632,0,0
63,-608,0,0,0,0,0,0,0,0,0,-1,1287,1632,0,0
70,-608,0,0,0,0,0,0,0,0,0,-1,1294,1632,0,0
77,-608,0,0,0,0,0,0,0,0,0,-1,1301,1632,0,0
84,-608,0,0,0,0,0,0,0,0,0,-1,1308,1632,0,0
91,-608,0,0,0,0,0,0,0,0,0,-1,1315,1632,0,0
98,-608,0,0,0,0,0,0,0,0,0,-1,1322,1632,0,0
105,-608,0,0,0,0,0,0,0,0,0,-1,1329,1632,0,0
112,-608,0,0,0,0,0,0,0,0,0,-1,1336,1632,0,0
119,-608,0,0,0,0,0,0,0,0,0,-1,1343,1632,0,0
126,-608,0,0,0,0,0,0,0,0,0,-1,1350,1632,0,0
133,-608,0,0,0,0,0,0,0,0,0,-1,1357,1632,0,0
140,-608,0,0,0,0,0,0,0,0,0,-1,1364,1632,0,0
147,-608,0,0,0,0,0,0,0,0,0,-1,1371,1632,0,0
154,-608,0,0,0,0,0,0,0,0,0,-1,1378,1632,0,0
161,-608,0,0,0,0,0,0,0,0,0,-1,1385,1632,0,0
168,-608,0,0,0,0,0,0,0,0,0,-1,1392,1632,0,0
175,-608,0,0,0,0,0,0,0,0,0,-1,1399,1632,0,0
182,-608,0,0,0,0,0,0,0,0,0,-1,1406,1632,0,0
189,-608,0,0,0,0,0,0,0,0,0,-1,1413,1632,0,0
196,-608,0,0,0,0,0,0,0,0,0,-1,1420,1632,0,0
203,-608,0,0,0,0,0,0,0,0,0,-1,1427,1632,0,0
210,-608,5.7157,-0.333008,0,0,0,0,0,0,0,-1,1434,1632,5.71566,0.333004
217,-608,4.49402,-0.831787,0,0,0,0,0,0,0,-1,1441,1632,4.49396,0.831738
224,-608,4.18018,-1.11792,0,0,0,0,0,0,0,-1,1448,1632,4.1802,1.11796
231,-608,0.361816,0.825195,0,0,0,0,0,0,0,-1,1455,1632,0.36185,-0.825226
238,-608,2.85388,-0.28833,0,0,0,0,0,0,0,-1,1462,1632,2.85391,0.288282
245,-608,3.87537,4.02173,0,0,0,0,0,0,0,-1,1469,1632,3.87538,-4.02168
252,-608,5.66956,3.5282,0,0,0,0,0,0,0,-1,1476,1632,5.6696,-3.52815
259,-608,7.47437,3.07178,0,0,0,0,0,0,0,-1,1483,1632,7.4744,-3.07172
266,-608,9.46936,2.34766,0,0,0,0,0,0,0,-1,1490,1632,9.46932,-2.34764
273,-608,6.03003,3.34241,0,0,0,0,0,0,0,-1,1497,1632,6.02997,-3.34245
280,-608,5.72461,2.0769,0,0,0,0,0,0,0,-1,1504,1632,5.72457,-2.07688
287,-608,6.20581,3.59338,0,0,0,0,0,0,0,-1,1511,1632,6.20585,-3.59341
294,-608,6.94922,5.17151,0,0,0,0,0,0,0,-1,1518,1632,6.94925,-5.17151
301,-608,7.60083,6.68018,0,0,0,0,0,0,0,-1,1525,1632,7.60086,-6.68013
308,-608,7.64746,9.93848,0,0,0,0,0,0,0,-1,1532,1632,7.64745,-9.93842
315,-608,5.30688,11.2054,0,0,0,0,0,0,0,-1,1539,1632,5.30694,-11.2054
322,-608,5.32617,13.7581,0,0,0,0,0,0,0,-1,1546,1632,5.32613,-13.758
329,-608,7.12231,13.9607,0,0,0,0,0,0,0,-1,1553,1632,7.12231,-13.9607
336,-608,5.48633,7.82446,0,0,0,0,0,0,0,-1,1560,1632,5.48634,-7.82446
343,-608,5.47192,5.61047,0,0,0,0,0,0,0,-1,1567,1632,5.47192,-5.61045
350,-608,11.6957,1.71387,0,0,0,0,0,0,0,-1,1574,1632,11.6957,-1.71388
357,-608,3.77002,5.10046,0,0,0,0,0,0,0,-1,1581,1632,3.77002,-5.10043
364,-608,5.6925,11.2163,0,0,0,0,0,0,0,-1,1588,1632,5.69255,-11.2163
371,-608,7.77234,16.8096,0,0,0,0,0,0,0,-1,1595,1632,7.77237,-16.8096
378,-608,7.85388,16.4564,-0.00111025,-0.00642529,0.00715637,0.00386611,-0.0114016,0.607615,0.00916574,0.0402922,1602,1632,7.85383,-16.4564
385,-608,7.84375,16.2211,-0.00177015,-0.00718906,0.00781228,0.00378919,-0.0127484,0.618479,0.0100041,0.0344231,1609,1632,7.84371,-16.221
392,-608,7.74194,16.0992,-0.00204437,-0.00701934,0.00802434,0.00386919,-0.0129329,0.635099,0.0101603,0.021484,1616,1632,7.74197,-16.0993
399,-608,7.70056,15.9419,-0.00206589,-0.00645354,0.00770063,0.00374731,-0.0122667,0.64663,0.00967201,0.0101108,1623,1632,7.70062,-15.9419
406,-608,7.69446,15.7638,-0.00193053,-0.00587838,0.00700605,0.00337436,-0.0111833,0.648085,0.00879869,0.00874733,1630,1632,7.69443,-15.7638
413,-608,7.68457,15.5725,-0.00183226,-0.00535791,0.00643963,0.00308146,-0.0102716,0.651798,0.00807338,0.00947762,1637,1632,7.68453,-15.5726
420,-608,7.66956,15.3759,-0.00161671,-0.004648,0.00564635,0.00271388,-0.00897858,0.654275,0.00706625,0.0165552,1644,1632,7.66956,-15.3759
427,-608,7.68909,15.1729,-0.00132316,-0.00408273,0.00479509,0.00228671,-0.0076926,0.645308,0.00603677,0.0186209,1651,1632,7.68914,-15.1729
434,-608,7.70581,14.9635,-0.00106241,-0.00355491,0.00394821,0.00183158,-0.00644889,0.632522,0.00502237,0.0145892,1658,1632,7.70586,-14.9635
441,-608,7.7074,14.7623,-0.000749473,-0.0030465,0.00306337,0.0013736,-0.00516957,0.606049,0.00398398,0.0131774,1665,1632,7.70745,-14.7623
448,-608,7.71863,14.5657,-0.000302758,-0.00246967,0.00214808,0.00101964,-0.00379207,0.551824,0.00292772,0.0153522,1672,1632,7.71861,-14.5657
455,-608,7.72546,14.3406,-3.07007e-05,-0.00204178,0.00136359,0.000658007,-0.00273049,0.467696,0.00207474,0.0114367,1679,1632,7.72547,-14.3405
462,-608,7.70874,14.1254,0.000245882,-0.00168726,0.000553282,0.000393035,-0.00183442,0.259945,0.00137284,0.010262,1686,1632,7.7088,-14.1253
469,-608,7.698,13.9204,0.000654888,-0.00133974,-0.000204315,0.000675601,-0.00136046,-0.101035,0.00119748,0.00840785,1693,1632,7.69805,-13.9204
476,-608,7.68628,13.7007,0.00104786,-0.000989957,-0.000864676,0.0013653,-0.0013074,-0.351849,0.00154321,0.00912519,1700,1632,7.68633,-13.7006
483,-608,7.68884,13.4741,0.00149712,-0.000638599,-0.00147501,0.00225025,-0.00139173,-0.472083,0.00212208,0.00908752,1707,1632,7.68887,-13.4741
490,-608,7.70667,13.245,0.00183644,-0.000318757,-0.00198827,0.00302035,-0.00150267,-0.537066,0.00265992,0.0096278,1714,1632,7.70673,-13.245
497,-608,7.73328,13.0171,0.0022401,4.47948e-05,-0.002428,0.00380703,-0.00152214,-0.573106,0.00316966,0.0149816,1721,1632,7.73334,-13.017
504,-608,7.72327,12.8167,0.00276594,0.000148208,-0.00276447,0.00451574,-0.00160159,-0.564302,0.00366299,0.0304212,1728,1632,7.72331,-12.8167
511,-608,7.65845,12.6016,0.00332442,0.000166304,-0.00302786,0.00516024,-0.00166952,-0.545045,0.00411126,0.0426923,1735,1632,7.65841,-12.6015
518,-608,7.58728,12.408,0,0,0,0,0,0,0,-1,1742,1632,7.58725,-12.408
525,-608,7.48828,12.1873,0,0,0,0,0,0,0,-1,1749,1632,7.48834,-12.1872
532,-608,8.021,11.6565,0,0,0,0,0,0,0,-1,1756,1632,8.02094,-11.6565
539,-608,9.40796,1.43457,0,0,0,0,0,0,0,-1,1763,1632,9.40801,-1.43463
546,-608,9.94031,2.1134,0,0,0,0,0,0,0,-1,1770,1632,9.94031,-2.11346
553,-608,10.363,2.81335,0,0,0,0,0,0,0,-1,1777,1632,10.3631,-2.81333
560,-608,9.23999,4.5636,0,0,0,0,0,0,0,-1,1784,1632,9.24,-4.56354
567,-608,0,0,0,0,0,0,0,0,0,-1,1791,1632,0,0
574,-608,0,0,0,0,0,0,0,0,0,-1,1798,1632,0,0
581,-608,0,0,0,0,0,0,0,0,0,-1,1805,1632,0,0
588,-608,0,0,0,0,0,0,0,0,0,-1,1812,1632,0,0
595,-608,0,0,0,0,0,0,0,0,0,-1,1819,1632,0,0
602,-608,0,0,0,0,0,0,0,0,0,-1,1826,1632,0,0
609,-608,0,0,0,0,0,0,0,0,0,-1,1833,1632,0,0
616,-608,0,0,0,0,0,0,0,0,0,-1,1840,1632,0,0
623,-608,0,0,0,0,0,0,0,0,0,-1,1847,1632,0,0
630,-608,0,0,0,0,0,0,0,0,0,-1,1854,1632,0,0
637,-608,0,0,0,0,0,0,0,0,0,-1,1861,1632,0,0
644,-608,0,0,0,0,0,0,0,0,0,-1,1868,1632,0,0
651,-608,0,0,0,0,0,0,0,0,0,-1,1875,1632,0,0
658,-608,0,0,0,0,0,0,0,0,0,-1,1882,1632,0,0
665,-608,0,0,0,0,0,0,0,0,0,-1,1889,1632,0,0
672,-608,0,0,0,0,0,0,0,0,0,-1,1896,1632,0,0
679,-608,0,0,0,0,0,0,0,0,0,-1,1903,1632,0,0
686,-608,0,0,0,0,0,0,0,0,0,-1,1910,1632,0,0
693,-608,0,0,0,0,0,0,0,0,0,-1,1917,1632,0,0
700,-608,0,0,0,0,0,0,0,0,0,-1,1924,1632,0,0
707,-608,0,0,0,0,0,0,0,0,0,-1,1931,1632,0,0
714,-608,0,0,0,0,0,0,0,0,0,-1,1938,1632,0,0
721,-608,0,0,0,0,0,0,0,0,0,-1,1945,1632,0,0
728,-608,0,0,0,0,0,0,0,0,0,-1,1952,1632,0,0
735,-608,0,0,0,0,0,0,0,0,0,-1,1959,1632,0,0
742,-608,0,0,0,0,0,0,0,0,0,-1,1966,1632,0,0
749,-608,0,0,0,0,0,0,0,0,0,-1,1973,1632,0,0
756,-608,0,0,0,0,0,0,0,0,0,-1,1980,1632,0,0
763,-608,0,0,0,0,0,0,0,0,0,-1,1987,1632,0,0
770,-608,0,0,0,0,0,0,0,0,0,-1,1994,1632,0,0
777,-608,0,0,0,0,0,0,0,0,0,-1,2001,1632,0,0
784,-608,0,0,0,0,0,0,0,0,0,-1,2008,1632,0,0
791,-608,0,0,0,0,0,0,0,0,0,-1,2015,1632,0,0
798,-608,0,0,0,0,0,0,0,0,0,-1,2022,1632,0,0
805,-608,0,0,0,0,0,0,0,0,0,-1,2029,1632,0,0
812,-608,0,0,0,0,0,0,0,0,0,-1,2036,1632,0,0
-700,-615,0,0,0,0,0,0,0,0,0,-1,524,1639,0,0
-693,-615,0,0,0,0,0,0,0,0,0,-1,531,1639,0,0
-686,-615,0,0,0,0,0,0,0,0,0,-1,538,1639,0,0
-679,-615,0,0,0,0,0,0,0,0,0,-1,545,1639,0,0
-672,-615,0,0,0,0,0,0,0,0,0,-1,552,1639,0,0
-665,-615,0,0,0,0,0,0,0,0,0,-1,559,1639,0,0
-658,-615,0,0,0,0,0,0,0,0,0,-1,566,1639,0,0
-651,-615,0,0,0,0,0,0,0,0,0,-1,573,1639,0,0
-644,-615,0,0,0,0,0,0,0,0,0,-1,580,1639,0,0
-637,-615,0,0,0,0,0,0,0,0,0,-1,587,1639,0,0
-630,-615,0,0,0,0,0,0,0,0,0,-1,594,1639,0,0
-623,-615,0,0,0,0,0,0,0,0,0,-1,601,1639,0,0
-616,-615,0,0,0,0,0,0,0,0,0,-1,608,1639,0,0
-609,-615,0,0,0,0,0,0,0,0,0,-1,615,1639,0,0
-602,-615,0,0,0,0,0,0,0,0,0,-1,622,1639,0,0
-595,-615,0,0,0,0,0,0,0,0,0,-1,629,1639,0,0
-588,-615,0,0,0,0,0,0,0,0,0,-1,636,1639,0,0
-581,-615,0,0,0,0,0,0,0,0,0,-1,643,1639,0,0
-574,-615,0,0,0,0,0,0,0,0,0,-1,650,1639,0,0
-567,-615,0,0,0,0,0,0,0,0,0,-1,657,1639,0,0
-560,-615,0,0,0,0,0,0,0,0,0,-1,664,1639,0,0
-553,-615,0,0,0,0,0,0,0,0,0,-1,671,1639,0,0
-546,-615,0,0,0,0,0,0,0,0,0,-1,678,1639,0,0
-539,-615,0,0,0,0,0,0,0,0,0,-1,685,1639,0,0
-532,-615,0,0,0,0,0,0,0,0,0,-1,692,1639,0,0
-525,-615,0,0,0,0,0,0,0,0,0,-1,699,1639,0,0
-518,-615,0,0,0,0,0,0,0,0,0,-1,706,1639,0,0
-511,-615,0,0,0,0,0,0,0,0,0,-1,713,1639,0,0
-504,-615,0,0,0,0,0,0,0,0,0,-1,720,1639,0,0
-497,-615,0,0,0,0,0,0,0,0,0,-1,727,1639,0,0
-490,-615,0,0,0,0,0,0,0,0,0,-1,734,1639,0,0
-483,-615,0,0,0,0,0,0,0,0,0,-1,741,1639,0,0
-476,-615,0,0,0,0,0,0,0,0,0,-1,748,1639,0,0
-469,-615,0,0,0,0,0,0,0,0,0,-1,755,1639,0,0
-462,-615,0,0,0,0,0,0,0,0,0,-1,762,1639,0,0
-455,-615,0,0,0,0,0,0,0,0,0,-1,769,1639,0,0
-448,-615,0,0,0,0,0,0,0,0,0,-1,776,1639,0,0
-441,-615,0,0,0,0,0,0,0,0,0,-1,783,1639,0,0
-434,-615,-7.64508,2.98596,0,0,0,0,0,0,0,-1,790,1639,-7.64505,-2.98594
-427,-615,-9.0011,2.89404,0,0,0,0,0,0,0,-1,797,1639,-9.00107,-2.89399
-420,-615,-8.07568,3.0752,0,0,0,0,0,0,0,-1,804,1639,-8.07569,-3.07514
-413,-615,-7.09149,3.396,0,0,0,0,0,0,0,-1,811,1639,-7.09147,-3.39599
-406,-615,-6.21368,3.7312,0,0,0,0,0,0,0,-1,818,1639,-6.21366,-3.73114
-399,-615,-4.84875,3.91907,0,0,0,0,0,0,0,-1,825,1639,-4.84877,-3.91901
-392,-615,1.38574,11.8627,0,0,0,0,0,0,0,-1,832,1639,1.38574,-11.8627
-385,-615,2.84473,12.1143,0,0,0,0,0,0,0,-1,839,1639,2.84472,-12.1143
-378,-615,2.74469,12.0764,0,0,0,0,0,0,0,-1,846,1639,2.74471,-12.0764
-371,-615,2.57983,11.6866,0,0,0,0,0,0,0,-1,853,1639,2.57981,-11.6866
-364,-615,2.59973,11.8656,-0.00100818,-0.00290357,-0.000631121,-0.000817262,-0.00309449,-0.293754,0.0018517,0.0375763,860,1639,2.59974,-11.8656
-357,-615,2.65887,12.1973,-0.000558735,-0.00313621,1.60769e-05,-0.000558635,-0.00313631,0.00623714,0.00193178,0.0307375,867,1639,2.65889,-12.1972
-350,-615,2.57593,12.4341,-6.35646e-05,-0.00310226,0.000369409,-1.93011e-05,-0.00314653,0.119254,0.00209128,0.0306932,874,1639,2.57591,-12.4341
-343,-615,2.57581,12.5839,0.00025698,-0.0030936,0.000553572,0.000346071,-0.00318269,0.159569,0.00224606,0.0196698,881,1639,2.57578,-12.5839
-336,-615,2.61157,12.8621,0.000526518,-0.0029584,0.000617143,0.000632579,-0.00306446,0.170196,0.00228323,0.0108326,888,1639,2.61159,-12.8621
-329,-615,2.58185,13.1061,0.000732661,-0.00281317,0.000577978,0.000824495,-0.00290501,0.15757,0.00226215,0.0109069,895,1639,2.58186,-13.1061
-322,-615,2.57428,13.3502,0.000871494,-0.00252866,0.000538487,0.000954737,-0.0026119,0.153373,0.002132,0.0113631,902,1639,2.57429,-13.3502
-315,-615,2.60474,13.5815,0.000888051,-0.00258791,0.000300417,0.000913824,-0.00261369,0.0855812,0.00211396,0.01306,909,1639,2.60475,-13.5816
-308,-615,2.59735,13.8027,0.000820243,-0.0027999,-0.00010611,0.000823351,-0.002803,-0.0292776,0.00219521,0.0191467,916,1639,2.59733,-13.8027
-301,-615,2.59705,14.0103,0.000789503,-0.00293742,-0.000555966,0.000870672,-0.00301859,-0.144971,0.00235685,0.0121108,923,1639,2.59707,-14.0103
-294,-615,2.59125,14.2469,0.000788326,-0.00297324,-0.000948889,0.00101414,-0.00319905,-0.233627,0.00253918,0.0096841,930,1639,2.59124,-14.2469
-287,-615,2.56042,14.4597,0.000747398,-0.00318526,-0.00134775,0.00116495,-0.00360281,-0.300435,0.00287011,0.00760216,937,1639,2.56042,-14.4597
-280,-615,2.56726,14.6594,0.000791611,-0.00355328,-0.00173599,0.00140002,-0.00416169,-0.337094,0.0033404,0.00838647,944,1639,2.56725,-14.6595
-273,-615,2.57306,14.887,0.000926005,-0.00401708,-0.00212073,0.00171115,-0.00480223,-0.354577,0.0038991,0.0092544,951,1639,2.57309,-14.8869
-266,-615,2.57184,15.1066,0.00110521,-0.00472287,-0.00242197,0.00198031,-0.00559797,-0.346721,0.00453846,0.0101291,958,1639,2.57182,-15.1066
-259,-615,2.58423,15.3042,0.00127859,-0.00550391,-0.00265262,0.0021928,-0.00641812,-0.331895,0.00516717,0.0113191,965,1639,2.58424,-15.3042
-252,-615,2.61041,15.4863,0.00148493,-0.00687696,-0.00305196,0.00248035,-0.00787238,-0.315279,0.00624154,0.0117143,972,1639,2.61044,-15.4864
-245,-615,2.63837,15.6613,0.00182554,-0.0081864,-0.00327117,0.00279956,-0.00916042,-0.2894,0.0072233,0.0177546,979,1639,2.63835,-15.6613
-238,-615,2.67932,15.8647,0.00219604,-0.00963619,-0.00354536,0.00317703,-0.0106172,-0.269942,0.00834131,0.0260441,986,1639,2.67931,-15.8648
-231,-615,2.74731,16.0264,0.00261426,-0.0113808,-0.0039913,0.00367253,-0.012439,-0.259181,0.00975021,0.0363887,993,1639,2.74732,-16.0264
-224,-615,2.91315,16.2803,0,0,0,0,0,0,0,-1,1000,1639,2.91313,-16.2802
-217,-615,3.11591,16.0959,0,0,0,0,0,0,0,-1,1007,1639,3.1159,-16.0959
-210,-615,2.87207,15.8643,0,0,0,0,0,0,0,-1,1014,1639,2.87209,-15.8643
-203,-615,2.2854,16.3522,0,0,0,0,0,0,0,-1,1021,1639,2.28542,-16.3521
-196,-615,2.29578,16.4209,0,0,0,0,0,0,0,-1,1028,1639,2.29583,-16.4209
-189,-615,2.24231,16.2661,0,0,0,0,0,0,0,-1,1035,1639,2.24236,-16.2661
-182,-615,2.31726,16.1266,0,0,0,0,0,0,0,-1,1042,1639,2.31732,-16.1266
-175,-615,-0.609985,13.8434,0,0,0,0,0,0,0,-1,1049,1639,-0.610016,-13.8434
-168,-615,3.85754,15.472,0,0,0,0,0,0,0,-1,1056,1639,3.85757,-15.472
-161,-615,2.84497,16.0234,-0.0719853,-0.0451904,0.0205747,-0.0340356,-0.08314,1.07399,0.048263,0.0478272,1063,1639,2.84495,-16.0234
-154,-615,2.13501,16.7196,0,0,0,0,0,0,0,-1,1070,1639,2.13507,-16.7196
-147,-615,1.52502,17.3442,0,0,0,0,0,0,0,-1,1077,1639,1.52501,-17.3442
-140,-615,3.73401,10.2349,0,0,0,0,0,0,0,-1,1084,1639,3.73402,-10.2348
-133,-615,2.6178,17.45,0,0,0,0,0,0,0,-1,1091,1639,2.61776,-17.4499
-126,-615,4.43408,12.5017,0,0,0,0,0,0,0,-1,1098,1639,4.43403,-12.5018
-119,-615,4.82983,13.9279,0,0,0,0,0,0,0,-1,1105,1639,4.82986,-13.9278
-112,-615,3.65698,14.4874,0,0,0,0,0,0,0,-1,1112,1639,3.65695,-14.4875
-105,-615,0.958496,2.45398,0,0,0,0,0,0,0,-1,1119,1639,0.958452,-2.45398
-98,-615,-0.647705,2.12109,0,0,0,0,0,0,0,-1,1126,1639,-0.647756,-2.12105
-91,-615,-3.07983,2.97375,0,0,0,0,0,0,0,-1,1133,1639,-3.07989,-2.97376
-84,-615,-2.46509,0.703247,0,0,0,0,0,0,0,-1,1140,1639,-2.46505,-0.703273
-77,-615,-3.17859,1.23755,0,0,0,0,0,0,0,-1,1147,1639,-3.17865,-1.23752
-70,-615,-4.03943,1.43335,0,0,0,0,0,0,0,-1,1154,1639,-4.03942,-1.43339
-63,-615,-4.8877,1.45544,0,0,0,0,0,0,0,-1,1161,1639,-4.88766,-1.45549
-56,-615,0,0,0,0,0,0,0,0,0,-1,1168,1639,0,0
-49,-615,0,0,0,0,0,0,0,0,0,-1,1175,1639,0,0
-42,-615,0,0,0,0,0,0,0,0,0,-1,1182,1639,0,0
-35,-615,0,0,0,0,0,0,0,0,0,-1,1189,1639,0,0
-28,-615,0,0,0,0,0,0,0,0,0,-1,1196,1639,0,0
-21,-615,0,0,0,0,0,0,0,0,0,-1,1203,1639,0,0
-14,-615,0,0,0,0,0,0,0,0,0,-1,1210,1639,0,0
-7,-615,0,0,0,0,0,0,0,0,0,-1,1217,1639,0,0
0,-615,0,0,0,0,0,0,0,0,0,-1,1224,1639,0,0
7,-615,0,0,0,0,0,0,0,0,0,-1,1231,1639,0,0
14,-615,0,0,0,0,0,0,0,0,0,-1,1238,1639,0,0
21,-615,0,0,0,0,0,0,0,0,0,-1,1245,1639,0,0
28,-615,0,0,0,0,0,0,0,0,0,-1,1252,1639,0,0
35,-615,0,0,0,0,0,0,0,0,0,-1,1259,1639,0,0
42,-615,0,0,0,0,0,0,0,0,0,-1,1266,1639,0,0
49,-615,0,0,0,0,0,0,0,0,0,-1,1273,1639,0,0
56,-615,0,0,0,0,0,0,0,0,0,-1,1280,1639,0,0
63,-615,0,0,0,0,0,0,0,0,0,-1,1287,1639,0,0
70,-615,0,0,0,0,0,0,0,0,0,-1,1294,1639,0,0
77,-615,0,0,0,0,0,0,0,0,0,-1,1301,1639,0,0
84,-615,0,0,0,0,0,0,0,0,0,-1,1308,1639,0,0
91,-615,0,0,0,0,0,0,0,0,0,-1,1315,1639,0,0
98,-615,0,0,0,0,0,0,0,0,0,-1,1322,1639,0,0
105,-615,0,0,0,0,0,0,0,0,0,-1,1329,1639,0,0
112,-615,0,0,0,0,0,0,0,0,0,-1,1336,1639,0,0
119,-615,0,0,0,0,0,0,0,0,0,-1,1343,1639,0,0
126,-615,0,0,0,0,0,0,0,0,0,-1,1350,1639,0,0
133,-615,0,0,0,0,0,0,0,0,0,-1,1357,1639,0,0
140,-615,0,0,0,0,0,0,0,0,0,-1,1364,1639,0,0
147,-615,0,0,0,0,0,0,0,0,0,-1,1371,1639,0,0
154,-615,0,0,0,0,0,0,0,0,0,-1,1378,1639,0,0
161,-615,0,0,0,0,0,0,0,0,0,-1,1385,1639,0,0
168,-615,0,0,0,0,0,0,0,0,0,-1,1392,1639,0,0
175,-615,5.39648,-2.00879,0,0,0,0,0,0,0,-1,1399,1639,5.3965,2.00881
182,-615,5.65393,-1.51025,0,0,0,0,0,0,0,-1,1406,1639,5.65388,1.51028
189,-615,5.58972,-1.35608,0,0,0,0,0,0,0,-1,1413,1639,5.58967,1.35607
196,-615,5.49915,-0.693604,0,0,0,0,0,0,0,-1,1420,1639,5.4991,0.693602
203,-615,5.33411,-0.226685,0,0,0,0,0,0,0,-1,1427,1639,5.33414,0.226689
210,-615,5.60278,0.108276,0,0,0,0,0,0,0,-1,1434,1639,5.60284,-0.10831
217,-615,6.26331,-0.307373,0,0,0,0,0,0,0,-1,1441,1639,6.26331,0.307372
224,-615,5.45422,-0.333984,0,0,0,0,0,0,0,-1,1448,1639,5.45422,0.333992
231,-615,4.92542,1.80298,0,0,0,0,0,0,0,-1,1455,1639,4.92537,-1.80297
238,-615,4.76355,1.96729,0,0,0,0,0,0,0,-1,1462,1639,4.76357,-1.96734
245,-615,4.08643,3.15906,0,0,0,0,0,0,0,-1,1469,1639,4.08638,-3.159
252,-615,6.37805,3.73889,0,0,0,0,0,0,0,-1,1476,1639,6.37806,-3.73891
259,-615,8.35974,3.16443,0,0,0,0,0,0,0,-1,1483,1639,8.35975,-3.16444
266,-615,10.3414,2.58997,0,0,0,0,0,0,0,-1,1490,1639,10.3414,-2.58996
273,-615,6.57043,1.84766,0,0,0,0,0,0,0,-1,1497,1639,6.5704,-1.84771
280,-615,7.10449,3.23438,0,0,0,0,0,0,0,-1,1504,1639,7.10447,-3.23435
287,-615,7.35779,4.68542,0,0,0,0,0,0,0,-1,1511,1639,7.35776,-4.68546
294,-615,7.63733,6.29114,0,0,0,0,0,0,0,-1,1518,1639,7.63735,-6.29109
301,-615,8.47925,11.452,0,0,0,0,0,0,0,-1,1525,1639,8.47922,-11.452
308,-615,6.8114,10.9059,0,0,0,0,0,0,0,-1,1532,1639,6.81137,-10.9058
315,-615,5.1427,14.7251,0,0,0,0,0,0,0,-1,1539,1639,5.14269,-14.7251
322,-615,7.8822,14.9136,0,0,0,0,0,0,0,-1,1546,1639,7.88221,-14.9135
329,-615,7.21948,17.4885,0,0,0,0,0,0,0,-1,1553,1639,7.21945,-17.4886
336,-615,6.45007,14.1138,0,0,0,0,0,0,0,-1,1560,1639,6.45011,-14.1138
343,-615,2.40491,6.50134,0,0,0,0,0,0,0,-1,1567,1639,2.40489,-6.50137
350,-615,6.4458,15.4594,0,0,0,0,0,0,0,-1,1574,1639,6.44578,-15.4593
357,-615,7.03674,17.2754,0,0,0,0,0,0,0,-1,1581,1639,7.03668,-17.2754
364,-615,7.43542,16.8483,0,0,0,0,0,0,0,-1,1588,1639,7.43548,-16.8483
371,-615,7.57483,16.694,8.04662e-05,-0.00343723,0.00379467,0.00250409,-0.00586085,0.568384,0.00495742,0.0409641,1595,1639,7.57485,-16.694
378,-615,7.49255,16.5063,-0.000502636,-0.00431298,0.00492155,0.00286963,-0.00768525,0.600726,0.00630173,0.0203184,1602,1639,7.49251,-16.5064
385,-615,7.48975,16.314,-0.00108552,-0.00493506,0.00550124,0.00281795,-0.00883853,0.617115,0.00702272,0.0112919,1609,1639,7.48975,-16.314
392,-615,7.48633,16.1321,-0.00133929,-0.0049179,0.00568834,0.00283453,-0.00909172,0.63302,0.00719458,0.00946427,1616,1639,7.48627,-16.1321
399,-615,7.4812,15.9659,-0.00143534,-0.00448304,0.00546162,0.00271103,-0.00862941,0.649352,0.00683816,0.0111807,1623,1639,7.48125,-15.966
406,-615,7.48486,15.7637,-0.00136044,-0.00408517,0.0049173,0.00237974,-0.00782534,0.65026,0.00616518,0.0110842,1630,1639,7.48483,-15.7637
413,-615,7.49841,15.5789,-0.00123269,-0.00376234,0.00445654,0.00213504,-0.00713007,0.647127,0.00560235,0.0118778,1637,1639,7.49842,-15.5788
420,-615,7.49744,15.387,-0.00099372,-0.0032952,0.00379585,0.00182198,-0.0061109,0.638223,0.00479799,0.0127926,1644,1639,7.49742,-15.3869
427,-615,7.49695,15.1787,-0.000725227,-0.00297161,0.00311251,0.00146055,-0.00515738,0.612238,0.00401466,0.0141753,1651,1639,7.49689,-15.1787
434,-615,7.49487,14.9729,-0.000471006,-0.00266335,0.00242997,0.00109859,-0.00423295,0.573511,0.00325065,0.0132279,1658,1639,7.49492,-14.9729
441,-615,7.51892,14.7493,-0.000153381,-0.00237037,0.00170102,0.000768457,-0.0032922,0.496627,0.00249079,0.0137081,1665,1639,7.51886,-14.7492
448,-615,7.50903,14.5536,0.00025283,-0.00200711,0.000962455,0.000607162,-0.00236144,0.352755,0.00181093,0.0144911,1672,1639,7.50903,-14.5536
455,-615,7.48853,14.3531,0.000536713,-0.00183461,0.000336487,0.000583535,-0.00188144,0.138263,0.00148746,0.0136343,1679,1639,7.48849,-14.3532
462,-615,7.49487,14.1508,0.000810001,-0.00171982,-0.000294384,0.000843805,-0.00175362,-0.114331,0.00152998,0.0143683,1686,1639,7.4949,-14.1507
469,-615,7.49609,13.9298,0.00121058,-0.00156347,-0.000897453,0.00147561,-0.00182849,-0.287144,0.00191124,0.01268,1693,1639,7.4961,-13.9298
476,-615,7.48083,13.7003,0.00164531,-0.00135494,-0.00141541,0.00220765,-0.00191728,-0.378176,0.0023835,0.0112694,1700,1639,7.48087,-13.7003
483,-615,7.4928,13.4589,0.00209718,-0.00110653,-0.00191379,0.00299103,-0.00200037,-0.436947,0.00290064,0.0154635,1707,1639,7.49281,-13.4589
490,-615,7.50452,13.2334,0.00239435,-0.000906583,-0.00236029,0.00362399,-0.00213622,-0.480283,0.00336243,0.0181309,1714,1639,7.50448,-13.2334
497,-615,7.48145,13.0522,0.00282339,-0.000473014,-0.00277376,0.00440168,-0.00205131,-0.517322,0.00380712,0.0279276,1721,1639,7.48141,-13.0522
504,-615,7.55591,12.8425,0.0034027,-0.000180399,-0.0031852,0.00526562,-0.00204332,-0.529219,0.00435437,0.0496831,1728,1639,7.55595,-12.8426
511,-615,7.46924,12.6035,0,0,0,0,0,0,0,-1,1735,1639,7.4692,-12.6035
518,-615,7.35779,10.4647,0,0,0,0,0,0,0,-1,1742,1639,7.35773,-10.4647
525,-615,4.37524,3.90491,0,0,0,0,0,0,0,-1,1749,1639,4.37518,-3.90495
532,-615,7.3645,0.848145,0,0,0,0,0,0,0,-1,1756,1639,7.36451,-0.848093
539,-615,12.8112,-0.0476074,0,0,0,0,0,0,0,-1,1763,1639,12.8111,0.0475553
546,-615,8.33813,2.94556,0,0,0,0,0,0,0,-1,1770,1639,8.33813,-2.9455
553,-615,5.82532,-2.04199,0,0,0,0,0,0,0,-1,1777,1639,5.82534,2.04195
560,-615,0,0,0,0,0,0,0,0,0,-1,1784,1639,0,0
567,-615,0,0,0,0,0,0,0,0,0,-1,1791,1639,0,0
574,-615,0,0,0,0,0,0,0,0,0,-1,1798,1639,0,0
581,-615,0,0,0,0,0,0,0,0,0,-1,1805,1639,0,0
588,-615,0,0,0,0,0,0,0,0,0,-1,1812,1639,0,0
595,-615,0,0,0,0,0,0,0,0,0,-1,1819,1639,0,0
602,-615,0,0,0,0,0,0,0,0,0,-1,1826,1639,0,0
609,-615,0,0,0,0,0,0,0,0,0,-1,1833,1639,0,0
616,-615,0,0,0,0,0,0,0,0,0,-1,1840,1639,0,0
623,-615,0,0,0,0,0,0,0,0,0,-1,1847,1639,0,0
630,-615,0,0,0,0,0,0,0,0,0,-1,1854,1639,0,0
637,-615,0,0,0,0,0,0,0,0,0,-1,1861,1639,0,0
644,-615,0,0,0,0,0,0,0,0,0,-1,1868,1639,0,0
651,-615,0,0,0,0,0,0,0,0,0,-1,1875,1639,0,0
658,-615,0,0,0,0,0,0,0,0,0,-1,1882,1639,0,0
665,-615,0,0,0,0,0,0,0,0,0,-1,1889,1639,0,0
672,-615,0,0,0,0,0,0,0,0,0,-1,1896,1639,0,0
679,-615,0,0,0,0,0,0,0,0,0,-1,1903,1639,0,0
686,-615,0,0,0,0,0,0,0,0,0,-1,1910,1639,0,0
693,-615,0,0,0,0,0,0,0,0,0,-1,1917,1639,0,0
700,-615,0,0,0,0,0,0,0,0,0,-1,1924,1639,0,0
707,-615,0,0,0,0,0,0,0,0,0,-1,1931,1639,0,0
714,-615,0,0,0,0,0,0,0,0,0,-1,1938,1639,0,0
721,-615,0,0,0,0,0,0,0,0,0,-1,1945,1639,0,0
728,-615,0,0,0,0,0,0,0,0,0,-1,1952,1639,0,0
735,-615,0,0,0,0,0,0,0,0,0,-1,1959,1639,0,0
742,-615,0,0,0,0,0,0,0,0,0,-1,1966,1639,0,0
749,-615,0,0,0,0,0,0,0,0,0,-1,1973,1639,0,0
756,-615,0,0,0,0,0,0,0,0,0,-1,1980,1639,0,0
763,-615,0,0,0,0,0,0,0,0,0,-1,1987,1639,0,0
770,-615,0,0,0,0,0,0,0,0,0,-1,1994,1639,0,0
777,-615,0,0,0,0,0,0,0,0,0,-1,2001,1639,0,0
784,-615,0,0,0,0,0,0,0,0,0,-1,2008,1639,0,0
791,-615,0,0,0,0,0,0,0,0,0,-1,2015,1639,0,0
798,-615,0,0,0,0,0,0,0,0,0,-1,2022,1639,0,0
805,-615,0,0,0,0,0,0,0,0,0,-1,2029,1639,0,0
812,-615,0,0,0,0,0,0,0,0,0,-1,2036,1639,0,0
-700,-622,0,0,0,0,0,0,0,0,0,-1,524,1646,0,0
-693,-622,0,0,0,0,0,0,0,0,0,-1,531,1646,0,0
-686,-622,0,0,0,0,0,0,0,0,0,-1,538,1646,0,0
-679,-622,0,0,0,0,0,0,0,0,0,-1,545,1646,0,0
-672,-622,0,0,0,0,0,0,0,0,0,-1,552,1646,0,0
-665,-622,0,0,0,0,0,0,0,0,0,-1,559,1646,0,0
-658,-622,0,0,0,0,0,0,0,0,0,-1,566,1646,0,0
-651,-622,0,0,0,0,0,0,0,0,0,-1,573,1646,0,0
-644,-622,0,0,0,0,0,0,0,0,0,-1,580,1646,0,0
-637,-622,0,0,0,0,0,0,0,0,0,-1,587,1646,0,0
-630,-622,0,0,0,0,0,0,0,0,0,-1,594,1646,0,0
-623,-622,0,0,0,0,0,0,0,0,0,-1,601,1646,0,0
-616,-622,0,0,0,0,0,0,0,0,0,-1,608,1646,0,0
-609,-622,0,0,0,0,0,0,0,0,0,-1,615,1646,0,0
-602,-622,0,0,0,0,0,0,0,0,0,-1,622,1646,0,0
-595,-622,0,0,0,0,0,0,0,0,0,-1,629,1646,0,0
-588,-622,0,0,0,0,0,0,0,0,0,-1,636,1646,0,0
-581,-622,0,0,0,0,0,0,0,0,0,-1,643,1646,0,0
-574,-622,0,0,0,0,0,0,0,0,0,-1,650,1646,0,0
-567,-622,0,0,0,0,0,0,0,0,0,-1,657,1646,0,0
-560,-622,0,0,0,0,0,0,0,0,0,-1,664,1646,0,0
-553,-622,0,0,0,0,0,0,0,0,0,-1,671,1646,0,0
-546,-622,0,0,0,0,0,0,0,0,0,-1,678,1646,0,0
-539,-622,0,0,0,0,0,0,0,0,0,-1,685,1646,0,0
-532,-622,0,0,0,0,0,0,0,0,0,-1,692,1646,0,0
-525,-622,0,0,0,0,0,0,0,0,0,-1,699,1646,0,0
-518,-622,0,0,0,0,0,0,0,0,0,-1,706,1646,0,0
-511,-622,0,0,0,0,0,0,0,0,0,-1,713,1646,0,0
-504,-622,0,0,0,0,0,0,0,0,0,-1,720,1646,0,0
-497,-622,0,0,0,0,0,0,0,0,0,-1,727,1646,0,0
-490,-622,0,0,0,0,0,0,0,0,0,-1,734,1646,0,0
-483,-622,0,0,0,0,0,0,0,0,0,-1,741,1646,0,0
-476,-622,0,0,0,0,0,0,0,0,0,-1,748,1646,0,0
-469,-622,0,0,0,0,0,0,0,0,0,-1,755,1646,0,0
-462,-622,0,0,0,0,0,0,0,0,0,-1,762,1646,0,0
-455,-622,0,0,0,0,0,0,0,0,0,-1,769,1646,0,0
-448,-622,0,0,0,0,0,0,0,0,0,-1,776,1646,0,0
-441,-622,0,0,0,0,0,0,0,0,0,-1,783,1646,0,0
-434,-622,0,0,0,0,0,0,0,0,0,-1,790,1646,0,0
-427,-622,-7.62891,3.48096,0,0,0,0,0,0,0,-1,797,1646,-7.62892,-3.48092
-420,-622,-9.35791,1.77185,0,0,0,0,0,0,0,-1,804,1646,-9.35789,-1.77183
-413,-622,-8.46075,1.96777,0,0,0,0,0,0,0,-1,811,1646,-8.46074,-1.96774
-406,-622,-4.44318,2.16858,0,0,0,0,0,0,0,-1,818,1646,-4.44315,-2.16859
-399,-622,-7.06976,1.51001,0,0,0,0,0,0,0,-1,825,1646,-7.06976,-1.51005
-392,-622,3.89551,5.85376,0,0,0,0,0,0,0,-1,832,1646,3.8955,-5.85379
-385,-622,1.9491,11.6946,0,0,0,0,0,0,0,-1,839,1646,1.94913,-11.6946
-378,-622,2.82385,12.1204,0,0,0,0,0,0,0,-1,846,1646,2.82383,-12.1204
-371,-622,2.83618,11.0962,0,0,0,0,0,0,0,-1,853,1646,2.83621,-11.0962
-364,-622,2.86224,11.6526,-0.00103447,-0.00344251,-0.000370803,-0.000978666,-0.00349831,-0.149377,0.00208405,0.0479999,860,1646,2.86224,-11.6526
-357,-622,2.87677,12.0854,-0.000496567,-0.0040551,0.000403145,-0.000451466,-0.0041002,0.111409,0.00259609,0.0456702,867,1646,2.87678,-12.0855
-350,-622,2.83691,12.5264,3.08722e-05,-0.00423791,0.000783641,0.000170183,-0.00437722,0.175935,0.00297649,0.0424916,874,1646,2.83694,-12.5264
-343,-622,2.71167,12.6808,0.000476328,-0.00426031,0.0009596,0.00066335,-0.00444733,0.192483,0.00320894,0.0279328,881,1646,2.71169,-12.6808
-336,-622,2.81793,12.8492,0.000800049,-0.00403919,0.000988293,0.000994102,-0.00423324,0.193885,0.00320533,0.0100061,888,1646,2.81793,-12.8493
-329,-622,2.81927,13.1146,0.00100525,-0.00379361,0.000932255,0.00117999,-0.00396835,0.185291,0.00311432,0.00890125,895,1646,2.81926,-13.1146
-322,-622,2.8092,13.3641,0.00114796,-0.00328265,0.000914153,0.00132917,-0.00346385,0.195683,0.00285727,0.0100104,902,1646,2.80923,-13.3641
-315,-622,2.81116,13.5682,0.00114478,-0.00313494,0.000668955,0.00124691,-0.00323707,0.151495,0.00267247,0.0131266,909,1646,2.81114,-13.5682
-308,-622,2.82257,13.7821,0.00105703,-0.00312135,0.000272442,0.00107472,-0.00313904,0.0648368,0.00252826,0.013474,916,1646,2.82256,-13.7821
-301,-622,2.82587,13.9962,0.00100238,-0.00297801,-0.00014817,0.00100789,-0.00298352,-0.0371565,0.00239669,0.0125985,923,1646,2.82589,-13.9963
-294,-622,2.79657,14.2374,0.000972194,-0.00273355,-0.000499421,0.00103832,-0.00279967,-0.131641,0.00229233,0.0100702,930,1646,2.79654,-14.2374
-287,-622,2.78534,14.4601,0.000885992,-0.00265199,-0.000825376,0.00106907,-0.00283507,-0.218278,0.00232966,0.00810965,937,1646,2.78533,-14.4601
-280,-622,2.78638,14.6632,0.000871613,-0.00276615,-0.00112763,0.0011928,-0.00308733,-0.277483,0.00255055,0.00838235,944,1646,2.78639,-14.6632
-273,-622,2.79291,14.8748,0.000958488,-0.00297732,-0.00140477,0.00140844,-0.00342727,-0.309977,0.00287185,0.0122462,951,1646,2.79289,-14.8748
-266,-622,2.77039,15.0983,0.00109397,-0.00342741,-0.00158916,0.00159664,-0.00393008,-0.306352,0.00328429,0.0127231,958,1646,2.77038,-15.0983
-259,-622,2.77563,15.317,0.00121524,-0.00393602,-0.00173833,0.00174697,-0.00446775,-0.296846,0.00370092,0.0115566,965,1646,2.77562,-15.317
-252,-622,2.80945,15.5063,0.0013876,-0.0049656,-0.00201947,0.00197518,-0.00555318,-0.28314,0.00450716,0.0107911,972,1646,2.80942,-15.5064
-245,-622,2.83582,15.7087,0.00169366,-0.00598148,-0.00214075,0.00225038,-0.0065382,-0.254421,0.00527154,0.00797093,979,1646,2.83584,-15.7088
-238,-622,2.83398,15.9143,0.00207613,-0.0071371,-0.00232787,0.0026309,-0.00769187,-0.233952,0.00619401,0.00891298,986,1646,2.83401,-15.9143
-231,-622,2.87958,16.1096,0.00248475,-0.00848042,-0.00268062,0.00310499,-0.00910066,-0.227378,0.00732486,0.0127416,993,1646,2.87957,-16.1097
-224,-622,2.98523,16.2473,0.00272172,-0.0105242,-0.0029822,0.00336217,-0.0111647,-0.211544,0.00878109,0.0236051,1000,1646,2.98523,-16.2473
-217,-622,3.047,16.2917,0.00267487,-0.012611,-0.00306282,0.00326573,-0.0132018,-0.190572,0.0100679,0.0388296,1007,1646,3.04698,-16.2917
-210,-622,2.97455,16.639,0,0,0,0,0,0,0,-1,1014,1646,2.97456,-16.6391
-203,-622,2.6192,16.4042,-0.00612494,-0.0179131,-5.382e-05,-0.00612469,-0.0179134,-0.00456546,0.0105132,0.0486068,1021,1646,2.61922,-16.4042
-196,-622,2.66711,16.4302,0,0,0,0,0,0,0,-1,1028,1646,2.66708,-16.4302
-189,-622,2.74316,16.3428,0,0,0,0,0,0,0,-1,1035,1646,2.74316,-16.3428
-182,-622,2.77087,16.2152,0,0,0,0,0,0,0,-1,1042,1646,2.77083,-16.2152
-175,-622,2.56091,11.0195,0,0,0,0,0,0,0,-1,1049,1646,2.56095,-11.0195
-168,-622,4.13916,16.1655,0,0,0,0,0,0,0,-1,1056,1646,4.13918,-16.1655
-161,-622,3.19019,16.6984,0,0,0,0,0,0,0,-1,1063,1646,3.19012,-16.6984
-154,-622,2.46167,17.6952,0,0,0,0,0,0,0,-1,1070,1646,2.46171,-17.6952
-147,-622,4.97607,17.6119,0,0,0,0,0,0,0,-1,1077,1646,4.97601,-17.6119
-140,-622,3.27515,16.0353,0,0,0,0,0,0,0,-1,1084,1646,3.27519,-16.0353
-133,-622,3.09644,17.677,0,0,0,0,0,0,0,-1,1091,1646,3.09638,-17.677
-126,-622,3.5061,19.5251,0,0,0,0,0,0,0,-1,1098,1646,3.50616,-19.5252
-119,-622,4.06384,13.1715,0,0,0,0,0,0,0,-1,1105,1646,4.06379,-13.1716
-112,-622,4.33276,14.6605,0,0,0,0,0,0,0,-1,1112,1646,4.33281,-14.6605
-105,-622,0.306519,4.38159,0,0,0,0,0,0,0,-1,1119,1646,0.306536,-4.38159
-98,-622,-0.510376,3.5033,0,0,0,0,0,0,0,-1,1126,1646,-0.510393,-3.50324
-91,-622,-1.146,0.975952,0,0,0,0,0,0,0,-1,1133,1646,-1.14599,-0.97597
-84,-622,-2.04895,1.31787,0,0,0,0,0,0,0,-1,1140,1646,-2.0489,-1.31781
-77,-622,-1.80627,0.332275,0,0,0,0,0,0,0,-1,1147,1646,-1.80622,-0.33223
-70,-622,-3.65588,2.28149,0,0,0,0,0,0,0,-1,1154,1646,-3.65589,-2.28155
-63,-622,-2.49683,1.27087,0,0,0,0,0,0,0,-1,1161,1646,-2.49679,-1.27093
-56,-622,-2.44238,-0.575562,0,0,0,0,0,0,0,-1,1168,1646,-2.44242,0.575508
-49,-622,-2.41089,1.38818,0,0,0,0,0,0,0,-1,1175,1646,-2.41088,-1.38815
-42,-622,-2.71497,2.85242,0,0,0,0,0,0,0,-1,1182,1646,-2.71491,-2.85247
-35,-622,-3.0177,4.25842,0,0,0,0,0,0,0,-1,1189,1646,-3.01773,-4.25838
-28,-622,-0.896606,0.678833,0,0,0,0,0,0,0,-1,1196,1646,-0.89661,-0.678835
-21,-622,6.63062,12.6195,0,0,0,0,0,0,0,-1,1203,1646,6.63065,-12.6195
-14,-622,3.42432,15.7729,0,0,0,0,0,0,0,-1,1210,1646,3.42434,-15.773
-7,-622,3.00623,16.5226,0,0,0,0,0,0,0,-1,1217,1646,3.00627,-16.5226
0,-622,0,0,0,0,0,0,0,0,0,-1,1224,1646,0,0
7,-622,0,0,0,0,0,0,0,0,0,-1,1231,1646,0,0
14,-622,0,0,0,0,0,0,0,0,0,-1,1238,1646,0,0
21,-622,0,0,0,0,0,0,0,0,0,-1,1245,1646,0,0
28,-622,0,0,0,0,0,0,0,0,0,-1,1252,1646,0,0
35,-622,0,0,0,0,0,0,0,0,0,-1,1259,1646,0,0
42,-622,0,0,0,0,0,0,0,0,0,-1,1266,1646,0,0
49,-622,0,0,0,0,0,0,0,0,0,-1,1273,1646,0,0
56,-622,0,0,0,0,0,0,0,0,0,-1,1280,1646,0,0
63,-622,0,0,0,0,0,0,0,0,0,-1,1287,1646,0,0
70,-622,0,0,0,0,0,0,0,0,0,-1,1294,1646,0,0
77,-622,0,0,0,0,0,0,0,0,0,-1,1301,1646,0,0
84,-622,0,0,0,0,0,0,0,0,0,-1,1308,1646,0,0
91,-622,0,0,0,0,0,0,0,0,0,-1,1315,1646,0,0
98,-622,0,0,0,0,0,0,0,0,0,-1,1322,1646,0,0
105,-622,0,0,0,0,0,0,0,0,0,-1,1329,1646,0,0
112,-622,0,0,0,0,0,0,0,0,0,-1,1336,1646,0,0
119,-622,0,0,0,0,0,0,0,0,0,-1,1343,1646,0,0
126,-622,15.8231,21.955,0,0,0,0,0,0,0,-1,1350,1646,15.8231,-21.955
133,-622,12.8055,22.0166,0,0,0,0,0,0,0,-1,1357,1646,12.8055,-22.0166
140,-622,10.8492,22.4231,-0.300364,0.0679305,0.060301,0.0775523,-0.309986,1.41257,0.23678,0.0494782,1364,1646,10.8493,-22.423
147,-622,8.92517,22.8774,-0.297806,0.0666627,0.0698138,0.0795779,-0.310721,1.38787,0.238147,0.0465707,1371,1646,8.9252,-22.8774
154,-622,6.99963,23.298,0,0,0,0,0,0,0,-1,1378,1646,6.99967,-23.298
161,-622,10.6884,6.46448,0,0,0,0,0,0,0,-1,1385,1646,10.6883,-6.46442
168,-622,12.2402,5.18091,0,0,0,0,0,0,0,-1,1392,1646,12.2403,-5.1809
175,-622,5.64355,-1.77075,0,0,0,0,0,0,0,-1,1399,1646,5.64351,1.77077
182,-622,5.88586,-1.32251,0,0,0,0,0,0,0,-1,1406,1646,5.88587,1.32256
189,-622,5.97986,-1.18005,0,0,0,0,0,0,0,-1,1413,1646,5.97986,1.18003
196,-622,5.85022,-0.244507,0,0,0,0,0,0,0,-1,1420,1646,5.85026,0.244478
203,-622,5.25159,0.138794,0,0,0,0,0,0,0,-1,1427,1646,5.25162,-0.138822
210,-622,6.66833,0.0397949,0,0,0,0,0,0,0,-1,1434,1646,6.6684,-0.0398278
217,-622,6.12061,0.0506592,0,0,0,0,0,0,0,-1,1441,1646,6.12058,-0.0507181
224,-622,5.57275,0.0616455,0,0,0,0,0,0,0,-1,1448,1646,5.57276,-0.0616084
231,-622,5.31348,1.3949,0,0,0,0,0,0,0,-1,1455,1646,5.31342,-1.39495
238,-622,3.76477,2.90686,0,0,0,0,0,0,0,-1,1462,1646,3.7648,-2.90686
245,-622,5.13794,2.67993,0,0,0,0,0,0,0,-1,1469,1646,5.13796,-2.67992
252,-622,6.66528,2.53992,0,0,0,0,0,0,0,-1,1476,1646,6.66522,-2.53991
259,-622,8.93787,3.31458,0,0,0,0,0,0,0,-1,1483,1646,8.93791,-3.31454
266,-622,5.72644,3.11926,0,0,0,0,0,0,0,-1,1490,1646,5.72647,-3.1192
273,-622,7.28076,3.61218,0,0,0,0,0,0,0,-1,1497,1646,7.28071,-3.61212
280,-622,8.43127,4.4447,0,0,0,0,0,0,0,-1,1504,1646,8.43123,-4.44467
287,-622,8.60315,5.94617,0,0,0,0,0,0,0,-1,1511,1646,8.60319,-5.94622
294,-622,7.62756,11.5143,0,0,0,0,0,0,0,-1,1518,1646,7.62762,-11.5143
301,-622,7.36548,11.6569,0,0,0,0,0,0,0,-1,1525,1646,7.36549,-11.6569
308,-622,7.10339,11.7994,0,0,0,0,0,0,0,-1,1532,1646,7.10335,-11.7995
315,-622,6.18176,16.4979,0,0,0,0,0,0,0,-1,1539,1646,6.18176,-16.4979
322,-622,7.00256,18.106,0,0,0,0,0,0,0,-1,1546,1646,7.0026,-18.1059
329,-622,6.89734,17.8845,0,0,0,0,0,0,0,-1,1553,1646,6.89735,-17.8845
336,-622,6.81421,17.7074,0,0,0,0,0,0,0,-1,1560,1646,6.81422,-17.7074
343,-622,6.82288,16.9862,0,0,0,0,0,0,0,-1,1567,1646,6.82287,-16.9862
350,-622,7.15515,17.4651,0,0,0,0,0,0,0,-1,1574,1646,7.15517,-17.465
357,-622,7.09473,17.1564,0.00196641,-0.000378029,0.000228294,0.00198843,-0.000400053,0.0961731,0.00147714,0.0435937,1581,1646,7.09468,-17.1563
364,-622,7.25977,16.8217,0.000947528,-0.00136784,0.00141322,0.00161671,-0.00203702,0.442235,0.00211413,0.0326241,1588,1646,7.25977,-16.8216
371,-622,7.33704,16.6561,0.000382237,-0.00205059,0.00239844,0.00185509,-0.00352344,0.550715,0.0031547,0.0171487,1595,1646,7.33698,-16.6561
378,-622,7.28259,16.5013,-0.000110483,-0.00278684,0.00326151,0.0020767,-0.00497402,0.590724,0.00418373,0.00989087,1602,1646,7.28261,-16.5014
385,-622,7.26978,16.3282,-0.000538626,-0.00327235,0.00370834,0.00204674,-0.00585771,0.608828,0.00473714,0.00885917,1609,1646,7.26982,-16.3283
392,-622,7.26062,16.1555,-0.000722586,-0.00333047,0.00383718,0.00202616,-0.00607921,0.621611,0.00487075,0.0105402,1616,1646,7.26056,-16.1555
399,-622,7.25281,15.9733,-0.000796934,-0.00300579,0.00365655,0.00191834,-0.00572107,0.638734,0.00458915,0.0115805,1623,1646,7.25279,-15.9732
406,-622,7.27393,15.7565,-0.000730252,-0.0027644,0.00324866,0.00165683,-0.00515148,0.633694,0.00409975,0.0145096,1630,1646,7.27393,-15.7565
413,-622,7.30518,15.5431,-0.000560748,-0.00261438,0.00289315,0.0014824,-0.00465753,0.614876,0.00369951,0.0156052,1637,1646,7.30515,-15.543
420,-622,7.29553,15.3893,-0.000291605,-0.00237901,0.00236184,0.00124687,-0.00391748,0.577349,0.00311169,0.0153953,1644,1646,7.29556,-15.3893
427,-622,7.29346,15.1825,-4.97392e-05,-0.00229447,0.00184344,0.00098613,-0.00333034,0.51195,0.00261175,0.0122243,1651,1646,7.29344,-15.1825
434,-622,7.29993,14.9706,0.000183957,-0.00222194,0.00133132,0.000775302,-0.00281328,0.418004,0.0021804,0.0125529,1658,1646,7.29988,-14.9706
441,-622,7.31421,14.7528,0.000486909,-0.00216695,0.000762756,0.000690515,-0.00237056,0.260852,0.00185391,0.0140108,1665,1646,7.31417,-14.7528
448,-622,7.27698,14.562,0.000825315,-0.00204819,0.000205604,0.000839952,-0.00206282,0.0710693,0.00172478,0.0134295,1672,1646,7.27698,-14.562
455,-622,7.24182,14.3335,0.00109715,-0.00215978,-0.000271292,0.00111959,-0.00218222,-0.0825391,0.00193893,0.0159382,1679,1646,7.24187,-14.3334
462,-622,7.27258,14.141,0.00135919,-0.00231728,-0.000751351,0.00150681,-0.0024649,-0.194007,0.0023152,0.0181399,1686,1646,7.27263,-14.1411
469,-622,7.28503,13.9297,0.00173963,-0.00237674,-0.00124449,0.00208662,-0.00272373,-0.271917,0.00278537,0.0187444,1693,1646,7.28506,-13.9297
476,-622,7.29895,13.704,0.0022053,-0.0022935,-0.00167017,0.00275755,-0.00284575,-0.31934,0.0032352,0.0177349,1700,1646,7.29891,-13.704
483,-622,7.29053,13.476,0.00271466,-0.00213271,-0.00214262,0.00352595,-0.002944,-0.361962,0.00374046,0.0245163,1707,1646,7.29059,-13.476
490,-622,7.30273,13.2323,0.00303185,-0.00201132,-0.0026332,0.00415611,-0.00313557,-0.403524,0.00422358,0.0319679,1714,1646,7.30278,-13.2323
497,-622,7.31995,12.817,0.00355498,-0.0014089,-0.00314281,0.0050777,-0.00293162,-0.451178,0.00467919,0.0438481,1721,1646,7.31999,-12.817
504,-622,7.34888,12.4176,0,0,0,0,0,0,0,-1,1728,1646,7.34893,-12.4176
511,-622,5.29004,4.14587,0,0,0,0,0,0,0,-1,1735,1646,5.29008,-4.14589
518,-622,5.6001,1.55359,0,0,0,0,0,0,0,-1,1742,1646,5.60015,-1.5536
525,-622,5.83093,2.01807,0,0,0,0,0,0,0,-1,1749,1646,5.83097,-2.01802
532,-622,5.44202,0.57373,0,0,0,0,0,0,0,-1,1756,1646,5.44196,-0.573705
539,-622,9.32129,1.06116,0,0,0,0,0,0,0,-1,1763,1646,9.32131,-1.0612
546,-622,6.50977,-3.45618,0,0,0,0,0,0,0,-1,1770,1646,6.50981,3.4562
553,-622,0,0,0,0,0,0,0,0,0,-1,1777,1646,0,0
560,-622,0,0,0,0,0,0,0,0,0,-1,1784,1646,0,0
567,-622,0,0,0,0,0,0,0,0,0,-1,1791,1646,0,0
574,-622,0,0,0,0,0,0,0,0,0,-1,1798,1646,0,0
581,-622,0,0,0,0,0,0,0,0,0,-1,1805,1646,0,0
588,-622,0,0,0,0,0,0,0,0,0,-1,1812,1646,0,0
595,-622,0,0,0,0,0,0,0,0,0,-1,1819,1646,0,0
602,-622,0,0,0,0,0,0,0,0,0,-1,1826,1646,0,0
609,-622,0,0,0,0,0,0,0,0,0,-1,1833,1646,0,0
616,-622,0,0,0,0,0,0,0,0,0,-1,1840,1646,0,0
623,-622,0,0,0,0,0,0,0,0,0,-1,1847,1646,0,0
630,-622,0,0,0,0,0,0,0,0,0,-1,1854,1646,0,0
637,-622,0,0,0,0,0,0,0,0,0,-1,1861,1646,0,0
644,-622,0,0,0,0,0,0,0,0,0,-1,1868,1646,0,0
651,-622,0,0,0,0,0,0,0,0,0,-1,1875,1646,0,0
658,-622,0,0,0,0,0,0,0,0,0,-1,1882,1646,0,0
665,-622,0,0,0,0,0,0,0,0,0,-1,1889,1646,0,0
672,-622,0,0,0,0,0,0,0,0,0,-1,1896,1646,0,0
679,-622,0,0,0,0,0,0,0,0,0,-1,1903,1646,0,0
686,-622,0,0,0,0,0,0,0,0,0,-1,1910,1646,0,0
693,-622,0,0,0,0,0,0,0,0,0,-1,1917,1646,0,0
700,-622,0,0,0,0,0,0,0,0,0,-1,1924,1646,0,0
707,-622,0,0,0,0,0,0,0,0,0,-1,1931,1646,0,0
714,-622,0,0,0,0,0,0,0,0,0,-1,1938,1646,0,0
721,-622,0,0,0,0,0,0,0,0,0,-1,1945,1646,0,0
728,-622,0,0,0,0,0,0,0,0,0,-1,1952,1646,0,0
735,-622,0,0,0,0,0,0,0,0,0,-1,1959,1646,0,0
742,-622,0,0,0,0,0,0,0,0,0,-1,1966,1646,0,0
749,-622,0,0,0,0,0,0,0,0,0,-1,1973,1646,0,0
756,-622,0,0,0,0,0,0,0,0,0,-1,1980,1646,0,0
763,-622,0,0,0,0,0,0,0,0,0,-1,1987,1646,0,0
770,-622,0,0,0,0,0,0,0,0,0,-1,1994,1646,0,0
777,-622,0,0,0,0,0,0,0,0,0,-1,2001,1646,0,0
784,-622,0,0,0,0,0,0,0,0,0,-1,2008,1646,0,0
791,-622,0,0,0,0,0,0,0,0,0,-1,2015,1646,0,0
798,-622,0,0,0,0,0,0,0,0,0,-1,2022,1646,0,0
805,-622,0,0,0,0,0,0,0,0,0,-1,2029,1646,0,0
812,-622,0,0,0,0,0,0,0,0,0,-1,2036,1646,0,0
-700,-629,0,0,0,0,0,0,0,0,0,-1,524,1653,0,0
-693,-629,0,0,0,0,0,0,0,0,0,-1,531,1653,0,0
-686,-629,0,0,0,0,0,0,0,0,0,-1,538,1653,0,0
-679,-629,0,0,0,0,0,0,0,0,0,-1,545,1653,0,0
-672,-629,0,0,0,0,0,0,0,0,0,-1,552,1653,0,0
-665,-629,0,0,0,0,0,0,0,0,0,-1,559,1653,0,0
-658,-629,0,0,0,0,0,0,0,0,0,-1,566,1653,0,0
-651,-629,0,0,0,0,0,0,0,0,0,-1,573,1653,0,0
-644,-629,0,0,0,0,0,0,0,0,0,-1,580,1653,0,0
-637,-629,0,0,0,0,0,0,0,0,0,-1,587,1653,0,0
-630,-629,0,0,0,0,0,0,0,0,0,-1,594,1653,0,0
-623,-629,0,0,0,0,0,0,0,0,0,-1,601,1653,0,0
-616,-629,0,0,0,0,0,0,0,0,0,-1,608,1653,0,0
-609,-629,0,0,0,0,0,0,0,0,0,-1,615,1653,0,0
-602,-629,0,0,0,0,0,0,0,0,0,-1,622,1653,0,0
-595,-629,0,0,0,0,0,0,0,0,0,-1,629,1653,0,0
-588,-629,0,0,0,0,0,0,0,0,0,-1,636,1653,0,0
-581,-629,0,0,0,0,0,0,0,0,0,-1,643,1653,0,0
-574,-629,0,0,0,0,0,0,0,0,0,-1,650,1653,0,0
-567,-629,0,0,0,0,0,0,0,0,0,-1,657,1653,0,0
-560,-629,0,0,0,0,0,0,0,0,0,-1,664,1653,0,0
-553,-629,0,0,0,0,0,0,0,0,0,-1,671,1653,0,0
-546,-629,0,0,0,0,0,0,0,0,0,-1,678,1653,0,0
-539,-629,0,0,0,0,0,0,0,0,0,-1,685,1653,0,0
-532,-629,0,0,0,0,0,0,0,0,0,-1,692,1653,0,0
-525,-629,0,0,0,0,0,0,0,0,0,-1,699,1653,0,0
-518,-629,0,0,0,0,0,0,0,0,0,-1,706,1653,0,0
-511,-629,0,0,0,0,0,0,0,0,0,-1,713,1653,0,0
-504,-629,0,0,0,0,0,0,0,0,0,-1,720,1653,0,0
-497,-629,0,0,0,0,0,0,0,0,0,-1,727,1653,0,0
-490,-629,0,0,0,0,0,0,0,0,0,-1,734,1653,0,0
-483,-629,0,0,0,0,0,0,0,0,0,-1,741,1653,0,0
-476,-629,0,0,0,0,0,0,0,0,0,-1,748,1653,0,0
-469,-629,0,0,0,0,0,0,0,0,0,-1,755,1653,0,0
-462,-629,0,0,0,0,0,0,0,0,0,-1,762,1653,0,0
-455,-629,0,0,0,0,0,0,0,0,0,-1,769,1653,0,0
-448,-629,0,0,0,0,0,0,0,0,0,-1,776,1653,0,0
-441,-629,0,0,0,0,0,0,0,0,0,-1,783,1653,0,0
-434,-629,0,0,0,0,0,0,0,0,0,-1,790,1653,0,0
-427,-629,0,0,0,0,0,0,0,0,0,-1,797,1653,0,0
-420,-629,-3.87103,3.37634,0,0,0,0,0,0,0,-1,804,1653,-3.87101,-3.37633
-413,-629,-5.69751,1.33582,0,0,0,0,0,0,0,-1,811,1653,-5.69754,-1.3358
-406,-629,2.85406,6.01501,0,0,0,0,0,0,0,-1,818,1653,2.85405,-6.01507
-399,-629,-0.455627,10.8687,0,0,0,0,0,0,0,-1,825,1653,-0.455625,-10.8687
-392,-629,1.15369,11.1295,0,0,0,0,0,0,0,-1,832,1653,1.1537,-11.1295
-385,-629,1.81976,11.6935,0,0,0,0,0,0,0,-1,839,1653,1.81975,-11.6935
-378,-629,3.08685,12.4915,0,0,0,0,0,0,0,-1,846,1653,3.08683,-12.4914
-371,-629,3.04999,12.7152,0,0,0,0,0,0,0,-1,853,1653,3.04997,-12.7152
-364,-629,3.08575,11.5623,0,0,0,0,0,0,0,-1,860,1653,3.08574,-11.5623
-357,-629,3.03369,11.9539,0,0,0,0,0,0,0,-1,867,1653,3.03366,-11.9539
-350,-629,3.10162,12.6328,0,0,0,0,0,0,0,-1,874,1653,3.10164,-12.6328
-343,-629,2.92029,12.8442,0.000840814,-0.00618198,0.00155217,0.00116858,-0.00650974,0.208106,0.00477724,0.0439554,881,1653,2.92032,-12.8442
-336,-629,3.01813,12.8501,0.00119052,-0.00584545,0.00153837,0.00151217,-0.0061671,0.206116,0.0046973,0.0184059,888,1653,3.01815,-12.8501
-329,-629,3.05042,13.1133,0.00136549,-0.00536002,0.00143273,0.00165798,-0.00565251,0.201383,0.00442576,0.0109612,895,1653,3.05043,-13.1133
-322,-629,3.05011,13.3489,0.00147071,-0.00450331,0.0013845,0.00177597,-0.00480857,0.217014,0.00393369,0.0115011,902,1653,3.05009,-13.3489
-315,-629,3.02533,13.5634,0.00139689,-0.00402943,0.00109829,0.00161075,-0.00424329,0.192319,0.00349189,0.0149874,909,1653,3.02536,-13.5634
-308,-629,3.01721,13.7843,0.00124564,-0.00367192,0.000666639,0.00133441,-0.00376069,0.13238,0.00305081,0.0121103,916,1653,3.01723,-13.7843
-301,-629,3.0249,14.0282,0.00113786,-0.0031592,0.000222411,0.00114934,-0.00317068,0.0515752,0.00258357,0.0107024,923,1653,3.02492,-14.0282
-294,-629,3.0166,14.2587,0.00105936,-0.00257473,-0.000142417,0.00106493,-0.0025803,-0.0391092,0.00216435,0.0118906,930,1653,3.01661,-14.2587
-287,-629,3.0014,14.4717,0.000920589,-0.00216524,-0.00045418,0.000986048,-0.0022307,-0.14314,0.00190296,0.00936078,937,1653,3.0014,-14.4716
-280,-629,2.99847,14.6813,0.000847032,-0.00200978,-0.00073147,0.00102343,-0.00218618,-0.236635,0.00189317,0.00913308,944,1653,2.99845,-14.6812
-273,-629,3.01556,14.8778,0.000889312,-0.00198668,-0.00096473,0.00118294,-0.00228031,-0.295459,0.00203269,0.0129364,951,1653,3.01554,-14.8778
-266,-629,3.00623,15.0959,0.00100492,-0.00222795,-0.00109386,0.00134025,-0.00256328,-0.297463,0.00229028,0.0133156,958,1653,3.0062,-15.096
-259,-629,2.99152,15.3191,0.00110054,-0.00252621,-0.00121136,0.00146793,-0.00289359,-0.294467,0.00256257,0.0132636,965,1653,2.9915,-15.3191
-252,-629,3.00916,15.5176,0.00124249,-0.00329298,-0.00140824,0.00164416,-0.00369466,-0.277855,0.00315724,0.0099624,972,1653,3.00917,-15.5175
-245,-629,3.0235,15.7228,0.00151488,-0.00411495,-0.00144062,0.0018621,-0.00446217,-0.236514,0.00375278,0.00755027,979,1653,3.02351,-15.7228
-238,-629,3.02863,15.9248,0.00184337,-0.0050757,-0.00152943,0.00216637,-0.00539869,-0.208128,0.00449862,0.00959184,986,1653,3.02861,-15.9248
-231,-629,3.02197,16.127,0.00220568,-0.00617919,-0.00176272,0.00256117,-0.00653469,-0.199006,0.00541595,0.00995385,993,1653,3.02197,-16.1269
-224,-629,3.08618,16.3298,0.00242555,-0.0077786,-0.00200832,0.00280659,-0.00815963,-0.187501,0.00657799,0.0105918,1000,1653,3.08621,-16.3299
-217,-629,3.07764,16.4711,0.00235684,-0.00945192,-0.00214617,0.00273479,-0.00982987,-0.17432,0.00763001,0.0181393,1007,1653,3.07765,-16.471
-210,-629,3.03998,16.6295,-0.000578534,-0.0119106,-0.00114587,-0.000463828,-0.0120253,-0.0997723,0.00786679,0.0374597,1014,1653,3.03999,-16.6295
-203,-629,2.86615,16.6985,-0.00384999,-0.0133687,-0.000249599,-0.00384345,-0.0133753,-0.0261979,0.00795159,0.0491466,1021,1653,2.86615,-16.6985
-196,-629,2.94763,16.8007,0,0,0,0,0,0,0,-1,1028,1653,2.9476,-16.8007
-189,-629,3.5271,16.7987,0,0,0,0,0,0,0,-1,1035,1653,3.52715,-16.7986
-182,-629,3.27698,17.2073,0,0,0,0,0,0,0,-1,1042,1653,3.27694,-17.2073
-175,-629,3.31458,16.9662,0,0,0,0,0,0,0,-1,1049,1653,3.31462,-16.9662
-168,-629,3.43799,16.7866,0,0,0,0,0,0,0,-1,1056,1653,3.43799,-16.7866
-161,-629,3.40247,17.4878,-0.0342713,-0.0247749,0.00905227,-0.0193011,-0.0397451,1.02694,0.02295,0.0475268,1063,1653,3.40247,-17.4878
-154,-629,2.67957,18.0959,-0.0390893,-0.0256673,0.0108652,-0.0196076,-0.045149,1.06205,0.0261417,0.0433794,1070,1653,2.67962,-18.0959
-147,-629,2.20544,18.7795,0,0,0,0,0,0,0,-1,1077,1653,2.20544,-18.7796
-140,-629,5.14111,18.0175,0,0,0,0,0,0,0,-1,1084,1653,5.14112,-18.0175
-133,-629,3.41248,17.6686,0,0,0,0,0,0,0,-1,1091,1653,3.41243,-17.6686
-126,-629,4.01025,19.5328,0,0,0,0,0,0,0,-1,1098,1653,4.01022,-19.5328
-119,-629,4.94177,13.5525,0,0,0,0,0,0,0,-1,1105,1653,4.94172,-13.5525
-112,-629,5.63123,15.9187,0,0,0,0,0,0,0,-1,1112,1653,5.63118,-15.9187
-105,-629,2.15881,4.38342,0,0,0,0,0,0,0,-1,1119,1653,2.15878,-4.38347
-98,-629,0.825806,4.19385,0,0,0,0,0,0,0,-1,1126,1653,0.825779,-4.1939
-91,-629,-0.452271,3.64465,0,0,0,0,0,0,0,-1,1133,1653,-0.452278,-3.6446
-84,-629,-2.6084,0.466797,0,0,0,0,0,0,0,-1,1140,1653,-2.6084,-0.466786
-77,-629,-3.50903,2.10706,0,0,0,0,0,0,0,-1,1147,1653,-3.509,-2.10707
-70,-629,-1.20886,2.52502,0,0,0,0,0,0,0,-1,1154,1653,-1.20886,-2.525
-63,-629,-0.960693,4.30212,0,0,0,0,0,0,0,-1,1161,1653,-0.960691,-4.30215
-56,-629,-1.31934,5.64343,0,0,0,0,0,0,0,-1,1168,1653,-1.31928,-5.6434
-49,-629,-2.15662,2.57458,0,0,0,0,0,0,0,-1,1175,1653,-2.15656,-2.57459
-42,-629,-2.46326,3.91467,0,0,0,0,0,0,0,-1,1182,1653,-2.4633,-3.91466
-35,-629,-2.67261,5.24292,0,0,0,0,0,0,0,-1,1189,1653,-2.67257,-5.24298
-28,-629,-0.402954,-0.866577,0,0,0,0,0,0,0,-1,1196,1653,-0.402943,0.866612
-21,-629,10.063,9.59705,0,0,0,0,0,0,0,-1,1203,1653,10.063,-9.59708
-14,-629,3.02197,15.7867,0,0,0,0,0,0,0,-1,1210,1653,3.02195,-15.7868
-7,-629,2.62158,16.5088,-0.111563,-0.136527,-0.0258866,-0.0953063,-0.152784,-0.560749,0.0891066,0.0482834,1217,1653,2.62153,-16.5087
0,-629,2.59094,17.1808,0,0,0,0,0,0,0,-1,1224,1653,2.59099,-17.1808
7,-629,2.60156,18.0848,-0.0908841,-0.066857,0.00849411,-0.0641574,-0.0935837,1.26308,0.0552569,0.0485432,1231,1653,2.60154,-18.0848
14,-629,1.90149,19.0616,-0.0758645,-0.0445658,0.0154447,-0.0382279,-0.0822024,1.18139,0.0474982,0.0441539,1238,1653,1.90148,-19.0617
21,-629,1.31482,19.8204,-0.0588621,-0.0245314,0.019333,-0.015843,-0.0675505,1.14844,0.0407914,0.0463274,1245,1653,1.31479,-19.8205
28,-629,0.952759,20.8401,0,0,0,0,0,0,0,-1,1252,1653,0.952804,-20.8401
35,-629,0.985229,21.5325,0,0,0,0,0,0,0,-1,1259,1653,0.985231,-21.5324
42,-629,1.27112,22.2863,0,0,0,0,0,0,0,-1,1266,1653,1.27116,-22.2863
49,-629,1.45471,22.7869,-0.0311483,0.0320668,0.0433649,0.0541207,-0.0532022,1.10032,0.0619637,0.0442798,1273,1653,1.45468,-22.7869
56,-629,1.90881,22.9315,-0.0293155,0.0372988,0.0485558,0.0628731,-0.0548899,1.08602,0.0680426,0.0462893,1280,1653,1.90879,-22.9315
63,-629,2.28284,22.9287,-0.0305623,0.0409526,0.0520744,0.0683643,-0.057974,1.08626,0.0730236,0.0469954,1287,1653,2.28287,-22.9287
70,-629,2.53394,22.8468,0,0,0,0,0,0,0,-1,1294,1653,2.53392,-22.8468
77,-629,9.73047,20.5721,0,0,0,0,0,0,0,-1,1301,1653,9.73048,-20.5722
84,-629,7.63647,20.5535,-0.0904829,0.058294,0.0662888,0.0835442,-0.115733,1.20685,0.115552,0.0431476,1308,1653,7.63651,-20.5534
91,-629,6.65723,23.8407,-0.115252,0.0628606,0.0680827,0.0859037,-0.138296,1.24444,0.130614,0.0437274,1315,1653,6.65719,-23.8407
98,-629,5.5636,24.0465,-0.139948,0.0657169,0.0671598,0.0857052,-0.159937,1.28152,0.143964,0.0457752,1322,1653,5.56354,-24.0465
105,-629,4.58276,24.2233,0,0,0,0,0,0,0,-1,1329,1653,4.58281,-24.2233
112,-629,19.8191,21.5487,0,0,0,0,0,0,0,-1,1336,1653,19.8191,-21.5487
119,-629,17.5153,21.7814,-0.209707,0.0703284,0.0653572,0.0848309,-0.22421,1.35244,0.184374,0.043636,1343,1653,17.5152,-21.7813
126,-629,15.2219,22.0339,-0.217654,0.0672187,0.0611702,0.0797981,-0.230234,1.36798,0.185888,0.0429124,1350,1653,15.2219,-22.034
133,-629,12.6058,22.0967,-0.223332,0.0646432,0.0600324,0.0766566,-0.235346,1.37329,0.18774,0.0493605,1357,1653,12.6058,-22.0967
140,-629,10.391,22.3313,-0.226866,0.0622997,0.062658,0.075293,-0.239859,1.36633,0.190042,0.0464404,1364,1653,10.391,-22.3313
147,-629,8.37903,22.6189,-0.21941,0.0645469,0.0787534,0.0849259,-0.239789,1.31758,0.194452,0.0461067,1371,1653,8.37908,-22.6189
154,-629,6.427,22.8802,0,0,0,0,0,0,0,-1,1378,1653,6.427,-22.8803
161,-629,10.5461,6.83752,0,0,0,0,0,0,0,-1,1385,1653,10.5461,-6.83758
168,-629,12.0059,5.56348,0,0,0,0,0,0,0,-1,1392,1653,12.0059,-5.56352
175,-629,5.84485,-1.78845,0,0,0,0,0,0,0,-1,1399,1653,5.84479,1.7884
182,-629,5.99036,-1.27783,0,0,0,0,0,0,0,-1,1406,1653,5.99041,1.27778
189,-629,5.97668,-0.748535,0,0,0,0,0,0,0,-1,1413,1653,5.97671,0.748544
196,-629,4.52869,9.24695,0,0,0,0,0,0,0,-1,1420,1653,4.52869,-9.2469
203,-629,3.75085,6.88037,0,0,0,0,0,0,0,-1,1427,1653,3.75087,-6.88032
210,-629,3.5907,6.52637,0,0,0,0,0,0,0,-1,1434,1653,3.59067,-6.52642
217,-629,2.4585,4.84448,0,0,0,0,0,0,0,-1,1441,1653,2.45855,-4.84448
224,-629,1.31982,3.68481,0,0,0,0,0,0,0,-1,1448,1653,1.31986,-3.68487
231,-629,3.63025,1.73499,0,0,0,0,0,0,0,-1,1455,1653,3.6303,-1.735
238,-629,4.26428,2.11255,0,0,0,0,0,0,0,-1,1462,1653,4.26429,-2.11253
245,-629,5.61816,1.95361,0,0,0,0,0,0,0,-1,1469,1653,5.61815,-1.95359
252,-629,7.27136,2.18982,0,0,0,0,0,0,0,-1,1476,1653,7.27131,-2.18985
259,-629,8.67334,2.18628,0,0,0,0,0,0,0,-1,1483,1653,8.6733,-2.18633
266,-629,6.86475,3.72058,0,0,0,0,0,0,0,-1,1490,1653,6.86479,-3.72063
273,-629,7.9021,3.8717,0,0,0,0,0,0,0,-1,1497,1653,7.90205,-3.87171
280,-629,9.70837,4.39087,0,0,0,0,0,0,0,-1,1504,1653,9.7084,-4.39082
287,-629,9.82947,7.19348,0,0,0,0,0,0,0,-1,1511,1653,9.8295,-7.19347
294,-629,6.56555,11.6359,0,0,0,0,0,0,0,-1,1518,1653,6.5656,-11.6358
301,-629,6.93835,15.6102,0,0,0,0,0,0,0,-1,1525,1653,6.93835,-15.6103
308,-629,6.08264,12.1423,0,0,0,0,0,0,0,-1,1532,1653,6.08263,-12.1423
315,-629,6.82043,18.2764,0,0,0,0,0,0,0,-1,1539,1653,6.82049,-18.2764
322,-629,6.90894,18.0031,0.00848503,0.00535878,-0.00601821,0.0131398,0.000704016,-0.65834,0.00853488,0.0476087,1546,1653,6.90898,-18.0031
329,-629,6.87646,17.7416,0.00692036,0.00459115,-0.00493688,0.0108281,0.000683372,-0.669567,0.00700209,0.0384174,1553,1653,6.87648,-17.7416
336,-629,6.84607,17.5702,0.00568312,0.00369713,-0.00386766,0.00868323,0.000697025,-0.659741,0.00557103,0.0413561,1560,1653,6.84602,-17.5702
343,-629,6.85632,17.1636,0.00397317,0.00240551,-0.00243957,0.00575174,0.000626937,-0.629958,0.00364354,0.043396,1567,1653,6.85629,-17.1635
350,-629,7.10352,17.1411,0.00297762,0.00114919,-0.00134962,0.00369351,0.000433299,-0.487704,0.00233137,0.0267089,1574,1653,7.10349,-17.1412
357,-629,7.10669,16.9852,0.00196472,2.04141e-05,-6.47224e-05,0.00196687,1.8262e-05,-0.0332392,0.0013052,0.015453,1581,1653,7.10669,-16.9852
364,-629,7.0874,16.8083,0.001101,-0.000673683,0.000761922,0.00138323,-0.000955914,0.354749,0.001358,0.0126507,1588,1653,7.08738,-16.8083
371,-629,7.08765,16.6504,0.000595154,-0.0011865,0.00144579,0.00140253,-0.00199387,0.509293,0.0019708,0.0102267,1595,1653,7.08765,-16.6504
378,-629,7.07349,16.4799,0.000210597,-0.00175741,0.00206427,0.0015134,-0.00306021,0.562987,0.00269044,0.00970027,1602,1653,7.0735,-16.4799
385,-629,7.07605,16.3167,-6.18987e-05,-0.00205736,0.0023371,0.00148154,-0.00360079,0.583655,0.00301812,0.0115913,1609,1653,7.0761,-16.3166
392,-629,7.06946,16.1642,-0.000147756,-0.00211449,0.00235351,0.00141957,-0.00368181,0.587507,0.00304028,0.0102906,1616,1653,7.06948,-16.1642
399,-629,7.05542,15.9769,-0.000190054,-0.00186241,0.00217005,0.00129935,-0.00335181,0.601501,0.00277113,0.0109557,1623,1653,7.05545,-15.977
406,-629,7.09424,15.7734,-0.00012991,-0.00173561,0.0018624,0.00109532,-0.00296084,0.581892,0.00242298,0.0142572,1630,1653,7.09428,-15.7734
413,-629,7.09387,15.5691,8.4099e-05,-0.00171302,0.00157065,0.000995055,-0.00262398,0.525574,0.00215885,0.0228991,1637,1653,7.0939,-15.5691
420,-629,7.06812,15.4033,0.000388418,-0.00167992,0.00113503,0.00088976,-0.00218126,0.41593,0.00182457,0.0205449,1644,1653,7.06816,-15.4033
427,-629,7.08765,15.1987,0.000604235,-0.00182654,0.000765536,0.000825236,-0.00204755,0.281046,0.00170791,0.012077,1651,1653,7.08764,-15.1987
434,-629,7.09583,14.9751,0.000815534,-0.00200511,0.00042023,0.00087681,-0.00206639,0.144795,0.00174491,0.00986638,1658,1653,7.09577,-14.9751
441,-629,7.10486,14.7766,0.00110637,-0.00221823,1.90819e-05,0.00110648,-0.00221834,0.00573934,0.00195504,0.0136731,1665,1653,7.10484,-14.7766
448,-629,7.07861,14.5685,0.00138834,-0.002407,-0.000331169,0.00141702,-0.00243568,-0.0863869,0.00225012,0.0140268,1672,1653,7.07862,-14.5685
455,-629,7.06006,14.3477,0.00166742,-0.00285301,-0.000631102,0.00175388,-0.00293947,-0.136143,0.00273837,0.0140632,1679,1653,7.06012,-14.3477
462,-629,7.08923,14.1589,0.0019343,-0.00334814,-0.000938024,0.00209592,-0.00350977,-0.170627,0.00327058,0.0175675,1686,1653,7.08929,-14.1589
469,-629,7.10999,13.9272,0.00229859,-0.00370425,-0.00129151,0.00256467,-0.00397032,-0.203175,0.00380196,0.0212622,1693,1653,7.11001,-13.9273
476,-629,7.14771,13.7466,0.00286399,-0.00377543,-0.00162788,0.00324164,-0.00415308,-0.227957,0.00428014,0.0272575,1700,1653,7.14776,-13.7466
483,-629,7.08069,13.4703,0.0035076,-0.00370641,-0.00210369,0.00407624,-0.00427505,-0.263997,0.00482207,0.0399592,1707,1653,7.08074,-13.4703
490,-629,7.23352,13.1234,0.00389792,-0.00348905,-0.0027866,0.0048312,-0.00442233,-0.323176,0.00534427,0.0468378,1714,1653,7.23349,-13.1234
497,-629,7.30725,12.8619,0,0,0,0,0,0,0,-1,1721,1653,7.30719,-12.8619
504,-629,6.76587,12.5562,0,0,0,0,0,0,0,-1,1728,1653,6.76583,-12.5561
511,-629,6.29138,3.40295,0,0,0,0,0,0,0,-1,1735,1653,6.29137,-3.403
518,-629,5.84387,1.41858,0,0,0,0,0,0,0,-1,1742,1653,5.84391,-1.4186
525,-629,6.4729,1.02319,0,0,0,0,0,0,0,-1,1749,1653,6.47284,-1.02316
532,-629,6.86511,0.903687,0,0,0,0,0,0,0,-1,1756,1653,6.86514,-0.903691
539,-629,6.60803,0.746704,0,0,0,0,0,0,0,-1,1763,1653,6.60809,-0.746691
546,-629,0,0,0,0,0,0,0,0,0,-1,1770,1653,0,0
553,-629,0,0,0,0,0,0,0,0,0,-1,1777,1653,0,0
560,-629,0,0,0,0,0,0,0,0,0,-1,1784,1653,0,0
567,-629,0,0,0,0,0,0,0,0,0,-1,1791,1653,0,0
574,-629,0,0,0,0,0,0,0,0,0,-1,1798,1653,0,0
581,-629,0,0,0,0,0,0,0,0,0,-1,1805,1653,0,0
588,-629,0,0,0,0,0,0,0,0,0,-1,1812,1653,0,0
595,-629,0,0,0,0,0,0,0,0,0,-1,1819,1653,0,0
602,-629,0,0,0,0,0,0,0,0,0,-1,1826,1653,0,0
609,-629,0,0,0,0,0,0,0,0,0,-1,1833,1653,0,0
616,-629,0,0,0,0,0,0,0,0,0,-1,1840,1653,0,0
623,-629,0,0,0,0,0,0,0,0,0,-1,1847,1653,0,0
630,-629,0,0,0,0,0,0,0,0,0,-1,1854,1653,0,0
637,-629,0,0,0,0,0,0,0,0,0,-1,1861,1653,0,0
644,-629,0,0,0,0,0,0,0,0,0,-1,1868,1653,0,0
651,-629,0,0,0,0,0,0,0,0,0,-1,1875,1653,0,0
658,-629,0,0,0,0,0,0,0,0,0,-1,1882,1653,0,0
665,-629,0,0,0,0,0,0,0,0,0,-1,1889,1653,0,0
672,-629,0,0,0,0,0,0,0,0,0,-1,1896,1653,0,0
679,-629,0,0,0,0,0,0,0,0,0,-1,1903,1653,0,0
686,-629,0,0,0,0,0,0,0,0,0,-1,1910,1653,0,0
693,-629,0,0,0,0,0,0,0,0,0,-1,1917,1653,0,0
700,-629,0,0,0,0,0,0,0,0,0,-1,1924,1653,0,0
707,-629,0,0,0,0,0,0,0,0,0,-1,1931,1653,0,0
714,-629,0,0,0,0,0,0,0,0,0,-1,1938,1653,0,0
721,-629,0,0,0,0,0,0,0,0,0,-1,1945,1653,0,0
728,-629,0,0,0,0,0,0,0,0,0,-1,1952,1653,0,0
735,-629,0,0,0,0,0,0,0,0,0,-1,1959,1653,0,0
742,-629,0,0,0,0,0,0,0,0,0,-1,1966,1653,0,0
749,-629,0,0,0,0,0,0,0,0,0,-1,1973,1653,0,0
756,-629,0,0,0,0,0,0,0,0,0,-1,1980,1653,0,0
763,-629,0,0,0,0,0,0,0,0,0,-1,1987,1653,0,0
770,-629,0,0,0,0,0,0,0,0,0,-1,1994,1653,0,0
777,-629,0,0,0,0,0,0,0,0,0,-1,2001,1653,0,0
784,-629,0,0,0,0,0,0,0,0,0,-1,2008,1653,0,0
791,-629,0,0,0,0,0,0,0,0,0,-1,2015,1653,0,0
798,-629,0,0,0,0,0,0,0,0,0,-1,2022,1653,0,0
805,-629,0,0,0,0,0,0,0,0,0,-1,2029,1653,0,0
812,-629,0,0,0,0,0,0,0,0,0,-1,2036,1653,0,0
-700,-636,0,0,0,0,0,0,0,0,0,-1,524,1660,0,0
-693,-636,0,0,0,0,0,0,0,0,0,-1,531,1660,0,0
-686,-636,0,0,0,0,0,0,0,0,0,-1,538,1660,0,0
-679,-636,0,0,0,0,0,0,0,0,0,-1,545,1660,0,0
-672,-636,0,0,0,0,0,0,0,0,0,-1,552,1660,0,0
-665,-636,0,0,0,0,0,0,0,0,0,-1,559,1660,0,0
-658,-636,0,0,0,0,0,0,0,0,0,-1,566,1660,0,0
-651,-636,0,0,0,0,0,0,0,0,0,-1,573,1660,0,0
-644,-636,0,0,0,0,0,0,0,0,0,-1,580,1660,0,0
-637,-636,0,0,0,0,0,0,0,0,0,-1,587,1660,0,0
-630,-636,0,0,0,0,0,0,0,0,0,-1,594,1660,0,0
-623,-636,0,0,0,0,0,0,0,0,0,-1,601,1660,0,0
-616,-636,0,0,0,0,0,0,0,0,0,-1,608,1660,0,0
-609,-636,0,0,0,0,0,0,0,0,0,-1,615,1660,0,0
-602,-636,0,0,0,0,0,0,0,0,0,-1,622,1660,0,0
-595,-636,0,0,0,0,0,0,0,0,0,-1,629,1660,0,0
-588,-636,0,0,0,0,0,0,0,0,0,-1,636,1660,0,0
-581,-636,0,0,0,0,0,0,0,0,0,-1,643,1660,0,0
-574,-636,0,0,0,0,0,0,0,0,0,-1,650,1660,0,0
-567,-636,0,0,0,0,0,0,0,0,0,-1,657,1660,0,0
-560,-636,0,0,0,0,0,0,0,0,0,-1,664,1660,0,0
-553,-636,0,0,0,0,0,0,0,0,0,-1,671,1660,0,0
-546,-636,0,0,0,0,0,0,0,0,0,-1,678,1660,0,0
-539,-636,0,0,0,0,0,0,0,0,0,-1,685,1660,0,0
-532,-636,0,0,0,0,0,0,0,0,0,-1,692,1660,0,0
-525,-636,0,0,0,0,0,0,0,0,0,-1,699,1660,0,0
-518,-636,0,0,0,0,0,0,0,0,0,-1,706,1660,0,0
-511,-636,0,0,0,0,0,0,0,0,0,-1,713,1660,0,0
-504,-636,0,0,0,0,0,0,0,0,0,-1,720,1660,0,0
-497,-636,0,0,0,0,0,0,0,0,0,-1,727,1660,0,0
-490,-636,0,0,0,0,0,0,0,0,0,-1,734,1660,0,0
-483,-636,0,0,0,0,0,0,0,0,0,-1,741,1660,0,0
-476,-636,0,0,0,0,0,0,0,0,0,-1,748,1660,0,0
-469,-636,0,0,0,0,0,0,0,0,0,-1,755,1660,0,0
-462,-636,0,0,0,0,0,0,0,0,0,-1,762,1660,0,0
-455,-636,0,0,0,0,0,0,0,0,0,-1,769,1660,0,0
-448,-636,0,0,0,0,0,0,0,0,0,-1,776,1660,0,0
-441,-636,0,0,0,0,0,0,0,0,0,-1,783,1660,0,0
-434,-636,0,0,0,0,0,0,0,0,0,-1,790,1660,0,0
-427,-636,0,0,0,0,0,0,0,0,0,-1,797,1660,0,0
-420,-636,0,0,0,0,0,0,0,0,0,-1,804,1660,0,0
-413,-636,0,0,0,0,0,0,0,0,0,-1,811,1660,0,0
-406,-636,-0.591125,10.6943,0,0,0,0,0,0,0,-1,818,1660,-0.59115,-10.6943
-399,-636,0.0766602,11.2408,0,0,0,0,0,0,0,-1,825,1660,0.076685,-11.2409
-392,-636,0.75946,11.9233,0,0,0,0,0,0,0,-1,832,1660,0.759481,-11.9233
-385,-636,1.68878,12.517,0,0,0,0,0,0,0,-1,839,1660,1.6888,-12.5169
-378,-636,2.22107,13.0013,0,0,0,0,0,0,0,-1,846,1660,2.22107,-13.0014
-371,-636,2.52185,11.9684,0,0,0,0,0,0,0,-1,853,1660,2.52184,-11.9684
-364,-636,2.94617,11.7798,0,0,0,0,0,0,0,-1,860,1660,2.94618,-11.7798
-357,-636,2.08136,11.7552,0,0,0,0,0,0,0,-1,867,1660,2.08138,-11.7553
-350,-636,2.8645,11.7958,0,0,0,0,0,0,0,-1,874,1660,2.86448,-11.7957
-343,-636,3.21875,13.0571,0,0,0,0,0,0,0,-1,881,1660,3.21877,-13.0572
-336,-636,3.24286,12.8839,0.00182195,-0.00847412,0.00239067,0.00234997,-0.00900214,0.217376,0.00691907,0.0324751,888,1660,3.24289,-12.8839
-329,-636,3.30328,13.1084,0.00197064,-0.00770642,0.00215361,0.00242828,-0.00816406,0.209384,0.00640739,0.0164995,895,1660,3.30327,-13.1083
-322,-636,3.28125,13.3348,0.00193211,-0.00645312,0.00198797,0.00237954,-0.00690055,0.221381,0.00556577,0.0114615,902,1660,3.28126,-13.3348
-315,-636,3.24493,13.5636,0.00171004,-0.00554503,0.00156925,0.00203491,-0.00586991,0.204142,0.0047395,0.0127791,909,1660,3.24491,-13.5635
-308,-636,3.23639,13.795,0.00142316,-0.00472197,0.00102045,0.00158818,-0.00488699,0.160327,0.0038968,0.0115232,916,1660,3.23639,-13.7951
-301,-636,3.24695,14.0311,0.00116914,-0.00374638,0.000508608,0.00122121,-0.00379845,0.10203,0.00302275,0.011073,923,1660,3.24696,-14.0312
-294,-636,3.23462,14.2688,0.000951856,-0.00274536,8.51269e-05,0.000953815,-0.00274732,0.0230083,0.00221891,0.0143524,930,1660,3.23462,-14.2688
-287,-636,3.2182,14.4855,0.000689546,-0.00194549,-0.000250861,0.000713216,-0.00196916,-0.0940761,0.00160426,0.0119755,937,1660,3.2182,-14.4854
-280,-636,3.21613,14.6991,0.000498204,-0.00146646,-0.000536429,0.000635127,-0.00160338,-0.249913,0.00133209,0.010515,944,1660,3.21611,-14.6991
-273,-636,3.2265,14.8977,0.000453074,-0.00117428,-0.000753267,0.000748217,-0.00146942,-0.373432,0.00130273,0.0117438,951,1660,3.2265,-14.8977
-266,-636,3.24237,15.1034,0.000526566,-0.00118739,-0.000856624,0.000881288,-0.00154211,-0.392596,0.00141638,0.0137058,958,1660,3.24237,-15.1034
-259,-636,3.24829,15.3154,0.000602614,-0.00126498,-0.00096379,0.00101078,-0.00167315,-0.400601,0.00156522,0.0141836,965,1660,3.24828,-15.3155
-252,-636,3.23767,15.5168,0.000748377,-0.00177223,-0.00108535,0.00115131,-0.00217516,-0.355475,0.00195062,0.0107641,972,1660,3.23767,-15.5169
-245,-636,3.24274,15.7297,0.00104218,-0.00242855,-0.0010471,0.00133361,-0.00271998,-0.271453,0.00238553,0.0103414,979,1660,3.24271,-15.7298
-238,-636,3.24493,15.9269,0.00137748,-0.00325478,-0.00106125,0.00160904,-0.00348634,-0.214825,0.00300764,0.0110548,986,1660,3.24492,-15.9269
-231,-636,3.24304,16.1289,0.00176712,-0.00421703,-0.00120147,0.00199934,-0.00444924,-0.190921,0.0038116,0.0102762,993,1660,3.24302,-16.1289
-224,-636,3.24976,16.3126,0.00203922,-0.0055354,-0.00136999,0.00227939,-0.00577557,-0.173544,0.00479433,0.00863448,1000,1660,3.24975,-16.3127
-217,-636,3.2569,16.511,0.00200721,-0.00692208,-0.00149264,0.00225012,-0.00716499,-0.161322,0.00567733,0.0110163,1007,1660,3.25692,-16.511
-210,-636,3.26923,16.6763,3.10596e-05,-0.00874319,-0.000869934,0.000116479,-0.0088286,-0.0978767,0.00592494,0.0167021,1014,1660,3.26924,-16.6763
-203,-636,3.29761,16.8636,-0.00225802,-0.00982952,-0.000343583,-0.00224246,-0.00984508,-0.0452544,0.00595826,0.0220877,1021,1660,3.29763,-16.8636
-196,-636,3.41589,16.952,-0.0045282,-0.0114442,0.000235404,-0.0045202,-0.0114522,0.0339851,0.00666063,0.0243064,1028,1660,3.41589,-16.9521
-189,-636,3.40344,17.0895,-0.0074798,-0.0132364,0.000972063,-0.00732009,-0.0133961,0.162846,0.00774538,0.0259499,1035,1660,3.40346,-17.0895
-182,-636,3.41418,17.1473,-0.0109598,-0.0147822,0.00196426,-0.0101304,-0.0156116,0.399549,0.00914562,0.0413453,1042,1660,3.41421,-17.1474
-175,-636,3.47461,17.0614,-0.0148482,-0.0163072,0.0029987,-0.0124915,-0.0186638,0.666083,0.0109795,0.0498306,1049,1660,3.47455,-17.0614
-168,-636,3.45532,17.2946,-0.0187682,-0.0173691,0.00426851,-0.0137432,-0.0223941,0.866619,0.0130402,0.0487529,1056,1660,3.45527,-17.2945
-161,-636,3.38892,17.396,-0.0223757,-0.0182612,0.00557407,-0.0143768,-0.02626,0.962184,0.015184,0.0490741,1063,1660,3.3889,-17.3961
-154,-636,3.02478,18.1943,-0.0254336,-0.0190845,0.00670774,-0.014838,-0.02968,1.00641,0.0171358,0.0473859,1070,1660,3.02477,-18.1943
-147,-636,2.66138,18.7506,0,0,0,0,0,0,0,-1,1077,1660,2.66137,-18.7506
-140,-636,2.39758,19.2344,0,0,0,0,0,0,0,-1,1084,1660,2.39753,-19.2344
-133,-636,4.68311,18.0922,0,0,0,0,0,0,0,-1,1091,1660,4.68316,-18.0921
-126,-636,3.79028,18.2225,0,0,0,0,0,0,0,-1,1098,1660,3.79025,-18.2226
-119,-636,1.8667,13.8916,0,0,0,0,0,0,0,-1,1105,1660,1.86668,-13.8916
-112,-636,-1.24963,9.7998,0,0,0,0,0,0,0,-1,1112,1660,-1.24968,-9.79978
-105,-636,3.51624,4.72791,0,0,0,0,0,0,0,-1,1119,1660,3.51618,-4.7279
-98,-636,1.54504,5.11914,0,0,0,0,0,0,0,-1,1126,1660,1.54503,-5.11912
-91,-636,-1.87964,-2.25012,0,0,0,0,0,0,0,-1,1133,1660,-1.87966,2.25016
-84,-636,-2.84143,0.133667,0,0,0,0,0,0,0,-1,1140,1660,-2.84144,-0.133701
-77,-636,-3.57349,2.45935,0,0,0,0,0,0,0,-1,1147,1660,-3.57345,-2.45939
-70,-636,-4.23682,4.82312,0,0,0,0,0,0,0,-1,1154,1660,-4.23681,-4.82307
-63,-636,-2.21033,6.97168,0,0,0,0,0,0,0,-1,1161,1660,-2.21034,-6.97165
-56,-636,-2.51917,8.80359,0,0,0,0,0,0,0,-1,1168,1660,-2.51916,-8.80361
-49,-636,-3.13,10.4113,0,0,0,0,0,0,0,-1,1175,1660,-3.12996,-10.4112
-42,-636,-2.27771,4.90173,0,0,0,0,0,0,0,-1,1182,1660,-2.27775,-4.90173
-35,-636,-2.27698,5.89685,0,0,0,0,0,0,0,-1,1189,1660,-2.27695,-5.89686
-28,-636,-1.70654,4.83936,0,0,0,0,0,0,0,-1,1196,1660,-1.70656,-4.8393
-21,-636,4.88025,23.7208,0,0,0,0,0,0,0,-1,1203,1660,4.88029,-23.7208
-14,-636,4.35645,23.1519,-0.110038,-0.15823,-0.0623466,-0.0672934,-0.200975,-0.600999,0.118124,0.0494851,1210,1660,4.35642,-23.1519
-7,-636,3.51135,22.5247,-0.106516,-0.112256,-0.0449842,-0.0643104,-0.154462,-0.753543,0.0895936,0.0489679,1217,1660,3.51138,-22.5247
0,-636,2.66467,21.7938,0,0,0,0,0,0,0,-1,1224,1660,2.6647,-21.7938
7,-636,2.02856,17.7961,-0.0854,-0.0466684,-0.0184711,-0.039272,-0.0927964,-1.18992,0.0537862,0.0459197,1231,1660,2.0285,-17.7961
14,-636,1.3822,18.3434,-0.06889,-0.0249495,-0.0126865,-0.0215497,-0.0722898,-1.30896,0.0428558,0.0447498,1238,1660,1.38216,-18.3434
21,-636,0.674683,19.1188,-0.0508157,-0.0062487,-0.00942976,-0.00433562,-0.0527288,-1.37064,0.0338001,0.0469595,1245,1660,0.674708,-19.1187
28,-636,1.07983,20.4944,0,0,0,0,0,0,0,-1,1252,1660,1.07978,-20.4944
35,-636,0.665527,22.652,0,0,0,0,0,0,0,-1,1259,1660,0.665545,-22.6519
42,-636,0.884399,22.7317,0,0,0,0,0,0,0,-1,1266,1660,0.88446,-22.7316
49,-636,1.57288,22.7563,-0.0208629,0.0425386,0.0149603,0.0458914,-0.0242156,1.35033,0.0411161,0.0477988,1273,1660,1.5729,-22.7564
56,-636,1.59265,22.764,-0.0191745,0.0463847,0.021353,0.0527261,-0.0255159,1.28211,0.0460746,0.0485722,1280,1660,1.59267,-22.7641
63,-636,1.57471,22.6993,-0.0205345,0.0486456,0.0259082,0.0572725,-0.0291614,1.24936,0.0507748,0.0466612,1287,1660,1.57474,-22.6994
70,-636,1.38147,23.0922,0,0,0,0,0,0,0,-1,1294,1660,1.38152,-23.0922
77,-636,8.88501,20.9951,0,0,0,0,0,0,0,-1,1301,1660,8.88507,-20.9951
84,-636,7.49695,20.5674,-0.0668478,0.0569513,0.0441867,0.0711045,-0.081001,1.26082,0.0878801,0.0443735,1308,1660,7.49696,-20.5674
91,-636,6.57886,23.0735,-0.0856937,0.0591416,0.0493193,0.0743408,-0.100893,1.27185,0.101558,0.042032,1315,1660,6.57883,-23.0735
98,-636,5.56238,23.3477,-0.105766,0.0599028,0.0510086,0.0743484,-0.120212,1.29482,0.113365,0.0483455,1322,1660,5.56233,-23.3477
105,-636,4.64148,23.5446,0,0,0,0,0,0,0,-1,1329,1660,4.64146,-23.5446
112,-636,19.2816,21.7084,0,0,0,0,0,0,0,-1,1336,1660,19.2816,-21.7084
119,-636,16.9882,21.7668,-0.155069,0.0599557,0.0553006,0.0733444,-0.168457,1.33326,0.143159,0.0457961,1343,1660,16.9882,-21.7668
126,-636,14.7577,21.9637,-0.159706,0.0577796,0.0544435,0.0706472,-0.172574,1.33871,0.144475,0.04341,1350,1660,14.7577,-21.9637
133,-636,12.3861,22.3564,-0.163524,0.0562986,0.0564321,0.0699392,-0.177165,1.33363,0.147075,0.0456095,1357,1660,12.3861,-22.3565
140,-636,9.97607,22.3013,-0.165807,0.0545595,0.0638025,0.0716991,-0.182947,1.30836,0.151624,0.0420261,1364,1660,9.97604,-22.3012
147,-636,7.78406,22.2999,-0.16315,0.0590174,0.0821936,0.0861197,-0.190253,1.25229,0.163295,0.0444893,1371,1660,7.7841,-22.3
154,-636,5.84631,22.5582,0,0,0,0,0,0,0,-1,1378,1660,5.84629,-22.5583
161,-636,10.2961,7.13025,0,0,0,0,0,0,0,-1,1385,1660,10.2961,-7.13021
168,-636,11.7659,5.83899,0,0,0,0,0,0,0,-1,1392,1660,11.7658,-5.83899
175,-636,5.94592,-1.72888,0,0,0,0,0,0,0,-1,1399,1660,5.94598,1.72886
182,-636,5.93994,-1.11938,0,0,0,0,0,0,0,-1,1406,1660,5.93998,1.11936
189,-636,5.32544,11.9595,0,0,0,0,0,0,0,-1,1413,1660,5.32542,-11.9595
196,-636,5.3623,9.38025,0,0,0,0,0,0,0,-1,1420,1660,5.36225,-9.38027
203,-636,5.18542,9.02429,0,0,0,0,0,0,0,-1,1427,1660,5.18547,-9.0243
210,-636,4.09167,7.17041,0,0,0,0,0,0,0,-1,1434,1660,4.09173,-7.17041
217,-636,2.94897,5.28992,0,0,0,0,0,0,0,-1,1441,1660,2.94899,-5.28991
224,-636,1.49194,3.63916,0,0,0,0,0,0,0,-1,1448,1660,1.49197,-3.63918
231,-636,0.17749,2.24854,0,0,0,0,0,0,0,-1,1455,1660,0.177501,-2.24855
238,-636,-0.764648,1.00598,0,0,0,0,0,0,0,-1,1462,1660,-0.764704,-1.00595
245,-636,6.21204,1.18005,0,0,0,0,0,0,0,-1,1469,1660,6.21206,-1.18001
252,-636,7.70251,0.865723,0,0,0,0,0,0,0,-1,1476,1660,7.7025,-0.865692
259,-636,9.03601,0.787231,0,0,0,0,0,0,0,-1,1483,1660,9.03598,-0.787243
266,-636,10.1071,3.24109,0,0,0,0,0,0,0,-1,1490,1660,10.1071,-3.24103
273,-636,8.48535,5.02466,0,0,0,0,0,0,0,-1,1497,1660,8.48533,-5.02472
280,-636,8.81384,5.66992,0,0,0,0,0,0,0,-1,1504,1660,8.81381,-5.66998
287,-636,6.08606,11.49,0,0,0,0,0,0,0,-1,1511,1660,6.08606,-11.49
294,-636,6.69592,15.9669,0,0,0,0,0,0,0,-1,1518,1660,6.69595,-15.9669
301,-636,6.12195,18.4968,0,0,0,0,0,0,0,-1,1525,1660,6.122,-18.4968
308,-636,6.85706,18.131,0,0,0,0,0,0,0,-1,1532,1660,6.8571,-18.131
315,-636,6.93469,17.9572,0,0,0,0,0,0,0,-1,1539,1660,6.93472,-17.9572
322,-636,6.76709,17.8715,0.00694752,0.00333027,-0.00395565,0.00948841,0.000789382,-0.570975,0.00607959,0.0389713,1546,1660,6.76706,-17.8714
329,-636,6.80139,17.6256,0.0057105,0.00303474,-0.00328727,0.00792171,0.000823526,-0.59214,0.00502916,0.0242483,1553,1660,6.80134,-17.6256
336,-636,6.85645,17.4324,0.00468321,0.00256458,-0.00262925,0.00645851,0.000789268,-0.593898,0.00406819,0.0216752,1560,1660,6.85648,-17.4324
343,-636,6.87439,17.3284,0.0033669,0.00173303,-0.00171081,0.00444581,0.000654118,-0.562649,0.00277169,0.0206514,1567,1660,6.87445,-17.3284
350,-636,6.88892,17.1619,0.00255766,0.000950706,-0.00101828,0.00305128,0.000457087,-0.451382,0.00190024,0.0111335,1574,1660,6.88886,-17.1618
357,-636,6.88831,16.9971,0.00176532,0.000215684,-0.000157024,0.00178107,0.000199933,-0.0999755,0.00112667,0.00979768,1581,1660,6.88833,-16.9971
364,-636,6.90515,16.824,0.00111305,-0.000236776,0.000356914,0.00120162,-0.000325339,0.243222,0.000928717,0.0101723,1588,1660,6.90509,-16.8239
371,-636,6.90637,16.6613,0.000684817,-0.000610096,0.000754611,0.00103166,-0.000956942,0.430838,0.00114839,0.00925271,1595,1660,6.90634,-16.6612
378,-636,6.90674,16.4824,0.000430069,-0.00102862,0.00111639,0.00103424,-0.00163279,0.49605,0.00155269,0.0095573,1602,1660,6.90672,-16.4825
385,-636,6.90637,16.3041,0.000348284,-0.00119383,0.00121997,0.00102044,-0.00186598,0.503579,0.00169014,0.0142082,1609,1660,6.90635,-16.3041
392,-636,6.89905,16.1456,0.000392347,-0.00121777,0.00111322,0.000961106,-0.00178653,0.472341,0.00161003,0.0142748,1616,1660,6.89909,-16.1456
399,-636,6.90039,15.9611,0.000411543,-0.00102659,0.000897974,0.000842875,-0.00145792,0.447795,0.00134409,0.01081,1623,1660,6.90034,-15.9611
406,-636,6.92297,15.77,0.000489089,-0.000988107,0.00066656,0.000745393,-0.00124441,0.367088,0.00116079,0.0134589,1630,1660,6.92296,-15.77
413,-636,6.9353,15.547,0.000767335,-0.00106158,0.000422077,0.000860042,-0.00115429,0.216213,0.0011671,0.0214395,1637,1660,6.93528,-15.547
420,-636,6.89526,15.3617,0.00112167,-0.00121106,7.61047e-05,0.00112416,-0.00121354,0.0325784,0.00135,0.0201595,1644,1660,6.89526,-15.3616
427,-636,6.89087,15.1913,0.00132621,-0.00157516,-0.000142301,0.00133317,-0.00158213,-0.0488897,0.00168519,0.0116009,1651,1660,6.89085,-15.1913
434,-636,6.89624,14.9789,0.00152323,-0.0019997,-0.000309396,0.00155019,-0.00202666,-0.0869366,0.0020712,0.0110243,1658,1660,6.89623,-14.9789
441,-636,6.91187,14.7579,0.00178996,-0.00249924,-0.000534593,0.00185559,-0.00256486,-0.122148,0.00256307,0.0113017,1665,1660,6.91186,-14.7579
448,-636,6.9314,14.5712,0.00198604,-0.0030702,-0.000647154,0.00206755,-0.00315172,-0.125301,0.00303494,0.0131414,1672,1660,6.93134,-14.5712
455,-636,6.91907,14.3508,0.00225555,-0.00390332,-0.000758632,0.00234762,-0.00399539,-0.120772,0.0037031,0.0136292,1679,1660,6.91902,-14.3509
462,-636,6.88965,14.1127,0.00252929,-0.0048138,-0.000881793,0.0026337,-0.0049182,-0.117853,0.00442609,0.0186149,1686,1660,6.88969,-14.1127
469,-636,6.98242,13.972,0.00287137,-0.00556328,-0.00107523,0.00300628,-0.00569819,-0.124819,0.00510501,0.0296237,1693,1660,6.98245,-13.9721
476,-636,6.94702,13.9354,0.00344403,-0.00584943,-0.00132533,0.00362934,-0.00603474,-0.13892,0.00563687,0.0432107,1700,1660,6.94704,-13.9354
483,-636,6.87354,13.7629,0,0,0,0,0,0,0,-1,1707,1660,6.87358,-13.763
490,-636,7.12891,13.0217,0,0,0,0,0,0,0,-1,1714,1660,7.12894,-13.0217
497,-636,5.63306,12.2826,0,0,0,0,0,0,0,-1,1721,1660,5.63307,-12.2826
504,-636,4.98694,11.4955,0,0,0,0,0,0,0,-1,1728,1660,4.98692,-11.4955
511,-636,5.65466,9.23218,0,0,0,0,0,0,0,-1,1735,1660,5.65461,-9.23216
518,-636,6.72791,1.07605,0,0,0,0,0,0,0,-1,1742,1660,6.7279,-1.0761
525,-636,7.04309,0.93335,0,0,0,0,0,0,0,-1,1749,1660,7.04308,-0.933298
532,-636,0,0,0,0,0,0,0,0,0,-1,1756,1660,0,0
539,-636,0,0,0,0,0,0,0,0,0,-1,1763,1660,0,0
546,-636,0,0,0,0,0,0,0,0,0,-1,1770,1660,0,0
553,-636,0,0,0,0,0,0,0,0,0,-1,1777,1660,0,0
560,-636,0,0,0,0,0,0,0,0,0,-1,1784,1660,0,0
567,-636,0,0,0,0,0,0,0,0,0,-1,1791,1660,0,0
574,-636,0,0,0,0,0,0,0,0,0,-1,1798,1660,0,0
581,-636,0,0,0,0,0,0,0,0,0,-1,1805,1660,0,0
588,-636,0,0,0,0,0,0,0,0,0,-1,1812,1660,0,0
595,-636,0,0,0,0,0,0,0,0,0,-1,1819,1660,0,0
602,-636,0,0,0,0,0,0,0,0,0,-1,1826,1660,0,0
609,-636,0,0,0,0,0,0,0,0,0,-1,1833,1660,0,0
616,-636,0,0,0,0,0,0,0,0,0,-1,1840,1660,0,0
623,-636,0,0,0,0,0,0,0,0,0,-1,1847,1660,0,0
630,-636,0,0,0,0,0,0,0,0,0,-1,1854,1660,0,0
637,-636,0,0,0,0,0,0,0,0,0,-1,1861,1660,0,0
644,-636,0,0,0,0,0,0,0,0,0,-1,1868,1660,0,0
651,-636,0,0,0,0,0,0,0,0,0,-1,1875,1660,0,0
658,-636,0,0,0,0,0,0,0,0,0,-1,1882,1660,0,0
665,-636,0,0,0,0,0,0,0,0,0,-1,1889,1660,0,0
672,-636,0,0,0,0,0,0,0,0,0,-1,1896,1660,0,0
679,-636,0,0,0,0,0,0,0,0,0,-1,1903,1660,0,0
686,-636,0,0,0,0,0,0,0,0,0,-1,1910,1660,0,0
693,-636,0,0,0,0,0,0,0,0,0,-1,1917,1660,0,0
700,-636,0,0,0,0,0,0,0,0,0,-1,1924,1660,0,0
707,-636,0,0,0,0,0,0,0,0,0,-1,1931,1660,0,0
714,-636,0,0,0,0,0,0,0,0,0,-1,1938,1660,0,0
721,-636,0,0,0,0,0,0,0,0,0,-1,1945,1660,0,0
728,-636,0,0,0,0,0,0,0,0,0,-1,1952,1660,0,0
735,-636,0,0,0,0,0,0,0,0,0,-1,1959,1660,0,0
742,-636,0,0,0,0,0,0,0,0,0,-1,1966,1660,0,0
749,-636,0,0,0,0,0,0,0,0,0,-1,1973,1660,0,0
756,-636,0,0,0,0,0,0,0,0,0,-1,1980,1660,0,0
763,-636,0,0,0,0,0,0,0,0,0,-1,1987,1660,0,0
770,-636,0,0,0,0,0,0,0,0,0,-1,1994,1660,0,0
777,-636,0,0,0,0,0,0,0,0,0,-1,2001,1660,0,0
784,-636,0,0,0,0,0,0,0,0,0,-1,2008,1660,0,0
791,-636,0,0,0,0,0,0,0,0,0,-1,2015,1660,0,0
798,-636,0,0,0,0,0,0,0,0,0,-1,2022,1660,0,0
805,-636,0,0,0,0,0,0,0,0,0,-1,2029,1660,0,0
812,-636,0,0,0,0,0,0,0,0,0,-1,2036,1660,0,0
-700,-643,0,0,0,0,0,0,0,0,0,-1,524,1667,0,0
-693,-643,0,0,0,0,0,0,0,0,0,-1,531,1667,0,0
-686,-643,0,0,0,0,0,0,0,0,0,-1,538,1667,0,0
-679,-643,0,0,0,0,0,0,0,0,0,-1,545,1667,0,0
-672,-643,0,0,0,0,0,0,0,0,0,-1,552,1667,0,0
-665,-643,0,0,0,0,0,0,0,0,0,-1,559,1667,0,0
-658,-643,0,0,0,0,0,0,0,0,0,-1,566,1667,0,0
-651,-643,0,0,0,0,0,0,0,0,0,-1,573,1667,0,0
-644,-643,0,0,0,0,0,0,0,0,0,-1,580,1667,0,0
-637,-643,0,0,0,0,0,0,0,0,0,-1,587,1667,0,0
-630,-643,0,0,0,0,0,0,0,0,0,-1,594,1667,0,0
-623,-643,0,0,0,0,0,0,0,0,0,-1,601,1667,0,0
-616,-643,0,0,0,0,0,0,0,0,0,-1,608,1667,0,0
-609,-643,0,0,0,0,0,0,0,0,0,-1,615,1667,0,0
-602,-643,0,0,0,0,0,0,0,0,0,-1,622,1667,0,0
-595,-643,0,0,0,0,0,0,0,0,0,-1,629,1667,0,0
-588,-643,0,0,0,0,0,0,0,0,0,-1,636,1667,0,0
-581,-643,0,0,0,0,0,0,0,0,0,-1,643,1667,0,0
-574,-643,0,0,0,0,0,0,0,0,0,-1,650,1667,0,0
-567,-643,0,0,0,0,0,0,0,0,0,-1,657,1667,0,0
-560,-643,0,0,0,0,0,0,0,0,0,-1,664,1667,0,0
-553,-643,0,0,0,0,0,0,0,0,0,-1,671,1667,0,0
-546,-643,0,0,0,0,0,0,0,0,0,-1,678,1667,0,0
-539,-643,0,0,0,0,0,0,0,0,0,-1,685,1667,0,0
-532,-643,0,0,0,0,0,0,0,0,0,-1,692,1667,0,0
-525,-643,0,0,0,0,0,0,0,0,0,-1,699,1667,0,0
-518,-643,0,0,0,0,0,0,0,0,0,-1,706,1667,0,0
-511,-643,0,0,0,0,0,0,0,0,0,-1,713,1667,0,0
-504,-643,0,0,0,0,0,0,0,0,0,-1,720,1667,0,0
-497,-643,0,0,0,0,0,0,0,0,0,-1,727,1667,0,0
-490,-643,0,0,0,0,0,0,0,0,0,-1,734,1667,0,0
-483,-643,0,0,0,0,0,0,0,0,0,-1,741,1667,0,0
-476,-643,0,0,0,0,0,0,0,0,0,-1,748,1667,0,0
-469,-643,0,0,0,0,0,0,0,0,0,-1,755,1667,0,0
-462,-643,0,0,0,0,0,0,0,0,0,-1,762,1667,0,0
-455,-643,0,0,0,0,0,0,0,0,0,-1,769,1667,0,0
-448,-643,0,0,0,0,0,0,0,0,0,-1,776,1667,0,0
-441,-643,0,0,0,0,0,0,0,0,0,-1,783,1667,0,0
-434,-643,0,0,0,0,0,0,0,0,0,-1,790,1667,0,0
-427,-643,0,0,0,0,0,0,0,0,0,-1,797,1667,0,0
-420,-643,0,0,0,0,0,0,0,0,0,-1,804,1667,0,0
-413,-643,0,0,0,0,0,0,0,0,0,-1,811,1667,0,0
-406,-643,0,0,0,0,0,0,0,0,0,-1,818,1667,0,0
-399,-643,0.589417,11.6465,0,0,0,0,0,0,0,-1,825,1667,0.58939,-11.6465
-392,-643,0.865295,12.6523,0,0,0,0,0,0,0,-1,832,1667,0.865315,-12.6523
-385,-643,1.72968,13.2692,0,0,0,0,0,0,0,-1,839,1667,1.72967,-13.2692
-378,-643,2.66522,13.8193,0,0,0,0,0,0,0,-1,846,1667,2.66524,-13.8193
-371,-643,0.5849,3.26428,0,0,0,0,0,0,0,-1,853,1667,0.584909,-3.26426
-364,-643,1.69513,9.922,0,0,0,0,0,0,0,-1,860,1667,1.69511,-9.92205
-357,-643,1.14227,10.8429,0,0,0,0,0,0,0,-1,867,1667,1.14228,-10.8429
-350,-643,2.50061,9.96948,0,0,0,0,0,0,0,-1,874,1667,2.50059,-9.96954
-343,-643,2.61505,6.17407,0,0,0,0,0,0,0,-1,881,1667,2.61504,-6.17412
-336,-643,3.50226,12.9818,0,0,0,0,0,0,0,-1,888,1667,3.50227,-12.9818
-329,-643,3.48553,13.1833,0.00273533,-0.0106725,0.0030508,0.00339687,-0.0113341,0.213533,0.00890692,0.0363511,895,1667,3.48555,-13.1833
-322,-643,3.49292,13.3824,0.00245019,-0.00889415,0.00249119,0.00297314,-0.0094171,0.206916,0.00746904,0.0255659,902,1667,3.49292,-13.3824
-315,-643,3.44885,13.5775,0.00201933,-0.00727759,0.00176166,0.00234194,-0.00760021,0.181127,0.00600175,0.0170198,909,1667,3.44885,-13.5776
-308,-643,3.47284,13.783,0.00156677,-0.00582057,0.00100893,0.00170209,-0.00595589,0.133323,0.00464314,0.0123053,916,1667,3.47284,-13.7829
-301,-643,3.48059,14.0035,0.00115441,-0.00424082,0.000389616,0.0011824,-0.00426881,0.0717191,0.00331114,0.0137013,923,1667,3.48058,-14.0035
-294,-643,3.46576,14.2247,0.000791944,-0.00273497,-0.000115352,0.000795713,-0.00273874,-0.0326597,0.00214094,0.0133195,930,1667,3.46576,-14.2248
-287,-643,3.4491,14.4629,0.000412847,-0.00151061,-0.000470527,0.00052178,-0.00161955,-0.227505,0.00128931,0.010511,937,1667,3.44909,-14.4629
-280,-643,3.44092,14.707,0.000115805,-0.000703947,-0.000734996,0.000547485,-0.00113563,-0.531046,0.000991324,0.0131588,944,1667,3.44093,-14.7071
-273,-643,3.42456,14.9104,-1.19752e-05,-0.000180127,-0.000889878,0.00079779,-0.000989892,-0.738298,0.0010341,0.0124752,951,1667,3.42457,-14.9104
-266,-643,3.4295,15.1038,1.71109e-05,-2.30035e-05,-0.000919645,0.000916917,-0.00092281,-0.774495,0.00106217,0.0124633,958,1667,3.42948,-15.1037
-259,-643,3.45038,15.3136,5.62753e-05,4.36766e-05,-0.000970572,0.00102057,-0.000920616,-0.782153,0.00112124,0.0120585,965,1667,3.45036,-15.3135
-252,-643,3.45416,15.5289,0.000173919,-0.000286498,-0.000972729,0.000943309,-0.00105589,-0.669205,0.00115485,0.0132388,972,1667,3.45416,-15.5289
-245,-643,3.45355,15.7354,0.000443811,-0.000859822,-0.000827779,0.000845599,-0.00126161,-0.451884,0.00122448,0.0127246,979,1667,3.45357,-15.7353
-238,-643,3.47638,15.9226,0.000733466,-0.00163664,-0.000745887,0.000948662,-0.00185183,-0.280883,0.00164466,0.0147594,986,1667,3.47638,-15.9226
-231,-643,3.44781,16.1064,0.00110699,-0.00254084,-0.000788132,0.00126999,-0.00270384,-0.203939,0.00234354,0.0103666,993,1667,3.44783,-16.1064
-224,-643,3.43536,16.2789,0.00138855,-0.00368674,-0.000898189,0.00154281,-0.00384101,-0.170093,0.00320136,0.00892319,1000,1667,3.43539,-16.279
-217,-643,3.44171,16.4454,0.00142767,-0.00488205,-0.00102499,0.00158999,-0.00504438,-0.157067,0.00399969,0.00814506,1007,1667,3.44174,-16.4454
-210,-643,3.45593,16.6464,0.000189178,-0.00625701,-0.000642035,0.000252502,-0.00632034,-0.0983122,0.0043002,0.0106803,1014,1667,3.45593,-16.6464
-203,-643,3.46118,16.8608,-0.00132588,-0.00710476,-0.000327579,-0.00130737,-0.00712327,-0.0564446,0.00437861,0.0121603,1021,1667,3.46121,-16.8609
-196,-643,3.47888,17.0338,-0.00277508,-0.00829443,1.909e-05,-0.00277502,-0.00829449,0.00345869,0.00487542,0.0128747,1028,1667,3.47891,-17.0338
-189,-643,3.54297,17.1897,-0.00468276,-0.00955627,0.000479305,-0.00463606,-0.00960296,0.0971091,0.00554537,0.013312,1035,1667,3.54296,-17.1897
-182,-643,3.58569,17.3195,-0.00692682,-0.0106486,0.00106443,-0.0066439,-0.0109315,0.25979,0.00635999,0.0203046,1042,1667,3.58563,-17.3194
-175,-643,3.6394,17.4442,-0.00938643,-0.0117969,0.00162899,-0.00856529,-0.0126181,0.466905,0.0074387,0.0331486,1049,1667,3.63945,-17.4442
-168,-643,3.55505,17.6313,-0.0118382,-0.0126294,0.00239542,-0.00980592,-0.0146617,0.703563,0.00862423,0.0394751,1056,1667,3.55507,-17.6313
-161,-643,3.39441,17.796,-0.0139769,-0.0134286,0.00320755,-0.0104835,-0.016922,0.828028,0.00986254,0.0446716,1063,1667,3.39446,-17.7961
-154,-643,3.42395,17.8669,-0.0157372,-0.0141528,0.00386205,-0.0110025,-0.0188874,0.886559,0.0109541,0.0447695,1070,1667,3.42392,-17.8669
-147,-643,3.45117,17.9309,0,0,0,0,0,0,0,-1,1077,1667,3.45114,-17.931
-140,-643,4.47034,17.266,0,0,0,0,0,0,0,-1,1084,1667,4.4703,-17.266
-133,-643,2.55713,17.3672,0,0,0,0,0,0,0,-1,1091,1667,2.55715,-17.3671
-126,-643,3.13904,17.689,0,0,0,0,0,0,0,-1,1098,1667,3.13909,-17.689
-119,-643,3.76282,14.1458,0,0,0,0,0,0,0,-1,1105,1667,3.76283,-14.1458
-112,-643,3.81458,16.2069,0,0,0,0,0,0,0,-1,1112,1667,3.81463,-16.2069
-105,-643,-2.23413,10.0996,0,0,0,0,0,0,0,-1,1119,1667,-2.23415,-10.0996
-98,-643,3.11035,4.68066,0,0,0,0,0,0,0,-1,1126,1667,3.11041,-4.68071
-91,-643,-1.74146,-2.5885,0,0,0,0,0,0,0,-1,1133,1667,-1.74146,2.58856
-84,-643,-3.07446,-0.199341,0,0,0,0,0,0,0,-1,1140,1667,-3.07449,0.199383
-77,-643,-3.63794,2.81165,0,0,0,0,0,0,0,-1,1147,1667,-3.63791,-2.8117
-70,-643,-3.36938,4.45203,0,0,0,0,0,0,0,-1,1154,1667,-3.36941,-4.452
-63,-643,-3.67822,6.26855,0,0,0,0,0,0,0,-1,1161,1667,-3.67823,-6.26856
-56,-643,-3.95142,8.1073,0,0,0,0,0,0,0,-1,1168,1667,-3.95139,-8.10732
-49,-643,-4.23535,9.90552,0,0,0,0,0,0,0,-1,1175,1667,-4.23537,-9.90557
-42,-643,-4.25195,10.7059,0,0,0,0,0,0,0,-1,1182,1667,-4.25192,-10.706
-35,-643,-4.10986,11.6588,0,0,0,0,0,0,0,-1,1189,1667,-4.10982,-11.6589
-28,-643,-1.38513,5.604,0,0,0,0,0,0,0,-1,1196,1667,-1.3851,-5.60403
-21,-643,6.23389,24.2837,0,0,0,0,0,0,0,-1,1203,1667,6.23394,-24.2836
-14,-643,5.63379,23.7632,-0.0968831,-0.123882,-0.0592548,-0.0496095,-0.171156,-0.6734,0.101684,0.0490537,1210,1667,5.63379,-23.7632
-7,-643,4.66321,23.2028,-0.0949353,-0.0876413,-0.0502605,-0.0408956,-0.141681,-0.821615,0.0842003,0.049389,1217,1667,4.66325,-23.2028
0,-643,3.71899,22.5804,-0.0898197,-0.0551787,-0.0389011,-0.0299163,-0.115082,-0.994844,0.0689477,0.0452504,1224,1667,3.71902,-22.5805
7,-643,3.11755,22.4681,0,0,0,0,0,0,0,-1,1231,1667,3.1176,-22.4681
14,-643,1.2196,17.8439,0,0,0,0,0,0,0,-1,1238,1667,1.21964,-17.8439
21,-643,1.38159,22.7449,0,0,0,0,0,0,0,-1,1245,1667,1.38156,-22.7449
28,-643,1.02185,22.9509,0,0,0,0,0,0,0,-1,1252,1667,1.02181,-22.9509
35,-643,1.22009,22.4474,-0.0182119,0.026216,-0.0160419,0.0314028,-0.0233987,-1.25808,0.031752,0.0434881,1259,1667,1.2201,-22.4474
42,-643,1.39978,22.5684,0,0,0,0,0,0,0,-1,1266,1667,1.39975,-22.5683
49,-643,1.70532,22.7538,-0.0118659,0.0487475,-0.00192956,0.0488088,-0.0119273,-1.53901,0.0371586,0.0472673,1273,1667,1.70536,-22.7538
56,-643,1.9126,22.8022,-0.0104897,0.0509707,0.00505965,0.0513844,-0.0109035,1.4892,0.0384101,0.0480435,1280,1667,1.91263,-22.8022
63,-643,2.08862,22.9268,-0.0121492,0.0517306,0.0103658,0.0533706,-0.0137891,1.41389,0.040958,0.0456687,1287,1667,2.08867,-22.9267
70,-643,2.17798,23.2493,0,0,0,0,0,0,0,-1,1294,1667,2.17801,-23.2493
77,-643,8.77527,21,0,0,0,0,0,0,0,-1,1301,1667,8.77528,-21
84,-643,7.38196,20.5614,-0.0482157,0.0526762,0.0301041,0.0609758,-0.0565154,1.30178,0.0678499,0.0445434,1308,1667,7.38192,-20.5614
91,-643,6.58374,22.3251,-0.0624234,0.0528193,0.0366983,0.0635133,-0.0731174,1.28725,0.0789487,0.0433631,1315,1667,6.58369,-22.3251
98,-643,5.60339,22.6263,-0.0782522,0.0518933,0.0397136,0.0630547,-0.0894135,1.29682,0.0884649,0.0473206,1322,1667,5.60336,-22.6263
105,-643,4.6366,22.9048,0,0,0,0,0,0,0,-1,1329,1667,4.63666,-22.9047
112,-643,6.77063,19.6023,0,0,0,0,0,0,0,-1,1336,1667,6.77063,-19.6023
119,-643,6.96301,19.3965,0,0,0,0,0,0,0,-1,1343,1667,6.96299,-19.3965
126,-643,6.92883,19.1465,0,0,0,0,0,0,0,-1,1350,1667,6.92887,-19.1465
133,-643,6.03308,18.2153,0,0,0,0,0,0,0,-1,1357,1667,6.03312,-18.2153
140,-643,8.59839,21.7643,0,0,0,0,0,0,0,-1,1364,1667,8.59838,-21.7643
147,-643,7.30774,22.0248,0,0,0,0,0,0,0,-1,1371,1667,7.30772,-22.0248
154,-643,5.98767,22.3701,0,0,0,0,0,0,0,-1,1378,1667,5.98771,-22.3701
161,-643,18.7611,11.0951,0,0,0,0,0,0,0,-1,1385,1667,18.7611,-11.0951
168,-643,10.5563,10.9818,0,0,0,0,0,0,0,-1,1392,1667,10.5562,-10.9819
175,-643,5.88525,-1.1698,0,0,0,0,0,0,0,-1,1399,1667,5.88526,1.16977
182,-643,5.80945,-0.418701,0,0,0,0,0,0,0,-1,1406,1667,5.80949,0.418712
189,-643,5.42297,12.9208,0,0,0,0,0,0,0,-1,1413,1667,5.42298,-12.9208
196,-643,5.51953,11.2415,0,0,0,0,0,0,0,-1,1420,1667,5.51948,-11.2414
203,-643,5.60828,9.82153,0,0,0,0,0,0,0,-1,1427,1667,5.60833,-9.82148
210,-643,4.73218,7.58728,0,0,0,0,0,0,0,-1,1434,1667,4.73222,-7.58728
217,-643,3.8031,5.28955,0,0,0,0,0,0,0,-1,1441,1667,3.80305,-5.28955
224,-643,2.96436,2.97095,0,0,0,0,0,0,0,-1,1448,1667,2.96432,-2.97095
231,-643,2.13403,1.08472,0,0,0,0,0,0,0,-1,1455,1667,2.13403,-1.08467
238,-643,1.18152,-0.261963,0,0,0,0,0,0,0,-1,1462,1667,1.18152,0.26192
245,-643,-0.157471,-1.79016,0,0,0,0,0,0,0,-1,1469,1667,-0.157517,1.7901
252,-643,8.08789,0.0202637,0,0,0,0,0,0,0,-1,1476,1667,8.08791,-0.0203056
259,-643,9.02979,-0.46936,0,0,0,0,0,0,0,-1,1483,1667,9.02974,0.46933
266,-643,4.55066,5.17554,0,0,0,0,0,0,0,-1,1490,1667,4.55063,-5.17556
273,-643,4.34363,6.56836,0,0,0,0,0,0,0,-1,1497,1667,4.34363,-6.5684
280,-643,5.75854,14.5217,0,0,0,0,0,0,0,-1,1504,1667,5.75854,-14.5218
287,-643,6.31042,18.5212,0,0,0,0,0,0,0,-1,1511,1667,6.31048,-18.5212
294,-643,6.51245,18.6694,0,0,0,0,0,0,0,-1,1518,1667,6.51243,-18.6695
301,-643,6.33472,18.2085,0.00921496,0.00109998,-0.00264155,0.00999906,0.000315872,-0.28855,0.00656328,0.0417959,1525,1667,6.33466,-18.2085
308,-643,6.64514,17.9835,0.0078934,0.00177963,-0.00281618,0.00899289,0.000680144,-0.372218,0.00578189,0.0405782,1532,1667,6.64517,-17.9835
315,-643,6.69568,17.9073,0.00667891,0.00200819,-0.00277029,0.00796686,0.000720234,-0.435189,0.00508818,0.0311499,1539,1667,6.69565,-17.9073
322,-643,6.6571,17.7637,0.00550098,0.00209084,-0.00251544,0.00683477,0.000757045,-0.487548,0.0043263,0.0157517,1546,1667,6.65706,-17.7637
329,-643,6.65723,17.616,0.00448829,0.00205039,-0.00212501,0.00571913,0.000819543,-0.524999,0.00357106,0.011085,1553,1667,6.65727,-17.616
336,-643,6.64685,17.4948,0.00367504,0.00180602,-0.0017569,0.00473051,0.000750554,-0.540974,0.00293565,0.0104796,1560,1667,6.64685,-17.4948
343,-643,6.68103,17.3602,0.00269323,0.00128255,-0.00121984,0.00339698,0.000578803,-0.523272,0.00209849,0.0125161,1567,1667,6.68106,-17.3602
350,-643,6.71692,17.1614,0.00208003,0.000767024,-0.00081725,0.00247181,0.000375245,-0.447021,0.00153812,0.0119932,1574,1667,6.71697,-17.1614
357,-643,6.70459,16.9962,0.00153127,0.000297135,-0.000290468,0.00159621,0.000232188,-0.219977,0.000995811,0.0104903,1581,1667,6.70455,-16.9962
364,-643,6.7196,16.8354,0.00112407,7.36304e-06,-3.38385e-05,0.00112509,6.33858e-06,-0.0302651,0.000747957,0.00940689,1588,1667,6.71956,-16.8354
371,-643,6.72656,16.6807,0.000882021,-0.000279063,0.00013597,0.000897731,-0.000294773,0.115033,0.000717229,0.00794351,1595,1667,6.72653,-16.6807
378,-643,6.73499,16.5206,0.000790149,-0.000571456,0.000291683,0.000850002,-0.00063131,0.202391,0.000858337,0.00990392,1602,1667,6.735,-16.5206
385,-643,6.74646,16.3306,0.000894148,-0.00064066,0.00023709,0.000929938,-0.00067645,0.149824,0.00093129,0.0156393,1609,1667,6.74649,-16.3306
392,-643,6.72803,16.1223,0.00108355,-0.000626212,1.71993e-05,0.00108373,-0.000626385,0.0100581,0.000999033,0.0159742,1616,1667,6.72806,-16.1223
399,-643,6.69312,15.9568,0.00118161,-0.000478995,-0.000232691,0.00121359,-0.000510984,-0.13662,0.00102286,0.0133141,1623,1667,6.6931,-15.9568
406,-643,6.7345,15.7555,0.00128007,-0.000502572,-0.000394777,0.00136358,-0.000586085,-0.208472,0.00115509,0.0123506,1630,1667,6.73448,-15.7554
413,-643,6.75525,15.5201,0.00161443,-0.000636114,-0.00059565,0.00176236,-0.000784041,-0.243421,0.0015059,0.0176814,1637,1667,6.75522,-15.5201
420,-643,6.71228,15.3623,0.00200667,-0.000930429,-0.000852695,0.00223628,-0.00116003,-0.26303,0.00199341,0.0158459,1644,1667,6.71233,-15.3623
427,-643,6.71973,15.1979,0.00218082,-0.00148535,-0.000917165,0.00239746,-0.001702,-0.231959,0.00237815,0.0131403,1651,1667,6.71969,-15.1979
434,-643,6.72668,14.9977,0.00234044,-0.00213694,-0.000882262,0.00250801,-0.00230452,-0.187704,0.00277935,0.0151126,1658,1667,6.72668,-14.9977
441,-643,6.74487,14.7729,0.00258835,-0.00295276,-0.000915968,0.00273584,-0.00310025,-0.159648,0.00337166,0.0148905,1665,1667,6.74487,-14.7729
448,-643,6.73047,14.5568,0.00270725,-0.0039648,-0.000764922,0.00279383,-0.00405137,-0.112698,0.00397425,0.0184152,1672,1667,6.73052,-14.5567
455,-643,6.67004,14.3733,0.00298141,-0.00527416,-0.000652011,0.00303259,-0.00532534,-0.0783312,0.0048856,0.0281799,1679,1667,6.66998,-14.3733
462,-643,6.71204,14.333,0.00329379,-0.00667943,-0.000610543,0.00333103,-0.00671667,-0.060915,0.0059098,0.0380203,1686,1667,6.71209,-14.333
469,-643,6.95911,14.191,0.00361294,-0.00798505,-0.000648028,0.00364904,-0.00802115,-0.0556433,0.0068936,0.0407169,1693,1667,6.95909,-14.1911
476,-643,6.79883,14.0901,0,0,0,0,0,0,0,-1,1700,1667,6.79887,-14.0901
483,-643,5.40503,13.0004,0,0,0,0,0,0,0,-1,1707,1667,5.40501,-13.0004
490,-643,5.52283,12.9911,0,0,0,0,0,0,0,-1,1714,1667,5.52286,-12.9911
497,-643,5.02759,12.295,0,0,0,0,0,0,0,-1,1721,1667,5.0276,-12.295
504,-643,4.58118,11.4801,0,0,0,0,0,0,0,-1,1728,1667,4.58119,-11.4801
511,-643,4.22314,10.5032,0,0,0,0,0,0,0,-1,1735,1667,4.22314,-10.5032
518,-643,7.40564,0.922607,0,0,0,0,0,0,0,-1,1742,1667,7.4057,-0.922598
525,-643,0,0,0,0,0,0,0,0,0,-1,1749,1667,0,0
532,-643,0,0,0,0,0,0,0,0,0,-1,1756,1667,0,0
539,-643,0,0,0,0,0,0,0,0,0,-1,1763,1667,0,0
546,-643,0,0,0,0,0,0,0,0,0,-1,1770,1667,0,0
553,-643,0,0,0,0,0,0,0,0,0,-1,1777,1667,0,0
560,-643,0,0,0,0,0,0,0,0,0,-1,1784,1667,0,0
567,-643,0,0,0,0,0,0,0,0,0,-1,1791,1667,0,0
574,-643,0,0,0,0,0,0,0,0,0,-1,1798,1667,0,0
581,-643,0,0,0,0,0,0,0,0,0,-1,1805,1667,0,0
588,-643,0,0,0,0,0,0,0,0,0,-1,1812,1667,0,0
595,-643,0,0,0,0,0,0,0,0,0,-1,1819,1667,0,0
602,-643,0,0,0,0,0,0,0,0,0,-1,1826,1667,0,0
609,-643,0,0,0,0,0,0,0,0,0,-1,1833,1667,0,0
616,-643,0,0,0,0,0,0,0,0,0,-1,1840,1667,0,0
623,-643,0,0,0,0,0,0,0,0,0,-1,1847,1667,0,0
630,-643,0,0,0,0,0,0,0,0,0,-1,1854,1667,0,0
637,-643,0,0,0,0,0,0,0,0,0,-1,1861,1667,0,0
644,-643,0,0,0,0,0,0,0,0,0,-1,1868,1667,0,0
651,-643,0,0,0,0,0,0,0,0,0,-1,1875,1667,0,0
658,-643,0,0,0,0,0,0,0,0,0,-1,1882,1667,0,0
665,-643,0,0,0,0,0,0,0,0,0,-1,1889,1667,0,0
672,-643,0,0,0,0,0,0,0,0,0,-1,1896,1667,0,0
679,-643,0,0,0,0,0,0,0,0,0,-1,1903,1667,0,0
686,-643,0,0,0,0,0,0,0,0,0,-1,1910,1667,0,0
693,-643,0,0,0,0,0,0,0,0,0,-1,1917,1667,0,0
700,-643,0,0,0,0,0,0,0,0,0,-1,1924,1667,0,0
707,-643,0,0,0,0,0,0,0,0,0,-1,1931,1667,0,0
714,-643,0,0,0,0,0,0,0,0,0,-1,1938,1667,0,0
721,-643,0,0,0,0,0,0,0,0,0,-1,1945,1667,0,0
728,-643,0,0,0,0,0,0,0,0,0,-1,1952,1667,0,0
735,-643,0,0,0,0,0,0,0,0,0,-1,1959,1667,0,0
742,-643,0,0,0,0,0,0,0,0,0,-1,1966,1667,0,0
749,-643,0,0,0,0,0,0,0,0,0,-1,1973,1667,0,0
756,-643,0,0,0,0,0,0,0,0,0,-1,1980,1667,0,0
763,-643,0,0,0,0,0,0,0,0,0,-1,1987,1667,0,0
770,-643,0,0,0,0,0,0,0,0,0,-1,1994,1667,0,0
777,-643,0,0,0,0,0,0,0,0,0,-1,2001,1667,0,0
784,-643,0,0,0,0,0,0,0,0,0,-1,2008,1667,0,0
791,-643,0,0,0,0,0,0,0,0,0,-1,2015,1667,0,0
798,-643,0,0,0,0,0,0,0,0,0,-1,2022,1667,0,0
805,-643,0,0,0,0,0,0,0,0,0,-1,2029,1667,0,0
812,-643,0,0,0,0,0,0,0,0,0,-1,2036,1667,0,0
-700,-650,0,0,0,0,0,0,0,0,0,-1,524,1674,0,0
-693,-650,0,0,0,0,0,0,0,0,0,-1,531,1674,0,0
-686,-650,0,0,0,0,0,0,0,0,0,-1,538,1674,0,0
-679,-650,0,0,0,0,0,0,0,0,0,-1,545,1674,0,0
-672,-650,0,0,0,0,0,0,0,0,0,-1,552,1674,0,0
-665,-650,0,0,0,0,0,0,0,0,0,-1,559,1674,0,0
-658,-650,0,0,0,0,0,0,0,0,0,-1,566,1674,0,0
-651,-650,0,0,0,0,0,0,0,0,0,-1,573,1674,0,0
-644,-650,0,0,0,0,0,0,0,0,0,-1,580,1674,0,0
-637,-650,0,0,0,0,0,0,0,0,0,-1,587,1674,0,0
-630,-650,0,0,0,0,0,0,0,0,0,-1,594,1674,0,0
-623,-650,0,0,0,0,0,0,0,0,0,-1,601,1674,0,0
-616,-650,0,0,0,0,0,0,0,0,0,-1,608,1674,0,0
-609,-650,0,0,0,0,0,0,0,0,0,-1,615,1674,0,0
-602,-650,0,0,0,0,0,0,0,0,0,-1,622,1674,0,0
-595,-650,0,0,0,0,0,0,0,0,0,-1,629,1674,0,0
-588,-650,0,0,0,0,0,0,0,0,0,-1,636,1674,0,0
-581,-650,0,0,0,0,0,0,0,0,0,-1,643,1674,0,0
-574,-650,0,0,0,0,0,0,0,0,0,-1,650,1674,0,0
-567,-650,0,0,0,0,0,0,0,0,0,-1,657,1674,0,0
-560,-650,0,0,0,0,0,0,0,0,0,-1,664,1674,0,0
-553,-650,0,0,0,0,0,0,0,0,0,-1,671,1674,0,0
-546,-650,0,0,0,0,0,0,0,0,0,-1,678,1674,0,0
-539,-650,0,0,0,0,0,0,0,0,0,-1,685,1674,0,0
-532,-650,0,0,0,0,0,0,0,0,0,-1,692,1674,0,0
-525,-650,0,0,0,0,0,0,0,0,0,-1,699,1674,0,0
-518,-650,0,0,0,0,0,0,0,0,0,-1,706,1674,0,0
-511,-650,0,0,0,0,0,0,0,0,0,-1,713,1674,0,0
-504,-650,0,0,0,0,0,0,0,0,0,-1,720,1674,0,0
-497,-650,0,0,0,0,0,0,0,0,0,-1,727,1674,0,0
-490,-650,0,0,0,0,0,0,0,0,0,-1,734,1674,0,0
-483,-650,0,0,0,0,0,0,0,0,0,-1,741,1674,0,0
-476,-650,0,0,0,0,0,0,0,0,0,-1,748,1674,0,0
-469,-650,0,0,0,0,0,0,0,0,0,-1,755,1674,0,0
-462,-650,0,0,0,0,0,0,0,0,0,-1,762,1674,0,0
-455,-650,0,0,0,0,0,0,0,0,0,-1,769,1674,0,0
-448,-650,0,0,0,0,0,0,0,0,0,-1,776,1674,0,0
-441,-650,0,0,0,0,0,0,0,0,0,-1,783,1674,0,0
-434,-650,0,0,0,0,0,0,0,0,0,-1,790,1674,0,0
-427,-650,0,0,0,0,0,0,0,0,0,-1,797,1674,0,0
-420,-650,0,0,0,0,0,0,0,0,0,-1,804,1674,0,0
-413,-650,0,0,0,0,0,0,0,0,0,-1,811,1674,0,0
-406,-650,0,0,0,0,0,0,0,0,0,-1,818,1674,0,0
-399,-650,0,0,0,0,0,0,0,0,0,-1,825,1674,0,0
-392,-650,5.44415,6.85669,0,0,0,0,0,0,0,-1,832,1674,5.44414,-6.85674
-385,-650,1.74451,14.0183,0,0,0,0,0,0,0,-1,839,1674,1.74453,-14.0183
-378,-650,0.997986,4.11108,0,0,0,0,0,0,0,-1,846,1674,0.998006,-4.11113
-371,-650,-1.80096,3.78625,0,0,0,0,0,0,0,-1,853,1674,-1.80094,-3.78625
-364,-650,-2.95679,2.57507,0,0,0,0,0,0,0,-1,860,1674,-2.95681,-2.57506
-357,-650,1.97833,10.8362,0,0,0,0,0,0,0,-1,867,1674,1.97835,-10.8362
-350,-650,-5.30243,0.159912,0,0,0,0,0,0,0,-1,874,1674,-5.30244,-0.159866
-343,-650,-6.21338,-1.4425,0,0,0,0,0,0,0,-1,881,1674,-6.21341,1.44248
-336,-650,3.39105,10.7294,0,0,0,0,0,0,0,-1,888,1674,3.39105,-10.7293
-329,-650,3.64069,13.264,0,0,0,0,0,0,0,-1,895,1674,3.64067,-13.264
-322,-650,3.68585,13.4172,0.00316036,-0.0115955,0.00294034,0.00372469,-0.0121598,0.18962,0.00959227,0.0426959,902,1674,3.68586,-13.4173
-315,-650,3.64172,13.6166,0.00244022,-0.00910521,0.00174723,0.00269885,-0.00936384,0.146952,0.00731017,0.0384247,909,1674,3.64171,-13.6166
-308,-650,3.64691,13.8153,0.00173535,-0.00685353,0.000647536,0.0017839,-0.00690207,0.0748287,0.0052971,0.0215213,916,1674,3.64693,-13.8153
-301,-650,3.66687,14.0054,0.00108691,-0.00451898,-0.000175155,0.00109238,-0.00452445,-0.0312043,0.00343876,0.0120116,923,1674,3.66688,-14.0054
-294,-650,3.67902,14.2156,0.000510853,-0.00241363,-0.000824506,0.000727289,-0.00263007,-0.256712,0.0020395,0.0105195,930,1674,3.679,-14.2156
-287,-650,3.66443,14.4436,-3.57975e-05,-0.000722307,-0.00123097,0.000898877,-0.00165698,-0.649427,0.00149711,0.0133575,937,1674,3.66445,-14.4436
-280,-650,3.64215,14.672,-0.000468419,0.000459477,-0.00145859,0.00152612,-0.00153507,-0.939379,0.00176738,0.0135487,944,1674,3.64217,-14.672
-273,-650,3.62811,14.9092,-0.000691648,0.00118904,-0.00151117,0.00202855,-0.00153116,-1.06371,0.00206187,0.0133297,951,1674,3.62813,-14.9092
-266,-650,3.60236,15.114,-0.000704035,0.00147286,-0.00142005,0.00217361,-0.00140479,-1.11238,0.00208183,0.0117209,958,1674,3.60234,-15.114
-259,-650,3.63458,15.3101,-0.000690383,0.0016293,-0.0013616,0.00225808,-0.00131917,-1.13817,0.00208891,0.0143431,965,1674,3.63461,-15.31
-252,-650,3.65424,15.5244,-0.000579464,0.00139794,-0.00118303,0.00195102,-0.00113254,-1.13348,0.00180108,0.0126616,972,1674,3.65423,-15.5244
-245,-650,3.64655,15.7206,-0.000304632,0.000821293,-0.000871305,0.00129568,-0.000779022,-1.07222,0.00121015,0.0118622,979,1674,3.64653,-15.7206
-238,-650,3.64319,15.9132,-2.64007e-05,2.03314e-06,-0.000638421,0.000626395,-0.000650763,-0.796531,0.000737413,0.0131055,986,1674,3.64316,-15.9133
-231,-650,3.62231,16.1193,0.000376973,-0.000943059,-0.000538821,0.000568983,-0.00113507,-0.342323,0.00100177,0.0168942,993,1674,3.6223,-16.1192
-224,-650,3.62048,16.3049,0.000730592,-0.00207103,-0.000523937,0.000825368,-0.00216581,-0.178957,0.00178382,0.0137501,1000,1674,3.62046,-16.3049
-217,-650,3.63739,16.4609,0.000898304,-0.00315679,-0.000577389,0.000978914,-0.0032374,-0.138714,0.00254804,0.00954911,1007,1674,3.63739,-16.4609
-210,-650,3.6355,16.6495,0.000201677,-0.0042794,-0.00034573,0.000228194,-0.00430592,-0.0765496,0.00294962,0.00963783,1014,1674,3.63552,-16.6495
-203,-650,3.65015,16.8494,-0.000761314,-0.00499419,-0.000194648,-0.000752382,-0.00500312,-0.0458559,0.00311505,0.0142109,1021,1674,3.65011,-16.8493
-196,-650,3.67786,17.0215,-0.00165312,-0.00587852,-4.01888e-05,-0.00165273,-0.00587891,-0.00951007,0.00350091,0.0126225,1028,1674,3.67786,-17.0214
-189,-650,3.66907,17.181,-0.0028448,-0.00676777,0.000206226,-0.00283399,-0.00677858,0.0523763,0.00393108,0.010155,1035,1674,3.66908,-17.181
-182,-650,3.71216,17.359,-0.0042368,-0.00753699,0.000498906,-0.00416303,-0.00761077,0.146806,0.00440054,0.00984836,1042,1674,3.71217,-17.359
-175,-650,3.74084,17.4873,-0.00571128,-0.00839637,0.000749368,-0.0055163,-0.00859135,0.254547,0.00502653,0.0152616,1049,1674,3.74088,-17.4873
-168,-650,3.72046,17.6271,-0.00713442,-0.00904837,0.00117936,-0.00657262,-0.00961017,0.444561,0.00567218,0.0206631,1056,1674,3.72041,-17.6271
-161,-650,3.65247,17.7637,-0.00827174,-0.00974959,0.00166178,-0.007192,-0.0108293,0.576198,0.0063636,0.0284665,1063,1674,3.65251,-17.7637
-154,-650,3.6825,17.9056,-0.00915169,-0.0103626,0.00200319,-0.00766446,-0.0118498,0.638639,0.0069391,0.0309892,1070,1674,3.68253,-17.9057
-147,-650,3.71436,18.0391,-0.00969413,-0.0109732,0.00234273,-0.00790519,-0.0127621,0.652156,0.00743793,0.0448228,1077,1674,3.7143,-18.0391
-140,-650,3.74146,18.1648,0,0,0,0,0,0,0,-1,1084,1674,3.74143,-18.1649
-133,-650,3.22583,17.7656,0,0,0,0,0,0,0,-1,1091,1674,3.2258,-17.7657
-126,-650,3.65942,17.7213,0,0,0,0,0,0,0,-1,1098,1674,3.65938,-17.7213
-119,-650,4.92798,17.2285,0,0,0,0,0,0,0,-1,1105,1674,4.92803,-17.2285
-112,-650,3.86292,14.4513,0,0,0,0,0,0,0,-1,1112,1674,3.8629,-14.4513
-105,-650,4.9259,12.0626,0,0,0,0,0,0,0,-1,1119,1674,4.92591,-12.0626
-98,-650,3.3761,6.78003,0,0,0,0,0,0,0,-1,1126,1674,3.37611,-6.78009
-91,-650,3.66809,7.04443,0,0,0,0,0,0,0,-1,1133,1674,3.66806,-7.04439
-84,-650,-3.82666,-1.59521,0,0,0,0,0,0,0,-1,1140,1674,-3.82661,1.59517
-77,-650,-4.70557,1.90198,0,0,0,0,0,0,0,-1,1147,1674,-4.7056,-1.90194
-70,-650,-4.88171,3.81653,0,0,0,0,0,0,0,-1,1154,1674,-4.88176,-3.81651
-63,-650,-5.14612,5.56543,0,0,0,0,0,0,0,-1,1161,1674,-5.14612,-5.56547
-56,-650,-5.38367,7.41101,0,0,0,0,0,0,0,-1,1168,1674,-5.38361,-7.41102
-49,-650,-5.11316,8.23706,0,0,0,0,0,0,0,-1,1175,1674,-5.11317,-8.23708
-42,-650,-4.99487,9.6792,0,0,0,0,0,0,0,-1,1182,1674,-4.99484,-9.67921
-35,-650,-4.77771,11.3369,0,0,0,0,0,0,0,-1,1189,1674,-4.77769,-11.3369
-28,-650,-4.1936,13.1501,0,0,0,0,0,0,0,-1,1196,1674,-4.19358,-13.1501
-21,-650,2.5354,14.5704,0,0,0,0,0,0,0,-1,1203,1674,2.53541,-14.5704
-14,-650,6.31494,24.4558,0,0,0,0,0,0,0,-1,1210,1674,6.31491,-24.4558
-7,-650,5.51538,23.9703,-0.0808925,-0.0622655,-0.0477308,-0.0229481,-0.12021,-0.88175,0.0736914,0.0483617,1217,1674,5.51537,-23.9703
0,-650,4.73315,23.4104,-0.075755,-0.0371312,-0.041793,-0.010404,-0.102482,-1.00183,0.0651311,0.0427925,1224,1674,4.73312,-23.4103
7,-650,3.74475,22.7247,-0.0628516,-0.0153302,-0.0382539,0.00594168,-0.0841234,-1.0633,0.0581641,0.0433104,1231,1674,3.7448,-22.7247
14,-650,2.62488,22.1121,0,0,0,0,0,0,0,-1,1238,1674,2.6249,-22.112
21,-650,2.24963,22.3497,-0.0319743,0.0176594,-0.0340882,0.0350074,-0.0493224,-1.10004,0.0489211,0.0474971,1245,1674,2.24964,-22.3497
28,-650,1.88965,22.557,-0.0187523,0.0282929,-0.0319718,0.044463,-0.0349224,-1.10255,0.0459434,0.0439248,1252,1674,1.88967,-22.5571
35,-650,1.92444,22.4772,-0.0105511,0.0335777,-0.0251822,0.0449943,-0.0219677,-1.14515,0.0394151,0.04134,1259,1674,1.92442,-22.4771
42,-650,1.86926,22.6887,0,0,0,0,0,0,0,-1,1266,1674,1.86922,-22.6887
49,-650,2.09888,22.7412,-0.00440182,0.0510184,-0.0116642,0.0533733,-0.00675671,-1.37158,0.038035,0.0444215,1273,1674,2.09883,-22.7413
56,-650,2.60681,22.9645,-0.00337856,0.0517417,-0.00466082,0.052133,-0.00376988,-1.48703,0.0360777,0.0474066,1280,1674,2.60682,-22.9645
63,-650,3.10742,23.0687,-0.005228,0.0512087,0.000866991,0.051222,-0.00524132,1.55544,0.0360225,0.0476059,1287,1674,3.10736,-23.0688
70,-650,10.0544,21.3022,0,0,0,0,0,0,0,-1,1294,1674,10.0545,-21.3022
77,-650,8.66174,20.9545,-0.0223775,0.046141,0.0126081,0.0483873,-0.0246239,1.39448,0.0428908,0.0478748,1301,1674,8.66172,-20.9545
84,-650,7.28284,20.5349,-0.033086,0.0465087,0.0204415,0.0514515,-0.0380288,1.33355,0.0518549,0.048249,1308,1674,7.28278,-20.5349
91,-650,6.50488,21.5856,-0.0436957,0.0450774,0.0274943,0.0529029,-0.0515212,1.29351,0.0602911,0.0479401,1315,1674,6.50491,-21.5856
98,-650,5.74878,21.6772,-0.0559235,0.0429561,0.0311131,0.0519313,-0.0648988,1.28995,0.0675902,0.0459876,1322,1674,5.74881,-21.6772
105,-650,6.76697,20.0857,0,0,0,0,0,0,0,-1,1329,1674,6.76702,-20.0857
112,-650,6.72095,19.5836,-0.0742991,0.040075,0.0381994,0.0516597,-0.0858838,1.27634,0.080226,0.0438969,1336,1674,6.72096,-19.5836
119,-650,6.67859,19.1576,-0.0793963,0.0381601,0.041329,0.0512357,-0.0924718,1.26438,0.0841005,0.042236,1343,1674,6.67863,-19.1576
126,-650,6.64722,18.8651,-0.0817598,0.0380208,0.0437173,0.0522794,-0.0960183,1.25552,0.0868522,0.0458788,1350,1674,6.64726,-18.8651
133,-650,6.1062,17.9498,-0.0860745,0.039129,0.0479036,0.0553545,-0.1023,1.24421,0.0923572,0.0465259,1357,1674,6.10616,-17.9498
140,-650,8.06335,21.3784,-0.0933839,0.0411661,0.0545442,0.0604993,-0.112717,1.23016,0.10151,0.0469329,1364,1674,8.06341,-21.3784
147,-650,6.9375,21.8065,0,0,0,0,0,0,0,-1,1371,1674,6.93752,-21.8065
154,-650,5.75232,22.241,0,0,0,0,0,0,0,-1,1378,1674,5.75233,-22.2409
161,-650,1.92163,18.5155,0,0,0,0,0,0,0,-1,1385,1674,1.92164,-18.5155
168,-650,11.2113,7.87231,0,0,0,0,0,0,0,-1,1392,1674,11.2113,-7.87236
175,-650,5.62537,-0.230713,0,0,0,0,0,0,0,-1,1399,1674,5.62538,0.230745
182,-650,5.56006,0.421631,0,0,0,0,0,0,0,-1,1406,1674,5.56,-0.421652
189,-650,4.81543,11.0654,0,0,0,0,0,0,0,-1,1413,1674,4.81542,-11.0654
196,-650,5.39575,11.9077,0,0,0,0,0,0,0,-1,1420,1674,5.39575,-11.9078
203,-650,3.93628,11.8215,0,0,0,0,0,0,0,-1,1427,1674,3.93624,-11.8216
210,-650,5.40955,8.08594,0,0,0,0,0,0,0,-1,1434,1674,5.40958,-8.086
217,-650,5.12451,4.69739,0,0,0,0,0,0,0,-1,1441,1674,5.12451,-4.69738
224,-650,4.79041,1.45813,0,0,0,0,0,0,0,-1,1448,1674,4.79046,-1.45816
231,-650,4.04102,-0.642212,0,0,0,0,0,0,0,-1,1455,1674,4.04101,0.642209
238,-650,3.23022,-1.43396,0,0,0,0,0,0,0,-1,1462,1674,3.23023,1.43394
245,-650,1.65894,-2.55042,0,0,0,0,0,0,0,-1,1469,1674,1.65889,2.55036
252,-650,8.75342,0.355103,0,0,0,0,0,0,0,-1,1476,1674,8.75337,-0.355147
259,-650,5.61255,3.17566,0,0,0,0,0,0,0,-1,1483,1674,5.61257,-3.17572
266,-650,4.00403,6.10229,0,0,0,0,0,0,0,-1,1490,1674,4.00401,-6.10225
273,-650,5.4093,14.3718,0,0,0,0,0,0,0,-1,1497,1674,5.40929,-14.3718
280,-650,6.07507,18.4209,0,0,0,0,0,0,0,-1,1504,1674,6.07508,-18.4209
287,-650,6.29077,18.4327,0.00926021,-0.000916638,-0.00111556,0.00938106,-0.00103749,-0.107911,0.00662699,0.0484063,1511,1674,6.29078,-18.4327
294,-650,6.49512,18.3448,0.00818874,-0.000396378,-0.00136519,0.0084006,-0.00060824,-0.15396,0.00581376,0.0390732,1518,1674,6.49506,-18.3449
301,-650,6.47742,18.0597,0.00717448,8.9042e-05,-0.00143184,0.00745289,-0.000189369,-0.192046,0.0050329,0.0347493,1525,1674,6.47742,-18.0596
308,-650,6.48999,18.0394,0.00617458,0.00068674,-0.00161763,0.00661591,0.000245411,-0.266343,0.00433112,0.0222572,1532,1674,6.49,-18.0394
315,-650,6.48804,17.954,0.00522836,0.00101092,-0.00165887,0.00580265,0.000436626,-0.333281,0.00373142,0.0119348,1539,1674,6.48799,-17.954
322,-650,6.49292,17.8094,0.00433727,0.00119535,-0.00156889,0.00498652,0.0005461,-0.392369,0.00315809,0.00992523,1546,1674,6.49291,-17.8095
329,-650,6.50464,17.6099,0.00356512,0.00127282,-0.00139553,0.00422484,0.000613102,-0.441601,0.00263607,0.015454,1553,1674,6.50458,-17.6098
336,-650,6.49548,17.5018,0.00292951,0.0011631,-0.00121982,0.0035523,0.000540311,-0.472057,0.00221022,0.0133989,1560,1674,6.49551,-17.5019
343,-650,6.52002,17.3696,0.0021901,0.00084547,-0.000941451,0.00267465,0.000360919,-0.475326,0.0016758,0.0131584,1567,1674,6.51998,-17.3696
350,-650,6.55078,17.1694,0.00169633,0.00053613,-0.000752991,0.00206676,0.000165698,-0.457185,0.00132606,0.0156051,1574,1674,6.5508,-17.1695
357,-650,6.54028,16.9921,0.00129964,0.000253275,-0.000451998,0.00146785,8.50664e-05,-0.356265,0.000951479,0.0129134,1581,1674,6.54026,-16.9921
364,-650,6.53931,16.8403,0.00105698,0.000100816,-0.000362802,0.00117905,-2.12594e-05,-0.324578,0.000793216,0.00924409,1588,1674,6.5393,-16.8404
371,-650,6.53345,16.6926,0.00094668,-9.65867e-05,-0.000352709,0.00105473,-0.00020464,-0.297274,0.000780364,0.011083,1595,1674,6.53339,-16.6926
378,-650,6.54358,16.5209,0.00098243,-0.000257388,-0.000349578,0.0010742,-0.000349161,-0.256733,0.000856582,0.0118694,1602,1674,6.54353,-16.5208
385,-650,6.55859,16.3329,0.0012538,-0.000229241,-0.000533464,0.00142576,-0.000401195,-0.311819,0.0011087,0.0141666,1609,1674,6.55859,-16.3329
392,-650,6.53247,16.1294,0.00160768,-0.000170247,-0.000851711,0.00194984,-0.000512408,-0.382,0.00150016,0.0178827,1616,1674,6.53252,-16.1294
399,-650,6.51624,15.9653,0.00184513,-6.03302e-05,-0.00114358,0.00238084,-0.000596047,-0.438095,0.00181876,0.0155299,1623,1674,6.51623,-15.9653
406,-650,6.54077,15.7943,0.00204774,-0.000136609,-0.00126574,0.00262738,-0.000716243,-0.429438,0.00203284,0.0139331,1630,1674,6.54081,-15.7944
413,-650,6.55957,15.5887,0.00253161,-0.00033625,-0.00145573,0.00314103,-0.000945678,-0.396472,0.00247034,0.0145586,1637,1674,6.55952,-15.5887
420,-650,6.52661,15.4043,0.00306928,-0.000742742,-0.00166884,0.00369662,-0.00137009,-0.359576,0.00302632,0.0144746,1644,1674,6.52663,-15.4043
427,-650,6.52173,15.2241,0.003324,-0.00148859,-0.00161918,0.00381805,-0.00198264,-0.296151,0.00340445,0.013658,1651,1674,6.52176,-15.2241
434,-650,6.52112,15.0168,0.00354724,-0.00238157,-0.00141914,0.00386942,-0.00270375,-0.223243,0.00381486,0.0169349,1658,1674,6.52111,-15.0168
441,-650,6.52295,14.812,0.0038442,-0.00354382,-0.0012849,0.00406129,-0.00376091,-0.167372,0.00451726,0.027836,1665,1674,6.52296,-14.8121
448,-650,6.36206,14.6967,0.00393223,-0.00508615,-0.000858924,0.00401331,-0.00516722,-0.0941141,0.00531432,0.0429009,1672,1674,6.36201,-14.6967
455,-650,5.98914,14.6295,0.00416359,-0.00685352,-0.00052641,0.00418868,-0.00687861,-0.0476365,0.00645231,0.0499204,1679,1674,5.98916,-14.6295
462,-650,6.56567,14.5895,0,0,0,0,0,0,0,-1,1686,1674,6.56561,-14.5895
469,-650,7.078,14.3845,0,0,0,0,0,0,0,-1,1693,1674,7.07803,-14.3845
476,-650,7.19238,14.0675,0,0,0,0,0,0,0,-1,1700,1674,7.19242,-14.0675
483,-650,5.12488,13.1473,0,0,0,0,0,0,0,-1,1707,1674,5.12488,-13.1473
490,-650,4.66724,12.7153,0,0,0,0,0,0,0,-1,1714,1674,4.6672,-12.7153
497,-650,4.27173,12.4008,0,0,0,0,0,0,0,-1,1721,1674,4.27176,-12.4007
504,-650,4.06628,11.7836,0,0,0,0,0,0,0,-1,1728,1674,4.06624,-11.7836
511,-650,4.07861,10.9446,0,0,0,0,0,0,0,-1,1735,1674,4.07861,-10.9446
518,-650,0,0,0,0,0,0,0,0,0,-1,1742,1674,0,0
525,-650,0,0,0,0,0,0,0,0,0,-1,1749,1674,0,0
532,-650,0,0,0,0,0,0,0,0,0,-1,1756,1674,0,0
539,-650,0,0,0,0,0,0,0,0,0,-1,1763,1674,0,0
546,-650,0,0,0,0,0,0,0,0,0,-1,1770,1674,0,0
553,-650,0,0,0,0,0,0,0,0,0,-1,1777,1674,0,0
560,-650,0,0,0,0,0,0,0,0,0,-1,1784,1674,0,0
567,-650,0,0,0,0,0,0,0,0,0,-1,1791,1674,0,0
574,-650,0,0,0,0,0,0,0,0,0,-1,1798,1674,0,0
581,-650,0,0,0,0,0,0,0,0,0,-1,1805,1674,0,0
588,-650,0,0,0,0,0,0,0,0,0,-1,1812,1674,0,0
595,-650,0,0,0,0,0,0,0,0,0,-1,1819,1674,0,0
602,-650,0,0,0,0,0,0,0,0,0,-1,1826,1674,0,0
609,-650,0,0,0,0,0,0,0,0,0,-1,1833,1674,0,0
616,-650,0,0,0,0,0,0,0,0,0,-1,1840,1674,0,0
623,-650,0,0,0,0,0,0,0,0,0,-1,1847,1674,0,0
630,-650,0,0,0,0,0,0,0,0,0,-1,1854,1674,0,0
637,-650,0,0,0,0,0,0,0,0,0,-1,1861,1674,0,0
644,-650,0,0,0,0,0,0,0,0,0,-1,1868,1674,0,0
651,-650,0,0,0,0,0,0,0,0,0,-1,1875,1674,0,0
658,-650,0,0,0,0,0,0,0,0,0,-1,1882,1674,0,0
665,-650,0,0,0,0,0,0,0,0,0,-1,1889,1674,0,0
672,-650,0,0,0,0,0,0,0,0,0,-1,1896,1674,0,0
679,-650,0,0,0,0,0,0,0,0,0,-1,1903,1674,0,0
686,-650,0,0,0,0,0,0,0,0,0,-1,1910,1674,0,0
693,-650,0,0,0,0,0,0,0,0,0,-1,1917,1674,0,0
700,-650,0,0,0,0,0,0,0,0,0,-1,1924,1674,0,0
707,-650,0,0,0,0,0,0,0,0,0,-1,1931,1674,0,0
714,-650,0,0,0,0,0,0,0,0,0,-1,1938,1674,0,0
721,-650,0,0,0,0,0,0,0,0,0,-1,1945,1674,0,0
728,-650,0,0,0,0,0,0,0,0,0,-1,1952,1674,0,0
735,-650,0,0,0,0,0,0,0,0,0,-1,1959,1674,0,0
742,-650,0,0,0,0,0,0,0,0,0,-1,1966,1674,0,0
749,-650,0,0,0,0,0,0,0,0,0,-1,1973,1674,0,0
756,-650,0,0,0,0,0,0,0,0,0,-1,1980,1674,0,0
763,-650,0,0,0,0,0,0,0,0,0,-1,1987,1674,0,0
770,-650,0,0,0,0,0,0,0,0,0,-1,1994,1674,0,0
777,-650,0,0,0,0,0,0,0,0,0,-1,2001,1674,0,0
784,-650,0,0,0,0,0,0,0,0,0,-1,2008,1674,0,0
791,-650,0,0,0,0,0,0,0,0,0,-1,2015,1674,0,0
798,-650,0,0,0,0,0,0,0,0,0,-1,2022,1674,0,0
805,-650,0,0,0,0,0,0,0,0,0,-1,2029,1674,0,0
812,-650,0,0,0,0,0,0,0,0,0,-1,2036,1674,0,0
-700,-657,0,0,0,0,0,0,0,0,0,-1,524,1681,0,0
-693,-657,0,0,0,0,0,0,0,0,0,-1,531,1681,0,0
-686,-657,0,0,0,0,0,0,0,0,0,-1,538,1681,0,0
-679,-657,0,0,0,0,0,0,0,0,0,-1,545,1681,0,0
-672,-657,0,0,0,0,0,0,0,0,0,-1,552,1681,0,0
-665,-657,0,0,0,0,0,0,0,0,0,-1,559,1681,0,0
-658,-657,0,0,0,0,0,0,0,0,0,-1,566,1681,0,0
-651,-657,0,0,0,0,0,0,0,0,0,-1,573,1681,0,0
-644,-657,0,0,0,0,0,0,0,0,0,-1,580,1681,0,0
-637,-657,0,0,0,0,0,0,0,0,0,-1,587,1681,0,0
-630,-657,0,0,0,0,0,0,0,0,0,-1,594,1681,0,0
-623,-657,0,0,0,0,0,0,0,0,0,-1,601,1681,0,0
-616,-657,0,0,0,0,0,0,0,0,0,-1,608,1681,0,0
-609,-657,0,0,0,0,0,0,0,0,0,-1,615,1681,0,0
-602,-657,0,0,0,0,0,0,0,0,0,-1,622,1681,0,0
-595,-657,0,0,0,0,0,0,0,0,0,-1,629,1681,0,0
-588,-657,0,0,0,0,0,0,0,0,0,-1,636,1681,0,0
-581,-657,0,0,0,0,0,0,0,0,0,-1,643,1681,0,0
-574,-657,0,0,0,0,0,0,0,0,0,-1,650,1681,0,0
-567,-657,0,0,0,0,0,0,0,0,0,-1,657,1681,0,0
-560,-657,0,0,0,0,0,0,0,0,0,-1,664,1681,0,0
-553,-657,0,0,0,0,0,0,0,0,0,-1,671,1681,0,0
-546,-657,0,0,0,0,0,0,0,0,0,-1,678,1681,0,0
-539,-657,0,0,0,0,0,0,0,0,0,-1,685,1681,0,0
-532,-657,0,0,0,0,0,0,0,0,0,-1,692,1681,0,0
-525,-657,0,0,0,0,0,0,0,0,0,-1,699,1681,0,0
-518,-657,0,0,0,0,0,0,0,0,0,-1,706,1681,0,0
-511,-657,0,0,0,0,0,0,0,0,0,-1,713,1681,0,0
-504,-657,0,0,0,0,0,0,0,0,0,-1,720,1681,0,0
-497,-657,0,0,0,0,0,0,0,0,0,-1,727,1681,0,0
-490,-657,0,0,0,0,0,0,0,0,0,-1,734,1681,0,0
-483,-657,0,0,0,0,0,0,0,0,0,-1,741,1681,0,0
-476,-657,0,0,0,0,0,0,0,0,0,-1,748,1681,0,0
-469,-657,0,0,0,0,0,0,0,0,0,-1,755,1681,0,0
-462,-657,0,0,0,0,0,0,0,0,0,-1,762,1681,0,0
-455,-657,0,0,0,0,0,0,0,0,0,-1,769,1681,0,0
-448,-657,0,0,0,0,0,0,0,0,0,-1,776,1681,0,0
-441,-657,0,0,0,0,0,0,0,0,0,-1,783,1681,0,0
-434,-657,0,0,0,0,0,0,0,0,0,-1,790,1681,0,0
-427,-657,0,0,0,0,0,0,0,0,0,-1,797,1681,0,0
-420,-657,0,0,0,0,0,0,0,0,0,-1,804,1681,0,0
-413,-657,0,0,0,0,0,0,0,0,0,-1,811,1681,0,0
-406,-657,0,0,0,0,0,0,0,0,0,-1,818,1681,0,0
-399,-657,0,0,0,0,0,0,0,0,0,-1,825,1681,0,0
-392,-657,0,0,0,0,0,0,0,0,0,-1,832,1681,0,0
-385,-657,1.09814,6.18896,0,0,0,0,0,0,0,-1,839,1681,1.09814,-6.18894
-378,-657,0.31488,4.46753,0,0,0,0,0,0,0,-1,846,1681,0.31487,-4.46755
-371,-657,-0.519043,2.69421,0,0,0,0,0,0,0,-1,853,1681,-0.519064,-2.69422
-364,-657,-3.42017,4.18323,0,0,0,0,0,0,0,-1,860,1681,-3.42019,-4.18319
-357,-657,-4.41913,2.97168,0,0,0,0,0,0,0,-1,867,1681,-4.41913,-2.97165
-350,-657,-5.42291,1.70276,0,0,0,0,0,0,0,-1,874,1681,-5.42291,-1.70277
-343,-657,-6.51294,0.397339,0,0,0,0,0,0,0,-1,881,1681,-6.51295,-0.397335
-336,-657,3.52148,10.3204,0,0,0,0,0,0,0,-1,888,1681,3.52147,-10.3204
-329,-657,3.91461,13.1803,0,0,0,0,0,0,0,-1,895,1681,3.91459,-13.1803
-322,-657,3.91248,13.4291,0.00414159,-0.0151073,0.00360836,0.00479577,-0.0157614,0.179349,0.0124188,0.0471727,902,1681,3.91247,-13.4291
-315,-657,3.82452,13.7457,0.00303574,-0.0114033,0.00175473,0.00324593,-0.0116135,0.119215,0.00902113,0.0454308,909,1681,3.82451,-13.7457
-308,-657,3.69318,14.0186,0.00197678,-0.00810243,0.000155762,0.00197919,-0.00810484,0.0154488,0.0061697,0.0377889,916,1681,3.6932,-14.0185
-301,-657,3.80444,14.1168,0.000981755,-0.00487983,-0.000971232,0.00113849,-0.00503656,-0.16,0.00379457,0.0294515,923,1681,3.80443,-14.1168
-294,-657,3.85632,14.266,9.11888e-05,-0.00206176,-0.00181624,0.001126,-0.00309657,-0.517883,0.00252484,0.0168176,930,1681,3.85631,-14.2661
-287,-657,3.85352,14.469,-0.000701458,0.000145114,-0.00229613,0.00205664,-0.00261299,-0.876549,0.00270238,0.011406,937,1681,3.85353,-14.469
-280,-657,3.83899,14.6748,-0.00135581,0.00180039,-0.00239844,0.00309333,-0.00264876,-1.07638,0.00331851,0.012018,944,1681,3.83898,-14.6748
-273,-657,3.84088,14.9017,-0.00171215,0.00270368,-0.00225014,0.00364823,-0.0026567,-1.17336,0.00365512,0.00919205,951,1681,3.84091,-14.9018
-266,-657,3.80994,15.1123,-0.00175783,0.00308089,-0.00196246,0.00377674,-0.00245368,-1.23005,0.00362407,0.0144118,958,1681,3.80993,-15.1123
-259,-657,3.81165,15.3114,-0.0017502,0.00329812,-0.00172167,0.00382937,-0.00228145,-1.2715,0.00356562,0.0185895,965,1681,3.81167,-15.3114
-252,-657,3.8208,15.4991,-0.00160922,0.0031254,-0.00128828,0.00345324,-0.00193706,-1.32161,0.00315286,0.0118979,972,1681,3.82078,-15.4992
-245,-657,3.82922,15.6987,-0.00128381,0.0025028,-0.000761337,0.00265014,-0.00143115,-1.37963,0.00239111,0.0138443,979,1681,3.82924,-15.6988
-238,-657,3.81207,15.9053,-0.000967006,0.00160058,-0.000348799,0.00164712,-0.00101355,-1.43815,0.00155059,0.0189777,986,1681,3.81205,-15.9052
-231,-657,3.82617,16.1151,-0.000477987,0.000567223,-0.000101585,0.000577004,-0.000487769,-1.4748,0.000615466,0.0194979,993,1681,3.8262,-16.1151
-224,-657,3.83759,16.3291,1.33847e-06,-0.000611603,3.75113e-05,3.62561e-06,-0.000613891,0.0608959,0.000410474,0.0152007,1000,1681,3.83757,-16.3291
-217,-657,3.83557,16.5116,0.000349341,-0.00164543,4.96392e-05,0.000350575,-0.00164667,0.0248641,0.00123139,0.0105733,1007,1681,3.83557,-16.5116
-210,-657,3.81671,16.6898,9.77648e-05,-0.00262641,0.000154697,0.000106522,-0.00263516,0.0565446,0.00179334,0.0115533,1014,1681,3.81672,-16.6899
-203,-657,3.82446,16.8782,-0.00043626,-0.00327652,0.000158164,-0.00042748,-0.00328531,0.0554577,0.00206253,0.0134937,1021,1681,3.82448,-16.8781
-196,-657,3.85229,17.0377,-0.000946748,-0.00398469,0.000116334,-0.0009423,-0.00398914,0.0382192,0.0024076,0.0129009,1028,1681,3.85224,-17.0378
-189,-657,3.85156,17.1836,-0.0016584,-0.00464561,0.000170142,-0.00164874,-0.00465527,0.0567122,0.00272556,0.00920434,1035,1681,3.85157,-17.1836
-182,-657,3.85852,17.3406,-0.00248906,-0.00521388,0.000236304,-0.00246872,-0.00523422,0.0858684,0.0030236,0.00816436,1042,1681,3.85847,-17.3406
-175,-657,3.87231,17.5037,-0.00331634,-0.00589853,0.00026117,-0.00329019,-0.00592468,0.0997966,0.00342759,0.0103641,1049,1681,3.87235,-17.5037
-168,-657,3.86328,17.6665,-0.0040716,-0.0064005,0.000459792,-0.00398411,-0.00648799,0.188033,0.0037782,0.0123128,1056,1681,3.86323,-17.6665
-161,-657,3.87488,17.7906,-0.00457768,-0.0069997,0.000725852,-0.00437681,-0.00720057,0.269981,0.00418936,0.0116139,1063,1681,3.87493,-17.7906
-154,-657,3.89917,17.9576,-0.00490513,-0.0075031,0.000873076,-0.00463899,-0.00776924,0.295885,0.00451368,0.0118578,1070,1681,3.8992,-17.9577
-147,-657,3.92822,18.1075,-0.00496055,-0.00805181,0.00102105,-0.00465374,-0.00835862,0.291896,0.0048362,0.0175812,1077,1681,3.92817,-18.1076
-140,-657,3.93152,18.2328,-0.00456703,-0.00891994,0.000921133,-0.00438013,-0.00910684,0.200184,0.0052591,0.0278562,1084,1681,3.93152,-18.2328
-133,-657,3.8634,18.3135,-0.00371766,-0.0101467,0.000856516,-0.0036055,-0.0102589,0.130201,0.00600945,0.0351577,1091,1681,3.86342,-18.3135
-126,-657,3.90173,18.1965,-0.00251142,-0.0113385,0.000953468,-0.00240961,-0.0114403,0.106381,0.00696405,0.0430038,1098,1681,3.90178,-18.1965
-119,-657,3.95593,18.528,0,0,0,0,0,0,0,-1,1105,1681,3.95598,-18.528
-112,-657,4.724,18.2513,0,0,0,0,0,0,0,-1,1112,1681,4.72397,-18.2513
-105,-657,3.82434,14.4906,0,0,0,0,0,0,0,-1,1119,1681,3.8244,-14.4906
-98,-657,3.78662,8.16785,0,0,0,0,0,0,0,-1,1126,1681,3.78663,-8.16786
-91,-657,3.6521,16.6017,0,0,0,0,0,0,0,-1,1133,1681,3.65215,-16.6017
-84,-657,4.08008,10.4579,0,0,0,0,0,0,0,-1,1140,1681,4.08006,-10.4579
-77,-657,-5.29846,0.396606,0,0,0,0,0,0,0,-1,1147,1681,-5.29842,-0.396573
-70,-657,-4.14893,2.14575,0,0,0,0,0,0,0,-1,1154,1681,-4.14893,-2.1458
-63,-657,-4.1239,3.177,0,0,0,0,0,0,0,-1,1161,1681,-4.12391,-3.17698
-56,-657,-6.40576,5.73987,0,0,0,0,0,0,0,-1,1168,1681,-6.40577,-5.7399
-49,-657,-5.98462,7.54053,0,0,0,0,0,0,0,-1,1175,1681,-5.98466,-7.5405
-42,-657,-5.71948,9.28955,0,0,0,0,0,0,0,-1,1182,1681,-5.71951,-9.2895
-35,-657,-5.44556,11.015,0,0,0,0,0,0,0,-1,1189,1681,-5.44555,-11.015
-28,-657,-1.3446,8.92847,0,0,0,0,0,0,0,-1,1196,1681,-1.34459,-8.92848
-21,-657,2.90698,13.8916,0,0,0,0,0,0,0,-1,1203,1681,2.90693,-13.8916
-14,-657,4.79285,19.6069,0,0,0,0,0,0,0,-1,1210,1681,4.79283,-19.6069
-7,-657,6.22913,24.7583,0,0,0,0,0,0,0,-1,1217,1681,6.22916,-24.7583
0,-657,5.271,22.9803,0,0,0,0,0,0,0,-1,1224,1681,5.27105,-22.9804
7,-657,4.29138,22.6429,-0.0500946,-0.00403994,-0.0391301,0.0183357,-0.0724702,-1.05135,0.0554453,0.0465788,1231,1681,4.29133,-22.6429
14,-657,3.33997,22.2942,-0.0370382,0.0114564,-0.0377521,0.0320773,-0.0576591,-1.07086,0.0525064,0.0438871,1238,1681,3.33991,-22.2942
21,-657,2.84583,22.1017,-0.0230674,0.0240392,-0.0367037,0.0440969,-0.0431251,-1.07066,0.0503587,0.0428853,1245,1681,2.8458,-22.1017
28,-657,2.76575,22.1953,-0.0116182,0.0329161,-0.0347008,0.0518797,-0.0305818,-1.07065,0.0481355,0.0421324,1252,1681,2.76579,-22.1953
35,-657,2.66467,22.4155,-0.00423442,0.0372724,-0.0288853,0.0520867,-0.0190488,-1.09691,0.042521,0.0431856,1259,1681,2.66473,-22.4155
42,-657,2.22083,22.3912,0,0,0,0,0,0,0,-1,1266,1681,2.22082,-22.3912
49,-657,2.66907,22.432,0,0,0,0,0,0,0,-1,1273,1681,2.66905,-22.432
56,-657,3.20776,23.026,0,0,0,0,0,0,0,-1,1280,1681,3.20773,-23.026
63,-657,6.47815,20.4988,0.000159441,0.0481532,-0.00441843,0.0485566,-0.000243939,-1.47975,0.0324527,0.0462508,1287,1681,6.47813,-20.4988
70,-657,7.05981,20.6002,0,0,0,0,0,0,0,-1,1294,1681,7.05986,-20.6002
77,-657,7.69775,20.6169,-0.0134462,0.0409519,0.00681257,0.0417921,-0.0142864,1.44809,0.0336501,0.0451953,1301,1681,7.69771,-20.617
84,-657,7.13562,20.5172,-0.0212469,0.0395365,0.013952,0.042586,-0.0242964,1.35561,0.0390928,0.0466935,1308,1681,7.13564,-20.5172
91,-657,6.26062,20.9504,-0.0290804,0.0370251,0.0207919,0.0430209,-0.0350762,1.29004,0.0451671,0.0485394,1315,1681,6.26062,-20.9505
98,-657,5.76099,20.9987,-0.0383245,0.0341857,0.0244783,0.0416755,-0.0458144,1.27386,0.0505312,0.0465108,1322,1681,5.76095,-20.9987
105,-657,6.53955,19.9122,-0.0469732,0.031402,0.0292063,0.0410885,-0.0566597,1.25056,0.0566731,0.0448781,1329,1681,6.53955,-19.9122
112,-657,6.65625,19.6023,-0.0507668,0.0301939,0.0318739,0.0412364,-0.0618093,1.23729,0.0598874,0.0449988,1336,1681,6.65621,-19.6023
119,-657,6.61389,19.1244,-0.053826,0.0285977,0.0354124,0.0417223,-0.0669507,1.21587,0.0633034,0.0486905,1343,1681,6.61395,-19.1244
126,-657,6.59009,18.5905,-0.0555313,0.0292161,0.0382793,0.0439461,-0.0702613,1.20346,0.0665186,0.0489531,1350,1681,6.59014,-18.5904
133,-657,6.35767,17.8494,-0.0594931,0.0311175,0.0423849,0.0478529,-0.0762285,1.19474,0.0722601,0.045331,1357,1681,6.35762,-17.8493
140,-657,7.57947,20.8002,-0.0667394,0.0342056,0.0475091,0.0530483,-0.085582,1.19321,0.0807696,0.0483457,1364,1681,7.5795,-20.8002
147,-657,6.5437,20.9501,0,0,0,0,0,0,0,-1,1371,1681,6.54373,-20.9501
154,-657,0.638062,18.3845,0,0,0,0,0,0,0,-1,1378,1681,0.638075,-18.3846
161,-657,12.8524,6.43372,0,0,0,0,0,0,0,-1,1385,1681,12.8524,-6.43366
168,-657,5.21643,0.70105,0,0,0,0,0,0,0,-1,1392,1681,5.21648,-0.7011
175,-657,5.52771,0.649048,0,0,0,0,0,0,0,-1,1399,1681,5.52774,-0.649019
182,-657,5.73999,1.02612,0,0,0,0,0,0,0,-1,1406,1681,5.73995,-1.02611
189,-657,5.92126,1.44116,0,0,0,0,0,0,0,-1,1413,1681,5.92126,-1.44115
196,-657,4.92834,9.59021,0,0,0,0,0,0,0,-1,1420,1681,4.9284,-9.59018
203,-657,6.26343,5.16492,0,0,0,0,0,0,0,-1,1427,1681,6.26345,-5.16488
210,-657,3.9856,5.28088,0,0,0,0,0,0,0,-1,1434,1681,3.98555,-5.28084
217,-657,3.95178,5.2843,0,0,0,0,0,0,0,-1,1441,1681,3.95174,-5.28431
224,-657,6.66736,-0.250244,0,0,0,0,0,0,0,-1,1448,1681,6.66737,0.250229
231,-657,6.85498,-1.70752,0,0,0,0,0,0,0,-1,1455,1681,6.855,1.70758
238,-657,5.34143,-2.89819,0,0,0,0,0,0,0,-1,1462,1681,5.34143,2.89813
245,-657,8.66003,-0.102783,0,0,0,0,0,0,0,-1,1469,1681,8.66,0.102824
252,-657,4.78955,0.623779,0,0,0,0,0,0,0,-1,1476,1681,4.7895,-0.623826
259,-657,2.61523,4.31909,0,0,0,0,0,0,0,-1,1483,1681,2.61523,-4.31908
266,-657,5.35437,11.4742,0,0,0,0,0,0,0,-1,1490,1681,5.35441,-11.4742
273,-657,6.04285,18.405,0,0,0,0,0,0,0,-1,1497,1681,6.04283,-18.405
280,-657,6.20178,18.4452,0.00762166,-0.00237447,-0.000168382,0.00762449,-0.0023773,-0.0168383,0.00603362,0.0398491,1504,1681,6.20175,-18.4452
287,-657,6.25208,18.394,0.00684667,-0.00142459,-0.000376651,0.00686379,-0.0014417,-0.045412,0.00512448,0.0299808,1511,1681,6.25213,-18.394
294,-657,6.29956,18.3352,0.00614819,-0.000914353,-0.000594714,0.00619791,-0.000964082,-0.083424,0.00448795,0.0241901,1518,1681,6.29955,-18.3352
301,-657,6.30786,18.2397,0.00543472,-0.000465635,-0.000703274,0.00551738,-0.000548302,-0.117008,0.00387398,0.0168963,1525,1681,6.30783,-18.2397
308,-657,6.31384,18.0897,0.00466802,2.79955e-05,-0.00086323,0.00482341,-0.000127396,-0.178104,0.0032589,0.0118293,1532,1681,6.31386,-18.0898
315,-657,6.31238,17.943,0.00398138,0.000365227,-0.000972335,0.00422625,0.000120361,-0.246704,0.00277825,0.0103268,1539,1681,6.31232,-17.943
322,-657,6.35706,17.777,0.00334672,0.000610304,-0.00100621,0.00367688,0.000280147,-0.317052,0.00236341,0.0127603,1546,1681,6.35708,-17.777
329,-657,6.35205,17.6074,0.00280238,0.000753943,-0.00100121,0.00321045,0.000345872,-0.38702,0.00203483,0.0193329,1553,1681,6.35208,-17.6074
336,-657,6.34058,17.488,0.00234963,0.000735084,-0.000977666,0.00281024,0.000274477,-0.440286,0.00178903,0.0166873,1560,1681,6.34059,-17.488
343,-657,6.37524,17.3545,0.00187522,0.000596757,-0.000929025,0.00236368,0.000108289,-0.484063,0.00154096,0.0131599,1567,1681,6.37525,-17.3545
350,-657,6.38586,17.1682,0.00157683,0.000423291,-0.000918282,0.00208445,-8.43302e-05,-0.504986,0.00141858,0.0148033,1574,1681,6.38588,-17.1682
357,-657,6.37488,16.9977,0.00137795,0.000277635,-0.000801154,0.00179966,-0.000144072,-0.484524,0.00125057,0.0137438,1581,1681,6.37485,-16.9977
364,-657,6.37292,16.8475,0.00133004,0.000230256,-0.000848841,0.00179154,-0.000231243,-0.497979,0.00127843,0.0106323,1588,1681,6.37297,-16.8476
371,-657,6.37122,16.6927,0.00137636,9.68976e-05,-0.000969269,0.00189798,-0.000424724,-0.493707,0.0014281,0.0147021,1595,1681,6.37128,-16.6928
378,-657,6.3667,16.5219,0.0015502,3.36025e-05,-0.00108626,0.00211666,-0.000532851,-0.480678,0.00161823,0.0137927,1602,1681,6.36674,-16.5219
385,-657,6.35815,16.3428,0.00197494,0.000128731,-0.00136806,0.00270221,-0.000598531,-0.488607,0.0020306,0.0126408,1609,1681,6.3581,-16.3427
392,-657,6.3374,16.1622,0.00246799,0.000222693,-0.00175434,0.00342814,-0.000737459,-0.500768,0.00256681,0.0131324,1616,1681,6.33745,-16.1622
399,-657,6.34668,15.9714,0.00283198,0.000273538,-0.00207299,0.00398868,-0.000883161,-0.508953,0.0029972,0.0126447,1623,1681,6.34671,-15.9714
406,-657,6.36816,15.8027,0.00310964,0.000134962,-0.00215222,0.00423845,-0.000993846,-0.483043,0.00320864,0.0134975,1630,1681,6.36814,-15.8028
413,-657,6.37109,15.6127,0.00368005,-0.000188058,-0.00230084,0.00475173,-0.00125973,-0.435896,0.00366071,0.0133601,1637,1681,6.37113,-15.6127
420,-657,6.35596,15.3668,0.00435705,-0.000693329,-0.00249625,0.00538262,-0.00171889,-0.389817,0.00427807,0.0150946,1644,1681,6.35598,-15.3668
427,-657,6.30542,15.0984,0.00470175,-0.00162177,-0.00236185,0.00548652,-0.00240654,-0.320791,0.00467128,0.0192341,1651,1681,6.30538,-15.0983
434,-657,6.36572,14.8923,0.00500832,-0.00275304,-0.00201369,0.00549967,-0.00324439,-0.239327,0.00510405,0.0273666,1658,1681,6.36571,-14.8924
441,-657,6.6123,14.8252,0.00538609,-0.00431043,-0.00172916,0.00568522,-0.00460956,-0.171296,0.0059545,0.0469575,1665,1681,6.61226,-14.8253
448,-657,5.96448,14.8713,0,0,0,0,0,0,0,-1,1672,1681,5.96451,-14.8713
455,-657,5.38831,14.8912,0,0,0,0,0,0,0,-1,1679,1681,5.38835,-14.8912
462,-657,6.44434,15.011,0,0,0,0,0,0,0,-1,1686,1681,6.44433,-15.011
469,-657,7.15662,14.5331,0,0,0,0,0,0,0,-1,1693,1681,7.15665,-14.5331
476,-657,5.72485,13.6294,0,0,0,0,0,0,0,-1,1700,1681,5.72481,-13.6294
483,-657,4.82898,13.2468,0,0,0,0,0,0,0,-1,1707,1681,4.82893,-13.2468
490,-657,4.19885,13.1021,0,0,0,0,0,0,0,-1,1714,1681,4.19881,-13.102
497,-657,3.43188,12.5037,0,0,0,0,0,0,0,-1,1721,1681,3.43183,-12.5037
504,-657,0,0,0,0,0,0,0,0,0,-1,1728,1681,0,0
511,-657,0,0,0,0,0,0,0,0,0,-1,1735,1681,0,0
518,-657,0,0,0,0,0,0,0,0,0,-1,1742,1681,0,0
525,-657,0,0,0,0,0,0,0,0,0,-1,1749,1681,0,0
532,-657,0,0,0,0,0,0,0,0,0,-1,1756,1681,0,0
539,-657,0,0,0,0,0,0,0,0,0,-1,1763,1681,0,0
546,-657,0,0,0,0,0,0,0,0,0,-1,1770,1681,0,0
553,-657,0,0,0,0,0,0,0,0,0,-1,1777,1681,0,0
560,-657,0,0,0,0,0,0,0,0,0,-1,1784,1681,0,0
567,-657,0,0,0,0,0,0,0,0,0,-1,1791,1681,0,0
574,-657,0,0,0,0,0,0,0,0,0,-1,1798,1681,0,0
581,-657,0,0,0,0,0,0,0,0,0,-1,1805,1681,0,0
588,-657,0,0,0,0,0,0,0,0,0,-1,1812,1681,0,0
595,-657,0,0,0,0,0,0,0,0,0,-1,1819,1681,0,0
602,-657,0,0,0,0,0,0,0,0,0,-1,1826,1681,0,0
609,-657,0,0,0,0,0,0,0,0,0,-1,1833,1681,0,0
616,-657,0,0,0,0,0,0,0,0,0,-1,1840,1681,0,0
623,-657,0,0,0,0,0,0,0,0,0,-1,1847,1681,0,0
630,-657,0,0,0,0,0,0,0,0,0,-1,1854,1681,0,0
637,-657,0,0,0,0,0,0,0,0,0,-1,1861,1681,0,0
644,-657,0,0,0,0,0,0,0,0,0,-1,1868,1681,0,0
651,-657,0,0,0,0,0,0,0,0,0,-1,1875,1681,0,0
658,-657,0,0,0,0,0,0,0,0,0,-1,1882,1681,0,0
665,-657,0,0,0,0,0,0,0,0,0,-1,1889,1681,0,0
672,-657,0,0,0,0,0,0,0,0,0,-1,1896,1681,0,0
679,-657,0,0,0,0,0,0,0,0,0,-1,1903,1681,0,0
686,-657,0,0,0,0,0,0,0,0,0,-1,1910,1681,0,0
693,-657,0,0,0,0,0,0,0,0,0,-1,1917,1681,0,0
700,-657,0,0,0,0,0,0,0,0,0,-1,1924,1681,0,0
707,-657,0,0,0,0,0,0,0,0,0,-1,1931,1681,0,0
714,-657,0,0,0,0,0,0,0,0,0,-1,1938,1681,0,0
721,-657,0,0,0,0,0,0,0,0,0,-1,1945,1681,0,0
728,-657,0,0,0,0,0,0,0,0,0,-1,1952,1681,0,0
735,-657,0,0,0,0,0,0,0,0,0,-1,1959,1681,0,0
742,-657,0,0,0,0,0,0,0,0,0,-1,1966,1681,0,0
749,-657,0,0,0,0,0,0,0,0,0,-1,1973,1681,0,0
756,-657,0,0,0,0,0,0,0,0,0,-1,1980,1681,0,0
763,-657,0,0,0,0,0,0,0,0,0,-1,1987,1681,0,0
770,-657,0,0,0,0,0,0,0,0,0,-1,1994,1681,0,0
777,-657,0,0,0,0,0,0,0,0,0,-1,2001,1681,0,0
784,-657,0,0,0,0,0,0,0,0,0,-1,2008,1681,0,0
791,-657,0,0,0,0,0,0,0,0,0,-1,2015,1681,0,0
798,-657,0,0,0,0,0,0,0,0,0,-1,2022,1681,0,0
805,-657,0,0,0,0,0,0,0,0,0,-1,2029,1681,0,0
812,-657,0,0,0,0,0,0,0,0,0,-1,2036,1681,0,0
-700,-664,0,0,0,0,0,0,0,0,0,-1,524,1688,0,0
-693,-664,0,0,0,0,0,0,0,0,0,-1,531,1688,0,0
-686,-664,0,0,0,0,0,0,0,0,0,-1,538,1688,0,0
-679,-664,0,0,0,0,0,0,0,0,0,-1,545,1688,0,0
-672,-664,0,0,0,0,0,0,0,0,0,-1,552,1688,0,0
-665,-664,0,0,0,0,0,0,0,0,0,-1,559,1688,0,0
-658,-664,0,0,0,0,0,0,0,0,0,-1,566,1688,0,0
-651,-664,0,0,0,0,0,0,0,0,0,-1,573,1688,0,0
-644,-664,0,0,0,0,0,0,0,0,0,-1,580,1688,0,0
-637,-664,0,0,0,0,0,0,0,0,0,-1,587,1688,0,0
-630,-664,0,0,0,0,0,0,0,0,0,-1,594,1688,0,0
-623,-664,0,0,0,0,0,0,0,0,0,-1,601,1688,0,0
-616,-664,0,0,0,0,0,0,0,0,0,-1,608,1688,0,0
-609,-664,0,0,0,0,0,0,0,0,0,-1,615,1688,0,0
-602,-664,0,0,0,0,0,0,0,0,0,-1,622,1688,0,0
-595,-664,0,0,0,0,0,0,0,0,0,-1,629,1688,0,0
-588,-664,0,0,0,0,0,0,0,0,0,-1,636,1688,0,0
-581,-664,0,0,0,0,0,0,0,0,0,-1,643,1688,0,0
-574,-664,0,0,0,0,0,0,0,0,0,-1,650,1688,0,0
-567,-664,0,0,0,0,0,0,0,0,0,-1,657,1688,0,0
-560,-664,0,0,0,0,0,0,0,0,0,-1,664,1688,0,0
-553,-664,0,0,0,0,0,0,0,0,0,-1,671,1688,0,0
-546,-664,0,0,0,0,0,0,0,0,0,-1,678,1688,0,0
-539,-664,0,0,0,0,0,0,0,0,0,-1,685,1688,0,0
-532,-664,0,0,0,0,0,0,0,0,0,-1,692,1688,0,0
-525,-664,0,0,0,0,0,0,0,0,0,-1,699,1688,0,0
-518,-664,0,0,0,0,0,0,0,0,0,-1,706,1688,0,0
-511,-664,0,0,0,0,0,0,0,0,0,-1,713,1688,0,0
-504,-664,0,0,0,0,0,0,0,0,0,-1,720,1688,0,0
-497,-664,0,0,0,0,0,0,0,0,0,-1,727,1688,0,0
-490,-664,0,0,0,0,0,0,0,0,0,-1,734,1688,0,0
-483,-664,0,0,0,0,0,0,0,0,0,-1,741,1688,0,0
-476,-664,0,0,0,0,0,0,0,0,0,-1,748,1688,0,0
-469,-664,0,0,0,0,0,0,0,0,0,-1,755,1688,0,0
-462,-664,0,0,0,0,0,0,0,0,0,-1,762,1688,0,0
-455,-664,0,0,0,0,0,0,0,0,0,-1,769,1688,0,0
-448,-664,0,0,0,0,0,0,0,0,0,-1,776,1688,0,0
-441,-664,0,0,0,0,0,0,0,0,0,-1,783,1688,0,0
-434,-664,0,0,0,0,0,0,0,0,0,-1,790,1688,0,0
-427,-664,0,0,0,0,0,0,0,0,0,-1,797,1688,0,0
-420,-664,0,0,0,0,0,0,0,0,0,-1,804,1688,0,0
-413,-664,0,0,0,0,0,0,0,0,0,-1,811,1688,0,0
-406,-664,0,0,0,0,0,0,0,0,0,-1,818,1688,0,0
-399,-664,0,0,0,0,0,0,0,0,0,-1,825,1688,0,0
-392,-664,0,0,0,0,0,0,0,0,0,-1,832,1688,0,0
-385,-664,0,0,0,0,0,0,0,0,0,-1,839,1688,0,0
-378,-664,0,0,0,0,0,0,0,0,0,-1,846,1688,0,0
-371,-664,-1.61676,5.92737,0,0,0,0,0,0,0,-1,853,1688,-1.61675,-5.92735
-364,-664,-3.901,5.87024,0,0,0,0,0,0,0,-1,860,1688,-3.90097,-5.87027
-357,-664,-4.81012,4.53479,0,0,0,0,0,0,0,-1,867,1688,-4.81012,-4.5348
-350,-664,-5.7193,3.19934,0,0,0,0,0,0,0,-1,874,1688,-5.71927,-3.19932
-343,-664,-6.37476,1.54712,0,0,0,0,0,0,0,-1,881,1688,-6.37479,-1.54714
-336,-664,3.33313,10.5156,0,0,0,0,0,0,0,-1,888,1688,3.33311,-10.5156
-329,-664,3.43506,10.6934,0,0,0,0,0,0,0,-1,895,1688,3.43506,-10.6934
-322,-664,4.13647,13.4712,0,0,0,0,0,0,0,-1,902,1688,4.13649,-13.4712
-315,-664,3.57965,14.0968,0.00356193,-0.0134363,0.00133703,0.00366646,-0.0135409,0.0780176,0.0104657,0.0469509,909,1688,3.57964,-14.0968
-308,-664,3.73248,14.5313,0.0020435,-0.00879882,-0.000898601,0.00211747,-0.00887279,-0.0821323,0.00673294,0.0468695,916,1688,3.73251,-14.5312
-301,-664,3.82227,14.5209,0.000628192,-0.00455999,-0.00238276,0.00155644,-0.00548823,-0.371481,0.00427319,0.0463784,923,1688,3.82225,-14.5209
-294,-664,3.9361,14.3707,-0.000642306,-0.000975512,-0.00344361,0.00263873,-0.00425655,-0.761227,0.00401735,0.0416626,930,1688,3.9361,-14.3707
-287,-664,4.10352,14.5023,-0.000247804,0.00185589,-0.00479913,0.0057171,-0.00410901,-0.89328,0.00569837,0.0281098,937,1688,4.10353,-14.5023
-280,-664,4.00482,14.7167,-0.000175433,0.00369038,-0.00495981,0.00708062,-0.00356567,-0.971202,0.00625731,0.0187222,944,1688,4.00482,-14.7167
-273,-664,4.03412,14.8761,-0.000186145,0.00452964,-0.00455411,0.00730006,-0.00295656,-1.02427,0.00609609,0.0151872,951,1688,4.03414,-14.8761
-266,-664,3.99365,15.0883,0.000232296,0.00481953,-0.00414327,0.00726167,-0.00220984,-1.03819,0.00572179,0.0223194,958,1688,3.99365,-15.0882
-259,-664,3.99536,15.3064,0.000655434,0.00491324,-0.00374808,0.00709482,-0.00152615,-1.04368,0.00531218,0.0192223,965,1688,3.99538,-15.3064
-252,-664,4.0235,15.5204,0.00110376,0.00461274,-0.0030139,0.00634563,-0.000629132,-1.04899,0.00445496,0.0158453,972,1688,4.02351,-15.5204
-245,-664,3.99408,15.7152,0.00153139,0.00380424,-0.00216142,0.00510978,0.000225849,-1.02743,0.00333379,0.0195538,979,1688,3.9941,-15.7153
-238,-664,4.02832,15.9043,0.00171825,0.00273113,-0.00139522,0.00370898,0.000740395,-0.959496,0.00226653,0.021551,986,1688,4.0283,-15.9043
-231,-664,4.06073,16.1113,0.00191767,0.00155468,-0.000760721,0.00251825,0.000954105,-0.668298,0.00146806,0.0181954,993,1688,4.06071,-16.1113
-224,-664,4.05151,16.3293,0.00206365,0.000276228,-0.0002383,0.00209487,0.000245003,-0.130289,0.0013225,0.0134256,1000,1688,4.05151,-16.3294
-217,-664,4.01385,16.5118,0.00205163,-0.000724118,9.3194e-05,0.00205476,-0.000727244,0.033524,0.00166603,0.0109328,1007,1688,4.01385,-16.5118
-210,-664,3.99182,16.6884,0.00160005,-0.00159378,0.000335313,0.00163487,-0.0016286,0.103484,0.00188417,0.012183,1014,1688,3.99181,-16.6884
-203,-664,3.98022,16.8563,0.000896309,-0.00217356,0.000401975,0.000948072,-0.00222533,0.128066,0.00188098,0.0141413,1021,1688,3.98027,-16.8563
-196,-664,3.99512,17.0132,0.000237717,-0.00272747,0.000338824,0.000275941,-0.00276569,0.112338,0.00194232,0.0135344,1028,1688,3.99507,-17.0131
-189,-664,4.01941,17.1776,-0.000475231,-0.00320807,0.000324139,-0.000437312,-0.00324599,0.116456,0.00203395,0.0090084,1035,1688,4.01945,-17.1776
-182,-664,4.02258,17.3304,-0.00130784,-0.00363935,0.000347533,-0.00125714,-0.00369005,0.144865,0.0021662,0.00882319,1042,1688,4.02258,-17.3304
-175,-664,4.02979,17.4677,-0.00180495,-0.00418804,0.000162005,-0.00179399,-0.004199,0.0675667,0.00243283,0.0118906,1049,1688,4.02978,-17.4677
-168,-664,4.02991,17.6278,-0.00213984,-0.00453193,0.000140336,-0.00213164,-0.00454013,0.0583998,0.00262287,0.0134993,1056,1688,4.02994,-17.6279
-161,-664,4.03735,17.7946,-0.0022993,-0.00499849,0.000250421,-0.00227626,-0.00502153,0.0917328,0.00290339,0.00964877,1063,1688,4.03736,-17.7946
-154,-664,4.05225,17.9496,-0.00231805,-0.00535914,0.00026047,-0.0022959,-0.00538129,0.0848267,0.00311801,0.00919654,1070,1688,4.0523,-17.9496
-147,-664,4.04895,18.0936,-0.00211904,-0.00577521,0.000271598,-0.00209898,-0.00579528,0.0737452,0.00338801,0.0106442,1077,1688,4.04892,-18.0936
-140,-664,4.07227,18.2417,-0.00164904,-0.00640904,0.000125295,-0.00164574,-0.00641233,0.0262982,0.00384554,0.0109067,1084,1688,4.07222,-18.2416
-133,-664,4.11023,18.3838,-0.000871335,-0.00733052,3.54507e-05,-0.00087114,-0.00733071,0.0054882,0.0046242,0.0120697,1091,1688,4.11025,-18.3837
-126,-664,4.18579,18.5234,0.000170508,-0.00819238,0.000127961,0.000172465,-0.00819434,0.0152963,0.00552128,0.0225323,1098,1688,4.18582,-18.5234
-119,-664,4.36145,18.5529,0.00152472,-0.00901711,0.000155332,0.00152701,-0.00901939,0.0147306,0.00658125,0.0368531,1105,1688,4.3615,-18.5529
-112,-664,4.55347,18.531,0.00315292,-0.00977778,0.000137872,0.00315439,-0.00977925,0.0106607,0.00778693,0.044917,1112,1688,4.5535,-18.531
-105,-664,4.53162,18.3828,0,0,0,0,0,0,0,-1,1119,1688,4.53156,-18.3828
-98,-664,4.1123,17.1851,0,0,0,0,0,0,0,-1,1126,1688,4.11232,-17.1851
-91,-664,3.7981,16.9382,0,0,0,0,0,0,0,-1,1133,1688,3.79811,-16.9382
-84,-664,3.48389,16.6913,0,0,0,0,0,0,0,-1,1140,1688,3.4839,-16.6913
-77,-664,4.52014,11.2122,0,0,0,0,0,0,0,-1,1147,1688,4.5202,-11.2122
-70,-664,4.20374,8.24524,0,0,0,0,0,0,0,-1,1154,1688,4.20379,-8.24519
-63,-664,-4.677,2.40503,0,0,0,0,0,0,0,-1,1161,1688,-4.67702,-2.40498
-56,-664,-4.66504,3.32727,0,0,0,0,0,0,0,-1,1168,1688,-4.6651,-3.32724
-49,-664,-2.54297,3.31848,0,0,0,0,0,0,0,-1,1175,1688,-2.54297,-3.31852
-42,-664,-0.359253,4.38684,0,0,0,0,0,0,0,-1,1182,1688,-0.359261,-4.38685
-35,-664,-0.705566,3.55017,0,0,0,0,0,0,0,-1,1189,1688,-0.705567,-3.55023
-28,-664,-1.54236,10.2538,0,0,0,0,0,0,0,-1,1196,1688,-1.54236,-10.2538
-21,-664,4.68835,19.5597,0,0,0,0,0,0,0,-1,1203,1688,4.6884,-19.5597
-14,-664,4.7229,19.5969,0,0,0,0,0,0,0,-1,1210,1688,4.72284,-19.5969
-7,-664,4.75732,19.6342,0,0,0,0,0,0,0,-1,1217,1688,4.75728,-19.6342
0,-664,5.51611,22.8682,-0.0471654,-0.00943543,-0.038287,0.0143819,-0.0709828,-1.0143,0.0527732,0.0459803,1224,1688,5.51616,-22.8681
7,-664,4.9115,22.5442,-0.03782,0.00452318,-0.0370837,0.0260533,-0.0593502,-1.04478,0.0505414,0.0460172,1231,1688,4.91145,-22.5442
14,-664,5.63025,22.3726,-0.0268331,0.0172439,-0.0363505,0.0377149,-0.0473041,-1.05791,0.0491897,0.0434761,1238,1688,5.63024,-22.3725
21,-664,4.83789,22.3398,-0.0151569,0.0274853,-0.0356242,0.0476813,-0.035353,-1.05506,0.0481157,0.0467396,1245,1688,4.83789,-22.3399
28,-664,3.97815,22.1677,-0.00565258,0.0345998,-0.0337158,0.0537396,-0.0247924,-1.05448,0.0463558,0.0464846,1252,1688,3.97816,-22.1677
35,-664,3.29309,21.8618,0.00068211,0.0380132,-0.0288166,0.0536813,-0.014986,-1.07279,0.0416906,0.0456216,1259,1688,3.29303,-21.8618
42,-664,2.56372,21.6361,0,0,0,0,0,0,0,-1,1266,1688,2.56368,-21.6361
49,-664,3.36072,21.9255,0.00559616,0.0471312,-0.0177764,0.0537003,-0.000972936,-1.21682,0.0361289,0.0421344,1273,1688,3.36072,-21.9256
56,-664,7.35657,20.8389,0,0,0,0,0,0,0,-1,1280,1688,7.35654,-20.8389
63,-664,7.20532,21.6926,0,0,0,0,0,0,0,-1,1287,1688,7.20538,-21.6926
70,-664,6.98706,20.453,0,0,0,0,0,0,0,-1,1294,1688,6.98701,-20.453
77,-664,6.93176,20.3494,-0.00662429,0.0349297,0.00347171,0.0352178,-0.00691235,1.48801,0.0260897,0.0412762,1301,1688,6.9318,-20.3493
84,-664,6.84436,20.2267,-0.0122369,0.0324019,0.009726,0.0344289,-0.0142639,1.36532,0.0289052,0.0463767,1308,1688,6.84432,-20.2267
91,-664,6.26538,20.1952,-0.0179424,0.0292629,0.015938,0.0341402,-0.0228196,1.27383,0.0331016,0.0443057,1315,1688,6.2654,-20.1952
98,-664,6.30042,20.6831,0,0,0,0,0,0,0,-1,1322,1688,6.30042,-20.6831
105,-664,6.35486,20.2094,-0.0310971,0.0229117,0.0237897,0.031896,-0.0400815,1.2097,0.0416457,0.0489032,1329,1688,6.35481,-20.2093
112,-664,6.39136,19.7686,-0.0328167,0.021605,0.0263526,0.032274,-0.0434858,1.18611,0.0438994,0.0452286,1336,1688,6.3913,-19.7686
119,-664,6.3551,19.2374,-0.0343872,0.0202445,0.0298969,0.0334254,-0.047568,1.15556,0.0469986,0.0484987,1343,1688,6.35504,-19.2374
126,-664,7.17419,19.8477,0,0,0,0,0,0,0,-1,1350,1688,7.17425,-19.8477
133,-664,7.82104,20.181,0,0,0,0,0,0,0,-1,1357,1688,7.8211,-20.181
140,-664,7.04199,20.6322,0,0,0,0,0,0,0,-1,1364,1688,7.042,-20.6322
147,-664,6.02551,20.8337,0,0,0,0,0,0,0,-1,1371,1688,6.02547,-20.8337
154,-664,13.5482,5.89453,0,0,0,0,0,0,0,-1,1378,1688,13.5482,-5.8945
161,-664,4.60132,1.56238,0,0,0,0,0,0,0,-1,1385,1688,4.60134,-1.56233
168,-664,5.172,1.25488,0,0,0,0,0,0,0,-1,1392,1688,5.17203,-1.25484
175,-664,5.58313,1.16467,0,0,0,0,0,0,0,-1,1399,1688,5.58317,-1.16466
182,-664,5.74268,1.41113,0,0,0,0,0,0,0,-1,1406,1688,5.74263,-1.41115
189,-664,5.87744,1.87061,0,0,0,0,0,0,0,-1,1413,1688,5.87745,-1.87065
196,-664,6.7594,5.97473,0,0,0,0,0,0,0,-1,1420,1688,6.75943,-5.97478
203,-664,5.38452,5.22034,0,0,0,0,0,0,0,-1,1427,1688,5.38453,-5.2203
210,-664,5.25549,6.45715,0,0,0,0,0,0,0,-1,1434,1688,5.25549,-6.45721
217,-664,5.72009,6.73975,0,0,0,0,0,0,0,-1,1441,1688,5.72014,-6.73972
224,-664,5.05725,7.42908,0,0,0,0,0,0,0,-1,1448,1688,5.05723,-7.42912
231,-664,5.13318,7.60864,0,0,0,0,0,0,0,-1,1455,1688,5.13313,-7.60862
238,-664,4.23193,6.45471,0,0,0,0,0,0,0,-1,1462,1688,4.23197,-6.45476
245,-664,4.42004,6.80896,0,0,0,0,0,0,0,-1,1469,1688,4.4201,-6.80901
252,-664,3.67346,6.85461,0,0,0,0,0,0,0,-1,1476,1688,3.6734,-6.85462
259,-664,4.55823,11.7435,0,0,0,0,0,0,0,-1,1483,1688,4.55826,-11.7435
266,-664,6.03076,18.5287,0,0,0,0,0,0,0,-1,1490,1688,6.03073,-18.5287
273,-664,6.01782,18.5479,0.00581448,-0.0034865,0.000140614,0.0058166,-0.00348862,0.0151136,0.00542813,0.0414628,1497,1688,6.01778,-18.5478
280,-664,6.09155,18.5286,0.00548809,-0.00269314,-1.15205e-05,0.0054881,-0.00269315,-0.00140816,0.00481445,0.0220153,1504,1688,6.09157,-18.5286
287,-664,6.06982,18.425,0.00495401,-0.00176894,-0.000157839,0.00495772,-0.00177265,-0.0234604,0.00402821,0.0195648,1511,1688,6.06988,-18.425
294,-664,6.13831,18.332,0.0045111,-0.00119584,-0.00030571,0.00452743,-0.00121217,-0.0533645,0.00349317,0.0143395,1518,1688,6.13832,-18.3321
301,-664,6.16919,18.2233,0.0040427,-0.000717175,-0.000394946,0.00407525,-0.000749723,-0.0822247,0.00299815,0.0103772,1525,1688,6.16919,-18.2233
308,-664,6.17139,18.0626,0.00351863,-0.000190509,-0.000534065,0.003594,-0.000265876,-0.140193,0.00248936,0.0107755,1532,1688,6.17137,-18.0627
315,-664,6.18518,17.9358,0.00304476,0.000159417,-0.000639618,0.00318019,2.39839e-05,-0.208658,0.00211218,0.0111562,1539,1688,6.18521,-17.9359
322,-664,6.23364,17.8038,0.00262164,0.000432763,-0.000716032,0.00283506,0.000219341,-0.289678,0.00182133,0.0142796,1546,1688,6.23367,-17.8038
329,-664,6.20605,17.6428,0.00227129,0.000580785,-0.000803397,0.00259219,0.000259892,-0.380007,0.00164834,0.0171335,1553,1688,6.20608,-17.6428
336,-664,6.198,17.4799,0.0019812,0.000581605,-0.00087001,0.00239793,0.000164875,-0.446703,0.00154659,0.0146448,1560,1688,6.19804,-17.4799
343,-664,6.21423,17.3313,0.00167822,0.000507235,-0.000959167,0.00221647,-3.1019e-05,-0.511377,0.00148809,0.0116564,1567,1688,6.21427,-17.3313
350,-664,6.21265,17.1636,0.00150645,0.000352903,-0.00107015,0.00214536,-0.000286004,-0.538231,0.00153449,0.0128429,1574,1688,6.2127,-17.1636
357,-664,6.20203,17.0048,0.00146031,0.000248054,-0.00109362,0.00210454,-0.000396173,-0.532351,0.00155203,0.0125057,1581,1688,6.20206,-17.0047
364,-664,6.20276,16.8488,0.00157004,0.000225886,-0.00125327,0.00232006,-0.000524139,-0.539283,0.00174782,0.0104699,1588,1688,6.20281,-16.8487
371,-664,6.21204,16.6782,0.00175089,7.20756e-05,-0.00149704,0.0026278,-0.000804835,-0.529884,0.0020729,0.0130313,1595,1688,6.21205,-16.6782
378,-664,6.20313,16.5106,0.00206084,5.82419e-05,-0.00172368,0.00305294,-0.000933864,-0.522267,0.00240773,0.0121285,1602,1688,6.20311,-16.5106
385,-664,6.18433,16.3578,0.00264834,0.00020016,-0.00211702,0.00386969,-0.00102119,-0.523275,0.00297911,0.0118847,1609,1688,6.18432,-16.3578
392,-664,6.14966,16.1923,0.00331397,0.000369225,-0.00259688,0.00482684,-0.00114365,-0.527506,0.00365918,0.0150214,1616,1688,6.14966,-16.1922
399,-664,6.15161,15.9761,0.0038989,0.000381046,-0.00297202,0.00559349,-0.00131354,-0.518203,0.00423529,0.013506,1623,1688,6.15159,-15.976
406,-664,6.17822,15.7792,0.00437881,0.000220274,-0.00306344,0.00600198,-0.00140289,-0.487242,0.00454175,0.0131463,1630,1688,6.17822,-15.7791
413,-664,6.20569,15.5659,0.00517593,-0.00017529,-0.00322805,0.00669308,-0.00169244,-0.439351,0.0051203,0.0135309,1637,1688,6.20568,-15.5659
420,-664,6.21252,15.3026,0.00613609,-0.000703169,-0.00346424,0.00758419,-0.00215127,-0.39594,0.00590531,0.0293319,1644,1688,6.21257,-15.3026
427,-664,6.22583,15.0922,0.00672075,-0.00176472,-0.00330336,0.0078551,-0.00289906,-0.330775,0.00642493,0.0475232,1651,1688,6.22582,-15.0921
434,-664,6.4071,14.8519,0.00724344,-0.00304827,-0.00286499,0.00798724,-0.00379206,-0.254008,0.00694307,0.0469564,1658,1688,6.40709,-14.8519
441,-664,6.54993,14.5924,0,0,0,0,0,0,0,-1,1665,1688,6.54995,-14.5924
448,-664,6.72021,14.6824,0,0,0,0,0,0,0,-1,1672,1688,6.72025,-14.6823
455,-664,7.53198,11.3838,0,0,0,0,0,0,0,-1,1679,1688,7.53195,-11.3838
462,-664,4.3147,4.25439,0,0,0,0,0,0,0,-1,1686,1688,4.31467,-4.25435
469,-664,6.05469,7.49341,0,0,0,0,0,0,0,-1,1693,1688,6.05474,-7.49339
476,-664,9.76514,11.5648,0,0,0,0,0,0,0,-1,1700,1688,9.76511,-11.5648
483,-664,8.41895,10.9768,0,0,0,0,0,0,0,-1,1707,1688,8.41897,-10.9769
490,-664,3.90771,13.2842,0,0,0,0,0,0,0,-1,1714,1688,3.90776,-13.2841
497,-664,0,0,0,0,0,0,0,0,0,-1,1721,1688,0,0
504,-664,0,0,0,0,0,0,0,0,0,-1,1728,1688,0,0
511,-664,0,0,0,0,0,0,0,0,0,-1,1735,1688,0,0
518,-664,0,0,0,0,0,0,0,0,0,-1,1742,1688,0,0
525,-664,0,0,0,0,0,0,0,0,0,-1,1749,1688,0,0
532,-664,0,0,0,0,0,0,0,0,0,-1,1756,1688,0,0
539,-664,0,0,0,0,0,0,0,0,0,-1,1763,1688,0,0
546,-664,0,0,0,0,0,0,0,0,0,-1,1770,1688,0,0
553,-664,0,0,0,0,0,0,0,0,0,-1,1777,1688,0,0
560,-664,0,0,0,0,0,0,0,0,0,-1,1784,1688,0,0
567,-664,0,0,0,0,0,0,0,0,0,-1,1791,1688,0,0
574,-664,0,0,0,0,0,0,0,0,0,-1,1798,1688,0,0
581,-664,0,0,0,0,0,0,0,0,0,-1,1805,1688,0,0
588,-664,0,0,0,0,0,0,0,0,0,-1,1812,1688,0,0
595,-664,0,0,0,0,0,0,0,0,0,-1,1819,1688,0,0
602,-664,0,0,0,0,0,0,0,0,0,-1,1826,1688,0,0
609,-664,0,0,0,0,0,0,0,0,0,-1,1833,1688,0,0
616,-664,0,0,0,0,0,0,0,0,0,-1,1840,1688,0,0
623,-664,0,0,0,0,0,0,0,0,0,-1,1847,1688,0,0
630,-664,0,0,0,0,0,0,0,0,0,-1,1854,1688,0,0
637,-664,0,0,0,0,0,0,0,0,0,-1,1861,1688,0,0
644,-664,0,0,0,0,0,0,0,0,0,-1,1868,1688,0,0
651,-664,0,0,0,0,0,0,0,0,0,-1,1875,1688,0,0
658,-664,0,0,0,0,0,0,0,0,0,-1,1882,1688,0,0
665,-664,0,0,0,0,0,0,0,0,0,-1,1889,1688,0,0
672,-664,0,0,0,0,0,0,0,0,0,-1,1896,1688,0,0
679,-664,0,0,0,0,0,0,0,0,0,-1,1903,1688,0,0
686,-664,0,0,0,0,0,0,0,0,0,-1,1910,1688,0,0
693,-664,0,0,0,0,0,0,0,0,0,-1,1917,1688,0,0
700,-664,0,0,0,0,0,0,0,0,0,-1,1924,1688,0,0
707,-664,0,0,0,0,0,0,0,0,0,-1,1931,1688,0,0
714,-664,0,0,0,0,0,0,0,0,0,-1,1938,1688,0,0
721,-664,0,0,0,0,0,0,0,0,0,-1,1945,1688,0,0
728,-664,0,0,0,0,0,0,0,0,0,-1,1952,1688,0,0
735,-664,0,0,0,0,0,0,0,0,0,-1,1959,1688,0,0
742,-664,0,0,0,0,0,0,0,0,0,-1,1966,1688,0,0
749,-664,0,0,0,0,0,0,0,0,0,-1,1973,1688,0,0
756,-664,0,0,0,0,0,0,0,0,0,-1,1980,1688,0,0
763,-664,0,0,0,0,0,0,0,0,0,-1,1987,1688,0,0
770,-664,0,0,0,0,0,0,0,0,0,-1,1994,1688,0,0
777,-664,0,0,0,0,0,0,0,0,0,-1,2001,1688,0,0
784,-664,0,0,0,0,0,0,0,0,0,-1,2008,1688,0,0
791,-664,0,0,0,0,0,0,0,0,0,-1,2015,1688,0,0
798,-664,0,0,0,0,0,0,0,0,0,-1,2022,1688,0,0
805,-664,0,0,0,0,0,0,0,0,0,-1,2029,1688,0,0
812,-664,0,0,0,0,0,0,0,0,0,-1,2036,1688,0,0
-700,-671,0,0,0,0,0,0,0,0,0,-1,524,1695,0,0
-693,-671,0,0,0,0,0,0,0,0,0,-1,531,1695,0,0
-686,-671,0,0,0,0,0,0,0,0,0,-1,538,1695,0,0
-679,-671,0,0,0,0,0,0,0,0,0,-1,545,1695,0,0
-672,-671,0,0,0,0,0,0,0,0,0,-1,552,1695,0,0
-665,-671,0,0,0,0,0,0,0,0,0,-1,559,1695,0,0
-658,-671,0,0,0,0,0,0,0,0,0,-1,566,1695,0,0
-651,-671,0,0,0,0,0,0,0,0,0,-1,573,1695,0,0
-644,-671,0,0,0,0,0,0,0,0,0,-1,580,1695,0,0
-637,-671,0,0,0,0,0,0,0,0,0,-1,587,1695,0,0
-630,-671,0,0,0,0,0,0,0,0,0,-1,594,1695,0,0
-623,-671,0,0,0,0,0,0,0,0,0,-1,601,1695,0,0
-616,-671,0,0,0,0,0,0,0,0,0,-1,608,1695,0,0
-609,-671,0,0,0,0,0,0,0,0,0,-1,615,1695,0,0
-602,-671,0,0,0,0,0,0,0,0,0,-1,622,1695,0,0
-595,-671,0,0,0,0,0,0,0,0,0,-1,629,1695,0,0
-588,-671,0,0,0,0,0,0,0,0,0,-1,636,1695,0,0
-581,-671,0,0,0,0,0,0,0,0,0,-1,643,1695,0,0
-574,-671,0,0,0,0,0,0,0,0,0,-1,650,1695,0,0
-567,-671,0,0,0,0,0,0,0,0,0,-1,657,1695,0,0
-560,-671,0,0,0,0,0,0,0,0,0,-1,664,1695,0,0
-553,-671,0,0,0,0,0,0,0,0,0,-1,671,1695,0,0
-546,-671,0,0,0,0,0,0,0,0,0,-1,678,1695,0,0
-539,-671,0,0,0,0,0,0,0,0,0,-1,685,1695,0,0
-532,-671,0,0,0,0,0,0,0,0,0,-1,692,1695,0,0
-525,-671,0,0,0,0,0,0,0,0,0,-1,699,1695,0,0
-518,-671,0,0,0,0,0,0,0,0,0,-1,706,1695,0,0
-511,-671,0,0,0,0,0,0,0,0,0,-1,713,1695,0,0
-504,-671,0,0,0,0,0,0,0,0,0,-1,720,1695,0,0
-497,-671,0,0,0,0,0,0,0,0,0,-1,727,1695,0,0
-490,-671,0,0,0,0,0,0,0,0,0,-1,734,1695,0,0
-483,-671,0,0,0,0,0,0,0,0,0,-1,741,1695,0,0
-476,-671,0,0,0,0,0,0,0,0,0,-1,748,1695,0,0
-469,-671,0,0,0,0,0,0,0,0,0,-1,755,1695,0,0
-462,-671,0,0,0,0,0,0,0,0,0,-1,762,1695,0,0
-455,-671,0,0,0,0,0,0,0,0,0,-1,769,1695,0,0
-448,-671,0,0,0,0,0,0,0,0,0,-1,776,1695,0,0
-441,-671,0,0,0,0,0,0,0,0,0,-1,783,1695,0,0
-434,-671,0,0,0,0,0,0,0,0,0,-1,790,1695,0,0
-427,-671,0,0,0,0,0,0,0,0,0,-1,797,1695,0,0
-420,-671,0,0,0,0,0,0,0,0,0,-1,804,1695,0,0
-413,-671,0,0,0,0,0,0,0,0,0,-1,811,1695,0,0
-406,-671,0,0,0,0,0,0,0,0,0,-1,818,1695,0,0
-399,-671,0,0,0,0,0,0,0,0,0,-1,825,1695,0,0
-392,-671,0,0,0,0,0,0,0,0,0,-1,832,1695,0,0
-385,-671,0,0,0,0,0,0,0,0,0,-1,839,1695,0,0
-378,-671,0,0,0,0,0,0,0,0,0,-1,846,1695,0,0
-371,-671,0,0,0,0,0,0,0,0,0,-1,853,1695,0,0
-364,-671,-4.18738,7.51416,0,0,0,0,0,0,0,-1,860,1695,-4.18739,-7.51419
-357,-671,-5.02393,6.07129,0,0,0,0,0,0,0,-1,867,1695,-5.0239,-6.07135
-350,-671,-5.72333,4.58386,0,0,0,0,0,0,0,-1,874,1695,-5.72333,-4.58386
-343,-671,-6.4884,3.11353,0,0,0,0,0,0,0,-1,881,1695,-6.48839,-3.11349
-336,-671,-7.30127,1.64417,0,0,0,0,0,0,0,-1,888,1695,-7.30127,-1.64414
-329,-671,3.58337,10.6238,0,0,0,0,0,0,0,-1,895,1695,3.58338,-10.6238
-322,-671,3.75763,10.859,0,0,0,0,0,0,0,-1,902,1695,3.75766,-10.8591
-315,-671,3.82196,14.8956,0,0,0,0,0,0,0,-1,909,1695,3.82196,-14.8956
-308,-671,3.67993,15.2211,0,0,0,0,0,0,0,-1,916,1695,3.67993,-15.2211
-301,-671,3.86182,14.8029,0,0,0,0,0,0,0,-1,923,1695,3.86181,-14.8028
-294,-671,4.01581,14.3855,-0.00194228,0.00126838,-0.00597604,0.00585095,-0.00652486,-0.916614,0.00714871,0.0499947,930,1695,4.01578,-14.3855
-287,-671,4.41528,14.3119,-0.000134486,0.00479553,-0.00819971,0.0108927,-0.00623169,-0.931412,0.0100081,0.0417398,937,1695,4.4153,-14.3119
-280,-671,4.4115,14.5189,0.000817791,0.00626205,-0.00813518,0.0121184,-0.0050386,-0.946849,0.0101829,0.034943,944,1695,4.41148,-14.5189
-273,-671,4.41315,14.7994,0.00128765,0.00666731,-0.00737928,0.0118317,-0.00387675,-0.96017,0.00944898,0.0348675,951,1695,4.41312,-14.7994
-266,-671,4.32117,15.1573,0.00222926,0.00640363,-0.00675322,0.0113848,-0.00275195,-0.935275,0.00865431,0.026425,958,1695,4.32119,-15.1574
-259,-671,4.17816,15.3616,0.00309516,0.00578868,-0.00615024,0.0107379,-0.00185405,-0.893186,0.00784994,0.0235339,965,1695,4.17817,-15.3615
-252,-671,4.1936,15.5414,0.00386004,0.00500829,-0.00507411,0.00954065,-0.000672329,-0.841733,0.00659598,0.0171507,972,1695,4.19363,-15.5414
-245,-671,4.19757,15.7334,0.00443484,0.00372178,-0.00389957,0.00799414,0.000162482,-0.739811,0.0052761,0.0195303,979,1695,4.19759,-15.7334
-238,-671,4.2337,15.9089,0.00458281,0.00226177,-0.00281585,0.00646791,0.000376669,-0.589934,0.00419203,0.0189462,986,1695,4.2337,-15.909
-231,-671,4.26306,16.1095,0.00460735,0.000801653,-0.00182576,0.00534159,6.74108e-05,-0.382364,0.00353881,0.0143501,993,1695,4.26303,-16.1095
-224,-671,4.2171,16.3057,0.00458084,-0.000690283,-0.000954639,0.00474841,-0.000857848,-0.173757,0.00348691,0.0119925,1000,1695,4.21713,-16.3057
-217,-671,4.18127,16.4779,0.00433913,-0.00168252,-0.00033234,0.00435742,-0.0017008,-0.0549684,0.00360807,0.0124105,1007,1695,4.18127,-16.4779
-210,-671,4.17908,16.6724,0.00367309,-0.0023543,0.000102696,0.00367484,-0.00235605,0.0170316,0.00350958,0.0119464,1014,1695,4.17907,-16.6724
-203,-671,4.1355,16.8375,0.00273459,-0.00267651,0.000310298,0.00275233,-0.00269425,0.0570952,0.00314464,0.0195442,1021,1695,4.13544,-16.8375
-196,-671,4.15381,17.001,0.00186212,-0.00287262,0.000320145,0.00188367,-0.00289417,0.0672085,0.00277897,0.0165556,1028,1695,4.15376,-17.001
-189,-671,4.19836,17.2079,0.00103921,-0.00296057,0.000343589,0.00106851,-0.00298987,0.0850716,0.00242906,0.0122094,1035,1695,4.19833,-17.2079
-182,-671,4.17737,17.3374,-4.93852e-05,-0.00307153,0.000514519,3.58097e-05,-0.00315672,0.164093,0.00211652,0.0102106,1042,1695,4.17732,-17.3374
-175,-671,4.18286,17.4679,-0.00047243,-0.00320357,0.000214284,-0.00045572,-0.00322028,0.0778249,0.00201222,0.0126925,1049,1695,4.1829,-17.4679
-168,-671,4.18945,17.6185,-0.000575451,-0.00319381,3.3555e-05,-0.000575021,-0.00319424,0.0128125,0.00196605,0.0138398,1056,1695,4.18942,-17.6185
-161,-671,4.18982,17.7931,-0.00058999,-0.00338261,5.62614e-05,-0.000588857,-0.00338374,0.0201356,0.00208741,0.00930416,1063,1695,4.18977,-17.7931
-154,-671,4.19641,17.9381,-0.000491039,-0.00354033,-1.99948e-05,-0.000490908,-0.00354046,-0.00655682,0.00221488,0.00862373,1070,1695,4.19643,-17.9381
-147,-671,4.19751,18.0944,-0.000233479,-0.00382341,-0.000108501,-0.000230202,-0.00382668,-0.030187,0.00247796,0.0102364,1077,1695,4.1975,-18.0944
-140,-671,4.22351,18.244,0.000177761,-0.00427379,-0.00028261,0.000195631,-0.00429166,-0.0631478,0.00292849,0.0110461,1084,1695,4.22345,-18.244
-133,-671,4.23987,18.3759,0.000800237,-0.00498173,-0.000384895,0.000825746,-0.00500724,-0.0661789,0.00364472,0.0131061,1091,1695,4.23987,-18.3758
-126,-671,4.24268,18.5441,0.00161391,-0.00564948,-0.000288517,0.00162536,-0.00566092,-0.0396388,0.00441657,0.0160572,1098,1695,4.24263,-18.5441
-119,-671,4.25366,18.6884,0.00267514,-0.00635165,-0.000235015,0.00268125,-0.00635776,-0.0260118,0.00536064,0.0285881,1105,1695,4.2537,-18.6883
-112,-671,4.30945,18.8068,0.003876,-0.00694045,-0.000241823,0.0038814,-0.00694585,-0.0223421,0.00633403,0.0376533,1112,1695,4.30943,-18.8068
-105,-671,4.34436,18.8867,0,0,0,0,0,0,0,-1,1119,1695,4.34442,-18.8867
-98,-671,4.27588,18.7788,0,0,0,0,0,0,0,-1,1126,1695,4.27593,-18.7788
-91,-671,4.34082,18.6317,0,0,0,0,0,0,0,-1,1133,1695,4.34086,-18.6317
-84,-671,4.52039,18.6926,0,0,0,0,0,0,0,-1,1140,1695,4.52041,-18.6926
-77,-671,4.31763,16.489,0,0,0,0,0,0,0,-1,1147,1695,4.31757,-16.489
-70,-671,3.06067,10.7737,0,0,0,0,0,0,0,-1,1154,1695,3.0607,-10.7737
-63,-671,2.94592,6.90198,0,0,0,0,0,0,0,-1,1161,1695,2.94594,-6.90198
-56,-671,-3.07678,2.87976,0,0,0,0,0,0,0,-1,1168,1695,-3.07675,-2.87979
-49,-671,-1.05957,4.76917,0,0,0,0,0,0,0,-1,1175,1695,-1.05958,-4.76921
-42,-671,0.539307,3.7865,0,0,0,0,0,0,0,-1,1182,1695,0.539266,-3.78648
-35,-671,-0.272461,0.347534,0,0,0,0,0,0,0,-1,1189,1695,-0.272434,-0.347569
-28,-671,-10.4878,17.2009,0,0,0,0,0,0,0,-1,1196,1695,-10.4878,-17.2009
-21,-671,4.65625,19.5214,0,0,0,0,0,0,0,-1,1203,1695,4.65619,-19.5213
-14,-671,4.64783,19.5471,0,0,0,0,0,0,0,-1,1210,1695,4.6478,-19.5472
-7,-671,4.6394,19.573,0,0,0,0,0,0,0,-1,1217,1695,4.63941,-19.573
0,-671,6.58594,22.281,-0.0342435,-0.000224004,-0.0339787,0.0207647,-0.0552322,-1.01746,0.0453561,0.0458509,1224,1695,6.58589,-22.281
7,-671,5.64294,22.4646,-0.0267182,0.0103424,-0.0331237,0.0297667,-0.0461425,-1.04042,0.0441648,0.043686,1231,1695,5.64292,-22.4646
14,-671,6.30847,22.998,-0.017861,0.0203874,-0.0326994,0.0391444,-0.0366179,-1.05,0.0437495,0.0429025,1238,1695,6.30847,-22.9981
21,-671,5.71045,22.9188,-0.00853537,0.0283696,-0.0320984,0.0469414,-0.0271072,-1.04627,0.0432602,0.0445717,1245,1695,5.71043,-22.9188
28,-671,4.87671,21.9834,-0.000986128,0.0338159,-0.030278,0.0513369,-0.0185072,-1.04621,0.041783,0.0458995,1252,1695,4.87674,-21.9834
35,-671,3.99158,21.2932,0.00418989,0.0363443,-0.0262179,0.0510219,-0.0104877,-1.06044,0.037996,0.046244,1259,1695,3.99153,-21.2932
42,-671,5.70313,20.3906,0.0071253,0.0392278,-0.021566,0.0500603,-0.00370715,-1.10532,0.0346754,0.0484898,1266,1695,5.70314,-20.3907
49,-671,6.5271,20.3909,0.00826293,0.0423547,-0.0167756,0.049225,0.00139268,-1.18209,0.0323624,0.0425158,1273,1695,6.52707,-20.3909
56,-671,6.48608,21.0885,0,0,0,0,0,0,0,-1,1280,1695,6.48604,-21.0885
63,-671,6.39478,21.5365,0.0066223,0.0375988,-0.00712766,0.0391602,0.00506094,-1.35515,0.024594,0.0481346,1287,1695,6.39479,-21.5365
70,-671,6.56433,20.2711,0.00244786,0.032872,-0.00254947,0.0330842,0.0022357,-1.48777,0.0213499,0.0458926,1294,1695,6.56435,-20.2711
77,-671,6.38293,20.0975,-0.00169744,0.0286421,0.00180503,0.0287491,-0.00180446,1.51158,0.019795,0.0448487,1301,1695,6.38288,-20.0975
84,-671,6.38086,20.1597,-0.00567526,0.0255453,0.00708196,0.0270767,-0.00720659,1.35784,0.0208722,0.0499747,1308,1695,6.38083,-20.1597
91,-671,6.33215,20.0433,-0.00976526,0.0221691,0.012428,0.0264357,-0.0140319,1.2401,0.023727,0.0447635,1315,1695,6.33214,-20.0433
98,-671,6.22974,19.6737,-0.0147561,0.0190448,0.0153516,0.0249763,-0.0206876,1.20209,0.0264028,0.0436708,1322,1695,6.22979,-19.6737
105,-671,6.04468,20.9275,-0.0192614,0.0157563,0.0192586,0.0242754,-0.0277805,1.15432,0.0300772,0.0451814,1329,1695,6.0447,-20.9275
112,-671,5.14905,20.2069,-0.0196041,0.0144341,0.021494,0.0248311,-0.0300011,1.12026,0.0317043,0.0442106,1336,1695,5.14902,-20.2069
119,-671,5.82837,19.5789,-0.0200953,0.0131931,0.0247365,0.0263637,-0.0332659,1.08154,0.0345039,0.0436967,1343,1695,5.82838,-19.5788
126,-671,6.854,19.8553,-0.0202338,0.0142696,0.027355,0.0293585,-0.0353228,1.06673,0.0373967,0.047186,1350,1695,6.85396,-19.8553
133,-671,7.11963,20.1331,-0.0219033,0.0162745,0.030416,0.0330955,-0.0387243,1.06563,0.0415076,0.0484223,1357,1695,7.11965,-20.133
140,-671,6.46021,20.475,0,0,0,0,0,0,0,-1,1364,1695,6.46018,-20.475
147,-671,5.27905,20.7114,0,0,0,0,0,0,0,-1,1371,1695,5.27911,-20.7114
154,-671,4.20483,20.9089,0,0,0,0,0,0,0,-1,1378,1695,4.20484,-20.909
161,-671,4.49292,4.91272,0,0,0,0,0,0,0,-1,1385,1695,4.49297,-4.91273
168,-671,5.17639,6.1416,0,0,0,0,0,0,0,-1,1392,1695,5.1764,-6.14164
175,-671,5.6731,1.64685,0,0,0,0,0,0,0,-1,1399,1695,5.67313,-1.64691
182,-671,5.56812,1.71692,0,0,0,0,0,0,0,-1,1406,1695,5.56809,-1.71686
189,-671,6.98315,6.36169,0,0,0,0,0,0,0,-1,1413,1695,6.98312,-6.36175
196,-671,5.38123,5.69775,0,0,0,0,0,0,0,-1,1420,1695,5.38125,-5.69769
203,-671,5.95117,8.11658,0,0,0,0,0,0,0,-1,1427,1695,5.9512,-8.11662
210,-671,4.73596,8.39624,0,0,0,0,0,0,0,-1,1434,1695,4.736,-8.39618
217,-671,5.37097,11.863,0,0,0,0,0,0,0,-1,1441,1695,5.37094,-11.863
224,-671,5.08167,13.6694,0,0,0,0,0,0,0,-1,1448,1695,5.08165,-13.6695
231,-671,5.66663,15.3348,0,0,0,0,0,0,0,-1,1455,1695,5.66667,-15.3349
238,-671,6.32959,16.2036,0,0,0,0,0,0,0,-1,1462,1695,6.32961,-16.2037
245,-671,6.28101,18.324,0,0,0,0,0,0,0,-1,1469,1695,6.28098,-18.3239
252,-671,5.93555,18.6504,0,0,0,0,0,0,0,-1,1476,1695,5.93549,-18.6503
259,-671,5.94373,18.575,0,0,0,0,0,0,0,-1,1483,1695,5.94369,-18.5749
266,-671,5.97681,18.7589,0.00446545,-0.00373517,0.000414177,0.00448632,-0.00375604,0.0503348,0.00476495,0.0273873,1490,1695,5.97678,-18.7589
273,-671,5.99805,18.7008,0.00444587,-0.00330333,0.000252105,0.00445406,-0.00331153,0.0324872,0.00449961,0.0110542,1497,1695,5.99802,-18.7008
280,-671,5.98669,18.5968,0.00415754,-0.00256794,0.000126941,0.00415993,-0.00257033,0.0188657,0.00392168,0.00953632,1504,1695,5.9867,-18.5969
287,-671,5.98523,18.4305,0.00369962,-0.00169389,2.39857e-05,0.00369972,-0.001694,0.00444703,0.00318503,0.0110312,1511,1695,5.98525,-18.4305
294,-671,6,18.299,0.0032955,-0.00103274,-8.51682e-05,0.00329717,-0.00103441,-0.0196672,0.00261211,0.0110135,1518,1695,6.00005,-18.2989
301,-671,6.02014,18.205,0.00288015,-0.000492807,-0.00016559,0.00288826,-0.000500917,-0.0489364,0.00211237,0.0107821,1525,1695,6.02015,-18.205
308,-671,6.02393,18.0671,0.0024479,9.73084e-05,-0.000310159,0.00248813,5.70719e-05,-0.129008,0.00164006,0.0119927,1532,1695,6.02392,-18.0671
315,-671,6.06177,17.9467,0.00208034,0.000456269,-0.000425375,0.00218501,0.000351602,-0.241267,0.00135477,0.0130877,1539,1695,6.06176,-17.9467
322,-671,6.0929,17.8278,0.00180888,0.000731104,-0.000551083,0.00204077,0.000499218,-0.398293,0.0012284,0.0151644,1546,1695,6.09284,-17.8278
329,-671,6.03894,17.6719,0.00162951,0.000831431,-0.00072587,0.0020588,0.000402149,-0.534075,0.00126006,0.0141759,1553,1695,6.039,-17.6719
336,-671,6.03772,17.4893,0.00150705,0.000783874,-0.000879302,0.0020962,0.000194715,-0.590328,0.0013373,0.0110422,1560,1695,6.03767,-17.4892
343,-671,6.06689,17.3201,0.00139652,0.000693027,-0.00109546,0.00219532,-0.000105772,-0.630049,0.00150005,0.0103922,1567,1695,6.06688,-17.32
350,-671,6.05603,17.1528,0.00138413,0.000474598,-0.00132783,0.00233292,-0.000474186,-0.620415,0.00173508,0.0101139,1574,1695,6.05603,-17.1529
357,-671,6.04333,16.9945,0.00153832,0.000337081,-0.0014885,0.0025428,-0.000667407,-0.593636,0.001956,0.00997837,1581,1695,6.04339,-16.9945
364,-671,6.03003,16.8418,0.00187615,0.000269342,-0.00175641,0.00300418,-0.000858689,-0.570898,0.00234209,0.0123156,1588,1695,6.02999,-16.8417
371,-671,6.0271,16.6926,0.00226928,-2.28487e-06,-0.0021338,0.00355075,-0.00128375,-0.540829,0.00289168,0.0143671,1595,1695,6.02715,-16.6927
378,-671,6.03125,16.5133,0.00273492,1.96788e-05,-0.00246584,0.00419217,-0.00143757,-0.533757,0.00337754,0.0116947,1602,1695,6.03126,-16.5133
385,-671,6.02307,16.3285,0.00350669,0.000204283,-0.00297116,0.00525464,-0.00154367,-0.531777,0.00411532,0.0132078,1609,1695,6.02301,-16.3285
392,-671,5.9657,16.2148,0.00438912,0.0004668,-0.00355307,0.00648634,-0.00163042,-0.533224,0.00495788,0.0199018,1616,1695,5.96568,-16.2148
399,-671,5.94714,15.9688,0.00528283,0.000476812,-0.00401695,0.00756067,-0.00180103,-0.515844,0.00573583,0.0172419,1623,1695,5.94714,-15.9687
406,-671,5.9978,15.715,0.00607617,0.000350411,-0.00417527,0.00827579,-0.00184921,-0.484875,0.00622583,0.024336,1630,1695,5.99784,-15.715
413,-671,6.03503,15.5989,0.00720768,-0.0001064,-0.00437847,0.00925546,-0.00215418,-0.437469,0.00699974,0.034177,1637,1695,6.03504,-15.5989
420,-671,6.24805,15.4598,0.00861735,-0.000532842,-0.00472638,0.0106203,-0.00253575,-0.400831,0.00805951,0.0470728,1644,1695,6.24801,-15.4599
427,-671,6.24768,15.1654,0,0,0,0,0,0,0,-1,1651,1695,6.24766,-15.1654
434,-671,6.50708,14.9409,0,0,0,0,0,0,0,-1,1658,1695,6.5071,-14.9409
441,-671,6.37598,14.5306,0,0,0,0,0,0,0,-1,1665,1695,6.37593,-14.5307
448,-671,8.0636,12.2034,0,0,0,0,0,0,0,-1,1672,1695,8.06362,-12.2034
455,-671,3.40137,9.28076,0,0,0,0,0,0,0,-1,1679,1695,3.40135,-9.28082
462,-671,5.86255,4.47961,0,0,0,0,0,0,0,-1,1686,1695,5.8625,-4.4796
469,-671,3.71301,3.76978,0,0,0,0,0,0,0,-1,1693,1695,3.71297,-3.76974
476,-671,3.75574,3.18848,0,0,0,0,0,0,0,-1,1700,1695,3.7558,-3.18847
483,-671,7.81824,12.1041,0,0,0,0,0,0,0,-1,1707,1695,7.81826,-12.1041
490,-671,0,0,0,0,0,0,0,0,0,-1,1714,1695,0,0
497,-671,0,0,0,0,0,0,0,0,0,-1,1721,1695,0,0
504,-671,0,0,0,0,0,0,0,0,0,-1,1728,1695,0,0
511,-671,0,0,0,0,0,0,0,0,0,-1,1735,1695,0,0
518,-671,0,0,0,0,0,0,0,0,0,-1,1742,1695,0,0
525,-671,0,0,0,0,0,0,0,0,0,-1,1749,1695,0,0
532,-671,0,0,0,0,0,0,0,0,0,-1,1756,1695,0,0
539,-671,0,0,0,0,0,0,0,0,0,-1,1763,1695,0,0
546,-671,0,0,0,0,0,0,0,0,0,-1,1770,1695,0,0
553,-671,0,0,0,0,0,0,0,0,0,-1,1777,1695,0,0
560,-671,0,0,0,0,0,0,0,0,0,-1,1784,1695,0,0
567,-671,0,0,0,0,0,0,0,0,0,-1,1791,1695,0,0
574,-671,0,0,0,0,0,0,0,0,0,-1,1798,1695,0,0
581,-671,0,0,0,0,0,0,0,0,0,-1,1805,1695,0,0
588,-671,0,0,0,0,0,0,0,0,0,-1,1812,1695,0,0
595,-671,0,0,0,0,0,0,0,0,0,-1,1819,1695,0,0
602,-671,0,0,0,0,0,0,0,0,0,-1,1826,1695,0,0
609,-671,0,0,0,0,0,0,0,0,0,-1,1833,1695,0,0
616,-671,0,0,0,0,0,0,0,0,0,-1,1840,1695,0,0
623,-671,0,0,0,0,0,0,0,0,0,-1,1847,1695,0,0
630,-671,0,0,0,0,0,0,0,0,0,-1,1854,1695,0,0
637,-671,0,0,0,0,0,0,0,0,0,-1,1861,1695,0,0
644,-671,0,0,0,0,0,0,0,0,0,-1,1868,1695,0,0
651,-671,0,0,0,0,0,0,0,0,0,-1,1875,1695,0,0
658,-671,0,0,0,0,0,0,0,0,0,-1,1882,1695,0,0
665,-671,0,0,0,0,0,0,0,0,0,-1,1889,1695,0,0
672,-671,0,0,0,0,0,0,0,0,0,-1,1896,1695,0,0
679,-671,0,0,0,0,0,0,0,0,0,-1,1903,1695,0,0
686,-671,0,0,0,0,0,0,0,0,0,-1,1910,1695,0,0
693,-671,0,0,0,0,0,0,0,0,0,-1,1917,1695,0,0
700,-671,0,0,0,0,0,0,0,0,0,-1,1924,1695,0,0
707,-671,0,0,0,0,0,0,0,0,0,-1,1931,1695,0,0
714,-671,0,0,0,0,0,0,0,0,0,-1,1938,1695,0,0
721,-671,0,0,0,0,0,0,0,0,0,-1,1945,1695,0,0
728,-671,0,0,0,0,0,0,0,0,0,-1,1952,1695,0,0
735,-671,0,0,0,0,0,0,0,0,0,-1,1959,1695,0,0
742,-671,0,0,0,0,0,0,0,0,0,-1,1966,1695,0,0
749,-671,0,0,0,0,0,0,0,0,0,-1,1973,1695,0,0
756,-671,0,0,0,0,0,0,0,0,0,-1,1980,1695,0,0
763,-671,0,0,0,0,0,0,0,0,0,-1,1987,1695,0,0
770,-671,0,0,0,0,0,0,0,0,0,-1,1994,1695,0,0
777,-671,0,0,0,0,0,0,0,0,0,-1,2001,1695,0,0
784,-671,0,0,0,0,0,0,0,0,0,-1,2008,1695,0,0
791,-671,0,0,0,0,0,0,0,0,0,-1,2015,1695,0,0
798,-671,0,0,0,0,0,0,0,0,0,-1,2022,1695,0,0
805,-671,0,0,0,0,0,0,0,0,0,-1,2029,1695,0,0
812,-671,0,0,0,0,0,0,0,0,0,-1,2036,1695,0,0
-700,-678,0,0,0,0,0,0,0,0,0,-1,524,1702,0,0
-693,-678,0,0,0,0,0,0,0,0,0,-1,531,1702,0,0
-686,-678,0,0,0,0,0,0,0,0,0,-1,538,1702,0,0
-679,-678,0,0,0,0,0,0,0,0,0,-1,545,1702,0,0
-672,-678,0,0,0,0,0,0,0,0,0,-1,552,1702,0,0
-665,-678,0,0,0,0,0,0,0,0,0,-1,559,1702,0,0
-658,-678,0,0,0,0,0,0,0,0,0,-1,566,1702,0,0
-651,-678,0,0,0,0,0,0,0,0,0,-1,573,1702,0,0
-644,-678,0,0,0,0,0,0,0,0,0,-1,580,1702,0,0
-637,-678,0,0,0,0,0,0,0,0,0,-1,587,1702,0,0
-630,-678,0,0,0,0,0,0,0,0,0,-1,594,1702,0,0
-623,-678,0,0,0,0,0,0,0,0,0,-1,601,1702,0,0
-616,-678,0,0,0,0,0,0,0,0,0,-1,608,1702,0,0
-609,-678,0,0,0,0,0,0,0,0,0,-1,615,1702,0,0
-602,-678,0,0,0,0,0,0,0,0,0,-1,622,1702,0,0
-595,-678,0,0,0,0,0,0,0,0,0,-1,629,1702,0,0
-588,-678,0,0,0,0,0,0,0,0,0,-1,636,1702,0,0
-581,-678,0,0,0,0,0,0,0,0,0,-1,643,1702,0,0
-574,-678,0,0,0,0,0,0,0,0,0,-1,650,1702,0,0
-567,-678,0,0,0,0,0,0,0,0,0,-1,657,1702,0,0
-560,-678,0,0,0,0,0,0,0,0,0,-1,664,1702,0,0
-553,-678,0,0,0,0,0,0,0,0,0,-1,671,1702,0,0
-546,-678,0,0,0,0,0,0,0,0,0,-1,678,1702,0,0
-539,-678,0,0,0,0,0,0,0,0,0,-1,685,1702,0,0
-532,-678,0,0,0,0,0,0,0,0,0,-1,692,1702,0,0
-525,-678,0,0,0,0,0,0,0,0,0,-1,699,1702,0,0
-518,-678,0,0,0,0,0,0,0,0,0,-1,706,1702,0,0
-511,-678,0,0,0,0,0,0,0,0,0,-1,713,1702,0,0
-504,-678,0,0,0,0,0,0,0,0,0,-1,720,1702,0,0
-497,-678,0,0,0,0,0,0,0,0,0,-1,727,1702,0,0
-490,-678,0,0,0,0,0,0,0,0,0,-1,734,1702,0,0
-483,-678,0,0,0,0,0,0,0,0,0,-1,741,1702,0,0
-476,-678,0,0,0,0,0,0,0,0,0,-1,748,1702,0,0
-469,-678,0,0,0,0,0,0,0,0,0,-1,755,1702,0,0
-462,-678,0,0,0,0,0,0,0,0,0,-1,762,1702,0,0
-455,-678,0,0,0,0,0,0,0,0,0,-1,769,1702,0,0
-448,-678,0,0,0,0,0,0,0,0,0,-1,776,1702,0,0
-441,-678,0,0,0,0,0,0,0,0,0,-1,783,1702,0,0
-434,-678,0,0,0,0,0,0,0,0,0,-1,790,1702,0,0
-427,-678,0,0,0,0,0,0,0,0,0,-1,797,1702,0,0
-420,-678,0,0,0,0,0,0,0,0,0,-1,804,1702,0,0
-413,-678,0,0,0,0,0,0,0,0,0,-1,811,1702,0,0
-406,-678,0,0,0,0,0,0,0,0,0,-1,818,1702,0,0
-399,-678,0,0,0,0,0,0,0,0,0,-1,825,1702,0,0
-392,-678,0,0,0,0,0,0,0,0,0,-1,832,1702,0,0
-385,-678,0,0,0,0,0,0,0,0,0,-1,839,1702,0,0
-378,-678,0,0,0,0,0,0,0,0,0,-1,846,1702,0,0
-371,-678,0,0,0,0,0,0,0,0,0,-1,853,1702,0,0
-364,-678,0,0,0,0,0,0,0,0,0,-1,860,1702,0,0
-357,-678,0,0,0,0,0,0,0,0,0,-1,867,1702,0,0
-350,-678,-5.79944,6.11865,0,0,0,0,0,0,0,-1,874,1702,-5.79942,-6.11864
-343,-678,-6.44891,4.52759,0,0,0,0,0,0,0,-1,881,1702,-6.4489,-4.52758
-336,-678,-6.91888,2.99438,0,0,0,0,0,0,0,-1,888,1702,-6.9189,-2.99435
-329,-678,-7.14575,1.29761,0,0,0,0,0,0,0,-1,895,1702,-7.14577,-1.29755
-322,-678,4.74548,15.4724,0,0,0,0,0,0,0,-1,902,1702,4.7455,-15.4724
-315,-678,3.14374,15.2018,0,0,0,0,0,0,0,-1,909,1702,3.14372,-15.2018
-308,-678,3.38727,15.6973,0,0,0,0,0,0,0,-1,916,1702,3.38729,-15.6973
-301,-678,3.6377,16.2148,0,0,0,0,0,0,0,-1,923,1702,3.63773,-16.2148
-294,-678,4.27069,14.2621,0,0,0,0,0,0,0,-1,930,1702,4.27066,-14.2621
-287,-678,4.7627,14.0948,0,0,0,0,0,0,0,-1,937,1702,4.76267,-14.0948
-280,-678,4.83325,14.243,0.00260322,0.00976305,-0.0127824,0.0194574,-0.00709115,-0.921933,0.0158724,0.0452153,944,1702,4.83323,-14.243
-273,-678,4.86133,14.4789,0.00380649,0.00922302,-0.0114329,0.0182641,-0.00523457,-0.901696,0.0142452,0.0444278,951,1702,4.86135,-14.4788
-266,-678,4.66107,14.9736,0.00543513,0.00791388,-0.0104196,0.0171676,-0.00381858,-0.844593,0.0129076,0.0359577,958,1702,4.6611,-14.9736
-259,-678,4.41705,15.3295,0.00679287,0.00609723,-0.00938536,0.0158369,-0.00294675,-0.766877,0.0116649,0.0233759,965,1702,4.41705,-15.3294
-252,-678,4.36823,15.4932,0.00784215,0.00428048,-0.00777418,0.0140369,-0.00191422,-0.672805,0.0100569,0.01926,972,1702,4.36821,-15.4931
-245,-678,4.4082,15.7211,0.00848613,0.00224947,-0.00611475,0.0122318,-0.00149617,-0.549603,0.00869625,0.0181959,979,1702,4.40818,-15.7211
-238,-678,4.41614,15.9172,0.00848479,0.000196368,-0.00457339,0.0105123,-0.00183116,-0.417295,0.0076916,0.0149115,986,1702,4.41612,-15.9172
-231,-678,4.39008,16.1276,0.00820343,-0.0016813,-0.00312805,0.00911014,-0.00258801,-0.282132,0.00709521,0.0126658,993,1702,4.39007,-16.1276
-224,-678,4.35919,16.2838,0.00787556,-0.00348508,-0.00184353,0.00816723,-0.00377674,-0.156911,0.00704944,0.0131438,1000,1702,4.35922,-16.2838
-217,-678,4.354,16.4731,0.00727064,-0.00453206,-0.000880468,0.00733596,-0.00459738,-0.0740526,0.00694993,0.0146045,1007,1702,4.35398,-16.4731
-210,-678,4.35059,16.6866,0.00616116,-0.00505553,-0.000183882,0.00616417,-0.00505855,-0.0163877,0.00648991,0.0150017,1014,1702,4.35061,-16.6867
-203,-678,4.32471,16.8416,0.0047582,-0.00500261,0.000225929,0.00476343,-0.00500784,0.02313,0.00564203,0.0188054,1021,1702,4.32477,-16.8416
-196,-678,4.32996,17.0101,0.00346816,-0.00472489,0.000364522,0.00348434,-0.00474108,0.0443748,0.00476739,0.0184164,1028,1702,4.32991,-17.0102
-189,-678,4.34607,17.1979,0.00232797,-0.00426569,0.000480095,0.00236274,-0.00430046,0.0723034,0.00390085,0.0108221,1035,1702,4.34613,-17.1979
-182,-678,4.34631,17.3524,0.000699961,-0.00390227,0.000899245,0.000869427,-0.00407174,0.186269,0.00304595,0.0103465,1042,1702,4.34631,-17.3524
-175,-678,4.34534,17.4967,9.38584e-05,-0.00343385,0.00056077,0.000180854,-0.00352084,0.153909,0.00240978,0.0110183,1049,1702,4.3453,-17.4968
-168,-678,4.35046,17.6631,4.53874e-05,-0.00288797,0.000257336,6.77916e-05,-0.00291038,0.0868433,0.00196324,0.0105008,1056,1702,4.35048,-17.663
-161,-678,4.34009,17.8047,1.99937e-05,-0.00262699,0.00024936,4.32798e-05,-0.00265028,0.0931138,0.00178145,0.00894581,1063,1702,4.3401,-17.8046
-154,-678,4.34253,17.9451,0.000120391,-0.00242931,0.000142694,0.000128352,-0.00243727,0.0557329,0.00166928,0.00820556,1070,1702,4.34248,-17.9451
-147,-678,4.34668,18.1003,0.000376088,-0.0026109,-1.90644e-05,0.00037621,-0.00261102,-0.00638214,0.00187868,0.0099783,1077,1702,4.34672,-18.1004
-140,-678,4.36902,18.245,0.000735748,-0.002971,-0.000214927,0.000748169,-0.00298342,-0.0577247,0.00227964,0.0110863,1084,1702,4.36898,-18.245
-133,-678,4.39014,18.3754,0.00125186,-0.00355778,-0.000344187,0.00127636,-0.00358228,-0.0710793,0.00290854,0.0116963,1091,1702,4.39011,-18.3754
-126,-678,4.38245,18.5175,0.00189661,-0.00408705,-0.00031707,0.00191336,-0.0041038,-0.0527924,0.00354991,0.00913879,1098,1702,4.38244,-18.5175
-119,-678,4.39905,18.715,0.00268353,-0.00463722,-0.000308628,0.00269652,-0.00465021,-0.0420584,0.00429134,0.0190278,1105,1702,4.39904,-18.7149
-112,-678,4.39734,18.8472,0.00353941,-0.00508828,-0.000311128,0.00355061,-0.00509949,-0.0359992,0.00502075,0.0277101,1112,1702,4.39733,-18.8472
-105,-678,4.45325,18.9265,0.00449127,-0.00561838,-0.00037456,0.00450513,-0.00563224,-0.0369822,0.00586486,0.0306695,1119,1702,4.4533,-18.9266
-98,-678,4.44397,18.9163,0.00539649,-0.00602544,-0.000289042,0.0054038,-0.00603275,-0.0252843,0.00660623,0.0228042,1126,1702,4.44398,-18.9162
-91,-678,4.47949,19.0146,0.00563817,-0.00601365,-7.50518e-05,0.00563865,-0.00601414,-0.00644085,0.0067289,0.0219957,1133,1702,4.47955,-19.0146
-84,-678,4.53967,19.0024,0.00591769,-0.00570743,8.77398e-05,0.00591835,-0.00570809,0.00754687,0.00671289,0.0369043,1140,1702,4.53971,-19.0025
-77,-678,4.58435,19.0972,0,0,0,0,0,0,0,-1,1147,1702,4.58429,-19.0972
-70,-678,4.75891,19.6552,0,0,0,0,0,0,0,-1,1154,1702,4.75895,-19.6551
-63,-678,3.41687,11.0365,0,0,0,0,0,0,0,-1,1161,1702,3.41682,-11.0365
-56,-678,1.72388,6.13159,0,0,0,0,0,0,0,-1,1168,1702,1.72388,-6.13157
-49,-678,-0.241699,5.29895,0,0,0,0,0,0,0,-1,1175,1702,-0.241682,-5.29897
-42,-678,0.297119,3.90649,0,0,0,0,0,0,0,-1,1182,1702,0.297139,-3.90655
-35,-678,0.498413,3.64038,0,0,0,0,0,0,0,-1,1189,1702,0.498471,-3.64038
-28,-678,0.132446,3.55994,0,0,0,0,0,0,0,-1,1196,1702,0.132432,-3.55993
-21,-678,4.83118,19.6776,0,0,0,0,0,0,0,-1,1203,1702,4.83113,-19.6776
-14,-678,4.79285,19.7017,-0.0303293,-0.00942535,-0.0290082,0.0109564,-0.050711,-0.958314,0.0379898,0.0416095,1210,1702,4.79283,-19.7017
-7,-678,4.68579,19.1106,-0.0283847,-0.00266009,-0.0287646,0.015987,-0.0470317,-0.995642,0.0378269,0.044891,1217,1702,4.68584,-19.1106
0,-678,4.68066,19.8527,0,0,0,0,0,0,0,-1,1224,1702,4.68065,-19.8527
7,-678,6.02527,22.3899,0,0,0,0,0,0,0,-1,1231,1702,6.02529,-22.3899
14,-678,4.31409,21.2556,-0.0105086,0.0211336,-0.0276938,0.0372069,-0.026582,-1.04492,0.0369984,0.0440901,1238,1702,4.31407,-21.2556
21,-678,5.28381,20.3779,-0.00340221,0.0270926,-0.0271247,0.0429616,-0.0192712,-1.04145,0.0367877,0.046381,1245,1702,5.28383,-20.3779
28,-678,5.06543,20.9442,0.00232175,0.0310652,-0.0254217,0.0458964,-0.0125094,-1.04267,0.0355096,0.0431166,1252,1702,5.0654,-20.9442
35,-678,4.51636,20.6477,0.00634524,0.0328265,-0.0221228,0.0453683,-0.00619654,-1.05506,0.0325085,0.0424027,1259,1702,4.5163,-20.6477
42,-678,5.51685,20.2578,0.00864842,0.034713,-0.018383,0.0442146,-0.000853125,-1.09375,0.0297648,0.0463266,1266,1702,5.51686,-20.2579
49,-678,6.37683,20.2629,0.00955169,0.0364573,-0.0143493,0.0426737,0.00333523,-1.16198,0.0274051,0.0443932,1273,1702,6.37687,-20.263
56,-678,6.14209,20.7076,0.00960512,0.0341259,-0.0100001,0.037687,0.00604405,-1.22869,0.0233719,0.0436923,1280,1702,6.14208,-20.7076
63,-678,6.12744,21.0387,0.00792756,0.0312687,-0.00625113,0.0328374,0.00635884,-1.32492,0.02011,0.0447803,1287,1702,6.12749,-21.0387
70,-678,6.11768,20.1738,0.00460722,0.0266412,-0.0024456,0.0269094,0.00433905,-1.46158,0.0166824,0.0444182,1294,1702,6.11768,-20.1739
77,-678,6.04346,20.1398,0.0015724,0.022508,0.00120187,0.0225767,0.00150363,1.51364,0.0145758,0.0460919,1301,1702,6.0434,-20.1398
84,-678,6.49402,19.9532,-0.00119589,0.0192654,0.00548568,0.0206433,-0.00257381,1.3247,0.0146955,0.0463935,1308,1702,6.49398,-19.9533
91,-678,6.8894,19.9161,0,0,0,0,0,0,0,-1,1315,1702,6.8894,-19.9162
98,-678,5.51086,20.1716,0,0,0,0,0,0,0,-1,1322,1702,5.51091,-20.1716
105,-678,5.59094,20.1133,0,0,0,0,0,0,0,-1,1329,1702,5.59095,-20.1132
112,-678,5.42651,20.2087,-0.00958813,0.00878183,0.0172236,0.0191165,-0.0199228,1.03036,0.0225409,0.0419748,1336,1702,5.42647,-20.2087
119,-678,5.63977,19.9397,-0.00902866,0.00764572,0.0199915,0.0209688,-0.0223518,0.982952,0.0250154,0.0415843,1343,1702,5.63978,-19.9397
126,-678,6.37842,19.8398,-0.00811792,0.00862571,0.0222006,0.0239806,-0.0234728,0.965702,0.0273978,0.0427293,1350,1702,6.3784,-19.8398
133,-678,6.38232,20.0742,-0.0081185,0.0103072,0.0246273,0.0273885,-0.0251998,0.964384,0.0303706,0.0474717,1357,1702,6.38233,-20.0742
140,-678,6.00208,19.8712,0,0,0,0,0,0,0,-1,1364,1702,6.00213,-19.8712
147,-678,6.08936,20.0135,0,0,0,0,0,0,0,-1,1371,1702,6.08935,-20.0136
154,-678,6.91284,19.9266,0,0,0,0,0,0,0,-1,1378,1702,6.91285,-19.9267
161,-678,3.44202,4.53992,0,0,0,0,0,0,0,-1,1385,1702,3.442,-4.53996
168,-678,4.21863,5.25781,0,0,0,0,0,0,0,-1,1392,1702,4.21865,-5.25781
175,-678,5.21899,5.9635,0,0,0,0,0,0,0,-1,1399,1702,5.21894,-5.96346
182,-678,7.31262,6.75122,0,0,0,0,0,0,0,-1,1406,1702,7.3126,-6.75123
189,-678,5.96021,6.36853,0,0,0,0,0,0,0,-1,1413,1702,5.96018,-6.36851
196,-678,5.01599,8.15771,0,0,0,0,0,0,0,-1,1420,1702,5.01596,-8.15767
203,-678,4.64771,13.0559,0,0,0,0,0,0,0,-1,1427,1702,4.64766,-13.0559
210,-678,5.6532,18.5957,0,0,0,0,0,0,0,-1,1434,1702,5.65318,-18.5958
217,-678,5.98181,19.744,0,0,0,0,0,0,0,-1,1441,1702,5.98181,-19.744
224,-678,5.78638,19.3827,0,0,0,0,0,0,0,-1,1448,1702,5.7864,-19.3827
231,-678,5.78943,19.2451,0,0,0,0,0,0,0,-1,1455,1702,5.78938,-19.2452
238,-678,5.87866,19.2931,0,0,0,0,0,0,0,-1,1462,1702,5.87872,-19.2931
245,-678,5.85571,19.1807,0.00194076,-0.00243713,0.00124282,0.00226897,-0.00276535,0.258193,0.00291127,0.0431146,1469,1702,5.85566,-19.1807
252,-678,5.84229,19.0079,0.00243609,-0.00250606,0.00081321,0.00256646,-0.00263643,0.158964,0.00300398,0.0287914,1476,1702,5.84232,-19.0079
259,-678,5.84521,18.9613,0.00280328,-0.00267905,0.000628316,0.00287437,-0.00275014,0.112661,0.00324758,0.015464,1483,1702,5.84519,-18.9613
266,-678,5.875,18.8534,0.00299643,-0.00277777,0.000433113,0.00302874,-0.00281008,0.074453,0.00337183,0.0101094,1490,1702,5.87501,-18.8534
273,-678,5.88379,18.7363,0.00301865,-0.00243838,0.000278862,0.00303287,-0.00245259,0.0509246,0.00317293,0.011157,1497,1702,5.88381,-18.7363
280,-678,5.87793,18.6013,0.00279798,-0.00180258,0.000175295,0.00280465,-0.00180925,0.0380294,0.00268442,0.0121157,1504,1702,5.87797,-18.6013
287,-678,5.89539,18.4424,0.002445,-0.00106127,0.000107065,0.00244827,-0.00106454,0.0304973,0.00207991,0.0119047,1511,1702,5.89539,-18.4424
294,-678,5.88855,18.3156,0.00211313,-0.000427524,3.09676e-05,0.00211351,-0.000427901,0.0121864,0.00157118,0.0122981,1518,1702,5.88852,-18.3155
301,-678,5.87781,18.2083,0.00178681,7.17749e-05,-3.50168e-05,0.00178753,7.10602e-05,-0.0204062,0.00116872,0.0125479,1525,1702,5.87783,-18.2083
308,-678,5.88611,18.0768,0.00148002,0.000636678,-0.00018433,0.00151855,0.000598149,-0.206055,0.00088329,0.013581,1532,1702,5.88607,-18.0768
315,-678,5.89661,17.9352,0.00124048,0.00093222,-0.0003055,0.00142853,0.000744171,-0.551771,0.000825002,0.0144563,1539,1702,5.89664,-17.9351
322,-678,5.90503,17.8141,0.00112248,0.00115822,-0.00047838,0.00161906,0.000661638,-0.804064,0.000939953,0.017904,1546,1702,5.90509,-17.8141
329,-678,5.89331,17.6686,0.00111591,0.00117434,-0.000735534,0.00188124,0.000409014,-0.805246,0.00114249,0.016188,1553,1702,5.89327,-17.6685
336,-678,5.87988,17.4913,0.00117566,0.00104238,-0.000979336,0.00209062,0.000127425,-0.751428,0.00135328,0.0129647,1560,1702,5.8799,-17.4913
343,-678,5.88855,17.3318,0.00127372,0.000917095,-0.00132929,0.00243661,-0.000245786,-0.718725,0.00171222,0.0113479,1567,1702,5.88853,-17.3318
350,-678,5.8938,17.179,0.00144066,0.000630447,-0.00169406,0.00277737,-0.00070627,-0.668036,0.00212647,0.0107364,1574,1702,5.89375,-17.1789
357,-678,5.89941,17.0132,0.00181349,0.000459484,-0.00201018,0.00325761,-0.000984639,-0.622971,0.00256377,0.00872856,1581,1702,5.89938,-17.0132
364,-678,5.87549,16.8501,0.00241155,0.000358202,-0.00241652,0.00401044,-0.0012407,-0.584524,0.00316921,0.0113552,1588,1702,5.87553,-16.8501
371,-678,5.86694,16.6857,0.00307181,-1.40078e-05,-0.00296408,0.00487051,-0.0018127,-0.545428,0.00399091,0.0126199,1595,1702,5.86699,-16.6857
378,-678,5.85791,16.4834,0.0037751,4.90119e-05,-0.00344393,0.00582762,-0.0020035,-0.537458,0.00469755,0.0143676,1602,1702,5.85789,-16.4834
385,-678,5.86096,16.3156,0.0048127,0.000290458,-0.00411406,0.00724607,-0.0021429,-0.534127,0.00568136,0.0191105,1609,1702,5.86092,-16.3156
392,-678,5.84851,16.2384,0.00600752,0.000709109,-0.00485232,0.00888672,-0.0021701,-0.535528,0.00676488,0.0341867,1616,1702,5.8485,-16.2384
399,-678,5.74426,16.0144,0.00735638,0.000744479,-0.00545153,0.0104261,-0.00232519,-0.512832,0.00784153,0.0419553,1623,1702,5.7443,-16.0144
406,-678,5.74341,15.7036,0.00862084,0.000686137,-0.0057336,0.0116259,-0.00231889,-0.482747,0.00862804,0.0441411,1630,1702,5.74345,-15.7036
413,-678,5.9624,15.4979,0.0101136,2.19026e-05,-0.00587438,0.0128117,-0.00267622,-0.430563,0.00955889,0.04723,1637,1702,5.96235,-15.498
420,-678,6.03625,15.3352,0,0,0,0,0,0,0,-1,1644,1702,6.03629,-15.3352
427,-678,4.57483,10.1555,0,0,0,0,0,0,0,-1,1651,1702,4.57485,-10.1555
434,-678,5.73999,11.7773,0,0,0,0,0,0,0,-1,1658,1702,5.73994,-11.7774
441,-678,4.47729,11.1503,0,0,0,0,0,0,0,-1,1665,1702,4.47728,-11.1503
448,-678,3.25525,9.74719,0,0,0,0,0,0,0,-1,1672,1702,3.25522,-9.7472
455,-678,5.44678,5.54297,0,0,0,0,0,0,0,-1,1679,1702,5.44676,-5.54294
462,-678,3.86792,2.87402,0,0,0,0,0,0,0,-1,1686,1702,3.86796,-2.87406
469,-678,2.26587,1.98755,0,0,0,0,0,0,0,-1,1693,1702,2.26592,-1.98755
476,-678,0,0,0,0,0,0,0,0,0,-1,1700,1702,0,0
483,-678,0,0,0,0,0,0,0,0,0,-1,1707,1702,0,0
490,-678,0,0,0,0,0,0,0,0,0,-1,1714,1702,0,0
497,-678,0,0,0,0,0,0,0,0,0,-1,1721,1702,0,0
504,-678,0,0,0,0,0,0,0,0,0,-1,1728,1702,0,0
511,-678,0,0,0,0,0,0,0,0,0,-1,1735,1702,0,0
518,-678,0,0,0,0,0,0,0,0,0,-1,1742,1702,0,0
525,-678,0,0,0,0,0,0,0,0,0,-1,1749,1702,0,0
532,-678,0,0,0,0,0,0,0,0,0,-1,1756,1702,0,0
539,-678,0,0,0,0,0,0,0,0,0,-1,1763,1702,0,0
546,-678,0,0,0,0,0,0,0,0,0,-1,1770,1702,0,0
553,-678,0,0,0,0,0,0,0,0,0,-1,1777,1702,0,0
560,-678,0,0,0,0,0,0,0,0,0,-1,1784,1702,0,0
567,-678,0,0,0,0,0,0,0,0,0,-1,1791,1702,0,0
574,-678,0,0,0,0,0,0,0,0,0,-1,1798,1702,0,0
581,-678,0,0,0,0,0,0,0,0,0,-1,1805,1702,0,0
588,-678,0,0,0,0,0,0,0,0,0,-1,1812,1702,0,0
595,-678,0,0,0,0,0,0,0,0,0,-1,1819,1702,0,0
602,-678,0,0,0,0,0,0,0,0,0,-1,1826,1702,0,0
609,-678,0,0,0,0,0,0,0,0,0,-1,1833,1702,0,0
616,-678,0,0,0,0,0,0,0,0,0,-1,1840,1702,0,0
623,-678,0,0,0,0,0,0,0,0,0,-1,1847,1702,0,0
630,-678,0,0,0,0,0,0,0,0,0,-1,1854,1702,0,0
637,-678,0,0,0,0,0,0,0,0,0,-1,1861,1702,0,0
644,-678,0,0,0,0,0,0,0,0,0,-1,1868,1702,0,0
651,-678,0,0,0,0,0,0,0,0,0,-1,1875,1702,0,0
658,-678,0,0,0,0,0,0,0,0,0,-1,1882,1702,0,0
665,-678,0,0,0,0,0,0,0,0,0,-1,1889,1702,0,0
672,-678,0,0,0,0,0,0,0,0,0,-1,1896,1702,0,0
679,-678,0,0,0,0,0,0,0,0,0,-1,1903,1702,0,0
686,-678,0,0,0,0,0,0,0,0,0,-1,1910,1702,0,0
693,-678,0,0,0,0,0,0,0,0,0,-1,1917,1702,0,0
700,-678,0,0,0,0,0,0,0,0,0,-1,1924,1702,0,0
707,-678,0,0,0,0,0,0,0,0,0,-1,1931,1702,0,0
714,-678,0,0,0,0,0,0,0,0,0,-1,1938,1702,0,0
721,-678,0,0,0,0,0,0,0,0,0,-1,1945,1702,0,0
728,-678,0,0,0,0,0,0,0,0,0,-1,1952,1702,0,0
735,-678,0,0,0,0,0,0,0,0,0,-1,1959,1702,0,0
742,-678,0,0,0,0,0,0,0,0,0,-1,1966,1702,0,0
749,-678,0,0,0,0,0,0,0,0,0,-1,1973,1702,0,0
756,-678,0,0,0,0,0,0,0,0,0,-1,1980,1702,0,0
763,-678,0,0,0,0,0,0,0,0,0,-1,1987,1702,0,0
770,-678,0,0,0,0,0,0,0,0,0,-1,1994,1702,0,0
777,-678,0,0,0,0,0,0,0,0,0,-1,2001,1702,0,0
784,-678,0,0,0,0,0,0,0,0,0,-1,2008,1702,0,0
791,-678,0,0,0,0,0,0,0,0,0,-1,2015,1702,0,0
798,-678,0,0,0,0,0,0,0,0,0,-1,2022,1702,0,0
805,-678,0,0,0,0,0,0,0,0,0,-1,2029,1702,0,0
812,-678,0,0,0,0,0,0,0,0,0,-1,2036,1702,0,0
-700,-685,0,0,0,0,0,0,0,0,0,-1,524,1709,0,0
-693,-685,0,0,0,0,0,0,0,0,0,-1,531,1709,0,0
-686,-685,0,0,0,0,0,0,0,0,0,-1,538,1709,0,0
-679,-685,0,0,0,0,0,0,0,0,0,-1,545,1709,0,0
-672,-685,0,0,0,0,0,0,0,0,0,-1,552,1709,0,0
-665,-685,0,0,0,0,0,0,0,0,0,-1,559,1709,0,0
-658,-685,0,0,0,0,0,0,0,0,0,-1,566,1709,0,0
-651,-685,0,0,0,0,0,0,0,0,0,-1,573,1709,0,0
-644,-685,0,0,0,0,0,0,0,0,0,-1,580,1709,0,0
-637,-685,0,0,0,0,0,0,0,0,0,-1,587,1709,0,0
-630,-685,0,0,0,0,0,0,0,0,0,-1,594,1709,0,0
-623,-685,0,0,0,0,0,0,0,0,0,-1,601,1709,0,0
-616,-685,0,0,0,0,0,0,0,0,0,-1,608,1709,0,0
-609,-685,0,0,0,0,0,0,0,0,0,-1,615,1709,0,0
-602,-685,0,0,0,0,0,0,0,0,0,-1,622,1709,0,0
-595,-685,0,0,0,0,0,0,0,0,0,-1,629,1709,0,0
-588,-685,0,0,0,0,0,0,0,0,0,-1,636,1709,0,0
-581,-685,0,0,0,0,0,0,0,0,0,-1,643,1709,0,0
-574,-685,0,0,0,0,0,0,0,0,0,-1,650,1709,0,0
-567,-685,0,0,0,0,0,0,0,0,0,-1,657,1709,0,0
-560,-685,0,0,0,0,0,0,0,0,0,-1,664,1709,0,0
-553,-685,0,0,0,0,0,0,0,0,0,-1,671,1709,0,0
-546,-685,0,0,0,0,0,0,0,0,0,-1,678,1709,0,0
-539,-685,0,0,0,0,0,0,0,0,0,-1,685,1709,0,0
-532,-685,0,0,0,0,0,0,0,0,0,-1,692,1709,0,0
-525,-685,0,0,0,0,0,0,0,0,0,-1,699,1709,0,0
-518,-685,0,0,0,0,0,0,0,0,0,-1,706,1709,0,0
-511,-685,0,0,0,0,0,0,0,0,0,-1,713,1709,0,0
-504,-685,0,0,0,0,0,0,0,0,0,-1,720,1709,0,0
-497,-685,0,0,0,0,0,0,0,0,0,-1,727,1709,0,0
-490,-685,0,0,0,0,0,0,0,0,0,-1,734,1709,0,0
-483,-685,0,0,0,0,0,0,0,0,0,-1,741,1709,0,0
-476,-685,0,0,0,0,0,0,0,0,0,-1,748,1709,0,0
-469,-685,0,0,0,0,0,0,0,0,0,-1,755,1709,0,0
-462,-685,0,0,0,0,0,0,0,0,0,-1,762,1709,0,0
-455,-685,0,0,0,0,0,0,0,0,0,-1,769,1709,0,0
-448,-685,0,0,0,0,0,0,0,0,0,-1,776,1709,0,0
-441,-685,0,0,0,0,0,0,0,0,0,-1,783,1709,0,0
-434,-685,0,0,0,0,0,0,0,0,0,-1,790,1709,0,0
-427,-685,0,0,0,0,0,0,0,0,0,-1,797,1709,0,0
-420,-685,0,0,0,0,0,0,0,0,0,-1,804,1709,0,0
-413,-685,0,0,0,0,0,0,0,0,0,-1,811,1709,0,0
-406,-685,0,0,0,0,0,0,0,0,0,-1,818,1709,0,0
-399,-685,0,0,0,0,0,0,0,0,0,-1,825,1709,0,0
-392,-685,0,0,0,0,0,0,0,0,0,-1,832,1709,0,0
-385,-685,0,0,0,0,0,0,0,0,0,-1,839,1709,0,0
-378,-685,0,0,0,0,0,0,0,0,0,-1,846,1709,0,0
-371,-685,0,0,0,0,0,0,0,0,0,-1,853,1709,0,0
-364,-685,0,0,0,0,0,0,0,0,0,-1,860,1709,0,0
-357,-685,0,0,0,0,0,0,0,0,0,-1,867,1709,0,0
-350,-685,0,0,0,0,0,0,0,0,0,-1,874,1709,0,0
-343,-685,-5.98505,6.56335,0,0,0,0,0,0,0,-1,881,1709,-5.98505,-6.56329
-336,-685,-6.51312,5.10571,0,0,0,0,0,0,0,-1,888,1709,-6.51311,-5.10575
-329,-685,-6.81384,3.34106,0,0,0,0,0,0,0,-1,895,1709,-6.81385,-3.341
-322,-685,3.83191,16.7219,0,0,0,0,0,0,0,-1,902,1709,3.8319,-16.7219
-315,-685,4.36914,16.3297,0,0,0,0,0,0,0,-1,909,1709,4.36913,-16.3297
-308,-685,3.14093,16.1351,0,0,0,0,0,0,0,-1,916,1709,3.14095,-16.1351
-301,-685,3.35632,16.6058,0,0,0,0,0,0,0,-1,923,1709,3.35631,-16.6058
-294,-685,3.79559,15.2726,0,0,0,0,0,0,0,-1,930,1709,3.79561,-15.2726
-287,-685,3.74176,15.1799,0,0,0,0,0,0,0,-1,937,1709,3.74174,-15.18
-280,-685,6.03174,13.9315,0,0,0,0,0,0,0,-1,944,1709,6.03174,-13.9315
-273,-685,5.67517,14.4196,0.00844558,0.0125679,-0.0171398,0.02777,-0.00675652,-0.845239,0.0211287,0.0480803,951,1709,5.67517,-14.4195
-266,-685,5.21783,14.9712,0.0110233,0.00989154,-0.0155627,0.0260304,-0.00511552,-0.767225,0.0192862,0.0449659,958,1709,5.21786,-14.9712
-259,-685,5.06781,15.1395,0.0129836,0.00615829,-0.0137848,0.0237719,-0.00462997,-0.664054,0.0175955,0.0406821,965,1709,5.06782,-15.1395
-252,-685,4.84052,15.5007,0.0143026,0.00274516,-0.0113615,0.0212706,-0.00422283,-0.550138,0.0157775,0.037599,972,1709,4.84049,-15.5007
-245,-685,4.61798,15.6929,0.0149375,-0.000318885,-0.00898372,0.0190948,-0.00447613,-0.433409,0.0144548,0.0332566,979,1709,4.61801,-15.6928
-238,-685,4.60883,15.9045,0.0146292,-0.00319556,-0.00677467,0.0169118,-0.00547812,-0.32498,0.0134769,0.0238394,986,1709,4.60881,-15.9046
-231,-685,4.54803,16.1115,0.0138168,-0.00566964,-0.00468943,0.0148866,-0.00673943,-0.224289,0.0127777,0.0158923,993,1709,4.54805,-16.1115
-224,-685,4.53571,16.2733,0.012973,-0.00793977,-0.00284922,0.0133542,-0.008321,-0.133014,0.0126262,0.0144734,1000,1709,4.53571,-16.2733
-217,-685,4.52692,16.4796,0.0117591,-0.00914703,-0.00144366,0.0118583,-0.00924625,-0.0686205,0.0122158,0.0116523,1007,1709,4.52692,-16.4796
-210,-685,4.51672,16.6996,0.00992945,-0.00956016,-0.000413083,0.0099382,-0.00956891,-0.0211823,0.0112631,0.0154015,1014,1709,4.51671,-16.6996
-203,-685,4.51001,16.8685,0.00783144,-0.00909909,0.000229108,0.00783454,-0.00910219,0.013529,0.00978755,0.015424,1021,1709,4.51003,-16.8685
-196,-685,4.50195,17.0309,0.00590361,-0.00824905,0.000494505,0.00592087,-0.0082663,0.034884,0.00822819,0.0131405,1028,1709,4.50197,-17.0308
-189,-685,4.50513,17.1816,0.00426908,-0.00708259,0.000690808,0.00431097,-0.00712447,0.0605574,0.00666853,0.00875066,1035,1709,4.50516,-17.1816
-182,-685,4.50146,17.3435,0.00189372,-0.00602099,0.00137975,0.00212736,-0.00625462,0.167738,0.00503109,0.01269,1042,1709,4.50145,-17.3435
-175,-685,4.495,17.5039,0.000962871,-0.00472239,0.00095652,0.00111949,-0.00487901,0.162295,0.00368299,0.0134206,1049,1709,4.49499,-17.5038
-168,-685,4.49756,17.688,0.000885024,-0.00340366,0.000490439,0.000940394,-0.00345903,0.112423,0.00267516,0.0108828,1056,1709,4.49755,-17.688
-161,-685,4.49426,17.8394,0.000768513,-0.00243705,0.000436751,0.000826954,-0.00249549,0.133018,0.00199722,0.0116789,1063,1709,4.49432,-17.8394
-154,-685,4.50647,17.9723,0.000789652,-0.00155446,0.000272085,0.000820819,-0.00158562,0.114052,0.00141256,0.0104707,1070,1709,4.50643,-17.9722
-147,-685,4.50232,18.1128,0.000972015,-0.00137777,3.41978e-05,0.000972512,-0.00137827,0.0145495,0.00136395,0.00958876,1077,1709,4.50234,-18.1128
-140,-685,4.50928,18.2444,0.00126292,-0.00161976,-0.00017531,0.00127355,-0.00163039,-0.0605176,0.0016808,0.0119766,1084,1709,4.50928,-18.2444
-133,-685,4.52844,18.3754,0.00164659,-0.00208827,-0.000308222,0.00167185,-0.00211354,-0.0817883,0.00219045,0.0104318,1091,1709,4.52847,-18.3754
-126,-685,4.52881,18.5076,0.00208952,-0.00252168,-0.000317876,0.00211133,-0.00254349,-0.0685039,0.00269132,0.00901165,1098,1709,4.52875,-18.5075
-119,-685,4.5509,18.6243,0.00258562,-0.00298863,-0.000312139,0.00260305,-0.00300606,-0.0557642,0.0032412,0.0126369,1105,1709,4.55092,-18.6243
-112,-685,4.54504,18.7485,0.00312161,-0.00341281,-0.000270452,0.00313278,-0.00342398,-0.0412946,0.0037868,0.0124928,1112,1709,4.54502,-18.7485
-105,-685,4.53186,18.8728,0.0035526,-0.00383503,-0.000216764,0.00355895,-0.00384139,-0.0293079,0.00427362,0.0112802,1119,1709,4.53185,-18.8728
-98,-685,4.58374,18.9851,0.00387565,-0.00412989,-9.78498e-05,0.00387685,-0.00413108,-0.0122203,0.00462416,0.0143806,1126,1709,4.58374,-18.9851
-91,-685,4.59509,19.077,0.00397341,-0.00413217,3.26026e-05,0.00397354,-0.0041323,0.00402216,0.00468021,0.0165122,1133,1709,4.59506,-19.077
-84,-685,4.59521,19.1508,0.00413841,-0.00387065,0.000145306,0.00414105,-0.00387329,0.0181347,0.00462794,0.0162124,1140,1709,4.59519,-19.1507
-77,-685,4.64746,19.349,0.00457953,-0.00308374,1.71664e-05,0.00457956,-0.00308378,0.00224007,0.00445244,0.0195434,1147,1709,4.64746,-19.349
-70,-685,4.78076,19.6337,0,0,0,0,0,0,0,-1,1154,1709,4.78071,-19.6336
-63,-685,4.73669,19.7439,0,0,0,0,0,0,0,-1,1161,1709,4.73666,-19.7439
-56,-685,3.93909,15.8704,0,0,0,0,0,0,0,-1,1168,1709,3.93905,-15.8704
-49,-685,3.07471,9.86011,0,0,0,0,0,0,0,-1,1175,1709,3.07467,-9.86009
-42,-685,2.70618,7.54504,0,0,0,0,0,0,0,-1,1182,1709,2.7062,-7.54504
-35,-685,2.95264,7.91516,0,0,0,0,0,0,0,-1,1189,1709,2.95262,-7.91517
-28,-685,4.64526,19.9353,0,0,0,0,0,0,0,-1,1196,1709,4.64532,-19.9353
-21,-685,4.79028,19.8207,-0.0214253,-0.00287361,-0.0243098,0.0138699,-0.0381688,-0.967656,0.0311172,0.0417234,1203,1709,4.79029,-19.8207
-14,-685,4.87708,19.8174,-0.0206577,0.000681673,-0.0249532,0.0171507,-0.0371266,-0.987428,0.0320366,0.0268696,1210,1709,4.87707,-19.8173
-7,-685,4.83923,19.8577,-0.0189089,0.00488975,-0.0249411,0.0206247,-0.0346439,-1.00798,0.0322497,0.0397812,1217,1709,4.83922,-19.8576
0,-685,4.8114,19.9653,-0.0142653,0.0106817,-0.0251917,0.0263189,-0.0299025,-1.01528,0.0324814,0.0435463,1224,1709,4.81142,-19.9653
7,-685,4.87549,20.074,0,0,0,0,0,0,0,-1,1231,1709,4.87545,-20.074
14,-685,4.80444,20.5461,-0.00491055,0.0212131,-0.0243128,0.0357506,-0.0194481,-1.0319,0.032329,0.0408635,1238,1709,4.8044,-20.5461
21,-685,5.19678,20.2388,0.000340394,0.0252863,-0.0236753,0.0395733,-0.0139466,-1.02784,0.0320587,0.0398982,1245,1709,5.19682,-20.2387
28,-685,5.13257,20.2396,0.00450095,0.0278994,-0.0219789,0.0410988,-0.00869846,-1.02997,0.0307121,0.0392127,1252,1709,5.13257,-20.2396
35,-685,5.13135,20.2062,0.00748003,0.0289699,-0.0193238,0.0403352,-0.00388528,-1.03914,0.0282744,0.0384923,1259,1709,5.13137,-20.2062
42,-685,5.17859,20.2765,0.00921517,0.0300492,-0.0163734,0.0390384,0.000225967,-1.06871,0.0259506,0.0396696,1266,1709,5.17858,-20.2764
49,-685,5.46094,20.3027,0.00994984,0.03057,-0.0130344,0.0368789,0.00364088,-1.12001,0.0234667,0.041755,1273,1709,5.46093,-20.3027
56,-685,5.58179,20.228,0.00991662,0.0282021,-0.00946678,0.0322202,0.00589845,-1.16939,0.0198089,0.0438391,1280,1709,5.58177,-20.2281
63,-685,5.71326,20.2405,0.00840727,0.0253507,-0.00628828,0.0274295,0.00632852,-1.25153,0.0165843,0.0417583,1287,1709,5.71324,-20.2404
70,-685,5.7533,20.1879,0.00593218,0.0209979,-0.00313931,0.0216258,0.0053042,-1.37337,0.0130146,0.0426694,1294,1709,5.75327,-20.1879
77,-685,5.70813,20.1633,0.00399566,0.0171123,-0.000107962,0.0171132,0.00399477,-1.56257,0.0103377,0.0459474,1301,1709,5.70818,-20.1633
84,-685,5.35486,20.267,0.00247188,0.0139859,0.00334771,0.0148885,0.00156928,1.30744,0.00944612,0.0474887,1308,1709,5.35485,-20.267
91,-685,5.23364,20.2565,0.0010197,0.0109255,0.00691187,0.0144759,-0.00253064,1.09628,0.0105953,0.0449868,1315,1709,5.2336,-20.2565
98,-685,5.39856,20.1787,-0.000837323,0.00838108,0.00883015,0.0137326,-0.00618886,1.02594,0.0117733,0.0380748,1322,1709,5.39852,-20.1787
105,-685,5.49817,20.0798,-0.00229439,0.00556721,0.01153,0.0138181,-0.0105453,0.949679,0.0141084,0.0392352,1329,1709,5.49815,-20.0798
112,-685,5.44629,20.0776,-0.000472949,0.00445874,0.0130427,0.0152666,-0.0112808,0.878825,0.0153847,0.0410194,1336,1709,5.44626,-20.0776
119,-685,5.46082,20.0369,0.00129854,0.00339538,0.0154711,0.0178536,-0.0131596,0.81923,0.0179737,0.0385864,1343,1709,5.46076,-20.0368
126,-685,5.70496,19.9626,0.00344487,0.00421101,0.0173826,0.0212148,-0.0135589,0.796415,0.0202381,0.0417632,1350,1709,5.70493,-19.9627
133,-685,5.74854,19.9213,0.00524768,0.00549597,0.0193257,0.0246979,-0.0139543,0.78861,0.0226014,0.0476813,1357,1709,5.74853,-19.9212
140,-685,5.72644,20.0054,0.00642933,0.00734639,0.0210979,0.0279907,-0.014215,0.796263,0.0247964,0.0463052,1364,1709,5.72646,-20.0054
147,-685,5.80127,20.0789,0.00714384,0.00837142,0.0225029,0.0302689,-0.0147536,0.799033,0.0265033,0.0451366,1371,1709,5.80123,-20.0789
154,-685,5.81494,20.0253,0,0,0,0,0,0,0,-1,1378,1709,5.81491,-20.0253
161,-685,5.9093,20.215,0,0,0,0,0,0,0,-1,1385,1709,5.90935,-20.215
168,-685,4.37524,10.8778,0,0,0,0,0,0,0,-1,1392,1709,4.37525,-10.8778
175,-685,3.97522,8.94324,0,0,0,0,0,0,0,-1,1399,1709,3.97519,-8.94328
182,-685,3.98218,9.19739,0,0,0,0,0,0,0,-1,1406,1709,3.98221,-9.1974
189,-685,4.53479,15.2343,0,0,0,0,0,0,0,-1,1413,1709,4.53474,-15.2343
196,-685,5.63184,19.9932,0,0,0,0,0,0,0,-1,1420,1709,5.63183,-19.9931
203,-685,5.625,19.7915,0,0,0,0,0,0,0,-1,1427,1709,5.62495,-19.7915
210,-685,5.7301,19.8376,0,0,0,0,0,0,0,-1,1434,1709,5.73008,-19.8376
217,-685,5.74463,19.6049,0.000324206,-2.84515e-05,0.00170623,0.00186319,-0.00156744,0.733909,0.00198313,0.0323334,1441,1709,5.74467,-19.6049
224,-685,5.68506,19.4222,0.000342397,-0.000638047,0.00152757,0.00145648,-0.00175213,0.630131,0.00185511,0.016594,1448,1709,5.68509,-19.4222
231,-685,5.70007,19.3035,0.000482258,-0.00117234,0.00134123,0.00123082,-0.0019209,0.50905,0.00183413,0.0160481,1455,1709,5.70008,-19.3035
238,-685,5.72925,19.1813,0.000878616,-0.00145622,0.00110164,0.00131634,-0.00189395,0.378209,0.00186343,0.0189926,1462,1709,5.7292,-19.1813
245,-685,5.72437,19.1053,0.00116518,-0.00171354,0.000965664,0.0014591,-0.00200746,0.295463,0.00200975,0.0207389,1469,1709,5.72439,-19.1053
252,-685,5.71545,19.0555,0.00151892,-0.0018084,0.000635612,0.0016362,-0.00192568,0.182472,0.00205872,0.0139613,1476,1709,5.71549,-19.0556
259,-685,5.72461,18.9771,0.00180154,-0.00190864,0.000452625,0.00185596,-0.00196306,0.119658,0.0022052,0.00963021,1483,1709,5.72464,-18.9771
266,-685,5.75208,18.8513,0.00193757,-0.00186343,0.000295871,0.00196046,-0.00188633,0.0772205,0.00222108,0.0106537,1490,1709,5.75212,-18.8513
273,-685,5.75171,18.7177,0.00193844,-0.00153181,0.000187616,0.00194855,-0.00154192,0.053855,0.00201978,0.0142465,1497,1709,5.75171,-18.7177
280,-685,5.74707,18.5753,0.00172572,-0.000927978,0.000144233,0.00173354,-0.000935794,0.0541391,0.00156391,0.0167399,1504,1709,5.7471,-18.5753
287,-685,5.76721,18.4576,0.00142221,-0.000280606,0.000145836,0.00143461,-0.000293005,0.0848208,0.00106756,0.0123242,1511,1709,5.76721,-18.4576
294,-685,5.77393,18.3416,0.00109893,0.000364901,0.000128501,0.00112077,0.000343056,0.168394,0.0006631,0.0107156,1518,1709,5.77392,-18.3415
301,-685,5.75049,18.2186,0.000805235,0.000849087,9.36283e-05,0.000923323,0.000731,0.900417,0.000562509,0.0132561,1525,1709,5.75043,-18.2186
308,-685,5.74304,18.0774,0.000601741,0.00142851,-8.06451e-05,0.0014363,0.000593948,-1.47446,0.000833371,0.0141803,1532,1709,5.74303,-18.0774
315,-685,5.76221,17.9344,0.000470344,0.00168544,-0.000215059,0.00172238,0.000433404,-1.40069,0.0010345,0.0122889,1539,1709,5.7622,-17.9345
322,-685,5.7417,17.7847,0.000512349,0.00187384,-0.000448421,0.00200826,0.000377928,-1.27956,0.00123234,0.0193049,1546,1709,5.74169,-17.7847
329,-685,5.74219,17.6345,0.000693666,0.00181243,-0.000810584,0.00223791,0.000268186,-1.08742,0.00141107,0.0191352,1553,1709,5.7422,-17.6345
336,-685,5.74707,17.4773,0.000966251,0.00159818,-0.00118046,0.00250423,6.01978e-05,-0.916164,0.00164979,0.0132534,1560,1709,5.74708,-17.4773
343,-685,5.7323,17.3351,0.00131592,0.00142915,-0.00170603,0.0030795,-0.000334437,-0.801985,0.00217307,0.0114825,1567,1709,5.73228,-17.3351
350,-685,5.73621,17.1743,0.0017166,0.0010555,-0.00225236,0.00366253,-0.000890431,-0.71254,0.00278634,0.0118466,1574,1709,5.73624,-17.1743
357,-685,5.73389,17.0043,0.00237303,0.000823801,-0.00277919,0.00448354,-0.00128671,-0.649488,0.00349773,0.0097801,1581,1709,5.73384,-17.0043
364,-685,5.7251,16.8214,0.0033171,0.000650501,-0.00338017,0.00561743,-0.00164983,-0.597543,0.00439925,0.0097739,1588,1709,5.72514,-16.8214
371,-685,5.76038,16.6464,0.00434502,9.81756e-05,-0.00416253,0.00689445,-0.00245126,-0.54954,0.00559533,0.0166438,1595,1709,5.76034,-16.6464
378,-685,5.67419,16.5198,0.00535129,0.000155715,-0.00481253,0.00822241,-0.0027154,-0.53791,0.00657634,0.0259237,1602,1709,5.67422,-16.5198
385,-685,5.66467,16.369,0.00671116,0.000415256,-0.00567091,0.0100493,-0.00292284,-0.532021,0.00785714,0.0445908,1609,1709,5.66465,-16.369
392,-685,5.76489,16.0563,0.00827278,0.00101338,-0.00655864,0.0121391,-0.00285296,-0.532665,0.0091925,0.0477551,1616,1709,5.76491,-16.0563
399,-685,5.85571,15.9086,0,0,0,0,0,0,0,-1,1623,1709,5.85573,-15.9085
406,-685,5.55786,15.6609,0,0,0,0,0,0,0,-1,1630,1709,5.55789,-15.6608
413,-685,5.87158,15.4625,0,0,0,0,0,0,0,-1,1637,1709,5.8716,-15.4626
420,-685,4.84631,10.3781,0,0,0,0,0,0,0,-1,1644,1709,4.84634,-10.378
427,-685,6.05151,9.21155,0,0,0,0,0,0,0,-1,1651,1709,6.05156,-9.21156
434,-685,4.87769,8.91418,0,0,0,0,0,0,0,-1,1658,1709,4.87768,-8.91413
441,-685,5.62,8.75549,0,0,0,0,0,0,0,-1,1665,1709,5.61996,-8.75545
448,-685,6.4043,8.58972,0,0,0,0,0,0,0,-1,1672,1709,6.40435,-8.58971
455,-685,2.31958,4.09802,0,0,0,0,0,0,0,-1,1679,1709,2.31957,-4.09803
462,-685,0,0,0,0,0,0,0,0,0,-1,1686,1709,0,0
469,-685,0,0,0,0,0,0,0,0,0,-1,1693,1709,0,0
476,-685,0,0,0,0,0,0,0,0,0,-1,1700,1709,0,0
483,-685,0,0,0,0,0,0,0,0,0,-1,1707,1709,0,0
490,-685,0,0,0,0,0,0,0,0,0,-1,1714,1709,0,0
497,-685,0,0,0,0,0,0,0,0,0,-1,1721,1709,0,0
504,-685,0,0,0,0,0,0,0,0,0,-1,1728,1709,0,0
511,-685,0,0,0,0,0,0,0,0,0,-1,1735,1709,0,0
518,-685,0,0,0,0,0,0,0,0,0,-1,1742,1709,0,0
525,-685,0,0,0,0,0,0,0,0,0,-1,1749,1709,0,0
532,-685,0,0,0,0,0,0,0,0,0,-1,1756,1709,0,0
539,-685,0,0,0,0,0,0,0,0,0,-1,1763,1709,0,0
546,-685,0,0,0,0,0,0,0,0,0,-1,1770,1709,0,0
553,-685,0,0,0,0,0,0,0,0,0,-1,1777,1709,0,0
560,-685,0,0,0,0,0,0,0,0,0,-1,1784,1709,0,0
567,-685,0,0,0,0,0,0,0,0,0,-1,1791,1709,0,0
574,-685,0,0,0,0,0,0,0,0,0,-1,1798,1709,0,0
581,-685,0,0,0,0,0,0,0,0,0,-1,1805,1709,0,0
588,-685,0,0,0,0,0,0,0,0,0,-1,1812,1709,0,0
595,-685,0,0,0,0,0,0,0,0,0,-1,1819,1709,0,0
602,-685,0,0,0,0,0,0,0,0,0,-1,1826,1709,0,0
609,-685,0,0,0,0,0,0,0,0,0,-1,1833,1709,0,0
616,-685,0,0,0,0,0,0,0,0,0,-1,1840,1709,0,0
623,-685,0,0,0,0,0,0,0,0,0,-1,1847,1709,0,0
630,-685,0,0,0,0,0,0,0,0,0,-1,1854,1709,0,0
637,-685,0,0,0,0,0,0,0,0,0,-1,1861,1709,0,0
644,-685,0,0,0,0,0,0,0,0,0,-1,1868,1709,0,0
651,-685,0,0,0,0,0,0,0,0,0,-1,1875,1709,0,0
658,-685,0,0,0,0,0,0,0,0,0,-1,1882,1709,0,0
665,-685,0,0,0,0,0,0,0,0,0,-1,1889,1709,0,0
672,-685,0,0,0,0,0,0,0,0,0,-1,1896,1709,0,0
679,-685,0,0,0,0,0,0,0,0,0,-1,1903,1709,0,0
686,-685,0,0,0,0,0,0,0,0,0,-1,1910,1709,0,0
693,-685,0,0,0,0,0,0,0,0,0,-1,1917,1709,0,0
700,-685,0,0,0,0,0,0,0,0,0,-1,1924,1709,0,0
707,-685,0,0,0,0,0,0,0,0,0,-1,1931,1709,0,0
714,-685,0,0,0,0,0,0,0,0,0,-1,1938,1709,0,0
721,-685,0,0,0,0,0,0,0,0,0,-1,1945,1709,0,0
728,-685,0,0,0,0,0,0,0,0,0,-1,1952,1709,0,0
735,-685,0,0,0,0,0,0,0,0,0,-1,1959,1709,0,0
742,-685,0,0,0,0,0,0,0,0,0,-1,1966,1709,0,0
749,-685,0,0,0,0,0,0,0,0,0,-1,1973,1709,0,0
756,-685,0,0,0,0,0,0,0,0,0,-1,1980,1709,0,0
763,-685,0,0,0,0,0,0,0,0,0,-1,1987,1709,0,0
770,-685,0,0,0,0,0,0,0,0,0,-1,1994,1709,0,0
777,-685,0,0,0,0,0,0,0,0,0,-1,2001,1709,0,0
784,-685,0,0,0,0,0,0,0,0,0,-1,2008,1709,0,0
791,-685,0,0,0,0,0,0,0,0,0,-1,2015,1709,0,0
798,-685,0,0,0,0,0,0,0,0,0,-1,2022,1709,0,0
805,-685,0,0,0,0,0,0,0,0,0,-1,2029,1709,0,0
812,-685,0,0,0,0,0,0,0,0,0,-1,2036,1709,0,0
-700,-692,0,0,0,0,0,0,0,0,0,-1,524,1716,0,0
-693,-692,0,0,0,0,0,0,0,0,0,-1,531,1716,0,0
-686,-692,0,0,0,0,0,0,0,0,0,-1,538,1716,0,0
-679,-692,0,0,0,0,0,0,0,0,0,-1,545,1716,0,0
-672,-692,0,0,0,0,0,0,0,0,0,-1,552,1716,0,0
-665,-692,0,0,0,0,0,0,0,0,0,-1,559,1716,0,0
-658,-692,0,0,0,0,0,0,0,0,0,-1,566,1716,0,0
-651,-692,0,0,0,0,0,0,0,0,0,-1,573,1716,0,0
-644,-692,0,0,0,0,0,0,0,0,0,-1,580,1716,0,0
-637,-692,0,0,0,0,0,0,0,0,0,-1,587,1716,0,0
-630,-692,0,0,0,0,0,0,0,0,0,-1,594,1716,0,0
-623,-692,0,0,0,0,0,0,0,0,0,-1,601,1716,0,0
-616,-692,0,0,0,0,0,0,0,0,0,-1,608,1716,0,0
-609,-692,0,0,0,0,0,0,0,0,0,-1,615,1716,0,0
-602,-692,0,0,0,0,0,0,0,0,0,-1,622,1716,0,0
-595,-692,0,0,0,0,0,0,0,0,0,-1,629,1716,0,0
-588,-692,0,0,0,0,0,0,0,0,0,-1,636,1716,0,0
-581,-692,0,0,0,0,0,0,0,0,0,-1,643,1716,0,0
-574,-692,0,0,0,0,0,0,0,0,0,-1,650,1716,0,0
-567,-692,0,0,0,0,0,0,0,0,0,-1,657,1716,0,0
-560,-692,0,0,0,0,0,0,0,0,0,-1,664,1716,0,0
-553,-692,0,0,0,0,0,0,0,0,0,-1,671,1716,0,0
-546,-692,0,0,0,0,0,0,0,0,0,-1,678,1716,0,0
-539,-692,0,0,0,0,0,0,0,0,0,-1,685,1716,0,0
-532,-692,0,0,0,0,0,0,0,0,0,-1,692,1716,0,0
-525,-692,0,0,0,0,0,0,0,0,0,-1,699,1716,0,0
-518,-692,0,0,0,0,0,0,0,0,0,-1,706,1716,0,0
-511,-692,0,0,0,0,0,0,0,0,0,-1,713,1716,0,0
-504,-692,0,0,0,0,0,0,0,0,0,-1,720,1716,0,0
-497,-692,0,0,0,0,0,0,0,0,0,-1,727,1716,0,0
-490,-692,0,0,0,0,0,0,0,0,0,-1,734,1716,0,0
-483,-692,0,0,0,0,0,0,0,0,0,-1,741,1716,0,0
-476,-692,0,0,0,0,0,0,0,0,0,-1,748,1716,0,0
-469,-692,0,0,0,0,0,0,0,0,0,-1,755,1716,0,0
-462,-692,0,0,0,0,0,0,0,0,0,-1,762,1716,0,0
-455,-692,0,0,0,0,0,0,0,0,0,-1,769,1716,0,0
-448,-692,0,0,0,0,0,0,0,0,0,-1,776,1716,0,0
-441,-692,0,0,0,0,0,0,0,0,0,-1,783,1716,0,0
-434,-692,0,0,0,0,0,0,0,0,0,-1,790,1716,0,0
-427,-692,0,0,0,0,0,0,0,0,0,-1,797,1716,0,0
-420,-692,0,0,0,0,0,0,0,0,0,-1,804,1716,0,0
-413,-692,0,0,0,0,0,0,0,0,0,-1,811,1716,0,0
-406,-692,0,0,0,0,0,0,0,0,0,-1,818,1716,0,0
-399,-692,0,0,0,0,0,0,0,0,0,-1,825,1716,0,0
-392,-692,0,0,0,0,0,0,0,0,0,-1,832,1716,0,0
-385,-692,0,0,0,0,0,0,0,0,0,-1,839,1716,0,0
-378,-692,0,0,0,0,0,0,0,0,0,-1,846,1716,0,0
-371,-692,0,0,0,0,0,0,0,0,0,-1,853,1716,0,0
-364,-692,0,0,0,0,0,0,0,0,0,-1,860,1716,0,0
-357,-692,0,0,0,0,0,0,0,0,0,-1,867,1716,0,0
-350,-692,0,0,0,0,0,0,0,0,0,-1,874,1716,0,0
-343,-692,0,0,0,0,0,0,0,0,0,-1,881,1716,0,0
-336,-692,0,0,0,0,0,0,0,0,0,-1,888,1716,0,0
-329,-692,3.03107,4.10266,0,0,0,0,0,0,0,-1,895,1716,3.03105,-4.10267
-322,-692,4.43713,18.5242,0,0,0,0,0,0,0,-1,902,1716,4.43711,-18.5241
-315,-692,5.38965,17.975,0,0,0,0,0,0,0,-1,909,1716,5.38963,-17.975
-308,-692,5.86938,17.4392,0,0,0,0,0,0,0,-1,916,1716,5.86937,-17.4392
-301,-692,5.00916,16.6921,0,0,0,0,0,0,0,-1,923,1716,5.00916,-16.6922
-294,-692,3.56244,16.0201,0,0,0,0,0,0,0,-1,930,1716,3.56244,-16.0201
-287,-692,6.62982,14.1985,0,0,0,0,0,0,0,-1,937,1716,6.62985,-14.1985
-280,-692,6.33008,14.4336,0.0127446,0.0202606,-0.028589,0.0453375,-0.0123323,-0.850748,0.0350663,0.0472844,944,1716,6.33007,-14.4336
-273,-692,6.09753,14.6205,0.0164117,0.0162357,-0.0250678,0.0413917,-0.00874424,-0.783642,0.0309241,0.0456671,951,1716,6.09754,-14.6205
-266,-692,5.95221,14.7052,0.020128,0.0116023,-0.0227332,0.0389946,-0.00726425,-0.692716,0.0287256,0.0487052,958,1716,5.95219,-14.7052
-259,-692,5.72754,14.8984,0,0,0,0,0,0,0,-1,965,1716,5.72754,-14.8984
-252,-692,4.68793,15.5038,0.02407,0.000243126,-0.0165305,0.0325327,-0.00821959,-0.473158,0.024885,0.0496257,972,1716,4.68794,-15.5038
-245,-692,4.74182,15.7181,0.0244784,-0.00406338,-0.0132218,0.029662,-0.00924693,-0.37363,0.0234722,0.0453505,979,1716,4.7418,-15.7182
-238,-692,4.71857,15.954,0.0235322,-0.00791259,-0.0101315,0.0265138,-0.0108943,-0.286215,0.0222163,0.0419774,986,1716,4.71857,-15.954
-231,-692,4.74945,16.1243,0.0218133,-0.0110486,-0.00725746,0.0233447,-0.01258,-0.207963,0.0210492,0.033075,993,1716,4.74944,-16.1243
-224,-692,4.68774,16.3042,0.0201295,-0.0136715,-0.00475701,0.0207862,-0.0143283,-0.137186,0.0203873,0.0171627,1000,1716,4.68775,-16.3042
-217,-692,4.67975,16.4928,0.0179337,-0.014942,-0.00279746,0.0181701,-0.0151783,-0.0842844,0.0192795,0.0127227,1007,1716,4.67975,-16.4928
-210,-692,4.6897,16.6674,0.015014,-0.0150722,-0.001327,0.0150724,-0.0151306,-0.0439926,0.0174377,0.0140848,1014,1716,4.6897,-16.6674
-203,-692,4.69446,16.8344,0.011925,-0.0139877,-0.000374917,0.0119304,-0.0139931,-0.0144644,0.0149827,0.0155542,1021,1716,4.69441,-16.8343
-196,-692,4.68115,17.0226,0.00918159,-0.0123825,8.85847e-05,0.00918195,-0.0123828,0.00410789,0.0124961,0.0169141,1028,1716,4.68116,-17.0226
-189,-692,4.65173,17.1672,0.00698075,-0.0102991,0.000372631,0.00698878,-0.0103071,0.0215512,0.0100468,0.00873222,1035,1716,4.65176,-17.1672
-182,-692,4.64771,17.3386,0.00373528,-0.00825835,0.00134385,0.00388401,-0.00840708,0.110226,0.00725466,0.0133152,1042,1716,4.64776,-17.3386
-175,-692,4.64612,17.5253,0.00239005,-0.00568773,0.000778398,0.00246437,-0.00576206,0.0951957,0.00487508,0.0156011,1049,1716,4.64615,-17.5253
-168,-692,4.64612,17.6798,0.00218392,-0.00336662,0.00014905,0.00218792,-0.00337062,0.0268275,0.00323335,0.0121544,1056,1716,4.64607,-17.6798
-161,-692,4.65881,17.8484,0.00184074,-0.00145518,7.36893e-05,0.00184239,-0.00145683,0.0223428,0.00190913,0.0145963,1063,1716,4.65878,-17.8483
-154,-692,4.66858,17.9983,0.00162745,0.000330073,-0.000113531,0.00163731,0.000320213,-0.0866306,0.001002,0.0152143,1070,1716,4.6686,-17.9984
-147,-692,4.6532,18.1215,0.00157728,0.00103455,-0.000384385,0.00177644,0.000835396,-0.47804,0.00102623,0.013687,1077,1716,4.65325,-18.1214
-140,-692,4.63147,18.246,0.00163746,0.000914708,-0.000539493,0.00192542,0.000626741,-0.4903,0.00113398,0.0104435,1084,1716,4.63145,-18.2459
-133,-692,4.64478,18.3815,0.00176311,0.000464237,-0.000592101,0.00199251,0.000234838,-0.369626,0.00125739,0.00934121,1091,1716,4.64478,-18.3814
-126,-692,4.65234,18.5035,0.00189833,-6.2705e-05,-0.000530728,0.00203275,-0.000197125,-0.248059,0.00142543,0.00782928,1098,1716,4.65229,-18.5036
-119,-692,4.67371,18.6215,0.00206785,-0.000758936,-0.000408831,0.00212579,-0.000816877,-0.140785,0.00175408,0.011203,1105,1716,4.67371,-18.6214
-112,-692,4.66724,18.756,0.0023076,-0.00150524,-0.000201931,0.00231826,-0.00151591,-0.0527641,0.00222976,0.0108761,1112,1716,4.66718,-18.7559
-105,-692,4.68713,18.8855,0.00246881,-0.00222663,1.26581e-06,0.00246881,-0.00222663,0.000269583,0.00271211,0.0157941,1119,1716,4.68711,-18.8854
-98,-692,4.72742,18.9905,0.0025291,-0.00275911,0.000227417,0.00253887,-0.00276888,0.0428988,0.00306539,0.0166382,1126,1716,4.72747,-18.9904
-91,-692,4.72424,19.0575,0.00254445,-0.00299449,0.000401795,0.00257344,-0.00302349,0.0720374,0.00323487,0.0188327,1133,1716,4.72426,-19.0574
-84,-692,4.72705,19.1199,0.00270505,-0.00291334,0.000457287,0.00274203,-0.00295032,0.0806835,0.00328721,0.0210263,1140,1716,4.72705,-19.1198
-77,-692,4.7074,19.2985,0.003081,-0.00208691,0.000229855,0.0030912,-0.00209711,0.0443607,0.00301374,0.0146032,1147,1716,4.70736,-19.2985
-70,-692,4.7478,19.4469,0.00344948,-0.00122384,-1.41917e-05,0.00344952,-0.00122388,-0.00303671,0.00279832,0.0210229,1154,1716,4.74783,-19.4469
-63,-692,4.79065,19.5565,0.00241133,-0.00187901,-0.00175497,0.00303774,-0.00250543,-0.342841,0.00320526,0.0339752,1161,1716,4.79061,-19.5565
-56,-692,4.84656,19.6462,0,0,0,0,0,0,0,-1,1168,1716,4.8466,-19.6462
-49,-692,4.71399,19.6696,0,0,0,0,0,0,0,-1,1175,1716,4.71394,-19.6696
-42,-692,4.77405,19.8662,0,0,0,0,0,0,0,-1,1182,1716,4.77405,-19.8663
-35,-692,4.82129,19.9244,0,0,0,0,0,0,0,-1,1189,1716,4.82129,-19.9244
-28,-692,4.7478,19.9259,-0.00986994,0.000293557,-0.0156968,0.0117107,-0.0212871,-0.941946,0.0193169,0.0421771,1196,1716,4.74778,-19.9259
-21,-692,4.85901,19.8688,-0.011266,0.00241212,-0.0175103,0.0143715,-0.0232254,-0.971575,0.0219063,0.0279103,1203,1716,4.85904,-19.8688
-14,-692,4.92493,19.9127,-0.0110687,0.00498013,-0.0186558,0.0172641,-0.0233527,-0.988501,0.0235378,0.0156767,1210,1716,4.92489,-19.9128
-7,-692,4.91309,19.9867,-0.0098605,0.00768997,-0.0190248,0.0198658,-0.0220364,-1.00148,0.0242031,0.0151193,1217,1716,4.91311,-19.9867
0,-692,4.92798,20.0616,-0.00636692,0.0117692,-0.0196694,0.0243601,-0.0189579,-1.00139,0.0250744,0.0174317,1224,1716,4.92803,-20.0616
7,-692,4.95154,20.1331,-0.00355665,0.0152476,-0.0193447,0.027354,-0.015663,-1.0116,0.0251398,0.0210173,1231,1716,4.95148,-20.133
14,-692,5.02124,20.2123,-8.15344e-05,0.0190775,-0.0192095,0.0309636,-0.0119676,-1.0167,0.0255824,0.0233555,1238,1716,5.02126,-20.2122
21,-692,5.10486,20.1969,0.00348778,0.0218045,-0.0186401,0.0334146,-0.00812231,-1.01374,0.0254201,0.0248999,1245,1716,5.10485,-20.1969
28,-692,5.09131,20.1697,0.0062669,0.0234662,-0.0171366,0.0340399,-0.00430683,-1.01795,0.0242567,0.0250656,1252,1716,5.09125,-20.1696
35,-692,5.10095,20.2084,0.00832108,0.0240928,-0.0150956,0.0332383,-0.000824353,-1.0261,0.0224387,0.0230688,1259,1716,5.10093,-20.2084
42,-692,5.13196,20.2849,0.00948761,0.0245609,-0.0128927,0.0319582,0.00209034,-1.0499,0.020644,0.0201458,1266,1716,5.132,-20.2849
49,-692,5.17212,20.2991,0.0100006,0.0244385,-0.0102909,0.0297899,0.00464911,-1.09126,0.0185059,0.0234578,1273,1716,5.17207,-20.2991
56,-692,5.21375,20.3049,0.00993678,0.0222242,-0.00749625,0.0257727,0.00638828,-1.12868,0.0154977,0.0301513,1280,1716,5.2138,-20.3049
63,-692,5.23413,20.3149,0.00864152,0.0195918,-0.00496738,0.0215094,0.00672396,-1.20239,0.0127058,0.0285854,1287,1716,5.23415,-20.3149
70,-692,5.40662,20.182,0,0,0,0,0,0,0,-1,1294,1716,5.40667,-20.182
77,-692,5.26697,20.335,0.00567579,0.012278,-0.000187989,0.0122834,0.00567045,-1.54235,0.00709875,0.0289297,1301,1716,5.26698,-20.335
84,-692,5.28748,20.3136,0.00497186,0.00906361,0.00232099,0.0101117,0.00392377,1.14664,0.00588657,0.0348201,1308,1716,5.28746,-20.3137
91,-692,5.28284,20.293,0.00438268,0.00617743,0.00497967,0.0103399,0.000220171,0.874545,0.00682109,0.031388,1315,1716,5.28282,-20.293
98,-692,5.27039,20.2716,0.00354682,0.00376967,0.0063452,0.0100044,-0.00268794,0.794178,0.00772312,0.0247047,1322,1716,5.27038,-20.2717
105,-692,5.32202,20.2599,0.00303007,0.00101734,0.0083309,0.0104152,-0.00636776,0.72529,0.0097831,0.0321353,1329,1716,5.32202,-20.2599
112,-692,5.34399,20.235,0.00524941,-0.000358184,0.00935101,0.0122079,-0.0073167,0.639744,0.0113898,0.0373655,1336,1716,5.34401,-20.2349
119,-692,5.34961,20.1559,0.00755254,-0.00184466,0.0111387,0.0149431,-0.00923521,0.585808,0.0140884,0.0311243,1343,1716,5.34959,-20.1558
126,-692,5.37256,20.1567,0.0102501,-0.00180262,0.0125076,0.0181075,-0.00965995,0.5609,0.0162769,0.0309639,1350,1716,5.37252,-20.1567
133,-692,5.39172,20.1766,0.0129426,-0.00150455,0.0137742,0.0212724,-0.00983436,0.543899,0.0183597,0.0235885,1357,1716,5.39172,-20.1766
140,-692,5.44189,20.1512,0.0152358,-0.000809769,0.014968,0.0241955,-0.00976949,0.539384,0.0201907,0.0265651,1364,1716,5.44193,-20.1513
147,-692,5.4895,20.2179,0.0169755,-0.00058068,0.0159388,0.0263935,-0.00999871,0.533693,0.0217101,0.0294309,1371,1716,5.48951,-20.2179
154,-692,5.41455,20.1858,0.0177418,-0.000143555,0.0163935,0.0274731,-0.00987488,0.535707,0.0223465,0.0284714,1378,1716,5.41456,-20.1858
161,-692,5.64001,20.14,0.0175456,0.00144117,0.0164539,0.0278119,-0.00882517,0.55784,0.022079,0.0432585,1385,1716,5.64007,-20.14
168,-692,5.82996,20.1212,0,0,0,0,0,0,0,-1,1392,1716,5.82991,-20.1212
175,-692,5.53503,19.9756,0,0,0,0,0,0,0,-1,1399,1716,5.53503,-19.9756
182,-692,5.52441,19.9008,0,0,0,0,0,0,0,-1,1406,1716,5.52444,-19.9008
189,-692,5.53625,19.8325,0,0,0,0,0,0,0,-1,1413,1716,5.5362,-19.8325
196,-692,5.55005,19.7705,0.00200071,0.000714873,0.00262781,0.00406311,-0.00134752,0.665425,0.00325233,0.0299951,1420,1716,5.55002,-19.7705
203,-692,5.55469,19.7233,0.0014203,0.000740263,0.00179141,0.00290368,-0.00074311,0.691611,0.00222524,0.0187784,1427,1716,5.55475,-19.7232
210,-692,5.58887,19.6479,0.000924686,0.000417266,0.00162907,0.00231968,-0.000977731,0.708149,0.00195561,0.0171312,1434,1716,5.58886,-19.6479
217,-692,5.58472,19.5347,0.000386991,-3.00384e-05,0.00125549,0.00145117,-0.00109421,0.703108,0.00147438,0.0165202,1441,1716,5.58473,-19.5347
224,-692,5.5824,19.4576,0.000369069,-0.000418892,0.00107431,0.00111936,-0.00116918,0.609648,0.0013214,0.0130076,1448,1716,5.58236,-19.4577
231,-692,5.58716,19.3534,0.000431961,-0.000766019,0.000882467,0.000899525,-0.00123358,0.487232,0.00123657,0.0112987,1455,1716,5.5871,-19.3534
238,-692,5.62036,19.1978,0.000660041,-0.000975767,0.000675347,0.000902826,-0.00121855,0.345109,0.00122929,0.0173769,1462,1716,5.62037,-19.1978
245,-692,5.61304,19.1072,0.000846836,-0.00113835,0.000540367,0.000984392,-0.00127591,0.249266,0.0013086,0.020359,1469,1716,5.61304,-19.1072
252,-692,5.60205,19.0444,0.00104343,-0.00118939,0.000293405,0.00108134,-0.0012273,0.1285,0.00133378,0.0176897,1476,1716,5.60201,-19.0445
259,-692,5.60681,18.9763,0.00117207,-0.00117847,0.000146709,0.00118119,-0.00118759,0.0620939,0.00136762,0.00916804,1483,1716,5.60684,-18.9763
266,-692,5.60852,18.8434,0.00115766,-0.000924093,6.8701e-05,0.00115992,-0.000926358,0.0329538,0.00120703,0.00866815,1490,1716,5.6085,-18.8433
273,-692,5.61047,18.7087,0.00103224,-0.00050397,1.58111e-05,0.00103241,-0.000504133,0.0102908,0.00090443,0.0135591,1497,1716,5.61046,-18.7088
280,-692,5.62451,18.5728,0.000747303,0.000158546,4.1519e-05,0.000750217,0.000155633,0.0700576,0.000457184,0.0142006,1504,1716,5.62452,-18.5727
287,-692,5.6366,18.4678,0.000439138,0.000785256,0.000101155,0.000812651,0.000411744,1.30632,0.000469198,0.0112182,1511,1716,5.6366,-18.4678
294,-692,5.63354,18.3619,8.78853e-05,0.00146733,0.000134278,0.00148028,7.49359e-05,1.47466,0.000962849,0.010065,1518,1716,5.63351,-18.3619
301,-692,5.63123,18.2408,-0.000202829,0.0019971,0.000140635,0.00200605,-0.000211783,1.50721,0.00141326,0.0131195,1525,1716,5.6312,-18.2409
308,-692,5.59717,18.1053,-0.000315748,0.00264226,-6.90723e-05,0.00264387,-0.00031736,-1.54746,0.00187733,0.0171092,1532,1716,5.5972,-18.1053
315,-692,5.62427,17.9604,-0.000344163,0.00288427,-0.000219252,0.00289909,-0.000358985,-1.5033,0.00206283,0.0153895,1539,1716,5.62424,-17.9605
322,-692,5.59204,17.776,-0.000133121,0.0030397,-0.000514147,0.00312093,-0.000214357,-1.41409,0.00215563,0.0187883,1546,1716,5.592,-17.776
329,-692,5.56958,17.6154,0.00026458,0.00289513,-0.000983811,0.00322236,-6.26533e-05,-1.24969,0.00216943,0.0166482,1553,1716,5.56961,-17.6153
336,-692,5.56433,17.4648,0.000806757,0.00256609,-0.00149841,0.00342397,-5.11185e-05,-1.05083,0.00229987,0.0115205,1560,1716,5.5643,-17.4648
343,-692,5.58643,17.3134,0.00147695,0.00230443,-0.00222069,0.0041496,-0.000368214,-0.877498,0.00289695,0.0120057,1567,1716,5.58639,-17.3134
350,-692,5.59375,17.1686,0.0021912,0.00178384,-0.00297608,0.00497056,-0.000995521,-0.751232,0.00369058,0.0125614,1574,1716,5.59378,-17.1685
357,-692,5.58923,17.0234,0.00322441,0.0014297,-0.00375322,0.00618606,-0.00153195,-0.668057,0.00471833,0.0158344,1581,1716,5.58923,-17.0234
364,-692,5.5968,16.8534,0.00463623,0.00111365,-0.00460517,0.00780543,-0.00205555,-0.602751,0.0060072,0.0229573,1588,1716,5.59682,-16.8535
371,-692,5.73438,16.6859,0.00618415,0.00025709,-0.00571312,0.00965663,-0.00321539,-0.546141,0.00773561,0.0357184,1595,1716,5.73434,-16.6859
378,-692,5.91382,16.6743,0.00756488,0.000253426,-0.00657305,0.0114304,-0.0036121,-0.531615,0.00906738,0.045807,1602,1716,5.91378,-16.6743
385,-692,5.91956,16.4519,0,0,0,0,0,0,0,-1,1609,1716,5.9195,-16.4519
392,-692,5.54346,15.707,0,0,0,0,0,0,0,-1,1616,1716,5.54349,-15.7071
399,-692,5.2627,10.4279,0,0,0,0,0,0,0,-1,1623,1716,5.26267,-10.4278
406,-692,4.73633,10.6808,0,0,0,0,0,0,0,-1,1630,1716,4.73637,-10.6808
413,-692,4.25085,10.5685,0,0,0,0,0,0,0,-1,1637,1716,4.2508,-10.5685
420,-692,5.48901,10.4845,0,0,0,0,0,0,0,-1,1644,1716,5.48906,-10.4845
427,-692,3.79578,8.60339,0,0,0,0,0,0,0,-1,1651,1716,3.79577,-8.6034
434,-692,4.78516,8.64636,0,0,0,0,0,0,0,-1,1658,1716,4.78512,-8.64634
441,-692,5.8208,8.74036,0,0,0,0,0,0,0,-1,1665,1716,5.82084,-8.7404
448,-692,6.73792,8.51013,0,0,0,0,0,0,0,-1,1672,1716,6.73793,-8.5101
455,-692,0,0,0,0,0,0,0,0,0,-1,1679,1716,0,0
462,-692,0,0,0,0,0,0,0,0,0,-1,1686,1716,0,0
469,-692,0,0,0,0,0,0,0,0,0,-1,1693,1716,0,0
476,-692,0,0,0,0,0,0,0,0,0,-1,1700,1716,0,0
483,-692,0,0,0,0,0,0,0,0,0,-1,1707,1716,0,0
490,-692,0,0,0,0,0,0,0,0,0,-1,1714,1716,0,0
497,-692,0,0,0,0,0,0,0,0,0,-1,1721,1716,0,0
504,-692,0,0,0,0,0,0,0,0,0,-1,1728,1716,0,0
511,-692,0,0,0,0,0,0,0,0,0,-1,1735,1716,0,0
518,-692,0,0,0,0,0,0,0,0,0,-1,1742,1716,0,0
525,-692,0,0,0,0,0,0,0,0,0,-1,1749,1716,0,0
532,-692,0,0,0,0,0,0,0,0,0,-1,1756,1716,0,0
539,-692,0,0,0,0,0,0,0,0,0,-1,1763,1716,0,0
546,-692,0,0,0,0,0,0,0,0,0,-1,1770,1716,0,0
553,-692,0,0,0,0,0,0,0,0,0,-1,1777,1716,0,0
560,-692,0,0,0,0,0,0,0,0,0,-1,1784,1716,0,0
567,-692,0,0,0,0,0,0,0,0,0,-1,1791,1716,0,0
574,-692,0,0,0,0,0,0,0,0,0,-1,1798,1716,0,0
581,-692,0,0,0,0,0,0,0,0,0,-1,1805,1716,0,0
588,-692,0,0,0,0,0,0,0,0,0,-1,1812,1716,0,0
595,-692,0,0,0,0,0,0,0,0,0,-1,1819,1716,0,0
602,-692,0,0,0,0,0,0,0,0,0,-1,1826,1716,0,0
609,-692,0,0,0,0,0,0,0,0,0,-1,1833,1716,0,0
616,-692,0,0,0,0,0,0,0,0,0,-1,1840,1716,0,0
623,-692,0,0,0,0,0,0,0,0,0,-1,1847,1716,0,0
630,-692,0,0,0,0,0,0,0,0,0,-1,1854,1716,0,0
637,-692,0,0,0,0,0,0,0,0,0,-1,1861,1716,0,0
644,-692,0,0,0,0,0,0,0,0,0,-1,1868,1716,0,0
651,-692,0,0,0,0,0,0,0,0,0,-1,1875,1716,0,0
658,-692,0,0,0,0,0,0,0,0,0,-1,1882,1716,0,0
665,-692,0,0,0,0,0,0,0,0,0,-1,1889,1716,0,0
672,-692,0,0,0,0,0,0,0,0,0,-1,1896,1716,0,0
679,-692,0,0,0,0,0,0,0,0,0,-1,1903,1716,0,0
686,-692,0,0,0,0,0,0,0,0,0,-1,1910,1716,0,0
693,-692,0,0,0,0,0,0,0,0,0,-1,1917,1716,0,0
700,-692,0,0,0,0,0,0,0,0,0,-1,1924,1716,0,0
707,-692,0,0,0,0,0,0,0,0,0,-1,1931,1716,0,0
714,-692,0,0,0,0,0,0,0,0,0,-1,1938,1716,0,0
721,-692,0,0,0,0,0,0,0,0,0,-1,1945,1716,0,0
728,-692,0,0,0,0,0,0,0,0,0,-1,1952,1716,0,0
735,-692,0,0,0,0,0,0,0,0,0,-1,1959,1716,0,0
742,-692,0,0,0,0,0,0,0,0,0,-1,1966,1716,0,0
749,-692,0,0,0,0,0,0,0,0,0,-1,1973,1716,0,0
756,-692,0,0,0,0,0,0,0,0,0,-1,1980,1716,0,0
763,-692,0,0,0,0,0,0,0,0,0,-1,1987,1716,0,0
770,-692,0,0,0,0,0,0,0,0,0,-1,1994,1716,0,0
777,-692,0,0,0,0,0,0,0,0,0,-1,2001,1716,0,0
784,-692,0,0,0,0,0,0,0,0,0,-1,2008,1716,0,0
791,-692,0,0,0,0,0,0,0,0,0,-1,2015,1716,0,0
798,-692,0,0,0,0,0,0,0,0,0,-1,2022,1716,0,0
805,-692,0,0,0,0,0,0,0,0,0,-1,2029,1716,0,0
812,-692,0,0,0,0,0,0,0,0,0,-1,2036,1716,0,0
-700,-699,0,0,0,0,0,0,0,0,0,-1,524,1723,0,0
-693,-699,0,0,0,0,0,0,0,0,0,-1,531,1723,0,0
-686,-699,0,0,0,0,0,0,0,0,0,-1,538,1723,0,0
-679,-699,0,0,0,0,0,0,0,0,0,-1,545,1723,0,0
-672,-699,0,0,0,0,0,0,0,0,0,-1,552,1723,0,0
-665,-699,0,0,0,0,0,0,0,0,0,-1,559,1723,0,0
-658,-699,0,0,0,0,0,0,0,0,0,-1,566,1723,0,0
-651,-699,0,0,0,0,0,0,0,0,0,-1,573,1723,0,0
-644,-699,0,0,0,0,0,0,0,0,0,-1,580,1723,0,0
-637,-699,0,0,0,0,0,0,0,0,0,-1,587,1723,0,0
-630,-699,0,0,0,0,0,0,0,0,0,-1,594,1723,0,0
-623,-699,0,0,0,0,0,0,0,0,0,-1,601,1723,0,0
-616,-699,0,0,0,0,0,0,0,0,0,-1,608,1723,0,0
-609,-699,0,0,0,0,0,0,0,0,0,-1,615,1723,0,0
-602,-699,0,0,0,0,0,0,0,0,0,-1,622,1723,0,0
-595,-699,0,0,0,0,0,0,0,0,0,-1,629,1723,0,0
-588,-699,0,0,0,0,0,0,0,0,0,-1,636,1723,0,0
-581,-699,0,0,0,0,0,0,0,0,0,-1,643,1723,0,0
-574,-699,0,0,0,0,0,0,0,0,0,-1,650,1723,0,0
-567,-699,0,0,0,0,0,0,0,0,0,-1,657,1723,0,0
-560,-699,0,0,0,0,0,0,0,0,0,-1,664,1723,0,0
-553,-699,0,0,0,0,0,0,0,0,0,-1,671,1723,0,0
-546,-699,0,0,0,0,0,0,0,0,0,-1,678,1723,0,0
-539,-699,0,0,0,0,0,0,0,0,0,-1,685,1723,0,0
-532,-699,0,0,0,0,0,0,0,0,0,-1,692,1723,0,0
-525,-699,0,0,0,0,0,0,0,0,0,-1,699,1723,0,0
-518,-699,0,0,0,0,0,0,0,0,0,-1,706,1723,0,0
-511,-699,0,0,0,0,0,0,0,0,0,-1,713,1723,0,0
-504,-699,0,0,0,0,0,0,0,0,0,-1,720,1723,0,0
-497,-699,0,0,0,0,0,0,0,0,0,-1,727,1723,0,0
-490,-699,0,0,0,0,0,0,0,0,0,-1,734,1723,0,0
-483,-699,0,0,0,0,0,0,0,0,0,-1,741,1723,0,0
-476,-699,0,0,0,0,0,0,0,0,0,-1,748,1723,0,0
-469,-699,0,0,0,0,0,0,0,0,0,-1,755,1723,0,0
-462,-699,0,0,0,0,0,0,0,0,0,-1,762,1723,0,0
-455,-699,0,0,0,0,0,0,0,0,0,-1,769,1723,0,0
-448,-699,0,0,0,0,0,0,0,0,0,-1,776,1723,0,0
-441,-699,0,0,0,0,0,0,0,0,0,-1,783,1723,0,0
-434,-699,0,0,0,0,0,0,0,0,0,-1,790,1723,0,0
-427,-699,0,0,0,0,0,0,0,0,0,-1,797,1723,0,0
-420,-699,0,0,0,0,0,0,0,0,0,-1,804,1723,0,0
-413,-699,0,0,0,0,0,0,0,0,0,-1,811,1723,0,0
-406,-699,0,0,0,0,0,0,0,0,0,-1,818,1723,0,0
-399,-699,0,0,0,0,0,0,0,0,0,-1,825,1723,0,0
-392,-699,0,0,0,0,0,0,0,0,0,-1,832,1723,0,0
-385,-699,0,0,0,0,0,0,0,0,0,-1,839,1723,0,0
-378,-699,0,0,0,0,0,0,0,0,0,-1,846,1723,0,0
-371,-699,0,0,0,0,0,0,0,0,0,-1,853,1723,0,0
-364,-699,0,0,0,0,0,0,0,0,0,-1,860,1723,0,0
-357,-699,0,0,0,0,0,0,0,0,0,-1,867,1723,0,0
-350,-699,0,0,0,0,0,0,0,0,0,-1,874,1723,0,0
-343,-699,0,0,0,0,0,0,0,0,0,-1,881,1723,0,0
-336,-699,0,0,0,0,0,0,0,0,0,-1,888,1723,0,0
-329,-699,0,0,0,0,0,0,0,0,0,-1,895,1723,0,0
-322,-699,0,0,0,0,0,0,0,0,0,-1,902,1723,0,0
-315,-699,6.20001,19.5193,0,0,0,0,0,0,0,-1,909,1723,6.20001,-19.5193
-308,-699,6.98151,18.9218,0,0,0,0,0,0,0,-1,916,1723,6.98151,-18.9217
-301,-699,4.72729,12.8752,0,0,0,0,0,0,0,-1,923,1723,4.72732,-12.8752
-294,-699,7.30756,14.6849,0,0,0,0,0,0,0,-1,930,1723,7.30753,-14.6849
-287,-699,7.11224,14.0415,0,0,0,0,0,0,0,-1,937,1723,7.11221,-14.0415
-280,-699,7.0246,14.1304,0.0237013,0.0268871,-0.0407746,0.0660999,-0.0155115,-0.804921,0.0500449,0.0466722,944,1723,7.02461,-14.1304
-273,-699,6.91669,14.2992,0.0289148,0.0198712,-0.0356654,0.0603439,-0.0115579,-0.722343,0.0445841,0.045541,951,1723,6.91666,-14.2992
-266,-699,6.71173,14.4189,0,0,0,0,0,0,0,-1,958,1723,6.71176,-14.419
-259,-699,5.67737,10.8545,0,0,0,0,0,0,0,-1,965,1723,5.67736,-10.8545
-252,-699,4.82227,15.5057,0,0,0,0,0,0,0,-1,972,1723,4.82229,-15.5058
-245,-699,4.89026,15.7416,0,0,0,0,0,0,0,-1,979,1723,4.89023,-15.7416
-238,-699,4.74304,15.8661,0,0,0,0,0,0,0,-1,986,1723,4.74304,-15.8661
-231,-699,4.82739,15.9939,0.0325786,-0.0190596,-0.0109193,0.0347927,-0.0212736,-0.200052,0.0326821,0.0407121,993,1723,4.82739,-15.9939
-224,-699,4.81244,16.3044,0.0296611,-0.021919,-0.00773091,0.0307949,-0.0230528,-0.14562,0.0311959,0.0358812,1000,1723,4.81241,-16.3044
-217,-699,4.87115,16.4858,0.0260978,-0.0232169,-0.0051488,0.0266296,-0.0237488,-0.102928,0.0291018,0.0276049,1007,1723,4.87117,-16.4859
-210,-699,4.89209,16.637,0.0217646,-0.0229441,-0.00321199,0.0219942,-0.0231737,-0.0713543,0.0260806,0.019641,1014,1723,4.89211,-16.637
-203,-699,4.87329,16.7968,0.01745,-0.0210105,-0.00194638,0.0175483,-0.0211087,-0.0504356,0.0223502,0.022468,1021,1723,4.87334,-16.7967
-196,-699,4.8335,16.9775,0.0137018,-0.0183831,-0.00127632,0.0137524,-0.0184338,-0.0396959,0.0186481,0.0169515,1028,1723,4.83355,-16.9775
-189,-699,4.81348,17.174,0.0107534,-0.0151163,-0.000856784,0.0107817,-0.0151446,-0.0330709,0.0150391,0.00867522,1035,1723,4.81349,-17.1739
-182,-699,4.8103,17.3552,0.0064778,-0.0115757,0.000433681,0.00648821,-0.0115861,0.0240035,0.0105727,0.0119238,1042,1723,4.81031,-17.3553
-175,-699,4.82031,17.5374,0.00460911,-0.00722059,-0.00026875,0.00461521,-0.00722669,-0.0227026,0.00689212,0.0144287,1049,1723,4.8203,-17.5374
-168,-699,4.83398,17.672,0.00417026,-0.00353163,-0.000994425,0.00429658,-0.00365795,-0.126354,0.00459748,0.0151041,1056,1723,4.83397,-17.672
-161,-699,4.82227,17.8174,0.00348714,-0.000296053,-0.000987576,0.00372943,-0.000538336,-0.24058,0.00268379,0.0138245,1063,1723,4.82228,-17.8174
-154,-699,4.81091,17.9847,0.00292816,0.0027948,-0.00110389,0.00396738,0.00175558,-0.755233,0.00229561,0.0137217,1070,1723,4.81086,-17.9848
-147,-699,4.80664,18.1243,0.00255207,0.00434707,-0.00131995,0.00504575,0.00185339,-1.08397,0.00294716,0.014505,1077,1723,4.80669,-18.1243
-140,-699,4.77466,18.2324,0.00233258,0.00451441,-0.00135413,0.00516239,0.0016846,-1.12448,0.00303985,0.00983816,1084,1723,4.77468,-18.2324
-133,-699,4.78125,18.3932,0.00219098,0.00420373,-0.00129265,0.00483556,0.00155914,-1.11616,0.00284989,0.00850725,1091,1723,4.7813,-18.3931
-126,-699,4.79102,18.5172,0.0019778,0.00372489,-0.00110846,0.00426264,0.00144005,-1.11911,0.00250381,0.010987,1098,1723,4.79097,-18.5172
-119,-699,4.81995,18.6456,0.00181297,0.00281384,-0.000862496,0.00331057,0.00131624,-1.04827,0.00192468,0.0159512,1105,1723,4.82,-18.6456
-112,-699,4.78723,18.7804,0.00185059,0.00169915,-0.000549395,0.00232946,0.00122028,-0.716916,0.00134542,0.0109882,1112,1723,4.78718,-18.7804
-105,-699,4.78223,18.9033,0.00185749,0.000553503,-0.000269899,0.00191115,0.000499847,-0.196241,0.00114447,0.0121335,1119,1723,4.78219,-18.9034
-98,-699,4.83289,18.9978,0.00179686,-0.000423991,1.91699e-05,0.00179702,-0.000424157,0.00863093,0.0013616,0.0142553,1126,1723,4.8329,-18.9978
-91,-699,4.85535,19.0579,0.00173829,-0.00104902,0.000271668,0.00176452,-0.00107525,0.0962588,0.00165556,0.0195468,1133,1723,4.8553,-19.0578
-84,-699,4.83569,19.1405,0.00175227,-0.00135529,0.000407812,0.0018049,-0.00140791,0.128338,0.00185963,0.0226643,1140,1723,4.83569,-19.1404
-77,-699,4.82056,19.281,0.00200204,-0.000900852,0.000246779,0.00202287,-0.000921681,0.0842062,0.00173922,0.015525,1147,1723,4.82054,-19.281
-70,-699,4.82507,19.3892,0.0023173,-0.000286237,3.27856e-07,0.0023173,-0.000286237,0.000125927,0.00164858,0.0159612,1154,1723,4.82506,-19.3891
-63,-699,4.84265,19.4924,0.00232412,-0.000485557,-0.000637176,0.00246187,-0.000623302,-0.212905,0.00188371,0.0138873,1161,1723,4.84261,-19.4925
-56,-699,4.83118,19.5878,0.00168577,-0.00220933,-0.00184658,0.00242202,-0.00294559,-0.379396,0.0031039,0.0102379,1168,1723,4.83118,-19.5878
-49,-699,4.82007,19.681,-0.000438374,-0.00199773,-0.00358396,0.00244973,-0.00488583,-0.678294,0.00431234,0.0217236,1175,1723,4.8201,-19.6811
-42,-699,4.85303,19.7921,-0.0020868,-0.00187379,-0.00520497,0.00322577,-0.00718636,-0.795628,0.0061547,0.0254237,1182,1723,4.85306,-19.7922
-35,-699,4.8623,19.8516,-0.00193304,0.000348688,-0.00695108,0.0062519,-0.00783626,-0.866737,0.00815093,0.0229721,1189,1723,4.86236,-19.8516
-28,-699,4.89966,19.8798,-0.00294628,0.00250375,-0.00857295,0.00877435,-0.00921688,-0.939279,0.0103883,0.0185991,1196,1723,4.89971,-19.8797
-21,-699,4.92236,19.8989,-0.0041557,0.00423871,-0.0100737,0.0109546,-0.0108716,-0.982786,0.0126014,0.0133219,1203,1723,4.92233,-19.8989
-14,-699,4.94067,19.9646,-0.00436751,0.00617318,-0.0113043,0.0133754,-0.0115697,-1.00353,0.0144146,0.0116608,1210,1723,4.94066,-19.9646
-7,-699,4.94714,20.0339,-0.00369008,0.0080227,-0.0118539,0.0153879,-0.0110553,-1.01484,0.0153352,0.00847688,1217,1723,4.94713,-20.034
0,-699,4.96545,20.0929,-0.00144152,0.0109204,-0.0126938,0.0188581,-0.00937927,-1.01196,0.0166062,0.0106348,1224,1723,4.9655,-20.0929
7,-699,4.98291,20.1641,0.000158102,0.0133467,-0.0126709,0.0210366,-0.00753177,-1.02533,0.0170972,0.0163492,1231,1723,4.98293,-20.164
14,-699,5.01563,20.1996,0.00226864,0.0160581,-0.0127496,0.0236578,-0.00533107,-1.03327,0.0178168,0.0168657,1238,1723,5.01564,-20.1996
21,-699,5.03613,20.2125,0.00446877,0.0178667,-0.0124299,0.0252878,-0.0029524,-1.03255,0.0179239,0.0162418,1245,1723,5.03617,-20.2125
28,-699,5.0437,20.2216,0.00616142,0.0188738,-0.0113518,0.0255278,-0.000492573,-1.04061,0.0171851,0.015653,1252,1723,5.04373,-20.2216
35,-699,5.06702,20.2634,0.0075005,0.0192026,-0.00998285,0.0249227,0.00178037,-1.05047,0.0160546,0.0132784,1259,1723,5.06707,-20.2635
42,-699,5.08826,20.2941,0.00824537,0.0192696,-0.00853819,0.0239204,0.00359461,-1.07203,0.014894,0.0119391,1266,1723,5.08831,-20.294
49,-699,5.11316,20.3125,0.00862383,0.0188331,-0.00673419,0.0221787,0.00527822,-1.1097,0.0133781,0.0134909,1273,1723,5.11318,-20.3125
56,-699,5.15393,20.3477,0.00856069,0.0167834,-0.00476785,0.0189677,0.00637636,-1.1412,0.0111452,0.0147652,1280,1723,5.15396,-20.3477
63,-699,5.17859,20.3512,0.00766806,0.0145136,-0.00300091,0.0156429,0.00653882,-1.21089,0.0090718,0.0128993,1287,1723,5.17859,-20.3512
70,-699,5.18628,20.3511,0.00640162,0.0112179,-0.00129665,0.0115448,0.00607472,-1.32383,0.00666843,0.0106273,1294,1723,5.18631,-20.351
77,-699,5.19116,20.3523,0.00565973,0.00828096,0.000366294,0.00833119,0.0056095,1.43453,0.00490539,0.0104152,1301,1723,5.19113,-20.3523
84,-699,5.21118,20.3517,0.00521661,0.00559323,0.00215877,0.00757189,0.00323795,0.828903,0.00438687,0.0125749,1308,1723,5.21119,-20.3517
91,-699,5.23328,20.3529,0.0047815,0.00317911,0.00401917,0.00807855,-0.000117944,0.687016,0.00542545,0.0117939,1315,1723,5.23327,-20.3529
98,-699,5.24829,20.3423,0.00406416,0.00129509,0.00494778,0.00781747,-0.00245822,0.648973,0.0061958,0.0100561,1322,1723,5.24833,-20.3423
105,-699,5.26929,20.3423,0.00353161,-0.000852341,0.00632293,0.00803174,-0.00535247,0.618545,0.00777881,0.0143179,1329,1723,5.26935,-20.3423
112,-699,5.28503,20.328,0.00496018,-0.00190318,0.0069622,0.0092905,-0.0062335,0.556422,0.00902053,0.022831,1336,1723,5.28507,-20.3281
119,-699,5.27917,20.2927,0.00635704,-0.00303244,0.00816904,0.0110843,-0.00775968,0.524594,0.0109359,0.016928,1343,1723,5.27912,-20.2927
126,-699,5.31836,20.2736,0.00794588,-0.00294699,0.00908182,0.0130892,-0.00809032,0.515296,0.012341,0.0169657,1350,1723,5.31838,-20.2735
133,-699,5.35718,20.2378,0.0094943,-0.00266414,0.00980718,0.0149536,-0.00812346,0.507946,0.0135167,0.0147642,1357,1723,5.35717,-20.2378
140,-699,5.38452,20.1853,0.0106287,-0.00208864,0.0104715,0.0165209,-0.00798085,0.512536,0.0144297,0.0163146,1364,1723,5.3845,-20.1853
147,-699,5.38245,20.1685,0.0113484,-0.00171027,0.0109593,0.017576,-0.00793785,0.516743,0.0150767,0.0139803,1371,1723,5.38246,-20.1685
154,-699,5.35352,20.1383,0.0113425,-0.00106839,0.0109314,0.0177069,-0.00743287,0.527244,0.014913,0.0137153,1378,1723,5.35353,-20.1384
161,-699,5.39001,20.0729,0.0110033,0.000158046,0.0106818,0.0175601,-0.00639874,0.550524,0.0143242,0.0105226,1385,1723,5.38997,-20.0729
168,-699,5.4176,20.0311,0.0102909,0.000848015,0.0104609,0.0170465,-0.00590755,0.573413,0.0137628,0.0117845,1392,1723,5.41763,-20.0311
175,-699,5.43286,19.9818,0.00851605,0.0016433,0.00983523,0.0154979,-0.0053386,0.61733,0.0124975,0.0131171,1399,1723,5.43289,-19.9818
182,-699,5.44702,19.9209,0.00673417,0.00149526,0.00815721,0.0126822,-0.00445276,0.630038,0.0102661,0.0141134,1406,1723,5.44699,-19.9209
189,-699,5.43494,19.8503,0.00462527,0.00103361,0.00518388,0.00831557,-0.00265669,0.618654,0.00660971,0.0162095,1413,1723,5.43496,-19.8503
196,-699,5.45081,19.7589,0.00159606,0.000572808,0.00189887,0.00305102,-0.000882154,0.653804,0.00238313,0.0157505,1420,1723,5.45079,-19.759
203,-699,5.44946,19.688,0.00122157,0.000538547,0.00133336,0.00225646,-0.000496341,0.660029,0.00169416,0.0130783,1427,1723,5.44948,-19.688
210,-699,5.46436,19.6091,0.000888232,0.000301488,0.00117229,0.0018033,-0.00061358,0.662789,0.00145065,0.0133372,1434,1723,5.46433,-19.6092
217,-699,5.49048,19.5443,0.000490197,8.33865e-06,0.000849387,0.00113216,-0.000633628,0.647203,0.00103293,0.0139014,1441,1723,5.49051,-19.5443
224,-699,5.47937,19.4725,0.000428726,-0.000227329,0.000629977,0.000810961,-0.000609564,0.545364,0.000822883,0.0143736,1448,1723,5.47938,-19.4725
231,-699,5.48877,19.3784,0.000409415,-0.000430812,0.000397153,0.000567424,-0.000588821,0.378655,0.000667596,0.0108765,1455,1723,5.48875,-19.3784
238,-699,5.49573,19.256,0.000507239,-0.000547985,0.00017144,0.000534393,-0.00057514,0.157087,0.000640733,0.0100304,1462,1723,5.49577,-19.2559
245,-699,5.49915,19.1426,0.000610835,-0.000587524,4.19992e-06,0.00061085,-0.000587539,0.00350467,0.000691934,0.0114799,1469,1723,5.49914,-19.1426
252,-699,5.49316,19.0662,0.000646553,-0.000571873,-0.000187735,0.000674823,-0.000600143,-0.149463,0.000736523,0.00984405,1476,1723,5.49318,-19.0662
259,-699,5.49866,18.9727,0.00060383,-0.000418112,-0.0003,0.000685389,-0.000499671,-0.265447,0.000686989,0.0100591,1483,1723,5.49864,-18.9727
266,-699,5.48828,18.8354,0.000418621,0.000101664,-0.000281076,0.000582817,-6.25322e-05,-0.528699,0.000410978,0.0113169,1490,1723,5.48822,-18.8354
273,-699,5.49329,18.7219,0.000160819,0.000683361,-0.000273399,0.000800256,4.3924e-05,-1.16676,0.000519482,0.0106444,1497,1723,5.49332,-18.722
280,-699,5.50549,18.5938,-0.00018363,0.00147508,-0.000162997,0.00149095,-0.000199495,-1.47377,0.0010667,0.0119068,1504,1723,5.50554,-18.5938
287,-699,5.4928,18.4525,-0.000495045,0.00212899,-1.82837e-05,0.00212912,-0.000495172,-1.56383,0.00161005,0.0107445,1511,1723,5.49286,-18.4526
294,-699,5.48218,18.3412,-0.000892659,0.00284691,0.000111705,0.00285025,-0.000895992,1.54096,0.00225886,0.010714,1518,1723,5.48217,-18.3412
301,-699,5.49487,18.23,-0.00120658,0.0034882,0.000171222,0.00349443,-0.00121282,1.53439,0.00282214,0.0124678,1525,1723,5.49483,-18.2299
308,-699,5.50342,18.11,-0.00124969,0.00425894,-6.28021e-05,0.00425966,-0.0012504,-1.5594,0.00333563,0.0176087,1532,1723,5.50342,-18.11
315,-699,5.52173,17.9624,-0.00119381,0.00454311,-0.000211432,0.0045509,-0.00120159,-1.53401,0.00350383,0.0193029,1539,1723,5.52168,-17.9623
322,-699,5.48987,17.7898,-0.000802083,0.00468998,-0.000561022,0.00474671,-0.000858806,-1.47003,0.00348618,0.0185081,1546,1723,5.48985,-17.7898
329,-699,5.44788,17.6273,-0.0001529,0.004472,-0.00113528,0.00473565,-0.000416551,-1.34261,0.00330471,0.0139634,1553,1723,5.44793,-17.6274
336,-699,5.44763,17.4735,0.000735953,0.00399446,-0.00182191,0.00480935,-7.89345e-05,-1.15021,0.00323286,0.0117167,1560,1723,5.4476,-17.4735
343,-699,5.47668,17.3191,0.00182538,0.00358587,-0.0027774,0.00561918,-0.000207931,-0.938856,0.00381732,0.0163945,1567,1723,5.4767,-17.319
350,-699,5.46802,17.1924,0.00297294,0.00285054,-0.00379277,0.006705,-0.000881528,-0.777331,0.00479096,0.0266419,1574,1723,5.46807,-17.1923
357,-699,5.46594,17.1135,0.00444308,0.0022773,-0.00483512,0.00831509,-0.00159471,-0.675234,0.00614433,0.0371471,1581,1723,5.46597,-17.1135
364,-699,5.49329,17.0009,0.00644817,0.00177115,-0.00602438,0.010572,-0.00235267,-0.600263,0.00794913,0.0403057,1588,1723,5.49331,-17.0008
371,-699,5.63269,16.7981,0,0,0,0,0,0,0,-1,1595,1723,5.63271,-16.798
378,-699,6.33398,16.7616,0,0,0,0,0,0,0,-1,1602,1723,6.334,-16.7615
385,-699,5.37671,17.0181,0,0,0,0,0,0,0,-1,1609,1723,5.37677,-17.018
392,-699,5.21069,16.861,0,0,0,0,0,0,0,-1,1616,1723,5.21066,-16.8609
399,-699,3.91516,9.81726,0,0,0,0,0,0,0,-1,1623,1723,3.9152,-9.81721
406,-699,5.50757,21.6672,0,0,0,0,0,0,0,-1,1630,1723,5.50755,-21.6672
413,-699,9.31396,23.2781,0,0,0,0,0,0,0,-1,1637,1723,9.31396,-23.278
420,-699,2.15076,7.65527,0,0,0,0,0,0,0,-1,1644,1723,2.15079,-7.65522
427,-699,3.36328,8.2428,0,0,0,0,0,0,0,-1,1651,1723,3.36332,-8.24283
434,-699,4.66455,8.90222,0,0,0,0,0,0,0,-1,1658,1723,4.66456,-8.90223
441,-699,0,0,0,0,0,0,0,0,0,-1,1665,1723,0,0
448,-699,0,0,0,0,0,0,0,0,0,-1,1672,1723,0,0
455,-699,0,0,0,0,0,0,0,0,0,-1,1679,1723,0,0
462,-699,0,0,0,0,0,0,0,0,0,-1,1686,1723,0,0
469,-699,0,0,0,0,0,0,0,0,0,-1,1693,1723,0,0
476,-699,0,0,0,0,0,0,0,0,0,-1,1700,1723,0,0
483,-699,0,0,0,0,0,0,0,0,0,-1,1707,1723,0,0
490,-699,0,0,0,0,0,0,0,0,0,-1,1714,1723,0,0
497,-699,0,0,0,0,0,0,0,0,0,-1,1721,1723,0,0
504,-699,0,0,0,0,0,0,0,0,0,-1,1728,1723,0,0
511,-699,0,0,0,0,0,0,0,0,0,-1,1735,1723,0,0
518,-699,0,0,0,0,0,0,0,0,0,-1,1742,1723,0,0
525,-699,0,0,0,0,0,0,0,0,0,-1,1749,1723,0,0
532,-699,0,0,0,0,0,0,0,0,0,-1,1756,1723,0,0
539,-699,0,0,0,0,0,0,0,0,0,-1,1763,1723,0,0
546,-699,0,0,0,0,0,0,0,0,0,-1,1770,1723,0,0
553,-699,0,0,0,0,0,0,0,0,0,-1,1777,1723,0,0
560,-699,0,0,0,0,0,0,0,0,0,-1,1784,1723,0,0
567,-699,0,0,0,0,0,0,0,0,0,-1,1791,1723,0,0
574,-699,0,0,0,0,0,0,0,0,0,-1,1798,1723,0,0
581,-699,0,0,0,0,0,0,0,0,0,-1,1805,1723,0,0
588,-699,0,0,0,0,0,0,0,0,0,-1,1812,1723,0,0
595,-699,0,0,0,0,0,0,0,0,0,-1,1819,1723,0,0
602,-699,0,0,0,0,0,0,0,0,0,-1,1826,1723,0,0
609,-699,0,0,0,0,0,0,0,0,0,-1,1833,1723,0,0
616,-699,0,0,0,0,0,0,0,0,0,-1,1840,1723,0,0
623,-699,0,0,0,0,0,0,0,0,0,-1,1847,1723,0,0
630,-699,0,0,0,0,0,0,0,0,0,-1,1854,1723,0,0
637,-699,0,0,0,0,0,0,0,0,0,-1,1861,1723,0,0
644,-699,0,0,0,0,0,0,0,0,0,-1,1868,1723,0,0
651,-699,0,0,0,0,0,0,0,0,0,-1,1875,1723,0,0
658,-699,0,0,0,0,0,0,0,0,0,-1,1882,1723,0,0
665,-699,0,0,0,0,0,0,0,0,0,-1,1889,1723,0,0
672,-699,0,0,0,0,0,0,0,0,0,-1,1896,1723,0,0
679,-699,0,0,0,0,0,0,0,0,0,-1,1903,1723,0,0
686,-699,0,0,0,0,0,0,0,0,0,-1,1910,1723,0,0
693,-699,0,0,0,0,0,0,0,0,0,-1,1917,1723,0,0
700,-699,0,0,0,0,0,0,0,0,0,-1,1924,1723,0,0
707,-699,0,0,0,0,0,0,0,0,0,-1,1931,1723,0,0
714,-699,0,0,0,0,0,0,0,0,0,-1,1938,1723,0,0
721,-699,0,0,0,0,0,0,0,0,0,-1,1945,1723,0,0
728,-699,0,0,0,0,0,0,0,0,0,-1,1952,1723,0,0
735,-699,0,0,0,0,0,0,0,0,0,-1,1959,1723,0,0
742,-699,0,0,0,0,0,0,0,0,0,-1,1966,1723,0,0
749,-699,0,0,0,0,0,0,0,0,0,-1,1973,1723,0,0
756,-699,0,0,0,0,0,0,0,0,0,-1,1980,1723,0,0
763,-699,0,0,0,0,0,0,0,0,0,-1,1987,1723,0,0
770,-699,0,0,0,0,0,0,0,0,0,-1,1994,1723,0,0
777,-699,0,0,0,0,0,0,0,0,0,-1,2001,1723,0,0
784,-699,0,0,0,0,0,0,0,0,0,-1,2008,1723,0,0
791,-699,0,0,0,0,0,0,0,0,0,-1,2015,1723,0,0
798,-699,0,0,0,0,0,0,0,0,0,-1,2022,1723,0,0
805,-699,0,0,0,0,0,0,0,0,0,-1,2029,1723,0,0
812,-699,0,0,0,0,0,0,0,0,0,-1,2036,1723,0,0
-700,-706,0,0,0,0,0,0,0,0,0,-1,524,1730,0,0
-693,-706,0,0,0,0,0,0,0,0,0,-1,531,1730,0,0
-686,-706,0,0,0,0,0,0,0,0,0,-1,538,1730,0,0
-679,-706,0,0,0,0,0,0,0,0,0,-1,545,1730,0,0
-672,-706,0,0,0,0,0,0,0,0,0,-1,552,1730,0,0
-665,-706,0,0,0,0,0,0,0,0,0,-1,559,1730,0,0
-658,-706,0,0,0,0,0,0,0,0,0,-1,566,1730,0,0
-651,-706,0,0,0,0,0,0,0,0,0,-1,573,1730,0,0
-644,-706,0,0,0,0,0,0,0,0,0,-1,580,1730,0,0
-637,-706,0,0,0,0,0,0,0,0,0,-1,587,1730,0,0
-630,-706,0,0,0,0,0,0,0,0,0,-1,594,1730,0,0
-623,-706,0,0,0,0,0,0,0,0,0,-1,601,1730,0,0
-616,-706,0,0,0,0,0,0,0,0,0,-1,608,1730,0,0
-609,-706,0,0,0,0,0,0,0,0,0,-1,615,1730,0,0
-602,-706,0,0,0,0,0,0,0,0,0,-1,622,1730,0,0
-595,-706,0,0,0,0,0,0,0,0,0,-1,629,1730,0,0
-588,-706,0,0,0,0,0,0,0,0,0,-1,636,1730,0,0
-581,-706,0,0,0,0,0,0,0,0,0,-1,643,1730,0,0
-574,-706,0,0,0,0,0,0,0,0,0,-1,650,1730,0,0
-567,-706,0,0,0,0,0,0,0,0,0,-1,657,1730,0,0
-560,-706,0,0,0,0,0,0,0,0,0,-1,664,1730,0,0
-553,-706,0,0,0,0,0,0,0,0,0,-1,671,1730,0,0
-546,-706,0,0,0,0,0,0,0,0,0,-1,678,1730,0,0
-539,-706,0,0,0,0,0,0,0,0,0,-1,685,1730,0,0
-532,-706,0,0,0,0,0,0,0,0,0,-1,692,1730,0,0
-525,-706,0,0,0,0,0,0,0,0,0,-1,699,1730,0,0
-518,-706,0,0,0,0,0,0,0,0,0,-1,706,1730,0,0
-511,-706,0,0,0,0,0,0,0,0,0,-1,713,1730,0,0
-504,-706,0,0,0,0,0,0,0,0,0,-1,720,1730,0,0
-497,-706,0,0,0,0,0,0,0,0,0,-1,727,1730,0,0
-490,-706,0,0,0,0,0,0,0,0,0,-1,734,1730,0,0
-483,-706,0,0,0,0,0,0,0,0,0,-1,741,1730,0,0
-476,-706,0,0,0,0,0,0,0,0,0,-1,748,1730,0,0
-469,-706,0,0,0,0,0,0,0,0,0,-1,755,1730,0,0
-462,-706,0,0,0,0,0,0,0,0,0,-1,762,1730,0,0
-455,-706,0,0,0,0,0,0,0,0,0,-1,769,1730,0,0
-448,-706,0,0,0,0,0,0,0,0,0,-1,776,1730,0,0
-441,-706,0,0,0,0,0,0,0,0,0,-1,783,1730,0,0
-434,-706,0,0,0,0,0,0,0,0,0,-1,790,1730,0,0
-427,-706,0,0,0,0,0,0,0,0,0,-1,797,1730,0,0
-420,-706,0,0,0,0,0,0,0,0,0,-1,804,1730,0,0
-413,-706,0,0,0,0,0,0,0,0,0,-1,811,1730,0,0
-406,-706,0,0,0,0,0,0,0,0,0,-1,818,1730,0,0
-399,-706,0,0,0,0,0,0,0,0,0,-1,825,1730,0,0
-392,-706,0,0,0,0,0,0,0,0,0,-1,832,1730,0,0
-385,-706,0,0,0,0,0,0,0,0,0,-1,839,1730,0,0
-378,-706,0,0,0,0,0,0,0,0,0,-1,846,1730,0,0
-371,-706,0,0,0,0,0,0,0,0,0,-1,853,1730,0,0
-364,-706,0,0,0,0,0,0,0,0,0,-1,860,1730,0,0
-357,-706,0,0,0,0,0,0,0,0,0,-1,867,1730,0,0
-350,-706,0,0,0,0,0,0,0,0,0,-1,874,1730,0,0
-343,-706,0,0,0,0,0,0,0,0,0,-1,881,1730,0,0
-336,-706,0,0,0,0,0,0,0,0,0,-1,888,1730,0,0
-329,-706,0,0,0,0,0,0,0,0,0,-1,895,1730,0,0
-322,-706,0,0,0,0,0,0,0,0,0,-1,902,1730,0,0
-315,-706,0,0,0,0,0,0,0,0,0,-1,909,1730,0,0
-308,-706,5.08191,14.6245,0,0,0,0,0,0,0,-1,916,1730,5.08188,-14.6245
-301,-706,5.28516,13.4028,0,0,0,0,0,0,0,-1,923,1730,5.28516,-13.4029
-294,-706,7.02759,15.9609,0,0,0,0,0,0,0,-1,930,1730,7.02759,-15.961
-287,-706,7.98651,13.4701,0,0,0,0,0,0,0,-1,937,1730,7.98652,-13.4701
-280,-706,7.86713,13.6754,0,0,0,0,0,0,0,-1,944,1730,7.86714,-13.6754
-273,-706,7.75775,13.9401,0,0,0,0,0,0,0,-1,951,1730,7.75778,-13.9401
-266,-706,5.60547,12.5319,0,0,0,0,0,0,0,-1,958,1730,5.60548,-12.5319
-259,-706,3.3598,9.72961,0,0,0,0,0,0,0,-1,965,1730,3.35979,-9.72962
-252,-706,3.05963,10.0499,0,0,0,0,0,0,0,-1,972,1730,3.05962,-10.05
-245,-706,3.87848,20.3833,0,0,0,0,0,0,0,-1,979,1730,3.87848,-20.3833
-238,-706,4.79993,15.9562,0,0,0,0,0,0,0,-1,986,1730,4.79995,-15.9562
-231,-706,5.05829,15.3586,0.0462251,-0.0303593,-0.0156314,0.0492927,-0.0334269,-0.193784,0.0480501,0.0410054,993,1730,5.05828,-15.3587
-224,-706,4.71906,16.3779,0.0415533,-0.0334225,-0.0114875,0.0432739,-0.0351431,-0.148674,0.0453551,0.0430109,1000,1730,4.71908,-16.378
-217,-706,4.9209,16.5338,0.0361252,-0.0347163,-0.00806215,0.0370312,-0.0356222,-0.111899,0.0419491,0.0461738,1007,1730,4.92088,-16.5339
-210,-706,5.0213,16.621,0.0299888,-0.0339172,-0.00549158,0.0304573,-0.0343857,-0.0851008,0.03746,0.044129,1014,1730,5.02131,-16.6209
-203,-706,5.00293,16.8453,0.024193,-0.0308773,-0.00379269,0.024453,-0.0311373,-0.0684393,0.0321723,0.0334306,1021,1730,5.00295,-16.8453
-196,-706,4.97632,17.0468,0.0192092,-0.026862,-0.00281618,0.0193807,-0.0270335,-0.0608249,0.0269184,0.0227979,1028,1730,4.97627,-17.0468
-189,-706,4.94543,17.2123,0.01536,-0.0219461,-0.00221634,0.0154912,-0.0220773,-0.0591324,0.021801,0.0181399,1035,1730,4.94539,-17.2122
-182,-706,4.95728,17.3878,0.00991647,-0.0159491,-0.000465381,0.00992484,-0.0159575,-0.0179845,0.0150779,0.0135168,1042,1730,4.95728,-17.3878
-175,-706,4.96533,17.5483,0.00747232,-0.00899811,-0.00119397,0.00755842,-0.00908421,-0.0719902,0.00962208,0.0141942,1049,1730,4.9653,-17.5483
-168,-706,4.98218,17.6776,0.00678127,-0.00337714,-0.00197792,0.0071528,-0.00374867,-0.185674,0.00639543,0.0152783,1056,1730,4.98215,-17.6776
-161,-706,4.95947,17.8262,0.00575351,0.00170338,-0.00185958,0.00647779,0.000979092,-0.371412,0.00403199,0.013068,1063,1730,4.95952,-17.8262
-154,-706,4.95276,17.9945,0.00486056,0.00660108,-0.0019164,0.00783556,0.00362608,-0.998532,0.00452804,0.0128976,1070,1730,4.95278,-17.9945
-147,-706,4.9436,18.1057,0.00418242,0.00932921,-0.00210111,0.010078,0.00343361,-1.22844,0.00591616,0.012098,1077,1730,4.94361,-18.1057
-140,-706,4.93262,18.2308,0.00371319,0.00988455,-0.00204134,0.0104987,0.00309907,-1.27857,0.00622861,0.010568,1084,1730,4.93266,-18.2309
-133,-706,4.93433,18.3818,0.00332607,0.00974935,-0.00190901,0.0102739,0.00280154,-1.30265,0.00613256,0.0080482,1091,1730,4.93436,-18.3818
-126,-706,4.93787,18.5078,0.00276587,0.00934746,-0.00164458,0.00973552,0.00237781,-1.33907,0.0058608,0.012524,1098,1730,4.93789,-18.5078
-119,-706,4.93884,18.6278,0.00224847,0.00815822,-0.00132946,0.00844352,0.00196317,-1.3594,0.00510212,0.0173889,1105,1730,4.93889,-18.6278
-112,-706,4.93042,18.7948,0.0020769,0.00653209,-0.000998671,0.00674571,0.00186328,-1.36007,0.00402256,0.0123693,1112,1730,4.93037,-18.7949
-105,-706,4.90881,18.9122,0.00189174,0.00479382,-0.000720497,0.00496286,0.00172271,-1.34036,0.00290961,0.0090832,1119,1730,4.90886,-18.9122
-98,-706,4.9425,19.0107,0.00165431,0.00314508,-0.000415011,0.00325283,0.00154657,-1.31678,0.00187878,0.0107016,1126,1730,4.94252,-19.0108
-91,-706,4.95276,19.1005,0.00146301,0.00195276,-0.000132486,0.00198631,0.00142946,-1.32283,0.00118311,0.0143598,1133,1730,4.95275,-19.1005
-84,-706,4.92676,19.1899,0.0012503,0.00106742,7.8303e-05,0.00127925,0.00103847,0.354071,0.00078498,0.0166685,1140,1730,4.92671,-19.19
-77,-706,4.93433,19.2965,0.00123416,0.000572006,0.00010901,0.00125164,0.000554522,0.15904,0.000724197,0.0162854,1147,1730,4.93432,-19.2965
-70,-706,4.93384,19.4137,0.00138342,0.000494476,3.81394e-05,0.00138506,0.000492843,0.0427991,0.000810669,0.0177781,1154,1730,4.93388,-19.4137
-63,-706,4.9198,19.5031,0.00144192,0.000305278,-0.000339303,0.0015355,0.000211696,-0.269116,0.000960906,0.0129136,1161,1730,4.91976,-19.503
-56,-706,4.92639,19.5985,0.00142968,-0.000561881,-0.000860634,0.00175006,-0.000882258,-0.356363,0.00154705,0.0123236,1168,1730,4.9264,-19.5985
-49,-706,4.9187,19.674,0.000644873,-0.000390612,-0.00160217,0.00181088,-0.00155662,-0.629119,0.00194607,0.0121252,1175,1730,4.91871,-19.674
-42,-706,4.92322,19.7631,0.000114956,-0.000426273,-0.00233304,0.00219302,-0.00250434,-0.72766,0.00271401,0.0171698,1182,1730,4.92321,-19.7631
-35,-706,4.9364,19.8198,0.000520471,0.000992578,-0.00333297,0.00409784,-0.00258479,-0.820751,0.00389105,0.0158802,1189,1730,4.93642,-19.8199
-28,-706,4.96265,19.8588,0.000161583,0.00243702,-0.00434804,0.00579372,-0.00319512,-0.91336,0.0052615,0.0102034,1196,1730,4.96266,-19.8588
-21,-706,4.96753,19.92,-0.000568626,0.00367863,-0.00536053,0.00732085,-0.00421085,-0.973994,0.00673806,0.0109779,1203,1730,4.96752,-19.9201
-14,-706,4.99268,19.9733,-0.00073239,0.00510885,-0.00631083,0.00914212,-0.00476566,-1.00212,0.0081611,0.0107383,1210,1730,4.99263,-19.9733
-7,-706,5.01501,20.0409,-0.000255168,0.00643665,-0.00678981,0.0106602,-0.00447871,-1.01433,0.00898004,0.00880277,1217,1730,5.01498,-20.0409
0,-706,5.02136,20.104,0.00119108,0.00852437,-0.0075086,0.0132138,-0.00349831,-1.01253,0.0101777,0.0127387,1224,1730,5.02135,-20.104
7,-706,5.02954,20.1516,0.00210612,0.0103007,-0.00756364,0.0148055,-0.00239871,-1.03363,0.0107594,0.0151578,1231,1730,5.02956,-20.1516
14,-706,5.03113,20.2064,0.00333408,0.0121153,-0.00762158,0.0165205,-0.0010711,-1.04672,0.0113875,0.0150489,1238,1730,5.03118,-20.2065
21,-706,5.04919,20.2239,0.0046187,0.0132853,-0.00740772,0.017534,0.000369925,-1.05004,0.011568,0.0116566,1245,1730,5.04916,-20.2239
28,-706,5.06396,20.2483,0.00566875,0.0138476,-0.00665127,0.0175661,0.00195032,-1.06103,0.0111178,0.0121699,1252,1730,5.06395,-20.2482
35,-706,5.07605,20.2833,0.00653675,0.0139465,-0.00568918,0.0170308,0.00345245,-1.07401,0.0103959,0.0142577,1259,1730,5.07601,-20.2833
42,-706,5.08936,20.316,0.00703604,0.0137702,-0.00471234,0.0161948,0.00461145,-1.0956,0.00963454,0.011734,1266,1730,5.08935,-20.316
49,-706,5.1084,20.3254,0.00729165,0.0131107,-0.00347289,0.0147318,0.00567057,-1.13408,0.00858015,0.0133948,1273,1730,5.10839,-20.3254
56,-706,5.14807,20.3519,0.00724241,0.0112852,-0.00213517,0.0122041,0.00632357,-1.16441,0.00704756,0.0131313,1280,1730,5.14801,-20.352
63,-706,5.15454,20.3607,0.00662265,0.00942685,-0.000969626,0.00972947,0.00632003,-1.26828,0.00570048,0.0113319,1287,1730,5.15452,-20.3607
70,-706,5.15332,20.3517,0.00580899,0.00680189,0.000176295,0.00683226,0.00577862,1.40018,0.00424741,0.0119307,1294,1730,5.15336,-20.3517
77,-706,5.16577,20.3676,0.00539315,0.00449024,0.00129219,0.00631048,0.00357292,0.61734,0.00365398,0.0107844,1301,1730,5.16572,-20.3675
84,-706,5.1803,20.379,0.0050464,0.00245413,0.00243896,0.00651224,0.00098829,0.541161,0.00405243,0.00884418,1308,1730,5.18028,-20.3791
91,-706,5.22852,20.384,0.00464335,0.000604125,0.00356885,0.00672441,-0.00147693,0.527914,0.0050478,0.00992891,1315,1730,5.22847,-20.3841
98,-706,5.21631,20.3796,0.00399398,-0.00072998,0.00411862,0.00637984,-0.00311584,0.52505,0.00558925,0.0133314,1322,1730,5.21635,-20.3796
105,-706,5.21912,20.3749,0.00342087,-0.00226382,0.00495821,0.00629366,-0.00513661,0.525135,0.00661053,0.0145373,1329,1730,5.2191,-20.3749
112,-706,5.24768,20.3505,0.00418152,-0.00299533,0.00524685,0.00694968,-0.00576349,0.485472,0.00735059,0.0157728,1336,1730,5.24774,-20.3505
119,-706,5.26221,20.3597,0.00483814,-0.00370285,0.00589818,0.00784952,-0.00671422,0.47206,0.00841689,0.013492,1343,1730,5.26217,-20.3597
126,-706,5.27734,20.3378,0.00554694,-0.00363439,0.00639913,0.00883175,-0.0069192,0.474248,0.00911613,0.0136575,1350,1730,5.27735,-20.3377
133,-706,5.29736,20.2582,0.00613622,-0.00338534,0.00667655,0.00957552,-0.00682464,0.475679,0.00951294,0.0113126,1357,1730,5.2974,-20.2581
140,-706,5.3269,20.2078,0.00644445,-0.00294307,0.00685525,0.0100589,-0.00655748,0.485208,0.00966419,0.0115724,1364,1730,5.32688,-20.2077
147,-706,5.3822,20.1749,0.00653198,-0.00252613,0.00694602,0.0102951,-0.00628922,0.496495,0.00966759,0.0207222,1371,1730,5.38226,-20.1749
154,-706,5.37122,20.1539,0.0061732,-0.00184601,0.00660976,0.00989444,-0.00556725,0.512762,0.00904259,0.0197591,1378,1730,5.37119,-20.1539
161,-706,5.32825,20.0913,0.00577815,-0.000888978,0.00617144,0.00945881,-0.00456963,0.537769,0.00826166,0.0103586,1385,1730,5.32821,-20.0913
168,-706,5.33691,20.022,0.00513609,-0.00026914,0.00575631,0.00879266,-0.00392571,0.565921,0.00752004,0.00996261,1392,1730,5.33687,-20.022
175,-706,5.35425,19.9703,0.00389417,0.000421124,0.00510095,0.00754608,-0.00323079,0.621336,0.00638613,0.0100444,1399,1730,5.35422,-19.9703
182,-706,5.36169,19.906,0.00277989,0.000606404,0.00387262,0.00571536,-0.00232906,0.648605,0.00477965,0.0111245,1406,1730,5.36173,-19.906
189,-706,5.34668,19.8398,0.00209163,0.000515963,0.00237423,0.00380533,-0.00119774,0.625201,0.00301646,0.0141026,1413,1730,5.34673,-19.8399
196,-706,5.3606,19.7617,0.000922119,0.000580218,0.00115196,0.00191575,-0.000413408,0.711736,0.00143496,0.0119847,1420,1730,5.36054,-19.7618
203,-706,5.36292,19.6967,0.000684467,0.000581407,0.000730935,0.00136569,-9.98122e-05,0.750207,0.000945486,0.0128838,1427,1730,5.36294,-19.6967
210,-706,5.36877,19.6155,0.000493218,0.000464787,0.000512155,0.000991355,-3.335e-05,0.771524,0.000672296,0.0128774,1434,1730,5.36881,-19.6155
217,-706,5.37781,19.5607,0.000248206,0.00033341,0.000168321,0.000464436,0.000117179,0.909346,0.000278895,0.0131749,1441,1730,5.37786,-19.5607
224,-706,5.35583,19.495,0.000234167,0.00023161,-0.000139255,0.000372149,9.36274e-05,-0.780807,0.000223525,0.0162906,1448,1730,5.35589,-19.495
231,-706,5.37903,19.3821,0.000242735,0.000150471,-0.000457516,0.000656439,-0.000263233,-0.735152,0.000546911,0.0120219,1455,1730,5.37902,-19.3821
238,-706,5.38354,19.2699,0.000326057,0.000108595,-0.000739629,0.000964904,-0.000530252,-0.712417,0.000875303,0.00885845,1462,1730,5.38354,-19.2699
245,-706,5.38477,19.1451,0.000444474,0.000169447,-0.000959013,0.00127578,-0.000661862,-0.714188,0.00113726,0.0112275,1469,1730,5.38472,-19.1451
252,-706,5.39526,19.046,0.000470708,0.000271897,-0.00115306,0.00152864,-0.000786039,-0.742399,0.00135911,0.0106704,1476,1730,5.39526,-19.0461
259,-706,5.41211,18.949,0.000343203,0.000555215,-0.00122857,0.00168234,-0.000783927,-0.828434,0.00145505,0.0123453,1483,1730,5.41212,-18.949
266,-706,5.38782,18.844,5.64648e-06,0.00135635,-0.00107286,0.00194873,-0.000586728,-1.06631,0.00153263,0.0126332,1490,1730,5.38782,-18.844
273,-706,5.37805,18.7417,-0.000388866,0.00212741,-0.000959136,0.00245132,-0.000712769,-1.24512,0.0019165,0.0114882,1497,1730,5.37809,-18.7417
280,-706,5.38159,18.6093,-0.00082447,0.00308898,-0.000703186,0.0032115,-0.000946986,-1.3983,0.00251677,0.00994025,1504,1730,5.38158,-18.6092
287,-706,5.35986,18.4558,-0.00118595,0.00380962,-0.000400302,0.00384149,-0.00121783,-1.49134,0.00304911,0.0109615,1511,1730,5.35982,-18.4558
294,-706,5.35913,18.3521,-0.00175086,0.00454278,5.67302e-05,0.00454329,-0.00175137,1.56178,0.00375149,0.0110242,1518,1730,5.35917,-18.3521
301,-706,5.37012,18.2242,-0.0021722,0.00539475,0.000217341,0.00540098,-0.00217844,1.54211,0.0045059,0.0103121,1525,1730,5.37017,-18.2243
308,-706,5.38879,18.0823,-0.00222428,0.0063678,2.52848e-06,0.0063678,-0.00222428,1.5705,0.00514933,0.0121543,1532,1730,5.38876,-18.0823
315,-706,5.4054,17.9482,-0.00216498,0.00677868,-9.59041e-05,0.0067797,-0.00216601,-1.56007,0.00538892,0.0185969,1539,1730,5.40535,-17.9482
322,-706,5.38611,17.8052,-0.00162525,0.0069574,-0.000475412,0.00698365,-0.0016515,-1.51563,0.00529286,0.0195176,1546,1730,5.38606,-17.8052
329,-706,5.34753,17.6292,-0.000719623,0.0066961,-0.0011437,0.00686848,-0.000892005,-1.4212,0.00490344,0.0166269,1553,1730,5.3475,-17.6292
336,-706,5.38037,17.4509,0.000587041,0.00604366,-0.00204411,0.00672447,-9.37639e-05,-1.24929,0.00451456,0.0217759,1560,1730,5.38041,-17.451
343,-706,5.45276,17.3052,0.00214415,0.00542826,-0.00328007,0.00745434,0.000118078,-1.01747,0.00493067,0.0321997,1567,1730,5.45271,-17.3052
350,-706,5.33862,17.1945,0.00383323,0.00441848,-0.00463421,0.0087693,-0.000517589,-0.816928,0.00602614,0.0407976,1574,1730,5.33868,-17.1945
357,-706,5.59656,16.7517,0.00599025,0.00361789,-0.00605696,0.0109761,-0.00136795,-0.688703,0.0078134,0.0463707,1581,1730,5.59659,-16.7518
364,-706,5.37366,17.1118,0,0,0,0,0,0,0,-1,1588,1730,5.37369,-17.1118
371,-706,5.10571,16.2321,0,0,0,0,0,0,0,-1,1595,1730,5.1057,-16.2321
378,-706,5.95264,18.1953,0,0,0,0,0,0,0,-1,1602,1730,5.95269,-18.1953
385,-706,5.50513,18.2434,0,0,0,0,0,0,0,-1,1609,1730,5.50513,-18.2434
392,-706,5.05701,18.6085,0,0,0,0,0,0,0,-1,1616,1730,5.05699,-18.6085
399,-706,6.0332,16.6144,0,0,0,0,0,0,0,-1,1623,1730,6.03321,-16.6143
406,-706,6.04211,18.8085,0,0,0,0,0,0,0,-1,1630,1730,6.04216,-18.8085
413,-706,6.23413,20.7725,0,0,0,0,0,0,0,-1,1637,1730,6.23413,-20.7725
420,-706,6.51294,21.9171,0,0,0,0,0,0,0,-1,1644,1730,6.51292,-21.9171
427,-706,0,0,0,0,0,0,0,0,0,-1,1651,1730,0,0
434,-706,0,0,0,0,0,0,0,0,0,-1,1658,1730,0,0
441,-706,0,0,0,0,0,0,0,0,0,-1,1665,1730,0,0
448,-706,0,0,0,0,0,0,0,0,0,-1,1672,1730,0,0
455,-706,0,0,0,0,0,0,0,0,0,-1,1679,1730,0,0
462,-706,0,0,0,0,0,0,0,0,0,-1,1686,1730,0,0
469,-706,0,0,0,0,0,0,0,0,0,-1,1693,1730,0,0
476,-706,0,0,0,0,0,0,0,0,0,-1,1700,1730,0,0
483,-706,0,0,0,0,0,0,0,0,0,-1,1707,1730,0,0
490,-706,0,0,0,0,0,0,0,0,0,-1,1714,1730,0,0
497,-706,0,0,0,0,0,0,0,0,0,-1,1721,1730,0,0
504,-706,0,0,0,0,0,0,0,0,0,-1,1728,1730,0,0
511,-706,0,0,0,0,0,0,0,0,0,-1,1735,1730,0,0
518,-706,0,0,0,0,0,0,0,0,0,-1,1742,1730,0,0
525,-706,0,0,0,0,0,0,0,0,0,-1,1749,1730,0,0
532,-706,0,0,0,0,0,0,0,0,0,-1,1756,1730,0,0
539,-706,0,0,0,0,0,0,0,0,0,-1,1763,1730,0,0
546,-706,0,0,0,0,0,0,0,0,0,-1,1770,1730,0,0
553,-706,0,0,0,0,0,0,0,0,0,-1,1777,1730,0,0
560,-706,0,0,0,0,0,0,0,0,0,-1,1784,1730,0,0
567,-706,0,0,0,0,0,0,0,0,0,-1,1791,1730,0,0
574,-706,0,0,0,0,0,0,0,0,0,-1,1798,1730,0,0
581,-706,0,0,0,0,0,0,0,0,0,-1,1805,1730,0,0
588,-706,0,0,0,0,0,0,0,0,0,-1,1812,1730,0,0
595,-706,0,0,0,0,0,0,0,0,0,-1,1819,1730,0,0
602,-706,0,0,0,0,0,0,0,0,0,-1,1826,1730,0,0
609,-706,0,0,0,0,0,0,0,0,0,-1,1833,1730,0,0
616,-706,0,0,0,0,0,0,0,0,0,-1,1840,1730,0,0
623,-706,0,0,0,0,0,0,0,0,0,-1,1847,1730,0,0
630,-706,0,0,0,0,0,0,0,0,0,-1,1854,1730,0,0
637,-706,0,0,0,0,0,0,0,0,0,-1,1861,1730,0,0
644,-706,0,0,0,0,0,0,0,0,0,-1,1868,1730,0,0
651,-706,0,0,0,0,0,0,0,0,0,-1,1875,1730,0,0
658,-706,0,0,0,0,0,0,0,0,0,-1,1882,1730,0,0
665,-706,0,0,0,0,0,0,0,0,0,-1,1889,1730,0,0
672,-706,0,0,0,0,0,0,0,0,0,-1,1896,1730,0,0
679,-706,0,0,0,0,0,0,0,0,0,-1,1903,1730,0,0
686,-706,0,0,0,0,0,0,0,0,0,-1,1910,1730,0,0
693,-706,0,0,0,0,0,0,0,0,0,-1,1917,1730,0,0
700,-706,0,0,0,0,0,0,0,0,0,-1,1924,1730,0,0
707,-706,0,0,0,0,0,0,0,0,0,-1,1931,1730,0,0
714,-706,0,0,0,0,0,0,0,0,0,-1,1938,1730,0,0
721,-706,0,0,0,0,0,0,0,0,0,-1,1945,1730,0,0
728,-706,0,0,0,0,0,0,0,0,0,-1,1952,1730,0,0
735,-706,0,0,0,0,0,0,0,0,0,-1,1959,1730,0,0
742,-706,0,0,0,0,0,0,0,0,0,-1,1966,1730,0,0
749,-706,0,0,0,0,0,0,0,0,0,-1,1973,1730,0,0
756,-706,0,0,0,0,0,0,0,0,0,-1,1980,1730,0,0
763,-706,0,0,0,0,0,0,0,0,0,-1,1987,1730,0,0
770,-706,0,0,0,0,0,0,0,0,0,-1,1994,1730,0,0
777,-706,0,0,0,0,0,0,0,0,0,-1,2001,1730,0,0
784,-706,0,0,0,0,0,0,0,0,0,-1,2008,1730,0,0
791,-706,0,0,0,0,0,0,0,0,0,-1,2015,1730,0,0
798,-706,0,0,0,0,0,0,0,0,0,-1,2022,1730,0,0
805,-706,0,0,0,0,0,0,0,0,0,-1,2029,1730,0,0
812,-706,0,0,0,0,0,0,0,0,0,-1,2036,1730,0,0
-700,-713,0,0,0,0,0,0,0,0,0,-1,524,1737,0,0
-693,-713,0,0,0,0,0,0,0,0,0,-1,531,1737,0,0
-686,-713,0,0,0,0,0,0,0,0,0,-1,538,1737,0,0
-679,-713,0,0,0,0,0,0,0,0,0,-1,545,1737,0,0
-672,-713,0,0,0,0,0,0,0,0,0,-1,552,1737,0,0
-665,-713,0,0,0,0,0,0,0,0,0,-1,559,1737,0,0
-658,-713,0,0,0,0,0,0,0,0,0,-1,566,1737,0,0
-651,-713,0,0,0,0,0,0,0,0,0,-1,573,1737,0,0
-644,-713,0,0,0,0,0,0,0,0,0,-1,580,1737,0,0
-637,-713,0,0,0,0,0,0,0,0,0,-1,587,1737,0,0
-630,-713,0,0,0,0,0,0,0,0,0,-1,594,1737,0,0
-623,-713,0,0,0,0,0,0,0,0,0,-1,601,1737,0,0
-616,-713,0,0,0,0,0,0,0,0,0,-1,608,1737,0,0
-609,-713,0,0,0,0,0,0,0,0,0,-1,615,1737,0,0
-602,-713,0,0,0,0,0,0,0,0,0,-1,622,1737,0,0
-595,-713,0,0,0,0,0,0,0,0,0,-1,629,1737,0,0
-588,-713,0,0,0,0,0,0,0,0,0,-1,636,1737,0,0
-581,-713,0,0,0,0,0,0,0,0,0,-1,643,1737,0,0
-574,-713,0,0,0,0,0,0,0,0,0,-1,650,1737,0,0
-567,-713,0,0,0,0,0,0,0,0,0,-1,657,1737,0,0
-560,-713,0,0,0,0,0,0,0,0,0,-1,664,1737,0,0
-553,-713,0,0,0,0,0,0,0,0,0,-1,671,1737,0,0
-546,-713,0,0,0,0,0,0,0,0,0,-1,678,1737,0,0
-539,-713,0,0,0,0,0,0,0,0,0,-1,685,1737,0,0
-532,-713,0,0,0,0,0,0,0,0,0,-1,692,1737,0,0
-525,-713,0,0,0,0,0,0,0,0,0,-1,699,1737,0,0
-518,-713,0,0,0,0,0,0,0,0,0,-1,706,1737,0,0
-511,-713,0,0,0,0,0,0,0,0,0,-1,713,1737,0,0
-504,-713,0,0,0,0,0,0,0,0,0,-1,720,1737,0,0
-497,-713,0,0,0,0,0,0,0,0,0,-1,727,1737,0,0
-490,-713,0,0,0,0,0,0,0,0,0,-1,734,1737,0,0
-483,-713,0,0,0,0,0,0,0,0,0,-1,741,1737,0,0
-476,-713,0,0,0,0,0,0,0,0,0,-1,748,1737,0,0
-469,-713,0,0,0,0,0,0,0,0,0,-1,755,1737,0,0
-462,-713,0,0,0,0,0,0,0,0,0,-1,762,1737,0,0
-455,-713,0,0,0,0,0,0,0,0,0,-1,769,1737,0,0
-448,-713,0,0,0,0,0,0,0,0,0,-1,776,1737,0,0
-441,-713,0,0,0,0,0,0,0,0,0,-1,783,1737,0,0
-434,-713,0,0,0,0,0,0,0,0,0,-1,790,1737,0,0
-427,-713,0,0,0,0,0,0,0,0,0,-1,797,1737,0,0
-420,-713,0,0,0,0,0,0,0,0,0,-1,804,1737,0,0
-413,-713,0,0,0,0,0,0,0,0,0,-1,811,1737,0,0
-406,-713,0,0,0,0,0,0,0,0,0,-1,818,1737,0,0
-399,-713,0,0,0,0,0,0,0,0,0,-1,825,1737,0,0
-392,-713,0,0,0,0,0,0,0,0,0,-1,832,1737,0,0
-385,-713,0,0,0,0,0,0,0,0,0,-1,839,1737,0,0
-378,-713,0,0,0,0,0,0,0,0,0,-1,846,1737,0,0
-371,-713,0,0,0,0,0,0,0,0,0,-1,853,1737,0,0
-364,-713,0,0,0,0,0,0,0,0,0,-1,860,1737,0,0
-357,-713,0,0,0,0,0,0,0,0,0,-1,867,1737,0,0
-350,-713,0,0,0,0,0,0,0,0,0,-1,874,1737,0,0
-343,-713,0,0,0,0,0,0,0,0,0,-1,881,1737,0,0
-336,-713,0,0,0,0,0,0,0,0,0,-1,888,1737,0,0
-329,-713,0,0,0,0,0,0,0,0,0,-1,895,1737,0,0
-322,-713,0,0,0,0,0,0,0,0,0,-1,902,1737,0,0
-315,-713,0,0,0,0,0,0,0,0,0,-1,909,1737,0,0
-308,-713,0,0,0,0,0,0,0,0,0,-1,916,1737,0,0
-301,-713,0,0,0,0,0,0,0,0,0,-1,923,1737,0,0
-294,-713,6.3161,13.046,0,0,0,0,0,0,0,-1,930,1737,6.31612,-13.046
-287,-713,6.56073,15.8463,0,0,0,0,0,0,0,-1,937,1737,6.56074,-15.8463
-280,-713,8.95996,11.8666,0,0,0,0,0,0,0,-1,944,1737,8.95993,-11.8666
-273,-713,5.90009,13.9349,0,0,0,0,0,0,0,-1,951,1737,5.90006,-13.9349
-266,-713,6.52106,13.4521,0,0,0,0,0,0,0,-1,958,1737,6.52105,-13.4522
-259,-713,2.67322,10.5743,0,0,0,0,0,0,0,-1,965,1737,2.67324,-10.5743
-252,-713,4.41235,19.2604,0,0,0,0,0,0,0,-1,972,1737,4.41235,-19.2604
-245,-713,1.38641,19.6455,0,0,0,0,0,0,0,-1,979,1737,1.3864,-19.6455
-238,-713,2.26245,19.1132,0.0703019,-0.0398669,-0.0280155,0.0770169,-0.0465819,-0.235249,0.0720773,0.0473326,986,1737,2.26247,-19.1132
-231,-713,5.29498,14.6552,0.0626654,-0.0454672,-0.0215739,0.0668107,-0.0496126,-0.189834,0.0674611,0.0458827,993,1737,5.29498,-14.6551
-224,-713,4.55865,16.6445,0.0557194,-0.0484731,-0.0163384,0.0582213,-0.0509751,-0.151952,0.0630908,0.0479606,1000,1737,4.55863,-16.6446
-217,-713,5.09259,16.448,0,0,0,0,0,0,0,-1,1007,1737,5.0926,-16.448
-210,-713,5.22784,16.6366,0,0,0,0,0,0,0,-1,1014,1737,5.22787,-16.6365
-203,-713,5.11743,16.7957,0.0324789,-0.043563,-0.00657373,0.033043,-0.0441271,-0.0856025,0.0447071,0.0487892,1021,1737,5.11739,-16.7956
-196,-713,5.18726,17.0703,0.026215,-0.0377146,-0.00530447,0.0266522,-0.0381518,-0.0822242,0.0376104,0.0433837,1028,1737,5.18727,-17.0703
-189,-713,5.06494,17.2638,0.0214614,-0.0306309,-0.00455217,0.0218562,-0.0310257,-0.0865127,0.030684,0.0410878,1035,1737,5.06494,-17.2638
-182,-713,5.00623,17.4038,0.0148306,-0.0215079,-0.00240017,0.0149884,-0.0216657,-0.0656702,0.021279,0.0270038,1042,1737,5.00623,-17.4038
-175,-713,5.07336,17.4856,0.0116894,-0.0113404,-0.00318589,0.012122,-0.011773,-0.134962,0.0137963,0.0230313,1049,1737,5.07335,-17.4856
-168,-713,5.18323,17.5951,0.0106099,-0.00333966,-0.00399871,0.0116749,-0.00440461,-0.260281,0.00959459,0.0275784,1056,1737,5.18319,-17.5951
-161,-713,5.13147,17.8105,0.00907458,0.00400864,-0.0037234,0.0110449,0.00203832,-0.486713,0.00678664,0.0143169,1063,1737,5.13145,-17.8105
-154,-713,5.07788,17.9688,0.0076796,0.0111503,-0.003691,0.0134935,0.00533635,-1.00514,0.00784703,0.0116668,1070,1737,5.07787,-17.9688
-147,-713,5.05859,18.1141,0.00653911,0.0153501,-0.00377773,0.016748,0.00514119,-1.21638,0.00990674,0.0179146,1077,1737,5.05865,-18.1141
-140,-713,5.0647,18.2467,0.0056912,0.0163612,-0.0035117,0.0174133,0.00463916,-1.27972,0.0104128,0.0167198,1084,1737,5.06467,-18.2467
-133,-713,5.04956,18.379,0.00497237,0.0164321,-0.00319976,0.017265,0.00413948,-1.31615,0.0104083,0.0104257,1091,1737,5.04956,-18.379
-126,-713,5.05774,18.4985,0.0039862,0.0161868,-0.00272433,0.0167675,0.00340551,-1.36079,0.0102338,0.0163604,1098,1737,5.05775,-18.4985
-119,-713,5.06909,18.5961,0.00308764,0.0147025,-0.00222366,0.0151137,0.00267648,-1.38796,0.00931272,0.0253794,1105,1737,5.06913,-18.596
-112,-713,5.03186,18.7865,0.00274093,0.0125009,-0.00179753,0.0128214,0.0024204,-1.39433,0.00786594,0.0137616,1112,1737,5.03188,-18.7864
-105,-713,5.04688,18.8979,0.00238395,0.0101,-0.00143203,0.0103572,0.00212675,-1.39309,0.00631636,0.0105178,1119,1737,5.04684,-18.898
-98,-713,5.05859,19.0005,0.00197835,0.00771019,-0.0010327,0.00789058,0.00179797,-1.39787,0.00477525,0.00912623,1126,1737,5.05862,-19.0005
-91,-713,5.03247,19.1023,0.00165531,0.00586765,-0.000654237,0.00596692,0.00155604,-1.42021,0.00357402,0.0102423,1133,1737,5.03247,-19.1023
-84,-713,5.01233,19.1895,0.00118205,0.00430351,-0.000309282,0.00433386,0.0011517,-1.47298,0.00259208,0.00989701,1140,1737,5.01235,-19.1894
-77,-713,5.03357,19.2985,0.000790368,0.0023326,-5.15179e-05,0.00233432,0.000788649,-1.53744,0.00137114,0.0133905,1147,1737,5.03352,-19.2984
-70,-713,5.03748,19.4126,0.000623633,0.00117554,8.38701e-05,0.001188,0.000611169,1.42327,0.000685989,0.0152775,1154,1737,5.03743,-19.4126
-63,-713,5.0188,19.5046,0.000688145,0.000952393,-0.000100496,0.00098627,0.000654269,-1.24567,0.000579467,0.0129601,1161,1737,5.01885,-19.5047
-56,-713,5.03284,19.5898,0.000765599,0.000447775,-0.000361012,0.00100113,0.000212247,-0.578068,0.000609122,0.0126488,1168,1737,5.0328,-19.5898
-49,-713,5.01099,19.672,0.000480579,0.000333525,-0.000701338,0.00111223,-0.00029813,-0.73317,0.000858302,0.0140976,1175,1737,5.01093,-19.672
-42,-713,5.01135,19.7227,0.000372402,0.00011428,-0.00100378,0.00125538,-0.0007687,-0.721461,0.00117981,0.0167726,1182,1737,5.01139,-19.7226
-35,-713,5.02734,19.7809,0.000786867,0.000629228,-0.00142585,0.00213607,-0.00071998,-0.757787,0.00171518,0.0137069,1189,1737,5.02739,-19.7809
-28,-713,5.04199,19.8774,0.000779067,0.0012944,-0.00193733,0.00299113,-0.000917655,-0.851511,0.0023602,0.0116719,1196,1737,5.04204,-19.8774
-21,-713,5.03345,19.9282,0.000482265,0.00198402,-0.00248332,0.00382749,-0.00136121,-0.932212,0.00310646,0.00922823,1203,1737,5.03347,-19.9282
-14,-713,5.0426,19.9764,0.000490253,0.00288732,-0.00302371,0.00494137,-0.0015638,-0.974089,0.00392088,0.0111334,1210,1737,5.04264,-19.9764
-7,-713,5.07275,20.0527,0.000872191,0.00383012,-0.00327416,0.00594386,-0.00124154,-0.997535,0.00443473,0.0101358,1217,1737,5.07275,-20.0527
0,-713,5.07581,20.1123,0.00184815,0.0053139,-0.00364025,0.00761268,-0.000450636,-1.00754,0.00523181,0.0144294,1224,1737,5.07586,-20.1124
7,-713,5.07129,20.139,0.00250185,0.00663176,-0.00357916,0.00869893,0.000434678,-1.04704,0.00565996,0.0179838,1231,1737,5.07129,-20.139
14,-713,5.08167,20.1879,0.0032873,0.00789874,-0.00347891,0.00976665,0.00141939,-1.07805,0.00609333,0.0130983,1238,1737,5.08164,-20.1879
21,-713,5.09326,20.2311,0.00409708,0.00871323,-0.00325775,0.0103977,0.00241264,-1.0936,0.0062839,0.0102133,1245,1737,5.09325,-20.231
28,-713,5.09204,20.2681,0.0047734,0.00907586,-0.00273491,0.0104042,0.00344504,-1.11865,0.00612002,0.0110288,1252,1737,5.09205,-20.268
35,-713,5.09473,20.2993,0.0053575,0.00910744,-0.00211462,0.0100586,0.00440632,-1.1481,0.00582218,0.0113795,1259,1737,5.09468,-20.2993
42,-713,5.11365,20.3271,0.00569308,0.00885964,-0.00154188,0.00948637,0.00506635,-1.18472,0.00548119,0.0103745,1266,1737,5.11369,-20.3272
49,-713,5.13269,20.3181,0.00581901,0.00822066,-0.000797198,0.00846119,0.00557848,-1.27776,0.00496703,0.0108047,1273,1737,5.13266,-20.3181
56,-713,5.14929,20.3394,0.0057322,0.00678478,-1.78365e-05,0.00678508,0.0057319,-1.55386,0.0042164,0.0110407,1280,1737,5.14933,-20.3394
63,-713,5.13159,20.3661,0.00521841,0.00537897,0.000579979,0.0058842,0.00471318,0.854173,0.00359658,0.0111947,1287,1737,5.13162,-20.3661
70,-713,5.14172,20.3691,0.00461023,0.00343292,0.00115425,0.00531726,0.00272589,0.549593,0.00307025,0.0118473,1294,1737,5.14175,-20.3692
77,-713,5.1665,20.3804,0.0043262,0.00176044,0.00175932,0.0052207,0.000865935,0.470374,0.00323074,0.012574,1301,1737,5.16649,-20.3804
84,-713,5.19373,20.4043,0.00396725,0.000329553,0.00239877,0.00515877,-0.000861968,0.461021,0.00375959,0.011923,1308,1737,5.19368,-20.4043
91,-713,5.224,20.4038,0.0034318,-0.000949,0.00295973,0.0049235,-0.0024407,0.466842,0.00433152,0.0120616,1315,1737,5.22406,-20.4038
98,-713,5.20422,20.3881,0.00281364,-0.0018033,0.00325804,0.00449814,-0.0034878,0.477179,0.00462297,0.0119735,1322,1737,5.20424,-20.3881
105,-713,5.1864,20.3715,0.00218915,-0.00277666,0.00371895,0.00417786,-0.00476538,0.491061,0.00516709,0.0128529,1329,1737,5.18635,-20.3714
112,-713,5.23059,20.3539,0.00244413,-0.00317238,0.00380501,0.00436498,-0.00509323,0.467496,0.00546609,0.0141105,1336,1737,5.23064,-20.3539
119,-713,5.25391,20.3573,0.00262479,-0.00347793,0.00406398,0.00465543,-0.00550857,0.463382,0.00587508,0.0148247,1343,1737,5.25388,-20.3573
126,-713,5.24365,20.3488,0.00279947,-0.00330625,0.00427905,0.00500305,-0.00550983,0.475552,0.00607196,0.0132258,1350,1737,5.24365,-20.3487
133,-713,5.24426,20.2881,0.00287795,-0.00297411,0.0042979,0.00515131,-0.00524747,0.486535,0.00600382,0.0118142,1357,1737,5.2443,-20.2881
140,-713,5.26685,20.234,0.00279902,-0.00252803,0.00420735,0.00511507,-0.00484408,0.50321,0.00575063,0.0136352,1364,1737,5.26688,-20.234
147,-713,5.29016,20.1771,0.00266213,-0.00205293,0.00407508,0.00501249,-0.00440329,0.523159,0.00543999,0.0148459,1371,1737,5.29011,-20.1771
154,-713,5.2644,20.1609,0.00238933,-0.00142711,0.0036374,0.00458867,-0.00362644,0.543827,0.00475383,0.0143476,1378,1737,5.26438,-20.1609
161,-713,5.2688,20.1038,0.00215187,-0.000758256,0.00315735,0.0041733,-0.00277969,0.569478,0.0040411,0.00987689,1385,1737,5.26877,-20.1037
168,-713,5.27063,20.024,0.00177119,-0.000275496,0.00274826,0.00368045,-0.00218476,0.607171,0.00342278,0.0092254,1392,1737,5.27069,-20.0241
175,-713,5.29578,19.972,0.00110988,0.000198869,0.0022308,0.0029312,-0.00162246,0.684688,0.002665,0.0120523,1399,1737,5.29572,-19.9721
182,-713,5.29968,19.9169,0.000603461,0.000417551,0.00150235,0.00201573,-0.000994717,0.754501,0.00177109,0.0114396,1406,1737,5.29972,-19.9169
189,-713,5.2854,19.8298,0.000532823,0.000606976,0.000670755,0.00124168,-0.00010188,0.813008,0.000863751,0.0110783,1413,1737,5.28535,-19.8299
196,-713,5.28333,19.7819,0.000332888,0.000796455,0.00022792,0.000889742,0.0002396,1.1823,0.000531608,0.0120206,1420,1737,5.28338,-19.7819
203,-713,5.28406,19.7346,0.000193509,0.000913067,-0.000239884,0.000985705,0.00012087,-1.27677,0.000620782,0.0160693,1427,1737,5.2841,-19.7346
210,-713,5.28369,19.6304,0.000121155,0.000948347,-0.000577958,0.00124545,-0.00017595,-1.09596,0.000894737,0.0135172,1434,1737,5.28366,-19.6304
217,-713,5.30054,19.5596,1.35747e-05,0.000970963,-0.000975063,0.0015785,-0.000593962,-1.01358,0.00129649,0.010361,1441,1737,5.3006,-19.5595
224,-713,5.27783,19.4792,5.21807e-05,0.000964467,-0.00134922,0.00193257,-0.000915921,-0.948406,0.00167913,0.0106216,1448,1737,5.27782,-19.4792
231,-713,5.28955,19.3756,9.44776e-05,0.000957881,-0.00170712,0.00228704,-0.00123468,-0.909243,0.00206331,0.0100537,1455,1737,5.28956,-19.3756
238,-713,5.28442,19.2671,0.000219039,0.000956327,-0.00200233,0.00262367,-0.0014483,-0.876432,0.00238338,0.00828583,1462,1737,5.28447,-19.267
245,-713,5.27307,19.1593,0.000391164,0.00107589,-0.00221894,0.00297873,-0.00151167,-0.86194,0.00263825,0.0106638,1469,1737,5.27304,-19.1593
252,-713,5.29004,19.0547,0.000432014,0.00122825,-0.00237709,0.00324033,-0.00158007,-0.868369,0.00283755,0.0112364,1476,1737,5.29005,-19.0547
259,-713,5.31787,18.9369,0.000230194,0.00161126,-0.00236574,0.00338518,-0.00154373,-0.927397,0.00291116,0.0123421,1483,1737,5.31791,-18.9369
266,-713,5.28821,18.8567,-0.00027044,0.00270585,-0.00202331,0.00372935,-0.00129394,-1.10248,0.00301167,0.0106959,1490,1737,5.28826,-18.8567
273,-713,5.26965,18.7572,-0.000820103,0.00369211,-0.00176521,0.00430061,-0.00142861,-1.23883,0.00344352,0.00853961,1497,1737,5.26964,-18.7572
280,-713,5.26233,18.6249,-0.00137111,0.00488414,-0.00132359,0.00515268,-0.00163964,-1.37063,0.00409265,0.0095583,1504,1737,5.2623,-18.6249
287,-713,5.24023,18.4846,-0.00182179,0.00574095,-0.000814786,0.00582774,-0.00190858,-1.46468,0.00465369,0.0109449,1511,1737,5.24024,-18.4847
294,-713,5.23804,18.3655,-0.00263529,0.00653295,6.0501e-05,0.00653335,-0.00263569,1.5642,0.00545085,0.0164545,1518,1737,5.23808,-18.3654
301,-713,5.24097,18.2222,-0.00328087,0.00774465,0.000388045,0.00775829,-0.00329451,1.53566,0.00655251,0.0171406,1525,1737,5.24098,-18.2222
308,-713,5.22607,18.0597,-0.00344492,0.00904171,0.000250022,0.00904672,-0.00344992,1.55078,0.00745223,0.0178508,1532,1737,5.22612,-18.0596
315,-713,5.24268,17.9104,-0.00348502,0.00973391,0.000264275,0.00973919,-0.0034903,1.55081,0.00791698,0.0248567,1539,1737,5.24265,-17.9104
322,-713,5.25208,17.6729,-0.00282394,0.01004,-0.000119796,0.0100411,-0.00282506,-1.56148,0.007808,0.0330038,1546,1737,5.25212,-17.6728
329,-713,5.22302,17.5765,-0.00163752,0.00982629,-0.000871731,0.0098922,-0.00170343,-1.49533,0.00722981,0.0380892,1553,1737,5.22298,-17.5765
336,-713,5.34314,17.7015,0.000183126,0.0090174,-0.00204653,0.00946847,-0.000267936,-1.35386,0.00640349,0.0422506,1560,1737,5.34309,-17.7016
343,-713,5.396,17.3066,0,0,0,0,0,0,0,-1,1567,1737,5.39605,-17.3067
350,-713,5.19995,17.1726,0,0,0,0,0,0,0,-1,1574,1737,5.19999,-17.1726
357,-713,5.49768,16.3419,0,0,0,0,0,0,0,-1,1581,1737,5.49763,-16.342
364,-713,7.07642,19.3864,0,0,0,0,0,0,0,-1,1588,1737,7.07647,-19.3863
371,-713,6.58301,19.0181,0,0,0,0,0,0,0,-1,1595,1737,6.58296,-19.0181
378,-713,6.26428,18.7252,0,0,0,0,0,0,0,-1,1602,1737,6.26428,-18.7252
385,-713,5.9928,19.4026,0,0,0,0,0,0,0,-1,1609,1737,5.99285,-19.4026
392,-713,5.38123,20.2285,0,0,0,0,0,0,0,-1,1616,1737,5.38128,-20.2285
399,-713,2.84045,14.7314,0,0,0,0,0,0,0,-1,1623,1737,2.84046,-14.7315
406,-713,2.97656,16.4902,0,0,0,0,0,0,0,-1,1630,1737,2.97656,-16.4902
413,-713,3.24731,18.2787,0,0,0,0,0,0,0,-1,1637,1737,3.24726,-18.2787
420,-713,0,0,0,0,0,0,0,0,0,-1,1644,1737,0,0
427,-713,0,0,0,0,0,0,0,0,0,-1,1651,1737,0,0
434,-713,0,0,0,0,0,0,0,0,0,-1,1658,1737,0,0
441,-713,0,0,0,0,0,0,0,0,0,-1,1665,1737,0,0
448,-713,0,0,0,0,0,0,0,0,0,-1,1672,1737,0,0
455,-713,0,0,0,0,0,0,0,0,0,-1,1679,1737,0,0
462,-713,0,0,0,0,0,0,0,0,0,-1,1686,1737,0,0
469,-713,0,0,0,0,0,0,0,0,0,-1,1693,1737,0,0
476,-713,0,0,0,0,0,0,0,0,0,-1,1700,1737,0,0
483,-713,0,0,0,0,0,0,0,0,0,-1,1707,1737,0,0
490,-713,0,0,0,0,0,0,0,0,0,-1,1714,1737,0,0
497,-713,0,0,0,0,0,0,0,0,0,-1,1721,1737,0,0
504,-713,0,0,0,0,0,0,0,0,0,-1,1728,1737,0,0
511,-713,0,0,0,0,0,0,0,0,0,-1,1735,1737,0,0
518,-713,0,0,0,0,0,0,0,0,0,-1,1742,1737,0,0
525,-713,0,0,0,0,0,0,0,0,0,-1,1749,1737,0,0
532,-713,0,0,0,0,0,0,0,0,0,-1,1756,1737,0,0
539,-713,0,0,0,0,0,0,0,0,0,-1,1763,1737,0,0
546,-713,0,0,0,0,0,0,0,0,0,-1,1770,1737,0,0
553,-713,0,0,0,0,0,0,0,0,0,-1,1777,1737,0,0
560,-713,0,0,0,0,0,0,0,0,0,-1,1784,1737,0,0
567,-713,0,0,0,0,0,0,0,0,0,-1,1791,1737,0,0
574,-713,0,0,0,0,0,0,0,0,0,-1,1798,1737,0,0
581,-713,0,0,0,0,0,0,0,0,0,-1,1805,1737,0,0
588,-713,0,0,0,0,0,0,0,0,0,-1,1812,1737,0,0
595,-713,0,0,0,0,0,0,0,0,0,-1,1819,1737,0,0
602,-713,0,0,0,0,0,0,0,0,0,-1,1826,1737,0,0
609,-713,0,0,0,0,0,0,0,0,0,-1,1833,1737,0,0
616,-713,0,0,0,0,0,0,0,0,0,-1,1840,1737,0,0
623,-713,0,0,0,0,0,0,0,0,0,-1,1847,1737,0,0
630,-713,0,0,0,0,0,0,0,0,0,-1,1854,1737,0,0
637,-713,0,0,0,0,0,0,0,0,0,-1,1861,1737,0,0
644,-713,0,0,0,0,0,0,0,0,0,-1,1868,1737,0,0
651,-713,0,0,0,0,0,0,0,0,0,-1,1875,1737,0,0
658,-713,0,0,0,0,0,0,0,0,0,-1,1882,1737,0,0
665,-713,0,0,0,0,0,0,0,0,0,-1,1889,1737,0,0
672,-713,0,0,0,0,0,0,0,0,0,-1,1896,1737,0,0
679,-713,0,0,0,0,0,0,0,0,0,-1,1903,1737,0,0
686,-713,0,0,0,0,0,0,0,0,0,-1,1910,1737,0,0
693,-713,0,0,0,0,0,0,0,0,0,-1,1917,1737,0,0
700,-713,0,0,0,0,0,0,0,0,0,-1,1924,1737,0,0
707,-713,0,0,0,0,0,0,0,0,0,-1,1931,1737,0,0
714,-713,0,0,0,0,0,0,0,0,0,-1,1938,1737,0,0
721,-713,0,0,0,0,0,0,0,0,0,-1,1945,1737,0,0
728,-713,0,0,0,0,0,0,0,0,0,-1,1952,1737,0,0
735,-713,0,0,0,0,0,0,0,0,0,-1,1959,1737,0,0
742,-713,0,0,0,0,0,0,0,0,0,-1,1966,1737,0,0
749,-713,0,0,0,0,0,0,0,0,0,-1,1973,1737,0,0
756,-713,0,0,0,0,0,0,0,0,0,-1,1980,1737,0,0
763,-713,0,0,0,0,0,0,0,0,0,-1,1987,1737,0,0
770,-713,0,0,0,0,0,0,0,0,0,-1,1994,1737,0,0
777,-713,0,0,0,0,0,0,0,0,0,-1,2001,1737,0,0
784,-713,0,0,0,0,0,0,0,0,0,-1,2008,1737,0,0
791,-713,0,0,0,0,0,0,0,0,0,-1,2015,1737,0,0
798,-713,0,0,0,0,0,0,0,0,0,-1,2022,1737,0,0
805,-713,0,0,0,0,0,0,0,0,0,-1,2029,1737,0,0
812,-713,0,0,0,0,0,0,0,0,0,-1,2036,1737,0,0
-700,-720,0,0,0,0,0,0,0,0,0,-1,524,1744,0,0
-693,-720,0,0,0,0,0,0,0,0,0,-1,531,1744,0,0
-686,-720,0,0,0,0,0,0,0,0,0,-1,538,1744,0,0
-679,-720,0,0,0,0,0,0,0,0,0,-1,545,1744,0,0
-672,-720,0,0,0,0,0,0,0,0,0,-1,552,1744,0,0
-665,-720,0,0,0,0,0,0,0,0,0,-1,559,1744,0,0
-658,-720,0,0,0,0,0,0,0,0,0,-1,566,1744,0,0
-651,-720,0,0,0,0,0,0,0,0,0,-1,573,1744,0,0
-644,-720,0,0,0,0,0,0,0,0,0,-1,580,1744,0,0
-637,-720,0,0,0,0,0,0,0,0,0,-1,587,1744,0,0
-630,-720,0,0,0,0,0,0,0,0,0,-1,594,1744,0,0
-623,-720,0,0,0,0,0,0,0,0,0,-1,601,1744,0,0
-616,-720,0,0,0,0,0,0,0,0,0,-1,608,1744,0,0
-609,-720,0,0,0,0,0,0,0,0,0,-1,615,1744,0,0
-602,-720,0,0,0,0,0,0,0,0,0,-1,622,1744,0,0
-595,-720,0,0,0,0,0,0,0,0,0,-1,629,1744,0,0
-588,-720,0,0,0,0,0,0,0,0,0,-1,636,1744,0,0
-581,-720,0,0,0,0,0,0,0,0,0,-1,643,1744,0,0
-574,-720,0,0,0,0,0,0,0,0,0,-1,650,1744,0,0
-567,-720,0,0,0,0,0,0,0,0,0,-1,657,1744,0,0
-560,-720,0,0,0,0,0,0,0,0,0,-1,664,1744,0,0
-553,-720,0,0,0,0,0,0,0,0,0,-1,671,1744,0,0
-546,-720,0,0,0,0,0,0,0,0,0,-1,678,1744,0,0
-539,-720,0,0,0,0,0,0,0,0,0,-1,685,1744,0,0
-532,-720,0,0,0,0,0,0,0,0,0,-1,692,1744,0,0
-525,-720,0,0,0,0,0,0,0,0,0,-1,699,1744,0,0
-518,-720,0,0,0,0,0,0,0,0,0,-1,706,1744,0,0
-511,-720,0,0,0,0,0,0,0,0,0,-1,713,1744,0,0
-504,-720,0,0,0,0,0,0,0,0,0,-1,720,1744,0,0
-497,-720,0,0,0,0,0,0,0,0,0,-1,727,1744,0,0
-490,-720,0,0,0,0,0,0,0,0,0,-1,734,1744,0,0
-483,-720,0,0,0,0,0,0,0,0,0,-1,741,1744,0,0
-476,-720,0,0,0,0,0,0,0,0,0,-1,748,1744,0,0
-469,-720,0,0,0,0,0,0,0,0,0,-1,755,1744,0,0
-462,-720,0,0,0,0,0,0,0,0,0,-1,762,1744,0,0
-455,-720,0,0,0,0,0,0,0,0,0,-1,769,1744,0,0
-448,-720,0,0,0,0,0,0,0,0,0,-1,776,1744,0,0
-441,-720,0,0,0,0,0,0,0,0,0,-1,783,1744,0,0
-434,-720,0,0,0,0,0,0,0,0,0,-1,790,1744,0,0
-427,-720,0,0,0,0,0,0,0,0,0,-1,797,1744,0,0
-420,-720,0,0,0,0,0,0,0,0,0,-1,804,1744,0,0
-413,-720,0,0,0,0,0,0,0,0,0,-1,811,1744,0,0
-406,-720,0,0,0,0,0,0,0,0,0,-1,818,1744,0,0
-399,-720,0,0,0,0,0,0,0,0,0,-1,825,1744,0,0
-392,-720,0,0,0,0,0,0,0,0,0,-1,832,1744,0,0
-385,-720,0,0,0,0,0,0,0,0,0,-1,839,1744,0,0
-378,-720,0,0,0,0,0,0,0,0,0,-1,846,1744,0,0
-371,-720,0,0,0,0,0,0,0,0,0,-1,853,1744,0,0
-364,-720,0,0,0,0,0,0,0,0,0,-1,860,1744,0,0
-357,-720,0,0,0,0,0,0,0,0,0,-1,867,1744,0,0
-350,-720,0,0,0,0,0,0,0,0,0,-1,874,1744,0,0
-343,-720,0,0,0,0,0,0,0,0,0,-1,881,1744,0,0
-336,-720,0,0,0,0,0,0,0,0,0,-1,888,1744,0,0
-329,-720,0,0,0,0,0,0,0,0,0,-1,895,1744,0,0
-322,-720,0,0,0,0,0,0,0,0,0,-1,902,1744,0,0
-315,-720,0,0,0,0,0,0,0,0,0,-1,909,1744,0,0
-308,-720,0,0,0,0,0,0,0,0,0,-1,916,1744,0,0
-301,-720,0,0,0,0,0,0,0,0,0,-1,923,1744,0,0
-294,-720,0,0,0,0,0,0,0,0,0,-1,930,1744,0,0
-287,-720,0,0,0,0,0,0,0,0,0,-1,937,1744,0,0
-280,-720,6.3175,15.5583,0,0,0,0,0,0,0,-1,944,1744,6.3175,-15.5584
-273,-720,6.08392,14.9034,0,0,0,0,0,0,0,-1,951,1744,6.08392,-14.9035
-266,-720,7.28027,13.3165,0,0,0,0,0,0,0,-1,958,1744,7.28026,-13.3166
-259,-720,2.38904,5.20947,0,0,0,0,0,0,0,-1,965,1744,2.38906,-5.20952
-252,-720,2.11871,17.8439,0,0,0,0,0,0,0,-1,972,1744,2.11869,-17.8439
-245,-720,2.64014,18.1176,0,0,0,0,0,0,0,-1,979,1744,2.64015,-18.1176
-238,-720,2.94977,18.5077,0.0924568,-0.058349,-0.0368863,0.100996,-0.0668878,-0.227481,0.097592,0.0443586,986,1744,2.94978,-18.5077
-231,-720,3.79633,18.1246,0.0815243,-0.064847,-0.0287779,0.086979,-0.0703017,-0.187323,0.0909761,0.0436551,993,1744,3.79634,-18.1246
-224,-720,4.24414,17.1224,0.0717793,-0.0673179,-0.0223719,0.075289,-0.0708276,-0.15561,0.0843736,0.0472633,1000,1744,4.24416,-17.1225
-217,-720,4.36652,16.0092,0.0613556,-0.0681351,-0.0168988,0.0635246,-0.0703041,-0.127654,0.0772991,0.0472951,1007,1744,4.36652,-16.0091
-210,-720,4.38519,14.7872,0.0510688,-0.0654329,-0.0130255,0.0525073,-0.0668714,-0.109996,0.0690895,0.047161,1014,1744,4.38517,-14.7872
-203,-720,5.23279,16.7268,0,0,0,0,0,0,0,-1,1021,1744,5.23283,-16.7268
-196,-720,5.39124,17.0852,0,0,0,0,0,0,0,-1,1028,1744,5.39126,-17.0852
-189,-720,5.17639,17.2501,0,0,0,0,0,0,0,-1,1035,1744,5.17639,-17.2501
-182,-720,4.72693,17.6631,0.0216767,-0.0276066,-0.00575485,0.0223398,-0.0282697,-0.114715,0.0292862,0.0464976,1042,1744,4.7269,-17.6631
-175,-720,4.82153,17.8572,0.0178495,-0.0133709,-0.00652272,0.0191574,-0.0146788,-0.1979,0.0195923,0.0456529,1049,1744,4.82155,-17.8572
-168,-720,5.35425,17.6824,0.0163175,-0.0024163,-0.00726498,0.0188047,-0.00490346,-0.329842,0.014451,0.0390291,1056,1744,5.35428,-17.6824
-161,-720,5.1123,17.8221,0.0141777,0.00774176,-0.00673191,0.0184212,0.00349824,-0.562443,0.0112968,0.0298857,1063,1744,5.11237,-17.8221
-154,-720,5.22253,17.9974,0.0121338,0.0177368,-0.00653994,0.02205,0.0078206,-0.987757,0.0129086,0.0240549,1070,1744,5.22253,-17.9974
-147,-720,5.19983,18.2137,0.0103454,0.0238417,-0.0064267,0.0264124,0.0077748,-1.19029,0.0156732,0.0234391,1077,1744,5.19978,-18.2138
-140,-720,5.20056,18.3265,0.00891653,0.0254056,-0.00582578,0.0272562,0.00706591,-1.26322,0.0163332,0.01895,1084,1744,5.20055,-18.3265
-133,-720,5.16162,18.4102,0.00769668,0.0256509,-0.00522556,0.0270611,0.00628654,-1.30722,0.0163531,0.013097,1091,1744,5.16159,-18.4102
-126,-720,5.15625,18.5247,0.00612743,0.0255343,-0.00440559,0.0264876,0.00517414,-1.3577,0.0162113,0.0127111,1098,1744,5.15623,-18.5246
-119,-720,5.16272,18.6493,0.00473371,0.0235272,-0.00361515,0.0241986,0.00406228,-1.38716,0.0149633,0.0144467,1105,1744,5.1627,-18.6493
-112,-720,5.13953,18.7626,0.00414512,0.020418,-0.00304124,0.0209678,0.00359532,-1.39195,0.0129476,0.0136641,1112,1744,5.13953,-18.7626
-105,-720,5.14221,18.8708,0.0035352,0.0170274,-0.00251635,0.0174814,0.00308117,-1.39229,0.0107751,0.0117388,1119,1744,5.14221,-18.8708
-98,-720,5.15247,18.9779,0.00288334,0.0136027,-0.00195644,0.0139486,0.00253742,-1.3958,0.00857925,0.00902545,1126,1744,5.1525,-18.9779
-91,-720,5.12073,19.0851,0.00235741,0.0108358,-0.00142049,0.0110675,0.00212575,-1.40913,0.00678173,0.00936999,1133,1744,5.12078,-19.0851
-84,-720,5.10522,19.1843,0.00153989,0.00835862,-0.000875173,0.00846916,0.00142935,-1.44516,0.00523511,0.0104587,1140,1744,5.10528,-19.1843
-77,-720,5.11938,19.326,0.000649233,0.00437595,-0.00030985,0.00440153,0.000623647,-1.48841,0.00275015,0.0126165,1147,1744,5.11938,-19.326
-70,-720,5.1156,19.4171,2.88678e-05,0.00177882,0.000129159,0.0017883,1.93864e-05,1.49752,0.00118579,0.011421,1154,1744,5.11554,-19.4171
-63,-720,5.09253,19.4854,5.11495e-05,0.00149691,8.50563e-05,0.0015019,4.61627e-05,1.51223,0.00098624,0.0107041,1161,1744,5.09247,-19.4853
-56,-720,5.11353,19.5706,0.000169361,0.00124584,1.17693e-05,0.00124597,0.000169233,1.55986,0.000780375,0.0123779,1168,1744,5.11357,-19.5706
-49,-720,5.09851,19.6366,0.00017886,0.00100187,-6.0118e-05,0.00100623,0.000174492,-1.49826,0.000620887,0.0183409,1175,1744,5.09845,-19.6366
-42,-720,5.08569,19.7041,0.000145784,0.000719779,-0.000107473,0.000739242,0.000126321,-1.39164,0.000456583,0.0211138,1182,1744,5.08568,-19.7041
-35,-720,5.11621,19.7853,0.000333259,0.000613118,-0.000227034,0.000739881,0.000206497,-1.06157,0.000440848,0.0190512,1189,1744,5.11626,-19.7853
-28,-720,5.10889,19.8738,0.000400871,0.000669786,-0.000415855,0.00097238,9.82766e-05,-0.941757,0.000618105,0.0108854,1196,1744,5.10883,-19.8738
-21,-720,5.10181,19.9491,0.000343218,0.000927585,-0.000588473,0.00129242,-2.16161e-05,-1.01582,0.000868908,0.00943759,1203,1744,5.1018,-19.9491
-14,-720,5.09399,19.991,0.000439434,0.00141233,-0.000700882,0.00177904,7.27316e-05,-1.08876,0.00116254,0.0115897,1210,1744,5.09398,-19.991
-7,-720,5.11011,20.058,0.000724813,0.00204715,-0.000654393,0.00231623,0.000455726,-1.18067,0.00141689,0.012107,1217,1744,5.11011,-20.058
0,-720,5.12024,20.121,0.0011129,0.0029321,-0.00046549,0.00304429,0.00100071,-1.33429,0.00179167,0.0125007,1224,1744,5.12019,-20.121
7,-720,5.11157,20.1528,0.00154132,0.00381841,-0.000119751,0.00382469,0.00153504,-1.5184,0.00222246,0.0146343,1231,1744,5.11154,-20.1528
14,-720,5.12659,20.194,0.00198903,0.00466486,0.00023067,0.0046846,0.00196929,1.48543,0.00271606,0.0135803,1238,1744,5.1266,-20.194
21,-720,5.13123,20.2388,0.00243225,0.00515491,0.000617247,0.0052883,0.00229885,1.35795,0.00306187,0.0106326,1245,1744,5.13122,-20.2387
28,-720,5.13403,20.2816,0.00279827,0.0053078,0.00110539,0.00572526,0.00238081,1.2097,0.00332105,0.0106228,1252,1744,5.13403,-20.2816
35,-720,5.13916,20.3185,0.00313943,0.00522641,0.00154903,0.00605064,0.0023152,1.0818,0.00352527,0.011138,1259,1744,5.13915,-20.3185
42,-720,5.12488,20.3302,0.00334612,0.00491407,0.00186289,0.00615123,0.00210897,0.984568,0.00360941,0.0108558,1266,1744,5.12487,-20.3303
49,-720,5.13538,20.3245,0.0033861,0.00432525,0.00218695,0.00609247,0.00161888,0.891151,0.00364393,0.0105359,1273,1744,5.13542,-20.3245
56,-720,5.15515,20.3557,0.00328323,0.00325345,0.00241983,0.00568822,0.000848464,0.782321,0.00354335,0.00917886,1280,1744,5.15511,-20.3557
63,-720,5.15674,20.3768,0.00301495,0.00228713,0.00243859,0.00511663,0.000185445,0.711329,0.00335099,0.0112818,1287,1744,5.15677,-20.3769
70,-720,5.17468,20.3821,0.00270164,0.000992502,0.00241394,0.00440781,-0.00071367,0.615275,0.00320305,0.0134396,1294,1744,5.17467,-20.3821
77,-720,5.1853,20.3837,0.0025628,-1.92016e-05,0.00240601,0.00400229,-0.00145868,0.539159,0.00326491,0.0154157,1301,1744,5.18534,-20.3837
84,-720,5.18103,20.3762,0.00232472,-0.000855397,0.00247851,0.00367937,-0.00221005,0.500197,0.00343535,0.0130559,1308,1744,5.18101,-20.3762
91,-720,5.19751,20.3728,0.0019525,-0.00152783,0.00256586,0.00331263,-0.00288795,0.487426,0.00358271,0.0119226,1315,1744,5.19749,-20.3728
98,-720,5.1864,20.3722,0.00156279,-0.00189752,0.00259159,0.00294868,-0.00328341,0.491073,0.00359983,0.012015,1322,1744,5.1864,-20.3722
105,-720,5.17383,20.3749,0.00136426,-0.00220192,0.0026041,0.00273724,-0.00357489,0.485198,0.00365499,0.0114863,1329,1744,5.17384,-20.3749
112,-720,5.19678,20.3494,0.00134544,-0.00229966,0.00265514,0.00274336,-0.00369758,0.484619,0.00373226,0.0111812,1336,1744,5.1968,-20.3493
119,-720,5.20703,20.3319,0.00135676,-0.00234282,0.00283429,0.00289148,-0.00387754,0.496281,0.00392189,0.0120998,1343,1744,5.20707,-20.3319
126,-720,5.20935,20.3184,0.00136501,-0.00206555,0.00298579,0.00309315,-0.00379368,0.524676,0.00398297,0.011481,1350,1744,5.20934,-20.3184
133,-720,5.20886,20.2849,0.00130399,-0.00167277,0.00299871,0.00316337,-0.00353215,0.55504,0.00386762,0.012887,1357,1744,5.20883,-20.2849
140,-720,5.20715,20.2448,0.00113791,-0.00124101,0.00291082,0.00309292,-0.00319602,0.591434,0.00363108,0.020305,1364,1744,5.2072,-20.2447
147,-720,5.20337,20.1694,0.00094395,-0.000811635,0.00274916,0.00295205,-0.00281974,0.630866,0.00333264,0.0201784,1371,1744,5.20333,-20.1694
154,-720,5.22144,20.1396,0.000740873,-0.000363575,0.00239295,0.00264449,-0.00226719,0.671998,0.00283855,0.0126505,1378,1744,5.22138,-20.1396
161,-720,5.22583,20.098,0.000549883,5.50837e-05,0.00196605,0.00228404,-0.00167907,0.722809,0.00229697,0.00854162,1385,1744,5.22579,-20.0981
168,-720,5.22803,20.0315,0.000311821,0.000320043,0.00157877,0.00189471,-0.00126284,0.7867,0.00183514,0.00873615,1392,1744,5.228,-20.0315
175,-720,5.22119,19.9615,-3.10854e-05,0.000498972,0.00113646,0.0014009,-0.000933009,0.899954,0.00135648,0.0145746,1399,1744,5.22117,-19.9615
182,-720,5.22058,19.9207,-0.000253349,0.000540396,0.000702859,0.00095069,-0.000663644,1.04241,0.000936935,0.0142208,1406,1744,5.22053,-19.9207
189,-720,5.22974,19.8601,-0.00018363,0.000958483,-0.000143367,0.000976205,-0.000201352,-1.44781,0.000727272,0.0121873,1413,1744,5.22968,-19.8601
196,-720,5.21863,19.7836,-0.000253457,0.00113836,-0.000746891,0.0014633,-0.000578399,-1.16044,0.00121512,0.0128915,1420,1744,5.21861,-19.7836
203,-720,5.20325,19.6937,-0.000332353,0.00141977,-0.00140184,0.00219678,-0.00110936,-1.06467,0.00194291,0.0147585,1427,1744,5.2033,-19.6937
210,-720,5.20605,19.6222,-0.000306523,0.00163977,-0.00191791,0.0028173,-0.00148405,-1.02017,0.00252284,0.0127728,1434,1744,5.20604,-19.6221
217,-720,5.20801,19.5388,-0.000283849,0.00183293,-0.00242455,0.00342004,-0.00187095,-0.991196,0.00309809,0.0117789,1441,1744,5.20806,-19.5388
224,-720,5.21094,19.4453,-0.000176795,0.00192972,-0.00289835,0.00396025,-0.00220733,-0.959679,0.00360848,0.00914542,1448,1744,5.21095,-19.4453
231,-720,5.21252,19.3547,-7.0765e-05,0.00199521,-0.00332526,0.00444424,-0.00251979,-0.935997,0.00407153,0.00965629,1455,1744,5.21255,-19.3547
238,-720,5.20129,19.2528,0.000131774,0.00203485,-0.00365873,0.00486375,-0.00269713,-0.912616,0.00442461,0.00853963,1462,1744,5.20128,-19.2529
245,-720,5.18188,19.1676,0.000395596,0.00220299,-0.00388565,0.00528864,-0.00269006,-0.899653,0.00468724,0.0102458,1469,1744,5.18189,-19.1676
252,-720,5.19812,19.067,0.000491115,0.00238042,-0.00401463,0.00556004,-0.00268851,-0.900947,0.00485754,0.0106255,1476,1744,5.19812,-19.067
259,-720,5.19629,18.952,0.000244956,0.00283925,-0.00391456,0.00566598,-0.00258177,-0.945387,0.00487156,0.010104,1483,1744,5.19623,-18.952
266,-720,5.17346,18.8405,-0.000406873,0.00422651,-0.00336528,0.00599543,-0.00217579,-1.08685,0.00488644,0.00858593,1490,1744,5.17352,-18.8404
273,-720,5.16089,18.7273,-0.00110925,0.00544032,-0.00293478,0.00656293,-0.00223187,-1.20545,0.00527893,0.01567,1497,1744,5.16088,-18.7273
280,-720,5.0929,18.6064,-0.00177308,0.00691772,-0.00226737,0.00747369,-0.00232906,-1.33033,0.00591372,0.0222881,1504,1744,5.09285,-18.6064
287,-720,5.03589,18.4111,-0.00232772,0.00798725,-0.00149156,0.0081986,-0.00253907,-1.43004,0.00648008,0.0350794,1511,1744,5.03587,-18.4111
294,-720,5.0907,18.1841,-0.00351276,0.00879511,8.55917e-05,0.00879571,-0.00351336,1.56384,0.00732153,0.0407685,1518,1744,5.09073,-18.1841
301,-720,5.11206,18.14,-0.00453316,0.0106107,0.000656726,0.0106391,-0.00456159,1.52754,0.00900693,0.0413458,1525,1744,5.11203,-18.1401
308,-720,4.83362,17.8942,-0.00496406,0.0124368,0.000677314,0.0124631,-0.00499039,1.53195,0.0103801,0.0380566,1532,1744,4.83365,-17.8942
315,-720,4.42065,17.4225,-0.00527932,0.0136848,0.000904795,0.0137279,-0.00532239,1.52323,0.0113499,0.0432568,1539,1744,4.42069,-17.4224
322,-720,5.10571,17.4822,0,0,0,0,0,0,0,-1,1546,1744,5.10573,-17.4822
329,-720,5.08215,17.5229,0,0,0,0,0,0,0,-1,1553,1744,5.0822,-17.5229
336,-720,5.39526,17.9709,0,0,0,0,0,0,0,-1,1560,1744,5.3953,-17.971
343,-720,5.19104,15.8707,0,0,0,0,0,0,0,-1,1567,1744,5.19098,-15.8707
350,-720,4.0741,11.1836,0,0,0,0,0,0,0,-1,1574,1744,4.07412,-11.1836
357,-720,5.23975,15.9412,0,0,0,0,0,0,0,-1,1581,1744,5.23978,-15.9412
364,-720,7.06262,19.2472,0,0,0,0,0,0,0,-1,1588,1744,7.06262,-19.2471
371,-720,6.59607,18.9454,0,0,0,0,0,0,0,-1,1595,1744,6.59608,-18.9454
378,-720,6.49023,19.1788,0,0,0,0,0,0,0,-1,1602,1744,6.49029,-19.1788
385,-720,6.70081,20.3156,0,0,0,0,0,0,0,-1,1609,1744,6.70076,-20.3156
392,-720,-0.195923,11.8507,0,0,0,0,0,0,0,-1,1616,1744,-0.195951,-11.8507
399,-720,-0.429932,12.9296,0,0,0,0,0,0,0,-1,1623,1744,-0.429942,-12.9296
406,-720,0,0,0,0,0,0,0,0,0,-1,1630,1744,0,0
413,-720,0,0,0,0,0,0,0,0,0,-1,1637,1744,0,0
420,-720,0,0,0,0,0,0,0,0,0,-1,1644,1744,0,0
427,-720,0,0,0,0,0,0,0,0,0,-1,1651,1744,0,0
434,-720,0,0,0,0,0,0,0,0,0,-1,1658,1744,0,0
441,-720,0,0,0,0,0,0,0,0,0,-1,1665,1744,0,0
448,-720,0,0,0,0,0,0,0,0,0,-1,1672,1744,0,0
455,-720,0,0,0,0,0,0,0,0,0,-1,1679,1744,0,0
462,-720,0,0,0,0,0,0,0,0,0,-1,1686,1744,0,0
469,-720,0,0,0,0,0,0,0,0,0,-1,1693,1744,0,0
476,-720,0,0,0,0,0,0,0,0,0,-1,1700,1744,0,0
483,-720,0,0,0,0,0,0,0,0,0,-1,1707,1744,0,0
490,-720,0,0,0,0,0,0,0,0,0,-1,1714,1744,0,0
497,-720,0,0,0,0,0,0,0,0,0,-1,1721,1744,0,0
504,-720,0,0,0,0,0,0,0,0,0,-1,1728,1744,0,0
511,-720,0,0,0,0,0,0,0,0,0,-1,1735,1744,0,0
518,-720,0,0,0,0,0,0,0,0,0,-1,1742,1744,0,0
525,-720,0,0,0,0,0,0,0,0,0,-1,1749,1744,0,0
532,-720,0,0,0,0,0,0,0,0,0,-1,1756,1744,0,0
539,-720,0,0,0,0,0,0,0,0,0,-1,1763,1744,0,0
546,-720,0,0,0,0,0,0,0,0,0,-1,1770,1744,0,0
553,-720,0,0,0,0,0,0,0,0,0,-1,1777,1744,0,0
560,-720,0,0,0,0,0,0,0,0,0,-1,1784,1744,0,0
567,-720,0,0,0,0,0,0,0,0,0,-1,1791,1744,0,0
574,-720,0,0,0,0,0,0,0,0,0,-1,1798,1744,0,0
581,-720,0,0,0,0,0,0,0,0,0,-1,1805,1744,0,0
588,-720,0,0,0,0,0,0,0,0,0,-1,1812,1744,0,0
595,-720,0,0,0,0,0,0,0,0,0,-1,1819,1744,0,0
602,-720,0,0,0,0,0,0,0,0,0,-1,1826,1744,0,0
609,-720,0,0,0,0,0,0,0,0,0,-1,1833,1744,0,0
616,-720,0,0,0,0,0,0,0,0,0,-1,1840,1744,0,0
623,-720,0,0,0,0,0,0,0,0,0,-1,1847,1744,0,0
630,-720,0,0,0,0,0,0,0,0,0,-1,1854,1744,0,0
637,-720,0,0,0,0,0,0,0,0,0,-1,1861,1744,0,0
644,-720,0,0,0,0,0,0,0,0,0,-1,1868,1744,0,0
651,-720,0,0,0,0,0,0,0,0,0,-1,1875,1744,0,0
658,-720,0,0,0,0,0,0,0,0,0,-1,1882,1744,0,0
665,-720,0,0,0,0,0,0,0,0,0,-1,1889,1744,0,0
672,-720,0,0,0,0,0,0,0,0,0,-1,1896,1744,0,0
679,-720,0,0,0,0,0,0,0,0,0,-1,1903,1744,0,0
686,-720,0,0,0,0,0,0,0,0,0,-1,1910,1744,0,0
693,-720,0,0,0,0,0,0,0,0,0,-1,1917,1744,0,0
700,-720,0,0,0,0,0,0,0,0,0,-1,1924,1744,0,0
707,-720,0,0,0,0,0,0,0,0,0,-1,1931,1744,0,0
714,-720,0,0,0,0,0,0,0,0,0,-1,1938,1744,0,0
721,-720,0,0,0,0,0,0,0,0,0,-1,1945,1744,0,0
728,-720,0,0,0,0,0,0,0,0,0,-1,1952,1744,0,0
735,-720,0,0,0,0,0,0,0,0,0,-1,1959,1744,0,0
742,-720,0,0,0,0,0,0,0,0,0,-1,1966,1744,0,0
749,-720,0,0,0,0,0,0,0,0,0,-1,1973,1744,0,0
756,-720,0,0,0,0,0,0,0,0,0,-1,1980,1744,0,0
763,-720,0,0,0,0,0,0,0,0,0,-1,1987,1744,0,0
770,-720,0,0,0,0,0,0,0,0,0,-1,1994,1744,0,0
777,-720,0,0,0,0,0,0,0,0,0,-1,2001,1744,0,0
784,-720,0,0,0,0,0,0,0,0,0,-1,2008,1744,0,0
791,-720,0,0,0,0,0,0,0,0,0,-1,2015,1744,0,0
798,-720,0,0,0,0,0,0,0,0,0,-1,2022,1744,0,0
805,-720,0,0,0,0,0,0,0,0,0,-1,2029,1744,0,0
812,-720,0,0,0,0,0,0,0,0,0,-1,2036,1744,0,0
-700,-727,0,0,0,0,0,0,0,0,0,-1,524,1751,0,0
-693,-727,0,0,0,0,0,0,0,0,0,-1,531,1751,0,0
-686,-727,0,0,0,0,0,0,0,0,0,-1,538,1751,0,0
-679,-727,0,0,0,0,0,0,0,0,0,-1,545,1751,0,0
-672,-727,0,0,0,0,0,0,0,0,0,-1,552,1751,0,0
-665,-727,0,0,0,0,0,0,0,0,0,-1,559,1751,0,0
-658,-727,0,0,0,0,0,0,0,0,0,-1,566,1751,0,0
-651,-727,0,0,0,0,0,0,0,0,0,-1,573,1751,0,0
-644,-727,0,0,0,0,0,0,0,0,0,-1,580,1751,0,0
-637,-727,0,0,0,0,0,0,0,0,0,-1,587,1751,0,0
-630,-727,0,0,0,0,0,0,0,0,0,-1,594,1751,0,0
-623,-727,0,0,0,0,0,0,0,0,0,-1,601,1751,0,0
-616,-727,0,0,0,0,0,0,0,0,0,-1,608,1751,0,0
-609,-727,0,0,0,0,0,0,0,0,0,-1,615,1751,0,0
-602,-727,0,0,0,0,0,0,0,0,0,-1,622,1751,0,0
-595,-727,0,0,0,0,0,0,0,0,0,-1,629,1751,0,0
-588,-727,0,0,0,0,0,0,0,0,0,-1,636,1751,0,0
-581,-727,0,0,0,0,0,0,0,0,0,-1,643,1751,0,0
-574,-727,0,0,0,0,0,0,0,0,0,-1,650,1751,0,0
-567,-727,0,0,0,0,0,0,0,0,0,-1,657,1751,0,0
-560,-727,0,0,0,0,0,0,0,0,0,-1,664,1751,0,0
-553,-727,0,0,0,0,0,0,0,0,0,-1,671,1751,0,0
-546,-727,0,0,0,0,0,0,0,0,0,-1,678,1751,0,0
-539,-727,0,0,0,0,0,0,0,0,0,-1,685,1751,0,0
-532,-727,0,0,0,0,0,0,0,0,0,-1,692,1751,0,0
-525,-727,0,0,0,0,0,0,0,0,0,-1,699,1751,0,0
-518,-727,0,0,0,0,0,0,0,0,0,-1,706,1751,0,0
-511,-727,0,0,0,0,0,0,0,0,0,-1,713,1751,0,0
-504,-727,0,0,0,0,0,0,0,0,0,-1,720,1751,0,0
-497,-727,0,0,0,0,0,0,0,0,0,-1,727,1751,0,0
-490,-727,0,0,0,0,0,0,0,0,0,-1,734,1751,0,0
-483,-727,0,0,0,0,0,0,0,0,0,-1,741,1751,0,0
-476,-727,0,0,0,0,0,0,0,0,0,-1,748,1751,0,0
-469,-727,0,0,0,0,0,0,0,0,0,-1,755,1751,0,0
-462,-727,0,0,0,0,0,0,0,0,0,-1,762,1751,0,0
-455,-727,0,0,0,0,0,0,0,0,0,-1,769,1751,0,0
-448,-727,0,0,0,0,0,0,0,0,0,-1,776,1751,0,0
-441,-727,0,0,0,0,0,0,0,0,0,-1,783,1751,0,0
-434,-727,0,0,0,0,0,0,0,0,0,-1,790,1751,0,0
-427,-727,0,0,0,0,0,0,0,0,0,-1,797,1751,0,0
-420,-727,0,0,0,0,0,0,0,0,0,-1,804,1751,0,0
-413,-727,0,0,0,0,0,0,0,0,0,-1,811,1751,0,0
-406,-727,0,0,0,0,0,0,0,0,0,-1,818,1751,0,0
-399,-727,0,0,0,0,0,0,0,0,0,-1,825,1751,0,0
-392,-727,0,0,0,0,0,0,0,0,0,-1,832,1751,0,0
-385,-727,0,0,0,0,0,0,0,0,0,-1,839,1751,0,0
-378,-727,0,0,0,0,0,0,0,0,0,-1,846,1751,0,0
-371,-727,0,0,0,0,0,0,0,0,0,-1,853,1751,0,0
-364,-727,0,0,0,0,0,0,0,0,0,-1,860,1751,0,0
-357,-727,0,0,0,0,0,0,0,0,0,-1,867,1751,0,0
-350,-727,0,0,0,0,0,0,0,0,0,-1,874,1751,0,0
-343,-727,0,0,0,0,0,0,0,0,0,-1,881,1751,0,0
-336,-727,0,0,0,0,0,0,0,0,0,-1,888,1751,0,0
-329,-727,0,0,0,0,0,0,0,0,0,-1,895,1751,0,0
-322,-727,0,0,0,0,0,0,0,0,0,-1,902,1751,0,0
-315,-727,0,0,0,0,0,0,0,0,0,-1,909,1751,0,0
-308,-727,0,0,0,0,0,0,0,0,0,-1,916,1751,0,0
-301,-727,0,0,0,0,0,0,0,0,0,-1,923,1751,0,0
-294,-727,0,0,0,0,0,0,0,0,0,-1,930,1751,0,0
-287,-727,0,0,0,0,0,0,0,0,0,-1,937,1751,0,0
-280,-727,0,0,0,0,0,0,0,0,0,-1,944,1751,0,0
-273,-727,0,0,0,0,0,0,0,0,0,-1,951,1751,0,0
-266,-727,4.24805,7.61145,0,0,0,0,0,0,0,-1,958,1751,4.24802,-7.6115
-259,-727,3.65228,5.4082,0,0,0,0,0,0,0,-1,965,1751,3.65229,-5.40818
-252,-727,7.46558,15.4333,0,0,0,0,0,0,0,-1,972,1751,7.46559,-15.4333
-245,-727,3.7851,16.7551,0,0,0,0,0,0,0,-1,979,1751,3.78508,-16.7551
-238,-727,3.46356,19.3009,0,0,0,0,0,0,0,-1,986,1751,3.46353,-19.3009
-231,-727,3.69269,18.4733,0.10211,-0.0891213,-0.0372322,0.109103,-0.0961145,-0.185665,0.118562,0.0477545,993,1751,3.69266,-18.4732
-224,-727,3.93896,17.6265,0.089138,-0.0901935,-0.0296801,0.0939225,-0.094978,-0.159828,0.109062,0.0443045,1000,1751,3.93897,-17.6265
-217,-727,4.03571,16.9557,0.0757551,-0.0902239,-0.0231182,0.078915,-0.0933837,-0.13584,0.0995935,0.0452504,1007,1751,4.03572,-16.9557
-210,-727,4.14667,16.5145,0.0634888,-0.0857854,-0.018766,0.0658118,-0.0881084,-0.123162,0.0891761,0.0431416,1014,1751,4.14665,-16.5145
-203,-727,4.26208,16.1588,0.0536006,-0.076794,-0.016181,0.0555785,-0.078772,-0.121635,0.0779516,0.0434354,1021,1751,4.26211,-16.1588
-196,-727,4.42639,15.7666,0,0,0,0,0,0,0,-1,1028,1751,4.42644,-15.7666
-189,-727,4.10754,16.7467,0,0,0,0,0,0,0,-1,1035,1751,4.10756,-16.7467
-182,-727,4.50464,17.7155,0,0,0,0,0,0,0,-1,1042,1751,4.50466,-17.7154
-175,-727,4.58813,18.3179,0,0,0,0,0,0,0,-1,1049,1751,4.58819,-18.3179
-168,-727,5.49182,17.8419,0,0,0,0,0,0,0,-1,1056,1751,5.49178,-17.8419
-161,-727,5.00549,18.0355,0,0,0,0,0,0,0,-1,1063,1751,5.00551,-18.0355
-154,-727,5.58777,17.5576,0.0186087,0.0271218,-0.0107034,0.034384,0.0113465,-0.97465,0.0202305,0.0455014,1070,1751,5.58778,-17.5577
-147,-727,5.3457,18.0403,0.0159806,0.0356476,-0.0102056,0.0399864,0.0116419,-1.16881,0.023748,0.0428245,1077,1751,5.34576,-18.0403
-140,-727,5.19885,18.1335,0.0137695,0.0379228,-0.00905833,0.0409425,0.0107499,-1.24902,0.0245105,0.0301855,1084,1751,5.19891,-18.1335
-133,-727,5.28809,18.3031,0.0118838,0.0383255,-0.00799581,0.0405554,0.009654,-1.29883,0.0244624,0.0222195,1091,1751,5.28811,-18.3031
-126,-727,5.23145,18.483,0.00956518,0.0383197,-0.00664005,0.039779,0.00810591,-1.35447,0.0242728,0.0150378,1098,1751,5.23145,-18.483
-119,-727,5.24634,18.651,0.0075475,0.0354936,-0.00541829,0.0365073,0.00653376,-1.38584,0.0224791,0.0121671,1105,1751,5.24631,-18.6511
-112,-727,5.25488,18.7424,0.00661732,0.0310169,-0.00463144,0.0318664,0.00576777,-1.38938,0.0196065,0.0133074,1112,1751,5.25487,-18.7425
-105,-727,5.22815,18.8599,0.00561837,0.0261876,-0.00386742,0.0268907,0.00491525,-1.39096,0.0165341,0.0120421,1119,1751,5.22816,-18.8598
-98,-727,5.22375,18.9777,0.00457646,0.0213249,-0.00308042,0.0218735,0.00402787,-1.39455,0.0134424,0.0100556,1126,1751,5.22373,-18.9776
-91,-727,5.22229,19.0776,0.00371087,0.0172524,-0.00233417,0.0176435,0.00331982,-1.40481,0.0108267,0.010199,1133,1751,5.22228,-19.0776
-84,-727,5.20264,19.1936,0.00242279,0.0135508,-0.00153684,0.0137592,0.00221444,-1.43605,0.00853099,0.0106052,1140,1751,5.20263,-19.1936
-77,-727,5.20422,19.3199,0.000869052,0.00685676,-0.000618394,0.00691996,0.000805853,-1.46895,0.00436953,0.0109599,1147,1751,5.20425,-19.3199
-70,-727,5.20325,19.4088,-0.000393771,0.00228039,0.000189736,0.00229378,-0.000407166,1.50032,0.00168143,0.0117045,1154,1751,5.2033,-19.4088
-63,-727,5.1947,19.4884,-0.000454154,0.0019238,0.000241993,0.00194818,-0.000478531,1.4704,0.00148424,0.00989572,1161,1751,5.19468,-19.4884
-56,-727,5.18616,19.5648,-0.000343838,0.00167955,0.000255087,0.00171122,-0.000375501,1.4473,0.00128441,0.0104078,1168,1751,5.18616,-19.5648
-49,-727,5.17737,19.6411,-0.000322026,0.00151875,0.0002372,0.00154883,-0.0003521,1.44468,0.00116775,0.0135206,1175,1751,5.17731,-19.6411
-42,-727,5.17993,19.7286,-0.000472226,0.00126461,0.000310296,0.00131838,-0.000525998,1.39921,0.00109712,0.0170168,1182,1751,5.17993,-19.7286
-35,-727,5.17297,19.7983,-0.000561471,0.00078322,0.000440226,0.000914521,-0.000692771,1.28094,0.00093091,0.0156043,1189,1751,5.17302,-19.7983
-28,-727,5.16199,19.8545,-0.000610195,0.000358644,0.000378867,0.000489207,-0.000740757,1.23893,0.000715053,0.00904043,1196,1751,5.16196,-19.8545
-21,-727,5.15649,19.9379,-0.000629859,0.000149841,0.000356334,0.000288155,-0.000768173,1.20054,0.000630511,0.0100168,1203,1751,5.15655,-19.9378
-14,-727,5.15674,19.9965,-0.000555459,8.98114e-05,0.000494068,0.000357258,-0.000822906,1.07465,0.000698824,0.010963,1210,1751,5.15678,-19.9964
-7,-727,5.17993,20.0538,-0.000419975,0.000247495,0.000734057,0.000720121,-0.000892601,0.998753,0.000932879,0.0137508,1217,1751,5.17998,-20.0539
0,-727,5.17993,20.1178,-0.000171753,0.000532603,0.00115695,0.00138979,-0.00102894,0.933143,0.00140163,0.0140205,1224,1751,5.17992,-20.1177
7,-727,5.15515,20.1499,0.000175387,0.000866414,0.00170055,0.00225619,-0.00121439,0.885623,0.00203361,0.0129439,1231,1751,5.15518,-20.1499
14,-727,5.16711,20.2061,0.000495787,0.00119731,0.00227558,0.003149,-0.0014559,0.861867,0.00271788,0.0129735,1238,1751,5.16708,-20.206
21,-727,5.1554,20.2671,0.00081968,0.00135349,0.00281759,0.00391679,-0.00174362,0.832622,0.00334736,0.0120761,1245,1751,5.15545,-20.267
28,-727,5.16687,20.2841,0.00116817,0.00131058,0.00335898,0.00459911,-0.00212036,0.795996,0.0039665,0.0109841,1252,1751,5.16691,-20.284
35,-727,5.1814,20.3091,0.00153572,0.00116144,0.00374794,0.00510119,-0.00240403,0.760453,0.00442543,0.0121862,1259,1751,5.18143,-20.3091
42,-727,5.14331,20.3196,0.00181952,0.000919887,0.0039793,0.00537435,-0.00263494,0.729117,0.00471346,0.0123338,1266,1751,5.14336,-20.3196
49,-727,5.12451,20.3297,0.0019722,0.000568852,0.00407859,0.00540903,-0.00286798,0.700213,0.00485322,0.0104514,1273,1751,5.12445,-20.3297
56,-727,5.14258,20.3647,0.0019728,-6.36281e-05,0.00401658,0.00509822,-0.00318904,0.661262,0.00482679,0.0090531,1280,1751,5.14259,-20.3648
63,-727,5.16797,20.3687,0.00189916,-0.000509061,0.00374526,0.00462912,-0.00323901,0.629865,0.00456624,0.0114702,1287,1751,5.16793,-20.3687
70,-727,5.18823,20.369,0.0016698,-0.00106421,0.00338689,0.00395515,-0.00334956,0.593588,0.0042222,0.0136961,1294,1751,5.1882,-20.369
77,-727,5.19385,20.3857,0.00139879,-0.00128018,0.00298457,0.00333068,-0.00321207,0.574469,0.00377766,0.0156632,1301,1751,5.1939,-20.3858
84,-727,5.18115,20.3606,0.00101397,-0.00147661,0.00264636,0.00269339,-0.00315604,0.565486,0.00338069,0.0146224,1308,1751,5.18121,-20.3605
91,-727,5.18433,20.3379,0.000524532,-0.00152095,0.00238158,0.00209369,-0.00309011,0.582587,0.00301124,0.01452,1315,1751,5.18432,-20.3378
98,-727,5.19482,20.3517,3.09389e-05,-0.00142801,0.00219924,0.00161853,-0.0030156,0.625261,0.00271574,0.0135276,1322,1751,5.19487,-20.3517
105,-727,5.18176,20.3668,-0.000415089,-0.00123113,0.00199259,0.00121083,-0.00285704,0.68441,0.00241184,0.013256,1329,1751,5.18178,-20.3669
112,-727,5.17896,20.3564,-0.000779226,-0.000994633,0.00193599,0.00105205,-0.00282591,0.757611,0.0023157,0.0107441,1336,1751,5.17891,-20.3564
119,-727,5.18701,20.3416,-0.000994339,-0.000750728,0.0020058,0.00113697,-0.00288203,0.815724,0.00239217,0.00904465,1343,1751,5.187,-20.3416
126,-727,5.1991,20.3041,-0.00112472,-0.000397274,0.00215125,0.00142079,-0.00294278,0.869143,0.00256988,0.0109012,1350,1751,5.19905,-20.3041
133,-727,5.20154,20.2808,-0.00126251,8.58495e-06,0.00219963,0.00166264,-0.00291656,0.926035,0.00267664,0.0151806,1357,1751,5.20154,-20.2807
140,-727,5.18408,20.2307,-0.00137057,0.00037075,0.00219624,0.00186262,-0.00286244,0.974112,0.00274829,0.021976,1364,1751,5.18414,-20.2307
147,-727,5.18152,20.1566,-0.00142325,0.000659622,0.00208378,0.00194772,-0.00271135,1.01714,0.00270193,0.017897,1371,1751,5.18153,-20.1567
154,-727,5.18945,20.1245,-0.00140986,0.000927974,0.00183778,0.00193709,-0.00241897,1.06865,0.00252009,0.0104596,1378,1751,5.18941,-20.1245
161,-727,5.16748,20.0844,-0.00134289,0.0011543,0.00148819,0.00184831,-0.0020369,1.13444,0.00224401,0.00812356,1385,1751,5.16748,-20.0844
168,-727,5.16968,20.0293,-0.00126838,0.0011645,0.00110111,0.00158884,-0.00169272,1.20296,0.00189492,0.0109683,1392,1751,5.16973,-20.0293
175,-727,5.18262,19.9659,-0.00128705,0.00100923,0.000654416,0.00118263,-0.00146045,1.31177,0.00152879,0.0166343,1399,1751,5.18261,-19.966
182,-727,5.17712,19.9241,-0.00119612,0.000678982,0.000309844,0.000728855,-0.00124599,1.41121,0.00115314,0.0183829,1406,1751,5.17712,-19.9241
189,-727,5.15686,19.8453,-0.0008892,0.00140437,-0.00088401,0.00170554,-0.00119038,-1.24244,0.00168075,0.0116275,1413,1751,5.15689,-19.8453
196,-727,5.15833,19.7683,-0.000834969,0.00162335,-0.0018045,0.00257755,-0.00178917,-1.08438,0.00253479,0.0130879,1420,1751,5.15834,-19.7683
203,-727,5.15845,19.6849,-0.000893898,0.00212207,-0.00280599,0.00379962,-0.00257145,-1.03196,0.00370105,0.0154448,1427,1751,5.1585,-19.685
210,-727,5.15027,19.621,-0.000794709,0.00257723,-0.00357643,0.00484516,-0.00306264,-1.00566,0.00460408,0.0145145,1434,1751,5.15025,-19.621
217,-727,5.13562,19.5319,-0.000647352,0.00296923,-0.00426494,0.00579339,-0.00347151,-0.985906,0.0054048,0.0113246,1441,1751,5.13557,-19.5319
224,-727,5.12231,19.4238,-0.00045664,0.00318588,-0.00488925,0.00658207,-0.00385283,-0.963688,0.0060929,0.0118612,1448,1751,5.12234,-19.4238
231,-727,5.12524,19.3394,-0.000260463,0.00333628,-0.00543106,0.00725897,-0.00418315,-0.94528,0.0066852,0.00959164,1455,1751,5.12523,-19.3394
238,-727,5.12695,19.2399,5.43645e-05,0.00342203,-0.00584508,0.00782098,-0.00434458,-0.92564,0.00711874,0.00988289,1462,1751,5.12694,-19.2399
245,-727,5.11987,19.1571,0.000448647,0.00363183,-0.00611583,0.00835978,-0.0042793,-0.912695,0.00742286,0.00898988,1469,1751,5.11984,-19.1571
252,-727,5.11072,19.0579,0.000639881,0.00382511,-0.00624314,0.00867557,-0.00421058,-0.910284,0.00758723,0.0106436,1476,1751,5.11069,-19.0578
259,-727,5.12451,18.9362,0.00037801,0.00434306,-0.00607662,0.00875238,-0.00403131,-0.943081,0.00754657,0.0156562,1483,1751,5.1245,-18.9361
266,-727,5.15942,18.8612,-0.000422694,0.0060231,-0.00532662,0.00902596,-0.00342555,-1.05746,0.00742731,0.0235898,1490,1751,5.15944,-18.8612
273,-727,5.24255,18.8237,-0.00129806,0.00748521,-0.00471984,0.00954054,-0.00335339,-1.16009,0.00772472,0.0428361,1497,1751,5.24258,-18.8238
280,-727,5.05981,18.7791,0,0,0,0,0,0,0,-1,1504,1751,5.0598,-18.7791
287,-727,4.81995,18.3457,0,0,0,0,0,0,0,-1,1511,1751,4.81993,-18.3457
294,-727,4.8634,17.9819,0,0,0,0,0,0,0,-1,1518,1751,4.86344,-17.982
301,-727,4.93445,18.1284,0,0,0,0,0,0,0,-1,1525,1751,4.93446,-18.1284
308,-727,4.32739,17.6099,0,0,0,0,0,0,0,-1,1532,1751,4.3274,-17.6099
315,-727,3.60962,16.826,0,0,0,0,0,0,0,-1,1539,1751,3.60963,-16.8261
322,-727,4.82263,15.9088,0,0,0,0,0,0,0,-1,1546,1751,4.8226,-15.9088
329,-727,6.61853,11.6267,0,0,0,0,0,0,0,-1,1553,1751,6.61859,-11.6267
336,-727,3.34875,7.61792,0,0,0,0,0,0,0,-1,1560,1751,3.34872,-7.61791
343,-727,2.41699,8.72095,0,0,0,0,0,0,0,-1,1567,1751,2.41702,-8.72098
350,-727,3.89783,7.50195,0,0,0,0,0,0,0,-1,1574,1751,3.89782,-7.50193
357,-727,4.48462,10.2948,0,0,0,0,0,0,0,-1,1581,1751,4.48464,-10.2948
364,-727,6.96729,17.2365,0,0,0,0,0,0,0,-1,1588,1751,6.96732,-17.2365
371,-727,6.8031,18.2258,0,0,0,0,0,0,0,-1,1595,1751,6.80307,-18.2258
378,-727,6.6825,19.5815,0,0,0,0,0,0,0,-1,1602,1751,6.68251,-19.5815
385,-727,3.19275,14.7679,0,0,0,0,0,0,0,-1,1609,1751,3.19274,-14.768
392,-727,0,0,0,0,0,0,0,0,0,-1,1616,1751,0,0
399,-727,0,0,0,0,0,0,0,0,0,-1,1623,1751,0,0
406,-727,0,0,0,0,0,0,0,0,0,-1,1630,1751,0,0
413,-727,0,0,0,0,0,0,0,0,0,-1,1637,1751,0,0
420,-727,0,0,0,0,0,0,0,0,0,-1,1644,1751,0,0
427,-727,0,0,0,0,0,0,0,0,0,-1,1651,1751,0,0
434,-727,0,0,0,0,0,0,0,0,0,-1,1658,1751,0,0
441,-727,0,0,0,0,0,0,0,0,0,-1,1665,1751,0,0
448,-727,0,0,0,0,0,0,0,0,0,-1,1672,1751,0,0
455,-727,0,0,0,0,0,0,0,0,0,-1,1679,1751,0,0
462,-727,0,0,0,0,0,0,0,0,0,-1,1686,1751,0,0
469,-727,0,0,0,0,0,0,0,0,0,-1,1693,1751,0,0
476,-727,0,0,0,0,0,0,0,0,0,-1,1700,1751,0,0
483,-727,0,0,0,0,0,0,0,0,0,-1,1707,1751,0,0
490,-727,0,0,0,0,0,0,0,0,0,-1,1714,1751,0,0
497,-727,0,0,0,0,0,0,0,0,0,-1,1721,1751,0,0
504,-727,0,0,0,0,0,0,0,0,0,-1,1728,1751,0,0
511,-727,0,0,0,0,0,0,0,0,0,-1,1735,1751,0,0
518,-727,0,0,0,0,0,0,0,0,0,-1,1742,1751,0,0
525,-727,0,0,0,0,0,0,0,0,0,-1,1749,1751,0,0
532,-727,0,0,0,0,0,0,0,0,0,-1,1756,1751,0,0
539,-727,0,0,0,0,0,0,0,0,0,-1,1763,1751,0,0
546,-727,0,0,0,0,0,0,0,0,0,-1,1770,1751,0,0
553,-727,0,0,0,0,0,0,0,0,0,-1,1777,1751,0,0
560,-727,0,0,0,0,0,0,0,0,0,-1,1784,1751,0,0
567,-727,0,0,0,0,0,0,0,0,0,-1,1791,1751,0,0
574,-727,0,0,0,0,0,0,0,0,0,-1,1798,1751,0,0
581,-727,0,0,0,0,0,0,0,0,0,-1,1805,1751,0,0
588,-727,0,0,0,0,0,0,0,0,0,-1,1812,1751,0,0
595,-727,0,0,0,0,0,0,0,0,0,-1,1819,1751,0,0
602,-727,0,0,0,0,0,0,0,0,0,-1,1826,1751,0,0
609,-727,0,0,0,0,0,0,0,0,0,-1,1833,1751,0,0
616,-727,0,0,0,0,0,0,0,0,0,-1,1840,1751,0,0
623,-727,0,0,0,0,0,0,0,0,0,-1,1847,1751,0,0
630,-727,0,0,0,0,0,0,0,0,0,-1,1854,1751,0,0
637,-727,0,0,0,0,0,0,0,0,0,-1,1861,1751,0,0
644,-727,0,0,0,0,0,0,0,0,0,-1,1868,1751,0,0
651,-727,0,0,0,0,0,0,0,0,0,-1,1875,1751,0,0
658,-727,0,0,0,0,0,0,0,0,0,-1,1882,1751,0,0
665,-727,0,0,0,0,0,0,0,0,0,-1,1889,1751,0,0
672,-727,0,0,0,0,0,0,0,0,0,-1,1896,1751,0,0
679,-727,0,0,0,0,0,0,0,0,0,-1,1903,1751,0,0
686,-727,0,0,0,0,0,0,0,0,0,-1,1910,1751,0,0
693,-727,0,0,0,0,0,0,0,0,0,-1,1917,1751,0,0
700,-727,0,0,0,0,0,0,0,0,0,-1,1924,1751,0,0
707,-727,0,0,0,0,0,0,0,0,0,-1,1931,1751,0,0
714,-727,0,0,0,0,0,0,0,0,0,-1,1938,1751,0,0
721,-727,0,0,0,0,0,0,0,0,0,-1,1945,1751,0,0
728,-727,0,0,0,0,0,0,0,0,0,-1,1952,1751,0,0
735,-727,0,0,0,0,0,0,0,0,0,-1,1959,1751,0,0
742,-727,0,0,0,0,0,0,0,0,0,-1,1966,1751,0,0
749,-727,0,0,0,0,0,0,0,0,0,-1,1973,1751,0,0
756,-727,0,0,0,0,0,0,0,0,0,-1,1980,1751,0,0
763,-727,0,0,0,0,0,0,0,0,0,-1,1987,1751,0,0
770,-727,0,0,0,0,0,0,0,0,0,-1,1994,1751,0,0
777,-727,0,0,0,0,0,0,0,0,0,-1,2001,1751,0,0
784,-727,0,0,0,0,0,0,0,0,0,-1,2008,1751,0,0
791,-727,0,0,0,0,0,0,0,0,0,-1,2015,1751,0,0
798,-727,0,0,0,0,0,0,0,0,0,-1,2022,1751,0,0
805,-727,0,0,0,0,0,0,0,0,0,-1,2029,1751,0,0
812,-727,0,0,0,0,0,0,0,0,0,-1,2036,1751,0,0
-700,-734,0,0,0,0,0,0,0,0,0,-1,524,1758,0,0
-693,-734,0,0,0,0,0,0,0,0,0,-1,531,1758,0,0
-686,-734,0,0,0,0,0,0,0,0,0,-1,538,1758,0,0
-679,-734,0,0,0,0,0,0,0,0,0,-1,545,1758,0,0
-672,-734,0,0,0,0,0,0,0,0,0,-1,552,1758,0,0
-665,-734,0,0,0,0,0,0,0,0,0,-1,559,1758,0,0
-658,-734,0,0,0,0,0,0,0,0,0,-1,566,1758,0,0
-651,-734,0,0,0,0,0,0,0,0,0,-1,573,1758,0,0
-644,-734,0,0,0,0,0,0,0,0,0,-1,580,1758,0,0
-637,-734,0,0,0,0,0,0,0,0,0,-1,587,1758,0,0
-630,-734,0,0,0,0,0,0,0,0,0,-1,594,1758,0,0
-623,-734,0,0,0,0,0,0,0,0,0,-1,601,1758,0,0
-616,-734,0,0,0,0,0,0,0,0,0,-1,608,1758,0,0
-609,-734,0,0,0,0,0,0,0,0,0,-1,615,1758,0,0
-602,-734,0,0,0,0,0,0,0,0,0,-1,622,1758,0,0
-595,-734,0,0,0,0,0,0,0,0,0,-1,629,1758,0,0
-588,-734,0,0,0,0,0,0,0,0,0,-1,636,1758,0,0
-581,-734,0,0,0,0,0,0,0,0,0,-1,643,1758,0,0
-574,-734,0,0,0,0,0,0,0,0,0,-1,650,1758,0,0
-567,-734,0,0,0,0,0,0,0,0,0,-1,657,1758,0,0
-560,-734,0,0,0,0,0,0,0,0,0,-1,664,1758,0,0
-553,-734,0,0,0,0,0,0,0,0,0,-1,671,1758,0,0
-546,-734,0,0,0,0,0,0,0,0,0,-1,678,1758,0,0
-539,-734,0,0,0,0,0,0,0,0,0,-1,685,1758,0,0
-532,-734,0,0,0,0,0,0,0,0,0,-1,692,1758,0,0
-525,-734,0,0,0,0,0,0,0,0,0,-1,699,1758,0,0
-518,-734,0,0,0,0,0,0,0,0,0,-1,706,1758,0,0
-511,-734,0,0,0,0,0,0,0,0,0,-1,713,1758,0,0
-504,-734,0,0,0,0,0,0,0,0,0,-1,720,1758,0,0
-497,-734,0,0,0,0,0,0,0,0,0,-1,727,1758,0,0
-490,-734,0,0,0,0,0,0,0,0,0,-1,734,1758,0,0
-483,-734,0,0,0,0,0,0,0,0,0,-1,741,1758,0,0
-476,-734,0,0,0,0,0,0,0,0,0,-1,748,1758,0,0
-469,-734,0,0,0,0,0,0,0,0,0,-1,755,1758,0,0
-462,-734,0,0,0,0,0,0,0,0,0,-1,762,1758,0,0
-455,-734,0,0,0,0,0,0,0,0,0,-1,769,1758,0,0
-448,-734,0,0,0,0,0,0,0,0,0,-1,776,1758,0,0
-441,-734,0,0,0,0,0,0,0,0,0,-1,783,1758,0,0
-434,-734,0,0,0,0,0,0,0,0,0,-1,790,1758,0,0
-427,-734,0,0,0,0,0,0,0,0,0,-1,797,1758,0,0
-420,-734,0,0,0,0,0,0,0,0,0,-1,804,1758,0,0
-413,-734,0,0,0,0,0,0,0,0,0,-1,811,1758,0,0
-406,-734,0,0,0,0,0,0,0,0,0,-1,818,1758,0,0
-399,-734,0,0,0,0,0,0,0,0,0,-1,825,1758,0,0
-392,-734,0,0,0,0,0,0,0,0,0,-1,832,1758,0,0
-385,-734,0,0,0,0,0,0,0,0,0,-1,839,1758,0,0
-378,-734,0,0,0,0,0,0,0,0,0,-1,846,1758,0,0
-371,-734,0,0,0,0,0,0,0,0,0,-1,853,1758,0,0
-364,-734,0,0,0,0,0,0,0,0,0,-1,860,1758,0,0
-357,-734,0,0,0,0,0,0,0,0,0,-1,867,1758,0,0
-350,-734,0,0,0,0,0,0,0,0,0,-1,874,1758,0,0
-343,-734,0,0,0,0,0,0,0,0,0,-1,881,1758,0,0
-336,-734,0,0,0,0,0,0,0,0,0,-1,888,1758,0,0
-329,-734,0,0,0,0,0,0,0,0,0,-1,895,1758,0,0
-322,-734,0,0,0,0,0,0,0,0,0,-1,902,1758,0,0
-315,-734,0,0,0,0,0,0,0,0,0,-1,909,1758,0,0
-308,-734,0,0,0,0,0,0,0,0,0,-1,916,1758,0,0
-301,-734,0,0,0,0,0,0,0,0,0,-1,923,1758,0,0
-294,-734,0,0,0,0,0,0,0,0,0,-1,930,1758,0,0
-287,-734,0,0,0,0,0,0,0,0,0,-1,937,1758,0,0
-280,-734,0,0,0,0,0,0,0,0,0,-1,944,1758,0,0
-273,-734,0,0,0,0,0,0,0,0,0,-1,951,1758,0,0
-266,-734,0,0,0,0,0,0,0,0,0,-1,958,1758,0,0
-259,-734,0,0,0,0,0,0,0,0,0,-1,965,1758,0,0
-252,-734,8.4599,13.8206,0,0,0,0,0,0,0,-1,972,1758,8.4599,-13.8206
-245,-734,7.05664,19.2383,0,0,0,0,0,0,0,-1,979,1758,7.05666,-19.2383
-238,-734,7.32684,19.5619,0,0,0,0,0,0,0,-1,986,1758,7.32684,-19.5619
-231,-734,3.25281,18.8683,0,0,0,0,0,0,0,-1,993,1758,3.25282,-18.8683
-224,-734,3.48834,18.0856,0,0,0,0,0,0,0,-1,1000,1758,3.48837,-18.0856
-217,-734,3.79767,17.2667,0,0,0,0,0,0,0,-1,1007,1758,3.79769,-17.2667
-210,-734,3.51239,18.1115,0.0767403,-0.108392,-0.0263529,0.0804184,-0.11207,-0.138677,0.111633,0.046608,1014,1758,3.5124,-18.1115
-203,-734,3.84473,17.8911,0.0663141,-0.0961367,-0.0238924,0.0697552,-0.0995778,-0.14304,0.0982685,0.0462642,1021,1758,3.84469,-17.8912
-196,-734,3.42322,19.1584,0,0,0,0,0,0,0,-1,1028,1758,3.42318,-19.1585
-189,-734,3.72363,17.226,0,0,0,0,0,0,0,-1,1035,1758,3.72364,-17.226
-182,-734,4.38708,17.6525,0,0,0,0,0,0,0,-1,1042,1758,4.38708,-17.6525
-175,-734,5.05054,18.079,0,0,0,0,0,0,0,-1,1049,1758,5.05053,-18.0789
-168,-734,4.50208,15.4194,0,0,0,0,0,0,0,-1,1056,1758,4.50212,-15.4194
-161,-734,3.51257,9.94104,0,0,0,0,0,0,0,-1,1063,1758,3.51257,-9.94101
-154,-734,5.91235,17.3029,0,0,0,0,0,0,0,-1,1070,1758,5.9123,-17.3028
-147,-734,5.57458,18.0146,0.0239808,0.0517661,-0.0154744,0.0586692,0.0170777,-1.15119,0.0348444,0.0455636,1077,1758,5.5746,-18.0147
-140,-734,5.30859,18.0931,0.0207604,0.0551285,-0.0135245,0.0598123,0.0160765,-1.2374,0.0357423,0.0399894,1084,1758,5.30861,-18.0931
-133,-734,5.46448,18.2795,0.0180062,0.055815,-0.0117883,0.0591893,0.0146318,-1.29201,0.0355991,0.0383344,1091,1758,5.46451,-18.2796
-126,-734,5.72827,17.7717,0,0,0,0,0,0,0,-1,1098,1758,5.72822,-17.7717
-119,-734,5.328,18.6057,0.0119086,0.052089,-0.00784889,0.0535678,0.0104299,-1.38457,0.0327929,0.0366285,1105,1758,5.32795,-18.6057
-112,-734,5.37708,18.7144,0.0105003,0.0456647,-0.0067881,0.0469296,0.00923539,-1.38657,0.0287074,0.0284314,1112,1758,5.37711,-18.7143
-105,-734,5.32104,18.8641,0.00894757,0.0388367,-0.00571532,0.0398923,0.00789198,-1.38816,0.0243935,0.0190176,1119,1758,5.32104,-18.8642
-98,-734,5.35168,18.939,0.00733917,0.0319987,-0.00464559,0.0328449,0.00649302,-1.39063,0.0200852,0.0204616,1126,1758,5.35163,-18.9389
-91,-734,5.36047,19.0016,0.0059546,0.026045,-0.00364113,0.0266846,0.00531505,-1.39692,0.0163093,0.0247347,1133,1758,5.36051,-19.0016
-84,-734,5.30847,19.1365,0.00402595,0.0205909,-0.00252618,0.0209676,0.00364927,-1.42278,0.0129347,0.0197061,1140,1758,5.30849,-19.1364
-77,-734,5.29517,19.2911,0.00156796,0.0100552,-0.00118211,0.0102168,0.00140639,-1.43496,0.00639418,0.0158802,1147,1758,5.29512,-19.2912
-70,-734,5.27283,19.3365,-0.000632999,0.00262899,0.000117468,0.00263321,-0.000637224,1.53485,0.00200198,0.0120869,1154,1758,5.27287,-19.3366
-63,-734,5.26538,19.4313,-0.00112693,0.00155941,-2.12454e-05,0.00155957,-0.0011271,-1.56289,0.00155784,0.011777,1161,1758,5.26537,-19.4313
-56,-734,5.25916,19.5365,-0.00139148,0.000764914,-0.000267557,0.000797616,-0.00142418,-1.44918,0.00129965,0.0127528,1168,1758,5.25921,-19.5365
-49,-734,5.24377,19.6377,-0.00148523,0.000595118,-0.000312638,0.000641086,-0.0015312,-1.42481,0.00128879,0.0127379,1175,1758,5.2438,-19.6377
-42,-734,5.24548,19.7389,-0.001855,0.000352902,-0.000158573,0.000364233,-0.00186633,-1.49946,0.00138173,0.0131151,1182,1758,5.24552,-19.7389
-35,-734,5.24133,19.8004,-0.00207031,-5.70893e-05,0.000226105,-3.2008e-05,-0.00209539,1.46032,0.00138638,0.0133515,1189,1758,5.24136,-19.8005
-28,-734,5.24194,19.8528,-0.00229677,-0.000481944,0.000493385,-0.000356484,-0.00242223,1.32179,0.00151008,0.00961734,1196,1758,5.24195,-19.8527
-21,-734,5.27026,19.9213,-0.00246149,-0.000880167,0.000784057,-0.000557325,-0.00278433,1.18019,0.00170116,0.0145072,1203,1758,5.27023,-19.9212
-14,-734,5.21973,20.0385,-0.00247988,-0.00134617,0.00128218,-0.000511129,-0.00331493,0.99353,0.00206081,0.0139667,1210,1758,5.2197,-20.0384
-7,-734,5.24756,20.0902,-0.00248902,-0.00151985,0.00184379,-9.80285e-05,-0.00391084,0.913903,0.00257517,0.0157075,1217,1758,5.2476,-20.0902
0,-734,5.22485,20.1145,-0.00238634,-0.00166469,0.00258227,0.000581842,-0.00463287,0.854815,0.00329967,0.0157098,1224,1758,5.2248,-20.1145
7,-734,5.18738,20.1515,-0.00205789,-0.00169248,0.00346523,0.00159486,-0.00534523,0.811736,0.00419735,0.0114906,1231,1758,5.18734,-20.1515
14,-734,5.18494,20.2043,-0.00166002,-0.00180133,0.00429473,0.00256464,-0.00602599,0.777173,0.00509223,0.0123008,1238,1758,5.18491,-20.2044
21,-734,5.16943,20.2595,-0.00122529,-0.00190977,0.00500769,0.00345184,-0.0065869,0.75128,0.00588933,0.0121222,1245,1758,5.16943,-20.2595
28,-734,5.17603,20.2882,-0.00054104,-0.00209924,0.00565874,0.00439198,-0.00703226,0.716988,0.00665424,0.0118577,1252,1758,5.17599,-20.2882
35,-734,5.19104,20.3154,0.000171652,-0.00226465,0.00600271,0.00507857,-0.00717156,0.685291,0.00710694,0.0138006,1259,1758,5.19106,-20.3154
42,-734,5.1731,20.3215,0.000804395,-0.00236433,0.00611387,0.00553586,-0.00709579,0.658616,0.0073114,0.0117212,1266,1758,5.17306,-20.3216
49,-734,5.15063,20.3333,0.0013047,-0.00255114,0.0060641,0.00573997,-0.00698641,0.631489,0.00735932,0.00979765,1273,1758,5.15059,-20.3333
56,-734,5.15601,20.3617,0.00150008,-0.00289869,0.00578241,0.00548727,-0.00688587,0.603668,0.00715883,0.00919235,1280,1758,5.15601,-20.3618
63,-734,5.17603,20.3625,0.00157642,-0.00294051,0.00527758,0.00505847,-0.00642256,0.583221,0.00664415,0.0121224,1287,1758,5.17596,-20.3625
70,-734,5.16333,20.3765,0.00142186,-0.00290793,0.00460087,0.00434173,-0.0058278,0.565496,0.00589224,0.012736,1294,1758,5.16337,-20.3764
77,-734,5.1687,20.4128,0.000980171,-0.00248156,0.00384799,0.00346865,-0.00497005,0.57405,0.00489772,0.0170924,1301,1758,5.16872,-20.4128
84,-734,5.1698,20.397,0.000271106,-0.0021337,0.00318118,0.00246954,-0.00433213,0.60471,0.00397572,0.0164583,1308,1758,5.16974,-20.397
91,-734,5.17786,20.3873,-0.000613863,-0.00161052,0.00262613,0.0015608,-0.00378518,0.691634,0.00317431,0.0172008,1315,1758,5.17791,-20.3874
98,-734,5.1958,20.3794,-0.0014939,-0.00114765,0.00229554,0.000981286,-0.00362284,0.823035,0.00280023,0.0136255,1322,1758,5.19582,-20.3794
105,-734,5.19189,20.36,-0.00236795,-0.000560381,0.00197778,0.000710332,-0.00363867,0.999716,0.00269395,0.0144841,1329,1758,5.19189,-20.36
112,-734,5.18042,20.3383,-0.0032137,-2.95911e-06,0.00179937,0.000803089,-0.00401974,1.14964,0.00298377,0.0117195,1336,1758,5.18038,-20.3382
119,-734,5.16479,20.3043,-0.00379211,0.000655349,0.00185084,0.00132482,-0.00446158,1.22373,0.00350058,0.0121897,1343,1758,5.16479,-20.3043
126,-734,5.17908,20.2672,-0.0040859,0.00123451,0.00206095,0.00193945,-0.00479084,1.24122,0.00400029,0.0155631,1350,1758,5.17904,-20.2673
133,-734,5.16565,20.2396,-0.00439583,0.00183804,0.00215606,0.00251107,-0.00506886,1.26822,0.00445856,0.0142407,1357,1758,5.16561,-20.2396
140,-734,5.15356,20.1854,-0.00447147,0.00230186,0.00228275,0.00299937,-0.00516898,1.27425,0.00477113,0.0191928,1364,1758,5.15357,-20.1854
147,-734,5.14404,20.1304,-0.00433024,0.00257781,0.00231713,0.00328304,-0.00503547,1.27535,0.00483808,0.013666,1371,1758,5.14409,-20.1304
154,-734,5.13806,20.1387,-0.00404915,0.00273982,0.00214336,0.00335987,-0.0046692,1.28919,0.00465608,0.00903382,1378,1758,5.13804,-20.1387
161,-734,5.12,20.0942,-0.00355534,0.00280319,0.00182546,0.00328999,-0.00404214,1.31019,0.00424062,0.0083337,1385,1758,5.12,-20.0943
168,-734,5.07764,20.0286,-0.00306233,0.00246658,0.00139611,0.00279911,-0.00339486,1.33697,0.0035816,0.0134463,1392,1758,5.07768,-20.0285
175,-734,5.10046,19.9766,-0.00276277,0.00186392,0.000823223,0.00200603,-0.00290488,1.39985,0.0028511,0.0162093,1399,1758,5.10046,-19.9766
182,-734,5.13855,19.8844,-0.00223721,0.000852918,0.000358393,0.00089394,-0.00227823,1.45683,0.00188869,0.015242,1406,1758,5.13849,-19.8844
189,-734,5.11157,19.8105,-0.00158899,0.00197735,-0.00155979,0.00256328,-0.00217492,-1.21146,0.00273866,0.0113508,1413,1758,5.1116,-19.8106
196,-734,5.09058,19.7537,-0.00140895,0.0022866,-0.00297645,0.00394218,-0.00306453,-1.06318,0.00405589,0.0124766,1420,1758,5.09057,-19.7537
203,-734,5.11621,19.7059,-0.00149913,0.00306316,-0.00453233,0.00585603,-0.004292,-1.01854,0.00588212,0.0135663,1427,1758,5.11626,-19.7059
210,-734,5.1145,19.6177,-0.00136338,0.00383889,-0.00567175,0.00747752,-0.00500201,-1.00039,0.00725215,0.0142378,1434,1758,5.11453,-19.6177
217,-734,5.0769,19.5168,-0.00109714,0.00449464,-0.00665337,0.0089157,-0.0055182,-0.984306,0.00841001,0.0109366,1441,1758,5.07694,-19.5169
224,-734,5.06555,19.4207,-0.000816974,0.0048981,-0.00750451,0.0100707,-0.00598958,-0.967311,0.00937167,0.0114875,1448,1758,5.06554,-19.4207
231,-734,5.05615,19.3694,-0.000503736,0.00518048,-0.00823398,0.0110491,-0.00637231,-0.95158,0.0101783,0.0127474,1455,1758,5.05621,-19.3694
238,-734,5.03967,19.2693,-4.00174e-05,0.00534831,-0.00880335,0.0118605,-0.00655224,-0.933892,0.0107769,0.0167965,1462,1758,5.0397,-19.2693
245,-734,5.07422,19.0975,0.000526494,0.00562839,-0.00919381,0.0126186,-0.00646371,-0.920726,0.0112066,0.0216784,1469,1758,5.07426,-19.0975
252,-734,5.10278,18.9722,0.000869604,0.00588058,-0.00939585,0.0130993,-0.00634908,-0.915696,0.0114517,0.0274187,1476,1758,5.10284,-18.9721
259,-734,5.24939,18.9816,0.000642021,0.00650359,-0.00923406,0.0132608,-0.0061152,-0.939064,0.0114375,0.0388768,1483,1758,5.2494,-18.9815
266,-734,5.21777,19.0238,0,0,0,0,0,0,0,-1,1490,1758,5.21779,-19.0239
273,-734,5.33191,19.0515,0,0,0,0,0,0,0,-1,1497,1758,5.33193,-19.0515
280,-734,16.6191,7.38013,0,0,0,0,0,0,0,-1,1504,1758,16.6192,-7.38011
287,-734,14.848,9.10046,0,0,0,0,0,0,0,-1,1511,1758,14.848,-9.1005
294,-734,12.0439,5.7876,0,0,0,0,0,0,0,-1,1518,1758,12.044,-5.78759
301,-734,10.5291,5.62451,0,0,0,0,0,0,0,-1,1525,1758,10.5291,-5.62457
308,-734,9.00854,5.43774,0,0,0,0,0,0,0,-1,1532,1758,9.00857,-5.4377
315,-734,7.50061,5.29468,0,0,0,0,0,0,0,-1,1539,1758,7.50062,-5.29463
322,-734,4.17163,11.5508,0,0,0,0,0,0,0,-1,1546,1758,4.17163,-11.5508
329,-734,5.45972,12.4125,0,0,0,0,0,0,0,-1,1553,1758,5.45969,-12.4125
336,-734,5.92188,13.8751,0,0,0,0,0,0,0,-1,1560,1758,5.92183,-13.8751
343,-734,5.54968,5.14221,0,0,0,0,0,0,0,-1,1567,1758,5.54973,-5.14225
350,-734,5.07397,6.73242,0,0,0,0,0,0,0,-1,1574,1758,5.07402,-6.73243
357,-734,5.05542,7.19189,0,0,0,0,0,0,0,-1,1581,1758,5.05541,-7.19184
364,-734,4.43896,10.4904,0,0,0,0,0,0,0,-1,1588,1758,4.43893,-10.4904
371,-734,7.36975,17.4751,0,0,0,0,0,0,0,-1,1595,1758,7.36972,-17.4752
378,-734,0,0,0,0,0,0,0,0,0,-1,1602,1758,0,0
385,-734,0,0,0,0,0,0,0,0,0,-1,1609,1758,0,0
392,-734,0,0,0,0,0,0,0,0,0,-1,1616,1758,0,0
399,-734,0,0,0,0,0,0,0,0,0,-1,1623,1758,0,0
406,-734,0,0,0,0,0,0,0,0,0,-1,1630,1758,0,0
413,-734,0,0,0,0,0,0,0,0,0,-1,1637,1758,0,0
420,-734,0,0,0,0,0,0,0,0,0,-1,1644,1758,0,0
427,-734,0,0,0,0,0,0,0,0,0,-1,1651,1758,0,0
434,-734,0,0,0,0,0,0,0,0,0,-1,1658,1758,0,0
441,-734,0,0,0,0,0,0,0,0,0,-1,1665,1758,0,0
448,-734,0,0,0,0,0,0,0,0,0,-1,1672,1758,0,0
455,-734,0,0,0,0,0,0,0,0,0,-1,1679,1758,0,0
462,-734,0,0,0,0,0,0,0,0,0,-1,1686,1758,0,0
469,-734,0,0,0,0,0,0,0,0,0,-1,1693,1758,0,0
476,-734,0,0,0,0,0,0,0,0,0,-1,1700,1758,0,0
483,-734,0,0,0,0,0,0,0,0,0,-1,1707,1758,0,0
490,-734,0,0,0,0,0,0,0,0,0,-1,1714,1758,0,0
497,-734,0,0,0,0,0,0,0,0,0,-1,1721,1758,0,0
504,-734,0,0,0,0,0,0,0,0,0,-1,1728,1758,0,0
511,-734,0,0,0,0,0,0,0,0,0,-1,1735,1758,0,0
518,-734,0,0,0,0,0,0,0,0,0,-1,1742,1758,0,0
525,-734,0,0,0,0,0,0,0,0,0,-1,1749,1758,0,0
532,-734,0,0,0,0,0,0,0,0,0,-1,1756,1758,0,0
539,-734,0,0,0,0,0,0,0,0,0,-1,1763,1758,0,0
546,-734,0,0,0,0,0,0,0,0,0,-1,1770,1758,0,0
553,-734,0,0,0,0,0,0,0,0,0,-1,1777,1758,0,0
560,-734,0,0,0,0,0,0,0,0,0,-1,1784,1758,0,0
567,-734,0,0,0,0,0,0,0,0,0,-1,1791,1758,0,0
574,-734,0,0,0,0,0,0,0,0,0,-1,1798,1758,0,0
581,-734,0,0,0,0,0,0,0,0,0,-1,1805,1758,0,0
588,-734,0,0,0,0,0,0,0,0,0,-1,1812,1758,0,0
595,-734,0,0,0,0,0,0,0,0,0,-1,1819,1758,0,0
602,-734,0,0,0,0,0,0,0,0,0,-1,1826,1758,0,0
609,-734,0,0,0,0,0,0,0,0,0,-1,1833,1758,0,0
616,-734,0,0,0,0,0,0,0,0,0,-1,1840,1758,0,0
623,-734,0,0,0,0,0,0,0,0,0,-1,1847,1758,0,0
630,-734,0,0,0,0,0,0,0,0,0,-1,1854,1758,0,0
637,-734,0,0,0,0,0,0,0,0,0,-1,1861,1758,0,0
644,-734,0,0,0,0,0,0,0,0,0,-1,1868,1758,0,0
651,-734,0,0,0,0,0,0,0,0,0,-1,1875,1758,0,0
658,-734,0,0,0,0,0,0,0,0,0,-1,1882,1758,0,0
665,-734,0,0,0,0,0,0,0,0,0,-1,1889,1758,0,0
672,-734,0,0,0,0,0,0,0,0,0,-1,1896,1758,0,0
679,-734,0,0,0,0,0,0,0,0,0,-1,1903,1758,0,0
686,-734,0,0,0,0,0,0,0,0,0,-1,1910,1758,0,0
693,-734,0,0,0,0,0,0,0,0,0,-1,1917,1758,0,0
700,-734,0,0,0,0,0,0,0,0,0,-1,1924,1758,0,0
707,-734,0,0,0,0,0,0,0,0,0,-1,1931,1758,0,0
714,-734,0,0,0,0,0,0,0,0,0,-1,1938,1758,0,0
721,-734,0,0,0,0,0,0,0,0,0,-1,1945,1758,0,0
728,-734,0,0,0,0,0,0,0,0,0,-1,1952,1758,0,0
735,-734,0,0,0,0,0,0,0,0,0,-1,1959,1758,0,0
742,-734,0,0,0,0,0,0,0,0,0,-1,1966,1758,0,0
749,-734,0,0,0,0,0,0,0,0,0,-1,1973,1758,0,0
756,-734,0,0,0,0,0,0,0,0,0,-1,1980,1758,0,0
763,-734,0,0,0,0,0,0,0,0,0,-1,1987,1758,0,0
770,-734,0,0,0,0,0,0,0,0,0,-1,1994,1758,0,0
777,-734,0,0,0,0,0,0,0,0,0,-1,2001,1758,0,0
784,-734,0,0,0,0,0,0,0,0,0,-1,2008,1758,0,0
791,-734,0,0,0,0,0,0,0,0,0,-1,2015,1758,0,0
798,-734,0,0,0,0,0,0,0,0,0,-1,2022,1758,0,0
805,-734,0,0,0,0,0,0,0,0,0,-1,2029,1758,0,0
812,-734,0,0,0,0,0,0,0,0,0,-1,2036,1758,0,0
-700,-741,0,0,0,0,0,0,0,0,0,-1,524,1765,0,0
-693,-741,0,0,0,0,0,0,0,0,0,-1,531,1765,0,0
-686,-741,0,0,0,0,0,0,0,0,0,-1,538,1765,0,0
-679,-741,0,0,0,0,0,0,0,0,0,-1,545,1765,0,0
-672,-741,0,0,0,0,0,0,0,0,0,-1,552,1765,0,0
-665,-741,0,0,0,0,0,0,0,0,0,-1,559,1765,0,0
-658,-741,0,0,0,0,0,0,0,0,0,-1,566,1765,0,0
-651,-741,0,0,0,0,0,0,0,0,0,-1,573,1765,0,0
-644,-741,0,0,0,0,0,0,0,0,0,-1,580,1765,0,0
-637,-741,0,0,0,0,0,0,0,0,0,-1,587,1765,0,0
-630,-741,0,0,0,0,0,0,0,0,0,-1,594,1765,0,0
-623,-741,0,0,0,0,0,0,0,0,0,-1,601,1765,0,0
-616,-741,0,0,0,0,0,0,0,0,0,-1,608,1765,0,0
-609,-741,0,0,0,0,0,0,0,0,0,-1,615,1765,0,0
-602,-741,0,0,0,0,0,0,0,0,0,-1,622,1765,0,0
-595,-741,0,0,0,0,0,0,0,0,0,-1,629,1765,0,0
-588,-741,0,0,0,0,0,0,0,0,0,-1,636,1765,0,0
-581,-741,0,0,0,0,0,0,0,0,0,-1,643,1765,0,0
-574,-741,0,0,0,0,0,0,0,0,0,-1,650,1765,0,0
-567,-741,0,0,0,0,0,0,0,0,0,-1,657,1765,0,0
-560,-741,0,0,0,0,0,0,0,0,0,-1,664,1765,0,0
-553,-741,0,0,0,0,0,0,0,0,0,-1,671,1765,0,0
-546,-741,0,0,0,0,0,0,0,0,0,-1,678,1765,0,0
-539,-741,0,0,0,0,0,0,0,0,0,-1,685,1765,0,0
-532,-741,0,0,0,0,0,0,0,0,0,-1,692,1765,0,0
-525,-741,0,0,0,0,0,0,0,0,0,-1,699,1765,0,0
-518,-741,0,0,0,0,0,0,0,0,0,-1,706,1765,0,0
-511,-741,0,0,0,0,0,0,0,0,0,-1,713,1765,0,0
-504,-741,0,0,0,0,0,0,0,0,0,-1,720,1765,0,0
-497,-741,0,0,0,0,0,0,0,0,0,-1,727,1765,0,0
-490,-741,0,0,0,0,0,0,0,0,0,-1,734,1765,0,0
-483,-741,0,0,0,0,0,0,0,0,0,-1,741,1765,0,0
-476,-741,0,0,0,0,0,0,0,0,0,-1,748,1765,0,0
-469,-741,0,0,0,0,0,0,0,0,0,-1,755,1765,0,0
-462,-741,0,0,0,0,0,0,0,0,0,-1,762,1765,0,0
-455,-741,0,0,0,0,0,0,0,0,0,-1,769,1765,0,0
-448,-741,0,0,0,0,0,0,0,0,0,-1,776,1765,0,0
-441,-741,0,0,0,0,0,0,0,0,0,-1,783,1765,0,0
-434,-741,0,0,0,0,0,0,0,0,0,-1,790,1765,0,0
-427,-741,0,0,0,0,0,0,0,0,0,-1,797,1765,0,0
-420,-741,0,0,0,0,0,0,0,0,0,-1,804,1765,0,0
-413,-741,0,0,0,0,0,0,0,0,0,-1,811,1765,0,0
-406,-741,0,0,0,0,0,0,0,0,0,-1,818,1765,0,0
-399,-741,0,0,0,0,0,0,0,0,0,-1,825,1765,0,0
-392,-741,0,0,0,0,0,0,0,0,0,-1,832,1765,0,0
-385,-741,0,0,0,0,0,0,0,0,0,-1,839,1765,0,0
-378,-741,0,0,0,0,0,0,0,0,0,-1,846,1765,0,0
-371,-741,0,0,0,0,0,0,0,0,0,-1,853,1765,0,0
-364,-741,0,0,0,0,0,0,0,0,0,-1,860,1765,0,0
-357,-741,0,0,0,0,0,0,0,0,0,-1,867,1765,0,0
-350,-741,0,0,0,0,0,0,0,0,0,-1,874,1765,0,0
-343,-741,0,0,0,0,0,0,0,0,0,-1,881,1765,0,0
-336,-741,0,0,0,0,0,0,0,0,0,-1,888,1765,0,0
-329,-741,0,0,0,0,0,0,0,0,0,-1,895,1765,0,0
-322,-741,0,0,0,0,0,0,0,0,0,-1,902,1765,0,0
-315,-741,0,0,0,0,0,0,0,0,0,-1,909,1765,0,0
-308,-741,0,0,0,0,0,0,0,0,0,-1,916,1765,0,0
-301,-741,0,0,0,0,0,0,0,0,0,-1,923,1765,0,0
-294,-741,0,0,0,0,0,0,0,0,0,-1,930,1765,0,0
-287,-741,0,0,0,0,0,0,0,0,0,-1,937,1765,0,0
-280,-741,0,0,0,0,0,0,0,0,0,-1,944,1765,0,0
-273,-741,0,0,0,0,0,0,0,0,0,-1,951,1765,0,0
-266,-741,0,0,0,0,0,0,0,0,0,-1,958,1765,0,0
-259,-741,0,0,0,0,0,0,0,0,0,-1,965,1765,0,0
-252,-741,0,0,0,0,0,0,0,0,0,-1,972,1765,0,0
-245,-741,0,0,0,0,0,0,0,0,0,-1,979,1765,0,0
-238,-741,2.74841,18.9619,0,0,0,0,0,0,0,-1,986,1765,2.7484,-18.9619
-231,-741,2.99243,18.6426,0,0,0,0,0,0,0,-1,993,1765,2.99244,-18.6425
-224,-741,3.17255,18.2084,0,0,0,0,0,0,0,-1,1000,1765,3.17254,-18.2084
-217,-741,3.4964,17.6794,0,0,0,0,0,0,0,-1,1007,1765,3.49639,-17.6795
-210,-741,3.03271,19.4991,0,0,0,0,0,0,0,-1,1014,1765,3.03273,-19.4992
-203,-741,3.25928,20.7076,0,0,0,0,0,0,0,-1,1021,1765,3.25927,-20.7077
-196,-741,3.50745,19.6169,0,0,0,0,0,0,0,-1,1028,1765,3.50741,-19.617
-189,-741,3.89563,18.7715,0,0,0,0,0,0,0,-1,1035,1765,3.89562,-18.7715
-182,-741,4.28748,17.9268,0.0576918,-0.0413559,-0.0296569,0.0658927,-0.0495567,-0.269784,0.0668768,0.0469246,1042,1765,4.28742,-17.9267
-175,-741,4.89868,17.0417,0.0522334,-0.0104378,-0.0288147,0.0634678,-0.0216722,-0.371756,0.0510918,0.0481561,1049,1765,4.89864,-17.0417
-168,-741,5.4801,16.3933,0,0,0,0,0,0,0,-1,1056,1765,5.4801,-16.3933
-161,-741,3.73047,14.4974,0,0,0,0,0,0,0,-1,1063,1765,3.73043,-14.4974
-154,-741,2.46143,9.75415,0,0,0,0,0,0,0,-1,1070,1765,2.46145,-9.75416
-147,-741,5.72302,18.1636,0,0,0,0,0,0,0,-1,1077,1765,5.72303,-18.1636
-140,-741,5.29822,17.8456,0.0303456,0.0780613,-0.019288,0.0848828,0.0235241,-1.23086,0.0506038,0.04625,1084,1765,5.29821,-17.8456
-133,-741,5.78662,17.1127,0.0265317,0.0793535,-0.0166365,0.0841565,0.0217287,-1.28974,0.0504462,0.0430787,1091,1765,5.78664,-17.1127
-126,-741,5.91565,16.5994,0.0221245,0.0801799,-0.0134879,0.0831605,0.0191439,-1.35331,0.0502887,0.043809,1098,1765,5.9157,-16.5994
-119,-741,6.04504,16.0083,0,0,0,0,0,0,0,-1,1105,1765,6.04507,-16.0083
-112,-741,5.44958,18.761,0.0163182,0.0658689,-0.00949725,0.0676268,0.0145602,-1.38777,0.0411,0.0460294,1112,1765,5.44956,-18.761
-105,-741,5.43726,18.8571,0.0140098,0.0564129,-0.00801851,0.0578785,0.0125442,-1.39001,0.0351583,0.0368476,1119,1765,5.43729,-18.8571
-98,-741,5.52612,18.9119,0.0115952,0.0469599,-0.00656246,0.0481384,0.0104167,-1.39311,0.0292451,0.0475385,1126,1765,5.52608,-18.9118
-91,-741,5.69946,18.7437,0,0,0,0,0,0,0,-1,1133,1765,5.69944,-18.7436
-84,-741,5.36926,18.921,0,0,0,0,0,0,0,-1,1140,1765,5.36929,-18.9211
-77,-741,5.38293,19.0148,0,0,0,0,0,0,0,-1,1147,1765,5.38298,-19.0148
-70,-741,5.33191,19.193,0,0,0,0,0,0,0,-1,1154,1765,5.33188,-19.193
-63,-741,5.29358,19.3502,0,0,0,0,0,0,0,-1,1161,1765,5.29358,-19.3503
-56,-741,5.34241,19.4803,0,0,0,0,0,0,0,-1,1168,1765,5.34235,-19.4803
-49,-741,5.3114,19.6516,0,0,0,0,0,0,0,-1,1175,1765,5.31142,-19.6516
-42,-741,5.2804,19.7192,0,0,0,0,0,0,0,-1,1182,1765,5.28041,-19.7193
-35,-741,5.30969,19.7806,-0.00360239,-0.00256217,-0.00123165,-0.00174532,-0.00441924,-0.985184,0.00257016,0.0219793,1189,1765,5.30972,-19.7807
-28,-741,5.32739,19.8639,-0.00383562,-0.00284815,-0.000410282,-0.00269993,-0.00398384,-1.22412,0.002348,0.0144027,1196,1765,5.32739,-19.864
-21,-741,5.33179,19.9402,-0.00401391,-0.0030387,0.00047286,-0.00284707,-0.00420554,1.18577,0.00247825,0.0174983,1203,1765,5.33184,-19.9402
-14,-741,5.28064,20.0338,-0.00399102,-0.00352958,0.0016209,-0.00212306,-0.00539754,0.856094,0.00313982,0.0172654,1210,1765,5.28068,-20.0338
-7,-741,5.30017,20.0732,-0.00397944,-0.00358893,0.00278768,-0.000989675,-0.0065787,0.820361,0.00409596,0.0153453,1217,1765,5.30017,-20.0733
0,-741,5.26233,20.0806,-0.00410773,-0.00351746,0.00413889,0.000336804,-0.007962,0.820992,0.00542375,0.0150329,1224,1765,5.26227,-20.0806
7,-741,5.22473,20.1257,-0.00403266,-0.00337065,0.00558606,0.00189421,-0.00929751,0.814991,0.00691675,0.015332,1231,1765,5.22469,-20.1257
14,-741,5.22986,20.1946,-0.00372458,-0.00344482,0.00687216,0.00328889,-0.0104583,0.795574,0.00828891,0.0142933,1238,1765,5.22987,-20.1946
21,-741,5.21606,20.2307,-0.00325773,-0.00353576,0.00791859,0.00452307,-0.0113166,0.776621,0.00942121,0.0127148,1245,1765,5.2161,-20.2308
28,-741,5.19641,20.2898,-0.00232548,-0.00371424,0.00876251,0.00577012,-0.0118098,0.745859,0.0103475,0.0135284,1252,1765,5.19637,-20.2898
35,-741,5.21545,20.3055,-0.00121594,-0.00384374,0.00909791,0.00666246,-0.0117221,0.713685,0.0107475,0.0139869,1259,1765,5.21545,-20.3055
42,-741,5.21399,20.3215,-0.000114462,-0.00385251,0.00912761,0.00733351,-0.0113005,0.684411,0.0108393,0.014064,1266,1765,5.21399,-20.3215
49,-741,5.19128,20.3375,0.000918501,-0.00403059,0.00895283,0.00773247,-0.0108446,0.650565,0.0107755,0.00966411,1273,1765,5.19123,-20.3375
56,-741,5.17615,20.3538,0.00155599,-0.00437648,0.00836184,0.00746213,-0.0102826,0.614955,0.010288,0.00964077,1280,1765,5.1762,-20.3537
63,-741,5.18921,20.3713,0.00213412,-0.00434294,0.00752209,0.00708522,-0.00929403,0.582123,0.00948518,0.0137377,1287,1765,5.18916,-20.3714
70,-741,5.17188,20.3956,0.00242445,-0.00414866,0.00642336,0.00635322,-0.00807743,0.548933,0.00835134,0.015837,1294,1765,5.17191,-20.3957
77,-741,5.15247,20.4122,0.00216522,-0.00342353,0.00526012,0.00532713,-0.00658544,0.541236,0.00689051,0.0133532,1301,1765,5.15246,-20.4123
84,-741,5.13904,20.413,0.00143711,-0.0026682,0.00422868,0.004085,-0.0053161,0.559444,0.00544322,0.0155033,1308,1765,5.13899,-20.413
91,-741,5.151,20.4197,0.000253997,-0.00147354,0.00335948,0.00285897,-0.00407852,0.659567,0.00402594,0.0137384,1315,1765,5.15104,-20.4197
98,-741,5.17371,20.4008,-0.00108601,-0.000539286,0.00285809,0.00205849,-0.00368378,0.833075,0.00335927,0.0102808,1322,1765,5.17373,-20.4008
105,-741,5.17139,20.3423,-0.00238199,0.000521482,0.00240802,0.00188153,-0.00374203,1.05666,0.00330546,0.00987238,1329,1765,5.1714,-20.3423
112,-741,5.17236,20.3202,-0.00388882,0.00171505,0.00211595,0.00242425,-0.00459802,1.24739,0.00411855,0.010101,1336,1765,5.17235,-20.3202
119,-741,5.15149,20.2927,-0.00540088,0.00319834,0.00213259,0.00369817,-0.00590071,1.34058,0.00559033,0.0124494,1343,1765,5.15153,-20.2927
126,-741,5.14697,20.2408,-0.0066435,0.00458193,0.00234519,0.00505218,-0.00711375,1.3729,0.00705754,0.0175093,1350,1765,5.14695,-20.2408
133,-741,5.13599,20.2253,-0.00781699,0.00593433,0.00246353,0.00636234,-0.00824501,1.39877,0.00845687,0.0143296,1357,1765,5.13601,-20.2254
140,-741,5.11194,20.1943,-0.00853182,0.00699544,0.00269788,0.00745084,-0.00898723,1.40357,0.00950433,0.011743,1364,1765,5.11196,-20.1943
147,-741,5.10974,20.1593,-0.00877791,0.00770624,0.00293698,0.00821389,-0.00928556,1.39964,0.0101096,0.0106755,1371,1765,5.10975,-20.1593
154,-741,5.10608,20.137,-0.00867654,0.00811709,0.00285382,0.0085888,-0.00914825,1.40699,0.0102422,0.00812135,1378,1765,5.10603,-20.137
161,-741,5.08081,20.0946,-0.00789107,0.00816866,0.00261921,0.00858504,-0.00830745,1.41315,0.00975332,0.00978991,1385,1765,5.08077,-20.0946
168,-741,5.05396,20.0448,-0.00694309,0.00746202,0.00216229,0.00777959,-0.00726066,1.42497,0.00868521,0.0231366,1392,1765,5.054,-20.0448
175,-741,5.02661,20.02,0,0,0,0,0,0,0,-1,1399,1765,5.02665,-20.02
182,-741,5.078,19.8553,0,0,0,0,0,0,0,-1,1406,1765,5.07799,-19.8554
189,-741,5.06091,19.8087,0,0,0,0,0,0,0,-1,1413,1765,5.06086,-19.8087
196,-741,5.02441,19.7844,0,0,0,0,0,0,0,-1,1420,1765,5.02439,-19.7844
203,-741,5.04358,19.7205,0,0,0,0,0,0,0,-1,1427,1765,5.04354,-19.7205
210,-741,5.02136,19.5897,0,0,0,0,0,0,0,-1,1434,1765,5.02135,-19.5897
217,-741,5.05164,19.4501,-0.00173251,0.00663906,-0.00996604,0.0132627,-0.00835611,-0.984214,0.0125883,0.0325868,1441,1765,5.05164,-19.45
224,-741,5.09692,19.3789,-0.0013431,0.00735446,-0.0111629,0.0149857,-0.00897435,-0.971142,0.0139777,0.0258742,1448,1765,5.09692,-19.379
231,-741,5.01697,19.4192,-0.000861417,0.00785572,-0.0121885,0.0164415,-0.0094472,-0.957112,0.0151276,0.0339961,1455,1765,5.01696,-19.4192
238,-741,4.93738,19.3379,-0.000183494,0.0081796,-0.0130305,0.0176831,-0.00968697,-0.94066,0.0160253,0.0377224,1462,1765,4.93732,-19.338
245,-741,4.96729,19.1715,0.000629924,0.0085969,-0.0136674,0.0188495,-0.00962267,-0.9272,0.0167237,0.0447593,1469,1765,4.96729,-19.1715
252,-741,4.97437,19.0336,0,0,0,0,0,0,0,-1,1476,1765,4.97442,-19.0336
259,-741,5.34668,19.0807,0,0,0,0,0,0,0,-1,1483,1765,5.34671,-19.0807
266,-741,4.40173,15.2345,0,0,0,0,0,0,0,-1,1490,1765,4.40175,-15.2345
273,-741,17.0328,7.54468,0,0,0,0,0,0,0,-1,1497,1765,17.0328,-7.54474
280,-741,16.2363,9.84546,0,0,0,0,0,0,0,-1,1504,1765,16.2363,-9.84547
287,-741,14.5045,8.71423,0,0,0,0,0,0,0,-1,1511,1765,14.5045,-8.71429
294,-741,12.4823,6.75378,0,0,0,0,0,0,0,-1,1518,1765,12.4823,-6.75384
301,-741,10.7992,6.7207,0,0,0,0,0,0,0,-1,1525,1765,10.7992,-6.72074
308,-741,9.12964,6.65588,0,0,0,0,0,0,0,-1,1532,1765,9.12969,-6.65594
315,-741,7.41541,6.69397,0,0,0,0,0,0,0,-1,1539,1765,7.41541,-6.69393
322,-741,3.08521,12.3561,0,0,0,0,0,0,0,-1,1546,1765,3.08526,-12.3561
329,-741,4.46472,13.5316,0,0,0,0,0,0,0,-1,1553,1765,4.46467,-13.5316
336,-741,4.74475,14.6453,0,0,0,0,0,0,0,-1,1560,1765,4.7447,-14.6452
343,-741,5.42297,5.93701,0,0,0,0,0,0,0,-1,1567,1765,5.42296,-5.937
350,-741,4.90369,5.44666,0,0,0,0,0,0,0,-1,1574,1765,4.90368,-5.44664
357,-741,4.02063,5.16626,0,0,0,0,0,0,0,-1,1581,1765,4.02058,-5.1662
364,-741,0,0,0,0,0,0,0,0,0,-1,1588,1765,0,0
371,-741,0,0,0,0,0,0,0,0,0,-1,1595,1765,0,0
378,-741,0,0,0,0,0,0,0,0,0,-1,1602,1765,0,0
385,-741,0,0,0,0,0,0,0,0,0,-1,1609,1765,0,0
392,-741,0,0,0,0,0,0,0,0,0,-1,1616,1765,0,0
399,-741,0,0,0,0,0,0,0,0,0,-1,1623,1765,0,0
406,-741,0,0,0,0,0,0,0,0,0,-1,1630,1765,0,0
413,-741,0,0,0,0,0,0,0,0,0,-1,1637,1765,0,0
420,-741,0,0,0,0,0,0,0,0,0,-1,1644,1765,0,0
427,-741,0,0,0,0,0,0,0,0,0,-1,1651,1765,0,0
434,-741,0,0,0,0,0,0,0,0,0,-1,1658,1765,0,0
441,-741,0,0,0,0,0,0,0,0,0,-1,1665,1765,0,0
448,-741,0,0,0,0,0,0,0,0,0,-1,1672,1765,0,0
455,-741,0,0,0,0,0,0,0,0,0,-1,1679,1765,0,0
462,-741,0,0,0,0,0,0,0,0,0,-1,1686,1765,0,0
469,-741,0,0,0,0,0,0,0,0,0,-1,1693,1765,0,0
476,-741,0,0,0,0,0,0,0,0,0,-1,1700,1765,0,0
483,-741,0,0,0,0,0,0,0,0,0,-1,1707,1765,0,0
490,-741,0,0,0,0,0,0,0,0,0,-1,1714,1765,0,0
497,-741,0,0,0,0,0,0,0,0,0,-1,1721,1765,0,0
504,-741,0,0,0,0,0,0,0,0,0,-1,1728,1765,0,0
511,-741,0,0,0,0,0,0,0,0,0,-1,1735,1765,0,0
518,-741,0,0,0,0,0,0,0,0,0,-1,1742,1765,0,0
525,-741,0,0,0,0,0,0,0,0,0,-1,1749,1765,0,0
532,-741,0,0,0,0,0,0,0,0,0,-1,1756,1765,0,0
539,-741,0,0,0,0,0,0,0,0,0,-1,1763,1765,0,0
546,-741,0,0,0,0,0,0,0,0,0,-1,1770,1765,0,0
553,-741,0,0,0,0,0,0,0,0,0,-1,1777,1765,0,0
560,-741,0,0,0,0,0,0,0,0,0,-1,1784,1765,0,0
567,-741,0,0,0,0,0,0,0,0,0,-1,1791,1765,0,0
574,-741,0,0,0,0,0,0,0,0,0,-1,1798,1765,0,0
581,-741,0,0,0,0,0,0,0,0,0,-1,1805,1765,0,0
588,-741,0,0,0,0,0,0,0,0,0,-1,1812,1765,0,0
595,-741,0,0,0,0,0,0,0,0,0,-1,1819,1765,0,0
602,-741,0,0,0,0,0,0,0,0,0,-1,1826,1765,0,0
609,-741,0,0,0,0,0,0,0,0,0,-1,1833,1765,0,0
616,-741,0,0,0,0,0,0,0,0,0,-1,1840,1765,0,0
623,-741,0,0,0,0,0,0,0,0,0,-1,1847,1765,0,0
630,-741,0,0,0,0,0,0,0,0,0,-1,1854,1765,0,0
637,-741,0,0,0,0,0,0,0,0,0,-1,1861,1765,0,0
644,-741,0,0,0,0,0,0,0,0,0,-1,1868,1765,0,0
651,-741,0,0,0,0,0,0,0,0,0,-1,1875,1765,0,0
658,-741,0,0,0,0,0,0,0,0,0,-1,1882,1765,0,0
665,-741,0,0,0,0,0,0,0,0,0,-1,1889,1765,0,0
672,-741,0,0,0,0,0,0,0,0,0,-1,1896,1765,0,0
679,-741,0,0,0,0,0,0,0,0,0,-1,1903,1765,0,0
686,-741,0,0,0,0,0,0,0,0,0,-1,1910,1765,0,0
693,-741,0,0,0,0,0,0,0,0,0,-1,1917,1765,0,0
700,-741,0,0,0,0,0,0,0,0,0,-1,1924,1765,0,0
707,-741,0,0,0,0,0,0,0,0,0,-1,1931,1765,0,0
714,-741,0,0,0,0,0,0,0,0,0,-1,1938,1765,0,0
721,-741,0,0,0,0,0,0,0,0,0,-1,1945,1765,0,0
728,-741,0,0,0,0,0,0,0,0,0,-1,1952,1765,0,0
735,-741,0,0,0,0,0,0,0,0,0,-1,1959,1765,0,0
742,-741,0,0,0,0,0,0,0,0,0,-1,1966,1765,0,0
749,-741,0,0,0,0,0,0,0,0,0,-1,1973,1765,0,0
756,-741,0,0,0,0,0,0,0,0,0,-1,1980,1765,0,0
763,-741,0,0,0,0,0,0,0,0,0,-1,1987,1765,0,0
770,-741,0,0,0,0,0,0,0,0,0,-1,1994,1765,0,0
777,-741,0,0,0,0,0,0,0,0,0,-1,2001,1765,0,0
784,-741,0,0,0,0,0,0,0,0,0,-1,2008,1765,0,0
791,-741,0,0,0,0,0,0,0,0,0,-1,2015,1765,0,0
798,-741,0,0,0,0,0,0,0,0,0,-1,2022,1765,0,0
805,-741,0,0,0,0,0,0,0,0,0,-1,2029,1765,0,0
812,-741,0,0,0,0,0,0,0,0,0,-1,2036,1765,0,0
-700,-748,0,0,0,0,0,0,0,0,0,-1,524,1772,0,0
-693,-748,0,0,0,0,0,0,0,0,0,-1,531,1772,0,0
-686,-748,0,0,0,0,0,0,0,0,0,-1,538,1772,0,0
-679,-748,0,0,0,0,0,0,0,0,0,-1,545,1772,0,0
-672,-748,0,0,0,0,0,0,0,0,0,-1,552,1772,0,0
-665,-748,0,0,0,0,0,0,0,0,0,-1,559,1772,0,0
-658,-748,0,0,0,0,0,0,0,0,0,-1,566,1772,0,0
-651,-748,0,0,0,0,0,0,0,0,0,-1,573,1772,0,0
-644,-748,0,0,0,0,0,0,0,0,0,-1,580,1772,0,0
-637,-748,0,0,0,0,0,0,0,0,0,-1,587,1772,0,0
-630,-748,0,0,0,0,0,0,0,0,0,-1,594,1772,0,0
-623,-748,0,0,0,0,0,0,0,0,0,-1,601,1772,0,0
-616,-748,0,0,0,0,0,0,0,0,0,-1,608,1772,0,0
-609,-748,0,0,0,0,0,0,0,0,0,-1,615,1772,0,0
-602,-748,0,0,0,0,0,0,0,0,0,-1,622,1772,0,0
-595,-748,0,0,0,0,0,0,0,0,0,-1,629,1772,0,0
-588,-748,0,0,0,0,0,0,0,0,0,-1,636,1772,0,0
-581,-748,0,0,0,0,0,0,0,0,0,-1,643,1772,0,0
-574,-748,0,0,0,0,0,0,0,0,0,-1,650,1772,0,0
-567,-748,0,0,0,0,0,0,0,0,0,-1,657,1772,0,0
-560,-748,0,0,0,0,0,0,0,0,0,-1,664,1772,0,0
-553,-748,0,0,0,0,0,0,0,0,0,-1,671,1772,0,0
-546,-748,0,0,0,0,0,0,0,0,0,-1,678,1772,0,0
-539,-748,0,0,0,0,0,0,0,0,0,-1,685,1772,0,0
-532,-748,0,0,0,0,0,0,0,0,0,-1,692,1772,0,0
-525,-748,0,0,0,0,0,0,0,0,0,-1,699,1772,0,0
-518,-748,0,0,0,0,0,0,0,0,0,-1,706,1772,0,0
-511,-748,0,0,0,0,0,0,0,0,0,-1,713,1772,0,0
-504,-748,0,0,0,0,0,0,0,0,0,-1,720,1772,0,0
-497,-748,0,0,0,0,0,0,0,0,0,-1,727,1772,0,0
-490,-748,0,0,0,0,0,0,0,0,0,-1,734,1772,0,0
-483,-748,0,0,0,0,0,0,0,0,0,-1,741,1772,0,0
-476,-748,0,0,0,0,0,0,0,0,0,-1,748,1772,0,0
-469,-748,0,0,0,0,0,0,0,0,0,-1,755,1772,0,0
-462,-748,0,0,0,0,0,0,0,0,0,-1,762,1772,0,0
-455,-748,0,0,0,0,0,0,0,0,0,-1,769,1772,0,0
-448,-748,0,0,0,0,0,0,0,0,0,-1,776,1772,0,0
-441,-748,0,0,0,0,0,0,0,0,0,-1,783,1772,0,0
-434,-748,0,0,0,0,0,0,0,0,0,-1,790,1772,0,0
-427,-748,0,0,0,0,0,0,0,0,0,-1,797,1772,0,0
-420,-748,0,0,0,0,0,0,0,0,0,-1,804,1772,0,0
-413,-748,0,0,0,0,0,0,0,0,0,-1,811,1772,0,0
-406,-748,0,0,0,0,0,0,0,0,0,-1,818,1772,0,0
-399,-748,0,0,0,0,0,0,0,0,0,-1,825,1772,0,0
-392,-748,0,0,0,0,0,0,0,0,0,-1,832,1772,0,0
-385,-748,0,0,0,0,0,0,0,0,0,-1,839,1772,0,0
-378,-748,0,0,0,0,0,0,0,0,0,-1,846,1772,0,0
-371,-748,0,0,0,0,0,0,0,0,0,-1,853,1772,0,0
-364,-748,0,0,0,0,0,0,0,0,0,-1,860,1772,0,0
-357,-748,0,0,0,0,0,0,0,0,0,-1,867,1772,0,0
-350,-748,0,0,0,0,0,0,0,0,0,-1,874,1772,0,0
-343,-748,0,0,0,0,0,0,0,0,0,-1,881,1772,0,0
-336,-748,0,0,0,0,0,0,0,0,0,-1,888,1772,0,0
-329,-748,0,0,0,0,0,0,0,0,0,-1,895,1772,0,0
-322,-748,0,0,0,0,0,0,0,0,0,-1,902,1772,0,0
-315,-748,0,0,0,0,0,0,0,0,0,-1,909,1772,0,0
-308,-748,0,0,0,0,0,0,0,0,0,-1,916,1772,0,0
-301,-748,0,0,0,0,0,0,0,0,0,-1,923,1772,0,0
-294,-748,0,0,0,0,0,0,0,0,0,-1,930,1772,0,0
-287,-748,0,0,0,0,0,0,0,0,0,-1,937,1772,0,0
-280,-748,0,0,0,0,0,0,0,0,0,-1,944,1772,0,0
-273,-748,0,0,0,0,0,0,0,0,0,-1,951,1772,0,0
-266,-748,0,0,0,0,0,0,0,0,0,-1,958,1772,0,0
-259,-748,0,0,0,0,0,0,0,0,0,-1,965,1772,0,0
-252,-748,0,0,0,0,0,0,0,0,0,-1,972,1772,0,0
-245,-748,0,0,0,0,0,0,0,0,0,-1,979,1772,0,0
-238,-748,0,0,0,0,0,0,0,0,0,-1,986,1772,0,0
-231,-748,0,0,0,0,0,0,0,0,0,-1,993,1772,0,0
-224,-748,0,0,0,0,0,0,0,0,0,-1,1000,1772,0,0
-217,-748,6.91595,18.5476,0,0,0,0,0,0,0,-1,1007,1772,6.91598,-18.5475
-210,-748,6.56482,15.8542,0,0,0,0,0,0,0,-1,1014,1772,6.56483,-15.8542
-203,-748,7.08105,16.2065,0,0,0,0,0,0,0,-1,1021,1772,7.0811,-16.2065
-196,-748,3.59167,20.0754,0,0,0,0,0,0,0,-1,1028,1772,3.59164,-20.0754
-189,-748,3.88757,19.2534,0,0,0,0,0,0,0,-1,1035,1772,3.88761,-19.2534
-182,-748,4.16626,18.2874,0.0760283,-0.0393503,-0.044419,0.0911477,-0.0544697,-0.32808,0.0849565,0.0497048,1042,1772,4.16629,-18.2873
-175,-748,4.62305,16.7603,0.0703076,-0.00253208,-0.0418273,0.0893488,-0.0215733,-0.427198,0.067909,0.0440409,1049,1772,4.62301,-16.7603
-168,-748,4.96484,14.9984,0,0,0,0,0,0,0,-1,1056,1772,4.96479,-14.9984
-161,-748,3.50562,13.2729,0,0,0,0,0,0,0,-1,1063,1772,3.5056,-13.2729
-154,-748,-3.38562,10.6989,0,0,0,0,0,0,0,-1,1070,1772,-3.38564,-10.6989
-147,-748,-6.38733,11.0702,0,0,0,0,0,0,0,-1,1077,1772,-6.38731,-11.0702
-140,-748,5.11633,17.3387,0,0,0,0,0,0,0,-1,1084,1772,5.11634,-17.3387
-133,-748,5.98328,15.7449,0.0380317,0.110285,-0.0224865,0.116711,0.0316051,-1.29242,0.0697032,0.039701,1091,1772,5.98331,-15.7449
-126,-748,6.28796,15.0016,0.0323963,0.112227,-0.0180559,0.116121,0.0285024,-1.35839,0.0698783,0.0412093,1098,1772,6.28796,-15.0016
-119,-748,6.51245,14.3882,0,0,0,0,0,0,0,-1,1105,1772,6.51249,-14.3881
-112,-748,5.57959,18.8058,0,0,0,0,0,0,0,-1,1112,1772,5.57962,-18.8058
-105,-748,5.58557,18.8462,0,0,0,0,0,0,0,-1,1119,1772,5.58553,-18.8461
-98,-748,5.72864,18.7655,0,0,0,0,0,0,0,-1,1126,1772,5.72868,-18.7655
-91,-748,4.85352,15.3033,0,0,0,0,0,0,0,-1,1133,1772,4.85351,-15.3033
-84,-748,-0.192017,7.26196,0,0,0,0,0,0,0,-1,1140,1772,-0.192047,-7.26201
-77,-748,4.42615,13.5537,0,0,0,0,0,0,0,-1,1147,1772,4.4261,-13.5538
-70,-748,4.46191,13.7446,0,0,0,0,0,0,0,-1,1154,1772,4.4619,-13.7446
-63,-748,4.49768,13.9355,0,0,0,0,0,0,0,-1,1161,1772,4.49769,-13.9355
-56,-748,3.05762,7.87817,0,0,0,0,0,0,0,-1,1168,1772,3.05768,-7.87822
-49,-748,3.04102,7.82471,0,0,0,0,0,0,0,-1,1175,1772,3.04096,-7.82468
-42,-748,0.793457,14.9474,0,0,0,0,0,0,0,-1,1182,1772,0.793413,-14.9474
-35,-748,5.42285,19.7234,0,0,0,0,0,0,0,-1,1189,1772,5.42286,-19.7233
-28,-748,5.40222,19.8944,-0.00545258,-0.0071462,-0.00285782,-0.00331875,-0.00928004,-0.641363,0.00542976,0.048618,1196,1772,5.4022,-19.8944
-21,-748,5.4032,19.9752,-0.00557433,-0.00683177,-0.001086,-0.00494819,-0.00745792,-0.523007,0.00438188,0.0230125,1203,1772,5.40315,-19.9753
-14,-748,5.32886,20.0004,-0.00552742,-0.00697379,0.000917826,-0.0050821,-0.00741911,0.451729,0.00438007,0.0172918,1210,1772,5.32889,-20.0004
-7,-748,5.33069,20.026,-0.00538217,-0.00668974,0.00307664,-0.00289062,-0.00918129,0.680706,0.00542062,0.0166662,1217,1772,5.33074,-20.0261
0,-748,5.31665,20.0627,-0.00538815,-0.00609192,0.00558941,-0.000139552,-0.0113405,0.753962,0.00751426,0.0162026,1224,1772,5.31665,-20.0627
7,-748,5.28943,20.1,-0.00504866,-0.00569976,0.00804568,0.00267805,-0.0134265,0.765178,0.00996435,0.0144387,1231,1772,5.28941,-20.0999
14,-748,5.27197,20.1797,-0.00428435,-0.00563931,0.0102588,0.00531935,-0.015243,0.752427,0.0123239,0.0148905,1238,1772,5.27202,-20.1797
21,-748,5.26343,20.228,-0.00323137,-0.00569245,0.0120846,0.00768522,-0.016609,0.73466,0.0143382,0.0113781,1245,1772,5.26347,-20.2281
28,-748,5.24792,20.2744,-0.001481,-0.00592392,0.0135176,0.00999647,-0.0174014,0.703957,0.0160096,0.0116303,1252,1772,5.24796,-20.2745
35,-748,5.24561,20.2957,0.000535036,-0.00615728,0.0141995,0.0117773,-0.0173996,0.669683,0.0169492,0.012168,1259,1772,5.2456,-20.2956
42,-748,5.25183,20.3143,0.0025749,-0.00619231,0.0144989,0.0133384,-0.0169558,0.638597,0.0175319,0.0134536,1266,1772,5.25189,-20.3143
49,-748,5.23999,20.3354,0.00456333,-0.00651031,0.0144419,0.0144934,-0.0164404,0.602347,0.0178715,0.0104451,1273,1772,5.23998,-20.3354
56,-748,5.20349,20.3566,0.00583113,-0.00700855,0.0136067,0.0144564,-0.0156338,0.564975,0.017377,0.0100693,1280,1772,5.2035,-20.3566
63,-748,5.18689,20.3575,0.00694735,-0.00702137,0.0124152,0.0142079,-0.0142819,0.529179,0.0164487,0.0114876,1287,1772,5.18685,-20.3575
70,-748,5.18628,20.3654,0.00756094,-0.00675968,0.0108327,0.0133859,-0.0125847,0.493368,0.0149965,0.0127027,1294,1772,5.18631,-20.3653
77,-748,5.1792,20.3768,0.00727067,-0.00577456,0.00912577,0.0119652,-0.0104691,0.475121,0.012962,0.0117478,1301,1772,5.17922,-20.3768
84,-748,5.14441,20.3885,0.006155,-0.00450621,0.00753737,0.0100563,-0.00840747,0.47762,0.0106742,0.0129614,1308,1772,5.14436,-20.3886
91,-748,5.14612,20.4037,0.00417698,-0.00238617,0.00614413,0.00786097,-0.00607015,0.540121,0.00806526,0.0114017,1315,1772,5.14611,-20.4037
98,-748,5.1427,20.3893,0.00178043,-0.000605178,0.00514375,0.00586786,-0.00469261,0.671465,0.00610966,0.0104616,1322,1772,5.14272,-20.3893
105,-748,5.12939,20.3374,-0.000613909,0.00125944,0.00416961,0.00459629,-0.00395076,0.895886,0.00493933,0.0109834,1329,1772,5.12938,-20.3374
112,-748,5.15259,20.3182,-0.00347811,0.00365259,0.00355757,0.00512391,-0.00494943,1.17864,0.00581614,0.0141388,1336,1772,5.15262,-20.3183
119,-748,5.14246,20.3055,-0.00647703,0.0064747,0.00334664,0.00728833,-0.00729067,1.3323,0.00841719,0.0126267,1343,1772,5.14242,-20.3056
126,-748,5.13464,20.2904,-0.00911494,0.00922261,0.00342414,0.00984113,-0.00973347,1.39209,0.0113015,0.014138,1350,1772,5.13469,-20.2904
133,-748,5.07861,20.2526,-0.0115877,0.0119342,0.00343726,0.0124262,-0.0120797,1.42863,0.014149,0.00892217,1357,1772,5.07858,-20.2526
140,-748,5.06189,20.2217,-0.013362,0.0142421,0.00363773,0.0147135,-0.0138333,1.44194,0.0164841,0.0119094,1364,1772,5.06191,-20.2217
147,-748,5.08618,20.1704,-0.0144091,0.0159862,0.00390324,0.0164794,-0.0149023,1.4451,0.0181259,0.0136274,1371,1772,5.08614,-20.1705
154,-748,5.06177,20.1196,-0.0149188,0.0172641,0.00378495,0.0177032,-0.0153579,1.45529,0.0191039,0.0116324,1378,1772,5.06182,-20.1196
161,-748,5.01453,20.1138,-0.0139208,0.0176986,0.00358666,0.0181004,-0.0143225,1.45925,0.0187617,0.0187063,1385,1772,5.01455,-20.1138
168,-748,4.9762,20.115,0,0,0,0,0,0,0,-1,1392,1772,4.97618,-20.115
175,-748,11.6235,16.8242,0,0,0,0,0,0,0,-1,1399,1772,11.6236,-16.8242
182,-748,7.62476,10.3058,0,0,0,0,0,0,0,-1,1406,1772,7.62476,-10.3058
189,-748,6.15857,6.95898,0,0,0,0,0,0,0,-1,1413,1772,6.15862,-6.95896
196,-748,3.9425,8.46021,0,0,0,0,0,0,0,-1,1420,1772,3.9425,-8.46026
203,-748,3.9668,12.9835,0,0,0,0,0,0,0,-1,1427,1772,3.96678,-12.9836
210,-748,4.71472,16.8318,0,0,0,0,0,0,0,-1,1434,1772,4.71471,-16.8317
217,-748,5.25281,19.3453,0,0,0,0,0,0,0,-1,1441,1772,5.25281,-19.3453
224,-748,5.16382,19.4318,-0.00192215,0.010978,-0.0163855,0.0221372,-0.0130814,-0.972907,0.0205563,0.0443998,1448,1772,5.1638,-19.4317
231,-748,4.97913,19.3967,-0.00120062,0.0117944,-0.0178605,0.0243025,-0.0137088,-0.959853,0.0222281,0.0399774,1455,1772,4.97909,-19.3968
238,-748,4.90247,19.0028,-0.000214556,0.0123798,-0.0191426,0.0262343,-0.0140691,-0.944303,0.0236199,0.0431227,1462,1772,4.90242,-19.0028
245,-748,4.86389,19.2351,0,0,0,0,0,0,0,-1,1469,1772,4.86386,-19.2352
252,-748,4.66162,17.4098,0,0,0,0,0,0,0,-1,1476,1772,4.66163,-17.4098
259,-748,4.37708,14.7086,0,0,0,0,0,0,0,-1,1483,1772,4.37712,-14.7086
266,-748,17.9011,7.59448,0,0,0,0,0,0,0,-1,1490,1772,17.9011,-7.59452
273,-748,16.4131,7.57129,0,0,0,0,0,0,0,-1,1497,1772,16.413,-7.57125
280,-748,15.2177,7.24829,0,0,0,0,0,0,0,-1,1504,1772,15.2176,-7.24833
287,-748,14.161,8.32813,0,0,0,0,0,0,0,-1,1511,1772,14.161,-8.32808
294,-748,12.5262,7.21912,0,0,0,0,0,0,0,-1,1518,1772,12.5262,-7.21909
301,-748,11.23,7.83813,0,0,0,0,0,0,0,-1,1525,1772,11.2299,-7.83808
308,-748,9.55615,8.18542,0,0,0,0,0,0,0,-1,1532,1772,9.55615,-8.18545
315,-748,7.17224,8.47668,0,0,0,0,0,0,0,-1,1539,1772,7.17226,-8.47672
322,-748,4.79346,8.7218,0,0,0,0,0,0,0,-1,1546,1772,4.79347,-8.72175
329,-748,3.48315,14.6533,0,0,0,0,0,0,0,-1,1553,1772,3.48316,-14.6534
336,-748,3.76001,15.8163,0,0,0,0,0,0,0,-1,1560,1772,3.75995,-15.8163
343,-748,0,0,0,0,0,0,0,0,0,-1,1567,1772,0,0
350,-748,0,0,0,0,0,0,0,0,0,-1,1574,1772,0,0
357,-748,0,0,0,0,0,0,0,0,0,-1,1581,1772,0,0
364,-748,0,0,0,0,0,0,0,0,0,-1,1588,1772,0,0
371,-748,0,0,0,0,0,0,0,0,0,-1,1595,1772,0,0
378,-748,0,0,0,0,0,0,0,0,0,-1,1602,1772,0,0
385,-748,0,0,0,0,0,0,0,0,0,-1,1609,1772,0,0
392,-748,0,0,0,0,0,0,0,0,0,-1,1616,1772,0,0
399,-748,0,0,0,0,0,0,0,0,0,-1,1623,1772,0,0
406,-748,0,0,0,0,0,0,0,0,0,-1,1630,1772,0,0
413,-748,0,0,0,0,0,0,0,0,0,-1,1637,1772,0,0
420,-748,0,0,0,0,0,0,0,0,0,-1,1644,1772,0,0
427,-748,0,0,0,0,0,0,0,0,0,-1,1651,1772,0,0
434,-748,0,0,0,0,0,0,0,0,0,-1,1658,1772,0,0
441,-748,0,0,0,0,0,0,0,0,0,-1,1665,1772,0,0
448,-748,0,0,0,0,0,0,0,0,0,-1,1672,1772,0,0
455,-748,0,0,0,0,0,0,0,0,0,-1,1679,1772,0,0
462,-748,0,0,0,0,0,0,0,0,0,-1,1686,1772,0,0
469,-748,0,0,0,0,0,0,0,0,0,-1,1693,1772,0,0
476,-748,0,0,0,0,0,0,0,0,0,-1,1700,1772,0,0
483,-748,0,0,0,0,0,0,0,0,0,-1,1707,1772,0,0
490,-748,0,0,0,0,0,0,0,0,0,-1,1714,1772,0,0
497,-748,0,0,0,0,0,0,0,0,0,-1,1721,1772,0,0
504,-748,0,0,0,0,0,0,0,0,0,-1,1728,1772,0,0
511,-748,0,0,0,0,0,0,0,0,0,-1,1735,1772,0,0
518,-748,0,0,0,0,0,0,0,0,0,-1,1742,1772,0,0
525,-748,0,0,0,0,0,0,0,0,0,-1,1749,1772,0,0
532,-748,0,0,0,0,0,0,0,0,0,-1,1756,1772,0,0
539,-748,0,0,0,0,0,0,0,0,0,-1,1763,1772,0,0
546,-748,0,0,0,0,0,0,0,0,0,-1,1770,1772,0,0
553,-748,0,0,0,0,0,0,0,0,0,-1,1777,1772,0,0
560,-748,0,0,0,0,0,0,0,0,0,-1,1784,1772,0,0
567,-748,0,0,0,0,0,0,0,0,0,-1,1791,1772,0,0
574,-748,0,0,0,0,0,0,0,0,0,-1,1798,1772,0,0
581,-748,0,0,0,0,0,0,0,0,0,-1,1805,1772,0,0
588,-748,0,0,0,0,0,0,0,0,0,-1,1812,1772,0,0
595,-748,0,0,0,0,0,0,0,0,0,-1,1819,1772,0,0
602,-748,0,0,0,0,0,0,0,0,0,-1,1826,1772,0,0
609,-748,0,0,0,0,0,0,0,0,0,-1,1833,1772,0,0
616,-748,0,0,0,0,0,0,0,0,0,-1,1840,1772,0,0
623,-748,0,0,0,0,0,0,0,0,0,-1,1847,1772,0,0
630,-748,0,0,0,0,0,0,0,0,0,-1,1854,1772,0,0
637,-748,0,0,0,0,0,0,0,0,0,-1,1861,1772,0,0
644,-748,0,0,0,0,0,0,0,0,0,-1,1868,1772,0,0
651,-748,0,0,0,0,0,0,0,0,0,-1,1875,1772,0,0
658,-748,0,0,0,0,0,0,0,0,0,-1,1882,1772,0,0
665,-748,0,0,0,0,0,0,0,0,0,-1,1889,1772,0,0
672,-748,0,0,0,0,0,0,0,0,0,-1,1896,1772,0,0
679,-748,0,0,0,0,0,0,0,0,0,-1,1903,1772,0,0
686,-748,0,0,0,0,0,0,0,0,0,-1,1910,1772,0,0
693,-748,0,0,0,0,0,0,0,0,0,-1,1917,1772,0,0
700,-748,0,0,0,0,0,0,0,0,0,-1,1924,1772,0,0
707,-748,0,0,0,0,0,0,0,0,0,-1,1931,1772,0,0
714,-748,0,0,0,0,0,0,0,0,0,-1,1938,1772,0,0
721,-748,0,0,0,0,0,0,0,0,0,-1,1945,1772,0,0
728,-748,0,0,0,0,0,0,0,0,0,-1,1952,1772,0,0
735,-748,0,0,0,0,0,0,0,0,0,-1,1959,1772,0,0
742,-748,0,0,0,0,0,0,0,0,0,-1,1966,1772,0,0
749,-748,0,0,0,0,0,0,0,0,0,-1,1973,1772,0,0
756,-748,0,0,0,0,0,0,0,0,0,-1,1980,1772,0,0
763,-748,0,0,0,0,0,0,0,0,0,-1,1987,1772,0,0
770,-748,0,0,0,0,0,0,0,0,0,-1,1994,1772,0,0
777,-748,0,0,0,0,0,0,0,0,0,-1,2001,1772,0,0
784,-748,0,0,0,0,0,0,0,0,0,-1,2008,1772,0,0
791,-748,0,0,0,0,0,0,0,0,0,-1,2015,1772,0,0
798,-748,0,0,0,0,0,0,0,0,0,-1,2022,1772,0,0
805,-748,0,0,0,0,0,0,0,0,0,-1,2029,1772,0,0
812,-748,0,0,0,0,0,0,0,0,0,-1,2036,1772,0,0
-700,-755,0,0,0,0,0,0,0,0,0,-1,524,1779,0,0
-693,-755,0,0,0,0,0,0,0,0,0,-1,531,1779,0,0
-686,-755,0,0,0,0,0,0,0,0,0,-1,538,1779,0,0
-679,-755,0,0,0,0,0,0,0,0,0,-1,545,1779,0,0
-672,-755,0,0,0,0,0,0,0,0,0,-1,552,1779,0,0
-665,-755,0,0,0,0,0,0,0,0,0,-1,559,1779,0,0
-658,-755,0,0,0,0,0,0,0,0,0,-1,566,1779,0,0
-651,-755,0,0,0,0,0,0,0,0,0,-1,573,1779,0,0
-644,-755,0,0,0,0,0,0,0,0,0,-1,580,1779,0,0
-637,-755,0,0,0,0,0,0,0,0,0,-1,587,1779,0,0
-630,-755,0,0,0,0,0,0,0,0,0,-1,594,1779,0,0
-623,-755,0,0,0,0,0,0,0,0,0,-1,601,1779,0,0
-616,-755,0,0,0,0,0,0,0,0,0,-1,608,1779,0,0
-609,-755,0,0,0,0,0,0,0,0,0,-1,615,1779,0,0
-602,-755,0,0,0,0,0,0,0,0,0,-1,622,1779,0,0
-595,-755,0,0,0,0,0,0,0,0,0,-1,629,1779,0,0
-588,-755,0,0,0,0,0,0,0,0,0,-1,636,1779,0,0
-581,-755,0,0,0,0,0,0,0,0,0,-1,643,1779,0,0
-574,-755,0,0,0,0,0,0,0,0,0,-1,650,1779,0,0
-567,-755,0,0,0,0,0,0,0,0,0,-1,657,1779,0,0
-560,-755,0,0,0,0,0,0,0,0,0,-1,664,1779,0,0
-553,-755,0,0,0,0,0,0,0,0,0,-1,671,1779,0,0
-546,-755,0,0,0,0,0,0,0,0,0,-1,678,1779,0,0
-539,-755,0,0,0,0,0,0,0,0,0,-1,685,1779,0,0
-532,-755,0,0,0,0,0,0,0,0,0,-1,692,1779,0,0
-525,-755,0,0,0,0,0,0,0,0,0,-1,699,1779,0,0
-518,-755,0,0,0,0,0,0,0,0,0,-1,706,1779,0,0
-511,-755,0,0,0,0,0,0,0,0,0,-1,713,1779,0,0
-504,-755,0,0,0,0,0,0,0,0,0,-1,720,1779,0,0
-497,-755,0,0,0,0,0,0,0,0,0,-1,727,1779,0,0
-490,-755,0,0,0,0,0,0,0,0,0,-1,734,1779,0,0
-483,-755,0,0,0,0,0,0,0,0,0,-1,741,1779,0,0
-476,-755,0,0,0,0,0,0,0,0,0,-1,748,1779,0,0
-469,-755,0,0,0,0,0,0,0,0,0,-1,755,1779,0,0
-462,-755,0,0,0,0,0,0,0,0,0,-1,762,1779,0,0
-455,-755,0,0,0,0,0,0,0,0,0,-1,769,1779,0,0
-448,-755,0,0,0,0,0,0,0,0,0,-1,776,1779,0,0
-441,-755,0,0,0,0,0,0,0,0,0,-1,783,1779,0,0
-434,-755,0,0,0,0,0,0,0,0,0,-1,790,1779,0,0
-427,-755,0,0,0,0,0,0,0,0,0,-1,797,1779,0,0
-420,-755,0,0,0,0,0,0,0,0,0,-1,804,1779,0,0
-413,-755,0,0,0,0,0,0,0,0,0,-1,811,1779,0,0
-406,-755,0,0,0,0,0,0,0,0,0,-1,818,1779,0,0
-399,-755,0,0,0,0,0,0,0,0,0,-1,825,1779,0,0
-392,-755,0,0,0,0,0,0,0,0,0,-1,832,1779,0,0
-385,-755,0,0,0,0,0,0,0,0,0,-1,839,1779,0,0
-378,-755,0,0,0,0,0,0,0,0,0,-1,846,1779,0,0
-371,-755,0,0,0,0,0,0,0,0,0,-1,853,1779,0,0
-364,-755,0,0,0,0,0,0,0,0,0,-1,860,1779,0,0
-357,-755,0,0,0,0,0,0,0,0,0,-1,867,1779,0,0
-350,-755,0,0,0,0,0,0,0,0,0,-1,874,1779,0,0
-343,-755,0,0,0,0,0,0,0,0,0,-1,881,1779,0,0
-336,-755,0,0,0,0,0,0,0,0,0,-1,888,1779,0,0
-329,-755,0,0,0,0,0,0,0,0,0,-1,895,1779,0,0
-322,-755,0,0,0,0,0,0,0,0,0,-1,902,1779,0,0
-315,-755,0,0,0,0,0,0,0,0,0,-1,909,1779,0,0
-308,-755,0,0,0,0,0,0,0,0,0,-1,916,1779,0,0
-301,-755,0,0,0,0,0,0,0,0,0,-1,923,1779,0,0
-294,-755,0,0,0,0,0,0,0,0,0,-1,930,1779,0,0
-287,-755,0,0,0,0,0,0,0,0,0,-1,937,1779,0,0
-280,-755,0,0,0,0,0,0,0,0,0,-1,944,1779,0,0
-273,-755,0,0,0,0,0,0,0,0,0,-1,951,1779,0,0
-266,-755,0,0,0,0,0,0,0,0,0,-1,958,1779,0,0
-259,-755,0,0,0,0,0,0,0,0,0,-1,965,1779,0,0
-252,-755,0,0,0,0,0,0,0,0,0,-1,972,1779,0,0
-245,-755,0,0,0,0,0,0,0,0,0,-1,979,1779,0,0
-238,-755,0,0,0,0,0,0,0,0,0,-1,986,1779,0,0
-231,-755,0,0,0,0,0,0,0,0,0,-1,993,1779,0,0
-224,-755,0,0,0,0,0,0,0,0,0,-1,1000,1779,0,0
-217,-755,0,0,0,0,0,0,0,0,0,-1,1007,1779,0,0
-210,-755,0,0,0,0,0,0,0,0,0,-1,1014,1779,0,0
-203,-755,-3.07153,13.8969,0,0,0,0,0,0,0,-1,1021,1779,-3.07152,-13.8969
-196,-755,4.91333,14.9064,0,0,0,0,0,0,0,-1,1028,1779,4.91327,-14.9063
-189,-755,4.85864,12.9271,0,0,0,0,0,0,0,-1,1035,1779,4.85866,-12.9272
-182,-755,3.9259,18.85,0,0,0,0,0,0,0,-1,1042,1779,3.92588,-18.85
-175,-755,4.10266,16.8729,0,0,0,0,0,0,0,-1,1049,1779,4.10269,-16.8729
-168,-755,4.5177,13.7404,0,0,0,0,0,0,0,-1,1056,1779,4.5177,-13.7403
-161,-755,-2.85889,11.5868,0,0,0,0,0,0,0,-1,1063,1779,-2.85887,-11.5868
-154,-755,-5.39026,8.51416,0,0,0,0,0,0,0,-1,1070,1779,-5.3903,-8.51417
-147,-755,-6.45593,10.2422,0,0,0,0,0,0,0,-1,1077,1779,-6.45594,-10.2422
-140,-755,5.13684,14.3855,0,0,0,0,0,0,0,-1,1084,1779,5.13682,-14.3854
-133,-755,5.66431,14.0518,0.0531091,0.150411,-0.0290063,0.158402,0.0451184,-1.30198,0.0942339,0.0464448,1091,1779,5.66433,-14.0517
-126,-755,6.02979,14.1846,0.0462605,0.154036,-0.0230356,0.158753,0.0415434,-1.36881,0.0950631,0.0442356,1098,1779,6.02975,-14.1846
-119,-755,6.69421,14.4026,0,0,0,0,0,0,0,-1,1105,1779,6.6942,-14.4026
-112,-755,7.22473,14.6514,0,0,0,0,0,0,0,-1,1112,1779,7.22477,-14.6514
-105,-755,7.55566,14.7223,0,0,0,0,0,0,0,-1,1119,1779,7.55562,-14.7223
-98,-755,4.26819,14.9769,0,0,0,0,0,0,0,-1,1126,1779,4.26815,-14.9769
-91,-755,3.91394,13.0228,0,0,0,0,0,0,0,-1,1133,1779,3.91399,-13.0228
-84,-755,0.169312,8.66443,0,0,0,0,0,0,0,-1,1140,1779,0.16932,-8.66446
-77,-755,-0.0491943,6.87439,0,0,0,0,0,0,0,-1,1147,1779,-0.0491385,-6.87443
-70,-755,4.5686,13.2169,0,0,0,0,0,0,0,-1,1154,1779,4.56865,-13.2169
-63,-755,-1.36316,7.3147,0,0,0,0,0,0,0,-1,1161,1779,-1.36312,-7.31473
-56,-755,0.0483398,5.06079,0,0,0,0,0,0,0,-1,1168,1779,0.0483138,-5.06084
-49,-755,-1.32263,5.33716,0,0,0,0,0,0,0,-1,1175,1779,-1.32264,-5.33718
-42,-755,-2.03613,4.01672,0,0,0,0,0,0,0,-1,1182,1779,-2.0361,-4.01671
-35,-755,-2.72498,2.37476,0,0,0,0,0,0,0,-1,1189,1779,-2.72502,-2.37473
-28,-755,5.35583,19.9642,0,0,0,0,0,0,0,-1,1196,1779,5.35584,-19.9642
-21,-755,5.34839,20.0835,0,0,0,0,0,0,0,-1,1203,1779,5.34839,-20.0835
-14,-755,5.42249,19.9977,-0.00740973,-0.011294,-0.000258363,-0.00739262,-0.0113112,-0.0661261,0.00663238,0.0345502,1210,1779,5.42248,-19.9977
-7,-755,5.36267,20.0022,-0.00708678,-0.0106358,0.00322326,-0.00518185,-0.0125407,0.533771,0.00727667,0.0235357,1217,1779,5.36272,-20.0022
0,-755,5.35596,20.0524,-0.00682741,-0.00965395,0.00720828,-0.000895166,-0.0155862,0.688595,0.0101056,0.0139391,1224,1779,5.35596,-20.0523
7,-755,5.35889,20.1191,-0.00603302,-0.00917507,0.0109653,0.00347327,-0.0186814,0.714246,0.0137589,0.0128431,1231,1779,5.35892,-20.1191
14,-755,5.33069,20.1632,-0.00459347,-0.00913913,0.0143529,0.00766541,-0.021398,0.706873,0.0173929,0.0114771,1238,1779,5.33065,-20.1632
21,-755,5.29297,20.2396,-0.00265712,-0.00934103,0.0171377,0.0114614,-0.0234596,0.689103,0.0205545,0.0147643,1245,1779,5.29297,-20.2396
28,-755,5.28394,20.2625,0.000219168,-0.00982489,0.0192573,0.0150985,-0.0247042,0.657846,0.0232021,0.0166048,1252,1779,5.28398,-20.2624
35,-755,5.29419,20.2859,0.00342147,-0.0103458,0.0203236,0.0179956,-0.0249199,0.622111,0.0248845,0.0170786,1259,1779,5.29416,-20.2859
42,-755,5.28479,20.3292,0.00654514,-0.0105335,0.0208586,0.0205447,-0.0245331,0.59111,0.0260596,0.0134469,1266,1779,5.28479,-20.3293
49,-755,5.26721,20.3423,0.00957475,-0.0110601,0.0208762,0.0225439,-0.0240293,0.555892,0.0268936,0.00952186,1273,1779,5.26717,-20.3423
56,-755,5.22339,20.363,0.0115379,-0.0117191,0.0197511,0.0228294,-0.0230106,0.519343,0.0264658,0.00867911,1280,1779,5.22337,-20.3631
63,-755,5.20776,20.3608,0.0132036,-0.0117497,0.0181579,0.0227583,-0.0213043,0.484384,0.0254442,0.00914574,1287,1779,5.2078,-20.3608
70,-755,5.21179,20.3492,0.0141088,-0.0113687,0.0160795,0.0218841,-0.019144,0.450404,0.0237052,0.0116248,1294,1779,5.21175,-20.3492
77,-755,5.18567,20.3475,0.0136771,-0.0099812,0.0138201,0.0200393,-0.0163434,0.431434,0.0210416,0.0104169,1301,1779,5.18569,-20.3476
84,-755,5.18335,20.3492,0.0120491,-0.00804206,0.0116573,0.0173921,-0.013385,0.429762,0.0178193,0.0107211,1308,1779,5.1834,-20.3492
91,-755,5.15454,20.3467,0.00908471,-0.00479457,0.00969564,0.0140683,-0.00977819,0.474789,0.0138419,0.0114776,1315,1779,5.15457,-20.3467
98,-755,5.11548,20.3424,0.00539675,-0.00187919,0.00812339,0.0106596,-0.00714203,0.57487,0.0103444,0.012304,1322,1779,5.11544,-20.3424
105,-755,5.14209,20.3398,0.00158566,0.00118572,0.00658856,0.00797729,-0.00520591,0.770227,0.00766718,0.0148834,1329,1779,5.14213,-20.3399
112,-755,5.15381,20.3099,-0.00300996,0.00519445,0.00561475,0.00804591,-0.00586143,1.10089,0.00806236,0.0202628,1336,1779,5.15385,-20.31
119,-755,5.13696,20.2858,-0.00790569,0.00978856,0.00512351,0.011165,-0.00928216,1.30834,0.0118219,0.0203004,1343,1779,5.13699,-20.2858
126,-755,5.09802,20.3002,-0.0123741,0.0143846,0.0049914,0.0152854,-0.0132749,1.39226,0.0165029,0.0220566,1350,1779,5.09806,-20.3002
133,-755,4.99243,20.252,-0.0165243,0.0189504,0.00481322,0.0195919,-0.0171657,1.43831,0.0212374,0.0226219,1357,1779,4.99238,-20.252
140,-755,4.88245,20.2285,-0.0196862,0.0230222,0.00486209,0.0235687,-0.0202328,1.45886,0.0253132,0.0276168,1364,1779,4.88239,-20.2285
147,-755,4.94067,20.1833,-0.0215824,0.0261314,0.00515324,0.0266817,-0.0221327,1.46443,0.0282237,0.0314363,1371,1779,4.94068,-20.1834
154,-755,5.005,20.1793,-0.0228031,0.028617,0.00494789,0.0290888,-0.0232749,1.47573,0.0302942,0.0354048,1378,1779,5.00497,-20.1793
161,-755,4.89099,20.2136,0,0,0,0,0,0,0,-1,1385,1779,4.89093,-20.2136
168,-755,3.98181,7.35901,0,0,0,0,0,0,0,-1,1392,1779,3.98184,-7.35904
175,-755,8.17065,1.34363,0,0,0,0,0,0,0,-1,1399,1779,8.1706,-1.34368
182,-755,8.09216,2.96924,0,0,0,0,0,0,0,-1,1406,1779,8.09213,-2.9693
189,-755,8.04419,4.68042,0,0,0,0,0,0,0,-1,1413,1779,8.04419,-4.68046
196,-755,7.74841,7.4541,0,0,0,0,0,0,0,-1,1420,1779,7.74842,-7.45405
203,-755,4.80554,6.88696,0,0,0,0,0,0,0,-1,1427,1779,4.80554,-6.88697
210,-755,25.1694,7.35693,0,0,0,0,0,0,0,-1,1434,1779,25.1694,-7.35688
217,-755,5.01648,16.411,0,0,0,0,0,0,0,-1,1441,1779,5.01646,-16.411
224,-755,5.24548,19.5001,0,0,0,0,0,0,0,-1,1448,1779,5.24546,-19.5001
231,-755,5.01599,19.4412,0,0,0,0,0,0,0,-1,1455,1779,5.01599,-19.4411
238,-755,5.05676,18.5919,-0.000135407,0.0184809,-0.028108,0.038782,-0.0204364,-0.945293,0.0347323,0.0409977,1462,1779,5.05681,-18.5919
245,-755,5.14575,17.3694,0,0,0,0,0,0,0,-1,1469,1779,5.14574,-17.3694
252,-755,5.26428,16.0739,0,0,0,0,0,0,0,-1,1476,1779,5.26429,-16.0738
259,-755,18.481,8.25134,0,0,0,0,0,0,0,-1,1483,1779,18.4809,-8.25139
266,-755,17.255,7.86096,0,0,0,0,0,0,0,-1,1490,1779,17.255,-7.86092
273,-755,15.7932,7.59778,0,0,0,0,0,0,0,-1,1497,1779,15.7932,-7.59777
280,-755,14.6255,7.34802,0,0,0,0,0,0,0,-1,1504,1779,14.6254,-7.34806
287,-755,13.1736,7.34705,0,0,0,0,0,0,0,-1,1511,1779,13.1736,-7.34709
294,-755,12.9796,7.521,0,0,0,0,0,0,0,-1,1518,1779,12.9797,-7.52101
301,-755,11.6908,8.55408,0,0,0,0,0,0,0,-1,1525,1779,11.6908,-8.5541
308,-755,10.1521,9.81482,0,0,0,0,0,0,0,-1,1532,1779,10.1521,-9.81483
315,-755,7.73438,10.0964,0,0,0,0,0,0,0,-1,1539,1779,7.73435,-10.0964
322,-755,0,0,0,0,0,0,0,0,0,-1,1546,1779,0,0
329,-755,0,0,0,0,0,0,0,0,0,-1,1553,1779,0,0
336,-755,0,0,0,0,0,0,0,0,0,-1,1560,1779,0,0
343,-755,0,0,0,0,0,0,0,0,0,-1,1567,1779,0,0
350,-755,0,0,0,0,0,0,0,0,0,-1,1574,1779,0,0
357,-755,0,0,0,0,0,0,0,0,0,-1,1581,1779,0,0
364,-755,0,0,0,0,0,0,0,0,0,-1,1588,1779,0,0
371,-755,0,0,0,0,0,0,0,0,0,-1,1595,1779,0,0
378,-755,0,0,0,0,0,0,0,0,0,-1,1602,1779,0,0
385,-755,0,0,0,0,0,0,0,0,0,-1,1609,1779,0,0
392,-755,0,0,0,0,0,0,0,0,0,-1,1616,1779,0,0
399,-755,0,0,0,0,0,0,0,0,0,-1,1623,1779,0,0
406,-755,0,0,0,0,0,0,0,0,0,-1,1630,1779,0,0
413,-755,0,0,0,0,0,0,0,0,0,-1,1637,1779,0,0
420,-755,0,0,0,0,0,0,0,0,0,-1,1644,1779,0,0
427,-755,0,0,0,0,0,0,0,0,0,-1,1651,1779,0,0
434,-755,0,0,0,0,0,0,0,0,0,-1,1658,1779,0,0
441,-755,0,0,0,0,0,0,0,0,0,-1,1665,1779,0,0
448,-755,0,0,0,0,0,0,0,0,0,-1,1672,1779,0,0
455,-755,0,0,0,0,0,0,0,0,0,-1,1679,1779,0,0
462,-755,0,0,0,0,0,0,0,0,0,-1,1686,1779,0,0
469,-755,0,0,0,0,0,0,0,0,0,-1,1693,1779,0,0
476,-755,0,0,0,0,0,0,0,0,0,-1,1700,1779,0,0
483,-755,0,0,0,0,0,0,0,0,0,-1,1707,1779,0,0
490,-755,0,0,0,0,0,0,0,0,0,-1,1714,1779,0,0
497,-755,0,0,0,0,0,0,0,0,0,-1,1721,1779,0,0
504,-755,0,0,0,0,0,0,0,0,0,-1,1728,1779,0,0
511,-755,0,0,0,0,0,0,0,0,0,-1,1735,1779,0,0
518,-755,0,0,0,0,0,0,0,0,0,-1,1742,1779,0,0
525,-755,0,0,0,0,0,0,0,0,0,-1,1749,1779,0,0
532,-755,0,0,0,0,0,0,0,0,0,-1,1756,1779,0,0
539,-755,0,0,0,0,0,0,0,0,0,-1,1763,1779,0,0
546,-755,0,0,0,0,0,0,0,0,0,-1,1770,1779,0,0
553,-755,0,0,0,0,0,0,0,0,0,-1,1777,1779,0,0
560,-755,0,0,0,0,0,0,0,0,0,-1,1784,1779,0,0
567,-755,0,0,0,0,0,0,0,0,0,-1,1791,1779,0,0
574,-755,0,0,0,0,0,0,0,0,0,-1,1798,1779,0,0
581,-755,0,0,0,0,0,0,0,0,0,-1,1805,1779,0,0
588,-755,0,0,0,0,0,0,0,0,0,-1,1812,1779,0,0
595,-755,0,0,0,0,0,0,0,0,0,-1,1819,1779,0,0
602,-755,0,0,0,0,0,0,0,0,0,-1,1826,1779,0,0
609,-755,0,0,0,0,0,0,0,0,0,-1,1833,1779,0,0
616,-755,0,0,0,0,0,0,0,0,0,-1,1840,1779,0,0
623,-755,0,0,0,0,0,0,0,0,0,-1,1847,1779,0,0
630,-755,0,0,0,0,0,0,0,0,0,-1,1854,1779,0,0
637,-755,0,0,0,0,0,0,0,0,0,-1,1861,1779,0,0
644,-755,0,0,0,0,0,0,0,0,0,-1,1868,1779,0,0
651,-755,0,0,0,0,0,0,0,0,0,-1,1875,1779,0,0
658,-755,0,0,0,0,0,0,0,0,0,-1,1882,1779,0,0
665,-755,0,0,0,0,0,0,0,0,0,-1,1889,1779,0,0
672,-755,0,0,0,0,0,0,0,0,0,-1,1896,1779,0,0
679,-755,0,0,0,0,0,0,0,0,0,-1,1903,1779,0,0
686,-755,0,0,0,0,0,0,0,0,0,-1,1910,1779,0,0
693,-755,0,0,0,0,0,0,0,0,0,-1,1917,1779,0,0
700,-755,0,0,0,0,0,0,0,0,0,-1,1924,1779,0,0
707,-755,0,0,0,0,0,0,0,0,0,-1,1931,1779,0,0
714,-755,0,0,0,0,0,0,0,0,0,-1,1938,1779,0,0
721,-755,0,0,0,0,0,0,0,0,0,-1,1945,1779,0,0
728,-755,0,0,0,0,0,0,0,0,0,-1,1952,1779,0,0
735,-755,0,0,0,0,0,0,0,0,0,-1,1959,1779,0,0
742,-755,0,0,0,0,0,0,0,0,0,-1,1966,1779,0,0
749,-755,0,0,0,0,0,0,0,0,0,-1,1973,1779,0,0
756,-755,0,0,0,0,0,0,0,0,0,-1,1980,1779,0,0
763,-755,0,0,0,0,0,0,0,0,0,-1,1987,1779,0,0
770,-755,0,0,0,0,0,0,0,0,0,-1,1994,1779,0,0
777,-755,0,0,0,0,0,0,0,0,0,-1,2001,1779,0,0
784,-755,0,0,0,0,0,0,0,0,0,-1,2008,1779,0,0
791,-755,0,0,0,0,0,0,0,0,0,-1,2015,1779,0,0
798,-755,0,0,0,0,0,0,0,0,0,-1,2022,1779,0,0
805,-755,0,0,0,0,0,0,0,0,0,-1,2029,1779,0,0
812,-755,0,0,0,0,0,0,0,0,0,-1,2036,1779,0,0
-700,-762,0,0,0,0,0,0,0,0,0,-1,524,1786,0,0
-693,-762,0,0,0,0,0,0,0,0,0,-1,531,1786,0,0
-686,-762,0,0,0,0,0,0,0,0,0,-1,538,1786,0,0
-679,-762,0,0,0,0,0,0,0,0,0,-1,545,1786,0,0
-672,-762,0,0,0,0,0,0,0,0,0,-1,552,1786,0,0
-665,-762,0,0,0,0,0,0,0,0,0,-1,559,1786,0,0
-658,-762,0,0,0,0,0,0,0,0,0,-1,566,1786,0,0
-651,-762,0,0,0,0,0,0,0,0,0,-1,573,1786,0,0
-644,-762,0,0,0,0,0,0,0,0,0,-1,580,1786,0,0
-637,-762,0,0,0,0,0,0,0,0,0,-1,587,1786,0,0
-630,-762,0,0,0,0,0,0,0,0,0,-1,594,1786,0,0
-623,-762,0,0,0,0,0,0,0,0,0,-1,601,1786,0,0
-616,-762,0,0,0,0,0,0,0,0,0,-1,608,1786,0,0
-609,-762,0,0,0,0,0,0,0,0,0,-1,615,1786,0,0
-602,-762,0,0,0,0,0,0,0,0,0,-1,622,1786,0,0
-595,-762,0,0,0,0,0,0,0,0,0,-1,629,1786,0,0
-588,-762,0,0,0,0,0,0,0,0,0,-1,636,1786,0,0
-581,-762,0,0,0,0,0,0,0,0,0,-1,643,1786,0,0
-574,-762,0,0,0,0,0,0,0,0,0,-1,650,1786,0,0
-567,-762,0,0,0,0,0,0,0,0,0,-1,657,1786,0,0
-560,-762,0,0,0,0,0,0,0,0,0,-1,664,1786,0,0
-553,-762,0,0,0,0,0,0,0,0,0,-1,671,1786,0,0
-546,-762,0,0,0,0,0,0,0,0,0,-1,678,1786,0,0
-539,-762,0,0,0,0,0,0,0,0,0,-1,685,1786,0,0
-532,-762,0,0,0,0,0,0,0,0,0,-1,692,1786,0,0
-525,-762,0,0,0,0,0,0,0,0,0,-1,699,1786,0,0
-518,-762,0,0,0,0,0,0,0,0,0,-1,706,1786,0,0
-511,-762,0,0,0,0,0,0,0,0,0,-1,713,1786,0,0
-504,-762,0,0,0,0,0,0,0,0,0,-1,720,1786,0,0
-497,-762,0,0,0,0,0,0,0,0,0,-1,727,1786,0,0
-490,-762,0,0,0,0,0,0,0,0,0,-1,734,1786,0,0
-483,-762,0,0,0,0,0,0,0,0,0,-1,741,1786,0,0
-476,-762,0,0,0,0,0,0,0,0,0,-1,748,1786,0,0
-469,-762,0,0,0,0,0,0,0,0,0,-1,755,1786,0,0
-462,-762,0,0,0,0,0,0,0,0,0,-1,762,1786,0,0
-455,-762,0,0,0,0,0,0,0,0,0,-1,769,1786,0,0
-448,-762,0,0,0,0,0,0,0,0,0,-1,776,1786,0,0
-441,-762,0,0,0,0,0,0,0,0,0,-1,783,1786,0,0
-434,-762,0,0,0,0,0,0,0,0,0,-1,790,1786,0,0
-427,-762,0,0,0,0,0,0,0,0,0,-1,797,1786,0,0
-420,-762,0,0,0,0,0,0,0,0,0,-1,804,1786,0,0
-413,-762,0,0,0,0,0,0,0,0,0,-1,811,1786,0,0
-406,-762,0,0,0,0,0,0,0,0,0,-1,818,1786,0,0
-399,-762,0,0,0,0,0,0,0,0,0,-1,825,1786,0,0
-392,-762,0,0,0,0,0,0,0,0,0,-1,832,1786,0,0
-385,-762,0,0,0,0,0,0,0,0,0,-1,839,1786,0,0
-378,-762,0,0,0,0,0,0,0,0,0,-1,846,1786,0,0
-371,-762,0,0,0,0,0,0,0,0,0,-1,853,1786,0,0
-364,-762,0,0,0,0,0,0,0,0,0,-1,860,1786,0,0
-357,-762,0,0,0,0,0,0,0,0,0,-1,867,1786,0,0
-350,-762,0,0,0,0,0,0,0,0,0,-1,874,1786,0,0
-343,-762,0,0,0,0,0,0,0,0,0,-1,881,1786,0,0
-336,-762,0,0,0,0,0,0,0,0,0,-1,888,1786,0,0
-329,-762,0,0,0,0,0,0,0,0,0,-1,895,1786,0,0
-322,-762,0,0,0,0,0,0,0,0,0,-1,902,1786,0,0
-315,-762,0,0,0,0,0,0,0,0,0,-1,909,1786,0,0
-308,-762,0,0,0,0,0,0,0,0,0,-1,916,1786,0,0
-301,-762,0,0,0,0,0,0,0,0,0,-1,923,1786,0,0
-294,-762,0,0,0,0,0,0,0,0,0,-1,930,1786,0,0
-287,-762,0,0,0,0,0,0,0,0,0,-1,937,1786,0,0
-280,-762,0,0,0,0,0,0,0,0,0,-1,944,1786,0,0
-273,-762,0,0,0,0,0,0,0,0,0,-1,951,1786,0,0
-266,-762,0,0,0,0,0,0,0,0,0,-1,958,1786,0,0
-259,-762,0,0,0,0,0,0,0,0,0,-1,965,1786,0,0
-252,-762,0,0,0,0,0,0,0,0,0,-1,972,1786,0,0
-245,-762,0,0,0,0,0,0,0,0,0,-1,979,1786,0,0
-238,-762,0,0,0,0,0,0,0,0,0,-1,986,1786,0,0
-231,-762,0,0,0,0,0,0,0,0,0,-1,993,1786,0,0
-224,-762,0,0,0,0,0,0,0,0,0,-1,1000,1786,0,0
-217,-762,0,0,0,0,0,0,0,0,0,-1,1007,1786,0,0
-210,-762,0,0,0,0,0,0,0,0,0,-1,1014,1786,0,0
-203,-762,0,0,0,0,0,0,0,0,0,-1,1021,1786,0,0
-196,-762,0,0,0,0,0,0,0,0,0,-1,1028,1786,0,0
-189,-762,0,0,0,0,0,0,0,0,0,-1,1035,1786,0,0
-182,-762,4.44226,13.2462,0,0,0,0,0,0,0,-1,1042,1786,4.44227,-13.2462
-175,-762,-1.29956,14.1766,0,0,0,0,0,0,0,-1,1049,1786,-1.29956,-14.1767
-168,-762,-2.08618,13.0768,0,0,0,0,0,0,0,-1,1056,1786,-2.08623,-13.0768
-161,-762,-3.29077,11.9508,0,0,0,0,0,0,0,-1,1063,1786,-3.29076,-11.9508
-154,-762,-4.55823,11.1176,0,0,0,0,0,0,0,-1,1070,1786,-4.55828,-11.1175
-147,-762,-6.52454,9.41418,0,0,0,0,0,0,0,-1,1077,1786,-6.52458,-9.41419
-140,-762,4.99792,5.28589,0,0,0,0,0,0,0,-1,1084,1786,4.99793,-5.28587
-133,-762,5.33948,12.4374,0,0,0,0,0,0,0,-1,1091,1786,5.33948,-12.4374
-126,-762,5.69641,13.0426,0,0,0,0,0,0,0,-1,1098,1786,5.69644,-13.0426
-119,-762,6.25012,13.6464,0,0,0,0,0,0,0,-1,1105,1786,6.25017,-13.6464
-112,-762,6.05066,14.7866,0,0,0,0,0,0,0,-1,1112,1786,6.05067,-14.7867
-105,-762,5.82385,15.1403,0,0,0,0,0,0,0,-1,1119,1786,5.82383,-15.1402
-98,-762,4.57495,16.0953,0,0,0,0,0,0,0,-1,1126,1786,4.57496,-16.0954
-91,-762,4.04016,14.6007,0,0,0,0,0,0,0,-1,1133,1786,4.04013,-14.6007
-84,-762,3.00232,10.7883,0,0,0,0,0,0,0,-1,1140,1786,3.0023,-10.7883
-77,-762,0.305054,8.49365,0,0,0,0,0,0,0,-1,1147,1786,0.305008,-8.49362
-70,-762,0.183716,6.74622,0,0,0,0,0,0,0,-1,1154,1786,0.183696,-6.74621
-63,-762,-0.883057,9.08813,0,0,0,0,0,0,0,-1,1161,1786,-0.88311,-9.08808
-56,-762,-0.578979,5.10254,0,0,0,0,0,0,0,-1,1168,1786,-0.578951,-5.10249
-49,-762,-2.04541,3.66321,0,0,0,0,0,0,0,-1,1175,1786,-2.0454,-3.66319
-42,-762,-2.23462,3.474,0,0,0,0,0,0,0,-1,1182,1786,-2.23459,-3.47399
-35,-762,-3.28992,1.68164,0,0,0,0,0,0,0,-1,1189,1786,-3.28998,-1.68164
-28,-762,-3.75378,1.37769,0,0,0,0,0,0,0,-1,1196,1786,-3.75373,-1.37767
-21,-762,5.38354,20.1086,0,0,0,0,0,0,0,-1,1203,1786,5.38356,-20.1087
-14,-762,5.28186,20.0518,-0.00942765,-0.0171208,-0.00282689,-0.0085006,-0.0180478,-0.316889,0.0104257,0.0488399,1210,1786,5.28192,-20.0518
-7,-762,5.35559,19.9786,-0.00893761,-0.0158651,0.00245726,-0.00815451,-0.0166482,0.30851,0.00961253,0.0466634,1217,1786,5.35558,-19.9786
0,-762,5.36182,19.9954,-0.00846973,-0.014272,0.00841896,-0.00246607,-0.0202757,0.619472,0.0127747,0.0334439,1224,1786,5.36186,-19.9954
7,-762,5.38098,20.1079,-0.00732367,-0.0134812,0.0139611,0.00389408,-0.0246989,0.676873,0.0179057,0.0205023,1231,1786,5.38093,-20.1079
14,-762,5.32959,20.2743,-0.00524924,-0.0132792,0.0189389,0.0100955,-0.028624,0.680946,0.0231922,0.0343398,1238,1786,5.32957,-20.2743
21,-762,5.18213,20.4045,-0.00244476,-0.0134447,0.0229967,0.0157006,-0.03159,0.668021,0.0278122,0.0389781,1245,1786,5.18209,-20.4046
28,-762,4.87927,20.3301,0.00158839,-0.0140152,0.0260084,0.0209399,-0.0333667,0.639682,0.0316264,0.035309,1252,1786,4.87924,-20.3301
35,-762,5.15027,20.3475,0.00604988,-0.0146735,0.0275606,0.0251323,-0.0337559,0.605592,0.0341204,0.0380444,1259,1786,5.15029,-20.3475
42,-762,5.17175,20.3528,0.0103891,-0.0148725,0.0284082,0.0288479,-0.0333313,0.576213,0.0359302,0.0377381,1266,1786,5.17172,-20.3528
49,-762,5.16052,20.3723,0.0146438,-0.0155344,0.0285343,0.031833,-0.0327236,0.542185,0.037273,0.0309052,1273,1786,5.16057,-20.3724
56,-762,5.25928,20.3646,0.0174777,-0.0163324,0.027012,0.0324384,-0.0312931,0.505798,0.0367974,0.0217862,1280,1786,5.25928,-20.3646
63,-762,5.21069,20.3889,0.0198905,-0.0163941,0.0248995,0.0325561,-0.0290597,0.47056,0.035593,0.0206765,1287,1786,5.21074,-20.3889
70,-762,5.19434,20.3894,0.0212811,-0.0159344,0.0222108,0.0316487,-0.0263019,0.43672,0.0335052,0.0195125,1294,1786,5.19438,-20.3894
77,-762,5.25122,20.3563,0.0208317,-0.0141598,0.0192865,0.0293757,-0.0227038,0.417023,0.0301503,0.0243515,1301,1786,5.25125,-20.3563
84,-762,5.30994,20.3405,0.0187294,-0.0114639,0.0164296,0.025945,-0.0186796,0.413826,0.0258776,0.0307534,1308,1786,5.30992,-20.3404
91,-762,5.26135,20.3772,0.0146702,-0.00684726,0.0137899,0.0214018,-0.0135789,0.454127,0.0203637,0.0404368,1315,1786,5.26136,-20.3772
98,-762,5.20203,20.4089,0.00951074,-0.002609,0.0115906,0.01653,-0.00962826,0.544527,0.0152767,0.0411567,1322,1786,5.20208,-20.4089
105,-762,5.19678,20.3705,0.00408057,0.00190252,0.00941914,0.0124734,-0.00649034,0.727845,0.0111289,0.0403454,1329,1786,5.19677,-20.3704
112,-762,5.18005,20.1218,-0.00258049,0.00797125,0.00801727,0.0122929,-0.00690209,1.07641,0.0112269,0.0457517,1336,1786,5.18011,-20.1218
119,-762,5.18433,20.2002,-0.00987632,0.0149567,0.00717453,0.0168805,-0.0118001,1.30882,0.0166451,0.0459589,1343,1786,5.18433,-20.2002
126,-762,5.40417,20.1122,-0.0166872,0.0221104,0.00675729,0.0232536,-0.0178305,1.4032,0.0237887,0.0440451,1350,1786,5.40419,-20.1122
133,-762,4.88489,20.1793,-0.022933,0.0292487,0.00632094,0.0300034,-0.0236878,1.45195,0.03107,0.0457809,1357,1786,4.88484,-20.1794
140,-762,4.48865,20.1261,-0.0278025,0.0357745,0.00614199,0.0363624,-0.0283905,1.47537,0.0374794,0.0437901,1364,1786,4.48864,-20.1261
147,-762,4.48523,20.1525,-0.0308596,0.0409564,0.00633859,0.0415116,-0.0314148,1.48343,0.0422384,0.0442429,1371,1786,4.48521,-20.1525
154,-762,4.9054,20.2744,0,0,0,0,0,0,0,-1,1378,1786,4.90536,-20.2744
161,-762,7.93408,-0.126221,0,0,0,0,0,0,0,-1,1385,1786,7.93402,0.126232
168,-762,8.19287,0.880615,0,0,0,0,0,0,0,-1,1392,1786,8.19291,-0.880603
175,-762,8.33997,1.95947,0,0,0,0,0,0,0,-1,1399,1786,8.33997,-1.95942
182,-762,8.28418,3.56482,0,0,0,0,0,0,0,-1,1406,1786,8.28415,-3.56485
189,-762,8.21179,5.23389,0,0,0,0,0,0,0,-1,1413,1786,8.21183,-5.23383
196,-762,8.05969,6.95483,0,0,0,0,0,0,0,-1,1420,1786,8.05972,-6.9548
203,-762,24.0077,7.10425,0,0,0,0,0,0,0,-1,1427,1786,24.0077,-7.10426
210,-762,23.8073,7.6499,0,0,0,0,0,0,0,-1,1434,1786,23.8073,-7.64987
217,-762,23.3193,8.24426,0,0,0,0,0,0,0,-1,1441,1786,23.3194,-8.2442
224,-762,2.65149,20.6106,0,0,0,0,0,0,0,-1,1448,1786,2.65153,-20.6106
231,-762,6.43127,19.5341,0,0,0,0,0,0,0,-1,1455,1786,6.43125,-19.5341
238,-762,5.38452,18.0867,0,0,0,0,0,0,0,-1,1462,1786,5.38455,-18.0867
245,-762,5.47937,16.8439,0,0,0,0,0,0,0,-1,1469,1786,5.47937,-16.8438
252,-762,4.51648,11.8605,0,0,0,0,0,0,0,-1,1476,1786,4.51644,-11.8605
259,-762,17.4619,7.89832,0,0,0,0,0,0,0,-1,1483,1786,17.462,-7.89836
266,-762,16.451,7.67773,0,0,0,0,0,0,0,-1,1490,1786,16.4511,-7.67773
273,-762,15.287,7.5304,0,0,0,0,0,0,0,-1,1497,1786,15.2869,-7.53044
280,-762,14.1501,7.38379,0,0,0,0,0,0,0,-1,1504,1786,14.1502,-7.38376
287,-762,12.6891,7.99133,0,0,0,0,0,0,0,-1,1511,1786,12.6891,-7.99135
294,-762,11.6133,8.5918,0,0,0,0,0,0,0,-1,1518,1786,11.6133,-8.59175
301,-762,11.8124,9.46521,0,0,0,0,0,0,0,-1,1525,1786,11.8124,-9.46525
308,-762,0,0,0,0,0,0,0,0,0,-1,1532,1786,0,0
315,-762,0,0,0,0,0,0,0,0,0,-1,1539,1786,0,0
322,-762,0,0,0,0,0,0,0,0,0,-1,1546,1786,0,0
329,-762,0,0,0,0,0,0,0,0,0,-1,1553,1786,0,0
336,-762,0,0,0,0,0,0,0,0,0,-1,1560,1786,0,0
343,-762,0,0,0,0,0,0,0,0,0,-1,1567,1786,0,0
350,-762,0,0,0,0,0,0,0,0,0,-1,1574,1786,0,0
357,-762,0,0,0,0,0,0,0,0,0,-1,1581,1786,0,0
364,-762,0,0,0,0,0,0,0,0,0,-1,1588,1786,0,0
371,-762,0,0,0,0,0,0,0,0,0,-1,1595,1786,0,0
378,-762,0,0,0,0,0,0,0,0,0,-1,1602,1786,0,0
385,-762,0,0,0,0,0,0,0,0,0,-1,1609,1786,0,0
392,-762,0,0,0,0,0,0,0,0,0,-1,1616,1786,0,0
399,-762,0,0,0,0,0,0,0,0,0,-1,1623,1786,0,0
406,-762,0,0,0,0,0,0,0,0,0,-1,1630,1786,0,0
413,-762,0,0,0,0,0,0,0,0,0,-1,1637,1786,0,0
420,-762,0,0,0,0,0,0,0,0,0,-1,1644,1786,0,0
427,-762,0,0,0,0,0,0,0,0,0,-1,1651,1786,0,0
434,-762,0,0,0,0,0,0,0,0,0,-1,1658,1786,0,0
441,-762,0,0,0,0,0,0,0,0,0,-1,1665,1786,0,0
448,-762,0,0,0,0,0,0,0,0,0,-1,1672,1786,0,0
455,-762,0,0,0,0,0,0,0,0,0,-1,1679,1786,0,0
462,-762,0,0,0,0,0,0,0,0,0,-1,1686,1786,0,0
469,-762,0,0,0,0,0,0,0,0,0,-1,1693,1786,0,0
476,-762,0,0,0,0,0,0,0,0,0,-1,1700,1786,0,0
483,-762,0,0,0,0,0,0,0,0,0,-1,1707,1786,0,0
490,-762,0,0,0,0,0,0,0,0,0,-1,1714,1786,0,0
497,-762,0,0,0,0,0,0,0,0,0,-1,1721,1786,0,0
504,-762,0,0,0,0,0,0,0,0,0,-1,1728,1786,0,0
511,-762,0,0,0,0,0,0,0,0,0,-1,1735,1786,0,0
518,-762,0,0,0,0,0,0,0,0,0,-1,1742,1786,0,0
525,-762,0,0,0,0,0,0,0,0,0,-1,1749,1786,0,0
532,-762,0,0,0,0,0,0,0,0,0,-1,1756,1786,0,0
539,-762,0,0,0,0,0,0,0,0,0,-1,1763,1786,0,0
546,-762,0,0,0,0,0,0,0,0,0,-1,1770,1786,0,0
553,-762,0,0,0,0,0,0,0,0,0,-1,1777,1786,0,0
560,-762,0,0,0,0,0,0,0,0,0,-1,1784,1786,0,0
567,-762,0,0,0,0,0,0,0,0,0,-1,1791,1786,0,0
574,-762,0,0,0,0,0,0,0,0,0,-1,1798,1786,0,0
581,-762,0,0,0,0,0,0,0,0,0,-1,1805,1786,0,0
588,-762,0,0,0,0,0,0,0,0,0,-1,1812,1786,0,0
595,-762,0,0,0,0,0,0,0,0,0,-1,1819,1786,0,0
602,-762,0,0,0,0,0,0,0,0,0,-1,1826,1786,0,0
609,-762,0,0,0,0,0,0,0,0,0,-1,1833,1786,0,0
616,-762,0,0,0,0,0,0,0,0,0,-1,1840,1786,0,0
623,-762,0,0,0,0,0,0,0,0,0,-1,1847,1786,0,0
630,-762,0,0,0,0,0,0,0,0,0,-1,1854,1786,0,0
637,-762,0,0,0,0,0,0,0,0,0,-1,1861,1786,0,0
644,-762,0,0,0,0,0,0,0,0,0,-1,1868,1786,0,0
651,-762,0,0,0,0,0,0,0,0,0,-1,1875,1786,0,0
658,-762,0,0,0,0,0,0,0,0,0,-1,1882,1786,0,0
665,-762,0,0,0,0,0,0,0,0,0,-1,1889,1786,0,0
672,-762,0,0,0,0,0,0,0,0,0,-1,1896,1786,0,0
679,-762,0,0,0,0,0,0,0,0,0,-1,1903,1786,0,0
686,-762,0,0,0,0,0,0,0,0,0,-1,1910,1786,0,0
693,-762,0,0,0,0,0,0,0,0,0,-1,1917,1786,0,0
700,-762,0,0,0,0,0,0,0,0,0,-1,1924,1786,0,0
707,-762,0,0,0,0,0,0,0,0,0,-1,1931,1786,0,0
714,-762,0,0,0,0,0,0,0,0,0,-1,1938,1786,0,0
721,-762,0,0,0,0,0,0,0,0,0,-1,1945,1786,0,0
728,-762,0,0,0,0,0,0,0,0,0,-1,1952,1786,0,0
735,-762,0,0,0,0,0,0,0,0,0,-1,1959,1786,0,0
742,-762,0,0,0,0,0,0,0,0,0,-1,1966,1786,0,0
749,-762,0,0,0,0,0,0,0,0,0,-1,1973,1786,0,0
756,-762,0,0,0,0,0,0,0,0,0,-1,1980,1786,0,0
763,-762,0,0,0,0,0,0,0,0,0,-1,1987,1786,0,0
770,-762,0,0,0,0,0,0,0,0,0,-1,1994,1786,0,0
777,-762,0,0,0,0,0,0,0,0,0,-1,2001,1786,0,0
784,-762,0,0,0,0,0,0,0,0,0,-1,2008,1786,0,0
791,-762,0,0,0,0,0,0,0,0,0,-1,2015,1786,0,0
798,-762,0,0,0,0,0,0,0,0,0,-1,2022,1786,0,0
805,-762,0,0,0,0,0,0,0,0,0,-1,2029,1786,0,0
812,-762,0,0,0,0,0,0,0,0,0,-1,2036,1786,0,0
-700,-769,0,0,0,0,0,0,0,0,0,-1,524,1793,0,0
-693,-769,0,0,0,0,0,0,0,0,0,-1,531,1793,0,0
-686,-769,0,0,0,0,0,0,0,0,0,-1,538,1793,0,0
-679,-769,0,0,0,0,0,0,0,0,0,-1,545,1793,0,0
-672,-769,0,0,0,0,0,0,0,0,0,-1,552,1793,0,0
-665,-769,0,0,0,0,0,0,0,0,0,-1,559,1793,0,0
-658,-769,0,0,0,0,0,0,0,0,0,-1,566,1793,0,0
-651,-769,0,0,0,0,0,0,0,0,0,-1,573,1793,0,0
-644,-769,0,0,0,0,0,0,0,0,0,-1,580,1793,0,0
-637,-769,0,0,0,0,0,0,0,0,0,-1,587,1793,0,0
-630,-769,0,0,0,0,0,0,0,0,0,-1,594,1793,0,0
-623,-769,0,0,0,0,0,0,0,0,0,-1,601,1793,0,0
-616,-769,0,0,0,0,0,0,0,0,0,-1,608,1793,0,0
-609,-769,0,0,0,0,0,0,0,0,0,-1,615,1793,0,0
-602,-769,0,0,0,0,0,0,0,0,0,-1,622,1793,0,0
-595,-769,0,0,0,0,0,0,0,0,0,-1,629,1793,0,0
-588,-769,0,0,0,0,0,0,0,0,0,-1,636,1793,0,0
-581,-769,0,0,0,0,0,0,0,0,0,-1,643,1793,0,0
-574,-769,0,0,0,0,0,0,0,0,0,-1,650,1793,0,0
-567,-769,0,0,0,0,0,0,0,0,0,-1,657,1793,0,0
-560,-769,0,0,0,0,0,0,0,0,0,-1,664,1793,0,0
-553,-769,0,0,0,0,0,0,0,0,0,-1,671,1793,0,0
-546,-769,0,0,0,0,0,0,0,0,0,-1,678,1793,0,0
-539,-769,0,0,0,0,0,0,0,0,0,-1,685,1793,0,0
-532,-769,0,0,0,0,0,0,0,0,0,-1,692,1793,0,0
-525,-769,0,0,0,0,0,0,0,0,0,-1,699,1793,0,0
-518,-769,0,0,0,0,0,0,0,0,0,-1,706,1793,0,0
-511,-769,0,0,0,0,0,0,0,0,0,-1,713,1793,0,0
-504,-769,0,0,0,0,0,0,0,0,0,-1,720,1793,0,0
-497,-769,0,0,0,0,0,0,0,0,0,-1,727,1793,0,0
-490,-769,0,0,0,0,0,0,0,0,0,-1,734,1793,0,0
-483,-769,0,0,0,0,0,0,0,0,0,-1,741,1793,0,0
-476,-769,0,0,0,0,0,0,0,0,0,-1,748,1793,0,0
-469,-769,0,0,0,0,0,0,0,0,0,-1,755,1793,0,0
-462,-769,0,0,0,0,0,0,0,0,0,-1,762,1793,0,0
-455,-769,0,0,0,0,0,0,0,0,0,-1,769,1793,0,0
-448,-769,0,0,0,0,0,0,0,0,0,-1,776,1793,0,0
-441,-769,0,0,0,0,0,0,0,0,0,-1,783,1793,0,0
-434,-769,0,0,0,0,0,0,0,0,0,-1,790,1793,0,0
-427,-769,0,0,0,0,0,0,0,0,0,-1,797,1793,0,0
-420,-769,0,0,0,0,0,0,0,0,0,-1,804,1793,0,0
-413,-769,0,0,0,0,0,0,0,0,0,-1,811,1793,0,0
-406,-769,0,0,0,0,0,0,0,0,0,-1,818,1793,0,0
-399,-769,0,0,0,0,0,0,0,0,0,-1,825,1793,0,0
-392,-769,0,0,0,0,0,0,0,0,0,-1,832,1793,0,0
-385,-769,0,0,0,0,0,0,0,0,0,-1,839,1793,0,0
-378,-769,0,0,0,0,0,0,0,0,0,-1,846,1793,0,0
-371,-769,0,0,0,0,0,0,0,0,0,-1,853,1793,0,0
-364,-769,0,0,0,0,0,0,0,0,0,-1,860,1793,0,0
-357,-769,0,0,0,0,0,0,0,0,0,-1,867,1793,0,0
-350,-769,0,0,0,0,0,0,0,0,0,-1,874,1793,0,0
-343,-769,0,0,0,0,0,0,0,0,0,-1,881,1793,0,0
-336,-769,0,0,0,0,0,0,0,0,0,-1,888,1793,0,0
-329,-769,0,0,0,0,0,0,0,0,0,-1,895,1793,0,0
-322,-769,0,0,0,0,0,0,0,0,0,-1,902,1793,0,0
-315,-769,0,0,0,0,0,0,0,0,0,-1,909,1793,0,0
-308,-769,0,0,0,0,0,0,0,0,0,-1,916,1793,0,0
-301,-769,0,0,0,0,0,0,0,0,0,-1,923,1793,0,0
-294,-769,0,0,0,0,0,0,0,0,0,-1,930,1793,0,0
-287,-769,0,0,0,0,0,0,0,0,0,-1,937,1793,0,0
-280,-769,0,0,0,0,0,0,0,0,0,-1,944,1793,0,0
-273,-769,0,0,0,0,0,0,0,0,0,-1,951,1793,0,0
-266,-769,0,0,0,0,0,0,0,0,0,-1,958,1793,0,0
-259,-769,0,0,0,0,0,0,0,0,0,-1,965,1793,0,0
-252,-769,0,0,0,0,0,0,0,0,0,-1,972,1793,0,0
-245,-769,0,0,0,0,0,0,0,0,0,-1,979,1793,0,0
-238,-769,0,0,0,0,0,0,0,0,0,-1,986,1793,0,0
-231,-769,0,0,0,0,0,0,0,0,0,-1,993,1793,0,0
-224,-769,0,0,0,0,0,0,0,0,0,-1,1000,1793,0,0
-217,-769,0,0,0,0,0,0,0,0,0,-1,1007,1793,0,0
-210,-769,0,0,0,0,0,0,0,0,0,-1,1014,1793,0,0
-203,-769,0,0,0,0,0,0,0,0,0,-1,1021,1793,0,0
-196,-769,0,0,0,0,0,0,0,0,0,-1,1028,1793,0,0
-189,-769,0,0,0,0,0,0,0,0,0,-1,1035,1793,0,0
-182,-769,0,0,0,0,0,0,0,0,0,-1,1042,1793,0,0
-175,-769,0,0,0,0,0,0,0,0,0,-1,1049,1793,0,0
-168,-769,0,0,0,0,0,0,0,0,0,-1,1056,1793,0,0
-161,-769,-3.61145,12.4761,0,0,0,0,0,0,0,-1,1063,1793,-3.6114,-12.476
-154,-769,-0.813232,5.32874,0,0,0,0,0,0,0,-1,1070,1793,-0.813269,-5.32872
-147,-769,4.26587,4.7002,0,0,0,0,0,0,0,-1,1077,1793,4.26593,-4.70022
-140,-769,4.10376,5.28589,0,0,0,0,0,0,0,-1,1084,1793,4.10371,-5.28584
-133,-769,6.422,8.21777,0,0,0,0,0,0,0,-1,1091,1793,6.42198,-8.21773
-126,-769,6.31982,15.8481,0,0,0,0,0,0,0,-1,1098,1793,6.31985,-15.8482
-119,-769,6.01685,16.2577,0,0,0,0,0,0,0,-1,1105,1793,6.01689,-16.2576
-112,-769,5.12683,14.746,0,0,0,0,0,0,0,-1,1112,1793,5.12682,-14.746
-105,-769,5.48938,18.1936,0,0,0,0,0,0,0,-1,1119,1793,5.48932,-18.1936
-98,-769,4.79919,17.3583,0,0,0,0,0,0,0,-1,1126,1793,4.79922,-17.3583
-91,-769,3.46667,14.9108,0,0,0,0,0,0,0,-1,1133,1793,3.46666,-14.9108
-84,-769,2.97742,11.9479,0,0,0,0,0,0,0,-1,1140,1793,2.97741,-11.9478
-77,-769,2.48816,8.98486,0,0,0,0,0,0,0,-1,1147,1793,2.48815,-8.98489
-70,-769,1.04944,11.9852,0,0,0,0,0,0,0,-1,1154,1793,1.04947,-11.9852
-63,-769,-2.39709,9.60339,0,0,0,0,0,0,0,-1,1161,1793,-2.39706,-9.6034
-56,-769,-5.84363,7.22156,0,0,0,0,0,0,0,-1,1168,1793,-5.84359,-7.22157
-49,-769,-2.41443,3.95471,0,0,0,0,0,0,0,-1,1175,1793,-2.41446,-3.95471
-42,-769,-3.1991,2.64941,0,0,0,0,0,0,0,-1,1182,1793,-3.19914,-2.64944
-35,-769,-3.50183,1.73389,0,0,0,0,0,0,0,-1,1189,1793,-3.50189,-1.7339
-28,-769,-3.96985,1.14075,0,0,0,0,0,0,0,-1,1196,1793,-3.96985,-1.14078
-21,-769,3.32703,16.424,0,0,0,0,0,0,0,-1,1203,1793,3.32707,-16.424
-14,-769,5.16431,20.126,0,0,0,0,0,0,0,-1,1210,1793,5.1643,-20.126
-7,-769,5.35876,19.9631,0,0,0,0,0,0,0,-1,1217,1793,5.35877,-19.9631
0,-769,5.39783,19.9067,-0.00994963,-0.0201832,0.00918562,-0.00455181,-0.0255811,0.53128,0.0157575,0.0454584,1224,1793,5.39783,-19.9067
7,-769,5.41577,19.9403,-0.00828076,-0.0190571,0.0171415,0.00429946,-0.0316373,0.63312,0.0226611,0.0427272,1231,1793,5.41573,-19.9403
14,-769,5.15332,20.1519,-0.00535258,-0.0186477,0.0242263,0.0131216,-0.0371219,0.651497,0.030091,0.0421295,1238,1793,5.15333,-20.1519
21,-769,4.76575,20.4385,-0.00141027,-0.0187601,0.0299418,0.021088,-0.0412583,0.644396,0.0366182,0.0438874,1245,1793,4.7658,-20.4385
28,-769,4.34717,20.2896,0.00404891,-0.0194137,0.0340881,0.0283679,-0.0437327,0.619673,0.0419412,0.0435885,1252,1793,4.3472,-20.2895
35,-769,3.99438,20.278,0.0100516,-0.0202294,0.0362827,0.0342261,-0.0444039,0.587735,0.0455236,0.046701,1259,1793,3.99433,-20.278
42,-769,4.3252,20.4784,0.0158821,-0.0204356,0.0375908,0.0394702,-0.0440238,0.560394,0.0482292,0.0459199,1266,1793,4.32518,-20.4784
49,-769,4.56799,20.6047,0.0216496,-0.021257,0.0378923,0.0437402,-0.0433476,0.527814,0.0502804,0.0464482,1273,1793,4.56795,-20.6047
56,-769,5.24536,20.4254,0.0256435,-0.0222112,0.0358699,0.0448342,-0.0414019,0.491261,0.0498016,0.0441747,1280,1793,5.24542,-20.4254
63,-769,5.29089,20.4713,0,0,0,0,0,0,0,-1,1287,1793,5.29094,-20.4713
70,-769,5.52002,20.3005,0,0,0,0,0,0,0,-1,1294,1793,5.51996,-20.3005
77,-769,5.64172,20.2328,0,0,0,0,0,0,0,-1,1301,1793,5.64166,-20.2328
84,-769,5.4635,20.4034,0.0280407,-0.0159669,0.0223724,0.0374167,-0.0253429,0.396852,0.0364571,0.0428436,1308,1793,5.46356,-20.4034
91,-769,5.41492,20.467,0.0226081,-0.00958357,0.0189223,0.0313544,-0.0183298,0.432968,0.0290119,0.0431956,1315,1793,5.41489,-20.467
98,-769,5.36987,20.9025,0.0156344,-0.00357513,0.0159477,0.0246463,-0.012587,0.514355,0.0218693,0.0444051,1322,1793,5.3699,-20.9025
105,-769,4.94275,21.2894,0.00808584,0.00292781,0.0129649,0.0187257,-0.00771205,0.687218,0.0156991,0.04453,1329,1793,4.94269,-21.2894
112,-769,5.21252,19.8868,0,0,0,0,0,0,0,-1,1336,1793,5.2125,-19.8869
119,-769,5.24731,20.077,0,0,0,0,0,0,0,-1,1343,1793,5.24736,-20.077
126,-769,5.672,19.9191,0,0,0,0,0,0,0,-1,1350,1793,5.67204,-19.9191
133,-769,4.79285,20.1075,0,0,0,0,0,0,0,-1,1357,1793,4.79282,-20.1075
140,-769,4.20166,20.0704,0,0,0,0,0,0,0,-1,1364,1793,4.20172,-20.0704
147,-769,4.11194,20.197,0,0,0,0,0,0,0,-1,1371,1793,4.11189,-20.197
154,-769,6.37561,1.00024,0,0,0,0,0,0,0,-1,1378,1793,6.37566,-1.00028
161,-769,6.57019,1.53223,0,0,0,0,0,0,0,-1,1385,1793,6.57019,-1.53226
168,-769,8.27637,0.756958,0,0,0,0,0,0,0,-1,1392,1793,8.27639,-0.756944
175,-769,8.47144,2.41174,0,0,0,0,0,0,0,-1,1399,1793,8.47147,-2.4118
182,-769,8.41479,4.05994,0,0,0,0,0,0,0,-1,1406,1793,8.41479,-4.05997
189,-769,8.25049,5.68433,0,0,0,0,0,0,0,-1,1413,1793,8.25054,-5.68428
196,-769,7.97729,7.42847,0,0,0,0,0,0,0,-1,1420,1793,7.9773,-7.42848
203,-769,22.0977,6.73889,0,0,0,0,0,0,0,-1,1427,1793,22.0977,-6.7389
210,-769,22.1115,7.77246,0,0,0,0,0,0,0,-1,1434,1793,22.1115,-7.77248
217,-769,22.4723,8.79102,0,0,0,0,0,0,0,-1,1441,1793,22.4723,-8.79099
224,-769,22.1348,9.35278,0,0,0,0,0,0,0,-1,1448,1793,22.1348,-9.35283
231,-769,3.13318,19.7184,0,0,0,0,0,0,0,-1,1455,1793,3.13323,-19.7184
238,-769,3.60303,16.9788,0,0,0,0,0,0,0,-1,1462,1793,3.60307,-16.9788
245,-769,4.02356,14.7208,0,0,0,0,0,0,0,-1,1469,1793,4.0235,-14.7208
252,-769,4.34961,12.5251,0,0,0,0,0,0,0,-1,1476,1793,4.34959,-12.5252
259,-769,16.4871,7.42102,0,0,0,0,0,0,0,-1,1483,1793,16.4871,-7.42104
266,-769,15.8488,7.3905,0,0,0,0,0,0,0,-1,1490,1793,15.8488,-7.39046
273,-769,14.8075,7.56152,0,0,0,0,0,0,0,-1,1497,1793,14.8075,-7.56152
280,-769,13.6519,7.43054,0,0,0,0,0,0,0,-1,1504,1793,13.6518,-7.43058
287,-769,0,0,0,0,0,0,0,0,0,-1,1511,1793,0,0
294,-769,0,0,0,0,0,0,0,0,0,-1,1518,1793,0,0
301,-769,0,0,0,0,0,0,0,0,0,-1,1525,1793,0,0
308,-769,0,0,0,0,0,0,0,0,0,-1,1532,1793,0,0
315,-769,0,0,0,0,0,0,0,0,0,-1,1539,1793,0,0
322,-769,0,0,0,0,0,0,0,0,0,-1,1546,1793,0,0
329,-769,0,0,0,0,0,0,0,0,0,-1,1553,1793,0,0
336,-769,0,0,0,0,0,0,0,0,0,-1,1560,1793,0,0
343,-769,0,0,0,0,0,0,0,0,0,-1,1567,1793,0,0
350,-769,0,0,0,0,0,0,0,0,0,-1,1574,1793,0,0
357,-769,0,0,0,0,0,0,0,0,0,-1,1581,1793,0,0
364,-769,0,0,0,0,0,0,0,0,0,-1,1588,1793,0,0
371,-769,0,0,0,0,0,0,0,0,0,-1,1595,1793,0,0
378,-769,0,0,0,0,0,0,0,0,0,-1,1602,1793,0,0
385,-769,0,0,0,0,0,0,0,0,0,-1,1609,1793,0,0
392,-769,0,0,0,0,0,0,0,0,0,-1,1616,1793,0,0
399,-769,0,0,0,0,0,0,0,0,0,-1,1623,1793,0,0
406,-769,0,0,0,0,0,0,0,0,0,-1,1630,1793,0,0
413,-769,0,0,0,0,0,0,0,0,0,-1,1637,1793,0,0
420,-769,0,0,0,0,0,0,0,0,0,-1,1644,1793,0,0
427,-769,0,0,0,0,0,0,0,0,0,-1,1651,1793,0,0
434,-769,0,0,0,0,0,0,0,0,0,-1,1658,1793,0,0
441,-769,0,0,0,0,0,0,0,0,0,-1,1665,1793,0,0
448,-769,0,0,0,0,0,0,0,0,0,-1,1672,1793,0,0
455,-769,0,0,0,0,0,0,0,0,0,-1,1679,1793,0,0
462,-769,0,0,0,0,0,0,0,0,0,-1,1686,1793,0,0
469,-769,0,0,0,0,0,0,0,0,0,-1,1693,1793,0,0
476,-769,0,0,0,0,0,0,0,0,0,-1,1700,1793,0,0
483,-769,0,0,0,0,0,0,0,0,0,-1,1707,1793,0,0
490,-769,0,0,0,0,0,0,0,0,0,-1,1714,1793,0,0
497,-769,0,0,0,0,0,0,0,0,0,-1,1721,1793,0,0
504,-769,0,0,0,0,0,0,0,0,0,-1,1728,1793,0,0
511,-769,0,0,0,0,0,0,0,0,0,-1,1735,1793,0,0
518,-769,0,0,0,0,0,0,0,0,0,-1,1742,1793,0,0
525,-769,0,0,0,0,0,0,0,0,0,-1,1749,1793,0,0
532,-769,0,0,0,0,0,0,0,0,0,-1,1756,1793,0,0
539,-769,0,0,0,0,0,0,0,0,0,-1,1763,1793,0,0
546,-769,0,0,0,0,0,0,0,0,0,-1,1770,1793,0,0
553,-769,0,0,0,0,0,0,0,0,0,-1,1777,1793,0,0
560,-769,0,0,0,0,0,0,0,0,0,-1,1784,1793,0,0
567,-769,0,0,0,0,0,0,0,0,0,-1,1791,1793,0,0
574,-769,0,0,0,0,0,0,0,0,0,-1,1798,1793,0,0
581,-769,0,0,0,0,0,0,0,0,0,-1,1805,1793,0,0
588,-769,0,0,0,0,0,0,0,0,0,-1,1812,1793,0,0
595,-769,0,0,0,0,0,0,0,0,0,-1,1819,1793,0,0
602,-769,0,0,0,0,0,0,0,0,0,-1,1826,1793,0,0
609,-769,0,0,0,0,0,0,0,0,0,-1,1833,1793,0,0
616,-769,0,0,0,0,0,0,0,0,0,-1,1840,1793,0,0
623,-769,0,0,0,0,0,0,0,0,0,-1,1847,1793,0,0
630,-769,0,0,0,0,0,0,0,0,0,-1,1854,1793,0,0
637,-769,0,0,0,0,0,0,0,0,0,-1,1861,1793,0,0
644,-769,0,0,0,0,0,0,0,0,0,-1,1868,1793,0,0
651,-769,0,0,0,0,0,0,0,0,0,-1,1875,1793,0,0
658,-769,0,0,0,0,0,0,0,0,0,-1,1882,1793,0,0
665,-769,0,0,0,0,0,0,0,0,0,-1,1889,1793,0,0
672,-769,0,0,0,0,0,0,0,0,0,-1,1896,1793,0,0
679,-769,0,0,0,0,0,0,0,0,0,-1,1903,1793,0,0
686,-769,0,0,0,0,0,0,0,0,0,-1,1910,1793,0,0
693,-769,0,0,0,0,0,0,0,0,0,-1,1917,1793,0,0
700,-769,0,0,0,0,0,0,0,0,0,-1,1924,1793,0,0
707,-769,0,0,0,0,0,0,0,0,0,-1,1931,1793,0,0
714,-769,0,0,0,0,0,0,0,0,0,-1,1938,1793,0,0
721,-769,0,0,0,0,0,0,0,0,0,-1,1945,1793,0,0
728,-769,0,0,0,0,0,0,0,0,0,-1,1952,1793,0,0
735,-769,0,0,0,0,0,0,0,0,0,-1,1959,1793,0,0
742,-769,0,0,0,0,0,0,0,0,0,-1,1966,1793,0,0
749,-769,0,0,0,0,0,0,0,0,0,-1,1973,1793,0,0
756,-769,0,0,0,0,0,0,0,0,0,-1,1980,1793,0,0
763,-769,0,0,0,0,0,0,0,0,0,-1,1987,1793,0,0
770,-769,0,0,0,0,0,0,0,0,0,-1,1994,1793,0,0
777,-769,0,0,0,0,0,0,0,0,0,-1,2001,1793,0,0
784,-769,0,0,0,0,0,0,0,0,0,-1,2008,1793,0,0
791,-769,0,0,0,0,0,0,0,0,0,-1,2015,1793,0,0
798,-769,0,0,0,0,0,0,0,0,0,-1,2022,1793,0,0
805,-769,0,0,0,0,0,0,0,0,0,-1,2029,1793,0,0
812,-769,0,0,0,0,0,0,0,0,0,-1,2036,1793,0,0
-700,-776,0,0,0,0,0,0,0,0,0,-1,524,1800,0,0
-693,-776,0,0,0,0,0,0,0,0,0,-1,531,1800,0,0
-686,-776,0,0,0,0,0,0,0,0,0,-1,538,1800,0,0
-679,-776,0,0,0,0,0,0,0,0,0,-1,545,1800,0,0
-672,-776,0,0,0,0,0,0,0,0,0,-1,552,1800,0,0
-665,-776,0,0,0,0,0,0,0,0,0,-1,559,1800,0,0
-658,-776,0,0,0,0,0,0,0,0,0,-1,566,1800,0,0
-651,-776,0,0,0,0,0,0,0,0,0,-1,573,1800,0,0
-644,-776,0,0,0,0,0,0,0,0,0,-1,580,1800,0,0
-637,-776,0,0,0,0,0,0,0,0,0,-1,587,1800,0,0
-630,-776,0,0,0,0,0,0,0,0,0,-1,594,1800,0,0
-623,-776,0,0,0,0,0,0,0,0,0,-1,601,1800,0,0
-616,-776,0,0,0,0,0,0,0,0,0,-1,608,1800,0,0
-609,-776,0,0,0,0,0,0,0,0,0,-1,615,1800,0,0
-602,-776,0,0,0,0,0,0,0,0,0,-1,622,1800,0,0
-595,-776,0,0,0,0,0,0,0,0,0,-1,629,1800,0,0
-588,-776,0,0,0,0,0,0,0,0,0,-1,636,1800,0,0
-581,-776,0,0,0,0,0,0,0,0,0,-1,643,1800,0,0
-574,-776,0,0,0,0,0,0,0,0,0,-1,650,1800,0,0
-567,-776,0,0,0,0,0,0,0,0,0,-1,657,1800,0,0
-560,-776,0,0,0,0,0,0,0,0,0,-1,664,1800,0,0
-553,-776,0,0,0,0,0,0,0,0,0,-1,671,1800,0,0
-546,-776,0,0,0,0,0,0,0,0,0,-1,678,1800,0,0
-539,-776,0,0,0,0,0,0,0,0,0,-1,685,1800,0,0
-532,-776,0,0,0,0,0,0,0,0,0,-1,692,1800,0,0
-525,-776,0,0,0,0,0,0,0,0,0,-1,699,1800,0,0
-518,-776,0,0,0,0,0,0,0,0,0,-1,706,1800,0,0
-511,-776,0,0,0,0,0,0,0,0,0,-1,713,1800,0,0
-504,-776,0,0,0,0,0,0,0,0,0,-1,720,1800,0,0
-497,-776,0,0,0,0,0,0,0,0,0,-1,727,1800,0,0
-490,-776,0,0,0,0,0,0,0,0,0,-1,734,1800,0,0
-483,-776,0,0,0,0,0,0,0,0,0,-1,741,1800,0,0
-476,-776,0,0,0,0,0,0,0,0,0,-1,748,1800,0,0
-469,-776,0,0,0,0,0,0,0,0,0,-1,755,1800,0,0
-462,-776,0,0,0,0,0,0,0,0,0,-1,762,1800,0,0
-455,-776,0,0,0,0,0,0,0,0,0,-1,769,1800,0,0
-448,-776,0,0,0,0,0,0,0,0,0,-1,776,1800,0,0
-441,-776,0,0,0,0,0,0,0,0,0,-1,783,1800,0,0
-434,-776,0,0,0,0,0,0,0,0,0,-1,790,1800,0,0
-427,-776,0,0,0,0,0,0,0,0,0,-1,797,1800,0,0
-420,-776,0,0,0,0,0,0,0,0,0,-1,804,1800,0,0
-413,-776,0,0,0,0,0,0,0,0,0,-1,811,1800,0,0
-406,-776,0,0,0,0,0,0,0,0,0,-1,818,1800,0,0
-399,-776,0,0,0,0,0,0,0,0,0,-1,825,1800,0,0
-392,-776,0,0,0,0,0,0,0,0,0,-1,832,1800,0,0
-385,-776,0,0,0,0,0,0,0,0,0,-1,839,1800,0,0
-378,-776,0,0,0,0,0,0,0,0,0,-1,846,1800,0,0
-371,-776,0,0,0,0,0,0,0,0,0,-1,853,1800,0,0
-364,-776,0,0,0,0,0,0,0,0,0,-1,860,1800,0,0
-357,-776,0,0,0,0,0,0,0,0,0,-1,867,1800,0,0
-350,-776,0,0,0,0,0,0,0,0,0,-1,874,1800,0,0
-343,-776,0,0,0,0,0,0,0,0,0,-1,881,1800,0,0
-336,-776,0,0,0,0,0,0,0,0,0,-1,888,1800,0,0
-329,-776,0,0,0,0,0,0,0,0,0,-1,895,1800,0,0
-322,-776,0,0,0,0,0,0,0,0,0,-1,902,1800,0,0
-315,-776,0,0,0,0,0,0,0,0,0,-1,909,1800,0,0
-308,-776,0,0,0,0,0,0,0,0,0,-1,916,1800,0,0
-301,-776,0,0,0,0,0,0,0,0,0,-1,923,1800,0,0
-294,-776,0,0,0,0,0,0,0,0,0,-1,930,1800,0,0
-287,-776,0,0,0,0,0,0,0,0,0,-1,937,1800,0,0
-280,-776,0,0,0,0,0,0,0,0,0,-1,944,1800,0,0
-273,-776,0,0,0,0,0,0,0,0,0,-1,951,1800,0,0
-266,-776,0,0,0,0,0,0,0,0,0,-1,958,1800,0,0
-259,-776,0,0,0,0,0,0,0,0,0,-1,965,1800,0,0
-252,-776,0,0,0,0,0,0,0,0,0,-1,972,1800,0,0
-245,-776,0,0,0,0,0,0,0,0,0,-1,979,1800,0,0
-238,-776,0,0,0,0,0,0,0,0,0,-1,986,1800,0,0
-231,-776,0,0,0,0,0,0,0,0,0,-1,993,1800,0,0
-224,-776,0,0,0,0,0,0,0,0,0,-1,1000,1800,0,0
-217,-776,0,0,0,0,0,0,0,0,0,-1,1007,1800,0,0
-210,-776,0,0,0,0,0,0,0,0,0,-1,1014,1800,0,0
-203,-776,0,0,0,0,0,0,0,0,0,-1,1021,1800,0,0
-196,-776,0,0,0,0,0,0,0,0,0,-1,1028,1800,0,0
-189,-776,0,0,0,0,0,0,0,0,0,-1,1035,1800,0,0
-182,-776,0,0,0,0,0,0,0,0,0,-1,1042,1800,0,0
-175,-776,0,0,0,0,0,0,0,0,0,-1,1049,1800,0,0
-168,-776,0,0,0,0,0,0,0,0,0,-1,1056,1800,0,0
-161,-776,0,0,0,0,0,0,0,0,0,-1,1063,1800,0,0
-154,-776,0,0,0,0,0,0,0,0,0,-1,1070,1800,0,0
-147,-776,0,0,0,0,0,0,0,0,0,-1,1077,1800,0,0
-140,-776,2.98499,5.20911,0,0,0,0,0,0,0,-1,1084,1800,2.98493,-5.2091
-133,-776,6.72363,9.35828,0,0,0,0,0,0,0,-1,1091,1800,6.72358,-9.35824
-126,-776,6.55029,13.7832,0,0,0,0,0,0,0,-1,1098,1800,6.55029,-13.7832
-119,-776,5.72107,13.7787,0,0,0,0,0,0,0,-1,1105,1800,5.72106,-13.7787
-112,-776,6.84998,20.4421,0,0,0,0,0,0,0,-1,1112,1800,6.84993,-20.4421
-105,-776,6.05493,19.5604,0,0,0,0,0,0,0,-1,1119,1800,6.05495,-19.5604
-98,-776,5.25793,18.6969,0,0,0,0,0,0,0,-1,1126,1800,5.25788,-18.6969
-91,-776,4.09448,17.8494,0,0,0,0,0,0,0,-1,1133,1800,4.09446,-17.8494
-84,-776,2.95251,13.1073,0,0,0,0,0,0,0,-1,1140,1800,2.95251,-13.1073
-77,-776,0.580078,11.1272,0,0,0,0,0,0,0,-1,1147,1800,0.58002,-11.1272
-70,-776,-0.562866,12.3163,0,0,0,0,0,0,0,-1,1154,1800,-0.562897,-12.3163
-63,-776,-3.96106,9.97656,0,0,0,0,0,0,0,-1,1161,1800,-3.961,-9.97654
-56,-776,-7.35913,7.63672,0,0,0,0,0,0,0,-1,1168,1800,-7.3591,-7.63676
-49,-776,-7.62952,3.1908,0,0,0,0,0,0,0,-1,1175,1800,-7.62955,-3.19076
-42,-776,-3.41272,3.0249,0,0,0,0,0,0,0,-1,1182,1800,-3.41269,-3.02488
-35,-776,-3.71753,1.63635,0,0,0,0,0,0,0,-1,1189,1800,-3.71755,-1.63631
-28,-776,-4.03979,0.716064,0,0,0,0,0,0,0,-1,1196,1800,-4.03977,-0.716055
-21,-776,2.72485,17.3027,0,0,0,0,0,0,0,-1,1203,1800,2.72485,-17.3027
-14,-776,5.62524,20.4651,0,0,0,0,0,0,0,-1,1210,1800,5.62529,-20.4651
-7,-776,5.44299,20.1255,-0.0125034,-0.0304301,-0.00296812,-0.0120247,-0.0309088,-0.159887,0.0179911,0.0476472,1217,1800,5.44299,-20.1255
0,-776,5.4209,19.8171,-0.0110405,-0.0274292,0.0093747,-0.00678361,-0.031686,0.42624,0.0192651,0.0468313,1224,1800,5.42096,-19.8172
7,-776,5.41223,19.8521,-0.00857335,-0.0260093,0.0204368,0.00492727,-0.03951,0.583793,0.0281266,0.0490332,1231,1800,5.41229,-19.852
14,-776,4.62048,20.0684,-0.00450703,-0.0253737,0.0301602,0.0169735,-0.0468542,0.618876,0.0381732,0.0428262,1238,1800,4.62046,-20.0684
21,-776,4.5791,20.7241,0.000873661,-0.0254267,0.0379103,0.0278497,-0.0524027,0.618454,0.0470511,0.0445292,1245,1800,4.57911,-20.7241
28,-776,4.08105,19.8206,0.00801122,-0.0261608,0.0434336,0.0375987,-0.0557482,0.598004,0.0542323,0.0442498,1252,1800,4.08105,-19.8205
35,-776,3.80798,19.838,0.0158153,-0.0271568,0.0464497,0.0455076,-0.0568491,0.568771,0.0592165,0.0473288,1259,1800,3.80796,-19.838
42,-776,3.62573,20.5828,0,0,0,0,0,0,0,-1,1266,1800,3.62568,-20.5828
49,-776,3.97961,20.7872,0.0309768,-0.028382,0.0489876,0.0585743,-0.0559796,0.513041,0.0661434,0.0485356,1273,1800,3.97957,-20.7873
56,-776,4.12512,20.9507,0.0364826,-0.0295185,0.0463412,0.0603726,-0.0534086,0.475991,0.0657326,0.0493924,1280,1800,4.12518,-20.9507
63,-776,4.3866,20.8153,0.0411753,-0.0297473,0.0428346,0.0613225,-0.0498945,0.439647,0.0643241,0.047461,1287,1800,4.38655,-20.8153
70,-776,4.63477,20.6626,0,0,0,0,0,0,0,-1,1294,1800,4.63473,-20.6626
77,-776,5.17676,20.5197,0.0439006,-0.0265638,0.0341156,0.057711,-0.0403742,0.384649,0.0569237,0.0481773,1301,1800,5.17672,-20.5197
84,-776,5.54065,20.3435,0.0405414,-0.0217002,0.0295004,0.0523016,-0.0334603,0.379337,0.0499114,0.0452415,1308,1800,5.5407,-20.3435
91,-776,5.5448,20.4937,0.0334038,-0.0130827,0.0251145,0.0443803,-0.0240591,0.412038,0.0400899,0.0444538,1315,1800,5.5448,-20.4937
98,-776,5.58582,20.8794,0.0242715,-0.00477061,0.0212214,0.0354645,-0.0159635,0.485354,0.0303952,0.0450471,1322,1800,5.58583,-20.8794
105,-776,5.21509,21.1101,0.0140119,0.00440187,0.0172376,0.0271016,-0.00868791,0.649473,0.0215555,0.0430473,1329,1800,5.2151,-21.1102
112,-776,4.5719,21.1497,0.00112529,0.0171047,0.0145707,0.0257325,-0.00750248,1.03618,0.0201274,0.0422816,1336,1800,4.57186,-21.1496
119,-776,3.98267,21.3707,-0.0133897,0.0315486,0.0124427,0.0347638,-0.0166049,1.31793,0.0302691,0.0405833,1343,1800,3.98261,-21.3708
126,-776,3.28687,21.8192,-0.0273417,0.04673,0.0107748,0.0482655,-0.0288772,1.42924,0.0450048,0.0424195,1350,1800,3.28683,-21.8192
133,-776,2.62878,22.1583,0,0,0,0,0,0,0,-1,1357,1800,2.62882,-22.1584
140,-776,2.02173,22.4097,0,0,0,0,0,0,0,-1,1364,1800,2.02175,-22.4097
147,-776,1.40674,22.6963,0,0,0,0,0,0,0,-1,1371,1800,1.40677,-22.6963
154,-776,6.43774,0.344116,0,0,0,0,0,0,0,-1,1378,1800,6.43776,-0.344162
161,-776,6.50293,1.1731,0,0,0,0,0,0,0,-1,1385,1800,6.5029,-1.17313
168,-776,8.44971,1.22913,0,0,0,0,0,0,0,-1,1392,1800,8.44974,-1.22915
175,-776,8.61523,2.87061,0,0,0,0,0,0,0,-1,1399,1800,8.6152,-2.87063
182,-776,8.54065,4.60645,0,0,0,0,0,0,0,-1,1406,1800,8.5407,-4.60643
189,-776,8.35303,6.28223,0,0,0,0,0,0,0,-1,1413,1800,8.35297,-6.28225
196,-776,8.0387,8.21704,0,0,0,0,0,0,0,-1,1420,1800,8.03865,-8.217
203,-776,7.91736,9.79919,0,0,0,0,0,0,0,-1,1427,1800,7.91735,-9.79922
210,-776,20.2479,7.85718,0,0,0,0,0,0,0,-1,1434,1800,20.248,-7.85719
217,-776,21.5171,9.3418,0,0,0,0,0,0,0,-1,1441,1800,21.5171,-9.34182
224,-776,3.09253,14.9313,0,0,0,0,0,0,0,-1,1448,1800,3.09254,-14.9313
231,-776,20.8671,9.21057,0,0,0,0,0,0,0,-1,1455,1800,20.867,-9.21054
238,-776,20.7511,9.05847,0,0,0,0,0,0,0,-1,1462,1800,20.7511,-9.05848
245,-776,3.80823,15.4108,0,0,0,0,0,0,0,-1,1469,1800,3.80826,-15.4108
252,-776,16.6313,6.47168,0,0,0,0,0,0,0,-1,1476,1800,16.6313,-6.47165
259,-776,14.1882,7.69055,0,0,0,0,0,0,0,-1,1483,1800,14.1882,-7.69061
266,-776,0,0,0,0,0,0,0,0,0,-1,1490,1800,0,0
273,-776,0,0,0,0,0,0,0,0,0,-1,1497,1800,0,0
280,-776,0,0,0,0,0,0,0,0,0,-1,1504,1800,0,0
287,-776,0,0,0,0,0,0,0,0,0,-1,1511,1800,0,0
294,-776,0,0,0,0,0,0,0,0,0,-1,1518,1800,0,0
301,-776,0,0,0,0,0,0,0,0,0,-1,1525,1800,0,0
308,-776,0,0,0,0,0,0,0,0,0,-1,1532,1800,0,0
315,-776,0,0,0,0,0,0,0,0,0,-1,1539,1800,0,0
322,-776,0,0,0,0,0,0,0,0,0,-1,1546,1800,0,0
329,-776,0,0,0,0,0,0,0,0,0,-1,1553,1800,0,0
336,-776,0,0,0,0,0,0,0,0,0,-1,1560,1800,0,0
343,-776,0,0,0,0,0,0,0,0,0,-1,1567,1800,0,0
350,-776,0,0,0,0,0,0,0,0,0,-1,1574,1800,0,0
357,-776,0,0,0,0,0,0,0,0,0,-1,1581,1800,0,0
364,-776,0,0,0,0,0,0,0,0,0,-1,1588,1800,0,0
371,-776,0,0,0,0,0,0,0,0,0,-1,1595,1800,0,0
378,-776,0,0,0,0,0,0,0,0,0,-1,1602,1800,0,0
385,-776,0,0,0,0,0,0,0,0,0,-1,1609,1800,0,0
392,-776,0,0,0,0,0,0,0,0,0,-1,1616,1800,0,0
399,-776,0,0,0,0,0,0,0,0,0,-1,1623,1800,0,0
406,-776,0,0,0,0,0,0,0,0,0,-1,1630,1800,0,0
413,-776,0,0,0,0,0,0,0,0,0,-1,1637,1800,0,0
420,-776,0,0,0,0,0,0,0,0,0,-1,1644,1800,0,0
427,-776,0,0,0,0,0,0,0,0,0,-1,1651,1800,0,0
434,-776,0,0,0,0,0,0,0,0,0,-1,1658,1800,0,0
441,-776,0,0,0,0,0,0,0,0,0,-1,1665,1800,0,0
448,-776,0,0,0,0,0,0,0,0,0,-1,1672,1800,0,0
455,-776,0,0,0,0,0,0,0,0,0,-1,1679,1800,0,0
462,-776,0,0,0,0,0,0,0,0,0,-1,1686,1800,0,0
469,-776,0,0,0,0,0,0,0,0,0,-1,1693,1800,0,0
476,-776,0,0,0,0,0,0,0,0,0,-1,1700,1800,0,0
483,-776,0,0,0,0,0,0,0,0,0,-1,1707,1800,0,0
490,-776,0,0,0,0,0,0,0,0,0,-1,1714,1800,0,0
497,-776,0,0,0,0,0,0,0,0,0,-1,1721,1800,0,0
504,-776,0,0,0,0,0,0,0,0,0,-1,1728,1800,0,0
511,-776,0,0,0,0,0,0,0,0,0,-1,1735,1800,0,0
518,-776,0,0,0,0,0,0,0,0,0,-1,1742,1800,0,0
525,-776,0,0,0,0,0,0,0,0,0,-1,1749,1800,0,0
532,-776,0,0,0,0,0,0,0,0,0,-1,1756,1800,0,0
539,-776,0,0,0,0,0,0,0,0,0,-1,1763,1800,0,0
546,-776,0,0,0,0,0,0,0,0,0,-1,1770,1800,0,0
553,-776,0,0,0,0,0,0,0,0,0,-1,1777,1800,0,0
560,-776,0,0,0,0,0,0,0,0,0,-1,1784,1800,0,0
567,-776,0,0,0,0,0,0,0,0,0,-1,1791,1800,0,0
574,-776,0,0,0,0,0,0,0,0,0,-1,1798,1800,0,0
581,-776,0,0,0,0,0,0,0,0,0,-1,1805,1800,0,0
588,-776,0,0,0,0,0,0,0,0,0,-1,1812,1800,0,0
595,-776,0,0,0,0,0,0,0,0,0,-1,1819,1800,0,0
602,-776,0,0,0,0,0,0,0,0,0,-1,1826,1800,0,0
609,-776,0,0,0,0,0,0,0,0,0,-1,1833,1800,0,0
616,-776,0,0,0,0,0,0,0,0,0,-1,1840,1800,0,0
623,-776,0,0,0,0,0,0,0,0,0,-1,1847,1800,0,0
630,-776,0,0,0,0,0,0,0,0,0,-1,1854,1800,0,0
637,-776,0,0,0,0,0,0,0,0,0,-1,1861,1800,0,0
644,-776,0,0,0,0,0,0,0,0,0,-1,1868,1800,0,0
651,-776,0,0,0,0,0,0,0,0,0,-1,1875,1800,0,0
658,-776,0,0,0,0,0,0,0,0,0,-1,1882,1800,0,0
665,-776,0,0,0,0,0,0,0,0,0,-1,1889,1800,0,0
672,-776,0,0,0,0,0,0,0,0,0,-1,1896,1800,0,0
679,-776,0,0,0,0,0,0,0,0,0,-1,1903,1800,0,0
686,-776,0,0,0,0,0,0,0,0,0,-1,1910,1800,0,0
693,-776,0,0,0,0,0,0,0,0,0,-1,1917,1800,0,0
700,-776,0,0,0,0,0,0,0,0,0,-1,1924,1800,0,0
707,-776,0,0,0,0,0,0,0,0,0,-1,1931,1800,0,0
714,-776,0,0,0,0,0,0,0,0,0,-1,1938,1800,0,0
721,-776,0,0,0,0,0,0,0,0,0,-1,1945,1800,0,0
728,-776,0,0,0,0,0,0,0,0,0,-1,1952,1800,0,0
735,-776,0,0,0,0,0,0,0,0,0,-1,1959,1800,0,0
742,-776,0,0,0,0,0,0,0,0,0,-1,1966,1800,0,0
749,-776,0,0,0,0,0,0,0,0,0,-1,1973,1800,0,0
756,-776,0,0,0,0,0,0,0,0,0,-1,1980,1800,0,0
763,-776,0,0,0,0,0,0,0,0,0,-1,1987,1800,0,0
770,-776,0,0,0,0,0,0,0,0,0,-1,1994,1800,0,0
777,-776,0,0,0,0,0,0,0,0,0,-1,2001,1800,0,0
784,-776,0,0,0,0,0,0,0,0,0,-1,2008,1800,0,0
791,-776,0,0,0,0,0,0,0,0,0,-1,2015,1800,0,0
798,-776,0,0,0,0,0,0,0,0,0,-1,2022,1800,0,0
805,-776,0,0,0,0,0,0,0,0,0,-1,2029,1800,0,0
812,-776,0,0,0,0,0,0,0,0,0,-1,2036,1800,0,0
-700,-783,0,0,0,0,0,0,0,0,0,-1,524,1807,0,0
-693,-783,0,0,0,0,0,0,0,0,0,-1,531,1807,0,0
-686,-783,0,0,0,0,0,0,0,0,0,-1,538,1807,0,0
-679,-783,0,0,0,0,0,0,0,0,0,-1,545,1807,0,0
-672,-783,0,0,0,0,0,0,0,0,0,-1,552,1807,0,0
-665,-783,0,0,0,0,0,0,0,0,0,-1,559,1807,0,0
-658,-783,0,0,0,0,0,0,0,0,0,-1,566,1807,0,0
-651,-783,0,0,0,0,0,0,0,0,0,-1,573,1807,0,0
-644,-783,0,0,0,0,0,0,0,0,0,-1,580,1807,0,0
-637,-783,0,0,0,0,0,0,0,0,0,-1,587,1807,0,0
-630,-783,0,0,0,0,0,0,0,0,0,-1,594,1807,0,0
-623,-783,0,0,0,0,0,0,0,0,0,-1,601,1807,0,0
-616,-783,0,0,0,0,0,0,0,0,0,-1,608,1807,0,0
-609,-783,0,0,0,0,0,0,0,0,0,-1,615,1807,0,0
-602,-783,0,0,0,0,0,0,0,0,0,-1,622,1807,0,0
-595,-783,0,0,0,0,0,0,0,0,0,-1,629,1807,0,0
-588,-783,0,0,0,0,0,0,0,0,0,-1,636,1807,0,0
-581,-783,0,0,0,0,0,0,0,0,0,-1,643,1807,0,0
-574,-783,0,0,0,0,0,0,0,0,0,-1,650,1807,0,0
-567,-783,0,0,0,0,0,0,0,0,0,-1,657,1807,0,0
-560,-783,0,0,0,0,0,0,0,0,0,-1,664,1807,0,0
-553,-783,0,0,0,0,0,0,0,0,0,-1,671,1807,0,0
-546,-783,0,0,0,0,0,0,0,0,0,-1,678,1807,0,0
-539,-783,0,0,0,0,0,0,0,0,0,-1,685,1807,0,0
-532,-783,0,0,0,0,0,0,0,0,0,-1,692,1807,0,0
-525,-783,0,0,0,0,0,0,0,0,0,-1,699,1807,0,0
-518,-783,0,0,0,0,0,0,0,0,0,-1,706,1807,0,0
-511,-783,0,0,0,0,0,0,0,0,0,-1,713,1807,0,0
-504,-783,0,0,0,0,0,0,0,0,0,-1,720,1807,0,0
-497,-783,0,0,0,0,0,0,0,0,0,-1,727,1807,0,0
-490,-783,0,0,0,0,0,0,0,0,0,-1,734,1807,0,0
-483,-783,0,0,0,0,0,0,0,0,0,-1,741,1807,0,0
-476,-783,0,0,0,0,0,0,0,0,0,-1,748,1807,0,0
-469,-783,0,0,0,0,0,0,0,0,0,-1,755,1807,0,0
-462,-783,0,0,0,0,0,0,0,0,0,-1,762,1807,0,0
-455,-783,0,0,0,0,0,0,0,0,0,-1,769,1807,0,0
-448,-783,0,0,0,0,0,0,0,0,0,-1,776,1807,0,0
-441,-783,0,0,0,0,0,0,0,0,0,-1,783,1807,0,0
-434,-783,0,0,0,0,0,0,0,0,0,-1,790,1807,0,0
-427,-783,0,0,0,0,0,0,0,0,0,-1,797,1807,0,0
-420,-783,0,0,0,0,0,0,0,0,0,-1,804,1807,0,0
-413,-783,0,0,0,0,0,0,0,0,0,-1,811,1807,0,0
-406,-783,0,0,0,0,0,0,0,0,0,-1,818,1807,0,0
-399,-783,0,0,0,0,0,0,0,0,0,-1,825,1807,0,0
-392,-783,0,0,0,0,0,0,0,0,0,-1,832,1807,0,0
-385,-783,0,0,0,0,0,0,0,0,0,-1,839,1807,0,0
-378,-783,0,0,0,0,0,0,0,0,0,-1,846,1807,0,0
-371,-783,0,0,0,0,0,0,0,0,0,-1,853,1807,0,0
-364,-783,0,0,0,0,0,0,0,0,0,-1,860,1807,0,0
-357,-783,0,0,0,0,0,0,0,0,0,-1,867,1807,0,0
-350,-783,0,0,0,0,0,0,0,0,0,-1,874,1807,0,0
-343,-783,0,0,0,0,0,0,0,0,0,-1,881,1807,0,0
-336,-783,0,0,0,0,0,0,0,0,0,-1,888,1807,0,0
-329,-783,0,0,0,0,0,0,0,0,0,-1,895,1807,0,0
-322,-783,0,0,0,0,0,0,0,0,0,-1,902,1807,0,0
-315,-783,0,0,0,0,0,0,0,0,0,-1,909,1807,0,0
-308,-783,0,0,0,0,0,0,0,0,0,-1,916,1807,0,0
-301,-783,0,0,0,0,0,0,0,0,0,-1,923,1807,0,0
-294,-783,0,0,0,0,0,0,0,0,0,-1,930,1807,0,0
-287,-783,0,0,0,0,0,0,0,0,0,-1,937,1807,0,0
-280,-783,0,0,0,0,0,0,0,0,0,-1,944,1807,0,0
-273,-783,0,0,0,0,0,0,0,0,0,-1,951,1807,0,0
-266,-783,0,0,0,0,0,0,0,0,0,-1,958,1807,0,0
-259,-783,0,0,0,0,0,0,0,0,0,-1,965,1807,0,0
-252,-783,0,0,0,0,0,0,0,0,0,-1,972,1807,0,0
-245,-783,0,0,0,0,0,0,0,0,0,-1,979,1807,0,0
-238,-783,0,0,0,0,0,0,0,0,0,-1,986,1807,0,0
-231,-783,0,0,0,0,0,0,0,0,0,-1,993,1807,0,0
-224,-783,0,0,0,0,0,0,0,0,0,-1,1000,1807,0,0
-217,-783,0,0,0,0,0,0,0,0,0,-1,1007,1807,0,0
-210,-783,0,0,0,0,0,0,0,0,0,-1,1014,1807,0,0
-203,-783,0,0,0,0,0,0,0,0,0,-1,1021,1807,0,0
-196,-783,0,0,0,0,0,0,0,0,0,-1,1028,1807,0,0
-189,-783,0,0,0,0,0,0,0,0,0,-1,1035,1807,0,0
-182,-783,0,0,0,0,0,0,0,0,0,-1,1042,1807,0,0
-175,-783,0,0,0,0,0,0,0,0,0,-1,1049,1807,0,0
-168,-783,0,0,0,0,0,0,0,0,0,-1,1056,1807,0,0
-161,-783,0,0,0,0,0,0,0,0,0,-1,1063,1807,0,0
-154,-783,0,0,0,0,0,0,0,0,0,-1,1070,1807,0,0
-147,-783,0,0,0,0,0,0,0,0,0,-1,1077,1807,0,0
-140,-783,0,0,0,0,0,0,0,0,0,-1,1084,1807,0,0
-133,-783,0,0,0,0,0,0,0,0,0,-1,1091,1807,0,0
-126,-783,0,0,0,0,0,0,0,0,0,-1,1098,1807,0,0
-119,-783,0,0,0,0,0,0,0,0,0,-1,1105,1807,0,0
-112,-783,5.33936,14.7699,0,0,0,0,0,0,0,-1,1112,1807,5.33931,-14.7699
-105,-783,6.44263,21.2224,0,0,0,0,0,0,0,-1,1119,1807,6.44263,-21.2224
-98,-783,5.54773,20.5695,0,0,0,0,0,0,0,-1,1126,1807,5.54772,-20.5695
-91,-783,2.78186,14.2633,0,0,0,0,0,0,0,-1,1133,1807,2.78186,-14.2633
-84,-783,-0.0491943,14.5743,0,0,0,0,0,0,0,-1,1140,1807,-0.0491562,-14.5743
-77,-783,0.332764,12.7788,0,0,0,0,0,0,0,-1,1147,1807,0.332743,-12.7788
-70,-783,-1.93176,5.12817,0,0,0,0,0,0,0,-1,1154,1807,-1.93171,-5.12813
-63,-783,-5.31702,10.54,0,0,0,0,0,0,0,-1,1161,1807,-5.31703,-10.54
-56,-783,-6.26135,6.9679,0,0,0,0,0,0,0,-1,1168,1807,-6.26136,-6.96785
-49,-783,-3.17688,4.59705,0,0,0,0,0,0,0,-1,1175,1807,-3.17685,-4.5971
-42,-783,-3.72876,3.1405,0,0,0,0,0,0,0,-1,1182,1807,-3.72874,-3.14055
-35,-783,-3.97046,1.59399,0,0,0,0,0,0,0,-1,1189,1807,-3.97041,-1.59401
-28,-783,-4.12195,0.270386,0,0,0,0,0,0,0,-1,1196,1807,-4.12197,-0.270408
-21,-783,5.94983,21.9498,0,0,0,0,0,0,0,-1,1203,1807,5.94987,-21.9498
-14,-783,5.67371,21.1606,-0.0154661,-0.0434391,-0.0238987,-0.001762,-0.0571433,-0.52065,0.037522,0.0452107,1210,1807,5.67372,-21.1606
-7,-783,5.26746,20.5638,-0.0139229,-0.0396548,-0.00797881,-0.0116497,-0.041928,-0.277552,0.0249909,0.0451931,1217,1807,5.26748,-20.5638
0,-783,5.41089,19.7804,0,0,0,0,0,0,0,-1,1224,1807,5.4109,-19.7804
7,-783,5.31824,19.834,0,0,0,0,0,0,0,-1,1231,1807,5.31827,-19.834
14,-783,5.24146,19.8024,0,0,0,0,0,0,0,-1,1238,1807,5.2414,-19.8023
21,-783,4.01404,20.7998,0.00499138,-0.0335768,0.0468089,0.0363329,-0.0649183,0.590005,0.0592289,0.048735,1245,1807,4.01404,-20.7998
28,-783,3.72388,21.5314,0.0140167,-0.0344049,0.0539355,0.0489261,-0.0693142,0.574435,0.0686036,0.0478288,1252,1807,3.72391,-21.5314
35,-783,3.69885,22.4232,0.0238331,-0.0356199,0.0579786,0.0592616,-0.0710484,0.548514,0.0753371,0.0474158,1259,1807,3.6989,-22.4233
42,-783,3.68945,23.3673,0,0,0,0,0,0,0,-1,1266,1807,3.68942,-23.3674
49,-783,3.23926,20.9658,0.0430902,-0.0371093,0.0618408,0.0766944,-0.0707135,0.497761,0.0851293,0.0474677,1273,1807,3.23921,-20.9658
56,-783,2.88831,21.2565,0.050524,-0.0384699,0.058421,0.0794641,-0.06741,0.459937,0.0848929,0.0482163,1280,1807,2.88836,-21.2565
63,-783,3.43811,21.1766,0.0568599,-0.038867,0.054011,0.0811636,-0.0631707,0.422835,0.083547,0.0475015,1287,1807,3.43812,-21.1766
70,-783,3.72742,20.9799,0,0,0,0,0,0,0,-1,1294,1807,3.7274,-20.9798
77,-783,4.56848,20.9958,0.0610951,-0.0352604,0.0434709,0.0778081,-0.0519735,0.367043,0.0754227,0.0467017,1301,1807,4.56849,-20.9959
84,-783,5.66052,21.1205,0.0568857,-0.0289002,0.0378042,0.0711676,-0.0431821,0.361211,0.0666756,0.0466132,1308,1807,5.66049,-21.1205
91,-783,5.50464,20.4656,0.0476529,-0.0175181,0.0323729,0.0610001,-0.0308653,0.391063,0.0539814,0.0444949,1315,1807,5.5046,-20.4655
98,-783,8.09192,20.1727,0,0,0,0,0,0,0,-1,1322,1807,8.09192,-20.1727
105,-783,5.04529,20.8853,0.022413,0.0063406,0.0222392,0.0380234,-0.00926988,0.612023,0.0289381,0.0473504,1329,1807,5.04529,-20.8852
112,-783,4.28003,20.8859,0.00519389,0.0238784,0.0187055,0.0354448,-0.00637253,1.017,0.0260155,0.0445653,1336,1807,4.27997,-20.8859
119,-783,3.90674,21.0146,-0.0142274,0.0434721,0.0155406,0.0473915,-0.0181468,1.32374,0.0390741,0.0406832,1343,1807,3.90672,-21.0146
126,-783,3.28821,21.1846,-0.0330646,0.0641254,0.0127588,0.0657724,-0.0347116,1.44242,0.0589311,0.0438195,1350,1807,3.28824,-21.1845
133,-783,2.61182,21.39,0,0,0,0,0,0,0,-1,1357,1807,2.61179,-21.3901
140,-783,1.86694,21.5844,0,0,0,0,0,0,0,-1,1364,1807,1.86691,-21.5844
147,-783,1.20483,21.882,0,0,0,0,0,0,0,-1,1371,1807,1.20483,-21.882
154,-783,6.37024,-0.145874,0,0,0,0,0,0,0,-1,1378,1807,6.37018,0.145866
161,-783,6.57568,1.16174,0,0,0,0,0,0,0,-1,1385,1807,6.57562,-1.1617
168,-783,8.62561,1.79944,0,0,0,0,0,0,0,-1,1392,1807,8.62561,-1.79946
175,-783,8.78699,3.40857,0,0,0,0,0,0,0,-1,1399,1807,8.78697,-3.40854
182,-783,8.70984,5.14661,0,0,0,0,0,0,0,-1,1406,1807,8.70989,-5.14666
189,-783,8.55762,6.79871,0,0,0,0,0,0,0,-1,1413,1807,8.55766,-6.79872
196,-783,8.25488,8.66626,0,0,0,0,0,0,0,-1,1420,1807,8.25492,-8.66628
203,-783,7.86755,10.5735,0,0,0,0,0,0,0,-1,1427,1807,7.8676,-10.5734
210,-783,5.6969,8.99231,0,0,0,0,0,0,0,-1,1434,1807,5.69693,-8.99234
217,-783,5.28503,3.80872,0,0,0,0,0,0,0,-1,1441,1807,5.285,-3.80868
224,-783,3.22571,6.62903,0,0,0,0,0,0,0,-1,1448,1807,3.2257,-6.62907
231,-783,4.27942,4.56262,0,0,0,0,0,0,0,-1,1455,1807,4.27948,-4.56267
238,-783,0,0,0,0,0,0,0,0,0,-1,1462,1807,0,0
245,-783,0,0,0,0,0,0,0,0,0,-1,1469,1807,0,0
252,-783,0,0,0,0,0,0,0,0,0,-1,1476,1807,0,0
259,-783,0,0,0,0,0,0,0,0,0,-1,1483,1807,0,0
266,-783,0,0,0,0,0,0,0,0,0,-1,1490,1807,0,0
273,-783,0,0,0,0,0,0,0,0,0,-1,1497,1807,0,0
280,-783,0,0,0,0,0,0,0,0,0,-1,1504,1807,0,0
287,-783,0,0,0,0,0,0,0,0,0,-1,1511,1807,0,0
294,-783,0,0,0,0,0,0,0,0,0,-1,1518,1807,0,0
301,-783,0,0,0,0,0,0,0,0,0,-1,1525,1807,0,0
308,-783,0,0,0,0,0,0,0,0,0,-1,1532,1807,0,0
315,-783,0,0,0,0,0,0,0,0,0,-1,1539,1807,0,0
322,-783,0,0,0,0,0,0,0,0,0,-1,1546,1807,0,0
329,-783,0,0,0,0,0,0,0,0,0,-1,1553,1807,0,0
336,-783,0,0,0,0,0,0,0,0,0,-1,1560,1807,0,0
343,-783,0,0,0,0,0,0,0,0,0,-1,1567,1807,0,0
350,-783,0,0,0,0,0,0,0,0,0,-1,1574,1807,0,0
357,-783,0,0,0,0,0,0,0,0,0,-1,1581,1807,0,0
364,-783,0,0,0,0,0,0,0,0,0,-1,1588,1807,0,0
371,-783,0,0,0,0,0,0,0,0,0,-1,1595,1807,0,0
378,-783,0,0,0,0,0,0,0,0,0,-1,1602,1807,0,0
385,-783,0,0,0,0,0,0,0,0,0,-1,1609,1807,0,0
392,-783,0,0,0,0,0,0,0,0,0,-1,1616,1807,0,0
399,-783,0,0,0,0,0,0,0,0,0,-1,1623,1807,0,0
406,-783,0,0,0,0,0,0,0,0,0,-1,1630,1807,0,0
413,-783,0,0,0,0,0,0,0,0,0,-1,1637,1807,0,0
420,-783,0,0,0,0,0,0,0,0,0,-1,1644,1807,0,0
427,-783,0,0,0,0,0,0,0,0,0,-1,1651,1807,0,0
434,-783,0,0,0,0,0,0,0,0,0,-1,1658,1807,0,0
441,-783,0,0,0,0,0,0,0,0,0,-1,1665,1807,0,0
448,-783,0,0,0,0,0,0,0,0,0,-1,1672,1807,0,0
455,-783,0,0,0,0,0,0,0,0,0,-1,1679,1807,0,0
462,-783,0,0,0,0,0,0,0,0,0,-1,1686,1807,0,0
469,-783,0,0,0,0,0,0,0,0,0,-1,1693,1807,0,0
476,-783,0,0,0,0,0,0,0,0,0,-1,1700,1807,0,0
483,-783,0,0,0,0,0,0,0,0,0,-1,1707,1807,0,0
490,-783,0,0,0,0,0,0,0,0,0,-1,1714,1807,0,0
497,-783,0,0,0,0,0,0,0,0,0,-1,1721,1807,0,0
504,-783,0,0,0,0,0,0,0,0,0,-1,1728,1807,0,0
511,-783,0,0,0,0,0,0,0,0,0,-1,1735,1807,0,0
518,-783,0,0,0,0,0,0,0,0,0,-1,1742,1807,0,0
525,-783,0,0,0,0,0,0,0,0,0,-1,1749,1807,0,0
532,-783,0,0,0,0,0,0,0,0,0,-1,1756,1807,0,0
539,-783,0,0,0,0,0,0,0,0,0,-1,1763,1807,0,0
546,-783,0,0,0,0,0,0,0,0,0,-1,1770,1807,0,0
553,-783,0,0,0,0,0,0,0,0,0,-1,1777,1807,0,0
560,-783,0,0,0,0,0,0,0,0,0,-1,1784,1807,0,0
567,-783,0,0,0,0,0,0,0,0,0,-1,1791,1807,0,0
574,-783,0,0,0,0,0,0,0,0,0,-1,1798,1807,0,0
581,-783,0,0,0,0,0,0,0,0,0,-1,1805,1807,0,0
588,-783,0,0,0,0,0,0,0,0,0,-1,1812,1807,0,0
595,-783,0,0,0,0,0,0,0,0,0,-1,1819,1807,0,0
602,-783,0,0,0,0,0,0,0,0,0,-1,1826,1807,0,0
609,-783,0,0,0,0,0,0,0,0,0,-1,1833,1807,0,0
616,-783,0,0,0,0,0,0,0,0,0,-1,1840,1807,0,0
623,-783,0,0,0,0,0,0,0,0,0,-1,1847,1807,0,0
630,-783,0,0,0,0,0,0,0,0,0,-1,1854,1807,0,0
637,-783,0,0,0,0,0,0,0,0,0,-1,1861,1807,0,0
644,-783,0,0,0,0,0,0,0,0,0,-1,1868,1807,0,0
651,-783,0,0,0,0,0,0,0,0,0,-1,1875,1807,0,0
658,-783,0,0,0,0,0,0,0,0,0,-1,1882,1807,0,0
665,-783,0,0,0,0,0,0,0,0,0,-1,1889,1807,0,0
672,-783,0,0,0,0,0,0,0,0,0,-1,1896,1807,0,0
679,-783,0,0,0,0,0,0,0,0,0,-1,1903,1807,0,0
686,-783,0,0,0,0,0,0,0,0,0,-1,1910,1807,0,0
693,-783,0,0,0,0,0,0,0,0,0,-1,1917,1807,0,0
700,-783,0,0,0,0,0,0,0,0,0,-1,1924,1807,0,0
707,-783,0,0,0,0,0,0,0,0,0,-1,1931,1807,0,0
714,-783,0,0,0,0,0,0,0,0,0,-1,1938,1807,0,0
721,-783,0,0,0,0,0,0,0,0,0,-1,1945,1807,0,0
728,-783,0,0,0,0,0,0,0,0,0,-1,1952,1807,0,0
735,-783,0,0,0,0,0,0,0,0,0,-1,1959,1807,0,0
742,-783,0,0,0,0,0,0,0,0,0,-1,1966,1807,0,0
749,-783,0,0,0,0,0,0,0,0,0,-1,1973,1807,0,0
756,-783,0,0,0,0,0,0,0,0,0,-1,1980,1807,0,0
763,-783,0,0,0,0,0,0,0,0,0,-1,1987,1807,0,0
770,-783,0,0,0,0,0,0,0,0,0,-1,1994,1807,0,0
777,-783,0,0,0,0,0,0,0,0,0,-1,2001,1807,0,0
784,-783,0,0,0,0,0,0,0,0,0,-1,2008,1807,0,0
791,-783,0,0,0,0,0,0,0,0,0,-1,2015,1807,0,0
798,-783,0,0,0,0,0,0,0,0,0,-1,2022,1807,0,0
805,-783,0,0,0,0,0,0,0,0,0,-1,2029,1807,0,0
812,-783,0,0,0,0,0,0,0,0,0,-1,2036,1807,0,0
-700,-790,0,0,0,0,0,0,0,0,0,-1,524,1814,0,0
-693,-790,0,0,0,0,0,0,0,0,0,-1,531,1814,0,0
-686,-790,0,0,0,0,0,0,0,0,0,-1,538,1814,0,0
-679,-790,0,0,0,0,0,0,0,0,0,-1,545,1814,0,0
-672,-790,0,0,0,0,0,0,0,0,0,-1,552,1814,0,0
-665,-790,0,0,0,0,0,0,0,0,0,-1,559,1814,0,0
-658,-790,0,0,0,0,0,0,0,0,0,-1,566,1814,0,0
-651,-790,0,0,0,0,0,0,0,0,0,-1,573,1814,0,0
-644,-790,0,0,0,0,0,0,0,0,0,-1,580,1814,0,0
-637,-790,0,0,0,0,0,0,0,0,0,-1,587,1814,0,0
-630,-790,0,0,0,0,0,0,0,0,0,-1,594,1814,0,0
-623,-790,0,0,0,0,0,0,0,0,0,-1,601,1814,0,0
-616,-790,0,0,0,0,0,0,0,0,0,-1,608,1814,0,0
-609,-790,0,0,0,0,0,0,0,0,0,-1,615,1814,0,0
-602,-790,0,0,0,0,0,0,0,0,0,-1,622,1814,0,0
-595,-790,0,0,0,0,0,0,0,0,0,-1,629,1814,0,0
-588,-790,0,0,0,0,0,0,0,0,0,-1,636,1814,0,0
-581,-790,0,0,0,0,0,0,0,0,0,-1,643,1814,0,0
-574,-790,0,0,0,0,0,0,0,0,0,-1,650,1814,0,0
-567,-790,0,0,0,0,0,0,0,0,0,-1,657,1814,0,0
-560,-790,0,0,0,0,0,0,0,0,0,-1,664,1814,0,0
-553,-790,0,0,0,0,0,0,0,0,0,-1,671,1814,0,0
-546,-790,0,0,0,0,0,0,0,0,0,-1,678,1814,0,0
-539,-790,0,0,0,0,0,0,0,0,0,-1,685,1814,0,0
-532,-790,0,0,0,0,0,0,0,0,0,-1,692,1814,0,0
-525,-790,0,0,0,0,0,0,0,0,0,-1,699,1814,0,0
-518,-790,0,0,0,0,0,0,0,0,0,-1,706,1814,0,0
-511,-790,0,0,0,0,0,0,0,0,0,-1,713,1814,0,0
-504,-790,0,0,0,0,0,0,0,0,0,-1,720,1814,0,0
-497,-790,0,0,0,0,0,0,0,0,0,-1,727,1814,0,0
-490,-790,0,0,0,0,0,0,0,0,0,-1,734,1814,0,0
-483,-790,0,0,0,0,0,0,0,0,0,-1,741,1814,0,0
-476,-790,0,0,0,0,0,0,0,0,0,-1,748,1814,0,0
-469,-790,0,0,0,0,0,0,0,0,0,-1,755,1814,0,0
-462,-790,0,0,0,0,0,0,0,0,0,-1,762,1814,0,0
-455,-790,0,0,0,0,0,0,0,0,0,-1,769,1814,0,0
-448,-790,0,0,0,0,0,0,0,0,0,-1,776,1814,0,0
-441,-790,0,0,0,0,0,0,0,0,0,-1,783,1814,0,0
-434,-790,0,0,0,0,0,0,0,0,0,-1,790,1814,0,0
-427,-790,0,0,0,0,0,0,0,0,0,-1,797,1814,0,0
-420,-790,0,0,0,0,0,0,0,0,0,-1,804,1814,0,0
-413,-790,0,0,0,0,0,0,0,0,0,-1,811,1814,0,0
-406,-790,0,0,0,0,0,0,0,0,0,-1,818,1814,0,0
-399,-790,0,0,0,0,0,0,0,0,0,-1,825,1814,0,0
-392,-790,0,0,0,0,0,0,0,0,0,-1,832,1814,0,0
-385,-790,0,0,0,0,0,0,0,0,0,-1,839,1814,0,0
-378,-790,0,0,0,0,0,0,0,0,0,-1,846,1814,0,0
-371,-790,0,0,0,0,0,0,0,0,0,-1,853,1814,0,0
-364,-790,0,0,0,0,0,0,0,0,0,-1,860,1814,0,0
-357,-790,0,0,0,0,0,0,0,0,0,-1,867,1814,0,0
-350,-790,0,0,0,0,0,0,0,0,0,-1,874,1814,0,0
-343,-790,0,0,0,0,0,0,0,0,0,-1,881,1814,0,0
-336,-790,0,0,0,0,0,0,0,0,0,-1,888,1814,0,0
-329,-790,0,0,0,0,0,0,0,0,0,-1,895,1814,0,0
-322,-790,0,0,0,0,0,0,0,0,0,-1,902,1814,0,0
-315,-790,0,0,0,0,0,0,0,0,0,-1,909,1814,0,0
-308,-790,0,0,0,0,0,0,0,0,0,-1,916,1814,0,0
-301,-790,0,0,0,0,0,0,0,0,0,-1,923,1814,0,0
-294,-790,0,0,0,0,0,0,0,0,0,-1,930,1814,0,0
-287,-790,0,0,0,0,0,0,0,0,0,-1,937,1814,0,0
-280,-790,0,0,0,0,0,0,0,0,0,-1,944,1814,0,0
-273,-790,0,0,0,0,0,0,0,0,0,-1,951,1814,0,0
-266,-790,0,0,0,0,0,0,0,0,0,-1,958,1814,0,0
-259,-790,0,0,0,0,0,0,0,0,0,-1,965,1814,0,0
-252,-790,0,0,0,0,0,0,0,0,0,-1,972,1814,0,0
-245,-790,0,0,0,0,0,0,0,0,0,-1,979,1814,0,0
-238,-790,0,0,0,0,0,0,0,0,0,-1,986,1814,0,0
-231,-790,0,0,0,0,0,0,0,0,0,-1,993,1814,0,0
-224,-790,0,0,0,0,0,0,0,0,0,-1,1000,1814,0,0
-217,-790,0,0,0,0,0,0,0,0,0,-1,1007,1814,0,0
-210,-790,0,0,0,0,0,0,0,0,0,-1,1014,1814,0,0
-203,-790,0,0,0,0,0,0,0,0,0,-1,1021,1814,0,0
-196,-790,0,0,0,0,0,0,0,0,0,-1,1028,1814,0,0
-189,-790,0,0,0,0,0,0,0,0,0,-1,1035,1814,0,0
-182,-790,0,0,0,0,0,0,0,0,0,-1,1042,1814,0,0
-175,-790,0,0,0,0,0,0,0,0,0,-1,1049,1814,0,0
-168,-790,0,0,0,0,0,0,0,0,0,-1,1056,1814,0,0
-161,-790,0,0,0,0,0,0,0,0,0,-1,1063,1814,0,0
-154,-790,0,0,0,0,0,0,0,0,0,-1,1070,1814,0,0
-147,-790,0,0,0,0,0,0,0,0,0,-1,1077,1814,0,0
-140,-790,0,0,0,0,0,0,0,0,0,-1,1084,1814,0,0
-133,-790,0,0,0,0,0,0,0,0,0,-1,1091,1814,0,0
-126,-790,0,0,0,0,0,0,0,0,0,-1,1098,1814,0,0
-119,-790,0,0,0,0,0,0,0,0,0,-1,1105,1814,0,0
-112,-790,0,0,0,0,0,0,0,0,0,-1,1112,1814,0,0
-105,-790,0,0,0,0,0,0,0,0,0,-1,1119,1814,0,0
-98,-790,0,0,0,0,0,0,0,0,0,-1,1126,1814,0,0
-91,-790,0,0,0,0,0,0,0,0,0,-1,1133,1814,0,0
-84,-790,0,0,0,0,0,0,0,0,0,-1,1140,1814,0,0
-77,-790,-0.969238,5.30847,0,0,0,0,0,0,0,-1,1147,1814,-0.969277,-5.3085
-70,-790,-1.23169,4.98914,0,0,0,0,0,0,0,-1,1154,1814,-1.23163,-4.98916
-63,-790,-1.69128,4.32263,0,0,0,0,0,0,0,-1,1161,1814,-1.69128,-4.32258
-56,-790,-2.24756,3.75305,0,0,0,0,0,0,0,-1,1168,1814,-2.24758,-3.75302
-49,-790,-3.11011,3.35779,0,0,0,0,0,0,0,-1,1175,1814,-3.11006,-3.35781
-42,-790,0.593262,1.19165,0,0,0,0,0,0,0,-1,1182,1814,0.593225,-1.19165
-35,-790,0.307129,-0.20105,0,0,0,0,0,0,0,-1,1189,1814,0.307178,0.201006
-28,-790,-2.78467,0.785156,0,0,0,0,0,0,0,-1,1196,1814,-2.78471,-0.785183
-21,-790,5.94092,22.6937,0,0,0,0,0,0,0,-1,1203,1814,5.94087,-22.6938
-14,-790,5.69348,21.854,-0.0172757,-0.0547,-0.0365481,0.00507194,-0.0770476,-0.548803,0.0531365,0.0437323,1210,1814,5.69342,-21.854
-7,-790,5.4054,20.8749,-0.0147069,-0.0501012,-0.0142918,-0.00965667,-0.0551515,-0.339672,0.0340089,0.0452204,1217,1814,5.40544,-20.8749
0,-790,5.33325,19.5129,0,0,0,0,0,0,0,-1,1224,1814,5.33325,-19.5129
7,-790,5.25671,19.858,0,0,0,0,0,0,0,-1,1231,1814,5.25677,-19.858
14,-790,3.10217,20.2903,0.0025639,-0.0433218,0.043838,0.0290997,-0.0698577,0.544319,0.0587262,0.0427352,1238,1814,3.10223,-20.2902
21,-790,3.30347,20.9843,0.0117654,-0.0433652,0.0564709,0.0470397,-0.0786395,0.558344,0.0733215,0.0461465,1245,1814,3.30342,-20.9842
28,-790,3.30017,21.8916,0.0228064,-0.0443284,0.0654,0.0627505,-0.0842725,0.548297,0.0851864,0.0464838,1252,1814,3.30015,-21.8916
35,-790,3.29822,23.439,0.0347675,-0.0458346,0.0707186,0.0758624,-0.0869294,0.52641,0.0940603,0.0477607,1259,1814,3.29826,-23.439
42,-790,3.35498,24.3635,0,0,0,0,0,0,0,-1,1266,1814,3.35493,-24.3635
49,-790,2.61072,20.9053,0.0586007,-0.0477403,0.0764439,0.0985472,-0.0876868,0.481532,0.107583,0.0477361,1273,1814,2.61076,-20.9052
56,-790,-0.392578,19.6996,0.068451,-0.049403,0.0720748,0.102622,-0.0835736,0.442713,0.107687,0.0472644,1280,1814,-0.39262,-19.6996
63,-790,2.45337,21.4678,0,0,0,0,0,0,0,-1,1287,1814,2.45332,-21.4678
70,-790,2.48486,21.6852,0.0827052,-0.049659,0.0605736,0.106241,-0.0731944,0.37059,0.104181,0.0401668,1294,1814,2.48486,-21.6852
77,-790,3.63818,21.6163,0.0831942,-0.0461672,0.054068,0.102816,-0.0657892,0.348132,0.0981237,0.0439293,1301,1814,3.63818,-21.6164
84,-790,4.88892,21.4025,0.0779249,-0.0379671,0.0472541,0.0947499,-0.054792,0.342056,0.0873594,0.0458607,1308,1814,4.88895,-21.4025
91,-790,6.32739,21.1555,0.0661415,-0.0232149,0.0406989,0.0818996,-0.038973,0.369412,0.0712376,0.0449379,1315,1814,6.3274,-21.1555
98,-790,7.19751,20.6473,0.0518418,-0.00843453,0.0346028,0.0675911,-0.0241838,0.427125,0.0549263,0.0443382,1322,1814,7.19746,-20.6473
105,-790,8.26074,20.3143,0,0,0,0,0,0,0,-1,1329,1814,8.26077,-20.3144
112,-790,4.02307,20.5624,0,0,0,0,0,0,0,-1,1336,1814,4.02306,-20.5624
119,-790,3.26794,20.3822,0,0,0,0,0,0,0,-1,1343,1814,3.26796,-20.3822
126,-790,3.2135,20.5897,-0.037878,0.0846667,0.0146451,0.0863926,-0.039604,1.45349,0.0743973,0.0465827,1350,1814,3.21355,-20.5897
133,-790,2.49316,20.2505,-0.0600341,0.111668,0.0107246,0.112336,-0.0607014,1.50866,0.101375,0.0494933,1357,1814,2.49313,-20.2505
140,-790,1.73657,20.5033,-0.0775763,0.137442,0.00698647,0.137669,-0.077803,1.53835,0.125993,0.0475215,1364,1814,1.73654,-20.5033
147,-790,0.961914,20.7938,0,0,0,0,0,0,0,-1,1371,1814,0.961889,-20.7939
154,-790,6.34485,-0.540405,0,0,0,0,0,0,0,-1,1378,1814,6.34482,0.540409
161,-790,6.62683,1.1134,0,0,0,0,0,0,0,-1,1385,1814,6.62682,-1.11344
168,-790,7.04077,2.23279,0,0,0,0,0,0,0,-1,1392,1814,7.04082,-2.23275
175,-790,9.03918,3.98535,0,0,0,0,0,0,0,-1,1399,1814,9.0392,-3.98535
182,-790,8.96997,5.67896,0,0,0,0,0,0,0,-1,1406,1814,8.97001,-5.6789
189,-790,8.59729,6.86975,0,0,0,0,0,0,0,-1,1413,1814,8.59728,-6.86972
196,-790,8.21924,9.29053,0,0,0,0,0,0,0,-1,1420,1814,8.21924,-9.29048
203,-790,0,0,0,0,0,0,0,0,0,-1,1427,1814,0,0
210,-790,0,0,0,0,0,0,0,0,0,-1,1434,1814,0,0
217,-790,0,0,0,0,0,0,0,0,0,-1,1441,1814,0,0
224,-790,0,0,0,0,0,0,0,0,0,-1,1448,1814,0,0
231,-790,0,0,0,0,0,0,0,0,0,-1,1455,1814,0,0
238,-790,0,0,0,0,0,0,0,0,0,-1,1462,1814,0,0
245,-790,0,0,0,0,0,0,0,0,0,-1,1469,1814,0,0
252,-790,0,0,0,0,0,0,0,0,0,-1,1476,1814,0,0
259,-790,0,0,0,0,0,0,0,0,0,-1,1483,1814,0,0
266,-790,0,0,0,0,0,0,0,0,0,-1,1490,1814,0,0
273,-790,0,0,0,0,0,0,0,0,0,-1,1497,1814,0,0
280,-790,0,0,0,0,0,0,0,0,0,-1,1504,1814,0,0
287,-790,0,0,0,0,0,0,0,0,0,-1,1511,1814,0,0
294,-790,0,0,0,0,0,0,0,0,0,-1,1518,1814,0,0
301,-790,0,0,0,0,0,0,0,0,0,-1,1525,1814,0,0
308,-790,0,0,0,0,0,0,0,0,0,-1,1532,1814,0,0
315,-790,0,0,0,0,0,0,0,0,0,-1,1539,1814,0,0
322,-790,0,0,0,0,0,0,0,0,0,-1,1546,1814,0,0
329,-790,0,0,0,0,0,0,0,0,0,-1,1553,1814,0,0
336,-790,0,0,0,0,0,0,0,0,0,-1,1560,1814,0,0
343,-790,0,0,0,0,0,0,0,0,0,-1,1567,1814,0,0
350,-790,0,0,0,0,0,0,0,0,0,-1,1574,1814,0,0
357,-790,0,0,0,0,0,0,0,0,0,-1,1581,1814,0,0
364,-790,0,0,0,0,0,0,0,0,0,-1,1588,1814,0,0
371,-790,0,0,0,0,0,0,0,0,0,-1,1595,1814,0,0
378,-790,0,0,0,0,0,0,0,0,0,-1,1602,1814,0,0
385,-790,0,0,0,0,0,0,0,0,0,-1,1609,1814,0,0
392,-790,0,0,0,0,0,0,0,0,0,-1,1616,1814,0,0
399,-790,0,0,0,0,0,0,0,0,0,-1,1623,1814,0,0
406,-790,0,0,0,0,0,0,0,0,0,-1,1630,1814,0,0
413,-790,0,0,0,0,0,0,0,0,0,-1,1637,1814,0,0
420,-790,0,0,0,0,0,0,0,0,0,-1,1644,1814,0,0
427,-790,0,0,0,0,0,0,0,0,0,-1,1651,1814,0,0
434,-790,0,0,0,0,0,0,0,0,0,-1,1658,1814,0,0
441,-790,0,0,0,0,0,0,0,0,0,-1,1665,1814,0,0
448,-790,0,0,0,0,0,0,0,0,0,-1,1672,1814,0,0
455,-790,0,0,0,0,0,0,0,0,0,-1,1679,1814,0,0
462,-790,0,0,0,0,0,0,0,0,0,-1,1686,1814,0,0
469,-790,0,0,0,0,0,0,0,0,0,-1,1693,1814,0,0
476,-790,0,0,0,0,0,0,0,0,0,-1,1700,1814,0,0
483,-790,0,0,0,0,0,0,0,0,0,-1,1707,1814,0,0
490,-790,0,0,0,0,0,0,0,0,0,-1,1714,1814,0,0
497,-790,0,0,0,0,0,0,0,0,0,-1,1721,1814,0,0
504,-790,0,0,0,0,0,0,0,0,0,-1,1728,1814,0,0
511,-790,0,0,0,0,0,0,0,0,0,-1,1735,1814,0,0
518,-790,0,0,0,0,0,0,0,0,0,-1,1742,1814,0,0
525,-790,0,0,0,0,0,0,0,0,0,-1,1749,1814,0,0
532,-790,0,0,0,0,0,0,0,0,0,-1,1756,1814,0,0
539,-790,0,0,0,0,0,0,0,0,0,-1,1763,1814,0,0
546,-790,0,0,0,0,0,0,0,0,0,-1,1770,1814,0,0
553,-790,0,0,0,0,0,0,0,0,0,-1,1777,1814,0,0
560,-790,0,0,0,0,0,0,0,0,0,-1,1784,1814,0,0
567,-790,0,0,0,0,0,0,0,0,0,-1,1791,1814,0,0
574,-790,0,0,0,0,0,0,0,0,0,-1,1798,1814,0,0
581,-790,0,0,0,0,0,0,0,0,0,-1,1805,1814,0,0
588,-790,0,0,0,0,0,0,0,0,0,-1,1812,1814,0,0
595,-790,0,0,0,0,0,0,0,0,0,-1,1819,1814,0,0
602,-790,0,0,0,0,0,0,0,0,0,-1,1826,1814,0,0
609,-790,0,0,0,0,0,0,0,0,0,-1,1833,1814,0,0
616,-790,0,0,0,0,0,0,0,0,0,-1,1840,1814,0,0
623,-790,0,0,0,0,0,0,0,0,0,-1,1847,1814,0,0
630,-790,0,0,0,0,0,0,0,0,0,-1,1854,1814,0,0
637,-790,0,0,0,0,0,0,0,0,0,-1,1861,1814,0,0
644,-790,0,0,0,0,0,0,0,0,0,-1,1868,1814,0,0
651,-790,0,0,0,0,0,0,0,0,0,-1,1875,1814,0,0
658,-790,0,0,0,0,0,0,0,0,0,-1,1882,1814,0,0
665,-790,0,0,0,0,0,0,0,0,0,-1,1889,1814,0,0
672,-790,0,0,0,0,0,0,0,0,0,-1,1896,1814,0,0
679,-790,0,0,0,0,0,0,0,0,0,-1,1903,1814,0,0
686,-790,0,0,0,0,0,0,0,0,0,-1,1910,1814,0,0
693,-790,0,0,0,0,0,0,0,0,0,-1,1917,1814,0,0
700,-790,0,0,0,0,0,0,0,0,0,-1,1924,1814,0,0
707,-790,0,0,0,0,0,0,0,0,0,-1,1931,1814,0,0
714,-790,0,0,0,0,0,0,0,0,0,-1,1938,1814,0,0
721,-790,0,0,0,0,0,0,0,0,0,-1,1945,1814,0,0
728,-790,0,0,0,0,0,0,0,0,0,-1,1952,1814,0,0
735,-790,0,0,0,0,0,0,0,0,0,-1,1959,1814,0,0
742,-790,0,0,0,0,0,0,0,0,0,-1,1966,1814,0,0
749,-790,0,0,0,0,0,0,0,0,0,-1,1973,1814,0,0
756,-790,0,0,0,0,0,0,0,0,0,-1,1980,1814,0,0
763,-790,0,0,0,0,0,0,0,0,0,-1,1987,1814,0,0
770,-790,0,0,0,0,0,0,0,0,0,-1,1994,1814,0,0
777,-790,0,0,0,0,0,0,0,0,0,-1,2001,1814,0,0
784,-790,0,0,0,0,0,0,0,0,0,-1,2008,1814,0,0
791,-790,0,0,0,0,0,0,0,0,0,-1,2015,1814,0,0
798,-790,0,0,0,0,0,0,0,0,0,-1,2022,1814,0,0
805,-790,0,0,0,0,0,0,0,0,0,-1,2029,1814,0,0
812,-790,0,0,0,0,0,0,0,0,0,-1,2036,1814,0,0
-700,-797,0,0,0,0,0,0,0,0,0,-1,524,1821,0,0
-693,-797,0,0,0,0,0,0,0,0,0,-1,531,1821,0,0
-686,-797,0,0,0,0,0,0,0,0,0,-1,538,1821,0,0
-679,-797,0,0,0,0,0,0,0,0,0,-1,545,1821,0,0
-672,-797,0,0,0,0,0,0,0,0,0,-1,552,1821,0,0
-665,-797,0,0,0,0,0,0,0,0,0,-1,559,1821,0,0
-658,-797,0,0,0,0,0,0,0,0,0,-1,566,1821,0,0
-651,-797,0,0,0,0,0,0,0,0,0,-1,573,1821,0,0
-644,-797,0,0,0,0,0,0,0,0,0,-1,580,1821,0,0
-637,-797,0,0,0,0,0,0,0,0,0,-1,587,1821,0,0
-630,-797,0,0,0,0,0,0,0,0,0,-1,594,1821,0,0
-623,-797,0,0,0,0,0,0,0,0,0,-1,601,1821,0,0
-616,-797,0,0,0,0,0,0,0,0,0,-1,608,1821,0,0
-609,-797,0,0,0,0,0,0,0,0,0,-1,615,1821,0,0
-602,-797,0,0,0,0,0,0,0,0,0,-1,622,1821,0,0
-595,-797,0,0,0,0,0,0,0,0,0,-1,629,1821,0,0
-588,-797,0,0,0,0,0,0,0,0,0,-1,636,1821,0,0
-581,-797,0,0,0,0,0,0,0,0,0,-1,643,1821,0,0
-574,-797,0,0,0,0,0,0,0,0,0,-1,650,1821,0,0
-567,-797,0,0,0,0,0,0,0,0,0,-1,657,1821,0,0
-560,-797,0,0,0,0,0,0,0,0,0,-1,664,1821,0,0
-553,-797,0,0,0,0,0,0,0,0,0,-1,671,1821,0,0
-546,-797,0,0,0,0,0,0,0,0,0,-1,678,1821,0,0
-539,-797,0,0,0,0,0,0,0,0,0,-1,685,1821,0,0
-532,-797,0,0,0,0,0,0,0,0,0,-1,692,1821,0,0
-525,-797,0,0,0,0,0,0,0,0,0,-1,699,1821,0,0
-518,-797,0,0,0,0,0,0,0,0,0,-1,706,1821,0,0
-511,-797,0,0,0,0,0,0,0,0,0,-1,713,1821,0,0
-504,-797,0,0,0,0,0,0,0,0,0,-1,720,1821,0,0
-497,-797,0,0,0,0,0,0,0,0,0,-1,727,1821,0,0
-490,-797,0,0,0,0,0,0,0,0,0,-1,734,1821,0,0
-483,-797,0,0,0,0,0,0,0,0,0,-1,741,1821,0,0
-476,-797,0,0,0,0,0,0,0,0,0,-1,748,1821,0,0
-469,-797,0,0,0,0,0,0,0,0,0,-1,755,1821,0,0
-462,-797,0,0,0,0,0,0,0,0,0,-1,762,1821,0,0
-455,-797,0,0,0,0,0,0,0,0,0,-1,769,1821,0,0
-448,-797,0,0,0,0,0,0,0,0,0,-1,776,1821,0,0
-441,-797,0,0,0,0,0,0,0,0,0,-1,783,1821,0,0
-434,-797,0,0,0,0,0,0,0,0,0,-1,790,1821,0,0
-427,-797,0,0,0,0,0,0,0,0,0,-1,797,1821,0,0
-420,-797,0,0,0,0,0,0,0,0,0,-1,804,1821,0,0
-413,-797,0,0,0,0,0,0,0,0,0,-1,811,1821,0,0
-406,-797,0,0,0,0,0,0,0,0,0,-1,818,1821,0,0
-399,-797,0,0,0,0,0,0,0,0,0,-1,825,1821,0,0
-392,-797,0,0,0,0,0,0,0,0,0,-1,832,1821,0,0
-385,-797,0,0,0,0,0,0,0,0,0,-1,839,1821,0,0
-378,-797,0,0,0,0,0,0,0,0,0,-1,846,1821,0,0
-371,-797,0,0,0,0,0,0,0,0,0,-1,853,1821,0,0
-364,-797,0,0,0,0,0,0,0,0,0,-1,860,1821,0,0
-357,-797,0,0,0,0,0,0,0,0,0,-1,867,1821,0,0
-350,-797,0,0,0,0,0,0,0,0,0,-1,874,1821,0,0
-343,-797,0,0,0,0,0,0,0,0,0,-1,881,1821,0,0
-336,-797,0,0,0,0,0,0,0,0,0,-1,888,1821,0,0
-329,-797,0,0,0,0,0,0,0,0,0,-1,895,1821,0,0
-322,-797,0,0,0,0,0,0,0,0,0,-1,902,1821,0,0
-315,-797,0,0,0,0,0,0,0,0,0,-1,909,1821,0,0
-308,-797,0,0,0,0,0,0,0,0,0,-1,916,1821,0,0
-301,-797,0,0,0,0,0,0,0,0,0,-1,923,1821,0,0
-294,-797,0,0,0,0,0,0,0,0,0,-1,930,1821,0,0
-287,-797,0,0,0,0,0,0,0,0,0,-1,937,1821,0,0
-280,-797,0,0,0,0,0,0,0,0,0,-1,944,1821,0,0
-273,-797,0,0,0,0,0,0,0,0,0,-1,951,1821,0,0
-266,-797,0,0,0,0,0,0,0,0,0,-1,958,1821,0,0
-259,-797,0,0,0,0,0,0,0,0,0,-1,965,1821,0,0
-252,-797,0,0,0,0,0,0,0,0,0,-1,972,1821,0,0
-245,-797,0,0,0,0,0,0,0,0,0,-1,979,1821,0,0
-238,-797,0,0,0,0,0,0,0,0,0,-1,986,1821,0,0
-231,-797,0,0,0,0,0,0,0,0,0,-1,993,1821,0,0
-224,-797,0,0,0,0,0,0,0,0,0,-1,1000,1821,0,0
-217,-797,0,0,0,0,0,0,0,0,0,-1,1007,1821,0,0
-210,-797,0,0,0,0,0,0,0,0,0,-1,1014,1821,0,0
-203,-797,0,0,0,0,0,0,0,0,0,-1,1021,1821,0,0
-196,-797,0,0,0,0,0,0,0,0,0,-1,1028,1821,0,0
-189,-797,0,0,0,0,0,0,0,0,0,-1,1035,1821,0,0
-182,-797,0,0,0,0,0,0,0,0,0,-1,1042,1821,0,0
-175,-797,0,0,0,0,0,0,0,0,0,-1,1049,1821,0,0
-168,-797,0,0,0,0,0,0,0,0,0,-1,1056,1821,0,0
-161,-797,0,0,0,0,0,0,0,0,0,-1,1063,1821,0,0
-154,-797,0,0,0,0,0,0,0,0,0,-1,1070,1821,0,0
-147,-797,0,0,0,0,0,0,0,0,0,-1,1077,1821,0,0
-140,-797,0,0,0,0,0,0,0,0,0,-1,1084,1821,0,0
-133,-797,0,0,0,0,0,0,0,0,0,-1,1091,1821,0,0
-126,-797,0,0,0,0,0,0,0,0,0,-1,1098,1821,0,0
-119,-797,0,0,0,0,0,0,0,0,0,-1,1105,1821,0,0
-112,-797,0,0,0,0,0,0,0,0,0,-1,1112,1821,0,0
-105,-797,0,0,0,0,0,0,0,0,0,-1,1119,1821,0,0
-98,-797,0,0,0,0,0,0,0,0,0,-1,1126,1821,0,0
-91,-797,0,0,0,0,0,0,0,0,0,-1,1133,1821,0,0
-84,-797,0,0,0,0,0,0,0,0,0,-1,1140,1821,0,0
-77,-797,0,0,0,0,0,0,0,0,0,-1,1147,1821,0,0
-70,-797,0,0,0,0,0,0,0,0,0,-1,1154,1821,0,0
-63,-797,0,0,0,0,0,0,0,0,0,-1,1161,1821,0,0
-56,-797,0,0,0,0,0,0,0,0,0,-1,1168,1821,0,0
-49,-797,0,0,0,0,0,0,0,0,0,-1,1175,1821,0,0
-42,-797,0.579834,0.692871,0,0,0,0,0,0,0,-1,1182,1821,0.579856,-0.692816
-35,-797,-0.185425,5.55396,0,0,0,0,0,0,0,-1,1189,1821,-0.18542,-5.55396
-28,-797,-0.310181,4.71509,0,0,0,0,0,0,0,-1,1196,1821,-0.310228,-4.71503
-21,-797,5.68323,23.2944,0,0,0,0,0,0,0,-1,1203,1821,5.68325,-23.2945
-14,-797,5.71252,22.4509,-0.0178412,-0.0669358,-0.0472411,0.0108495,-0.0956265,-0.545789,0.0676581,0.0440243,1210,1821,5.71256,-22.4509
-7,-797,5.50452,21.2651,-0.0136202,-0.0618659,-0.0195944,-0.00666489,-0.0688212,-0.341091,0.0438284,0.0452527,1217,1821,5.50451,-21.2652
0,-797,5.11658,19.8928,0,0,0,0,0,0,0,-1,1224,1821,5.11658,-19.8928
7,-797,2.22278,19.855,0,0,0,0,0,0,0,-1,1231,1821,2.22276,-19.8549
14,-797,2.4259,20.5883,0.0109929,-0.0547577,0.0514694,0.0391904,-0.0829552,0.50119,0.0720139,0.044501,1238,1821,2.42593,-20.5882
21,-797,2.55347,21.1202,0.0224626,-0.0549601,0.0665666,0.0607557,-0.0932532,0.522029,0.0895745,0.0449147,1245,1821,2.55341,-21.1203
28,-797,2.61816,21.6362,0.0354831,-0.0561353,0.0774399,0.0796484,-0.100301,0.518308,0.104121,0.0434309,1252,1821,2.61819,-21.6362
35,-797,2.89819,24.4767,0,0,0,0,0,0,0,-1,1259,1821,2.89825,-24.4767
42,-797,-2.43579,18.6089,0.0638699,-0.058622,0.0904503,0.111859,-0.106611,0.487795,0.126146,0.0469261,1266,1821,-2.43582,-18.6089
49,-797,-2.04639,19.8875,0.0783661,-0.0606368,0.0926753,0.124706,-0.106976,0.463665,0.133892,0.0461115,1273,1821,-2.04643,-19.8874
56,-797,-0.834473,20.9755,0.0911999,-0.0627315,0.0871589,0.130511,-0.102043,0.423712,0.1346,0.044145,1280,1821,-0.834476,-20.9754
63,-797,0.691162,22.0892,0.102162,-0.0638294,0.0804646,0.134764,-0.0964314,0.384957,0.134091,0.0422947,1287,1821,0.691177,-22.0892
70,-797,1.7688,22.2941,0.110125,-0.0636624,0.0733799,0.136964,-0.0905014,0.35064,0.132237,0.0417732,1294,1821,1.76875,-22.2941
77,-797,2.88733,22.0521,0.111419,-0.0598413,0.0657689,0.133761,-0.0821837,0.327479,0.125856,0.0437888,1301,1821,2.88728,-22.0521
84,-797,4.04321,21.7073,0.104824,-0.0493784,0.0577489,0.124053,-0.0686076,0.321431,0.112758,0.0464958,1308,1821,4.04321,-21.7073
91,-797,5.15698,21.4425,0.0899668,-0.0305684,0.0500592,0.108045,-0.0486469,0.346566,0.0926076,0.0470297,1315,1821,5.15696,-21.4424
98,-797,6.29041,21.1665,0.072884,-0.0115081,0.0427783,0.0907753,-0.0293994,0.396125,0.0723363,0.0468288,1322,1821,6.29035,-21.1665
105,-797,7.37048,20.814,0,0,0,0,0,0,0,-1,1329,1821,7.37044,-20.814
112,-797,8.46985,20.5012,0,0,0,0,0,0,0,-1,1336,1821,8.4698,-20.5012
119,-797,4.35864,21.2798,0,0,0,0,0,0,0,-1,1343,1821,4.35866,-21.2798
126,-797,3.33179,19.0038,0,0,0,0,0,0,0,-1,1350,1821,3.33177,-19.0038
133,-797,2.6012,19.1061,-0.0677448,0.141112,0.0107902,0.141668,-0.0683008,1.51932,0.123668,0.0486449,1357,1821,2.60125,-19.106
140,-797,1.98914,19.1497,-0.0912575,0.174114,0.00497314,0.174207,-0.0913506,1.55206,0.155788,0.0471664,1364,1821,1.98917,-19.1497
147,-797,1.19849,19.5856,0,0,0,0,0,0,0,-1,1371,1821,1.1985,-19.5856
154,-797,14.49,10.5256,0,0,0,0,0,0,0,-1,1378,1821,14.49,-10.5256
161,-797,6.79199,1.12952,0,0,0,0,0,0,0,-1,1385,1821,6.79203,-1.12957
168,-797,0,0,0,0,0,0,0,0,0,-1,1392,1821,0,0
175,-797,0,0,0,0,0,0,0,0,0,-1,1399,1821,0,0
182,-797,0,0,0,0,0,0,0,0,0,-1,1406,1821,0,0
189,-797,0,0,0,0,0,0,0,0,0,-1,1413,1821,0,0
196,-797,0,0,0,0,0,0,0,0,0,-1,1420,1821,0,0
203,-797,0,0,0,0,0,0,0,0,0,-1,1427,1821,0,0
210,-797,0,0,0,0,0,0,0,0,0,-1,1434,1821,0,0
217,-797,0,0,0,0,0,0,0,0,0,-1,1441,1821,0,0
224,-797,0,0,0,0,0,0,0,0,0,-1,1448,1821,0,0
231,-797,0,0,0,0,0,0,0,0,0,-1,1455,1821,0,0
238,-797,0,0,0,0,0,0,0,0,0,-1,1462,1821,0,0
245,-797,0,0,0,0,0,0,0,0,0,-1,1469,1821,0,0
252,-797,0,0,0,0,0,0,0,0,0,-1,1476,1821,0,0
259,-797,0,0,0,0,0,0,0,0,0,-1,1483,1821,0,0
266,-797,0,0,0,0,0,0,0,0,0,-1,1490,1821,0,0
273,-797,0,0,0,0,0,0,0,0,0,-1,1497,1821,0,0
280,-797,0,0,0,0,0,0,0,0,0,-1,1504,1821,0,0
287,-797,0,0,0,0,0,0,0,0,0,-1,1511,1821,0,0
294,-797,0,0,0,0,0,0,0,0,0,-1,1518,1821,0,0
301,-797,0,0,0,0,0,0,0,0,0,-1,1525,1821,0,0
308,-797,0,0,0,0,0,0,0,0,0,-1,1532,1821,0,0
315,-797,0,0,0,0,0,0,0,0,0,-1,1539,1821,0,0
322,-797,0,0,0,0,0,0,0,0,0,-1,1546,1821,0,0
329,-797,0,0,0,0,0,0,0,0,0,-1,1553,1821,0,0
336,-797,0,0,0,0,0,0,0,0,0,-1,1560,1821,0,0
343,-797,0,0,0,0,0,0,0,0,0,-1,1567,1821,0,0
350,-797,0,0,0,0,0,0,0,0,0,-1,1574,1821,0,0
357,-797,0,0,0,0,0,0,0,0,0,-1,1581,1821,0,0
364,-797,0,0,0,0,0,0,0,0,0,-1,1588,1821,0,0
371,-797,0,0,0,0,0,0,0,0,0,-1,1595,1821,0,0
378,-797,0,0,0,0,0,0,0,0,0,-1,1602,1821,0,0
385,-797,0,0,0,0,0,0,0,0,0,-1,1609,1821,0,0
392,-797,0,0,0,0,0,0,0,0,0,-1,1616,1821,0,0
399,-797,0,0,0,0,0,0,0,0,0,-1,1623,1821,0,0
406,-797,0,0,0,0,0,0,0,0,0,-1,1630,1821,0,0
413,-797,0,0,0,0,0,0,0,0,0,-1,1637,1821,0,0
420,-797,0,0,0,0,0,0,0,0,0,-1,1644,1821,0,0
427,-797,0,0,0,0,0,0,0,0,0,-1,1651,1821,0,0
434,-797,0,0,0,0,0,0,0,0,0,-1,1658,1821,0,0
441,-797,0,0,0,0,0,0,0,0,0,-1,1665,1821,0,0
448,-797,0,0,0,0,0,0,0,0,0,-1,1672,1821,0,0
455,-797,0,0,0,0,0,0,0,0,0,-1,1679,1821,0,0
462,-797,0,0,0,0,0,0,0,0,0,-1,1686,1821,0,0
469,-797,0,0,0,0,0,0,0,0,0,-1,1693,1821,0,0
476,-797,0,0,0,0,0,0,0,0,0,-1,1700,1821,0,0
483,-797,0,0,0,0,0,0,0,0,0,-1,1707,1821,0,0
490,-797,0,0,0,0,0,0,0,0,0,-1,1714,1821,0,0
497,-797,0,0,0,0,0,0,0,0,0,-1,1721,1821,0,0
504,-797,0,0,0,0,0,0,0,0,0,-1,1728,1821,0,0
511,-797,0,0,0,0,0,0,0,0,0,-1,1735,1821,0,0
518,-797,0,0,0,0,0,0,0,0,0,-1,1742,1821,0,0
525,-797,0,0,0,0,0,0,0,0,0,-1,1749,1821,0,0
532,-797,0,0,0,0,0,0,0,0,0,-1,1756,1821,0,0
539,-797,0,0,0,0,0,0,0,0,0,-1,1763,1821,0,0
546,-797,0,0,0,0,0,0,0,0,0,-1,1770,1821,0,0
553,-797,0,0,0,0,0,0,0,0,0,-1,1777,1821,0,0
560,-797,0,0,0,0,0,0,0,0,0,-1,1784,1821,0,0
567,-797,0,0,0,0,0,0,0,0,0,-1,1791,1821,0,0
574,-797,0,0,0,0,0,0,0,0,0,-1,1798,1821,0,0
581,-797,0,0,0,0,0,0,0,0,0,-1,1805,1821,0,0
588,-797,0,0,0,0,0,0,0,0,0,-1,1812,1821,0,0
595,-797,0,0,0,0,0,0,0,0,0,-1,1819,1821,0,0
602,-797,0,0,0,0,0,0,0,0,0,-1,1826,1821,0,0
609,-797,0,0,0,0,0,0,0,0,0,-1,1833,1821,0,0
616,-797,0,0,0,0,0,0,0,0,0,-1,1840,1821,0,0
623,-797,0,0,0,0,0,0,0,0,0,-1,1847,1821,0,0
630,-797,0,0,0,0,0,0,0,0,0,-1,1854,1821,0,0
637,-797,0,0,0,0,0,0,0,0,0,-1,1861,1821,0,0
644,-797,0,0,0,0,0,0,0,0,0,-1,1868,1821,0,0
651,-797,0,0,0,0,0,0,0,0,0,-1,1875,1821,0,0
658,-797,0,0,0,0,0,0,0,0,0,-1,1882,1821,0,0
665,-797,0,0,0,0,0,0,0,0,0,-1,1889,1821,0,0
672,-797,0,0,0,0,0,0,0,0,0,-1,1896,1821,0,0
679,-797,0,0,0,0,0,0,0,0,0,-1,1903,1821,0,0
686,-797,0,0,0,0,0,0,0,0,0,-1,1910,1821,0,0
693,-797,0,0,0,0,0,0,0,0,0,-1,1917,1821,0,0
700,-797,0,0,0,0,0,0,0,0,0,-1,1924,1821,0,0
707,-797,0,0,0,0,0,0,0,0,0,-1,1931,1821,0,0
714,-797,0,0,0,0,0,0,0,0,0,-1,1938,1821,0,0
721,-797,0,0,0,0,0,0,0,0,0,-1,1945,1821,0,0
728,-797,0,0,0,0,0,0,0,0,0,-1,1952,1821,0,0
735,-797,0,0,0,0,0,0,0,0,0,-1,1959,1821,0,0
742,-797,0,0,0,0,0,0,0,0,0,-1,1966,1821,0,0
749,-797,0,0,0,0,0,0,0,0,0,-1,1973,1821,0,0
756,-797,0,0,0,0,0,0,0,0,0,-1,1980,1821,0,0
763,-797,0,0,0,0,0,0,0,0,0,-1,1987,1821,0,0
770,-797,0,0,0,0,0,0,0,0,0,-1,1994,1821,0,0
777,-797,0,0,0,0,0,0,0,0,0,-1,2001,1821,0,0
784,-797,0,0,0,0,0,0,0,0,0,-1,2008,1821,0,0
791,-797,0,0,0,0,0,0,0,0,0,-1,2015,1821,0,0
798,-797,0,0,0,0,0,0,0,0,0,-1,2022,1821,0,0
805,-797,0,0,0,0,0,0,0,0,0,-1,2029,1821,0,0
812,-797,0,0,0,0,0,0,0,0,0,-1,2036,1821,0,0
-700,-804,0,0,0,0,0,0,0,0,0,-1,524,1828,0,0
-693,-804,0,0,0,0,0,0,0,0,0,-1,531,1828,0,0
-686,-804,0,0,0,0,0,0,0,0,0,-1,538,1828,0,0
-679,-804,0,0,0,0,0,0,0,0,0,-1,545,1828,0,0
-672,-804,0,0,0,0,0,0,0,0,0,-1,552,1828,0,0
-665,-804,0,0,0,0,0,0,0,0,0,-1,559,1828,0,0
-658,-804,0,0,0,0,0,0,0,0,0,-1,566,1828,0,0
-651,-804,0,0,0,0,0,0,0,0,0,-1,573,1828,0,0
-644,-804,0,0,0,0,0,0,0,0,0,-1,580,1828,0,0
-637,-804,0,0,0,0,0,0,0,0,0,-1,587,1828,0,0
-630,-804,0,0,0,0,0,0,0,0,0,-1,594,1828,0,0
-623,-804,0,0,0,0,0,0,0,0,0,-1,601,1828,0,0
-616,-804,0,0,0,0,0,0,0,0,0,-1,608,1828,0,0
-609,-804,0,0,0,0,0,0,0,0,0,-1,615,1828,0,0
-602,-804,0,0,0,0,0,0,0,0,0,-1,622,1828,0,0
-595,-804,0,0,0,0,0,0,0,0,0,-1,629,1828,0,0
-588,-804,0,0,0,0,0,0,0,0,0,-1,636,1828,0,0
-581,-804,0,0,0,0,0,0,0,0,0,-1,643,1828,0,0
-574,-804,0,0,0,0,0,0,0,0,0,-1,650,1828,0,0
-567,-804,0,0,0,0,0,0,0,0,0,-1,657,1828,0,0
-560,-804,0,0,0,0,0,0,0,0,0,-1,664,1828,0,0
-553,-804,0,0,0,0,0,0,0,0,0,-1,671,1828,0,0
-546,-804,0,0,0,0,0,0,0,0,0,-1,678,1828,0,0
-539,-804,0,0,0,0,0,0,0,0,0,-1,685,1828,0,0
-532,-804,0,0,0,0,0,0,0,0,0,-1,692,1828,0,0
-525,-804,0,0,0,0,0,0,0,0,0,-1,699,1828,0,0
-518,-804,0,0,0,0,0,0,0,0,0,-1,706,1828,0,0
-511,-804,0,0,0,0,0,0,0,0,0,-1,713,1828,0,0
-504,-804,0,0,0,0,0,0,0,0,0,-1,720,1828,0,0
-497,-804,0,0,0,0,0,0,0,0,0,-1,727,1828,0,0
-490,-804,0,0,0,0,0,0,0,0,0,-1,734,1828,0,0
-483,-804,0,0,0,0,0,0,0,0,0,-1,741,1828,0,0
-476,-804,0,0,0,0,0,0,0,0,0,-1,748,1828,0,0
-469,-804,0,0,0,0,0,0,0,0,0,-1,755,1828,0,0
-462,-804,0,0,0,0,0,0,0,0,0,-1,762,1828,0,0
-455,-804,0,0,0,0,0,0,0,0,0,-1,769,1828,0,0
-448,-804,0,0,0,0,0,0,0,0,0,-1,776,1828,0,0
-441,-804,0,0,0,0,0,0,0,0,0,-1,783,1828,0,0
-434,-804,0,0,0,0,0,0,0,0,0,-1,790,1828,0,0
-427,-804,0,0,0,0,0,0,0,0,0,-1,797,1828,0,0
-420,-804,0,0,0,0,0,0,0,0,0,-1,804,1828,0,0
-413,-804,0,0,0,0,0,0,0,0,0,-1,811,1828,0,0
-406,-804,0,0,0,0,0,0,0,0,0,-1,818,1828,0,0
-399,-804,0,0,0,0,0,0,0,0,0,-1,825,1828,0,0
-392,-804,0,0,0,0,0,0,0,0,0,-1,832,1828,0,0
-385,-804,0,0,0,0,0,0,0,0,0,-1,839,1828,0,0
-378,-804,0,0,0,0,0,0,0,0,0,-1,846,1828,0,0
-371,-804,0,0,0,0,0,0,0,0,0,-1,853,1828,0,0
-364,-804,0,0,0,0,0,0,0,0,0,-1,860,1828,0,0
-357,-804,0,0,0,0,0,0,0,0,0,-1,867,1828,0,0
-350,-804,0,0,0,0,0,0,0,0,0,-1,874,1828,0,0
-343,-804,0,0,0,0,0,0,0,0,0,-1,881,1828,0,0
-336,-804,0,0,0,0,0,0,0,0,0,-1,888,1828,0,0
-329,-804,0,0,0,0,0,0,0,0,0,-1,895,1828,0,0
-322,-804,0,0,0,0,0,0,0,0,0,-1,902,1828,0,0
-315,-804,0,0,0,0,0,0,0,0,0,-1,909,1828,0,0
-308,-804,0,0,0,0,0,0,0,0,0,-1,916,1828,0,0
-301,-804,0,0,0,0,0,0,0,0,0,-1,923,1828,0,0
-294,-804,0,0,0,0,0,0,0,0,0,-1,930,1828,0,0
-287,-804,0,0,0,0,0,0,0,0,0,-1,937,1828,0,0
-280,-804,0,0,0,0,0,0,0,0,0,-1,944,1828,0,0
-273,-804,0,0,0,0,0,0,0,0,0,-1,951,1828,0,0
-266,-804,0,0,0,0,0,0,0,0,0,-1,958,1828,0,0
-259,-804,0,0,0,0,0,0,0,0,0,-1,965,1828,0,0
-252,-804,0,0,0,0,0,0,0,0,0,-1,972,1828,0,0
-245,-804,0,0,0,0,0,0,0,0,0,-1,979,1828,0,0
-238,-804,0,0,0,0,0,0,0,0,0,-1,986,1828,0,0
-231,-804,0,0,0,0,0,0,0,0,0,-1,993,1828,0,0
-224,-804,0,0,0,0,0,0,0,0,0,-1,1000,1828,0,0
-217,-804,0,0,0,0,0,0,0,0,0,-1,1007,1828,0,0
-210,-804,0,0,0,0,0,0,0,0,0,-1,1014,1828,0,0
-203,-804,0,0,0,0,0,0,0,0,0,-1,1021,1828,0,0
-196,-804,0,0,0,0,0,0,0,0,0,-1,1028,1828,0,0
-189,-804,0,0,0,0,0,0,0,0,0,-1,1035,1828,0,0
-182,-804,0,0,0,0,0,0,0,0,0,-1,1042,1828,0,0
-175,-804,0,0,0,0,0,0,0,0,0,-1,1049,1828,0,0
-168,-804,0,0,0,0,0,0,0,0,0,-1,1056,1828,0,0
-161,-804,0,0,0,0,0,0,0,0,0,-1,1063,1828,0,0
-154,-804,0,0,0,0,0,0,0,0,0,-1,1070,1828,0,0
-147,-804,0,0,0,0,0,0,0,0,0,-1,1077,1828,0,0
-140,-804,0,0,0,0,0,0,0,0,0,-1,1084,1828,0,0
-133,-804,0,0,0,0,0,0,0,0,0,-1,1091,1828,0,0
-126,-804,0,0,0,0,0,0,0,0,0,-1,1098,1828,0,0
-119,-804,0,0,0,0,0,0,0,0,0,-1,1105,1828,0,0
-112,-804,0,0,0,0,0,0,0,0,0,-1,1112,1828,0,0
-105,-804,0,0,0,0,0,0,0,0,0,-1,1119,1828,0,0
-98,-804,0,0,0,0,0,0,0,0,0,-1,1126,1828,0,0
-91,-804,0,0,0,0,0,0,0,0,0,-1,1133,1828,0,0
-84,-804,0,0,0,0,0,0,0,0,0,-1,1140,1828,0,0
-77,-804,0,0,0,0,0,0,0,0,0,-1,1147,1828,0,0
-70,-804,0,0,0,0,0,0,0,0,0,-1,1154,1828,0,0
-63,-804,0,0,0,0,0,0,0,0,0,-1,1161,1828,0,0
-56,-804,0,0,0,0,0,0,0,0,0,-1,1168,1828,0,0
-49,-804,0,0,0,0,0,0,0,0,0,-1,1175,1828,0,0
-42,-804,0,0,0,0,0,0,0,0,0,-1,1182,1828,0,0
-35,-804,0,0,0,0,0,0,0,0,0,-1,1189,1828,0,0
-28,-804,0,0,0,0,0,0,0,0,0,-1,1196,1828,0,0
-21,-804,0,0,0,0,0,0,0,0,0,-1,1203,1828,0,0
-14,-804,0,0,0,0,0,0,0,0,0,-1,1210,1828,0,0
-7,-804,0,0,0,0,0,0,0,0,0,-1,1217,1828,0,0
0,-804,0,0,0,0,0,0,0,0,0,-1,1224,1828,0,0
7,-804,0,0,0,0,0,0,0,0,0,-1,1231,1828,0,0
14,-804,0,0,0,0,0,0,0,0,0,-1,1238,1828,0,0
21,-804,0,0,0,0,0,0,0,0,0,-1,1245,1828,0,0
28,-804,0,0,0,0,0,0,0,0,0,-1,1252,1828,0,0
35,-804,-3.47095,18.3574,0,0,0,0,0,0,0,-1,1259,1828,-3.4709,-18.3574
42,-804,-2.91052,19.3579,0.0865793,-0.073714,0.10685,0.140001,-0.127135,0.46362,0.15429,0.047325,1266,1828,-2.91058,-19.3579
49,-804,-2.77002,21.0529,0.103686,-0.0763652,0.110119,0.155895,-0.128575,0.442729,0.164491,0.0443614,1273,1828,-2.77005,-21.0528
56,-804,-0.908936,22.8451,0.12015,-0.0790691,0.103241,0.164,-0.122919,0.401648,0.166218,0.0484575,1280,1828,-0.908898,-22.8451
63,-804,0.0981445,22.8107,0.134265,-0.0808107,0.0951654,0.170326,-0.116872,0.362219,0.166769,0.0452861,1287,1828,0.0980912,-22.8107
70,-804,1.00037,22.9523,0.144953,-0.081072,0.0869623,0.174538,-0.110658,0.32793,0.166029,0.0439486,1294,1828,1.0004,-22.9523
77,-804,1.9856,22.7871,0.147559,-0.0770747,0.0781766,0.172087,-0.101603,0.30403,0.159752,0.0447103,1301,1828,1.98555,-22.7871
84,-804,2.88818,22.6075,0.139309,-0.0638209,0.0689679,0.160512,-0.0850241,0.298264,0.143976,0.0466308,1308,1828,2.88815,-22.6076
91,-804,0,0,0,0,0,0,0,0,0,-1,1315,1828,0,0
98,-804,0,0,0,0,0,0,0,0,0,-1,1322,1828,0,0
105,-804,0,0,0,0,0,0,0,0,0,-1,1329,1828,0,0
112,-804,0,0,0,0,0,0,0,0,0,-1,1336,1828,0,0
119,-804,0,0,0,0,0,0,0,0,0,-1,1343,1828,0,0
126,-804,0,0,0,0,0,0,0,0,0,-1,1350,1828,0,0
133,-804,0,0,0,0,0,0,0,0,0,-1,1357,1828,0,0
140,-804,0,0,0,0,0,0,0,0,0,-1,1364,1828,0,0
147,-804,0,0,0,0,0,0,0,0,0,-1,1371,1828,0,0
154,-804,0,0,0,0,0,0,0,0,0,-1,1378,1828,0,0
161,-804,0,0,0,0,0,0,0,0,0,-1,1385,1828,0,0
168,-804,0,0,0,0,0,0,0,0,0,-1,1392,1828,0,0
175,-804,0,0,0,0,0,0,0,0,0,-1,1399,1828,0,0
182,-804,0,0,0,0,0,0,0,0,0,-1,1406,1828,0,0
189,-804,0,0,0,0,0,0,0,0,0,-1,1413,1828,0,0
196,-804,0,0,0,0,0,0,0,0,0,-1,1420,1828,0,0
203,-804,0,0,0,0,0,0,0,0,0,-1,1427,1828,0,0
210,-804,0,0,0,0,0,0,0,0,0,-1,1434,1828,0,0
217,-804,0,0,0,0,0,0,0,0,0,-1,1441,1828,0,0
224,-804,0,0,0,0,0,0,0,0,0,-1,1448,1828,0,0
231,-804,0,0,0,0,0,0,0,0,0,-1,1455,1828,0,0
238,-804,0,0,0,0,0,0,0,0,0,-1,1462,1828,0,0
245,-804,0,0,0,0,0,0,0,0,0,-1,1469,1828,0,0
252,-804,0,0,0,0,0,0,0,0,0,-1,1476,1828,0,0
259,-804,0,0,0,0,0,0,0,0,0,-1,1483,1828,0,0
266,-804,0,0,0,0,0,0,0,0,0,-1,1490,1828,0,0
273,-804,0,0,0,0,0,0,0,0,0,-1,1497,1828,0,0
280,-804,0,0,0,0,0,0,0,0,0,-1,1504,1828,0,0
287,-804,0,0,0,0,0,0,0,0,0,-1,1511,1828,0,0
294,-804,0,0,0,0,0,0,0,0,0,-1,1518,1828,0,0
301,-804,0,0,0,0,0,0,0,0,0,-1,1525,1828,0,0
308,-804,0,0,0,0,0,0,0,0,0,-1,1532,1828,0,0
315,-804,0,0,0,0,0,0,0,0,0,-1,1539,1828,0,0
322,-804,0,0,0,0,0,0,0,0,0,-1,1546,1828,0,0
329,-804,0,0,0,0,0,0,0,0,0,-1,1553,1828,0,0
336,-804,0,0,0,0,0,0,0,0,0,-1,1560,1828,0,0
343,-804,0,0,0,0,0,0,0,0,0,-1,1567,1828,0,0
350,-804,0,0,0,0,0,0,0,0,0,-1,1574,1828,0,0
357,-804,0,0,0,0,0,0,0,0,0,-1,1581,1828,0,0
364,-804,0,0,0,0,0,0,0,0,0,-1,1588,1828,0,0
371,-804,0,0,0,0,0,0,0,0,0,-1,1595,1828,0,0
378,-804,0,0,0,0,0,0,0,0,0,-1,1602,1828,0,0
385,-804,0,0,0,0,0,0,0,0,0,-1,1609,1828,0,0
392,-804,0,0,0,0,0,0,0,0,0,-1,1616,1828,0,0
399,-804,0,0,0,0,0,0,0,0,0,-1,1623,1828,0,0
406,-804,0,0,0,0,0,0,0,0,0,-1,1630,1828,0,0
413,-804,0,0,0,0,0,0,0,0,0,-1,1637,1828,0,0
420,-804,0,0,0,0,0,0,0,0,0,-1,1644,1828,0,0
427,-804,0,0,0,0,0,0,0,0,0,-1,1651,1828,0,0
434,-804,0,0,0,0,0,0,0,0,0,-1,1658,1828,0,0
441,-804,0,0,0,0,0,0,0,0,0,-1,1665,1828,0,0
448,-804,0,0,0,0,0,0,0,0,0,-1,1672,1828,0,0
455,-804,0,0,0,0,0,0,0,0,0,-1,1679,1828,0,0
462,-804,0,0,0,0,0,0,0,0,0,-1,1686,1828,0,0
469,-804,0,0,0,0,0,0,0,0,0,-1,1693,1828,0,0
476,-804,0,0,0,0,0,0,0,0,0,-1,1700,1828,0,0
483,-804,0,0,0,0,0,0,0,0,0,-1,1707,1828,0,0
490,-804,0,0,0,0,0,0,0,0,0,-1,1714,1828,0,0
497,-804,0,0,0,0,0,0,0,0,0,-1,1721,1828,0,0
504,-804,0,0,0,0,0,0,0,0,0,-1,1728,1828,0,0
511,-804,0,0,0,0,0,0,0,0,0,-1,1735,1828,0,0
518,-804,0,0,0,0,0,0,0,0,0,-1,1742,1828,0,0
525,-804,0,0,0,0,0,0,0,0,0,-1,1749,1828,0,0
532,-804,0,0,0,0,0,0,0,0,0,-1,1756,1828,0,0
539,-804,0,0,0,0,0,0,0,0,0,-1,1763,1828,0,0
546,-804,0,0,0,0,0,0,0,0,0,-1,1770,1828,0,0
553,-804,0,0,0,0,0,0,0,0,0,-1,1777,1828,0,0
560,-804,0,0,0,0,0,0,0,0,0,-1,1784,1828,0,0
567,-804,0,0,0,0,0,0,0,0,0,-1,1791,1828,0,0
574,-804,0,0,0,0,0,0,0,0,0,-1,1798,1828,0,0
581,-804,0,0,0,0,0,0,0,0,0,-1,1805,1828,0,0
588,-804,0,0,0,0,0,0,0,0,0,-1,1812,1828,0,0
595,-804,0,0,0,0,0,0,0,0,0,-1,1819,1828,0,0
602,-804,0,0,0,0,0,0,0,0,0,-1,1826,1828,0,0
609,-804,0,0,0,0,0,0,0,0,0,-1,1833,1828,0,0
616,-804,0,0,0,0,0,0,0,0,0,-1,1840,1828,0,0
623,-804,0,0,0,0,0,0,0,0,0,-1,1847,1828,0,0
630,-804,0,0,0,0,0,0,0,0,0,-1,1854,1828,0,0
637,-804,0,0,0,0,0,0,0,0,0,-1,1861,1828,0,0
644,-804,0,0,0,0,0,0,0,0,0,-1,1868,1828,0,0
651,-804,0,0,0,0,0,0,0,0,0,-1,1875,1828,0,0
658,-804,0,0,0,0,0,0,0,0,0,-1,1882,1828,0,0
665,-804,0,0,0,0,0,0,0,0,0,-1,1889,1828,0,0
672,-804,0,0,0,0,0,0,0,0,0,-1,1896,1828,0,0
679,-804,0,0,0,0,0,0,0,0,0,-1,1903,1828,0,0
686,-804,0,0,0,0,0,0,0,0,0,-1,1910,1828,0,0
693,-804,0,0,0,0,0,0,0,0,0,-1,1917,1828,0,0
700,-804,0,0,0,0,0,0,0,0,0,-1,1924,1828,0,0
707,-804,0,0,0,0,0,0,0,0,0,-1,1931,1828,0,0
714,-804,0,0,0,0,0,0,0,0,0,-1,1938,1828,0,0
721,-804,0,0,0,0,0,0,0,0,0,-1,1945,1828,0,0
728,-804,0,0,0,0,0,0,0,0,0,-1,1952,1828,0,0
735,-804,0,0,0,0,0,0,0,0,0,-1,1959,1828,0,0
742,-804,0,0,0,0,0,0,0,0,0,-1,1966,1828,0,0
749,-804,0,0,0,0,0,0,0,0,0,-1,1973,1828,0,0
756,-804,0,0,0,0,0,0,0,0,0,-1,1980,1828,0,0
763,-804,0,0,0,0,0,0,0,0,0,-1,1987,1828,0,0
770,-804,0,0,0,0,0,0,0,0,0,-1,1994,1828,0,0
777,-804,0,0,0,0,0,0,0,0,0,-1,2001,1828,0,0
784,-804,0,0,0,0,0,0,0,0,0,-1,2008,1828,0,0
791,-804,0,0,0,0,0,0,0,0,0,-1,2015,1828,0,0
798,-804,0,0,0,0,0,0,0,0,0,-1,2022,1828,0,0
805,-804,0,0,0,0,0,0,0,0,0,-1,2029,1828,0,0
812,-804,0,0,0,0,0,0,0,0,0,-1,2036,1828,0,0

